##TITLE=3-Azulenesulfonic acid, 1,4-dimethyl-7-isopropyl-, sodium salt, hydrate
##JCAMP-DX=4.24
##DATA TYPE=INFRARED SPECTRUM
##CLASS=COBLENTZ III
##ORIGIN=SMITH, KLINE & FRENCH LABS.
##OWNER=Copyright (C) 1987 by the Coblentz Society
Collection (C) 2018 copyright by the U.S. Secretary of Commerce
on behalf of the United States of America. All rights reserved.
##DATE=Not specified, most likely prior to 1970
##MOLFORM=C15 H17 Na O3 S  * H2 O
##SOURCE REFERENCE=COBLENTZ NO. 7342
##$NIST ID=B6007342
##$NIST SOURCE=COBLENTZ
##$NIST IMAGE=cob7342
##SPECTROMETER/DATA SYSTEM=PERKIN-ELMER 21 (GRATING)
##INSTRUMENT PARAMETERS=NaCl PRISM
##STATE=SOLID (KBr DISC)
$$SPECTRAL CONTAMINATION DUE TO AN UNKNOWN AROUND 1685 CM^-^1
##SAMPLING PROCEDURE=TRANSMISSION
##RESOLUTION=2
##DATA PROCESSING=DIGITIZED BY COBLENTZ SOCIETY (BATCH II) FROM HARD COPY
##XUNITS=1/CM
##YUNITS=TRANSMITTANCE
##XFACTOR=1.0
##YFACTOR=1
##FIRSTX=663
##LASTX=4000
##FIRSTY=0.7167
##MAXX=4000
##MINX=663
##MAXY=0.7981
##MINY=0.0478
##NPOINTS=3338
##XYDATA=(X++(Y..Y))
663.000000 0.7167 0.7192 0.7211 0.7221 0.7149
668.000000 0.7189 0.7239 0.7260 0.7242 0.7216
673.000000 0.7132 0.6970 0.6822 0.6643 0.6493
678.000000 0.6484 0.6448 0.6606 0.6691 0.6829
683.000000 0.6986 0.7115 0.7235 0.7303 0.7332
688.000000 0.7347 0.7354 0.7354 0.7350 0.7347
693.000000 0.7346 0.7344 0.7343 0.7347 0.7350
698.000000 0.7340 0.7378 0.7310 0.7305 0.7309
703.000000 0.7315 0.7281 0.7249 0.7231 0.7217
708.000000 0.7208 0.7198 0.7196 0.7204 0.7232
713.000000 0.7264 0.7296 0.7330 0.7326 0.7282
718.000000 0.7245 0.7219 0.7211 0.7205 0.7213
723.000000 0.7221 0.7217 0.7207 0.7199 0.7190
728.000000 0.7181 0.7172 0.7139 0.7102 0.7046
733.000000 0.6959 0.6805 0.6622 0.6445 0.6413
738.000000 0.6609 0.6827 0.7041 0.7069 0.7069
743.000000 0.7064 0.7063 0.7058 0.7053 0.7045
748.000000 0.7037 0.7023 0.7005 0.6981 0.6950
753.000000 0.6928 0.6907 0.6889 0.6882 0.6890
758.000000 0.6901 0.6913 0.6924 0.6934 0.6939
763.000000 0.6943 0.6948 0.6959 0.6972 0.6990
768.000000 0.7008 0.7023 0.7035 0.7048 0.7060
773.000000 0.7066 0.7067 0.7067 0.7068 0.7080
778.000000 0.7093 0.7107 0.7127 0.7148 0.7157
783.000000 0.7155 0.7153 0.7163 0.7175 0.7186
788.000000 0.7197 0.7208 0.7218 0.7222 0.7227
793.000000 0.7259 0.7207 0.7191 0.7169 0.7125
798.000000 0.7081 0.6964 0.6847 0.6737 0.6598
803.000000 0.6454 0.6339 0.6263 0.6192 0.6149
808.000000 0.6132 0.6163 0.6259 0.6445 0.6630
813.000000 0.6857 0.7015 0.7121 0.7212 0.7278
818.000000 0.7332 0.7377 0.7404 0.7421 0.7436
823.000000 0.7451 0.7461 0.7505 0.7452 0.7426
828.000000 0.7401 0.7369 0.7334 0.7291 0.7233
833.000000 0.7168 0.7086 0.7045 0.7029 0.7026
838.000000 0.7059 0.7096 0.7146 0.7205 0.7257
843.000000 0.7304 0.7348 0.7383 0.7416 0.7438
848.000000 0.7459 0.7479 0.7491 0.7502 0.7512
853.000000 0.7515 0.7516 0.7513 0.7502 0.7533
858.000000 0.7481 0.7464 0.7445 0.7429 0.7429
863.000000 0.7433 0.7470 0.7490 0.7484 0.7479
868.000000 0.7473 0.7467 0.7461 0.7452 0.7442
873.000000 0.7433 0.7421 0.7402 0.7384 0.7364
878.000000 0.7324 0.7274 0.7217 0.7145 0.7068
883.000000 0.6949 0.6815 0.6637 0.6375 0.6264
888.000000 0.6224 0.6238 0.6268 0.6314 0.6395
893.000000 0.6592 0.6849 0.7066 0.7134 0.7160
898.000000 0.7175 0.7179 0.7139 0.7018 0.6874
903.000000 0.6597 0.6321 0.6045 0.5771 0.5521
908.000000 0.5490 0.5636 0.6024 0.6411 0.6744
913.000000 0.6817 0.6865 0.6916 0.6991 0.7055
918.000000 0.7090 0.7114 0.7117 0.7113 0.7146
923.000000 0.7063 0.7025 0.6974 0.6907 0.6819
928.000000 0.6720 0.6584 0.6437 0.6211 0.6076
933.000000 0.6008 0.6009 0.6026 0.6207 0.6408
938.000000 0.6609 0.6800 0.6989 0.7137 0.7209
943.000000 0.7257 0.7291 0.7324 0.7349 0.7371
948.000000 0.7393 0.7407 0.7413 0.7419 0.7424
953.000000 0.7430 0.7432 0.7431 0.7431 0.7430
958.000000 0.7419 0.7405 0.7392 0.7379 0.7358
963.000000 0.7328 0.7289 0.7241 0.7219 0.7216
968.000000 0.7235 0.7262 0.7287 0.7315 0.7340
973.000000 0.7359 0.7374 0.7387 0.7384 0.7381
978.000000 0.7379 0.7373 0.7367 0.7360 0.7352
983.000000 0.7342 0.7332 0.7322 0.7311 0.7294
988.000000 0.7277 0.7260 0.7235 0.7211 0.7174
993.000000 0.7125 0.7076 0.7009 0.6941 0.6867
998.000000 0.6790 0.6710 0.6612 0.6515 0.6440
1003.000000 0.6367 0.6294 0.6218 0.6131 0.6044
1008.000000 0.5946 0.5800 0.5751 0.5758 0.5807
1013.000000 0.5889 0.5990 0.6080 0.6187 0.6249
1018.000000 0.6287 0.6315 0.6341 0.6323 0.6282
1023.000000 0.6228 0.6157 0.6096 0.6036 0.5980
1028.000000 0.5924 0.5865 0.5806 0.5747 0.5691
1033.000000 0.5636 0.5576 0.5515 0.5455 0.5376
1038.000000 0.5294 0.5203 0.5060 0.4787 0.4480
1043.000000 0.4260 0.4080 0.3892 0.3693 0.3467
1048.000000 0.3259 0.3052 0.2831 0.2494 0.2297
1053.000000 0.2223 0.2195 0.2215 0.2203 0.2222
1058.000000 0.2290 0.2572 0.2999 0.3424 0.3848
1063.000000 0.4272 0.4695 0.5118 0.5631 0.5954
1068.000000 0.6076 0.6213 0.6277 0.6304 0.6322
1073.000000 0.6324 0.6326 0.6329 0.6332 0.6340
1078.000000 0.6355 0.6387 0.6569 0.6718 0.6812
1083.000000 0.6854 0.6864 0.6865 0.6865 0.6830
1088.000000 0.6798 0.6763 0.6734 0.6712 0.6700
1093.000000 0.6688 0.6665 0.6636 0.6583 0.6483
1098.000000 0.6394 0.6327 0.6310 0.6298 0.6296
1103.000000 0.6294 0.6289 0.6273 0.6209 0.6095
1108.000000 0.5978 0.5862 0.5749 0.5640 0.5535
1113.000000 0.5409 0.5259 0.5169 0.5131 0.5126
1118.000000 0.5107 0.5145 0.5220 0.5373 0.5622
1123.000000 0.5756 0.5772 0.5775 0.5774 0.5799
1128.000000 0.5590 0.5565 0.5543 0.5432 0.5313
1133.000000 0.5194 0.5029 0.4821 0.4614 0.4407
1138.000000 0.4199 0.3993 0.3787 0.3639 0.3465
1143.000000 0.3383 0.3349 0.3344 0.3319 0.3358
1148.000000 0.3436 0.3536 0.3634 0.3732 0.3831
1153.000000 0.3849 0.3861 0.3777 0.3667 0.3555
1158.000000 0.3445 0.3334 0.3225 0.3115 0.3005
1163.000000 0.2896 0.2786 0.2677 0.2568 0.2459
1168.000000 0.2282 0.2134 0.2036 0.1955 0.1876
1173.000000 0.1803 0.1732 0.1678 0.1628 0.1584
1178.000000 0.1565 0.1546 0.1525 0.1318 0.1127
1183.000000 0.0989 0.0898 0.0809 0.0720 0.0628
1188.000000 0.0564 0.0531 0.0502 0.0494 0.0487
1193.000000 0.0478 0.0500 0.0527 0.0624 0.0818
1198.000000 0.1069 0.1342 0.1419 0.1460 0.1483
1203.000000 0.1504 0.1514 0.1523 0.1532 0.1547
1208.000000 0.1625 0.1792 0.1965 0.2175 0.2385
1213.000000 0.2594 0.2803 0.3011 0.3220 0.3428
1218.000000 0.3635 0.3843 0.4049 0.4256 0.4473
1223.000000 0.4788 0.4998 0.5177 0.5323 0.5460
1228.000000 0.5593 0.5733 0.5878 0.6020 0.6147
1233.000000 0.6272 0.6397 0.6508 0.6618 0.6727
1238.000000 0.6819 0.6908 0.6980 0.7046 0.7111
1243.000000 0.7172 0.7218 0.7265 0.7310 0.7354
1248.000000 0.7384 0.7408 0.7433 0.7456 0.7480
1253.000000 0.7504 0.7529 0.7548 0.7565 0.7581
1258.000000 0.7597 0.7613 0.7629 0.7645 0.7659
1263.000000 0.7672 0.7685 0.7697 0.7710 0.7723
1268.000000 0.7734 0.7740 0.7744 0.7749 0.7753
1273.000000 0.7757 0.7756 0.7763 0.7762 0.7752
1278.000000 0.7734 0.7716 0.7698 0.7679 0.7656
1283.000000 0.7629 0.7602 0.7576 0.7550 0.7524
1288.000000 0.7497 0.7471 0.7444 0.7418 0.7392
1293.000000 0.7366 0.7339 0.7307 0.7271 0.7236
1298.000000 0.7200 0.7172 0.7154 0.7119 0.7168
1303.000000 0.7181 0.7193 0.7208 0.7229 0.7251
1308.000000 0.7273 0.7295 0.7307 0.7318 0.7323
1313.000000 0.7302 0.7289 0.7271 0.7241 0.7196
1318.000000 0.7143 0.7063 0.7019 0.6997 0.6989
1323.000000 0.6986 0.6985 0.6973 0.6951 0.6923
1328.000000 0.6840 0.6764 0.6722 0.6703 0.6699
1333.000000 0.6673 0.6699 0.6732 0.6783 0.6847
1338.000000 0.7017 0.7136 0.7185 0.7199 0.7204
1343.000000 0.7205 0.7229 0.7200 0.7187 0.7167
1348.000000 0.7133 0.7085 0.6975 0.6793 0.6602
1353.000000 0.6412 0.6221 0.6031 0.5842 0.5686
1358.000000 0.5588 0.5520 0.5456 0.5399 0.5283
1363.000000 0.5020 0.4732 0.4445 0.4158 0.3870
1368.000000 0.3616 0.3496 0.3472 0.3460 0.3463
1373.000000 0.3461 0.3513 0.3598 0.3684 0.3774
1378.000000 0.3881 0.3973 0.4000 0.4012 0.4016
1383.000000 0.4020 0.4024 0.4032 0.4064 0.4268
1388.000000 0.4573 0.4877 0.5180 0.5483 0.5786
1393.000000 0.6089 0.6291 0.6372 0.6447 0.6519
1398.000000 0.6580 0.6640 0.6677 0.6709 0.6739
1403.000000 0.6779 0.6828 0.6890 0.7007 0.7083
1408.000000 0.7086 0.7111 0.7092 0.7085 0.7077
1413.000000 0.7065 0.7048 0.7029 0.7010 0.6986
1418.000000 0.6959 0.6931 0.6899 0.6857 0.6814
1423.000000 0.6771 0.6727 0.6681 0.6618 0.6549
1428.000000 0.6481 0.6417 0.6354 0.6292 0.6231
1433.000000 0.6175 0.6124 0.6072 0.6024 0.5981
1438.000000 0.5939 0.5897 0.5861 0.5826 0.5790
1443.000000 0.5751 0.5707 0.5660 0.5599 0.5542
1448.000000 0.5504 0.5468 0.5431 0.5398 0.5375
1453.000000 0.5351 0.5331 0.5314 0.5298 0.5259
1458.000000 0.5220 0.5194 0.5175 0.5158 0.5134
1463.000000 0.5110 0.5073 0.5025 0.4995 0.4978
1468.000000 0.4960 0.4932 0.4914 0.4914 0.4914
1473.000000 0.4911 0.4932 0.4975 0.5062 0.5177
1478.000000 0.5331 0.5496 0.5660 0.5825 0.6003
1483.000000 0.6295 0.6407 0.6650 0.6923 0.7059
1488.000000 0.7140 0.7188 0.7232 0.7265 0.7292
1493.000000 0.7319 0.7338 0.7349 0.7360 0.7368
1498.000000 0.7366 0.7365 0.7364 0.7370 0.7360
1503.000000 0.7358 0.7355 0.7352 0.7274 0.7091
1508.000000 0.6995 0.6945 0.6919 0.6904 0.6889
1513.000000 0.6843 0.6746 0.6636 0.6526 0.6416
1518.000000 0.6307 0.6197 0.6088 0.5979 0.5870
1523.000000 0.5761 0.5655 0.5611 0.5607 0.5607
1528.000000 0.5606 0.5605 0.5604 0.5600 0.5596
1533.000000 0.5591 0.5585 0.5577 0.5566 0.5540
1538.000000 0.5473 0.5403 0.5370 0.5351 0.5342
1543.000000 0.5340 0.5339 0.5342 0.5316 0.5351
1548.000000 0.5372 0.5468 0.5722 0.5975 0.6227
1553.000000 0.6479 0.6696 0.6791 0.6849 0.6898
1558.000000 0.6939 0.6979 0.7015 0.7045 0.7076
1563.000000 0.7099 0.7116 0.7133 0.7150 0.7167
1568.000000 0.7185 0.7206 0.7228 0.7249 0.7271
1573.000000 0.7292 0.7357 0.7434 0.7467 0.7482
1578.000000 0.7514 0.7554 0.7584 0.7597 0.7556
1583.000000 0.7588 0.7580 0.7568 0.7553 0.7538
1588.000000 0.7523 0.7508 0.7492 0.7477 0.7464
1593.000000 0.7453 0.7441 0.7428 0.7414 0.7401
1598.000000 0.7387 0.7374 0.7361 0.7347 0.7334
1603.000000 0.7321 0.7310 0.7299 0.7288 0.7277
1608.000000 0.7265 0.7255 0.7246 0.7237 0.7229
1613.000000 0.7221 0.7219 0.7217 0.7217 0.7215
1618.000000 0.7215 0.7216 0.7216 0.7217 0.7218
1623.000000 0.7219 0.7221 0.7224 0.7227 0.7231
1628.000000 0.7234 0.7237 0.7240 0.7243 0.7246
1633.000000 0.7248 0.7251 0.7252 0.7254 0.7257
1638.000000 0.7247 0.7235 0.7222 0.7209 0.7198
1643.000000 0.7187 0.7176 0.7169 0.7169 0.7168
1648.000000 0.7168 0.7169 0.7181 0.7195 0.7211
1653.000000 0.7233 0.7257 0.7275 0.7286 0.7295
1658.000000 0.7304 0.7305 0.7298 0.7290 0.7274
1663.000000 0.7256 0.7238 0.7220 0.7202 0.7184
1668.000000 0.7165 0.7147 0.7135 0.7123 0.7111
1673.000000 0.7099 0.7089 0.7080 0.7070 0.7055
1678.000000 0.7029 0.6985 0.6906 0.6841 0.6800
1683.000000 0.6783 0.6777 0.6775 0.6775 0.6775
1688.000000 0.6776 0.6783 0.6790 0.6800 0.6815
1693.000000 0.6842 0.6882 0.6921 0.6958 0.6995
1698.000000 0.7033 0.7071 0.7109 0.7146 0.7184
1703.000000 0.7222 0.7259 0.7296 0.7334 0.7371
1708.000000 0.7408 0.7445 0.7483 0.7520 0.7557
1713.000000 0.7591 0.7623 0.7658 0.7696 0.7720
1718.000000 0.7740 0.7760 0.7779 0.7792 0.7799
1723.000000 0.7807 0.7814 0.7821 0.7825 0.7828
1728.000000 0.7831 0.7834 0.7837 0.7845 0.7853
1733.000000 0.7860 0.7868 0.7876 0.7877 0.7878
1738.000000 0.7879 0.7880 0.7880 0.7880 0.7877
1743.000000 0.7874 0.7871 0.7868 0.7865 0.7863
1748.000000 0.7859 0.7856 0.7853 0.7851 0.7847
1753.000000 0.7844 0.7841 0.7839 0.7837 0.7834
1758.000000 0.7832 0.7829 0.7827 0.7824 0.7822
1763.000000 0.7820 0.7817 0.7817 0.7818 0.7818
1768.000000 0.7818 0.7818 0.7818 0.7818 0.7818
1773.000000 0.7818 0.7818 0.7818 0.7819 0.7823
1778.000000 0.7829 0.7835 0.7842 0.7850 0.7858
1783.000000 0.7867 0.7875 0.7883 0.7892 0.7901
1788.000000 0.7911 0.7922 0.7933 0.7944 0.7950
1793.000000 0.7955 0.7961 0.7967 0.7972 0.7973
1798.000000 0.7975 0.7977 0.7979 0.7981 0.7980
1803.000000 0.7978 0.7976 0.7974 0.7971 0.7969
1808.000000 0.7965 0.7961 0.7958 0.7955 0.7952
1813.000000 0.7949 0.7946 0.7943 0.7940 0.7938
1818.000000 0.7935 0.7933 0.7930 0.7928 0.7925
1823.000000 0.7923 0.7920 0.7917 0.7915 0.7912
1828.000000 0.7910 0.7908 0.7908 0.7906 0.7905
1833.000000 0.7903 0.7902 0.7916 0.7899 0.7898
1838.000000 0.7899 0.7902 0.7904 0.7907 0.7910
1843.000000 0.7912 0.7915 0.7917 0.7920 0.7923
1848.000000 0.7925 0.7926 0.7924 0.7921 0.7919
1853.000000 0.7916 0.7913 0.7910 0.7907 0.7904
1858.000000 0.7900 0.7897 0.7893 0.7889 0.7885
1863.000000 0.7881 0.7878 0.7874 0.7870 0.7866
1868.000000 0.7862 0.7859 0.7855 0.7853 0.7851
1873.000000 0.7850 0.7848 0.7846 0.7845 0.7843
1878.000000 0.7841 0.7839 0.7838 0.7836 0.7834
1883.000000 0.7833 0.7830 0.7829 0.7827 0.7825
1888.000000 0.7823 0.7820 0.7818 0.7816 0.7814
1893.000000 0.7811 0.7809 0.7807 0.7805 0.7802
1898.000000 0.7800 0.7795 0.7789 0.7782 0.7776
1903.000000 0.7770 0.7763 0.7757 0.7750 0.7744
1908.000000 0.7737 0.7730 0.7722 0.7715 0.7707
1913.000000 0.7700 0.7692 0.7685 0.7678 0.7674
1918.000000 0.7672 0.7670 0.7667 0.7665 0.7662
1923.000000 0.7660 0.7660 0.7662 0.7664 0.7666
1928.000000 0.7669 0.7671 0.7674 0.7677 0.7681
1933.000000 0.7685 0.7690 0.7695 0.7699 0.7704
1938.000000 0.7710 0.7714 0.7721 0.7731 0.7743
1943.000000 0.7755 0.7767 0.7774 0.7778 0.7779
1948.000000 0.7780 0.7781 0.7781 0.7780 0.7779
1953.000000 0.7777 0.7775 0.7773 0.7771 0.7769
1958.000000 0.7768 0.7766 0.7763 0.7760 0.7756
1963.000000 0.7751 0.7747 0.7743 0.7739 0.7734
1968.000000 0.7730 0.7726 0.7722 0.7719 0.7716
1973.000000 0.7713 0.7710 0.7708 0.7705 0.7703
1978.000000 0.7700 0.7697 0.7694 0.7691 0.7689
1983.000000 0.7686 0.7683 0.7681 0.7679 0.7677
1988.000000 0.7675 0.7673 0.7671 0.7668 0.7667
1993.000000 0.7665 0.7663 0.7661 0.7659 0.7657
1998.000000 0.7655 0.7653 0.7652 0.7649 0.7647
2003.000000 0.7645 0.7643 0.7641 0.7639 0.7637
2008.000000 0.7636 0.7634 0.7632 0.7630 0.7628
2013.000000 0.7625 0.7624 0.7623 0.7621 0.7619
2018.000000 0.7618 0.7616 0.7615 0.7614 0.7612
2023.000000 0.7610 0.7609 0.7607 0.7605 0.7604
2028.000000 0.7603 0.7601 0.7600 0.7598 0.7596
2033.000000 0.7595 0.7594 0.7592 0.7590 0.7589
2038.000000 0.7588 0.7586 0.7584 0.7583 0.7582
2043.000000 0.7581 0.7580 0.7578 0.7577 0.7576
2048.000000 0.7575 0.7575 0.7574 0.7572 0.7571
2053.000000 0.7570 0.7569 0.7568 0.7566 0.7565
2058.000000 0.7564 0.7564 0.7563 0.7562 0.7560
2063.000000 0.7559 0.7558 0.7557 0.7556 0.7554
2068.000000 0.7553 0.7552 0.7551 0.7551 0.7550
2073.000000 0.7548 0.7546 0.7543 0.7540 0.7538
2078.000000 0.7535 0.7532 0.7529 0.7527 0.7524
2083.000000 0.7521 0.7519 0.7516 0.7513 0.7511
2088.000000 0.7508 0.7505 0.7503 0.7501 0.7498
2093.000000 0.7495 0.7492 0.7490 0.7487 0.7484
2098.000000 0.7482 0.7479 0.7479 0.7479 0.7481
2103.000000 0.7483 0.7486 0.7488 0.7490 0.7492
2108.000000 0.7494 0.7496 0.7498 0.7500 0.7503
2113.000000 0.7505 0.7507 0.7508 0.7510 0.7512
2118.000000 0.7512 0.7513 0.7514 0.7515 0.7515
2123.000000 0.7516 0.7516 0.7517 0.7518 0.7519
2128.000000 0.7520 0.7520 0.7521 0.7521 0.7522
2133.000000 0.7523 0.7524 0.7525 0.7525 0.7526
2138.000000 0.7526 0.7527 0.7528 0.7529 0.7529
2143.000000 0.7530 0.7530 0.7530 0.7528 0.7527
2148.000000 0.7525 0.7523 0.7522 0.7520 0.7519
2153.000000 0.7517 0.7515 0.7514 0.7512 0.7511
2158.000000 0.7509 0.7507 0.7506 0.7504 0.7503
2163.000000 0.7501 0.7499 0.7498 0.7497 0.7496
2168.000000 0.7495 0.7494 0.7493 0.7492 0.7491
2173.000000 0.7490 0.7489 0.7488 0.7487 0.7486
2178.000000 0.7484 0.7480 0.7477 0.7474 0.7471
2183.000000 0.7467 0.7464 0.7460 0.7457 0.7453
2188.000000 0.7450 0.7447 0.7443 0.7440 0.7437
2193.000000 0.7433 0.7430 0.7426 0.7423 0.7420
2198.000000 0.7417 0.7415 0.7412 0.7409 0.7405
2203.000000 0.7402 0.7399 0.7396 0.7394 0.7391
2208.000000 0.7388 0.7385 0.7382 0.7379 0.7376
2213.000000 0.7373 0.7370 0.7369 0.7368 0.7366
2218.000000 0.7365 0.7364 0.7363 0.7362 0.7361
2223.000000 0.7359 0.7358 0.7357 0.7356 0.7355
2228.000000 0.7354 0.7352 0.7351 0.7351 0.7351
2233.000000 0.7352 0.7353 0.7355 0.7357 0.7359
2238.000000 0.7360 0.7362 0.7363 0.7365 0.7366
2243.000000 0.7368 0.7369 0.7371 0.7373 0.7375
2248.000000 0.7376 0.7378 0.7379 0.7381 0.7382
2253.000000 0.7384 0.7386 0.7388 0.7389 0.7391
2258.000000 0.7392 0.7394 0.7396 0.7397 0.7399
2263.000000 0.7400 0.7402 0.7403 0.7404 0.7405
2268.000000 0.7407 0.7408 0.7410 0.7411 0.7412
2273.000000 0.7414 0.7415 0.7416 0.7417 0.7419
2278.000000 0.7421 0.7423 0.7424 0.7425 0.7427
2283.000000 0.7429 0.7431 0.7432 0.7434 0.7435
2288.000000 0.7437 0.7439 0.7440 0.7442 0.7443
2293.000000 0.7445 0.7446 0.7445 0.7443 0.7438
2298.000000 0.7434 0.7429 0.7424 0.7413 0.7402
2303.000000 0.7384 0.7366 0.7349 0.7331 0.7317
2308.000000 0.7304 0.7290 0.7277 0.7264 0.7252
2313.000000 0.7243 0.7243 0.7242 0.7242 0.7242
2318.000000 0.7242 0.7242 0.7243 0.7245 0.7247
2323.000000 0.7248 0.7250 0.7251 0.7253 0.7255
2328.000000 0.7257 0.7261 0.7265 0.7268 0.7271
2333.000000 0.7275 0.7279 0.7282 0.7285 0.7288
2338.000000 0.7291 0.7294 0.7297 0.7299 0.7301
2343.000000 0.7303 0.7306 0.7308 0.7311 0.7313
2348.000000 0.7316 0.7318 0.7320 0.7323 0.7325
2353.000000 0.7327 0.7329 0.7332 0.7334 0.7336
2358.000000 0.7338 0.7340 0.7341 0.7342 0.7343
2363.000000 0.7345 0.7345 0.7346 0.7348 0.7349
2368.000000 0.7350 0.7352 0.7353 0.7353 0.7354
2373.000000 0.7354 0.7354 0.7355 0.7355 0.7355
2378.000000 0.7355 0.7355 0.7355 0.7356 0.7356
2383.000000 0.7356 0.7356 0.7356 0.7357 0.7357
2388.000000 0.7357 0.7357 0.7357 0.7358 0.7358
2393.000000 0.7358 0.7358 0.7358 0.7358 0.7358
2398.000000 0.7358 0.7358 0.7356 0.7354 0.7353
2403.000000 0.7352 0.7350 0.7349 0.7348 0.7346
2408.000000 0.7345 0.7344 0.7343 0.7341 0.7339
2413.000000 0.7338 0.7336 0.7335 0.7334 0.7333
2418.000000 0.7331 0.7330 0.7329 0.7327 0.7326
2423.000000 0.7325 0.7323 0.7321 0.7320 0.7319
2428.000000 0.7317 0.7315 0.7314 0.7313 0.7311
2433.000000 0.7310 0.7308 0.7307 0.7305 0.7304
2438.000000 0.7302 0.7301 0.7299 0.7298 0.7297
2443.000000 0.7295 0.7293 0.7292 0.7291 0.7289
2448.000000 0.7287 0.7286 0.7285 0.7283 0.7282
2453.000000 0.7281 0.7280 0.7278 0.7278 0.7278
2458.000000 0.7278 0.7279 0.7279 0.7280 0.7280
2463.000000 0.7280 0.7281 0.7281 0.7282 0.7282
2468.000000 0.7283 0.7283 0.7283 0.7284 0.7284
2473.000000 0.7285 0.7285 0.7285 0.7286 0.7286
2478.000000 0.7287 0.7288 0.7288 0.7289 0.7290
2483.000000 0.7291 0.7292 0.7292 0.7293 0.7294
2488.000000 0.7295 0.7296 0.7296 0.7297 0.7297
2493.000000 0.7296 0.7296 0.7296 0.7295 0.7295
2498.000000 0.7294 0.7294 0.7294 0.7293 0.7293
2503.000000 0.7292 0.7292 0.7292 0.7291 0.7291
2508.000000 0.7290 0.7288 0.7287 0.7285 0.7283
2513.000000 0.7282 0.7280 0.7279 0.7277 0.7275
2518.000000 0.7274 0.7272 0.7271 0.7269 0.7268
2523.000000 0.7266 0.7264 0.7263 0.7261 0.7260
2528.000000 0.7258 0.7257 0.7255 0.7254 0.7252
2533.000000 0.7250 0.7249 0.7247 0.7246 0.7244
2538.000000 0.7243 0.7241 0.7240 0.7238 0.7236
2543.000000 0.7235 0.7233 0.7231 0.7229 0.7228
2548.000000 0.7227 0.7226 0.7225 0.7224 0.7222
2553.000000 0.7221 0.7220 0.7219 0.7218 0.7217
2558.000000 0.7215 0.7214 0.7213 0.7212 0.7211
2563.000000 0.7210 0.7209 0.7207 0.7206 0.7205
2568.000000 0.7204 0.7203 0.7202 0.7201 0.7200
2573.000000 0.7198 0.7197 0.7196 0.7195 0.7194
2578.000000 0.7193 0.7192 0.7190 0.7189 0.7188
2583.000000 0.7187 0.7186 0.7185 0.7184 0.7183
2588.000000 0.7181 0.7180 0.7179 0.7178 0.7177
2593.000000 0.7176 0.7175 0.7174 0.7173 0.7171
2598.000000 0.7170 0.7169 0.7168 0.7167 0.7166
2603.000000 0.7165 0.7164 0.7163 0.7161 0.7160
2608.000000 0.7159 0.7157 0.7156 0.7155 0.7154
2613.000000 0.7153 0.7152 0.7151 0.7149 0.7148
2618.000000 0.7147 0.7145 0.7143 0.7142 0.7140
2623.000000 0.7138 0.7136 0.7134 0.7133 0.7131
2628.000000 0.7129 0.7127 0.7125 0.7124 0.7122
2633.000000 0.7120 0.7118 0.7116 0.7115 0.7113
2638.000000 0.7111 0.7110 0.7108 0.7107 0.7105
2643.000000 0.7103 0.7101 0.7099 0.7098 0.7096
2648.000000 0.7094 0.7092 0.7089 0.7087 0.7084
2653.000000 0.7081 0.7078 0.7075 0.7073 0.7070
2658.000000 0.7067 0.7064 0.7061 0.7058 0.7055
2663.000000 0.7052 0.7049 0.7046 0.7043 0.7041
2668.000000 0.7038 0.7035 0.7032 0.7029 0.7027
2673.000000 0.7024 0.7021 0.7018 0.7015 0.7012
2678.000000 0.7009 0.7006 0.7003 0.7000 0.6998
2683.000000 0.6995 0.6994 0.6992 0.6990 0.6989
2688.000000 0.6987 0.6985 0.6983 0.6982 0.6980
2693.000000 0.6978 0.6976 0.6974 0.6972 0.6970
2698.000000 0.6969 0.6968 0.6967 0.6967 0.6967
2703.000000 0.6966 0.6966 0.6966 0.6965 0.6965
2708.000000 0.6964 0.6963 0.6963 0.6963 0.6962
2713.000000 0.6962 0.6962 0.6961 0.6961 0.6961
2718.000000 0.6960 0.6959 0.6959 0.6957 0.6955
2723.000000 0.6952 0.6949 0.6946 0.6943 0.6941
2728.000000 0.6938 0.6935 0.6933 0.6930 0.6927
2733.000000 0.6924 0.6921 0.6918 0.6914 0.6910
2738.000000 0.6906 0.6902 0.6898 0.6893 0.6889
2743.000000 0.6885 0.6881 0.6876 0.6872 0.6868
2748.000000 0.6863 0.6857 0.6852 0.6847 0.6841
2753.000000 0.6836 0.6831 0.6825 0.6819 0.6814
2758.000000 0.6808 0.6803 0.6797 0.6792 0.6787
2763.000000 0.6781 0.6776 0.6770 0.6764 0.6759
2768.000000 0.6753 0.6746 0.6738 0.6730 0.6721
2773.000000 0.6713 0.6705 0.6697 0.6689 0.6682
2778.000000 0.6674 0.6666 0.6658 0.6649 0.6641
2783.000000 0.6632 0.6623 0.6614 0.6604 0.6595
2788.000000 0.6586 0.6576 0.6566 0.6556 0.6545
2793.000000 0.6535 0.6522 0.6510 0.6497 0.6484
2798.000000 0.6471 0.6459 0.6446 0.6433 0.6420
2803.000000 0.6407 0.6394 0.6381 0.6367 0.6348
2808.000000 0.6329 0.6309 0.6290 0.6271 0.6251
2813.000000 0.6232 0.6213 0.6194 0.6167 0.6135
2818.000000 0.6104 0.6070 0.6033 0.5997 0.5956
2823.000000 0.5908 0.5859 0.5811 0.5762 0.5714
2828.000000 0.5665 0.5617 0.5569 0.5521 0.5473
2833.000000 0.5424 0.5376 0.5339 0.5312 0.5285
2838.000000 0.5265 0.5262 0.5258 0.5254 0.5251
2843.000000 0.5248 0.5245 0.5246 0.5247 0.5248
2848.000000 0.5250 0.5253 0.5256 0.5259 0.5261
2853.000000 0.5264 0.5267 0.5270 0.5273 0.5276
2858.000000 0.5279 0.5282 0.5285 0.5286 0.5286
2863.000000 0.5286 0.5285 0.5285 0.5284 0.5283
2868.000000 0.5276 0.5268 0.5261 0.5246 0.5230
2873.000000 0.5213 0.5198 0.5186 0.5173 0.5161
2878.000000 0.5149 0.5136 0.5124 0.5110 0.5097
2883.000000 0.5083 0.5066 0.5046 0.5026 0.5005
2888.000000 0.4985 0.4964 0.4944 0.4924 0.4903
2893.000000 0.4883 0.4863 0.4842 0.4822 0.4802
2898.000000 0.4782 0.4761 0.4741 0.4721 0.4701
2903.000000 0.4681 0.4660 0.4640 0.4620 0.4600
2908.000000 0.4580 0.4560 0.4540 0.4520 0.4500
2913.000000 0.4480 0.4460 0.4440 0.4420 0.4401
2918.000000 0.4381 0.4361 0.4341 0.4321 0.4301
2923.000000 0.4281 0.4261 0.4257 0.4252 0.4247
2928.000000 0.4245 0.4245 0.4245 0.4245 0.4245
2933.000000 0.4246 0.4246 0.4237 0.4322 0.4366
2938.000000 0.4419 0.4494 0.4570 0.4645 0.4720
2943.000000 0.4795 0.4870 0.4946 0.5021 0.5096
2948.000000 0.5171 0.5246 0.5321 0.5396 0.5471
2953.000000 0.5546 0.5621 0.5695 0.5770 0.5845
2958.000000 0.5919 0.5994 0.6068 0.6142 0.6216
2963.000000 0.6273 0.6328 0.6383 0.6421 0.6436
2968.000000 0.6451 0.6466 0.6470 0.6474 0.6477
2973.000000 0.6481 0.6484 0.6488 0.6492 0.6495
2978.000000 0.6498 0.6500 0.6503 0.6504 0.6506
2983.000000 0.6507 0.6508 0.6509 0.6511 0.6512
2988.000000 0.6513 0.6514 0.6516 0.6517 0.6518
2993.000000 0.6519 0.6520 0.6522 0.6524 0.6525
2998.000000 0.6528 0.6533 0.6538 0.6543 0.6547
3003.000000 0.6552 0.6557 0.6561 0.6566 0.6571
3008.000000 0.6576 0.6581 0.6586 0.6592 0.6597
3013.000000 0.6603 0.6609 0.6615 0.6620 0.6626
3018.000000 0.6631 0.6637 0.6642 0.6648 0.6654
3023.000000 0.6660 0.6661 0.6662 0.6664 0.6665
3028.000000 0.6666 0.6667 0.6668 0.6669 0.6670
3033.000000 0.6671 0.6673 0.6674 0.6675 0.6676
3038.000000 0.6676 0.6676 0.6675 0.6675 0.6674
3043.000000 0.6674 0.6673 0.6673 0.6677 0.6671
3048.000000 0.6671 0.6670 0.6670 0.6669 0.6669
3053.000000 0.6668 0.6667 0.6666 0.6666 0.6665
3058.000000 0.6665 0.6664 0.6663 0.6663 0.6662
3063.000000 0.6661 0.6660 0.6658 0.6656 0.6654
3068.000000 0.6652 0.6650 0.6648 0.6646 0.6644
3073.000000 0.6642 0.6640 0.6639 0.6636 0.6634
3078.000000 0.6632 0.6630 0.6626 0.6623 0.6620
3083.000000 0.6616 0.6612 0.6608 0.6604 0.6600
3088.000000 0.6596 0.6592 0.6588 0.6585 0.6581
3093.000000 0.6577 0.6574 0.6569 0.6564 0.6560
3098.000000 0.6555 0.6549 0.6544 0.6539 0.6533
3103.000000 0.6527 0.6522 0.6516 0.6510 0.6505
3108.000000 0.6499 0.6494 0.6488 0.6483 0.6477
3113.000000 0.6471 0.6466 0.6460 0.6455 0.6450
3118.000000 0.6443 0.6437 0.6430 0.6423 0.6416
3123.000000 0.6410 0.6403 0.6397 0.6390 0.6383
3128.000000 0.6377 0.6370 0.6364 0.6357 0.6351
3133.000000 0.6344 0.6338 0.6331 0.6325 0.6318
3138.000000 0.6311 0.6305 0.6298 0.6292 0.6285
3143.000000 0.6279 0.6273 0.6266 0.6260 0.6253
3148.000000 0.6247 0.6240 0.6233 0.6227 0.6220
3153.000000 0.6214 0.6207 0.6200 0.6193 0.6187
3158.000000 0.6180 0.6173 0.6166 0.6160 0.6153
3163.000000 0.6146 0.6139 0.6133 0.6126 0.6119
3168.000000 0.6112 0.6106 0.6099 0.6092 0.6085
3173.000000 0.6079 0.6072 0.6065 0.6059 0.6052
3178.000000 0.6045 0.6039 0.6032 0.6025 0.6018
3183.000000 0.6011 0.6004 0.5998 0.5991 0.5984
3188.000000 0.5978 0.5971 0.5964 0.5957 0.5950
3193.000000 0.5943 0.5937 0.5930 0.5923 0.5916
3198.000000 0.5909 0.5902 0.5896 0.5889 0.5882
3203.000000 0.5875 0.5868 0.5861 0.5855 0.5848
3208.000000 0.5842 0.5835 0.5828 0.5822 0.5815
3213.000000 0.5808 0.5801 0.5793 0.5786 0.5778
3218.000000 0.5770 0.5760 0.5750 0.5741 0.5731
3223.000000 0.5721 0.5711 0.5701 0.5692 0.5682
3228.000000 0.5672 0.5662 0.5652 0.5643 0.5633
3233.000000 0.5624 0.5614 0.5604 0.5595 0.5585
3238.000000 0.5576 0.5566 0.5557 0.5547 0.5538
3243.000000 0.5528 0.5519 0.5509 0.5500 0.5490
3248.000000 0.5481 0.5471 0.5462 0.5452 0.5443
3253.000000 0.5433 0.5424 0.5414 0.5405 0.5396
3258.000000 0.5386 0.5377 0.5367 0.5358 0.5348
3263.000000 0.5338 0.5327 0.5310 0.5293 0.5276
3268.000000 0.5259 0.5242 0.5225 0.5209 0.5192
3273.000000 0.5175 0.5158 0.5141 0.5125 0.5108
3278.000000 0.5091 0.5075 0.5058 0.5042 0.5026
3283.000000 0.5009 0.4993 0.4977 0.4961 0.4945
3288.000000 0.4929 0.4913 0.4897 0.4881 0.4865
3293.000000 0.4849 0.4832 0.4814 0.4796 0.4778
3298.000000 0.4760 0.4740 0.4719 0.4699 0.4678
3303.000000 0.4657 0.4637 0.4616 0.4596 0.4575
3308.000000 0.4551 0.4528 0.4504 0.4481 0.4455
3313.000000 0.4429 0.4403 0.4377 0.4350 0.4320
3318.000000 0.4290 0.4260 0.4230 0.4195 0.4161
3323.000000 0.4126 0.4091 0.4063 0.4041 0.4018
3328.000000 0.3996 0.3975 0.3960 0.3946 0.3931
3333.000000 0.3916 0.3903 0.3890 0.3877 0.3864
3338.000000 0.3852 0.3843 0.3834 0.3825 0.3817
3343.000000 0.3808 0.3800 0.3791 0.3783 0.3774
3348.000000 0.3765 0.3757 0.3748 0.3739 0.3733
3353.000000 0.3727 0.3721 0.3716 0.3710 0.3705
3358.000000 0.3699 0.3694 0.3689 0.3683 0.3678
3363.000000 0.3673 0.3667 0.3663 0.3661 0.3660
3368.000000 0.3658 0.3656 0.3655 0.3654 0.3654
3373.000000 0.3653 0.3653 0.3653 0.3653 0.3653
3378.000000 0.3653 0.3654 0.3655 0.3655 0.3656
3383.000000 0.3657 0.3658 0.3660 0.3661 0.3663
3388.000000 0.3659 0.3667 0.3669 0.3671 0.3673
3393.000000 0.3676 0.3679 0.3682 0.3685 0.3689
3398.000000 0.3695 0.3701 0.3707 0.3712 0.3718
3403.000000 0.3724 0.3729 0.3735 0.3741 0.3751
3408.000000 0.3762 0.3773 0.3784 0.3796 0.3809
3413.000000 0.3823 0.3837 0.3851 0.3867 0.3884
3418.000000 0.3900 0.3916 0.3933 0.3950 0.3966
3423.000000 0.3983 0.4000 0.4016 0.4033 0.4049
3428.000000 0.4065 0.4082 0.4098 0.4114 0.4131
3433.000000 0.4147 0.4163 0.4180 0.4196 0.4212
3438.000000 0.4229 0.4245 0.4261 0.4277 0.4294
3443.000000 0.4310 0.4326 0.4342 0.4359 0.4375
3448.000000 0.4391 0.4407 0.4423 0.4440 0.4456
3453.000000 0.4472 0.4488 0.4504 0.4520 0.4536
3458.000000 0.4552 0.4569 0.4585 0.4601 0.4617
3463.000000 0.4633 0.4649 0.4665 0.4681 0.4697
3468.000000 0.4713 0.4729 0.4745 0.4761 0.4777
3473.000000 0.4793 0.4809 0.4825 0.4842 0.4858
3478.000000 0.4874 0.4889 0.4905 0.4921 0.4937
3483.000000 0.4953 0.4969 0.4985 0.5001 0.5016
3488.000000 0.5032 0.5048 0.5064 0.5080 0.5095
3493.000000 0.5111 0.5127 0.5143 0.5159 0.5174
3498.000000 0.5190 0.5206 0.5221 0.5237 0.5253
3503.000000 0.5269 0.5284 0.5300 0.5316 0.5331
3508.000000 0.5347 0.5363 0.5378 0.5394 0.5418
3513.000000 0.5445 0.5472 0.5499 0.5526 0.5549
3518.000000 0.5572 0.5594 0.5617 0.5640 0.5657
3523.000000 0.5674 0.5691 0.5707 0.5724 0.5735
3528.000000 0.5746 0.5757 0.5768 0.5779 0.5787
3533.000000 0.5795 0.5802 0.5810 0.5818 0.5826
3538.000000 0.5833 0.5841 0.5848 0.5856 0.5864
3543.000000 0.5871 0.5879 0.5887 0.5895 0.5902
3548.000000 0.5910 0.5918 0.5926 0.5933 0.5941
3553.000000 0.5949 0.5957 0.5965 0.5973 0.5986
3558.000000 0.6001 0.6016 0.6030 0.6045 0.6059
3563.000000 0.6074 0.6089 0.6103 0.6118 0.6132
3568.000000 0.6146 0.6161 0.6175 0.6189 0.6201
3573.000000 0.6210 0.6219 0.6228 0.6238 0.6247
3578.000000 0.6256 0.6266 0.6275 0.6284 0.6293
3583.000000 0.6301 0.6309 0.6316 0.6324 0.6331
3588.000000 0.6334 0.6336 0.6339 0.6342 0.6345
3593.000000 0.6347 0.6350 0.6353 0.6355 0.6358
3598.000000 0.6361 0.6364 0.6366 0.6369 0.6372
3603.000000 0.6374 0.6377 0.6379 0.6382 0.6384
3608.000000 0.6387 0.6390 0.6392 0.6395 0.6398
3613.000000 0.6400 0.6401 0.6402 0.6403 0.6404
3618.000000 0.6406 0.6406 0.6407 0.6408 0.6409
3623.000000 0.6409 0.6410 0.6411 0.6412 0.6412
3628.000000 0.6413 0.6414 0.6415 0.6415 0.6416
3633.000000 0.6417 0.6418 0.6418 0.6419 0.6420
3638.000000 0.6421 0.6421 0.6422 0.6423 0.6424
3643.000000 0.6425 0.6425 0.6426 0.6426 0.6427
3648.000000 0.6428 0.6428 0.6429 0.6430 0.6430
3653.000000 0.6431 0.6432 0.6433 0.6433 0.6433
3658.000000 0.6434 0.6434 0.6434 0.6435 0.6435
3663.000000 0.6435 0.6436 0.6436 0.6437 0.6437
3668.000000 0.6437 0.6438 0.6438 0.6438 0.6439
3673.000000 0.6439 0.6439 0.6439 0.6439 0.6440
3678.000000 0.6440 0.6440 0.6441 0.6441 0.6442
3683.000000 0.6442 0.6442 0.6443 0.6443 0.6443
3688.000000 0.6444 0.6444 0.6444 0.6445 0.6445
3693.000000 0.6446 0.6446 0.6446 0.6447 0.6447
3698.000000 0.6447 0.6448 0.6448 0.6448 0.6448
3703.000000 0.6448 0.6449 0.6449 0.6449 0.6449
3708.000000 0.6449 0.6449 0.6450 0.6450 0.6450
3713.000000 0.6450 0.6450 0.6445 0.6451 0.6451
3718.000000 0.6451 0.6451 0.6451 0.6452 0.6452
3723.000000 0.6452 0.6452 0.6452 0.6452 0.6452
3728.000000 0.6452 0.6452 0.6452 0.6452 0.6453
3733.000000 0.6453 0.6453 0.6453 0.6453 0.6454
3738.000000 0.6454 0.6454 0.6454 0.6454 0.6454
3743.000000 0.6455 0.6455 0.6455 0.6455 0.6455
3748.000000 0.6455 0.6456 0.6456 0.6456 0.6456
3753.000000 0.6456 0.6456 0.6456 0.6455 0.6455
3758.000000 0.6454 0.6454 0.6453 0.6453 0.6452
3763.000000 0.6452 0.6451 0.6451 0.6450 0.6449
3768.000000 0.6449 0.6448 0.6448 0.6447 0.6447
3773.000000 0.6446 0.6445 0.6445 0.6444 0.6443
3778.000000 0.6443 0.6442 0.6442 0.6441 0.6441
3783.000000 0.6440 0.6439 0.6439 0.6438 0.6437
3788.000000 0.6436 0.6435 0.6434 0.6433 0.6431
3793.000000 0.6430 0.6429 0.6428 0.6427 0.6426
3798.000000 0.6425 0.6424 0.6423 0.6422 0.6420
3803.000000 0.6419 0.6418 0.6417 0.6416 0.6415
3808.000000 0.6414 0.6413 0.6412 0.6410 0.6409
3813.000000 0.6408 0.6406 0.6405 0.6404 0.6402
3818.000000 0.6401 0.6399 0.6398 0.6397 0.6395
3823.000000 0.6394 0.6393 0.6391 0.6390 0.6389
3828.000000 0.6387 0.6386 0.6384 0.6383 0.6382
3833.000000 0.6380 0.6379 0.6378 0.6376 0.6375
3838.000000 0.6374 0.6372 0.6371 0.6369 0.6368
3843.000000 0.6367 0.6365 0.6364 0.6363 0.6363
3848.000000 0.6363 0.6363 0.6363 0.6363 0.6363
3853.000000 0.6364 0.6364 0.6364 0.6364 0.6364
3858.000000 0.6364 0.6364 0.6364 0.6364 0.6364
3863.000000 0.6364 0.6364 0.6364 0.6364 0.6364
3868.000000 0.6364 0.6364 0.6364 0.6364 0.6364
3873.000000 0.6364 0.6364 0.6364 0.6365 0.6366
3878.000000 0.6367 0.6368 0.6369 0.6370 0.6371
3883.000000 0.6371 0.6372 0.6373 0.6374 0.6375
3888.000000 0.6375 0.6376 0.6377 0.6378 0.6379
3893.000000 0.6380 0.6381 0.6382 0.6383 0.6384
3898.000000 0.6385 0.6386 0.6386 0.6387 0.6388
3903.000000 0.6389 0.6390 0.6391 0.6392 0.6393
3908.000000 0.6393 0.6394 0.6394 0.6395 0.6395
3913.000000 0.6396 0.6396 0.6396 0.6397 0.6397
3918.000000 0.6397 0.6398 0.6398 0.6399 0.6399
3923.000000 0.6400 0.6400 0.6401 0.6401 0.6401
3928.000000 0.6402 0.6402 0.6402 0.6403 0.6403
3933.000000 0.6403 0.6404 0.6404 0.6404 0.6404
3938.000000 0.6403 0.6401 0.6400 0.6398 0.6396
3943.000000 0.6395 0.6393 0.6392 0.6390 0.6388
3948.000000 0.6387 0.6385 0.6384 0.6382 0.6381
3953.000000 0.6379 0.6378 0.6377 0.6375 0.6374
3958.000000 0.6372 0.6371 0.6369 0.6368 0.6366
3963.000000 0.6366 0.6365 0.6364 0.6363 0.6362
3968.000000 0.6361 0.6360 0.6359 0.6358 0.6357
3973.000000 0.6356 0.6355 0.6354 0.6353 0.6352
3978.000000 0.6351 0.6350 0.6348 0.6347 0.6346
3983.000000 0.6346 0.6345 0.6344 0.6343 0.6342
3988.000000 0.6341 0.6340 0.6339 0.6338 0.6337
3993.000000 0.6336 0.6335 0.6334 0.6333 0.6332
3998.000000 0.6331 0.6330 0.6330
##END=
