##TITLE=Indole, 7-methyl-, hydrochloride
##JCAMP-DX=4.24
##DATA TYPE=INFRARED SPECTRUM
##CLASS=COBLENTZ III
##ORIGIN=BRITISH PETROLEUM CO. LTD., ENGLAND
##OWNER=Copyright (C) 1987 by the Coblentz Society
Collection (C) 2018 copyright by the U.S. Secretary of Commerce
on behalf of the United States of America. All rights reserved.
##DATE=1972/07/03
##NAMES=7-methyl-1H-indole hydrochloride
##MOLFORM=C9 H10 Cl N
##SOURCE REFERENCE=COBLENTZ NO. 9397
##$NIST ID=B6009397
##$NIST SOURCE=COBLENTZ
##$NIST IMAGE=cob9397
##SPECTROMETER/DATA SYSTEM=PERKIN-ELMER 157
##STATE=SOLID (KBr DISC, 0.8% WT.)
$$ HCl RUN IN KBr MAY CONTAIN SOME HBr
$$ REF. Can. J. Spec., 18,4,101, '73 C. S. DOUSE and P. B. TOOKE
##SAMPLING PROCEDURE=TRANSMISSION
##RESOLUTION=2
##DATA PROCESSING=DIGITIZED BY COBLENTZ SOCIETY (BATCH II) FROM HARD COPY
##XUNITS=1/CM
##YUNITS=TRANSMITTANCE
##XFACTOR=1.0
##YFACTOR=1
##FIRSTX=668
##LASTX=4000
##FIRSTY=0.5684
##MAXX=4000
##MINX=668
##MAXY=0.7318
##MINY=0.0324
##NPOINTS=3333
##XYDATA=(X++(Y..Y))
668.000000 0.5684 0.5687 0.5688 0.5686 0.5684
673.000000 0.5680 0.5677 0.5676 0.5675 0.5674
678.000000 0.5683 0.5675 0.5675 0.5676 0.5677
683.000000 0.5678 0.5678 0.5678 0.5678 0.5678
688.000000 0.5676 0.5674 0.5672 0.5669 0.5661
693.000000 0.5631 0.5592 0.5547 0.5516 0.5506
698.000000 0.5499 0.5477 0.5485 0.5477 0.5472
703.000000 0.5469 0.5466 0.5466 0.5467 0.5469
708.000000 0.5471 0.5474 0.5473 0.5448 0.5415
713.000000 0.5376 0.5325 0.5254 0.5178 0.5149
718.000000 0.5111 0.5058 0.4980 0.4873 0.4781
723.000000 0.4766 0.4764 0.4769 0.4766 0.4769
728.000000 0.4767 0.4765 0.4757 0.4725 0.4682
733.000000 0.4654 0.4520 0.4399 0.4259 0.4114
738.000000 0.3858 0.3652 0.3476 0.3342 0.3234
743.000000 0.3165 0.3097 0.3030 0.3010 0.2987
748.000000 0.3028 0.3053 0.3100 0.3174 0.3279
753.000000 0.3476 0.3572 0.3654 0.3738 0.3794
758.000000 0.3826 0.3835 0.3836 0.3815 0.3779
763.000000 0.3714 0.3614 0.3509 0.3376 0.3247
768.000000 0.3115 0.2976 0.2789 0.2601 0.2421
773.000000 0.2237 0.2112 0.1998 0.1879 0.1768
778.000000 0.1682 0.1628 0.1603 0.1587 0.1613
783.000000 0.1648 0.1727 0.1812 0.1905 0.2017
788.000000 0.2137 0.2278 0.2457 0.2619 0.2779
793.000000 0.2895 0.2994 0.3096 0.3200 0.3331
798.000000 0.3456 0.3567 0.3829 0.4011 0.4179
803.000000 0.4367 0.4556 0.4652 0.4808 0.4966
808.000000 0.5125 0.5165 0.5232 0.5292 0.5317
813.000000 0.5344 0.5428 0.5467 0.5476 0.5485
818.000000 0.5637 0.5657 0.5667 0.5673 0.5680
823.000000 0.5685 0.5691 0.5697 0.5719 0.5749
828.000000 0.5780 0.5810 0.5843 0.5878 0.5912
833.000000 0.5949 0.5987 0.6030 0.6068 0.6102
838.000000 0.6132 0.6150 0.6162 0.6170 0.6173
843.000000 0.6177 0.6180 0.6183 0.6182 0.6181
848.000000 0.6164 0.6136 0.6102 0.6075 0.6049
853.000000 0.6027 0.6023 0.6020 0.6019 0.6018
858.000000 0.6017 0.6017 0.6016 0.6015 0.6014
863.000000 0.6012 0.6011 0.6010 0.6009 0.6011
868.000000 0.6012 0.6014 0.6024 0.6041 0.6059
873.000000 0.6077 0.6103 0.6123 0.6139 0.6153
878.000000 0.6157 0.6157 0.6151 0.6141 0.6130
883.000000 0.6121 0.6113 0.6104 0.6095 0.6094
888.000000 0.6095 0.6096 0.6097 0.6101 0.6105
893.000000 0.6108 0.6113 0.6121 0.6128 0.6136
898.000000 0.6146 0.6156 0.6167 0.6177 0.6185
903.000000 0.6188 0.6191 0.6190 0.6188 0.6186
908.000000 0.6187 0.6194 0.6212 0.6230 0.6250
913.000000 0.6256 0.6261 0.6266 0.6269 0.6271
918.000000 0.6271 0.6272 0.6272 0.6274 0.6280
923.000000 0.6274 0.6274 0.6273 0.6273 0.6272
928.000000 0.6272 0.6271 0.6267 0.6263 0.6255
933.000000 0.6246 0.6231 0.6214 0.6202 0.6195
938.000000 0.6187 0.6183 0.6179 0.6176 0.6175
943.000000 0.6175 0.6174 0.6173 0.6172 0.6173
948.000000 0.6173 0.6174 0.6174 0.6174 0.6175
953.000000 0.6175 0.6176 0.6177 0.6178 0.6179
958.000000 0.6180 0.6181 0.6181 0.6182 0.6183
963.000000 0.6181 0.6174 0.6154 0.6123 0.6097
968.000000 0.6090 0.6086 0.6085 0.6085 0.6085
973.000000 0.6086 0.6086 0.6086 0.6085 0.6076
978.000000 0.6061 0.6046 0.6028 0.6007 0.5986
983.000000 0.5962 0.5938 0.5914 0.5890 0.5865
988.000000 0.5838 0.5810 0.5782 0.5754 0.5727
993.000000 0.5699 0.5671 0.5642 0.5605 0.5570
998.000000 0.5554 0.5540 0.5534 0.5529 0.5523
1003.000000 0.5520 0.5507 0.5518 0.5517 0.5518
1008.000000 0.5519 0.5522 0.5523 0.5525 0.5526
1013.000000 0.5526 0.5526 0.5524 0.5502 0.5419
1018.000000 0.5338 0.5278 0.5214 0.5142 0.5067
1023.000000 0.4986 0.4905 0.4823 0.4739 0.4638
1028.000000 0.4579 0.4532 0.4530 0.4529 0.4558
1033.000000 0.4592 0.4623 0.4671 0.4785 0.4884
1038.000000 0.4970 0.5037 0.5156 0.5253 0.5333
1043.000000 0.5391 0.5431 0.5446 0.5450 0.5453
1048.000000 0.5457 0.5444 0.5428 0.5408 0.5383
1053.000000 0.5347 0.5307 0.5255 0.5199 0.5138
1058.000000 0.5076 0.5009 0.4940 0.4874 0.4815
1063.000000 0.4756 0.4693 0.4624 0.4556 0.4493
1068.000000 0.4431 0.4356 0.4238 0.4171 0.4154
1073.000000 0.4149 0.4150 0.4167 0.4177 0.4189
1078.000000 0.4197 0.4200 0.4201 0.4218 0.4182
1083.000000 0.4168 0.4152 0.4133 0.4122 0.4120
1088.000000 0.4119 0.4119 0.4120 0.4121 0.4125
1093.000000 0.4133 0.4149 0.4172 0.4194 0.4210
1098.000000 0.4223 0.4288 0.4351 0.4410 0.4484
1103.000000 0.4542 0.4583 0.4621 0.4648 0.4673
1108.000000 0.4699 0.4717 0.4734 0.4751 0.4766
1113.000000 0.4777 0.4783 0.4784 0.4785 0.4786
1118.000000 0.4786 0.4786 0.4786 0.4786 0.4786
1123.000000 0.4786 0.4786 0.4787 0.4788 0.4789
1128.000000 0.4790 0.4791 0.4792 0.4796 0.4805
1133.000000 0.4834 0.4883 0.4904 0.4921 0.4931
1138.000000 0.4940 0.4950 0.4956 0.4960 0.4947
1143.000000 0.4947 0.4932 0.4913 0.4892 0.4863
1148.000000 0.4826 0.4776 0.4719 0.4654 0.4540
1153.000000 0.4469 0.4401 0.4327 0.4248 0.4139
1158.000000 0.4017 0.3898 0.3783 0.3683 0.3593
1163.000000 0.3520 0.3457 0.3419 0.3408 0.3397
1168.000000 0.3427 0.3464 0.3509 0.3545 0.3588
1173.000000 0.3640 0.4053 0.4200 0.4348 0.4494
1178.000000 0.4679 0.4730 0.4761 0.4776 0.4784
1183.000000 0.4792 0.4801 0.4804 0.4807 0.4808
1188.000000 0.4809 0.4811 0.4812 0.4813 0.4815
1193.000000 0.4816 0.4817 0.4818 0.4813 0.4821
1198.000000 0.4822 0.4823 0.4825 0.4825 0.4824
1203.000000 0.4823 0.4822 0.4821 0.4820 0.4818
1208.000000 0.4813 0.4807 0.4794 0.4776 0.4758
1213.000000 0.4737 0.4705 0.4674 0.4639 0.4603
1218.000000 0.4566 0.4529 0.4485 0.4443 0.4395
1223.000000 0.4337 0.4269 0.4191 0.4071 0.4021
1228.000000 0.3986 0.3957 0.3936 0.3938 0.3905
1233.000000 0.4038 0.4095 0.4143 0.4177 0.4200
1238.000000 0.4214 0.4216 0.4215 0.4213 0.4210
1243.000000 0.4207 0.4200 0.4191 0.4191 0.4207
1248.000000 0.4230 0.4261 0.4302 0.4339 0.4363
1253.000000 0.4386 0.4406 0.4420 0.4427 0.4423
1258.000000 0.4420 0.4419 0.4418 0.4417 0.4418
1263.000000 0.4420 0.4427 0.4430 0.4439 0.4449
1268.000000 0.4455 0.4456 0.4458 0.4458 0.4458
1273.000000 0.4446 0.4407 0.4352 0.4302 0.4257
1278.000000 0.4213 0.4169 0.4114 0.3996 0.3910
1283.000000 0.3834 0.3759 0.3707 0.3662 0.3616
1288.000000 0.3575 0.3537 0.3498 0.3458 0.3419
1293.000000 0.3381 0.3343 0.3308 0.3275 0.3242
1298.000000 0.3209 0.3182 0.3154 0.3124 0.3076
1303.000000 0.3071 0.3071 0.3075 0.3076 0.3083
1308.000000 0.3091 0.3111 0.3149 0.3187 0.3217
1313.000000 0.3248 0.3279 0.3327 0.3563 0.3622
1318.000000 0.3638 0.3644 0.3650 0.3653 0.3651
1323.000000 0.3649 0.3643 0.3646 0.3638 0.3628
1328.000000 0.3617 0.3598 0.3567 0.3520 0.3483
1333.000000 0.3451 0.3421 0.3394 0.3372 0.3350
1338.000000 0.3340 0.3332 0.3334 0.3307 0.3369
1343.000000 0.3400 0.3426 0.3450 0.3462 0.3462
1348.000000 0.3462 0.3460 0.3467 0.3440 0.3396
1353.000000 0.3355 0.3325 0.3301 0.3283 0.3268
1358.000000 0.3255 0.3243 0.3232 0.3220 0.3205
1363.000000 0.3190 0.3171 0.3125 0.3064 0.3015
1368.000000 0.2884 0.2750 0.2715 0.2686 0.2657
1373.000000 0.2641 0.2632 0.2625 0.2622 0.2622
1378.000000 0.2623 0.2610 0.2789 0.2888 0.3004
1383.000000 0.3074 0.3128 0.3224 0.3305 0.3360
1388.000000 0.3406 0.3444 0.3465 0.3478 0.3489
1393.000000 0.3500 0.3512 0.3492 0.3509 0.3485
1398.000000 0.3454 0.3419 0.3381 0.3338 0.3295
1403.000000 0.3264 0.3235 0.3206 0.3170 0.3133
1408.000000 0.3096 0.3018 0.2958 0.2915 0.2866
1413.000000 0.2804 0.2731 0.2652 0.2596 0.2544
1418.000000 0.2494 0.2450 0.2406 0.2339 0.2261
1423.000000 0.2213 0.2168 0.2115 0.2051 0.1986
1428.000000 0.1930 0.1876 0.1823 0.1763 0.1702
1433.000000 0.1649 0.1617 0.1604 0.1594 0.1584
1438.000000 0.1547 0.1508 0.1471 0.1415 0.1341
1443.000000 0.1259 0.1210 0.1172 0.1129 0.1061
1448.000000 0.0998 0.0950 0.0905 0.0875 0.0849
1453.000000 0.0822 0.0795 0.0760 0.0725 0.0723
1458.000000 0.0723 0.0727 0.0732 0.0737 0.0733
1463.000000 0.0755 0.0781 0.0808 0.0841 0.0866
1468.000000 0.0885 0.0895 0.0902 0.0904 0.0907
1473.000000 0.0909 0.0911 0.0914 0.0919 0.0951
1478.000000 0.1015 0.1085 0.1161 0.1221 0.1266
1483.000000 0.1316 0.1363 0.1388 0.1397 0.1402
1488.000000 0.1407 0.1413 0.1418 0.1453 0.1542
1493.000000 0.1560 0.1580 0.1600 0.1622 0.1646
1498.000000 0.1671 0.1696 0.1727 0.1772 0.1839
1503.000000 0.1886 0.1910 0.1922 0.1927 0.1932
1508.000000 0.1934 0.1936 0.1938 0.1941 0.1944
1513.000000 0.1946 0.1947 0.1947 0.1948 0.1949
1518.000000 0.1950 0.1951 0.1951 0.1952 0.1952
1523.000000 0.1951 0.1950 0.1950 0.1949 0.1948
1528.000000 0.1947 0.1947 0.1936 0.1942 0.1941
1533.000000 0.1939 0.1938 0.1936 0.1935 0.1933
1538.000000 0.1931 0.1930 0.1930 0.1929 0.1928
1543.000000 0.1928 0.1927 0.1927 0.1928 0.1931
1548.000000 0.1934 0.1936 0.1938 0.1941 0.1943
1553.000000 0.1943 0.1943 0.1943 0.1943 0.1943
1558.000000 0.1943 0.1940 0.1933 0.1924 0.1916
1563.000000 0.1907 0.1897 0.1885 0.1873 0.1862
1568.000000 0.1853 0.1844 0.1836 0.1828 0.1819
1573.000000 0.1811 0.1804 0.1797 0.1791 0.1784
1578.000000 0.1777 0.1771 0.1764 0.1758 0.1752
1583.000000 0.1745 0.1738 0.1732 0.1725 0.1715
1588.000000 0.1699 0.1681 0.1664 0.1646 0.1623
1593.000000 0.1598 0.1572 0.1552 0.1536 0.1521
1598.000000 0.1506 0.1492 0.1481 0.1473 0.1465
1603.000000 0.1457 0.1448 0.1440 0.1432 0.1425
1608.000000 0.1421 0.1418 0.1414 0.1410 0.1406
1613.000000 0.1402 0.1401 0.1401 0.1401 0.1399
1618.000000 0.1401 0.1401 0.1407 0.1414 0.1429
1623.000000 0.1454 0.1483 0.1512 0.1542 0.1571
1628.000000 0.1599 0.1624 0.1743 0.2054 0.2153
1633.000000 0.2326 0.2426 0.2520 0.2615 0.2709
1638.000000 0.2802 0.2861 0.2906 0.2950 0.2993
1643.000000 0.3036 0.3090 0.3264 0.3773 0.4494
1648.000000 0.4609 0.4667 0.4725 0.4783 0.4840
1653.000000 0.4903 0.4973 0.5045 0.5117 0.5191
1658.000000 0.5265 0.5339 0.5411 0.5452 0.5494
1663.000000 0.5535 0.5575 0.5620 0.5669 0.5718
1668.000000 0.5767 0.5816 0.5863 0.5909 0.6213
1673.000000 0.6316 0.6343 0.6371 0.6399 0.6433
1678.000000 0.6481 0.6524 0.6560 0.6596 0.6622
1683.000000 0.6645 0.6668 0.6691 0.6713 0.6736
1688.000000 0.6768 0.6805 0.6830 0.6849 0.6869
1693.000000 0.6889 0.6907 0.6921 0.6935 0.6948
1698.000000 0.6962 0.6977 0.6995 0.7014 0.7034
1703.000000 0.7055 0.7075 0.7094 0.7111 0.7122
1708.000000 0.7126 0.7130 0.7134 0.7138 0.7144
1713.000000 0.7151 0.7158 0.7166 0.7177 0.7205
1718.000000 0.7229 0.7251 0.7272 0.7288 0.7299
1723.000000 0.7309 0.7316 0.7318 0.7318 0.7317
1728.000000 0.7315 0.7312 0.7311 0.7308 0.7305
1733.000000 0.7300 0.7296 0.7292 0.7288 0.7281
1738.000000 0.7272 0.7261 0.7251 0.7239 0.7214
1743.000000 0.7194 0.7181 0.7172 0.7166 0.7165
1748.000000 0.7163 0.7161 0.7159 0.7157 0.7156
1753.000000 0.7155 0.7153 0.7150 0.7145 0.7141
1758.000000 0.7137 0.7132 0.7128 0.7118 0.7095
1763.000000 0.7041 0.6983 0.6943 0.6922 0.6914
1768.000000 0.6905 0.6896 0.6887 0.6878 0.6867
1773.000000 0.6856 0.6846 0.6835 0.6824 0.6814
1778.000000 0.6803 0.6792 0.6781 0.6769 0.6756
1783.000000 0.6744 0.6730 0.6717 0.6704 0.6691
1788.000000 0.6678 0.6665 0.6654 0.6644 0.6634
1793.000000 0.6624 0.6614 0.6604 0.6594 0.6584
1798.000000 0.6574 0.6564 0.6553 0.6540 0.6527
1803.000000 0.6515 0.6502 0.6490 0.6477 0.6467
1808.000000 0.6459 0.6452 0.6445 0.6438 0.6431
1813.000000 0.6426 0.6422 0.6416 0.6411 0.6407
1818.000000 0.6401 0.6395 0.6390 0.6383 0.6365
1823.000000 0.6319 0.6278 0.6250 0.6246 0.6242
1828.000000 0.6239 0.6235 0.6232 0.6228 0.6225
1833.000000 0.6221 0.6217 0.6213 0.6209 0.6205
1838.000000 0.6201 0.6197 0.6193 0.6189 0.6185
1843.000000 0.6181 0.6177 0.6173 0.6167 0.6159
1848.000000 0.6149 0.6139 0.6128 0.6118 0.6108
1853.000000 0.6098 0.6088 0.6073 0.6052 0.6028
1858.000000 0.6004 0.5980 0.5956 0.5901 0.5843
1863.000000 0.5790 0.5765 0.5756 0.5753 0.5750
1868.000000 0.5747 0.5746 0.5745 0.5745 0.5744
1873.000000 0.5743 0.5741 0.5726 0.5703 0.5675
1878.000000 0.5650 0.5632 0.5618 0.5604 0.5592
1883.000000 0.5585 0.5582 0.5580 0.5578 0.5576
1888.000000 0.5574 0.5572 0.5569 0.5564 0.5560
1893.000000 0.5554 0.5547 0.5536 0.5525 0.5514
1898.000000 0.5503 0.5493 0.5485 0.5479 0.5474
1903.000000 0.5469 0.5464 0.5458 0.5453 0.5447
1908.000000 0.5442 0.5437 0.5432 0.5426 0.5422
1913.000000 0.5419 0.5416 0.5413 0.5411 0.5408
1918.000000 0.5405 0.5402 0.5399 0.5396 0.5393
1923.000000 0.5390 0.5387 0.5384 0.5382 0.5379
1928.000000 0.5376 0.5373 0.5370 0.5367 0.5364
1933.000000 0.5361 0.5359 0.5357 0.5356 0.5355
1938.000000 0.5353 0.5352 0.5351 0.5349 0.5348
1943.000000 0.5348 0.5348 0.5348 0.5348 0.5348
1948.000000 0.5349 0.5349 0.5349 0.5349 0.5364
1953.000000 0.5349 0.5350 0.5350 0.5350 0.5350
1958.000000 0.5351 0.5351 0.5351 0.5351 0.5351
1963.000000 0.5351 0.5352 0.5352 0.5352 0.5352
1968.000000 0.5353 0.5354 0.5356 0.5358 0.5361
1973.000000 0.5363 0.5365 0.5367 0.5369 0.5371
1978.000000 0.5373 0.5375 0.5378 0.5380 0.5381
1983.000000 0.5383 0.5385 0.5388 0.5390 0.5392
1988.000000 0.5394 0.5396 0.5398 0.5400 0.5402
1993.000000 0.5404 0.5406 0.5408 0.5410 0.5412
1998.000000 0.5414 0.5417 0.5419 0.5420 0.5422
2003.000000 0.5425 0.5426 0.5427 0.5428 0.5429
2008.000000 0.5429 0.5431 0.5432 0.5432 0.5433
2013.000000 0.5435 0.5435 0.5436 0.5437 0.5438
2018.000000 0.5439 0.5440 0.5440 0.5439 0.5437
2023.000000 0.5436 0.5436 0.5435 0.5433 0.5432
2028.000000 0.5431 0.5430 0.5429 0.5427 0.5426
2033.000000 0.5425 0.5424 0.5423 0.5421 0.5420
2038.000000 0.5419 0.5418 0.5416 0.5415 0.5413
2043.000000 0.5412 0.5410 0.5408 0.5406 0.5404
2048.000000 0.5402 0.5400 0.5398 0.5395 0.5393
2053.000000 0.5392 0.5390 0.5388 0.5385 0.5384
2058.000000 0.5382 0.5379 0.5377 0.5376 0.5373
2063.000000 0.5371 0.5369 0.5367 0.5366 0.5363
2068.000000 0.5361 0.5359 0.5357 0.5355 0.5353
2073.000000 0.5350 0.5348 0.5344 0.5341 0.5338
2078.000000 0.5335 0.5332 0.5328 0.5325 0.5322
2083.000000 0.5319 0.5316 0.5313 0.5309 0.5306
2088.000000 0.5302 0.5298 0.5293 0.5288 0.5283
2093.000000 0.5278 0.5272 0.5267 0.5262 0.5257
2098.000000 0.5252 0.5247 0.5241 0.5236 0.5233
2103.000000 0.5230 0.5228 0.5226 0.5225 0.5223
2108.000000 0.5221 0.5220 0.5218 0.5216 0.5213
2113.000000 0.5211 0.5208 0.5205 0.5202 0.5199
2118.000000 0.5196 0.5192 0.5189 0.5186 0.5183
2123.000000 0.5180 0.5177 0.5173 0.5169 0.5162
2128.000000 0.5154 0.5145 0.5137 0.5129 0.5121
2133.000000 0.5113 0.5105 0.5097 0.5088 0.5079
2138.000000 0.5069 0.5059 0.5050 0.5039 0.5029
2143.000000 0.5019 0.5009 0.4993 0.4976 0.4957
2148.000000 0.4938 0.4919 0.4901 0.4883 0.4867
2153.000000 0.4854 0.4840 0.4827 0.4813 0.4800
2158.000000 0.4787 0.4774 0.4761 0.4749 0.4736
2163.000000 0.4727 0.4722 0.4718 0.4716 0.4713
2168.000000 0.4710 0.4708 0.4705 0.4702 0.4700
2173.000000 0.4697 0.4694 0.4692 0.4689 0.4688
2178.000000 0.4686 0.4684 0.4682 0.4680 0.4678
2183.000000 0.4676 0.4675 0.4673 0.4659 0.4638
2188.000000 0.4615 0.4591 0.4568 0.4545 0.4522
2193.000000 0.4500 0.4478 0.4457 0.4443 0.4429
2198.000000 0.4418 0.4408 0.4398 0.4387 0.4377
2203.000000 0.4367 0.4357 0.4346 0.4336 0.4326
2208.000000 0.4315 0.4305 0.4295 0.4285 0.4274
2213.000000 0.4264 0.4254 0.4244 0.4234 0.4224
2218.000000 0.4213 0.4203 0.4193 0.4183 0.4173
2223.000000 0.4163 0.4153 0.4142 0.4132 0.4122
2228.000000 0.4112 0.4102 0.4092 0.4082 0.4072
2233.000000 0.4062 0.4052 0.4042 0.4032 0.4022
2238.000000 0.4012 0.4002 0.3992 0.3982 0.3972
2243.000000 0.3962 0.3952 0.3942 0.3932 0.3923
2248.000000 0.3913 0.3904 0.3894 0.3884 0.3875
2253.000000 0.3865 0.3854 0.3844 0.3834 0.3824
2258.000000 0.3814 0.3804 0.3794 0.3783 0.3773
2263.000000 0.3763 0.3753 0.3741 0.3728 0.3716
2268.000000 0.3703 0.3690 0.3678 0.3665 0.3653
2273.000000 0.3640 0.3627 0.3615 0.3602 0.3590
2278.000000 0.3577 0.3564 0.3551 0.3538 0.3524
2283.000000 0.3511 0.3497 0.3484 0.3471 0.3457
2288.000000 0.3444 0.3431 0.3417 0.3404 0.3390
2293.000000 0.3376 0.3361 0.3347 0.3333 0.3319
2298.000000 0.3306 0.3291 0.3277 0.3263 0.3249
2303.000000 0.3235 0.3221 0.3206 0.3192 0.3178
2308.000000 0.3164 0.3150 0.3135 0.3121 0.3107
2313.000000 0.3093 0.3079 0.3065 0.3051 0.3037
2318.000000 0.3023 0.3009 0.2989 0.2969 0.2948
2323.000000 0.2927 0.2906 0.2886 0.2865 0.2845
2328.000000 0.2824 0.2801 0.2778 0.2755 0.2731
2333.000000 0.2707 0.2683 0.2660 0.2637 0.2614
2338.000000 0.2592 0.2571 0.2549 0.2528 0.2506
2343.000000 0.2484 0.2456 0.2428 0.2402 0.2376
2348.000000 0.2362 0.2357 0.2351 0.2345 0.2340
2353.000000 0.2334 0.2328 0.2322 0.2317 0.2311
2358.000000 0.2305 0.2300 0.2294 0.2288 0.2282
2363.000000 0.2276 0.2272 0.2268 0.2265 0.2263
2368.000000 0.2260 0.2257 0.2254 0.2251 0.2248
2373.000000 0.2246 0.2243 0.2240 0.2238 0.2231
2378.000000 0.2221 0.2209 0.2190 0.2171 0.2142
2383.000000 0.2113 0.2086 0.2059 0.2039 0.2025
2388.000000 0.2012 0.1998 0.1985 0.1972 0.1958
2393.000000 0.1945 0.1932 0.1919 0.1907 0.1895
2398.000000 0.1883 0.1871 0.1859 0.1847 0.1834
2403.000000 0.1820 0.1806 0.1787 0.1768 0.1749
2408.000000 0.1730 0.1712 0.1693 0.1674 0.1655
2413.000000 0.1637 0.1619 0.1601 0.1583 0.1565
2418.000000 0.1548 0.1529 0.1510 0.1487 0.1463
2423.000000 0.1440 0.1419 0.1399 0.1384 0.1368
2428.000000 0.1353 0.1337 0.1321 0.1305 0.1289
2433.000000 0.1272 0.1256 0.1240 0.1225 0.1209
2438.000000 0.1194 0.1179 0.1164 0.1149 0.1135
2443.000000 0.1121 0.1107 0.1094 0.1081 0.1068
2448.000000 0.1054 0.1041 0.1028 0.1015 0.1007
2453.000000 0.0999 0.0991 0.0983 0.0976 0.0968
2458.000000 0.0960 0.0953 0.0945 0.0938 0.0930
2463.000000 0.0923 0.0915 0.0908 0.0901 0.0895
2468.000000 0.0888 0.0884 0.0879 0.0874 0.0869
2473.000000 0.0865 0.0860 0.0856 0.0851 0.0846
2478.000000 0.0841 0.0837 0.0832 0.0828 0.0825
2483.000000 0.0822 0.0820 0.0819 0.0817 0.0815
2488.000000 0.0814 0.0812 0.0810 0.0808 0.0806
2493.000000 0.0805 0.0803 0.0802 0.0799 0.0797
2498.000000 0.0794 0.0790 0.0787 0.0783 0.0780
2503.000000 0.0777 0.0773 0.0770 0.0766 0.0762
2508.000000 0.0759 0.0756 0.0753 0.0749 0.0746
2513.000000 0.0742 0.0740 0.0737 0.0734 0.0731
2518.000000 0.0728 0.0726 0.0723 0.0721 0.0718
2523.000000 0.0716 0.0713 0.0710 0.0708 0.0707
2528.000000 0.0706 0.0706 0.0706 0.0706 0.0706
2533.000000 0.0706 0.0706 0.0707 0.0708 0.0710
2538.000000 0.0711 0.0713 0.0715 0.0717 0.0720
2543.000000 0.0722 0.0725 0.0727 0.0730 0.0734
2548.000000 0.0738 0.0742 0.0746 0.0750 0.0754
2553.000000 0.0758 0.0762 0.0766 0.0770 0.0773
2558.000000 0.0777 0.0780 0.0783 0.0787 0.0790
2563.000000 0.0794 0.0798 0.0801 0.0804 0.0806
2568.000000 0.0808 0.0810 0.0812 0.0814 0.0815
2573.000000 0.0817 0.0819 0.0821 0.0824 0.0826
2578.000000 0.0827 0.0827 0.0828 0.0828 0.0828
2583.000000 0.0827 0.0827 0.0827 0.0826 0.0826
2588.000000 0.0826 0.0826 0.0826 0.0845 0.0825
2593.000000 0.0825 0.0824 0.0823 0.0822 0.0820
2598.000000 0.0819 0.0817 0.0816 0.0814 0.0812
2603.000000 0.0811 0.0809 0.0807 0.0806 0.0804
2608.000000 0.0803 0.0801 0.0799 0.0796 0.0793
2613.000000 0.0789 0.0786 0.0783 0.0779 0.0775
2618.000000 0.0771 0.0767 0.0763 0.0759 0.0754
2623.000000 0.0750 0.0745 0.0741 0.0737 0.0732
2628.000000 0.0728 0.0724 0.0719 0.0715 0.0711
2633.000000 0.0707 0.0703 0.0699 0.0694 0.0690
2638.000000 0.0686 0.0681 0.0677 0.0672 0.0668
2643.000000 0.0663 0.0658 0.0652 0.0647 0.0641
2648.000000 0.0636 0.0631 0.0625 0.0620 0.0615
2653.000000 0.0609 0.0604 0.0599 0.0593 0.0588
2658.000000 0.0583 0.0578 0.0573 0.0569 0.0565
2663.000000 0.0561 0.0558 0.0554 0.0551 0.0547
2668.000000 0.0544 0.0540 0.0536 0.0532 0.0529
2673.000000 0.0525 0.0522 0.0518 0.0515 0.0512
2678.000000 0.0509 0.0506 0.0504 0.0501 0.0499
2683.000000 0.0497 0.0495 0.0493 0.0491 0.0489
2688.000000 0.0487 0.0485 0.0483 0.0482 0.0480
2693.000000 0.0477 0.0475 0.0474 0.0473 0.0472
2698.000000 0.0471 0.0470 0.0469 0.0468 0.0467
2703.000000 0.0466 0.0465 0.0464 0.0463 0.0463
2708.000000 0.0462 0.0461 0.0461 0.0460 0.0459
2713.000000 0.0459 0.0459 0.0458 0.0457 0.0457
2718.000000 0.0456 0.0455 0.0454 0.0452 0.0448
2723.000000 0.0445 0.0443 0.0440 0.0437 0.0434
2728.000000 0.0431 0.0428 0.0426 0.0423 0.0420
2733.000000 0.0416 0.0411 0.0407 0.0401 0.0396
2738.000000 0.0391 0.0387 0.0384 0.0380 0.0378
2743.000000 0.0377 0.0375 0.0373 0.0372 0.0370
2748.000000 0.0368 0.0367 0.0365 0.0363 0.0362
2753.000000 0.0360 0.0358 0.0357 0.0355 0.0354
2758.000000 0.0352 0.0351 0.0350 0.0349 0.0348
2763.000000 0.0347 0.0346 0.0345 0.0344 0.0344
2768.000000 0.0343 0.0342 0.0341 0.0340 0.0339
2773.000000 0.0338 0.0337 0.0336 0.0335 0.0334
2778.000000 0.0333 0.0332 0.0331 0.0330 0.0329
2783.000000 0.0328 0.0327 0.0327 0.0327 0.0327
2788.000000 0.0327 0.0327 0.0327 0.0327 0.0327
2793.000000 0.0327 0.0326 0.0326 0.0326 0.0326
2798.000000 0.0326 0.0326 0.0325 0.0325 0.0325
2803.000000 0.0325 0.0325 0.0325 0.0324 0.0324
2808.000000 0.0324 0.0324 0.0324 0.0325 0.0326
2813.000000 0.0327 0.0328 0.0329 0.0330 0.0332
2818.000000 0.0333 0.0334 0.0335 0.0337 0.0338
2823.000000 0.0339 0.0340 0.0342 0.0345 0.0349
2828.000000 0.0352 0.0356 0.0360 0.0364 0.0367
2833.000000 0.0370 0.0374 0.0377 0.0381 0.0384
2838.000000 0.0387 0.0391 0.0394 0.0397 0.0399
2843.000000 0.0402 0.0404 0.0407 0.0409 0.0412
2848.000000 0.0414 0.0416 0.0419 0.0421 0.0422
2853.000000 0.0423 0.0424 0.0425 0.0425 0.0426
2858.000000 0.0428 0.0429 0.0430 0.0431 0.0432
2863.000000 0.0433 0.0434 0.0435 0.0436 0.0437
2868.000000 0.0437 0.0437 0.0437 0.0438 0.0438
2873.000000 0.0438 0.0439 0.0439 0.0439 0.0440
2878.000000 0.0440 0.0440 0.0440 0.0440 0.0440
2883.000000 0.0440 0.0441 0.0441 0.0441 0.0442
2888.000000 0.0442 0.0442 0.0442 0.0442 0.0442
2893.000000 0.0442 0.0443 0.0444 0.0445 0.0446
2898.000000 0.0453 0.0459 0.0466 0.0473 0.0479
2903.000000 0.0486 0.0492 0.0499 0.0505 0.0512
2908.000000 0.0515 0.0518 0.0521 0.0523 0.0525
2913.000000 0.0526 0.0528 0.0530 0.0531 0.0533
2918.000000 0.0535 0.0537 0.0539 0.0542 0.0544
2923.000000 0.0547 0.0550 0.0552 0.0555 0.0557
2928.000000 0.0560 0.0562 0.0565 0.0567 0.0569
2933.000000 0.0572 0.0574 0.0576 0.0579 0.0581
2938.000000 0.0583 0.0585 0.0588 0.0590 0.0592
2943.000000 0.0595 0.0597 0.0600 0.0602 0.0605
2948.000000 0.0608 0.0612 0.0615 0.0618 0.0622
2953.000000 0.0625 0.0628 0.0631 0.0635 0.0638
2958.000000 0.0642 0.0645 0.0648 0.0651 0.0654
2963.000000 0.0659 0.0664 0.0669 0.0675 0.0682
2968.000000 0.0690 0.0697 0.0704 0.0711 0.0719
2973.000000 0.0726 0.0733 0.0741 0.0748 0.0755
2978.000000 0.0761 0.0767 0.0773 0.0779 0.0785
2983.000000 0.0791 0.0797 0.0803 0.0808 0.0814
2988.000000 0.0820 0.0826 0.0832 0.0837 0.0842
2993.000000 0.0847 0.0851 0.0856 0.0860 0.0865
2998.000000 0.0869 0.0874 0.0878 0.0883 0.0887
3003.000000 0.0892 0.0897 0.0901 0.0903 0.0905
3008.000000 0.0907 0.0908 0.0910 0.0912 0.0913
3013.000000 0.0915 0.0917 0.0919 0.0921 0.0923
3018.000000 0.0924 0.0926 0.0928 0.0930 0.0932
3023.000000 0.0934 0.0935 0.0937 0.0939 0.0953
3028.000000 0.0988 0.1023 0.1058 0.1072 0.1077
3033.000000 0.1082 0.1087 0.1092 0.1097 0.1102
3038.000000 0.1107 0.1112 0.1117 0.1123 0.1128
3043.000000 0.1133 0.1138 0.1143 0.1148 0.1153
3048.000000 0.1159 0.1164 0.1169 0.1174 0.1180
3053.000000 0.1185 0.1190 0.1195 0.1200 0.1206
3058.000000 0.1211 0.1217 0.1223 0.1228 0.1233
3063.000000 0.1239 0.1246 0.1258 0.1270 0.1282
3068.000000 0.1295 0.1309 0.1323 0.1337 0.1348
3073.000000 0.1358 0.1367 0.1377 0.1380 0.1383
3078.000000 0.1386 0.1389 0.1389 0.1389 0.1389
3083.000000 0.1387 0.1390 0.1390 0.1390 0.1391
3088.000000 0.1391 0.1391 0.1391 0.1390 0.1389
3093.000000 0.1388 0.1387 0.1383 0.1380 0.1377
3098.000000 0.1373 0.1369 0.1366 0.1362 0.1358
3103.000000 0.1355 0.1351 0.1347 0.1343 0.1338
3108.000000 0.1333 0.1329 0.1324 0.1319 0.1314
3113.000000 0.1309 0.1304 0.1300 0.1295 0.1290
3118.000000 0.1286 0.1282 0.1277 0.1273 0.1269
3123.000000 0.1265 0.1261 0.1257 0.1252 0.1248
3128.000000 0.1244 0.1240 0.1236 0.1231 0.1227
3133.000000 0.1223 0.1218 0.1214 0.1209 0.1204
3138.000000 0.1200 0.1195 0.1191 0.1186 0.1180
3143.000000 0.1174 0.1168 0.1162 0.1157 0.1151
3148.000000 0.1145 0.1139 0.1134 0.1128 0.1123
3153.000000 0.1117 0.1110 0.1103 0.1096 0.1089
3158.000000 0.1082 0.1075 0.1068 0.1060 0.1053
3163.000000 0.1046 0.1039 0.1031 0.1024 0.1016
3168.000000 0.1009 0.1001 0.0993 0.0985 0.0977
3173.000000 0.0969 0.0961 0.0953 0.0945 0.0938
3178.000000 0.0930 0.0922 0.0915 0.0908 0.0902
3183.000000 0.0897 0.0891 0.0886 0.0881 0.0876
3188.000000 0.0871 0.0865 0.0860 0.0856 0.0851
3193.000000 0.0846 0.0841 0.0836 0.0832 0.0827
3198.000000 0.0823 0.0818 0.0813 0.0809 0.0804
3203.000000 0.0799 0.0795 0.0790 0.0788 0.0785
3208.000000 0.0783 0.0781 0.0779 0.0777 0.0775
3213.000000 0.0773 0.0771 0.0769 0.0767 0.0765
3218.000000 0.0764 0.0762 0.0760 0.0758 0.0756
3223.000000 0.0754 0.0752 0.0750 0.0748 0.0746
3228.000000 0.0744 0.0742 0.0740 0.0738 0.0736
3233.000000 0.0734 0.0732 0.0731 0.0730 0.0729
3238.000000 0.0728 0.0727 0.0726 0.0725 0.0724
3243.000000 0.0723 0.0722 0.0721 0.0720 0.0719
3248.000000 0.0718 0.0717 0.0716 0.0715 0.0715
3253.000000 0.0714 0.0713 0.0712 0.0711 0.0710
3258.000000 0.0709 0.0708 0.0707 0.0706 0.0705
3263.000000 0.0704 0.0703 0.0702 0.0701 0.0700
3268.000000 0.0699 0.0699 0.0698 0.0697 0.0696
3273.000000 0.0695 0.0694 0.0693 0.0692 0.0691
3278.000000 0.0690 0.0689 0.0688 0.0687 0.0687
3283.000000 0.0686 0.0686 0.0686 0.0685 0.0685
3288.000000 0.0685 0.0685 0.0684 0.0684 0.0684
3293.000000 0.0684 0.0683 0.0683 0.0683 0.0683
3298.000000 0.0683 0.0682 0.0682 0.0682 0.0682
3303.000000 0.0681 0.0681 0.0681 0.0681 0.0680
3308.000000 0.0680 0.0680 0.0680 0.0680 0.0679
3313.000000 0.0679 0.0679 0.0679 0.0678 0.0678
3318.000000 0.0677 0.0677 0.0677 0.0676 0.0676
3323.000000 0.0676 0.0676 0.0676 0.0676 0.0676
3328.000000 0.0676 0.0676 0.0676 0.0676 0.0676
3333.000000 0.0676 0.0677 0.0677 0.0677 0.0677
3338.000000 0.0677 0.0677 0.0677 0.0677 0.0677
3343.000000 0.0678 0.0678 0.0678 0.0678 0.0667
3348.000000 0.0679 0.0679 0.0679 0.0679 0.0679
3353.000000 0.0679 0.0679 0.0679 0.0680 0.0680
3358.000000 0.0680 0.0680 0.0680 0.0681 0.0681
3363.000000 0.0681 0.0681 0.0682 0.0683 0.0683
3368.000000 0.0684 0.0685 0.0686 0.0687 0.0687
3373.000000 0.0688 0.0689 0.0690 0.0690 0.0691
3378.000000 0.0692 0.0693 0.0694 0.0695 0.0696
3383.000000 0.0697 0.0697 0.0698 0.0698 0.0699
3388.000000 0.0700 0.0701 0.0702 0.0703 0.0703
3393.000000 0.0704 0.0705 0.0705 0.0706 0.0707
3398.000000 0.0708 0.0708 0.0709 0.0710 0.0711
3403.000000 0.0712 0.0712 0.0713 0.0714 0.0715
3408.000000 0.0716 0.0717 0.0718 0.0719 0.0721
3413.000000 0.0722 0.0724 0.0725 0.0727 0.0728
3418.000000 0.0730 0.0731 0.0733 0.0734 0.0735
3423.000000 0.0736 0.0738 0.0739 0.0742 0.0745
3428.000000 0.0748 0.0751 0.0754 0.0757 0.0760
3433.000000 0.0764 0.0767 0.0774 0.0780 0.0787
3438.000000 0.0793 0.0800 0.0808 0.0816 0.0824
3443.000000 0.0832 0.0840 0.0849 0.0857 0.0865
3448.000000 0.0873 0.0891 0.0913 0.0934 0.0956
3453.000000 0.0978 0.1002 0.1026 0.1050 0.1075
3458.000000 0.1099 0.1120 0.1142 0.1164 0.1186
3463.000000 0.1228 0.1300 0.1373 0.1445 0.1517
3468.000000 0.1552 0.1560 0.1569 0.1578 0.1587
3473.000000 0.1595 0.1604 0.1613 0.1621 0.1630
3478.000000 0.1640 0.1649 0.1659 0.1668 0.1678
3483.000000 0.1695 0.1712 0.1728 0.1745 0.1762
3488.000000 0.1779 0.1796 0.1813 0.1830 0.1847
3493.000000 0.1864 0.1880 0.1897 0.1914 0.1931
3498.000000 0.1948 0.1964 0.1981 0.1998 0.2015
3503.000000 0.2032 0.2048 0.2065 0.2082 0.2099
3508.000000 0.2116 0.2132 0.2149 0.2166 0.2182
3513.000000 0.2199 0.2215 0.2232 0.2249 0.2265
3518.000000 0.2282 0.2298 0.2315 0.2331 0.2354
3523.000000 0.2377 0.2400 0.2423 0.2446 0.2466
3528.000000 0.2484 0.2503 0.2522 0.2541 0.2558
3533.000000 0.2574 0.2590 0.2606 0.2622 0.2638
3538.000000 0.2654 0.2670 0.2686 0.2701 0.2717
3543.000000 0.2734 0.2750 0.2766 0.2782 0.2798
3548.000000 0.2814 0.2830 0.2846 0.2862 0.2879
3553.000000 0.2896 0.2913 0.2930 0.2947 0.2965
3558.000000 0.2982 0.2999 0.3017 0.3034 0.3052
3563.000000 0.3070 0.3088 0.3106 0.3124 0.3143
3568.000000 0.3163 0.3182 0.3202 0.3222 0.3240
3573.000000 0.3255 0.3271 0.3287 0.3303 0.3315
3578.000000 0.3323 0.3332 0.3340 0.3348 0.3356
3583.000000 0.3364 0.3372 0.3380 0.3388 0.3454
3588.000000 0.3754 0.4054 0.4354 0.4654 0.4942
3593.000000 0.4984 0.5026 0.5068 0.5110 0.5152
3598.000000 0.5194 0.5236 0.5279 0.5321 0.5363
3603.000000 0.5404 0.5446 0.5488 0.5530 0.5571
3608.000000 0.5613 0.5655 0.5696 0.5738 0.5780
3613.000000 0.5821 0.5863 0.5904 0.5946 0.5987
3618.000000 0.6029 0.6070 0.6112 0.6154 0.6195
3623.000000 0.6237 0.6278 0.6319 0.6361 0.6402
3628.000000 0.6443 0.6484 0.6525 0.6567 0.6608
3633.000000 0.6649 0.6689 0.6725 0.6762 0.6799
3638.000000 0.6835 0.6872 0.6882 0.6892 0.6902
3643.000000 0.6912 0.6921 0.6927 0.6931 0.6935
3648.000000 0.6938 0.6942 0.6945 0.6947 0.6949
3653.000000 0.6951 0.6953 0.6955 0.6955 0.6955
3658.000000 0.6955 0.6955 0.6955 0.6956 0.6956
3663.000000 0.6956 0.6956 0.6956 0.6957 0.6957
3668.000000 0.6957 0.6957 0.6957 0.6957 0.6956
3673.000000 0.6956 0.6956 0.6956 0.6956 0.6955
3678.000000 0.6955 0.6955 0.6954 0.6954 0.6953
3683.000000 0.6953 0.6952 0.6951 0.6950 0.6950
3688.000000 0.6956 0.6948 0.6948 0.6947 0.6946
3693.000000 0.6945 0.6943 0.6942 0.6940 0.6939
3698.000000 0.6937 0.6934 0.6931 0.6928 0.6925
3703.000000 0.6923 0.6920 0.6917 0.6914 0.6911
3708.000000 0.6908 0.6905 0.6902 0.6898 0.6895
3713.000000 0.6891 0.6888 0.6885 0.6881 0.6878
3718.000000 0.6874 0.6871 0.6867 0.6864 0.6861
3723.000000 0.6858 0.6854 0.6851 0.6848 0.6845
3728.000000 0.6841 0.6838 0.6835 0.6832 0.6828
3733.000000 0.6825 0.6822 0.6819 0.6816 0.6813
3738.000000 0.6811 0.6808 0.6805 0.6803 0.6800
3743.000000 0.6797 0.6795 0.6792 0.6789 0.6787
3748.000000 0.6784 0.6781 0.6779 0.6776 0.6773
3753.000000 0.6771 0.6768 0.6765 0.6763 0.6760
3758.000000 0.6757 0.6755 0.6751 0.6748 0.6745
3763.000000 0.6741 0.6738 0.6735 0.6731 0.6728
3768.000000 0.6725 0.6721 0.6718 0.6714 0.6711
3773.000000 0.6707 0.6703 0.6699 0.6695 0.6691
3778.000000 0.6687 0.6682 0.6678 0.6674 0.6669
3783.000000 0.6664 0.6658 0.6653 0.6648 0.6642
3788.000000 0.6637 0.6630 0.6624 0.6617 0.6611
3793.000000 0.6605 0.6598 0.6590 0.6583 0.6576
3798.000000 0.6569 0.6561 0.6552 0.6540 0.6529
3803.000000 0.6517 0.6506 0.6494 0.6480 0.6464
3808.000000 0.6449 0.6434 0.6418 0.6403 0.6395
3813.000000 0.6387 0.6379 0.6371 0.6363 0.6355
3818.000000 0.6348 0.6342 0.6335 0.6328 0.6322
3823.000000 0.6315 0.6310 0.6305 0.6299 0.6294
3828.000000 0.6288 0.6283 0.6279 0.6275 0.6271
3833.000000 0.6267 0.6263 0.6260 0.6257 0.6254
3838.000000 0.6252 0.6249 0.6246 0.6243 0.6240
3843.000000 0.6238 0.6235 0.6232 0.6229 0.6226
3848.000000 0.6223 0.6220 0.6217 0.6214 0.6211
3853.000000 0.6208 0.6205 0.6202 0.6199 0.6196
3858.000000 0.6194 0.6191 0.6189 0.6187 0.6185
3863.000000 0.6183 0.6180 0.6178 0.6176 0.6173
3868.000000 0.6171 0.6169 0.6166 0.6164 0.6162
3873.000000 0.6159 0.6157 0.6155 0.6152 0.6150
3878.000000 0.6148 0.6146 0.6144 0.6142 0.6139
3883.000000 0.6137 0.6135 0.6133 0.6131 0.6129
3888.000000 0.6127 0.6124 0.6122 0.6120 0.6118
3893.000000 0.6116 0.6114 0.6112 0.6110 0.6108
3898.000000 0.6106 0.6104 0.6102 0.6100 0.6098
3903.000000 0.6096 0.6095 0.6093 0.6091 0.6089
3908.000000 0.6088 0.6086 0.6084 0.6083 0.6081
3913.000000 0.6079 0.6078 0.6076 0.6075 0.6073
3918.000000 0.6071 0.6070 0.6068 0.6066 0.6065
3923.000000 0.6063 0.6062 0.6060 0.6058 0.6057
3928.000000 0.6055 0.6053 0.6052 0.6050 0.6049
3933.000000 0.6047 0.6045 0.6044 0.6042 0.6041
3938.000000 0.6039 0.6038 0.6036 0.6035 0.6033
3943.000000 0.6032 0.6030 0.6029 0.6027 0.6025
3948.000000 0.6024 0.6022 0.6021 0.6019 0.6018
3953.000000 0.6016 0.6015 0.6014 0.6012 0.6010
3958.000000 0.6009 0.6007 0.6006 0.6004 0.6002
3963.000000 0.6001 0.6000 0.5998 0.5997 0.5995
3968.000000 0.5994 0.5992 0.5991 0.5989 0.5988
3973.000000 0.5986 0.5984 0.5983 0.5981 0.5980
3978.000000 0.5978 0.5976 0.5975 0.5973 0.5972
3983.000000 0.5971 0.5969 0.5968 0.5966 0.5965
3988.000000 0.5963 0.5962 0.5960 0.5959 0.5957
3993.000000 0.5955 0.5954 0.5953 0.5952 0.5951
3998.000000 0.5950 0.5949 0.5949
##END=
