##TITLE=Alpha,Alpha-DICHLOROPROPIONIC ACID, MORPHOLINE SALT
##JCAMP-DX=4.24
##DATA TYPE=INFRARED SPECTRUM
##CLASS=COBLENTZ
##ORIGIN=DOW CHEMICAL COMPANY
##OWNER=COBLENTZ SOCIETY
Collection (C) 2018 copyright by the U.S. Secretary of Commerce
on behalf of the United States of America. All rights reserved.
##DATE=Not specified, most likely prior to 1970
##MOLFORM=C7 H13 Cl2 N O3
##SOURCE REFERENCE=COBLENTZ NO. 3245
##$NIST ID=B6003245
##$NIST SOURCE=COBLENTZ
##$NIST IMAGE=cob3245
##SPECTROMETER/DATA SYSTEM=Not specified, most likely a prism, grating, or hybrid spectrometer.
##STATE=SOLID (MINERAL OIL MULL)
##PATH LENGTH=
$$SPECTRAL CONTAMINATION DUE TO OIL AROUND 2900 CM^-^1
##SAMPLING PROCEDURE=TRANSMISSION
##RESOLUTION=4
##DATA PROCESSING=DIGITIZED BY NIST FROM HARD COPY
##XUNITS=MICROMETERS
##YUNITS=TRANSMITTANCE
##XFACTOR=1.000000
##YFACTOR=1
##DELTAX=000.006849
##FIRSTX=2.027
##LASTX=15.8498
##FIRSTY=0.89
##MAXX=15.8498
##MINX=2.027
##MAXY=0.908
##MINY=0.136
##NPOINTS=2019
##XYDATA=(X++(Y..Y))
2.027000 0.8900 0.8940 0.8940 0.8940 0.8920
2.061264 0.8900 0.8900 0.8900 0.8900 0.8900
2.096000 0.8900 0.8900 0.8900 0.8900 0.8900
2.130264 0.8900 0.8920 0.8940 0.8940 0.8940
2.164000 0.8920 0.8920 0.8900 0.8900 0.8890
2.198264 0.8870 0.8790 0.8770 0.8770 0.8770
2.233000 0.8770 0.8770 0.8790 0.8790 0.8800
2.267264 0.8800 0.8800 0.8820 0.8820 0.8840
2.301000 0.8870 0.8890 0.8890 0.8900 0.8900
2.335264 0.8900 0.8900 0.8900 0.8900 0.8900
2.370000 0.8900 0.8900 0.8900 0.8900 0.8920
2.404264 0.8920 0.8900 0.8900 0.8900 0.8900
2.438000 0.8920 0.8920 0.8920 0.8940 0.8960
2.472264 0.8990 0.8990 0.9010 0.9010 0.9020
2.507000 0.9020 0.9040 0.9040 0.9080 0.9080
2.541264 0.9080 0.9080 0.9080 0.9080 0.9080
2.575000 0.9040 0.9040 0.9040 0.9040 0.9020
2.609264 0.9020 0.9020 0.9020 0.9020 0.9040
2.644000 0.9040 0.9020 0.9010 0.8970 0.8920
2.678264 0.8850 0.8790 0.8730 0.8650 0.8580
2.712000 0.8480 0.8340 0.8190 0.8020 0.7830
2.746264 0.7630 0.7410 0.7200 0.7010 0.6830
2.781000 0.6670 0.6540 0.6300 0.6090 0.5920
2.815264 0.5790 0.5670 0.5570 0.5460 0.5360
2.849000 0.5260 0.5160 0.5050 0.5020 0.4970
2.883264 0.4920 0.4870 0.4830 0.4820 0.4820
2.918000 0.4820 0.4830 0.4880 0.4900 0.5000
2.952264 0.5040 0.5110 0.5170 0.5240 0.5290
2.986000 0.5360 0.5450 0.5530 0.5620 0.5650
3.020264 0.5720 0.5720 0.5750 0.5790 0.5790
3.055000 0.5820 0.5840 0.5860 0.5870 0.5890
3.089264 0.5890 0.5910 0.5920 0.5940 0.5960
3.123000 0.5960 0.5960 0.5940 0.5920 0.5910
3.157264 0.5890 0.5800 0.5750 0.5700 0.5670
3.192000 0.5570 0.5500 0.5380 0.5340 0.5260
3.226264 0.5160 0.5050 0.4950 0.4850 0.4660
3.260000 0.4560 0.4460 0.4310 0.4130 0.3960
3.294264 0.3810 0.3640 0.3470 0.3280 0.3080
3.329000 0.2860 0.2650 0.2520 0.2310 0.2160
3.363264 0.2010 0.1970 0.1900 0.1890 0.1870
3.397000 0.1870 0.1900 0.1970 0.2010 0.2110
3.431264 0.2230 0.2290 0.2330 0.2380 0.2350
3.466000 0.2310 0.2180 0.2090 0.2070 0.2090
3.500264 0.2260 0.2500 0.2700 0.2860 0.3040
3.534000 0.3110 0.3180 0.3200 0.3210 0.3210
3.568264 0.3200 0.3200 0.3200 0.3150 0.3130
3.603000 0.3040 0.3010 0.2960 0.2930 0.2910
3.637264 0.2930 0.2960 0.3040 0.3100 0.3160
3.671000 0.3230 0.3350 0.3470 0.3520 0.3610
3.705264 0.3640 0.3670 0.3690 0.3690 0.3710
3.740000 0.3740 0.3790 0.3860 0.3960 0.4050
3.774264 0.4150 0.4240 0.4320 0.4420 0.4530
3.808000 0.4650 0.4770 0.4880 0.4970 0.5070
3.842264 0.5140 0.5190 0.5210 0.5210 0.5190
3.877000 0.5120 0.5050 0.4990 0.4870 0.4770
3.911264 0.4660 0.4560 0.4510 0.4420 0.4360
3.945000 0.4290 0.4240 0.4200 0.4130 0.4100
3.979264 0.4100 0.4070 0.4070 0.4070 0.4080
4.014000 0.4150 0.4290 0.4360 0.4420 0.4490
4.048264 0.4610 0.4770 0.4900 0.5040 0.5190
4.082000 0.5310 0.5430 0.5510 0.5600 0.5680
4.116264 0.5790 0.5860 0.5940 0.5990 0.6030
4.151000 0.6090 0.6160 0.6200 0.6230 0.6300
4.185264 0.6320 0.6330 0.6350 0.6380 0.6420
4.219000 0.6420 0.6470 0.6500 0.6570 0.6620
4.253264 0.6690 0.6720 0.6790 0.6860 0.6960
4.288000 0.7010 0.7100 0.7150 0.7180 0.7200
4.322264 0.7240 0.7290 0.7270 0.7300 0.7350
4.356000 0.7370 0.7390 0.7390 0.7390 0.7410
4.390264 0.7410 0.7410 0.7390 0.7370 0.7370
4.425000 0.7350 0.7350 0.7350 0.7350 0.7340
4.459264 0.7340 0.7350 0.7370 0.7390 0.7460
4.493000 0.7510 0.7560 0.7580 0.7590 0.7630
4.527264 0.7680 0.7710 0.7750 0.7780 0.7800
4.562000 0.7830 0.7870 0.7900 0.7930 0.7970
4.596264 0.8000 0.8020 0.8020 0.8070 0.8070
4.630000 0.8090 0.8090 0.8100 0.8100 0.8100
4.664264 0.8120 0.8120 0.8120 0.8120 0.8120
4.699000 0.8140 0.8160 0.8190 0.8220 0.8240
4.733264 0.8260 0.8270 0.8270 0.8270 0.8270
4.767000 0.8290 0.8290 0.8290 0.8290 0.8290
4.801264 0.8270 0.8260 0.8260 0.8270 0.8290
4.836000 0.8310 0.8330 0.8360 0.8390 0.8430
4.870264 0.8460 0.8500 0.8510 0.8510 0.8580
4.904000 0.8600 0.8630 0.8650 0.8670 0.8670
4.938264 0.8670 0.8670 0.8670 0.8680 0.8680
4.973000 0.8680 0.8680 0.8670 0.8670 0.8650
5.007264 0.8630 0.8620 0.8620 0.8600 0.8600
5.041000 0.8620 0.8630 0.8670 0.8670 0.8670
5.075264 0.8680 0.8680 0.8680 0.8680 0.8680
5.110000 0.8670 0.8620 0.8600 0.8600 0.8600
5.144264 0.8580 0.8580 0.8560 0.8560 0.8560
5.178000 0.8560 0.8550 0.8550 0.8550 0.8560
5.212264 0.8580 0.8630 0.8650 0.8650 0.8670
5.247000 0.8670 0.8670 0.8680 0.8680 0.8680
5.281264 0.8700 0.8720 0.8730 0.8750 0.8770
5.315000 0.8770 0.8770 0.8770 0.8790 0.8800
5.349264 0.8800 0.8840 0.8870 0.8870 0.8870
5.384000 0.8870 0.8870 0.8870 0.8870 0.8840
5.418264 0.8840 0.8840 0.8840 0.8840 0.8840
5.452000 0.8840 0.8840 0.8840 0.8840 0.8840
5.486264 0.8840 0.8840 0.8820 0.8790 0.8770
5.521000 0.8720 0.8700 0.8680 0.8670 0.8620
5.555264 0.8580 0.8550 0.8510 0.8480 0.8440
5.589000 0.8430 0.8360 0.8270 0.8220 0.8160
5.623264 0.8100 0.8040 0.8000 0.7950 0.7900
5.658000 0.7850 0.7800 0.7750 0.7680 0.7610
5.692264 0.7560 0.7490 0.7410 0.7340 0.7250
5.726000 0.7150 0.7050 0.7000 0.6950 0.6880
5.760264 0.6830 0.6790 0.6780 0.6780 0.6760
5.795000 0.6760 0.6760 0.6760 0.6740 0.6720
5.829264 0.6690 0.6670 0.6660 0.6640 0.6600
5.863000 0.6590 0.6570 0.6500 0.6430 0.6370
5.897264 0.6300 0.6210 0.6110 0.6010 0.5860
5.932000 0.5680 0.5530 0.5290 0.5090 0.4870
5.966264 0.4590 0.4320 0.4050 0.3790 0.3560
6.000000 0.3250 0.2870 0.2700 0.2550 0.2480
6.034264 0.2410 0.2330 0.2240 0.2110 0.1950
6.068000 0.1800 0.1660 0.1550 0.1490 0.1430
6.102264 0.1390 0.1390 0.1370 0.1360 0.1360
6.137000 0.1360 0.1360 0.1370 0.1430 0.1490
6.171264 0.1610 0.1700 0.1750 0.1820 0.1900
6.205000 0.1990 0.2110 0.2240 0.2400 0.2570
6.239264 0.2750 0.2890 0.3040 0.3200 0.3350
6.274000 0.3540 0.3660 0.3790 0.3950 0.4030
6.308264 0.4150 0.4290 0.4460 0.4610 0.4800
6.342000 0.4950 0.5090 0.5210 0.5280 0.5340
6.376264 0.5410 0.5460 0.5550 0.5650 0.5800
6.411000 0.5970 0.6010 0.6080 0.6130 0.6200
6.445264 0.6230 0.6280 0.6300 0.6330 0.6400
6.479000 0.6470 0.6550 0.6600 0.6670 0.6720
6.513264 0.6780 0.6790 0.6790 0.6810 0.6830
6.548000 0.6840 0.6880 0.6890 0.6930 0.6950
6.582264 0.6980 0.6980 0.7000 0.7000 0.7010
6.616000 0.7030 0.7060 0.7080 0.7080 0.7080
6.650264 0.7080 0.7080 0.7080 0.7050 0.6980
6.685000 0.6890 0.6780 0.6670 0.6570 0.6500
6.719264 0.6420 0.6330 0.6250 0.6160 0.6060
6.753000 0.5940 0.5750 0.5500 0.5140 0.4880
6.787264 0.4750 0.4490 0.4240 0.4100 0.3950
6.822000 0.3910 0.3810 0.3690 0.3570 0.3440
6.856264 0.3300 0.3210 0.3150 0.3110 0.3130
6.890000 0.3230 0.3330 0.3540 0.3670 0.3810
6.924264 0.3980 0.4190 0.4390 0.4630 0.4850
6.959000 0.5090 0.5330 0.5530 0.5600 0.5650
6.993264 0.5720 0.5770 0.5840 0.5910 0.5960
7.027000 0.5970 0.5970 0.5970 0.5970 0.5970
7.061264 0.5890 0.5870 0.5790 0.5680 0.5600
7.096000 0.5500 0.5400 0.5290 0.5210 0.5140
7.130264 0.5040 0.4950 0.4870 0.4750 0.4700
7.164000 0.4650 0.4530 0.4340 0.4240 0.3930
7.198264 0.3690 0.3300 0.2910 0.2690 0.2500
7.233000 0.2470 0.2450 0.2470 0.2690 0.2940
7.267264 0.3280 0.3540 0.3780 0.3830 0.3830
7.301000 0.3690 0.3440 0.3150 0.2750 0.2400
7.335264 0.2140 0.1890 0.1800 0.1800 0.1820
7.370000 0.1900 0.2040 0.2140 0.2190 0.2400
7.404264 0.2600 0.2810 0.2990 0.3150 0.3450
7.438000 0.3780 0.4130 0.4490 0.4780 0.4990
7.472264 0.5040 0.5140 0.5210 0.5290 0.5380
7.507000 0.5480 0.5500 0.5480 0.5330 0.5170
7.541264 0.5090 0.4990 0.4970 0.4970 0.4970
7.575000 0.4990 0.5040 0.5140 0.5220 0.5280
7.609264 0.5290 0.5310 0.5330 0.5330 0.5340
7.644000 0.5380 0.5430 0.5530 0.5720 0.5890
7.678264 0.6040 0.6250 0.6400 0.6540 0.6640
7.712000 0.6710 0.6780 0.6810 0.6860 0.6880
7.746264 0.6890 0.6930 0.6950 0.6960 0.6960
7.781000 0.6960 0.6960 0.6950 0.6950 0.6910
7.815264 0.6910 0.6890 0.6890 0.6910 0.6930
7.849000 0.6960 0.6980 0.6980 0.7000 0.7000
7.883264 0.7000 0.7010 0.7010 0.7010 0.7010
7.918000 0.7010 0.7010 0.7010 0.7000 0.7000
7.952264 0.6980 0.6950 0.6880 0.6810 0.6760
7.986000 0.6670 0.6640 0.6490 0.6300 0.6090
8.020264 0.5970 0.5940 0.5790 0.5630 0.5480
8.055000 0.5360 0.5330 0.5310 0.5360 0.5580
8.089264 0.5860 0.6090 0.6380 0.6640 0.6760
8.123000 0.6890 0.6980 0.7030 0.7080 0.7120
8.157264 0.7170 0.7170 0.7180 0.7200 0.7220
8.192000 0.7220 0.7240 0.7240 0.7240 0.7240
8.226264 0.7240 0.7240 0.7240 0.7220 0.7200
8.260000 0.7180 0.7170 0.7100 0.7080 0.7060
8.294264 0.7010 0.7000 0.6980 0.6950 0.6910
8.329000 0.6910 0.6890 0.6890 0.6910 0.6950
8.363264 0.6980 0.7030 0.7080 0.7100 0.7130
8.397000 0.7170 0.7170 0.7180 0.7180 0.7170
8.431264 0.7170 0.7150 0.7150 0.7150 0.7170
8.466000 0.7180 0.7220 0.7290 0.7340 0.7370
8.500264 0.7420 0.7460 0.7490 0.7510 0.7560
8.534000 0.7580 0.7590 0.7610 0.7660 0.7680
8.568264 0.7700 0.7700 0.7710 0.7730 0.7760
8.603000 0.7760 0.7760 0.7780 0.7780 0.7780
8.637264 0.7780 0.7760 0.7760 0.7730 0.7710
8.671000 0.7680 0.7610 0.7580 0.7510 0.7470
8.705264 0.7410 0.7290 0.7180 0.7050 0.6930
8.740000 0.6810 0.6740 0.6660 0.6600 0.6590
8.774264 0.6570 0.6570 0.6570 0.6590 0.6590
8.808000 0.6620 0.6620 0.6620 0.6640 0.6640
8.842264 0.6640 0.6640 0.6620 0.6600 0.6540
8.877000 0.6490 0.6400 0.6330 0.6250 0.6080
8.911264 0.5890 0.5680 0.5480 0.5260 0.4990
8.945000 0.4700 0.4370 0.4000 0.3590 0.3250
8.979264 0.2910 0.2750 0.2430 0.2120 0.1850
9.014000 0.1720 0.1600 0.1580 0.1600 0.1630
9.048264 0.1770 0.1950 0.2190 0.2470 0.2750
9.082000 0.3080 0.3420 0.3760 0.4070 0.4320
9.116264 0.4630 0.4970 0.5220 0.5400 0.5530
9.151000 0.5600 0.5650 0.5650 0.5650 0.5600
9.185264 0.5530 0.5410 0.5310 0.5140 0.4970
9.219000 0.4830 0.4770 0.4680 0.4530 0.4370
9.253264 0.4240 0.4130 0.4030 0.3980 0.3930
9.288000 0.3830 0.3780 0.3710 0.3670 0.3640
9.322264 0.3610 0.3610 0.3620 0.3690 0.3780
9.356000 0.3930 0.4120 0.4250 0.4440 0.4580
9.390264 0.4680 0.4880 0.5120 0.5310 0.5480
9.425000 0.5530 0.5670 0.5770 0.5860 0.5870
9.459264 0.5870 0.5870 0.5860 0.5740 0.5580
9.493000 0.5450 0.5380 0.5220 0.5020 0.4830
9.527264 0.4580 0.4440 0.4340 0.4240 0.4220
9.562000 0.4250 0.4340 0.4510 0.4610 0.4800
9.596264 0.5070 0.5380 0.5740 0.6090 0.6250
9.630000 0.6420 0.6540 0.6720 0.6830 0.6930
9.664264 0.7030 0.7080 0.7170 0.7200 0.7270
9.699000 0.7350 0.7390 0.7440 0.7470 0.7470
9.733264 0.7490 0.7510 0.7510 0.7510 0.7510
9.767000 0.7510 0.7490 0.7490 0.7470 0.7470
9.801264 0.7460 0.7460 0.7470 0.7520 0.7560
9.836000 0.7610 0.7730 0.7780 0.7810 0.7870
9.870264 0.7880 0.7950 0.7970 0.7970 0.7980
9.904000 0.8000 0.8020 0.8050 0.8070 0.8070
9.938264 0.8050 0.8050 0.8050 0.8050 0.8040
9.973000 0.8040 0.8000 0.8000 0.7970 0.7950
10.007264 0.7920 0.7900 0.7870 0.7870 0.7850
10.041000 0.7850 0.7830 0.7810 0.7810 0.7800
10.075264 0.7800 0.7800 0.7800 0.7800 0.7800
10.110000 0.7800 0.7810 0.7830 0.7850 0.7870
10.144264 0.7870 0.7900 0.7950 0.7970 0.7980
10.178000 0.8000 0.8000 0.8050 0.8070 0.8100
10.212264 0.8120 0.8170 0.8170 0.8190 0.8190
10.247000 0.8190 0.8190 0.8210 0.8210 0.8190
10.281264 0.8190 0.8190 0.8170 0.8160 0.8160
10.315000 0.8160 0.8120 0.8090 0.8070 0.8050
10.349264 0.8040 0.8000 0.8000 0.7980 0.7980
10.384000 0.7970 0.7950 0.7930 0.7920 0.7880
10.418264 0.7870 0.7830 0.7830 0.7810 0.7810
10.452000 0.7800 0.7800 0.7800 0.7800 0.7800
10.486264 0.7780 0.7760 0.7760 0.7760 0.7760
10.521000 0.7760 0.7750 0.7730 0.7710 0.7700
10.555264 0.7700 0.7700 0.7700 0.7700 0.7700
10.589000 0.7700 0.7710 0.7730 0.7760 0.7760
10.623264 0.7760 0.7780 0.7780 0.7800 0.7810
10.658000 0.7850 0.7870 0.7870 0.7870 0.7880
10.692264 0.7900 0.7920 0.7950 0.7970 0.7980
10.726000 0.7980 0.8000 0.8020 0.8040 0.8050
10.760264 0.8070 0.8090 0.8100 0.8120 0.8160
10.795000 0.8170 0.8170 0.8190 0.8210 0.8210
10.829264 0.8210 0.8220 0.8240 0.8260 0.8290
10.863000 0.8310 0.8310 0.8330 0.8340 0.8340
10.897264 0.8360 0.8360 0.8380 0.8380 0.8380
10.932000 0.8380 0.8390 0.8410 0.8410 0.8410
10.966264 0.8410 0.8410 0.8410 0.8430 0.8430
11.000000 0.8440 0.8460 0.8480 0.8500 0.8500
11.034264 0.8500 0.8500 0.8500 0.8500 0.8500
11.068000 0.8500 0.8500 0.8480 0.8480 0.8480
11.102264 0.8460 0.8440 0.8410 0.8390 0.8380
11.137000 0.8380 0.8360 0.8330 0.8310 0.8290
11.171264 0.8240 0.8190 0.8140 0.8090 0.8040
11.205000 0.7930 0.7780 0.7660 0.7590 0.7490
11.239264 0.7340 0.7180 0.7100 0.7030 0.6840
11.274000 0.6660 0.6540 0.6330 0.6140 0.5990
11.308264 0.5840 0.5670 0.5530 0.5460 0.5330
11.342000 0.5190 0.5090 0.4990 0.4830 0.4680
11.376264 0.4530 0.4390 0.4270 0.4100 0.3900
11.411000 0.3710 0.3560 0.3490 0.3470 0.3490
11.445264 0.3560 0.3730 0.3950 0.4130 0.4440
11.479000 0.4820 0.5020 0.5360 0.5620 0.5940
11.513264 0.6280 0.6620 0.6810 0.6930 0.7100
11.548000 0.7200 0.7290 0.7350 0.7440 0.7520
11.582264 0.7640 0.7700 0.7750 0.7800 0.7830
11.616000 0.7880 0.7920 0.7950 0.7970 0.7980
11.650264 0.8000 0.8050 0.8070 0.8090 0.8100
11.685000 0.8120 0.8140 0.8160 0.8160 0.8160
11.719264 0.8170 0.8170 0.8170 0.8170 0.8170
11.753000 0.8170 0.8170 0.8170 0.8170 0.8170
11.787264 0.8170 0.8170 0.8170 0.8160 0.8160
11.822000 0.8100 0.8090 0.8070 0.8040 0.8040
11.856264 0.8000 0.8000 0.8000 0.7980 0.7980
11.890000 0.7980 0.8000 0.8020 0.8040 0.8050
11.924264 0.8050 0.8070 0.8090 0.8090 0.8090
11.959000 0.8100 0.8100 0.8100 0.8100 0.8100
11.993264 0.8090 0.8090 0.8020 0.7980 0.7850
12.027000 0.7730 0.7630 0.7520 0.7460 0.7390
12.061264 0.7300 0.7270 0.7200 0.7180 0.7180
12.096000 0.7170 0.7180 0.7200 0.7270 0.7340
12.130264 0.7440 0.7490 0.7560 0.7610 0.7660
12.164000 0.7660 0.7680 0.7700 0.7730 0.7750
12.198264 0.7750 0.7760 0.7760 0.7750 0.7710
12.233000 0.7630 0.7540 0.7490 0.7440 0.7420
12.267264 0.7410 0.7410 0.7410 0.7420 0.7470
12.301000 0.7510 0.7560 0.7590 0.7610 0.7710
12.335264 0.7760 0.7760 0.7780 0.7800 0.7830
12.370000 0.7850 0.7870 0.7880 0.7880 0.7900
12.404264 0.7900 0.7900 0.7920 0.7900 0.7900
12.438000 0.7900 0.7900 0.7900 0.7900 0.7900
12.472264 0.7900 0.7900 0.7900 0.7900 0.7900
12.507000 0.7900 0.7900 0.7900 0.7900 0.7900
12.541264 0.7900 0.7900 0.7900 0.7900 0.7900
12.575000 0.7900 0.7900 0.7900 0.7900 0.7900
12.609264 0.7900 0.7900 0.7880 0.7880 0.7880
12.644000 0.7880 0.7880 0.7900 0.7900 0.7900
12.678264 0.7900 0.7900 0.7900 0.7900 0.7880
12.712000 0.7880 0.7870 0.7870 0.7870 0.7870
12.746264 0.7870 0.7870 0.7830 0.7830 0.7830
12.781000 0.7830 0.7830 0.7810 0.7810 0.7810
12.815264 0.7810 0.7800 0.7800 0.7800 0.7780
12.849000 0.7780 0.7780 0.7780 0.7760 0.7760
12.883264 0.7760 0.7760 0.7750 0.7750 0.7750
12.918000 0.7730 0.7730 0.7710 0.7710 0.7710
12.952264 0.7710 0.7700 0.7700 0.7680 0.7680
12.986000 0.7660 0.7660 0.7660 0.7660 0.7640
13.020264 0.7640 0.7630 0.7610 0.7610 0.7590
13.055000 0.7590 0.7580 0.7580 0.7580 0.7560
13.089264 0.7540 0.7540 0.7520 0.7520 0.7510
13.123000 0.7490 0.7470 0.7440 0.7440 0.7420
13.157264 0.7420 0.7410 0.7390 0.7370 0.7370
13.192000 0.7340 0.7320 0.7270 0.7250 0.7240
13.226264 0.7240 0.7220 0.7200 0.7170 0.7170
13.260000 0.7120 0.7100 0.7080 0.7050 0.7050
13.294264 0.7010 0.7010 0.7000 0.6980 0.6980
13.329000 0.6950 0.6890 0.6880 0.6880 0.6860
13.363264 0.6830 0.6810 0.6790 0.6780 0.6760
13.397000 0.6740 0.6720 0.6690 0.6660 0.6640
13.431264 0.6620 0.6590 0.6590 0.6570 0.6520
13.466000 0.6500 0.6490 0.6470 0.6450 0.6400
13.500264 0.6380 0.6370 0.6320 0.6280 0.6260
13.534000 0.6210 0.6200 0.6140 0.6110 0.6080
13.568264 0.6030 0.6010 0.5990 0.5960 0.5920
13.603000 0.5910 0.5840 0.5790 0.5770 0.5720
13.637264 0.5680 0.5630 0.5600 0.5550 0.5500
13.671000 0.5460 0.5410 0.5360 0.5290 0.5220
13.705264 0.5170 0.5110 0.5040 0.4990 0.4940
13.740000 0.4870 0.4780 0.4700 0.4630 0.4530
13.774264 0.4440 0.4370 0.4320 0.4250 0.4190
13.808000 0.4080 0.3950 0.3780 0.3730 0.3590
13.842264 0.3500 0.3390 0.3300 0.3180 0.3040
13.877000 0.2980 0.2870 0.2790 0.2720 0.2670
13.911264 0.2600 0.2570 0.2500 0.2480 0.2480
13.945000 0.2480 0.2480 0.2480 0.2480 0.2500
13.979264 0.2580 0.2640 0.2700 0.2740 0.2840
14.014000 0.2940 0.3030 0.3110 0.3200 0.3300
14.048264 0.3390 0.3470 0.3540 0.3610 0.3690
14.082000 0.3790 0.3880 0.3960 0.4030 0.4080
14.116264 0.4130 0.4190 0.4270 0.4340 0.4410
14.151000 0.4480 0.4530 0.4560 0.4590 0.4660
14.185264 0.4700 0.4770 0.4780 0.4820 0.4850
14.219000 0.4870 0.4900 0.4920 0.4940 0.4970
14.253264 0.4990 0.5000 0.5020 0.5040 0.5050
14.288000 0.5070 0.5070 0.5090 0.5110 0.5110
14.322264 0.5110 0.5120 0.5120 0.5120 0.5140
14.356000 0.5140 0.5160 0.5160 0.5160 0.5170
14.390264 0.5170 0.5170 0.5140 0.5140 0.5120
14.425000 0.5120 0.5120 0.5110 0.5120 0.5110
14.459264 0.5110 0.5110 0.5110 0.5090 0.5090
14.493000 0.5070 0.5070 0.5070 0.5070 0.5070
14.527264 0.5050 0.5050 0.5040 0.5020 0.5000
14.562000 0.5000 0.4990 0.4990 0.4970 0.4970
14.596264 0.4950 0.4940 0.4940 0.4920 0.4900
14.630000 0.4880 0.4880 0.4870 0.4870 0.4870
14.664264 0.4870 0.4820 0.4800 0.4800 0.4780
14.699000 0.4780 0.4780 0.4770 0.4770 0.4770
14.733264 0.4730 0.4710 0.4710 0.4700 0.4680
14.767000 0.4680 0.4680 0.4680 0.4660 0.4650
14.801264 0.4630 0.4610 0.4590 0.4590 0.4560
14.836000 0.4560 0.4530 0.4510 0.4490 0.4480
14.870264 0.4480 0.4440 0.4420 0.4410 0.4390
14.904000 0.4370 0.4370 0.4360 0.4320 0.4310
14.938264 0.4290 0.4290 0.4290 0.4290 0.4270
14.973000 0.4250 0.4250 0.4220 0.4200 0.4190
15.007264 0.4150 0.4120 0.4080 0.4070 0.4000
15.041000 0.3980 0.3960 0.3950 0.3900 0.3880
15.075264 0.3850 0.3790 0.3780 0.3730 0.3710
15.110000 0.3690 0.3640 0.3620 0.3590 0.3540
15.144264 0.3520 0.3500 0.3470 0.3450 0.3420
15.178000 0.3390 0.3370 0.3350 0.3330 0.3300
15.212264 0.3270 0.3250 0.3210 0.3200 0.3180
15.247000 0.3150 0.3130 0.3100 0.3080 0.3040
15.281264 0.3030 0.3030 0.3010 0.2990 0.2980
15.315000 0.2980 0.2980 0.2960 0.2940 0.2940
15.349264 0.2930 0.2930 0.2910 0.2910 0.2890
15.384000 0.2890 0.2890 0.2870 0.2870 0.2870
15.418264 0.2870 0.2870 0.2870 0.2870 0.2870
15.452000 0.2870 0.2870 0.2890 0.2890 0.2910
15.486264 0.2940 0.2960 0.2960 0.2980 0.2980
15.521000 0.2990 0.2990 0.3010 0.3010 0.3030
15.555264 0.3030 0.3040 0.3040 0.3040 0.3080
15.589000 0.3080 0.3100 0.3110 0.3130 0.3130
15.623264 0.3130 0.3130 0.3150 0.3150 0.3150
15.658000 0.3160 0.3160 0.3160 0.3160 0.3160
15.692264 0.3180 0.3180 0.3180 0.3180 0.3180
15.726000 0.3180 0.3180 0.3180 0.3180 0.3200
15.760264 0.3200 0.3200 0.3200 0.3200 0.3200
15.795000 0.3200 0.3200 0.3200 0.3200 0.3200
15.829264 0.3200 0.3200 0.3200 0.3200
##END=
