##TITLE=Polyethylene glycol
##JCAMP-DX=4.24
$$ By DXEDIT 1.05 (RS McDonald)
##DATA TYPE=INFRARED SPECTRUM
##CLASS=COBLENTZ III
##ORIGIN=DOW CHEMICAL COMPANY
##OWNER=COPYRIGHT (C) 1988 by COBLENTZ SOCIETY INC.
Collection (C) 2018 copyright by the U.S. Secretary of Commerce
on behalf of the United States of America. All rights reserved.
##DATE=1970/10/30
##NAMES=ethylene glycol
Polyglycol E-400
##MOLFORM=C2 H6 O2
##SOURCE REFERENCE=COBLENTZ NO. 09512
##$NIST ID=B6009512
##$NIST SOURCE=COBLENTZ
##$NIST IMAGE=cob9512
##SPECTROMETER/DATA SYSTEM=DOW KBr FOREPRISM-GRATING
##INSTRUMENT PARAMETERS=BLAZED AT 3.5, 12.0, 20.0 MICRON AND CHANGED AT 5.0, 7.5, 14.9 MICRON
##STATE=LIQUID (NEAT)
##PATH LENGTH=CAPILLARY
$$SPECTRAL CONTAMINATION DUE TO H2O AROUND 1650 CM^-^1
##SAMPLING PROCEDURE=TRANSMISSION
##RESOLUTION=2
##DATA PROCESSING=DIGITIZED BY COBLENTZ SOCIETY (BATCH I) FROM HARD COPY
##XUNITS=1/CM
##YUNITS=TRANSMITTANCE
##XFACTOR=1
##YFACTOR=1
##DELTAX=1
##FIRSTX=3802
##LASTX=399
##FIRSTY=0.8227
##MAXX=3802
##MINX=399
##MAXY=0.8731
##MINY=0.0256
##NPOINTS=3404
##XYDATA=(X++(Y..Y))
3802.000000 0.8227 0.8228 0.8228 0.8230 0.8231
3797.000000 0.8232 0.8233 0.8234 0.8235 0.8236
3792.000000 0.8237 0.8238 0.8239 0.8240 0.8240
3787.000000 0.8240 0.8240 0.8239 0.8239 0.8238
3782.000000 0.8238 0.8238 0.8238 0.8237 0.8237
3777.000000 0.8237 0.8237 0.8236 0.8236 0.8236
3772.000000 0.8236 0.8236 0.8236 0.8236 0.8236
3767.000000 0.8236 0.8236 0.8236 0.8236 0.8236
3762.000000 0.8236 0.8236 0.8236 0.8235 0.8235
3757.000000 0.8234 0.8234 0.8233 0.8233 0.8232
3752.000000 0.8232 0.8231 0.8230 0.8228 0.8228
3747.000000 0.8228 0.8228 0.8227 0.8227 0.8225
3742.000000 0.8225 0.8225 0.8225 0.8224 0.8224
3737.000000 0.8223 0.8223 0.8221 0.8221 0.8221
3732.000000 0.8221 0.8220 0.8218 0.8216 0.8214
3727.000000 0.8212 0.8210 0.8207 0.8205 0.8203
3722.000000 0.8201 0.8198 0.8196 0.8193 0.8191
3717.000000 0.8189 0.8187 0.8184 0.8182 0.8180
3712.000000 0.8178 0.8175 0.8172 0.8169 0.8168
3707.000000 0.8162 0.8158 0.8153 0.8148 0.8143
3702.000000 0.8138 0.8133 0.8128 0.8122 0.8118
3697.000000 0.8112 0.8108 0.8103 0.8098 0.8093
3692.000000 0.8088 0.8083 0.8078 0.8072 0.8068
3687.000000 0.8060 0.8053 0.8044 0.8036 0.8026
3682.000000 0.8018 0.8008 0.8001 0.7992 0.7983
3677.000000 0.7974 0.7965 0.7957 0.7949 0.7940
3672.000000 0.7931 0.7921 0.7914 0.7904 0.7894
3667.000000 0.7880 0.7865 0.7851 0.7839 0.7825
3662.000000 0.7811 0.7797 0.7784 0.7769 0.7756
3657.000000 0.7741 0.7725 0.7706 0.7687 0.7667
3652.000000 0.7648 0.7628 0.7608 0.7588 0.7568
3647.000000 0.7547 0.7525 0.7503 0.7480 0.7457
3642.000000 0.7435 0.7411 0.7390 0.7367 0.7344
3637.000000 0.7321 0.7299 0.7275 0.7253 0.7228
3632.000000 0.7205 0.7181 0.7157 0.7133 0.7108
3627.000000 0.7085 0.7061 0.7038 0.7015 0.6992
3622.000000 0.6969 0.6947 0.6925 0.6901 0.6880
3617.000000 0.6857 0.6835 0.6812 0.6791 0.6768
3612.000000 0.6746 0.6721 0.6696 0.6669 0.6644
3607.000000 0.6618 0.6592 0.6565 0.6539 0.6512
3602.000000 0.6487 0.6461 0.6435 0.6408 0.6382
3597.000000 0.6356 0.6330 0.6304 0.6278 0.6252
3592.000000 0.6226 0.6201 0.6177 0.6152 0.6127
3587.000000 0.6102 0.6077 0.6052 0.6027 0.6002
3582.000000 0.5978 0.5953 0.5928 0.5903 0.5878
3577.000000 0.5853 0.5829 0.5803 0.5777 0.5751
3572.000000 0.5725 0.5699 0.5673 0.5646 0.5620
3567.000000 0.5594 0.5568 0.5542 0.5516 0.5490
3562.000000 0.5464 0.5437 0.5410 0.5385 0.5359
3557.000000 0.5337 0.5315 0.5294 0.5274 0.5254
3552.000000 0.5234 0.5214 0.5194 0.5173 0.5153
3547.000000 0.5133 0.5112 0.5093 0.5073 0.5052
3542.000000 0.5032 0.5010 0.4990 0.4966 0.4943
3537.000000 0.4920 0.4897 0.4874 0.4851 0.4828
3532.000000 0.4805 0.4781 0.4758 0.4737 0.4717
3527.000000 0.4701 0.4686 0.4670 0.4654 0.4638
3522.000000 0.4622 0.4606 0.4591 0.4575 0.4559
3517.000000 0.4543 0.4528 0.4512 0.4499 0.4484
3512.000000 0.4470 0.4455 0.4441 0.4427 0.4412
3507.000000 0.4398 0.4384 0.4369 0.4355 0.4341
3502.000000 0.4328 0.4315 0.4303 0.4290 0.4278
3497.000000 0.4265 0.4253 0.4240 0.4228 0.4215
3492.000000 0.4203 0.4190 0.4178 0.4165 0.4153
3487.000000 0.4139 0.4126 0.4110 0.4097 0.4082
3482.000000 0.4066 0.4052 0.4038 0.4023 0.4009
3477.000000 0.3994 0.3979 0.3964 0.3950 0.3934
3472.000000 0.3920 0.3905 0.3891 0.3877 0.3862
3467.000000 0.3849 0.3836 0.3823 0.3809 0.3797
3462.000000 0.3784 0.3771 0.3758 0.3745 0.3732
3457.000000 0.3718 0.3706 0.3693 0.3680 0.3666
3452.000000 0.3654 0.3640 0.3626 0.3610 0.3596
3447.000000 0.3580 0.3566 0.3552 0.3538 0.3523
3442.000000 0.3508 0.3493 0.3479 0.3464 0.3449
3437.000000 0.3434 0.3420 0.3405 0.3390 0.3377
3432.000000 0.3364 0.3350 0.3339 0.3326 0.3314
3427.000000 0.3300 0.3289 0.3276 0.3262 0.3250
3422.000000 0.3238 0.3225 0.3212 0.3200 0.3189
3417.000000 0.3177 0.3166 0.3155 0.3144 0.3132
3412.000000 0.3121 0.3110 0.3099 0.3087 0.3076
3407.000000 0.3064 0.3053 0.3042 0.3032 0.3023
3402.000000 0.3014 0.3005 0.2996 0.2985 0.2977
3397.000000 0.2967 0.2957 0.2946 0.2934 0.2923
3392.000000 0.2912 0.2906 0.2900 0.2895 0.2890
3387.000000 0.2884 0.2880 0.2875 0.2870 0.2865
3382.000000 0.2861 0.2856 0.2851 0.2846 0.2842
3377.000000 0.2839 0.2835 0.2833 0.2831 0.2828
3372.000000 0.2834 0.2823 0.2820 0.2819 0.2819
3367.000000 0.2818 0.2817 0.2816 0.2816 0.2815
3362.000000 0.2815 0.2815 0.2816 0.2819 0.2823
3357.000000 0.2826 0.2830 0.2833 0.2837 0.2840
3352.000000 0.2844 0.2850 0.2857 0.2863 0.2869
3347.000000 0.2875 0.2882 0.2888 0.2894 0.2900
3342.000000 0.2906 0.2912 0.2919 0.2930 0.2942
3337.000000 0.2953 0.2964 0.2975 0.2985 0.2997
3332.000000 0.3008 0.3019 0.3031 0.3042 0.3054
3327.000000 0.3065 0.3076 0.3087 0.3099 0.3110
3322.000000 0.3122 0.3133 0.3144 0.3156 0.3168
3317.000000 0.3179 0.3191 0.3203 0.3214 0.3226
3312.000000 0.3238 0.3250 0.3262 0.3275 0.3288
3307.000000 0.3303 0.3318 0.3334 0.3350 0.3366
3302.000000 0.3382 0.3397 0.3412 0.3428 0.3444
3297.000000 0.3460 0.3478 0.3497 0.3516 0.3534
3292.000000 0.3553 0.3572 0.3591 0.3609 0.3629
3287.000000 0.3648 0.3666 0.3686 0.3705 0.3724
3282.000000 0.3743 0.3762 0.3780 0.3800 0.3822
3277.000000 0.3842 0.3862 0.3882 0.3904 0.3924
3272.000000 0.3945 0.3964 0.3986 0.4007 0.4028
3267.000000 0.4048 0.4068 0.4089 0.4110 0.4130
3262.000000 0.4151 0.4176 0.4201 0.4225 0.4250
3257.000000 0.4275 0.4300 0.4324 0.4349 0.4374
3252.000000 0.4399 0.4423 0.4448 0.4473 0.4498
3247.000000 0.4522 0.4547 0.4572 0.4597 0.4620
3242.000000 0.4644 0.4667 0.4691 0.4715 0.4739
3237.000000 0.4762 0.4786 0.4809 0.4833 0.4857
3232.000000 0.4881 0.4904 0.4928 0.4951 0.4975
3227.000000 0.4999 0.5023 0.5050 0.5078 0.5109
3222.000000 0.5141 0.5172 0.5204 0.5235 0.5267
3217.000000 0.5298 0.5329 0.5360 0.5392 0.5423
3212.000000 0.5455 0.5486 0.5517 0.5547 0.5578
3207.000000 0.5608 0.5639 0.5669 0.5700 0.5730
3202.000000 0.5760 0.5791 0.5822 0.5853 0.5884
3197.000000 0.5914 0.5945 0.5971 0.5998 0.6022
3192.000000 0.6047 0.6071 0.6095 0.6119 0.6144
3187.000000 0.6168 0.6192 0.6216 0.6240 0.6264
3182.000000 0.6289 0.6312 0.6337 0.6360 0.6386
3177.000000 0.6411 0.6437 0.6461 0.6487 0.6511
3172.000000 0.6538 0.6562 0.6588 0.6612 0.6638
3167.000000 0.6662 0.6689 0.6714 0.6739 0.6761
3162.000000 0.6786 0.6807 0.6828 0.6850 0.6871
3157.000000 0.6893 0.6914 0.6935 0.6957 0.6978
3152.000000 0.7000 0.7021 0.7042 0.7062 0.7085
3147.000000 0.7106 0.7128 0.7147 0.7165 0.7182
3142.000000 0.7198 0.7214 0.7230 0.7246 0.7261
3137.000000 0.7278 0.7294 0.7310 0.7326 0.7343
3132.000000 0.7358 0.7375 0.7391 0.7406 0.7421
3127.000000 0.7436 0.7450 0.7464 0.7478 0.7492
3122.000000 0.7506 0.7518 0.7533 0.7547 0.7561
3117.000000 0.7575 0.7589 0.7603 0.7617 0.7631
3112.000000 0.7645 0.7653 0.7661 0.7669 0.7678
3107.000000 0.7688 0.7697 0.7705 0.7714 0.7721
3102.000000 0.7731 0.7739 0.7748 0.7756 0.7765
3097.000000 0.7768 0.7774 0.7778 0.7782 0.7786
3092.000000 0.7790 0.7794 0.7799 0.7803 0.7807
3087.000000 0.7811 0.7815 0.7818 0.7824 0.7828
3082.000000 0.7832 0.7834 0.7836 0.7838 0.7840
3077.000000 0.7842 0.7844 0.7846 0.7848 0.7850
3072.000000 0.7851 0.7854 0.7856 0.7858 0.7858
3067.000000 0.7858 0.7858 0.7858 0.7858 0.7858
3062.000000 0.7858 0.7858 0.7858 0.7857 0.7857
3057.000000 0.7857 0.7857 0.7856 0.7856 0.7856
3052.000000 0.7856 0.7854 0.7853 0.7851 0.7849
3047.000000 0.7846 0.7844 0.7842 0.7840 0.7837
3042.000000 0.7835 0.7833 0.7831 0.7828 0.7826
3037.000000 0.7824 0.7821 0.7815 0.7810 0.7804
3032.000000 0.7799 0.7793 0.7787 0.7781 0.7775
3027.000000 0.7769 0.7764 0.7755 0.7747 0.7735
3022.000000 0.7724 0.7711 0.7701 0.7689 0.7678
3017.000000 0.7665 0.7654 0.7639 0.7625 0.7610
3012.000000 0.7595 0.7580 0.7565 0.7549 0.7532
3007.000000 0.7496 0.7460 0.7424 0.7388 0.7354
3002.000000 0.7319 0.7286 0.7253 0.7218 0.7186
2997.000000 0.7118 0.7053 0.6983 0.6914 0.6824
2992.000000 0.6735 0.6640 0.6545 0.6449 0.6353
2987.000000 0.6159 0.5966 0.5910 0.5854 0.5802
2982.000000 0.5750 0.5399 0.5049 0.4796 0.4543
2977.000000 0.4427 0.4310 0.4234 0.4157 0.4080
2972.000000 0.4003 0.3928 0.3854 0.3793 0.3732
2967.000000 0.3672 0.3612 0.3490 0.3368 0.3109
2962.000000 0.2850 0.2799 0.2749 0.2710 0.2672
2957.000000 0.2635 0.2601 0.2580 0.2560 0.2539
2952.000000 0.2519 0.2494 0.2470 0.2443 0.2417
2947.000000 0.2390 0.2364 0.2337 0.2311 0.2282
2942.000000 0.2254 0.2223 0.2192 0.2161 0.2131
2937.000000 0.2100 0.2069 0.2037 0.2008 0.1981
2932.000000 0.1954 0.1931 0.1908 0.1884 0.1862
2927.000000 0.1839 0.1816 0.1794 0.1773 0.1751
2922.000000 0.1729 0.1707 0.1685 0.1665 0.1644
2917.000000 0.1625 0.1604 0.1585 0.1565 0.1545
2912.000000 0.1526 0.1511 0.1496 0.1483 0.1469
2907.000000 0.1455 0.1441 0.1427 0.1413 0.1398
2902.000000 0.1384 0.1370 0.1356 0.1342 0.1328
2897.000000 0.1314 0.1300 0.1287 0.1274 0.1263
2892.000000 0.1253 0.1242 0.1232 0.1223 0.1215
2887.000000 0.1212 0.1209 0.1207 0.1206 0.1205
2882.000000 0.1204 0.1203 0.1203 0.1204 0.1205
2877.000000 0.1207 0.1209 0.1210 0.1212 0.1268
2872.000000 0.1325 0.1378 0.1431 0.1472 0.1513
2867.000000 0.1553 0.1594 0.1640 0.1685 0.1733
2862.000000 0.1781 0.1828 0.1876 0.1923 0.1971
2857.000000 0.2083 0.2196 0.2366 0.2537 0.2762
2852.000000 0.2987 0.3530 0.4073 0.4124 0.4175
2847.000000 0.4226 0.4278 0.4321 0.4364 0.4397
2842.000000 0.4431 0.4464 0.4497 0.4530 0.4564
2837.000000 0.4597 0.4630 0.4662 0.4696 0.4752
2832.000000 0.4809 0.4883 0.4958 0.5032 0.5107
2827.000000 0.5181 0.5256 0.5357 0.5458 0.5562
2822.000000 0.5666 0.5730 0.5795 0.5827 0.5860
2817.000000 0.5893 0.5926 0.5958 0.5991 0.6024
2812.000000 0.6057 0.6089 0.6122 0.6148 0.6174
2807.000000 0.6199 0.6224 0.6249 0.6274 0.6299
2802.000000 0.6324 0.6349 0.6374 0.6399 0.6425
2797.000000 0.6451 0.6478 0.6506 0.6535 0.6562
2792.000000 0.6591 0.6618 0.6648 0.6675 0.6704
2787.000000 0.6732 0.6761 0.6788 0.6815 0.6841
2782.000000 0.6867 0.6878 0.6889 0.6899 0.6910
2777.000000 0.6921 0.6932 0.6942 0.6953 0.6962
2772.000000 0.6972 0.6983 0.6993 0.7001 0.7008
2767.000000 0.7014 0.7019 0.7025 0.7031 0.7036
2762.000000 0.7042 0.7047 0.7053 0.7058 0.7064
2757.000000 0.7068 0.7074 0.7083 0.7093 0.7101
2752.000000 0.7111 0.7121 0.7132 0.7141 0.7151
2747.000000 0.7161 0.7171 0.7181 0.7192 0.7203
2742.000000 0.7214 0.7225 0.7237 0.7248 0.7260
2737.000000 0.7271 0.7283 0.7294 0.7305 0.7315
2732.000000 0.7328 0.7339 0.7351 0.7364 0.7376
2727.000000 0.7389 0.7401 0.7415 0.7428 0.7440
2722.000000 0.7453 0.7465 0.7478 0.7491 0.7504
2717.000000 0.7515 0.7528 0.7542 0.7555 0.7568
2712.000000 0.7582 0.7596 0.7611 0.7625 0.7639
2707.000000 0.7653 0.7667 0.7681 0.7695 0.7708
2702.000000 0.7724 0.7739 0.7755 0.7769 0.7786
2697.000000 0.7801 0.7818 0.7833 0.7849 0.7864
2692.000000 0.7880 0.7896 0.7911 0.7928 0.7944
2687.000000 0.7960 0.7976 0.7993 0.8008 0.8021
2682.000000 0.8034 0.8038 0.8043 0.8048 0.8053
2677.000000 0.8058 0.8062 0.8068 0.8072 0.8078
2672.000000 0.8083 0.8088 0.8093 0.8097 0.8101
2667.000000 0.8105 0.8108 0.8111 0.8115 0.8117
2662.000000 0.8119 0.8122 0.8125 0.8128 0.8132
2657.000000 0.8135 0.8138 0.8140 0.8143 0.8146
2652.000000 0.8149 0.8151 0.8155 0.8158 0.8161
2647.000000 0.8162 0.8165 0.8168 0.8171 0.8175
2642.000000 0.8178 0.8181 0.8184 0.8186 0.8189
2637.000000 0.8192 0.8195 0.8197 0.8200 0.8202
2632.000000 0.8204 0.8206 0.8208 0.8210 0.8213
2627.000000 0.8215 0.8217 0.8218 0.8221 0.8224
2622.000000 0.8225 0.8228 0.8231 0.8233 0.8235
2617.000000 0.8237 0.8240 0.8242 0.8244 0.8246
2612.000000 0.8249 0.8251 0.8253 0.8255 0.8258
2607.000000 0.8260 0.8262 0.8264 0.8267 0.8270
2602.000000 0.8274 0.8277 0.8281 0.8285 0.8289
2597.000000 0.8292 0.8296 0.8299 0.8303 0.8307
2592.000000 0.8311 0.8314 0.8318 0.8321 0.8325
2587.000000 0.8328 0.8333 0.8336 0.8340 0.8344
2582.000000 0.8348 0.8351 0.8355 0.8358 0.8362
2577.000000 0.8366 0.8370 0.8373 0.8377 0.8381
2572.000000 0.8385 0.8388 0.8392 0.8393 0.8395
2567.000000 0.8396 0.8398 0.8399 0.8400 0.8401
2562.000000 0.8403 0.8404 0.8405 0.8406 0.8407
2557.000000 0.8408 0.8410 0.8411 0.8412 0.8413
2552.000000 0.8415 0.8416 0.8417 0.8418 0.8420
2547.000000 0.8420 0.8420 0.8418 0.8418 0.8418
2542.000000 0.8418 0.8417 0.8417 0.8417 0.8417
2537.000000 0.8416 0.8416 0.8415 0.8415 0.8414
2532.000000 0.8414 0.8414 0.8414 0.8413 0.8413
2527.000000 0.8412 0.8412 0.8411 0.8411 0.8411
2522.000000 0.8411 0.8410 0.8410 0.8409 0.8409
2517.000000 0.8408 0.8408 0.8408 0.8408 0.8409
2512.000000 0.8410 0.8410 0.8411 0.8412 0.8413
2507.000000 0.8414 0.8415 0.8415 0.8416 0.8417
2502.000000 0.8418 0.8418 0.8418 0.8420 0.8421
2497.000000 0.8421 0.8421 0.8423 0.8424 0.8425
2492.000000 0.8425 0.8425 0.8427 0.8428 0.8428
2487.000000 0.8428 0.8430 0.8431 0.8432 0.8432
2482.000000 0.8433 0.8434 0.8435 0.8436 0.8437
2477.000000 0.8438 0.8439 0.8441 0.8444 0.8446
2472.000000 0.8449 0.8451 0.8454 0.8456 0.8459
2467.000000 0.8461 0.8464 0.8466 0.8468 0.8471
2462.000000 0.8474 0.8475 0.8478 0.8481 0.8484
2457.000000 0.8486 0.8489 0.8491 0.8494 0.8496
2452.000000 0.8499 0.8501 0.8503 0.8504 0.8506
2447.000000 0.8508 0.8510 0.8512 0.8514 0.8516
2442.000000 0.8518 0.8520 0.8521 0.8523 0.8525
2437.000000 0.8527 0.8528 0.8531 0.8533 0.8535
2432.000000 0.8537 0.8538 0.8539 0.8540 0.8542
2427.000000 0.8543 0.8544 0.8545 0.8546 0.8547
2422.000000 0.8548 0.8549 0.8550 0.8551 0.8553
2417.000000 0.8554 0.8555 0.8556 0.8557 0.8558
2412.000000 0.8560 0.8562 0.8565 0.8567 0.8568
2407.000000 0.8571 0.8574 0.8575 0.8578 0.8581
2402.000000 0.8583 0.8587 0.8591 0.8596 0.8602
2397.000000 0.8607 0.8613 0.8618 0.8625 0.8630
2392.000000 0.8636 0.8641 0.8647 0.8652 0.8658
2387.000000 0.8661 0.8664 0.8667 0.8671 0.8674
2382.000000 0.8677 0.8680 0.8683 0.8685 0.8688
2377.000000 0.8688 0.8688 0.8688 0.8689 0.8689
2372.000000 0.8689 0.8689 0.8690 0.8690 0.8690
2367.000000 0.8690 0.8691 0.8691 0.8691 0.8691
2362.000000 0.8692 0.8692 0.8692 0.8692 0.8693
2357.000000 0.8693 0.8693 0.8693 0.8693 0.8692
2352.000000 0.8691 0.8689 0.8687 0.8685 0.8683
2347.000000 0.8681 0.8678 0.8677 0.8675 0.8673
2342.000000 0.8671 0.8668 0.8668 0.8666 0.8664
2337.000000 0.8661 0.8659 0.8655 0.8652 0.8649
2332.000000 0.8646 0.8642 0.8639 0.8636 0.8633
2327.000000 0.8628 0.8625 0.8621 0.8617 0.8616
2322.000000 0.8613 0.8609 0.8606 0.8603 0.8601
2317.000000 0.8599 0.8598 0.8596 0.8595 0.8593
2312.000000 0.8591 0.8589 0.8588 0.8586 0.8585
2307.000000 0.8583 0.8582 0.8580 0.8578 0.8575
2302.000000 0.8575 0.8573 0.8571 0.8570 0.8568
2297.000000 0.8567 0.8565 0.8563 0.8562 0.8560
2292.000000 0.8559 0.8559 0.8559 0.8559 0.8559
2287.000000 0.8558 0.8558 0.8558 0.8558 0.8558
2282.000000 0.8558 0.8558 0.8558 0.8558 0.8558
2277.000000 0.8558 0.8558 0.8558 0.8558 0.8558
2272.000000 0.8558 0.8558 0.8558 0.8557 0.8557
2267.000000 0.8557 0.8557 0.8557 0.8557 0.8557
2262.000000 0.8557 0.8557 0.8557 0.8557 0.8557
2257.000000 0.8557 0.8558 0.8558 0.8559 0.8559
2252.000000 0.8560 0.8560 0.8561 0.8561 0.8562
2247.000000 0.8562 0.8563 0.8563 0.8564 0.8564
2242.000000 0.8564 0.8564 0.8565 0.8565 0.8566
2237.000000 0.8566 0.8567 0.8567 0.8568 0.8568
2232.000000 0.8568 0.8568 0.8570 0.8570 0.8571
2227.000000 0.8571 0.8571 0.8571 0.8571 0.8571
2222.000000 0.8571 0.8571 0.8570 0.8568 0.8568
2217.000000 0.8568 0.8568 0.8567 0.8566 0.8565
2212.000000 0.8565 0.8564 0.8564 0.8563 0.8562
2207.000000 0.8561 0.8561 0.8560 0.8559 0.8558
2202.000000 0.8558 0.8557 0.8556 0.8554 0.8553
2197.000000 0.8551 0.8550 0.8548 0.8547 0.8545
2192.000000 0.8544 0.8542 0.8541 0.8539 0.8538
2187.000000 0.8536 0.8535 0.8533 0.8531 0.8528
2182.000000 0.8528 0.8525 0.8525 0.8523 0.8521
2177.000000 0.8521 0.8520 0.8518 0.8518 0.8517
2172.000000 0.8517 0.8516 0.8515 0.8514 0.8514
2167.000000 0.8513 0.8512 0.8511 0.8511 0.8510
2162.000000 0.8509 0.8508 0.8508 0.8507 0.8506
2157.000000 0.8505 0.8505 0.8504 0.8503 0.8502
2152.000000 0.8502 0.8501 0.8501 0.8500 0.8500
2147.000000 0.8500 0.8500 0.8499 0.8499 0.8499
2142.000000 0.8499 0.8498 0.8498 0.8497 0.8497
2137.000000 0.8497 0.8497 0.8497 0.8497 0.8497
2132.000000 0.8497 0.8497 0.8498 0.8498 0.8498
2127.000000 0.8498 0.8499 0.8499 0.8499 0.8499
2122.000000 0.8499 0.8499 0.8500 0.8500 0.8500
2117.000000 0.8500 0.8500 0.8500 0.8501 0.8501
2112.000000 0.8501 0.8501 0.8502 0.8502 0.8502
2107.000000 0.8502 0.8503 0.8505 0.8507 0.8509
2102.000000 0.8512 0.8514 0.8516 0.8518 0.8521
2097.000000 0.8523 0.8525 0.8527 0.8530 0.8532
2092.000000 0.8534 0.8536 0.8539 0.8540 0.8542
2087.000000 0.8543 0.8544 0.8545 0.8547 0.8548
2082.000000 0.8549 0.8550 0.8552 0.8553 0.8554
2077.000000 0.8555 0.8556 0.8557 0.8559 0.8560
2072.000000 0.8561 0.8562 0.8563 0.8564 0.8566
2067.000000 0.8566 0.8566 0.8566 0.8565 0.8563
2062.000000 0.8562 0.8561 0.8560 0.8559 0.8558
2057.000000 0.8556 0.8555 0.8554 0.8553 0.8552
2052.000000 0.8551 0.8550 0.8549 0.8547 0.8546
2047.000000 0.8545 0.8544 0.8543 0.8542 0.8540
2042.000000 0.8539 0.8537 0.8535 0.8533 0.8531
2037.000000 0.8528 0.8528 0.8525 0.8524 0.8521
2032.000000 0.8518 0.8514 0.8510 0.8506 0.8502
2027.000000 0.8498 0.8494 0.8490 0.8486 0.8482
2022.000000 0.8478 0.8474 0.8470 0.8466 0.8462
2017.000000 0.8458 0.8454 0.8450 0.8446 0.8442
2012.000000 0.8438 0.8433 0.8428 0.8425 0.8421
2007.000000 0.8417 0.8413 0.8409 0.8405 0.8401
2002.000000 0.8397 0.8389 0.8381 0.8373 0.8365
1997.000000 0.8357 0.8349 0.8341 0.8334 0.8327
1992.000000 0.8321 0.8315 0.8308 0.8302 0.8295
1987.000000 0.8289 0.8283 0.8277 0.8270 0.8264
1982.000000 0.8258 0.8251 0.8244 0.8238 0.8231
1977.000000 0.8225 0.8218 0.8212 0.8205 0.8202
1972.000000 0.8198 0.8194 0.8190 0.8187 0.8183
1967.000000 0.8180 0.8181 0.8182 0.8182 0.8165
1962.000000 0.8184 0.8185 0.8185 0.8186 0.8187
1957.000000 0.8187 0.8188 0.8189 0.8192 0.8199
1952.000000 0.8206 0.8213 0.8220 0.8227 0.8234
1947.000000 0.8241 0.8248 0.8257 0.8267 0.8278
1942.000000 0.8288 0.8298 0.8308 0.8318 0.8328
1937.000000 0.8339 0.8349 0.8359 0.8368 0.8375
1932.000000 0.8384 0.8392 0.8400 0.8408 0.8415
1927.000000 0.8423 0.8431 0.8439 0.8447 0.8455
1922.000000 0.8463 0.8471 0.8478 0.8486 0.8494
1917.000000 0.8502 0.8510 0.8517 0.8521 0.8527
1912.000000 0.8532 0.8538 0.8543 0.8548 0.8553
1907.000000 0.8558 0.8564 0.8568 0.8574 0.8578
1902.000000 0.8584 0.8589 0.8595 0.8600 0.8605
1897.000000 0.8610 0.8615 0.8618 0.8623 0.8627
1892.000000 0.8632 0.8636 0.8640 0.8644 0.8649
1887.000000 0.8653 0.8657 0.8661 0.8665 0.8670
1882.000000 0.8673 0.8675 0.8678 0.8680 0.8682
1877.000000 0.8685 0.8687 0.8689 0.8692 0.8694
1872.000000 0.8696 0.8699 0.8701 0.8704 0.8706
1867.000000 0.8708 0.8711 0.8713 0.8715 0.8718
1862.000000 0.8718 0.8720 0.8721 0.8721 0.8721
1857.000000 0.8723 0.8724 0.8725 0.8725 0.8725
1852.000000 0.8727 0.8728 0.8728 0.8728 0.8730
1847.000000 0.8731 0.8731 0.8731 0.8731 0.8730
1842.000000 0.8730 0.8730 0.8728 0.8728 0.8728
1837.000000 0.8728 0.8728 0.8728 0.8728 0.8728
1832.000000 0.8727 0.8727 0.8727 0.8727 0.8725
1827.000000 0.8725 0.8725 0.8725 0.8725 0.8725
1822.000000 0.8724 0.8724 0.8724 0.8723 0.8723
1817.000000 0.8721 0.8721 0.8721 0.8721 0.8721
1812.000000 0.8720 0.8720 0.8720 0.8718 0.8718
1807.000000 0.8718 0.8718 0.8718 0.8717 0.8717
1802.000000 0.8716 0.8716 0.8716 0.8716 0.8716
1797.000000 0.8716 0.8716 0.8716 0.8716 0.8716
1792.000000 0.8716 0.8716 0.8716 0.8716 0.8716
1787.000000 0.8716 0.8716 0.8716 0.8716 0.8717
1782.000000 0.8717 0.8717 0.8717 0.8716 0.8715
1777.000000 0.8714 0.8714 0.8713 0.8712 0.8711
1772.000000 0.8710 0.8710 0.8709 0.8708 0.8707
1767.000000 0.8707 0.8706 0.8705 0.8704 0.8703
1762.000000 0.8703 0.8702 0.8701 0.8700 0.8699
1757.000000 0.8698 0.8696 0.8695 0.8694 0.8692
1752.000000 0.8691 0.8689 0.8688 0.8687 0.8685
1747.000000 0.8684 0.8683 0.8681 0.8680 0.8678
1742.000000 0.8677 0.8675 0.8675 0.8673 0.8671
1737.000000 0.8670 0.8668 0.8668 0.8666 0.8665
1732.000000 0.8664 0.8662 0.8661 0.8660 0.8659
1727.000000 0.8658 0.8657 0.8657 0.8656 0.8655
1722.000000 0.8654 0.8653 0.8652 0.8651 0.8650
1717.000000 0.8649 0.8647 0.8645 0.8644 0.8642
1712.000000 0.8640 0.8638 0.8637 0.8635 0.8633
1707.000000 0.8631 0.8628 0.8625 0.8623 0.8620
1702.000000 0.8617 0.8614 0.8611 0.8608 0.8604
1697.000000 0.8597 0.8590 0.8583 0.8575 0.8568
1692.000000 0.8559 0.8545 0.8532 0.8518 0.8505
1687.000000 0.8491 0.8477 0.8464 0.8450 0.8432
1682.000000 0.8414 0.8395 0.8375 0.8357 0.8338
1677.000000 0.8314 0.8289 0.8264 0.8239 0.8214
1672.000000 0.8191 0.8168 0.8146 0.8124 0.8101
1667.000000 0.8078 0.8057 0.8035 0.8011 0.7988
1662.000000 0.7964 0.7940 0.7915 0.7892 0.7868
1657.000000 0.7845 0.7822 0.7800 0.7782 0.7768
1652.000000 0.7754 0.7743 0.7738 0.7734 0.7728
1647.000000 0.7725 0.7719 0.7718 0.7718 0.7718
1642.000000 0.7725 0.7732 0.7739 0.7745 0.7754
1637.000000 0.7767 0.7780 0.7792 0.7805 0.7818
1632.000000 0.7830 0.7843 0.7864 0.7887 0.7908
1627.000000 0.7932 0.7955 0.7981 0.8006 0.8032
1622.000000 0.8058 0.8083 0.8108 0.8132 0.8154
1617.000000 0.8175 0.8198 0.8220 0.8242 0.8265
1612.000000 0.8287 0.8304 0.8320 0.8337 0.8353
1607.000000 0.8370 0.8386 0.8403 0.8418 0.8434
1602.000000 0.8447 0.8459 0.8471 0.8483 0.8496
1597.000000 0.8508 0.8520 0.8528 0.8535 0.8540
1592.000000 0.8546 0.8552 0.8558 0.8563 0.8568
1587.000000 0.8575 0.8581 0.8586 0.8592 0.8596
1582.000000 0.8598 0.8600 0.8602 0.8604 0.8606
1577.000000 0.8608 0.8610 0.8612 0.8614 0.8616
1572.000000 0.8618 0.8620 0.8621 0.8624 0.8625
1567.000000 0.8625 0.8624 0.8624 0.8623 0.8621
1562.000000 0.8621 0.8621 0.8620 0.8620 0.8618
1557.000000 0.8618 0.8617 0.8617 0.8616 0.8615
1552.000000 0.8615 0.8614 0.8613 0.8611 0.8608
1547.000000 0.8604 0.8601 0.8597 0.8594 0.8591
1542.000000 0.8587 0.8584 0.8580 0.8575 0.8568
1537.000000 0.8563 0.8558 0.8552 0.8547 0.8541
1532.000000 0.8536 0.8530 0.8525 0.8518 0.8514
1527.000000 0.8509 0.8503 0.8498 0.8493 0.8487
1522.000000 0.8482 0.8471 0.8462 0.8453 0.8443
1517.000000 0.8433 0.8423 0.8414 0.8404 0.8395
1512.000000 0.8385 0.8375 0.8366 0.8356 0.8342
1507.000000 0.8328 0.8314 0.8299 0.8278 0.8259
1502.000000 0.8239 0.8218 0.8199 0.8176 0.8155
1497.000000 0.8132 0.8096 0.8056 0.8014 0.7899
1492.000000 0.7785 0.7665 0.7545 0.7431 0.7322
1487.000000 0.7195 0.7011 0.6379 0.6068 0.5916
1482.000000 0.5822 0.5733 0.5627 0.5487 0.5403
1477.000000 0.5319 0.5221 0.5133 0.5074 0.5043
1472.000000 0.5018 0.5016 0.5014 0.5006 0.4998
1467.000000 0.4984 0.4968 0.4947 0.4924 0.4900
1462.000000 0.4876 0.4852 0.4822 0.4798 0.4778
1457.000000 0.4775 0.4772 0.4785 0.4831 0.4899
1452.000000 0.4968 0.5036 0.5099 0.5162 0.5224
1447.000000 0.5310 0.5448 0.5649 0.5892 0.6023
1442.000000 0.6154 0.6230 0.6299 0.6367 0.6436
1437.000000 0.6505 0.6583 0.6687 0.6791 0.6878
1432.000000 0.6961 0.7033 0.7088 0.7133 0.7147
1427.000000 0.7165 0.7162 0.7160 0.7157 0.7153
1422.000000 0.7137 0.7119 0.7104 0.7088 0.7071
1417.000000 0.7046 0.7019 0.6994 0.6978 0.6965
1412.000000 0.6954 0.6942 0.6930 0.6921 0.6918
1407.000000 0.6917 0.6915 0.6912 0.6911 0.6911
1402.000000 0.6914 0.6917 0.6919 0.6922 0.6922
1397.000000 0.6921 0.6921 0.6921 0.6918 0.6911
1392.000000 0.6903 0.6895 0.6885 0.6855 0.6803
1387.000000 0.6719 0.6687 0.6661 0.6653 0.6645
1382.000000 0.6633 0.6621 0.6608 0.6583 0.6536
1377.000000 0.6490 0.6441 0.6389 0.6336 0.6284
1372.000000 0.6170 0.6028 0.5934 0.5854 0.5774
1367.000000 0.5664 0.5534 0.5384 0.5225 0.5065
1362.000000 0.4822 0.4626 0.4410 0.4194 0.3977
1357.000000 0.3760 0.3545 0.3342 0.3276 0.3246
1352.000000 0.3230 0.3242 0.3259 0.3290 0.3371
1347.000000 0.3532 0.3898 0.4264 0.4630 0.4996
1342.000000 0.5362 0.5727 0.6093 0.6396 0.6434
1337.000000 0.6515 0.6489 0.6495 0.6469 0.6446
1332.000000 0.6410 0.6360 0.6310 0.6262 0.6214
1327.000000 0.6168 0.6129 0.6093 0.6064 0.6068
1322.000000 0.6072 0.6075 0.6076 0.6076 0.6056
1317.000000 0.6036 0.5983 0.5894 0.5800 0.5720
1312.000000 0.5640 0.5559 0.5469 0.5377 0.5299
1307.000000 0.5238 0.5177 0.5115 0.5054 0.4993
1302.000000 0.4932 0.4810 0.4818 0.4815 0.4812
1297.000000 0.4818 0.4829 0.4842 0.4871 0.4901
1292.000000 0.4930 0.4967 0.5004 0.5041 0.5078
1287.000000 0.5115 0.5160 0.5209 0.5258 0.5307
1282.000000 0.5373 0.5440 0.5510 0.5586 0.5645
1277.000000 0.5702 0.5748 0.5789 0.5816 0.5834
1272.000000 0.5841 0.5862 0.5844 0.5831 0.5809
1267.000000 0.5764 0.5702 0.5637 0.5558 0.5471
1262.000000 0.5375 0.5276 0.5134 0.4984 0.4835
1257.000000 0.4686 0.4536 0.4387 0.4237 0.4088
1252.000000 0.3993 0.3964 0.3962 0.3962 0.4000
1247.000000 0.4044 0.4123 0.4203 0.4282 0.4362
1242.000000 0.4442 0.4595 0.4770 0.4906 0.5044
1237.000000 0.5182 0.5319 0.5457 0.5595 0.5733
1232.000000 0.5871 0.6008 0.6146 0.6284 0.6410
1227.000000 0.6457 0.6504 0.6544 0.6576 0.6610
1222.000000 0.6643 0.6682 0.6721 0.6761 0.6803
1217.000000 0.6844 0.6886 0.6928 0.6968 0.7011
1212.000000 0.7055 0.7100 0.7145 0.7182 0.7215
1207.000000 0.7253 0.7293 0.7305 0.7332 0.7315
1202.000000 0.7318 0.7321 0.7321 0.7321 0.7318
1197.000000 0.7312 0.7308 0.7301 0.7297 0.7281
1192.000000 0.7260 0.7239 0.7218 0.7191 0.7161
1187.000000 0.7131 0.7100 0.7069 0.7036 0.6992
1182.000000 0.6949 0.6906 0.6861 0.6810 0.6750
1177.000000 0.6690 0.6630 0.6554 0.6467 0.6380
1172.000000 0.6294 0.6209 0.6125 0.6041 0.5889
1167.000000 0.5652 0.5392 0.5235 0.5057 0.4857
1162.000000 0.4678 0.4505 0.4340 0.3942 0.3716
1157.000000 0.3499 0.3280 0.3062 0.2843 0.2625
1152.000000 0.2406 0.2188 0.1675 0.1587 0.1513
1147.000000 0.1438 0.1312 0.1170 0.1084 0.0997
1142.000000 0.0917 0.0867 0.0817 0.0767 0.0719
1137.000000 0.0680 0.0641 0.0602 0.0564 0.0535
1132.000000 0.0506 0.0477 0.0448 0.0419 0.0395
1127.000000 0.0372 0.0349 0.0326 0.0311 0.0304
1122.000000 0.0297 0.0291 0.0284 0.0279 0.0275
1117.000000 0.0271 0.0266 0.0263 0.0259 0.0256
1112.000000 0.0256 0.0257 0.0257 0.0257 0.0258
1107.000000 0.0259 0.0264 0.0268 0.0274 0.0279
1102.000000 0.0284 0.0290 0.0295 0.0304 0.0316
1097.000000 0.0329 0.0342 0.0355 0.0366 0.0380
1092.000000 0.0393 0.0411 0.0430 0.0448 0.0466
1087.000000 0.0484 0.0503 0.0530 0.0558 0.0585
1082.000000 0.0612 0.0639 0.0666 0.0693 0.0733
1077.000000 0.0777 0.0822 0.0866 0.0911 0.0958
1072.000000 0.1006 0.1053 0.1100 0.1148 0.1195
1067.000000 0.1242 0.1291 0.1340 0.1388 0.1436
1062.000000 0.1487 0.1560 0.1633 0.1706 0.1779
1057.000000 0.1851 0.1923 0.1994 0.2097 0.2218
1052.000000 0.2334 0.2438 0.2542 0.2716 0.2878
1047.000000 0.3020 0.3287 0.3443 0.3518 0.3534
1042.000000 0.3550 0.3553 0.3556 0.3559 0.3566
1037.000000 0.3572 0.3578 0.3600 0.3630 0.3662
1032.000000 0.3710 0.3774 0.3846 0.3922 0.3999
1027.000000 0.4074 0.4149 0.4242 0.4379 0.4514
1022.000000 0.4692 0.4876 0.4988 0.5100 0.5214
1017.000000 0.5331 0.5456 0.5641 0.5803 0.5922
1012.000000 0.6039 0.6150 0.6225 0.6299 0.6377
1007.000000 0.6418 0.6443 0.6449 0.6455 0.6460
1002.000000 0.6462 0.6465 0.6467 0.6469 0.6471
997.000000 0.6474 0.6481 0.6488 0.6495 0.6501
992.000000 0.6512 0.6535 0.6557 0.6578 0.6611
987.000000 0.6646 0.6680 0.6712 0.6750 0.6797
982.000000 0.6844 0.6892 0.6925 0.6951 0.6961
977.000000 0.6971 0.6971 0.6971 0.6968 0.6960
972.000000 0.6942 0.6925 0.6900 0.6853 0.6806
967.000000 0.6725 0.6631 0.6475 0.6358 0.6255
962.000000 0.6108 0.5569 0.5301 0.5033 0.4765
957.000000 0.4497 0.4228 0.3959 0.3692 0.3426
952.000000 0.3382 0.3352 0.3327 0.3349 0.3364
947.000000 0.3418 0.3474 0.3527 0.3580 0.3632
942.000000 0.3684 0.3738 0.3791 0.3844 0.3898
937.000000 0.3952 0.4006 0.4059 0.4114 0.4188
932.000000 0.4276 0.4364 0.4447 0.4525 0.4604
927.000000 0.4687 0.4776 0.4866 0.4952 0.5010
922.000000 0.5070 0.5128 0.5187 0.5277 0.5391
917.000000 0.5478 0.5562 0.5646 0.5757 0.5880
912.000000 0.5948 0.6017 0.6085 0.6160 0.6238
907.000000 0.6340 0.6443 0.6515 0.6564 0.6589
902.000000 0.6631 0.6615 0.6619 0.6619 0.6589
897.000000 0.6557 0.6483 0.6407 0.6310 0.6193
892.000000 0.6110 0.6039 0.5975 0.5918 0.5887
887.000000 0.5862 0.5851 0.5833 0.5844 0.5851
882.000000 0.5885 0.6038 0.6109 0.6208 0.6298
877.000000 0.6357 0.6412 0.6460 0.6506 0.6547
872.000000 0.6571 0.6587 0.6615 0.6606 0.6611
867.000000 0.6604 0.6596 0.6588 0.6571 0.6545
862.000000 0.6518 0.6494 0.6464 0.6431 0.6397
857.000000 0.6362 0.6329 0.6296 0.6242 0.6180
852.000000 0.6117 0.6074 0.6033 0.5991 0.5949
847.000000 0.5907 0.5867 0.5839 0.5810 0.5784
842.000000 0.5760 0.5752 0.5746 0.5739 0.5736
837.000000 0.5732 0.5729 0.5746 0.5737 0.5741
832.000000 0.5745 0.5769 0.5796 0.5866 0.5948
827.000000 0.6040 0.6133 0.6264 0.6411 0.6562
822.000000 0.6748 0.6861 0.6939 0.6996 0.7037
817.000000 0.7078 0.7118 0.7160 0.7201 0.7238
812.000000 0.7271 0.7306 0.7340 0.7372 0.7407
807.000000 0.7441 0.7474 0.7508 0.7542 0.7575
802.000000 0.7608 0.7643 0.7676 0.7711 0.7741
797.000000 0.7769 0.7800 0.7828 0.7858 0.7888
792.000000 0.7908 0.7928 0.7950 0.7971 0.7991
787.000000 0.8011 0.8033 0.8053 0.8074 0.8095
782.000000 0.8118 0.8141 0.8164 0.8187 0.8209
777.000000 0.8227 0.8240 0.8252 0.8264 0.8275
772.000000 0.8289 0.8291 0.8293 0.8295 0.8298
767.000000 0.8301 0.8303 0.8305 0.8297 0.8288
762.000000 0.8278 0.8271 0.8262 0.8254 0.8245
757.000000 0.8239 0.8233 0.8227 0.8221 0.8215
752.000000 0.8209 0.8203 0.8197 0.8191 0.8185
747.000000 0.8178 0.8172 0.8167 0.8161 0.8155
742.000000 0.8149 0.8143 0.8137 0.8132 0.8125
737.000000 0.8119 0.8114 0.8108 0.8101 0.8096
732.000000 0.8090 0.8085 0.8080 0.8075 0.8069
727.000000 0.8065 0.8060 0.8055 0.8050 0.8045
722.000000 0.8040 0.8035 0.8030 0.8025 0.8022
717.000000 0.8019 0.8017 0.8014 0.8011 0.8008
712.000000 0.8006 0.8003 0.8000 0.7997 0.7994
707.000000 0.7991 0.7988 0.7985 0.7983 0.7980
702.000000 0.7976 0.7974 0.7971 0.7968 0.7965
697.000000 0.7962 0.7960 0.7957 0.7954 0.7951
692.000000 0.7949 0.7946 0.7943 0.7940 0.7937
687.000000 0.7935 0.7932 0.7928 0.7925 0.7922
682.000000 0.7921 0.7903 0.7881 0.7858 0.7837
677.000000 0.7815 0.7795 0.7767 0.7736 0.7697
672.000000 0.7646 0.7608 0.7583 0.7568 0.7553
667.000000 0.7538 0.7522 0.7507 0.7492 0.7476
662.000000 0.7461 0.7446 0.7431 0.7415 0.7400
657.000000 0.7385 0.7369 0.7354 0.7339 0.7324
652.000000 0.7308 0.7293 0.7278 0.7262 0.7248
647.000000 0.7233 0.7218 0.7203 0.7189 0.7174
642.000000 0.7158 0.7144 0.7128 0.7114 0.7100
637.000000 0.7085 0.7068 0.7053 0.7036 0.7018
632.000000 0.7001 0.6985 0.6968 0.6951 0.6934
627.000000 0.6917 0.6901 0.6884 0.6867 0.6850
622.000000 0.6831 0.6808 0.6788 0.6767 0.6745
617.000000 0.6724 0.6703 0.6682 0.6661 0.6643
612.000000 0.6624 0.6604 0.6585 0.6565 0.6546
607.000000 0.6532 0.6518 0.6507 0.6494 0.6482
602.000000 0.6468 0.6457 0.6444 0.6432 0.6419
597.000000 0.6408 0.6398 0.6387 0.6376 0.6365
592.000000 0.6354 0.6343 0.6332 0.6326 0.6319
587.000000 0.6312 0.6306 0.6300 0.6293 0.6288
582.000000 0.6285 0.6282 0.6279 0.6276 0.6273
577.000000 0.6270 0.6267 0.6264 0.6260 0.6258
572.000000 0.6255 0.6253 0.6253 0.6253 0.6253
567.000000 0.6253 0.6252 0.6252 0.6252 0.6252
562.000000 0.6252 0.6252 0.6252 0.6252 0.6252
557.000000 0.6253 0.6253 0.6254 0.6255 0.6256
552.000000 0.6256 0.6256 0.6256 0.6256 0.6255
547.000000 0.6253 0.6250 0.6247 0.6244 0.6241
542.000000 0.6239 0.6236 0.6233 0.6228 0.6222
537.000000 0.6215 0.6209 0.6202 0.6196 0.6191
532.000000 0.6189 0.6186 0.6184 0.6181 0.6179
527.000000 0.6178 0.6182 0.6186 0.6189 0.6193
522.000000 0.6197 0.6201 0.6204 0.6208 0.6221
517.000000 0.6234 0.6246 0.6259 0.6272 0.6284
512.000000 0.6297 0.6310 0.6334 0.6362 0.6392
507.000000 0.6421 0.6451 0.6478 0.6506 0.6534
502.000000 0.6561 0.6589 0.6617 0.6644 0.6667
497.000000 0.6684 0.6701 0.6718 0.6734 0.6751
492.000000 0.6768 0.6785 0.6797 0.6807 0.6817
487.000000 0.6826 0.6837 0.6846 0.6851 0.6858
482.000000 0.6862 0.6868 0.6875 0.6885 0.6886
477.000000 0.6890 0.6892 0.6894 0.6896 0.6898
472.000000 0.6898 0.6896 0.6893 0.6891 0.6888
467.000000 0.6886 0.6883 0.6881 0.6871 0.6861
462.000000 0.6850 0.6840 0.6828 0.6818 0.6808
457.000000 0.6793 0.6775 0.6760 0.6743 0.6725
452.000000 0.6710 0.6693 0.6675 0.6656 0.6632
447.000000 0.6608 0.6585 0.6561 0.6538 0.6514
442.000000 0.6491 0.6464 0.6437 0.6408 0.6381
437.000000 0.6354 0.6326 0.6294 0.6259 0.6225
432.000000 0.6190 0.6155 0.6121 0.6087 0.6054
427.000000 0.6021 0.5987 0.5954 0.5921 0.5891
422.000000 0.5860 0.5832 0.5803 0.5774 0.5745
417.000000 0.5716 0.5679 0.5644 0.5631 0.5618
412.000000 0.5614 0.5614 0.5614 0.5614 0.5620
407.000000 0.5633 0.5646 0.5659 0.5672 0.5685
402.000000 0.5698 0.5710 0.5723 0.5736
##END=
