##TITLE=3H-v-TRIAZOLO[4,5-d]-v-TRIAZIN-7-OL, DIHYDRATE
##JCAMP-DX=4.24
##DATA TYPE=INFRARED SPECTRUM
##CLASS=COBLENTZ III
##ORIGIN=SOUTHERN RESEARCH INSTITUTE
##OWNER=COBLENTZ SOCIETY
Collection (C) 2018 copyright by the U.S. Secretary of Commerce
on behalf of the United States of America. All rights reserved.
##DATE=1958/01/16
##MOLFORM=C3 H2 N6 O  * 2 H2 O
##SOURCE REFERENCE=COBLENTZ NO. 8023
##$NIST ID=B6008023
##$NIST SOURCE=COBLENTZ
##$NIST IMAGE=cob8023
##SPECTROMETER/DATA SYSTEM=PERKIN-ELMER 21 (GRATING)
##INSTRUMENT PARAMETERS=FILTER CHANGE AT 1090 CM^-^1
##STATE=SOLID (1 mg / 650 mg KBr DISC)
##SAMPLING PROCEDURE=TRANSMISSION
##RESOLUTION=2
##DATA PROCESSING=DIGITIZED BY NIST FROM HARD COPY (FROM TWO SEGMENTS)
##XUNITS=1/CM
##YUNITS=TRANSMITTANCE
##XFACTOR=1.000000
##YFACTOR=1
##DELTAX=1.302932
##FIRSTX=608.315
##LASTX=4011.57
##FIRSTY=0.599
##MAXX=4011.57
##MINX=608.315
##MAXY=0.847
##MINY=0.158
##NPOINTS=2613
##XYDATA=(X++(Y..Y))
608.315000 0.5990 0.5990 0.6000 0.6000 0.6019
614.829660 0.6039 0.6049 0.6069 0.6079 0.6089
621.344320 0.6127 0.6176 0.6234 0.6249 0.6259
627.858980 0.6269 0.6322 0.6373 0.6397 0.6527
634.373640 0.6677 0.7044 0.7285 0.7493 0.7603
640.888300 0.7693 0.7718 0.7933 0.8045 0.8129
647.402960 0.8158 0.8160 0.8160 0.8205 0.8235
653.917620 0.8247 0.8272 0.8294 0.8321 0.8344
660.432280 0.8378 0.8411 0.8420 0.8427 0.8450
666.946940 0.8460 0.8466 0.8470 0.8470 0.8470
673.461600 0.8470 0.8470 0.8470 0.8464 0.8442
679.976260 0.8401 0.8283 0.8115 0.8029 0.8025
686.490920 0.8079 0.8163 0.8205 0.8226 0.8266
693.005580 0.8310 0.8330 0.8330 0.8325 0.8320
699.520240 0.8292 0.8237 0.8201 0.8190 0.8190
706.034900 0.8199 0.8227 0.8270 0.8300 0.8308
712.549560 0.8324 0.8349 0.8384 0.8397 0.8410
719.064220 0.8414 0.8423 0.8430 0.8433 0.8440
725.578880 0.8440 0.8440 0.8440 0.8440 0.8440
732.093540 0.8440 0.8440 0.8440 0.8438 0.8430
738.608200 0.8428 0.8420 0.8418 0.8406 0.8390
745.122860 0.8388 0.8380 0.8378 0.8370 0.8367
751.637520 0.8350 0.8347 0.8329 0.8317 0.8299
758.152180 0.8289 0.8278 0.8259 0.8249 0.8237
764.666840 0.8208 0.8188 0.8167 0.8129 0.8119
771.181500 0.8109 0.8078 0.8027 0.7939 0.7900
777.696160 0.7880 0.7819 0.7661 0.7571 0.7355
784.210820 0.6642 0.5927 0.5099 0.4266 0.4192
790.725480 0.4181 0.4171 0.5678 0.6138 0.6332
797.240140 0.6547 0.7030 0.7362 0.7522 0.7678
803.754800 0.7785 0.7877 0.7907 0.7943 0.7950
810.269460 0.7966 0.7970 0.7970 0.7970 0.7954
816.784120 0.7942 0.7917 0.7910 0.7902 0.7900
823.298780 0.7893 0.7890 0.7883 0.7880 0.7866
829.813440 0.7846 0.7791 0.7756 0.7750 0.7736
836.328100 0.7730 0.7730 0.7724 0.7707 0.7681
842.842760 0.7639 0.7570 0.7522 0.7504 0.7500
849.357420 0.7494 0.7484 0.7457 0.7412 0.7373
855.872080 0.7355 0.7350 0.7339 0.7309 0.7264
862.386740 0.7214 0.7150 0.7085 0.7055 0.7036
868.901400 0.7015 0.6996 0.6971 0.6942 0.6902
875.416060 0.6871 0.6851 0.6823 0.6796 0.6774
881.930720 0.6726 0.6663 0.6604 0.6569 0.6494
888.445380 0.6382 0.6332 0.6297 0.6233 0.6064
894.960040 0.5921 0.5835 0.5764 0.5718 0.5684
901.474700 0.5661 0.5637 0.5619 0.5587 0.5580
907.989360 0.5580 0.5585 0.5609 0.5647 0.5674
914.504020 0.5696 0.5722 0.5732 0.5740 0.5740
921.018680 0.5740 0.5740 0.5740 0.5740 0.5740
927.533340 0.5740 0.5726 0.5626 0.5595 0.5547
934.048000 0.5517 0.5483 0.5396 0.5233 0.5008
940.562660 0.4687 0.4466 0.4208 0.4159 0.4140
947.077320 0.4138 0.4039 0.3918 0.3660 0.3372
953.591980 0.3046 0.3021 0.3010 0.3010 0.3266
960.106640 0.3506 0.3846 0.4280 0.4726 0.4952
966.621300 0.5487 0.5792 0.6051 0.6239 0.6408
973.135960 0.6724 0.7044 0.7141 0.7192 0.7234
979.650620 0.7240 0.7273 0.7288 0.7314 0.7352
986.165280 0.7368 0.7386 0.7398 0.7415 0.7435
992.679940 0.7440 0.7425 0.7405 0.7407 0.7403
999.194600 0.7393 0.7376 0.7314 0.7241 0.7158
1005.709260 0.7042 0.6966 0.6910 0.6825 0.6738
1012.223920 0.6621 0.6375 0.6229 0.6160 0.6044
1018.738580 0.5936 0.5882 0.5864 0.5785 0.5679
1025.253240 0.5606 0.5558 0.5513 0.5430 0.5283
1031.767900 0.5026 0.4782 0.4659 0.4550 0.4357
1038.282560 0.4196 0.4160 0.4122 0.4038 0.3935
1044.797220 0.3847 0.3749 0.3630 0.3581 0.3578
1051.311880 0.3823 0.4344 0.4711 0.4948 0.5307
1057.826540 0.5771 0.6122 0.6586 0.7014 0.7020
1064.341200 0.7020 0.7020 0.7020 0.7020 0.7020
1070.855860 0.7017 0.7010 0.7007 0.6989 0.6949
1077.370520 0.6917 0.6910 0.6905 0.6890 0.6888
1083.885180 0.6878 0.6870 0.6868 0.6860 0.6845
1090.399840 0.6639 0.5998 0.5998 0.6060 0.6169
1096.914500 0.6220 0.6214 0.6180 0.6193 0.6302
1103.429160 0.6423 0.6662 0.7069 0.7265 0.7322
1109.943820 0.7354 0.7415 0.7490 0.7490 0.7490
1116.458480 0.7490 0.7490 0.7490 0.7479 0.7440
1122.973140 0.7370 0.7321 0.7271 0.7231 0.7192
1129.487800 0.7152 0.7093 0.7015 0.6935 0.6707
1136.002460 0.6561 0.6331 0.6292 0.6290 0.6325
1142.517120 0.6462 0.6697 0.7083 0.7174 0.7257
1149.031780 0.7354 0.7462 0.7530 0.7605 0.7685
1155.546440 0.7700 0.7700 0.7684 0.7680 0.7664
1162.061100 0.7637 0.7448 0.7360 0.7335 0.7220
1168.575760 0.7078 0.6997 0.6945 0.6591 0.6198
1175.090420 0.6028 0.6061 0.6211 0.6457 0.6918
1181.605080 0.7266 0.7446 0.7544 0.7583 0.7590
1188.119740 0.7596 0.7612 0.7620 0.7620 0.7626
1194.634400 0.7630 0.7630 0.7636 0.7634 0.7625
1201.149060 0.7604 0.7585 0.7575 0.7555 0.7540
1207.663720 0.7540 0.7535 0.7530 0.7530 0.7530
1214.178380 0.7521 0.7510 0.7501 0.7459 0.7411
1220.693040 0.7387 0.7329 0.7250 0.7220 0.7208
1227.207700 0.7171 0.7125 0.7081 0.7035 0.6957
1233.722360 0.6801 0.6646 0.6550 0.6517 0.6442
1240.237020 0.6231 0.5871 0.5482 0.5042 0.4539
1246.751680 0.4126 0.3672 0.3297 0.3098 0.2873
1253.266340 0.2852 0.2865 0.2895 0.2967 0.3058
1259.781000 0.3174 0.3342 0.4014 0.4071 0.4309
1266.295660 0.4540 0.4886 0.5682 0.5994 0.6486
1272.810320 0.7124 0.7459 0.7535 0.7585 0.7641
1279.324980 0.7761 0.7885 0.7942 0.7974 0.8030
1285.839640 0.8031 0.8060 0.8071 0.8101 0.8130
1292.354300 0.8150 0.8160 0.8170 0.8190 0.8200
1298.868960 0.8210 0.8220 0.8220 0.8220 0.8220
1305.383620 0.8220 0.8220 0.8220 0.8220 0.8211
1311.898280 0.8210 0.8201 0.8139 0.8113 0.8101
1318.412940 0.8074 0.8070 0.8070 0.8062 0.8060
1324.927600 0.8027 0.8012 0.7994 0.7982 0.7972
1331.442260 0.7923 0.7902 0.7892 0.7890 0.7883
1337.956920 0.7880 0.7851 0.7775 0.7700 0.7637
1344.471580 0.7606 0.7586 0.7559 0.7543 0.7520
1350.986240 0.7503 0.7493 0.7471 0.7415 0.7263
1357.500900 0.7102 0.6889 0.6625 0.6502 0.6508
1364.015560 0.6538 0.6567 0.6643 0.6875 0.7159
1370.530220 0.7320 0.7360 0.7355 0.7308 0.7228
1377.044880 0.7149 0.7085 0.7050 0.7040 0.7030
1383.559540 0.7020 0.7058 0.7146 0.7268 0.7417
1390.074200 0.7543 0.7796 0.8064 0.8074 0.8088
1396.588860 0.8100 0.8104 0.8110 0.8110 0.8110
1403.103520 0.8106 0.8100 0.8093 0.8080 0.8080
1409.618180 0.8080 0.8086 0.8100 0.8103 0.8110
1416.132840 0.8110 0.8110 0.8110 0.8107 0.8095
1422.647500 0.8067 0.8025 0.8005 0.7988 0.7980
1429.162160 0.7980 0.7978 0.7966 0.7948 0.7938
1435.676820 0.7930 0.7930 0.7930 0.7927 0.7910
1442.191480 0.7910 0.7910 0.7909 0.7898 0.7880
1448.706140 0.7880 0.7878 0.7857 0.7818 0.7789
1455.220800 0.7770 0.7770 0.7759 0.7730 0.7730
1461.735460 0.7709 0.7659 0.7590 0.7580 0.7550
1468.250120 0.7540 0.7491 0.7423 0.7315 0.7291
1474.764780 0.7290 0.7290 0.7309 0.7292 0.7308
1481.279440 0.7310 0.7310 0.7310 0.7310 0.7310
1487.794100 0.7310 0.7310 0.7344 0.7367 0.7403
1494.308760 0.7451 0.7460 0.7460 0.7420 0.7402
1500.823420 0.7329 0.7239 0.7204 0.7192 0.7182
1507.338080 0.7172 0.7125 0.7066 0.6999 0.6829
1513.852740 0.6698 0.6635 0.6613 0.6603 0.6573
1520.367400 0.6513 0.6130 0.5897 0.5643 0.5456
1526.882060 0.5356 0.5250 0.5191 0.5168 0.5178
1533.396720 0.5250 0.5343 0.5578 0.5950 0.6640
1539.911380 0.7046 0.7050 0.7050 0.7034 0.7020
1546.426040 0.7020 0.7041 0.7060 0.7085 0.7139
1552.940700 0.7180 0.7204 0.7239 0.7274 0.7299
1559.455360 0.7319 0.7330 0.7330 0.7330 0.7326
1565.970020 0.7316 0.7302 0.7282 0.7258 0.7225
1572.484680 0.7193 0.7169 0.7132 0.7100 0.7087
1578.999340 0.7057 0.7040 0.7017 0.7001 0.6959
1585.514000 0.6901 0.6877 0.6862 0.6824 0.6767
1592.028660 0.6725 0.6707 0.6698 0.6685 0.6659
1598.543320 0.6600 0.6513 0.6430 0.6321 0.6178
1605.057980 0.6064 0.5976 0.5895 0.5804 0.5696
1611.572640 0.5544 0.5432 0.5293 0.5101 0.5025
1618.087300 0.4962 0.4768 0.4457 0.4115 0.3827
1624.601960 0.3545 0.3479 0.3457 0.3409 0.3390
1631.116620 0.3391 0.3411 0.3441 0.3480 0.3520
1637.631280 0.3679 0.4044 0.4187 0.4383 0.4610
1644.145940 0.4772 0.4837 0.4962 0.5045 0.5096
1650.660600 0.5173 0.5262 0.5477 0.5607 0.5699
1657.175260 0.5719 0.5764 0.5779 0.5806 0.5844
1663.689920 0.5850 0.5850 0.5850 0.5834 0.5830
1670.204580 0.5774 0.5672 0.5579 0.5529 0.5481
1676.719240 0.5416 0.5332 0.5213 0.5062 0.4823
1683.233900 0.4692 0.4591 0.4289 0.4095 0.3976
1689.748560 0.3919 0.3883 0.3843 0.3790 0.3750
1696.263220 0.3714 0.3687 0.3680 0.3680 0.3680
1702.777880 0.3668 0.3660 0.3660 0.3672 0.3680
1709.292540 0.3680 0.3680 0.3669 0.3632 0.3556
1715.807200 0.3494 0.3475 0.3470 0.3475 0.3495
1722.321860 0.3530 0.3560 0.3570 0.3570 0.3570
1728.836520 0.3556 0.3513 0.3449 0.3319 0.3025
1735.351180 0.2727 0.2595 0.2485 0.2380 0.2167
1741.865840 0.1903 0.1834 0.1768 0.1701 0.1639
1748.380500 0.1620 0.1627 0.1693 0.1852 0.1992
1754.895160 0.2066 0.2137 0.2349 0.2611 0.2839
1761.409820 0.2986 0.3098 0.3360 0.3585 0.3764
1767.924480 0.4113 0.4266 0.4586 0.4794 0.4814
1774.439140 0.4938 0.5418 0.5516 0.5604 0.5685
1780.953800 0.5787 0.5934 0.5995 0.6217 0.6265
1787.468460 0.6300 0.6303 0.6333 0.6368 0.6450
1793.983120 0.6562 0.6701 0.6711 0.6731 0.6752
1800.497780 0.6803 0.6871 0.6891 0.6921 0.6950
1807.012440 0.6970 0.7000 0.7020 0.7040 0.7050
1813.527100 0.7060 0.7060 0.7098 0.7100 0.7109
1820.041760 0.7110 0.7110 0.7110 0.7110 0.7128
1826.556420 0.7139 0.7149 0.7168 0.7179 0.7180
1833.071080 0.7197 0.7217 0.7228 0.7255 0.7268
1839.585740 0.7270 0.7270 0.7278 0.7280 0.7272
1846.100400 0.7270 0.7270 0.7270 0.7270 0.7270
1852.615060 0.7270 0.7277 0.7280 0.7280 0.7287
1859.129720 0.7290 0.7290 0.7290 0.7304 0.7310
1865.644380 0.7310 0.7310 0.7310 0.7316 0.7320
1872.159040 0.7320 0.7326 0.7342 0.7362 0.7382
1878.673700 0.7390 0.7401 0.7427 0.7440 0.7462
1885.188360 0.7485 0.7490 0.7495 0.7505 0.7510
1891.703020 0.7520 0.7535 0.7545 0.7560 0.7575
1898.217680 0.7585 0.7595 0.7609 0.7620 0.7620
1904.732340 0.7620 0.7612 0.7600 0.7600 0.7608
1911.247000 0.7612 0.7608 0.7624 0.7630 0.7634
1917.761660 0.7640 0.7647 0.7660 0.7660 0.7660
1924.276320 0.7660 0.7663 0.7670 0.7670 0.7670
1930.790980 0.7670 0.7673 0.7680 0.7677 0.7673
1937.305640 0.7680 0.7680 0.7685 0.7700 0.7700
1943.820300 0.7700 0.7700 0.7700 0.7700 0.7700
1950.334960 0.7700 0.7700 0.7700 0.7700 0.7700
1956.849620 0.7700 0.7700 0.7700 0.7700 0.7700
1963.364280 0.7700 0.7700 0.7700 0.7700 0.7700
1969.878940 0.7700 0.7700 0.7700 0.7700 0.7710
1976.393600 0.7700 0.7700 0.7700 0.7700 0.7680
1982.908260 0.7680 0.7680 0.7680 0.7680 0.7680
1989.422920 0.7680 0.7680 0.7680 0.7680 0.7680
1995.937580 0.7698 0.7700 0.7700 0.7700 0.7718
2002.452240 0.7729 0.7765 0.7788 0.7790 0.7790
2008.966900 0.7790 0.7790 0.7790 0.7790 0.7772
2015.481560 0.7770 0.7770 0.7761 0.7760 0.7760
2021.996220 0.7751 0.7750 0.7750 0.7750 0.7750
2028.510880 0.7750 0.7750 0.7750 0.7750 0.7750
2035.025540 0.7732 0.7730 0.7721 0.7720 0.7711
2041.540200 0.7710 0.7710 0.7710 0.7710 0.7710
2048.054860 0.7710 0.7710 0.7710 0.7701 0.7700
2054.569520 0.7674 0.7670 0.7670 0.7670 0.7670
2061.084180 0.7670 0.7670 0.7661 0.7660 0.7660
2067.598840 0.7642 0.7640 0.7631 0.7630 0.7621
2074.113500 0.7602 0.7600 0.7591 0.7590 0.7581
2080.628160 0.7580 0.7571 0.7570 0.7570 0.7570
2087.142820 0.7570 0.7570 0.7570 0.7579 0.7580
2093.657480 0.7580 0.7589 0.7590 0.7590 0.7599
2100.172140 0.7600 0.7600 0.7600 0.7600 0.7600
2106.686800 0.7600 0.7600 0.7591 0.7590 0.7581
2113.201460 0.7580 0.7571 0.7570 0.7552 0.7550
2119.716120 0.7541 0.7531 0.7530 0.7512 0.7510
2126.230780 0.7492 0.7490 0.7490 0.7490 0.7481
2132.745440 0.7480 0.7480 0.7480 0.7462 0.7460
2139.260100 0.7460 0.7460 0.7460 0.7460 0.7460
2145.774760 0.7460 0.7460 0.7460 0.7460 0.7460
2152.289420 0.7451 0.7450 0.7450 0.7441 0.7440
2158.804080 0.7440 0.7422 0.7420 0.7411 0.7410
2165.318740 0.7410 0.7410 0.7410 0.7410 0.7410
2171.833400 0.7419 0.7438 0.7449 0.7450 0.7450
2178.348060 0.7459 0.7478 0.7480 0.7498 0.7500
2184.862720 0.7500 0.7509 0.7510 0.7528 0.7530
2191.377380 0.7530 0.7530 0.7530 0.7530 0.7530
2197.892040 0.7530 0.7530 0.7548 0.7550 0.7550
2204.406700 0.7550 0.7550 0.7550 0.7550 0.7550
2210.921360 0.7550 0.7550 0.7550 0.7550 0.7541
2217.436020 0.7540 0.7531 0.7530 0.7530 0.7530
2223.950680 0.7539 0.7531 0.7530 0.7530 0.7530
2230.465340 0.7530 0.7512 0.7501 0.7491 0.7481
2236.980000 0.7462 0.7451 0.7424 0.7420 0.7420
2243.494660 0.7411 0.7410 0.7401 0.7391 0.7390
2250.009320 0.7390 0.7390 0.7390 0.7390 0.7390
2256.523980 0.7372 0.7370 0.7370 0.7370 0.7361
2263.038640 0.7360 0.7360 0.7351 0.7350 0.7332
2269.553300 0.7330 0.7330 0.7330 0.7330 0.7330
2276.067960 0.7330 0.7330 0.7330 0.7330 0.7330
2282.582620 0.7321 0.7320 0.7320 0.7311 0.7310
2289.097280 0.7292 0.7281 0.7280 0.7271 0.7270
2295.611940 0.7261 0.7234 0.7230 0.7230 0.7230
2302.126600 0.7221 0.7220 0.7202 0.7182 0.7180
2308.641260 0.7171 0.7152 0.7132 0.7104 0.7082
2315.155920 0.7054 0.7024 0.7011 0.7001 0.6982
2321.670580 0.6962 0.6934 0.6895 0.6872 0.6870
2328.185240 0.6861 0.6842 0.6796 0.6755 0.6741
2334.699900 0.6740 0.6731 0.6730 0.6712 0.6701
2341.214560 0.6700 0.6700 0.6700 0.6691 0.6672
2347.729220 0.6661 0.6651 0.6624 0.6611 0.6601
2354.243880 0.6582 0.6571 0.6570 0.6570 0.6570
2360.758540 0.6570 0.6570 0.6570 0.6570 0.6561
2367.273200 0.6560 0.6560 0.6560 0.6560 0.6560
2373.787860 0.6560 0.6560 0.6560 0.6560 0.6560
2380.302520 0.6560 0.6560 0.6551 0.6550 0.6550
2386.817180 0.6532 0.6521 0.6520 0.6511 0.6510
2393.331840 0.6484 0.6480 0.6471 0.6470 0.6452
2399.846500 0.6450 0.6468 0.6470 0.6470 0.6452
2406.361160 0.6441 0.6431 0.6421 0.6402 0.6391
2412.875820 0.6355 0.6341 0.6331 0.6295 0.6272
2419.390480 0.6252 0.6241 0.6222 0.6220 0.6220
2425.905140 0.6238 0.6240 0.6249 0.6259 0.6260
2432.419800 0.6269 0.6261 0.6260 0.6251 0.6189
2438.934460 0.6145 0.6087 0.6036 0.6004 0.5982
2445.449120 0.5962 0.5951 0.5932 0.5904 0.5874
2451.963780 0.5861 0.5860 0.5851 0.5832 0.5821
2458.478440 0.5811 0.5748 0.5731 0.5730 0.5721
2464.993100 0.5711 0.5692 0.5681 0.5680 0.5671
2471.507760 0.5652 0.5641 0.5622 0.5620 0.5620
2478.022420 0.5620 0.5602 0.5600 0.5591 0.5590
2484.537080 0.5590 0.5590 0.5581 0.5580 0.5580
2491.051740 0.5562 0.5560 0.5551 0.5550 0.5550
2497.566400 0.5541 0.5540 0.5522 0.5520 0.5502
2504.081060 0.5491 0.5472 0.5470 0.5461 0.5460
2510.595720 0.5434 0.5430 0.5430 0.5421 0.5411
2517.110380 0.5401 0.5382 0.5371 0.5344 0.5314
2523.625040 0.5292 0.5272 0.5270 0.5252 0.5250
2530.139700 0.5250 0.5250 0.5250 0.5250 0.5250
2536.654360 0.5250 0.5241 0.5231 0.5204 0.5156
2543.169020 0.5115 0.5092 0.5072 0.5061 0.5051
2549.683680 0.5050 0.5032 0.5030 0.5012 0.5001
2556.198340 0.5000 0.4982 0.4971 0.4908 0.4856
2562.713000 0.4850 0.4841 0.4831 0.4812 0.4810
2569.227660 0.4792 0.4790 0.4781 0.4762 0.4751
2575.742320 0.4741 0.4722 0.4711 0.4701 0.4682
2582.256980 0.4662 0.4651 0.4632 0.4621 0.4611
2588.771640 0.4584 0.4527 0.4502 0.4500 0.4500
2595.286300 0.4491 0.4490 0.4490 0.4481 0.4480
2601.800960 0.4480 0.4480 0.4454 0.4441 0.4431
2608.315620 0.4412 0.4401 0.4391 0.4364 0.4360
2614.830280 0.4351 0.4341 0.4322 0.4311 0.4301
2621.344940 0.4282 0.4271 0.4252 0.4232 0.4230
2627.859600 0.4221 0.4220 0.4211 0.4210 0.4192
2634.374260 0.4172 0.4161 0.4142 0.4131 0.4121
2640.888920 0.4120 0.4102 0.4091 0.4064 0.4051
2647.403580 0.4041 0.4040 0.4031 0.4012 0.4001
2653.918240 0.4000 0.3991 0.3972 0.3961 0.3951
2660.432900 0.3941 0.3922 0.3911 0.3884 0.3871
2666.947560 0.3861 0.3851 0.3832 0.3812 0.3784
2673.462220 0.3771 0.3744 0.3740 0.3731 0.3721
2679.976880 0.3702 0.3691 0.3681 0.3662 0.3660
2686.491540 0.3651 0.3650 0.3641 0.3631 0.3630
2693.006200 0.3630 0.3612 0.3610 0.3610 0.3610
2699.520860 0.3610 0.3610 0.3610 0.3610 0.3610
2706.035520 0.3610 0.3601 0.3600 0.3600 0.3591
2712.550180 0.3590 0.3590 0.3590 0.3572 0.3570
2719.064840 0.3570 0.3570 0.3561 0.3560 0.3560
2725.579500 0.3560 0.3560 0.3560 0.3551 0.3550
2732.094160 0.3541 0.3540 0.3522 0.3520 0.3511
2738.608820 0.3510 0.3449 0.3431 0.3421 0.3411
2745.123480 0.3410 0.3410 0.3384 0.3380 0.3371
2751.638140 0.3352 0.3341 0.3340 0.3331 0.3321
2758.152800 0.3302 0.3300 0.3300 0.3300 0.3300
2764.667460 0.3291 0.3290 0.3290 0.3290 0.3290
2771.182120 0.3281 0.3280 0.3280 0.3280 0.3280
2777.696780 0.3280 0.3280 0.3280 0.3280 0.3289
2784.211440 0.3290 0.3290 0.3290 0.3299 0.3318
2790.726100 0.3320 0.3320 0.3329 0.3348 0.3385
2797.240760 0.3408 0.3428 0.3456 0.3478 0.3506
2803.755420 0.3519 0.3538 0.3549 0.3550 0.3559
2810.270080 0.3569 0.3588 0.3599 0.3609 0.3636
2816.784740 0.3649 0.3676 0.3715 0.3746 0.3785
2823.299400 0.3843 0.3868 0.3879 0.3942 0.3959
2829.814060 0.3995 0.4009 0.4045 0.4076 0.4089
2836.328720 0.4125 0.4156 0.4213 0.4273 0.4280
2842.843380 0.4341 0.4385 0.4399 0.4409 0.4436
2849.358040 0.4466 0.4488 0.4516 0.4520 0.4529
2855.872700 0.4539 0.4566 0.4570 0.4588 0.4590
2862.387360 0.4608 0.4619 0.4620 0.4629 0.4630
2868.902020 0.4630 0.4630 0.4630 0.4630 0.4630
2875.416680 0.4630 0.4630 0.4630 0.4630 0.4630
2881.931340 0.4630 0.4621 0.4620 0.4611 0.4592
2888.446000 0.4581 0.4571 0.4544 0.4522 0.4520
2894.960660 0.4502 0.4491 0.4472 0.4470 0.4452
2901.475320 0.4432 0.4368 0.4342 0.4314 0.4187
2907.989980 0.4073 0.4034 0.3995 0.3972 0.3961
2914.504640 0.3942 0.3922 0.3911 0.3901 0.3882
2921.019300 0.3871 0.3870 0.3870 0.3870 0.3870
2927.533960 0.3870 0.3879 0.3880 0.3898 0.3900
2934.048620 0.3909 0.3919 0.3938 0.3949 0.3968
2940.563280 0.4005 0.4036 0.4058 0.4086 0.4099
2947.077940 0.4170 0.4259 0.4296 0.4344 0.4359
2953.592600 0.4386 0.4425 0.4474 0.4524 0.4574
2960.107260 0.4615 0.4646 0.4659 0.4660 0.4695
2966.621920 0.4744 0.4820 0.4892 0.4935 0.4958
2973.136580 0.4978 0.4998 0.5000 0.5018 0.5020
2979.651240 0.5029 0.5048 0.5059 0.5069 0.5070
2986.165900 0.5096 0.5153 0.5186 0.5234 0.5266
2992.680560 0.5279 0.5280 0.5306 0.5319 0.5329
2999.195220 0.5330 0.5339 0.5340 0.5358 0.5369
3005.709880 0.5370 0.5379 0.5380 0.5398 0.5426
3012.224540 0.5448 0.5450 0.5450 0.5459 0.5460
3018.739200 0.5513 0.5546 0.5559 0.5560 0.5578
3025.253860 0.5580 0.5580 0.5580 0.5580 0.5580
3031.768520 0.5580 0.5580 0.5580 0.5580 0.5562
3038.283180 0.5551 0.5550 0.5541 0.5522 0.5511
3044.797840 0.5510 0.5501 0.5491 0.5472 0.5461
3051.312500 0.5451 0.5432 0.5421 0.5402 0.5374
3057.827160 0.5370 0.5361 0.5360 0.5342 0.5340
3064.341820 0.5322 0.5276 0.5217 0.5166 0.5142
3070.856480 0.5114 0.5101 0.5091 0.5072 0.5052
3077.371140 0.5015 0.4984 0.4945 0.4922 0.4894
3083.885800 0.4855 0.4841 0.4831 0.4812 0.4801
3090.400460 0.4791 0.4790 0.4790 0.4790 0.4790
3096.915120 0.4790 0.4790 0.4790 0.4799 0.4809
3103.429780 0.4828 0.4830 0.4848 0.4876 0.4898
3109.944440 0.4926 0.4956 0.4995 0.5062 0.5096
3116.459100 0.5135 0.5158 0.5221 0.5309 0.5329
3122.973760 0.5392 0.5453 0.5504 0.5580 0.5634
3129.488420 0.5684 0.5725 0.5774 0.5851 0.5869
3136.003080 0.5896 0.5909 0.5928 0.5939 0.5949
3142.517740 0.5959 0.5978 0.5989 0.5990 0.5990
3149.032400 0.5990 0.5999 0.6000 0.6018 0.6020
3155.547060 0.6029 0.6030 0.6030 0.6030 0.6030
3162.061720 0.6030 0.6030 0.6030 0.6021 0.6020
3168.576380 0.6002 0.6000 0.5991 0.5990 0.5981
3175.091040 0.5980 0.5962 0.5951 0.5950 0.5950
3181.605700 0.5941 0.5940 0.5940 0.5931 0.5930
3188.120360 0.5930 0.5912 0.5901 0.5900 0.5891
3194.635020 0.5872 0.5861 0.5851 0.5850 0.5850
3201.149680 0.5832 0.5821 0.5811 0.5784 0.5780
3207.664340 0.5780 0.5780 0.5771 0.5770 0.5770
3214.179000 0.5761 0.5760 0.5742 0.5740 0.5740
3220.693660 0.5740 0.5740 0.5740 0.5731 0.5730
3227.208320 0.5730 0.5730 0.5721 0.5711 0.5710
3233.722980 0.5710 0.5692 0.5690 0.5690 0.5690
3240.237640 0.5690 0.5690 0.5690 0.5690 0.5690
3246.752300 0.5690 0.5690 0.5690 0.5690 0.5690
3253.266960 0.5708 0.5710 0.5710 0.5719 0.5720
3259.781620 0.5720 0.5729 0.5730 0.5730 0.5739
3266.296280 0.5740 0.5740 0.5740 0.5740 0.5731
3272.810940 0.5730 0.5721 0.5720 0.5711 0.5692
3279.325600 0.5690 0.5690 0.5690 0.5681 0.5680
3285.840260 0.5680 0.5671 0.5670 0.5670 0.5652
3292.354920 0.5641 0.5640 0.5640 0.5640 0.5640
3298.869580 0.5631 0.5630 0.5621 0.5602 0.5600
3305.384240 0.5591 0.5581 0.5562 0.5560 0.5551
3311.898900 0.5524 0.5511 0.5501 0.5500 0.5491
3318.413560 0.5472 0.5452 0.5415 0.5348 0.5322
3324.928220 0.5285 0.5245 0.5214 0.5192 0.5164
3331.442880 0.5142 0.5122 0.5120 0.5120 0.5102
3337.957540 0.5074 0.5035 0.5030 0.5012 0.5010
3344.472200 0.5001 0.5000 0.4974 0.4961 0.4942
3350.986860 0.4931 0.4904 0.4900 0.4891 0.4881
3357.501520 0.4871 0.4852 0.4806 0.4756 0.4715
3364.016180 0.4701 0.4674 0.4661 0.4616 0.4531
3370.530840 0.4458 0.4441 0.4431 0.4412 0.4392
3377.045500 0.4355 0.4306 0.4265 0.4181 0.4064
3383.560160 0.4041 0.4005 0.3965 0.3925 0.3867
3390.074820 0.3781 0.3700 0.3646 0.3596 0.3572
3396.589480 0.3544 0.3505 0.3447 0.3396 0.3346
3403.104140 0.3296 0.3229 0.3167 0.3116 0.3066
3409.618800 0.3016 0.2957 0.2897 0.2784 0.2761
3416.133460 0.2734 0.2712 0.2675 0.2608 0.2556
3422.648120 0.2550 0.2541 0.2531 0.2512 0.2501
3429.162780 0.2500 0.2500 0.2491 0.2490 0.2490
3435.677440 0.2490 0.2499 0.2509 0.2536 0.2593
3442.192100 0.2618 0.2638 0.2710 0.2755 0.2769
3448.706760 0.2814 0.2855 0.2904 0.2963 0.3005
3455.221420 0.3019 0.3073 0.3124 0.3156 0.3169
3461.736080 0.3170 0.3188 0.3190 0.3190 0.3190
3468.250740 0.3172 0.3170 0.3161 0.3151 0.3124
3474.765400 0.3102 0.3082 0.3071 0.3061 0.3042
3481.280060 0.3031 0.3021 0.2994 0.2955 0.2888
3487.794720 0.2818 0.2766 0.2690 0.2592 0.2545
3494.309380 0.2496 0.2402 0.2329 0.2276 0.2014
3500.824040 0.1901 0.1837 0.1777 0.1708 0.1665
3507.338700 0.1651 0.1641 0.1614 0.1610 0.1601
3513.853360 0.1600 0.1582 0.1580 0.1580 0.1580
3520.368020 0.1580 0.1580 0.1580 0.1598 0.1609
3526.882680 0.1619 0.1638 0.1649 0.1685 0.1699
3533.397340 0.1709 0.1728 0.1739 0.1784 0.1825
3539.912000 0.1901 0.1928 0.2000 0.2133 0.2168
3546.426660 0.2179 0.2233 0.2319 0.2480 0.2571
3552.941320 0.2624 0.2692 0.2744 0.2812 0.2925
3559.455980 0.3028 0.3110 0.3190 0.3235 0.3275
3565.970640 0.3298 0.3370 0.3486 0.3535 0.3628
3572.485300 0.3763 0.3982 0.4010 0.4045 0.4121
3578.999960 0.4201 0.4298 0.4398 0.4489 0.4570
3585.514620 0.4624 0.4648 0.4659 0.4678 0.4733
3592.029280 0.4758 0.4795 0.4826 0.4839 0.4928
3598.543940 0.5001 0.5107 0.5216 0.5309 0.5399
3605.058600 0.5525 0.5584 0.5625 0.5639 0.5684
3611.573260 0.5725 0.5774 0.5806 0.5845 0.5868
3618.087920 0.5896 0.5944 0.5976 0.5989 0.5999
3624.602580 0.6149 0.6249 0.6269 0.6296 0.6309
3631.117240 0.6328 0.6339 0.6349 0.6473 0.6525
3637.631900 0.6565 0.6596 0.6644 0.6721 0.6783
3644.146560 0.6860 0.6914 0.6946 0.6994 0.7018
3650.661220 0.7046 0.7076 0.7106 0.7145 0.7185
3657.175880 0.7225 0.7256 0.7269 0.7349 0.7395
3663.690540 0.7435 0.7475 0.7498 0.7526 0.7530
3670.205200 0.7539 0.7540 0.7549 0.7550 0.7568
3676.719860 0.7579 0.7580 0.7589 0.7590 0.7599
3683.234520 0.7600 0.7618 0.7620 0.7629 0.7639
3689.749180 0.7658 0.7669 0.7696 0.7709 0.7719
3696.263840 0.7720 0.7746 0.7759 0.7769 0.7796
3702.778500 0.7809 0.7810 0.7819 0.7820 0.7838
3709.293160 0.7840 0.7849 0.7850 0.7859 0.7878
3715.807820 0.7889 0.7890 0.7899 0.7900 0.7900
3722.322480 0.7900 0.7900 0.7900 0.7900 0.7900
3728.837140 0.7900 0.7900 0.7900 0.7900 0.7900
3735.351800 0.7891 0.7890 0.7890 0.7881 0.7880
3741.866460 0.7862 0.7860 0.7851 0.7841 0.7822
3748.381120 0.7820 0.7820 0.7820 0.7820 0.7820
3754.895780 0.7820 0.7838 0.7849 0.7850 0.7850
3761.410440 0.7859 0.7860 0.7878 0.7880 0.7880
3767.925100 0.7889 0.7890 0.7890 0.7899 0.7900
3774.439760 0.7900 0.7900 0.7900 0.7900 0.7900
3780.954420 0.7900 0.7900 0.7900 0.7900 0.7900
3787.469080 0.7900 0.7900 0.7900 0.7900 0.7900
3793.983740 0.7909 0.7901 0.7900 0.7900 0.7900
3800.498400 0.7900 0.7891 0.7890 0.7881 0.7862
3807.013060 0.7825 0.7802 0.7800 0.7800 0.7800
3813.527720 0.7800 0.7800 0.7800 0.7800 0.7800
3820.042380 0.7800 0.7800 0.7800 0.7791 0.7790
3826.557040 0.7790 0.7790 0.7790 0.7790 0.7790
3833.071700 0.7790 0.7790 0.7790 0.7790 0.7790
3839.586360 0.7772 0.7770 0.7770 0.7761 0.7760
3846.101020 0.7751 0.7750 0.7732 0.7730 0.7730
3852.615680 0.7730 0.7730 0.7730 0.7730 0.7721
3859.130340 0.7720 0.7720 0.7720 0.7720 0.7720
3865.645000 0.7720 0.7720 0.7720 0.7720 0.7729
3872.159660 0.7748 0.7759 0.7769 0.7788 0.7790
3878.674320 0.7799 0.7800 0.7800 0.7800 0.7800
3885.188980 0.7800 0.7800 0.7800 0.7791 0.7790
3891.703640 0.7790 0.7799 0.7800 0.7800 0.7800
3898.218300 0.7800 0.7800 0.7800 0.7800 0.7791
3904.732960 0.7772 0.7770 0.7735 0.7704 0.7665
3911.247620 0.7642 0.7631 0.7630 0.7630 0.7630
3917.762280 0.7630 0.7630 0.7639 0.7658 0.7669
3924.276940 0.7670 0.7670 0.7679 0.7680 0.7680
3930.791600 0.7680 0.7680 0.7680 0.7680 0.7680
3937.306260 0.7680 0.7680 0.7680 0.7698 0.7682
3943.820920 0.7680 0.7680 0.7671 0.7679 0.7680
3950.335580 0.7671 0.7661 0.7642 0.7631 0.7630
3956.850240 0.7630 0.7630 0.7630 0.7639 0.7658
3963.364900 0.7660 0.7669 0.7670 0.7670 0.7670
3969.879560 0.7670 0.7670 0.7661 0.7642 0.7631
3976.394220 0.7630 0.7639 0.7640 0.7631 0.7630
3982.908880 0.7630 0.7630 0.7630 0.7630 0.7630
3989.423540 0.7630 0.7630 0.7630 0.7639 0.7640
3995.938200 0.7640 0.7640 0.7640 0.7640 0.7640
4002.452860 0.7640 0.7640 0.7640 0.7640 0.7640
4008.967520 0.7640 0.7640 0.7640
##END=
