##TITLE=5-METHYL-7-OXO-1,2,3a,4-TETRAZAINDENE
##JCAMP-DX=4.24
##DATA TYPE=INFRARED SPECTRUM
##CLASS=COBLENTZ
##ORIGIN=EASTMAN KODAK COMPANY, RESEARCH LABORATORIES, ROCHESTER, N.Y.
##OWNER=COBLENTZ SOCIETY
Collection (C) 2018 copyright by the U.S. Secretary of Commerce
on behalf of the United States of America. All rights reserved.
##DATE=Not specified, most likely prior to 1970
##NAMES=6-methyl[1,2,4]triazolo[1,5-b]pyridazin-8(5H)-one
##MOLFORM=C6 H6 N4 O
$$ J. ORG. CHEM. 26, 3834(1961), COMPOUND IV
##MP=296-298 C
##SOURCE REFERENCE=COBLENTZ NO. 2146
##$NIST ID=B6002146
##$NIST SOURCE=COBLENTZ
##$NIST IMAGE=cob2146
##SPECTROMETER/DATA SYSTEM=Not specified, most likely a prism, grating, or hybrid spectrometer.
##STATE=SOLID (KBr PRESSING)
##SAMPLING PROCEDURE=TRANSMISSION
##RESOLUTION=4
##DATA PROCESSING=DIGITIZED BY NIST FROM HARD COPY
##XUNITS=MICROMETERS
##YUNITS=TRANSMITTANCE
##XFACTOR=1.000000
##YFACTOR=1
##DELTAX=000.007019
##FIRSTX=2.031
##LASTX=16.014
##FIRSTY=0.642
##MAXX=16.014
##MINX=2.031
##MAXY=0.935
##MINY=0.071
##NPOINTS=1993
##XYDATA=(X++(Y..Y))
2.031000 0.6420 0.6430 0.6450 0.6470 0.6490
2.066115 0.6500 0.6500 0.6540 0.6560 0.6570
2.102000 0.6590 0.6610 0.6630 0.6640 0.6660
2.137115 0.6680 0.6700 0.6710 0.6730 0.6750
2.172000 0.6770 0.6780 0.6800 0.6800 0.6820
2.207115 0.6820 0.6840 0.6850 0.6850 0.6870
2.242000 0.6870 0.6870 0.6870 0.6890 0.6890
2.277115 0.6910 0.6910 0.6920 0.6920 0.6940
2.312000 0.6940 0.6960 0.6980 0.6980 0.6990
2.347115 0.6990 0.7010 0.7010 0.7030 0.7030
2.382000 0.7050 0.7060 0.7080 0.7100 0.7100
2.417115 0.7120 0.7120 0.7150 0.7170 0.7190
2.452000 0.7190 0.7200 0.7200 0.7220 0.7240
2.487115 0.7240 0.7240 0.7240 0.7260 0.7270
2.523000 0.7290 0.7320 0.7340 0.7360 0.7380
2.558115 0.7390 0.7410 0.7430 0.7450 0.7460
2.593000 0.7460 0.7460 0.7480 0.7480 0.7480
2.628115 0.7480 0.7500 0.7500 0.7520 0.7550
2.663000 0.7570 0.7590 0.7590 0.7590 0.7570
2.698115 0.7570 0.7570 0.7570 0.7550 0.7520
2.733000 0.7500 0.7460 0.7380 0.7290 0.7170
2.768115 0.7060 0.6940 0.6780 0.6700 0.6540
2.803000 0.6420 0.6210 0.6000 0.5950 0.5860
2.838115 0.5750 0.5670 0.5580 0.5510 0.5410
2.874000 0.5390 0.5370 0.5300 0.5270 0.5250
2.909115 0.5230 0.5230 0.5250 0.5300 0.5390
2.944000 0.5470 0.5600 0.5650 0.5740 0.5820
2.979115 0.5910 0.6030 0.6140 0.6240 0.6360
3.014000 0.6470 0.6570 0.6680 0.6770 0.6820
3.049115 0.6850 0.6890 0.6920 0.6920 0.6940
3.084000 0.6940 0.6960 0.6960 0.6960 0.6960
3.119115 0.6960 0.6960 0.6960 0.6960 0.6920
3.154000 0.6890 0.6870 0.6820 0.6770 0.6680
3.189115 0.6470 0.6160 0.5180 0.4040 0.3780
3.225000 0.3360 0.3360 0.3400 0.4080 0.4200
3.260115 0.4310 0.4320 0.4320 0.4320 0.4320
3.295000 0.4320 0.4310 0.4310 0.4310 0.4290
3.330115 0.4270 0.4270 0.4220 0.4150 0.4030
3.365000 0.3990 0.3940 0.3870 0.3820 0.3750
3.400115 0.3490 0.3380 0.3380 0.3450 0.3760
3.435000 0.3890 0.3940 0.3940 0.3940 0.3920
3.470115 0.3890 0.3830 0.3800 0.3780 0.3780
3.505000 0.3780 0.3760 0.3760 0.3760 0.3760
3.540115 0.3730 0.3690 0.3690 0.3680 0.3680
3.576000 0.3680 0.3610 0.3560 0.3560 0.3540
3.611115 0.3540 0.3560 0.3590 0.3640 0.3690
3.646000 0.3710 0.3730 0.3730 0.3710 0.3680
3.681115 0.3660 0.3540 0.3520 0.3490 0.3430
3.716000 0.3290 0.3220 0.3170 0.3100 0.3070
3.751115 0.3030 0.3010 0.3000 0.3000 0.2980
3.786000 0.2960 0.2910 0.2860 0.2840 0.2820
3.821115 0.2800 0.2790 0.2730 0.2700 0.2680
3.856000 0.2680 0.2680 0.2670 0.2610 0.2560
3.891115 0.2490 0.2460 0.2370 0.2260 0.2180
3.927000 0.2110 0.2090 0.2090 0.2110 0.2140
3.962115 0.2140 0.2140 0.2140 0.2160 0.2160
3.997000 0.2160 0.2110 0.2110 0.2110 0.2120
4.032115 0.2160 0.2190 0.2210 0.2280 0.2300
4.067000 0.2320 0.2330 0.2330 0.2330 0.2330
4.102115 0.2330 0.2350 0.2370 0.2390 0.2460
4.137000 0.2470 0.2510 0.2580 0.2600 0.2630
4.172115 0.2670 0.2680 0.2680 0.2720 0.2750
4.207000 0.2770 0.2770 0.2790 0.2790 0.2800
4.242115 0.2820 0.2820 0.2860 0.2870 0.2960
4.278000 0.2980 0.3000 0.3030 0.3120 0.3290
4.313115 0.3450 0.3570 0.3680 0.3760 0.3820
4.348000 0.3890 0.3900 0.3900 0.3940 0.3970
4.383115 0.3990 0.4030 0.4150 0.4240 0.4270
4.418000 0.4290 0.4310 0.4380 0.4410 0.4480
4.453115 0.4480 0.4500 0.4520 0.4550 0.4580
4.488000 0.4640 0.4690 0.4740 0.4810 0.4950
4.523115 0.5000 0.5070 0.5110 0.5180 0.5210
4.558000 0.5270 0.5280 0.5280 0.5300 0.5300
4.593115 0.5320 0.5390 0.5410 0.5420 0.5470
4.629000 0.5490 0.5530 0.5600 0.5630 0.5650
4.664115 0.5670 0.5700 0.5750 0.5770 0.5790
4.699000 0.5790 0.5810 0.5820 0.5840 0.5890
4.734115 0.5910 0.5980 0.5980 0.6000 0.6020
4.769000 0.6090 0.6120 0.6160 0.6190 0.6210
4.804115 0.6230 0.6230 0.6280 0.6310 0.6330
4.839000 0.6330 0.6350 0.6350 0.6350 0.6360
4.874115 0.6380 0.6420 0.6490 0.6500 0.6570
4.909000 0.6610 0.6630 0.6640 0.6640 0.6640
4.944115 0.6640 0.6680 0.6710 0.6780 0.6840
4.979000 0.6910 0.6940 0.6990 0.7030 0.7050
5.014115 0.7080 0.7100 0.7120 0.7130 0.7130
5.050000 0.7170 0.7200 0.7240 0.7270 0.7290
5.085115 0.7310 0.7320 0.7320 0.7320 0.7310
5.120000 0.7290 0.7270 0.7260 0.7260 0.7260
5.155115 0.7270 0.7270 0.7270 0.7290 0.7320
5.190000 0.7340 0.7360 0.7380 0.7380 0.7360
5.225115 0.7360 0.7360 0.7360 0.7360 0.7360
5.260000 0.7360 0.7360 0.7360 0.7360 0.7360
5.295115 0.7340 0.7320 0.7310 0.7290 0.7270
5.330000 0.7220 0.7200 0.7200 0.7240 0.7240
5.365115 0.7130 0.7120 0.7100 0.7030 0.7010
5.401000 0.6990 0.6980 0.6960 0.6960 0.6920
5.436115 0.6890 0.6870 0.6780 0.6770 0.6770
5.471000 0.6770 0.6750 0.6710 0.6640 0.6590
5.506115 0.6500 0.6490 0.6420 0.6380 0.6310
5.541000 0.6230 0.6170 0.6160 0.6160 0.6140
5.576115 0.6120 0.6100 0.6020 0.6000 0.5950
5.611000 0.5910 0.5880 0.5840 0.5810 0.5810
5.646115 0.5810 0.5810 0.5810 0.5790 0.5790
5.681000 0.5750 0.5720 0.5700 0.5680 0.5680
5.716115 0.5650 0.5630 0.5600 0.5530 0.5490
5.752000 0.5410 0.5340 0.5320 0.5280 0.5200
5.787115 0.5060 0.4950 0.4860 0.4790 0.4780
5.822000 0.4760 0.4760 0.4790 0.4830 0.4990
5.857115 0.5000 0.5020 0.5090 0.5110 0.5140
5.892000 0.5160 0.5180 0.5140 0.5110 0.5040
5.927115 0.5020 0.5020 0.5060 0.5140 0.5210
5.962000 0.5280 0.5320 0.5390 0.5470 0.5580
5.997115 0.5670 0.5740 0.5790 0.5840 0.5880
6.032000 0.5910 0.5930 0.5960 0.5960 0.5960
6.067115 0.5980 0.5980 0.5980 0.5980 0.5980
6.103000 0.5980 0.5980 0.5980 0.5950 0.5890
6.138115 0.5790 0.5700 0.5630 0.5600 0.5510
6.173000 0.5490 0.5490 0.5510 0.5610 0.5630
6.208115 0.5680 0.5680 0.5700 0.5700 0.5680
6.243000 0.5600 0.5530 0.5460 0.5270 0.5020
6.278115 0.4570 0.4100 0.3610 0.3080 0.2540
6.313000 0.2250 0.2040 0.1950 0.1600 0.1320
6.348115 0.1110 0.1020 0.0970 0.0940 0.0870
6.383000 0.0800 0.0730 0.0710 0.0710 0.0710
6.418115 0.0710 0.0710 0.0710 0.0730 0.0800
6.454000 0.0830 0.0890 0.0970 0.1040 0.1200
6.489115 0.1550 0.1880 0.2190 0.2460 0.2700
6.524000 0.2940 0.3070 0.3210 0.3260 0.3290
6.559115 0.3330 0.3380 0.3420 0.3490 0.3500
6.594000 0.3540 0.3560 0.3560 0.3540 0.3540
6.629115 0.3520 0.3420 0.3100 0.2750 0.2540
6.664000 0.2460 0.2350 0.2120 0.1910 0.1620
6.699115 0.1600 0.1620 0.1710 0.1840 0.1980
6.734000 0.2120 0.2250 0.2350 0.2390 0.2420
6.769115 0.2420 0.2470 0.2470 0.2370 0.2180
6.805000 0.2090 0.2020 0.2000 0.1980 0.1970
6.840115 0.1970 0.1950 0.1930 0.1930 0.1910
6.875000 0.1880 0.1810 0.1710 0.1620 0.1510
6.910115 0.1460 0.1340 0.1180 0.1090 0.1040
6.945000 0.1010 0.1010 0.1010 0.0990 0.0990
6.980115 0.0990 0.0990 0.0990 0.0990 0.1080
7.015000 0.1160 0.1300 0.1370 0.1480 0.1500
7.050115 0.1530 0.1580 0.1620 0.1670 0.1710
7.085000 0.1790 0.1860 0.1930 0.2000 0.2070
7.120115 0.2140 0.2210 0.2280 0.2370 0.2440
7.156000 0.2530 0.2600 0.2670 0.2790 0.2980
7.191115 0.3190 0.3420 0.3610 0.3750 0.3970
7.226000 0.4100 0.4320 0.4380 0.4390 0.4390
7.261115 0.4380 0.4310 0.4200 0.4060 0.3960
7.296000 0.3750 0.3640 0.3470 0.3260 0.3000
7.331115 0.2790 0.2650 0.2510 0.2420 0.2400
7.366000 0.2370 0.2370 0.2230 0.1780 0.1510
7.401115 0.1200 0.1040 0.0950 0.0940 0.0970
7.436000 0.1040 0.1180 0.1270 0.1340 0.1410
7.471115 0.1480 0.1550 0.1650 0.1760 0.1900
7.506000 0.1980 0.2000 0.2020 0.2070 0.2210
7.541115 0.2470 0.2700 0.2930 0.3100 0.3220
7.577000 0.3350 0.3450 0.3560 0.3660 0.3710
7.612115 0.3780 0.3920 0.4080 0.4290 0.4500
7.647000 0.4650 0.4880 0.5040 0.5210 0.5300
7.682115 0.5320 0.5340 0.5320 0.5200 0.5020
7.717000 0.4640 0.4290 0.3400 0.2800 0.2400
7.752115 0.2110 0.1900 0.1810 0.1790 0.1790
7.787000 0.1810 0.1840 0.1970 0.2160 0.2420
7.822115 0.2700 0.3010 0.3310 0.3470 0.3760
7.857000 0.3960 0.4030 0.4080 0.4270 0.4410
7.892115 0.4520 0.4620 0.4710 0.4810 0.4900
7.928000 0.4990 0.5060 0.5130 0.5200 0.5280
7.963115 0.5370 0.5470 0.5510 0.5600 0.5670
7.998000 0.5750 0.5860 0.5880 0.5930 0.6020
8.033115 0.6020 0.6100 0.6140 0.6210 0.6260
8.068000 0.6310 0.6330 0.6330 0.6350 0.6350
8.103115 0.6360 0.6400 0.6430 0.6500 0.6610
8.138000 0.6710 0.6780 0.6840 0.6910 0.6940
8.173115 0.6980 0.7030 0.7100 0.7150 0.7200
8.208000 0.7260 0.7290 0.7310 0.7290 0.7260
8.243115 0.7220 0.7190 0.7060 0.6980 0.6820
8.279000 0.6500 0.6070 0.5420 0.4880 0.4380
8.314115 0.4060 0.4030 0.4030 0.4010 0.3990
8.349000 0.3690 0.3260 0.2800 0.2210 0.1980
8.384115 0.1790 0.1790 0.1790 0.1810 0.1930
8.419000 0.2120 0.2610 0.3210 0.3690 0.4130
8.454115 0.4450 0.4690 0.4830 0.4930 0.5040
8.489000 0.5160 0.5270 0.5390 0.5470 0.5560
8.524115 0.5740 0.5820 0.5910 0.6000 0.6090
8.559000 0.6160 0.6230 0.6260 0.6310 0.6380
8.594115 0.6420 0.6450 0.6500 0.6500 0.6500
8.630000 0.6500 0.6330 0.6020 0.5600 0.5160
8.665115 0.4860 0.4520 0.4480 0.4480 0.4520
8.700000 0.4650 0.4810 0.5040 0.5270 0.5460
8.735115 0.5610 0.5720 0.5820 0.5930 0.6030
8.770000 0.6160 0.6300 0.6450 0.6520 0.6570
8.805115 0.6700 0.6730 0.6800 0.6820 0.6840
8.840000 0.6850 0.6870 0.6870 0.6890 0.6910
8.875115 0.6910 0.6920 0.6920 0.6940 0.6990
8.910000 0.7010 0.7010 0.7030 0.7030 0.7050
8.945115 0.7060 0.7080 0.7080 0.7100 0.7120
8.981000 0.7170 0.7200 0.7240 0.7260 0.7270
9.016115 0.7290 0.7290 0.7310 0.7320 0.7340
9.051000 0.7340 0.7360 0.7360 0.7360 0.7380
9.086115 0.7390 0.7390 0.7410 0.7410 0.7430
9.121000 0.7450 0.7460 0.7500 0.7500 0.7520
9.156115 0.7520 0.7520 0.7520 0.7520 0.7530
9.191000 0.7530 0.7530 0.7530 0.7530 0.7530
9.226115 0.7530 0.7530 0.7520 0.7520 0.7520
9.261000 0.7500 0.7500 0.7500 0.7500 0.7500
9.296115 0.7500 0.7500 0.7520 0.7520 0.7520
9.332000 0.7520 0.7520 0.7530 0.7530 0.7550
9.367115 0.7550 0.7570 0.7570 0.7590 0.7600
9.402000 0.7620 0.7640 0.7670 0.7690 0.7710
9.437115 0.7730 0.7760 0.7760 0.7780 0.7780
9.472000 0.7780 0.7780 0.7760 0.7740 0.7730
9.507115 0.7710 0.7690 0.7640 0.7600 0.7590
9.542000 0.7530 0.7520 0.7450 0.7430 0.7410
9.577115 0.7410 0.7390 0.7390 0.7380 0.7360
9.612000 0.7320 0.7310 0.7290 0.7270 0.7240
9.647115 0.7200 0.7130 0.7120 0.7030 0.6980
9.683000 0.6780 0.6680 0.6560 0.6430 0.6310
9.718115 0.6210 0.6070 0.5910 0.5750 0.5540
9.753000 0.5300 0.5070 0.4880 0.4650 0.4380
9.788115 0.4130 0.3990 0.3820 0.3690 0.3680
9.823000 0.3690 0.3780 0.3960 0.4200 0.4530
9.858115 0.4930 0.5210 0.5460 0.5580 0.5720
9.893000 0.5840 0.5980 0.6070 0.6190 0.6330
9.928115 0.6470 0.6520 0.6570 0.6660 0.6710
9.963000 0.6730 0.6780 0.6800 0.6840 0.6870
9.998115 0.6890 0.6890 0.6870 0.6840 0.6770
10.033000 0.6630 0.6470 0.6280 0.6070 0.6020
10.068115 0.5910 0.5810 0.5770 0.5750 0.5790
10.104000 0.5880 0.6000 0.6090 0.6300 0.6490
10.139115 0.6630 0.6870 0.6990 0.7050 0.7120
10.174000 0.7130 0.7190 0.7200 0.7190 0.7030
10.209115 0.6750 0.6230 0.5470 0.4920 0.4310
10.244000 0.4220 0.4220 0.4410 0.5130 0.5560
10.279115 0.5930 0.6160 0.6380 0.6570 0.6770
10.314000 0.6890 0.7030 0.7120 0.7220 0.7310
10.349115 0.7360 0.7410 0.7460 0.7480 0.7520
10.384000 0.7530 0.7550 0.7550 0.7550 0.7590
10.419115 0.7600 0.7670 0.7690 0.7690 0.7690
10.455000 0.7690 0.7710 0.7730 0.7760 0.7760
10.490115 0.7780 0.7800 0.7800 0.7800 0.7810
10.525000 0.7810 0.7810 0.7830 0.7850 0.7870
10.560115 0.7870 0.7870 0.7870 0.7850 0.7830
10.595000 0.7830 0.7830 0.7810 0.7810 0.7800
10.630115 0.7800 0.7780 0.7780 0.7740 0.7730
10.665000 0.7710 0.7710 0.7690 0.7660 0.7620
10.700115 0.7600 0.7590 0.7570 0.7550 0.7530
10.735000 0.7520 0.7450 0.7450 0.7430 0.7430
10.770115 0.7430 0.7430 0.7410 0.7390 0.7360
10.806000 0.7320 0.7270 0.7260 0.7240 0.7200
10.841115 0.7130 0.7060 0.7030 0.6980 0.6890
10.876000 0.6820 0.6770 0.6710 0.6640 0.6630
10.911115 0.6610 0.6540 0.6490 0.6420 0.6330
10.946000 0.6230 0.6140 0.6070 0.6030 0.5980
10.981115 0.5910 0.5770 0.5670 0.5610 0.5560
11.016000 0.5530 0.5440 0.5410 0.5370 0.5320
11.051115 0.5300 0.5280 0.5280 0.5280 0.5300
11.086000 0.5300 0.5300 0.5300 0.5320 0.5320
11.121115 0.5350 0.5410 0.5440 0.5510 0.5540
11.157000 0.5600 0.5650 0.5700 0.5720 0.5810
11.192115 0.5860 0.5910 0.5930 0.5980 0.6030
11.227000 0.6070 0.6160 0.6210 0.6300 0.6350
11.262115 0.6360 0.6380 0.6420 0.6450 0.6470
11.297000 0.6490 0.6500 0.6520 0.6560 0.6630
11.332115 0.6640 0.6660 0.6660 0.6660 0.6660
11.367000 0.6660 0.6660 0.6640 0.6520 0.6420
11.402115 0.6230 0.6070 0.5930 0.5560 0.5280
11.437000 0.5130 0.4780 0.4480 0.4200 0.3970
11.472115 0.3760 0.3610 0.3520 0.3520 0.3540
11.508000 0.3610 0.3750 0.3940 0.4170 0.4450
11.543115 0.4740 0.5040 0.5340 0.5600 0.5750
11.578000 0.5910 0.6090 0.6260 0.6400 0.6500
11.613115 0.6540 0.6570 0.6640 0.6680 0.6680
11.648000 0.6660 0.6610 0.6540 0.6470 0.6230
11.683115 0.6000 0.5820 0.5630 0.5470 0.5280
11.718000 0.5130 0.5040 0.5000 0.4920 0.4900
11.753115 0.4880 0.4880 0.4900 0.5040 0.5180
11.788000 0.5300 0.5440 0.5580 0.5720 0.5880
11.823115 0.6050 0.6230 0.6430 0.6540 0.6640
11.859000 0.6780 0.6920 0.7030 0.7130 0.7170
11.894115 0.7240 0.7320 0.7410 0.7450 0.7530
11.929000 0.7550 0.7620 0.7660 0.7760 0.7850
11.964115 0.7880 0.7900 0.7920 0.7920 0.7940
11.999000 0.7940 0.7950 0.7950 0.7950 0.7950
12.034115 0.7950 0.7940 0.7920 0.7810 0.7690
12.069000 0.7530 0.7310 0.7030 0.6700 0.6330
12.104115 0.5980 0.5420 0.5000 0.4570 0.4250
12.139000 0.4010 0.3750 0.3590 0.3500 0.3470
12.174115 0.3450 0.3450 0.3490 0.3940 0.4150
12.210000 0.4520 0.4810 0.5130 0.5390 0.5630
12.245115 0.5860 0.6000 0.6230 0.6380 0.6570
12.280000 0.6730 0.6840 0.6910 0.7010 0.7060
12.315115 0.7170 0.7270 0.7380 0.7450 0.7520
12.350000 0.7570 0.7640 0.7670 0.7730 0.7800
12.385115 0.7850 0.7920 0.7970 0.8010 0.8020
12.420000 0.8040 0.8060 0.8080 0.8080 0.8110
12.455115 0.8130 0.8180 0.8210 0.8230 0.8250
12.490000 0.8250 0.8270 0.8280 0.8280 0.8300
12.525115 0.8300 0.8320 0.8340 0.8340 0.8350
12.560000 0.8370 0.8420 0.8420 0.8440 0.8440
12.595115 0.8440 0.8440 0.8460 0.8460 0.8460
12.631000 0.8460 0.8460 0.8460 0.8480 0.8480
12.666115 0.8480 0.8510 0.8510 0.8530 0.8530
12.701000 0.8530 0.8530 0.8530 0.8530 0.8550
12.736115 0.8550 0.8580 0.8580 0.8600 0.8600
12.771000 0.8600 0.8600 0.8600 0.8580 0.8550
12.806115 0.8550 0.8550 0.8550 0.8550 0.8550
12.841000 0.8550 0.8550 0.8530 0.8530 0.8530
12.876115 0.8530 0.8530 0.8530 0.8530 0.8530
12.911000 0.8530 0.8550 0.8550 0.8550 0.8550
12.946115 0.8530 0.8530 0.8510 0.8510 0.8510
12.982000 0.8490 0.8480 0.8480 0.8460 0.8440
13.017115 0.8440 0.8410 0.8390 0.8390 0.8370
13.052000 0.8350 0.8350 0.8340 0.8320 0.8300
13.087115 0.8270 0.8230 0.8210 0.8200 0.8180
13.122000 0.8180 0.8180 0.8150 0.8150 0.8130
13.157115 0.8110 0.8090 0.8090 0.8080 0.8060
13.192000 0.8040 0.7950 0.7940 0.7920 0.7900
13.227115 0.7830 0.7830 0.7830 0.7830 0.7830
13.262000 0.7850 0.7920 0.7940 0.7990 0.8060
13.297115 0.8130 0.8200 0.8250 0.8320 0.8340
13.333000 0.8350 0.8390 0.8410 0.8440 0.8460
13.368115 0.8490 0.8530 0.8580 0.8630 0.8670
13.403000 0.8720 0.8760 0.8760 0.8770 0.8790
13.438115 0.8790 0.8790 0.8830 0.8840 0.8860
13.473000 0.8910 0.8950 0.9000 0.9050 0.9070
13.508115 0.9070 0.9090 0.9100 0.9100 0.9120
13.543000 0.9120 0.9120 0.9140 0.9140 0.9170
13.578115 0.9190 0.9210 0.9210 0.9230 0.9230
13.613000 0.9230 0.9230 0.9230 0.9230 0.9230
13.648115 0.9230 0.9230 0.9230 0.9230 0.9230
13.684000 0.9230 0.9240 0.9240 0.9240 0.9240
13.719115 0.9260 0.9260 0.9280 0.9300 0.9300
13.754000 0.9310 0.9330 0.9330 0.9330 0.9350
13.789115 0.9350 0.9350 0.9350 0.9350 0.9350
13.824000 0.9350 0.9350 0.9350 0.9330 0.9330
13.859115 0.9330 0.9330 0.9350 0.9350 0.9350
13.894000 0.9350 0.9350 0.9350 0.9330 0.9330
13.929115 0.9310 0.9310 0.9300 0.9300 0.9300
13.964000 0.9300 0.9300 0.9300 0.9310 0.9330
13.999115 0.9330 0.9330 0.9330 0.9330 0.9330
14.035000 0.9300 0.9280 0.9240 0.9230 0.9210
14.070115 0.9190 0.9100 0.9050 0.9040 0.8970
14.105000 0.8930 0.8860 0.8790 0.8760 0.8700
14.140115 0.8650 0.8560 0.8510 0.8420 0.8340
14.175000 0.8270 0.8230 0.8090 0.8080 0.7970
14.210115 0.7740 0.7670 0.7620 0.7530 0.7430
14.245000 0.7340 0.7260 0.7130 0.7050 0.7010
14.280115 0.6850 0.6800 0.6710 0.6570 0.6520
14.315000 0.6470 0.6420 0.6350 0.6300 0.6260
14.350115 0.6240 0.6240 0.6240 0.6240 0.6260
14.386000 0.6310 0.6380 0.6470 0.6660 0.6850
14.421115 0.7050 0.7260 0.7430 0.7590 0.7730
14.456000 0.7800 0.7990 0.8080 0.8230 0.8320
14.491115 0.8410 0.8490 0.8580 0.8650 0.8670
14.526000 0.8700 0.8760 0.8830 0.8840 0.8880
14.561115 0.8930 0.8950 0.8970 0.9040 0.9040
14.596000 0.9050 0.9050 0.9070 0.9070 0.9090
14.631115 0.9090 0.9090 0.9090 0.9090 0.9090
14.666000 0.9090 0.9090 0.9090 0.9090 0.9090
14.701115 0.9090 0.9090 0.9090 0.9090 0.9090
14.737000 0.9090 0.9090 0.9090 0.9090 0.9090
14.772115 0.9090 0.9090 0.9090 0.9090 0.9090
14.807000 0.9090 0.9090 0.9090 0.9070 0.9070
14.842115 0.9050 0.9040 0.9020 0.9000 0.8980
14.877000 0.8950 0.8910 0.8830 0.8760 0.8670
14.912115 0.8600 0.8530 0.8440 0.8320 0.8210
14.947000 0.8150 0.8040 0.7940 0.7800 0.7660
14.982115 0.7550 0.7530 0.7380 0.7360 0.7340
15.017000 0.7340 0.7360 0.7460 0.7500 0.7530
15.052115 0.7640 0.7710 0.7730 0.7850 0.7920
15.087000 0.7940 0.7990 0.7990 0.7990 0.7990
15.122115 0.7950 0.7830 0.7710 0.7590 0.7430
15.158000 0.7290 0.7010 0.6750 0.6490 0.6300
15.193115 0.6070 0.5840 0.5610 0.5410 0.5200
15.228000 0.5130 0.5110 0.5110 0.5110 0.5110
15.263115 0.5140 0.5270 0.5420 0.5580 0.5720
15.298000 0.5820 0.5980 0.6120 0.6310 0.6400
15.333115 0.6560 0.6680 0.6800 0.6890 0.7010
15.368000 0.7120 0.7150 0.7240 0.7270 0.7410
15.403115 0.7450 0.7480 0.7520 0.7600 0.7640
15.438000 0.7660 0.7670 0.7730 0.7760 0.7810
15.473115 0.7850 0.7870 0.7880 0.7880 0.7900
15.509000 0.7900 0.7900 0.7900 0.7900 0.7900
15.544115 0.7920 0.7940 0.7940 0.7950 0.7950
15.579000 0.7940 0.7920 0.7870 0.7850 0.7850
15.614115 0.7850 0.7850 0.7900 0.7920 0.7940
15.649000 0.7940 0.7940 0.7920 0.7920 0.7900
15.684115 0.7900 0.7880 0.7880 0.7870 0.7850
15.719000 0.7830 0.7830 0.7830 0.7830 0.7830
15.754115 0.7810 0.7800 0.7780 0.7760 0.7760
15.789000 0.7740 0.7740 0.7740 0.7740 0.7730
15.824115 0.7690 0.7660 0.7640 0.7640 0.7640
15.860000 0.7640 0.7640 0.7620 0.7620 0.7620
15.895115 0.7620 0.7600 0.7590 0.7570 0.7550
15.930000 0.7550 0.7550 0.7550 0.7550 0.7550
15.965115 0.7530 0.7530 0.7520 0.7500 0.7500
16.000000 0.7480 0.7450 0.7430
##END=
