##TITLE=Acetic acid, (ethylenedinitrilo)-tetra-, cerium sodium salt, hydrate
##JCAMP-DX=4.24
##DATA TYPE=INFRARED SPECTRUM
##CLASS=COBLENTZ III
##ORIGIN=DOW CHEMICAL COMPANY
##OWNER=Copyright (C) 1987 by the Coblentz Society
Collection (C) 2018 copyright by the U.S. Secretary of Commerce
on behalf of the United States of America. All rights reserved.
##DATE=1966/02/07
##MOLFORM=C10 H12 Ce Na N2 O8  * 8 H2 O
##SOURCE REFERENCE=COBLENTZ NO. 6681
##$NIST ID=B6006681
##$NIST SOURCE=COBLENTZ
##$NIST IMAGE=cob6681
##SPECTROMETER/DATA SYSTEM=DOW KBr FOREPRISM-GRATING
##INSTRUMENT PARAMETERS=BLAZED AT 3.5, 12.0, 20.0 MICRON AND CHANGED AT 5.0, 7.5, 14.9 MICRON
$$ SPECTRAL FEATURE AT 1337 CM^-^1 IS AFFECTED BY GRATING CHANGE
##STATE=SOLID (SPLIT MULL)
##SAMPLING PROCEDURE=TRANSMISSION
##RESOLUTION=2
##DATA PROCESSING=DIGITIZED BY COBLENTZ SOCIETY (BATCH II) FROM HARD COPY
##XUNITS=1/CM
##YUNITS=TRANSMITTANCE
##XFACTOR=1.0
##YFACTOR=1
##FIRSTX=458
##LASTX=3800
##FIRSTY=0.5211
##MAXX=3800
##MINX=458
##MAXY=0.9763
##MINY=0.0353
##NPOINTS=3343
##XYDATA=(X++(Y..Y))
458.000000 0.5211 0.5209 0.5207 0.5206 0.5204
463.000000 0.5200 0.5196 0.5192 0.5189 0.5204
468.000000 0.5175 0.5161 0.5148 0.5134 0.5118
473.000000 0.5097 0.5077 0.5056 0.5035 0.5014
478.000000 0.4993 0.4973 0.4945 0.4913 0.4881
483.000000 0.4849 0.4821 0.4795 0.4769 0.4743
488.000000 0.4718 0.4692 0.4666 0.4640 0.4615
493.000000 0.4590 0.4564 0.4539 0.4514 0.4489
498.000000 0.4463 0.4432 0.4394 0.4355 0.4316
503.000000 0.4277 0.4259 0.4244 0.4230 0.4215
508.000000 0.4211 0.4209 0.4206 0.4204 0.4201
513.000000 0.4199 0.4196 0.4194 0.4191 0.4189
518.000000 0.4187 0.4184 0.4182 0.4180 0.4177
523.000000 0.4175 0.4172 0.4170 0.4172 0.4176
528.000000 0.4181 0.4186 0.4191 0.4195 0.4200
533.000000 0.4205 0.4208 0.4211 0.4214 0.4218
538.000000 0.4221 0.4224 0.4227 0.4230 0.4234
543.000000 0.4238 0.4242 0.4246 0.4250 0.4254
548.000000 0.4257 0.4249 0.4242 0.4234 0.4227
553.000000 0.4220 0.4212 0.4205 0.4189 0.4172
558.000000 0.4156 0.4139 0.4122 0.4106 0.4089
563.000000 0.4070 0.4047 0.4025 0.4002 0.3980
568.000000 0.3958 0.3935 0.3913 0.3890 0.3864
573.000000 0.3839 0.3814 0.3789 0.3764 0.3739
578.000000 0.3715 0.3691 0.3667 0.3644 0.3620
583.000000 0.3596 0.3573 0.3549 0.3526 0.3501
588.000000 0.3471 0.3442 0.3412 0.3382 0.3353
593.000000 0.3323 0.3292 0.3286 0.3289 0.3296
598.000000 0.3303 0.3313 0.3322 0.3329 0.3335
603.000000 0.3338 0.3338 0.3338 0.3338 0.3328
608.000000 0.3310 0.3292 0.3274 0.3255 0.3222
613.000000 0.3188 0.3155 0.3122 0.3089 0.3054
618.000000 0.3019 0.2984 0.2949 0.2927 0.2914
623.000000 0.2923 0.2933 0.2946 0.2964 0.2986
628.000000 0.3010 0.3035 0.3057 0.3067 0.3058
633.000000 0.3049 0.3040 0.3019 0.2983 0.2946
638.000000 0.2909 0.2858 0.2806 0.2798 0.2790
643.000000 0.2788 0.2786 0.2785 0.2783 0.2783
648.000000 0.2770 0.2786 0.2788 0.2789 0.2791
653.000000 0.2796 0.2801 0.2807 0.2812 0.2818
658.000000 0.2830 0.2847 0.2864 0.2886 0.2915
663.000000 0.2980 0.3053 0.3163 0.3300 0.3387
668.000000 0.3437 0.3467 0.3497 0.3515 0.3529
673.000000 0.3538 0.3539 0.3541 0.3567 0.3537
678.000000 0.3532 0.3524 0.3513 0.3502 0.3492
683.000000 0.3479 0.3462 0.3444 0.3427 0.3409
688.000000 0.3386 0.3360 0.3335 0.3309 0.3284
693.000000 0.3256 0.3225 0.3194 0.3163 0.3132
698.000000 0.3100 0.3061 0.3021 0.2982 0.2942
703.000000 0.2902 0.2863 0.2818 0.2767 0.2715
708.000000 0.2663 0.2612 0.2560 0.2500 0.2431
713.000000 0.2362 0.2293 0.2224 0.2166 0.2115
718.000000 0.2064 0.2012 0.1969 0.1932 0.1918
723.000000 0.1912 0.1898 0.1914 0.1920 0.1927
728.000000 0.1933 0.1940 0.1954 0.1973 0.1992
733.000000 0.2011 0.2040 0.2070 0.2120 0.2240
738.000000 0.2334 0.2414 0.2491 0.2565 0.2637
743.000000 0.2725 0.2829 0.2933 0.3037 0.3136
748.000000 0.3198 0.3277 0.3355 0.3434 0.3510
753.000000 0.3585 0.3660 0.3737 0.3830 0.3922
758.000000 0.4015 0.4103 0.4192 0.4280 0.4369
763.000000 0.4447 0.4518 0.4588 0.4667 0.4754
768.000000 0.4838 0.4910 0.4981 0.5052 0.5117
773.000000 0.5179 0.5242 0.5305 0.5367 0.5430
778.000000 0.5493 0.5555 0.5605 0.5650 0.5695
783.000000 0.5740 0.5785 0.5821 0.5857 0.5893
788.000000 0.5929 0.5967 0.6008 0.6050 0.6091
793.000000 0.6133 0.6173 0.6213 0.6254 0.6291
798.000000 0.6318 0.6345 0.6372 0.6394 0.6410
803.000000 0.6448 0.6409 0.6397 0.6380 0.6346
808.000000 0.6280 0.6206 0.6127 0.6014 0.5849
813.000000 0.5737 0.5626 0.5527 0.5456 0.5414
818.000000 0.5434 0.5463 0.5556 0.5658 0.5760
823.000000 0.5863 0.5965 0.6067 0.6170 0.6272
828.000000 0.6374 0.6476 0.6579 0.6681 0.6781
833.000000 0.6861 0.6953 0.7008 0.7037 0.7053
838.000000 0.7068 0.7014 0.6982 0.6946 0.6899
843.000000 0.6849 0.6798 0.6742 0.6678 0.6612
848.000000 0.6546 0.6480 0.6381 0.6250 0.6107
853.000000 0.5954 0.5798 0.5761 0.5748 0.5728
858.000000 0.5754 0.5760 0.5786 0.5831 0.5887
863.000000 0.5974 0.6090 0.6233 0.6348 0.6415
868.000000 0.6441 0.6474 0.6445 0.6438 0.6392
873.000000 0.6313 0.6203 0.6086 0.5982 0.5886
878.000000 0.5833 0.5801 0.5783 0.5943 0.6123
883.000000 0.6308 0.6494 0.6679 0.6864 0.7050
888.000000 0.7235 0.7420 0.7622 0.7929 0.8148
893.000000 0.8244 0.8327 0.8374 0.8407 0.8409
898.000000 0.8405 0.8395 0.8377 0.8347 0.8289
903.000000 0.8222 0.8133 0.8016 0.7832 0.7631
908.000000 0.7216 0.6759 0.6302 0.5845 0.5388
913.000000 0.4884 0.4590 0.4328 0.4082 0.3639
918.000000 0.3461 0.3217 0.2842 0.2788 0.2756
923.000000 0.2785 0.2810 0.2843 0.2878 0.2914
928.000000 0.2951 0.2994 0.3045 0.3127 0.3210
933.000000 0.3329 0.3507 0.3662 0.3814 0.4136
938.000000 0.4459 0.4776 0.5377 0.5668 0.5791
943.000000 0.5932 0.6046 0.6124 0.6180 0.6234
948.000000 0.6280 0.6326 0.6357 0.6387 0.6417
953.000000 0.6449 0.6493 0.6569 0.6908 0.7034
958.000000 0.7055 0.7070 0.7080 0.7086 0.7091
963.000000 0.7127 0.7191 0.7255 0.7302 0.7326
968.000000 0.7346 0.7313 0.7349 0.7347 0.7329
973.000000 0.7303 0.7245 0.7148 0.7067 0.6999
978.000000 0.6997 0.6995 0.6998 0.7004 0.7010
983.000000 0.7013 0.7015 0.7010 0.6990 0.6852
988.000000 0.6704 0.6607 0.6502 0.6410 0.6377
993.000000 0.6350 0.6398 0.6449 0.6588 0.6738
998.000000 0.6893 0.6998 0.7054 0.7093 0.7133
1003.000000 0.7253 0.7408 0.7704 0.8000 0.8296
1008.000000 0.8592 0.8888 0.9184 0.9358 0.9367
1013.000000 0.9362 0.9415 0.9313 0.9225 0.9117
1018.000000 0.8912 0.8633 0.8353 0.8074 0.7794
1023.000000 0.7515 0.7235 0.6955 0.6676 0.6396
1028.000000 0.6249 0.6237 0.6349 0.6557 0.6765
1033.000000 0.6973 0.7181 0.7317 0.7411 0.7507
1038.000000 0.7689 0.8005 0.8171 0.8322 0.8564
1043.000000 0.8817 0.8912 0.8961 0.8979 0.8991
1048.000000 0.9003 0.8978 0.8950 0.8868 0.8796
1053.000000 0.8744 0.8726 0.8723 0.8726 0.8741
1058.000000 0.8787 0.8871 0.9086 0.9363 0.9455
1063.000000 0.9507 0.9557 0.9585 0.9614 0.9630
1068.000000 0.9629 0.9601 0.9611 0.9593 0.9571
1073.000000 0.9539 0.9494 0.9419 0.9343 0.9205
1078.000000 0.9051 0.8890 0.8745 0.8616 0.8487
1083.000000 0.8360 0.8203 0.7748 0.7293 0.6837
1088.000000 0.6382 0.5927 0.5472 0.5017 0.4561
1093.000000 0.4040 0.3840 0.3765 0.3750 0.3746
1098.000000 0.3729 0.3811 0.3999 0.4187 0.4290
1103.000000 0.4312 0.4328 0.4334 0.4341 0.4352
1108.000000 0.4458 0.4878 0.5297 0.5716 0.6135
1113.000000 0.6555 0.6971 0.7104 0.7167 0.7209
1118.000000 0.7217 0.7135 0.7053 0.7011 0.7041
1123.000000 0.7209 0.7542 0.7834 0.8098 0.8404
1128.000000 0.8778 0.9029 0.9217 0.9351 0.9440
1133.000000 0.9514 0.9580 0.9643 0.9684 0.9706
1138.000000 0.9724 0.9738 0.9749 0.9759 0.9760
1143.000000 0.9762 0.9763 0.9762 0.9760 0.9756
1148.000000 0.9749 0.9741 0.9734 0.9728 0.9722
1153.000000 0.9710 0.9689 0.9668 0.9647 0.9626
1158.000000 0.9605 0.9570 0.9536 0.9491 0.9441
1163.000000 0.9391 0.9310 0.9217 0.9107 0.9046
1168.000000 0.8970 0.9004 0.9060 0.9125 0.9180
1173.000000 0.9218 0.9254 0.9283 0.9293 0.9298
1178.000000 0.9309 0.9428 0.9501 0.9583 0.9641
1183.000000 0.9664 0.9670 0.9669 0.9668 0.9667
1188.000000 0.9659 0.9660 0.9655 0.9650 0.9644
1193.000000 0.9636 0.9618 0.9600 0.9582 0.9564
1198.000000 0.9545 0.9523 0.9502 0.9481 0.9455
1203.000000 0.9428 0.9401 0.9374 0.9334 0.9291
1208.000000 0.9230 0.9156 0.9100 0.9044 0.8988
1213.000000 0.8936 0.8887 0.8838 0.8789 0.8740
1218.000000 0.8691 0.8623 0.8554 0.8486 0.8416
1223.000000 0.8338 0.8260 0.8183 0.8105 0.8028
1228.000000 0.7950 0.7870 0.7768 0.7666 0.7555
1233.000000 0.7374 0.7237 0.7118 0.6988 0.6818
1238.000000 0.6646 0.6475 0.6303 0.5676 0.5672
1243.000000 0.5672 0.5682 0.5695 0.5727 0.5781
1248.000000 0.5805 0.5806 0.5808 0.5817 0.5788
1253.000000 0.5771 0.5744 0.5705 0.5644 0.5544
1258.000000 0.5479 0.5413 0.5158 0.4986 0.5031
1263.000000 0.5126 0.5200 0.5283 0.5367 0.5438
1268.000000 0.5502 0.5554 0.5596 0.5637 0.5678
1273.000000 0.5713 0.5749 0.5740 0.5747 0.5742
1278.000000 0.5737 0.5719 0.5697 0.5630 0.5604
1283.000000 0.5604 0.5604 0.5604 0.5603 0.5602
1288.000000 0.5601 0.5562 0.5510 0.5434 0.5360
1293.000000 0.5272 0.5160 0.5056 0.4962 0.4868
1298.000000 0.4744 0.4476 0.4209 0.3942 0.3675
1303.000000 0.3408 0.3141 0.2874 0.2606 0.2339
1308.000000 0.2268 0.2164 0.1915 0.1611 0.1500
1313.000000 0.1500 0.1519 0.1580 0.1697 0.1771
1318.000000 0.1818 0.1831 0.1840 0.1847 0.1842
1323.000000 0.1834 0.1825 0.1806 0.1788 0.1766
1328.000000 0.1741 0.1716 0.1690 0.1636 0.1585
1333.000000 0.1539 0.1493 0.1447 0.1436 0.1438
1338.000000 0.1548 0.1745 0.1943 0.2140 0.2338
1343.000000 0.2535 0.2732 0.2930 0.3127 0.3324
1348.000000 0.3522 0.3720 0.3963 0.4190 0.4303
1353.000000 0.4339 0.4363 0.4342 0.4333 0.4312
1358.000000 0.4282 0.4244 0.4196 0.4136 0.4063
1363.000000 0.3964 0.3894 0.3825 0.3757 0.3689
1368.000000 0.3621 0.3547 0.3472 0.3405 0.3347
1373.000000 0.3289 0.3231 0.3173 0.3119 0.3066
1378.000000 0.3013 0.2960 0.2907 0.2855 0.2801
1383.000000 0.2745 0.2690 0.2634 0.2579 0.2526
1388.000000 0.2474 0.2422 0.2370 0.2313 0.2245
1393.000000 0.2176 0.2111 0.2050 0.1990 0.1930
1398.000000 0.1869 0.1817 0.1768 0.1719 0.1680
1403.000000 0.1643 0.1607 0.1599 0.1601 0.1593
1408.000000 0.1606 0.1620 0.1636 0.1655 0.1678
1413.000000 0.1702 0.1737 0.1773 0.1809 0.1851
1418.000000 0.1900 0.1986 0.2097 0.2207 0.2308
1423.000000 0.2410 0.2515 0.2624 0.2738 0.2828
1428.000000 0.2917 0.3004 0.3115 0.3265 0.3381
1433.000000 0.3501 0.3589 0.3660 0.3677 0.3693
1438.000000 0.3710 0.3727 0.3734 0.3740 0.3747
1443.000000 0.3749 0.3750 0.3751 0.3752 0.3753
1448.000000 0.3766 0.3793 0.3874 0.4040 0.4205
1453.000000 0.4315 0.4397 0.4478 0.4552 0.4627
1458.000000 0.4708 0.4790 0.4885 0.4989 0.5123
1463.000000 0.5268 0.5364 0.5435 0.5496 0.5547
1468.000000 0.5596 0.5649 0.5703 0.5759 0.5798
1473.000000 0.5814 0.5829 0.5829 0.5829 0.5845
1478.000000 0.5829 0.5826 0.5823 0.5818 0.5811
1483.000000 0.5803 0.5785 0.5766 0.5747 0.5727
1488.000000 0.5708 0.5684 0.5655 0.5625 0.5593
1493.000000 0.5561 0.5528 0.5483 0.5435 0.5388
1498.000000 0.5318 0.5246 0.5191 0.5137 0.5082
1503.000000 0.5027 0.4972 0.4918 0.4857 0.4794
1508.000000 0.4732 0.4670 0.4613 0.4559 0.4504
1513.000000 0.4449 0.4395 0.4335 0.4267 0.4200
1518.000000 0.4132 0.4060 0.3984 0.3909 0.3834
1523.000000 0.3758 0.3681 0.3605 0.3507 0.3393
1528.000000 0.3279 0.3176 0.3084 0.2991 0.2908
1533.000000 0.2831 0.2755 0.2679 0.2602 0.2527
1538.000000 0.2455 0.2382 0.2310 0.2238 0.2143
1543.000000 0.1990 0.1836 0.1733 0.1641 0.1550
1548.000000 0.1482 0.1420 0.1357 0.1295 0.1232
1553.000000 0.1170 0.1108 0.1044 0.0980 0.0916
1558.000000 0.0852 0.0788 0.0751 0.0716 0.0681
1563.000000 0.0647 0.0621 0.0595 0.0569 0.0543
1568.000000 0.0527 0.0512 0.0497 0.0483 0.0468
1573.000000 0.0453 0.0441 0.0429 0.0417 0.0405
1578.000000 0.0395 0.0389 0.0384 0.0378 0.0372
1583.000000 0.0367 0.0363 0.0360 0.0358 0.0356
1588.000000 0.0353 0.0360 0.0355 0.0357 0.0359
1593.000000 0.0360 0.0358 0.0357 0.0362 0.0368
1598.000000 0.0375 0.0382 0.0389 0.0396 0.0402
1603.000000 0.0412 0.0426 0.0439 0.0453 0.0468
1608.000000 0.0485 0.0503 0.0522 0.0544 0.0566
1613.000000 0.0587 0.0609 0.0632 0.0655 0.0678
1618.000000 0.0701 0.0724 0.0751 0.0779 0.0806
1623.000000 0.0834 0.0862 0.0899 0.0936 0.0974
1628.000000 0.1017 0.1068 0.1119 0.1171 0.1222
1633.000000 0.1274 0.1329 0.1385 0.1440 0.1496
1638.000000 0.1551 0.1617 0.1688 0.1758 0.1829
1643.000000 0.1900 0.1972 0.2045 0.2117 0.2189
1648.000000 0.2305 0.2428 0.2685 0.2829 0.2923
1653.000000 0.2981 0.3039 0.3097 0.3156 0.3214
1658.000000 0.3272 0.3316 0.3357 0.3398 0.3440
1663.000000 0.3481 0.3522 0.3563 0.3604 0.3645
1668.000000 0.3691 0.3769 0.3846 0.3939 0.4036
1673.000000 0.4128 0.4216 0.4304 0.4397 0.4499
1678.000000 0.4600 0.4701 0.4820 0.4944 0.5067
1683.000000 0.5178 0.5282 0.5386 0.5490 0.5586
1688.000000 0.5681 0.5775 0.5870 0.6030 0.6193
1693.000000 0.6392 0.6715 0.6852 0.6990 0.7101
1698.000000 0.7175 0.7249 0.7323 0.7397 0.7457
1703.000000 0.7517 0.7576 0.7636 0.7683 0.7734
1708.000000 0.7784 0.7845 0.7911 0.7974 0.8036
1713.000000 0.8097 0.8154 0.8210 0.8255 0.8299
1718.000000 0.8343 0.8385 0.8420 0.8455 0.8491
1723.000000 0.8530 0.8569 0.8609 0.8646 0.8674
1728.000000 0.8701 0.8729 0.8757 0.8784 0.8822
1733.000000 0.8860 0.8896 0.8930 0.8963 0.8997
1738.000000 0.9030 0.9059 0.9087 0.9115 0.9143
1743.000000 0.9171 0.9194 0.9218 0.9242 0.9265
1748.000000 0.9289 0.9310 0.9327 0.9343 0.9360
1753.000000 0.9376 0.9393 0.9407 0.9420 0.9433
1758.000000 0.9446 0.9459 0.9473 0.9486 0.9499
1763.000000 0.9512 0.9524 0.9537 0.9549 0.9558
1768.000000 0.9567 0.9576 0.9585 0.9594 0.9603
1773.000000 0.9612 0.9619 0.9624 0.9629 0.9633
1778.000000 0.9638 0.9643 0.9647 0.9630 0.9655
1783.000000 0.9658 0.9661 0.9664 0.9667 0.9670
1788.000000 0.9673 0.9676 0.9677 0.9677 0.9678
1793.000000 0.9679 0.9680 0.9680 0.9682 0.9683
1798.000000 0.9684 0.9686 0.9687 0.9688 0.9689
1803.000000 0.9690 0.9690 0.9690 0.9691 0.9691
1808.000000 0.9692 0.9692 0.9692 0.9693 0.9693
1813.000000 0.9694 0.9694 0.9697 0.9700 0.9704
1818.000000 0.9707 0.9711 0.9714 0.9715 0.9715
1823.000000 0.9715 0.9715 0.9715 0.9716 0.9716
1828.000000 0.9716 0.9716 0.9716 0.9716 0.9716
1833.000000 0.9716 0.9716 0.9716 0.9717 0.9719
1838.000000 0.9721 0.9722 0.9723 0.9724 0.9724
1843.000000 0.9725 0.9726 0.9727 0.9728 0.9729
1848.000000 0.9728 0.9727 0.9726 0.9724 0.9723
1853.000000 0.9721 0.9720 0.9718 0.9717 0.9715
1858.000000 0.9714 0.9712 0.9711 0.9709 0.9707
1863.000000 0.9704 0.9702 0.9699 0.9697 0.9695
1868.000000 0.9692 0.9690 0.9687 0.9685 0.9682
1873.000000 0.9680 0.9677 0.9675 0.9673 0.9670
1878.000000 0.9667 0.9665 0.9662 0.9660 0.9657
1883.000000 0.9655 0.9652 0.9649 0.9647 0.9644
1888.000000 0.9642 0.9639 0.9637 0.9634 0.9631
1893.000000 0.9629 0.9628 0.9626 0.9625 0.9623
1898.000000 0.9622 0.9620 0.9619 0.9618 0.9616
1903.000000 0.9615 0.9613 0.9610 0.9607 0.9603
1908.000000 0.9600 0.9596 0.9593 0.9590 0.9588
1913.000000 0.9586 0.9584 0.9583 0.9581 0.9580
1918.000000 0.9578 0.9576 0.9575 0.9573 0.9571
1923.000000 0.9569 0.9566 0.9564 0.9562 0.9560
1928.000000 0.9558 0.9555 0.9553 0.9551 0.9549
1933.000000 0.9547 0.9544 0.9542 0.9539 0.9536
1938.000000 0.9534 0.9531 0.9528 0.9526 0.9523
1943.000000 0.9521 0.9518 0.9515 0.9513 0.9510
1948.000000 0.9507 0.9504 0.9501 0.9497 0.9494
1953.000000 0.9493 0.9495 0.9498 0.9510 0.9564
1958.000000 0.9632 0.9699 0.9738 0.9628 0.9498
1963.000000 0.9479 0.9472 0.9462 0.9455 0.9452
1968.000000 0.9449 0.9447 0.9444 0.9441 0.9438
1973.000000 0.9435 0.9431 0.9428 0.9427 0.9426
1978.000000 0.9425 0.9421 0.9414 0.9407 0.9400
1983.000000 0.9393 0.9384 0.9375 0.9367 0.9358
1988.000000 0.9349 0.9341 0.9333 0.9325 0.9318
1993.000000 0.9310 0.9302 0.9294 0.9287 0.9279
1998.000000 0.9271 0.9264 0.9256 0.9248 0.9240
2003.000000 0.9235 0.9231 0.9226 0.9222 0.9217
2008.000000 0.9213 0.9209 0.9205 0.9201 0.9197
2013.000000 0.9193 0.9189 0.9185 0.9182 0.9178
2018.000000 0.9174 0.9170 0.9166 0.9162 0.9158
2023.000000 0.9154 0.9150 0.9146 0.9142 0.9138
2028.000000 0.9134 0.9130 0.9126 0.9122 0.9119
2033.000000 0.9115 0.9111 0.9106 0.9101 0.9096
2038.000000 0.9091 0.9086 0.9081 0.9076 0.9071
2043.000000 0.9066 0.9061 0.9056 0.9051 0.9046
2048.000000 0.9041 0.9037 0.9033 0.9028 0.9024
2053.000000 0.9019 0.9015 0.9010 0.9006 0.9001
2058.000000 0.8997 0.8992 0.8988 0.8983 0.8979
2063.000000 0.8974 0.8970 0.8965 0.8961 0.8956
2068.000000 0.8952 0.8947 0.8943 0.8938 0.8934
2073.000000 0.8929 0.8925 0.8920 0.8916 0.8911
2078.000000 0.8907 0.8902 0.8898 0.8893 0.8889
2083.000000 0.8884 0.8880 0.8875 0.8870 0.8865
2088.000000 0.8861 0.8856 0.8852 0.8847 0.8843
2093.000000 0.8838 0.8833 0.8828 0.8824 0.8819
2098.000000 0.8815 0.8810 0.8806 0.8801 0.8796
2103.000000 0.8791 0.8787 0.8782 0.8778 0.8773
2108.000000 0.8768 0.8763 0.8759 0.8754 0.8750
2113.000000 0.8745 0.8741 0.8736 0.8732 0.8727
2118.000000 0.8723 0.8718 0.8714 0.8709 0.8705
2123.000000 0.8701 0.8697 0.8692 0.8688 0.8683
2128.000000 0.8679 0.8674 0.8670 0.8665 0.8661
2133.000000 0.8656 0.8652 0.8648 0.8644 0.8639
2138.000000 0.8635 0.8630 0.8626 0.8621 0.8617
2143.000000 0.8613 0.8609 0.8604 0.8600 0.8595
2148.000000 0.8591 0.8586 0.8582 0.8578 0.8574
2153.000000 0.8569 0.8565 0.8560 0.8556 0.8551
2158.000000 0.8547 0.8543 0.8539 0.8534 0.8530
2163.000000 0.8526 0.8522 0.8519 0.8516 0.8512
2168.000000 0.8509 0.8506 0.8503 0.8500 0.8497
2173.000000 0.8493 0.8490 0.8487 0.8484 0.8480
2178.000000 0.8477 0.8474 0.8471 0.8468 0.8465
2183.000000 0.8461 0.8458 0.8455 0.8452 0.8449
2188.000000 0.8446 0.8443 0.8440 0.8437 0.8434
2193.000000 0.8431 0.8428 0.8425 0.8422 0.8418
2198.000000 0.8415 0.8412 0.8409 0.8406 0.8403
2203.000000 0.8400 0.8397 0.8394 0.8391 0.8388
2208.000000 0.8385 0.8382 0.8379 0.8375 0.8371
2213.000000 0.8367 0.8364 0.8360 0.8356 0.8352
2218.000000 0.8349 0.8345 0.8341 0.8337 0.8334
2223.000000 0.8330 0.8326 0.8322 0.8318 0.8314
2228.000000 0.8311 0.8307 0.8303 0.8299 0.8296
2233.000000 0.8291 0.8287 0.8282 0.8278 0.8273
2238.000000 0.8269 0.8264 0.8259 0.8254 0.8250
2243.000000 0.8245 0.8241 0.8236 0.8232 0.8227
2248.000000 0.8222 0.8217 0.8213 0.8208 0.8204
2253.000000 0.8199 0.8194 0.8189 0.8185 0.8180
2258.000000 0.8176 0.8171 0.8166 0.8161 0.8157
2263.000000 0.8152 0.8148 0.8142 0.8137 0.8132
2268.000000 0.8127 0.8122 0.8117 0.8112 0.8107
2273.000000 0.8102 0.8097 0.8092 0.8087 0.8082
2278.000000 0.8077 0.8072 0.8067 0.8064 0.8061
2283.000000 0.8057 0.8054 0.8051 0.8048 0.8045
2288.000000 0.8042 0.8038 0.8035 0.8032 0.8029
2293.000000 0.8025 0.8022 0.8019 0.8016 0.8014
2298.000000 0.8012 0.8010 0.8008 0.8006 0.8004
2303.000000 0.8002 0.8000 0.7998 0.7997 0.7995
2308.000000 0.7993 0.7991 0.7989 0.7987 0.7985
2313.000000 0.7983 0.7981 0.7979 0.7977 0.7975
2318.000000 0.7974 0.7972 0.7970 0.7968 0.7966
2323.000000 0.7964 0.7962 0.7960 0.7958 0.7956
2328.000000 0.7954 0.7952 0.7951 0.7949 0.7947
2333.000000 0.7947 0.7947 0.7947 0.7948 0.7948
2338.000000 0.7948 0.7948 0.7949 0.7949 0.7950
2343.000000 0.7950 0.7950 0.7950 0.7951 0.7951
2348.000000 0.7951 0.7951 0.7952 0.7952 0.7952
2353.000000 0.7951 0.7951 0.7950 0.7950 0.7949
2358.000000 0.7949 0.7948 0.7947 0.7946 0.7945
2363.000000 0.7944 0.7944 0.7944 0.7944 0.7944
2368.000000 0.7944 0.7945 0.7946 0.7947 0.7949
2373.000000 0.7950 0.7951 0.7952 0.7954 0.7955
2378.000000 0.7957 0.7958 0.7959 0.7960 0.7961
2383.000000 0.7962 0.7963 0.7964 0.7965 0.7966
2388.000000 0.7967 0.7968 0.7970 0.7971 0.7972
2393.000000 0.7973 0.7974 0.7974 0.7975 0.7975
2398.000000 0.7976 0.7976 0.7977 0.7977 0.7978
2403.000000 0.7978 0.7979 0.7979 0.7980 0.7980
2408.000000 0.7981 0.7982 0.7983 0.7983 0.7984
2413.000000 0.7984 0.7985 0.7985 0.7986 0.7986
2418.000000 0.7987 0.7987 0.7988 0.7988 0.7988
2423.000000 0.7988 0.7989 0.7989 0.7990 0.7990
2428.000000 0.7991 0.7991 0.7992 0.7992 0.7992
2433.000000 0.7992 0.7993 0.7993 0.7994 0.7994
2438.000000 0.7995 0.7995 0.7995 0.7995 0.7996
2443.000000 0.7994 0.7993 0.7991 0.7990 0.7989
2448.000000 0.7988 0.7986 0.7985 0.7983 0.7982
2453.000000 0.7980 0.7979 0.7977 0.7976 0.7974
2458.000000 0.7973 0.7971 0.7970 0.7968 0.7967
2463.000000 0.7965 0.7964 0.7962 0.7961 0.7959
2468.000000 0.7958 0.7956 0.7955 0.7953 0.7952
2473.000000 0.7950 0.7949 0.7947 0.7946 0.7944
2478.000000 0.7942 0.7940 0.7939 0.7937 0.7936
2483.000000 0.7934 0.7933 0.7931 0.7929 0.7927
2488.000000 0.7926 0.7924 0.7923 0.7921 0.7920
2493.000000 0.7918 0.7916 0.7914 0.7913 0.7911
2498.000000 0.7910 0.7908 0.7907 0.7905 0.7904
2503.000000 0.7902 0.7901 0.7899 0.7898 0.7896
2508.000000 0.7895 0.7893 0.7892 0.7890 0.7889
2513.000000 0.7887 0.7886 0.7884 0.7883 0.7881
2518.000000 0.7880 0.7878 0.7877 0.7875 0.7874
2523.000000 0.7872 0.7871 0.7869 0.7867 0.7864
2528.000000 0.7862 0.7859 0.7857 0.7855 0.7853
2533.000000 0.7850 0.7848 0.7845 0.7843 0.7841
2538.000000 0.7839 0.7836 0.7834 0.7831 0.7829
2543.000000 0.7827 0.7825 0.7822 0.7820 0.7817
2548.000000 0.7815 0.7813 0.7811 0.7808 0.7806
2553.000000 0.7803 0.7801 0.7797 0.7794 0.7790
2558.000000 0.7787 0.7783 0.7780 0.7776 0.7772
2563.000000 0.7768 0.7765 0.7761 0.7758 0.7754
2568.000000 0.7750 0.7746 0.7743 0.7739 0.7736
2573.000000 0.7732 0.7729 0.7725 0.7721 0.7717
2578.000000 0.7714 0.7710 0.7707 0.7703 0.7699
2583.000000 0.7695 0.7691 0.7686 0.7682 0.7678
2588.000000 0.7674 0.7669 0.7665 0.7661 0.7657
2593.000000 0.7652 0.7648 0.7644 0.7640 0.7636
2598.000000 0.7632 0.7627 0.7623 0.7619 0.7615
2603.000000 0.7610 0.7606 0.7602 0.7598 0.7593
2608.000000 0.7589 0.7585 0.7581 0.7577 0.7573
2613.000000 0.7568 0.7564 0.7560 0.7556 0.7549
2618.000000 0.7543 0.7537 0.7531 0.7525 0.7519
2623.000000 0.7512 0.7506 0.7500 0.7494 0.7487
2628.000000 0.7481 0.7475 0.7469 0.7462 0.7456
2633.000000 0.7450 0.7444 0.7438 0.7432 0.7425
2638.000000 0.7419 0.7413 0.7407 0.7400 0.7394
2643.000000 0.7388 0.7382 0.7375 0.7369 0.7363
2648.000000 0.7357 0.7351 0.7345 0.7338 0.7332
2653.000000 0.7326 0.7320 0.7313 0.7307 0.7300
2658.000000 0.7294 0.7287 0.7280 0.7273 0.7267
2663.000000 0.7260 0.7253 0.7246 0.7240 0.7233
2668.000000 0.7226 0.7219 0.7213 0.7206 0.7199
2673.000000 0.7192 0.7185 0.7178 0.7172 0.7165
2678.000000 0.7158 0.7151 0.7145 0.7138 0.7131
2683.000000 0.7124 0.7117 0.7110 0.7104 0.7097
2688.000000 0.7090 0.7083 0.7077 0.7070 0.7063
2693.000000 0.7055 0.7048 0.7041 0.7034 0.7026
2698.000000 0.7019 0.7012 0.7005 0.6997 0.6990
2703.000000 0.6983 0.6976 0.6968 0.6961 0.6953
2708.000000 0.6946 0.6939 0.6932 0.6924 0.6917
2713.000000 0.6910 0.6903 0.6895 0.6888 0.6880
2718.000000 0.6873 0.6865 0.6858 0.6850 0.6843
2723.000000 0.6835 0.6828 0.6820 0.6813 0.6805
2728.000000 0.6798 0.6790 0.6783 0.6775 0.6768
2733.000000 0.6760 0.6752 0.6744 0.6737 0.6729
2738.000000 0.6722 0.6714 0.6706 0.6697 0.6688
2743.000000 0.6679 0.6670 0.6661 0.6652 0.6643
2748.000000 0.6634 0.6625 0.6616 0.6607 0.6598
2753.000000 0.6588 0.6579 0.6570 0.6561 0.6552
2758.000000 0.6543 0.6534 0.6525 0.6516 0.6507
2763.000000 0.6498 0.6489 0.6480 0.6471 0.6461
2768.000000 0.6452 0.6440 0.6428 0.6415 0.6403
2773.000000 0.6391 0.6379 0.6367 0.6355 0.6343
2778.000000 0.6331 0.6319 0.6307 0.6295 0.6283
2783.000000 0.6270 0.6258 0.6246 0.6234 0.6222
2788.000000 0.6210 0.6197 0.6184 0.6166 0.6149
2793.000000 0.6131 0.6114 0.6097 0.6080 0.6062
2798.000000 0.6045 0.6027 0.6010 0.5992 0.5975
2803.000000 0.5958 0.5941 0.5923 0.5906 0.5888
2808.000000 0.5871 0.5852 0.5833 0.5812 0.5791
2813.000000 0.5770 0.5750 0.5729 0.5708 0.5687
2818.000000 0.5667 0.5648 0.5629 0.5612 0.5595
2823.000000 0.5578 0.5561 0.5544 0.5527 0.5509
2828.000000 0.5492 0.5475 0.5458 0.5441 0.5424
2833.000000 0.5407 0.5390 0.5373 0.5356 0.5336
2838.000000 0.5317 0.5296 0.5276 0.5255 0.5235
2843.000000 0.5214 0.5194 0.5173 0.5153 0.5138
2848.000000 0.5123 0.5109 0.5096 0.5082 0.5068
2853.000000 0.5057 0.5047 0.5041 0.5036 0.5030
2858.000000 0.5025 0.5019 0.5013 0.5004 0.4995
2863.000000 0.4983 0.4972 0.4960 0.4949 0.4937
2868.000000 0.4926 0.4914 0.4903 0.4890 0.4878
2873.000000 0.4865 0.4853 0.4840 0.4828 0.4815
2878.000000 0.4803 0.4791 0.4780 0.4768 0.4757
2883.000000 0.4745 0.4734 0.4722 0.4711 0.4700
2888.000000 0.4689 0.4678 0.4667 0.4656 0.4645
2893.000000 0.4634 0.4624 0.4613 0.4602 0.4591
2898.000000 0.4580 0.4570 0.4560 0.4550 0.4541
2903.000000 0.4531 0.4522 0.4517 0.4512 0.4508
2908.000000 0.4505 0.4502 0.4499 0.4501 0.4504
2913.000000 0.4506 0.4509 0.4512 0.4515 0.4518
2918.000000 0.4521 0.4524 0.4527 0.4530 0.4534
2923.000000 0.4538 0.4542 0.4546 0.4550 0.4554
2928.000000 0.4558 0.4558 0.4559 0.4556 0.4554
2933.000000 0.4549 0.4545 0.4540 0.4536 0.4531
2938.000000 0.4527 0.4522 0.4518 0.4509 0.4501
2943.000000 0.4492 0.4483 0.4473 0.4464 0.4454
2948.000000 0.4445 0.4437 0.4429 0.4421 0.4414
2953.000000 0.4406 0.4398 0.4390 0.4383 0.4380
2958.000000 0.4378 0.4375 0.4373 0.4370 0.4367
2963.000000 0.4364 0.4362 0.4359 0.4356 0.4362
2968.000000 0.4368 0.4376 0.4385 0.4394 0.4404
2973.000000 0.4415 0.4427 0.4439 0.4451 0.4455
2978.000000 0.4460 0.4463 0.4466 0.4463 0.4460
2983.000000 0.4456 0.4453 0.4450 0.4447 0.4440
2988.000000 0.4433 0.4426 0.4419 0.4411 0.4404
2993.000000 0.4396 0.4388 0.4378 0.4369 0.4359
2998.000000 0.4350 0.4340 0.4331 0.4320 0.4310
3003.000000 0.4299 0.4289 0.4278 0.4267 0.4257
3008.000000 0.4247 0.4237 0.4227 0.4217 0.4208
3013.000000 0.4198 0.4189 0.4179 0.4169 0.4159
3018.000000 0.4150 0.4139 0.4129 0.4119 0.4109
3023.000000 0.4098 0.4088 0.4077 0.4067 0.4057
3028.000000 0.4047 0.4036 0.4026 0.4015 0.4005
3033.000000 0.3994 0.3984 0.3973 0.3962 0.3951
3038.000000 0.3940 0.3929 0.3919 0.3908 0.3897
3043.000000 0.3886 0.3875 0.3864 0.3854 0.3843
3048.000000 0.3832 0.3821 0.3810 0.3799 0.3789
3053.000000 0.3778 0.3767 0.3756 0.3746 0.3735
3058.000000 0.3724 0.3713 0.3703 0.3692 0.3681
3063.000000 0.3670 0.3660 0.3649 0.3638 0.3628
3068.000000 0.3618 0.3610 0.3602 0.3594 0.3586
3073.000000 0.3578 0.3570 0.3562 0.3554 0.3546
3078.000000 0.3538 0.3530 0.3522 0.3514 0.3506
3083.000000 0.3498 0.3490 0.3481 0.3473 0.3464
3088.000000 0.3456 0.3448 0.3440 0.3431 0.3423
3093.000000 0.3414 0.3406 0.3398 0.3390 0.3381
3098.000000 0.3373 0.3365 0.3357 0.3348 0.3340
3103.000000 0.3332 0.3324 0.3315 0.3307 0.3299
3108.000000 0.3291 0.3282 0.3274 0.3265 0.3257
3113.000000 0.3249 0.3241 0.3232 0.3224 0.3216
3118.000000 0.3208 0.3199 0.3191 0.3183 0.3176
3123.000000 0.3168 0.3161 0.3154 0.3147 0.3140
3128.000000 0.3133 0.3125 0.3118 0.3111 0.3104
3133.000000 0.3097 0.3090 0.3082 0.3075 0.3068
3138.000000 0.3061 0.3054 0.3047 0.3039 0.3032
3143.000000 0.3025 0.3019 0.3013 0.3007 0.3001
3148.000000 0.2995 0.2989 0.2983 0.2977 0.2971
3153.000000 0.2965 0.2959 0.2953 0.2947 0.2941
3158.000000 0.2935 0.2929 0.2923 0.2917 0.2911
3163.000000 0.2905 0.2899 0.2893 0.2888 0.2883
3168.000000 0.2878 0.2873 0.2868 0.2863 0.2858
3173.000000 0.2853 0.2848 0.2843 0.2838 0.2832
3178.000000 0.2827 0.2825 0.2823 0.2821 0.2819
3183.000000 0.2817 0.2816 0.2814 0.2812 0.2810
3188.000000 0.2808 0.2806 0.2805 0.2803 0.2801
3193.000000 0.2799 0.2797 0.2795 0.2793 0.2791
3198.000000 0.2790 0.2790 0.2790 0.2790 0.2790
3203.000000 0.2790 0.2790 0.2790 0.2790 0.2790
3208.000000 0.2790 0.2790 0.2790 0.2790 0.2790
3213.000000 0.2790 0.2791 0.2791 0.2791 0.2791
3218.000000 0.2791 0.2791 0.2791 0.2791 0.2791
3223.000000 0.2791 0.2791 0.2792 0.2794 0.2795
3228.000000 0.2796 0.2797 0.2799 0.2800 0.2801
3233.000000 0.2802 0.2804 0.2805 0.2806 0.2807
3238.000000 0.2809 0.2810 0.2811 0.2812 0.2814
3243.000000 0.2815 0.2816 0.2817 0.2819 0.2820
3248.000000 0.2821 0.2822 0.2824 0.2825 0.2827
3253.000000 0.2828 0.2804 0.2831 0.2833 0.2834
3258.000000 0.2836 0.2837 0.2839 0.2840 0.2842
3263.000000 0.2844 0.2846 0.2847 0.2849 0.2850
3268.000000 0.2852 0.2853 0.2855 0.2857 0.2859
3273.000000 0.2860 0.2862 0.2864 0.2866 0.2868
3278.000000 0.2870 0.2872 0.2874 0.2875 0.2877
3283.000000 0.2879 0.2881 0.2883 0.2885 0.2887
3288.000000 0.2889 0.2890 0.2892 0.2893 0.2895
3293.000000 0.2896 0.2898 0.2899 0.2901 0.2902
3298.000000 0.2904 0.2905 0.2907 0.2909 0.2911
3303.000000 0.2912 0.2914 0.2915 0.2917 0.2918
3308.000000 0.2920 0.2921 0.2922 0.2922 0.2923
3313.000000 0.2923 0.2924 0.2924 0.2925 0.2925
3318.000000 0.2926 0.2926 0.2927 0.2927 0.2928
3323.000000 0.2928 0.2929 0.2929 0.2930 0.2930
3328.000000 0.2931 0.2931 0.2931 0.2930 0.2930
3333.000000 0.2929 0.2929 0.2929 0.2929 0.2928
3338.000000 0.2928 0.2927 0.2927 0.2926 0.2926
3343.000000 0.2926 0.2926 0.2925 0.2925 0.2924
3348.000000 0.2924 0.2924 0.2924 0.2925 0.2926
3353.000000 0.2926 0.2927 0.2928 0.2929 0.2930
3358.000000 0.2931 0.2932 0.2933 0.2933 0.2934
3363.000000 0.2935 0.2936 0.2938 0.2941 0.2944
3368.000000 0.2947 0.2950 0.2953 0.2956 0.2959
3373.000000 0.2962 0.2966 0.2972 0.2978 0.2984
3378.000000 0.2991 0.2997 0.3004 0.3009 0.3015
3383.000000 0.3021 0.3027 0.3032 0.3038 0.3043
3388.000000 0.3049 0.3057 0.3065 0.3077 0.3090
3393.000000 0.3103 0.3116 0.3128 0.3141 0.3153
3398.000000 0.3166 0.3179 0.3192 0.3204 0.3217
3403.000000 0.3229 0.3242 0.3255 0.3268 0.3277
3408.000000 0.3287 0.3295 0.3303 0.3311 0.3320
3413.000000 0.3331 0.3343 0.3354 0.3365 0.3376
3418.000000 0.3387 0.3398 0.3410 0.3421 0.3433
3423.000000 0.3446 0.3460 0.3473 0.3487 0.3500
3428.000000 0.3514 0.3527 0.3541 0.3554 0.3568
3433.000000 0.3581 0.3595 0.3608 0.3622 0.3635
3438.000000 0.3649 0.3662 0.3676 0.3692 0.3708
3443.000000 0.3727 0.3746 0.3765 0.3784 0.3803
3448.000000 0.3823 0.3841 0.3860 0.3875 0.3891
3453.000000 0.3906 0.3921 0.3936 0.3952 0.3967
3458.000000 0.3982 0.3997 0.4013 0.4028 0.4043
3463.000000 0.4058 0.4074 0.4089 0.4104 0.4119
3468.000000 0.4135 0.4150 0.4165 0.4181 0.4198
3473.000000 0.4218 0.4238 0.4258 0.4279 0.4299
3478.000000 0.4319 0.4339 0.4359 0.4379 0.4399
3483.000000 0.4419 0.4439 0.4459 0.4479 0.4498
3488.000000 0.4518 0.4537 0.4557 0.4576 0.4596
3493.000000 0.4615 0.4634 0.4653 0.4673 0.4692
3498.000000 0.4711 0.4730 0.4750 0.4769 0.4789
3503.000000 0.4808 0.4827 0.4843 0.4859 0.4875
3508.000000 0.4891 0.4907 0.4923 0.4939 0.4955
3513.000000 0.4971 0.4987 0.5003 0.5019 0.5035
3518.000000 0.5051 0.5067 0.5083 0.5099 0.5115
3523.000000 0.5131 0.5147 0.5165 0.5184 0.5203
3528.000000 0.5222 0.5241 0.5260 0.5279 0.5298
3533.000000 0.5317 0.5336 0.5355 0.5374 0.5393
3538.000000 0.5412 0.5431 0.5451 0.5470 0.5489
3543.000000 0.5508 0.5527 0.5546 0.5565 0.5589
3548.000000 0.5614 0.5639 0.5665 0.5690 0.5716
3553.000000 0.5742 0.5768 0.5793 0.5819 0.5844
3558.000000 0.5870 0.5895 0.5921 0.5947 0.5973
3563.000000 0.6004 0.6036 0.6067 0.6099 0.6130
3568.000000 0.6162 0.6193 0.6225 0.6256 0.6288
3573.000000 0.6320 0.6352 0.6379 0.6407 0.6431
3578.000000 0.6455 0.6478 0.6502 0.6526 0.6550
3583.000000 0.6573 0.6597 0.6621 0.6645 0.6675
3588.000000 0.6705 0.6737 0.6770 0.6802 0.6834
3593.000000 0.6866 0.6899 0.6936 0.6974 0.7012
3598.000000 0.7051 0.7089 0.7128 0.7166 0.7205
3603.000000 0.7233 0.7262 0.7290 0.7318 0.7346
3608.000000 0.7374 0.7402 0.7431 0.7459 0.7487
3613.000000 0.7515 0.7543 0.7573 0.7603 0.7634
3618.000000 0.7665 0.7695 0.7725 0.7753 0.7782
3623.000000 0.7810 0.7838 0.7866 0.7894 0.7918
3628.000000 0.7943 0.7963 0.7983 0.8003 0.8023
3633.000000 0.8043 0.8063 0.8083 0.8103 0.8123
3638.000000 0.8143 0.8161 0.8180 0.8198 0.8217
3643.000000 0.8235 0.8254 0.8272 0.8291 0.8304
3648.000000 0.8317 0.8330 0.8344 0.8357 0.8371
3653.000000 0.8384 0.8398 0.8411 0.8425 0.8430
3658.000000 0.8436 0.8435 0.8435 0.8434 0.8434
3663.000000 0.8433 0.8428 0.8431 0.8430 0.8428
3668.000000 0.8426 0.8424 0.8422 0.8420 0.8419
3673.000000 0.8417 0.8415 0.8413 0.8411 0.8409
3678.000000 0.8407 0.8404 0.8401 0.8398 0.8395
3683.000000 0.8392 0.8390 0.8387 0.8384 0.8381
3688.000000 0.8378 0.8375 0.8373 0.8370 0.8367
3693.000000 0.8362 0.8357 0.8351 0.8346 0.8341
3698.000000 0.8336 0.8331 0.8326 0.8320 0.8315
3703.000000 0.8310 0.8306 0.8301 0.8297 0.8292
3708.000000 0.8288 0.8284 0.8280 0.8275 0.8271
3713.000000 0.8267 0.8263 0.8258 0.8254 0.8249
3718.000000 0.8245 0.8240 0.8236 0.8231 0.8226
3723.000000 0.8221 0.8217 0.8212 0.8207 0.8202
3728.000000 0.8198 0.8193 0.8188 0.8183 0.8178
3733.000000 0.8173 0.8169 0.8164 0.8160 0.8155
3738.000000 0.8151 0.8146 0.8142 0.8137 0.8133
3743.000000 0.8129 0.8125 0.8120 0.8116 0.8111
3748.000000 0.8107 0.8102 0.8098 0.8094 0.8090
3753.000000 0.8085 0.8081 0.8076 0.8072 0.8067
3758.000000 0.8063 0.8058 0.8054 0.8049 0.8045
3763.000000 0.8040 0.8036 0.8031 0.8027 0.8022
3768.000000 0.8018 0.8013 0.8009 0.8004 0.8000
3773.000000 0.7995 0.7991 0.7986 0.7982 0.7976
3778.000000 0.7971 0.7966 0.7961 0.7956 0.7951
3783.000000 0.7946 0.7941 0.7936 0.7931 0.7925
3788.000000 0.7920 0.7915 0.7910 0.7905 0.7900
3793.000000 0.7895 0.7890 0.7885 0.7880 0.7874
3798.000000 0.7869 0.7867 0.7865
##END=
