##TITLE=1,4-NAPHTHALENEDIOL, 2-METHYL-, BIS(HYDROGEN SULFATE), DISODIUM SALT, TRIHYDRATE
##JCAMP-DX=4.24
##DATA TYPE=INFRARED SPECTRUM
##CLASS=COBLENTZ III
##ORIGIN=DOW CHEMICAL COMPANY
##OWNER=COBLENTZ SOC.
Collection (C) 2018 copyright by the U.S. Secretary of Commerce
on behalf of the United States of America. All rights reserved.
##DATE=1965/08/19
##MOLFORM=C11 H8 Na2 O8 S2  * 3 H2 O
##MP=160 C (DECOMP.)
##SOURCE REFERENCE=COBLENTZ NO. 06544
##$NIST ID=B6006544
##$NIST SOURCE=COBLENTZ
##$NIST IMAGE=cob6544
##SPECTROMETER/DATA SYSTEM=DOW KBr FOREPRISM-GRATING
##INSTRUMENT PARAMETERS=BLAZED AT 3.5, 12.0, 20.0 MICRON AND CHANGED AT 5.0, 7.5, 14.9 MICRON
##STATE=SOLID (SPLIT MULL)
##SAMPLING PROCEDURE=TRANSMISSION
##RESOLUTION=2
##DATA PROCESSING=DIGITIZED BY COBLENTZ SOCIETY (BATCH I) FROM HARD COPY
##XUNITS=1/CM
##YUNITS=TRANSMITTANCE
##XLABEL=Wavenumbers (cm-1)
##YLABEL=% Transmission
##XFACTOR=1
##YFACTOR=1
##DELTAX=1
##FIRSTX=458
##LASTX=3800
##FIRSTY=0.5471
##MAXX=3800
##MINX=458
##MAXY=0.907
##MINY=0.0966
##NPOINTS=3343
##XYDATA=(X++(Y..Y))
458.000000 0.5471 0.5466 0.5460 0.5456 0.5451
463.000000 0.5446 0.5441 0.5436 0.5431 0.5424
468.000000 0.5412 0.5402 0.5392 0.5381 0.5370
473.000000 0.5359 0.5349 0.5338 0.5328 0.5318
478.000000 0.5310 0.5305 0.5303 0.5307 0.5326
483.000000 0.5354 0.5386 0.5426 0.5467 0.5522
488.000000 0.5579 0.5653 0.5739 0.5851 0.5949
493.000000 0.6042 0.6112 0.6184 0.6250 0.6316
498.000000 0.6373 0.6406 0.6439 0.6471 0.6501
503.000000 0.6528 0.6556 0.6580 0.6599 0.6618
508.000000 0.6637 0.6647 0.6654 0.6660 0.6662
513.000000 0.6662 0.6662 0.6662 0.6661 0.6660
518.000000 0.6658 0.6651 0.6646 0.6639 0.6628
523.000000 0.6615 0.6604 0.6592 0.6576 0.6560
528.000000 0.6543 0.6526 0.6510 0.6493 0.6471
533.000000 0.6451 0.6431 0.6411 0.6390 0.6369
538.000000 0.6349 0.6326 0.6304 0.6281 0.6259
543.000000 0.6236 0.6210 0.6186 0.6160 0.6136
548.000000 0.6110 0.6075 0.6038 0.6000 0.5962
553.000000 0.5925 0.5884 0.5836 0.5787 0.5738
558.000000 0.5690 0.5634 0.5579 0.5523 0.5455
563.000000 0.5377 0.5299 0.5216 0.5110 0.5005
568.000000 0.4900 0.4742 0.4575 0.4331 0.4078
573.000000 0.3826 0.3573 0.3320 0.3068 0.2815
578.000000 0.2585 0.2476 0.2423 0.2432 0.2429
583.000000 0.2455 0.2613 0.2961 0.3309 0.3657
588.000000 0.4005 0.4353 0.4702 0.5050 0.5398
593.000000 0.5746 0.5996 0.6140 0.6223 0.6262
598.000000 0.6284 0.6319 0.6292 0.6285 0.6170
603.000000 0.5880 0.5591 0.5301 0.5010 0.4721
608.000000 0.4431 0.4270 0.4260 0.4260 0.4277
613.000000 0.4379 0.4481 0.4583 0.4685 0.4786
618.000000 0.4888 0.4962 0.5017 0.5075 0.5505
623.000000 0.5525 0.5509 0.5504 0.5496 0.5474
628.000000 0.5433 0.5393 0.5359 0.5320 0.5273
633.000000 0.5212 0.5145 0.5071 0.4912 0.4662
638.000000 0.4576 0.4515 0.4462 0.4432 0.4424
643.000000 0.4424 0.4425 0.4675 0.4878 0.4896
648.000000 0.4912 0.4930 0.5177 0.5433 0.5689
653.000000 0.5944 0.6200 0.6331 0.6401 0.6464
658.000000 0.6522 0.6568 0.6611 0.6653 0.6667
663.000000 0.6674 0.6655 0.6595 0.6535 0.6475
668.000000 0.6447 0.6450 0.6576 0.6704 0.6831
673.000000 0.7675 0.7756 0.7767 0.7747 0.7726
678.000000 0.7707 0.7687 0.7665 0.7741 0.7875
683.000000 0.7946 0.8006 0.8036 0.8028 0.8006
688.000000 0.7965 0.7953 0.7957 0.7980 0.8103
693.000000 0.8155 0.8201 0.8225 0.8247 0.8262
698.000000 0.8275 0.8274 0.8278 0.8271 0.8248
703.000000 0.8220 0.8180 0.8132 0.8082 0.8011
708.000000 0.7860 0.7571 0.7281 0.6992 0.6701
713.000000 0.6334 0.6198 0.6115 0.6069 0.5962
718.000000 0.5799 0.5719 0.5702 0.5715 0.6070
723.000000 0.6506 0.6942 0.7321 0.7460 0.7518
728.000000 0.7576 0.7607 0.7638 0.7664 0.7684
733.000000 0.7695 0.7699 0.7703 0.7697 0.7690
738.000000 0.7681 0.7671 0.7656 0.7639 0.7622
743.000000 0.7608 0.7585 0.7558 0.7518 0.7471
748.000000 0.7419 0.7343 0.7261 0.7151 0.6971
753.000000 0.6134 0.5281 0.4428 0.3575 0.2721
758.000000 0.2404 0.2397 0.2416 0.2493 0.3099
763.000000 0.3705 0.4310 0.4917 0.5523 0.6129
768.000000 0.6624 0.6864 0.7108 0.7337 0.7358
773.000000 0.7361 0.7361 0.7361 0.7361 0.7358
778.000000 0.7357 0.7358 0.7358 0.7378 0.7398
783.000000 0.7425 0.7467 0.7554 0.7880 0.7972
788.000000 0.8041 0.8078 0.8100 0.8112 0.8119
793.000000 0.8115 0.8121 0.8121 0.8106 0.8075
798.000000 0.8031 0.7982 0.7928 0.7861 0.7836
803.000000 0.7818 0.7830 0.8385 0.8436 0.8461
808.000000 0.8480 0.8496 0.8510 0.8524 0.8528
813.000000 0.8532 0.8537 0.8544 0.8548 0.8560
818.000000 0.8544 0.8542 0.8537 0.8531 0.8524
823.000000 0.8508 0.8477 0.8442 0.8405 0.8368
828.000000 0.8333 0.8295 0.8258 0.8220 0.8182
833.000000 0.8142 0.8086 0.8030 0.7971 0.7910
838.000000 0.7848 0.7778 0.7706 0.7618 0.7508
843.000000 0.7334 0.7174 0.7034 0.6912 0.6157
848.000000 0.5855 0.5299 0.4926 0.4554 0.4182
853.000000 0.3809 0.3437 0.3065 0.2931 0.2931
858.000000 0.2931 0.2955 0.2825 0.2648 0.2475
863.000000 0.2426 0.2426 0.2401 0.2412 0.2628
868.000000 0.2901 0.3175 0.3300 0.3344 0.3389
873.000000 0.3453 0.3655 0.4025 0.4395 0.4766
878.000000 0.5136 0.5506 0.5834 0.5842 0.5852
883.000000 0.5862 0.6064 0.6417 0.6769 0.7084
888.000000 0.7251 0.7338 0.7536 0.7680 0.7799
893.000000 0.8126 0.8194 0.8261 0.8312 0.8338
898.000000 0.8364 0.8380 0.8395 0.8410 0.8447
903.000000 0.8496 0.8566 0.8606 0.8632 0.8658
908.000000 0.8668 0.8680 0.8692 0.8701 0.8702
913.000000 0.8703 0.8704 0.8706 0.8696 0.8698
918.000000 0.8692 0.8685 0.8675 0.8659 0.8641
923.000000 0.8617 0.8590 0.8564 0.8537 0.8510
928.000000 0.8437 0.8341 0.8253 0.8054 0.7962
933.000000 0.7930 0.7878 0.7768 0.7671 0.7593
938.000000 0.7568 0.7571 0.7572 0.7575 0.7594
943.000000 0.7653 0.7705 0.7819 0.7976 0.8168
948.000000 0.8394 0.8444 0.8463 0.8483 0.8537
953.000000 0.8593 0.8641 0.8674 0.8703 0.8721
958.000000 0.8739 0.8754 0.8758 0.8762 0.8761
963.000000 0.8770 0.8770 0.8771 0.8771 0.8767
968.000000 0.8763 0.8758 0.8745 0.8730 0.8716
973.000000 0.8706 0.8696 0.8686 0.8675 0.8665
978.000000 0.8655 0.8646 0.8636 0.8627 0.8617
983.000000 0.8608 0.8598 0.8588 0.8578 0.8568
988.000000 0.8557 0.8547 0.8536 0.8525 0.8515
993.000000 0.8504 0.8483 0.8463 0.8442 0.8421
998.000000 0.8401 0.8360 0.8314 0.8267 0.8221
1003.000000 0.8167 0.8111 0.8056 0.8001 0.7946
1008.000000 0.7871 0.7786 0.7701 0.7608 0.7471
1013.000000 0.7335 0.7218 0.7103 0.7007 0.6910
1018.000000 0.6833 0.6772 0.6581 0.6094 0.5858
1023.000000 0.5843 0.5836 0.5834 0.5833 0.5832
1028.000000 0.5832 0.5775 0.5510 0.5183 0.4855
1033.000000 0.4528 0.4201 0.3874 0.3546 0.3218
1038.000000 0.2892 0.2565 0.2238 0.1910 0.1674
1043.000000 0.1568 0.1546 0.1537 0.1533 0.1526
1048.000000 0.1546 0.1573 0.1861 0.2177 0.2492
1053.000000 0.2808 0.3123 0.3439 0.3754 0.4068
1058.000000 0.4385 0.4700 0.5016 0.5151 0.5151
1063.000000 0.5151 0.5132 0.5046 0.4830 0.4612
1068.000000 0.4397 0.4181 0.3964 0.3748 0.3514
1073.000000 0.3528 0.3850 0.4338 0.4780 0.4769
1078.000000 0.4757 0.4744 0.4730 0.5096 0.5597
1083.000000 0.6099 0.6600 0.7049 0.7171 0.7284
1088.000000 0.7497 0.7771 0.7840 0.7861 0.7881
1093.000000 0.7881 0.7880 0.7867 0.7850 0.7831
1098.000000 0.7811 0.7794 0.7792 0.7815 0.8008
1103.000000 0.8062 0.8095 0.8115 0.8128 0.8114
1108.000000 0.8122 0.8115 0.8108 0.8091 0.8074
1113.000000 0.8050 0.8024 0.7999 0.7978 0.7957
1118.000000 0.7936 0.7915 0.7895 0.7858 0.7819
1123.000000 0.7782 0.7743 0.7700 0.7658 0.7615
1128.000000 0.7571 0.7528 0.7484 0.7431 0.7378
1133.000000 0.7317 0.7243 0.7184 0.7132 0.7056
1138.000000 0.6975 0.6901 0.6839 0.6775 0.6698
1143.000000 0.6608 0.6518 0.6393 0.6256 0.6103
1148.000000 0.5893 0.5700 0.5143 0.4942 0.4742
1153.000000 0.4542 0.4342 0.4227 0.4232 0.4322
1158.000000 0.4412 0.4502 0.4579 0.4560 0.4407
1163.000000 0.4253 0.4099 0.3944 0.3790 0.3636
1168.000000 0.3482 0.3328 0.3096 0.2834 0.2574
1173.000000 0.2253 0.2272 0.2284 0.2748 0.2850
1178.000000 0.2882 0.2913 0.2949 0.2983 0.3011
1183.000000 0.3035 0.3055 0.3069 0.3075 0.3080
1188.000000 0.3083 0.3082 0.3081 0.3099 0.3068
1193.000000 0.3060 0.3034 0.2945 0.2848 0.2751
1198.000000 0.2655 0.2558 0.2461 0.2364 0.2267
1203.000000 0.2171 0.2074 0.1977 0.1879 0.1804
1208.000000 0.1777 0.1798 0.2046 0.2344 0.2641
1213.000000 0.2744 0.2744 0.2744 0.2728 0.2661
1218.000000 0.2570 0.2479 0.2388 0.2297 0.2206
1223.000000 0.2115 0.2025 0.1941 0.1863 0.1789
1228.000000 0.1715 0.1639 0.1555 0.1432 0.1356
1233.000000 0.1279 0.1230 0.1181 0.1132 0.1085
1238.000000 0.1039 0.1002 0.0974 0.0978 0.0966
1243.000000 0.1013 0.1041 0.1068 0.1077 0.1075
1248.000000 0.1072 0.1069 0.1066 0.1062 0.1059
1253.000000 0.1055 0.1053 0.1051 0.1063 0.1078
1258.000000 0.1095 0.1118 0.1144 0.1171 0.1212
1263.000000 0.1252 0.1292 0.1332 0.1375 0.1418
1268.000000 0.1461 0.1502 0.1542 0.1584 0.1625
1273.000000 0.1677 0.1734 0.1795 0.1875 0.1975
1278.000000 0.2095 0.2978 0.3134 0.3222 0.3266
1283.000000 0.3304 0.3342 0.3384 0.3434 0.3486
1288.000000 0.3540 0.3593 0.3640 0.3653 0.3700
1293.000000 0.3664 0.3664 0.3662 0.3642 0.3622
1298.000000 0.3589 0.3559 0.3532 0.3486 0.3452
1303.000000 0.3418 0.3388 0.3366 0.3356 0.3348
1308.000000 0.3349 0.3349 0.3355 0.3368 0.3380
1313.000000 0.3404 0.3447 0.3500 0.3564 0.3644
1318.000000 0.3724 0.3804 0.3884 0.3964 0.4043
1323.000000 0.4150 0.4346 0.4523 0.4651 0.4710
1328.000000 0.4754 0.4794 0.4826 0.4859 0.4901
1333.000000 0.4945 0.4983 0.5010 0.5040 0.5067
1338.000000 0.5092 0.5118 0.5146 0.5177 0.5208
1343.000000 0.5241 0.5273 0.5305 0.5334 0.5364
1348.000000 0.5387 0.5405 0.5414 0.5419 0.5435
1353.000000 0.5412 0.5408 0.5402 0.5392 0.5379
1358.000000 0.5340 0.5296 0.5221 0.5141 0.5014
1363.000000 0.4983 0.4969 0.4977 0.4985 0.5010
1368.000000 0.5126 0.5269 0.5412 0.5556 0.5792
1373.000000 0.5844 0.5875 0.5902 0.5923 0.5945
1378.000000 0.5970 0.5998 0.6227 0.6642 0.6732
1383.000000 0.6739 0.6787 0.6728 0.6711 0.6607
1388.000000 0.6499 0.6383 0.6179 0.5930 0.5682
1393.000000 0.5510 0.5502 0.5532 0.5734 0.5937
1398.000000 0.6141 0.6344 0.6522 0.6524 0.6525
1403.000000 0.6474 0.6369 0.6336 0.6356 0.6379
1408.000000 0.6407 0.6440 0.6475 0.6518 0.6561
1413.000000 0.6600 0.6645 0.6694 0.6751 0.6812
1418.000000 0.6880 0.6965 0.7167 0.7415 0.7644
1423.000000 0.7781 0.7821 0.7838 0.7848 0.7851
1428.000000 0.7856 0.7842 0.7774 0.7683 0.7593
1433.000000 0.7501 0.7411 0.7331 0.7301 0.7285
1438.000000 0.7293 0.7301 0.7332 0.7360 0.7396
1443.000000 0.7433 0.7464 0.7500 0.7540 0.7562
1448.000000 0.7578 0.7560 0.7557 0.7551 0.7534
1453.000000 0.7498 0.7432 0.7372 0.7325 0.7286
1458.000000 0.7261 0.7261 0.7262 0.7278 0.7321
1463.000000 0.7375 0.7433 0.7490 0.7547 0.7603
1468.000000 0.7671 0.7717 0.7784 0.7861 0.7981
1473.000000 0.8080 0.8148 0.8209 0.8268 0.8313
1478.000000 0.8357 0.8389 0.8418 0.8449 0.8478
1483.000000 0.8499 0.8518 0.8538 0.8558 0.8571
1488.000000 0.8585 0.8598 0.8607 0.8615 0.8623
1493.000000 0.8631 0.8639 0.8644 0.8649 0.8655
1498.000000 0.8654 0.8653 0.8692 0.8647 0.8639
1503.000000 0.8625 0.8613 0.8598 0.8589 0.8592
1508.000000 0.8595 0.8600 0.8607 0.8616 0.8624
1513.000000 0.8621 0.8617 0.8612 0.8577 0.8549
1518.000000 0.8521 0.8496 0.8475 0.8455 0.8434
1523.000000 0.8435 0.8436 0.8444 0.8481 0.8534
1528.000000 0.8577 0.8606 0.8636 0.8655 0.8671
1533.000000 0.8688 0.8700 0.8710 0.8720 0.8728
1538.000000 0.8737 0.8745 0.8753 0.8761 0.8766
1543.000000 0.8770 0.8774 0.8778 0.8782 0.8786
1548.000000 0.8788 0.8791 0.8794 0.8795 0.8796
1553.000000 0.8798 0.8790 0.8787 0.8785 0.8782
1558.000000 0.8778 0.8775 0.8770 0.8764 0.8757
1563.000000 0.8751 0.8744 0.8737 0.8728 0.8721
1568.000000 0.8714 0.8707 0.8698 0.8687 0.8675
1573.000000 0.8664 0.8652 0.8640 0.8625 0.8612
1578.000000 0.8597 0.8571 0.8548 0.8523 0.8498
1583.000000 0.8468 0.8438 0.8407 0.8377 0.8342
1588.000000 0.8293 0.8244 0.8196 0.8154 0.8111
1593.000000 0.8074 0.8040 0.7975 0.7861 0.7733
1598.000000 0.7615 0.7386 0.7055 0.6724 0.6392
1603.000000 0.6326 0.6315 0.6447 0.6753 0.7058
1608.000000 0.7364 0.7669 0.7795 0.7801 0.7783
1613.000000 0.7749 0.7636 0.7522 0.7410 0.7297
1618.000000 0.7183 0.7069 0.7001 0.7018 0.7091
1623.000000 0.7182 0.7272 0.7364 0.7450 0.7480
1628.000000 0.7486 0.7487 0.7487 0.7480 0.7458
1633.000000 0.7438 0.7355 0.7271 0.7187 0.7103
1638.000000 0.7018 0.6942 0.6934 0.6926 0.6921
1643.000000 0.6922 0.6922 0.6921 0.6914 0.6901
1648.000000 0.6881 0.6856 0.6815 0.6739 0.6653
1653.000000 0.6565 0.6478 0.6376 0.6272 0.6177
1658.000000 0.6128 0.6104 0.6102 0.6115 0.6160
1663.000000 0.6291 0.6428 0.6565 0.6704 0.6841
1668.000000 0.6978 0.7180 0.7304 0.7401 0.7495
1673.000000 0.7554 0.7610 0.7667 0.7724 0.7781
1678.000000 0.7835 0.7887 0.7939 0.7990 0.8030
1683.000000 0.8071 0.8111 0.8149 0.8180 0.8211
1688.000000 0.8242 0.8273 0.8299 0.8325 0.8352
1693.000000 0.8373 0.8393 0.8401 0.8408 0.8416
1698.000000 0.8424 0.8425 0.8425 0.8425 0.8423
1703.000000 0.8421 0.8421 0.8433 0.8445 0.8458
1708.000000 0.8471 0.8484 0.8497 0.8507 0.8516
1713.000000 0.8525 0.8534 0.8545 0.8556 0.8568
1718.000000 0.8578 0.8590 0.8601 0.8612 0.8623
1723.000000 0.8634 0.8645 0.8656 0.8667 0.8675
1728.000000 0.8685 0.8694 0.8703 0.8712 0.8718
1733.000000 0.8725 0.8731 0.8736 0.8743 0.8750
1738.000000 0.8757 0.8765 0.8771 0.8775 0.8781
1743.000000 0.8785 0.8789 0.8793 0.8797 0.8802
1748.000000 0.8806 0.8810 0.8816 0.8821 0.8828
1753.000000 0.8835 0.8841 0.8847 0.8853 0.8860
1758.000000 0.8866 0.8871 0.8877 0.8883 0.8888
1763.000000 0.8891 0.8895 0.8898 0.8901 0.8904
1768.000000 0.8906 0.8908 0.8909 0.8911 0.8912
1773.000000 0.8913 0.8915 0.8916 0.8918 0.8918
1778.000000 0.8921 0.8921 0.8923 0.8925 0.8925
1783.000000 0.8927 0.8928 0.8928 0.8930 0.8931
1788.000000 0.8932 0.8932 0.8933 0.8934 0.8935
1793.000000 0.8936 0.8936 0.8937 0.8938 0.8939
1798.000000 0.8939 0.8940 0.8941 0.8942 0.8943
1803.000000 0.8943 0.8944 0.8944 0.8944 0.8945
1808.000000 0.8945 0.8945 0.8945 0.8945 0.8946
1813.000000 0.8946 0.8946 0.8946 0.8947 0.8947
1818.000000 0.8947 0.8947 0.8947 0.8947 0.8947
1823.000000 0.8946 0.8946 0.8946 0.8946 0.8946
1828.000000 0.8946 0.8947 0.8947 0.8947 0.8948
1833.000000 0.8948 0.8948 0.8949 0.8949 0.8949
1838.000000 0.8950 0.8950 0.8950 0.8951 0.8951
1843.000000 0.8951 0.8952 0.8952 0.8953 0.8955
1848.000000 0.8957 0.8959 0.8961 0.8963 0.8965
1853.000000 0.8967 0.8968 0.8971 0.8974 0.8975
1858.000000 0.8978 0.8980 0.8982 0.8984 0.8986
1863.000000 0.8988 0.8990 0.8992 0.8994 0.8996
1868.000000 0.8999 0.9001 0.9004 0.9006 0.9009
1873.000000 0.9011 0.9014 0.9017 0.9018 0.9018
1878.000000 0.9018 0.9018 0.9017 0.9016 0.9015
1883.000000 0.9014 0.9013 0.9012 0.9011 0.9010
1888.000000 0.9009 0.9008 0.9007 0.9006 0.9006
1893.000000 0.9005 0.9005 0.9004 0.9004 0.9003
1898.000000 0.9003 0.9003 0.9002 0.9002 0.9003
1903.000000 0.9009 0.9016 0.9021 0.9028 0.9034
1908.000000 0.9039 0.9042 0.9045 0.9048 0.9049
1913.000000 0.9049 0.9033 0.9046 0.9044 0.9040
1918.000000 0.9034 0.9028 0.9023 0.9017 0.9006
1923.000000 0.8995 0.8983 0.8971 0.8970 0.8980
1928.000000 0.8991 0.9002 0.9011 0.9018 0.9028
1933.000000 0.9031 0.9033 0.9035 0.9037 0.9039
1938.000000 0.9039 0.9038 0.9036 0.9035 0.9034
1943.000000 0.9033 0.9032 0.9023 0.9014 0.9005
1948.000000 0.8997 0.8988 0.8968 0.8948 0.8953
1953.000000 0.8959 0.8989 0.9016 0.9038 0.9060
1958.000000 0.9070 0.9070 0.9066 0.9063 0.9060
1963.000000 0.9058 0.9056 0.9054 0.9054 0.9054
1968.000000 0.9054 0.9053 0.9053 0.9052 0.9051
1973.000000 0.9051 0.9050 0.9049 0.9048 0.9048
1978.000000 0.9047 0.9047 0.9046 0.9046 0.9046
1983.000000 0.9046 0.9045 0.9045 0.9045 0.9045
1988.000000 0.9046 0.9048 0.9049 0.9051 0.9053
1993.000000 0.9054 0.9054 0.9054 0.9053 0.9052
1998.000000 0.9051 0.9050 0.9048 0.9048 0.9049
2003.000000 0.9049 0.9050 0.9050 0.9050 0.9050
2008.000000 0.9051 0.9051 0.9051 0.9049 0.9047
2013.000000 0.9045 0.9043 0.9041 0.9039 0.9037
2018.000000 0.9035 0.9033 0.9031 0.9028 0.9027
2023.000000 0.9025 0.9023 0.9021 0.9018 0.9017
2028.000000 0.9015 0.9013 0.9011 0.9009 0.9007
2033.000000 0.9005 0.9003 0.9001 0.8999 0.8997
2038.000000 0.8995 0.8993 0.8991 0.8989 0.8988
2043.000000 0.8986 0.8984 0.8982 0.8980 0.8978
2048.000000 0.8975 0.8974 0.8971 0.8970 0.8968
2053.000000 0.8966 0.8964 0.8962 0.8960 0.8958
2058.000000 0.8956 0.8954 0.8952 0.8950 0.8948
2063.000000 0.8946 0.8944 0.8942 0.8940 0.8938
2068.000000 0.8936 0.8933 0.8930 0.8925 0.8923
2073.000000 0.8918 0.8915 0.8911 0.8907 0.8903
2078.000000 0.8900 0.8896 0.8892 0.8888 0.8884
2083.000000 0.8880 0.8875 0.8871 0.8868 0.8863
2088.000000 0.8859 0.8854 0.8850 0.8845 0.8841
2093.000000 0.8836 0.8832 0.8827 0.8823 0.8818
2098.000000 0.8814 0.8809 0.8805 0.8800 0.8796
2103.000000 0.8791 0.8786 0.8781 0.8775 0.8771
2108.000000 0.8766 0.8761 0.8757 0.8753 0.8749
2113.000000 0.8747 0.8746 0.8744 0.8742 0.8740
2118.000000 0.8738 0.8736 0.8735 0.8733 0.8731
2123.000000 0.8728 0.8727 0.8725 0.8724 0.8721
2128.000000 0.8720 0.8718 0.8718 0.8717 0.8717
2133.000000 0.8716 0.8716 0.8715 0.8715 0.8714
2138.000000 0.8713 0.8712 0.8712 0.8711 0.8711
2143.000000 0.8710 0.8710 0.8709 0.8709 0.8708
2148.000000 0.8708 0.8707 0.8707 0.8707 0.8707
2153.000000 0.8708 0.8709 0.8709 0.8710 0.8711
2158.000000 0.8711 0.8710 0.8709 0.8707 0.8705
2163.000000 0.8703 0.8702 0.8700 0.8698 0.8696
2168.000000 0.8695 0.8693 0.8692 0.8690 0.8688
2173.000000 0.8686 0.8685 0.8683 0.8681 0.8678
2178.000000 0.8678 0.8675 0.8673 0.8671 0.8668
2183.000000 0.8666 0.8664 0.8662 0.8660 0.8657
2188.000000 0.8655 0.8653 0.8651 0.8648 0.8646
2193.000000 0.8643 0.8641 0.8639 0.8637 0.8634
2198.000000 0.8632 0.8630 0.8628 0.8625 0.8623
2203.000000 0.8620 0.8618 0.8615 0.8613 0.8611
2208.000000 0.8609 0.8606 0.8604 0.8601 0.8599
2213.000000 0.8594 0.8590 0.8585 0.8580 0.8575
2218.000000 0.8570 0.8565 0.8560 0.8555 0.8550
2223.000000 0.8545 0.8540 0.8533 0.8527 0.8520
2228.000000 0.8513 0.8506 0.8499 0.8491 0.8484
2233.000000 0.8477 0.8470 0.8463 0.8456 0.8448
2238.000000 0.8441 0.8433 0.8425 0.8418 0.8411
2243.000000 0.8403 0.8396 0.8389 0.8382 0.8374
2248.000000 0.8367 0.8359 0.8352 0.8345 0.8339
2253.000000 0.8333 0.8327 0.8321 0.8315 0.8309
2258.000000 0.8303 0.8297 0.8291 0.8285 0.8278
2263.000000 0.8273 0.8267 0.8261 0.8255 0.8248
2268.000000 0.8242 0.8235 0.8228 0.8221 0.8216
2273.000000 0.8209 0.8203 0.8201 0.8201 0.8201
2278.000000 0.8202 0.8204 0.8207 0.8209 0.8212
2283.000000 0.8213 0.8215 0.8215 0.8215 0.8211
2288.000000 0.8208 0.8204 0.8201 0.8196 0.8192
2293.000000 0.8184 0.8176 0.8169 0.8164 0.8158
2298.000000 0.8154 0.8148 0.8143 0.8137 0.8132
2303.000000 0.8125 0.8121 0.8115 0.8110 0.8104
2308.000000 0.8099 0.8093 0.8088 0.8082 0.8076
2313.000000 0.8071 0.8067 0.8061 0.8057 0.8051
2318.000000 0.8047 0.8042 0.8037 0.8032 0.8026
2323.000000 0.8021 0.8017 0.8011 0.8007 0.8001
2328.000000 0.7998 0.7993 0.7988 0.7983 0.7978
2333.000000 0.7972 0.7968 0.7965 0.7961 0.7956
2338.000000 0.7951 0.7947 0.7943 0.7939 0.7935
2343.000000 0.7932 0.7928 0.7925 0.7924 0.7921
2348.000000 0.7918 0.7915 0.7914 0.7911 0.7908
2353.000000 0.7907 0.7905 0.7901 0.7900 0.7898
2358.000000 0.7896 0.7895 0.7894 0.7893 0.7893
2363.000000 0.7892 0.7891 0.7890 0.7890 0.7889
2368.000000 0.7888 0.7887 0.7887 0.7886 0.7885
2373.000000 0.7883 0.7882 0.7880 0.7878 0.7876
2378.000000 0.7875 0.7872 0.7871 0.7869 0.7868
2383.000000 0.7867 0.7865 0.7864 0.7862 0.7861
2388.000000 0.7858 0.7855 0.7851 0.7848 0.7845
2393.000000 0.7838 0.7832 0.7825 0.7818 0.7811
2398.000000 0.7805 0.7798 0.7791 0.7784 0.7776
2403.000000 0.7768 0.7761 0.7751 0.7744 0.7736
2408.000000 0.7728 0.7718 0.7711 0.7701 0.7694
2413.000000 0.7686 0.7678 0.7668 0.7658 0.7647
2418.000000 0.7636 0.7624 0.7611 0.7600 0.7588
2423.000000 0.7575 0.7564 0.7553 0.7543 0.7532
2428.000000 0.7521 0.7511 0.7501 0.7491 0.7481
2433.000000 0.7469 0.7460 0.7449 0.7439 0.7428
2438.000000 0.7418 0.7411 0.7404 0.7398 0.7392
2443.000000 0.7386 0.7380 0.7372 0.7367 0.7361
2448.000000 0.7355 0.7346 0.7337 0.7326 0.7318
2453.000000 0.7310 0.7303 0.7297 0.7292 0.7286
2458.000000 0.7281 0.7275 0.7269 0.7268 0.7268
2463.000000 0.7268 0.7269 0.7269 0.7271 0.7271
2468.000000 0.7272 0.7272 0.7274 0.7275 0.7276
2473.000000 0.7281 0.7285 0.7288 0.7292 0.7295
2478.000000 0.7299 0.7301 0.7305 0.7308 0.7311
2483.000000 0.7315 0.7318 0.7321 0.7325 0.7328
2488.000000 0.7332 0.7335 0.7339 0.7342 0.7345
2493.000000 0.7347 0.7350 0.7351 0.7354 0.7356
2498.000000 0.7358 0.7358 0.7357 0.7356 0.7355
2503.000000 0.7353 0.7351 0.7350 0.7348 0.7345
2508.000000 0.7342 0.7339 0.7336 0.7333 0.7330
2513.000000 0.7325 0.7321 0.7317 0.7312 0.7308
2518.000000 0.7304 0.7299 0.7295 0.7291 0.7287
2523.000000 0.7283 0.7278 0.7274 0.7269 0.7265
2528.000000 0.7261 0.7257 0.7253 0.7247 0.7242
2533.000000 0.7236 0.7231 0.7225 0.7219 0.7214
2538.000000 0.7208 0.7203 0.7198 0.7193 0.7188
2543.000000 0.7182 0.7176 0.7171 0.7165 0.7161
2548.000000 0.7156 0.7150 0.7145 0.7140 0.7135
2553.000000 0.7128 0.7083 0.7117 0.7111 0.7107
2558.000000 0.7103 0.7103 0.7103 0.7106 0.7108
2563.000000 0.7112 0.7118 0.7121 0.7124 0.7126
2568.000000 0.7130 0.7133 0.7136 0.7138 0.7141
2573.000000 0.7144 0.7148 0.7151 0.7157 0.7161
2578.000000 0.7167 0.7171 0.7175 0.7180 0.7185
2583.000000 0.7189 0.7193 0.7197 0.7201 0.7206
2588.000000 0.7211 0.7215 0.7218 0.7222 0.7228
2593.000000 0.7234 0.7241 0.7248 0.7256 0.7261
2598.000000 0.7268 0.7275 0.7283 0.7287 0.7292
2603.000000 0.7295 0.7299 0.7301 0.7305 0.7308
2608.000000 0.7311 0.7315 0.7318 0.7321 0.7325
2613.000000 0.7328 0.7331 0.7333 0.7336 0.7338
2618.000000 0.7341 0.7343 0.7346 0.7348 0.7351
2623.000000 0.7353 0.7356 0.7358 0.7361 0.7365
2628.000000 0.7368 0.7371 0.7375 0.7380 0.7384
2633.000000 0.7388 0.7392 0.7394 0.7397 0.7399
2638.000000 0.7401 0.7404 0.7407 0.7408 0.7411
2643.000000 0.7414 0.7399 0.7417 0.7417 0.7417
2648.000000 0.7417 0.7417 0.7417 0.7417 0.7417
2653.000000 0.7415 0.7414 0.7412 0.7411 0.7411
2658.000000 0.7410 0.7408 0.7408 0.7407 0.7406
2663.000000 0.7405 0.7404 0.7401 0.7401 0.7398
2668.000000 0.7396 0.7393 0.7390 0.7387 0.7384
2673.000000 0.7381 0.7378 0.7375 0.7371 0.7368
2678.000000 0.7367 0.7364 0.7361 0.7357 0.7353
2683.000000 0.7349 0.7345 0.7341 0.7338 0.7334
2688.000000 0.7330 0.7325 0.7322 0.7318 0.7315
2693.000000 0.7311 0.7307 0.7303 0.7299 0.7294
2698.000000 0.7290 0.7285 0.7280 0.7275 0.7271
2703.000000 0.7265 0.7261 0.7257 0.7253 0.7248
2708.000000 0.7244 0.7238 0.7232 0.7225 0.7218
2713.000000 0.7210 0.7203 0.7196 0.7189 0.7182
2718.000000 0.7175 0.7167 0.7160 0.7153 0.7146
2723.000000 0.7138 0.7131 0.7124 0.7117 0.7110
2728.000000 0.7103 0.7094 0.7085 0.7075 0.7067
2733.000000 0.7057 0.7048 0.7039 0.7030 0.7019
2738.000000 0.7011 0.7001 0.6992 0.6983 0.6974
2743.000000 0.6964 0.6955 0.6946 0.6937 0.6926
2748.000000 0.6918 0.6908 0.6899 0.6889 0.6880
2753.000000 0.6869 0.6861 0.6851 0.6842 0.6833
2758.000000 0.6824 0.6814 0.6805 0.6795 0.6786
2763.000000 0.6775 0.6767 0.6757 0.6748 0.6738
2768.000000 0.6728 0.6718 0.6710 0.6701 0.6692
2773.000000 0.6682 0.6672 0.6662 0.6654 0.6644
2778.000000 0.6635 0.6625 0.6617 0.6607 0.6598
2783.000000 0.6588 0.6578 0.6568 0.6560 0.6551
2788.000000 0.6542 0.6532 0.6522 0.6512 0.6503
2793.000000 0.6492 0.6482 0.6471 0.6461 0.6450
2798.000000 0.6440 0.6428 0.6418 0.6408 0.6398
2803.000000 0.6387 0.6377 0.6366 0.6356 0.6345
2808.000000 0.6335 0.6324 0.6314 0.6301 0.6288
2813.000000 0.6275 0.6262 0.6249 0.6236 0.6223
2818.000000 0.6210 0.6197 0.6184 0.6171 0.6158
2823.000000 0.6145 0.6132 0.6119 0.6106 0.6094
2828.000000 0.6082 0.6070 0.6058 0.6046 0.6034
2833.000000 0.6022 0.6010 0.5998 0.5986 0.5974
2838.000000 0.5962 0.5950 0.5938 0.5923 0.5908
2843.000000 0.5893 0.5878 0.5862 0.5849 0.5834
2848.000000 0.5819 0.5805 0.5791 0.5779 0.5767
2853.000000 0.5754 0.5742 0.5729 0.5716 0.5712
2858.000000 0.5708 0.5705 0.5703 0.5701 0.5699
2863.000000 0.5696 0.5694 0.5691 0.5689 0.5685
2868.000000 0.5682 0.5677 0.5672 0.5667 0.5662
2873.000000 0.5657 0.5652 0.5644 0.5637 0.5629
2878.000000 0.5622 0.5614 0.5607 0.5600 0.5593
2883.000000 0.5587 0.5581 0.5574 0.5568 0.5562
2888.000000 0.5556 0.5550 0.5544 0.5537 0.5531
2893.000000 0.5523 0.5516 0.5508 0.5500 0.5492
2898.000000 0.5485 0.5477 0.5470 0.5462 0.5454
2903.000000 0.5446 0.5439 0.5430 0.5421 0.5412
2908.000000 0.5403 0.5394 0.5385 0.5376 0.5367
2913.000000 0.5360 0.5353 0.5346 0.5340 0.5333
2918.000000 0.5328 0.5330 0.5333 0.5338 0.5343
2923.000000 0.5348 0.5353 0.5357 0.5362 0.5366
2928.000000 0.5370 0.5376 0.5382 0.5390 0.5398
2933.000000 0.5406 0.5414 0.5422 0.5430 0.5438
2938.000000 0.5446 0.5454 0.5462 0.5470 0.5479
2943.000000 0.5487 0.5495 0.5503 0.5510 0.5519
2948.000000 0.5527 0.5534 0.5542 0.5550 0.5558
2953.000000 0.5566 0.5574 0.5581 0.5588 0.5592
2958.000000 0.5597 0.5601 0.5606 0.5610 0.5615
2963.000000 0.5619 0.5624 0.5628 0.5633 0.5637
2968.000000 0.5642 0.5646 0.5651 0.5655 0.5659
2973.000000 0.5662 0.5667 0.5671 0.5675 0.5679
2978.000000 0.5683 0.5687 0.5691 0.5695 0.5699
2983.000000 0.5703 0.5707 0.5710 0.5715 0.5717
2988.000000 0.5717 0.5717 0.5716 0.5714 0.5712
2993.000000 0.5710 0.5706 0.5706 0.5707 0.5704
2998.000000 0.5701 0.5698 0.5695 0.5692 0.5690
3003.000000 0.5687 0.5684 0.5681 0.5678 0.5675
3008.000000 0.5672 0.5669 0.5666 0.5662 0.5659
3013.000000 0.5656 0.5653 0.5650 0.5647 0.5643
3018.000000 0.5640 0.5635 0.5630 0.5624 0.5619
3023.000000 0.5612 0.5607 0.5601 0.5596 0.5590
3028.000000 0.5585 0.5579 0.5574 0.5572 0.5571
3033.000000 0.5569 0.5568 0.5567 0.5566 0.5564
3038.000000 0.5562 0.5562 0.5560 0.5560 0.5559
3043.000000 0.5557 0.5556 0.5555 0.5554 0.5552
3048.000000 0.5551 0.5547 0.5544 0.5540 0.5537
3053.000000 0.5533 0.5530 0.5526 0.5523 0.5519
3058.000000 0.5516 0.5512 0.5509 0.5505 0.5501
3063.000000 0.5497 0.5494 0.5490 0.5487 0.5483
3068.000000 0.5480 0.5477 0.5475 0.5472 0.5469
3073.000000 0.5466 0.5462 0.5460 0.5458 0.5455
3078.000000 0.5455 0.5455 0.5457 0.5458 0.5460
3083.000000 0.5460 0.5462 0.5465 0.5467 0.5468
3088.000000 0.5470 0.5471 0.5472 0.5471 0.5471
3093.000000 0.5465 0.5459 0.5453 0.5447 0.5441
3098.000000 0.5435 0.5428 0.5422 0.5415 0.5409
3103.000000 0.5402 0.5396 0.5389 0.5383 0.5376
3108.000000 0.5370 0.5362 0.5357 0.5349 0.5341
3113.000000 0.5333 0.5326 0.5318 0.5310 0.5302
3118.000000 0.5295 0.5287 0.5279 0.5271 0.5264
3123.000000 0.5256 0.5248 0.5240 0.5232 0.5224
3128.000000 0.5217 0.5209 0.5202 0.5195 0.5189
3133.000000 0.5182 0.5176 0.5169 0.5162 0.5155
3138.000000 0.5149 0.5142 0.5135 0.5128 0.5122
3143.000000 0.5115 0.5109 0.5102 0.5095 0.5086
3148.000000 0.5077 0.5068 0.5059 0.5049 0.5040
3153.000000 0.5031 0.5022 0.5012 0.5004 0.4995
3158.000000 0.4986 0.4976 0.4967 0.4958 0.4949
3163.000000 0.4940 0.4931 0.4922 0.4912 0.4903
3168.000000 0.4894 0.4885 0.4876 0.4867 0.4858
3173.000000 0.4848 0.4839 0.4830 0.4821 0.4812
3178.000000 0.4803 0.4793 0.4784 0.4775 0.4766
3183.000000 0.4756 0.4747 0.4738 0.4729 0.4720
3188.000000 0.4710 0.4701 0.4692 0.4683 0.4674
3193.000000 0.4664 0.4655 0.4643 0.4632 0.4620
3198.000000 0.4609 0.4598 0.4587 0.4575 0.4564
3203.000000 0.4552 0.4541 0.4530 0.4519 0.4507
3208.000000 0.4496 0.4484 0.4473 0.4462 0.4451
3213.000000 0.4439 0.4428 0.4416 0.4405 0.4394
3218.000000 0.4384 0.4373 0.4362 0.4351 0.4340
3223.000000 0.4329 0.4318 0.4307 0.4296 0.4285
3228.000000 0.4274 0.4262 0.4252 0.4241 0.4230
3233.000000 0.4219 0.4208 0.4196 0.4184 0.4171
3238.000000 0.4159 0.4146 0.4134 0.4121 0.4109
3243.000000 0.4097 0.4084 0.4072 0.4059 0.4050
3248.000000 0.4041 0.4032 0.4025 0.4016 0.4008
3253.000000 0.4002 0.3996 0.3991 0.3987 0.3982
3258.000000 0.3977 0.3973 0.3968 0.3964 0.3960
3263.000000 0.3957 0.3954 0.3950 0.3947 0.3945
3268.000000 0.3943 0.3942 0.3942 0.3943 0.3938
3273.000000 0.3946 0.3947 0.3948 0.3950 0.3955
3278.000000 0.3959 0.3966 0.3972 0.3978 0.3984
3283.000000 0.3990 0.3996 0.4000 0.4006 0.4010
3288.000000 0.4016 0.4022 0.4027 0.4030 0.4036
3293.000000 0.4040 0.4044 0.4049 0.4054 0.4059
3298.000000 0.4066 0.4072 0.4078 0.4084 0.4090
3303.000000 0.4096 0.4102 0.4108 0.4114 0.4119
3308.000000 0.4125 0.4131 0.4137 0.4143 0.4149
3313.000000 0.4155 0.4160 0.4167 0.4173 0.4179
3318.000000 0.4185 0.4191 0.4197 0.4204 0.4210
3323.000000 0.4218 0.4226 0.4233 0.4241 0.4249
3328.000000 0.4257 0.4264 0.4271 0.4278 0.4286
3333.000000 0.4293 0.4300 0.4307 0.4315 0.4322
3338.000000 0.4329 0.4336 0.4344 0.4350 0.4356
3343.000000 0.4362 0.4369 0.4375 0.4381 0.4387
3348.000000 0.4394 0.4400 0.4406 0.4412 0.4419
3353.000000 0.4425 0.4432 0.4438 0.4445 0.4452
3358.000000 0.4459 0.4464 0.4469 0.4470 0.4471
3363.000000 0.4472 0.4473 0.4474 0.4475 0.4476
3368.000000 0.4476 0.4476 0.4476 0.4475 0.4475
3373.000000 0.4474 0.4473 0.4472 0.4471 0.4470
3378.000000 0.4469 0.4468 0.4467 0.4465 0.4464
3383.000000 0.4462 0.4462 0.4460 0.4460 0.4458
3388.000000 0.4457 0.4456 0.4456 0.4455 0.4455
3393.000000 0.4454 0.4454 0.4453 0.4452 0.4451
3398.000000 0.4451 0.4450 0.4450 0.4451 0.4452
3403.000000 0.4453 0.4454 0.4475 0.4496 0.4517
3408.000000 0.4539 0.4559 0.4579 0.4590 0.4602
3413.000000 0.4610 0.4618 0.4621 0.4625 0.4628
3418.000000 0.4612 0.4632 0.4632 0.4627 0.4622
3423.000000 0.4610 0.4599 0.4581 0.4564 0.4544
3428.000000 0.4525 0.4503 0.4482 0.4460 0.4438
3433.000000 0.4412 0.4387 0.4360 0.4336 0.4309
3438.000000 0.4283 0.4256 0.4230 0.4203 0.4176
3443.000000 0.4149 0.4122 0.4094 0.4066 0.4038
3448.000000 0.4010 0.3982 0.3955 0.3909 0.3864
3453.000000 0.3800 0.3738 0.3657 0.3577 0.3496
3458.000000 0.3416 0.3334 0.3255 0.3175 0.3096
3463.000000 0.3054 0.3012 0.2999 0.2985 0.2983
3468.000000 0.2980 0.2990 0.3000 0.3012 0.3024
3473.000000 0.3026 0.3029 0.3009 0.2990 0.2929
3478.000000 0.2869 0.2809 0.2749 0.2688 0.2628
3483.000000 0.2568 0.2508 0.2447 0.2387 0.2327
3488.000000 0.2267 0.2206 0.2146 0.2132 0.2118
3493.000000 0.2114 0.2114 0.2113 0.2089 0.2210
3498.000000 0.2306 0.2452 0.2598 0.2744 0.2890
3503.000000 0.3035 0.3183 0.3329 0.3475 0.3621
3508.000000 0.3766 0.3904 0.4042 0.4091 0.4141
3513.000000 0.4198 0.4255 0.4316 0.4377 0.4439
3518.000000 0.4501 0.4566 0.4631 0.4696 0.4762
3523.000000 0.4828 0.4894 0.4960 0.5026 0.5082
3528.000000 0.5139 0.5192 0.5245 0.5298 0.5351
3533.000000 0.5400 0.5450 0.5499 0.5548 0.5581
3538.000000 0.5614 0.5636 0.5658 0.5680 0.5703
3543.000000 0.5725 0.5747 0.5766 0.5786 0.5805
3548.000000 0.5824 0.5843 0.5862 0.5880 0.5898
3553.000000 0.5912 0.5928 0.5943 0.5958 0.5973
3558.000000 0.5988 0.6003 0.6019 0.6037 0.6056
3563.000000 0.6076 0.6096 0.6116 0.6137 0.6157
3568.000000 0.6178 0.6200 0.6223 0.6251 0.6280
3573.000000 0.6315 0.6350 0.6456 0.6561 0.6632
3578.000000 0.6703 0.6728 0.6755 0.6781 0.6808
3583.000000 0.6836 0.6865 0.6894 0.6922 0.6951
3588.000000 0.6981 0.7010 0.7039 0.7061 0.7085
3593.000000 0.7104 0.7124 0.7144 0.7164 0.7187
3598.000000 0.7211 0.7235 0.7258 0.7271 0.7283
3603.000000 0.7294 0.7306 0.7311 0.7317 0.7322
3608.000000 0.7328 0.7301 0.7340 0.7235 0.7195
3613.000000 0.7155 0.7115 0.7075 0.7035 0.6994
3618.000000 0.6954 0.6914 0.6874 0.6851 0.6828
3623.000000 0.6824 0.6821 0.6995 0.6806 0.7351
3628.000000 0.7533 0.7658 0.7784 0.7815 0.7848
3633.000000 0.7867 0.7887 0.7907 0.7926 0.7944
3638.000000 0.7961 0.7978 0.7994 0.8010 0.8025
3643.000000 0.8038 0.8050 0.8060 0.8069 0.8080
3648.000000 0.8091 0.8101 0.8111 0.8121 0.8131
3653.000000 0.8139 0.8148 0.8154 0.8161 0.8167
3658.000000 0.8174 0.8180 0.8187 0.8193 0.8200
3663.000000 0.8204 0.8209 0.8211 0.8213 0.8214
3668.000000 0.8216 0.8218 0.8220 0.8221 0.8221
3673.000000 0.8223 0.8223 0.8221 0.8221 0.8220
3678.000000 0.8220 0.8218 0.8218 0.8218 0.8218
3683.000000 0.8218 0.8220 0.8220 0.8221 0.8221
3688.000000 0.8221 0.8221 0.8221 0.8221 0.8221
3693.000000 0.8220 0.8220 0.8218 0.8218 0.8218
3698.000000 0.8218 0.8218 0.8218 0.8218 0.8218
3703.000000 0.8220 0.8223 0.8225 0.8228 0.8230
3708.000000 0.8233 0.8235 0.8238 0.8240 0.8243
3713.000000 0.8245 0.8248 0.8250 0.8253 0.8253
3718.000000 0.8253 0.8252 0.8252 0.8251 0.8250
3723.000000 0.8249 0.8248 0.8247 0.8246 0.8245
3728.000000 0.8244 0.8240 0.8237 0.8232 0.8228
3733.000000 0.8223 0.8218 0.8213 0.8207 0.8200
3738.000000 0.8194 0.8187 0.8181 0.8174 0.8168
3743.000000 0.8165 0.8161 0.8160 0.8158 0.8155
3748.000000 0.8153 0.8150 0.8148 0.8146 0.8144
3753.000000 0.8142 0.8140 0.8138 0.8137 0.8135
3758.000000 0.8134 0.8132 0.8130 0.8128 0.8126
3763.000000 0.8125 0.8124 0.8121 0.8121 0.8121
3768.000000 0.8122 0.8124 0.8125 0.8125 0.8126
3773.000000 0.8128 0.8128 0.8130 0.8131 0.8134
3778.000000 0.8138 0.8142 0.8146 0.8148 0.8149
3783.000000 0.8149 0.8149 0.8147 0.8146 0.8140
3788.000000 0.8134 0.8128 0.8122 0.8117 0.8111
3793.000000 0.8106 0.8101 0.8095 0.8089 0.8083
3798.000000 0.8078 0.8078 0.8078
##END=
