##TITLE=d-1-(3-METHYL-4-MORPHOLINO-2,2-DIPHENYLBUTYRYL) PYRROLIDINE, TARTRATE
##JCAMP-DX=4.24
##DATA TYPE=INFRARED SPECTRUM
##CLASS=COBLENTZ III
##ORIGIN=SMITH KLINE & FRENCH LABS.
##OWNER=Copyright (C) 1987 by the Coblentz Society
Collection (C) 2018 copyright by the U.S. Secretary of Commerce
on behalf of the United States of America. All rights reserved.
##DATE=1957/05/03
##NAMES=Pyrrolidine, 1-(2,2-diphenyl-3-methyl-4-morpholinobutyryl)-, tartrate(1 to 1),d-; DEXTROMORAMIDE TARTRATE
##MOLFORM=C29 H38 N2 O8
##SOURCE REFERENCE=COBLENTZ NO. 9105
##$NIST ID=B6009105
##$NIST SOURCE=COBLENTZ
##$NIST IMAGE=cob9105
##SPECTROMETER/DATA SYSTEM=PERKIN-ELMER 21 (GRATING)
##INSTRUMENT PARAMETERS=NaCl PRISM
##STATE=SOLID (NUJOL MULL)
$$SPECTRAL CONTAMINATION DUE TO OIL AROUND 2900, 1450, 1380 CM^-^1
##SAMPLING PROCEDURE=TRANSMISSION
##RESOLUTION=2
##DATA PROCESSING=DIGITIZED BY COBLENTZ SOCIETY (BATCH II) FROM HARD COPY
##XUNITS=1/CM
##YUNITS=TRANSMITTANCE
##XFACTOR=1.0
##YFACTOR=1
##FIRSTX=665
##LASTX=4000
##FIRSTY=0.6395
##MAXX=4000
##MINX=665
##MAXY=0.8635
##MINY=0.0419
##NPOINTS=3336
##XYDATA=(X++(Y..Y))
665.000000 0.6395 0.6339 0.6261 0.6192 0.6126
670.000000 0.6034 0.5861 0.5799 0.5662 0.5518
675.000000 0.5445 0.5423 0.5404 0.5368 0.5324
680.000000 0.5331 0.5410 0.5477 0.5561 0.5689
685.000000 0.5813 0.5963 0.6106 0.6235 0.6315
690.000000 0.6545 0.6707 0.6813 0.6891 0.6948
695.000000 0.6986 0.7040 0.7033 0.7032 0.6971
700.000000 0.6828 0.6631 0.6448 0.6254 0.5993
705.000000 0.5203 0.4666 0.4483 0.4537 0.4662
710.000000 0.4649 0.4495 0.4230 0.4342 0.4435
715.000000 0.4200 0.3611 0.3486 0.3477 0.3848
720.000000 0.4751 0.5629 0.6083 0.6537 0.6708
725.000000 0.6823 0.6870 0.6813 0.6661 0.6393
730.000000 0.6081 0.5693 0.5671 0.6284 0.6794
735.000000 0.7071 0.7343 0.7488 0.7580 0.7651
740.000000 0.7701 0.7749 0.7797 0.7861 0.7833
745.000000 0.7754 0.7691 0.7633 0.7564 0.7463
750.000000 0.7392 0.7341 0.7294 0.7085 0.6825
755.000000 0.6419 0.5898 0.4895 0.4276 0.4285
760.000000 0.4779 0.5483 0.6184 0.6872 0.7289
765.000000 0.7671 0.7866 0.7945 0.7968 0.7996
770.000000 0.7926 0.7877 0.7762 0.7502 0.7247
775.000000 0.6672 0.5974 0.5766 0.6268 0.7274
780.000000 0.8015 0.8255 0.8379 0.8434 0.8466
785.000000 0.8570 0.8580 0.8550 0.8539 0.8588
790.000000 0.8609 0.8626 0.8635 0.8626 0.8606
795.000000 0.8588 0.8580 0.8553 0.8497 0.8450
800.000000 0.8481 0.8512 0.8509 0.8491 0.8480
805.000000 0.8475 0.8473 0.8471 0.8455 0.8425
810.000000 0.8386 0.8307 0.8211 0.8107 0.7972
815.000000 0.7812 0.7631 0.7383 0.7338 0.7339
820.000000 0.7519 0.7716 0.7886 0.8067 0.8210
825.000000 0.8296 0.8353 0.8362 0.8383 0.8481
830.000000 0.8486 0.8451 0.8407 0.8365 0.8329
835.000000 0.8294 0.8259 0.8235 0.8213 0.8193
840.000000 0.8181 0.8171 0.8161 0.8149 0.8134
845.000000 0.8119 0.8083 0.8046 0.8026 0.8027
850.000000 0.8059 0.8054 0.8027 0.7939 0.7778
855.000000 0.7614 0.7481 0.7451 0.7397 0.7212
860.000000 0.6974 0.6735 0.6626 0.6648 0.6785
865.000000 0.7067 0.7348 0.7609 0.7685 0.7700
870.000000 0.7692 0.7674 0.7646 0.7616 0.7619
875.000000 0.7702 0.7829 0.7955 0.8018 0.8031
880.000000 0.8029 0.7997 0.7940 0.7859 0.7773
885.000000 0.7684 0.7524 0.7375 0.7292 0.7236
890.000000 0.7228 0.7231 0.7238 0.7249 0.7243
895.000000 0.7193 0.7088 0.7085 0.7080 0.7332
900.000000 0.7618 0.7895 0.7934 0.7812 0.7698
905.000000 0.7584 0.7482 0.7473 0.7507 0.7554
910.000000 0.7566 0.7543 0.7484 0.7365 0.7290
915.000000 0.7278 0.7277 0.7279 0.7300 0.7300
920.000000 0.7311 0.7325 0.7386 0.7483 0.7603
925.000000 0.7668 0.7701 0.7722 0.7743 0.7764
930.000000 0.7786 0.7808 0.7821 0.7829 0.7824
935.000000 0.7820 0.7828 0.7847 0.7866 0.7883
940.000000 0.7898 0.7931 0.7894 0.7872 0.7848
945.000000 0.7823 0.7799 0.7773 0.7725 0.7674
950.000000 0.7563 0.7381 0.7382 0.7402 0.7501
955.000000 0.7541 0.7576 0.7598 0.7609 0.7609
960.000000 0.7629 0.7578 0.7554 0.7523 0.7490
965.000000 0.7454 0.7403 0.7351 0.7292 0.7224
970.000000 0.7139 0.7047 0.6953 0.6843 0.6780
975.000000 0.6721 0.6660 0.6466 0.6261 0.6174
980.000000 0.6129 0.6156 0.6276 0.6426 0.6610
985.000000 0.6777 0.7064 0.7168 0.7233 0.7262
990.000000 0.7278 0.7275 0.7265 0.7288 0.7210
995.000000 0.7196 0.7207 0.7301 0.7323 0.7309
1000.000000 0.7219 0.7093 0.6999 0.6986 0.6999
1005.000000 0.7020 0.7044 0.7068 0.7087 0.7102
1010.000000 0.7099 0.7091 0.7065 0.6996 0.6918
1015.000000 0.6855 0.6782 0.6688 0.6575 0.6426
1020.000000 0.6298 0.6292 0.6301 0.6311 0.6329
1025.000000 0.6333 0.6326 0.6299 0.6238 0.6176
1030.000000 0.6098 0.6036 0.6014 0.6012 0.6026
1035.000000 0.6064 0.6098 0.6116 0.6117 0.6114
1040.000000 0.6107 0.6089 0.6003 0.5884 0.5739
1045.000000 0.5701 0.5692 0.5682 0.5797 0.5921
1050.000000 0.5994 0.6040 0.6105 0.6314 0.6396
1055.000000 0.6419 0.6443 0.6406 0.6344 0.6232
1060.000000 0.6084 0.5980 0.5854 0.5846 0.5850
1065.000000 0.5899 0.5988 0.6065 0.6079 0.6067
1070.000000 0.6025 0.5929 0.5759 0.5586 0.5412
1075.000000 0.5240 0.5067 0.4858 0.4733 0.4727
1080.000000 0.4740 0.4804 0.5071 0.5404 0.5736
1085.000000 0.5974 0.6064 0.6130 0.6186 0.6215
1090.000000 0.6242 0.6259 0.6274 0.6311 0.6271
1095.000000 0.6238 0.6201 0.6158 0.6111 0.5997
1100.000000 0.5767 0.5506 0.5253 0.5069 0.4998
1105.000000 0.4999 0.5226 0.5380 0.5447 0.5422
1110.000000 0.5429 0.5326 0.5163 0.4923 0.4617
1115.000000 0.4308 0.3999 0.3692 0.3384 0.3078
1120.000000 0.2771 0.2580 0.2576 0.2650 0.2798
1125.000000 0.2998 0.3325 0.3658 0.3991 0.4324
1130.000000 0.4655 0.4986 0.5174 0.5194 0.5215
1135.000000 0.5235 0.5260 0.5286 0.5331 0.5426
1140.000000 0.5630 0.5835 0.6038 0.6236 0.6316
1145.000000 0.6355 0.6408 0.6438 0.6439 0.6424
1150.000000 0.6399 0.6349 0.6317 0.6294 0.6236
1155.000000 0.6181 0.6155 0.6053 0.5925 0.5799
1160.000000 0.5672 0.5553 0.5476 0.5441 0.5396
1165.000000 0.5424 0.5436 0.5458 0.5508 0.5643
1170.000000 0.5795 0.5946 0.6064 0.6161 0.6201
1175.000000 0.6204 0.6194 0.6160 0.5997 0.5851
1180.000000 0.5824 0.5808 0.5764 0.5640 0.5508
1185.000000 0.5364 0.5254 0.5191 0.5166 0.5142
1190.000000 0.5243 0.5338 0.5433 0.5505 0.5496
1195.000000 0.5488 0.5434 0.5338 0.5240 0.5143
1200.000000 0.5091 0.5106 0.5156 0.5213 0.5268
1205.000000 0.5277 0.5209 0.5027 0.4837 0.4713
1210.000000 0.4640 0.4580 0.4511 0.4455 0.4432
1215.000000 0.4437 0.4540 0.4647 0.4753 0.4859
1220.000000 0.4965 0.5001 0.4988 0.4990 0.4749
1225.000000 0.4604 0.4459 0.4313 0.4169 0.4047
1230.000000 0.3901 0.3696 0.3456 0.3254 0.3165
1235.000000 0.3104 0.3084 0.3084 0.3074 0.3096
1240.000000 0.3119 0.3231 0.3428 0.3624 0.3766
1245.000000 0.3818 0.3845 0.3834 0.3690 0.3671
1250.000000 0.3783 0.4115 0.4446 0.4777 0.4905
1255.000000 0.4905 0.4949 0.4889 0.4869 0.4830
1260.000000 0.4767 0.4651 0.4564 0.4485 0.4402
1265.000000 0.4298 0.4134 0.3997 0.3958 0.3948
1270.000000 0.4004 0.3945 0.4601 0.4923 0.5244
1275.000000 0.5557 0.5737 0.5888 0.5936 0.5968
1280.000000 0.5986 0.5998 0.5998 0.5987 0.5970
1285.000000 0.5937 0.5923 0.5935 0.5969 0.6004
1290.000000 0.6037 0.6089 0.6156 0.6167 0.6160
1295.000000 0.6128 0.6066 0.6001 0.5937 0.5907
1300.000000 0.5897 0.5919 0.6033 0.6151 0.6268
1305.000000 0.6349 0.6332 0.6332 0.6329 0.6324
1310.000000 0.6311 0.6279 0.6230 0.6186 0.6144
1315.000000 0.6096 0.6048 0.6000 0.5952 0.5903
1320.000000 0.5867 0.5845 0.5833 0.5828 0.5825
1325.000000 0.5821 0.5811 0.5799 0.5778 0.5748
1330.000000 0.5667 0.5556 0.5411 0.5287 0.5170
1335.000000 0.5083 0.5024 0.4965 0.4904 0.4835
1340.000000 0.4764 0.4693 0.4623 0.4554 0.4486
1345.000000 0.4419 0.4348 0.4267 0.4141 0.4014
1350.000000 0.3894 0.3730 0.3567 0.3403 0.3240
1355.000000 0.3078 0.2915 0.2752 0.2591 0.2438
1360.000000 0.2332 0.2277 0.2251 0.2231 0.2222
1365.000000 0.2220 0.2215 0.2207 0.2199 0.2178
1370.000000 0.2140 0.2094 0.2067 0.2065 0.2073
1375.000000 0.2167 0.2356 0.2553 0.2749 0.2945
1380.000000 0.3141 0.3336 0.3532 0.3726 0.3921
1385.000000 0.4116 0.4311 0.4504 0.4666 0.4711
1390.000000 0.4722 0.4722 0.4717 0.4695 0.4644
1395.000000 0.4565 0.4490 0.4417 0.4338 0.4097
1400.000000 0.3912 0.3727 0.3542 0.3357 0.3173
1405.000000 0.2989 0.2805 0.2622 0.2439 0.2302
1410.000000 0.2244 0.2220 0.2223 0.2239 0.2262
1415.000000 0.2292 0.2343 0.2418 0.2498 0.2552
1420.000000 0.2600 0.2647 0.2694 0.2737 0.2764
1425.000000 0.2791 0.2819 0.2847 0.2868 0.2881
1430.000000 0.2894 0.2893 0.2852 0.2706 0.2561
1435.000000 0.2416 0.2271 0.2164 0.2116 0.2069
1440.000000 0.1997 0.1937 0.1907 0.1885 0.1876
1445.000000 0.1877 0.1877 0.1877 0.1881 0.1886
1450.000000 0.1890 0.1895 0.1900 0.1910 0.1923
1455.000000 0.1936 0.1949 0.1962 0.1979 0.2007
1460.000000 0.2039 0.2077 0.2135 0.2196 0.2264
1465.000000 0.2351 0.2431 0.2491 0.2661 0.2951
1470.000000 0.3240 0.3528 0.3816 0.4104 0.4392
1475.000000 0.4664 0.4742 0.4765 0.4789 0.4811
1480.000000 0.4829 0.4847 0.4866 0.4908 0.5009
1485.000000 0.5171 0.5277 0.5302 0.5313 0.5322
1490.000000 0.5326 0.5334 0.5359 0.5419 0.5781
1495.000000 0.6431 0.6656 0.6752 0.6844 0.6905
1500.000000 0.6966 0.7026 0.7089 0.7155 0.7212
1505.000000 0.7244 0.7268 0.7292 0.7311 0.7315
1510.000000 0.7319 0.7322 0.7324 0.7326 0.7328
1515.000000 0.7330 0.7339 0.7348 0.7357 0.7366
1520.000000 0.7376 0.7368 0.7353 0.7317 0.7282
1525.000000 0.7250 0.7219 0.7179 0.7135 0.7087
1530.000000 0.7037 0.6986 0.6929 0.6869 0.6809
1535.000000 0.6750 0.6694 0.6638 0.6585 0.6539
1540.000000 0.6498 0.6457 0.6419 0.6385 0.6351
1545.000000 0.6317 0.6284 0.6250 0.6204 0.6156
1550.000000 0.6106 0.6036 0.5963 0.5854 0.5687
1555.000000 0.5501 0.5365 0.5296 0.5251 0.5216
1560.000000 0.5185 0.5162 0.5139 0.5110 0.5070
1565.000000 0.4998 0.4883 0.4751 0.4631 0.4524
1570.000000 0.4432 0.4346 0.4208 0.4032 0.3872
1575.000000 0.3723 0.3575 0.3426 0.3278 0.3130
1580.000000 0.2982 0.2834 0.2686 0.2539 0.2391
1585.000000 0.2275 0.2183 0.2088 0.2002 0.1927
1590.000000 0.1878 0.1840 0.1801 0.1766 0.1735
1595.000000 0.1706 0.1677 0.1649 0.1628 0.1612
1600.000000 0.1599 0.1592 0.1592 0.1596 0.1601
1605.000000 0.1604 0.1610 0.1617 0.1626 0.1640
1610.000000 0.1669 0.1788 0.2097 0.2406 0.2716
1615.000000 0.3024 0.3333 0.3641 0.3948 0.4255
1620.000000 0.4562 0.4868 0.5175 0.5320 0.5378
1625.000000 0.5431 0.5488 0.5575 0.5703 0.5846
1630.000000 0.6000 0.6154 0.6308 0.6462 0.6614
1635.000000 0.6760 0.6776 0.6775 0.6772 0.6777
1640.000000 0.6742 0.6717 0.6688 0.6659 0.6629
1645.000000 0.6600 0.6574 0.6550 0.6525 0.6501
1650.000000 0.6478 0.6458 0.6437 0.6417 0.6397
1655.000000 0.6376 0.6357 0.6340 0.6325 0.6317
1660.000000 0.6314 0.6310 0.6305 0.6300 0.6295
1665.000000 0.6290 0.6283 0.6272 0.6252 0.6224
1670.000000 0.6177 0.6128 0.6079 0.6029 0.5967
1675.000000 0.5898 0.5826 0.5751 0.5643 0.5348
1680.000000 0.5182 0.5017 0.4851 0.4686 0.4521
1685.000000 0.4357 0.4192 0.4027 0.3862 0.3698
1690.000000 0.3535 0.3444 0.3413 0.3463 0.3577
1695.000000 0.3761 0.3944 0.4127 0.4310 0.4492
1700.000000 0.4674 0.4857 0.5039 0.5220 0.5402
1705.000000 0.5544 0.5760 0.5946 0.6086 0.6331
1710.000000 0.6889 0.6997 0.7096 0.7180 0.7258
1715.000000 0.7327 0.7381 0.7435 0.7489 0.7528
1720.000000 0.7562 0.7595 0.7628 0.7661 0.7696
1725.000000 0.7734 0.7773 0.7812 0.7851 0.7886
1730.000000 0.7918 0.7950 0.7973 0.7989 0.8000
1735.000000 0.8011 0.8022 0.8040 0.8062 0.8085
1740.000000 0.8106 0.8124 0.8137 0.8146 0.8154
1745.000000 0.8162 0.8169 0.8177 0.8185 0.8192
1750.000000 0.8199 0.8207 0.8214 0.8221 0.8227
1755.000000 0.8233 0.8239 0.8245 0.8251 0.8257
1760.000000 0.8263 0.8274 0.8291 0.8309 0.8322
1765.000000 0.8333 0.8342 0.8345 0.8345 0.8345
1770.000000 0.8344 0.8342 0.8339 0.8337 0.8333
1775.000000 0.8330 0.8327 0.8324 0.8321 0.8318
1780.000000 0.8316 0.8314 0.8311 0.8309 0.8307
1785.000000 0.8304 0.8302 0.8300 0.8300 0.8300
1790.000000 0.8300 0.8301 0.8301 0.8301 0.8301
1795.000000 0.8302 0.8305 0.8306 0.8308 0.8310
1800.000000 0.8312 0.8313 0.8315 0.8317 0.8319
1805.000000 0.8320 0.8340 0.8332 0.8337 0.8343
1810.000000 0.8349 0.8354 0.8359 0.8361 0.8358
1815.000000 0.8355 0.8351 0.8348 0.8341 0.8330
1820.000000 0.8319 0.8309 0.8297 0.8287 0.8276
1825.000000 0.8264 0.8253 0.8242 0.8230 0.8217
1830.000000 0.8203 0.8188 0.8173 0.8158 0.8144
1835.000000 0.8129 0.8115 0.8101 0.8086 0.8071
1840.000000 0.8057 0.8043 0.8030 0.8018 0.8005
1845.000000 0.7993 0.7981 0.7969 0.7956 0.7944
1850.000000 0.7936 0.7929 0.7924 0.7917 0.7910
1855.000000 0.7904 0.7898 0.7892 0.7886 0.7880
1860.000000 0.7873 0.7867 0.7860 0.7854 0.7847
1865.000000 0.7841 0.7834 0.7827 0.7813 0.7797
1870.000000 0.7780 0.7763 0.7746 0.7728 0.7710
1875.000000 0.7691 0.7673 0.7654 0.7635 0.7620
1880.000000 0.7608 0.7595 0.7583 0.7571 0.7559
1885.000000 0.7546 0.7534 0.7522 0.7509 0.7497
1890.000000 0.7485 0.7473 0.7462 0.7450 0.7439
1895.000000 0.7428 0.7417 0.7406 0.7398 0.7393
1900.000000 0.7391 0.7388 0.7385 0.7382 0.7379
1905.000000 0.7376 0.7373 0.7370 0.7368 0.7364
1910.000000 0.7361 0.7358 0.7356 0.7354 0.7353
1915.000000 0.7351 0.7349 0.7348 0.7346 0.7344
1920.000000 0.7342 0.7340 0.7339 0.7337 0.7335
1925.000000 0.7334 0.7332 0.7330 0.7329 0.7327
1930.000000 0.7325 0.7324 0.7322 0.7321 0.7319
1935.000000 0.7317 0.7316 0.7315 0.7313 0.7312
1940.000000 0.7310 0.7308 0.7307 0.7306 0.7305
1945.000000 0.7303 0.7302 0.7300 0.7298 0.7297
1950.000000 0.7296 0.7294 0.7293 0.7291 0.7289
1955.000000 0.7288 0.7288 0.7288 0.7287 0.7287
1960.000000 0.7287 0.7287 0.7287 0.7286 0.7286
1965.000000 0.7286 0.7285 0.7265 0.7285 0.7285
1970.000000 0.7285 0.7284 0.7284 0.7284 0.7284
1975.000000 0.7284 0.7285 0.7286 0.7287 0.7287
1980.000000 0.7288 0.7289 0.7289 0.7290 0.7290
1985.000000 0.7292 0.7293 0.7296 0.7299 0.7303
1990.000000 0.7308 0.7312 0.7315 0.7320 0.7324
1995.000000 0.7328 0.7331 0.7335 0.7340 0.7344
2000.000000 0.7349 0.7353 0.7358 0.7363 0.7369
2005.000000 0.7374 0.7379 0.7385 0.7390 0.7395
2010.000000 0.7400 0.7405 0.7411 0.7416 0.7421
2015.000000 0.7426 0.7432 0.7437 0.7442 0.7447
2020.000000 0.7453 0.7458 0.7464 0.7469 0.7475
2025.000000 0.7480 0.7486 0.7491 0.7497 0.7502
2030.000000 0.7508 0.7513 0.7519 0.7524 0.7529
2035.000000 0.7532 0.7536 0.7540 0.7543 0.7547
2040.000000 0.7551 0.7554 0.7558 0.7561 0.7565
2045.000000 0.7569 0.7572 0.7576 0.7579 0.7583
2050.000000 0.7586 0.7590 0.7594 0.7597 0.7601
2055.000000 0.7604 0.7608 0.7611 0.7615 0.7618
2060.000000 0.7622 0.7626 0.7631 0.7636 0.7640
2065.000000 0.7644 0.7648 0.7652 0.7656 0.7661
2070.000000 0.7665 0.7669 0.7674 0.7678 0.7682
2075.000000 0.7686 0.7689 0.7693 0.7697 0.7700
2080.000000 0.7704 0.7708 0.7712 0.7716 0.7718
2085.000000 0.7718 0.7718 0.7718 0.7718 0.7717
2090.000000 0.7717 0.7717 0.7717 0.7716 0.7691
2095.000000 0.7716 0.7715 0.7715 0.7715 0.7715
2100.000000 0.7714 0.7713 0.7713 0.7712 0.7711
2105.000000 0.7710 0.7709 0.7708 0.7706 0.7705
2110.000000 0.7704 0.7703 0.7702 0.7701 0.7700
2115.000000 0.7699 0.7697 0.7696 0.7695 0.7693
2120.000000 0.7690 0.7687 0.7685 0.7682 0.7680
2125.000000 0.7677 0.7674 0.7672 0.7670 0.7667
2130.000000 0.7664 0.7662 0.7660 0.7657 0.7654
2135.000000 0.7651 0.7649 0.7647 0.7644 0.7641
2140.000000 0.7639 0.7636 0.7634 0.7631 0.7629
2145.000000 0.7627 0.7624 0.7622 0.7619 0.7616
2150.000000 0.7614 0.7612 0.7609 0.7606 0.7604
2155.000000 0.7602 0.7599 0.7597 0.7594 0.7591
2160.000000 0.7588 0.7585 0.7581 0.7577 0.7573
2165.000000 0.7570 0.7566 0.7563 0.7559 0.7556
2170.000000 0.7552 0.7548 0.7545 0.7541 0.7537
2175.000000 0.7533 0.7530 0.7527 0.7523 0.7520
2180.000000 0.7516 0.7512 0.7509 0.7505 0.7502
2185.000000 0.7498 0.7495 0.7491 0.7488 0.7484
2190.000000 0.7481 0.7478 0.7475 0.7471 0.7470
2195.000000 0.7469 0.7468 0.7467 0.7466 0.7465
2200.000000 0.7464 0.7463 0.7461 0.7459 0.7456
2205.000000 0.7453 0.7451 0.7448 0.7446 0.7443
2210.000000 0.7441 0.7438 0.7435 0.7430 0.7425
2215.000000 0.7419 0.7411 0.7403 0.7396 0.7388
2220.000000 0.7380 0.7375 0.7370 0.7365 0.7361
2225.000000 0.7357 0.7353 0.7349 0.7344 0.7340
2230.000000 0.7336 0.7332 0.7328 0.7325 0.7323
2235.000000 0.7321 0.7319 0.7317 0.7315 0.7313
2240.000000 0.7311 0.7309 0.7307 0.7305 0.7303
2245.000000 0.7301 0.7300 0.7298 0.7296 0.7294
2250.000000 0.7292 0.7290 0.7288 0.7286 0.7285
2255.000000 0.7284 0.7283 0.7281 0.7280 0.7279
2260.000000 0.7278 0.7277 0.7275 0.7274 0.7273
2265.000000 0.7272 0.7270 0.7269 0.7268 0.7267
2270.000000 0.7266 0.7265 0.7264 0.7263 0.7263
2275.000000 0.7262 0.7261 0.7260 0.7260 0.7259
2280.000000 0.7259 0.7259 0.7258 0.7258 0.7257
2285.000000 0.7256 0.7255 0.7255 0.7254 0.7254
2290.000000 0.7253 0.7253 0.7253 0.7254 0.7255
2295.000000 0.7255 0.7256 0.7257 0.7258 0.7258
2300.000000 0.7259 0.7260 0.7260 0.7262 0.7264
2305.000000 0.7267 0.7269 0.7271 0.7273 0.7275
2310.000000 0.7277 0.7280 0.7282 0.7284 0.7287
2315.000000 0.7290 0.7293 0.7296 0.7298 0.7301
2320.000000 0.7304 0.7308 0.7309 0.7310 0.7310
2325.000000 0.7310 0.7310 0.7310 0.7309 0.7309
2330.000000 0.7308 0.7308 0.7307 0.7304 0.7301
2335.000000 0.7298 0.7295 0.7292 0.7289 0.7285
2340.000000 0.7282 0.7278 0.7273 0.7267 0.7260
2345.000000 0.7254 0.7248 0.7242 0.7236 0.7230
2350.000000 0.7224 0.7217 0.7210 0.7204 0.7197
2355.000000 0.7190 0.7182 0.7176 0.7169 0.7162
2360.000000 0.7155 0.7148 0.7141 0.7134 0.7127
2365.000000 0.7121 0.7113 0.7105 0.7097 0.7088
2370.000000 0.7080 0.7071 0.7062 0.7053 0.7045
2375.000000 0.7037 0.7028 0.7020 0.7013 0.7005
2380.000000 0.6998 0.6990 0.6983 0.6976 0.6969
2385.000000 0.6961 0.6954 0.6947 0.6940 0.6935
2390.000000 0.6930 0.6926 0.6923 0.6919 0.6916
2395.000000 0.6913 0.6910 0.6906 0.6903 0.6900
2400.000000 0.6897 0.6893 0.6890 0.6888 0.6886
2405.000000 0.6884 0.6881 0.6879 0.6877 0.6874
2410.000000 0.6872 0.6870 0.6867 0.6865 0.6865
2415.000000 0.6865 0.6865 0.6866 0.6868 0.6869
2420.000000 0.6869 0.6871 0.6872 0.6873 0.6874
2425.000000 0.6874 0.6873 0.6872 0.6869 0.6865
2430.000000 0.6860 0.6854 0.6846 0.6829 0.6812
2435.000000 0.6794 0.6775 0.6755 0.6731 0.6707
2440.000000 0.6690 0.6672 0.6660 0.6650 0.6641
2445.000000 0.6631 0.6621 0.6612 0.6602 0.6594
2450.000000 0.6589 0.6583 0.6580 0.6577 0.6574
2455.000000 0.6571 0.6568 0.6565 0.6562 0.6559
2460.000000 0.6556 0.6554 0.6552 0.6551 0.6549
2465.000000 0.6548 0.6547 0.6546 0.6545 0.6544
2470.000000 0.6543 0.6542 0.6541 0.6540 0.6535
2475.000000 0.6530 0.6523 0.6516 0.6509 0.6502
2480.000000 0.6496 0.6493 0.6491 0.6489 0.6487
2485.000000 0.6485 0.6484 0.6483 0.6483 0.6483
2490.000000 0.6483 0.6483 0.6483 0.6483 0.6483
2495.000000 0.6483 0.6482 0.6482 0.6482 0.6482
2500.000000 0.6482 0.6481 0.6481 0.6481 0.6481
2505.000000 0.6481 0.6480 0.6480 0.6480 0.6480
2510.000000 0.6480 0.6479 0.6479 0.6479 0.6479
2515.000000 0.6479 0.6477 0.6476 0.6475 0.6474
2520.000000 0.6474 0.6473 0.6472 0.6471 0.6470
2525.000000 0.6469 0.6468 0.6467 0.6466 0.6465
2530.000000 0.6464 0.6463 0.6462 0.6460 0.6457
2535.000000 0.6454 0.6451 0.6448 0.6445 0.6442
2540.000000 0.6439 0.6436 0.6433 0.6430 0.6427
2545.000000 0.6424 0.6421 0.6418 0.6415 0.6411
2550.000000 0.6408 0.6405 0.6400 0.6396 0.6392
2555.000000 0.6388 0.6383 0.6379 0.6375 0.6371
2560.000000 0.6366 0.6361 0.6355 0.6347 0.6340
2565.000000 0.6333 0.6327 0.6320 0.6312 0.6305
2570.000000 0.6298 0.6291 0.6285 0.6277 0.6270
2575.000000 0.6263 0.6255 0.6247 0.6238 0.6229
2580.000000 0.6219 0.6210 0.6200 0.6190 0.6181
2585.000000 0.6171 0.6162 0.6152 0.6142 0.6133
2590.000000 0.6124 0.6114 0.6105 0.6096 0.6086
2595.000000 0.6077 0.6067 0.6057 0.6046 0.6036
2600.000000 0.6026 0.6016 0.6007 0.5998 0.5989
2605.000000 0.5985 0.5981 0.5978 0.5975 0.5972
2610.000000 0.5969 0.5966 0.5963 0.5959 0.5956
2615.000000 0.5953 0.5950 0.5948 0.5945 0.5944
2620.000000 0.5943 0.5942 0.5941 0.5940 0.5939
2625.000000 0.5938 0.5937 0.5936 0.5935 0.5934
2630.000000 0.5933 0.5932 0.5931 0.5930 0.5929
2635.000000 0.5928 0.5927 0.5927 0.5926 0.5924
2640.000000 0.5923 0.5919 0.5915 0.5911 0.5906
2645.000000 0.5900 0.5895 0.5889 0.5884 0.5876
2650.000000 0.5867 0.5859 0.5850 0.5841 0.5833
2655.000000 0.5824 0.5816 0.5807 0.5798 0.5790
2660.000000 0.5781 0.5772 0.5764 0.5755 0.5746
2665.000000 0.5738 0.5729 0.5720 0.5711 0.5703
2670.000000 0.5694 0.5685 0.5677 0.5668 0.5660
2675.000000 0.5651 0.5642 0.5633 0.5624 0.5615
2680.000000 0.5606 0.5597 0.5588 0.5579 0.5571
2685.000000 0.5562 0.5559 0.5557 0.5556 0.5554
2690.000000 0.5552 0.5551 0.5550 0.5548 0.5548
2695.000000 0.5549 0.5551 0.5553 0.5556 0.5560
2700.000000 0.5595 0.5570 0.5575 0.5581 0.5587
2705.000000 0.5593 0.5599 0.5604 0.5610 0.5616
2710.000000 0.5620 0.5625 0.5629 0.5632 0.5635
2715.000000 0.5638 0.5641 0.5644 0.5646 0.5646
2720.000000 0.5646 0.5646 0.5646 0.5646 0.5646
2725.000000 0.5646 0.5646 0.5645 0.5645 0.5645
2730.000000 0.5644 0.5643 0.5643 0.5641 0.5640
2735.000000 0.5639 0.5637 0.5636 0.5635 0.5633
2740.000000 0.5632 0.5631 0.5629 0.5628 0.5627
2745.000000 0.5625 0.5624 0.5622 0.5620 0.5617
2750.000000 0.5614 0.5612 0.5610 0.5607 0.5605
2755.000000 0.5602 0.5599 0.5597 0.5594 0.5592
2760.000000 0.5589 0.5586 0.5584 0.5581 0.5579
2765.000000 0.5577 0.5573 0.5567 0.5562 0.5556
2770.000000 0.5550 0.5544 0.5538 0.5533 0.5527
2775.000000 0.5522 0.5515 0.5509 0.5499 0.5481
2780.000000 0.5462 0.5442 0.5418 0.5393 0.5367
2785.000000 0.5307 0.5246 0.5186 0.5064 0.4939
2790.000000 0.4813 0.4687 0.4561 0.4436 0.4310
2795.000000 0.4185 0.4060 0.3935 0.3810 0.3685
2800.000000 0.3560 0.3435 0.3311 0.3186 0.3062
2805.000000 0.2937 0.2813 0.2689 0.2564 0.2440
2810.000000 0.2316 0.2193 0.2069 0.1945 0.1821
2815.000000 0.1698 0.1506 0.1284 0.1061 0.0939
2820.000000 0.0913 0.0887 0.0861 0.0835 0.0809
2825.000000 0.0784 0.0765 0.0746 0.0728 0.0712
2830.000000 0.0697 0.0682 0.0675 0.0671 0.0667
2835.000000 0.0662 0.0658 0.0654 0.0651 0.0649
2840.000000 0.0646 0.0644 0.0643 0.0642 0.0641
2845.000000 0.0640 0.0639 0.0638 0.0637 0.0636
2850.000000 0.0635 0.0634 0.0633 0.0632 0.0631
2855.000000 0.0630 0.0630 0.0629 0.0628 0.0627
2860.000000 0.0626 0.0625 0.0623 0.0622 0.0619
2865.000000 0.0614 0.0609 0.0604 0.0587 0.0570
2870.000000 0.0553 0.0541 0.0531 0.0521 0.0511
2875.000000 0.0501 0.0490 0.0481 0.0474 0.0467
2880.000000 0.0460 0.0454 0.0448 0.0442 0.0437
2885.000000 0.0433 0.0429 0.0425 0.0424 0.0422
2890.000000 0.0421 0.0420 0.0419 0.0419 0.0419
2895.000000 0.0420 0.0421 0.0423 0.0424 0.0424
2900.000000 0.0425 0.0426 0.0427 0.0428 0.0429
2905.000000 0.0431 0.0433 0.0436 0.0438 0.0440
2910.000000 0.0443 0.0445 0.0447 0.0450 0.0452
2915.000000 0.0456 0.0460 0.0464 0.0468 0.0472
2920.000000 0.0476 0.0480 0.0484 0.0488 0.0492
2925.000000 0.0496 0.0500 0.0505 0.0513 0.0524
2930.000000 0.0535 0.0545 0.0557 0.0569 0.0580
2935.000000 0.0602 0.0628 0.0653 0.0694 0.0775
2940.000000 0.0856 0.0937 0.1025 0.1114 0.1203
2945.000000 0.1291 0.1380 0.1469 0.1557 0.1646
2950.000000 0.1734 0.1823 0.1911 0.2000 0.2088
2955.000000 0.2176 0.2264 0.2352 0.2440 0.2528
2960.000000 0.2616 0.2704 0.2792 0.2880 0.2967
2965.000000 0.3055 0.3143 0.3230 0.3317 0.3405
2970.000000 0.3492 0.3579 0.3667 0.3754 0.3841
2975.000000 0.3928 0.4015 0.4069 0.4116 0.4163
2980.000000 0.4206 0.4236 0.4267 0.4298 0.4344
2985.000000 0.4397 0.4449 0.4502 0.4557 0.4611
2990.000000 0.4666 0.4721 0.4777 0.4833 0.4889
2995.000000 0.4951 0.5014 0.5076 0.5172 0.5318
3000.000000 0.5465 0.5611 0.5657 0.5678 0.5699
3005.000000 0.5721 0.5742 0.5763 0.5784 0.5804
3010.000000 0.5824 0.5844 0.5864 0.5882 0.5899
3015.000000 0.5917 0.5935 0.5953 0.5971 0.5989
3020.000000 0.6007 0.6024 0.6042 0.6060 0.6074
3025.000000 0.6089 0.6103 0.6117 0.6128 0.6139
3030.000000 0.6150 0.6161 0.6173 0.6184 0.6196
3035.000000 0.6207 0.6219 0.6230 0.6241 0.6252
3040.000000 0.6263 0.6274 0.6286 0.6297 0.6308
3045.000000 0.6320 0.6331 0.6342 0.6353 0.6364
3050.000000 0.6373 0.6383 0.6393 0.6402 0.6412
3055.000000 0.6422 0.6432 0.6442 0.6452 0.6462
3060.000000 0.6472 0.6482 0.6491 0.6501 0.6510
3065.000000 0.6517 0.6523 0.6529 0.6534 0.6538
3070.000000 0.6542 0.6546 0.6549 0.6553 0.6557
3075.000000 0.6560 0.6564 0.6568 0.6571 0.6575
3080.000000 0.6579 0.6583 0.6586 0.6589 0.6591
3085.000000 0.6594 0.6596 0.6597 0.6598 0.6599
3090.000000 0.6599 0.6600 0.6601 0.6602 0.6602
3095.000000 0.6603 0.6604 0.6604 0.6605 0.6605
3100.000000 0.6605 0.6605 0.6604 0.6603 0.6602
3105.000000 0.6601 0.6614 0.6599 0.6598 0.6597
3110.000000 0.6596 0.6595 0.6594 0.6593 0.6592
3115.000000 0.6591 0.6590 0.6589 0.6588 0.6587
3120.000000 0.6586 0.6586 0.6584 0.6583 0.6582
3125.000000 0.6581 0.6579 0.6577 0.6575 0.6573
3130.000000 0.6572 0.6570 0.6569 0.6567 0.6565
3135.000000 0.6564 0.6562 0.6560 0.6558 0.6557
3140.000000 0.6555 0.6553 0.6552 0.6550 0.6548
3145.000000 0.6547 0.6545 0.6543 0.6542 0.6540
3150.000000 0.6538 0.6537 0.6535 0.6534 0.6532
3155.000000 0.6530 0.6528 0.6527 0.6525 0.6523
3160.000000 0.6521 0.6520 0.6518 0.6517 0.6515
3165.000000 0.6514 0.6512 0.6510 0.6508 0.6506
3170.000000 0.6504 0.6501 0.6499 0.6496 0.6493
3175.000000 0.6490 0.6487 0.6484 0.6481 0.6478
3180.000000 0.6475 0.6472 0.6470 0.6467 0.6464
3185.000000 0.6461 0.6458 0.6455 0.6452 0.6449
3190.000000 0.6445 0.6441 0.6438 0.6434 0.6429
3195.000000 0.6424 0.6420 0.6415 0.6411 0.6406
3200.000000 0.6401 0.6397 0.6392 0.6387 0.6382
3205.000000 0.6377 0.6372 0.6368 0.6363 0.6359
3210.000000 0.6354 0.6349 0.6345 0.6340 0.6336
3215.000000 0.6331 0.6326 0.6322 0.6317 0.6312
3220.000000 0.6307 0.6303 0.6298 0.6293 0.6289
3225.000000 0.6284 0.6280 0.6275 0.6270 0.6266
3230.000000 0.6261 0.6256 0.6250 0.6245 0.6239
3235.000000 0.6234 0.6228 0.6223 0.6217 0.6212
3240.000000 0.6206 0.6201 0.6195 0.6190 0.6185
3245.000000 0.6179 0.6174 0.6168 0.6163 0.6157
3250.000000 0.6152 0.6146 0.6141 0.6135 0.6130
3255.000000 0.6125 0.6119 0.6114 0.6108 0.6103
3260.000000 0.6098 0.6092 0.6087 0.6081 0.6076
3265.000000 0.6069 0.6062 0.6056 0.6049 0.6041
3270.000000 0.6033 0.6025 0.6017 0.6008 0.6000
3275.000000 0.5992 0.5984 0.5976 0.5968 0.5959
3280.000000 0.5951 0.5943 0.5935 0.5927 0.5919
3285.000000 0.5911 0.5902 0.5893 0.5884 0.5876
3290.000000 0.5865 0.5853 0.5841 0.5828 0.5816
3295.000000 0.5804 0.5791 0.5779 0.5766 0.5754
3300.000000 0.5742 0.5729 0.5717 0.5704 0.5692
3305.000000 0.5680 0.5667 0.5655 0.5640 0.5625
3310.000000 0.5610 0.5595 0.5581 0.5566 0.5551
3315.000000 0.5536 0.5521 0.5506 0.5491 0.5476
3320.000000 0.5461 0.5441 0.5421 0.5401 0.5381
3325.000000 0.5360 0.5338 0.5317 0.5295 0.5273
3330.000000 0.5247 0.5221 0.5196 0.5170 0.5138
3335.000000 0.5103 0.5069 0.5034 0.4999 0.4964
3340.000000 0.4930 0.4895 0.4860 0.4825 0.4791
3345.000000 0.4756 0.4721 0.4687 0.4652 0.4618
3350.000000 0.4583 0.4549 0.4514 0.4480 0.4445
3355.000000 0.4411 0.4376 0.4342 0.4308 0.4273
3360.000000 0.4239 0.4205 0.4170 0.4136 0.4102
3365.000000 0.4068 0.4033 0.3999 0.3965 0.3931
3370.000000 0.3897 0.3863 0.3829 0.3794 0.3760
3375.000000 0.3726 0.3692 0.3658 0.3624 0.3590
3380.000000 0.3557 0.3523 0.3489 0.3456 0.3436
3385.000000 0.3417 0.3398 0.3379 0.3397 0.3371
3390.000000 0.3372 0.3374 0.3375 0.3447 0.3529
3395.000000 0.3611 0.3693 0.3775 0.3858 0.3941
3400.000000 0.4024 0.4107 0.4189 0.4272 0.4355
3405.000000 0.4437 0.4520 0.4602 0.4685 0.4767
3410.000000 0.4850 0.4932 0.5014 0.5096 0.5179
3415.000000 0.5261 0.5343 0.5425 0.5507 0.5590
3420.000000 0.5672 0.5754 0.5835 0.5917 0.5999
3425.000000 0.6096 0.6225 0.6353 0.6481 0.6609
3430.000000 0.6682 0.6724 0.6766 0.6808 0.6850
3435.000000 0.6879 0.6908 0.6937 0.6966 0.6992
3440.000000 0.7008 0.7024 0.7039 0.7055 0.7067
3445.000000 0.7076 0.7084 0.7092 0.7100 0.7107
3450.000000 0.7114 0.7120 0.7127 0.7133 0.7140
3455.000000 0.7146 0.7152 0.7158 0.7164 0.7168
3460.000000 0.7171 0.7175 0.7178 0.7182 0.7185
3465.000000 0.7189 0.7193 0.7196 0.7200 0.7204
3470.000000 0.7208 0.7212 0.7216 0.7220 0.7225
3475.000000 0.7230 0.7234 0.7239 0.7245 0.7251
3480.000000 0.7257 0.7262 0.7268 0.7275 0.7281
3485.000000 0.7287 0.7294 0.7300 0.7306 0.7313
3490.000000 0.7319 0.7326 0.7331 0.7335 0.7339
3495.000000 0.7343 0.7347 0.7351 0.7355 0.7358
3500.000000 0.7362 0.7365 0.7367 0.7368 0.7369
3505.000000 0.7370 0.7371 0.7371 0.7370 0.7370
3510.000000 0.7369 0.7369 0.7368 0.7367 0.7366
3515.000000 0.7365 0.7364 0.7362 0.7361 0.7360
3520.000000 0.7359 0.7358 0.7357 0.7356 0.7355
3525.000000 0.7354 0.7353 0.7352 0.7351 0.7350
3530.000000 0.7349 0.7348 0.7346 0.7345 0.7344
3535.000000 0.7343 0.7342 0.7341 0.7340 0.7339
3540.000000 0.7338 0.7337 0.7335 0.7334 0.7333
3545.000000 0.7332 0.7331 0.7329 0.7328 0.7326
3550.000000 0.7325 0.7324 0.7322 0.7321 0.7320
3555.000000 0.7318 0.7317 0.7315 0.7314 0.7313
3560.000000 0.7311 0.7310 0.7308 0.7307 0.7306
3565.000000 0.7304 0.7303 0.7303 0.7303 0.7304
3570.000000 0.7304 0.7304 0.7305 0.7305 0.7306
3575.000000 0.7306 0.7306 0.7307 0.7307 0.7307
3580.000000 0.7308 0.7308 0.7309 0.7310 0.7310
3585.000000 0.7311 0.7312 0.7313 0.7314 0.7315
3590.000000 0.7317 0.7318 0.7320 0.7321 0.7322
3595.000000 0.7324 0.7325 0.7326 0.7328 0.7329
3600.000000 0.7330 0.7332 0.7333 0.7335 0.7336
3605.000000 0.7338 0.7339 0.7341 0.7342 0.7344
3610.000000 0.7345 0.7347 0.7348 0.7350 0.7351
3615.000000 0.7353 0.7354 0.7355 0.7357 0.7357
3620.000000 0.7357 0.7358 0.7358 0.7358 0.7359
3625.000000 0.7359 0.7360 0.7360 0.7360 0.7361
3630.000000 0.7361 0.7361 0.7362 0.7362 0.7363
3635.000000 0.7363 0.7363 0.7363 0.7363 0.7363
3640.000000 0.7361 0.7361 0.7361 0.7360 0.7360
3645.000000 0.7359 0.7359 0.7358 0.7357 0.7357
3650.000000 0.7356 0.7355 0.7355 0.7354 0.7353
3655.000000 0.7352 0.7351 0.7350 0.7349 0.7348
3660.000000 0.7347 0.7346 0.7344 0.7343 0.7342
3665.000000 0.7340 0.7339 0.7338 0.7337 0.7336
3670.000000 0.7335 0.7334 0.7332 0.7331 0.7330
3675.000000 0.7329 0.7328 0.7327 0.7326 0.7325
3680.000000 0.7324 0.7322 0.7321 0.7319 0.7317
3685.000000 0.7315 0.7312 0.7310 0.7308 0.7305
3690.000000 0.7302 0.7299 0.7297 0.7294 0.7291
3695.000000 0.7288 0.7286 0.7283 0.7280 0.7278
3700.000000 0.7275 0.7272 0.7270 0.7267 0.7265
3705.000000 0.7263 0.7261 0.7259 0.7257 0.7255
3710.000000 0.7253 0.7251 0.7249 0.7247 0.7245
3715.000000 0.7243 0.7241 0.7239 0.7237 0.7235
3720.000000 0.7233 0.7232 0.7232 0.7232 0.7231
3725.000000 0.7231 0.7230 0.7230 0.7229 0.7229
3730.000000 0.7228 0.7228 0.7227 0.7227 0.7226
3735.000000 0.7226 0.7225 0.7224 0.7224 0.7223
3740.000000 0.7223 0.7222 0.7222 0.7221 0.7221
3745.000000 0.7221 0.7220 0.7220 0.7220 0.7219
3750.000000 0.7219 0.7218 0.7217 0.7217 0.7216
3755.000000 0.7216 0.7215 0.7215 0.7214 0.7214
3760.000000 0.7213 0.7213 0.7212 0.7212 0.7211
3765.000000 0.7211 0.7210 0.7210 0.7209 0.7209
3770.000000 0.7209 0.7208 0.7208 0.7207 0.7207
3775.000000 0.7206 0.7206 0.7205 0.7205 0.7204
3780.000000 0.7204 0.7203 0.7203 0.7202 0.7202
3785.000000 0.7201 0.7200 0.7200 0.7199 0.7199
3790.000000 0.7199 0.7198 0.7198 0.7198 0.7197
3795.000000 0.7197 0.7196 0.7196 0.7195 0.7195
3800.000000 0.7194 0.7194 0.7193 0.7193 0.7192
3805.000000 0.7192 0.7191 0.7191 0.7190 0.7190
3810.000000 0.7189 0.7188 0.7188 0.7188 0.7187
3815.000000 0.7187 0.7187 0.7186 0.7186 0.7185
3820.000000 0.7185 0.7184 0.7184 0.7182 0.7180
3825.000000 0.7177 0.7174 0.7171 0.7168 0.7165
3830.000000 0.7162 0.7159 0.7156 0.7153 0.7151
3835.000000 0.7148 0.7145 0.7142 0.7139 0.7136
3840.000000 0.7133 0.7130 0.7127 0.7125 0.7122
3845.000000 0.7119 0.7116 0.7113 0.7109 0.7105
3850.000000 0.7102 0.7098 0.7095 0.7090 0.7086
3855.000000 0.7081 0.7077 0.7072 0.7068 0.7063
3860.000000 0.7059 0.7054 0.7049 0.7045 0.7040
3865.000000 0.7036 0.7031 0.7027 0.7022 0.7018
3870.000000 0.7013 0.7009 0.7004 0.6999 0.6995
3875.000000 0.6990 0.6985 0.6981 0.6976 0.6972
3880.000000 0.6967 0.6963 0.6958 0.6954 0.6949
3885.000000 0.6945 0.6941 0.6936 0.6932 0.6927
3890.000000 0.6922 0.6918 0.6913 0.6908 0.6904
3895.000000 0.6899 0.6895 0.6890 0.6885 0.6881
3900.000000 0.6876 0.6872 0.6867 0.6862 0.6858
3905.000000 0.6853 0.6849 0.6844 0.6839 0.6835
3910.000000 0.6830 0.6826 0.6821 0.6819 0.6817
3915.000000 0.6816 0.6814 0.6813 0.6811 0.6810
3920.000000 0.6808 0.6807 0.6805 0.6804 0.6802
3925.000000 0.6801 0.6799 0.6798 0.6796 0.6794
3930.000000 0.6793 0.6791 0.6790 0.6788 0.6787
3935.000000 0.6785 0.6784 0.6783 0.6781 0.6779
3940.000000 0.6778 0.6776 0.6774 0.6773 0.6771
3945.000000 0.6770 0.6768 0.6767 0.6766 0.6764
3950.000000 0.6762 0.6760 0.6758 0.6756 0.6753
3955.000000 0.6751 0.6749 0.6747 0.6744 0.6742
3960.000000 0.6740 0.6738 0.6735 0.6733 0.6731
3965.000000 0.6729 0.6727 0.6724 0.6722 0.6719
3970.000000 0.6716 0.6712 0.6709 0.6706 0.6702
3975.000000 0.6699 0.6696 0.6693 0.6690 0.6686
3980.000000 0.6683 0.6680 0.6677 0.6674 0.6670
3985.000000 0.6667 0.6664 0.6660 0.6657 0.6653
3990.000000 0.6649 0.6645 0.6641 0.6637 0.6633
3995.000000 0.6629 0.6625 0.6621 0.6617 0.6613
4000.000000 0.6610
##END=
