##TITLE=HYPOXANTHINE-7-ETHANOL, Alpha-ACETATE
##JCAMP-DX=4.24
##DATA TYPE=INFRARED SPECTRUM
##CLASS=COBLENTZ III
##ORIGIN=SOUTHERN RESEARCH INSTITUTE
##OWNER=COBLENTZ SOCIETY
Collection (C) 2018 copyright by the U.S. Secretary of Commerce
on behalf of the United States of America. All rights reserved.
##DATE=1964/06/26
##NAMES=2-(6-oxo-1,6-dihydro-7H-purin-7-yl)ethyl acetate
##MOLFORM=C9 H10 N4 O3
##SOURCE REFERENCE=COBLENTZ NO. 8015
##$NIST ID=B6008015
##$NIST SOURCE=COBLENTZ
##$NIST IMAGE=cob8015
##SPECTROMETER/DATA SYSTEM=PERKIN-ELMER 221 (GRATING)
##INSTRUMENT PARAMETERS=FILTER AT 980 CM^-^1. GRATING 4000-1428 CM^-^1, NaCl PRISM 1428-650 CM^-^1
##STATE=SOLID (1 mg / 650 mg KBr DISC)
$$SPECTRAL CONTAMINATION DUE TO H2O AROUND 3450 CM^-^1
##SAMPLING PROCEDURE=TRANSMISSION
##RESOLUTION=2
##DATA PROCESSING=DIGITIZED BY NIST FROM HARD COPY (FROM TWO SEGMENTS)
##XUNITS=1/CM
##YUNITS=TRANSMITTANCE
##XFACTOR=1.000000
##YFACTOR=1
##DELTAX=1.287554
##FIRSTX=606.494
##LASTX=4018.51
##FIRSTY=0.776
##MAXX=4018.51
##MINX=606.494
##MAXY=0.882
##MINY=0.0537804
##NPOINTS=2651
##XYDATA=(X++(Y..Y))
606.494000 0.7760 0.7740 0.7730 0.7720 0.7682
612.931770 0.7604 0.7487 0.7209 0.6922 0.6818
619.369540 0.6801 0.6809 0.6837 0.7309 0.7484
625.807310 0.7587 0.7626 0.7638 0.7648 0.7675
632.245080 0.7796 0.7894 0.8145 0.8376 0.8491
638.682850 0.8572 0.8598 0.8600 0.8608 0.8610
645.120620 0.8610 0.8625 0.8637 0.8640 0.8640
651.558390 0.8640 0.8640 0.8640 0.8640 0.8640
657.996160 0.8640 0.8634 0.8630 0.8617 0.8604
664.433930 0.8588 0.8556 0.8493 0.8425 0.8286
670.871700 0.8104 0.7918 0.7626 0.7449 0.7445
677.309470 0.7481 0.7649 0.8032 0.8369 0.8523
683.747240 0.8628 0.8694 0.8725 0.8735 0.8740
690.185010 0.8740 0.8736 0.8726 0.8712 0.8692
696.622780 0.8668 0.8650 0.8650 0.8657 0.8670
703.060550 0.8674 0.8683 0.8690 0.8693 0.8713
709.498320 0.8749 0.8776 0.8796 0.8810 0.8813
715.936090 0.8820 0.8820 0.8820 0.8820 0.8818
722.373860 0.8810 0.8806 0.8788 0.8770 0.8728
728.811630 0.8707 0.8595 0.8307 0.8169 0.8039
735.249400 0.7967 0.7951 0.8003 0.8321 0.8420
741.687170 0.8520 0.8618 0.8702 0.8720 0.8720
748.124940 0.8720 0.8730 0.8730 0.8730 0.8730
754.562710 0.8730 0.8730 0.8730 0.8730 0.8720
761.000480 0.8720 0.8720 0.8720 0.8692 0.8681
767.438250 0.8671 0.8670 0.8652 0.8641 0.8613
773.876020 0.8601 0.8583 0.8563 0.8500 0.8473
780.313790 0.8302 0.7964 0.7597 0.7214 0.6604
786.751560 0.5933 0.5766 0.7352 0.7893 0.8133
793.189330 0.8290 0.8350 0.8426 0.8457 0.8460
799.627100 0.8460 0.8460 0.8460 0.8460 0.8460
806.064870 0.8453 0.8450 0.8450 0.8437 0.8430
812.502640 0.8430 0.8424 0.8414 0.8410 0.8404
818.940410 0.8400 0.8389 0.8380 0.8352 0.8292
825.378180 0.8223 0.8185 0.8190 0.8210 0.8245
831.815950 0.8295 0.8335 0.8355 0.8360 0.8365
838.253720 0.8370 0.8370 0.8366 0.8360 0.8356
844.691490 0.8350 0.8342 0.8322 0.8299 0.8265
851.129260 0.8233 0.8209 0.8186 0.8180 0.8177
857.567030 0.8157 0.8117 0.8078 0.8044 0.8021
864.004800 0.7997 0.7985 0.7967 0.7960 0.7948
870.442570 0.7898 0.7853 0.7823 0.7796 0.7776
876.880340 0.7752 0.7711 0.7661 0.7617 0.7598
883.318110 0.7588 0.7580 0.7580 0.7580 0.7580
889.755880 0.7577 0.7549 0.7534 0.7475 0.7415
896.193650 0.7357 0.7308 0.7280 0.7269 0.7251
902.631420 0.7307 0.7691 0.7821 0.7950 0.8059
909.069190 0.8187 0.8219 0.8220 0.8230 0.8230
915.506960 0.8239 0.8240 0.8231 0.8221 0.8184
921.944730 0.8144 0.8105 0.7934 0.7737 0.7453
928.382500 0.7393 0.7398 0.7408 0.7584 0.7841
934.820270 0.8173 0.8312 0.8369 0.8442 0.8506
941.258040 0.8550 0.8575 0.8587 0.8597 0.8600
947.695810 0.8607 0.8610 0.8610 0.8624 0.8630
954.133580 0.8630 0.8630 0.8617 0.8610 0.8604
960.571350 0.8594 0.8584 0.8580 0.8556 0.8516
967.009120 0.8476 0.8454 0.8427 0.8376 0.8339
973.446890 0.8324 0.8315 0.8299 0.8274 0.8260
979.884660 0.8225 0.8165 0.8116 0.8003 0.7881
986.322430 0.7813 0.7756 0.7753 0.7792 0.7854
992.760200 0.7954 0.8091 0.8212 0.8272 0.8302
999.197970 0.8335 0.8364 0.8381 0.8404 0.8410
1005.635740 0.8410 0.8407 0.8394 0.8377 0.8358
1012.073510 0.8324 0.8301 0.8269 0.8227 0.8185
1018.511280 0.8163 0.8135 0.8111 0.8073 0.8039
1024.949050 0.7990 0.7938 0.7873 0.7735 0.7426
1031.386820 0.7347 0.7269 0.7166 0.6835 0.6378
1037.824590 0.5966 0.5939 0.5931 0.5941 0.5994
1044.262360 0.6486 0.6694 0.6907 0.7033 0.7091
1050.700130 0.7313 0.7402 0.7492 0.7581 0.7710
1057.137900 0.7948 0.7950 0.7950 0.7950 0.7940
1063.575670 0.7911 0.7863 0.7823 0.7783 0.7634
1070.013440 0.7421 0.7320 0.7222 0.6706 0.6631
1076.451210 0.6639 0.7214 0.7268 0.7201 0.6975
1082.888980 0.6905 0.6908 0.7278 0.7442 0.7610
1089.326750 0.7736 0.7791 0.7823 0.7853 0.7867
1095.764520 0.7907 0.7956 0.8013 0.8073 0.8189
1102.202290 0.8237 0.8254 0.8260 0.8267 0.8277
1108.640060 0.8280 0.8280 0.8280 0.8280 0.8274
1115.077830 0.8270 0.8264 0.8248 0.8228 0.8197
1121.515600 0.8180 0.8174 0.8159 0.8118 0.8074
1127.953370 0.8034 0.8000 0.7975 0.7960 0.7960
1134.391140 0.7955 0.7950 0.7950 0.7945 0.7931
1140.828910 0.7916 0.7893 0.7853 0.7752 0.7576
1147.266680 0.7414 0.7242 0.6908 0.6475 0.6319
1153.704450 0.6150 0.6033 0.6027 0.6498 0.7548
1160.142220 0.7789 0.7912 0.8008 0.8194 0.8238
1166.579990 0.8263 0.8270 0.8272 0.8280 0.8280
1173.017760 0.8280 0.8282 0.8288 0.8278 0.8264
1179.455530 0.8236 0.8213 0.8178 0.8167 0.8147
1185.893300 0.8129 0.8120 0.8110 0.8023 0.7959
1192.331070 0.7946 0.7905 0.7843 0.7752 0.7632
1198.768840 0.7494 0.7357 0.7268 0.7177 0.6986
1205.206610 0.6758 0.6540 0.6411 0.6273 0.5989
1211.644380 0.5711 0.5567 0.5409 0.5158 0.4935
1218.082150 0.4754 0.4630 0.4557 0.4487 0.4418
1224.519920 0.4034 0.3919 0.3884 0.3863 0.3877
1230.957690 0.3905 0.4224 0.4871 0.5154 0.5190
1237.395460 0.5080 0.4995 0.4803 0.4575 0.4384
1243.833230 0.4190 0.3984 0.3542 0.3010 0.2831
1250.271000 0.2820 0.3396 0.3801 0.3924 0.3950
1256.708770 0.3970 0.4006 0.4033 0.4206 0.4582
1263.146540 0.4880 0.5076 0.5383 0.5670 0.5895
1269.584310 0.6361 0.6750 0.6918 0.6986 0.6941
1276.022080 0.6847 0.6763 0.6699 0.6630 0.6585
1282.459850 0.6585 0.6605 0.6948 0.7417 0.7640
1288.897620 0.7849 0.8021 0.8134 0.8184 0.8194
1295.335390 0.8212 0.8234 0.8248 0.8260 0.8260
1301.773160 0.8253 0.8236 0.8227 0.8213 0.8193
1308.210930 0.8180 0.8177 0.8164 0.8144 0.8116
1314.648700 0.8069 0.8027 0.7980 0.7938 0.7890
1321.086470 0.7829 0.7687 0.7483 0.7226 0.6996
1327.524240 0.6828 0.6450 0.6060 0.5653 0.5297
1333.962010 0.5307 0.5497 0.5810 0.6450 0.6826
1340.399780 0.6968 0.7126 0.7177 0.7133 0.7042
1346.837550 0.6919 0.6753 0.6637 0.6578 0.6530
1353.275320 0.6519 0.6488 0.6270 0.6062 0.5991
1359.713090 0.5569 0.5356 0.5158 0.4798 0.4413
1366.150860 0.4278 0.4196 0.4190 0.5409 0.6353
1372.588630 0.6468 0.6470 0.6453 0.6415 0.6367
1379.026400 0.6309 0.6183 0.6152 0.6134 0.6130
1385.464170 0.6130 0.6130 0.6122 0.6089 0.5926
1391.901940 0.5568 0.5402 0.5313 0.5151 0.5086
1398.339710 0.5094 0.5164 0.5513 0.6933 0.7582
1404.777480 0.7620 0.7600 0.7538 0.7407 0.7318
1411.215250 0.7256 0.7217 0.7210 0.7210 0.7210
1417.653020 0.7198 0.7184 0.7174 0.7153 0.7140
1424.090790 0.7102 0.7027 0.6868 0.6718 0.6654
1430.528560 0.6539 0.6307 0.6015 0.5727 0.5445
1436.966330 0.5193 0.5075 0.5074 0.5399 0.6066
1443.404100 0.6435 0.6552 0.6670 0.6666 0.6649
1449.841870 0.6623 0.6592 0.6517 0.6412 0.6278
1456.279640 0.6040 0.5828 0.5717 0.5713 0.5908
1462.717410 0.6417 0.6654 0.7057 0.7497 0.7531
1469.155180 0.7682 0.7801 0.7888 0.7961 0.8008
1475.592950 0.8044 0.8064 0.8082 0.8092 0.8103
1482.030720 0.8120 0.8122 0.8130 0.8130 0.8130
1488.468490 0.8127 0.8098 0.8077 0.8044 0.7984
1494.906260 0.7916 0.7855 0.7772 0.7627 0.7565
1501.344030 0.7439 0.7410 0.7422 0.7530 0.7550
1507.781800 0.7599 0.7590 0.7571 0.7368 0.7151
1514.219570 0.6914 0.6552 0.6400 0.6316 0.6246
1520.657340 0.5996 0.5943 0.5967 0.6871 0.7234
1527.095110 0.7475 0.7920 0.7990 0.7990 0.7990
1533.532880 0.7974 0.7728 0.7606 0.7543 0.7514
1539.970650 0.7510 0.7525 0.7606 0.7705 0.7804
1546.408420 0.7910 0.8149 0.8230 0.8230 0.8230
1552.846190 0.8223 0.8220 0.8193 0.8173 0.8157
1559.283960 0.8118 0.8100 0.8094 0.8084 0.8068
1565.721730 0.8054 0.8050 0.8026 0.7975 0.7876
1572.159500 0.7775 0.7690 0.7607 0.7506 0.7393
1578.597270 0.7299 0.7214 0.7075 0.6852 0.6580
1585.035040 0.6345 0.6162 0.5860 0.5509 0.5252
1591.472810 0.4981 0.4812 0.4796 0.4794 0.4923
1597.910580 0.5339 0.5810 0.6212 0.6698 0.6925
1604.348350 0.7096 0.7340 0.7460 0.7572 0.7640
1610.786120 0.7637 0.7627 0.7620 0.7601 0.7534
1617.223890 0.7490 0.7483 0.7455 0.7431 0.7393
1623.661660 0.7363 0.7328 0.7276 0.7254 0.7217
1630.099430 0.7148 0.7084 0.7048 0.7039 0.7029
1636.537200 0.7020 0.7016 0.6987 0.6958 0.6937
1642.974970 0.6907 0.6866 0.6816 0.6756 0.6692
1649.412740 0.6553 0.6398 0.6338 0.6259 0.6210
1655.850510 0.6160 0.6130 0.6081 0.5992 0.5971
1662.288280 0.5855 0.5727 0.5607 0.5526 0.5437
1668.726050 0.5248 0.4987 0.4600 0.4194 0.3850
1675.163820 0.3496 0.3070 0.2643 0.2360 0.2078
1681.601590 0.1914 0.1776 0.1506 0.1216 0.1048
1688.039360 0.0910 0.0802 0.0695 0.0602 0.0565
1694.477130 0.0538 0.0552 0.0567 0.0700 0.0970
1700.914900 0.1263 0.1758 0.2138 0.2681 0.3763
1707.352670 0.4233 0.4617 0.5000 0.5379 0.5653
1713.790440 0.5819 0.5959 0.6076 0.6378 0.6658
1720.228210 0.6730 0.6724 0.6720 0.6687 0.6590
1726.665980 0.6456 0.6354 0.6284 0.5979 0.5444
1733.103750 0.5122 0.5018 0.4923 0.4755 0.4483
1739.541520 0.4174 0.3806 0.3397 0.2959 0.2503
1745.979290 0.2043 0.1721 0.3277 0.5953 0.6092
1752.417060 0.6191 0.6304 0.6534 0.6742 0.6972
1758.854830 0.7054 0.7184 0.7334 0.7405 0.7457
1765.292600 0.7511 0.7551 0.7590 0.7625 0.7647
1771.730370 0.7679 0.7714 0.7736 0.7768 0.7804
1778.168140 0.7826 0.7854 0.7870 0.7875 0.7901
1784.605910 0.7910 0.7911 0.7920 0.7920 0.7919
1791.043680 0.7910 0.7909 0.7899 0.7890 0.7890
1797.481450 0.7890 0.7890 0.7890 0.7890 0.7900
1803.919220 0.7910 0.7940 0.7950 0.7960 0.7970
1810.356990 0.7989 0.8000 0.8009 0.8029 0.8058
1816.794760 0.8060 0.8115 0.8129 0.8139 0.8167
1823.232530 0.8170 0.8187 0.8199 0.8217 0.8229
1829.670300 0.8238 0.8257 0.8260 0.8268 0.8278
1836.108070 0.8288 0.8306 0.8310 0.8318 0.8328
1842.545840 0.8345 0.8350 0.8357 0.8367 0.8377
1848.983610 0.8394 0.8407 0.8417 0.8427 0.8430
1855.421380 0.8430 0.8430 0.8430 0.8430 0.8430
1861.859150 0.8430 0.8430 0.8430 0.8430 0.8430
1868.296920 0.8430 0.8430 0.8430 0.8430 0.8441
1874.734690 0.8450 0.8450 0.8450 0.8455 0.8460
1881.172460 0.8460 0.8460 0.8465 0.8470 0.8470
1887.610230 0.8470 0.8470 0.8470 0.8470 0.8470
1894.048000 0.8470 0.8470 0.8470 0.8470 0.8470
1900.485770 0.8470 0.8470 0.8470 0.8470 0.8470
1906.923540 0.8470 0.8470 0.8470 0.8470 0.8467
1913.361310 0.8460 0.8460 0.8460 0.8460 0.8460
1919.799080 0.8460 0.8460 0.8460 0.8460 0.8460
1926.236850 0.8458 0.8450 0.8450 0.8450 0.8447
1932.674620 0.8430 0.8430 0.8429 0.8420 0.8420
1939.112390 0.8419 0.8410 0.8409 0.8400 0.8400
1945.550160 0.8399 0.8380 0.8380 0.8381 0.8400
1951.987930 0.8410 0.8410 0.8420 0.8430 0.8450
1958.425700 0.8460 0.8470 0.8489 0.8500 0.8509
1964.863470 0.8519 0.8539 0.8540 0.8540 0.8540
1971.301240 0.8549 0.8550 0.8550 0.8550 0.8559
1977.739010 0.8551 0.8550 0.8542 0.8548 0.8550
1984.176780 0.8550 0.8550 0.8550 0.8550 0.8550
1990.614550 0.8550 0.8550 0.8557 0.8560 0.8560
1997.052320 0.8560 0.8560 0.8560 0.8560 0.8560
2003.490090 0.8560 0.8560 0.8560 0.8560 0.8560
2009.927860 0.8560 0.8560 0.8560 0.8560 0.8560
2016.365630 0.8560 0.8560 0.8560 0.8560 0.8560
2022.803400 0.8560 0.8560 0.8560 0.8560 0.8553
2029.241170 0.8550 0.8550 0.8550 0.8550 0.8550
2035.678940 0.8557 0.8560 0.8560 0.8560 0.8560
2042.116710 0.8560 0.8560 0.8560 0.8560 0.8560
2048.554480 0.8560 0.8560 0.8560 0.8560 0.8560
2054.992250 0.8560 0.8560 0.8560 0.8553 0.8550
2061.430020 0.8550 0.8550 0.8550 0.8550 0.8550
2067.867790 0.8550 0.8550 0.8550 0.8550 0.8550
2074.305560 0.8550 0.8550 0.8550 0.8550 0.8550
2080.743330 0.8550 0.8550 0.8557 0.8560 0.8560
2087.181100 0.8560 0.8560 0.8560 0.8560 0.8560
2093.618870 0.8560 0.8560 0.8560 0.8560 0.8560
2100.056640 0.8560 0.8560 0.8560 0.8560 0.8560
2106.494410 0.8560 0.8574 0.8580 0.8580 0.8580
2112.932180 0.8580 0.8580 0.8580 0.8580 0.8580
2119.369950 0.8580 0.8580 0.8580 0.8580 0.8580
2125.807720 0.8580 0.8580 0.8580 0.8580 0.8580
2132.245490 0.8580 0.8580 0.8580 0.8580 0.8580
2138.683260 0.8580 0.8580 0.8580 0.8580 0.8580
2145.121030 0.8587 0.8590 0.8590 0.8590 0.8590
2151.558800 0.8590 0.8590 0.8590 0.8590 0.8590
2157.996570 0.8590 0.8590 0.8590 0.8590 0.8590
2164.434340 0.8590 0.8590 0.8590 0.8590 0.8590
2170.872110 0.8590 0.8590 0.8590 0.8590 0.8590
2177.309880 0.8590 0.8590 0.8590 0.8590 0.8590
2183.747650 0.8590 0.8590 0.8590 0.8590 0.8590
2190.185420 0.8590 0.8590 0.8590 0.8590 0.8590
2196.623190 0.8590 0.8590 0.8590 0.8590 0.8590
2203.060960 0.8590 0.8590 0.8590 0.8590 0.8590
2209.498730 0.8590 0.8590 0.8590 0.8590 0.8590
2215.936500 0.8590 0.8590 0.8590 0.8590 0.8590
2222.374270 0.8590 0.8590 0.8590 0.8590 0.8590
2228.812040 0.8583 0.8580 0.8580 0.8580 0.8580
2235.249810 0.8580 0.8580 0.8580 0.8580 0.8580
2241.687580 0.8580 0.8587 0.8590 0.8590 0.8590
2248.125350 0.8583 0.8580 0.8580 0.8580 0.8580
2254.563120 0.8580 0.8580 0.8580 0.8566 0.8560
2261.000890 0.8560 0.8560 0.8560 0.8560 0.8553
2267.438660 0.8550 0.8550 0.8550 0.8550 0.8550
2273.876430 0.8550 0.8550 0.8550 0.8550 0.8543
2280.314200 0.8540 0.8540 0.8540 0.8540 0.8540
2286.751970 0.8526 0.8520 0.8520 0.8520 0.8520
2293.189740 0.8513 0.8510 0.8510 0.8510 0.8510
2299.627510 0.8510 0.8510 0.8510 0.8510 0.8510
2306.065280 0.8503 0.8500 0.8500 0.8500 0.8500
2312.503050 0.8493 0.8490 0.8490 0.8490 0.8490
2318.940820 0.8476 0.8470 0.8470 0.8470 0.8470
2325.378590 0.8463 0.8460 0.8460 0.8453 0.8450
2331.816360 0.8450 0.8450 0.8450 0.8450 0.8450
2338.254130 0.8450 0.8450 0.8450 0.8450 0.8450
2344.691900 0.8450 0.8436 0.8430 0.8430 0.8430
2351.129670 0.8430 0.8430 0.8430 0.8423 0.8420
2357.567440 0.8420 0.8420 0.8420 0.8420 0.8413
2364.005210 0.8410 0.8410 0.8410 0.8410 0.8410
2370.442980 0.8403 0.8400 0.8400 0.8400 0.8400
2376.880750 0.8400 0.8400 0.8386 0.8380 0.8380
2383.318520 0.8380 0.8380 0.8380 0.8380 0.8380
2389.756290 0.8380 0.8380 0.8380 0.8380 0.8380
2396.194060 0.8380 0.8380 0.8380 0.8380 0.8380
2402.631830 0.8380 0.8380 0.8373 0.8370 0.8370
2409.069600 0.8370 0.8370 0.8370 0.8363 0.8360
2415.507370 0.8360 0.8360 0.8360 0.8353 0.8350
2421.945140 0.8350 0.8350 0.8350 0.8350 0.8336
2428.382910 0.8330 0.8330 0.8323 0.8320 0.8320
2434.820680 0.8320 0.8320 0.8320 0.8320 0.8320
2441.258450 0.8313 0.8310 0.8310 0.8310 0.8310
2447.696220 0.8296 0.8290 0.8304 0.8310 0.8310
2454.133990 0.8296 0.8290 0.8290 0.8283 0.8280
2460.571760 0.8280 0.8280 0.8280 0.8280 0.8280
2467.009530 0.8280 0.8280 0.8280 0.8280 0.8280
2473.447300 0.8280 0.8280 0.8280 0.8280 0.8280
2479.885070 0.8280 0.8280 0.8280 0.8280 0.8273
2486.322840 0.8270 0.8263 0.8260 0.8260 0.8246
2492.760610 0.8233 0.8230 0.8209 0.8200 0.8200
2499.198380 0.8200 0.8200 0.8200 0.8200 0.8200
2505.636150 0.8193 0.8190 0.8183 0.8180 0.8180
2512.073920 0.8180 0.8180 0.8180 0.8173 0.8170
2518.511690 0.8170 0.8170 0.8156 0.8150 0.8150
2524.949460 0.8150 0.8143 0.8140 0.8133 0.8130
2531.387230 0.8130 0.8130 0.8123 0.8120 0.8120
2537.825000 0.8106 0.8100 0.8093 0.8090 0.8062
2544.262770 0.8036 0.8030 0.8016 0.8010 0.8003
2550.700540 0.8000 0.7993 0.7976 0.7963 0.7953
2557.138310 0.7943 0.7926 0.7906 0.7879 0.7870
2563.576080 0.7870 0.7870 0.7870 0.7870 0.7870
2570.013850 0.7863 0.7860 0.7860 0.7860 0.7860
2576.451620 0.7860 0.7860 0.7853 0.7850 0.7850
2582.889390 0.7850 0.7850 0.7850 0.7836 0.7823
2589.327160 0.7820 0.7806 0.7772 0.7739 0.7716
2595.764930 0.7696 0.7676 0.7656 0.7636 0.7623
2602.202700 0.7606 0.7600 0.7593 0.7583 0.7580
2608.640470 0.7573 0.7570 0.7549 0.7540 0.7540
2615.078240 0.7540 0.7540 0.7540 0.7547 0.7564
2621.516010 0.7570 0.7577 0.7587 0.7590 0.7597
2627.953780 0.7614 0.7627 0.7630 0.7630 0.7630
2634.391550 0.7630 0.7630 0.7630 0.7623 0.7620
2640.829320 0.7606 0.7600 0.7600 0.7600 0.7600
2647.267090 0.7600 0.7600 0.7593 0.7583 0.7580
2653.704860 0.7573 0.7556 0.7550 0.7536 0.7530
2660.142630 0.7516 0.7496 0.7483 0.7480 0.7466
2666.580400 0.7460 0.7453 0.7450 0.7443 0.7440
2673.018170 0.7440 0.7440 0.7440 0.7440 0.7447
2679.455940 0.7450 0.7450 0.7457 0.7460 0.7460
2685.893710 0.7460 0.7460 0.7460 0.7460 0.7453
2692.331480 0.7450 0.7422 0.7396 0.7362 0.7350
2698.769250 0.7343 0.7326 0.7320 0.7313 0.7310
2705.207020 0.7303 0.7286 0.7280 0.7273 0.7270
2711.644790 0.7270 0.7270 0.7263 0.7260 0.7253
2718.082560 0.7250 0.7236 0.7216 0.7217 0.7213
2724.520330 0.7189 0.7166 0.7146 0.7126 0.7106
2730.958100 0.7093 0.7083 0.7073 0.7070 0.7056
2737.395870 0.7050 0.7043 0.7040 0.7033 0.7030
2743.833640 0.7023 0.7006 0.7000 0.7000 0.6993
2750.271410 0.6990 0.6983 0.6966 0.6960 0.6960
2756.709180 0.6960 0.6960 0.6960 0.6960 0.6953
2763.146950 0.6950 0.6943 0.6933 0.6916 0.6903
2769.584720 0.6893 0.6876 0.6863 0.6853 0.6829
2776.022490 0.6813 0.6796 0.6776 0.6756 0.6736
2782.460260 0.6716 0.6703 0.6686 0.6666 0.6646
2788.898030 0.6626 0.6599 0.6576 0.6563 0.6546
2795.335800 0.6533 0.6509 0.6493 0.6483 0.6480
2801.773570 0.6473 0.6456 0.6436 0.6416 0.6396
2808.211340 0.6383 0.6359 0.6329 0.6306 0.6257
2814.649110 0.6212 0.6179 0.6142 0.6102 0.6076
2821.086880 0.6042 0.6016 0.5989 0.5973 0.5949
2827.524650 0.5933 0.5923 0.5906 0.5900 0.5893
2833.962420 0.5883 0.5880 0.5866 0.5860 0.5853
2840.400190 0.5843 0.5840 0.5840 0.5840 0.5840
2846.837960 0.5840 0.5833 0.5830 0.5830 0.5830
2853.275730 0.5830 0.5830 0.5830 0.5830 0.5830
2859.713500 0.5830 0.5837 0.5840 0.5847 0.5850
2866.151270 0.5857 0.5860 0.5860 0.5881 0.5897
2872.589040 0.5914 0.5927 0.5937 0.5947 0.5978
2879.026810 0.6011 0.6034 0.6068 0.6108 0.6177
2885.464580 0.6264 0.6339 0.6374 0.6387 0.6397
2891.902350 0.6407 0.6424 0.6430 0.6437 0.6447
2898.340120 0.6471 0.6494 0.6514 0.6527 0.6537
2904.777890 0.6554 0.6567 0.6577 0.6587 0.6604
2911.215660 0.6624 0.6630 0.6630 0.6623 0.6620
2917.653430 0.6592 0.6573 0.6535 0.6506 0.6500
2924.091200 0.6486 0.6473 0.6449 0.6419 0.6375
2930.528970 0.6353 0.6329 0.6299 0.6255 0.6219
2936.966740 0.6189 0.6173 0.6163 0.6124 0.6082
2943.404510 0.6042 0.6002 0.5976 0.5956 0.5943
2949.842280 0.5933 0.5923 0.5906 0.5900 0.5886
2956.280050 0.5859 0.5822 0.5768 0.5743 0.5747
2962.717820 0.5778 0.5882 0.5998 0.6122 0.6302
2969.155590 0.6410 0.6437 0.6447 0.6528 0.6574
2975.593360 0.6566 0.6532 0.6499 0.6454 0.6405
2982.031130 0.6383 0.6366 0.6360 0.6353 0.6371
2988.468900 0.6394 0.6421 0.6444 0.6464 0.6470
2994.906670 0.6477 0.6480 0.6480 0.6473 0.6470
3001.344440 0.6456 0.6443 0.6433 0.6416 0.6403
3007.782210 0.6400 0.6393 0.6383 0.6380 0.6380
3014.219980 0.6380 0.6366 0.6360 0.6360 0.6353
3020.657750 0.6343 0.6319 0.6282 0.6263 0.6253
3027.095520 0.6243 0.6226 0.6192 0.6166 0.6125
3033.533290 0.6096 0.6055 0.5990 0.5906 0.5795
3039.971060 0.5682 0.5565 0.5495 0.5444 0.5366
3046.408830 0.5297 0.5245 0.5216 0.5203 0.5207
3052.846600 0.5231 0.5275 0.5425 0.5551 0.5665
3059.284370 0.5757 0.5830 0.5878 0.5911 0.5941
3065.722140 0.5978 0.5983 0.5973 0.5956 0.5914
3072.159910 0.5822 0.5705 0.5599 0.5506 0.5473
3078.597680 0.5449 0.5398 0.5345 0.5302 0.5247
3085.035450 0.5173 0.4959 0.4816 0.4698 0.4568
3091.473220 0.4516 0.4517 0.4619 0.4781 0.4951
3097.910990 0.5106 0.5249 0.5460 0.5615 0.5714
3104.348760 0.5789 0.5824 0.5837 0.5840 0.5819
3110.786530 0.5796 0.5769 0.5760 0.5774 0.5794
3117.224300 0.5807 0.5873 0.5928 0.5976 0.6025
3123.662070 0.6075 0.6140 0.6195 0.6252 0.6355
3130.099840 0.6425 0.6475 0.6525 0.6561 0.6584
3136.537610 0.6590 0.6604 0.6617 0.6620 0.6620
3142.975380 0.6620 0.6620 0.6620 0.6620 0.6627
3149.413150 0.6630 0.6630 0.6637 0.6640 0.6640
3155.850920 0.6654 0.6660 0.6667 0.6677 0.6680
3162.288690 0.6708 0.6755 0.6805 0.6848 0.6860
3168.726460 0.6881 0.6897 0.6907 0.6931 0.6940
3175.164230 0.6947 0.6957 0.6960 0.6974 0.6987
3181.602000 0.6990 0.6997 0.7028 0.7068 0.7087
3188.039770 0.7097 0.7114 0.7127 0.7137 0.7154
3194.477540 0.7174 0.7180 0.7187 0.7204 0.7210
3200.915310 0.7217 0.7220 0.7227 0.7230 0.7230
3207.353080 0.7230 0.7244 0.7271 0.7280 0.7280
3213.790850 0.7294 0.7300 0.7300 0.7307 0.7317
3220.228620 0.7334 0.7340 0.7354 0.7381 0.7411
3226.666390 0.7441 0.7450 0.7457 0.7474 0.7480
3233.104160 0.7480 0.7494 0.7500 0.7500 0.7493
3239.541930 0.7490 0.7490 0.7490 0.7490 0.7490
3245.979700 0.7490 0.7490 0.7490 0.7490 0.7490
3252.417470 0.7490 0.7490 0.7490 0.7490 0.7490
3258.855240 0.7490 0.7490 0.7490 0.7490 0.7490
3265.293010 0.7483 0.7480 0.7480 0.7480 0.7480
3271.730780 0.7480 0.7480 0.7480 0.7480 0.7487
3278.168550 0.7490 0.7497 0.7500 0.7521 0.7530
3284.606320 0.7537 0.7540 0.7547 0.7564 0.7570
3291.044090 0.7577 0.7594 0.7621 0.7637 0.7640
3297.481860 0.7647 0.7650 0.7650 0.7664 0.7670
3303.919630 0.7677 0.7680 0.7680 0.7680 0.7680
3310.357400 0.7680 0.7680 0.7680 0.7680 0.7680
3316.795170 0.7680 0.7680 0.7673 0.7670 0.7670
3323.232940 0.7656 0.7650 0.7650 0.7643 0.7633
3329.670710 0.7630 0.7630 0.7623 0.7620 0.7620
3336.108480 0.7606 0.7600 0.7600 0.7593 0.7583
3342.546250 0.7580 0.7573 0.7570 0.7556 0.7543
3348.984020 0.7540 0.7519 0.7510 0.7510 0.7510
3355.421790 0.7510 0.7503 0.7500 0.7493 0.7455
3361.859560 0.7405 0.7362 0.7343 0.7340 0.7319
3368.297330 0.7310 0.7310 0.7303 0.7300 0.7286
3374.735100 0.7273 0.7270 0.7270 0.7263 0.7260
3381.172870 0.7260 0.7253 0.7229 0.7213 0.7210
3387.610640 0.7196 0.7190 0.7183 0.7180 0.7173
3394.048410 0.7163 0.7146 0.7133 0.7123 0.7106
3400.486180 0.7100 0.7093 0.7090 0.7083 0.7080
3406.923950 0.7080 0.7073 0.7070 0.7070 0.7056
3413.361720 0.7050 0.7050 0.7043 0.7033 0.7030
3419.799490 0.7030 0.7030 0.7030 0.7030 0.7030
3426.237260 0.7030 0.7030 0.7030 0.7030 0.7030
3432.675030 0.7030 0.7023 0.7020 0.7020 0.7020
3439.112800 0.7020 0.7020 0.7020 0.7020 0.7020
3445.550570 0.7020 0.7020 0.7020 0.7027 0.7030
3451.988340 0.7030 0.7030 0.7030 0.7030 0.7030
3458.426110 0.7030 0.7037 0.7047 0.7050 0.7064
3464.863880 0.7077 0.7080 0.7087 0.7090 0.7097
3471.301650 0.7100 0.7100 0.7114 0.7127 0.7130
3477.739420 0.7137 0.7154 0.7160 0.7167 0.7177
3484.177190 0.7180 0.7187 0.7190 0.7204 0.7217
3490.614960 0.7227 0.7258 0.7277 0.7294 0.7300
3497.052730 0.7307 0.7317 0.7320 0.7334 0.7347
3503.490500 0.7350 0.7357 0.7367 0.7370 0.7384
3509.928270 0.7397 0.7407 0.7410 0.7417 0.7434
3516.366040 0.7447 0.7457 0.7474 0.7480 0.7487
3522.803810 0.7490 0.7497 0.7500 0.7507 0.7510
3529.241580 0.7524 0.7537 0.7533 0.7537 0.7561
3535.679350 0.7577 0.7587 0.7597 0.7614 0.7627
3542.117120 0.7637 0.7647 0.7664 0.7670 0.7677
3548.554890 0.7680 0.7687 0.7690 0.7711 0.7727
3554.992660 0.7737 0.7761 0.7777 0.7794 0.7807
3561.430430 0.7817 0.7827 0.7844 0.7857 0.7867
3567.868200 0.7870 0.7884 0.7897 0.7900 0.7900
3574.305970 0.7900 0.7900 0.7900 0.7907 0.7931
3580.743740 0.7954 0.7967 0.7984 0.7997 0.8000
3587.181510 0.8007 0.8024 0.8030 0.8030 0.8037
3593.619280 0.8040 0.8047 0.8057 0.8060 0.8074
3600.057050 0.8080 0.8094 0.8114 0.8127 0.8137
3606.494820 0.8147 0.8164 0.8184 0.8197 0.8200
3612.932590 0.8221 0.8251 0.8274 0.8287 0.8304
3619.370360 0.8317 0.8327 0.8330 0.8344 0.8357
3625.808130 0.8367 0.8377 0.8380 0.8394 0.8407
3632.245900 0.8417 0.8427 0.8444 0.8464 0.8484
3638.683670 0.8490 0.8497 0.8500 0.8507 0.8510
3645.121440 0.8510 0.8510 0.8510 0.8510 0.8510
3651.559210 0.8510 0.8517 0.8520 0.8520 0.8534
3657.996980 0.8540 0.8540 0.8540 0.8540 0.8540
3664.434750 0.8540 0.8540 0.8540 0.8540 0.8540
3670.872520 0.8540 0.8540 0.8540 0.8540 0.8540
3677.310290 0.8547 0.8550 0.8550 0.8557 0.8560
3683.748060 0.8560 0.8560 0.8574 0.8587 0.8590
3690.185830 0.8597 0.8600 0.8607 0.8610 0.8624
3696.623600 0.8637 0.8640 0.8647 0.8650 0.8650
3703.061370 0.8650 0.8650 0.8650 0.8650 0.8650
3709.499140 0.8650 0.8650 0.8650 0.8650 0.8650
3715.936910 0.8664 0.8670 0.8670 0.8670 0.8670
3722.374680 0.8670 0.8649 0.8640 0.8640 0.8640
3728.812450 0.8640 0.8640 0.8640 0.8640 0.8640
3735.250220 0.8640 0.8661 0.8670 0.8670 0.8670
3741.687990 0.8670 0.8670 0.8670 0.8670 0.8670
3748.125760 0.8670 0.8670 0.8670 0.8670 0.8670
3754.563530 0.8656 0.8650 0.8650 0.8650 0.8650
3761.001300 0.8650 0.8650 0.8650 0.8650 0.8650
3767.439070 0.8650 0.8650 0.8650 0.8650 0.8650
3773.876840 0.8650 0.8650 0.8650 0.8650 0.8650
3780.314610 0.8650 0.8650 0.8650 0.8650 0.8650
3786.752380 0.8650 0.8650 0.8650 0.8664 0.8670
3793.190150 0.8670 0.8670 0.8677 0.8673 0.8656
3799.627920 0.8650 0.8650 0.8643 0.8640 0.8640
3806.065690 0.8640 0.8640 0.8640 0.8640 0.8640
3812.503460 0.8640 0.8661 0.8670 0.8670 0.8670
3818.941230 0.8670 0.8670 0.8656 0.8650 0.8650
3825.379000 0.8650 0.8650 0.8650 0.8650 0.8650
3831.816770 0.8650 0.8650 0.8650 0.8650 0.8650
3838.254540 0.8650 0.8650 0.8650 0.8643 0.8640
3844.692310 0.8640 0.8640 0.8640 0.8640 0.8640
3851.130080 0.8640 0.8640 0.8640 0.8640 0.8640
3857.567850 0.8640 0.8633 0.8630 0.8630 0.8630
3864.005620 0.8630 0.8630 0.8630 0.8630 0.8630
3870.443390 0.8630 0.8616 0.8610 0.8610 0.8610
3876.881160 0.8610 0.8610 0.8610 0.8610 0.8610
3883.318930 0.8610 0.8610 0.8610 0.8610 0.8610
3889.756700 0.8610 0.8610 0.8610 0.8610 0.8610
3896.194470 0.8610 0.8610 0.8610 0.8610 0.8610
3902.632240 0.8610 0.8624 0.8630 0.8630 0.8630
3909.070010 0.8630 0.8630 0.8630 0.8630 0.8630
3915.507780 0.8637 0.8640 0.8647 0.8650 0.8650
3921.945550 0.8650 0.8650 0.8643 0.8633 0.8630
3928.383320 0.8630 0.8630 0.8616 0.8610 0.8610
3934.821090 0.8603 0.8600 0.8600 0.8600 0.8593
3941.258860 0.8590 0.8590 0.8583 0.8580 0.8580
3947.696630 0.8580 0.8580 0.8580 0.8580 0.8580
3954.134400 0.8580 0.8580 0.8580 0.8580 0.8580
3960.572170 0.8580 0.8580 0.8587 0.8590 0.8590
3967.009940 0.8590 0.8590 0.8590 0.8590 0.8590
3973.447710 0.8590 0.8590 0.8590 0.8590 0.8590
3979.885480 0.8590 0.8590 0.8590 0.8590 0.8590
3986.323250 0.8590 0.8590 0.8590 0.8590 0.8590
3992.761020 0.8590 0.8590 0.8590 0.8590 0.8590
3999.198790 0.8590 0.8590 0.8590 0.8590 0.8590
4005.636560 0.8590 0.8590 0.8590 0.8590 0.8590
4012.074330 0.8590 0.8590 0.8590 0.8590 0.8590
4018.512100 0.8590
##END=
