##TITLE=CEROUS OXALATE
##JCAMP-DX=4.24
##DATA TYPE=INFRARED SPECTRUM
##CLASS=COBLENTZ
##OWNER=COBLENTZ SOCIETY
Collection (C) 2018 copyright by the U.S. Secretary of Commerce
on behalf of the United States of America. All rights reserved.
##DATE=Not specified, most likely prior to 1970
##MOLFORM=Ce2 ( C2 O4)3  * 9 H2 O
##SOURCE REFERENCE=COBLENTZ NO. 83
##$NIST ID=B6000083
##$NIST SOURCE=COBLENTZ
##$NIST IMAGE=cob83
##SPECTROMETER/DATA SYSTEM=Not specified, most likely a prism, grating, or hybrid spectrometer.
##STATE=SOLID (KBr DISC)
##SAMPLING PROCEDURE=TRANSMISSION
##RESOLUTION=4
##DATA PROCESSING=DIGITIZED BY NIST FROM HARD COPY
##XUNITS=MICROMETERS
##YUNITS=TRANSMITTANCE
##XFACTOR=1.000000
##YFACTOR=1
##DELTAX=000.007601
##FIRSTX=2.016
##LASTX=15.0368
##FIRSTY=0.866
##MAXX=15.0368
##MINX=2.016
##MAXY=0.951
##MINY=0.177
##NPOINTS=1714
##XYDATA=(X++(Y..Y))
2.016000 0.8660 0.8660 0.8660 0.8680 0.8680
2.054029 0.8660 0.8680 0.8680 0.8680 0.8680
2.092000 0.8690 0.8710 0.8720 0.8740 0.8750
2.130029 0.8750 0.8750 0.8770 0.8770 0.8770
2.168000 0.8780 0.8810 0.8830 0.8830 0.8840
2.206029 0.8860 0.8860 0.8870 0.8870 0.8890
2.244000 0.8900 0.8900 0.8900 0.8900 0.8920
2.282029 0.8920 0.8930 0.8930 0.8930 0.8940
2.320000 0.8940 0.8940 0.8960 0.8960 0.8970
2.358029 0.8970 0.8990 0.8990 0.8990 0.9000
2.396000 0.9020 0.9030 0.9030 0.9050 0.9050
2.434029 0.9050 0.9060 0.9060 0.9060 0.9080
2.472000 0.9080 0.9080 0.9080 0.9080 0.9080
2.510029 0.9080 0.9080 0.9080 0.9080 0.9080
2.548000 0.9090 0.9090 0.9090 0.9090 0.9090
2.586029 0.9110 0.9110 0.9110 0.9120 0.9140
2.624000 0.9140 0.9150 0.9170 0.9170 0.9170
2.662029 0.9180 0.9180 0.9180 0.9180 0.9180
2.700000 0.9180 0.9180 0.9170 0.9090 0.8920
2.738029 0.8710 0.8520 0.8230 0.8060 0.7860
2.776000 0.7500 0.7260 0.6930 0.6760 0.6670
2.814029 0.6560 0.6220 0.6030 0.5880 0.5760
2.852000 0.5630 0.5510 0.5420 0.5340 0.5280
2.890029 0.5200 0.5100 0.5010 0.4950 0.4880
2.928000 0.4850 0.4820 0.4790 0.4770 0.4770
2.966029 0.4800 0.4830 0.4860 0.4970 0.5070
3.004000 0.5190 0.5260 0.5320 0.5420 0.5450
3.042029 0.5510 0.5560 0.5630 0.5680 0.5730
3.080000 0.5820 0.5900 0.5960 0.6020 0.6060
3.118029 0.6100 0.6150 0.6210 0.6280 0.6340
3.156000 0.6400 0.6430 0.6460 0.6580 0.6650
3.194029 0.6780 0.6860 0.6930 0.7010 0.7070
3.232000 0.7110 0.7170 0.7230 0.7300 0.7360
3.270029 0.7410 0.7470 0.7520 0.7580 0.7640
3.308000 0.7690 0.7700 0.7760 0.7810 0.7850
3.346029 0.7860 0.7890 0.7910 0.7910 0.7920
3.384000 0.7950 0.7970 0.7980 0.8000 0.8030
3.422029 0.8060 0.8120 0.8160 0.8230 0.8290
3.460000 0.8370 0.8440 0.8470 0.8500 0.8520
3.498029 0.8550 0.8570 0.8600 0.8630 0.8650
3.536000 0.8660 0.8660 0.8660 0.8680 0.8680
3.574029 0.8690 0.8710 0.8720 0.8740 0.8750
3.612000 0.8770 0.8800 0.8810 0.8810 0.8830
3.650029 0.8830 0.8840 0.8870 0.8900 0.8930
3.688000 0.8930 0.8940 0.8960 0.8970 0.8970
3.726029 0.8990 0.9000 0.9020 0.9030 0.9030
3.764000 0.9050 0.9050 0.9060 0.9060 0.9080
3.802029 0.9080 0.9090 0.9090 0.9090 0.9110
3.840000 0.9110 0.9110 0.9110 0.9120 0.9120
3.878029 0.9140 0.9150 0.9150 0.9170 0.9170
3.916000 0.9200 0.9200 0.9200 0.9200 0.9210
3.954029 0.9210 0.9210 0.9210 0.9210 0.9240
3.992000 0.9240 0.9240 0.9240 0.9240 0.9260
4.030029 0.9260 0.9260 0.9260 0.9260 0.9260
4.068000 0.9260 0.9260 0.9260 0.9270 0.9280
4.106029 0.9310 0.9330 0.9340 0.9360 0.9360
4.144000 0.9360 0.9360 0.9360 0.9360 0.9360
4.182029 0.9360 0.9370 0.9370 0.9370 0.9370
4.220000 0.9370 0.9370 0.9370 0.9370 0.9370
4.258029 0.9370 0.9370 0.9370 0.9370 0.9370
4.296000 0.9370 0.9370 0.9370 0.9370 0.9370
4.334029 0.9370 0.9370 0.9370 0.9370 0.9370
4.372000 0.9370 0.9370 0.9370 0.9370 0.9370
4.410029 0.9370 0.9370 0.9370 0.9370 0.9370
4.448000 0.9370 0.9370 0.9370 0.9370 0.9370
4.486029 0.9370 0.9370 0.9370 0.9370 0.9370
4.524000 0.9370 0.9370 0.9370 0.9370 0.9370
4.562029 0.9370 0.9370 0.9370 0.9370 0.9370
4.601000 0.9370 0.9370 0.9370 0.9370 0.9370
4.639029 0.9370 0.9370 0.9370 0.9370 0.9370
4.677000 0.9370 0.9370 0.9390 0.9390 0.9390
4.715029 0.9400 0.9400 0.9420 0.9420 0.9420
4.753000 0.9430 0.9430 0.9430 0.9430 0.9430
4.791029 0.9430 0.9430 0.9450 0.9450 0.9450
4.829000 0.9450 0.9450 0.9450 0.9460 0.9460
4.867029 0.9460 0.9480 0.9480 0.9480 0.9480
4.905000 0.9490 0.9490 0.9490 0.9490 0.9490
4.943029 0.9490 0.9490 0.9490 0.9490 0.9510
4.981000 0.9510 0.9510 0.9510 0.9510 0.9510
5.019029 0.9510 0.9510 0.9510 0.9510 0.9510
5.057000 0.9510 0.9510 0.9510 0.9490 0.9490
5.095029 0.9490 0.9490 0.9490 0.9490 0.9490
5.133000 0.9480 0.9480 0.9480 0.9460 0.9450
5.171029 0.9450 0.9450 0.9430 0.9430 0.9420
5.209000 0.9400 0.9370 0.9360 0.9360 0.9340
5.247029 0.9330 0.9330 0.9330 0.9310 0.9310
5.285000 0.9310 0.9310 0.9300 0.9300 0.9300
5.323029 0.9300 0.9300 0.9300 0.9300 0.9280
5.361000 0.9270 0.9240 0.9230 0.9210 0.9210
5.399029 0.9210 0.9200 0.9180 0.9170 0.9140
5.437000 0.9120 0.9120 0.9120 0.9110 0.9090
5.475029 0.9060 0.9030 0.9020 0.8990 0.8970
5.513000 0.8960 0.8940 0.8920 0.8900 0.8870
5.551029 0.8860 0.8840 0.8830 0.8780 0.8740
5.589000 0.8720 0.8680 0.8660 0.8650 0.8630
5.627029 0.8600 0.8560 0.8470 0.8440 0.8410
5.665000 0.8320 0.8250 0.8230 0.8210 0.8150
5.703029 0.8090 0.7980 0.7910 0.7790 0.7670
5.741000 0.7610 0.7520 0.7260 0.6920 0.6700
5.779029 0.6590 0.6490 0.6340 0.6180 0.5840
5.817000 0.5540 0.5250 0.5080 0.4910 0.4820
5.855029 0.4650 0.4520 0.4300 0.4060 0.3940
5.893000 0.3780 0.3710 0.3650 0.3550 0.3400
5.931029 0.3310 0.3210 0.3040 0.2910 0.2820
5.969000 0.2720 0.2670 0.2480 0.2330 0.2180
6.007029 0.2170 0.2140 0.2130 0.2100 0.2080
6.045000 0.1980 0.1900 0.1840 0.1810 0.1810
6.083029 0.1800 0.1780 0.1770 0.1770 0.1770
6.121000 0.1770 0.1770 0.1770 0.1770 0.1770
6.159029 0.1780 0.1810 0.1900 0.1930 0.1960
6.197000 0.2020 0.2070 0.2100 0.2170 0.2240
6.235029 0.2330 0.2420 0.2540 0.2660 0.2760
6.273000 0.2860 0.3040 0.3190 0.3230 0.3320
6.311029 0.3590 0.3740 0.4000 0.4150 0.4260
6.349000 0.4420 0.4580 0.4740 0.4890 0.4920
6.387029 0.4950 0.5000 0.5200 0.5340 0.5560
6.425000 0.5710 0.5810 0.5870 0.5910 0.5940
6.463029 0.5990 0.6020 0.6060 0.6250 0.6300
6.501000 0.6370 0.6420 0.6500 0.6610 0.6620
6.539029 0.6650 0.6710 0.6760 0.6830 0.6890
6.577000 0.6920 0.6960 0.7020 0.7050 0.7070
6.615029 0.7100 0.7130 0.7200 0.7260 0.7270
6.653000 0.7290 0.7320 0.7330 0.7350 0.7350
6.691029 0.7350 0.7350 0.7360 0.7360 0.7360
6.729000 0.7320 0.7300 0.7270 0.7210 0.7200
6.767029 0.7170 0.7140 0.7110 0.7040 0.7010
6.805000 0.6990 0.6990 0.6990 0.6990 0.6990
6.843029 0.7010 0.7050 0.7100 0.7150 0.7180
6.881000 0.7230 0.7260 0.7330 0.7410 0.7440
6.919029 0.7510 0.7520 0.7540 0.7570 0.7600
6.957000 0.7690 0.7730 0.7780 0.7820 0.7850
6.995029 0.7860 0.7890 0.7910 0.7920 0.7940
7.033000 0.7950 0.7970 0.8030 0.8070 0.8130
7.071029 0.8180 0.8220 0.8280 0.8310 0.8320
7.109000 0.8350 0.8370 0.8370 0.8370 0.8380
7.147029 0.8400 0.8400 0.8400 0.8410 0.8430
7.185000 0.8430 0.8440 0.8440 0.8440 0.8440
7.223029 0.8440 0.8430 0.8410 0.8380 0.8340
7.261000 0.8290 0.8250 0.8150 0.8030 0.7940
7.299029 0.7880 0.7810 0.7760 0.7730 0.7670
7.337000 0.7610 0.7550 0.7500 0.7450 0.7380
7.375029 0.7300 0.7260 0.7230 0.7180 0.7130
7.413000 0.7050 0.7020 0.6980 0.6930 0.6890
7.451029 0.6830 0.6710 0.6670 0.6610 0.6490
7.489000 0.6400 0.6270 0.6100 0.6000 0.5850
7.527029 0.5710 0.5600 0.5510 0.5340 0.5170
7.565000 0.5000 0.4880 0.4760 0.4650 0.4550
7.603029 0.4520 0.4510 0.4510 0.4510 0.4540
7.641000 0.4570 0.4670 0.4710 0.4860 0.4920
7.679029 0.5140 0.5360 0.5470 0.5620 0.5710
7.717000 0.5840 0.5970 0.6030 0.6160 0.6250
7.755029 0.6370 0.6520 0.6650 0.6900 0.6990
7.793000 0.7040 0.7130 0.7200 0.7240 0.7300
7.831029 0.7390 0.7450 0.7520 0.7570 0.7610
7.869000 0.7660 0.7700 0.7760 0.7790 0.7850
7.907029 0.7880 0.7890 0.7910 0.7920 0.7940
7.945000 0.7950 0.7980 0.8000 0.8030 0.8040
7.983029 0.8040 0.8070 0.8120 0.8160 0.8210
8.021000 0.8250 0.8280 0.8290 0.8310 0.8320
8.059029 0.8350 0.8350 0.8370 0.8380 0.8380
8.097000 0.8400 0.8400 0.8400 0.8400 0.8410
8.135029 0.8430 0.8430 0.8430 0.8440 0.8440
8.173000 0.8440 0.8440 0.8460 0.8470 0.8490
8.211029 0.8490 0.8500 0.8520 0.8520 0.8520
8.249000 0.8530 0.8550 0.8550 0.8550 0.8550
8.287029 0.8550 0.8550 0.8530 0.8530 0.8530
8.325000 0.8550 0.8550 0.8560 0.8560 0.8570
8.363029 0.8570 0.8570 0.8570 0.8570 0.8570
8.401000 0.8570 0.8590 0.8600 0.8600 0.8600
8.439029 0.8600 0.8620 0.8620 0.8620 0.8620
8.477000 0.8620 0.8620 0.8620 0.8620 0.8620
8.515029 0.8620 0.8630 0.8630 0.8630 0.8630
8.553000 0.8630 0.8620 0.8620 0.8630 0.8630
8.591029 0.8630 0.8630 0.8630 0.8620 0.8620
8.629000 0.8620 0.8620 0.8620 0.8620 0.8620
8.667029 0.8620 0.8620 0.8620 0.8620 0.8620
8.705000 0.8620 0.8620 0.8620 0.8620 0.8620
8.743029 0.8620 0.8620 0.8620 0.8620 0.8620
8.781000 0.8620 0.8620 0.8620 0.8620 0.8620
8.819029 0.8620 0.8620 0.8620 0.8620 0.8620
8.857000 0.8620 0.8620 0.8620 0.8620 0.8620
8.895029 0.8620 0.8620 0.8620 0.8620 0.8620
8.933000 0.8620 0.8620 0.8620 0.8620 0.8620
8.971029 0.8620 0.8620 0.8620 0.8620 0.8620
9.009000 0.8620 0.8620 0.8620 0.8620 0.8620
9.047029 0.8620 0.8620 0.8620 0.8600 0.8600
9.085000 0.8620 0.8600 0.8600 0.8600 0.8600
9.123029 0.8600 0.8600 0.8600 0.8600 0.8600
9.161000 0.8620 0.8620 0.8620 0.8620 0.8620
9.199029 0.8620 0.8620 0.8620 0.8620 0.8620
9.237000 0.8620 0.8620 0.8620 0.8620 0.8620
9.275029 0.8620 0.8620 0.8620 0.8620 0.8620
9.313000 0.8620 0.8620 0.8620 0.8620 0.8620
9.351029 0.8620 0.8620 0.8630 0.8630 0.8630
9.389000 0.8630 0.8630 0.8630 0.8630 0.8630
9.427029 0.8630 0.8630 0.8650 0.8650 0.8650
9.465000 0.8650 0.8650 0.8650 0.8650 0.8650
9.503029 0.8650 0.8650 0.8650 0.8650 0.8650
9.541000 0.8650 0.8650 0.8650 0.8660 0.8660
9.579029 0.8660 0.8660 0.8660 0.8660 0.8660
9.617000 0.8660 0.8660 0.8680 0.8680 0.8690
9.655029 0.8690 0.8690 0.8690 0.8690 0.8690
9.693000 0.8680 0.8680 0.8680 0.8680 0.8680
9.731029 0.8680 0.8680 0.8680 0.8680 0.8680
9.769000 0.8680 0.8680 0.8680 0.8680 0.8680
9.807029 0.8680 0.8690 0.8690 0.8710 0.8710
9.845000 0.8710 0.8710 0.8710 0.8720 0.8710
9.883029 0.8710 0.8710 0.8720 0.8740 0.8750
9.921000 0.8750 0.8770 0.8770 0.8770 0.8780
9.959029 0.8780 0.8780 0.8780 0.8810 0.8810
9.997000 0.8810 0.8810 0.8810 0.8830 0.8830
10.035029 0.8830 0.8840 0.8840 0.8860 0.8870
10.073000 0.8870 0.8890 0.8890 0.8890 0.8890
10.111029 0.8890 0.8900 0.8900 0.8920 0.8920
10.149000 0.8930 0.8930 0.8940 0.8940 0.8940
10.187029 0.8960 0.8970 0.8970 0.8970 0.8970
10.226000 0.8970 0.8970 0.8970 0.8970 0.8970
10.264029 0.8970 0.8970 0.8970 0.8970 0.8970
10.302000 0.8990 0.8990 0.9000 0.9020 0.9020
10.340029 0.9020 0.9030 0.9030 0.9030 0.9030
10.378000 0.9030 0.9030 0.9030 0.9030 0.9030
10.416029 0.9030 0.9030 0.9050 0.9050 0.9050
10.454000 0.9050 0.9050 0.9050 0.9050 0.9050
10.492029 0.9050 0.9050 0.9050 0.9050 0.9060
10.530000 0.9060 0.9060 0.9060 0.9080 0.9080
10.568029 0.9080 0.9080 0.9080 0.9080 0.9080
10.606000 0.9080 0.9080 0.9080 0.9080 0.9080
10.644029 0.9080 0.9080 0.9080 0.9080 0.9080
10.682000 0.9080 0.9080 0.9080 0.9080 0.9080
10.720029 0.9080 0.9080 0.9080 0.9080 0.9080
10.758000 0.9080 0.9080 0.9080 0.9080 0.9080
10.796029 0.9080 0.9080 0.9060 0.9060 0.9060
10.834000 0.9060 0.9050 0.9050 0.9060 0.9050
10.872029 0.9050 0.9050 0.9030 0.9030 0.9020
10.910000 0.9000 0.8990 0.8990 0.8960 0.8960
10.948029 0.8960 0.8960 0.8940 0.8940 0.8940
10.986000 0.8940 0.8930 0.8930 0.8920 0.8920
11.024029 0.8920 0.8920 0.8920 0.8920 0.8920
11.062000 0.8920 0.8920 0.8920 0.8920 0.8920
11.100029 0.8930 0.8930 0.8940 0.8960 0.8960
11.138000 0.8970 0.8990 0.8990 0.8990 0.9000
11.176029 0.9000 0.9000 0.9000 0.9000 0.9000
11.214000 0.9000 0.9000 0.9000 0.9020 0.9020
11.252029 0.9030 0.9030 0.9030 0.9030 0.9030
11.290000 0.9030 0.9030 0.9050 0.9050 0.9050
11.328029 0.9050 0.9050 0.9050 0.9050 0.9050
11.366000 0.9050 0.9050 0.9050 0.9050 0.9050
11.404029 0.9050 0.9050 0.9050 0.9050 0.9050
11.442000 0.9050 0.9050 0.9050 0.9050 0.9050
11.480029 0.9050 0.9050 0.9050 0.9050 0.9050
11.518000 0.9050 0.9050 0.9050 0.9050 0.9050
11.556029 0.9050 0.9030 0.9030 0.9020 0.9000
11.594000 0.8970 0.8960 0.8960 0.8940 0.8940
11.632029 0.8940 0.8940 0.8940 0.8940 0.8940
11.670000 0.8930 0.8930 0.8930 0.8930 0.8930
11.708029 0.8940 0.8940 0.8940 0.8960 0.8960
11.746000 0.8960 0.8960 0.8960 0.8960 0.8960
11.784029 0.8960 0.8960 0.8960 0.8960 0.8960
11.822000 0.8960 0.8960 0.8940 0.8940 0.8940
11.860029 0.8940 0.8940 0.8940 0.8940 0.8940
11.898000 0.8940 0.8940 0.8940 0.8930 0.8930
11.936029 0.8930 0.8930 0.8920 0.8920 0.8920
11.974000 0.8920 0.8920 0.8900 0.8900 0.8900
12.012029 0.8890 0.8870 0.8870 0.8860 0.8860
12.050000 0.8840 0.8840 0.8830 0.8830 0.8830
12.088029 0.8810 0.8810 0.8800 0.8800 0.8780
12.126000 0.8770 0.8750 0.8750 0.8740 0.8710
12.164029 0.8690 0.8680 0.8660 0.8660 0.8650
12.202000 0.8620 0.8600 0.8570 0.8550 0.8530
12.240029 0.8520 0.8470 0.8440 0.8410 0.8370
12.278000 0.8310 0.8280 0.8230 0.8190 0.8150
12.316029 0.8090 0.7980 0.7880 0.7840 0.7780
12.354000 0.7700 0.7630 0.7570 0.7470 0.7390
12.392029 0.7330 0.7240 0.7180 0.7130 0.7020
12.430000 0.6930 0.6770 0.6700 0.6650 0.6590
12.468029 0.6500 0.6440 0.6310 0.6220 0.6180
12.506000 0.6130 0.6090 0.6050 0.6020 0.6000
12.544029 0.5990 0.5990 0.5970 0.5970 0.5970
12.582000 0.5970 0.5970 0.5970 0.5970 0.5970
12.620029 0.5990 0.6000 0.6030 0.6060 0.6090
12.658000 0.6100 0.6130 0.6180 0.6210 0.6250
12.696029 0.6300 0.6340 0.6390 0.6420 0.6440
12.734000 0.6470 0.6530 0.6590 0.6620 0.6650
12.772029 0.6770 0.6810 0.6840 0.6890 0.6920
12.810000 0.6980 0.7010 0.7050 0.7110 0.7140
12.848029 0.7180 0.7210 0.7260 0.7290 0.7320
12.886000 0.7360 0.7390 0.7420 0.7440 0.7480
12.924029 0.7520 0.7550 0.7580 0.7610 0.7640
12.962000 0.7670 0.7700 0.7730 0.7760 0.7780
13.000029 0.7790 0.7820 0.7840 0.7850 0.7860
13.038000 0.7880 0.7880 0.7890 0.7910 0.7920
13.076029 0.7940 0.7980 0.8000 0.8000 0.8000
13.114000 0.8010 0.8010 0.8030 0.8030 0.8030
13.152029 0.8040 0.8040 0.8060 0.8060 0.8070
13.190000 0.8070 0.8070 0.8090 0.8090 0.8090
13.228029 0.8100 0.8100 0.8120 0.8120 0.8120
13.266000 0.8120 0.8130 0.8130 0.8130 0.8150
13.304029 0.8150 0.8150 0.8150 0.8160 0.8160
13.342000 0.8160 0.8160 0.8180 0.8180 0.8180
13.380029 0.8180 0.8190 0.8190 0.8190 0.8190
13.418000 0.8190 0.8210 0.8210 0.8210 0.8210
13.456029 0.8210 0.8210 0.8220 0.8220 0.8220
13.494000 0.8220 0.8220 0.8220 0.8220 0.8230
13.532029 0.8230 0.8230 0.8230 0.8230 0.8230
13.570000 0.8230 0.8230 0.8250 0.8230 0.8230
13.608029 0.8230 0.8230 0.8230 0.8230 0.8230
13.646000 0.8230 0.8230 0.8230 0.8230 0.8230
13.684029 0.8230 0.8230 0.8230 0.8230 0.8230
13.722000 0.8250 0.8230 0.8230 0.8230 0.8230
13.760029 0.8230 0.8230 0.8230 0.8230 0.8230
13.798000 0.8230 0.8230 0.8230 0.8230 0.8230
13.836029 0.8220 0.8220 0.8220 0.8220 0.8220
13.874000 0.8220 0.8220 0.8220 0.8220 0.8220
13.912029 0.8220 0.8220 0.8220 0.8220 0.8220
13.950000 0.8220 0.8220 0.8220 0.8210 0.8210
13.988029 0.8190 0.8190 0.8190 0.8190 0.8190
14.026000 0.8190 0.8190 0.8190 0.8190 0.8190
14.064029 0.8190 0.8190 0.8190 0.8190 0.8190
14.102000 0.8180 0.8180 0.8180 0.8180 0.8180
14.140029 0.8180 0.8180 0.8180 0.8180 0.8160
14.178000 0.8160 0.8160 0.8160 0.8160 0.8160
14.216029 0.8160 0.8160 0.8160 0.8150 0.8150
14.254000 0.8150 0.8150 0.8150 0.8150 0.8150
14.292029 0.8150 0.8150 0.8150 0.8150 0.8130
14.330000 0.8130 0.8120 0.8100 0.8100 0.8100
14.368029 0.8100 0.8100 0.8100 0.8100 0.8090
14.406000 0.8090 0.8090 0.8090 0.8090 0.8090
14.444029 0.8090 0.8090 0.8090 0.8090 0.8090
14.482000 0.8070 0.8070 0.8070 0.8070 0.8070
14.520029 0.8070 0.8070 0.8070 0.8070 0.8070
14.558000 0.8070 0.8070 0.8070 0.8070 0.8070
14.596029 0.8070 0.8060 0.8060 0.8060 0.8060
14.634000 0.8070 0.8070 0.8060 0.8060 0.8060
14.672029 0.8060 0.8060 0.8060 0.8060 0.8060
14.710000 0.8060 0.8060 0.8060 0.8040 0.8040
14.748029 0.8040 0.8030 0.8030 0.8030 0.8030
14.786000 0.8030 0.8030 0.8010 0.8010 0.8000
14.824029 0.8000 0.7980 0.7980 0.7980 0.7980
14.862000 0.7980 0.7980 0.7980 0.7980 0.7980
14.900029 0.8000 0.8000 0.8000 0.8000 0.7980
14.938000 0.7980 0.7980 0.7980 0.7980 0.7980
14.976029 0.7980 0.7980 0.7980 0.7980 0.7980
15.014000 0.7980 0.7980 0.7980 0.7980
##END=
