##TITLE=PHENETHYLAMINE, d-N,Alpha-DIMETHYL-, HYDROCHLORIDE
##JCAMP-DX=4.24
$$ By DXEDIT 1.05 (RS McDonald)
##DATA TYPE=INFRARED SPECTRUM
##CLASS=COBLENTZ III
##OWNER=COBLENTZ SOC.
Collection (C) 2018 copyright by the U.S. Secretary of Commerce
on behalf of the United States of America. All rights reserved.
##DATE=1963/06/27
##NAMES=N-methyl-1-phenyl-2-propanamine hydrochloride
DESOXYEPHEDRINE HYDROCHLORIDE
##MOLFORM=C10 H16 Cl N
##MP=170-175 C
##SOURCE REFERENCE=COBLENTZ NO. 05176
##$NIST ID=B6005176
##$NIST SOURCE=COBLENTZ
##$NIST IMAGE=cob5176
##SPECTROMETER/DATA SYSTEM=PERKIN-ELMER 21 (GRATING)
##INSTRUMENT PARAMETERS=FILTER AT ABOUT 10 MICRONS
##STATE=SOLID (0.9 mg / 200 mg KCl DISC)
##PATH LENGTH=
$$ SPECTRAL FEATURE AT 998 CM^-^1 IS AN ARTIFACT CAUSED BY FILTER CHANGE
##SAMPLING PROCEDURE=TRANSMISSION
##RESOLUTION=2
##DATA PROCESSING=DIGITIZED BY COBLENTZ SOCIETY (BATCH I) FROM HARD COPY
##XUNITS=1/CM
##YUNITS=TRANSMITTANCE
##XLABEL=Wavenumbers (cm-1)
##YLABEL=Transmittance
##XFACTOR=1
##YFACTOR=1
##DELTAX=1
##FIRSTX=4000
##LASTX=672
##FIRSTY=0.7908
##MAXX=4000
##MINX=672
##MAXY=0.9546
##MINY=0.1438
##NPOINTS=3329
##XYDATA=(X++(Y..Y))
4000.000000 0.7908 0.7908 0.7908 0.7908 0.7907
3995.000000 0.7907 0.7907 0.7906 0.7906 0.7906
3990.000000 0.7906 0.7906 0.7906 0.7906 0.7906
3985.000000 0.7906 0.7907 0.7907 0.7907 0.7907
3980.000000 0.7908 0.7908 0.7908 0.7908 0.7908
3975.000000 0.7908 0.7908 0.7908 0.7908 0.7910
3970.000000 0.7910 0.7910 0.7911 0.7911 0.7911
3965.000000 0.7911 0.7911 0.7911 0.7911 0.7912
3960.000000 0.7912 0.7912 0.7912 0.7912 0.7912
3955.000000 0.7914 0.7914 0.7914 0.7915 0.7915
3950.000000 0.7915 0.7915 0.7915 0.7915 0.7917
3945.000000 0.7917 0.7917 0.7918 0.7918 0.7918
3940.000000 0.7918 0.7918 0.7918 0.7918 0.7918
3935.000000 0.7919 0.7921 0.7921 0.7922 0.7922
3930.000000 0.7925 0.7925 0.7928 0.7928 0.7931
3925.000000 0.7932 0.7934 0.7935 0.7937 0.7938
3920.000000 0.7940 0.7942 0.7943 0.7945 0.7946
3915.000000 0.7948 0.7949 0.7951 0.7951 0.7954
3910.000000 0.7955 0.7957 0.7958 0.7960 0.7961
3905.000000 0.7962 0.7965 0.7965 0.7968 0.7968
3900.000000 0.7971 0.7971 0.7974 0.7975 0.7976
3895.000000 0.7978 0.7981 0.7982 0.7984 0.7985
3890.000000 0.7987 0.7988 0.7990 0.7991 0.7993
3885.000000 0.7995 0.7996 0.7998 0.7999 0.8001
3880.000000 0.8003 0.8004 0.8006 0.8008 0.8008
3875.000000 0.8011 0.8012 0.8014 0.8015 0.8018
3870.000000 0.8018 0.8021 0.8022 0.8024 0.8025
3865.000000 0.8028 0.8028 0.8031 0.8033 0.8035
3860.000000 0.8036 0.8038 0.8040 0.8041 0.8043
3855.000000 0.8045 0.8046 0.8048 0.8050 0.8051
3850.000000 0.8053 0.8055 0.8056 0.8058 0.8060
3845.000000 0.8061 0.8062 0.8065 0.8067 0.8068
3840.000000 0.8069 0.8071 0.8072 0.8075 0.8076
3835.000000 0.8078 0.8080 0.8082 0.8084 0.8085
3830.000000 0.8087 0.8089 0.8090 0.8092 0.8094
3825.000000 0.8095 0.8097 0.8099 0.8101 0.8101
3820.000000 0.8104 0.8106 0.8107 0.8108 0.8111
3815.000000 0.8111 0.8112 0.8115 0.8115 0.8117
3810.000000 0.8118 0.8119 0.8121 0.8121 0.8124
3805.000000 0.8125 0.8125 0.8126 0.8128 0.8130
3800.000000 0.8131 0.8132 0.8133 0.8134 0.8136
3795.000000 0.8137 0.8138 0.8139 0.8140 0.8142
3790.000000 0.8143 0.8144 0.8145 0.8147 0.8148
3785.000000 0.8149 0.8150 0.8151 0.8153 0.8154
3780.000000 0.8155 0.8156 0.8158 0.8158 0.8160
3775.000000 0.8161 0.8161 0.8161 0.8162 0.8162
3770.000000 0.8164 0.8164 0.8165 0.8165 0.8165
3765.000000 0.8167 0.8167 0.8168 0.8168 0.8168
3760.000000 0.8168 0.8169 0.8169 0.8169 0.8171
3755.000000 0.8171 0.8171 0.8171 0.8171 0.8172
3750.000000 0.8174 0.8174 0.8175 0.8175 0.8175
3745.000000 0.8175 0.8175 0.8175 0.8175 0.8175
3740.000000 0.8175 0.8175 0.8175 0.8175 0.8175
3735.000000 0.8175 0.8175 0.8175 0.8175 0.8175
3730.000000 0.8175 0.8175 0.8175 0.8175 0.8175
3725.000000 0.8174 0.8174 0.8174 0.8174 0.8174
3720.000000 0.8174 0.8174 0.8174 0.8174 0.8174
3715.000000 0.8174 0.8174 0.8174 0.8174 0.8175
3710.000000 0.8175 0.8175 0.8175 0.8176 0.8178
3705.000000 0.8178 0.8178 0.8180 0.8181 0.8182
3700.000000 0.8183 0.8184 0.8185 0.8185 0.8186
3695.000000 0.8187 0.8188 0.8188 0.8189 0.8190
3690.000000 0.8191 0.8191 0.8192 0.8193 0.8194
3685.000000 0.8195 0.8196 0.8196 0.8197 0.8198
3680.000000 0.8199 0.8200 0.8200 0.8201 0.8202
3675.000000 0.8203 0.8204 0.8205 0.8206 0.8207
3670.000000 0.8207 0.8208 0.8209 0.8210 0.8210
3665.000000 0.8212 0.8213 0.8215 0.8216 0.8217
3660.000000 0.8218 0.8221 0.8223 0.8225 0.8227
3655.000000 0.8228 0.8231 0.8233 0.8235 0.8237
3650.000000 0.8239 0.8241 0.8243 0.8244 0.8246
3645.000000 0.8248 0.8250 0.8252 0.8254 0.8256
3640.000000 0.8258 0.8261 0.8262 0.8264 0.8266
3635.000000 0.8268 0.8270 0.8271 0.8274 0.8275
3630.000000 0.8278 0.8278 0.8281 0.8284 0.8286
3625.000000 0.8288 0.8290 0.8292 0.8294 0.8296
3620.000000 0.8298 0.8299 0.8301 0.8304 0.8307
3615.000000 0.8309 0.8312 0.8315 0.8318 0.8320
3610.000000 0.8323 0.8325 0.8328 0.8332 0.8335
3605.000000 0.8338 0.8341 0.8344 0.8347 0.8350
3600.000000 0.8353 0.8356 0.8359 0.8362 0.8365
3595.000000 0.8368 0.8371 0.8374 0.8377 0.8380
3590.000000 0.8383 0.8386 0.8389 0.8392 0.8395
3585.000000 0.8398 0.8401 0.8404 0.8407 0.8411
3580.000000 0.8415 0.8418 0.8421 0.8425 0.8430
3575.000000 0.8434 0.8438 0.8443 0.8447 0.8451
3570.000000 0.8456 0.8460 0.8464 0.8468 0.8473
3565.000000 0.8478 0.8482 0.8487 0.8491 0.8496
3560.000000 0.8500 0.8504 0.8509 0.8513 0.8517
3555.000000 0.8521 0.8525 0.8530 0.8535 0.8539
3550.000000 0.8544 0.8549 0.8554 0.8559 0.8564
3545.000000 0.8570 0.8575 0.8582 0.8588 0.8594
3540.000000 0.8600 0.8606 0.8611 0.8617 0.8623
3535.000000 0.8628 0.8635 0.8640 0.8646 0.8652
3530.000000 0.8658 0.8664 0.8668 0.8675 0.8681
3525.000000 0.8688 0.8696 0.8703 0.8710 0.8717
3520.000000 0.8725 0.8732 0.8740 0.8747 0.8755
3515.000000 0.8762 0.8770 0.8777 0.8785 0.8792
3510.000000 0.8800 0.8807 0.8815 0.8821 0.8828
3505.000000 0.8835 0.8841 0.8846 0.8852 0.8858
3500.000000 0.8863 0.8868 0.8873 0.8878 0.8883
3495.000000 0.8889 0.8894 0.8899 0.8904 0.8910
3490.000000 0.8915 0.8920 0.8925 0.8931 0.8936
3485.000000 0.8942 0.8947 0.8952 0.8957 0.8961
3480.000000 0.8966 0.8970 0.8974 0.8978 0.8983
3475.000000 0.8987 0.8991 0.8994 0.8998 0.9002
3470.000000 0.9006 0.9010 0.9014 0.9018 0.9021
3465.000000 0.9025 0.9030 0.9034 0.9038 0.9042
3460.000000 0.9046 0.9051 0.9055 0.9058 0.9060
3455.000000 0.9063 0.9066 0.9068 0.9070 0.9071
3450.000000 0.9073 0.9074 0.9075 0.9077 0.9078
3445.000000 0.9080 0.9082 0.9083 0.9085 0.9087
3440.000000 0.9088 0.9090 0.9092 0.9093 0.9095
3435.000000 0.9096 0.9098 0.9099 0.9101 0.9102
3430.000000 0.9104 0.9105 0.9107 0.9108 0.9109
3425.000000 0.9111 0.9112 0.9114 0.9115 0.9117
3420.000000 0.9118 0.9120 0.9121 0.9121 0.9124
3415.000000 0.9125 0.9125 0.9128 0.9128 0.9131
3410.000000 0.9132 0.9134 0.9135 0.9136 0.9137
3405.000000 0.9139 0.9141 0.9142 0.9144 0.9145
3400.000000 0.9146 0.9148 0.9149 0.9150 0.9152
3395.000000 0.9153 0.9155 0.9156 0.9158 0.9159
3390.000000 0.9160 0.9162 0.9163 0.9164 0.9165
3385.000000 0.9166 0.9167 0.9167 0.9168 0.9168
3380.000000 0.9168 0.9170 0.9171 0.9171 0.9171
3375.000000 0.9173 0.9173 0.9174 0.9175 0.9175
3370.000000 0.9177 0.9178 0.9178 0.9178 0.9180
3365.000000 0.9180 0.9181 0.9182 0.9182 0.9183
3360.000000 0.9184 0.9184 0.9185 0.9186 0.9186
3355.000000 0.9187 0.9188 0.9188 0.9189 0.9190
3350.000000 0.9191 0.9191 0.9192 0.9193 0.9194
3345.000000 0.9194 0.9194 0.9194 0.9194 0.9194
3340.000000 0.9194 0.9194 0.9194 0.9195 0.9195
3335.000000 0.9195 0.9195 0.9195 0.9195 0.9195
3330.000000 0.9195 0.9195 0.9196 0.9196 0.9196
3325.000000 0.9196 0.9196 0.9196 0.9196 0.9196
3320.000000 0.9197 0.9197 0.9197 0.9197 0.9197
3315.000000 0.9198 0.9198 0.9198 0.9198 0.9199
3310.000000 0.9199 0.9199 0.9199 0.9199 0.9200
3305.000000 0.9200 0.9201 0.9201 0.9202 0.9202
3300.000000 0.9202 0.9203 0.9203 0.9203 0.9203
3295.000000 0.9203 0.9203 0.9203 0.9203 0.9202
3290.000000 0.9202 0.9201 0.9200 0.9200 0.9199
3285.000000 0.9198 0.9198 0.9197 0.9196 0.9196
3280.000000 0.9195 0.9195 0.9194 0.9194 0.9193
3275.000000 0.9192 0.9192 0.9191 0.9190 0.9187
3270.000000 0.9184 0.9181 0.9178 0.9175 0.9171
3265.000000 0.9168 0.9166 0.9163 0.9160 0.9157
3260.000000 0.9154 0.9151 0.9149 0.9147 0.9144
3255.000000 0.9142 0.9141 0.9139 0.9137 0.9136
3250.000000 0.9134 0.9132 0.9131 0.9128 0.9127
3245.000000 0.9125 0.9124 0.9121 0.9121 0.9121
3240.000000 0.9123 0.9123 0.9124 0.9124 0.9124
3235.000000 0.9124 0.9125 0.9125 0.9125 0.9125
3230.000000 0.9125 0.9127 0.9127 0.9128 0.9128
3225.000000 0.9128 0.9128 0.9128 0.9128 0.9130
3220.000000 0.9130 0.9131 0.9131 0.9132 0.9132
3215.000000 0.9132 0.9132 0.9132 0.9132 0.9132
3210.000000 0.9132 0.9131 0.9131 0.9131 0.9131
3205.000000 0.9130 0.9130 0.9130 0.9130 0.9128
3200.000000 0.9128 0.9127 0.9125 0.9124 0.9118
3195.000000 0.9115 0.9110 0.9105 0.9094 0.9081
3190.000000 0.9068 0.9055 0.9037 0.9017 0.8997
3185.000000 0.8977 0.8962 0.8948 0.8935 0.8921
3180.000000 0.8909 0.8897 0.8885 0.8873 0.8861
3175.000000 0.8850 0.8838 0.8825 0.8816 0.8806
3170.000000 0.8797 0.8788 0.8781 0.8775 0.8770
3165.000000 0.8765 0.8762 0.8761 0.8760 0.8759
3160.000000 0.8758 0.8757 0.8756 0.8755 0.8754
3155.000000 0.8753 0.8751 0.8750 0.8749 0.8748
3150.000000 0.8748 0.8747 0.8746 0.8746 0.8746
3145.000000 0.8746 0.8745 0.8745 0.8745 0.8745
3140.000000 0.8744 0.8744 0.8744 0.8744 0.8744
3135.000000 0.8744 0.8744 0.8744 0.8741 0.8738
3130.000000 0.8736 0.8733 0.8730 0.8727 0.8724
3125.000000 0.8721 0.8718 0.8716 0.8714 0.8711
3120.000000 0.8708 0.8706 0.8703 0.8699 0.8692
3115.000000 0.8686 0.8678 0.8671 0.8663 0.8654
3110.000000 0.8645 0.8637 0.8628 0.8620 0.8611
3105.000000 0.8602 0.8592 0.8582 0.8571 0.8561
3100.000000 0.8551 0.8540 0.8528 0.8518 0.8507
3095.000000 0.8496 0.8485 0.8474 0.8463 0.8452
3090.000000 0.8441 0.8430 0.8418 0.8408 0.8396
3085.000000 0.8384 0.8371 0.8360 0.8345 0.8327
3080.000000 0.8310 0.8293 0.8275 0.8258 0.8240
3075.000000 0.8223 0.8205 0.8188 0.8171 0.8153
3070.000000 0.8135 0.8117 0.8099 0.8080 0.8061
3065.000000 0.8041 0.8021 0.8001 0.7983 0.7962
3060.000000 0.7944 0.7924 0.7904 0.7885 0.7865
3055.000000 0.7843 0.7821 0.7801 0.7778 0.7753
3050.000000 0.7728 0.7704 0.7678 0.7655 0.7630
3045.000000 0.7606 0.7581 0.7556 0.7531 0.7506
3040.000000 0.7481 0.7456 0.7431 0.7406 0.7380
3035.000000 0.7355 0.7330 0.7305 0.7278 0.7254
3030.000000 0.7228 0.7206 0.7182 0.7158 0.7135
3025.000000 0.7111 0.7088 0.7065 0.7042 0.7018
3020.000000 0.6996 0.6972 0.6950 0.6925 0.6903
3015.000000 0.6785 0.6624 0.6461 0.6306 0.6251
3010.000000 0.6197 0.6142 0.6087 0.6033 0.5978
3005.000000 0.5923 0.5868 0.5812 0.5758 0.5703
3000.000000 0.5648 0.5593 0.5538 0.5483 0.5428
2995.000000 0.5373 0.5318 0.5262 0.5207 0.5152
2990.000000 0.5097 0.5041 0.4986 0.4930 0.4875
2985.000000 0.4819 0.4764 0.4708 0.4652 0.4597
2980.000000 0.4541 0.4485 0.4430 0.4374 0.4318
2975.000000 0.4262 0.4206 0.4150 0.4094 0.4038
2970.000000 0.3982 0.3926 0.3868 0.3812 0.3757
2965.000000 0.3700 0.3644 0.3588 0.3534 0.3502
2960.000000 0.3468 0.3437 0.3416 0.3406 0.3395
2955.000000 0.3384 0.3380 0.3375 0.3370 0.3368
2950.000000 0.3368 0.3366 0.3366 0.3366 0.3364
2945.000000 0.3364 0.3364 0.3364 0.3366 0.3366
2940.000000 0.3370 0.3373 0.3377 0.3380 0.3382
2935.000000 0.3386 0.3390 0.3394 0.3398 0.3402
2930.000000 0.3409 0.3418 0.3428 0.3437 0.3447
2925.000000 0.3456 0.3464 0.3476 0.3487 0.3499
2920.000000 0.3509 0.3521 0.3532 0.3546 0.3574
2915.000000 0.3602 0.3630 0.3659 0.3690 0.3721
2910.000000 0.3752 0.3782 0.3814 0.3845 0.3876
2905.000000 0.3906 0.3937 0.3968 0.3999 0.4030
2900.000000 0.4060 0.4092 0.4123 0.4154 0.4186
2895.000000 0.4217 0.4248 0.4279 0.4310 0.4342
2890.000000 0.4373 0.4404 0.4435 0.4466 0.4498
2885.000000 0.4529 0.4560 0.4591 0.4623 0.4655
2880.000000 0.4686 0.4718 0.4749 0.4780 0.4787
2875.000000 0.4790 0.4793 0.4795 0.4796 0.4819
2870.000000 0.4799 0.4799 0.4799 0.4799 0.4797
2865.000000 0.4795 0.4794 0.4777 0.4754 0.4730
2860.000000 0.4703 0.4670 0.4638 0.4605 0.4572
2855.000000 0.4539 0.4505 0.4473 0.4440 0.4407
2850.000000 0.4374 0.4341 0.4308 0.4275 0.4242
2845.000000 0.4209 0.4176 0.4142 0.4109 0.4076
2840.000000 0.4042 0.4009 0.3976 0.3943 0.3909
2835.000000 0.3876 0.3843 0.3809 0.3776 0.3743
2830.000000 0.3709 0.3675 0.3642 0.3623 0.3604
2825.000000 0.3584 0.3571 0.3558 0.3545 0.3532
2820.000000 0.3521 0.3509 0.3498 0.3488 0.3478
2815.000000 0.3466 0.3457 0.3446 0.3436 0.3426
2810.000000 0.3416 0.3406 0.3338 0.3270 0.3202
2805.000000 0.3145 0.3091 0.3035 0.2991 0.2950
2800.000000 0.2909 0.2872 0.2839 0.2806 0.2780
2795.000000 0.2763 0.2746 0.2731 0.2719 0.2707
2790.000000 0.2695 0.2687 0.2678 0.2670 0.2664
2785.000000 0.2657 0.2651 0.2644 0.2638 0.2631
2780.000000 0.2625 0.2618 0.2611 0.2604 0.2597
2775.000000 0.2591 0.2584 0.2577 0.2570 0.2563
2770.000000 0.2556 0.2550 0.2541 0.2532 0.2523
2765.000000 0.2514 0.2504 0.2495 0.2484 0.2476
2760.000000 0.2466 0.2456 0.2443 0.2430 0.2417
2755.000000 0.2404 0.2391 0.2378 0.2361 0.2345
2750.000000 0.2328 0.2309 0.2290 0.2270 0.2251
2745.000000 0.2231 0.2209 0.2183 0.2156 0.2129
2740.000000 0.2103 0.2076 0.2046 0.2010 0.1974
2735.000000 0.1934 0.1890 0.1844 0.1802 0.1769
2730.000000 0.1736 0.1706 0.1679 0.1653 0.1628
2725.000000 0.1606 0.1585 0.1564 0.1548 0.1532
2720.000000 0.1517 0.1505 0.1492 0.1482 0.1475
2715.000000 0.1468 0.1463 0.1460 0.1456 0.1453
2710.000000 0.1451 0.1438 0.1446 0.1446 0.1446
2705.000000 0.1446 0.1449 0.1451 0.1454 0.1458
2700.000000 0.1462 0.1465 0.1469 0.1473 0.1481
2695.000000 0.1489 0.1496 0.1512 0.1527 0.1545
2690.000000 0.1599 0.1652 0.1702 0.1734 0.1768
2685.000000 0.1801 0.1834 0.1867 0.1900 0.1933
2680.000000 0.1967 0.2000 0.2033 0.2066 0.2099
2675.000000 0.2133 0.2166 0.2199 0.2232 0.2266
2670.000000 0.2299 0.2332 0.2365 0.2399 0.2432
2665.000000 0.2466 0.2499 0.2533 0.2566 0.2600
2660.000000 0.2634 0.2668 0.2701 0.2734 0.2769
2655.000000 0.2802 0.2835 0.2870 0.2904 0.2937
2650.000000 0.2971 0.3005 0.3039 0.3073 0.3107
2645.000000 0.3141 0.3175 0.3209 0.3243 0.3277
2640.000000 0.3312 0.3346 0.3380 0.3414 0.3449
2635.000000 0.3484 0.3518 0.3555 0.3591 0.3629
2630.000000 0.3668 0.3708 0.3753 0.3799 0.3846
2625.000000 0.3884 0.3925 0.3962 0.3997 0.4030
2620.000000 0.4064 0.4099 0.4133 0.4167 0.4201
2615.000000 0.4235 0.4269 0.4303 0.4336 0.4368
2610.000000 0.4401 0.4425 0.4445 0.4464 0.4483
2605.000000 0.4503 0.4522 0.4541 0.4560 0.4579
2600.000000 0.4599 0.4618 0.4637 0.4656 0.4676
2595.000000 0.4695 0.4714 0.4733 0.4751 0.4769
2590.000000 0.4786 0.4804 0.4821 0.4839 0.4856
2585.000000 0.4874 0.4892 0.4910 0.4930 0.4951
2580.000000 0.4972 0.4993 0.5014 0.5035 0.5057
2575.000000 0.5079 0.5103 0.5127 0.5151 0.5175
2570.000000 0.5199 0.5220 0.5238 0.5256 0.5274
2565.000000 0.5292 0.5310 0.5324 0.5337 0.5350
2560.000000 0.5360 0.5371 0.5379 0.5387 0.5395
2555.000000 0.5403 0.5410 0.5415 0.5418 0.5422
2550.000000 0.5424 0.5427 0.5430 0.5433 0.5436
2545.000000 0.5440 0.5444 0.5447 0.5451 0.5455
2540.000000 0.5464 0.5476 0.5487 0.5499 0.5510
2535.000000 0.5523 0.5536 0.5550 0.5564 0.5579
2530.000000 0.5594 0.5608 0.5623 0.5637 0.5652
2525.000000 0.5667 0.5679 0.5691 0.5702 0.5712
2520.000000 0.5724 0.5731 0.5738 0.5745 0.5751
2515.000000 0.5758 0.5762 0.5767 0.5767 0.5762
2510.000000 0.5759 0.5751 0.5743 0.5737 0.5732
2505.000000 0.5726 0.5722 0.5718 0.5712 0.5709
2500.000000 0.5705 0.5702 0.5700 0.5698 0.5698
2495.000000 0.5697 0.5697 0.5697 0.5699 0.5704
2490.000000 0.5709 0.5716 0.5724 0.5732 0.5741
2485.000000 0.5750 0.5762 0.5776 0.5788 0.5801
2480.000000 0.5812 0.5826 0.5838 0.5848 0.5858
2475.000000 0.5867 0.5872 0.5877 0.5879 0.5882
2470.000000 0.5885 0.5887 0.5890 0.5891 0.5891
2465.000000 0.5891 0.5890 0.5889 0.5889 0.5889
2460.000000 0.5842 0.5769 0.5679 0.5525 0.5371
2455.000000 0.5217 0.5062 0.4908 0.4753 0.4599
2450.000000 0.4444 0.4289 0.4134 0.3978 0.3823
2445.000000 0.3666 0.3512 0.3466 0.3450 0.3441
2440.000000 0.3442 0.3442 0.3445 0.3448 0.3454
2435.000000 0.3462 0.3487 0.3559 0.3632 0.3704
2430.000000 0.3776 0.3849 0.3921 0.3994 0.4066
2425.000000 0.4140 0.4212 0.4286 0.4359 0.4431
2420.000000 0.4498 0.4520 0.4542 0.4556 0.4567
2415.000000 0.4579 0.4592 0.4605 0.4619 0.4632
2410.000000 0.4648 0.4664 0.4687 0.4716 0.4746
2405.000000 0.4775 0.4804 0.4845 0.4888 0.4932
2400.000000 0.4975 0.5017 0.5060 0.5104 0.5147
2395.000000 0.5191 0.5234 0.5277 0.5320 0.5364
2390.000000 0.5407 0.5451 0.5495 0.5538 0.5582
2385.000000 0.5625 0.5669 0.5712 0.5756 0.5800
2380.000000 0.5844 0.5888 0.5932 0.5975 0.6019
2375.000000 0.6064 0.6108 0.6152 0.6196 0.6230
2370.000000 0.6264 0.6278 0.6281 0.6285 0.6288
2365.000000 0.6291 0.6293 0.6295 0.6297 0.6298
2360.000000 0.6299 0.6300 0.6301 0.6302 0.6303
2355.000000 0.6304 0.6305 0.6306 0.6308 0.6310
2350.000000 0.6314 0.6318 0.6321 0.6325 0.6328
2345.000000 0.6331 0.6335 0.6340 0.6344 0.6349
2340.000000 0.6353 0.6358 0.6362 0.6366 0.6371
2335.000000 0.6375 0.6380 0.6386 0.6392 0.6400
2330.000000 0.6407 0.6414 0.6421 0.6428 0.6436
2325.000000 0.6447 0.6461 0.6474 0.6488 0.6501
2320.000000 0.6515 0.6530 0.6544 0.6558 0.6576
2315.000000 0.6597 0.6619 0.6643 0.6665 0.6689
2310.000000 0.6711 0.6735 0.6758 0.6782 0.6806
2305.000000 0.6828 0.6850 0.6871 0.6894 0.6915
2300.000000 0.6938 0.6961 0.6984 0.7006 0.7028
2295.000000 0.7048 0.7067 0.7085 0.7101 0.7118
2290.000000 0.7135 0.7151 0.7168 0.7184 0.7201
2285.000000 0.7218 0.7234 0.7251 0.7264 0.7276
2280.000000 0.7289 0.7301 0.7312 0.7325 0.7338
2275.000000 0.7350 0.7361 0.7374 0.7384 0.7393
2270.000000 0.7400 0.7406 0.7411 0.7418 0.7424
2265.000000 0.7430 0.7436 0.7442 0.7448 0.7454
2260.000000 0.7460 0.7465 0.7471 0.7478 0.7484
2255.000000 0.7490 0.7496 0.7501 0.7508 0.7512
2250.000000 0.7518 0.7521 0.7525 0.7531 0.7535
2245.000000 0.7540 0.7545 0.7550 0.7554 0.7558
2240.000000 0.7562 0.7568 0.7571 0.7576 0.7582
2235.000000 0.7587 0.7591 0.7596 0.7600 0.7605
2230.000000 0.7608 0.7614 0.7618 0.7624 0.7628
2225.000000 0.7633 0.7638 0.7643 0.7648 0.7651
2220.000000 0.7657 0.7661 0.7667 0.7671 0.7675
2215.000000 0.7681 0.7686 0.7691 0.7695 0.7701
2210.000000 0.7706 0.7711 0.7715 0.7719 0.7725
2205.000000 0.7730 0.7735 0.7740 0.7745 0.7750
2200.000000 0.7755 0.7758 0.7764 0.7769 0.7775
2195.000000 0.7780 0.7785 0.7789 0.7795 0.7800
2190.000000 0.7804 0.7808 0.7814 0.7819 0.7824
2185.000000 0.7828 0.7834 0.7838 0.7843 0.7848
2180.000000 0.7853 0.7857 0.7861 0.7867 0.7871
2175.000000 0.7876 0.7882 0.7887 0.7892 0.7896
2170.000000 0.7901 0.7906 0.7911 0.7915 0.7919
2165.000000 0.7925 0.7928 0.7933 0.7937 0.7940
2160.000000 0.7943 0.7947 0.7950 0.7954 0.7957
2155.000000 0.7961 0.7964 0.7968 0.7971 0.7974
2150.000000 0.7978 0.7981 0.7985 0.7988 0.7990
2145.000000 0.7993 0.7996 0.7998 0.8001 0.8004
2140.000000 0.8007 0.8008 0.8011 0.8015 0.8018
2135.000000 0.8019 0.8022 0.8025 0.8028 0.8031
2130.000000 0.8034 0.8037 0.8040 0.8041 0.8042
2125.000000 0.8043 0.8045 0.8046 0.8047 0.8049
2120.000000 0.8050 0.8051 0.8051 0.8053 0.8054
2115.000000 0.8055 0.8056 0.8057 0.8057 0.8058
2110.000000 0.8061 0.8064 0.8067 0.8071 0.8074
2105.000000 0.8076 0.8080 0.8082 0.8084 0.8085
2100.000000 0.8087 0.8089 0.8090 0.8092 0.8093
2095.000000 0.8094 0.8096 0.8096 0.8096 0.8096
2090.000000 0.8095 0.8095 0.8095 0.8095 0.8094
2085.000000 0.8094 0.8094 0.8093 0.8090 0.8088
2080.000000 0.8086 0.8081 0.8075 0.8068 0.8058
2075.000000 0.8051 0.8042 0.8032 0.8015 0.7998
2070.000000 0.7982 0.7958 0.7928 0.7893 0.7857
2065.000000 0.7825 0.7795 0.7767 0.7745 0.7725
2060.000000 0.7714 0.7704 0.7699 0.7695 0.7691
2055.000000 0.7690 0.7690 0.7690 0.7690 0.7678
2050.000000 0.7698 0.7710 0.7730 0.7751 0.7771
2045.000000 0.7794 0.7817 0.7842 0.7865 0.7891
2040.000000 0.7912 0.7933 0.7945 0.7956 0.7968
2035.000000 0.7978 0.7990 0.8001 0.8012 0.8025
2030.000000 0.8037 0.8048 0.8058 0.8067 0.8075
2025.000000 0.8084 0.8092 0.8101 0.8108 0.8118
2020.000000 0.8125 0.8135 0.8143 0.8151 0.8160
2015.000000 0.8168 0.8175 0.8182 0.8187 0.8193
2010.000000 0.8199 0.8204 0.8210 0.8215 0.8221
2005.000000 0.8227 0.8233 0.8239 0.8244 0.8250
2000.000000 0.8256 0.8260 0.8264 0.8268 0.8274
1995.000000 0.8278 0.8283 0.8288 0.8293 0.8297
1990.000000 0.8301 0.8306 0.8311 0.8315 0.8317
1985.000000 0.8318 0.8321 0.8323 0.8325 0.8325
1980.000000 0.8325 0.8324 0.8318 0.8314 0.8308
1975.000000 0.8300 0.8291 0.8281 0.8271 0.8262
1970.000000 0.8253 0.8247 0.8242 0.8237 0.8233
1965.000000 0.8230 0.8228 0.8228 0.8227 0.8225
1960.000000 0.8216 0.8200 0.8168 0.8138 0.8107
1955.000000 0.8083 0.8071 0.8067 0.8075 0.8064
1950.000000 0.8068 0.8072 0.8078 0.8086 0.8092
1945.000000 0.8101 0.8115 0.8128 0.8141 0.8154
1940.000000 0.8172 0.8193 0.8213 0.8234 0.8252
1935.000000 0.8267 0.8277 0.8287 0.8297 0.8307
1930.000000 0.8318 0.8328 0.8338 0.8348 0.8358
1925.000000 0.8365 0.8371 0.8378 0.8387 0.8394
1920.000000 0.8401 0.8404 0.8404 0.8403 0.8402
1915.000000 0.8401 0.8399 0.8398 0.8396 0.8395
1910.000000 0.8394 0.8392 0.8391 0.8390 0.8388
1905.000000 0.8387 0.8385 0.8384 0.8382 0.8378
1900.000000 0.8375 0.8373 0.8370 0.8367 0.8364
1895.000000 0.8361 0.8358 0.8354 0.8349 0.8344
1890.000000 0.8338 0.8328 0.8316 0.8302 0.8281
1885.000000 0.8256 0.8228 0.8202 0.8180 0.8162
1880.000000 0.8158 0.8135 0.8151 0.8154 0.8164
1875.000000 0.8175 0.8186 0.8192 0.8199 0.8205
1870.000000 0.8212 0.8218 0.8225 0.8232 0.8238
1865.000000 0.8245 0.8251 0.8258 0.8264 0.8271
1860.000000 0.8277 0.8283 0.8288 0.8294 0.8299
1855.000000 0.8305 0.8311 0.8317 0.8323 0.8328
1850.000000 0.8334 0.8339 0.8345 0.8350 0.8355
1845.000000 0.8360 0.8364 0.8368 0.8373 0.8377
1840.000000 0.8378 0.8381 0.8383 0.8384 0.8386
1835.000000 0.8386 0.8386 0.8386 0.8385 0.8384
1830.000000 0.8383 0.8383 0.8381 0.8378 0.8377
1825.000000 0.8373 0.8368 0.8366 0.8363 0.8357
1820.000000 0.8344 0.8328 0.8313 0.8297 0.8278
1815.000000 0.8259 0.8243 0.8230 0.8223 0.8218
1810.000000 0.8215 0.8212 0.8208 0.8206 0.8206
1805.000000 0.8206 0.8206 0.8208 0.8218 0.8236
1800.000000 0.8250 0.8264 0.8278 0.8292 0.8305
1795.000000 0.8318 0.8331 0.8343 0.8356 0.8365
1790.000000 0.8368 0.8370 0.8371 0.8371 0.8370
1785.000000 0.8368 0.8365 0.8362 0.8360 0.8357
1780.000000 0.8356 0.8356 0.8357 0.8357 0.8357
1775.000000 0.8358 0.8358 0.8359 0.8360 0.8364
1770.000000 0.8368 0.8371 0.8378 0.8383 0.8389
1765.000000 0.8392 0.8393 0.8390 0.8389 0.8387
1760.000000 0.8385 0.8383 0.8381 0.8378 0.8375
1755.000000 0.8374 0.8373 0.8371 0.8371 0.8375
1750.000000 0.8380 0.8384 0.8389 0.8393 0.8397
1745.000000 0.8401 0.8405 0.8410 0.8417 0.8423
1740.000000 0.8431 0.8438 0.8445 0.8453 0.8458
1735.000000 0.8450 0.8443 0.8437 0.8431 0.8427
1730.000000 0.8421 0.8417 0.8412 0.8408 0.8403
1725.000000 0.8399 0.8396 0.8395 0.8398 0.8403
1720.000000 0.8409 0.8415 0.8421 0.8428 0.8439
1715.000000 0.8454 0.8468 0.8483 0.8498 0.8512
1710.000000 0.8524 0.8530 0.8536 0.8541 0.8545
1705.000000 0.8547 0.8550 0.8552 0.8555 0.8558
1700.000000 0.8560 0.8562 0.8564 0.8567 0.8570
1695.000000 0.8571 0.8574 0.8577 0.8578 0.8582
1690.000000 0.8584 0.8587 0.8590 0.8592 0.8594
1685.000000 0.8597 0.8599 0.8602 0.8604 0.8607
1680.000000 0.8610 0.8611 0.8612 0.8613 0.8613
1675.000000 0.8614 0.8614 0.8615 0.8615 0.8614
1670.000000 0.8613 0.8611 0.8608 0.8606 0.8604
1665.000000 0.8601 0.8598 0.8596 0.8594 0.8594
1660.000000 0.8594 0.8594 0.8594 0.8594 0.8594
1655.000000 0.8594 0.8595 0.8595 0.8596 0.8596
1650.000000 0.8597 0.8597 0.8598 0.8600 0.8602
1645.000000 0.8604 0.8606 0.8608 0.8610 0.8613
1640.000000 0.8618 0.8627 0.8636 0.8644 0.8653
1635.000000 0.8661 0.8668 0.8675 0.8681 0.8686
1630.000000 0.8691 0.8693 0.8693 0.8692 0.8691
1625.000000 0.8691 0.8689 0.8686 0.8694 0.8677
1620.000000 0.8673 0.8667 0.8653 0.8636 0.8621
1615.000000 0.8605 0.8573 0.8531 0.8473 0.8332
1610.000000 0.8069 0.7786 0.7501 0.7218 0.6932
1605.000000 0.6647 0.6373 0.6260 0.6256 0.6280
1600.000000 0.6406 0.6701 0.6998 0.7208 0.7325
1595.000000 0.7411 0.7494 0.7561 0.7614 0.7667
1590.000000 0.7719 0.7775 0.7832 0.7890 0.7944
1585.000000 0.7993 0.8041 0.8080 0.8108 0.8136
1580.000000 0.8165 0.8194 0.8224 0.8255 0.8287
1575.000000 0.8318 0.8345 0.8366 0.8386 0.8407
1570.000000 0.8428 0.8448 0.8468 0.8490 0.8507
1565.000000 0.8521 0.8535 0.8545 0.8552 0.8559
1560.000000 0.8566 0.8571 0.8575 0.8580 0.8584
1555.000000 0.8588 0.8592 0.8591 0.8590 0.8587
1550.000000 0.8584 0.8580 0.8577 0.8571 0.8565
1545.000000 0.8559 0.8560 0.8560 0.8562 0.8564
1540.000000 0.8571 0.8582 0.8592 0.8603 0.8613
1535.000000 0.8621 0.8631 0.8641 0.8650 0.8660
1530.000000 0.8668 0.8675 0.8682 0.8690 0.8697
1525.000000 0.8704 0.8711 0.8718 0.8727 0.8732
1520.000000 0.8736 0.8741 0.8745 0.8748 0.8749
1515.000000 0.8749 0.8744 0.8740 0.8734 0.8720
1510.000000 0.8700 0.8667 0.8631 0.8612 0.8594
1505.000000 0.8575 0.8555 0.8531 0.8505 0.8445
1500.000000 0.8254 0.7941 0.7560 0.7168 0.6775
1495.000000 0.6382 0.5988 0.5594 0.5199 0.4804
1490.000000 0.4530 0.4512 0.4491 0.4514 0.4637
1485.000000 0.4776 0.4914 0.5053 0.5191 0.5331
1480.000000 0.5471 0.5593 0.5643 0.5652 0.5660
1475.000000 0.5668 0.5678 0.5752 0.5895 0.6038
1470.000000 0.6182 0.6325 0.6469 0.6614 0.6758
1465.000000 0.6888 0.6943 0.6925 0.6935 0.6630
1460.000000 0.6323 0.6015 0.5707 0.5398 0.5089
1455.000000 0.4676 0.4662 0.4659 0.4776 0.4980
1450.000000 0.5189 0.5398 0.5608 0.5818 0.6028
1445.000000 0.6232 0.6339 0.6371 0.6395 0.6396
1440.000000 0.6415 0.6410 0.6376 0.6332 0.6288
1435.000000 0.6245 0.6201 0.6118 0.6142 0.6151
1430.000000 0.6190 0.6259 0.6388 0.6537 0.6686
1425.000000 0.6836 0.6985 0.7101 0.7205 0.7311
1420.000000 0.7396 0.7469 0.7548 0.7621 0.7680
1415.000000 0.7732 0.7786 0.7821 0.7858 0.7893
1410.000000 0.7928 0.7962 0.7998 0.8031 0.8064
1405.000000 0.8087 0.8103 0.8115 0.8124 0.8131
1400.000000 0.8136 0.8162 0.8140 0.8139 0.8136
1395.000000 0.8128 0.8104 0.8035 0.7933 0.7450
1390.000000 0.6953 0.6456 0.5958 0.5474 0.5278
1385.000000 0.5353 0.5632 0.5910 0.6189 0.6468
1380.000000 0.6748 0.7028 0.7306 0.7517 0.7621
1375.000000 0.7694 0.7762 0.7830 0.7894 0.7948
1370.000000 0.7991 0.8008 0.8022 0.8039 0.8048
1365.000000 0.8058 0.8057 0.8054 0.8042 0.8019
1360.000000 0.7907 0.7564 0.7215 0.6865 0.6515
1355.000000 0.6231 0.6224 0.6323 0.6558 0.6804
1350.000000 0.7051 0.7297 0.7491 0.7528 0.7525
1345.000000 0.7497 0.7462 0.7435 0.7433 0.7450
1340.000000 0.7492 0.7542 0.7595 0.7651 0.7707
1335.000000 0.7761 0.7811 0.7862 0.7915 0.7961
1330.000000 0.8007 0.8051 0.8097 0.8131 0.8158
1325.000000 0.8182 0.8204 0.8221 0.8235 0.8247
1320.000000 0.8257 0.8266 0.8274 0.8282 0.8275
1315.000000 0.8286 0.8243 0.8143 0.8042 0.7941
1310.000000 0.7839 0.7675 0.7665 0.7669 0.7689
1305.000000 0.7730 0.7784 0.7841 0.7907 0.7987
1300.000000 0.8048 0.8104 0.8160 0.8207 0.8250
1295.000000 0.8292 0.8333 0.8365 0.8386 0.8407
1290.000000 0.8428 0.8449 0.8470 0.8491 0.8507
1285.000000 0.8523 0.8539 0.8555 0.8567 0.8575
1280.000000 0.8581 0.8589 0.8596 0.8603 0.8610
1275.000000 0.8617 0.8625 0.8630 0.8636 0.8641
1270.000000 0.8647 0.8653 0.8658 0.8663 0.8668
1265.000000 0.8674 0.8680 0.8687 0.8694 0.8702
1260.000000 0.8710 0.8718 0.8725 0.8733 0.8741
1255.000000 0.8749 0.8757 0.8765 0.8773 0.8781
1250.000000 0.8788 0.8794 0.8799 0.8804 0.8809
1245.000000 0.8814 0.8818 0.8823 0.8827 0.8832
1240.000000 0.8837 0.8842 0.8847 0.8854 0.8860
1235.000000 0.8867 0.8871 0.8878 0.8885 0.8892
1230.000000 0.8899 0.8906 0.8914 0.8920 0.8928
1225.000000 0.8935 0.8942 0.8949 0.8955 0.8960
1220.000000 0.8965 0.8970 0.8975 0.8980 0.8980
1215.000000 0.8980 0.8978 0.8973 0.8965 0.8935
1210.000000 0.8902 0.8871 0.8848 0.8831 0.8816
1205.000000 0.8809 0.8813 0.8820 0.8833 0.8848
1200.000000 0.8860 0.8860 0.8860 0.8832 0.8740
1195.000000 0.8525 0.8274 0.8021 0.7769 0.7518
1190.000000 0.7265 0.7026 0.6961 0.6971 0.7118
1185.000000 0.7376 0.7637 0.7872 0.8007 0.8108
1180.000000 0.8186 0.8248 0.8307 0.8366 0.8418
1175.000000 0.8465 0.8512 0.8547 0.8577 0.8596
1170.000000 0.8612 0.8638 0.8625 0.8625 0.8595
1165.000000 0.8433 0.8249 0.8064 0.7938 0.7928
1160.000000 0.7986 0.8045 0.8068 0.8110 0.8225
1155.000000 0.8350 0.8445 0.8509 0.8571 0.8612
1150.000000 0.8653 0.8691 0.8727 0.8762 0.8793
1145.000000 0.8814 0.8835 0.8847 0.8857 0.8867
1140.000000 0.8878 0.8890 0.8902 0.8913 0.8925
1135.000000 0.8939 0.8954 0.8968 0.8983 0.8998
1130.000000 0.9011 0.9021 0.9031 0.9041 0.9052
1125.000000 0.9063 0.9070 0.9071 0.9073 0.9061
1120.000000 0.9040 0.9008 0.8966 0.8881 0.8758
1115.000000 0.8537 0.8316 0.8095 0.7994 0.8001
1110.000000 0.8042 0.8115 0.8192 0.8249 0.8275
1105.000000 0.8266 0.8237 0.8062 0.7835 0.7606
1100.000000 0.7372 0.7384 0.7395 0.7478 0.7661
1095.000000 0.7847 0.8031 0.8217 0.8400 0.8478
1090.000000 0.8510 0.8517 0.8537 0.8487 0.8433
1085.000000 0.8228 0.7808 0.7387 0.6965 0.6542
1080.000000 0.6282 0.6287 0.6589 0.6844 0.7099
1075.000000 0.7354 0.7610 0.7865 0.8118 0.8268
1070.000000 0.8323 0.8343 0.8354 0.8317 0.8262
1065.000000 0.8125 0.7632 0.7054 0.6475 0.5894
1060.000000 0.5334 0.5220 0.5214 0.5516 0.5844
1055.000000 0.6172 0.6501 0.6830 0.7161 0.7491
1050.000000 0.7768 0.7764 0.7738 0.7643 0.7064
1045.000000 0.6483 0.6428 0.6549 0.6781 0.7012
1040.000000 0.7246 0.7480 0.7719 0.7928 0.8068
1035.000000 0.8178 0.8233 0.8266 0.8267 0.8268
1030.000000 0.8214 0.7906 0.7626 0.7593 0.7600
1025.000000 0.7632 0.7675 0.7697 0.7586 0.7405
1020.000000 0.7225 0.7044 0.6943 0.6941 0.7006
1015.000000 0.7206 0.7449 0.7693 0.7934 0.8100
1010.000000 0.8202 0.8268 0.8333 0.8382 0.8430
1005.000000 0.8468 0.8505 0.8528 0.8549 0.8565
1000.000000 0.8578 0.8442 0.8342 0.8399 0.8541
995.000000 0.8656 0.8696 0.8727 0.8767 0.8754
990.000000 0.8740 0.8632 0.8468 0.8395 0.8378
985.000000 0.8406 0.8502 0.8562 0.8618 0.8663
980.000000 0.8706 0.8749 0.8784 0.8817 0.8850
975.000000 0.8865 0.8884 0.8858 0.8834 0.8817
970.000000 0.8810 0.8804 0.8805 0.8828 0.8852
965.000000 0.8875 0.8898 0.8921 0.8938 0.8947
960.000000 0.8957 0.8967 0.8977 0.8984 0.8990
955.000000 0.8996 0.9002 0.9008 0.9015 0.9021
950.000000 0.9028 0.9034 0.9041 0.9047 0.9053
945.000000 0.9060 0.9065 0.9071 0.9077 0.9082
940.000000 0.9087 0.9091 0.9095 0.9095 0.9095
935.000000 0.9093 0.9091 0.9112 0.9088 0.9085
930.000000 0.9078 0.9041 0.8994 0.8871 0.8720
925.000000 0.8587 0.8395 0.8237 0.8254 0.8300
920.000000 0.8392 0.8503 0.8559 0.8571 0.8553
915.000000 0.8306 0.8068 0.8040 0.8064 0.8193
910.000000 0.8316 0.8453 0.8642 0.8759 0.8868
905.000000 0.8918 0.8951 0.8980 0.9004 0.9028
900.000000 0.9053 0.9082 0.9060 0.9036 0.9011
895.000000 0.8975 0.8940 0.8911 0.8892 0.8905
890.000000 0.8917 0.8924 0.8921 0.8904 0.8868
885.000000 0.8802 0.8732 0.8707 0.8705 0.8791
880.000000 0.8880 0.8947 0.8996 0.9020 0.9045
875.000000 0.9068 0.9093 0.9116 0.9140 0.9165
870.000000 0.9186 0.9205 0.9224 0.9243 0.9253
865.000000 0.9259 0.9266 0.9265 0.9264 0.9263
860.000000 0.9259 0.9255 0.9253 0.9259 0.9266
855.000000 0.9267 0.9268 0.9264 0.9249 0.9236
850.000000 0.9228 0.9244 0.9268 0.9290 0.9286
845.000000 0.9275 0.9261 0.9246 0.9241 0.9241
840.000000 0.9234 0.9223 0.9191 0.9141 0.9114
835.000000 0.9091 0.9102 0.9111 0.9143 0.9178
830.000000 0.9228 0.9277 0.9310 0.9333 0.9333
825.000000 0.9337 0.9342 0.9370 0.9396 0.9414
820.000000 0.9401 0.9408 0.9416 0.9425 0.9435
815.000000 0.9433 0.9428 0.9411 0.9373 0.9328
810.000000 0.9305 0.9303 0.9309 0.9325 0.9341
805.000000 0.9362 0.9385 0.9400 0.9401 0.9386
800.000000 0.9375 0.9375 0.9377 0.9383 0.9389
795.000000 0.9395 0.9402 0.9408 0.9414 0.9420
790.000000 0.9425 0.9432 0.9439 0.9450 0.9461
785.000000 0.9471 0.9483 0.9492 0.9501 0.9511
780.000000 0.9518 0.9524 0.9528 0.9533 0.9538
775.000000 0.9541 0.9544 0.9545 0.9546 0.9545
770.000000 0.9543 0.9538 0.9520 0.9507 0.9489
765.000000 0.9468 0.9443 0.9415 0.9387 0.9343
760.000000 0.9288 0.9197 0.9071 0.8862 0.8521
755.000000 0.8118 0.7318 0.6653 0.5519 0.4383
750.000000 0.3243 0.2583 0.2582 0.3152 0.3949
745.000000 0.4749 0.5552 0.6353 0.7078 0.7474
740.000000 0.7775 0.7990 0.8171 0.8301 0.8421
735.000000 0.8536 0.8635 0.8734 0.8827 0.8904
730.000000 0.8982 0.9039 0.9085 0.9131 0.9168
725.000000 0.9204 0.9241 0.9266 0.9291 0.9316
720.000000 0.9337 0.9358 0.9378 0.9393 0.9415
715.000000 0.9401 0.9385 0.9361 0.9305 0.9225
710.000000 0.9124 0.8980 0.8782 0.8585 0.8377
705.000000 0.8064 0.7690 0.6997 0.5690 0.4380
700.000000 0.3127 0.3159 0.3538 0.4362 0.5276
695.000000 0.6192 0.7064 0.7450 0.7724 0.7921
690.000000 0.8075 0.8198 0.8310 0.8416 0.8510
685.000000 0.8592 0.8675 0.8703 0.8717 0.8731
680.000000 0.8771 0.8810 0.8840 0.8875 0.8916
675.000000 0.8962 0.9008 0.9052 0.9051
##END=
