##TITLE=CALCIUM PERMANGANATE
##JCAMP-DX=4.24
##DATA TYPE=INFRARED SPECTRUM
##CLASS=COBLENTZ
##ORIGIN=MELLON INSTITUTE
##OWNER=COBLENTZ SOCIETY
Collection (C) 2018 copyright by the U.S. Secretary of Commerce
on behalf of the United States of America. All rights reserved.
##DATE=Not specified, most likely prior to 1970
##MOLFORM=Ca ( Mn O4)2  * 4 H2 O
##SOURCE REFERENCE=COBLENTZ NO. 496
##$NIST ID=B6000496
##$NIST SOURCE=COBLENTZ
##$NIST IMAGE=cob496
##SPECTROMETER/DATA SYSTEM=Not specified, most likely a prism, grating, or hybrid spectrometer.
##STATE=SOLID (DRY POWDER)
##SAMPLING PROCEDURE=TRANSMISSION
##RESOLUTION=4
##DATA PROCESSING=DIGITIZED BY NIST FROM HARD COPY
##XUNITS=MICROMETERS
##YUNITS=TRANSMITTANCE
##XFACTOR=1.000000
##YFACTOR=1
##DELTAX=000.006828
##FIRSTX=2.037
##LASTX=16.007
##FIRSTY=0.794
##MAXX=16.007
##MINX=2.037
##MAXY=0.952
##MINY=0.092
##NPOINTS=2047
##XYDATA=(X++(Y..Y))
2.037000 0.7940 0.7940 0.7980 0.7980 0.8000
2.071157 0.8000 0.7980 0.8000 0.8000 0.8010
2.106000 0.8010 0.8010 0.8030 0.8010 0.8010
2.140157 0.8010 0.8010 0.8010 0.8010 0.8010
2.174000 0.8010 0.8000 0.8000 0.8000 0.8000
2.208157 0.7980 0.7980 0.7960 0.7960 0.7940
2.242000 0.7960 0.7940 0.7940 0.7940 0.7930
2.276157 0.7930 0.7930 0.7930 0.7910 0.7890
2.310000 0.7890 0.7890 0.7890 0.7890 0.7880
2.344157 0.7860 0.7860 0.7860 0.7860 0.7860
2.379000 0.7840 0.7840 0.7840 0.7820 0.7810
2.413157 0.7770 0.7760 0.7720 0.7700 0.7670
2.447000 0.7640 0.7620 0.7600 0.7580 0.7550
2.481157 0.7530 0.7530 0.7500 0.7500 0.7480
2.515000 0.7470 0.7470 0.7450 0.7450 0.7450
2.549157 0.7430 0.7410 0.7410 0.7410 0.7410
2.583000 0.7410 0.7400 0.7400 0.7380 0.7400
2.617157 0.7400 0.7380 0.7380 0.7360 0.7330
2.652000 0.7290 0.7260 0.7230 0.7190 0.7190
2.686157 0.7170 0.7140 0.7020 0.6850 0.6710
2.720000 0.6520 0.6290 0.6100 0.5910 0.5240
2.754157 0.5020 0.4150 0.3980 0.3810 0.3090
2.788000 0.2350 0.2050 0.1740 0.1700 0.1620
2.822157 0.1310 0.1110 0.1040 0.1020 0.1000
2.857000 0.0990 0.0950 0.0940 0.0940 0.0920
2.891157 0.0920 0.0920 0.0920 0.0950 0.1000
2.925000 0.1020 0.1140 0.1230 0.1280 0.1400
2.959157 0.1470 0.1550 0.1670 0.1700 0.1770
2.993000 0.2110 0.2230 0.2340 0.2440 0.2540
3.027157 0.2680 0.2830 0.2940 0.2970 0.3040
3.061000 0.3140 0.3210 0.3280 0.3330 0.3410
3.095157 0.3450 0.3520 0.3550 0.3650 0.3790
3.130000 0.3980 0.4220 0.4390 0.4470 0.4610
3.164157 0.4730 0.4920 0.4970 0.5040 0.5140
3.198000 0.5240 0.5330 0.5410 0.5530 0.5620
3.232157 0.5700 0.5760 0.5860 0.5910 0.5940
3.266000 0.6030 0.6130 0.6220 0.6230 0.6250
3.300157 0.6340 0.6390 0.6440 0.6490 0.6520
3.335000 0.6540 0.6540 0.6590 0.6630 0.6660
3.369157 0.6710 0.6730 0.6750 0.6760 0.6780
3.403000 0.6800 0.6820 0.6850 0.6880 0.6920
3.437157 0.6940 0.6990 0.6990 0.6990 0.7000
3.471000 0.7020 0.7020 0.7040 0.7090 0.7110
3.505157 0.7120 0.7140 0.7160 0.7170 0.7190
3.539000 0.7190 0.7190 0.7190 0.7210 0.7210
3.573157 0.7210 0.7230 0.7230 0.7230 0.7240
3.608000 0.7240 0.7240 0.7280 0.7280 0.7290
3.642157 0.7290 0.7290 0.7290 0.7290 0.7290
3.676000 0.7290 0.7290 0.7310 0.7310 0.7310
3.710157 0.7330 0.7330 0.7330 0.7330 0.7330
3.744000 0.7330 0.7330 0.7330 0.7330 0.7330
3.778157 0.7330 0.7330 0.7330 0.7330 0.7330
3.813000 0.7330 0.7330 0.7330 0.7330 0.7330
3.847157 0.7330 0.7330 0.7330 0.7330 0.7330
3.881000 0.7330 0.7330 0.7350 0.7350 0.7330
3.915157 0.7330 0.7330 0.7330 0.7330 0.7330
3.949000 0.7330 0.7330 0.7330 0.7330 0.7330
3.983157 0.7330 0.7330 0.7350 0.7350 0.7350
4.017000 0.7330 0.7330 0.7330 0.7350 0.7350
4.051157 0.7350 0.7350 0.7360 0.7360 0.7360
4.086000 0.7360 0.7360 0.7380 0.7360 0.7360
4.120157 0.7360 0.7360 0.7360 0.7360 0.7360
4.154000 0.7360 0.7360 0.7360 0.7360 0.7360
4.188157 0.7350 0.7310 0.7240 0.7170 0.7110
4.222000 0.7090 0.7050 0.7040 0.7040 0.7050
4.256157 0.7050 0.7050 0.7070 0.7050 0.7050
4.291000 0.7070 0.7070 0.7070 0.7070 0.7070
4.325157 0.7110 0.7140 0.7140 0.7160 0.7190
4.359000 0.7210 0.7210 0.7230 0.7240 0.7260
4.393157 0.7260 0.7260 0.7260 0.7240 0.7260
4.427000 0.7260 0.7240 0.7240 0.7230 0.7230
4.461157 0.7210 0.7210 0.7190 0.7190 0.7190
4.495000 0.7190 0.7190 0.7190 0.7170 0.7170
4.529157 0.7190 0.7190 0.7170 0.7170 0.7160
4.564000 0.7160 0.7160 0.7160 0.7140 0.7140
4.598157 0.7140 0.7120 0.7120 0.7110 0.7110
4.632000 0.7110 0.7110 0.7110 0.7110 0.7110
4.666157 0.7110 0.7110 0.7110 0.7110 0.7050
4.700000 0.7050 0.7040 0.7020 0.7020 0.7040
4.734157 0.7040 0.7050 0.7040 0.7070 0.7070
4.768000 0.7070 0.7070 0.7110 0.7110 0.7110
4.802157 0.7110 0.7120 0.7120 0.7140 0.7120
4.837000 0.7120 0.7120 0.7120 0.7120 0.7120
4.871157 0.7120 0.7120 0.7120 0.7120 0.7120
4.905000 0.7120 0.7140 0.7140 0.7140 0.7160
4.939157 0.7210 0.7210 0.7210 0.7210 0.7210
4.973000 0.7230 0.7230 0.7240 0.7260 0.7280
5.007157 0.7290 0.7290 0.7290 0.7310 0.7310
5.042000 0.7330 0.7330 0.7330 0.7330 0.7310
5.076157 0.7310 0.7310 0.7350 0.7350 0.7380
5.110000 0.7380 0.7400 0.7400 0.7410 0.7450
5.144157 0.7470 0.7470 0.7470 0.7480 0.7480
5.178000 0.7480 0.7480 0.7480 0.7480 0.7480
5.212157 0.7500 0.7520 0.7520 0.7530 0.7530
5.246000 0.7530 0.7530 0.7520 0.7530 0.7530
5.280157 0.7530 0.7530 0.7550 0.7570 0.7570
5.315000 0.7570 0.7570 0.7570 0.7580 0.7570
5.349157 0.7580 0.7580 0.7620 0.7640 0.7640
5.383000 0.7650 0.7650 0.7650 0.7650 0.7620
5.417157 0.7620 0.7620 0.7620 0.7640 0.7650
5.451000 0.7650 0.7640 0.7640 0.7620 0.7620
5.485157 0.7620 0.7620 0.7620 0.7620 0.7620
5.520000 0.7640 0.7650 0.7650 0.7670 0.7690
5.554157 0.7700 0.7700 0.7720 0.7720 0.7720
5.588000 0.7740 0.7760 0.7770 0.7790 0.7790
5.622157 0.7810 0.7810 0.7810 0.7820 0.7840
5.656000 0.7840 0.7840 0.7840 0.7820 0.7820
5.690157 0.7790 0.7790 0.7790 0.7790 0.7790
5.724000 0.7810 0.7820 0.7820 0.7820 0.7740
5.758157 0.7740 0.7720 0.7720 0.7720 0.7720
5.793000 0.7720 0.7740 0.7770 0.7770 0.7770
5.827157 0.7790 0.7790 0.7810 0.7810 0.7820
5.861000 0.7840 0.7840 0.7860 0.7840 0.7840
5.895157 0.7820 0.7820 0.7820 0.7790 0.7770
5.929000 0.7760 0.7740 0.7700 0.7620 0.7520
5.963157 0.7480 0.7450 0.7410 0.7290 0.7260
5.998000 0.7210 0.7020 0.6940 0.6730 0.6520
6.032157 0.6220 0.6030 0.6000 0.5880 0.5760
6.066000 0.5670 0.5410 0.5090 0.4700 0.4440
6.100157 0.4300 0.4000 0.3570 0.3120 0.2630
6.134000 0.2460 0.2410 0.2410 0.2410 0.2420
6.168157 0.2680 0.2710 0.2800 0.2950 0.3110
6.202000 0.3240 0.3400 0.3520 0.4510 0.5000
6.236157 0.5090 0.5570 0.5690 0.5820 0.5910
6.271000 0.6320 0.6420 0.6510 0.6590 0.6700
6.305157 0.6780 0.6880 0.6950 0.6990 0.7070
6.339000 0.7110 0.7140 0.7140 0.7170 0.7210
6.373157 0.7310 0.7350 0.7400 0.7430 0.7450
6.407000 0.7450 0.7470 0.7470 0.7480 0.7500
6.441157 0.7520 0.7530 0.7580 0.7640 0.7650
6.475000 0.7720 0.7740 0.7740 0.7740 0.7740
6.509157 0.7720 0.7740 0.7740 0.7740 0.7740
6.544000 0.7740 0.7740 0.7760 0.7770 0.7810
6.578157 0.7820 0.7820 0.7840 0.7840 0.7840
6.612000 0.7840 0.7840 0.7840 0.7840 0.7880
6.646157 0.7880 0.7910 0.8050 0.8060 0.8080
6.680000 0.8080 0.8100 0.8100 0.8100 0.8100
6.714157 0.8100 0.8130 0.8200 0.8220 0.8220
6.749000 0.8220 0.8200 0.8180 0.8180 0.8170
6.783157 0.8180 0.8180 0.8220 0.8230 0.8230
6.817000 0.8230 0.8230 0.8200 0.8200 0.8180
6.851157 0.8180 0.8180 0.8180 0.8180 0.8220
6.885000 0.8220 0.8250 0.8250 0.8270 0.8320
6.919157 0.8320 0.8290 0.8270 0.8270 0.8250
6.953000 0.8230 0.8250 0.8270 0.8270 0.8270
6.987157 0.8250 0.8290 0.8290 0.8290 0.8290
7.022000 0.8290 0.8270 0.8270 0.8270 0.8250
7.056157 0.8250 0.8250 0.8250 0.8300 0.8320
7.090000 0.8320 0.8340 0.8340 0.8350 0.8350
7.124157 0.8350 0.8340 0.8340 0.8350 0.8350
7.158000 0.8420 0.8440 0.8440 0.8420 0.8420
7.192157 0.8440 0.8460 0.8460 0.8460 0.8460
7.227000 0.8460 0.8460 0.8460 0.8460 0.8460
7.261157 0.8460 0.8460 0.8460 0.8460 0.8460
7.295000 0.8460 0.8470 0.8490 0.8510 0.8510
7.329157 0.8510 0.8510 0.8520 0.8520 0.8520
7.363000 0.8520 0.8520 0.8490 0.8490 0.8470
7.397157 0.8490 0.8510 0.8540 0.8540 0.8520
7.431000 0.8520 0.8520 0.8520 0.8540 0.8540
7.465157 0.8540 0.8590 0.8590 0.8610 0.8610
7.500000 0.8610 0.8610 0.8610 0.8630 0.8630
7.534157 0.8630 0.8630 0.8630 0.8590 0.8590
7.568000 0.8630 0.8610 0.8610 0.8630 0.8630
7.602157 0.8630 0.8630 0.8640 0.8660 0.8680
7.636000 0.8700 0.8700 0.8700 0.8700 0.8710
7.670157 0.8710 0.8730 0.8780 0.8800 0.8820
7.705000 0.8820 0.8830 0.8830 0.8850 0.8850
7.739157 0.8870 0.8870 0.8870 0.8850 0.8850
7.773000 0.8850 0.8870 0.8870 0.8870 0.8850
7.807157 0.8870 0.8870 0.8880 0.8900 0.8920
7.841000 0.8920 0.8920 0.8920 0.8920 0.8940
7.875157 0.8940 0.8940 0.8940 0.8940 0.8940
7.909000 0.8940 0.8940 0.8940 0.8920 0.8920
7.943157 0.8920 0.8920 0.8920 0.8920 0.8920
7.978000 0.8920 0.8920 0.8920 0.8920 0.8920
8.012157 0.8920 0.8920 0.8920 0.8940 0.8940
8.046000 0.8940 0.8940 0.8950 0.8950 0.8950
8.080157 0.8950 0.8950 0.8950 0.8970 0.8970
8.114000 0.8970 0.8970 0.8970 0.8970 0.8990
8.148157 0.8990 0.8990 0.8990 0.8990 0.8990
8.182000 0.8990 0.8990 0.8990 0.8990 0.8990
8.216157 0.8990 0.8990 0.8990 0.8990 0.8990
8.251000 0.8990 0.8990 0.8990 0.8990 0.8990
8.285157 0.8990 0.8990 0.8990 0.8970 0.8990
8.319000 0.9000 0.9000 0.9000 0.9000 0.9000
8.353157 0.9020 0.9020 0.9020 0.9020 0.9020
8.387000 0.9020 0.9020 0.9020 0.9020 0.9020
8.421157 0.9020 0.9020 0.9020 0.9020 0.9020
8.456000 0.9020 0.9020 0.9040 0.9040 0.9040
8.490157 0.9040 0.9040 0.9040 0.9020 0.9020
8.524000 0.9020 0.9020 0.9020 0.9020 0.9020
8.558157 0.9020 0.9020 0.9020 0.9020 0.9020
8.592000 0.9020 0.9020 0.9020 0.9020 0.9020
8.626157 0.9020 0.9020 0.9020 0.9020 0.9000
8.660000 0.9000 0.9020 0.9050 0.9050 0.9050
8.694157 0.9050 0.9050 0.9050 0.9050 0.9050
8.729000 0.9050 0.9050 0.9050 0.9050 0.9050
8.763157 0.9050 0.9050 0.9050 0.9050 0.9050
8.797000 0.9050 0.9050 0.9050 0.9050 0.9070
8.831157 0.9070 0.9070 0.9070 0.9070 0.9070
8.865000 0.9070 0.9070 0.9070 0.9070 0.9090
8.899157 0.9090 0.9090 0.9090 0.9090 0.9090
8.934000 0.9090 0.9090 0.9090 0.9090 0.9090
8.968157 0.9090 0.9090 0.9090 0.9090 0.9090
9.002000 0.9090 0.9090 0.9110 0.9110 0.9110
9.036157 0.9110 0.9110 0.9110 0.9110 0.9110
9.070000 0.9110 0.9110 0.9110 0.9110 0.9140
9.104157 0.9160 0.9160 0.9160 0.9160 0.9160
9.138000 0.9160 0.9160 0.9160 0.9160 0.9160
9.172157 0.9160 0.9160 0.9160 0.9160 0.9160
9.207000 0.9160 0.9170 0.9160 0.9140 0.9160
9.241157 0.9160 0.9170 0.9170 0.9170 0.9170
9.275000 0.9170 0.9170 0.9170 0.9170 0.9170
9.309157 0.9170 0.9160 0.9160 0.9170 0.9170
9.343000 0.9170 0.9160 0.9170 0.9190 0.9210
9.377157 0.9230 0.9240 0.9240 0.9260 0.9280
9.412000 0.9280 0.9260 0.9260 0.9240 0.9240
9.446157 0.9280 0.9290 0.9310 0.9290 0.9290
9.480000 0.9290 0.9290 0.9290 0.9310 0.9310
9.514157 0.9310 0.9310 0.9310 0.9310 0.9310
9.548000 0.9310 0.9330 0.9350 0.9350 0.9350
9.582157 0.9350 0.9350 0.9360 0.9360 0.9360
9.616000 0.9360 0.9360 0.9360 0.9360 0.9360
9.650157 0.9360 0.9360 0.9350 0.9330 0.9310
9.685000 0.9330 0.9330 0.9360 0.9360 0.9360
9.719157 0.9360 0.9380 0.9400 0.9410 0.9410
9.753000 0.9410 0.9410 0.9400 0.9400 0.9400
9.787157 0.9410 0.9430 0.9450 0.9430 0.9430
9.821000 0.9430 0.9430 0.9430 0.9430 0.9430
9.855157 0.9430 0.9450 0.9450 0.9480 0.9500
9.890000 0.9500 0.9480 0.9480 0.9480 0.9480
9.924157 0.9480 0.9480 0.9480 0.9480 0.9470
9.958000 0.9480 0.9480 0.9480 0.9480 0.9480
9.992157 0.9480 0.9470 0.9470 0.9450 0.9430
10.026000 0.9450 0.9470 0.9480 0.9480 0.9480
10.060157 0.9480 0.9480 0.9480 0.9480 0.9480
10.094000 0.9470 0.9470 0.9450 0.9410 0.9470
10.128157 0.9480 0.9500 0.9520 0.9520 0.9520
10.163000 0.9520 0.9520 0.9520 0.9500 0.9500
10.197157 0.9480 0.9480 0.9480 0.9480 0.9480
10.231000 0.9480 0.9470 0.9470 0.9450 0.9430
10.265157 0.9410 0.9400 0.9380 0.9380 0.9380
10.299000 0.9400 0.9400 0.9410 0.9410 0.9410
10.333157 0.9410 0.9400 0.9400 0.9380 0.9350
10.367000 0.9330 0.9310 0.9290 0.9290 0.9290
10.401157 0.9260 0.9240 0.9240 0.9240 0.9190
10.436000 0.9170 0.9160 0.9140 0.9120 0.9040
10.470157 0.9040 0.9020 0.8990 0.8940 0.8870
10.504000 0.8850 0.8780 0.8750 0.8710 0.8610
10.538157 0.8580 0.8490 0.8340 0.8250 0.8110
10.572000 0.8000 0.7910 0.7810 0.7650 0.7500
10.606157 0.7230 0.7090 0.6820 0.6590 0.6410
10.641000 0.6100 0.5910 0.5720 0.5380 0.5110
10.675157 0.4820 0.4580 0.4340 0.4180 0.4010
10.709000 0.3890 0.3770 0.3600 0.3430 0.3230
10.743157 0.3070 0.2940 0.2780 0.2700 0.2590
10.777000 0.2470 0.2370 0.2230 0.2130 0.2030
10.811157 0.2010 0.1980 0.1940 0.1930 0.1860
10.845000 0.1820 0.1810 0.1760 0.1760 0.1740
10.879157 0.1720 0.1720 0.1700 0.1700 0.1700
10.914000 0.1690 0.1670 0.1670 0.1670 0.1670
10.948157 0.1670 0.1650 0.1650 0.1640 0.1640
10.982000 0.1620 0.1620 0.1580 0.1580 0.1570
11.016157 0.1550 0.1530 0.1530 0.1530 0.1530
11.050000 0.1530 0.1530 0.1530 0.1530 0.1530
11.084157 0.1530 0.1530 0.1530 0.1530 0.1520
11.119000 0.1520 0.1500 0.1500 0.1500 0.1500
11.153157 0.1500 0.1500 0.1470 0.1450 0.1430
11.187000 0.1430 0.1430 0.1450 0.1450 0.1450
11.221157 0.1450 0.1470 0.1480 0.1500 0.1530
11.255000 0.1530 0.1550 0.1600 0.1640 0.1740
11.289157 0.1760 0.1820 0.1890 0.2010 0.2130
11.323000 0.2300 0.2390 0.2490 0.2610 0.2710
11.357157 0.2820 0.2940 0.3040 0.3190 0.3280
11.392000 0.3410 0.3570 0.3600 0.3760 0.3910
11.426157 0.4200 0.4410 0.4510 0.4630 0.4730
11.460000 0.4830 0.4900 0.5000 0.5110 0.5140
11.494157 0.5230 0.5380 0.5500 0.5600 0.5670
11.528000 0.5700 0.5820 0.5880 0.5910 0.5980
11.562157 0.6100 0.6130 0.6230 0.6320 0.6410
11.597000 0.6470 0.6520 0.6610 0.6630 0.6680
11.631157 0.6710 0.6730 0.6780 0.6820 0.6830
11.665000 0.6880 0.6940 0.6990 0.7000 0.7020
11.699157 0.7070 0.7090 0.7120 0.7140 0.7190
11.733000 0.7210 0.7230 0.7290 0.7310 0.7330
11.767157 0.7360 0.7380 0.7400 0.7400 0.7410
11.801000 0.7410 0.7330 0.7230 0.7120 0.7020
11.835157 0.6940 0.6820 0.6590 0.6510 0.6410
11.870000 0.6390 0.6350 0.6340 0.6350 0.6350
11.904157 0.6370 0.6390 0.6390 0.6410 0.6420
11.938000 0.6460 0.6510 0.6520 0.6630 0.6700
11.972157 0.6800 0.6880 0.6970 0.7050 0.7110
12.006000 0.7160 0.7190 0.7240 0.7280 0.7290
12.040157 0.7310 0.7360 0.7400 0.7430 0.7480
12.074000 0.7520 0.7550 0.7580 0.7600 0.7620
12.108157 0.7670 0.7690 0.7700 0.7700 0.7700
12.143000 0.7740 0.7760 0.7760 0.7770 0.7770
12.177157 0.7790 0.7790 0.7790 0.7810 0.7810
12.211000 0.7820 0.7820 0.7840 0.7840 0.7840
12.245157 0.7840 0.7890 0.7910 0.7930 0.7940
12.279000 0.7940 0.7940 0.7960 0.7960 0.7980
12.313157 0.7980 0.8010 0.8010 0.8030 0.8030
12.348000 0.8050 0.8050 0.8060 0.8060 0.8060
12.382157 0.8080 0.8080 0.8080 0.8100 0.8100
12.416000 0.8100 0.8100 0.8100 0.8110 0.8110
12.450157 0.8110 0.8110 0.8110 0.8110 0.8110
12.484000 0.8130 0.8130 0.8130 0.8130 0.8150
12.518157 0.8150 0.8150 0.8170 0.8170 0.8170
12.552000 0.8180 0.8180 0.8180 0.8180 0.8180
12.586157 0.8170 0.8130 0.8110 0.8130 0.8180
12.621000 0.8180 0.8180 0.8220 0.8220 0.8220
12.655157 0.8220 0.8200 0.8200 0.8200 0.8200
12.689000 0.8180 0.8180 0.8180 0.8180 0.8180
12.723157 0.8180 0.8150 0.8150 0.8130 0.8130
12.757000 0.8150 0.8150 0.8150 0.8150 0.8130
12.791157 0.8150 0.8170 0.8170 0.8170 0.8150
12.826000 0.8150 0.8170 0.8170 0.8170 0.8170
12.860157 0.8170 0.8150 0.8150 0.8150 0.8130
12.894000 0.8130 0.8110 0.8110 0.8110 0.8110
12.928157 0.8110 0.8110 0.8110 0.8110 0.8100
12.962000 0.8100 0.8080 0.8080 0.8080 0.8080
12.996157 0.8060 0.8030 0.8060 0.8060 0.8050
13.030000 0.8030 0.8030 0.8030 0.8010 0.8030
13.064157 0.8010 0.8010 0.8030 0.8010 0.8000
13.099000 0.8000 0.8010 0.8030 0.8030 0.8030
13.133157 0.8030 0.8050 0.8030 0.8030 0.8030
13.167000 0.8010 0.8010 0.8000 0.8000 0.8000
13.201157 0.7980 0.7980 0.7960 0.7960 0.7980
13.235000 0.7960 0.7960 0.7980 0.7960 0.7960
13.269157 0.7940 0.7960 0.7960 0.7960 0.7940
13.304000 0.7960 0.7960 0.7960 0.7960 0.7940
13.338157 0.7940 0.7930 0.7930 0.7910 0.7910
13.372000 0.7890 0.7890 0.7880 0.7880 0.7860
13.406157 0.7860 0.7840 0.7820 0.7820 0.7820
13.440000 0.7820 0.7810 0.7790 0.7770 0.7770
13.474157 0.7770 0.7770 0.7770 0.7760 0.7740
13.508000 0.7720 0.7700 0.7700 0.7690 0.7690
13.542157 0.7690 0.7690 0.7690 0.7690 0.7690
13.577000 0.7690 0.7670 0.7670 0.7670 0.7670
13.611157 0.7650 0.7670 0.7650 0.7650 0.7650
13.645000 0.7640 0.7600 0.7600 0.7570 0.7530
13.679157 0.7530 0.7520 0.7520 0.7530 0.7530
13.713000 0.7520 0.7520 0.7500 0.7520 0.7500
13.747157 0.7500 0.7500 0.7500 0.7480 0.7470
13.782000 0.7470 0.7470 0.7450 0.7450 0.7410
13.816157 0.7410 0.7410 0.7400 0.7400 0.7400
13.850000 0.7380 0.7380 0.7360 0.7350 0.7350
13.884157 0.7350 0.7330 0.7310 0.7310 0.7290
13.918000 0.7290 0.7290 0.7290 0.7280 0.7260
13.952157 0.7240 0.7240 0.7230 0.7240 0.7230
13.986000 0.7210 0.7190 0.7170 0.7160 0.7170
14.020157 0.7160 0.7160 0.7140 0.7140 0.7120
14.055000 0.7110 0.7110 0.7090 0.7040 0.7040
14.089157 0.7020 0.7020 0.7000 0.6990 0.6990
14.123000 0.6970 0.6950 0.6940 0.6940 0.6920
14.157157 0.6920 0.6920 0.6900 0.6880 0.6870
14.191000 0.6820 0.6800 0.6800 0.6780 0.6780
14.225157 0.6760 0.6780 0.6760 0.6760 0.6750
14.259000 0.6750 0.6710 0.6710 0.6700 0.6700
14.293157 0.6680 0.6680 0.6680 0.6660 0.6640
14.328000 0.6640 0.6630 0.6610 0.6590 0.6590
14.362157 0.6580 0.6560 0.6540 0.6540 0.6540
14.396000 0.6520 0.6520 0.6520 0.6520 0.6520
14.430157 0.6520 0.6510 0.6490 0.6490 0.6470
14.464000 0.6470 0.6440 0.6440 0.6420 0.6410
14.498157 0.6410 0.6410 0.6390 0.6390 0.6370
14.533000 0.6370 0.6350 0.6350 0.6350 0.6340
14.567157 0.6320 0.6300 0.6290 0.6290 0.6290
14.601000 0.6290 0.6270 0.6250 0.6220 0.6200
14.635157 0.6200 0.6200 0.6180 0.6170 0.6170
14.669000 0.6170 0.6150 0.6130 0.6110 0.6100
14.703157 0.6060 0.6030 0.6010 0.6010 0.6010
14.737000 0.6010 0.6000 0.6000 0.5980 0.5960
14.771157 0.5940 0.5930 0.5930 0.5910 0.5890
14.806000 0.5890 0.5890 0.5890 0.5890 0.5880
14.840157 0.5880 0.5880 0.5880 0.5880 0.5880
14.874000 0.5880 0.5880 0.5860 0.5820 0.5810
14.908157 0.5810 0.5810 0.5810 0.5790 0.5770
14.942000 0.5740 0.5740 0.5740 0.5740 0.5740
14.976157 0.5720 0.5720 0.5720 0.5700 0.5690
15.011000 0.5670 0.5650 0.5640 0.5640 0.5600
15.045157 0.5580 0.5530 0.5520 0.5520 0.5520
15.079000 0.5500 0.5500 0.5480 0.5480 0.5480
15.113157 0.5480 0.5470 0.5470 0.5450 0.5430
15.147000 0.5410 0.5410 0.5400 0.5400 0.5380
15.181157 0.5380 0.5380 0.5380 0.5360 0.5350
15.215000 0.5350 0.5330 0.5330 0.5310 0.5290
15.249157 0.5290 0.5290 0.5290 0.5280 0.5260
15.284000 0.5260 0.5240 0.5240 0.5240 0.5240
15.318157 0.5240 0.5230 0.5230 0.5230 0.5230
15.352000 0.5210 0.5210 0.5190 0.5170 0.5170
15.386157 0.5170 0.5170 0.5170 0.5160 0.5140
15.420000 0.5120 0.5120 0.5110 0.5110 0.5090
15.454157 0.5090 0.5090 0.5110 0.5110 0.5090
15.489000 0.5090 0.5090 0.5090 0.5090 0.5090
15.523157 0.5090 0.5090 0.5090 0.5090 0.5090
15.557000 0.5090 0.5090 0.5090 0.5110 0.5110
15.591157 0.5110 0.5110 0.5110 0.5090 0.5110
15.625000 0.5110 0.5110 0.5110 0.5090 0.5070
15.659157 0.5050 0.5040 0.5020 0.5000 0.5000
15.693000 0.5000 0.5000 0.5000 0.4990 0.4990
15.727157 0.4990 0.5000 0.5000 0.5000 0.5000
15.762000 0.5000 0.5000 0.5000 0.5000 0.5000
15.796157 0.5000 0.4970 0.4970 0.4970 0.4990
15.830000 0.4990 0.4990 0.4990 0.4990 0.4990
15.864157 0.4990 0.5000 0.5000 0.5000 0.5000
15.898000 0.5000 0.4990 0.4990 0.4990 0.5000
15.932157 0.5000 0.5000 0.5000 0.5000 0.4990
15.966000 0.4990 0.4990 0.4990 0.4990 0.4990
16.000157 0.4990 0.4990
##END=
