##TITLE=1,4-Butanediamine dihydrochloride
##JCAMP-DX=4.24
$$ By DXEDIT 1.05 (RS McDonald)
##DATA TYPE=INFRARED SPECTRUM
##CLASS=COBLENTZ III
##ORIGIN=DOW CHEMICAL COMPANY
##OWNER=COPYRIGHT (C) 1988 by COBLENTZ SOCIETY INC.
Collection (C) 2018 copyright by the U.S. Secretary of Commerce
on behalf of the United States of America. All rights reserved.
##DATE=1964/05/06
##MOLFORM=C4 H14 Cl2 N2
##SOURCE REFERENCE=COBLENTZ NO. 09863
##$NIST ID=B6009863
##$NIST SOURCE=COBLENTZ
##$NIST IMAGE=cob9863
##SPECTROMETER/DATA SYSTEM=DOW KBr FOREPRISM-GRATING
##INSTRUMENT PARAMETERS=BLAZED AT 3.5, 12.0, 20.0 MICRON AND CHANGED AT 5.0, 7.5, 14.9 MICRON
##STATE=SOLID (SPLIT MULL), FLUOROLUBE FOR 3800-1330 CM^-^1, NUJOL FOR 1330-450 CM^-^1
##SAMPLING PROCEDURE=TRANSMISSION
##RESOLUTION=2
##DATA PROCESSING=DIGITIZED BY COBLENTZ SOCIETY (BATCH I) FROM HARD COPY
##XUNITS=1/CM
##YUNITS=TRANSMITTANCE
##XFACTOR=1
##YFACTOR=1
##DELTAX=1
##FIRSTX=3780
##LASTX=452
##FIRSTY=0.5422
##MAXX=3780
##MINX=452
##MAXY=0.908
##MINY=0.0718
##NPOINTS=3329
##XYDATA=(X++(Y..Y))
3780.000000 0.5422 0.5426 0.5431 0.5436 0.5441
3775.000000 0.5445 0.5450 0.5455 0.5460 0.5464
3770.000000 0.5469 0.5474 0.5479 0.5483 0.5488
3765.000000 0.5493 0.5498 0.5502 0.5507 0.5512
3760.000000 0.5517 0.5522 0.5527 0.5531 0.5536
3755.000000 0.5541 0.5546 0.5550 0.5562 0.5564
3750.000000 0.5564 0.5568 0.5572 0.5576 0.5580
3745.000000 0.5584 0.5588 0.5592 0.5596 0.5600
3740.000000 0.5605 0.5609 0.5612 0.5617 0.5621
3735.000000 0.5625 0.5629 0.5633 0.5637 0.5641
3730.000000 0.5646 0.5650 0.5654 0.5657 0.5660
3725.000000 0.5664 0.5668 0.5671 0.5675 0.5678
3720.000000 0.5682 0.5685 0.5689 0.5692 0.5696
3715.000000 0.5699 0.5703 0.5706 0.5710 0.5712
3710.000000 0.5717 0.5720 0.5723 0.5726 0.5730
3705.000000 0.5733 0.5737 0.5740 0.5744 0.5747
3700.000000 0.5751 0.5754 0.5758 0.5760 0.5765
3695.000000 0.5768 0.5772 0.5774 0.5777 0.5780
3690.000000 0.5783 0.5785 0.5788 0.5790 0.5793
3685.000000 0.5795 0.5798 0.5800 0.5803 0.5806
3680.000000 0.5809 0.5810 0.5814 0.5816 0.5819
3675.000000 0.5821 0.5824 0.5827 0.5830 0.5832
3670.000000 0.5835 0.5837 0.5840 0.5842 0.5845
3665.000000 0.5847 0.5850 0.5853 0.5856 0.5858
3660.000000 0.5860 0.5862 0.5866 0.5868 0.5871
3655.000000 0.5873 0.5876 0.5879 0.5882 0.5884
3650.000000 0.5887 0.5891 0.5895 0.5898 0.5902
3645.000000 0.5906 0.5910 0.5914 0.5918 0.5922
3640.000000 0.5926 0.5929 0.5933 0.5937 0.5941
3635.000000 0.5945 0.5949 0.5953 0.5957 0.5960
3630.000000 0.5964 0.5968 0.5972 0.5976 0.5980
3625.000000 0.5984 0.5988 0.5991 0.5995 0.5999
3620.000000 0.6003 0.6007 0.6010 0.6014 0.6018
3615.000000 0.6022 0.6026 0.6030 0.6034 0.6038
3610.000000 0.6042 0.6045 0.6049 0.6053 0.6057
3605.000000 0.6060 0.6065 0.6069 0.6074 0.6078
3600.000000 0.6082 0.6086 0.6091 0.6095 0.6099
3595.000000 0.6103 0.6108 0.6112 0.6116 0.6120
3590.000000 0.6125 0.6129 0.6133 0.6137 0.6141
3585.000000 0.6145 0.6150 0.6154 0.6158 0.6162
3580.000000 0.6167 0.6171 0.6175 0.6179 0.6184
3575.000000 0.6188 0.6192 0.6196 0.6201 0.6205
3570.000000 0.6210 0.6215 0.6220 0.6224 0.6229
3565.000000 0.6233 0.6238 0.6243 0.6248 0.6252
3560.000000 0.6257 0.6262 0.6267 0.6271 0.6276
3555.000000 0.6280 0.6285 0.6290 0.6295 0.6299
3550.000000 0.6304 0.6309 0.6314 0.6318 0.6323
3545.000000 0.6327 0.6332 0.6337 0.6342 0.6347
3540.000000 0.6352 0.6357 0.6362 0.6368 0.6374
3535.000000 0.6379 0.6384 0.6389 0.6395 0.6400
3530.000000 0.6406 0.6411 0.6417 0.6421 0.6428
3525.000000 0.6433 0.6438 0.6443 0.6449 0.6454
3520.000000 0.6460 0.6465 0.6471 0.6475 0.6481
3515.000000 0.6486 0.6492 0.6497 0.6501 0.6506
3510.000000 0.6511 0.6515 0.6521 0.6525 0.6531
3505.000000 0.6535 0.6540 0.6545 0.6550 0.6554
3500.000000 0.6558 0.6564 0.6568 0.6572 0.6578
3495.000000 0.6581 0.6585 0.6588 0.6592 0.6595
3490.000000 0.6598 0.6601 0.6605 0.6608 0.6611
3485.000000 0.6615 0.6618 0.6621 0.6625 0.6628
3480.000000 0.6632 0.6635 0.6639 0.6643 0.6648
3475.000000 0.6651 0.6656 0.6660 0.6664 0.6668
3470.000000 0.6672 0.6676 0.6681 0.6685 0.6689
3465.000000 0.6693 0.6698 0.6701 0.6706 0.6710
3460.000000 0.6714 0.6719 0.6725 0.6732 0.6738
3455.000000 0.6744 0.6750 0.6756 0.6761 0.6768
3450.000000 0.6775 0.6781 0.6787 0.6793 0.6799
3445.000000 0.6805 0.6811 0.6817 0.6822 0.6828
3440.000000 0.6836 0.6842 0.6848 0.6854 0.6860
3435.000000 0.6865 0.6872 0.6878 0.6886 0.6893
3430.000000 0.6900 0.6906 0.6912 0.6919 0.6926
3425.000000 0.6933 0.6940 0.6947 0.6954 0.6960
3420.000000 0.6967 0.6974 0.6981 0.6987 0.6994
3415.000000 0.7000 0.7007 0.7012 0.7019 0.7025
3410.000000 0.7032 0.7038 0.7044 0.7050 0.7057
3405.000000 0.7062 0.7068 0.7075 0.7081 0.7087
3400.000000 0.7093 0.7099 0.7105 0.7111 0.7118
3395.000000 0.7124 0.7130 0.7136 0.7142 0.7148
3390.000000 0.7154 0.7161 0.7169 0.7178 0.7187
3385.000000 0.7195 0.7203 0.7211 0.7219 0.7228
3380.000000 0.7236 0.7244 0.7253 0.7261 0.7268
3375.000000 0.7276 0.7286 0.7294 0.7301 0.7310
3370.000000 0.7318 0.7326 0.7336 0.7345 0.7355
3365.000000 0.7364 0.7372 0.7382 0.7391 0.7400
3360.000000 0.7410 0.7418 0.7428 0.7437 0.7447
3355.000000 0.7456 0.7465 0.7474 0.7483 0.7492
3350.000000 0.7501 0.7511 0.7519 0.7528 0.7539
3345.000000 0.7548 0.7557 0.7565 0.7575 0.7584
3340.000000 0.7594 0.7603 0.7611 0.7621 0.7631
3335.000000 0.7640 0.7649 0.7658 0.7667 0.7675
3330.000000 0.7686 0.7695 0.7705 0.7714 0.7722
3325.000000 0.7732 0.7742 0.7751 0.7760 0.7768
3320.000000 0.7778 0.7787 0.7796 0.7805 0.7814
3315.000000 0.7822 0.7832 0.7841 0.7850 0.7856
3310.000000 0.7862 0.7868 0.7875 0.7880 0.7885
3305.000000 0.7889 0.7893 0.7897 0.7901 0.7906
3300.000000 0.7910 0.7914 0.7918 0.7921 0.7925
3295.000000 0.7926 0.7930 0.7932 0.7934 0.7936
3290.000000 0.7937 0.7937 0.7937 0.7937 0.7937
3285.000000 0.7937 0.7937 0.7936 0.7936 0.7931
3280.000000 0.7925 0.7914 0.7903 0.7883 0.7862
3275.000000 0.7835 0.7807 0.7778 0.7750 0.7654
3270.000000 0.7558 0.7486 0.7412 0.7375 0.7337
3265.000000 0.7299 0.7261 0.7226 0.7194 0.7165
3260.000000 0.7138 0.7110 0.7083 0.7041 0.6999
3255.000000 0.6951 0.6906 0.6847 0.6788 0.6708
3250.000000 0.6630 0.6380 0.6131 0.6026 0.5921
3245.000000 0.5837 0.5753 0.5683 0.5612 0.5542
3240.000000 0.5471 0.5399 0.5328 0.5316 0.5304
3235.000000 0.5302 0.5301 0.5310 0.5320 0.5335
3230.000000 0.5350 0.5369 0.5388 0.5406 0.5425
3225.000000 0.5442 0.5460 0.5473 0.5486 0.5494
3220.000000 0.5503 0.5510 0.5517 0.5521 0.5526
3215.000000 0.5527 0.5527 0.5527 0.5526 0.5522
3210.000000 0.5519 0.5503 0.5488 0.5462 0.5439
3205.000000 0.5404 0.5369 0.5316 0.5264 0.5257
3200.000000 0.5250 0.5242 0.5235 0.5224 0.5214
3195.000000 0.5200 0.5186 0.5170 0.5154 0.5134
3190.000000 0.5115 0.5095 0.5075 0.5054 0.5033
3185.000000 0.5012 0.4994 0.4981 0.4969 0.4966
3180.000000 0.4962 0.4959 0.4956 0.4952 0.4949
3175.000000 0.4945 0.4941 0.4937 0.4933 0.4929
3170.000000 0.4925 0.4910 0.4897 0.4871 0.4846
3165.000000 0.4812 0.4780 0.4738 0.4697 0.4640
3160.000000 0.4583 0.4526 0.4469 0.4393 0.4317
3155.000000 0.4240 0.4164 0.4087 0.4009 0.3925
3150.000000 0.3841 0.3746 0.3650 0.3582 0.3516
3145.000000 0.3464 0.3412 0.3360 0.3309 0.3258
3140.000000 0.3206 0.3153 0.3101 0.3048 0.2995
3135.000000 0.2902 0.2810 0.2705 0.2600 0.2535
3130.000000 0.2472 0.2443 0.2415 0.2385 0.2358
3125.000000 0.2311 0.2264 0.2218 0.2172 0.2128
3120.000000 0.2084 0.2041 0.1998 0.1954 0.1910
3115.000000 0.1819 0.1728 0.1642 0.1556 0.1520
3110.000000 0.1484 0.1453 0.1423 0.1394 0.1365
3105.000000 0.1339 0.1314 0.1294 0.1274 0.1253
3100.000000 0.1233 0.1212 0.1192 0.1176 0.1160
3095.000000 0.1146 0.1132 0.1118 0.1104 0.1092
3090.000000 0.1080 0.1070 0.1061 0.1052 0.1042
3085.000000 0.1035 0.1028 0.1022 0.1017 0.1011
3080.000000 0.1006 0.1003 0.1001 0.1000 0.1000
3075.000000 0.1000 0.1000 0.1000 0.1000 0.0999
3070.000000 0.0999 0.1002 0.1005 0.1009 0.1014
3065.000000 0.1019 0.1024 0.1030 0.1037 0.1042
3060.000000 0.1050 0.1052 0.1055 0.1056 0.1057
3055.000000 0.1058 0.1060 0.1060 0.1060 0.1060
3050.000000 0.1059 0.1057 0.1055 0.1053 0.1052
3045.000000 0.1046 0.1040 0.1025 0.1011 0.0995
3040.000000 0.0980 0.0964 0.0949 0.0943 0.0939
3035.000000 0.0937 0.0934 0.0933 0.0933 0.0932
3030.000000 0.0931 0.0930 0.0930 0.0930 0.0930
3025.000000 0.0930 0.0930 0.0930 0.0931 0.0931
3020.000000 0.0931 0.0931 0.0930 0.0929 0.0928
3015.000000 0.0926 0.0925 0.0922 0.0919 0.0911
3010.000000 0.0904 0.0896 0.0889 0.0879 0.0868
3005.000000 0.0857 0.0846 0.0835 0.0824 0.0813
3000.000000 0.0802 0.0790 0.0779 0.0770 0.0761
2995.000000 0.0753 0.0745 0.0737 0.0729 0.0725
2990.000000 0.0722 0.0720 0.0718 0.0718 0.0720
2985.000000 0.0720 0.0721 0.0722 0.0724 0.0725
2980.000000 0.0727 0.0731 0.0736 0.0741 0.0747
2975.000000 0.0753 0.0759 0.0768 0.0777 0.0786
2970.000000 0.0796 0.0805 0.0814 0.0824 0.0835
2965.000000 0.0845 0.0856 0.0866 0.0876 0.0886
2960.000000 0.0895 0.0899 0.0904 0.0907 0.0910
2955.000000 0.0910 0.0911 0.0911 0.0911 0.0911
2950.000000 0.0911 0.0911 0.0912 0.0913 0.0914
2945.000000 0.0917 0.0921 0.0924 0.0926 0.0932
2940.000000 0.0938 0.0943 0.0951 0.0957 0.0964
2935.000000 0.0971 0.0978 0.0989 0.1001 0.1012
2930.000000 0.1024 0.1035 0.1046 0.1059 0.1072
2925.000000 0.1085 0.1099 0.1112 0.1125 0.1138
2920.000000 0.1152 0.1165 0.1179 0.1192 0.1208
2915.000000 0.1223 0.1238 0.1253 0.1269 0.1284
2910.000000 0.1299 0.1314 0.1330 0.1344 0.1359
2905.000000 0.1374 0.1389 0.1403 0.1418 0.1432
2900.000000 0.1446 0.1460 0.1474 0.1487 0.1501
2895.000000 0.1514 0.1528 0.1535 0.1542 0.1550
2890.000000 0.1558 0.1560 0.1563 0.1563 0.1564
2885.000000 0.1564 0.1564 0.1564 0.1565 0.1565
2880.000000 0.1566 0.1566 0.1566 0.1566 0.1567
2875.000000 0.1567 0.1568 0.1569 0.1570 0.1570
2870.000000 0.1571 0.1572 0.1573 0.1575 0.1577
2865.000000 0.1579 0.1582 0.1589 0.1596 0.1604
2860.000000 0.1614 0.1623 0.1633 0.1642 0.1652
2855.000000 0.1663 0.1675 0.1693 0.1711 0.1729
2850.000000 0.1748 0.1766 0.1784 0.1803 0.1821
2845.000000 0.1843 0.1865 0.1886 0.1909 0.1931
2840.000000 0.1953 0.1975 0.1996 0.2013 0.2029
2835.000000 0.2045 0.2062 0.2078 0.2094 0.2110
2830.000000 0.2126 0.2142 0.2159 0.2174 0.2190
2825.000000 0.2205 0.2221 0.2235 0.2252 0.2267
2820.000000 0.2282 0.2295 0.2309 0.2321 0.2334
2815.000000 0.2346 0.2359 0.2369 0.2379 0.2389
2810.000000 0.2399 0.2408 0.2418 0.2421 0.2424
2805.000000 0.2427 0.2430 0.2432 0.2434 0.2437
2800.000000 0.2439 0.2441 0.2443 0.2446 0.2449
2795.000000 0.2454 0.2459 0.2464 0.2469 0.2475
2790.000000 0.2481 0.2485 0.2492 0.2498 0.2504
2785.000000 0.2509 0.2515 0.2519 0.2523 0.2526
2780.000000 0.2530 0.2533 0.2537 0.2540 0.2543
2775.000000 0.2553 0.2564 0.2576 0.2588 0.2599
2770.000000 0.2611 0.2634 0.2660 0.2688 0.2716
2765.000000 0.2744 0.2772 0.2800 0.2828 0.2856
2760.000000 0.2884 0.2912 0.2939 0.2959 0.2980
2755.000000 0.3000 0.3021 0.3044 0.3067 0.3090
2750.000000 0.3114 0.3126 0.3138 0.3146 0.3154
2745.000000 0.3157 0.3160 0.3163 0.3167 0.3170
2740.000000 0.3173 0.3176 0.3179 0.3179 0.3180
2735.000000 0.3180 0.3180 0.3180 0.3181 0.3181
2730.000000 0.3181 0.3183 0.3184 0.3190 0.3195
2725.000000 0.3200 0.3205 0.3226 0.3247 0.3270
2720.000000 0.3294 0.3316 0.3338 0.3357 0.3376
2715.000000 0.3388 0.3400 0.3412 0.3425 0.3430
2710.000000 0.3437 0.3442 0.3447 0.3450 0.3456
2705.000000 0.3459 0.3462 0.3474 0.3487 0.3504
2700.000000 0.3521 0.3539 0.3558 0.3576 0.3594
2695.000000 0.3612 0.3630 0.3649 0.3668 0.3686
2690.000000 0.3705 0.3723 0.3742 0.3759 0.3778
2685.000000 0.3794 0.3810 0.3827 0.3844 0.3859
2680.000000 0.3877 0.3893 0.3909 0.3926 0.3943
2675.000000 0.3959 0.3976 0.3992 0.4009 0.4025
2670.000000 0.4041 0.4056 0.4071 0.4080 0.4089
2665.000000 0.4098 0.4107 0.4116 0.4125 0.4134
2660.000000 0.4143 0.4148 0.4154 0.4159 0.4165
2655.000000 0.4170 0.4176 0.4179 0.4183 0.4184
2650.000000 0.4185 0.4186 0.4187 0.4188 0.4190
2645.000000 0.4191 0.4193 0.4194 0.4195 0.4195
2640.000000 0.4195 0.4194 0.4191 0.4184 0.4177
2635.000000 0.4169 0.4160 0.4153 0.4145 0.4137
2630.000000 0.4130 0.4123 0.4116 0.4110 0.4107
2625.000000 0.4120 0.4133 0.4149 0.4166 0.4185
2620.000000 0.4204 0.4222 0.4241 0.4259 0.4278
2615.000000 0.4299 0.4321 0.4343 0.4366 0.4388
2610.000000 0.4410 0.4441 0.4472 0.4512 0.4555
2605.000000 0.4583 0.4610 0.4633 0.4655 0.4676
2600.000000 0.4698 0.4714 0.4730 0.4740 0.4751
2595.000000 0.4759 0.4768 0.4771 0.4775 0.4777
2590.000000 0.4779 0.4780 0.4782 0.4784 0.4785
2585.000000 0.4786 0.4786 0.4785 0.4785 0.4785
2580.000000 0.4785 0.4785 0.4785 0.4784 0.4784
2575.000000 0.4783 0.4782 0.4764 0.4746 0.4694
2570.000000 0.4642 0.4598 0.4555 0.4527 0.4499
2565.000000 0.4477 0.4455 0.4437 0.4371 0.4409
2560.000000 0.4399 0.4398 0.4398 0.4401 0.4404
2555.000000 0.4409 0.4414 0.4427 0.4440 0.4462
2550.000000 0.4484 0.4528 0.4572 0.4599 0.4626
2545.000000 0.4652 0.4679 0.4705 0.4732 0.4760
2540.000000 0.4791 0.4822 0.4853 0.4884 0.4915
2535.000000 0.4936 0.4957 0.4974 0.4991 0.5007
2530.000000 0.5024 0.5040 0.5057 0.5073 0.5090
2525.000000 0.5106 0.5123 0.5139 0.5155 0.5169
2520.000000 0.5184 0.5198 0.5212 0.5226 0.5240
2515.000000 0.5243 0.5247 0.5250 0.5253 0.5256
2510.000000 0.5260 0.5262 0.5266 0.5269 0.5272
2505.000000 0.5275 0.5279 0.5282 0.5285 0.5288
2500.000000 0.5292 0.5295 0.5298 0.5300 0.5303
2495.000000 0.5303 0.5304 0.5301 0.5298 0.5294
2490.000000 0.5291 0.5288 0.5286 0.5283 0.5280
2485.000000 0.5277 0.5275 0.5273 0.5271 0.5270
2480.000000 0.5270 0.5270 0.5270 0.5272 0.5275
2475.000000 0.5286 0.5298 0.5310 0.5325 0.5341
2470.000000 0.5357 0.5374 0.5392 0.5409 0.5426
2465.000000 0.5441 0.5457 0.5469 0.5482 0.5495
2460.000000 0.5508 0.5520 0.5533 0.5544 0.5555
2455.000000 0.5560 0.5567 0.5573 0.5579 0.5585
2450.000000 0.5591 0.5594 0.5597 0.5599 0.5601
2445.000000 0.5602 0.5604 0.5606 0.5608 0.5609
2440.000000 0.5610 0.5612 0.5614 0.5615 0.5617
2435.000000 0.5618 0.5620 0.5622 0.5624 0.5625
2430.000000 0.5627 0.5627 0.5628 0.5628 0.5628
2425.000000 0.5627 0.5627 0.5622 0.5618 0.5610
2420.000000 0.5602 0.5594 0.5587 0.5581 0.5575
2415.000000 0.5569 0.5562 0.5557 0.5551 0.5545
2410.000000 0.5539 0.5537 0.5535 0.5533 0.5532
2405.000000 0.5530 0.5530 0.5530 0.5532 0.5535
2400.000000 0.5539 0.5548 0.5558 0.5574 0.5590
2395.000000 0.5604 0.5618 0.5626 0.5635 0.5643
2390.000000 0.5651 0.5659 0.5667 0.5677 0.5687
2385.000000 0.5698 0.5709 0.5720 0.5731 0.5744
2380.000000 0.5758 0.5771 0.5785 0.5798 0.5810
2375.000000 0.5817 0.5824 0.5830 0.5837 0.5843
2370.000000 0.5850 0.5855 0.5860 0.5866 0.5871
2365.000000 0.5876 0.5882 0.5887 0.5893 0.5898
2360.000000 0.5903 0.5908 0.5914 0.5919 0.5925
2355.000000 0.5930 0.5935 0.5941 0.5947 0.5954
2350.000000 0.5960 0.5967 0.5974 0.5981 0.5988
2345.000000 0.5995 0.6002 0.6008 0.6015 0.6022
2340.000000 0.6029 0.6035 0.6042 0.6048 0.6055
2335.000000 0.6060 0.6067 0.6069 0.6072 0.6074
2330.000000 0.6077 0.6079 0.6082 0.6086 0.6090
2325.000000 0.6094 0.6099 0.6103 0.6107 0.6110
2320.000000 0.6116 0.6120 0.6124 0.6128 0.6133
2315.000000 0.6137 0.6142 0.6149 0.6156 0.6162
2310.000000 0.6170 0.6177 0.6184 0.6191 0.6198
2305.000000 0.6205 0.6212 0.6219 0.6227 0.6234
2300.000000 0.6242 0.6249 0.6257 0.6264 0.6272
2295.000000 0.6279 0.6287 0.6295 0.6303 0.6310
2290.000000 0.6318 0.6325 0.6333 0.6340 0.6348
2285.000000 0.6355 0.6362 0.6370 0.6377 0.6384
2280.000000 0.6391 0.6398 0.6405 0.6411 0.6418
2275.000000 0.6425 0.6433 0.6440 0.6447 0.6454
2270.000000 0.6461 0.6468 0.6475 0.6482 0.6489
2265.000000 0.6496 0.6503 0.6510 0.6517 0.6524
2260.000000 0.6531 0.6538 0.6545 0.6553 0.6561
2255.000000 0.6568 0.6576 0.6585 0.6593 0.6601
2250.000000 0.6608 0.6617 0.6625 0.6633 0.6641
2245.000000 0.6648 0.6656 0.6664 0.6671 0.6680
2240.000000 0.6688 0.6696 0.6704 0.6711 0.6719
2235.000000 0.6728 0.6736 0.6744 0.6751 0.6760
2230.000000 0.6768 0.6775 0.6785 0.6793 0.6801
2225.000000 0.6808 0.6817 0.6825 0.6833 0.6841
2220.000000 0.6849 0.6857 0.6865 0.6872 0.6881
2215.000000 0.6889 0.6897 0.6904 0.6911 0.6918
2210.000000 0.6926 0.6935 0.6943 0.6950 0.6958
2205.000000 0.6965 0.6972 0.6980 0.6988 0.6996
2200.000000 0.7004 0.7011 0.7018 0.7025 0.7034
2195.000000 0.7042 0.7050 0.7057 0.7065 0.7071
2190.000000 0.7080 0.7087 0.7095 0.7101 0.7108
2185.000000 0.7115 0.7124 0.7131 0.7138 0.7145
2180.000000 0.7153 0.7160 0.7167 0.7174 0.7182
2175.000000 0.7189 0.7196 0.7203 0.7210 0.7217
2170.000000 0.7224 0.7231 0.7238 0.7245 0.7251
2165.000000 0.7258 0.7265 0.7272 0.7281 0.7288
2160.000000 0.7295 0.7301 0.7308 0.7315 0.7322
2155.000000 0.7330 0.7337 0.7344 0.7351 0.7358
2150.000000 0.7365 0.7371 0.7378 0.7385 0.7392
2145.000000 0.7397 0.7401 0.7407 0.7411 0.7417
2140.000000 0.7421 0.7426 0.7432 0.7435 0.7439
2135.000000 0.7442 0.7446 0.7449 0.7451 0.7454
2130.000000 0.7456 0.7457 0.7458 0.7461 0.7462
2125.000000 0.7465 0.7467 0.7468 0.7469 0.7471
2120.000000 0.7472 0.7474 0.7475 0.7476 0.7478
2115.000000 0.7483 0.7487 0.7491 0.7495 0.7499
2110.000000 0.7503 0.7508 0.7515 0.7521 0.7530
2105.000000 0.7538 0.7547 0.7555 0.7562 0.7568
2100.000000 0.7575 0.7581 0.7587 0.7592 0.7597
2095.000000 0.7601 0.7606 0.7608 0.7608 0.7608
2090.000000 0.7608 0.7608 0.7608 0.7607 0.7606
2085.000000 0.7599 0.7593 0.7568 0.7543 0.7458
2080.000000 0.7375 0.7328 0.7282 0.7251 0.7221
2075.000000 0.7193 0.7164 0.7150 0.7137 0.7136
2070.000000 0.7136 0.7136 0.7136 0.7137 0.7139
2065.000000 0.7140 0.7142 0.7143 0.7145 0.7134
2060.000000 0.7122 0.7101 0.7080 0.6960 0.6840
2055.000000 0.6585 0.6330 0.6294 0.6258 0.6245
2050.000000 0.6232 0.6222 0.6212 0.6210 0.6208
2045.000000 0.6206 0.6204 0.6203 0.6203 0.6167
2040.000000 0.6132 0.5938 0.5745 0.5552 0.5112
2035.000000 0.5268 0.5177 0.5176 0.5176 0.5212
2030.000000 0.5249 0.5337 0.5425 0.5512 0.5601
2025.000000 0.5688 0.5776 0.5864 0.5952 0.6012
2020.000000 0.6072 0.6121 0.6170 0.6220 0.6270
2015.000000 0.6312 0.6354 0.6392 0.6430 0.6458
2010.000000 0.6486 0.6511 0.6537 0.6562 0.6589
2005.000000 0.6614 0.6640 0.6665 0.6691 0.6742
2000.000000 0.6794 0.6765 0.6725 0.6678 0.6650
1995.000000 0.6651 0.6651 0.6690 0.6735 0.6787
1990.000000 0.6838 0.6874 0.6901 0.6930 0.6958
1985.000000 0.6986 0.7011 0.7035 0.7058 0.7082
1980.000000 0.7105 0.7128 0.7151 0.7175 0.7196
1975.000000 0.7215 0.7235 0.7255 0.7274 0.7294
1970.000000 0.7312 0.7333 0.7353 0.7371 0.7392
1965.000000 0.7408 0.7425 0.7442 0.7458 0.7475
1960.000000 0.7493 0.7510 0.7526 0.7544 0.7560
1955.000000 0.7572 0.7583 0.7593 0.7604 0.7614
1950.000000 0.7624 0.7633 0.7641 0.7649 0.7658
1945.000000 0.7665 0.7674 0.7683 0.7691 0.7699
1940.000000 0.7708 0.7712 0.7718 0.7724 0.7728
1935.000000 0.7734 0.7740 0.7745 0.7750 0.7756
1930.000000 0.7761 0.7765 0.7771 0.7775 0.7781
1925.000000 0.7786 0.7791 0.7796 0.7801 0.7807
1920.000000 0.7811 0.7817 0.7821 0.7826 0.7832
1915.000000 0.7837 0.7842 0.7846 0.7850 0.7853
1910.000000 0.7857 0.7861 0.7865 0.7868 0.7871
1905.000000 0.7875 0.7880 0.7884 0.7888 0.7892
1900.000000 0.7895 0.7899 0.7903 0.7906 0.7908
1895.000000 0.7911 0.7914 0.7917 0.7919 0.7922
1890.000000 0.7925 0.7928 0.7932 0.7934 0.7937
1885.000000 0.7940 0.7943 0.7946 0.7949 0.7951
1880.000000 0.7954 0.7957 0.7960 0.7964 0.7967
1875.000000 0.7971 0.7974 0.7976 0.7981 0.7984
1870.000000 0.7988 0.7991 0.7995 0.7998 0.8001
1865.000000 0.8005 0.8008 0.8011 0.8012 0.8015
1860.000000 0.8017 0.8018 0.8019 0.8021 0.8022
1855.000000 0.8025 0.8026 0.8028 0.8030 0.8032
1850.000000 0.8033 0.8035 0.8037 0.8040 0.8043
1845.000000 0.8046 0.8049 0.8051 0.8055 0.8058
1840.000000 0.8061 0.8064 0.8067 0.8069 0.8072
1835.000000 0.8075 0.8078 0.8081 0.8086 0.8091
1830.000000 0.8095 0.8100 0.8105 0.8110 0.8115
1825.000000 0.8118 0.8124 0.8128 0.8134 0.8139
1820.000000 0.8143 0.8146 0.8150 0.8154 0.8158
1815.000000 0.8161 0.8165 0.8168 0.8171 0.8175
1810.000000 0.8180 0.8183 0.8185 0.8186 0.8186
1805.000000 0.8187 0.8188 0.8188 0.8188 0.8187
1800.000000 0.8186 0.8185 0.8183 0.8182 0.8181
1795.000000 0.8180 0.8176 0.8172 0.8168 0.8165
1790.000000 0.8161 0.8158 0.8155 0.8151 0.8149
1785.000000 0.8147 0.8147 0.8148 0.8148 0.8149
1780.000000 0.8149 0.8150 0.8151 0.8153 0.8161
1775.000000 0.8168 0.8175 0.8184 0.8191 0.8199
1770.000000 0.8209 0.8218 0.8227 0.8236 0.8245
1765.000000 0.8254 0.8263 0.8273 0.8282 0.8291
1760.000000 0.8300 0.8309 0.8318 0.8324 0.8328
1755.000000 0.8333 0.8338 0.8343 0.8347 0.8352
1750.000000 0.8357 0.8361 0.8366 0.8371 0.8375
1745.000000 0.8380 0.8385 0.8390 0.8395 0.8400
1740.000000 0.8405 0.8409 0.8414 0.8418 0.8421
1735.000000 0.8425 0.8425 0.8427 0.8427 0.8427
1730.000000 0.8427 0.8428 0.8428 0.8430 0.8431
1725.000000 0.8432 0.8433 0.8438 0.8443 0.8449
1720.000000 0.8455 0.8460 0.8466 0.8471 0.8478
1715.000000 0.8485 0.8492 0.8499 0.8505 0.8512
1710.000000 0.8518 0.8523 0.8528 0.8533 0.8538
1705.000000 0.8543 0.8548 0.8551 0.8553 0.8554
1700.000000 0.8556 0.8557 0.8559 0.8560 0.8560
1695.000000 0.8561 0.8561 0.8561 0.8561 0.8560
1690.000000 0.8558 0.8556 0.8553 0.8551 0.8549
1685.000000 0.8546 0.8544 0.8542 0.8540 0.8538
1680.000000 0.8536 0.8534 0.8532 0.8532 0.8534
1675.000000 0.8536 0.8537 0.8539 0.8541 0.8543
1670.000000 0.8544 0.8546 0.8547 0.8548 0.8549
1665.000000 0.8550 0.8551 0.8552 0.8553 0.8554
1660.000000 0.8555 0.8557 0.8560 0.8562 0.8565
1655.000000 0.8568 0.8571 0.8575 0.8578 0.8583
1650.000000 0.8592 0.8601 0.8610 0.8618 0.8628
1645.000000 0.8637 0.8646 0.8655 0.8664 0.8673
1640.000000 0.8681 0.8688 0.8695 0.8702 0.8709
1635.000000 0.8715 0.8720 0.8725 0.8730 0.8735
1630.000000 0.8741 0.8745 0.8749 0.8750 0.8750
1625.000000 0.8747 0.8743 0.8737 0.8713 0.8683
1620.000000 0.8644 0.8541 0.7886 0.7110 0.6334
1615.000000 0.5564 0.5564 0.5562 0.5928 0.6323
1610.000000 0.6718 0.7112 0.7453 0.7549 0.7691
1605.000000 0.7828 0.7936 0.8061 0.8147 0.8160
1600.000000 0.8181 0.8171 0.8038 0.7798 0.7558
1595.000000 0.7325 0.7353 0.7354 0.7354 0.7437
1590.000000 0.7591 0.7746 0.7900 0.8054 0.8168
1585.000000 0.8218 0.8267 0.8315 0.8355 0.8393
1580.000000 0.8432 0.8473 0.8515 0.8553 0.8568
1575.000000 0.8585 0.8601 0.8616 0.8621 0.8625
1570.000000 0.8630 0.8635 0.8639 0.8644 0.8647
1565.000000 0.8651 0.8655 0.8658 0.8662 0.8665
1560.000000 0.8668 0.8673 0.8678 0.8684 0.8690
1555.000000 0.8696 0.8702 0.8708 0.8715 0.8725
1550.000000 0.8735 0.8745 0.8755 0.8766 0.8775
1545.000000 0.8786 0.8796 0.8806 0.8816 0.8825
1540.000000 0.8836 0.8846 0.8855 0.8863 0.8870
1535.000000 0.8878 0.8886 0.8893 0.8901 0.8909
1530.000000 0.8916 0.8924 0.8931 0.8939 0.8947
1525.000000 0.8954 0.8962 0.8968 0.8977 0.8985
1520.000000 0.8992 0.8999 0.9006 0.9012 0.9018
1515.000000 0.9024 0.9030 0.9037 0.9044 0.9051
1510.000000 0.9058 0.9067 0.9078 0.9080 0.9075
1505.000000 0.9059 0.9032 0.9006 0.8984 0.8971
1500.000000 0.8971 0.8971 0.8980 0.8986 0.8993
1495.000000 0.9002 0.9003 0.8988 0.8959 0.8928
1490.000000 0.8888 0.8834 0.8780 0.8725 0.8670
1485.000000 0.8615 0.8559 0.8373 0.7972 0.7201
1480.000000 0.6924 0.6646 0.6368 0.6137 0.5623
1475.000000 0.4292 0.3587 0.3392 0.3155 0.3015
1470.000000 0.2999 0.3019 0.3590 0.4160 0.4732
1465.000000 0.5303 0.5874 0.6445 0.6962 0.6992
1460.000000 0.7021 0.7008 0.6986 0.6919 0.6790
1455.000000 0.5526 0.3855 0.2634 0.2235 0.2011
1450.000000 0.1706 0.1581 0.1544 0.1533 0.1537
1445.000000 0.1542 0.1544 0.1544 0.1513 0.1476
1440.000000 0.1475 0.1442 0.1564 0.1850 0.2135
1435.000000 0.2423 0.2709 0.2995 0.3282 0.3568
1430.000000 0.3854 0.4140 0.4427 0.4740 0.5289
1425.000000 0.5669 0.5786 0.5858 0.5910 0.5959
1420.000000 0.6017 0.6071 0.6117 0.6137 0.6160
1415.000000 0.6158 0.6174 0.6147 0.6006 0.5829
1410.000000 0.5651 0.5474 0.5335 0.5278 0.5220
1405.000000 0.5189 0.5168 0.5148 0.5112 0.5124
1400.000000 0.5119 0.5118 0.5118 0.5201 0.5583
1395.000000 0.6033 0.6139 0.6230 0.6303 0.6376
1390.000000 0.6449 0.6521 0.6593 0.6656 0.6701
1385.000000 0.6749 0.6795 0.6841 0.6883 0.6922
1380.000000 0.6962 0.7003 0.7043 0.7082 0.7118
1375.000000 0.7156 0.7194 0.7225 0.7257 0.7286
1370.000000 0.7308 0.7331 0.7353 0.7372 0.7392
1365.000000 0.7408 0.7419 0.7432 0.7437 0.7442
1360.000000 0.7447 0.7448 0.7448 0.7440 0.7431
1355.000000 0.7407 0.7374 0.7322 0.7203 0.6986
1350.000000 0.6736 0.6485 0.6235 0.5985 0.5830
1345.000000 0.5852 0.5850 0.5871 0.5928 0.5982
1340.000000 0.6031 0.6080 0.6129 0.6186 0.6243
1335.000000 0.6297 0.6351 0.6389 0.6421 0.6456
1330.000000 0.6481 0.6503 0.6524 0.6539 0.6550
1325.000000 0.6560 0.6571 0.6582 0.6585 0.6588
1320.000000 0.6592 0.6606 0.6599 0.6601 0.6601
1315.000000 0.6601 0.6600 0.6600 0.6600 0.6599
1310.000000 0.6591 0.6583 0.6575 0.6567 0.6556
1305.000000 0.6539 0.6522 0.6506 0.6489 0.6464
1300.000000 0.6426 0.6390 0.6324 0.6253 0.6106
1295.000000 0.5994 0.5862 0.5731 0.5610 0.5012
1290.000000 0.4309 0.3604 0.2899 0.2195 0.2054
1285.000000 0.2061 0.2191 0.2124 0.2195 0.2243
1280.000000 0.2301 0.2367 0.2464 0.2615 0.3280
1275.000000 0.3945 0.4610 0.5143 0.5258 0.5392
1270.000000 0.5539 0.5676 0.5812 0.5951 0.6044
1265.000000 0.6132 0.6220 0.6288 0.6349 0.6411
1260.000000 0.6471 0.6528 0.6576 0.6626 0.6665
1255.000000 0.6698 0.6730 0.6761 0.6793 0.6824
1250.000000 0.6851 0.6878 0.6907 0.6934 0.6955
1245.000000 0.6975 0.6998 0.7018 0.7038 0.7055
1240.000000 0.7072 0.7091 0.7108 0.7125 0.7143
1235.000000 0.7161 0.7182 0.7201 0.7221 0.7242
1230.000000 0.7257 0.7269 0.7283 0.7296 0.7303
1225.000000 0.7310 0.7317 0.7324 0.7326 0.7328
1220.000000 0.7332 0.7332 0.7332 0.7328 0.7326
1215.000000 0.7324 0.7321 0.7314 0.7305 0.7296
1210.000000 0.7288 0.7282 0.7275 0.7271 0.7268
1205.000000 0.7267 0.7264 0.7262 0.7262 0.7262
1200.000000 0.7268 0.7275 0.7281 0.7291 0.7303
1195.000000 0.7315 0.7326 0.7339 0.7351 0.7358
1190.000000 0.7365 0.7372 0.7380 0.7349 0.7387
1185.000000 0.7388 0.7383 0.7375 0.7361 0.7349
1180.000000 0.7328 0.7306 0.7269 0.7234 0.7211
1175.000000 0.7211 0.7211 0.7211 0.7200 0.7178
1170.000000 0.7151 0.7136 0.7122 0.7114 0.7114
1165.000000 0.7115 0.7124 0.7139 0.7153 0.7165
1160.000000 0.7178 0.7187 0.7196 0.7205 0.7203
1155.000000 0.7200 0.7196 0.7193 0.7184 0.7167
1150.000000 0.7149 0.7131 0.7111 0.7095 0.7083
1145.000000 0.7078 0.7076 0.7076 0.7080 0.7081
1140.000000 0.7082 0.7081 0.7074 0.7057 0.7034
1135.000000 0.7011 0.6987 0.6947 0.6906 0.6862
1130.000000 0.6818 0.6767 0.6671 0.6535 0.6282
1125.000000 0.5819 0.5238 0.4658 0.4077 0.3496
1120.000000 0.2916 0.2334 0.1754 0.1174 0.0860
1115.000000 0.0863 0.0874 0.1075 0.1446 0.1818
1110.000000 0.2190 0.2561 0.2933 0.3305 0.3676
1105.000000 0.4048 0.4419 0.4791 0.5008 0.5412
1100.000000 0.5612 0.5724 0.5837 0.5952 0.6068
1095.000000 0.6152 0.6225 0.6299 0.6360 0.6415
1090.000000 0.6471 0.6528 0.6569 0.6608 0.6648
1085.000000 0.6678 0.6701 0.6726 0.6751 0.6775
1080.000000 0.6798 0.6819 0.6841 0.6862 0.6884
1075.000000 0.6906 0.6926 0.6948 0.6968 0.6989
1070.000000 0.7008 0.7030 0.7049 0.7068 0.7086
1065.000000 0.7104 0.7119 0.7135 0.7151 0.7165
1060.000000 0.7178 0.7189 0.7199 0.7210 0.7218
1055.000000 0.7225 0.7233 0.7240 0.7247 0.7254
1050.000000 0.7265 0.7260 0.7254 0.7248 0.7232
1045.000000 0.7215 0.7186 0.7141 0.7096 0.7010
1040.000000 0.6884 0.6718 0.6561 0.6432 0.6325
1035.000000 0.6218 0.3546 0.3673 0.3909 0.4147
1030.000000 0.4385 0.4622 0.4860 0.5026 0.4989
1025.000000 0.4607 0.4004 0.3400 0.3139 0.3150
1020.000000 0.3882 0.4624 0.5364 0.6003 0.6134
1015.000000 0.6247 0.6354 0.6461 0.6568 0.6667
1010.000000 0.6756 0.6832 0.6896 0.6961 0.7011
1005.000000 0.7053 0.7094 0.7134 0.7161 0.7191
1000.000000 0.7218 0.7248 0.7268 0.7288 0.7308
995.000000 0.7328 0.7348 0.7367 0.7376 0.7388
990.000000 0.7398 0.7408 0.7418 0.7425 0.7433
985.000000 0.7440 0.7447 0.7454 0.7461 0.7462
980.000000 0.7465 0.7465 0.7468 0.7469 0.7469
975.000000 0.7467 0.7465 0.7462 0.7458 0.7453
970.000000 0.7447 0.7442 0.7436 0.7431 0.7431
965.000000 0.7432 0.7432 0.7433 0.7437 0.7444
960.000000 0.7451 0.7458 0.7465 0.7471 0.7480
955.000000 0.7492 0.7504 0.7515 0.7528 0.7540
950.000000 0.7551 0.7561 0.7572 0.7583 0.7594
945.000000 0.7604 0.7614 0.7624 0.7633 0.7643
940.000000 0.7650 0.7654 0.7658 0.7661 0.7664
935.000000 0.7675 0.7667 0.7665 0.7658 0.7651
930.000000 0.7638 0.7618 0.7597 0.7521 0.7439
925.000000 0.7315 0.7217 0.7125 0.7034 0.6027
920.000000 0.4447 0.2867 0.2208 0.2592 0.3244
915.000000 0.3896 0.4548 0.5200 0.5809 0.6041
910.000000 0.6379 0.6578 0.6721 0.6844 0.6938
905.000000 0.7032 0.7111 0.7171 0.7228 0.7285
900.000000 0.7325 0.7346 0.7362 0.7372 0.7384
895.000000 0.7391 0.7396 0.7404 0.7411 0.7411
890.000000 0.7411 0.7411 0.7404 0.7393 0.7368
885.000000 0.7333 0.7285 0.7225 0.7158 0.7092
880.000000 0.7008 0.6905 0.6768 0.6410 0.5725
875.000000 0.5040 0.4355 0.3668 0.2984 0.2299
870.000000 0.1614 0.1500 0.1552 0.2374 0.3253
865.000000 0.4133 0.5012 0.5136 0.5250 0.5405
860.000000 0.5655 0.5920 0.6186 0.6451 0.6717
855.000000 0.6953 0.7050 0.7147 0.7206 0.7261
850.000000 0.7315 0.7358 0.7393 0.7428 0.7462
845.000000 0.7497 0.7518 0.7541 0.7562 0.7585
840.000000 0.7607 0.7628 0.7646 0.7661 0.7675
835.000000 0.7690 0.7705 0.7719 0.7734 0.7749
830.000000 0.7764 0.7778 0.7793 0.7806 0.7815
825.000000 0.7824 0.7833 0.7842 0.7851 0.7858
820.000000 0.7868 0.7875 0.7885 0.7893 0.7901
815.000000 0.7910 0.7918 0.7925 0.7934 0.7941
810.000000 0.7947 0.7951 0.7958 0.7962 0.7968
805.000000 0.7974 0.7980 0.7985 0.7990 0.7994
800.000000 0.7998 0.8001 0.8005 0.8008 0.8010
795.000000 0.8011 0.8011 0.8011 0.8011 0.8011
790.000000 0.8011 0.8011 0.8011 0.8011 0.8007
785.000000 0.8001 0.7996 0.7990 0.7984 0.7976
780.000000 0.7961 0.7946 0.7930 0.7908 0.7885
775.000000 0.7861 0.7839 0.7795 0.7750 0.7705
770.000000 0.7633 0.7551 0.6478 0.5439 0.4398
765.000000 0.4173 0.4188 0.4489 0.4790 0.5092
760.000000 0.5393 0.5695 0.5996 0.6297 0.6599
755.000000 0.6900 0.7078 0.7168 0.7235 0.7287
750.000000 0.7339 0.7391 0.7438 0.7481 0.7521
745.000000 0.7556 0.7571 0.7580 0.7585 0.7585
740.000000 0.7584 0.7575 0.7568 0.7533 0.7495
735.000000 0.7465 0.7439 0.7418 0.7408 0.7400
730.000000 0.7388 0.7375 0.7361 0.7335 0.7300
725.000000 0.7265 0.7176 0.7072 0.6969 0.6867
720.000000 0.6762 0.6685 0.6668 0.6708 0.6780
715.000000 0.6930 0.7083 0.7236 0.7390 0.7419
710.000000 0.7441 0.7475 0.7531 0.7592 0.7668
705.000000 0.7734 0.7797 0.7853 0.7905 0.7958
700.000000 0.8007 0.8040 0.8071 0.8105 0.8137
695.000000 0.8160 0.8182 0.8204 0.8223 0.8240
690.000000 0.8257 0.8274 0.8282 0.8291 0.8300
685.000000 0.8304 0.8308 0.8309 0.8310 0.8307
680.000000 0.8303 0.8298 0.8295 0.8294 0.8294
675.000000 0.8300 0.8317 0.8333 0.8348 0.8363
670.000000 0.8371 0.8381 0.8409 0.8478 0.8547
665.000000 0.8615 0.8684 0.8697 0.8660 0.8635
660.000000 0.8639 0.8643 0.8647 0.8648 0.8649
655.000000 0.8649 0.8650 0.8651 0.8651 0.8652
650.000000 0.8652 0.8653 0.8653 0.8654 0.8655
645.000000 0.8655 0.8656 0.8657 0.8657 0.8658
640.000000 0.8659 0.8659 0.8659 0.8659 0.8658
635.000000 0.8657 0.8656 0.8656 0.8655 0.8654
630.000000 0.8653 0.8651 0.8644 0.8637 0.8630
625.000000 0.8623 0.8616 0.8608 0.8601 0.8594
620.000000 0.8587 0.8586 0.8585 0.8584 0.8583
615.000000 0.8582 0.8581 0.8580 0.8578 0.8578
610.000000 0.8577 0.8577 0.8578 0.8578 0.8578
605.000000 0.8580 0.8581 0.8582 0.8583 0.8584
600.000000 0.8585 0.8585 0.8586 0.8587 0.8588
595.000000 0.8589 0.8589 0.8588 0.8587 0.8585
590.000000 0.8584 0.8583 0.8582 0.8581 0.8578
585.000000 0.8578 0.8577 0.8575 0.8575 0.8575
580.000000 0.8575 0.8575 0.8575 0.8577 0.8578
575.000000 0.8578 0.8578 0.8580 0.8581 0.8581
570.000000 0.8580 0.8578 0.8577 0.8575 0.8574
565.000000 0.8573 0.8571 0.8570 0.8568 0.8567
560.000000 0.8564 0.8557 0.8551 0.8544 0.8537
555.000000 0.8531 0.8524 0.8518 0.8510 0.8502
550.000000 0.8494 0.8487 0.8478 0.8471 0.8463
545.000000 0.8455 0.8448 0.8440 0.8432 0.8425
540.000000 0.8417 0.8410 0.8403 0.8396 0.8389
535.000000 0.8382 0.8375 0.8368 0.8361 0.8354
530.000000 0.8347 0.8342 0.8336 0.8330 0.8324
525.000000 0.8318 0.8313 0.8307 0.8300 0.8293
520.000000 0.8285 0.8264 0.8242 0.8207 0.8151
515.000000 0.8089 0.8005 0.7921 0.7739 0.6207
510.000000 0.5383 0.5482 0.5677 0.5871 0.6017
505.000000 0.6006 0.4565 0.3091 0.3084 0.3087
500.000000 0.3844 0.4360 0.4875 0.5391 0.5907
495.000000 0.6422 0.6939 0.7455 0.7687 0.7754
490.000000 0.7821 0.7874 0.7915 0.7957 0.7982
485.000000 0.8001 0.8019 0.8038 0.8057 0.8075
480.000000 0.8087 0.8097 0.8107 0.8118 0.8128
475.000000 0.8138 0.8146 0.8149 0.8151 0.8156
470.000000 0.8121 0.8158 0.8155 0.8151 0.8146
465.000000 0.8142 0.8131 0.8118 0.8105 0.8093
460.000000 0.8067 0.8041 0.8014 0.7986 0.7957
455.000000 0.7931 0.7918 0.7905 0.7896
##END=
