##TITLE=1,3-(1,1'-FERROCENYLENE)-1,1,3,3-TETRAMETHYL DISILOXANE
##JCAMP-DX=4.24
##DATA TYPE=INFRARED SPECTRUM
##CLASS=COBLENTZ
##ORIGIN=WYANDOTTE CHEMICALS CORP., WYANDOTTE, MICHIGAN, USA
##OWNER=COBLENTZ SOCIETY
Collection (C) 2018 copyright by the U.S. Secretary of Commerce
on behalf of the United States of America. All rights reserved.
##DATE=Not specified, most likely prior to 1970
##MOLFORM=C14 H20 Fe O Si2
##SOURCE REFERENCE=COBLENTZ NO. 2827
##$NIST ID=B6002827
##$NIST SOURCE=COBLENTZ
##$NIST IMAGE=cob2827
##SPECTROMETER/DATA SYSTEM=Not specified, most likely a prism, grating, or hybrid spectrometer.
##STATE=SOLID (MINERAL OIL MULL)
##PATH LENGTH=
$$SPECTRAL CONTAMINATION DUE TO OIL AROUND 2900 CM^-^1
##SAMPLING PROCEDURE=TRANSMISSION
##RESOLUTION=4
##DATA PROCESSING=DIGITIZED BY NIST FROM HARD COPY
##XUNITS=MICROMETERS
##YUNITS=TRANSMITTANCE
##XFACTOR=1.000000
##YFACTOR=1
##DELTAX=000.006626
##FIRSTX=2.04
##LASTX=16.007
##FIRSTY=0.388
##MAXX=16.007
##MINX=2.04
##MAXY=0.955
##MINY=0.026
##NPOINTS=2109
##XYDATA=(X++(Y..Y))
2.040000 0.3880 0.3890 0.3910 0.3930 0.3940
2.073144 0.3960 0.3980 0.3990 0.4010 0.4020
2.106000 0.4060 0.4070 0.4070 0.4090 0.4090
2.139144 0.4090 0.4090 0.4110 0.4110 0.4110
2.172000 0.4110 0.4110 0.4110 0.4110 0.4120
2.205144 0.4120 0.4140 0.4140 0.4160 0.4160
2.239000 0.4190 0.4210 0.4220 0.4240 0.4260
2.272144 0.4270 0.4290 0.4310 0.4320 0.4360
2.305000 0.4370 0.4390 0.4390 0.4410 0.4420
2.338144 0.4440 0.4460 0.4460 0.4470 0.4490
2.371000 0.4510 0.4520 0.4520 0.4540 0.4560
2.404144 0.4560 0.4570 0.4570 0.4570 0.4590
2.437000 0.4590 0.4610 0.4610 0.4620 0.4620
2.470144 0.4620 0.4640 0.4640 0.4660 0.4660
2.504000 0.4660 0.4690 0.4700 0.4720 0.4740
2.537144 0.4740 0.4770 0.4800 0.4820 0.4840
2.570000 0.4840 0.4850 0.4870 0.4870 0.4890
2.603144 0.4900 0.4900 0.4920 0.4940 0.4940
2.636000 0.4950 0.4970 0.4970 0.4990 0.4990
2.669144 0.5020 0.5040 0.5050 0.5050 0.5070
2.702000 0.5090 0.5090 0.5100 0.5120 0.5120
2.735144 0.5140 0.5150 0.5150 0.5170 0.5170
2.769000 0.5170 0.5170 0.5190 0.5190 0.5190
2.802144 0.5200 0.5200 0.5220 0.5220 0.5220
2.835000 0.5240 0.5240 0.5240 0.5250 0.5250
2.868144 0.5250 0.5250 0.5270 0.5270 0.5270
2.901000 0.5270 0.5270 0.5270 0.5270 0.5270
2.934144 0.5270 0.5270 0.5270 0.5270 0.5290
2.967000 0.5290 0.5290 0.5290 0.5290 0.5290
3.000144 0.5300 0.5300 0.5300 0.5300 0.5300
3.034000 0.5320 0.5320 0.5320 0.5320 0.5320
3.067144 0.5320 0.5320 0.5320 0.5320 0.5320
3.100000 0.5300 0.5300 0.5300 0.5290 0.5270
3.133144 0.5270 0.5250 0.5240 0.5200 0.5170
3.166000 0.5140 0.5100 0.5090 0.5070 0.5040
3.199144 0.4950 0.4870 0.4690 0.4590 0.4410
3.232000 0.4290 0.4240 0.4190 0.4190 0.4210
3.265144 0.4610 0.4610 0.4590 0.4510 0.4390
3.299000 0.4220 0.3940 0.3630 0.3310 0.2960
3.332144 0.2480 0.1820 0.0870 0.0430 0.0330
3.365000 0.0310 0.0310 0.0340 0.0340 0.0380
3.398144 0.0390 0.0430 0.0480 0.0560 0.0660
3.431000 0.0770 0.0940 0.1190 0.1220 0.1220
3.464144 0.1110 0.1060 0.1040 0.1060 0.1090
3.497000 0.1720 0.2300 0.2780 0.3530 0.4270
3.530144 0.5800 0.6210 0.6510 0.6660 0.6790
3.564000 0.6860 0.6930 0.6980 0.7060 0.7180
3.597144 0.7210 0.7260 0.7280 0.7280 0.7290
3.630000 0.7290 0.7290 0.7280 0.7280 0.7240
3.663144 0.7210 0.7210 0.7190 0.7190 0.7190
3.696000 0.7190 0.7210 0.7210 0.7230 0.7230
3.729144 0.7240 0.7240 0.7260 0.7280 0.7280
3.762000 0.7290 0.7290 0.7310 0.7310 0.7330
3.795144 0.7330 0.7340 0.7340 0.7360 0.7360
3.829000 0.7390 0.7460 0.7470 0.7490 0.7490
3.862144 0.7470 0.7470 0.7490 0.7490 0.7490
3.895000 0.7510 0.7610 0.7720 0.7720 0.7740
3.928144 0.7740 0.7760 0.7760 0.7760 0.7770
3.961000 0.7770 0.7770 0.7770 0.7760 0.7760
3.994144 0.7760 0.7760 0.7760 0.7760 0.7760
4.027000 0.7740 0.7720 0.7720 0.7710 0.7710
4.060144 0.7720 0.7760 0.7810 0.7810 0.7820
4.094000 0.7820 0.7820 0.7820 0.7820 0.7820
4.127144 0.7820 0.7840 0.7860 0.7890 0.7910
4.160000 0.7910 0.7920 0.7940 0.7960 0.7960
4.193144 0.7960 0.7940 0.7920 0.7910 0.7870
4.226000 0.7860 0.7840 0.7790 0.7760 0.7740
4.259144 0.7740 0.7760 0.7770 0.7820 0.7840
4.292000 0.7860 0.7890 0.7890 0.7910 0.7920
4.325144 0.7940 0.7970 0.8000 0.8040 0.8100
4.359000 0.8150 0.8150 0.8190 0.8220 0.8240
4.392144 0.8270 0.8290 0.8290 0.8290 0.8270
4.425000 0.8250 0.8250 0.8250 0.8250 0.8250
4.458144 0.8250 0.8250 0.8250 0.8250 0.8270
4.491000 0.8270 0.8290 0.8290 0.8290 0.8290
4.524144 0.8300 0.8300 0.8300 0.8320 0.8320
4.558000 0.8300 0.8300 0.8300 0.8300 0.8300
4.591144 0.8300 0.8300 0.8300 0.8320 0.8320
4.624000 0.8340 0.8350 0.8370 0.8370 0.8390
4.657144 0.8390 0.8400 0.8400 0.8420 0.8490
4.690000 0.8520 0.8540 0.8550 0.8570 0.8590
4.723144 0.8590 0.8600 0.8620 0.8650 0.8650
4.756000 0.8590 0.8590 0.8550 0.8550 0.8550
4.789144 0.8570 0.8590 0.8620 0.8620 0.8620
4.823000 0.8600 0.8600 0.8590 0.8570 0.8550
4.856144 0.8520 0.8470 0.8450 0.8450 0.8470
4.889000 0.8500 0.8520 0.8540 0.8570 0.8590
4.922144 0.8600 0.8600 0.8600 0.8600 0.8600
4.955000 0.8620 0.8640 0.8670 0.8680 0.8720
4.988144 0.8750 0.8800 0.8830 0.8880 0.8900
5.021000 0.8900 0.8900 0.8900 0.8880 0.8830
5.054144 0.8830 0.8820 0.8820 0.8820 0.8820
5.088000 0.8850 0.8900 0.8930 0.8930 0.8970
5.121144 0.8970 0.8970 0.8970 0.8970 0.8950
5.154000 0.8950 0.8930 0.8880 0.8800 0.8780
5.187144 0.8800 0.8820 0.8830 0.8850 0.8850
5.220000 0.8870 0.8920 0.8930 0.8930 0.8880
5.253144 0.8870 0.8850 0.8870 0.8930 0.9020
5.286000 0.9100 0.9120 0.9080 0.9080 0.9080
5.319144 0.9100 0.9120 0.9150 0.9150 0.9120
5.353000 0.9070 0.9070 0.9070 0.9070 0.9100
5.386144 0.9150 0.9220 0.9250 0.9250 0.9230
5.419000 0.9220 0.9200 0.9180 0.9150 0.9130
5.452144 0.9130 0.9170 0.9230 0.9250 0.9230
5.485000 0.9180 0.9170 0.9170 0.9200 0.9320
5.518144 0.9320 0.9280 0.9280 0.9270 0.9270
5.551000 0.9230 0.9220 0.9220 0.9170 0.9150
5.584144 0.9130 0.9120 0.9080 0.9070 0.9030
5.618000 0.8920 0.8820 0.8800 0.8770 0.8720
5.651144 0.8700 0.8750 0.8820 0.8850 0.8870
5.684000 0.8880 0.8880 0.8880 0.8880 0.8800
5.717144 0.8700 0.8680 0.8670 0.8620 0.8590
5.750000 0.8520 0.8500 0.8500 0.8620 0.8620
5.783144 0.8600 0.8440 0.8320 0.8300 0.8300
5.816000 0.8370 0.8450 0.8450 0.8440 0.8320
5.849144 0.8300 0.8320 0.8350 0.8420 0.8550
5.883000 0.8670 0.8680 0.8620 0.8390 0.8300
5.916144 0.8300 0.8320 0.8500 0.8520 0.8500
5.949000 0.8290 0.8250 0.8270 0.8390 0.8440
5.982144 0.8470 0.8490 0.8450 0.8420 0.8340
6.015000 0.8300 0.8270 0.8270 0.8270 0.8290
6.048144 0.8400 0.8440 0.8450 0.8490 0.8520
6.081000 0.8590 0.8650 0.8750 0.8820 0.8830
6.114144 0.8850 0.8850 0.8880 0.8880 0.8880
6.148000 0.8830 0.8800 0.8730 0.8650 0.8600
6.181144 0.8590 0.8600 0.8600 0.8650 0.8670
6.214000 0.8680 0.8750 0.8850 0.8900 0.8920
6.247144 0.8970 0.8970 0.8970 0.8980 0.8980
6.280000 0.8980 0.9000 0.9000 0.8980 0.8980
6.313144 0.8980 0.8980 0.8970 0.8950 0.8930
6.346000 0.8900 0.8880 0.8870 0.8870 0.8870
6.379144 0.8970 0.9020 0.9030 0.9050 0.9050
6.413000 0.9000 0.8930 0.8920 0.8820 0.8800
6.446144 0.8820 0.8900 0.8920 0.8920 0.8930
6.479000 0.8930 0.8930 0.8920 0.8920 0.8920
6.512144 0.8920 0.8920 0.8920 0.8920 0.8950
6.545000 0.8970 0.9000 0.9030 0.9030 0.9030
6.578144 0.9000 0.8950 0.8920 0.8920 0.8900
6.611000 0.8880 0.8870 0.8850 0.8830 0.8830
6.644144 0.8830 0.8820 0.8700 0.8650 0.8570
6.678000 0.8470 0.8370 0.8220 0.8120 0.8090
6.711144 0.7970 0.7540 0.7410 0.7230 0.6960
6.744000 0.6660 0.6280 0.5830 0.5320 0.5040
6.777144 0.4740 0.4060 0.3910 0.3730 0.3480
6.810000 0.3460 0.3460 0.3480 0.3560 0.3710
6.843144 0.3930 0.4110 0.4270 0.4420 0.4590
6.876000 0.4750 0.4920 0.5330 0.5580 0.5780
6.909144 0.5970 0.6180 0.6400 0.6650 0.6910
6.943000 0.7210 0.7410 0.7440 0.7420 0.7240
6.976144 0.6940 0.6600 0.6300 0.5700 0.5170
7.009000 0.5150 0.5170 0.5370 0.5550 0.6100
7.042144 0.6480 0.6500 0.6550 0.6560 0.6580
7.075000 0.6580 0.6610 0.6740 0.6880 0.7030
7.108144 0.7230 0.7360 0.7460 0.7520 0.7610
7.142000 0.7710 0.7820 0.8000 0.8020 0.8020
7.175144 0.8000 0.7590 0.7130 0.6560 0.5880
7.208000 0.5320 0.5050 0.4950 0.4840 0.4800
7.241144 0.4700 0.4620 0.4590 0.4590 0.4570
7.274000 0.4560 0.4360 0.4040 0.3960 0.3940
7.307144 0.3960 0.4700 0.6000 0.7010 0.7180
7.340000 0.7420 0.7460 0.7460 0.7360 0.7290
7.373144 0.7280 0.7260 0.7280 0.7870 0.8140
7.407000 0.8290 0.8350 0.8450 0.8490 0.8500
7.440144 0.8540 0.8600 0.8680 0.8730 0.8800
7.473000 0.8830 0.8870 0.8900 0.8930 0.8950
7.506144 0.8980 0.9020 0.9020 0.9030 0.9030
7.539000 0.9070 0.9070 0.9080 0.9080 0.9080
7.572144 0.9080 0.9080 0.9070 0.9000 0.8900
7.605000 0.8770 0.8570 0.8290 0.7870 0.7340
7.638144 0.6940 0.6910 0.6930 0.7190 0.7670
7.672000 0.7990 0.8240 0.8440 0.8600 0.8720
7.705144 0.8800 0.8870 0.8900 0.8920 0.8930
7.738000 0.8930 0.8930 0.8930 0.8930 0.8930
7.771144 0.8920 0.8900 0.8850 0.8820 0.8770
7.804000 0.8720 0.8670 0.8620 0.8550 0.8490
7.837144 0.8400 0.8340 0.8240 0.8150 0.8050
7.870000 0.7940 0.7790 0.7520 0.7190 0.6830
7.903144 0.6300 0.5730 0.5050 0.4700 0.4340
7.937000 0.3680 0.2220 0.1260 0.0820 0.0670
7.970144 0.0560 0.0530 0.0510 0.0530 0.1310
8.003000 0.1870 0.2350 0.2860 0.3410 0.3960
8.036144 0.4520 0.5600 0.6060 0.6500 0.6840
8.069000 0.7090 0.7240 0.7390 0.7560 0.7760
8.102144 0.7940 0.8100 0.8200 0.8250 0.8340
8.135000 0.8400 0.8440 0.8500 0.8570 0.8680
8.168144 0.8730 0.8780 0.8800 0.8830 0.8850
8.202000 0.8900 0.8900 0.8930 0.8950 0.8950
8.235144 0.8980 0.9000 0.9020 0.9030 0.9050
8.268000 0.9050 0.9050 0.9070 0.9080 0.9100
8.301144 0.9120 0.9130 0.9130 0.9130 0.9130
8.334000 0.9120 0.9100 0.9080 0.9070 0.9050
8.367144 0.9050 0.9030 0.9000 0.8900 0.8830
8.400000 0.8720 0.8420 0.7860 0.7420 0.6080
8.433144 0.5920 0.5750 0.5730 0.5770 0.5980
8.467000 0.6150 0.6580 0.6930 0.7190 0.7230
8.500144 0.7160 0.6710 0.6230 0.5720 0.5090
8.533000 0.4800 0.4510 0.3710 0.2430 0.1500
8.566144 0.0920 0.0760 0.0660 0.0630 0.0610
8.599000 0.0610 0.0640 0.0890 0.1240 0.1750
8.632144 0.2250 0.2760 0.3280 0.3830 0.4420
8.665000 0.5700 0.6400 0.6760 0.6940 0.7090
8.698144 0.7260 0.7370 0.7470 0.7540 0.7640
8.732000 0.7760 0.7910 0.8120 0.8400 0.8520
8.765144 0.8650 0.8800 0.8930 0.9070 0.9150
8.798000 0.9220 0.9250 0.9300 0.9330 0.9350
8.831144 0.9380 0.9400 0.9410 0.9410 0.9410
8.864000 0.9410 0.9410 0.9410 0.9410 0.9400
8.897144 0.9400 0.9380 0.9380 0.9380 0.9380
8.930000 0.9400 0.9410 0.9430 0.9450 0.9480
8.963144 0.9500 0.9530 0.9530 0.9550 0.9550
8.997000 0.9550 0.9550 0.9550 0.9530 0.9530
9.030144 0.9510 0.9500 0.9450 0.9400 0.9360
9.063000 0.9330 0.9280 0.9270 0.9250 0.9220
9.096144 0.9170 0.9120 0.9050 0.9020 0.8970
9.129000 0.8930 0.8900 0.8900 0.8880 0.8830
9.162144 0.8770 0.8700 0.8670 0.8600 0.8550
9.195000 0.8450 0.8390 0.8340 0.8300 0.8190
9.228144 0.8100 0.7960 0.7870 0.7810 0.7710
9.262000 0.7570 0.7470 0.7360 0.7280 0.7210
9.295144 0.7110 0.7040 0.6960 0.6860 0.6740
9.328000 0.6660 0.6650 0.6560 0.6460 0.6350
9.361144 0.6210 0.6060 0.5930 0.5800 0.5680
9.394000 0.5430 0.5250 0.5090 0.5040 0.4970
9.427144 0.4850 0.4720 0.4610 0.4470 0.4310
9.460000 0.4090 0.3860 0.3540 0.3010 0.2830
9.493144 0.2810 0.2830 0.2860 0.3310 0.4320
9.527000 0.4410 0.4570 0.4570 0.4520 0.4090
9.560144 0.3610 0.3060 0.2630 0.2130 0.1820
9.593000 0.1390 0.0890 0.0690 0.0530 0.0440
9.626144 0.0380 0.0360 0.0340 0.0360 0.0380
9.659000 0.0410 0.0440 0.0510 0.0540 0.0540
9.692144 0.0510 0.0490 0.0480 0.0440 0.0410
9.726000 0.0410 0.0390 0.0390 0.0390 0.0410
9.759144 0.0440 0.0440 0.0460 0.0460 0.0490
9.792000 0.0510 0.0540 0.0560 0.0590 0.0590
9.825144 0.0640 0.0670 0.0720 0.0770 0.0820
9.858000 0.0890 0.0960 0.1040 0.1140 0.1240
9.891144 0.1350 0.1470 0.1600 0.1720 0.1870
9.924000 0.1950 0.2020 0.2080 0.2200 0.2380
9.957144 0.2520 0.2650 0.2760 0.2860 0.2980
9.991000 0.3080 0.3210 0.3330 0.3460 0.3610
10.024144 0.3690 0.3790 0.3960 0.4040 0.4140
10.057000 0.4220 0.4360 0.4420 0.4490 0.4560
10.090144 0.4640 0.4740 0.4850 0.4940 0.4990
10.123000 0.5190 0.5220 0.5250 0.5320 0.5380
10.156144 0.5470 0.5530 0.5620 0.5680 0.5750
10.189000 0.5800 0.5830 0.5900 0.5950 0.6010
10.222144 0.6050 0.6100 0.6110 0.6160 0.6230
10.256000 0.6250 0.6280 0.6350 0.6410 0.6460
10.289144 0.6480 0.6530 0.6560 0.6650 0.6680
10.322000 0.6710 0.6740 0.6790 0.6810 0.6860
10.355144 0.6890 0.6910 0.6940 0.6980 0.7010
10.388000 0.7040 0.7080 0.7090 0.7140 0.7190
10.421144 0.7210 0.7230 0.7230 0.7240 0.7310
10.454000 0.7310 0.7330 0.7340 0.7370 0.7390
10.487144 0.7420 0.7440 0.7490 0.7510 0.7510
10.521000 0.7510 0.7510 0.7520 0.7560 0.7570
10.554144 0.7610 0.7610 0.7610 0.7620 0.7620
10.587000 0.7640 0.7660 0.7690 0.7710 0.7710
10.620144 0.7720 0.7720 0.7720 0.7720 0.7710
10.653000 0.7690 0.7670 0.7670 0.7670 0.7690
10.686144 0.7760 0.7810 0.7820 0.7840 0.7840
10.719000 0.7860 0.7860 0.7870 0.7890 0.7910
10.752144 0.7920 0.7920 0.7940 0.7960 0.7960
10.786000 0.7960 0.7970 0.7970 0.7990 0.8000
10.819144 0.8000 0.8000 0.8000 0.8000 0.7990
10.852000 0.7970 0.7970 0.7940 0.7940 0.7920
10.885144 0.7910 0.7890 0.7860 0.7770 0.7710
10.918000 0.7670 0.7620 0.7560 0.7470 0.7360
10.951144 0.7240 0.7110 0.6960 0.6780 0.6550
10.984000 0.6230 0.5870 0.5400 0.5190 0.4970
11.017144 0.4490 0.3960 0.3580 0.3160 0.2900
11.051000 0.2730 0.2570 0.2550 0.2570 0.2680
11.084144 0.2860 0.3060 0.3280 0.3490 0.3760
11.117000 0.4020 0.4340 0.4690 0.5330 0.5650
11.150144 0.5980 0.6300 0.6510 0.6730 0.6860
11.183000 0.6960 0.7010 0.7040 0.7040 0.7010
11.216144 0.6990 0.6990 0.6990 0.7030 0.7230
11.249000 0.7330 0.7420 0.7520 0.7690 0.7790
11.282144 0.7860 0.7920 0.7970 0.8020 0.8040
11.316000 0.8090 0.8090 0.8100 0.8140 0.8170
11.349144 0.8190 0.8190 0.8170 0.8050 0.8000
11.382000 0.7970 0.7910 0.7790 0.7670 0.7560
11.415144 0.7470 0.7420 0.7390 0.7340 0.7290
11.448000 0.7210 0.7110 0.6960 0.6830 0.6630
11.481144 0.6510 0.6400 0.6360 0.6350 0.6350
11.514000 0.6380 0.6500 0.6610 0.6710 0.6740
11.547144 0.6740 0.6730 0.6650 0.6580 0.6530
11.581000 0.6510 0.6480 0.6450 0.6350 0.6300
11.614144 0.6260 0.6180 0.6100 0.6010 0.5970
11.647000 0.5830 0.5750 0.5600 0.5380 0.5140
11.680144 0.5000 0.4850 0.4540 0.4220 0.3890
11.713000 0.3560 0.3310 0.3260 0.3250 0.3260
11.746144 0.3360 0.3510 0.3680 0.3980 0.4190
11.779000 0.4410 0.4590 0.4690 0.4890 0.4900
11.812144 0.4900 0.4890 0.4770 0.4610 0.4460
11.846000 0.4370 0.4320 0.4270 0.4260 0.4270
11.879144 0.4320 0.4340 0.4340 0.4320 0.4310
11.912000 0.4220 0.4110 0.3890 0.3710 0.3590
11.945144 0.3510 0.3380 0.3200 0.3030 0.2900
11.978000 0.2780 0.2760 0.2680 0.2570 0.2420
12.011144 0.2250 0.2120 0.1990 0.1890 0.1840
12.044000 0.1700 0.1540 0.1400 0.1260 0.1140
12.077144 0.1020 0.0920 0.0810 0.0690 0.0610
12.111000 0.0540 0.0510 0.0460 0.0410 0.0390
12.144144 0.0360 0.0340 0.0310 0.0290 0.0290
12.177000 0.0290 0.0280 0.0280 0.0260 0.0260
12.210144 0.0260 0.0260 0.0260 0.0260 0.0260
12.243000 0.0280 0.0280 0.0280 0.0280 0.0290
12.276144 0.0290 0.0310 0.0310 0.0330 0.0340
12.310000 0.0360 0.0380 0.0380 0.0410 0.0440
12.343144 0.0510 0.0530 0.0560 0.0640 0.0710
12.376000 0.0790 0.0840 0.0870 0.0920 0.0970
12.409144 0.1020 0.1040 0.1070 0.1120 0.1120
12.442000 0.1140 0.1160 0.1160 0.1140 0.1120
12.475144 0.1110 0.1070 0.1060 0.1010 0.0970
12.508000 0.0920 0.0870 0.0820 0.0770 0.0720
12.541144 0.0660 0.0590 0.0510 0.0440 0.0430
12.575000 0.0390 0.0380 0.0380 0.0360 0.0340
12.608144 0.0330 0.0330 0.0310 0.0290 0.0290
12.641000 0.0290 0.0280 0.0280 0.0280 0.0280
12.674144 0.0290 0.0290 0.0330 0.0340 0.0380
12.707000 0.0430 0.0480 0.0510 0.0590 0.0720
12.740144 0.0810 0.0920 0.1020 0.1110 0.1220
12.773000 0.1390 0.1550 0.1700 0.1800 0.1920
12.806144 0.2030 0.2180 0.2350 0.2520 0.2660
12.840000 0.2830 0.2960 0.3060 0.3200 0.3340
12.873144 0.3480 0.3630 0.3760 0.3910 0.4040
12.906000 0.4190 0.4320 0.4470 0.4610 0.4740
12.939144 0.4850 0.4990 0.5200 0.5320 0.5400
12.972000 0.5480 0.5600 0.5720 0.5820 0.5930
13.005144 0.6030 0.6110 0.6200 0.6260 0.6300
13.038000 0.6380 0.6450 0.6480 0.6500 0.6530
13.071144 0.6580 0.6630 0.6650 0.6690 0.6740
13.105000 0.6810 0.6830 0.6840 0.6880 0.6930
13.138144 0.6980 0.7010 0.7030 0.7040 0.7080
13.171000 0.7130 0.7140 0.7160 0.7190 0.7230
13.204144 0.7230 0.7240 0.7240 0.7260 0.7290
13.237000 0.7330 0.7360 0.7370 0.7410 0.7420
13.270144 0.7440 0.7460 0.7470 0.7470 0.7490
13.303000 0.7490 0.7490 0.7510 0.7520 0.7560
13.336144 0.7570 0.7570 0.7570 0.7570 0.7570
13.370000 0.7570 0.7560 0.7540 0.7520 0.7510
13.403144 0.7490 0.7440 0.7420 0.7390 0.7370
13.436000 0.7340 0.7310 0.7280 0.7260 0.7260
13.469144 0.7260 0.7280 0.7280 0.7290 0.7330
13.502000 0.7360 0.7370 0.7370 0.7390 0.7410
13.535144 0.7420 0.7440 0.7460 0.7460 0.7470
13.568000 0.7470 0.7490 0.7510 0.7520 0.7560
13.601144 0.7590 0.7610 0.7610 0.7620 0.7660
13.635000 0.7710 0.7740 0.7770 0.7810 0.7820
13.668144 0.7820 0.7840 0.7870 0.7870 0.7910
13.701000 0.7920 0.7960 0.7970 0.7970 0.7990
13.734144 0.7990 0.8000 0.8020 0.8050 0.8070
13.767000 0.8070 0.8070 0.8070 0.8050 0.8050
13.800144 0.8050 0.8040 0.8040 0.8040 0.8020
13.833000 0.8020 0.8020 0.8000 0.8000 0.8000
13.866144 0.8000 0.8000 0.8000 0.8000 0.8000
13.900000 0.8000 0.8020 0.8040 0.8050 0.8050
13.933144 0.8090 0.8100 0.8120 0.8150 0.8170
13.966000 0.8190 0.8200 0.8240 0.8270 0.8290
13.999144 0.8300 0.8340 0.8350 0.8350 0.8370
14.032000 0.8390 0.8390 0.8400 0.8400 0.8420
14.065144 0.8420 0.8440 0.8440 0.8450 0.8450
14.098000 0.8450 0.8450 0.8440 0.8420 0.8400
14.131144 0.8400 0.8400 0.8420 0.8440 0.8440
14.165000 0.8420 0.8390 0.8350 0.8320 0.8300
14.198144 0.8300 0.8290 0.8250 0.8240 0.8170
14.231000 0.8150 0.8100 0.7990 0.7940 0.7840
14.264144 0.7770 0.7710 0.7610 0.7510 0.7390
14.297000 0.7280 0.7160 0.7030 0.6880 0.6730
14.330144 0.6580 0.6430 0.6260 0.6100 0.5930
14.363000 0.5770 0.5550 0.5430 0.5270 0.5100
14.396144 0.5050 0.4990 0.4840 0.4690 0.4590
14.430000 0.4510 0.4440 0.4370 0.4320 0.4290
14.463144 0.4290 0.4270 0.4270 0.4290 0.4310
14.496000 0.4320 0.4370 0.4410 0.4510 0.4590
14.529144 0.4690 0.4770 0.4870 0.4970 0.5190
14.562000 0.5300 0.5430 0.5550 0.5680 0.5730
14.595144 0.5820 0.5930 0.6080 0.6230 0.6360
14.628000 0.6510 0.6630 0.6710 0.6760 0.6840
14.661144 0.6960 0.7060 0.7180 0.7260 0.7310
14.695000 0.7410 0.7510 0.7560 0.7610 0.7660
14.728144 0.7670 0.7690 0.7710 0.7720 0.7770
14.761000 0.7810 0.7820 0.7840 0.7840 0.7870
14.794144 0.7890 0.7890 0.7920 0.7920 0.7920
14.827000 0.7920 0.7920 0.7920 0.7910 0.7910
14.860144 0.7890 0.7870 0.7840 0.7810 0.7720
14.894000 0.7710 0.7670 0.7620 0.7570 0.7560
14.927144 0.7510 0.7460 0.7390 0.7310 0.7240
14.960000 0.7190 0.7080 0.6980 0.6890 0.6790
14.993144 0.6650 0.6480 0.6330 0.6230 0.6080
15.026000 0.6030 0.5970 0.5830 0.5570 0.5420
15.059144 0.5200 0.5040 0.4970 0.4890 0.4750
15.092000 0.4640 0.4540 0.4420 0.4370 0.4310
15.125144 0.4270 0.4240 0.4240 0.4220 0.4220
15.159000 0.4240 0.4310 0.4410 0.4470 0.4520
15.192144 0.4610 0.4660 0.4700 0.4820 0.4940
15.225000 0.5100 0.5250 0.5370 0.5480 0.5570
15.258144 0.5670 0.5750 0.5820 0.5880 0.5950
15.291000 0.6050 0.6130 0.6230 0.6310 0.6400
15.324144 0.6430 0.6450 0.6460 0.6510 0.6580
15.357000 0.6650 0.6690 0.6760 0.6760 0.6780
15.390144 0.6790 0.6790 0.6810 0.6830 0.6840
15.424000 0.6860 0.6890 0.6910 0.6930 0.6930
15.457144 0.6940 0.6940 0.6940 0.6910 0.6890
15.490000 0.6890 0.6890 0.6910 0.6910 0.6910
15.523144 0.6910 0.6930 0.6930 0.6930 0.6930
15.556000 0.6930 0.6930 0.6930 0.6930 0.6930
15.589144 0.6930 0.6930 0.6930 0.6930 0.6930
15.622000 0.6930 0.6930 0.6910 0.6910 0.6890
15.655144 0.6890 0.6880 0.6860 0.6810 0.6790
15.689000 0.6790 0.6780 0.6740 0.6740 0.6730
15.722144 0.6690 0.6680 0.6650 0.6610 0.6580
15.755000 0.6530 0.6500 0.6500 0.6500 0.6500
15.788144 0.6500 0.6480 0.6410 0.6360 0.6280
15.821000 0.6200 0.6160 0.6110 0.6060 0.6000
15.854144 0.5950 0.5870 0.5820 0.5770 0.5730
15.887000 0.5730 0.5720 0.5670 0.5650 0.5620
15.920144 0.5600 0.5600 0.5580 0.5580 0.5570
15.954000 0.5530 0.5500 0.5480 0.5470 0.5420
15.987144 0.5400 0.5380 0.5350 0.5380
##END=
