##TITLE=KETONE, 2-METHOXY-1-NAPHTHYL-Beta-PHENYLETHYL
##JCAMP-DX=4.24
##DATA TYPE=INFRARED SPECTRUM
##CLASS=COBLENTZ
##ORIGIN=ANDERSON PHYSICAL LABORATORY
##OWNER=COBLENTZ SOCIETY
Collection (C) 2018 copyright by the U.S. Secretary of Commerce
on behalf of the United States of America. All rights reserved.
##DATE=Not specified, most likely prior to 1970
##NAMES=1-(2-methoxy-1-naphthyl)-3-phenyl-1-propanone
##MOLFORM=C20 H18 O2
##SOURCE REFERENCE=COBLENTZ NO. 2604
##$NIST ID=B6002604
##$NIST SOURCE=COBLENTZ
##$NIST IMAGE=cob2604
##SPECTROMETER/DATA SYSTEM=Not specified, most likely a prism, grating, or hybrid spectrometer.
##STATE=SOLID (1.0% IN KBr PELLET)
##PATH LENGTH=0.0355 CM THICK
##SAMPLING PROCEDURE=TRANSMISSION
##RESOLUTION=4
##DATA PROCESSING=DIGITIZED BY NIST FROM HARD COPY (FROM TWO SEGMENTS)
##XUNITS=1/CM
##YUNITS=TRANSMITTANCE
##XFACTOR=1.000000
##YFACTOR=1
##DELTAX=0.933998
##FIRSTX=672.79
##LASTX=3984.75
##FIRSTY=0.737
##MAXX=3984.75
##MINX=672.79
##MAXY=0.922998
##MINY=0.234
##NPOINTS=3547
##XYDATA=(X++(Y..Y))
672.790000 0.7370 0.7310 0.7290 0.7370 0.7310
677.459988 0.7290 0.7280 0.7260 0.7260 0.7250
682.129976 0.7200 0.7140 0.7050 0.6930 0.6681
686.799965 0.6441 0.6062 0.5851 0.5721 0.5720
691.469953 0.5760 0.5870 0.5930 0.5930 0.5930
696.139941 0.5910 0.5870 0.5482 0.4664 0.4630
700.809929 0.4650 0.4840 0.4960 0.5090 0.6198
705.479918 0.7048 0.7140 0.7140 0.7110 0.7070
710.149906 0.6980 0.6810 0.6780 0.6800 0.7010
714.819894 0.7459 0.7669 0.7859 0.8188 0.8548
719.489882 0.8550 0.8520 0.8510 0.8510 0.8420
724.159871 0.8370 0.8280 0.8220 0.8091 0.7941
728.829859 0.7860 0.7680 0.7170 0.6920 0.6660
733.499847 0.6451 0.6241 0.5871 0.4775 0.4720
738.169835 0.4710 0.4720 0.4870 0.5030 0.5299
742.839823 0.5300 0.5300 0.5300 0.3966 0.3065
747.509812 0.3000 0.3000 0.3120 0.3450 0.4119
752.179800 0.4589 0.4869 0.5159 0.5568 0.5848
756.849788 0.6091 0.6710 0.7010 0.7040 0.7010
761.519776 0.6870 0.6322 0.5822 0.5691 0.5660
766.189765 0.5660 0.6200 0.6720 0.7050 0.7349
770.859753 0.7649 0.8009 0.8398 0.8669 0.9197
775.529741 0.9230 0.9200 0.9080 0.9020 0.8731
780.199729 0.8451 0.8340 0.8330 0.8330 0.8310
784.869718 0.8220 0.8180 0.8180 0.8360 0.8869
789.539706 0.9089 0.9210 0.9230 0.9210 0.9140
794.209694 0.9060 0.8990 0.8940 0.8910 0.8840
798.879682 0.8720 0.8670 0.8361 0.8131 0.7325
803.549670 0.6980 0.6680 0.6290 0.5811 0.5760
808.219659 0.5790 0.5880 0.6079 0.6677 0.7217
812.889647 0.7710 0.8190 0.8550 0.8640 0.8790
817.559635 0.8820 0.8820 0.8810 0.8750 0.8581
822.229623 0.8430 0.8240 0.7950 0.7171 0.6661
826.899612 0.6062 0.5313 0.4543 0.4530 0.4540
831.569600 0.4780 0.5400 0.6000 0.6919 0.7349
836.239588 0.7769 0.8149 0.8459 0.8579 0.8630
840.909576 0.8630 0.8630 0.8640 0.8670 0.8750
845.579565 0.8870 0.8880 0.8900 0.8900 0.8880
850.249553 0.8810 0.8640 0.8490 0.8340 0.8130
854.919541 0.8100 0.8100 0.8150 0.8269 0.8389
859.589529 0.8510 0.8570 0.8670 0.8850 0.8960
864.259517 0.9000 0.9000 0.8930 0.8840 0.8641
868.929506 0.8420 0.8390 0.8390 0.8400 0.8430
873.599494 0.8520 0.8630 0.8730 0.8839 0.8900
878.269482 0.8990 0.9000 0.9020 0.9020 0.8970
882.939470 0.8940 0.8850 0.8790 0.8700 0.8601
887.609459 0.8490 0.8450 0.8430 0.8420 0.8430
892.279447 0.8450 0.8460 0.8460 0.8450 0.8331
896.949435 0.8250 0.8130 0.7371 0.7340 0.7350
901.619423 0.7400 0.7470 0.7550 0.7948 0.8298
906.289412 0.8550 0.8570 0.8550 0.8520 0.8510
910.959400 0.8430 0.8330 0.8121 0.7971 0.7791
915.629388 0.7700 0.7650 0.7680 0.7770 0.8009
920.299376 0.8239 0.8429 0.8540 0.8669 0.8750
924.969364 0.8790 0.8820 0.8850 0.8900 0.8900
929.639353 0.8880 0.8880 0.8870 0.8870 0.8840
934.309341 0.8840 0.8790 0.8760 0.8750 0.8730
938.979329 0.8730 0.8700 0.8670 0.8630 0.8580
943.649317 0.8520 0.8450 0.8360 0.8270 0.8160
948.319306 0.8070 0.7891 0.7442 0.7191 0.6932
952.989294 0.6650 0.6470 0.6450 0.6450 0.6590
957.659282 0.7019 0.7468 0.7669 0.7849 0.8069
962.329270 0.8240 0.8280 0.8300 0.8300 0.8300
966.999259 0.8280 0.8270 0.8121 0.8001 0.7950
971.669247 0.7950 0.7920 0.7890 0.7860 0.7860
976.339235 0.7830 0.7760 0.7491 0.7400 0.7320
981.009223 0.7160 0.7010 0.6770 0.6680 0.6560
985.679211 0.6540 0.6540 0.6540 0.6540 0.6530
990.349200 0.6510 0.6390 0.6170 0.5940 0.5790
995.019188 0.5730 0.5720 0.5730 0.5839 0.6079
999.689176 0.6320 0.6600 0.6890 0.7110 0.7110
1004.359164 0.7070 0.6931 0.6741 0.6601 0.6242
1009.029153 0.6000 0.5940 0.5940 0.5970 0.6379
1013.699141 0.6918 0.7289 0.7499 0.7699 0.7730
1018.369129 0.7740 0.7730 0.7710 0.7051 0.6721
1023.039117 0.6541 0.6510 0.6530 0.6590 0.6809
1027.709106 0.7080 0.7310 0.7520 0.7859 0.8209
1032.379094 0.8330 0.8370 0.8400 0.8400 0.8390
1037.049082 0.8370 0.8370 0.8370 0.8370 0.8360
1041.719070 0.8310 0.8240 0.8180 0.8120 0.8011
1046.389058 0.7880 0.7760 0.7650 0.7560 0.7460
1051.059047 0.7370 0.7370 0.7400 0.7460 0.7470
1055.729035 0.7470 0.7470 0.7460 0.7430 0.7380
1060.399023 0.7310 0.7260 0.7170 0.7071 0.6981
1065.069011 0.6830 0.6690 0.6530 0.6380 0.6200
1069.739000 0.6000 0.5761 0.5491 0.4803 0.4352
1074.408988 0.4330 0.4320 0.4330 0.4350 0.4600
1079.078976 0.4869 0.5069 0.5249 0.5668 0.6028
1083.748964 0.6420 0.6830 0.7200 0.7370 0.7530
1088.418953 0.7759 0.7890 0.7980 0.8030 0.8040
1093.088941 0.8040 0.8030 0.8010 0.7970 0.7890
1097.758929 0.7890 0.7830 0.7770 0.7710 0.7650
1102.428917 0.7380 0.7230 0.7130 0.6990 0.6840
1107.098905 0.6621 0.6142 0.6050 0.5871 0.5671
1111.768894 0.5570 0.5570 0.5610 0.5660 0.6169
1116.438882 0.6629 0.7128 0.7379 0.7639 0.7769
1121.108870 0.7770 0.7700 0.7680 0.7440 0.7260
1125.778858 0.7080 0.6950 0.6601 0.6351 0.6091
1130.448847 0.6060 0.6060 0.6180 0.6839 0.7100
1135.118835 0.7399 0.7440 0.7440 0.7430 0.7400
1139.788823 0.7290 0.7220 0.7080 0.6900 0.6631
1144.458811 0.6351 0.6061 0.5781 0.5521 0.5271
1149.128800 0.5090 0.4980 0.5000 0.5000 0.5130
1153.798788 0.5419 0.5719 0.5939 0.5970 0.5940
1158.468776 0.5850 0.5820 0.5840 0.5870 0.6080
1163.138764 0.6389 0.6739 0.7108 0.7190 0.7170
1167.808752 0.7160 0.7110 0.7050 0.7010 0.6751
1172.478741 0.6620 0.6480 0.6410 0.6271 0.6151
1177.148729 0.6020 0.5960 0.5910 0.5431 0.4901
1181.818717 0.4631 0.4510 0.4470 0.4500 0.4540
1186.488705 0.4780 0.4920 0.4980 0.5000 0.5000
1191.158694 0.5010 0.5030 0.5060 0.5160 0.5419
1195.828682 0.5720 0.5990 0.6210 0.6270 0.6290
1200.498670 0.6290 0.6270 0.6170 0.6051 0.5841
1205.168658 0.5640 0.5450 0.4950 0.4900 0.4900
1209.838647 0.4960 0.5060 0.5130 0.5399 0.5509
1214.508635 0.5550 0.5630 0.5690 0.5730 0.5900
1219.178623 0.6119 0.6359 0.6440 0.6500 0.6500
1223.848611 0.6390 0.6230 0.6060 0.6000 0.5880
1228.518599 0.5661 0.5580 0.5480 0.5341 0.5211
1233.188588 0.4870 0.4710 0.4510 0.4300 0.4090
1237.858576 0.3871 0.3631 0.3610 0.3610 0.3630
1242.528564 0.3640 0.3760 0.3840 0.3940 0.4000
1247.198552 0.4080 0.4180 0.4389 0.4589 0.4660
1251.868541 0.4660 0.4630 0.4450 0.4420 0.4410
1256.538529 0.4420 0.4470 0.4838 0.5059 0.5269
1261.208517 0.5760 0.6410 0.6660 0.6660 0.6630
1265.878505 0.6560 0.6510 0.6321 0.6141 0.5931
1270.548494 0.5730 0.5700 0.5690 0.5760 0.5820
1275.218482 0.5989 0.6060 0.6090 0.6060 0.6030
1279.888470 0.6000 0.5960 0.5900 0.5790 0.5760
1284.558458 0.5790 0.5840 0.5999 0.6090 0.6508
1289.228446 0.6870 0.7160 0.7340 0.7520 0.7799
1293.898435 0.7999 0.8090 0.8209 0.8240 0.8280
1298.568423 0.8280 0.8300 0.8280 0.8220 0.8180
1303.238411 0.8150 0.8060 0.8010 0.7970 0.7940
1307.908399 0.7880 0.7850 0.7790 0.7760 0.7650
1312.578388 0.7341 0.7111 0.6951 0.6811 0.6532
1317.248376 0.6530 0.6540 0.6750 0.6830 0.7010
1321.918364 0.7110 0.7130 0.7130 0.7110 0.7080
1326.588352 0.6930 0.6830 0.6680 0.6530 0.6440
1331.258341 0.6290 0.6270 0.6270 0.6290 0.6350
1335.928329 0.6360 0.6360 0.6360 0.6360 0.6320
1340.598317 0.6170 0.6060 0.5851 0.5601 0.5491
1345.268305 0.5360 0.5310 0.5310 0.5330 0.5390
1349.938293 0.5549 0.5789 0.5969 0.6199 0.6538
1354.608282 0.6660 0.6780 0.6930 0.7040 0.7130
1359.278270 0.7140 0.7130 0.7100 0.7050 0.6990
1363.948258 0.6830 0.6660 0.6510 0.6320 0.6081
1368.618246 0.5851 0.5661 0.5481 0.5311 0.4873
1373.288235 0.4590 0.4210 0.3721 0.3480 0.3390
1377.958223 0.3330 0.3310 0.3330 0.3370 0.3430
1382.628211 0.3490 0.3610 0.3910 0.4269 0.4769
1387.298199 0.4959 0.5149 0.5538 0.5938 0.6258
1391.968188 0.6500 0.6710 0.6810 0.6830 0.6770
1396.638176 0.6710 0.6710 0.6591 0.6510 0.6421
1401.308164 0.6360 0.6330 0.6330 0.6330 0.6350
1405.978152 0.6380 0.6450 0.6530 0.6620 0.6859
1410.648140 0.7050 0.7100 0.7340 0.7560 0.7670
1415.318129 0.7700 0.7710 0.7730 0.7730 0.7710
1419.988117 0.7680 0.7580 0.7550 0.7530 0.7460
1424.658105 0.7410 0.7350 0.7280 0.7161 0.7041
1429.328093 0.6950 0.6720 0.6510 0.6171 0.6030
1433.998082 0.5851 0.5482 0.4624 0.4292 0.4002
1438.668070 0.3960 0.3970 0.3990 0.4090 0.4529
1443.338058 0.4899 0.5069 0.5239 0.5509 0.5729
1448.008046 0.5910 0.6000 0.6110 0.6120 0.6120
1452.678035 0.6120 0.6110 0.6110 0.6090 0.6080
1457.348023 0.6060 0.6020 0.5990 0.5960 0.5880
1462.018011 0.5850 0.5820 0.5790 0.5730 0.5670
1466.687999 0.5670 0.5700 0.5750 0.5840 0.6110
1471.357987 0.6409 0.6589 0.6749 0.6949 0.7159
1476.027976 0.7410 0.7550 0.7670 0.7740 0.7740
1480.697964 0.7740 0.7740 0.7740 0.7710 0.7670
1485.367952 0.7620 0.7610 0.7560 0.7490 0.7400
1490.037940 0.7340 0.7310 0.7230 0.7051 0.6960
1494.707929 0.6800 0.6650 0.6540 0.6410 0.6260
1499.377917 0.6140 0.6030 0.5990 0.5960 0.5851
1504.047905 0.5820 0.5790 0.5750 0.5700 0.5610
1508.717893 0.5450 0.4772 0.4382 0.4022 0.3781
1513.387882 0.3690 0.3690 0.3730 0.3750 0.3900
1518.057870 0.4020 0.4239 0.4559 0.4928 0.5149
1522.727858 0.5360 0.5810 0.6270 0.6719 0.7109
1527.397846 0.7399 0.7520 0.7620 0.7829 0.8029
1532.067835 0.8190 0.8240 0.8250 0.8250 0.8250
1536.737823 0.8250 0.8250 0.8240 0.8220 0.8150
1541.407811 0.8030 0.7890 0.7790 0.7710 0.7650
1546.077799 0.7610 0.7610 0.7590 0.7590 0.7560
1550.747787 0.7410 0.7370 0.7290 0.7220 0.7140
1555.417776 0.7080 0.6980 0.6831 0.6571 0.6321
1560.087764 0.5990 0.5660 0.5400 0.4951 0.4740
1564.757752 0.4531 0.4510 0.4500 0.4510 0.4530
1569.427740 0.4630 0.4770 0.4900 0.5000 0.5070
1574.097729 0.5250 0.5280 0.5310 0.5429 0.5549
1578.767717 0.5690 0.5840 0.5990 0.6030 0.6030
1583.437705 0.5990 0.5900 0.5820 0.5691 0.5551
1588.107693 0.5390 0.5150 0.4770 0.4540 0.4301
1592.777682 0.4001 0.3661 0.3361 0.3061 0.2861
1597.447670 0.2830 0.2820 0.2830 0.2890 0.2920
1602.117658 0.3070 0.3219 0.3330 0.3519 0.3719
1606.787646 0.3960 0.4200 0.4480 0.4770 0.4890
1611.457634 0.5000 0.5030 0.4901 0.4800 0.4750
1616.127623 0.4740 0.4720 0.4740 0.4800 0.4860
1620.797611 0.4950 0.4980 0.5010 0.5129 0.5239
1625.467599 0.5390 0.5510 0.5640 0.5790 0.5780
1630.137587 0.5730 0.5700 0.5600 0.5540 0.5490
1634.807576 0.5400 0.5280 0.5190 0.5120 0.4831
1639.477564 0.4660 0.4560 0.4470 0.4301 0.4181
1644.147552 0.4000 0.3700 0.3430 0.3091 0.2491
1648.817540 0.2340 0.2340 0.2350 0.2400 0.2519
1653.487529 0.2620 0.2730 0.2800 0.2850 0.2910
1658.157517 0.3000 0.3040 0.3159 0.3250 0.3369
1662.827505 0.3520 0.3580 0.3730 0.3840 0.3900
1667.497493 0.3990 0.4139 0.4409 0.4649 0.4899
1672.167481 0.5040 0.5180 0.5490 0.5839 0.6109
1676.837470 0.6419 0.6679 0.6869 0.7069 0.7309
1681.507458 0.7490 0.7650 0.7800 0.8090 0.8270
1686.177446 0.8420 0.8510 0.8580 0.8640 0.8690
1690.847434 0.8730 0.8790 0.8820 0.8820 0.8840
1695.517423 0.8870 0.8870 0.8880 0.8900 0.8930
1700.187411 0.8960 0.8990 0.9020 0.9030 0.9050
1704.857399 0.9060 0.9090 0.9110 0.9110 0.9120
1709.527387 0.9120 0.9120 0.9120 0.9120 0.9140
1714.197376 0.9140 0.9170 0.9170 0.9170 0.9170
1718.867364 0.9180 0.9180 0.9180 0.9180 0.9180
1723.537352 0.9180 0.9180 0.9180 0.9170 0.9150
1728.207340 0.9140 0.9120 0.9110 0.9110 0.9110
1732.877328 0.9120 0.9110 0.9110 0.9110 0.9090
1737.547317 0.9090 0.9090 0.9090 0.9080 0.9080
1742.217305 0.9080 0.9080 0.9080 0.9060 0.9060
1746.887293 0.9060 0.9050 0.9050 0.9050 0.9050
1751.557281 0.9050 0.9030 0.9020 0.9000 0.9000
1756.227270 0.9000 0.8990 0.8990 0.8970 0.8960
1760.897258 0.8960 0.8960 0.8960 0.8960 0.8960
1765.567246 0.8960 0.8960 0.8960 0.8960 0.8960
1770.237234 0.8960 0.8970 0.8970 0.8970 0.8970
1774.907223 0.8970 0.8970 0.8970 0.8970 0.8970
1779.577211 0.8970 0.8960 0.8960 0.8960 0.8940
1784.247199 0.8930 0.8910 0.8900 0.8880 0.8850
1788.917187 0.8850 0.8840 0.8840 0.8840 0.8820
1793.587175 0.8820 0.8810 0.8810 0.8810 0.8820
1798.257164 0.8810 0.8810 0.8810 0.8790 0.8780
1802.927152 0.8760 0.8750 0.8750 0.8750 0.8750
1807.597140 0.8730 0.8720 0.8720 0.8700 0.8700
1812.267128 0.8720 0.8720 0.8750 0.8760 0.8760
1816.937117 0.8760 0.8760 0.8780 0.8780 0.8780
1821.607105 0.8760 0.8760 0.8760 0.8760 0.8760
1826.277093 0.8760 0.8760 0.8760 0.8760 0.8760
1830.947081 0.8760 0.8760 0.8750 0.8730 0.8730
1835.617070 0.8720 0.8720 0.8720 0.8720 0.8720
1840.287058 0.8720 0.8720 0.8720 0.8720 0.8700
1844.957046 0.8700 0.8720 0.8720 0.8720 0.8720
1849.627034 0.8720 0.8700 0.8690 0.8690 0.8670
1854.297022 0.8670 0.8670 0.8670 0.8670 0.8670
1858.967011 0.8660 0.8660 0.8660 0.8670 0.8660
1863.636999 0.8660 0.8660 0.8640 0.8640 0.8640
1868.306987 0.8630 0.8630 0.8630 0.8610 0.8610
1872.976975 0.8600 0.8600 0.8580 0.8570 0.8570
1877.646964 0.8540 0.8510 0.8450 0.8420 0.8390
1882.316952 0.8370 0.8360 0.8340 0.8340 0.8340
1886.986940 0.8330 0.8330 0.8330 0.8340 0.8340
1891.656928 0.8360 0.8370 0.8370 0.8390 0.8400
1896.326917 0.8400 0.8420 0.8420 0.8420 0.8420
1900.996905 0.8420 0.8420 0.8420 0.8420 0.8400
1905.666893 0.8400 0.8400 0.8400 0.8400 0.8420
1910.336881 0.8420 0.8420 0.8420 0.8420 0.8420
1915.006869 0.8420 0.8420 0.8420 0.8420 0.8420
1919.676858 0.8420 0.8400 0.8390 0.8370 0.8370
1924.346846 0.8370 0.8370 0.8360 0.8360 0.8360
1929.016834 0.8340 0.8330 0.8330 0.8330 0.8310
1933.686822 0.8300 0.8300 0.8300 0.8300 0.8300
1938.356811 0.8280 0.8280 0.8300 0.8300 0.8300
1943.026799 0.8310 0.8330 0.8330 0.8330 0.8310
1947.696787 0.8310 0.8300 0.8280 0.8270 0.8250
1952.366775 0.8240 0.8220 0.8220 0.8220 0.8210
1957.036764 0.8210 0.8210 0.8210 0.8220 0.8220
1961.706752 0.8250 0.8270 0.8280 0.8280 0.8280
1966.376740 0.8300 0.8300 0.8300 0.8300 0.8310
1971.046728 0.8310 0.8310 0.8310 0.8330 0.8330
1975.716716 0.8340 0.8340 0.8360 0.8360 0.8360
1980.386705 0.8370 0.8370 0.8370 0.8370 0.8370
1985.056693 0.8370 0.8370 0.8370 0.8390 0.8390
1989.726681 0.8390 0.8400 0.8400 0.8400 0.8400
1994.396669 0.8400 0.8420 0.8430 0.8430 0.8430
1999.066658 0.8420 0.8400 0.8398 0.8395 0.8393
2003.736646 0.8390 0.8383 0.8375 0.8368 0.8360
2008.406634 0.8360 0.8360 0.8360 0.8360 0.8355
2013.076622 0.8350 0.8345 0.8340 0.8338 0.8335
2017.746611 0.8333 0.8330 0.8325 0.8320 0.8315
2022.416599 0.8310 0.8310 0.8310 0.8310 0.8310
2027.086587 0.8308 0.8305 0.8303 0.8300 0.8295
2031.756575 0.8290 0.8285 0.8280 0.8278 0.8275
2036.426563 0.8272 0.8270 0.8270 0.8270 0.8270
2041.096552 0.8270 0.8265 0.8260 0.8255 0.8250
2045.766540 0.8250 0.8250 0.8250 0.8250 0.8247
2050.436528 0.8245 0.8242 0.8240 0.8235 0.8230
2055.106516 0.8225 0.8220 0.8217 0.8215 0.8212
2059.776505 0.8210 0.8210 0.8210 0.8210 0.8210
2064.446493 0.8205 0.8200 0.8195 0.8190 0.8190
2069.116481 0.8190 0.8190 0.8190 0.8190 0.8190
2073.786469 0.8190 0.8190 0.8187 0.8185 0.8182
2078.456458 0.8180 0.8175 0.8170 0.8165 0.8160
2083.126446 0.8160 0.8160 0.8160 0.8160 0.8160
2087.796434 0.8160 0.8160 0.8160 0.8157 0.8155
2092.466422 0.8152 0.8150 0.8145 0.8140 0.8135
2097.136410 0.8130 0.8127 0.8125 0.8122 0.8120
2101.806399 0.8115 0.8110 0.8105 0.8100 0.8100
2106.476387 0.8100 0.8100 0.8100 0.8097 0.8095
2111.146375 0.8092 0.8090 0.8090 0.8090 0.8090
2115.816363 0.8090 0.8090 0.8090 0.8090 0.8089
2120.486352 0.8084 0.8079 0.8074 0.8069 0.8059
2125.156340 0.8049 0.8039 0.8029 0.8021 0.8014
2129.826328 0.8006 0.8000 0.8000 0.8000 0.8000
2134.496316 0.7999 0.7994 0.7989 0.7984 0.7980
2139.166305 0.7977 0.7975 0.7972 0.7970 0.7970
2143.836293 0.7970 0.7970 0.7970 0.7970 0.7970
2148.506281 0.7970 0.7970 0.7970 0.7970 0.7970
2153.176269 0.7969 0.7964 0.7959 0.7954 0.7950
2157.846257 0.7947 0.7945 0.7942 0.7939 0.7934
2162.516246 0.7929 0.7924 0.7919 0.7911 0.7904
2167.186234 0.7896 0.7890 0.7890 0.7890 0.7890
2171.856222 0.7890 0.7887 0.7885 0.7882 0.7880
2176.526210 0.7880 0.7880 0.7880 0.7880 0.7880
2181.196199 0.7880 0.7880 0.7879 0.7874 0.7869
2185.866187 0.7864 0.7860 0.7860 0.7860 0.7860
2190.536175 0.7859 0.7857 0.7854 0.7852 0.7850
2195.206163 0.7850 0.7850 0.7850 0.7849 0.7844
2199.876152 0.7839 0.7834 0.7830 0.7830 0.7830
2204.546140 0.7830 0.7830 0.7830 0.7830 0.7830
2209.216128 0.7829 0.7827 0.7824 0.7822 0.7820
2213.886116 0.7820 0.7820 0.7820 0.7819 0.7814
2218.556104 0.7809 0.7804 0.7800 0.7800 0.7800
2223.226093 0.7800 0.7799 0.7797 0.7794 0.7792
2227.896081 0.7789 0.7784 0.7779 0.7774 0.7769
2232.566069 0.7767 0.7764 0.7762 0.7758 0.7750
2237.236057 0.7743 0.7735 0.7730 0.7730 0.7730
2241.906046 0.7730 0.7729 0.7724 0.7719 0.7714
2246.576034 0.7710 0.7710 0.7710 0.7710 0.7709
2251.246022 0.7707 0.7704 0.7702 0.7700 0.7700
2255.916010 0.7700 0.7700 0.7700 0.7700 0.7700
2260.585999 0.7700 0.7698 0.7693 0.7688 0.7683
2265.255987 0.7680 0.7680 0.7680 0.7680 0.7680
2269.925975 0.7680 0.7680 0.7680 0.7679 0.7677
2274.595963 0.7674 0.7672 0.7668 0.7663 0.7658
2279.265951 0.7653 0.7649 0.7647 0.7644 0.7642
2283.935940 0.7638 0.7633 0.7628 0.7623 0.7620
2288.605928 0.7620 0.7620 0.7620 0.7618 0.7610
2293.275916 0.7603 0.7595 0.7588 0.7580 0.7572
2297.945904 0.7565 0.7557 0.7550 0.7542 0.7535
2302.615893 0.7526 0.7516 0.7506 0.7496 0.7484
2307.285881 0.7469 0.7454 0.7439 0.7428 0.7423
2311.955869 0.7418 0.7413 0.7410 0.7410 0.7410
2316.625857 0.7410 0.7410 0.7410 0.7410 0.7410
2321.295846 0.7410 0.7410 0.7410 0.7410 0.7410
2325.965834 0.7410 0.7410 0.7410 0.7409 0.7407
2330.635822 0.7404 0.7402 0.7400 0.7400 0.7400
2335.305810 0.7400 0.7400 0.7400 0.7400 0.7400
2339.975798 0.7400 0.7400 0.7400 0.7400 0.7400
2344.645787 0.7400 0.7400 0.7400 0.7400 0.7400
2349.315775 0.7400 0.7400 0.7401 0.7404 0.7406
2353.985763 0.7409 0.7410 0.7410 0.7410 0.7410
2358.655751 0.7410 0.7410 0.7410 0.7410 0.7412
2363.325740 0.7417 0.7422 0.7427 0.7430 0.7430
2367.995728 0.7430 0.7430 0.7431 0.7434 0.7436
2372.665716 0.7439 0.7440 0.7440 0.7440 0.7440
2377.335704 0.7440 0.7440 0.7440 0.7440 0.7440
2382.005693 0.7440 0.7440 0.7440 0.7439 0.7436
2386.675681 0.7434 0.7431 0.7428 0.7423 0.7418
2391.345669 0.7413 0.7409 0.7406 0.7404 0.7401
2396.015657 0.7398 0.7393 0.7388 0.7383 0.7379
2400.685645 0.7376 0.7374 0.7371 0.7370 0.7370
2405.355634 0.7370 0.7370 0.7368 0.7362 0.7357
2410.025622 0.7352 0.7349 0.7346 0.7344 0.7341
2414.695610 0.7337 0.7332 0.7327 0.7322 0.7319
2419.365598 0.7316 0.7314 0.7311 0.7307 0.7302
2424.035587 0.7297 0.7292 0.7289 0.7286 0.7284
2428.705575 0.7281 0.7277 0.7272 0.7267 0.7262
2433.375563 0.7259 0.7256 0.7254 0.7251 0.7247
2438.045551 0.7242 0.7237 0.7232 0.7230 0.7230
2442.715540 0.7230 0.7230 0.7230 0.7230 0.7230
2447.385528 0.7230 0.7229 0.7226 0.7224 0.7221
2452.055516 0.7217 0.7212 0.7207 0.7202 0.7199
2456.725504 0.7196 0.7194 0.7191 0.7187 0.7182
2461.395492 0.7177 0.7172 0.7170 0.7170 0.7170
2466.065481 0.7170 0.7170 0.7170 0.7170 0.7170
2470.735469 0.7169 0.7166 0.7164 0.7161 0.7160
2475.405457 0.7160 0.7160 0.7160 0.7157 0.7152
2480.075445 0.7147 0.7142 0.7140 0.7140 0.7140
2484.745434 0.7140 0.7140 0.7140 0.7140 0.7140
2489.415422 0.7140 0.7140 0.7140 0.7140 0.7138
2494.085410 0.7136 0.7133 0.7131 0.7127 0.7122
2498.755398 0.7117 0.7112 0.7108 0.7106 0.7103
2503.425387 0.7101 0.7097 0.7092 0.7087 0.7082
2508.095375 0.7078 0.7076 0.7073 0.7071 0.7065
2512.765363 0.7058 0.7050 0.7043 0.7040 0.7040
2517.435351 0.7040 0.7040 0.7037 0.7032 0.7027
2522.105339 0.7022 0.7020 0.7020 0.7020 0.7020
2526.775328 0.7018 0.7016 0.7013 0.7011 0.7010
2531.445316 0.7010 0.7010 0.7010 0.7005 0.6997
2536.115304 0.6990 0.6982 0.6980 0.6980 0.6980
2540.785292 0.6980 0.6977 0.6972 0.6967 0.6962
2545.455281 0.6960 0.6960 0.6960 0.6960 0.6960
2550.125269 0.6960 0.6960 0.6960 0.6960 0.6960
2554.795257 0.6960 0.6960 0.6960 0.6960 0.6960
2559.465245 0.6960 0.6960 0.6960 0.6960 0.6960
2564.135234 0.6960 0.6960 0.6960 0.6960 0.6960
2568.805222 0.6960 0.6960 0.6960 0.6960 0.6960
2573.475210 0.6960 0.6960 0.6960 0.6960 0.6960
2578.145198 0.6960 0.6960 0.6960 0.6960 0.6960
2582.815186 0.6960 0.6960 0.6960 0.6960 0.6960
2587.485175 0.6960 0.6960 0.6960 0.6960 0.6960
2592.155163 0.6960 0.6960 0.6960 0.6960 0.6960
2596.825151 0.6960 0.6960 0.6960 0.6960 0.6960
2601.495139 0.6960 0.6960 0.6960 0.6960 0.6960
2606.165128 0.6960 0.6960 0.6960 0.6960 0.6960
2610.835116 0.6960 0.6960 0.6960 0.6960 0.6960
2615.505104 0.6960 0.6954 0.6947 0.6939 0.6932
2620.175092 0.6930 0.6930 0.6930 0.6930 0.6928
2624.845081 0.6926 0.6923 0.6921 0.6920 0.6920
2629.515069 0.6920 0.6920 0.6916 0.6911 0.6906
2634.185057 0.6901 0.6900 0.6900 0.6900 0.6900
2638.855045 0.6898 0.6895 0.6893 0.6890 0.6886
2643.525033 0.6881 0.6876 0.6871 0.6870 0.6870
2648.195022 0.6870 0.6870 0.6868 0.6865 0.6863
2652.865010 0.6860 0.6854 0.6846 0.6839 0.6831
2657.534998 0.6824 0.6816 0.6809 0.6801 0.6796
2662.204986 0.6791 0.6786 0.6781 0.6778 0.6775
2666.874975 0.6773 0.6770 0.6770 0.6770 0.6770
2671.544963 0.6770 0.6770 0.6770 0.6770 0.6770
2676.214951 0.6770 0.6770 0.6770 0.6770 0.6770
2680.884939 0.6770 0.6770 0.6770 0.6770 0.6770
2685.554928 0.6770 0.6770 0.6770 0.6770 0.6770
2690.224916 0.6770 0.6770 0.6770 0.6770 0.6770
2694.894904 0.6770 0.6770 0.6770 0.6770 0.6770
2699.564892 0.6770 0.6770 0.6770 0.6770 0.6770
2704.234880 0.6770 0.6770 0.6770 0.6770 0.6770
2708.904869 0.6770 0.6770 0.6770 0.6770 0.6770
2713.574857 0.6765 0.6760 0.6755 0.6750 0.6750
2718.244845 0.6750 0.6750 0.6750 0.6748 0.6745
2722.914833 0.6743 0.6740 0.6735 0.6730 0.6725
2727.584822 0.6720 0.6713 0.6706 0.6698 0.6691
2732.254810 0.6683 0.6676 0.6668 0.6661 0.6653
2736.924798 0.6646 0.6638 0.6631 0.6628 0.6625
2741.594786 0.6623 0.6620 0.6615 0.6610 0.6605
2746.264775 0.6600 0.6585 0.6570 0.6555 0.6540
2750.934763 0.6533 0.6525 0.6518 0.6510 0.6508
2755.604751 0.6505 0.6503 0.6500 0.6493 0.6485
2760.274739 0.6478 0.6470 0.6458 0.6445 0.6433
2764.944727 0.6420 0.6418 0.6415 0.6413 0.6410
2769.614716 0.6403 0.6395 0.6388 0.6380 0.6375
2774.284704 0.6370 0.6365 0.6360 0.6353 0.6345
2778.954692 0.6338 0.6330 0.6328 0.6325 0.6322
2783.624680 0.6320 0.6320 0.6320 0.6320 0.6320
2788.294669 0.6315 0.6310 0.6305 0.6300 0.6297
2792.964657 0.6295 0.6292 0.6290 0.6285 0.6280
2797.634645 0.6275 0.6270 0.6270 0.6270 0.6270
2802.304633 0.6270 0.6267 0.6265 0.6262 0.6260
2806.974622 0.6260 0.6260 0.6260 0.6260 0.6255
2811.644610 0.6250 0.6245 0.6240 0.6240 0.6240
2816.314598 0.6240 0.6240 0.6240 0.6240 0.6240
2820.984586 0.6240 0.6237 0.6235 0.6232 0.6230
2825.654574 0.6230 0.6230 0.6230 0.6230 0.6225
2830.324563 0.6220 0.6215 0.6210 0.6207 0.6205
2834.994551 0.6202 0.6199 0.6192 0.6184 0.6177
2839.664539 0.6169 0.6156 0.6144 0.6131 0.6119
2844.334527 0.6112 0.6104 0.6097 0.6089 0.6079
2849.004516 0.6069 0.6059 0.6049 0.6042 0.6034
2853.674504 0.6027 0.6020 0.6015 0.6009 0.6004
2858.344492 0.5999 0.5991 0.5984 0.5976 0.5970
2863.014480 0.5970 0.5970 0.5970 0.5970 0.5967
2867.684469 0.5965 0.5962 0.5960 0.5960 0.5960
2872.354457 0.5960 0.5959 0.5954 0.5949 0.5944
2877.024445 0.5940 0.5937 0.5935 0.5932 0.5930
2881.694433 0.5930 0.5930 0.5930 0.5929 0.5924
2886.364421 0.5919 0.5914 0.5910 0.5907 0.5905
2891.034410 0.5902 0.5900 0.5900 0.5900 0.5900
2895.704398 0.5899 0.5894 0.5889 0.5884 0.5880
2900.374386 0.5880 0.5880 0.5880 0.5880 0.5880
2905.044374 0.5880 0.5880 0.5880 0.5880 0.5880
2909.714363 0.5880 0.5880 0.5880 0.5880 0.5880
2914.384351 0.5880 0.5880 0.5880 0.5880 0.5880
2919.054339 0.5877 0.5875 0.5872 0.5870 0.5870
2923.724327 0.5870 0.5870 0.5869 0.5864 0.5859
2928.394316 0.5854 0.5850 0.5847 0.5844 0.5842
2933.064304 0.5838 0.5831 0.5823 0.5816 0.5808
2937.734292 0.5801 0.5793 0.5786 0.5777 0.5765
2942.404280 0.5752 0.5740 0.5729 0.5727 0.5724
2947.074268 0.5722 0.5719 0.5714 0.5709 0.5704
2951.744257 0.5699 0.5697 0.5694 0.5692 0.5689
2956.414245 0.5684 0.5679 0.5674 0.5669 0.5667
2961.084233 0.5664 0.5662 0.5657 0.5642 0.5627
2965.754221 0.5612 0.5599 0.5594 0.5589 0.5584
2970.424210 0.5578 0.5570 0.5563 0.5555 0.5549
2975.094198 0.5547 0.5544 0.5542 0.5539 0.5534
2979.764186 0.5529 0.5524 0.5519 0.5517 0.5514
2984.434174 0.5512 0.5509 0.5504 0.5499 0.5494
2989.104163 0.5490 0.5490 0.5490 0.5490 0.5489
2993.774151 0.5487 0.5484 0.5482 0.5480 0.5480
2998.444139 0.5480 0.5480 0.5479 0.5474 0.5469
3003.114127 0.5464 0.5460 0.5460 0.5460 0.5460
3007.784115 0.5460 0.5460 0.5460 0.5460 0.5460
3012.454104 0.5460 0.5460 0.5460 0.5460 0.5460
3017.124092 0.5460 0.5460 0.5460 0.5460 0.5460
3021.794080 0.5460 0.5460 0.5460 0.5460 0.5460
3026.464068 0.5460 0.5460 0.5460 0.5460 0.5462
3031.134057 0.5467 0.5472 0.5477 0.5480 0.5480
3035.804045 0.5480 0.5480 0.5481 0.5483 0.5486
3040.474033 0.5488 0.5492 0.5497 0.5502 0.5507
3045.144021 0.5511 0.5513 0.5516 0.5518 0.5523
3049.814010 0.5530 0.5538 0.5545 0.5555 0.5567
3054.483998 0.5580 0.5592 0.5609 0.5631 0.5654
3059.153986 0.5676 0.5702 0.5731 0.5761 0.5791
3063.823974 0.5817 0.5834 0.5852 0.5869 0.5888
3068.493962 0.5908 0.5928 0.5948 0.5961 0.5963
3073.163951 0.5966 0.5968 0.5970 0.5970 0.5970
3077.833939 0.5970 0.5973 0.5980 0.5988 0.5996
3082.503927 0.6000 0.6000 0.6000 0.6000 0.6000
3087.173915 0.6000 0.6000 0.6000 0.6000 0.6000
3091.843904 0.6000 0.6000 0.6000 0.6000 0.6000
3096.513892 0.6000 0.6000 0.6000 0.6000 0.6000
3101.183880 0.6000 0.6000 0.6000 0.6000 0.6000
3105.853868 0.6000 0.6000 0.6000 0.6000 0.6000
3110.523857 0.6000 0.6000 0.5999 0.5996 0.5994
3115.193845 0.5991 0.5990 0.5990 0.5990 0.5990
3119.863833 0.5990 0.5990 0.5990 0.5990 0.5988
3124.533821 0.5983 0.5978 0.5973 0.5969 0.5966
3129.203809 0.5964 0.5961 0.5960 0.5960 0.5960
3133.873798 0.5960 0.5958 0.5953 0.5948 0.5943
3138.543786 0.5940 0.5940 0.5940 0.5940 0.5939
3143.213774 0.5936 0.5934 0.5931 0.5930 0.5930
3147.883762 0.5930 0.5930 0.5928 0.5923 0.5918
3152.553751 0.5913 0.5910 0.5910 0.5910 0.5910
3157.223739 0.5910 0.5910 0.5910 0.5910 0.5909
3161.893727 0.5906 0.5904 0.5901 0.5896 0.5888
3166.563715 0.5881 0.5873 0.5867 0.5862 0.5857
3171.233704 0.5852 0.5849 0.5846 0.5844 0.5841
3175.903692 0.5840 0.5840 0.5840 0.5840 0.5837
3180.573680 0.5832 0.5827 0.5822 0.5819 0.5816
3185.243668 0.5814 0.5811 0.5810 0.5810 0.5810
3189.913657 0.5810 0.5807 0.5802 0.5797 0.5792
3194.583645 0.5790 0.5790 0.5790 0.5790 0.5789
3199.253633 0.5786 0.5784 0.5781 0.5780 0.5780
3203.923621 0.5780 0.5780 0.5777 0.5772 0.5767
3208.593609 0.5762 0.5759 0.5756 0.5754 0.5751
3213.263598 0.5746 0.5738 0.5731 0.5723 0.5720
3217.933586 0.5720 0.5720 0.5720 0.5717 0.5712
3222.603574 0.5707 0.5702 0.5699 0.5696 0.5694
3227.273562 0.5691 0.5687 0.5682 0.5677 0.5672
3231.943551 0.5668 0.5666 0.5663 0.5661 0.5657
3236.613539 0.5652 0.5647 0.5642 0.5640 0.5640
3241.283527 0.5640 0.5640 0.5638 0.5636 0.5633
3245.953515 0.5631 0.5630 0.5630 0.5630 0.5630
3250.623504 0.5625 0.5618 0.5610 0.5603 0.5597
3255.293492 0.5592 0.5587 0.5582 0.5580 0.5580
3259.963480 0.5580 0.5580 0.5580 0.5580 0.5580
3264.633468 0.5580 0.5580 0.5580 0.5580 0.5580
3269.303456 0.5578 0.5576 0.5573 0.5571 0.5570
3273.973445 0.5570 0.5570 0.5570 0.5567 0.5562
3278.643433 0.5557 0.5552 0.5548 0.5546 0.5543
3283.313421 0.5541 0.5540 0.5540 0.5540 0.5540
3287.983409 0.5537 0.5532 0.5527 0.5522 0.5515
3292.653398 0.5507 0.5500 0.5492 0.5485 0.5477
3297.323386 0.5470 0.5462 0.5453 0.5443 0.5433
3301.993374 0.5423 0.5415 0.5407 0.5400 0.5392
3306.663362 0.5390 0.5390 0.5390 0.5390 0.5390
3311.333351 0.5390 0.5390 0.5390 0.5386 0.5381
3316.003339 0.5376 0.5371 0.5368 0.5366 0.5363
3320.673327 0.5361 0.5356 0.5351 0.5346 0.5341
3325.343315 0.5338 0.5336 0.5333 0.5331 0.5326
3330.013303 0.5321 0.5316 0.5311 0.5305 0.5297
3334.683292 0.5290 0.5282 0.5273 0.5263 0.5253
3339.353280 0.5243 0.5229 0.5214 0.5198 0.5183
3344.023268 0.5174 0.5167 0.5159 0.5152 0.5146
3348.693256 0.5141 0.5136 0.5131 0.5128 0.5126
3353.363245 0.5123 0.5121 0.5120 0.5120 0.5120
3358.033233 0.5120 0.5116 0.5111 0.5106 0.5101
3362.703221 0.5098 0.5096 0.5093 0.5091 0.5086
3367.373209 0.5081 0.5076 0.5071 0.5070 0.5070
3372.043198 0.5070 0.5070 0.5064 0.5057 0.5049
3376.713186 0.5042 0.5040 0.5040 0.5040 0.5040
3381.383174 0.5038 0.5035 0.5033 0.5030 0.5030
3386.053162 0.5030 0.5030 0.5030 0.5030 0.5030
3390.723150 0.5030 0.5030 0.5026 0.5021 0.5016
3395.393139 0.5011 0.5010 0.5010 0.5010 0.5010
3400.063127 0.5008 0.5005 0.5003 0.5000 0.5000
3404.733115 0.5000 0.5000 0.5000 0.5000 0.5000
3409.403103 0.5000 0.5000 0.5000 0.5000 0.5000
3414.073092 0.5000 0.5000 0.5000 0.5000 0.5000
3418.743080 0.5000 0.5000 0.5000 0.5000 0.5000
3423.413068 0.5000 0.5000 0.5000 0.5000 0.5000
3428.083056 0.5000 0.5000 0.5000 0.5000 0.5000
3432.753045 0.5000 0.5000 0.5000 0.5000 0.5000
3437.423033 0.5000 0.5000 0.5000 0.5000 0.5000
3442.093021 0.5000 0.5000 0.5000 0.5000 0.5000
3446.763009 0.5000 0.5000 0.5000 0.5000 0.5000
3451.432997 0.5000 0.5002 0.5005 0.5007 0.5010
3456.102986 0.5015 0.5020 0.5025 0.5030 0.5044
3460.772974 0.5059 0.5074 0.5089 0.5092 0.5095
3465.442962 0.5097 0.5100 0.5105 0.5110 0.5115
3470.112950 0.5120 0.5120 0.5120 0.5120 0.5120
3474.782939 0.5127 0.5134 0.5142 0.5149 0.5150
3479.452927 0.5150 0.5150 0.5150 0.5150 0.5150
3484.122915 0.5150 0.5150 0.5150 0.5150 0.5150
3488.792903 0.5150 0.5150 0.5150 0.5150 0.5150
3493.462892 0.5150 0.5150 0.5150 0.5150 0.5150
3498.132880 0.5150 0.5150 0.5150 0.5152 0.5155
3502.802868 0.5157 0.5160 0.5160 0.5160 0.5160
3507.472856 0.5160 0.5165 0.5170 0.5175 0.5180
3512.142844 0.5180 0.5180 0.5180 0.5180 0.5180
3516.812833 0.5180 0.5180 0.5180 0.5182 0.5185
3521.482821 0.5187 0.5190 0.5190 0.5190 0.5190
3526.152809 0.5190 0.5190 0.5190 0.5190 0.5190
3530.822797 0.5195 0.5200 0.5205 0.5210 0.5213
3535.492786 0.5215 0.5218 0.5220 0.5225 0.5230
3540.162774 0.5235 0.5240 0.5240 0.5240 0.5240
3544.832762 0.5240 0.5250 0.5260 0.5270 0.5280
3549.502750 0.5285 0.5290 0.5295 0.5300 0.5308
3554.172739 0.5315 0.5323 0.5330 0.5330 0.5330
3558.842727 0.5330 0.5330 0.5330 0.5330 0.5330
3563.512715 0.5330 0.5333 0.5335 0.5338 0.5340
3568.182703 0.5340 0.5340 0.5340 0.5340 0.5340
3572.852691 0.5340 0.5340 0.5340 0.5340 0.5340
3577.522680 0.5340 0.5340 0.5340 0.5340 0.5340
3582.192668 0.5340 0.5340 0.5340 0.5340 0.5340
3586.862656 0.5340 0.5340 0.5340 0.5340 0.5340
3591.532644 0.5340 0.5340 0.5340 0.5340 0.5340
3596.202633 0.5340 0.5340 0.5345 0.5350 0.5355
3600.872621 0.5360 0.5360 0.5360 0.5360 0.5360
3605.542609 0.5360 0.5360 0.5360 0.5360 0.5360
3610.212597 0.5360 0.5360 0.5360 0.5360 0.5360
3614.882586 0.5360 0.5360 0.5363 0.5365 0.5368
3619.552574 0.5370 0.5370 0.5370 0.5370 0.5370
3624.222562 0.5370 0.5370 0.5370 0.5370 0.5370
3628.892550 0.5370 0.5370 0.5370 0.5370 0.5370
3633.562538 0.5370 0.5370 0.5370 0.5370 0.5370
3638.232527 0.5370 0.5367 0.5365 0.5362 0.5360
3642.902515 0.5360 0.5360 0.5360 0.5359 0.5351
3647.572503 0.5344 0.5336 0.5329 0.5324 0.5319
3652.242491 0.5314 0.5310 0.5307 0.5305 0.5302
3656.912480 0.5300 0.5300 0.5300 0.5300 0.5300
3661.582468 0.5300 0.5300 0.5300 0.5300 0.5300
3666.252456 0.5300 0.5300 0.5300 0.5300 0.5300
3670.922444 0.5300 0.5299 0.5294 0.5289 0.5284
3675.592433 0.5280 0.5280 0.5280 0.5280 0.5280
3680.262421 0.5280 0.5280 0.5280 0.5280 0.5280
3684.932409 0.5280 0.5280 0.5280 0.5280 0.5280
3689.602397 0.5280 0.5279 0.5277 0.5274 0.5272
3694.272385 0.5270 0.5270 0.5270 0.5270 0.5270
3698.942374 0.5270 0.5270 0.5270 0.5269 0.5264
3703.612362 0.5259 0.5254 0.5250 0.5250 0.5250
3708.282350 0.5250 0.5250 0.5250 0.5250 0.5250
3712.952338 0.5249 0.5247 0.5244 0.5242 0.5240
3717.622327 0.5240 0.5240 0.5240 0.5240 0.5240
3722.292315 0.5240 0.5240 0.5239 0.5234 0.5229
3726.962303 0.5224 0.5220 0.5220 0.5220 0.5220
3731.632291 0.5220 0.5220 0.5220 0.5220 0.5219
3736.302280 0.5217 0.5214 0.5212 0.5209 0.5204
3740.972268 0.5199 0.5194 0.5189 0.5187 0.5184
3745.642256 0.5182 0.5180 0.5180 0.5180 0.5180
3750.312244 0.5180 0.5180 0.5180 0.5180 0.5178
3754.982232 0.5173 0.5168 0.5163 0.5160 0.5160
3759.652221 0.5160 0.5160 0.5159 0.5157 0.5154
3764.322209 0.5152 0.5150 0.5150 0.5150 0.5150
3768.992197 0.5150 0.5150 0.5150 0.5150 0.5150
3773.662185 0.5150 0.5150 0.5150 0.5148 0.5143
3778.332174 0.5138 0.5133 0.5130 0.5130 0.5130
3783.002162 0.5130 0.5130 0.5130 0.5130 0.5130
3787.672150 0.5129 0.5127 0.5124 0.5122 0.5120
3792.342138 0.5120 0.5120 0.5120 0.5118 0.5113
3797.012127 0.5108 0.5103 0.5100 0.5100 0.5100
3801.682115 0.5100 0.5099 0.5097 0.5094 0.5092
3806.352103 0.5090 0.5090 0.5090 0.5090 0.5088
3811.022091 0.5083 0.5078 0.5073 0.5070 0.5070
3815.692079 0.5070 0.5070 0.5069 0.5067 0.5064
3820.362068 0.5062 0.5060 0.5060 0.5060 0.5060
3825.032056 0.5060 0.5060 0.5060 0.5060 0.5060
3829.702044 0.5060 0.5060 0.5060 0.5060 0.5060
3834.372032 0.5060 0.5060 0.5060 0.5060 0.5060
3839.042021 0.5060 0.5060 0.5060 0.5060 0.5060
3843.712009 0.5060 0.5060 0.5060 0.5060 0.5060
3848.381997 0.5060 0.5060 0.5060 0.5060 0.5060
3853.051985 0.5060 0.5060 0.5060 0.5060 0.5060
3857.721974 0.5060 0.5060 0.5060 0.5060 0.5060
3862.391962 0.5060 0.5060 0.5060 0.5060 0.5060
3867.061950 0.5060 0.5060 0.5060 0.5061 0.5064
3871.731938 0.5066 0.5069 0.5070 0.5070 0.5070
3876.401926 0.5070 0.5070 0.5070 0.5070 0.5070
3881.071915 0.5072 0.5077 0.5082 0.5087 0.5090
3885.741903 0.5090 0.5090 0.5090 0.5090 0.5090
3890.411891 0.5090 0.5090 0.5090 0.5090 0.5090
3895.081879 0.5090 0.5090 0.5090 0.5090 0.5090
3899.751868 0.5090 0.5090 0.5090 0.5090 0.5090
3904.421856 0.5090 0.5090 0.5090 0.5090 0.5090
3909.091844 0.5090 0.5090 0.5087 0.5082 0.5077
3913.761832 0.5072 0.5070 0.5070 0.5070 0.5070
3918.431821 0.5070 0.5070 0.5070 0.5070 0.5069
3923.101809 0.5066 0.5064 0.5061 0.5057 0.5052
3927.771797 0.5047 0.5042 0.5039 0.5036 0.5034
3932.441785 0.5031 0.5027 0.5022 0.5017 0.5012
3937.111773 0.5006 0.4998 0.4991 0.4983 0.4977
3941.781762 0.4972 0.4967 0.4962 0.4960 0.4960
3946.451750 0.4960 0.4960 0.4959 0.4956 0.4954
3951.121738 0.4951 0.4950 0.4950 0.4950 0.4950
3955.791726 0.4947 0.4942 0.4937 0.4932 0.4930
3960.461715 0.4930 0.4930 0.4930 0.4930 0.4930
3965.131703 0.4930 0.4930 0.4930 0.4930 0.4930
3969.801691 0.4930 0.4930 0.4930 0.4930 0.4930
3974.471679 0.4930 0.4930 0.4930 0.4930 0.4930
3979.141668 0.4930 0.4930 0.4930 0.4930 0.4930
3983.811656 0.4930 0.4930
##END=
