##TITLE=2-Propanamine, 1-(4-hydroxyphenyl)-, hydrobromide
##JCAMP-DX=4.24
##DATA TYPE=INFRARED SPECTRUM
##CLASS=COBLENTZ III
##ORIGIN=DOW CHEMICAL COMPANY
##OWNER=COBLENTZ SOC.
Collection (C) 2018 copyright by the U.S. Secretary of Commerce
on behalf of the United States of America. All rights reserved.
##DATE=1964/11/24
##CAS NAME=Phenol, p-(2-aminopropyl)-, hydrobromide
##NAMES=4-(2-aminopropyl)phenol hydrobromide
##MOLFORM=C9 H14 Br N O
##SOURCE REFERENCE=COBLENTZ NO. 09685
##$NIST ID=B6009685
##$NIST SOURCE=COBLENTZ
##$NIST IMAGE=cob9685
##SPECTROMETER/DATA SYSTEM=DOW KBr FOREPRISM-GRATING
##INSTRUMENT PARAMETERS=BLAZED AT 3.5, 12.0, 20.0 MICRON AND CHANGED AT 5.0, 7.5, 14.9 MICRON
##STATE=SOLID (SPLIT MULL), FLUOROLUBE FOR 3800-1330 CM^-^1, NUJOL FOR 1330-400 CM^-^1
##SAMPLING PROCEDURE=TRANSMISSION
##RESOLUTION=2
##DATA PROCESSING=DIGITIZED BY COBLENTZ SOCIETY (BATCH I) FROM HARD COPY
##XUNITS=1/CM
##YUNITS=TRANSMITTANCE
##XLABEL=Wavenumbers (cm-1)
##YLABEL=% Transmission
##XFACTOR=1
##YFACTOR=1
##DELTAX=1
##FIRSTX=381
##LASTX=3786
##FIRSTY=0.5675
##MAXX=3786
##MINX=381
##MAXY=0.872
##MINY=0.024
##NPOINTS=3406
##XYDATA=(X++(Y..Y))
381.000000 0.5675 0.5684 0.5690 0.5697 0.5703
386.000000 0.5710 0.5718 0.5725 0.5732 0.5733
391.000000 0.5734 0.5735 0.5735 0.5736 0.5737
396.000000 0.5737 0.5737 0.5736 0.5735 0.5734
401.000000 0.5733 0.5732 0.5731 0.5730 0.5728
406.000000 0.5726 0.5723 0.5720 0.5718 0.5715
411.000000 0.5712 0.5710 0.5707 0.5704 0.5702
416.000000 0.5699 0.5697 0.5695 0.5693 0.5692
421.000000 0.5690 0.5688 0.5686 0.5685 0.5683
426.000000 0.5679 0.5673 0.5668 0.5662 0.5652
431.000000 0.5638 0.5625 0.5598 0.5518 0.5438
436.000000 0.5358 0.5279 0.5199 0.5119 0.5039
441.000000 0.5008 0.5036 0.5147 0.5301 0.5455
446.000000 0.5609 0.5762 0.5917 0.6034 0.6131
451.000000 0.6229 0.6329 0.6387 0.6412 0.6439
456.000000 0.6465 0.6482 0.6496 0.6510 0.6524
461.000000 0.6538 0.6549 0.6557 0.6565 0.6572
466.000000 0.6581 0.6589 0.6597 0.6605 0.6607
471.000000 0.6607 0.6606 0.6605 0.6604 0.6604
476.000000 0.6603 0.6601 0.6599 0.6596 0.6631
481.000000 0.6591 0.6589 0.6587 0.6584 0.6582
486.000000 0.6580 0.6578 0.6575 0.6574 0.6571
491.000000 0.6569 0.6568 0.6565 0.6562 0.6560
496.000000 0.6556 0.6553 0.6550 0.6546 0.6535
501.000000 0.6515 0.6475 0.6412 0.6355 0.6298
506.000000 0.6240 0.6183 0.5735 0.5193 0.4652
511.000000 0.4110 0.3788 0.3808 0.3875 0.4075
516.000000 0.4276 0.4477 0.4677 0.4878 0.5078
521.000000 0.5279 0.5434 0.5454 0.5468 0.5472
526.000000 0.5475 0.5475 0.5475 0.5462 0.5451
531.000000 0.5436 0.5419 0.5402 0.5379 0.5354
536.000000 0.5329 0.5301 0.5258 0.5215 0.5173
541.000000 0.5130 0.5085 0.5040 0.4995 0.4950
546.000000 0.4905 0.4856 0.4804 0.4752 0.4700
551.000000 0.4626 0.4553 0.4042 0.3612 0.3181
556.000000 0.2751 0.2320 0.1890 0.1459 0.1311
561.000000 0.1319 0.1622 0.1867 0.2112 0.2356
566.000000 0.2601 0.2846 0.3090 0.3334 0.3580
571.000000 0.3820 0.3910 0.4023 0.4129 0.4232
576.000000 0.4335 0.4429 0.4524 0.4619 0.4770
581.000000 0.4947 0.5205 0.5362 0.5509 0.5594
586.000000 0.5674 0.5754 0.5832 0.5908 0.5983
591.000000 0.6058 0.6133 0.6207 0.6281 0.6355
596.000000 0.6428 0.6499 0.6571 0.6643 0.6701
601.000000 0.6758 0.6815 0.6871 0.6931 0.6990
606.000000 0.7048 0.7107 0.7162 0.7211 0.7260
611.000000 0.7308 0.7357 0.7401 0.7442 0.7484
616.000000 0.7525 0.7561 0.7588 0.7615 0.7644
621.000000 0.7671 0.7700 0.7728 0.7751 0.7775
626.000000 0.7799 0.7821 0.7845 0.7868 0.7890
631.000000 0.7908 0.7928 0.7947 0.7965 0.7978
636.000000 0.7983 0.7988 0.7989 0.7972 0.7957
641.000000 0.7940 0.7932 0.7936 0.7962 0.8024
646.000000 0.8126 0.8197 0.8240 0.8283 0.8318
651.000000 0.8342 0.8365 0.8389 0.8403 0.8403
656.000000 0.8402 0.8401 0.8408 0.8421 0.8437
661.000000 0.8465 0.8508 0.8565 0.8643 0.8657
666.000000 0.8640 0.8621 0.8605 0.8589 0.8581
671.000000 0.8582 0.8583 0.8590 0.8597 0.8604
676.000000 0.8615 0.8625 0.8637 0.8647 0.8657
681.000000 0.8668 0.8678 0.8688 0.8695 0.8702
686.000000 0.8708 0.8714 0.8720 0.8717 0.8714
691.000000 0.8711 0.8708 0.8704 0.8697 0.8686
696.000000 0.8675 0.8665 0.8653 0.8636 0.8618
701.000000 0.8602 0.8582 0.8552 0.8521 0.8487
706.000000 0.8437 0.8387 0.8333 0.8274 0.8130
711.000000 0.7771 0.7411 0.7051 0.6692 0.6332
716.000000 0.6129 0.6115 0.6381 0.6697 0.7011
721.000000 0.7328 0.7480 0.7556 0.7618 0.7674
726.000000 0.7728 0.7781 0.7828 0.7864 0.7901
731.000000 0.7937 0.7968 0.8000 0.8031 0.8061
736.000000 0.8093 0.8128 0.8162 0.8198 0.8232
741.000000 0.8266 0.8299 0.8333 0.8366 0.8386
746.000000 0.8402 0.8418 0.8435 0.8451 0.8460
751.000000 0.8464 0.8468 0.8471 0.8475 0.8478
756.000000 0.8478 0.8471 0.8468 0.8453 0.8428
761.000000 0.8405 0.8371 0.8327 0.8271 0.8186
766.000000 0.8100 0.8014 0.7926 0.7661 0.7284
771.000000 0.6906 0.6528 0.6150 0.5755 0.5095
776.000000 0.4434 0.3774 0.3113 0.2453 0.1793
781.000000 0.1601 0.1586 0.2242 0.3156 0.4071
786.000000 0.4985 0.5899 0.6814 0.7728 0.7957
791.000000 0.7978 0.7995 0.8032 0.7998 0.7984
796.000000 0.7958 0.7738 0.7208 0.6678 0.6150
801.000000 0.5621 0.5091 0.4562 0.4032 0.3503
806.000000 0.2974 0.2444 0.1915 0.1386 0.1388
811.000000 0.1721 0.2804 0.3888 0.4971 0.6054
816.000000 0.7137 0.7285 0.7472 0.7511 0.7546
821.000000 0.7565 0.7585 0.7595 0.7621 0.7610
826.000000 0.7608 0.7607 0.7603 0.7594 0.7585
831.000000 0.7565 0.7533 0.7401 0.7215 0.7048
836.000000 0.6678 0.6406 0.5787 0.5169 0.4551
841.000000 0.3932 0.3314 0.2697 0.2079 0.1639
846.000000 0.1634 0.1663 0.1894 0.2127 0.2359
851.000000 0.2592 0.2756 0.2887 0.2997 0.3091
856.000000 0.3298 0.4407 0.5515 0.6624 0.7117
861.000000 0.7398 0.7665 0.7767 0.7828 0.7869
866.000000 0.7911 0.7950 0.7980 0.8008 0.8039
871.000000 0.8067 0.8094 0.8119 0.8126 0.8147
876.000000 0.8135 0.8125 0.8115 0.8105 0.8076
881.000000 0.8032 0.7976 0.7903 0.7799 0.7680
886.000000 0.7560 0.7440 0.7319 0.7308 0.7396
891.000000 0.7490 0.7584 0.7678 0.7772 0.7867
896.000000 0.7965 0.8032 0.8054 0.8071 0.8084
901.000000 0.8086 0.8089 0.8082 0.8075 0.8064
906.000000 0.8051 0.8040 0.8022 0.8006 0.7989
911.000000 0.7968 0.7948 0.7921 0.7894 0.7867
916.000000 0.7837 0.7740 0.7644 0.7547 0.7480
921.000000 0.7480 0.7521 0.7567 0.7612 0.7658
926.000000 0.7715 0.7701 0.7697 0.7688 0.7664
931.000000 0.7586 0.7475 0.7401 0.7253 0.7061
936.000000 0.6871 0.6680 0.6554 0.6554 0.6796
941.000000 0.7165 0.7533 0.7664 0.7661 0.7684
946.000000 0.7655 0.7647 0.7630 0.7610 0.7574
951.000000 0.7507 0.7433 0.7365 0.7318 0.7290
956.000000 0.7265 0.7224 0.6941 0.6598 0.6255
961.000000 0.5912 0.5569 0.5226 0.4883 0.4541
966.000000 0.4338 0.4341 0.4590 0.4926 0.5262
971.000000 0.5599 0.5936 0.6273 0.6568 0.6710
976.000000 0.6915 0.7194 0.7335 0.7411 0.7474
981.000000 0.7499 0.7525 0.7550 0.7558 0.7565
986.000000 0.7574 0.7574 0.7574 0.7571 0.7560
991.000000 0.7536 0.7504 0.7419 0.7278 0.7097
996.000000 0.6917 0.6736 0.6556 0.6375 0.6194
1001.000000 0.6014 0.5889 0.5881 0.6801 0.7321
1006.000000 0.7388 0.7446 0.7488 0.7505 0.7521
1011.000000 0.7521 0.7521 0.7484 0.7441 0.7398
1016.000000 0.7378 0.7407 0.7484 0.7549 0.7554
1021.000000 0.7558 0.7558 0.7575 0.7557 0.7554
1026.000000 0.7551 0.7550 0.7549 0.7547 0.7543
1031.000000 0.7538 0.7534 0.7528 0.7522 0.7515
1036.000000 0.7510 0.7503 0.7497 0.7490 0.7483
1041.000000 0.7475 0.7468 0.7461 0.7454 0.7447
1046.000000 0.7436 0.7424 0.7411 0.7393 0.7371
1051.000000 0.7351 0.7331 0.7308 0.7275 0.7243
1056.000000 0.7210 0.7176 0.7126 0.7075 0.7025
1061.000000 0.6974 0.6901 0.6826 0.6742 0.6630
1066.000000 0.6530 0.6442 0.6354 0.6229 0.5973
1071.000000 0.5517 0.5060 0.4605 0.4149 0.3693
1076.000000 0.3237 0.2847 0.2845 0.2844 0.4205
1081.000000 0.5351 0.5729 0.5964 0.6199 0.6435
1086.000000 0.6669 0.6782 0.6774 0.6771 0.6692
1091.000000 0.6590 0.6487 0.6384 0.6282 0.6179
1096.000000 0.6076 0.5974 0.5754 0.4901 0.4048
1101.000000 0.2594 0.2597 0.2591 0.3094 0.3662
1106.000000 0.4231 0.4799 0.5367 0.5936 0.6253
1111.000000 0.6262 0.6134 0.6276 0.5633 0.5383
1116.000000 0.5133 0.4883 0.4632 0.4382 0.4132
1121.000000 0.3882 0.3630 0.3380 0.3133 0.3130
1126.000000 0.3548 0.4014 0.4479 0.4944 0.5410
1131.000000 0.5875 0.6295 0.6501 0.6555 0.6588
1136.000000 0.6612 0.6635 0.6656 0.6657 0.6658
1141.000000 0.6660 0.6661 0.6672 0.6651 0.6647
1146.000000 0.6642 0.6633 0.6614 0.6583 0.6551
1151.000000 0.6518 0.6485 0.6451 0.6418 0.6381
1156.000000 0.6342 0.6309 0.6279 0.6250 0.6220
1161.000000 0.6190 0.6159 0.6128 0.6065 0.5988
1166.000000 0.5910 0.5835 0.5759 0.5683 0.5607
1171.000000 0.5472 0.5325 0.5172 0.4977 0.4657
1176.000000 0.3973 0.3280 0.2585 0.1892 0.1199
1181.000000 0.1142 0.1744 0.2771 0.3799 0.4827
1186.000000 0.4987 0.4570 0.4215 0.3860 0.3506
1191.000000 0.3151 0.2796 0.2441 0.2085 0.1731
1196.000000 0.1376 0.1022 0.0856 0.0850 0.0861
1201.000000 0.0953 0.1009 0.1065 0.1121 0.1144
1206.000000 0.1136 0.0913 0.0714 0.0516 0.0316
1211.000000 0.0240 0.0252 0.0360 0.0469 0.0579
1216.000000 0.0688 0.0797 0.0906 0.0974 0.2356
1221.000000 0.2496 0.2576 0.2653 0.2730 0.2807
1226.000000 0.2884 0.2962 0.2987 0.2994 0.3030
1231.000000 0.2666 0.2462 0.2258 0.2055 0.1851
1236.000000 0.1646 0.1444 0.1429 0.1449 0.1729
1241.000000 0.2034 0.2338 0.2641 0.2945 0.3249
1246.000000 0.3553 0.3714 0.3724 0.3416 0.3140
1251.000000 0.2863 0.2585 0.2309 0.2032 0.1754
1256.000000 0.1478 0.1201 0.0924 0.0675 0.0675
1261.000000 0.0671 0.1394 0.1813 0.2232 0.2651
1266.000000 0.3070 0.3488 0.3907 0.4326 0.4745
1271.000000 0.5027 0.5112 0.5191 0.5268 0.5473
1276.000000 0.5598 0.5700 0.6256 0.6308 0.6323
1281.000000 0.6348 0.6331 0.6326 0.6309 0.6279
1286.000000 0.6229 0.6179 0.6130 0.6080 0.6008
1291.000000 0.6025 0.6070 0.6133 0.6196 0.6260
1296.000000 0.6323 0.6360 0.6359 0.6390 0.6347
1301.000000 0.6319 0.6240 0.6168 0.6101 0.6035
1306.000000 0.5931 0.5799 0.5644 0.5488 0.5333
1311.000000 0.5178 0.5023 0.4907 0.4908 0.4908
1316.000000 0.5152 0.5342 0.5532 0.5723 0.5912
1321.000000 0.6033 0.6060 0.6087 0.6098 0.6109
1326.000000 0.6110 0.6110 0.6123 0.6103 0.6082
1331.000000 0.6058 0.6022 0.5986 0.5950 0.5912
1336.000000 0.5875 0.5832 0.5789 0.5722 0.5641
1341.000000 0.5560 0.5479 0.5402 0.5402 0.5406
1346.000000 0.5553 0.5644 0.5736 0.5827 0.5900
1351.000000 0.5935 0.5968 0.5996 0.6024 0.6054
1356.000000 0.6086 0.6135 0.6204 0.6284 0.6331
1361.000000 0.6365 0.6338 0.6304 0.6191 0.6078
1366.000000 0.5965 0.5852 0.5798 0.5798 0.5782
1371.000000 0.6154 0.6346 0.6538 0.6838 0.6830
1376.000000 0.6825 0.6808 0.6786 0.6743 0.6662
1381.000000 0.6585 0.6499 0.6412 0.6325 0.6228
1386.000000 0.6130 0.5988 0.5447 0.4905 0.4739
1391.000000 0.4729 0.5179 0.6267 0.6978 0.7008
1396.000000 0.7024 0.7037 0.7041 0.7041 0.7061
1401.000000 0.7038 0.7032 0.7026 0.7021 0.7015
1406.000000 0.7006 0.6996 0.6983 0.6962 0.6943
1411.000000 0.6924 0.6903 0.6880 0.6857 0.6835
1416.000000 0.6811 0.6789 0.6761 0.6733 0.6706
1421.000000 0.6678 0.6646 0.6611 0.6576 0.6542
1426.000000 0.6506 0.6456 0.6407 0.6357 0.6308
1431.000000 0.6246 0.6181 0.6117 0.6056 0.5997
1436.000000 0.5938 0.5879 0.5817 0.5743 0.5670
1441.000000 0.5421 0.5076 0.4730 0.4576 0.4578
1446.000000 0.4560 0.4701 0.4950 0.5199 0.5448
1451.000000 0.5697 0.5726 0.5716 0.5705 0.5684
1456.000000 0.5664 0.5658 0.5660 0.5810 0.6139
1461.000000 0.6310 0.6327 0.6324 0.6324 0.6318
1466.000000 0.6293 0.6218 0.6126 0.6039 0.5929
1471.000000 0.5804 0.5680 0.5556 0.5436 0.5327
1476.000000 0.5218 0.5106 0.4953 0.4708 0.4375
1481.000000 0.4042 0.3708 0.3375 0.3042 0.2708
1486.000000 0.2375 0.2041 0.1708 0.1375 0.1041
1491.000000 0.0979 0.0978 0.0992 0.1743 0.2230
1496.000000 0.2716 0.3203 0.3690 0.4176 0.4662
1501.000000 0.5149 0.5636 0.6236 0.6221 0.6088
1506.000000 0.5752 0.5415 0.5079 0.4742 0.4405
1511.000000 0.4068 0.3732 0.3396 0.3059 0.2723
1516.000000 0.2385 0.2233 0.2193 0.3112 0.3877
1521.000000 0.4642 0.5407 0.6172 0.6633 0.6695
1526.000000 0.6751 0.7326 0.7400 0.7451 0.7490
1531.000000 0.7517 0.7528 0.7537 0.7558 0.7548
1536.000000 0.7548 0.7549 0.7545 0.7540 0.7534
1541.000000 0.7528 0.7521 0.7514 0.7507 0.7501
1546.000000 0.7497 0.7493 0.7489 0.7484 0.7480
1551.000000 0.7475 0.7468 0.7461 0.7454 0.7446
1556.000000 0.7437 0.7424 0.7411 0.7398 0.7378
1561.000000 0.7357 0.7335 0.7311 0.7285 0.7258
1566.000000 0.7228 0.7192 0.7155 0.7118 0.7082
1571.000000 0.7046 0.7010 0.6974 0.6937 0.6892
1576.000000 0.6836 0.6781 0.6719 0.6648 0.6576
1581.000000 0.6506 0.6439 0.6373 0.6306 0.6233
1586.000000 0.6144 0.6055 0.5966 0.5867 0.5767
1591.000000 0.5641 0.5489 0.5301 0.5110 0.4920
1596.000000 0.4730 0.4540 0.4349 0.4338 0.4445
1601.000000 0.4650 0.4854 0.5059 0.5262 0.5467
1606.000000 0.5672 0.5938 0.5889 0.5864 0.5362
1611.000000 0.4862 0.4362 0.3968 0.3966 0.4016
1616.000000 0.3968 0.4210 0.4308 0.4967 0.6198
1621.000000 0.6899 0.6992 0.7099 0.7214 0.7308
1626.000000 0.7365 0.7421 0.7461 0.7492 0.7507
1631.000000 0.7521 0.7536 0.7544 0.7553 0.7561
1636.000000 0.7568 0.7575 0.7580 0.7585 0.7590
1641.000000 0.7595 0.7621 0.7601 0.7604 0.7606
1646.000000 0.7608 0.7611 0.7611 0.7611 0.7611
1651.000000 0.7610 0.7610 0.7606 0.7601 0.7599
1656.000000 0.7595 0.7591 0.7584 0.7578 0.7571
1661.000000 0.7565 0.7561 0.7560 0.7558 0.7558
1666.000000 0.7557 0.7557 0.7558 0.7560 0.7561
1671.000000 0.7562 0.7565 0.7565 0.7571 0.7578
1676.000000 0.7586 0.7593 0.7598 0.7603 0.7607
1681.000000 0.7611 0.7615 0.7617 0.7617 0.7617
1686.000000 0.7618 0.7618 0.7618 0.7618 0.7618
1691.000000 0.7618 0.7618 0.7618 0.7617 0.7617
1696.000000 0.7617 0.7615 0.7615 0.7615 0.7615
1701.000000 0.7615 0.7615 0.7615 0.7614 0.7614
1706.000000 0.7614 0.7614 0.7611 0.7608 0.7606
1711.000000 0.7603 0.7600 0.7597 0.7594 0.7592
1716.000000 0.7590 0.7588 0.7586 0.7584 0.7582
1721.000000 0.7580 0.7578 0.7575 0.7574 0.7571
1726.000000 0.7568 0.7565 0.7564 0.7561 0.7558
1731.000000 0.7556 0.7554 0.7551 0.7549 0.7546
1736.000000 0.7544 0.7541 0.7539 0.7536 0.7534
1741.000000 0.7531 0.7528 0.7525 0.7522 0.7519
1746.000000 0.7517 0.7514 0.7511 0.7508 0.7506
1751.000000 0.7503 0.7501 0.7495 0.7490 0.7484
1756.000000 0.7478 0.7472 0.7467 0.7460 0.7449
1761.000000 0.7439 0.7428 0.7418 0.7408 0.7398
1766.000000 0.7387 0.7376 0.7365 0.7356 0.7342
1771.000000 0.7328 0.7312 0.7308 0.7305 0.7301
1776.000000 0.7300 0.7298 0.7297 0.7295 0.7294
1781.000000 0.7293 0.7293 0.7293 0.7294 0.7294
1786.000000 0.7294 0.7295 0.7297 0.7299 0.7300
1791.000000 0.7301 0.7303 0.7306 0.7308 0.7312
1796.000000 0.7315 0.7319 0.7322 0.7326 0.7328
1801.000000 0.7331 0.7333 0.7335 0.7337 0.7339
1806.000000 0.7341 0.7343 0.7345 0.7347 0.7349
1811.000000 0.7351 0.7353 0.7355 0.7358 0.7360
1816.000000 0.7361 0.7364 0.7367 0.7367 0.7367
1821.000000 0.7365 0.7364 0.7361 0.7360 0.7358
1826.000000 0.7357 0.7355 0.7354 0.7350 0.7344
1831.000000 0.7339 0.7333 0.7326 0.7321 0.7315
1836.000000 0.7308 0.7303 0.7298 0.7292 0.7286
1841.000000 0.7278 0.7271 0.7265 0.7258 0.7251
1846.000000 0.7244 0.7237 0.7230 0.7222 0.7215
1851.000000 0.7208 0.7201 0.7195 0.7188 0.7181
1856.000000 0.7174 0.7168 0.7161 0.7154 0.7147
1861.000000 0.7140 0.7133 0.7125 0.7118 0.7111
1866.000000 0.7106 0.7099 0.7092 0.7084 0.7075
1871.000000 0.7068 0.7058 0.7051 0.7043 0.7035
1876.000000 0.7026 0.7018 0.7010 0.7001 0.6994
1881.000000 0.6985 0.6975 0.6968 0.6958 0.6951
1886.000000 0.6950 0.6951 0.6951 0.6954 0.6958
1891.000000 0.6961 0.6967 0.6969 0.6969 0.6969
1896.000000 0.6971 0.6971 0.6971 0.6967 0.6961
1901.000000 0.6956 0.6951 0.6941 0.6928 0.6918
1906.000000 0.6907 0.6895 0.6884 0.6872 0.6861
1911.000000 0.6850 0.6838 0.6831 0.6828 0.6825
1916.000000 0.6824 0.6821 0.6821 0.6818 0.6814
1921.000000 0.6806 0.6798 0.6791 0.6783 0.6775
1926.000000 0.6768 0.6755 0.6742 0.6728 0.6737
1931.000000 0.6745 0.6754 0.6761 0.6768 0.6772
1936.000000 0.6778 0.6782 0.6782 0.6781 0.6781
1941.000000 0.6780 0.6778 0.6774 0.6769 0.6765
1946.000000 0.6758 0.6750 0.6742 0.6733 0.6725
1951.000000 0.6715 0.6708 0.6705 0.6705 0.6711
1956.000000 0.6718 0.6725 0.6734 0.6743 0.6751
1961.000000 0.6761 0.6767 0.6772 0.6778 0.6785
1966.000000 0.6791 0.6797 0.6801 0.6808 0.6814
1971.000000 0.6818 0.6825 0.6830 0.6835 0.6839
1976.000000 0.6844 0.6848 0.6848 0.6848 0.6849
1981.000000 0.6846 0.6844 0.6841 0.6838 0.6831
1986.000000 0.6824 0.6833 0.6861 0.6890 0.6918
1991.000000 0.6948 0.6976 0.7006 0.7035 0.7064
1996.000000 0.7091 0.7110 0.7135 0.7158 0.7180
2001.000000 0.7200 0.7221 0.7228 0.7237 0.7244
2006.000000 0.7251 0.7253 0.7255 0.7257 0.7258
2011.000000 0.7258 0.7260 0.7260 0.7261 0.7261
2016.000000 0.7261 0.7260 0.7258 0.7257 0.7255
2021.000000 0.7253 0.7251 0.7247 0.7244 0.7240
2026.000000 0.7237 0.7231 0.7225 0.7218 0.7214
2031.000000 0.7211 0.7208 0.7207 0.7206 0.7205
2036.000000 0.7204 0.7204 0.7204 0.7205 0.7207
2041.000000 0.7208 0.7231 0.7211 0.7211 0.7212
2046.000000 0.7214 0.7215 0.7215 0.7215 0.7215
2051.000000 0.7215 0.7215 0.7214 0.7214 0.7212
2056.000000 0.7212 0.7211 0.7211 0.7211 0.7211
2061.000000 0.7211 0.7211 0.7211 0.7211 0.7211
2066.000000 0.7211 0.7212 0.7214 0.7215 0.7217
2071.000000 0.7218 0.7219 0.7219 0.7221 0.7221
2076.000000 0.7221 0.7218 0.7217 0.7212 0.7210
2081.000000 0.7206 0.7203 0.7199 0.7196 0.7192
2086.000000 0.7188 0.7183 0.7178 0.7172 0.7168
2091.000000 0.7164 0.7158 0.7154 0.7150 0.7147
2096.000000 0.7144 0.7141 0.7139 0.7136 0.7134
2101.000000 0.7131 0.7128 0.7125 0.7124 0.7122
2106.000000 0.7122 0.7121 0.7121 0.7119 0.7119
2111.000000 0.7118 0.7118 0.7117 0.7115 0.7115
2116.000000 0.7115 0.7115 0.7115 0.7115 0.7115
2121.000000 0.7115 0.7115 0.7115 0.7115 0.7115
2126.000000 0.7114 0.7112 0.7111 0.7111 0.7111
2131.000000 0.7110 0.7108 0.7108 0.7107 0.7105
2136.000000 0.7104 0.7101 0.7100 0.7098 0.7096
2141.000000 0.7094 0.7093 0.7090 0.7087 0.7084
2146.000000 0.7081 0.7078 0.7075 0.7071 0.7068
2151.000000 0.7065 0.7062 0.7060 0.7057 0.7054
2156.000000 0.7051 0.7046 0.7042 0.7037 0.7033
2161.000000 0.7028 0.7022 0.7017 0.7011 0.7006
2166.000000 0.7001 0.6995 0.6990 0.6984 0.6978
2171.000000 0.6972 0.6968 0.6961 0.6956 0.6950
2176.000000 0.6945 0.6940 0.6936 0.6931 0.6926
2181.000000 0.6921 0.6918 0.6912 0.6908 0.6903
2186.000000 0.6899 0.6894 0.6890 0.6885 0.6881
2191.000000 0.6876 0.6872 0.6869 0.6867 0.6862
2196.000000 0.6860 0.6857 0.6854 0.6851 0.6849
2201.000000 0.6849 0.6850 0.6851 0.6851 0.6851
2206.000000 0.6853 0.6853 0.6854 0.6850 0.6847
2211.000000 0.6843 0.6839 0.6834 0.6830 0.6825
2216.000000 0.6821 0.6818 0.6814 0.6808 0.6804
2221.000000 0.6799 0.6795 0.6790 0.6785 0.6780
2226.000000 0.6775 0.6768 0.6764 0.6758 0.6753
2231.000000 0.6747 0.6742 0.6736 0.6731 0.6725
2236.000000 0.6721 0.6717 0.6714 0.6710 0.6707
2241.000000 0.6703 0.6700 0.6696 0.6693 0.6689
2246.000000 0.6686 0.6682 0.6678 0.6675 0.6671
2251.000000 0.6668 0.6665 0.6661 0.6658 0.6655
2256.000000 0.6651 0.6648 0.6645 0.6641 0.6638
2261.000000 0.6634 0.6631 0.6625 0.6621 0.6615
2266.000000 0.6611 0.6607 0.6603 0.6599 0.6596
2271.000000 0.6592 0.6589 0.6585 0.6582 0.6578
2276.000000 0.6575 0.6571 0.6568 0.6564 0.6560
2281.000000 0.6556 0.6553 0.6549 0.6546 0.6542
2286.000000 0.6539 0.6535 0.6532 0.6528 0.6525
2291.000000 0.6521 0.6518 0.6512 0.6508 0.6504
2296.000000 0.6499 0.6494 0.6490 0.6485 0.6480
2301.000000 0.6475 0.6471 0.6465 0.6461 0.6456
2306.000000 0.6451 0.6446 0.6441 0.6433 0.6425
2311.000000 0.6418 0.6410 0.6401 0.6394 0.6386
2316.000000 0.6379 0.6373 0.6367 0.6362 0.6359
2321.000000 0.6355 0.6351 0.6347 0.6344 0.6342
2326.000000 0.6341 0.6340 0.6339 0.6337 0.6336
2331.000000 0.6335 0.6334 0.6332 0.6331 0.6331
2336.000000 0.6331 0.6331 0.6331 0.6331 0.6331
2341.000000 0.6331 0.6332 0.6332 0.6332 0.6333
2346.000000 0.6334 0.6335 0.6336 0.6337 0.6338
2351.000000 0.6339 0.6340 0.6341 0.6341 0.6341
2356.000000 0.6340 0.6339 0.6339 0.6338 0.6337
2361.000000 0.6336 0.6336 0.6334 0.6332 0.6330
2366.000000 0.6328 0.6325 0.6323 0.6321 0.6319
2371.000000 0.6316 0.6314 0.6309 0.6305 0.6300
2376.000000 0.6296 0.6291 0.6287 0.6281 0.6275
2381.000000 0.6269 0.6264 0.6258 0.6252 0.6246
2386.000000 0.6241 0.6235 0.6229 0.6222 0.6216
2391.000000 0.6210 0.6204 0.6197 0.6191 0.6185
2396.000000 0.6179 0.6172 0.6166 0.6160 0.6154
2401.000000 0.6148 0.6142 0.6135 0.6129 0.6123
2406.000000 0.6117 0.6112 0.6110 0.6107 0.6104
2411.000000 0.6104 0.6104 0.6105 0.6107 0.6108
2416.000000 0.6109 0.6110 0.6112 0.6114 0.6116
2421.000000 0.6117 0.6117 0.6117 0.6117 0.6115
2426.000000 0.6114 0.6110 0.6108 0.6103 0.6099
2431.000000 0.6091 0.6084 0.6068 0.6052 0.6036
2436.000000 0.6021 0.6003 0.5986 0.5964 0.5943
2441.000000 0.5921 0.5900 0.5872 0.5844 0.5812
2446.000000 0.5782 0.5778 0.5774 0.5775 0.5776
2451.000000 0.5782 0.5788 0.5801 0.5814 0.5839
2456.000000 0.5865 0.5891 0.5917 0.5927 0.5937
2461.000000 0.5940 0.5943 0.5942 0.5941 0.5938
2466.000000 0.5936 0.5931 0.5927 0.5915 0.5903
2471.000000 0.5888 0.5874 0.5858 0.5842 0.5824
2476.000000 0.5807 0.5784 0.5762 0.5730 0.5698
2481.000000 0.5680 0.5662 0.5664 0.5667 0.5712
2486.000000 0.5759 0.5805 0.5851 0.5897 0.5943
2491.000000 0.5989 0.6036 0.6049 0.6062 0.6060
2496.000000 0.6058 0.6056 0.6055 0.6053 0.6051
2501.000000 0.6049 0.6048 0.6045 0.6042 0.6039
2506.000000 0.6036 0.6033 0.6030 0.6027 0.6025
2511.000000 0.6022 0.6020 0.6017 0.6014 0.6010
2516.000000 0.6008 0.6005 0.6002 0.5998 0.5995
2521.000000 0.5991 0.5988 0.5985 0.5982 0.5978
2526.000000 0.5975 0.5969 0.5964 0.5957 0.5950
2531.000000 0.5943 0.5936 0.5928 0.5921 0.5910
2536.000000 0.5901 0.5890 0.5879 0.5868 0.5857
2541.000000 0.5842 0.5828 0.5812 0.5797 0.5781
2546.000000 0.5766 0.5750 0.5735 0.5718 0.5701
2551.000000 0.5684 0.5667 0.5649 0.5631 0.5610
2556.000000 0.5591 0.5571 0.5552 0.5532 0.5512
2561.000000 0.5493 0.5474 0.5455 0.5437 0.5430
2566.000000 0.5424 0.5423 0.5422 0.5421 0.5420
2571.000000 0.5420 0.5420 0.5420 0.5421 0.5428
2576.000000 0.5435 0.5445 0.5455 0.5470 0.5485
2581.000000 0.5515 0.5545 0.5596 0.5647 0.5677
2586.000000 0.5707 0.5710 0.5716 0.5720 0.5724
2591.000000 0.5723 0.5723 0.5722 0.5721 0.5719
2596.000000 0.5718 0.5716 0.5714 0.5712 0.5710
2601.000000 0.5709 0.5707 0.5705 0.5705 0.5706
2606.000000 0.5709 0.5712 0.5715 0.5720 0.5725
2611.000000 0.5732 0.5739 0.5747 0.5755 0.5762
2616.000000 0.5772 0.5781 0.5790 0.5794 0.5798
2621.000000 0.5800 0.5816 0.5803 0.5802 0.5801
2626.000000 0.5799 0.5794 0.5789 0.5781 0.5773
2631.000000 0.5765 0.5757 0.5747 0.5738 0.5728
2636.000000 0.5719 0.5709 0.5699 0.5689 0.5680
2641.000000 0.5671 0.5662 0.5655 0.5647 0.5638
2646.000000 0.5630 0.5621 0.5612 0.5604 0.5596
2651.000000 0.5585 0.5574 0.5562 0.5551 0.5539
2656.000000 0.5528 0.5517 0.5506 0.5491 0.5476
2661.000000 0.5458 0.5440 0.5422 0.5404 0.5362
2666.000000 0.5322 0.5314 0.5306 0.5298 0.5291
2671.000000 0.5283 0.5275 0.5274 0.5273 0.5272
2676.000000 0.5272 0.5273 0.5275 0.5280 0.5285
2681.000000 0.5296 0.5308 0.5321 0.5334 0.5348
2686.000000 0.5362 0.5368 0.5374 0.5376 0.5376
2691.000000 0.5376 0.5376 0.5372 0.5368 0.5360
2696.000000 0.5352 0.5344 0.5336 0.5327 0.5318
2701.000000 0.5309 0.5301 0.5292 0.5284 0.5275
2706.000000 0.5267 0.5258 0.5250 0.5241 0.5232
2711.000000 0.5220 0.5209 0.5197 0.5185 0.5179
2716.000000 0.5173 0.5175 0.5178 0.5180 0.5182
2721.000000 0.5184 0.5186 0.5187 0.5189 0.5189
2726.000000 0.5189 0.5188 0.5188 0.5186 0.5184
2731.000000 0.5181 0.5179 0.5171 0.5162 0.5150
2736.000000 0.5137 0.5125 0.5112 0.5101 0.5090
2741.000000 0.5078 0.5067 0.5055 0.5043 0.5029
2746.000000 0.5016 0.5002 0.4988 0.4969 0.4951
2751.000000 0.4932 0.4912 0.4893 0.4873 0.4851
2756.000000 0.4829 0.4807 0.4786 0.4764 0.4743
2761.000000 0.4722 0.4702 0.4683 0.4664 0.4644
2766.000000 0.4625 0.4606 0.4587 0.4569 0.4552
2771.000000 0.4535 0.4518 0.4504 0.4491 0.4481
2776.000000 0.4471 0.4462 0.4454 0.4456 0.4459
2781.000000 0.4460 0.4464 0.4466 0.4467 0.4466
2786.000000 0.4465 0.4462 0.4459 0.4453 0.4447
2791.000000 0.4438 0.4429 0.4412 0.4395 0.4376
2796.000000 0.4357 0.4341 0.4326 0.4312 0.4300
2801.000000 0.4287 0.4274 0.4265 0.4257 0.4254
2806.000000 0.4251 0.4248 0.4246 0.4243 0.4241
2811.000000 0.4240 0.4240 0.4240 0.4240 0.4239
2816.000000 0.4239 0.4239 0.4239 0.4226 0.4214
2821.000000 0.4198 0.4182 0.4165 0.4148 0.4131
2826.000000 0.4114 0.4095 0.4077 0.4058 0.4040
2831.000000 0.4020 0.4000 0.3978 0.3957 0.3934
2836.000000 0.3914 0.3893 0.3872 0.3849 0.3826
2841.000000 0.3803 0.3780 0.3757 0.3734 0.3712
2846.000000 0.3689 0.3666 0.3643 0.3620 0.3597
2851.000000 0.3574 0.3550 0.3527 0.3503 0.3479
2856.000000 0.3456 0.3432 0.3409 0.3384 0.3362
2861.000000 0.3337 0.3312 0.3287 0.3262 0.3236
2866.000000 0.3210 0.3184 0.3160 0.3134 0.3109
2871.000000 0.3085 0.3063 0.3040 0.3018 0.2995
2876.000000 0.2973 0.2950 0.2927 0.2904 0.2882
2881.000000 0.2859 0.2837 0.2812 0.2787 0.2759
2886.000000 0.2732 0.2704 0.2677 0.2649 0.2622
2891.000000 0.2593 0.2564 0.2519 0.2474 0.2429
2896.000000 0.2384 0.2339 0.2294 0.2250 0.2206
2901.000000 0.2162 0.2118 0.2077 0.2036 0.1996
2906.000000 0.1958 0.1918 0.1878 0.1841 0.1804
2911.000000 0.1767 0.1729 0.1690 0.1650 0.1644
2916.000000 0.1639 0.1641 0.1659 0.1654 0.1667
2921.000000 0.1681 0.1695 0.1712 0.1729 0.1744
2926.000000 0.1762 0.1778 0.1794 0.1810 0.1826
2931.000000 0.1840 0.1854 0.1865 0.1877 0.1889
2936.000000 0.1902 0.1932 0.1962 0.2017 0.2072
2941.000000 0.2115 0.2159 0.2183 0.2207 0.2228
2946.000000 0.2249 0.2269 0.2289 0.2306 0.2323
2951.000000 0.2340 0.2357 0.2364 0.2371 0.2378
2956.000000 0.2384 0.2383 0.2382 0.2380 0.2390
2961.000000 0.2366 0.2353 0.2307 0.2262 0.2233
2966.000000 0.2205 0.2176 0.2148 0.2124 0.2100
2971.000000 0.2076 0.2052 0.2028 0.2004 0.1983
2976.000000 0.1962 0.1941 0.1921 0.1894 0.1869
2981.000000 0.1829 0.1792 0.1750 0.1708 0.1686
2986.000000 0.1666 0.1664 0.1665 0.1665 0.1668
2991.000000 0.1671 0.1629 0.1679 0.1684 0.1690
2996.000000 0.1696 0.1704 0.1712 0.1721 0.1731
3001.000000 0.1743 0.1756 0.1767 0.1779 0.1791
3006.000000 0.1803 0.1815 0.1827 0.1841 0.1854
3011.000000 0.1869 0.1883 0.1898 0.1913 0.1929
3016.000000 0.1945 0.1963 0.1981 0.1998 0.2016
3021.000000 0.2037 0.2061 0.2092 0.2123 0.2327
3026.000000 0.2531 0.2653 0.2775 0.2826 0.2877
3031.000000 0.2922 0.2968 0.3006 0.3045 0.3083
3036.000000 0.3122 0.3159 0.3196 0.3232 0.3271
3041.000000 0.3316 0.3364 0.3418 0.3475 0.3520
3046.000000 0.3564 0.3608 0.3650 0.3690 0.3730
3051.000000 0.3768 0.3807 0.3834 0.3862 0.3880
3056.000000 0.3897 0.3909 0.3921 0.3930 0.3940
3061.000000 0.3949 0.3958 0.3966 0.3975 0.3982
3066.000000 0.3989 0.3996 0.4003 0.4009 0.4016
3071.000000 0.4023 0.4030 0.4034 0.4040 0.4044
3076.000000 0.4049 0.4054 0.4059 0.4062 0.4068
3081.000000 0.4073 0.4078 0.4082 0.4087 0.4091
3086.000000 0.4096 0.4100 0.4105 0.4109 0.4114
3091.000000 0.4115 0.4115 0.4114 0.4110 0.4107
3096.000000 0.4104 0.4097 0.4090 0.4082 0.4075
3101.000000 0.4064 0.4054 0.4044 0.4034 0.4020
3106.000000 0.4006 0.3991 0.3977 0.3962 0.3947
3111.000000 0.3926 0.3906 0.3878 0.3850 0.3823
3116.000000 0.3796 0.3768 0.3742 0.3714 0.3688
3121.000000 0.3657 0.3626 0.3590 0.3555 0.3518
3126.000000 0.3484 0.3449 0.3414 0.3384 0.3353
3131.000000 0.3321 0.3290 0.3259 0.3228 0.3196
3136.000000 0.3164 0.3124 0.3084 0.3044 0.3005
3141.000000 0.2977 0.2950 0.2951 0.2952 0.2953
3146.000000 0.2954 0.2972 0.2991 0.3044 0.3097
3151.000000 0.3218 0.3340 0.3408 0.3477 0.3528
3156.000000 0.3580 0.3630 0.3680 0.3730 0.3780
3161.000000 0.3832 0.3882 0.3921 0.3959 0.3982
3166.000000 0.4007 0.4036 0.4064 0.4084 0.4103
3171.000000 0.4114 0.4126 0.4135 0.4145 0.4153
3176.000000 0.4162 0.4162 0.4162 0.4162 0.4162
3181.000000 0.4153 0.4143 0.4132 0.4122 0.4112
3186.000000 0.4103 0.4097 0.4091 0.4095 0.4100
3191.000000 0.4110 0.4120 0.4131 0.4143 0.4154
3196.000000 0.4166 0.4171 0.4172 0.4173 0.4169
3201.000000 0.4156 0.4143 0.4119 0.4095 0.4092
3206.000000 0.4092 0.4092 0.4092 0.4097 0.4102
3211.000000 0.4115 0.4129 0.4150 0.4171 0.4238
3216.000000 0.4305 0.4352 0.4399 0.4437 0.4476
3221.000000 0.4493 0.4510 0.4528 0.4545 0.4553
3226.000000 0.4562 0.4569 0.4577 0.4583 0.4589
3231.000000 0.4589 0.4590 0.4590 0.4594 0.4586
3236.000000 0.4582 0.4574 0.4567 0.4559 0.4552
3241.000000 0.4541 0.4531 0.4518 0.4506 0.4494
3246.000000 0.4482 0.4469 0.4457 0.4443 0.4430
3251.000000 0.4412 0.4397 0.4380 0.4364 0.4348
3256.000000 0.4332 0.4315 0.4299 0.4283 0.4268
3261.000000 0.4252 0.4236 0.4220 0.4205 0.4189
3266.000000 0.4174 0.4158 0.4143 0.4127 0.4112
3271.000000 0.4096 0.4080 0.4064 0.4049 0.4032
3276.000000 0.4018 0.4002 0.3986 0.3970 0.3955
3281.000000 0.3939 0.3923 0.3907 0.3892 0.3876
3286.000000 0.3860 0.3844 0.3828 0.3812 0.3796
3291.000000 0.3780 0.3764 0.3748 0.3732 0.3716
3296.000000 0.3700 0.3682 0.3666 0.3650 0.3634
3301.000000 0.3618 0.3603 0.3584 0.3564 0.3546
3306.000000 0.3528 0.3509 0.3491 0.3472 0.3454
3311.000000 0.3434 0.3416 0.3398 0.3380 0.3364
3316.000000 0.3349 0.3332 0.3318 0.3302 0.3287
3321.000000 0.3271 0.3256 0.3240 0.3225 0.3205
3326.000000 0.3185 0.3165 0.3145 0.3127 0.3110
3331.000000 0.3100 0.3090 0.3080 0.3070 0.3068
3336.000000 0.3068 0.3068 0.3070 0.3073 0.3059
3341.000000 0.3080 0.3084 0.3089 0.3094 0.3099
3346.000000 0.3105 0.3110 0.3116 0.3121 0.3127
3351.000000 0.3139 0.3151 0.3164 0.3177 0.3193
3356.000000 0.3209 0.3224 0.3240 0.3264 0.3289
3361.000000 0.3316 0.3346 0.3375 0.3404 0.3434
3366.000000 0.3466 0.3498 0.3529 0.3560 0.3594
3371.000000 0.3632 0.3672 0.3710 0.3750 0.3789
3376.000000 0.3828 0.3858 0.3889 0.3916 0.3943
3381.000000 0.3970 0.3998 0.4025 0.4052 0.4079
3386.000000 0.4107 0.4132 0.4157 0.4182 0.4207
3391.000000 0.4232 0.4257 0.4282 0.4307 0.4332
3396.000000 0.4357 0.4388 0.4419 0.4450 0.4482
3401.000000 0.4512 0.4544 0.4573 0.4603 0.4632
3406.000000 0.4662 0.4691 0.4720 0.4749 0.4778
3411.000000 0.4801 0.4824 0.4847 0.4870 0.4892
3416.000000 0.4915 0.4937 0.4960 0.4976 0.4993
3421.000000 0.5009 0.5026 0.5042 0.5058 0.5073
3426.000000 0.5088 0.5094 0.5101 0.5106 0.5110
3431.000000 0.5115 0.5119 0.5122 0.5125 0.5128
3436.000000 0.5131 0.5134 0.5137 0.5140 0.5143
3441.000000 0.5146 0.5149 0.5153 0.5158 0.5162
3446.000000 0.5167 0.5171 0.5176 0.5180 0.5185
3451.000000 0.5189 0.5194 0.5198 0.5203 0.5207
3456.000000 0.5210 0.5216 0.5221 0.5229 0.5237
3461.000000 0.5245 0.5254 0.5262 0.5270 0.5278
3466.000000 0.5286 0.5294 0.5302 0.5310 0.5319
3471.000000 0.5327 0.5335 0.5344 0.5354 0.5364
3476.000000 0.5374 0.5384 0.5395 0.5405 0.5415
3481.000000 0.5425 0.5435 0.5445 0.5455 0.5465
3486.000000 0.5475 0.5483 0.5492 0.5500 0.5509
3491.000000 0.5517 0.5526 0.5535 0.5544 0.5552
3496.000000 0.5560 0.5569 0.5578 0.5582 0.5587
3501.000000 0.5591 0.5596 0.5600 0.5605 0.5609
3506.000000 0.5614 0.5618 0.5623 0.5624 0.5626
3511.000000 0.5628 0.5630 0.5631 0.5633 0.5634
3516.000000 0.5636 0.5637 0.5639 0.5641 0.5643
3521.000000 0.5644 0.5646 0.5647 0.5649 0.5649
3526.000000 0.5649 0.5648 0.5648 0.5647 0.5647
3531.000000 0.5646 0.5646 0.5645 0.5645 0.5644
3536.000000 0.5644 0.5643 0.5643 0.5643 0.5643
3541.000000 0.5642 0.5642 0.5641 0.5640 0.5639
3546.000000 0.5638 0.5636 0.5635 0.5634 0.5633
3551.000000 0.5631 0.5630 0.5629 0.5628 0.5626
3556.000000 0.5625 0.5624 0.5623 0.5621 0.5620
3561.000000 0.5619 0.5618 0.5616 0.5615 0.5612
3566.000000 0.5612 0.5609 0.5607 0.5605 0.5603
3571.000000 0.5600 0.5598 0.5596 0.5594 0.5591
3576.000000 0.5589 0.5586 0.5584 0.5582 0.5580
3581.000000 0.5577 0.5575 0.5573 0.5571 0.5568
3586.000000 0.5566 0.5564 0.5562 0.5559 0.5557
3591.000000 0.5554 0.5552 0.5550 0.5548 0.5545
3596.000000 0.5543 0.5541 0.5540 0.5538 0.5536
3601.000000 0.5534 0.5532 0.5530 0.5528 0.5526
3606.000000 0.5524 0.5522 0.5520 0.5518 0.5516
3611.000000 0.5514 0.5512 0.5510 0.5509 0.5507
3616.000000 0.5505 0.5503 0.5501 0.5499 0.5497
3621.000000 0.5495 0.5493 0.5491 0.5489 0.5487
3626.000000 0.5485 0.5483 0.5482 0.5480 0.5478
3631.000000 0.5476 0.5474 0.5472 0.5470 0.5468
3636.000000 0.5466 0.5462 0.5460 0.5458 0.5456
3641.000000 0.5454 0.5452 0.5449 0.5447 0.5444
3646.000000 0.5442 0.5439 0.5437 0.5434 0.5432
3651.000000 0.5430 0.5428 0.5425 0.5423 0.5420
3656.000000 0.5418 0.5415 0.5412 0.5410 0.5408
3661.000000 0.5405 0.5403 0.5401 0.5399 0.5396
3666.000000 0.5394 0.5391 0.5389 0.5386 0.5384
3671.000000 0.5381 0.5379 0.5377 0.5375 0.5372
3676.000000 0.5370 0.5367 0.5365 0.5362 0.5360
3681.000000 0.5359 0.5357 0.5355 0.5353 0.5350
3686.000000 0.5348 0.5346 0.5344 0.5342 0.5340
3691.000000 0.5338 0.5336 0.5333 0.5331 0.5329
3696.000000 0.5327 0.5325 0.5323 0.5321 0.5319
3701.000000 0.5316 0.5314 0.5312 0.5310 0.5308
3706.000000 0.5306 0.5304 0.5302 0.5299 0.5297
3711.000000 0.5295 0.5294 0.5293 0.5292 0.5290
3716.000000 0.5289 0.5288 0.5287 0.5286 0.5285
3721.000000 0.5283 0.5282 0.5281 0.5280 0.5278
3726.000000 0.5277 0.5276 0.5275 0.5273 0.5272
3731.000000 0.5271 0.5270 0.5268 0.5267 0.5266
3736.000000 0.5265 0.5262 0.5262 0.5260 0.5260
3741.000000 0.5259 0.5258 0.5256 0.5255 0.5254
3746.000000 0.5253 0.5251 0.5250 0.5249 0.5248
3751.000000 0.5247 0.5246 0.5244 0.5243 0.5242
3756.000000 0.5241 0.5240 0.5239 0.5237 0.5236
3761.000000 0.5235 0.5234 0.5233 0.5232 0.5230
3766.000000 0.5229 0.5228 0.5227 0.5226 0.5225
3771.000000 0.5223 0.5222 0.5221 0.5220 0.5219
3776.000000 0.5202 0.5216 0.5215 0.5214 0.5212
3781.000000 0.5212 0.5210 0.5209 0.5208 0.5208
3786.000000 0.5208
##END=
