##TITLE=ISOSEMICARBAZIDE, 3-(9H-PURIN-6-YL)-3-THIO-
##JCAMP-DX=4.24
##DATA TYPE=INFRARED SPECTRUM
##CLASS=COBLENTZ III
##ORIGIN=SOUTHERN RESEARCH INSTITUTE
##OWNER=COBLENTZ SOCIETY
Collection (C) 2018 copyright by the U.S. Secretary of Commerce
on behalf of the United States of America. All rights reserved.
##DATE=1959/06/16
##NAMES=9H-purin-6-yl hydrazonothiocarbamate
##MOLFORM=C6 H7 N7 S
##SOURCE REFERENCE=COBLENTZ NO. 8032
##$NIST ID=B6008032
##$NIST SOURCE=COBLENTZ
##$NIST IMAGE=cob8032
##SPECTROMETER/DATA SYSTEM=PERKIN-ELMER 21 (GRATING)
##INSTRUMENT PARAMETERS=FILTER CHANGE AT 1090 CM^-^1
##STATE=SOLID (1 mg / 650 mg KBr DISC)
$$SPECTRAL CONTAMINATION DUE TO H2O AROUND 3480 CM^-^1
##SAMPLING PROCEDURE=TRANSMISSION
##RESOLUTION=2
##DATA PROCESSING=DIGITIZED BY NIST FROM HARD COPY (FROM TWO SEGMENTS)
##XUNITS=1/CM
##YUNITS=TRANSMITTANCE
##XFACTOR=1.000000
##YFACTOR=1
##DELTAX=1.298701
##FIRSTX=609.419
##LASTX=4009.42
##FIRSTY=0.663
##MAXX=4009.42
##MINX=609.419
##MAXY=0.891
##MINY=0.069
##NPOINTS=2619
##XYDATA=(X++(Y..Y))
609.419000 0.6630 0.6630 0.6630 0.6620 0.6620
615.912505 0.6611 0.6582 0.6571 0.6570 0.6552
622.406010 0.6550 0.6533 0.6470 0.6460 0.6452
628.899515 0.6426 0.6412 0.6402 0.6369 0.6291
635.393020 0.6247 0.6203 0.6146 0.6101 0.6026
641.886525 0.5944 0.5893 0.5867 0.5860 0.5847
648.380030 0.5853 0.5923 0.6046 0.6233 0.6468
654.873535 0.6680 0.6805 0.6917 0.7029 0.7096
661.367040 0.7146 0.7170 0.7170 0.7155 0.7102
667.860545 0.7028 0.6932 0.6838 0.6806 0.6800
674.354050 0.6800 0.6800 0.6800 0.6811 0.6837
680.847555 0.6853 0.6873 0.6935 0.7098 0.7343
687.341060 0.7475 0.7556 0.7608 0.7630 0.7630
693.834565 0.7630 0.7624 0.7598 0.7588 0.7580
700.328070 0.7580 0.7575 0.7549 0.7537 0.7519
706.821575 0.7505 0.7457 0.7429 0.7417 0.7377
713.315080 0.7316 0.7228 0.7159 0.7120 0.7100
719.808585 0.7100 0.7081 0.7080 0.7071 0.7070
726.302090 0.7052 0.7032 0.7021 0.6993 0.6972
732.795595 0.6935 0.6870 0.6801 0.6732 0.6712
739.289100 0.6702 0.6668 0.6644 0.6571 0.6337
745.782605 0.6218 0.5995 0.5740 0.5479 0.5205
752.276110 0.5011 0.4859 0.4717 0.4566 0.4491
758.769615 0.4493 0.4506 0.4534 0.4574 0.4613
765.263120 0.4653 0.4681 0.4810 0.5006 0.5173
771.756625 0.5418 0.5768 0.6071 0.6223 0.6269
778.250130 0.6298 0.6324 0.6330 0.6330 0.6326
784.743635 0.6304 0.6276 0.6266 0.6253 0.6240
791.237140 0.6237 0.6198 0.6105 0.6035 0.5994
797.730645 0.5907 0.5710 0.5720 0.5787 0.5921
804.224150 0.5991 0.6135 0.6248 0.6280 0.6280
810.717655 0.6280 0.6283 0.6303 0.6321 0.6330
817.211160 0.6333 0.6364 0.6423 0.6465 0.6550
823.704665 0.6550 0.6550 0.6550 0.6540 0.6540
830.198170 0.6530 0.6520 0.6520 0.6520 0.6520
836.691675 0.6520 0.6520 0.6520 0.6520 0.6529
843.185180 0.6564 0.6620 0.6672 0.6696 0.6708
849.678685 0.6726 0.6761 0.6839 0.6913 0.6945
856.172190 0.6994 0.7017 0.7027 0.7044 0.7050
862.665695 0.7050 0.7050 0.7050 0.7050 0.7056
869.159200 0.7060 0.7060 0.7060 0.7066 0.7070
875.652705 0.7070 0.7070 0.7070 0.7070 0.7075
882.146210 0.7080 0.7090 0.7100 0.7105 0.7110
888.639715 0.7114 0.7120 0.7128 0.7140 0.7144
895.133220 0.7154 0.7164 0.7177 0.7193 0.7203
901.626725 0.7216 0.7233 0.7240 0.7262 0.7331
908.120230 0.7365 0.7397 0.7459 0.7497 0.7586
914.613735 0.7846 0.7910 0.7913 0.7932 0.7939
921.107240 0.7926 0.7899 0.7886 0.7848 0.7823
927.600745 0.7758 0.7739 0.7714 0.7605 0.7484
934.094250 0.7286 0.7069 0.6812 0.6711 0.6310
940.587755 0.6117 0.5958 0.5791 0.5614 0.5582
947.081260 0.5598 0.5724 0.5862 0.6106 0.6491
953.574765 0.6702 0.6780 0.7158 0.7409 0.7783
960.068270 0.7925 0.8001 0.8073 0.8180 0.8254
966.561775 0.8270 0.8284 0.8297 0.8307 0.8310
973.055280 0.8323 0.8336 0.8340 0.8334 0.8330
979.548785 0.8330 0.8330 0.8330 0.8307 0.8279
986.042290 0.8265 0.8255 0.8250 0.8250 0.8250
992.535795 0.8245 0.8226 0.8205 0.8187 0.8161
999.029300 0.8150 0.8134 0.8102 0.8086 0.8069
1005.522805 0.8046 0.8026 0.7986 0.7944 0.7904
1012.016310 0.7866 0.7801 0.7769 0.7735 0.7712
1018.509815 0.7688 0.7668 0.7626 0.7606 0.7588
1025.003320 0.7580 0.7582 0.7590 0.7590 0.7590
1031.496825 0.7591 0.7600 0.7600 0.7600 0.7600
1037.990330 0.7600 0.7600 0.7600 0.7612 0.7690
1044.483835 0.7690 0.7690 0.7690 0.7690 0.7690
1050.977340 0.7681 0.7671 0.7652 0.7641 0.7604
1057.470845 0.7564 0.7551 0.7541 0.7549 0.7516
1063.964350 0.7402 0.7307 0.7210 0.7127 0.7039
1070.457855 0.6958 0.6864 0.6691 0.6508 0.6330
1076.951360 0.5926 0.5759 0.5750 0.5750 0.5750
1083.444865 0.5770 0.5793 0.5813 0.5875 0.5940
1089.938370 0.5972 0.6038 0.6114 0.6168 0.6195
1096.431875 0.6211 0.6241 0.6270 0.6295 0.6339
1102.925380 0.6412 0.6478 0.6513 0.6534 0.6544
1109.418885 0.6550 0.6550 0.6550 0.6550 0.6546
1115.912390 0.6536 0.6516 0.6487 0.6458 0.6395
1122.405895 0.6357 0.6344 0.6338 0.6363 0.6380
1128.899400 0.6426 0.6489 0.6535 0.6617 0.6754
1135.392905 0.6872 0.6940 0.6995 0.7021 0.7033
1141.886410 0.7050 0.7050 0.7050 0.7050 0.7050
1148.379915 0.7050 0.7050 0.7050 0.7050 0.7030
1154.873420 0.7030 0.7020 0.7020 0.6953 0.6931
1161.366925 0.6921 0.6883 0.6843 0.6768 0.6707
1167.860430 0.6674 0.6592 0.6546 0.6465 0.6425
1174.353935 0.6379 0.6321 0.6270 0.6237 0.6184
1180.847440 0.6087 0.5948 0.5713 0.5503 0.5323
1187.340945 0.5179 0.5016 0.4723 0.4597 0.4597
1193.834450 0.4689 0.4877 0.5003 0.5096 0.5240
1200.327955 0.5507 0.5713 0.5833 0.5972 0.6120
1206.821460 0.6247 0.6346 0.6415 0.6464 0.6513
1213.314965 0.6545 0.6550 0.6546 0.6523 0.6496
1219.808470 0.6470 0.6432 0.6409 0.6379 0.6343
1226.301975 0.6293 0.6240 0.6190 0.6164 0.6118
1232.795480 0.6003 0.5870 0.5722 0.5598 0.5521
1239.288985 0.5351 0.5165 0.4918 0.4507 0.4082
1245.782490 0.3755 0.3734 0.3778 0.3907 0.4053
1252.275995 0.4261 0.4469 0.4665 0.4832 0.4862
1258.769500 0.4900 0.4900 0.4900 0.4890 0.4850
1265.263005 0.4791 0.4731 0.4672 0.4575 0.4551
1271.756510 0.4199 0.4115 0.4047 0.3996 0.3938
1278.250015 0.3827 0.3793 0.3798 0.3817 0.3845
1284.743520 0.3858 0.3884 0.3898 0.3923 0.3938
1291.237025 0.3962 0.3977 0.3980 0.3980 0.3980
1297.730530 0.3973 0.3856 0.3747 0.3662 0.3573
1304.224035 0.3521 0.3522 0.3572 0.3647 0.3814
1310.717540 0.4007 0.4169 0.4300 0.4361 0.4370
1317.211045 0.4355 0.4335 0.4272 0.3769 0.3262
1323.704550 0.3222 0.3143 0.2931 0.2728 0.2714
1330.198055 0.2758 0.3030 0.3542 0.4044 0.4542
1336.691560 0.4766 0.4930 0.5217 0.5556 0.5653
1343.185065 0.5780 0.5921 0.6022 0.6069 0.6100
1349.678570 0.6100 0.6098 0.6084 0.6058 0.6045
1356.172075 0.6013 0.5965 0.5927 0.5910 0.5911
1362.665580 0.5923 0.5952 0.5983 0.6024 0.6091
1369.159085 0.6111 0.6130 0.6150 0.6180 0.6200
1375.652590 0.6200 0.6200 0.6200 0.6181 0.6134
1382.146095 0.6057 0.5898 0.5666 0.5587 0.5571
1388.639600 0.5536 0.5488 0.5372 0.5285 0.5254
1395.133105 0.4950 0.4699 0.4550 0.4467 0.4398
1401.626610 0.4277 0.4124 0.3895 0.3646 0.3378
1408.120115 0.3277 0.3270 0.3277 0.3299 0.3323
1414.613620 0.3539 0.3905 0.4166 0.4367 0.4590
1421.107125 0.4806 0.4943 0.5065 0.5339 0.5546
1427.600630 0.5585 0.5605 0.5610 0.5610 0.5610
1434.094135 0.5588 0.5547 0.5522 0.5502 0.5482
1440.587640 0.5459 0.5433 0.5406 0.5353 0.5267
1447.081145 0.5178 0.5130 0.5121 0.5094 0.5072
1453.574650 0.5034 0.4970 0.4870 0.4729 0.4678
1460.068155 0.4622 0.4570 0.4427 0.4074 0.3578
1466.561660 0.3509 0.3492 0.3431 0.3352 0.3272
1473.055165 0.3183 0.3098 0.3071 0.3092 0.3135
1479.548670 0.3281 0.3331 0.3400 0.3547 0.3802
1486.042175 0.3896 0.3976 0.4055 0.4162 0.4252
1492.535680 0.4323 0.4446 0.4556 0.4605 0.4636
1499.029185 0.4682 0.4723 0.4771 0.4837 0.4890
1505.522690 0.4931 0.4940 0.4940 0.4925 0.4913
1512.016195 0.4903 0.4893 0.4869 0.4860 0.4860
1518.509700 0.4853 0.4837 0.4830 0.4830 0.4830
1525.003205 0.4830 0.4842 0.4856 0.4866 0.4870
1531.496710 0.4886 0.4911 0.4941 0.5021 0.5090
1537.990215 0.5114 0.5135 0.5154 0.5183 0.5204
1544.483720 0.5219 0.5242 0.5272 0.5294 0.5300
1550.977225 0.5296 0.5283 0.5270 0.5263 0.5240
1557.470730 0.5214 0.5194 0.5152 0.5045 0.4873
1563.964235 0.4606 0.4461 0.4430 0.4428 0.4412
1570.457740 0.4355 0.4217 0.4026 0.3823 0.3652
1576.951245 0.3535 0.3494 0.3408 0.2984 0.2528
1583.444750 0.1723 0.1621 0.1462 0.1283 0.1080
1589.938255 0.1070 0.1080 0.1090 0.1109 0.1158
1596.431760 0.1208 0.1257 0.1306 0.1401 0.1419
1602.925265 0.1420 0.1394 0.1373 0.1234 0.1168
1609.418770 0.1093 0.1006 0.0893 0.0783 0.0729
1615.912275 0.0712 0.0695 0.0690 0.0690 0.0690
1622.405780 0.0690 0.0704 0.0772 0.0807 0.0956
1628.899285 0.1088 0.1152 0.1220 0.1348 0.1482
1635.392790 0.1578 0.1802 0.2133 0.2513 0.2841
1641.886295 0.3225 0.3579 0.3801 0.4028 0.4247
1648.379800 0.4450 0.4652 0.4841 0.5019 0.5196
1654.873305 0.5427 0.5666 0.5765 0.5805 0.5834
1661.366810 0.5865 0.5931 0.6013 0.6122 0.6200
1667.860315 0.6308 0.6434 0.6544 0.6613 0.6664
1674.353820 0.6828 0.6927 0.6963 0.7014 0.7045
1680.847325 0.7134 0.7272 0.7412 0.7552 0.7655
1687.340830 0.7849 0.7998 0.8076 0.8134 0.8180
1693.834335 0.8181 0.8202 0.8251 0.8271 0.8340
1700.327840 0.8350 0.8380 0.8419 0.8439 0.8440
1706.821345 0.8459 0.8469 0.8470 0.8461 0.8460
1713.314850 0.8460 0.8460 0.8469 0.8478 0.8488
1719.808355 0.8490 0.8506 0.8510 0.8518 0.8528
1726.301860 0.8530 0.8530 0.8523 0.8520 0.8499
1732.795365 0.8476 0.8470 0.8470 0.8463 0.8460
1739.288870 0.8460 0.8466 0.8476 0.8510 0.8554
1745.782375 0.8587 0.8606 0.8616 0.8620 0.8631
1752.275880 0.8645 0.8665 0.8695 0.8739 0.8770
1758.769385 0.8775 0.8784 0.8790 0.8790 0.8790
1765.262890 0.8790 0.8790 0.8786 0.8769 0.8746
1771.756395 0.8740 0.8750 0.8770 0.8776 0.8793
1778.249900 0.8806 0.8823 0.8833 0.8840 0.8845
1784.743405 0.8860 0.8862 0.8870 0.8870 0.8872
1791.236910 0.8880 0.8880 0.8883 0.8900 0.8901
1797.730415 0.8910 0.8910 0.8910 0.8910 0.8910
1804.223920 0.8910 0.8910 0.8910 0.8910 0.8910
1810.717425 0.8910 0.8910 0.8910 0.8910 0.8910
1817.210930 0.8910 0.8910 0.8910 0.8910 0.8910
1823.704435 0.8910 0.8910 0.8910 0.8910 0.8902
1830.197940 0.8900 0.8900 0.8900 0.8885 0.8880
1836.691445 0.8880 0.8880 0.8880 0.8880 0.8880
1843.184950 0.8880 0.8873 0.8870 0.8870 0.8870
1849.678455 0.8870 0.8864 0.8860 0.8860 0.8860
1856.171960 0.8860 0.8860 0.8860 0.8860 0.8860
1862.665465 0.8860 0.8860 0.8850 0.8840 0.8840
1869.158970 0.8840 0.8840 0.8840 0.8840 0.8840
1875.652475 0.8836 0.8830 0.8830 0.8830 0.8827
1882.145980 0.8820 0.8820 0.8820 0.8814 0.8800
1888.639485 0.8800 0.8797 0.8790 0.8790 0.8788
1895.132990 0.8780 0.8778 0.8770 0.8770 0.8770
1901.626495 0.8770 0.8770 0.8770 0.8770 0.8770
1908.120000 0.8770 0.8771 0.8780 0.8780 0.8780
1914.613505 0.8790 0.8790 0.8790 0.8800 0.8800
1921.107010 0.8800 0.8819 0.8820 0.8820 0.8820
1927.600515 0.8829 0.8830 0.8830 0.8830 0.8830
1934.094020 0.8838 0.8840 0.8840 0.8840 0.8840
1940.587525 0.8856 0.8860 0.8860 0.8860 0.8860
1947.081030 0.8860 0.8860 0.8860 0.8860 0.8860
1953.574535 0.8860 0.8860 0.8860 0.8860 0.8860
1960.068040 0.8860 0.8860 0.8848 0.8840 0.8840
1966.561545 0.8840 0.8840 0.8840 0.8840 0.8840
1973.055050 0.8840 0.8835 0.8830 0.8830 0.8830
1979.548555 0.8830 0.8830 0.8830 0.8830 0.8830
1986.042060 0.8830 0.8830 0.8830 0.8830 0.8830
1992.535565 0.8830 0.8827 0.8820 0.8820 0.8820
1999.029070 0.8812 0.8790 0.8790 0.8787 0.8782
2005.522575 0.8790 0.8788 0.8780 0.8780 0.8778
2012.016080 0.8770 0.8770 0.8765 0.8747 0.8740
2018.509585 0.8740 0.8738 0.8730 0.8730 0.8730
2025.003090 0.8730 0.8730 0.8730 0.8730 0.8730
2031.496595 0.8730 0.8730 0.8730 0.8730 0.8730
2037.990100 0.8730 0.8730 0.8730 0.8730 0.8730
2044.483605 0.8725 0.8710 0.8708 0.8700 0.8695
2050.977110 0.8680 0.8680 0.8680 0.8675 0.8660
2057.470615 0.8660 0.8658 0.8650 0.8650 0.8650
2063.964120 0.8650 0.8650 0.8650 0.8650 0.8650
2070.457625 0.8650 0.8648 0.8640 0.8640 0.8640
2076.951130 0.8635 0.8620 0.8620 0.8620 0.8620
2083.444635 0.8620 0.8618 0.8610 0.8608 0.8600
2089.938140 0.8595 0.8580 0.8577 0.8570 0.8570
2096.431645 0.8570 0.8570 0.8570 0.8572 0.8585
2102.925150 0.8600 0.8600 0.8600 0.8600 0.8600
2109.418655 0.8600 0.8595 0.8580 0.8580 0.8573
2115.912160 0.8545 0.8530 0.8530 0.8530 0.8535
2122.405665 0.8562 0.8600 0.8600 0.8602 0.8610
2128.899170 0.8610 0.8610 0.8610 0.8610 0.8608
2135.392675 0.8595 0.8580 0.8580 0.8580 0.8578
2141.886180 0.8570 0.8570 0.8570 0.8567 0.8560
2148.379685 0.8560 0.8558 0.8550 0.8545 0.8530
2154.873190 0.8530 0.8530 0.8527 0.8520 0.8520
2161.366695 0.8520 0.8518 0.8510 0.8510 0.8510
2167.860200 0.8505 0.8487 0.8480 0.8480 0.8480
2174.353705 0.8480 0.8480 0.8478 0.8470 0.8470
2180.847210 0.8470 0.8470 0.8467 0.8460 0.8460
2187.340715 0.8460 0.8460 0.8455 0.8440 0.8440
2193.834220 0.8440 0.8437 0.8430 0.8430 0.8430
2200.327725 0.8428 0.8420 0.8420 0.8415 0.8400
2206.821230 0.8400 0.8397 0.8390 0.8390 0.8388
2213.314735 0.8375 0.8360 0.8360 0.8360 0.8360
2219.808240 0.8358 0.8350 0.8350 0.8347 0.8340
2226.301745 0.8340 0.8340 0.8340 0.8340 0.8340
2232.795250 0.8340 0.8337 0.8330 0.8330 0.8330
2239.288755 0.8325 0.8310 0.8308 0.8298 0.8283
2245.782260 0.8258 0.8250 0.8250 0.8250 0.8250
2252.275765 0.8250 0.8250 0.8250 0.8250 0.8250
2258.769270 0.8250 0.8250 0.8250 0.8250 0.8250
2265.262775 0.8250 0.8250 0.8250 0.8250 0.8248
2271.756280 0.8240 0.8240 0.8235 0.8220 0.8220
2278.249785 0.8217 0.8210 0.8210 0.8208 0.8200
2284.743290 0.8190 0.8160 0.8160 0.8157 0.8145
2291.236795 0.8127 0.8118 0.8103 0.8078 0.8065
2297.730300 0.8048 0.8037 0.8022 0.7995 0.7972
2304.223805 0.7945 0.7923 0.7893 0.7860 0.7825
2310.717310 0.7803 0.7770 0.7735 0.7720 0.7720
2317.210815 0.7718 0.7710 0.7705 0.7690 0.7690
2323.704320 0.7690 0.7690 0.7690 0.7690 0.7690
2330.197825 0.7690 0.7690 0.7690 0.7690 0.7690
2336.691330 0.7690 0.7690 0.7690 0.7690 0.7690
2343.184835 0.7695 0.7710 0.7710 0.7710 0.7710
2349.678340 0.7710 0.7710 0.7710 0.7710 0.7710
2356.171845 0.7710 0.7710 0.7710 0.7710 0.7710
2362.665350 0.7710 0.7710 0.7710 0.7710 0.7710
2369.158855 0.7710 0.7710 0.7710 0.7710 0.7710
2375.652360 0.7710 0.7710 0.7710 0.7710 0.7710
2382.145865 0.7710 0.7710 0.7705 0.7690 0.7690
2388.639370 0.7690 0.7687 0.7680 0.7680 0.7680
2395.132875 0.7678 0.7670 0.7670 0.7665 0.7650
2401.626380 0.7648 0.7643 0.7647 0.7637 0.7630
2408.119885 0.7625 0.7608 0.7600 0.7598 0.7590
2414.613390 0.7588 0.7575 0.7560 0.7557 0.7547
2421.106895 0.7540 0.7533 0.7510 0.7508 0.7500
2427.600400 0.7498 0.7485 0.7470 0.7468 0.7460
2434.093905 0.7458 0.7445 0.7430 0.7428 0.7420
2440.587410 0.7418 0.7405 0.7390 0.7387 0.7370
2447.080915 0.7340 0.7330 0.7300 0.7298 0.7285
2453.574420 0.7263 0.7237 0.7222 0.7200 0.7200
2460.067925 0.7200 0.7198 0.7190 0.7190 0.7190
2466.561430 0.7185 0.7170 0.7167 0.7160 0.7157
2473.054935 0.7150 0.7148 0.7135 0.7115 0.7095
2479.548440 0.7080 0.7077 0.7067 0.7060 0.7057
2486.041945 0.7045 0.7030 0.7028 0.7020 0.7018
2492.535450 0.7005 0.6990 0.6987 0.6967 0.6927
2499.028955 0.6913 0.6888 0.6880 0.6875 0.6855
2505.522460 0.6833 0.6805 0.6782 0.6752 0.6727
2512.015965 0.6720 0.6720 0.6718 0.6710 0.6710
2518.509470 0.6708 0.6695 0.6680 0.6680 0.6680
2525.002975 0.6680 0.6680 0.6680 0.6678 0.6670
2531.496480 0.6670 0.6670 0.6670 0.6670 0.6670
2537.989985 0.6670 0.6670 0.6672 0.6685 0.6702
2544.483490 0.6710 0.6710 0.6710 0.6710 0.6708
2550.976995 0.6690 0.6653 0.6630 0.6630 0.6628
2557.470500 0.6620 0.6617 0.6605 0.6588 0.6578
2563.964005 0.6563 0.6540 0.6538 0.6528 0.6503
2570.457510 0.6443 0.6417 0.6410 0.6410 0.6407
2576.951015 0.6400 0.6400 0.6398 0.6385 0.6370
2583.444520 0.6368 0.6360 0.6357 0.6340 0.6298
2589.938025 0.6245 0.6193 0.6163 0.6138 0.6125
2596.431530 0.6110 0.6107 0.6097 0.6082 0.6055
2602.925035 0.6025 0.5980 0.5978 0.5968 0.5953
2609.418540 0.5928 0.5917 0.5905 0.5887 0.5877
2615.912045 0.5868 0.5855 0.5838 0.5828 0.5815
2622.405550 0.5798 0.5787 0.5772 0.5745 0.5710
2628.899055 0.5648 0.5623 0.5570 0.5563 0.5538
2635.392560 0.5528 0.5512 0.5485 0.5462 0.5435
2641.886065 0.5413 0.5388 0.5380 0.5380 0.5380
2648.379570 0.5375 0.5357 0.5350 0.5350 0.5350
2654.873075 0.5348 0.5340 0.5335 0.5320 0.5320
2661.366580 0.5320 0.5317 0.5310 0.5310 0.5308
2667.860085 0.5290 0.5240 0.5158 0.5088 0.5078
2674.353590 0.5063 0.5032 0.5007 0.4990 0.4955
2680.847095 0.4923 0.4865 0.4850 0.4850 0.4845
2687.340600 0.4828 0.4817 0.4802 0.4775 0.4760
2693.834105 0.4755 0.4735 0.4715 0.4695 0.4678
2700.327610 0.4663 0.4637 0.4625 0.4607 0.4600
2706.821115 0.4598 0.4590 0.4585 0.4568 0.4560
2713.314620 0.4558 0.4550 0.4547 0.4535 0.4520
2719.808125 0.4510 0.4468 0.4408 0.4338 0.4330
2726.301630 0.4330 0.4327 0.4305 0.4255 0.4238
2732.795135 0.4223 0.4190 0.4160 0.4153 0.4125
2739.288640 0.4100 0.4067 0.4055 0.4032 0.4002
2745.782145 0.3978 0.3955 0.3895 0.3820 0.3720
2752.275650 0.3685 0.3667 0.3652 0.3622 0.3595
2758.769155 0.3573 0.3548 0.3533 0.3508 0.3493
2765.262660 0.3468 0.3460 0.3455 0.3425 0.3375
2771.756165 0.3358 0.3345 0.3325 0.3298 0.3253
2778.249670 0.3223 0.3197 0.3187 0.3175 0.3160
2784.743175 0.3165 0.3180 0.3182 0.3197 0.3230
2791.236680 0.3262 0.3273 0.3280 0.3283 0.3300
2797.730185 0.3335 0.3362 0.3405 0.3420 0.3425
2804.223690 0.3440 0.3440 0.3440 0.3440 0.3440
2810.717195 0.3435 0.3418 0.3410 0.3410 0.3408
2817.210700 0.3400 0.3392 0.3370 0.3367 0.3360
2823.704205 0.3360 0.3353 0.3325 0.3303 0.3275
2830.197710 0.3255 0.3237 0.3230 0.3222 0.3195
2836.691215 0.3175 0.3160 0.3160 0.3158 0.3148
2843.184720 0.3133 0.3105 0.3082 0.3055 0.3033
2849.678225 0.3003 0.2978 0.2970 0.2968 0.2960
2856.171730 0.2955 0.2937 0.2927 0.2917 0.2903
2862.665235 0.2880 0.2880 0.2880 0.2880 0.2880
2869.158740 0.2878 0.2870 0.2870 0.2870 0.2865
2875.652245 0.2850 0.2850 0.2850 0.2850 0.2850
2882.145750 0.2848 0.2840 0.2840 0.2840 0.2838
2888.639255 0.2830 0.2828 0.2815 0.2800 0.2798
2895.132760 0.2788 0.2775 0.2757 0.2742 0.2712
2901.626265 0.2685 0.2665 0.2640 0.2603 0.2575
2908.119770 0.2553 0.2522 0.2497 0.2485 0.2470
2914.613275 0.2465 0.2450 0.2450 0.2450 0.2450
2921.106780 0.2450 0.2450 0.2450 0.2450 0.2450
2927.600285 0.2450 0.2450 0.2450 0.2450 0.2450
2934.093790 0.2450 0.2450 0.2455 0.2470 0.2473
2940.587295 0.2480 0.2480 0.2482 0.2490 0.2490
2947.080800 0.2492 0.2500 0.2500 0.2505 0.2520
2953.574305 0.2522 0.2530 0.2532 0.2540 0.2545
2960.067810 0.2562 0.2570 0.2573 0.2585 0.2600
2966.561315 0.2602 0.2610 0.2612 0.2622 0.2635
2973.054820 0.2650 0.2653 0.2663 0.2675 0.2690
2979.548325 0.2692 0.2702 0.2712 0.2720 0.2725
2986.041830 0.2742 0.2750 0.2750 0.2750 0.2750
2992.535335 0.2750 0.2750 0.2750 0.2750 0.2750
2999.028840 0.2750 0.2750 0.2750 0.2747 0.2740
3005.522345 0.2740 0.2735 0.2720 0.2718 0.2708
3012.015850 0.2698 0.2685 0.2667 0.2657 0.2642
3018.509355 0.2620 0.2618 0.2610 0.2608 0.2600
3025.002860 0.2593 0.2567 0.2555 0.2537 0.2523
3031.496365 0.2498 0.2490 0.2490 0.2490 0.2490
3037.989870 0.2490 0.2490 0.2487 0.2480 0.2480
3044.483375 0.2480 0.2478 0.2470 0.2470 0.2465
3050.976880 0.2450 0.2447 0.2437 0.2430 0.2422
3057.470385 0.2400 0.2398 0.2383 0.2360 0.2360
3063.963890 0.2360 0.2360 0.2357 0.2350 0.2350
3070.457395 0.2348 0.2340 0.2340 0.2340 0.2335
3076.950900 0.2320 0.2320 0.2317 0.2310 0.2308
3083.444405 0.2295 0.2265 0.2213 0.2190 0.2188
3089.937910 0.2178 0.2170 0.2170 0.2170 0.2170
3096.431415 0.2170 0.2170 0.2170 0.2172 0.2178
3102.924920 0.2170 0.2170 0.2170 0.2167 0.2155
3109.418425 0.2140 0.2138 0.2130 0.2132 0.2145
3115.911930 0.2162 0.2170 0.2167 0.2160 0.2160
3122.405435 0.2155 0.2140 0.2138 0.2130 0.2130
3128.898940 0.2132 0.2140 0.2140 0.2137 0.2133
3135.392445 0.2140 0.2145 0.2160 0.2162 0.2170
3141.885950 0.2172 0.2188 0.2213 0.2223 0.2235
3148.379455 0.2255 0.2272 0.2285 0.2305 0.2325
3154.872960 0.2342 0.2358 0.2383 0.2395 0.2415
3161.366465 0.2435 0.2455 0.2475 0.2492 0.2507
3167.859970 0.2537 0.2565 0.2590 0.2630 0.2668
3174.353475 0.2692 0.2702 0.2717 0.2742 0.2757
3180.846980 0.2785 0.2800 0.2805 0.2823 0.2833
3187.340485 0.2840 0.2842 0.2850 0.2855 0.2870
3193.833990 0.2870 0.2873 0.2880 0.2880 0.2883
3200.327495 0.2890 0.2895 0.2912 0.2922 0.2932
3206.821000 0.2945 0.2963 0.2973 0.2985 0.3003
3213.314505 0.3013 0.3020 0.3025 0.3042 0.3050
3219.808010 0.3052 0.3063 0.3070 0.3075 0.3093
3226.301515 0.3100 0.3102 0.3115 0.3130 0.3132
3232.795020 0.3140 0.3143 0.3153 0.3165 0.3183
3239.288525 0.3193 0.3205 0.3222 0.3237 0.3262
3245.782030 0.3275 0.3298 0.3328 0.3355 0.3378
3252.275535 0.3410 0.3442 0.3455 0.3477 0.3502
3258.769040 0.3517 0.3548 0.3573 0.3585 0.3605
3265.262545 0.3625 0.3647 0.3675 0.3697 0.3727
3271.756050 0.3755 0.3778 0.3803 0.3830 0.3900
3278.249555 0.3940 0.3980 0.4015 0.4032 0.4045
3284.743060 0.4065 0.4088 0.4113 0.4128 0.4153
3291.236565 0.4167 0.4192 0.4202 0.4215 0.4232
3297.730070 0.4242 0.4253 0.4268 0.4290 0.4298
3304.223575 0.4323 0.4332 0.4347 0.4372 0.4382
3310.717080 0.4395 0.4415 0.4438 0.4470 0.4502
3317.210585 0.4512 0.4525 0.4542 0.4552 0.4562
3323.704090 0.4575 0.4590 0.4593 0.4600 0.4602
3330.197595 0.4610 0.4615 0.4630 0.4632 0.4640
3336.691100 0.4640 0.4640 0.4640 0.4640 0.4640
3343.184605 0.4640 0.4640 0.4640 0.4638 0.4630
3349.678110 0.4630 0.4630 0.4630 0.4630 0.4625
3356.171615 0.4610 0.4610 0.4610 0.4608 0.4600
3362.665120 0.4600 0.4600 0.4600 0.4600 0.4600
3369.158625 0.4600 0.4600 0.4600 0.4602 0.4610
3375.652130 0.4610 0.4615 0.4630 0.4630 0.4633
3382.145635 0.4640 0.4640 0.4642 0.4650 0.4650
3388.639140 0.4655 0.4670 0.4670 0.4673 0.4680
3395.132645 0.4683 0.4690 0.4690 0.4697 0.4722
3401.626150 0.4732 0.4748 0.4773 0.4788 0.4813
3408.119655 0.4823 0.4835 0.4852 0.4867 0.4892
3414.613160 0.4902 0.4918 0.4943 0.4953 0.4965
3421.106665 0.4985 0.5002 0.5017 0.5042 0.5055
3427.600170 0.5075 0.5093 0.5105 0.5125 0.5145
3434.093675 0.5162 0.5180 0.5215 0.5237 0.5270
3440.587180 0.5305 0.5328 0.5350 0.5360 0.5393
3447.080685 0.5405 0.5422 0.5440 0.5470 0.5472
3453.574190 0.5480 0.5480 0.5480 0.5480 0.5480
3460.067695 0.5480 0.5478 0.5470 0.5465 0.5448
3466.561200 0.5440 0.5440 0.5440 0.5440 0.5440
3473.054705 0.5438 0.5430 0.5430 0.5430 0.5430
3479.548210 0.5430 0.5430 0.5430 0.5430 0.5435
3486.041715 0.5457 0.5487 0.5512 0.5535 0.5597
3492.535220 0.5665 0.5730 0.5808 0.5875 0.5940
3499.028725 0.6015 0.6077 0.6145 0.6207 0.6272
3505.522230 0.6322 0.6395 0.6505 0.6528 0.6558
3512.015735 0.6587 0.6615 0.6637 0.6665 0.6687
3518.509240 0.6712 0.6738 0.6803 0.6850 0.6880
3525.002745 0.6883 0.6890 0.6892 0.6900 0.6900
3531.496250 0.6905 0.6923 0.6933 0.6948 0.6980
3537.989755 0.7012 0.7027 0.7052 0.7065 0.7085
3544.483260 0.7105 0.7125 0.7145 0.7163 0.7175
3550.976765 0.7200 0.7242 0.7280 0.7285 0.7307
3557.470270 0.7330 0.7333 0.7348 0.7375 0.7395
3563.963775 0.7412 0.7422 0.7435 0.7452 0.7462
3570.457280 0.7475 0.7493 0.7505 0.7525 0.7542
3576.950785 0.7552 0.7565 0.7582 0.7592 0.7602
3583.444290 0.7617 0.7648 0.7675 0.7695 0.7722
3589.937795 0.7765 0.7785 0.7802 0.7815 0.7840
3596.431300 0.7885 0.7930 0.7933 0.7943 0.7953
3602.924805 0.7965 0.7982 0.7992 0.8000 0.8005
3609.418310 0.8020 0.8023 0.8030 0.8033 0.8040
3615.911815 0.8042 0.8050 0.8055 0.8072 0.8080
3622.405320 0.8082 0.8095 0.8113 0.8123 0.8135
3628.898825 0.8152 0.8162 0.8172 0.8180 0.8185
3635.392330 0.8202 0.8213 0.8225 0.8243 0.8250
3641.885835 0.8252 0.8260 0.8262 0.8270 0.8275
3648.379340 0.8295 0.8315 0.8333 0.8340 0.8340
3654.872845 0.8340 0.8340 0.8340 0.8342 0.8348
3661.366350 0.8340 0.8340 0.8340 0.8340 0.8340
3667.859855 0.8340 0.8340 0.8340 0.8340 0.8338
3674.353360 0.8330 0.8330 0.8325 0.8310 0.8310
3680.846865 0.8308 0.8300 0.8300 0.8298 0.8290
3687.340370 0.8290 0.8290 0.8290 0.8293 0.8303
3693.833875 0.8317 0.8340 0.8340 0.8342 0.8350
3700.327380 0.8350 0.8350 0.8353 0.8360 0.8360
3706.820885 0.8365 0.8375 0.8358 0.8350 0.8350
3713.314390 0.8350 0.8350 0.8350 0.8360 0.8390
3719.807895 0.8390 0.8390 0.8390 0.8390 0.8390
3726.301400 0.8390 0.8387 0.8380 0.8380 0.8380
3732.794905 0.8380 0.8375 0.8358 0.8348 0.8340
3739.288410 0.8340 0.8340 0.8337 0.8325 0.8307
3745.781915 0.8298 0.8290 0.8290 0.8292 0.8298
3752.275420 0.8290 0.8293 0.8300 0.8303 0.8315
3758.768925 0.8330 0.8332 0.8340 0.8340 0.8342
3765.262430 0.8350 0.8350 0.8350 0.8350 0.8350
3771.755935 0.8350 0.8350 0.8350 0.8350 0.8350
3778.249440 0.8350 0.8350 0.8350 0.8350 0.8353
3784.742945 0.8358 0.8350 0.8345 0.8332 0.8338
3791.236450 0.8325 0.8307 0.8300 0.8300 0.8300
3797.729955 0.8300 0.8300 0.8300 0.8300 0.8302
3804.223460 0.8315 0.8333 0.8340 0.8340 0.8340
3810.716965 0.8340 0.8340 0.8340 0.8340 0.8338
3817.210470 0.8330 0.8322 0.8292 0.8265 0.8243
3823.703975 0.8220 0.8220 0.8220 0.8218 0.8210
3830.197480 0.8210 0.8213 0.8217 0.8210 0.8207
3836.690985 0.8200 0.8195 0.8180 0.8178 0.8172
3843.184490 0.8185 0.8200 0.8200 0.8195 0.8177
3849.677995 0.8168 0.8158 0.8150 0.8150 0.8150
3856.171500 0.8150 0.8150 0.8150 0.8150 0.8150
3862.665005 0.8150 0.8150 0.8150 0.8150 0.8165
3869.158510 0.8210 0.8210 0.8207 0.8200 0.8200
3875.652015 0.8200 0.8200 0.8202 0.8210 0.8210
3882.145520 0.8208 0.8200 0.8200 0.8200 0.8195
3888.639025 0.8178 0.8170 0.8168 0.8160 0.8160
3895.132530 0.8160 0.8160 0.8160 0.8160 0.8160
3901.626035 0.8162 0.8170 0.8172 0.8180 0.8180
3908.119540 0.8180 0.8177 0.8167 0.8160 0.8160
3914.613045 0.8160 0.8160 0.8160 0.8160 0.8160
3921.106550 0.8158 0.8150 0.8145 0.8130 0.8130
3927.600055 0.8130 0.8130 0.8130 0.8130 0.8130
3934.093560 0.8130 0.8130 0.8130 0.8130 0.8130
3940.587065 0.8130 0.8130 0.8135 0.8150 0.8150
3947.080570 0.8150 0.8153 0.8160 0.8160 0.8160
3953.574075 0.8160 0.8160 0.8160 0.8158 0.8150
3960.067580 0.8150 0.8150 0.8150 0.8150 0.8150
3966.561085 0.8150 0.8150 0.8152 0.8160 0.8160
3973.054590 0.8160 0.8160 0.8163 0.8170 0.8167
3979.548095 0.8158 0.8150 0.8150 0.8150 0.8150
3986.041600 0.8150 0.8150 0.8150 0.8150 0.8150
3992.535105 0.8152 0.8162 0.8172 0.8180 0.8180
3999.028610 0.8190 0.8228 0.8253 0.8263 0.8275
4005.522115 0.8292 0.8293 0.8275 0.8292
##END=
