##TITLE=Penicillin, o-cyclohexylphenyl-, sodium salt, dihydrate
##JCAMP-DX=4.24
##DATA TYPE=INFRARED SPECTRUM
##CLASS=COBLENTZ III
##ORIGIN=SMITH, KLINE & FRENCH LABS.
##OWNER=Copyright (C) 1987 by the Coblentz Society
Collection (C) 2018 copyright by the U.S. Secretary of Commerce
on behalf of the United States of America. All rights reserved.
##DATE=1962/07/13
##MOLFORM=C21 H25 N2 O4 S Na
##SOURCE REFERENCE=COBLENTZ NO. 9838
##$NIST ID=B6009838
##$NIST SOURCE=COBLENTZ
##$NIST IMAGE=cob9838
##SPECTROMETER/DATA SYSTEM=PERKIN-ELMER 21 (GRATING)
##INSTRUMENT PARAMETERS=NaCl PRISM
##STATE=SOLID (OIL MULL)
$$SPECTRAL CONTAMINATION DUE TO OIL AROUND 2900, 1455, 1370 CM^-^1
##SAMPLING PROCEDURE=TRANSMISSION
##RESOLUTION=2
##DATA PROCESSING=DIGITIZED BY COBLENTZ SOCIETY (BATCH II) FROM HARD COPY
##XUNITS=1/CM
##YUNITS=TRANSMITTANCE
##XFACTOR=1.0
##YFACTOR=1
##FIRSTX=649
##LASTX=4000
##FIRSTY=0.6784
##MAXX=4000
##MINX=649
##MAXY=0.8799
##MINY=0.0691
##NPOINTS=3352
##XYDATA=(X++(Y..Y))
649.000000 0.6784 0.6821 0.6859 0.6927 0.6993
654.000000 0.7011 0.7033 0.7082 0.7133 0.7187
659.000000 0.7246 0.7314 0.7383 0.7380 0.7406
664.000000 0.7428 0.7328 0.7429 0.7480 0.7482
669.000000 0.7398 0.7337 0.7287 0.7237 0.7214
674.000000 0.7209 0.7257 0.7347 0.7433 0.7438
679.000000 0.7424 0.7473 0.7639 0.7584 0.7523
684.000000 0.7530 0.7554 0.7575 0.7602 0.7607
689.000000 0.7589 0.7578 0.7567 0.7619 0.7651
694.000000 0.7663 0.7675 0.7693 0.7693 0.7650
699.000000 0.7597 0.7633 0.7668 0.7704 0.7750
704.000000 0.7711 0.7677 0.7693 0.7716 0.7741
709.000000 0.7742 0.7743 0.7741 0.7756 0.7787
714.000000 0.7801 0.7806 0.7813 0.7821 0.7824
719.000000 0.7810 0.7817 0.7843 0.7844 0.7833
724.000000 0.7811 0.7823 0.7850 0.7875 0.7895
729.000000 0.7904 0.7906 0.7892 0.7872 0.7852
734.000000 0.7828 0.7808 0.7794 0.7767 0.7727
739.000000 0.7671 0.7607 0.7538 0.7465 0.7372
744.000000 0.7293 0.7216 0.7140 0.7028 0.6704
749.000000 0.6184 0.5801 0.5195 0.5012 0.5146
754.000000 0.5243 0.5364 0.5438 0.5483 0.5557
759.000000 0.5696 0.5937 0.6449 0.6716 0.6882
764.000000 0.7052 0.7257 0.7339 0.7410 0.7472
769.000000 0.7544 0.7626 0.7719 0.7828 0.7934
774.000000 0.8053 0.8181 0.8204 0.8226 0.8286
779.000000 0.8363 0.8438 0.8518 0.8588 0.8614
784.000000 0.8624 0.8631 0.8635 0.8640 0.8649
789.000000 0.8663 0.8680 0.8707 0.8735 0.8767
794.000000 0.8799 0.8796 0.8767 0.8752 0.8752
799.000000 0.8766 0.8780 0.8787 0.8785 0.8774
804.000000 0.8756 0.8736 0.8721 0.8712 0.8712
809.000000 0.8713 0.8723 0.8740 0.8780 0.8771
814.000000 0.8722 0.8704 0.8700 0.8713 0.8736
819.000000 0.8760 0.8774 0.8786 0.8795 0.8799
824.000000 0.8798 0.8794 0.8789 0.8790 0.8792
829.000000 0.8790 0.8780 0.8758 0.8737 0.8721
834.000000 0.8708 0.8721 0.8739 0.8754 0.8760
839.000000 0.8751 0.8735 0.8717 0.8697 0.8678
844.000000 0.8665 0.8652 0.8640 0.8621 0.8575
849.000000 0.8495 0.8418 0.8402 0.8399 0.8399
854.000000 0.8403 0.8413 0.8452 0.8521 0.8454
859.000000 0.8393 0.8375 0.8369 0.8382 0.8413
864.000000 0.8451 0.8488 0.8504 0.8503 0.8498
869.000000 0.8487 0.8474 0.8458 0.8440 0.8417
874.000000 0.8390 0.8350 0.8301 0.8228 0.8148
879.000000 0.8075 0.8022 0.7938 0.7644 0.7607
884.000000 0.7625 0.7682 0.7762 0.7774 0.7739
889.000000 0.7703 0.7727 0.7778 0.7849 0.8111
894.000000 0.8354 0.8377 0.8365 0.8381 0.8383
899.000000 0.8386 0.8387 0.8383 0.8381 0.8380
904.000000 0.8381 0.8397 0.8415 0.8438 0.8458
909.000000 0.8448 0.8423 0.8388 0.8350 0.8297
914.000000 0.8236 0.8180 0.8155 0.8146 0.8165
919.000000 0.8206 0.8266 0.8284 0.8290 0.8289
924.000000 0.8285 0.8278 0.8267 0.8240 0.8228
929.000000 0.8248 0.8295 0.8353 0.8361 0.8360
934.000000 0.8292 0.8202 0.8126 0.8056 0.8002
939.000000 0.7963 0.7949 0.7936 0.7930 0.7928
944.000000 0.7924 0.7922 0.7926 0.7930 0.7946
949.000000 0.7968 0.7990 0.8011 0.8025 0.8024
954.000000 0.8013 0.8041 0.8070 0.8056 0.8004
959.000000 0.7961 0.7933 0.7925 0.7926 0.7927
964.000000 0.7928 0.7930 0.7933 0.7935 0.7937
969.000000 0.7936 0.7935 0.7935 0.7934 0.7934
974.000000 0.7936 0.7942 0.7949 0.7989 0.8034
979.000000 0.8082 0.8097 0.8091 0.8003 0.7909
984.000000 0.7866 0.7840 0.7825 0.7818 0.7805
989.000000 0.7789 0.7771 0.7751 0.7739 0.7731
994.000000 0.7726 0.7731 0.7738 0.7748 0.7758
999.000000 0.7762 0.7761 0.7757 0.7726 0.7685
1004.000000 0.7622 0.7543 0.7467 0.7427 0.7408
1009.000000 0.7402 0.7397 0.7392 0.7383 0.7340
1014.000000 0.7293 0.7239 0.7179 0.7107 0.7020
1019.000000 0.6930 0.6820 0.6753 0.6710 0.6688
1024.000000 0.6679 0.6680 0.6678 0.6772 0.6938
1029.000000 0.7111 0.7282 0.7408 0.7498 0.7562
1034.000000 0.7590 0.7558 0.7508 0.7454 0.7408
1039.000000 0.7387 0.7375 0.7378 0.7385 0.7399
1044.000000 0.7430 0.7473 0.7520 0.7555 0.7569
1049.000000 0.7578 0.7561 0.7572 0.7562 0.7550
1054.000000 0.7537 0.7525 0.7511 0.7470 0.7423
1059.000000 0.7421 0.7420 0.7419 0.7417 0.7415
1064.000000 0.7413 0.7410 0.7407 0.7404 0.7400
1069.000000 0.7396 0.7391 0.7388 0.7384 0.7373
1074.000000 0.7363 0.7353 0.7343 0.7333 0.7332
1079.000000 0.7338 0.7343 0.7350 0.7324 0.7256
1084.000000 0.7177 0.7097 0.7026 0.6952 0.6863
1089.000000 0.6782 0.6751 0.6730 0.6699 0.6725
1094.000000 0.6759 0.6806 0.6886 0.7070 0.7225
1099.000000 0.7287 0.7318 0.7321 0.7345 0.7311
1104.000000 0.7306 0.7300 0.7293 0.7285 0.7277
1109.000000 0.7269 0.7216 0.7155 0.7147 0.7144
1114.000000 0.7142 0.7140 0.7108 0.6984 0.6880
1119.000000 0.6799 0.6738 0.6676 0.6594 0.6514
1124.000000 0.6434 0.6347 0.6332 0.6332 0.6570
1129.000000 0.6702 0.6833 0.6964 0.7057 0.7146
1134.000000 0.7184 0.7205 0.7171 0.7108 0.7027
1139.000000 0.7010 0.7004 0.7000 0.6995 0.6852
1144.000000 0.6765 0.6740 0.6734 0.6730 0.6714
1149.000000 0.6629 0.6537 0.6492 0.6485 0.6479
1154.000000 0.6478 0.6619 0.6747 0.6825 0.6899
1159.000000 0.6961 0.7013 0.7091 0.7186 0.7236
1164.000000 0.7275 0.7311 0.7334 0.7355 0.7430
1169.000000 0.7379 0.7345 0.7306 0.7216 0.7215
1174.000000 0.7217 0.7204 0.7236 0.7259 0.7285
1179.000000 0.7319 0.7346 0.7358 0.7348 0.7381
1184.000000 0.7267 0.7235 0.7205 0.7175 0.7142
1189.000000 0.7107 0.7072 0.7026 0.7021 0.7018
1194.000000 0.7019 0.7033 0.7042 0.7044 0.7041
1199.000000 0.7036 0.7028 0.7019 0.7011 0.7002
1204.000000 0.6995 0.6988 0.6974 0.6926 0.6879
1209.000000 0.6847 0.6840 0.6844 0.6874 0.6911
1214.000000 0.6950 0.6988 0.7017 0.7039 0.7061
1219.000000 0.7077 0.7084 0.7071 0.7047 0.7021
1224.000000 0.6993 0.6966 0.6930 0.6897 0.6891
1229.000000 0.6904 0.6965 0.7045 0.7100 0.7101
1234.000000 0.7094 0.7079 0.7047 0.7016 0.6997
1239.000000 0.6986 0.6982 0.6976 0.6927 0.6799
1244.000000 0.6646 0.6536 0.6492 0.6453 0.6416
1249.000000 0.6373 0.6330 0.6284 0.6243 0.6246
1254.000000 0.6272 0.6282 0.6278 0.6268 0.6178
1259.000000 0.6087 0.6000 0.5912 0.5784 0.5641
1264.000000 0.5605 0.5603 0.5631 0.5622 0.5785
1269.000000 0.5882 0.5980 0.6077 0.6174 0.6271
1274.000000 0.6367 0.6438 0.6473 0.6495 0.6503
1279.000000 0.6507 0.6532 0.6500 0.6496 0.6489
1284.000000 0.6479 0.6465 0.6422 0.6366 0.6303
1289.000000 0.6246 0.6200 0.6170 0.6139 0.6115
1294.000000 0.6103 0.6097 0.6094 0.5976 0.5799
1299.000000 0.5622 0.5446 0.5269 0.5093 0.4917
1304.000000 0.4678 0.4498 0.4461 0.4445 0.4431
1309.000000 0.4482 0.4540 0.4657 0.4757 0.4785
1314.000000 0.4788 0.4791 0.4774 0.4783 0.4776
1319.000000 0.4748 0.4595 0.4406 0.4217 0.4029
1324.000000 0.3840 0.3653 0.3465 0.3278 0.3090
1329.000000 0.2880 0.2678 0.2489 0.2383 0.2335
1334.000000 0.2312 0.2299 0.2298 0.2311 0.2364
1339.000000 0.2550 0.2773 0.2996 0.3219 0.3441
1344.000000 0.3662 0.3855 0.4029 0.4211 0.4395
1349.000000 0.4578 0.4761 0.4927 0.5002 0.5026
1354.000000 0.5032 0.5030 0.5015 0.4996 0.4942
1359.000000 0.4865 0.4787 0.4704 0.4616 0.4539
1364.000000 0.4467 0.4372 0.4276 0.4214 0.4198
1369.000000 0.4190 0.4198 0.4180 0.4233 0.4261
1374.000000 0.4317 0.4394 0.4491 0.4619 0.4741
1379.000000 0.4855 0.4934 0.4989 0.5007 0.5011
1384.000000 0.5008 0.5014 0.4991 0.4968 0.4932
1389.000000 0.4889 0.4813 0.4678 0.4508 0.4353
1394.000000 0.4221 0.4045 0.3976 0.3960 0.3955
1399.000000 0.3942 0.4027 0.4220 0.4420 0.4620
1404.000000 0.4820 0.5019 0.5218 0.5407 0.5503
1409.000000 0.5550 0.5640 0.5778 0.5850 0.5902
1414.000000 0.5931 0.5931 0.5914 0.5929 0.5922
1419.000000 0.5908 0.5893 0.5876 0.5856 0.5836
1424.000000 0.5818 0.5795 0.5768 0.5741 0.5714
1429.000000 0.5687 0.5643 0.5551 0.5332 0.5195
1434.000000 0.5055 0.4901 0.4742 0.4582 0.4371
1439.000000 0.4045 0.3917 0.3881 0.3846 0.3810
1444.000000 0.3774 0.3738 0.3639 0.3616 0.3608
1449.000000 0.3606 0.3605 0.3603 0.3603 0.3603
1454.000000 0.3604 0.3604 0.3604 0.3606 0.3607
1459.000000 0.3611 0.3622 0.3636 0.3661 0.3767
1464.000000 0.4075 0.4249 0.4423 0.4598 0.4772
1469.000000 0.4946 0.5120 0.5278 0.5385 0.5511
1474.000000 0.5641 0.5742 0.5795 0.5825 0.5856
1479.000000 0.5887 0.5909 0.5928 0.5934 0.5935
1484.000000 0.5935 0.5932 0.5927 0.5922 0.5916
1489.000000 0.5912 0.5918 0.5931 0.5941 0.5965
1494.000000 0.5956 0.5947 0.5931 0.5916 0.5900
1499.000000 0.5881 0.5861 0.5841 0.5823 0.5807
1504.000000 0.5792 0.5776 0.5769 0.5762 0.5756
1509.000000 0.5757 0.5776 0.5794 0.5811 0.5825
1514.000000 0.5824 0.5809 0.5793 0.5771 0.5739
1519.000000 0.5705 0.5678 0.5665 0.5652 0.5638
1524.000000 0.5622 0.5603 0.5578 0.5540 0.5470
1529.000000 0.5345 0.5206 0.5042 0.4856 0.4672
1534.000000 0.4454 0.4212 0.4098 0.3991 0.3788
1539.000000 0.3587 0.3502 0.3463 0.3436 0.3411
1544.000000 0.3396 0.3385 0.3380 0.3375 0.3376
1549.000000 0.3377 0.3378 0.3387 0.3354 0.3511
1554.000000 0.3641 0.3723 0.3778 0.3808 0.3825
1559.000000 0.3844 0.3865 0.3933 0.4119 0.4366
1564.000000 0.4614 0.4831 0.4947 0.4990 0.5011
1569.000000 0.5025 0.5038 0.5040 0.5037 0.5032
1574.000000 0.5020 0.5010 0.4990 0.4954 0.4909
1579.000000 0.4872 0.4858 0.4851 0.4850 0.4804
1584.000000 0.4657 0.4477 0.4298 0.4119 0.3941
1589.000000 0.3762 0.3584 0.3406 0.3220 0.3061
1594.000000 0.2883 0.2633 0.2433 0.2309 0.2199
1599.000000 0.2083 0.1925 0.1735 0.1443 0.1094
1604.000000 0.0902 0.0823 0.0766 0.0729 0.0720
1609.000000 0.0691 0.0713 0.0725 0.0831 0.1209
1614.000000 0.1586 0.1960 0.2077 0.2130 0.2179
1619.000000 0.2254 0.2354 0.2501 0.2666 0.2834
1624.000000 0.3002 0.3170 0.3337 0.3499 0.3645
1629.000000 0.3756 0.3815 0.3841 0.3849 0.3851
1634.000000 0.3841 0.3830 0.3806 0.3765 0.3702
1639.000000 0.3594 0.3462 0.3326 0.3190 0.3055
1644.000000 0.2920 0.2800 0.2735 0.2727 0.2703
1649.000000 0.2731 0.2743 0.2765 0.2849 0.2908
1654.000000 0.3088 0.3383 0.3681 0.3978 0.4289
1659.000000 0.4650 0.4806 0.4900 0.4988 0.5065
1664.000000 0.5139 0.5211 0.5280 0.5348 0.5415
1669.000000 0.5485 0.5576 0.5675 0.5945 0.6083
1674.000000 0.6132 0.6158 0.6184 0.6207 0.6222
1679.000000 0.6234 0.6245 0.6257 0.6267 0.6277
1684.000000 0.6311 0.6368 0.6419 0.6461 0.6485
1689.000000 0.6500 0.6512 0.6523 0.6534 0.6543
1694.000000 0.6546 0.6545 0.6545 0.6544 0.6542
1699.000000 0.6543 0.6546 0.6555 0.6571 0.6598
1704.000000 0.6625 0.6650 0.6672 0.6687 0.6691
1709.000000 0.6686 0.6714 0.6630 0.6577 0.6523
1714.000000 0.6469 0.6415 0.6362 0.6307 0.6304
1719.000000 0.6315 0.6339 0.6369 0.6397 0.6427
1724.000000 0.6456 0.6473 0.6474 0.6467 0.6444
1729.000000 0.6384 0.6309 0.6235 0.6161 0.6088
1734.000000 0.6023 0.5980 0.5924 0.5829 0.5687
1739.000000 0.5507 0.5324 0.5187 0.5080 0.4935
1744.000000 0.4763 0.4604 0.4477 0.4325 0.4093
1749.000000 0.3860 0.3627 0.3394 0.3161 0.2928
1754.000000 0.2695 0.2463 0.2233 0.2037 0.2020
1759.000000 0.2017 0.2019 0.2038 0.2055 0.2153
1764.000000 0.2291 0.2431 0.2570 0.2709 0.2846
1769.000000 0.2884 0.2918 0.3031 0.3237 0.3447
1774.000000 0.3658 0.3868 0.4078 0.4287 0.4497
1779.000000 0.4706 0.4915 0.5119 0.5307 0.5427
1784.000000 0.5572 0.5707 0.5825 0.5933 0.6038
1789.000000 0.6133 0.6209 0.6265 0.6319 0.6348
1794.000000 0.6373 0.6398 0.6423 0.6448 0.6473
1799.000000 0.6502 0.6540 0.6596 0.6651 0.6697
1804.000000 0.6735 0.6773 0.6826 0.6911 0.6992
1809.000000 0.7027 0.7032 0.7035 0.7036 0.7034
1814.000000 0.7034 0.7034 0.7033 0.7033 0.7033
1819.000000 0.7032 0.7032 0.7032 0.7032 0.7033
1824.000000 0.7033 0.7033 0.7035 0.7038 0.7041
1829.000000 0.7044 0.7047 0.7051 0.7054 0.7057
1834.000000 0.7060 0.7063 0.7066 0.7069 0.7072
1839.000000 0.7075 0.7078 0.7083 0.7089 0.7094
1844.000000 0.7099 0.7104 0.7111 0.7118 0.7124
1849.000000 0.7130 0.7136 0.7147 0.7161 0.7178
1854.000000 0.7194 0.7210 0.7225 0.7230 0.7236
1859.000000 0.7242 0.7248 0.7250 0.7253 0.7256
1864.000000 0.7265 0.7272 0.7276 0.7276 0.7272
1869.000000 0.7278 0.7278 0.7277 0.7273 0.7269
1874.000000 0.7265 0.7261 0.7256 0.7252 0.7248
1879.000000 0.7244 0.7240 0.7237 0.7233 0.7230
1884.000000 0.7227 0.7227 0.7227 0.7226 0.7226
1889.000000 0.7225 0.7226 0.7230 0.7236 0.7241
1894.000000 0.7247 0.7260 0.7272 0.7284 0.7291
1899.000000 0.7298 0.7302 0.7301 0.7299 0.7298
1904.000000 0.7297 0.7293 0.7288 0.7282 0.7277
1909.000000 0.7272 0.7263 0.7240 0.7221 0.7207
1914.000000 0.7198 0.7190 0.7186 0.7186 0.7186
1919.000000 0.7186 0.7186 0.7185 0.7185 0.7185
1924.000000 0.7185 0.7184 0.7184 0.7184 0.7184
1929.000000 0.7184 0.7185 0.7185 0.7184 0.7180
1934.000000 0.7176 0.7171 0.7153 0.7137 0.7123
1939.000000 0.7121 0.7118 0.7115 0.7113 0.7112
1944.000000 0.7112 0.7115 0.7118 0.7120 0.7122
1949.000000 0.7125 0.7127 0.7131 0.7134 0.7137
1954.000000 0.7140 0.7144 0.7149 0.7155 0.7162
1959.000000 0.7169 0.7170 0.7170 0.7170 0.7169
1964.000000 0.7168 0.7168 0.7167 0.7166 0.7166
1969.000000 0.7165 0.7165 0.7160 0.7154 0.7149
1974.000000 0.7144 0.7138 0.7131 0.7123 0.7115
1979.000000 0.7108 0.7103 0.7099 0.7096 0.7093
1984.000000 0.7089 0.7086 0.7083 0.7079 0.7076
1989.000000 0.7073 0.7072 0.7071 0.7070 0.7069
1994.000000 0.7068 0.7067 0.7066 0.7064 0.7063
1999.000000 0.7061 0.7060 0.7058 0.7056 0.7054
2004.000000 0.7052 0.7050 0.7048 0.7045 0.7044
2009.000000 0.7042 0.7040 0.7038 0.7037 0.7036
2014.000000 0.7035 0.7034 0.7034 0.7033 0.7032
2019.000000 0.7031 0.7030 0.7030 0.7029 0.7028
2024.000000 0.7027 0.7026 0.7025 0.7024 0.7023
2029.000000 0.7023 0.7022 0.7022 0.7022 0.7022
2034.000000 0.7022 0.7021 0.7021 0.7021 0.7021
2039.000000 0.7021 0.7020 0.7020 0.7020 0.7021
2044.000000 0.7021 0.7021 0.7021 0.7021 0.7021
2049.000000 0.7021 0.7021 0.7021 0.7020 0.7019
2054.000000 0.7018 0.7017 0.7015 0.7014 0.7013
2059.000000 0.7012 0.7011 0.7010 0.7008 0.7007
2064.000000 0.7006 0.7005 0.7004 0.7002 0.7001
2069.000000 0.6999 0.6998 0.6997 0.6996 0.6995
2074.000000 0.6995 0.6994 0.6994 0.6993 0.6992
2079.000000 0.6990 0.6987 0.6985 0.6983 0.6980
2084.000000 0.6978 0.6976 0.6973 0.6971 0.6969
2089.000000 0.6966 0.6964 0.6962 0.6960 0.6957
2094.000000 0.6955 0.6953 0.6950 0.6948 0.6946
2099.000000 0.6944 0.6941 0.6939 0.6937 0.6934
2104.000000 0.6932 0.6929 0.6927 0.6924 0.6921
2109.000000 0.6919 0.6917 0.6914 0.6911 0.6908
2114.000000 0.6905 0.6903 0.6900 0.6897 0.6894
2119.000000 0.6892 0.6889 0.6887 0.6886 0.6885
2124.000000 0.6884 0.6883 0.6882 0.6882 0.6881
2129.000000 0.6880 0.6879 0.6879 0.6878 0.6878
2134.000000 0.6877 0.6876 0.6875 0.6874 0.6874
2139.000000 0.6874 0.6874 0.6875 0.6876 0.6877
2144.000000 0.6877 0.6878 0.6879 0.6879 0.6880
2149.000000 0.6880 0.6881 0.6881 0.6882 0.6882
2154.000000 0.6887 0.6892 0.6899 0.6906 0.6913
2159.000000 0.6920 0.6928 0.6935 0.6942 0.6947
2164.000000 0.6949 0.6950 0.6950 0.6949 0.6949
2169.000000 0.6947 0.6944 0.6941 0.6939 0.6936
2174.000000 0.6933 0.6931 0.6928 0.6926 0.6924
2179.000000 0.6921 0.6918 0.6914 0.6909 0.6903
2184.000000 0.6897 0.6890 0.6885 0.6879 0.6873
2189.000000 0.6866 0.6855 0.6843 0.6830 0.6816
2194.000000 0.6803 0.6790 0.6787 0.6784 0.6781
2199.000000 0.6778 0.6775 0.6773 0.6772 0.6772
2204.000000 0.6775 0.6778 0.6780 0.6783 0.6785
2209.000000 0.6788 0.6791 0.6792 0.6791 0.6790
2214.000000 0.6789 0.6788 0.6787 0.6787 0.6787
2219.000000 0.6788 0.6789 0.6790 0.6791 0.6793
2224.000000 0.6794 0.6800 0.6807 0.6824 0.6842
2229.000000 0.6857 0.6870 0.6875 0.6878 0.6881
2234.000000 0.6884 0.6883 0.6882 0.6879 0.6876
2239.000000 0.6873 0.6871 0.6868 0.6866 0.6863
2244.000000 0.6860 0.6852 0.6844 0.6830 0.6815
2249.000000 0.6799 0.6781 0.6765 0.6748 0.6731
2254.000000 0.6715 0.6700 0.6686 0.6681 0.6680
2259.000000 0.6679 0.6677 0.6676 0.6675 0.6674
2264.000000 0.6673 0.6672 0.6671 0.6670 0.6669
2269.000000 0.6669 0.6669 0.6669 0.6669 0.6669
2274.000000 0.6669 0.6668 0.6668 0.6668 0.6668
2279.000000 0.6668 0.6668 0.6668 0.6668 0.6668
2284.000000 0.6668 0.6668 0.6668 0.6668 0.6668
2289.000000 0.6668 0.6668 0.6668 0.6668 0.6668
2294.000000 0.6668 0.6668 0.6669 0.6669 0.6668
2299.000000 0.6664 0.6659 0.6646 0.6632 0.6618
2304.000000 0.6605 0.6565 0.6521 0.6501 0.6490
2309.000000 0.6479 0.6469 0.6462 0.6459 0.6457
2314.000000 0.6457 0.6457 0.6458 0.6460 0.6462
2319.000000 0.6464 0.6467 0.6469 0.6473 0.6478
2324.000000 0.6483 0.6488 0.6496 0.6506 0.6516
2329.000000 0.6527 0.6538 0.6549 0.6560 0.6567
2334.000000 0.6575 0.6582 0.6589 0.6592 0.6592
2339.000000 0.6591 0.6591 0.6590 0.6587 0.6585
2344.000000 0.6582 0.6579 0.6576 0.6573 0.6570
2349.000000 0.6566 0.6562 0.6555 0.6548 0.6542
2354.000000 0.6535 0.6528 0.6520 0.6513 0.6505
2359.000000 0.6497 0.6489 0.6481 0.6473 0.6465
2364.000000 0.6461 0.6456 0.6454 0.6453 0.6454
2369.000000 0.6457 0.6461 0.6464 0.6467 0.6470
2374.000000 0.6473 0.6476 0.6479 0.6482 0.6485
2379.000000 0.6488 0.6492 0.6495 0.6498 0.6501
2384.000000 0.6504 0.6508 0.6511 0.6514 0.6517
2389.000000 0.6521 0.6524 0.6527 0.6530 0.6534
2394.000000 0.6537 0.6541 0.6544 0.6547 0.6549
2399.000000 0.6551 0.6553 0.6556 0.6559 0.6561
2404.000000 0.6564 0.6565 0.6567 0.6568 0.6568
2409.000000 0.6568 0.6568 0.6569 0.6569 0.6569
2414.000000 0.6569 0.6569 0.6569 0.6569 0.6568
2419.000000 0.6568 0.6568 0.6559 0.6550 0.6541
2424.000000 0.6531 0.6522 0.6513 0.6503 0.6493
2429.000000 0.6481 0.6470 0.6459 0.6449 0.6438
2434.000000 0.6427 0.6425 0.6425 0.6426 0.6428
2439.000000 0.6429 0.6431 0.6433 0.6437 0.6443
2444.000000 0.6448 0.6448 0.6448 0.6447 0.6447
2449.000000 0.6446 0.6445 0.6444 0.6443 0.6442
2454.000000 0.6441 0.6440 0.6439 0.6438 0.6437
2459.000000 0.6435 0.6434 0.6432 0.6431 0.6430
2464.000000 0.6426 0.6423 0.6420 0.6417 0.6413
2469.000000 0.6410 0.6407 0.6403 0.6400 0.6397
2474.000000 0.6394 0.6390 0.6386 0.6382 0.6377
2479.000000 0.6372 0.6366 0.6361 0.6357 0.6352
2484.000000 0.6347 0.6342 0.6339 0.6336 0.6333
2489.000000 0.6330 0.6328 0.6326 0.6324 0.6324
2494.000000 0.6326 0.6328 0.6330 0.6332 0.6333
2499.000000 0.6335 0.6337 0.6342 0.6347 0.6353
2504.000000 0.6361 0.6368 0.6374 0.6380 0.6383
2509.000000 0.6383 0.6383 0.6383 0.6383 0.6381
2514.000000 0.6379 0.6376 0.6373 0.6371 0.6368
2519.000000 0.6366 0.6363 0.6360 0.6357 0.6355
2524.000000 0.6352 0.6350 0.6347 0.6345 0.6342
2529.000000 0.6340 0.6337 0.6335 0.6332 0.6329
2534.000000 0.6327 0.6325 0.6322 0.6320 0.6318
2539.000000 0.6315 0.6313 0.6311 0.6308 0.6306
2544.000000 0.6303 0.6301 0.6298 0.6296 0.6293
2549.000000 0.6291 0.6289 0.6287 0.6284 0.6282
2554.000000 0.6280 0.6277 0.6275 0.6272 0.6270
2559.000000 0.6267 0.6264 0.6262 0.6259 0.6256
2564.000000 0.6253 0.6250 0.6247 0.6244 0.6241
2569.000000 0.6238 0.6236 0.6233 0.6230 0.6227
2574.000000 0.6224 0.6221 0.6218 0.6215 0.6212
2579.000000 0.6209 0.6206 0.6203 0.6200 0.6197
2584.000000 0.6194 0.6191 0.6188 0.6185 0.6182
2589.000000 0.6179 0.6177 0.6174 0.6171 0.6168
2594.000000 0.6165 0.6162 0.6159 0.6156 0.6153
2599.000000 0.6150 0.6146 0.6143 0.6140 0.6137
2604.000000 0.6134 0.6131 0.6128 0.6125 0.6122
2609.000000 0.6119 0.6116 0.6113 0.6110 0.6106
2614.000000 0.6103 0.6100 0.6096 0.6093 0.6090
2619.000000 0.6087 0.6083 0.6080 0.6077 0.6073
2624.000000 0.6070 0.6067 0.6064 0.6060 0.6057
2629.000000 0.6054 0.6051 0.6048 0.6046 0.6043
2634.000000 0.6041 0.6039 0.6038 0.6036 0.6034
2639.000000 0.6031 0.6029 0.6028 0.6026 0.6024
2644.000000 0.6022 0.6020 0.6018 0.6016 0.6014
2649.000000 0.6012 0.6010 0.6008 0.6006 0.6003
2654.000000 0.6001 0.6000 0.5998 0.5996 0.5995
2659.000000 0.5994 0.5993 0.5993 0.5993 0.5992
2664.000000 0.5992 0.5992 0.5991 0.5991 0.5991
2669.000000 0.5987 0.5983 0.5979 0.5974 0.5969
2674.000000 0.5965 0.5960 0.5955 0.5950 0.5945
2679.000000 0.5941 0.5936 0.5931 0.5926 0.5921
2684.000000 0.5916 0.5910 0.5904 0.5898 0.5893
2689.000000 0.5887 0.5881 0.5876 0.5870 0.5865
2694.000000 0.5859 0.5853 0.5847 0.5841 0.5834
2699.000000 0.5828 0.5821 0.5815 0.5808 0.5802
2704.000000 0.5796 0.5789 0.5783 0.5777 0.5770
2709.000000 0.5764 0.5757 0.5751 0.5744 0.5737
2714.000000 0.5730 0.5722 0.5715 0.5707 0.5700
2719.000000 0.5693 0.5686 0.5679 0.5671 0.5664
2724.000000 0.5653 0.5642 0.5630 0.5613 0.5594
2729.000000 0.5575 0.5557 0.5538 0.5519 0.5500
2734.000000 0.5482 0.5463 0.5444 0.5425 0.5407
2739.000000 0.5389 0.5371 0.5353 0.5334 0.5316
2744.000000 0.5298 0.5280 0.5261 0.5243 0.5225
2749.000000 0.5206 0.5188 0.5169 0.5151 0.5132
2754.000000 0.5114 0.5095 0.5077 0.5058 0.5040
2759.000000 0.5022 0.5003 0.4984 0.4966 0.4934
2764.000000 0.4894 0.4853 0.4809 0.4761 0.4713
2769.000000 0.4646 0.4555 0.4464 0.4378 0.4302
2774.000000 0.4226 0.4155 0.4098 0.4040 0.3982
2779.000000 0.3920 0.3859 0.3797 0.3736 0.3675
2784.000000 0.3614 0.3553 0.3493 0.3432 0.3371
2789.000000 0.3309 0.3248 0.3188 0.3127 0.3066
2794.000000 0.3006 0.2945 0.2884 0.2824 0.2763
2799.000000 0.2703 0.2643 0.2582 0.2522 0.2462
2804.000000 0.2401 0.2341 0.2281 0.2221 0.2161
2809.000000 0.2101 0.2040 0.1980 0.1919 0.1868
2814.000000 0.1819 0.1769 0.1734 0.1706 0.1677
2819.000000 0.1653 0.1633 0.1612 0.1581 0.1527
2824.000000 0.1474 0.1426 0.1416 0.1406 0.1396
2829.000000 0.1388 0.1380 0.1372 0.1365 0.1359
2834.000000 0.1352 0.1347 0.1341 0.1336 0.1332
2839.000000 0.1329 0.1327 0.1324 0.1322 0.1321
2844.000000 0.1319 0.1317 0.1315 0.1313 0.1312
2849.000000 0.1311 0.1310 0.1309 0.1309 0.1308
2854.000000 0.1307 0.1307 0.1306 0.1306 0.1306
2859.000000 0.1307 0.1308 0.1310 0.1312 0.1315
2864.000000 0.1317 0.1320 0.1323 0.1326 0.1328
2869.000000 0.1331 0.1334 0.1337 0.1340 0.1343
2874.000000 0.1347 0.1351 0.1356 0.1361 0.1366
2879.000000 0.1371 0.1376 0.1380 0.1385 0.1389
2884.000000 0.1396 0.1405 0.1413 0.1422 0.1433
2889.000000 0.1443 0.1454 0.1466 0.1480 0.1493
2894.000000 0.1507 0.1521 0.1536 0.1551 0.1567
2899.000000 0.1584 0.1601 0.1622 0.1644 0.1667
2904.000000 0.1693 0.1723 0.1753 0.1783 0.1819
2909.000000 0.1854 0.1890 0.1926 0.1964 0.2001
2914.000000 0.2040 0.2080 0.2121 0.2161 0.2193
2919.000000 0.2223 0.2254 0.2281 0.2304 0.2328
2924.000000 0.2352 0.2397 0.2442 0.2487 0.2536
2929.000000 0.2588 0.2639 0.2690 0.2741 0.2792
2934.000000 0.2844 0.2895 0.2946 0.2997 0.3048
2939.000000 0.3099 0.3150 0.3201 0.3251 0.3302
2944.000000 0.3352 0.3403 0.3453 0.3504 0.3555
2949.000000 0.3605 0.3656 0.3706 0.3757 0.3807
2954.000000 0.3858 0.3908 0.3959 0.4009 0.4059
2959.000000 0.4109 0.4159 0.4209 0.4259 0.4309
2964.000000 0.4359 0.4410 0.4453 0.4488 0.4522
2969.000000 0.4556 0.4597 0.4638 0.4679 0.4709
2974.000000 0.4720 0.4730 0.4741 0.4746 0.4750
2979.000000 0.4754 0.4758 0.4761 0.4764 0.4767
2984.000000 0.4767 0.4767 0.4766 0.4765 0.4765
2989.000000 0.4764 0.4764 0.4763 0.4763 0.4762
2994.000000 0.4762 0.4761 0.4760 0.4759 0.4758
2999.000000 0.4757 0.4756 0.4755 0.4754 0.4753
3004.000000 0.4751 0.4750 0.4747 0.4744 0.4741
3009.000000 0.4738 0.4735 0.4732 0.4730 0.4728
3014.000000 0.4726 0.4725 0.4723 0.4722 0.4722
3019.000000 0.4721 0.4721 0.4721 0.4721 0.4722
3024.000000 0.4722 0.4722 0.4722 0.4723 0.4723
3029.000000 0.4723 0.4723 0.4724 0.4724 0.4724
3034.000000 0.4725 0.4725 0.4725 0.4725 0.4725
3039.000000 0.4725 0.4725 0.4725 0.4726 0.4726
3044.000000 0.4726 0.4726 0.4726 0.4726 0.4726
3049.000000 0.4725 0.4725 0.4725 0.4725 0.4724
3054.000000 0.4724 0.4723 0.4723 0.4722 0.4722
3059.000000 0.4722 0.4721 0.4721 0.4720 0.4720
3064.000000 0.4719 0.4717 0.4715 0.4713 0.4716
3069.000000 0.4706 0.4702 0.4698 0.4695 0.4691
3074.000000 0.4687 0.4684 0.4680 0.4677 0.4673
3079.000000 0.4670 0.4665 0.4660 0.4655 0.4650
3084.000000 0.4643 0.4637 0.4630 0.4624 0.4618
3089.000000 0.4611 0.4605 0.4598 0.4591 0.4583
3094.000000 0.4576 0.4567 0.4557 0.4548 0.4538
3099.000000 0.4527 0.4516 0.4506 0.4497 0.4496
3104.000000 0.4494 0.4492 0.4491 0.4491 0.4490
3109.000000 0.4490 0.4489 0.4489 0.4488 0.4488
3114.000000 0.4484 0.4478 0.4472 0.4466 0.4457
3119.000000 0.4447 0.4437 0.4426 0.4413 0.4398
3124.000000 0.4384 0.4370 0.4357 0.4344 0.4332
3129.000000 0.4319 0.4307 0.4295 0.4283 0.4270
3134.000000 0.4258 0.4245 0.4233 0.4221 0.4211
3139.000000 0.4201 0.4191 0.4182 0.4178 0.4174
3144.000000 0.4169 0.4165 0.4161 0.4156 0.4152
3149.000000 0.4148 0.4144 0.4139 0.4135 0.4131
3154.000000 0.4126 0.4122 0.4118 0.4113 0.4108
3159.000000 0.4103 0.4097 0.4094 0.4091 0.4089
3164.000000 0.4087 0.4085 0.4083 0.4081 0.4079
3169.000000 0.4077 0.4075 0.4073 0.4071 0.4069
3174.000000 0.4067 0.4065 0.4064 0.4062 0.4060
3179.000000 0.4058 0.4057 0.4055 0.4053 0.4051
3184.000000 0.4050 0.4048 0.4046 0.4045 0.4043
3189.000000 0.4003 0.4041 0.4041 0.4041 0.4041
3194.000000 0.4041 0.4042 0.4042 0.4043 0.4043
3199.000000 0.4044 0.4045 0.4045 0.4050 0.4055
3204.000000 0.4060 0.4065 0.4079 0.4095 0.4110
3209.000000 0.4126 0.4142 0.4158 0.4175 0.4191
3214.000000 0.4205 0.4216 0.4228 0.4240 0.4249
3219.000000 0.4257 0.4264 0.4272 0.4278 0.4284
3224.000000 0.4289 0.4294 0.4299 0.4303 0.4306
3229.000000 0.4310 0.4314 0.4317 0.4321 0.4324
3234.000000 0.4328 0.4332 0.4335 0.4339 0.4342
3239.000000 0.4346 0.4349 0.4352 0.4356 0.4359
3244.000000 0.4362 0.4366 0.4369 0.4372 0.4375
3249.000000 0.4378 0.4381 0.4385 0.4387 0.4390
3254.000000 0.4393 0.4396 0.4399 0.4402 0.4404
3259.000000 0.4407 0.4409 0.4410 0.4410 0.4411
3264.000000 0.4411 0.4411 0.4410 0.4410 0.4409
3269.000000 0.4409 0.4409 0.4409 0.4409 0.4408
3274.000000 0.4408 0.4407 0.4407 0.4406 0.4406
3279.000000 0.4405 0.4405 0.4404 0.4403 0.4402
3284.000000 0.4401 0.4400 0.4399 0.4398 0.4397
3289.000000 0.4396 0.4395 0.4394 0.4393 0.4391
3294.000000 0.4390 0.4389 0.4388 0.4388 0.4387
3299.000000 0.4386 0.4385 0.4384 0.4383 0.4382
3304.000000 0.4381 0.4380 0.4379 0.4378 0.4378
3309.000000 0.4378 0.4377 0.4377 0.4377 0.4378
3314.000000 0.4379 0.4380 0.4381 0.4382 0.4383
3319.000000 0.4384 0.4385 0.4386 0.4387 0.4388
3324.000000 0.4389 0.4390 0.4391 0.4392 0.4393
3329.000000 0.4394 0.4395 0.4396 0.4397 0.4398
3334.000000 0.4399 0.4401 0.4402 0.4403 0.4405
3339.000000 0.4408 0.4411 0.4414 0.4417 0.4420
3344.000000 0.4423 0.4426 0.4429 0.4432 0.4435
3349.000000 0.4438 0.4441 0.4444 0.4448 0.4452
3354.000000 0.4457 0.4461 0.4466 0.4471 0.4476
3359.000000 0.4481 0.4486 0.4492 0.4497 0.4502
3364.000000 0.4508 0.4513 0.4519 0.4524 0.4530
3369.000000 0.4536 0.4542 0.4549 0.4555 0.4561
3374.000000 0.4568 0.4574 0.4580 0.4586 0.4592
3379.000000 0.4598 0.4605 0.4611 0.4617 0.4624
3384.000000 0.4631 0.4638 0.4645 0.4653 0.4660
3389.000000 0.4669 0.4677 0.4685 0.4693 0.4702
3394.000000 0.4710 0.4719 0.4727 0.4736 0.4744
3399.000000 0.4753 0.4761 0.4769 0.4778 0.4787
3404.000000 0.4795 0.4804 0.4813 0.4824 0.4836
3409.000000 0.4848 0.4860 0.4872 0.4884 0.4895
3414.000000 0.4907 0.4919 0.4931 0.4943 0.4954
3419.000000 0.4966 0.4978 0.4989 0.5000 0.5010
3424.000000 0.5021 0.5032 0.5041 0.5051 0.5061
3429.000000 0.5070 0.5080 0.5090 0.5099 0.5109
3434.000000 0.5119 0.5128 0.5138 0.5147 0.5157
3439.000000 0.5166 0.5176 0.5185 0.5194 0.5204
3444.000000 0.5213 0.5222 0.5231 0.5241 0.5250
3449.000000 0.5258 0.5266 0.5274 0.5281 0.5289
3454.000000 0.5297 0.5305 0.5312 0.5320 0.5328
3459.000000 0.5335 0.5343 0.5350 0.5358 0.5370
3464.000000 0.5388 0.5406 0.5425 0.5443 0.5458
3469.000000 0.5471 0.5483 0.5496 0.5509 0.5514
3474.000000 0.5517 0.5520 0.5523 0.5526 0.5528
3479.000000 0.5530 0.5531 0.5533 0.5535 0.5535
3484.000000 0.5536 0.5537 0.5538 0.5539 0.5540
3489.000000 0.5540 0.5541 0.5542 0.5543 0.5544
3494.000000 0.5544 0.5545 0.5546 0.5547 0.5548
3499.000000 0.5549 0.5549 0.5550 0.5551 0.5551
3504.000000 0.5552 0.5553 0.5553 0.5554 0.5555
3509.000000 0.5555 0.5556 0.5556 0.5557 0.5558
3514.000000 0.5558 0.5559 0.5559 0.5560 0.5561
3519.000000 0.5561 0.5562 0.5562 0.5563 0.5563
3524.000000 0.5563 0.5563 0.5563 0.5562 0.5562
3529.000000 0.5562 0.5562 0.5562 0.5562 0.5562
3534.000000 0.5562 0.5562 0.5562 0.5561 0.5561
3539.000000 0.5561 0.5561 0.5561 0.5559 0.5557
3544.000000 0.5555 0.5553 0.5552 0.5549 0.5546
3549.000000 0.5543 0.5541 0.5538 0.5535 0.5533
3554.000000 0.5531 0.5528 0.5526 0.5524 0.5523
3559.000000 0.5521 0.5519 0.5518 0.5516 0.5514
3564.000000 0.5513 0.5511 0.5509 0.5508 0.5508
3569.000000 0.5507 0.5507 0.5507 0.5508 0.5509
3574.000000 0.5511 0.5513 0.5515 0.5516 0.5518
3579.000000 0.5520 0.5522 0.5524 0.5527 0.5530
3584.000000 0.5533 0.5536 0.5539 0.5542 0.5547
3589.000000 0.5552 0.5557 0.5562 0.5567 0.5571
3594.000000 0.5576 0.5581 0.5585 0.5590 0.5595
3599.000000 0.5600 0.5605 0.5610 0.5615 0.5620
3604.000000 0.5625 0.5630 0.5635 0.5640 0.5645
3609.000000 0.5650 0.5655 0.5660 0.5665 0.5669
3614.000000 0.5673 0.5676 0.5680 0.5683 0.5687
3619.000000 0.5690 0.5693 0.5696 0.5700 0.5703
3624.000000 0.5704 0.5705 0.5705 0.5706 0.5706
3629.000000 0.5706 0.5705 0.5704 0.5703 0.5702
3634.000000 0.5702 0.5700 0.5699 0.5698 0.5697
3639.000000 0.5697 0.5696 0.5695 0.5694 0.5693
3644.000000 0.5692 0.5691 0.5690 0.5689 0.5688
3649.000000 0.5687 0.5686 0.5685 0.5684 0.5683
3654.000000 0.5682 0.5680 0.5679 0.5677 0.5675
3659.000000 0.5673 0.5671 0.5669 0.5667 0.5665
3664.000000 0.5663 0.5661 0.5659 0.5657 0.5655
3669.000000 0.5653 0.5651 0.5649 0.5647 0.5645
3674.000000 0.5643 0.5640 0.5638 0.5636 0.5634
3679.000000 0.5632 0.5630 0.5628 0.5626 0.5624
3684.000000 0.5622 0.5620 0.5617 0.5615 0.5613
3689.000000 0.5611 0.5609 0.5607 0.5605 0.5603
3694.000000 0.5601 0.5598 0.5596 0.5593 0.5591
3699.000000 0.5589 0.5587 0.5584 0.5582 0.5580
3704.000000 0.5578 0.5576 0.5573 0.5571 0.5569
3709.000000 0.5567 0.5565 0.5562 0.5560 0.5558
3714.000000 0.5555 0.5553 0.5551 0.5549 0.5546
3719.000000 0.5544 0.5542 0.5540 0.5538 0.5536
3724.000000 0.5533 0.5531 0.5529 0.5527 0.5525
3729.000000 0.5523 0.5520 0.5518 0.5516 0.5514
3734.000000 0.5512 0.5510 0.5507 0.5505 0.5503
3739.000000 0.5501 0.5499 0.5497 0.5495 0.5492
3744.000000 0.5490 0.5488 0.5486 0.5484 0.5482
3749.000000 0.5480 0.5479 0.5477 0.5476 0.5475
3754.000000 0.5473 0.5472 0.5470 0.5469 0.5467
3759.000000 0.5466 0.5465 0.5464 0.5462 0.5461
3764.000000 0.5460 0.5459 0.5457 0.5456 0.5454
3769.000000 0.5453 0.5452 0.5450 0.5449 0.5448
3774.000000 0.5446 0.5445 0.5444 0.5443 0.5441
3779.000000 0.5440 0.5439 0.5437 0.5436 0.5434
3784.000000 0.5433 0.5432 0.5431 0.5430 0.5428
3789.000000 0.5428 0.5427 0.5426 0.5426 0.5425
3794.000000 0.5424 0.5424 0.5424 0.5423 0.5423
3799.000000 0.5423 0.5422 0.5422 0.5421 0.5421
3804.000000 0.5420 0.5420 0.5419 0.5419 0.5419
3809.000000 0.5418 0.5418 0.5417 0.5417 0.5416
3814.000000 0.5416 0.5415 0.5415 0.5414 0.5414
3819.000000 0.5414 0.5413 0.5413 0.5413 0.5412
3824.000000 0.5412 0.5412 0.5411 0.5411 0.5411
3829.000000 0.5410 0.5410 0.5409 0.5409 0.5408
3834.000000 0.5408 0.5407 0.5407 0.5407 0.5406
3839.000000 0.5406 0.5406 0.5405 0.5405 0.5405
3844.000000 0.5404 0.5404 0.5404 0.5403 0.5403
3849.000000 0.5402 0.5402 0.5401 0.5401 0.5400
3854.000000 0.5400 0.5400 0.5399 0.5399 0.5399
3859.000000 0.5398 0.5398 0.5397 0.5396 0.5396
3864.000000 0.5395 0.5395 0.5394 0.5394 0.5393
3869.000000 0.5393 0.5392 0.5392 0.5392 0.5391
3874.000000 0.5391 0.5391 0.5390 0.5390 0.5389
3879.000000 0.5389 0.5388 0.5388 0.5387 0.5387
3884.000000 0.5387 0.5387 0.5386 0.5386 0.5386
3889.000000 0.5385 0.5385 0.5384 0.5384 0.5383
3894.000000 0.5383 0.5382 0.5382 0.5382 0.5381
3899.000000 0.5381 0.5381 0.5380 0.5380 0.5379
3904.000000 0.5379 0.5378 0.5378 0.5377 0.5377
3909.000000 0.5376 0.5376 0.5375 0.5375 0.5374
3914.000000 0.5372 0.5371 0.5370 0.5368 0.5367
3919.000000 0.5365 0.5363 0.5360 0.5357 0.5355
3924.000000 0.5352 0.5350 0.5347 0.5344 0.5341
3929.000000 0.5339 0.5336 0.5333 0.5330 0.5328
3934.000000 0.5325 0.5322 0.5319 0.5317 0.5314
3939.000000 0.5311 0.5309 0.5306 0.5304 0.5301
3944.000000 0.5298 0.5295 0.5292 0.5288 0.5285
3949.000000 0.5282 0.5278 0.5275 0.5271 0.5267
3954.000000 0.5264 0.5260 0.5256 0.5253 0.5249
3959.000000 0.5245 0.5242 0.5238 0.5234 0.5231
3964.000000 0.5228 0.5225 0.5222 0.5218 0.5215
3969.000000 0.5212 0.5209 0.5206 0.5203 0.5199
3974.000000 0.5196 0.5193 0.5190 0.5187 0.5184
3979.000000 0.5181 0.5178 0.5175 0.5172 0.5168
3984.000000 0.5165 0.5161 0.5158 0.5154 0.5151
3989.000000 0.5147 0.5144 0.5140 0.5136 0.5133
3994.000000 0.5129 0.5126 0.5122 0.5119 0.5115
3999.000000 0.5112 0.5109
##END=
