##TITLE=TRICHLOROACETIC ACID, TRIETHYLENE GLYCOL DIESTER
##JCAMP-DX=4.24
##DATA TYPE=INFRARED SPECTRUM
##CLASS=COBLENTZ
##OWNER=COBLENTZ SOCIETY
Collection (C) 2018 copyright by the U.S. Secretary of Commerce
on behalf of the United States of America. All rights reserved.
##DATE=Not specified, most likely prior to 1970
##NAMES=2-(2-(2-[(trichloroacetyl)oxy]ethoxy)ethoxy)ethyl trichloroacetate
##MOLFORM=C10 H12 Cl6 O6
##SOURCE REFERENCE=COBLENTZ NO. 2374
##$NIST ID=B6002374
##$NIST SOURCE=COBLENTZ
##$NIST IMAGE=cob2374
##SPECTROMETER/DATA SYSTEM=Not specified, most likely a prism, grating, or hybrid spectrometer.
##STATE=SOLUTION (10% CCl4 FOR 5000-1330, 10% CS2 FOR 1330-625 CM^-^1)
##PATH LENGTH=0.012 CM, 0.012 CM
$$SPECTRAL CONTAMINATION DUE TO CCl4 AROUND 1550 CM^-^1
##SAMPLING PROCEDURE=TRANSMISSION
##RESOLUTION=4
##DATA PROCESSING=DIGITIZED BY NIST FROM HARD COPY
##XUNITS=MICROMETERS
##YUNITS=TRANSMITTANCE
##XFACTOR=1.000000
##YFACTOR=1
##DELTAX=000.006670
##FIRSTX=2.027
##LASTX=15.8463
##FIRSTY=0.915
##MAXX=15.8463
##MINX=2.027
##MAXY=0.93
##MINY=0
##NPOINTS=2073
##XYDATA=(X++(Y..Y))
2.027000 0.9150 0.9150 0.9150 0.9150 0.9160
2.060365 0.9160 0.9160 0.9160 0.9160 0.9180
2.093000 0.9180 0.9180 0.9200 0.9200 0.9200
2.126365 0.9200 0.9180 0.9160 0.9150 0.9130
2.160000 0.9100 0.9100 0.9100 0.9080 0.9080
2.193365 0.9080 0.9060 0.9050 0.9030 0.9010
2.227000 0.9010 0.9010 0.9030 0.9060 0.9060
2.260365 0.9080 0.9080 0.9080 0.9080 0.9080
2.293000 0.9080 0.9100 0.9100 0.9130 0.9150
2.326365 0.9150 0.9160 0.9160 0.9160 0.9160
2.360000 0.9160 0.9160 0.9160 0.9150 0.9150
2.393365 0.9130 0.9130 0.9130 0.9130 0.9130
2.427000 0.9130 0.9150 0.9160 0.9160 0.9160
2.460365 0.9180 0.9180 0.9200 0.9210 0.9210
2.494000 0.9210 0.9210 0.9210 0.9210 0.9210
2.527365 0.9210 0.9200 0.9200 0.9200 0.9200
2.560000 0.9200 0.9200 0.9210 0.9230 0.9260
2.593365 0.9280 0.9300 0.9300 0.9260 0.9250
2.627000 0.9210 0.9200 0.9180 0.9180 0.9180
2.660365 0.9200 0.9200 0.9210 0.9210 0.9200
2.694000 0.9180 0.9160 0.9150 0.9130 0.9110
2.727365 0.9100 0.9060 0.9010 0.9000 0.8980
2.760000 0.8960 0.8950 0.8910 0.8900 0.8860
2.793365 0.8810 0.8780 0.8710 0.8680 0.8660
2.827000 0.8660 0.8700 0.8730 0.8780 0.8800
2.860365 0.8800 0.8800 0.8780 0.8780 0.8760
2.894000 0.8750 0.8730 0.8710 0.8700 0.8700
2.927365 0.8700 0.8700 0.8680 0.8630 0.8600
2.960000 0.8580 0.8560 0.8560 0.8560 0.8580
2.993365 0.8580 0.8550 0.8510 0.8500 0.8480
3.027000 0.8480 0.8460 0.8450 0.8400 0.8400
3.060365 0.8400 0.8400 0.8400 0.8410 0.8410
3.094000 0.8430 0.8450 0.8450 0.8460 0.8460
3.127365 0.8460 0.8480 0.8480 0.8500 0.8500
3.161000 0.8500 0.8500 0.8500 0.8480 0.8480
3.194365 0.8460 0.8460 0.8430 0.8410 0.8400
3.227000 0.8360 0.8350 0.8330 0.8330 0.8300
3.260365 0.8260 0.8230 0.8180 0.8110 0.8010
3.294000 0.7970 0.7800 0.7600 0.7480 0.7280
3.327365 0.6930 0.6550 0.6250 0.5990 0.5800
3.361000 0.5690 0.5670 0.5640 0.5600 0.5550
3.394365 0.5350 0.5270 0.5170 0.5090 0.5000
3.427000 0.4990 0.4990 0.5100 0.5440 0.5720
3.460365 0.6030 0.6400 0.6730 0.7050 0.7400
3.494000 0.7580 0.7670 0.7720 0.7780 0.7870
3.527365 0.7970 0.8060 0.8160 0.8210 0.8230
3.561000 0.8260 0.8300 0.8330 0.8350 0.8360
3.594365 0.8360 0.8400 0.8410 0.8450 0.8480
3.627000 0.8500 0.8560 0.8600 0.8630 0.8660
3.660365 0.8680 0.8700 0.8730 0.8760 0.8800
3.694000 0.8830 0.8850 0.8860 0.8880 0.8900
3.727365 0.8900 0.8880 0.8860 0.8850 0.8830
3.761000 0.8830 0.8810 0.8800 0.8760 0.8760
3.794365 0.8750 0.8750 0.8760 0.8760 0.8780
3.828000 0.8780 0.8780 0.8800 0.8800 0.8800
3.861365 0.8800 0.8810 0.8850 0.8880 0.8900
3.894000 0.8910 0.8910 0.8910 0.8900 0.8900
3.927365 0.8900 0.8900 0.8900 0.8900 0.8880
3.961000 0.8880 0.8880 0.8880 0.8880 0.8880
3.994365 0.8900 0.8900 0.8900 0.8900 0.8900
4.028000 0.8900 0.8900 0.8900 0.8960 0.8960
4.061365 0.9000 0.9030 0.9050 0.9050 0.9050
4.094000 0.9050 0.9050 0.9050 0.9050 0.9050
4.127365 0.9050 0.9050 0.9050 0.9050 0.9050
4.161000 0.9010 0.9010 0.9010 0.9000 0.8980
4.194365 0.8980 0.8980 0.8960 0.8960 0.8950
4.228000 0.8950 0.8950 0.8950 0.8950 0.8950
4.261365 0.8950 0.8950 0.8950 0.8950 0.8950
4.294000 0.8950 0.8910 0.8880 0.8880 0.8880
4.327365 0.8880 0.8900 0.8960 0.8980 0.8980
4.361000 0.9000 0.9000 0.9010 0.9010 0.9030
4.394365 0.9030 0.9050 0.9060 0.9060 0.9060
4.428000 0.9060 0.9050 0.9050 0.9050 0.9050
4.461365 0.9050 0.9050 0.9050 0.9050 0.9050
4.495000 0.9060 0.9060 0.9060 0.9060 0.9050
4.528365 0.9030 0.9030 0.9050 0.9060 0.9080
4.561000 0.9080 0.9100 0.9100 0.9100 0.9100
4.594365 0.9080 0.9080 0.9100 0.9100 0.9100
4.628000 0.9100 0.9100 0.9100 0.9100 0.9110
4.661365 0.9130 0.9130 0.9130 0.9130 0.9130
4.695000 0.9130 0.9110 0.9110 0.9110 0.9110
4.728365 0.9100 0.9100 0.9080 0.9060 0.9050
4.761000 0.9050 0.9030 0.9050 0.9050 0.9060
4.794365 0.9060 0.9060 0.9060 0.9050 0.9030
4.828000 0.9000 0.8980 0.8980 0.8980 0.9010
4.861365 0.9050 0.9050 0.9060 0.9060 0.9050
4.895000 0.9050 0.9050 0.9050 0.9050 0.9050
4.928365 0.9050 0.9060 0.9060 0.9050 0.9050
4.961000 0.9030 0.9030 0.9010 0.9010 0.9000
4.994365 0.9000 0.8980 0.8980 0.8960 0.8960
5.028000 0.8960 0.8960 0.8960 0.8980 0.8980
5.061365 0.8980 0.8980 0.8980 0.8980 0.8980
5.095000 0.8980 0.9000 0.9000 0.9000 0.9000
5.128365 0.9000 0.9000 0.9000 0.9000 0.9000
5.162000 0.9000 0.8980 0.8980 0.8980 0.8980
5.195365 0.8980 0.8980 0.8980 0.8980 0.8980
5.228000 0.8980 0.8980 0.9000 0.9000 0.8980
5.261365 0.8980 0.8980 0.8980 0.8980 0.8960
5.295000 0.8960 0.8910 0.8900 0.8880 0.8880
5.328365 0.8880 0.8880 0.8860 0.8810 0.8780
5.362000 0.8710 0.8710 0.8710 0.8700 0.8700
5.395365 0.8710 0.8710 0.8700 0.8660 0.8580
5.428000 0.8550 0.8510 0.8480 0.8460 0.8410
5.461365 0.8360 0.8280 0.8200 0.8100 0.8050
5.495000 0.7980 0.7930 0.7800 0.7680 0.7570
5.528365 0.7370 0.6950 0.6520 0.5990 0.5440
5.562000 0.4750 0.4000 0.3390 0.2640 0.2090
5.595365 0.1630 0.1160 0.0940 0.0710 0.0630
5.628000 0.0610 0.0630 0.0990 0.1510 0.2290
5.661365 0.3240 0.4040 0.4740 0.5440 0.5890
5.695000 0.6280 0.6650 0.6800 0.7030 0.7170
5.728365 0.7250 0.7280 0.7500 0.7580 0.7650
5.762000 0.7680 0.7700 0.7770 0.7870 0.8010
5.795365 0.8130 0.8300 0.8450 0.8500 0.8500
5.828000 0.8530 0.8560 0.8560 0.8600 0.8650
5.861365 0.8660 0.8700 0.8730 0.8750 0.8750
5.895000 0.8750 0.8750 0.8750 0.8750 0.8750
5.928365 0.8750 0.8750 0.8750 0.8750 0.8750
5.962000 0.8750 0.8730 0.8710 0.8710 0.8700
5.995365 0.8680 0.8660 0.8650 0.8630 0.8630
6.029000 0.8630 0.8630 0.8630 0.8650 0.8650
6.062365 0.8660 0.8680 0.8680 0.8680 0.8660
6.095000 0.8650 0.8630 0.8600 0.8580 0.8550
6.128365 0.8500 0.8460 0.8380 0.8350 0.8260
6.162000 0.8180 0.8100 0.8010 0.7970 0.7870
6.195365 0.7780 0.7580 0.7380 0.7330 0.7270
6.229000 0.7150 0.6980 0.6870 0.6700 0.6600
6.262365 0.6480 0.6380 0.6320 0.6270 0.6220
6.295000 0.6170 0.6120 0.6070 0.6000 0.5950
6.328365 0.5850 0.5770 0.5690 0.5600 0.5520
6.362000 0.5470 0.5370 0.5270 0.5120 0.4990
6.395365 0.4890 0.4790 0.4690 0.4640 0.4640
6.429000 0.4640 0.4640 0.4700 0.4840 0.4990
6.462365 0.5190 0.5390 0.5570 0.5700 0.5850
6.495000 0.5940 0.6000 0.6030 0.6080 0.6120
6.528365 0.6180 0.6270 0.6370 0.6470 0.6480
6.562000 0.6570 0.6620 0.6680 0.6730 0.6800
6.595365 0.6900 0.6980 0.7120 0.7230 0.7270
6.629000 0.7370 0.7480 0.7570 0.7620 0.7670
6.662365 0.7670 0.7670 0.7670 0.7670 0.7670
6.696000 0.7670 0.7670 0.7650 0.7650 0.7620
6.729365 0.7570 0.7480 0.7380 0.7270 0.7170
6.762000 0.7070 0.6970 0.6880 0.6850 0.6820
6.795365 0.6770 0.6700 0.6550 0.6380 0.6200
6.829000 0.5990 0.5800 0.5670 0.5620 0.5620
6.862365 0.5650 0.5740 0.5870 0.6020 0.6170
6.896000 0.6280 0.6430 0.6630 0.6850 0.7080
6.929365 0.7350 0.7600 0.7770 0.7820 0.7850
6.962000 0.7870 0.7900 0.7970 0.7980 0.7980
6.995365 0.7980 0.7980 0.7980 0.7980 0.7970
7.029000 0.7970 0.7920 0.7900 0.7900 0.7880
7.062365 0.7870 0.7820 0.7780 0.7770 0.7770
7.096000 0.7750 0.7730 0.7700 0.7670 0.7650
7.129365 0.7620 0.7580 0.7550 0.7520 0.7480
7.162000 0.7480 0.7470 0.7470 0.7470 0.7470
7.195365 0.7450 0.7430 0.7420 0.7380 0.7350
7.229000 0.7300 0.7280 0.7270 0.7250 0.7200
7.262365 0.7170 0.7100 0.7070 0.6980 0.6900
7.296000 0.6830 0.6770 0.6680 0.6580 0.6500
7.329365 0.6420 0.6350 0.6300 0.6300 0.6400
7.363000 0.6670 0.6930 0.7250 0.7480 0.7650
7.396365 0.7700 0.7730 0.7750 0.7750 0.7750
7.429000 0.7730 0.7720 0.7680 0.7680 0.7680
7.462365 0.7670 0.7650 0.7650 0.7630 0.7630
7.496000 0.7620 0.7620 0.7580 0.7580 0.7570
7.529365 0.7500 0.7400 0.7280 0.7200 0.7080
7.563000 0.7020 0.6880 0.6730 0.6620 0.6480
7.596365 0.6400 0.6170 0.5900 0.5820 0.5650
7.629000 0.5490 0.5370 0.5270 0.5170 0.5070
7.662365 0.4970 0.4840 0.4740 0.4670 0.4570
7.696000 0.4490 0.4390 0.4290 0.4190 0.4090
7.729365 0.4000 0.3910 0.3860 0.3770 0.3670
7.763000 0.3590 0.3510 0.3470 0.3390 0.3360
7.796365 0.3310 0.3270 0.3220 0.3190 0.3140
7.829000 0.3070 0.3010 0.2940 0.2860 0.2760
7.862365 0.2620 0.2490 0.2340 0.2170 0.2010
7.896000 0.1840 0.1660 0.1490 0.1290 0.1110
7.929365 0.0960 0.0810 0.0690 0.0590 0.0490
7.963000 0.0430 0.0390 0.0330 0.0310 0.0290
7.996365 0.0280 0.0280 0.0240 0.0230 0.0210
8.030000 0.0210 0.0210 0.0210 0.0210 0.0210
8.063365 0.0210 0.0210 0.0190 0.0180 0.0160
8.096000 0.0160 0.0160 0.0160 0.0160 0.0210
8.129365 0.0310 0.0460 0.0530 0.0610 0.0710
8.163000 0.0860 0.1040 0.1280 0.1560 0.1860
8.196365 0.2190 0.2520 0.2820 0.3110 0.3340
8.230000 0.3510 0.3840 0.4040 0.4370 0.4640
8.263365 0.4800 0.4970 0.5100 0.5290 0.5390
8.296000 0.5500 0.5590 0.5690 0.5770 0.5840
8.329365 0.5920 0.5990 0.6070 0.6120 0.6170
8.363000 0.6180 0.6220 0.6250 0.6270 0.6280
8.396365 0.6280 0.6300 0.6320 0.6320 0.6320
8.430000 0.6320 0.6320 0.6300 0.6300 0.6280
8.463365 0.6250 0.6200 0.6170 0.6120 0.6070
8.496000 0.6000 0.5970 0.5870 0.5770 0.5670
8.529365 0.5540 0.5450 0.5350 0.5290 0.5190
8.563000 0.5070 0.4940 0.4750 0.4570 0.4370
8.596365 0.4150 0.3910 0.3670 0.3410 0.3190
8.630000 0.2960 0.2740 0.2540 0.2390 0.2240
8.663365 0.2120 0.2040 0.2010 0.1980 0.1890
8.697000 0.1810 0.1760 0.1710 0.1690 0.1680
8.730365 0.1680 0.1660 0.1640 0.1640 0.1630
8.763000 0.1630 0.1610 0.1610 0.1610 0.1610
8.796365 0.1590 0.1590 0.1590 0.1590 0.1590
8.830000 0.1630 0.1690 0.1730 0.1790 0.1860
8.863365 0.1910 0.1990 0.2020 0.2090 0.2170
8.897000 0.2210 0.2270 0.2320 0.2390 0.2490
8.930365 0.2520 0.2620 0.2690 0.2760 0.2790
8.963000 0.2870 0.2970 0.2990 0.3020 0.3090
8.996365 0.3160 0.3260 0.3340 0.3420 0.3490
9.030000 0.3570 0.3610 0.3760 0.3840 0.3960
9.063365 0.3990 0.4020 0.4100 0.4170 0.4240
9.097000 0.4290 0.4370 0.4440 0.4470 0.4500
9.130365 0.4570 0.4620 0.4650 0.4690 0.4720
9.163000 0.4770 0.4800 0.4850 0.4870 0.4940
9.196365 0.4950 0.4970 0.5090 0.5140 0.5150
9.230000 0.5200 0.5240 0.5270 0.5270 0.5290
9.263365 0.5290 0.5320 0.5340 0.5350 0.5370
9.297000 0.5390 0.5390 0.5390 0.5390 0.5390
9.330365 0.5390 0.5450 0.5470 0.5490 0.5520
9.364000 0.5550 0.5570 0.5590 0.5620 0.5640
9.397365 0.5650 0.5670 0.5670 0.5670 0.5650
9.430000 0.5640 0.5600 0.5570 0.5540 0.5470
9.463365 0.5400 0.5370 0.5290 0.5220 0.5150
9.497000 0.5050 0.4970 0.4850 0.4770 0.4690
9.530365 0.4570 0.4470 0.4350 0.4240 0.4100
9.564000 0.3990 0.3890 0.3720 0.3570 0.3420
9.597365 0.3260 0.3070 0.2790 0.2540 0.2440
9.630000 0.2260 0.2090 0.1990 0.1860 0.1780
9.663365 0.1690 0.1640 0.1630 0.1610 0.1610
9.697000 0.1630 0.1690 0.1780 0.1940 0.2020
9.730365 0.2170 0.2320 0.2490 0.2690 0.2820
9.764000 0.3010 0.3140 0.3270 0.3410 0.3520
9.797365 0.3640 0.3790 0.4040 0.4150 0.4250
9.830000 0.4350 0.4440 0.4470 0.4490 0.4520
9.863365 0.4550 0.4570 0.4590 0.4590 0.4600
9.897000 0.4600 0.4590 0.4590 0.4590 0.4590
9.930365 0.4620 0.4650 0.4670 0.4750 0.4800
9.964000 0.4890 0.4970 0.5050 0.5120 0.5190
9.997365 0.5250 0.5340 0.5400 0.5490 0.5550
10.030000 0.5590 0.5650 0.5670 0.5720 0.5750
10.063365 0.5790 0.5800 0.5800 0.5800 0.5790
10.097000 0.5770 0.5750 0.5690 0.5600 0.5520
10.130365 0.5470 0.5370 0.5300 0.5240 0.5170
10.164000 0.5070 0.5000 0.4970 0.4900 0.4870
10.197365 0.4850 0.4800 0.4790 0.4790 0.4790
10.231000 0.4790 0.4800 0.4850 0.4890 0.4970
10.264365 0.5020 0.5100 0.5190 0.5270 0.5350
10.297000 0.5400 0.5450 0.5470 0.5550 0.5570
10.330365 0.5600 0.5640 0.5670 0.5690 0.5700
10.364000 0.5720 0.5740 0.5750 0.5750 0.5770
10.397365 0.5770 0.5790 0.5820 0.5840 0.5850
10.431000 0.5870 0.5890 0.5920 0.5940 0.5950
10.464365 0.5970 0.5990 0.6000 0.6020 0.6030
10.497000 0.6070 0.6100 0.6170 0.6180 0.6220
10.530365 0.6250 0.6270 0.6270 0.6270 0.6270
10.564000 0.6250 0.6250 0.6250 0.6250 0.6230
10.597365 0.6220 0.6220 0.6220 0.6220 0.6200
10.631000 0.6200 0.6180 0.6180 0.6180 0.6180
10.664365 0.6200 0.6220 0.6230 0.6250 0.6270
10.697000 0.6320 0.6350 0.6380 0.6420 0.6430
10.730365 0.6470 0.6470 0.6480 0.6480 0.6500
10.764000 0.6500 0.6520 0.6530 0.6550 0.6570
10.797365 0.6570 0.6580 0.6580 0.6570 0.6570
10.831000 0.6570 0.6550 0.6550 0.6550 0.6550
10.864365 0.6550 0.6550 0.6550 0.6550 0.6570
10.898000 0.6580 0.6600 0.6620 0.6650 0.6650
10.931365 0.6700 0.6750 0.6780 0.6820 0.6850
10.964000 0.6870 0.6880 0.6900 0.6900 0.6920
10.997365 0.6930 0.6930 0.6950 0.6950 0.6970
11.031000 0.6970 0.6970 0.6970 0.6970 0.6950
11.064365 0.6950 0.6930 0.6870 0.6830 0.6750
11.098000 0.6700 0.6670 0.6630 0.6580 0.6500
11.131365 0.6450 0.6380 0.6320 0.6250 0.6170
11.164000 0.6070 0.6020 0.5940 0.5800 0.5670
11.197365 0.5640 0.5450 0.5220 0.4970 0.4790
11.231000 0.4720 0.4520 0.4320 0.4120 0.3920
11.264365 0.3710 0.3520 0.3240 0.3110 0.2920
11.298000 0.2740 0.2540 0.2410 0.2310 0.2270
11.331365 0.2190 0.2160 0.2110 0.2090 0.2090
11.364000 0.2090 0.2120 0.2170 0.2210 0.2260
11.397365 0.2290 0.2340 0.2420 0.2520 0.2590
11.431000 0.2660 0.2720 0.2810 0.2940 0.2990
11.464365 0.3070 0.3160 0.3190 0.3270 0.3320
11.498000 0.3410 0.3490 0.3570 0.3610 0.3670
11.531365 0.3710 0.3760 0.3790 0.3870 0.3940
11.565000 0.3970 0.3990 0.4000 0.4050 0.4050
11.598365 0.4070 0.4120 0.4140 0.4150 0.4150
11.631000 0.4150 0.4150 0.4150 0.4150 0.4150
11.664365 0.4140 0.4120 0.4100 0.4090 0.4050
11.698000 0.4000 0.3990 0.3970 0.3940 0.3870
11.731365 0.3810 0.3760 0.3670 0.3610 0.3520
11.765000 0.3460 0.3390 0.3340 0.3270 0.3140
11.798365 0.3010 0.2890 0.2760 0.2640 0.2540
11.831000 0.2440 0.2320 0.2220 0.2140 0.2040
11.864365 0.1940 0.1840 0.1790 0.1760 0.1690
11.898000 0.1660 0.1610 0.1580 0.1510 0.1490
11.931365 0.1460 0.1410 0.1390 0.1380 0.1330
11.965000 0.1310 0.1280 0.1230 0.1190 0.1130
11.998365 0.1040 0.0940 0.0860 0.0760 0.0660
12.031000 0.0590 0.0530 0.0480 0.0410 0.0360
12.064365 0.0310 0.0280 0.0240 0.0210 0.0180
12.098000 0.0140 0.0130 0.0130 0.0130 0.0130
12.131365 0.0140 0.0140 0.0180 0.0230 0.0280
12.165000 0.0330 0.0360 0.0430 0.0490 0.0590
12.198365 0.0690 0.0780 0.0880 0.0980 0.1080
12.232000 0.1190 0.1310 0.1440 0.1580 0.1710
12.265365 0.1860 0.2010 0.2140 0.2290 0.2460
12.298000 0.2610 0.2760 0.2910 0.3040 0.3190
12.331365 0.3360 0.3470 0.3670 0.3840 0.3990
12.365000 0.4120 0.4270 0.4400 0.4520 0.4640
12.398365 0.4750 0.4840 0.5090 0.5140 0.5220
12.432000 0.5290 0.5370 0.5450 0.5520 0.5590
12.465365 0.5640 0.5670 0.5750 0.5840 0.5940
12.498000 0.5970 0.5990 0.6050 0.6080 0.6150
12.531365 0.6200 0.6270 0.6320 0.6370 0.6420
12.565000 0.6470 0.6520 0.6570 0.6580 0.6620
12.598365 0.6650 0.6700 0.6750 0.6800 0.6850
12.632000 0.6870 0.6920 0.6950 0.6970 0.6980
12.665365 0.7000 0.7030 0.7050 0.7070 0.7080
12.698000 0.7100 0.7150 0.7170 0.7180 0.7180
12.731365 0.7200 0.7220 0.7220 0.7230 0.7270
12.765000 0.7280 0.7320 0.7320 0.7320 0.7330
12.798365 0.7330 0.7330 0.7330 0.7330 0.7350
12.832000 0.7350 0.7350 0.7350 0.7350 0.7350
12.865365 0.7350 0.7350 0.7350 0.7350 0.7350
12.899000 0.7350 0.7350 0.7350 0.7350 0.7330
12.932365 0.7320 0.7280 0.7270 0.7200 0.7170
12.965000 0.7150 0.7120 0.7070 0.7050 0.7020
12.998365 0.6980 0.6930 0.6880 0.6830 0.6780
13.032000 0.6730 0.6670 0.6600 0.6520 0.6430
13.065365 0.6370 0.6300 0.6270 0.6220 0.6150
13.099000 0.6080 0.6000 0.5940 0.5840 0.5750
13.132365 0.5650 0.5570 0.5490 0.5390 0.5320
13.165000 0.5270 0.5190 0.5120 0.5070 0.5020
13.198365 0.4950 0.4900 0.4850 0.4800 0.4770
13.232000 0.4750 0.4740 0.4720 0.4690 0.4670
13.265365 0.4650 0.4620 0.4620 0.4600 0.4590
13.299000 0.4570 0.4570 0.4570 0.4570 0.4550
13.332365 0.4550 0.4540 0.4540 0.4540 0.4540
13.365000 0.4550 0.4570 0.4600 0.4650 0.4650
13.398365 0.4720 0.4820 0.4900 0.4950 0.4970
13.432000 0.5020 0.5100 0.5190 0.5270 0.5370
13.465365 0.5450 0.5520 0.5600 0.5670 0.5720
13.499000 0.5800 0.5870 0.5950 0.6020 0.6080
13.532365 0.6170 0.6230 0.6280 0.6330 0.6370
13.566000 0.6420 0.6470 0.6520 0.6570 0.6600
13.599365 0.6630 0.6650 0.6670 0.6670 0.6670
13.632000 0.6670 0.6670 0.6680 0.6680 0.6700
13.665365 0.6750 0.6770 0.6780 0.6800 0.6800
13.699000 0.6800 0.6780 0.6770 0.6750 0.6720
13.732365 0.6720 0.6700 0.6700 0.6680 0.6680
13.766000 0.6670 0.6650 0.6650 0.6630 0.6580
13.799365 0.6570 0.6570 0.6550 0.6550 0.6550
13.832000 0.6550 0.6550 0.6550 0.6550 0.6550
13.865365 0.6520 0.6480 0.6470 0.6470 0.6450
13.899000 0.6430 0.6430 0.6430 0.6430 0.6430
13.932365 0.6400 0.6380 0.6370 0.6350 0.6320
13.966000 0.6300 0.6300 0.6320 0.6330 0.6350
13.999365 0.6330 0.6320 0.6280 0.6270 0.6250
14.032000 0.6220 0.6180 0.6170 0.6170 0.6170
14.065365 0.6170 0.6170 0.6150 0.6150 0.6100
14.099000 0.6070 0.6030 0.6030 0.6000 0.6000
14.132365 0.6000 0.6000 0.5990 0.5970 0.5920
14.166000 0.5890 0.5890 0.5850 0.5800 0.5750
14.199365 0.5700 0.5670 0.5670 0.5670 0.5670
14.232000 0.5650 0.5590 0.5520 0.5490 0.5470
14.265365 0.5400 0.5370 0.5350 0.5320 0.5300
14.299000 0.5240 0.5190 0.5150 0.5100 0.5020
14.332365 0.4950 0.4870 0.4800 0.4740 0.4670
14.366000 0.4600 0.4570 0.4500 0.4440 0.4320
14.399365 0.4220 0.4100 0.3990 0.3890 0.3810
14.433000 0.3720 0.3620 0.3540 0.3420 0.3320
14.466365 0.3190 0.3040 0.2860 0.2720 0.2540
14.499000 0.2420 0.2240 0.2090 0.1980 0.1860
14.532365 0.1760 0.1640 0.1540 0.1430 0.1290
14.566000 0.1160 0.1040 0.0890 0.0740 0.0690
14.599365 0.0590 0.0480 0.0380 0.0360 0.0310
14.633000 0.0290 0.0230 0.0190 0.0110 0.0040
14.666365 0.0010 0.0000 0.0000 0.0000 0.0000
14.699000 0.0040 0.0090 0.0110 0.0110 0.0130
14.732365 0.0140 0.0180 0.0210 0.0260 0.0340
14.766000 0.0460 0.0580 0.0680 0.0740 0.0830
14.799365 0.0910 0.0990 0.1080 0.1190 0.1330
14.833000 0.1390 0.1490 0.1630 0.1740 0.1860
14.866365 0.1940 0.2020 0.2110 0.2210 0.2310
14.899000 0.2420 0.2520 0.2620 0.2740 0.2890
14.932365 0.3020 0.3140 0.3270 0.3390 0.3490
14.966000 0.3590 0.3670 0.3720 0.3760 0.3820
14.999365 0.3910 0.3990 0.4070 0.4140 0.4170
15.033000 0.4200 0.4250 0.4270 0.4290 0.4320
15.066365 0.4340 0.4340 0.4350 0.4370 0.4390
15.100000 0.4420 0.4420 0.4440 0.4450 0.4470
15.133365 0.4490 0.4500 0.4520 0.4520 0.4520
15.166000 0.4520 0.4520 0.4520 0.4500 0.4500
15.199365 0.4500 0.4490 0.4490 0.4470 0.4470
15.233000 0.4470 0.4470 0.4470 0.4470 0.4470
15.266365 0.4470 0.4470 0.4470 0.4470 0.4470
15.300000 0.4470 0.4470 0.4470 0.4470 0.4470
15.333365 0.4470 0.4490 0.4490 0.4490 0.4470
15.366000 0.4470 0.4470 0.4450 0.4450 0.4440
15.399365 0.4440 0.4420 0.4400 0.4390 0.4370
15.433000 0.4370 0.4350 0.4350 0.4340 0.4340
15.466365 0.4320 0.4320 0.4320 0.4320 0.4320
15.500000 0.4320 0.4320 0.4320 0.4320 0.4320
15.533365 0.4320 0.4320 0.4320 0.4320 0.4320
15.566000 0.4320 0.4320 0.4320 0.4320 0.4300
15.599365 0.4290 0.4270 0.4240 0.4200 0.4190
15.633000 0.4170 0.4170 0.4120 0.4100 0.4090
15.666365 0.4090 0.4090 0.4090 0.4090 0.4090
15.700000 0.4070 0.4070 0.4050 0.4040 0.4020
15.733365 0.4000 0.3990 0.3990 0.4020 0.4020
15.767000 0.4020 0.4020 0.3990 0.3990 0.3970
15.800365 0.3970 0.3970 0.3970 0.3960 0.3960
15.833000 0.3940 0.3920 0.3890
##END=
