##TITLE=Ethanol, 2-[(N-Methyl-N-Purin-2-yl)Amino]-
##JCAMP-DX=4.24
##DATA TYPE=INFRARED SPECTRUM
##CLASS=COBLENTZ III
##ORIGIN=SOUTHERN RESEARCH INSTITUTE
##OWNER=Copyright (C) 1987 by the Coblentz Society
Collection (C) 2018 copyright by the U.S. Secretary of Commerce
on behalf of the United States of America. All rights reserved.
##DATE=1960/03/07
##NAMES=2-[methyl(7H-purin-2-yl)amino]ethanol
##MOLFORM=C8 H11 N5 O
##SOURCE REFERENCE=COBLENTZ NO. 8231
##$NIST ID=B6008231
##$NIST SOURCE=COBLENTZ
##$NIST IMAGE=cob8231
##SPECTROMETER/DATA SYSTEM=PERKIN-ELMER 21 (GRATING)
##INSTRUMENT PARAMETERS=FILTER CHANGE ABOUT 1025 CM^-^1
##STATE=SOLID (0.9 mg / 650 mg KBr DISC)
##SAMPLING PROCEDURE=TRANSMISSION
##RESOLUTION=2
##DATA PROCESSING=DIGITIZED BY COBLENTZ SOCIETY (BATCH II) FROM HARD COPY (ADJUSTED \addcm-1\5-5-0\)
##XUNITS=1/CM
##YUNITS=TRANSMITTANCE
##XFACTOR=1.0
##YFACTOR=1
##DELTAX=1.003533
##FIRSTX=604
##LASTX=4012
##FIRSTY=0.3965
##MAXX=4012
##MINX=604
##MAXY=0.88368
##MINY=0.0891517
##NPOINTS=3397
##XYDATA=(X++(Y..Y))
604.000000 0.3965 0.3944 0.3922 0.3914 0.3908
609.017663 0.3902 0.3903 0.3909 0.3918 0.3929
614.035325 0.3945 0.3965 0.3988 0.4010 0.4033
619.052988 0.4055 0.4077 0.4100 0.4123 0.4156
624.070651 0.4190 0.4225 0.4260 0.4302 0.4344
629.088313 0.4386 0.4429 0.4498 0.4619 0.4745
634.105976 0.4875 0.5017 0.5164 0.5231 0.5291
639.123639 0.5303 0.5315 0.5327 0.5338 0.5341
644.141301 0.5343 0.5346 0.5348 0.5350 0.5351
649.158964 0.5352 0.5352 0.5351 0.5350 0.5349
654.176626 0.5348 0.5347 0.5346 0.5344 0.5349
659.194289 0.5350 0.5350 0.5351 0.5354 0.5363
664.211952 0.5375 0.5386 0.5398 0.5410 0.5424
669.229614 0.5438 0.5453 0.5470 0.5498 0.5531
674.247277 0.5563 0.5596 0.5628 0.5660 0.5691
679.264940 0.5728 0.5777 0.5825 0.5874 0.5922
684.282602 0.5969 0.6016 0.6058 0.6086 0.6113
689.300265 0.6140 0.6168 0.6195 0.6223 0.6250
694.317928 0.6278 0.6305 0.6333 0.6359 0.6382
699.335590 0.6399 0.6417 0.6435 0.6452 0.6469
704.353253 0.6485 0.6502 0.6518 0.6532 0.6541
709.370916 0.6549 0.6557 0.6565 0.6573 0.6581
714.388578 0.6587 0.6591 0.6594 0.6596 0.6596
719.406241 0.6595 0.6595 0.6594 0.6588 0.6577
724.423903 0.6565 0.6546 0.6521 0.6495 0.6470
729.441566 0.6437 0.6396 0.6367 0.6359 0.6357
734.459229 0.6357 0.6365 0.6390 0.6425 0.6451
739.476891 0.6462 0.6466 0.6467 0.6465 0.6463
744.494554 0.6462 0.6463 0.6464 0.6468 0.6484
749.512217 0.6548 0.6631 0.6692 0.6738 0.6776
754.529879 0.6793 0.6792 0.6791 0.6784 0.6778
759.547542 0.6773 0.6765 0.6758 0.6750 0.6741
764.565205 0.6729 0.6718 0.6706 0.6694 0.6681
769.582867 0.6663 0.6639 0.6615 0.6584 0.6545
774.600530 0.6503 0.6462 0.6402 0.6328 0.6251
779.618193 0.6171 0.6089 0.5985 0.5850 0.5710
784.635855 0.5313 0.4836 0.4422 0.4021 0.3621
789.653518 0.3454 0.3436 0.3533 0.3750 0.4002
794.671180 0.4253 0.4505 0.4757 0.5009 0.5261
799.688843 0.5496 0.5583 0.5611 0.5630 0.5642
804.706506 0.5649 0.5655 0.5661 0.5664 0.5666
809.724168 0.5671 0.5687 0.5711 0.5744 0.5779
814.741831 0.5812 0.5838 0.5859 0.5873 0.5880
819.759494 0.5884 0.5888 0.5892 0.5899 0.5913
824.777156 0.5941 0.5986 0.6064 0.6237 0.6454
829.794819 0.6568 0.6607 0.6635 0.6661 0.6673
834.812482 0.6682 0.6690 0.6716 0.6707 0.6702
839.830144 0.6699 0.6695 0.6691 0.6683 0.6669
844.847807 0.6626 0.6570 0.6501 0.6430 0.6320
849.865470 0.6184 0.6118 0.6094 0.6110 0.6298
854.883132 0.6526 0.6758 0.6989 0.7220 0.7308
859.900795 0.7338 0.7351 0.7348 0.7348 0.7339
864.918457 0.7329 0.7318 0.7307 0.7288 0.7265
869.936120 0.7241 0.7216 0.7190 0.7166 0.7132
874.953783 0.7095 0.7058 0.7020 0.6952 0.6877
879.971445 0.6818 0.6759 0.6701 0.6643 0.6579
884.989108 0.6514 0.6447 0.6377 0.6301 0.6225
890.006771 0.6187 0.6182 0.6198 0.6329 0.6450
895.024433 0.6570 0.6690 0.6767 0.6773 0.6773
900.042096 0.6768 0.6761 0.6734 0.6705 0.6668
905.059759 0.6607 0.6537 0.6468 0.6401 0.6333
910.077421 0.6257 0.6179 0.6090 0.6001 0.5913
915.095084 0.5823 0.5704 0.5555 0.5440 0.5350
920.112747 0.5261 0.5166 0.5025 0.4873 0.4616
925.130409 0.4299 0.3981 0.3663 0.3345 0.3070
930.148072 0.3051 0.3096 0.3356 0.3790 0.4223
935.165734 0.4657 0.5090 0.5524 0.5942 0.6225
940.183397 0.6215 0.6188 0.6129 0.6069 0.6009
945.201060 0.5950 0.5890 0.5831 0.5771 0.5711
950.218722 0.5666 0.5696 0.5862 0.6057 0.6253
955.236385 0.6450 0.6467 0.6429 0.6376 0.6322
960.254048 0.6272 0.6261 0.6301 0.6562 0.6930
965.271710 0.7297 0.7582 0.7753 0.7842 0.7869
970.289373 0.7885 0.7892 0.7886 0.7885 0.7884
975.307036 0.7882 0.7878 0.7870 0.7862 0.7856
980.324698 0.7848 0.7841 0.7834 0.7827 0.7815
985.342361 0.7802 0.7789 0.7773 0.7750 0.7725
990.360024 0.7700 0.7675 0.7650 0.7623 0.7593
995.377686 0.7554 0.7515 0.7475 0.7432 0.7381
1000.395349 0.7328 0.7277 0.7224 0.7172 0.7122
1005.413011 0.7070 0.7019 0.6968 0.6902 0.6768
1010.430674 0.6601 0.6434 0.6269 0.6103 0.5938
1015.448337 0.5772 0.5606 0.5441 0.5291 0.5213
1020.465999 0.5235 0.5411 0.5743 0.6075 0.6407
1025.483662 0.6739 0.6933 0.6960 0.6960 0.6964
1030.501325 0.6956 0.6939 0.6912 0.6879 0.6840
1035.518987 0.6796 0.6746 0.6691 0.6633 0.6570
1040.536650 0.6499 0.6377 0.6133 0.5928 0.5748
1045.554313 0.5502 0.5130 0.4692 0.4251 0.3811
1050.571975 0.3370 0.3062 0.2942 0.2882 0.2842
1055.589638 0.2818 0.2798 0.2798 0.2816 0.2874
1060.607301 0.3155 0.3580 0.3977 0.4159 0.4102
1065.624963 0.3953 0.3788 0.3622 0.3457 0.3292
1070.642626 0.3126 0.2974 0.2907 0.3095 0.3560
1075.660288 0.4124 0.4688 0.5251 0.5814 0.6378
1080.677951 0.6920 0.7219 0.7325 0.7434 0.7515
1085.695614 0.7574 0.7618 0.7645 0.7672 0.7692
1090.713276 0.7699 0.7703 0.7705 0.7703 0.7699
1095.730939 0.7702 0.7697 0.7681 0.7669 0.7651
1100.748602 0.7633 0.7605 0.7551 0.7468 0.7370
1105.766264 0.7287 0.7218 0.7149 0.7064 0.6961
1110.783927 0.6852 0.6723 0.6578 0.6427 0.6272
1115.801590 0.6091 0.5875 0.5655 0.5435 0.5214
1120.819252 0.4994 0.4774 0.4551 0.4428 0.4550
1125.836915 0.4847 0.5179 0.5511 0.5844 0.6177
1130.854578 0.6509 0.6799 0.6935 0.6942 0.6882
1135.872240 0.6755 0.6672 0.6587 0.6503 0.6419
1140.889903 0.6346 0.6312 0.6337 0.6342 0.6458
1145.907565 0.6779 0.6949 0.7118 0.7287 0.7456
1150.925228 0.7625 0.7764 0.7836 0.7868 0.7881
1155.942891 0.7889 0.7895 0.7894 0.7893 0.7906
1160.960553 0.7907 0.7908 0.7907 0.7902 0.7897
1165.978216 0.7893 0.7888 0.7883 0.7877 0.7867
1170.995879 0.7856 0.7845 0.7831 0.7816 0.7801
1176.013541 0.7786 0.7771 0.7756 0.7741 0.7723
1181.031204 0.7704 0.7686 0.7668 0.7650 0.7633
1186.048867 0.7623 0.7630 0.7636 0.7647 0.7666
1191.066529 0.7684 0.7698 0.7702 0.7700 0.7694
1196.084192 0.7688 0.7680 0.7669 0.7654 0.7625
1201.101855 0.7587 0.7534 0.7477 0.7416 0.7346
1206.119517 0.7253 0.7161 0.7069 0.6978 0.6886
1211.137180 0.6794 0.6710 0.6664 0.6675 0.6739
1216.154843 0.6858 0.6977 0.7096 0.7216 0.7324
1221.172505 0.7391 0.7410 0.7370 0.7362 0.7349
1226.190168 0.7336 0.7309 0.7257 0.7205 0.7159
1231.207830 0.7113 0.7062 0.7011 0.6961 0.6916
1236.225493 0.6872 0.6828 0.6776 0.6681 0.6559
1241.243156 0.6372 0.6086 0.5887 0.5587 0.5257
1246.260818 0.4926 0.4596 0.4266 0.3936 0.3654
1251.278481 0.3626 0.3655 0.3740 0.4128 0.4516
1256.296144 0.4905 0.5293 0.5682 0.6070 0.6459
1261.313806 0.6800 0.6846 0.6849 0.6852 0.6854
1266.331469 0.6852 0.6850 0.6847 0.6847 0.6845
1271.349132 0.6843 0.6841 0.6837 0.6833 0.6829
1276.366794 0.6824 0.6818 0.6813 0.6807 0.6791
1281.384457 0.6764 0.6706 0.6612 0.6514 0.6401
1286.402120 0.6072 0.5714 0.5356 0.4998 0.4640
1291.419782 0.4283 0.3928 0.3640 0.3598 0.3635
1296.437445 0.3668 0.4115 0.4564 0.5014 0.5464
1301.455107 0.5914 0.6362 0.6787 0.6873 0.6947
1306.472770 0.6973 0.6999 0.7022 0.7023 0.7056
1311.490433 0.7014 0.7008 0.6991 0.6963 0.6927
1316.508095 0.6890 0.6851 0.6812 0.6738 0.6635
1321.525758 0.6466 0.6305 0.6165 0.6049 0.5982
1326.543421 0.5934 0.5950 0.5943 0.5946 0.6078
1331.561083 0.6224 0.6371 0.6518 0.6699 0.6700
1336.578746 0.6698 0.6695 0.6688 0.6576 0.6276
1341.596409 0.5971 0.5665 0.5360 0.5055 0.4749
1346.614071 0.4444 0.4139 0.3833 0.3528 0.3223
1351.631734 0.3064 0.3051 0.3052 0.3056 0.3226
1356.649397 0.3481 0.3742 0.4002 0.4262 0.4523
1361.667059 0.4784 0.5045 0.5305 0.5566 0.5826
1366.684722 0.6032 0.6054 0.6058 0.6069 0.6056
1371.702384 0.6045 0.6030 0.6005 0.5964 0.5936
1376.720047 0.5920 0.5909 0.5890 0.5906 0.5929
1381.737710 0.6010 0.6112 0.6151 0.6168 0.6169
1386.755372 0.6169 0.6166 0.6157 0.6148 0.6127
1391.773035 0.6097 0.5831 0.5529 0.5226 0.4923
1396.790698 0.4621 0.4318 0.4015 0.3712 0.3409
1401.808360 0.3106 0.2804 0.2501 0.2198 0.1960
1406.826023 0.1921 0.1911 0.2087 0.2310 0.2534
1411.843686 0.2759 0.2983 0.3208 0.3433 0.3506
1416.861348 0.3515 0.3320 0.3056 0.2788 0.2584
1421.879011 0.2553 0.2661 0.2797 0.2933 0.3069
1426.896674 0.3205 0.3342 0.3478 0.3614 0.3751
1431.914336 0.3886 0.3963 0.3978 0.3937 0.3879
1436.931999 0.3820 0.3762 0.3704 0.3645 0.3593
1441.949661 0.3580 0.3743 0.3987 0.4233 0.4479
1446.967324 0.4724 0.4969 0.5215 0.5461 0.5707
1451.984987 0.6014 0.6152 0.6155 0.6142 0.6089
1457.002649 0.6015 0.5940 0.5865 0.5791 0.5753
1462.020312 0.5754 0.5764 0.5772 0.5786 0.5804
1467.037975 0.5819 0.5831 0.5840 0.5846 0.5846
1472.055637 0.5845 0.5829 0.5793 0.5747 0.5691
1477.073300 0.5623 0.5557 0.5515 0.5496 0.5486
1482.090963 0.5478 0.5469 0.5458 0.5446 0.5435
1487.108625 0.5280 0.4951 0.4606 0.4262 0.3918
1492.126288 0.3576 0.3385 0.3375 0.3360 0.3362
1497.143951 0.3535 0.3885 0.4236 0.4586 0.4936
1502.161613 0.5286 0.5558 0.5655 0.5665 0.5667
1507.179276 0.5658 0.5654 0.5650 0.5642 0.5631
1512.196938 0.5614 0.5584 0.5550 0.5507 0.5459
1517.214601 0.5403 0.5311 0.5055 0.4658 0.4361
1522.232264 0.4064 0.3768 0.3471 0.3174 0.2878
1527.249926 0.2581 0.2284 0.1988 0.1691 0.1393
1532.267589 0.1149 0.1065 0.1015 0.0966 0.0921
1537.285252 0.0892 0.0901 0.0900 0.0908 0.0921
1542.302914 0.0947 0.0987 0.1041 0.1101 0.1154
1547.320577 0.1221 0.1373 0.1595 0.1816 0.2037
1552.338240 0.2258 0.2480 0.2701 0.2903 0.3004
1557.355902 0.3058 0.3090 0.3119 0.3139 0.3146
1562.373565 0.3146 0.3141 0.3139 0.3004 0.2779
1567.391228 0.2554 0.2329 0.2105 0.1880 0.1655
1572.408890 0.1430 0.1227 0.1225 0.1224 0.1213
1577.426553 0.1232 0.1272 0.1579 0.1895 0.2212
1582.444215 0.2528 0.2845 0.3162 0.3478 0.3795
1587.461878 0.4111 0.4428 0.4745 0.5061 0.5379
1592.479541 0.5694 0.5883 0.5995 0.6136 0.6319
1597.497203 0.6476 0.6601 0.6673 0.6721 0.6735
1602.514866 0.6742 0.6738 0.6734 0.6710 0.6683
1607.532529 0.6648 0.6612 0.6579 0.6551 0.6523
1612.550191 0.6495 0.6445 0.6393 0.6302 0.6100
1617.567854 0.5886 0.5673 0.5460 0.5247 0.5033
1622.585517 0.4820 0.4607 0.4394 0.4180 0.3967
1627.603179 0.3754 0.3490 0.3402 0.3349 0.3295
1632.620842 0.3159 0.3000 0.2840 0.2680 0.2520
1637.638505 0.2361 0.2201 0.2040 0.1881 0.1721
1642.656167 0.1560 0.1414 0.1364 0.1383 0.1605
1647.673830 0.1945 0.2303 0.2661 0.3018 0.3377
1652.691492 0.3609 0.3704 0.3761 0.3817 0.3865
1657.709155 0.3909 0.3956 0.4012 0.4071 0.4131
1662.726818 0.4190 0.4250 0.4370 0.4522 0.4704
1667.744480 0.4883 0.5028 0.5155 0.5260 0.5358
1672.762143 0.5589 0.6070 0.6353 0.6562 0.6731
1677.779806 0.6852 0.6965 0.7166 0.7378 0.7474
1682.797468 0.7540 0.7587 0.7619 0.7649 0.7674
1687.815131 0.7687 0.7697 0.7708 0.7721 0.7733
1692.832794 0.7745 0.7757 0.7773 0.7798 0.7824
1697.850456 0.7843 0.7859 0.7874 0.7889 0.7903
1702.868119 0.7915 0.7926 0.7938 0.7950 0.7961
1707.885782 0.7972 0.7984 0.7995 0.8006 0.8014
1712.903444 0.8022 0.8030 0.8038 0.8046 0.8054
1717.921107 0.8062 0.8070 0.8078 0.8087 0.8095
1722.938770 0.8104 0.8113 0.8121 0.8130 0.8140
1727.956432 0.8151 0.8164 0.8175 0.8187 0.8199
1732.974095 0.8210 0.8225 0.8242 0.8260 0.8277
1737.991757 0.8295 0.8302 0.8308 0.8314 0.8320
1743.009420 0.8326 0.8332 0.8338 0.8344 0.8350
1748.027083 0.8356 0.8362 0.8368 0.8374 0.8380
1753.044745 0.8384 0.8387 0.8389 0.8392 0.8394
1758.062408 0.8396 0.8398 0.8400 0.8402 0.8403
1763.080071 0.8405 0.8409 0.8413 0.8418 0.8439
1768.097733 0.8423 0.8427 0.8431 0.8434 0.8438
1773.115396 0.8441 0.8442 0.8439 0.8433 0.8424
1778.133059 0.8414 0.8404 0.8395 0.8384 0.8372
1783.150721 0.8360 0.8349 0.8337 0.8325 0.8311
1788.168384 0.8298 0.8284 0.8270 0.8256 0.8242
1793.186047 0.8228 0.8215 0.8201 0.8187 0.8173
1798.203709 0.8156 0.8138 0.8120 0.8103 0.8086
1803.221372 0.8070 0.8055 0.8041 0.8028 0.8014
1808.239034 0.8000 0.7987 0.7973 0.7960 0.7945
1813.256697 0.7931 0.7915 0.7902 0.7913 0.7922
1818.274360 0.7931 0.7938 0.7943 0.7950 0.7964
1823.292022 0.7991 0.8026 0.8066 0.8114 0.8164
1828.309685 0.8206 0.8243 0.8279 0.8314 0.8345
1833.327348 0.8376 0.8407 0.8438 0.8472 0.8506
1838.345010 0.8540 0.8571 0.8595 0.8614 0.8633
1843.362673 0.8652 0.8669 0.8681 0.8687 0.8692
1848.380336 0.8698 0.8703 0.8705 0.8708 0.8710
1853.397998 0.8712 0.8715 0.8717 0.8719 0.8720
1858.415661 0.8721 0.8721 0.8718 0.8718 0.8724
1863.433324 0.8724 0.8725 0.8724 0.8723 0.8722
1868.450986 0.8720 0.8719 0.8717 0.8716 0.8715
1873.468649 0.8713 0.8712 0.8710 0.8708 0.8706
1878.486311 0.8703 0.8700 0.8697 0.8694 0.8690
1883.503974 0.8687 0.8684 0.8681 0.8677 0.8674
1888.521637 0.8671 0.8668 0.8664 0.8655 0.8644
1893.539299 0.8632 0.8620 0.8609 0.8597 0.8585
1898.556962 0.8574 0.8562 0.8546 0.8527 0.8508
1903.574625 0.8488 0.8469 0.8449 0.8430 0.8411
1908.592287 0.8392 0.8374 0.8356 0.8338 0.8321
1913.609950 0.8310 0.8302 0.8300 0.8275 0.8295
1918.627613 0.8322 0.8347 0.8388 0.8433 0.8474
1923.645275 0.8513 0.8552 0.8587 0.8621 0.8655
1928.662938 0.8680 0.8695 0.8707 0.8716 0.8724
1933.680601 0.8732 0.8740 0.8746 0.8751 0.8757
1938.698263 0.8763 0.8764 0.8771 0.8777 0.8781
1943.715926 0.8786 0.8790 0.8794 0.8797 0.8799
1948.733588 0.8801 0.8803 0.8805 0.8807 0.8810
1953.751251 0.8811 0.8814 0.8816 0.8818 0.8820
1958.768914 0.8822 0.8824 0.8826 0.8828 0.8830
1963.786576 0.8832 0.8834 0.8836 0.8837 0.8836
1968.804239 0.8835 0.8833 0.8832 0.8830 0.8829
1973.821902 0.8828 0.8826 0.8825 0.8824 0.8822
1978.839564 0.8821 0.8819 0.8818 0.8817 0.8815
1983.857227 0.8814 0.8813 0.8811 0.8810 0.8808
1988.874890 0.8807 0.8806 0.8804 0.8803 0.8802
1993.892552 0.8800 0.8799 0.8797 0.8796 0.8795
1998.910215 0.8793 0.8792 0.8791 0.8789 0.8787
2003.927878 0.8786 0.8784 0.8783 0.8781 0.8779
2008.945540 0.8778 0.8776 0.8775 0.8773 0.8771
2013.963203 0.8770 0.8768 0.8767 0.8765 0.8763
2018.980865 0.8762 0.8760 0.8759 0.8757 0.8756
2023.998528 0.8754 0.8752 0.8751 0.8749 0.8748
2029.016191 0.8746 0.8744 0.8743 0.8741 0.8740
2034.033853 0.8738 0.8736 0.8735 0.8733 0.8731
2039.051516 0.8728 0.8726 0.8723 0.8721 0.8718
2044.069179 0.8716 0.8713 0.8711 0.8708 0.8706
2049.086841 0.8703 0.8701 0.8698 0.8696 0.8693
2054.104504 0.8691 0.8688 0.8686 0.8683 0.8681
2059.122167 0.8678 0.8676 0.8673 0.8671 0.8668
2064.139829 0.8666 0.8663 0.8661 0.8658 0.8656
2069.157492 0.8653 0.8650 0.8648 0.8645 0.8642
2074.175155 0.8639 0.8636 0.8634 0.8631 0.8628
2079.192817 0.8626 0.8623 0.8620 0.8618 0.8615
2084.210480 0.8612 0.8610 0.8607 0.8604 0.8602
2089.228142 0.8599 0.8596 0.8593 0.8591 0.8588
2094.245805 0.8585 0.8582 0.8580 0.8577 0.8574
2099.263468 0.8572 0.8569 0.8566 0.8564 0.8561
2104.281130 0.8558 0.8555 0.8553 0.8550 0.8547
2109.298793 0.8544 0.8542 0.8539 0.8536 0.8534
2114.316456 0.8531 0.8528 0.8525 0.8523 0.8520
2119.334118 0.8517 0.8514 0.8512 0.8509 0.8506
2124.351781 0.8504 0.8501 0.8498 0.8495 0.8493
2129.369444 0.8490 0.8487 0.8484 0.8482 0.8479
2134.387106 0.8476 0.8474 0.8471 0.8468 0.8466
2139.404769 0.8463 0.8460 0.8458 0.8455 0.8452
2144.422432 0.8450 0.8447 0.8444 0.8441 0.8439
2149.440094 0.8436 0.8433 0.8431 0.8428 0.8425
2154.457757 0.8423 0.8420 0.8417 0.8415 0.8412
2159.475419 0.8409 0.8407 0.8404 0.8401 0.8399
2164.493082 0.8396 0.8393 0.8390 0.8387 0.8383
2169.510745 0.8380 0.8377 0.8374 0.8371 0.8368
2174.528407 0.8365 0.8362 0.8359 0.8356 0.8353
2179.546070 0.8350 0.8347 0.8344 0.8341 0.8338
2184.563733 0.8335 0.8331 0.8328 0.8325 0.8322
2189.581395 0.8319 0.8316 0.8313 0.8311 0.8308
2194.599058 0.8306 0.8303 0.8301 0.8298 0.8296
2199.616721 0.8293 0.8290 0.8287 0.8282 0.8278
2204.634383 0.8273 0.8269 0.8265 0.8261 0.8256
2209.652046 0.8252 0.8248 0.8243 0.8239 0.8235
2214.669709 0.8231 0.8226 0.8222 0.8218 0.8213
2219.687371 0.8209 0.8205 0.8201 0.8196 0.8192
2224.705034 0.8187 0.8183 0.8179 0.8174 0.8170
2229.722696 0.8165 0.8161 0.8156 0.8152 0.8147
2234.740359 0.8143 0.8139 0.8134 0.8130 0.8125
2239.758022 0.8121 0.8116 0.8112 0.8108 0.8103
2244.775684 0.8099 0.8094 0.8090 0.8085 0.8081
2249.793347 0.8077 0.8072 0.8068 0.8063 0.8058
2254.811010 0.8053 0.8048 0.8043 0.8038 0.8033
2259.828672 0.8028 0.8023 0.8018 0.8013 0.8007
2264.846335 0.8002 0.7997 0.7992 0.7987 0.7982
2269.863998 0.7977 0.7972 0.7967 0.7961 0.7955
2274.881660 0.7949 0.7944 0.7938 0.7932 0.7926
2279.899323 0.7920 0.7914 0.7908 0.7902 0.7896
2284.916986 0.7891 0.7884 0.7878 0.7872 0.7866
2289.934648 0.7860 0.7855 0.7849 0.7840 0.7831
2294.952311 0.7820 0.7810 0.7799 0.7789 0.7779
2299.969974 0.7769 0.7758 0.7748 0.7738 0.7728
2304.987636 0.7717 0.7707 0.7697 0.7687 0.7675
2310.005299 0.7661 0.7647 0.7634 0.7620 0.7606
2315.022961 0.7592 0.7578 0.7565 0.7551 0.7536
2320.040624 0.7522 0.7509 0.7497 0.7486 0.7475
2325.058287 0.7464 0.7453 0.7442 0.7431 0.7420
2330.075949 0.7409 0.7398 0.7389 0.7382 0.7375
2335.093612 0.7369 0.7362 0.7355 0.7348 0.7342
2340.111275 0.7335 0.7328 0.7321 0.7315 0.7309
2345.128937 0.7304 0.7300 0.7296 0.7293 0.7289
2350.146600 0.7285 0.7281 0.7277 0.7274 0.7271
2355.164263 0.7269 0.7268 0.7266 0.7264 0.7263
2360.181925 0.7261 0.7259 0.7258 0.7256 0.7254
2365.199588 0.7253 0.7251 0.7249 0.7248 0.7246
2370.217251 0.7245 0.7243 0.7242 0.7240 0.7239
2375.234913 0.7237 0.7235 0.7229 0.7216 0.7203
2380.252576 0.7190 0.7177 0.7163 0.7149 0.7133
2385.270238 0.7117 0.7101 0.7085 0.7071 0.7062
2390.287901 0.7052 0.7043 0.7033 0.7024 0.7014
2395.305564 0.7005 0.6996 0.6990 0.6985 0.6980
2400.323226 0.6975 0.6969 0.6964 0.6959 0.6954
2405.340889 0.6949 0.6944 0.6939 0.6934 0.6929
2410.358552 0.6924 0.6917 0.6910 0.6904 0.6897
2415.376214 0.6890 0.6883 0.6876 0.6869 0.6862
2420.393877 0.6855 0.6848 0.6841 0.6832 0.6820
2425.411540 0.6808 0.6796 0.6784 0.6773 0.6763
2430.429202 0.6752 0.6742 0.6732 0.6721 0.6711
2435.446865 0.6701 0.6690 0.6679 0.6669 0.6658
2440.464528 0.6648 0.6638 0.6627 0.6617 0.6606
2445.482190 0.6596 0.6586 0.6575 0.6565 0.6555
2450.499853 0.6544 0.6534 0.6523 0.6513 0.6503
2455.517515 0.6492 0.6482 0.6472 0.6462 0.6451
2460.535178 0.6441 0.6431 0.6420 0.6410 0.6400
2465.552841 0.6389 0.6378 0.6368 0.6357 0.6347
2470.570503 0.6336 0.6326 0.6315 0.6305 0.6294
2475.588166 0.6284 0.6273 0.6262 0.6252 0.6241
2480.605829 0.6232 0.6224 0.6217 0.6211 0.6204
2485.623491 0.6197 0.6190 0.6184 0.6177 0.6170
2490.641154 0.6164 0.6156 0.6149 0.6135 0.6117
2495.658817 0.6099 0.6080 0.6062 0.6044 0.6023
2500.676479 0.5998 0.5973 0.5947 0.5921 0.5895
2505.694142 0.5868 0.5840 0.5811 0.5783 0.5753
2510.711805 0.5725 0.5696 0.5668 0.5639 0.5609
2515.729467 0.5579 0.5548 0.5517 0.5487 0.5456
2520.747130 0.5425 0.5394 0.5364 0.5335 0.5307
2525.764792 0.5279 0.5250 0.5222 0.5194 0.5165
2530.782455 0.5137 0.5108 0.5079 0.5053 0.5042
2535.800118 0.5035 0.5028 0.5021 0.5021 0.5023
2540.817780 0.5025 0.5030 0.5040 0.5052 0.5065
2545.835443 0.5082 0.5100 0.5118 0.5136 0.5156
2550.853106 0.5178 0.5201 0.5224 0.5255 0.5288
2555.870768 0.5320 0.5348 0.5371 0.5377 0.5376
2560.888431 0.5375 0.5372 0.5369 0.5365 0.5359
2565.906094 0.5350 0.5340 0.5331 0.5310 0.5285
2570.923756 0.5263 0.5247 0.5231 0.5215 0.5200
2575.941419 0.5184 0.5166 0.5143 0.5120 0.5096
2580.959082 0.5072 0.5049 0.5026 0.5003 0.4984
2585.976744 0.4971 0.4960 0.4950 0.4939 0.4929
2590.994407 0.4918 0.4908 0.4902 0.4896 0.4891
2596.012069 0.4885 0.4880 0.4875 0.4869 0.4864
2601.029732 0.4858 0.4853 0.4848 0.4842 0.4835
2606.047395 0.4828 0.4821 0.4814 0.4808 0.4801
2611.065057 0.4792 0.4781 0.4770 0.4759 0.4748
2616.082720 0.4738 0.4727 0.4716 0.4705 0.4694
2621.100383 0.4683 0.4672 0.4654 0.4631 0.4609
2626.118045 0.4587 0.4564 0.4542 0.4519 0.4497
2631.135708 0.4474 0.4451 0.4428 0.4405 0.4383
2636.153371 0.4363 0.4343 0.4323 0.4303 0.4283
2641.171033 0.4263 0.4244 0.4223 0.4201 0.4179
2646.188696 0.4158 0.4137 0.4115 0.4093 0.4071
2651.206359 0.4048 0.4025 0.4001 0.3978 0.3955
2656.224021 0.3931 0.3908 0.3884 0.3860 0.3835
2661.241684 0.3810 0.3785 0.3759 0.3734 0.3709
2666.259346 0.3684 0.3658 0.3633 0.3610 0.3587
2671.277009 0.3565 0.3542 0.3523 0.3508 0.3496
2676.294672 0.3483 0.3471 0.3458 0.3446 0.3433
2681.312334 0.3421 0.3411 0.3402 0.3394 0.3386
2686.329997 0.3379 0.3371 0.3363 0.3355 0.3347
2691.347660 0.3340 0.3332 0.3324 0.3316 0.3309
2696.365322 0.3302 0.3295 0.3288 0.3281 0.3273
2701.382985 0.3266 0.3259 0.3252 0.3245 0.3238
2706.400648 0.3231 0.3226 0.3221 0.3216 0.3211
2711.418310 0.3207 0.3202 0.3197 0.3195 0.3195
2716.435973 0.3194 0.3194 0.3193 0.3192 0.3192
2721.453636 0.3191 0.3191 0.3190 0.3191 0.3192
2726.471298 0.3194 0.3195 0.3196 0.3197 0.3198
2731.488961 0.3199 0.3197 0.3194 0.3191 0.3187
2736.506623 0.3181 0.3174 0.3168 0.3161 0.3154
2741.524286 0.3146 0.3133 0.3118 0.3103 0.3088
2746.541949 0.3071 0.3053 0.3035 0.3017 0.2999
2751.559611 0.2981 0.2962 0.2943 0.2924 0.2905
2756.577274 0.2886 0.2869 0.2856 0.2842 0.2829
2761.594937 0.2815 0.2802 0.2789 0.2777 0.2768
2766.612599 0.2759 0.2750 0.2741 0.2732 0.2723
2771.630262 0.2714 0.2706 0.2700 0.2694 0.2687
2776.647925 0.2681 0.2674 0.2667 0.2661 0.2654
2781.665587 0.2648 0.2641 0.2636 0.2630 0.2625
2786.683250 0.2619 0.2614 0.2608 0.2603 0.2597
2791.700913 0.2592 0.2589 0.2588 0.2586 0.2584
2796.718575 0.2583 0.2581 0.2580 0.2578 0.2576
2801.736238 0.2575 0.2573 0.2574 0.2575 0.2576
2806.753901 0.2577 0.2578 0.2580 0.2570 0.2600
2811.771563 0.2609 0.2618 0.2630 0.2644 0.2658
2816.789226 0.2671 0.2685 0.2698 0.2712 0.2725
2821.806888 0.2743 0.2762 0.2781 0.2800 0.2819
2826.824551 0.2838 0.2858 0.2878 0.2898 0.2918
2831.842214 0.2938 0.2954 0.2970 0.2986 0.3003
2836.859876 0.3019 0.3036 0.3052 0.3067 0.3081
2841.877539 0.3094 0.3107 0.3121 0.3134 0.3147
2846.895202 0.3161 0.3174 0.3188 0.3203 0.3221
2851.912864 0.3239 0.3257 0.3275 0.3293 0.3311
2856.930527 0.3329 0.3353 0.3377 0.3400 0.3410
2861.948190 0.3418 0.3426 0.3422 0.3433 0.3434
2866.965852 0.3434 0.3434 0.3431 0.3428 0.3425
2871.983515 0.3422 0.3419 0.3416 0.3412 0.3408
2877.001178 0.3403 0.3398 0.3393 0.3388 0.3383
2882.018840 0.3378 0.3373 0.3368 0.3359 0.3350
2887.036503 0.3341 0.3332 0.3323 0.3314 0.3305
2892.054165 0.3296 0.3287 0.3275 0.3262 0.3248
2897.071828 0.3235 0.3221 0.3208 0.3194 0.3181
2902.089491 0.3165 0.3148 0.3131 0.3114 0.3097
2907.107153 0.3080 0.3063 0.3047 0.3031 0.3011
2912.124816 0.2990 0.2970 0.2949 0.2928 0.2907
2917.142479 0.2886 0.2865 0.2844 0.2825 0.2807
2922.160141 0.2788 0.2770 0.2752 0.2734 0.2715
2927.177804 0.2697 0.2679 0.2665 0.2653 0.2640
2932.195467 0.2626 0.2613 0.2600 0.2587 0.2578
2937.213129 0.2572 0.2566 0.2559 0.2554 0.2566
2942.230792 0.2561 0.2559 0.2564 0.2570 0.2577
2947.248455 0.2583 0.2590 0.2596 0.2602 0.2610
2952.266117 0.2619 0.2629 0.2638 0.2647 0.2656
2957.283780 0.2666 0.2677 0.2689 0.2702 0.2715
2962.301442 0.2729 0.2742 0.2755 0.2768 0.2781
2967.319105 0.2795 0.2809 0.2823 0.2836 0.2849
2972.336768 0.2863 0.2877 0.2891 0.2906 0.2921
2977.354430 0.2936 0.2952 0.2967 0.2982 0.2998
2982.372093 0.3013 0.3024 0.3030 0.3036 0.3042
2987.389756 0.3048 0.3054 0.3060 0.3067 0.3076
2992.407418 0.3086 0.3095 0.3104 0.3114 0.3123
2997.425081 0.3134 0.3145 0.3156 0.3167 0.3178
3002.442744 0.3189 0.3200 0.3211 0.3224 0.3239
3007.460406 0.3254 0.3269 0.3283 0.3295 0.3307
3012.478069 0.3319 0.3331 0.3343 0.3351 0.3354
3017.495732 0.3356 0.3357 0.3357 0.3358 0.3357
3022.513394 0.3357 0.3356 0.3355 0.3355 0.3354
3027.531057 0.3353 0.3353 0.3354 0.3357 0.3360
3032.548719 0.3362 0.3365 0.3368 0.3371 0.3374
3037.566382 0.3379 0.3387 0.3394 0.3401 0.3409
3042.584045 0.3416 0.3424 0.3433 0.3446 0.3462
3047.601707 0.3477 0.3491 0.3498 0.3502 0.3506
3052.619370 0.3486 0.3494 0.3502 0.3496 0.3489
3057.637033 0.3483 0.3477 0.3457 0.3428 0.3399
3062.654695 0.3368 0.3334 0.3298 0.3263 0.3227
3067.672358 0.3189 0.3150 0.3112 0.3073 0.3036
3072.690021 0.3005 0.2976 0.2947 0.2919 0.2891
3077.707683 0.2863 0.2836 0.2812 0.2789 0.2774
3082.725346 0.2773 0.2778 0.2782 0.2790 0.2781
3087.743009 0.2808 0.2832 0.2850 0.2869 0.2887
3092.760671 0.2905 0.2927 0.2953 0.2979 0.3006
3097.778334 0.3033 0.3060 0.3088 0.3116 0.3143
3102.795996 0.3171 0.3201 0.3233 0.3265 0.3297
3107.813659 0.3329 0.3361 0.3397 0.3435 0.3473
3112.831322 0.3511 0.3549 0.3587 0.3638 0.3696
3117.848984 0.3752 0.3805 0.3858 0.3912 0.3970
3122.866647 0.4030 0.4090 0.4140 0.4175 0.4208
3127.884310 0.4240 0.4268 0.4288 0.4306 0.4325
3132.901972 0.4344 0.4363 0.4381 0.4397 0.4412
3137.919635 0.4427 0.4442 0.4458 0.4473 0.4488
3142.937298 0.4502 0.4512 0.4522 0.4533 0.4544
3147.954960 0.4554 0.4564 0.4574 0.4584 0.4594
3152.972623 0.4605 0.4614 0.4622 0.4630 0.4638
3157.990286 0.4646 0.4654 0.4662 0.4666 0.4668
3163.007948 0.4671 0.4674 0.4677 0.4679 0.4654
3168.025611 0.4684 0.4680 0.4676 0.4672 0.4667
3173.043273 0.4663 0.4659 0.4655 0.4651 0.4646
3178.060936 0.4642 0.4638 0.4633 0.4623 0.4612
3183.078599 0.4600 0.4589 0.4578 0.4567 0.4556
3188.096261 0.4544 0.4532 0.4517 0.4501 0.4485
3193.113924 0.4469 0.4453 0.4437 0.4421 0.4405
3198.131587 0.4389 0.4372 0.4351 0.4327 0.4303
3203.149249 0.4278 0.4254 0.4230 0.4206 0.4182
3208.166912 0.4158 0.4134 0.4109 0.4083 0.4057
3213.184575 0.4030 0.4004 0.3978 0.3952 0.3925
3218.202237 0.3899 0.3872 0.3846 0.3819 0.3793
3223.219900 0.3766 0.3742 0.3719 0.3695 0.3671
3228.237563 0.3647 0.3623 0.3600 0.3576 0.3553
3233.255225 0.3529 0.3506 0.3484 0.3463 0.3442
3238.272888 0.3421 0.3400 0.3379 0.3357 0.3336
3243.290550 0.3315 0.3293 0.3270 0.3247 0.3225
3248.308213 0.3202 0.3179 0.3157 0.3134 0.3112
3253.325876 0.3089 0.3069 0.3051 0.3033 0.3014
3258.343538 0.2996 0.2977 0.2959 0.2942 0.2931
3263.361201 0.2923 0.2914 0.2908 0.2899 0.2895
3268.378864 0.2911 0.2913 0.2916 0.2922 0.2928
3273.396526 0.2934 0.2941 0.2950 0.2961 0.2973
3278.414189 0.2984 0.2996 0.3007 0.3021 0.3033
3283.431852 0.3046 0.3061 0.3076 0.3091 0.3106
3288.449514 0.3121 0.3136 0.3151 0.3167 0.3183
3293.467177 0.3199 0.3216 0.3232 0.3248 0.3264
3298.484840 0.3280 0.3296 0.3312 0.3328 0.3344
3303.502502 0.3364 0.3387 0.3412 0.3436 0.3463
3308.520165 0.3494 0.3526 0.3557 0.3589 0.3621
3313.537827 0.3652 0.3686 0.3721 0.3756 0.3792
3318.555490 0.3827 0.3863 0.3895 0.3921 0.3944
3323.573153 0.3966 0.3988 0.4010 0.4032 0.4054
3328.590815 0.4076 0.4098 0.4120 0.4142 0.4164
3333.608478 0.4186 0.4206 0.4225 0.4245 0.4265
3338.626141 0.4285 0.4305 0.4325 0.4345 0.4364
3343.643803 0.4384 0.4403 0.4422 0.4441 0.4461
3348.661466 0.4481 0.4500 0.4519 0.4538 0.4557
3353.679129 0.4577 0.4596 0.4613 0.4630 0.4647
3358.696791 0.4663 0.4680 0.4696 0.4713 0.4730
3363.714454 0.4746 0.4763 0.4780 0.4796 0.4813
3368.732117 0.4830 0.4840 0.4848 0.4857 0.4865
3373.749779 0.4873 0.4882 0.4890 0.4898 0.4907
3378.767442 0.4915 0.4923 0.4932 0.4940 0.4948
3383.785105 0.4957 0.4965 0.4973 0.4982 0.4990
3388.802767 0.4998 0.5007 0.5015 0.5024 0.5032
3393.820430 0.5041 0.5049 0.5058 0.5066 0.5076
3398.838092 0.5085 0.5094 0.5103 0.5112 0.5121
3403.855755 0.5129 0.5138 0.5147 0.5156 0.5165
3408.873418 0.5174 0.5183 0.5191 0.5200 0.5209
3413.891080 0.5218 0.5227 0.5236 0.5244 0.5252
3418.908743 0.5260 0.5268 0.5277 0.5285 0.5293
3423.926406 0.5301 0.5309 0.5317 0.5325 0.5334
3428.944068 0.5342 0.5350 0.5358 0.5366 0.5374
3433.961731 0.5382 0.5390 0.5398 0.5406 0.5414
3438.979394 0.5422 0.5431 0.5439 0.5447 0.5456
3443.997056 0.5464 0.5473 0.5481 0.5490 0.5498
3449.014719 0.5507 0.5515 0.5524 0.5532 0.5540
3454.032382 0.5549 0.5557 0.5566 0.5574 0.5583
3459.050044 0.5591 0.5600 0.5609 0.5617 0.5626
3464.067707 0.5635 0.5643 0.5651 0.5662 0.5675
3469.085369 0.5689 0.5703 0.5716 0.5730 0.5743
3474.103032 0.5757 0.5771 0.5785 0.5798 0.5812
3479.120695 0.5826 0.5840 0.5853 0.5867 0.5880
3484.138357 0.5894 0.5908 0.5921 0.5935 0.5948
3489.156020 0.5962 0.5976 0.5990 0.6006 0.6020
3494.173683 0.6035 0.6050 0.6065 0.6079 0.6094
3499.191345 0.6109 0.6123 0.6138 0.6153 0.6168
3504.209008 0.6182 0.6197 0.6212 0.6228 0.6243
3509.226671 0.6259 0.6274 0.6290 0.6306 0.6321
3514.244333 0.6337 0.6352 0.6367 0.6383 0.6398
3519.261996 0.6414 0.6429 0.6445 0.6460 0.6476
3524.279659 0.6491 0.6507 0.6523 0.6538 0.6553
3529.297321 0.6569 0.6585 0.6600 0.6616 0.6632
3534.314984 0.6648 0.6663 0.6679 0.6695 0.6711
3539.332646 0.6726 0.6742 0.6758 0.6774 0.6790
3544.350309 0.6806 0.6822 0.6837 0.6853 0.6869
3549.367972 0.6885 0.6901 0.6917 0.6936 0.6955
3554.385634 0.6974 0.6993 0.7012 0.7032 0.7051
3559.403297 0.7070 0.7089 0.7109 0.7133 0.7159
3564.420960 0.7185 0.7211 0.7237 0.7263 0.7289
3569.438622 0.7314 0.7339 0.7364 0.7389 0.7410
3574.456285 0.7424 0.7436 0.7447 0.7459 0.7470
3579.473948 0.7482 0.7493 0.7504 0.7516 0.7527
3584.491610 0.7538 0.7550 0.7561 0.7573 0.7585
3589.509273 0.7596 0.7607 0.7618 0.7630 0.7641
3594.526936 0.7652 0.7663 0.7675 0.7686 0.7697
3599.544598 0.7707 0.7716 0.7725 0.7734 0.7742
3604.562261 0.7751 0.7760 0.7769 0.7778 0.7787
3609.579923 0.7795 0.7804 0.7812 0.7818 0.7824
3614.597586 0.7831 0.7837 0.7843 0.7849 0.7856
3619.615249 0.7862 0.7868 0.7875 0.7881 0.7887
3624.632911 0.7893 0.7900 0.7906 0.7913 0.7919
3629.650574 0.7925 0.7931 0.7938 0.7944 0.7950
3634.668237 0.7955 0.7960 0.7965 0.7971 0.7976
3639.685899 0.7981 0.7986 0.7991 0.7996 0.8002
3644.703562 0.8008 0.8013 0.8018 0.8021 0.8023
3649.721225 0.8026 0.8028 0.8030 0.8032 0.8035
3654.738887 0.8037 0.8039 0.8041 0.8044 0.8047
3659.756550 0.8049 0.8051 0.8053 0.8056 0.8058
3664.774213 0.8060 0.8060 0.8060 0.8060 0.8060
3669.791875 0.8060 0.8060 0.8061 0.8061 0.8061
3674.809538 0.8061 0.8061 0.8061 0.8061 0.8061
3679.827200 0.8061 0.8061 0.8061 0.8061 0.8061
3684.844863 0.8061 0.8062 0.8062 0.8062 0.8062
3689.862526 0.8062 0.8062 0.8062 0.8062 0.8063
3694.880188 0.8063 0.8063 0.8063 0.8063 0.8063
3699.897851 0.8063 0.8064 0.8064 0.8064 0.8064
3704.915514 0.8064 0.8064 0.8064 0.8065 0.8065
3709.933176 0.8065 0.8065 0.8065 0.8065 0.8065
3714.950839 0.8065 0.8066 0.8066 0.8066 0.8066
3719.968502 0.8066 0.8066 0.8067 0.8067 0.8068
3724.986164 0.8068 0.8069 0.8069 0.8070 0.8070
3730.003827 0.8071 0.8071 0.8072 0.8072 0.8073
3735.021490 0.8073 0.8074 0.8074 0.8075 0.8075
3740.039152 0.8076 0.8076 0.8077 0.8077 0.8078
3745.056815 0.8078 0.8079 0.8079 0.8080 0.8080
3750.074477 0.8081 0.8081 0.8082 0.8082 0.8084
3755.092140 0.8086 0.8089 0.8092 0.8094 0.8097
3760.109803 0.8099 0.8102 0.8105 0.8107 0.8110
3765.127465 0.8112 0.8115 0.8118 0.8120 0.8123
3770.145128 0.8126 0.8128 0.8131 0.8133 0.8136
3775.162791 0.8139 0.8142 0.8144 0.8146 0.8148
3780.180453 0.8148 0.8148 0.8148 0.8149 0.8149
3785.198116 0.8149 0.8149 0.8150 0.8150 0.8150
3790.215779 0.8150 0.8151 0.8151 0.8151 0.8151
3795.233441 0.8152 0.8152 0.8149 0.8147 0.8144
3800.251104 0.8142 0.8139 0.8136 0.8134 0.8131
3805.268767 0.8129 0.8126 0.8124 0.8122 0.8119
3810.286429 0.8117 0.8114 0.8112 0.8109 0.8107
3815.304092 0.8104 0.8102 0.8099 0.8097 0.8095
3820.321754 0.8093 0.8091 0.8089 0.8088 0.8086
3825.339417 0.8084 0.8082 0.8080 0.8078 0.8076
3830.357080 0.8074 0.8072 0.8070 0.8068 0.8066
3835.374742 0.8064 0.8063 0.8061 0.8059 0.8057
3840.392405 0.8055 0.8053 0.8051 0.8049 0.8047
3845.410068 0.8045 0.8043 0.8041 0.8040 0.8039
3850.427730 0.8039 0.8038 0.8037 0.8037 0.8036
3855.445393 0.8036 0.8035 0.8035 0.8034 0.8034
3860.463056 0.8033 0.8033 0.8032 0.8032 0.8031
3865.480718 0.8031 0.8030 0.8029 0.8029 0.8028
3870.498381 0.8027 0.8027 0.8026 0.8026 0.8025
3875.516044 0.8025 0.8024 0.8024 0.8023 0.8023
3880.533706 0.8022 0.8021 0.8021 0.8021 0.8021
3885.551369 0.8022 0.8022 0.8022 0.8023 0.8023
3890.569031 0.8024 0.8024 0.8024 0.8025 0.8025
3895.586694 0.8026 0.8026 0.8026 0.8027 0.8027
3900.604357 0.8028 0.8028 0.8028 0.8029 0.8029
3905.622019 0.8030 0.8030 0.8030 0.8031 0.8031
3910.639682 0.8032 0.8033 0.8033 0.8034 0.8034
3915.657345 0.8035 0.8035 0.8036 0.8036 0.8037
3920.675007 0.8038 0.8038 0.8039 0.8039 0.8040
3925.692670 0.8040 0.8041 0.8041 0.8042 0.8043
3930.710333 0.8043 0.8044 0.8044 0.8045 0.8045
3935.727995 0.8045 0.8045 0.8045 0.8044 0.8044
3940.745658 0.8044 0.8044 0.8044 0.8044 0.8043
3945.763321 0.8043 0.8043 0.8043 0.8043 0.8043
3950.780983 0.8042 0.8042 0.8042 0.8042 0.8042
3955.798646 0.8042 0.8041 0.8041 0.8041 0.8041
3960.816309 0.8041 0.8041 0.8041 0.8041 0.8041
3965.833971 0.8041 0.8041 0.8041 0.8041 0.8035
3970.851634 0.8040 0.8041 0.8041 0.8041 0.8041
3975.869296 0.8041 0.8041 0.8042 0.8042 0.8042
3980.886959 0.8042 0.8042 0.8042 0.8042 0.8042
3985.904622 0.8040 0.8039 0.8038 0.8036 0.8035
3990.922284 0.8033 0.8032 0.8031 0.8029 0.8028
3995.939947 0.8027 0.8025 0.8024 0.8022 0.8021
4000.957610 0.8020 0.8018 0.8017 0.8015 0.8014
4005.975272 0.8013 0.8011 0.8010 0.8008 0.8007
4010.992935 0.8006 0.8005
##END=
