##TITLE=9,10-DIBROMO ANTHRACENE
$$ E.K. (W.L.)
##JCAMP-DX=4.24
##DATA TYPE=INFRARED SPECTRUM
##CLASS=COBLENTZ
##ORIGIN=WYANDOTTE CHEMICALS CORP., WYANDOTTE, MICHIGAN, USA
##OWNER=COBLENTZ SOCIETY
Collection (C) 2018 copyright by the U.S. Secretary of Commerce
on behalf of the United States of America. All rights reserved.
##DATE=Not specified, most likely prior to 1970
##NAMES=1,9-dibromoanthracene
##MOLFORM=C14 H8 Br2
##MP=223-225 C
##SOURCE REFERENCE=COBLENTZ NO. 446
##$NIST ID=B6000446
##$NIST SOURCE=COBLENTZ
##$NIST IMAGE=cob446
##SPECTROMETER/DATA SYSTEM=Not specified, most likely a prism, grating, or hybrid spectrometer.
##STATE=SOLID (MINERAL OIL MULL)
##SAMPLING PROCEDURE=TRANSMISSION
##RESOLUTION=4
##DATA PROCESSING=DIGITIZED BY NIST FROM HARD COPY
##XUNITS=MICROMETERS
##YUNITS=TRANSMITTANCE
##XFACTOR=1.000000
##YFACTOR=1
##DELTAX=000.006655
##FIRSTX=2.022
##LASTX=16.0027
##FIRSTY=0.379
##MAXX=16.0027
##MINX=2.022
##MAXY=0.949
##MINY=0.01
##NPOINTS=2102
##XYDATA=(X++(Y..Y))
2.022000 0.3790 0.3740 0.3740 0.3690 0.3690
2.055289 0.3690 0.3690 0.3690 0.3720 0.3760
2.088000 0.3790 0.3810 0.3820 0.3840 0.3840
2.121289 0.3840 0.3820 0.3790 0.3790 0.3790
2.155000 0.3810 0.3810 0.3820 0.3840 0.3870
2.188289 0.3890 0.3910 0.3910 0.3910 0.3920
2.221000 0.3940 0.3960 0.3960 0.3970 0.3990
2.254289 0.3990 0.4010 0.4030 0.4030 0.4010
2.288000 0.4030 0.4080 0.4080 0.4130 0.4160
2.321289 0.4190 0.4240 0.4330 0.4330 0.4310
2.355000 0.4280 0.4230 0.4190 0.4210 0.4230
2.388289 0.4310 0.4330 0.4340 0.4410 0.4480
2.421000 0.4480 0.4490 0.4510 0.4530 0.4540
2.454289 0.4590 0.4630 0.4630 0.4640 0.4640
2.488000 0.4640 0.4660 0.4690 0.4730 0.4730
2.521289 0.4740 0.4760 0.4760 0.4760 0.4760
2.554000 0.4740 0.4740 0.4780 0.4830 0.4890
2.587289 0.4960 0.5050 0.5100 0.5180 0.5200
2.621000 0.5210 0.5230 0.5250 0.5260 0.5280
2.654289 0.5300 0.5300 0.5300 0.5300 0.5300
2.687000 0.5330 0.5350 0.5360 0.5380 0.5360
2.720289 0.5380 0.5380 0.5410 0.5450 0.5460
2.754000 0.5450 0.5410 0.5410 0.5460 0.5500
2.787289 0.5530 0.5580 0.5610 0.5650 0.5700
2.820000 0.5710 0.5730 0.5730 0.5750 0.5750
2.853289 0.5780 0.5830 0.5860 0.5860 0.5880
2.887000 0.5900 0.5910 0.5880 0.5860 0.5850
2.920289 0.5850 0.5810 0.5810 0.5850 0.5880
2.953000 0.5860 0.5830 0.5830 0.5830 0.5830
2.986289 0.5810 0.5810 0.5800 0.5800 0.5780
3.020000 0.5780 0.5780 0.5800 0.5810 0.5830
3.053289 0.5850 0.5860 0.5860 0.5880 0.5880
3.087000 0.5910 0.5930 0.5960 0.6000 0.6020
3.120289 0.6030 0.6050 0.6050 0.6070 0.6070
3.153000 0.6070 0.6070 0.6080 0.6080 0.6100
3.186289 0.6120 0.6130 0.6170 0.6180 0.6200
3.220000 0.6200 0.6200 0.6200 0.6200 0.6220
3.253289 0.6220 0.6200 0.6170 0.6070 0.6020
3.286000 0.5960 0.5850 0.5650 0.5530 0.5400
3.319289 0.5260 0.5110 0.4960 0.4710 0.4160
3.353000 0.3660 0.2950 0.2490 0.1930 0.0580
3.386289 0.0160 0.0100 0.0100 0.0100 0.0100
3.419000 0.0100 0.0110 0.0130 0.0150 0.0150
3.452289 0.0130 0.0130 0.0130 0.0150 0.0160
3.486000 0.0180 0.0210 0.0230 0.0260 0.0260
3.519289 0.0280 0.0360 0.0480 0.0710 0.1050
3.552000 0.1470 0.1820 0.1980 0.2140 0.2300
3.585289 0.2420 0.2470 0.2540 0.2670 0.2790
3.619000 0.2850 0.2890 0.2900 0.2900 0.2890
3.652289 0.2890 0.2890 0.2890 0.2890 0.2840
3.685000 0.2800 0.2800 0.2820 0.2850 0.2890
3.718289 0.2890 0.2900 0.2920 0.2920 0.2920
3.752000 0.2950 0.2950 0.2920 0.2870 0.2890
3.785289 0.2940 0.2970 0.3010 0.3020 0.3020
3.819000 0.3060 0.3060 0.3090 0.3090 0.3110
3.852289 0.3110 0.3120 0.3120 0.3120 0.3140
3.885000 0.3170 0.3220 0.3260 0.3270 0.3310
3.918289 0.3310 0.3340 0.3370 0.3390 0.3410
3.952000 0.3420 0.3420 0.3440 0.3440 0.3460
3.985289 0.3490 0.3490 0.3490 0.3490 0.3490
4.018000 0.3490 0.3490 0.3510 0.3520 0.3520
4.051289 0.3560 0.3590 0.3610 0.3620 0.3660
4.085000 0.3670 0.3690 0.3720 0.3720 0.3710
4.118289 0.3710 0.3710 0.3710 0.3710 0.3740
4.151000 0.3740 0.3720 0.3720 0.3710 0.3710
4.184289 0.3720 0.3740 0.3770 0.3790 0.3810
4.218000 0.3820 0.3820 0.3820 0.3810 0.3810
4.251289 0.3790 0.3770 0.3740 0.3670 0.3620
4.284000 0.3590 0.3570 0.3570 0.3570 0.3590
4.317289 0.3620 0.3660 0.3670 0.3670 0.3690
4.351000 0.3690 0.3690 0.3710 0.3720 0.3760
4.384289 0.3810 0.3870 0.3940 0.4030 0.4090
4.417000 0.4110 0.4090 0.4110 0.4110 0.4130
4.450289 0.4130 0.4090 0.4080 0.4040 0.4060
4.484000 0.4060 0.4110 0.4140 0.4180 0.4230
4.517289 0.4280 0.4290 0.4310 0.4310 0.4340
4.551000 0.4360 0.4360 0.4360 0.4360 0.4380
4.584289 0.4380 0.4380 0.4390 0.4410 0.4430
4.617000 0.4430 0.4440 0.4460 0.4440 0.4430
4.650289 0.4410 0.4410 0.4430 0.4440 0.4460
4.684000 0.4480 0.4490 0.4540 0.4590 0.4610
4.717289 0.4610 0.4610 0.4610 0.4590 0.4590
4.750000 0.4610 0.4630 0.4660 0.4680 0.4710
4.783289 0.4730 0.4730 0.4760 0.4780 0.4790
4.817000 0.4790 0.4810 0.4810 0.4830 0.4830
4.850289 0.4840 0.4830 0.4840 0.4840 0.4840
4.883000 0.4860 0.4860 0.4860 0.4880 0.4880
4.916289 0.4910 0.4930 0.4940 0.4940 0.4940
4.950000 0.4960 0.4960 0.4960 0.5000 0.5000
4.983289 0.5000 0.5000 0.5000 0.5030 0.5030
5.016000 0.5060 0.5100 0.5080 0.5100 0.5100
5.049289 0.5110 0.5110 0.5130 0.5130 0.5110
5.083000 0.5130 0.5150 0.5200 0.5260 0.5260
5.116289 0.5250 0.5250 0.5250 0.5260 0.5250
5.149000 0.5230 0.5230 0.5230 0.5200 0.5180
5.182289 0.5150 0.5050 0.5010 0.5010 0.5000
5.216000 0.5050 0.5100 0.5110 0.5100 0.5030
5.249289 0.5010 0.5010 0.5080 0.5160 0.5200
5.283000 0.5210 0.5210 0.5230 0.5250 0.5260
5.316289 0.5310 0.5360 0.5410 0.5430 0.5450
5.349000 0.5500 0.5510 0.5550 0.5580 0.5580
5.382289 0.5560 0.5500 0.5550 0.5630 0.5700
5.416000 0.5710 0.5730 0.5730 0.5710 0.5680
5.449289 0.5610 0.5580 0.5580 0.5610 0.5650
5.482000 0.5700 0.5710 0.5700 0.5660 0.5660
5.515289 0.5630 0.5660 0.5610 0.5530 0.5460
5.549000 0.5410 0.5400 0.5410 0.5460 0.5450
5.582289 0.5430 0.5400 0.5400 0.5430 0.5500
5.615000 0.5530 0.5610 0.5660 0.5700 0.5700
5.648289 0.5730 0.5750 0.5760 0.5730 0.5760
5.682000 0.5850 0.5880 0.5860 0.5830 0.5780
5.715289 0.5810 0.5850 0.5810 0.5850 0.5860
5.748000 0.5880 0.5900 0.5900 0.5860 0.5880
5.781289 0.5900 0.6020 0.6030 0.6020 0.5850
5.815000 0.5750 0.5680 0.5630 0.5610 0.5610
5.848289 0.5550 0.5480 0.5450 0.5410 0.5400
5.881000 0.5380 0.5380 0.5450 0.5650 0.5700
5.914289 0.5710 0.5730 0.5650 0.5650 0.5680
5.948000 0.5830 0.5930 0.6000 0.6020 0.5910
5.981289 0.5930 0.5930 0.6000 0.6030 0.6050
6.015000 0.6030 0.6020 0.5980 0.5950 0.5930
6.048289 0.5930 0.5960 0.6030 0.6080 0.6130
6.081000 0.6150 0.6150 0.6150 0.6130 0.6130
6.114289 0.6200 0.6180 0.5880 0.5530 0.5260
6.148000 0.5000 0.4690 0.4660 0.4680 0.5700
6.181289 0.5810 0.5810 0.5700 0.5700 0.5710
6.214000 0.5710 0.5760 0.5760 0.5800 0.5860
6.247289 0.5950 0.6000 0.6050 0.6100 0.6100
6.281000 0.6130 0.6180 0.6180 0.6130 0.6080
6.314289 0.6100 0.6150 0.6170 0.6180 0.6220
6.347000 0.6250 0.6250 0.6250 0.6220 0.6180
6.380289 0.6170 0.6170 0.6180 0.6300 0.6430
6.414000 0.6450 0.6430 0.6420 0.6380 0.6300
6.447289 0.6280 0.6220 0.6180 0.6180 0.6230
6.480000 0.6320 0.6380 0.6420 0.6400 0.6350
6.513289 0.6300 0.6220 0.6080 0.5860 0.5400
6.547000 0.5280 0.5280 0.5330 0.5600 0.5710
6.580289 0.5830 0.5850 0.5900 0.5900 0.5850
6.613000 0.5860 0.5880 0.5900 0.5910 0.5910
6.646289 0.5910 0.5900 0.5880 0.5860 0.5810
6.680000 0.5780 0.5710 0.5630 0.5530 0.5410
6.713289 0.5280 0.5100 0.5050 0.4980 0.4740
6.747000 0.4510 0.4110 0.4010 0.3620 0.3320
6.780289 0.2890 0.2270 0.1550 0.1270 0.1130
6.813000 0.1020 0.0910 0.0880 0.0880 0.0900
6.846289 0.0950 0.1050 0.1170 0.1270 0.1320
6.880000 0.1380 0.1470 0.1600 0.1800 0.1970
6.913289 0.2020 0.2090 0.2090 0.2040 0.1930
6.946000 0.1920 0.1930 0.2140 0.2590 0.3020
6.979289 0.3170 0.3320 0.3660 0.3970 0.4310
7.013000 0.4640 0.5200 0.5260 0.5360 0.5460
7.046289 0.5680 0.5800 0.5850 0.5950 0.6070
7.079000 0.6070 0.6070 0.6080 0.6120 0.6150
7.112289 0.6220 0.6250 0.6250 0.6250 0.6250
7.146000 0.6230 0.6170 0.6130 0.6120 0.6030
7.179289 0.5950 0.5810 0.5480 0.5100 0.4860
7.212000 0.4610 0.4310 0.3890 0.3360 0.2900
7.245289 0.2590 0.2420 0.2200 0.2090 0.2090
7.279000 0.2140 0.2470 0.2940 0.3290 0.3540
7.312289 0.3760 0.3870 0.3960 0.4040 0.4340
7.345000 0.4640 0.5460 0.5600 0.5710 0.5750
7.378289 0.5780 0.5800 0.5630 0.5500 0.5480
7.412000 0.5510 0.5530 0.5610 0.5700 0.5800
7.445289 0.5850 0.5980 0.6020 0.6050 0.6100
7.479000 0.6200 0.6220 0.6250 0.6270 0.6280
7.512289 0.6300 0.6330 0.6380 0.6420 0.6480
7.545000 0.6580 0.6670 0.6730 0.6820 0.6880
7.578289 0.6900 0.6930 0.7050 0.7100 0.7190
7.612000 0.7190 0.7200 0.7200 0.7190 0.6500
7.645289 0.5910 0.5310 0.4710 0.3910 0.2820
7.678000 0.2090 0.2090 0.2450 0.3310 0.3870
7.711289 0.4390 0.4690 0.5280 0.5530 0.5680
7.745000 0.5810 0.5900 0.6070 0.6220 0.6300
7.778289 0.6370 0.6450 0.6550 0.6670 0.6670
7.811000 0.6650 0.6650 0.6630 0.6600 0.6580
7.844289 0.6600 0.6620 0.6630 0.6680 0.6680
7.878000 0.6620 0.6530 0.6450 0.6300 0.6180
7.911289 0.6030 0.5950 0.5550 0.4980 0.4390
7.944000 0.3660 0.3040 0.1970 0.1200 0.0850
7.977289 0.0850 0.1200 0.1700 0.2290 0.2870
8.011000 0.3240 0.3520 0.3840 0.3970 0.4160
8.044289 0.4540 0.4890 0.5180 0.5400 0.5500
8.077000 0.5660 0.5800 0.5880 0.5980 0.6050
8.110289 0.6130 0.6180 0.6230 0.6300 0.6320
8.144000 0.6330 0.6350 0.6420 0.6450 0.6480
8.177289 0.6550 0.6620 0.6630 0.6600 0.6600
8.211000 0.6620 0.6630 0.6650 0.6650 0.6670
8.244289 0.6670 0.6700 0.6720 0.6780 0.6800
8.277000 0.6820 0.6850 0.6870 0.6870 0.6870
8.310289 0.6850 0.6800 0.6750 0.6720 0.6720
8.344000 0.6730 0.6750 0.6780 0.6800 0.6820
8.377289 0.6850 0.6850 0.6870 0.6900 0.6950
8.410000 0.7000 0.7020 0.7050 0.7120 0.7170
8.443289 0.7200 0.7250 0.7270 0.7290 0.7290
8.477000 0.7270 0.7270 0.7250 0.7250 0.7240
8.510289 0.7220 0.7240 0.7240 0.7220 0.7220
8.543000 0.7200 0.7200 0.7200 0.7170 0.7070
8.576289 0.6920 0.6630 0.6430 0.6250 0.6100
8.610000 0.6070 0.6080 0.6280 0.6420 0.6570
8.643289 0.6650 0.6720 0.6780 0.6850 0.6880
8.676000 0.6880 0.6780 0.6680 0.6530 0.6420
8.709289 0.6400 0.6420 0.6550 0.6780 0.6970
8.743000 0.7070 0.7190 0.7240 0.7290 0.7390
8.776289 0.7440 0.7470 0.7500 0.7540 0.7570
8.809000 0.7620 0.7650 0.7690 0.7700 0.7700
8.842289 0.7700 0.7740 0.7770 0.7800 0.7840
8.876000 0.7870 0.7870 0.7870 0.7890 0.7890
8.909289 0.7890 0.7900 0.7920 0.7940 0.7940
8.943000 0.7940 0.7990 0.8020 0.8020 0.8060
8.976289 0.8060 0.8040 0.8010 0.8010 0.8010
9.009000 0.8020 0.8020 0.8020 0.8060 0.8070
9.042289 0.8070 0.8090 0.8090 0.8110 0.8110
9.076000 0.8110 0.8120 0.8120 0.8120 0.8160
9.109289 0.8140 0.8020 0.8020 0.8020 0.8020
9.142000 0.8090 0.8110 0.8120 0.8120 0.8120
9.175289 0.8110 0.8110 0.8110 0.8110 0.8060
9.209000 0.8040 0.8020 0.8020 0.8020 0.8020
9.242289 0.8020 0.8020 0.8020 0.8020 0.8090
9.275000 0.8090 0.8060 0.8060 0.8060 0.8060
9.308289 0.8040 0.7990 0.7970 0.8010 0.8040
9.342000 0.8110 0.8120 0.8140 0.8140 0.8140
9.375289 0.8160 0.8170 0.8170 0.8170 0.8190
9.408000 0.8210 0.8190 0.8190 0.8170 0.8160
9.441289 0.8160 0.8210 0.8220 0.8220 0.8240
9.475000 0.8240 0.8260 0.8260 0.8220 0.8240
9.508289 0.8240 0.8260 0.8240 0.8270 0.8290
9.541000 0.8290 0.8290 0.8310 0.8320 0.8320
9.574289 0.8320 0.8320 0.8320 0.8320 0.8270
9.608000 0.8270 0.8290 0.8320 0.8360 0.8360
9.641289 0.8370 0.8390 0.8360 0.8340 0.8360
9.675000 0.8340 0.8240 0.8010 0.7720 0.7240
9.708289 0.6680 0.5960 0.5410 0.5010 0.5010
9.741000 0.5000 0.5700 0.6050 0.6550 0.7000
9.774289 0.7200 0.7390 0.7500 0.7670 0.7850
9.808000 0.7890 0.7890 0.7920 0.7950 0.7970
9.841289 0.8010 0.8040 0.8060 0.8160 0.8210
9.874000 0.8210 0.8220 0.8220 0.8270 0.8310
9.907289 0.8310 0.8320 0.8340 0.8390 0.8390
9.941000 0.8410 0.8420 0.8410 0.8420 0.8440
9.974289 0.8460 0.8460 0.8470 0.8470 0.8470
10.007000 0.8470 0.8470 0.8470 0.8470 0.8490
10.040289 0.8490 0.8520 0.8540 0.8520 0.8540
10.074000 0.8540 0.8570 0.8570 0.8570 0.8540
10.107289 0.8510 0.8490 0.8490 0.8510 0.8510
10.140000 0.8520 0.8520 0.8470 0.8460 0.8420
10.173289 0.8370 0.8360 0.8340 0.8290 0.8210
10.207000 0.8170 0.8190 0.8220 0.8270 0.8270
10.240289 0.8240 0.8110 0.8020 0.7940 0.7890
10.273000 0.7870 0.7850 0.7870 0.7950 0.8010
10.306289 0.8040 0.8040 0.8090 0.8210 0.8260
10.340000 0.8340 0.8370 0.8370 0.8410 0.8410
10.373289 0.8410 0.8420 0.8410 0.8360 0.8270
10.407000 0.8160 0.8010 0.7870 0.7700 0.7520
10.440289 0.7490 0.7490 0.7540 0.7690 0.7820
10.473000 0.8010 0.8120 0.8140 0.8140 0.8160
10.506289 0.8170 0.8160 0.8040 0.7940 0.7900
10.540000 0.7900 0.7990 0.8160 0.8320 0.8470
10.573289 0.8540 0.8620 0.8710 0.8790 0.8870
10.606000 0.9030 0.9080 0.9080 0.8990 0.8990
10.639289 0.9010 0.9040 0.9110 0.9160 0.9230
10.673000 0.9260 0.9310 0.9330 0.9340 0.9360
10.706289 0.9360 0.9390 0.9390 0.9390 0.9390
10.739000 0.9410 0.9380 0.9280 0.9090 0.8890
10.772289 0.8540 0.8020 0.7290 0.6330 0.5130
10.806000 0.4790 0.4460 0.3510 0.2720 0.1820
10.839289 0.0960 0.0550 0.0550 0.0660 0.0980
10.872000 0.1300 0.1620 0.1970 0.2340 0.2620
10.905289 0.2870 0.3090 0.3220 0.3570 0.3890
10.939000 0.4240 0.4560 0.4940 0.5450 0.5660
10.972289 0.5800 0.5900 0.6200 0.6380 0.6520
11.005000 0.6600 0.6680 0.6780 0.6880 0.6950
11.038289 0.7000 0.7040 0.7090 0.7120 0.7170
11.072000 0.7240 0.7290 0.7320 0.7340 0.7390
11.105289 0.7400 0.7400 0.7420 0.7420 0.7450
11.139000 0.7470 0.7520 0.7550 0.7600 0.7640
11.172289 0.7690 0.7720 0.7750 0.7790 0.7840
11.205000 0.7850 0.7870 0.7870 0.7870 0.7870
11.238289 0.7870 0.7870 0.7870 0.7870 0.7870
11.272000 0.7850 0.7850 0.7820 0.7800 0.7790
11.305289 0.7770 0.7750 0.7770 0.7790 0.7800
11.338000 0.7840 0.7850 0.7920 0.7950 0.7990
11.371289 0.8020 0.8070 0.8140 0.8160 0.8210
11.405000 0.8260 0.8320 0.8340 0.8360 0.8370
11.438289 0.8390 0.8410 0.8410 0.8410 0.8390
11.471000 0.8360 0.8290 0.8210 0.8110 0.8040
11.504289 0.7950 0.7920 0.7920 0.7940 0.7940
11.538000 0.7970 0.8010 0.8040 0.8090 0.8220
11.571289 0.8290 0.8320 0.8340 0.8370 0.8410
11.604000 0.8470 0.8520 0.8560 0.8590 0.8590
11.637289 0.8590 0.8590 0.8570 0.8520 0.8420
11.671000 0.8310 0.8260 0.8160 0.8140 0.8110
11.704289 0.8020 0.8020 0.8020 0.8020 0.8090
11.737000 0.8120 0.8170 0.8240 0.8270 0.8290
11.770289 0.8340 0.8460 0.8540 0.8570 0.8610
11.804000 0.8640 0.8670 0.8670 0.8660 0.8560
11.837289 0.8470 0.8340 0.8110 0.7650 0.7390
11.871000 0.7020 0.6820 0.6630 0.6600 0.6600
11.904289 0.6820 0.7220 0.7420 0.7750 0.8060
11.937000 0.8110 0.8110 0.7670 0.7450 0.7240
11.970289 0.7020 0.6750 0.6730 0.6770 0.7290
12.004000 0.7720 0.8160 0.8260 0.8310 0.8390
12.037289 0.8520 0.8610 0.8690 0.8740 0.8770
12.070000 0.8820 0.8840 0.8860 0.8890 0.8910
12.103289 0.8920 0.8920 0.8910 0.8910 0.8890
12.137000 0.8890 0.8910 0.8910 0.8920 0.8940
12.170289 0.8990 0.9010 0.9030 0.9030 0.9060
12.203000 0.9040 0.9040 0.9040 0.9040 0.9040
12.236289 0.9030 0.9030 0.9040 0.9040 0.9060
12.270000 0.9110 0.9140 0.9180 0.9180 0.9160
12.303289 0.9180 0.9180 0.9190 0.9190 0.9210
12.336000 0.9210 0.9230 0.9230 0.9230 0.9240
12.369289 0.9280 0.9280 0.9290 0.9290 0.9290
12.403000 0.9260 0.9230 0.9230 0.9190 0.9180
12.436289 0.9180 0.9180 0.9190 0.9210 0.9230
12.469000 0.9240 0.9260 0.9230 0.9180 0.9180
12.502289 0.9160 0.9160 0.9160 0.9180 0.9190
12.536000 0.9210 0.9230 0.9230 0.9210 0.9180
12.569289 0.9190 0.9180 0.9180 0.9160 0.9110
12.603000 0.9090 0.9140 0.9140 0.9130 0.9110
12.636289 0.9110 0.9110 0.9090 0.9130 0.9160
12.669000 0.9160 0.9130 0.9110 0.9090 0.9080
12.702289 0.9040 0.9040 0.9110 0.9110 0.9110
12.736000 0.9110 0.9030 0.9030 0.9110 0.9110
12.769289 0.9060 0.9040 0.8990 0.8970 0.8960
12.802000 0.8920 0.8910 0.8910 0.8910 0.8890
12.835289 0.8860 0.8810 0.8810 0.8790 0.8840
12.869000 0.8820 0.8820 0.8820 0.8770 0.8720
12.902289 0.8690 0.8660 0.8620 0.8620 0.8570
12.935000 0.8540 0.8520 0.8510 0.8490 0.8460
12.968289 0.8420 0.8370 0.8320 0.8290 0.8240
13.002000 0.8210 0.8160 0.8120 0.8090 0.8070
13.035289 0.8040 0.8010 0.7970 0.7900 0.7840
13.068000 0.7790 0.7740 0.7650 0.7570 0.7490
13.101289 0.7450 0.7400 0.7320 0.7240 0.7170
13.135000 0.7000 0.6850 0.6700 0.6570 0.6430
13.168289 0.6300 0.6130 0.5910 0.5680 0.5380
13.201000 0.5030 0.4810 0.4590 0.4240 0.3820
13.234289 0.3370 0.2920 0.2470 0.2040 0.1650
13.268000 0.1330 0.1080 0.0980 0.0810 0.0730
13.301289 0.0710 0.0730 0.0780 0.0830 0.0850
13.335000 0.0860 0.0880 0.0830 0.0730 0.0650
13.368289 0.0550 0.0460 0.0430 0.0400 0.0380
13.401000 0.0330 0.0260 0.0210 0.0210 0.0230
13.434289 0.0250 0.0280 0.0310 0.0360 0.0430
13.468000 0.0500 0.0580 0.0710 0.0900 0.1030
13.501289 0.1230 0.1450 0.1700 0.1980 0.2250
13.534000 0.2540 0.2770 0.2990 0.3140 0.3290
13.567289 0.3520 0.3740 0.3920 0.4090 0.4280
13.601000 0.4460 0.4660 0.4830 0.4890 0.4980
13.634289 0.5200 0.5330 0.5430 0.5480 0.5530
13.667000 0.5580 0.5700 0.5810 0.5900 0.5960
13.700289 0.6000 0.6050 0.6130 0.6280 0.6330
13.734000 0.6380 0.6450 0.6500 0.6500 0.6450
13.767289 0.6420 0.6400 0.6400 0.6330 0.6320
13.800000 0.6330 0.6320 0.6320 0.6330 0.6370
13.833289 0.6420 0.6500 0.6520 0.6550 0.6700
13.867000 0.6730 0.6780 0.6870 0.6920 0.7000
13.900289 0.7050 0.7100 0.7200 0.7270 0.7340
13.933000 0.7370 0.7370 0.7420 0.7740 0.7840
13.966289 0.7900 0.7920 0.7940 0.8020 0.8060
14.000000 0.8120 0.8210 0.8290 0.8370 0.8410
14.033289 0.8460 0.8490 0.8520 0.8560 0.8610
14.067000 0.8660 0.8690 0.8740 0.8790 0.8820
14.100289 0.8860 0.8890 0.8920 0.8970 0.9010
14.133000 0.9030 0.9030 0.9030 0.9040 0.9060
14.166289 0.9060 0.9090 0.9140 0.9140 0.9160
14.200000 0.9180 0.9190 0.9190 0.9210 0.9210
14.233289 0.9230 0.9230 0.9260 0.9260 0.9310
14.266000 0.9330 0.9360 0.9380 0.9380 0.9380
14.299289 0.9360 0.9330 0.9330 0.9340 0.9380
14.333000 0.9390 0.9410 0.9430 0.9440 0.9440
14.366289 0.9460 0.9460 0.9480 0.9480 0.9480
14.399000 0.9480 0.9480 0.9480 0.9480 0.9490
14.432289 0.9480 0.9460 0.9440 0.9440 0.9430
14.466000 0.9440 0.9440 0.9460 0.9480 0.9460
14.499289 0.9440 0.9430 0.9430 0.9430 0.9430
14.532000 0.9480 0.9480 0.9460 0.9440 0.9440
14.565289 0.9430 0.9410 0.9390 0.9360 0.9340
14.599000 0.9340 0.9330 0.9310 0.9290 0.9260
14.632289 0.9240 0.9230 0.9210 0.9190 0.9180
14.665000 0.9140 0.9140 0.9160 0.9160 0.9160
14.698289 0.9180 0.9190 0.9210 0.9230 0.9230
14.732000 0.9230 0.9190 0.9160 0.9130 0.9130
14.765289 0.9130 0.9130 0.9130 0.9110 0.9080
14.799000 0.9040 0.8990 0.8910 0.8820 0.8740
14.832289 0.8640 0.8520 0.8420 0.8290 0.8160
14.865000 0.8040 0.7870 0.7690 0.7540 0.7370
14.898289 0.7290 0.7170 0.7100 0.7020 0.7000
14.932000 0.7020 0.7090 0.7120 0.7190 0.7240
14.965289 0.7320 0.7390 0.7440 0.7490 0.7500
14.998000 0.7520 0.7520 0.7520 0.7520 0.7500
15.031289 0.7450 0.7370 0.7340 0.7290 0.7240
15.065000 0.7190 0.7150 0.7120 0.7100 0.7100
15.098289 0.7170 0.7250 0.7290 0.7370 0.7500
15.131000 0.7620 0.7750 0.7850 0.7900 0.8010
15.164289 0.8020 0.8060 0.8120 0.8210 0.8210
15.198000 0.8190 0.8190 0.8170 0.8170 0.8140
15.231289 0.8110 0.8060 0.8040 0.8020 0.7970
15.264000 0.7920 0.7900 0.7870 0.7840 0.7840
15.297289 0.7800 0.7800 0.7790 0.7790 0.7750
15.331000 0.7690 0.7650 0.7620 0.7590 0.7540
15.364289 0.7500 0.7490 0.7470 0.7450 0.7440
15.397000 0.7420 0.7350 0.7300 0.7250 0.7220
15.430289 0.7200 0.7190 0.7170 0.7150 0.7120
15.464000 0.7050 0.7020 0.7000 0.6970 0.6950
15.497289 0.6930 0.6920 0.6900 0.6880 0.6850
15.531000 0.6850 0.6850 0.6850 0.6870 0.6850
15.564289 0.6820 0.6770 0.6720 0.6700 0.6670
15.597000 0.6650 0.6630 0.6600 0.6580 0.6530
15.630289 0.6500 0.6470 0.6430 0.6400 0.6370
15.664000 0.6350 0.6350 0.6330 0.6330 0.6300
15.697289 0.6270 0.6230 0.6200 0.6180 0.6170
15.730000 0.6130 0.6050 0.6030 0.6020 0.6000
15.763289 0.5980 0.5950 0.5900 0.5900 0.5900
15.797000 0.5900 0.5880 0.5850 0.5800 0.5760
15.830289 0.5730 0.5700 0.5660 0.5630 0.5600
15.863000 0.5560 0.5530 0.5500 0.5480 0.5450
15.896289 0.5410 0.5380 0.5350 0.5350 0.5300
15.930000 0.5260 0.5230 0.5210 0.5200 0.5150
15.963289 0.5100 0.5060 0.5030 0.5000 0.5000
15.996000 0.4960 0.4930
##END=
