##TITLE=OXAMIDE, N-[3-[(2-MERCAPTOETHYL)AMINO]PROPYL]-N'-(3-PYRIDYL)-, DIHYDROCHLORIDE
##JCAMP-DX=4.24
##DATA TYPE=INFRARED SPECTRUM
##CLASS=COBLENTZ III
##ORIGIN=SOUTHERN RESEARCH INSTITUTE
##OWNER=COBLENTZ SOCIETY
Collection (C) 2018 copyright by the U.S. Secretary of Commerce
on behalf of the United States of America. All rights reserved.
##DATE=1966/08/17
##MOLFORM=C12 H20 Cl2 N4 O2 S
##SOURCE REFERENCE=COBLENTZ NO. 8448
##$NIST ID=B6008448
##$NIST SOURCE=COBLENTZ
##$NIST IMAGE=cob8448
##SPECTROMETER/DATA SYSTEM=PERKIN-ELMER 521 (GRATING)
##INSTRUMENT PARAMETERS=FILTER CHANGE AT 3150, 2500, 2000, 1150, 700, 410 CM^-^1, GRATING CHANGES AT 2000, 630 CM^-^1
##STATE=SOLID (1 mg / 650 mg KBr DISC)
##PATH LENGTH=
$$SPECTRAL CONTAMINATION DUE TO H2O AROUND 3400 CM^-^1
##SAMPLING PROCEDURE=TRANSMISSION
##RESOLUTION=4
##DATA PROCESSING=DIGITIZED BY NIST FROM HARD COPY
##XUNITS=1/CM
##YUNITS=TRANSMITTANCE
##XFACTOR=1.000000
##YFACTOR=1
##DELTAX=001.807229
##FIRSTX=255.422
##LASTX=3813.86
##FIRSTY=0.263
##MAXX=3813.86
##MINX=255.422
##MAXY=0.876
##MINY=0.045
##NPOINTS=1970
##XYDATA=(X++(Y..Y))
255.422000 0.2630 0.2690 0.2800 0.2810 0.2960
264.462736 0.3290 0.3460 0.3630 0.3780 0.3920
273.494000 0.4030 0.4150 0.4230 0.4290 0.4460
282.534736 0.4470 0.4720 0.4910 0.5060 0.5160
291.566000 0.5240 0.5310 0.5350 0.5400 0.5580
300.606736 0.5680 0.5790 0.5890 0.5970 0.6060
309.639000 0.6130 0.6210 0.6270 0.6330 0.6390
318.679736 0.6450 0.6490 0.6550 0.6590 0.6640
327.711000 0.6680 0.6720 0.6760 0.6810 0.6850
336.751736 0.6900 0.6940 0.7020 0.7050 0.7060
345.783000 0.7030 0.7010 0.6980 0.6920 0.6830
354.823736 0.6680 0.6570 0.6480 0.6480 0.6480
363.855000 0.6540 0.6740 0.6990 0.7180 0.7320
372.895736 0.7440 0.7550 0.7770 0.7780 0.7800
381.928000 0.7970 0.8000 0.8020 0.8100 0.8160
390.968736 0.8190 0.8210 0.8230 0.8250 0.8250
400.000000 0.8260 0.8270 0.8280 0.8310 0.8310
409.040736 0.8320 0.8320 0.8310 0.8310 0.8300
418.072000 0.8280 0.8270 0.8250 0.8200 0.8160
427.112736 0.8100 0.8100 0.8120 0.8250 0.8380
436.145000 0.8450 0.8470 0.8530 0.8530 0.8520
445.185736 0.8480 0.8450 0.8400 0.8370 0.8320
454.217000 0.8270 0.8210 0.8160 0.8100 0.8020
463.257736 0.7940 0.7850 0.7750 0.7700 0.7650
472.289000 0.7520 0.7380 0.7240 0.7070 0.6960
481.329736 0.6940 0.6970 0.7110 0.7380 0.7560
490.361000 0.7740 0.7790 0.7820 0.7840 0.7880
499.401736 0.7950 0.8070 0.8170 0.8290 0.8460
508.434000 0.8520 0.8520 0.8090 0.7790 0.7650
517.474736 0.7490 0.7200 0.7200 0.8100 0.8280
526.506000 0.8420 0.8550 0.8650 0.8690 0.8700
535.546736 0.8690 0.8670 0.8650 0.8600 0.8500
544.578000 0.8450 0.8410 0.8330 0.8190 0.7920
553.618736 0.7270 0.6620 0.6570 0.6570 0.6750
562.651000 0.7130 0.7450 0.7960 0.8160 0.8330
571.691736 0.8490 0.8630 0.8750 0.8750 0.8760
580.723000 0.8760 0.8750 0.8560 0.8470 0.8370
589.763736 0.8280 0.8100 0.7930 0.7920 0.7930
598.795000 0.8060 0.8190 0.8400 0.8400 0.8350
607.835736 0.8290 0.8190 0.8080 0.7690 0.7290
616.867000 0.5670 0.5100 0.4520 0.4520 0.5070
625.907736 0.7990 0.8350 0.8670 0.8710 0.8710
634.940000 0.8690 0.8680 0.8670 0.8640 0.8610
643.980736 0.8560 0.8530 0.8510 0.8500 0.8460
653.012000 0.8410 0.8370 0.8320 0.8280 0.8250
662.052736 0.8240 0.7940 0.7830 0.7720 0.7660
671.084000 0.7200 0.5820 0.5610 0.5400 0.5000
680.124736 0.4590 0.4590 0.7970 0.8410 0.8420
689.157000 0.8430 0.8430 0.8420 0.8400 0.8330
698.197736 0.8280 0.8230 0.8170 0.8100 0.8030
707.229000 0.7950 0.7860 0.7770 0.7730 0.7670
716.269736 0.7560 0.7460 0.7340 0.7210 0.7080
725.301000 0.6940 0.6810 0.6660 0.6500 0.6340
734.341736 0.6180 0.6010 0.5830 0.5650 0.5560
743.373000 0.5460 0.5270 0.5060 0.4810 0.4690
752.413736 0.4660 0.4650 0.4660 0.4770 0.4840
761.446000 0.4910 0.5070 0.5510 0.5770 0.5810
770.486736 0.5810 0.5800 0.5700 0.5590 0.5480
779.518000 0.5350 0.5820 0.5940 0.6430 0.6660
788.558736 0.6900 0.7140 0.7310 0.7430 0.7500
797.590000 0.7500 0.7490 0.7440 0.7310 0.7120
806.630736 0.6920 0.6700 0.6510 0.6380 0.6300
815.663000 0.5960 0.5540 0.5120 0.4430 0.4440
824.703736 0.5510 0.5850 0.6350 0.6900 0.7380
833.735000 0.7910 0.7940 0.7930 0.7920 0.7830
842.775736 0.7740 0.7550 0.7360 0.7170 0.6970
851.807000 0.6950 0.6970 0.7170 0.7380 0.7790
860.847736 0.8000 0.8180 0.8410 0.8550 0.8560
869.880000 0.8570 0.8570 0.8560 0.8520 0.8520
878.920736 0.8470 0.8430 0.8370 0.8310 0.8260
887.952000 0.8210 0.8160 0.8110 0.7840 0.7700
896.992736 0.7550 0.7520 0.7450 0.7450 0.8270
906.024000 0.8420 0.8550 0.8670 0.8710 0.8710
915.064736 0.8710 0.8700 0.8700 0.8690 0.8690
924.096000 0.8680 0.8680 0.8660 0.8640 0.8610
933.136736 0.8570 0.8500 0.8420 0.8350 0.8280
942.169000 0.8230 0.8180 0.8130 0.8100 0.8070
951.209736 0.8050 0.8040 0.8010 0.7940 0.7870
960.241000 0.7770 0.7670 0.7570 0.7480 0.7230
969.281736 0.7190 0.7190 0.7210 0.7330 0.7470
978.313000 0.7830 0.8080 0.8090 0.8080 0.8060
987.353736 0.7910 0.7910 0.7830 0.7760 0.7690
996.386000 0.7520 0.7330 0.7160 0.7020 0.6930
1005.426736 0.6410 0.6210 0.6210 0.6250 0.6920
1014.458000 0.7180 0.7350 0.7380 0.7390 0.7200
1023.498736 0.7020 0.6840 0.6650 0.6650 0.7000
1032.530000 0.7010 0.7090 0.7180 0.7250 0.7540
1041.570736 0.7560 0.7560 0.7550 0.7520 0.7550
1050.602000 0.7660 0.7710 0.7760 0.7820 0.7850
1059.642736 0.7840 0.7830 0.7810 0.7800 0.7790
1068.675000 0.7800 0.7810 0.7830 0.7860 0.7910
1077.715736 0.7960 0.8010 0.8010 0.8000 0.7990
1086.747000 0.7960 0.7940 0.7940 0.7920 0.7910
1095.787736 0.7910 0.7860 0.7800 0.7760 0.7730
1104.819000 0.7650 0.7610 0.7590 0.7600 0.7660
1113.859736 0.7710 0.7770 0.7800 0.7820 0.7830
1122.892000 0.7840 0.7850 0.7860 0.7870 0.7880
1131.932736 0.7890 0.7880 0.7870 0.7840 0.7830
1140.964000 0.7800 0.7760 0.7730 0.7690 0.7650
1150.004736 0.7610 0.7560 0.7520 0.7460 0.7380
1159.036000 0.7300 0.7200 0.7080 0.6940 0.6780
1168.076736 0.6580 0.6330 0.6050 0.5780 0.5780
1177.108000 0.5890 0.5980 0.5990 0.5990 0.5990
1186.148736 0.5980 0.5670 0.5540 0.5400 0.4440
1195.181000 0.3650 0.3650 0.3740 0.4730 0.4950
1204.221736 0.5130 0.5500 0.5680 0.5880 0.6080
1213.253000 0.6300 0.6550 0.6810 0.6990 0.7120
1222.293736 0.7160 0.7150 0.7130 0.7060 0.6930
1231.325000 0.6780 0.6700 0.6560 0.6420 0.6280
1240.365736 0.6280 0.6330 0.6490 0.6520 0.6540
1249.398000 0.6570 0.6570 0.6570 0.6530 0.6300
1258.438736 0.6030 0.5500 0.4960 0.4900 0.5490
1267.470000 0.6240 0.6420 0.6430 0.6430 0.6420
1276.510736 0.6400 0.6390 0.6370 0.6360 0.6370
1285.542000 0.6390 0.6440 0.6480 0.6530 0.6670
1294.582736 0.6710 0.6710 0.6680 0.6520 0.6470
1303.615000 0.6430 0.6390 0.6360 0.6350 0.6310
1312.655736 0.6140 0.6010 0.5720 0.5720 0.6210
1321.687000 0.6240 0.6260 0.6260 0.6250 0.6190
1330.727736 0.6110 0.6020 0.5910 0.5790 0.5670
1339.759000 0.5540 0.5480 0.5400 0.5250 0.5100
1348.799736 0.4950 0.4770 0.4600 0.4430 0.4240
1357.831000 0.4050 0.3870 0.3700 0.3510 0.3270
1366.871736 0.3130 0.2970 0.2600 0.2220 0.1740
1375.904000 0.1730 0.1740 0.1920 0.2490 0.3530
1384.944736 0.3960 0.4380 0.4810 0.5880 0.5880
1393.976000 0.5850 0.5840 0.5560 0.5500 0.5440
1403.016736 0.5320 0.5200 0.5070 0.4940 0.4810
1412.048000 0.4680 0.4560 0.4420 0.4300 0.4160
1421.088736 0.4040 0.3900 0.3770 0.3630 0.3500
1430.120000 0.3360 0.3210 0.3060 0.3030 0.3080
1439.160736 0.3130 0.3090 0.3000 0.2880 0.2660
1448.193000 0.2390 0.2250 0.2220 0.2080 0.1990
1457.233736 0.1880 0.1860 0.1870 0.1940 0.2170
1466.265000 0.3590 0.4120 0.4550 0.4900 0.5160
1475.305736 0.5340 0.5510 0.5550 0.5560 0.5560
1484.337000 0.5520 0.5480 0.5430 0.5020 0.4630
1493.377736 0.4270 0.3900 0.3480 0.3340 0.3200
1502.410000 0.3000 0.2780 0.2340 0.1700 0.1410
1511.450736 0.1170 0.1020 0.0860 0.0840 0.0830
1520.482000 0.0840 0.1060 0.1250 0.1500 0.1800
1529.522736 0.2100 0.2410 0.2690 0.3350 0.3350
1538.554000 0.3320 0.3220 0.3120 0.2990 0.2580
1547.594736 0.2190 0.2030 0.1870 0.1710 0.1550
1556.626000 0.1550 0.1730 0.2080 0.2390 0.2760
1565.666736 0.3590 0.4020 0.4420 0.4800 0.5120
1574.699000 0.5510 0.5530 0.5550 0.5560 0.5570
1583.739736 0.5630 0.5710 0.5850 0.6000 0.6080
1592.771000 0.6120 0.6160 0.6160 0.6010 0.5850
1601.811736 0.5630 0.5520 0.5500 0.5480 0.5400
1610.843000 0.5510 0.5970 0.6290 0.6500 0.6650
1619.883736 0.6770 0.6780 0.6780 0.6690 0.6600
1628.916000 0.6520 0.6390 0.6270 0.6160 0.6070
1637.956736 0.5960 0.5850 0.5700 0.5610 0.5470
1646.988000 0.5320 0.4870 0.4320 0.3690 0.3360
1656.028736 0.3030 0.2380 0.1800 0.1310 0.1140
1665.060000 0.0970 0.0470 0.0450 0.0460 0.0600
1674.100736 0.1200 0.1560 0.1960 0.2370 0.3250
1683.133000 0.3700 0.4150 0.4590 0.5010 0.5690
1692.173736 0.6090 0.6340 0.6350 0.5840 0.5720
1701.205000 0.5600 0.5550 0.5490 0.5670 0.5850
1710.245736 0.6040 0.6230 0.6370 0.6620 0.6840
1719.277000 0.7020 0.7170 0.7330 0.7490 0.7910
1728.317736 0.8180 0.8370 0.8460 0.8460 0.8520
1737.349000 0.8540 0.8540 0.8540 0.8530 0.8530
1746.389736 0.8520 0.8520 0.8510 0.8490 0.8460
1755.422000 0.8450 0.8400 0.8360 0.8290 0.8230
1764.462736 0.8170 0.8100 0.8060 0.8010 0.7990
1773.494000 0.7980 0.7980 0.7980 0.7990 0.8000
1782.534736 0.8010 0.8030 0.8040 0.8050 0.8060
1791.566000 0.8080 0.8100 0.8120 0.8130 0.8130
1800.606736 0.8130 0.8120 0.8100 0.8090 0.8070
1809.639000 0.8070 0.8020 0.7980 0.7940 0.7930
1818.679736 0.7920 0.7920 0.7880 0.7830 0.7800
1827.711000 0.7800 0.7770 0.7750 0.7740 0.7700
1836.751736 0.7650 0.7620 0.7570 0.7520 0.7470
1845.783000 0.7430 0.7380 0.7350 0.7300 0.7270
1854.823736 0.7240 0.7200 0.7190 0.7160 0.7150
1863.855000 0.7110 0.7070 0.7010 0.6950 0.6890
1872.895736 0.6830 0.6750 0.6690 0.6630 0.6570
1881.928000 0.6500 0.6440 0.6350 0.6290 0.6270
1890.968736 0.6260 0.6270 0.6280 0.6300 0.6300
1900.000000 0.6310 0.6320 0.6330 0.6340 0.6340
1909.040736 0.6330 0.6320 0.6300 0.6250 0.6190
1918.072000 0.6120 0.6060 0.6000 0.5930 0.5860
1927.112736 0.5780 0.5700 0.5620 0.5530 0.5490
1936.145000 0.5430 0.5330 0.5230 0.5120 0.5000
1945.185736 0.4870 0.4730 0.4650 0.4580 0.4570
1954.217000 0.4580 0.4680 0.4780 0.4890 0.4990
1963.257736 0.5100 0.5210 0.5310 0.5520 0.5610
1972.289000 0.5670 0.5750 0.5760 0.5760 0.5760
1981.329736 0.5760 0.5760 0.5660 0.5560 0.5510
1990.361000 0.5460 0.5360 0.5260 0.5160 0.5070
1999.401736 0.4980 0.4900 0.4810 0.4740 0.4620
2008.434000 0.4610 0.4620 0.4660 0.4680 0.4750
2017.474736 0.4810 0.4870 0.4950 0.5010 0.5070
2026.506000 0.5130 0.5180 0.5180 0.5170 0.5150
2035.546736 0.5110 0.5060 0.4970 0.4820 0.4680
2044.578000 0.4640 0.4550 0.4470 0.4440 0.4410
2053.618736 0.4320 0.4170 0.4050 0.3970 0.3910
2062.651000 0.3860 0.3790 0.3760 0.3750 0.3740
2071.691736 0.3740 0.3750 0.3790 0.3820 0.3830
2080.723000 0.3840 0.3840 0.3830 0.3830 0.3830
2089.763736 0.3840 0.3950 0.4080 0.4220 0.4350
2098.795000 0.4500 0.4650 0.4800 0.4970 0.5130
2107.835736 0.5310 0.5650 0.5830 0.6000 0.6180
2116.867000 0.6350 0.6510 0.6710 0.6720 0.6750
2125.907736 0.6790 0.6870 0.6910 0.6940 0.6960
2134.940000 0.6980 0.7000 0.6990 0.6990 0.6970
2143.980736 0.6950 0.6940 0.6930 0.6900 0.6850
2153.012000 0.6830 0.6780 0.6750 0.6700 0.6660
2162.052736 0.6620 0.6570 0.6520 0.6480 0.6420
2171.084000 0.6380 0.6320 0.6270 0.6210 0.6160
2180.124736 0.6110 0.6040 0.5990 0.5940 0.5870
2189.157000 0.5820 0.5760 0.5700 0.5640 0.5580
2198.197736 0.5490 0.5410 0.5330 0.5310 0.5290
2207.229000 0.5250 0.5240 0.5220 0.5210 0.5200
2216.269736 0.5090 0.4970 0.4880 0.4830 0.4790
2225.301000 0.4770 0.4750 0.4730 0.4690 0.4680
2234.341736 0.4590 0.4540 0.4490 0.4450 0.4400
2243.374000 0.4380 0.4370 0.4370 0.4380 0.4390
2252.414736 0.4410 0.4420 0.4430 0.4440 0.4450
2261.446000 0.4480 0.4500 0.4510 0.4530 0.4540
2270.486736 0.4550 0.4560 0.4590 0.4610 0.4640
2279.518000 0.4640 0.4660 0.4670 0.4670 0.4670
2288.558736 0.4670 0.4670 0.4660 0.4660 0.4660
2297.590000 0.4660 0.4650 0.4640 0.4630 0.4630
2306.630736 0.4620 0.4620 0.4620 0.4620 0.4630
2315.663000 0.4640 0.4650 0.4660 0.4680 0.4680
2324.703736 0.4690 0.4700 0.4710 0.4720 0.4730
2333.735000 0.4740 0.4750 0.4760 0.4770 0.4770
2342.775736 0.4780 0.4790 0.4790 0.4800 0.4810
2351.807000 0.4820 0.4830 0.4840 0.4850 0.4860
2360.847736 0.4860 0.4860 0.4860 0.4870 0.4870
2369.880000 0.4870 0.4870 0.4880 0.4880 0.4870
2378.920736 0.4870 0.4870 0.4870 0.4870 0.4860
2387.952000 0.4860 0.4860 0.4860 0.4860 0.4860
2396.992736 0.4860 0.4860 0.4850 0.4850 0.4850
2406.024000 0.4840 0.4840 0.4840 0.4840 0.4830
2415.064736 0.4830 0.4830 0.4830 0.4820 0.4810
2424.096000 0.4810 0.4800 0.4800 0.4790 0.4790
2433.136736 0.4780 0.4780 0.4770 0.4750 0.4750
2442.169000 0.4730 0.4720 0.4700 0.4680 0.4680
2451.209736 0.4670 0.4650 0.4640 0.4630 0.4620
2460.241000 0.4620 0.4610 0.4600 0.4600 0.4590
2469.281736 0.4590 0.4590 0.4590 0.4590 0.4590
2478.313000 0.4590 0.4590 0.4600 0.4620 0.4640
2487.353736 0.4640 0.4660 0.4670 0.4680 0.4690
2496.385000 0.4710 0.4730 0.4760 0.4780 0.4820
2505.425736 0.4850 0.4870 0.4900 0.4940 0.4960
2514.458000 0.5000 0.5040 0.5060 0.5090 0.5130
2523.498736 0.5150 0.5180 0.5220 0.5240 0.5260
2532.530000 0.5270 0.5280 0.5290 0.5300 0.5300
2541.570736 0.5300 0.5300 0.5300 0.5290 0.5280
2550.603000 0.5280 0.5270 0.5270 0.5270 0.5270
2559.643736 0.5270 0.5280 0.5280 0.5280 0.5280
2568.675000 0.5280 0.5280 0.5280 0.5280 0.5280
2577.715736 0.5280 0.5280 0.5280 0.5280 0.5280
2586.747000 0.5280 0.5280 0.5280 0.5270 0.5270
2595.787736 0.5260 0.5250 0.5240 0.5230 0.5220
2604.819000 0.5220 0.5220 0.5210 0.5200 0.5200
2613.859736 0.5200 0.5200 0.5200 0.5200 0.5210
2622.892000 0.5210 0.5210 0.5220 0.5220 0.5220
2631.932736 0.5230 0.5230 0.5240 0.5240 0.5250
2640.964000 0.5250 0.5260 0.5260 0.5270 0.5270
2650.004736 0.5270 0.5270 0.5270 0.5270 0.5260
2659.036000 0.5260 0.5250 0.5250 0.5230 0.5220
2668.076736 0.5220 0.5210 0.5200 0.5190 0.5180
2677.108000 0.5160 0.5130 0.5100 0.5070 0.5040
2686.148736 0.5030 0.5010 0.5000 0.4990 0.4970
2695.181000 0.4950 0.4930 0.4900 0.4870 0.4860
2704.221736 0.4840 0.4830 0.4820 0.4820 0.4800
2713.253000 0.4770 0.4750 0.4740 0.4700 0.4670
2722.293736 0.4630 0.4590 0.4560 0.4510 0.4480
2731.325000 0.4450 0.4410 0.4380 0.4350 0.4320
2740.365736 0.4290 0.4250 0.4230 0.4210 0.4180
2749.398000 0.4150 0.4140 0.4120 0.4090 0.4080
2758.438736 0.4080 0.4080 0.4080 0.4090 0.4090
2767.470000 0.4100 0.4110 0.4120 0.4140 0.4160
2776.510736 0.4190 0.4200 0.4220 0.4230 0.4240
2785.542000 0.4250 0.4270 0.4270 0.4290 0.4320
2794.582736 0.4340 0.4360 0.4390 0.4410 0.4430
2803.615000 0.4450 0.4490 0.4500 0.4500 0.4510
2812.655736 0.4520 0.4530 0.4540 0.4540 0.4560
2821.687000 0.4570 0.4590 0.4590 0.4610 0.4630
2830.727736 0.4650 0.4670 0.4680 0.4700 0.4710
2839.759000 0.4710 0.4720 0.4720 0.4720 0.4730
2848.799736 0.4730 0.4740 0.4750 0.4750 0.4770
2857.831000 0.4770 0.4770 0.4790 0.4810 0.4820
2866.871736 0.4820 0.4840 0.4850 0.4860 0.4860
2875.904000 0.4880 0.4890 0.4900 0.4910 0.4930
2884.944736 0.4930 0.4940 0.4940 0.4930 0.4920
2893.976000 0.4900 0.4880 0.4820 0.4770 0.4720
2903.016736 0.4670 0.4610 0.4560 0.4500 0.4440
2912.048000 0.4390 0.4320 0.4260 0.4200 0.4140
2921.088736 0.4060 0.3990 0.3910 0.3840 0.3750
2930.121000 0.3740 0.3740 0.3740 0.3730 0.3720
2939.161736 0.3710 0.3660 0.3610 0.3600 0.3590
2948.193000 0.3570 0.3550 0.3530 0.3510 0.3490
2957.233736 0.3460 0.3440 0.3420 0.3420 0.3410
2966.265000 0.3400 0.3400 0.3400 0.3410 0.3410
2975.305736 0.3420 0.3420 0.3430 0.3470 0.3500
2984.337000 0.3520 0.3540 0.3570 0.3600 0.3610
2993.377736 0.3630 0.3660 0.3690 0.3710 0.3740
3002.410000 0.3770 0.3780 0.3780 0.3780 0.3780
3011.450736 0.3780 0.3780 0.3780 0.3790 0.3800
3020.482000 0.3830 0.3860 0.3880 0.3910 0.3950
3029.522736 0.4020 0.4090 0.4130 0.4110 0.4040
3038.554000 0.3960 0.3870 0.3760 0.3630 0.3510
3047.594736 0.3390 0.3280 0.3270 0.3280 0.3340
3056.626000 0.3400 0.3560 0.3710 0.3850 0.3970
3065.666736 0.4090 0.4210 0.4310 0.4400 0.4490
3074.699000 0.4570 0.4640 0.4820 0.4950 0.5050
3083.739736 0.5130 0.5170 0.5210 0.5220 0.5240
3092.771000 0.5260 0.5280 0.5310 0.5340 0.5380
3101.811736 0.5420 0.5460 0.5490 0.5490 0.5490
3110.844000 0.5470 0.5430 0.5400 0.5350 0.5310
3119.884736 0.5240 0.5180 0.5070 0.5050 0.5070
3128.916000 0.5260 0.5520 0.5600 0.5670 0.5720
3137.956736 0.5760 0.5780 0.5790 0.5780 0.5770
3146.988000 0.5740 0.5700 0.5680 0.5670 0.5640
3156.028736 0.5630 0.5580 0.5560 0.5490 0.5480
3165.060000 0.5450 0.5400 0.5360 0.5310 0.5280
3174.100736 0.5240 0.5210 0.5170 0.5130 0.5100
3183.133000 0.5070 0.5040 0.5000 0.4960 0.4940
3192.173736 0.4900 0.4860 0.4820 0.4770 0.4700
3201.205000 0.4630 0.4550 0.4480 0.4410 0.4330
3210.245736 0.4260 0.4200 0.4130 0.4050 0.3990
3219.277000 0.3930 0.3860 0.3790 0.3730 0.3670
3228.317736 0.3600 0.3540 0.3480 0.3420 0.3350
3237.349000 0.3290 0.3260 0.3230 0.3170 0.3110
3246.389736 0.3050 0.2990 0.2930 0.2870 0.2810
3255.422000 0.2750 0.2700 0.2630 0.2570 0.2450
3264.462736 0.2400 0.2370 0.2350 0.2340 0.2340
3273.494000 0.2350 0.2370 0.2510 0.2640 0.2780
3282.534736 0.2910 0.3060 0.3350 0.3510 0.3670
3291.566000 0.3820 0.3980 0.4140 0.4320 0.4480
3300.606736 0.4650 0.4810 0.4980 0.5150 0.5490
3309.639000 0.5670 0.5840 0.6020 0.6180 0.6270
3318.679736 0.6360 0.6430 0.6500 0.6570 0.6640
3327.711000 0.6700 0.6750 0.6810 0.6860 0.6910
3336.751736 0.6950 0.6990 0.7020 0.7060 0.7090
3345.783000 0.7120 0.7140 0.7170 0.7200 0.7210
3354.823736 0.7230 0.7250 0.7270 0.7280 0.7290
3363.855000 0.7290 0.7300 0.7310 0.7320 0.7320
3372.895736 0.7330 0.7330 0.7330 0.7340 0.7340
3381.928000 0.7340 0.7340 0.7340 0.7330 0.7330
3390.968736 0.7330 0.7320 0.7320 0.7320 0.7320
3400.000000 0.7320 0.7320 0.7320 0.7320 0.7320
3409.040736 0.7320 0.7330 0.7330 0.7330 0.7330
3418.072000 0.7330 0.7340 0.7340 0.7340 0.7340
3427.112736 0.7340 0.7350 0.7350 0.7350 0.7350
3436.145000 0.7350 0.7350 0.7350 0.7350 0.7360
3445.185736 0.7360 0.7370 0.7370 0.7380 0.7380
3454.217000 0.7380 0.7380 0.7390 0.7390 0.7400
3463.257736 0.7400 0.7410 0.7420 0.7420 0.7430
3472.289000 0.7440 0.7440 0.7450 0.7460 0.7460
3481.329736 0.7470 0.7470 0.7480 0.7490 0.7490
3490.362000 0.7500 0.7510 0.7520 0.7520 0.7530
3499.402736 0.7540 0.7550 0.7550 0.7560 0.7560
3508.434000 0.7570 0.7580 0.7580 0.7600 0.7610
3517.474736 0.7620 0.7640 0.7650 0.7650 0.7670
3526.506000 0.7680 0.7690 0.7700 0.7720 0.7740
3535.546736 0.7740 0.7760 0.7770 0.7790 0.7800
3544.578000 0.7810 0.7830 0.7830 0.7850 0.7860
3553.618736 0.7870 0.7890 0.7900 0.7920 0.7920
3562.651000 0.7930 0.7950 0.7960 0.7980 0.7990
3571.691736 0.8000 0.8010 0.8010 0.8020 0.8030
3580.723000 0.8050 0.8060 0.8070 0.8080 0.8090
3589.763736 0.8100 0.8100 0.8120 0.8130 0.8140
3598.795000 0.8150 0.8160 0.8180 0.8190 0.8190
3607.835736 0.8210 0.8230 0.8240 0.8260 0.8280
3616.867000 0.8280 0.8300 0.8310 0.8320 0.8330
3625.907736 0.8340 0.8350 0.8360 0.8360 0.8370
3634.940000 0.8370 0.8370 0.8370 0.8370 0.8370
3643.980736 0.8370 0.8370 0.8370 0.8370 0.8360
3653.012000 0.8360 0.8360 0.8360 0.8350 0.8350
3662.052736 0.8350 0.8340 0.8340 0.8340 0.8330
3671.084000 0.8330 0.8330 0.8330 0.8340 0.8340
3680.124736 0.8340 0.8350 0.8350 0.8350 0.8350
3689.157000 0.8350 0.8360 0.8360 0.8370 0.8370
3698.197736 0.8370 0.8370 0.8370 0.8370 0.8370
3707.229000 0.8370 0.8370 0.8370 0.8370 0.8370
3716.269736 0.8360 0.8360 0.8360 0.8360 0.8350
3725.301000 0.8340 0.8340 0.8340 0.8330 0.8330
3734.341736 0.8320 0.8320 0.8310 0.8310 0.8300
3743.374000 0.8300 0.8290 0.8290 0.8290 0.8300
3752.414736 0.8300 0.8300 0.8300 0.8300 0.8300
3761.446000 0.8300 0.8300 0.8300 0.8300 0.8300
3770.486736 0.8300 0.8300 0.8300 0.8300 0.8300
3779.518000 0.8290 0.8290 0.8290 0.8280 0.8280
3788.558736 0.8280 0.8280 0.8280 0.8280 0.8270
3797.590000 0.8260 0.8260 0.8250 0.8250 0.8240
3806.630736 0.8240 0.8230 0.8240 0.8240 0.8230
##END=
