##TITLE=ETHYL FERROCENOATE
##JCAMP-DX=4.24
##DATA TYPE=INFRARED SPECTRUM
##CLASS=COBLENTZ
##ORIGIN=WYANDOTTE CHEMICALS CORP., WYANDOTTE, MICHIGAN, USA
##OWNER=COBLENTZ SOCIETY
Collection (C) 2018 copyright by the U.S. Secretary of Commerce
on behalf of the United States of America. All rights reserved.
##DATE=Not specified, most likely prior to 1970
##MOLFORM=C13 H14 Fe O2
##MP=63-64 C
##SOURCE REFERENCE=COBLENTZ NO. 3029
##$NIST ID=B6003029
##$NIST SOURCE=COBLENTZ
##$NIST IMAGE=cob3029
##SPECTROMETER/DATA SYSTEM=Not specified, most likely a prism, grating, or hybrid spectrometer.
##STATE=SOLID (MINERAL OIL MULL)
##PATH LENGTH=
$$SPECTRAL CONTAMINATION DUE TO OIL AROUND 2900 CM^-^1
##SAMPLING PROCEDURE=TRANSMISSION
##RESOLUTION=4
##DATA PROCESSING=DIGITIZED BY NIST FROM HARD COPY
##XUNITS=MICROMETERS
##YUNITS=TRANSMITTANCE
##XFACTOR=1.000000
##YFACTOR=1
##DELTAX=000.006813
##FIRSTX=2.02
##LASTX=15.986
##FIRSTY=0.502
##MAXX=15.986
##MINX=2.02
##MAXY=0.962
##MINY=0.03
##NPOINTS=2051
##XYDATA=(X++(Y..Y))
2.020000 0.5020 0.5020 0.5020 0.5040 0.5050
2.054080 0.5050 0.5050 0.5090 0.5110 0.5120
2.089000 0.5120 0.5140 0.5160 0.5160 0.5170
2.123080 0.5170 0.5190 0.5210 0.5210 0.5210
2.157000 0.5210 0.5190 0.5190 0.5190 0.5170
2.191080 0.5160 0.5110 0.5090 0.5070 0.5050
2.225000 0.5050 0.5050 0.5070 0.5090 0.5090
2.259080 0.5110 0.5140 0.5160 0.5160 0.5170
2.293000 0.5190 0.5210 0.5210 0.5230 0.5240
2.327080 0.5260 0.5260 0.5260 0.5260 0.5260
2.361000 0.5260 0.5280 0.5280 0.5280 0.5290
2.395080 0.5310 0.5330 0.5330 0.5330 0.5350
2.429000 0.5360 0.5380 0.5380 0.5400 0.5380
2.463080 0.5360 0.5350 0.5330 0.5260 0.5230
2.497000 0.5210 0.5230 0.5290 0.5330 0.5400
2.531080 0.5400 0.5470 0.5520 0.5570 0.5640
2.565000 0.5690 0.5720 0.5770 0.5810 0.5820
2.599080 0.5820 0.5720 0.5720 0.5740 0.5740
2.634000 0.5790 0.5890 0.5930 0.5960 0.5960
2.668080 0.5940 0.5930 0.5910 0.5890 0.5890
2.702000 0.5890 0.5890 0.5890 0.5890 0.5890
2.736080 0.5880 0.5890 0.5910 0.5940 0.6010
2.770000 0.6010 0.6010 0.6010 0.6010 0.5980
2.804080 0.5930 0.5930 0.5930 0.5930 0.5930
2.838000 0.5930 0.5930 0.5940 0.5940 0.5940
2.872080 0.5940 0.5940 0.5940 0.5930 0.5910
2.906000 0.5910 0.5930 0.5940 0.5960 0.5960
2.940080 0.5960 0.5940 0.5940 0.5930 0.5890
2.974000 0.5890 0.5840 0.5820 0.5810 0.5810
3.008080 0.5840 0.5840 0.5880 0.5880 0.5880
3.042000 0.5880 0.5890 0.5890 0.5880 0.5860
3.076080 0.5840 0.5820 0.5820 0.5820 0.5820
3.110000 0.5820 0.5820 0.5820 0.5820 0.5810
3.144080 0.5770 0.5740 0.5720 0.5700 0.5640
3.179000 0.5600 0.5550 0.5530 0.5450 0.5290
3.213080 0.5140 0.4940 0.4920 0.4940 0.4990
3.247000 0.5040 0.5110 0.5120 0.5140 0.5140
3.281080 0.5110 0.4970 0.4820 0.4610 0.4250
3.315000 0.3720 0.3050 0.2300 0.1700 0.1360
3.349080 0.1070 0.0760 0.0540 0.0420 0.0320
3.383000 0.0300 0.0300 0.0300 0.0320 0.0350
3.417080 0.0370 0.0410 0.0490 0.0590 0.0730
3.451000 0.0870 0.0990 0.1090 0.1120 0.1140
3.485080 0.1140 0.1020 0.1020 0.1120 0.1580
3.519000 0.2220 0.2990 0.3840 0.4680 0.5480
3.553080 0.6130 0.6610 0.6830 0.6990 0.7110
3.587000 0.7190 0.7310 0.7400 0.7430 0.7450
3.621080 0.7450 0.7470 0.7470 0.7430 0.7400
3.655000 0.7350 0.7310 0.7240 0.7210 0.7190
3.689080 0.7190 0.7210 0.7240 0.7280 0.7290
3.724000 0.7290 0.7290 0.7290 0.7310 0.7330
3.758080 0.7350 0.7360 0.7400 0.7410 0.7430
3.792000 0.7480 0.7500 0.7520 0.7530 0.7550
3.826080 0.7570 0.7550 0.7520 0.7520 0.7520
3.860000 0.7520 0.7530 0.7570 0.7600 0.7620
3.894080 0.7640 0.7670 0.7700 0.7720 0.7720
3.928000 0.7740 0.7740 0.7760 0.7760 0.7760
3.962080 0.7760 0.7760 0.7770 0.7810 0.7880
3.996000 0.7890 0.7910 0.7910 0.7910 0.7910
4.030080 0.7910 0.7910 0.7910 0.7930 0.7930
4.064000 0.7930 0.7910 0.7910 0.7910 0.7890
4.098080 0.7880 0.7880 0.7880 0.7890 0.7890
4.132000 0.7890 0.7880 0.7880 0.7910 0.7940
4.166080 0.7940 0.7940 0.7940 0.7930 0.7930
4.200000 0.7910 0.7910 0.7910 0.7930 0.7930
4.234080 0.7930 0.7910 0.7820 0.7670 0.7640
4.269000 0.7640 0.7650 0.7700 0.7770 0.7820
4.303080 0.7880 0.7890 0.7930 0.7940 0.7960
4.337000 0.7980 0.8010 0.8050 0.8100 0.8150
4.371080 0.8220 0.8270 0.8320 0.8340 0.8350
4.405000 0.8350 0.8370 0.8370 0.8370 0.8370
4.439080 0.8370 0.8340 0.8300 0.8250 0.8230
4.473000 0.8230 0.8220 0.8220 0.8220 0.8220
4.507080 0.8200 0.8180 0.8180 0.8180 0.8220
4.541000 0.8270 0.8300 0.8320 0.8350 0.8370
4.575080 0.8390 0.8390 0.8390 0.8340 0.8340
4.609000 0.8340 0.8410 0.8420 0.8420 0.8420
4.643080 0.8420 0.8420 0.8440 0.8460 0.8510
4.677000 0.8560 0.8610 0.8610 0.8610 0.8610
4.711080 0.8610 0.8590 0.8610 0.8610 0.8610
4.745000 0.8610 0.8610 0.8630 0.8660 0.8710
4.779080 0.8760 0.8800 0.8800 0.8800 0.8750
4.814000 0.8750 0.8750 0.8780 0.8800 0.8800
4.848080 0.8800 0.8820 0.8800 0.8800 0.8800
4.882000 0.8800 0.8820 0.8820 0.8820 0.8820
4.916080 0.8820 0.8820 0.8820 0.8830 0.8830
4.950000 0.8850 0.8870 0.8880 0.8830 0.8830
4.984080 0.8830 0.8870 0.8900 0.8940 0.8950
5.018000 0.8970 0.8970 0.8950 0.8940 0.8920
5.052080 0.8880 0.8830 0.8820 0.8830 0.8880
5.086000 0.8940 0.8990 0.9000 0.9020 0.9020
5.120080 0.9040 0.9110 0.9120 0.9160 0.9170
5.154000 0.9190 0.9210 0.9190 0.9120 0.9120
5.188080 0.9110 0.9110 0.9210 0.9210 0.9140
5.222000 0.9140 0.9140 0.9140 0.9140 0.9190
5.256080 0.9210 0.9210 0.9230 0.9240 0.9230
5.291000 0.9210 0.9170 0.9110 0.9090 0.9110
5.325080 0.9140 0.9190 0.9240 0.9290 0.9290
5.359000 0.9290 0.9290 0.9230 0.9230 0.9230
5.393080 0.9230 0.9310 0.9410 0.9410 0.9410
5.427000 0.9410 0.9410 0.9330 0.9330 0.9330
5.461080 0.9410 0.9480 0.9550 0.9570 0.9570
5.495000 0.9570 0.9600 0.9620 0.9620 0.9550
5.529080 0.9500 0.9430 0.9410 0.9410 0.9410
5.563000 0.9360 0.9350 0.9230 0.9120 0.9070
5.597080 0.9040 0.9020 0.8950 0.8870 0.8850
5.631000 0.8830 0.8820 0.8820 0.8830 0.8950
5.665080 0.9020 0.9110 0.9120 0.9120 0.9120
5.699000 0.9110 0.9050 0.9000 0.8970 0.8940
5.733080 0.8880 0.8800 0.8630 0.8470 0.8110
5.767000 0.7140 0.5930 0.5550 0.5210 0.4870
5.801080 0.4520 0.4200 0.4170 0.4110 0.4100
5.836000 0.3810 0.3400 0.2920 0.2540 0.2320
5.870080 0.1980 0.1760 0.1470 0.1230 0.1020
5.904000 0.1000 0.1020 0.1290 0.1620 0.1980
5.938080 0.2470 0.2880 0.3260 0.3500 0.3770
5.972000 0.4060 0.4340 0.4590 0.4830 0.5000
6.006080 0.5210 0.5000 0.5110 0.5120 0.5160
6.040000 0.5430 0.5690 0.6030 0.6300 0.6420
6.074080 0.6440 0.6470 0.6680 0.6800 0.6870
6.108000 0.6920 0.6940 0.6950 0.6990 0.7040
6.142080 0.7120 0.7210 0.7260 0.7290 0.7330
6.176000 0.7360 0.7430 0.7520 0.7580 0.7650
6.210080 0.7690 0.7740 0.7770 0.7840 0.7890
6.244000 0.7980 0.8000 0.8010 0.8050 0.8050
6.278080 0.8100 0.8110 0.8150 0.8180 0.8230
6.312000 0.8300 0.8340 0.8340 0.8350 0.8320
6.346080 0.8290 0.8200 0.8170 0.8150 0.8180
6.381000 0.8220 0.8320 0.8410 0.8410 0.8410
6.415080 0.8370 0.8350 0.8270 0.8230 0.8180
6.449000 0.8150 0.8150 0.8180 0.8200 0.8250
6.483080 0.8300 0.8350 0.8410 0.8410 0.8350
6.517000 0.8300 0.8290 0.8290 0.8290 0.8320
6.551080 0.8370 0.8440 0.8510 0.8520 0.8510
6.585000 0.8440 0.8440 0.8510 0.8510 0.8510
6.619080 0.8490 0.8440 0.8410 0.8370 0.8370
6.653000 0.8340 0.8290 0.8180 0.8130 0.7980
6.687080 0.7720 0.7430 0.7090 0.6750 0.6410
6.721000 0.6080 0.5820 0.5480 0.5170 0.4760
6.755080 0.3880 0.2970 0.2230 0.1520 0.1280
6.789000 0.1160 0.1140 0.1160 0.1190 0.1240
6.823080 0.1310 0.1360 0.1410 0.1550 0.1670
6.857000 0.1810 0.1980 0.2220 0.2520 0.2990
6.891080 0.3360 0.3690 0.3940 0.4200 0.4470
6.926000 0.4750 0.5070 0.5470 0.5840 0.6200
6.960080 0.6540 0.6800 0.7000 0.7140 0.7260
6.994000 0.7350 0.7360 0.7360 0.7360 0.7350
7.028080 0.7350 0.7210 0.6970 0.6630 0.6350
7.062000 0.6030 0.6010 0.6030 0.6200 0.6390
7.096080 0.6610 0.6800 0.6830 0.6830 0.6630
7.130000 0.6200 0.5980 0.5790 0.5700 0.5520
7.164080 0.5330 0.5020 0.4660 0.4370 0.4250
7.198000 0.3960 0.3670 0.3450 0.3230 0.3160
7.232080 0.2900 0.2440 0.2390 0.2410 0.2730
7.266000 0.3120 0.3670 0.4170 0.4470 0.4760
7.300080 0.4880 0.5050 0.5280 0.5640 0.6080
7.334000 0.6510 0.6830 0.6900 0.6900 0.6850
7.368080 0.6760 0.6730 0.6730 0.6730 0.6900
7.402000 0.7140 0.7280 0.7450 0.7570 0.7640
7.436080 0.7670 0.7700 0.7720 0.7820 0.7930
7.471000 0.8030 0.8050 0.8110 0.8130 0.8180
7.505080 0.8230 0.8250 0.8230 0.8290 0.8320
7.539000 0.8340 0.8340 0.8340 0.8320 0.8320
7.573080 0.8300 0.8300 0.8270 0.8250 0.8220
7.607000 0.8170 0.8100 0.8010 0.7930 0.7790
7.641080 0.7640 0.7470 0.7240 0.6970 0.6710
7.675000 0.6520 0.6390 0.6270 0.6200 0.6110
7.709080 0.6050 0.5960 0.5840 0.5690 0.5470
7.743000 0.5190 0.4830 0.4370 0.3810 0.3260
7.777080 0.2580 0.2110 0.1640 0.1360 0.0880
7.811000 0.0590 0.0410 0.0370 0.0410 0.0520
7.845080 0.0680 0.0830 0.1070 0.1410 0.1810
7.879000 0.2180 0.2520 0.2880 0.3210 0.3530
7.913080 0.3860 0.4170 0.4470 0.4710 0.4820
7.947000 0.4970 0.5070 0.5190 0.5330 0.5480
7.981080 0.5650 0.5860 0.6060 0.6290 0.6490
8.016000 0.6660 0.6760 0.6870 0.6940 0.7020
8.050080 0.7120 0.7190 0.7240 0.7280 0.7330
8.084000 0.7380 0.7430 0.7520 0.7550 0.7600
8.118080 0.7600 0.7620 0.7640 0.7620 0.7450
8.152000 0.7290 0.7140 0.7050 0.6950 0.6940
8.186080 0.6950 0.7230 0.7410 0.7720 0.7930
8.220000 0.8060 0.8110 0.8130 0.8150 0.8200
8.254080 0.8270 0.8320 0.8320 0.8340 0.8410
8.288000 0.8420 0.8440 0.8440 0.8510 0.8510
8.322080 0.8510 0.8420 0.8410 0.8350 0.8220
8.356000 0.8110 0.8060 0.7960 0.7880 0.7820
8.390080 0.7810 0.7810 0.7840 0.7930 0.7940
8.424000 0.7960 0.7960 0.7980 0.7960 0.7930
8.458080 0.7890 0.7690 0.7480 0.7070 0.6710
8.492000 0.6220 0.5700 0.5120 0.4710 0.4220
8.526080 0.3980 0.3960 0.4000 0.4270 0.4520
8.561000 0.4920 0.5260 0.5580 0.5860 0.6110
8.595080 0.6350 0.6560 0.6750 0.6900 0.7000
8.629000 0.7000 0.7000 0.7000 0.7000 0.6950
8.663080 0.6850 0.6760 0.6640 0.6490 0.6300
8.697000 0.6080 0.5810 0.5480 0.5090 0.4630
8.731080 0.4080 0.3470 0.2900 0.2180 0.1600
8.765000 0.1240 0.1020 0.0830 0.0730 0.0630
8.799080 0.0610 0.0630 0.0680 0.0780 0.0920
8.833000 0.1090 0.1280 0.1620 0.1960 0.2290
8.867080 0.2590 0.2920 0.3240 0.3570 0.3910
8.901000 0.4250 0.4490 0.4780 0.5070 0.5280
8.935080 0.5480 0.5670 0.5910 0.6200 0.6300
8.969000 0.6320 0.6320 0.6130 0.4820 0.4420
9.003080 0.4490 0.5360 0.5530 0.5860 0.6170
9.037000 0.6420 0.6440 0.6440 0.6350 0.6110
9.071080 0.5880 0.5670 0.5470 0.5280 0.5050
9.106000 0.4970 0.4830 0.4820 0.4820 0.4830
9.140080 0.4870 0.4950 0.5070 0.5260 0.5520
9.174000 0.5760 0.5980 0.6180 0.6350 0.6520
9.208080 0.6680 0.6830 0.6950 0.7070 0.7190
9.242000 0.7280 0.7360 0.7450 0.7520 0.7570
9.276080 0.7620 0.7670 0.7720 0.7760 0.7770
9.310000 0.7810 0.7820 0.7840 0.7860 0.7860
9.344080 0.7840 0.7700 0.7690 0.7690 0.7700
9.378000 0.7770 0.7890 0.7890 0.7930 0.7930
9.412080 0.7890 0.7720 0.7570 0.7520 0.7520
9.446000 0.7520 0.7580 0.7740 0.7840 0.7890
9.480080 0.7890 0.7890 0.7890 0.7810 0.7700
9.514000 0.7670 0.7670 0.7720 0.7820 0.7930
9.548080 0.8010 0.8010 0.8010 0.7910 0.7760
9.582000 0.7640 0.7380 0.7000 0.6560 0.6030
9.616080 0.5450 0.4850 0.4220 0.3570 0.3260
9.651000 0.2640 0.2630 0.2640 0.2830 0.3050
9.685080 0.3520 0.3940 0.4320 0.4680 0.4990
9.719000 0.5260 0.5520 0.5760 0.5960 0.6130
9.753080 0.6290 0.6440 0.6560 0.6660 0.6750
9.787000 0.6830 0.6920 0.6970 0.7020 0.7050
9.821080 0.7110 0.7140 0.7190 0.7190 0.7190
9.855000 0.7140 0.7040 0.6920 0.6760 0.6560
9.889080 0.6350 0.6100 0.5820 0.5470 0.5000
9.923000 0.4540 0.4100 0.3760 0.3520 0.3360
9.957080 0.3280 0.3210 0.3190 0.3190 0.3210
9.991000 0.3360 0.3620 0.3930 0.4290 0.4660
10.025080 0.5020 0.5330 0.5650 0.5940 0.6170
10.059000 0.6410 0.6540 0.6680 0.6850 0.6940
10.093080 0.7000 0.7050 0.7140 0.7260 0.7310
10.127000 0.7360 0.7430 0.7480 0.7550 0.7600
10.161080 0.7620 0.7640 0.7690 0.7700 0.7720
10.196000 0.7760 0.7790 0.7820 0.7840 0.7880
10.230080 0.7890 0.7910 0.7940 0.7940 0.7940
10.264000 0.7940 0.7960 0.7980 0.7980 0.8000
10.298080 0.8010 0.8050 0.8100 0.8110 0.8110
10.332000 0.8130 0.8170 0.8180 0.8200 0.8220
10.366080 0.8220 0.8230 0.8250 0.8290 0.8300
10.400000 0.8350 0.8370 0.8390 0.8390 0.8390
10.434080 0.8390 0.8370 0.8390 0.8390 0.8390
10.468000 0.8410 0.8410 0.8420 0.8440 0.8460
10.502080 0.8510 0.8520 0.8540 0.8540 0.8540
10.536000 0.8540 0.8560 0.8560 0.8580 0.8590
10.570080 0.8590 0.8580 0.8580 0.8590 0.8610
10.604000 0.8610 0.8610 0.8630 0.8630 0.8610
10.638080 0.8610 0.8610 0.8610 0.8610 0.8610
10.673000 0.8610 0.8610 0.8630 0.8630 0.8640
10.707080 0.8660 0.8700 0.8700 0.8700 0.8710
10.741000 0.8710 0.8730 0.8730 0.8730 0.8710
10.775080 0.8710 0.8700 0.8710 0.8710 0.8680
10.809000 0.8630 0.8540 0.8470 0.8420 0.8350
10.843080 0.8270 0.8110 0.8010 0.7840 0.7600
10.877000 0.7350 0.7040 0.6730 0.6390 0.6050
10.911080 0.5700 0.5470 0.5290 0.5170 0.5160
10.945000 0.5190 0.5350 0.5520 0.5790 0.6030
10.979080 0.6290 0.6510 0.6730 0.6940 0.7120
11.013000 0.7290 0.7450 0.7580 0.7700 0.7790
11.047080 0.7860 0.7890 0.7940 0.8000 0.8050
11.081000 0.8100 0.8150 0.8200 0.8270 0.8320
11.115080 0.8370 0.8410 0.8460 0.8490 0.8520
11.149000 0.8540 0.8560 0.8560 0.8560 0.8580
11.183080 0.8590 0.8610 0.8640 0.8660 0.8660
11.218000 0.8680 0.8700 0.8700 0.8710 0.8710
11.252080 0.8710 0.8730 0.8750 0.8800 0.8800
11.286000 0.8820 0.8830 0.8850 0.8880 0.8880
11.320080 0.8880 0.8880 0.8900 0.8900 0.8920
11.354000 0.8920 0.8920 0.8940 0.8940 0.8900
11.388080 0.8880 0.8870 0.8850 0.8820 0.8760
11.422000 0.8750 0.8710 0.8700 0.8700 0.8680
11.456080 0.8680 0.8700 0.8710 0.8730 0.8750
11.490000 0.8780 0.8780 0.8780 0.8780 0.8780
11.524080 0.8800 0.8800 0.8800 0.8780 0.8710
11.558000 0.8700 0.8660 0.8630 0.8560 0.8470
11.592080 0.8390 0.8250 0.8110 0.7980 0.7810
11.626000 0.7620 0.7520 0.7380 0.7360 0.7380
11.660080 0.7410 0.7480 0.7580 0.7650 0.7720
11.694000 0.7760 0.7820 0.7880 0.7880 0.7890
11.728080 0.7890 0.7910 0.7910 0.7910 0.7910
11.763000 0.7910 0.7880 0.7880 0.7890 0.7930
11.797080 0.7890 0.7770 0.7670 0.7480 0.7280
11.831000 0.7110 0.7000 0.6820 0.6800 0.6780
11.865080 0.6800 0.7000 0.7190 0.7360 0.7570
11.899000 0.7690 0.7770 0.7880 0.7930 0.7960
11.933080 0.7910 0.7880 0.7810 0.7670 0.7520
11.967000 0.7430 0.7350 0.7330 0.7310 0.7260
12.001080 0.7210 0.7110 0.6990 0.6850 0.6660
12.035000 0.6410 0.6060 0.5600 0.5260 0.5050
12.069080 0.4820 0.4610 0.4470 0.4410 0.4340
12.103000 0.4250 0.4170 0.4060 0.3940 0.3840
12.137080 0.3740 0.3720 0.3740 0.3770 0.3840
12.171000 0.3910 0.4010 0.4130 0.4180 0.4230
12.205080 0.4300 0.4390 0.4460 0.4490 0.4510
12.239000 0.4560 0.4660 0.4750 0.4950 0.5140
12.273080 0.5350 0.5570 0.5810 0.6050 0.6300
12.308000 0.6540 0.6760 0.6990 0.7190 0.7380
12.342080 0.7530 0.7650 0.7740 0.7790 0.7910
12.376000 0.7960 0.8030 0.8080 0.8130 0.8200
12.410080 0.8250 0.8300 0.8370 0.8410 0.8460
12.444000 0.8490 0.8490 0.8510 0.8520 0.8540
12.478080 0.8540 0.8540 0.8580 0.8580 0.8580
12.512000 0.8580 0.8580 0.8580 0.8580 0.8580
12.546080 0.8580 0.8560 0.8540 0.8540 0.8540
12.580000 0.8520 0.8520 0.8520 0.8520 0.8520
12.614080 0.8540 0.8590 0.8590 0.8630 0.8660
12.648000 0.8680 0.8700 0.8710 0.8710 0.8730
12.682080 0.8780 0.8780 0.8780 0.8780 0.8780
12.716000 0.8750 0.8710 0.8640 0.8580 0.8440
12.750080 0.8250 0.8010 0.7650 0.7210 0.6750
12.784000 0.6300 0.5890 0.5450 0.4990 0.4440
12.818080 0.4150 0.3960 0.3930 0.3930 0.4000
12.853000 0.4270 0.4540 0.4870 0.5140 0.5380
12.887080 0.5620 0.5820 0.6030 0.6230 0.6410
12.921000 0.6590 0.6750 0.6900 0.7050 0.7170
12.955080 0.7310 0.7410 0.7520 0.7600 0.7670
12.989000 0.7740 0.7790 0.7840 0.7860 0.7890
13.023080 0.7910 0.7930 0.7960 0.7960 0.7960
13.057000 0.7940 0.7930 0.7890 0.7880 0.7840
13.091080 0.7770 0.7720 0.7620 0.7530 0.7450
13.125000 0.7330 0.7230 0.7090 0.6990 0.6920
13.159080 0.6830 0.6780 0.6750 0.6730 0.6750
13.193000 0.6780 0.6850 0.7000 0.7160 0.7280
13.227080 0.7360 0.7470 0.7530 0.7600 0.7690
13.261000 0.7770 0.7860 0.7930 0.8000 0.8060
13.295080 0.8110 0.8170 0.8220 0.8250 0.8300
13.329000 0.8340 0.8370 0.8390 0.8420 0.8440
13.363080 0.8470 0.8490 0.8490 0.8490 0.8510
13.398000 0.8520 0.8540 0.8560 0.8580 0.8580
13.432080 0.8590 0.8630 0.8640 0.8660 0.8660
13.466000 0.8660 0.8660 0.8660 0.8660 0.8660
13.500080 0.8660 0.8660 0.8680 0.8680 0.8680
13.534000 0.8680 0.8700 0.8700 0.8700 0.8700
13.568080 0.8700 0.8700 0.8700 0.8700 0.8710
13.602000 0.8750 0.8760 0.8780 0.8760 0.8750
13.636080 0.8750 0.8750 0.8780 0.8780 0.8760
13.670000 0.8710 0.8750 0.8760 0.8780 0.8780
13.704080 0.8780 0.8760 0.8760 0.8710 0.8710
13.738000 0.8760 0.8750 0.8730 0.8730 0.8710
13.772080 0.8750 0.8760 0.8760 0.8760 0.8760
13.806000 0.8760 0.8760 0.8750 0.8750 0.8730
13.840080 0.8730 0.8750 0.8750 0.8760 0.8760
13.874000 0.8760 0.8750 0.8750 0.8730 0.8750
13.908080 0.8750 0.8750 0.8760 0.8780 0.8800
13.943000 0.8820 0.8870 0.8880 0.8920 0.8990
13.977080 0.9000 0.9020 0.9020 0.9040 0.9050
14.011000 0.9050 0.9070 0.9090 0.9090 0.9110
14.045080 0.9140 0.9160 0.9160 0.9160 0.9170
14.079000 0.9170 0.9190 0.9210 0.9210 0.9230
14.113080 0.9230 0.9260 0.9280 0.9280 0.9280
14.147000 0.9280 0.9280 0.9260 0.9280 0.9280
14.181080 0.9280 0.9280 0.9290 0.9330 0.9350
14.215000 0.9380 0.9380 0.9360 0.9360 0.9360
14.249080 0.9310 0.9290 0.9290 0.9360 0.9360
14.283000 0.9360 0.9330 0.9330 0.9330 0.9310
14.317080 0.9310 0.9310 0.9310 0.9310 0.9310
14.351000 0.9280 0.9280 0.9290 0.9290 0.9280
14.385080 0.9280 0.9280 0.9260 0.9260 0.9260
14.419000 0.9280 0.9280 0.9280 0.9280 0.9280
14.453080 0.9280 0.9260 0.9260 0.9240 0.9240
14.488000 0.9240 0.9230 0.9210 0.9190 0.9190
14.522080 0.9190 0.9190 0.9210 0.9210 0.9210
14.556000 0.9210 0.9210 0.9190 0.9170 0.9170
14.590080 0.9170 0.9160 0.9170 0.9170 0.9170
14.624000 0.9170 0.9170 0.9170 0.9170 0.9170
14.658080 0.9170 0.9170 0.9170 0.9170 0.9170
14.692000 0.9160 0.9140 0.9140 0.9140 0.9120
14.726080 0.9120 0.9110 0.9110 0.9090 0.9050
14.760000 0.9040 0.9040 0.9000 0.9000 0.9000
14.794080 0.9020 0.9020 0.9040 0.9040 0.9020
14.828000 0.8970 0.8970 0.8970 0.8970 0.8970
14.862080 0.8970 0.8990 0.8970 0.8970 0.8950
14.896000 0.8950 0.8920 0.8880 0.8870 0.8880
14.930080 0.8920 0.8920 0.8900 0.8880 0.8870
14.964000 0.8850 0.8830 0.8780 0.8730 0.8680
14.998080 0.8610 0.8560 0.8490 0.8420 0.8340
15.033000 0.8230 0.8130 0.8080 0.8030 0.7980
15.067080 0.7930 0.7890 0.7890 0.7940 0.8010
15.101000 0.8080 0.8150 0.8200 0.8250 0.8300
15.135080 0.8350 0.8410 0.8440 0.8470 0.8470
15.169000 0.8490 0.8520 0.8560 0.8560 0.8560
15.203080 0.8540 0.8510 0.8510 0.8510 0.8510
15.237000 0.8510 0.8490 0.8490 0.8460 0.8420
15.271080 0.8410 0.8390 0.8370 0.8350 0.8350
15.305000 0.8340 0.8320 0.8300 0.8290 0.8290
15.339080 0.8270 0.8270 0.8270 0.8250 0.8230
15.373000 0.8220 0.8200 0.8170 0.8130 0.8110
15.407080 0.8100 0.8080 0.8060 0.8060 0.8030
15.441000 0.8010 0.8010 0.8000 0.7980 0.7980
15.475080 0.7940 0.7930 0.7910 0.7890 0.7880
15.509000 0.7840 0.7820 0.7820 0.7820 0.7810
15.543080 0.7810 0.7770 0.7760 0.7720 0.7700
15.578000 0.7700 0.7700 0.7700 0.7700 0.7690
15.612080 0.7690 0.7670 0.7670 0.7650 0.7620
15.646000 0.7600 0.7580 0.7580 0.7580 0.7570
15.680080 0.7550 0.7520 0.7500 0.7470 0.7470
15.714000 0.7450 0.7410 0.7380 0.7360 0.7360
15.748080 0.7360 0.7360 0.7330 0.7310 0.7290
15.782000 0.7280 0.7260 0.7230 0.7190 0.7160
15.816080 0.7140 0.7120 0.7110 0.7090 0.7070
15.850000 0.7050 0.7040 0.7020 0.7000 0.7000
15.884080 0.7000 0.7000 0.6990 0.6990 0.6970
15.918000 0.6970 0.6970 0.6970 0.6940 0.6920
15.952080 0.6820 0.6730 0.6700 0.6680 0.6680
15.986000 0.6680
##END=
