##TITLE=SODIUM SELENITE
##JCAMP-DX=4.24
##DATA TYPE=INFRARED SPECTRUM
##CLASS=COBLENTZ
##ORIGIN=MELLON INSTITUTE
##OWNER=COBLENTZ SOCIETY
Collection (C) 2018 copyright by the U.S. Secretary of Commerce
on behalf of the United States of America. All rights reserved.
##DATE=Not specified, most likely prior to 1970
##MOLFORM=Na2 Se O3
##SOURCE REFERENCE=COBLENTZ NO. 480
##$NIST ID=B6000480
##$NIST SOURCE=COBLENTZ
##$NIST IMAGE=cob480
##SPECTROMETER/DATA SYSTEM=Not specified, most likely a prism, grating, or hybrid spectrometer.
##STATE=SOLID (NUJOL MULL)
##PATH LENGTH=
$$SPECTRAL CONTAMINATION DUE TO OIL AROUND 2900, 1450, 1380 CM^-^1
##SAMPLING PROCEDURE=TRANSMISSION
##RESOLUTION=4
##DATA PROCESSING=DIGITIZED BY NIST FROM HARD COPY
##XUNITS=MICROMETERS
##YUNITS=TRANSMITTANCE
##XFACTOR=1.000000
##YFACTOR=1
##DELTAX=000.006799
##FIRSTX=2.021
##LASTX=15.9716
##FIRSTY=0.768
##MAXX=15.9716
##MINX=2.021
##MAXY=0.965
##MINY=0.13
##NPOINTS=2053
##XYDATA=(X++(Y..Y))
2.021000 0.7680 0.7680 0.7680 0.7680 0.7690
2.055009 0.7690 0.7730 0.7730 0.7740 0.7760
2.089000 0.7780 0.7800 0.7810 0.7830 0.7830
2.123009 0.7850 0.7850 0.7860 0.7860 0.7860
2.157000 0.7880 0.7880 0.7900 0.7900 0.7920
2.191009 0.7950 0.7970 0.7980 0.7980 0.7980
2.225000 0.7980 0.7980 0.7980 0.7980 0.8000
2.259009 0.8000 0.8020 0.8020 0.8000 0.7980
2.293000 0.7980 0.7980 0.7980 0.8000 0.7980
2.327009 0.7980 0.8000 0.8020 0.8020 0.8040
2.361000 0.8040 0.8050 0.8070 0.8090 0.8120
2.395009 0.8120 0.8120 0.8120 0.8120 0.8140
2.429000 0.8160 0.8160 0.8160 0.8170 0.8190
2.463009 0.8210 0.8210 0.8230 0.8260 0.8260
2.497000 0.8280 0.8290 0.8290 0.8310 0.8330
2.531009 0.8330 0.8330 0.8330 0.8330 0.8330
2.565000 0.8330 0.8330 0.8330 0.8330 0.8330
2.599009 0.8330 0.8350 0.8350 0.8360 0.8410
2.633000 0.8450 0.8450 0.8450 0.8450 0.8430
2.667009 0.8430 0.8430 0.8430 0.8450 0.8450
2.701000 0.8470 0.8470 0.8470 0.8450 0.8450
2.735009 0.8450 0.8430 0.8410 0.8400 0.8380
2.769000 0.8360 0.8350 0.8350 0.8350 0.8350
2.803009 0.8290 0.8260 0.8240 0.8230 0.8230
2.837000 0.8210 0.8160 0.8140 0.8100 0.8070
2.871009 0.8050 0.8020 0.8020 0.8000 0.8000
2.905000 0.7980 0.7980 0.7970 0.7970 0.7930
2.939009 0.7930 0.7920 0.7900 0.7880 0.7880
2.973000 0.7880 0.7900 0.7900 0.7900 0.7880
3.007009 0.7880 0.7880 0.7880 0.7880 0.7880
3.041000 0.7880 0.7880 0.7900 0.7900 0.7900
3.075009 0.7900 0.7900 0.7900 0.7900 0.7900
3.109000 0.7900 0.7920 0.7920 0.7920 0.7920
3.143009 0.7930 0.7930 0.7950 0.7950 0.7970
3.177000 0.7970 0.7980 0.8000 0.7980 0.7980
3.211009 0.7980 0.8000 0.7980 0.7970 0.7970
3.245000 0.7970 0.7970 0.7970 0.7920 0.7830
3.279009 0.7810 0.7680 0.7590 0.7490 0.7260
3.313000 0.6970 0.6700 0.6370 0.5580 0.5010
3.347009 0.3960 0.3000 0.2370 0.2090 0.1990
3.381000 0.1870 0.1760 0.1660 0.1640 0.1660
3.415009 0.2190 0.2490 0.2760 0.3050 0.3810
3.449000 0.3810 0.3710 0.3570 0.3430 0.3400
3.483009 0.3410 0.3410 0.4870 0.6320 0.6900
3.517000 0.7590 0.7970 0.8230 0.8360 0.8530
3.551009 0.8590 0.8650 0.8720 0.8810 0.8860
3.585000 0.8900 0.8930 0.8950 0.8960 0.8960
3.619009 0.8980 0.8980 0.8980 0.8980 0.8980
3.653000 0.8980 0.9000 0.9000 0.9000 0.9020
3.687009 0.9020 0.9020 0.9030 0.9030 0.9050
3.721000 0.9050 0.9050 0.9070 0.9070 0.9070
3.755009 0.9070 0.9080 0.9080 0.9080 0.9080
3.789000 0.9100 0.9100 0.9100 0.9100 0.9100
3.823009 0.9120 0.9120 0.9120 0.9140 0.9140
3.857000 0.9150 0.9170 0.9190 0.9190 0.9190
3.891009 0.9190 0.9190 0.9200 0.9200 0.9200
3.925000 0.9220 0.9220 0.9240 0.9240 0.9240
3.959009 0.9240 0.9240 0.9240 0.9240 0.9260
3.993000 0.9260 0.9270 0.9270 0.9270 0.9270
4.027009 0.9270 0.9270 0.9270 0.9270 0.9270
4.061000 0.9270 0.9290 0.9290 0.9290 0.9290
4.095009 0.9290 0.9290 0.9290 0.9310 0.9310
4.129000 0.9310 0.9310 0.9310 0.9310 0.9310
4.163009 0.9310 0.9310 0.9310 0.9320 0.9320
4.197000 0.9310 0.9310 0.9290 0.9270 0.9270
4.231009 0.9260 0.9240 0.9220 0.9200 0.9190
4.265000 0.9170 0.9170 0.9150 0.9120 0.9120
4.299009 0.9100 0.9100 0.9100 0.9100 0.9080
4.333000 0.9070 0.9070 0.9070 0.9080 0.9100
4.367009 0.9100 0.9120 0.9140 0.9150 0.9190
4.400000 0.9200 0.9220 0.9220 0.9240 0.9240
4.434009 0.9240 0.9240 0.9240 0.9260 0.9260
4.468000 0.9260 0.9260 0.9260 0.9260 0.9290
4.502009 0.9290 0.9290 0.9270 0.9270 0.9270
4.536000 0.9270 0.9270 0.9270 0.9270 0.9290
4.570009 0.9290 0.9290 0.9290 0.9290 0.9310
4.604000 0.9290 0.9290 0.9270 0.9270 0.9270
4.638009 0.9270 0.9270 0.9270 0.9270 0.9290
4.672000 0.9290 0.9290 0.9290 0.9290 0.9290
4.706009 0.9290 0.9310 0.9310 0.9310 0.9320
4.740000 0.9320 0.9320 0.9320 0.9320 0.9320
4.774009 0.9320 0.9320 0.9320 0.9320 0.9340
4.808000 0.9320 0.9320 0.9320 0.9320 0.9320
4.842009 0.9320 0.9320 0.9320 0.9320 0.9320
4.876000 0.9340 0.9340 0.9340 0.9340 0.9320
4.910009 0.9340 0.9340 0.9320 0.9320 0.9320
4.944000 0.9320 0.9340 0.9340 0.9340 0.9340
4.978009 0.9340 0.9340 0.9360 0.9360 0.9360
5.012000 0.9360 0.9360 0.9360 0.9360 0.9360
5.046009 0.9360 0.9360 0.9380 0.9380 0.9380
5.080000 0.9380 0.9390 0.9390 0.9410 0.9410
5.114009 0.9430 0.9430 0.9430 0.9430 0.9430
5.148000 0.9430 0.9430 0.9450 0.9450 0.9450
5.182009 0.9450 0.9450 0.9450 0.9450 0.9460
5.216000 0.9460 0.9460 0.9460 0.9480 0.9480
5.250009 0.9480 0.9480 0.9480 0.9480 0.9480
5.284000 0.9480 0.9500 0.9500 0.9500 0.9500
5.318009 0.9500 0.9500 0.9500 0.9500 0.9500
5.352000 0.9500 0.9510 0.9500 0.9500 0.9510
5.386009 0.9510 0.9510 0.9510 0.9500 0.9500
5.420000 0.9510 0.9510 0.9500 0.9500 0.9500
5.454009 0.9510 0.9500 0.9500 0.9500 0.9500
5.488000 0.9500 0.9500 0.9500 0.9500 0.9500
5.522009 0.9500 0.9500 0.9500 0.9500 0.9500
5.556000 0.9500 0.9500 0.9500 0.9500 0.9500
5.590009 0.9500 0.9500 0.9500 0.9500 0.9500
5.624000 0.9500 0.9500 0.9510 0.9510 0.9510
5.658009 0.9510 0.9510 0.9510 0.9510 0.9500
5.692000 0.9500 0.9510 0.9510 0.9510 0.9510
5.726009 0.9510 0.9530 0.9530 0.9530 0.9510
5.760000 0.9510 0.9510 0.9500 0.9500 0.9500
5.794009 0.9510 0.9510 0.9510 0.9510 0.9530
5.828000 0.9550 0.9570 0.9550 0.9530 0.9530
5.862009 0.9530 0.9550 0.9550 0.9570 0.9570
5.896000 0.9550 0.9530 0.9530 0.9530 0.9530
5.930009 0.9530 0.9550 0.9550 0.9530 0.9530
5.964000 0.9530 0.9530 0.9530 0.9550 0.9550
5.998009 0.9550 0.9530 0.9530 0.9530 0.9530
6.032000 0.9550 0.9550 0.9550 0.9550 0.9530
6.066009 0.9510 0.9510 0.9510 0.9510 0.9510
6.100000 0.9510 0.9510 0.9510 0.9550 0.9550
6.134009 0.9550 0.9550 0.9550 0.9550 0.9550
6.168000 0.9550 0.9570 0.9580 0.9580 0.9600
6.202009 0.9620 0.9620 0.9620 0.9620 0.9620
6.236000 0.9620 0.9620 0.9630 0.9630 0.9630
6.270009 0.9630 0.9630 0.9620 0.9620 0.9620
6.304000 0.9620 0.9620 0.9620 0.9600 0.9570
6.338009 0.9530 0.9510 0.9500 0.9500 0.9500
6.372000 0.9500 0.9500 0.9500 0.9500 0.9460
6.406009 0.9430 0.9390 0.9390 0.9390 0.9380
6.440000 0.9360 0.9340 0.9340 0.9340 0.9340
6.474009 0.9320 0.9320 0.9310 0.9290 0.9270
6.508000 0.9270 0.9270 0.9270 0.9270 0.9260
6.542009 0.9240 0.9240 0.9220 0.9220 0.9200
6.576000 0.9200 0.9200 0.9190 0.9170 0.9170
6.610009 0.9150 0.9120 0.9080 0.9050 0.9050
6.644000 0.9030 0.9000 0.8930 0.8860 0.8780
6.678009 0.8740 0.8650 0.8530 0.8470 0.8310
6.712000 0.8170 0.8040 0.7850 0.7730 0.7610
6.746009 0.7540 0.7470 0.7420 0.7380 0.7300
6.780000 0.7230 0.6920 0.6590 0.6400 0.6060
6.814009 0.5960 0.5770 0.5600 0.5480 0.5420
6.848000 0.5340 0.5300 0.5290 0.5270 0.5250
6.882009 0.5240 0.5240 0.5240 0.5240 0.5270
6.916000 0.5320 0.5480 0.5630 0.5770 0.5870
6.950009 0.5970 0.5990 0.6130 0.6390 0.6440
6.984000 0.6640 0.6970 0.7090 0.7300 0.7380
7.018009 0.7430 0.7540 0.7560 0.7590 0.7620
7.052000 0.7760 0.7880 0.7930 0.8040 0.8160
7.086009 0.8210 0.8290 0.8330 0.8350 0.8410
7.120000 0.8450 0.8450 0.8470 0.8470 0.8470
7.154009 0.8480 0.8500 0.8500 0.8520 0.8520
7.188000 0.8520 0.8450 0.8360 0.8260 0.8170
7.222009 0.8100 0.8000 0.7930 0.7880 0.7850
7.256000 0.7860 0.7920 0.7980 0.8020 0.8120
7.290009 0.8190 0.8240 0.8290 0.8350 0.8410
7.324000 0.8450 0.8550 0.8670 0.8740 0.8780
7.358009 0.8830 0.8880 0.8910 0.8950 0.8980
7.392000 0.9020 0.9030 0.9030 0.9030 0.9080
7.426009 0.9080 0.9080 0.9100 0.9120 0.9120
7.460000 0.9140 0.9150 0.9190 0.9220 0.9260
7.494009 0.9310 0.9310 0.9320 0.9340 0.9360
7.528000 0.9360 0.9380 0.9390 0.9410 0.9410
7.562009 0.9410 0.9410 0.9410 0.9410 0.9410
7.596000 0.9430 0.9430 0.9430 0.9430 0.9430
7.630009 0.9450 0.9450 0.9450 0.9450 0.9450
7.664000 0.9450 0.9450 0.9450 0.9450 0.9450
7.698009 0.9460 0.9480 0.9500 0.9500 0.9500
7.732000 0.9510 0.9530 0.9530 0.9510 0.9510
7.766009 0.9530 0.9530 0.9530 0.9550 0.9550
7.800000 0.9550 0.9550 0.9550 0.9550 0.9550
7.834009 0.9550 0.9550 0.9550 0.9570 0.9580
7.868000 0.9580 0.9580 0.9580 0.9580 0.9600
7.902009 0.9600 0.9600 0.9600 0.9600 0.9600
7.936000 0.9600 0.9600 0.9600 0.9620 0.9620
7.970009 0.9620 0.9620 0.9620 0.9630 0.9630
8.004000 0.9630 0.9620 0.9620 0.9620 0.9620
8.038009 0.9620 0.9600 0.9600 0.9600 0.9620
8.072000 0.9620 0.9620 0.9620 0.9630 0.9630
8.106009 0.9630 0.9630 0.9630 0.9630 0.9630
8.140000 0.9650 0.9650 0.9630 0.9630 0.9630
8.174009 0.9630 0.9630 0.9630 0.9630 0.9630
8.208000 0.9630 0.9630 0.9630 0.9630 0.9630
8.242009 0.9630 0.9630 0.9650 0.9630 0.9630
8.276000 0.9630 0.9630 0.9630 0.9630 0.9630
8.310009 0.9630 0.9630 0.9630 0.9630 0.9650
8.344000 0.9630 0.9630 0.9630 0.9630 0.9630
8.378009 0.9620 0.9600 0.9570 0.9530 0.9480
8.412000 0.9480 0.9460 0.9450 0.9450 0.9430
8.446009 0.9430 0.9410 0.9380 0.9380 0.9360
8.480000 0.9340 0.9320 0.9310 0.9290 0.9270
8.514009 0.9260 0.9240 0.9220 0.9190 0.9170
8.548000 0.9170 0.9150 0.9140 0.9120 0.9120
8.582009 0.9120 0.9100 0.9080 0.9050 0.9050
8.616000 0.9030 0.9030 0.9020 0.9020 0.9020
8.650009 0.9020 0.9020 0.9020 0.9000 0.9000
8.684000 0.9020 0.9000 0.9000 0.9000 0.9000
8.718009 0.9000 0.9000 0.8980 0.8980 0.8960
8.752000 0.8960 0.8950 0.8950 0.8950 0.8950
8.786009 0.8950 0.8950 0.8930 0.8930 0.8910
8.820000 0.8910 0.8910 0.8900 0.8900 0.8880
8.854009 0.8880 0.8880 0.8880 0.8860 0.8860
8.888000 0.8860 0.8860 0.8860 0.8860 0.8860
8.922009 0.8860 0.8860 0.8860 0.8860 0.8860
8.956000 0.8860 0.8860 0.8860 0.8880 0.8880
8.990009 0.8880 0.8880 0.8880 0.8880 0.8880
9.023000 0.8880 0.8900 0.8900 0.8930 0.8950
9.057009 0.8960 0.8980 0.9000 0.9020 0.9020
9.091000 0.9020 0.9050 0.9050 0.9070 0.9070
9.125009 0.9100 0.9100 0.9100 0.9120 0.9120
9.159000 0.9120 0.9120 0.9120 0.9120 0.9120
9.193009 0.9140 0.9140 0.9140 0.9140 0.9140
9.227000 0.9140 0.9140 0.9150 0.9150 0.9150
9.261009 0.9150 0.9150 0.9150 0.9150 0.9150
9.295000 0.9150 0.9150 0.9170 0.9170 0.9170
9.329009 0.9190 0.9190 0.9190 0.9190 0.9190
9.363000 0.9190 0.9200 0.9200 0.9200 0.9220
9.397009 0.9220 0.9240 0.9240 0.9240 0.9260
9.431000 0.9260 0.9260 0.9270 0.9270 0.9270
9.465009 0.9270 0.9290 0.9290 0.9290 0.9290
9.499000 0.9290 0.9290 0.9290 0.9290 0.9290
9.533009 0.9290 0.9290 0.9290 0.9290 0.9290
9.567000 0.9290 0.9290 0.9290 0.9290 0.9310
9.601009 0.9310 0.9290 0.9290 0.9290 0.9290
9.635000 0.9290 0.9290 0.9290 0.9290 0.9310
9.669009 0.9310 0.9310 0.9310 0.9310 0.9310
9.703000 0.9310 0.9310 0.9310 0.9310 0.9310
9.737009 0.9310 0.9310 0.9310 0.9310 0.9310
9.771000 0.9310 0.9310 0.9310 0.9320 0.9320
9.805009 0.9290 0.9310 0.9310 0.9310 0.9310
9.839000 0.9320 0.9320 0.9320 0.9320 0.9320
9.873009 0.9320 0.9320 0.9320 0.9320 0.9320
9.907000 0.9310 0.9310 0.9290 0.9290 0.9290
9.941009 0.9270 0.9270 0.9270 0.9270 0.9270
9.975000 0.9270 0.9270 0.9260 0.9260 0.9270
10.009009 0.9270 0.9270 0.9290 0.9290 0.9310
10.043000 0.9310 0.9310 0.9310 0.9310 0.9310
10.077009 0.9310 0.9310 0.9320 0.9320 0.9310
10.111000 0.9290 0.9290 0.9310 0.9310 0.9290
10.145009 0.9290 0.9290 0.9270 0.9270 0.9270
10.179000 0.9270 0.9270 0.9290 0.9290 0.9290
10.213009 0.9290 0.9270 0.9270 0.9270 0.9270
10.247000 0.9270 0.9270 0.9270 0.9270 0.9270
10.281009 0.9290 0.9290 0.9290 0.9290 0.9290
10.315000 0.9290 0.9290 0.9290 0.9270 0.9270
10.349009 0.9270 0.9270 0.9260 0.9260 0.9260
10.383000 0.9270 0.9270 0.9270 0.9270 0.9270
10.417009 0.9270 0.9270 0.9270 0.9270 0.9270
10.451000 0.9270 0.9270 0.9270 0.9290 0.9290
10.485009 0.9290 0.9290 0.9290 0.9290 0.9290
10.519000 0.9290 0.9290 0.9310 0.9310 0.9310
10.553009 0.9310 0.9310 0.9310 0.9310 0.9310
10.587000 0.9320 0.9290 0.9290 0.9310 0.9310
10.621009 0.9310 0.9310 0.9310 0.9310 0.9310
10.655000 0.9310 0.9290 0.9290 0.9290 0.9310
10.689009 0.9310 0.9310 0.9290 0.9290 0.9290
10.723000 0.9290 0.9290 0.9270 0.9270 0.9270
10.757009 0.9270 0.9270 0.9290 0.9290 0.9290
10.791000 0.9290 0.9270 0.9270 0.9270 0.9270
10.825009 0.9270 0.9270 0.9270 0.9270 0.9270
10.859000 0.9290 0.9290 0.9290 0.9290 0.9310
10.893009 0.9310 0.9310 0.9310 0.9310 0.9310
10.927000 0.9320 0.9320 0.9320 0.9310 0.9310
10.961009 0.9290 0.9290 0.9290 0.9290 0.9310
10.995000 0.9290 0.9290 0.9290 0.9290 0.9290
11.029009 0.9290 0.9290 0.9290 0.9290 0.9290
11.063000 0.9290 0.9290 0.9270 0.9270 0.9270
11.097009 0.9270 0.9290 0.9290 0.9270 0.9270
11.131000 0.9270 0.9290 0.9290 0.9290 0.9290
11.165009 0.9290 0.9290 0.9290 0.9290 0.9310
11.199000 0.9290 0.9270 0.9270 0.9290 0.9290
11.233009 0.9270 0.9270 0.9290 0.9270 0.9270
11.267000 0.9270 0.9270 0.9260 0.9260 0.9270
11.301009 0.9270 0.9270 0.9270 0.9270 0.9290
11.335000 0.9270 0.9270 0.9270 0.9270 0.9260
11.369009 0.9260 0.9260 0.9260 0.9260 0.9260
11.403000 0.9260 0.9240 0.9240 0.9240 0.9240
11.437009 0.9240 0.9220 0.9200 0.9200 0.9200
11.471000 0.9190 0.9150 0.9150 0.9150 0.9140
11.505009 0.9140 0.9120 0.9120 0.9100 0.9050
11.539000 0.9050 0.9050 0.9030 0.9030 0.9030
11.573009 0.9030 0.9030 0.9030 0.9050 0.9050
11.607000 0.9030 0.9030 0.9030 0.9030 0.9030
11.641009 0.9030 0.9030 0.9030 0.9030 0.9030
11.675000 0.9030 0.9030 0.9020 0.9020 0.9020
11.709009 0.9020 0.9020 0.9030 0.9030 0.9030
11.743000 0.9030 0.9030 0.9030 0.9030 0.9030
11.777009 0.9030 0.9030 0.9030 0.9030 0.9030
11.811000 0.9030 0.9030 0.9030 0.9030 0.9030
11.845009 0.9030 0.9030 0.9030 0.9030 0.9030
11.879000 0.9030 0.9030 0.9030 0.9030 0.9030
11.913009 0.9030 0.9030 0.9030 0.9030 0.9030
11.947000 0.9020 0.9020 0.9030 0.9030 0.9030
11.981009 0.9030 0.9030 0.9030 0.9050 0.9030
12.015000 0.9030 0.9030 0.9030 0.9030 0.9030
12.049009 0.9030 0.9020 0.9020 0.9020 0.9000
12.083000 0.9000 0.8980 0.8980 0.8960 0.8960
12.117009 0.8950 0.8930 0.8910 0.8910 0.8900
12.151000 0.8900 0.8900 0.8880 0.8840 0.8840
12.185009 0.8830 0.8810 0.8780 0.8780 0.8740
12.219000 0.8720 0.8710 0.8710 0.8670 0.8640
12.253009 0.8620 0.8550 0.8530 0.8520 0.8500
12.287000 0.8430 0.8400 0.8330 0.8290 0.8260
12.321009 0.8190 0.8140 0.8040 0.8000 0.7900
12.355000 0.7830 0.7780 0.7730 0.7680 0.7640
12.389009 0.7520 0.7380 0.7300 0.7130 0.7070
12.423000 0.7020 0.6920 0.6800 0.6660 0.6520
12.457009 0.6400 0.6280 0.6130 0.6010 0.5850
12.491000 0.5680 0.5360 0.5240 0.5130 0.4980
12.525009 0.4870 0.4690 0.4530 0.4390 0.4190
12.559000 0.4000 0.3980 0.3760 0.3640 0.3570
12.593009 0.3410 0.3230 0.3120 0.3050 0.2980
12.627000 0.2900 0.2830 0.2780 0.2680 0.2570
12.661009 0.2470 0.2430 0.2330 0.2300 0.2250
12.695000 0.2230 0.2230 0.2210 0.2210 0.2190
12.729009 0.2190 0.2190 0.2190 0.2190 0.2190
12.763000 0.2210 0.2210 0.2230 0.2250 0.2310
12.797009 0.2370 0.2420 0.2560 0.2680 0.2800
12.831000 0.2830 0.2930 0.2980 0.3020 0.3120
12.865009 0.3170 0.3190 0.3210 0.3210 0.3230
12.899000 0.3240 0.3240 0.3240 0.3240 0.3240
12.933009 0.3240 0.3230 0.3210 0.3210 0.3190
12.967000 0.3160 0.3140 0.3100 0.3070 0.3000
13.001009 0.2970 0.2830 0.2810 0.2800 0.2730
13.035000 0.2690 0.2590 0.2520 0.2470 0.2400
13.069009 0.2350 0.2310 0.2280 0.2190 0.2140
13.103000 0.2090 0.2060 0.2040 0.2040 0.2020
13.137009 0.2010 0.2010 0.1990 0.1970 0.1950
13.171000 0.1940 0.1920 0.1900 0.1900 0.1890
13.205009 0.1850 0.1850 0.1830 0.1820 0.1800
13.239000 0.1800 0.1780 0.1760 0.1750 0.1710
13.273009 0.1700 0.1680 0.1660 0.1660 0.1630
13.307000 0.1610 0.1590 0.1580 0.1540 0.1540
13.341009 0.1540 0.1540 0.1540 0.1520 0.1520
13.375000 0.1510 0.1510 0.1470 0.1460 0.1440
13.409009 0.1440 0.1440 0.1420 0.1420 0.1420
13.443000 0.1420 0.1420 0.1420 0.1420 0.1400
13.477009 0.1400 0.1400 0.1390 0.1390 0.1390
13.511000 0.1370 0.1370 0.1350 0.1350 0.1350
13.545009 0.1350 0.1350 0.1350 0.1340 0.1340
13.578000 0.1340 0.1340 0.1320 0.1320 0.1320
13.612009 0.1300 0.1300 0.1300 0.1300 0.1300
13.646000 0.1300 0.1300 0.1300 0.1300 0.1300
13.680009 0.1300 0.1300 0.1300 0.1300 0.1300
13.714000 0.1300 0.1300 0.1300 0.1300 0.1300
13.748009 0.1300 0.1300 0.1300 0.1320 0.1320
13.782000 0.1300 0.1300 0.1320 0.1320 0.1340
13.816009 0.1340 0.1340 0.1350 0.1390 0.1400
13.850000 0.1420 0.1440 0.1510 0.1560 0.1630
13.884009 0.1700 0.1760 0.1890 0.2010 0.2010
13.918000 0.2090 0.2140 0.2190 0.2310 0.2400
13.952009 0.2500 0.2610 0.2640 0.2740 0.2760
13.986000 0.2920 0.3000 0.3190 0.3230 0.3280
14.020009 0.3350 0.3400 0.3410 0.3480 0.3600
14.054000 0.3670 0.3720 0.3830 0.3960 0.4000
14.088009 0.4050 0.4150 0.4240 0.4270 0.4320
14.122000 0.4380 0.4450 0.4580 0.4620 0.4690
14.156009 0.4720 0.4790 0.4840 0.4930 0.4980
14.190000 0.4980 0.5050 0.5100 0.5170 0.5220
14.224009 0.5240 0.5300 0.5320 0.5360 0.5410
14.258000 0.5420 0.5480 0.5510 0.5510 0.5540
14.292009 0.5600 0.5630 0.5670 0.5720 0.5730
14.326000 0.5770 0.5790 0.5800 0.5840 0.5870
14.360009 0.5890 0.5920 0.5960 0.5990 0.5990
14.394000 0.6010 0.6010 0.6030 0.6110 0.6110
14.428009 0.6130 0.6130 0.6160 0.6160 0.6180
14.462000 0.6200 0.6210 0.6250 0.6270 0.6280
14.496009 0.6280 0.6320 0.6320 0.6340 0.6340
14.530000 0.6350 0.6350 0.6370 0.6390 0.6400
14.564009 0.6400 0.6400 0.6420 0.6420 0.6440
14.598000 0.6440 0.6440 0.6440 0.6460 0.6470
14.632009 0.6490 0.6490 0.6510 0.6510 0.6520
14.666000 0.6520 0.6520 0.6540 0.6540 0.6540
14.700009 0.6540 0.6560 0.6560 0.6580 0.6560
14.734000 0.6580 0.6580 0.6590 0.6590 0.6590
14.768009 0.6610 0.6610 0.6610 0.6610 0.6630
14.802000 0.6640 0.6640 0.6630 0.6630 0.6630
14.836009 0.6630 0.6630 0.6640 0.6640 0.6640
14.870000 0.6640 0.6640 0.6660 0.6660 0.6660
14.904009 0.6660 0.6660 0.6660 0.6660 0.6660
14.938000 0.6680 0.6680 0.6680 0.6680 0.6680
14.972009 0.6680 0.6680 0.6680 0.6700 0.6700
15.006000 0.6680 0.6680 0.6680 0.6700 0.6700
15.040009 0.6680 0.6680 0.6680 0.6680 0.6680
15.074000 0.6680 0.6700 0.6700 0.6700 0.6700
15.108009 0.6700 0.6700 0.6700 0.6700 0.6680
15.142000 0.6680 0.6680 0.6680 0.6680 0.6680
15.176009 0.6700 0.6680 0.6680 0.6680 0.6680
15.210000 0.6680 0.6680 0.6680 0.6680 0.6680
15.244009 0.6680 0.6680 0.6680 0.6680 0.6680
15.278000 0.6680 0.6680 0.6680 0.6680 0.6680
15.312009 0.6680 0.6680 0.6680 0.6680 0.6680
15.346000 0.6680 0.6660 0.6660 0.6660 0.6660
15.380009 0.6660 0.6660 0.6660 0.6680 0.6660
15.414000 0.6660 0.6660 0.6680 0.6680 0.6680
15.448009 0.6680 0.6680 0.6680 0.6660 0.6660
15.482000 0.6660 0.6660 0.6680 0.6680 0.6660
15.516009 0.6660 0.6680 0.6680 0.6660 0.6660
15.550000 0.6660 0.6660 0.6640 0.6640 0.6640
15.584009 0.6660 0.6660 0.6640 0.6660 0.6640
15.618000 0.6640 0.6640 0.6640 0.6640 0.6640
15.652009 0.6640 0.6630 0.6610 0.6610 0.6610
15.686000 0.6610 0.6610 0.6610 0.6610 0.6610
15.720009 0.6610 0.6610 0.6610 0.6610 0.6610
15.754000 0.6590 0.6590 0.6590 0.6590 0.6590
15.788009 0.6590 0.6590 0.6590 0.6580 0.6580
15.822000 0.6580 0.6580 0.6560 0.6560 0.6560
15.856009 0.6540 0.6540 0.6540 0.6540 0.6540
15.890000 0.6540 0.6540 0.6540 0.6540 0.6540
15.924009 0.6540 0.6540 0.6540 0.6540 0.6540
15.958000 0.6540 0.6540 0.6540
##END=
