##TITLE=ERGONOVINE MALEATE
##JCAMP-DX=4.24
$$ By DXEDIT 1.05 (RS McDonald)
##DATA TYPE=INFRARED SPECTRUM
##CLASS=COBLENTZ III
##OWNER=COBLENTZ SOC.
Collection (C) 2018 copyright by the U.S. Secretary of Commerce
on behalf of the United States of America. All rights reserved.
##DATE=1961/06/30
##NAMES=ERGOTRATE MALEATE
##MOLFORM=C23 H27 N3 O6
##MP=167 C DECOMP.
##SOURCE REFERENCE=COBLENTZ NO. 05164
##$NIST ID=B6005164
##$NIST SOURCE=COBLENTZ
##$NIST IMAGE=cob5164
##SPECTROMETER/DATA SYSTEM=PERKIN-ELMER 21 (GRATING)
##INSTRUMENT PARAMETERS=FILTER AT ABOUT 10 MICRONS
##STATE=SOLID (1 mg / 200 mg KBr DISC)
##SAMPLING PROCEDURE=TRANSMISSION
##RESOLUTION=2
##DATA PROCESSING=DIGITIZED BY COBLENTZ SOCIETY (BATCH I) FROM HARD COPY
##XUNITS=1/CM
##YUNITS=TRANSMITTANCE
##XLABEL=Wavenumbers (cm-1)
##YLABEL=Transmittance
##XFACTOR=1
##YFACTOR=1
##DELTAX=1
##FIRSTX=4000
##LASTX=655
##FIRSTY=0.8702
##MAXX=4000
##MINX=655
##MAXY=0.8717
##MINY=0.1379
##NPOINTS=3346
##XYDATA=(X++(Y..Y))
4000.000000 0.8702 0.8702 0.8702 0.8702 0.8702
3995.000000 0.8702 0.8702 0.8703 0.8703 0.8703
3990.000000 0.8703 0.8703 0.8703 0.8702 0.8702
3985.000000 0.8702 0.8702 0.8702 0.8702 0.8702
3980.000000 0.8701 0.8701 0.8701 0.8701 0.8701
3975.000000 0.8701 0.8700 0.8700 0.8700 0.8699
3970.000000 0.8699 0.8699 0.8698 0.8698 0.8698
3965.000000 0.8698 0.8698 0.8698 0.8698 0.8697
3960.000000 0.8697 0.8697 0.8697 0.8697 0.8697
3955.000000 0.8696 0.8696 0.8696 0.8695 0.8695
3950.000000 0.8695 0.8694 0.8694 0.8694 0.8694
3945.000000 0.8694 0.8694 0.8693 0.8693 0.8693
3940.000000 0.8693 0.8693 0.8693 0.8692 0.8692
3935.000000 0.8692 0.8692 0.8691 0.8691 0.8691
3930.000000 0.8690 0.8690 0.8690 0.8690 0.8690
3925.000000 0.8690 0.8690 0.8690 0.8690 0.8690
3920.000000 0.8690 0.8690 0.8689 0.8689 0.8689
3915.000000 0.8689 0.8689 0.8689 0.8689 0.8689
3910.000000 0.8689 0.8689 0.8689 0.8689 0.8688
3905.000000 0.8688 0.8688 0.8688 0.8688 0.8688
3900.000000 0.8688 0.8688 0.8688 0.8688 0.8688
3895.000000 0.8688 0.8687 0.8687 0.8687 0.8687
3890.000000 0.8687 0.8687 0.8687 0.8687 0.8687
3885.000000 0.8687 0.8687 0.8687 0.8687 0.8686
3880.000000 0.8686 0.8686 0.8686 0.8686 0.8686
3875.000000 0.8686 0.8686 0.8686 0.8686 0.8686
3870.000000 0.8686 0.8685 0.8685 0.8685 0.8685
3865.000000 0.8685 0.8685 0.8685 0.8685 0.8685
3860.000000 0.8685 0.8685 0.8685 0.8685 0.8685
3855.000000 0.8685 0.8685 0.8685 0.8685 0.8685
3850.000000 0.8685 0.8685 0.8685 0.8685 0.8685
3845.000000 0.8685 0.8685 0.8685 0.8685 0.8685
3840.000000 0.8686 0.8686 0.8686 0.8686 0.8686
3835.000000 0.8686 0.8686 0.8686 0.8686 0.8686
3830.000000 0.8686 0.8686 0.8686 0.8686 0.8686
3825.000000 0.8686 0.8686 0.8686 0.8686 0.8686
3820.000000 0.8686 0.8686 0.8686 0.8686 0.8686
3815.000000 0.8686 0.8686 0.8686 0.8686 0.8686
3810.000000 0.8686 0.8686 0.8686 0.8686 0.8686
3805.000000 0.8686 0.8686 0.8686 0.8687 0.8687
3800.000000 0.8687 0.8688 0.8688 0.8688 0.8688
3795.000000 0.8688 0.8688 0.8689 0.8689 0.8689
3790.000000 0.8690 0.8690 0.8690 0.8691 0.8691
3785.000000 0.8692 0.8692 0.8692 0.8693 0.8693
3780.000000 0.8693 0.8693 0.8693 0.8693 0.8694
3775.000000 0.8694 0.8694 0.8695 0.8695 0.8695
3770.000000 0.8696 0.8696 0.8696 0.8697 0.8697
3765.000000 0.8698 0.8698 0.8698 0.8698 0.8698
3760.000000 0.8698 0.8699 0.8699 0.8699 0.8700
3755.000000 0.8700 0.8700 0.8701 0.8701 0.8701
3750.000000 0.8702 0.8702 0.8703 0.8703 0.8703
3745.000000 0.8703 0.8703 0.8703 0.8704 0.8704
3740.000000 0.8704 0.8705 0.8705 0.8705 0.8706
3735.000000 0.8706 0.8706 0.8706 0.8706 0.8707
3730.000000 0.8707 0.8707 0.8708 0.8708 0.8708
3725.000000 0.8709 0.8709 0.8709 0.8709 0.8709
3720.000000 0.8710 0.8710 0.8710 0.8711 0.8711
3715.000000 0.8711 0.8712 0.8712 0.8712 0.8712
3710.000000 0.8712 0.8713 0.8713 0.8713 0.8714
3705.000000 0.8714 0.8714 0.8715 0.8715 0.8715
3700.000000 0.8715 0.8715 0.8715 0.8715 0.8715
3695.000000 0.8715 0.8715 0.8715 0.8716 0.8716
3690.000000 0.8716 0.8716 0.8716 0.8716 0.8716
3685.000000 0.8716 0.8716 0.8716 0.8716 0.8717
3680.000000 0.8717 0.8717 0.8717 0.8717 0.8716
3675.000000 0.8716 0.8715 0.8715 0.8714 0.8713
3670.000000 0.8712 0.8710 0.8708 0.8707 0.8705
3665.000000 0.8703 0.8702 0.8700 0.8699 0.8698
3660.000000 0.8696 0.8695 0.8693 0.8692 0.8690
3655.000000 0.8689 0.8687 0.8685 0.8683 0.8682
3650.000000 0.8680 0.8678 0.8675 0.8675 0.8673
3645.000000 0.8671 0.8668 0.8665 0.8661 0.8658
3640.000000 0.8654 0.8650 0.8647 0.8643 0.8639
3635.000000 0.8635 0.8632 0.8627 0.8621 0.8617
3630.000000 0.8612 0.8607 0.8602 0.8597 0.8591
3625.000000 0.8585 0.8580 0.8574 0.8568 0.8563
3620.000000 0.8558 0.8552 0.8547 0.8541 0.8536
3615.000000 0.8530 0.8525 0.8518 0.8513 0.8506
3610.000000 0.8499 0.8492 0.8485 0.8477 0.8468
3605.000000 0.8458 0.8449 0.8440 0.8431 0.8421
3600.000000 0.8412 0.8402 0.8393 0.8383 0.8374
3595.000000 0.8364 0.8354 0.8345 0.8335 0.8321
3590.000000 0.8310 0.8297 0.8285 0.8271 0.8251
3585.000000 0.8228 0.8206 0.8183 0.8160 0.8133
3580.000000 0.8103 0.8071 0.8042 0.8011 0.7986
3575.000000 0.7961 0.7938 0.7915 0.7891 0.7867
3570.000000 0.7844 0.7819 0.7796 0.7771 0.7749
3565.000000 0.7725 0.7701 0.7676 0.7653 0.7628
3560.000000 0.7606 0.7582 0.7558 0.7534 0.7510
3555.000000 0.7486 0.7461 0.7438 0.7414 0.7390
3550.000000 0.7365 0.7342 0.7318 0.7294 0.7269
3545.000000 0.7246 0.7221 0.7198 0.7174 0.7150
3540.000000 0.7125 0.7101 0.7076 0.7053 0.7028
3535.000000 0.7005 0.6980 0.6956 0.6932 0.6908
3530.000000 0.6883 0.6858 0.6835 0.6811 0.6786
3525.000000 0.6761 0.6738 0.6712 0.6689 0.6664
3520.000000 0.6640 0.6615 0.6591 0.6567 0.6542
3515.000000 0.6518 0.6493 0.6468 0.6444 0.6419
3510.000000 0.6395 0.6371 0.6346 0.6321 0.6297
3505.000000 0.6272 0.6248 0.6223 0.6198 0.6174
3500.000000 0.6149 0.6124 0.6099 0.6075 0.6050
3495.000000 0.6025 0.6000 0.5976 0.5951 0.5926
3490.000000 0.5901 0.5876 0.5852 0.5827 0.5802
3485.000000 0.5777 0.5752 0.5727 0.5702 0.5677
3480.000000 0.5652 0.5627 0.5602 0.5577 0.5552
3475.000000 0.5527 0.5502 0.5477 0.5452 0.5427
3470.000000 0.5402 0.5377 0.5351 0.5326 0.5301
3465.000000 0.5276 0.5251 0.5225 0.5200 0.5175
3460.000000 0.5150 0.5124 0.5099 0.5074 0.5049
3455.000000 0.5023 0.4998 0.4973 0.4947 0.4922
3450.000000 0.4896 0.4871 0.4845 0.4820 0.4795
3445.000000 0.4769 0.4744 0.4718 0.4693 0.4667
3440.000000 0.4641 0.4616 0.4600 0.4587 0.4574
3435.000000 0.4560 0.4548 0.4536 0.4525 0.4512
3430.000000 0.4502 0.4488 0.4471 0.4453 0.4435
3425.000000 0.4418 0.4404 0.4392 0.4380 0.4369
3420.000000 0.4357 0.4347 0.4337 0.4327 0.4317
3415.000000 0.4306 0.4295 0.4284 0.4273 0.4262
3410.000000 0.4251 0.4238 0.4226 0.4214 0.4202
3405.000000 0.4189 0.4177 0.4165 0.4152 0.4140
3400.000000 0.4128 0.4115 0.4103 0.4091 0.4082
3395.000000 0.4075 0.4068 0.4062 0.4055 0.4048
3390.000000 0.4042 0.4036 0.4029 0.4023 0.4016
3385.000000 0.4009 0.4003 0.3997 0.3978 0.3958
3380.000000 0.3938 0.3918 0.3903 0.3893 0.3882
3375.000000 0.3872 0.3862 0.3850 0.3839 0.3827
3370.000000 0.3814 0.3806 0.3804 0.3802 0.3800
3365.000000 0.3799 0.3797 0.3795 0.3794 0.3792
3360.000000 0.3790 0.3788 0.3786 0.3784 0.3782
3355.000000 0.3780 0.3780 0.3778 0.3777 0.3776
3350.000000 0.3776 0.3775 0.3774 0.3774 0.3773
3345.000000 0.3772 0.3772 0.3771 0.3770 0.3770
3340.000000 0.3768 0.3768 0.3768 0.3766 0.3766
3335.000000 0.3766 0.3764 0.3764 0.3764 0.3762
3330.000000 0.3762 0.3762 0.3760 0.3759 0.3759
3325.000000 0.3759 0.3758 0.3758 0.3757 0.3756
3320.000000 0.3755 0.3755 0.3754 0.3753 0.3753
3315.000000 0.3752 0.3750 0.3750 0.3750 0.3749
3310.000000 0.3748 0.3747 0.3747 0.3746 0.3745
3305.000000 0.3744 0.3743 0.3742 0.3741 0.3740
3300.000000 0.3740 0.3739 0.3738 0.3737 0.3737
3295.000000 0.3736 0.3734 0.3734 0.3732 0.3730
3290.000000 0.3730 0.3729 0.3728 0.3727 0.3725
3285.000000 0.3724 0.3722 0.3720 0.3718 0.3716
3280.000000 0.3710 0.3706 0.3700 0.3696 0.3691
3275.000000 0.3686 0.3680 0.3675 0.3670 0.3662
3270.000000 0.3656 0.3649 0.3642 0.3640 0.3639
3265.000000 0.3637 0.3636 0.3634 0.3632 0.3632
3260.000000 0.3630 0.3629 0.3629 0.3628 0.3628
3255.000000 0.3628 0.3628 0.3628 0.3628 0.3628
3250.000000 0.3629 0.3629 0.3629 0.3629 0.3629
3245.000000 0.3629 0.3629 0.3629 0.3630 0.3630
3240.000000 0.3630 0.3630 0.3632 0.3636 0.3640
3235.000000 0.3644 0.3649 0.3659 0.3670 0.3680
3230.000000 0.3690 0.3744 0.3798 0.3853 0.3908
3225.000000 0.3938 0.3962 0.3984 0.4009 0.4032
3220.000000 0.4056 0.4079 0.4102 0.4125 0.4148
3215.000000 0.4172 0.4195 0.4218 0.4241 0.4265
3210.000000 0.4288 0.4310 0.4334 0.4358 0.4381
3205.000000 0.4404 0.4428 0.4451 0.4475 0.4498
3200.000000 0.4522 0.4545 0.4568 0.4592 0.4615
3195.000000 0.4639 0.4662 0.4686 0.4709 0.4733
3190.000000 0.4757 0.4780 0.4804 0.4827 0.4851
3185.000000 0.4875 0.4898 0.4922 0.4946 0.4969
3180.000000 0.4993 0.5017 0.5041 0.5064 0.5088
3175.000000 0.5112 0.5136 0.5160 0.5184 0.5207
3170.000000 0.5231 0.5255 0.5279 0.5303 0.5327
3165.000000 0.5351 0.5375 0.5399 0.5423 0.5447
3160.000000 0.5471 0.5495 0.5519 0.5543 0.5567
3155.000000 0.5591 0.5615 0.5639 0.5664 0.5688
3150.000000 0.5712 0.5736 0.5760 0.5785 0.5809
3145.000000 0.5833 0.5857 0.5882 0.5906 0.5930
3140.000000 0.5955 0.5979 0.6003 0.6028 0.6052
3135.000000 0.6077 0.6101 0.6125 0.6150 0.6174
3130.000000 0.6199 0.6223 0.6248 0.6272 0.6297
3125.000000 0.6322 0.6346 0.6371 0.6395 0.6418
3120.000000 0.6430 0.6441 0.6451 0.6461 0.6464
3115.000000 0.6465 0.6468 0.6471 0.6471 0.6474
3110.000000 0.6475 0.6475 0.6476 0.6478 0.6480
3105.000000 0.6480 0.6478 0.6478 0.6478 0.6475
3100.000000 0.6475 0.6472 0.6471 0.6464 0.6455
3095.000000 0.6447 0.6437 0.6415 0.6394 0.6372
3090.000000 0.6345 0.6302 0.6259 0.6216 0.6180
3085.000000 0.6155 0.6129 0.6104 0.6090 0.6083
3080.000000 0.6075 0.6068 0.6060 0.6053 0.6045
3075.000000 0.6037 0.6035 0.6032 0.6029 0.6027
3070.000000 0.6024 0.6022 0.6019 0.6016 0.6014
3065.000000 0.6012 0.6009 0.6008 0.6008 0.6007
3060.000000 0.6007 0.6006 0.6005 0.6005 0.6004
3055.000000 0.6004 0.6003 0.6003 0.6003 0.6003
3050.000000 0.6003 0.6003 0.6005 0.6007 0.6009
3045.000000 0.6012 0.6014 0.6017 0.6019 0.6023
3040.000000 0.6028 0.6034 0.6040 0.6049 0.6060
3035.000000 0.6072 0.6083 0.6096 0.6109 0.6122
3030.000000 0.6135 0.6149 0.6164 0.6178 0.6193
3025.000000 0.6207 0.6221 0.6235 0.6249 0.6262
3020.000000 0.6276 0.6289 0.6298 0.6308 0.6317
3015.000000 0.6327 0.6337 0.6347 0.6357 0.6367
3010.000000 0.6377 0.6387 0.6397 0.6406 0.6415
3005.000000 0.6425 0.6436 0.6446 0.6456 0.6465
3000.000000 0.6475 0.6486 0.6496 0.6505 0.6515
2995.000000 0.6524 0.6534 0.6541 0.6548 0.6555
2990.000000 0.6558 0.6560 0.6561 0.6561 0.6561
2985.000000 0.6562 0.6564 0.6564 0.6562 0.6562
2980.000000 0.6561 0.6558 0.6555 0.6551 0.6548
2975.000000 0.6544 0.6540 0.6536 0.6530 0.6522
2970.000000 0.6515 0.6508 0.6501 0.6494 0.6486
2965.000000 0.6478 0.6471 0.6464 0.6456 0.6448
2960.000000 0.6440 0.6432 0.6424 0.6417 0.6408
2955.000000 0.6401 0.6395 0.6388 0.6381 0.6374
2950.000000 0.6368 0.6360 0.6354 0.6345 0.6336
2945.000000 0.6328 0.6319 0.6310 0.6301 0.6291
2940.000000 0.6280 0.6268 0.6256 0.6243 0.6229
2935.000000 0.6215 0.6202 0.6187 0.6172 0.6158
2930.000000 0.6144 0.6130 0.6117 0.6105 0.6097
2925.000000 0.6088 0.6080 0.6076 0.6073 0.6070
2920.000000 0.6068 0.6066 0.6065 0.6062 0.6062
2915.000000 0.6060 0.6060 0.6060 0.6062 0.6062
2910.000000 0.6065 0.6068 0.6072 0.6075 0.6086
2905.000000 0.6097 0.6108 0.6121 0.6134 0.6147
2900.000000 0.6160 0.6174 0.6187 0.6201 0.6212
2895.000000 0.6225 0.6238 0.6247 0.6255 0.6262
2890.000000 0.6270 0.6277 0.6285 0.6292 0.6300
2885.000000 0.6307 0.6315 0.6322 0.6329 0.6337
2880.000000 0.6344 0.6351 0.6359 0.6367 0.6374
2875.000000 0.6382 0.6389 0.6398 0.6407 0.6415
2870.000000 0.6425 0.6434 0.6444 0.6453 0.6462
2865.000000 0.6472 0.6482 0.6493 0.6504 0.6514
2860.000000 0.6525 0.6536 0.6548 0.6560 0.6575
2855.000000 0.6593 0.6610 0.6632 0.6655 0.6678
2850.000000 0.6699 0.6718 0.6739 0.6753 0.6757
2845.000000 0.6761 0.6765 0.6768 0.6771 0.6774
2840.000000 0.6776 0.6780 0.6784 0.6786 0.6789
2835.000000 0.6792 0.6795 0.6799 0.6803 0.6808
2830.000000 0.6811 0.6815 0.6819 0.6822 0.6826
2825.000000 0.6831 0.6849 0.6868 0.6890 0.6912
2820.000000 0.6937 0.6961 0.6983 0.7004 0.7024
2815.000000 0.7040 0.7049 0.7058 0.7067 0.7075
2810.000000 0.7085 0.7093 0.7101 0.7111 0.7119
2805.000000 0.7128 0.7137 0.7146 0.7153 0.7160
2800.000000 0.7167 0.7172 0.7180 0.7187 0.7194
2795.000000 0.7201 0.7208 0.7215 0.7222 0.7230
2790.000000 0.7237 0.7243 0.7250 0.7257 0.7264
2785.000000 0.7269 0.7276 0.7284 0.7291 0.7299
2780.000000 0.7305 0.7311 0.7318 0.7321 0.7321
2775.000000 0.7324 0.7325 0.7328 0.7330 0.7332
2770.000000 0.7333 0.7335 0.7337 0.7339 0.7340
2765.000000 0.7341 0.7341 0.7341 0.7340 0.7339
2760.000000 0.7337 0.7336 0.7335 0.7333 0.7331
2755.000000 0.7325 0.7319 0.7315 0.7308 0.7301
2750.000000 0.7296 0.7290 0.7284 0.7278 0.7271
2745.000000 0.7265 0.7260 0.7254 0.7247 0.7241
2740.000000 0.7235 0.7228 0.7222 0.7217 0.7211
2735.000000 0.7205 0.7199 0.7192 0.7186 0.7180
2730.000000 0.7174 0.7168 0.7161 0.7156 0.7150
2725.000000 0.7143 0.7137 0.7131 0.7125 0.7118
2720.000000 0.7112 0.7108 0.7103 0.7098 0.7094
2715.000000 0.7090 0.7086 0.7082 0.7078 0.7075
2710.000000 0.7071 0.7067 0.7062 0.7058 0.7055
2705.000000 0.7051 0.7047 0.7044 0.7040 0.7035
2700.000000 0.7031 0.7028 0.7024 0.7019 0.7015
2695.000000 0.7011 0.7008 0.7005 0.7000 0.6996
2690.000000 0.6992 0.6989 0.6985 0.6980 0.6975
2685.000000 0.6971 0.6967 0.6961 0.6958 0.6953
2680.000000 0.6949 0.6944 0.6940 0.6935 0.6931
2675.000000 0.6925 0.6921 0.6917 0.6911 0.6907
2670.000000 0.6901 0.6896 0.6891 0.6886 0.6880
2665.000000 0.6875 0.6874 0.6872 0.6871 0.6868
2660.000000 0.6867 0.6865 0.6864 0.6862 0.6861
2655.000000 0.6858 0.6858 0.6856 0.6855 0.6853
2650.000000 0.6851 0.6850 0.6848 0.6847 0.6845
2645.000000 0.6844 0.6842 0.6840 0.6838 0.6837
2640.000000 0.6836 0.6834 0.6832 0.6830 0.6828
2635.000000 0.6826 0.6825 0.6824 0.6821 0.6821
2630.000000 0.6819 0.6819 0.6818 0.6818 0.6817
2625.000000 0.6817 0.6817 0.6815 0.6815 0.6815
2620.000000 0.6814 0.6814 0.6814 0.6812 0.6812
2615.000000 0.6812 0.6812 0.6812 0.6812 0.6812
2610.000000 0.6812 0.6814 0.6815 0.6815 0.6815
2605.000000 0.6815 0.6817 0.6817 0.6818 0.6818
2600.000000 0.6819 0.6819 0.6821 0.6821 0.6822
2595.000000 0.6822 0.6824 0.6825 0.6825 0.6826
2590.000000 0.6828 0.6828 0.6830 0.6832 0.6833
2585.000000 0.6834 0.6835 0.6836 0.6837 0.6838
2580.000000 0.6838 0.6840 0.6841 0.6842 0.6844
2575.000000 0.6846 0.6848 0.6849 0.6851 0.6851
2570.000000 0.6854 0.6855 0.6857 0.6858 0.6860
2565.000000 0.6861 0.6862 0.6865 0.6867 0.6868
2560.000000 0.6868 0.6868 0.6867 0.6867 0.6865
2555.000000 0.6865 0.6865 0.6865 0.6865 0.6864
2550.000000 0.6864 0.6862 0.6861 0.6858 0.6855
2545.000000 0.6851 0.6848 0.6845 0.6842 0.6839
2540.000000 0.6835 0.6832 0.6828 0.6825 0.6822
2535.000000 0.6819 0.6817 0.6815 0.6811 0.6808
2530.000000 0.6807 0.6804 0.6801 0.6798 0.6796
2525.000000 0.6793 0.6793 0.6793 0.6792 0.6794
2520.000000 0.6795 0.6796 0.6797 0.6798 0.6799
2515.000000 0.6801 0.6801 0.6803 0.6804 0.6805
2510.000000 0.6807 0.6807 0.6808 0.6808 0.6810
2505.000000 0.6811 0.6815 0.6818 0.6822 0.6830
2500.000000 0.6837 0.6843 0.6850 0.6857 0.6862
2495.000000 0.6869 0.6875 0.6883 0.6890 0.6897
2490.000000 0.6904 0.6911 0.6917 0.6924 0.6931
2485.000000 0.6937 0.6944 0.6950 0.6957 0.6964
2480.000000 0.6971 0.6976 0.6984 0.6990 0.6997
2475.000000 0.7003 0.7010 0.7017 0.7024 0.7030
2470.000000 0.7037 0.7043 0.7050 0.7057 0.7064
2465.000000 0.7071 0.7076 0.7084 0.7090 0.7097
2460.000000 0.7103 0.7108 0.7112 0.7118 0.7121
2455.000000 0.7125 0.7131 0.7135 0.7139 0.7143
2450.000000 0.7148 0.7153 0.7157 0.7161 0.7165
2445.000000 0.7169 0.7175 0.7178 0.7183 0.7187
2440.000000 0.7192 0.7197 0.7201 0.7206 0.7210
2435.000000 0.7214 0.7218 0.7222 0.7226 0.7230
2430.000000 0.7233 0.7236 0.7239 0.7242 0.7245
2425.000000 0.7248 0.7251 0.7254 0.7257 0.7260
2420.000000 0.7262 0.7265 0.7267 0.7268 0.7268
2415.000000 0.7268 0.7268 0.7269 0.7269 0.7271
2410.000000 0.7271 0.7271 0.7272 0.7272 0.7274
2405.000000 0.7274 0.7274 0.7275 0.7275 0.7275
2400.000000 0.7276 0.7278 0.7278 0.7278 0.7280
2395.000000 0.7281 0.7283 0.7285 0.7287 0.7289
2390.000000 0.7291 0.7293 0.7295 0.7297 0.7299
2385.000000 0.7301 0.7304 0.7306 0.7308 0.7310
2380.000000 0.7312 0.7315 0.7318 0.7321 0.7324
2375.000000 0.7326 0.7330 0.7333 0.7336 0.7339
2370.000000 0.7342 0.7345 0.7348 0.7351 0.7354
2365.000000 0.7357 0.7360 0.7362 0.7365 0.7369
2360.000000 0.7371 0.7375 0.7378 0.7381 0.7384
2355.000000 0.7387 0.7391 0.7394 0.7397 0.7400
2350.000000 0.7403 0.7406 0.7410 0.7412 0.7415
2345.000000 0.7418 0.7421 0.7424 0.7425 0.7428
2340.000000 0.7431 0.7434 0.7436 0.7439 0.7442
2335.000000 0.7444 0.7446 0.7449 0.7451 0.7454
2330.000000 0.7456 0.7458 0.7461 0.7464 0.7465
2325.000000 0.7468 0.7471 0.7474 0.7475 0.7478
2320.000000 0.7481 0.7484 0.7486 0.7488 0.7491
2315.000000 0.7494 0.7496 0.7499 0.7501 0.7504
2310.000000 0.7507 0.7510 0.7512 0.7515 0.7518
2305.000000 0.7521 0.7524 0.7526 0.7530 0.7532
2300.000000 0.7535 0.7538 0.7541 0.7544 0.7547
2295.000000 0.7549 0.7551 0.7555 0.7558 0.7561
2290.000000 0.7564 0.7567 0.7568 0.7571 0.7575
2285.000000 0.7578 0.7582 0.7585 0.7588 0.7591
2280.000000 0.7593 0.7596 0.7599 0.7601 0.7605
2275.000000 0.7608 0.7610 0.7612 0.7615 0.7618
2270.000000 0.7619 0.7621 0.7624 0.7625 0.7628
2265.000000 0.7631 0.7633 0.7635 0.7638 0.7640
2260.000000 0.7642 0.7645 0.7647 0.7649 0.7651
2255.000000 0.7654 0.7656 0.7658 0.7661 0.7662
2250.000000 0.7665 0.7668 0.7669 0.7671 0.7675
2245.000000 0.7676 0.7678 0.7681 0.7684 0.7686
2240.000000 0.7688 0.7690 0.7693 0.7695 0.7698
2235.000000 0.7699 0.7701 0.7701 0.7704 0.7705
2230.000000 0.7706 0.7707 0.7708 0.7710 0.7711
2225.000000 0.7712 0.7714 0.7715 0.7717 0.7718
2220.000000 0.7719 0.7721 0.7721 0.7722 0.7725
2215.000000 0.7725 0.7726 0.7728 0.7730 0.7732
2210.000000 0.7733 0.7733 0.7733 0.7733 0.7733
2205.000000 0.7733 0.7733 0.7733 0.7733 0.7733
2200.000000 0.7733 0.7733 0.7733 0.7733 0.7733
2195.000000 0.7733 0.7733 0.7733 0.7733 0.7734
2190.000000 0.7734 0.7734 0.7734 0.7734 0.7734
2185.000000 0.7735 0.7737 0.7739 0.7741 0.7743
2180.000000 0.7745 0.7746 0.7748 0.7750 0.7751
2175.000000 0.7754 0.7755 0.7757 0.7758 0.7760
2170.000000 0.7761 0.7762 0.7765 0.7767 0.7768
2165.000000 0.7769 0.7771 0.7772 0.7775 0.7775
2160.000000 0.7778 0.7778 0.7781 0.7783 0.7784
2155.000000 0.7785 0.7786 0.7788 0.7790 0.7791
2150.000000 0.7793 0.7794 0.7794 0.7795 0.7796
2145.000000 0.7797 0.7798 0.7799 0.7800 0.7800
2140.000000 0.7801 0.7801 0.7803 0.7803 0.7804
2135.000000 0.7804 0.7806 0.7807 0.7807 0.7808
2130.000000 0.7808 0.7810 0.7810 0.7811 0.7811
2125.000000 0.7812 0.7814 0.7814 0.7815 0.7815
2120.000000 0.7817 0.7817 0.7818 0.7818 0.7819
2115.000000 0.7821 0.7821 0.7822 0.7822 0.7824
2110.000000 0.7824 0.7825 0.7825 0.7826 0.7828
2105.000000 0.7828 0.7828 0.7828 0.7830 0.7830
2100.000000 0.7831 0.7833 0.7833 0.7834 0.7834
2095.000000 0.7835 0.7835 0.7836 0.7837 0.7838
2090.000000 0.7839 0.7839 0.7840 0.7840 0.7841
2085.000000 0.7842 0.7842 0.7843 0.7843 0.7844
2080.000000 0.7845 0.7846 0.7847 0.7847 0.7848
2075.000000 0.7848 0.7849 0.7849 0.7847 0.7846
2070.000000 0.7846 0.7845 0.7845 0.7844 0.7843
2065.000000 0.7843 0.7842 0.7841 0.7840 0.7839
2060.000000 0.7839 0.7838 0.7838 0.7837 0.7837
2055.000000 0.7835 0.7834 0.7834 0.7833 0.7833
2050.000000 0.7833 0.7834 0.7835 0.7836 0.7837
2045.000000 0.7839 0.7841 0.7842 0.7843 0.7844
2040.000000 0.7846 0.7848 0.7849 0.7850 0.7851
2035.000000 0.7854 0.7855 0.7856 0.7857 0.7858
2030.000000 0.7861 0.7861 0.7864 0.7865 0.7865
2025.000000 0.7868 0.7868 0.7871 0.7871 0.7874
2020.000000 0.7874 0.7875 0.7875 0.7876 0.7878
2015.000000 0.7880 0.7881 0.7881 0.7883 0.7884
2010.000000 0.7885 0.7886 0.7888 0.7889 0.7890
2005.000000 0.7890 0.7892 0.7893 0.7894 0.7895
2000.000000 0.7897 0.7898 0.7899 0.7899 0.7900
1995.000000 0.7900 0.7900 0.7899 0.7899 0.7899
1990.000000 0.7899 0.7899 0.7898 0.7898 0.7898
1985.000000 0.7897 0.7897 0.7897 0.7897 0.7897
1980.000000 0.7896 0.7896 0.7896 0.7895 0.7895
1975.000000 0.7895 0.7894 0.7894 0.7894 0.7894
1970.000000 0.7894 0.7894 0.7894 0.7894 0.7894
1965.000000 0.7894 0.7894 0.7894 0.7894 0.7894
1960.000000 0.7894 0.7894 0.7894 0.7894 0.7894
1955.000000 0.7894 0.7894 0.7894 0.7894 0.7894
1950.000000 0.7894 0.7894 0.7894 0.7894 0.7894
1945.000000 0.7893 0.7892 0.7892 0.7891 0.7891
1940.000000 0.7890 0.7889 0.7889 0.7888 0.7887
1935.000000 0.7887 0.7886 0.7886 0.7886 0.7885
1930.000000 0.7885 0.7886 0.7886 0.7887 0.7888
1925.000000 0.7889 0.7890 0.7891 0.7891 0.7892
1920.000000 0.7893 0.7893 0.7894 0.7896 0.7896
1915.000000 0.7898 0.7901 0.7904 0.7907 0.7908
1910.000000 0.7911 0.7915 0.7918 0.7919 0.7922
1905.000000 0.7925 0.7928 0.7931 0.7934 0.7937
1900.000000 0.7940 0.7942 0.7944 0.7944 0.7944
1895.000000 0.7944 0.7944 0.7944 0.7944 0.7944
1890.000000 0.7944 0.7944 0.7945 0.7945 0.7945
1885.000000 0.7946 0.7946 0.7946 0.7947 0.7947
1880.000000 0.7947 0.7948 0.7949 0.7949 0.7951
1875.000000 0.7951 0.7954 0.7955 0.7956 0.7958
1870.000000 0.7958 0.7961 0.7961 0.7962 0.7964
1865.000000 0.7965 0.7967 0.7968 0.7969 0.7969
1860.000000 0.7968 0.7968 0.7968 0.7968 0.7968
1855.000000 0.7967 0.7965 0.7965 0.7965 0.7964
1850.000000 0.7962 0.7961 0.7961 0.7960 0.7957
1845.000000 0.7953 0.7950 0.7947 0.7943 0.7940
1840.000000 0.7939 0.7938 0.7937 0.7936 0.7935
1835.000000 0.7935 0.7937 0.7938 0.7940 0.7941
1830.000000 0.7943 0.7944 0.7946 0.7947 0.7949
1825.000000 0.7950 0.7951 0.7953 0.7955 0.7957
1820.000000 0.7958 0.7961 0.7965 0.7967 0.7968
1815.000000 0.7971 0.7974 0.7976 0.7980 0.7982
1810.000000 0.7984 0.7987 0.7990 0.7992 0.7993
1805.000000 0.7994 0.7995 0.7996 0.7997 0.7998
1800.000000 0.7999 0.8000 0.8001 0.8003 0.8003
1795.000000 0.8004 0.8006 0.8007 0.8008 0.8008
1790.000000 0.8008 0.8008 0.8010 0.8010 0.8011
1785.000000 0.8011 0.8011 0.8012 0.8012 0.8012
1780.000000 0.8014 0.8015 0.8015 0.8015 0.8015
1775.000000 0.8015 0.8017 0.8018 0.8018 0.8018
1770.000000 0.8018 0.8018 0.8019 0.8019 0.8018
1765.000000 0.8015 0.8014 0.8011 0.8026 0.8008
1760.000000 0.8005 0.8000 0.7993 0.7986 0.7978
1755.000000 0.7971 0.7965 0.7958 0.7951 0.7945
1750.000000 0.7938 0.7931 0.7921 0.7910 0.7899
1745.000000 0.7887 0.7874 0.7861 0.7851 0.7838
1740.000000 0.7825 0.7810 0.7791 0.7768 0.7747
1735.000000 0.7725 0.7703 0.7681 0.7658 0.7635
1730.000000 0.7606 0.7576 0.7549 0.7519 0.7491
1725.000000 0.7461 0.7431 0.7399 0.7367 0.7335
1720.000000 0.7301 0.7260 0.7207 0.7153 0.7099
1715.000000 0.7046 0.6992 0.6937 0.6880 0.6819
1710.000000 0.6761 0.6701 0.6642 0.6580 0.6511
1705.000000 0.6441 0.6370 0.6301 0.6237 0.6173
1700.000000 0.6109 0.6047 0.5989 0.5936 0.5883
1695.000000 0.5831 0.5778 0.5725 0.5671 0.5562
1690.000000 0.5390 0.5233 0.5157 0.5086 0.5016
1685.000000 0.4944 0.4880 0.4822 0.4766 0.4710
1680.000000 0.4653 0.4583 0.4467 0.4358 0.4250
1675.000000 0.4143 0.4036 0.3928 0.3820 0.3712
1670.000000 0.3604 0.3496 0.3384 0.3268 0.3151
1665.000000 0.3034 0.2915 0.2794 0.2683 0.2598
1660.000000 0.2548 0.2488 0.2452 0.2416 0.2380
1655.000000 0.2344 0.2285 0.2171 0.2061 0.2050
1650.000000 0.2040 0.2039 0.2036 0.2034 0.2043
1645.000000 0.2066 0.2093 0.2143 0.2221 0.2435
1640.000000 0.2670 0.2750 0.2817 0.2870 0.2921
1635.000000 0.2979 0.3001 0.3021 0.3037 0.3048
1630.000000 0.3071 0.3063 0.3068 0.3072 0.3056
1625.000000 0.3023 0.2988 0.2955 0.2927 0.2901
1620.000000 0.2874 0.2843 0.2809 0.2781 0.2768
1615.000000 0.2757 0.2732 0.2751 0.2769 0.2801
1610.000000 0.2841 0.2874 0.2896 0.2912 0.2918
1605.000000 0.2918 0.2918 0.2905 0.2880 0.2834
1600.000000 0.2775 0.2703 0.2624 0.2543 0.2462
1595.000000 0.2381 0.2300 0.2218 0.2137 0.2056
1590.000000 0.1974 0.1893 0.1811 0.1729 0.1649
1585.000000 0.1577 0.1515 0.1468 0.1439 0.1420
1580.000000 0.1404 0.1396 0.1379 0.1385 0.1384
1575.000000 0.1384 0.1387 0.1399 0.1418 0.1438
1570.000000 0.1459 0.1488 0.1542 0.1640 0.1740
1565.000000 0.1785 0.1832 0.1879 0.1923 0.1963
1560.000000 0.2002 0.2043 0.2083 0.2122 0.2161
1555.000000 0.2200 0.2238 0.2275 0.2301 0.2326
1550.000000 0.2351 0.2376 0.2401 0.2423 0.2443
1545.000000 0.2463 0.2483 0.2502 0.2522 0.2540
1540.000000 0.2552 0.2560 0.2568 0.2576 0.2583
1535.000000 0.2588 0.2592 0.2597 0.2602 0.2606
1530.000000 0.2611 0.2616 0.2620 0.2624 0.2629
1525.000000 0.2633 0.2637 0.2639 0.2624 0.2624
1520.000000 0.2624 0.2618 0.2611 0.2605 0.2597
1515.000000 0.2585 0.2574 0.2563 0.2552 0.2540
1510.000000 0.2529 0.2518 0.2503 0.2488 0.2471
1505.000000 0.2456 0.2439 0.2423 0.2409 0.2396
1500.000000 0.2383 0.2368 0.2355 0.2341 0.2328
1495.000000 0.2315 0.2302 0.2289 0.2275 0.2262
1490.000000 0.2242 0.2221 0.2200 0.2180 0.2163
1485.000000 0.2147 0.2131 0.2119 0.2111 0.2103
1480.000000 0.2095 0.2088 0.2082 0.2032 0.2088
1475.000000 0.2105 0.2121 0.2138 0.2160 0.2183
1470.000000 0.2205 0.2226 0.2245 0.2266 0.2283
1465.000000 0.2299 0.2316 0.2316 0.2317 0.2337
1460.000000 0.2322 0.2298 0.2268 0.2237 0.2206
1455.000000 0.2175 0.2144 0.2113 0.2082 0.2035
1450.000000 0.2034 0.2042 0.2061 0.2132 0.2274
1445.000000 0.2427 0.2581 0.2734 0.2889 0.3044
1440.000000 0.3210 0.3422 0.3623 0.3777 0.3900
1435.000000 0.4000 0.4103 0.4214 0.4303 0.4378
1430.000000 0.4417 0.4448 0.4465 0.4475 0.4484
1425.000000 0.4489 0.4489 0.4488 0.4487 0.4480
1420.000000 0.4472 0.4465 0.4474 0.4527 0.4607
1415.000000 0.4689 0.4771 0.4843 0.4893 0.4924
1410.000000 0.4953 0.4977 0.4988 0.4983 0.4983
1405.000000 0.4983 0.4979 0.4969 0.4951 0.4920
1400.000000 0.4867 0.4788 0.4650 0.4512 0.4375
1395.000000 0.4236 0.4097 0.3958 0.3818 0.3680
1390.000000 0.3541 0.3400 0.3260 0.2973 0.2991
1385.000000 0.2960 0.2954 0.2962 0.2973 0.2998
1380.000000 0.3037 0.3078 0.3121 0.3170 0.3196
1375.000000 0.3202 0.3206 0.3216 0.3230 0.3264
1370.000000 0.3288 0.3305 0.3312 0.3322 0.3323
1365.000000 0.3324 0.3312 0.3297 0.3268 0.3212
1360.000000 0.3142 0.3071 0.3000 0.2930 0.2859
1355.000000 0.2789 0.2718 0.2647 0.2578 0.2524
1350.000000 0.2545 0.2547 0.2585 0.2693 0.2857
1345.000000 0.2974 0.3112 0.3250 0.3391 0.3530
1340.000000 0.3671 0.3823 0.4160 0.4367 0.4530
1335.000000 0.4625 0.4697 0.4768 0.4845 0.4910
1330.000000 0.4947 0.4983 0.5020 0.5062 0.5159
1325.000000 0.5337 0.5428 0.5512 0.5604 0.5714
1320.000000 0.5827 0.5941 0.6028 0.6117 0.6212
1315.000000 0.6255 0.6271 0.6300 0.6280 0.6279
1310.000000 0.6250 0.6208 0.6154 0.6092 0.6029
1305.000000 0.5955 0.5867 0.5669 0.5707 0.5694
1300.000000 0.5695 0.5700 0.5723 0.5762 0.5800
1295.000000 0.5833 0.5866 0.5900 0.5926 0.5944
1290.000000 0.5954 0.5947 0.5938 0.5927 0.5915
1285.000000 0.5904 0.5897 0.5893 0.5901 0.5926
1280.000000 0.5971 0.6019 0.6068 0.6121 0.6178
1275.000000 0.6234 0.6282 0.6329 0.6375 0.6411
1270.000000 0.6447 0.6475 0.6494 0.6539 0.6511
1265.000000 0.6514 0.6514 0.6514 0.6511 0.6508
1260.000000 0.6506 0.6501 0.6496 0.6490 0.6485
1255.000000 0.6476 0.6469 0.6461 0.6443 0.6421
1250.000000 0.6383 0.6342 0.6302 0.6247 0.6183
1245.000000 0.6120 0.6062 0.6008 0.5954 0.5899
1240.000000 0.5845 0.5797 0.5760 0.5725 0.5725
1235.000000 0.5725 0.5739 0.5747 0.5741 0.5734
1230.000000 0.5727 0.5721 0.5712 0.5703 0.5692
1225.000000 0.5682 0.5671 0.5660 0.5649 0.5638
1220.000000 0.5627 0.5612 0.5598 0.5583 0.5568
1215.000000 0.5554 0.5539 0.5519 0.5496 0.5473
1210.000000 0.5450 0.5421 0.5392 0.5362 0.5334
1205.000000 0.5296 0.5246 0.5192 0.5138 0.5081
1200.000000 0.5023 0.4953 0.4884 0.4836 0.4788
1195.000000 0.4752 0.4722 0.4699 0.4680 0.4671
1190.000000 0.4668 0.4678 0.4695 0.4767 0.4835
1185.000000 0.4898 0.4969 0.5051 0.5175 0.5241
1180.000000 0.5253 0.5262 0.5291 0.5360 0.5437
1175.000000 0.5502 0.5530 0.5568 0.5554 0.5550
1170.000000 0.5543 0.5533 0.5504 0.5468 0.5433
1165.000000 0.5398 0.5365 0.5337 0.5312 0.5303
1160.000000 0.5296 0.5288 0.5287 0.5295 0.5304
1155.000000 0.5316 0.5328 0.5339 0.5346 0.5355
1150.000000 0.5360 0.5360 0.5339 0.5310 0.5286
1145.000000 0.5268 0.5266 0.5275 0.5284 0.5294
1140.000000 0.5304 0.5315 0.5325 0.5334 0.5341
1135.000000 0.5348 0.5356 0.5360 0.5360 0.5360
1130.000000 0.5350 0.5336 0.5317 0.5288 0.5260
1125.000000 0.5214 0.5156 0.5078 0.5010 0.4942
1120.000000 0.4874 0.4805 0.4736 0.4677 0.4655
1115.000000 0.4632 0.4612 0.4593 0.4560 0.4465
1110.000000 0.4397 0.4337 0.4319 0.4305 0.4303
1105.000000 0.4303 0.4302 0.4299 0.4289 0.4276
1100.000000 0.4203 0.4089 0.3977 0.3927 0.3889
1095.000000 0.3870 0.3875 0.3880 0.3887 0.3896
1090.000000 0.3909 0.3923 0.3936 0.3949 0.3962
1085.000000 0.3976 0.3990 0.4004 0.4016 0.4030
1080.000000 0.4042 0.4052 0.4050 0.4050 0.4039
1075.000000 0.4009 0.3979 0.3947 0.3912 0.3880
1070.000000 0.3873 0.3868 0.3866 0.3864 0.3839
1065.000000 0.3862 0.3853 0.3845 0.3829 0.3805
1060.000000 0.3768 0.3730 0.3642 0.3532 0.3425
1055.000000 0.3314 0.3195 0.3230 0.3232 0.3256
1050.000000 0.3286 0.3338 0.3400 0.3466 0.3550
1045.000000 0.3638 0.3709 0.3775 0.3826 0.3862
1040.000000 0.3868 0.3843 0.3823 0.3823 0.3836
1035.000000 0.3862 0.3893 0.3939 0.3986 0.4045
1030.000000 0.4114 0.4138 0.4175 0.4151 0.4141
1025.000000 0.4108 0.4072 0.4034 0.3987 0.3950
1020.000000 0.3922 0.3900 0.3887 0.3880 0.3902
1015.000000 0.3932 0.4018 0.4105 0.4194 0.4283
1010.000000 0.4373 0.4462 0.4552 0.4667 0.4644
1005.000000 0.4653 0.4648 0.4631 0.4614 0.4589
1000.000000 0.4493 0.4371 0.4406 0.4438 0.4587
995.000000 0.4652 0.4721 0.4798 0.4877 0.4987
990.000000 0.5096 0.5165 0.5216 0.5260 0.5293
985.000000 0.5320 0.5325 0.5302 0.5230 0.5073
980.000000 0.4915 0.4827 0.4792 0.4793 0.4804
975.000000 0.4939 0.5060 0.5149 0.5226 0.5309
970.000000 0.5381 0.5454 0.5527 0.5599 0.5672
965.000000 0.5746 0.5819 0.5892 0.5966 0.6039
960.000000 0.6112 0.6153 0.6187 0.6224 0.6275
955.000000 0.6325 0.6349 0.6371 0.6461 0.6553
950.000000 0.6597 0.6599 0.6606 0.6615 0.6633
945.000000 0.6675 0.6717 0.6760 0.6797 0.6828
940.000000 0.6860 0.6878 0.6886 0.6905 0.6908
935.000000 0.6899 0.6888 0.6862 0.6828 0.6785
930.000000 0.6738 0.6701 0.6665 0.6665 0.6665
925.000000 0.6696 0.6733 0.6772 0.6812 0.6853
920.000000 0.6882 0.6908 0.6934 0.6956 0.6975
915.000000 0.6975 0.6975 0.6987 0.7011 0.7072
910.000000 0.7053 0.7046 0.7028 0.7006 0.6990
905.000000 0.6978 0.6968 0.6956 0.6947 0.6950
900.000000 0.6954 0.6957 0.6926 0.6890 0.6853
895.000000 0.6819 0.6775 0.6691 0.6551 0.6455
890.000000 0.6380 0.6310 0.6251 0.6191 0.6090
885.000000 0.6096 0.6126 0.6166 0.6202 0.6231
880.000000 0.6255 0.6285 0.6247 0.6136 0.5752
875.000000 0.5283 0.5029 0.5109 0.5247 0.5373
870.000000 0.5338 0.5023 0.4684 0.4598 0.4593
865.000000 0.4490 0.4391 0.4416 0.4512 0.5098
860.000000 0.5815 0.6043 0.6436 0.6730 0.6925
855.000000 0.7068 0.7158 0.7201 0.7232 0.7305
850.000000 0.7391 0.7456 0.7492 0.7483 0.7458
845.000000 0.7435 0.7434 0.7465 0.7506 0.7554
840.000000 0.7607 0.7675 0.7735 0.7778 0.7819
835.000000 0.7848 0.7871 0.7901 0.7898 0.7891
830.000000 0.7871 0.7855 0.7847 0.7849 0.7839
825.000000 0.7817 0.7791 0.7755 0.7715 0.7710
820.000000 0.7700 0.7656 0.7669 0.7689 0.7721
815.000000 0.7757 0.7790 0.7811 0.7826 0.7840
810.000000 0.7851 0.7890 0.7860 0.7856 0.7846
805.000000 0.7830 0.7799 0.7753 0.7696 0.7640
800.000000 0.7580 0.7565 0.7545 0.7511 0.7453
795.000000 0.7372 0.7291 0.7205 0.6993 0.6607
790.000000 0.6288 0.6065 0.5862 0.5657 0.5574
785.000000 0.5570 0.5683 0.5844 0.6045 0.6050
780.000000 0.6032 0.5969 0.5872 0.5744 0.5630
775.000000 0.5558 0.5532 0.5524 0.5580 0.5689
770.000000 0.5826 0.5937 0.6037 0.6122 0.6171
765.000000 0.6177 0.6162 0.6081 0.5972 0.5821
760.000000 0.5662 0.5528 0.5402 0.5159 0.4898
755.000000 0.4635 0.4372 0.4130 0.4049 0.4084
750.000000 0.4177 0.4302 0.4460 0.4619 0.4779
745.000000 0.4938 0.5092 0.5241 0.5378 0.5501
740.000000 0.5608 0.5690 0.5738 0.5781 0.5797
735.000000 0.5797 0.5797 0.5784 0.5778 0.5814
730.000000 0.5835 0.5828 0.5815 0.5802 0.5789
725.000000 0.5775 0.5759 0.5743 0.5727 0.5710
720.000000 0.5697 0.5682 0.5668 0.5664 0.5675
715.000000 0.5691 0.5688 0.5686 0.5685 0.5684
710.000000 0.5687 0.5698 0.5708 0.5724 0.5745
705.000000 0.5766 0.5786 0.5805 0.5825 0.5843
700.000000 0.5862 0.5884 0.5923 0.5955 0.5979
695.000000 0.5985 0.5991 0.5996 0.5996 0.5995
690.000000 0.5994 0.5984 0.5982 0.5992 0.6001
685.000000 0.6000 0.6000 0.5983 0.5952 0.5942
680.000000 0.5945 0.5948 0.5939 0.5924 0.5909
675.000000 0.5894 0.5879 0.5864 0.5850 0.5839
670.000000 0.5827 0.5816 0.5822 0.5858 0.5856
665.000000 0.5840 0.5774 0.5702 0.5612 0.5524
660.000000 0.5480 0.5443 0.5409 0.5375 0.5375
655.000000 0.5376
##END=
