##TITLE=POLYTETRAMETHYLENE GLYCOL 3000
##JCAMP-DX=4.24
##DATA TYPE=INFRARED SPECTRUM
##CLASS=COBLENTZ
##ORIGIN=WYANDOTTE CHEMICALS CORP., WYANDOTTE, MICHIGAN, USA
##OWNER=COBLENTZ SOCIETY
Collection (C) 2018 copyright by the U.S. Secretary of Commerce
on behalf of the United States of America. All rights reserved.
##DATE=Not specified, most likely prior to 1970
##NAMES=TERECHOL
##MOLFORM=H O ( C4 H8 O)n H
##SOURCE REFERENCE=COBLENTZ NO. 2714
##$NIST ID=B6002714
##$NIST SOURCE=COBLENTZ
##$NIST IMAGE=cob2714
##SPECTROMETER/DATA SYSTEM=Not specified, most likely a prism, grating, or hybrid spectrometer.
##STATE=SOLID (MINERAL OIL MULL)
##SAMPLING PROCEDURE=TRANSMISSION
##RESOLUTION=4
##DATA PROCESSING=DIGITIZED BY NIST FROM HARD COPY
##XUNITS=MICROMETERS
##YUNITS=TRANSMITTANCE
##XFACTOR=1.000000
##YFACTOR=1
##DELTAX=000.006619
##FIRSTX=2.033
##LASTX=16.0066
##FIRSTY=1.001
##MAXX=16.0066
##MINX=2.033
##MAXY=1.001
##MINY=0.018
##NPOINTS=2112
##XYDATA=(X++(Y..Y))
2.033000 1.0010 1.0010 1.0010 1.0010 1.0010
2.066113 1.0010 1.0010 1.0010 1.0010 1.0010
2.099000 1.0010 1.0010 1.0000 1.0000 1.0000
2.132113 1.0000 1.0000 1.0000 0.9980 0.9980
2.165000 0.9980 0.9980 0.9980 0.9960 0.9930
2.198113 0.9900 0.9850 0.9830 0.9500 0.9320
2.232000 0.9230 0.9200 0.9200 0.9180 0.9170
2.265113 0.9170 0.9170 0.9170 0.9170 0.9150
2.298000 0.9150 0.9150 0.9150 0.9150 0.9130
2.331113 0.9130 0.9130 0.9120 0.9120 0.9100
2.364000 0.9100 0.9080 0.9080 0.9070 0.9070
2.397113 0.9050 0.9050 0.9030 0.9020 0.9020
2.430000 0.9020 0.9020 0.9030 0.9030 0.9050
2.463113 0.9050 0.9080 0.9100 0.9130 0.9180
2.496000 0.9200 0.9220 0.9250 0.9280 0.9320
2.529113 0.9330 0.9350 0.9360 0.9380 0.9400
2.563000 0.9410 0.9430 0.9450 0.9460 0.9460
2.596113 0.9480 0.9480 0.9500 0.9510 0.9530
2.629000 0.9560 0.9600 0.9650 0.9660 0.9660
2.662113 0.9660 0.9630 0.9610 0.9600 0.9580
2.695000 0.9550 0.9500 0.9500 0.9480 0.9460
2.728113 0.9410 0.9400 0.9380 0.9360 0.9330
2.761000 0.9280 0.9180 0.9130 0.9070 0.8980
2.794113 0.8870 0.8720 0.8500 0.8290 0.8100
2.827000 0.7920 0.7740 0.7540 0.7290 0.7060
2.860113 0.6810 0.6690 0.6580 0.6380 0.6200
2.894000 0.6060 0.5980 0.5880 0.5870 0.5870
2.927113 0.5880 0.5900 0.5930 0.6000 0.6050
2.960000 0.6080 0.6110 0.6160 0.6230 0.6310
2.993113 0.6410 0.6550 0.6650 0.6880 0.6980
3.026000 0.7090 0.7230 0.7340 0.7440 0.7560
3.059113 0.7660 0.7760 0.7860 0.7940 0.8000
3.092000 0.8050 0.8150 0.8200 0.8220 0.8250
3.125113 0.8290 0.8300 0.8340 0.8350 0.8370
3.158000 0.8370 0.8370 0.8340 0.8300 0.8270
3.191113 0.8250 0.8250 0.8240 0.8200 0.8190
3.225000 0.8170 0.8100 0.8040 0.7920 0.7820
3.258113 0.7690 0.7570 0.7470 0.7360 0.7160
3.291000 0.6940 0.6680 0.6530 0.6360 0.5950
3.324113 0.5400 0.4740 0.3890 0.3380 0.2860
3.357000 0.2080 0.1420 0.1010 0.0670 0.0510
3.390113 0.0380 0.0290 0.0260 0.0260 0.0260
3.423000 0.0280 0.0280 0.0280 0.0290 0.0290
3.456113 0.0310 0.0310 0.0330 0.0330 0.0340
3.489000 0.0360 0.0360 0.0360 0.0360 0.0360
3.522113 0.0380 0.0390 0.0510 0.0640 0.0790
3.556000 0.0920 0.0920 0.0820 0.0810 0.0820
3.589113 0.1110 0.1390 0.1770 0.2220 0.2710
3.622000 0.3160 0.3730 0.3810 0.3810 0.3790
3.655113 0.3640 0.3630 0.3630 0.3910 0.4460
3.688000 0.4700 0.4920 0.5090 0.5190 0.5220
3.721113 0.5240 0.5320 0.5550 0.5950 0.6260
3.754000 0.6600 0.7060 0.7240 0.7420 0.7420
3.787113 0.7510 0.7620 0.7660 0.7660 0.7620
3.820000 0.7470 0.7310 0.7280 0.7290 0.7460
3.853113 0.7640 0.7790 0.7920 0.8050 0.8170
3.887000 0.8290 0.8370 0.8450 0.8500 0.8570
3.920113 0.8650 0.8750 0.8850 0.8950 0.9070
3.953000 0.9150 0.9230 0.9250 0.9270 0.9270
3.986113 0.9270 0.9270 0.9280 0.9280 0.9300
4.019000 0.9300 0.9320 0.9320 0.9330 0.9330
4.052113 0.9330 0.9330 0.9330 0.9330 0.9330
4.085000 0.9330 0.9350 0.9350 0.9350 0.9350
4.118113 0.9350 0.9330 0.9330 0.9330 0.9320
4.151000 0.9320 0.9300 0.9300 0.9320 0.9330
4.184113 0.9330 0.9330 0.9320 0.9280 0.9230
4.217000 0.9200 0.9180 0.9170 0.9170 0.9150
4.250113 0.9150 0.9170 0.9180 0.9220 0.9270
4.284000 0.9300 0.9300 0.9320 0.9320 0.9330
4.317113 0.9350 0.9400 0.9450 0.9460 0.9480
4.350000 0.9500 0.9500 0.9500 0.9480 0.9460
4.383113 0.9450 0.9410 0.9380 0.9350 0.9330
4.416000 0.9320 0.9320 0.9320 0.9320 0.9320
4.449113 0.9320 0.9320 0.9300 0.9300 0.9280
4.482000 0.9280 0.9270 0.9270 0.9250 0.9250
4.515113 0.9230 0.9220 0.9220 0.9200 0.9200
4.548000 0.9180 0.9170 0.9170 0.9170 0.9170
4.581113 0.9170 0.9170 0.9180 0.9180 0.9200
4.615000 0.9220 0.9230 0.9250 0.9270 0.9280
4.648113 0.9300 0.9320 0.9350 0.9350 0.9360
4.681000 0.9360 0.9360 0.9360 0.9360 0.9360
4.714113 0.9360 0.9360 0.9360 0.9350 0.9280
4.747000 0.9230 0.9170 0.9050 0.8970 0.8780
4.780113 0.8590 0.8450 0.8240 0.8090 0.8050
4.813000 0.8020 0.8000 0.8000 0.7960 0.7920
4.846113 0.7910 0.7890 0.7910 0.7960 0.8020
4.879000 0.8070 0.8170 0.8290 0.8420 0.8550
4.912113 0.8680 0.8770 0.8800 0.8870 0.8920
4.946000 0.8970 0.8980 0.9000 0.9020 0.9030
4.979113 0.9050 0.9080 0.9150 0.9180 0.9200
5.012000 0.9200 0.9220 0.9220 0.9220 0.9220
5.045113 0.9250 0.9250 0.9250 0.9250 0.9270
5.078000 0.9300 0.9320 0.9320 0.9330 0.9330
5.111113 0.9360 0.9360 0.9380 0.9400 0.9400
5.144000 0.9380 0.9360 0.9350 0.9350 0.9360
5.177113 0.9360 0.9400 0.9410 0.9410 0.9450
5.210000 0.9460 0.9460 0.9460 0.9460 0.9460
5.243113 0.9460 0.9460 0.9460 0.9460 0.9460
5.277000 0.9460 0.9450 0.9450 0.9430 0.9410
5.310113 0.9380 0.9360 0.9360 0.9380 0.9380
5.343000 0.9400 0.9430 0.9500 0.9530 0.9550
5.376113 0.9550 0.9560 0.9580 0.9580 0.9600
5.409000 0.9600 0.9610 0.9630 0.9660 0.9660
5.442113 0.9660 0.9680 0.9680 0.9680 0.9680
5.475000 0.9680 0.9680 0.9680 0.9680 0.9680
5.508113 0.9680 0.9680 0.9680 0.9680 0.9680
5.541000 0.9680 0.9680 0.9680 0.9680 0.9680
5.574113 0.9700 0.9700 0.9700 0.9700 0.9700
5.608000 0.9700 0.9680 0.9680 0.9680 0.9680
5.641113 0.9660 0.9660 0.9650 0.9650 0.9630
5.674000 0.9630 0.9610 0.9560 0.9560 0.9550
5.707113 0.9530 0.9500 0.9500 0.9480 0.9480
5.740000 0.9460 0.9450 0.9450 0.9450 0.9450
5.773113 0.9460 0.9460 0.9480 0.9480 0.9500
5.806000 0.9510 0.9510 0.9510 0.9510 0.9510
5.839113 0.9510 0.9500 0.9500 0.9500 0.9500
5.872000 0.9480 0.9480 0.9480 0.9460 0.9460
5.905113 0.9430 0.9410 0.9410 0.9380 0.9380
5.939000 0.9360 0.9360 0.9350 0.9330 0.9320
5.972113 0.9320 0.9300 0.9300 0.9270 0.9230
6.005000 0.9230 0.9220 0.9180 0.9180 0.9170
6.038113 0.9150 0.9150 0.9130 0.9130 0.9120
6.071000 0.9120 0.9100 0.9100 0.9080 0.9070
6.104113 0.9050 0.9050 0.9050 0.9050 0.9070
6.137000 0.9070 0.9070 0.9080 0.9080 0.9080
6.170113 0.9080 0.9100 0.9120 0.9120 0.9120
6.203000 0.9120 0.9120 0.9120 0.9120 0.9100
6.236113 0.9100 0.9100 0.9080 0.9070 0.9050
6.270000 0.9050 0.9050 0.9050 0.9050 0.9050
6.303113 0.9050 0.9050 0.9030 0.9020 0.9000
6.336000 0.9000 0.8970 0.8970 0.8970 0.8970
6.369113 0.8970 0.8970 0.8970 0.8970 0.8970
6.402000 0.8970 0.8950 0.8950 0.8930 0.8930
6.435113 0.8920 0.8920 0.8900 0.8880 0.8870
6.468000 0.8850 0.8820 0.8770 0.8730 0.8700
6.501113 0.8680 0.8670 0.8620 0.8600 0.8550
6.534000 0.8520 0.8490 0.8440 0.8390 0.8270
6.567113 0.8150 0.8090 0.8000 0.7910 0.7710
6.600000 0.7370 0.6880 0.6510 0.6150 0.5500
6.633113 0.4890 0.3980 0.3380 0.2780 0.1750
6.667000 0.0820 0.0770 0.0820 0.1270 0.1770
6.700113 0.2170 0.2600 0.2860 0.3030 0.3100
6.733000 0.3100 0.2910 0.2500 0.2450 0.2450
6.766113 0.2480 0.2570 0.2580 0.2600 0.2330
6.799000 0.1870 0.1540 0.1390 0.1390 0.1400
6.832113 0.1720 0.2070 0.2450 0.2650 0.2800
6.865000 0.2900 0.2960 0.3050 0.3130 0.3260
6.898113 0.3690 0.3940 0.4120 0.4240 0.4340
6.931000 0.4420 0.4490 0.4610 0.4750 0.4970
6.964113 0.5250 0.5520 0.5720 0.5930 0.6080
6.998000 0.6210 0.6350 0.6400 0.6450 0.6450
7.031113 0.6430 0.6330 0.6260 0.6210 0.6210
7.064000 0.6230 0.6280 0.6300 0.6330 0.6380
7.097113 0.6430 0.6430 0.6410 0.6350 0.6330
7.130000 0.6260 0.6180 0.6060 0.5970 0.5830
7.163113 0.5700 0.5500 0.5270 0.4950 0.4540
7.196000 0.4010 0.3360 0.3050 0.2730 0.2170
7.229113 0.1670 0.1210 0.0910 0.0660 0.0510
7.262000 0.0410 0.0340 0.0330 0.0340 0.0460
7.295113 0.0510 0.0610 0.0760 0.0970 0.1210
7.329000 0.1470 0.1740 0.1990 0.2230 0.2570
7.362113 0.2860 0.3100 0.3250 0.3810 0.4170
7.395000 0.4540 0.4870 0.5170 0.5380 0.5470
7.428113 0.5550 0.5630 0.5750 0.5870 0.5980
7.461000 0.6080 0.6180 0.6250 0.6350 0.6510
7.494113 0.6610 0.6710 0.6760 0.6810 0.6890
7.527000 0.6930 0.6930 0.6890 0.6790 0.6790
7.560113 0.6740 0.6710 0.6660 0.6560 0.6510
7.593000 0.6430 0.6330 0.6280 0.6250 0.6250
7.626113 0.6250 0.6210 0.6180 0.6150 0.6100
7.660000 0.6030 0.5970 0.5900 0.5820 0.5770
7.693113 0.5750 0.5770 0.5830 0.5920 0.5970
7.726000 0.6010 0.6060 0.6100 0.6110 0.6130
7.759113 0.6130 0.6150 0.6160 0.6210 0.6250
7.792000 0.6250 0.6250 0.6210 0.6180 0.6150
7.825113 0.6130 0.6100 0.6050 0.6000 0.6000
7.858000 0.5970 0.5930 0.5900 0.5880 0.5870
7.891113 0.5850 0.5820 0.5750 0.5670 0.5520
7.924000 0.5300 0.5040 0.4670 0.4210 0.3660
7.957113 0.3330 0.2980 0.2180 0.1750 0.1400
7.991000 0.1390 0.1420 0.1990 0.2600 0.3160
8.024113 0.3610 0.3780 0.3930 0.4020 0.4020
8.057000 0.4010 0.3960 0.3930 0.3860 0.3730
8.090113 0.3690 0.3690 0.3760 0.3910 0.4110
8.123000 0.4410 0.4590 0.4620 0.4620 0.4590
8.156113 0.4520 0.4440 0.4310 0.4140 0.3580
8.189000 0.3410 0.3250 0.2960 0.2850 0.2620
8.222113 0.2230 0.1800 0.1440 0.1120 0.0890
8.255000 0.0820 0.0810 0.0820 0.1060 0.1340
8.288113 0.1570 0.1870 0.2230 0.2580 0.2930
8.322000 0.3200 0.3490 0.3690 0.3860 0.4010
8.355113 0.4160 0.4270 0.4390 0.4490 0.4590
8.388000 0.4690 0.4770 0.4890 0.4950 0.4950
8.421113 0.5000 0.5040 0.5070 0.5090 0.5120
8.454000 0.5150 0.5150 0.5140 0.5050 0.5020
8.487113 0.4990 0.4940 0.4850 0.4800 0.4740
8.520000 0.4670 0.4610 0.4420 0.4410 0.4340
8.553113 0.4290 0.4220 0.4210 0.3980 0.3960
8.586000 0.3680 0.3660 0.3480 0.3280 0.3260
8.619113 0.3200 0.3010 0.2830 0.2710 0.2600
8.652000 0.2470 0.2350 0.2220 0.2070 0.1940
8.685113 0.1770 0.1600 0.1470 0.1270 0.1170
8.719000 0.1060 0.0970 0.0860 0.0740 0.0660
8.752113 0.0560 0.0510 0.0480 0.0410 0.0410
8.785000 0.0380 0.0360 0.0330 0.0310 0.0310
8.818113 0.0290 0.0280 0.0280 0.0280 0.0280
8.851000 0.0280 0.0280 0.0280 0.0280 0.0280
8.884113 0.0260 0.0260 0.0260 0.0260 0.0260
8.917000 0.0240 0.0240 0.0240 0.0240 0.0230
8.950113 0.0230 0.0230 0.0230 0.0230 0.0230
8.983000 0.0230 0.0240 0.0240 0.0240 0.0240
9.016113 0.0240 0.0240 0.0240 0.0240 0.0240
9.050000 0.0240 0.0240 0.0240 0.0240 0.0240
9.083113 0.0240 0.0240 0.0260 0.0260 0.0260
9.116000 0.0260 0.0260 0.0260 0.0280 0.0280
9.149113 0.0290 0.0310 0.0330 0.0330 0.0340
9.182000 0.0360 0.0380 0.0410 0.0430 0.0460
9.215113 0.0480 0.0510 0.0530 0.0590 0.0610
9.248000 0.0630 0.0690 0.0710 0.0710 0.0720
9.281113 0.0760 0.0770 0.0810 0.0870 0.0910
9.314000 0.0920 0.0940 0.0960 0.0990 0.1020
9.347113 0.1070 0.1090 0.1160 0.1220 0.1290
9.381000 0.1320 0.1350 0.1370 0.1390 0.1400
9.414113 0.1450 0.1450 0.1470 0.1500 0.1540
9.447000 0.1570 0.1600 0.1600 0.1640 0.1720
9.480113 0.1790 0.1870 0.1920 0.1970 0.2000
9.513000 0.2050 0.2100 0.2170 0.2200 0.2230
9.546113 0.2270 0.2280 0.2300 0.2370 0.2380
9.579000 0.2380 0.2400 0.2420 0.2430 0.2450
9.612113 0.2470 0.2480 0.2500 0.2520 0.2530
9.645000 0.2530 0.2550 0.2570 0.2580 0.2580
9.678113 0.2580 0.2580 0.2600 0.2600 0.2600
9.712000 0.2600 0.2620 0.2620 0.2620 0.2620
9.745113 0.2620 0.2620 0.2600 0.2580 0.2500
9.778000 0.2450 0.2450 0.2350 0.2270 0.2080
9.811113 0.1950 0.1870 0.1770 0.1640 0.1400
9.844000 0.1190 0.1070 0.0990 0.0890 0.0810
9.877113 0.0720 0.0710 0.0710 0.0690 0.0690
9.910000 0.0670 0.0660 0.0630 0.0590 0.0580
9.943113 0.0530 0.0480 0.0410 0.0380 0.0340
9.976000 0.0290 0.0260 0.0240 0.0240 0.0190
10.009113 0.0180 0.0180 0.0190 0.0190 0.0210
10.043000 0.0210 0.0230 0.0240 0.0290 0.0360
10.076113 0.0410 0.0460 0.0540 0.0630 0.0770
10.109000 0.0940 0.1060 0.1160 0.1270 0.1370
10.142113 0.1470 0.1570 0.1700 0.1820 0.1950
10.175000 0.2030 0.2130 0.2170 0.2300 0.2400
10.208113 0.2470 0.2520 0.2580 0.2650 0.2730
10.241000 0.2800 0.2830 0.2900 0.2980 0.3060
10.274113 0.3080 0.3130 0.3180 0.3260 0.3280
10.307000 0.3300 0.3330 0.3330 0.3340 0.3360
10.340113 0.3360 0.3360 0.3360 0.3360 0.3360
10.374000 0.3360 0.3340 0.3340 0.3330 0.3330
10.407113 0.3330 0.3310 0.3310 0.3300 0.3260
10.440000 0.3230 0.3210 0.3210 0.3230 0.3230
10.473113 0.3250 0.3260 0.3280 0.3310 0.3380
10.506000 0.3410 0.3460 0.3490 0.3530 0.3560
10.539113 0.3580 0.3630 0.3640 0.3660 0.3660
10.572000 0.3640 0.3610 0.3580 0.3560 0.3580
10.605113 0.3610 0.3780 0.3790 0.4040 0.4340
10.638000 0.4490 0.4640 0.4840 0.4970 0.5090
10.671113 0.5170 0.5290 0.5400 0.5450 0.5570
10.704000 0.5680 0.5750 0.5820 0.5870 0.5930
10.737113 0.6000 0.6080 0.6130 0.6160 0.6200
10.771000 0.6230 0.6250 0.6280 0.6310 0.6350
10.804113 0.6400 0.6460 0.6500 0.6530 0.6560
10.837000 0.6600 0.6630 0.6710 0.6760 0.6830
10.870113 0.6880 0.6910 0.6940 0.6980 0.7010
10.903000 0.7040 0.7080 0.7090 0.7090 0.7110
10.936113 0.7140 0.7190 0.7230 0.7280 0.7310
10.969000 0.7330 0.7360 0.7360 0.7370 0.7410
11.002113 0.7410 0.7420 0.7420 0.7420 0.7420
11.035000 0.7420 0.7440 0.7440 0.7460 0.7460
11.068113 0.7460 0.7470 0.7470 0.7490 0.7510
11.102000 0.7520 0.7520 0.7540 0.7560 0.7590
11.135113 0.7610 0.7610 0.7610 0.7640 0.7640
11.168000 0.7660 0.7660 0.7660 0.7660 0.7660
11.201113 0.7660 0.7660 0.7660 0.7660 0.7660
11.234000 0.7670 0.7670 0.7710 0.7720 0.7740
11.267113 0.7740 0.7760 0.7760 0.7790 0.7810
11.300000 0.7860 0.7890 0.7910 0.7920 0.7940
11.333113 0.7940 0.7940 0.7960 0.7960 0.7960
11.366000 0.7970 0.7970 0.7970 0.7970 0.7970
11.399113 0.7970 0.7990 0.7990 0.8000 0.8000
11.433000 0.8020 0.8020 0.8040 0.8040 0.8040
11.466113 0.8050 0.8050 0.8050 0.8070 0.8070
11.499000 0.8070 0.8070 0.8090 0.8090 0.8090
11.532113 0.8090 0.8090 0.8090 0.8090 0.8090
11.565000 0.8090 0.8090 0.8090 0.8100 0.8100
11.598113 0.8100 0.8100 0.8100 0.8100 0.8100
11.631000 0.8100 0.8120 0.8120 0.8140 0.8150
11.664113 0.8150 0.8170 0.8170 0.8170 0.8190
11.697000 0.8190 0.8190 0.8190 0.8190 0.8190
11.730113 0.8190 0.8190 0.8190 0.8190 0.8190
11.764000 0.8190 0.8190 0.8190 0.8190 0.8190
11.797113 0.8190 0.8190 0.8190 0.8190 0.8200
11.830000 0.8200 0.8200 0.8200 0.8200 0.8200
11.863113 0.8200 0.8200 0.8200 0.8200 0.8200
11.896000 0.8200 0.8200 0.8200 0.8200 0.8200
11.929113 0.8200 0.8200 0.8200 0.8200 0.8200
11.962000 0.8190 0.8190 0.8190 0.8170 0.8170
11.995113 0.8170 0.8150 0.8140 0.8140 0.8140
12.028000 0.8140 0.8140 0.8140 0.8140 0.8140
12.061113 0.8140 0.8140 0.8140 0.8150 0.8150
12.095000 0.8150 0.8170 0.8190 0.8200 0.8200
12.128113 0.8220 0.8220 0.8220 0.8220 0.8220
12.161000 0.8220 0.8220 0.8220 0.8220 0.8220
12.194113 0.8220 0.8220 0.8220 0.8220 0.8220
12.227000 0.8220 0.8200 0.8200 0.8200 0.8220
12.260113 0.8220 0.8240 0.8240 0.8250 0.8250
12.293000 0.8250 0.8250 0.8250 0.8250 0.8250
12.326113 0.8270 0.8270 0.8290 0.8300 0.8320
12.359000 0.8350 0.8390 0.8420 0.8420 0.8440
12.392113 0.8440 0.8440 0.8450 0.8450 0.8450
12.426000 0.8470 0.8470 0.8470 0.8470 0.8470
12.459113 0.8490 0.8490 0.8520 0.8540 0.8540
12.492000 0.8550 0.8550 0.8570 0.8600 0.8620
12.525113 0.8640 0.8650 0.8650 0.8670 0.8680
12.558000 0.8700 0.8720 0.8720 0.8730 0.8750
12.591113 0.8750 0.8770 0.8780 0.8780 0.8800
12.624000 0.8820 0.8820 0.8820 0.8820 0.8820
12.657113 0.8820 0.8830 0.8830 0.8830 0.8830
12.690000 0.8830 0.8850 0.8850 0.8850 0.8850
12.723113 0.8850 0.8870 0.8870 0.8870 0.8870
12.757000 0.8870 0.8870 0.8870 0.8870 0.8880
12.790113 0.8880 0.8880 0.8880 0.8870 0.8870
12.823000 0.8850 0.8850 0.8830 0.8820 0.8800
12.856113 0.8780 0.8770 0.8770 0.8730 0.8730
12.889000 0.8730 0.8730 0.8720 0.8720 0.8700
12.922113 0.8700 0.8670 0.8650 0.8650 0.8640
12.955000 0.8620 0.8620 0.8600 0.8600 0.8590
12.988113 0.8590 0.8570 0.8570 0.8550 0.8550
13.021000 0.8540 0.8540 0.8520 0.8520 0.8500
13.054113 0.8500 0.8490 0.8490 0.8470 0.8450
13.087000 0.8440 0.8420 0.8400 0.8400 0.8390
13.120113 0.8350 0.8340 0.8320 0.8300 0.8290
13.154000 0.8250 0.8240 0.8190 0.8140 0.8100
13.187113 0.8090 0.8050 0.8040 0.8000 0.7960
13.220000 0.7890 0.7790 0.7670 0.7590 0.7540
13.253113 0.7460 0.7370 0.7230 0.7160 0.7060
13.286000 0.6930 0.6740 0.6660 0.6580 0.6350
13.319113 0.6250 0.6080 0.5870 0.5600 0.5300
13.352000 0.5000 0.4690 0.4360 0.4060 0.3740
13.385113 0.3460 0.3330 0.3180 0.2930 0.2810
13.418000 0.2750 0.2750 0.2780 0.2930 0.3050
13.451113 0.3300 0.3880 0.4110 0.4510 0.4820
13.485000 0.5050 0.5250 0.5550 0.5800 0.6050
13.518113 0.6300 0.6450 0.6550 0.6660 0.6940
13.551000 0.7040 0.7180 0.7310 0.7370 0.7440
13.584113 0.7510 0.7570 0.7640 0.7690 0.7740
13.617000 0.7770 0.7790 0.7840 0.7890 0.7960
13.650113 0.8000 0.8040 0.8070 0.8070 0.8090
13.683000 0.8100 0.8120 0.8140 0.8150 0.8170
13.716113 0.8190 0.8200 0.8220 0.8270 0.8300
13.749000 0.8320 0.8340 0.8340 0.8350 0.8350
13.782113 0.8350 0.8350 0.8370 0.8370 0.8370
13.816000 0.8370 0.8370 0.8370 0.8390 0.8390
13.849113 0.8390 0.8390 0.8400 0.8400 0.8420
13.882000 0.8420 0.8440 0.8450 0.8490 0.8500
13.915113 0.8520 0.8540 0.8550 0.8550 0.8570
13.948000 0.8590 0.8600 0.8620 0.8640 0.8650
13.981113 0.8670 0.8680 0.8700 0.8720 0.8730
14.014000 0.8750 0.8770 0.8800 0.8820 0.8820
14.047113 0.8830 0.8850 0.8850 0.8870 0.8880
14.080000 0.8900 0.8920 0.8930 0.8930 0.8930
14.113113 0.8930 0.8930 0.8950 0.8950 0.8950
14.147000 0.8950 0.8950 0.8970 0.8970 0.8970
14.180113 0.8970 0.8970 0.8970 0.8970 0.8970
14.213000 0.8970 0.8970 0.8970 0.8970 0.8970
14.246113 0.8970 0.8970 0.8970 0.8980 0.8980
14.279000 0.8980 0.8980 0.8980 0.8980 0.8980
14.312113 0.8980 0.8980 0.8980 0.8980 0.8980
14.345000 0.8980 0.8980 0.8980 0.8980 0.8980
14.378113 0.8970 0.8950 0.8950 0.8930 0.8930
14.411000 0.8930 0.8930 0.8930 0.8930 0.8920
14.444113 0.8920 0.8920 0.8930 0.8930 0.8950
14.478000 0.8950 0.8950 0.8950 0.8950 0.8950
14.511113 0.8950 0.8950 0.8950 0.8950 0.8950
14.544000 0.8920 0.8920 0.8880 0.8880 0.8870
14.577113 0.8870 0.8880 0.8880 0.8880 0.8880
14.610000 0.8880 0.8880 0.8880 0.8870 0.8870
14.643113 0.8870 0.8870 0.8870 0.8870 0.8870
14.676000 0.8870 0.8850 0.8830 0.8820 0.8820
14.709113 0.8820 0.8820 0.8820 0.8820 0.8820
14.742000 0.8800 0.8800 0.8780 0.8780 0.8770
14.775113 0.8770 0.8770 0.8770 0.8750 0.8750
14.809000 0.8730 0.8720 0.8700 0.8680 0.8680
14.842113 0.8680 0.8680 0.8680 0.8680 0.8720
14.875000 0.8720 0.8750 0.8750 0.8750 0.8750
14.908113 0.8730 0.8720 0.8700 0.8680 0.8680
14.941000 0.8670 0.8670 0.8650 0.8640 0.8620
14.974113 0.8620 0.8590 0.8590 0.8550 0.8520
15.007000 0.8470 0.8440 0.8320 0.8290 0.8270
15.040113 0.8240 0.8240 0.8220 0.8220 0.8240
15.073000 0.8240 0.8250 0.8290 0.8300 0.8340
15.106113 0.8370 0.8400 0.8400 0.8420 0.8420
15.139000 0.8440 0.8440 0.8440 0.8450 0.8470
15.172113 0.8490 0.8490 0.8490 0.8490 0.8500
15.206000 0.8500 0.8500 0.8500 0.8490 0.8400
15.239113 0.8370 0.8340 0.8340 0.8340 0.8350
15.272000 0.8350 0.8350 0.8350 0.8320 0.8290
15.305113 0.8270 0.8250 0.8250 0.8240 0.8240
15.338000 0.8220 0.8220 0.8220 0.8200 0.8190
15.371113 0.8190 0.8190 0.8190 0.8190 0.8190
15.404000 0.8170 0.8170 0.8170 0.8170 0.8170
15.437113 0.8190 0.8190 0.8190 0.8190 0.8190
15.470000 0.8190 0.8170 0.8150 0.8120 0.8040
15.503113 0.8000 0.8000 0.7970 0.7960 0.7920
15.537000 0.7910 0.7870 0.7860 0.7840 0.7840
15.570113 0.7840 0.7860 0.7890 0.7890 0.7890
15.603000 0.7870 0.7870 0.7870 0.7870 0.7870
15.636113 0.7870 0.7860 0.7840 0.7840 0.7810
15.669000 0.7790 0.7760 0.7720 0.7720 0.7720
15.702113 0.7720 0.7720 0.7720 0.7740 0.7740
15.735000 0.7740 0.7720 0.7710 0.7670 0.7620
15.768113 0.7610 0.7590 0.7590 0.7590 0.7590
15.801000 0.7570 0.7560 0.7540 0.7520 0.7510
15.834113 0.7490 0.7490 0.7490 0.7470 0.7470
15.868000 0.7460 0.7420 0.7410 0.7410 0.7370
15.901113 0.7360 0.7340 0.7330 0.7330 0.7330
15.934000 0.7330 0.7330 0.7330 0.7310 0.7310
15.967113 0.7280 0.7280 0.7260 0.7280 0.7260
16.000000 0.7260 0.7280
##END=
