##TITLE=Propionic acid, 2-benzamido-3,3'-thiodi-, diethyl ester
##JCAMP-DX=4.24
##DATA TYPE=INFRARED SPECTRUM
##CLASS=COBLENTZ III
##ORIGIN=SOUTHERN RESEARCH INSTITUTE
##OWNER=Copyright (C) 1987 by the Coblentz Society
Collection (C) 2018 copyright by the U.S. Secretary of Commerce
on behalf of the United States of America. All rights reserved.
##DATE=1958/06/26
##MOLFORM=C17 H23 N O5 S
##SOURCE REFERENCE=COBLENTZ NO. 8265
##$NIST ID=B6008265
##$NIST SOURCE=COBLENTZ
##$NIST IMAGE=cob8265
##SPECTROMETER/DATA SYSTEM=PERKIN-ELMER 21 (GRATING)
##INSTRUMENT PARAMETERS=FILTER CHANGE ABOUT 1090 CM^-^1
##STATE=SOLID (KBr DISC)
##SAMPLING PROCEDURE=TRANSMISSION
##RESOLUTION=2
##DATA PROCESSING=DIGITIZED BY COBLENTZ SOCIETY (BATCH II) FROM HARD COPY (ADJUSTED \addcm-1\20-10-2\)
##XUNITS=1/CM
##YUNITS=TRANSMITTANCE
##XFACTOR=1.0
##YFACTOR=1
##DELTAX=1.003829
##FIRSTX=604.98
##LASTX=4017
##FIRSTY=1.0144
##MAXX=4017
##MINX=604.98
##MAXY=1.0144
##MINY=0.171472
##NPOINTS=3400
##XYDATA=(X++(Y..Y))
604.980000 1.0144 1.0143 1.0143 1.0142 1.0141
609.999147 1.0136 1.0129 1.0122 1.0113 1.0105
615.018294 1.0094 1.0083 1.0072 1.0061 1.0050
620.037441 1.0039 1.0026 1.0009 0.9994 0.9980
625.056588 0.9966 0.9947 0.9933 0.9924 0.9910
630.075735 0.9898 0.9885 0.9871 0.9859 0.9847
635.094882 0.9836 0.9825 0.9814 0.9803 0.9792
640.114029 0.9784 0.9778 0.9771 0.9765 0.9764
645.133176 0.9763 0.9763 0.9761 0.9752 0.9742
650.152324 0.9734 0.9724 0.9710 0.9692 0.9675
655.171471 0.9656 0.9627 0.9597 0.9568 0.9540
660.190618 0.9512 0.9483 0.9450 0.9409 0.9365
665.209765 0.9321 0.9277 0.9234 0.9193 0.9152
670.228912 0.9111 0.9071 0.9034 0.9000 0.8967
675.248059 0.8934 0.8901 0.8876 0.8853 0.8830
680.267206 0.8807 0.8783 0.8757 0.8730 0.8703
685.286353 0.8677 0.8653 0.8628 0.8602 0.8524
690.305500 0.8356 0.8189 0.8022 0.7855 0.7687
695.324647 0.7520 0.7353 0.7131 0.6846 0.6892
700.343794 0.6877 0.6957 0.7274 0.7733 0.8180
705.362941 0.8428 0.8422 0.8416 0.8400 0.8357
710.382088 0.8303 0.8248 0.8193 0.8138 0.8084
715.401235 0.8029 0.7974 0.7902 0.7847 0.7808
720.420382 0.7782 0.7766 0.7759 0.7754 0.7751
725.439529 0.7753 0.7755 0.7755 0.7765 0.7778
730.458676 0.7795 0.7818 0.7851 0.7883 0.7918
735.477824 0.7956 0.7994 0.8036 0.8084 0.8131
740.496971 0.8175 0.8218 0.8261 0.8303 0.8356
745.516118 0.8478 0.8691 0.8904 0.9108 0.9232
750.535265 0.9266 0.9285 0.9302 0.9315 0.9327
755.554412 0.9339 0.9350 0.9359 0.9364 0.9368
760.573559 0.9373 0.9377 0.9378 0.9377 0.9375
765.592706 0.9374 0.9372 0.9371 0.9370 0.9412
770.611853 0.9363 0.9359 0.9356 0.9349 0.9341
775.631000 0.9334 0.9327 0.9319 0.9310 0.9300
780.650147 0.9289 0.9279 0.9269 0.9259 0.9248
785.669294 0.9234 0.9214 0.9194 0.9174 0.9154
790.688441 0.9133 0.9110 0.9087 0.9064 0.9040
795.707588 0.9017 0.8995 0.8972 0.8959 0.8940
800.726735 0.8928 0.8919 0.8929 0.8952 0.8979
805.745882 0.9006 0.9035 0.9062 0.9087 0.9114
810.765029 0.9142 0.9167 0.9186 0.9201 0.9213
815.784176 0.9223 0.9231 0.9239 0.9246 0.9253
820.803324 0.9256 0.9260 0.9263 0.9267 0.9270
825.822471 0.9276 0.9284 0.9292 0.9300 0.9305
830.841618 0.9310 0.9318 0.9331 0.9316 0.9298
835.860765 0.9273 0.9244 0.9218 0.9191 0.9165
840.879912 0.9139 0.9109 0.9080 0.9050 0.9012
845.899059 0.8975 0.8939 0.8901 0.8865 0.8828
850.918206 0.8792 0.8756 0.8730 0.8705 0.8680
855.937353 0.8659 0.8642 0.8624 0.8608 0.8591
860.956500 0.8572 0.8549 0.8525 0.8501 0.8489
865.975647 0.8484 0.8467 0.8468 0.8490 0.8526
870.994794 0.8578 0.8644 0.8705 0.8754 0.8800
876.013941 0.8844 0.8886 0.8927 0.8965 0.9001
881.033088 0.9038 0.9075 0.9112 0.9149 0.9185
886.052235 0.9223 0.9259 0.9285 0.9289 0.9293
891.071382 0.9297 0.9302 0.9306 0.9307 0.9309
896.090529 0.9311 0.9312 0.9314 0.9315 0.9316
901.109676 0.9316 0.9316 0.9317 0.9317 0.9315
906.128824 0.9312 0.9310 0.9308 0.9306 0.9304
911.147971 0.9301 0.9295 0.9289 0.9273 0.9277
916.167118 0.9272 0.9267 0.9261 0.9255 0.9246
921.186265 0.9236 0.9226 0.9216 0.9206 0.9197
926.205412 0.9187 0.9177 0.9168 0.9158 0.9156
931.224559 0.9159 0.9163 0.9166 0.9169 0.9173
936.243706 0.9177 0.9180 0.9184 0.9188 0.9191
941.262853 0.9195 0.9198 0.9200 0.9199 0.9198
946.282000 0.9198 0.9197 0.9197 0.9196 0.9195
951.301147 0.9195 0.9193 0.9190 0.9186 0.9182
956.320294 0.9179 0.9175 0.9172 0.9168 0.9165
961.339441 0.9163 0.9161 0.9158 0.9155 0.9153
966.358588 0.9150 0.9147 0.9146 0.9145 0.9144
971.377735 0.9143 0.9140 0.9137 0.9134 0.9132
976.396882 0.9129 0.9119 0.9109 0.9098 0.9087
981.416029 0.9077 0.9067 0.9056 0.9038 0.9018
986.435176 0.8998 0.8979 0.8959 0.8939 0.8918
991.454324 0.8892 0.8865 0.8838 0.8811 0.8783
996.473471 0.8756 0.8730 0.8705 0.8683 0.8662
1001.492618 0.8640 0.8618 0.8602 0.8596 0.8595
1006.511765 0.8596 0.8596 0.8595 0.8594 0.8585
1011.530912 0.8557 0.8511 0.8443 0.8324 0.8157
1016.550059 0.7991 0.7825 0.7658 0.7492 0.7321
1021.569206 0.7173 0.7100 0.7046 0.6997 0.6956
1026.588353 0.6974 0.6971 0.6972 0.6977 0.7010
1031.607500 0.7120 0.7250 0.7379 0.7509 0.7638
1036.626647 0.7768 0.7896 0.8026 0.8156 0.8283
1041.645794 0.8378 0.8399 0.8407 0.8414 0.8422
1046.664941 0.8432 0.8443 0.8457 0.8471 0.8499
1051.684088 0.8538 0.8595 0.8657 0.8711 0.8753
1056.703235 0.8794 0.8825 0.8843 0.8844 0.8851
1061.722382 0.8849 0.8845 0.8839 0.8829 0.8818
1066.741529 0.8806 0.8794 0.8781 0.8767 0.8754
1071.760676 0.8742 0.8729 0.8716 0.8707 0.8700
1076.779824 0.8694 0.8692 0.8691 0.8691 0.8694
1081.798971 0.8699 0.8705 0.8710 0.8716 0.8722
1086.818118 0.8729 0.8736 0.8632 0.8423 0.8196
1091.837265 0.8064 0.8033 0.8020 0.8008 0.7915
1096.856412 0.7710 0.7519 0.7431 0.7403 0.7384
1101.875559 0.7374 0.7369 0.7371 0.7381 0.7562
1106.894706 0.8022 0.8364 0.8440 0.8496 0.8544
1111.913853 0.8581 0.8618 0.8654 0.8686 0.8712
1116.933000 0.8739 0.8766 0.8789 0.8809 0.8825
1121.952147 0.8832 0.8840 0.8847 0.8852 0.8850
1126.971294 0.8852 0.8837 0.8831 0.8825 0.8818
1131.990441 0.8810 0.8801 0.8793 0.8784 0.8774
1137.009588 0.8764 0.8754 0.8742 0.8725 0.8708
1142.028735 0.8691 0.8665 0.8626 0.8588 0.8549
1147.047882 0.8512 0.8462 0.8357 0.8248 0.8138
1152.067029 0.8029 0.7920 0.7811 0.7702 0.7592
1157.086176 0.7404 0.7281 0.7165 0.6934 0.6820
1162.105324 0.6730 0.6541 0.6419 0.6344 0.6302
1167.124471 0.6290 0.6288 0.6286 0.6285 0.6284
1172.143618 0.6285 0.6287 0.6284 0.6187 0.6008
1177.162765 0.5810 0.5613 0.5416 0.5218 0.5124
1182.181912 0.5119 0.5130 0.5131 0.5130 0.5162
1187.201059 0.5308 0.5546 0.5785 0.6023 0.6261
1192.220206 0.6499 0.6737 0.6975 0.7214 0.7452
1197.239353 0.7608 0.7623 0.7624 0.7624 0.7617
1202.258500 0.7610 0.7595 0.7561 0.7486 0.7367
1207.277647 0.7186 0.6997 0.6809 0.6620 0.6431
1212.296794 0.6242 0.6053 0.5864 0.5676 0.5487
1217.315941 0.5349 0.5370 0.5330 0.5339 0.5394
1222.335088 0.5493 0.5592 0.5690 0.5789 0.5888
1227.354235 0.5967 0.5978 0.5988 0.6000 0.6012
1232.373382 0.6024 0.6042 0.6063 0.6093 0.6152
1237.392529 0.6357 0.6628 0.6870 0.6880 0.6893
1242.411676 0.6889 0.6854 0.6764 0.6673 0.6586
1247.430824 0.6541 0.6519 0.6502 0.6484 0.6468
1252.449971 0.6442 0.6385 0.6327 0.6300 0.6277
1257.469118 0.6262 0.6262 0.6263 0.6271 0.6403
1262.488265 0.6585 0.6766 0.6948 0.7130 0.7312
1267.507412 0.7607 0.7652 0.7685 0.7707 0.7713
1272.526559 0.7718 0.7721 0.7718 0.7715 0.7712
1277.545706 0.7705 0.7695 0.7684 0.7674 0.7664
1282.564853 0.7644 0.7621 0.7598 0.7565 0.7517
1287.584000 0.7457 0.7384 0.7304 0.7224 0.7143
1292.603147 0.7063 0.6982 0.6908 0.6890 0.6891
1297.622294 0.6907 0.6956 0.7000 0.7007 0.7005
1302.641441 0.6999 0.6990 0.6981 0.6961 0.6899
1307.660588 0.6814 0.6725 0.6637 0.6548 0.6459
1312.679735 0.6370 0.6282 0.6193 0.6105 0.6016
1317.698882 0.5928 0.5838 0.5749 0.5661 0.5572
1322.718029 0.5484 0.5406 0.5339 0.5294 0.5259
1327.737176 0.5229 0.5214 0.5212 0.5216 0.5230
1332.756324 0.5214 0.5275 0.5380 0.5515 0.5674
1337.775471 0.5833 0.5992 0.6150 0.6309 0.6468
1342.794618 0.6626 0.6737 0.6784 0.6814 0.6848
1347.813765 0.6884 0.6919 0.6961 0.7153 0.7341
1352.832912 0.7382 0.7391 0.7393 0.7392 0.7391
1357.852059 0.7391 0.7391 0.7461 0.7611 0.7767
1362.871206 0.7922 0.8124 0.8249 0.8233 0.8233
1367.890353 0.8204 0.8105 0.7959 0.7812 0.7666
1372.909500 0.7520 0.7374 0.7281 0.7268 0.7257
1377.928647 0.7250 0.7333 0.7549 0.7776 0.8003
1382.947794 0.8223 0.8375 0.8423 0.8457 0.8476
1387.966941 0.8491 0.8503 0.8513 0.8521 0.8527
1392.986088 0.8529 0.8530 0.8530 0.8530 0.8531
1398.005235 0.8532 0.8534 0.8535 0.8535 0.8534
1403.024382 0.8532 0.8526 0.8518 0.8503 0.8483
1408.043529 0.8455 0.8412 0.8354 0.8300 0.8232
1413.062676 0.8156 0.8099 0.8095 0.8090 0.8085
1418.081824 0.8078 0.8072 0.8067 0.8062 0.8056
1423.100971 0.8051 0.8044 0.8037 0.8029 0.8013
1428.120118 0.7991 0.8151 0.8268 0.8385 0.8500
1433.139265 0.8589 0.8623 0.8635 0.8639 0.8636
1438.158412 0.8632 0.8622 0.8608 0.8594 0.8581
1443.177559 0.8567 0.8553 0.8538 0.8523 0.8499
1448.196706 0.8470 0.8426 0.8385 0.8368 0.8352
1453.215853 0.8339 0.8345 0.8350 0.8357 0.8365
1458.235000 0.8373 0.8380 0.8387 0.8376 0.8357
1463.254147 0.8333 0.8310 0.8288 0.8266 0.8245
1468.273294 0.8223 0.8201 0.8177 0.8152 0.8125
1473.292441 0.8096 0.8065 0.8034 0.8003 0.7971
1478.311588 0.7939 0.7906 0.7873 0.7840 0.7807
1483.330735 0.7757 0.7705 0.7651 0.7593 0.7532
1488.349882 0.7471 0.7398 0.7320 0.7242 0.7164
1493.369029 0.7086 0.7008 0.6927 0.6904 0.6902
1498.388176 0.6929 0.7270 0.7708 0.8100 0.8188
1503.407324 0.8178 0.8197 0.8164 0.8051 0.7870
1508.426471 0.7670 0.7470 0.7270 0.7138 0.7090
1513.445618 0.7068 0.7052 0.7040 0.7027 0.7013
1518.464765 0.6766 0.6383 0.5989 0.5596 0.5203
1523.483912 0.4809 0.4416 0.4023 0.3629 0.3334
1528.503059 0.3195 0.3109 0.3026 0.2971 0.2934
1533.522206 0.2912 0.2902 0.2898 0.2889 0.2893
1538.541353 0.3077 0.3456 0.3887 0.4317 0.4747
1543.560500 0.5178 0.5486 0.5659 0.5771 0.5847
1548.579647 0.5920 0.5994 0.6672 0.7408 0.7546
1553.598794 0.7668 0.7798 0.7925 0.8030 0.8114
1558.617941 0.8179 0.8223 0.8242 0.8252 0.8256
1563.637088 0.8261 0.8262 0.8260 0.8261 0.8257
1568.656235 0.8251 0.8243 0.8232 0.8217 0.8193
1573.675382 0.8165 0.8131 0.8094 0.8050 0.7947
1578.694529 0.7754 0.7561 0.7368 0.7186 0.7084
1583.713676 0.7098 0.7171 0.7392 0.7631 0.7869
1588.732824 0.8107 0.8342 0.8506 0.8505 0.8503
1593.751971 0.8498 0.8485 0.8425 0.8283 0.8147
1598.771118 0.8011 0.7876 0.7740 0.7604 0.7493
1603.790265 0.7471 0.7468 0.7461 0.7516 0.7603
1608.809412 0.7692 0.7768 0.7788 0.7790 0.7800
1613.828559 0.7760 0.7707 0.7564 0.7461 0.7383
1618.847706 0.7333 0.7290 0.7261 0.7232 0.7203
1623.866853 0.7172 0.7139 0.7092 0.7026 0.6898
1628.886000 0.6434 0.6073 0.5476 0.4879 0.4282
1633.905147 0.3686 0.3089 0.2493 0.1914 0.1746
1638.924294 0.1723 0.1715 0.1740 0.1742 0.1950
1643.943441 0.2322 0.2695 0.3067 0.3440 0.3812
1648.962588 0.4184 0.4557 0.4929 0.5302 0.5674
1653.981735 0.5800 0.5891 0.6014 0.6183 0.6345
1659.000882 0.6500 0.6666 0.6842 0.7021 0.7183
1664.020029 0.7305 0.7380 0.7931 0.8101 0.8174
1669.039176 0.8242 0.8274 0.8301 0.8327 0.8354
1674.058324 0.8380 0.8407 0.8433 0.8460 0.8487
1679.077471 0.8516 0.8544 0.8560 0.8571 0.8581
1684.096618 0.8592 0.8592 0.8590 0.8588 0.8581
1689.115765 0.8581 0.8577 0.8571 0.8556 0.8540
1694.134912 0.8517 0.8475 0.8426 0.8374 0.8320
1699.154059 0.8260 0.8197 0.8143 0.8094 0.8045
1704.173206 0.7993 0.7925 0.7825 0.7712 0.7588
1709.192353 0.7456 0.7356 0.7271 0.7162 0.6836
1714.211500 0.6372 0.5893 0.5414 0.4934 0.4461
1719.230647 0.4278 0.4275 0.4265 0.4279 0.4316
1724.249794 0.4361 0.4603 0.4891 0.5114 0.5336
1729.268941 0.5560 0.5783 0.6006 0.6229 0.6364
1734.288088 0.6390 0.6389 0.6395 0.6299 0.6125
1739.307235 0.5969 0.5813 0.5657 0.5501 0.5345
1744.326382 0.5190 0.5034 0.4877 0.4722 0.4566
1749.345529 0.4482 0.4482 0.4477 0.4802 0.5408
1754.364676 0.5839 0.6270 0.6702 0.7133 0.7564
1759.383824 0.7995 0.8367 0.8556 0.8635 0.8725
1764.402971 0.8755 0.8785 0.8814 0.8844 0.8874
1769.422118 0.8903 0.8933 0.8962 0.8994 0.9029
1774.441265 0.9064 0.9099 0.9140 0.9190 0.9241
1779.460412 0.9284 0.9314 0.9341 0.9367 0.9390
1784.479559 0.9407 0.9422 0.9435 0.9442 0.9448
1789.498706 0.9454 0.9460 0.9463 0.9465 0.9468
1794.517853 0.9470 0.9472 0.9475 0.9478 0.9481
1799.537000 0.9485 0.9488 0.9492 0.9495 0.9499
1804.556147 0.9503 0.9507 0.9511 0.9515 0.9520
1809.575294 0.9524 0.9528 0.9533 0.9538 0.9546
1814.594441 0.9553 0.9560 0.9567 0.9575 0.9582
1819.613588 0.9590 0.9598 0.9606 0.9614 0.9622
1824.632735 0.9630 0.9638 0.9646 0.9653 0.9659
1829.651882 0.9665 0.9671 0.9678 0.9684 0.9690
1834.671029 0.9696 0.9702 0.9706 0.9710 0.9715
1839.690176 0.9719 0.9723 0.9727 0.9731 0.9733
1844.709324 0.9734 0.9734 0.9734 0.9734 0.9733
1849.728471 0.9733 0.9733 0.9733 0.9733 0.9733
1854.747618 0.9733 0.9733 0.9733 0.9733 0.9733
1859.766765 0.9732 0.9732 0.9732 0.9732 0.9732
1864.785912 0.9732 0.9732 0.9731 0.9729 0.9728
1869.805059 0.9726 0.9725 0.9723 0.9721 0.9720
1874.824206 0.9718 0.9717 0.9714 0.9708 0.9701
1879.843353 0.9693 0.9686 0.9678 0.9673 0.9670
1884.862500 0.9668 0.9666 0.9664 0.9661 0.9659
1889.881647 0.9657 0.9656 0.9657 0.9659 0.9661
1894.900794 0.9662 0.9664 0.9666 0.9668 0.9671
1899.919941 0.9676 0.9680 0.9684 0.9689 0.9694
1904.939088 0.9700 0.9707 0.9714 0.9720 0.9727
1909.958235 0.9734 0.9739 0.9743 0.9746 0.9749
1914.977382 0.9752 0.9755 0.9757 0.9757 0.9758
1919.996529 0.9758 0.9758 0.9759 0.9759 0.9760
1925.015676 0.9760 0.9761 0.9762 0.9762 0.9763
1930.034824 0.9763 0.9764 0.9764 0.9765 0.9767
1935.053971 0.9770 0.9773 0.9776 0.9779 0.9782
1940.073118 0.9785 0.9787 0.9790 0.9792 0.9792
1945.092265 0.9792 0.9793 0.9793 0.9793 0.9793
1950.111412 0.9794 0.9792 0.9778 0.9766 0.9787
1955.130559 0.9785 0.9783 0.9781 0.9779 0.9778
1960.149706 0.9776 0.9774 0.9772 0.9770 0.9769
1965.168853 0.9767 0.9766 0.9767 0.9768 0.9769
1970.188000 0.9770 0.9770 0.9771 0.9773 0.9775
1975.207147 0.9776 0.9778 0.9779 0.9781 0.9782
1980.226294 0.9782 0.9783 0.9784 0.9785 0.9786
1985.245441 0.9787 0.9787 0.9788 0.9789 0.9790
1990.264588 0.9791 0.9792 0.9792 0.9793 0.9793
1995.283735 0.9794 0.9794 0.9794 0.9794 0.9795
2000.302882 0.9795 0.9795 0.9796 0.9796 0.9796
2005.322029 0.9796 0.9797 0.9797 0.9797 0.9797
2010.341176 0.9797 0.9796 0.9796 0.9795 0.9795
2015.360324 0.9795 0.9794 0.9794 0.9793 0.9793
2020.379471 0.9793 0.9792 0.9792 0.9791 0.9791
2025.398618 0.9791 0.9790 0.9790 0.9790 0.9790
2030.417765 0.9790 0.9790 0.9790 0.9790 0.9790
2035.436912 0.9790 0.9790 0.9790 0.9790 0.9789
2040.456059 0.9789 0.9789 0.9789 0.9789 0.9789
2045.475206 0.9789 0.9789 0.9789 0.9789 0.9789
2050.494353 0.9789 0.9789 0.9789 0.9789 0.9790
2055.513500 0.9790 0.9790 0.9791 0.9791 0.9792
2060.532647 0.9792 0.9793 0.9793 0.9793 0.9794
2065.551794 0.9794 0.9795 0.9795 0.9795 0.9796
2070.570941 0.9796 0.9797 0.9797 0.9797 0.9798
2075.590088 0.9798 0.9799 0.9799 0.9799 0.9800
2080.609235 0.9800 0.9800 0.9800 0.9800 0.9799
2085.628382 0.9799 0.9799 0.9799 0.9799 0.9798
2090.647529 0.9798 0.9798 0.9798 0.9798 0.9798
2095.666676 0.9797 0.9797 0.9797 0.9797 0.9797
2100.685824 0.9796 0.9796 0.9796 0.9796 0.9796
2105.704971 0.9796 0.9795 0.9795 0.9794 0.9793
2110.724118 0.9793 0.9792 0.9791 0.9790 0.9790
2115.743265 0.9789 0.9788 0.9788 0.9787 0.9786
2120.762412 0.9786 0.9785 0.9784 0.9783 0.9783
2125.781559 0.9782 0.9781 0.9781 0.9780 0.9779
2130.800706 0.9778 0.9778 0.9777 0.9776 0.9776
2135.819853 0.9775 0.9774 0.9773 0.9773 0.9772
2140.839000 0.9773 0.9774 0.9775 0.9775 0.9776
2145.858147 0.9777 0.9778 0.9779 0.9780 0.9780
2150.877294 0.9781 0.9782 0.9783 0.9784 0.9785
2155.896441 0.9785 0.9786 0.9787 0.9788 0.9789
2160.915588 0.9790 0.9790 0.9791 0.9792 0.9793
2165.934735 0.9794 0.9795 0.9795 0.9796 0.9797
2170.953882 0.9798 0.9799 0.9800 0.9800 0.9801
2175.973029 0.9802 0.9803 0.9804 0.9805 0.9805
2180.992176 0.9806 0.9807 0.9807 0.9807 0.9807
2186.011324 0.9807 0.9806 0.9806 0.9806 0.9806
2191.030471 0.9806 0.9806 0.9806 0.9805 0.9805
2196.049618 0.9805 0.9805 0.9805 0.9805 0.9805
2201.068765 0.9805 0.9803 0.9801 0.9799 0.9797
2206.087912 0.9794 0.9792 0.9789 0.9787 0.9785
2211.107059 0.9782 0.9780 0.9777 0.9775 0.9772
2216.126206 0.9770 0.9768 0.9765 0.9763 0.9760
2221.145353 0.9758 0.9756 0.9753 0.9752 0.9750
2226.164500 0.9748 0.9746 0.9745 0.9743 0.9741
2231.183647 0.9740 0.9738 0.9736 0.9734 0.9733
2236.202794 0.9731 0.9729 0.9727 0.9726 0.9724
2241.221941 0.9723 0.9722 0.9721 0.9720 0.9719
2246.241088 0.9718 0.9717 0.9716 0.9715 0.9714
2251.260235 0.9713 0.9711 0.9710 0.9709 0.9708
2256.279382 0.9707 0.9706 0.9705 0.9704 0.9703
2261.298529 0.9702 0.9701 0.9700 0.9699 0.9698
2266.317676 0.9697 0.9696 0.9695 0.9694 0.9693
2271.336824 0.9691 0.9688 0.9685 0.9682 0.9680
2276.355971 0.9677 0.9674 0.9671 0.9668 0.9665
2281.375118 0.9663 0.9660 0.9657 0.9654 0.9651
2286.394265 0.9648 0.9646 0.9643 0.9639 0.9634
2291.413412 0.9629 0.9623 0.9618 0.9612 0.9607
2296.432559 0.9602 0.9596 0.9591 0.9585 0.9581
2301.451706 0.9577 0.9573 0.9569 0.9565 0.9561
2306.470853 0.9557 0.9553 0.9549 0.9546 0.9543
2311.490000 0.9543 0.9544 0.9544 0.9545 0.9545
2316.509147 0.9546 0.9546 0.9547 0.9547 0.9548
2321.528294 0.9548 0.9549 0.9549 0.9550 0.9550
2326.547441 0.9550 0.9549 0.9548 0.9548 0.9547
2331.566588 0.9546 0.9546 0.9545 0.9544 0.9544
2336.585735 0.9543 0.9542 0.9542 0.9541 0.9540
2341.604882 0.9540 0.9539 0.9538 0.9537 0.9536
2346.624029 0.9535 0.9534 0.9533 0.9532 0.9531
2351.643176 0.9530 0.9529 0.9528 0.9527 0.9526
2356.662324 0.9525 0.9524 0.9525 0.9530 0.9534
2361.681471 0.9538 0.9542 0.9546 0.9550 0.9554
2366.700618 0.9558 0.9563 0.9571 0.9579 0.9588
2371.719765 0.9598 0.9610 0.9620 0.9625 0.9629
2376.738912 0.9634 0.9638 0.9643 0.9647 0.9652
2381.758059 0.9653 0.9653 0.9653 0.9654 0.9653
2386.777206 0.9652 0.9651 0.9650 0.9649 0.9648
2391.796353 0.9647 0.9646 0.9646 0.9645 0.9644
2396.815500 0.9643 0.9642 0.9641 0.9640 0.9639
2401.834647 0.9638 0.9637 0.9636 0.9635 0.9634
2406.853794 0.9633 0.9632 0.9630 0.9629 0.9628
2411.872941 0.9627 0.9625 0.9624 0.9623 0.9621
2416.892088 0.9620 0.9618 0.9615 0.9611 0.9606
2421.911235 0.9602 0.9597 0.9592 0.9588 0.9583
2426.930382 0.9579 0.9574 0.9570 0.9564 0.9557
2431.949529 0.9549 0.9541 0.9533 0.9528 0.9527
2436.968676 0.9526 0.9526 0.9525 0.9524 0.9524
2441.987824 0.9523 0.9522 0.9522 0.9523 0.9523
2447.006971 0.9524 0.9524 0.9525 0.9525 0.9526
2452.026118 0.9527 0.9527 0.9528 0.9528 0.9529
2457.045265 0.9529 0.9530 0.9531 0.9533 0.9534
2462.064412 0.9535 0.9536 0.9537 0.9538 0.9540
2467.083559 0.9541 0.9542 0.9543 0.9544 0.9545
2472.102706 0.9546 0.9548 0.9549 0.9550 0.9550
2477.121853 0.9551 0.9551 0.9551 0.9551 0.9552
2482.141000 0.9552 0.9552 0.9553 0.9553 0.9553
2487.160147 0.9553 0.9554 0.9554 0.9554 0.9554
2492.179294 0.9555 0.9555 0.9555 0.9555 0.9556
2497.198441 0.9556 0.9556 0.9556 0.9557 0.9557
2502.217588 0.9557 0.9558 0.9558 0.9558 0.9558
2507.236735 0.9559 0.9559 0.9559 0.9559 0.9560
2512.255882 0.9560 0.9560 0.9560 0.9561 0.9561
2517.275029 0.9561 0.9561 0.9562 0.9562 0.9562
2522.294176 0.9563 0.9563 0.9563 0.9563 0.9563
2527.313324 0.9563 0.9563 0.9563 0.9564 0.9564
2532.332471 0.9564 0.9564 0.9564 0.9564 0.9564
2537.351618 0.9564 0.9564 0.9564 0.9564 0.9565
2542.370765 0.9565 0.9565 0.9565 0.9565 0.9565
2547.389912 0.9565 0.9565 0.9564 0.9564 0.9563
2552.409059 0.9563 0.9562 0.9562 0.9561 0.9561
2557.428206 0.9561 0.9560 0.9560 0.9559 0.9559
2562.447353 0.9558 0.9558 0.9558 0.9557 0.9557
2567.466500 0.9556 0.9556 0.9555 0.9554 0.9553
2572.485647 0.9552 0.9551 0.9550 0.9549 0.9547
2577.504794 0.9546 0.9545 0.9544 0.9543 0.9542
2582.523941 0.9540 0.9539 0.9538 0.9537 0.9536
2587.543088 0.9535 0.9533 0.9531 0.9529 0.9527
2592.562235 0.9524 0.9522 0.9520 0.9517 0.9515
2597.581382 0.9513 0.9510 0.9508 0.9507 0.9504
2602.600529 0.9502 0.9499 0.9497 0.9495 0.9493
2607.619676 0.9490 0.9487 0.9486 0.9484 0.9482
2612.638824 0.9481 0.9481 0.9480 0.9479 0.9478
2617.657971 0.9477 0.9477 0.9476 0.9475 0.9474
2622.677118 0.9473 0.9473 0.9472 0.9471 0.9470
2627.696265 0.9469 0.9469 0.9468 0.9467 0.9467
2632.715412 0.9467 0.9467 0.9466 0.9466 0.9466
2637.734559 0.9465 0.9465 0.9465 0.9465 0.9464
2642.753706 0.9464 0.9464 0.9464 0.9463 0.9461
2647.772853 0.9460 0.9458 0.9457 0.9456 0.9454
2652.792000 0.9453 0.9451 0.9450 0.9449 0.9447
2657.811147 0.9446 0.9444 0.9443 0.9442 0.9440
2662.830294 0.9438 0.9437 0.9435 0.9433 0.9431
2667.849441 0.9429 0.9428 0.9426 0.9424 0.9422
2672.868588 0.9420 0.9420 0.9420 0.9421 0.9422
2677.887735 0.9422 0.9423 0.9424 0.9424 0.9425
2682.906882 0.9426 0.9429 0.9432 0.9435 0.9438
2687.926029 0.9442 0.9445 0.9448 0.9451 0.9455
2692.945176 0.9458 0.9462 0.9465 0.9469 0.9472
2697.964324 0.9474 0.9475 0.9476 0.9477 0.9478
2702.983471 0.9477 0.9472 0.9468 0.9463 0.9459
2708.002618 0.9454 0.9450 0.9445 0.9441 0.9436
2713.021765 0.9432 0.9427 0.9423 0.9418 0.9414
2718.040912 0.9410 0.9406 0.9403 0.9399 0.9395
2723.060059 0.9391 0.9387 0.9384 0.9380 0.9376
2728.079206 0.9372 0.9368 0.9366 0.9364 0.9362
2733.098353 0.9360 0.9358 0.9356 0.9355 0.9353
2738.117500 0.9351 0.9349 0.9347 0.9345 0.9343
2743.136647 0.9341 0.9339 0.9337 0.9336 0.9334
2748.155794 0.9332 0.9330 0.9329 0.9328 0.9326
2753.174941 0.9325 0.9324 0.9322 0.9321 0.9320
2758.194088 0.9318 0.9317 0.9316 0.9314 0.9313
2763.213235 0.9311 0.9310 0.9309 0.9307 0.9306
2768.232382 0.9305 0.9303 0.9302 0.9301 0.9298
2773.251529 0.9294 0.9286 0.9278 0.9270 0.9262
2778.270676 0.9254 0.9246 0.9238 0.9230 0.9222
2783.289824 0.9213 0.9206 0.9200 0.9193 0.9187
2788.308971 0.9180 0.9174 0.9167 0.9161 0.9159
2793.328118 0.9157 0.9154 0.9152 0.9150 0.9148
2798.347265 0.9146 0.9144 0.9142 0.9141 0.9139
2803.366412 0.9138 0.9137 0.9135 0.9134 0.9133
2808.385559 0.9131 0.9130 0.9129 0.9129 0.9129
2813.404706 0.9129 0.9128 0.9128 0.9128 0.9128
2818.423853 0.9128 0.9127 0.9126 0.9124 0.9122
2823.443000 0.9121 0.9119 0.9117 0.9116 0.9112
2828.462147 0.9104 0.9095 0.9085 0.9076 0.9066
2833.481294 0.9057 0.9046 0.9034 0.9020 0.9007
2838.500441 0.8995 0.8988 0.8982 0.8976 0.8970
2843.519588 0.8969 0.8977 0.8994 0.9010 0.9025
2848.538735 0.9039 0.9050 0.9056 0.9059 0.9060
2853.557882 0.9059 0.9059 0.9057 0.9053 0.9049
2858.577029 0.9046 0.9042 0.9038 0.9032 0.9026
2863.596176 0.9020 0.9014 0.9007 0.9001 0.8995
2868.615324 0.8989 0.8981 0.8971 0.8960 0.8948
2873.634471 0.8937 0.8926 0.8914 0.8903 0.8891
2878.653618 0.8880 0.8868 0.8857 0.8846 0.8834
2883.672765 0.8823 0.8812 0.8800 0.8789 0.8777
2888.691912 0.8766 0.8755 0.8743 0.8732 0.8720
2893.711059 0.8709 0.8698 0.8686 0.8673 0.8660
2898.730206 0.8646 0.8633 0.8620 0.8608 0.8598
2903.749353 0.8589 0.8580 0.8571 0.8566 0.8568
2908.768500 0.8569 0.8571 0.8572 0.8574 0.8576
2913.787647 0.8582 0.8588 0.8594 0.8600 0.8606
2918.806794 0.8612 0.8618 0.8624 0.8630 0.8636
2923.825941 0.8642 0.8647 0.8653 0.8659 0.8664
2928.845088 0.8670 0.8672 0.8674 0.8675 0.8674
2933.864235 0.8671 0.8668 0.8661 0.8654 0.8647
2938.883382 0.8640 0.8633 0.8627 0.8619 0.8609
2943.902529 0.8598 0.8588 0.8577 0.8567 0.8557
2948.921676 0.8546 0.8536 0.8526 0.8515 0.8504
2953.940824 0.8493 0.8482 0.8471 0.8459 0.8448
2958.959971 0.8437 0.8426 0.8415 0.8405 0.8395
2963.979118 0.8385 0.8375 0.8365 0.8356 0.8349
2968.998265 0.8342 0.8336 0.8331 0.8331 0.8327
2974.017412 0.8333 0.8356 0.8382 0.8418 0.8465
2979.036559 0.8524 0.8569 0.8606 0.8628 0.8651
2984.055706 0.8673 0.8691 0.8709 0.8726 0.8744
2989.074853 0.8760 0.8776 0.8792 0.8808 0.8822
2994.094000 0.8834 0.8845 0.8857 0.8867 0.8871
2999.113147 0.8874 0.8876 0.8880 0.8888 0.8881
3004.132294 0.8880 0.8879 0.8878 0.8878 0.8877
3009.151441 0.8876 0.8875 0.8874 0.8874 0.8873
3014.170588 0.8872 0.8872 0.8872 0.8872 0.8871
3019.189735 0.8871 0.8871 0.8871 0.8870 0.8870
3024.208882 0.8869 0.8868 0.8868 0.8867 0.8866
3029.228029 0.8866 0.8864 0.8861 0.8858 0.8854
3034.247176 0.8850 0.8839 0.8825 0.8811 0.8797
3039.266324 0.8783 0.8771 0.8759 0.8747 0.8736
3044.285471 0.8724 0.8716 0.8713 0.8709 0.8706
3049.304618 0.8704 0.8705 0.8706 0.8708 0.8709
3054.323765 0.8711 0.8713 0.8716 0.8717 0.8720
3059.342912 0.8723 0.8726 0.8728 0.8731 0.8734
3064.362059 0.8739 0.8746 0.8753 0.8760 0.8769
3069.381206 0.8782 0.8800 0.8815 0.8830 0.8844
3074.400353 0.8859 0.8873 0.8887 0.8901 0.8914
3079.419500 0.8926 0.8938 0.8950 0.8963 0.8974
3084.438647 0.8983 0.8992 0.9000 0.9008 0.9016
3089.457794 0.9025 0.9033 0.9041 0.9048 0.9053
3094.476941 0.9057 0.9062 0.9066 0.9070 0.9074
3099.496088 0.9077 0.9077 0.9077 0.9077 0.9076
3104.515235 0.9094 0.9092 0.9074 0.9074 0.9073
3109.534382 0.9072 0.9072 0.9071 0.9070 0.9070
3114.553529 0.9069 0.9069 0.9069 0.9069 0.9068
3119.572676 0.9068 0.9068 0.9067 0.9066 0.9066
3124.591824 0.9065 0.9064 0.9063 0.9063 0.9062
3129.610971 0.9058 0.9053 0.9048 0.9043 0.9038
3134.630118 0.9033 0.9029 0.9021 0.9010 0.8998
3139.649265 0.8986 0.8974 0.8963 0.8953 0.8942
3144.668412 0.8932 0.8922 0.8912 0.8902 0.8892
3149.687559 0.8882 0.8872 0.8863 0.8853 0.8843
3154.706706 0.8833 0.8824 0.8814 0.8804 0.8794
3159.725853 0.8784 0.8775 0.8765 0.8757 0.8748
3164.745000 0.8740 0.8731 0.8723 0.8715 0.8706
3169.764147 0.8698 0.8689 0.8681 0.8672 0.8664
3174.783294 0.8655 0.8647 0.8639 0.8632 0.8624
3179.802441 0.8617 0.8610 0.8603 0.8595 0.8588
3184.821588 0.8581 0.8574 0.8567 0.8560 0.8552
3189.840735 0.8545 0.8538 0.8528 0.8517 0.8506
3194.859882 0.8496 0.8485 0.8473 0.8455 0.8436
3199.879029 0.8416 0.8397 0.8378 0.8358 0.8341
3204.898176 0.8323 0.8305 0.8288 0.8270 0.8252
3209.917324 0.8231 0.8205 0.8179 0.8154 0.8125
3214.936471 0.8084 0.8042 0.7999 0.7938 0.7875
3219.955618 0.7813 0.7753 0.7694 0.7635 0.7580
3224.974765 0.7528 0.7478 0.7428 0.7377 0.7327
3229.993912 0.7284 0.7244 0.7203 0.7162 0.7121
3235.013059 0.7074 0.7025 0.6975 0.6926 0.6876
3240.032206 0.6826 0.6777 0.6728 0.6679 0.6630
3245.051353 0.6580 0.6530 0.6481 0.6432 0.6382
3250.070500 0.6333 0.6283 0.6234 0.6186 0.6142
3255.089647 0.6102 0.6062 0.6023 0.5984 0.5944
3260.108794 0.5903 0.5861 0.5819 0.5778 0.5738
3265.127941 0.5700 0.5662 0.5624 0.5585 0.5553
3270.147088 0.5526 0.5499 0.5473 0.5454 0.5440
3275.166235 0.5426 0.5411 0.5397 0.5384 0.5382
3280.185382 0.5382 0.5383 0.5383 0.5383 0.5383
3285.204529 0.5378 0.5362 0.5385 0.5387 0.5388
3290.223676 0.5389 0.5391 0.5392 0.5394 0.5397
3295.242824 0.5401 0.5406 0.5413 0.5420 0.5437
3300.261971 0.5468 0.5500 0.5529 0.5561 0.5602
3305.281118 0.5644 0.5682 0.5718 0.5749 0.5775
3310.300265 0.5809 0.5861 0.5914 0.5964 0.6008
3315.319412 0.6046 0.6096 0.6170 0.6243 0.6305
3320.338559 0.6363 0.6410 0.6450 0.6490 0.6534
3325.357706 0.6591 0.6654 0.6718 0.6783 0.6848
3330.376853 0.6912 0.6976 0.7031 0.7066 0.7097
3335.396000 0.7128 0.7168 0.7220 0.7271 0.7322
3340.415147 0.7373 0.7424 0.7476 0.7526 0.7577
3345.434294 0.7624 0.7664 0.7701 0.7736 0.7767
3350.453441 0.7795 0.7822 0.7850 0.7876 0.7898
3355.472588 0.7918 0.7939 0.7960 0.7979 0.7995
3360.491735 0.8007 0.8019 0.8032 0.8044 0.8057
3365.510882 0.8069 0.8081 0.8093 0.8103 0.8111
3370.530029 0.8119 0.8127 0.8134 0.8142 0.8150
3375.549176 0.8157 0.8165 0.8173 0.8180 0.8187
3380.568324 0.8193 0.8198 0.8204 0.8210 0.8216
3385.587471 0.8221 0.8227 0.8232 0.8238 0.8242
3390.606618 0.8245 0.8249 0.8253 0.8256 0.8260
3395.625765 0.8264 0.8268 0.8272 0.8275 0.8279
3400.644912 0.8282 0.8285 0.8287 0.8290 0.8292
3405.664059 0.8295 0.8297 0.8299 0.8302 0.8305
3410.683206 0.8309 0.8313 0.8317 0.8321 0.8325
3415.702353 0.8329 0.8333 0.8337 0.8341 0.8346
3420.721500 0.8353 0.8359 0.8366 0.8372 0.8379
3425.740647 0.8385 0.8392 0.8398 0.8405 0.8414
3430.759794 0.8425 0.8436 0.8447 0.8459 0.8467
3435.778941 0.8471 0.8474 0.8478 0.8481 0.8485
3440.798088 0.8488 0.8491 0.8494 0.8496 0.8499
3445.817235 0.8502 0.8504 0.8507 0.8510 0.8512
3450.836382 0.8516 0.8519 0.8523 0.8528 0.8532
3455.855529 0.8536 0.8540 0.8544 0.8548 0.8552
3460.874676 0.8558 0.8564 0.8571 0.8577 0.8583
3465.893824 0.8589 0.8595 0.8601 0.8608 0.8614
3470.912971 0.8617 0.8621 0.8625 0.8629 0.8631
3475.932118 0.8633 0.8635 0.8637 0.8638 0.8640
3480.951265 0.8642 0.8644 0.8646 0.8650 0.8655
3485.970412 0.8660 0.8664 0.8669 0.8674 0.8681
3490.989559 0.8688 0.8695 0.8702 0.8708 0.8715
3496.008706 0.8724 0.8734 0.8744 0.8754 0.8764
3501.027853 0.8774 0.8788 0.8801 0.8815 0.8828
3506.047000 0.8840 0.8852 0.8863 0.8874 0.8885
3511.066147 0.8892 0.8897 0.8902 0.8907 0.8912
3516.085294 0.8917 0.8922 0.8927 0.8930 0.8934
3521.104441 0.8937 0.8941 0.8944 0.8947 0.8951
3526.123588 0.8954 0.8958 0.8962 0.8966 0.8970
3531.142735 0.8974 0.8978 0.8983 0.8987 0.8991
3536.161882 0.8995 0.8999 0.9003 0.9007 0.9010
3541.181029 0.9013 0.9016 0.9020 0.9023 0.9026
3546.200176 0.9029 0.9032 0.9036 0.9039 0.9042
3551.219324 0.9045 0.9048 0.9051 0.9054 0.9057
3556.238471 0.9060 0.9063 0.9066 0.9070 0.9073
3561.257618 0.9076 0.9079 0.9084 0.9089 0.9093
3566.276765 0.9098 0.9103 0.9108 0.9113 0.9118
3571.295912 0.9122 0.9127 0.9133 0.9140 0.9148
3576.315059 0.9156 0.9164 0.9172 0.9180 0.9187
3581.334206 0.9195 0.9203 0.9210 0.9217 0.9225
3586.353353 0.9232 0.9240 0.9247 0.9254 0.9262
3591.372500 0.9269 0.9276 0.9284 0.9291 0.9298
3596.391647 0.9305 0.9312 0.9319 0.9325 0.9332
3601.410794 0.9339 0.9345 0.9352 0.9359 0.9366
3606.429941 0.9372 0.9379 0.9386 0.9392 0.9397
3611.449088 0.9401 0.9406 0.9411 0.9415 0.9420
3616.468235 0.9424 0.9429 0.9434 0.9438 0.9443
3621.487382 0.9448 0.9452 0.9457 0.9460 0.9464
3626.506529 0.9468 0.9472 0.9476 0.9479 0.9483
3631.525676 0.9487 0.9491 0.9494 0.9498 0.9501
3636.544824 0.9504 0.9506 0.9509 0.9511 0.9514
3641.563971 0.9517 0.9519 0.9522 0.9525 0.9527
3646.583118 0.9529 0.9531 0.9532 0.9534 0.9535
3651.602265 0.9537 0.9538 0.9540 0.9541 0.9542
3656.621412 0.9544 0.9545 0.9547 0.9548 0.9549
3661.640559 0.9551 0.9552 0.9554 0.9554 0.9555
3666.659706 0.9555 0.9556 0.9557 0.9557 0.9558
3671.678853 0.9558 0.9559 0.9559 0.9560 0.9560
3676.698000 0.9561 0.9561 0.9562 0.9562 0.9562
3681.717147 0.9562 0.9563 0.9563 0.9563 0.9564
3686.736294 0.9564 0.9564 0.9564 0.9565 0.9565
3691.755441 0.9565 0.9565 0.9566 0.9567 0.9567
3696.774588 0.9568 0.9568 0.9569 0.9570 0.9570
3701.793735 0.9571 0.9572 0.9572 0.9574 0.9575
3706.812882 0.9577 0.9578 0.9580 0.9582 0.9583
3711.832029 0.9585 0.9586 0.9588 0.9589 0.9590
3716.851176 0.9591 0.9592 0.9593 0.9594 0.9596
3721.870324 0.9597 0.9598 0.9599 0.9600 0.9601
3726.889471 0.9602 0.9602 0.9601 0.9601 0.9601
3731.908618 0.9600 0.9600 0.9600 0.9600 0.9599
3736.927765 0.9599 0.9599 0.9598 0.9598 0.9598
3741.946912 0.9597 0.9597 0.9597 0.9596 0.9596
3746.966059 0.9596 0.9596 0.9597 0.9597 0.9598
3751.985206 0.9599 0.9599 0.9600 0.9600 0.9601
3757.004353 0.9602 0.9602 0.9603 0.9603 0.9604
3762.023500 0.9604 0.9605 0.9606 0.9606 0.9607
3767.042647 0.9607 0.9608 0.9609 0.9609 0.9610
3772.061794 0.9611 0.9612 0.9614 0.9616 0.9618
3777.080941 0.9619 0.9621 0.9623 0.9624 0.9626
3782.100088 0.9628 0.9630 0.9631 0.9633 0.9635
3787.119235 0.9636 0.9638 0.9640 0.9641 0.9643
3792.138382 0.9645 0.9647 0.9647 0.9646 0.9645
3797.157529 0.9644 0.9642 0.9641 0.9640 0.9639
3802.176676 0.9638 0.9636 0.9635 0.9634 0.9633
3807.195824 0.9631 0.9630 0.9629 0.9627 0.9625
3812.214971 0.9623 0.9620 0.9618 0.9616 0.9614
3817.234118 0.9612 0.9609 0.9607 0.9605 0.9603
3822.253265 0.9600 0.9597 0.9595 0.9593 0.9591
3827.272412 0.9588 0.9586 0.9584 0.9581 0.9579
3832.291559 0.9577 0.9574 0.9572 0.9569 0.9567
3837.310706 0.9565 0.9562 0.9560 0.9559 0.9557
3842.329853 0.9556 0.9554 0.9553 0.9551 0.9550
3847.349000 0.9548 0.9547 0.9545 0.9544 0.9542
3852.368147 0.9541 0.9541 0.9542 0.9544 0.9545
3857.387294 0.9547 0.9548 0.9551 0.9557 0.9565
3862.406441 0.9573 0.9581 0.9589 0.9597 0.9605
3867.425588 0.9613 0.9621 0.9628 0.9635 0.9642
3872.444735 0.9650 0.9657 0.9664 0.9670 0.9673
3877.463882 0.9674 0.9674 0.9673 0.9668 0.9659
3882.483029 0.9649 0.9640 0.9631 0.9622 0.9613
3887.502176 0.9603 0.9594 0.9585 0.9579 0.9578
3892.521324 0.9579 0.9579 0.9580 0.9581 0.9582
3897.540471 0.9584 0.9586 0.9588 0.9590 0.9592
3902.559618 0.9594 0.9596 0.9598 0.9600 0.9603
3907.578765 0.9605 0.9607 0.9609 0.9611 0.9614
3912.597912 0.9616 0.9618 0.9620 0.9623 0.9625
3917.617059 0.9628 0.9630 0.9633 0.9635 0.9638
3922.636206 0.9640 0.9643 0.9645 0.9647 0.9647
3927.655353 0.9647 0.9648 0.9648 0.9648 0.9649
3932.674500 0.9649 0.9649 0.9648 0.9647 0.9646
3937.693647 0.9645 0.9644 0.9643 0.9642 0.9641
3942.712794 0.9640 0.9639 0.9638 0.9636 0.9635
3947.731941 0.9654 0.9639 0.9630 0.9629 0.9628
3952.751088 0.9626 0.9624 0.9623 0.9624 0.9625
3957.770235 0.9625 0.9626 0.9627 0.9628 0.9631
3962.789382 0.9636 0.9641 0.9646 0.9650 0.9655
3967.808529 0.9660 0.9665 0.9670 0.9673 0.9675
3972.827676 0.9678 0.9681 0.9684 0.9683 0.9683
3977.846824 0.9683 0.9682 0.9682 0.9681 0.9680
3982.865971 0.9679 0.9678 0.9677 0.9676 0.9675
3987.885118 0.9674 0.9673 0.9672 0.9671 0.9670
3992.904265 0.9669 0.9667 0.9664 0.9661 0.9658
3997.923412 0.9655 0.9652 0.9649 0.9646 0.9643
4002.942559 0.9640 0.9638 0.9635 0.9633 0.9631
4007.961706 0.9626 0.9616 0.9606 0.9596 0.9586
4012.980853 0.9576 0.9566 0.9556 0.9546 0.9544
##END=
