##TITLE=SODIUM o-TOLIDINEDIAZO-BIS(NAPHTHYLAMINE-SULFONATE)
##JCAMP-DX=4.24
##DATA TYPE=INFRARED SPECTRUM
##CLASS=COBLENTZ
##ORIGIN=WYANDOTTE CHEMICALS CORP., WYANDOTTE, MICHIGAN, USA
##OWNER=COBLENTZ SOCIETY
Collection (C) 2018 copyright by the U.S. Secretary of Commerce
on behalf of the United States of America. All rights reserved.
##DATE=Not specified, most likely prior to 1970
##NAMES=BENZOPURPURIN 4B
##MOLFORM=C34 H26 N6 O6 S2 Na2
##SOURCE REFERENCE=COBLENTZ NO. 3837
##$NIST ID=B6003837
##$NIST SOURCE=COBLENTZ
##$NIST IMAGE=cob3837
##SPECTROMETER/DATA SYSTEM=Not specified, most likely a prism, grating, or hybrid spectrometer.
##STATE=SOLID (MINERAL OIL MULL)
##PATH LENGTH=
$$SPECTRAL CONTAMINATION DUE TO OIL AROUND 2900 CM^-^1
##SAMPLING PROCEDURE=TRANSMISSION
##RESOLUTION=4
##DATA PROCESSING=DIGITIZED BY NIST FROM HARD COPY
##XUNITS=MICROMETERS
##YUNITS=TRANSMITTANCE
##XFACTOR=1.000000
##YFACTOR=1
##DELTAX=000.006200
##FIRSTX=2.012
##LASTX=16.0002
##FIRSTY=0.385
##MAXX=16.0002
##MINX=2.012
##MAXY=1
##MINY=0.045
##NPOINTS=2257
##XYDATA=(X++(Y..Y))
2.012000 0.3850 0.3880 0.3910 0.3910 0.3940
2.043015 0.3950 0.3970 0.4000 0.4060 0.4080
2.074000 0.4080 0.4080 0.4090 0.4090 0.4090
2.105015 0.4090 0.4110 0.4140 0.4160 0.4190
2.136000 0.4220 0.4280 0.4280 0.4310 0.4310
2.167015 0.4330 0.4330 0.4310 0.4300 0.4280
2.198000 0.4280 0.4250 0.4250 0.4230 0.4220
2.229015 0.4220 0.4200 0.4200 0.4170 0.4170
2.260000 0.4160 0.4160 0.4160 0.4170 0.4160
2.291015 0.4160 0.4160 0.4140 0.4140 0.4140
2.322000 0.4140 0.4160 0.4160 0.4170 0.4190
2.353015 0.4200 0.4220 0.4250 0.4270 0.4270
2.384000 0.4270 0.4250 0.4220 0.4200 0.4200
2.415015 0.4200 0.4200 0.4220 0.4220 0.4230
2.446000 0.4250 0.4270 0.4310 0.4340 0.4340
2.477015 0.4280 0.4250 0.4270 0.4280 0.4330
2.508000 0.4360 0.4390 0.4450 0.4480 0.4530
2.539015 0.4540 0.4590 0.4620 0.4640 0.4680
2.570000 0.4750 0.4790 0.4790 0.4810 0.4810
2.601015 0.4790 0.4760 0.4760 0.4780 0.4790
2.632000 0.4810 0.4840 0.4900 0.4950 0.5010
2.663015 0.5040 0.5040 0.5120 0.5130 0.5150
2.694000 0.5130 0.5090 0.5040 0.5010 0.4980
2.725015 0.4950 0.4870 0.4780 0.4720 0.4620
2.756000 0.4540 0.4450 0.4370 0.4270 0.4130
2.787015 0.3970 0.3810 0.3660 0.3500 0.3350
2.818000 0.3220 0.3100 0.3010 0.2930 0.2880
2.849015 0.2680 0.2590 0.2480 0.2400 0.2340
2.880000 0.2280 0.2220 0.2140 0.2080 0.2030
2.911015 0.1970 0.1940 0.1900 0.1870 0.1860
2.942000 0.1810 0.1770 0.1700 0.1670 0.1640
2.973015 0.1640 0.1630 0.1610 0.1580 0.1550
3.004000 0.1530 0.1500 0.1490 0.1470 0.1450
3.035015 0.1450 0.1450 0.1440 0.1440 0.1440
3.066000 0.1440 0.1440 0.1450 0.1450 0.1450
3.097015 0.1470 0.1490 0.1500 0.1530 0.1550
3.128000 0.1560 0.1580 0.1580 0.1580 0.1580
3.159015 0.1580 0.1590 0.1590 0.1610 0.1630
3.190000 0.1670 0.1700 0.1720 0.1730 0.1730
3.221015 0.1730 0.1730 0.1730 0.1770 0.1770
3.252000 0.1800 0.1830 0.1870 0.1890 0.1900
3.283015 0.1920 0.1940 0.1920 0.1900 0.1870
3.314000 0.1840 0.1770 0.1670 0.1550 0.1280
3.345015 0.1160 0.0990 0.0850 0.0830 0.0770
3.376000 0.0740 0.0720 0.0710 0.0650 0.0630
3.407015 0.0630 0.0630 0.0630 0.0650 0.0650
3.438000 0.0650 0.0650 0.0650 0.0660 0.0660
3.469015 0.0660 0.0660 0.0660 0.0660 0.0660
3.500000 0.0660 0.0660 0.0660 0.0680 0.0680
3.531015 0.0770 0.0990 0.1330 0.1500 0.1800
3.562000 0.2060 0.2340 0.2620 0.2810 0.3010
3.593015 0.3210 0.3430 0.3710 0.3860 0.3990
3.624000 0.4110 0.4160 0.4270 0.4300 0.4340
3.655015 0.4370 0.4390 0.4390 0.4390 0.4400
3.686000 0.4440 0.4470 0.4480 0.4500 0.4560
3.717015 0.4590 0.4620 0.4670 0.4750 0.4790
3.748000 0.4810 0.4840 0.4870 0.4890 0.4900
3.779015 0.4900 0.4920 0.4920 0.4950 0.5000
3.810000 0.5090 0.5130 0.5150 0.5170 0.5180
3.841015 0.5180 0.5180 0.5170 0.5170 0.5180
3.872000 0.5200 0.5210 0.5240 0.5270 0.5290
3.903015 0.5310 0.5320 0.5340 0.5380 0.5400
3.934000 0.5410 0.5450 0.5480 0.5510 0.5590
3.965015 0.5630 0.5660 0.5680 0.5690 0.5720
3.996000 0.5770 0.5800 0.5860 0.5930 0.5990
4.027015 0.5990 0.6000 0.6020 0.6050 0.6050
4.058000 0.6070 0.6050 0.6040 0.6020 0.5990
4.089015 0.5990 0.5970 0.5960 0.5940 0.5940
4.120000 0.5970 0.6020 0.6020 0.6040 0.6040
4.151015 0.6020 0.6020 0.6020 0.5990 0.5990
4.182000 0.5990 0.5990 0.6020 0.6050 0.6050
4.213015 0.6050 0.6070 0.6080 0.6110 0.6110
4.244000 0.6110 0.6080 0.6070 0.6020 0.5990
4.275015 0.5970 0.5970 0.6020 0.6070 0.6080
4.306000 0.6100 0.6110 0.6190 0.6220 0.6280
4.337015 0.6360 0.6410 0.6470 0.6560 0.6630
4.368000 0.6750 0.6800 0.6810 0.6840 0.6890
4.399015 0.6980 0.7000 0.7000 0.7000 0.7000
4.430000 0.7000 0.6980 0.6900 0.6890 0.6870
4.461015 0.6840 0.6830 0.6830 0.6810 0.6810
4.492000 0.6810 0.6840 0.6890 0.6890 0.6900
4.523015 0.6900 0.6900 0.6920 0.6920 0.6950
4.554000 0.6950 0.6970 0.6970 0.6970 0.6980
4.585015 0.6980 0.7000 0.7010 0.7030 0.7030
4.616000 0.7030 0.7030 0.7040 0.7060 0.7090
4.647015 0.7090 0.7140 0.7150 0.7170 0.7200
4.678000 0.7230 0.7250 0.7260 0.7260 0.7280
4.709015 0.7290 0.7310 0.7360 0.7390 0.7400
4.740000 0.7450 0.7450 0.7460 0.7460 0.7480
4.771015 0.7500 0.7510 0.7570 0.7590 0.7620
4.802000 0.7630 0.7650 0.7650 0.7670 0.7670
4.833015 0.7680 0.7680 0.7700 0.7700 0.7710
4.864000 0.7730 0.7740 0.7760 0.7790 0.7810
4.895015 0.7850 0.7880 0.7900 0.7910 0.7960
4.926000 0.7980 0.7990 0.8010 0.8040 0.8070
4.957015 0.8090 0.8070 0.8070 0.8070 0.8090
4.988000 0.8090 0.8100 0.8120 0.8130 0.8150
5.019015 0.8160 0.8180 0.8190 0.8210 0.8240
5.050000 0.8270 0.8290 0.8300 0.8330 0.8360
5.081015 0.8380 0.8380 0.8410 0.8470 0.8520
5.112000 0.8570 0.8580 0.8580 0.8600 0.8610
5.143015 0.8610 0.8610 0.8610 0.8630 0.8640
5.174000 0.8640 0.8660 0.8660 0.8660 0.8660
5.205015 0.8660 0.8660 0.8660 0.8660 0.8660
5.236000 0.8660 0.8660 0.8680 0.8680 0.8690
5.267015 0.8710 0.8720 0.8720 0.8750 0.8770
5.298000 0.8780 0.8780 0.8770 0.8780 0.8780
5.329015 0.8800 0.8800 0.8810 0.8850 0.8910
5.360000 0.8990 0.9080 0.9090 0.9110 0.9140
5.391015 0.9190 0.9250 0.9280 0.9300 0.9330
5.422000 0.9330 0.9300 0.9300 0.9280 0.9250
5.453015 0.9250 0.9250 0.9250 0.9250 0.9250
5.484000 0.9300 0.9280 0.9200 0.9200 0.9190
5.515015 0.9220 0.9370 0.9440 0.9480 0.9480
5.547000 0.9510 0.9560 0.9580 0.9580 0.9610
5.578015 0.9620 0.9620 0.9620 0.9620 0.9640
5.609000 0.9670 0.9730 0.9870 0.9900 0.9920
5.640015 0.9920 0.9920 0.9890 0.9890 0.9890
5.671000 0.9900 0.9900 1.0000 1.0000 0.9980
5.702015 0.9930 0.9860 0.9790 0.9720 0.9560
5.733000 0.9500 0.9390 0.9200 0.9060 0.8410
5.764015 0.8400 0.8350 0.8330 0.8320 0.8220
5.795000 0.8150 0.8020 0.7880 0.7810 0.7810
5.826015 0.7900 0.8020 0.8070 0.8090 0.8090
5.857000 0.8050 0.8050 0.8070 0.8100 0.8120
5.888015 0.8160 0.8270 0.8300 0.8300 0.8220
5.919000 0.8130 0.8040 0.8010 0.7990 0.7960
5.950015 0.7930 0.7870 0.7630 0.7600 0.7600
5.981000 0.7530 0.7420 0.7260 0.7110 0.6970
6.012015 0.6810 0.6660 0.6470 0.6310 0.6310
6.043000 0.6310 0.6310 0.6270 0.6100 0.5960
6.074015 0.5720 0.5520 0.5400 0.5370 0.5350
6.105000 0.5290 0.5130 0.4960 0.4760 0.4650
6.136015 0.4450 0.4130 0.3600 0.3290 0.2840
6.167000 0.2570 0.2180 0.1980 0.1830 0.1810
6.198015 0.1810 0.1830 0.1840 0.1940 0.2000
6.229000 0.1940 0.1870 0.1720 0.1690 0.1690
6.260015 0.1700 0.1840 0.2000 0.2150 0.2320
6.291000 0.2480 0.2700 0.2700 0.3290 0.3500
6.322015 0.3630 0.3750 0.3940 0.4000 0.4080
6.353000 0.4130 0.4170 0.4170 0.4200 0.4220
6.384015 0.4220 0.4190 0.4170 0.4060 0.3890
6.415000 0.3880 0.3860 0.3880 0.3880 0.3920
6.446015 0.3950 0.4000 0.4220 0.4500 0.4580
6.477000 0.4980 0.5270 0.5460 0.5680 0.5880
6.508015 0.5990 0.6040 0.6110 0.6160 0.6180
6.539000 0.6190 0.6220 0.6270 0.6330 0.6350
6.570015 0.6210 0.6080 0.5970 0.5860 0.5760
6.601000 0.5540 0.5520 0.5320 0.5290 0.5030
6.632015 0.4650 0.4560 0.4560 0.4650 0.4790
6.663000 0.4930 0.5070 0.5130 0.5170 0.5200
6.694015 0.5260 0.5260 0.5210 0.5000 0.4790
6.725000 0.4360 0.4200 0.4020 0.3830 0.3630
6.756015 0.3610 0.3290 0.3010 0.2450 0.2040
6.787000 0.1860 0.1520 0.1210 0.1070 0.0930
6.818015 0.0910 0.0910 0.0910 0.0910 0.0900
6.849000 0.0860 0.0790 0.0710 0.0710 0.0760
6.880015 0.0800 0.0910 0.1050 0.1160 0.1310
6.911000 0.1490 0.1640 0.1800 0.1970 0.2140
6.942015 0.2360 0.2600 0.2900 0.3150 0.3350
6.973000 0.3520 0.3640 0.3990 0.3990 0.3920
7.004015 0.3880 0.3780 0.3780 0.3830 0.4030
7.035000 0.4280 0.4360 0.4510 0.4650 0.4790
7.066015 0.5260 0.5290 0.5310 0.5320 0.5320
7.097000 0.5320 0.5310 0.5270 0.5240 0.5090
7.128015 0.5090 0.5070 0.4920 0.4700 0.4560
7.159000 0.4390 0.4140 0.3890 0.3540 0.3350
7.190015 0.3190 0.2840 0.2560 0.2200 0.1970
7.221000 0.1770 0.1530 0.1280 0.1140 0.1020
7.252015 0.0960 0.0930 0.0910 0.0910 0.0940
7.283000 0.1050 0.1130 0.1210 0.1280 0.1350
7.314015 0.1440 0.1520 0.1630 0.1730 0.1870
7.345000 0.2040 0.2230 0.2430 0.2560 0.2810
7.376015 0.3090 0.3290 0.3490 0.3630 0.4030
7.407000 0.4330 0.4470 0.4620 0.4750 0.4930
7.438015 0.5040 0.5170 0.5290 0.5350 0.5430
7.469000 0.5490 0.5600 0.5760 0.5860 0.5960
7.500015 0.5970 0.6040 0.6110 0.6210 0.6330
7.531000 0.6470 0.6530 0.6580 0.6610 0.6640
7.562015 0.6690 0.6730 0.6810 0.6890 0.6980
7.593000 0.7010 0.7010 0.7010 0.7000 0.6950
7.624015 0.6940 0.6860 0.6780 0.6730 0.6700
7.655000 0.6640 0.6530 0.6530 0.6470 0.6470
7.686015 0.6450 0.6450 0.6420 0.6350 0.6300
7.717000 0.6300 0.6360 0.6390 0.6410 0.6470
7.748015 0.6490 0.6520 0.6550 0.6580 0.6670
7.779000 0.6720 0.6770 0.6840 0.6870 0.6900
7.810015 0.6950 0.6870 0.6800 0.6780 0.6730
7.841000 0.6630 0.6410 0.6410 0.6240 0.6130
7.872015 0.6050 0.5970 0.5900 0.5860 0.5740
7.903000 0.5590 0.5350 0.5130 0.4960 0.4900
7.934015 0.4900 0.4920 0.5060 0.5320 0.5590
7.965000 0.5740 0.5910 0.6040 0.6050 0.6070
7.996015 0.5970 0.5830 0.5660 0.5480 0.5230
8.027000 0.4920 0.4810 0.4590 0.4390 0.4020
8.058015 0.3890 0.3640 0.3500 0.3410 0.3260
8.089000 0.3130 0.2790 0.2740 0.2710 0.2670
8.120015 0.2630 0.2600 0.2600 0.2590 0.2590
8.151000 0.2600 0.2600 0.2600 0.2590 0.2590
8.182015 0.2600 0.2600 0.2600 0.2620 0.2620
8.213000 0.2600 0.2620 0.2620 0.2630 0.2650
8.244015 0.2650 0.2650 0.2630 0.2620 0.2570
8.275000 0.2530 0.2480 0.2400 0.2310 0.2180
8.306015 0.2040 0.1980 0.1890 0.1840 0.1700
8.337000 0.1700 0.1660 0.1590 0.1520 0.1450
8.368015 0.1300 0.1280 0.1250 0.1190 0.1140
8.399000 0.1070 0.1020 0.0990 0.0940 0.0930
8.430015 0.0940 0.0960 0.0970 0.0970 0.0970
8.461000 0.0960 0.0960 0.0930 0.0910 0.0910
8.492015 0.0930 0.0970 0.0970 0.0930 0.0910
8.523000 0.0910 0.0910 0.0910 0.0910 0.0910
8.554015 0.0910 0.0910 0.0910 0.0930 0.0930
8.585000 0.0930 0.0940 0.0940 0.0940 0.0940
8.616015 0.0960 0.0970 0.1000 0.1040 0.1070
8.647000 0.1160 0.1180 0.1210 0.1280 0.1310
8.678015 0.1380 0.1390 0.1410 0.1470 0.1520
8.709000 0.1580 0.1640 0.1720 0.1800 0.1860
8.740015 0.1920 0.1940 0.1970 0.2000 0.2010
8.771000 0.2080 0.2120 0.2170 0.2200 0.2200
8.802015 0.2230 0.2230 0.2250 0.2280 0.2280
8.833000 0.2290 0.2310 0.2320 0.2340 0.2290
8.864015 0.2230 0.2120 0.2090 0.2010 0.1920
8.895000 0.1830 0.1830 0.1810 0.1810 0.1830
8.926015 0.1870 0.1870 0.1900 0.1940 0.1970
8.957000 0.1980 0.1970 0.1920 0.1890 0.1890
8.988015 0.1900 0.1940 0.2010 0.2080 0.2150
9.019000 0.2220 0.2280 0.2360 0.2450 0.2530
9.050015 0.2650 0.2790 0.2840 0.2900 0.2980
9.081000 0.3010 0.3010 0.3020 0.3050 0.3070
9.112015 0.3050 0.3040 0.2990 0.2980 0.2910
9.143000 0.2840 0.2810 0.2790 0.2760 0.2710
9.174015 0.2670 0.2650 0.2670 0.2670 0.2710
9.205000 0.2730 0.2700 0.2700 0.2710 0.2710
9.236015 0.2710 0.2730 0.2740 0.2790 0.2870
9.267000 0.2960 0.2980 0.3010 0.3090 0.3130
9.298015 0.3180 0.3240 0.3290 0.3290 0.3470
9.329000 0.3540 0.3600 0.3630 0.3640 0.3660
9.360015 0.3680 0.3690 0.3710 0.3720 0.3720
9.391000 0.3690 0.3630 0.3550 0.3440 0.3270
9.422015 0.3050 0.2960 0.2590 0.2570 0.2400
9.453000 0.2110 0.1970 0.1780 0.1610 0.1470
9.484015 0.1280 0.1190 0.1100 0.1000 0.0910
9.515000 0.0820 0.0760 0.0690 0.0600 0.0600
9.546015 0.0550 0.0540 0.0520 0.0510 0.0490
9.577000 0.0480 0.0460 0.0460 0.0450 0.0450
9.608015 0.0450 0.0450 0.0450 0.0450 0.0450
9.639000 0.0460 0.0510 0.0540 0.0550 0.0570
9.670015 0.0590 0.0600 0.0620 0.0650 0.0690
9.701000 0.0760 0.0800 0.0850 0.0900 0.0910
9.732015 0.0930 0.0970 0.0970 0.1020 0.1110
9.763000 0.1190 0.1270 0.1280 0.1280 0.1310
9.794015 0.1360 0.1390 0.1440 0.1500 0.1530
9.825000 0.1550 0.1580 0.1630 0.1700 0.1830
9.856015 0.1900 0.1920 0.1950 0.1980 0.2010
9.887000 0.2080 0.2120 0.2170 0.2170 0.2200
9.918015 0.2200 0.2230 0.2310 0.2370 0.2450
9.949000 0.2510 0.2540 0.2560 0.2560 0.2670
9.980015 0.2730 0.2770 0.2810 0.2850 0.2910
10.011000 0.2950 0.2960 0.2980 0.2990 0.3040
10.042015 0.3090 0.3120 0.3150 0.3210 0.3300
10.073000 0.3320 0.3330 0.3330 0.3320 0.3330
10.104015 0.3410 0.3470 0.3540 0.3540 0.3580
10.135000 0.3600 0.3660 0.3720 0.3770 0.3810
10.166015 0.3860 0.3940 0.4020 0.4090 0.4140
10.197000 0.4170 0.4220 0.4270 0.4330 0.4420
10.228015 0.4450 0.4470 0.4500 0.4510 0.4560
10.259000 0.4610 0.4640 0.4700 0.4750 0.4780
10.290015 0.4790 0.4810 0.4860 0.4950 0.5000
10.321000 0.5010 0.5010 0.5010 0.5030 0.5040
10.352015 0.5060 0.5070 0.5070 0.5070 0.5090
10.383000 0.5100 0.5130 0.5170 0.5200 0.5210
10.414015 0.5240 0.5260 0.5290 0.5320 0.5380
10.445000 0.5410 0.5460 0.5510 0.5590 0.5620
10.476015 0.5630 0.5630 0.5690 0.5720 0.5770
10.507000 0.5790 0.5800 0.5820 0.5820 0.5830
10.538015 0.5850 0.5880 0.5880 0.5900 0.5900
10.569000 0.5900 0.5860 0.5850 0.5820 0.5740
10.600015 0.5710 0.5710 0.5720 0.5740 0.5790
10.631000 0.5850 0.5940 0.6040 0.6160 0.6310
10.662015 0.6390 0.6490 0.6500 0.6560 0.6630
10.693000 0.6660 0.6690 0.6700 0.6780 0.6870
10.724015 0.6900 0.6890 0.6890 0.6890 0.6900
10.755000 0.6900 0.6890 0.6840 0.6870 0.6920
10.786015 0.6980 0.7040 0.7080 0.7120 0.7120
10.817000 0.7140 0.7140 0.7140 0.7120 0.7120
10.848015 0.7110 0.7030 0.6970 0.6890 0.6860
10.879000 0.6830 0.6810 0.6800 0.6810 0.6870
10.910015 0.6890 0.6970 0.7140 0.7230 0.7450
10.941000 0.7600 0.7730 0.7840 0.7870 0.7950
10.972015 0.8040 0.8120 0.8190 0.8270 0.8350
11.003000 0.8440 0.8520 0.8600 0.8680 0.8740
11.034015 0.8810 0.8890 0.8950 0.9020 0.9080
11.065000 0.9090 0.9110 0.9130 0.9140 0.9170
11.096015 0.9230 0.9300 0.9330 0.9370 0.9400
11.127000 0.9420 0.9420 0.9420 0.9420 0.9440
11.158015 0.9440 0.9420 0.9360 0.9330 0.9330
11.189000 0.9330 0.9340 0.9340 0.9340 0.9330
11.220015 0.9310 0.9280 0.9250 0.9190 0.9060
11.251000 0.8970 0.8880 0.8830 0.8780 0.8750
11.282015 0.8680 0.8610 0.8490 0.8350 0.8210
11.313000 0.8070 0.7960 0.7850 0.7670 0.7560
11.344015 0.7450 0.7320 0.7200 0.7030 0.6950
11.375000 0.6860 0.6720 0.6610 0.6550 0.6490
11.406015 0.6280 0.6180 0.6160 0.6110 0.6050
11.437000 0.6040 0.6040 0.6050 0.6070 0.6110
11.468015 0.6220 0.6330 0.6420 0.6490 0.6520
11.499000 0.6580 0.6630 0.6670 0.6670 0.6690
11.530015 0.6690 0.6690 0.6700 0.6700 0.6730
11.561000 0.6770 0.6800 0.6870 0.6980 0.7090
11.592015 0.7200 0.7260 0.7320 0.7370 0.7500
11.623000 0.7590 0.7620 0.7650 0.7680 0.7700
11.654015 0.7710 0.7740 0.7760 0.7810 0.7880
11.685000 0.7960 0.8100 0.8180 0.8210 0.8240
11.716015 0.8290 0.8320 0.8400 0.8460 0.8470
11.747000 0.8490 0.8490 0.8500 0.8520 0.8550
11.778015 0.8610 0.8640 0.8660 0.8680 0.8690
11.809000 0.8720 0.8750 0.8780 0.8800 0.8810
11.840015 0.8880 0.8910 0.8940 0.8940 0.8950
11.871000 0.8950 0.8950 0.8940 0.8940 0.8920
11.902015 0.8910 0.8910 0.8890 0.8860 0.8810
11.933000 0.8750 0.8660 0.8610 0.8580 0.8550
11.964015 0.8520 0.8490 0.8430 0.8320 0.8210
11.995000 0.8100 0.7980 0.7840 0.7630 0.7560
12.026015 0.7390 0.7200 0.7010 0.6870 0.6800
12.057000 0.6720 0.6670 0.6630 0.6590 0.6590
12.088015 0.6580 0.6560 0.6560 0.6580 0.6590
12.119000 0.6610 0.6630 0.6640 0.6670 0.6690
12.150015 0.6670 0.6630 0.6630 0.6610 0.6580
12.181000 0.6530 0.6440 0.6380 0.6350 0.6270
12.212015 0.6210 0.6140 0.6130 0.6140 0.6160
12.243000 0.6180 0.6190 0.6210 0.6240 0.6280
12.274015 0.6350 0.6390 0.6450 0.6520 0.6550
12.305000 0.6560 0.6580 0.6580 0.6580 0.6580
12.336015 0.6580 0.6560 0.6580 0.6590 0.6590
12.367000 0.6590 0.6610 0.6610 0.6610 0.6630
12.398015 0.6660 0.6730 0.6900 0.7030 0.7090
12.429000 0.7200 0.7280 0.7360 0.7480 0.7560
12.460015 0.7700 0.7790 0.7870 0.8010 0.8130
12.491000 0.8180 0.8210 0.8220 0.8260 0.8290
12.522015 0.8320 0.8350 0.8430 0.8500 0.8600
12.553000 0.8690 0.8720 0.8770 0.8770 0.8780
12.584015 0.8800 0.8830 0.8880 0.8910 0.8920
12.615000 0.8910 0.8890 0.8860 0.8860 0.8850
12.646015 0.8850 0.8860 0.8860 0.8810 0.8780
12.677000 0.8720 0.8680 0.8630 0.8550 0.8470
12.708015 0.8400 0.8270 0.8050 0.7900 0.7740
12.739000 0.7480 0.7310 0.7170 0.6950 0.6730
12.770015 0.6530 0.6440 0.6350 0.6250 0.6190
12.801000 0.6160 0.6130 0.6140 0.6210 0.6310
12.832015 0.6500 0.6640 0.6750 0.6860 0.6940
12.863000 0.7030 0.7110 0.7200 0.7290 0.7400
12.894015 0.7500 0.7570 0.7630 0.7670 0.7700
12.925000 0.7710 0.7740 0.7770 0.7820 0.7840
12.956015 0.7850 0.7870 0.7870 0.7900 0.7910
12.987000 0.7980 0.7990 0.7990 0.7960 0.7930
13.018015 0.7880 0.7840 0.7790 0.7740 0.7710
13.049000 0.7680 0.7620 0.7540 0.7480 0.7420
13.080015 0.7390 0.7340 0.7310 0.7250 0.7140
13.111000 0.6970 0.6920 0.6840 0.6830 0.6580
13.142015 0.6560 0.6390 0.6310 0.6280 0.6180
13.173000 0.6040 0.5970 0.5850 0.5770 0.5620
13.204015 0.5450 0.5230 0.5010 0.4790 0.4480
13.235000 0.4140 0.4000 0.3800 0.3540 0.3380
13.266015 0.3050 0.2900 0.2680 0.2530 0.2370
13.297000 0.2260 0.2150 0.2080 0.2010 0.1970
13.328015 0.1940 0.1920 0.1940 0.1970 0.2010
13.359000 0.2080 0.2180 0.2360 0.2460 0.2650
13.390015 0.2790 0.2880 0.3220 0.3380 0.3540
13.421000 0.3630 0.3710 0.3830 0.3990 0.4090
13.452015 0.4200 0.4310 0.4370 0.4450 0.4500
13.483000 0.4590 0.4640 0.4670 0.4720 0.4790
13.514015 0.4870 0.4900 0.5000 0.5030 0.5070
13.545000 0.5090 0.5070 0.5030 0.5010 0.5010
13.576015 0.5010 0.5010 0.5000 0.5000 0.4930
13.607000 0.4890 0.4810 0.4790 0.4790 0.4760
13.638015 0.4680 0.4620 0.4540 0.4500 0.4450
13.669000 0.4420 0.4420 0.4420 0.4440 0.4450
13.700015 0.4470 0.4500 0.4500 0.4540 0.4580
13.731000 0.4610 0.4650 0.4650 0.4670 0.4670
13.762015 0.4700 0.4730 0.4790 0.4860 0.4890
13.793000 0.4900 0.4930 0.4980 0.5030 0.5100
13.824015 0.5100 0.5130 0.5170 0.5200 0.5260
13.855000 0.5310 0.5370 0.5370 0.5370 0.5370
13.886015 0.5380 0.5380 0.5400 0.5410 0.5410
13.917000 0.5410 0.5430 0.5450 0.5480 0.5510
13.948015 0.5520 0.5550 0.5570 0.5600 0.5630
13.979000 0.5710 0.5800 0.5820 0.5830 0.5820
14.010015 0.5800 0.5790 0.5770 0.5770 0.5800
14.041000 0.5800 0.5800 0.5790 0.5740 0.5690
14.072015 0.5680 0.5680 0.5680 0.5720 0.5790
14.103000 0.5770 0.5760 0.5740 0.5710 0.5720
14.134015 0.5690 0.5660 0.5650 0.5650 0.5650
14.165000 0.5680 0.5650 0.5600 0.5570 0.5520
14.196015 0.5510 0.5510 0.5460 0.5430 0.5410
14.227000 0.5410 0.5370 0.5320 0.5260 0.5230
14.258015 0.5200 0.5170 0.5130 0.5060 0.5010
14.289000 0.5000 0.4960 0.4930 0.4920 0.4900
14.320015 0.4900 0.4920 0.4930 0.4960 0.5000
14.351000 0.5040 0.5120 0.5180 0.5240 0.5270
14.382015 0.5270 0.5290 0.5310 0.5340 0.5380
14.413000 0.5410 0.5450 0.5460 0.5460 0.5450
14.444015 0.5450 0.5450 0.5430 0.5410 0.5380
14.475000 0.5320 0.5210 0.5100 0.5040 0.4980
14.506015 0.4930 0.4840 0.4760 0.4680 0.4610
14.537000 0.4580 0.4500 0.4400 0.4340 0.4280
14.568015 0.4280 0.4300 0.4330 0.4370 0.4400
14.599000 0.4450 0.4480 0.4530 0.4580 0.4620
14.630015 0.4670 0.4730 0.4780 0.4820 0.4870
14.661000 0.4930 0.4960 0.5000 0.5010 0.5060
14.692015 0.5100 0.5130 0.5200 0.5240 0.5270
14.723000 0.5270 0.5290 0.5290 0.5270 0.5270
14.754015 0.5270 0.5290 0.5290 0.5310 0.5310
14.785000 0.5310 0.5320 0.5320 0.5290 0.5270
14.816015 0.5240 0.5200 0.5130 0.5100 0.5070
14.847000 0.5060 0.5030 0.5010 0.5010 0.4960
14.878015 0.4930 0.4860 0.4790 0.4730 0.4640
14.909000 0.4540 0.4480 0.4470 0.4420 0.4390
14.940015 0.4330 0.4250 0.4220 0.4190 0.4160
14.971000 0.4160 0.4140 0.4130 0.4110 0.4060
15.002015 0.4020 0.3970 0.3940 0.3850 0.3830
15.033000 0.3830 0.3830 0.3850 0.3910 0.3910
15.064015 0.3920 0.3920 0.3940 0.3940 0.3950
15.095000 0.3990 0.4030 0.4090 0.4170 0.4270
15.126015 0.4310 0.4370 0.4420 0.4440 0.4480
15.157000 0.4530 0.4580 0.4610 0.4670 0.4700
15.188015 0.4720 0.4730 0.4760 0.4790 0.4810
15.219000 0.4810 0.4820 0.4820 0.4860 0.4870
15.250015 0.4890 0.4900 0.4930 0.4950 0.4980
15.281000 0.5000 0.5010 0.5030 0.5030 0.5030
15.312015 0.5040 0.5030 0.5030 0.5030 0.5010
15.343000 0.5010 0.5010 0.5010 0.5010 0.5010
15.374015 0.5000 0.4980 0.4980 0.4980 0.4960
15.405000 0.4960 0.4950 0.4930 0.4920 0.4900
15.436015 0.4890 0.4870 0.4860 0.4810 0.4700
15.467000 0.4640 0.4540 0.4470 0.4440 0.4390
15.498015 0.4360 0.4280 0.4170 0.4110 0.4030
15.529000 0.3990 0.3940 0.3890 0.3850 0.3810
15.560015 0.3740 0.3710 0.3660 0.3630 0.3610
15.591000 0.3550 0.3500 0.3490 0.3440 0.3430
15.622015 0.3410 0.3400 0.3400 0.3380 0.3380
15.653000 0.3360 0.3360 0.3350 0.3350 0.3330
15.684015 0.3320 0.3320 0.3320 0.3300 0.3300
15.715000 0.3290 0.3290 0.3290 0.3290 0.3290
15.746015 0.3290 0.3290 0.3270 0.3270 0.3270
15.777000 0.3260 0.3260 0.3260 0.3260 0.3290
15.808015 0.3320 0.3320 0.3320 0.3320 0.3270
15.839000 0.3290 0.3330 0.3360 0.3380 0.3440
15.870015 0.3490 0.3520 0.3540 0.3550 0.3580
15.901000 0.3600 0.3610 0.3630 0.3630 0.3610
15.932015 0.3600 0.3600 0.3610 0.3630 0.3660
15.963000 0.3680 0.3690 0.3740 0.3780 0.3800
15.994015 0.3810 0.3830
##END=
