##TITLE=MONO-2-ETHYL HEXYL SEBACATE
##JCAMP-DX=4.24
##DATA TYPE=INFRARED SPECTRUM
##CLASS=COBLENTZ
##OWNER=COBLENTZ SOCIETY
Collection (C) 2018 copyright by the U.S. Secretary of Commerce
on behalf of the United States of America. All rights reserved.
##DATE=1960
##NAMES=10-[(1-ethylhexyl)oxy]-10-oxodecanoic acid
##MOLFORM=C18 H34 O4
##SOURCE REFERENCE=COBLENTZ NO. 977
##$NIST ID=B6000977
##$NIST SOURCE=COBLENTZ
##$NIST IMAGE=cob977
##SPECTROMETER/DATA SYSTEM=Not specified, most likely a prism, grating, or hybrid spectrometer.
##PATH LENGTH=0.0025 CM
##SAMPLING PROCEDURE=TRANSMISSION
##RESOLUTION=4
##DATA PROCESSING=DIGITIZED BY NIST FROM HARD COPY
##XUNITS=MICROMETERS
##YUNITS=TRANSMITTANCE
##XFACTOR=1.000000
##YFACTOR=1
##DELTAX=000.006633
##FIRSTX=2.033
##LASTX=16.0084
##FIRSTY=1
##MAXX=16.0084
##MINX=2.033
##MAXY=1
##MINY=0.014
##NPOINTS=2108
##XYDATA=(X++(Y..Y))
2.033000 1.0000 1.0000 1.0000 1.0000 1.0000
2.066179 1.0000 1.0000 1.0000 1.0000 0.9980
2.099000 0.9980 0.9980 0.9980 0.9980 0.9960
2.132179 0.9960 0.9960 0.9960 0.9950 0.9950
2.166000 0.9950 0.9950 0.9930 0.9930 0.9930
2.199179 0.9930 0.9910 0.9900 0.9860 0.9850
2.232000 0.9810 0.9800 0.9730 0.9650 0.9550
2.265179 0.9460 0.9360 0.9280 0.9210 0.9180
2.298000 0.9180 0.9180 0.9180 0.9180 0.9180
2.331179 0.9180 0.9160 0.9160 0.9180 0.9180
2.365000 0.9180 0.9200 0.9210 0.9230 0.9250
2.398179 0.9280 0.9300 0.9310 0.9330 0.9350
2.431000 0.9350 0.9350 0.9330 0.9350 0.9350
2.464179 0.9350 0.9380 0.9430 0.9480 0.9530
2.497000 0.9580 0.9610 0.9610 0.9610 0.9610
2.530179 0.9610 0.9630 0.9630 0.9650 0.9650
2.564000 0.9680 0.9710 0.9730 0.9750 0.9760
2.597179 0.9780 0.9810 0.9830 0.9850 0.9850
2.630000 0.9860 0.9860 0.9860 0.9860 0.9860
2.663179 0.9860 0.9860 0.9860 0.9860 0.9860
2.696000 0.9860 0.9860 0.9860 0.9860 0.9860
2.729179 0.9860 0.9860 0.9860 0.9860 0.9830
2.763000 0.9800 0.9750 0.9680 0.9610 0.9580
2.796179 0.9500 0.9460 0.9350 0.9280 0.9110
2.829000 0.8930 0.8730 0.8580 0.8500 0.8460
2.862179 0.8450 0.8380 0.8280 0.8060 0.7880
2.895000 0.7730 0.7580 0.7520 0.7450 0.7330
2.928179 0.7180 0.7020 0.6800 0.6700 0.6620
2.962000 0.6450 0.6100 0.5990 0.5970 0.5900
2.995179 0.5850 0.5790 0.5700 0.5600 0.5490
3.028000 0.5450 0.5420 0.5400 0.5390 0.5320
3.061179 0.5270 0.5190 0.5120 0.5050 0.5050
3.094000 0.5000 0.4990 0.4950 0.4890 0.4850
3.127179 0.4840 0.4840 0.4820 0.4800 0.4770
3.161000 0.4750 0.4750 0.4750 0.4740 0.4700
3.194179 0.4620 0.4540 0.4450 0.4370 0.4300
3.227000 0.4250 0.4200 0.4150 0.4140 0.4140
3.260179 0.4120 0.4100 0.3910 0.3840 0.3770
3.293000 0.3640 0.3570 0.3490 0.2790 0.2610
3.326179 0.2420 0.2070 0.1710 0.1360 0.1010
3.360000 0.0660 0.0290 0.0280 0.0280 0.0260
3.393179 0.0260 0.0240 0.0240 0.0240 0.0240
3.426000 0.0240 0.0240 0.0260 0.0280 0.0280
3.459179 0.0290 0.0310 0.0330 0.0360 0.0380
3.492000 0.0390 0.0460 0.0790 0.1280 0.1840
3.525179 0.2440 0.3670 0.4220 0.4650 0.4970
3.559000 0.5320 0.5440 0.5520 0.5550 0.5620
3.592179 0.5740 0.5790 0.5800 0.5800 0.5800
3.625000 0.5800 0.5800 0.5820 0.5890 0.5900
3.658179 0.5900 0.5900 0.5900 0.5890 0.5820
3.691000 0.5790 0.5770 0.5770 0.5790 0.5850
3.724179 0.5870 0.5940 0.5990 0.6030 0.6080
3.758000 0.6120 0.6170 0.6200 0.6220 0.6230
3.791179 0.6230 0.6230 0.6250 0.6320 0.6420
3.824000 0.6480 0.6550 0.6570 0.6570 0.6570
3.857179 0.6580 0.6600 0.6620 0.6650 0.6680
3.890000 0.6720 0.6730 0.6750 0.6780 0.6850
3.923179 0.6930 0.7000 0.7050 0.7050 0.7080
3.957000 0.7150 0.7230 0.7320 0.7420 0.7620
3.990179 0.7720 0.7780 0.7830 0.7920 0.7970
4.023000 0.7980 0.8000 0.8000 0.8010 0.8010
4.056179 0.8100 0.8200 0.8250 0.8280 0.8300
4.089000 0.8310 0.8310 0.8310 0.8350 0.8430
4.122179 0.8510 0.8550 0.8550 0.8550 0.8550
4.156000 0.8550 0.8580 0.8610 0.8630 0.8630
4.189179 0.8660 0.8660 0.8660 0.8660 0.8660
4.222000 0.8680 0.8710 0.8780 0.8830 0.8930
4.255179 0.8980 0.9010 0.9080 0.9180 0.9230
4.288000 0.9260 0.9280 0.9300 0.9300 0.9300
4.321179 0.9260 0.9200 0.9160 0.9130 0.9110
4.355000 0.9110 0.9110 0.9110 0.9110 0.9110
4.388179 0.9100 0.9100 0.9100 0.9100 0.9100
4.421000 0.9110 0.9110 0.9110 0.9130 0.9130
4.454179 0.9150 0.9150 0.9180 0.9230 0.9250
4.487000 0.9250 0.9250 0.9230 0.9210 0.9180
4.520179 0.9180 0.9200 0.9230 0.9230 0.9210
4.554000 0.9230 0.9230 0.9250 0.9250 0.9260
4.587179 0.9300 0.9300 0.9260 0.9250 0.9230
4.620000 0.9230 0.9230 0.9230 0.9230 0.9280
4.653179 0.9280 0.9280 0.9280 0.9280 0.9280
4.686000 0.9280 0.9280 0.9260 0.9250 0.9210
4.719179 0.9200 0.9210 0.9210 0.9230 0.9230
4.753000 0.9230 0.9230 0.9250 0.9260 0.9280
4.786179 0.9280 0.9280 0.9280 0.9260 0.9250
4.819000 0.9210 0.9200 0.9150 0.9100 0.9080
4.852179 0.9050 0.9050 0.9050 0.9050 0.9050
4.885000 0.9050 0.9050 0.9080 0.9080 0.9130
4.918179 0.9150 0.9160 0.9180 0.9180 0.9180
4.952000 0.9180 0.9180 0.9200 0.9210 0.9200
4.985179 0.9200 0.9200 0.9200 0.9180 0.9160
5.018000 0.9160 0.9150 0.9160 0.9200 0.9180
5.051179 0.9130 0.9030 0.9030 0.9030 0.9060
5.084000 0.9100 0.9100 0.9100 0.9080 0.9080
5.117179 0.9060 0.9060 0.9060 0.9050 0.9050
5.151000 0.9050 0.9050 0.9050 0.9050 0.9050
5.184179 0.9050 0.9050 0.9030 0.9030 0.9030
5.217000 0.9010 0.8980 0.8960 0.8950 0.8950
5.250179 0.8930 0.8930 0.8910 0.8900 0.8900
5.283000 0.8860 0.8830 0.8800 0.8810 0.8810
5.316179 0.8780 0.8730 0.8710 0.8680 0.8600
5.349000 0.8580 0.8550 0.8550 0.8550 0.8560
5.382179 0.8550 0.8500 0.8460 0.8430 0.8410
5.416000 0.8360 0.8260 0.8080 0.7980 0.7920
5.449179 0.7900 0.7900 0.7830 0.7730 0.7630
5.482000 0.7530 0.7500 0.7450 0.7380 0.7380
5.515179 0.7300 0.7130 0.6980 0.6800 0.6620
5.548000 0.6420 0.6250 0.6100 0.5940 0.5740
5.581179 0.5400 0.5090 0.5040 0.4990 0.4940
5.615000 0.4300 0.3640 0.2910 0.2560 0.2210
5.648179 0.1580 0.1140 0.0930 0.0740 0.0580
5.681000 0.0480 0.0340 0.0230 0.0230 0.0230
5.714179 0.0240 0.0240 0.0240 0.0240 0.0230
5.747000 0.0230 0.0230 0.0230 0.0230 0.0230
5.780179 0.0240 0.0280 0.0310 0.0310 0.0290
5.814000 0.0260 0.0240 0.0260 0.0290 0.0360
5.847179 0.0440 0.0580 0.0740 0.0960 0.1230
5.880000 0.1540 0.1930 0.2160 0.2410 0.3040
5.913179 0.3440 0.3860 0.4140 0.4320 0.4470
5.946000 0.4620 0.4770 0.4970 0.5490 0.5670
5.979179 0.5820 0.5950 0.6070 0.6200 0.6350
6.013000 0.6370 0.6470 0.6520 0.6750 0.7000
6.046179 0.7200 0.7270 0.7470 0.7550 0.7670
6.079000 0.7780 0.7880 0.7920 0.7930 0.7930
6.112179 0.7970 0.8030 0.8050 0.8110 0.8180
6.145000 0.8280 0.8310 0.8330 0.8350 0.8360
6.178179 0.8380 0.8400 0.8410 0.8430 0.8430
6.212000 0.8430 0.8430 0.8430 0.8450 0.8460
6.245179 0.8500 0.8510 0.8530 0.8550 0.8560
6.278000 0.8560 0.8560 0.8580 0.8600 0.8600
6.311179 0.8600 0.8610 0.8610 0.8610 0.8610
6.344000 0.8630 0.8650 0.8680 0.8710 0.8730
6.377179 0.8730 0.8730 0.8730 0.8710 0.8700
6.411000 0.8680 0.8660 0.8680 0.8700 0.8730
6.444179 0.8750 0.8750 0.8710 0.8660 0.8650
6.477000 0.8630 0.8630 0.8630 0.8610 0.8560
6.510179 0.8550 0.8530 0.8530 0.8530 0.8510
6.543000 0.8460 0.8400 0.8360 0.8310 0.8300
6.576179 0.8280 0.8260 0.8250 0.8200 0.8080
6.610000 0.7950 0.7900 0.7830 0.7670 0.7550
6.643179 0.7520 0.7470 0.7400 0.7280 0.7080
6.676000 0.6800 0.6370 0.5770 0.5320 0.5070
6.709179 0.4820 0.4440 0.4240 0.3760 0.3090
6.742000 0.2410 0.1730 0.0490 0.0390 0.0390
6.775179 0.0410 0.0480 0.0580 0.0690 0.0810
6.809000 0.0930 0.1080 0.1210 0.1360 0.1490
6.842179 0.1640 0.1780 0.1910 0.2020 0.2120
6.875000 0.2170 0.2210 0.2220 0.2260 0.2340
6.908179 0.2440 0.2620 0.2660 0.2690 0.2690
6.941000 0.2690 0.2690 0.2670 0.2640 0.2560
6.974179 0.2510 0.2460 0.2390 0.2360 0.2270
7.008000 0.2210 0.2190 0.2190 0.2210 0.2240
7.041179 0.2320 0.2420 0.2690 0.2860 0.3020
7.074000 0.3190 0.3320 0.3340 0.3320 0.3210
7.107179 0.3010 0.2840 0.2570 0.2460 0.2340
7.140000 0.2120 0.1990 0.1980 0.1960 0.1960
7.173179 0.1960 0.1940 0.1940 0.1930 0.1940
7.207000 0.1930 0.1930 0.1960 0.2120 0.2240
7.240179 0.2390 0.2820 0.2910 0.2910 0.2890
7.273000 0.2770 0.2620 0.2560 0.2510 0.2460
7.306179 0.2420 0.2360 0.2320 0.2240 0.2210
7.339000 0.2210 0.2210 0.2210 0.2210 0.2210
7.372179 0.2210 0.2220 0.2260 0.2270 0.2290
7.406000 0.2360 0.2420 0.2470 0.2710 0.2740
7.439179 0.2740 0.2740 0.2740 0.2710 0.2710
7.472000 0.2710 0.2670 0.2520 0.2470 0.2420
7.505179 0.2310 0.2240 0.2170 0.2070 0.2040
7.538000 0.1990 0.1980 0.1960 0.1940 0.1890
7.571179 0.1810 0.1740 0.1710 0.1660 0.1610
7.605000 0.1530 0.1460 0.1390 0.1340 0.1330
7.638179 0.1310 0.1290 0.1290 0.1290 0.1290
7.671000 0.1290 0.1280 0.1280 0.1260 0.1240
7.704179 0.1190 0.1160 0.1130 0.1110 0.1080
7.737000 0.1040 0.1030 0.0990 0.0960 0.0940
7.770179 0.0910 0.0880 0.0840 0.0810 0.0790
7.804000 0.0780 0.0760 0.0740 0.0710 0.0690
7.837179 0.0690 0.0680 0.0660 0.0640 0.0640
7.870000 0.0640 0.0640 0.0640 0.0640 0.0630
7.903179 0.0630 0.0630 0.0630 0.0610 0.0580
7.936000 0.0540 0.0510 0.0480 0.0480 0.0460
7.969179 0.0440 0.0430 0.0430 0.0430 0.0410
8.003000 0.0410 0.0390 0.0390 0.0390 0.0390
8.036179 0.0390 0.0390 0.0410 0.0410 0.0430
8.069000 0.0440 0.0440 0.0440 0.0460 0.0480
8.102179 0.0480 0.0480 0.0480 0.0480 0.0480
8.135000 0.0480 0.0490 0.0490 0.0490 0.0490
8.168179 0.0490 0.0490 0.0490 0.0510 0.0510
8.202000 0.0510 0.0510 0.0510 0.0510 0.0510
8.235179 0.0510 0.0510 0.0510 0.0510 0.0490
8.268000 0.0480 0.0460 0.0460 0.0430 0.0390
8.301179 0.0390 0.0380 0.0360 0.0340 0.0330
8.334000 0.0290 0.0280 0.0260 0.0230 0.0230
8.367179 0.0210 0.0180 0.0180 0.0160 0.0160
8.401000 0.0140 0.0140 0.0140 0.0140 0.0140
8.434179 0.0140 0.0140 0.0140 0.0140 0.0140
8.467000 0.0140 0.0140 0.0140 0.0140 0.0140
8.500179 0.0140 0.0140 0.0140 0.0180 0.0180
8.533000 0.0230 0.0280 0.0280 0.0280 0.0280
8.566179 0.0290 0.0290 0.0310 0.0340 0.0390
8.599000 0.0440 0.0510 0.0580 0.0660 0.0730
8.632179 0.0740 0.0780 0.0830 0.0890 0.0980
8.666000 0.1080 0.1160 0.1280 0.1380 0.1460
8.699179 0.1510 0.1540 0.1560 0.1560 0.1560
8.732000 0.1560 0.1540 0.1540 0.1540 0.1540
8.765179 0.1540 0.1540 0.1540 0.1540 0.1530
8.798000 0.1530 0.1530 0.1530 0.1540 0.1590
8.831179 0.1690 0.1910 0.2010 0.2110 0.2210
8.865000 0.2320 0.2420 0.2620 0.2740 0.2820
8.898179 0.2920 0.3010 0.3090 0.3120 0.3110
8.931000 0.3090 0.3020 0.2890 0.2760 0.2620
8.964179 0.2540 0.2520 0.2490 0.2460 0.2420
8.997000 0.2390 0.2340 0.2260 0.2210 0.2210
9.030179 0.2210 0.2210 0.2210 0.2210 0.2210
9.064000 0.2220 0.2290 0.2320 0.2360 0.2420
9.097179 0.2470 0.2490 0.2590 0.2720 0.2910
9.130000 0.3040 0.3160 0.3310 0.3440 0.3570
9.163179 0.3710 0.3840 0.3970 0.4090 0.4190
9.196000 0.4290 0.4370 0.4420 0.4500 0.4540
9.229179 0.4540 0.4540 0.4540 0.4540 0.4540
9.263000 0.4540 0.4540 0.4520 0.4470 0.4440
9.296179 0.4420 0.4400 0.4400 0.4400 0.4400
9.329000 0.4400 0.4400 0.4400 0.4400 0.4420
9.362179 0.4500 0.4590 0.4650 0.4750 0.4840
9.395000 0.4940 0.5070 0.5090 0.5140 0.5190
9.428179 0.5200 0.5200 0.5190 0.5190 0.5140
9.462000 0.5050 0.5020 0.4990 0.4920 0.4920
9.495179 0.4900 0.4900 0.4890 0.4840 0.4750
9.528000 0.4720 0.4550 0.4450 0.4340 0.4290
9.561179 0.4200 0.4120 0.4020 0.3990 0.3940
9.594000 0.3910 0.3890 0.3890 0.3840 0.3810
9.627179 0.3790 0.3770 0.3770 0.3760 0.3760
9.661000 0.3760 0.3770 0.3770 0.3770 0.3770
9.694179 0.3770 0.3770 0.3760 0.3760 0.3770
9.727000 0.3820 0.3860 0.3890 0.3890 0.3890
9.760179 0.3890 0.3890 0.3890 0.3910 0.3910
9.793000 0.3920 0.3920 0.3960 0.3970 0.3990
9.826179 0.4000 0.4020 0.4040 0.4050 0.4070
9.860000 0.4090 0.4140 0.4170 0.4220 0.4270
9.893179 0.4320 0.4340 0.4370 0.4420 0.4470
9.926000 0.4500 0.4500 0.4520 0.4540 0.4600
9.959179 0.4670 0.4690 0.4740 0.4790 0.4840
9.992000 0.4890 0.4940 0.4990 0.4990 0.5000
10.025179 0.5000 0.5000 0.5000 0.5000 0.5000
10.059000 0.4990 0.4970 0.4950 0.4940 0.4920
10.092179 0.4890 0.4890 0.4890 0.4890 0.4890
10.125000 0.4890 0.4890 0.4890 0.4890 0.4900
10.158179 0.4920 0.4940 0.4940 0.4940 0.4940
10.191000 0.4940 0.4900 0.4800 0.4770 0.4750
10.224179 0.4720 0.4670 0.4600 0.4540 0.4490
10.258000 0.4400 0.4350 0.4350 0.4340 0.4320
10.291179 0.4300 0.4290 0.4250 0.4200 0.4150
10.324000 0.4120 0.4090 0.4090 0.4090 0.4090
10.357179 0.4090 0.4070 0.4070 0.4050 0.4050
10.390000 0.4040 0.4040 0.4040 0.4040 0.4040
10.423179 0.4040 0.4040 0.4050 0.4050 0.4050
10.457000 0.4050 0.4050 0.4040 0.4040 0.4040
10.490179 0.4040 0.4040 0.4040 0.4020 0.4020
10.523000 0.4020 0.4040 0.4040 0.4040 0.4040
10.556179 0.4040 0.4040 0.4040 0.4040 0.4050
10.589000 0.4050 0.4050 0.4050 0.4050 0.4050
10.622179 0.4050 0.4050 0.4050 0.4070 0.4150
10.656000 0.4190 0.4220 0.4250 0.4300 0.4300
10.689179 0.4340 0.4390 0.4420 0.4440 0.4450
10.722000 0.4490 0.4500 0.4520 0.4540 0.4550
10.755179 0.4570 0.4600 0.4720 0.4750 0.4800
10.788000 0.4840 0.4870 0.4870 0.4890 0.4890
10.821179 0.4900 0.4920 0.4970 0.5050 0.5120
10.855000 0.5150 0.5150 0.5170 0.5190 0.5190
10.888179 0.5190 0.5190 0.5190 0.5200 0.5220
10.921000 0.5240 0.5250 0.5290 0.5320 0.5340
10.954179 0.5340 0.5320 0.5320 0.5350 0.5350
10.987000 0.5390 0.5420 0.5440 0.5470 0.5500
11.020179 0.5550 0.5550 0.5570 0.5590 0.5590
11.054000 0.5600 0.5620 0.5640 0.5690 0.5740
11.087179 0.5750 0.5770 0.5790 0.5800 0.5820
11.120000 0.5820 0.5840 0.5850 0.5870 0.5890
11.153179 0.5900 0.5920 0.5940 0.5970 0.5990
11.186000 0.5990 0.5990 0.5990 0.6000 0.6020
11.219179 0.6030 0.6080 0.6100 0.6120 0.6120
11.253000 0.6150 0.6200 0.6200 0.6220 0.6220
11.286179 0.6220 0.6220 0.6220 0.6220 0.6220
11.319000 0.6220 0.6230 0.6230 0.6230 0.6230
11.352179 0.6250 0.6280 0.6330 0.6370 0.6370
11.385000 0.6370 0.6370 0.6350 0.6350 0.6350
11.418179 0.6330 0.6330 0.6330 0.6330 0.6330
11.452000 0.6330 0.6330 0.6330 0.6330 0.6330
11.485179 0.6350 0.6350 0.6370 0.6370 0.6370
11.518000 0.6380 0.6400 0.6430 0.6470 0.6480
11.551179 0.6480 0.6500 0.6500 0.6500 0.6530
11.584000 0.6550 0.6580 0.6600 0.6600 0.6600
11.617179 0.6620 0.6630 0.6680 0.6700 0.6730
11.651000 0.6730 0.6750 0.6750 0.6750 0.6750
11.684179 0.6750 0.6750 0.6750 0.6750 0.6750
11.717000 0.6750 0.6750 0.6750 0.6750 0.6750
11.750179 0.6730 0.6730 0.6700 0.6680 0.6680
11.783000 0.6680 0.6670 0.6670 0.6680 0.6680
11.816179 0.6680 0.6680 0.6700 0.6700 0.6700
11.849000 0.6700 0.6700 0.6680 0.6680 0.6680
11.882179 0.6680 0.6680 0.6700 0.6720 0.6720
11.916000 0.6720 0.6730 0.6720 0.6720 0.6720
11.949179 0.6720 0.6700 0.6700 0.6700 0.6700
11.982000 0.6700 0.6700 0.6700 0.6700 0.6720
12.015179 0.6720 0.6720 0.6720 0.6720 0.6700
12.048000 0.6700 0.6700 0.6680 0.6680 0.6680
12.081179 0.6700 0.6700 0.6700 0.6700 0.6700
12.115000 0.6720 0.6720 0.6730 0.6750 0.6750
12.148179 0.6770 0.6780 0.6820 0.6820 0.6820
12.181000 0.6830 0.6820 0.6800 0.6780 0.6780
12.214179 0.6770 0.6730 0.6720 0.6720 0.6720
12.247000 0.6720 0.6720 0.6720 0.6720 0.6720
12.280179 0.6720 0.6720 0.6720 0.6720 0.6720
12.314000 0.6720 0.6720 0.6720 0.6720 0.6720
12.347179 0.6720 0.6720 0.6700 0.6700 0.6700
12.380000 0.6700 0.6720 0.6720 0.6720 0.6720
12.413179 0.6720 0.6730 0.6730 0.6730 0.6730
12.446000 0.6730 0.6750 0.6750 0.6750 0.6750
12.479179 0.6730 0.6730 0.6720 0.6720 0.6720
12.513000 0.6680 0.6630 0.6600 0.6570 0.6530
12.546179 0.6520 0.6500 0.6500 0.6500 0.6500
12.579000 0.6480 0.6480 0.6470 0.6470 0.6450
12.612179 0.6420 0.6400 0.6370 0.6350 0.6330
12.645000 0.6320 0.6300 0.6280 0.6280 0.6270
12.678179 0.6220 0.6220 0.6180 0.6180 0.6170
12.712000 0.6150 0.6150 0.6130 0.6130 0.6120
12.745179 0.6120 0.6120 0.6120 0.6120 0.6120
12.778000 0.6120 0.6100 0.6080 0.6030 0.6000
12.811179 0.5990 0.5970 0.5950 0.5900 0.5850
12.844000 0.5850 0.5840 0.5840 0.5840 0.5840
12.877179 0.5840 0.5840 0.5850 0.5850 0.5890
12.911000 0.5890 0.5900 0.5920 0.5940 0.5970
12.944179 0.6000 0.6030 0.6050 0.6030 0.6050
12.977000 0.6080 0.6120 0.6180 0.6230 0.6300
13.010179 0.6350 0.6380 0.6400 0.6470 0.6520
13.043000 0.6530 0.6570 0.6580 0.6620 0.6620
13.076179 0.6630 0.6630 0.6630 0.6650 0.6680
13.110000 0.6680 0.6700 0.6700 0.6720 0.6730
13.143179 0.6720 0.6720 0.6720 0.6720 0.6770
13.176000 0.6780 0.6780 0.6800 0.6780 0.6780
13.209179 0.6770 0.6770 0.6770 0.6750 0.6730
13.242000 0.6720 0.6730 0.6730 0.6720 0.6720
13.275179 0.6700 0.6700 0.6700 0.6700 0.6720
13.309000 0.6700 0.6700 0.6680 0.6650 0.6630
13.342179 0.6620 0.6600 0.6580 0.6530 0.6520
13.375000 0.6520 0.6520 0.6520 0.6520 0.6480
13.408179 0.6430 0.6420 0.6400 0.6370 0.6320
13.441000 0.6300 0.6270 0.6250 0.6230 0.6230
13.474179 0.6230 0.6230 0.6220 0.6220 0.6200
13.508000 0.6180 0.6150 0.6120 0.6080 0.6020
13.541179 0.6020 0.6000 0.5970 0.5940 0.5850
13.574000 0.5820 0.5800 0.5720 0.5650 0.5550
13.607179 0.5500 0.5490 0.5450 0.5400 0.5320
13.640000 0.5290 0.5240 0.5150 0.5090 0.5050
13.673179 0.5020 0.5020 0.5000 0.5000 0.5020
13.707000 0.5050 0.5070 0.5090 0.5100 0.5120
13.740179 0.5190 0.5240 0.5320 0.5390 0.5420
13.773000 0.5470 0.5520 0.5590 0.5690 0.5770
13.806179 0.5850 0.5970 0.6070 0.6180 0.6300
13.839000 0.6420 0.6500 0.6580 0.6650 0.6680
13.872179 0.6680 0.6720 0.6730 0.6750 0.6780
13.906000 0.6800 0.6820 0.6830 0.6870 0.6950
13.939179 0.7050 0.7100 0.7080 0.7100 0.7120
13.972000 0.7130 0.7130 0.7130 0.7150 0.7180
14.005179 0.7200 0.7220 0.7220 0.7230 0.7230
14.038000 0.7230 0.7250 0.7250 0.7250 0.7270
14.071179 0.7270 0.7300 0.7330 0.7380 0.7380
14.105000 0.7400 0.7400 0.7400 0.7400 0.7420
14.138179 0.7430 0.7430 0.7430 0.7430 0.7450
14.171000 0.7450 0.7450 0.7450 0.7480 0.7480
14.204179 0.7500 0.7500 0.7500 0.7500 0.7500
14.237000 0.7520 0.7530 0.7530 0.7520 0.7520
14.270179 0.7520 0.7520 0.7520 0.7520 0.7520
14.304000 0.7520 0.7520 0.7520 0.7520 0.7530
14.337179 0.7520 0.7520 0.7520 0.7520 0.7520
14.370000 0.7500 0.7500 0.7500 0.7500 0.7500
14.403179 0.7520 0.7520 0.7520 0.7520 0.7520
14.436000 0.7530 0.7520 0.7530 0.7530 0.7550
14.469179 0.7570 0.7600 0.7620 0.7620 0.7620
14.503000 0.7600 0.7600 0.7600 0.7600 0.7600
14.536179 0.7600 0.7580 0.7580 0.7580 0.7580
14.569000 0.7570 0.7570 0.7550 0.7550 0.7550
14.602179 0.7520 0.7500 0.7500 0.7480 0.7480
14.635000 0.7480 0.7480 0.7480 0.7480 0.7480
14.668179 0.7480 0.7480 0.7480 0.7480 0.7470
14.702000 0.7480 0.7480 0.7470 0.7470 0.7470
14.735179 0.7470 0.7470 0.7470 0.7470 0.7420
14.768000 0.7330 0.7250 0.7230 0.7230 0.7230
14.801179 0.7220 0.7230 0.7230 0.7230 0.7230
14.834000 0.7270 0.7280 0.7280 0.7270 0.7270
14.867179 0.7230 0.7220 0.7200 0.7220 0.7230
14.901000 0.7270 0.7270 0.7250 0.7250 0.7270
14.934179 0.7280 0.7300 0.7300 0.7300 0.7300
14.967000 0.7300 0.7300 0.7250 0.7230 0.7220
15.000179 0.7200 0.7200 0.7170 0.7150 0.7100
15.033000 0.7100 0.7080 0.7080 0.7080 0.7080
15.066179 0.7080 0.7080 0.7100 0.7100 0.7080
15.099000 0.7080 0.7080 0.7100 0.7080 0.7100
15.132179 0.7080 0.7080 0.7080 0.7070 0.7050
15.166000 0.7030 0.7000 0.7000 0.7000 0.7000
15.199179 0.6980 0.7000 0.7000 0.7000 0.6980
15.232000 0.6970 0.6950 0.6920 0.6880 0.6880
15.265179 0.6880 0.6880 0.6880 0.6880 0.6880
15.298000 0.6880 0.6880 0.6870 0.6870 0.6870
15.331179 0.6870 0.6870 0.6870 0.6870 0.6870
15.365000 0.6870 0.6870 0.6870 0.6870 0.6870
15.398179 0.6850 0.6850 0.6830 0.6830 0.6830
15.431000 0.6830 0.6830 0.6830 0.6850 0.6870
15.464179 0.6850 0.6820 0.6780 0.6780 0.6770
15.497000 0.6770 0.6730 0.6720 0.6720 0.6700
15.530179 0.6700 0.6700 0.6700 0.6700 0.6720
15.564000 0.6720 0.6730 0.6720 0.6720 0.6720
15.597179 0.6700 0.6700 0.6720 0.6720 0.6720
15.630000 0.6720 0.6720 0.6720 0.6720 0.6720
15.663179 0.6720 0.6720 0.6720 0.6700 0.6680
15.696000 0.6670 0.6630 0.6620 0.6620 0.6620
15.729179 0.6620 0.6630 0.6630 0.6630 0.6630
15.763000 0.6630 0.6630 0.6630 0.6630 0.6620
15.796179 0.6620 0.6620 0.6630 0.6620 0.6620
15.829000 0.6620 0.6620 0.6620 0.6620 0.6600
15.862179 0.6600 0.6620 0.6620 0.6620 0.6600
15.895000 0.6600 0.6580 0.6580 0.6600 0.6580
15.928179 0.6580 0.6580 0.6600 0.6600 0.6600
15.962000 0.6580 0.6580 0.6600 0.6600 0.6600
15.995179 0.6620 0.6600 0.6600
##END=
