##TITLE=8-QUINOLINOL, BISMUTH SALT
##JCAMP-DX=4.24
##DATA TYPE=INFRARED SPECTRUM
##CLASS=COBLENTZ
##ORIGIN=DOW CHEMICAL COMPANY
##OWNER=COBLENTZ SOCIETY
Collection (C) 2018 copyright by the U.S. Secretary of Commerce
on behalf of the United States of America. All rights reserved.
##DATE=Not specified, most likely prior to 1970
##NAMES=8-([bis(8-quinolinyloxy)bismuthino]oxy)quinoline
##MOLFORM=C27 H18 N3 O3 Bi
##SOURCE REFERENCE=COBLENTZ NO. 1498
##$NIST ID=B6001498
##$NIST SOURCE=COBLENTZ
##$NIST IMAGE=cob1498
##SPECTROMETER/DATA SYSTEM=Not specified, most likely a prism, grating, or hybrid spectrometer.
##STATE=SOLID (MINERAL OIL MULL)
##SAMPLING PROCEDURE=TRANSMISSION
##RESOLUTION=4
##DATA PROCESSING=DIGITIZED BY NIST FROM HARD COPY
##XUNITS=MICROMETERS
##YUNITS=TRANSMITTANCE
##XFACTOR=1.000000
##YFACTOR=1
##DELTAX=000.006866
##FIRSTX=2.041
##LASTX=15.9247
##FIRSTY=0.631
##MAXX=15.9247
##MINX=2.041
##MAXY=0.952
##MINY=0.032
##NPOINTS=2023
##XYDATA=(X++(Y..Y))
2.041000 0.6310 0.6330 0.6330 0.6330 0.6340
2.075348 0.6340 0.6340 0.6380 0.6380 0.6410
2.110000 0.6410 0.6410 0.6430 0.6430 0.6450
2.144348 0.6450 0.6460 0.6460 0.6480 0.6480
2.179000 0.6480 0.6480 0.6480 0.6480 0.6480
2.213348 0.6480 0.6480 0.6480 0.6480 0.6480
2.247000 0.6480 0.6480 0.6480 0.6480 0.6480
2.281348 0.6480 0.6480 0.6460 0.6460 0.6460
2.316000 0.6460 0.6460 0.6460 0.6460 0.6480
2.350348 0.6480 0.6500 0.6500 0.6510 0.6510
2.385000 0.6530 0.6530 0.6580 0.6600 0.6630
2.419348 0.6650 0.6680 0.6700 0.6740 0.6770
2.453000 0.6820 0.6860 0.6890 0.6920 0.6940
2.487348 0.6970 0.6990 0.7030 0.7040 0.7060
2.522000 0.7060 0.7060 0.7090 0.7130 0.7150
2.556348 0.7160 0.7160 0.7180 0.7180 0.7200
2.590000 0.7210 0.7250 0.7280 0.7300 0.7320
2.624348 0.7320 0.7320 0.7320 0.7320 0.7330
2.659000 0.7330 0.7330 0.7330 0.7330 0.7350
2.693348 0.7350 0.7350 0.7350 0.7350 0.7350
2.728000 0.7350 0.7370 0.7370 0.7370 0.7370
2.762348 0.7370 0.7370 0.7370 0.7370 0.7370
2.796000 0.7370 0.7370 0.7370 0.7350 0.7350
2.830348 0.7350 0.7330 0.7330 0.7330 0.7330
2.865000 0.7320 0.7320 0.7300 0.7300 0.7300
2.899348 0.7280 0.7260 0.7250 0.7230 0.7210
2.934000 0.7210 0.7210 0.7210 0.7200 0.7200
2.968348 0.7200 0.7200 0.7200 0.7200 0.7200
3.002000 0.7200 0.7200 0.7200 0.7200 0.7210
3.036348 0.7210 0.7210 0.7230 0.7230 0.7230
3.071000 0.7230 0.7250 0.7230 0.7230 0.7230
3.105348 0.7230 0.7230 0.7250 0.7250 0.7250
3.140000 0.7260 0.7280 0.7330 0.7350 0.7370
3.174348 0.7380 0.7380 0.7400 0.7400 0.7370
3.208000 0.7330 0.7260 0.7210 0.7160 0.7150
3.242348 0.7110 0.7040 0.6970 0.6920 0.6860
3.277000 0.6800 0.6740 0.6670 0.6580 0.6460
3.311348 0.6220 0.5950 0.5690 0.5420 0.4910
3.346000 0.4090 0.3270 0.2760 0.2230 0.1290
3.380348 0.0340 0.0320 0.0320 0.0320 0.0340
3.414000 0.0440 0.0590 0.0730 0.0810 0.1000
3.448348 0.1120 0.1220 0.1270 0.1340 0.1510
3.483000 0.1910 0.2520 0.3850 0.4470 0.4980
3.517348 0.5680 0.6670 0.6920 0.7090 0.7370
3.552000 0.7400 0.7450 0.7500 0.7550 0.7620
3.586348 0.7710 0.7740 0.7740 0.7760 0.7760
3.620000 0.7780 0.7780 0.7780 0.7780 0.7760
3.654348 0.7760 0.7740 0.7730 0.7730 0.7730
3.689000 0.7730 0.7730 0.7780 0.7790 0.7790
3.723348 0.7790 0.7790 0.7790 0.7790 0.7790
3.758000 0.7790 0.7810 0.7830 0.7840 0.7860
3.792348 0.7900 0.7910 0.7930 0.7950 0.7960
3.826000 0.7960 0.7980 0.7980 0.8000 0.8020
3.860348 0.8030 0.8070 0.8080 0.8100 0.8120
3.895000 0.8130 0.8170 0.8190 0.8220 0.8240
3.929348 0.8250 0.8270 0.8290 0.8290 0.8290
3.964000 0.8290 0.8290 0.8310 0.8320 0.8320
3.998348 0.8320 0.8340 0.8340 0.8360 0.8360
4.032000 0.8370 0.8370 0.8370 0.8370 0.8410
4.066348 0.8410 0.8410 0.8410 0.8430 0.8430
4.101000 0.8430 0.8430 0.8430 0.8430 0.8430
4.135348 0.8430 0.8410 0.8410 0.8410 0.8410
4.170000 0.8410 0.8410 0.8410 0.8410 0.8410
4.204348 0.8410 0.8410 0.8410 0.8410 0.8430
4.238000 0.8430 0.8430 0.8430 0.8430 0.8460
4.272348 0.8460 0.8480 0.8480 0.8490 0.8510
4.307000 0.8510 0.8530 0.8530 0.8560 0.8580
4.341348 0.8600 0.8600 0.8600 0.8600 0.8610
4.376000 0.8610 0.8610 0.8610 0.8610 0.8610
4.410348 0.8610 0.8610 0.8610 0.8630 0.8630
4.444000 0.8630 0.8630 0.8630 0.8630 0.8630
4.478348 0.8630 0.8630 0.8630 0.8650 0.8650
4.513000 0.8650 0.8650 0.8650 0.8650 0.8650
4.547348 0.8630 0.8650 0.8630 0.8630 0.8630
4.582000 0.8630 0.8630 0.8650 0.8650 0.8650
4.616348 0.8660 0.8660 0.8660 0.8680 0.8680
4.650000 0.8700 0.8700 0.8700 0.8700 0.8700
4.684348 0.8700 0.8700 0.8700 0.8680 0.8680
4.719000 0.8680 0.8680 0.8680 0.8700 0.8700
4.753348 0.8720 0.8720 0.8720 0.8720 0.8730
4.788000 0.8730 0.8730 0.8750 0.8750 0.8770
4.822348 0.8770 0.8780 0.8800 0.8800 0.8820
4.856000 0.8820 0.8820 0.8830 0.8830 0.8830
4.890348 0.8850 0.8850 0.8870 0.8870 0.8870
4.925000 0.8890 0.8890 0.8890 0.8890 0.8890
4.959348 0.8890 0.8890 0.8890 0.8890 0.8890
4.994000 0.8890 0.8890 0.8890 0.8890 0.8890
5.028348 0.8890 0.8890 0.8890 0.8890 0.8890
5.062000 0.8890 0.8890 0.8890 0.8890 0.8890
5.096348 0.8890 0.8870 0.8870 0.8850 0.8850
5.131000 0.8830 0.8850 0.8830 0.8820 0.8820
5.165348 0.8820 0.8800 0.8800 0.8800 0.8800
5.200000 0.8800 0.8800 0.8780 0.8780 0.8780
5.234348 0.8780 0.8780 0.8780 0.8780 0.8780
5.268000 0.8780 0.8800 0.8800 0.8820 0.8820
5.302348 0.8830 0.8850 0.8870 0.8870 0.8870
5.337000 0.8890 0.8890 0.8890 0.8900 0.8900
5.371348 0.8920 0.8920 0.8920 0.8920 0.8920
5.406000 0.8940 0.8920 0.8920 0.8920 0.8920
5.440348 0.8920 0.8920 0.8920 0.8920 0.8920
5.474000 0.8920 0.8920 0.8920 0.8920 0.8920
5.508348 0.8920 0.8920 0.8920 0.8920 0.8920
5.543000 0.8920 0.8920 0.8920 0.8920 0.8920
5.577348 0.8920 0.8920 0.8990 0.8990 0.8990
5.612000 0.8990 0.8990 0.8990 0.8990 0.8990
5.646348 0.8990 0.8990 0.8990 0.8990 0.8990
5.680000 0.8970 0.8950 0.8940 0.8940 0.8920
5.714348 0.8920 0.8900 0.8900 0.8920 0.8920
5.749000 0.8920 0.8920 0.8940 0.8950 0.8970
5.783348 0.8990 0.8990 0.8990 0.9010 0.9010
5.818000 0.9010 0.9010 0.9010 0.9010 0.8990
5.852348 0.8990 0.8990 0.8990 0.8970 0.8950
5.886000 0.8940 0.8940 0.8920 0.8920 0.8920
5.920348 0.8900 0.8900 0.8890 0.8890 0.8890
5.955000 0.8890 0.8900 0.8890 0.8890 0.8890
5.989348 0.8890 0.8890 0.8890 0.8870 0.8850
6.024000 0.8850 0.8830 0.8820 0.8830 0.8820
6.058348 0.8820 0.8800 0.8780 0.8780 0.8770
6.092000 0.8750 0.8750 0.8730 0.8750 0.8730
6.126348 0.8730 0.8720 0.8680 0.8660 0.8630
6.161000 0.8580 0.8540 0.8510 0.8460 0.8360
6.195348 0.8150 0.7930 0.7710 0.7500 0.7420
6.230000 0.7420 0.7420 0.7470 0.7690 0.7810
6.264348 0.7910 0.8070 0.8070 0.8080 0.8080
6.298000 0.7910 0.7440 0.6960 0.6820 0.5880
6.332348 0.5660 0.5440 0.4690 0.4310 0.4300
6.367000 0.4260 0.4280 0.4480 0.4760 0.5100
6.401348 0.5400 0.7960 0.8200 0.8360 0.8390
6.436000 0.8390 0.8390 0.8390 0.8390 0.8410
6.470348 0.8390 0.8410 0.8410 0.8430 0.8430
6.504000 0.8430 0.8440 0.8440 0.8490 0.8490
6.538348 0.8490 0.8490 0.8490 0.8490 0.8490
6.573000 0.8490 0.8390 0.8290 0.8250 0.8220
6.607348 0.8020 0.7710 0.7420 0.7110 0.6220
6.641000 0.5560 0.4880 0.4350 0.3820 0.3510
6.675348 0.3480 0.3480 0.3530 0.4770 0.5320
6.710000 0.6460 0.7260 0.7250 0.7230 0.6970
6.744348 0.6720 0.5710 0.5400 0.5100 0.4890
6.779000 0.4500 0.4090 0.3190 0.2910 0.2620
6.813348 0.2030 0.1410 0.1220 0.1050 0.0920
6.847000 0.0880 0.0880 0.0900 0.1040 0.1330
6.881348 0.2280 0.2370 0.3780 0.4160 0.4210
6.916000 0.5050 0.5370 0.5640 0.6070 0.6190
6.950348 0.6260 0.6290 0.6290 0.6290 0.6240
6.985000 0.6220 0.6220 0.6260 0.6480 0.6720
7.019348 0.6740 0.7010 0.7090 0.7450 0.7520
7.053000 0.7550 0.7550 0.7550 0.7540 0.7450
7.087348 0.7320 0.7150 0.7010 0.6870 0.6650
7.122000 0.6120 0.5830 0.5540 0.5250 0.4640
7.156348 0.4010 0.3340 0.3220 0.3030 0.2930
7.191000 0.2880 0.2830 0.2780 0.2730 0.2730
7.225348 0.2730 0.2730 0.2730 0.2730 0.2730
7.259000 0.2730 0.2730 0.2730 0.2810 0.2830
7.293348 0.3000 0.3610 0.4020 0.5340 0.5390
7.328000 0.6740 0.6920 0.7060 0.7300 0.7400
7.362348 0.7500 0.7610 0.7620 0.7660 0.7670
7.397000 0.7690 0.7730 0.7730 0.7710 0.7690
7.431348 0.7550 0.7490 0.7230 0.6890 0.6550
7.465000 0.6290 0.5920 0.5540 0.5230 0.4650
7.499348 0.4380 0.4110 0.3850 0.3490 0.3150
7.534000 0.2810 0.2440 0.2110 0.2010 0.2010
7.568348 0.2010 0.2380 0.3030 0.3700 0.4260
7.603000 0.6680 0.6750 0.6840 0.6920 0.7010
7.637348 0.7540 0.7620 0.7670 0.7670 0.7670
7.671000 0.7670 0.7670 0.7640 0.7550 0.7370
7.705348 0.7250 0.7160 0.7060 0.6910 0.6700
7.740000 0.6410 0.6160 0.5950 0.5750 0.5640
7.774348 0.5520 0.5220 0.5110 0.5010 0.5010
7.809000 0.5010 0.5010 0.5290 0.5630 0.6360
7.843348 0.6740 0.7110 0.7640 0.7910 0.8020
7.877000 0.8080 0.8150 0.8190 0.8240 0.8270
7.911348 0.8290 0.8310 0.8320 0.8390 0.8410
7.946000 0.8430 0.8430 0.8480 0.8490 0.8490
7.980348 0.8490 0.8510 0.8510 0.8510 0.8490
8.015000 0.8430 0.8370 0.8220 0.8030 0.7950
8.049348 0.7810 0.7660 0.7550 0.7550 0.7450
8.083000 0.7450 0.7380 0.7370 0.7370 0.7370
8.117348 0.7370 0.7400 0.7450 0.7550 0.7710
8.152000 0.7830 0.7930 0.8030 0.8120 0.8200
8.186348 0.8270 0.8340 0.8390 0.8460 0.8510
8.221000 0.8560 0.8650 0.8660 0.8680 0.8680
8.255348 0.8680 0.8700 0.8720 0.8770 0.8800
8.289000 0.8830 0.8870 0.8870 0.8920 0.8950
8.323348 0.8970 0.8990 0.9010 0.9020 0.9040
8.358000 0.9040 0.9040 0.9040 0.9040 0.9040
8.392348 0.9020 0.9020 0.8970 0.8940 0.8850
8.427000 0.8730 0.8720 0.8650 0.8630 0.8610
8.461348 0.8610 0.8610 0.8610 0.8610 0.8610
8.495000 0.8610 0.8630 0.8660 0.8680 0.8730
8.529348 0.8770 0.8780 0.8800 0.8870 0.8890
8.564000 0.8890 0.8900 0.8900 0.8900 0.8900
8.598348 0.8900 0.8900 0.8900 0.8900 0.8920
8.633000 0.8940 0.8970 0.8990 0.8990 0.8990
8.667348 0.8990 0.8990 0.8990 0.8990 0.8990
8.701000 0.8990 0.8990 0.8990 0.8990 0.8990
8.735348 0.8990 0.8990 0.8990 0.8990 0.8990
8.770000 0.8990 0.8990 0.8990 0.8990 0.8990
8.804348 0.8990 0.8990 0.8990 0.8990 0.8990
8.839000 0.8990 0.8990 0.8990 0.8990 0.8970
8.873348 0.8970 0.8970 0.8900 0.8890 0.8850
8.907000 0.8780 0.8680 0.8610 0.8530 0.8340
8.941348 0.8080 0.7780 0.7400 0.7180 0.6960
8.976000 0.6410 0.6210 0.5950 0.5810 0.5680
9.010348 0.5350 0.5050 0.4740 0.4520 0.4400
9.045000 0.4280 0.4120 0.4010 0.3920 0.3940
9.079348 0.4090 0.4670 0.5080 0.5510 0.6430
9.113000 0.6840 0.7450 0.7710 0.7900 0.8030
9.147348 0.8050 0.8220 0.8290 0.8340 0.8370
9.182000 0.8410 0.8410 0.8430 0.8430 0.8430
9.216348 0.8430 0.8430 0.8430 0.8430 0.8430
9.251000 0.8430 0.8430 0.8430 0.8430 0.8430
9.285348 0.8430 0.8430 0.8430 0.8430 0.8440
9.319000 0.8440 0.8440 0.8440 0.8440 0.8440
9.353348 0.8440 0.8440 0.8440 0.8460 0.8460
9.388000 0.8480 0.8490 0.8510 0.8540 0.8600
9.422348 0.8600 0.8600 0.8600 0.8610 0.8610
9.457000 0.8650 0.8660 0.8680 0.8700 0.8720
9.491348 0.8750 0.8780 0.8830 0.8830 0.8870
9.525000 0.8900 0.8900 0.8940 0.8970 0.8990
9.559348 0.8990 0.8990 0.8970 0.8970 0.8970
9.594000 0.8990 0.8970 0.8970 0.8950 0.8900
9.628348 0.8890 0.8870 0.8830 0.8830 0.8820
9.663000 0.8800 0.8770 0.8750 0.8750 0.8750
9.697348 0.8770 0.8830 0.8850 0.8870 0.8890
9.731000 0.8900 0.8940 0.8950 0.8970 0.8970
9.765348 0.8990 0.9020 0.9040 0.9040 0.9070
9.800000 0.9090 0.9110 0.9110 0.9120 0.9140
9.834348 0.9140 0.9160 0.9160 0.9180 0.9190
9.869000 0.9190 0.9210 0.9210 0.9230 0.9230
9.903348 0.9240 0.9240 0.9260 0.9260 0.9280
9.937000 0.9280 0.9280 0.9300 0.9300 0.9300
9.971348 0.9300 0.9300 0.9300 0.9300 0.9300
10.006000 0.9300 0.9300 0.9300 0.9300 0.9310
10.040348 0.9300 0.9300 0.9310 0.9310 0.9310
10.075000 0.9310 0.9310 0.9310 0.9310 0.9310
10.109348 0.9300 0.9300 0.9300 0.9280 0.9280
10.143000 0.9230 0.9210 0.9190 0.9180 0.9160
10.177348 0.9110 0.9090 0.9070 0.9020 0.9010
10.212000 0.8970 0.8900 0.8870 0.8870 0.8870
10.246348 0.8870 0.8890 0.8890 0.8950 0.8970
10.281000 0.9040 0.9060 0.9190 0.9230 0.9280
10.315348 0.9280 0.9280 0.9280 0.9280 0.9280
10.349000 0.9280 0.9280 0.9280 0.9280 0.9280
10.383348 0.9280 0.9280 0.9260 0.9240 0.9210
10.418000 0.9180 0.9160 0.9140 0.9110 0.9090
10.452348 0.9110 0.9090 0.9060 0.9040 0.9010
10.487000 0.8990 0.8970 0.8950 0.8950 0.8920
10.521348 0.8920 0.8940 0.8940 0.8970 0.8990
10.555000 0.9010 0.9020 0.9070 0.9070 0.9090
10.589348 0.9110 0.9160 0.9180 0.9190 0.9210
10.624000 0.9230 0.9230 0.9240 0.9260 0.9260
10.658348 0.9280 0.9280 0.9300 0.9300 0.9310
10.692000 0.9310 0.9310 0.9330 0.9330 0.9330
10.726348 0.9330 0.9330 0.9330 0.9350 0.9350
10.761000 0.9350 0.9350 0.9350 0.9360 0.9380
10.795348 0.9380 0.9400 0.9400 0.9400 0.9400
10.830000 0.9400 0.9400 0.9400 0.9400 0.9410
10.864348 0.9430 0.9430 0.9430 0.9430 0.9430
10.898000 0.9450 0.9450 0.9470 0.9470 0.9480
10.932348 0.9480 0.9480 0.9480 0.9480 0.9480
10.967000 0.9480 0.9480 0.9480 0.9480 0.9450
11.001348 0.9430 0.9430 0.9430 0.9430 0.9410
11.036000 0.9400 0.9400 0.9380 0.9350 0.9310
11.070348 0.9300 0.9260 0.9230 0.9160 0.9140
11.104000 0.9120 0.9120 0.9110 0.9110 0.9110
11.138348 0.9110 0.9110 0.9160 0.9180 0.9300
11.173000 0.9310 0.9360 0.9360 0.9380 0.9380
11.207348 0.9380 0.9380 0.9410 0.9410 0.9410
11.242000 0.9430 0.9430 0.9430 0.9430 0.9470
11.276348 0.9470 0.9470 0.9470 0.9470 0.9480
11.310000 0.9480 0.9480 0.9480 0.9480 0.9480
11.344348 0.9480 0.9480 0.9470 0.9470 0.9450
11.379000 0.9450 0.9410 0.9400 0.9360 0.9350
11.413348 0.9330 0.9330 0.9330 0.9330 0.9330
11.448000 0.9350 0.9360 0.9380 0.9380 0.9400
11.482348 0.9400 0.9400 0.9410 0.9450 0.9470
11.516000 0.9480 0.9480 0.9480 0.9480 0.9500
11.550348 0.9500 0.9500 0.9480 0.9480 0.9470
11.585000 0.9450 0.9430 0.9410 0.9400 0.9400
11.619348 0.9400 0.9400 0.9400 0.9400 0.9410
11.654000 0.9450 0.9470 0.9470 0.9480 0.9500
11.688348 0.9500 0.9500 0.9500 0.9520 0.9520
11.722000 0.9520 0.9520 0.9520 0.9520 0.9520
11.756348 0.9520 0.9520 0.9520 0.9520 0.9520
11.791000 0.9520 0.9520 0.9520 0.9520 0.9520
11.825348 0.9520 0.9520 0.9520 0.9520 0.9520
11.860000 0.9520 0.9520 0.9520 0.9520 0.9520
11.894348 0.9520 0.9520 0.9520 0.9520 0.9520
11.928000 0.9520 0.9520 0.9520 0.9520 0.9520
11.962348 0.9520 0.9520 0.9500 0.9500 0.9480
11.997000 0.9480 0.9470 0.9410 0.9360 0.9310
12.031348 0.9260 0.9210 0.9160 0.9110 0.9040
12.066000 0.8970 0.8890 0.8780 0.8660 0.8600
12.100348 0.8510 0.8360 0.8150 0.7930 0.7690
12.134000 0.7400 0.7250 0.7090 0.6740 0.6330
12.168348 0.5880 0.5640 0.5390 0.4840 0.4480
12.203000 0.4450 0.4450 0.4430 0.4430 0.4700
12.237348 0.5230 0.5640 0.6270 0.6740 0.7010
12.272000 0.8100 0.8430 0.8510 0.8820 0.8870
12.306348 0.8870 0.8870 0.8870 0.8870 0.8820
12.340000 0.8750 0.8600 0.8490 0.8390 0.8130
12.374348 0.7880 0.7640 0.7540 0.7280 0.7180
12.409000 0.7150 0.7110 0.6990 0.6970 0.6970
12.443348 0.7040 0.7300 0.7330 0.7570 0.7790
12.478000 0.8030 0.8220 0.8370 0.8440 0.8490
12.512348 0.8530 0.8580 0.8580 0.8580 0.8580
12.546000 0.8580 0.8560 0.8530 0.8390 0.8250
12.580348 0.8120 0.7960 0.7790 0.7610 0.7400
12.615000 0.7160 0.7030 0.6890 0.6680 0.6580
12.649348 0.6450 0.6330 0.6220 0.6140 0.6090
12.684000 0.6020 0.5970 0.5950 0.5970 0.6020
12.718348 0.6020 0.6090 0.6170 0.6270 0.6330
12.752000 0.6380 0.6450 0.6510 0.6580 0.6650
12.786348 0.6720 0.6770 0.6840 0.6940 0.7040
12.821000 0.7320 0.7470 0.7620 0.7660 0.7790
12.855348 0.7880 0.8000 0.8130 0.8190 0.8240
12.890000 0.8290 0.8320 0.8370 0.8410 0.8460
12.924348 0.8490 0.8510 0.8510 0.8600 0.8610
12.958000 0.8630 0.8660 0.8680 0.8700 0.8700
12.992348 0.8700 0.8700 0.8700 0.8700 0.8700
13.027000 0.8700 0.8700 0.8700 0.8700 0.8680
13.061348 0.8680 0.8650 0.8610 0.8600 0.8580
13.096000 0.8560 0.8530 0.8490 0.8460 0.8430
13.130348 0.8340 0.8310 0.8270 0.8220 0.8130
13.164000 0.8080 0.8020 0.7950 0.7830 0.7730
13.198348 0.7620 0.7490 0.7440 0.7180 0.7090
13.233000 0.7010 0.6890 0.6790 0.6740 0.6670
13.267348 0.6620 0.6560 0.6530 0.6480 0.6460
13.302000 0.6380 0.6360 0.6330 0.6290 0.6270
13.336348 0.6240 0.6160 0.6090 0.5980 0.5930
13.370000 0.5870 0.5810 0.5750 0.5710 0.5660
13.404348 0.5630 0.5590 0.5560 0.5560 0.5560
13.439000 0.5490 0.5470 0.5440 0.5370 0.5300
13.473348 0.5270 0.5170 0.5110 0.5080 0.5030
13.508000 0.5000 0.4980 0.4910 0.4910 0.4860
13.542348 0.4820 0.4790 0.4770 0.4760 0.4760
13.576000 0.4760 0.4760 0.4760 0.4760 0.4760
13.610348 0.4790 0.4840 0.4880 0.4930 0.5030
13.645000 0.5110 0.5200 0.5250 0.5300 0.5370
13.679348 0.5420 0.5460 0.5470 0.5490 0.5490
13.714000 0.5470 0.5440 0.5340 0.5230 0.5100
13.748348 0.4980 0.4940 0.4860 0.4770 0.4740
13.782000 0.4690 0.4690 0.4670 0.4670 0.4740
13.816348 0.4860 0.4940 0.5030 0.5130 0.5230
13.851000 0.5340 0.5470 0.5640 0.5930 0.6050
13.885348 0.6170 0.6310 0.6410 0.6510 0.6620
13.920000 0.6700 0.6750 0.6770 0.6920 0.6990
13.954348 0.7010 0.7060 0.7060 0.7210 0.7250
13.988000 0.7280 0.7300 0.7330 0.7350 0.7380
14.022348 0.7400 0.7420 0.7440 0.7440 0.7470
14.057000 0.7470 0.7470 0.7470 0.7470 0.7470
14.091348 0.7470 0.7470 0.7470 0.7470 0.7450
14.126000 0.7470 0.7470 0.7470 0.7470 0.7470
14.160348 0.7470 0.7450 0.7450 0.7440 0.7440
14.194000 0.7420 0.7420 0.7400 0.7380 0.7370
14.228348 0.7350 0.7330 0.7330 0.7320 0.7300
14.263000 0.7280 0.7280 0.7260 0.7250 0.7230
14.297348 0.7200 0.7180 0.7180 0.7160 0.7160
14.332000 0.7160 0.7150 0.7130 0.7110 0.7090
14.366348 0.7080 0.7080 0.7060 0.7060 0.7060
14.400000 0.7030 0.7010 0.6990 0.6990 0.6970
14.434348 0.6970 0.6970 0.6960 0.6940 0.6940
14.469000 0.6920 0.6910 0.6890 0.6890 0.6870
14.503348 0.6860 0.6840 0.6820 0.6790 0.6770
14.538000 0.6750 0.6740 0.6720 0.6700 0.6700
14.572348 0.6680 0.6670 0.6670 0.6650 0.6630
14.606000 0.6630 0.6620 0.6600 0.6580 0.6560
14.640348 0.6550 0.6500 0.6500 0.6480 0.6460
14.675000 0.6460 0.6450 0.6430 0.6430 0.6410
14.709348 0.6390 0.6390 0.6380 0.6380 0.6380
14.744000 0.6340 0.6330 0.6310 0.6290 0.6270
14.778348 0.6260 0.6260 0.6260 0.6240 0.6240
14.812000 0.6220 0.6210 0.6190 0.6170 0.6170
14.846348 0.6140 0.6100 0.6070 0.6050 0.6040
14.881000 0.6020 0.6000 0.5980 0.5930 0.5880
14.915348 0.5870 0.5850 0.5850 0.5850 0.5850
14.949000 0.5850 0.5850 0.5850 0.5850 0.5850
14.983348 0.5850 0.5850 0.5850 0.5850 0.5850
15.018000 0.5850 0.5850 0.5830 0.5830 0.5810
15.052348 0.5810 0.5800 0.5780 0.5760 0.5760
15.087000 0.5710 0.5710 0.5690 0.5680 0.5660
15.121348 0.5630 0.5630 0.5610 0.5590 0.5580
15.155000 0.5560 0.5510 0.5490 0.5490 0.5470
15.189348 0.5470 0.5460 0.5460 0.5420 0.5400
15.224000 0.5390 0.5370 0.5350 0.5350 0.5340
15.258348 0.5300 0.5290 0.5270 0.5250 0.5250
15.293000 0.5220 0.5200 0.5200 0.5180 0.5170
15.327348 0.5170 0.5130 0.5110 0.5110 0.5100
15.361000 0.5080 0.5060 0.5030 0.5010 0.5000
15.395348 0.4980 0.4940 0.4940 0.4910 0.4890
15.430000 0.4880 0.4880 0.4820 0.4810 0.4770
15.464348 0.4740 0.4690 0.4670 0.4640 0.4600
15.499000 0.4570 0.4520 0.4500 0.4480 0.4450
15.533348 0.4450 0.4410 0.4410 0.4400 0.4380
15.567000 0.4360 0.4350 0.4350 0.4330 0.4330
15.601348 0.4310 0.4310 0.4300 0.4300 0.4280
15.636000 0.4280 0.4260 0.4240 0.4240 0.4230
15.670348 0.4230 0.4210 0.4210 0.4190 0.4190
15.705000 0.4190 0.4190 0.4190 0.4190 0.4190
15.739348 0.4190 0.4210 0.4190 0.4180 0.4190
15.773000 0.4180 0.4180 0.4180 0.4180 0.4180
15.807348 0.4180 0.4180 0.4180 0.4160 0.4160
15.842000 0.4160 0.4160 0.4160 0.4160 0.4160
15.876348 0.4160 0.4160 0.4160 0.4160 0.4180
15.911000 0.4180 0.4160 0.4180
##END=
