##TITLE=SULFONYL-O,O'-DIPHENACYLDIBENZOATE
##JCAMP-DX=4.24
##DATA TYPE=INFRARED SPECTRUM
##CLASS=COBLENTZ
##ORIGIN=TENNESSEE EASTMAN COMPANY, RESEARCH LABORATORIES
##OWNER=COBLENTZ SOCIETY
Collection (C) 2018 copyright by the U.S. Secretary of Commerce
on behalf of the United States of America. All rights reserved.
##DATE=Not specified, most likely prior to 1970
##NAMES=2-[3-((3-[(benzoyloxy)acetyl]phenyl)sulfonyl)phenyl]-2-oxoethyl benzoate
##MOLFORM=C30 H22 O8 S
##SOURCE REFERENCE=COBLENTZ NO. 43
##$NIST ID=B6000043
##$NIST SOURCE=COBLENTZ
##$NIST IMAGE=cob43
##SPECTROMETER/DATA SYSTEM=Not specified, most likely a prism, grating, or hybrid spectrometer.
##STATE=SOLID (NUJOL MULL)
##SAMPLING PROCEDURE=TRANSMISSION
##RESOLUTION=4
##DATA PROCESSING=DIGITIZED BY NIST FROM HARD COPY
##XUNITS=MICROMETERS
##YUNITS=TRANSMITTANCE
##XFACTOR=1.000000
##YFACTOR=1
##DELTAX=000.006477
##FIRSTX=2.022
##LASTX=15.9988
##FIRSTY=0.637
##MAXX=15.9988
##MINX=2.022
##MAXY=1.001
##MINY=0.077
##NPOINTS=2159
##XYDATA=(X++(Y..Y))
2.022000 0.6370 0.6370 0.6390 0.6390 0.6390
2.054398 0.6390 0.6400 0.6390 0.6390 0.6400
2.087000 0.6400 0.6420 0.6420 0.6440 0.6450
2.119398 0.6470 0.6470 0.6470 0.6470 0.6470
2.152000 0.6480 0.6500 0.6500 0.6520 0.6520
2.184398 0.6520 0.6530 0.6550 0.6560 0.6560
2.216000 0.6560 0.6580 0.6580 0.6580 0.6580
2.248398 0.6580 0.6580 0.6580 0.6580 0.6580
2.281000 0.6580 0.6580 0.6560 0.6560 0.6560
2.313398 0.6560 0.6580 0.6580 0.6580 0.6580
2.346000 0.6580 0.6580 0.6580 0.6580 0.6580
2.378398 0.6600 0.6600 0.6600 0.6600 0.6610
2.411000 0.6630 0.6660 0.6680 0.6680 0.6690
2.443398 0.6710 0.6730 0.6740 0.6740 0.6760
2.475000 0.6770 0.6810 0.6820 0.6860 0.6860
2.507398 0.6870 0.6890 0.6900 0.6950 0.6970
2.540000 0.6990 0.6990 0.7030 0.7070 0.7080
2.572398 0.7100 0.7100 0.7110 0.7110 0.7130
2.605000 0.7110 0.7130 0.7130 0.7130 0.7130
2.637398 0.7130 0.7150 0.7160 0.7200 0.7210
2.670000 0.7230 0.7230 0.7240 0.7260 0.7260
2.702398 0.7280 0.7280 0.7290 0.7290 0.7310
2.734000 0.7310 0.7310 0.7330 0.7330 0.7330
2.766398 0.7330 0.7330 0.7330 0.7330 0.7330
2.799000 0.7330 0.7340 0.7360 0.7370 0.7370
2.831398 0.7370 0.7370 0.7390 0.7390 0.7390
2.864000 0.7390 0.7390 0.7410 0.7410 0.7410
2.896398 0.7420 0.7420 0.7420 0.7440 0.7440
2.929000 0.7450 0.7450 0.7450 0.7450 0.7450
2.961398 0.7450 0.7470 0.7470 0.7470 0.7490
2.994000 0.7490 0.7520 0.7540 0.7550 0.7550
3.026398 0.7570 0.7570 0.7580 0.7600 0.7600
3.058000 0.7620 0.7620 0.7620 0.7620 0.7620
3.090398 0.7620 0.7620 0.7620 0.7620 0.7620
3.123000 0.7620 0.7630 0.7630 0.7630 0.7630
3.155398 0.7630 0.7630 0.7630 0.7630 0.7620
3.188000 0.7620 0.7620 0.7620 0.7620 0.7620
3.220398 0.7600 0.7600 0.7600 0.7580 0.7540
3.253000 0.7490 0.7470 0.7390 0.7330 0.7260
3.285398 0.7210 0.7150 0.7070 0.6950 0.6690
3.317000 0.6630 0.6550 0.6260 0.5950 0.5160
3.349398 0.4720 0.3860 0.3460 0.3300 0.3120
3.382000 0.2680 0.2200 0.1680 0.1130 0.1010
3.414398 0.0900 0.0800 0.0770 0.0800 0.0870
3.447000 0.0950 0.0980 0.1060 0.1130 0.1160
3.479398 0.1160 0.1160 0.1160 0.1190 0.1760
3.512000 0.2050 0.3020 0.3890 0.4910 0.5480
3.544398 0.6140 0.7420 0.7600 0.7830 0.7940
3.576000 0.7970 0.7990 0.8040 0.8090 0.8170
3.608398 0.8230 0.8300 0.8310 0.8340 0.8340
3.641000 0.8340 0.8340 0.8340 0.8340 0.8340
3.673398 0.8330 0.8330 0.8310 0.8310 0.8310
3.706000 0.8310 0.8330 0.8330 0.8330 0.8330
3.738398 0.8310 0.8310 0.8310 0.8330 0.8340
3.771000 0.8340 0.8340 0.8340 0.8340 0.8360
3.803398 0.8360 0.8360 0.8380 0.8380 0.8380
3.835000 0.8390 0.8390 0.8390 0.8390 0.8410
3.867398 0.8410 0.8410 0.8410 0.8430 0.8430
3.900000 0.8460 0.8470 0.8490 0.8510 0.8570
3.932398 0.8590 0.8600 0.8640 0.8650 0.8670
3.965000 0.8680 0.8700 0.8700 0.8720 0.8730
3.997398 0.8750 0.8770 0.8780 0.8780 0.8810
4.030000 0.8810 0.8830 0.8850 0.8860 0.8880
4.062398 0.8890 0.8890 0.8910 0.8940 0.8960
4.095000 0.8960 0.8960 0.8940 0.8960 0.8960
4.127398 0.8960 0.8960 0.8960 0.8960 0.8960
4.159000 0.8960 0.8980 0.8980 0.8980 0.8980
4.191398 0.8980 0.8980 0.8990 0.9010 0.9020
4.224000 0.9060 0.9070 0.9090 0.9150 0.9170
4.256398 0.9200 0.9220 0.9230 0.9230 0.9250
4.289000 0.9250 0.9270 0.9270 0.9280 0.9280
4.321398 0.9280 0.9280 0.9280 0.9280 0.9280
4.354000 0.9280 0.9280 0.9280 0.9280 0.9280
4.386398 0.9280 0.9280 0.9270 0.9280 0.9280
4.418000 0.9280 0.9280 0.9280 0.9300 0.9300
4.450398 0.9300 0.9300 0.9300 0.9300 0.9300
4.483000 0.9300 0.9300 0.9320 0.9320 0.9330
4.515398 0.9330 0.9350 0.9360 0.9360 0.9360
4.548000 0.9380 0.9380 0.9380 0.9400 0.9410
4.580398 0.9410 0.9430 0.9430 0.9430 0.9440
4.613000 0.9440 0.9440 0.9460 0.9440 0.9440
4.645398 0.9440 0.9440 0.9460 0.9460 0.9480
4.677000 0.9480 0.9480 0.9480 0.9480 0.9490
4.709398 0.9490 0.9490 0.9510 0.9510 0.9510
4.742000 0.9530 0.9530 0.9560 0.9560 0.9570
4.774398 0.9570 0.9570 0.9570 0.9570 0.9590
4.807000 0.9590 0.9590 0.9590 0.9590 0.9590
4.839398 0.9610 0.9610 0.9610 0.9610 0.9610
4.872000 0.9610 0.9590 0.9590 0.9610 0.9610
4.904398 0.9610 0.9610 0.9610 0.9620 0.9620
4.937000 0.9640 0.9640 0.9660 0.9660 0.9660
4.969398 0.9660 0.9660 0.9660 0.9670 0.9690
5.001000 0.9700 0.9700 0.9720 0.9700 0.9700
5.033398 0.9720 0.9720 0.9720 0.9720 0.9700
5.066000 0.9700 0.9720 0.9720 0.9720 0.9720
5.098398 0.9700 0.9700 0.9720 0.9720 0.9720
5.131000 0.9720 0.9720 0.9720 0.9720 0.9740
5.163398 0.9740 0.9740 0.9750 0.9750 0.9750
5.196000 0.9750 0.9750 0.9750 0.9770 0.9770
5.228398 0.9770 0.9770 0.9780 0.9770 0.9770
5.260000 0.9780 0.9780 0.9800 0.9820 0.9870
5.292398 0.9870 0.9880 0.9880 0.9900 0.9900
5.325000 0.9900 0.9910 0.9910 0.9910 0.9930
5.357398 0.9930 0.9930 0.9930 0.9930 0.9930
5.390000 0.9930 0.9930 0.9930 0.9930 0.9930
5.422398 0.9930 0.9930 0.9930 0.9930 0.9930
5.455000 0.9930 0.9930 0.9930 0.9930 0.9930
5.487398 0.9930 0.9930 0.9930 0.9950 0.9950
5.519000 0.9950 0.9960 0.9960 0.9980 0.9980
5.551398 1.0000 1.0010 1.0010 1.0010 1.0010
5.584000 1.0010 1.0000 1.0000 1.0000 1.0000
5.616398 0.9980 0.9960 0.9950 0.9930 0.9910
5.649000 0.9880 0.9820 0.9770 0.9690 0.9560
5.681398 0.9430 0.9280 0.8930 0.8410 0.7840
5.714000 0.7410 0.7020 0.6630 0.5930 0.4930
5.746398 0.4590 0.4590 0.4660 0.5400 0.5900
5.778000 0.6610 0.7880 0.8460 0.8780 0.8810
5.810398 0.8830 0.8810 0.8650 0.7860 0.7550
5.843000 0.6770 0.6520 0.6260 0.5770 0.5320
5.875398 0.5000 0.5000 0.5110 0.5270 0.5630
5.908000 0.6210 0.6600 0.7470 0.7730 0.7940
5.940398 0.8020 0.8260 0.8360 0.8570 0.8600
5.973000 0.8620 0.8640 0.8680 0.8800 0.8890
6.005398 0.8990 0.9010 0.9110 0.9150 0.9170
6.038000 0.9200 0.9270 0.9300 0.9330 0.9350
6.070398 0.9360 0.9380 0.9410 0.9460 0.9480
6.102000 0.9490 0.9530 0.9590 0.9610 0.9610
6.134398 0.9610 0.9660 0.9670 0.9690 0.9690
6.167000 0.9700 0.9700 0.9700 0.9700 0.9720
6.199398 0.9740 0.9740 0.9740 0.9740 0.9720
6.232000 0.9690 0.9620 0.9330 0.8940 0.8570
6.264398 0.7780 0.7700 0.7700 0.8150 0.8600
6.297000 0.8960 0.9010 0.9020 0.9020 0.9020
6.329398 0.9020 0.9020 0.9010 0.9020 0.9040
6.361000 0.9040 0.9060 0.9090 0.9360 0.9430
6.393398 0.9530 0.9610 0.9640 0.9660 0.9670
6.426000 0.9700 0.9750 0.9780 0.9830 0.9870
6.458398 0.9870 0.9870 0.9870 0.9880 0.9880
6.491000 0.9880 0.9880 0.9880 0.9880 0.9880
6.523398 0.9880 0.9880 0.9880 0.9880 0.9880
6.556000 0.9880 0.9880 0.9880 0.9880 0.9880
6.588398 0.9880 0.9880 0.9880 0.9880 0.9880
6.620000 0.9870 0.9870 0.9870 0.9850 0.9830
6.652398 0.9800 0.9780 0.9700 0.9670 0.9610
6.685000 0.9540 0.9490 0.9280 0.9150 0.8940
6.717398 0.8670 0.8380 0.8070 0.7780 0.7540
6.750000 0.7330 0.7200 0.6730 0.6480 0.6220
6.782398 0.5720 0.5220 0.4740 0.4270 0.4070
6.815000 0.4070 0.4070 0.4070 0.4070 0.4070
6.847398 0.4070 0.4090 0.4070 0.4090 0.4110
6.880000 0.4320 0.4660 0.4930 0.5160 0.5370
6.912398 0.5560 0.5760 0.5930 0.6130 0.6350
6.944000 0.6600 0.7230 0.7330 0.7310 0.7310
6.976398 0.7370 0.7620 0.8100 0.8280 0.8310
7.009000 0.8330 0.8340 0.8360 0.8390 0.8390
7.041398 0.8380 0.8340 0.8330 0.8280 0.8250
7.074000 0.8250 0.8280 0.8300 0.8380 0.8470
7.106398 0.8550 0.8700 0.8810 0.8940 0.9010
7.139000 0.9020 0.9040 0.9020 0.9010 0.8990
7.171398 0.8780 0.8700 0.8640 0.8460 0.8200
7.203000 0.8000 0.7810 0.7540 0.7080 0.6740
7.235398 0.6390 0.5370 0.5140 0.4980 0.4850
7.268000 0.4830 0.4820 0.4830 0.4850 0.5060
7.300398 0.5190 0.5370 0.5610 0.5880 0.6190
7.333000 0.6500 0.7130 0.7420 0.7660 0.7780
7.365398 0.7940 0.8070 0.8230 0.8360 0.8510
7.398000 0.8540 0.8600 0.8640 0.8670 0.8670
7.430398 0.8680 0.8680 0.8680 0.8680 0.8680
7.462000 0.8680 0.8650 0.8650 0.8520 0.8390
7.494398 0.8220 0.8050 0.7960 0.7830 0.7600
7.527000 0.7080 0.6560 0.5760 0.5380 0.4950
7.559398 0.4950 0.5290 0.5630 0.6270 0.6560
7.592000 0.6940 0.7000 0.7050 0.7160 0.7160
7.624398 0.7080 0.7020 0.6790 0.6660 0.6520
7.657000 0.6220 0.6000 0.5880 0.5710 0.5480
7.689398 0.5300 0.5120 0.4900 0.4610 0.4430
7.722000 0.4230 0.4200 0.4200 0.4200 0.4220
7.754398 0.4270 0.4360 0.4490 0.4620 0.4750
7.786000 0.5010 0.5240 0.5380 0.5630 0.5930
7.818398 0.6240 0.6530 0.6940 0.7070 0.7210
7.851000 0.7330 0.7390 0.7390 0.7340 0.7260
7.883398 0.7050 0.6790 0.6650 0.6500 0.6260
7.916000 0.6060 0.6060 0.6140 0.6340 0.6500
7.948398 0.6650 0.7000 0.7080 0.7130 0.7230
7.981000 0.7240 0.7240 0.7240 0.7240 0.7240
8.013398 0.7240 0.7240 0.7260 0.7260 0.7280
8.045000 0.7280 0.7310 0.7280 0.7180 0.7050
8.077398 0.6820 0.6650 0.6450 0.5900 0.5430
8.110000 0.4770 0.4120 0.3770 0.3770 0.3750
8.142398 0.3750 0.3960 0.4490 0.4720 0.5040
8.175000 0.5450 0.5840 0.6190 0.6440 0.6580
8.207398 0.6840 0.6990 0.7050 0.7210 0.7330
8.240000 0.7440 0.7520 0.7620 0.7710 0.7830
8.272398 0.7920 0.7970 0.8070 0.8170 0.8230
8.304000 0.8310 0.8360 0.8410 0.8410 0.8460
8.336398 0.8470 0.8470 0.8490 0.8510 0.8540
8.369000 0.8550 0.8590 0.8600 0.8620 0.8670
8.401398 0.8670 0.8680 0.8680 0.8700 0.8750
8.434000 0.8770 0.8780 0.8800 0.8850 0.8850
8.466398 0.8930 0.8960 0.8990 0.9020 0.9020
8.499000 0.8990 0.8960 0.8930 0.8780 0.8670
8.531398 0.8520 0.8330 0.8250 0.8150 0.8050
8.563000 0.7860 0.7730 0.7450 0.7230 0.6970
8.595398 0.6790 0.6610 0.6340 0.6080 0.5900
8.628000 0.5870 0.5790 0.5790 0.5900 0.6080
8.660398 0.6320 0.6580 0.6920 0.6970 0.7080
8.693000 0.7080 0.7050 0.6970 0.6920 0.6790
8.725398 0.6690 0.6660 0.6660 0.6680 0.6680
8.758000 0.6680 0.6690 0.6690 0.6650 0.6600
8.790398 0.6560 0.6370 0.6160 0.5820 0.5510
8.823000 0.5220 0.4910 0.4590 0.4300 0.4010
8.855398 0.3780 0.3590 0.3460 0.3390 0.3380
8.887000 0.3360 0.3340 0.3380 0.3410 0.3470
8.919398 0.3540 0.3800 0.4020 0.4230 0.4440
8.952000 0.4660 0.4850 0.5080 0.5300 0.5550
8.984398 0.5880 0.6220 0.6400 0.6600 0.6870
9.017000 0.6950 0.7050 0.7110 0.7260 0.7310
9.049398 0.7440 0.7490 0.7580 0.7630 0.7750
9.082000 0.7910 0.7940 0.7970 0.8000 0.8100
9.114398 0.8150 0.8200 0.8280 0.8330 0.8380
9.146000 0.8390 0.8390 0.8390 0.8390 0.8390
9.178398 0.8390 0.8390 0.8380 0.8360 0.8330
9.211000 0.8300 0.8260 0.8200 0.8150 0.8020
9.243398 0.7990 0.7960 0.7920 0.7760 0.7680
9.276000 0.7620 0.7550 0.7490 0.7470 0.7470
9.308398 0.7490 0.7490 0.7600 0.7700 0.7780
9.341000 0.7940 0.8020 0.8100 0.8180 0.8300
9.373398 0.8380 0.8460 0.8470 0.8520 0.8550
9.405000 0.8600 0.8620 0.8640 0.8670 0.8730
9.437398 0.8750 0.8780 0.8850 0.8930 0.8960
9.470000 0.8960 0.8980 0.8990 0.9040 0.9060
9.502398 0.9070 0.9090 0.9120 0.9140 0.9140
9.535000 0.9140 0.9140 0.9140 0.9140 0.9140
9.567398 0.9150 0.9150 0.9110 0.9090 0.9010
9.600000 0.8930 0.8830 0.8720 0.8540 0.8390
9.632398 0.8360 0.8360 0.8340 0.8340 0.8360
9.665000 0.8380 0.8390 0.8410 0.8440 0.8470
9.697398 0.8490 0.8510 0.8520 0.8570 0.8600
9.729000 0.8620 0.8670 0.8680 0.8700 0.8750
9.761398 0.8770 0.8810 0.8860 0.8940 0.8990
9.794000 0.9020 0.9110 0.9170 0.9170 0.9220
9.826398 0.9250 0.9280 0.9320 0.9350 0.9380
9.859000 0.9380 0.9400 0.9400 0.9400 0.9400
9.891398 0.9380 0.9360 0.9320 0.9220 0.9110
9.924000 0.8940 0.8670 0.8410 0.8220 0.7960
9.956398 0.7890 0.7890 0.8000 0.8020 0.8090
9.988000 0.8170 0.8300 0.8430 0.8590 0.8680
10.020398 0.8750 0.8930 0.8940 0.8980 0.8990
10.053000 0.9020 0.9060 0.9070 0.9070 0.9070
10.085398 0.9070 0.9070 0.9090 0.9090 0.9110
10.118000 0.9140 0.9150 0.9170 0.9190 0.9200
10.150398 0.9200 0.9220 0.9220 0.9220 0.9220
10.183000 0.9220 0.9200 0.9200 0.9170 0.9150
10.215398 0.9120 0.9110 0.9110 0.9090 0.9110
10.247000 0.9110 0.9090 0.9090 0.9090 0.9090
10.279398 0.9070 0.9060 0.8990 0.8940 0.8880
10.312000 0.8680 0.8380 0.8170 0.7890 0.7630
10.344398 0.7370 0.7100 0.6840 0.6740 0.6630
10.377000 0.6420 0.6310 0.6140 0.6100 0.6080
10.409398 0.6110 0.6160 0.6240 0.6340 0.6420
10.442000 0.6530 0.6810 0.6900 0.7000 0.7100
10.474398 0.7200 0.7260 0.7390 0.7650 0.7920
10.506000 0.8020 0.8090 0.8180 0.8250 0.8340
10.538398 0.8390 0.8440 0.8460 0.8470 0.8490
10.571000 0.8510 0.8550 0.8640 0.8700 0.8770
10.603398 0.8810 0.8830 0.8850 0.8940 0.8940
10.636000 0.8960 0.8960 0.8990 0.9010 0.9060
10.668398 0.9070 0.9070 0.9090 0.9110 0.9120
10.701000 0.9150 0.9170 0.9190 0.9190 0.9200
10.733398 0.9200 0.9200 0.9200 0.9190 0.9200
10.766000 0.9200 0.9200 0.9200 0.9200 0.9230
10.798398 0.9250 0.9280 0.9300 0.9330 0.9330
10.830000 0.9380 0.9430 0.9440 0.9460 0.9480
10.862398 0.9480 0.9490 0.9490 0.9510 0.9510
10.895000 0.9560 0.9560 0.9570 0.9570 0.9590
10.927398 0.9590 0.9610 0.9610 0.9620 0.9620
10.960000 0.9660 0.9660 0.9660 0.9670 0.9670
10.992398 0.9690 0.9700 0.9700 0.9700 0.9720
11.025000 0.9740 0.9740 0.9740 0.9740 0.9750
11.057398 0.9750 0.9770 0.9770 0.9770 0.9770
11.089000 0.9780 0.9780 0.9780 0.9800 0.9800
11.121398 0.9800 0.9800 0.9800 0.9800 0.9800
11.154000 0.9780 0.9820 0.9800 0.9800 0.9820
11.186398 0.9800 0.9800 0.9800 0.9800 0.9800
11.219000 0.9800 0.9800 0.9820 0.9820 0.9820
11.251398 0.9830 0.9830 0.9830 0.9830 0.9850
11.284000 0.9850 0.9850 0.9850 0.9850 0.9850
11.316398 0.9830 0.9850 0.9830 0.9830 0.9830
11.348000 0.9800 0.9780 0.9770 0.9720 0.9690
11.380398 0.9690 0.9660 0.9640 0.9640 0.9640
11.413000 0.9640 0.9640 0.9670 0.9670 0.9690
11.445398 0.9690 0.9690 0.9690 0.9700 0.9700
11.478000 0.9740 0.9750 0.9750 0.9770 0.9770
11.510398 0.9780 0.9780 0.9800 0.9820 0.9820
11.543000 0.9830 0.9850 0.9850 0.9870 0.9870
11.575398 0.9900 0.9910 0.9910 0.9930 0.9930
11.608000 0.9930 0.9950 0.9950 0.9950 0.9960
11.640398 0.9960 0.9980 0.9980 0.9980 0.9980
11.672000 0.9980 0.9980 0.9980 1.0000 1.0000
11.704398 1.0000 1.0000 1.0000 1.0000 1.0000
11.737000 1.0000 1.0000 1.0000 1.0000 1.0000
11.769398 1.0000 1.0000 1.0000 1.0000 1.0000
11.802000 1.0000 1.0000 1.0000 1.0000 1.0000
11.834398 1.0000 1.0000 1.0000 1.0000 1.0000
11.867000 1.0000 1.0000 1.0010 1.0000 1.0000
11.899398 1.0000 1.0010 1.0000 1.0000 1.0010
11.931000 1.0000 1.0000 1.0000 1.0000 1.0000
11.963398 1.0000 1.0000 1.0000 1.0000 1.0000
11.996000 1.0000 1.0000 1.0000 1.0000 1.0000
12.028398 1.0000 1.0000 1.0000 1.0000 1.0000
12.061000 1.0000 1.0000 1.0000 1.0000 1.0000
12.093398 0.9980 0.9980 0.9980 0.9980 0.9980
12.126000 0.9980 0.9980 0.9980 0.9980 0.9980
12.158398 0.9980 0.9980 0.9980 0.9960 0.9960
12.190000 0.9960 0.9930 0.9910 0.9900 0.9880
12.222398 0.9870 0.9830 0.9820 0.9800 0.9780
12.255000 0.9770 0.9750 0.9750 0.9740 0.9740
12.287398 0.9740 0.9740 0.9740 0.9740 0.9740
12.320000 0.9750 0.9750 0.9750 0.9750 0.9770
12.352398 0.9770 0.9770 0.9770 0.9770 0.9770
12.385000 0.9780 0.9780 0.9780 0.9800 0.9800
12.417398 0.9800 0.9800 0.9800 0.9800 0.9780
12.449000 0.9780 0.9780 0.9770 0.9770 0.9770
12.481398 0.9770 0.9750 0.9750 0.9750 0.9740
12.514000 0.9720 0.9700 0.9690 0.9690 0.9690
12.546398 0.9670 0.9660 0.9660 0.9640 0.9640
12.579000 0.9640 0.9620 0.9620 0.9610 0.9610
12.611398 0.9610 0.9610 0.9590 0.9620 0.9610
12.644000 0.9610 0.9610 0.9610 0.9610 0.9610
12.676398 0.9610 0.9610 0.9610 0.9610 0.9610
12.709000 0.9610 0.9610 0.9610 0.9610 0.9610
12.741398 0.9610 0.9610 0.9610 0.9610 0.9610
12.773000 0.9610 0.9610 0.9610 0.9610 0.9610
12.805398 0.9590 0.9540 0.9480 0.9440 0.9330
12.838000 0.9300 0.9060 0.8980 0.8830 0.8590
12.870398 0.8410 0.8230 0.8130 0.8020 0.7960
12.903000 0.7960 0.7960 0.7940 0.7940 0.7990
12.935398 0.8090 0.8170 0.8280 0.8390 0.8460
12.968000 0.8470 0.8490 0.8510 0.8550 0.8570
13.000398 0.8550 0.8520 0.8510 0.8490 0.8470
13.032000 0.8390 0.8330 0.8260 0.8230 0.8150
13.064398 0.8070 0.7990 0.7940 0.7790 0.7730
13.097000 0.7660 0.7570 0.7450 0.7290 0.7230
13.129398 0.7020 0.6940 0.6680 0.6600 0.6520
13.162000 0.6240 0.6000 0.5970 0.5820 0.5590
13.194398 0.5270 0.4950 0.4910 0.4800 0.4740
13.227000 0.4700 0.4750 0.4770 0.4830 0.5010
13.259398 0.5240 0.5350 0.5640 0.5980 0.6370
13.291000 0.6840 0.7020 0.7180 0.7290 0.7470
13.323398 0.7540 0.7630 0.7700 0.7780 0.7790
13.356000 0.7810 0.7830 0.7830 0.7830 0.7790
13.388398 0.7760 0.7710 0.7580 0.7540 0.7440
13.421000 0.7340 0.7230 0.7110 0.6990 0.6870
13.453398 0.6740 0.6690 0.6630 0.6520 0.6470
13.486000 0.6420 0.6390 0.6350 0.6340 0.6320
13.518398 0.6310 0.6290 0.6270 0.6260 0.6240
13.551000 0.6210 0.6180 0.6160 0.6140 0.6110
13.583398 0.6100 0.6100 0.6080 0.6100 0.6100
13.615000 0.6110 0.6130 0.6140 0.6260 0.6310
13.647398 0.6450 0.6520 0.6610 0.6840 0.6950
13.680000 0.6990 0.7100 0.7180 0.7260 0.7360
13.712398 0.7440 0.7470 0.7520 0.7580 0.7630
13.745000 0.7660 0.7750 0.7810 0.7860 0.7880
13.777398 0.7910 0.7920 0.7940 0.7970 0.8020
13.810000 0.8100 0.8150 0.8170 0.8200 0.8230
13.842398 0.8300 0.8310 0.8360 0.8410 0.8460
13.874000 0.8470 0.8490 0.8490 0.8490 0.8510
13.906398 0.8510 0.8510 0.8520 0.8520 0.8520
13.939000 0.8520 0.8550 0.8550 0.8570 0.8600
13.971398 0.8620 0.8620 0.8640 0.8680 0.8730
14.004000 0.8750 0.8770 0.8780 0.8800 0.8800
14.036398 0.8810 0.8830 0.8830 0.8850 0.8860
14.069000 0.8860 0.8860 0.8880 0.8880 0.8880
14.101398 0.8880 0.8880 0.8880 0.8880 0.8880
14.133000 0.8880 0.8880 0.8880 0.8880 0.8880
14.165398 0.8880 0.8880 0.8880 0.8880 0.8880
14.198000 0.8880 0.8890 0.8880 0.8880 0.8880
14.230398 0.8880 0.8880 0.8880 0.8880 0.8880
14.263000 0.8860 0.8860 0.8850 0.8810 0.8810
14.295398 0.8800 0.8770 0.8730 0.8700 0.8670
14.328000 0.8600 0.8540 0.8470 0.8410 0.8380
14.360398 0.8280 0.8260 0.8150 0.8070 0.7960
14.392000 0.7840 0.7710 0.7550 0.7440 0.7330
14.424398 0.7230 0.7150 0.7050 0.6990 0.6940
14.457000 0.6790 0.6710 0.6660 0.6650 0.6630
14.489398 0.6610 0.6600 0.6600 0.6600 0.6600
14.522000 0.6600 0.6600 0.6610 0.6650 0.6770
14.554398 0.6840 0.6940 0.6990 0.7080 0.7180
14.587000 0.7260 0.7360 0.7450 0.7570 0.7650
14.619398 0.7710 0.7760 0.7790 0.7840 0.7940
14.652000 0.7990 0.7990 0.8020 0.8020 0.8050
14.684398 0.8070 0.8090 0.8090 0.8120 0.8120
14.716000 0.8130 0.8150 0.8170 0.8170 0.8180
14.748398 0.8200 0.8200 0.8200 0.8220 0.8220
14.781000 0.8220 0.8220 0.8220 0.8220 0.8220
14.813398 0.8220 0.8220 0.8220 0.8220 0.8220
14.846000 0.8220 0.8220 0.8220 0.8200 0.8200
14.878398 0.8180 0.8180 0.8150 0.8120 0.8090
14.911000 0.8070 0.8040 0.8050 0.8040 0.8020
14.943398 0.8020 0.8000 0.8000 0.8000 0.8000
14.975000 0.7990 0.7990 0.7990 0.7990 0.7990
15.007398 0.7990 0.7990 0.7990 0.7990 0.7990
15.040000 0.7990 0.7990 0.7990 0.7990 0.7990
15.072398 0.7990 0.7970 0.7960 0.7940 0.7920
15.105000 0.7910 0.7890 0.7880 0.7860 0.7840
15.137398 0.7830 0.7830 0.7810 0.7810 0.7810
15.170000 0.7790 0.7790 0.7790 0.7780 0.7750
15.202398 0.7750 0.7730 0.7710 0.7710 0.7700
15.234000 0.7680 0.7660 0.7650 0.7630 0.7630
15.266398 0.7620 0.7620 0.7620 0.7620 0.7620
15.299000 0.7620 0.7620 0.7620 0.7620 0.7620
15.331398 0.7620 0.7620 0.7630 0.7630 0.7620
15.364000 0.7620 0.7620 0.7630 0.7630 0.7630
15.396398 0.7650 0.7650 0.7650 0.7650 0.7660
15.429000 0.7660 0.7660 0.7660 0.7660 0.7680
15.461398 0.7680 0.7680 0.7680 0.7680 0.7680
15.494000 0.7680 0.7700 0.7700 0.7680 0.7680
15.526398 0.7700 0.7700 0.7700 0.7700 0.7700
15.558000 0.7700 0.7710 0.7700 0.7710 0.7710
15.590398 0.7710 0.7710 0.7710 0.7710 0.7700
15.623000 0.7700 0.7700 0.7710 0.7710 0.7710
15.655398 0.7710 0.7710 0.7710 0.7710 0.7710
15.688000 0.7710 0.7710 0.7710 0.7710 0.7710
15.720398 0.7710 0.7710 0.7710 0.7730 0.7710
15.753000 0.7710 0.7730 0.7730 0.7730 0.7730
15.785398 0.7730 0.7750 0.7750 0.7750 0.7750
15.817000 0.7760 0.7760 0.7760 0.7760 0.7760
15.849398 0.7780 0.7780 0.7780 0.7780 0.7780
15.882000 0.7780 0.7780 0.7780 0.7780 0.7780
15.914398 0.7790 0.7790 0.7790 0.7790 0.7810
15.947000 0.7810 0.7810 0.7810 0.7830 0.7830
15.979398 0.7830 0.7830 0.7830 0.7830
##END=
