##TITLE=DIISOBUTYLENE OXIDE
##JCAMP-DX=4.24
##DATA TYPE=INFRARED SPECTRUM
##CLASS=COBLENTZ
##ORIGIN=WYANDOTTE CHEMICALS CORP., WYANDOTTE, MICHIGAN, USA
##OWNER=COBLENTZ SOCIETY
Collection (C) 2018 copyright by the U.S. Secretary of Commerce
on behalf of the United States of America. All rights reserved.
##DATE=Not specified, most likely prior to 1970
##MOLFORM=C8 H16 O
##SOURCE REFERENCE=COBLENTZ NO. 1291
##$NIST ID=B6001291
##$NIST SOURCE=COBLENTZ
##$NIST IMAGE=cob1291
##SPECTROMETER/DATA SYSTEM=Not specified, most likely a prism, grating, or hybrid spectrometer.
##STATE=LIQUID
##PATH LENGTH=0.003 CM
##SAMPLING PROCEDURE=TRANSMISSION
##RESOLUTION=4
##DATA PROCESSING=DIGITIZED BY NIST FROM HARD COPY
##XUNITS=MICROMETERS
##YUNITS=TRANSMITTANCE
##XFACTOR=1.000000
##YFACTOR=1
##DELTAX=000.006806
##FIRSTX=2.041
##LASTX=15.9998
##FIRSTY=0.967
##MAXX=15.9998
##MINX=2.041
##MAXY=0.971
##MINY=0.032
##NPOINTS=2052
##XYDATA=(X++(Y..Y))
2.041000 0.9670 0.9670 0.9670 0.9690 0.9690
2.075047 0.9710 0.9710 0.9710 0.9710 0.9690
2.109000 0.9670 0.9670 0.9650 0.9600 0.9600
2.143047 0.9590 0.9590 0.9570 0.9570 0.9540
2.177000 0.9500 0.9430 0.9380 0.9310 0.9250
2.211047 0.9180 0.9130 0.9090 0.9080 0.9060
2.245000 0.9060 0.9080 0.9090 0.9110 0.9130
2.279047 0.9140 0.9140 0.9160 0.9160 0.9160
2.313000 0.9140 0.9140 0.9130 0.9130 0.9130
2.347047 0.9130 0.9130 0.9130 0.9130 0.9140
2.381000 0.9160 0.9160 0.9160 0.9160 0.9160
2.415047 0.9160 0.9160 0.9160 0.9160 0.9160
2.449000 0.9160 0.9160 0.9160 0.9160 0.9160
2.483047 0.9160 0.9160 0.9160 0.9160 0.9160
2.517000 0.9160 0.9160 0.9160 0.9160 0.9160
2.551047 0.9160 0.9160 0.9160 0.9160 0.9160
2.585000 0.9160 0.9160 0.9160 0.9160 0.9160
2.619047 0.9200 0.9200 0.9210 0.9250 0.9280
2.653000 0.9300 0.9280 0.9280 0.9250 0.9200
2.687047 0.9200 0.9200 0.9200 0.9200 0.9200
2.721000 0.9230 0.9260 0.9260 0.9260 0.9260
2.755047 0.9260 0.9260 0.9260 0.9260 0.9260
2.789000 0.9260 0.9250 0.9230 0.9230 0.9210
2.823047 0.9210 0.9200 0.9180 0.9160 0.9130
2.858000 0.9110 0.9090 0.9110 0.9090 0.9090
2.892047 0.9060 0.9060 0.9030 0.9030 0.9010
2.926000 0.9010 0.8990 0.8990 0.8990 0.8970
2.960047 0.8970 0.8960 0.8920 0.8910 0.8860
2.994000 0.8820 0.8800 0.8770 0.8770 0.8770
3.028047 0.8750 0.8740 0.8720 0.8720 0.8720
3.062000 0.8700 0.8690 0.8670 0.8670 0.8620
3.096047 0.8580 0.8520 0.8500 0.8460 0.8430
3.130000 0.8400 0.8400 0.8380 0.8360 0.8350
3.164047 0.8350 0.8330 0.8310 0.8310 0.8290
3.198000 0.8290 0.8280 0.8280 0.8280 0.8280
3.232047 0.8230 0.8190 0.8140 0.8040 0.7920
3.266000 0.7750 0.7360 0.6780 0.5880 0.5150
3.300047 0.5080 0.5000 0.4930 0.4590 0.3790
3.334000 0.2580 0.2090 0.0760 0.0450 0.0370
3.368047 0.0320 0.0370 0.0390 0.0450 0.0520
3.402000 0.0590 0.0660 0.0730 0.0790 0.0880
3.436047 0.0960 0.1050 0.1170 0.1300 0.1420
3.470000 0.1560 0.1610 0.1700 0.1870 0.2210
3.504047 0.2730 0.3230 0.3910 0.4670 0.5790
3.538000 0.6200 0.6530 0.6800 0.7000 0.7210
3.572047 0.7390 0.7500 0.7610 0.7770 0.7900
3.606000 0.8040 0.8110 0.8180 0.8190 0.8210
3.640047 0.8210 0.8190 0.8160 0.8160 0.8160
3.674000 0.8190 0.8230 0.8240 0.8210 0.8190
3.708047 0.8210 0.8310 0.8400 0.8480 0.8530
3.742000 0.8600 0.8670 0.8690 0.8690 0.8690
3.776047 0.8690 0.8650 0.8650 0.8670 0.8690
3.810000 0.8700 0.8700 0.8720 0.8720 0.8700
3.844047 0.8700 0.8690 0.8700 0.8700 0.8720
3.878000 0.8750 0.8770 0.8770 0.8750 0.8770
3.912047 0.8770 0.8790 0.8790 0.8790 0.8790
3.947000 0.8790 0.8800 0.8820 0.8820 0.8840
3.981047 0.8840 0.8860 0.8840 0.8840 0.8820
4.015000 0.8800 0.8790 0.8770 0.8750 0.8750
4.049047 0.8750 0.8750 0.8750 0.8750 0.8750
4.083000 0.8750 0.8740 0.8740 0.8720 0.8700
4.117047 0.8720 0.8720 0.8700 0.8700 0.8690
4.151000 0.8690 0.8700 0.8700 0.8700 0.8700
4.185047 0.8690 0.8690 0.8670 0.8690 0.8690
4.219000 0.8690 0.8690 0.8690 0.8670 0.8670
4.253047 0.8650 0.8650 0.8670 0.8720 0.8750
4.287000 0.8790 0.8820 0.8840 0.8860 0.8870
4.321047 0.8870 0.8870 0.8870 0.8890 0.8890
4.355000 0.8890 0.8890 0.8890 0.8870 0.8840
4.389047 0.8820 0.8790 0.8740 0.8700 0.8670
4.423000 0.8650 0.8650 0.8630 0.8630 0.8630
4.457047 0.8620 0.8620 0.8620 0.8620 0.8650
4.491000 0.8670 0.8670 0.8670 0.8670 0.8690
4.525047 0.8690 0.8690 0.8700 0.8700 0.8700
4.559000 0.8700 0.8700 0.8720 0.8740 0.8750
4.593047 0.8770 0.8770 0.8790 0.8790 0.8790
4.627000 0.8770 0.8770 0.8770 0.8750 0.8750
4.661047 0.8750 0.8750 0.8750 0.8740 0.8740
4.695000 0.8740 0.8740 0.8740 0.8740 0.8740
4.729047 0.8740 0.8740 0.8740 0.8740 0.8740
4.763000 0.8750 0.8750 0.8740 0.8740 0.8740
4.797047 0.8740 0.8750 0.8750 0.8750 0.8750
4.831000 0.8750 0.8750 0.8750 0.8750 0.8740
4.865047 0.8740 0.8740 0.8740 0.8720 0.8700
4.899000 0.8700 0.8690 0.8690 0.8690 0.8690
4.933047 0.8690 0.8690 0.8690 0.8690 0.8690
4.967000 0.8690 0.8690 0.8690 0.8690 0.8700
5.001047 0.8690 0.8690 0.8690 0.8690 0.8690
5.035000 0.8690 0.8670 0.8650 0.8650 0.8650
5.069047 0.8630 0.8630 0.8630 0.8630 0.8650
5.104000 0.8650 0.8670 0.8670 0.8670 0.8670
5.138047 0.8690 0.8690 0.8690 0.8690 0.8690
5.172000 0.8690 0.8690 0.8690 0.8690 0.8670
5.206047 0.8650 0.8650 0.8630 0.8630 0.8630
5.240000 0.8630 0.8630 0.8630 0.8630 0.8630
5.274047 0.8630 0.8630 0.8630 0.8650 0.8650
5.308000 0.8650 0.8630 0.8630 0.8630 0.8620
5.342047 0.8620 0.8600 0.8580 0.8600 0.8600
5.376000 0.8600 0.8600 0.8600 0.8600 0.8600
5.410047 0.8600 0.8600 0.8580 0.8580 0.8570
5.444000 0.8570 0.8570 0.8580 0.8580 0.8580
5.478047 0.8580 0.8570 0.8570 0.8570 0.8570
5.512000 0.8550 0.8550 0.8550 0.8550 0.8530
5.546047 0.8520 0.8520 0.8500 0.8500 0.8500
5.580000 0.8480 0.8480 0.8480 0.8480 0.8480
5.614047 0.8480 0.8480 0.8480 0.8480 0.8460
5.648000 0.8460 0.8460 0.8460 0.8460 0.8450
5.682047 0.8430 0.8430 0.8410 0.8410 0.8400
5.716000 0.8360 0.8290 0.8280 0.8260 0.8230
5.750047 0.8210 0.8210 0.8210 0.8210 0.8210
5.784000 0.8230 0.8230 0.8230 0.8210 0.8210
5.818047 0.8210 0.8210 0.8210 0.8240 0.8260
5.852000 0.8260 0.8280 0.8290 0.8290 0.8310
5.886047 0.8310 0.8310 0.8310 0.8310 0.8310
5.920000 0.8290 0.8290 0.8290 0.8290 0.8290
5.954047 0.8290 0.8290 0.8290 0.8290 0.8280
5.988000 0.8280 0.8260 0.8260 0.8240 0.8240
6.022047 0.8230 0.8230 0.8190 0.8180 0.8180
6.056000 0.8160 0.8160 0.8160 0.8140 0.8140
6.090047 0.8140 0.8140 0.8140 0.8140 0.8140
6.124000 0.8140 0.8160 0.8160 0.8160 0.8160
6.158047 0.8160 0.8160 0.8180 0.8180 0.8180
6.193000 0.8180 0.8180 0.8160 0.8160 0.8160
6.227047 0.8160 0.8160 0.8160 0.8160 0.8140
6.261000 0.8140 0.8140 0.8140 0.8140 0.8140
6.295047 0.8140 0.8140 0.8140 0.8140 0.8160
6.329000 0.8160 0.8160 0.8160 0.8160 0.8160
6.363047 0.8160 0.8160 0.8160 0.8160 0.8160
6.397000 0.8160 0.8140 0.8110 0.8090 0.8090
6.431047 0.8090 0.8040 0.8040 0.8020 0.8010
6.465000 0.7950 0.7900 0.7840 0.7780 0.7770
6.499047 0.7770 0.7770 0.7770 0.7750 0.7730
6.533000 0.7720 0.7650 0.7610 0.7580 0.7580
6.567047 0.7580 0.7530 0.7530 0.7460 0.7340
6.601000 0.7170 0.7020 0.6880 0.6730 0.6560
6.635047 0.6370 0.6130 0.5850 0.5510 0.5200
6.669000 0.5000 0.4790 0.4260 0.3700 0.3010
6.703047 0.2670 0.2440 0.2320 0.2290 0.2290
6.737000 0.2240 0.2220 0.2210 0.2190 0.2140
6.771047 0.2050 0.2040 0.2040 0.2040 0.2070
6.805000 0.2430 0.2560 0.2650 0.2780 0.2870
6.839047 0.3010 0.3180 0.3310 0.3450 0.3570
6.873000 0.3700 0.3820 0.3940 0.4040 0.4180
6.907047 0.4300 0.4420 0.4550 0.4650 0.4790
6.941000 0.4960 0.5250 0.5370 0.5470 0.5570
6.975047 0.5640 0.5680 0.5690 0.5760 0.5810
7.009000 0.5860 0.5930 0.5980 0.6050 0.6150
7.043047 0.6250 0.6390 0.6410 0.6410 0.6390
7.077000 0.6390 0.6370 0.6300 0.6250 0.6080
7.111047 0.5930 0.5730 0.5490 0.5170 0.4980
7.145000 0.4790 0.4370 0.3910 0.3400 0.2900
7.179047 0.2510 0.2380 0.2290 0.2150 0.2120
7.213000 0.2120 0.2260 0.2510 0.2580 0.2580
7.247047 0.2510 0.2310 0.2190 0.2050 0.1970
7.281000 0.1850 0.1750 0.1530 0.1360 0.1190
7.315047 0.1170 0.1190 0.1460 0.1870 0.2410
7.350000 0.2990 0.3580 0.4060 0.4620 0.5400
7.384047 0.5680 0.5850 0.5980 0.6100 0.6130
7.418000 0.6150 0.6150 0.6100 0.6100 0.6120
7.452047 0.6220 0.6320 0.6390 0.6410 0.6420
7.486000 0.6440 0.6470 0.6560 0.6660 0.6760
7.520047 0.6850 0.6950 0.7000 0.7020 0.7050
7.554000 0.7100 0.7240 0.7390 0.7410 0.7430
7.588047 0.7460 0.7500 0.7550 0.7580 0.7600
7.622000 0.7600 0.7580 0.7580 0.7510 0.7440
7.656047 0.7310 0.7150 0.7050 0.6950 0.6760
7.690000 0.6630 0.6530 0.6510 0.6490 0.6490
7.724047 0.6490 0.6490 0.6510 0.6580 0.6640
7.758000 0.6710 0.6810 0.6930 0.6980 0.7070
7.792047 0.7150 0.7220 0.7260 0.7270 0.7270
7.826000 0.7240 0.7150 0.7050 0.6950 0.6850
7.860047 0.6780 0.6700 0.6610 0.6540 0.6470
7.894000 0.6360 0.6150 0.5910 0.5610 0.5440
7.928047 0.5220 0.5200 0.5200 0.5250 0.5390
7.962000 0.5400 0.5400 0.5390 0.5320 0.5270
7.996047 0.5130 0.5030 0.5000 0.4940 0.4930
8.030000 0.4940 0.5000 0.5170 0.5300 0.5440
8.064047 0.5610 0.5790 0.6000 0.6150 0.6340
8.098000 0.6540 0.6680 0.6730 0.6780 0.6810
8.132047 0.6880 0.6900 0.6920 0.6930 0.6920
8.166000 0.6880 0.6810 0.6800 0.6760 0.6710
8.200047 0.6710 0.6710 0.6710 0.6750 0.6810
8.234000 0.6850 0.6880 0.6880 0.6880 0.6810
8.268047 0.6710 0.6560 0.6440 0.6270 0.6130
8.302000 0.5960 0.5900 0.5780 0.5760 0.5790
8.336047 0.5960 0.6200 0.6410 0.6590 0.6760
8.370000 0.6880 0.6980 0.7100 0.7220 0.7390
8.404047 0.7460 0.7500 0.7500 0.7530 0.7580
8.439000 0.7580 0.7600 0.7600 0.7600 0.7610
8.473047 0.7610 0.7610 0.7600 0.7580 0.7530
8.507000 0.7500 0.7460 0.7360 0.7290 0.7270
8.541047 0.7220 0.7190 0.7120 0.7040 0.6950
8.575000 0.6810 0.6630 0.6470 0.6320 0.6300
8.609047 0.6300 0.6360 0.6540 0.6730 0.6900
8.643000 0.7090 0.7240 0.7360 0.7460 0.7550
8.677047 0.7610 0.7670 0.7700 0.7730 0.7750
8.711000 0.7770 0.7770 0.7770 0.7750 0.7750
8.745047 0.7720 0.7700 0.7650 0.7600 0.7530
8.779000 0.7460 0.7340 0.7210 0.7050 0.6930
8.813047 0.6760 0.6640 0.6530 0.6390 0.6250
8.847000 0.6150 0.6070 0.5960 0.5850 0.5740
8.881047 0.5610 0.5450 0.5300 0.5100 0.4980
8.915000 0.4860 0.4740 0.4600 0.4520 0.4450
8.949047 0.4400 0.4380 0.4310 0.4300 0.4280
8.983000 0.4300 0.4470 0.4600 0.4820 0.5300
9.017047 0.5520 0.5760 0.5980 0.6200 0.6360
9.051000 0.6560 0.6700 0.6810 0.6930 0.7000
9.085047 0.7050 0.7150 0.7220 0.7240 0.7290
9.119000 0.7340 0.7360 0.7380 0.7380 0.7380
9.153047 0.7360 0.7340 0.7320 0.7310 0.7270
9.187000 0.7240 0.7210 0.7120 0.7040 0.7020
9.221047 0.6900 0.6780 0.6700 0.6610 0.6460
9.255000 0.6360 0.6220 0.6030 0.5830 0.5590
9.289047 0.5350 0.5110 0.5010 0.4910 0.4720
9.323000 0.4650 0.4570 0.4520 0.4500 0.4520
9.357047 0.4520 0.4620 0.4710 0.4770 0.4840
9.391000 0.4840 0.4840 0.4820 0.4810 0.4810
9.425047 0.4810 0.4820 0.4940 0.5150 0.5810
9.459000 0.6000 0.6170 0.6340 0.6460 0.6590
9.493047 0.6640 0.6700 0.6730 0.6780 0.6800
9.527000 0.6800 0.6780 0.6700 0.6630 0.6610
9.561047 0.6590 0.6590 0.6610 0.6640 0.6710
9.596000 0.6780 0.6850 0.6920 0.7000 0.7020
9.630047 0.7040 0.7050 0.7090 0.7090 0.7090
9.664000 0.7090 0.7090 0.7090 0.7100 0.7100
9.698047 0.7100 0.7120 0.7120 0.7140 0.7190
9.732000 0.7220 0.7290 0.7360 0.7410 0.7430
9.766047 0.7500 0.7510 0.7560 0.7630 0.7670
9.800000 0.7700 0.7720 0.7730 0.7730 0.7750
9.834047 0.7770 0.7770 0.7780 0.7800 0.7800
9.868000 0.7780 0.7780 0.7730 0.7730 0.7720
9.902047 0.7720 0.7700 0.7680 0.7630 0.7610
9.936000 0.7610 0.7600 0.7580 0.7560 0.7530
9.970047 0.7480 0.7360 0.7270 0.7240 0.7210
10.004000 0.7140 0.7140 0.7120 0.7120 0.7190
10.038047 0.7270 0.7320 0.7390 0.7430 0.7480
10.072000 0.7500 0.7560 0.7630 0.7630 0.7650
10.106047 0.7670 0.7680 0.7680 0.7700 0.7700
10.140000 0.7720 0.7720 0.7720 0.7720 0.7720
10.174047 0.7720 0.7720 0.7720 0.7720 0.7720
10.208000 0.7700 0.7680 0.7680 0.7650 0.7650
10.242047 0.7650 0.7670 0.7670 0.7650 0.7650
10.276000 0.7610 0.7610 0.7600 0.7580 0.7580
10.310047 0.7580 0.7560 0.7550 0.7550 0.7530
10.344000 0.7480 0.7430 0.7340 0.7290 0.7210
10.378047 0.7090 0.7040 0.6950 0.6850 0.6680
10.412000 0.6510 0.6360 0.6170 0.5960 0.5710
10.446047 0.5520 0.5340 0.5180 0.5110 0.5100
10.480000 0.5100 0.5170 0.5320 0.5450 0.5640
10.514047 0.5900 0.6030 0.6150 0.6250 0.6390
10.548000 0.6440 0.6490 0.6540 0.6540 0.6560
10.582047 0.6560 0.6560 0.6580 0.6590 0.6590
10.616000 0.6610 0.6660 0.6730 0.6800 0.6870
10.650047 0.6920 0.6970 0.6980 0.6980 0.7000
10.684000 0.7020 0.7040 0.7070 0.7070 0.7040
10.718047 0.7020 0.7000 0.6980 0.6970 0.6950
10.753000 0.6930 0.6920 0.6870 0.6810 0.6760
10.787047 0.6730 0.6710 0.6680 0.6630 0.6610
10.821000 0.6590 0.6580 0.6530 0.6510 0.6460
10.855047 0.6360 0.6250 0.6150 0.5980 0.5830
10.889000 0.5680 0.5590 0.5540 0.5560 0.5570
10.923047 0.5640 0.5690 0.5740 0.5780 0.5810
10.957000 0.5810 0.5810 0.5790 0.5740 0.5640
10.991047 0.5560 0.5470 0.5370 0.5280 0.5220
11.025000 0.5200 0.5150 0.5050 0.5000 0.4940
11.059047 0.4820 0.4650 0.4450 0.4230 0.4010
11.093000 0.3790 0.3550 0.3350 0.3140 0.2970
11.127047 0.2840 0.2720 0.2700 0.2720 0.2850
11.161000 0.2970 0.3120 0.3410 0.3700 0.3910
11.195047 0.4230 0.4500 0.4860 0.5280 0.5440
11.229000 0.5590 0.5740 0.5850 0.5960 0.5980
11.263047 0.6050 0.6100 0.6120 0.6130 0.6120
11.297000 0.6120 0.6100 0.6030 0.5960 0.5830
11.331047 0.5660 0.5510 0.5350 0.5250 0.5060
11.365000 0.5000 0.4910 0.4890 0.4890 0.4980
11.399047 0.5170 0.5320 0.5450 0.5560 0.5660
11.433000 0.5730 0.5810 0.5880 0.5900 0.5910
11.467047 0.5910 0.5930 0.5930 0.5910 0.5930
11.501000 0.5930 0.5960 0.5980 0.6030 0.6070
11.535047 0.6120 0.6150 0.6200 0.6250 0.6290
11.569000 0.6340 0.6370 0.6410 0.6470 0.6510
11.603047 0.6580 0.6610 0.6630 0.6680 0.6700
11.637000 0.6730 0.6750 0.6850 0.6880 0.6920
11.671047 0.6980 0.7040 0.7090 0.7120 0.7150
11.705000 0.7190 0.7190 0.7220 0.7270 0.7290
11.739047 0.7290 0.7310 0.7310 0.7320 0.7320
11.773000 0.7320 0.7320 0.7320 0.7320 0.7320
11.807047 0.7320 0.7320 0.7320 0.7320 0.7320
11.842000 0.7320 0.7320 0.7320 0.7320 0.7310
11.876047 0.7310 0.7290 0.7290 0.7240 0.7220
11.910000 0.7210 0.7190 0.7190 0.7150 0.7090
11.944047 0.7040 0.7020 0.6970 0.6950 0.6930
11.978000 0.6930 0.6920 0.6900 0.6880 0.6880
12.012047 0.6870 0.6830 0.6830 0.6810 0.6800
12.046000 0.6800 0.6780 0.6760 0.6760 0.6760
12.080047 0.6750 0.6750 0.6730 0.6700 0.6700
12.114000 0.6680 0.6610 0.6590 0.6530 0.6530
12.148047 0.6510 0.6490 0.6470 0.6470 0.6390
12.182000 0.6390 0.6360 0.6300 0.6220 0.6150
12.216047 0.6150 0.6080 0.6000 0.5950 0.5850
12.250000 0.5780 0.5640 0.5590 0.5490 0.5350
12.284047 0.5250 0.5100 0.5010 0.4980 0.4940
12.318000 0.4810 0.4640 0.4400 0.4260 0.4110
12.352047 0.3960 0.3840 0.3770 0.3720 0.3670
12.386000 0.3650 0.3670 0.3770 0.3870 0.3970
12.420047 0.4160 0.4450 0.4600 0.4770 0.4940
12.454000 0.5220 0.5340 0.5450 0.5510 0.5540
12.488047 0.5620 0.5680 0.5680 0.5680 0.5680
12.522000 0.5620 0.5590 0.5510 0.5400 0.5280
12.556047 0.5180 0.5050 0.4980 0.4910 0.4770
12.590000 0.4620 0.4450 0.4230 0.4030 0.3790
12.624047 0.3650 0.3460 0.3360 0.3310 0.3280
12.658000 0.3240 0.3210 0.3210 0.3240 0.3380
12.692047 0.3450 0.3650 0.3890 0.4110 0.4330
12.726000 0.4570 0.4770 0.4960 0.5230 0.5340
12.760047 0.5540 0.5730 0.5900 0.5960 0.6120
12.794000 0.6240 0.6320 0.6410 0.6490 0.6540
12.828047 0.6610 0.6660 0.6710 0.6730 0.6780
12.862000 0.6810 0.6870 0.6920 0.6980 0.7000
12.896047 0.7020 0.7090 0.7120 0.7140 0.7190
12.930000 0.7190 0.7190 0.7210 0.7210 0.7210
12.964047 0.7210 0.7240 0.7270 0.7290 0.7290
12.999000 0.7310 0.7320 0.7340 0.7340 0.7360
13.033047 0.7360 0.7380 0.7380 0.7380 0.7380
13.067000 0.7360 0.7360 0.7360 0.7360 0.7340
13.101047 0.7340 0.7340 0.7340 0.7320 0.7320
13.135000 0.7310 0.7290 0.7290 0.7270 0.7260
13.169047 0.7240 0.7240 0.7190 0.7170 0.7150
13.203000 0.7100 0.7050 0.7020 0.6980 0.6930
13.237047 0.6880 0.6810 0.6660 0.6590 0.6560
13.271000 0.6510 0.6440 0.6370 0.6250 0.6130
13.305047 0.5950 0.5830 0.5710 0.5510 0.5350
13.339000 0.5250 0.5060 0.5010 0.4960 0.4860
13.373047 0.4790 0.4710 0.4670 0.4620 0.4600
13.407000 0.4600 0.4600 0.4670 0.4790 0.4910
13.441047 0.5180 0.5320 0.5470 0.5610 0.5760
13.475000 0.5880 0.5980 0.6080 0.6240 0.6290
13.509047 0.6340 0.6440 0.6510 0.6540 0.6610
13.543000 0.6680 0.6700 0.6710 0.6750 0.6760
13.577047 0.6780 0.6800 0.6810 0.6810 0.6810
13.611000 0.6810 0.6800 0.6800 0.6780 0.6700
13.645047 0.6680 0.6640 0.6580 0.6510 0.6420
13.679000 0.6370 0.6300 0.6220 0.6190 0.6100
13.713047 0.6000 0.5960 0.5910 0.5900 0.5900
13.747000 0.5900 0.5910 0.5960 0.6020 0.6080
13.781047 0.6170 0.6290 0.6390 0.6510 0.6590
13.815000 0.6660 0.6700 0.6760 0.6810 0.6880
13.849047 0.6920 0.6930 0.6970 0.6980 0.6980
13.883000 0.7020 0.7040 0.7070 0.7070 0.7070
13.917047 0.7070 0.7070 0.7070 0.7070 0.7070
13.951000 0.7070 0.7040 0.7020 0.7020 0.7000
13.985047 0.6980 0.6920 0.6870 0.6750 0.6680
14.019000 0.6640 0.6590 0.6580 0.6490 0.6460
14.053047 0.6440 0.6420 0.6410 0.6390 0.6390
14.088000 0.6370 0.6360 0.6360 0.6370 0.6370
14.122047 0.6390 0.6410 0.6440 0.6470 0.6510
14.156000 0.6540 0.6580 0.6610 0.6680 0.6680
14.190047 0.6710 0.6750 0.6780 0.6780 0.6780
14.224000 0.6800 0.6800 0.6830 0.6870 0.6870
14.258047 0.6880 0.6900 0.6900 0.6900 0.6900
14.292000 0.6880 0.6880 0.6870 0.6850 0.6780
14.326047 0.6760 0.6710 0.6680 0.6610 0.6580
14.360000 0.6560 0.6510 0.6470 0.6440 0.6410
14.394047 0.6360 0.6270 0.6200 0.6200 0.6200
14.428000 0.6200 0.6200 0.6200 0.6200 0.6200
14.462047 0.6220 0.6290 0.6300 0.6340 0.6390
14.496000 0.6420 0.6470 0.6510 0.6580 0.6610
14.530047 0.6680 0.6700 0.6710 0.6780 0.6800
14.564000 0.6810 0.6810 0.6830 0.6870 0.6900
14.598047 0.6930 0.6970 0.7000 0.7070 0.7070
14.632000 0.7090 0.7090 0.7100 0.7140 0.7170
14.666047 0.7190 0.7210 0.7220 0.7270 0.7310
14.700000 0.7320 0.7320 0.7340 0.7380 0.7380
14.734047 0.7410 0.7430 0.7430 0.7430 0.7430
14.768000 0.7410 0.7410 0.7410 0.7410 0.7410
14.802047 0.7410 0.7410 0.7410 0.7410 0.7410
14.836000 0.7410 0.7430 0.7440 0.7480 0.7480
14.870047 0.7480 0.7460 0.7460 0.7460 0.7480
14.904000 0.7480 0.7480 0.7480 0.7480 0.7480
14.938047 0.7480 0.7480 0.7480 0.7480 0.7480
14.972000 0.7480 0.7480 0.7460 0.7430 0.7410
15.006047 0.7380 0.7340 0.7310 0.7310 0.7270
15.040000 0.7220 0.7190 0.7170 0.7150 0.7140
15.074047 0.7150 0.7150 0.7170 0.7170 0.7190
15.108000 0.7210 0.7240 0.7270 0.7290 0.7310
15.142047 0.7320 0.7340 0.7340 0.7360 0.7380
15.176000 0.7380 0.7390 0.7390 0.7380 0.7380
15.210047 0.7360 0.7380 0.7380 0.7380 0.7380
15.245000 0.7380 0.7340 0.7340 0.7360 0.7360
15.279047 0.7360 0.7360 0.7340 0.7320 0.7320
15.313000 0.7320 0.7320 0.7310 0.7310 0.7310
15.347047 0.7310 0.7310 0.7310 0.7310 0.7310
15.381000 0.7290 0.7290 0.7270 0.7260 0.7240
15.415047 0.7240 0.7220 0.7220 0.7210 0.7210
15.449000 0.7190 0.7170 0.7170 0.7170 0.7170
15.483047 0.7150 0.7150 0.7150 0.7150 0.7150
15.517000 0.7150 0.7150 0.7150 0.7150 0.7150
15.551047 0.7140 0.7120 0.7100 0.7100 0.7100
15.585000 0.7100 0.7120 0.7100 0.7100 0.7090
15.619047 0.7090 0.7090 0.7100 0.7100 0.7100
15.653000 0.7100 0.7100 0.7100 0.7100 0.7090
15.687047 0.7090 0.7070 0.7070 0.7070 0.7070
15.721000 0.7050 0.7050 0.7050 0.7040 0.7040
15.755047 0.7040 0.7020 0.7000 0.7000 0.7000
15.789000 0.6980 0.6970 0.6970 0.6950 0.6930
15.823047 0.6930 0.6930 0.6930 0.6930 0.6930
15.857000 0.6930 0.6930 0.6920 0.6920 0.6920
15.891047 0.6900 0.6900 0.6900 0.6880 0.6880
15.925000 0.6880 0.6870 0.6870 0.6870 0.6870
15.959047 0.6870 0.6870 0.6870 0.6870 0.6870
15.993000 0.6870 0.6870
##END=
