##TITLE=Benzaldehyde, purin-2-yl Hydrazone
##JCAMP-DX=4.24
##DATA TYPE=INFRARED SPECTRUM
##CLASS=COBLENTZ III
##ORIGIN=SOUTHERN RESEARCH INSTITUTE
##OWNER=Copyright (C) 1987 by the Coblentz Society
Collection (C) 2018 copyright by the U.S. Secretary of Commerce
on behalf of the United States of America. All rights reserved.
##DATE=1958/01/07
##NAMES=benzaldehyde 7H-purin-2-ylhydrazone
##MOLFORM=C12 H10 N6
##SOURCE REFERENCE=COBLENTZ NO. 8260
##$NIST ID=B6008260
##$NIST SOURCE=COBLENTZ
##$NIST IMAGE=cob8260
##SPECTROMETER/DATA SYSTEM=PERKIN-ELMER 21 (GRATING)
##INSTRUMENT PARAMETERS=FILTER CHANGE ABOUT 1100 CM^-^1
##STATE=SOLID (0.5 mg / 650 mg KBr DISC)
##SAMPLING PROCEDURE=TRANSMISSION
##RESOLUTION=2
##DATA PROCESSING=DIGITIZED BY COBLENTZ SOCIETY (BATCH II) FROM HARD COPY (ADJUSTED \addcm-1\8-5-0\)
##XUNITS=1/CM
##YUNITS=TRANSMITTANCE
##XFACTOR=1.0
##YFACTOR=1
##DELTAX=1.002249
##FIRSTX=602.36
##LASTX=4006
##FIRSTY=0.4498
##MAXX=4006
##MINX=602.36
##MAXY=0.726421
##MINY=0.0212
##NPOINTS=3397
##XYDATA=(X++(Y..Y))
602.360000 0.4498 0.4540 0.4603 0.4673 0.4761
607.371245 0.4853 0.4921 0.4954 0.4976 0.5028
612.382490 0.5002 0.5003 0.4994 0.4984 0.4963
617.393736 0.4927 0.4897 0.4867 0.4810 0.4758
622.404981 0.4712 0.4663 0.4614 0.4565 0.4521
627.416226 0.4477 0.4438 0.4412 0.4386 0.4389
632.427471 0.4364 0.4497 0.4569 0.4650 0.4728
637.438717 0.4841 0.4979 0.5162 0.5477 0.5932
642.449962 0.6409 0.6780 0.6840 0.6831 0.6824
647.461207 0.6794 0.6756 0.6720 0.6685 0.6647
652.472452 0.6609 0.6571 0.6533 0.6493 0.6452
657.483697 0.6400 0.6335 0.6266 0.6196 0.6126
662.494943 0.6056 0.5987 0.5918 0.5848 0.5779
667.506188 0.5718 0.5670 0.5626 0.5584 0.5564
672.517433 0.5556 0.5551 0.5546 0.5540 0.5524
677.528678 0.5468 0.5407 0.5353 0.5299 0.5246
682.539923 0.5185 0.5118 0.5058 0.5003 0.4951
687.551169 0.4906 0.4870 0.4838 0.4805 0.4612
692.562414 0.4289 0.3949 0.3608 0.3268 0.2928
697.573659 0.2608 0.2483 0.2540 0.2537 0.3159
702.584904 0.3966 0.4504 0.5043 0.5581 0.5955
707.596150 0.6107 0.6174 0.6206 0.6219 0.6233
712.607395 0.6246 0.6255 0.6258 0.6247 0.6247
717.618640 0.6258 0.6256 0.6254 0.6249 0.6241
722.629885 0.6231 0.6222 0.6214 0.6205 0.6195
727.641130 0.6180 0.6162 0.6145 0.6130 0.6115
732.652376 0.6101 0.6087 0.6073 0.6060 0.6048
737.663621 0.6035 0.6022 0.6009 0.5997 0.5984
742.674866 0.5970 0.5957 0.5943 0.5929 0.5915
747.686111 0.5901 0.5883 0.5863 0.5832 0.5780
752.697356 0.5724 0.5669 0.5615 0.5553 0.5477
757.708602 0.5400 0.5324 0.5247 0.5172 0.5049
762.719847 0.4749 0.4304 0.3858 0.3413 0.2978
767.731092 0.2680 0.2678 0.2913 0.3761 0.4531
772.742337 0.5300 0.5934 0.6129 0.6210 0.6248
777.753583 0.6277 0.6294 0.6306 0.6317 0.6316
782.764828 0.6305 0.6255 0.6116 0.5977 0.5838
787.776073 0.5700 0.5560 0.5422 0.5283 0.5144
792.787318 0.5005 0.4866 0.4727 0.4595 0.4514
797.798563 0.4512 0.4514 0.4567 0.4988 0.5311
802.809809 0.5633 0.5951 0.6220 0.6280 0.6339
807.821054 0.6373 0.6407 0.6446 0.6514 0.6580
812.832299 0.6645 0.6716 0.6792 0.6861 0.6886
817.843544 0.6896 0.6906 0.6911 0.6914 0.6918
822.854790 0.6922 0.6927 0.6929 0.6930 0.6931
827.866035 0.6932 0.6932 0.6918 0.6934 0.6934
832.877280 0.6934 0.6934 0.6934 0.6935 0.6935
837.888525 0.6935 0.6934 0.6933 0.6932 0.6931
842.899770 0.6930 0.6929 0.6927 0.6922 0.6917
847.911016 0.6903 0.6888 0.6873 0.6858 0.6842
852.922261 0.6827 0.6810 0.6794 0.6780 0.6765
857.933506 0.6750 0.6739 0.6732 0.6725 0.6717
862.944751 0.6709 0.6701 0.6693 0.6684 0.6676
867.955996 0.6666 0.6652 0.6629 0.6604 0.6580
872.967242 0.6555 0.6526 0.6496 0.6466 0.6437
877.978487 0.6392 0.6303 0.6044 0.5743 0.5474
882.989732 0.5412 0.5446 0.5644 0.5889 0.6135
888.000977 0.6237 0.6223 0.6071 0.5878 0.5686
893.012223 0.5494 0.5302 0.5249 0.5252 0.5228
898.023468 0.5364 0.5562 0.5756 0.5950 0.6144
903.034713 0.6226 0.6234 0.6233 0.6233 0.6232
908.045958 0.6232 0.6229 0.6229 0.6226 0.6219
913.057203 0.6208 0.6194 0.6177 0.6158 0.6131
918.068449 0.6098 0.6065 0.6029 0.5978 0.5731
923.079694 0.5493 0.5295 0.4969 0.4576 0.4184
928.090939 0.3828 0.3746 0.3883 0.4219 0.4688
933.102184 0.5072 0.5195 0.5077 0.4869 0.4643
938.113429 0.4417 0.4190 0.3964 0.3847 0.3841
943.124675 0.4334 0.5092 0.5651 0.6139 0.6448
948.135920 0.6580 0.6639 0.6683 0.6713 0.6732
953.147165 0.6740 0.6748 0.6751 0.6755 0.6750
958.158410 0.6736 0.6727 0.6715 0.6703 0.6690
963.169656 0.6676 0.6659 0.6642 0.6625 0.6605
968.180901 0.6584 0.6564 0.6543 0.6525 0.6509
973.192146 0.6496 0.6492 0.6498 0.6504 0.6512
978.203391 0.6520 0.6529 0.6537 0.6544 0.6550
983.214636 0.6556 0.6561 0.6566 0.6567 0.6562
988.225882 0.6556 0.6548 0.6533 0.6517 0.6501
993.237127 0.6485 0.6467 0.6450 0.6433 0.6414
998.248372 0.6390 0.6363 0.6336 0.6309 0.6282
1003.259617 0.6255 0.6229 0.6203 0.6176 0.6150
1008.270863 0.6128 0.6121 0.6115 0.6109 0.6103
1013.282108 0.6090 0.6078 0.6066 0.6034 0.5916
1018.293353 0.5788 0.5661 0.5533 0.5433 0.5437
1023.304598 0.5446 0.5476 0.5470 0.5603 0.5659
1028.315843 0.5716 0.5772 0.5829 0.5885 0.5942
1033.327089 0.5998 0.6047 0.6073 0.6091 0.6102
1038.338334 0.6124 0.6110 0.6114 0.6114 0.6113
1043.349579 0.6104 0.6096 0.6087 0.6075 0.6063
1048.360824 0.6050 0.6038 0.6019 0.5999 0.5980
1053.372069 0.5960 0.5941 0.5919 0.5889 0.5858
1058.383315 0.5827 0.5794 0.5762 0.5729 0.5694
1063.394560 0.5654 0.5615 0.5575 0.5535 0.5495
1068.405805 0.5455 0.5407 0.5353 0.5214 0.4940
1073.417050 0.4660 0.4379 0.4098 0.3817 0.3743
1078.428296 0.3723 0.4389 0.5278 0.5434 0.5502
1083.439541 0.5598 0.5707 0.5749 0.5783 0.5800
1088.450786 0.5816 0.5806 0.5719 0.5595 0.5469
1093.462031 0.5341 0.5215 0.5087 0.4961 0.4833
1098.473276 0.4706 0.4579 0.4452 0.4326 0.4251
1103.484522 0.4236 0.4233 0.4230 0.4228 0.4226
1108.495767 0.4134 0.4016 0.3897 0.3778 0.3660
1113.507012 0.3541 0.3463 0.3403 0.3236 0.2937
1118.518257 0.2606 0.2275 0.2074 0.2025 0.2016
1123.529503 0.2015 0.2019 0.2053 0.2215 0.2426
1128.540748 0.2636 0.2847 0.3057 0.3268 0.3478
1133.551993 0.3688 0.3899 0.4109 0.4320 0.4531
1138.563238 0.4741 0.4952 0.5139 0.5280 0.5420
1143.574483 0.5518 0.5571 0.5604 0.5632 0.5658
1148.585729 0.5672 0.5680 0.5687 0.5687 0.5679
1153.596974 0.5676 0.5672 0.5665 0.5657 0.5647
1158.608219 0.5630 0.5603 0.5568 0.5522 0.5436
1163.619464 0.5354 0.5317 0.5299 0.5288 0.5280
1168.630709 0.5273 0.5266 0.5258 0.5248 0.5236
1173.641955 0.5224 0.5212 0.5196 0.5173 0.5146
1178.653200 0.5114 0.5080 0.5024 0.4834 0.4514
1183.664445 0.4194 0.3874 0.3555 0.3250 0.3105
1188.675690 0.3254 0.3619 0.4079 0.4538 0.4998
1193.686936 0.5413 0.5621 0.5623 0.5627 0.5626
1198.698181 0.5620 0.5614 0.5603 0.5590 0.5576
1203.709426 0.5559 0.5539 0.5519 0.5498 0.5472
1208.720671 0.5443 0.5412 0.5381 0.5348 0.5314
1213.731916 0.5272 0.5214 0.5146 0.5069 0.4976
1218.743162 0.4851 0.4599 0.4226 0.3929 0.3451
1223.754407 0.3016 0.2580 0.2157 0.1849 0.1761
1228.765652 0.1672 0.1571 0.1449 0.1330 0.1256
1233.776897 0.1224 0.1225 0.1211 0.1213 0.1260
1238.788142 0.1477 0.1781 0.2083 0.2386 0.2690
1243.799388 0.2992 0.3296 0.3599 0.3902 0.4205
1248.810633 0.4509 0.4811 0.5100 0.5289 0.5312
1253.821878 0.5328 0.5335 0.5338 0.5339 0.5339
1258.833123 0.5336 0.5329 0.5315 0.5285 0.5249
1263.844369 0.5186 0.5095 0.4949 0.4986 0.4981
1268.855614 0.4985 0.4996 0.5041 0.5089 0.5136
1273.866859 0.5185 0.5234 0.5270 0.5303 0.5334
1278.878104 0.5360 0.5382 0.5397 0.5395 0.5397
1283.889349 0.5390 0.5380 0.5368 0.5355 0.5329
1288.900595 0.5299 0.5267 0.5233 0.5196 0.5165
1293.911840 0.5134 0.5103 0.5072 0.5040 0.5009
1298.923085 0.4978 0.4938 0.4898 0.4856 0.4810
1303.934330 0.4763 0.4741 0.4724 0.4628 0.4441
1308.945576 0.4245 0.4050 0.3856 0.3661 0.3466
1313.956821 0.3271 0.3076 0.2881 0.2736 0.2650
1318.968066 0.2612 0.2641 0.2605 0.2606 0.2625
1323.979311 0.2654 0.2692 0.2774 0.3007 0.3270
1328.990556 0.3533 0.3796 0.4060 0.4323 0.4585
1334.001802 0.4848 0.5039 0.5132 0.5182 0.5222
1339.013047 0.5245 0.5251 0.5248 0.5243 0.5228
1344.024292 0.5229 0.5224 0.5211 0.5194 0.5169
1349.035537 0.5117 0.5045 0.4957 0.4846 0.4763
1354.046782 0.4703 0.4639 0.4563 0.4435 0.4226
1359.058028 0.3892 0.3216 0.2995 0.2975 0.2989
1364.069273 0.3107 0.3260 0.3413 0.3566 0.3720
1369.080518 0.3873 0.4026 0.4124 0.4180 0.4154
1374.091763 0.4120 0.4105 0.4078 0.4029 0.3968
1379.103009 0.3908 0.3848 0.3788 0.3728 0.3668
1384.114254 0.3607 0.3548 0.3487 0.3402 0.3297
1389.125499 0.3192 0.3087 0.2981 0.2876 0.2771
1394.136744 0.2649 0.2555 0.2504 0.2443 0.2329
1399.147989 0.2177 0.2026 0.1875 0.1723 0.1572
1404.159235 0.1421 0.1269 0.1117 0.0966 0.0814
1409.170480 0.0663 0.0534 0.0452 0.0373 0.0277
1414.181725 0.0224 0.0214 0.0212 0.0215 0.0221
1419.192970 0.0228 0.0241 0.0265 0.0298 0.0333
1424.204215 0.0363 0.0391 0.0574 0.1056 0.1633
1429.215461 0.2210 0.2699 0.2986 0.3179 0.3372
1434.226706 0.3564 0.3758 0.3951 0.4144 0.4337
1439.237951 0.4530 0.4721 0.4850 0.4855 0.4851
1444.249196 0.4843 0.4842 0.4817 0.4754 0.4663
1449.260442 0.4571 0.4479 0.4387 0.4295 0.4203
1454.271687 0.4129 0.4116 0.4165 0.4292 0.4318
1459.282932 0.4245 0.4674 0.4802 0.4929 0.5055
1464.294177 0.5183 0.5310 0.5438 0.5564 0.5670
1469.305422 0.5717 0.5758 0.5777 0.5791 0.5796
1474.316668 0.5807 0.5790 0.5781 0.5764 0.5736
1479.327913 0.5708 0.5676 0.5646 0.5620 0.5595
1484.339158 0.5570 0.5544 0.5517 0.5489 0.5454
1489.350403 0.5410 0.5325 0.5163 0.5001 0.4840
1494.361649 0.4679 0.4517 0.4355 0.4199 0.4104
1499.372894 0.3998 0.3896 0.3803 0.3710 0.3618
1504.384139 0.3524 0.3432 0.3341 0.3297 0.3286
1509.395384 0.3347 0.3482 0.3619 0.3754 0.3890
1514.406629 0.4026 0.4162 0.4298 0.4434 0.4570
1519.417875 0.4706 0.4827 0.4822 0.4812 0.4803
1524.429120 0.4789 0.4698 0.4573 0.4447 0.4322
1529.440365 0.4196 0.4070 0.3945 0.3856 0.3815
1534.451610 0.3782 0.3742 0.3689 0.3635 0.3594
1539.462855 0.3561 0.3529 0.3476 0.3413 0.3003
1544.474101 0.2715 0.2450 0.2186 0.1921 0.1655
1549.485346 0.1390 0.1125 0.0882 0.0845 0.0832
1554.496591 0.0850 0.0871 0.0912 0.1064 0.1239
1559.507836 0.1414 0.1589 0.1764 0.1939 0.2114
1564.519082 0.2289 0.2464 0.2639 0.2814 0.2989
1569.530327 0.3164 0.3337 0.3452 0.3503 0.3527
1574.541572 0.3554 0.3536 0.3520 0.3507 0.3488
1579.552817 0.3287 0.3015 0.2744 0.2539 0.2466
1584.564062 0.2438 0.2413 0.2392 0.2372 0.2050
1589.575308 0.1375 0.0853 0.0691 0.0646 0.0603
1594.586553 0.0558 0.0521 0.0501 0.0567 0.0673
1599.597798 0.0775 0.0877 0.0979 0.1081 0.1128
1604.609043 0.1134 0.1144 0.1147 0.1150 0.1161
1609.620288 0.1229 0.1331 0.1432 0.1533 0.1578
1614.631534 0.1587 0.1588 0.1561 0.1511 0.1457
1619.642779 0.1402 0.1347 0.1293 0.1241 0.1198
1624.654024 0.1212 0.1228 0.1298 0.1462 0.1656
1629.665269 0.1850 0.2044 0.2238 0.2431 0.2625
1634.676515 0.2820 0.3013 0.3207 0.3402 0.3595
1639.687760 0.3789 0.3983 0.4168 0.4296 0.4424
1644.699005 0.4511 0.4569 0.4631 0.4727 0.4828
1649.710250 0.5014 0.5300 0.5485 0.5600 0.5712
1654.721495 0.5822 0.5923 0.6021 0.6124 0.6235
1659.732741 0.6314 0.6374 0.6433 0.6485 0.6522
1664.743986 0.6554 0.6587 0.6620 0.6655 0.6696
1669.755231 0.6738 0.6780 0.6818 0.6853 0.6889
1674.766476 0.6924 0.6955 0.6984 0.7012 0.7038
1679.777722 0.7054 0.7064 0.7069 0.7073 0.7077
1684.788967 0.7077 0.7076 0.7076 0.7107 0.7084
1689.800212 0.7072 0.7070 0.7069 0.7068 0.7068
1694.811457 0.7068 0.7070 0.7076 0.7081 0.7087
1699.822702 0.7092 0.7098 0.7103 0.7109 0.7120
1704.833948 0.7134 0.7151 0.7169 0.7186 0.7202
1709.845193 0.7216 0.7228 0.7241 0.7249 0.7254
1714.856438 0.7259 0.7264 0.7264 0.7264 0.7263
1719.867683 0.7262 0.7259 0.7251 0.7241 0.7232
1724.878928 0.7222 0.7212 0.7196 0.7177 0.7157
1729.890174 0.7137 0.7117 0.7098 0.7079 0.7057
1734.901419 0.7032 0.7003 0.6970 0.6936 0.6900
1739.912664 0.6860 0.6819 0.6774 0.6729 0.6694
1744.923909 0.6668 0.6642 0.6616 0.6584 0.6553
1749.935155 0.6523 0.6522 0.6547 0.6607 0.6674
1754.946400 0.6741 0.6808 0.6876 0.6943 0.7010
1759.957645 0.7077 0.7102 0.7111 0.7117 0.7121
1764.968890 0.7125 0.7125 0.7124 0.7121 0.7118
1769.980135 0.7115 0.7113 0.7111 0.7109 0.7108
1774.991381 0.7109 0.7105 0.7112 0.7118 0.7124
1780.002626 0.7129 0.7133 0.7132 0.7132 0.7132
1785.013871 0.7131 0.7131 0.7125 0.7118 0.7111
1790.025116 0.7104 0.7098 0.7091 0.7084 0.7077
1795.036361 0.7070 0.7063 0.7056 0.7050 0.7044
1800.047607 0.7039 0.7033 0.7028 0.7022 0.7017
1805.058852 0.7013 0.7013 0.7013 0.7013 0.7014
1810.070097 0.7017 0.7029 0.7042 0.7049 0.7055
1815.081342 0.7061 0.7068 0.7075 0.7082 0.7092
1820.092588 0.7109 0.7125 0.7128 0.7129 0.7115
1825.103833 0.7102 0.7089 0.7075 0.7062 0.7049
1830.115078 0.7036 0.7023 0.7009 0.7003 0.6998
1835.126323 0.6994 0.6992 0.6990 0.6987 0.6985
1840.137568 0.6982 0.6980 0.6978 0.6975 0.6972
1845.148814 0.6967 0.6961 0.6956 0.6951 0.6944
1850.160059 0.6938 0.6931 0.6925 0.6918 0.6912
1855.171304 0.6905 0.6901 0.6900 0.6899 0.6898
1860.182549 0.6896 0.6895 0.6895 0.6895 0.6896
1865.193795 0.6896 0.6896 0.6897 0.6898 0.6900
1870.205040 0.6901 0.6902 0.6904 0.6905 0.6911
1875.216285 0.6916 0.6921 0.6926 0.6930 0.6935
1880.227530 0.6940 0.6945 0.6950 0.6955 0.6960
1885.238775 0.6966 0.6971 0.6972 0.6972 0.6973
1890.250021 0.6974 0.6974 0.6975 0.6976 0.6975
1895.261266 0.6967 0.6955 0.6944 0.6932 0.6921
1900.272511 0.6909 0.6899 0.6889 0.6880 0.6870
1905.283756 0.6861 0.6852 0.6851 0.6853 0.6855
1910.295001 0.6857 0.6859 0.6860 0.6860 0.6861
1915.306247 0.6862 0.6863 0.6862 0.6859 0.6855
1920.317492 0.6852 0.6850 0.6847 0.6845 0.6842
1925.328737 0.6839 0.6837 0.6834 0.6832 0.6829
1930.339982 0.6827 0.6824 0.6821 0.6820 0.6822
1935.351228 0.6823 0.6825 0.6827 0.6828 0.6830
1940.362473 0.6832 0.6835 0.6837 0.6839 0.6842
1945.373718 0.6844 0.6846 0.6847 0.6848 0.6848
1950.384963 0.6849 0.6850 0.6851 0.6851 0.6849
1955.396208 0.6848 0.6846 0.6844 0.6842 0.6840
1960.407454 0.6838 0.6835 0.6832 0.6829 0.6826
1965.418699 0.6823 0.6821 0.6818 0.6815 0.6812
1970.429944 0.6809 0.6807 0.6804 0.6801 0.6798
1975.441189 0.6796 0.6793 0.6791 0.6788 0.6786
1980.452435 0.6783 0.6781 0.6778 0.6776 0.6775
1985.463680 0.6774 0.6773 0.6771 0.6768 0.6765
1990.474925 0.6762 0.6759 0.6756 0.6753 0.6750
1995.486170 0.6746 0.6742 0.6737 0.6733 0.6728
2000.497415 0.6724 0.6720 0.6715 0.6711 0.6706
2005.508661 0.6702 0.6697 0.6693 0.6689 0.6687
2010.519906 0.6686 0.6684 0.6682 0.6681 0.6680
2015.531151 0.6681 0.6681 0.6682 0.6683 0.6684
2020.542396 0.6685 0.6686 0.6688 0.6689 0.6691
2025.553641 0.6692 0.6693 0.6694 0.6694 0.6695
2030.564887 0.6695 0.6695 0.6695 0.6695 0.6696
2035.576132 0.6696 0.6696 0.6696 0.6697 0.6697
2040.587377 0.6697 0.6697 0.6697 0.6698 0.6697
2045.598622 0.6696 0.6696 0.6695 0.6694 0.6693
2050.609868 0.6693 0.6692 0.6691 0.6690 0.6689
2055.621113 0.6688 0.6687 0.6686 0.6685 0.6684
2060.632358 0.6682 0.6681 0.6680 0.6679 0.6678
2065.643603 0.6676 0.6675 0.6674 0.6673 0.6671
2070.654848 0.6668 0.6666 0.6664 0.6662 0.6659
2075.666094 0.6657 0.6655 0.6654 0.6654 0.6654
2080.677339 0.6654 0.6654 0.6653 0.6651 0.6649
2085.688584 0.6647 0.6645 0.6643 0.6641 0.6639
2090.699829 0.6637 0.6634 0.6630 0.6627 0.6623
2095.711074 0.6619 0.6616 0.6612 0.6608 0.6605
2100.722320 0.6601 0.6597 0.6593 0.6589 0.6585
2105.733565 0.6582 0.6578 0.6574 0.6570 0.6566
2110.744810 0.6563 0.6562 0.6562 0.6561 0.6560
2115.756055 0.6560 0.6559 0.6559 0.6558 0.6558
2120.767301 0.6557 0.6556 0.6556 0.6555 0.6555
2125.778546 0.6554 0.6554 0.6554 0.6554 0.6555
2130.789791 0.6555 0.6555 0.6555 0.6555 0.6554
2135.801036 0.6552 0.6549 0.6547 0.6545 0.6543
2140.812281 0.6541 0.6539 0.6535 0.6531 0.6527
2145.823527 0.6523 0.6519 0.6515 0.6511 0.6507
2150.834772 0.6504 0.6501 0.6499 0.6496 0.6493
2155.846017 0.6490 0.6487 0.6484 0.6481 0.6478
2160.857262 0.6476 0.6476 0.6477 0.6478 0.6479
2165.868508 0.6480 0.6481 0.6482 0.6483 0.6484
2170.879753 0.6487 0.6490 0.6494 0.6499 0.6503
2175.890998 0.6507 0.6508 0.6505 0.6502 0.6500
2180.902243 0.6493 0.6484 0.6474 0.6464 0.6453
2185.913488 0.6442 0.6430 0.6417 0.6401 0.6387
2190.924734 0.6376 0.6369 0.6361 0.6354 0.6347
2195.935979 0.6342 0.6339 0.6336 0.6332 0.6329
2200.947224 0.6326 0.6323 0.6320 0.6317 0.6314
2205.958469 0.6312 0.6312 0.6312 0.6312 0.6313
2210.969714 0.6314 0.6315 0.6316 0.6318 0.6320
2215.980960 0.6322 0.6322 0.6322 0.6322 0.6322
2220.992205 0.6322 0.6322 0.6323 0.6323 0.6323
2226.003450 0.6323 0.6323 0.6323 0.6323 0.6323
2231.014695 0.6324 0.6324 0.6324 0.6324 0.6324
2236.025941 0.6324 0.6324 0.6324 0.6325 0.6325
2241.037186 0.6325 0.6325 0.6325 0.6325 0.6325
2246.048431 0.6325 0.6326 0.6326 0.6326 0.6326
2251.059676 0.6326 0.6326 0.6326 0.6326 0.6327
2256.070921 0.6327 0.6327 0.6327 0.6327 0.6327
2261.082167 0.6327 0.6327 0.6327 0.6327 0.6327
2266.093412 0.6326 0.6326 0.6326 0.6326 0.6325
2271.104657 0.6325 0.6324 0.6324 0.6323 0.6323
2276.115902 0.6322 0.6322 0.6321 0.6321 0.6320
2281.127147 0.6320 0.6319 0.6318 0.6317 0.6316
2286.138393 0.6314 0.6313 0.6312 0.6311 0.6310
2291.149638 0.6309 0.6306 0.6304 0.6301 0.6299
2296.160883 0.6296 0.6294 0.6291 0.6288 0.6282
2301.172128 0.6274 0.6266 0.6259 0.6251 0.6243
2306.183374 0.6236 0.6228 0.6217 0.6205 0.6194
2311.194619 0.6182 0.6171 0.6159 0.6147 0.6135
2316.205864 0.6124 0.6115 0.6108 0.6102 0.6095
2321.217109 0.6088 0.6081 0.6074 0.6067 0.6060
2326.228354 0.6054 0.6047 0.6040 0.6033 0.6027
2331.239600 0.6023 0.6018 0.6014 0.6009 0.6005
2336.250845 0.6000 0.5996 0.5991 0.5987 0.5984
2341.262090 0.5982 0.5980 0.5978 0.5976 0.5976
2346.273335 0.5976 0.5976 0.5977 0.5977 0.5977
2351.284581 0.5977 0.5977 0.5978 0.5978 0.5978
2356.295826 0.5978 0.5978 0.5979 0.5981 0.5982
2361.307071 0.5983 0.5985 0.5986 0.5987 0.5988
2366.318316 0.5990 0.5991 0.5992 0.5992 0.5992
2371.329561 0.5992 0.5991 0.5991 0.5991 0.5990
2376.340807 0.5989 0.5988 0.5987 0.5986 0.5984
2381.352052 0.5983 0.5982 0.5981 0.5980 0.5978
2386.363297 0.5977 0.5975 0.5973 0.5971 0.5969
2391.374542 0.5967 0.5965 0.5963 0.5960 0.5958
2396.385787 0.5956 0.5954 0.5952 0.5951 0.5950
2401.397033 0.5948 0.5947 0.5946 0.5945 0.5937
2406.408278 0.5928 0.5920 0.5911 0.5903 0.5899
2411.419523 0.5895 0.5892 0.5888 0.5885 0.5881
2416.430768 0.5879 0.5878 0.5877 0.5875 0.5874
2421.442014 0.5873 0.5873 0.5872 0.5872 0.5871
2426.453259 0.5870 0.5870 0.5869 0.5869 0.5868
2431.464504 0.5866 0.5864 0.5861 0.5859 0.5856
2436.475749 0.5851 0.5846 0.5841 0.5836 0.5831
2441.486994 0.5826 0.5821 0.5816 0.5817 0.5818
2446.498240 0.5819 0.5820 0.5822 0.5823 0.5824
2451.509485 0.5825 0.5825 0.5824 0.5823 0.5822
2456.520730 0.5822 0.5821 0.5820 0.5819 0.5820
2461.531975 0.5821 0.5822 0.5823 0.5824 0.5824
2466.543220 0.5819 0.5813 0.5808 0.5802 0.5790
2471.554466 0.5777 0.5764 0.5752 0.5739 0.5727
2476.565711 0.5716 0.5708 0.5699 0.5691 0.5682
2481.576956 0.5674 0.5665 0.5659 0.5653 0.5646
2486.588201 0.5640 0.5634 0.5628 0.5622 0.5619
2491.599447 0.5617 0.5614 0.5612 0.5610 0.5607
2496.610692 0.5605 0.5603 0.5601 0.5600 0.5600
2501.621937 0.5600 0.5599 0.5599 0.5599 0.5599
2506.633182 0.5599 0.5599 0.5598 0.5599 0.5600
2511.644427 0.5601 0.5602 0.5603 0.5602 0.5602
2516.655673 0.5601 0.5600 0.5599 0.5599 0.5598
2521.666918 0.5597 0.5596 0.5596 0.5595 0.5594
2526.678163 0.5594 0.5593 0.5592 0.5591 0.5591
2531.689408 0.5590 0.5589 0.5589 0.5588 0.5587
2536.700654 0.5586 0.5586 0.5585 0.5584 0.5584
2541.711899 0.5583 0.5582 0.5581 0.5580 0.5579
2546.723144 0.5578 0.5578 0.5577 0.5577 0.5577
2551.734389 0.5576 0.5576 0.5576 0.5575 0.5575
2556.745634 0.5574 0.5574 0.5574 0.5573 0.5574
2561.756880 0.5574 0.5574 0.5574 0.5574 0.5575
2566.768125 0.5574 0.5570 0.5563 0.5556 0.5548
2571.779370 0.5540 0.5527 0.5515 0.5502 0.5489
2576.790615 0.5480 0.5482 0.5483 0.5485 0.5487
2581.801860 0.5489 0.5492 0.5494 0.5497 0.5499
2586.813106 0.5502 0.5504 0.5507 0.5509 0.5512
2591.824351 0.5514 0.5515 0.5517 0.5519 0.5521
2596.835596 0.5522 0.5522 0.5519 0.5515 0.5510
2601.846841 0.5506 0.5501 0.5497 0.5492 0.5487
2606.858087 0.5481 0.5474 0.5468 0.5461 0.5455
2611.869332 0.5449 0.5440 0.5431 0.5423 0.5414
2616.880577 0.5406 0.5397 0.5388 0.5380 0.5371
2621.891822 0.5362 0.5353 0.5345 0.5337 0.5330
2626.903067 0.5322 0.5314 0.5306 0.5299 0.5291
2631.914313 0.5283 0.5276 0.5270 0.5263 0.5256
2636.925558 0.5249 0.5243 0.5236 0.5229 0.5223
2641.936803 0.5216 0.5209 0.5203 0.5196 0.5189
2646.948048 0.5183 0.5176 0.5169 0.5163 0.5156
2651.959293 0.5149 0.5142 0.5135 0.5128 0.5121
2656.970539 0.5114 0.5107 0.5100 0.5094 0.5087
2661.981784 0.5080 0.5073 0.5066 0.5060 0.5053
2666.993029 0.5047 0.5041 0.5038 0.5036 0.5035
2672.004274 0.5033 0.5032 0.5030 0.5030 0.5032
2677.015520 0.5035 0.5037 0.5038 0.5039 0.5040
2682.026765 0.5041 0.5042 0.5041 0.5040 0.5037
2687.038010 0.5030 0.5018 0.5007 0.4996 0.4985
2692.049255 0.4975 0.4964 0.4949 0.4935 0.4921
2697.060500 0.4910 0.4907 0.4903 0.4900 0.4896
2702.071746 0.4892 0.4889 0.4885 0.4882 0.4880
2707.082991 0.4879 0.4879 0.4880 0.4887 0.4890
2712.094236 0.4882 0.4883 0.4885 0.4888 0.4890
2717.105481 0.4893 0.4896 0.4899 0.4901 0.4904
2722.116727 0.4907 0.4909 0.4912 0.4914 0.4917
2727.127972 0.4919 0.4922 0.4924 0.4927 0.4930
2732.139217 0.4934 0.4937 0.4937 0.4931 0.4922
2737.150462 0.4912 0.4902 0.4889 0.4875 0.4862
2742.161707 0.4848 0.4832 0.4813 0.4794 0.4775
2747.172953 0.4756 0.4737 0.4718 0.4699 0.4679
2752.184198 0.4659 0.4639 0.4618 0.4598 0.4577
2757.195443 0.4556 0.4535 0.4512 0.4487 0.4463
2762.206688 0.4438 0.4414 0.4390 0.4365 0.4341
2767.217933 0.4318 0.4294 0.4271 0.4247 0.4224
2772.229179 0.4200 0.4177 0.4154 0.4131 0.4108
2777.240424 0.4089 0.4072 0.4056 0.4039 0.4023
2782.251669 0.4012 0.4002 0.3982 0.3980 0.3991
2787.262914 0.3994 0.3998 0.4002 0.4011 0.4026
2792.274160 0.4042 0.4064 0.4091 0.4117 0.4142
2797.285405 0.4167 0.4199 0.4230 0.4253 0.4272
2802.296650 0.4278 0.4277 0.4276 0.4275 0.4273
2807.307895 0.4271 0.4268 0.4263 0.4258 0.4253
2812.319140 0.4248 0.4243 0.4238 0.4234 0.4229
2817.330386 0.4225 0.4221 0.4216 0.4212 0.4208
2822.341631 0.4205 0.4202 0.4199 0.4194 0.4185
2827.352876 0.4176 0.4168 0.4159 0.4148 0.4137
2832.364121 0.4127 0.4119 0.4110 0.4102 0.4093
2837.375366 0.4084 0.4076 0.4065 0.4053 0.4040
2842.386612 0.4028 0.4015 0.4002 0.3990 0.3978
2847.397857 0.3966 0.3954 0.3942 0.3931 0.3921
2852.409102 0.3911 0.3901 0.3892 0.3882 0.3873
2857.420347 0.3863 0.3859 0.3859 0.3860 0.3860
2862.431593 0.3860 0.3860 0.3860 0.3861 0.3861
2867.442838 0.3861 0.3861 0.3861 0.3861 0.3860
2872.454083 0.3860 0.3859 0.3858 0.3855 0.3852
2877.465328 0.3845 0.3836 0.3828 0.3819 0.3808
2882.476573 0.3796 0.3784 0.3773 0.3761 0.3748
2887.487819 0.3737 0.3727 0.3716 0.3706 0.3695
2892.499064 0.3685 0.3674 0.3664 0.3653 0.3643
2897.510309 0.3632 0.3622 0.3611 0.3601 0.3589
2902.521554 0.3578 0.3566 0.3554 0.3543 0.3531
2907.532800 0.3520 0.3508 0.3496 0.3485 0.3473
2912.544045 0.3461 0.3450 0.3438 0.3425 0.3413
2917.555290 0.3400 0.3388 0.3375 0.3363 0.3350
2922.566535 0.3338 0.3326 0.3313 0.3301 0.3288
2927.577780 0.3275 0.3262 0.3248 0.3235 0.3221
2932.589026 0.3208 0.3194 0.3181 0.3167 0.3154
2937.600271 0.3140 0.3127 0.3113 0.3100 0.3086
2942.611516 0.3073 0.3059 0.3045 0.3030 0.3016
2947.622761 0.3002 0.2988 0.2974 0.2960 0.2946
2952.634006 0.2932 0.2918 0.2905 0.2893 0.2881
2957.645252 0.2868 0.2856 0.2844 0.2831 0.2819
2962.656497 0.2807 0.2795 0.2782 0.2770 0.2763
2967.667742 0.2760 0.2758 0.2755 0.2751 0.2746
2972.678987 0.2741 0.2726 0.2704 0.2681 0.2660
2977.690233 0.2641 0.2624 0.2608 0.2592 0.2576
2982.701478 0.2564 0.2552 0.2541 0.2531 0.2526
2987.712723 0.2523 0.2522 0.2522 0.2523 0.2525
2992.723968 0.2526 0.2527 0.2528 0.2529 0.2530
2997.735213 0.2531 0.2532 0.2533 0.2535 0.2536
3002.746459 0.2537 0.2538 0.2539 0.2540 0.2541
3007.757704 0.2540 0.2539 0.2537 0.2535 0.2533
3012.768949 0.2531 0.2525 0.2519 0.2513 0.2507
3017.780194 0.2500 0.2494 0.2488 0.2481 0.2475
3022.791440 0.2468 0.2461 0.2454 0.2447 0.2439
3027.802685 0.2432 0.2425 0.2417 0.2410 0.2403
3032.813930 0.2396 0.2389 0.2384 0.2379 0.2374
3037.825175 0.2369 0.2349 0.2359 0.2354 0.2349
3042.836420 0.2345 0.2348 0.2357 0.2365 0.2376
3047.847666 0.2388 0.2400 0.2411 0.2423 0.2435
3052.858911 0.2446 0.2458 0.2469 0.2480 0.2491
3057.870156 0.2499 0.2507 0.2515 0.2518 0.2519
3062.881401 0.2520 0.2521 0.2520 0.2518 0.2515
3067.892646 0.2513 0.2510 0.2504 0.2497 0.2491
3072.903892 0.2484 0.2478 0.2472 0.2465 0.2459
3077.915137 0.2451 0.2444 0.2436 0.2428 0.2425
3082.926382 0.2428 0.2431 0.2437 0.2445 0.2453
3087.937627 0.2461 0.2469 0.2477 0.2485 0.2492
3092.948873 0.2500 0.2506 0.2512 0.2517 0.2521
3097.960118 0.2522 0.2523 0.2525 0.2526 0.2527
3102.971363 0.2528 0.2529 0.2531 0.2532 0.2533
3107.982608 0.2534 0.2536 0.2538 0.2540 0.2545
3112.993853 0.2566 0.2596 0.2626 0.2653 0.2680
3118.005099 0.2707 0.2735 0.2752 0.2770 0.2788
3123.016344 0.2805 0.2823 0.2840 0.2848 0.2856
3128.027589 0.2865 0.2890 0.2872 0.2873 0.2873
3133.038834 0.2872 0.2869 0.2867 0.2865 0.2862
3138.050079 0.2856 0.2849 0.2842 0.2836 0.2829
3143.061325 0.2822 0.2816 0.2809 0.2802 0.2796
3148.072570 0.2790 0.2784 0.2777 0.2771 0.2765
3153.083815 0.2759 0.2753 0.2750 0.2746 0.2743
3158.095060 0.2740 0.2737 0.2734 0.2731 0.2728
3163.106306 0.2725 0.2722 0.2719 0.2719 0.2718
3168.117551 0.2719 0.2718 0.2718 0.2718 0.2717
3173.128796 0.2717 0.2718 0.2722 0.2725 0.2729
3178.140041 0.2733 0.2736 0.2740 0.2744 0.2747
3183.151286 0.2751 0.2755 0.2759 0.2766 0.2774
3188.162532 0.2782 0.2790 0.2798 0.2806 0.2814
3193.173777 0.2822 0.2830 0.2839 0.2851 0.2864
3198.185022 0.2876 0.2888 0.2901 0.2913 0.2929
3203.196267 0.2947 0.2965 0.2989 0.3025 0.3061
3208.207513 0.3098 0.3134 0.3170 0.3206 0.3242
3213.218758 0.3278 0.3314 0.3350 0.3386 0.3422
3218.230003 0.3458 0.3494 0.3530 0.3566 0.3603
3223.241248 0.3644 0.3688 0.3728 0.3765 0.3790
3228.252493 0.3803 0.3814 0.3824 0.3841 0.3873
3233.263739 0.3909 0.3940 0.3964 0.3987 0.4010
3238.274984 0.4032 0.4054 0.4076 0.4097 0.4115
3243.286229 0.4131 0.4146 0.4161 0.4176 0.4187
3248.297474 0.4199 0.4210 0.4221 0.4231 0.4242
3253.308719 0.4252 0.4264 0.4276 0.4290 0.4304
3258.319965 0.4318 0.4332 0.4346 0.4360 0.4374
3263.331210 0.4388 0.4401 0.4415 0.4428 0.4440
3268.342455 0.4452 0.4464 0.4476 0.4488 0.4498
3273.353700 0.4505 0.4513 0.4521 0.4529 0.4537
3278.364946 0.4545 0.4553 0.4560 0.4567 0.4574
3283.376191 0.4581 0.4589 0.4596 0.4603 0.4609
3288.387436 0.4616 0.4622 0.4629 0.4635 0.4640
3293.398681 0.4643 0.4645 0.4648 0.4651 0.4653
3298.409926 0.4656 0.4658 0.4661 0.4664 0.4665
3303.421172 0.4665 0.4665 0.4665 0.4665 0.4666
3308.432417 0.4666 0.4665 0.4663 0.4661 0.4659
3313.443662 0.4657 0.4655 0.4653 0.4649 0.4644
3318.454907 0.4639 0.4634 0.4629 0.4624 0.4618
3323.466152 0.4612 0.4606 0.4600 0.4594 0.4588
3328.477398 0.4582 0.4576 0.4569 0.4561 0.4552
3333.488643 0.4543 0.4534 0.4525 0.4514 0.4504
3338.499888 0.4492 0.4481 0.4470 0.4460 0.4449
3343.511133 0.4438 0.4428 0.4418 0.4409 0.4399
3348.522379 0.4390 0.4381 0.4372 0.4363 0.4353
3353.533624 0.4344 0.4336 0.4329 0.4321 0.4313
3358.544869 0.4306 0.4298 0.4290 0.4283 0.4275
3363.556114 0.4269 0.4265 0.4264 0.4263 0.4263
3368.567359 0.4261 0.4259 0.4256 0.4248 0.4239
3373.578605 0.4229 0.4215 0.4195 0.4175 0.4155
3378.589850 0.4135 0.4115 0.4097 0.4078 0.4060
3383.601095 0.4049 0.4040 0.4032 0.4023 0.4014
3388.612340 0.4004 0.3996 0.3988 0.3981 0.3973
3393.623586 0.3966 0.3958 0.3951 0.3944 0.3937
3398.634831 0.3931 0.3925 0.3919 0.3913 0.3907
3403.646076 0.3901 0.3895 0.3889 0.3880 0.3870
3408.657321 0.3859 0.3848 0.3837 0.3826 0.3816
3413.668566 0.3805 0.3794 0.3785 0.3780 0.3776
3418.679812 0.3771 0.3766 0.3762 0.3759 0.3755
3423.691057 0.3751 0.3747 0.3745 0.3742 0.3740
3428.702302 0.3738 0.3735 0.3733 0.3731 0.3731
3433.713547 0.3731 0.3732 0.3732 0.3732 0.3733
3438.724792 0.3736 0.3739 0.3741 0.3744 0.3746
3443.736038 0.3749 0.3752 0.3755 0.3758 0.3761
3448.747283 0.3764 0.3767 0.3770 0.3774 0.3777
3453.758528 0.3781 0.3785 0.3788 0.3790 0.3788
3458.769773 0.3786 0.3784 0.3782 0.3780 0.3785
3463.781019 0.3796 0.3808 0.3820 0.3830 0.3840
3468.792264 0.3849 0.3856 0.3857 0.3851 0.3844
3473.803509 0.3837 0.3829 0.3821 0.3821 0.3823
3478.814754 0.3828 0.3839 0.3851 0.3864 0.3877
3483.825999 0.3881 0.3883 0.3883 0.3883 0.3883
3488.837245 0.3882 0.3881 0.3881 0.3882 0.3883
3493.848490 0.3885 0.3886 0.3888 0.3889 0.3892
3498.859735 0.3899 0.3906 0.3915 0.3925 0.3934
3503.870980 0.3943 0.3952 0.3961 0.3973 0.3986
3508.882225 0.3999 0.4012 0.4025 0.4036 0.4046
3513.893471 0.4056 0.4067 0.4077 0.4087 0.4098
3518.904716 0.4108 0.4118 0.4128 0.4138 0.4148
3523.915961 0.4158 0.4168 0.4178 0.4188 0.4197
3528.927206 0.4206 0.4215 0.4224 0.4234 0.4243
3533.938452 0.4251 0.4258 0.4264 0.4271 0.4278
3538.949697 0.4284 0.4291 0.4298 0.4304 0.4311
3543.960942 0.4317 0.4324 0.4331 0.4334 0.4338
3548.972187 0.4341 0.4344 0.4348 0.4351 0.4354
3553.983432 0.4358 0.4361 0.4364 0.4368 0.4371
3558.994678 0.4375 0.4380 0.4385 0.4390 0.4395
3564.005923 0.4400 0.4404 0.4409 0.4414 0.4419
3569.017168 0.4425 0.4433 0.4440 0.4448 0.4456
3574.028413 0.4463 0.4473 0.4485 0.4496 0.4507
3579.039659 0.4519 0.4530 0.4542 0.4553 0.4563
3584.050904 0.4568 0.4573 0.4577 0.4582 0.4587
3589.062149 0.4592 0.4597 0.4601 0.4609 0.4617
3594.073394 0.4625 0.4632 0.4640 0.4650 0.4656
3599.084639 0.4663 0.4670 0.4677 0.4696 0.4720
3604.095885 0.4748 0.4776 0.4802 0.4827 0.4844
3609.107130 0.4853 0.4859 0.4864 0.4869 0.4874
3614.118375 0.4880 0.4884 0.4888 0.4891 0.4895
3619.129620 0.4898 0.4901 0.4904 0.4908 0.4911
3624.140865 0.4913 0.4915 0.4916 0.4918 0.4920
3629.152111 0.4921 0.4923 0.4926 0.4936 0.4947
3634.163356 0.4957 0.4967 0.4975 0.4983 0.4990
3639.174601 0.4998 0.5005 0.5013 0.5021 0.5032
3644.185846 0.5044 0.5056 0.5068 0.5080 0.5090
3649.197092 0.5100 0.5110 0.5120 0.5129 0.5138
3654.208337 0.5143 0.5148 0.5153 0.5158 0.5163
3659.219582 0.5166 0.5167 0.5168 0.5169 0.5170
3664.230827 0.5171 0.5171 0.5170 0.5169 0.5169
3669.242072 0.5168 0.5167 0.5167 0.5166 0.5165
3674.253318 0.5165 0.5164 0.5163 0.5162 0.5162
3679.264563 0.5161 0.5160 0.5159 0.5159 0.5158
3684.275808 0.5157 0.5156 0.5155 0.5155 0.5154
3689.287053 0.5153 0.5153 0.5153 0.5153 0.5153
3694.298298 0.5154 0.5154 0.5154 0.5154 0.5155
3699.309544 0.5156 0.5157 0.5158 0.5159 0.5160
3704.320789 0.5161 0.5162 0.5163 0.5164 0.5165
3709.332034 0.5166 0.5167 0.5168 0.5169 0.5170
3714.343279 0.5171 0.5172 0.5172 0.5173 0.5174
3719.354525 0.5174 0.5173 0.5173 0.5172 0.5172
3724.365770 0.5172 0.5172 0.5174 0.5176 0.5182
3729.377015 0.5192 0.5203 0.5213 0.5223 0.5230
3734.388260 0.5232 0.5234 0.5236 0.5236 0.5234
3739.399505 0.5232 0.5230 0.5226 0.5221 0.5215
3744.410751 0.5209 0.5203 0.5197 0.5190 0.5182
3749.421996 0.5174 0.5165 0.5157 0.5148 0.5137
3754.433241 0.5126 0.5115 0.5104 0.5094 0.5090
3759.444486 0.5093 0.5096 0.5100 0.5103 0.5107
3764.455732 0.5111 0.5114 0.5118 0.5122 0.5126
3769.466977 0.5129 0.5130 0.5130 0.5129 0.5129
3774.478222 0.5128 0.5128 0.5127 0.5124 0.5122
3779.489467 0.5119 0.5116 0.5113 0.5110 0.5108
3784.500712 0.5104 0.5103 0.5105 0.5108 0.5110
3789.511958 0.5113 0.5117 0.5123 0.5130 0.5136
3794.523203 0.5143 0.5150 0.5157 0.5162 0.5165
3799.534448 0.5169 0.5173 0.5175 0.5174 0.5173
3804.545693 0.5172 0.5171 0.5170 0.5169 0.5166
3809.556938 0.5159 0.5153 0.5147 0.5141 0.5135
3814.568184 0.5128 0.5122 0.5114 0.5106 0.5098
3819.579429 0.5089 0.5081 0.5073 0.5065 0.5057
3824.590674 0.5052 0.5053 0.5055 0.5057 0.5058
3829.601919 0.5060 0.5061 0.5063 0.5064 0.5067
3834.613165 0.5071 0.5075 0.5078 0.5082 0.5085
3839.624410 0.5086 0.5086 0.5086 0.5087 0.5087
3844.635655 0.5087 0.5087 0.5087 0.5088 0.5088
3849.646900 0.5087 0.5085 0.5083 0.5081 0.5079
3854.658145 0.5077 0.5075 0.5072 0.5070 0.5068
3859.669391 0.5066 0.5064 0.5060 0.5056 0.5051
3864.680636 0.5046 0.5041 0.5037 0.5032 0.5027
3869.691881 0.5022 0.5018 0.5013 0.5008 0.5003
3874.703126 0.4998 0.4995 0.4992 0.4990 0.4987
3879.714372 0.4985 0.4982 0.4982 0.4983 0.4985
3884.725617 0.4986 0.4988 0.4990 0.4992 0.4993
3889.736862 0.4995 0.4997 0.4999 0.5000 0.5002
3894.748107 0.5003 0.5003 0.5003 0.5003 0.5003
3899.759352 0.5003 0.5002 0.5002 0.5002 0.5002
3904.770598 0.5002 0.5002 0.5002 0.5002 0.5001
3909.781843 0.5001 0.5001 0.5000 0.5000 0.4999
3914.793088 0.4999 0.4999 0.4998 0.4998 0.4997
3919.804333 0.4997 0.4997 0.4998 0.4999 0.5000
3924.815578 0.5001 0.5002 0.5002 0.5003 0.5004
3929.826824 0.5005 0.5006 0.5008 0.5012 0.5017
3934.838069 0.5023 0.5027 0.5030 0.5033 0.5035
3939.849314 0.5037 0.5040 0.5042 0.5044 0.5043
3944.860559 0.5040 0.5038 0.5036 0.5033 0.5031
3949.871805 0.5027 0.5019 0.5011 0.5003 0.4995
3954.883050 0.4983 0.4970 0.4958 0.4945 0.4932
3959.894295 0.4927 0.4923 0.4919 0.4915 0.4911
3964.905540 0.4907 0.4904 0.4905 0.4906 0.4907
3969.916785 0.4907 0.4908 0.4909 0.4909 0.4912
3974.928031 0.4915 0.4918 0.4921 0.4924 0.4927
3979.939276 0.4931 0.4934 0.4935 0.4935 0.4935
3984.950521 0.4936 0.4936 0.4936 0.4936 0.4934
3989.961766 0.4932 0.4930 0.4929 0.4927 0.4925
3994.973011 0.4923 0.4914 0.4920 0.4918 0.4916
3999.984257 0.4915 0.4913 0.4911 0.4909 0.4908
4004.995502 0.4906 0.4905
##END=
