##TITLE=Alpha,Alpha-DICHLOROPROPIONIC ACID, POTASSIUM SALT
##JCAMP-DX=4.24
##DATA TYPE=INFRARED SPECTRUM
##CLASS=COBLENTZ
##ORIGIN=DOW CHEMICAL COMPANY
##OWNER=COBLENTZ SOCIETY
Collection (C) 2018 copyright by the U.S. Secretary of Commerce
on behalf of the United States of America. All rights reserved.
##DATE=Not specified, most likely prior to 1970
##MOLFORM=C3 H3 Cl2 K O2
##SOURCE REFERENCE=COBLENTZ NO. 3239
##$NIST ID=B6003239
##$NIST SOURCE=COBLENTZ
##$NIST IMAGE=cob3239
##SPECTROMETER/DATA SYSTEM=Not specified, most likely a prism, grating, or hybrid spectrometer.
##STATE=SOLID (MINERAL OIL MULL)
##PATH LENGTH=
$$SPECTRAL CONTAMINATION DUE TO OIL AROUND 2900 CM^-^1
##SAMPLING PROCEDURE=TRANSMISSION
##RESOLUTION=4
##DATA PROCESSING=DIGITIZED BY NIST FROM HARD COPY
##XUNITS=MICROMETERS
##YUNITS=TRANSMITTANCE
##XFACTOR=1.000000
##YFACTOR=1
##DELTAX=000.006826
##FIRSTX=2.061
##LASTX=15.8366
##FIRSTY=0.802
##MAXX=15.8366
##MINX=2.061
##MAXY=0.879
##MINY=0.165
##NPOINTS=2019
##XYDATA=(X++(Y..Y))
2.061000 0.8020 0.8040 0.8040 0.8050 0.8050
2.095147 0.8070 0.8070 0.8070 0.8090 0.8090
2.130000 0.8090 0.8100 0.8100 0.8120 0.8120
2.164147 0.8120 0.8140 0.8140 0.8140 0.8140
2.198000 0.8140 0.8140 0.8120 0.8100 0.8100
2.232147 0.8090 0.8090 0.8070 0.8070 0.8040
2.266000 0.8040 0.8020 0.8020 0.8020 0.8040
2.300147 0.8040 0.8070 0.8090 0.8100 0.8100
2.334000 0.8120 0.8120 0.8140 0.8140 0.8140
2.368147 0.8120 0.8140 0.8140 0.8140 0.8140
2.403000 0.8140 0.8140 0.8140 0.8140 0.8140
2.437147 0.8140 0.8160 0.8160 0.8160 0.8170
2.471000 0.8190 0.8220 0.8220 0.8220 0.8220
2.505147 0.8210 0.8210 0.8210 0.8190 0.8190
2.539000 0.8210 0.8210 0.8210 0.8210 0.8210
2.573147 0.8210 0.8210 0.8220 0.8220 0.8290
2.608000 0.8310 0.8310 0.8310 0.8290 0.8290
2.642147 0.8260 0.8210 0.8160 0.8100 0.8100
2.676000 0.8090 0.8090 0.8090 0.8040 0.7970
2.710147 0.7810 0.7630 0.7510 0.7390 0.7130
2.744000 0.6860 0.6620 0.6380 0.6200 0.6040
2.778147 0.5890 0.5870 0.5860 0.5800 0.5740
2.812000 0.5570 0.5410 0.5280 0.5160 0.5050
2.846147 0.5000 0.4950 0.4870 0.4780 0.4710
2.881000 0.4700 0.4700 0.4710 0.4730 0.4770
2.915147 0.4780 0.4800 0.4800 0.4820 0.4820
2.949000 0.4820 0.4820 0.4830 0.4870 0.4900
2.983147 0.4950 0.4970 0.5120 0.5160 0.5210
3.017000 0.5240 0.5280 0.5310 0.5340 0.5380
3.051147 0.5400 0.5450 0.5500 0.5510 0.5580
3.085000 0.5630 0.5700 0.5750 0.5820 0.5890
3.119147 0.5970 0.6040 0.6140 0.6230 0.6350
3.154000 0.6450 0.6500 0.6550 0.6600 0.6690
3.188147 0.6720 0.6780 0.6790 0.6840 0.6890
3.222000 0.6930 0.6960 0.6980 0.6980 0.6960
3.256147 0.6960 0.6950 0.6950 0.6930 0.6910
3.290000 0.6860 0.6760 0.6640 0.6450 0.6250
3.324147 0.5970 0.5860 0.5620 0.5090 0.4770
3.358000 0.4440 0.3710 0.2810 0.2600 0.2400
3.392147 0.2260 0.2120 0.1990 0.1970 0.1990
3.427000 0.2110 0.2360 0.2810 0.2990 0.3110
3.461147 0.3200 0.3230 0.3270 0.3300 0.3440
3.495000 0.3710 0.4100 0.5790 0.6300 0.6690
3.529147 0.7000 0.7200 0.7350 0.7470 0.7680
3.563000 0.7750 0.7780 0.7810 0.7880 0.7930
3.597147 0.8000 0.8020 0.8020 0.8020 0.8020
3.631000 0.8020 0.8020 0.8000 0.8000 0.8000
3.665147 0.8000 0.8000 0.8020 0.8090 0.8100
3.700000 0.8120 0.8120 0.8120 0.8120 0.8120
3.734147 0.8140 0.8160 0.8170 0.8190 0.8210
3.768000 0.8220 0.8220 0.8220 0.8220 0.8220
3.802147 0.8240 0.8240 0.8260 0.8260 0.8260
3.836000 0.8260 0.8270 0.8270 0.8290 0.8310
3.870147 0.8310 0.8330 0.8330 0.8310 0.8330
3.904000 0.8330 0.8340 0.8380 0.8380 0.8380
3.938147 0.8390 0.8390 0.8390 0.8390 0.8390
3.973000 0.8390 0.8390 0.8390 0.8430 0.8440
4.007147 0.8440 0.8440 0.8460 0.8460 0.8460
4.041000 0.8460 0.8460 0.8460 0.8480 0.8480
4.075147 0.8480 0.8460 0.8480 0.8500 0.8500
4.109000 0.8510 0.8510 0.8510 0.8510 0.8510
4.143147 0.8510 0.8510 0.8500 0.8500 0.8440
4.177000 0.8410 0.8360 0.8330 0.8330 0.8340
4.211147 0.8380 0.8430 0.8460 0.8500 0.8510
4.246000 0.8560 0.8580 0.8600 0.8630 0.8680
4.280147 0.8680 0.8700 0.8700 0.8680 0.8680
4.314000 0.8650 0.8630 0.8630 0.8630 0.8630
4.348147 0.8630 0.8630 0.8630 0.8630 0.8630
4.382000 0.8630 0.8630 0.8630 0.8630 0.8630
4.416147 0.8630 0.8630 0.8630 0.8630 0.8630
4.451000 0.8650 0.8650 0.8650 0.8650 0.8650
4.485147 0.8630 0.8620 0.8630 0.8630 0.8630
4.519000 0.8630 0.8630 0.8630 0.8630 0.8630
4.553147 0.8630 0.8630 0.8620 0.8620 0.8620
4.587000 0.8620 0.8620 0.8630 0.8620 0.8620
4.621147 0.8600 0.8600 0.8580 0.8580 0.8580
4.655000 0.8560 0.8560 0.8560 0.8560 0.8560
4.689147 0.8560 0.8560 0.8560 0.8560 0.8580
4.724000 0.8580 0.8580 0.8600 0.8600 0.8600
4.758147 0.8620 0.8620 0.8620 0.8620 0.8630
4.792000 0.8630 0.8680 0.8680 0.8630 0.8630
4.826147 0.8630 0.8630 0.8650 0.8650 0.8670
4.860000 0.8680 0.8680 0.8670 0.8680 0.8680
4.894147 0.8680 0.8680 0.8700 0.8700 0.8700
4.928000 0.8700 0.8700 0.8700 0.8700 0.8700
4.962147 0.8720 0.8720 0.8720 0.8720 0.8720
4.997000 0.8730 0.8750 0.8770 0.8790 0.8790
5.031147 0.8790 0.8790 0.8720 0.8720 0.8720
5.065000 0.8720 0.8720 0.8720 0.8750 0.8750
5.099147 0.8750 0.8750 0.8750 0.8750 0.8720
5.133000 0.8720 0.8730 0.8750 0.8750 0.8750
5.167147 0.8750 0.8750 0.8750 0.8750 0.8720
5.201000 0.8720 0.8720 0.8720 0.8720 0.8750
5.235147 0.8750 0.8750 0.8770 0.8770 0.8750
5.270000 0.8720 0.8720 0.8720 0.8720 0.8720
5.304147 0.8720 0.8720 0.8720 0.8720 0.8720
5.338000 0.8720 0.8720 0.8720 0.8720 0.8750
5.372147 0.8730 0.8730 0.8730 0.8730 0.8730
5.406000 0.8720 0.8720 0.8720 0.8720 0.8720
5.440147 0.8720 0.8720 0.8720 0.8720 0.8700
5.474000 0.8700 0.8680 0.8680 0.8650 0.8630
5.508147 0.8630 0.8620 0.8620 0.8600 0.8580
5.543000 0.8580 0.8550 0.8530 0.8510 0.8500
5.577147 0.8500 0.8460 0.8430 0.8390 0.8310
5.611000 0.8290 0.8270 0.8270 0.8240 0.8210
5.645147 0.8190 0.8160 0.8100 0.8040 0.7980
5.679000 0.7950 0.7880 0.7830 0.7800 0.7780
5.713147 0.7730 0.7700 0.7680 0.7630 0.7590
5.747000 0.7580 0.7540 0.7510 0.7510 0.7490
5.781147 0.7420 0.7410 0.7370 0.7300 0.7240
5.816000 0.7180 0.7120 0.7060 0.7010 0.6980
5.850147 0.6930 0.6880 0.6810 0.6740 0.6710
5.884000 0.6620 0.6540 0.6430 0.6300 0.6130
5.918147 0.5960 0.5790 0.5580 0.5400 0.5210
5.952000 0.5000 0.4900 0.4800 0.4590 0.4420
5.986147 0.4130 0.3850 0.3610 0.3370 0.3200
6.020000 0.3040 0.2960 0.2820 0.2720 0.2620
6.054147 0.2520 0.2470 0.2410 0.2260 0.2160
6.089000 0.2090 0.2010 0.1990 0.1900 0.1850
6.123147 0.1800 0.1770 0.1720 0.1680 0.1660
6.157000 0.1650 0.1660 0.1700 0.1800 0.2010
6.191147 0.2180 0.2280 0.2480 0.2820 0.2960
6.225000 0.3110 0.3270 0.3440 0.3590 0.3760
6.259147 0.4000 0.4170 0.4410 0.4540 0.4750
6.294000 0.4830 0.4950 0.5190 0.5330 0.5480
6.328147 0.5620 0.5750 0.5870 0.5960 0.6030
6.362000 0.6110 0.6180 0.6260 0.6350 0.6470
6.396147 0.6550 0.6710 0.6840 0.6950 0.6980
6.430000 0.7000 0.7010 0.7060 0.7060 0.7080
6.464147 0.7120 0.7170 0.7220 0.7290 0.7340
6.498000 0.7390 0.7390 0.7410 0.7410 0.7420
6.532147 0.7420 0.7420 0.7440 0.7440 0.7470
6.567000 0.7520 0.7540 0.7560 0.7580 0.7590
6.601147 0.7610 0.7630 0.7640 0.7660 0.7660
6.635000 0.7680 0.7700 0.7700 0.7700 0.7700
6.669147 0.7680 0.7640 0.7630 0.7560 0.7510
6.703000 0.7490 0.7460 0.7370 0.7270 0.7150
6.737147 0.7010 0.6830 0.6540 0.6400 0.6210
6.771000 0.5960 0.5700 0.5430 0.5090 0.4940
6.805147 0.4770 0.4680 0.4610 0.4590 0.4580
6.840000 0.4580 0.4590 0.4630 0.4700 0.4730
6.874147 0.4780 0.4800 0.4830 0.4880 0.4900
6.908000 0.4950 0.5110 0.5260 0.5450 0.5650
6.942147 0.5960 0.6350 0.6600 0.6780 0.6950
6.976000 0.7000 0.7030 0.7050 0.7080 0.7100
7.010147 0.7100 0.7100 0.7100 0.7100 0.7100
7.044000 0.7100 0.7100 0.7080 0.7010 0.6950
7.078147 0.6830 0.6760 0.6660 0.6600 0.6540
7.113000 0.6470 0.6370 0.6250 0.6090 0.5940
7.147147 0.5860 0.5750 0.5510 0.5220 0.5110
7.181000 0.4970 0.4750 0.4420 0.3900 0.3540
7.215147 0.3450 0.3320 0.3320 0.3400 0.3710
7.249000 0.3910 0.4100 0.4310 0.4490 0.4510
7.283147 0.4510 0.4410 0.4020 0.3740 0.3500
7.317000 0.3320 0.3300 0.3300 0.3400 0.3690
7.351147 0.3910 0.4130 0.4360 0.4590 0.4830
7.386000 0.5330 0.5600 0.5860 0.6040 0.6140
7.420147 0.6250 0.6330 0.6470 0.6670 0.6830
7.454000 0.6930 0.7000 0.7010 0.7030 0.7080
7.488147 0.7120 0.7180 0.7390 0.7410 0.7470
7.522000 0.7470 0.7420 0.7390 0.7320 0.7300
7.556147 0.7320 0.7390 0.7410 0.7460 0.7470
7.590000 0.7490 0.7510 0.7520 0.7520 0.7560
7.624147 0.7560 0.7560 0.7580 0.7580 0.7580
7.659000 0.7580 0.7590 0.7590 0.7610 0.7630
7.693147 0.7610 0.7640 0.7640 0.7660 0.7660
7.727000 0.7680 0.7680 0.7680 0.7680 0.7680
7.761147 0.7680 0.7680 0.7680 0.7680 0.7680
7.795000 0.7700 0.7700 0.7710 0.7710 0.7710
7.829147 0.7730 0.7730 0.7750 0.7760 0.7760
7.863000 0.7760 0.7760 0.7780 0.7780 0.7780
7.897147 0.7780 0.7780 0.7780 0.7780 0.7780
7.932000 0.7780 0.7780 0.7780 0.7780 0.7780
7.966147 0.7780 0.7780 0.7780 0.7780 0.7780
8.000000 0.7780 0.7760 0.7760 0.7760 0.7760
8.034147 0.7750 0.7750 0.7750 0.7750 0.7750
8.068000 0.7750 0.7750 0.7750 0.7750 0.7760
8.102147 0.7760 0.7760 0.7760 0.7760 0.7780
8.137000 0.7780 0.7800 0.7800 0.7810 0.7810
8.171147 0.7810 0.7810 0.7810 0.7810 0.7810
8.205000 0.7810 0.7810 0.7800 0.7800 0.7800
8.239147 0.7810 0.7810 0.7810 0.7810 0.7810
8.273000 0.7830 0.7830 0.7870 0.7880 0.7900
8.307147 0.7920 0.7930 0.7950 0.7980 0.7980
8.341000 0.8000 0.8000 0.8020 0.8040 0.8070
8.375147 0.8070 0.8070 0.8090 0.8090 0.8090
8.410000 0.8090 0.8100 0.8100 0.8090 0.8090
8.444147 0.8090 0.8090 0.8090 0.8090 0.8090
8.478000 0.8070 0.8020 0.8020 0.8000 0.8000
8.512147 0.7980 0.7980 0.7980 0.7980 0.7970
8.546000 0.7970 0.7970 0.7970 0.7970 0.7970
8.580147 0.7970 0.7970 0.7970 0.7970 0.7970
8.614000 0.7980 0.7980 0.7980 0.8000 0.8000
8.648147 0.8020 0.8020 0.8020 0.8020 0.8020
8.683000 0.8020 0.8020 0.8000 0.7980 0.7930
8.717147 0.7830 0.7750 0.7680 0.7630 0.7590
8.751000 0.7540 0.7520 0.7510 0.7510 0.7520
8.785147 0.7540 0.7580 0.7590 0.7630 0.7680
8.819000 0.7710 0.7730 0.7750 0.7780 0.7780
8.853147 0.7810 0.7870 0.7870 0.7880 0.7880
8.887000 0.7920 0.7930 0.7950 0.7970 0.7970
8.921147 0.7980 0.7980 0.7980 0.7980 0.7980
8.956000 0.7980 0.7980 0.7970 0.7970 0.7950
8.990147 0.7930 0.7930 0.7920 0.7880 0.7850
9.024000 0.7830 0.7800 0.7800 0.7730 0.7710
9.058147 0.7700 0.7680 0.7630 0.7590 0.7540
9.092000 0.7510 0.7490 0.7460 0.7420 0.7350
9.126147 0.7270 0.7170 0.7050 0.6960 0.6860
9.160000 0.6790 0.6690 0.6590 0.6430 0.6260
9.194147 0.6030 0.5600 0.5290 0.5090 0.5000
9.229000 0.4920 0.4750 0.4480 0.4360 0.4200
9.263147 0.4170 0.4130 0.4170 0.4200 0.4360
9.297000 0.4510 0.4660 0.4820 0.4950 0.5020
9.331147 0.5040 0.5000 0.4940 0.4870 0.4710
9.365000 0.4510 0.4310 0.4080 0.3980 0.3980
9.399147 0.4000 0.4200 0.4410 0.4630 0.4870
9.433000 0.5460 0.5800 0.6060 0.6230 0.6450
9.467147 0.6550 0.6740 0.6860 0.6960 0.7120
9.502000 0.7220 0.7300 0.7370 0.7460 0.7560
9.536147 0.7630 0.7680 0.7710 0.7750 0.7750
9.570000 0.7760 0.7780 0.7780 0.7800 0.7810
9.604147 0.7850 0.7870 0.7880 0.7880 0.7900
9.638000 0.7920 0.7930 0.7950 0.7950 0.7970
9.672147 0.7970 0.7980 0.7980 0.7980 0.8000
9.706000 0.8000 0.8020 0.8020 0.8040 0.8040
9.740147 0.8040 0.8050 0.8050 0.8070 0.8090
9.775000 0.8090 0.8090 0.8100 0.8100 0.8120
9.809147 0.8120 0.8120 0.8120 0.8140 0.8140
9.843000 0.8120 0.8140 0.8160 0.8160 0.8160
9.877147 0.8170 0.8190 0.8190 0.8190 0.8190
9.911000 0.8190 0.8190 0.8190 0.8190 0.8190
9.945147 0.8190 0.8190 0.8190 0.8190 0.8190
9.980000 0.8190 0.8170 0.8160 0.8160 0.8120
10.014147 0.8120 0.8090 0.8090 0.8070 0.8040
10.048000 0.8020 0.8020 0.8020 0.8020 0.8020
10.082147 0.8040 0.8040 0.8040 0.8050 0.8070
10.116000 0.8070 0.8070 0.8090 0.8090 0.8090
10.150147 0.8100 0.8120 0.8140 0.8140 0.8160
10.184000 0.8190 0.8190 0.8190 0.8190 0.8160
10.218147 0.8160 0.8140 0.8140 0.8140 0.8120
10.253000 0.8120 0.8100 0.8100 0.8100 0.8100
10.287147 0.8100 0.8100 0.8100 0.8120 0.8140
10.321000 0.8140 0.8170 0.8190 0.8190 0.8210
10.355147 0.8210 0.8210 0.8210 0.8210 0.8210
10.389000 0.8210 0.8210 0.8210 0.8210 0.8210
10.423147 0.8210 0.8220 0.8220 0.8220 0.8220
10.457000 0.8220 0.8240 0.8220 0.8220 0.8220
10.491147 0.8220 0.8220 0.8220 0.8220 0.8220
10.526000 0.8240 0.8260 0.8260 0.8260 0.8260
10.560147 0.8260 0.8260 0.8260 0.8260 0.8260
10.594000 0.8260 0.8260 0.8260 0.8270 0.8270
10.628147 0.8270 0.8270 0.8270 0.8270 0.8270
10.662000 0.8270 0.8270 0.8270 0.8260 0.8260
10.696147 0.8260 0.8270 0.8270 0.8270 0.8290
10.730000 0.8290 0.8290 0.8290 0.8290 0.8290
10.764147 0.8290 0.8310 0.8310 0.8310 0.8310
10.799000 0.8310 0.8310 0.8310 0.8310 0.8330
10.833147 0.8330 0.8330 0.8330 0.8330 0.8330
10.867000 0.8330 0.8330 0.8330 0.8330 0.8330
10.901147 0.8330 0.8330 0.8340 0.8360 0.8380
10.935000 0.8380 0.8380 0.8380 0.8380 0.8380
10.969147 0.8380 0.8380 0.8380 0.8380 0.8380
11.003000 0.8380 0.8380 0.8380 0.8380 0.8380
11.037147 0.8380 0.8380 0.8380 0.8360 0.8360
11.072000 0.8340 0.8340 0.8330 0.8330 0.8310
11.106147 0.8310 0.8290 0.8270 0.8260 0.8240
11.140000 0.8240 0.8220 0.8210 0.8190 0.8190
11.174147 0.8160 0.8140 0.8120 0.8100 0.8050
11.208000 0.8000 0.7950 0.7950 0.7920 0.7880
11.242147 0.7830 0.7800 0.7750 0.7700 0.7680
11.276000 0.7630 0.7590 0.7540 0.7510 0.7510
11.310147 0.7490 0.7460 0.7420 0.7390 0.7340
11.345000 0.7300 0.7240 0.7200 0.7170 0.7150
11.379147 0.7130 0.7120 0.7130 0.7150 0.7200
11.413000 0.7240 0.7300 0.7350 0.7420 0.7470
11.447147 0.7610 0.7680 0.7700 0.7730 0.7800
11.481000 0.7800 0.7830 0.7880 0.7900 0.7920
11.515147 0.7970 0.8000 0.8020 0.8020 0.8040
11.549000 0.8070 0.8090 0.8100 0.8100 0.8100
11.583147 0.8120 0.8120 0.8140 0.8140 0.8140
11.618000 0.8140 0.8140 0.8140 0.8140 0.8140
11.652147 0.8140 0.8140 0.8140 0.8140 0.8140
11.686000 0.8140 0.8140 0.8140 0.8120 0.8120
11.720147 0.8100 0.8090 0.8090 0.8050 0.8020
11.754000 0.8020 0.8000 0.8000 0.7980 0.7980
11.788147 0.7970 0.7950 0.7950 0.7950 0.7930
11.823000 0.7950 0.7950 0.7950 0.7970 0.7970
11.857147 0.7970 0.7970 0.7970 0.7970 0.7980
11.891000 0.7980 0.7980 0.7980 0.7980 0.7980
11.925147 0.7980 0.7980 0.7970 0.7970 0.7950
11.959000 0.7930 0.7930 0.7920 0.7920 0.7920
11.993147 0.7900 0.7900 0.7880 0.7880 0.7870
12.027000 0.7850 0.7850 0.7830 0.7810 0.7800
12.061147 0.7780 0.7750 0.7710 0.7680 0.7640
12.096000 0.7610 0.7590 0.7560 0.7510 0.7510
12.130147 0.7490 0.7440 0.7410 0.7370 0.7350
12.164000 0.7340 0.7320 0.7320 0.7340 0.7350
12.198147 0.7370 0.7420 0.7460 0.7520 0.7540
12.232000 0.7580 0.7590 0.7590 0.7590 0.7590
12.266147 0.7610 0.7610 0.7590 0.7590 0.7580
12.300000 0.7580 0.7540 0.7510 0.7510 0.7490
12.334147 0.7470 0.7420 0.7390 0.7340 0.7290
12.369000 0.7220 0.7100 0.7080 0.7030 0.6860
12.403147 0.6710 0.6590 0.6550 0.6540 0.6540
12.437000 0.6540 0.6570 0.6660 0.6740 0.6860
12.471147 0.6960 0.7060 0.7180 0.7250 0.7320
12.505000 0.7390 0.7420 0.7470 0.7490 0.7510
12.539147 0.7510 0.7520 0.7520 0.7540 0.7540
12.573000 0.7560 0.7580 0.7580 0.7580 0.7580
12.607147 0.7580 0.7560 0.7540 0.7520 0.7520
12.642000 0.7510 0.7510 0.7510 0.7510 0.7510
12.676147 0.7490 0.7490 0.7490 0.7490 0.7490
12.710000 0.7470 0.7470 0.7470 0.7470 0.7470
12.744147 0.7460 0.7440 0.7420 0.7420 0.7410
12.778000 0.7410 0.7410 0.7410 0.7390 0.7390
12.812147 0.7370 0.7370 0.7340 0.7340 0.7320
12.846000 0.7320 0.7300 0.7290 0.7290 0.7240
12.880147 0.7220 0.7220 0.7200 0.7200 0.7180
12.915000 0.7180 0.7180 0.7150 0.7150 0.7130
12.949147 0.7130 0.7130 0.7130 0.7120 0.7120
12.983000 0.7120 0.7120 0.7120 0.7100 0.7080
13.017147 0.7080 0.7060 0.7060 0.7050 0.7050
13.051000 0.7030 0.7010 0.7000 0.7000 0.6980
13.085147 0.6980 0.6980 0.6980 0.6960 0.6950
13.119000 0.6910 0.6890 0.6890 0.6880 0.6880
13.153147 0.6830 0.6830 0.6810 0.6790 0.6790
13.188000 0.6780 0.6760 0.6740 0.6710 0.6690
13.222147 0.6690 0.6670 0.6640 0.6620 0.6600
13.256000 0.6590 0.6570 0.6550 0.6540 0.6520
13.290147 0.6500 0.6490 0.6490 0.6450 0.6430
13.324000 0.6400 0.6380 0.6380 0.6350 0.6320
13.358147 0.6280 0.6260 0.6230 0.6210 0.6200
13.392000 0.6200 0.6160 0.6130 0.6080 0.6060
13.426147 0.6030 0.6010 0.5990 0.5990 0.5960
13.461000 0.5910 0.5890 0.5860 0.5800 0.5790
13.495147 0.5790 0.5750 0.5720 0.5680 0.5620
13.529000 0.5580 0.5530 0.5500 0.5480 0.5430
13.563147 0.5400 0.5330 0.5280 0.5240 0.5170
13.597000 0.5110 0.5040 0.5020 0.4990 0.4900
13.631147 0.4830 0.4750 0.4680 0.4590 0.4540
13.666000 0.4460 0.4390 0.4320 0.4240 0.4150
13.700147 0.4070 0.4020 0.3980 0.3910 0.3860
13.734000 0.3780 0.3740 0.3710 0.3660 0.3640
13.768147 0.3620 0.3640 0.3670 0.3710 0.3730
13.802000 0.3780 0.3790 0.3830 0.3900 0.3930
13.836147 0.3980 0.4020 0.4070 0.4100 0.4150
13.870000 0.4200 0.4220 0.4250 0.4290 0.4310
13.904147 0.4320 0.4340 0.4370 0.4410 0.4410
13.939000 0.4420 0.4440 0.4460 0.4480 0.4490
13.973147 0.4490 0.4510 0.4510 0.4530 0.4560
14.007000 0.4560 0.4580 0.4580 0.4580 0.4580
14.041147 0.4580 0.4580 0.4560 0.4560 0.4530
14.075000 0.4510 0.4480 0.4420 0.4410 0.4340
14.109147 0.4310 0.4240 0.4200 0.4130 0.4070
14.143000 0.4020 0.3960 0.3910 0.3860 0.3830
14.177147 0.3810 0.3790 0.3760 0.3730 0.3710
14.212000 0.3710 0.3730 0.3740 0.3780 0.3790
14.246147 0.3830 0.3900 0.3930 0.3960 0.4020
14.280000 0.4050 0.4100 0.4150 0.4200 0.4250
14.314147 0.4310 0.4360 0.4410 0.4420 0.4460
14.348000 0.4510 0.4540 0.4560 0.4590 0.4610
14.382147 0.4650 0.4680 0.4700 0.4730 0.4770
14.416000 0.4770 0.4780 0.4780 0.4800 0.4800
14.450147 0.4800 0.4800 0.4800 0.4820 0.4820
14.485000 0.4820 0.4820 0.4820 0.4820 0.4820
14.519147 0.4820 0.4820 0.4820 0.4820 0.4820
14.553000 0.4820 0.4820 0.4800 0.4800 0.4800
14.587147 0.4800 0.4780 0.4780 0.4770 0.4770
14.621000 0.4750 0.4750 0.4730 0.4710 0.4710
14.655147 0.4700 0.4700 0.4700 0.4680 0.4680
14.689000 0.4680 0.4660 0.4650 0.4630 0.4630
14.723147 0.4610 0.4610 0.4610 0.4590 0.4580
14.758000 0.4580 0.4560 0.4560 0.4540 0.4540
14.792147 0.4530 0.4510 0.4490 0.4490 0.4490
14.826000 0.4490 0.4480 0.4480 0.4440 0.4420
14.860147 0.4410 0.4410 0.4390 0.4370 0.4340
14.894000 0.4340 0.4320 0.4310 0.4310 0.4290
14.928147 0.4290 0.4240 0.4220 0.4200 0.4190
14.962000 0.4190 0.4170 0.4150 0.4130 0.4120
14.996147 0.4080 0.4020 0.3980 0.3960 0.3950
15.031000 0.3910 0.3900 0.3880 0.3850 0.3830
15.065147 0.3810 0.3790 0.3780 0.3740 0.3730
15.099000 0.3710 0.3660 0.3640 0.3620 0.3610
15.133147 0.3590 0.3560 0.3540 0.3520 0.3500
15.167000 0.3490 0.3470 0.3450 0.3420 0.3390
15.201147 0.3390 0.3350 0.3320 0.3320 0.3300
15.235000 0.3280 0.3230 0.3210 0.3200 0.3150
15.269147 0.3130 0.3110 0.3080 0.3060 0.3060
15.304000 0.3040 0.2990 0.2980 0.2980 0.2940
15.338147 0.2910 0.2890 0.2890 0.2870 0.2820
15.372000 0.2820 0.2810 0.2790 0.2790 0.2770
15.406147 0.2750 0.2740 0.2740 0.2720 0.2720
15.440000 0.2700 0.2700 0.2690 0.2690 0.2670
15.474147 0.2670 0.2670 0.2670 0.2670 0.2650
15.509000 0.2670 0.2670 0.2670 0.2670 0.2670
15.543147 0.2670 0.2690 0.2700 0.2700 0.2720
15.577000 0.2720 0.2740 0.2740 0.2750 0.2750
15.611147 0.2770 0.2790 0.2810 0.2810 0.2820
15.645000 0.2840 0.2860 0.2860 0.2870 0.2870
15.679147 0.2870 0.2890 0.2890 0.2910 0.2910
15.713000 0.2910 0.2930 0.2930 0.2930 0.2940
15.747147 0.2940 0.2960 0.2960 0.2960 0.2960
15.782000 0.2980 0.2980 0.2980 0.2990 0.2990
15.816147 0.2990 0.2990 0.2990 0.2990
##END=
