##TITLE=FERRIC NITRATE
$$ A.R.
##JCAMP-DX=4.24
##DATA TYPE=INFRARED SPECTRUM
##CLASS=COBLENTZ
##ORIGIN=MELLON INSTITUTE
##OWNER=COBLENTZ SOCIETY
Collection (C) 2018 copyright by the U.S. Secretary of Commerce
on behalf of the United States of America. All rights reserved.
##DATE=Not specified, most likely prior to 1970
##MOLFORM=Fe ( N O3)3  * 9 H2 O
##SOURCE REFERENCE=COBLENTZ NO. 535
##$NIST ID=B6000535
##$NIST SOURCE=COBLENTZ
##$NIST IMAGE=cob535
##SPECTROMETER/DATA SYSTEM=Not specified, most likely a prism, grating, or hybrid spectrometer.
##STATE=SOLID (DRY POWDER)
##SAMPLING PROCEDURE=TRANSMISSION
##RESOLUTION=4
##DATA PROCESSING=DIGITIZED BY NIST FROM HARD COPY
##XUNITS=MICROMETERS
##YUNITS=TRANSMITTANCE
##XFACTOR=1.000000
##YFACTOR=1
##DELTAX=000.006663
##FIRSTX=2.047
##LASTX=16.0053
##FIRSTY=0.769
##MAXX=16.0053
##MINX=2.047
##MAXY=0.904
##MINY=0.185
##NPOINTS=2096
##XYDATA=(X++(Y..Y))
2.047000 0.7690 0.7690 0.7700 0.7700 0.7740
2.080329 0.7740 0.7740 0.7750 0.7750 0.7750
2.114000 0.7750 0.7750 0.7750 0.7740 0.7740
2.147329 0.7720 0.7720 0.7720 0.7720 0.7720
2.180000 0.7720 0.7740 0.7740 0.7740 0.7740
2.213329 0.7750 0.7750 0.7740 0.7740 0.7740
2.247000 0.7740 0.7740 0.7740 0.7740 0.7740
2.280329 0.7740 0.7740 0.7740 0.7740 0.7740
2.314000 0.7740 0.7750 0.7750 0.7740 0.7740
2.347329 0.7740 0.7750 0.7740 0.7740 0.7740
2.380000 0.7740 0.7740 0.7750 0.7750 0.7750
2.413329 0.7750 0.7770 0.7790 0.7800 0.7820
2.447000 0.7820 0.7820 0.7800 0.7800 0.7790
2.480329 0.7790 0.7790 0.7770 0.7750 0.7740
2.514000 0.7740 0.7740 0.7720 0.7720 0.7720
2.547329 0.7700 0.7700 0.7690 0.7690 0.7670
2.580000 0.7670 0.7670 0.7650 0.7650 0.7650
2.613329 0.7670 0.7690 0.7690 0.7690 0.7690
2.647000 0.7690 0.7650 0.7650 0.7640 0.7640
2.680329 0.7620 0.7600 0.7570 0.7550 0.7500
2.714000 0.7490 0.7450 0.7320 0.7190 0.7050
2.747329 0.7000 0.6820 0.6330 0.5630 0.5400
2.780000 0.5260 0.5110 0.4960 0.4740 0.4610
2.813329 0.4510 0.4310 0.4240 0.4160 0.4010
2.847000 0.3990 0.3960 0.3870 0.3820 0.3790
2.880329 0.3760 0.3720 0.3690 0.3660 0.3620
2.913000 0.3610 0.3610 0.3590 0.3570 0.3560
2.946329 0.3540 0.3520 0.3520 0.3520 0.3510
2.980000 0.3510 0.3510 0.3520 0.3520 0.3520
3.013329 0.3520 0.3520 0.3510 0.3510 0.3510
3.047000 0.3510 0.3510 0.3490 0.3490 0.3490
3.080329 0.3490 0.3490 0.3490 0.3490 0.3510
3.113000 0.3490 0.3490 0.3490 0.3490 0.3510
3.146329 0.3510 0.3510 0.3490 0.3490 0.3490
3.180000 0.3490 0.3510 0.3510 0.3510 0.3510
3.213329 0.3510 0.3520 0.3560 0.3570 0.3620
3.247000 0.3660 0.3670 0.3720 0.3770 0.3810
3.280329 0.3870 0.3920 0.3970 0.4010 0.4030
3.313000 0.4130 0.4210 0.4240 0.4310 0.4360
3.346329 0.4390 0.4490 0.4540 0.4590 0.4640
3.380000 0.4690 0.4740 0.4790 0.4840 0.4910
3.413329 0.5000 0.5130 0.5180 0.5230 0.5250
3.446000 0.5280 0.5310 0.5350 0.5380 0.5400
3.479329 0.5410 0.5430 0.5480 0.5530 0.5580
3.513000 0.5630 0.5680 0.5710 0.5780 0.5810
3.546329 0.5860 0.5950 0.6020 0.6030 0.6100
3.580000 0.6130 0.6170 0.6220 0.6270 0.6300
3.613329 0.6330 0.6400 0.6470 0.6520 0.6530
3.646000 0.6570 0.6620 0.6650 0.6680 0.6720
3.679329 0.6730 0.6730 0.6750 0.6770 0.6820
3.713000 0.6870 0.6900 0.6930 0.6980 0.7000
3.746329 0.7020 0.7040 0.7040 0.7040 0.7050
3.780000 0.7050 0.7050 0.7050 0.7070 0.7100
3.813329 0.7100 0.7140 0.7170 0.7200 0.7200
3.846000 0.7240 0.7250 0.7270 0.7290 0.7300
3.879329 0.7300 0.7320 0.7340 0.7340 0.7340
3.913000 0.7350 0.7370 0.7370 0.7390 0.7390
3.946329 0.7390 0.7390 0.7370 0.7350 0.7350
3.979000 0.7320 0.7300 0.7300 0.7300 0.7300
4.012329 0.7300 0.7300 0.7300 0.7320 0.7300
4.046000 0.7300 0.7300 0.7290 0.7290 0.7250
4.079329 0.7240 0.7220 0.7220 0.7190 0.7190
4.113000 0.7170 0.7190 0.7200 0.7240 0.7270
4.146329 0.7290 0.7300 0.7320 0.7320 0.7320
4.179000 0.7340 0.7340 0.7340 0.7340 0.7350
4.212329 0.7340 0.7340 0.7340 0.7350 0.7350
4.246000 0.7350 0.7350 0.7350 0.7340 0.7340
4.279329 0.7340 0.7340 0.7340 0.7340 0.7340
4.313000 0.7340 0.7340 0.7350 0.7350 0.7350
4.346329 0.7350 0.7350 0.7350 0.7350 0.7350
4.379000 0.7370 0.7390 0.7400 0.7450 0.7490
4.412329 0.7500 0.7500 0.7490 0.7500 0.7500
4.446000 0.7500 0.7500 0.7520 0.7520 0.7540
4.479329 0.7550 0.7570 0.7570 0.7570 0.7590
4.512000 0.7590 0.7590 0.7600 0.7600 0.7620
4.545329 0.7640 0.7640 0.7650 0.7650 0.7650
4.579000 0.7670 0.7670 0.7670 0.7670 0.7670
4.612329 0.7690 0.7690 0.7690 0.7700 0.7700
4.646000 0.7700 0.7720 0.7720 0.7740 0.7720
4.679329 0.7720 0.7720 0.7720 0.7720 0.7740
4.712000 0.7740 0.7750 0.7740 0.7740 0.7750
4.745329 0.7750 0.7750 0.7750 0.7770 0.7770
4.779000 0.7790 0.7790 0.7800 0.7800 0.7800
4.812329 0.7820 0.7840 0.7840 0.7840 0.7850
4.846000 0.7850 0.7850 0.7870 0.7890 0.7890
4.879329 0.7900 0.7920 0.7940 0.7940 0.7950
4.912000 0.7950 0.7950 0.7970 0.7950 0.7970
4.945329 0.7990 0.8010 0.8010 0.8010 0.8010
4.979000 0.8020 0.8020 0.8020 0.8040 0.8040
5.012329 0.8040 0.8040 0.8060 0.8070 0.8070
5.045000 0.8070 0.8090 0.8090 0.8110 0.8110
5.078329 0.8110 0.8120 0.8120 0.8120 0.8140
5.112000 0.8120 0.8140 0.8140 0.8160 0.8170
5.145329 0.8170 0.8190 0.8190 0.8190 0.8210
5.179000 0.8210 0.8210 0.8210 0.8220 0.8220
5.212329 0.8220 0.8220 0.8220 0.8220 0.8240
5.245000 0.8240 0.8240 0.8260 0.8260 0.8260
5.278329 0.8260 0.8260 0.8260 0.8260 0.8270
5.312000 0.8270 0.8270 0.8290 0.8310 0.8320
5.345329 0.8320 0.8340 0.8360 0.8360 0.8390
5.379000 0.8410 0.8410 0.8410 0.8410 0.8410
5.412329 0.8420 0.8420 0.8440 0.8440 0.8440
5.445000 0.8440 0.8420 0.8420 0.8440 0.8440
5.478329 0.8440 0.8440 0.8440 0.8440 0.8460
5.512000 0.8460 0.8460 0.8460 0.8490 0.8490
5.545329 0.8510 0.8510 0.8540 0.8540 0.8560
5.578000 0.8560 0.8560 0.8560 0.8540 0.8470
5.611329 0.8420 0.8410 0.8360 0.8410 0.8410
5.645000 0.8460 0.8510 0.8520 0.8540 0.8540
5.678329 0.8540 0.8560 0.8570 0.8590 0.8610
5.712000 0.8640 0.8640 0.8660 0.8670 0.8670
5.745329 0.8670 0.8660 0.8670 0.8670 0.8690
5.778000 0.8690 0.8690 0.8690 0.8690 0.8670
5.811329 0.8660 0.8640 0.8620 0.8610 0.8610
5.845000 0.8590 0.8570 0.8570 0.8560 0.8560
5.878329 0.8520 0.8490 0.8460 0.8440 0.8420
5.912000 0.8390 0.8340 0.8290 0.8190 0.8120
5.945329 0.8040 0.8040 0.8010 0.7990 0.7890
5.978000 0.7790 0.7720 0.7650 0.7550 0.7520
6.011329 0.7490 0.7400 0.7250 0.7190 0.7120
6.045000 0.7050 0.7000 0.6870 0.6700 0.6620
6.078329 0.6550 0.6500 0.6450 0.6320 0.6270
6.111000 0.6220 0.6150 0.6130 0.6100 0.6080
6.144329 0.6070 0.6070 0.6070 0.6070 0.6100
6.178000 0.6120 0.6130 0.6220 0.6300 0.6380
6.211329 0.6480 0.6620 0.6700 0.6750 0.6900
6.245000 0.7040 0.7050 0.7120 0.7150 0.7200
6.278329 0.7240 0.7270 0.7290 0.7320 0.7350
6.311000 0.7390 0.7400 0.7420 0.7420 0.7440
6.344329 0.7440 0.7490 0.7520 0.7550 0.7550
6.378000 0.7590 0.7600 0.7620 0.7620 0.7620
6.411329 0.7640 0.7640 0.7640 0.7640 0.7640
6.445000 0.7640 0.7640 0.7640 0.7620 0.7640
6.478329 0.7640 0.7650 0.7670 0.7670 0.7670
6.511000 0.7690 0.7690 0.7690 0.7690 0.7690
6.544329 0.7690 0.7690 0.7670 0.7640 0.7590
6.578000 0.7570 0.7550 0.7550 0.7550 0.7550
6.611329 0.7540 0.7540 0.7520 0.7520 0.7520
6.644000 0.7520 0.7500 0.7490 0.7450 0.7450
6.677329 0.7440 0.7400 0.7390 0.7350 0.7320
6.711000 0.7290 0.7240 0.7220 0.7170 0.7120
6.744329 0.7050 0.7040 0.6970 0.6900 0.6850
6.778000 0.6800 0.6800 0.6770 0.6700 0.6620
6.811329 0.6550 0.6480 0.6420 0.6350 0.6250
6.844000 0.6200 0.6150 0.6020 0.5950 0.5850
6.877329 0.5750 0.5650 0.5550 0.5430 0.5310
6.911000 0.5250 0.5200 0.5110 0.5060 0.5010
6.944329 0.5010 0.5000 0.4910 0.4830 0.4680
6.978000 0.4590 0.4490 0.4340 0.4240 0.4160
7.011329 0.4040 0.3990 0.3890 0.3770 0.3670
7.044000 0.3610 0.3520 0.3460 0.3260 0.3170
7.077329 0.3090 0.3020 0.2990 0.2900 0.2870
7.111000 0.2750 0.2740 0.2670 0.2620 0.2590
7.144329 0.2520 0.2500 0.2490 0.2400 0.2370
7.177000 0.2340 0.2320 0.2290 0.2250 0.2200
7.210329 0.2170 0.2140 0.2090 0.2050 0.2040
7.244000 0.2020 0.2000 0.1970 0.1950 0.1930
7.277329 0.1920 0.1900 0.1900 0.1880 0.1880
7.311000 0.1870 0.1870 0.1870 0.1850 0.1850
7.344329 0.1850 0.1850 0.1870 0.1870 0.1880
7.377000 0.1920 0.1930 0.1950 0.1970 0.2000
7.410329 0.2040 0.2050 0.2090 0.2100 0.2140
7.444000 0.2140 0.2190 0.2220 0.2250 0.2300
7.477329 0.2340 0.2370 0.2440 0.2540 0.2600
7.511000 0.2670 0.2770 0.2800 0.2870 0.2920
7.544329 0.2990 0.3020 0.3110 0.3290 0.3360
7.577000 0.3440 0.3470 0.3560 0.3660 0.3710
7.610329 0.3790 0.3860 0.3920 0.3990 0.4010
7.644000 0.4140 0.4210 0.4230 0.4280 0.4310
7.677329 0.4360 0.4430 0.4490 0.4530 0.4580
7.710000 0.4630 0.4680 0.4740 0.4830 0.4960
7.743329 0.5000 0.5110 0.5160 0.5210 0.5250
7.777000 0.5280 0.5310 0.5350 0.5380 0.5430
7.810329 0.5480 0.5510 0.5510 0.5530 0.5560
7.844000 0.5610 0.5660 0.5710 0.5760 0.5810
7.877329 0.5880 0.5980 0.6000 0.6030 0.6100
7.910000 0.6170 0.6200 0.6250 0.6270 0.6330
7.943329 0.6370 0.6400 0.6430 0.6470 0.6500
7.977000 0.6520 0.6550 0.6600 0.6620 0.6680
8.010329 0.6720 0.6730 0.6770 0.6780 0.6800
8.044000 0.6830 0.6850 0.6870 0.6900 0.6920
8.077329 0.6980 0.6980 0.7000 0.7020 0.7020
8.110000 0.7040 0.7070 0.7100 0.7120 0.7140
8.143329 0.7150 0.7170 0.7220 0.7240 0.7250
8.177000 0.7270 0.7290 0.7320 0.7340 0.7350
8.210329 0.7370 0.7390 0.7400 0.7420 0.7420
8.243000 0.7440 0.7440 0.7490 0.7490 0.7490
8.276329 0.7500 0.7520 0.7520 0.7540 0.7540
8.310000 0.7540 0.7540 0.7540 0.7550 0.7550
8.343329 0.7570 0.7590 0.7600 0.7620 0.7620
8.377000 0.7640 0.7650 0.7650 0.7650 0.7670
8.410329 0.7690 0.7670 0.7690 0.7700 0.7700
8.443000 0.7720 0.7720 0.7740 0.7720 0.7740
8.476329 0.7750 0.7790 0.7800 0.7800 0.7820
8.510000 0.7820 0.7840 0.7840 0.7840 0.7850
8.543329 0.7850 0.7850 0.7870 0.7870 0.7870
8.577000 0.7870 0.7890 0.7890 0.7890 0.7900
8.610329 0.7900 0.7900 0.7900 0.7920 0.7920
8.643000 0.7920 0.7950 0.7950 0.7970 0.7970
8.676329 0.7970 0.7970 0.7990 0.7990 0.7990
8.710000 0.8010 0.8010 0.8010 0.8010 0.8020
8.743329 0.8020 0.8020 0.8020 0.8040 0.8040
8.776000 0.8040 0.8040 0.8040 0.8060 0.8060
8.809329 0.8060 0.8060 0.8060 0.8060 0.8070
8.843000 0.8070 0.8070 0.8070 0.8070 0.8070
8.876329 0.8070 0.8070 0.8090 0.8090 0.8090
8.910000 0.8110 0.8110 0.8110 0.8110 0.8110
8.943329 0.8120 0.8120 0.8120 0.8120 0.8120
8.976000 0.8120 0.8140 0.8140 0.8140 0.8140
9.009329 0.8160 0.8160 0.8160 0.8160 0.8160
9.043000 0.8170 0.8170 0.8190 0.8190 0.8190
9.076329 0.8190 0.8210 0.8210 0.8210 0.8220
9.110000 0.8220 0.8220 0.8220 0.8220 0.8240
9.143329 0.8240 0.8270 0.8290 0.8310 0.8310
9.176000 0.8320 0.8320 0.8340 0.8360 0.8370
9.209329 0.8390 0.8410 0.8410 0.8420 0.8440
9.243000 0.8460 0.8460 0.8460 0.8470 0.8490
9.276329 0.8510 0.8510 0.8520 0.8520 0.8520
9.310000 0.8520 0.8520 0.8520 0.8520 0.8520
9.343329 0.8520 0.8540 0.8540 0.8540 0.8540
9.376000 0.8560 0.8570 0.8560 0.8560 0.8560
9.409329 0.8570 0.8570 0.8570 0.8570 0.8590
9.443000 0.8590 0.8620 0.8620 0.8640 0.8660
9.476329 0.8660 0.8660 0.8660 0.8660 0.8660
9.509000 0.8670 0.8670 0.8690 0.8690 0.8690
9.542329 0.8710 0.8720 0.8720 0.8720 0.8720
9.576000 0.8720 0.8720 0.8720 0.8720 0.8720
9.609329 0.8720 0.8720 0.8720 0.8720 0.8720
9.643000 0.8720 0.8720 0.8740 0.8740 0.8740
9.676329 0.8740 0.8740 0.8760 0.8760 0.8760
9.709000 0.8760 0.8760 0.8760 0.8760 0.8760
9.742329 0.8770 0.8770 0.8770 0.8770 0.8770
9.776000 0.8760 0.8760 0.8760 0.8760 0.8760
9.809329 0.8760 0.8770 0.8790 0.8810 0.8810
9.843000 0.8810 0.8820 0.8820 0.8820 0.8840
9.876329 0.8840 0.8840 0.8840 0.8840 0.8840
9.909000 0.8840 0.8840 0.8840 0.8840 0.8820
9.942329 0.8820 0.8820 0.8810 0.8820 0.8810
9.976000 0.8810 0.8810 0.8790 0.8790 0.8790
10.009329 0.8790 0.8810 0.8810 0.8820 0.8820
10.042000 0.8840 0.8840 0.8860 0.8860 0.8870
10.075329 0.8870 0.8890 0.8890 0.8890 0.8890
10.109000 0.8890 0.8910 0.8890 0.8890 0.8910
10.142329 0.8890 0.8890 0.8890 0.8890 0.8890
10.176000 0.8890 0.8890 0.8890 0.8890 0.8890
10.209329 0.8890 0.8890 0.8890 0.8890 0.8910
10.242000 0.8910 0.8910 0.8920 0.8920 0.8920
10.275329 0.8940 0.8940 0.8940 0.8940 0.8960
10.309000 0.8970 0.8970 0.8970 0.8970 0.8970
10.342329 0.8970 0.8970 0.8970 0.8990 0.8990
10.376000 0.8990 0.8990 0.9010 0.9010 0.9010
10.409329 0.9010 0.9010 0.9010 0.9010 0.9030
10.442000 0.9030 0.9030 0.9030 0.9030 0.9030
10.475329 0.9030 0.9030 0.9030 0.9030 0.9030
10.509000 0.9030 0.9030 0.9030 0.9030 0.9030
10.542329 0.9030 0.9030 0.9030 0.9030 0.9030
10.575000 0.9030 0.9030 0.9030 0.9030 0.9040
10.608329 0.9040 0.9040 0.9040 0.9040 0.9040
10.642000 0.9040 0.9040 0.9040 0.9040 0.9040
10.675329 0.9040 0.9040 0.9040 0.9040 0.9030
10.709000 0.8990 0.8990 0.8970 0.8970 0.8970
10.742329 0.8970 0.8960 0.8960 0.8940 0.8940
10.775000 0.8920 0.8920 0.8910 0.8910 0.8910
10.808329 0.8890 0.8890 0.8870 0.8870 0.8860
10.842000 0.8860 0.8860 0.8860 0.8840 0.8840
10.875329 0.8840 0.8840 0.8840 0.8820 0.8820
10.909000 0.8820 0.8820 0.8820 0.8820 0.8820
10.942329 0.8820 0.8820 0.8810 0.8810 0.8810
10.975000 0.8820 0.8810 0.8810 0.8810 0.8790
11.008329 0.8810 0.8810 0.8810 0.8810 0.8820
11.042000 0.8810 0.8820 0.8820 0.8820 0.8820
11.075329 0.8820 0.8820 0.8820 0.8810 0.8810
11.108000 0.8810 0.8810 0.8810 0.8790 0.8790
11.141329 0.8770 0.8770 0.8770 0.8770 0.8770
11.175000 0.8770 0.8770 0.8770 0.8770 0.8760
11.208329 0.8760 0.8760 0.8760 0.8760 0.8770
11.242000 0.8770 0.8790 0.8790 0.8790 0.8790
11.275329 0.8790 0.8790 0.8790 0.8790 0.8790
11.308000 0.8770 0.8770 0.8770 0.8770 0.8770
11.341329 0.8770 0.8790 0.8790 0.8790 0.8790
11.375000 0.8790 0.8790 0.8770 0.8770 0.8770
11.408329 0.8760 0.8760 0.8760 0.8760 0.8740
11.442000 0.8740 0.8740 0.8740 0.8740 0.8740
11.475329 0.8740 0.8740 0.8740 0.8740 0.8740
11.508000 0.8720 0.8720 0.8720 0.8710 0.8710
11.541329 0.8710 0.8710 0.8710 0.8690 0.8690
11.575000 0.8690 0.8690 0.8690 0.8690 0.8710
11.608329 0.8690 0.8690 0.8690 0.8690 0.8670
11.641000 0.8670 0.8670 0.8670 0.8660 0.8660
11.674329 0.8660 0.8660 0.8660 0.8660 0.8640
11.708000 0.8640 0.8620 0.8610 0.8590 0.8590
11.741329 0.8570 0.8590 0.8570 0.8570 0.8560
11.775000 0.8540 0.8540 0.8540 0.8520 0.8510
11.808329 0.8490 0.8490 0.8460 0.8440 0.8440
11.841000 0.8420 0.8410 0.8370 0.8360 0.8340
11.874329 0.8310 0.8220 0.8140 0.8020 0.7950
11.908000 0.7640 0.7470 0.7300 0.7200 0.7120
11.941329 0.7090 0.7050 0.7050 0.7050 0.7090
11.975000 0.7220 0.7250 0.7300 0.7400 0.7620
12.008329 0.7670 0.7690 0.7740 0.7790 0.7820
12.041000 0.7850 0.7890 0.7920 0.7920 0.7950
12.074329 0.7970 0.7990 0.7990 0.8010 0.8020
12.108000 0.8020 0.8040 0.8060 0.8060 0.8070
12.141329 0.8090 0.8110 0.8110 0.8120 0.8120
12.174000 0.8140 0.8140 0.8140 0.8160 0.8160
12.207329 0.8170 0.8170 0.8190 0.8210 0.8220
12.241000 0.8220 0.8220 0.8240 0.8240 0.8260
12.274329 0.8260 0.8240 0.8260 0.8260 0.8260
12.308000 0.8260 0.8260 0.8270 0.8270 0.8260
12.341329 0.8260 0.8260 0.8270 0.8270 0.8270
12.374000 0.8260 0.8260 0.8260 0.8260 0.8260
12.407329 0.8260 0.8260 0.8260 0.8260 0.8240
12.441000 0.8240 0.8240 0.8240 0.8260 0.8260
12.474329 0.8260 0.8270 0.8260 0.8260 0.8270
12.508000 0.8270 0.8260 0.8270 0.8270 0.8260
12.541329 0.8260 0.8260 0.8240 0.8240 0.8260
12.574000 0.8260 0.8260 0.8240 0.8240 0.8240
12.607329 0.8260 0.8240 0.8240 0.8220 0.8220
12.641000 0.8210 0.8210 0.8190 0.8170 0.8170
12.674329 0.8160 0.8170 0.8170 0.8170 0.8170
12.707000 0.8160 0.8170 0.8170 0.8170 0.8160
12.740329 0.8160 0.8140 0.8140 0.8120 0.8120
12.774000 0.8120 0.8110 0.8110 0.8090 0.8040
12.807329 0.8040 0.8040 0.8040 0.8020 0.8020
12.841000 0.8010 0.8010 0.8010 0.8010 0.8010
12.874329 0.7990 0.7990 0.7990 0.7970 0.7970
12.907000 0.7970 0.7950 0.7950 0.7950 0.7940
12.940329 0.7940 0.7920 0.7920 0.7920 0.7900
12.974000 0.7890 0.7890 0.7890 0.7890 0.7870
13.007329 0.7850 0.7850 0.7850 0.7840 0.7840
13.041000 0.7840 0.7840 0.7840 0.7840 0.7840
13.074329 0.7840 0.7840 0.7840 0.7840 0.7840
13.107000 0.7840 0.7840 0.7840 0.7840 0.7840
13.140329 0.7840 0.7840 0.7850 0.7840 0.7840
13.174000 0.7840 0.7840 0.7840 0.7850 0.7840
13.207329 0.7820 0.7820 0.7800 0.7800 0.7790
13.240000 0.7790 0.7770 0.7750 0.7740 0.7740
13.273329 0.7740 0.7740 0.7720 0.7720 0.7720
13.307000 0.7700 0.7700 0.7700 0.7700 0.7700
13.340329 0.7700 0.7700 0.7700 0.7700 0.7690
13.374000 0.7670 0.7670 0.7650 0.7650 0.7640
13.407329 0.7640 0.7640 0.7620 0.7620 0.7600
13.440000 0.7600 0.7590 0.7570 0.7570 0.7550
13.473329 0.7550 0.7540 0.7540 0.7540 0.7520
13.507000 0.7520 0.7520 0.7520 0.7520 0.7500
13.540329 0.7500 0.7500 0.7500 0.7500 0.7500
13.574000 0.7490 0.7490 0.7490 0.7470 0.7470
13.607329 0.7450 0.7470 0.7470 0.7490 0.7470
13.640000 0.7470 0.7450 0.7450 0.7450 0.7440
13.673329 0.7440 0.7440 0.7420 0.7420 0.7400
13.707000 0.7400 0.7390 0.7390 0.7370 0.7350
13.740329 0.7340 0.7340 0.7340 0.7340 0.7340
13.773000 0.7320 0.7320 0.7300 0.7300 0.7300
13.806329 0.7300 0.7290 0.7290 0.7290 0.7290
13.840000 0.7290 0.7290 0.7290 0.7290 0.7270
13.873329 0.7290 0.7270 0.7270 0.7250 0.7250
13.907000 0.7240 0.7240 0.7240 0.7220 0.7200
13.940329 0.7200 0.7190 0.7170 0.7150 0.7150
13.973000 0.7140 0.7140 0.7150 0.7150 0.7140
14.006329 0.7120 0.7100 0.7090 0.7090 0.7070
14.040000 0.7070 0.7050 0.7040 0.7040 0.7040
14.073329 0.7020 0.7000 0.7000 0.7000 0.7000
14.107000 0.7000 0.7000 0.6950 0.6930 0.6930
14.140329 0.6920 0.6920 0.6900 0.6900 0.6880
14.173000 0.6870 0.6870 0.6870 0.6870 0.6850
14.206329 0.6830 0.6820 0.6820 0.6800 0.6800
14.240000 0.6800 0.6780 0.6780 0.6780 0.6770
14.273329 0.6750 0.6750 0.6750 0.6730 0.6730
14.306000 0.6730 0.6720 0.6700 0.6700 0.6680
14.339329 0.6680 0.6650 0.6630 0.6630 0.6630
14.373000 0.6620 0.6620 0.6600 0.6600 0.6580
14.406329 0.6580 0.6580 0.6580 0.6570 0.6570
14.440000 0.6570 0.6550 0.6550 0.6550 0.6530
14.473329 0.6530 0.6530 0.6520 0.6520 0.6500
14.506000 0.6480 0.6480 0.6470 0.6470 0.6450
14.539329 0.6450 0.6430 0.6430 0.6430 0.6430
14.573000 0.6430 0.6430 0.6420 0.6420 0.6420
14.606329 0.6420 0.6400 0.6400 0.6380 0.6380
14.640000 0.6380 0.6370 0.6350 0.6330 0.6320
14.673329 0.6320 0.6320 0.6300 0.6280 0.6280
14.706000 0.6270 0.6230 0.6230 0.6220 0.6220
14.739329 0.6220 0.6220 0.6220 0.6220 0.6200
14.773000 0.6220 0.6200 0.6200 0.6180 0.6180
14.806329 0.6200 0.6200 0.6220 0.6220 0.6220
14.839000 0.6220 0.6200 0.6200 0.6200 0.6180
14.872329 0.6150 0.6130 0.6130 0.6130 0.6120
14.906000 0.6120 0.6120 0.6100 0.6080 0.6080
14.939329 0.6070 0.6050 0.6050 0.6050 0.6050
14.973000 0.6030 0.6030 0.6050 0.6030 0.6030
15.006329 0.6030 0.6020 0.6020 0.6020 0.6020
15.039000 0.6020 0.6020 0.6020 0.6020 0.6000
15.072329 0.6000 0.6000 0.6000 0.6000 0.6000
15.106000 0.6000 0.5980 0.5980 0.5980 0.5980
15.139329 0.5980 0.5980 0.5960 0.5960 0.5950
15.173000 0.5950 0.5930 0.5930 0.5910 0.5910
15.206329 0.5910 0.5910 0.5930 0.5950 0.5950
15.239000 0.5960 0.5960 0.5960 0.5960 0.5960
15.272329 0.5960 0.5960 0.5960 0.5960 0.5950
15.306000 0.5950 0.5950 0.5930 0.5930 0.5930
15.339329 0.5910 0.5910 0.5910 0.5900 0.5900
15.373000 0.5880 0.5880 0.5880 0.5880 0.5860
15.406329 0.5860 0.5860 0.5860 0.5860 0.5860
15.439000 0.5860 0.5860 0.5860 0.5860 0.5860
15.472329 0.5860 0.5860 0.5860 0.5850 0.5850
15.506000 0.5830 0.5830 0.5830 0.5830 0.5830
15.539329 0.5830 0.5830 0.5830 0.5830 0.5830
15.572000 0.5830 0.5830 0.5830 0.5830 0.5830
15.605329 0.5830 0.5830 0.5830 0.5850 0.5850
15.639000 0.5850 0.5860 0.5860 0.5860 0.5860
15.672329 0.5860 0.5850 0.5860 0.5850 0.5830
15.706000 0.5830 0.5810 0.5810 0.5810 0.5830
15.739329 0.5830 0.5830 0.5810 0.5810 0.5830
15.772000 0.5830 0.5830 0.5850 0.5850 0.5860
15.805329 0.5860 0.5860 0.5880 0.5880 0.5880
15.839000 0.5880 0.5880 0.5880 0.5880 0.5880
15.872329 0.5880 0.5880 0.5880 0.5880 0.5860
15.906000 0.5860 0.5850 0.5860 0.5860 0.5880
15.939329 0.5880 0.5900 0.5910 0.5900 0.5910
15.972000 0.5910 0.5930 0.5950 0.5950 0.5930
16.005329 0.5950
##END=
