##TITLE=CD3-2-PHENANTHRENE
##JCAMP-DX=4.24
##DATA TYPE=INFRARED SPECTRUM
##CLASS=COBLENTZ
##ORIGIN=CENTRE D'ETUDES NUCLEAIRES DE GRENOBLE
##OWNER=COBLENTZ SOCIETY
Collection (C) 2018 copyright by the U.S. Secretary of Commerce
on behalf of the United States of America. All rights reserved.
##DATE=Not specified, most likely prior to 1970
##NAMES=2-methylphenanthrene
##MOLFORM=C15 H9 D3
##SOURCE REFERENCE=COBLENTZ NO. 4217
##$NIST ID=B6004217
##$NIST SOURCE=COBLENTZ
##$NIST IMAGE=cob4217
##SPECTROMETER/DATA SYSTEM=Not specified, most likely a prism, grating, or hybrid spectrometer.
##STATE=SOLUTION (146 g/L IN HEPTANE)
##PATH LENGTH=0.01 CM
$$PURITY 95.2%
##SAMPLING PROCEDURE=TRANSMISSION
##RESOLUTION=4
$$SPECTRAL CONTAMINATION DUE TO SOLVENT AROUND 2850 AND 1420 CM^-^1
##DATA PROCESSING=DIGITIZED BY NIST FROM HARD COPY
##XUNITS=MICROMETERS
##YUNITS=TRANSMITTANCE
##XFACTOR=1.000000
##YFACTOR=1
##DELTAX=000.006670
##FIRSTX=1.993
##LASTX=15.927
##FIRSTY=0.932
##MAXX=15.927
##MINX=1.993
##MAXY=0.947
##MINY=0.028
##NPOINTS=2090
##XYDATA=(X++(Y..Y))
1.993000 0.9320 0.9320 0.9330 0.9330 0.9330
2.026366 0.9350 0.9350 0.9350 0.9350 0.9370
2.060000 0.9370 0.9370 0.9370 0.9370 0.9370
2.093366 0.9370 0.9350 0.9350 0.9350 0.9330
2.126000 0.9330 0.9320 0.9300 0.9280 0.9270
2.159366 0.9250 0.9250 0.9250 0.9230 0.9230
2.193000 0.9230 0.9230 0.9250 0.9250 0.9270
2.226366 0.9270 0.9280 0.9300 0.9320 0.9330
2.260000 0.9330 0.9350 0.9350 0.9370 0.9380
2.293366 0.9380 0.9380 0.9400 0.9420 0.9420
2.326000 0.9430 0.9450 0.9450 0.9470 0.9470
2.359366 0.9470 0.9470 0.9470 0.9470 0.9450
2.393000 0.9450 0.9450 0.9450 0.9430 0.9430
2.426366 0.9430 0.9420 0.9420 0.9420 0.9420
2.460000 0.9400 0.9400 0.9380 0.9380 0.9380
2.493366 0.9370 0.9370 0.9350 0.9350 0.9330
2.526000 0.9330 0.9330 0.9330 0.9320 0.9320
2.559366 0.9320 0.9320 0.9300 0.9300 0.9300
2.593000 0.9300 0.9280 0.9280 0.9280 0.9280
2.626366 0.9280 0.9280 0.9280 0.9280 0.9280
2.660000 0.9280 0.9280 0.9280 0.9280 0.9280
2.693366 0.9280 0.9280 0.9300 0.9300 0.9320
2.727000 0.9320 0.9320 0.9330 0.9350 0.9350
2.760366 0.9370 0.9370 0.9350 0.9350 0.9330
2.793000 0.9320 0.9300 0.9280 0.9270 0.9250
2.826366 0.9230 0.9220 0.9220 0.9220 0.9200
2.860000 0.9200 0.9190 0.9190 0.9190 0.9190
2.893366 0.9190 0.9190 0.9170 0.9170 0.9170
2.927000 0.9170 0.9170 0.9170 0.9170 0.9170
2.960366 0.9170 0.9170 0.9150 0.9150 0.9150
2.993000 0.9140 0.9140 0.9120 0.9120 0.9120
3.026366 0.9100 0.9100 0.9090 0.9090 0.9070
3.060000 0.9070 0.9050 0.9040 0.9040 0.9020
3.093366 0.9020 0.9000 0.9000 0.9000 0.9020
3.127000 0.9020 0.9020 0.9040 0.9040 0.9050
3.160366 0.9050 0.9070 0.9070 0.9070 0.9070
3.193000 0.9050 0.9040 0.9020 0.8990 0.8940
3.226366 0.8840 0.8710 0.8540 0.8310 0.8030
3.260000 0.7660 0.7200 0.6770 0.6360 0.5600
3.293366 0.5250 0.4890 0.4670 0.4660 0.4690
3.327000 0.4870 0.4890 0.5090 0.5470 0.5730
3.360366 0.5880 0.6000 0.6030 0.6060 0.6210
3.394000 0.6240 0.6260 0.6260 0.6260 0.6240
3.427366 0.6230 0.6180 0.6160 0.6130 0.6090
3.460000 0.6060 0.6040 0.6040 0.6030 0.6010
3.493366 0.6010 0.6010 0.6010 0.6030 0.6030
3.527000 0.6040 0.6040 0.6080 0.6090 0.6140
3.560366 0.6230 0.6280 0.6620 0.6970 0.7270
3.594000 0.7610 0.7960 0.8290 0.8520 0.8890
3.627366 0.8990 0.9050 0.9140 0.9220 0.9230
3.660000 0.9230 0.9220 0.9220 0.9230 0.9280
3.693366 0.9330 0.9330 0.9280 0.9250 0.9220
3.727000 0.9200 0.9200 0.9220 0.9250 0.9300
3.760366 0.9330 0.9350 0.9330 0.9320 0.9280
3.794000 0.9250 0.9230 0.9190 0.9170 0.9170
3.827366 0.9170 0.9170 0.9170 0.9170 0.9170
3.860000 0.9150 0.9150 0.9120 0.9120 0.9100
3.893366 0.9090 0.9070 0.9050 0.9050 0.9050
3.927000 0.9040 0.9040 0.9020 0.9020 0.9000
3.960366 0.9000 0.9000 0.9000 0.9000 0.9000
3.994000 0.9000 0.9000 0.8990 0.8990 0.8990
4.027366 0.8970 0.8950 0.8950 0.8950 0.8950
4.061000 0.8950 0.8950 0.8950 0.8950 0.8950
4.094366 0.8950 0.8950 0.8950 0.8950 0.8950
4.127000 0.8950 0.8950 0.8950 0.8950 0.8950
4.160366 0.8950 0.8970 0.8990 0.8990 0.9000
4.194000 0.9000 0.9020 0.9040 0.9050 0.9050
4.227366 0.9070 0.9100 0.9100 0.9090 0.9090
4.261000 0.9070 0.9050 0.9050 0.9020 0.8950
4.294366 0.8920 0.8920 0.8900 0.8870 0.8790
4.327000 0.8760 0.8690 0.8610 0.8610 0.8590
4.360366 0.8590 0.8610 0.8610 0.8620 0.8640
4.394000 0.8660 0.8660 0.8670 0.8670 0.8660
4.427366 0.8660 0.8610 0.8560 0.8490 0.8420
4.461000 0.8340 0.8290 0.8260 0.8230 0.8160
4.494366 0.8040 0.7880 0.7710 0.7650 0.7610
4.527000 0.7610 0.7600 0.7600 0.7580 0.7520
4.560366 0.7480 0.7480 0.7500 0.7610 0.7750
4.594000 0.7860 0.7980 0.8140 0.8230 0.8340
4.627366 0.8470 0.8510 0.8510 0.8510 0.8470
4.661000 0.8470 0.8420 0.8420 0.8410 0.8380
4.694366 0.8290 0.8130 0.7850 0.7430 0.6840
4.728000 0.6840 0.7270 0.7680 0.8060 0.8340
4.761366 0.8520 0.8620 0.8620 0.8640 0.8640
4.794000 0.8640 0.8640 0.8640 0.8640 0.8620
4.827366 0.8610 0.8560 0.8520 0.8440 0.8180
4.861000 0.7850 0.7370 0.6870 0.6900 0.7090
4.894366 0.7500 0.7800 0.8060 0.8360 0.8510
4.928000 0.8610 0.8660 0.8690 0.8710 0.8720
4.961366 0.8720 0.8760 0.8790 0.8790 0.8820
4.994000 0.8820 0.8820 0.8840 0.8840 0.8840
5.027366 0.8820 0.8820 0.8820 0.8800 0.8790
5.061000 0.8790 0.8770 0.8770 0.8760 0.8760
5.094366 0.8740 0.8740 0.8720 0.8710 0.8710
5.128000 0.8710 0.8690 0.8670 0.8620 0.8520
5.161366 0.8420 0.8260 0.8190 0.7960 0.7930
5.194000 0.7960 0.8180 0.8310 0.8340 0.8330
5.227366 0.8310 0.8180 0.8010 0.7900 0.7710
5.261000 0.7550 0.7530 0.7570 0.7660 0.7680
5.294366 0.7730 0.7830 0.7960 0.8080 0.8180
5.328000 0.8230 0.8290 0.8360 0.8420 0.8470
5.361366 0.8490 0.8510 0.8520 0.8540 0.8570
5.395000 0.8590 0.8610 0.8620 0.8660 0.8670
5.428366 0.8690 0.8690 0.8690 0.8670 0.8520
5.461000 0.8460 0.8410 0.8380 0.8340 0.8310
5.494366 0.8260 0.8190 0.8080 0.7880 0.7860
5.528000 0.7880 0.8030 0.8110 0.8110 0.8090
5.561366 0.7780 0.7780 0.7850 0.8000 0.8040
5.595000 0.8230 0.8410 0.8460 0.8460 0.8460
5.628366 0.8440 0.8440 0.8420 0.8410 0.8360
5.661000 0.8340 0.8330 0.8130 0.8030 0.7830
5.694366 0.7630 0.7600 0.7600 0.7660 0.7850
5.728000 0.7860 0.7880 0.7900 0.7930 0.7950
5.761366 0.8000 0.8030 0.8090 0.8140 0.8210
5.795000 0.8230 0.8240 0.8090 0.8090 0.8130
5.828366 0.8280 0.8330 0.8330 0.8290 0.8110
5.861000 0.7850 0.7710 0.7710 0.7780 0.7900
5.894366 0.8190 0.8240 0.8260 0.8240 0.7950
5.928000 0.7910 0.7930 0.8160 0.8160 0.8140
5.961366 0.8130 0.8110 0.8090 0.7930 0.7760
5.995000 0.7760 0.7910 0.7930 0.7930 0.7930
6.028366 0.7930 0.7910 0.7900 0.7850 0.7760
6.062000 0.7800 0.7880 0.7960 0.8000 0.8030
6.095366 0.8030 0.8040 0.8030 0.8010 0.7980
6.128000 0.7550 0.7330 0.7120 0.6800 0.6340
6.161366 0.5570 0.5430 0.5380 0.5370 0.5370
6.195000 0.5140 0.5140 0.5350 0.5780 0.5900
6.228366 0.6010 0.6140 0.6240 0.6260 0.6240
6.262000 0.6080 0.5860 0.5930 0.6180 0.6410
6.295366 0.6710 0.6940 0.7120 0.7230 0.7330
6.328000 0.7420 0.7470 0.7500 0.7550 0.7610
6.361366 0.7680 0.7780 0.7800 0.7800 0.7810
6.395000 0.7830 0.7830 0.7850 0.7880 0.7930
6.428366 0.7980 0.8030 0.8180 0.8210 0.8210
6.462000 0.8160 0.7880 0.7860 0.7910 0.7960
6.495366 0.8010 0.8110 0.8140 0.8130 0.8080
6.528000 0.8040 0.7960 0.7850 0.7700 0.7630
6.561366 0.7580 0.7480 0.7420 0.7380 0.7380
6.595000 0.7400 0.7430 0.7500 0.7600 0.7710
6.628366 0.7860 0.7930 0.7980 0.8000 0.8000
6.662000 0.8000 0.8000 0.8000 0.7980 0.7980
6.695366 0.7960 0.7700 0.7630 0.7400 0.7170
6.729000 0.4740 0.4740 0.4950 0.5750 0.5910
6.762366 0.6130 0.6330 0.6820 0.7250 0.7470
6.795000 0.7700 0.7800 0.7850 0.7860 0.7900
6.828366 0.7880 0.7860 0.7860 0.7860 0.7830
6.862000 0.7810 0.7780 0.7750 0.7730 0.7710
6.895366 0.7700 0.7700 0.7680 0.7660 0.7650
6.929000 0.7630 0.7610 0.7600 0.7580 0.7570
6.962366 0.7570 0.7550 0.7530 0.7520 0.7480
6.995000 0.7450 0.7350 0.7230 0.7020 0.6790
7.028366 0.6670 0.6560 0.6520 0.6520 0.6540
7.062000 0.6720 0.6850 0.6970 0.7090 0.7170
7.095366 0.7270 0.7370 0.7480 0.7610 0.7780
7.129000 0.7960 0.8010 0.8030 0.8030 0.8040
7.162366 0.8060 0.8060 0.8060 0.8040 0.8040
7.195000 0.8040 0.8030 0.8030 0.8040 0.8060
7.228366 0.8130 0.8190 0.8230 0.8280 0.8380
7.262000 0.8440 0.8510 0.8510 0.8520 0.8510
7.295366 0.8470 0.8340 0.8190 0.8080 0.7960
7.329000 0.7860 0.7780 0.7730 0.7710 0.7700
7.362366 0.7710 0.7730 0.7760 0.7780 0.7810
7.396000 0.7850 0.7930 0.8000 0.8030 0.8030
7.429366 0.8040 0.8080 0.8090 0.8110 0.8210
7.462000 0.8280 0.8290 0.8360 0.8410 0.8420
7.495366 0.8420 0.8410 0.8390 0.8380 0.8360
7.529000 0.8360 0.8360 0.8360 0.8380 0.8380
7.562366 0.8390 0.8410 0.8420 0.8440 0.8440
7.596000 0.8440 0.8420 0.8380 0.8360 0.8360
7.629366 0.8340 0.8340 0.8310 0.8290 0.8160
7.662000 0.7960 0.7630 0.7220 0.7190 0.7220
7.695366 0.7660 0.7930 0.8040 0.8140 0.8160
7.729000 0.8190 0.8210 0.8230 0.8230 0.8240
7.762366 0.8260 0.8280 0.8290 0.8310 0.8330
7.796000 0.8360 0.8380 0.8390 0.8420 0.8440
7.829366 0.8440 0.8470 0.8470 0.8410 0.8360
7.862000 0.8330 0.8310 0.8290 0.8290 0.8280
7.895366 0.8240 0.8210 0.8160 0.8110 0.8040
7.929000 0.8010 0.7930 0.7850 0.7710 0.7580
7.962366 0.7400 0.7150 0.6740 0.6130 0.4180
7.996000 0.4180 0.4570 0.5730 0.5980 0.6090
8.029366 0.6210 0.6440 0.6640 0.6820 0.6990
8.063000 0.7120 0.7200 0.7380 0.7430 0.7450
8.096366 0.7450 0.7430 0.7100 0.6690 0.6230
8.129000 0.5700 0.5760 0.5950 0.6110 0.6410
8.162366 0.6850 0.7190 0.7450 0.7650 0.7810
8.196000 0.7930 0.8110 0.8130 0.8140 0.8140
8.229366 0.8140 0.8140 0.8140 0.8140 0.8140
8.263000 0.8140 0.8130 0.8110 0.8010 0.7960
8.296366 0.7910 0.7810 0.7760 0.7710 0.7660
8.329000 0.7650 0.7660 0.7730 0.7800 0.7830
8.362366 0.7850 0.7860 0.7880 0.7880 0.7900
8.396000 0.7900 0.7930 0.7960 0.8030 0.8160
8.429366 0.8180 0.8180 0.8180 0.8160 0.8130
8.463000 0.8010 0.7860 0.7680 0.7480 0.7270
8.496366 0.6940 0.6920 0.6940 0.7120 0.7300
8.530000 0.7420 0.7480 0.7530 0.7570 0.7630
8.563366 0.7700 0.7750 0.7760 0.7760 0.7760
8.596000 0.7760 0.7750 0.7730 0.7750 0.7750
8.629366 0.7760 0.7780 0.7800 0.7810 0.7810
8.663000 0.7830 0.7850 0.7880 0.7910 0.7910
8.696366 0.7930 0.7930 0.7930 0.7880 0.7850
8.730000 0.7810 0.7760 0.7700 0.7550 0.7470
8.763366 0.7470 0.7480 0.7660 0.7830 0.7900
8.796000 0.7950 0.7950 0.7980 0.8010 0.8030
8.829366 0.8040 0.8060 0.8060 0.8040 0.8040
8.863000 0.8040 0.8030 0.8030 0.8000 0.7980
8.896366 0.7950 0.7930 0.7930 0.7910 0.7910
8.930000 0.7910 0.7910 0.7930 0.7930 0.7930
8.963366 0.7930 0.7930 0.7950 0.7950 0.7950
8.996000 0.7950 0.7950 0.7930 0.7930 0.7930
9.029366 0.7910 0.7900 0.7880 0.7860 0.7860
9.063000 0.7850 0.7800 0.7760 0.7680 0.7530
9.096366 0.7420 0.7170 0.7150 0.7170 0.7230
9.130000 0.7470 0.7520 0.7580 0.7610 0.7650
9.163366 0.7680 0.7730 0.7760 0.7810 0.7850
9.197000 0.7860 0.7860 0.7860 0.7880 0.7900
9.230366 0.7910 0.7950 0.7960 0.7980 0.8000
9.263000 0.8010 0.8040 0.8060 0.8060 0.8040
9.296366 0.8040 0.8040 0.8030 0.8030 0.8030
9.330000 0.8010 0.8000 0.7980 0.7960 0.7950
9.363366 0.7930 0.7910 0.7900 0.7880 0.7850
9.397000 0.7830 0.7800 0.7760 0.7710 0.7660
9.430366 0.7600 0.7550 0.7500 0.7480 0.7450
9.463000 0.7400 0.7380 0.7330 0.7300 0.7280
9.496366 0.7270 0.7250 0.7220 0.7170 0.7040
9.530000 0.7000 0.6950 0.6900 0.6870 0.6840
9.563366 0.6790 0.6760 0.6720 0.6670 0.6620
9.597000 0.6540 0.6420 0.6290 0.6210 0.6110
9.630366 0.5960 0.6030 0.6080 0.6180 0.6340
9.663000 0.6470 0.6610 0.6740 0.6870 0.6990
9.696366 0.7100 0.7220 0.7320 0.7430 0.7520
9.730000 0.7600 0.7680 0.7730 0.7800 0.7830
9.763366 0.7850 0.7860 0.7860 0.7880 0.7880
9.797000 0.7900 0.7900 0.7910 0.7930 0.7930
9.830366 0.7930 0.7930 0.7930 0.7950 0.7950
9.864000 0.7950 0.7960 0.7960 0.7960 0.7960
9.897366 0.7960 0.7950 0.7950 0.7950 0.7930
9.930000 0.7910 0.7880 0.7750 0.7730 0.7650
9.963366 0.7200 0.6460 0.6410 0.6360 0.6360
9.997000 0.6510 0.6970 0.7380 0.7700 0.7880
10.030366 0.7960 0.8010 0.8010 0.8040 0.8130
10.064000 0.8140 0.8160 0.8190 0.8210 0.8210
10.097366 0.8240 0.8240 0.8240 0.8260 0.8260
10.130000 0.8260 0.8260 0.8260 0.8260 0.8260
10.163366 0.8260 0.8260 0.8260 0.8260 0.8260
10.197000 0.8260 0.8260 0.8240 0.8240 0.8230
10.230366 0.8230 0.8230 0.8230 0.8230 0.8230
10.264000 0.8240 0.8260 0.8260 0.8280 0.8280
10.297366 0.8310 0.8310 0.8330 0.8330 0.8330
10.330000 0.8340 0.8340 0.8340 0.8340 0.8340
10.363366 0.8340 0.8330 0.8330 0.8310 0.8310
10.397000 0.8310 0.8290 0.8290 0.8280 0.8280
10.430366 0.8260 0.8260 0.8240 0.8240 0.8230
10.464000 0.8210 0.8210 0.8190 0.8180 0.8160
10.497366 0.8160 0.8140 0.8140 0.8140 0.8140
10.531000 0.8130 0.8110 0.8090 0.8060 0.8040
10.564366 0.8000 0.7930 0.7730 0.7470 0.7170
10.597000 0.6850 0.6570 0.6360 0.6340 0.6360
10.630366 0.6540 0.6790 0.7050 0.7220 0.7470
10.664000 0.7650 0.7780 0.7880 0.7980 0.8040
10.697366 0.8130 0.8180 0.8190 0.8240 0.8260
10.731000 0.8330 0.8340 0.8340 0.8330 0.8330
10.764366 0.8310 0.8280 0.8240 0.8210 0.8190
10.797000 0.8180 0.8180 0.8140 0.8110 0.8060
10.830366 0.8010 0.7960 0.7900 0.7810 0.7630
10.864000 0.7600 0.7530 0.7430 0.7320 0.7070
10.897366 0.6970 0.6870 0.6470 0.5570 0.4970
10.931000 0.4190 0.3520 0.2890 0.2380 0.1610
10.964366 0.1580 0.1580 0.1980 0.2340 0.2690
10.997000 0.3000 0.3330 0.3710 0.4090 0.4510
11.030366 0.4900 0.5300 0.5680 0.5860 0.6040
11.064000 0.6340 0.6670 0.6870 0.7000 0.7100
11.097366 0.7250 0.7480 0.7680 0.7800 0.7880
11.131000 0.7930 0.8000 0.8040 0.8110 0.8140
11.164366 0.8160 0.8160 0.8160 0.8160 0.8140
11.198000 0.8140 0.8140 0.8140 0.8130 0.8110
11.231366 0.8080 0.8040 0.8030 0.8000 0.7960
11.264000 0.7930 0.7900 0.7880 0.7860 0.7850
11.297366 0.7850 0.7830 0.7830 0.7830 0.7830
11.331000 0.7850 0.7850 0.7860 0.7880 0.7900
11.364366 0.7930 0.7980 0.8010 0.8030 0.8030
11.398000 0.8060 0.8090 0.8110 0.8110 0.8090
11.431366 0.8080 0.8060 0.8000 0.7930 0.7910
11.464000 0.7900 0.7880 0.7850 0.7830 0.7650
11.497366 0.7450 0.7250 0.7140 0.6890 0.6310
11.531000 0.6110 0.5910 0.5750 0.5550 0.5280
11.564366 0.4870 0.4840 0.4850 0.4970 0.5100
11.598000 0.5380 0.5600 0.5850 0.6080 0.6280
11.631366 0.6540 0.6740 0.6900 0.7040 0.7170
11.664000 0.7280 0.7370 0.7450 0.7500 0.7530
11.697366 0.7600 0.7650 0.7760 0.7800 0.7830
11.731000 0.7860 0.7880 0.7910 0.7950 0.7960
11.764366 0.8000 0.8010 0.8040 0.8060 0.8080
11.798000 0.8090 0.8130 0.8140 0.8140 0.8180
11.831366 0.8180 0.8190 0.8190 0.8210 0.8210
11.865000 0.8210 0.8230 0.8230 0.8230 0.8230
11.898366 0.8230 0.8230 0.8210 0.8210 0.8190
11.931000 0.8190 0.8180 0.8180 0.8180 0.8190
11.964366 0.8190 0.8210 0.8210 0.8210 0.8210
11.998000 0.8190 0.8160 0.8140 0.8130 0.8130
12.031366 0.8110 0.8110 0.8110 0.8110 0.8090
12.065000 0.8090 0.8080 0.8040 0.8010 0.7960
12.098366 0.7930 0.7880 0.7850 0.7810 0.7810
12.131000 0.7780 0.7760 0.7730 0.7630 0.7500
12.164366 0.7420 0.7330 0.7250 0.7200 0.7070
12.198000 0.7020 0.6900 0.6760 0.6610 0.6420
12.231366 0.6240 0.6010 0.5470 0.5150 0.4790
12.265000 0.4380 0.3900 0.3320 0.2770 0.2280
12.298366 0.1350 0.0920 0.0660 0.0560 0.0490
12.331000 0.0420 0.0310 0.0280 0.0280 0.0290
12.364366 0.0360 0.0420 0.0510 0.0610 0.0740
12.398000 0.0920 0.1170 0.1480 0.1860 0.2110
12.431366 0.2340 0.2740 0.3100 0.3380 0.3650
12.465000 0.3910 0.4180 0.4440 0.4720 0.5000
12.498366 0.5270 0.5500 0.5730 0.5910 0.6000
12.532000 0.6090 0.6190 0.6380 0.6520 0.6660
12.565366 0.6740 0.6820 0.6850 0.6940 0.7000
12.598000 0.7150 0.7250 0.7300 0.7350 0.7400
12.631366 0.7500 0.7520 0.7530 0.7550 0.7600
12.665000 0.7650 0.7700 0.7730 0.7780 0.7800
12.698366 0.7830 0.7900 0.7930 0.7950 0.7960
12.732000 0.7980 0.8010 0.8080 0.8110 0.8130
12.765366 0.8140 0.8160 0.8180 0.8180 0.8190
12.798000 0.8190 0.8230 0.8230 0.8260 0.8310
12.831366 0.8330 0.8340 0.8340 0.8360 0.8360
12.865000 0.8360 0.8380 0.8380 0.8380 0.8380
12.898366 0.8380 0.8380 0.8380 0.8380 0.8380
12.932000 0.8380 0.8360 0.8330 0.8260 0.8190
12.965366 0.8130 0.8090 0.8040 0.8010 0.8000
12.998000 0.7960 0.7930 0.7880 0.7830 0.7750
13.031366 0.7650 0.7520 0.7350 0.7140 0.6900
13.065000 0.6610 0.6260 0.6040 0.5320 0.5020
13.098366 0.4790 0.4560 0.4290 0.3930 0.3730
13.132000 0.3700 0.3680 0.3680 0.3700 0.3760
13.165366 0.3900 0.4110 0.4330 0.4520 0.4740
13.199000 0.4940 0.5170 0.5380 0.5450 0.5550
13.232366 0.5680 0.5810 0.5950 0.6000 0.6030
13.265000 0.6130 0.6140 0.6140 0.6140 0.6140
13.298366 0.6140 0.6140 0.6130 0.6030 0.5830
13.332000 0.5650 0.5420 0.5150 0.4850 0.4490
13.365366 0.4110 0.3700 0.3230 0.2920 0.2520
13.399000 0.2060 0.1470 0.1220 0.1000 0.0840
13.432366 0.0710 0.0590 0.0510 0.0460 0.0420
13.465000 0.0410 0.0390 0.0390 0.0420 0.0590
13.498366 0.0740 0.0870 0.1040 0.1200 0.1400
13.532000 0.1610 0.1880 0.2030 0.2180 0.2540
13.565366 0.2800 0.3050 0.3250 0.3480 0.3750
13.599000 0.4010 0.4230 0.4420 0.4570 0.4740
13.632366 0.4890 0.4990 0.5190 0.5320 0.5470
13.665000 0.5600 0.5750 0.5900 0.5960 0.6030
13.698366 0.6180 0.6290 0.6390 0.6490 0.6560
13.732000 0.6640 0.6720 0.6820 0.6900 0.6940
13.765366 0.6950 0.6990 0.7000 0.7000 0.6970
13.799000 0.6970 0.6940 0.6920 0.6900 0.6890
13.832366 0.6870 0.6840 0.6820 0.6800 0.6800
13.866000 0.6790 0.6790 0.6790 0.6790 0.6800
13.899366 0.6800 0.6840 0.6850 0.6870 0.6900
13.932000 0.6940 0.7000 0.7100 0.7230 0.7380
13.965366 0.7570 0.7710 0.7860 0.7950 0.8030
13.999000 0.8060 0.8110 0.8140 0.8190 0.8230
14.032366 0.8260 0.8290 0.8310 0.8310 0.8310
14.066000 0.8310 0.8330 0.8330 0.8330 0.8330
14.099366 0.8330 0.8330 0.8310 0.8310 0.8290
14.132000 0.8280 0.8260 0.8240 0.8210 0.8190
14.165366 0.8160 0.8140 0.8090 0.8040 0.7960
14.199000 0.7830 0.7680 0.7470 0.7120 0.6850
14.232366 0.6520 0.6290 0.6040 0.5610 0.5400
14.266000 0.5380 0.5400 0.5570 0.5780 0.5950
14.299366 0.6040 0.6130 0.6330 0.6560 0.6770
14.332000 0.7000 0.7200 0.7420 0.7580 0.7830
14.365366 0.7930 0.7980 0.8000 0.8060 0.8190
14.399000 0.8260 0.8310 0.8360 0.8390 0.8440
14.432366 0.8460 0.8490 0.8510 0.8560 0.8570
14.466000 0.8590 0.8590 0.8590 0.8570 0.8570
14.499366 0.8570 0.8570 0.8590 0.8610 0.8620
14.533000 0.8620 0.8620 0.8610 0.8610 0.8610
14.566366 0.8610 0.8610 0.8590 0.8590 0.8610
14.599000 0.8620 0.8640 0.8640 0.8660 0.8660
14.632366 0.8690 0.8710 0.8710 0.8690 0.8690
14.666000 0.8670 0.8670 0.8670 0.8660 0.8660
14.699366 0.8660 0.8660 0.8670 0.8670 0.8670
14.733000 0.8690 0.8690 0.8690 0.8710 0.8710
14.766366 0.8710 0.8710 0.8710 0.8710 0.8690
14.799000 0.8690 0.8690 0.8690 0.8670 0.8670
14.832366 0.8670 0.8670 0.8660 0.8660 0.8660
14.866000 0.8660 0.8640 0.8640 0.8610 0.8560
14.899366 0.8510 0.8510 0.8490 0.8460 0.8420
14.933000 0.8390 0.8330 0.8280 0.8230 0.8180
14.966366 0.8110 0.8060 0.8010 0.7980 0.7930
14.999000 0.7850 0.7800 0.7750 0.7680 0.7610
15.032366 0.7500 0.7470 0.7470 0.7480 0.7550
15.066000 0.7600 0.7680 0.7750 0.7800 0.7930
15.099366 0.7980 0.8060 0.8180 0.8210 0.8260
15.133000 0.8310 0.8360 0.8380 0.8420 0.8460
15.166366 0.8490 0.8520 0.8590 0.8620 0.8660
15.200000 0.8660 0.8670 0.8670 0.8690 0.8690
15.233366 0.8710 0.8710 0.8710 0.8710 0.8720
15.266000 0.8740 0.8740 0.8760 0.8760 0.8770
15.299366 0.8770 0.8770 0.8770 0.8770 0.8790
15.333000 0.8790 0.8790 0.8790 0.8800 0.8800
15.366366 0.8800 0.8820 0.8820 0.8820 0.8820
15.400000 0.8820 0.8820 0.8820 0.8840 0.8850
15.433366 0.8850 0.8850 0.8850 0.8870 0.8870
15.466000 0.8870 0.8870 0.8870 0.8890 0.8890
15.499366 0.8890 0.8890 0.8890 0.8900 0.8900
15.533000 0.8900 0.8900 0.8900 0.8890 0.8890
15.566366 0.8870 0.8850 0.8840 0.8820 0.8820
15.600000 0.8800 0.8800 0.8800 0.8800 0.8820
15.633366 0.8820 0.8840 0.8850 0.8850 0.8850
15.666000 0.8870 0.8890 0.8890 0.8900 0.8900
15.699366 0.8900 0.8920 0.8920 0.8920 0.8920
15.733000 0.8920 0.8920 0.8920 0.8920 0.8920
15.766366 0.8920 0.8920 0.8920 0.8920 0.8900
15.800000 0.8900 0.8900 0.8900 0.8890 0.8890
15.833366 0.8870 0.8870 0.8870 0.8890 0.8890
15.867000 0.8900 0.8920 0.8920 0.8920 0.8920
15.900366 0.8920 0.8920 0.8940 0.8940 0.8940
##END=
