##TITLE=Purine,6-(2-aminoethyl thio)-
##JCAMP-DX=4.24
##DATA TYPE=INFRARED SPECTRUM
##CLASS=COBLENTZ III
##ORIGIN=SOUTHERN RESEARCH INSTITUTE
##OWNER=Copyright (C) 1987 by the Coblentz Society
Collection (C) 2018 copyright by the U.S. Secretary of Commerce
on behalf of the United States of America. All rights reserved.
##DATE=1958/11/28
##NAMES=2-(7H-purin-6-ylsulfanyl)ethylamine
2-(7H-purin-6-ylsulfanyl)ethanamine
##MOLFORM=C7 H9 N5 S
##SOURCE REFERENCE=COBLENTZ NO. 8264
##$NIST ID=B6008264
##$NIST SOURCE=COBLENTZ
##$NIST IMAGE=cob8264
##SPECTROMETER/DATA SYSTEM=PERKIN-ELMER 21 (GRATING)
##INSTRUMENT PARAMETERS=FILTER CHANGE ABOUT 1090 CM^-^1
##STATE=SOLID (KBr DISC)
##SAMPLING PROCEDURE=TRANSMISSION
##RESOLUTION=2
##DATA PROCESSING=DIGITIZED BY COBLENTZ SOCIETY (BATCH II) FROM HARD COPY (ADJUSTED \8-4-minus2)
##XUNITS=1/CM
##YUNITS=TRANSMITTANCE
##XFACTOR=1.0
##YFACTOR=1
##DELTAX=1.003020
##FIRSTX=603.749
##LASTX=4008
##FIRSTY=0.7269
##MAXX=4008
##MINX=603.749
##MAXY=0.812158
##MINY=0.0244239
##NPOINTS=3395
##XYDATA=(X++(Y..Y))
603.748571 0.7269 0.7270 0.7269 0.7267 0.7259
608.763669 0.7261 0.7255 0.7249 0.7235 0.7219
613.778767 0.7201 0.7171 0.7140 0.7108 0.7075
618.793865 0.7041 0.7007 0.6961 0.6911 0.6862
623.808963 0.6816 0.6769 0.6721 0.6671 0.6608
628.824061 0.6543 0.6479 0.6414 0.6350 0.6285
633.839158 0.6074 0.5875 0.5680 0.5484 0.5288
638.854256 0.5092 0.4897 0.4701 0.4505 0.4309
643.869354 0.4141 0.4118 0.4106 0.4336 0.4804
648.884452 0.5301 0.5797 0.6292 0.7300 0.7362
653.899550 0.7407 0.7414 0.7417 0.7299 0.7127
658.914648 0.6950 0.6773 0.6595 0.6419 0.6241
663.929745 0.6064 0.5887 0.5469 0.5483 0.5408
668.944843 0.5484 0.5903 0.6387 0.6870 0.7353
673.959941 0.7498 0.7492 0.7464 0.7419 0.7370
678.975039 0.7321 0.7271 0.7222 0.7173 0.7139
683.990137 0.7135 0.7137 0.7257 0.7398 0.7534
689.005235 0.7639 0.7676 0.7669 0.7621 0.7534
694.020332 0.7438 0.7342 0.7247 0.7150 0.7054
699.035430 0.6958 0.6863 0.6766 0.6670 0.6574
704.050528 0.6488 0.6458 0.6449 0.6439 0.6428
709.065626 0.6418 0.6409 0.6400 0.6390 0.6380
714.080724 0.6369 0.6359 0.6352 0.6346 0.6303
719.095822 0.6329 0.6352 0.6358 0.6364 0.6371
724.110919 0.6378 0.6388 0.6393 0.6394 0.6394
729.126017 0.6395 0.6392 0.6388 0.6384 0.6377
734.141115 0.6370 0.6368 0.6369 0.6388 0.6434
739.156213 0.6648 0.6862 0.6954 0.6999 0.7033
744.171311 0.7060 0.7080 0.7090 0.7098 0.7105
749.186409 0.7122 0.7116 0.7103 0.7091 0.7071
754.201506 0.7045 0.7006 0.6963 0.6922 0.6880
759.216604 0.6833 0.6770 0.6697 0.6624 0.6551
764.231702 0.6477 0.6404 0.6361 0.6345 0.6351
769.246800 0.6393 0.6533 0.6737 0.6942 0.7147
774.261898 0.7247 0.7252 0.7251 0.7249 0.7245
779.276996 0.7240 0.7235 0.7228 0.7217 0.7205
784.292093 0.7190 0.7173 0.7156 0.7134 0.7107
789.307191 0.7018 0.6863 0.6703 0.6544 0.6384
794.322289 0.6224 0.6064 0.5904 0.5799 0.5771
799.337387 0.6043 0.6525 0.6900 0.7172 0.7253
804.352485 0.7227 0.7217 0.7232 0.7224 0.7215
809.367583 0.7207 0.7198 0.7187 0.7174 0.7161
814.382680 0.7147 0.7132 0.7118 0.7101 0.7082
819.397778 0.7062 0.7040 0.7015 0.6986 0.6957
824.412876 0.6927 0.6896 0.6862 0.6829 0.6795
829.427974 0.6762 0.6724 0.6677 0.6630 0.6582
834.443072 0.6535 0.6486 0.6436 0.6385 0.6335
839.458170 0.6285 0.6232 0.6174 0.6116 0.6057
844.473267 0.5993 0.5920 0.5812 0.5619 0.5382
849.488365 0.5144 0.4907 0.4644 0.4406 0.4346
854.503463 0.4342 0.4335 0.4345 0.4400 0.4456
859.518561 0.4544 0.4638 0.4611 0.4611 0.4567
864.533659 0.4505 0.4442 0.4381 0.4318 0.4256
869.548757 0.4209 0.4200 0.4195 0.4204 0.4232
874.563854 0.4321 0.4431 0.4541 0.4651 0.4761
879.578952 0.4871 0.4981 0.5084 0.5153 0.5168
884.594050 0.5177 0.5184 0.5185 0.5187 0.5183
889.609148 0.5175 0.5166 0.5154 0.5135 0.5104
894.624246 0.5051 0.4945 0.4789 0.4634 0.4479
899.639344 0.4324 0.4169 0.4013 0.3872 0.3799
904.654441 0.3797 0.3790 0.3849 0.4241 0.4537
909.669539 0.4832 0.5128 0.5425 0.5721 0.6017
914.684637 0.6313 0.6610 0.6873 0.6958 0.6979
919.699735 0.6955 0.6943 0.6874 0.6795 0.6716
924.714833 0.6637 0.6558 0.6479 0.6400 0.6326
929.729931 0.6255 0.6007 0.5605 0.5202 0.4799
934.745028 0.4397 0.3994 0.3595 0.3263 0.3260
939.760126 0.3272 0.3504 0.3783 0.4061 0.4340
944.775224 0.4618 0.4897 0.5175 0.5454 0.5732
949.790322 0.6010 0.6289 0.6568 0.6846 0.7124
954.805420 0.7402 0.7669 0.7737 0.7744 0.7746
959.820518 0.7745 0.7744 0.7738 0.7730 0.7721
964.835615 0.7710 0.7704 0.7702 0.7746 0.7823
969.850713 0.7891 0.7942 0.7978 0.7971 0.7979
974.865811 0.7980 0.7980 0.7980 0.7969 0.7958
979.880909 0.7940 0.7922 0.7904 0.7885 0.7867
984.896007 0.7844 0.7821 0.7800 0.7777 0.7757
989.911105 0.7738 0.7718 0.7700 0.7682 0.7664
994.926202 0.7646 0.7614 0.7582 0.7550 0.7516
999.941300 0.7481 0.7482 0.7484 0.7487 0.7493
1004.956398 0.7504 0.7516 0.7529 0.7542 0.7556
1009.971496 0.7569 0.7583 0.7596 0.7607 0.7618
1014.986594 0.7623 0.7619 0.7614 0.7606 0.7592
1020.001692 0.7577 0.7562 0.7547 0.7530 0.7512
1025.016789 0.7493 0.7474 0.7455 0.7441 0.7427
1030.031887 0.7413 0.7400 0.7386 0.7372 0.7359
1035.046985 0.7349 0.7345 0.7343 0.7341 0.7339
1040.062083 0.7341 0.7343 0.7347 0.7351 0.7355
1045.077181 0.7359 0.7364 0.7368 0.7369 0.7356
1050.092279 0.7338 0.7321 0.7304 0.7287 0.7270
1055.107376 0.7252 0.7238 0.7223 0.7209 0.7194
1060.122474 0.7179 0.7165 0.7152 0.7149 0.7149
1065.137572 0.7150 0.7150 0.7159 0.7173 0.7187
1070.152670 0.7202 0.7216 0.7232 0.7249 0.7265
1075.167768 0.7281 0.7294 0.7305 0.7306 0.7299
1080.182866 0.7291 0.7283 0.7276 0.7263 0.7246
1085.197963 0.7230 0.7214 0.7197 0.7175 0.7147
1090.213061 0.7118 0.7081 0.7036 0.6989 0.6949
1095.228159 0.6913 0.6884 0.6858 0.6833 0.6809
1100.243257 0.6786 0.6763 0.6740 0.6719 0.6699
1105.258355 0.6678 0.6658 0.6638 0.6604 0.6557
1110.273453 0.6510 0.6463 0.6415 0.6366 0.6317
1115.288550 0.6268 0.6182 0.6060 0.5948 0.5849
1120.303648 0.5751 0.5618 0.5458 0.5297 0.5136
1125.318746 0.4975 0.4814 0.4653 0.4493 0.4332
1130.333844 0.4171 0.4010 0.3849 0.3688 0.3545
1135.348942 0.3448 0.3394 0.3357 0.3333 0.3322
1140.364040 0.3316 0.3326 0.3336 0.3340 0.3370
1145.379137 0.3475 0.3732 0.4073 0.4414 0.4754
1150.394235 0.5095 0.5363 0.5457 0.5457 0.5459
1155.409333 0.5382 0.5180 0.4985 0.4790 0.4595
1160.424431 0.4400 0.4205 0.4009 0.3869 0.3847
1165.439529 0.3965 0.4310 0.4691 0.5071 0.5452
1170.454627 0.5832 0.6213 0.6593 0.6915 0.7056
1175.469724 0.7068 0.7071 0.7070 0.7066 0.7057
1180.484822 0.7043 0.7005 0.6971 0.6942 0.6914
1185.499920 0.6886 0.6859 0.6833 0.6813 0.6792
1190.515018 0.6771 0.6750 0.6731 0.6716 0.6709
1195.530116 0.6702 0.6681 0.6623 0.6565 0.6506
1200.545214 0.6448 0.6390 0.6332 0.6274 0.6216
1205.560311 0.6158 0.6100 0.6042 0.5984 0.5925
1210.575409 0.5872 0.5846 0.5848 0.5852 0.5868
1215.590507 0.5897 0.5927 0.5957 0.5987 0.6014
1220.605605 0.6027 0.6025 0.6023 0.6022 0.6023
1225.620703 0.6022 0.6010 0.5997 0.5980 0.5958
1230.635801 0.5928 0.5893 0.5832 0.5735 0.5533
1235.650898 0.5412 0.5337 0.5258 0.5158 0.4998
1240.665996 0.4728 0.4458 0.4189 0.3919 0.3650
1245.681094 0.3386 0.3220 0.3140 0.3064 0.2930
1250.696192 0.2594 0.2257 0.1926 0.1801 0.1804
1255.711290 0.1848 0.1815 0.1988 0.2384 0.2779
1260.726388 0.3176 0.3571 0.3968 0.4364 0.4759
1265.741485 0.5156 0.5551 0.5948 0.6343 0.6477
1270.756583 0.6511 0.6472 0.6459 0.6437 0.6399
1275.771681 0.6362 0.6317 0.6204 0.6105 0.6014
1280.786779 0.5938 0.5867 0.5794 0.5687 0.5558
1285.801877 0.5376 0.5195 0.4547 0.4277 0.4054
1290.816975 0.3830 0.3606 0.3383 0.3160 0.3145
1295.832072 0.3162 0.3180 0.3197 0.3214 0.3230
1300.847170 0.3238 0.3241 0.3243 0.3133 0.2958
1305.862268 0.2774 0.2591 0.2473 0.2447 0.2438
1310.877366 0.2434 0.2438 0.2469 0.2737 0.3060
1315.892464 0.3382 0.3703 0.4026 0.4348 0.4541
1320.907562 0.4572 0.4596 0.4316 0.4064 0.3847
1325.922659 0.3629 0.3412 0.3195 0.2977 0.2760
1330.937757 0.2542 0.2372 0.2328 0.2330 0.2333
1335.952855 0.2338 0.2343 0.2351 0.2362 0.2372
1340.967953 0.2381 0.2390 0.2401 0.2414 0.2437
1345.983051 0.2635 0.2907 0.3180 0.3452 0.3725
1350.998149 0.3997 0.4270 0.4553 0.4757 0.4940
1356.013246 0.5134 0.5329 0.5523 0.5718 0.5913
1361.028344 0.6107 0.6235 0.6282 0.6273 0.6251
1366.043442 0.6233 0.6210 0.6186 0.6164 0.6146
1371.058540 0.6129 0.6118 0.6113 0.6142 0.6132
1376.073638 0.6207 0.6294 0.6316 0.6326 0.6331
1381.088736 0.6335 0.6326 0.6321 0.6314 0.6281
1386.103833 0.6221 0.6152 0.6083 0.6013 0.5944
1391.118931 0.5875 0.5806 0.5736 0.5667 0.5597
1396.134029 0.5523 0.5467 0.5433 0.5394 0.4866
1401.149127 0.4242 0.4092 0.4043 0.4017 0.3992
1406.164225 0.3971 0.3956 0.3944 0.3943 0.3946
1411.179323 0.3949 0.4054 0.4233 0.4364 0.4492
1416.194420 0.4624 0.4757 0.4889 0.5022 0.5124
1421.209518 0.5163 0.5172 0.5176 0.5177 0.5177
1426.224616 0.5178 0.5177 0.5173 0.5168 0.5173
1431.239714 0.5170 0.5144 0.5129 0.5108 0.5081
1436.254812 0.5050 0.5014 0.4972 0.4923 0.4855
1441.269910 0.4713 0.4446 0.4117 0.3875 0.3831
1446.285007 0.3840 0.3851 0.3876 0.3896 0.3908
1451.300105 0.3917 0.3921 0.3925 0.3920 0.3898
1456.315203 0.3870 0.3841 0.3812 0.3783 0.3768
1461.330301 0.3776 0.3787 0.3929 0.4128 0.4312
1466.345399 0.4429 0.4480 0.4531 0.4577 0.4609
1471.360497 0.4635 0.4788 0.5267 0.5446 0.5559
1476.375594 0.5600 0.5626 0.5647 0.5661 0.5663
1481.390692 0.5656 0.5657 0.5641 0.5625 0.5610
1486.405790 0.5595 0.5581 0.5568 0.5556 0.5557
1491.420888 0.5561 0.5565 0.5569 0.5576 0.5582
1496.435986 0.5588 0.5593 0.5599 0.5602 0.5597
1501.451084 0.5591 0.5585 0.5578 0.5572 0.5565
1506.466181 0.5554 0.5540 0.5522 0.5484 0.5445
1511.481279 0.5387 0.5310 0.5282 0.5266 0.5265
1516.496377 0.5264 0.5263 0.5260 0.5225 0.5129
1521.511475 0.5032 0.4937 0.4840 0.4744 0.4648
1526.526573 0.4552 0.4456 0.4360 0.4264 0.4183
1531.541671 0.4122 0.4068 0.4020 0.3995 0.3970
1536.556768 0.3945 0.3938 0.3936 0.3937 0.3928
1541.571866 0.3946 0.4045 0.4115 0.4188 0.4245
1546.586964 0.4289 0.4304 0.4314 0.4318 0.4295
1551.602062 0.4303 0.4286 0.4253 0.4168 0.4050
1556.617160 0.3929 0.3809 0.3688 0.3599 0.3543
1561.632258 0.3495 0.3448 0.3413 0.3386 0.3359
1566.647355 0.3328 0.3295 0.3261 0.3212 0.3142
1571.662453 0.3070 0.3001 0.2931 0.2861 0.2784
1576.677551 0.2698 0.2612 0.2525 0.2441 0.2357
1581.692649 0.2273 0.2169 0.2044 0.1897 0.1743
1586.707747 0.1556 0.1385 0.1246 0.1112 0.0971
1591.722845 0.0765 0.0542 0.0427 0.0357 0.0327
1596.737942 0.0305 0.0285 0.0276 0.0270 0.0263
1601.753040 0.0256 0.0252 0.0251 0.0249 0.0248
1606.768138 0.0246 0.0245 0.0245 0.0244 0.0249
1611.783236 0.0252 0.0254 0.0257 0.0261 0.0264
1616.798334 0.0268 0.0273 0.0281 0.0291 0.0304
1621.813432 0.0322 0.0341 0.0372 0.0428 0.0500
1626.828529 0.0594 0.0717 0.0857 0.0997 0.1136
1631.843627 0.1275 0.1414 0.2411 0.2773 0.2857
1636.858725 0.2942 0.3044 0.3116 0.3151 0.3175
1641.873823 0.3191 0.3203 0.3215 0.3228 0.3240
1646.888921 0.3328 0.3505 0.3703 0.3900 0.4097
1651.904019 0.4295 0.4492 0.4689 0.4862 0.4929
1656.919116 0.4966 0.5212 0.5404 0.5502 0.5583
1661.934214 0.5664 0.5710 0.5740 0.5768 0.5796
1666.949312 0.5824 0.5865 0.5923 0.6248 0.6527
1671.964410 0.6759 0.6910 0.6960 0.6986 0.7012
1676.979508 0.7042 0.7083 0.7128 0.7207 0.7268
1681.994606 0.7312 0.7352 0.7369 0.7380 0.7391
1687.009703 0.7399 0.7405 0.7411 0.7417 0.7423
1692.024801 0.7428 0.7434 0.7438 0.7441 0.7443
1697.039899 0.7445 0.7447 0.7447 0.7447 0.7446
1702.054997 0.7446 0.7446 0.7447 0.7449 0.7453
1707.070095 0.7470 0.7495 0.7520 0.7546 0.7568
1712.085193 0.7589 0.7610 0.7631 0.7656 0.7684
1717.100290 0.7712 0.7741 0.7769 0.7797 0.7825
1722.115388 0.7840 0.7843 0.7843 0.7844 0.7844
1727.130486 0.7845 0.7845 0.7847 0.7849 0.7852
1732.145584 0.7856 0.7859 0.7862 0.7865 0.7868
1737.160682 0.7872 0.7878 0.7885 0.7891 0.7898
1742.175780 0.7904 0.7911 0.7917 0.7928 0.7944
1747.190877 0.7960 0.7976 0.7992 0.8009 0.8033
1752.205975 0.8059 0.8085 0.8112 0.8119 0.8118
1757.221073 0.8117 0.8113 0.8108 0.8103 0.8098
1762.236171 0.8094 0.8089 0.8086 0.8086 0.8083
1767.251269 0.8085 0.8087 0.8087 0.8088 0.8090
1772.266367 0.8092 0.8094 0.8096 0.8098 0.8100
1777.281464 0.8100 0.8096 0.8091 0.8086 0.8081
1782.296562 0.8076 0.8071 0.8066 0.8061 0.8056
1787.311660 0.8051 0.8045 0.8040 0.8037 0.8036
1792.326758 0.8036 0.8035 0.8035 0.8040 0.8049
1797.341856 0.8060 0.8071 0.8083 0.8095 0.8106
1802.356954 0.8117 0.8122 0.8116 0.8108 0.8099
1807.372051 0.8089 0.8079 0.8069 0.8058 0.8047
1812.387149 0.8036 0.8025 0.8014 0.8004 0.7993
1817.402247 0.7982 0.7972 0.7961 0.7950 0.7949
1822.417345 0.7951 0.7953 0.7955 0.7957 0.7965
1827.432443 0.7976 0.7987 0.7999 0.8011 0.8016
1832.447541 0.8019 0.8022 0.8025 0.8028 0.8031
1837.462638 0.8033 0.8034 0.8036 0.8034 0.8030
1842.477736 0.8026 0.8021 0.8017 0.8013 0.8009
1847.492834 0.8006 0.8003 0.8001 0.7998 0.7996
1852.507932 0.7994 0.7991 0.7989 0.7986 0.7984
1857.523030 0.7981 0.7978 0.7975 0.7972 0.7968
1862.538127 0.7965 0.7961 0.7958 0.7954 0.7951
1867.553225 0.7948 0.7941 0.7934 0.7927 0.7921
1872.568323 0.7914 0.7907 0.7900 0.7893 0.7886
1877.583421 0.7875 0.7862 0.7848 0.7834 0.7829
1882.598519 0.7826 0.7823 0.7821 0.7818 0.7816
1887.613617 0.7814 0.7813 0.7812 0.7810 0.7809
1892.628714 0.7807 0.7805 0.7803 0.7802 0.7800
1897.643812 0.7798 0.7796 0.7794 0.7792 0.7790
1902.658910 0.7788 0.7780 0.7771 0.7762 0.7753
1907.674008 0.7743 0.7734 0.7725 0.7715 0.7706
1912.689106 0.7697 0.7688 0.7678 0.7666 0.7653
1917.704204 0.7639 0.7623 0.7604 0.7584 0.7576
1922.719301 0.7596 0.7576 0.7639 0.7676 0.7703
1927.734399 0.7730 0.7756 0.7783 0.7808 0.7832
1932.749497 0.7852 0.7867 0.7871 0.7872 0.7872
1937.764595 0.7872 0.7871 0.7860 0.7865 0.7866
1942.779693 0.7863 0.7859 0.7855 0.7851 0.7847
1947.794791 0.7842 0.7836 0.7829 0.7823 0.7817
1952.809888 0.7810 0.7804 0.7798 0.7794 0.7790
1957.824986 0.7786 0.7782 0.7778 0.7774 0.7771
1962.840084 0.7769 0.7767 0.7764 0.7762 0.7760
1967.855182 0.7758 0.7755 0.7752 0.7749 0.7746
1972.870280 0.7742 0.7739 0.7735 0.7731 0.7727
1977.885378 0.7723 0.7718 0.7714 0.7710 0.7705
1982.900475 0.7695 0.7684 0.7674 0.7663 0.7653
1987.915573 0.7642 0.7631 0.7621 0.7613 0.7608
1992.930671 0.7603 0.7597 0.7592 0.7588 0.7588
1997.945769 0.7588 0.7588 0.7589 0.7591 0.7592
2002.960867 0.7594 0.7596 0.7597 0.7599 0.7601
2007.975965 0.7602 0.7604 0.7600 0.7596 0.7592
2012.991062 0.7587 0.7583 0.7579 0.7574 0.7570
2018.006160 0.7565 0.7561 0.7557 0.7552 0.7547
2023.021258 0.7541 0.7535 0.7529 0.7524 0.7518
2028.036356 0.7512 0.7506 0.7500 0.7494 0.7489
2033.051454 0.7483 0.7477 0.7471 0.7465 0.7460
2038.066552 0.7455 0.7450 0.7445 0.7440 0.7435
2043.081649 0.7430 0.7425 0.7420 0.7415 0.7410
2048.096747 0.7405 0.7401 0.7397 0.7393 0.7389
2053.111845 0.7385 0.7381 0.7377 0.7373 0.7369
2058.126943 0.7365 0.7361 0.7357 0.7353 0.7350
2063.142041 0.7346 0.7342 0.7339 0.7336 0.7332
2068.157139 0.7329 0.7325 0.7321 0.7318 0.7314
2073.172236 0.7311 0.7307 0.7304 0.7300 0.7297
2078.187334 0.7293 0.7290 0.7286 0.7283 0.7282
2083.202432 0.7280 0.7278 0.7276 0.7274 0.7272
2088.217530 0.7270 0.7268 0.7265 0.7262 0.7259
2093.232628 0.7255 0.7252 0.7249 0.7244 0.7239
2098.247726 0.7234 0.7229 0.7224 0.7219 0.7214
2103.262823 0.7209 0.7203 0.7198 0.7193 0.7188
2108.277921 0.7183 0.7178 0.7173 0.7168 0.7163
2113.293019 0.7158 0.7153 0.7148 0.7143 0.7138
2118.308117 0.7134 0.7129 0.7124 0.7119 0.7114
2123.323215 0.7109 0.7104 0.7100 0.7095 0.7090
2128.338313 0.7085 0.7080 0.7075 0.7069 0.7063
2133.353410 0.7057 0.7051 0.7045 0.7039 0.7033
2138.368508 0.7027 0.7021 0.7014 0.7008 0.7002
2143.383606 0.6996 0.6990 0.6984 0.6978 0.6972
2148.398704 0.6966 0.6960 0.6954 0.6948 0.6942
2153.413802 0.6937 0.6931 0.6925 0.6919 0.6913
2158.428900 0.6907 0.6903 0.6901 0.6899 0.6898
2163.443997 0.6896 0.6895 0.6893 0.6892 0.6890
2168.459095 0.6889 0.6888 0.6885 0.6882 0.6878
2173.474193 0.6875 0.6872 0.6869 0.6866 0.6863
2178.489291 0.6860 0.6857 0.6853 0.6850 0.6845
2183.504389 0.6838 0.6831 0.6824 0.6817 0.6810
2188.519487 0.6803 0.6796 0.6789 0.6782 0.6776
2193.534584 0.6769 0.6762 0.6755 0.6748 0.6742
2198.549682 0.6737 0.6731 0.6726 0.6721 0.6715
2203.564780 0.6710 0.6704 0.6699 0.6694 0.6688
2208.579878 0.6684 0.6680 0.6676 0.6673 0.6670
2213.594976 0.6666 0.6663 0.6660 0.6657 0.6653
2218.610074 0.6650 0.6647 0.6643 0.6640 0.6635
2223.625171 0.6631 0.6626 0.6622 0.6617 0.6612
2228.640269 0.6608 0.6603 0.6599 0.6594 0.6588
2233.655367 0.6581 0.6574 0.6566 0.6559 0.6552
2238.670465 0.6545 0.6538 0.6531 0.6524 0.6516
2243.685563 0.6509 0.6502 0.6495 0.6487 0.6479
2248.700661 0.6471 0.6463 0.6455 0.6446 0.6438
2253.715758 0.6429 0.6420 0.6411 0.6401 0.6392
2258.730856 0.6383 0.6373 0.6364 0.6355 0.6346
2263.745954 0.6336 0.6327 0.6318 0.6308 0.6299
2268.761052 0.6290 0.6281 0.6271 0.6262 0.6253
2273.776150 0.6243 0.6234 0.6224 0.6214 0.6204
2278.791248 0.6194 0.6184 0.6174 0.6164 0.6154
2283.806345 0.6144 0.6133 0.6123 0.6113 0.6103
2288.821443 0.6093 0.6082 0.6071 0.6060 0.6049
2293.836541 0.6038 0.6027 0.6016 0.6004 0.5993
2298.851639 0.5981 0.5969 0.5957 0.5945 0.5933
2303.866737 0.5920 0.5908 0.5896 0.5884 0.5872
2308.881835 0.5860 0.5846 0.5833 0.5820 0.5806
2313.896932 0.5793 0.5780 0.5766 0.5752 0.5737
2318.912030 0.5723 0.5708 0.5693 0.5678 0.5663
2323.927128 0.5648 0.5634 0.5619 0.5604 0.5590
2328.942226 0.5578 0.5567 0.5556 0.5544 0.5533
2333.957324 0.5522 0.5511 0.5500 0.5495 0.5496
2338.972422 0.5497 0.5498 0.5499 0.5500 0.5501
2343.987519 0.5502 0.5502 0.5503 0.5503 0.5503
2349.002617 0.5504 0.5504 0.5505 0.5502 0.5496
2354.017715 0.5489 0.5483 0.5476 0.5476 0.5476
2359.032813 0.5477 0.5477 0.5484 0.5493 0.5501
2364.047911 0.5503 0.5504 0.5505 0.5507 0.5507
2369.063009 0.5506 0.5506 0.5505 0.5503 0.5498
2374.078106 0.5492 0.5486 0.5480 0.5473 0.5466
2379.093204 0.5459 0.5451 0.5444 0.5437 0.5430
2384.108302 0.5422 0.5413 0.5404 0.5395 0.5386
2389.123400 0.5377 0.5368 0.5359 0.5350 0.5341
2394.138498 0.5332 0.5323 0.5314 0.5305 0.5296
2399.153596 0.5287 0.5278 0.5270 0.5261 0.5252
2404.168693 0.5244 0.5235 0.5226 0.5218 0.5209
2409.183791 0.5200 0.5191 0.5183 0.5175 0.5168
2414.198889 0.5161 0.5154 0.5147 0.5140 0.5133
2419.213987 0.5126 0.5119 0.5113 0.5106 0.5100
2424.229085 0.5095 0.5091 0.5087 0.5083 0.5079
2429.244183 0.5076 0.5072 0.5068 0.5064 0.5060
2434.259280 0.5056 0.5053 0.5049 0.5034 0.5007
2439.274378 0.4983 0.4966 0.4951 0.4935 0.4919
2444.289476 0.4904 0.4888 0.4872 0.4857 0.4847
2449.304574 0.4837 0.4828 0.4818 0.4808 0.4799
2454.319672 0.4789 0.4780 0.4770 0.4760 0.4751
2459.334770 0.4743 0.4735 0.4727 0.4719 0.4712
2464.349867 0.4704 0.4696 0.4688 0.4680 0.4673
2469.364965 0.4659 0.4644 0.4629 0.4614 0.4598
2474.380063 0.4583 0.4567 0.4552 0.4537 0.4521
2479.395161 0.4506 0.4490 0.4475 0.4459 0.4444
2484.410259 0.4428 0.4413 0.4397 0.4382 0.4366
2489.425357 0.4351 0.4335 0.4322 0.4309 0.4297
2494.440454 0.4284 0.4271 0.4259 0.4246 0.4233
2499.455552 0.4221 0.4206 0.4192 0.4177 0.4162
2504.470650 0.4148 0.4133 0.4117 0.4099 0.4080
2509.485748 0.4062 0.4044 0.4028 0.4013 0.3997
2514.500846 0.3982 0.3966 0.3951 0.3934 0.3916
2519.515944 0.3897 0.3885 0.3879 0.3873 0.3868
2524.531041 0.3862 0.3857 0.3851 0.3846 0.3842
2529.546139 0.3840 0.3839 0.3839 0.3839 0.3838
2534.561237 0.3839 0.3841 0.3843 0.3850 0.3848
2539.576335 0.3850 0.3853 0.3855 0.3858 0.3863
2544.591433 0.3869 0.3875 0.3882 0.3889 0.3896
2549.606531 0.3906 0.3917 0.3927 0.3938 0.3946
2554.621628 0.3954 0.3963 0.3971 0.3979 0.3987
2559.636726 0.3987 0.3987 0.3987 0.3987 0.3987
2564.651824 0.3986 0.3987 0.3987 0.3987 0.3988
2569.666922 0.3988 0.3999 0.4013 0.4027 0.4041
2574.682020 0.4055 0.4070 0.4085 0.4099 0.4094
2579.697118 0.4089 0.4084 0.4097 0.4075 0.4067
2584.712215 0.4062 0.4056 0.4049 0.4042 0.4034
2589.727313 0.4026 0.4019 0.4011 0.4004 0.3996
2594.742411 0.3989 0.3982 0.3975 0.3968 0.3961
2599.757509 0.3954 0.3947 0.3940 0.3933 0.3925
2604.772607 0.3916 0.3908 0.3900 0.3891 0.3883
2609.787705 0.3875 0.3868 0.3870 0.3872 0.3873
2614.802802 0.3875 0.3877 0.3879 0.3881 0.3882
2619.817900 0.3884 0.3886 0.3887 0.3878 0.3868
2624.832998 0.3857 0.3847 0.3836 0.3825 0.3813
2629.848096 0.3801 0.3790 0.3778 0.3766 0.3755
2634.863194 0.3743 0.3730 0.3717 0.3704 0.3692
2639.878292 0.3679 0.3668 0.3658 0.3647 0.3636
2644.893389 0.3625 0.3614 0.3604 0.3593 0.3582
2649.908487 0.3572 0.3563 0.3553 0.3544 0.3535
2654.923585 0.3526 0.3516 0.3507 0.3498 0.3488
2659.938683 0.3479 0.3471 0.3465 0.3460 0.3455
2664.953781 0.3450 0.3445 0.3442 0.3444 0.3446
2669.968879 0.3447 0.3449 0.3451 0.3453 0.3455
2674.983976 0.3457 0.3458 0.3460 0.3463 0.3466
2679.999074 0.3469 0.3472 0.3475 0.3479 0.3482
2685.014172 0.3485 0.3488 0.3492 0.3496 0.3499
2690.029270 0.3503 0.3507 0.3511 0.3514 0.3510
2695.044368 0.3506 0.3502 0.3498 0.3494 0.3490
2700.059466 0.3486 0.3483 0.3478 0.3471 0.3463
2705.074563 0.3456 0.3448 0.3439 0.3432 0.3426
2710.089661 0.3421 0.3415 0.3410 0.3404 0.3399
2715.104759 0.3393 0.3388 0.3383 0.3377 0.3372
2720.119857 0.3366 0.3361 0.3355 0.3350 0.3345
2725.134955 0.3341 0.3337 0.3332 0.3328 0.3324
2730.150053 0.3320 0.3316 0.3312 0.3308 0.3304
2735.165150 0.3300 0.3296 0.3294 0.3296 0.3298
2740.180248 0.3299 0.3301 0.3303 0.3304 0.3304
2745.195346 0.3303 0.3303 0.3303 0.3303 0.3303
2750.210444 0.3303 0.3301 0.3297 0.3293 0.3289
2755.225542 0.3285 0.3281 0.3276 0.3268 0.3260
2760.240640 0.3253 0.3245 0.3237 0.3228 0.3220
2765.255737 0.3211 0.3203 0.3194 0.3186 0.3177
2770.270835 0.3169 0.3160 0.3151 0.3140 0.3126
2775.285933 0.3111 0.3096 0.3081 0.3067 0.3094
2780.301031 0.3049 0.3038 0.3036 0.3040 0.3043
2785.316129 0.3047 0.3050 0.3054 0.3057 0.3061
2790.331227 0.3065 0.3068 0.3074 0.3082 0.3091
2795.346324 0.3099 0.3107 0.3115 0.3125 0.3135
2800.361422 0.3146 0.3157 0.3169 0.3180 0.3192
2805.376520 0.3203 0.3215 0.3226 0.3238 0.3250
2810.391618 0.3262 0.3273 0.3285 0.3296 0.3308
2815.406716 0.3320 0.3331 0.3345 0.3362 0.3376
2820.421814 0.3388 0.3400 0.3411 0.3423 0.3434
2825.436911 0.3446 0.3466 0.3486 0.3505 0.3524
2830.452009 0.3541 0.3554 0.3565 0.3571 0.3577
2835.467107 0.3582 0.3586 0.3590 0.3593 0.3597
2840.482205 0.3601 0.3604 0.3605 0.3605 0.3606
2845.497303 0.3607 0.3608 0.3609 0.3610 0.3610
2850.512401 0.3611 0.3612 0.3613 0.3614 0.3615
2855.527498 0.3616 0.3617 0.3621 0.3629 0.3637
2860.542596 0.3653 0.3670 0.3688 0.3702 0.3714
2865.557694 0.3727 0.3740 0.3751 0.3758 0.3764
2870.572792 0.3771 0.3778 0.3784 0.3791 0.3797
2875.587890 0.3800 0.3802 0.3805 0.3808 0.3824
2880.602988 0.3806 0.3802 0.3799 0.3797 0.3793
2885.618085 0.3789 0.3785 0.3781 0.3777 0.3774
2890.633183 0.3768 0.3760 0.3751 0.3742 0.3734
2895.648281 0.3725 0.3715 0.3705 0.3695 0.3685
2900.663379 0.3672 0.3657 0.3643 0.3628 0.3614
2905.678477 0.3594 0.3571 0.3548 0.3513 0.3473
2910.693575 0.3433 0.3393 0.3367 0.3342 0.3316
2915.708672 0.3290 0.3265 0.3249 0.3237 0.3224
2920.723770 0.3212 0.3200 0.3188 0.3175 0.3164
2925.738868 0.3158 0.3152 0.3147 0.3141 0.3135
2930.753966 0.3129 0.3128 0.3128 0.3127 0.3127
2935.769064 0.3127 0.3127 0.3127 0.3126 0.3126
2940.784162 0.3126 0.3126 0.3126 0.3125 0.3126
2945.799259 0.3128 0.3130 0.3133 0.3135 0.3137
2950.814357 0.3139 0.3141 0.3143 0.3145 0.3147
2955.829455 0.3149 0.3151 0.3153 0.3156 0.3159
2960.844553 0.3161 0.3164 0.3167 0.3170 0.3172
2965.859651 0.3175 0.3178 0.3181 0.3183 0.3186
2970.874749 0.3193 0.3199 0.3205 0.3212 0.3218
2975.889846 0.3224 0.3231 0.3237 0.3243 0.3250
2980.904944 0.3256 0.3262 0.3271 0.3282 0.3293
2985.920042 0.3304 0.3315 0.3325 0.3336 0.3347
2990.935140 0.3361 0.3377 0.3392 0.3408 0.3423
2995.950238 0.3439 0.3462 0.3492 0.3522 0.3542
3000.965336 0.3547 0.3551 0.3556 0.3561 0.3567
3005.980433 0.3573 0.3580 0.3586 0.3592 0.3598
3010.995531 0.3609 0.3621 0.3633 0.3646 0.3658
3016.010629 0.3670 0.3682 0.3693 0.3705 0.3716
3021.025727 0.3728 0.3744 0.3760 0.3776 0.3792
3026.040825 0.3808 0.3824 0.3835 0.3842 0.3849
3031.055923 0.3850 0.3850 0.3853 0.3854 0.3852
3036.071020 0.3850 0.3848 0.3846 0.3845 0.3843
3041.086118 0.3840 0.3836 0.3831 0.3826 0.3821
3046.101216 0.3815 0.3810 0.3802 0.3795 0.3788
3051.116314 0.3781 0.3774 0.3766 0.3759 0.3748
3056.131412 0.3737 0.3726 0.3715 0.3704 0.3693
3061.146510 0.3680 0.3660 0.3641 0.3622 0.3603
3066.161607 0.3582 0.3562 0.3542 0.3529 0.3525
3071.176705 0.3519 0.3524 0.3527 0.3532 0.3536
3076.191803 0.3543 0.3552 0.3561 0.3569 0.3578
3081.206901 0.3587 0.3596 0.3605 0.3615 0.3624
3086.221999 0.3634 0.3643 0.3652 0.3661 0.3670
3091.237097 0.3679 0.3689 0.3698 0.3707 0.3716
3096.252194 0.3725 0.3734 0.3743 0.3752 0.3762
3101.267292 0.3772 0.3783 0.3794 0.3806 0.3817
3106.282390 0.3829 0.3840 0.3852 0.3865 0.3878
3111.297488 0.3891 0.3904 0.3917 0.3931 0.3944
3116.312586 0.3959 0.3975 0.3991 0.4007 0.4023
3121.327684 0.4039 0.4053 0.4067 0.4080 0.4093
3126.342781 0.4106 0.4118 0.4125 0.4132 0.4139
3131.357879 0.4147 0.4154 0.4161 0.4169 0.4178
3136.372977 0.4187 0.4196 0.4205 0.4214 0.4224
3141.388075 0.4233 0.4242 0.4251 0.4259 0.4268
3146.403173 0.4276 0.4285 0.4293 0.4300 0.4305
3151.418271 0.4308 0.4312 0.4315 0.4319 0.4322
3156.433368 0.4326 0.4329 0.4333 0.4330 0.4317
3161.448466 0.4306 0.4294 0.4283 0.4271 0.4259
3166.463564 0.4248 0.4236 0.4224 0.4212 0.4199
3171.478662 0.4185 0.4170 0.4156 0.4141 0.4126
3176.493760 0.4110 0.4094 0.4077 0.4060 0.4040
3181.508858 0.4017 0.3995 0.3960 0.3863 0.3763
3186.523955 0.3723 0.3703 0.3685 0.3668 0.3650
3191.539053 0.3629 0.3605 0.3581 0.3559 0.3538
3196.554151 0.3516 0.3493 0.3464 0.3434 0.3407
3201.569249 0.3387 0.3374 0.3364 0.3355 0.3346
3206.584347 0.3337 0.3328 0.3320 0.3311 0.3303
3211.599445 0.3299 0.3298 0.3298 0.3328 0.3320
3216.614542 0.3304 0.3308 0.3314 0.3320 0.3327
3221.629640 0.3333 0.3339 0.3345 0.3351 0.3362
3226.644738 0.3382 0.3404 0.3419 0.3431 0.3446
3231.659836 0.3462 0.3476 0.3489 0.3501 0.3513
3236.674934 0.3521 0.3525 0.3529 0.3533 0.3536
3241.690032 0.3538 0.3540 0.3542 0.3544 0.3546
3246.705129 0.3548 0.3548 0.3548 0.3548 0.3548
3251.720227 0.3548 0.3548 0.3548 0.3548 0.3549
3256.735325 0.3550 0.3551 0.3552 0.3554 0.3555
3261.750423 0.3557 0.3558 0.3561 0.3565 0.3569
3266.765521 0.3573 0.3577 0.3581 0.3588 0.3599
3271.780619 0.3609 0.3620 0.3631 0.3647 0.3664
3276.795716 0.3682 0.3700 0.3720 0.3741 0.3761
3281.810814 0.3782 0.3813 0.3845 0.3878 0.3911
3286.825912 0.3944 0.3982 0.4019 0.4057 0.4095
3291.841010 0.4126 0.4152 0.4176 0.4200 0.4224
3296.856108 0.4249 0.4273 0.4300 0.4326 0.4353
3301.871206 0.4380 0.4408 0.4444 0.4482 0.4521
3306.886303 0.4556 0.4588 0.4620 0.4652 0.4684
3311.901401 0.4710 0.4736 0.4761 0.4787 0.4815
3316.916499 0.5170 0.5210 0.5220 0.5227 0.5234
3321.931597 0.5242 0.5250 0.5259 0.5272 0.5285
3326.946695 0.5298 0.5311 0.5324 0.5337 0.5350
3331.961793 0.5366 0.5382 0.5398 0.5415 0.5431
3336.976890 0.5448 0.5465 0.5483 0.5500 0.5518
3341.991988 0.5538 0.5559 0.5579 0.5599 0.5613
3347.007086 0.5620 0.5627 0.5633 0.5637 0.5642
3352.022184 0.5646 0.5650 0.5671 0.5653 0.5655
3357.037282 0.5657 0.5659 0.5661 0.5662 0.5662
3362.052380 0.5662 0.5661 0.5661 0.5661 0.5661
3367.067477 0.5660 0.5659 0.5658 0.5657 0.5656
3372.082575 0.5655 0.5654 0.5653 0.5652 0.5651
3377.097673 0.5650 0.5647 0.5643 0.5640 0.5636
3382.112771 0.5633 0.5629 0.5625 0.5621 0.5610
3387.127869 0.5598 0.5586 0.5570 0.5552 0.5542
3392.142967 0.5536 0.5531 0.5525 0.5520 0.5515
3397.158064 0.5512 0.5510 0.5509 0.5507 0.5506
3402.173162 0.5504 0.5502 0.5501 0.5500 0.5499
3407.188260 0.5499 0.5498 0.5498 0.5497 0.5497
3412.203358 0.5496 0.5495 0.5493 0.5491 0.5490
3417.218456 0.5488 0.5486 0.5484 0.5479 0.5469
3422.233554 0.5459 0.5449 0.5439 0.5430 0.5422
3427.248651 0.5414 0.5407 0.5408 0.5412 0.5416
3432.263749 0.5420 0.5424 0.5430 0.5436 0.5442
3437.278847 0.5448 0.5455 0.5463 0.5471 0.5479
3442.293945 0.5487 0.5492 0.5497 0.5503 0.5508
3447.309043 0.5512 0.5516 0.5517 0.5516 0.5515
3452.324141 0.5514 0.5515 0.5517 0.5510 0.5509
3457.339238 0.5507 0.5506 0.5504 0.5502 0.5501
3462.354336 0.5499 0.5498 0.5496 0.5493 0.5491
3467.369434 0.5488 0.5485 0.5483 0.5480 0.5478
3472.384532 0.5476 0.5476 0.5476 0.5475 0.5475
3477.399630 0.5475 0.5475 0.5474 0.5474 0.5474
3482.414728 0.5474 0.5473 0.5474 0.5475 0.5477
3487.429825 0.5479 0.5480 0.5482 0.5483 0.5485
3492.444923 0.5487 0.5488 0.5490 0.5491 0.5493
3497.460021 0.5495 0.5496 0.5498 0.5500 0.5503
3502.475119 0.5507 0.5510 0.5513 0.5517 0.5520
3507.490217 0.5524 0.5527 0.5531 0.5535 0.5538
3512.505315 0.5541 0.5545 0.5548 0.5553 0.5557
3517.520412 0.5562 0.5566 0.5571 0.5576 0.5580
3522.535510 0.5585 0.5589 0.5594 0.5601 0.5609
3527.550608 0.5617 0.5625 0.5633 0.5641 0.5649
3532.565706 0.5660 0.5671 0.5683 0.5694 0.5706
3537.580804 0.5717 0.5728 0.5738 0.5747 0.5756
3542.595902 0.5766 0.5775 0.5780 0.5785 0.5789
3547.610999 0.5793 0.5798 0.5802 0.5806 0.5810
3552.626097 0.5813 0.5815 0.5817 0.5819 0.5821
3557.641195 0.5823 0.5825 0.5827 0.5829 0.5831
3562.656293 0.5833 0.5835 0.5836 0.5836 0.5836
3567.671391 0.5836 0.5835 0.5835 0.5835 0.5835
3572.686489 0.5834 0.5833 0.5832 0.5830 0.5829
3577.701586 0.5828 0.5826 0.5825 0.5824 0.5823
3582.716684 0.5821 0.5820 0.5819 0.5818 0.5816
3587.731782 0.5815 0.5814 0.5813 0.5812 0.5811
3592.746880 0.5809 0.5808 0.5807 0.5806 0.5804
3597.761978 0.5803 0.5802 0.5801 0.5800 0.5799
3602.777076 0.5799 0.5799 0.5799 0.5798 0.5798
3607.792173 0.5798 0.5797 0.5797 0.5797 0.5796
3612.807271 0.5798 0.5799 0.5801 0.5804 0.5811
3617.822369 0.5819 0.5826 0.5834 0.5841 0.5850
3622.837467 0.5864 0.5878 0.5902 0.5932 0.5979
3627.852565 0.6009 0.6027 0.6043 0.6059 0.6075
3632.867663 0.6094 0.6097 0.6098 0.6098 0.6099
3637.882760 0.6099 0.6099 0.6098 0.6098 0.6097
3642.897858 0.6097 0.6096 0.6095 0.6095 0.6094
3647.912956 0.6094 0.6093 0.6092 0.6092 0.6092
3652.928054 0.6092 0.6092 0.6092 0.6092 0.6092
3657.943152 0.6092 0.6092 0.6092 0.6092 0.6092
3662.958250 0.6092 0.6092 0.6092 0.6092 0.6092
3667.973347 0.6092 0.6092 0.6095 0.6098 0.6101
3672.988445 0.6104 0.6107 0.6112 0.6120 0.6127
3678.003543 0.6135 0.6143 0.6151 0.6159 0.6173
3683.018641 0.6190 0.6207 0.6222 0.6231 0.6241
3688.033739 0.6251 0.6261 0.6269 0.6276 0.6284
3693.048837 0.6292 0.6296 0.6296 0.6295 0.6295
3698.063934 0.6295 0.6291 0.6280 0.6269 0.6258
3703.079032 0.6248 0.6236 0.6223 0.6209 0.6196
3708.094130 0.6184 0.6174 0.6164 0.6169 0.6178
3713.109228 0.6217 0.6258 0.6291 0.6307 0.6321
3718.124326 0.6324 0.6327 0.6327 0.6312 0.6321
3723.139424 0.6316 0.6312 0.6308 0.6304 0.6300
3728.154521 0.6296 0.6291 0.6287 0.6283 0.6278
3733.169619 0.6274 0.6269 0.6265 0.6260 0.6255
3738.184717 0.6250 0.6245 0.6240 0.6235 0.6230
3743.199815 0.6225 0.6222 0.6220 0.6218 0.6216
3748.214913 0.6214 0.6212 0.6211 0.6209 0.6207
3753.230011 0.6207 0.6209 0.6211 0.6213 0.6219
3758.245108 0.6235 0.6257 0.6275 0.6291 0.6307
3763.260206 0.6321 0.6327 0.6326 0.6325 0.6325
3768.275304 0.6325 0.6326 0.6326 0.6327 0.6329
3773.290402 0.6334 0.6340 0.6346 0.6354 0.6362
3778.305500 0.6367 0.6372 0.6375 0.6376 0.6375
3783.320598 0.6373 0.6372 0.6370 0.6369 0.6364
3788.335695 0.6352 0.6339 0.6326 0.6311 0.6295
3793.350793 0.6278 0.6261 0.6246 0.6230 0.6215
3798.365891 0.6200 0.6187 0.6181 0.6174 0.6167
3803.380989 0.6161 0.6154 0.6147 0.6141 0.6136
3808.396087 0.6130 0.6125 0.6119 0.6114 0.6109
3813.411185 0.6104 0.6101 0.6102 0.6109 0.6116
3818.426282 0.6123 0.6131 0.6137 0.6140 0.6140
3823.441380 0.6140 0.6141 0.6134 0.6121 0.6107
3828.456478 0.6092 0.6077 0.6064 0.6055 0.6047
3833.471576 0.6039 0.6035 0.6034 0.6033 0.6032
3838.486674 0.6030 0.6029 0.6028 0.6027 0.6028
3843.501772 0.6029 0.6029 0.6031 0.6032 0.6033
3848.516869 0.6035 0.6039 0.6044 0.6050 0.6057
3853.531967 0.6063 0.6069 0.6076 0.6083 0.6090
3858.547065 0.6097 0.6101 0.6103 0.6105 0.6107
3863.562163 0.6109 0.6111 0.6113 0.6115 0.6117
3868.577261 0.6119 0.6118 0.6116 0.6114 0.6112
3873.592359 0.6110 0.6108 0.6106 0.6103 0.6099
3878.607456 0.6096 0.6092 0.6089 0.6086 0.6082
3883.622554 0.6079 0.6076 0.6073 0.6070 0.6067
3888.637652 0.6064 0.6061 0.6059 0.6056 0.6055
3893.652750 0.6056 0.6057 0.6058 0.6059 0.6059
3898.667848 0.6060 0.6061 0.6063 0.6069 0.6075
3903.682946 0.6081 0.6087 0.6093 0.6098 0.6103
3908.698043 0.6107 0.6110 0.6109 0.6106 0.6103
3913.713141 0.6097 0.6088 0.6079 0.6069 0.6058
3918.728239 0.6047 0.6036 0.6025 0.6015 0.6004
3923.743337 0.5993 0.5982 0.5972 0.5968 0.5965
3928.758435 0.5962 0.5959 0.5956 0.5953 0.5951
3933.773533 0.5950 0.5948 0.5947 0.5945 0.5944
3938.788630 0.5942 0.5941 0.5941 0.5940 0.5940
3943.803728 0.5940 0.5940 0.5940 0.5940 0.5939
3948.818826 0.5939 0.5939 0.5939 0.5939 0.5951
3953.833924 0.5941 0.5940 0.5941 0.5942 0.5943
3958.849022 0.5944 0.5945 0.5946 0.5947 0.5949
3963.864120 0.5950 0.5950 0.5949 0.5947 0.5946
3968.879217 0.5944 0.5943 0.5942 0.5940 0.5939
3973.894315 0.5935 0.5930 0.5925 0.5919 0.5914
3978.909413 0.5910 0.5908 0.5905 0.5902 0.5900
3983.924511 0.5897 0.5896 0.5896 0.5897 0.5897
3988.939609 0.5897 0.5897 0.5897 0.5897 0.5896
3993.954707 0.5896 0.5896 0.5893 0.5891 0.5888
3998.969804 0.5882 0.5865 0.5848 0.5830 0.5813
4003.984902 0.5795 0.5778 0.5760 0.5743 0.5733
##END=
