##TITLE=3-(N-METHYLANILINO)-2,5-DIMETHYL PYRAZINE
##JCAMP-DX=4.24
##DATA TYPE=INFRARED SPECTRUM
##CLASS=COBLENTZ
##ORIGIN=WYANDOTTE CHEMICALS CORP., WYANDOTTE, MICHIGAN, USA
##OWNER=COBLENTZ SOCIETY
Collection (C) 2018 copyright by the U.S. Secretary of Commerce
on behalf of the United States of America. All rights reserved.
##DATE=Not specified, most likely prior to 1970
##NAMES=N-(3,6-dimethyl-2-pyrazinyl)-N-methyl-N-phenylamine
N,3,6-trimethyl-N-phenyl-2-pyrazinamine
##MOLFORM=C13 H15 N3
##SOURCE REFERENCE=COBLENTZ NO. 2861
##$NIST ID=B6002861
##$NIST SOURCE=COBLENTZ
##$NIST IMAGE=cob2861
##SPECTROMETER/DATA SYSTEM=Not specified, most likely a prism, grating, or hybrid spectrometer.
##STATE=LIQUID
##PATH LENGTH=0.0015 CM
##SAMPLING PROCEDURE=TRANSMISSION
##RESOLUTION=4
##DATA PROCESSING=DIGITIZED BY NIST FROM HARD COPY
##XUNITS=MICROMETERS
##YUNITS=TRANSMITTANCE
##XFACTOR=1.000000
##YFACTOR=1
##DELTAX=000.006635
##FIRSTX=2.053
##LASTX=15.987
##FIRSTY=0.97
##MAXX=15.987
##MINX=2.053
##MAXY=0.97
##MINY=0.046
##NPOINTS=2101
##XYDATA=(X++(Y..Y))
2.053000 0.9700 0.9680 0.9680 0.9680 0.9680
2.086191 0.9680 0.9680 0.9680 0.9680 0.9680
2.119000 0.9680 0.9680 0.9660 0.9650 0.9480
2.152191 0.9470 0.9450 0.9430 0.9420 0.9380
2.186000 0.9370 0.9370 0.9370 0.9380 0.9380
2.219191 0.9400 0.9400 0.9400 0.9420 0.9420
2.252000 0.9430 0.9430 0.9450 0.9450 0.9450
2.285191 0.9450 0.9470 0.9470 0.9480 0.9480
2.318000 0.9500 0.9500 0.9500 0.9480 0.9480
2.351191 0.9430 0.9380 0.9330 0.9200 0.9180
2.385000 0.9180 0.9220 0.9270 0.9320 0.9370
2.418191 0.9400 0.9430 0.9470 0.9480 0.9480
2.451000 0.9480 0.9480 0.9500 0.9500 0.9500
2.484191 0.9510 0.9510 0.9530 0.9530 0.9530
2.518000 0.9530 0.9560 0.9580 0.9650 0.9700
2.551191 0.9700 0.9680 0.9660 0.9650 0.9560
2.584000 0.9550 0.9550 0.9550 0.9560 0.9630
2.617191 0.9660 0.9680 0.9680 0.9700 0.9700
2.650000 0.9680 0.9680 0.9660 0.9660 0.9650
2.683191 0.9560 0.9510 0.9500 0.9480 0.9480
2.717000 0.9500 0.9550 0.9600 0.9630 0.9650
2.750191 0.9680 0.9680 0.9610 0.9550 0.9500
2.783000 0.9480 0.9470 0.9450 0.9450 0.9430
2.816191 0.9400 0.9380 0.9350 0.9280 0.9250
2.849000 0.9200 0.9150 0.9120 0.9120 0.9050
2.882191 0.8950 0.8850 0.8740 0.8650 0.8570
2.916000 0.8470 0.8420 0.8390 0.8340 0.8320
2.949191 0.8320 0.8310 0.8290 0.8240 0.8190
2.982000 0.8120 0.8070 0.8040 0.7910 0.7790
3.015191 0.7780 0.7780 0.7790 0.7880 0.7940
3.048000 0.8040 0.8140 0.8190 0.8270 0.8310
3.081191 0.8340 0.8360 0.8370 0.8390 0.8410
3.115000 0.8410 0.8420 0.8420 0.8420 0.8420
3.148191 0.8410 0.8390 0.8370 0.8360 0.8310
3.181000 0.8210 0.8090 0.7910 0.7660 0.7380
3.214191 0.7080 0.6880 0.6550 0.6240 0.5790
3.247000 0.4500 0.4420 0.4320 0.4300 0.4320
3.280191 0.4550 0.4710 0.4780 0.4780 0.4660
3.314000 0.4450 0.4430 0.4400 0.4370 0.4330
3.347191 0.3870 0.3850 0.3870 0.3990 0.4120
3.380000 0.4150 0.4120 0.3950 0.3570 0.3550
3.413191 0.3550 0.3590 0.4000 0.4450 0.4750
3.446000 0.4980 0.5330 0.5570 0.5740 0.5870
3.479191 0.5960 0.6020 0.6070 0.6120 0.6200
3.513000 0.6320 0.6490 0.6700 0.6900 0.7110
3.546191 0.7280 0.7500 0.7690 0.7880 0.8010
3.579000 0.8160 0.8340 0.8390 0.8490 0.8500
3.612191 0.8500 0.8500 0.8500 0.8490 0.8490
3.645000 0.8490 0.8500 0.8570 0.8650 0.8750
3.678191 0.8820 0.8900 0.9000 0.9020 0.9030
3.712000 0.9030 0.9020 0.9020 0.9000 0.9000
3.745191 0.9000 0.8970 0.8970 0.8950 0.8950
3.778000 0.8950 0.8950 0.8950 0.8950 0.8950
3.811191 0.8970 0.8970 0.8970 0.8990 0.8990
3.845000 0.8990 0.8970 0.8950 0.8940 0.8920
3.878191 0.8890 0.8850 0.8800 0.8790 0.8790
3.911000 0.8790 0.8790 0.8820 0.8840 0.8870
3.944191 0.8940 0.9000 0.9020 0.9030 0.9030
3.977000 0.9050 0.9050 0.9070 0.9070 0.9080
4.010191 0.9080 0.9100 0.9100 0.9100 0.9100
4.044000 0.9080 0.9020 0.8990 0.8970 0.8950
4.077191 0.8950 0.8950 0.8940 0.8900 0.8900
4.110000 0.8890 0.8840 0.8820 0.8800 0.8790
4.143191 0.8770 0.8770 0.8770 0.8790 0.8890
4.176000 0.8890 0.8890 0.8870 0.8840 0.8820
4.209191 0.8800 0.8750 0.8720 0.8690 0.8640
4.243000 0.8620 0.8600 0.8600 0.8620 0.8700
4.276191 0.8800 0.8820 0.8840 0.8840 0.8890
4.309000 0.8970 0.9000 0.9030 0.9050 0.9050
4.342191 0.9070 0.9070 0.9080 0.9080 0.9080
4.375000 0.9100 0.9100 0.9120 0.9120 0.9130
4.408191 0.9130 0.9150 0.9150 0.9150 0.9170
4.442000 0.9170 0.9170 0.9170 0.9180 0.9180
4.475191 0.9180 0.9200 0.9200 0.9200 0.9200
4.508000 0.9220 0.9220 0.9220 0.9220 0.9220
4.541191 0.9230 0.9250 0.9250 0.9250 0.9270
4.574000 0.9320 0.9330 0.9330 0.9330 0.9330
4.607191 0.9330 0.9330 0.9320 0.9300 0.9280
4.641000 0.9280 0.9280 0.9300 0.9380 0.9400
4.674191 0.9400 0.9400 0.9380 0.9320 0.9320
4.707000 0.9280 0.9220 0.9180 0.9170 0.9130
4.740191 0.9130 0.9130 0.9130 0.9150 0.9170
4.773000 0.9170 0.9180 0.9200 0.9200 0.9230
4.806191 0.9250 0.9250 0.9230 0.9230 0.9200
4.840000 0.9170 0.9080 0.9080 0.9050 0.9030
4.873191 0.9030 0.9030 0.9030 0.9070 0.9070
4.906000 0.9080 0.9100 0.9150 0.9180 0.9180
4.939191 0.9180 0.9230 0.9280 0.9280 0.9300
4.973000 0.9300 0.9280 0.9270 0.9270 0.9250
5.006191 0.9230 0.9220 0.9200 0.9180 0.9170
5.039000 0.9150 0.9150 0.9150 0.9150 0.9150
5.072191 0.9150 0.9150 0.9150 0.9150 0.9130
5.105000 0.9120 0.9080 0.9030 0.8950 0.8900
5.138191 0.8790 0.8720 0.8650 0.8550 0.8500
5.172000 0.8440 0.8420 0.8390 0.8390 0.8410
5.205191 0.8470 0.8520 0.8590 0.8650 0.8750
5.238000 0.8800 0.8820 0.8840 0.8870 0.8890
5.271191 0.8900 0.8900 0.8920 0.8920 0.8920
5.304000 0.8920 0.8920 0.8900 0.8890 0.8840
5.337191 0.8770 0.8740 0.8720 0.8720 0.8700
5.371000 0.8700 0.8700 0.8720 0.8740 0.8750
5.404191 0.8770 0.8790 0.8800 0.8800 0.8820
5.437000 0.8870 0.8890 0.8900 0.8920 0.8920
5.470191 0.8900 0.8890 0.8850 0.8740 0.8690
5.503000 0.8640 0.8590 0.8570 0.8570 0.8570
5.536191 0.8590 0.8600 0.8620 0.8620 0.8600
5.570000 0.8570 0.8570 0.8540 0.8500 0.8470
5.603191 0.8460 0.8460 0.8460 0.8490 0.8490
5.636000 0.8500 0.8500 0.8500 0.8490 0.8490
5.669191 0.8470 0.8410 0.8390 0.8360 0.8290
5.702000 0.8270 0.8260 0.8240 0.8220 0.8190
5.735191 0.8190 0.8190 0.8170 0.8170 0.8160
5.769000 0.8160 0.8160 0.8160 0.8190 0.8220
5.802191 0.8240 0.8240 0.8240 0.8220 0.8220
5.835000 0.8220 0.8210 0.8170 0.8170 0.8160
5.868191 0.8160 0.8140 0.8140 0.8090 0.8070
5.901000 0.8060 0.8040 0.8040 0.8010 0.7890
5.934191 0.7880 0.7840 0.7790 0.7760 0.7690
5.968000 0.7640 0.7580 0.7510 0.7480 0.7410
6.001191 0.7400 0.7400 0.7380 0.7360 0.7350
6.034000 0.7350 0.7330 0.7250 0.7150 0.7080
6.067191 0.7000 0.6970 0.6930 0.6820 0.6720
6.100000 0.6630 0.6530 0.6390 0.6140 0.5760
6.133191 0.5230 0.4500 0.3900 0.3340 0.2810
6.167000 0.2080 0.1340 0.1190 0.1040 0.0890
6.200191 0.0740 0.0720 0.0720 0.0760 0.1470
6.233000 0.2160 0.2590 0.2630 0.2660 0.2680
6.266191 0.2690 0.2730 0.2990 0.3540 0.3550
6.300000 0.3570 0.3540 0.3410 0.3320 0.3310
6.333191 0.3310 0.3340 0.3600 0.3870 0.4080
6.366000 0.4200 0.4230 0.4220 0.4200 0.3940
6.399191 0.3600 0.3410 0.3060 0.2980 0.2930
6.432000 0.2840 0.2660 0.2360 0.1950 0.1400
6.465191 0.1000 0.0720 0.0590 0.0570 0.0570
6.499000 0.0570 0.0590 0.0610 0.0660 0.0740
6.532191 0.0810 0.0840 0.0890 0.0960 0.1000
6.565000 0.1120 0.1300 0.1350 0.1340 0.1240
6.598191 0.0970 0.0710 0.0610 0.0510 0.0490
6.631000 0.0490 0.0510 0.0510 0.0510 0.0520
6.664191 0.0540 0.0640 0.0840 0.1040 0.1250
6.698000 0.1440 0.1490 0.1490 0.1500 0.1520
6.731191 0.1530 0.1530 0.1520 0.1450 0.1240
6.764000 0.1090 0.1040 0.1020 0.0990 0.0940
6.797191 0.0860 0.0770 0.0740 0.0720 0.0660
6.830000 0.0590 0.0570 0.0540 0.0510 0.0490
6.863191 0.0480 0.0460 0.0460 0.0460 0.0460
6.897000 0.0460 0.0480 0.0490 0.0490 0.0490
6.930191 0.0490 0.0490 0.0480 0.0480 0.0480
6.963000 0.0490 0.0570 0.0660 0.0760 0.1020
6.996191 0.1200 0.1550 0.1870 0.2180 0.2430
7.029000 0.2680 0.2830 0.2860 0.2830 0.2790
7.062191 0.2740 0.2640 0.2460 0.2350 0.2180
7.096000 0.1930 0.1670 0.1490 0.1350 0.1240
7.129191 0.1090 0.0890 0.0710 0.0560 0.0490
7.162000 0.0490 0.0480 0.0480 0.0460 0.0460
7.195191 0.0460 0.0460 0.0460 0.0460 0.0460
7.228000 0.0480 0.0480 0.0480 0.0480 0.0480
7.261191 0.0480 0.0480 0.0480 0.0480 0.0510
7.295000 0.0560 0.0670 0.0920 0.1270 0.1630
7.328191 0.1950 0.2130 0.2400 0.2640 0.2980
7.361000 0.3340 0.3590 0.3790 0.3950 0.4100
7.394191 0.4220 0.4330 0.4370 0.4350 0.4320
7.427000 0.4230 0.4180 0.4080 0.4000 0.3970
7.460191 0.3940 0.3850 0.3820 0.3800 0.3770
7.494000 0.3700 0.3690 0.3690 0.3690 0.3740
7.527191 0.3870 0.3900 0.3900 0.3890 0.3750
7.560000 0.3590 0.3470 0.3390 0.3210 0.3140
7.593191 0.2960 0.2660 0.2560 0.2460 0.2380
7.627000 0.2210 0.2060 0.2030 0.2010 0.2010
7.660191 0.2030 0.2110 0.2230 0.2350 0.2460
7.693000 0.2680 0.2830 0.2940 0.2980 0.2990
7.726191 0.3010 0.3010 0.2980 0.2960 0.2960
7.759000 0.2980 0.2990 0.3010 0.3010 0.2960
7.792191 0.2880 0.2710 0.2510 0.2360 0.2250
7.826000 0.2150 0.2000 0.1850 0.1800 0.1770
7.859191 0.1720 0.1680 0.1550 0.1500 0.1470
7.892000 0.1450 0.1440 0.1400 0.1370 0.1340
7.925191 0.1340 0.1350 0.1500 0.1730 0.2050
7.958000 0.2430 0.2810 0.3190 0.3540 0.3820
7.991191 0.4000 0.4400 0.4650 0.4800 0.4880
8.025000 0.4960 0.5090 0.5310 0.5360 0.5380
8.058191 0.5390 0.5390 0.5380 0.5360 0.5330
8.091000 0.5310 0.5290 0.5290 0.5290 0.5340
8.124191 0.5520 0.5620 0.5770 0.5940 0.6020
8.157000 0.6100 0.6170 0.6200 0.6220 0.6250
8.190191 0.6240 0.6200 0.6140 0.6050 0.5940
8.224000 0.5790 0.5620 0.5440 0.5210 0.4960
8.257191 0.4680 0.4380 0.4050 0.3690 0.3340
8.290000 0.2990 0.2640 0.2350 0.2060 0.1820
8.323191 0.1680 0.1570 0.1490 0.1420 0.1400
8.356000 0.1370 0.1320 0.1290 0.1200 0.1140
8.389191 0.1020 0.0920 0.0810 0.0740 0.0710
8.423000 0.0660 0.0640 0.0620 0.0620 0.0660
8.456191 0.0790 0.0820 0.0870 0.0960 0.1070
8.489000 0.1240 0.1420 0.1620 0.1870 0.2130
8.522191 0.2400 0.2690 0.2990 0.3260 0.3470
8.555000 0.3690 0.3840 0.3970 0.4080 0.4100
8.588191 0.4120 0.4120 0.4080 0.3940 0.3700
8.622000 0.3650 0.3570 0.3550 0.3570 0.3640
8.655191 0.3750 0.3870 0.3900 0.3920 0.3890
8.688000 0.3790 0.3500 0.3260 0.3010 0.2790
8.721191 0.2590 0.2400 0.2210 0.2030 0.1850
8.755000 0.1620 0.1400 0.1190 0.0960 0.0760
8.788191 0.0690 0.0620 0.0520 0.0510 0.0520
8.821000 0.0590 0.0640 0.0760 0.0910 0.1000
8.854191 0.1170 0.1370 0.1470 0.1520 0.1620
8.887000 0.1670 0.1700 0.1780 0.1900 0.2000
8.920191 0.2050 0.2210 0.2410 0.2610 0.2860
8.954000 0.3090 0.3340 0.3570 0.3790 0.4020
8.987191 0.4250 0.4470 0.4700 0.4900 0.5110
9.020000 0.5160 0.5330 0.5460 0.5490 0.5560
9.053191 0.5720 0.5920 0.5970 0.6050 0.6120
9.086000 0.6190 0.6240 0.6290 0.6300 0.6350
9.119191 0.6350 0.6350 0.6300 0.6270 0.6240
9.153000 0.6150 0.6020 0.5970 0.5920 0.5770
9.186191 0.5710 0.5590 0.5440 0.5330 0.5230
9.219000 0.5180 0.5090 0.5040 0.5030 0.5040
9.252191 0.5130 0.5280 0.5430 0.5490 0.5620
9.285000 0.5820 0.5970 0.6090 0.6200 0.6290
9.318191 0.6370 0.6440 0.6450 0.6450 0.6470
9.352000 0.6470 0.6450 0.6350 0.6290 0.6220
9.385191 0.6170 0.6040 0.5940 0.5770 0.5590
9.418000 0.5520 0.5240 0.5190 0.5110 0.5090
9.451191 0.5090 0.5130 0.5280 0.5430 0.5520
9.484000 0.5710 0.5870 0.6040 0.6170 0.6270
9.517191 0.6290 0.6300 0.6320 0.6320 0.6340
9.551000 0.6350 0.6350 0.6350 0.6290 0.6190
9.584191 0.6050 0.5910 0.5720 0.5540 0.5340
9.617000 0.5130 0.4900 0.4660 0.4430 0.4180
9.650191 0.3920 0.3590 0.3360 0.3190 0.3020
9.683000 0.2810 0.2640 0.2590 0.2560 0.2560
9.716191 0.2580 0.2640 0.2740 0.2980 0.3240
9.750000 0.3600 0.3940 0.4180 0.4480 0.4710
9.783191 0.4930 0.5140 0.5290 0.5480 0.5570
9.816000 0.5570 0.5560 0.5560 0.5560 0.5490
9.849191 0.5460 0.5380 0.5310 0.5280 0.5230
9.882000 0.5060 0.4810 0.4560 0.4320 0.4000
9.915191 0.3620 0.3090 0.2740 0.2530 0.2350
9.949000 0.2100 0.2060 0.2060 0.2060 0.2080
9.982191 0.2210 0.2280 0.2380 0.2430 0.2460
10.015000 0.2480 0.2480 0.2480 0.2480 0.2480
10.048191 0.2500 0.2500 0.2510 0.2710 0.2910
10.082000 0.3120 0.3390 0.3600 0.3920 0.4220
10.115191 0.4500 0.4710 0.4930 0.5110 0.5260
10.148000 0.5360 0.5410 0.5490 0.5560 0.5590
10.181191 0.5670 0.5720 0.5820 0.5870 0.5920
10.214000 0.5970 0.6020 0.6140 0.6220 0.6300
10.247191 0.6420 0.6500 0.6570 0.6620 0.6670
10.281000 0.6730 0.6780 0.6880 0.6980 0.7050
10.314191 0.7050 0.7060 0.7060 0.7060 0.7060
10.347000 0.7060 0.7080 0.7080 0.7080 0.7080
10.380191 0.7060 0.7060 0.7050 0.7000 0.6950
10.413000 0.6920 0.6900 0.6880 0.6870 0.6850
10.446191 0.6850 0.6820 0.6800 0.6780 0.6700
10.480000 0.6620 0.6490 0.6370 0.6350 0.6350
10.513191 0.6370 0.6370 0.6370 0.6370 0.6350
10.546000 0.6340 0.6340 0.6340 0.6350 0.6400
10.579191 0.6490 0.6580 0.6680 0.6770 0.6800
10.612000 0.6850 0.6950 0.7030 0.7150 0.7250
10.645191 0.7260 0.7300 0.7380 0.7480 0.7530
10.679000 0.7560 0.7590 0.7630 0.7660 0.7680
10.712191 0.7710 0.7790 0.7860 0.7890 0.7910
10.745000 0.7930 0.7940 0.7960 0.7980 0.7990
10.778191 0.8020 0.8060 0.8070 0.8110 0.8110
10.811000 0.8110 0.8110 0.8120 0.8120 0.8120
10.844191 0.8120 0.8120 0.8120 0.8120 0.8120
10.878000 0.8120 0.8110 0.8090 0.8070 0.8060
10.911191 0.8040 0.8040 0.8020 0.8020 0.7990
10.944000 0.7980 0.7960 0.7890 0.7890 0.7840
10.977191 0.7780 0.7730 0.7660 0.7610 0.7540
11.010000 0.7500 0.7430 0.7380 0.7300 0.7200
11.043191 0.7150 0.7100 0.7030 0.6970 0.6880
11.077000 0.6850 0.6780 0.6770 0.6730 0.6730
11.110191 0.6730 0.6730 0.6730 0.6750 0.6750
11.143000 0.6770 0.6770 0.6770 0.6750 0.6680
11.176191 0.6670 0.6670 0.6650 0.6650 0.6680
11.209000 0.6720 0.6720 0.6720 0.6720 0.6730
11.242191 0.6750 0.6770 0.6780 0.6800 0.6780
11.276000 0.6770 0.6770 0.6720 0.6700 0.6680
11.309191 0.6670 0.6620 0.6600 0.6580 0.6550
11.342000 0.6490 0.6450 0.6390 0.6370 0.6350
11.375191 0.6350 0.6350 0.6320 0.6290 0.6240
11.409000 0.6220 0.6220 0.6220 0.6220 0.6220
11.442191 0.6220 0.6220 0.6240 0.6240 0.6250
11.475000 0.6250 0.6270 0.6270 0.6320 0.6350
11.508191 0.6390 0.6450 0.6490 0.6600 0.6700
11.541000 0.6750 0.6770 0.6800 0.6850 0.6850
11.574191 0.6900 0.6970 0.6980 0.7050 0.7110
11.608000 0.7230 0.7310 0.7380 0.7460 0.7460
11.641191 0.7500 0.7540 0.7590 0.7640 0.7640
11.674000 0.7660 0.7710 0.7760 0.7790 0.7810
11.707191 0.7830 0.7860 0.7880 0.7910 0.7930
11.740000 0.7960 0.7960 0.7980 0.7980 0.7980
11.773191 0.7960 0.7960 0.7940 0.7930 0.7860
11.807000 0.7810 0.7780 0.7760 0.7760 0.7740
11.840191 0.7680 0.7630 0.7610 0.7590 0.7590
11.873000 0.7590 0.7580 0.7530 0.7500 0.7460
11.906191 0.7450 0.7450 0.7430 0.7430 0.7410
11.939000 0.7400 0.7400 0.7350 0.7280 0.7230
11.972191 0.7160 0.7150 0.7110 0.7030 0.6930
12.006000 0.6870 0.6820 0.6750 0.6700 0.6700
12.039191 0.6670 0.6650 0.6630 0.6630 0.6630
12.072000 0.6650 0.6670 0.6750 0.6820 0.6930
12.105191 0.7030 0.7150 0.7160 0.7200 0.7230
12.138000 0.7280 0.7360 0.7450 0.7480 0.7510
12.171191 0.7580 0.7660 0.7680 0.7760 0.7810
12.205000 0.7860 0.7890 0.7940 0.7980 0.8010
12.238191 0.8070 0.8120 0.8160 0.8190 0.8220
12.271000 0.8260 0.8270 0.8310 0.8340 0.8340
12.304191 0.8360 0.8360 0.8360 0.8360 0.8370
12.337000 0.8370 0.8370 0.8370 0.8370 0.8360
12.370191 0.8360 0.8340 0.8320 0.8310 0.8290
12.404000 0.8290 0.8290 0.8290 0.8290 0.8290
12.437191 0.8290 0.8310 0.8310 0.8310 0.8310
12.470000 0.8340 0.8370 0.8390 0.8420 0.8440
12.503191 0.8460 0.8470 0.8470 0.8470 0.8470
12.536000 0.8470 0.8470 0.8490 0.8490 0.8520
12.569191 0.8540 0.8540 0.8540 0.8540 0.8540
12.603000 0.8520 0.8520 0.8520 0.8520 0.8490
12.636191 0.8460 0.8440 0.8440 0.8420 0.8410
12.669000 0.8370 0.8310 0.8260 0.8170 0.8090
12.702191 0.8010 0.7940 0.7830 0.7730 0.7630
12.736000 0.7540 0.7460 0.7400 0.7330 0.7200
12.769191 0.7050 0.6930 0.6800 0.6670 0.6550
12.802000 0.6420 0.6290 0.6140 0.6040 0.5970
12.835191 0.5890 0.5810 0.5760 0.5710 0.5690
12.868000 0.5670 0.5670 0.5670 0.5690 0.5770
12.901191 0.5870 0.5990 0.6070 0.6150 0.6200
12.935000 0.6220 0.6240 0.6250 0.6250 0.6220
12.968191 0.6170 0.6050 0.5940 0.5810 0.5610
13.001000 0.5340 0.4980 0.4630 0.4250 0.4080
13.034191 0.3740 0.3410 0.3190 0.3010 0.2840
13.067000 0.2730 0.2560 0.2460 0.2350 0.2250
13.100191 0.2130 0.2060 0.2030 0.2030 0.2030
13.134000 0.2010 0.2010 0.2000 0.2000 0.2000
13.167191 0.2000 0.1980 0.1970 0.1920 0.1880
13.200000 0.1830 0.1730 0.1650 0.1550 0.1500
13.233191 0.1450 0.1370 0.1300 0.1250 0.1170
13.266000 0.1050 0.1000 0.0970 0.0920 0.0860
13.299191 0.0820 0.0810 0.0810 0.0820 0.0910
13.333000 0.0990 0.1000 0.1020 0.1100 0.1240
13.366191 0.1440 0.1570 0.1730 0.1870 0.2050
13.399000 0.2300 0.2560 0.2860 0.3140 0.3290
13.432191 0.3550 0.3820 0.4050 0.4320 0.4630
13.465000 0.4850 0.5040 0.5240 0.5440 0.5570
13.498191 0.5740 0.5920 0.6020 0.6240 0.6350
13.532000 0.6470 0.6550 0.6630 0.6700 0.6800
13.565191 0.6880 0.6950 0.6980 0.7010 0.7030
13.598000 0.7100 0.7200 0.7280 0.7380 0.7430
13.631191 0.7450 0.7450 0.7450 0.7460 0.7480
13.664000 0.7540 0.7580 0.7590 0.7590 0.7610
13.697191 0.7640 0.7660 0.7660 0.7680 0.7690
13.731000 0.7690 0.7690 0.7690 0.7680 0.7680
13.764191 0.7680 0.7640 0.7640 0.7640 0.7640
13.797000 0.7640 0.7610 0.7580 0.7560 0.7530
13.830191 0.7530 0.7500 0.7500 0.7500 0.7480
13.864000 0.7480 0.7480 0.7480 0.7460 0.7410
13.897191 0.7360 0.7280 0.7250 0.7210 0.7210
13.930000 0.7180 0.7180 0.7160 0.7160 0.7150
13.963191 0.7130 0.7110 0.7100 0.7100 0.7060
13.996000 0.7060 0.7050 0.7030 0.7010 0.7000
14.029191 0.6980 0.6950 0.6950 0.6900 0.6820
14.063000 0.6770 0.6650 0.6550 0.6490 0.6420
14.096191 0.6270 0.6140 0.6020 0.5890 0.5740
14.129000 0.5590 0.5380 0.5140 0.4830 0.4630
14.162191 0.4510 0.4330 0.4120 0.3870 0.3540
14.195000 0.3440 0.3220 0.2990 0.2760 0.2510
14.228191 0.2410 0.2230 0.2130 0.1950 0.1850
14.262000 0.1770 0.1700 0.1620 0.1570 0.1490
14.295191 0.1470 0.1420 0.1400 0.1350 0.1340
14.328000 0.1320 0.1320 0.1320 0.1340 0.1390
14.361191 0.1400 0.1440 0.1470 0.1470 0.1490
14.394000 0.1490 0.1500 0.1500 0.1520 0.1600
14.427191 0.1730 0.1900 0.1980 0.2030 0.2130
14.461000 0.2180 0.2210 0.2280 0.2310 0.2360
14.494191 0.2430 0.2500 0.2560 0.2610 0.2690
14.527000 0.2840 0.2940 0.3010 0.3140 0.3210
14.560191 0.3290 0.3390 0.3520 0.3640 0.3790
14.593000 0.3940 0.4100 0.4270 0.4430 0.4580
14.626191 0.4750 0.4900 0.5040 0.5180 0.5340
14.660000 0.5540 0.5670 0.5820 0.5940 0.6070
14.693191 0.6240 0.6370 0.6470 0.6570 0.6670
14.726000 0.6730 0.6820 0.6880 0.6950 0.7000
14.759191 0.7080 0.7180 0.7260 0.7350 0.7360
14.792000 0.7380 0.7410 0.7430 0.7460 0.7480
14.825191 0.7500 0.7500 0.7510 0.7530 0.7530
14.859000 0.7530 0.7530 0.7540 0.7560 0.7580
14.892191 0.7580 0.7590 0.7590 0.7610 0.7610
14.925000 0.7630 0.7630 0.7640 0.7660 0.7660
14.958191 0.7640 0.7590 0.7580 0.7560 0.7480
14.991000 0.7480 0.7460 0.7460 0.7450 0.7410
15.024191 0.7380 0.7360 0.7350 0.7300 0.7280
15.058000 0.7260 0.7250 0.7250 0.7280 0.7300
15.091191 0.7360 0.7410 0.7460 0.7480 0.7500
15.124000 0.7510 0.7530 0.7540 0.7590 0.7630
15.157191 0.7660 0.7680 0.7690 0.7710 0.7710
15.191000 0.7690 0.7690 0.7690 0.7690 0.7690
15.224191 0.7690 0.7740 0.7760 0.7790 0.7810
15.257000 0.7830 0.7830 0.7810 0.7790 0.7780
15.290191 0.7780 0.7780 0.7780 0.7760 0.7730
15.323000 0.7690 0.7690 0.7660 0.7660 0.7660
15.356191 0.7660 0.7660 0.7660 0.7660 0.7660
15.390000 0.7660 0.7660 0.7660 0.7640 0.7640
15.423191 0.7640 0.7640 0.7640 0.7640 0.7640
15.456000 0.7630 0.7630 0.7590 0.7560 0.7560
15.489191 0.7540 0.7540 0.7540 0.7540 0.7540
15.522000 0.7540 0.7530 0.7500 0.7480 0.7480
15.555191 0.7460 0.7460 0.7450 0.7450 0.7430
15.589000 0.7410 0.7410 0.7400 0.7380 0.7360
15.622191 0.7360 0.7330 0.7330 0.7310 0.7300
15.655000 0.7280 0.7260 0.7250 0.7230 0.7210
15.688191 0.7180 0.7160 0.7150 0.7150 0.7130
15.721000 0.7110 0.7100 0.7080 0.7050 0.6980
15.754191 0.6970 0.6920 0.6870 0.6870 0.6850
15.788000 0.6830 0.6820 0.6800 0.6800 0.6780
15.821191 0.6770 0.6750 0.6730 0.6720 0.6650
15.854000 0.6630 0.6600 0.6600 0.6600 0.6580
15.887191 0.6580 0.6580 0.6580 0.6580 0.6580
15.920000 0.6580 0.6600 0.6620 0.6620 0.6650
15.953191 0.6700 0.6780 0.6800 0.6800 0.6800
15.987000 0.6800
##END=
