##TITLE=ETHYLENE GLYCOL DISTEARATE
##JCAMP-DX=4.24
##DATA TYPE=INFRARED SPECTRUM
##CLASS=COBLENTZ
##OWNER=COBLENTZ SOCIETY
Collection (C) 2018 copyright by the U.S. Secretary of Commerce
on behalf of the United States of America. All rights reserved.
##DATE=Not specified, most likely prior to 1970
##MOLFORM=C38 H72 O4
##SOURCE REFERENCE=COBLENTZ NO. 3667
##$NIST ID=B6003667
##$NIST SOURCE=COBLENTZ
##$NIST IMAGE=cob3667
##SPECTROMETER/DATA SYSTEM=PERKIN-ELMER
##STATE=SOLID (COCONITRILE MULL)
##SAMPLING PROCEDURE=TRANSMISSION
##RESOLUTION=4
##DATA PROCESSING=DIGITIZED BY NIST FROM HARD COPY
##XUNITS=MICROMETERS
##YUNITS=TRANSMITTANCE
##XFACTOR=1.000000
##YFACTOR=1
##DELTAX=000.006121
##FIRSTX=2.024
##LASTX=15.0794
##FIRSTY=0.853
##MAXX=15.0794
##MINX=2.024
##MAXY=0.956
##MINY=0.029
##NPOINTS=2134
##XYDATA=(X++(Y..Y))
2.024000 0.8530 0.8530 0.8540 0.8540 0.8530
2.054617 0.8530 0.8530 0.8530 0.8530 0.8530
2.086000 0.8530 0.8540 0.8540 0.8560 0.8580
2.116617 0.8580 0.8580 0.8580 0.8580 0.8580
2.147000 0.8590 0.8590 0.8610 0.8620 0.8650
2.177617 0.8670 0.8670 0.8680 0.8680 0.8680
2.208000 0.8680 0.8680 0.8700 0.8700 0.8710
2.238617 0.8710 0.8730 0.8760 0.8780 0.8760
2.269000 0.8750 0.8730 0.8700 0.8700 0.8680
2.299617 0.8640 0.8640 0.8620 0.8580 0.8510
2.331000 0.8420 0.8390 0.8390 0.8410 0.8410
2.361617 0.8410 0.8410 0.8410 0.8420 0.8440
2.392000 0.8440 0.8440 0.8420 0.8420 0.8420
2.422617 0.8410 0.8410 0.8410 0.8410 0.8410
2.453000 0.8480 0.8480 0.8480 0.8510 0.8540
2.483617 0.8560 0.8610 0.8620 0.8670 0.8710
2.514000 0.8730 0.8730 0.8750 0.8760 0.8760
2.544617 0.8760 0.8760 0.8760 0.8780 0.8780
2.575000 0.8790 0.8810 0.8820 0.8820 0.8820
2.605617 0.8840 0.8840 0.8840 0.8840 0.8870
2.637000 0.8900 0.8910 0.8930 0.8950 0.8950
2.667617 0.8950 0.8930 0.8930 0.8930 0.8930
2.698000 0.8910 0.8910 0.8930 0.8930 0.8930
2.728617 0.8930 0.8930 0.8910 0.8910 0.8910
2.759000 0.8910 0.8910 0.8930 0.8930 0.8910
2.789617 0.8910 0.8900 0.8870 0.8850 0.8840
2.820000 0.8790 0.8730 0.8710 0.8640 0.8620
2.850617 0.8590 0.8580 0.8560 0.8530 0.8530
2.881000 0.8510 0.8510 0.8510 0.8500 0.8500
2.911617 0.8500 0.8510 0.8610 0.8640 0.8640
2.943000 0.8650 0.8650 0.8710 0.8730 0.8730
2.973617 0.8730 0.8750 0.8750 0.8750 0.8760
3.004000 0.8760 0.8780 0.8790 0.8780 0.8780
3.034617 0.8780 0.8760 0.8760 0.8790 0.8810
3.065000 0.8810 0.8820 0.8820 0.8820 0.8820
3.095617 0.8820 0.8820 0.8820 0.8820 0.8820
3.126000 0.8820 0.8820 0.8820 0.8820 0.8810
3.156617 0.8810 0.8810 0.8810 0.8810 0.8810
3.187000 0.8820 0.8820 0.8840 0.8840 0.8840
3.217617 0.8840 0.8850 0.8850 0.8840 0.8780
3.249000 0.8760 0.8750 0.8730 0.8710 0.8700
3.279617 0.8640 0.8610 0.8580 0.8580 0.8510
3.310000 0.8450 0.8410 0.8390 0.8330 0.8300
3.340617 0.8200 0.8140 0.7970 0.7770 0.7570
3.371000 0.7370 0.6890 0.6400 0.4960 0.4350
3.401617 0.3710 0.3360 0.2930 0.2680 0.2340
3.432000 0.2170 0.1920 0.1790 0.1510 0.1280
3.462617 0.1210 0.1170 0.1150 0.1180 0.1320
3.493000 0.1450 0.1570 0.1580 0.1550 0.1450
3.523617 0.1450 0.1550 0.1630 0.1750 0.3300
3.555000 0.5260 0.5740 0.6370 0.6620 0.6800
3.585617 0.6970 0.7390 0.7500 0.7650 0.7820
3.616000 0.7990 0.8070 0.8140 0.8200 0.8250
3.646617 0.8300 0.8310 0.8440 0.8530 0.8530
3.677000 0.8540 0.8560 0.8580 0.8640 0.8650
3.707617 0.8700 0.8750 0.8750 0.8790 0.8820
3.738000 0.8840 0.8870 0.8880 0.8900 0.8900
3.768617 0.8900 0.8900 0.8900 0.8900 0.8900
3.799000 0.8880 0.8880 0.8870 0.8850 0.8840
3.829617 0.8840 0.8840 0.8840 0.8840 0.8850
3.861000 0.8870 0.8900 0.8930 0.8950 0.8980
3.891617 0.8990 0.8990 0.9010 0.9020 0.9070
3.922000 0.9120 0.9130 0.9160 0.9180 0.9180
3.952617 0.9210 0.9240 0.9300 0.9320 0.9320
3.983000 0.9300 0.9300 0.9320 0.9350 0.9360
4.013617 0.9380 0.9380 0.9380 0.9360 0.9360
4.044000 0.9360 0.9350 0.9350 0.9410 0.9420
4.074617 0.9420 0.9440 0.9440 0.9440 0.9440
4.105000 0.9420 0.9420 0.9420 0.9420 0.9420
4.135617 0.9420 0.9420 0.9420 0.9450 0.9450
4.167000 0.9450 0.9470 0.9470 0.9470 0.9470
4.197617 0.9470 0.9470 0.9470 0.9450 0.9450
4.228000 0.9450 0.9450 0.9450 0.9450 0.9440
4.258617 0.9440 0.9440 0.9440 0.9440 0.9420
4.289000 0.9410 0.9410 0.9390 0.9380 0.9360
4.319617 0.9350 0.9350 0.9350 0.9350 0.9350
4.350000 0.9350 0.9360 0.9390 0.9410 0.9410
4.380617 0.9380 0.9380 0.9360 0.9360 0.9390
4.411000 0.9390 0.9410 0.9410 0.9390 0.9390
4.441617 0.9390 0.9390 0.9390 0.9420 0.9470
4.473000 0.9500 0.9530 0.9530 0.9550 0.9550
4.503617 0.9550 0.9530 0.9520 0.9520 0.9520
4.534000 0.9520 0.9520 0.9520 0.9520 0.9520
4.564617 0.9520 0.9520 0.9520 0.9520 0.9520
4.595000 0.9520 0.9530 0.9550 0.9550 0.9550
4.625617 0.9550 0.9530 0.9530 0.9550 0.9530
4.656000 0.9530 0.9500 0.9500 0.9500 0.9500
4.686617 0.9500 0.9500 0.9500 0.9520 0.9520
4.718000 0.9530 0.9530 0.9530 0.9530 0.9550
4.748617 0.9560 0.9560 0.9560 0.9560 0.9560
4.779000 0.9550 0.9550 0.9530 0.9530 0.9500
4.809617 0.9500 0.9500 0.9500 0.9490 0.9490
4.840000 0.9490 0.9490 0.9490 0.9490 0.9500
4.870617 0.9500 0.9490 0.9490 0.9490 0.9490
4.901000 0.9470 0.9450 0.9450 0.9450 0.9470
4.931617 0.9470 0.9450 0.9440 0.9420 0.9420
4.962000 0.9420 0.9420 0.9420 0.9420 0.9420
4.992617 0.9470 0.9490 0.9490 0.9500 0.9520
5.024000 0.9520 0.9520 0.9520 0.9530 0.9530
5.054617 0.9530 0.9530 0.9530 0.9500 0.9490
5.085000 0.9490 0.9500 0.9500 0.9530 0.9530
5.115617 0.9530 0.9530 0.9520 0.9520 0.9520
5.146000 0.9530 0.9530 0.9530 0.9530 0.9530
5.176617 0.9530 0.9530 0.9530 0.9530 0.9530
5.207000 0.9530 0.9530 0.9530 0.9530 0.9520
5.237617 0.9500 0.9500 0.9490 0.9470 0.9470
5.268000 0.9450 0.9450 0.9450 0.9450 0.9440
5.298617 0.9440 0.9450 0.9490 0.9500 0.9500
5.330000 0.9500 0.9520 0.9520 0.9500 0.9490
5.360617 0.9450 0.9450 0.9450 0.9440 0.9440
5.391000 0.9440 0.9440 0.9410 0.9390 0.9390
5.421617 0.9390 0.9380 0.9360 0.9350 0.9350
5.452000 0.9350 0.9330 0.9320 0.9320 0.9290
5.482617 0.9270 0.9220 0.9210 0.9180 0.9130
5.513000 0.9050 0.9040 0.9020 0.9010 0.9010
5.543617 0.8990 0.8980 0.8930 0.8900 0.8900
5.574000 0.8790 0.8710 0.8640 0.8440 0.8080
5.604617 0.7770 0.7760 0.7760 0.7770 0.7820
5.636000 0.7850 0.7850 0.7820 0.7770 0.7590
5.666617 0.7420 0.6940 0.6450 0.5330 0.5120
5.697000 0.4070 0.3580 0.3080 0.1350 0.1040
5.727617 0.0740 0.0470 0.0290 0.0290 0.0830
5.758000 0.2340 0.3220 0.4670 0.4950 0.5440
5.788617 0.5500 0.5630 0.5750 0.5860 0.5980
5.819000 0.6010 0.6180 0.6290 0.6340 0.6370
5.849617 0.6490 0.6680 0.6920 0.7080 0.7220
5.880000 0.7310 0.7590 0.7730 0.7870 0.8080
5.910617 0.8280 0.8340 0.8440 0.8500 0.8530
5.942000 0.8610 0.8680 0.8760 0.8790 0.8810
5.972617 0.8810 0.8810 0.8810 0.8820 0.8850
6.003000 0.8900 0.8950 0.8980 0.9010 0.9010
6.033617 0.8990 0.8990 0.9010 0.9010 0.9020
6.064000 0.9080 0.9100 0.9120 0.9210 0.9220
6.094617 0.9240 0.9250 0.9270 0.9320 0.9320
6.125000 0.9320 0.9320 0.9320 0.9320 0.9320
6.155617 0.9300 0.9300 0.9320 0.9320 0.9320
6.186000 0.9320 0.9320 0.9330 0.9350 0.9350
6.216617 0.9350 0.9350 0.9350 0.9350 0.9350
6.248000 0.9350 0.9350 0.9350 0.9350 0.9350
6.278617 0.9350 0.9350 0.9350 0.9330 0.9330
6.309000 0.9350 0.9350 0.9350 0.9350 0.9350
6.339617 0.9350 0.9350 0.9330 0.9330 0.9330
6.370000 0.9330 0.9350 0.9350 0.9350 0.9350
6.400617 0.9330 0.9330 0.9330 0.9330 0.9350
6.431000 0.9350 0.9360 0.9360 0.9380 0.9380
6.461617 0.9360 0.9360 0.9380 0.9380 0.9380
6.492000 0.9380 0.9380 0.9360 0.9350 0.9350
6.522617 0.9350 0.9350 0.9350 0.9350 0.9350
6.554000 0.9350 0.9350 0.9350 0.9350 0.9350
6.584617 0.9350 0.9350 0.9350 0.9350 0.9350
6.615000 0.9350 0.9330 0.9320 0.9290 0.9240
6.645617 0.9220 0.9210 0.9190 0.9180 0.9150
6.676000 0.9120 0.9080 0.9040 0.9020 0.8960
6.706617 0.8910 0.8840 0.8810 0.8640 0.8560
6.737000 0.8500 0.8070 0.7990 0.7630 0.7090
6.767617 0.6290 0.5490 0.4130 0.4070 0.4160
6.798000 0.4120 0.4010 0.3880 0.3330 0.2650
6.828617 0.2510 0.2660 0.2820 0.2960 0.3510
6.860000 0.5090 0.5720 0.5910 0.6550 0.6790
6.890617 0.6910 0.7570 0.7680 0.7910 0.7940
6.921000 0.7960 0.8000 0.8040 0.8040 0.8040
6.951617 0.8020 0.7970 0.7960 0.7970 0.7960
6.982000 0.7940 0.7370 0.7060 0.7050 0.7080
7.012617 0.7190 0.7390 0.7570 0.7630 0.7660
7.043000 0.7680 0.7280 0.7050 0.6740 0.6430
7.073617 0.6310 0.6310 0.6570 0.6920 0.7400
7.105000 0.7660 0.7760 0.7790 0.7800 0.7820
7.135617 0.7820 0.7770 0.7420 0.7160 0.6880
7.166000 0.6650 0.6410 0.6040 0.5000 0.4730
7.196617 0.4450 0.4500 0.4760 0.5130 0.5490
7.227000 0.5670 0.6170 0.6290 0.6480 0.6710
7.257617 0.6820 0.6950 0.7110 0.7140 0.7170
7.288000 0.7170 0.7230 0.7260 0.7370 0.7450
7.318617 0.7500 0.7510 0.7570 0.7620 0.7660
7.349000 0.7710 0.7800 0.7850 0.7880 0.7930
7.379617 0.7880 0.7870 0.7740 0.7680 0.7700
7.411000 0.7710 0.7760 0.7800 0.7870 0.7930
7.441617 0.7940 0.7940 0.7770 0.7730 0.7730
7.472000 0.7740 0.7770 0.7930 0.7990 0.8070
7.502617 0.8190 0.8270 0.8310 0.8310 0.8360
7.533000 0.8390 0.8420 0.8450 0.8470 0.8480
7.563617 0.8500 0.8500 0.8480 0.8450 0.8420
7.594000 0.8410 0.8330 0.7940 0.7660 0.7460
7.624617 0.7390 0.7370 0.7390 0.7400 0.7510
7.655000 0.7630 0.7760 0.7790 0.7850 0.7930
7.685617 0.7940 0.7970 0.8000 0.8000 0.7940
7.717000 0.7770 0.7680 0.7650 0.7450 0.7400
7.747617 0.7170 0.7050 0.7000 0.6940 0.6820
7.778000 0.6820 0.6880 0.7170 0.7360 0.7420
7.808617 0.7400 0.7250 0.7120 0.6990 0.6720
7.839000 0.6310 0.5870 0.5540 0.5490 0.5490
7.869617 0.5580 0.5890 0.6010 0.6350 0.6630
7.900000 0.6750 0.7220 0.7280 0.7390 0.7420
7.930617 0.7570 0.7600 0.7620 0.7620 0.7630
7.961000 0.7600 0.7430 0.7420 0.7420 0.7420
7.991617 0.7500 0.7600 0.7650 0.7680 0.7710
8.023000 0.7700 0.7590 0.7230 0.7020 0.6800
8.053617 0.6770 0.6770 0.6850 0.6990 0.7230
8.084000 0.7310 0.7310 0.7280 0.7190 0.7170
8.114617 0.7230 0.7390 0.7500 0.7600 0.7630
8.145000 0.7650 0.7650 0.7630 0.7430 0.7330
8.175617 0.7190 0.7060 0.6940 0.6600 0.6210
8.206000 0.6040 0.6000 0.6040 0.6110 0.6140
8.236617 0.6140 0.6120 0.6140 0.6450 0.6740
8.267000 0.7220 0.7360 0.7400 0.7400 0.7330
8.297617 0.7260 0.7080 0.6970 0.6850 0.6650
8.329000 0.6320 0.5860 0.5230 0.4590 0.4150
8.359617 0.3900 0.3650 0.3650 0.3960 0.4470
8.390000 0.4780 0.5160 0.5490 0.5910 0.5920
8.420617 0.5920 0.5910 0.5550 0.5100 0.4330
8.451000 0.3900 0.3450 0.2740 0.2560 0.2230
8.481617 0.2140 0.2120 0.2290 0.2850 0.3590
8.512000 0.3880 0.4420 0.4660 0.4930 0.5150
8.542617 0.5260 0.5580 0.5940 0.6030 0.6150
8.573000 0.6210 0.6350 0.6490 0.6570 0.6720
8.603617 0.6770 0.6830 0.6850 0.6920 0.7080
8.635000 0.7140 0.7220 0.7330 0.7420 0.7420
8.665617 0.7480 0.7530 0.7540 0.7570 0.7620
8.696000 0.7700 0.7730 0.7740 0.7740 0.7770
8.726617 0.7800 0.7820 0.7820 0.7930 0.7970
8.757000 0.8000 0.8050 0.8110 0.8160 0.8220
8.787617 0.8240 0.8310 0.8330 0.8370 0.8390
8.818000 0.8420 0.8440 0.8450 0.8470 0.8470
8.848617 0.8500 0.8500 0.8500 0.8470 0.8440
8.879000 0.8440 0.8420 0.8420 0.8360 0.8310
8.909617 0.8240 0.8130 0.7940 0.7800 0.7740
8.941000 0.7660 0.7600 0.7600 0.7660 0.7790
8.971617 0.7940 0.7970 0.8080 0.8110 0.8220
9.002000 0.8250 0.8270 0.8300 0.8310 0.8310
9.032617 0.8300 0.8280 0.8270 0.8240 0.8190
9.063000 0.8160 0.8110 0.8080 0.8050 0.8050
9.093617 0.8040 0.8020 0.8020 0.8070 0.8200
9.124000 0.8240 0.8270 0.8310 0.8340 0.8370
9.154617 0.8410 0.8420 0.8420 0.8420 0.8440
9.185000 0.8450 0.8450 0.8470 0.8470 0.8470
9.215617 0.8480 0.8480 0.8500 0.8500 0.8480
9.247000 0.8500 0.8500 0.8500 0.8510 0.8500
9.277617 0.8500 0.8500 0.8510 0.8510 0.8510
9.308000 0.8510 0.8510 0.8510 0.8510 0.8510
9.338617 0.8510 0.8500 0.8500 0.8480 0.8500
9.369000 0.8510 0.8510 0.8500 0.8500 0.8500
9.399617 0.8500 0.8480 0.8480 0.8480 0.8500
9.430000 0.8500 0.8500 0.8500 0.8470 0.8480
9.460617 0.8480 0.8500 0.8500 0.8500 0.8500
9.492000 0.8510 0.8500 0.8500 0.8500 0.8500
9.522617 0.8500 0.8500 0.8500 0.8510 0.8540
9.553000 0.8530 0.8510 0.8510 0.8510 0.8510
9.583617 0.8510 0.8510 0.8510 0.8510 0.8510
9.614000 0.8510 0.8530 0.8540 0.8540 0.8530
9.644617 0.8500 0.8470 0.8440 0.8370 0.8360
9.675000 0.8340 0.8340 0.8340 0.8410 0.8500
9.705617 0.8530 0.8590 0.8700 0.8710 0.8750
9.736000 0.8760 0.8780 0.8810 0.8810 0.8810
9.766617 0.8790 0.8790 0.8810 0.8790 0.8780
9.798000 0.8750 0.8710 0.8700 0.8700 0.8650
9.828617 0.8540 0.8500 0.8440 0.8360 0.8330
9.859000 0.8310 0.8240 0.8200 0.8190 0.8190
9.889617 0.8200 0.8220 0.8250 0.8280 0.8340
9.920000 0.8360 0.8360 0.8270 0.8270 0.8310
9.950617 0.8340 0.8370 0.8470 0.8510 0.8540
9.981000 0.8620 0.8680 0.8710 0.8730 0.8730
10.011617 0.8710 0.8700 0.8700 0.8670 0.8580
10.042000 0.8470 0.8340 0.8310 0.8170 0.7990
10.072617 0.7790 0.7740 0.7660 0.7590 0.7590
10.104000 0.7650 0.7830 0.7940 0.8050 0.8130
10.134617 0.8300 0.8370 0.8470 0.8620 0.8650
10.165000 0.8760 0.8810 0.8850 0.8880 0.8930
10.195617 0.8960 0.8960 0.8950 0.8910 0.8910
10.226000 0.8900 0.8880 0.8840 0.8760 0.8730
10.256617 0.8730 0.8710 0.8710 0.8730 0.8730
10.287000 0.8730 0.8750 0.8780 0.8820 0.8880
10.317617 0.8910 0.8930 0.8960 0.9050 0.9070
10.348000 0.9160 0.9190 0.9210 0.9210 0.9210
10.378617 0.9210 0.9220 0.9210 0.9210 0.9220
10.410000 0.9220 0.9240 0.9270 0.9270 0.9270
10.440617 0.9250 0.9250 0.9250 0.9270 0.9250
10.471000 0.9250 0.9250 0.9250 0.9250 0.9240
10.501617 0.9240 0.9240 0.9240 0.9240 0.9240
10.532000 0.9220 0.9220 0.9220 0.9240 0.9240
10.562617 0.9250 0.9270 0.9270 0.9320 0.9330
10.593000 0.9330 0.9330 0.9330 0.9330 0.9320
10.623617 0.9320 0.9320 0.9330 0.9350 0.9350
10.654000 0.9360 0.9350 0.9350 0.9350 0.9330
10.684617 0.9330 0.9320 0.9300 0.9270 0.9210
10.716000 0.9180 0.9150 0.9100 0.9070 0.9040
10.746617 0.9020 0.9020 0.9040 0.9120 0.9120
10.777000 0.9130 0.9190 0.9220 0.9270 0.9270
10.807617 0.9290 0.9300 0.9320 0.9320 0.9320
10.838000 0.9320 0.9320 0.9320 0.9290 0.9270
10.868617 0.9250 0.9250 0.9210 0.9130 0.9120
10.899000 0.9100 0.9070 0.9070 0.9050 0.9040
10.929617 0.9010 0.8990 0.8990 0.8990 0.8990
10.960000 0.9020 0.9020 0.9020 0.9040 0.9040
10.990617 0.9020 0.9020 0.9020 0.9020 0.9020
11.022000 0.9020 0.9010 0.9010 0.8960 0.8900
11.052617 0.8870 0.8780 0.8710 0.8700 0.8540
11.083000 0.8330 0.8050 0.7760 0.7460 0.7200
11.113617 0.7030 0.6850 0.6250 0.6120 0.5890
11.144000 0.5830 0.5830 0.6110 0.6290 0.6540
11.174617 0.6910 0.7400 0.7600 0.7800 0.7940
11.205000 0.8050 0.8110 0.8160 0.8170 0.8250
11.235617 0.8300 0.8360 0.8440 0.8500 0.8530
11.266000 0.8620 0.8700 0.8750 0.8840 0.8930
11.296617 0.8980 0.8980 0.8990 0.8990 0.8990
11.328000 0.9010 0.9020 0.9050 0.9040 0.9040
11.358617 0.9020 0.9010 0.8990 0.8990 0.8960
11.389000 0.8960 0.8950 0.8950 0.8960 0.8980
11.419617 0.8990 0.9020 0.9100 0.9220 0.9250
11.450000 0.9250 0.9270 0.9270 0.9320 0.9320
11.480617 0.9330 0.9350 0.9350 0.9360 0.9380
11.511000 0.9380 0.9380 0.9380 0.9380 0.9390
11.541617 0.9410 0.9410 0.9410 0.9420 0.9420
11.573000 0.9440 0.9450 0.9490 0.9490 0.9490
11.603617 0.9500 0.9500 0.9500 0.9520 0.9500
11.634000 0.9500 0.9500 0.9500 0.9490 0.9470
11.664617 0.9470 0.9470 0.9470 0.9450 0.9440
11.695000 0.9420 0.9380 0.9320 0.9270 0.9210
11.725617 0.9180 0.9150 0.9050 0.8980 0.8930
11.756000 0.8880 0.8790 0.8780 0.8790 0.8790
11.786617 0.8870 0.8950 0.8990 0.9080 0.9120
11.817000 0.9150 0.9180 0.9210 0.9220 0.9240
11.847617 0.9250 0.9270 0.9250 0.9250 0.9240
11.879000 0.9240 0.9240 0.9240 0.9250 0.9330
11.909617 0.9350 0.9350 0.9380 0.9390 0.9420
11.940000 0.9420 0.9420 0.9420 0.9420 0.9420
11.970617 0.9440 0.9450 0.9470 0.9470 0.9490
12.001000 0.9520 0.9530 0.9550 0.9550 0.9550
12.031617 0.9550 0.9550 0.9550 0.9550 0.9550
12.062000 0.9550 0.9550 0.9550 0.9530 0.9550
12.092617 0.9550 0.9550 0.9550 0.9530 0.9530
12.123000 0.9530 0.9530 0.9530 0.9530 0.9530
12.153617 0.9530 0.9530 0.9530 0.9530 0.9530
12.185000 0.9530 0.9550 0.9550 0.9530 0.9530
12.215617 0.9530 0.9500 0.9450 0.9390 0.9380
12.246000 0.9360 0.9330 0.9320 0.9300 0.9290
12.276617 0.9240 0.9180 0.9150 0.9120 0.8990
12.307000 0.8960 0.8900 0.8840 0.8820 0.8820
12.337617 0.8820 0.8840 0.8880 0.8950 0.9040
12.368000 0.9120 0.9150 0.9190 0.9220 0.9240
12.398617 0.9270 0.9300 0.9330 0.9350 0.9360
12.429000 0.9380 0.9390 0.9410 0.9410 0.9420
12.459617 0.9420 0.9440 0.9450 0.9470 0.9490
12.491000 0.9490 0.9490 0.9470 0.9450 0.9440
12.521617 0.9380 0.9350 0.9330 0.9320 0.9300
12.552000 0.9270 0.9250 0.9240 0.9190 0.9180
12.582617 0.9130 0.9120 0.9120 0.9080 0.9070
12.613000 0.9070 0.9070 0.9070 0.9080 0.9130
12.643617 0.9180 0.9190 0.9210 0.9240 0.9270
12.674000 0.9300 0.9300 0.9300 0.9300 0.9300
12.704617 0.9300 0.9290 0.9290 0.9270 0.9240
12.735000 0.9160 0.9120 0.9010 0.8900 0.8850
12.765617 0.8610 0.8450 0.8340 0.8240 0.8130
12.797000 0.8000 0.7970 0.8000 0.8140 0.8280
12.827617 0.8420 0.8500 0.8780 0.8900 0.9020
12.858000 0.9040 0.9100 0.9180 0.9240 0.9330
12.888617 0.9330 0.9350 0.9350 0.9350 0.9350
12.919000 0.9360 0.9360 0.9380 0.9380 0.9390
12.949617 0.9390 0.9380 0.9380 0.9360 0.9350
12.980000 0.9350 0.9330 0.9330 0.9320 0.9320
13.010617 0.9320 0.9320 0.9330 0.9350 0.9350
13.041000 0.9350 0.9350 0.9330 0.9330 0.9330
13.071617 0.9320 0.9270 0.9270 0.9250 0.9220
13.103000 0.9150 0.9120 0.9100 0.8910 0.8810
13.133617 0.8750 0.8730 0.8710 0.8700 0.8710
13.164000 0.8730 0.8750 0.8760 0.8760 0.8760
13.194617 0.8760 0.8780 0.8780 0.8790 0.8850
13.225000 0.8900 0.8950 0.8980 0.9020 0.9040
13.255617 0.9050 0.9100 0.9100 0.9100 0.9120
13.286000 0.9120 0.9120 0.9120 0.9100 0.9100
13.316617 0.9100 0.9100 0.9100 0.9080 0.9070
13.347000 0.9050 0.9040 0.9010 0.8950 0.8900
13.377617 0.8810 0.8730 0.8680 0.8620 0.8560
13.409000 0.8470 0.8440 0.8310 0.8250 0.8170
13.439617 0.8110 0.8040 0.8000 0.7960 0.7940
13.470000 0.7910 0.7880 0.7820 0.7800 0.7800
13.500617 0.7790 0.7790 0.7770 0.7770 0.7770
13.531000 0.7760 0.7740 0.7680 0.7630 0.7620
13.561617 0.7590 0.7510 0.7430 0.7310 0.7230
13.592000 0.7160 0.7000 0.6970 0.6920 0.6770
13.622617 0.6520 0.6350 0.6150 0.5940 0.5810
13.653000 0.5300 0.5100 0.4920 0.4780 0.4620
13.683617 0.4520 0.4490 0.4500 0.4660 0.4810
13.715000 0.5030 0.5370 0.5580 0.5770 0.6110
13.745617 0.6370 0.6480 0.6580 0.6630 0.6740
13.776000 0.6750 0.6750 0.6750 0.6740 0.6740
13.806617 0.6740 0.6690 0.6550 0.6370 0.6210
13.837000 0.6000 0.5830 0.5720 0.5490 0.5160
13.867617 0.4960 0.4750 0.4500 0.4360 0.4330
13.898000 0.4330 0.4380 0.4860 0.5380 0.5920
13.928617 0.6540 0.6770 0.7250 0.7370 0.7510
13.960000 0.7680 0.7850 0.8000 0.8130 0.8300
13.990617 0.8310 0.8340 0.8420 0.8510 0.8590
14.021000 0.8620 0.8640 0.8640 0.8650 0.8680
14.051617 0.8700 0.8710 0.8790 0.8820 0.8820
14.082000 0.8820 0.8820 0.8820 0.8820 0.8820
14.112617 0.8840 0.8850 0.8870 0.8870 0.8870
14.143000 0.8870 0.8870 0.8880 0.8880 0.8880
14.173617 0.8880 0.8880 0.8880 0.8870 0.8870
14.204000 0.8850 0.8850 0.8810 0.8810 0.8780
14.234617 0.8780 0.8760 0.8760 0.8730 0.8710
14.266000 0.8700 0.8650 0.8610 0.8560 0.8510
14.296617 0.8500 0.8480 0.8440 0.8390 0.8360
14.327000 0.8340 0.8330 0.8330 0.8300 0.8300
14.357617 0.8280 0.8250 0.8250 0.8240 0.8240
14.388000 0.8240 0.8270 0.8300 0.8330 0.8340
14.418617 0.8410 0.8450 0.8480 0.8500 0.8530
14.449000 0.8580 0.8620 0.8670 0.8710 0.8730
14.479617 0.8780 0.8790 0.8840 0.8900 0.8910
14.510000 0.8910 0.8930 0.8950 0.8990 0.9020
14.540617 0.9040 0.9050 0.9100 0.9150 0.9180
14.572000 0.9190 0.9190 0.9190 0.9190 0.9210
14.602617 0.9220 0.9240 0.9270 0.9290 0.9300
14.633000 0.9300 0.9300 0.9300 0.9300 0.9320
14.663617 0.9330 0.9330 0.9330 0.9350 0.9350
14.694000 0.9360 0.9380 0.9380 0.9390 0.9390
14.724617 0.9390 0.9390 0.9390 0.9390 0.9390
14.755000 0.9410 0.9440 0.9450 0.9450 0.9470
14.785617 0.9500 0.9530 0.9530 0.9550 0.9550
14.816000 0.9530 0.9530 0.9530 0.9530 0.9530
14.846617 0.9530 0.9530 0.9530 0.9530 0.9550
14.878000 0.9550 0.9550 0.9550 0.9550 0.9550
14.908617 0.9550 0.9560 0.9560 0.9560 0.9550
14.939000 0.9550 0.9550 0.9530 0.9520 0.9520
14.969617 0.9520 0.9530 0.9530 0.9550 0.9550
15.000000 0.9560 0.9550 0.9550 0.9550 0.9550
15.030617 0.9550 0.9550 0.9550 0.9550 0.9550
15.061000 0.9530 0.9500 0.9550 0.9530
##END=
