##TITLE=1,1'-BIS[N-METHYL-N(P-AMINOPHENYL)-CARBOXAMIDO] FERROCENE
##JCAMP-DX=4.24
##DATA TYPE=INFRARED SPECTRUM
##CLASS=COBLENTZ
##ORIGIN=WYANDOTTE CHEMICALS CORP., WYANDOTTE, MICHIGAN, USA
##OWNER=COBLENTZ SOCIETY
Collection (C) 2018 copyright by the U.S. Secretary of Commerce
on behalf of the United States of America. All rights reserved.
##DATE=Not specified, most likely prior to 1970
##MOLFORM=C26 H26 Fe N4 O2
##SOURCE REFERENCE=COBLENTZ NO. 3030
##$NIST ID=B6003030
##$NIST SOURCE=COBLENTZ
##$NIST IMAGE=cob3030
##SPECTROMETER/DATA SYSTEM=Not specified, most likely a prism, grating, or hybrid spectrometer.
##STATE=SOLID (MINERAL OIL MULL)
##PATH LENGTH=
$$SPECTRAL CONTAMINATION DUE TO OIL AROUND 2900 CM^-^1
##SAMPLING PROCEDURE=TRANSMISSION
##RESOLUTION=4
##DATA PROCESSING=DIGITIZED BY NIST FROM HARD COPY
##XUNITS=MICROMETERS
##YUNITS=TRANSMITTANCE
##XFACTOR=1.000000
##YFACTOR=1
##DELTAX=000.006803
##FIRSTX=2.027
##LASTX=16.007
##FIRSTY=0.798
##MAXX=16.007
##MINX=2.027
##MAXY=0.935
##MINY=0.112
##NPOINTS=2056
##XYDATA=(X++(Y..Y))
2.027000 0.7980 0.7960 0.7950 0.7950 0.7960
2.061030 0.7960 0.7960 0.7980 0.8000 0.8050
2.095000 0.8100 0.8120 0.8120 0.8120 0.8100
2.129030 0.8100 0.8100 0.8120 0.8120 0.8130
2.163000 0.8100 0.8070 0.8020 0.8020 0.8020
2.197030 0.8000 0.8000 0.8020 0.8020 0.8120
2.231000 0.8130 0.8170 0.8120 0.8170 0.8200
2.265030 0.8220 0.8220 0.8200 0.8150 0.8150
2.299000 0.8170 0.8170 0.8170 0.8200 0.8220
2.333030 0.8220 0.8240 0.8250 0.8270 0.8290
2.367000 0.8310 0.8320 0.8320 0.8320 0.8310
2.401030 0.8320 0.8340 0.8370 0.8390 0.8390
2.435000 0.8390 0.8320 0.8320 0.8320 0.8320
2.469030 0.8320 0.8390 0.8390 0.8370 0.8370
2.503000 0.8370 0.8320 0.8320 0.8390 0.8490
2.537030 0.8530 0.8510 0.8490 0.8490 0.8460
2.571000 0.8430 0.8430 0.8430 0.8440 0.8490
2.605030 0.8540 0.8580 0.8600 0.8600 0.8600
2.639000 0.8600 0.8600 0.8600 0.8600 0.8600
2.673030 0.8580 0.8540 0.8540 0.8530 0.8510
2.707000 0.8510 0.8490 0.8480 0.8490 0.8490
2.741030 0.8530 0.8530 0.8490 0.8410 0.8370
2.776000 0.8370 0.8390 0.8430 0.8430 0.8410
2.810030 0.8370 0.8320 0.8250 0.8220 0.8240
2.844000 0.8220 0.8200 0.8100 0.7930 0.7760
2.878030 0.7660 0.7500 0.7260 0.7060 0.6670
2.912000 0.5980 0.5930 0.5970 0.6310 0.6650
2.946030 0.6990 0.7010 0.7010 0.6990 0.6910
2.980000 0.6770 0.6530 0.6210 0.5980 0.5930
3.014030 0.5050 0.4930 0.4930 0.6290 0.6990
3.048000 0.6990 0.6820 0.6530 0.6310 0.6020
3.082030 0.5810 0.5800 0.5810 0.6160 0.6510
3.116000 0.6790 0.7010 0.7230 0.7400 0.7490
3.150030 0.7500 0.7540 0.7540 0.7540 0.7550
3.184000 0.7550 0.7550 0.7550 0.7370 0.7370
3.218030 0.7420 0.7520 0.7520 0.7500 0.7440
3.252000 0.7300 0.7200 0.7160 0.7130 0.7130
3.286030 0.7500 0.7500 0.6700 0.6460 0.6120
3.320000 0.5610 0.4860 0.3920 0.3320 0.2250
3.354030 0.1650 0.1550 0.1460 0.1310 0.1260
3.388000 0.1260 0.1360 0.1820 0.2180 0.2470
3.422030 0.2710 0.2950 0.3190 0.3240 0.3310
3.456000 0.3360 0.3310 0.2910 0.2910 0.2980
3.490030 0.3310 0.3800 0.4300 0.4700 0.5710
3.524000 0.6820 0.7440 0.7790 0.7950 0.7980
3.558030 0.8000 0.8070 0.8200 0.8390 0.8510
3.592000 0.8530 0.8430 0.8430 0.8430 0.8460
3.626030 0.8480 0.8510 0.8510 0.8530 0.8510
3.660000 0.8460 0.8440 0.8430 0.8440 0.8440
3.694030 0.8440 0.8440 0.8460 0.8480 0.8510
3.728000 0.8530 0.8530 0.8560 0.8610 0.8630
3.762030 0.8720 0.8780 0.8780 0.8750 0.8680
3.796000 0.8700 0.8800 0.8700 0.8700 0.8700
3.830030 0.8720 0.8780 0.8780 0.8780 0.8780
3.864000 0.8780 0.8720 0.8720 0.8780 0.8830
3.898030 0.8800 0.8820 0.8850 0.8820 0.8830
3.932000 0.8870 0.8890 0.8990 0.9010 0.9010
3.966030 0.9010 0.8950 0.8950 0.8950 0.8950
4.000000 0.8950 0.8950 0.8950 0.8950 0.8950
4.034030 0.8950 0.8970 0.8970 0.8970 0.8970
4.068000 0.8950 0.8950 0.8950 0.8950 0.8970
4.102030 0.8970 0.8990 0.9010 0.8990 0.9010
4.136000 0.9020 0.9020 0.9040 0.9040 0.9040
4.170030 0.9040 0.9040 0.9040 0.9060 0.8990
4.204000 0.8990 0.9110 0.9010 0.9010 0.9010
4.238030 0.9010 0.9010 0.9070 0.9090 0.9110
4.272000 0.9140 0.9180 0.9180 0.9160 0.9120
4.306030 0.9110 0.9120 0.9110 0.9090 0.9090
4.340000 0.9070 0.9090 0.9110 0.9140 0.9140
4.374030 0.9140 0.9140 0.9140 0.9140 0.9140
4.408000 0.9160 0.9120 0.9120 0.9120 0.9120
4.442030 0.9190 0.9190 0.9160 0.9140 0.9120
4.476000 0.9110 0.9110 0.9120 0.9160 0.9180
4.510030 0.9180 0.9190 0.9190 0.9190 0.9180
4.544000 0.9180 0.9120 0.9090 0.9010 0.9060
4.578030 0.9070 0.9180 0.9110 0.9190 0.9110
4.612000 0.9210 0.9140 0.9230 0.9280 0.9330
4.646030 0.9330 0.9310 0.9280 0.9280 0.9260
4.680000 0.9260 0.9280 0.9310 0.9310 0.9300
4.714030 0.9300 0.9260 0.9210 0.9180 0.9180
4.748000 0.9190 0.9230 0.9240 0.9210 0.9210
4.782030 0.9210 0.9230 0.9260 0.9300 0.9310
4.816000 0.9310 0.9310 0.9300 0.9260 0.9260
4.850030 0.9280 0.9300 0.9300 0.9300 0.9260
4.884000 0.9260 0.9280 0.9280 0.9300 0.9310
4.918030 0.9330 0.9330 0.9330 0.9350 0.9330
4.952000 0.9330 0.9330 0.9310 0.9300 0.9280
4.986030 0.9260 0.9260 0.9240 0.9300 0.9300
5.020000 0.9300 0.9300 0.9280 0.9260 0.9230
5.054030 0.9210 0.9210 0.9230 0.9240 0.9240
5.088000 0.9210 0.9210 0.9230 0.9240 0.9260
5.122030 0.9300 0.9280 0.9280 0.9300 0.9300
5.156000 0.9280 0.9260 0.9260 0.9260 0.9240
5.190030 0.9230 0.9210 0.9160 0.9190 0.9210
5.224000 0.9230 0.9230 0.9230 0.9210 0.9210
5.258030 0.9280 0.9280 0.9230 0.9190 0.9180
5.293000 0.9180 0.9190 0.9240 0.9230 0.9210
5.327030 0.9190 0.9190 0.9140 0.9120 0.9120
5.361000 0.9120 0.9120 0.9140 0.9190 0.9210
5.395030 0.9210 0.9210 0.9240 0.9260 0.9260
5.429000 0.9260 0.9240 0.9230 0.9230 0.9230
5.463030 0.9230 0.9230 0.9230 0.9260 0.9260
5.497000 0.9240 0.9210 0.9180 0.9180 0.9210
5.531030 0.9210 0.9210 0.9190 0.9180 0.9180
5.565000 0.9140 0.9140 0.9180 0.9180 0.9210
5.599030 0.9210 0.9190 0.9180 0.9180 0.9160
5.633000 0.9160 0.9120 0.9120 0.9120 0.9120
5.667030 0.9120 0.9120 0.9120 0.9110 0.9160
5.701000 0.9140 0.9110 0.9110 0.9090 0.9090
5.735030 0.9060 0.9040 0.9020 0.9040 0.9020
5.769000 0.9020 0.9010 0.9010 0.8990 0.8940
5.803030 0.8900 0.8830 0.8780 0.8750 0.8730
5.837000 0.8720 0.8730 0.8750 0.8750 0.8720
5.871030 0.8720 0.8700 0.8700 0.8680 0.8660
5.905000 0.8660 0.8650 0.8600 0.8510 0.8370
5.939030 0.8240 0.8200 0.8190 0.8120 0.8030
5.973000 0.7830 0.7660 0.7470 0.7300 0.7110
6.007030 0.6910 0.6720 0.6560 0.6360 0.5900
6.041000 0.5690 0.5680 0.5660 0.5560 0.5440
6.075030 0.5110 0.4940 0.4940 0.4980 0.5150
6.109000 0.5150 0.5060 0.4790 0.4430 0.3660
6.143030 0.2380 0.1890 0.1890 0.1990 0.2500
6.177000 0.2640 0.2640 0.2160 0.1650 0.1380
6.211030 0.1160 0.1160 0.1290 0.1750 0.2320
6.245000 0.2610 0.2900 0.3030 0.3220 0.3460
6.279030 0.3750 0.4010 0.4330 0.4880 0.5320
6.313000 0.5900 0.6310 0.6600 0.6770 0.6910
6.347030 0.6990 0.7160 0.7250 0.7300 0.7330
6.381000 0.7400 0.7490 0.7490 0.7400 0.7400
6.415030 0.7440 0.7440 0.7440 0.7400 0.7320
6.449000 0.7160 0.6960 0.6700 0.6360 0.6090
6.483030 0.5760 0.5420 0.5060 0.4760 0.4500
6.517000 0.3920 0.2980 0.2090 0.1310 0.1120
6.551030 0.1120 0.1310 0.1620 0.1970 0.2370
6.585000 0.2840 0.3370 0.4020 0.4790 0.5100
6.619030 0.5520 0.5640 0.5780 0.6020 0.6090
6.653000 0.6090 0.6050 0.5980 0.5930 0.5850
6.687030 0.5660 0.5490 0.5220 0.4960 0.4740
6.721000 0.4480 0.4260 0.4070 0.3820 0.3250
6.755030 0.2860 0.2520 0.2500 0.2520 0.2520
6.789000 0.2670 0.2740 0.2860 0.2910 0.2960
6.823030 0.3000 0.3030 0.3100 0.3120 0.3220
6.857000 0.3370 0.3720 0.4010 0.4280 0.4500
6.891030 0.4720 0.4930 0.5110 0.5300 0.5510
6.925000 0.5760 0.6000 0.6240 0.6390 0.6510
6.959030 0.6620 0.6800 0.6960 0.7010 0.7040
6.993000 0.7040 0.6960 0.6560 0.6240 0.5980
7.027030 0.5510 0.5440 0.5440 0.5510 0.5640
7.061000 0.5810 0.5970 0.6070 0.6210 0.6240
7.095030 0.6240 0.6120 0.5970 0.5870 0.5800
7.129000 0.5730 0.5580 0.5340 0.4930 0.4520
7.163030 0.4240 0.4060 0.3970 0.3630 0.3610
7.197000 0.3650 0.4110 0.4230 0.4310 0.4470
7.231030 0.4650 0.4690 0.4670 0.4690 0.4700
7.265000 0.4760 0.4880 0.5150 0.5320 0.5370
7.299030 0.5490 0.5660 0.5850 0.6000 0.6050
7.333000 0.6160 0.6240 0.6310 0.6460 0.6650
7.367030 0.6820 0.6960 0.7090 0.7150 0.7210
7.401000 0.7370 0.7440 0.7490 0.7500 0.7520
7.435030 0.7590 0.7590 0.7500 0.7260 0.7150
7.469000 0.6940 0.6680 0.6670 0.6790 0.6910
7.503030 0.6920 0.6960 0.6960 0.6970 0.6990
7.537000 0.7030 0.7040 0.7060 0.7060 0.7060
7.571030 0.7090 0.7090 0.7010 0.6700 0.6360
7.605000 0.5920 0.5640 0.5390 0.5100 0.4430
7.639030 0.4120 0.3990 0.3900 0.3890 0.3920
7.673000 0.4160 0.4280 0.4650 0.5010 0.5060
7.707030 0.5060 0.5030 0.4770 0.4500 0.4310
7.741000 0.3830 0.3700 0.3700 0.3780 0.4120
7.775030 0.4530 0.4860 0.5050 0.5400 0.5680
7.810000 0.6000 0.6220 0.6390 0.6500 0.6580
7.844030 0.6670 0.6740 0.6840 0.6970 0.7030
7.878000 0.7080 0.7180 0.7210 0.7230 0.7230
7.912030 0.7250 0.7300 0.7320 0.7330 0.7440
7.946000 0.7500 0.7540 0.7550 0.7540 0.7520
7.980030 0.7550 0.7570 0.7610 0.7620 0.7660
8.014000 0.7670 0.7670 0.7660 0.7670 0.7690
8.048030 0.7730 0.7740 0.7730 0.7740 0.7740
8.082000 0.7780 0.7810 0.7860 0.7840 0.7830
8.116030 0.7780 0.7790 0.7790 0.7780 0.7740
8.150000 0.7640 0.7490 0.7300 0.7060 0.6620
8.184030 0.6220 0.6020 0.6070 0.6140 0.6450
8.218000 0.6580 0.6680 0.6740 0.6750 0.6790
8.252030 0.6820 0.6960 0.7010 0.7030 0.7010
8.286000 0.7010 0.7010 0.6970 0.6970 0.7010
8.320030 0.7160 0.7280 0.7440 0.7540 0.7620
8.354000 0.7640 0.7690 0.7710 0.7760 0.7830
8.388030 0.7880 0.7900 0.7910 0.7900 0.7860
8.422000 0.7860 0.7860 0.7840 0.7830 0.7780
8.456030 0.7690 0.7520 0.7230 0.6770 0.6460
8.490000 0.6220 0.6070 0.5920 0.5880 0.5830
8.524030 0.5830 0.6000 0.6430 0.6820 0.7110
8.558000 0.7260 0.7370 0.7440 0.7500 0.7540
8.592030 0.7520 0.7590 0.7620 0.7660 0.7690
8.626000 0.7690 0.7740 0.7740 0.7730 0.7690
8.660030 0.7690 0.7690 0.7710 0.7710 0.7730
8.694000 0.7740 0.7790 0.7810 0.7810 0.7790
8.728030 0.7810 0.7810 0.7830 0.7830 0.7810
8.762000 0.7780 0.7740 0.7660 0.7550 0.7470
8.796030 0.7450 0.7400 0.7330 0.7260 0.7200
8.830000 0.7110 0.7060 0.7010 0.6960 0.6820
8.864030 0.6750 0.6580 0.6480 0.6360 0.6240
8.898000 0.6100 0.6070 0.6050 0.6040 0.6050
8.932030 0.6070 0.6070 0.6120 0.6160 0.6190
8.966000 0.6240 0.6310 0.6410 0.6530 0.6680
9.000030 0.6800 0.6820 0.6860 0.6910 0.6990
9.034000 0.7110 0.7210 0.7210 0.7210 0.7200
9.068030 0.7200 0.7150 0.7110 0.7180 0.7180
9.102000 0.7130 0.7130 0.7130 0.7150 0.7160
9.136030 0.7180 0.7200 0.7180 0.7090 0.7010
9.170000 0.7010 0.7080 0.7090 0.7110 0.7130
9.204030 0.7210 0.7210 0.7090 0.7090 0.7110
9.238000 0.7180 0.7230 0.7230 0.7210 0.7130
9.272030 0.7110 0.7150 0.7150 0.7150 0.7150
9.306000 0.7150 0.7150 0.7110 0.7060 0.7030
9.340030 0.7010 0.7010 0.7010 0.7010 0.6990
9.374000 0.7010 0.7010 0.7040 0.7060 0.7150
9.408030 0.7200 0.7180 0.7180 0.7180 0.7200
9.442000 0.7200 0.7200 0.7230 0.7260 0.7300
9.476030 0.7320 0.7350 0.7370 0.7380 0.7380
9.510000 0.7370 0.7350 0.7370 0.7350 0.7350
9.544030 0.7320 0.7230 0.7060 0.6910 0.6750
9.578000 0.6620 0.6600 0.6620 0.6670 0.6750
9.612030 0.6940 0.7060 0.7130 0.7210 0.7250
9.646000 0.7230 0.7110 0.7060 0.7060 0.7090
9.680030 0.7180 0.7280 0.7370 0.7420 0.7490
9.714000 0.7520 0.7590 0.7620 0.7670 0.7710
9.748030 0.7710 0.7660 0.7660 0.7640 0.7640
9.782000 0.7620 0.7590 0.7550 0.7550 0.7500
9.816030 0.7490 0.7490 0.7520 0.7590 0.7620
9.850000 0.7690 0.7730 0.7740 0.7740 0.7730
9.884030 0.7730 0.7690 0.7660 0.7570 0.7570
9.918000 0.7200 0.7010 0.7010 0.7090 0.7210
9.952030 0.7280 0.7400 0.7540 0.7670 0.7730
9.986000 0.7790 0.7840 0.7880 0.7960 0.8000
10.020030 0.8020 0.8020 0.8000 0.8020 0.8030
10.054000 0.8100 0.8120 0.8170 0.8190 0.8190
10.088030 0.8220 0.8240 0.8200 0.8220 0.8240
10.122000 0.8250 0.8250 0.8220 0.8200 0.8170
10.156030 0.8150 0.8150 0.8170 0.8170 0.8170
10.190000 0.8170 0.8200 0.8220 0.8200 0.8190
10.224030 0.8170 0.8150 0.8130 0.8130 0.8120
10.259000 0.8120 0.8100 0.8080 0.8020 0.8000
10.293030 0.7980 0.7950 0.7910 0.7910 0.7880
10.327000 0.7880 0.7880 0.7880 0.7900 0.7930
10.361030 0.7960 0.7980 0.7980 0.8000 0.8020
10.395000 0.8050 0.8050 0.8070 0.8100 0.8120
10.429030 0.8120 0.8100 0.8100 0.8100 0.8100
10.463000 0.8120 0.8120 0.8130 0.8130 0.8120
10.497030 0.8120 0.8120 0.8120 0.8120 0.8120
10.531000 0.8120 0.8120 0.8120 0.8130 0.8150
10.565030 0.8150 0.8130 0.8130 0.8130 0.8120
10.599000 0.8100 0.8050 0.7980 0.7910 0.7900
10.633030 0.7900 0.7910 0.7950 0.8000 0.8020
10.667000 0.8030 0.8100 0.8100 0.8120 0.8120
10.701030 0.8130 0.8190 0.8200 0.8240 0.8250
10.735000 0.8250 0.8240 0.8200 0.8190 0.8190
10.769030 0.8190 0.8200 0.8220 0.8200 0.8200
10.803000 0.8200 0.8190 0.8150 0.8150 0.8130
10.837030 0.8130 0.8120 0.8080 0.8030 0.8000
10.871000 0.7900 0.7790 0.7710 0.7690 0.7690
10.905030 0.7710 0.7730 0.7760 0.7790 0.7810
10.939000 0.7830 0.7880 0.7910 0.7910 0.7950
10.973030 0.7950 0.7950 0.7950 0.7950 0.7950
11.007000 0.7950 0.7950 0.7950 0.7960 0.7980
11.041030 0.8020 0.8030 0.8070 0.8100 0.8100
11.075000 0.8100 0.8080 0.8070 0.8070 0.8050
11.109030 0.8050 0.8030 0.8030 0.8030 0.8030
11.143000 0.8030 0.8050 0.8070 0.8080 0.8080
11.177030 0.8130 0.8150 0.8120 0.8080 0.8080
11.211000 0.8100 0.8100 0.8100 0.8120 0.8130
11.245030 0.8190 0.8190 0.8170 0.8170 0.8150
11.279000 0.8150 0.8150 0.8130 0.8100 0.8050
11.313030 0.8020 0.8030 0.8020 0.8020 0.8000
11.347000 0.7980 0.7910 0.7910 0.7900 0.7900
11.381030 0.7880 0.7830 0.7810 0.7830 0.7830
11.415000 0.7880 0.7910 0.7910 0.7900 0.7900
11.449030 0.7900 0.7880 0.7880 0.7900 0.7900
11.483000 0.7900 0.7900 0.7900 0.7900 0.7910
11.517030 0.7910 0.7880 0.7840 0.7830 0.7810
11.551000 0.7810 0.7810 0.7790 0.7790 0.7730
11.585030 0.7670 0.7590 0.7550 0.7490 0.7470
11.619000 0.7470 0.7470 0.7490 0.7550 0.7550
11.653030 0.7500 0.7440 0.7370 0.7330 0.7280
11.687000 0.7200 0.7110 0.7010 0.6940 0.6790
11.721030 0.6630 0.6530 0.6430 0.6390 0.6380
11.755000 0.6340 0.6290 0.6190 0.6100 0.5970
11.789030 0.5830 0.5750 0.5680 0.5540 0.5470
11.823000 0.5350 0.5320 0.5320 0.5320 0.5320
11.857030 0.5350 0.5390 0.5440 0.5400 0.5390
11.891000 0.5390 0.5350 0.5350 0.5390 0.5390
11.925030 0.5370 0.5340 0.5230 0.5060 0.5000
11.959000 0.4940 0.4910 0.4930 0.4960 0.4960
11.993030 0.4980 0.4980 0.5010 0.5010 0.5000
12.027000 0.5000 0.5000 0.5000 0.4980 0.4980
12.061030 0.4980 0.5010 0.5060 0.5130 0.5230
12.095000 0.5390 0.5490 0.5590 0.5660 0.5750
12.129030 0.5830 0.5900 0.5970 0.6020 0.6050
12.163000 0.6140 0.6210 0.6260 0.6310 0.6380
12.197030 0.6430 0.6480 0.6550 0.6620 0.6680
12.231000 0.6740 0.6790 0.6890 0.6940 0.6990
12.265030 0.6990 0.6990 0.6990 0.6990 0.6940
12.299000 0.6910 0.6860 0.6800 0.6800 0.6860
12.333030 0.6910 0.6990 0.7060 0.7180 0.7280
12.367000 0.7320 0.7380 0.7440 0.7470 0.7490
12.401030 0.7590 0.7660 0.7740 0.7790 0.7790
12.435000 0.7780 0.7730 0.7690 0.7690 0.7730
12.469030 0.7900 0.7900 0.7790 0.7790 0.7840
12.503000 0.7880 0.7900 0.7960 0.8000 0.8000
12.537030 0.8000 0.8020 0.8020 0.8020 0.8020
12.571000 0.8030 0.8020 0.8000 0.7980 0.7950
12.605030 0.7950 0.7960 0.8030 0.8050 0.8050
12.639000 0.8050 0.8030 0.8020 0.8020 0.8020
12.673030 0.8020 0.8030 0.8050 0.8070 0.8070
12.707000 0.8080 0.8070 0.8070 0.8070 0.8070
12.741030 0.8070 0.8080 0.8080 0.8100 0.8100
12.776000 0.8030 0.7980 0.7960 0.7950 0.7930
12.810030 0.7930 0.7950 0.7950 0.7960 0.7980
12.844000 0.8000 0.8020 0.8000 0.8000 0.7950
12.878030 0.8000 0.7960 0.7950 0.7900 0.7900
12.912000 0.7880 0.7880 0.7860 0.7880 0.7860
12.946030 0.7830 0.7760 0.7710 0.7690 0.7670
12.980000 0.7640 0.7590 0.7520 0.7500 0.7470
13.014030 0.7440 0.7380 0.7300 0.7260 0.7180
13.048000 0.7010 0.6840 0.6670 0.6480 0.6240
13.082030 0.6040 0.5920 0.5900 0.5900 0.5950
13.116000 0.6050 0.6210 0.6360 0.6510 0.6600
13.150030 0.6750 0.6940 0.7040 0.7150 0.7200
13.184000 0.7230 0.7260 0.7300 0.7280 0.7350
13.218030 0.7400 0.7440 0.7470 0.7490 0.7500
13.252000 0.7490 0.7520 0.7520 0.7540 0.7550
13.286030 0.7570 0.7550 0.7550 0.7550 0.7550
13.320000 0.7550 0.7590 0.7590 0.7550 0.7540
13.354030 0.7500 0.7520 0.7550 0.7570 0.7570
13.388000 0.7540 0.7520 0.7520 0.7520 0.7500
13.422030 0.7500 0.7490 0.7470 0.7450 0.7420
13.456000 0.7420 0.7400 0.7420 0.7420 0.7350
13.490030 0.7320 0.7300 0.7250 0.7250 0.7230
13.524000 0.7230 0.7230 0.7200 0.7160 0.7060
13.558030 0.7010 0.6970 0.6910 0.6840 0.6800
13.592000 0.6790 0.6740 0.6670 0.6600 0.6550
13.626030 0.6510 0.6480 0.6430 0.6430 0.6460
13.660000 0.6480 0.6510 0.6530 0.6600 0.6650
13.694030 0.6700 0.6770 0.6840 0.6860 0.6920
13.728000 0.7010 0.7080 0.7090 0.7150 0.7210
13.762030 0.7230 0.7210 0.7250 0.7320 0.7330
13.796000 0.7320 0.7320 0.7300 0.7280 0.7250
13.830030 0.7230 0.7230 0.7250 0.7250 0.7250
13.864000 0.7250 0.7280 0.7280 0.7250 0.7250
13.898030 0.7210 0.7180 0.7180 0.7210 0.7260
13.932000 0.7300 0.7320 0.7320 0.7300 0.7280
13.966030 0.7250 0.7250 0.7250 0.7260 0.7260
14.000000 0.7250 0.7250 0.7280 0.7320 0.7320
14.034030 0.7300 0.7280 0.7280 0.7260 0.7260
14.068000 0.7300 0.7280 0.7250 0.7260 0.7260
14.102030 0.7260 0.7260 0.7260 0.7260 0.7250
14.136000 0.7230 0.7210 0.7200 0.7200 0.7210
14.170030 0.7210 0.7210 0.7210 0.7230 0.7230
14.204000 0.7250 0.7230 0.7210 0.7200 0.7180
14.238030 0.7150 0.7130 0.7110 0.7110 0.7130
14.272000 0.7150 0.7180 0.7200 0.7200 0.7200
14.306030 0.7180 0.7160 0.7160 0.7150 0.7110
14.340000 0.7090 0.7090 0.7080 0.7060 0.7060
14.374030 0.7040 0.7060 0.7110 0.7110 0.7090
14.408000 0.7090 0.7090 0.7090 0.7090 0.7080
14.442030 0.7080 0.7060 0.7040 0.7040 0.7030
14.476000 0.7030 0.7010 0.6990 0.6990 0.7010
14.510030 0.7010 0.7040 0.7030 0.7030 0.7030
14.544000 0.7030 0.7040 0.7040 0.7030 0.7030
14.578030 0.7030 0.7030 0.7040 0.7040 0.7040
14.612000 0.7040 0.7060 0.7060 0.7090 0.7090
14.646030 0.7040 0.6990 0.6990 0.7010 0.7080
14.680000 0.7090 0.7090 0.7110 0.7110 0.7110
14.714030 0.7110 0.7110 0.7130 0.7280 0.7280
14.748000 0.7250 0.6960 0.6960 0.6970 0.6990
14.782030 0.7010 0.7030 0.7030 0.7060 0.7080
14.816000 0.7080 0.7080 0.7090 0.7090 0.7130
14.850030 0.7130 0.7130 0.7130 0.7130 0.7130
14.884000 0.7130 0.7110 0.7110 0.7110 0.7110
14.918030 0.7110 0.7130 0.7150 0.7160 0.7180
14.952000 0.7180 0.7180 0.7160 0.7150 0.7130
14.986030 0.7110 0.7090 0.7080 0.7060 0.7040
15.020000 0.7030 0.6990 0.6960 0.6910 0.6910
15.054030 0.6960 0.7010 0.7040 0.7040 0.7010
15.088000 0.7010 0.7010 0.7110 0.7130 0.7150
15.122030 0.7150 0.7180 0.7210 0.7280 0.7300
15.156000 0.7300 0.7300 0.7300 0.7300 0.7280
15.190030 0.7280 0.7280 0.7280 0.7280 0.7280
15.224000 0.7280 0.7280 0.7300 0.7300 0.7300
15.258030 0.7300 0.7300 0.7300 0.7300 0.7300
15.293000 0.7300 0.7280 0.7280 0.7260 0.7250
15.327030 0.7250 0.7250 0.7250 0.7250 0.7250
15.361000 0.7250 0.7260 0.7280 0.7280 0.7260
15.395030 0.7250 0.7230 0.7250 0.7230 0.7210
15.429000 0.7200 0.7180 0.7150 0.7110 0.7110
15.463030 0.7110 0.7160 0.7180 0.7200 0.7180
15.497000 0.7130 0.7110 0.7110 0.7090 0.7080
15.531030 0.7040 0.7030 0.7010 0.6990 0.6970
15.565000 0.6940 0.6920 0.6910 0.6910 0.6910
15.599030 0.6910 0.6890 0.6870 0.6870 0.6860
15.633000 0.6860 0.6860 0.6860 0.6860 0.6840
15.667030 0.6820 0.6820 0.6800 0.6790 0.6770
15.701000 0.6770 0.6750 0.6740 0.6720 0.6680
15.735030 0.6670 0.6630 0.6600 0.6510 0.6480
15.769000 0.6460 0.6450 0.6390 0.6340 0.6310
15.803030 0.6290 0.6260 0.6210 0.6190 0.6160
15.837000 0.6100 0.6090 0.6050 0.6040 0.6020
15.871030 0.6000 0.5980 0.5980 0.5980 0.6000
15.905000 0.6020 0.6040 0.6050 0.6050 0.6100
15.939030 0.6120 0.6120 0.6120 0.6120 0.6160
15.973000 0.6160 0.6170 0.6210 0.6240 0.6260
16.007030 0.6270
##END=
