##TITLE=Calcium pyrophosphate, tetrabasic (Form I)
##JCAMP-DX=4.24
##DATA TYPE=INFRARED SPECTRUM
##CLASS=COBLENTZ III
##ORIGIN=COLGATE-PALMOLIVE COMPANY (KELLENBACH)
##OWNER=Copyright (C) 1987 by the Coblentz Society
Collection (C) 2018 copyright by the U.S. Secretary of Commerce
on behalf of the United States of America. All rights reserved.
##DATE=1974/02/07
##MOLFORM=O7 P2 Ca2
##SOURCE REFERENCE=COBLENTZ NO. 9794
##$NIST ID=B6009794
##$NIST SOURCE=COBLENTZ
##$NIST IMAGE=cob9794
##SPECTROMETER/DATA SYSTEM=BECKMAN IR-12 (GRATING)
##INSTRUMENT PARAMETERS=GRATING
##STATE=SOLID (1 mg / 100 mg, KBr DISC)
$$ SOURCE - MONSANTO CHEMICAL CO.
$$SPECTRAL CONTAMINATION DUE TO H2O AROUND 3440 CM^-^1
##SAMPLING PROCEDURE=TRANSMISSION
##RESOLUTION=2
##DATA PROCESSING=DIGITIZED BY COBLENTZ SOCIETY (BATCH II) FROM HARD COPY
##XUNITS=1/CM
##YUNITS=TRANSMITTANCE
##XFACTOR=1.0
##YFACTOR=1
##FIRSTX=204
##LASTX=4000
##FIRSTY=0.0669
##MAXX=4000
##MINX=204
##MAXY=0.9297
##MINY=0.0457
##NPOINTS=3797
##XYDATA=(X++(Y..Y))
204.000000 0.0669 0.0654 0.0640 0.0625 0.0610
209.000000 0.0595 0.0580 0.0564 0.0545 0.0526
214.000000 0.0506 0.0486 0.0475 0.0466 0.0457
219.000000 0.0462 0.0468 0.0474 0.0480 0.0486
224.000000 0.0491 0.0504 0.0519 0.0535 0.0550
229.000000 0.0566 0.0658 0.0764 0.0871 0.0977
234.000000 0.1083 0.1189 0.1295 0.1402 0.1508
239.000000 0.1614 0.1710 0.1762 0.1805 0.1834
244.000000 0.1852 0.1865 0.1868 0.1871 0.1874
249.000000 0.1876 0.1879 0.1883 0.1886 0.1889
254.000000 0.1892 0.1895 0.1902 0.1914 0.1926
259.000000 0.1938 0.1949 0.1983 0.2041 0.2121
264.000000 0.2147 0.2169 0.2170 0.2170 0.2170
269.000000 0.2171 0.2168 0.2162 0.2157 0.2146
274.000000 0.2131 0.2115 0.2102 0.2099 0.2099
279.000000 0.2099 0.2098 0.2100 0.2102 0.2105
284.000000 0.2107 0.2113 0.2129 0.2168 0.2260
289.000000 0.2352 0.2444 0.2536 0.2628 0.2719
294.000000 0.2811 0.2868 0.2903 0.2936 0.2959
299.000000 0.2983 0.3005 0.3020 0.3034 0.3048
304.000000 0.3055 0.3061 0.3068 0.3076 0.3089
309.000000 0.3103 0.3142 0.3250 0.3361 0.3472
314.000000 0.3582 0.3693 0.3804 0.3915 0.4025
319.000000 0.4136 0.4247 0.4358 0.4468 0.4579
324.000000 0.4690 0.4801 0.4911 0.5022 0.5133
329.000000 0.5244 0.5355 0.5408 0.5477 0.5542
334.000000 0.5605 0.5667 0.5728 0.5789 0.5845
339.000000 0.5901 0.5949 0.5983 0.6018 0.6053
344.000000 0.6087 0.6122 0.6158 0.6195 0.6231
349.000000 0.6267 0.6304 0.6335 0.6367 0.6399
354.000000 0.6431 0.6464 0.6499 0.6533 0.6567
359.000000 0.6602 0.6636 0.6679 0.6724 0.6769
364.000000 0.6813 0.6858 0.6904 0.6956 0.7009
369.000000 0.7061 0.7114 0.7167 0.7211 0.7250
374.000000 0.7289 0.7328 0.7367 0.7406 0.7449
379.000000 0.7495 0.7541 0.7587 0.7708 0.7859
384.000000 0.7961 0.8038 0.8098 0.8159 0.8219
389.000000 0.8283 0.8351 0.8419 0.8481 0.8524
394.000000 0.8568 0.8598 0.8610 0.8620 0.8624
399.000000 0.8627 0.8631 0.8634 0.8643 0.8657
404.000000 0.8679 0.8732 0.8790 0.8869 0.8932
409.000000 0.8976 0.9021 0.9044 0.9067 0.9089
414.000000 0.9092 0.9094 0.9096 0.9097 0.9099
419.000000 0.9101 0.9100 0.9098 0.9096 0.9094
424.000000 0.9092 0.9090 0.9089 0.9087 0.9083
429.000000 0.9078 0.9104 0.9068 0.9064 0.9059
434.000000 0.9053 0.9045 0.9037 0.9029 0.9021
439.000000 0.8999 0.8976 0.8944 0.8892 0.8838
444.000000 0.8777 0.8716 0.8644 0.8527 0.8408
449.000000 0.8288 0.8168 0.8049 0.7929 0.7809
454.000000 0.7689 0.7569 0.7449 0.7330 0.7275
459.000000 0.7275 0.7286 0.7369 0.7496 0.7624
464.000000 0.7751 0.7878 0.8006 0.8133 0.8224
469.000000 0.8274 0.8306 0.8322 0.8334 0.8336
474.000000 0.8339 0.8323 0.8322 0.8300 0.8269
479.000000 0.8222 0.8167 0.8068 0.7967 0.7886
484.000000 0.7822 0.7758 0.7532 0.7270 0.7009
489.000000 0.6747 0.6485 0.6223 0.5962 0.5700
494.000000 0.5438 0.5177 0.4915 0.4653 0.4514
499.000000 0.4519 0.4513 0.5046 0.5354 0.5661
504.000000 0.5968 0.6276 0.6583 0.6891 0.6973
509.000000 0.6975 0.6976 0.6971 0.6985 0.6958
514.000000 0.6947 0.6934 0.6920 0.6906 0.6885
519.000000 0.6828 0.6617 0.6406 0.6195 0.5984
524.000000 0.5773 0.5562 0.5351 0.5140 0.4929
529.000000 0.4718 0.4447 0.4455 0.4490 0.4603
534.000000 0.4716 0.4828 0.4941 0.4970 0.4897
539.000000 0.4791 0.4684 0.4578 0.4520 0.4512
544.000000 0.4596 0.4682 0.4767 0.4852 0.4938
549.000000 0.4971 0.4977 0.4866 0.4674 0.4481
554.000000 0.4289 0.4096 0.3904 0.3711 0.3518
559.000000 0.3326 0.2954 0.2852 0.2718 0.2569
564.000000 0.2438 0.2342 0.2299 0.2271 0.2251
569.000000 0.2235 0.2236 0.2212 0.2245 0.2250
574.000000 0.2259 0.2281 0.2341 0.2399 0.2445
579.000000 0.2491 0.2537 0.2582 0.2638 0.2695
584.000000 0.2752 0.2812 0.2875 0.2939 0.3004
589.000000 0.3071 0.3138 0.3250 0.3410 0.3565
594.000000 0.3701 0.3838 0.3975 0.4112 0.4249
599.000000 0.4386 0.4523 0.4659 0.4796 0.4933
604.000000 0.5070 0.5207 0.5241 0.5249 0.5255
609.000000 0.5200 0.5312 0.4847 0.4671 0.4495
614.000000 0.4318 0.4142 0.3965 0.3789 0.3658
619.000000 0.3667 0.3711 0.3891 0.4071 0.4251
624.000000 0.4431 0.4611 0.4791 0.5067 0.5585
629.000000 0.5786 0.5910 0.6028 0.6152 0.6285
634.000000 0.6419 0.6557 0.6702 0.6865 0.6994
639.000000 0.7092 0.7189 0.7286 0.7434 0.7585
644.000000 0.7657 0.7725 0.7793 0.7862 0.7926
649.000000 0.7988 0.8050 0.8113 0.8175 0.8248
654.000000 0.8365 0.8482 0.8573 0.8627 0.8681
659.000000 0.8735 0.8789 0.8841 0.8879 0.8916
664.000000 0.8953 0.8991 0.9028 0.9055 0.9076
669.000000 0.9097 0.9118 0.9139 0.9150 0.9161
674.000000 0.9171 0.9182 0.9193 0.9203 0.9214
679.000000 0.9221 0.9228 0.9234 0.9241 0.9247
684.000000 0.9252 0.9255 0.9258 0.9261 0.9264
689.000000 0.9267 0.9262 0.9258 0.9297 0.9249
694.000000 0.9244 0.9234 0.9220 0.9205 0.9184
699.000000 0.9161 0.9138 0.9110 0.9066 0.9021
704.000000 0.8970 0.8920 0.8869 0.8819 0.8768
709.000000 0.8694 0.8596 0.8492 0.8374 0.8257
714.000000 0.8142 0.7862 0.7582 0.7301 0.7021
719.000000 0.6741 0.6460 0.6180 0.5900 0.5619
724.000000 0.5339 0.5059 0.4778 0.4498 0.4218
729.000000 0.4150 0.4160 0.4276 0.4534 0.4792
734.000000 0.5051 0.5309 0.5567 0.5825 0.6084
739.000000 0.6291 0.6409 0.6526 0.6676 0.6945
744.000000 0.7452 0.7608 0.7693 0.7778 0.7863
749.000000 0.7961 0.8062 0.8171 0.8369 0.8491
754.000000 0.8569 0.8647 0.8725 0.8787 0.8847
759.000000 0.8907 0.8968 0.9005 0.9032 0.9058
764.000000 0.9085 0.9096 0.9104 0.9111 0.9114
769.000000 0.9117 0.9120 0.9123 0.9126 0.9129
774.000000 0.9132 0.9133 0.9134 0.9134 0.9134
779.000000 0.9134 0.9135 0.9135 0.9159 0.9127
784.000000 0.9122 0.9117 0.9112 0.9106 0.9097
789.000000 0.9088 0.9079 0.9068 0.9055 0.9042
794.000000 0.9029 0.9016 0.9003 0.8990 0.8976
799.000000 0.8958 0.8941 0.8923 0.8904 0.8885
804.000000 0.8865 0.8838 0.8811 0.8785 0.8758
809.000000 0.8731 0.8704 0.8678 0.8651 0.8618
814.000000 0.8582 0.8546 0.8510 0.8474 0.8444
819.000000 0.8413 0.8382 0.8352 0.8321 0.8291
824.000000 0.8267 0.8245 0.8224 0.8202 0.8181
829.000000 0.8159 0.8137 0.8116 0.8092 0.8068
834.000000 0.8044 0.8020 0.7996 0.7960 0.7916
839.000000 0.7872 0.7822 0.7742 0.7669 0.7632
844.000000 0.7595 0.7559 0.7522 0.7485 0.7447
849.000000 0.7409 0.7371 0.7333 0.7295 0.7257
854.000000 0.7219 0.7179 0.7136 0.7093 0.7051
859.000000 0.7008 0.6965 0.6923 0.6880 0.6827
864.000000 0.6771 0.6715 0.6659 0.6603 0.6547
869.000000 0.6489 0.6426 0.6362 0.6298 0.6235
874.000000 0.6171 0.6107 0.6052 0.5997 0.5942
879.000000 0.5887 0.5832 0.5777 0.5721 0.5654
884.000000 0.5586 0.5518 0.5450 0.5383 0.5319
889.000000 0.5256 0.5192 0.5129 0.5046 0.4953
894.000000 0.4860 0.4768 0.4678 0.4589 0.4499
899.000000 0.4409 0.4313 0.4217 0.4121 0.4025
904.000000 0.3928 0.3832 0.3735 0.3639 0.3511
909.000000 0.3380 0.3267 0.3201 0.3135 0.3069
914.000000 0.3004 0.2917 0.2825 0.2746 0.2716
919.000000 0.2696 0.2684 0.2671 0.2659 0.2646
924.000000 0.2632 0.2615 0.2597 0.2559 0.2470
929.000000 0.2364 0.2289 0.2239 0.2190 0.2161
934.000000 0.2132 0.2103 0.2079 0.2060 0.2041
939.000000 0.2022 0.2019 0.2016 0.2015 0.2035
944.000000 0.2020 0.2033 0.2051 0.2091 0.2130
949.000000 0.2199 0.2283 0.2363 0.2412 0.2461
954.000000 0.2506 0.2539 0.2551 0.2555 0.2558
959.000000 0.2558 0.2557 0.2579 0.2543 0.2489
964.000000 0.2416 0.2336 0.2255 0.2158 0.2047
969.000000 0.1939 0.1838 0.1737 0.1661 0.1601
974.000000 0.1555 0.1539 0.1548 0.1533 0.1537
979.000000 0.1638 0.1971 0.2305 0.2638 0.2971
984.000000 0.3305 0.3638 0.3972 0.4305 0.4638
989.000000 0.4972 0.5305 0.5638 0.5972 0.6258
994.000000 0.6263 0.6253 0.5819 0.5495 0.5171
999.000000 0.4847 0.4524 0.4200 0.3876 0.3552
1004.000000 0.3228 0.2965 0.2964 0.3202 0.3534
1009.000000 0.3866 0.4198 0.4530 0.4861 0.5193
1014.000000 0.5525 0.5857 0.6189 0.6262 0.6286
1019.000000 0.6124 0.5788 0.5453 0.5118 0.4782
1024.000000 0.4447 0.4112 0.3777 0.3441 0.3106
1029.000000 0.2771 0.2086 0.2100 0.2154 0.2719
1034.000000 0.3285 0.3850 0.4415 0.4980 0.5546
1039.000000 0.6111 0.6443 0.6463 0.6348 0.6079
1044.000000 0.5810 0.5541 0.5271 0.5116 0.5189
1049.000000 0.5325 0.5451 0.5457 0.5148 0.4813
1054.000000 0.4478 0.4144 0.3809 0.3474 0.3139
1059.000000 0.2804 0.2470 0.2273 0.2210 0.2167
1064.000000 0.2124 0.2086 0.2059 0.2057 0.2049
1069.000000 0.2087 0.2119 0.2151 0.2181 0.2206
1074.000000 0.2175 0.2164 0.2147 0.2127 0.2106
1079.000000 0.2094 0.2086 0.2087 0.2089 0.2091
1084.000000 0.2056 0.1998 0.1940 0.1883 0.1825
1089.000000 0.1821 0.1790 0.1827 0.2021 0.2216
1094.000000 0.2410 0.2604 0.2798 0.2954 0.2957
1099.000000 0.2892 0.2729 0.2566 0.2403 0.2240
1104.000000 0.2034 0.2034 0.2252 0.2509 0.2766
1109.000000 0.3023 0.3281 0.3538 0.3795 0.4052
1114.000000 0.4309 0.4567 0.4824 0.5081 0.5338
1119.000000 0.5596 0.5853 0.6110 0.6135 0.5942
1124.000000 0.5694 0.5447 0.5199 0.4952 0.4704
1129.000000 0.4456 0.4209 0.3961 0.3714 0.3466
1134.000000 0.3219 0.2971 0.2724 0.2476 0.2229
1139.000000 0.1981 0.1733 0.1551 0.1557 0.1807
1144.000000 0.2057 0.2307 0.2557 0.2807 0.2930
1149.000000 0.2965 0.2717 0.2557 0.2398 0.2238
1154.000000 0.2078 0.1918 0.1759 0.1599 0.1439
1159.000000 0.1280 0.1253 0.1276 0.1399 0.1522
1164.000000 0.1645 0.1768 0.1891 0.2014 0.2089
1169.000000 0.2040 0.1946 0.1853 0.1759 0.1666
1174.000000 0.1644 0.1650 0.1883 0.2124 0.2364
1179.000000 0.2605 0.2860 0.2844 0.2838 0.2708
1184.000000 0.2567 0.2425 0.2283 0.2142 0.2000
1189.000000 0.1858 0.1717 0.1575 0.1494 0.1541
1194.000000 0.1817 0.2092 0.2368 0.2644 0.2919
1199.000000 0.3195 0.3471 0.3746 0.3749 0.3775
1204.000000 0.3519 0.3331 0.3143 0.2955 0.2767
1209.000000 0.2579 0.2391 0.2203 0.2015 0.1827
1214.000000 0.1639 0.1451 0.1434 0.1499 0.1598
1219.000000 0.1697 0.1795 0.1894 0.1993 0.2092
1224.000000 0.2191 0.2395 0.2462 0.2530 0.2597
1229.000000 0.2654 0.2704 0.2754 0.2804 0.2855
1234.000000 0.2905 0.2955 0.3005 0.3055 0.3105
1239.000000 0.3153 0.3200 0.3246 0.3293 0.3339
1244.000000 0.3390 0.3450 0.3509 0.3569 0.3628
1249.000000 0.3675 0.3715 0.3755 0.3795 0.3835
1254.000000 0.3875 0.3910 0.3944 0.3978 0.4012
1259.000000 0.4046 0.4080 0.4114 0.4148 0.4184
1264.000000 0.4219 0.4254 0.4289 0.4325 0.4360
1269.000000 0.4394 0.4428 0.4461 0.4495 0.4529
1274.000000 0.4562 0.4596 0.4629 0.4663 0.4696
1279.000000 0.4721 0.4741 0.4761 0.4781 0.4801
1284.000000 0.4821 0.4841 0.4862 0.4882 0.4902
1289.000000 0.4922 0.4942 0.4962 0.4982 0.5001
1294.000000 0.5019 0.5037 0.5056 0.5074 0.5092
1299.000000 0.5111 0.5129 0.5148 0.5166 0.5184
1304.000000 0.5203 0.5221 0.5239 0.5258 0.5276
1309.000000 0.5295 0.5313 0.5331 0.5349 0.5366
1314.000000 0.5384 0.5402 0.5419 0.5437 0.5455
1319.000000 0.5473 0.5491 0.5509 0.5527 0.5545
1324.000000 0.5563 0.5581 0.5599 0.5617 0.5635
1329.000000 0.5653 0.5671 0.5689 0.5708 0.5726
1334.000000 0.5745 0.5764 0.5783 0.5802 0.5820
1339.000000 0.5839 0.5858 0.5877 0.5896 0.5910
1344.000000 0.5923 0.5937 0.5950 0.5964 0.5977
1349.000000 0.5990 0.6004 0.6017 0.6031 0.6044
1354.000000 0.6058 0.6071 0.6084 0.6095 0.6106
1359.000000 0.6118 0.6129 0.6140 0.6151 0.6162
1364.000000 0.6174 0.6185 0.6196 0.6207 0.6218
1369.000000 0.6230 0.6241 0.6252 0.6263 0.6274
1374.000000 0.6286 0.6296 0.6306 0.6315 0.6325
1379.000000 0.6334 0.6344 0.6353 0.6363 0.6372
1384.000000 0.6382 0.6391 0.6401 0.6410 0.6420
1389.000000 0.6429 0.6439 0.6448 0.6458 0.6466
1394.000000 0.6475 0.6483 0.6492 0.6501 0.6509
1399.000000 0.6518 0.6526 0.6535 0.6543 0.6552
1404.000000 0.6560 0.6569 0.6578 0.6586 0.6595
1409.000000 0.6604 0.6613 0.6622 0.6631 0.6640
1414.000000 0.6649 0.6658 0.6667 0.6676 0.6685
1419.000000 0.6695 0.6704 0.6713 0.6722 0.6731
1424.000000 0.6740 0.6749 0.6755 0.6761 0.6767
1429.000000 0.6773 0.6779 0.6785 0.6790 0.6796
1434.000000 0.6802 0.6808 0.6814 0.6820 0.6825
1439.000000 0.6831 0.6837 0.6843 0.6849 0.6854
1444.000000 0.6860 0.6867 0.6875 0.6883 0.6890
1449.000000 0.6898 0.6906 0.6913 0.6921 0.6929
1454.000000 0.6936 0.6944 0.6952 0.6959 0.6967
1459.000000 0.6975 0.6982 0.6990 0.6998 0.7005
1464.000000 0.7013 0.7021 0.7028 0.7035 0.7041
1469.000000 0.7047 0.7054 0.7060 0.7066 0.7072
1474.000000 0.7078 0.7083 0.7088 0.7096 0.7107
1479.000000 0.7118 0.7129 0.7140 0.7153 0.7166
1484.000000 0.7179 0.7192 0.7205 0.7213 0.7219
1489.000000 0.7226 0.7233 0.7239 0.7243 0.7242
1494.000000 0.7241 0.7240 0.7239 0.7239 0.7238
1499.000000 0.7237 0.7236 0.7235 0.7234 0.7233
1504.000000 0.7233 0.7232 0.7231 0.7229 0.7223
1509.000000 0.7237 0.7255 0.7261 0.7264 0.7267
1514.000000 0.7270 0.7273 0.7276 0.7280 0.7283
1519.000000 0.7284 0.7283 0.7283 0.7283 0.7283
1524.000000 0.7282 0.7282 0.7282 0.7282 0.7281
1529.000000 0.7285 0.7289 0.7294 0.7298 0.7303
1534.000000 0.7307 0.7312 0.7316 0.7311 0.7305
1539.000000 0.7300 0.7295 0.7289 0.7282 0.7272
1544.000000 0.7262 0.7262 0.7272 0.7281 0.7291
1549.000000 0.7301 0.7310 0.7318 0.7319 0.7320
1554.000000 0.7321 0.7322 0.7323 0.7324 0.7325
1559.000000 0.7325 0.7326 0.7319 0.7309 0.7299
1564.000000 0.7289 0.7279 0.7281 0.7291 0.7300
1569.000000 0.7316 0.7331 0.7347 0.7362 0.7377
1574.000000 0.7389 0.7402 0.7414 0.7426 0.7437
1579.000000 0.7449 0.7459 0.7465 0.7470 0.7475
1584.000000 0.7481 0.7486 0.7493 0.7500 0.7507
1589.000000 0.7514 0.7521 0.7526 0.7532 0.7538
1594.000000 0.7543 0.7549 0.7555 0.7561 0.7566
1599.000000 0.7572 0.7577 0.7580 0.7581 0.7582
1604.000000 0.7584 0.7581 0.7578 0.7576 0.7573
1609.000000 0.7570 0.7567 0.7565 0.7562 0.7558
1614.000000 0.7552 0.7547 0.7541 0.7535 0.7529
1619.000000 0.7521 0.7510 0.7500 0.7490 0.7480
1624.000000 0.7470 0.7460 0.7451 0.7445 0.7439
1629.000000 0.7433 0.7427 0.7421 0.7415 0.7413
1634.000000 0.7411 0.7410 0.7408 0.7407 0.7405
1639.000000 0.7404 0.7402 0.7405 0.7408 0.7409
1644.000000 0.7409 0.7408 0.7402 0.7396 0.7390
1649.000000 0.7384 0.7378 0.7371 0.7357 0.7342
1654.000000 0.7329 0.7319 0.7309 0.7303 0.7299
1659.000000 0.7302 0.7320 0.7361 0.7407 0.7446
1664.000000 0.7463 0.7481 0.7499 0.7514 0.7530
1669.000000 0.7532 0.7533 0.7534 0.7532 0.7525
1674.000000 0.7517 0.7512 0.7513 0.7528 0.7544
1679.000000 0.7560 0.7565 0.7567 0.7568 0.7568
1684.000000 0.7568 0.7568 0.7567 0.7566 0.7565
1689.000000 0.7564 0.7575 0.7590 0.7609 0.7628
1694.000000 0.7646 0.7663 0.7680 0.7679 0.7678
1699.000000 0.7670 0.7662 0.7653 0.7644 0.7628
1704.000000 0.7620 0.7625 0.7630 0.7638 0.7648
1709.000000 0.7657 0.7668 0.7679 0.7689 0.7698
1714.000000 0.7702 0.7705 0.7709 0.7705 0.7697
1719.000000 0.7689 0.7681 0.7670 0.7656 0.7658
1724.000000 0.7671 0.7684 0.7695 0.7705 0.7712
1729.000000 0.7713 0.7714 0.7713 0.7711 0.7709
1734.000000 0.7705 0.7696 0.7688 0.7679 0.7671
1739.000000 0.7670 0.7669 0.7669 0.7673 0.7679
1744.000000 0.7685 0.7691 0.7695 0.7700 0.7704
1749.000000 0.7708 0.7709 0.7710 0.7714 0.7720
1754.000000 0.7726 0.7732 0.7738 0.7744 0.7750
1759.000000 0.7756 0.7762 0.7771 0.7779 0.7787
1764.000000 0.7796 0.7805 0.7813 0.7818 0.7824
1769.000000 0.7830 0.7835 0.7841 0.7846 0.7852
1774.000000 0.7854 0.7856 0.7858 0.7860 0.7867
1779.000000 0.7880 0.7892 0.7905 0.7917 0.7929
1784.000000 0.7939 0.7945 0.7951 0.7952 0.7953
1789.000000 0.7953 0.7953 0.7954 0.7953 0.7951
1794.000000 0.7949 0.7938 0.7924 0.7910 0.7903
1799.000000 0.7898 0.7894 0.7890 0.7895 0.7901
1804.000000 0.7905 0.7908 0.7905 0.7901 0.7898
1809.000000 0.7894 0.7891 0.7888 0.7884 0.7881
1814.000000 0.7878 0.7875 0.7872 0.7871 0.7871
1819.000000 0.7871 0.7871 0.7871 0.7871 0.7871
1824.000000 0.7871 0.7871 0.7872 0.7873 0.7874
1829.000000 0.7875 0.7876 0.7877 0.7879 0.7880
1834.000000 0.7881 0.7882 0.7883 0.7885 0.7889
1839.000000 0.7892 0.7895 0.7899 0.7902 0.7905
1844.000000 0.7909 0.7912 0.7916 0.7922 0.7928
1849.000000 0.7935 0.7941 0.7948 0.7954 0.7960
1854.000000 0.7966 0.7972 0.7978 0.7984 0.7989
1859.000000 0.7995 0.8001 0.8007 0.8012 0.8013
1864.000000 0.8014 0.8015 0.8016 0.8017 0.8013
1869.000000 0.8019 0.8020 0.8018 0.8016 0.8013
1874.000000 0.8011 0.8007 0.8001 0.7995 0.7989
1879.000000 0.7983 0.7978 0.7974 0.7972 0.7969
1884.000000 0.7966 0.7967 0.7967 0.7968 0.7969
1889.000000 0.7970 0.7971 0.7971 0.7971 0.7971
1894.000000 0.7972 0.7972 0.7972 0.7972 0.7972
1899.000000 0.7972 0.7973 0.7973 0.7973 0.7973
1904.000000 0.7973 0.7974 0.7974 0.7974 0.7974
1909.000000 0.7974 0.7974 0.7975 0.7974 0.7974
1914.000000 0.7974 0.7974 0.7974 0.7974 0.7974
1919.000000 0.7974 0.7974 0.7974 0.7974 0.7974
1924.000000 0.7974 0.7974 0.7974 0.7974 0.7974
1929.000000 0.7974 0.7973 0.7973 0.7973 0.7973
1934.000000 0.7973 0.7973 0.7972 0.7972 0.7972
1939.000000 0.7971 0.7971 0.7970 0.7970 0.7969
1944.000000 0.7969 0.7969 0.7968 0.7968 0.7967
1949.000000 0.7967 0.7966 0.7966 0.7966 0.7965
1954.000000 0.7965 0.7964 0.7964 0.7964 0.7963
1959.000000 0.7962 0.7961 0.7960 0.7959 0.7958
1964.000000 0.7957 0.7956 0.7955 0.7954 0.7953
1969.000000 0.7952 0.7951 0.7950 0.7949 0.7948
1974.000000 0.7947 0.7946 0.7945 0.7944 0.7943
1979.000000 0.7942 0.7941 0.7940 0.7939 0.7938
1984.000000 0.7937 0.7935 0.7934 0.7933 0.7932
1989.000000 0.7931 0.7930 0.7929 0.7928 0.7926
1994.000000 0.7925 0.7923 0.7919 0.7916 0.7913
1999.000000 0.7909 0.7906 0.7896 0.7887 0.7882
2004.000000 0.7878 0.7873 0.7868 0.7863 0.7859
2009.000000 0.7854 0.7850 0.7845 0.7841 0.7836
2014.000000 0.7831 0.7826 0.7822 0.7817 0.7812
2019.000000 0.7807 0.7802 0.7797 0.7792 0.7787
2024.000000 0.7782 0.7778 0.7775 0.7774 0.7773
2029.000000 0.7771 0.7770 0.7768 0.7767 0.7766
2034.000000 0.7765 0.7763 0.7762 0.7761 0.7760
2039.000000 0.7758 0.7757 0.7755 0.7754 0.7753
2044.000000 0.7752 0.7750 0.7749 0.7748 0.7747
2049.000000 0.7746 0.7745 0.7743 0.7742 0.7741
2054.000000 0.7740 0.7739 0.7738 0.7737 0.7736
2059.000000 0.7735 0.7735 0.7734 0.7734 0.7733
2064.000000 0.7733 0.7732 0.7731 0.7730 0.7730
2069.000000 0.7729 0.7729 0.7728 0.7728 0.7727
2074.000000 0.7727 0.7726 0.7725 0.7724 0.7724
2079.000000 0.7723 0.7723 0.7722 0.7722 0.7721
2084.000000 0.7721 0.7720 0.7719 0.7719 0.7719
2089.000000 0.7718 0.7718 0.7718 0.7718 0.7717
2094.000000 0.7717 0.7717 0.7717 0.7717 0.7717
2099.000000 0.7716 0.7716 0.7716 0.7716 0.7715
2104.000000 0.7715 0.7715 0.7715 0.7715 0.7715
2109.000000 0.7714 0.7714 0.7714 0.7714 0.7713
2114.000000 0.7713 0.7713 0.7713 0.7713 0.7713
2119.000000 0.7712 0.7712 0.7711 0.7711 0.7710
2124.000000 0.7710 0.7709 0.7709 0.7708 0.7707
2129.000000 0.7706 0.7705 0.7704 0.7703 0.7702
2134.000000 0.7701 0.7700 0.7699 0.7698 0.7697
2139.000000 0.7696 0.7695 0.7694 0.7693 0.7692
2144.000000 0.7691 0.7690 0.7689 0.7688 0.7687
2149.000000 0.7686 0.7685 0.7683 0.7682 0.7681
2154.000000 0.7680 0.7679 0.7678 0.7677 0.7676
2159.000000 0.7675 0.7674 0.7673 0.7672 0.7672
2164.000000 0.7672 0.7672 0.7673 0.7673 0.7673
2169.000000 0.7673 0.7673 0.7673 0.7673 0.7673
2174.000000 0.7673 0.7673 0.7674 0.7674 0.7674
2179.000000 0.7674 0.7674 0.7674 0.7674 0.7674
2184.000000 0.7674 0.7674 0.7674 0.7674 0.7675
2189.000000 0.7675 0.7675 0.7675 0.7675 0.7675
2194.000000 0.7675 0.7675 0.7675 0.7675 0.7676
2199.000000 0.7676 0.7676 0.7676 0.7676 0.7676
2204.000000 0.7676 0.7676 0.7677 0.7678 0.7679
2209.000000 0.7679 0.7680 0.7681 0.7682 0.7682
2214.000000 0.7683 0.7684 0.7685 0.7685 0.7686
2219.000000 0.7687 0.7688 0.7688 0.7689 0.7690
2224.000000 0.7691 0.7691 0.7691 0.7691 0.7692
2229.000000 0.7692 0.7692 0.7692 0.7692 0.7692
2234.000000 0.7693 0.7693 0.7693 0.7693 0.7693
2239.000000 0.7693 0.7693 0.7693 0.7694 0.7694
2244.000000 0.7694 0.7694 0.7694 0.7694 0.7695
2249.000000 0.7695 0.7695 0.7695 0.7695 0.7695
2254.000000 0.7695 0.7695 0.7695 0.7695 0.7695
2259.000000 0.7695 0.7695 0.7695 0.7696 0.7696
2264.000000 0.7696 0.7696 0.7696 0.7696 0.7696
2269.000000 0.7696 0.7696 0.7696 0.7696 0.7696
2274.000000 0.7696 0.7696 0.7696 0.7696 0.7696
2279.000000 0.7696 0.7696 0.7696 0.7696 0.7696
2284.000000 0.7696 0.7696 0.7696 0.7696 0.7696
2289.000000 0.7696 0.7696 0.7695 0.7695 0.7693
2294.000000 0.7691 0.7689 0.7687 0.7685 0.7683
2299.000000 0.7681 0.7680 0.7678 0.7676 0.7674
2304.000000 0.7672 0.7670 0.7668 0.7666 0.7664
2309.000000 0.7662 0.7661 0.7656 0.7652 0.7648
2314.000000 0.7644 0.7640 0.7636 0.7632 0.7628
2319.000000 0.7623 0.7619 0.7615 0.7611 0.7607
2324.000000 0.7603 0.7599 0.7595 0.7591 0.7588
2329.000000 0.7584 0.7581 0.7577 0.7574 0.7570
2334.000000 0.7567 0.7563 0.7560 0.7557 0.7554
2339.000000 0.7554 0.7554 0.7554 0.7554 0.7553
2344.000000 0.7553 0.7553 0.7553 0.7553 0.7553
2349.000000 0.7553 0.7553 0.7551 0.7550 0.7550
2354.000000 0.7550 0.7549 0.7549 0.7548 0.7548
2359.000000 0.7547 0.7547 0.7547 0.7547 0.7547
2364.000000 0.7548 0.7551 0.7554 0.7558 0.7563
2369.000000 0.7571 0.7579 0.7586 0.7594 0.7601
2374.000000 0.7609 0.7617 0.7625 0.7632 0.7640
2379.000000 0.7647 0.7655 0.7662 0.7670 0.7678
2384.000000 0.7686 0.7693 0.7701 0.7704 0.7707
2389.000000 0.7707 0.7708 0.7709 0.7710 0.7711
2394.000000 0.7712 0.7712 0.7713 0.7713 0.7714
2399.000000 0.7714 0.7715 0.7715 0.7716 0.7716
2404.000000 0.7717 0.7717 0.7718 0.7719 0.7720
2409.000000 0.7720 0.7721 0.7720 0.7720 0.7719
2414.000000 0.7719 0.7719 0.7719 0.7718 0.7718
2419.000000 0.7717 0.7717 0.7717 0.7717 0.7716
2424.000000 0.7716 0.7715 0.7715 0.7715 0.7715
2429.000000 0.7714 0.7714 0.7713 0.7713 0.7712
2434.000000 0.7712 0.7711 0.7711 0.7710 0.7710
2439.000000 0.7709 0.7709 0.7708 0.7708 0.7707
2444.000000 0.7707 0.7706 0.7706 0.7705 0.7705
2449.000000 0.7704 0.7704 0.7703 0.7703 0.7703
2454.000000 0.7703 0.7702 0.7702 0.7701 0.7701
2459.000000 0.7700 0.7700 0.7700 0.7700 0.7699
2464.000000 0.7699 0.7698 0.7698 0.7698 0.7698
2469.000000 0.7697 0.7697 0.7696 0.7696 0.7695
2474.000000 0.7695 0.7695 0.7695 0.7694 0.7694
2479.000000 0.7693 0.7693 0.7693 0.7693 0.7692
2484.000000 0.7692 0.7691 0.7691 0.7690 0.7690
2489.000000 0.7690 0.7690 0.7689 0.7688 0.7687
2494.000000 0.7686 0.7685 0.7685 0.7684 0.7683
2499.000000 0.7682 0.7681 0.7680 0.7679 0.7678
2504.000000 0.7678 0.7677 0.7676 0.7675 0.7674
2509.000000 0.7673 0.7672 0.7671 0.7671 0.7670
2514.000000 0.7669 0.7668 0.7667 0.7666 0.7665
2519.000000 0.7664 0.7663 0.7662 0.7662 0.7661
2524.000000 0.7660 0.7659 0.7659 0.7658 0.7658
2529.000000 0.7657 0.7657 0.7656 0.7656 0.7655
2534.000000 0.7655 0.7655 0.7655 0.7654 0.7654
2539.000000 0.7653 0.7653 0.7652 0.7652 0.7651
2544.000000 0.7651 0.7650 0.7650 0.7649 0.7649
2549.000000 0.7648 0.7648 0.7647 0.7647 0.7646
2554.000000 0.7646 0.7646 0.7646 0.7645 0.7645
2559.000000 0.7644 0.7644 0.7643 0.7643 0.7642
2564.000000 0.7642 0.7641 0.7641 0.7640 0.7640
2569.000000 0.7640 0.7640 0.7639 0.7639 0.7639
2574.000000 0.7639 0.7638 0.7638 0.7637 0.7637
2579.000000 0.7637 0.7637 0.7636 0.7636 0.7636
2584.000000 0.7636 0.7635 0.7635 0.7635 0.7635
2589.000000 0.7634 0.7634 0.7634 0.7634 0.7633
2594.000000 0.7633 0.7632 0.7632 0.7632 0.7632
2599.000000 0.7631 0.7631 0.7631 0.7631 0.7630
2604.000000 0.7630 0.7630 0.7630 0.7629 0.7629
2609.000000 0.7628 0.7628 0.7628 0.7628 0.7627
2614.000000 0.7627 0.7626 0.7626 0.7625 0.7625
2619.000000 0.7624 0.7624 0.7623 0.7622 0.7621
2624.000000 0.7620 0.7619 0.7619 0.7618 0.7617
2629.000000 0.7616 0.7615 0.7614 0.7613 0.7612
2634.000000 0.7611 0.7610 0.7610 0.7609 0.7608
2639.000000 0.7607 0.7606 0.7605 0.7604 0.7603
2644.000000 0.7603 0.7602 0.7601 0.7600 0.7599
2649.000000 0.7598 0.7597 0.7596 0.7595 0.7594
2654.000000 0.7594 0.7593 0.7592 0.7591 0.7590
2659.000000 0.7589 0.7588 0.7587 0.7587 0.7586
2664.000000 0.7585 0.7584 0.7583 0.7582 0.7581
2669.000000 0.7580 0.7579 0.7578 0.7578 0.7577
2674.000000 0.7576 0.7575 0.7574 0.7573 0.7572
2679.000000 0.7571 0.7571 0.7570 0.7569 0.7568
2684.000000 0.7567 0.7566 0.7566 0.7565 0.7565
2689.000000 0.7564 0.7564 0.7563 0.7563 0.7562
2694.000000 0.7561 0.7560 0.7560 0.7559 0.7559
2699.000000 0.7558 0.7558 0.7557 0.7557 0.7556
2704.000000 0.7555 0.7554 0.7554 0.7553 0.7553
2709.000000 0.7552 0.7552 0.7551 0.7551 0.7550
2714.000000 0.7549 0.7548 0.7548 0.7547 0.7547
2719.000000 0.7546 0.7546 0.7545 0.7545 0.7544
2724.000000 0.7543 0.7542 0.7542 0.7541 0.7541
2729.000000 0.7540 0.7540 0.7539 0.7538 0.7537
2734.000000 0.7537 0.7536 0.7535 0.7534 0.7533
2739.000000 0.7532 0.7532 0.7531 0.7530 0.7529
2744.000000 0.7528 0.7527 0.7526 0.7525 0.7525
2749.000000 0.7524 0.7523 0.7522 0.7521 0.7520
2754.000000 0.7519 0.7518 0.7518 0.7517 0.7516
2759.000000 0.7515 0.7514 0.7513 0.7512 0.7511
2764.000000 0.7511 0.7510 0.7509 0.7508 0.7507
2769.000000 0.7506 0.7505 0.7504 0.7504 0.7503
2774.000000 0.7502 0.7501 0.7500 0.7499 0.7498
2779.000000 0.7497 0.7497 0.7496 0.7495 0.7494
2784.000000 0.7493 0.7492 0.7491 0.7490 0.7490
2789.000000 0.7489 0.7488 0.7487 0.7486 0.7485
2794.000000 0.7484 0.7483 0.7483 0.7482 0.7481
2799.000000 0.7480 0.7479 0.7478 0.7477 0.7476
2804.000000 0.7476 0.7475 0.7474 0.7473 0.7472
2809.000000 0.7471 0.7470 0.7469 0.7469 0.7468
2814.000000 0.7467 0.7466 0.7465 0.7464 0.7464
2819.000000 0.7463 0.7462 0.7461 0.7460 0.7459
2824.000000 0.7459 0.7458 0.7457 0.7456 0.7456
2829.000000 0.7455 0.7454 0.7453 0.7452 0.7451
2834.000000 0.7451 0.7450 0.7449 0.7448 0.7447
2839.000000 0.7446 0.7446 0.7445 0.7444 0.7443
2844.000000 0.7443 0.7442 0.7441 0.7440 0.7439
2849.000000 0.7438 0.7438 0.7437 0.7436 0.7435
2854.000000 0.7434 0.7433 0.7433 0.7432 0.7431
2859.000000 0.7430 0.7430 0.7429 0.7428 0.7427
2864.000000 0.7426 0.7425 0.7425 0.7424 0.7423
2869.000000 0.7422 0.7422 0.7421 0.7420 0.7419
2874.000000 0.7418 0.7417 0.7417 0.7416 0.7415
2879.000000 0.7414 0.7414 0.7413 0.7412 0.7411
2884.000000 0.7410 0.7409 0.7409 0.7408 0.7407
2889.000000 0.7406 0.7406 0.7405 0.7404 0.7403
2894.000000 0.7402 0.7401 0.7401 0.7400 0.7399
2899.000000 0.7398 0.7398 0.7397 0.7396 0.7395
2904.000000 0.7394 0.7393 0.7393 0.7392 0.7391
2909.000000 0.7390 0.7390 0.7389 0.7388 0.7387
2914.000000 0.7386 0.7385 0.7385 0.7384 0.7383
2919.000000 0.7382 0.7382 0.7381 0.7380 0.7379
2924.000000 0.7378 0.7377 0.7377 0.7376 0.7375
2929.000000 0.7374 0.7374 0.7373 0.7372 0.7371
2934.000000 0.7370 0.7369 0.7369 0.7368 0.7367
2939.000000 0.7366 0.7365 0.7364 0.7363 0.7362
2944.000000 0.7362 0.7361 0.7360 0.7359 0.7358
2949.000000 0.7357 0.7356 0.7355 0.7354 0.7353
2954.000000 0.7353 0.7352 0.7351 0.7350 0.7349
2959.000000 0.7348 0.7347 0.7346 0.7346 0.7345
2964.000000 0.7344 0.7343 0.7342 0.7341 0.7340
2969.000000 0.7339 0.7338 0.7337 0.7337 0.7336
2974.000000 0.7335 0.7334 0.7333 0.7332 0.7331
2979.000000 0.7330 0.7330 0.7329 0.7328 0.7327
2984.000000 0.7326 0.7325 0.7324 0.7323 0.7322
2989.000000 0.7321 0.7321 0.7320 0.7319 0.7318
2994.000000 0.7317 0.7316 0.7315 0.7314 0.7314
2999.000000 0.7313 0.7312 0.7311 0.7310 0.7309
3004.000000 0.7308 0.7307 0.7306 0.7305 0.7305
3009.000000 0.7304 0.7303 0.7302 0.7301 0.7300
3014.000000 0.7299 0.7298 0.7298 0.7297 0.7296
3019.000000 0.7295 0.7294 0.7293 0.7292 0.7291
3024.000000 0.7290 0.7289 0.7289 0.7288 0.7287
3029.000000 0.7286 0.7285 0.7284 0.7283 0.7282
3034.000000 0.7282 0.7281 0.7280 0.7279 0.7279
3039.000000 0.7278 0.7278 0.7277 0.7277 0.7276
3044.000000 0.7275 0.7274 0.7274 0.7273 0.7273
3049.000000 0.7272 0.7272 0.7271 0.7270 0.7269
3054.000000 0.7269 0.7268 0.7268 0.7267 0.7267
3059.000000 0.7266 0.7265 0.7264 0.7264 0.7263
3064.000000 0.7263 0.7262 0.7262 0.7261 0.7260
3069.000000 0.7259 0.7259 0.7258 0.7258 0.7257
3074.000000 0.7256 0.7255 0.7255 0.7254 0.7254
3079.000000 0.7253 0.7253 0.7252 0.7251 0.7250
3084.000000 0.7250 0.7249 0.7249 0.7248 0.7248
3089.000000 0.7247 0.7246 0.7245 0.7245 0.7244
3094.000000 0.7244 0.7243 0.7243 0.7242 0.7241
3099.000000 0.7240 0.7240 0.7239 0.7239 0.7238
3104.000000 0.7238 0.7237 0.7237 0.7236 0.7235
3109.000000 0.7234 0.7234 0.7233 0.7233 0.7232
3114.000000 0.7232 0.7231 0.7231 0.7230 0.7230
3119.000000 0.7229 0.7229 0.7228 0.7228 0.7227
3124.000000 0.7227 0.7226 0.7226 0.7225 0.7225
3129.000000 0.7224 0.7223 0.7222 0.7222 0.7221
3134.000000 0.7221 0.7220 0.7220 0.7219 0.7219
3139.000000 0.7218 0.7218 0.7217 0.7217 0.7216
3144.000000 0.7216 0.7215 0.7214 0.7211 0.7209
3149.000000 0.7206 0.7203 0.7200 0.7198 0.7195
3154.000000 0.7192 0.7189 0.7186 0.7183 0.7181
3159.000000 0.7178 0.7175 0.7172 0.7170 0.7167
3164.000000 0.7164 0.7161 0.7159 0.7156 0.7153
3169.000000 0.7150 0.7148 0.7145 0.7142 0.7140
3174.000000 0.7138 0.7136 0.7135 0.7133 0.7131
3179.000000 0.7129 0.7127 0.7125 0.7123 0.7121
3184.000000 0.7119 0.7117 0.7115 0.7113 0.7112
3189.000000 0.7110 0.7108 0.7106 0.7104 0.7102
3194.000000 0.7100 0.7098 0.7096 0.7094 0.7092
3199.000000 0.7090 0.7089 0.7087 0.7085 0.7083
3204.000000 0.7082 0.7080 0.7078 0.7076 0.7075
3209.000000 0.7073 0.7072 0.7070 0.7068 0.7066
3214.000000 0.7065 0.7063 0.7061 0.7059 0.7058
3219.000000 0.7056 0.7055 0.7053 0.7051 0.7049
3224.000000 0.7048 0.7046 0.7044 0.7042 0.7041
3229.000000 0.7039 0.7038 0.7036 0.7034 0.7032
3234.000000 0.7031 0.7029 0.7027 0.7025 0.7024
3239.000000 0.7022 0.7021 0.7019 0.7017 0.7015
3244.000000 0.7013 0.7011 0.7009 0.7007 0.7005
3249.000000 0.7003 0.7001 0.6999 0.6997 0.6995
3254.000000 0.6993 0.6991 0.6989 0.6987 0.6985
3259.000000 0.6983 0.6981 0.6979 0.6977 0.6975
3264.000000 0.6973 0.6971 0.6969 0.6967 0.6965
3269.000000 0.6963 0.6961 0.6959 0.6957 0.6955
3274.000000 0.6953 0.6951 0.6949 0.6947 0.6945
3279.000000 0.6943 0.6941 0.6939 0.6937 0.6934
3284.000000 0.6932 0.6929 0.6926 0.6923 0.6920
3289.000000 0.6917 0.6914 0.6911 0.6908 0.6905
3294.000000 0.6902 0.6899 0.6896 0.6893 0.6890
3299.000000 0.6887 0.6884 0.6881 0.6878 0.6875
3304.000000 0.6872 0.6869 0.6866 0.6863 0.6860
3309.000000 0.6857 0.6854 0.6851 0.6848 0.6845
3314.000000 0.6842 0.6839 0.6836 0.6833 0.6830
3319.000000 0.6827 0.6824 0.6821 0.6818 0.6814
3324.000000 0.6810 0.6805 0.6801 0.6796 0.6791
3329.000000 0.6786 0.6781 0.6776 0.6772 0.6767
3334.000000 0.6762 0.6757 0.6752 0.6747 0.6742
3339.000000 0.6737 0.6733 0.6728 0.6723 0.6718
3344.000000 0.6713 0.6708 0.6704 0.6699 0.6694
3349.000000 0.6689 0.6684 0.6678 0.6673 0.6667
3354.000000 0.6662 0.6656 0.6650 0.6644 0.6639
3359.000000 0.6633 0.6628 0.6622 0.6617 0.6611
3364.000000 0.6606 0.6600 0.6594 0.6588 0.6583
3369.000000 0.6577 0.6572 0.6566 0.6561 0.6555
3374.000000 0.6549 0.6543 0.6537 0.6531 0.6525
3379.000000 0.6519 0.6513 0.6507 0.6501 0.6494
3384.000000 0.6488 0.6482 0.6476 0.6470 0.6464
3389.000000 0.6458 0.6452 0.6447 0.6442 0.6438
3394.000000 0.6434 0.6430 0.6426 0.6422 0.6418
3399.000000 0.6414 0.6410 0.6406 0.6402 0.6398
3404.000000 0.6394 0.6391 0.6388 0.6387 0.6386
3409.000000 0.6384 0.6383 0.6382 0.6381 0.6379
3414.000000 0.6378 0.6376 0.6375 0.6374 0.6373
3419.000000 0.6371 0.6370 0.6368 0.6367 0.6366
3424.000000 0.6365 0.6364 0.6363 0.6362 0.6361
3429.000000 0.6360 0.6360 0.6359 0.6358 0.6357
3434.000000 0.6357 0.6356 0.6355 0.6354 0.6354
3439.000000 0.6353 0.6352 0.6351 0.6351 0.6350
3444.000000 0.6349 0.6349 0.6349 0.6349 0.6349
3449.000000 0.6349 0.6349 0.6349 0.6349 0.6349
3454.000000 0.6349 0.6349 0.6349 0.6349 0.6349
3459.000000 0.6349 0.6350 0.6351 0.6352 0.6352
3464.000000 0.6353 0.6353 0.6354 0.6355 0.6356
3469.000000 0.6356 0.6357 0.6358 0.6359 0.6359
3474.000000 0.6360 0.6361 0.6362 0.6362 0.6363
3479.000000 0.6364 0.6365 0.6366 0.6368 0.6370
3484.000000 0.6372 0.6373 0.6375 0.6376 0.6378
3489.000000 0.6379 0.6381 0.6382 0.6384 0.6385
3494.000000 0.6387 0.6389 0.6391 0.6392 0.6394
3499.000000 0.6395 0.6397 0.6398 0.6400 0.6401
3504.000000 0.6403 0.6405 0.6407 0.6408 0.6410
3509.000000 0.6412 0.6414 0.6416 0.6419 0.6421
3514.000000 0.6423 0.6425 0.6428 0.6430 0.6432
3519.000000 0.6434 0.6436 0.6438 0.6441 0.6443
3524.000000 0.6445 0.6447 0.6450 0.6452 0.6454
3529.000000 0.6456 0.6459 0.6461 0.6463 0.6465
3534.000000 0.6468 0.6470 0.6472 0.6474 0.6477
3539.000000 0.6479 0.6482 0.6484 0.6486 0.6488
3544.000000 0.6491 0.6493 0.6496 0.6498 0.6500
3549.000000 0.6502 0.6505 0.6507 0.6510 0.6512
3554.000000 0.6514 0.6516 0.6519 0.6521 0.6524
3559.000000 0.6526 0.6529 0.6532 0.6536 0.6540
3564.000000 0.6544 0.6548 0.6552 0.6556 0.6560
3569.000000 0.6564 0.6568 0.6572 0.6577 0.6584
3574.000000 0.6592 0.6600 0.6608 0.6615 0.6623
3579.000000 0.6624 0.6625 0.6626 0.6627 0.6628
3584.000000 0.6629 0.6628 0.6628 0.6627 0.6627
3589.000000 0.6626 0.6626 0.6625 0.6625 0.6624
3594.000000 0.6624 0.6623 0.6623 0.6624 0.6625
3599.000000 0.6627 0.6629 0.6631 0.6633 0.6635
3604.000000 0.6638 0.6641 0.6644 0.6647 0.6650
3609.000000 0.6653 0.6656 0.6659 0.6663 0.6666
3614.000000 0.6669 0.6672 0.6675 0.6679 0.6683
3619.000000 0.6687 0.6691 0.6694 0.6698 0.6702
3624.000000 0.6706 0.6710 0.6714 0.6717 0.6721
3629.000000 0.6725 0.6729 0.6731 0.6733 0.6735
3634.000000 0.6737 0.6739 0.6741 0.6742 0.6744
3639.000000 0.6746 0.6748 0.6748 0.6749 0.6749
3644.000000 0.6749 0.6748 0.6748 0.6748 0.6748
3649.000000 0.6747 0.6747 0.6747 0.6747 0.6746
3654.000000 0.6746 0.6750 0.6754 0.6759 0.6765
3659.000000 0.6770 0.6776 0.6782 0.6788 0.6793
3664.000000 0.6799 0.6804 0.6810 0.6815 0.6821
3669.000000 0.6826 0.6832 0.6838 0.6844 0.6847
3674.000000 0.6850 0.6851 0.6853 0.6854 0.6856
3679.000000 0.6857 0.6859 0.6860 0.6861 0.6862
3684.000000 0.6864 0.6864 0.6865 0.6865 0.6866
3689.000000 0.6866 0.6866 0.6866 0.6866 0.6866
3694.000000 0.6867 0.6867 0.6867 0.6867 0.6867
3699.000000 0.6867 0.6867 0.6866 0.6866 0.6866
3704.000000 0.6866 0.6865 0.6865 0.6862 0.6860
3709.000000 0.6857 0.6855 0.6853 0.6851 0.6848
3714.000000 0.6846 0.6843 0.6841 0.6841 0.6841
3719.000000 0.6841 0.6841 0.6840 0.6840 0.6839
3724.000000 0.6838 0.6837 0.6836 0.6835 0.6835
3729.000000 0.6834 0.6833 0.6832 0.6831 0.6830
3734.000000 0.6829 0.6828 0.6827 0.6824 0.6821
3739.000000 0.6817 0.6814 0.6810 0.6807 0.6803
3744.000000 0.6800 0.6797 0.6794 0.6790 0.6787
3749.000000 0.6783 0.6780 0.6776 0.6773 0.6773
3754.000000 0.6774 0.6774 0.6774 0.6774 0.6774
3759.000000 0.6774 0.6775 0.6775 0.6775 0.6775
3764.000000 0.6775 0.6776 0.6777 0.6780 0.6784
3769.000000 0.6787 0.6791 0.6794 0.6798 0.6801
3774.000000 0.6805 0.6808 0.6812 0.6815 0.6819
3779.000000 0.6822 0.6826 0.6828 0.6830 0.6830
3784.000000 0.6830 0.6829 0.6829 0.6828 0.6828
3789.000000 0.6828 0.6828 0.6827 0.6827 0.6826
3794.000000 0.6825 0.6822 0.6820 0.6817 0.6815
3799.000000 0.6812 0.6810 0.6807 0.6805 0.6802
3804.000000 0.6800 0.6797 0.6795 0.6793 0.6791
3809.000000 0.6788 0.6786 0.6783 0.6781 0.6779
3814.000000 0.6777 0.6775 0.6774 0.6772 0.6770
3819.000000 0.6768 0.6766 0.6764 0.6763 0.6761
3824.000000 0.6759 0.6757 0.6756 0.6754 0.6752
3829.000000 0.6750 0.6749 0.6747 0.6745 0.6743
3834.000000 0.6742 0.6740 0.6738 0.6736 0.6735
3839.000000 0.6734 0.6733 0.6732 0.6731 0.6730
3844.000000 0.6729 0.6728 0.6728 0.6727 0.6726
3849.000000 0.6725 0.6724 0.6723 0.6723 0.6722
3854.000000 0.6721 0.6720 0.6719 0.6718 0.6718
3859.000000 0.6717 0.6716 0.6715 0.6714 0.6713
3864.000000 0.6713 0.6712 0.6711 0.6710 0.6710
3869.000000 0.6709 0.6709 0.6708 0.6708 0.6707
3874.000000 0.6707 0.6707 0.6707 0.6706 0.6706
3879.000000 0.6705 0.6705 0.6704 0.6704 0.6704
3884.000000 0.6704 0.6703 0.6703 0.6702 0.6702
3889.000000 0.6701 0.6701 0.6701 0.6701 0.6700
3894.000000 0.6700 0.6701 0.6702 0.6703 0.6704
3899.000000 0.6705 0.6707 0.6708 0.6709 0.6710
3904.000000 0.6712 0.6713 0.6715 0.6716 0.6717
3909.000000 0.6718 0.6720 0.6721 0.6722 0.6723
3914.000000 0.6725 0.6726 0.6727 0.6727 0.6728
3919.000000 0.6728 0.6729 0.6729 0.6730 0.6730
3924.000000 0.6731 0.6730 0.6729 0.6728 0.6728
3929.000000 0.6727 0.6727 0.6726 0.6726 0.6725
3934.000000 0.6725 0.6724 0.6724 0.6723 0.6723
3939.000000 0.6722 0.6721 0.6721 0.6721 0.6720
3944.000000 0.6720 0.6719 0.6719 0.6718 0.6718
3949.000000 0.6717 0.6717 0.6716 0.6716 0.6715
3954.000000 0.6715 0.6714 0.6714 0.6714 0.6714
3959.000000 0.6713 0.6712 0.6711 0.6710 0.6709
3964.000000 0.6709 0.6708 0.6707 0.6706 0.6705
3969.000000 0.6704 0.6703 0.6702 0.6701 0.6700
3974.000000 0.6699 0.6698 0.6697 0.6696 0.6695
3979.000000 0.6694 0.6693 0.6692 0.6691 0.6690
3984.000000 0.6689 0.6688 0.6687 0.6686 0.6686
3989.000000 0.6685 0.6684 0.6683 0.6682 0.6681
3994.000000 0.6680 0.6679 0.6678 0.6677 0.6676
3999.000000 0.6675 0.6675
##END=
