##TITLE=o-METHOXYBENZOYL RUTHENOCENE
##JCAMP-DX=4.24
##DATA TYPE=INFRARED SPECTRUM
##CLASS=COBLENTZ
##ORIGIN=WYANDOTTE CHEMICALS CORP., WYANDOTTE, MICHIGAN, USA
##OWNER=COBLENTZ SOCIETY
Collection (C) 2018 copyright by the U.S. Secretary of Commerce
on behalf of the United States of America. All rights reserved.
##DATE=Not specified, most likely prior to 1970
##MOLFORM=C18 H16 O2 Ru
##SOURCE REFERENCE=COBLENTZ NO. 3142
##$NIST ID=B6003142
##$NIST SOURCE=COBLENTZ
##$NIST IMAGE=cob3142
##SPECTROMETER/DATA SYSTEM=Not specified, most likely a prism, grating, or hybrid spectrometer.
##STATE=SOLID (MINERAL OIL MULL)
##PATH LENGTH=
$$SPECTRAL CONTAMINATION DUE TO OIL AROUND 2900 CM^-^1
##SAMPLING PROCEDURE=TRANSMISSION
##RESOLUTION=4
##DATA PROCESSING=DIGITIZED BY NIST FROM HARD COPY
##XUNITS=MICROMETERS
##YUNITS=TRANSMITTANCE
##XFACTOR=1.000000
##YFACTOR=1
##DELTAX=000.006809
##FIRSTX=2.02
##LASTX=15.98
##FIRSTY=0.446
##MAXX=15.98
##MINX=2.02
##MAXY=0.96
##MINY=0.01
##NPOINTS=2051
##XYDATA=(X++(Y..Y))
2.020000 0.4460 0.4500 0.4500 0.4520 0.4530
2.054063 0.4550 0.4570 0.4570 0.4580 0.4580
2.089000 0.4570 0.4570 0.4570 0.4580 0.4570
2.123063 0.4570 0.4580 0.4580 0.4580 0.4600
2.157000 0.4600 0.4640 0.4650 0.4650 0.4670
2.191063 0.4670 0.4670 0.4670 0.4670 0.4670
2.225000 0.4670 0.4670 0.4670 0.4690 0.4690
2.259063 0.4720 0.4740 0.4760 0.4770 0.4770
2.293000 0.4770 0.4770 0.4770 0.4770 0.4770
2.327063 0.4770 0.4770 0.4790 0.4790 0.4810
2.361000 0.4820 0.4840 0.4880 0.4880 0.4880
2.395063 0.4910 0.4930 0.4960 0.4980 0.5010
2.429000 0.5010 0.5010 0.5010 0.5000 0.5000
2.463063 0.5000 0.5000 0.4980 0.4980 0.4980
2.497000 0.4980 0.4980 0.5000 0.5010 0.5010
2.531063 0.5010 0.5030 0.5050 0.5060 0.5100
2.565000 0.5130 0.5170 0.5200 0.5220 0.5220
2.599063 0.5180 0.5180 0.5180 0.5180 0.5200
2.633000 0.5220 0.5250 0.5290 0.5320 0.5340
2.667063 0.5350 0.5370 0.5370 0.5370 0.5390
2.701000 0.5390 0.5390 0.5390 0.5390 0.5410
2.735063 0.5420 0.5440 0.5460 0.5460 0.5460
2.769000 0.5460 0.5470 0.5470 0.5470 0.5460
2.803063 0.5460 0.5460 0.5470 0.5470 0.5470
2.838000 0.5460 0.5470 0.5470 0.5470 0.5490
2.872063 0.5490 0.5510 0.5530 0.5540 0.5580
2.906000 0.5560 0.5540 0.5540 0.5530 0.5510
2.940063 0.5530 0.5530 0.5540 0.5560 0.5560
2.974000 0.5580 0.5580 0.5580 0.5580 0.5580
3.008063 0.5580 0.5580 0.5580 0.5580 0.5580
3.042000 0.5580 0.5560 0.5560 0.5540 0.5530
3.076063 0.5510 0.5490 0.5510 0.5510 0.5530
3.110000 0.5540 0.5560 0.5540 0.5510 0.5490
3.144063 0.5460 0.5460 0.5440 0.5410 0.5390
3.178000 0.5320 0.5290 0.5290 0.5270 0.5180
3.212063 0.5100 0.5000 0.4760 0.4480 0.4460
3.246000 0.4500 0.4600 0.4690 0.4700 0.4690
3.280063 0.4600 0.4580 0.4500 0.4450 0.4340
3.314000 0.4160 0.3950 0.3610 0.3390 0.2910
3.348063 0.2290 0.1600 0.0970 0.0460 0.0220
3.382000 0.0110 0.0110 0.0100 0.0100 0.0100
3.416063 0.0100 0.0100 0.0110 0.0170 0.0230
3.450000 0.0350 0.0510 0.0630 0.0730 0.0780
3.484063 0.0800 0.0800 0.0710 0.0730 0.0800
3.518000 0.1090 0.1590 0.2340 0.3160 0.4000
3.552063 0.4810 0.5410 0.5920 0.6260 0.6450
3.587000 0.6500 0.6600 0.6710 0.6760 0.6790
3.621063 0.6830 0.6840 0.6900 0.6900 0.6930
3.655000 0.6960 0.6930 0.6910 0.6900 0.6810
3.689063 0.6720 0.6690 0.6690 0.6690 0.6710
3.723000 0.6740 0.6760 0.6790 0.6810 0.6810
3.757063 0.6830 0.6840 0.6840 0.6860 0.6900
3.791000 0.6910 0.6930 0.6950 0.6980 0.6980
3.825063 0.7000 0.7000 0.7020 0.7030 0.7030
3.859000 0.7030 0.7050 0.7070 0.7080 0.7100
3.893063 0.7120 0.7140 0.7150 0.7150 0.7170
3.927000 0.7170 0.7170 0.7190 0.7220 0.7290
3.961063 0.7310 0.7320 0.7320 0.7340 0.7340
3.995000 0.7360 0.7360 0.7380 0.7380 0.7380
4.029063 0.7380 0.7390 0.7390 0.7380 0.7380
4.063000 0.7380 0.7380 0.7380 0.7380 0.7380
4.097063 0.7360 0.7360 0.7380 0.7380 0.7390
4.131000 0.7410 0.7410 0.7430 0.7430 0.7430
4.165063 0.7430 0.7430 0.7430 0.7430 0.7440
4.199000 0.7480 0.7500 0.7500 0.7510 0.7510
4.233063 0.7530 0.7510 0.7500 0.7500 0.7440
4.268000 0.7410 0.7380 0.7360 0.7360 0.7360
4.302063 0.7380 0.7380 0.7390 0.7410 0.7460
4.336000 0.7480 0.7500 0.7510 0.7530 0.7550
4.370063 0.7580 0.7610 0.7670 0.7700 0.7790
4.404000 0.7800 0.7800 0.7800 0.7800 0.7800
4.438063 0.7800 0.7800 0.7800 0.7790 0.7790
4.472000 0.7800 0.7800 0.7800 0.7800 0.7820
4.506063 0.7840 0.7820 0.7820 0.7800 0.7800
4.540000 0.7790 0.7790 0.7820 0.7870 0.7910
4.574063 0.7920 0.7960 0.7990 0.7990 0.8010
4.608000 0.8010 0.8030 0.8040 0.8060 0.8080
4.642063 0.8080 0.8090 0.8090 0.8090 0.8110
4.676000 0.8130 0.8180 0.8180 0.8180 0.8200
4.710063 0.8200 0.8200 0.8200 0.8210 0.8230
4.744000 0.8270 0.8280 0.8280 0.8300 0.8330
4.778063 0.8330 0.8330 0.8330 0.8320 0.8330
4.812000 0.8330 0.8330 0.8350 0.8350 0.8350
4.846063 0.8350 0.8370 0.8390 0.8390 0.8390
4.880000 0.8390 0.8390 0.8390 0.8370 0.8390
4.914063 0.8390 0.8390 0.8390 0.8390 0.8390
4.948000 0.8390 0.8390 0.8420 0.8440 0.8450
4.982063 0.8470 0.8470 0.8470 0.8450 0.8440
5.017000 0.8440 0.8420 0.8420 0.8440 0.8490
5.051063 0.8490 0.8540 0.8560 0.8570 0.8590
5.085000 0.8590 0.8590 0.8610 0.8630 0.8630
5.119063 0.8630 0.8630 0.8640 0.8640 0.8640
5.153000 0.8660 0.8660 0.8680 0.8680 0.8690
5.187063 0.8680 0.8640 0.8570 0.8520 0.8610
5.221000 0.8640 0.8660 0.8680 0.8690 0.8690
5.255063 0.8690 0.8710 0.8710 0.8710 0.8710
5.289000 0.8690 0.8680 0.8680 0.8690 0.8690
5.323063 0.8710 0.8710 0.8730 0.8730 0.8730
5.357000 0.8800 0.8850 0.8860 0.8880 0.8850
5.391063 0.8850 0.8860 0.8900 0.8900 0.8920
5.425000 0.8970 0.8980 0.8980 0.8980 0.8970
5.459063 0.8980 0.8980 0.8980 0.8980 0.9000
5.493000 0.9020 0.8980 0.8930 0.8930 0.8950
5.527063 0.8980 0.9000 0.9020 0.8980 0.8970
5.561000 0.8970 0.8920 0.8920 0.8860 0.8810
5.595063 0.8780 0.8730 0.8710 0.8710 0.8710
5.629000 0.8760 0.8780 0.8800 0.8810 0.8810
5.663063 0.8830 0.8830 0.8830 0.8880 0.8970
5.697000 0.9020 0.9050 0.9020 0.8980 0.8980
5.731063 0.8970 0.8970 0.8970 0.8970 0.8970
5.766000 0.8970 0.8970 0.8970 0.8970 0.8970
5.800063 0.9020 0.9000 0.8970 0.8930 0.8880
5.834000 0.8930 0.8970 0.8930 0.8900 0.8850
5.868063 0.8810 0.8780 0.8750 0.8750 0.8750
5.902000 0.8760 0.8780 0.8780 0.8780 0.8760
5.936063 0.8760 0.8750 0.8750 0.8710 0.8680
5.970000 0.8560 0.8450 0.8280 0.8030 0.7840
6.004063 0.7410 0.6830 0.6110 0.5350 0.4600
6.038000 0.3900 0.3330 0.2940 0.2430 0.1930
6.072063 0.1840 0.1900 0.2380 0.2960 0.3400
6.106000 0.3730 0.4050 0.4640 0.5340 0.5700
6.140063 0.5870 0.5990 0.6140 0.6280 0.6430
6.174000 0.6640 0.6830 0.6980 0.7020 0.7070
6.208063 0.7070 0.6790 0.6540 0.6040 0.5460
6.242000 0.4860 0.4760 0.5000 0.5660 0.6070
6.276063 0.6430 0.6660 0.6760 0.6760 0.6780
6.310000 0.6790 0.6880 0.7030 0.7170 0.7270
6.344063 0.7390 0.7530 0.7580 0.7630 0.7670
6.378000 0.7720 0.7730 0.7800 0.7940 0.8040
6.412063 0.8150 0.8200 0.8210 0.8270 0.8270
6.446000 0.8270 0.8200 0.8200 0.8210 0.8270
6.480063 0.8320 0.8390 0.8440 0.8470 0.8490
6.515000 0.8520 0.8540 0.8540 0.8560 0.8570
6.549063 0.8560 0.8570 0.8570 0.8590 0.8610
6.583000 0.8610 0.8590 0.8560 0.8520 0.8490
6.617063 0.8470 0.8470 0.8420 0.8370 0.8280
6.651000 0.8180 0.8090 0.8080 0.8010 0.7910
6.685063 0.7700 0.7270 0.6790 0.6060 0.5250
6.719000 0.4400 0.3920 0.3920 0.3980 0.4400
6.753063 0.4600 0.4700 0.4740 0.4740 0.4580
6.787000 0.4290 0.3590 0.2850 0.2410 0.2000
6.821063 0.1760 0.1540 0.1450 0.1420 0.1450
6.855000 0.1480 0.1500 0.1540 0.1570 0.1640
6.889063 0.1740 0.1880 0.1980 0.2050 0.2260
6.923000 0.2460 0.2730 0.2960 0.3150 0.3300
6.957063 0.3390 0.3510 0.3610 0.3860 0.4220
6.991000 0.4570 0.5000 0.5850 0.6350 0.6550
7.025063 0.6740 0.6880 0.6950 0.7050 0.7070
7.059000 0.7070 0.7020 0.6840 0.6640 0.6360
7.093063 0.6310 0.6300 0.6310 0.6550 0.6840
7.127000 0.7190 0.7360 0.7500 0.7550 0.7550
7.161063 0.7510 0.7390 0.7150 0.6900 0.6790
7.196000 0.6470 0.6330 0.6310 0.6260 0.6140
7.230063 0.5950 0.5700 0.5440 0.5130 0.4860
7.264000 0.4640 0.4400 0.4100 0.3900 0.3590
7.298063 0.3390 0.3390 0.3450 0.3950 0.4410
7.332000 0.5000 0.5490 0.5900 0.6230 0.6590
7.366063 0.6740 0.6830 0.6900 0.6910 0.6980
7.400000 0.6910 0.6840 0.6760 0.6690 0.6600
7.434063 0.6550 0.6550 0.6590 0.6720 0.6860
7.468000 0.7050 0.7390 0.7560 0.7790 0.7960
7.502063 0.8060 0.8210 0.8320 0.8420 0.8490
7.536000 0.8520 0.8590 0.8630 0.8660 0.8660
7.570063 0.8630 0.8630 0.8610 0.8630 0.8610
7.604000 0.8590 0.8560 0.8570 0.8570 0.8520
7.638063 0.8450 0.8250 0.8010 0.7700 0.7440
7.672000 0.7170 0.6950 0.6590 0.6130 0.5560
7.706063 0.4980 0.4410 0.3850 0.3270 0.2500
7.740000 0.2380 0.2380 0.2460 0.2890 0.3250
7.774063 0.3690 0.4220 0.4760 0.5300 0.5820
7.808000 0.6210 0.6310 0.6480 0.6590 0.6690
7.842063 0.6720 0.6710 0.6540 0.6330 0.5990
7.876000 0.5590 0.5100 0.4500 0.4040 0.3590
7.910063 0.3270 0.3210 0.3270 0.3510 0.3850
7.945000 0.4160 0.4500 0.4740 0.4880 0.4980
7.979063 0.5000 0.5080 0.5170 0.5230 0.5350
8.013000 0.5420 0.5420 0.5390 0.5110 0.4810
8.047063 0.4500 0.4220 0.3980 0.3920 0.3920
8.081000 0.3980 0.4240 0.4360 0.4640 0.4860
8.115063 0.5050 0.5250 0.5440 0.5630 0.5800
8.149000 0.5950 0.6130 0.6260 0.6380 0.6500
8.183063 0.6600 0.6670 0.6760 0.6830 0.6860
8.217000 0.6900 0.6910 0.6930 0.6930 0.6930
8.251063 0.6960 0.7000 0.7050 0.7120 0.7170
8.285000 0.7240 0.7290 0.7360 0.7410 0.7430
8.319063 0.7480 0.7480 0.7510 0.7580 0.7610
8.353000 0.7680 0.7680 0.7700 0.7730 0.7790
8.387063 0.7790 0.7790 0.7790 0.7790 0.7770
8.421000 0.7770 0.7770 0.7790 0.7770 0.7720
8.455063 0.7650 0.7600 0.7510 0.7500 0.7500
8.489000 0.7510 0.7510 0.7600 0.7680 0.7680
8.523063 0.7680 0.7630 0.7530 0.7390 0.7310
8.557000 0.7290 0.7310 0.7410 0.7480 0.7580
8.591063 0.7680 0.7720 0.7750 0.7770 0.7770
8.625000 0.7680 0.7410 0.7120 0.6810 0.6780
8.659063 0.6720 0.6780 0.7050 0.7310 0.7460
8.694000 0.7610 0.7750 0.7790 0.7820 0.7870
8.728063 0.7890 0.7910 0.7920 0.7960 0.7970
8.762000 0.8030 0.8080 0.8110 0.8130 0.8160
8.796063 0.8210 0.8250 0.8280 0.8280 0.8300
8.830000 0.8300 0.8320 0.8330 0.8330 0.8330
8.864063 0.8330 0.8330 0.8350 0.8350 0.8350
8.898000 0.8330 0.8320 0.8320 0.8300 0.8300
8.932063 0.8300 0.8280 0.8270 0.8230 0.8230
8.966000 0.8210 0.8200 0.8130 0.7990 0.7790
9.000063 0.7500 0.7170 0.6760 0.6280 0.5730
9.034000 0.5230 0.4790 0.4740 0.4770 0.4840
9.068063 0.4910 0.5010 0.5130 0.5350 0.5710
9.102000 0.6040 0.6350 0.6590 0.6790 0.6910
9.136063 0.7000 0.7030 0.7100 0.7170 0.7200
9.170000 0.7290 0.7360 0.7380 0.7390 0.7430
9.204063 0.7460 0.7500 0.7510 0.7530 0.7560
9.238000 0.7580 0.7600 0.7650 0.7670 0.7680
9.272063 0.7700 0.7730 0.7770 0.7770 0.7770
9.306000 0.7790 0.7800 0.7800 0.7820 0.7840
9.340063 0.7870 0.7890 0.7910 0.7920 0.7960
9.375000 0.7970 0.7990 0.7990 0.8030 0.8030
9.409063 0.8060 0.8080 0.8090 0.8110 0.8130
9.443000 0.8110 0.8110 0.8090 0.8090 0.8080
9.477063 0.8040 0.7960 0.7800 0.7580 0.7340
9.511000 0.7030 0.6740 0.6480 0.6310 0.6260
9.545063 0.6210 0.6190 0.6130 0.6020 0.5870
9.579000 0.5800 0.5900 0.5990 0.6130 0.6250
9.613063 0.6420 0.6600 0.6670 0.6670 0.6590
9.647000 0.6330 0.6040 0.5780 0.5540 0.5350
9.681063 0.5250 0.5200 0.5230 0.5290 0.5370
9.715000 0.5420 0.5490 0.5540 0.5610 0.5710
9.749063 0.5830 0.5950 0.6090 0.6230 0.6330
9.783000 0.6470 0.6570 0.6590 0.6570 0.6350
9.817063 0.6250 0.6010 0.5710 0.5350 0.5050
9.851000 0.4600 0.4290 0.3970 0.3810 0.3810
9.885063 0.3860 0.4040 0.4260 0.4520 0.4810
9.919000 0.5060 0.5230 0.5370 0.5470 0.5510
9.953063 0.5490 0.5320 0.5100 0.4790 0.4690
9.987000 0.4690 0.4760 0.4890 0.5000 0.5110
10.021063 0.5180 0.5320 0.5490 0.5700 0.5920
10.055000 0.6090 0.6380 0.6640 0.6840 0.7030
10.089063 0.7190 0.7340 0.7440 0.7530 0.7600
10.124000 0.7720 0.7770 0.7800 0.7870 0.7910
10.158063 0.7960 0.8010 0.8080 0.8130 0.8180
10.192000 0.8210 0.8250 0.8250 0.8280 0.8280
10.226063 0.8280 0.8300 0.8280 0.8280 0.8270
10.260000 0.8210 0.8150 0.8090 0.7970 0.7960
10.294063 0.7960 0.7970 0.8040 0.8080 0.8150
10.328000 0.8200 0.8210 0.8230 0.8230 0.8230
10.362063 0.8230 0.8210 0.8210 0.8200 0.8200
10.396000 0.8160 0.8090 0.8040 0.7970 0.7920
10.430063 0.7870 0.7820 0.7790 0.7750 0.7700
10.464000 0.7680 0.7670 0.7670 0.7630 0.7580
10.498063 0.7510 0.7440 0.7290 0.7150 0.7050
10.532000 0.6930 0.6790 0.6740 0.6710 0.6710
10.566063 0.6860 0.7100 0.7310 0.7510 0.7680
10.600000 0.7840 0.7940 0.8030 0.8150 0.8210
10.634063 0.8280 0.8330 0.8370 0.8390 0.8400
10.668000 0.8420 0.8440 0.8440 0.8400 0.8330
10.702063 0.8200 0.8030 0.7820 0.7670 0.7500
10.736000 0.7290 0.7240 0.7260 0.7290 0.7390
10.770063 0.7600 0.7790 0.7850 0.8080 0.8270
10.804000 0.8390 0.8440 0.8490 0.8540 0.8570
10.838063 0.8610 0.8610 0.8630 0.8610 0.8630
10.873000 0.8630 0.8640 0.8680 0.8680 0.8680
10.907063 0.8680 0.8680 0.8680 0.8660 0.8660
10.941000 0.8660 0.8660 0.8660 0.8640 0.8660
10.975063 0.8660 0.8680 0.8690 0.8710 0.8710
11.009000 0.8730 0.8730 0.8750 0.8750 0.8750
11.043063 0.8750 0.8750 0.8750 0.8750 0.8750
11.077000 0.8750 0.8730 0.8710 0.8730 0.8730
11.111063 0.8710 0.8710 0.8710 0.8680 0.8660
11.145000 0.8610 0.8590 0.8590 0.8590 0.8590
11.179063 0.8570 0.8590 0.8590 0.8570 0.8570
11.213000 0.8560 0.8560 0.8560 0.8540 0.8520
11.247063 0.8510 0.8490 0.8490 0.8450 0.8420
11.281000 0.8400 0.8400 0.8400 0.8400 0.8420
11.315063 0.8440 0.8440 0.8440 0.8470 0.8440
11.349000 0.8390 0.8330 0.8250 0.8160 0.8090
11.383063 0.8040 0.7970 0.7910 0.7910 0.7920
11.417000 0.7940 0.7990 0.8040 0.8150 0.8200
11.451063 0.8210 0.8270 0.8280 0.8300 0.8320
11.485000 0.8300 0.8280 0.8250 0.8200 0.8130
11.519063 0.7990 0.7850 0.7700 0.7460 0.7150
11.554000 0.6810 0.6450 0.6110 0.5780 0.5510
11.588063 0.5300 0.5230 0.5010 0.5000 0.5010
11.622000 0.5390 0.5650 0.5990 0.6280 0.6550
11.656063 0.6740 0.6960 0.7120 0.7290 0.7380
11.690000 0.7440 0.7440 0.7460 0.7460 0.7430
11.724063 0.7310 0.7200 0.7080 0.6930 0.6780
11.758000 0.6620 0.6430 0.6260 0.6070 0.5890
11.792063 0.5750 0.5540 0.5530 0.5530 0.5590
11.826000 0.5770 0.5990 0.6160 0.6330 0.6500
11.860063 0.6710 0.6950 0.7050 0.7140 0.7190
11.894000 0.7260 0.7290 0.7320 0.7360 0.7380
11.928063 0.7380 0.7380 0.7410 0.7440 0.7440
11.962000 0.7460 0.7460 0.7460 0.7460 0.7460
11.996063 0.7460 0.7460 0.7460 0.7460 0.7440
12.030000 0.7360 0.7310 0.7260 0.7220 0.7170
12.064063 0.7120 0.7070 0.7080 0.7100 0.7150
12.098000 0.7240 0.7310 0.7390 0.7430 0.7480
12.132063 0.7480 0.7480 0.7410 0.7340 0.7270
12.166000 0.7150 0.7080 0.7020 0.6950 0.6860
12.200063 0.6810 0.6780 0.6740 0.6760 0.6780
12.234000 0.6790 0.6830 0.6840 0.6840 0.6810
12.268063 0.6720 0.6620 0.6500 0.6400 0.6280
12.303000 0.6160 0.6070 0.6010 0.5950 0.5830
12.337063 0.5590 0.5300 0.4960 0.4530 0.4120
12.371000 0.3800 0.3520 0.3470 0.3470 0.3490
12.405063 0.4000 0.4460 0.4720 0.5150 0.5510
12.439000 0.5800 0.6060 0.6300 0.6500 0.6660
12.473063 0.6860 0.7030 0.7150 0.7260 0.7320
12.507000 0.7410 0.7500 0.7550 0.7630 0.7730
12.541063 0.7820 0.7890 0.7940 0.8010 0.8080
12.575000 0.8130 0.8150 0.8230 0.8280 0.8320
12.609063 0.8370 0.8370 0.8370 0.8390 0.8390
12.643000 0.8400 0.8400 0.8400 0.8400 0.8420
12.677063 0.8420 0.8450 0.8490 0.8510 0.8570
12.711000 0.8630 0.8680 0.8730 0.8760 0.8800
12.745063 0.8860 0.8900 0.8950 0.8970 0.8970
12.779000 0.8980 0.8980 0.9020 0.9040 0.9070
12.813063 0.9090 0.9090 0.9090 0.9100 0.9090
12.847000 0.9090 0.9090 0.9090 0.9090 0.9090
12.881063 0.9040 0.8970 0.8900 0.8800 0.8680
12.915000 0.8520 0.8450 0.8350 0.8300 0.8230
12.949063 0.8180 0.8150 0.8150 0.8180 0.8230
12.983000 0.8300 0.8390 0.8490 0.8590 0.8660
13.017063 0.8680 0.8690 0.8710 0.8750 0.8760
13.052000 0.8760 0.8760 0.8760 0.8730 0.8690
13.086063 0.8680 0.8630 0.8570 0.8520 0.8490
13.120000 0.8440 0.8350 0.8230 0.8110 0.7960
13.154063 0.7770 0.7600 0.7390 0.7190 0.7000
13.188000 0.6740 0.6470 0.6140 0.5800 0.5440
13.222063 0.5080 0.4700 0.4330 0.3980 0.3540
13.256000 0.3150 0.2840 0.2510 0.2310 0.2080
13.290063 0.1910 0.1860 0.1860 0.1900 0.2020
13.324000 0.2220 0.2480 0.2800 0.3160 0.3560
13.358063 0.3950 0.4340 0.4720 0.5050 0.5200
13.392000 0.5560 0.5850 0.6090 0.6310 0.6520
13.426063 0.6710 0.6880 0.7030 0.7150 0.7270
13.460000 0.7380 0.7460 0.7530 0.7600 0.7670
13.494063 0.7730 0.7800 0.7870 0.7940 0.7990
13.528000 0.8010 0.8040 0.8080 0.8110 0.8130
13.562063 0.8130 0.8130 0.8110 0.8080 0.8010
13.596000 0.7920 0.7820 0.7700 0.7530 0.7360
13.630063 0.7150 0.6900 0.6690 0.6430 0.6250
13.664000 0.6090 0.5940 0.5750 0.5630 0.5580
13.698063 0.5510 0.5490 0.5510 0.5610 0.5750
13.732000 0.5900 0.6040 0.6190 0.6360 0.6520
13.766063 0.6690 0.6860 0.7000 0.7140 0.7220
13.801000 0.7360 0.7460 0.7550 0.7610 0.7700
13.835063 0.7770 0.7790 0.7820 0.7850 0.7910
13.869000 0.7970 0.8010 0.8040 0.8090 0.8150
13.903063 0.8200 0.8210 0.8210 0.8230 0.8250
13.937000 0.8270 0.8280 0.8320 0.8350 0.8390
13.971063 0.8440 0.8490 0.8520 0.8570 0.8640
14.005000 0.8690 0.8730 0.8760 0.8760 0.8760
14.039063 0.8780 0.8800 0.8830 0.8900 0.8920
14.073000 0.8970 0.8980 0.9000 0.9000 0.9040
14.107063 0.9050 0.9070 0.9090 0.9120 0.9140
14.141000 0.9170 0.9210 0.9210 0.9220 0.9220
14.175063 0.9240 0.9260 0.9260 0.9260 0.9260
14.209000 0.9290 0.9290 0.9310 0.9360 0.9380
14.243063 0.9400 0.9400 0.9430 0.9430 0.9430
14.277000 0.9410 0.9400 0.9400 0.9410 0.9450
14.311063 0.9480 0.9460 0.9480 0.9480 0.9480
14.345000 0.9500 0.9500 0.9500 0.9500 0.9500
14.379063 0.9500 0.9500 0.9520 0.9530 0.9530
14.413000 0.9530 0.9550 0.9550 0.9570 0.9570
14.447063 0.9580 0.9580 0.9600 0.9580 0.9580
14.482000 0.9570 0.9530 0.9500 0.9520 0.9500
14.516063 0.9500 0.9500 0.9480 0.9480 0.9480
14.550000 0.9460 0.9460 0.9450 0.9430 0.9410
14.584063 0.9410 0.9400 0.9380 0.9360 0.9330
14.618000 0.9310 0.9310 0.9290 0.9280 0.9280
14.652063 0.9240 0.9240 0.9220 0.9210 0.9210
14.686000 0.9190 0.9170 0.9170 0.9160 0.9160
14.720063 0.9120 0.9100 0.9090 0.9090 0.9070
14.754000 0.9070 0.9050 0.9000 0.8980 0.8970
14.788063 0.8950 0.8930 0.8920 0.8920 0.8900
14.822000 0.8880 0.8860 0.8860 0.8810 0.8810
14.856063 0.8800 0.8760 0.8730 0.8710 0.8690
14.890000 0.8690 0.8690 0.8690 0.8690 0.8730
14.924063 0.8730 0.8690 0.8660 0.8630 0.8630
14.958000 0.8610 0.8590 0.8590 0.8560 0.8540
14.992063 0.8510 0.8470 0.8450 0.8420 0.8370
15.026000 0.8300 0.8250 0.8180 0.8090 0.8030
15.060063 0.7920 0.7820 0.7650 0.7550 0.7440
15.094000 0.7390 0.7360 0.7310 0.7240 0.7190
15.128063 0.7100 0.7080 0.7080 0.7100 0.7120
15.162000 0.7120 0.7100 0.7100 0.7070 0.7030
15.196063 0.6960 0.6910 0.6860 0.6780 0.6660
15.231000 0.6540 0.6420 0.6280 0.6160 0.6010
15.265063 0.5870 0.5710 0.5630 0.5540 0.5510
15.299000 0.5440 0.5390 0.5320 0.5290 0.5270
15.333063 0.5250 0.5270 0.5290 0.5300 0.5370
15.367000 0.5410 0.5460 0.5490 0.5580 0.5630
15.401063 0.5700 0.5780 0.5830 0.5920 0.5990
15.435000 0.6040 0.6130 0.6180 0.6250 0.6300
15.469063 0.6330 0.6350 0.6380 0.6420 0.6470
15.503000 0.6500 0.6520 0.6570 0.6600 0.6640
15.537063 0.6660 0.6670 0.6690 0.6690 0.6670
15.571000 0.6670 0.6690 0.6690 0.6690 0.6670
15.605063 0.6660 0.6660 0.6660 0.6670 0.6670
15.639000 0.6690 0.6670 0.6670 0.6660 0.6660
15.673063 0.6640 0.6640 0.6660 0.6670 0.6670
15.707000 0.6660 0.6620 0.6600 0.6590 0.6570
15.741063 0.6550 0.6550 0.6550 0.6520 0.6500
15.775000 0.6480 0.6450 0.6420 0.6400 0.6380
15.809063 0.6360 0.6330 0.6310 0.6300 0.6300
15.843000 0.6280 0.6280 0.6280 0.6260 0.6260
15.877063 0.6250 0.6230 0.6190 0.6180 0.6160
15.911000 0.6130 0.6110 0.6110 0.6090 0.6070
15.945063 0.6060 0.6040 0.6020 0.6010 0.5990
15.980000 0.5900
##END=
