##TITLE=BROMODIBORANE
##JCAMP-DX=4.24
##DATA TYPE=INFRARED SPECTRUM
##CLASS=COBLENTZ
##ORIGIN=KALLERY CHEMICAL COMPANY
##OWNER=COBLENTZ SOCIETY
Collection (C) 2018 copyright by the U.S. Secretary of Commerce
on behalf of the United States of America. All rights reserved.
##DATE=1960
##MOLFORM=Br B2 H5
##SOURCE REFERENCE=COBLENTZ NO. 834
##$NIST ID=B6000834
##$NIST SOURCE=COBLENTZ
##$NIST IMAGE=cob834
##SPECTROMETER/DATA SYSTEM=Not specified, most likely a prism, grating, or hybrid spectrometer.
##STATE=VAPOR AT 26 mmHg PRESSURE; $$ RESEARCH PURITY
##PATH LENGTH=5 CM
##SAMPLING PROCEDURE=TRANSMISSION
##RESOLUTION=4
##DATA PROCESSING=DIGITIZED BY NIST FROM HARD COPY (FROM TWO SEGMENTS)
##XUNITS=1/CM
##YUNITS=TRANSMITTANCE
##XFACTOR=1.000000
##YFACTOR=1
##DELTAX=0.866429
##FIRSTX=624.116
##LASTX=3726.8
##FIRSTY=0.728
##MAXX=3726.8
##MINX=624.116
##MAXY=1.005
##MINY=0.013
##NPOINTS=3582
##XYDATA=(X++(Y..Y))
624.116000 0.7280 0.7300 0.7280 0.7300 0.7300
628.448143 0.7300 0.7300 0.7300 0.7320 0.7340
632.780287 0.7370 0.7390 0.7400 0.7420 0.7440
637.112430 0.7440 0.7460 0.7440 0.7460 0.7460
641.444574 0.7460 0.7470 0.7470 0.7510 0.7530
645.776717 0.7540 0.7560 0.7580 0.7580 0.7590
650.108861 0.7590 0.7610 0.7610 0.7610 0.7610
654.441004 0.7610 0.7610 0.7610 0.7610 0.7610
658.773148 0.7610 0.7610 0.7610 0.7590 0.7590
663.105291 0.7580 0.7560 0.7540 0.7540 0.7530
667.437435 0.7490 0.7470 0.7460 0.7440 0.7440
671.769578 0.7420 0.7420 0.7420 0.7420 0.7420
676.101722 0.7440 0.7440 0.7440 0.7460 0.7440
680.433865 0.7440 0.7440 0.7440 0.7420 0.7420
684.766009 0.7420 0.7420 0.7400 0.7390 0.7370
689.098152 0.7370 0.7370 0.7390 0.7420 0.7490
693.430296 0.7510 0.7590 0.7750 0.7950 0.7970
697.762439 0.7990 0.8070 0.8130 0.8130 0.8190
702.094583 0.8210 0.8250 0.8250 0.8260 0.8260
706.426726 0.8260 0.8260 0.8250 0.8250 0.8250
710.758870 0.8250 0.8250 0.8250 0.8250 0.8230
715.091013 0.8230 0.8230 0.8230 0.8250 0.8250
719.423157 0.8250 0.8250 0.8250 0.8250 0.8260
723.755300 0.8250 0.8250 0.8250 0.8230 0.8230
728.087444 0.8230 0.8250 0.8250 0.8250 0.8250
732.419587 0.8280 0.8300 0.8310 0.8350 0.8380
736.751731 0.8400 0.8450 0.8490 0.8500 0.8550
741.083874 0.8610 0.8640 0.8660 0.8690 0.8730
745.416018 0.8760 0.8790 0.8830 0.8850 0.8900
749.748161 0.8950 0.8970 0.9000 0.9020 0.9070
754.080305 0.9090 0.9100 0.9100 0.9120 0.9140
758.412448 0.9140 0.9140 0.9150 0.9150 0.9150
762.744592 0.9170 0.9170 0.9150 0.9150 0.9140
767.076735 0.9120 0.9120 0.9100 0.9090 0.9090
771.408879 0.9070 0.9070 0.9050 0.9050 0.9030
775.741022 0.9030 0.9030 0.9030 0.9030 0.9030
780.073166 0.9030 0.9030 0.9030 0.9050 0.9050
784.405309 0.9050 0.9070 0.9090 0.9100 0.9120
788.737453 0.9140 0.9150 0.9150 0.9150 0.9150
793.069596 0.9150 0.9140 0.9100 0.9030 0.8950
797.401740 0.8860 0.8780 0.8710 0.8640 0.8590
801.733883 0.8520 0.8470 0.8301 0.8141 0.7971
806.066027 0.7900 0.7830 0.7730 0.7650 0.7440
810.398170 0.7181 0.6911 0.6701 0.6561 0.6460
814.730314 0.6430 0.6380 0.6320 0.6310 0.6310
819.062457 0.6290 0.6270 0.6270 0.6200 0.6120
823.394601 0.6030 0.5840 0.5570 0.5280 0.5070
827.726744 0.5060 0.5020 0.5060 0.5070 0.5229
832.058888 0.5480 0.5710 0.5980 0.6200 0.6320
836.391031 0.6440 0.6550 0.6939 0.7229 0.7320
840.723175 0.7390 0.7460 0.7470 0.7590 0.7650
845.055318 0.7700 0.7750 0.7780 0.7820 0.7870
849.387462 0.7940 0.8010 0.8040 0.8130 0.8210
853.719605 0.8280 0.8330 0.8370 0.8420 0.8450
858.051749 0.8490 0.8500 0.8500 0.8500 0.8550
862.383892 0.8590 0.8610 0.8660 0.8690 0.8730
866.716036 0.8780 0.8830 0.8880 0.8910 0.8930
871.048179 0.8950 0.8970 0.8980 0.9000 0.9020
875.380323 0.9020 0.9020 0.9030 0.9030 0.9050
879.712466 0.9050 0.9050 0.9050 0.9030 0.9020
884.044610 0.9020 0.9000 0.9000 0.9000 0.9000
888.376753 0.9000 0.8980 0.8980 0.8970 0.8930
892.708897 0.8910 0.8900 0.8860 0.8860 0.8860
897.041040 0.8850 0.8850 0.8850 0.8850 0.8850
901.373184 0.8810 0.8790 0.8780 0.8760 0.8760
905.705327 0.8740 0.8730 0.8710 0.8710 0.8690
910.037471 0.8670 0.8620 0.8550 0.8520 0.8490
914.369614 0.8400 0.8310 0.8300 0.8280 0.8330
918.701758 0.8370 0.8400 0.8450 0.8490 0.8540
923.033901 0.8610 0.8610 0.8610 0.8640 0.8640
927.366045 0.8660 0.8660 0.8660 0.8660 0.8670
931.698188 0.8690 0.8690 0.8690 0.8690 0.8690
936.030332 0.8690 0.8670 0.8620 0.8610 0.8590
940.362475 0.8570 0.8550 0.8500 0.8500 0.8490
944.694619 0.8470 0.8420 0.8400 0.8370 0.8350
949.026762 0.8330 0.8310 0.8310 0.8300 0.8310
953.358906 0.8330 0.8330 0.8330 0.8350 0.8350
957.691049 0.8350 0.8350 0.8350 0.8350 0.8330
962.023193 0.8310 0.8310 0.8310 0.8310 0.8310
966.355336 0.8310 0.8310 0.8370 0.8450 0.8470
970.687480 0.8520 0.8570 0.8670 0.8740 0.8790
975.019623 0.8860 0.8970 0.9000 0.9090 0.9100
979.351767 0.9120 0.9150 0.9170 0.9210 0.9240
983.683910 0.9240 0.9240 0.9240 0.9240 0.9240
988.016054 0.9260 0.9240 0.9240 0.9220 0.9220
992.348197 0.9220 0.9210 0.9210 0.9190 0.9190
996.680341 0.9170 0.9170 0.9170 0.9170 0.9150
1001.012484 0.9140 0.9100 0.9070 0.9020 0.9020
1005.344628 0.9000 0.9000 0.8950 0.8910 0.8880
1009.676771 0.8830 0.8760 0.8710 0.8640 0.8540
1014.008915 0.8500 0.8470 0.8420 0.8370 0.8310
1018.341058 0.8300 0.8230 0.8190 0.8130 0.8010
1022.673202 0.8010 0.7950 0.7890 0.7850 0.7800
1027.005345 0.7770 0.7750 0.7730 0.7700 0.7660
1031.337489 0.7560 0.7470 0.7400 0.7350 0.7250
1035.669632 0.7130 0.7010 0.6821 0.6700 0.6630
1040.001776 0.6580 0.6510 0.6440 0.6390 0.6340
1044.333919 0.6240 0.6140 0.6120 0.5911 0.4804
1048.666063 0.4590 0.4519 0.4079 0.3340 0.2480
1052.998206 0.2170 0.2070 0.1880 0.1850 0.1860
1057.330350 0.1920 0.1930 0.1980 0.2020 0.2040
1061.662493 0.2040 0.2040 0.2050 0.2050 0.2040
1065.994637 0.1980 0.1900 0.1690 0.1620 0.1560
1070.326780 0.1520 0.1560 0.1610 0.1809 0.2069
1074.658924 0.2140 0.2330 0.2530 0.2880 0.3150
1078.991067 0.3220 0.3669 0.4079 0.4269 0.4609
1083.323211 0.4851 0.5070 0.5240 0.5400 0.6100
1087.655354 0.6240 0.6550 0.6650 0.6800 0.7697
1091.987498 0.7890 0.8040 0.8110 0.8210 0.8280
1096.319641 0.8380 0.8420 0.8490 0.8490 0.8540
1100.651785 0.8570 0.8610 0.8620 0.8620 0.8620
1104.983928 0.8620 0.8640 0.8640 0.8640 0.8640
1109.316072 0.8640 0.8620 0.8620 0.8640 0.8660
1113.648215 0.8660 0.8660 0.8660 0.8620 0.8620
1117.980359 0.8660 0.8670 0.8690 0.8730 0.8730
1122.312502 0.8710 0.8710 0.8710 0.8690 0.8670
1126.644646 0.8660 0.8660 0.8640 0.8660 0.8620
1130.976789 0.8620 0.8610 0.8590 0.8570 0.8540
1135.308933 0.8520 0.8500 0.8490 0.8470 0.8450
1139.641076 0.8400 0.8330 0.8260 0.8160 0.8090
1143.973220 0.8020 0.7940 0.7850 0.7770 0.7650
1148.305363 0.7460 0.7220 0.7060 0.6920 0.6770
1152.637507 0.6650 0.6500 0.6410 0.6410 0.6390
1156.969650 0.6380 0.6380 0.6340 0.6310 0.6270
1161.301794 0.6220 0.6220 0.6200 0.6200 0.6190
1165.633937 0.6100 0.6080 0.6050 0.6020 0.6000
1169.966081 0.6020 0.6050 0.6080 0.6100 0.6150
1174.298224 0.6200 0.6270 0.6360 0.6430 0.6510
1178.630368 0.6560 0.6620 0.6740 0.6870 0.6990
1182.962511 0.7060 0.7220 0.7440 0.7560 0.7650
1187.294655 0.7780 0.7820 0.7890 0.7900 0.7970
1191.626798 0.8010 0.8070 0.8110 0.8140 0.8180
1195.958942 0.8190 0.8230 0.8230 0.8230 0.8250
1200.291085 0.8280 0.8300 0.8330 0.8350 0.8400
1204.623229 0.8420 0.8430 0.8430 0.8430 0.8430
1208.955372 0.8420 0.8420 0.8400 0.8400 0.8420
1213.287516 0.8420 0.8420 0.8420 0.8420 0.8420
1217.619659 0.8420 0.8420 0.8420 0.8420 0.8400
1221.951803 0.8400 0.8380 0.8380 0.8350 0.8350
1226.283946 0.8350 0.8310 0.8310 0.8300 0.8300
1230.616090 0.8280 0.8260 0.8230 0.8190 0.8140
1234.948233 0.8070 0.8040 0.7990 0.7920 0.7870
1239.280377 0.7820 0.7770 0.7660 0.7580 0.7490
1243.612520 0.7400 0.7340 0.7250 0.7150 0.7060
1247.944664 0.6980 0.6860 0.6700 0.6620 0.6500
1252.276807 0.6320 0.6270 0.6220 0.6140 0.6050
1256.608951 0.5860 0.5740 0.5710 0.5640 0.5570
1260.941094 0.5480 0.5430 0.5400 0.5350 0.5240
1265.273238 0.5230 0.5230 0.5230 0.5230 0.5230
1269.605381 0.5230 0.5240 0.5280 0.5310 0.5330
1273.937525 0.5380 0.5420 0.5470 0.5480 0.5570
1278.269668 0.5640 0.5660 0.5670 0.5740 0.5790
1282.601812 0.5810 0.5860 0.5980 0.6070 0.6140
1286.933955 0.6170 0.6220 0.6220 0.6320 0.6380
1291.266099 0.6480 0.6510 0.6530 0.6560 0.6600
1295.598242 0.6650 0.6680 0.6750 0.6790 0.6860
1299.930386 0.6870 0.6940 0.6980 0.6990 0.6990
1304.262529 0.7010 0.7010 0.7030 0.7100 0.7100
1308.594673 0.7110 0.7130 0.7150 0.7160 0.7160
1312.926816 0.7160 0.7160 0.7180 0.7200 0.7220
1317.258960 0.7220 0.7220 0.7230 0.7230 0.7230
1321.591103 0.7230 0.7230 0.7230 0.7230 0.7230
1325.923247 0.7230 0.7230 0.7220 0.7220 0.7220
1330.255390 0.7220 0.7220 0.7220 0.7220 0.7220
1334.587534 0.7220 0.7220 0.7220 0.7220 0.7220
1338.919677 0.7220 0.7220 0.7230 0.7230 0.7270
1343.251821 0.7280 0.7300 0.7320 0.7340 0.7370
1347.583964 0.7390 0.7400 0.7400 0.7460 0.7470
1351.916108 0.7490 0.7490 0.7510 0.7530 0.7530
1356.248251 0.7580 0.7610 0.7630 0.7660 0.7700
1360.580395 0.7710 0.7750 0.7770 0.7780 0.7780
1364.912538 0.7800 0.7800 0.7820 0.7830 0.7830
1369.244682 0.7850 0.7870 0.7890 0.7900 0.7900
1373.576825 0.7920 0.7920 0.7940 0.7940 0.7940
1377.908969 0.7940 0.7940 0.7940 0.7920 0.7900
1382.241112 0.7900 0.7900 0.7920 0.7940 0.7940
1386.573256 0.7940 0.7950 0.7950 0.7950 0.7990
1390.905399 0.7990 0.8010 0.8020 0.8020 0.8040
1395.237543 0.8060 0.8070 0.8090 0.8090 0.8090
1399.569686 0.8110 0.8110 0.8130 0.8130 0.8130
1403.901830 0.8130 0.8140 0.8140 0.8140 0.8140
1408.233973 0.8140 0.8140 0.8130 0.8130 0.8130
1412.566117 0.8130 0.8110 0.8090 0.8070 0.8070
1416.898260 0.8060 0.8060 0.8060 0.8060 0.8060
1421.230404 0.8060 0.8060 0.8060 0.8040 0.8020
1425.562547 0.8010 0.8010 0.8010 0.7990 0.7990
1429.894691 0.7970 0.7970 0.7940 0.7940 0.7920
1434.226834 0.7890 0.7850 0.7820 0.7800 0.7780
1438.558978 0.7770 0.7710 0.7700 0.7660 0.7630
1442.891121 0.7580 0.7540 0.7530 0.7490 0.7470
1447.223265 0.7460 0.7440 0.7400 0.7350 0.7280
1451.555408 0.7230 0.7220 0.7180 0.7160 0.7150
1455.887552 0.7150 0.7100 0.7080 0.7040 0.7030
1460.219695 0.7010 0.6990 0.6980 0.6980 0.6960
1464.551839 0.6940 0.6940 0.6910 0.6860 0.6820
1468.883982 0.6800 0.6790 0.6770 0.6740 0.6680
1473.216126 0.6670 0.6630 0.6600 0.6580 0.6510
1477.548269 0.6440 0.6340 0.6240 0.6070 0.5960
1481.880413 0.5900 0.5780 0.5670 0.5550 0.5470
1486.212556 0.5400 0.5350 0.5300 0.5240 0.5180
1490.544700 0.5109 0.4870 0.4850 0.4850 0.4880
1494.876843 0.4900 0.4930 0.4970 0.4990 0.4990
1499.208987 0.5000 0.5000 0.5020 0.5020 0.5020
1503.541130 0.5020 0.5020 0.5040 0.5060 0.5060
1507.873274 0.5070 0.5110 0.5160 0.5331 0.5810
1512.205417 0.6030 0.6220 0.6560 0.6670 0.6890
1516.537561 0.6991 0.7350 0.7370 0.7390 0.7400
1520.869704 0.7400 0.7370 0.7350 0.7300 0.7250
1525.201848 0.7130 0.7100 0.7080 0.7010 0.6960
1529.533991 0.6860 0.6750 0.6670 0.6600 0.6530
1533.866135 0.6440 0.6430 0.6289 0.6019 0.5690
1538.198278 0.5500 0.5430 0.5310 0.5210 0.4631
1542.530422 0.4349 0.4200 0.4090 0.3960 0.3719
1546.862565 0.3270 0.3200 0.3080 0.2551 0.2121
1551.194709 0.1779 0.1519 0.1350 0.1210 0.1130
1555.526852 0.1060 0.1010 0.0960 0.0890 0.0770
1559.858996 0.0630 0.0540 0.0490 0.0390 0.0300
1564.191139 0.0220 0.0170 0.0150 0.0150 0.0150
1568.523283 0.0150 0.0150 0.0150 0.0130 0.0130
1572.855426 0.0130 0.0130 0.0130 0.0130 0.0130
1577.187570 0.0130 0.0130 0.0130 0.0130 0.0130
1581.519713 0.0130 0.0150 0.0150 0.0150 0.0150
1585.851857 0.0150 0.0170 0.0180 0.0180 0.0240
1590.184000 0.0340 0.0440 0.0560 0.0610 0.0680
1594.516144 0.0700 0.0751 0.1130 0.1231 0.1760
1598.848287 0.1970 0.2160 0.2790 0.3169 0.3439
1603.180431 0.3961 0.4301 0.4471 0.4661 0.4950
1607.512574 0.5230 0.5620 0.5740 0.5880 0.6030
1611.844718 0.6150 0.6260 0.6340 0.6380 0.6480
1616.176861 0.6510 0.6530 0.6550 0.6600 0.6600
1620.509005 0.6650 0.6680 0.6700 0.6700 0.6770
1624.841148 0.6820 0.6890 0.6910 0.6920 0.6940
1629.173292 0.6940 0.6960 0.6980 0.6990 0.6990
1633.505435 0.6990 0.7010 0.7030 0.7040 0.7100
1637.837579 0.7160 0.7271 0.7610 0.7680 0.7730
1642.169722 0.7780 0.7830 0.7870 0.7970 0.8040
1646.501866 0.8070 0.8160 0.8230 0.8310 0.8450
1650.834009 0.8470 0.8850 0.8900 0.8970 0.8980
1655.166153 0.9070 0.9090 0.9150 0.9150 0.9170
1659.498296 0.9190 0.9210 0.9240 0.9260 0.9240
1663.830440 0.9270 0.9270 0.9290 0.9290 0.9290
1668.162583 0.9290 0.9290 0.9290 0.9290 0.9290
1672.494727 0.9290 0.9290 0.9290 0.9290 0.9290
1676.826870 0.9270 0.9270 0.9270 0.9270 0.9270
1681.159014 0.9270 0.9270 0.9270 0.9260 0.9260
1685.491157 0.9260 0.9260 0.9240 0.9240 0.9240
1689.823301 0.9240 0.9240 0.9210 0.9190 0.9170
1694.155444 0.9170 0.9170 0.9150 0.9150 0.9140
1698.487588 0.9140 0.9120 0.9090 0.9070 0.9030
1702.819731 0.8970 0.8930 0.8900 0.8860 0.8830
1707.151875 0.8790 0.8740 0.8740 0.8690 0.8660
1711.484018 0.8590 0.8540 0.8490 0.8400 0.8330
1715.816162 0.8249 0.8140 0.8110 0.8020 0.7970
1720.148305 0.7920 0.7830 0.7800 0.7770 0.7750
1724.480449 0.7750 0.7750 0.7750 0.7750 0.7750
1728.812592 0.7750 0.7750 0.7770 0.7770 0.7770
1733.144736 0.7780 0.7800 0.7820 0.7850 0.7870
1737.476879 0.7900 0.7920 0.7970 0.7990 0.8040
1741.809023 0.8110 0.8181 0.8471 0.8670 0.8740
1746.141166 0.8810 0.8860 0.8950 0.8970 0.9020
1750.473310 0.9100 0.9120 0.9140 0.9170 0.9170
1754.805453 0.9190 0.9210 0.9220 0.9220 0.9240
1759.137597 0.9270 0.9290 0.9310 0.9310 0.9330
1763.469740 0.9330 0.9360 0.9360 0.9380 0.9390
1767.801884 0.9390 0.9390 0.9410 0.9410 0.9430
1772.134027 0.9450 0.9450 0.9460 0.9480 0.9480
1776.466171 0.9480 0.9480 0.9480 0.9480 0.9480
1780.798314 0.9480 0.9480 0.9480 0.9500 0.9500
1785.130458 0.9510 0.9510 0.9510 0.9510 0.9510
1789.462601 0.9510 0.9510 0.9510 0.9530 0.9510
1793.794745 0.9510 0.9500 0.9500 0.9500 0.9500
1798.126888 0.9480 0.9480 0.9480 0.9480 0.9460
1802.459032 0.9460 0.9460 0.9460 0.9450 0.9450
1806.791175 0.9450 0.9450 0.9450 0.9450 0.9460
1811.123319 0.9450 0.9430 0.9450 0.9450 0.9450
1815.455462 0.9450 0.9450 0.9450 0.9450 0.9460
1819.787606 0.9460 0.9480 0.9480 0.9480 0.9500
1824.119749 0.9500 0.9510 0.9510 0.9510 0.9530
1828.451893 0.9530 0.9530 0.9530 0.9530 0.9530
1832.784036 0.9530 0.9530 0.9530 0.9530 0.9530
1837.116180 0.9550 0.9550 0.9550 0.9550 0.9550
1841.448323 0.9550 0.9530 0.9510 0.9510 0.9510
1845.780467 0.9500 0.9500 0.9480 0.9480 0.9480
1850.112610 0.9480 0.9480 0.9480 0.9460 0.9460
1854.444754 0.9460 0.9460 0.9430 0.9430 0.9430
1858.776897 0.9430 0.9430 0.9430 0.9430 0.9430
1863.109041 0.9450 0.9450 0.9450 0.9450 0.9450
1867.441184 0.9450 0.9450 0.9430 0.9430 0.9410
1871.773328 0.9390 0.9390 0.9390 0.9380 0.9340
1876.105471 0.9340 0.9330 0.9330 0.9330 0.9310
1880.437615 0.9310 0.9310 0.9290 0.9290 0.9290
1884.769758 0.9270 0.9270 0.9270 0.9270 0.9270
1889.101902 0.9270 0.9270 0.9270 0.9270 0.9290
1893.434045 0.9290 0.9290 0.9290 0.9290 0.9290
1897.766189 0.9270 0.9270 0.9270 0.9270 0.9290
1902.098332 0.9290 0.9290 0.9290 0.9330 0.9330
1906.430476 0.9310 0.9330 0.9330 0.9330 0.9330
1910.762619 0.9360 0.9380 0.9390 0.9410 0.9410
1915.094763 0.9430 0.9430 0.9430 0.9450 0.9450
1919.426906 0.9460 0.9460 0.9480 0.9480 0.9480
1923.759050 0.9460 0.9460 0.9460 0.9460 0.9460
1928.091193 0.9460 0.9460 0.9460 0.9460 0.9460
1932.423337 0.9480 0.9450 0.9450 0.9460 0.9460
1936.755480 0.9480 0.9480 0.9480 0.9480 0.9480
1941.087624 0.9500 0.9500 0.9500 0.9500 0.9530
1945.419767 0.9530 0.9550 0.9550 0.9550 0.9550
1949.751911 0.9550 0.9550 0.9550 0.9550 0.9570
1954.084054 0.9570 0.9570 0.9550 0.9530 0.9530
1958.416198 0.9550 0.9570 0.9570 0.9580 0.9580
1962.748341 0.9580 0.9600 0.9600 0.9600 0.9620
1967.080485 0.9620 0.9620 0.9620 0.9620 0.9620
1971.412628 0.9620 0.9620 0.9620 0.9620 0.9620
1975.744772 0.9620 0.9600 0.9620 0.9620 0.9630
1980.076915 0.9630 0.9630 0.9630 0.9630 0.9630
1984.409059 0.9630 0.9630 0.9650 0.9630 0.9630
1988.741202 0.9630 0.9650 0.9650 0.9650 0.9630
1993.073346 0.9630 0.9630 0.9630 0.9630 0.9630
1997.405489 0.9630 0.9630 0.9630 0.9630 0.9630
2001.737633 0.9630 0.9630 0.9630 0.9630 0.9630
2006.069776 0.9630 0.9630 0.9630 0.9630 0.9630
2010.401920 0.9630 0.9630 0.9630 0.9630 0.9630
2014.734063 0.9630 0.9630 0.9630 0.9630 0.9630
2019.066207 0.9630 0.9630 0.9630 0.9630 0.9630
2023.398350 0.9630 0.9630 0.9630 0.9630 0.9630
2027.730494 0.9630 0.9630 0.9630 0.9630 0.9630
2032.062637 0.9630 0.9630 0.9630 0.9630 0.9630
2036.394781 0.9630 0.9630 0.9631 0.9636 0.9641
2040.726924 0.9646 0.9649 0.9644 0.9639 0.9634
2045.059068 0.9630 0.9630 0.9630 0.9630 0.9630
2049.391211 0.9630 0.9630 0.9630 0.9629 0.9627
2053.723355 0.9624 0.9622 0.9619 0.9614 0.9609
2058.055498 0.9604 0.9600 0.9600 0.9600 0.9600
2062.387642 0.9602 0.9607 0.9612 0.9617 0.9618
2066.719785 0.9613 0.9608 0.9603 0.9600 0.9600
2071.051929 0.9600 0.9600 0.9598 0.9593 0.9588
2075.384072 0.9583 0.9580 0.9580 0.9580 0.9580
2079.716216 0.9580 0.9580 0.9580 0.9580 0.9580
2084.048359 0.9580 0.9580 0.9580 0.9580 0.9580
2088.380503 0.9580 0.9580 0.9580 0.9580 0.9580
2092.712646 0.9580 0.9580 0.9580 0.9580 0.9580
2097.044790 0.9580 0.9580 0.9580 0.9580 0.9580
2101.376933 0.9580 0.9580 0.9580 0.9580 0.9580
2105.709077 0.9580 0.9580 0.9580 0.9580 0.9580
2110.041220 0.9580 0.9583 0.9588 0.9593 0.9598
2114.373364 0.9600 0.9600 0.9600 0.9600 0.9605
2118.705507 0.9612 0.9620 0.9628 0.9630 0.9630
2123.037651 0.9630 0.9630 0.9633 0.9638 0.9643
2127.369794 0.9648 0.9653 0.9659 0.9664 0.9669
2131.701938 0.9674 0.9679 0.9684 0.9689 0.9692
2136.034081 0.9694 0.9697 0.9700 0.9704 0.9709
2140.366225 0.9714 0.9719 0.9724 0.9729 0.9734
2144.698368 0.9739 0.9740 0.9740 0.9740 0.9740
2149.030512 0.9746 0.9754 0.9761 0.9769 0.9774
2153.362655 0.9779 0.9784 0.9789 0.9790 0.9790
2157.694799 0.9790 0.9790 0.9794 0.9799 0.9804
2162.026942 0.9809 0.9812 0.9815 0.9817 0.9820
2166.359086 0.9820 0.9820 0.9820 0.9820 0.9820
2170.691229 0.9820 0.9820 0.9820 0.9820 0.9820
2175.023373 0.9820 0.9820 0.9820 0.9820 0.9820
2179.355516 0.9820 0.9825 0.9830 0.9835 0.9840
2183.687660 0.9840 0.9840 0.9840 0.9840 0.9840
2188.019803 0.9840 0.9840 0.9840 0.9840 0.9840
2192.351947 0.9840 0.9840 0.9840 0.9840 0.9840
2196.684090 0.9840 0.9840 0.9840 0.9840 0.9840
2201.016234 0.9840 0.9840 0.9840 0.9840 0.9840
2205.348377 0.9840 0.9840 0.9840 0.9840 0.9840
2209.680521 0.9840 0.9840 0.9840 0.9840 0.9840
2214.012664 0.9840 0.9840 0.9840 0.9840 0.9839
2218.344808 0.9834 0.9829 0.9824 0.9821 0.9826
2222.676951 0.9831 0.9836 0.9840 0.9840 0.9840
2227.009095 0.9840 0.9841 0.9846 0.9851 0.9856
2231.341238 0.9860 0.9860 0.9860 0.9860 0.9858
2235.673382 0.9853 0.9848 0.9843 0.9838 0.9833
2240.005525 0.9828 0.9823 0.9820 0.9820 0.9820
2244.337669 0.9820 0.9820 0.9820 0.9820 0.9820
2248.669812 0.9820 0.9820 0.9820 0.9820 0.9822
2253.001956 0.9827 0.9832 0.9837 0.9838 0.9833
2257.334099 0.9828 0.9823 0.9820 0.9820 0.9820
2261.666243 0.9820 0.9819 0.9816 0.9814 0.9811
2265.998386 0.9810 0.9810 0.9810 0.9810 0.9810
2270.330530 0.9810 0.9810 0.9810 0.9810 0.9810
2274.662673 0.9810 0.9810 0.9810 0.9810 0.9810
2278.994817 0.9810 0.9810 0.9810 0.9810 0.9810
2283.326960 0.9812 0.9814 0.9817 0.9819 0.9820
2287.659104 0.9820 0.9820 0.9820 0.9827 0.9837
2291.991247 0.9847 0.9857 0.9862 0.9864 0.9867
2296.323391 0.9869 0.9873 0.9878 0.9883 0.9889
2300.655534 0.9897 0.9907 0.9917 0.9927 0.9930
2304.987678 0.9930 0.9930 0.9930 0.9930 0.9930
2309.319821 0.9930 0.9930 0.9932 0.9935 0.9937
2313.651965 0.9940 0.9940 0.9940 0.9940 0.9940
2317.984108 0.9944 0.9949 0.9954 0.9959 0.9960
2322.316252 0.9960 0.9960 0.9960 0.9964 0.9969
2326.648395 0.9974 0.9979 0.9980 0.9980 0.9980
2330.980539 0.9980 0.9980 0.9980 0.9980 0.9980
2335.312682 0.9985 0.9990 0.9995 1.0000 1.0000
2339.644826 1.0000 1.0000 1.0000 1.0000 1.0000
2343.976969 1.0000 1.0000 1.0000 1.0000 1.0000
2348.309113 1.0000 1.0000 1.0000 1.0000 1.0000
2352.641256 1.0000 1.0000 1.0000 1.0000 1.0000
2356.973400 1.0000 1.0000 1.0000 0.9995 0.9990
2361.305543 0.9985 0.9980 0.9980 0.9980 0.9980
2365.637687 0.9980 0.9975 0.9970 0.9965 0.9959
2369.969830 0.9954 0.9949 0.9944 0.9940 0.9940
2374.301974 0.9940 0.9940 0.9940 0.9937 0.9935
2378.634117 0.9932 0.9929 0.9924 0.9919 0.9914
2382.966261 0.9910 0.9910 0.9910 0.9910 0.9911
2387.298404 0.9916 0.9921 0.9926 0.9932 0.9939
2391.630548 0.9947 0.9955 0.9961 0.9966 0.9971
2395.962691 0.9976 0.9980 0.9980 0.9980 0.9980
2400.294835 0.9981 0.9986 0.9991 0.9997 1.0001
2404.626978 1.0003 1.0006 1.0008 1.0010 1.0010
2408.959122 1.0010 1.0010 1.0010 1.0010 1.0010
2413.291265 1.0010 1.0010 1.0010 1.0010 1.0010
2417.623409 1.0010 1.0010 1.0010 1.0010 1.0010
2421.955552 1.0010 1.0010 1.0010 1.0010 1.0010
2426.287696 1.0010 1.0010 1.0010 1.0010 1.0010
2430.619839 1.0010 1.0010 1.0010 1.0010 1.0010
2434.951983 1.0010 1.0010 1.0010 1.0010 1.0006
2439.284126 0.9999 0.9991 0.9984 0.9980 0.9980
2443.616270 0.9980 0.9980 0.9977 0.9972 0.9967
2447.948413 0.9962 0.9957 0.9952 0.9947 0.9942
2452.280557 0.9935 0.9928 0.9920 0.9913 0.9902
2456.612700 0.9889 0.9877 0.9864 0.9852 0.9839
2460.944844 0.9827 0.9814 0.9795 0.9772 0.9750
2465.276987 0.9727 0.9708 0.9690 0.9673 0.9655
2469.609131 0.9636 0.9616 0.9596 0.9576 0.9559
2473.941274 0.9544 0.9529 0.9514 0.9501 0.9488
2478.273418 0.9476 0.9463 0.9428 0.9385 0.9341
2482.605561 0.9298 0.9226 0.9148 0.9071 0.8993
2486.937705 0.8923 0.8856 0.8788 0.8720 0.8589
2491.269848 0.8446 0.8303 0.8160 0.8000 0.7837
2495.601992 0.7674 0.7511 0.7234 0.6941 0.6648
2499.934135 0.6354 0.6245 0.6159 0.6074 0.5989
2504.266279 0.5953 0.5923 0.5893 0.5863 0.5828
2508.598422 0.5793 0.5758 0.5723 0.5692 0.5662
2512.930566 0.5632 0.5602 0.5600 0.5600 0.5600
2517.262709 0.5600 0.5597 0.5595 0.5592 0.5590
2521.594853 0.5593 0.5595 0.5598 0.5601 0.5632
2525.926996 0.5662 0.5692 0.5731 0.5909 0.6087
2530.259140 0.6265 0.6445 0.6645 0.6846 0.7047
2534.591283 0.7238 0.7325 0.7413 0.7501 0.7584
2538.923427 0.7621 0.7659 0.7697 0.7730 0.7730
2543.255570 0.7730 0.7730 0.7725 0.7688 0.7650
2547.587714 0.7613 0.7578 0.7560 0.7542 0.7524
2551.919857 0.7494 0.7421 0.7348 0.7275 0.7209
2556.252001 0.7164 0.7119 0.7074 0.7019 0.6933
2560.584144 0.6848 0.6763 0.6690 0.6653 0.6615
2564.916288 0.6577 0.6532 0.6467 0.6402 0.6336
2569.248431 0.6273 0.6213 0.6152 0.6092 0.6034
2573.580575 0.5978 0.5923 0.5868 0.5812 0.5754
2577.912718 0.5697 0.5639 0.5582 0.5527 0.5472
2582.244862 0.5417 0.5316 0.5127 0.4938 0.4748
2586.577005 0.4627 0.4597 0.4567 0.4537 0.4520
2590.909149 0.4520 0.4520 0.4520 0.4528 0.4545
2595.241292 0.4563 0.4581 0.4592 0.4597 0.4602
2599.573436 0.4607 0.4634 0.4684 0.4734 0.4784
2603.905579 0.4836 0.4888 0.4941 0.4994 0.5041
2608.237723 0.5084 0.5127 0.5169 0.5227 0.5300
2612.569866 0.5373 0.5445 0.5521 0.5599 0.5676
2616.902010 0.5754 0.5835 0.5920 0.6004 0.6089
2621.234153 0.6180 0.6275 0.6370 0.6466 0.6558
2625.566297 0.6648 0.6738 0.6829 0.6921 0.7013
2629.898440 0.7106 0.7199 0.7297 0.7397 0.7497
2634.230584 0.7598 0.7691 0.7781 0.7872 0.7962
2638.562727 0.8049 0.8134 0.8219 0.8305 0.8406
2642.894871 0.8513 0.8621 0.8729 0.8781 0.8812
2647.227014 0.8842 0.8872 0.8893 0.8910 0.8928
2651.559158 0.8945 0.8988 0.9039 0.9090 0.9141
2655.891301 0.9198 0.9256 0.9313 0.9371 0.9422
2660.223445 0.9472 0.9523 0.9573 0.9616 0.9659
2664.555588 0.9702 0.9744 0.9774 0.9801 0.9829
2668.887732 0.9857 0.9862 0.9865 0.9867 0.9870
2673.219875 0.9874 0.9879 0.9885 0.9890 0.9895
2677.552019 0.9900 0.9905 0.9910 0.9910 0.9910
2681.884162 0.9910 0.9910 0.9910 0.9910 0.9910
2686.216306 0.9910 0.9915 0.9920 0.9925 0.9930
2690.548449 0.9930 0.9930 0.9930 0.9930 0.9930
2694.880593 0.9930 0.9930 0.9930 0.9938 0.9945
2699.212736 0.9953 0.9960 0.9965 0.9970 0.9975
2703.544880 0.9980 0.9985 0.9990 0.9995 1.0000
2707.877023 1.0000 1.0000 1.0000 1.0000 1.0000
2712.209167 1.0000 1.0000 1.0000 1.0000 1.0000
2716.541310 1.0000 1.0000 1.0003 1.0005 1.0008
2720.873454 1.0010 1.0010 1.0010 1.0010 1.0011
2725.205597 1.0016 1.0021 1.0026 1.0030 1.0030
2729.537741 1.0030 1.0030 1.0031 1.0036 1.0041
2733.869884 1.0046 1.0050 1.0050 1.0050 1.0050
2738.202028 1.0050 1.0050 1.0050 1.0050 1.0049
2742.534171 1.0044 1.0039 1.0034 1.0030 1.0030
2746.866315 1.0030 1.0030 1.0030 1.0030 1.0030
2751.198458 1.0030 1.0030 1.0030 1.0030 1.0030
2755.530602 1.0030 1.0030 1.0030 1.0030 1.0030
2759.862745 1.0030 1.0030 1.0030 1.0030 1.0030
2764.194889 1.0030 1.0030 1.0028 1.0023 1.0018
2768.527032 1.0013 1.0010 1.0010 1.0010 1.0010
2772.859176 1.0010 1.0010 1.0010 1.0010 1.0010
2777.191319 1.0010 1.0010 1.0010 1.0010 1.0010
2781.523463 1.0010 1.0010 1.0006 0.9999 0.9991
2785.855606 0.9984 0.9980 0.9980 0.9980 0.9980
2790.187750 0.9980 0.9980 0.9980 0.9980 0.9980
2794.519893 0.9980 0.9980 0.9980 0.9977 0.9972
2798.852037 0.9967 0.9962 0.9960 0.9960 0.9960
2803.184180 0.9960 0.9960 0.9960 0.9960 0.9960
2807.516324 0.9960 0.9960 0.9960 0.9960 0.9960
2811.848467 0.9960 0.9960 0.9960 0.9956 0.9951
2816.180611 0.9946 0.9941 0.9944 0.9949 0.9954
2820.512754 0.9959 0.9960 0.9960 0.9960 0.9960
2824.844898 0.9964 0.9969 0.9974 0.9979 0.9984
2829.177041 0.9989 0.9994 0.9999 1.0000 1.0000
2833.509185 1.0000 1.0000 1.0000 1.0000 1.0000
2837.841328 1.0000 1.0000 1.0000 1.0000 1.0000
2842.173472 1.0000 1.0000 1.0000 1.0000 1.0000
2846.505615 1.0000 1.0000 1.0000 1.0000 1.0000
2850.837759 1.0000 1.0000 0.9995 0.9990 0.9985
2855.169902 0.9980 0.9980 0.9980 0.9980 0.9980
2859.502046 0.9975 0.9970 0.9965 0.9960 0.9955
2863.834189 0.9950 0.9945 0.9940 0.9940 0.9940
2868.166333 0.9940 0.9940 0.9940 0.9940 0.9940
2872.498476 0.9940 0.9937 0.9935 0.9932 0.9930
2876.830620 0.9930 0.9930 0.9930 0.9930 0.9930
2881.162763 0.9930 0.9930 0.9930 0.9930 0.9930
2885.494907 0.9930 0.9930 0.9930 0.9930 0.9930
2889.827050 0.9930 0.9930 0.9930 0.9930 0.9930
2894.159194 0.9930 0.9930 0.9930 0.9931 0.9933
2898.491337 0.9936 0.9938 0.9939 0.9937 0.9934
2902.823481 0.9932 0.9930 0.9930 0.9930 0.9930
2907.155624 0.9931 0.9933 0.9936 0.9938 0.9940
2911.487768 0.9940 0.9940 0.9940 0.9940 0.9940
2915.819911 0.9940 0.9940 0.9940 0.9940 0.9940
2920.152055 0.9940 0.9942 0.9947 0.9952 0.9957
2924.484198 0.9960 0.9960 0.9960 0.9960 0.9962
2928.816342 0.9967 0.9972 0.9977 0.9980 0.9980
2933.148485 0.9980 0.9980 0.9982 0.9987 0.9992
2937.480629 0.9997 1.0000 1.0000 1.0000 1.0000
2941.812772 1.0000 1.0000 1.0000 1.0000 1.0000
2946.144916 1.0000 1.0000 1.0000 1.0000 1.0000
2950.477059 1.0000 1.0000 1.0000 1.0000 1.0000
2954.809203 1.0000 1.0001 1.0004 1.0006 1.0009
2959.141346 1.0010 1.0010 1.0010 1.0010 1.0010
2963.473490 1.0010 1.0010 1.0010 1.0010 1.0010
2967.805633 1.0010 1.0010 1.0010 1.0010 1.0010
2972.137777 1.0010 1.0013 1.0018 1.0023 1.0028
2976.469920 1.0030 1.0030 1.0030 1.0030 1.0027
2980.802064 1.0022 1.0016 1.0012 1.0010 1.0010
2985.134207 1.0010 1.0010 1.0010 1.0010 1.0010
2989.466351 1.0010 1.0010 1.0010 1.0010 1.0010
2993.798494 1.0008 1.0006 1.0003 1.0001 1.0000
2998.130638 1.0000 1.0000 1.0000 1.0000 1.0000
3002.462781 1.0000 1.0000 0.9996 0.9991 0.9986
3006.794925 0.9981 0.9980 0.9980 0.9980 0.9980
3011.127068 0.9980 0.9980 0.9980 0.9980 0.9980
3015.459212 0.9980 0.9980 0.9980 0.9980 0.9980
3019.791355 0.9980 0.9980 0.9980 0.9980 0.9980
3024.123499 0.9980 0.9980 0.9980 0.9980 0.9980
3028.455642 0.9980 0.9980 0.9980 0.9980 0.9980
3032.787786 0.9980 0.9980 0.9980 0.9980 0.9980
3037.119929 0.9980 0.9980 0.9980 0.9980 0.9980
3041.452073 0.9980 0.9980 0.9980 0.9980 0.9980
3045.784216 0.9980 0.9980 0.9980 0.9980 0.9980
3050.116360 0.9980 0.9980 0.9980 0.9980 0.9980
3054.448503 0.9980 0.9980 0.9980 0.9980 0.9980
3058.780647 0.9980 0.9980 0.9980 0.9980 0.9980
3063.112790 0.9980 0.9980 0.9980 0.9980 0.9980
3067.444934 0.9980 0.9980 0.9980 0.9980 0.9980
3071.777077 0.9980 0.9980 0.9980 0.9980 0.9980
3076.109221 0.9980 0.9980 0.9980 0.9980 0.9980
3080.441364 0.9980 0.9980 0.9980 0.9979 0.9974
3084.773508 0.9969 0.9963 0.9960 0.9960 0.9960
3089.105651 0.9960 0.9958 0.9953 0.9948 0.9943
3093.437795 0.9940 0.9940 0.9940 0.9940 0.9940
3097.769938 0.9940 0.9940 0.9940 0.9939 0.9937
3102.102082 0.9934 0.9931 0.9930 0.9930 0.9930
3106.434225 0.9930 0.9930 0.9930 0.9930 0.9930
3110.766369 0.9930 0.9930 0.9930 0.9930 0.9930
3115.098512 0.9930 0.9930 0.9930 0.9930 0.9930
3119.430656 0.9930 0.9930 0.9927 0.9922 0.9917
3123.762799 0.9912 0.9910 0.9910 0.9910 0.9910
3128.094943 0.9910 0.9910 0.9910 0.9910 0.9910
3132.427086 0.9910 0.9910 0.9910 0.9907 0.9902
3136.759230 0.9897 0.9892 0.9890 0.9890 0.9890
3141.091373 0.9890 0.9887 0.9882 0.9877 0.9872
3145.423517 0.9873 0.9878 0.9883 0.9888 0.9890
3149.755660 0.9890 0.9890 0.9890 0.9890 0.9890
3154.087804 0.9890 0.9890 0.9890 0.9890 0.9890
3158.419947 0.9890 0.9890 0.9890 0.9890 0.9890
3162.752091 0.9890 0.9890 0.9890 0.9890 0.9890
3167.084234 0.9890 0.9890 0.9890 0.9890 0.9890
3171.416378 0.9890 0.9890 0.9890 0.9890 0.9890
3175.748521 0.9890 0.9886 0.9881 0.9876 0.9871
3180.080665 0.9870 0.9870 0.9870 0.9870 0.9870
3184.412808 0.9870 0.9870 0.9870 0.9870 0.9870
3188.744952 0.9870 0.9870 0.9868 0.9865 0.9863
3193.077095 0.9860 0.9860 0.9860 0.9860 0.9860
3197.409239 0.9855 0.9850 0.9845 0.9840 0.9845
3201.741382 0.9850 0.9855 0.9860 0.9860 0.9860
3206.073526 0.9860 0.9860 0.9863 0.9865 0.9868
3210.405669 0.9870 0.9867 0.9865 0.9862 0.9860
3214.737813 0.9860 0.9860 0.9860 0.9860 0.9855
3219.069956 0.9850 0.9845 0.9840 0.9840 0.9840
3223.402100 0.9840 0.9840 0.9840 0.9840 0.9840
3227.734243 0.9840 0.9840 0.9840 0.9840 0.9840
3232.066387 0.9840 0.9840 0.9840 0.9840 0.9840
3236.398530 0.9840 0.9840 0.9839 0.9834 0.9829
3240.730674 0.9824 0.9820 0.9820 0.9820 0.9820
3245.062817 0.9820 0.9820 0.9820 0.9820 0.9820
3249.394961 0.9820 0.9820 0.9820 0.9820 0.9820
3253.727104 0.9820 0.9820 0.9822 0.9827 0.9832
3258.059248 0.9837 0.9838 0.9833 0.9828 0.9823
3262.391391 0.9820 0.9820 0.9820 0.9820 0.9820
3266.723535 0.9820 0.9820 0.9820 0.9820 0.9820
3271.055678 0.9820 0.9820 0.9820 0.9820 0.9820
3275.387822 0.9820 0.9819 0.9816 0.9814 0.9811
3279.719965 0.9810 0.9810 0.9810 0.9810 0.9811
3284.052109 0.9814 0.9816 0.9819 0.9820 0.9820
3288.384252 0.9820 0.9820 0.9820 0.9820 0.9820
3292.716396 0.9820 0.9819 0.9816 0.9814 0.9811
3297.048539 0.9810 0.9810 0.9810 0.9810 0.9810
3301.380683 0.9810 0.9810 0.9810 0.9810 0.9810
3305.712826 0.9810 0.9810 0.9810 0.9810 0.9810
3310.044970 0.9810 0.9812 0.9814 0.9817 0.9819
3314.377113 0.9820 0.9820 0.9820 0.9820 0.9820
3318.709257 0.9820 0.9820 0.9820 0.9820 0.9820
3323.041400 0.9820 0.9820 0.9820 0.9820 0.9820
3327.373544 0.9820 0.9820 0.9820 0.9820 0.9820
3331.705687 0.9820 0.9820 0.9820 0.9820 0.9820
3336.037831 0.9820 0.9820 0.9820 0.9820 0.9820
3340.369974 0.9820 0.9820 0.9820 0.9820 0.9820
3344.702118 0.9820 0.9820 0.9820 0.9820 0.9820
3349.034261 0.9818 0.9815 0.9813 0.9810 0.9810
3353.366405 0.9810 0.9810 0.9810 0.9806 0.9801
3357.698548 0.9795 0.9790 0.9790 0.9790 0.9790
3362.030692 0.9790 0.9795 0.9800 0.9805 0.9810
3366.362835 0.9805 0.9800 0.9795 0.9790 0.9790
3370.694979 0.9790 0.9790 0.9790 0.9790 0.9790
3375.027122 0.9790 0.9790 0.9790 0.9790 0.9790
3379.359266 0.9790 0.9795 0.9800 0.9805 0.9810
3383.691409 0.9805 0.9800 0.9795 0.9790 0.9790
3388.023553 0.9790 0.9790 0.9790 0.9785 0.9780
3392.355696 0.9774 0.9770 0.9770 0.9770 0.9770
3396.687840 0.9769 0.9764 0.9759 0.9754 0.9751
3401.019983 0.9756 0.9761 0.9766 0.9770 0.9770
3405.352127 0.9770 0.9770 0.9770 0.9770 0.9770
3409.684270 0.9770 0.9770 0.9770 0.9770 0.9770
3414.016414 0.9769 0.9764 0.9759 0.9754 0.9750
3418.348557 0.9750 0.9750 0.9750 0.9749 0.9747
3422.680701 0.9744 0.9742 0.9740 0.9740 0.9740
3427.012844 0.9740 0.9738 0.9733 0.9728 0.9723
3431.344988 0.9720 0.9720 0.9720 0.9720 0.9720
3435.677131 0.9720 0.9720 0.9720 0.9718 0.9713
3440.009275 0.9708 0.9703 0.9700 0.9700 0.9700
3444.341418 0.9700 0.9700 0.9700 0.9700 0.9700
3448.673562 0.9700 0.9700 0.9700 0.9700 0.9699
3453.005705 0.9696 0.9694 0.9691 0.9690 0.9690
3457.337849 0.9690 0.9690 0.9688 0.9683 0.9677
3461.669992 0.9672 0.9667 0.9662 0.9657 0.9652
3466.002136 0.9647 0.9642 0.9637 0.9632 0.9629
3470.334279 0.9626 0.9624 0.9621 0.9620 0.9620
3474.666423 0.9620 0.9620 0.9617 0.9612 0.9607
3478.998566 0.9602 0.9597 0.9592 0.9587 0.9582
3483.330710 0.9580 0.9580 0.9580 0.9580 0.9580
3487.662853 0.9580 0.9580 0.9580 0.9580 0.9580
3491.994997 0.9580 0.9580 0.9580 0.9580 0.9580
3496.327140 0.9580 0.9575 0.9567 0.9560 0.9552
3500.659284 0.9546 0.9541 0.9536 0.9531 0.9526
3504.991427 0.9521 0.9516 0.9511 0.9508 0.9506
3509.323571 0.9503 0.9501 0.9496 0.9491 0.9486
3513.655714 0.9481 0.9474 0.9466 0.9459 0.9451
3517.987858 0.9437 0.9422 0.9407 0.9392 0.9390
3522.320001 0.9390 0.9390 0.9390 0.9379 0.9366
3526.652145 0.9354 0.9341 0.9340 0.9340 0.9340
3530.984288 0.9340 0.9338 0.9335 0.9333 0.9330
3535.316432 0.9325 0.9320 0.9315 0.9310 0.9310
3539.648575 0.9310 0.9310 0.9310 0.9300 0.9290
3543.980719 0.9280 0.9270 0.9258 0.9245 0.9233
3548.312862 0.9220 0.9218 0.9215 0.9212 0.9210
3552.645006 0.9205 0.9200 0.9195 0.9190 0.9185
3556.977149 0.9180 0.9175 0.9170 0.9170 0.9170
3561.309293 0.9170 0.9170 0.9170 0.9170 0.9170
3565.641436 0.9169 0.9164 0.9159 0.9154 0.9150
3569.973580 0.9150 0.9150 0.9150 0.9150 0.9147
3574.305723 0.9145 0.9142 0.9140 0.9140 0.9140
3578.637867 0.9140 0.9140 0.9143 0.9145 0.9148
3582.970010 0.9150 0.9150 0.9150 0.9150 0.9151
3587.302154 0.9156 0.9161 0.9166 0.9171 0.9176
3591.634297 0.9181 0.9186 0.9191 0.9196 0.9201
3595.966441 0.9206 0.9211 0.9213 0.9216 0.9218
3600.298584 0.9222 0.9227 0.9232 0.9237 0.9242
3604.630728 0.9250 0.9257 0.9265 0.9272 0.9277
3608.962871 0.9282 0.9287 0.9294 0.9304 0.9314
3613.295015 0.9324 0.9333 0.9340 0.9348 0.9355
3617.627158 0.9365 0.9378 0.9390 0.9403 0.9416
3621.959302 0.9428 0.9441 0.9453 0.9462 0.9467
3626.291445 0.9472 0.9477 0.9482 0.9487 0.9492
3630.623589 0.9497 0.9501 0.9504 0.9506 0.9509
3634.955732 0.9510 0.9510 0.9510 0.9510 0.9513
3639.287876 0.9518 0.9523 0.9528 0.9533 0.9538
3643.620019 0.9543 0.9548 0.9553 0.9558 0.9563
3647.952163 0.9568 0.9571 0.9574 0.9576 0.9579
3652.284306 0.9583 0.9588 0.9593 0.9598 0.9603
3656.616450 0.9608 0.9613 0.9618 0.9620 0.9620
3660.948593 0.9620 0.9620 0.9622 0.9624 0.9627
3665.280737 0.9629 0.9637 0.9647 0.9657 0.9667
3669.612880 0.9675 0.9683 0.9690 0.9698 0.9704
3673.945024 0.9709 0.9714 0.9719 0.9726 0.9733
3678.277167 0.9741 0.9748 0.9750 0.9750 0.9750
3682.609311 0.9750 0.9763 0.9781 0.9799 0.9816
3686.941454 0.9828 0.9838 0.9848 0.9859 0.9862
3691.273598 0.9865 0.9867 0.9870 0.9874 0.9879
3695.605741 0.9884 0.9889 0.9890 0.9890 0.9890
3699.937885 0.9890 0.9895 0.9900 0.9905 0.9910
3704.270028 0.9915 0.9920 0.9925 0.9930 0.9937
3708.602172 0.9945 0.9952 0.9960 0.9965 0.9970
3712.934315 0.9975 0.9980 0.9980 0.9980 0.9980
3717.266459 0.9980 0.9980 0.9980 0.9980 0.9980
3721.598602 0.9980 0.9980 0.9980 0.9980 0.9980
3725.930746 0.9980 0.9980
##END=
