##TITLE=L-CYSTEINEAMIDE HYDROCHLORIDE
##JCAMP-DX=4.24
##DATA TYPE=INFRARED SPECTRUM
##CLASS=COBLENTZ
##ORIGIN=ARTHUR D. LITTLE, INC.
##OWNER=COBLENTZ SOCIETY
Collection (C) 2018 copyright by the U.S. Secretary of Commerce
on behalf of the United States of America. All rights reserved.
##DATE=Not specified, most likely prior to 1970
##NAMES=2-amino-3-sulfanylpropanamide hydrochloride
##MOLFORM=C3 H8 N2 S O  * H Cl
##MP=187-188 C
##SOURCE REFERENCE=COBLENTZ NO. 4594
##$NIST ID=B6004594
##$NIST SOURCE=COBLENTZ
##$NIST IMAGE=cob4594
##SPECTROMETER/DATA SYSTEM=Not specified, most likely a prism, grating, or hybrid spectrometer.
##STATE=SOLID (MINERAL OIL MULL)
##SAMPLING PROCEDURE=TRANSMISSION
##RESOLUTION=4
##DATA PROCESSING=DIGITIZED BY NIST FROM HARD COPY
##XUNITS=MICROMETERS
##YUNITS=TRANSMITTANCE
##XFACTOR=1.000000
##YFACTOR=1
##DELTAX=000.005482
##FIRSTX=2.463
##LASTX=15.0004
##FIRSTY=0.921
##MAXX=15.0004
##MINX=2.463
##MAXY=0.939
##MINY=0
##NPOINTS=2288
##XYDATA=(X++(Y..Y))
2.463000 0.9210 0.9210 0.9220 0.9230 0.9240
2.490422 0.9210 0.9210 0.9220 0.9230 0.9240
2.518000 0.9250 0.9250 0.9260 0.9270 0.9270
2.545422 0.9290 0.9310 0.9330 0.9340 0.9350
2.572000 0.9370 0.9380 0.9380 0.9390 0.9390
2.599422 0.9390 0.9390 0.9380 0.9370 0.9340
2.627000 0.9320 0.9300 0.9270 0.9260 0.9240
2.654422 0.9210 0.9170 0.9090 0.9080 0.9050
2.682000 0.9010 0.8970 0.8960 0.8940 0.8900
2.709422 0.8890 0.8840 0.8810 0.8770 0.8740
2.737000 0.8680 0.8650 0.8630 0.8560 0.8400
2.764422 0.8320 0.8260 0.8150 0.8060 0.8000
2.792000 0.7930 0.7880 0.7800 0.7710 0.7580
2.819422 0.7400 0.7370 0.7320 0.7240 0.7130
2.847000 0.7000 0.6690 0.6500 0.6290 0.6080
2.874422 0.5850 0.5620 0.5130 0.4860 0.4610
2.901000 0.4360 0.4110 0.3620 0.3380 0.3160
2.928422 0.2940 0.2750 0.2560 0.2000 0.1910
2.956000 0.1570 0.1430 0.1250 0.0990 0.0670
2.983422 0.0550 0.0450 0.0430 0.0420 0.0420
3.011000 0.0420 0.0430 0.0440 0.0450 0.0480
3.038422 0.0490 0.0510 0.0530 0.0560 0.0580
3.066000 0.0620 0.0640 0.0650 0.0650 0.0660
3.093422 0.0660 0.0660 0.0660 0.0650 0.0640
3.121000 0.0630 0.0620 0.0460 0.0420 0.0370
3.148422 0.0360 0.0360 0.0360 0.0370 0.0380
3.175000 0.0400 0.0420 0.0430 0.0440 0.0460
3.202422 0.0510 0.0520 0.0540 0.0550 0.0560
3.230000 0.0560 0.0550 0.0540 0.0510 0.0500
3.257422 0.0450 0.0430 0.0420 0.0410 0.0380
3.285000 0.0360 0.0340 0.0330 0.0320 0.0320
3.312422 0.0310 0.0310 0.0300 0.0300 0.0270
3.340000 0.0250 0.0210 0.0180 0.0000 0.0000
3.367422 0.0120 0.0190 0.0250 0.0270 0.0290
3.395000 0.0300 0.0300 0.0290 0.0280 0.0270
3.422422 0.0260 0.0260 0.0270 0.0280 0.0290
3.450000 0.0310 0.0340 0.0370 0.0450 0.0480
3.477422 0.0540 0.0570 0.0760 0.0970 0.0980
3.504000 0.0990 0.1010 0.1090 0.1220 0.1470
3.531422 0.1710 0.1870 0.1930 0.1960 0.1960
3.559000 0.1970 0.1970 0.1980 0.1980 0.1980
3.586422 0.1980 0.1990 0.1990 0.2000 0.2000
3.614000 0.2010 0.2040 0.2080 0.2100 0.2190
3.641422 0.2320 0.2360 0.2420 0.2470 0.2530
3.669000 0.2700 0.2790 0.2920 0.2960 0.2990
3.696422 0.3000 0.3040 0.3130 0.3160 0.3170
3.724000 0.3240 0.3370 0.3520 0.3560 0.3590
3.751422 0.3630 0.3650 0.3670 0.3680 0.3680
3.778000 0.3680 0.3700 0.3700 0.3700 0.3700
3.805422 0.3700 0.3710 0.3740 0.3820 0.3880
3.833000 0.3950 0.3990 0.4030 0.4100 0.4290
3.860422 0.4420 0.4790 0.4900 0.5000 0.5160
3.888000 0.5290 0.5400 0.5660 0.5920 0.6020
3.915422 0.6110 0.6160 0.6310 0.6380 0.6480
3.943000 0.6550 0.6570 0.6600 0.6610 0.6620
3.970422 0.6620 0.6630 0.6640 0.6670 0.6690
3.998000 0.6730 0.6800 0.6880 0.6940 0.6990
4.025422 0.7040 0.7080 0.7120 0.7190 0.7300
4.053000 0.7330 0.7390 0.7420 0.7420 0.7440
4.080422 0.7480 0.7580 0.7630 0.7660 0.7710
4.107000 0.7760 0.7790 0.7840 0.7910 0.7940
4.134422 0.7980 0.8040 0.8110 0.8140 0.8170
4.162000 0.8200 0.8230 0.8250 0.8280 0.8350
4.189422 0.8400 0.8430 0.8490 0.8510 0.8520
4.217000 0.8540 0.8560 0.8590 0.8610 0.8630
4.244422 0.8650 0.8670 0.8680 0.8700 0.8700
4.272000 0.8700 0.8680 0.8670 0.8660 0.8650
4.299422 0.8650 0.8650 0.8660 0.8670 0.8700
4.327000 0.8750 0.8780 0.8830 0.8880 0.8900
4.354422 0.8910 0.8940 0.8970 0.9030 0.9060
4.381000 0.9070 0.9070 0.9080 0.9080 0.9090
4.408422 0.9090 0.9080 0.9080 0.9070 0.9070
4.436000 0.9060 0.9060 0.9060 0.9070 0.9070
4.463422 0.9080 0.9090 0.9100 0.9150 0.9190
4.491000 0.9230 0.9240 0.9240 0.9260 0.9270
4.518422 0.9270 0.9270 0.9260 0.9260 0.9260
4.546000 0.9260 0.9270 0.9270 0.9290 0.9290
4.573422 0.9290 0.9290 0.9270 0.9260 0.9250
4.601000 0.9250 0.9240 0.9240 0.9240 0.9240
4.628422 0.9250 0.9250 0.9260 0.9260 0.9270
4.656000 0.9270 0.9290 0.9300 0.9300 0.9310
4.683422 0.9310 0.9310 0.9310 0.9300 0.9270
4.710000 0.9240 0.9220 0.9210 0.9190 0.9150
4.737422 0.9090 0.9050 0.9020 0.9000 0.8990
4.765000 0.8970 0.8940 0.8910 0.8890 0.8870
4.792422 0.8860 0.8840 0.8830 0.8810 0.8790
4.820000 0.8780 0.8760 0.8750 0.8730 0.8720
4.847422 0.8710 0.8700 0.8680 0.8670 0.8650
4.875000 0.8640 0.8610 0.8590 0.8580 0.8550
4.902422 0.8530 0.8510 0.8500 0.8440 0.8430
4.930000 0.8380 0.8350 0.8270 0.8250 0.8220
4.957422 0.8190 0.8160 0.8130 0.8110 0.8080
4.984000 0.8060 0.8040 0.8020 0.7990 0.7980
5.011422 0.7960 0.7950 0.7930 0.7930 0.7920
5.039000 0.7920 0.7910 0.7910 0.7910 0.7920
5.066422 0.7930 0.7950 0.7960 0.7990 0.8000
5.094000 0.8020 0.8040 0.8050 0.8060 0.8070
5.121422 0.8080 0.8100 0.8120 0.8130 0.8150
5.149000 0.8160 0.8190 0.8250 0.8360 0.8400
5.176422 0.8420 0.8440 0.8480 0.8500 0.8520
5.204000 0.8560 0.8610 0.8660 0.8730 0.8760
5.231422 0.8810 0.8830 0.8900 0.8910 0.8930
5.259000 0.8950 0.8960 0.8980 0.8990 0.8990
5.286422 0.9010 0.9020 0.9020 0.9030 0.9030
5.313000 0.9030 0.9030 0.9050 0.9050 0.9050
5.340422 0.9050 0.9030 0.9030 0.9030 0.9020
5.368000 0.9020 0.9010 0.9010 0.9000 0.8990
5.395422 0.8980 0.8970 0.8960 0.8950 0.8940
5.423000 0.8930 0.8910 0.8900 0.8900 0.8890
5.450422 0.8880 0.8870 0.8860 0.8860 0.8830
5.478000 0.8820 0.8780 0.8750 0.8740 0.8680
5.505422 0.8630 0.8550 0.8410 0.8390 0.8320
5.533000 0.8280 0.8280 0.8250 0.8230 0.8160
5.560422 0.8130 0.8040 0.7950 0.7930 0.7810
5.587000 0.7740 0.7650 0.7630 0.7600 0.7560
5.614422 0.7520 0.7450 0.7400 0.7350 0.7320
5.642000 0.7280 0.7150 0.7100 0.6880 0.6810
5.669422 0.6710 0.6570 0.6340 0.6320 0.6310
5.697000 0.6210 0.6120 0.6050 0.5680 0.5210
5.724422 0.5180 0.5070 0.4900 0.4730 0.4610
5.752000 0.4440 0.4270 0.4220 0.4000 0.3730
5.779422 0.3370 0.3190 0.2980 0.2690 0.2500
5.807000 0.2220 0.1940 0.1510 0.1490 0.1350
5.834422 0.1240 0.1130 0.1010 0.0990 0.0850
5.862000 0.0640 0.0540 0.0460 0.0450 0.0390
5.889422 0.0360 0.0320 0.0300 0.0290 0.0300
5.916000 0.0310 0.0340 0.0390 0.0480 0.0640
5.943422 0.0800 0.0810 0.0840 0.0910 0.1310
5.971000 0.1690 0.2070 0.2460 0.2670 0.2880
5.998422 0.3290 0.3720 0.4110 0.4490 0.4540
6.026000 0.4670 0.4680 0.4690 0.4690 0.4680
6.053422 0.4650 0.4430 0.4230 0.4030 0.3080
6.081000 0.2760 0.2570 0.2270 0.2150 0.2030
6.108422 0.1930 0.1800 0.1690 0.1500 0.1440
6.136000 0.1370 0.1350 0.1290 0.1280 0.1280
6.163422 0.1310 0.1370 0.1430 0.1480 0.1670
6.190000 0.2000 0.2230 0.2340 0.2400 0.2420
6.217422 0.2480 0.2500 0.2500 0.2510 0.2500
6.245000 0.2460 0.2400 0.2290 0.2230 0.2180
6.272422 0.2150 0.2080 0.2070 0.2090 0.2420
6.300000 0.2530 0.2630 0.2770 0.3050 0.3320
6.327422 0.3850 0.4000 0.4140 0.4540 0.4770
6.355000 0.5240 0.5430 0.5620 0.5940 0.6200
6.382422 0.6510 0.6550 0.6580 0.6590 0.6610
6.410000 0.6650 0.6750 0.6770 0.6830 0.6930
6.437422 0.6950 0.6960 0.6980 0.6980 0.6980
6.465000 0.6980 0.6970 0.6930 0.6680 0.6600
6.492422 0.6520 0.6430 0.6290 0.6120 0.5930
6.519000 0.5770 0.5600 0.5290 0.5070 0.4930
6.546422 0.4710 0.4500 0.4330 0.4110 0.3790
6.574000 0.3620 0.3420 0.3240 0.3060 0.2890
6.601422 0.2760 0.2640 0.2530 0.2350 0.2310
6.629000 0.2240 0.2170 0.2080 0.1980 0.1860
6.656422 0.1770 0.1600 0.1500 0.1390 0.1280
6.684000 0.1150 0.0990 0.0730 0.0570 0.0460
6.711422 0.0430 0.0380 0.0360 0.0330 0.0310
6.739000 0.0300 0.0300 0.0300 0.0300 0.0310
6.766422 0.0310 0.0320 0.0330 0.0340 0.0340
6.794000 0.0360 0.0370 0.0370 0.0390 0.0410
6.821422 0.0450 0.0560 0.0580 0.0640 0.0680
6.848000 0.0740 0.0760 0.0790 0.0810 0.0840
6.875422 0.0850 0.0860 0.0870 0.0880 0.0880
6.903000 0.0890 0.0900 0.0920 0.1050 0.1170
6.930422 0.1390 0.1590 0.1880 0.2320 0.2630
6.958000 0.2930 0.3010 0.3040 0.3040 0.3030
6.985422 0.2920 0.2780 0.2670 0.2650 0.2150
7.013000 0.2090 0.2050 0.1990 0.1940 0.1940
7.040422 0.1970 0.2030 0.2080 0.2210 0.2320
7.068000 0.2520 0.2700 0.3070 0.3320 0.3430
7.095422 0.3650 0.3880 0.4000 0.4110 0.4220
7.122000 0.4310 0.4390 0.4440 0.4470 0.4490
7.149422 0.4500 0.4530 0.4540 0.4550 0.4540
7.177000 0.4530 0.4490 0.4410 0.4310 0.4210
7.204422 0.4130 0.4080 0.4010 0.3890 0.3840
7.232000 0.3820 0.3820 0.3840 0.3880 0.3940
7.259422 0.3980 0.4030 0.4080 0.4100 0.4180
7.287000 0.4200 0.4270 0.4300 0.4360 0.4380
7.314422 0.4430 0.4450 0.4480 0.4530 0.4530
7.342000 0.4550 0.4550 0.4540 0.4530 0.4500
7.369422 0.4440 0.4420 0.4340 0.4190 0.4120
7.397000 0.4050 0.3820 0.3720 0.3620 0.3500
7.424422 0.3340 0.3190 0.3100 0.3000 0.2910
7.451000 0.2810 0.2700 0.2600 0.2510 0.2510
7.478422 0.2660 0.2920 0.3180 0.3380 0.3600
7.506000 0.3620 0.3610 0.3580 0.3530 0.3510
7.533422 0.3460 0.3400 0.3340 0.3280 0.3220
7.561000 0.3220 0.3170 0.3150 0.3140 0.3100
7.588422 0.3030 0.3020 0.2960 0.2880 0.2820
7.616000 0.2710 0.2580 0.2540 0.2320 0.2110
7.643422 0.2110 0.2310 0.2460 0.2620 0.2710
7.671000 0.3040 0.3220 0.3460 0.3680 0.3930
7.698422 0.4020 0.4110 0.4310 0.4470 0.4620
7.725000 0.4680 0.4730 0.4790 0.4820 0.4860
7.752422 0.4940 0.4980 0.5060 0.5160 0.5240
7.780000 0.5310 0.5370 0.5420 0.5460 0.5500
7.807422 0.5520 0.5560 0.5600 0.5610 0.5630
7.835000 0.5660 0.5690 0.5730 0.5750 0.5770
7.862422 0.5800 0.5820 0.5860 0.5900 0.5960
7.890000 0.6100 0.6170 0.6280 0.6400 0.6600
7.917422 0.6670 0.6710 0.6730 0.6770 0.6810
7.945000 0.6840 0.6880 0.6910 0.6950 0.6970
7.972422 0.6990 0.7040 0.7050 0.7060 0.7110
8.000000 0.7160 0.7210 0.7240 0.7250 0.7280
8.027422 0.7300 0.7330 0.7340 0.7360 0.7370
8.054000 0.7370 0.7390 0.7390 0.7390 0.7370
8.081422 0.7370 0.7370 0.7360 0.7360 0.7360
8.109000 0.7350 0.7340 0.7310 0.7280 0.7240
8.136422 0.7120 0.7070 0.6880 0.6810 0.6620
8.164000 0.6600 0.6510 0.6320 0.6320 0.6440
8.191422 0.6640 0.6720 0.6820 0.6890 0.6940
8.219000 0.6980 0.7030 0.7070 0.7070 0.7160
8.246422 0.7200 0.7250 0.7310 0.7350 0.7400
8.274000 0.7430 0.7520 0.7550 0.7590 0.7630
8.301422 0.7650 0.7670 0.7690 0.7710 0.7740
8.328000 0.7750 0.7760 0.7780 0.7810 0.7840
8.355422 0.7870 0.7890 0.7910 0.7920 0.7930
8.383000 0.7910 0.7890 0.7870 0.7820 0.7800
8.410422 0.7760 0.7720 0.7680 0.7640 0.7620
8.438000 0.7600 0.7540 0.7500 0.7370 0.7360
8.465422 0.7320 0.7250 0.7120 0.7050 0.6860
8.493000 0.6820 0.6690 0.6620 0.6600 0.6510
8.520422 0.6490 0.6450 0.6410 0.6380 0.6330
8.548000 0.6320 0.6260 0.6120 0.5980 0.5850
8.575422 0.5660 0.5570 0.5220 0.5100 0.4980
8.603000 0.4820 0.4680 0.4500 0.4300 0.4190
8.630422 0.4150 0.4130 0.4080 0.4070 0.4060
8.657000 0.4060 0.4060 0.4070 0.4080 0.4110
8.684422 0.4290 0.4530 0.4700 0.4910 0.5160
8.712000 0.5290 0.5320 0.5330 0.5330 0.5330
8.739422 0.5320 0.5260 0.5190 0.5120 0.5070
8.767000 0.5030 0.4970 0.4910 0.4890 0.4780
8.794422 0.4670 0.4670 0.4890 0.5130 0.5430
8.822000 0.5500 0.5550 0.5750 0.6100 0.6320
8.849422 0.6550 0.6770 0.6910 0.7030 0.7240
8.877000 0.7500 0.7760 0.7860 0.7920 0.7940
8.904422 0.7950 0.7960 0.7990 0.7990 0.8020
8.931000 0.8030 0.8050 0.8060 0.8070 0.8080
8.958422 0.8080 0.8080 0.8070 0.8060 0.8030
8.986000 0.8010 0.8000 0.7980 0.7930 0.7870
9.013422 0.7760 0.7700 0.7650 0.7600 0.7520
9.041000 0.7370 0.7290 0.7200 0.7080 0.6870
9.068422 0.6730 0.6630 0.6490 0.6390 0.6280
9.096000 0.6140 0.6010 0.5880 0.5800 0.5770
9.123422 0.5760 0.5760 0.5770 0.5780 0.5800
9.151000 0.5840 0.5870 0.5890 0.5910 0.5960
9.178422 0.6080 0.6130 0.6310 0.6370 0.6400
9.206000 0.6460 0.6490 0.6500 0.6510 0.6520
9.233422 0.6520 0.6510 0.6490 0.6470 0.6390
9.260000 0.6230 0.6180 0.5990 0.5850 0.5650
9.287422 0.5510 0.5160 0.5030 0.4840 0.4590
9.315000 0.4470 0.4290 0.4150 0.3790 0.3630
9.342422 0.3470 0.3400 0.3310 0.3150 0.3010
9.370000 0.3000 0.2990 0.2990 0.2990 0.3000
9.397422 0.3020 0.3180 0.3650 0.3850 0.4050
9.425000 0.4230 0.4530 0.4720 0.5120 0.5480
9.452422 0.5600 0.5700 0.6080 0.6400 0.6730
9.480000 0.6910 0.7080 0.7170 0.7240 0.7300
9.507422 0.7430 0.7470 0.7510 0.7540 0.7560
9.534000 0.7590 0.7620 0.7650 0.7680 0.7710
9.561422 0.7750 0.7800 0.7830 0.7930 0.7950
9.589000 0.7960 0.8020 0.8050 0.8110 0.8170
9.616422 0.8190 0.8240 0.8260 0.8290 0.8340
9.644000 0.8400 0.8470 0.8490 0.8500 0.8510
9.671422 0.8530 0.8550 0.8580 0.8590 0.8600
9.699000 0.8610 0.8630 0.8640 0.8650 0.8660
9.726422 0.8680 0.8680 0.8700 0.8720 0.8740
9.754000 0.8750 0.8770 0.8820 0.8850 0.8860
9.781422 0.8890 0.8910 0.8910 0.8940 0.8950
9.809000 0.8950 0.8960 0.8960 0.8960 0.8960
9.836422 0.8960 0.8960 0.8960 0.8960 0.8950
9.863000 0.8950 0.8950 0.8950 0.8950 0.8940
9.890422 0.8940 0.8940 0.8940 0.8940 0.8930
9.918000 0.8900 0.8900 0.8860 0.8830 0.8810
9.945422 0.8780 0.8770 0.8750 0.8740 0.8710
9.973000 0.8660 0.8600 0.8430 0.8360 0.8290
10.000422 0.8250 0.8200 0.8180 0.8170 0.8160
10.028000 0.8160 0.8150 0.8130 0.8080 0.8070
10.055422 0.8000 0.7950 0.7930 0.7830 0.7810
10.083000 0.7750 0.7720 0.7640 0.7590 0.7560
10.110422 0.7540 0.7510 0.7460 0.7460 0.7510
10.138000 0.7580 0.7680 0.7710 0.7820 0.7930
10.165422 0.7960 0.8060 0.8200 0.8270 0.8320
10.192000 0.8420 0.8480 0.8520 0.8560 0.8590
10.219422 0.8600 0.8610 0.8620 0.8630 0.8640
10.247000 0.8650 0.8660 0.8670 0.8700 0.8710
10.274422 0.8720 0.8720 0.8730 0.8730 0.8730
10.302000 0.8730 0.8730 0.8740 0.8740 0.8750
10.329422 0.8750 0.8750 0.8760 0.8760 0.8760
10.357000 0.8780 0.8780 0.8790 0.8790 0.8810
10.384422 0.8810 0.8810 0.8820 0.8820 0.8830
10.412000 0.8830 0.8820 0.8810 0.8810 0.8790
10.439422 0.8770 0.8770 0.8760 0.8750 0.8720
10.466000 0.8670 0.8590 0.8560 0.8520 0.8470
10.493422 0.8440 0.8410 0.8290 0.8170 0.8050
10.521000 0.7910 0.7760 0.7570 0.7480 0.7350
10.548422 0.7180 0.7010 0.6700 0.6470 0.6280
10.576000 0.6010 0.5730 0.5530 0.5300 0.5130
10.603422 0.4960 0.4790 0.4620 0.4600 0.4610
10.631000 0.4790 0.4970 0.5160 0.5340 0.5440
10.658422 0.5530 0.5580 0.5680 0.5900 0.6120
10.686000 0.6320 0.6470 0.6730 0.6870 0.6960
10.713422 0.6990 0.7030 0.7040 0.7130 0.7200
10.741000 0.7210 0.7270 0.7470 0.7660 0.7740
10.768422 0.7810 0.7860 0.7950 0.8050 0.8140
10.795000 0.8200 0.8280 0.8350 0.8400 0.8460
10.822422 0.8500 0.8530 0.8580 0.8640 0.8700
10.850000 0.8750 0.8780 0.8830 0.8900 0.8910
10.877422 0.8960 0.8990 0.9020 0.9030 0.9050
10.905000 0.9060 0.9070 0.9070 0.9090 0.9110
10.932422 0.9120 0.9120 0.9130 0.9140 0.9150
10.960000 0.9170 0.9190 0.9190 0.9200 0.9200
10.987422 0.9200 0.9200 0.9200 0.9200 0.9210
11.015000 0.9210 0.9210 0.9210 0.9200 0.9200
11.042422 0.9200 0.9200 0.9200 0.9200 0.9200
11.069000 0.9200 0.9200 0.9200 0.9200 0.9210
11.096422 0.9210 0.9220 0.9230 0.9230 0.9230
11.124000 0.9230 0.9230 0.9240 0.9240 0.9240
11.151422 0.9240 0.9240 0.9240 0.9240 0.9240
11.179000 0.9240 0.9240 0.9240 0.9240 0.9240
11.206422 0.9240 0.9240 0.9240 0.9230 0.9230
11.234000 0.9230 0.9230 0.9220 0.9220 0.9210
11.261422 0.9210 0.9210 0.9200 0.9190 0.9180
11.289000 0.9170 0.9170 0.9150 0.9150 0.9140
11.316422 0.9140 0.9130 0.9130 0.9120 0.9120
11.344000 0.9110 0.9100 0.9100 0.9090 0.9090
11.371422 0.9090 0.9080 0.9080 0.9080 0.9080
11.398000 0.9070 0.9070 0.9080 0.9080 0.9080
11.425422 0.9080 0.9090 0.9090 0.9080 0.9080
11.453000 0.9070 0.9070 0.9060 0.9050 0.9030
11.480422 0.9020 0.9010 0.9000 0.8960 0.8950
11.508000 0.8940 0.8900 0.8890 0.8870 0.8830
11.535422 0.8810 0.8730 0.8720 0.8670 0.8630
11.563000 0.8600 0.8520 0.8470 0.8460 0.8430
11.590422 0.8430 0.8380 0.8290 0.8280 0.8270
11.618000 0.8260 0.8190 0.8130 0.8100 0.8080
11.645422 0.8070 0.8060 0.8060 0.8050 0.8040
11.672000 0.8040 0.8040 0.8030 0.8030 0.8030
11.699422 0.8030 0.8030 0.8030 0.8030 0.8030
11.727000 0.8030 0.8030 0.8030 0.8030 0.8030
11.754422 0.8020 0.8010 0.8000 0.7950 0.7940
11.782000 0.7910 0.7810 0.7740 0.7650 0.7600
11.809422 0.7550 0.7470 0.7340 0.7240 0.7150
11.837000 0.7050 0.6860 0.6770 0.6670 0.6570
11.864422 0.6450 0.6360 0.6320 0.6230 0.6080
11.892000 0.5960 0.5870 0.5850 0.5800 0.5750
11.919422 0.5650 0.5540 0.5320 0.5170 0.5080
11.947000 0.5010 0.5000 0.4920 0.4890 0.4850
11.974422 0.4820 0.4780 0.4750 0.4730 0.4720
12.001000 0.4690 0.4680 0.4690 0.4730 0.4800
12.028422 0.4900 0.4970 0.5080 0.5150 0.5270
12.056000 0.5440 0.5530 0.5620 0.5800 0.5960
12.083422 0.6090 0.6310 0.6390 0.6550 0.6640
12.111000 0.6720 0.6870 0.7010 0.7170 0.7320
12.138422 0.7350 0.7450 0.7500 0.7600 0.7630
12.166000 0.7690 0.7740 0.7770 0.7810 0.7840
12.193422 0.7920 0.7930 0.7950 0.8010 0.8050
12.221000 0.8110 0.8150 0.8180 0.8200 0.8230
12.248422 0.8240 0.8250 0.8260 0.8270 0.8290
12.275000 0.8320 0.8350 0.8370 0.8380 0.8390
12.302422 0.8400 0.8420 0.8430 0.8430 0.8430
12.330000 0.8440 0.8440 0.8440 0.8440 0.8440
12.357422 0.8430 0.8430 0.8420 0.8410 0.8410
12.385000 0.8400 0.8390 0.8380 0.8360 0.8350
12.412422 0.8340 0.8320 0.8300 0.8290 0.8280
12.440000 0.8270 0.8260 0.8230 0.8200 0.8180
12.467422 0.8170 0.8110 0.8060 0.8050 0.8040
12.495000 0.8000 0.7990 0.7960 0.7940 0.7910
12.522422 0.7890 0.7880 0.7860 0.7840 0.7820
12.550000 0.7800 0.7770 0.7680 0.7660 0.7590
12.577422 0.7560 0.7510 0.7460 0.7420 0.7370
12.604000 0.7280 0.7220 0.7190 0.7120 0.7070
12.631422 0.6930 0.6870 0.6830 0.6750 0.6670
12.659000 0.6620 0.6570 0.6490 0.6430 0.6380
12.686422 0.6330 0.6310 0.6290 0.6230 0.6180
12.714000 0.6150 0.6110 0.6080 0.6050 0.6040
12.741422 0.6040 0.6050 0.6080 0.6110 0.6150
12.769000 0.6210 0.6250 0.6290 0.6320 0.6340
12.796422 0.6390 0.6430 0.6470 0.6590 0.6640
12.824000 0.6700 0.6740 0.6800 0.6830 0.6850
12.851422 0.6880 0.6890 0.6940 0.6980 0.6990
12.878000 0.7000 0.7060 0.7070 0.7090 0.7110
12.905422 0.7120 0.7130 0.7150 0.7160 0.7170
12.933000 0.7180 0.7190 0.7190 0.7200 0.7200
12.960422 0.7200 0.7200 0.7200 0.7200 0.7200
12.988000 0.7200 0.7200 0.7200 0.7200 0.7200
13.015422 0.7200 0.7200 0.7200 0.7200 0.7200
13.043000 0.7200 0.7200 0.7200 0.7200 0.7200
13.070422 0.7200 0.7200 0.7200 0.7200 0.7210
13.098000 0.7210 0.7210 0.7210 0.7220 0.7220
13.125422 0.7220 0.7230 0.7240 0.7270 0.7330
13.153000 0.7440 0.7470 0.7500 0.7530 0.7550
13.180422 0.7570 0.7600 0.7620 0.7630 0.7640
13.207000 0.7640 0.7650 0.7660 0.7670 0.7670
13.234422 0.7680 0.7690 0.7700 0.7700 0.7700
13.262000 0.7710 0.7710 0.7720 0.7720 0.7740
13.289422 0.7740 0.7750 0.7750 0.7750 0.7740
13.317000 0.7740 0.7720 0.7710 0.7700 0.7690
13.344422 0.7670 0.7660 0.7650 0.7640 0.7630
13.372000 0.7620 0.7600 0.7590 0.7580 0.7570
13.399422 0.7560 0.7530 0.7510 0.7470 0.7460
13.427000 0.7430 0.7410 0.7390 0.7360 0.7350
13.454422 0.7340 0.7330 0.7320 0.7310 0.7290
13.481000 0.7280 0.7270 0.7250 0.7240 0.7230
13.508422 0.7220 0.7210 0.7200 0.7180 0.7170
13.536000 0.7160 0.7130 0.7110 0.7100 0.7090
13.563422 0.7080 0.7060 0.7040 0.7030 0.7010
13.591000 0.6930 0.6850 0.6830 0.6820 0.6810
13.618422 0.6770 0.6720 0.6710 0.6690 0.6670
13.646000 0.6640 0.6620 0.6600 0.6570 0.6560
13.673422 0.6520 0.6490 0.6450 0.6410 0.6390
13.701000 0.6370 0.6340 0.6330 0.6320 0.6310
13.728422 0.6290 0.6290 0.6290 0.6280 0.6280
13.756000 0.6280 0.6270 0.6260 0.6260 0.6220
13.783422 0.6200 0.6170 0.6110 0.6100 0.6090
13.810000 0.6080 0.6050 0.6040 0.6020 0.6010
13.837422 0.6010 0.6000 0.6000 0.6000 0.6000
13.865000 0.5990 0.5990 0.5990 0.5990 0.5980
13.892422 0.5980 0.5980 0.5970 0.5970 0.5970
13.920000 0.5960 0.5960 0.5940 0.5930 0.5930
13.947422 0.5920 0.5910 0.5890 0.5880 0.5870
13.975000 0.5840 0.5810 0.5800 0.5790 0.5780
14.002422 0.5760 0.5740 0.5720 0.5670 0.5660
14.030000 0.5650 0.5640 0.5580 0.5540 0.5530
14.057422 0.5520 0.5480 0.5450 0.5440 0.5430
14.085000 0.5430 0.5420 0.5400 0.5380 0.5360
14.112422 0.5340 0.5310 0.5300 0.5290 0.5270
14.139000 0.5250 0.5220 0.5200 0.5190 0.5180
14.166422 0.5170 0.5160 0.5120 0.5090 0.5080
14.194000 0.5060 0.5030 0.5010 0.5000 0.4970
14.221422 0.4950 0.4920 0.4860 0.4820 0.4800
14.249000 0.4740 0.4710 0.4680 0.4660 0.4620
14.276422 0.4590 0.4550 0.4530 0.4490 0.4460
14.304000 0.4430 0.4390 0.4370 0.4340 0.4260
14.331422 0.4200 0.4170 0.4140 0.4120 0.4100
14.359000 0.4070 0.3990 0.3970 0.3890 0.3860
14.386422 0.3830 0.3790 0.3760 0.3730 0.3680
14.413000 0.3640 0.3560 0.3530 0.3510 0.3420
14.440422 0.3410 0.3360 0.3300 0.3270 0.3240
14.468000 0.3180 0.3170 0.3150 0.3120 0.3100
14.495422 0.3060 0.2980 0.2950 0.2920 0.2880
14.523000 0.2860 0.2820 0.2780 0.2770 0.2750
14.550422 0.2690 0.2660 0.2640 0.2600 0.2580
14.578000 0.2540 0.2510 0.2400 0.2330 0.2300
14.605422 0.2280 0.2270 0.2250 0.2230 0.2220
14.633000 0.2200 0.2190 0.2180 0.2160 0.2160
14.660422 0.2150 0.2120 0.2100 0.2090 0.2080
14.688000 0.2070 0.2050 0.2040 0.2010 0.2010
14.715422 0.2000 0.1990 0.1980 0.1960 0.1950
14.742000 0.1940 0.1920 0.1890 0.1860 0.1830
14.769422 0.1820 0.1810 0.1800 0.1770 0.1760
14.797000 0.1750 0.1750 0.1740 0.1730 0.1730
14.824422 0.1730 0.1730 0.1730 0.1720 0.1720
14.852000 0.1710 0.1710 0.1710 0.1710 0.1710
14.879422 0.1710 0.1700 0.1700 0.1700 0.1690
14.907000 0.1690 0.1690 0.1690 0.1680 0.1670
14.934422 0.1670 0.1650 0.1640 0.1640 0.1630
14.962000 0.1630 0.1620 0.1620 0.1610 0.1600
14.989422 0.1600 0.1590 0.1590
##END=
