##TITLE=CERIUM, TRIS(2,4-PENTANEDIONATO)-, HYDRATE
##JCAMP-DX=4.24
##DATA TYPE=INFRARED SPECTRUM
##CLASS=COBLENTZ III
##ORIGIN=DOW CHEMICAL COMPANY
##OWNER=COBLENTZ SOC.
Collection (C) 2018 copyright by the U.S. Secretary of Commerce
on behalf of the United States of America. All rights reserved.
##DATE=1968/10/23
##MOLFORM=C15 H21 Ce O6
##SOURCE REFERENCE=COBLENTZ NO. 07676
##$NIST ID=B6007676
##$NIST SOURCE=COBLENTZ
##$NIST IMAGE=cob7676
##SPECTROMETER/DATA SYSTEM=DOW KBr FOREPRISM-GRATING
##INSTRUMENT PARAMETERS=BLAZED AT 3.5, 12.0, 20.0 MICRON AND CHANGED AT 5.0, 7.5, 14.9 MICRON
##STATE=SOLID (SPLIT MULL), FLUOROLUBE FOR 3800-1330 CM^-^1, NUJOL FOR 1330-470 CM^-^1
$$SPECTRAL CONTAMINATION DUE TO IMPURITY AROUND 1690 CM^-^1
##SAMPLING PROCEDURE=TRANSMISSION
##RESOLUTION=2
##DATA PROCESSING=DIGITIZED BY COBLENTZ SOCIETY (BATCH I) FROM HARD COPY
##XUNITS=1/CM
##YUNITS=TRANSMITTANCE
##XLABEL=Wavenumbers (cm-1)
##YLABEL=% Transmission
##XFACTOR=1
##YFACTOR=1
##DELTAX=1
##FIRSTX=470
##LASTX=3800
##FIRSTY=0.8528
##MAXX=3800
##MINX=470
##MAXY=0.8749
##MINY=0.034
##NPOINTS=3331
##XYDATA=(X++(Y..Y))
470.000000 0.8528 0.8502 0.8495 0.8490 0.8485
475.000000 0.8480 0.8474 0.8467 0.8459 0.8452
480.000000 0.8444 0.8437 0.8430 0.8421 0.8414
485.000000 0.8406 0.8398 0.8389 0.8381 0.8373
490.000000 0.8365 0.8356 0.8347 0.8338 0.8328
495.000000 0.8318 0.8310 0.8301 0.8290 0.8278
500.000000 0.8267 0.8255 0.8244 0.8232 0.8221
505.000000 0.8204 0.8183 0.8161 0.8140 0.8118
510.000000 0.8083 0.8048 0.8012 0.7978 0.7943
515.000000 0.7901 0.7845 0.7790 0.7735 0.7660
520.000000 0.7558 0.7450 0.7265 0.6978 0.6768
525.000000 0.6431 0.6247 0.6087 0.5971 0.5884
530.000000 0.5851 0.5838 0.5825 0.5826 0.5812
535.000000 0.5799 0.5829 0.5828 0.5827 0.5962
540.000000 0.6164 0.6366 0.6568 0.6771 0.7131
545.000000 0.7422 0.7582 0.7726 0.7915 0.8006
550.000000 0.8035 0.8064 0.8086 0.8095 0.8111
555.000000 0.8101 0.8100 0.8097 0.8093 0.8087
560.000000 0.8082 0.8072 0.8062 0.8057 0.8051
565.000000 0.8051 0.8051 0.8060 0.8071 0.8082
570.000000 0.8088 0.8091 0.8095 0.8095 0.8095
575.000000 0.8092 0.8089 0.8085 0.8080 0.8075
580.000000 0.8069 0.8065 0.8060 0.8056 0.8051
585.000000 0.8047 0.8043 0.8039 0.8034 0.8030
590.000000 0.8026 0.8021 0.8010 0.8000 0.7990
595.000000 0.7981 0.7974 0.7967 0.7964 0.7961
600.000000 0.7957 0.7954 0.7951 0.7948 0.7945
605.000000 0.7942 0.7939 0.7936 0.7933 0.7930
610.000000 0.7926 0.7924 0.7921 0.7918 0.7915
615.000000 0.7910 0.7906 0.7901 0.7897 0.7892
620.000000 0.7887 0.7883 0.7878 0.7874 0.7868
625.000000 0.7864 0.7858 0.7854 0.7849 0.7844
630.000000 0.7839 0.7834 0.7828 0.7824 0.7818
635.000000 0.7814 0.7808 0.7804 0.7798 0.7793
640.000000 0.7787 0.7778 0.7734 0.7689 0.7649
645.000000 0.7593 0.7499 0.7408 0.7317 0.7215
650.000000 0.7108 0.6994 0.6860 0.6711 0.6362
655.000000 0.6349 0.6367 0.6444 0.6521 0.6600
660.000000 0.6678 0.6757 0.6836 0.6914 0.6992
665.000000 0.7068 0.7148 0.7210 0.7261 0.7275
670.000000 0.7282 0.7328 0.7383 0.7433 0.7492
675.000000 0.7508 0.7525 0.7549 0.7569 0.7588
680.000000 0.7605 0.7617 0.7625 0.7625 0.7618
685.000000 0.7611 0.7611 0.7611 0.7619 0.7628
690.000000 0.7632 0.7637 0.7641 0.7646 0.7651
695.000000 0.7656 0.7661 0.7665 0.7665 0.7667
700.000000 0.7668 0.7669 0.7669 0.7671 0.7671
705.000000 0.7671 0.7671 0.7671 0.7671 0.7671
710.000000 0.7671 0.7668 0.7668 0.7661 0.7647
715.000000 0.7628 0.7601 0.7567 0.7525 0.7486
720.000000 0.7445 0.7403 0.7361 0.7319 0.7285
725.000000 0.7261 0.7265 0.7269 0.7278 0.7290
730.000000 0.7307 0.7330 0.7371 0.7419 0.7457
735.000000 0.7492 0.7501 0.7511 0.7518 0.7519
740.000000 0.7521 0.7522 0.7519 0.7518 0.7518
745.000000 0.7511 0.7504 0.7495 0.7476 0.7439
750.000000 0.7392 0.7342 0.7288 0.7230 0.7092
755.000000 0.6928 0.6746 0.6558 0.5736 0.4982
760.000000 0.4227 0.3473 0.3276 0.3576 0.4210
765.000000 0.4843 0.5476 0.6110 0.6743 0.7301
770.000000 0.7386 0.7408 0.7417 0.7415 0.7415
775.000000 0.7284 0.7014 0.6744 0.6474 0.6239
780.000000 0.6192 0.6154 0.6119 0.6081 0.6038
785.000000 0.6020 0.6021 0.6757 0.7293 0.7378
790.000000 0.7492 0.7575 0.7641 0.7704 0.7753
795.000000 0.7800 0.7831 0.7862 0.7893 0.7915
800.000000 0.7940 0.7982 0.8033 0.8136 0.8212
805.000000 0.8266 0.8317 0.8365 0.8411 0.8456
810.000000 0.8486 0.8507 0.8527 0.8548 0.8568
815.000000 0.8585 0.8597 0.8609 0.8621 0.8632
820.000000 0.8641 0.8666 0.8647 0.8650 0.8653
825.000000 0.8656 0.8656 0.8654 0.8653 0.8651
830.000000 0.8649 0.8648 0.8646 0.8644 0.8642
835.000000 0.8640 0.8638 0.8637 0.8635 0.8633
840.000000 0.8628 0.8625 0.8621 0.8618 0.8615
845.000000 0.8612 0.8608 0.8605 0.8601 0.8597
850.000000 0.8593 0.8588 0.8584 0.8580 0.8575
855.000000 0.8567 0.8559 0.8551 0.8543 0.8535
860.000000 0.8527 0.8518 0.8511 0.8503 0.8495
865.000000 0.8487 0.8478 0.8470 0.8461 0.8452
870.000000 0.8443 0.8434 0.8425 0.8414 0.8400
875.000000 0.8386 0.8373 0.8359 0.8345 0.8332
880.000000 0.8318 0.8298 0.8274 0.8250 0.8225
885.000000 0.8198 0.8171 0.8143 0.8115 0.8088
890.000000 0.8035 0.7981 0.7926 0.7872 0.7815
895.000000 0.7754 0.7693 0.7632 0.7569 0.7511
900.000000 0.7454 0.7396 0.7336 0.7271 0.7207
905.000000 0.7143 0.7042 0.6862 0.6694 0.6530
910.000000 0.6165 0.5689 0.5362 0.5023 0.4504
915.000000 0.4396 0.4305 0.4214 0.4136 0.4095
920.000000 0.4084 0.4080 0.4075 0.4090 0.4110
925.000000 0.4147 0.4510 0.4994 0.5479 0.5962
930.000000 0.6448 0.6932 0.7417 0.7765 0.7918
935.000000 0.8007 0.8031 0.8037 0.8038 0.8024
940.000000 0.7983 0.7926 0.7875 0.7858 0.7858
945.000000 0.7864 0.7875 0.7898 0.7945 0.8025
950.000000 0.8141 0.8237 0.8313 0.8374 0.8395
955.000000 0.8412 0.8421 0.8425 0.8424 0.8438
960.000000 0.8421 0.8421 0.8420 0.8418 0.8416
965.000000 0.8412 0.8399 0.8386 0.8371 0.8357
970.000000 0.8341 0.8325 0.8311 0.8294 0.8271
975.000000 0.8251 0.8228 0.8207 0.8186 0.8161
980.000000 0.8137 0.8112 0.8088 0.8062 0.8036
985.000000 0.8006 0.7975 0.7944 0.7914 0.7865
990.000000 0.7815 0.7764 0.7696 0.7618 0.7539
995.000000 0.7471 0.7406 0.7341 0.7275 0.7178
1000.000000 0.7072 0.6925 0.6719 0.6539 0.6348
1005.000000 0.6130 0.5974 0.5775 0.5462 0.5152
1010.000000 0.4840 0.4529 0.4217 0.3906 0.3594
1015.000000 0.3362 0.3245 0.3189 0.3185 0.3200
1020.000000 0.3237 0.3471 0.3729 0.3987 0.4245
1025.000000 0.4503 0.4760 0.5019 0.5277 0.5535
1030.000000 0.5793 0.6085 0.6223 0.6310 0.6399
1035.000000 0.6645 0.6845 0.7115 0.7345 0.7495
1040.000000 0.7608 0.7703 0.7778 0.7854 0.7926
1045.000000 0.7992 0.8058 0.8093 0.8118 0.8144
1050.000000 0.8164 0.8180 0.8195 0.8211 0.8225
1055.000000 0.8240 0.8249 0.8259 0.8268 0.8278
1060.000000 0.8287 0.8297 0.8306 0.8315 0.8324
1065.000000 0.8332 0.8341 0.8349 0.8358 0.8366
1070.000000 0.8374 0.8381 0.8388 0.8395 0.8401
1075.000000 0.8408 0.8414 0.8421 0.8427 0.8432
1080.000000 0.8437 0.8442 0.8447 0.8452 0.8457
1085.000000 0.8462 0.8467 0.8471 0.8475 0.8480
1090.000000 0.8485 0.8489 0.8493 0.8498 0.8502
1095.000000 0.8506 0.8508 0.8510 0.8512 0.8514
1100.000000 0.8516 0.8518 0.8520 0.8530 0.8523
1105.000000 0.8521 0.8518 0.8517 0.8516 0.8514
1110.000000 0.8512 0.8509 0.8505 0.8502 0.8498
1115.000000 0.8494 0.8490 0.8485 0.8478 0.8471
1120.000000 0.8466 0.8459 0.8453 0.8446 0.8439
1125.000000 0.8432 0.8425 0.8417 0.8410 0.8402
1130.000000 0.8395 0.8388 0.8380 0.8371 0.8362
1135.000000 0.8354 0.8345 0.8336 0.8327 0.8318
1140.000000 0.8308 0.8294 0.8280 0.8267 0.8253
1145.000000 0.8239 0.8214 0.8187 0.8160 0.8131
1150.000000 0.8100 0.8068 0.8037 0.8005 0.7993
1155.000000 0.7982 0.7971 0.7961 0.7950 0.7939
1160.000000 0.7930 0.7922 0.7915 0.7908 0.7901
1165.000000 0.7893 0.7876 0.7854 0.7830 0.7807
1170.000000 0.7784 0.7764 0.7744 0.7724 0.7717
1175.000000 0.7712 0.7710 0.7707 0.7703 0.7700
1180.000000 0.7697 0.7683 0.7655 0.7614 0.7572
1185.000000 0.7524 0.7456 0.7389 0.7315 0.7237
1190.000000 0.7201 0.7205 0.7233 0.7251 0.7276
1195.000000 0.7304 0.7338 0.7395 0.7454 0.7501
1200.000000 0.7531 0.7544 0.7565 0.7536 0.7532
1205.000000 0.7525 0.7515 0.7504 0.7489 0.7475
1210.000000 0.7460 0.7445 0.7428 0.7412 0.7397
1215.000000 0.7381 0.7364 0.7348 0.7331 0.7311
1220.000000 0.7293 0.7275 0.7256 0.7237 0.7215
1225.000000 0.7194 0.7172 0.7151 0.7126 0.7097
1230.000000 0.7067 0.7037 0.7006 0.6967 0.6919
1235.000000 0.6874 0.6826 0.6778 0.6728 0.6678
1240.000000 0.6628 0.6578 0.6518 0.6446 0.6373
1245.000000 0.6300 0.6212 0.6117 0.6021 0.5922
1250.000000 0.5816 0.5710 0.5224 0.5009 0.4771
1255.000000 0.4390 0.3993 0.3596 0.3199 0.2798
1260.000000 0.2693 0.2682 0.2675 0.2726 0.2941
1265.000000 0.3170 0.3399 0.3628 0.3857 0.4086
1270.000000 0.4315 0.4544 0.4773 0.5001 0.5230
1275.000000 0.5459 0.5686 0.5784 0.5860 0.5887
1280.000000 0.5909 0.5917 0.5917 0.5921 0.5908
1285.000000 0.5892 0.5874 0.5858 0.5836 0.5809
1290.000000 0.5782 0.5750 0.5717 0.5672 0.5623
1295.000000 0.5573 0.5501 0.5429 0.5356 0.5277
1300.000000 0.5198 0.5118 0.5039 0.4959 0.4897
1305.000000 0.4839 0.4781 0.4723 0.4671 0.4624
1310.000000 0.4577 0.4530 0.4483 0.4436 0.4397
1315.000000 0.4368 0.4339 0.4310 0.4288 0.4268
1320.000000 0.4248 0.4228 0.4208 0.4187 0.4166
1325.000000 0.4145 0.4125 0.4098 0.4062 0.4027
1330.000000 0.3991 0.3947 0.3892 0.3845 0.3818
1335.000000 0.3794 0.3768 0.3748 0.3729 0.3709
1340.000000 0.3690 0.3668 0.3645 0.3622 0.3604
1345.000000 0.3589 0.3574 0.3559 0.3512 0.3470
1350.000000 0.3428 0.3362 0.3278 0.3107 0.2946
1355.000000 0.2776 0.2584 0.2404 0.2231 0.2117
1360.000000 0.2092 0.2078 0.2078 0.2079 0.2076
1365.000000 0.2062 0.2048 0.2029 0.1999 0.1969
1370.000000 0.1935 0.1900 0.1865 0.1787 0.1706
1375.000000 0.1635 0.1572 0.1507 0.1460 0.1423
1380.000000 0.1386 0.1349 0.1313 0.1275 0.1231
1385.000000 0.1186 0.1142 0.1098 0.1055 0.1013
1390.000000 0.0971 0.0929 0.0889 0.0872 0.0854
1395.000000 0.0850 0.0850 0.0855 0.0879 0.0900
1400.000000 0.0919 0.0939 0.0961 0.0986 0.1011
1405.000000 0.1038 0.1068 0.1098 0.1129 0.1159
1410.000000 0.1192 0.1239 0.1285 0.1332 0.1378
1415.000000 0.1428 0.1479 0.1530 0.1581 0.1633
1420.000000 0.1684 0.1745 0.1809 0.1873 0.1935
1425.000000 0.2004 0.2079 0.2154 0.2229 0.2297
1430.000000 0.2351 0.2406 0.2461 0.2534 0.2601
1435.000000 0.2639 0.2676 0.2713 0.2740 0.2766
1440.000000 0.2795 0.2823 0.2838 0.2848 0.2858
1445.000000 0.2869 0.2873 0.2875 0.2876 0.2877
1450.000000 0.2879 0.2889 0.2899 0.2910 0.2952
1455.000000 0.2995 0.3054 0.3113 0.3188 0.3280
1460.000000 0.3380 0.3499 0.3616 0.3730 0.3845
1465.000000 0.4028 0.4234 0.4449 0.4519 0.4588
1470.000000 0.4657 0.4726 0.4784 0.4842 0.4901
1475.000000 0.4959 0.5014 0.5064 0.5114 0.5162
1480.000000 0.5187 0.5210 0.5234 0.5239 0.5260
1485.000000 0.5249 0.5240 0.5229 0.5219 0.5189
1490.000000 0.5158 0.5092 0.5020 0.4953 0.4896
1495.000000 0.4797 0.4671 0.4545 0.4419 0.4293
1500.000000 0.4167 0.4041 0.3914 0.3832 0.3782
1505.000000 0.3732 0.3657 0.3548 0.3434 0.3322
1510.000000 0.3214 0.3107 0.2484 0.2354 0.2223
1515.000000 0.2014 0.1773 0.1579 0.1427 0.1285
1520.000000 0.1151 0.0970 0.0781 0.0621 0.0558
1525.000000 0.0494 0.0439 0.0397 0.0356 0.0340
1530.000000 0.0343 0.0345 0.0363 0.0391 0.0451
1535.000000 0.0624 0.0881 0.1146 0.1296 0.1436
1540.000000 0.1584 0.1763 0.1942 0.2106 0.2270
1545.000000 0.2465 0.2600 0.2702 0.2798 0.2876
1550.000000 0.2934 0.2984 0.3034 0.3087 0.3141
1555.000000 0.3210 0.3282 0.3334 0.3382 0.3430
1560.000000 0.3449 0.3466 0.3486 0.3450 0.3430
1565.000000 0.3407 0.3364 0.3321 0.3284 0.3247
1570.000000 0.3194 0.3131 0.3051 0.2972 0.2879
1575.000000 0.2763 0.2639 0.2497 0.2366 0.2255
1580.000000 0.2145 0.2035 0.1927 0.1750 0.1507
1585.000000 0.1173 0.0970 0.0843 0.0769 0.0709
1590.000000 0.0669 0.0632 0.0614 0.0596 0.0591
1595.000000 0.0587 0.0588 0.0588 0.0591 0.0603
1600.000000 0.0615 0.0632 0.0653 0.0674 0.0707
1605.000000 0.0740 0.0776 0.0818 0.0859 0.0897
1610.000000 0.0936 0.0992 0.1057 0.1142 0.1333
1615.000000 0.1636 0.1851 0.2181 0.2510 0.2840
1620.000000 0.3169 0.3499 0.3828 0.4158 0.4487
1625.000000 0.4669 0.4773 0.5145 0.5346 0.5549
1630.000000 0.5720 0.5871 0.6012 0.6138 0.6264
1635.000000 0.6349 0.6418 0.6488 0.6557 0.6626
1640.000000 0.6697 0.6767 0.6837 0.6907 0.6989
1645.000000 0.7072 0.7157 0.7235 0.7251 0.7268
1650.000000 0.7285 0.7301 0.7322 0.7343 0.7358
1655.000000 0.7403 0.7385 0.7386 0.7381 0.7375
1660.000000 0.7372 0.7369 0.7367 0.7361 0.7356
1665.000000 0.7344 0.7332 0.7319 0.7298 0.7275
1670.000000 0.7253 0.7224 0.7194 0.7164 0.7134
1675.000000 0.7099 0.7062 0.7025 0.6989 0.6951
1680.000000 0.6915 0.6878 0.6843 0.6808 0.6774
1685.000000 0.6747 0.6734 0.6734 0.6734 0.6734
1690.000000 0.6741 0.6748 0.6758 0.6771 0.6798
1695.000000 0.6847 0.6900 0.6955 0.7018 0.7100
1700.000000 0.7164 0.7221 0.7280 0.7338 0.7396
1705.000000 0.7454 0.7511 0.7568 0.7626 0.7685
1710.000000 0.7731 0.7776 0.7849 0.7907 0.7958
1715.000000 0.7999 0.8039 0.8075 0.8101 0.8126
1720.000000 0.8153 0.8178 0.8203 0.8228 0.8254
1725.000000 0.8278 0.8304 0.8328 0.8354 0.8380
1730.000000 0.8405 0.8430 0.8453 0.8465 0.8477
1735.000000 0.8488 0.8500 0.8512 0.8524 0.8536
1740.000000 0.8550 0.8566 0.8582 0.8590 0.8598
1745.000000 0.8606 0.8614 0.8621 0.8628 0.8634
1750.000000 0.8640 0.8645 0.8652 0.8662 0.8671
1755.000000 0.8680 0.8686 0.8691 0.8697 0.8702
1760.000000 0.8708 0.8713 0.8717 0.8721 0.8725
1765.000000 0.8728 0.8731 0.8733 0.8734 0.8735
1770.000000 0.8736 0.8737 0.8738 0.8739 0.8739
1775.000000 0.8740 0.8740 0.8741 0.8741 0.8741
1780.000000 0.8742 0.8743 0.8743 0.8744 0.8745
1785.000000 0.8746 0.8747 0.8748 0.8749 0.8749
1790.000000 0.8748 0.8747 0.8746 0.8745 0.8744
1795.000000 0.8744 0.8743 0.8742 0.8741 0.8740
1800.000000 0.8739 0.8739 0.8738 0.8738 0.8737
1805.000000 0.8736 0.8736 0.8735 0.8735 0.8734
1810.000000 0.8733 0.8733 0.8732 0.8732 0.8731
1815.000000 0.8730 0.8730 0.8728 0.8728 0.8728
1820.000000 0.8728 0.8728 0.8727 0.8727 0.8725
1825.000000 0.8725 0.8725 0.8725 0.8725 0.8724
1830.000000 0.8724 0.8723 0.8723 0.8721 0.8721
1835.000000 0.8720 0.8718 0.8718 0.8718 0.8717
1840.000000 0.8716 0.8715 0.8714 0.8713 0.8712
1845.000000 0.8712 0.8711 0.8710 0.8709 0.8708
1850.000000 0.8707 0.8705 0.8703 0.8701 0.8698
1855.000000 0.8696 0.8694 0.8692 0.8690 0.8688
1860.000000 0.8686 0.8684 0.8682 0.8680 0.8677
1865.000000 0.8675 0.8673 0.8671 0.8668 0.8667
1870.000000 0.8665 0.8662 0.8660 0.8658 0.8655
1875.000000 0.8653 0.8651 0.8648 0.8646 0.8644
1880.000000 0.8641 0.8639 0.8637 0.8634 0.8632
1885.000000 0.8630 0.8627 0.8625 0.8623 0.8620
1890.000000 0.8618 0.8615 0.8613 0.8610 0.8607
1895.000000 0.8605 0.8602 0.8600 0.8597 0.8595
1900.000000 0.8592 0.8589 0.8587 0.8584 0.8582
1905.000000 0.8578 0.8577 0.8574 0.8571 0.8571
1910.000000 0.8570 0.8568 0.8568 0.8567 0.8566
1915.000000 0.8565 0.8564 0.8563 0.8562 0.8561
1920.000000 0.8560 0.8560 0.8561 0.8561 0.8562
1925.000000 0.8563 0.8564 0.8565 0.8565 0.8563
1930.000000 0.8561 0.8559 0.8557 0.8555 0.8553
1935.000000 0.8551 0.8549 0.8547 0.8545 0.8542
1940.000000 0.8540 0.8538 0.8536 0.8534 0.8532
1945.000000 0.8528 0.8527 0.8524 0.8521 0.8518
1950.000000 0.8517 0.8514 0.8512 0.8508 0.8505
1955.000000 0.8501 0.8497 0.8494 0.8500 0.8511
1960.000000 0.8523 0.8546 0.8568 0.8591 0.8608
1965.000000 0.8584 0.8560 0.8538 0.8518 0.8520
1970.000000 0.8520 0.8521 0.8521 0.8520 0.8518
1975.000000 0.8516 0.8514 0.8511 0.8509 0.8508
1980.000000 0.8507 0.8506 0.8505 0.8504 0.8503
1985.000000 0.8502 0.8501 0.8500 0.8499 0.8498
1990.000000 0.8497 0.8495 0.8494 0.8493 0.8492
1995.000000 0.8489 0.8486 0.8483 0.8480 0.8473
2000.000000 0.8466 0.8458 0.8451 0.8448 0.8445
2005.000000 0.8450 0.8456 0.8462 0.8468 0.8478
2010.000000 0.8488 0.8499 0.8511 0.8521 0.8531
2015.000000 0.8540 0.8568 0.8557 0.8565 0.8563
2020.000000 0.8561 0.8559 0.8557 0.8554 0.8552
2025.000000 0.8549 0.8546 0.8542 0.8539 0.8535
2030.000000 0.8532 0.8528 0.8525 0.8521 0.8517
2035.000000 0.8513 0.8510 0.8506 0.8502 0.8498
2040.000000 0.8494 0.8490 0.8486 0.8482 0.8478
2045.000000 0.8474 0.8470 0.8465 0.8461 0.8457
2050.000000 0.8453 0.8449 0.8445 0.8441 0.8437
2055.000000 0.8433 0.8428 0.8425 0.8421 0.8418
2060.000000 0.8414 0.8410 0.8407 0.8403 0.8399
2065.000000 0.8395 0.8392 0.8388 0.8384 0.8380
2070.000000 0.8375 0.8371 0.8367 0.8363 0.8359
2075.000000 0.8355 0.8351 0.8347 0.8343 0.8339
2080.000000 0.8335 0.8331 0.8327 0.8321 0.8318
2085.000000 0.8313 0.8309 0.8304 0.8300 0.8295
2090.000000 0.8291 0.8286 0.8282 0.8277 0.8273
2095.000000 0.8268 0.8265 0.8261 0.8257 0.8253
2100.000000 0.8249 0.8245 0.8241 0.8237 0.8233
2105.000000 0.8228 0.8225 0.8221 0.8218 0.8214
2110.000000 0.8210 0.8206 0.8202 0.8198 0.8194
2115.000000 0.8190 0.8187 0.8183 0.8178 0.8175
2120.000000 0.8171 0.8167 0.8162 0.8158 0.8156
2125.000000 0.8151 0.8148 0.8144 0.8140 0.8136
2130.000000 0.8133 0.8128 0.8125 0.8122 0.8121
2135.000000 0.8118 0.8115 0.8111 0.8110 0.8107
2140.000000 0.8104 0.8101 0.8099 0.8096 0.8093
2145.000000 0.8090 0.8087 0.8083 0.8078 0.8075
2150.000000 0.8071 0.8067 0.8062 0.8058 0.8055
2155.000000 0.8051 0.8047 0.8042 0.8038 0.8032
2160.000000 0.8026 0.8021 0.8017 0.8011 0.8007
2165.000000 0.8001 0.7997 0.7991 0.7986 0.7981
2170.000000 0.7975 0.7971 0.7965 0.7961 0.7958
2175.000000 0.7953 0.7949 0.7944 0.7940 0.7937
2180.000000 0.7934 0.7931 0.7928 0.7924 0.7921
2185.000000 0.7918 0.7915 0.7911 0.7908 0.7905
2190.000000 0.7901 0.7899 0.7896 0.7893 0.7890
2195.000000 0.7887 0.7884 0.7882 0.7880 0.7878
2200.000000 0.7876 0.7875 0.7874 0.7871 0.7871
2205.000000 0.7869 0.7868 0.7867 0.7865 0.7864
2210.000000 0.7862 0.7861 0.7860 0.7858 0.7857
2215.000000 0.7855 0.7853 0.7851 0.7849 0.7847
2220.000000 0.7845 0.7843 0.7841 0.7839 0.7837
2225.000000 0.7833 0.7828 0.7822 0.7817 0.7811
2230.000000 0.7805 0.7799 0.7793 0.7786 0.7780
2235.000000 0.7774 0.7768 0.7761 0.7756 0.7749
2240.000000 0.7742 0.7735 0.7728 0.7719 0.7712
2245.000000 0.7705 0.7698 0.7691 0.7684 0.7675
2250.000000 0.7668 0.7661 0.7654 0.7647 0.7640
2255.000000 0.7631 0.7622 0.7614 0.7606 0.7597
2260.000000 0.7589 0.7580 0.7571 0.7562 0.7555
2265.000000 0.7546 0.7538 0.7528 0.7521 0.7511
2270.000000 0.7504 0.7496 0.7488 0.7481 0.7474
2275.000000 0.7465 0.7458 0.7451 0.7445 0.7437
2280.000000 0.7430 0.7424 0.7418 0.7415 0.7414
2285.000000 0.7411 0.7408 0.7405 0.7403 0.7400
2290.000000 0.7398 0.7396 0.7394 0.7394 0.7394
2295.000000 0.7394 0.7394 0.7394 0.7394 0.7393
2300.000000 0.7393 0.7393 0.7393 0.7392 0.7392
2305.000000 0.7391 0.7391 0.7390 0.7389 0.7388
2310.000000 0.7388 0.7387 0.7386 0.7385 0.7385
2315.000000 0.7384 0.7384 0.7384 0.7384 0.7384
2320.000000 0.7384 0.7383 0.7383 0.7383 0.7383
2325.000000 0.7383 0.7383 0.7383 0.7383 0.7383
2330.000000 0.7383 0.7382 0.7382 0.7382 0.7382
2335.000000 0.7382 0.7382 0.7382 0.7382 0.7382
2340.000000 0.7382 0.7382 0.7382 0.7382 0.7383
2345.000000 0.7383 0.7384 0.7384 0.7384 0.7384
2350.000000 0.7385 0.7385 0.7386 0.7386 0.7387
2355.000000 0.7387 0.7387 0.7387 0.7388 0.7388
2360.000000 0.7389 0.7389 0.7389 0.7389 0.7390
2365.000000 0.7390 0.7391 0.7392 0.7393 0.7394
2370.000000 0.7396 0.7397 0.7398 0.7399 0.7400
2375.000000 0.7401 0.7401 0.7403 0.7405 0.7406
2380.000000 0.7407 0.7408 0.7408 0.7410 0.7411
2385.000000 0.7412 0.7414 0.7415 0.7415 0.7417
2390.000000 0.7418 0.7418 0.7421 0.7422 0.7425
2395.000000 0.7430 0.7435 0.7440 0.7445 0.7450
2400.000000 0.7455 0.7460 0.7465 0.7468 0.7471
2405.000000 0.7471 0.7474 0.7475 0.7475 0.7475
2410.000000 0.7475 0.7475 0.7475 0.7475 0.7475
2415.000000 0.7475 0.7475 0.7474 0.7474 0.7472
2420.000000 0.7472 0.7472 0.7472 0.7469 0.7468
2425.000000 0.7464 0.7460 0.7456 0.7451 0.7448
2430.000000 0.7445 0.7441 0.7438 0.7434 0.7431
2435.000000 0.7426 0.7424 0.7419 0.7417 0.7412
2440.000000 0.7410 0.7406 0.7403 0.7399 0.7395
2445.000000 0.7391 0.7388 0.7386 0.7384 0.7381
2450.000000 0.7378 0.7376 0.7375 0.7371 0.7369
2455.000000 0.7367 0.7365 0.7362 0.7361 0.7361
2460.000000 0.7362 0.7364 0.7365 0.7367 0.7368
2465.000000 0.7371 0.7375 0.7378 0.7382 0.7386
2470.000000 0.7391 0.7395 0.7399 0.7403 0.7408
2475.000000 0.7412 0.7418 0.7422 0.7428 0.7432
2480.000000 0.7437 0.7438 0.7439 0.7440 0.7441
2485.000000 0.7442 0.7444 0.7444 0.7444 0.7443
2490.000000 0.7442 0.7440 0.7439 0.7438 0.7437
2495.000000 0.7435 0.7434 0.7433 0.7432 0.7430
2500.000000 0.7428 0.7426 0.7425 0.7425 0.7424
2505.000000 0.7421 0.7421 0.7419 0.7418 0.7417
2510.000000 0.7415 0.7414 0.7412 0.7411 0.7411
2515.000000 0.7410 0.7408 0.7408 0.7407 0.7406
2520.000000 0.7405 0.7404 0.7403 0.7401 0.7401
2525.000000 0.7401 0.7400 0.7399 0.7398 0.7396
2530.000000 0.7395 0.7393 0.7391 0.7389 0.7388
2535.000000 0.7386 0.7385 0.7383 0.7382 0.7380
2540.000000 0.7378 0.7376 0.7375 0.7372 0.7371
2545.000000 0.7369 0.7368 0.7367 0.7365 0.7364
2550.000000 0.7362 0.7361 0.7358 0.7357 0.7356
2555.000000 0.7354 0.7351 0.7350 0.7348 0.7346
2560.000000 0.7344 0.7342 0.7340 0.7338 0.7336
2565.000000 0.7334 0.7332 0.7330 0.7328 0.7325
2570.000000 0.7324 0.7321 0.7319 0.7317 0.7315
2575.000000 0.7312 0.7311 0.7308 0.7306 0.7304
2580.000000 0.7301 0.7299 0.7297 0.7294 0.7292
2585.000000 0.7290 0.7288 0.7285 0.7283 0.7280
2590.000000 0.7278 0.7275 0.7274 0.7271 0.7268
2595.000000 0.7265 0.7264 0.7261 0.7260 0.7257
2600.000000 0.7255 0.7251 0.7250 0.7248 0.7246
2605.000000 0.7243 0.7241 0.7238 0.7235 0.7232
2610.000000 0.7228 0.7225 0.7222 0.7219 0.7217
2615.000000 0.7214 0.7211 0.7208 0.7205 0.7201
2620.000000 0.7198 0.7195 0.7192 0.7189 0.7186
2625.000000 0.7183 0.7180 0.7176 0.7174 0.7171
2630.000000 0.7168 0.7165 0.7161 0.7158 0.7156
2635.000000 0.7151 0.7149 0.7146 0.7143 0.7140
2640.000000 0.7138 0.7135 0.7132 0.7128 0.7125
2645.000000 0.7122 0.7119 0.7117 0.7115 0.7111
2650.000000 0.7108 0.7106 0.7103 0.7100 0.7097
2655.000000 0.7094 0.7092 0.7089 0.7086 0.7083
2660.000000 0.7080 0.7076 0.7074 0.7071 0.7068
2665.000000 0.7065 0.7062 0.7060 0.7057 0.7054
2670.000000 0.7051 0.7049 0.7046 0.7043 0.7040
2675.000000 0.7037 0.7035 0.7032 0.7028 0.7025
2680.000000 0.7022 0.7019 0.7018 0.7015 0.7011
2685.000000 0.7008 0.7006 0.7003 0.7001 0.6998
2690.000000 0.6995 0.6992 0.6989 0.6986 0.6984
2695.000000 0.6981 0.6978 0.6975 0.6971 0.6968
2700.000000 0.6967 0.6964 0.6961 0.6958 0.6955
2705.000000 0.6951 0.6950 0.6947 0.6944 0.6941
2710.000000 0.6939 0.6936 0.6934 0.6931 0.6928
2715.000000 0.6926 0.6925 0.6921 0.6919 0.6917
2720.000000 0.6915 0.6911 0.6910 0.6907 0.6905
2725.000000 0.6901 0.6900 0.6897 0.6895 0.6892
2730.000000 0.6890 0.6887 0.6885 0.6882 0.6880
2735.000000 0.6876 0.6875 0.6872 0.6871 0.6868
2740.000000 0.6865 0.6862 0.6861 0.6857 0.6853
2745.000000 0.6849 0.6845 0.6841 0.6837 0.6833
2750.000000 0.6830 0.6825 0.6821 0.6818 0.6814
2755.000000 0.6810 0.6807 0.6803 0.6799 0.6795
2760.000000 0.6791 0.6787 0.6784 0.6780 0.6775
2765.000000 0.6771 0.6768 0.6764 0.6761 0.6757
2770.000000 0.6753 0.6749 0.6745 0.6741 0.6738
2775.000000 0.6734 0.6730 0.6725 0.6721 0.6718
2780.000000 0.6714 0.6710 0.6707 0.6703 0.6699
2785.000000 0.6695 0.6691 0.6687 0.6684 0.6680
2790.000000 0.6675 0.6671 0.6667 0.6662 0.6658
2795.000000 0.6654 0.6650 0.6645 0.6641 0.6637
2800.000000 0.6633 0.6628 0.6624 0.6618 0.6615
2805.000000 0.6611 0.6607 0.6601 0.6598 0.6593
2810.000000 0.6589 0.6585 0.6581 0.6575 0.6571
2815.000000 0.6567 0.6562 0.6558 0.6555 0.6550
2820.000000 0.6546 0.6541 0.6536 0.6531 0.6525
2825.000000 0.6521 0.6515 0.6510 0.6505 0.6500
2830.000000 0.6495 0.6490 0.6485 0.6478 0.6474
2835.000000 0.6468 0.6464 0.6458 0.6454 0.6449
2840.000000 0.6444 0.6438 0.6433 0.6428 0.6422
2845.000000 0.6417 0.6411 0.6405 0.6399 0.6392
2850.000000 0.6386 0.6380 0.6374 0.6367 0.6360
2855.000000 0.6354 0.6348 0.6341 0.6335 0.6329
2860.000000 0.6323 0.6316 0.6310 0.6301 0.6293
2865.000000 0.6284 0.6275 0.6266 0.6258 0.6249
2870.000000 0.6240 0.6231 0.6223 0.6215 0.6207
2875.000000 0.6199 0.6192 0.6184 0.6176 0.6168
2880.000000 0.6160 0.6153 0.6145 0.6137 0.6130
2885.000000 0.6122 0.6114 0.6106 0.6099 0.6088
2890.000000 0.6078 0.6067 0.6057 0.6042 0.6027
2895.000000 0.6012 0.5998 0.5983 0.5969 0.5952
2900.000000 0.5936 0.5919 0.5903 0.5887 0.5871
2905.000000 0.5851 0.5831 0.5810 0.5791 0.5771
2910.000000 0.5751 0.5730 0.5710 0.5688 0.5667
2915.000000 0.5641 0.5615 0.5599 0.5584 0.5571
2920.000000 0.5559 0.5550 0.5542 0.5537 0.5533
2925.000000 0.5531 0.5531 0.5532 0.5534 0.5539
2930.000000 0.5544 0.5550 0.5557 0.5562 0.5570
2935.000000 0.5576 0.5582 0.5586 0.5591 0.5595
2940.000000 0.5599 0.5601 0.5603 0.5604 0.5606
2945.000000 0.5606 0.5606 0.5604 0.5603 0.5599
2950.000000 0.5596 0.5589 0.5582 0.5574 0.5567
2955.000000 0.5554 0.5542 0.5529 0.5516 0.5503
2960.000000 0.5490 0.5475 0.5460 0.5444 0.5428
2965.000000 0.5414 0.5401 0.5392 0.5384 0.5378
2970.000000 0.5373 0.5374 0.5376 0.5378 0.5380
2975.000000 0.5380 0.5381 0.5381 0.5381 0.5379
2980.000000 0.5377 0.5372 0.5368 0.5364 0.5360
2985.000000 0.5356 0.5352 0.5348 0.5344 0.5340
2990.000000 0.5336 0.5331 0.5327 0.5320 0.5314
2995.000000 0.5312 0.5312 0.5312 0.5315 0.5317
3000.000000 0.5320 0.5322 0.5325 0.5329 0.5333
3005.000000 0.5338 0.5343 0.5348 0.5353 0.5358
3010.000000 0.5362 0.5368 0.5374 0.5378 0.5382
3015.000000 0.5386 0.5390 0.5393 0.5397 0.5399
3020.000000 0.5401 0.5401 0.5401 0.5400 0.5400
3025.000000 0.5398 0.5397 0.5395 0.5393 0.5391
3030.000000 0.5389 0.5387 0.5386 0.5380 0.5374
3035.000000 0.5368 0.5362 0.5355 0.5349 0.5343
3040.000000 0.5337 0.5330 0.5324 0.5317 0.5310
3045.000000 0.5304 0.5297 0.5290 0.5284 0.5277
3050.000000 0.5270 0.5262 0.5256 0.5249 0.5242
3055.000000 0.5235 0.5229 0.5222 0.5215 0.5207
3060.000000 0.5200 0.5193 0.5186 0.5179 0.5172
3065.000000 0.5165 0.5158 0.5151 0.5144 0.5137
3070.000000 0.5130 0.5123 0.5116 0.5110 0.5105
3075.000000 0.5100 0.5095 0.5090 0.5085 0.5080
3080.000000 0.5075 0.5070 0.5065 0.5060 0.5055
3085.000000 0.5051 0.5048 0.5044 0.5040 0.5036
3090.000000 0.5033 0.5029 0.5026 0.5022 0.5018
3095.000000 0.5012 0.5007 0.5001 0.4996 0.4990
3100.000000 0.4985 0.4980 0.4975 0.4969 0.4964
3105.000000 0.4958 0.4953 0.4945 0.4937 0.4929
3110.000000 0.4922 0.4914 0.4906 0.4898 0.4890
3115.000000 0.4882 0.4875 0.4867 0.4859 0.4851
3120.000000 0.4843 0.4835 0.4827 0.4819 0.4810
3125.000000 0.4803 0.4796 0.4788 0.4780 0.4772
3130.000000 0.4764 0.4756 0.4748 0.4740 0.4732
3135.000000 0.4724 0.4716 0.4708 0.4701 0.4693
3140.000000 0.4686 0.4678 0.4671 0.4662 0.4655
3145.000000 0.4647 0.4640 0.4632 0.4625 0.4617
3150.000000 0.4610 0.4602 0.4595 0.4587 0.4579
3155.000000 0.4571 0.4564 0.4556 0.4549 0.4538
3160.000000 0.4528 0.4517 0.4507 0.4496 0.4486
3165.000000 0.4475 0.4465 0.4454 0.4443 0.4432
3170.000000 0.4422 0.4410 0.4401 0.4390 0.4380
3175.000000 0.4370 0.4360 0.4354 0.4347 0.4339
3180.000000 0.4332 0.4324 0.4317 0.4309 0.4302
3185.000000 0.4295 0.4288 0.4280 0.4273 0.4265
3190.000000 0.4258 0.4250 0.4243 0.4237 0.4231
3195.000000 0.4226 0.4222 0.4218 0.4214 0.4210
3200.000000 0.4206 0.4201 0.4197 0.4193 0.4189
3205.000000 0.4184 0.4180 0.4176 0.4172 0.4168
3210.000000 0.4164 0.4159 0.4155 0.4151 0.4147
3215.000000 0.4142 0.4138 0.4134 0.4130 0.4126
3220.000000 0.4122 0.4117 0.4112 0.4109 0.4106
3225.000000 0.4102 0.4099 0.4095 0.4092 0.4088
3230.000000 0.4084 0.4080 0.4078 0.4074 0.4071
3235.000000 0.4068 0.4068 0.4066 0.4066 0.4066
3240.000000 0.4064 0.4064 0.4064 0.4062 0.4062
3245.000000 0.4062 0.4062 0.4060 0.4060 0.4059
3250.000000 0.4059 0.4059 0.4058 0.4057 0.4057
3255.000000 0.4056 0.4056 0.4055 0.4055 0.4056
3260.000000 0.4062 0.4059 0.4059 0.4060 0.4062
3265.000000 0.4064 0.4066 0.4066 0.4068 0.4070
3270.000000 0.4072 0.4075 0.4078 0.4080 0.4084
3275.000000 0.4088 0.4091 0.4094 0.4098 0.4101
3280.000000 0.4104 0.4107 0.4110 0.4114 0.4117
3285.000000 0.4120 0.4124 0.4127 0.4130 0.4133
3290.000000 0.4137 0.4140 0.4143 0.4147 0.4151
3295.000000 0.4155 0.4160 0.4164 0.4168 0.4172
3300.000000 0.4177 0.4181 0.4185 0.4189 0.4194
3305.000000 0.4198 0.4202 0.4206 0.4210 0.4215
3310.000000 0.4219 0.4223 0.4228 0.4232 0.4236
3315.000000 0.4240 0.4245 0.4249 0.4253 0.4257
3320.000000 0.4260 0.4265 0.4270 0.4274 0.4278
3325.000000 0.4282 0.4287 0.4291 0.4295 0.4299
3330.000000 0.4304 0.4308 0.4312 0.4318 0.4323
3335.000000 0.4328 0.4334 0.4339 0.4344 0.4349
3340.000000 0.4355 0.4360 0.4366 0.4372 0.4378
3345.000000 0.4384 0.4391 0.4397 0.4403 0.4409
3350.000000 0.4416 0.4422 0.4429 0.4435 0.4442
3355.000000 0.4448 0.4454 0.4460 0.4467 0.4473
3360.000000 0.4480 0.4486 0.4492 0.4498 0.4505
3365.000000 0.4510 0.4518 0.4524 0.4531 0.4537
3370.000000 0.4543 0.4549 0.4556 0.4562 0.4570
3375.000000 0.4576 0.4583 0.4590 0.4597 0.4603
3380.000000 0.4610 0.4616 0.4623 0.4630 0.4637
3385.000000 0.4643 0.4650 0.4657 0.4664 0.4670
3390.000000 0.4677 0.4684 0.4691 0.4698 0.4705
3395.000000 0.4712 0.4722 0.4730 0.4739 0.4747
3400.000000 0.4756 0.4764 0.4773 0.4781 0.4790
3405.000000 0.4798 0.4807 0.4815 0.4824 0.4832
3410.000000 0.4840 0.4848 0.4857 0.4865 0.4874
3415.000000 0.4883 0.4893 0.4905 0.4918 0.4930
3420.000000 0.4942 0.4954 0.4966 0.4978 0.4990
3425.000000 0.5002 0.5015 0.5027 0.5039 0.5051
3430.000000 0.5062 0.5076 0.5090 0.5107 0.5125
3435.000000 0.5142 0.5160 0.5177 0.5195 0.5212
3440.000000 0.5231 0.5248 0.5266 0.5283 0.5301
3445.000000 0.5318 0.5336 0.5353 0.5371 0.5388
3450.000000 0.5406 0.5423 0.5441 0.5459 0.5477
3455.000000 0.5494 0.5512 0.5527 0.5543 0.5558
3460.000000 0.5573 0.5587 0.5602 0.5617 0.5632
3465.000000 0.5647 0.5662 0.5676 0.5691 0.5706
3470.000000 0.5721 0.5736 0.5752 0.5768 0.5784
3475.000000 0.5800 0.5816 0.5832 0.5848 0.5864
3480.000000 0.5880 0.5895 0.5910 0.5927 0.5943
3485.000000 0.5956 0.5970 0.5983 0.5996 0.6009
3490.000000 0.6022 0.6034 0.6047 0.6060 0.6073
3495.000000 0.6086 0.6099 0.6110 0.6124 0.6135
3500.000000 0.6146 0.6155 0.6165 0.6174 0.6184
3505.000000 0.6193 0.6203 0.6212 0.6223 0.6232
3510.000000 0.6242 0.6251 0.6260 0.6270 0.6280
3515.000000 0.6289 0.6299 0.6308 0.6317 0.6325
3520.000000 0.6334 0.6342 0.6351 0.6359 0.6368
3525.000000 0.6377 0.6386 0.6394 0.6403 0.6411
3530.000000 0.6419 0.6428 0.6437 0.6444 0.6451
3535.000000 0.6460 0.6468 0.6475 0.6483 0.6490
3540.000000 0.6498 0.6505 0.6512 0.6521 0.6528
3545.000000 0.6536 0.6544 0.6551 0.6558 0.6565
3550.000000 0.6571 0.6578 0.6585 0.6591 0.6597
3555.000000 0.6603 0.6610 0.6615 0.6621 0.6628
3560.000000 0.6635 0.6641 0.6648 0.6654 0.6660
3565.000000 0.6665 0.6671 0.6675 0.6678 0.6683
3570.000000 0.6687 0.6691 0.6695 0.6699 0.6703
3575.000000 0.6707 0.6711 0.6715 0.6718 0.6722
3580.000000 0.6726 0.6728 0.6732 0.6733 0.6735
3585.000000 0.6736 0.6738 0.6739 0.6741 0.6742
3590.000000 0.6743 0.6744 0.6746 0.6747 0.6749
3595.000000 0.6750 0.6751 0.6753 0.6755 0.6756
3600.000000 0.6758 0.6758 0.6761 0.6761 0.6764
3605.000000 0.6765 0.6767 0.6768 0.6768 0.6769
3610.000000 0.6771 0.6771 0.6772 0.6774 0.6775
3615.000000 0.6775 0.6776 0.6778 0.6778 0.6778
3620.000000 0.6780 0.6781 0.6782 0.6783 0.6784
3625.000000 0.6785 0.6786 0.6787 0.6788 0.6789
3630.000000 0.6790 0.6790 0.6791 0.6792 0.6800
3635.000000 0.6794 0.6795 0.6796 0.6797 0.6798
3640.000000 0.6799 0.6800 0.6801 0.6801 0.6803
3645.000000 0.6804 0.6805 0.6806 0.6807 0.6808
3650.000000 0.6808 0.6810 0.6811 0.6811 0.6812
3655.000000 0.6814 0.6815 0.6815 0.6817 0.6818
3660.000000 0.6818 0.6819 0.6819 0.6819 0.6819
3665.000000 0.6819 0.6819 0.6818 0.6818 0.6818
3670.000000 0.6818 0.6818 0.6818 0.6818 0.6818
3675.000000 0.6817 0.6817 0.6817 0.6817 0.6817
3680.000000 0.6817 0.6815 0.6815 0.6815 0.6815
3685.000000 0.6815 0.6815 0.6815 0.6815 0.6812
3690.000000 0.6811 0.6811 0.6810 0.6808 0.6808
3695.000000 0.6806 0.6805 0.6804 0.6803 0.6801
3700.000000 0.6801 0.6800 0.6799 0.6797 0.6796
3705.000000 0.6795 0.6794 0.6793 0.6792 0.6790
3710.000000 0.6789 0.6788 0.6787 0.6786 0.6785
3715.000000 0.6784 0.6783 0.6781 0.6780 0.6778
3720.000000 0.6778 0.6776 0.6775 0.6774 0.6772
3725.000000 0.6771 0.6768 0.6767 0.6765 0.6764
3730.000000 0.6761 0.6760 0.6758 0.6757 0.6755
3735.000000 0.6753 0.6751 0.6749 0.6748 0.6746
3740.000000 0.6744 0.6742 0.6741 0.6739 0.6737
3745.000000 0.6735 0.6733 0.6731 0.6728 0.6725
3750.000000 0.6722 0.6719 0.6717 0.6714 0.6711
3755.000000 0.6708 0.6706 0.6703 0.6700 0.6697
3760.000000 0.6695 0.6693 0.6691 0.6689 0.6687
3765.000000 0.6685 0.6684 0.6682 0.6680 0.6678
3770.000000 0.6678 0.6675 0.6675 0.6674 0.6672
3775.000000 0.6671 0.6671 0.6669 0.6668 0.6667
3780.000000 0.6665 0.6665 0.6664 0.6662 0.6661
3785.000000 0.6660 0.6658 0.6658 0.6657 0.6656
3790.000000 0.6655 0.6654 0.6653 0.6651 0.6650
3795.000000 0.6649 0.6648 0.6647 0.6646 0.6645
3800.000000 0.6645
##END=
