##TITLE=Ammonium compounds, substituted: ethyl tripropyl- nitrate
##JCAMP-DX=4.24
$$ By DXEDIT 1.05 (RS McDonald)
##DATA TYPE=INFRARED SPECTRUM
##CLASS=COBLENTZ III
##ORIGIN=DOW CHEMICAL COMPANY
##OWNER=COPYRIGHT (C) 1988 by COBLENTZ SOCIETY INC.
Collection (C) 2018 copyright by the U.S. Secretary of Commerce
on behalf of the United States of America. All rights reserved.
##DATE=1969/01/08
##NAMES=nitric acid compound with ethyl(tripropyl)-.lambda.<5>-azane (1:1)
##MOLFORM=C11 H26 N2 O3
##SOURCE REFERENCE=COBLENTZ NO. 07201
##$NIST ID=B6007201
##$NIST SOURCE=COBLENTZ
##$NIST IMAGE=cob7201
##SPECTROMETER/DATA SYSTEM=DOW KBr FOREPRISM-GRATING
##INSTRUMENT PARAMETERS=BLAZED AT 3.5, 12.0, 20.0 MICRON AND CHANGED AT 5.0, 7.5, 14.9 MICRON
##STATE=SOLID (SPLIT MULL), FLUOROLUBE FOR 3800-1330 CM^-^1, NUJOL FOR 1330-450 CM^-^1
##SAMPLING PROCEDURE=TRANSMISSION
##RESOLUTION=2
##DATA PROCESSING=DIGITIZED BY COBLENTZ SOCIETY (BATCH I) FROM HARD COPY
##XUNITS=1/CM
##YUNITS=TRANSMITTANCE
##XFACTOR=1
##YFACTOR=1
##DELTAX=1
##FIRSTX=3800
##LASTX=468
##FIRSTY=0.794
##MAXX=3800
##MINX=468
##MAXY=0.8885
##MINY=0.0725
##NPOINTS=3333
##XYDATA=(X++(Y..Y))
3800.000000 0.7940 0.7940 0.7940 0.7940 0.7940
3795.000000 0.7940 0.7940 0.7940 0.7941 0.7941
3790.000000 0.7941 0.7941 0.7941 0.7941 0.7941
3785.000000 0.7941 0.7941 0.7941 0.7941 0.7941
3780.000000 0.7941 0.7941 0.7942 0.7942 0.7942
3775.000000 0.7942 0.7942 0.7942 0.7942 0.7942
3770.000000 0.7942 0.7942 0.7942 0.7942 0.7943
3765.000000 0.7943 0.7943 0.7943 0.7943 0.7942
3760.000000 0.7942 0.7942 0.7942 0.7942 0.7943
3755.000000 0.7945 0.7947 0.7948 0.7950 0.7951
3750.000000 0.7953 0.7955 0.7957 0.7960 0.7964
3745.000000 0.7967 0.7971 0.7974 0.7978 0.7981
3740.000000 0.7985 0.7988 0.7992 0.7995 0.7998
3735.000000 0.7998 0.7999 0.7999 0.7999 0.7999
3730.000000 0.8000 0.8000 0.8000 0.8000 0.8000
3725.000000 0.7998 0.7996 0.7992 0.7988 0.7983
3720.000000 0.7978 0.7975 0.7971 0.7967 0.7962
3715.000000 0.7962 0.7964 0.7964 0.7965 0.7965
3710.000000 0.7967 0.7967 0.7968 0.7968 0.7969
3705.000000 0.7969 0.7971 0.7971 0.7972 0.7974
3700.000000 0.7975 0.7975 0.7978 0.7978 0.7980
3695.000000 0.7981 0.7982 0.7983 0.7985 0.7986
3690.000000 0.7987 0.7988 0.7990 0.7991 0.7992
3685.000000 0.7993 0.7994 0.7995 0.7997 0.7998
3680.000000 0.7999 0.8000 0.8001 0.8001 0.8004
3675.000000 0.8004 0.8005 0.8005 0.8005 0.8005
3670.000000 0.8005 0.8005 0.8005 0.8005 0.8005
3665.000000 0.8005 0.8005 0.8005 0.8005 0.8005
3660.000000 0.8005 0.8004 0.8004 0.8004 0.8004
3655.000000 0.8004 0.8004 0.8004 0.8004 0.8004
3650.000000 0.8004 0.8004 0.8004 0.8004 0.8004
3645.000000 0.8004 0.8004 0.8004 0.8004 0.8004
3640.000000 0.8004 0.8004 0.8004 0.8003 0.8003
3635.000000 0.8003 0.8003 0.8003 0.8003 0.8003
3630.000000 0.8003 0.8001 0.8001 0.8001 0.8001
3625.000000 0.8000 0.8000 0.7999 0.7998 0.7997
3620.000000 0.7997 0.7996 0.7996 0.7995 0.7995
3615.000000 0.7994 0.7993 0.7992 0.7992 0.7991
3610.000000 0.7991 0.7990 0.7989 0.7988 0.7988
3605.000000 0.7987 0.7987 0.7986 0.7986 0.7985
3600.000000 0.7984 0.7983 0.7983 0.7982 0.7982
3595.000000 0.7981 0.7980 0.7978 0.7978 0.7978
3590.000000 0.7978 0.7976 0.7976 0.7975 0.7975
3585.000000 0.7975 0.7975 0.7974 0.7974 0.7972
3580.000000 0.7972 0.7971 0.7971 0.7971 0.7971
3575.000000 0.7969 0.7969 0.7968 0.7968 0.7968
3570.000000 0.7968 0.7967 0.7967 0.7965 0.7965
3565.000000 0.7965 0.7965 0.7964 0.7964 0.7962
3560.000000 0.7962 0.7961 0.7961 0.7961 0.7961
3555.000000 0.7960 0.7960 0.7958 0.7958 0.7958
3550.000000 0.7958 0.7957 0.7957 0.7956 0.7956
3545.000000 0.7955 0.7955 0.7955 0.7955 0.7954
3540.000000 0.7954 0.7954 0.7954 0.7953 0.7953
3535.000000 0.7953 0.7953 0.7951 0.7951 0.7951
3530.000000 0.7951 0.7951 0.7951 0.7951 0.7951
3525.000000 0.7950 0.7950 0.7950 0.7950 0.7949
3520.000000 0.7949 0.7949 0.7949 0.7948 0.7948
3515.000000 0.7948 0.7948 0.7947 0.7947 0.7947
3510.000000 0.7947 0.7946 0.7946 0.7946 0.7946
3505.000000 0.7945 0.7945 0.7945 0.7945 0.7944
3500.000000 0.7944 0.7944 0.7944 0.7943 0.7943
3495.000000 0.7943 0.7943 0.7942 0.7942 0.7942
3490.000000 0.7942 0.7941 0.7941 0.7941 0.7941
3485.000000 0.7940 0.7940 0.7939 0.7939 0.7938
3480.000000 0.7938 0.7937 0.7937 0.7936 0.7935
3475.000000 0.7934 0.7934 0.7933 0.7933 0.7932
3470.000000 0.7932 0.7931 0.7930 0.7928 0.7928
3465.000000 0.7928 0.7928 0.7926 0.7926 0.7925
3460.000000 0.7925 0.7924 0.7924 0.7922 0.7922
3455.000000 0.7921 0.7921 0.7921 0.7919 0.7918
3450.000000 0.7918 0.7918 0.7918 0.7917 0.7917
3445.000000 0.7915 0.7915 0.7914 0.7914 0.7912
3440.000000 0.7912 0.7911 0.7911 0.7911 0.7911
3435.000000 0.7911 0.7911 0.7911 0.7911 0.7911
3430.000000 0.7911 0.7911 0.7911 0.7911 0.7911
3425.000000 0.7910 0.7910 0.7910 0.7910 0.7910
3420.000000 0.7910 0.7910 0.7910 0.7908 0.7908
3415.000000 0.7908 0.7908 0.7908 0.7908 0.7908
3410.000000 0.7908 0.7908 0.7908 0.7908 0.7908
3405.000000 0.7908 0.7908 0.7908 0.7908 0.7907
3400.000000 0.7907 0.7907 0.7907 0.7907 0.7907
3395.000000 0.7907 0.7907 0.7906 0.7906 0.7906
3390.000000 0.7906 0.7906 0.7906 0.7906 0.7906
3385.000000 0.7905 0.7905 0.7905 0.7905 0.7905
3380.000000 0.7905 0.7905 0.7904 0.7904 0.7904
3375.000000 0.7904 0.7904 0.7904 0.7904 0.7904
3370.000000 0.7904 0.7903 0.7903 0.7903 0.7903
3365.000000 0.7903 0.7903 0.7903 0.7903 0.7901
3360.000000 0.7901 0.7901 0.7901 0.7901 0.7901
3355.000000 0.7901 0.7901 0.7901 0.7901 0.7901
3350.000000 0.7901 0.7901 0.7901 0.7901 0.7901
3345.000000 0.7900 0.7900 0.7900 0.7900 0.7900
3340.000000 0.7900 0.7900 0.7900 0.7899 0.7899
3335.000000 0.7899 0.7899 0.7899 0.7899 0.7898
3330.000000 0.7898 0.7898 0.7898 0.7898 0.7898
3325.000000 0.7898 0.7898 0.7898 0.7898 0.7899
3320.000000 0.7900 0.7901 0.7901 0.7903 0.7904
3315.000000 0.7905 0.7906 0.7907 0.7908 0.7908
3310.000000 0.7910 0.7911 0.7911 0.7912 0.7914
3305.000000 0.7915 0.7915 0.7917 0.7918 0.7918
3300.000000 0.7919 0.7921 0.7921 0.7922 0.7924
3295.000000 0.7925 0.7925 0.7925 0.7926 0.7928
3290.000000 0.7928 0.7930 0.7931 0.7932 0.7933
3285.000000 0.7934 0.7935 0.7936 0.7937 0.7938
3280.000000 0.7939 0.7940 0.7941 0.7942 0.7943
3275.000000 0.7943 0.7944 0.7945 0.7946 0.7946
3270.000000 0.7947 0.7947 0.7948 0.7948 0.7949
3265.000000 0.7950 0.7951 0.7951 0.7951 0.7951
3260.000000 0.7953 0.7953 0.7954 0.7955 0.7956
3255.000000 0.7956 0.7957 0.7957 0.7958 0.7958
3250.000000 0.7958 0.7960 0.7961 0.7961 0.7961
3245.000000 0.7961 0.7962 0.7962 0.7964 0.7965
3240.000000 0.7965 0.7965 0.7967 0.7967 0.7968
3235.000000 0.7968 0.7968 0.7969 0.7971 0.7971
3230.000000 0.7971 0.7971 0.7972 0.7972 0.7974
3225.000000 0.7974 0.7975 0.7975 0.7975 0.7975
3220.000000 0.7976 0.7976 0.7978 0.7978 0.7978
3215.000000 0.7978 0.7980 0.7980 0.7980 0.7980
3210.000000 0.7981 0.7981 0.7982 0.7982 0.7983
3205.000000 0.7983 0.7984 0.7984 0.7985 0.7985
3200.000000 0.7986 0.7986 0.7987 0.7987 0.7988
3195.000000 0.7988 0.7989 0.7989 0.7989 0.7989
3190.000000 0.7990 0.7990 0.7991 0.7991 0.7992
3185.000000 0.7992 0.7993 0.7993 0.7994 0.7994
3180.000000 0.7995 0.7995 0.7996 0.7996 0.7997
3175.000000 0.7997 0.7997 0.7997 0.7997 0.7997
3170.000000 0.7997 0.7997 0.7997 0.7997 0.7998
3165.000000 0.7998 0.7998 0.7998 0.7998 0.7998
3160.000000 0.7998 0.7998 0.7998 0.7998 0.7998
3155.000000 0.7998 0.7999 0.7999 0.7999 0.7999
3150.000000 0.7999 0.7999 0.7999 0.7999 0.7999
3145.000000 0.7999 0.7999 0.7999 0.7999 0.7999
3140.000000 0.7999 0.7998 0.7997 0.7996 0.7995
3135.000000 0.7994 0.7993 0.7992 0.7991 0.7990
3130.000000 0.7989 0.7988 0.7987 0.7986 0.7986
3125.000000 0.7985 0.7984 0.7983 0.7982 0.7981
3120.000000 0.7980 0.7978 0.7978 0.7976 0.7975
3115.000000 0.7975 0.7974 0.7972 0.7971 0.7971
3110.000000 0.7969 0.7968 0.7968 0.7967 0.7965
3105.000000 0.7965 0.7965 0.7964 0.7962 0.7961
3100.000000 0.7961 0.7960 0.7958 0.7958 0.7957
3095.000000 0.7956 0.7955 0.7954 0.7953 0.7951
3090.000000 0.7951 0.7950 0.7949 0.7948 0.7947
3085.000000 0.7946 0.7946 0.7945 0.7944 0.7943
3080.000000 0.7943 0.7942 0.7941 0.7940 0.7940
3075.000000 0.7938 0.7936 0.7933 0.7931 0.7928
3070.000000 0.7925 0.7921 0.7919 0.7917 0.7914
3065.000000 0.7911 0.7908 0.7906 0.7903 0.7900
3060.000000 0.7898 0.7895 0.7893 0.7890 0.7887
3055.000000 0.7882 0.7876 0.7871 0.7865 0.7860
3050.000000 0.7854 0.7848 0.7843 0.7837 0.7831
3045.000000 0.7825 0.7818 0.7812 0.7807 0.7797
3040.000000 0.7788 0.7778 0.7768 0.7758 0.7750
3035.000000 0.7740 0.7731 0.7715 0.7701 0.7685
3030.000000 0.7668 0.7653 0.7637 0.7619 0.7603
3025.000000 0.7582 0.7561 0.7541 0.7521 0.7501
3020.000000 0.7481 0.7458 0.7437 0.7408 0.7382
3015.000000 0.7355 0.7328 0.7300 0.7272 0.7233
3010.000000 0.7193 0.7153 0.7112 0.7071 0.7031
3005.000000 0.6989 0.6948 0.6906 0.6864 0.6765
3000.000000 0.6665 0.6562 0.6461 0.6382 0.6303
2995.000000 0.6206 0.6109 0.6003 0.5898 0.5810
2990.000000 0.5722 0.5637 0.5552 0.5477 0.5402
2985.000000 0.5326 0.5250 0.5172 0.5094 0.5004
2980.000000 0.4915 0.4699 0.4484 0.4448 0.4409
2975.000000 0.4416 0.4420 0.4424 0.4428 0.4454
2970.000000 0.4481 0.4797 0.5112 0.5395 0.5678
2965.000000 0.5785 0.5892 0.5971 0.6051 0.6104
2960.000000 0.6158 0.6181 0.6204 0.6210 0.6217
2955.000000 0.6219 0.6222 0.6223 0.6225 0.6225
2950.000000 0.6226 0.6222 0.6218 0.6215 0.6212
2945.000000 0.6209 0.6207 0.6212 0.6218 0.6254
2940.000000 0.6291 0.6332 0.6373 0.6414 0.6455
2935.000000 0.6485 0.6515 0.6544 0.6572 0.6599
2930.000000 0.6625 0.6647 0.6668 0.6689 0.6711
2925.000000 0.6732 0.6754 0.6775 0.6797 0.6817
2920.000000 0.6838 0.6856 0.6875 0.6893 0.6911
2915.000000 0.6931 0.6950 0.6972 0.6997 0.7019
2910.000000 0.7043 0.7060 0.7078 0.7092 0.7107
2905.000000 0.7114 0.7095 0.7121 0.7121 0.7121
2900.000000 0.7121 0.7115 0.7111 0.7096 0.7082
2895.000000 0.7045 0.7008 0.6971 0.6935 0.6865
2890.000000 0.6798 0.6701 0.6605 0.6518 0.6433
2885.000000 0.6422 0.6381 0.6411 0.6411 0.6488
2880.000000 0.6565 0.6683 0.6801 0.6865 0.6932
2875.000000 0.6999 0.7065 0.7135 0.7204 0.7247
2870.000000 0.7290 0.7324 0.7358 0.7392 0.7425
2865.000000 0.7449 0.7472 0.7489 0.7505 0.7521
2860.000000 0.7537 0.7550 0.7564 0.7575 0.7589
2855.000000 0.7601 0.7615 0.7625 0.7638 0.7649
2850.000000 0.7661 0.7671 0.7684 0.7695 0.7707
2845.000000 0.7718 0.7730 0.7739 0.7748 0.7756
2840.000000 0.7764 0.7771 0.7781 0.7789 0.7798
2835.000000 0.7806 0.7815 0.7822 0.7831 0.7839
2830.000000 0.7848 0.7856 0.7864 0.7869 0.7875
2825.000000 0.7882 0.7888 0.7894 0.7900 0.7906
2820.000000 0.7911 0.7917 0.7922 0.7928 0.7935
2815.000000 0.7940 0.7946 0.7950 0.7954 0.7958
2810.000000 0.7961 0.7965 0.7969 0.7974 0.7978
2805.000000 0.7982 0.7986 0.7990 0.7994 0.7997
2800.000000 0.8001 0.8005 0.8008 0.8012 0.8017
2795.000000 0.8021 0.8025 0.8028 0.8033 0.8036
2790.000000 0.8040 0.8044 0.8048 0.8051 0.8056
2785.000000 0.8060 0.8064 0.8067 0.8071 0.8075
2780.000000 0.8078 0.8083 0.8087 0.8089 0.8092
2775.000000 0.8093 0.8095 0.8096 0.8098 0.8100
2770.000000 0.8101 0.8103 0.8105 0.8106 0.8108
2765.000000 0.8110 0.8111 0.8112 0.8115 0.8115
2760.000000 0.8115 0.8114 0.8111 0.8110 0.8108
2755.000000 0.8106 0.8104 0.8101 0.8101 0.8100
2750.000000 0.8099 0.8098 0.8097 0.8096 0.8096
2745.000000 0.8095 0.8095 0.8094 0.8094 0.8093
2740.000000 0.8093 0.8092 0.8092 0.8092 0.8093
2735.000000 0.8094 0.8096 0.8098 0.8100 0.8101
2730.000000 0.8104 0.8105 0.8107 0.8108 0.8111
2725.000000 0.8112 0.8115 0.8115 0.8118 0.8119
2720.000000 0.8121 0.8122 0.8124 0.8124 0.8125
2715.000000 0.8125 0.8125 0.8126 0.8128 0.8128
2710.000000 0.8128 0.8128 0.8130 0.8131 0.8132
2705.000000 0.8132 0.8133 0.8134 0.8135 0.8136
2700.000000 0.8137 0.8138 0.8139 0.8140 0.8142
2695.000000 0.8143 0.8144 0.8145 0.8146 0.8147
2690.000000 0.8148 0.8149 0.8150 0.8151 0.8151
2685.000000 0.8153 0.8154 0.8155 0.8156 0.8157
2680.000000 0.8158 0.8158 0.8160 0.8161 0.8161
2675.000000 0.8162 0.8164 0.8165 0.8167 0.8168
2670.000000 0.8169 0.8171 0.8172 0.8174 0.8175
2665.000000 0.8176 0.8178 0.8180 0.8182 0.8183
2660.000000 0.8185 0.8186 0.8187 0.8188 0.8190
2655.000000 0.8191 0.8193 0.8194 0.8196 0.8197
2650.000000 0.8199 0.8200 0.8202 0.8203 0.8205
2645.000000 0.8206 0.8208 0.8209 0.8211 0.8212
2640.000000 0.8214 0.8215 0.8217 0.8218 0.8220
2635.000000 0.8221 0.8223 0.8224 0.8225 0.8228
2630.000000 0.8230 0.8231 0.8233 0.8235 0.8237
2625.000000 0.8238 0.8240 0.8242 0.8244 0.8245
2620.000000 0.8247 0.8248 0.8250 0.8252 0.8254
2615.000000 0.8255 0.8257 0.8259 0.8261 0.8262
2610.000000 0.8263 0.8264 0.8265 0.8266 0.8267
2605.000000 0.8268 0.8268 0.8270 0.8271 0.8271
2600.000000 0.8274 0.8275 0.8275 0.8277 0.8278
2595.000000 0.8278 0.8280 0.8281 0.8282 0.8283
2590.000000 0.8284 0.8285 0.8286 0.8287 0.8288
2585.000000 0.8289 0.8291 0.8292 0.8293 0.8294
2580.000000 0.8295 0.8296 0.8297 0.8298 0.8299
2575.000000 0.8300 0.8301 0.8302 0.8303 0.8304
2570.000000 0.8306 0.8307 0.8308 0.8309 0.8310
2565.000000 0.8310 0.8311 0.8311 0.8312 0.8313
2560.000000 0.8314 0.8314 0.8315 0.8315 0.8316
2555.000000 0.8317 0.8318 0.8318 0.8318 0.8318
2550.000000 0.8320 0.8321 0.8321 0.8321 0.8323
2545.000000 0.8323 0.8324 0.8325 0.8325 0.8325
2540.000000 0.8327 0.8327 0.8328 0.8328 0.8330
2535.000000 0.8330 0.8331 0.8331 0.8332 0.8333
2530.000000 0.8334 0.8334 0.8335 0.8335 0.8336
2525.000000 0.8336 0.8337 0.8338 0.8339 0.8339
2520.000000 0.8340 0.8340 0.8341 0.8342 0.8343
2515.000000 0.8343 0.8344 0.8344 0.8345 0.8346
2510.000000 0.8347 0.8347 0.8348 0.8348 0.8349
2505.000000 0.8350 0.8351 0.8351 0.8352 0.8352
2500.000000 0.8353 0.8354 0.8355 0.8355 0.8356
2495.000000 0.8357 0.8358 0.8358 0.8359 0.8359
2490.000000 0.8360 0.8361 0.8362 0.8362 0.8363
2485.000000 0.8363 0.8364 0.8365 0.8366 0.8366
2480.000000 0.8367 0.8367 0.8368 0.8368 0.8370
2475.000000 0.8370 0.8371 0.8371 0.8371 0.8371
2470.000000 0.8373 0.8373 0.8374 0.8374 0.8375
2465.000000 0.8375 0.8375 0.8375 0.8377 0.8378
2460.000000 0.8378 0.8378 0.8380 0.8380 0.8381
2455.000000 0.8381 0.8382 0.8382 0.8383 0.8383
2450.000000 0.8383 0.8383 0.8383 0.8382 0.8382
2445.000000 0.8381 0.8381 0.8381 0.8381 0.8380
2440.000000 0.8380 0.8380 0.8380 0.8378 0.8378
2435.000000 0.8378 0.8378 0.8378 0.8378 0.8378
2430.000000 0.8378 0.8377 0.8377 0.8375 0.8375
2425.000000 0.8375 0.8374 0.8373 0.8371 0.8371
2420.000000 0.8370 0.8368 0.8368 0.8366 0.8365
2415.000000 0.8364 0.8363 0.8362 0.8361 0.8360
2410.000000 0.8359 0.8358 0.8357 0.8355 0.8353
2405.000000 0.8350 0.8347 0.8344 0.8342 0.8338
2400.000000 0.8335 0.8328 0.8321 0.8315 0.8308
2395.000000 0.8301 0.8294 0.8287 0.8281 0.8274
2390.000000 0.8268 0.8262 0.8256 0.8250 0.8245
2385.000000 0.8239 0.8234 0.8228 0.8224 0.8218
2380.000000 0.8214 0.8209 0.8204 0.8200 0.8186
2375.000000 0.8196 0.8195 0.8194 0.8194 0.8193
2370.000000 0.8193 0.8193 0.8194 0.8197 0.8200
2365.000000 0.8202 0.8205 0.8208 0.8211 0.8213
2360.000000 0.8216 0.8218 0.8221 0.8225 0.8228
2355.000000 0.8230 0.8233 0.8236 0.8239 0.8242
2350.000000 0.8245 0.8248 0.8251 0.8253 0.8256
2345.000000 0.8259 0.8262 0.8265 0.8268 0.8270
2340.000000 0.8273 0.8275 0.8280 0.8283 0.8286
2335.000000 0.8289 0.8293 0.8296 0.8299 0.8302
2330.000000 0.8306 0.8309 0.8312 0.8315 0.8318
2325.000000 0.8321 0.8325 0.8328 0.8331 0.8334
2320.000000 0.8338 0.8341 0.8344 0.8347 0.8350
2315.000000 0.8353 0.8357 0.8360 0.8363 0.8366
2310.000000 0.8370 0.8373 0.8375 0.8378 0.8382
2305.000000 0.8385 0.8388 0.8391 0.8394 0.8397
2300.000000 0.8400 0.8403 0.8406 0.8409 0.8412
2295.000000 0.8415 0.8418 0.8421 0.8424 0.8427
2290.000000 0.8430 0.8433 0.8436 0.8439 0.8442
2285.000000 0.8445 0.8448 0.8451 0.8454 0.8457
2280.000000 0.8460 0.8463 0.8466 0.8468 0.8471
2275.000000 0.8475 0.8478 0.8480 0.8483 0.8486
2270.000000 0.8489 0.8492 0.8495 0.8497 0.8500
2265.000000 0.8503 0.8506 0.8509 0.8512 0.8515
2260.000000 0.8518 0.8520 0.8523 0.8525 0.8528
2255.000000 0.8532 0.8535 0.8537 0.8540 0.8543
2250.000000 0.8546 0.8549 0.8552 0.8555 0.8558
2245.000000 0.8560 0.8563 0.8565 0.8568 0.8570
2240.000000 0.8573 0.8575 0.8578 0.8580 0.8582
2235.000000 0.8584 0.8587 0.8589 0.8592 0.8594
2230.000000 0.8597 0.8599 0.8602 0.8604 0.8607
2225.000000 0.8609 0.8612 0.8614 0.8617 0.8618
2220.000000 0.8621 0.8624 0.8625 0.8628 0.8631
2215.000000 0.8633 0.8636 0.8638 0.8641 0.8643
2210.000000 0.8646 0.8648 0.8651 0.8653 0.8656
2205.000000 0.8658 0.8661 0.8664 0.8667 0.8668
2200.000000 0.8671 0.8674 0.8677 0.8678 0.8682
2195.000000 0.8685 0.8688 0.8691 0.8694 0.8697
2190.000000 0.8700 0.8702 0.8705 0.8708 0.8711
2185.000000 0.8714 0.8718 0.8721 0.8727 0.8733
2180.000000 0.8739 0.8745 0.8752 0.8760 0.8768
2175.000000 0.8775 0.8783 0.8781 0.8780 0.8778
2170.000000 0.8778 0.8775 0.8775 0.8774 0.8773
2165.000000 0.8771 0.8771 0.8771 0.8771 0.8773
2160.000000 0.8774 0.8774 0.8775 0.8775 0.8775
2155.000000 0.8775 0.8777 0.8778 0.8778 0.8778
2150.000000 0.8780 0.8780 0.8781 0.8781 0.8782
2145.000000 0.8783 0.8784 0.8784 0.8785 0.8785
2140.000000 0.8786 0.8786 0.8787 0.8788 0.8789
2135.000000 0.8789 0.8790 0.8791 0.8792 0.8792
2130.000000 0.8793 0.8793 0.8794 0.8795 0.8796
2125.000000 0.8796 0.8797 0.8797 0.8798 0.8799
2120.000000 0.8800 0.8800 0.8801 0.8801 0.8802
2115.000000 0.8803 0.8804 0.8804 0.8805 0.8805
2110.000000 0.8806 0.8807 0.8808 0.8808 0.8809
2105.000000 0.8809 0.8810 0.8810 0.8811 0.8812
2100.000000 0.8813 0.8813 0.8814 0.8814 0.8815
2095.000000 0.8816 0.8817 0.8817 0.8818 0.8818
2090.000000 0.8818 0.8818 0.8820 0.8820 0.8821
2085.000000 0.8821 0.8821 0.8821 0.8823 0.8823
2080.000000 0.8823 0.8823 0.8824 0.8824 0.8825
2075.000000 0.8825 0.8825 0.8825 0.8827 0.8827
2070.000000 0.8827 0.8827 0.8828 0.8828 0.8828
2065.000000 0.8828 0.8830 0.8830 0.8830 0.8830
2060.000000 0.8831 0.8831 0.8831 0.8831 0.8831
2055.000000 0.8831 0.8831 0.8830 0.8830 0.8830
2050.000000 0.8830 0.8830 0.8830 0.8828 0.8828
2045.000000 0.8830 0.8832 0.8835 0.8838 0.8840
2040.000000 0.8843 0.8846 0.8849 0.8851 0.8854
2035.000000 0.8856 0.8859 0.8861 0.8864 0.8866
2030.000000 0.8868 0.8870 0.8871 0.8874 0.8875
2025.000000 0.8878 0.8881 0.8883 0.8885 0.8885
2020.000000 0.8885 0.8884 0.8884 0.8883 0.8883
2015.000000 0.8882 0.8882 0.8881 0.8881 0.8880
2010.000000 0.8880 0.8874 0.8868 0.8862 0.8857
2005.000000 0.8851 0.8845 0.8839 0.8833 0.8821
2000.000000 0.8810 0.8799 0.8786 0.8782 0.8782
1995.000000 0.8782 0.8781 0.8781 0.8781 0.8781
1990.000000 0.8780 0.8780 0.8778 0.8778 0.8778
1985.000000 0.8777 0.8775 0.8775 0.8775 0.8774
1980.000000 0.8774 0.8774 0.8774 0.8774 0.8774
1975.000000 0.8774 0.8774 0.8774 0.8774 0.8774
1970.000000 0.8774 0.8774 0.8774 0.8774 0.8774
1965.000000 0.8774 0.8775 0.8775 0.8777 0.8777
1960.000000 0.8778 0.8778 0.8780 0.8781 0.8781
1955.000000 0.8782 0.8783 0.8784 0.8784 0.8785
1950.000000 0.8786 0.8787 0.8788 0.8788 0.8788
1945.000000 0.8789 0.8789 0.8789 0.8789 0.8790
1940.000000 0.8790 0.8790 0.8791 0.8791 0.8791
1935.000000 0.8792 0.8792 0.8792 0.8792 0.8793
1930.000000 0.8793 0.8793 0.8794 0.8794 0.8794
1925.000000 0.8794 0.8794 0.8795 0.8795 0.8795
1920.000000 0.8795 0.8795 0.8796 0.8796 0.8796
1915.000000 0.8796 0.8796 0.8796 0.8797 0.8797
1910.000000 0.8796 0.8796 0.8795 0.8795 0.8794
1905.000000 0.8794 0.8793 0.8793 0.8792 0.8792
1900.000000 0.8791 0.8791 0.8791 0.8791 0.8792
1895.000000 0.8793 0.8795 0.8796 0.8797 0.8798
1890.000000 0.8800 0.8801 0.8802 0.8802 0.8802
1885.000000 0.8801 0.8801 0.8801 0.8801 0.8800
1880.000000 0.8800 0.8800 0.8800 0.8799 0.8799
1875.000000 0.8799 0.8799 0.8798 0.8798 0.8798
1870.000000 0.8798 0.8797 0.8797 0.8797 0.8797
1865.000000 0.8796 0.8796 0.8796 0.8796 0.8795
1860.000000 0.8795 0.8795 0.8794 0.8794 0.8794
1855.000000 0.8794 0.8793 0.8793 0.8793 0.8793
1850.000000 0.8792 0.8792 0.8792 0.8792 0.8791
1845.000000 0.8791 0.8791 0.8791 0.8790 0.8790
1840.000000 0.8790 0.8790 0.8790 0.8790 0.8790
1835.000000 0.8790 0.8790 0.8790 0.8790 0.8790
1830.000000 0.8790 0.8790 0.8790 0.8790 0.8790
1825.000000 0.8790 0.8789 0.8789 0.8789 0.8789
1820.000000 0.8788 0.8788 0.8788 0.8788 0.8787
1815.000000 0.8787 0.8787 0.8787 0.8786 0.8786
1810.000000 0.8786 0.8786 0.8785 0.8785 0.8785
1805.000000 0.8785 0.8784 0.8784 0.8784 0.8784
1800.000000 0.8783 0.8783 0.8783 0.8783 0.8782
1795.000000 0.8781 0.8780 0.8778 0.8778 0.8777
1790.000000 0.8777 0.8775 0.8775 0.8774 0.8773
1785.000000 0.8771 0.8771 0.8770 0.8768 0.8768
1780.000000 0.8767 0.8766 0.8765 0.8764 0.8763
1775.000000 0.8762 0.8762 0.8762 0.8763 0.8763
1770.000000 0.8763 0.8763 0.8763 0.8764 0.8764
1765.000000 0.8763 0.8763 0.8763 0.8763 0.8762
1760.000000 0.8762 0.8760 0.8757 0.8754 0.8751
1755.000000 0.8743 0.8731 0.8714 0.8689 0.8655
1750.000000 0.8621 0.8587 0.8554 0.8521 0.8489
1745.000000 0.8468 0.8452 0.8463 0.8475 0.8500
1740.000000 0.8525 0.8556 0.8588 0.8618 0.8641
1735.000000 0.8662 0.8680 0.8689 0.8696 0.8698
1730.000000 0.8699 0.8701 0.8702 0.8704 0.8706
1725.000000 0.8707 0.8709 0.8710 0.8712 0.8714
1720.000000 0.8715 0.8717 0.8718 0.8720 0.8721
1715.000000 0.8721 0.8721 0.8721 0.8723 0.8723
1710.000000 0.8723 0.8724 0.8724 0.8724 0.8725
1705.000000 0.8725 0.8725 0.8725 0.8725 0.8725
1700.000000 0.8727 0.8727 0.8727 0.8727 0.8727
1695.000000 0.8725 0.8725 0.8725 0.8725 0.8725
1690.000000 0.8724 0.8724 0.8723 0.8723 0.8723
1685.000000 0.8721 0.8721 0.8721 0.8721 0.8720
1680.000000 0.8720 0.8720 0.8718 0.8718 0.8718
1675.000000 0.8718 0.8720 0.8720 0.8721 0.8721
1670.000000 0.8721 0.8721 0.8721 0.8723 0.8723
1665.000000 0.8724 0.8724 0.8725 0.8725 0.8725
1660.000000 0.8725 0.8725 0.8725 0.8725 0.8725
1655.000000 0.8725 0.8725 0.8725 0.8725 0.8725
1650.000000 0.8725 0.8725 0.8727 0.8727 0.8727
1645.000000 0.8727 0.8727 0.8727 0.8727 0.8727
1640.000000 0.8727 0.8727 0.8727 0.8727 0.8727
1635.000000 0.8725 0.8725 0.8725 0.8725 0.8725
1630.000000 0.8725 0.8727 0.8727 0.8728 0.8728
1625.000000 0.8728 0.8728 0.8728 0.8730 0.8730
1620.000000 0.8730 0.8731 0.8731 0.8732 0.8732
1615.000000 0.8732 0.8733 0.8734 0.8735 0.8736
1610.000000 0.8738 0.8739 0.8740 0.8741 0.8741
1605.000000 0.8741 0.8741 0.8740 0.8740 0.8740
1600.000000 0.8740 0.8739 0.8739 0.8739 0.8739
1595.000000 0.8738 0.8738 0.8738 0.8738 0.8737
1590.000000 0.8737 0.8737 0.8737 0.8736 0.8735
1585.000000 0.8734 0.8734 0.8733 0.8732 0.8732
1580.000000 0.8731 0.8731 0.8731 0.8731 0.8731
1575.000000 0.8731 0.8731 0.8731 0.8732 0.8732
1570.000000 0.8732 0.8732 0.8733 0.8733 0.8734
1565.000000 0.8734 0.8735 0.8735 0.8735 0.8735
1560.000000 0.8735 0.8735 0.8735 0.8735 0.8735
1555.000000 0.8735 0.8735 0.8735 0.8735 0.8734
1550.000000 0.8734 0.8734 0.8734 0.8733 0.8731
1545.000000 0.8730 0.8728 0.8727 0.8725 0.8724
1540.000000 0.8723 0.8721 0.8720 0.8718 0.8715
1535.000000 0.8713 0.8710 0.8707 0.8705 0.8702
1530.000000 0.8699 0.8692 0.8686 0.8680 0.8674
1525.000000 0.8667 0.8661 0.8655 0.8649 0.8642
1520.000000 0.8633 0.8624 0.8614 0.8604 0.8592
1515.000000 0.8578 0.8567 0.8543 0.8514 0.8485
1510.000000 0.8451 0.8368 0.8287 0.7925 0.7704
1505.000000 0.7554 0.7403 0.7217 0.7118 0.7018
1500.000000 0.6906 0.6831 0.6771 0.6736 0.6718
1495.000000 0.6696 0.6715 0.6725 0.6745 0.6765
1490.000000 0.6842 0.6821 0.6825 0.6828 0.6818
1485.000000 0.6758 0.6687 0.6575 0.6604 0.6601
1480.000000 0.6647 0.6701 0.6758 0.6805 0.6849
1475.000000 0.6900 0.6978 0.6939 0.6935 0.6900
1470.000000 0.6862 0.6812 0.6762 0.6704 0.6650
1465.000000 0.6611 0.6585 0.6540 0.6581 0.6614
1460.000000 0.6678 0.6755 0.6846 0.6942 0.7058
1455.000000 0.7164 0.7258 0.7325 0.7384 0.7443
1450.000000 0.7501 0.7561 0.7621 0.7672 0.7719
1445.000000 0.7753 0.7787 0.7819 0.7855 0.7874
1440.000000 0.7878 0.7883 0.7883 0.7883 0.7878
1435.000000 0.7872 0.7868 0.7864 0.7856 0.7847
1430.000000 0.7839 0.7830 0.7818 0.7801 0.7786
1425.000000 0.7769 0.7750 0.7721 0.7693 0.7665
1420.000000 0.7633 0.7591 0.7546 0.7495 0.7443
1415.000000 0.7382 0.7339 0.7300 0.7257 0.7246
1410.000000 0.7234 0.7221 0.7210 0.7195 0.7178
1405.000000 0.7164 0.7135 0.7050 0.6953 0.6814
1400.000000 0.6564 0.6469 0.6425 0.6393 0.6360
1395.000000 0.6331 0.6300 0.6270 0.6228 0.6171
1390.000000 0.6080 0.5894 0.5735 0.5493 0.5308
1385.000000 0.4988 0.4921 0.4908 0.4908 0.4908
1380.000000 0.4971 0.4996 0.4997 0.4997 0.4935
1375.000000 0.4833 0.4714 0.4470 0.4309 0.4219
1370.000000 0.4127 0.3823 0.3625 0.3400 0.2577
1365.000000 0.2397 0.2239 0.2050 0.1826 0.1611
1360.000000 0.1371 0.1165 0.1092 0.1039 0.0991
1355.000000 0.0942 0.0895 0.0849 0.0815 0.0795
1350.000000 0.0772 0.0756 0.0751 0.0725 0.0743
1345.000000 0.0743 0.0743 0.0742 0.0742 0.0748
1340.000000 0.0756 0.0772 0.0788 0.0819 0.0867
1335.000000 0.0930 0.0996 0.1099 0.1212 0.1358
1330.000000 0.1517 0.1634 0.1765 0.1915 0.2045
1325.000000 0.2158 0.2263 0.2368 0.2473 0.2610
1320.000000 0.2731 0.2814 0.2837 0.2861 0.2890
1315.000000 0.2919 0.2949 0.3000 0.3111 0.3339
1310.000000 0.3528 0.3624 0.3720 0.3816 0.3910
1305.000000 0.4004 0.4120 0.4912 0.5052 0.5190
1300.000000 0.5312 0.5435 0.5526 0.5610 0.5695
1295.000000 0.5774 0.5853 0.5932 0.6009 0.6084
1290.000000 0.6158 0.6227 0.6285 0.6344 0.6398
1285.000000 0.6440 0.6482 0.6524 0.6565 0.6607
1280.000000 0.6645 0.6678 0.6712 0.6748 0.6778
1275.000000 0.6807 0.6836 0.6864 0.6893 0.6926
1270.000000 0.6961 0.6995 0.7028 0.7060 0.7092
1265.000000 0.7124 0.7156 0.7186 0.7214 0.7242
1260.000000 0.7269 0.7298 0.7324 0.7343 0.7362
1255.000000 0.7383 0.7403 0.7421 0.7441 0.7460
1250.000000 0.7478 0.7497 0.7515 0.7535 0.7554
1245.000000 0.7571 0.7589 0.7606 0.7622 0.7638
1240.000000 0.7654 0.7668 0.7684 0.7699 0.7714
1235.000000 0.7725 0.7731 0.7736 0.7741 0.7747
1230.000000 0.7751 0.7754 0.7758 0.7761 0.7765
1225.000000 0.7768 0.7771 0.7775 0.7778 0.7782
1220.000000 0.7786 0.7790 0.7794 0.7798 0.7801
1215.000000 0.7803 0.7805 0.7807 0.7808 0.7810
1210.000000 0.7811 0.7814 0.7815 0.7818 0.7819
1205.000000 0.7821 0.7824 0.7825 0.7825 0.7818
1200.000000 0.7819 0.7815 0.7811 0.7798 0.7785
1195.000000 0.7771 0.7757 0.7719 0.7682 0.7631
1190.000000 0.7575 0.7517 0.7451 0.7378 0.7325
1185.000000 0.7289 0.7268 0.7267 0.7265 0.7265
1180.000000 0.7261 0.7258 0.7235 0.7201 0.7160
1175.000000 0.7130 0.7111 0.7125 0.7181 0.7244
1170.000000 0.7308 0.7361 0.7410 0.7447 0.7483
1165.000000 0.7518 0.7530 0.7530 0.7531 0.7532
1160.000000 0.7535 0.7542 0.7560 0.7578 0.7597
1155.000000 0.7615 0.7634 0.7654 0.7675 0.7696
1150.000000 0.7715 0.7737 0.7758 0.7778 0.7801
1145.000000 0.7825 0.7848 0.7867 0.7883 0.7899
1140.000000 0.7895 0.7890 0.7886 0.7881 0.7875
1135.000000 0.7868 0.7865 0.7871 0.7875 0.7881
1130.000000 0.7889 0.7900 0.7911 0.7921 0.7932
1125.000000 0.7943 0.7954 0.7961 0.7967 0.7974
1120.000000 0.7981 0.7987 0.7994 0.7999 0.8001
1115.000000 0.8003 0.8003 0.8012 0.8008 0.8001
1110.000000 0.7994 0.7986 0.7978 0.7971 0.7951
1105.000000 0.7932 0.7911 0.7892 0.7869 0.7849
1100.000000 0.7847 0.7846 0.7845 0.7845 0.7845
1095.000000 0.7847 0.7818 0.7780 0.7738 0.7703
1090.000000 0.7674 0.7641 0.7606 0.7615 0.7618
1085.000000 0.7621 0.7637 0.7672 0.7732 0.7788
1080.000000 0.7840 0.7887 0.7924 0.7960 0.7982
1075.000000 0.8001 0.8012 0.8017 0.8025 0.8025
1070.000000 0.8025 0.8025 0.8024 0.8022 0.8019
1065.000000 0.8015 0.8011 0.8001 0.7991 0.7981
1060.000000 0.7971 0.7961 0.7954 0.7951 0.7948
1055.000000 0.7946 0.7944 0.7942 0.7940 0.7940
1050.000000 0.7941 0.7942 0.7937 0.7928 0.7921
1045.000000 0.7895 0.7862 0.7821 0.7737 0.7600
1040.000000 0.7564 0.7537 0.7526 0.7525 0.7533
1035.000000 0.7553 0.7555 0.7521 0.7481 0.7441
1030.000000 0.7401 0.7351 0.7291 0.7237 0.7144
1025.000000 0.7165 0.7161 0.7171 0.7215 0.7275
1020.000000 0.7338 0.7415 0.7495 0.7582 0.7668
1015.000000 0.7724 0.7778 0.7833 0.7888 0.7943
1010.000000 0.7990 0.8015 0.8041 0.8064 0.8075
1005.000000 0.8088 0.8094 0.8099 0.8105 0.8110
1000.000000 0.8118 0.8098 0.8091 0.8085 0.8074
995.000000 0.8062 0.8051 0.8035 0.8014 0.7989
990.000000 0.7938 0.7876 0.7815 0.7756 0.7691
985.000000 0.7614 0.7538 0.7442 0.7350 0.7356
980.000000 0.7353 0.7358 0.7371 0.7384 0.7395
975.000000 0.7406 0.7415 0.7447 0.7397 0.7358
970.000000 0.7315 0.7268 0.7211 0.7164 0.7121
965.000000 0.7080 0.7032 0.6971 0.6987 0.7000
960.000000 0.7044 0.7096 0.7176 0.7258 0.7325
955.000000 0.7392 0.7471 0.7556 0.7635 0.7710
950.000000 0.7772 0.7825 0.7880 0.7906 0.7933
945.000000 0.7960 0.7984 0.8005 0.8025 0.8044
940.000000 0.8047 0.8051 0.8057 0.8061 0.8067
935.000000 0.8072 0.8078 0.8085 0.8091 0.8095
930.000000 0.8098 0.8101 0.8105 0.8108 0.8111
925.000000 0.8112 0.8115 0.8115 0.8111 0.8108
920.000000 0.8094 0.8080 0.8068 0.8058 0.8056
915.000000 0.8061 0.8068 0.8075 0.8081 0.8090
910.000000 0.8098 0.8107 0.8115 0.8124 0.8133
905.000000 0.8142 0.8151 0.8158 0.8165 0.8171
900.000000 0.8178 0.8180 0.8175 0.8169 0.8169
895.000000 0.8171 0.8172 0.8174 0.8176 0.8181
890.000000 0.8185 0.8189 0.8192 0.8196 0.8199
885.000000 0.8203 0.8206 0.8207 0.8207 0.8208
880.000000 0.8208 0.8208 0.8205 0.8202 0.8199
875.000000 0.8195 0.8187 0.8178 0.8168 0.8160
870.000000 0.8153 0.8154 0.8164 0.8174 0.8183
865.000000 0.8190 0.8194 0.8198 0.8203 0.8204
860.000000 0.8204 0.8204 0.8198 0.8192 0.8186
855.000000 0.8180 0.8169 0.8158 0.8151 0.8143
850.000000 0.8136 0.8130 0.8126 0.8122 0.8119
845.000000 0.8115 0.8108 0.8101 0.8091 0.8080
840.000000 0.8065 0.8045 0.7986 0.7925 0.7691
835.000000 0.7395 0.7099 0.6933 0.6924 0.7551
830.000000 0.7833 0.7930 0.7985 0.8035 0.8072
825.000000 0.8108 0.8115 0.8121 0.8121 0.8119
820.000000 0.8101 0.8075 0.8045 0.8014 0.7984
815.000000 0.7955 0.7925 0.7907 0.7888 0.7881
810.000000 0.7876 0.7875 0.7875 0.7874 0.7881
805.000000 0.7912 0.7964 0.8011 0.8051 0.8080
800.000000 0.8108 0.8135 0.8162 0.8190 0.8218
795.000000 0.8245 0.8266 0.8286 0.8304 0.8316
790.000000 0.8328 0.8335 0.8339 0.8342 0.8342
785.000000 0.8342 0.8340 0.8339 0.8328 0.8311
780.000000 0.8285 0.8258 0.8231 0.8205 0.8180
775.000000 0.8155 0.8130 0.8101 0.8069 0.8040
770.000000 0.7992 0.7942 0.7892 0.7840 0.7787
765.000000 0.7731 0.7674 0.7614 0.7558 0.7511
760.000000 0.7472 0.7458 0.7460 0.7468 0.7560
755.000000 0.7601 0.7643 0.7684 0.7726 0.7769
750.000000 0.7811 0.7837 0.7861 0.7888 0.7912
745.000000 0.7936 0.7956 0.7975 0.7996 0.8015
740.000000 0.8034 0.8049 0.8064 0.8080 0.8091
735.000000 0.8099 0.8107 0.8111 0.8117 0.8125
730.000000 0.8125 0.8125 0.8118 0.8093 0.8055
725.000000 0.8025 0.8025 0.8025 0.8035 0.8047
720.000000 0.8064 0.8125 0.8190 0.8244 0.8271
715.000000 0.8296 0.8304 0.8313 0.8321 0.8328
710.000000 0.8337 0.8346 0.8355 0.8364 0.8373
705.000000 0.8382 0.8391 0.8400 0.8409 0.8418
700.000000 0.8425 0.8435 0.8444 0.8453 0.8462
695.000000 0.8470 0.8478 0.8488 0.8496 0.8498
690.000000 0.8499 0.8500 0.8501 0.8502 0.8503
685.000000 0.8504 0.8506 0.8507 0.8508 0.8510
680.000000 0.8511 0.8512 0.8514 0.8514 0.8513
675.000000 0.8513 0.8512 0.8511 0.8510 0.8509
670.000000 0.8508 0.8507 0.8506 0.8505 0.8504
665.000000 0.8503 0.8502 0.8501 0.8501 0.8502
660.000000 0.8504 0.8505 0.8510 0.8530 0.8551
655.000000 0.8594 0.8592 0.8581 0.8568 0.8558
650.000000 0.8547 0.8536 0.8525 0.8515 0.8504
645.000000 0.8493 0.8485 0.8478 0.8473 0.8470
640.000000 0.8475 0.8481 0.8487 0.8492 0.8534
635.000000 0.8505 0.8512 0.8518 0.8517 0.8516
630.000000 0.8514 0.8511 0.8506 0.8500 0.8494
625.000000 0.8488 0.8482 0.8477 0.8471 0.8470
620.000000 0.8468 0.8468 0.8467 0.8467 0.8467
615.000000 0.8470 0.8471 0.8475 0.8478 0.8480
610.000000 0.8483 0.8486 0.8488 0.8491 0.8493
605.000000 0.8496 0.8499 0.8501 0.8504 0.8506
600.000000 0.8509 0.8511 0.8512 0.8513 0.8515
595.000000 0.8516 0.8517 0.8518 0.8520 0.8521
590.000000 0.8521 0.8524 0.8525 0.8525 0.8528
585.000000 0.8528 0.8530 0.8532 0.8533 0.8534
580.000000 0.8535 0.8536 0.8537 0.8538 0.8539
575.000000 0.8540 0.8541 0.8542 0.8543 0.8544
570.000000 0.8545 0.8546 0.8547 0.8548 0.8550
565.000000 0.8553 0.8555 0.8558 0.8560 0.8562
560.000000 0.8565 0.8567 0.8570 0.8571 0.8575
555.000000 0.8577 0.8580 0.8582 0.8585 0.8587
550.000000 0.8590 0.8592 0.8594 0.8597 0.8599
545.000000 0.8601 0.8604 0.8606 0.8609 0.8610
540.000000 0.8612 0.8613 0.8615 0.8616 0.8618
535.000000 0.8618 0.8621 0.8621 0.8618 0.8617
530.000000 0.8615 0.8613 0.8608 0.8602 0.8597
525.000000 0.8591 0.8586 0.8580 0.8575 0.8575
520.000000 0.8578 0.8580 0.8582 0.8584 0.8586
515.000000 0.8588 0.8590 0.8591 0.8591 0.8592
510.000000 0.8592 0.8592 0.8592 0.8593 0.8593
505.000000 0.8593 0.8593 0.8594 0.8594 0.8594
500.000000 0.8594 0.8594 0.8594 0.8593 0.8592
495.000000 0.8592 0.8591 0.8590 0.8590 0.8589
490.000000 0.8588 0.8586 0.8585 0.8583 0.8582
485.000000 0.8580 0.8578 0.8577 0.8575 0.8574
480.000000 0.8573 0.8571 0.8568 0.8567 0.8566
475.000000 0.8564 0.8562 0.8561 0.8559 0.8557
470.000000 0.8554 0.8551 0.8547
##END=
