##TITLE=p-TOLUENESULFINIC ACID, SODIUM SALT
##JCAMP-DX=4.24
##DATA TYPE=INFRARED SPECTRUM
##CLASS=COBLENTZ II
##ORIGIN=DOW CHEMICAL COMPANY
##OWNER=COBLENTZ SOC.
Collection (C) 2018 copyright by the U.S. Secretary of Commerce
on behalf of the United States of America. All rights reserved.
##DATE=1967/02/21
##MOLFORM=C7 H7 Na O2 S
##SOURCE REFERENCE=COBLENTZ NO. 07165
##$NIST ID=B6007165
##$NIST SOURCE=COBLENTZ
##$NIST IMAGE=cob7165
##SPECTROMETER/DATA SYSTEM=DOW KBr FOREPRISM-GRATING
##INSTRUMENT PARAMETERS=BLAZED AT 3.5, 12.0, 20.0 MICRON AND CHANGED AT 5.0, 7.5, 14.9 MICRON
##STATE=SOLID (SPLIT MULL), FLUOROLUBE FOR 3800-1330 CM^-^1, NUJOL FOR 1330-400 CM^-^1
$$ SPECTRAL FEATURE AT 1338 CM^-^1 IS AFFECTED BY SOLVENT CHANGE
##SAMPLING PROCEDURE=TRANSMISSION
##RESOLUTION=2
##DATA PROCESSING=DIGITIZED BY COBLENTZ SOCIETY (BATCH I) FROM HARD COPY
##XUNITS=1/CM
##YUNITS=TRANSMITTANCE
##XLABEL=Wavenumbers (cm-1)
##YLABEL=% Transmission
##XFACTOR=1
##YFACTOR=1
##DELTAX=1
##FIRSTX=385
##LASTX=3798
##FIRSTY=0.774
##MAXX=3798
##MINX=385
##MAXY=0.8812
##MINY=0.0814
##NPOINTS=3414
##XYDATA=(X++(Y..Y))
385.000000 0.7740 0.7744 0.7747 0.7748 0.7749
390.000000 0.7750 0.7751 0.7753 0.7755 0.7757
395.000000 0.7758 0.7761 0.7765 0.7768 0.7772
400.000000 0.7776 0.7780 0.7786 0.7792 0.7798
405.000000 0.7804 0.7810 0.7815 0.7819 0.7822
410.000000 0.7826 0.7830 0.7833 0.7834 0.7835
415.000000 0.7836 0.7837 0.7837 0.7833 0.7828
420.000000 0.7824 0.7819 0.7815 0.7808 0.7803
425.000000 0.7796 0.7790 0.7781 0.7768 0.7755
430.000000 0.7738 0.7718 0.7697 0.7658 0.7615
435.000000 0.7568 0.7514 0.7393 0.7210 0.7133
440.000000 0.7057 0.6932 0.6814 0.6821 0.6838
445.000000 0.6926 0.7048 0.7271 0.7481 0.7567
450.000000 0.7707 0.8038 0.8138 0.8212 0.8275
455.000000 0.8317 0.8356 0.8378 0.8403 0.8421
460.000000 0.8436 0.8450 0.8463 0.8471 0.8478
465.000000 0.8486 0.8493 0.8500 0.8508 0.8512
470.000000 0.8512 0.8512 0.8513 0.8508 0.8504
475.000000 0.8499 0.8490 0.8480 0.8466 0.8442
480.000000 0.8425 0.8408 0.8386 0.8351 0.8306
485.000000 0.8235 0.8132 0.8008 0.7974 0.7951
490.000000 0.8021 0.8262 0.8374 0.8463 0.8528
495.000000 0.8549 0.8558 0.8563 0.8568 0.8568
500.000000 0.8568 0.8568 0.8568 0.8568 0.8567
505.000000 0.8567 0.8567 0.8567 0.8567 0.8566
510.000000 0.8566 0.8565 0.8564 0.8564 0.8563
515.000000 0.8562 0.8561 0.8560 0.8559 0.8558
520.000000 0.8557 0.8570 0.8555 0.8554 0.8554
525.000000 0.8553 0.8552 0.8551 0.8550 0.8549
530.000000 0.8549 0.8548 0.8547 0.8546 0.8544
535.000000 0.8543 0.8542 0.8537 0.8531 0.8524
540.000000 0.8518 0.8506 0.8491 0.8474 0.8456
545.000000 0.8441 0.8425 0.8411 0.8396 0.8380
550.000000 0.8363 0.8344 0.8325 0.8307 0.8286
555.000000 0.8259 0.8231 0.8203 0.8175 0.8146
560.000000 0.8115 0.8086 0.8051 0.7994 0.7922
565.000000 0.7845 0.7746 0.7553 0.7339 0.7097
570.000000 0.6857 0.6205 0.5691 0.5176 0.4662
575.000000 0.4148 0.3932 0.3907 0.5218 0.6535
580.000000 0.6999 0.7141 0.7271 0.7407 0.7542
585.000000 0.7741 0.7915 0.8131 0.8210 0.8271
590.000000 0.8287 0.8298 0.8314 0.8284 0.8267
595.000000 0.8246 0.8220 0.8184 0.8148 0.8094
600.000000 0.8056 0.8018 0.7971 0.7917 0.7861
605.000000 0.7803 0.7746 0.7695 0.7645 0.7589
610.000000 0.7521 0.7447 0.7350 0.7084 0.6742
615.000000 0.6449 0.6157 0.5864 0.5571 0.5512
620.000000 0.5485 0.7557 0.7787 0.8005 0.8253
625.000000 0.8389 0.8450 0.8514 0.8444 0.8403
630.000000 0.8264 0.8197 0.8180 0.8314 0.8552
635.000000 0.8618 0.8681 0.8718 0.8741 0.8760
640.000000 0.8771 0.8782 0.8790 0.8795 0.8799
645.000000 0.8804 0.8807 0.8810 0.8812 0.8811
650.000000 0.8811 0.8810 0.8806 0.8802 0.8798
655.000000 0.8793 0.8789 0.8785 0.8780 0.8775
660.000000 0.8774 0.8773 0.8771 0.8768 0.8766
665.000000 0.8761 0.8756 0.8745 0.8734 0.8720
670.000000 0.8707 0.8691 0.8675 0.8657 0.8638
675.000000 0.8618 0.8593 0.8567 0.8525 0.8484
680.000000 0.8393 0.8235 0.8003 0.7892 0.7811
685.000000 0.7761 0.7719 0.7734 0.7824 0.7928
690.000000 0.8583 0.8631 0.8636 0.8634 0.8631
695.000000 0.8625 0.8615 0.8601 0.8587 0.8568
700.000000 0.8536 0.8493 0.8454 0.8414 0.8373
705.000000 0.8321 0.8251 0.8183 0.8028 0.7914
710.000000 0.7578 0.7125 0.6674 0.6221 0.5896
715.000000 0.6119 0.7025 0.7687 0.7710 0.7722
720.000000 0.7741 0.7771 0.7814 0.7865 0.7919
725.000000 0.7993 0.8051 0.8101 0.8144 0.8172
730.000000 0.8200 0.8218 0.8237 0.8250 0.8261
735.000000 0.8271 0.8281 0.8293 0.8310 0.8318
740.000000 0.8325 0.8339 0.8332 0.8328 0.8321
745.000000 0.8313 0.8303 0.8285 0.8266 0.8248
750.000000 0.8228 0.8211 0.8192 0.8174 0.8156
755.000000 0.8137 0.8144 0.8185 0.8239 0.8294
760.000000 0.8334 0.8373 0.8403 0.8423 0.8443
765.000000 0.8462 0.8471 0.8471 0.8468 0.8464
770.000000 0.8461 0.8459 0.8457 0.8456 0.8455
775.000000 0.8454 0.8454 0.8454 0.8455 0.8455
780.000000 0.8455 0.8451 0.8442 0.8425 0.8406
785.000000 0.8374 0.8347 0.8320 0.8286 0.8233
790.000000 0.8114 0.7985 0.7925 0.7928 0.7961
795.000000 0.8018 0.8082 0.8118 0.8111 0.8099
800.000000 0.8068 0.8037 0.8008 0.7969 0.7903
805.000000 0.7837 0.7768 0.7675 0.7564 0.7374
810.000000 0.6912 0.6322 0.5604 0.4969 0.4798
815.000000 0.4469 0.4077 0.3748 0.3744 0.3734
820.000000 0.5416 0.7495 0.7636 0.7819 0.7948
825.000000 0.8051 0.8136 0.8180 0.8201 0.8218
830.000000 0.8231 0.8243 0.8254 0.8262 0.8267
835.000000 0.8293 0.8262 0.8259 0.8255 0.8251
840.000000 0.8241 0.8228 0.8209 0.8183 0.8122
845.000000 0.8008 0.7951 0.7951 0.7951 0.8091
850.000000 0.8175 0.8245 0.8290 0.8318 0.8325
855.000000 0.8324 0.8323 0.8323 0.8320 0.8316
860.000000 0.8311 0.8306 0.8298 0.8292 0.8290
865.000000 0.8288 0.8287 0.8285 0.8283 0.8281
870.000000 0.8278 0.8274 0.8270 0.8265 0.8259
875.000000 0.8253 0.8247 0.8241 0.8235 0.8227
880.000000 0.8218 0.8212 0.8204 0.8195 0.8186
885.000000 0.8176 0.8168 0.8161 0.8153 0.8145
890.000000 0.8141 0.8139 0.8139 0.8140 0.8140
895.000000 0.8141 0.8142 0.8143 0.8144 0.8145
900.000000 0.8145 0.8145 0.8144 0.8144 0.8142
905.000000 0.8138 0.8133 0.8128 0.8121 0.8115
910.000000 0.8108 0.8101 0.8093 0.8082 0.8071
915.000000 0.8060 0.8050 0.8039 0.8028 0.8018
920.000000 0.8007 0.7996 0.7986 0.7975 0.7964
925.000000 0.7954 0.7943 0.7932 0.7921 0.7911
930.000000 0.7900 0.7890 0.7878 0.7868 0.7857
935.000000 0.7847 0.7836 0.7825 0.7815 0.7804
940.000000 0.7793 0.7781 0.7751 0.7707 0.7653
945.000000 0.7585 0.7504 0.7424 0.7360 0.7096
950.000000 0.6917 0.7040 0.7251 0.7355 0.7449
955.000000 0.7446 0.7365 0.7301 0.7133 0.6988
960.000000 0.6198 0.5972 0.5796 0.5703 0.5546
965.000000 0.5521 0.6067 0.6086 0.5880 0.5767
970.000000 0.5590 0.5399 0.4942 0.4669 0.4509
975.000000 0.3578 0.3762 0.3966 0.4151 0.5354
980.000000 0.5468 0.5470 0.5464 0.5393 0.5120
985.000000 0.4887 0.4694 0.4522 0.4357 0.3375
990.000000 0.3122 0.2919 0.2914 0.2913 0.2898
995.000000 0.3609 0.3816 0.4250 0.5075 0.5825
1000.000000 0.6217 0.6351 0.6450 0.6484 0.6537
1005.000000 0.6401 0.6258 0.6088 0.5927 0.5816
1010.000000 0.5736 0.5725 0.5714 0.5703 0.5762
1015.000000 0.5915 0.5955 0.5940 0.5920 0.5805
1020.000000 0.5702 0.5594 0.5517 0.5422 0.5320
1025.000000 0.5219 0.5110 0.4991 0.4865 0.4508
1030.000000 0.4196 0.4040 0.3850 0.3705 0.3526
1035.000000 0.3224 0.3024 0.2881 0.2178 0.1946
1040.000000 0.1168 0.1052 0.0922 0.0833 0.0814
1045.000000 0.0815 0.0822 0.0926 0.0993 0.1104
1050.000000 0.1245 0.1383 0.1560 0.2331 0.2726
1055.000000 0.3071 0.3388 0.3725 0.3914 0.4205
1060.000000 0.4493 0.5101 0.5383 0.5733 0.5862
1065.000000 0.5982 0.6131 0.6247 0.6356 0.6461
1070.000000 0.6558 0.6585 0.6575 0.6374 0.6109
1075.000000 0.5844 0.5579 0.5314 0.5049 0.4956
1080.000000 0.4952 0.6131 0.7001 0.7361 0.7450
1085.000000 0.7521 0.7546 0.7568 0.7589 0.7607
1090.000000 0.7615 0.7625 0.7632 0.7632 0.7632
1095.000000 0.7632 0.7631 0.7630 0.7626 0.7622
1100.000000 0.7621 0.7626 0.7635 0.7644 0.7654
1105.000000 0.7651 0.7647 0.7644 0.7640 0.7636
1110.000000 0.7633 0.7632 0.7630 0.7628 0.7626
1115.000000 0.7625 0.7621 0.7618 0.7615 0.7614
1120.000000 0.7510 0.7276 0.7346 0.7318 0.7371
1125.000000 0.7431 0.7489 0.7641 0.7722 0.7792
1130.000000 0.7821 0.7851 0.7860 0.7855 0.7853
1135.000000 0.7851 0.7851 0.7850 0.7849 0.7848
1140.000000 0.7848 0.7851 0.7854 0.7857 0.7858
1145.000000 0.7861 0.7865 0.7871 0.7868 0.7868
1150.000000 0.7868 0.7868 0.7868 0.7867 0.7865
1155.000000 0.7862 0.7861 0.7858 0.7857 0.7854
1160.000000 0.7851 0.7848 0.7845 0.7842 0.7839
1165.000000 0.7831 0.7811 0.7775 0.7734 0.7662
1170.000000 0.7595 0.7549 0.7604 0.7678 0.7708
1175.000000 0.7705 0.7701 0.7698 0.7656 0.7621
1180.000000 0.7586 0.7536 0.7490 0.7448 0.7407
1185.000000 0.7369 0.7339 0.7308 0.7283 0.7267
1190.000000 0.7251 0.7241 0.7238 0.7235 0.7235
1195.000000 0.7235 0.7238 0.7238 0.7235 0.7232
1200.000000 0.7228 0.7225 0.7217 0.7208 0.7200
1205.000000 0.7189 0.7176 0.7164 0.7134 0.7104
1210.000000 0.7075 0.7048 0.7021 0.6993 0.6971
1215.000000 0.6950 0.6943 0.6942 0.6941 0.6939
1220.000000 0.6932 0.6906 0.6885 0.6868 0.6851
1225.000000 0.6834 0.6828 0.6825 0.6824 0.6811
1230.000000 0.6837 0.6864 0.6895 0.6930 0.6981
1235.000000 0.7032 0.7082 0.7131 0.7164 0.7198
1240.000000 0.7231 0.7264 0.7292 0.7318 0.7347
1245.000000 0.7378 0.7418 0.7458 0.7486 0.7515
1250.000000 0.7543 0.7571 0.7582 0.7591 0.7594
1255.000000 0.7597 0.7599 0.7601 0.7601 0.7603
1260.000000 0.7604 0.7605 0.7605 0.7605 0.7606
1265.000000 0.7606 0.7606 0.7606 0.7605 0.7606
1270.000000 0.7606 0.7607 0.7610 0.7612 0.7615
1275.000000 0.7619 0.7624 0.7628 0.7628 0.7628
1280.000000 0.7622 0.7618 0.7608 0.7597 0.7584
1285.000000 0.7571 0.7558 0.7544 0.7530 0.7511
1290.000000 0.7492 0.7475 0.7484 0.7512 0.7540
1295.000000 0.7561 0.7582 0.7599 0.7615 0.7628
1300.000000 0.7636 0.7637 0.7651 0.7657 0.7661
1305.000000 0.7668 0.7672 0.7678 0.7683 0.7688
1310.000000 0.7690 0.7693 0.7695 0.7698 0.7699
1315.000000 0.7691 0.7683 0.7675 0.7668 0.7657
1320.000000 0.7645 0.7632 0.7619 0.7607 0.7591
1325.000000 0.7574 0.7558 0.7539 0.7519 0.7501
1330.000000 0.7441 0.7244 0.7048 0.6851 0.6654
1335.000000 0.6581 0.6567 0.6551 0.6539 0.6526
1340.000000 0.6512 0.6471 0.6668 0.6743 0.6796
1345.000000 0.6854 0.6915 0.6978 0.7045 0.7111
1350.000000 0.7178 0.7226 0.7275 0.7322 0.7355
1355.000000 0.7378 0.7400 0.7418 0.7425 0.7432
1360.000000 0.7439 0.7428 0.7465 0.7387 0.7354
1365.000000 0.7307 0.7260 0.7214 0.7168 0.7122
1370.000000 0.7124 0.7108 0.7215 0.7261 0.7296
1375.000000 0.7312 0.7330 0.7337 0.7311 0.7268
1380.000000 0.7187 0.7093 0.6991 0.6872 0.6744
1385.000000 0.6608 0.6476 0.6368 0.6269 0.6182
1390.000000 0.6141 0.6257 0.6115 0.6665 0.6857
1395.000000 0.6915 0.6975 0.7041 0.7110 0.7190
1400.000000 0.7305 0.7354 0.7398 0.7439 0.7468
1405.000000 0.7497 0.7525 0.7542 0.7560 0.7569
1410.000000 0.7575 0.7581 0.7587 0.7590 0.7592
1415.000000 0.7593 0.7594 0.7594 0.7594 0.7614
1420.000000 0.7591 0.7590 0.7589 0.7588 0.7586
1425.000000 0.7578 0.7571 0.7565 0.7558 0.7550
1430.000000 0.7542 0.7528 0.7514 0.7500 0.7486
1435.000000 0.7469 0.7454 0.7439 0.7422 0.7410
1440.000000 0.7399 0.7389 0.7378 0.7368 0.7364
1445.000000 0.7358 0.7353 0.7354 0.7354 0.7296
1450.000000 0.7358 0.7371 0.7392 0.7418 0.7454
1455.000000 0.7497 0.7543 0.7590 0.7632 0.7667
1460.000000 0.7701 0.7736 0.7758 0.7775 0.7793
1465.000000 0.7810 0.7825 0.7834 0.7843 0.7851
1470.000000 0.7860 0.7871 0.7886 0.7899 0.7912
1475.000000 0.7921 0.7968 0.7937 0.7938 0.7908
1480.000000 0.7874 0.7776 0.7685 0.7560 0.7382
1485.000000 0.7111 0.6817 0.6524 0.6347 0.6351
1490.000000 0.7936 0.8060 0.8106 0.8151 0.8190
1495.000000 0.8224 0.8258 0.8278 0.8300 0.8313
1500.000000 0.8323 0.8332 0.8337 0.8342 0.8347
1505.000000 0.8352 0.8355 0.8359 0.8362 0.8366
1510.000000 0.8368 0.8373 0.8377 0.8380 0.8384
1515.000000 0.8387 0.8391 0.8395 0.8399 0.8402
1520.000000 0.8406 0.8411 0.8416 0.8421 0.8428
1525.000000 0.8434 0.8440 0.8445 0.8451 0.8459
1530.000000 0.8470 0.8482 0.8494 0.8504 0.8511
1535.000000 0.8518 0.8525 0.8533 0.8538 0.8542
1540.000000 0.8545 0.8548 0.8551 0.8554 0.8557
1545.000000 0.8560 0.8563 0.8565 0.8568 0.8570
1550.000000 0.8571 0.8571 0.8573 0.8574 0.8575
1555.000000 0.8575 0.8577 0.8578 0.8578 0.8580
1560.000000 0.8580 0.8580 0.8581 0.8581 0.8581
1565.000000 0.8582 0.8582 0.8582 0.8580 0.8578
1570.000000 0.8575 0.8573 0.8571 0.8566 0.8551
1575.000000 0.8537 0.8518 0.8498 0.8477 0.8457
1580.000000 0.8428 0.8397 0.8366 0.8313 0.8258
1585.000000 0.8202 0.8143 0.8083 0.8021 0.7939
1590.000000 0.7845 0.7725 0.7636 0.7633 0.7695
1595.000000 0.7798 0.8021 0.8246 0.8410 0.8470
1600.000000 0.8506 0.8513 0.8514 0.8514 0.8514
1605.000000 0.8504 0.8494 0.8486 0.8478 0.8470
1610.000000 0.8458 0.8446 0.8434 0.8418 0.8400
1615.000000 0.8378 0.8350 0.8340 0.8339 0.8342
1620.000000 0.8348 0.8355 0.8360 0.8365 0.8365
1625.000000 0.8364 0.8363 0.8344 0.8356 0.8352
1630.000000 0.8348 0.8345 0.8342 0.8338 0.8335
1635.000000 0.8332 0.8328 0.8325 0.8323 0.8320
1640.000000 0.8317 0.8313 0.8310 0.8295 0.8271
1645.000000 0.8244 0.8216 0.8189 0.8155 0.8103
1650.000000 0.8076 0.8053 0.8036 0.8000 0.8065
1655.000000 0.8098 0.8133 0.8167 0.8200 0.8230
1660.000000 0.8249 0.8271 0.8294 0.8317 0.8349
1665.000000 0.8384 0.8401 0.8418 0.8436 0.8458
1670.000000 0.8471 0.8478 0.8486 0.8493 0.8500
1675.000000 0.8508 0.8515 0.8521 0.8530 0.8537
1680.000000 0.8545 0.8550 0.8554 0.8559 0.8563
1685.000000 0.8567 0.8571 0.8575 0.8580 0.8583
1690.000000 0.8586 0.8589 0.8592 0.8594 0.8597
1695.000000 0.8600 0.8603 0.8605 0.8607 0.8608
1700.000000 0.8609 0.8611 0.8612 0.8614 0.8615
1705.000000 0.8617 0.8618 0.8620 0.8621 0.8623
1710.000000 0.8623 0.8623 0.8623 0.8623 0.8623
1715.000000 0.8621 0.8621 0.8621 0.8621 0.8621
1720.000000 0.8621 0.8621 0.8621 0.8621 0.8621
1725.000000 0.8620 0.8620 0.8618 0.8618 0.8618
1730.000000 0.8618 0.8617 0.8617 0.8616 0.8616
1735.000000 0.8615 0.8615 0.8614 0.8614 0.8613
1740.000000 0.8612 0.8612 0.8611 0.8610 0.8610
1745.000000 0.8609 0.8608 0.8608 0.8607 0.8606
1750.000000 0.8605 0.8605 0.8604 0.8604 0.8604
1755.000000 0.8604 0.8603 0.8603 0.8603 0.8603
1760.000000 0.8603 0.8602 0.8602 0.8602 0.8601
1765.000000 0.8601 0.8601 0.8600 0.8600 0.8600
1770.000000 0.8600 0.8593 0.8587 0.8580 0.8565
1775.000000 0.8546 0.8538 0.8533 0.8528 0.8523
1780.000000 0.8521 0.8521 0.8523 0.8525 0.8528
1785.000000 0.8528 0.8531 0.8532 0.8534 0.8535
1790.000000 0.8535 0.8527 0.8520 0.8512 0.8505
1795.000000 0.8497 0.8484 0.8474 0.8478 0.8483
1800.000000 0.8488 0.8495 0.8502 0.8507 0.8512
1805.000000 0.8516 0.8521 0.8528 0.8535 0.8542
1810.000000 0.8550 0.8558 0.8566 0.8575 0.8583
1815.000000 0.8585 0.8586 0.8586 0.8586 0.8587
1820.000000 0.8587 0.8585 0.8581 0.8575 0.8571
1825.000000 0.8568 0.8564 0.8561 0.8557 0.8554
1830.000000 0.8550 0.8547 0.8545 0.8542 0.8539
1835.000000 0.8537 0.8535 0.8534 0.8532 0.8531
1840.000000 0.8530 0.8528 0.8527 0.8525 0.8523
1845.000000 0.8521 0.8520 0.8518 0.8516 0.8515
1850.000000 0.8513 0.8512 0.8510 0.8509 0.8508
1855.000000 0.8507 0.8506 0.8504 0.8502 0.8499
1860.000000 0.8496 0.8494 0.8491 0.8488 0.8485
1865.000000 0.8482 0.8478 0.8477 0.8474 0.8471
1870.000000 0.8468 0.8465 0.8462 0.8459 0.8456
1875.000000 0.8454 0.8451 0.8448 0.8445 0.8442
1880.000000 0.8436 0.8430 0.8423 0.8417 0.8410
1885.000000 0.8404 0.8395 0.8381 0.8367 0.8353
1890.000000 0.8338 0.8323 0.8305 0.8288 0.8270
1895.000000 0.8253 0.8235 0.8216 0.8198 0.8178
1900.000000 0.8161 0.8138 0.8111 0.8085 0.8058
1905.000000 0.8032 0.8001 0.7965 0.7931 0.7896
1910.000000 0.7858 0.7825 0.7812 0.7819 0.7786
1915.000000 0.7895 0.8001 0.8114 0.8203 0.8263
1920.000000 0.8314 0.8350 0.8367 0.8384 0.8398
1925.000000 0.8401 0.8402 0.8402 0.8401 0.8401
1930.000000 0.8398 0.8395 0.8393 0.8390 0.8383
1935.000000 0.8375 0.8368 0.8362 0.8358 0.8354
1940.000000 0.8351 0.8347 0.8343 0.8340 0.8336
1945.000000 0.8332 0.8328 0.8325 0.8321 0.8318
1950.000000 0.8314 0.8308 0.8303 0.8297 0.8292
1955.000000 0.8286 0.8290 0.8293 0.8296 0.8299
1960.000000 0.8303 0.8306 0.8309 0.8312 0.8315
1965.000000 0.8318 0.8321 0.8324 0.8327 0.8328
1970.000000 0.8331 0.8333 0.8336 0.8335 0.8332
1975.000000 0.8330 0.8327 0.8325 0.8321 0.8320
1980.000000 0.8317 0.8312 0.8307 0.8302 0.8296
1985.000000 0.8290 0.8280 0.8271 0.8262 0.8252
1990.000000 0.8253 0.8253 0.8254 0.8242 0.8230
1995.000000 0.8198 0.8164 0.8145 0.8125 0.8115
2000.000000 0.8112 0.8110 0.8107 0.8105 0.8104
2005.000000 0.8104 0.8104 0.8104 0.8105 0.8105
2010.000000 0.8106 0.8106 0.8107 0.8107 0.8108
2015.000000 0.8108 0.8108 0.8111 0.8115 0.8121
2020.000000 0.8126 0.8132 0.8137 0.8142 0.8147
2025.000000 0.8156 0.8165 0.8174 0.8183 0.8194
2030.000000 0.8206 0.8218 0.8231 0.8244 0.8258
2035.000000 0.8260 0.8263 0.8264 0.8266 0.8266
2040.000000 0.8266 0.8266 0.8265 0.8264 0.8263
2045.000000 0.8262 0.8261 0.8260 0.8259 0.8258
2050.000000 0.8257 0.8256 0.8255 0.8252 0.8250
2055.000000 0.8248 0.8246 0.8243 0.8241 0.8239
2060.000000 0.8237 0.8234 0.8232 0.8230 0.8228
2065.000000 0.8225 0.8225 0.8223 0.8221 0.8220
2070.000000 0.8218 0.8216 0.8215 0.8213 0.8212
2075.000000 0.8210 0.8209 0.8207 0.8205 0.8202
2080.000000 0.8200 0.8197 0.8194 0.8191 0.8188
2085.000000 0.8185 0.8182 0.8178 0.8176 0.8174
2090.000000 0.8171 0.8168 0.8167 0.8165 0.8165
2095.000000 0.8164 0.8164 0.8162 0.8162 0.8161
2100.000000 0.8161 0.8161 0.8160 0.8158 0.8158
2105.000000 0.8157 0.8156 0.8155 0.8155 0.8154
2110.000000 0.8153 0.8151 0.8151 0.8150 0.8149
2115.000000 0.8147 0.8146 0.8143 0.8141 0.8138
2120.000000 0.8135 0.8132 0.8130 0.8126 0.8125
2125.000000 0.8121 0.8118 0.8115 0.8114 0.8111
2130.000000 0.8108 0.8105 0.8101 0.8099 0.8096
2135.000000 0.8092 0.8089 0.8086 0.8083 0.8078
2140.000000 0.8075 0.8072 0.8069 0.8065 0.8062
2145.000000 0.8060 0.8057 0.8055 0.8053 0.8051
2150.000000 0.8049 0.8047 0.8045 0.8043 0.8041
2155.000000 0.8039 0.8037 0.8035 0.8033 0.8031
2160.000000 0.8028 0.8026 0.8025 0.8022 0.8021
2165.000000 0.8018 0.8017 0.8015 0.8012 0.8011
2170.000000 0.8010 0.8008 0.8008 0.8007 0.8006
2175.000000 0.8005 0.8005 0.8004 0.8003 0.8001
2180.000000 0.8001 0.8000 0.8000 0.7999 0.7998
2185.000000 0.7997 0.7996 0.7995 0.7995 0.7994
2190.000000 0.7993 0.7992 0.7992 0.7992 0.7993
2195.000000 0.7993 0.7994 0.7994 0.7994 0.7994
2200.000000 0.7995 0.7995 0.7996 0.7996 0.7997
2205.000000 0.7997 0.7997 0.7996 0.7994 0.7991
2210.000000 0.7989 0.7987 0.7985 0.7982 0.7980
2215.000000 0.7976 0.7975 0.7972 0.7971 0.7968
2220.000000 0.7965 0.7960 0.7955 0.7949 0.7944
2225.000000 0.7939 0.7934 0.7928 0.7924 0.7918
2230.000000 0.7912 0.7908 0.7903 0.7897 0.7892
2235.000000 0.7887 0.7882 0.7875 0.7871 0.7865
2240.000000 0.7860 0.7855 0.7850 0.7844 0.7839
2245.000000 0.7833 0.7828 0.7825 0.7821 0.7818
2250.000000 0.7815 0.7811 0.7808 0.7805 0.7801
2255.000000 0.7798 0.7795 0.7792 0.7789 0.7785
2260.000000 0.7782 0.7778 0.7775 0.7771 0.7768
2265.000000 0.7765 0.7762 0.7760 0.7758 0.7755
2270.000000 0.7751 0.7749 0.7746 0.7743 0.7740
2275.000000 0.7737 0.7735 0.7732 0.7728 0.7726
2280.000000 0.7725 0.7724 0.7722 0.7721 0.7721
2285.000000 0.7721 0.7725 0.7726 0.7719 0.7732
2290.000000 0.7735 0.7738 0.7742 0.7745 0.7749
2295.000000 0.7751 0.7751 0.7751 0.7747 0.7739
2300.000000 0.7731 0.7725 0.7718 0.7714 0.7710
2305.000000 0.7708 0.7708 0.7715 0.7721 0.7731
2310.000000 0.7740 0.7748 0.7756 0.7758 0.7762
2315.000000 0.7765 0.7768 0.7771 0.7774 0.7775
2320.000000 0.7778 0.7780 0.7783 0.7785 0.7787
2325.000000 0.7789 0.7791 0.7793 0.7796 0.7798
2330.000000 0.7800 0.7801 0.7805 0.7807 0.7808
2335.000000 0.7810 0.7811 0.7811 0.7811 0.7811
2340.000000 0.7812 0.7812 0.7814 0.7815 0.7815
2345.000000 0.7817 0.7818 0.7819 0.7821 0.7822
2350.000000 0.7825 0.7826 0.7828 0.7831 0.7833
2355.000000 0.7835 0.7837 0.7839 0.7841 0.7843
2360.000000 0.7845 0.7847 0.7849 0.7850 0.7851
2365.000000 0.7851 0.7851 0.7850 0.7850 0.7850
2370.000000 0.7850 0.7850 0.7850 0.7849 0.7849
2375.000000 0.7849 0.7850 0.7850 0.7850 0.7850
2380.000000 0.7850 0.7850 0.7851 0.7851 0.7851
2385.000000 0.7851 0.7851 0.7851 0.7851 0.7853
2390.000000 0.7854 0.7854 0.7855 0.7856 0.7857
2395.000000 0.7857 0.7858 0.7858 0.7860 0.7860
2400.000000 0.7861 0.7861 0.7862 0.7864 0.7865
2405.000000 0.7865 0.7867 0.7868 0.7868 0.7869
2410.000000 0.7871 0.7871 0.7872 0.7874 0.7875
2415.000000 0.7876 0.7878 0.7878 0.7880 0.7881
2420.000000 0.7882 0.7883 0.7885 0.7886 0.7887
2425.000000 0.7888 0.7889 0.7889 0.7890 0.7891
2430.000000 0.7892 0.7893 0.7894 0.7894 0.7895
2435.000000 0.7896 0.7897 0.7898 0.7899 0.7899
2440.000000 0.7900 0.7901 0.7901 0.7903 0.7904
2445.000000 0.7904 0.7905 0.7906 0.7907 0.7907
2450.000000 0.7908 0.7908 0.7910 0.7911 0.7911
2455.000000 0.7911 0.7912 0.7914 0.7915 0.7915
2460.000000 0.7917 0.7917 0.7918 0.7918 0.7919
2465.000000 0.7919 0.7919 0.7919 0.7919 0.7919
2470.000000 0.7919 0.7918 0.7918 0.7918 0.7918
2475.000000 0.7917 0.7917 0.7915 0.7915 0.7915
2480.000000 0.7915 0.7915 0.7915 0.7914 0.7914
2485.000000 0.7912 0.7912 0.7912 0.7912 0.7911
2490.000000 0.7911 0.7911 0.7911 0.7910 0.7910
2495.000000 0.7910 0.7911 0.7911 0.7911 0.7911
2500.000000 0.7912 0.7912 0.7914 0.7914 0.7915
2505.000000 0.7915 0.7915 0.7915 0.7917 0.7917
2510.000000 0.7918 0.7918 0.7918 0.7918 0.7919
2515.000000 0.7919 0.7921 0.7921 0.7921 0.7921
2520.000000 0.7921 0.7921 0.7921 0.7921 0.7922
2525.000000 0.7922 0.7924 0.7924 0.7925 0.7925
2530.000000 0.7925 0.7925 0.7926 0.7926 0.7926
2535.000000 0.7926 0.7925 0.7925 0.7924 0.7922
2540.000000 0.7922 0.7921 0.7921 0.7919 0.7919
2545.000000 0.7918 0.7918 0.7917 0.7917 0.7915
2550.000000 0.7915 0.7914 0.7914 0.7912 0.7911
2555.000000 0.7911 0.7911 0.7910 0.7910 0.7910
2560.000000 0.7910 0.7910 0.7911 0.7911 0.7911
2565.000000 0.7911 0.7911 0.7911 0.7911 0.7910
2570.000000 0.7910 0.7908 0.7908 0.7906 0.7905
2575.000000 0.7904 0.7903 0.7901 0.7900 0.7899
2580.000000 0.7898 0.7896 0.7895 0.7894 0.7893
2585.000000 0.7892 0.7891 0.7889 0.7888 0.7887
2590.000000 0.7886 0.7884 0.7883 0.7882 0.7881
2595.000000 0.7880 0.7878 0.7876 0.7875 0.7875
2600.000000 0.7874 0.7872 0.7871 0.7871 0.7869
2605.000000 0.7868 0.7867 0.7865 0.7865 0.7864
2610.000000 0.7862 0.7861 0.7860 0.7858 0.7858
2615.000000 0.7857 0.7856 0.7855 0.7854 0.7851
2620.000000 0.7851 0.7850 0.7850 0.7849 0.7848
2625.000000 0.7847 0.7847 0.7846 0.7845 0.7844
2630.000000 0.7844 0.7843 0.7842 0.7841 0.7841
2635.000000 0.7840 0.7840 0.7839 0.7838 0.7837
2640.000000 0.7837 0.7836 0.7835 0.7834 0.7833
2645.000000 0.7831 0.7830 0.7828 0.7828 0.7825
2650.000000 0.7825 0.7824 0.7822 0.7821 0.7821
2655.000000 0.7818 0.7818 0.7817 0.7815 0.7815
2660.000000 0.7814 0.7811 0.7811 0.7810 0.7808
2665.000000 0.7807 0.7806 0.7805 0.7804 0.7801
2670.000000 0.7801 0.7799 0.7797 0.7795 0.7793
2675.000000 0.7791 0.7789 0.7787 0.7786 0.7784
2680.000000 0.7782 0.7780 0.7778 0.7775 0.7774
2685.000000 0.7771 0.7769 0.7768 0.7767 0.7765
2690.000000 0.7762 0.7761 0.7758 0.7757 0.7755
2695.000000 0.7753 0.7751 0.7749 0.7748 0.7746
2700.000000 0.7744 0.7742 0.7740 0.7738 0.7736
2705.000000 0.7731 0.7726 0.7721 0.7718 0.7712
2710.000000 0.7708 0.7697 0.7687 0.7675 0.7665
2715.000000 0.7658 0.7651 0.7655 0.7660 0.7671
2720.000000 0.7682 0.7691 0.7700 0.7708 0.7718
2725.000000 0.7722 0.7728 0.7728 0.7728 0.7728
2730.000000 0.7728 0.7728 0.7728 0.7728 0.7728
2735.000000 0.7728 0.7726 0.7725 0.7725 0.7724
2740.000000 0.7722 0.7721 0.7721 0.7718 0.7718
2745.000000 0.7715 0.7712 0.7710 0.7708 0.7706
2750.000000 0.7704 0.7701 0.7699 0.7696 0.7694
2755.000000 0.7691 0.7688 0.7685 0.7683 0.7680
2760.000000 0.7678 0.7675 0.7672 0.7669 0.7668
2765.000000 0.7665 0.7661 0.7658 0.7657 0.7654
2770.000000 0.7651 0.7649 0.7647 0.7645 0.7643
2775.000000 0.7641 0.7640 0.7639 0.7638 0.7636
2780.000000 0.7635 0.7633 0.7632 0.7631 0.7630
2785.000000 0.7628 0.7626 0.7625 0.7624 0.7621
2790.000000 0.7618 0.7615 0.7612 0.7610 0.7608
2795.000000 0.7605 0.7601 0.7599 0.7596 0.7589
2800.000000 0.7583 0.7575 0.7569 0.7562 0.7557
2805.000000 0.7550 0.7543 0.7536 0.7530 0.7522
2810.000000 0.7517 0.7510 0.7504 0.7497 0.7490
2815.000000 0.7483 0.7476 0.7468 0.7458 0.7449
2820.000000 0.7440 0.7430 0.7419 0.7410 0.7401
2825.000000 0.7390 0.7380 0.7365 0.7351 0.7338
2830.000000 0.7325 0.7311 0.7297 0.7283 0.7268
2835.000000 0.7254 0.7240 0.7224 0.7208 0.7192
2840.000000 0.7176 0.7161 0.7146 0.7130 0.7114
2845.000000 0.7097 0.7080 0.7047 0.7015 0.6982
2850.000000 0.6950 0.6878 0.6808 0.6765 0.6725
2855.000000 0.6711 0.6700 0.6701 0.6711 0.6711
2860.000000 0.6718 0.6728 0.6738 0.6754 0.6769
2865.000000 0.6787 0.6805 0.6819 0.6836 0.6850
2870.000000 0.6865 0.6878 0.6892 0.6895 0.6898
2875.000000 0.6898 0.6898 0.6897 0.6910 0.6892
2880.000000 0.6889 0.6885 0.6881 0.6872 0.6865
2885.000000 0.6858 0.6850 0.6842 0.6835 0.6825
2890.000000 0.6815 0.6806 0.6797 0.6788 0.6778
2895.000000 0.6765 0.6751 0.6737 0.6721 0.6707
2900.000000 0.6692 0.6657 0.6621 0.6569 0.6518
2905.000000 0.6458 0.6399 0.6339 0.6279 0.6209
2910.000000 0.6140 0.6035 0.5930 0.5895 0.5860
2915.000000 0.5856 0.5857 0.5858 0.5862 0.5881
2920.000000 0.5900 0.6126 0.6353 0.6381 0.6412
2925.000000 0.6408 0.6406 0.6396 0.6387 0.6376
2930.000000 0.6365 0.6345 0.6326 0.6285 0.6244
2935.000000 0.6234 0.6197 0.6224 0.6224 0.6226
2940.000000 0.6229 0.6266 0.6303 0.6362 0.6421
2945.000000 0.6447 0.6474 0.6490 0.6507 0.6522
2950.000000 0.6539 0.6546 0.6554 0.6553 0.6571
2955.000000 0.6549 0.6545 0.6542 0.6539 0.6536
2960.000000 0.6533 0.6530 0.6526 0.6518 0.6511
2965.000000 0.6497 0.6484 0.6475 0.6475 0.6475
2970.000000 0.6486 0.6537 0.6588 0.6628 0.6668
2975.000000 0.6693 0.6718 0.6741 0.6764 0.6789
2980.000000 0.6815 0.6841 0.6867 0.6880 0.6893
2985.000000 0.6904 0.6915 0.6919 0.6925 0.6925
2990.000000 0.6947 0.6921 0.6919 0.6915 0.6912
2995.000000 0.6908 0.6906 0.6901 0.6896 0.6887
3000.000000 0.6878 0.6868 0.6858 0.6843 0.6826
3005.000000 0.6803 0.6780 0.6750 0.6719 0.6683
3010.000000 0.6646 0.6592 0.6538 0.6471 0.6407
3015.000000 0.6312 0.6218 0.6172 0.6093 0.6144
3020.000000 0.6162 0.6301 0.6440 0.6461 0.6511
3025.000000 0.6474 0.6465 0.6430 0.6396 0.6338
3030.000000 0.6281 0.6212 0.6145 0.6112 0.6077
3035.000000 0.6125 0.6170 0.6392 0.6614 0.6675
3040.000000 0.6737 0.6768 0.6799 0.6782 0.6765
3045.000000 0.6740 0.6715 0.6689 0.6662 0.6649
3050.000000 0.6635 0.6693 0.6751 0.6949 0.7148
3055.000000 0.7208 0.7268 0.7272 0.7276 0.7275
3060.000000 0.7274 0.7269 0.7265 0.7260 0.7254
3065.000000 0.7246 0.7239 0.7233 0.7228 0.7248
3070.000000 0.7268 0.7290 0.7312 0.7333 0.7353
3075.000000 0.7374 0.7395 0.7405 0.7415 0.7422
3080.000000 0.7431 0.7435 0.7440 0.7444 0.7448
3085.000000 0.7450 0.7453 0.7455 0.7458 0.7460
3090.000000 0.7461 0.7464 0.7465 0.7465 0.7467
3095.000000 0.7467 0.7468 0.7468 0.7469 0.7469
3100.000000 0.7469 0.7469 0.7469 0.7468 0.7468
3105.000000 0.7467 0.7465 0.7465 0.7464 0.7462
3110.000000 0.7461 0.7461 0.7461 0.7461 0.7461
3115.000000 0.7460 0.7460 0.7458 0.7458 0.7458
3120.000000 0.7458 0.7458 0.7458 0.7457 0.7457
3125.000000 0.7456 0.7455 0.7454 0.7453 0.7451
3130.000000 0.7450 0.7448 0.7447 0.7446 0.7445
3135.000000 0.7443 0.7442 0.7440 0.7439 0.7438
3140.000000 0.7437 0.7435 0.7434 0.7433 0.7432
3145.000000 0.7430 0.7428 0.7428 0.7426 0.7425
3150.000000 0.7425 0.7422 0.7421 0.7421 0.7419
3155.000000 0.7418 0.7418 0.7415 0.7415 0.7414
3160.000000 0.7412 0.7411 0.7411 0.7410 0.7408
3165.000000 0.7407 0.7406 0.7404 0.7403 0.7401
3170.000000 0.7400 0.7398 0.7397 0.7395 0.7393
3175.000000 0.7391 0.7390 0.7388 0.7387 0.7385
3180.000000 0.7384 0.7382 0.7381 0.7378 0.7378
3185.000000 0.7375 0.7375 0.7372 0.7371 0.7369
3190.000000 0.7368 0.7367 0.7365 0.7364 0.7362
3195.000000 0.7361 0.7361 0.7358 0.7358 0.7356
3200.000000 0.7355 0.7353 0.7351 0.7351 0.7350
3205.000000 0.7348 0.7347 0.7345 0.7335 0.7342
3210.000000 0.7341 0.7340 0.7339 0.7338 0.7338
3215.000000 0.7337 0.7337 0.7337 0.7337 0.7336
3220.000000 0.7336 0.7335 0.7335 0.7334 0.7334
3225.000000 0.7334 0.7334 0.7333 0.7333 0.7332
3230.000000 0.7332 0.7332 0.7332 0.7330 0.7328
3235.000000 0.7326 0.7325 0.7325 0.7324 0.7321
3240.000000 0.7321 0.7318 0.7318 0.7315 0.7315
3245.000000 0.7314 0.7312 0.7311 0.7310 0.7308
3250.000000 0.7307 0.7305 0.7304 0.7303 0.7301
3255.000000 0.7300 0.7299 0.7297 0.7296 0.7294
3260.000000 0.7293 0.7292 0.7291 0.7290 0.7289
3265.000000 0.7287 0.7286 0.7285 0.7284 0.7283
3270.000000 0.7282 0.7281 0.7280 0.7278 0.7276
3275.000000 0.7275 0.7275 0.7274 0.7272 0.7271
3280.000000 0.7269 0.7268 0.7268 0.7267 0.7265
3285.000000 0.7265 0.7264 0.7261 0.7261 0.7260
3290.000000 0.7258 0.7258 0.7257 0.7255 0.7254
3295.000000 0.7251 0.7251 0.7249 0.7248 0.7247
3300.000000 0.7246 0.7244 0.7243 0.7241 0.7240
3305.000000 0.7238 0.7237 0.7236 0.7235 0.7233
3310.000000 0.7232 0.7230 0.7228 0.7226 0.7225
3315.000000 0.7225 0.7224 0.7221 0.7221 0.7218
3320.000000 0.7218 0.7215 0.7215 0.7212 0.7211
3325.000000 0.7210 0.7208 0.7206 0.7204 0.7201
3330.000000 0.7200 0.7198 0.7196 0.7194 0.7192
3335.000000 0.7190 0.7188 0.7186 0.7184 0.7182
3340.000000 0.7180 0.7178 0.7175 0.7174 0.7171
3345.000000 0.7169 0.7168 0.7165 0.7164 0.7161
3350.000000 0.7160 0.7158 0.7156 0.7154 0.7151
3355.000000 0.7150 0.7148 0.7146 0.7144 0.7142
3360.000000 0.7140 0.7137 0.7135 0.7133 0.7131
3365.000000 0.7128 0.7126 0.7125 0.7122 0.7119
3370.000000 0.7118 0.7115 0.7114 0.7111 0.7110
3375.000000 0.7107 0.7105 0.7103 0.7101 0.7099
3380.000000 0.7097 0.7095 0.7093 0.7090 0.7088
3385.000000 0.7086 0.7084 0.7082 0.7080 0.7078
3390.000000 0.7075 0.7074 0.7071 0.7069 0.7068
3395.000000 0.7065 0.7064 0.7061 0.7060 0.7058
3400.000000 0.7056 0.7054 0.7051 0.7050 0.7048
3405.000000 0.7046 0.7044 0.7042 0.7040 0.7038
3410.000000 0.7037 0.7037 0.7038 0.7038 0.7039
3415.000000 0.7039 0.7039 0.7039 0.7040 0.7040
3420.000000 0.7041 0.7041 0.7041 0.7041 0.7042
3425.000000 0.7042 0.7043 0.7043 0.7043 0.7043
3430.000000 0.7044 0.7044 0.7045 0.7047 0.7049
3435.000000 0.7051 0.7053 0.7055 0.7058 0.7060
3440.000000 0.7061 0.7064 0.7065 0.7068 0.7071
3445.000000 0.7072 0.7075 0.7075 0.7076 0.7076
3450.000000 0.7078 0.7078 0.7078 0.7078 0.7080
3455.000000 0.7080 0.7081 0.7081 0.7081 0.7081
3460.000000 0.7082 0.7082 0.7083 0.7083 0.7084
3465.000000 0.7084 0.7085 0.7085 0.7086 0.7086
3470.000000 0.7087 0.7087 0.7087 0.7087 0.7088
3475.000000 0.7088 0.7089 0.7089 0.7090 0.7090
3480.000000 0.7090 0.7090 0.7091 0.7091 0.7092
3485.000000 0.7092 0.7092 0.7092 0.7093 0.7093
3490.000000 0.7093 0.7093 0.7094 0.7094 0.7095
3495.000000 0.7095 0.7095 0.7095 0.7096 0.7096
3500.000000 0.7097 0.7097 0.7097 0.7098 0.7099
3505.000000 0.7099 0.7100 0.7101 0.7101 0.7101
3510.000000 0.7103 0.7103 0.7104 0.7105 0.7106
3515.000000 0.7106 0.7107 0.7107 0.7108 0.7108
3520.000000 0.7110 0.7110 0.7111 0.7111 0.7114
3525.000000 0.7115 0.7117 0.7118 0.7119 0.7121
3530.000000 0.7124 0.7125 0.7126 0.7128 0.7130
3535.000000 0.7131 0.7133 0.7134 0.7136 0.7138
3540.000000 0.7140 0.7141 0.7143 0.7144 0.7146
3545.000000 0.7147 0.7149 0.7150 0.7151 0.7151
3550.000000 0.7153 0.7153 0.7153 0.7153 0.7154
3555.000000 0.7154 0.7154 0.7154 0.7154 0.7154
3560.000000 0.7155 0.7155 0.7155 0.7155 0.7155
3565.000000 0.7151 0.7150 0.7147 0.7144 0.7141
3570.000000 0.7138 0.7135 0.7133 0.7126 0.7121
3575.000000 0.7103 0.7084 0.7064 0.7045 0.6997
3580.000000 0.6950 0.6965 0.6982 0.7001 0.7019
3585.000000 0.7041 0.7061 0.7078 0.7097 0.7108
3590.000000 0.7121 0.7128 0.7134 0.7133 0.7133
3595.000000 0.7132 0.7131 0.7126 0.7122 0.7108
3600.000000 0.7093 0.7069 0.7048 0.7050 0.7053
3605.000000 0.7055 0.7057 0.7061 0.7068 0.7081
3610.000000 0.7095 0.7110 0.7125 0.7132 0.7140
3615.000000 0.7141 0.7142 0.7143 0.7145 0.7146
3620.000000 0.7147 0.7147 0.7147 0.7147 0.7147
3625.000000 0.7147 0.7148 0.7148 0.7148 0.7148
3630.000000 0.7148 0.7147 0.7147 0.7146 0.7146
3635.000000 0.7145 0.7144 0.7143 0.7143 0.7142
3640.000000 0.7142 0.7141 0.7141 0.7140 0.7140
3645.000000 0.7134 0.7128 0.7122 0.7118 0.7111
3650.000000 0.7107 0.7101 0.7097 0.7099 0.7101
3655.000000 0.7103 0.7105 0.7107 0.7108 0.7111
3660.000000 0.7112 0.7114 0.7115 0.7115 0.7118
3665.000000 0.7118 0.7119 0.7121 0.7122 0.7124
3670.000000 0.7122 0.7121 0.7118 0.7115 0.7111
3675.000000 0.7107 0.7103 0.7101 0.7101 0.7101
3680.000000 0.7103 0.7104 0.7104 0.7104 0.7104
3685.000000 0.7101 0.7101 0.7099 0.7097 0.7095
3690.000000 0.7094 0.7092 0.7091 0.7089 0.7087
3695.000000 0.7085 0.7083 0.7081 0.7078 0.7076
3700.000000 0.7075 0.7074 0.7071 0.7069 0.7068
3705.000000 0.7065 0.7064 0.7061 0.7060 0.7058
3710.000000 0.7056 0.7055 0.7054 0.7053 0.7053
3715.000000 0.7051 0.7051 0.7051 0.7051 0.7050
3720.000000 0.7050 0.7049 0.7048 0.7047 0.7047
3725.000000 0.7046 0.7046 0.7045 0.7045 0.7044
3730.000000 0.7044 0.7043 0.7043 0.7042 0.7041
3735.000000 0.7040 0.7040 0.7039 0.7039 0.7038
3740.000000 0.7038 0.7037 0.7037 0.7036 0.7035
3745.000000 0.7034 0.7034 0.7033 0.7033 0.7032
3750.000000 0.7032 0.7031 0.7031 0.7030 0.7028
3755.000000 0.7028 0.7028 0.7028 0.7028 0.7026
3760.000000 0.7026 0.7025 0.7025 0.7025 0.7025
3765.000000 0.7024 0.7024 0.7022 0.7022 0.7022
3770.000000 0.7022 0.7021 0.7021 0.7021 0.7021
3775.000000 0.7021 0.7021 0.7021 0.7022 0.7022
3780.000000 0.7024 0.7024 0.7024 0.7024 0.7025
3785.000000 0.7025 0.7025 0.7025 0.7025 0.7025
3790.000000 0.7026 0.7026 0.7026 0.7026 0.7028
3795.000000 0.7028 0.7028 0.7028 0.7028
##END=
