##TITLE=Ethanediamine, N,N-dimethyl-, dihydrochloride
##JCAMP-DX=4.24
##DATA TYPE=INFRARED SPECTRUM
##CLASS=COBLENTZ III
##ORIGIN=BRITISH PETROLEUM CO. LTD., ENGLAND
##OWNER=Copyright (C) 1987 by the Coblentz Society
Collection (C) 2018 copyright by the U.S. Secretary of Commerce
on behalf of the United States of America. All rights reserved.
##DATE=1972/08/01
##NAMES=Ethylenediamine, N,N-dimethyl-, dihydrochloride
##MOLFORM=C4 H14 Cl2 N2
##SOURCE REFERENCE=COBLENTZ NO. 9403
##$NIST ID=B6009403
##$NIST SOURCE=COBLENTZ
##$NIST IMAGE=cob9403
##SPECTROMETER/DATA SYSTEM=PERKIN-ELMER 157
##STATE=SOLID (KBr DISC, 0.9% WT.)
$$ HCl RUN IN KBr MAY CONTAIN SOME HBr
$$ REF. Can. J. Spec., 18,4,101, '73 C. S. DOUSE and P. B. TOOKE
##SAMPLING PROCEDURE=TRANSMISSION
##RESOLUTION=2
##DATA PROCESSING=DIGITIZED BY COBLENTZ SOCIETY (BATCH II) FROM HARD COPY
##XUNITS=1/CM
##YUNITS=TRANSMITTANCE
##XFACTOR=1.0
##YFACTOR=1
##FIRSTX=666
##LASTX=4000
##FIRSTY=0.7297
##MAXX=4000
##MINX=666
##MAXY=0.73
##MINY=0.0138
##NPOINTS=3335
##XYDATA=(X++(Y..Y))
666.000000 0.7297 0.7300 0.7300 0.7299 0.7297
671.000000 0.7293 0.7289 0.7286 0.7284 0.7282
676.000000 0.7281 0.7280 0.7280 0.7279 0.7278
681.000000 0.7288 0.7275 0.7274 0.7273 0.7273
686.000000 0.7273 0.7274 0.7274 0.7274 0.7275
691.000000 0.7274 0.7273 0.7272 0.7272 0.7271
696.000000 0.7270 0.7270 0.7270 0.7271 0.7271
701.000000 0.7270 0.7268 0.7266 0.7249 0.7207
706.000000 0.7178 0.7145 0.7122 0.7104 0.7093
711.000000 0.7087 0.7081 0.7080 0.7080 0.7079
716.000000 0.7079 0.7081 0.7083 0.7084 0.7087
721.000000 0.7092 0.7097 0.7102 0.7105 0.7109
726.000000 0.7106 0.7104 0.7102 0.7096 0.7085
731.000000 0.7074 0.7064 0.7053 0.7040 0.7029
736.000000 0.7013 0.6997 0.6980 0.6956 0.6933
741.000000 0.6908 0.6881 0.6854 0.6823 0.6781
746.000000 0.6738 0.6686 0.6629 0.6560 0.6470
751.000000 0.6377 0.6280 0.6173 0.6083 0.5997
756.000000 0.5904 0.5841 0.5770 0.5596 0.5418
761.000000 0.5273 0.5064 0.4889 0.4706 0.4473
766.000000 0.4133 0.3861 0.3536 0.3474 0.3465
771.000000 0.3771 0.4085 0.4398 0.4712 0.5070
776.000000 0.5264 0.5368 0.5426 0.5473 0.5514
781.000000 0.5550 0.5572 0.5580 0.5585 0.5589
786.000000 0.5596 0.5628 0.5613 0.5620 0.5658
791.000000 0.5735 0.5875 0.6034 0.6146 0.6259
796.000000 0.6391 0.6483 0.6549 0.6608 0.6646
801.000000 0.6682 0.6707 0.6731 0.6749 0.6751
806.000000 0.6753 0.6753 0.6752 0.6778 0.6750
811.000000 0.6749 0.6747 0.6744 0.6738 0.6731
816.000000 0.6726 0.6720 0.6715 0.6710 0.6705
821.000000 0.6701 0.6701 0.6701 0.6699 0.6696
826.000000 0.6692 0.6689 0.6682 0.6674 0.6637
831.000000 0.6588 0.6538 0.6488 0.6450 0.6445
836.000000 0.6439 0.6435 0.6428 0.6419 0.6374
841.000000 0.6327 0.6285 0.6254 0.6234 0.6171
846.000000 0.6094 0.6036 0.5954 0.5887 0.5801
851.000000 0.5723 0.5654 0.5585 0.5510 0.5385
856.000000 0.5188 0.5171 0.5141 0.5290 0.5361
861.000000 0.5593 0.5892 0.5997 0.6047 0.6066
866.000000 0.6081 0.6060 0.6048 0.6028 0.6003
871.000000 0.5978 0.5948 0.5910 0.5868 0.5823
876.000000 0.5743 0.5673 0.5608 0.5532 0.5449
881.000000 0.5354 0.5231 0.5106 0.5024 0.4925
886.000000 0.4830 0.4732 0.4607 0.4493 0.4327
891.000000 0.4159 0.3942 0.3711 0.3492 0.3220
896.000000 0.3022 0.2631 0.2399 0.2278 0.2233
901.000000 0.2213 0.2263 0.2390 0.2787 0.3218
906.000000 0.3523 0.4307 0.4848 0.5069 0.5429
911.000000 0.5572 0.5620 0.5640 0.5645 0.5646
916.000000 0.5647 0.5644 0.5661 0.5607 0.5577
921.000000 0.5543 0.5506 0.5457 0.5395 0.5331
926.000000 0.5268 0.5204 0.5125 0.5038 0.4855
931.000000 0.4736 0.4644 0.4562 0.4469 0.4363
936.000000 0.4240 0.4087 0.3905 0.3632 0.3490
941.000000 0.3367 0.3176 0.2986 0.2881 0.2792
946.000000 0.2694 0.2518 0.2331 0.2181 0.1985
951.000000 0.1572 0.1243 0.1013 0.0638 0.0600
956.000000 0.0583 0.0603 0.0648 0.0762 0.1190
961.000000 0.1380 0.1479 0.1558 0.1612 0.1626
966.000000 0.1635 0.1615 0.1593 0.1540 0.1419
971.000000 0.1257 0.0978 0.0781 0.0641 0.0614
976.000000 0.0616 0.0633 0.0670 0.0730 0.1263
981.000000 0.1972 0.2097 0.2168 0.2228 0.2268
986.000000 0.2297 0.2325 0.2342 0.2354 0.2355
991.000000 0.2360 0.2344 0.2308 0.2245 0.2168
996.000000 0.2078 0.1939 0.1698 0.1453 0.1269
1001.000000 0.1111 0.0975 0.0868 0.0746 0.0717
1006.000000 0.0715 0.0714 0.0738 0.0844 0.1168
1011.000000 0.1511 0.1835 0.1989 0.2163 0.2545
1016.000000 0.3292 0.3663 0.3813 0.3963 0.4123
1021.000000 0.4253 0.4380 0.4508 0.4609 0.4654
1026.000000 0.4682 0.4701 0.4710 0.4715 0.4716
1031.000000 0.4715 0.4710 0.4702 0.4710 0.4670
1036.000000 0.4646 0.4621 0.4580 0.4497 0.4416
1041.000000 0.4348 0.4255 0.4147 0.4054 0.3967
1046.000000 0.3883 0.3792 0.3700 0.3542 0.3367
1051.000000 0.3107 0.2731 0.2356 0.1982 0.1608
1056.000000 0.1448 0.1655 0.1428 0.2307 0.2632
1061.000000 0.2957 0.3281 0.3582 0.3727 0.3840
1066.000000 0.3925 0.4001 0.4058 0.4107 0.4155
1071.000000 0.4237 0.4394 0.4715 0.4837 0.4941
1076.000000 0.5033 0.5135 0.5172 0.5189 0.5193
1081.000000 0.5197 0.5194 0.5198 0.5192 0.5186
1086.000000 0.5177 0.5159 0.5127 0.5080 0.5038
1091.000000 0.4965 0.4850 0.4765 0.4694 0.4616
1096.000000 0.4515 0.4446 0.4266 0.3659 0.3628
1101.000000 0.3618 0.3627 0.3638 0.3692 0.3869
1106.000000 0.4058 0.4184 0.4189 0.4179 0.4162
1111.000000 0.4080 0.3995 0.3910 0.3825 0.3741
1116.000000 0.3657 0.3572 0.3484 0.3435 0.3427
1121.000000 0.3429 0.3454 0.3495 0.3533 0.3570
1126.000000 0.3614 0.3669 0.3724 0.3788 0.3876
1131.000000 0.3978 0.4080 0.4222 0.4358 0.4463
1136.000000 0.4513 0.4544 0.4564 0.4574 0.4581
1141.000000 0.4586 0.4588 0.4609 0.4586 0.4584
1146.000000 0.4579 0.4574 0.4568 0.4562 0.4554
1151.000000 0.4542 0.4530 0.4518 0.4506 0.4494
1156.000000 0.4481 0.4469 0.4456 0.4441 0.4425
1161.000000 0.4414 0.4404 0.4394 0.4383 0.4374
1166.000000 0.4366 0.4344 0.4318 0.4288 0.4259
1171.000000 0.4233 0.4213 0.4206 0.4198 0.4185
1176.000000 0.4169 0.4132 0.4092 0.4048 0.3989
1181.000000 0.3927 0.3866 0.3791 0.3717 0.3653
1186.000000 0.3588 0.3466 0.3319 0.3173 0.3026
1191.000000 0.2880 0.2734 0.2589 0.2443 0.2299
1196.000000 0.2153 0.2009 0.1760 0.1605 0.1433
1201.000000 0.1312 0.1252 0.1199 0.1159 0.1149
1206.000000 0.1178 0.1166 0.1310 0.1548 0.1785
1211.000000 0.2023 0.2259 0.2495 0.2731 0.2966
1216.000000 0.3202 0.3432 0.3626 0.3667 0.3687
1221.000000 0.3701 0.3708 0.3708 0.3710 0.3711
1226.000000 0.3710 0.3720 0.3707 0.3707 0.3705
1231.000000 0.3702 0.3700 0.3692 0.3681 0.3659
1236.000000 0.3641 0.3638 0.3650 0.3650 0.3752
1241.000000 0.3952 0.4154 0.4356 0.4493 0.4661
1246.000000 0.4798 0.4827 0.4857 0.4873 0.4886
1251.000000 0.4898 0.4909 0.4912 0.4915 0.4914
1256.000000 0.4932 0.4899 0.4887 0.4876 0.4864
1261.000000 0.4850 0.4830 0.4812 0.4795 0.4778
1266.000000 0.4761 0.4745 0.4731 0.4722 0.4710
1271.000000 0.4689 0.4660 0.4622 0.4581 0.4541
1276.000000 0.4500 0.4459 0.4419 0.4379 0.4339
1281.000000 0.4296 0.4241 0.4176 0.4076 0.3970
1286.000000 0.3875 0.3807 0.3739 0.3652 0.3567
1291.000000 0.3481 0.3362 0.3030 0.2792 0.2554
1296.000000 0.2317 0.2174 0.2171 0.2153 0.2486
1301.000000 0.2699 0.2912 0.3124 0.3337 0.3491
1306.000000 0.3521 0.3532 0.3533 0.3527 0.3522
1311.000000 0.3514 0.3502 0.3453 0.3377 0.3291
1316.000000 0.3216 0.3159 0.3111 0.3065 0.3008
1321.000000 0.2928 0.2822 0.2757 0.2715 0.2705
1326.000000 0.2713 0.2718 0.2727 0.2741 0.2760
1331.000000 0.2782 0.2801 0.2816 0.2830 0.2841
1336.000000 0.2851 0.2885 0.2862 0.2852 0.2841
1341.000000 0.2832 0.2823 0.2814 0.2780 0.2737
1346.000000 0.2719 0.2711 0.2707 0.2703 0.2699
1351.000000 0.2695 0.2690 0.2655 0.2584 0.2502
1356.000000 0.2392 0.2283 0.2174 0.2064 0.1955
1361.000000 0.1847 0.1765 0.1731 0.1709 0.1692
1366.000000 0.1801 0.1937 0.2073 0.2209 0.2345
1371.000000 0.2443 0.2455 0.2458 0.2442 0.2433
1376.000000 0.2418 0.2405 0.2391 0.2374 0.2357
1381.000000 0.2341 0.2323 0.2298 0.2273 0.2246
1386.000000 0.2217 0.2186 0.2143 0.2098 0.2054
1391.000000 0.2007 0.1960 0.1900 0.1819 0.1719
1396.000000 0.1616 0.1513 0.1438 0.1301 0.1260
1401.000000 0.1260 0.1261 0.1288 0.1355 0.1394
1406.000000 0.1420 0.1432 0.1440 0.1443 0.1441
1411.000000 0.1427 0.1390 0.1350 0.1311 0.1284
1416.000000 0.1253 0.1224 0.1201 0.1069 0.0977
1421.000000 0.0964 0.0958 0.0955 0.0952 0.0951
1426.000000 0.0950 0.0948 0.0946 0.0940 0.0927
1431.000000 0.0895 0.0841 0.0826 0.0813 0.0800
1436.000000 0.0788 0.0783 0.0779 0.0774 0.0770
1441.000000 0.0758 0.0740 0.0709 0.0671 0.0649
1446.000000 0.0634 0.0620 0.0580 0.0508 0.0454
1451.000000 0.0400 0.0329 0.0266 0.0263 0.0260
1456.000000 0.0258 0.0256 0.0255 0.0254 0.0254
1461.000000 0.0253 0.0253 0.0252 0.0252 0.0252
1466.000000 0.0251 0.0251 0.0249 0.0226 0.0247
1471.000000 0.0246 0.0245 0.0244 0.0243 0.0242
1476.000000 0.0242 0.0242 0.0241 0.0241 0.0240
1481.000000 0.0240 0.0239 0.0243 0.0259 0.0281
1486.000000 0.0310 0.0348 0.0396 0.0445 0.0495
1491.000000 0.0542 0.0581 0.0601 0.0611 0.0618
1496.000000 0.0629 0.0642 0.0860 0.0918 0.0927
1501.000000 0.0931 0.0930 0.0927 0.0935 0.0918
1506.000000 0.0912 0.0900 0.0888 0.0871 0.0852
1511.000000 0.0823 0.0797 0.0780 0.0763 0.0747
1516.000000 0.0731 0.0714 0.0699 0.0683 0.0670
1521.000000 0.0658 0.0649 0.0642 0.0634 0.0628
1526.000000 0.0622 0.0619 0.0603 0.0618 0.0622
1531.000000 0.0628 0.0654 0.0756 0.0859 0.0961
1536.000000 0.1062 0.1165 0.1267 0.1368 0.1469
1541.000000 0.1556 0.1598 0.1612 0.1615 0.1615
1546.000000 0.1614 0.1614 0.1611 0.1609 0.1610
1551.000000 0.1600 0.1595 0.1589 0.1583 0.1578
1556.000000 0.1571 0.1561 0.1550 0.1538 0.1523
1561.000000 0.1508 0.1491 0.1470 0.1446 0.1422
1566.000000 0.1398 0.1374 0.1351 0.1328 0.1305
1571.000000 0.1282 0.1256 0.1228 0.1200 0.1172
1576.000000 0.1137 0.1096 0.1052 0.1009 0.0950
1581.000000 0.0878 0.0762 0.0515 0.0422 0.0409
1586.000000 0.0396 0.0378 0.0357 0.0341 0.0342
1591.000000 0.0335 0.0337 0.0340 0.0344 0.0353
1596.000000 0.0375 0.0449 0.0504 0.0524 0.0551
1601.000000 0.0580 0.0609 0.0639 0.0669 0.0699
1606.000000 0.0728 0.0757 0.0791 0.0832 0.0866
1611.000000 0.0888 0.0910 0.0932 0.0957 0.0981
1616.000000 0.1022 0.1065 0.1113 0.1165 0.1225
1621.000000 0.1284 0.1328 0.1362 0.1388 0.1410
1626.000000 0.1433 0.1454 0.1475 0.1501 0.1566
1631.000000 0.1687 0.1759 0.1826 0.1961 0.2097
1636.000000 0.2167 0.2216 0.2262 0.2307 0.2350
1641.000000 0.2392 0.2432 0.2467 0.2499 0.2531
1646.000000 0.2561 0.2585 0.2607 0.2628 0.2645
1651.000000 0.2657 0.2669 0.2682 0.2694 0.2706
1656.000000 0.2719 0.2731 0.2743 0.2754 0.2767
1661.000000 0.2779 0.2792 0.2831 0.2889 0.2951
1666.000000 0.3014 0.3076 0.3139 0.3201 0.3263
1671.000000 0.3326 0.3453 0.3508 0.3529 0.3544
1676.000000 0.3557 0.3576 0.3603 0.3630 0.3656
1681.000000 0.3670 0.3680 0.3689 0.3697 0.3704
1686.000000 0.3710 0.3716 0.3721 0.3727 0.3734
1691.000000 0.3744 0.3758 0.3781 0.3815 0.3854
1696.000000 0.3897 0.3929 0.3955 0.3975 0.3984
1701.000000 0.3984 0.3983 0.3983 0.3983 0.3983
1706.000000 0.3983 0.3983 0.3984 0.3984 0.3984
1711.000000 0.3984 0.3984 0.3985 0.3985 0.3985
1716.000000 0.3985 0.3985 0.3986 0.3986 0.3984
1721.000000 0.3983 0.3981 0.3979 0.3978 0.3976
1726.000000 0.3974 0.3970 0.3963 0.3956 0.3947
1731.000000 0.3935 0.3922 0.3910 0.3899 0.3891
1736.000000 0.3882 0.3858 0.3880 0.3881 0.3886
1741.000000 0.3896 0.3915 0.3932 0.3948 0.3962
1746.000000 0.3975 0.3986 0.3994 0.4001 0.4009
1751.000000 0.4017 0.4029 0.4057 0.4095 0.4124
1756.000000 0.4146 0.4163 0.4172 0.4181 0.4186
1761.000000 0.4190 0.4193 0.4196 0.4199 0.4203
1766.000000 0.4214 0.4238 0.4279 0.4324 0.4348
1771.000000 0.4361 0.4369 0.4373 0.4378 0.4382
1776.000000 0.4385 0.4389 0.4392 0.4395 0.4397
1781.000000 0.4398 0.4401 0.4403 0.4405 0.4407
1786.000000 0.4409 0.4410 0.4410 0.4410 0.4411
1791.000000 0.4412 0.4412 0.4413 0.4414 0.4415
1796.000000 0.4416 0.4417 0.4418 0.4419 0.4420
1801.000000 0.4421 0.4423 0.4425 0.4428 0.4431
1806.000000 0.4434 0.4435 0.4437 0.4439 0.4439
1811.000000 0.4441 0.4442 0.4441 0.4441 0.4440
1816.000000 0.4436 0.4438 0.4437 0.4436 0.4435
1821.000000 0.4434 0.4433 0.4431 0.4430 0.4429
1826.000000 0.4428 0.4426 0.4425 0.4423 0.4422
1831.000000 0.4420 0.4418 0.4416 0.4414 0.4412
1836.000000 0.4411 0.4409 0.4407 0.4404 0.4402
1841.000000 0.4399 0.4397 0.4394 0.4392 0.4390
1846.000000 0.4387 0.4385 0.4382 0.4379 0.4374
1851.000000 0.4368 0.4363 0.4358 0.4352 0.4346
1856.000000 0.4341 0.4335 0.4327 0.4318 0.4310
1861.000000 0.4300 0.4288 0.4276 0.4265 0.4253
1866.000000 0.4240 0.4227 0.4212 0.4198 0.4183
1871.000000 0.4169 0.4155 0.4142 0.4127 0.4117
1876.000000 0.4109 0.4103 0.4096 0.4090 0.4085
1881.000000 0.4078 0.4072 0.4065 0.4058 0.4050
1886.000000 0.4041 0.4031 0.4019 0.4007 0.3993
1891.000000 0.3976 0.3959 0.3942 0.3925 0.3908
1896.000000 0.3891 0.3874 0.3858 0.3843 0.3828
1901.000000 0.3813 0.3798 0.3784 0.3769 0.3757
1906.000000 0.3747 0.3739 0.3737 0.3735 0.3732
1911.000000 0.3731 0.3730 0.3728 0.3727 0.3725
1916.000000 0.3723 0.3722 0.3721 0.3720 0.3720
1921.000000 0.3719 0.3718 0.3716 0.3704 0.3688
1926.000000 0.3669 0.3639 0.3612 0.3587 0.3569
1931.000000 0.3550 0.3532 0.3504 0.3475 0.3445
1936.000000 0.3414 0.3382 0.3351 0.3325 0.3301
1941.000000 0.3277 0.3253 0.3229 0.3205 0.3171
1946.000000 0.3138 0.3104 0.3077 0.3050 0.3023
1951.000000 0.2997 0.2973 0.2950 0.2927 0.2905
1956.000000 0.2882 0.2860 0.2838 0.2817 0.2795
1961.000000 0.2773 0.2751 0.2728 0.2703 0.2676
1966.000000 0.2650 0.2624 0.2592 0.2557 0.2521
1971.000000 0.2487 0.2459 0.2439 0.2419 0.2399
1976.000000 0.2379 0.2362 0.2346 0.2332 0.2317
1981.000000 0.2302 0.2288 0.2273 0.2258 0.2243
1986.000000 0.2227 0.2210 0.2196 0.2184 0.2178
1991.000000 0.2172 0.2166 0.2160 0.2155 0.2151
1996.000000 0.2149 0.2146 0.2146 0.2156 0.2145
2001.000000 0.2143 0.2143 0.2143 0.2144 0.2146
2006.000000 0.2146 0.2147 0.2147 0.2151 0.2155
2011.000000 0.2159 0.2164 0.2168 0.2173 0.2180
2016.000000 0.2188 0.2197 0.2206 0.2216 0.2227
2021.000000 0.2237 0.2250 0.2263 0.2279 0.2293
2026.000000 0.2305 0.2318 0.2329 0.2341 0.2352
2031.000000 0.2363 0.2374 0.2385 0.2396 0.2405
2036.000000 0.2415 0.2423 0.2432 0.2441 0.2450
2041.000000 0.2458 0.2467 0.2476 0.2485 0.2494
2046.000000 0.2503 0.2513 0.2522 0.2532 0.2541
2051.000000 0.2550 0.2559 0.2568 0.2576 0.2588
2056.000000 0.2601 0.2617 0.2633 0.2649 0.2671
2061.000000 0.2697 0.2754 0.2816 0.2890 0.2983
2066.000000 0.3089 0.3151 0.3202 0.3236 0.3269
2071.000000 0.3301 0.3323 0.3341 0.3359 0.3377
2076.000000 0.3394 0.3411 0.3428 0.3444 0.3460
2081.000000 0.3475 0.3490 0.3505 0.3517 0.3528
2086.000000 0.3538 0.3547 0.3549 0.3552 0.3554
2091.000000 0.3556 0.3558 0.3560 0.3562 0.3564
2096.000000 0.3567 0.3571 0.3576 0.3582 0.3588
2101.000000 0.3596 0.3611 0.3625 0.3639 0.3653
2106.000000 0.3666 0.3676 0.3684 0.3691 0.3696
2111.000000 0.3698 0.3700 0.3702 0.3704 0.3705
2116.000000 0.3707 0.3708 0.3709 0.3710 0.3710
2121.000000 0.3711 0.3712 0.3713 0.3713 0.3715
2126.000000 0.3716 0.3716 0.3716 0.3716 0.3716
2131.000000 0.3716 0.3716 0.3716 0.3717 0.3717
2136.000000 0.3717 0.3738 0.3717 0.3717 0.3717
2141.000000 0.3717 0.3717 0.3717 0.3717 0.3717
2146.000000 0.3716 0.3716 0.3715 0.3714 0.3713
2151.000000 0.3711 0.3709 0.3707 0.3703 0.3698
2156.000000 0.3692 0.3685 0.3678 0.3672 0.3665
2161.000000 0.3658 0.3651 0.3644 0.3638 0.3632
2166.000000 0.3627 0.3623 0.3618 0.3613 0.3608
2171.000000 0.3604 0.3600 0.3596 0.3592 0.3588
2176.000000 0.3585 0.3581 0.3577 0.3574 0.3571
2181.000000 0.3569 0.3568 0.3566 0.3565 0.3563
2186.000000 0.3562 0.3561 0.3559 0.3558 0.3556
2191.000000 0.3555 0.3554 0.3552 0.3546 0.3540
2196.000000 0.3530 0.3521 0.3509 0.3498 0.3487
2201.000000 0.3475 0.3465 0.3456 0.3447 0.3440
2206.000000 0.3433 0.3426 0.3420 0.3413 0.3406
2211.000000 0.3398 0.3391 0.3384 0.3377 0.3370
2216.000000 0.3362 0.3355 0.3347 0.3340 0.3332
2221.000000 0.3323 0.3313 0.3303 0.3293 0.3283
2226.000000 0.3273 0.3264 0.3254 0.3244 0.3234
2231.000000 0.3224 0.3215 0.3204 0.3194 0.3183
2236.000000 0.3173 0.3162 0.3152 0.3141 0.3130
2241.000000 0.3120 0.3109 0.3099 0.3088 0.3077
2246.000000 0.3066 0.3054 0.3042 0.3030 0.3017
2251.000000 0.3005 0.2993 0.2981 0.2969 0.2957
2256.000000 0.2944 0.2932 0.2919 0.2906 0.2894
2261.000000 0.2881 0.2869 0.2856 0.2844 0.2831
2266.000000 0.2818 0.2806 0.2793 0.2779 0.2764
2271.000000 0.2748 0.2733 0.2718 0.2703 0.2687
2276.000000 0.2672 0.2658 0.2646 0.2635 0.2623
2281.000000 0.2612 0.2600 0.2588 0.2576 0.2565
2286.000000 0.2553 0.2541 0.2529 0.2518 0.2506
2291.000000 0.2493 0.2479 0.2463 0.2447 0.2431
2296.000000 0.2414 0.2398 0.2382 0.2366 0.2350
2301.000000 0.2334 0.2319 0.2303 0.2287 0.2271
2306.000000 0.2255 0.2239 0.2223 0.2207 0.2192
2311.000000 0.2176 0.2160 0.2144 0.2128 0.2112
2316.000000 0.2095 0.2077 0.2057 0.2037 0.2017
2321.000000 0.1997 0.1977 0.1958 0.1939 0.1921
2326.000000 0.1901 0.1881 0.1861 0.1841 0.1821
2331.000000 0.1807 0.1792 0.1778 0.1765 0.1752
2336.000000 0.1738 0.1725 0.1713 0.1700 0.1689
2341.000000 0.1677 0.1666 0.1654 0.1642 0.1631
2346.000000 0.1619 0.1607 0.1594 0.1579 0.1563
2351.000000 0.1546 0.1530 0.1513 0.1496 0.1480
2356.000000 0.1463 0.1444 0.1425 0.1404 0.1381
2361.000000 0.1358 0.1335 0.1313 0.1293 0.1274
2366.000000 0.1259 0.1245 0.1230 0.1215 0.1201
2371.000000 0.1187 0.1172 0.1158 0.1143 0.1129
2376.000000 0.1115 0.1095 0.1072 0.1047 0.1020
2381.000000 0.0992 0.0965 0.0938 0.0921 0.0906
2386.000000 0.0891 0.0876 0.0861 0.0846 0.0831
2391.000000 0.0816 0.0802 0.0786 0.0770 0.0754
2396.000000 0.0738 0.0722 0.0707 0.0691 0.0675
2401.000000 0.0659 0.0644 0.0629 0.0614 0.0601
2406.000000 0.0587 0.0573 0.0558 0.0544 0.0530
2411.000000 0.0516 0.0502 0.0488 0.0475 0.0462
2416.000000 0.0448 0.0435 0.0422 0.0409 0.0395
2421.000000 0.0383 0.0370 0.0358 0.0346 0.0334
2426.000000 0.0323 0.0311 0.0301 0.0291 0.0283
2431.000000 0.0279 0.0274 0.0269 0.0265 0.0260
2436.000000 0.0255 0.0250 0.0245 0.0241 0.0237
2441.000000 0.0234 0.0231 0.0228 0.0226 0.0223
2446.000000 0.0221 0.0218 0.0215 0.0212 0.0210
2451.000000 0.0207 0.0205 0.0202 0.0200 0.0197
2456.000000 0.0195 0.0193 0.0190 0.0188 0.0185
2461.000000 0.0183 0.0182 0.0182 0.0180 0.0179
2466.000000 0.0178 0.0177 0.0176 0.0176 0.0175
2471.000000 0.0174 0.0172 0.0171 0.0171 0.0170
2476.000000 0.0169 0.0168 0.0167 0.0167 0.0167
2481.000000 0.0166 0.0165 0.0164 0.0164 0.0164
2486.000000 0.0163 0.0163 0.0162 0.0162 0.0162
2491.000000 0.0161 0.0161 0.0160 0.0159 0.0159
2496.000000 0.0158 0.0158 0.0157 0.0157 0.0157
2501.000000 0.0156 0.0156 0.0155 0.0155 0.0155
2506.000000 0.0154 0.0154 0.0153 0.0153 0.0153
2511.000000 0.0153 0.0153 0.0152 0.0152 0.0152
2516.000000 0.0151 0.0151 0.0150 0.0150 0.0150
2521.000000 0.0150 0.0150 0.0149 0.0149 0.0149
2526.000000 0.0148 0.0148 0.0148 0.0148 0.0148
2531.000000 0.0147 0.0147 0.0146 0.0146 0.0146
2536.000000 0.0146 0.0146 0.0146 0.0145 0.0145
2541.000000 0.0145 0.0145 0.0145 0.0145 0.0145
2546.000000 0.0145 0.0145 0.0145 0.0145 0.0145
2551.000000 0.0145 0.0145 0.0145 0.0145 0.0145
2556.000000 0.0145 0.0145 0.0145 0.0145 0.0145
2561.000000 0.0145 0.0145 0.0145 0.0145 0.0145
2566.000000 0.0145 0.0145 0.0145 0.0145 0.0145
2571.000000 0.0145 0.0145 0.0145 0.0145 0.0145
2576.000000 0.0145 0.0145 0.0145 0.0145 0.0145
2581.000000 0.0145 0.0145 0.0145 0.0145 0.0145
2586.000000 0.0145 0.0145 0.0145 0.0145 0.0145
2591.000000 0.0145 0.0145 0.0145 0.0144 0.0144
2596.000000 0.0144 0.0144 0.0144 0.0144 0.0144
2601.000000 0.0144 0.0143 0.0143 0.0143 0.0143
2606.000000 0.0143 0.0142 0.0142 0.0142 0.0142
2611.000000 0.0142 0.0142 0.0142 0.0142 0.0142
2616.000000 0.0141 0.0141 0.0141 0.0141 0.0141
2621.000000 0.0141 0.0141 0.0141 0.0140 0.0140
2626.000000 0.0140 0.0140 0.0140 0.0139 0.0139
2631.000000 0.0139 0.0139 0.0139 0.0139 0.0139
2636.000000 0.0139 0.0139 0.0138 0.0138 0.0138
2641.000000 0.0138 0.0138 0.0138 0.0138 0.0138
2646.000000 0.0138 0.0138 0.0138 0.0138 0.0138
2651.000000 0.0138 0.0138 0.0138 0.0138 0.0138
2656.000000 0.0138 0.0139 0.0139 0.0139 0.0139
2661.000000 0.0139 0.0139 0.0139 0.0139 0.0139
2666.000000 0.0139 0.0139 0.0139 0.0140 0.0140
2671.000000 0.0140 0.0140 0.0140 0.0140 0.0140
2676.000000 0.0140 0.0140 0.0140 0.0140 0.0140
2681.000000 0.0140 0.0140 0.0141 0.0141 0.0141
2686.000000 0.0141 0.0141 0.0141 0.0141 0.0141
2691.000000 0.0141 0.0141 0.0141 0.0142 0.0142
2696.000000 0.0142 0.0142 0.0142 0.0142 0.0142
2701.000000 0.0142 0.0142 0.0142 0.0142 0.0142
2706.000000 0.0143 0.0143 0.0143 0.0143 0.0143
2711.000000 0.0143 0.0143 0.0143 0.0143 0.0143
2716.000000 0.0143 0.0143 0.0143 0.0143 0.0143
2721.000000 0.0143 0.0143 0.0143 0.0143 0.0143
2726.000000 0.0143 0.0143 0.0143 0.0143 0.0143
2731.000000 0.0143 0.0143 0.0143 0.0143 0.0143
2736.000000 0.0143 0.0143 0.0143 0.0143 0.0143
2741.000000 0.0143 0.0143 0.0143 0.0143 0.0141
2746.000000 0.0143 0.0143 0.0143 0.0143 0.0143
2751.000000 0.0143 0.0143 0.0143 0.0143 0.0143
2756.000000 0.0143 0.0143 0.0143 0.0143 0.0143
2761.000000 0.0143 0.0143 0.0143 0.0143 0.0143
2766.000000 0.0143 0.0143 0.0143 0.0143 0.0143
2771.000000 0.0143 0.0143 0.0143 0.0143 0.0143
2776.000000 0.0143 0.0143 0.0144 0.0144 0.0144
2781.000000 0.0144 0.0144 0.0144 0.0144 0.0144
2786.000000 0.0144 0.0144 0.0144 0.0144 0.0144
2791.000000 0.0145 0.0145 0.0145 0.0145 0.0145
2796.000000 0.0145 0.0145 0.0145 0.0145 0.0145
2801.000000 0.0145 0.0145 0.0145 0.0145 0.0145
2806.000000 0.0146 0.0146 0.0146 0.0146 0.0146
2811.000000 0.0146 0.0146 0.0146 0.0146 0.0146
2816.000000 0.0146 0.0146 0.0146 0.0147 0.0147
2821.000000 0.0147 0.0147 0.0147 0.0147 0.0147
2826.000000 0.0147 0.0147 0.0147 0.0147 0.0147
2831.000000 0.0147 0.0148 0.0148 0.0148 0.0148
2836.000000 0.0148 0.0148 0.0148 0.0148 0.0148
2841.000000 0.0148 0.0148 0.0148 0.0148 0.0149
2846.000000 0.0149 0.0149 0.0149 0.0149 0.0149
2851.000000 0.0149 0.0149 0.0149 0.0149 0.0149
2856.000000 0.0149 0.0149 0.0149 0.0149 0.0149
2861.000000 0.0150 0.0150 0.0150 0.0150 0.0150
2866.000000 0.0150 0.0150 0.0150 0.0150 0.0150
2871.000000 0.0150 0.0150 0.0150 0.0150 0.0150
2876.000000 0.0150 0.0150 0.0150 0.0150 0.0150
2881.000000 0.0150 0.0150 0.0150 0.0150 0.0150
2886.000000 0.0150 0.0151 0.0151 0.0151 0.0151
2891.000000 0.0151 0.0151 0.0151 0.0151 0.0151
2896.000000 0.0151 0.0151 0.0151 0.0151 0.0151
2901.000000 0.0151 0.0151 0.0151 0.0151 0.0151
2906.000000 0.0151 0.0151 0.0151 0.0151 0.0151
2911.000000 0.0151 0.0151 0.0151 0.0152 0.0152
2916.000000 0.0152 0.0152 0.0152 0.0152 0.0152
2921.000000 0.0152 0.0152 0.0152 0.0152 0.0152
2926.000000 0.0152 0.0152 0.0153 0.0153 0.0153
2931.000000 0.0154 0.0154 0.0154 0.0154 0.0155
2936.000000 0.0155 0.0155 0.0156 0.0156 0.0156
2941.000000 0.0156 0.0157 0.0157 0.0157 0.0158
2946.000000 0.0158 0.0158 0.0158 0.0159 0.0159
2951.000000 0.0159 0.0160 0.0160 0.0160 0.0160
2956.000000 0.0161 0.0161 0.0161 0.0162 0.0162
2961.000000 0.0162 0.0162 0.0163 0.0164 0.0165
2966.000000 0.0166 0.0166 0.0167 0.0167 0.0168
2971.000000 0.0169 0.0170 0.0171 0.0171 0.0172
2976.000000 0.0172 0.0173 0.0174 0.0175 0.0176
2981.000000 0.0177 0.0177 0.0178 0.0179 0.0180
2986.000000 0.0182 0.0183 0.0184 0.0185 0.0187
2991.000000 0.0188 0.0189 0.0190 0.0191 0.0193
2996.000000 0.0194 0.0196 0.0197 0.0198 0.0199
3001.000000 0.0200 0.0201 0.0202 0.0203 0.0204
3006.000000 0.0205 0.0206 0.0207 0.0208 0.0209
3011.000000 0.0210 0.0211 0.0212 0.0213 0.0214
3016.000000 0.0215 0.0216 0.0216 0.0217 0.0218
3021.000000 0.0218 0.0219 0.0220 0.0220 0.0221
3026.000000 0.0221 0.0222 0.0222 0.0223 0.0223
3031.000000 0.0224 0.0224 0.0225 0.0226 0.0226
3036.000000 0.0227 0.0227 0.0228 0.0228 0.0229
3041.000000 0.0229 0.0230 0.0230 0.0231 0.0231
3046.000000 0.0232 0.0233 0.0233 0.0234 0.0234
3051.000000 0.0234 0.0234 0.0235 0.0235 0.0236
3056.000000 0.0236 0.0237 0.0238 0.0239 0.0240
3061.000000 0.0240 0.0241 0.0242 0.0243 0.0244
3066.000000 0.0245 0.0246 0.0247 0.0248 0.0249
3071.000000 0.0249 0.0250 0.0251 0.0252 0.0253
3076.000000 0.0256 0.0259 0.0261 0.0264 0.0269
3081.000000 0.0274 0.0279 0.0284 0.0289 0.0294
3086.000000 0.0299 0.0305 0.0310 0.0316 0.0321
3091.000000 0.0327 0.0333 0.0338 0.0344 0.0350
3096.000000 0.0356 0.0362 0.0368 0.0374 0.0379
3101.000000 0.0384 0.0389 0.0391 0.0394 0.0396
3106.000000 0.0398 0.0399 0.0401 0.0402 0.0403
3111.000000 0.0404 0.0404 0.0405 0.0406 0.0407
3116.000000 0.0408 0.0408 0.0409 0.0410 0.0411
3121.000000 0.0411 0.0412 0.0413 0.0414 0.0415
3126.000000 0.0415 0.0416 0.0417 0.0418 0.0418
3131.000000 0.0419 0.0420 0.0421 0.0421 0.0422
3136.000000 0.0423 0.0424 0.0424 0.0425 0.0426
3141.000000 0.0427 0.0427 0.0428 0.0429 0.0430
3146.000000 0.0431 0.0432 0.0433 0.0434 0.0435
3151.000000 0.0436 0.0437 0.0439 0.0444 0.0449
3156.000000 0.0454 0.0459 0.0465 0.0471 0.0476
3161.000000 0.0486 0.0502 0.0517 0.0533 0.0545
3166.000000 0.0554 0.0563 0.0572 0.0580 0.0586
3171.000000 0.0592 0.0598 0.0602 0.0604 0.0605
3176.000000 0.0607 0.0608 0.0609 0.0610 0.0612
3181.000000 0.0613 0.0614 0.0615 0.0617 0.0618
3186.000000 0.0619 0.0620 0.0622 0.0623 0.0624
3191.000000 0.0625 0.0626 0.0627 0.0627 0.0628
3196.000000 0.0628 0.0629 0.0629 0.0630 0.0631
3201.000000 0.0631 0.0632 0.0632 0.0633 0.0633
3206.000000 0.0634 0.0634 0.0635 0.0635 0.0636
3211.000000 0.0637 0.0638 0.0638 0.0639 0.0639
3216.000000 0.0639 0.0639 0.0640 0.0640 0.0640
3221.000000 0.0640 0.0640 0.0640 0.0640 0.0640
3226.000000 0.0641 0.0641 0.0641 0.0641 0.0651
3231.000000 0.0640 0.0640 0.0639 0.0639 0.0638
3236.000000 0.0638 0.0638 0.0638 0.0637 0.0637
3241.000000 0.0637 0.0637 0.0636 0.0635 0.0635
3246.000000 0.0634 0.0633 0.0632 0.0631 0.0630
3251.000000 0.0629 0.0629 0.0628 0.0627 0.0627
3256.000000 0.0626 0.0625 0.0624 0.0623 0.0622
3261.000000 0.0620 0.0619 0.0617 0.0616 0.0614
3266.000000 0.0612 0.0610 0.0607 0.0605 0.0603
3271.000000 0.0601 0.0599 0.0596 0.0592 0.0588
3276.000000 0.0585 0.0581 0.0576 0.0572 0.0568
3281.000000 0.0564 0.0559 0.0554 0.0550 0.0545
3286.000000 0.0540 0.0534 0.0528 0.0522 0.0516
3291.000000 0.0510 0.0504 0.0498 0.0492 0.0487
3296.000000 0.0482 0.0477 0.0471 0.0467 0.0463
3301.000000 0.0459 0.0455 0.0451 0.0449 0.0446
3306.000000 0.0444 0.0441 0.0441 0.0440 0.0439
3311.000000 0.0439 0.0438 0.0438 0.0437 0.0437
3316.000000 0.0436 0.0436 0.0435 0.0434 0.0434
3321.000000 0.0433 0.0432 0.0431 0.0431 0.0430
3326.000000 0.0430 0.0429 0.0429 0.0428 0.0428
3331.000000 0.0428 0.0428 0.0428 0.0427 0.0427
3336.000000 0.0427 0.0427 0.0426 0.0426 0.0426
3341.000000 0.0426 0.0426 0.0425 0.0425 0.0425
3346.000000 0.0425 0.0424 0.0424 0.0424 0.0424
3351.000000 0.0424 0.0424 0.0424 0.0424 0.0424
3356.000000 0.0423 0.0423 0.0423 0.0423 0.0423
3361.000000 0.0423 0.0423 0.0423 0.0423 0.0423
3366.000000 0.0423 0.0423 0.0423 0.0423 0.0423
3371.000000 0.0423 0.0423 0.0423 0.0423 0.0423
3376.000000 0.0423 0.0423 0.0423 0.0423 0.0423
3381.000000 0.0423 0.0423 0.0424 0.0424 0.0424
3386.000000 0.0424 0.0424 0.0424 0.0424 0.0424
3391.000000 0.0424 0.0424 0.0424 0.0424 0.0424
3396.000000 0.0424 0.0411 0.0425 0.0425 0.0425
3401.000000 0.0425 0.0426 0.0426 0.0427 0.0427
3406.000000 0.0428 0.0428 0.0428 0.0428 0.0428
3411.000000 0.0429 0.0429 0.0429 0.0429 0.0429
3416.000000 0.0430 0.0430 0.0430 0.0430 0.0431
3421.000000 0.0431 0.0431 0.0431 0.0431 0.0432
3426.000000 0.0432 0.0432 0.0432 0.0432 0.0433
3431.000000 0.0433 0.0433 0.0433 0.0433 0.0434
3436.000000 0.0434 0.0435 0.0435 0.0436 0.0436
3441.000000 0.0436 0.0437 0.0437 0.0438 0.0438
3446.000000 0.0439 0.0440 0.0440 0.0441 0.0442
3451.000000 0.0442 0.0443 0.0443 0.0444 0.0445
3456.000000 0.0445 0.0446 0.0447 0.0447 0.0448
3461.000000 0.0449 0.0450 0.0451 0.0452 0.0452
3466.000000 0.0453 0.0454 0.0455 0.0457 0.0459
3471.000000 0.0460 0.0462 0.0464 0.0466 0.0468
3476.000000 0.0470 0.0472 0.0474 0.0477 0.0479
3481.000000 0.0481 0.0483 0.0486 0.0490 0.0493
3486.000000 0.0497 0.0500 0.0504 0.0508 0.0512
3491.000000 0.0515 0.0519 0.0523 0.0527 0.0531
3496.000000 0.0535 0.0539 0.0544 0.0550 0.0555
3501.000000 0.0560 0.0567 0.0574 0.0580 0.0587
3506.000000 0.0594 0.0602 0.0609 0.0617 0.0624
3511.000000 0.0632 0.0640 0.0648 0.0656 0.0664
3516.000000 0.0672 0.0680 0.0689 0.0697 0.0705
3521.000000 0.0713 0.0725 0.0736 0.0748 0.0760
3526.000000 0.0771 0.0783 0.0795 0.0808 0.0820
3531.000000 0.0832 0.0844 0.0856 0.0868 0.0880
3536.000000 0.0893 0.0932 0.0973 0.1014 0.1055
3541.000000 0.1096 0.1117 0.1136 0.1155 0.1174
3546.000000 0.1193 0.1212 0.1231 0.1250 0.1269
3551.000000 0.1288 0.1307 0.1326 0.1345 0.1364
3556.000000 0.1383 0.1402 0.1420 0.1439 0.1458
3561.000000 0.1477 0.1496 0.1515 0.1533 0.1552
3566.000000 0.1571 0.1590 0.1609 0.1628 0.1647
3571.000000 0.1665 0.1684 0.1703 0.1722 0.1741
3576.000000 0.1759 0.1778 0.1797 0.1815 0.1834
3581.000000 0.1852 0.1871 0.1889 0.1908 0.1927
3586.000000 0.1946 0.1964 0.1983 0.2001 0.2020
3591.000000 0.2039 0.2057 0.2069 0.2082 0.2094
3596.000000 0.2107 0.2119 0.2127 0.2135 0.2143
3601.000000 0.2150 0.2158 0.2166 0.2174 0.2181
3606.000000 0.2189 0.2197 0.2222 0.2264 0.2307
3611.000000 0.2349 0.2392 0.2430 0.2455 0.2481
3616.000000 0.2507 0.2532 0.2558 0.2583 0.2608
3621.000000 0.2633 0.2658 0.2683 0.2728 0.2779
3626.000000 0.2829 0.2880 0.2930 0.2962 0.2980
3631.000000 0.2998 0.3015 0.3033 0.3048 0.3056
3636.000000 0.3064 0.3072 0.3079 0.3087 0.3093
3641.000000 0.3100 0.3106 0.3112 0.3118 0.3122
3646.000000 0.3125 0.3129 0.3132 0.3135 0.3138
3651.000000 0.3140 0.3141 0.3143 0.3145 0.3147
3656.000000 0.3148 0.3150 0.3152 0.3153 0.3155
3661.000000 0.3157 0.3158 0.3160 0.3162 0.3163
3666.000000 0.3165 0.3166 0.3167 0.3168 0.3169
3671.000000 0.3169 0.3170 0.3171 0.3172 0.3173
3676.000000 0.3174 0.3175 0.3175 0.3176 0.3176
3681.000000 0.3177 0.3178 0.3178 0.3178 0.3179
3686.000000 0.3179 0.3179 0.3180 0.3180 0.3180
3691.000000 0.3181 0.3181 0.3182 0.3182 0.3182
3696.000000 0.3182 0.3182 0.3182 0.3183 0.3183
3701.000000 0.3184 0.3184 0.3184 0.3185 0.3185
3706.000000 0.3185 0.3185 0.3185 0.3185 0.3186
3711.000000 0.3186 0.3186 0.3186 0.3186 0.3187
3716.000000 0.3187 0.3187 0.3187 0.3187 0.3187
3721.000000 0.3186 0.3188 0.3188 0.3188 0.3188
3726.000000 0.3189 0.3189 0.3189 0.3189 0.3189
3731.000000 0.3189 0.3190 0.3190 0.3190 0.3190
3736.000000 0.3190 0.3190 0.3190 0.3190 0.3190
3741.000000 0.3190 0.3190 0.3191 0.3191 0.3191
3746.000000 0.3191 0.3191 0.3191 0.3190 0.3190
3751.000000 0.3190 0.3190 0.3190 0.3189 0.3189
3756.000000 0.3189 0.3189 0.3189 0.3189 0.3188
3761.000000 0.3188 0.3188 0.3188 0.3188 0.3188
3766.000000 0.3187 0.3187 0.3187 0.3187 0.3187
3771.000000 0.3186 0.3186 0.3186 0.3186 0.3186
3776.000000 0.3186 0.3185 0.3185 0.3185 0.3184
3781.000000 0.3184 0.3184 0.3183 0.3183 0.3182
3786.000000 0.3181 0.3181 0.3180 0.3180 0.3180
3791.000000 0.3179 0.3179 0.3179 0.3178 0.3178
3796.000000 0.3177 0.3177 0.3176 0.3176 0.3175
3801.000000 0.3175 0.3175 0.3174 0.3174 0.3174
3806.000000 0.3173 0.3173 0.3172 0.3172 0.3171
3811.000000 0.3170 0.3169 0.3168 0.3167 0.3166
3816.000000 0.3165 0.3164 0.3163 0.3163 0.3162
3821.000000 0.3161 0.3160 0.3159 0.3158 0.3157
3826.000000 0.3157 0.3156 0.3155 0.3154 0.3153
3831.000000 0.3152 0.3152 0.3151 0.3150 0.3149
3836.000000 0.3148 0.3147 0.3146 0.3145 0.3144
3841.000000 0.3143 0.3142 0.3141 0.3140 0.3139
3846.000000 0.3139 0.3138 0.3137 0.3136 0.3135
3851.000000 0.3134 0.3134 0.3133 0.3132 0.3131
3856.000000 0.3130 0.3129 0.3128 0.3127 0.3126
3861.000000 0.3125 0.3124 0.3123 0.3122 0.3122
3866.000000 0.3121 0.3120 0.3119 0.3118 0.3117
3871.000000 0.3116 0.3115 0.3114 0.3113 0.3112
3876.000000 0.3111 0.3111 0.3110 0.3109 0.3108
3881.000000 0.3107 0.3106 0.3106 0.3105 0.3104
3886.000000 0.3103 0.3102 0.3102 0.3101 0.3100
3891.000000 0.3099 0.3098 0.3097 0.3096 0.3095
3896.000000 0.3094 0.3093 0.3092 0.3091 0.3091
3901.000000 0.3090 0.3090 0.3090 0.3089 0.3089
3906.000000 0.3089 0.3088 0.3088 0.3087 0.3087
3911.000000 0.3086 0.3086 0.3085 0.3085 0.3085
3916.000000 0.3084 0.3084 0.3084 0.3083 0.3083
3921.000000 0.3083 0.3082 0.3082 0.3082 0.3081
3926.000000 0.3081 0.3081 0.3080 0.3080 0.3080
3931.000000 0.3079 0.3079 0.3079 0.3079 0.3079
3936.000000 0.3079 0.3079 0.3078 0.3078 0.3078
3941.000000 0.3077 0.3077 0.3077 0.3076 0.3076
3946.000000 0.3076 0.3076 0.3076 0.3076 0.3075
3951.000000 0.3075 0.3075 0.3074 0.3074 0.3074
3956.000000 0.3073 0.3073 0.3073 0.3073 0.3073
3961.000000 0.3073 0.3072 0.3072 0.3072 0.3072
3966.000000 0.3071 0.3071 0.3071 0.3070 0.3070
3971.000000 0.3070 0.3070 0.3070 0.3070 0.3069
3976.000000 0.3069 0.3069 0.3068 0.3068 0.3068
3981.000000 0.3067 0.3067 0.3067 0.3067 0.3067
3986.000000 0.3067 0.3067 0.3066 0.3066 0.3066
3991.000000 0.3065 0.3065 0.3065 0.3065 0.3065
3996.000000 0.3065 0.3065 0.3065 0.3065 0.3065
##END=
