##TITLE=3-ACETOXY SALICYLIC ACID, PHENYL ESTER
##JCAMP-DX=4.24
##DATA TYPE=INFRARED SPECTRUM
##CLASS=COBLENTZ
##ORIGIN=DOW CHEMICAL COMPANY
##OWNER=COBLENTZ SOCIETY
Collection (C) 2018 copyright by the U.S. Secretary of Commerce
on behalf of the United States of America. All rights reserved.
##DATE=Not specified, most likely prior to 1970
##NAMES=phenyl 3-(acetyloxy)-2-hydroxybenzoate
##MOLFORM=C15 H12 O5
##SOURCE REFERENCE=COBLENTZ NO. 4194
##$NIST ID=B6004194
##$NIST SOURCE=COBLENTZ
##$NIST IMAGE=cob4194
##SPECTROMETER/DATA SYSTEM=Not specified, most likely a prism, grating, or hybrid spectrometer.
##STATE=SOLUTION (SATURATED IN CCl4 FOR 5000-1350 CM^-^1, SATURATED IN CS2 FOR 1350-625 CM^-^1)
##PATH LENGTH=0.01 CM, 0.01 CM
$$SPECTRAL CONTAMINATION DUE TO CCl4 AROUND 1555 CM^-^1
##SAMPLING PROCEDURE=TRANSMISSION
##RESOLUTION=4
##DATA PROCESSING=DIGITIZED BY NIST FROM HARD COPY
##XUNITS=MICROMETERS
##YUNITS=TRANSMITTANCE
##XFACTOR=1.000000
##YFACTOR=1
##DELTAX=000.006536
##FIRSTX=2.039
##LASTX=15.9408
##FIRSTY=0.897
##MAXX=15.9408
##MINX=2.039
##MAXY=0.943
##MINY=0.03
##NPOINTS=2128
##XYDATA=(X++(Y..Y))
2.039000 0.8970 0.8970 0.8960 0.8960 0.8960
2.071695 0.8960 0.8960 0.8970 0.8970 0.8970
2.105000 0.8970 0.8970 0.8990 0.8990 0.9000
2.137695 0.9000 0.9000 0.9000 0.9000 0.9000
2.170000 0.9000 0.9000 0.9000 0.9020 0.9020
2.202695 0.9020 0.9020 0.9020 0.9020 0.9020
2.235000 0.9040 0.9040 0.9040 0.9040 0.9040
2.267695 0.9040 0.9040 0.9040 0.9040 0.9040
2.301000 0.9040 0.9050 0.9050 0.9050 0.9050
2.333695 0.9050 0.9050 0.9050 0.9050 0.9050
2.366000 0.9050 0.9050 0.9050 0.9070 0.9070
2.398695 0.9070 0.9070 0.9070 0.9070 0.9070
2.431000 0.9070 0.9070 0.9070 0.9070 0.9070
2.463695 0.9090 0.9090 0.9090 0.9090 0.9090
2.497000 0.9090 0.9070 0.9070 0.9070 0.9070
2.529695 0.9070 0.9050 0.9050 0.9050 0.9040
2.562000 0.9040 0.9040 0.9040 0.9040 0.9040
2.594695 0.9040 0.9040 0.9040 0.9040 0.9040
2.627000 0.9040 0.9040 0.9040 0.9040 0.9020
2.659695 0.9020 0.9000 0.9000 0.9000 0.9000
2.693000 0.9000 0.9020 0.9040 0.9040 0.9040
2.725695 0.9020 0.9000 0.9000 0.8990 0.8990
2.758000 0.8970 0.8970 0.8960 0.8960 0.8940
2.790695 0.8940 0.8920 0.8920 0.8890 0.8870
2.824000 0.8840 0.8810 0.8790 0.8780 0.8760
2.856695 0.8760 0.8760 0.8760 0.8760 0.8730
2.889000 0.8730 0.8700 0.8600 0.8530 0.8450
2.921695 0.8360 0.8270 0.8160 0.8050 0.7920
2.954000 0.7750 0.7610 0.7450 0.7280 0.7110
2.986695 0.6910 0.6780 0.6650 0.6470 0.6290
3.020000 0.5900 0.5690 0.5580 0.5500 0.5480
3.052695 0.5500 0.5610 0.5740 0.5900 0.6070
3.085000 0.6260 0.6460 0.6880 0.7090 0.7280
3.117695 0.7480 0.7640 0.7790 0.7900 0.7980
3.150000 0.8010 0.8110 0.8130 0.8190 0.8210
3.182695 0.8210 0.8190 0.8130 0.8110 0.8010
3.216000 0.8000 0.8000 0.8000 0.8010 0.8030
3.248695 0.8050 0.8100 0.8110 0.8180 0.8270
3.281000 0.8340 0.8400 0.8440 0.8500 0.8570
3.313695 0.8650 0.8660 0.8680 0.8680 0.8660
3.346000 0.8650 0.8650 0.8660 0.8660 0.8700
3.378695 0.8710 0.8710 0.8710 0.8730 0.8750
3.412000 0.8750 0.8780 0.8780 0.8790 0.8810
3.444695 0.8830 0.8830 0.8840 0.8870 0.8890
3.477000 0.8920 0.8940 0.8960 0.8990 0.9000
3.509695 0.9000 0.9020 0.9020 0.9040 0.9040
3.542000 0.9000 0.8970 0.8960 0.8960 0.8960
3.574695 0.8960 0.8970 0.8970 0.8970 0.8990
3.608000 0.8990 0.8990 0.8990 0.9000 0.9000
3.640695 0.9000 0.9020 0.9020 0.9040 0.9050
3.673000 0.9050 0.9050 0.9050 0.9050 0.9050
3.705695 0.9070 0.9070 0.9070 0.9070 0.9090
3.739000 0.9090 0.9090 0.9090 0.9090 0.9070
3.771695 0.9070 0.9070 0.9090 0.9090 0.9090
3.804000 0.9090 0.9120 0.9120 0.9120 0.9120
3.836695 0.9120 0.9120 0.9130 0.9130 0.9170
3.869000 0.9180 0.9220 0.9230 0.9230 0.9220
3.901695 0.9220 0.9200 0.9200 0.9200 0.9220
3.935000 0.9250 0.9280 0.9280 0.9280 0.9280
3.967695 0.9260 0.9260 0.9260 0.9260 0.9280
4.000000 0.9280 0.9300 0.9300 0.9300 0.9300
4.032695 0.9280 0.9280 0.9250 0.9230 0.9230
4.065000 0.9230 0.9260 0.9260 0.9280 0.9300
4.097695 0.9300 0.9300 0.9260 0.9230 0.9230
4.131000 0.9220 0.9200 0.9200 0.9200 0.9170
4.163695 0.9150 0.9130 0.9090 0.9070 0.9050
4.196000 0.9040 0.9020 0.9000 0.8990 0.8970
4.228695 0.8960 0.8960 0.8940 0.8940 0.8940
4.261000 0.8940 0.8920 0.8910 0.8890 0.8890
4.293695 0.8890 0.8890 0.8870 0.8870 0.8870
4.327000 0.8870 0.8890 0.8920 0.8960 0.8990
4.359695 0.9020 0.9050 0.9070 0.9100 0.9130
4.392000 0.9170 0.9180 0.9200 0.9230 0.9260
4.424695 0.9280 0.9300 0.9310 0.9350 0.9360
4.458000 0.9390 0.9410 0.9430 0.9430 0.9430
4.490695 0.9430 0.9410 0.9390 0.9390 0.9360
4.523000 0.9350 0.9350 0.9330 0.9310 0.9310
4.555695 0.9300 0.9300 0.9300 0.9310 0.9310
4.588000 0.9330 0.9330 0.9330 0.9350 0.9350
4.620695 0.9380 0.9390 0.9390 0.9390 0.9390
4.654000 0.9390 0.9380 0.9380 0.9360 0.9350
4.686695 0.9330 0.9330 0.9310 0.9310 0.9310
4.719000 0.9330 0.9350 0.9380 0.9390 0.9410
4.751695 0.9410 0.9410 0.9430 0.9430 0.9430
4.784000 0.9410 0.9360 0.9360 0.9350 0.9330
4.816695 0.9310 0.9300 0.9300 0.9280 0.9280
4.850000 0.9280 0.9300 0.9310 0.9330 0.9330
4.882695 0.9330 0.9330 0.9310 0.9300 0.9300
4.915000 0.9280 0.9280 0.9280 0.9260 0.9260
4.947695 0.9250 0.9230 0.9230 0.9220 0.9220
4.980000 0.9200 0.9200 0.9220 0.9250 0.9250
5.012695 0.9250 0.9280 0.9280 0.9280 0.9260
5.046000 0.9250 0.9220 0.9200 0.9170 0.9120
5.078695 0.9070 0.9050 0.9070 0.9100 0.9150
5.111000 0.9250 0.9300 0.9300 0.9180 0.9100
5.143695 0.9070 0.9050 0.9070 0.9100 0.9130
5.176000 0.9150 0.9180 0.9200 0.9230 0.9230
5.208695 0.9230 0.9220 0.9200 0.9180 0.9180
5.242000 0.9180 0.9200 0.9250 0.9250 0.9230
5.274695 0.9200 0.9200 0.9180 0.9170 0.9170
5.307000 0.9150 0.9150 0.9130 0.9130 0.9120
5.339695 0.9100 0.9100 0.9100 0.9120 0.9130
5.373000 0.9150 0.9170 0.9170 0.9180 0.9180
5.405695 0.9180 0.9180 0.9180 0.9180 0.9150
5.438000 0.9150 0.9130 0.9120 0.9100 0.9040
5.470695 0.9000 0.9000 0.8990 0.8970 0.8970
5.503000 0.8990 0.9040 0.9090 0.9100 0.9120
5.535695 0.9120 0.9120 0.9120 0.9120 0.9120
5.569000 0.9120 0.9120 0.9120 0.9120 0.9100
5.601695 0.9040 0.9000 0.8990 0.8970 0.8960
5.634000 0.8910 0.8860 0.8810 0.8780 0.8730
5.666695 0.8700 0.8660 0.8630 0.8600 0.8570
5.699000 0.8520 0.8490 0.8420 0.8370 0.8310
5.731695 0.8240 0.8160 0.8050 0.7970 0.7840
5.765000 0.7670 0.7560 0.7410 0.7090 0.6730
5.797695 0.6520 0.6290 0.5810 0.5400 0.5000
5.830000 0.4560 0.4000 0.3660 0.3310 0.2370
5.862695 0.1730 0.1520 0.1370 0.1130 0.1080
5.895000 0.1130 0.1780 0.1990 0.2170 0.3130
5.927695 0.4430 0.4870 0.5220 0.5610 0.6070
5.961000 0.6310 0.6470 0.6550 0.6670 0.6650
5.993695 0.6630 0.6440 0.6340 0.6210 0.6050
6.026000 0.5860 0.5690 0.5560 0.5500 0.5480
6.058695 0.5500 0.5710 0.5920 0.6150 0.6410
6.092000 0.6720 0.6730 0.6720 0.6620 0.6500
6.124695 0.6200 0.5760 0.5320 0.4910 0.4560
6.157000 0.4250 0.3970 0.3780 0.3630 0.3570
6.189695 0.3550 0.3490 0.3400 0.3360 0.3290
6.222000 0.3180 0.3030 0.2870 0.2660 0.2560
6.254695 0.2460 0.2330 0.2270 0.2190 0.2090
6.288000 0.2070 0.2090 0.2220 0.2250 0.2380
6.320695 0.2510 0.2640 0.2720 0.3030 0.3100
6.353000 0.3100 0.3060 0.2980 0.2880 0.2790
6.385695 0.2690 0.2580 0.2480 0.2380 0.2280
6.418000 0.2170 0.2120 0.2120 0.2150 0.2270
6.450695 0.2380 0.2480 0.2590 0.2660 0.2950
6.484000 0.3110 0.3240 0.3490 0.3600 0.3700
6.516695 0.3810 0.3940 0.4050 0.4120 0.4220
6.549000 0.4260 0.4360 0.4430 0.4480 0.4520
6.581695 0.4560 0.4590 0.4620 0.4670 0.4720
6.614000 0.4770 0.4780 0.4780 0.4780 0.4750
6.646695 0.4690 0.4570 0.4460 0.4260 0.3870
6.680000 0.3400 0.3050 0.2690 0.2110 0.2010
6.712695 0.1860 0.1720 0.1730 0.2120 0.2410
6.745000 0.2800 0.3160 0.3660 0.3810 0.3990
6.777695 0.4170 0.4350 0.4560 0.4780 0.5010
6.810000 0.5270 0.5550 0.5840 0.6150 0.6470
6.842695 0.6860 0.6910 0.6930 0.6960 0.7010
6.876000 0.7150 0.7300 0.7450 0.7540 0.7620
6.908695 0.7670 0.7620 0.7590 0.7460 0.7400
6.941000 0.7300 0.7190 0.7060 0.6960 0.6860
6.973695 0.6760 0.6730 0.6700 0.6670 0.6630
7.007000 0.6590 0.6540 0.6490 0.6440 0.6390
7.039695 0.6360 0.6290 0.6180 0.6070 0.5970
7.072000 0.5840 0.5680 0.5550 0.5450 0.5340
7.104695 0.5210 0.5090 0.4960 0.4850 0.4770
7.137000 0.4720 0.4690 0.4690 0.4720 0.4780
7.169695 0.4870 0.5040 0.5190 0.5300 0.5400
7.203000 0.5500 0.5600 0.5710 0.5840 0.5860
7.235695 0.5950 0.6020 0.6050 0.6080 0.6120
7.268000 0.6130 0.6180 0.6210 0.6280 0.6340
7.300695 0.6420 0.6520 0.6650 0.6880 0.6930
7.333000 0.6960 0.6980 0.6980 0.6980 0.6960
7.365695 0.6930 0.6890 0.6880 0.6810 0.6720
7.399000 0.6600 0.6470 0.6230 0.5950 0.5610
7.431695 0.5250 0.4870 0.4480 0.4050 0.3860
7.464000 0.3620 0.3600 0.3600 0.3700 0.3810
7.496695 0.3860 0.3890 0.3940 0.3970 0.3970
7.529000 0.3910 0.3810 0.3710 0.3570 0.3420
7.561695 0.3360 0.3270 0.3140 0.2980 0.2800
7.595000 0.2610 0.2380 0.2110 0.1860 0.1670
7.627695 0.1630 0.1460 0.1150 0.0970 0.0790
7.660000 0.0730 0.0630 0.0600 0.0630 0.0820
7.692695 0.1020 0.1260 0.1500 0.1860 0.2170
7.725000 0.2460 0.2690 0.2900 0.3080 0.3210
7.757695 0.3310 0.3420 0.3550 0.3700 0.3890
7.791000 0.4090 0.4280 0.4480 0.4610 0.4700
7.823695 0.4770 0.4820 0.4870 0.4930 0.5000
7.856000 0.5060 0.5140 0.5220 0.5290 0.5290
7.888695 0.5220 0.5090 0.4930 0.4700 0.4410
7.922000 0.4040 0.3620 0.3360 0.3100 0.2720
7.954695 0.2150 0.1650 0.1230 0.1050 0.0860
7.987000 0.0710 0.0560 0.0550 0.0580 0.0770
8.019695 0.0900 0.1070 0.1360 0.1600 0.1890
8.052000 0.2140 0.2460 0.2750 0.2950 0.3160
8.084695 0.3290 0.3370 0.3360 0.3340 0.3310
8.118000 0.3260 0.3210 0.3160 0.3130 0.3100
8.150695 0.3010 0.3000 0.3010 0.3100 0.3130
8.183000 0.3180 0.3190 0.3180 0.3160 0.3060
8.215695 0.2950 0.2820 0.2620 0.2410 0.2150
8.248000 0.1930 0.1650 0.1370 0.1230 0.1050
8.280695 0.0920 0.0860 0.0820 0.0870 0.0940
8.314000 0.1100 0.1410 0.1730 0.2060 0.2370
8.346695 0.2670 0.2950 0.3190 0.3530 0.3600
8.379000 0.3700 0.3780 0.3790 0.3790 0.3790
8.411695 0.3750 0.3710 0.3700 0.3680 0.3660
8.444000 0.3650 0.3650 0.3660 0.3730 0.3830
8.476695 0.3920 0.4040 0.4170 0.4280 0.4390
8.510000 0.4510 0.4590 0.4610 0.4610 0.4590
8.542695 0.4510 0.4390 0.4200 0.3940 0.3650
8.575000 0.3490 0.3310 0.3100 0.2720 0.2320
8.607695 0.1960 0.1620 0.1280 0.1000 0.0990
8.641000 0.1000 0.1200 0.1460 0.1850 0.2350
8.673695 0.2750 0.3140 0.3750 0.3890 0.3920
8.706000 0.3910 0.3830 0.3650 0.3390 0.3180
8.738695 0.2950 0.2510 0.2110 0.1860 0.1470
8.771000 0.1210 0.0970 0.0790 0.0630 0.0510
8.803695 0.0320 0.0300 0.0300 0.0320 0.0380
8.837000 0.0470 0.0580 0.0710 0.1000 0.1260
8.869695 0.1500 0.1810 0.2190 0.2530 0.2870
8.902000 0.3190 0.3780 0.4050 0.4330 0.4570
8.934695 0.4820 0.5030 0.5240 0.5430 0.5610
8.967000 0.5790 0.5940 0.6080 0.6210 0.6330
8.999695 0.6440 0.6520 0.6860 0.6930 0.6960
9.033000 0.7010 0.7110 0.7190 0.7250 0.7350
9.065695 0.7400 0.7460 0.7510 0.7540 0.7590
9.098000 0.7620 0.7640 0.7690 0.7710 0.7720
9.130695 0.7740 0.7740 0.7740 0.7740 0.7720
9.163000 0.7690 0.7670 0.7620 0.7590 0.7560
9.195695 0.7410 0.7320 0.7250 0.7170 0.7070
9.229000 0.6930 0.6700 0.6650 0.6590 0.6490
9.261695 0.6420 0.6360 0.6290 0.6210 0.6150
9.294000 0.6030 0.5920 0.5770 0.5600 0.5400
9.326695 0.5160 0.4870 0.4560 0.4200 0.3790
9.359000 0.3400 0.3230 0.3050 0.2710 0.2450
9.391695 0.2150 0.1910 0.1620 0.1500 0.1470
9.425000 0.1470 0.1500 0.1650 0.1880 0.2140
9.457695 0.2430 0.2740 0.3050 0.3660 0.3920
9.490000 0.4150 0.4440 0.4720 0.5060 0.5420
9.522695 0.5690 0.5920 0.6130 0.6290 0.6460
9.556000 0.6630 0.6990 0.7060 0.7190 0.7200
9.588695 0.7200 0.7140 0.7110 0.7020 0.6910
9.621000 0.6760 0.6700 0.6620 0.6440 0.6340
9.653695 0.6200 0.6160 0.6160 0.6200 0.6410
9.686000 0.6650 0.7150 0.7330 0.7460 0.7560
9.718695 0.7620 0.7670 0.7690 0.7690 0.7690
9.752000 0.7710 0.7720 0.7770 0.7790 0.7800
9.784695 0.7840 0.7870 0.7930 0.8010 0.8030
9.817000 0.8050 0.8080 0.8100 0.8110 0.8130
9.849695 0.8160 0.8180 0.8180 0.8140 0.8100
9.882000 0.8010 0.7950 0.7750 0.7640 0.7500
9.914695 0.7410 0.7370 0.7350 0.7370 0.7460
9.948000 0.7690 0.7850 0.8030 0.8140 0.8210
9.980695 0.8260 0.8290 0.8310 0.8310 0.8310
10.013000 0.8310 0.8310 0.8310 0.8290 0.8290
10.045695 0.8270 0.8230 0.8210 0.8190 0.8180
10.078000 0.8130 0.8080 0.8000 0.7950 0.7840
10.110695 0.7740 0.7590 0.7460 0.7370 0.7300
10.144000 0.7200 0.7120 0.7070 0.7020 0.7010
10.176695 0.7020 0.7140 0.7250 0.7330 0.7460
10.209000 0.7610 0.7740 0.7840 0.7930 0.8000
10.241695 0.8050 0.8100 0.8130 0.8180 0.8190
10.275000 0.8240 0.8260 0.8260 0.8270 0.8270
10.307695 0.8270 0.8270 0.8270 0.8270 0.8270
10.340000 0.8260 0.8260 0.8240 0.8230 0.8230
10.372695 0.8240 0.8240 0.8260 0.8260 0.8260
10.405000 0.8240 0.8230 0.8190 0.8180 0.8110
10.437695 0.8080 0.8010 0.7980 0.7900 0.7840
10.471000 0.7750 0.7660 0.7590 0.7500 0.7410
10.503695 0.7380 0.7380 0.7320 0.7300 0.7300
10.536000 0.7280 0.7280 0.7270 0.7250 0.7250
10.568695 0.7240 0.7220 0.7220 0.7200 0.7190
10.601000 0.7140 0.7110 0.7090 0.7090 0.7090
10.633695 0.7090 0.7110 0.7170 0.7250 0.7320
10.667000 0.7450 0.7530 0.7610 0.7690 0.7720
10.699695 0.7770 0.7800 0.7870 0.7900 0.7950
10.732000 0.8000 0.8010 0.8050 0.8080 0.8080
10.764695 0.8100 0.8130 0.8140 0.8140 0.8160
10.797000 0.8180 0.8180 0.8180 0.8180 0.8180
10.829695 0.8180 0.8180 0.8180 0.8160 0.8160
10.863000 0.8140 0.8140 0.8130 0.8130 0.8110
10.895695 0.8100 0.8080 0.8060 0.8050 0.8050
10.928000 0.8000 0.8000 0.7980 0.7970 0.7950
10.960695 0.7920 0.7880 0.7870 0.7840 0.7800
10.993000 0.7770 0.7710 0.7620 0.7530 0.7460
11.025695 0.7450 0.7400 0.7320 0.7220 0.7150
11.059000 0.7010 0.6910 0.6800 0.6700 0.6650
11.091695 0.6600 0.6540 0.6460 0.6360 0.6280
11.124000 0.6200 0.6100 0.6020 0.5990 0.5920
11.156695 0.5890 0.5820 0.5790 0.5770 0.5740
11.190000 0.5740 0.5730 0.5730 0.5730 0.5730
11.222695 0.5730 0.5740 0.5740 0.5760 0.5770
11.255000 0.5790 0.5810 0.5820 0.5840 0.5860
11.287695 0.5870 0.5890 0.5900 0.5940 0.5950
11.320000 0.5950 0.5970 0.5970 0.5970 0.5970
11.352695 0.5970 0.5970 0.5970 0.5950 0.5950
11.386000 0.5940 0.5920 0.5900 0.5870 0.5860
11.418695 0.5840 0.5810 0.5790 0.5770 0.5740
11.451000 0.5730 0.5690 0.5680 0.5630 0.5600
11.483695 0.5580 0.5530 0.5500 0.5480 0.5400
11.516000 0.5320 0.5290 0.5210 0.5120 0.5040
11.548695 0.4960 0.4850 0.4750 0.4670 0.4590
11.582000 0.4510 0.4460 0.4390 0.4380 0.4380
11.614695 0.4380 0.4390 0.4440 0.4480 0.4510
11.647000 0.4570 0.4590 0.4620 0.4670 0.4690
11.679695 0.4720 0.4740 0.4770 0.4780 0.4800
11.712000 0.4820 0.4880 0.4880 0.4950 0.5000
11.744695 0.5040 0.5090 0.5140 0.5190 0.5240
11.778000 0.5300 0.5320 0.5370 0.5450 0.5550
11.810695 0.5660 0.5740 0.5760 0.5840 0.5900
11.843000 0.5990 0.6050 0.6180 0.6250 0.6360
11.875695 0.6440 0.6540 0.6620 0.6800 0.6860
11.908000 0.6910 0.6960 0.6990 0.7040 0.7070
11.940695 0.7110 0.7120 0.7150 0.7170 0.7190
11.974000 0.7200 0.7220 0.7240 0.7240 0.7250
12.006695 0.7270 0.7280 0.7280 0.7300 0.7300
12.039000 0.7300 0.7320 0.7320 0.7320 0.7320
12.071695 0.7300 0.7300 0.7300 0.7300 0.7280
12.105000 0.7270 0.7250 0.7240 0.7200 0.7190
12.137695 0.7170 0.7170 0.7150 0.7140 0.7120
12.170000 0.7110 0.7110 0.7110 0.7110 0.7110
12.202695 0.7110 0.7120 0.7140 0.7150 0.7170
12.235000 0.7190 0.7200 0.7220 0.7240 0.7240
12.267695 0.7250 0.7250 0.7250 0.7250 0.7240
12.301000 0.7220 0.7200 0.7190 0.7170 0.7150
12.333695 0.7140 0.7120 0.7110 0.7090 0.7070
12.366000 0.7060 0.7040 0.7020 0.7010 0.6990
12.398695 0.6980 0.6960 0.6940 0.6910 0.6890
12.431000 0.6880 0.6850 0.6810 0.6800 0.6780
12.463695 0.6730 0.6700 0.6680 0.6670 0.6630
12.497000 0.6600 0.6570 0.6520 0.6490 0.6470
12.529695 0.6410 0.6370 0.6290 0.6210 0.6180
12.562000 0.6100 0.6000 0.5940 0.5870 0.5820
12.594695 0.5760 0.5690 0.5610 0.5550 0.5510
12.627000 0.5500 0.5480 0.5470 0.5470 0.5470
12.659695 0.5480 0.5500 0.5510 0.5530 0.5560
12.693000 0.5600 0.5630 0.5660 0.5680 0.5680
12.725695 0.5690 0.5710 0.5760 0.5790 0.5810
12.758000 0.5860 0.5870 0.5890 0.5940 0.5970
12.790695 0.5990 0.6000 0.6020 0.6050 0.6050
12.824000 0.6080 0.6080 0.6070 0.6070 0.6020
12.856695 0.5990 0.5950 0.5870 0.5790 0.5710
12.889000 0.5640 0.5550 0.5430 0.5270 0.5190
12.921695 0.5030 0.4950 0.4770 0.4650 0.4540
12.954000 0.4390 0.4260 0.4180 0.4090 0.3990
12.986695 0.3970 0.3970 0.4000 0.4150 0.4250
13.020000 0.4360 0.4480 0.4570 0.4690 0.4800
13.052695 0.4900 0.4980 0.5060 0.5120 0.5140
13.085000 0.5160 0.5140 0.5090 0.5040 0.4950
13.117695 0.4740 0.4590 0.4430 0.4050 0.3890
13.150000 0.3580 0.3440 0.3290 0.2950 0.2670
13.182695 0.2350 0.2040 0.1780 0.1520 0.1280
13.216000 0.1020 0.0840 0.0770 0.0730 0.0730
13.248695 0.0790 0.1000 0.1250 0.1520 0.1800
13.281000 0.2090 0.2380 0.2690 0.3000 0.3310
13.313695 0.3890 0.4170 0.4430 0.4670 0.4870
13.346000 0.5040 0.5240 0.5450 0.5580 0.5680
13.378695 0.5770 0.5860 0.5940 0.6030 0.6120
13.412000 0.6230 0.6340 0.6370 0.6440 0.6470
13.444695 0.6520 0.6570 0.6630 0.6700 0.6720
13.477000 0.6760 0.6780 0.6800 0.6810 0.6830
13.509695 0.6850 0.6860 0.6860 0.6880 0.6880
13.542000 0.6880 0.6880 0.6880 0.6880 0.6880
13.574695 0.6880 0.6880 0.6860 0.6860 0.6850
13.608000 0.6830 0.6810 0.6800 0.6780 0.6760
13.640695 0.6750 0.6730 0.6720 0.6680 0.6670
13.673000 0.6650 0.6630 0.6620 0.6590 0.6570
13.705695 0.6570 0.6520 0.6490 0.6470 0.6460
13.739000 0.6440 0.6420 0.6410 0.6390 0.6370
13.771695 0.6340 0.6330 0.6330 0.6310 0.6290
13.804000 0.6280 0.6250 0.6230 0.6210 0.6180
13.836695 0.6150 0.6120 0.6100 0.6080 0.6030
13.869000 0.6000 0.5990 0.5970 0.5950 0.5920
13.901695 0.5890 0.5870 0.5840 0.5790 0.5760
13.935000 0.5740 0.5710 0.5690 0.5680 0.5640
13.967695 0.5610 0.5600 0.5580 0.5530 0.5510
14.000000 0.5450 0.5370 0.5300 0.5240 0.5210
14.032695 0.5170 0.5110 0.5080 0.5000 0.4980
14.065000 0.4950 0.4870 0.4780 0.4700 0.4670
14.097695 0.4610 0.4570 0.4490 0.4440 0.4380
14.131000 0.4300 0.4230 0.4150 0.4070 0.3990
14.163695 0.3940 0.3870 0.3790 0.3650 0.3600
14.196000 0.3470 0.3340 0.3270 0.3190 0.3110
14.228695 0.3010 0.2880 0.2770 0.2640 0.2530
14.261000 0.2410 0.2300 0.2220 0.2150 0.2040
14.293695 0.1990 0.1890 0.1850 0.1780 0.1760
14.327000 0.1720 0.1700 0.1700 0.1720 0.1730
14.359695 0.1780 0.1810 0.1880 0.1930 0.1980
14.392000 0.2040 0.2090 0.2170 0.2240 0.2270
14.424695 0.2320 0.2380 0.2410 0.2460 0.2500
14.458000 0.2530 0.2540 0.2580 0.2590 0.2610
14.490695 0.2610 0.2620 0.2620 0.2640 0.2640
14.523000 0.2640 0.2620 0.2610 0.2590 0.2580
14.555695 0.2560 0.2530 0.2530 0.2510 0.2500
14.588000 0.2480 0.2480 0.2480 0.2460 0.2460
14.620695 0.2460 0.2460 0.2450 0.2450 0.2450
14.654000 0.2460 0.2460 0.2460 0.2480 0.2500
14.686695 0.2510 0.2540 0.2560 0.2580 0.2610
14.719000 0.2620 0.2660 0.2690 0.2710 0.2720
14.751695 0.2750 0.2790 0.2820 0.2840 0.2850
14.784000 0.2870 0.2880 0.2900 0.2920 0.2930
14.816695 0.2970 0.2970 0.2980 0.2980 0.2980
14.850000 0.2980 0.2980 0.2980 0.2970 0.2970
14.882695 0.2950 0.2950 0.2930 0.2920 0.2920
14.915000 0.2920 0.2900 0.2900 0.2900 0.2900
14.947695 0.2920 0.2930 0.2950 0.2980 0.3010
14.980000 0.3030 0.3060 0.3080 0.3110 0.3140
15.012695 0.3160 0.3180 0.3210 0.3270 0.3310
15.046000 0.3320 0.3390 0.3400 0.3440 0.3470
15.078695 0.3490 0.3520 0.3530 0.3580 0.3600
15.111000 0.3620 0.3630 0.3650 0.3650 0.3680
15.143695 0.3680 0.3700 0.3700 0.3710 0.3730
15.176000 0.3730 0.3750 0.3750 0.3760 0.3760
15.208695 0.3760 0.3760 0.3760 0.3760 0.3760
15.242000 0.3760 0.3760 0.3760 0.3760 0.3760
15.274695 0.3760 0.3760 0.3760 0.3760 0.3760
15.307000 0.3750 0.3750 0.3730 0.3730 0.3730
15.339695 0.3730 0.3730 0.3710 0.3710 0.3710
15.373000 0.3710 0.3710 0.3710 0.3710 0.3700
15.405695 0.3700 0.3680 0.3680 0.3680 0.3680
15.438000 0.3680 0.3680 0.3680 0.3680 0.3660
15.470695 0.3660 0.3660 0.3660 0.3660 0.3660
15.503000 0.3660 0.3660 0.3660 0.3650 0.3650
15.535695 0.3650 0.3630 0.3620 0.3620 0.3620
15.569000 0.3620 0.3620 0.3600 0.3600 0.3600
15.601695 0.3600 0.3580 0.3580 0.3580 0.3580
15.634000 0.3580 0.3570 0.3570 0.3570 0.3550
15.666695 0.3530 0.3520 0.3520 0.3520 0.3500
15.699000 0.3500 0.3500 0.3490 0.3490 0.3490
15.731695 0.3470 0.3470 0.3470 0.3470 0.3440
15.765000 0.3440 0.3440 0.3420 0.3420 0.3420
15.797695 0.3420 0.3400 0.3390 0.3390 0.3390
15.830000 0.3370 0.3370 0.3370 0.3370 0.3370
15.862695 0.3370 0.3370 0.3390 0.3400 0.3400
15.895000 0.3420 0.3420 0.3450 0.3450 0.3490
15.927695 0.3500 0.3500 0.3500
##END=
