##TITLE=Thallium, (2,4-pentanedinato)-
##JCAMP-DX=4.24
$$ By DXEDIT 1.05 (RS McDonald)
##DATA TYPE=INFRARED SPECTRUM
##CLASS=COBLENTZ II
##ORIGIN=DOW CHEMICAL COMPANY
##OWNER=COPYRIGHT (C) 1988 by COBLENTZ SOCIETY INC.
Collection (C) 2018 copyright by the U.S. Secretary of Commerce
on behalf of the United States of America. All rights reserved.
##DATE=1965/03/28
##MOLFORM=C5 H7 O2 Tl
##MP=154 C (DECOMPOSES)
##SOURCE REFERENCE=COBLENTZ NO. 08941
##$NIST ID=B6008941
##$NIST SOURCE=COBLENTZ
##$NIST IMAGE=cob8941
##SPECTROMETER/DATA SYSTEM=BECKMAN IR-9 (GRATING)
##INSTRUMENT PARAMETERS=ORDER CHANGES: 670, 1200, 2000 CM^-^1
##STATE=SOLID (SPLIT MULL), FLUOROLUBE FOR 3800-1330 CM^-^1, NUJOL FOR 1330-400 CM^-^1
##SAMPLING PROCEDURE=TRANSMISSION
##RESOLUTION=2
##DATA PROCESSING=DIGITIZED BY COBLENTZ SOCIETY (BATCH I) FROM HARD COPY
##XUNITS=1/CM
##YUNITS=TRANSMITTANCE
##XFACTOR=1
##YFACTOR=1
##DELTAX=1
##FIRSTX=3800
##LASTX=399
##FIRSTY=0.5751
##MAXX=3800
##MINX=399
##MAXY=0.8834
##MINY=0.0745
##NPOINTS=3402
##XYDATA=(X++(Y..Y))
3800.000000 0.5751 0.5751 0.5752 0.5752 0.5753
3795.000000 0.5753 0.5754 0.5754 0.5755 0.5755
3790.000000 0.5755 0.5755 0.5755 0.5755 0.5755
3785.000000 0.5755 0.5756 0.5757 0.5759 0.5760
3780.000000 0.5760 0.5762 0.5762 0.5764 0.5765
3775.000000 0.5766 0.5767 0.5768 0.5770 0.5773
3770.000000 0.5776 0.5779 0.5782 0.5785 0.5789
3765.000000 0.5792 0.5795 0.5798 0.5801 0.5804
3760.000000 0.5808 0.5810 0.5814 0.5817 0.5821
3755.000000 0.5824 0.5827 0.5830 0.5834 0.5837
3750.000000 0.5840 0.5843 0.5847 0.5850 0.5854
3745.000000 0.5857 0.5860 0.5862 0.5867 0.5870
3740.000000 0.5873 0.5875 0.5877 0.5878 0.5880
3735.000000 0.5882 0.5884 0.5886 0.5888 0.5889
3730.000000 0.5891 0.5893 0.5895 0.5897 0.5899
3725.000000 0.5900 0.5902 0.5904 0.5906 0.5908
3720.000000 0.5910 0.5912 0.5914 0.5915 0.5917
3715.000000 0.5918 0.5920 0.5921 0.5923 0.5924
3710.000000 0.5926 0.5927 0.5928 0.5929 0.5931
3705.000000 0.5932 0.5934 0.5935 0.5937 0.5938
3700.000000 0.5940 0.5941 0.5943 0.5944 0.5945
3695.000000 0.5946 0.5948 0.5949 0.5950 0.5950
3690.000000 0.5951 0.5951 0.5952 0.5952 0.5953
3685.000000 0.5954 0.5955 0.5955 0.5956 0.5956
3680.000000 0.5957 0.5957 0.5958 0.5958 0.5959
3675.000000 0.5959 0.5960 0.5960 0.5960 0.5962
3670.000000 0.5962 0.5962 0.5964 0.5965 0.5966
3665.000000 0.5967 0.5968 0.5969 0.5970 0.5971
3660.000000 0.5973 0.5974 0.5975 0.5976 0.5977
3655.000000 0.5978 0.5979 0.5980 0.5964 0.5982
3650.000000 0.5984 0.5985 0.5986 0.5986 0.5987
3645.000000 0.5987 0.5988 0.5988 0.5989 0.5990
3640.000000 0.5991 0.5991 0.5992 0.5992 0.5993
3635.000000 0.5993 0.5994 0.5994 0.5995 0.5996
3630.000000 0.5997 0.5998 0.5999 0.6000 0.6001
3625.000000 0.6001 0.6002 0.6003 0.6004 0.6005
3620.000000 0.6006 0.6007 0.6008 0.6008 0.6009
3615.000000 0.6009 0.6010 0.6010 0.6010 0.6010
3610.000000 0.6012 0.6012 0.6015 0.6016 0.6018
3605.000000 0.6019 0.6021 0.6021 0.6021 0.6019
3600.000000 0.6018 0.6016 0.6015 0.6008 0.6002
3595.000000 0.5995 0.5988 0.5983 0.5978 0.5972
3590.000000 0.5967 0.5969 0.5971 0.5974 0.5977
3585.000000 0.5986 0.5995 0.6006 0.6017 0.6024
3580.000000 0.6032 0.6035 0.6039 0.6042 0.6046
3575.000000 0.6049 0.6053 0.6056 0.6059 0.6060
3570.000000 0.6060 0.6062 0.6062 0.6064 0.6065
3565.000000 0.6066 0.6067 0.6068 0.6069 0.6070
3560.000000 0.6071 0.6072 0.6073 0.6074 0.6075
3555.000000 0.6076 0.6077 0.6078 0.6079 0.6080
3550.000000 0.6081 0.6081 0.6082 0.6082 0.6082
3545.000000 0.6082 0.6083 0.6083 0.6084 0.6084
3540.000000 0.6085 0.6085 0.6086 0.6086 0.6086
3535.000000 0.6086 0.6087 0.6087 0.6088 0.6088
3530.000000 0.6089 0.6089 0.6089 0.6089 0.6090
3525.000000 0.6090 0.6091 0.6091 0.6092 0.6092
3520.000000 0.6093 0.6093 0.6093 0.6093 0.6094
3515.000000 0.6094 0.6094 0.6094 0.6094 0.6094
3510.000000 0.6094 0.6094 0.6094 0.6093 0.6093
3505.000000 0.6093 0.6093 0.6093 0.6093 0.6092
3500.000000 0.6092 0.6092 0.6092 0.6092 0.6092
3495.000000 0.6091 0.6091 0.6091 0.6091 0.6091
3490.000000 0.6091 0.6090 0.6090 0.6090 0.6090
3485.000000 0.6090 0.6090 0.6089 0.6089 0.6089
3480.000000 0.6089 0.6089 0.6089 0.6088 0.6088
3475.000000 0.6088 0.6088 0.6087 0.6087 0.6087
3470.000000 0.6087 0.6087 0.6088 0.6089 0.6090
3465.000000 0.6091 0.6092 0.6093 0.6094 0.6095
3460.000000 0.6096 0.6097 0.6098 0.6099 0.6100
3455.000000 0.6101 0.6102 0.6103 0.6104 0.6105
3450.000000 0.6106 0.6106 0.6107 0.6108 0.6109
3445.000000 0.6110 0.6110 0.6112 0.6112 0.6114
3440.000000 0.6115 0.6116 0.6117 0.6118 0.6119
3435.000000 0.6120 0.6121 0.6122 0.6123 0.6124
3430.000000 0.6125 0.6126 0.6127 0.6128 0.6129
3425.000000 0.6130 0.6132 0.6133 0.6134 0.6135
3420.000000 0.6137 0.6138 0.6139 0.6140 0.6141
3415.000000 0.6142 0.6144 0.6145 0.6146 0.6147
3410.000000 0.6149 0.6150 0.6151 0.6152 0.6154
3405.000000 0.6155 0.6156 0.6157 0.6158 0.6159
3400.000000 0.6160 0.6162 0.6162 0.6164 0.6166
3395.000000 0.6167 0.6168 0.6169 0.6170 0.6171
3390.000000 0.6173 0.6174 0.6175 0.6176 0.6178
3385.000000 0.6179 0.6180 0.6181 0.6183 0.6184
3380.000000 0.6186 0.6187 0.6188 0.6189 0.6191
3375.000000 0.6192 0.6193 0.6194 0.6196 0.6197
3370.000000 0.6198 0.6199 0.6201 0.6202 0.6204
3365.000000 0.6205 0.6206 0.6207 0.6209 0.6210
3360.000000 0.6210 0.6212 0.6215 0.6217 0.6219
3355.000000 0.6220 0.6222 0.6224 0.6226 0.6227
3350.000000 0.6229 0.6231 0.6233 0.6235 0.6237
3345.000000 0.6238 0.6240 0.6242 0.6244 0.6246
3340.000000 0.6248 0.6249 0.6251 0.6253 0.6255
3335.000000 0.6257 0.6259 0.6260 0.6262 0.6264
3330.000000 0.6266 0.6267 0.6269 0.6270 0.6272
3325.000000 0.6273 0.6275 0.6276 0.6278 0.6280
3320.000000 0.6282 0.6283 0.6285 0.6286 0.6288
3315.000000 0.6289 0.6291 0.6292 0.6294 0.6295
3310.000000 0.6297 0.6298 0.6300 0.6301 0.6303
3305.000000 0.6304 0.6306 0.6308 0.6310 0.6310
3300.000000 0.6312 0.6314 0.6316 0.6317 0.6319
3295.000000 0.6320 0.6322 0.6323 0.6325 0.6326
3290.000000 0.6328 0.6329 0.6331 0.6332 0.6334
3285.000000 0.6335 0.6337 0.6338 0.6340 0.6342
3280.000000 0.6344 0.6345 0.6347 0.6348 0.6350
3275.000000 0.6351 0.6353 0.6354 0.6356 0.6357
3270.000000 0.6359 0.6360 0.6362 0.6362 0.6365
3265.000000 0.6366 0.6368 0.6369 0.6371 0.6372
3260.000000 0.6374 0.6375 0.6377 0.6378 0.6380
3255.000000 0.6381 0.6382 0.6383 0.6385 0.6386
3250.000000 0.6388 0.6389 0.6390 0.6391 0.6393
3245.000000 0.6394 0.6396 0.6397 0.6398 0.6399
3240.000000 0.6401 0.6401 0.6404 0.6405 0.6406
3235.000000 0.6407 0.6408 0.6410 0.6411 0.6412
3230.000000 0.6414 0.6415 0.6417 0.6418 0.6419
3225.000000 0.6421 0.6421 0.6422 0.6425 0.6425
3220.000000 0.6428 0.6428 0.6430 0.6431 0.6433
3215.000000 0.6434 0.6436 0.6437 0.6439 0.6440
3210.000000 0.6442 0.6443 0.6444 0.6445 0.6447
3205.000000 0.6448 0.6450 0.6451 0.6453 0.6454
3200.000000 0.6456 0.6457 0.6458 0.6458 0.6461
3195.000000 0.6461 0.6464 0.6465 0.6467 0.6468
3190.000000 0.6469 0.6471 0.6471 0.6472 0.6475
3185.000000 0.6475 0.6478 0.6478 0.6480 0.6481
3180.000000 0.6482 0.6483 0.6484 0.6485 0.6487
3175.000000 0.6488 0.6489 0.6490 0.6491 0.6492
3170.000000 0.6493 0.6494 0.6495 0.6496 0.6497
3165.000000 0.6498 0.6499 0.6500 0.6501 0.6501
3160.000000 0.6501 0.6503 0.6504 0.6504 0.6505
3155.000000 0.6505 0.6506 0.6507 0.6508 0.6508
3150.000000 0.6508 0.6508 0.6510 0.6511 0.6511
3145.000000 0.6511 0.6512 0.6512 0.6514 0.6515
3140.000000 0.6517 0.6518 0.6521 0.6522 0.6525
3135.000000 0.6526 0.6528 0.6531 0.6533 0.6535
3130.000000 0.6537 0.6538 0.6540 0.6542 0.6544
3125.000000 0.6546 0.6548 0.6549 0.6550 0.6550
3120.000000 0.6550 0.6549 0.6548 0.6547 0.6547
3115.000000 0.6546 0.6546 0.6545 0.6544 0.6543
3110.000000 0.6543 0.6542 0.6541 0.6540 0.6540
3105.000000 0.6538 0.6537 0.6536 0.6535 0.6533
3100.000000 0.6532 0.6530 0.6528 0.6528 0.6526
3095.000000 0.6524 0.6521 0.6515 0.6511 0.6506
3090.000000 0.6501 0.6496 0.6491 0.6486 0.6481
3085.000000 0.6475 0.6469 0.6464 0.6458 0.6448
3080.000000 0.6438 0.6426 0.6415 0.6404 0.6393
3075.000000 0.6381 0.6370 0.6362 0.6355 0.6344
3070.000000 0.6337 0.6330 0.6327 0.6325 0.6323
3065.000000 0.6329 0.6335 0.6350 0.6366 0.6374
3060.000000 0.6382 0.6389 0.6397 0.6403 0.6410
3055.000000 0.6415 0.6421 0.6428 0.6434 0.6439
3050.000000 0.6444 0.6445 0.6447 0.6448 0.6449
3045.000000 0.6450 0.6451 0.6453 0.6454 0.6454
3040.000000 0.6454 0.6454 0.6454 0.6454 0.6454
3035.000000 0.6454 0.6454 0.6454 0.6454 0.6454
3030.000000 0.6454 0.6453 0.6451 0.6450 0.6448
3025.000000 0.6446 0.6445 0.6443 0.6441 0.6439
3020.000000 0.6437 0.6435 0.6433 0.6431 0.6428
3015.000000 0.6425 0.6422 0.6418 0.6415 0.6411
3010.000000 0.6408 0.6404 0.6399 0.6393 0.6387
3005.000000 0.6380 0.6374 0.6365 0.6357 0.6344
3000.000000 0.6332 0.6318 0.6304 0.6284 0.6264
2995.000000 0.6242 0.6221 0.6198 0.6176 0.6149
2990.000000 0.6122 0.5980 0.5839 0.5803 0.5760
2985.000000 0.5765 0.5762 0.5800 0.5838 0.5879
2980.000000 0.5921 0.5962 0.6003 0.6044 0.6086
2975.000000 0.6112 0.6138 0.6154 0.6170 0.6177
2970.000000 0.6184 0.6187 0.6191 0.6191 0.6191
2965.000000 0.6191 0.6191 0.6187 0.6183 0.6175
2960.000000 0.6167 0.6159 0.6152 0.6155 0.6159
2955.000000 0.6162 0.6166 0.6173 0.6180 0.6187
2950.000000 0.6194 0.6196 0.6199 0.6199 0.6199
2945.000000 0.6197 0.6195 0.6188 0.6181 0.6174
2940.000000 0.6167 0.6159 0.6151 0.6143 0.6136
2935.000000 0.6129 0.6122 0.6116 0.6110 0.6104
2930.000000 0.6098 0.6092 0.6086 0.6082 0.6069
2925.000000 0.6074 0.6074 0.6074 0.6077 0.6082
2920.000000 0.6087 0.6099 0.6110 0.6136 0.6160
2915.000000 0.6177 0.6193 0.6209 0.6225 0.6241
2910.000000 0.6257 0.6273 0.6290 0.6306 0.6323
2905.000000 0.6335 0.6348 0.6358 0.6369 0.6379
2900.000000 0.6389 0.6399 0.6410 0.6419 0.6430
2895.000000 0.6440 0.6450 0.6458 0.6468 0.6476
2890.000000 0.6486 0.6494 0.6503 0.6511 0.6519
2885.000000 0.6524 0.6528 0.6533 0.6538 0.6543
2880.000000 0.6548 0.6547 0.6547 0.6546 0.6546
2875.000000 0.6545 0.6544 0.6543 0.6542 0.6540
2870.000000 0.6539 0.6538 0.6538 0.6539 0.6541
2865.000000 0.6542 0.6544 0.6546 0.6548 0.6558
2860.000000 0.6568 0.6578 0.6588 0.6597 0.6606
2855.000000 0.6615 0.6624 0.6633 0.6642 0.6651
2850.000000 0.6660 0.6668 0.6678 0.6687 0.6697
2845.000000 0.6706 0.6715 0.6721 0.6728 0.6733
2840.000000 0.6738 0.6743 0.6748 0.6753 0.6758
2835.000000 0.6762 0.6768 0.6772 0.6778 0.6783
2830.000000 0.6788 0.6793 0.6798 0.6801 0.6806
2825.000000 0.6808 0.6812 0.6815 0.6819 0.6822
2820.000000 0.6826 0.6830 0.6834 0.6837 0.6841
2815.000000 0.6845 0.6849 0.6851 0.6856 0.6858
2810.000000 0.6862 0.6865 0.6869 0.6872 0.6876
2805.000000 0.6880 0.6884 0.6888 0.6892 0.6895
2800.000000 0.6899 0.6901 0.6906 0.6908 0.6912
2795.000000 0.6915 0.6919 0.6922 0.6926 0.6930
2790.000000 0.6934 0.6938 0.6942 0.6945 0.6949
2785.000000 0.6951 0.6956 0.6958 0.6962 0.6965
2780.000000 0.6969 0.6972 0.6976 0.6980 0.6984
2775.000000 0.6987 0.6991 0.6994 0.6998 0.7001
2770.000000 0.7005 0.7008 0.7011 0.7015 0.7018
2765.000000 0.7021 0.7025 0.7028 0.7032 0.7035
2760.000000 0.7039 0.7042 0.7046 0.7049 0.7053
2755.000000 0.7056 0.7060 0.7062 0.7065 0.7068
2750.000000 0.7072 0.7075 0.7080 0.7083 0.7087
2745.000000 0.7090 0.7094 0.7097 0.7101 0.7103
2740.000000 0.7106 0.7108 0.7111 0.7115 0.7118
2735.000000 0.7119 0.7122 0.7125 0.7128 0.7132
2730.000000 0.7135 0.7138 0.7141 0.7143 0.7146
2725.000000 0.7149 0.7151 0.7155 0.7158 0.7160
2720.000000 0.7162 0.7165 0.7168 0.7171 0.7175
2715.000000 0.7176 0.7180 0.7183 0.7186 0.7189
2710.000000 0.7192 0.7195 0.7198 0.7200 0.7203
2705.000000 0.7206 0.7208 0.7211 0.7215 0.7217
2700.000000 0.7219 0.7222 0.7225 0.7228 0.7232
2695.000000 0.7235 0.7238 0.7240 0.7243 0.7246
2690.000000 0.7249 0.7251 0.7255 0.7257 0.7260
2685.000000 0.7262 0.7265 0.7268 0.7271 0.7275
2680.000000 0.7278 0.7280 0.7283 0.7286 0.7289
2675.000000 0.7291 0.7293 0.7295 0.7298 0.7300
2670.000000 0.7301 0.7304 0.7307 0.7308 0.7311
2665.000000 0.7312 0.7315 0.7318 0.7319 0.7321
2660.000000 0.7325 0.7326 0.7328 0.7331 0.7334
2655.000000 0.7336 0.7338 0.7340 0.7342 0.7344
2650.000000 0.7346 0.7347 0.7349 0.7351 0.7353
2645.000000 0.7354 0.7356 0.7357 0.7358 0.7361
2640.000000 0.7362 0.7364 0.7365 0.7368 0.7369
2635.000000 0.7371 0.7372 0.7374 0.7375 0.7376
2630.000000 0.7378 0.7378 0.7381 0.7382 0.7383
2625.000000 0.7385 0.7387 0.7388 0.7390 0.7391
2620.000000 0.7393 0.7394 0.7396 0.7397 0.7399
2615.000000 0.7400 0.7401 0.7401 0.7403 0.7404
2610.000000 0.7405 0.7406 0.7407 0.7408 0.7408
2605.000000 0.7410 0.7411 0.7411 0.7411 0.7408
2600.000000 0.7407 0.7405 0.7403 0.7400 0.7398
2595.000000 0.7396 0.7394 0.7392 0.7392 0.7392
2590.000000 0.7394 0.7397 0.7400 0.7401 0.7403
2585.000000 0.7404 0.7406 0.7407 0.7408 0.7410
2580.000000 0.7411 0.7412 0.7415 0.7415 0.7418
2575.000000 0.7419 0.7421 0.7422 0.7425 0.7426
2570.000000 0.7428 0.7430 0.7432 0.7434 0.7436
2565.000000 0.7437 0.7439 0.7440 0.7442 0.7444
2560.000000 0.7446 0.7447 0.7449 0.7450 0.7451
2555.000000 0.7454 0.7456 0.7457 0.7458 0.7460
2550.000000 0.7461 0.7462 0.7465 0.7465 0.7468
2545.000000 0.7468 0.7471 0.7471 0.7474 0.7475
2540.000000 0.7476 0.7478 0.7480 0.7481 0.7483
2535.000000 0.7484 0.7486 0.7487 0.7489 0.7490
2530.000000 0.7492 0.7493 0.7495 0.7496 0.7497
2525.000000 0.7498 0.7500 0.7501 0.7501 0.7503
2520.000000 0.7505 0.7506 0.7507 0.7508 0.7510
2515.000000 0.7511 0.7511 0.7512 0.7515 0.7515
2510.000000 0.7517 0.7518 0.7518 0.7519 0.7521
2505.000000 0.7522 0.7524 0.7525 0.7526 0.7528
2500.000000 0.7528 0.7530 0.7532 0.7533 0.7534
2495.000000 0.7535 0.7537 0.7538 0.7539 0.7540
2490.000000 0.7542 0.7543 0.7544 0.7545 0.7547
2485.000000 0.7548 0.7549 0.7550 0.7551 0.7553
2480.000000 0.7555 0.7556 0.7558 0.7558 0.7561
2475.000000 0.7561 0.7564 0.7565 0.7567 0.7568
2470.000000 0.7569 0.7571 0.7572 0.7572 0.7572
2465.000000 0.7571 0.7571 0.7571 0.7571 0.7569
2460.000000 0.7569 0.7569 0.7569 0.7569 0.7571
2455.000000 0.7571 0.7572 0.7574 0.7575 0.7575
2450.000000 0.7575 0.7575 0.7575 0.7574 0.7572
2445.000000 0.7571 0.7571 0.7569 0.7568 0.7567
2440.000000 0.7565 0.7564 0.7561 0.7558 0.7557
2435.000000 0.7554 0.7551 0.7549 0.7547 0.7547
2430.000000 0.7547 0.7547 0.7548 0.7549 0.7551
2425.000000 0.7551 0.7554 0.7555 0.7557 0.7558
2420.000000 0.7561 0.7561 0.7564 0.7565 0.7567
2415.000000 0.7568 0.7571 0.7572 0.7575 0.7576
2410.000000 0.7578 0.7581 0.7584 0.7586 0.7588
2405.000000 0.7590 0.7592 0.7594 0.7597 0.7599
2400.000000 0.7601 0.7603 0.7605 0.7607 0.7610
2395.000000 0.7611 0.7615 0.7617 0.7619 0.7622
2390.000000 0.7626 0.7630 0.7634 0.7637 0.7641
2385.000000 0.7644 0.7648 0.7658 0.7669 0.7683
2380.000000 0.7696 0.7708 0.7721 0.7735 0.7749
2375.000000 0.7761 0.7775 0.7783 0.7790 0.7790
2370.000000 0.7791 0.7792 0.7793 0.7793 0.7793
2365.000000 0.7788 0.7784 0.7778 0.7775 0.7769
2360.000000 0.7765 0.7761 0.7757 0.7754 0.7751
2355.000000 0.7749 0.7747 0.7745 0.7744 0.7742
2350.000000 0.7740 0.7738 0.7737 0.7735 0.7733
2345.000000 0.7731 0.7728 0.7726 0.7725 0.7724
2340.000000 0.7721 0.7719 0.7718 0.7717 0.7715
2335.000000 0.7711 0.7710 0.7707 0.7705 0.7703
2330.000000 0.7701 0.7698 0.7696 0.7693 0.7691
2325.000000 0.7689 0.7687 0.7684 0.7682 0.7678
2320.000000 0.7676 0.7675 0.7674 0.7671 0.7671
2315.000000 0.7669 0.7668 0.7668 0.7668 0.7668
2310.000000 0.7669 0.7671 0.7672 0.7674 0.7675
2305.000000 0.7675 0.7676 0.7678 0.7680 0.7681
2300.000000 0.7682 0.7684 0.7687 0.7690 0.7693
2295.000000 0.7695 0.7698 0.7701 0.7704 0.7706
2290.000000 0.7708 0.7711 0.7715 0.7718 0.7721
2285.000000 0.7722 0.7725 0.7728 0.7731 0.7733
2280.000000 0.7736 0.7738 0.7740 0.7742 0.7745
2275.000000 0.7747 0.7750 0.7751 0.7755 0.7757
2270.000000 0.7760 0.7761 0.7764 0.7765 0.7768
2265.000000 0.7771 0.7774 0.7775 0.7778 0.7780
2260.000000 0.7783 0.7786 0.7789 0.7792 0.7796
2255.000000 0.7799 0.7803 0.7807 0.7811 0.7814
2250.000000 0.7818 0.7821 0.7825 0.7828 0.7833
2245.000000 0.7838 0.7843 0.7848 0.7853 0.7858
2240.000000 0.7862 0.7867 0.7871 0.7876 0.7882
2235.000000 0.7886 0.7891 0.7895 0.7900 0.7904
2230.000000 0.7908 0.7911 0.7917 0.7921 0.7925
2225.000000 0.7930 0.7935 0.7939 0.7944 0.7948
2220.000000 0.7951 0.7957 0.7961 0.7965 0.7971
2215.000000 0.7975 0.7980 0.7982 0.7985 0.7987
2210.000000 0.7989 0.7991 0.7994 0.7996 0.7999
2205.000000 0.8001 0.8003 0.8005 0.8007 0.8008
2200.000000 0.8011 0.8012 0.8015 0.8017 0.8018
2195.000000 0.8021 0.8022 0.8025 0.8026 0.8028
2190.000000 0.8031 0.8033 0.8035 0.8037 0.8039
2185.000000 0.8041 0.8043 0.8045 0.8047 0.8050
2180.000000 0.8053 0.8056 0.8058 0.8061 0.8065
2175.000000 0.8068 0.8071 0.8074 0.8076 0.8080
2170.000000 0.8083 0.8086 0.8089 0.8092 0.8095
2165.000000 0.8098 0.8101 0.8103 0.8106 0.8108
2160.000000 0.8111 0.8112 0.8115 0.8117 0.8119
2155.000000 0.8121 0.8124 0.8125 0.8128 0.8131
2150.000000 0.8133 0.8135 0.8138 0.8140 0.8142
2145.000000 0.8144 0.8147 0.8149 0.8151 0.8153
2140.000000 0.8155 0.8157 0.8160 0.8161 0.8164
2135.000000 0.8167 0.8171 0.8174 0.8178 0.8181
2130.000000 0.8184 0.8187 0.8191 0.8194 0.8197
2125.000000 0.8200 0.8204 0.8207 0.8211 0.8214
2120.000000 0.8217 0.8220 0.8224 0.8227 0.8231
2115.000000 0.8234 0.8237 0.8240 0.8244 0.8246
2110.000000 0.8249 0.8251 0.8253 0.8254 0.8256
2105.000000 0.8258 0.8260 0.8261 0.8263 0.8264
2100.000000 0.8266 0.8268 0.8270 0.8271 0.8273
2095.000000 0.8274 0.8275 0.8278 0.8280 0.8281
2090.000000 0.8283 0.8285 0.8287 0.8289 0.8291
2085.000000 0.8293 0.8295 0.8297 0.8299 0.8301
2080.000000 0.8303 0.8305 0.8307 0.8309 0.8311
2075.000000 0.8312 0.8314 0.8315 0.8317 0.8318
2070.000000 0.8321 0.8321 0.8324 0.8325 0.8327
2065.000000 0.8328 0.8330 0.8331 0.8333 0.8334
2060.000000 0.8336 0.8337 0.8339 0.8340 0.8341
2055.000000 0.8341 0.8342 0.8342 0.8343 0.8343
2050.000000 0.8344 0.8344 0.8345 0.8345 0.8346
2045.000000 0.8346 0.8347 0.8348 0.8349 0.8350
2040.000000 0.8351 0.8351 0.8352 0.8353 0.8354
2035.000000 0.8354 0.8355 0.8356 0.8357 0.8357
2030.000000 0.8358 0.8359 0.8361 0.8362 0.8364
2025.000000 0.8365 0.8367 0.8368 0.8370 0.8371
2020.000000 0.8373 0.8374 0.8375 0.8378 0.8380
2015.000000 0.8381 0.8383 0.8385 0.8387 0.8388
2010.000000 0.8390 0.8392 0.8393 0.8393 0.8392
2005.000000 0.8390 0.8389 0.8384 0.8380 0.8363
2000.000000 0.8347 0.8335 0.8323 0.8316 0.8310
1995.000000 0.8312 0.8316 0.8320 0.8324 0.8328
1990.000000 0.8333 0.8338 0.8344 0.8349 0.8354
1985.000000 0.8359 0.8363 0.8367 0.8371 0.8375
1980.000000 0.8380 0.8384 0.8389 0.8393 0.8397
1975.000000 0.8402 0.8407 0.8411 0.8416 0.8421
1970.000000 0.8425 0.8430 0.8435 0.8440 0.8442
1965.000000 0.8442 0.8442 0.8441 0.8441 0.8441
1960.000000 0.8441 0.8440 0.8439 0.8438 0.8437
1955.000000 0.8434 0.8432 0.8428 0.8427 0.8424
1950.000000 0.8421 0.8418 0.8416 0.8412 0.8408
1945.000000 0.8405 0.8401 0.8397 0.8393 0.8389
1940.000000 0.8385 0.8381 0.8377 0.8375 0.8373
1935.000000 0.8371 0.8371 0.8371 0.8371 0.8371
1930.000000 0.8377 0.8384 0.8391 0.8398 0.8405
1925.000000 0.8412 0.8425 0.8438 0.8451 0.8464
1920.000000 0.8475 0.8489 0.8500 0.8504 0.8507
1915.000000 0.8511 0.8515 0.8518 0.8521 0.8525
1910.000000 0.8528 0.8533 0.8536 0.8540 0.8543
1905.000000 0.8547 0.8546 0.8545 0.8544 0.8542
1900.000000 0.8541 0.8540 0.8539 0.8537 0.8536
1895.000000 0.8534 0.8533 0.8533 0.8533 0.8534
1890.000000 0.8535 0.8535 0.8535 0.8533 0.8531
1885.000000 0.8528 0.8528 0.8533 0.8536 0.8539
1880.000000 0.8543 0.8546 0.8550 0.8553 0.8556
1875.000000 0.8560 0.8563 0.8567 0.8570 0.8573
1870.000000 0.8577 0.8580 0.8584 0.8587 0.8590
1865.000000 0.8594 0.8597 0.8601 0.8604 0.8607
1860.000000 0.8611 0.8614 0.8618 0.8621 0.8624
1855.000000 0.8628 0.8631 0.8634 0.8635 0.8636
1850.000000 0.8637 0.8638 0.8638 0.8639 0.8639
1845.000000 0.8640 0.8640 0.8640 0.8641 0.8641
1840.000000 0.8642 0.8645 0.8647 0.8649 0.8651
1835.000000 0.8654 0.8656 0.8658 0.8660 0.8663
1830.000000 0.8665 0.8667 0.8668 0.8671 0.8674
1825.000000 0.8675 0.8678 0.8682 0.8684 0.8687
1820.000000 0.8690 0.8693 0.8696 0.8699 0.8702
1815.000000 0.8705 0.8708 0.8711 0.8713 0.8716
1810.000000 0.8718 0.8721 0.8725 0.8728 0.8731
1805.000000 0.8734 0.8737 0.8740 0.8742 0.8745
1800.000000 0.8748 0.8750 0.8753 0.8756 0.8758
1795.000000 0.8761 0.8764 0.8766 0.8768 0.8771
1790.000000 0.8775 0.8777 0.8780 0.8783 0.8785
1785.000000 0.8788 0.8791 0.8793 0.8795 0.8797
1780.000000 0.8799 0.8801 0.8802 0.8804 0.8806
1775.000000 0.8808 0.8810 0.8812 0.8814 0.8816
1770.000000 0.8817 0.8818 0.8818 0.8820 0.8821
1765.000000 0.8821 0.8821 0.8823 0.8824 0.8825
1760.000000 0.8825 0.8825 0.8827 0.8828 0.8828
1755.000000 0.8828 0.8828 0.8830 0.8830 0.8831
1750.000000 0.8831 0.8832 0.8832 0.8833 0.8833
1745.000000 0.8834 0.8834 0.8834 0.8834 0.8832
1740.000000 0.8831 0.8830 0.8828 0.8827 0.8825
1735.000000 0.8824 0.8823 0.8821 0.8821 0.8820
1730.000000 0.8818 0.8818 0.8818 0.8818 0.8817
1725.000000 0.8817 0.8816 0.8816 0.8815 0.8815
1720.000000 0.8814 0.8814 0.8813 0.8813 0.8812
1715.000000 0.8812 0.8811 0.8810 0.8809 0.8808
1710.000000 0.8807 0.8806 0.8805 0.8804 0.8803
1705.000000 0.8802 0.8801 0.8800 0.8799 0.8798
1700.000000 0.8797 0.8790 0.8782 0.8773 0.8765
1695.000000 0.8749 0.8732 0.8718 0.8708 0.8699
1690.000000 0.8694 0.8690 0.8691 0.8692 0.8703
1685.000000 0.8718 0.8737 0.8752 0.8760 0.8768
1680.000000 0.8771 0.8775 0.8777 0.8778 0.8782
1675.000000 0.8784 0.8784 0.8783 0.8782 0.8780
1670.000000 0.8803 0.8778 0.8774 0.8771 0.8767
1665.000000 0.8763 0.8759 0.8755 0.8752 0.8747
1660.000000 0.8743 0.8738 0.8733 0.8728 0.8724
1655.000000 0.8720 0.8715 0.8711 0.8706 0.8699
1650.000000 0.8686 0.8673 0.8656 0.8637 0.8611
1645.000000 0.8581 0.8552 0.8521 0.8490 0.8459
1640.000000 0.8425 0.8384 0.8343 0.8301 0.8253
1635.000000 0.8206 0.8161 0.8118 0.8072 0.8026
1630.000000 0.7980 0.7934 0.7884 0.7830 0.7775
1625.000000 0.7721 0.7658 0.7594 0.7528 0.7445
1620.000000 0.7360 0.7275 0.7164 0.7025 0.6797
1615.000000 0.6588 0.6158 0.5844 0.5509 0.5174
1610.000000 0.4839 0.4504 0.4170 0.3834 0.3500
1605.000000 0.3165 0.2831 0.2674 0.2640 0.2630
1600.000000 0.2630 0.2630 0.2652 0.2684 0.2731
1595.000000 0.2791 0.2855 0.2923 0.2999 0.3080
1590.000000 0.3167 0.3246 0.3344 0.3473 0.3602
1585.000000 0.3730 0.3859 0.3989 0.4118 0.4247
1580.000000 0.4376 0.4505 0.4634 0.4762 0.4892
1575.000000 0.5021 0.5150 0.5279 0.5408 0.5537
1570.000000 0.5666 0.5795 0.5882 0.5896 0.5905
1565.000000 0.5910 0.5918 0.5926 0.5940 0.5953
1560.000000 0.5980 0.6026 0.6072 0.6114 0.6156
1555.000000 0.6199 0.6245 0.6289 0.6333 0.6368
1550.000000 0.6397 0.6419 0.6438 0.6454 0.6468
1545.000000 0.6478 0.6486 0.6486 0.6486 0.6485
1540.000000 0.6474 0.6440 0.6390 0.6281 0.6160
1535.000000 0.6119 0.6104 0.6116 0.6091 0.6093
1530.000000 0.6114 0.6139 0.6186 0.6230 0.6257
1525.000000 0.6259 0.6262 0.6262 0.6255 0.6240
1520.000000 0.6225 0.6186 0.6130 0.6075 0.5971
1515.000000 0.5868 0.5736 0.5601 0.4810 0.4315
1510.000000 0.3377 0.2416 0.2444 0.2604 0.2763
1505.000000 0.2923 0.3195 0.3191 0.3191 0.2968
1500.000000 0.2662 0.2412 0.2424 0.2476 0.2620
1495.000000 0.3006 0.3392 0.3778 0.4164 0.4550
1490.000000 0.4936 0.5322 0.5708 0.6094 0.6359
1485.000000 0.6468 0.6697 0.6831 0.6924 0.7008
1480.000000 0.7053 0.7080 0.7106 0.7118 0.7126
1475.000000 0.7131 0.7121 0.7111 0.7075 0.7035
1470.000000 0.6996 0.6941 0.6882 0.6821 0.6761
1465.000000 0.6695 0.6628 0.6561 0.6494 0.6280
1460.000000 0.6059 0.5735 0.5360 0.4987 0.4479
1455.000000 0.4490 0.4477 0.4470 0.4480 0.4535
1450.000000 0.4667 0.4741 0.4752 0.4751 0.4751
1445.000000 0.4742 0.4723 0.4685 0.4628 0.4550
1440.000000 0.4472 0.4394 0.4341 0.4341 0.4342
1435.000000 0.4348 0.4382 0.4419 0.4498 0.4740
1430.000000 0.4887 0.4959 0.4989 0.5006 0.5017
1425.000000 0.5025 0.5028 0.5028 0.5028 0.5022
1420.000000 0.5016 0.5010 0.4980 0.4948 0.4909
1415.000000 0.4852 0.4795 0.4708 0.4619 0.4491
1410.000000 0.4334 0.4194 0.4055 0.3925 0.3642
1405.000000 0.3375 0.3099 0.2823 0.2548 0.2272
1400.000000 0.1995 0.1721 0.1578 0.1462 0.1188
1395.000000 0.1090 0.1002 0.0928 0.0892 0.0855
1390.000000 0.0824 0.0796 0.0777 0.0768 0.0745
1385.000000 0.0754 0.0754 0.0758 0.0762 0.0780
1380.000000 0.0830 0.0900 0.1018 0.1119 0.1220
1375.000000 0.1511 0.1665 0.1829 0.1993 0.2157
1370.000000 0.2321 0.2484 0.2650 0.2814 0.2978
1365.000000 0.3142 0.3306 0.3471 0.3634 0.3799
1360.000000 0.3962 0.4127 0.4235 0.4380 0.4454
1355.000000 0.4502 0.4546 0.4572 0.4605 0.4638
1350.000000 0.4671 0.4712 0.4731 0.4745 0.4753
1345.000000 0.4760 0.4749 0.4722 0.4695 0.4671
1340.000000 0.4664 0.4658 0.4666 0.4683 0.4725
1335.000000 0.4776 0.4842 0.5016 0.5130 0.5253
1330.000000 0.5381 0.5475 0.5553 0.5632 0.5717
1325.000000 0.5793 0.5854 0.5915 0.5956 0.5996
1320.000000 0.6037 0.6075 0.6106 0.6137 0.6169
1315.000000 0.6204 0.6231 0.6251 0.6271 0.6291
1310.000000 0.6310 0.6331 0.6351 0.6370 0.6390
1305.000000 0.6410 0.6430 0.6450 0.6469 0.6490
1300.000000 0.6510 0.6530 0.6549 0.6568 0.6589
1295.000000 0.6608 0.6628 0.6649 0.6668 0.6689
1290.000000 0.6708 0.6728 0.6748 0.6768 0.6788
1285.000000 0.6808 0.6828 0.6848 0.6868 0.6887
1280.000000 0.6907 0.6926 0.6947 0.6967 0.6987
1275.000000 0.7005 0.7021 0.7039 0.7057 0.7074
1270.000000 0.7091 0.7108 0.7126 0.7145 0.7162
1265.000000 0.7181 0.7198 0.7215 0.7232 0.7249
1260.000000 0.7265 0.7278 0.7291 0.7300 0.7304
1255.000000 0.7308 0.7312 0.7315 0.7319 0.7326
1250.000000 0.7312 0.7304 0.7294 0.7278 0.7258
1245.000000 0.7237 0.7204 0.7171 0.7125 0.7071
1240.000000 0.6956 0.6721 0.6343 0.5931 0.5520
1235.000000 0.5108 0.4697 0.4558 0.4579 0.4635
1230.000000 0.4974 0.5312 0.5651 0.5990 0.6329
1225.000000 0.6724 0.6851 0.6955 0.7051 0.7119
1220.000000 0.7189 0.7242 0.7285 0.7319 0.7346
1215.000000 0.7371 0.7397 0.7418 0.7425 0.7431
1210.000000 0.7437 0.7436 0.7435 0.7448 0.7431
1205.000000 0.7426 0.7414 0.7398 0.7239 0.6326
1200.000000 0.6324 0.6369 0.6492 0.6625 0.6796
1195.000000 0.6985 0.7094 0.7178 0.7225 0.7272
1190.000000 0.7318 0.7348 0.7358 0.7368 0.7380
1185.000000 0.7391 0.7401 0.7425 0.7458 0.7485
1180.000000 0.7490 0.7495 0.7500 0.7505 0.7510
1175.000000 0.7515 0.7518 0.7524 0.7528 0.7534
1170.000000 0.7540 0.7548 0.7555 0.7562 0.7569
1165.000000 0.7578 0.7586 0.7593 0.7601 0.7605
1160.000000 0.7608 0.7611 0.7615 0.7618 0.7621
1155.000000 0.7625 0.7630 0.7635 0.7640 0.7645
1150.000000 0.7650 0.7655 0.7660 0.7678 0.7700
1145.000000 0.7721 0.7743 0.7764 0.7783 0.7801
1140.000000 0.7811 0.7814 0.7818 0.7818 0.7815
1135.000000 0.7815 0.7812 0.7812 0.7818 0.7824
1130.000000 0.7828 0.7840 0.7853 0.7865 0.7878
1125.000000 0.7892 0.7905 0.7917 0.7925 0.7932
1120.000000 0.7939 0.7946 0.7953 0.7958 0.7965
1115.000000 0.7971 0.7971 0.7972 0.7974 0.7975
1110.000000 0.7976 0.7978 0.7980 0.7981 0.7981
1105.000000 0.7982 0.7982 0.7983 0.7983 0.7984
1100.000000 0.7984 0.7984 0.7986 0.7987 0.7988
1095.000000 0.7989 0.7990 0.7992 0.7993 0.7993
1090.000000 0.7994 0.7993 0.7992 0.7990 0.7989
1085.000000 0.7987 0.7985 0.7983 0.7983 0.7982
1080.000000 0.7986 0.7989 0.7994 0.8000 0.8006
1075.000000 0.8011 0.8015 0.8017 0.8018 0.8021
1070.000000 0.8022 0.8025 0.8026 0.8028 0.8030
1065.000000 0.8032 0.8034 0.8036 0.8038 0.8040
1060.000000 0.8042 0.8044 0.8046 0.8048 0.8078
1055.000000 0.8053 0.8055 0.8057 0.8058 0.8061
1050.000000 0.8064 0.8065 0.8067 0.8068 0.8068
1045.000000 0.8069 0.8065 0.8058 0.8054 0.8049
1040.000000 0.8044 0.8038 0.8026 0.8015 0.8003
1035.000000 0.7985 0.7964 0.7944 0.7924 0.7903
1030.000000 0.7869 0.7837 0.7804 0.7755 0.7681
1025.000000 0.7608 0.7534 0.7458 0.7367 0.7271
1020.000000 0.7165 0.7048 0.6631 0.6279 0.5927
1015.000000 0.5575 0.5223 0.4872 0.4641 0.4642
1010.000000 0.4642 0.4738 0.4956 0.5217 0.5471
1005.000000 0.5725 0.5978 0.6232 0.6486 0.6739
1000.000000 0.6993 0.7247 0.7496 0.7555 0.7614
995.000000 0.7664 0.7711 0.7753 0.7792 0.7831
990.000000 0.7855 0.7875 0.7895 0.7915 0.7925
985.000000 0.7935 0.7944 0.7953 0.7961 0.7968
980.000000 0.7975 0.7982 0.7988 0.7995 0.8003
975.000000 0.8015 0.8026 0.8039 0.8051 0.8062
970.000000 0.8074 0.8085 0.8096 0.8107 0.8118
965.000000 0.8130 0.8141 0.8148 0.8155 0.8161
960.000000 0.8167 0.8174 0.8180 0.8187 0.8193
955.000000 0.8200 0.8207 0.8214 0.8220 0.8227
950.000000 0.8234 0.8237 0.8240 0.8242 0.8245
945.000000 0.8247 0.8243 0.8243 0.8244 0.8240
940.000000 0.8234 0.8225 0.8216 0.8207 0.8198
935.000000 0.8190 0.8185 0.8180 0.8175 0.8168
930.000000 0.8162 0.8156 0.8143 0.8131 0.8108
925.000000 0.8071 0.7996 0.7919 0.7844 0.7718
920.000000 0.7380 0.7007 0.6634 0.6262 0.5889
915.000000 0.5517 0.5372 0.5329 0.5318 0.5322
910.000000 0.5378 0.5733 0.5949 0.6165 0.6381
905.000000 0.6597 0.6811 0.7028 0.7244 0.7460
900.000000 0.7622 0.7682 0.7741 0.7789 0.7837
895.000000 0.7884 0.7932 0.7962 0.7986 0.8010
890.000000 0.8033 0.8057 0.8081 0.8104 0.8121
885.000000 0.8133 0.8145 0.8157 0.8168 0.8180
880.000000 0.8192 0.8202 0.8209 0.8217 0.8225
875.000000 0.8233 0.8241 0.8248 0.8254 0.8259
870.000000 0.8265 0.8270 0.8275 0.8282 0.8286
865.000000 0.8288 0.8290 0.8292 0.8294 0.8296
860.000000 0.8298 0.8300 0.8302 0.8304 0.8307
855.000000 0.8309 0.8311 0.8313 0.8315 0.8317
850.000000 0.8321 0.8327 0.8332 0.8337 0.8342
845.000000 0.8347 0.8352 0.8357 0.8362 0.8366
840.000000 0.8371 0.8375 0.8378 0.8383 0.8388
835.000000 0.8392 0.8396 0.8400 0.8405 0.8409
830.000000 0.8412 0.8416 0.8420 0.8424 0.8427
825.000000 0.8431 0.8435 0.8439 0.8440 0.8441
820.000000 0.8442 0.8443 0.8444 0.8445 0.8446
815.000000 0.8446 0.8447 0.8448 0.8448 0.8448
810.000000 0.8446 0.8444 0.8441 0.8439 0.8437
805.000000 0.8434 0.8431 0.8427 0.8424 0.8420
800.000000 0.8416 0.8413 0.8409 0.8406 0.8400
795.000000 0.8393 0.8387 0.8380 0.8373 0.8362
790.000000 0.8350 0.8337 0.8324 0.8312 0.8299
785.000000 0.8278 0.8258 0.8237 0.8207 0.8174
780.000000 0.8122 0.8035 0.7890 0.7765 0.7391
775.000000 0.6828 0.6254 0.5681 0.5260 0.5281
770.000000 0.5443 0.5646 0.5848 0.6050 0.6253
765.000000 0.6455 0.6657 0.6860 0.7061 0.7264
760.000000 0.7467 0.7668 0.7780 0.7855 0.7921
755.000000 0.7986 0.8025 0.8060 0.8072 0.8078
750.000000 0.8090 0.8083 0.8082 0.8076 0.8071
745.000000 0.8065 0.8061 0.8055 0.8047 0.8035
740.000000 0.8022 0.8010 0.7986 0.7961 0.7936
735.000000 0.7911 0.7887 0.7861 0.7833 0.7794
730.000000 0.7755 0.7715 0.7672 0.7631 0.7604
725.000000 0.7590 0.7587 0.7587 0.7615 0.7725
720.000000 0.7807 0.7880 0.7951 0.8021 0.8091
715.000000 0.8160 0.8212 0.8264 0.8316 0.8354
710.000000 0.8388 0.8423 0.8457 0.8485 0.8512
705.000000 0.8540 0.8564 0.8581 0.8598 0.8615
700.000000 0.8628 0.8642 0.8655 0.8668 0.8680
695.000000 0.8685 0.8689 0.8694 0.8699 0.8703
690.000000 0.8708 0.8714 0.8720 0.8725 0.8731
685.000000 0.8731 0.8731 0.8725 0.8721 0.8717
680.000000 0.8712 0.8706 0.8696 0.8685 0.8675
675.000000 0.8667 0.8688 0.8716 0.8735 0.8748
670.000000 0.8764 0.8743 0.8739 0.8731 0.8723
665.000000 0.8715 0.8695 0.8668 0.8642 0.8616
660.000000 0.8587 0.8540 0.8486 0.8428 0.8368
655.000000 0.8297 0.8075 0.7841 0.7619 0.7600
650.000000 0.7592 0.7618 0.7747 0.7958 0.8169
645.000000 0.8282 0.8346 0.8417 0.8487 0.8534
640.000000 0.8578 0.8618 0.8650 0.8680 0.8700
635.000000 0.8721 0.8741 0.8753 0.8761 0.8768
630.000000 0.8777 0.8781 0.8781 0.8781 0.8781
625.000000 0.8781 0.8781 0.8781 0.8778 0.8777
620.000000 0.8774 0.8771 0.8768 0.8768 0.8774
615.000000 0.8780 0.8786 0.8792 0.8797 0.8801
610.000000 0.8805 0.8809 0.8813 0.8814 0.8815
605.000000 0.8815 0.8815 0.8816 0.8816 0.8817
600.000000 0.8817 0.8817 0.8814 0.8811 0.8808
595.000000 0.8805 0.8802 0.8799 0.8796 0.8793
590.000000 0.8791 0.8791 0.8790 0.8790 0.8790
585.000000 0.8789 0.8789 0.8788 0.8788 0.8788
580.000000 0.8787 0.8787 0.8787 0.8787 0.8787
575.000000 0.8787 0.8787 0.8787 0.8789 0.8791
570.000000 0.8793 0.8795 0.8798 0.8800 0.8802
565.000000 0.8804 0.8806 0.8808 0.8810 0.8811
560.000000 0.8812 0.8813 0.8814 0.8815 0.8815
555.000000 0.8815 0.8813 0.8811 0.8808 0.8806
550.000000 0.8803 0.8800 0.8795 0.8790 0.8784
545.000000 0.8778 0.8758 0.8738 0.8717 0.8697
540.000000 0.8670 0.8643 0.8617 0.8575 0.8531
535.000000 0.8471 0.8409 0.8342 0.8273 0.8208
530.000000 0.8160 0.7769 0.5901 0.5722 0.5733
525.000000 0.5737 0.5901 0.6252 0.6603 0.6953
520.000000 0.7304 0.7654 0.8005 0.8356 0.8416
515.000000 0.8462 0.8494 0.8525 0.8551 0.8573
510.000000 0.8595 0.8610 0.8620 0.8631 0.8630
505.000000 0.8644 0.8641 0.8639 0.8636 0.8633
500.000000 0.8625 0.8618 0.8612 0.8605 0.8598
495.000000 0.8591 0.8582 0.8573 0.8563 0.8553
490.000000 0.8543 0.8534 0.8521 0.8508 0.8495
485.000000 0.8481 0.8468 0.8455 0.8441 0.8425
480.000000 0.8411 0.8396 0.8381 0.8366 0.8352
475.000000 0.8337 0.8321 0.8307 0.8293 0.8278
470.000000 0.8264 0.8250 0.8235 0.8221 0.8207
465.000000 0.8192 0.8175 0.8155 0.8135 0.8115
460.000000 0.8094 0.8074 0.8053 0.8033 0.8012
455.000000 0.7987 0.7958 0.7930 0.7901 0.7872
450.000000 0.7845 0.7817 0.7788 0.7760 0.7728
445.000000 0.7687 0.7645 0.7603 0.7561 0.7518
440.000000 0.7468 0.7411 0.7356 0.7300 0.7244
435.000000 0.7164 0.7080 0.6996 0.6912 0.6835
430.000000 0.6757 0.6678 0.6593 0.6508 0.6425
425.000000 0.6347 0.6268 0.6190 0.6115 0.6040
420.000000 0.5966 0.5902 0.5825 0.5723 0.5554
415.000000 0.5296 0.5124 0.4989 0.4873 0.4744
410.000000 0.4634 0.4599 0.4571 0.4555 0.4555
405.000000 0.4558 0.4565 0.4578 0.4591 0.4604
400.000000 0.4621 0.4639
##END=
