##TITLE=ACETYL-O-PHENETIDINE
$$ E.K. NO. 1441
##JCAMP-DX=4.24
##DATA TYPE=INFRARED SPECTRUM
##CLASS=COBLENTZ
##ORIGIN=DOW CHEMICAL COMPANY
##OWNER=COBLENTZ SOCIETY
Collection (C) 2018 copyright by the U.S. Secretary of Commerce
on behalf of the United States of America. All rights reserved.
##DATE=Not specified, most likely prior to 1970
##MOLFORM=C10 H13 N O2
##SOURCE REFERENCE=COBLENTZ NO. 1492
##$NIST ID=B6001492
##$NIST SOURCE=COBLENTZ
##$NIST IMAGE=cob1492
##SPECTROMETER/DATA SYSTEM=Not specified, most likely a prism, grating, or hybrid spectrometer.
##STATE=SOLUTION (10% CCl4 FOR 5000-1330, 10% CS2 FOR 1330-625 CM^-^1)
##PATH LENGTH=0.0111 CM, 0.0111 CM
$$ SPECTRAL CONTAMINATION DUE TO CS2 AROUND 850 CM^-^1
##SAMPLING PROCEDURE=TRANSMISSION
##RESOLUTION=4
##DATA PROCESSING=DIGITIZED BY NIST FROM HARD COPY
##XUNITS=MICROMETERS
##YUNITS=TRANSMITTANCE
##XFACTOR=1.000000
##YFACTOR=1
##DELTAX=000.006880
##FIRSTX=2.055
##LASTX=15.9036
##FIRSTY=0.882
##MAXX=15.9036
##MINX=2.055
##MAXY=0.958
##MINY=0
##NPOINTS=2014
##XYDATA=(X++(Y..Y))
2.055000 0.8820 0.8820 0.8820 0.8810 0.8810
2.089415 0.8770 0.8760 0.8740 0.8740 0.8740
2.124000 0.8760 0.8810 0.8820 0.8840 0.8840
2.158415 0.8840 0.8840 0.8840 0.8840 0.8840
2.193000 0.8820 0.8820 0.8790 0.8760 0.8760
2.227415 0.8740 0.8700 0.8700 0.8700 0.8720
2.261000 0.8720 0.8740 0.8760 0.8790 0.8810
2.295415 0.8820 0.8820 0.8820 0.8820 0.8840
2.330000 0.8840 0.8840 0.8840 0.8840 0.8860
2.364415 0.8860 0.8860 0.8880 0.8880 0.8890
2.399000 0.8890 0.8910 0.8930 0.8930 0.8950
2.433415 0.8950 0.8960 0.8960 0.8980 0.8980
2.468000 0.8980 0.8980 0.9000 0.9000 0.9010
2.502415 0.9010 0.9030 0.9030 0.9030 0.9070
2.537000 0.9070 0.9070 0.9070 0.9070 0.9070
2.571415 0.9070 0.9080 0.9080 0.9080 0.9080
2.605000 0.9080 0.9080 0.9100 0.9100 0.9130
2.639415 0.9150 0.9170 0.9170 0.9170 0.9170
2.674000 0.9170 0.9170 0.9170 0.9170 0.9170
2.708415 0.9170 0.9170 0.9170 0.9170 0.9150
2.743000 0.9150 0.9150 0.9150 0.9150 0.9130
2.777415 0.9120 0.9100 0.9050 0.9030 0.9000
2.812000 0.9000 0.8960 0.8930 0.8910 0.8890
2.846415 0.8860 0.8550 0.8080 0.7790 0.7480
2.881000 0.6620 0.6160 0.5690 0.4970 0.4970
2.915415 0.5020 0.5400 0.6660 0.7520 0.7520
2.949000 0.7520 0.7410 0.7310 0.7310 0.7340
2.983415 0.7430 0.7600 0.7740 0.7860 0.7950
3.018000 0.8100 0.8170 0.8220 0.8290 0.8340
3.052415 0.8410 0.8480 0.8500 0.8510 0.8530
3.087000 0.8530 0.8550 0.8570 0.8600 0.8640
3.121415 0.8690 0.8700 0.8700 0.8700 0.8700
3.156000 0.8700 0.8650 0.8570 0.8500 0.8460
3.190415 0.8410 0.8290 0.8100 0.8030 0.7960
3.225000 0.7860 0.7760 0.7640 0.7460 0.7310
3.259415 0.7220 0.7210 0.7210 0.7220 0.7290
3.293000 0.7340 0.7340 0.7330 0.7020 0.6470
3.327415 0.6000 0.5400 0.4800 0.4710 0.4730
3.362000 0.4970 0.5330 0.5760 0.6230 0.6230
3.396415 0.6160 0.6000 0.5850 0.5740 0.5740
3.431000 0.5920 0.6310 0.6380 0.6620 0.6880
3.465415 0.7430 0.7760 0.7910 0.8240 0.8360
3.500000 0.8460 0.8570 0.8640 0.8700 0.8740
3.534415 0.8770 0.8820 0.8880 0.8910 0.9000
3.569000 0.9000 0.9000 0.9000 0.8910 0.8910
3.603415 0.8930 0.9000 0.9000 0.9000 0.8930
3.637000 0.8950 0.8960 0.9010 0.9030 0.9050
3.671415 0.9100 0.9130 0.9190 0.9220 0.9240
3.706000 0.9270 0.9290 0.9290 0.9290 0.9290
3.740415 0.9290 0.9290 0.9250 0.9190 0.9150
3.775000 0.9120 0.9120 0.9150 0.9150 0.9200
3.809415 0.9200 0.9190 0.9190 0.9150 0.9130
3.844000 0.9120 0.9100 0.9100 0.9080 0.9070
3.878415 0.9030 0.9010 0.9010 0.9120 0.9200
3.913000 0.9250 0.9290 0.9310 0.9320 0.9340
3.947415 0.9340 0.9340 0.9340 0.9340 0.9340
3.981000 0.9340 0.9340 0.9340 0.9320 0.9290
4.015415 0.9250 0.9250 0.9250 0.9250 0.9250
4.050000 0.9250 0.9240 0.9240 0.9240 0.9250
4.084415 0.9250 0.9290 0.9290 0.9310 0.9320
4.119000 0.9340 0.9340 0.9340 0.9360 0.9390
4.153415 0.9410 0.9430 0.9440 0.9460 0.9460
4.188000 0.9460 0.9460 0.9460 0.9440 0.9440
4.222415 0.9430 0.9390 0.9380 0.9380 0.9340
4.257000 0.9310 0.9290 0.9290 0.9270 0.9250
4.291415 0.9250 0.9250 0.9240 0.9240 0.9240
4.325000 0.9240 0.9240 0.9240 0.9250 0.9250
4.359415 0.9250 0.9250 0.9270 0.9290 0.9310
4.394000 0.9360 0.9390 0.9410 0.9410 0.9410
4.428415 0.9410 0.9410 0.9410 0.9390 0.9390
4.463000 0.9390 0.9410 0.9430 0.9460 0.9480
4.497415 0.9480 0.9500 0.9500 0.9500 0.9500
4.532000 0.9500 0.9500 0.9500 0.9500 0.9500
4.566415 0.9500 0.9480 0.9500 0.9480 0.9480
4.600000 0.9460 0.9460 0.9440 0.9440 0.9430
4.634415 0.9410 0.9410 0.9410 0.9460 0.9500
4.669000 0.9530 0.9530 0.9530 0.9550 0.9550
4.703415 0.9550 0.9560 0.9560 0.9560 0.9560
4.738000 0.9560 0.9560 0.9560 0.9560 0.9560
4.772415 0.9580 0.9580 0.9580 0.9580 0.9580
4.807000 0.9580 0.9560 0.9560 0.9550 0.9550
4.841415 0.9530 0.9530 0.9510 0.9500 0.9480
4.876000 0.9440 0.9430 0.9390 0.9340 0.9320
4.910415 0.9320 0.9320 0.9320 0.9320 0.9380
4.944000 0.9390 0.9430 0.9440 0.9440 0.9440
4.978415 0.9440 0.9410 0.9410 0.9410 0.9390
5.013000 0.9390 0.9390 0.9390 0.9390 0.9390
5.047415 0.9390 0.9390 0.9380 0.9340 0.9320
5.082000 0.9310 0.9290 0.9290 0.9290 0.9290
5.116415 0.9290 0.9290 0.9290 0.9270 0.9270
5.151000 0.9220 0.9170 0.9070 0.9030 0.9000
5.185415 0.8980 0.9000 0.9010 0.9050 0.9080
5.220000 0.9080 0.9080 0.9080 0.9080 0.9080
5.254415 0.9080 0.9010 0.8960 0.8890 0.8880
5.288000 0.8880 0.8880 0.8890 0.8960 0.9050
5.322415 0.9120 0.9170 0.9190 0.9190 0.9190
5.357000 0.9190 0.9190 0.9190 0.9190 0.9190
5.391415 0.9150 0.9100 0.9080 0.9050 0.9030
5.426000 0.9010 0.9000 0.9000 0.9010 0.9010
5.460415 0.9050 0.9050 0.9050 0.9050 0.9050
5.495000 0.9050 0.9050 0.9030 0.9010 0.9000
5.529415 0.8980 0.8930 0.8910 0.8890 0.8840
5.564000 0.8790 0.8700 0.8570 0.8510 0.8410
5.598415 0.8340 0.8220 0.8200 0.8140 0.8070
5.632000 0.8050 0.8030 0.8030 0.8030 0.8070
5.666415 0.8120 0.8170 0.8200 0.8220 0.8220
5.701000 0.8240 0.8240 0.8240 0.8240 0.8220
5.735415 0.8190 0.8100 0.8050 0.7980 0.7900
5.770000 0.7690 0.7460 0.7240 0.7070 0.6570
5.804415 0.6210 0.5850 0.4300 0.3640 0.2990
5.839000 0.2820 0.2230 0.1940 0.1630 0.1220
5.873415 0.0860 0.0480 0.0410 0.0320 0.0290
5.908000 0.0290 0.0320 0.0490 0.0560 0.0800
5.942415 0.1100 0.1320 0.1920 0.2370 0.3250
5.976000 0.3490 0.3850 0.4590 0.4880 0.5570
6.010415 0.6210 0.6260 0.6380 0.6430 0.6570
6.045000 0.6710 0.6790 0.6950 0.7000 0.7020
6.079415 0.7030 0.7030 0.7030 0.7020 0.6980
6.114000 0.6950 0.6810 0.6670 0.6570 0.6400
6.148415 0.6070 0.5860 0.5640 0.5350 0.4610
6.183000 0.4300 0.3990 0.2750 0.1970 0.1200
6.217415 0.0800 0.0670 0.0670 0.0720 0.0960
6.252000 0.1200 0.1510 0.1970 0.2940 0.3450
6.286415 0.3660 0.3880 0.4210 0.4370 0.4500
6.320000 0.4610 0.4680 0.4690 0.4680 0.4680
6.354415 0.4590 0.4450 0.4350 0.4230 0.4110
6.389000 0.3970 0.3710 0.3400 0.2960 0.2590
6.423415 0.2270 0.2040 0.1970 0.1890 0.1750
6.458000 0.1600 0.1420 0.1270 0.1010 0.0750
6.492415 0.0530 0.0240 0.0180 0.0100 0.0080
6.527000 0.0080 0.0100 0.0130 0.0170 0.0180
6.561415 0.0200 0.0240 0.0250 0.0270 0.0270
6.596000 0.0300 0.0360 0.0410 0.0600 0.0770
6.630415 0.1100 0.1490 0.1970 0.2590 0.2870
6.664000 0.2970 0.2970 0.2970 0.2710 0.2390
6.698415 0.2010 0.1630 0.1300 0.1040 0.0940
6.733000 0.0920 0.0990 0.1150 0.1290 0.1490
6.767415 0.1770 0.2060 0.2630 0.3370 0.3610
6.802000 0.3940 0.3970 0.3990 0.3130 0.2400
6.836415 0.1660 0.0510 0.0510 0.0430 0.0100
6.871000 0.0000 0.0000 0.0000 0.0000 0.0360
6.905415 0.0510 0.0610 0.0820 0.1030 0.1250
6.940000 0.1480 0.1890 0.2440 0.2630 0.2780
6.974415 0.2900 0.3010 0.3090 0.3210 0.3330
7.008000 0.3490 0.3700 0.3850 0.3990 0.4380
7.042415 0.4540 0.4750 0.4930 0.5020 0.5110
7.077000 0.5230 0.5280 0.5300 0.5310 0.5300
7.111415 0.5040 0.4780 0.4540 0.4350 0.4160
7.146000 0.3390 0.2610 0.2180 0.2080 0.1970
7.180415 0.1920 0.2200 0.2490 0.2780 0.3090
7.215000 0.3370 0.3470 0.3520 0.3660 0.3660
7.249415 0.3580 0.3180 0.2610 0.2300 0.2130
7.284000 0.1940 0.1660 0.1490 0.1490 0.1600
7.318415 0.1910 0.3280 0.3780 0.4620 0.5230
7.352000 0.5690 0.6260 0.6430 0.6590 0.6660
7.386415 0.6660 0.6670 0.6640 0.6470 0.6170
7.421000 0.6040 0.5900 0.5280 0.4190 0.3900
7.455415 0.3610 0.2960 0.2270 0.2130 0.1990
7.490000 0.1800 0.1770 0.1820 0.1960 0.2440
7.524415 0.2730 0.3020 0.3390 0.3630 0.3950
7.559000 0.4590 0.4760 0.4880 0.4930 0.5000
7.593415 0.5110 0.5570 0.5570 0.5550 0.5520
7.628000 0.5450 0.5190 0.4950 0.4660 0.4370
7.662415 0.4040 0.3900 0.3750 0.3470 0.3090
7.696000 0.2780 0.2470 0.2320 0.2250 0.2220
7.730415 0.2250 0.2340 0.2530 0.2750 0.3010
7.765000 0.3400 0.3710 0.4190 0.4490 0.4780
7.799415 0.4970 0.5060 0.5190 0.5230 0.5260
7.834000 0.5260 0.5240 0.5160 0.4930 0.4640
7.868415 0.4380 0.4090 0.3940 0.3760 0.3440
7.903000 0.2820 0.2300 0.2090 0.1890 0.1530
7.937415 0.1220 0.0910 0.0430 0.0410 0.0300
7.971000 0.0180 0.0100 0.0060 0.0080 0.0130
8.005415 0.0220 0.0290 0.0300 0.0440 0.0510
8.040000 0.0630 0.0670 0.0740 0.0800 0.0870
8.074415 0.0990 0.1010 0.1010 0.1010 0.1010
8.109000 0.1010 0.1010 0.1010 0.1080 0.1180
8.143415 0.1370 0.1540 0.1790 0.1990 0.2280
8.178000 0.2340 0.2350 0.2370 0.2370 0.2280
8.212415 0.2150 0.2080 0.1990 0.1890 0.1800
8.247000 0.1720 0.1700 0.1700 0.1680 0.1700
8.281415 0.1840 0.2280 0.2580 0.2890 0.3320
8.315000 0.3580 0.4300 0.4730 0.5070 0.5500
8.349415 0.5800 0.5970 0.6330 0.6450 0.6600
8.384000 0.6720 0.6790 0.6880 0.6950 0.7030
8.418415 0.7100 0.7160 0.7210 0.7280 0.7360
8.453000 0.7400 0.7460 0.7460 0.7480 0.7480
8.487415 0.7500 0.7520 0.7520 0.7520 0.7500
8.522000 0.7480 0.7450 0.7360 0.7220 0.7100
8.556415 0.6970 0.6790 0.6600 0.6500 0.6430
8.591000 0.6240 0.6170 0.6170 0.6190 0.6190
8.625415 0.6260 0.6310 0.6470 0.6500 0.6640
8.659000 0.6710 0.6810 0.6880 0.6970 0.7090
8.693415 0.7160 0.7220 0.7290 0.7360 0.7410
8.728000 0.7460 0.7500 0.7530 0.7570 0.7590
8.762415 0.7600 0.7600 0.7600 0.7590 0.7550
8.797000 0.7500 0.7400 0.7280 0.7100 0.6860
8.831415 0.6590 0.6240 0.6040 0.5810 0.5040
8.866000 0.4370 0.4140 0.3920 0.3140 0.2180
8.900415 0.1910 0.1610 0.1150 0.0800 0.0580
8.935000 0.0490 0.0490 0.0580 0.0700 0.0940
8.969415 0.1230 0.1600 0.1960 0.2680 0.3060
9.003000 0.3440 0.3820 0.4490 0.4780 0.5110
9.037415 0.5300 0.5470 0.5860 0.6330 0.6540
9.072000 0.6710 0.6910 0.7020 0.7160 0.7260
9.106415 0.7330 0.7360 0.7360 0.7380 0.7360
9.141000 0.7360 0.7310 0.7240 0.7160 0.7020
9.175415 0.6930 0.6850 0.6830 0.6810 0.6810
9.210000 0.6850 0.6880 0.6980 0.7070 0.7160
9.244415 0.7240 0.7360 0.7430 0.7500 0.7570
9.279000 0.7600 0.7650 0.7650 0.7670 0.7670
9.313415 0.7670 0.7670 0.7650 0.7640 0.7590
9.347000 0.7550 0.7480 0.7410 0.7290 0.7170
9.381415 0.7070 0.6930 0.6790 0.6590 0.6410
9.416000 0.6280 0.6140 0.5980 0.5760 0.5450
9.450415 0.5000 0.4620 0.4180 0.4010 0.3830
9.485000 0.3270 0.2490 0.2040 0.1840 0.1630
9.519415 0.1290 0.1010 0.0820 0.0650 0.0510
9.554000 0.0490 0.0490 0.0510 0.0580 0.0680
9.588415 0.0770 0.0860 0.0920 0.0960 0.1530
9.623000 0.1630 0.1750 0.1940 0.2340 0.2460
9.657415 0.2660 0.2920 0.3020 0.3250 0.3520
9.691000 0.3730 0.3940 0.4400 0.4640 0.4870
9.725415 0.5090 0.5300 0.5450 0.5620 0.5760
9.760000 0.5930 0.5980 0.6280 0.6360 0.6470
9.794415 0.6600 0.6810 0.6880 0.6900 0.6930
9.829000 0.6930 0.6950 0.6970 0.6970 0.6950
9.863415 0.6950 0.6950 0.6910 0.6860 0.6810
9.898000 0.6740 0.6670 0.6600 0.6520 0.6470
9.932415 0.6380 0.6240 0.6140 0.6070 0.6020
9.967000 0.5970 0.5920 0.5810 0.5780 0.5740
10.001415 0.5730 0.5690 0.5670 0.5670 0.5760
10.035000 0.5830 0.5950 0.6190 0.6330 0.6450
10.069415 0.6620 0.6740 0.6910 0.7020 0.7170
10.104000 0.7280 0.7400 0.7450 0.7500 0.7620
10.138415 0.7670 0.7760 0.7810 0.7880 0.7950
10.173000 0.7960 0.7960 0.8030 0.8070 0.8100
10.207415 0.8150 0.8150 0.8170 0.8220 0.8240
10.242000 0.8260 0.8270 0.8290 0.8310 0.8330
10.276415 0.8330 0.8330 0.8330 0.8330 0.8330
10.311000 0.8310 0.8290 0.8260 0.8240 0.8170
10.345415 0.8080 0.8050 0.8020 0.7960 0.7950
10.379000 0.7930 0.7880 0.7810 0.7740 0.7650
10.413415 0.7590 0.7480 0.7400 0.7280 0.7160
10.448000 0.7000 0.6930 0.6830 0.6810 0.6830
10.482415 0.6860 0.6950 0.7090 0.7220 0.7400
10.517000 0.7530 0.7650 0.7830 0.7950 0.8140
10.551415 0.8200 0.8260 0.8290 0.8310 0.8330
10.586000 0.8330 0.8330 0.8310 0.8310 0.8290
10.620415 0.8270 0.8220 0.8170 0.8100 0.8020
10.655000 0.7980 0.7950 0.7860 0.7740 0.7620
10.689415 0.7480 0.7290 0.7170 0.7000 0.6740
10.723000 0.6570 0.6280 0.6040 0.5880 0.5710
10.757415 0.5380 0.5000 0.4710 0.4470 0.4250
10.792000 0.4040 0.3970 0.3880 0.3700 0.3660
10.826415 0.3700 0.3780 0.3950 0.4470 0.4780
10.861000 0.5110 0.5450 0.5780 0.6380 0.6500
10.895415 0.6710 0.6880 0.7020 0.7140 0.7260
10.930000 0.7360 0.7430 0.7500 0.7520 0.7590
10.964415 0.7650 0.7690 0.7710 0.7720 0.7760
10.999000 0.7760 0.7760 0.7760 0.7760 0.7760
11.033415 0.7720 0.7690 0.7650 0.7600 0.7590
11.067000 0.7570 0.7570 0.7590 0.7600 0.7650
11.101415 0.7710 0.7810 0.7880 0.7960 0.8140
11.136000 0.8200 0.8270 0.8290 0.8340 0.8360
11.170415 0.8380 0.8380 0.8390 0.8390 0.8430
11.205000 0.8450 0.8450 0.8450 0.8450 0.8450
11.239415 0.8450 0.8450 0.8430 0.8430 0.8410
11.274000 0.8410 0.8390 0.8380 0.8360 0.8340
11.308415 0.8310 0.8290 0.8270 0.8240 0.8200
11.343000 0.8170 0.8150 0.8150 0.8140 0.8120
11.377415 0.8100 0.8070 0.8050 0.8020 0.8000
11.411000 0.8000 0.7980 0.7960 0.7950 0.7910
11.445415 0.7880 0.7860 0.7860 0.7840 0.7830
11.480000 0.7830 0.7810 0.7790 0.7770 0.7760
11.514415 0.7740 0.7720 0.7710 0.7670 0.7640
11.549000 0.7600 0.7590 0.7550 0.7530 0.7520
11.583415 0.7500 0.7480 0.7450 0.7430 0.7400
11.618000 0.7380 0.7360 0.7330 0.7310 0.7290
11.652415 0.7290 0.7280 0.7260 0.7260 0.7240
11.686000 0.7220 0.7210 0.7190 0.7190 0.7190
11.720415 0.7190 0.7210 0.7220 0.7220 0.7260
11.755000 0.7260 0.7280 0.7280 0.7290 0.7310
11.789415 0.7360 0.7400 0.7460 0.7530 0.7570
11.824000 0.7600 0.7670 0.7720 0.7790 0.7840
11.858415 0.7900 0.7960 0.7980 0.7980 0.8020
11.893000 0.8070 0.8100 0.8140 0.8150 0.8150
11.927415 0.8170 0.8190 0.8200 0.8220 0.8240
11.962000 0.8260 0.8270 0.8290 0.8290 0.8330
11.996415 0.8340 0.8360 0.8380 0.8380 0.8380
12.030000 0.8390 0.8390 0.8410 0.8390 0.8410
12.064415 0.8410 0.8430 0.8430 0.8450 0.8460
12.099000 0.8460 0.8460 0.8460 0.8460 0.8480
12.133415 0.8480 0.8480 0.8480 0.8500 0.8500
12.168000 0.8500 0.8500 0.8510 0.8530 0.8550
12.202415 0.8570 0.8570 0.8570 0.8570 0.8570
12.237000 0.8550 0.8550 0.8530 0.8530 0.8510
12.271415 0.8510 0.8510 0.8500 0.8500 0.8480
12.306000 0.8480 0.8460 0.8460 0.8450 0.8430
12.340415 0.8410 0.8390 0.8390 0.8380 0.8360
12.374000 0.8360 0.8340 0.8310 0.8270 0.8260
12.408415 0.8240 0.8200 0.8150 0.8120 0.8070
12.443000 0.8050 0.8000 0.7980 0.7960 0.7930
12.477415 0.7880 0.7790 0.7710 0.7620 0.7520
12.512000 0.7400 0.7280 0.7120 0.6950 0.6740
12.546415 0.6590 0.6430 0.6190 0.6110 0.6050
12.581000 0.5980 0.5920 0.5850 0.5800 0.5800
12.615415 0.5830 0.5860 0.5950 0.6230 0.6360
12.650000 0.6520 0.6670 0.6850 0.7000 0.7120
12.684415 0.7210 0.7330 0.7450 0.7500 0.7570
12.718000 0.7620 0.7670 0.7710 0.7740 0.7760
12.752415 0.7770 0.7790 0.7810 0.7830 0.7840
12.787000 0.7860 0.7880 0.7900 0.7900 0.7900
12.821415 0.7900 0.7900 0.7900 0.7880 0.7860
12.856000 0.7860 0.7840 0.7810 0.7790 0.7760
12.890415 0.7740 0.7710 0.7690 0.7650 0.7600
12.925000 0.7530 0.7500 0.7450 0.7360 0.7290
12.959415 0.7240 0.7160 0.7140 0.7140 0.7090
12.994000 0.6930 0.6860 0.6850 0.6790 0.6760
13.028415 0.6710 0.6690 0.6670 0.6670 0.6660
13.062000 0.6660 0.6640 0.6620 0.6600 0.6590
13.096415 0.6570 0.6550 0.6500 0.6470 0.6410
13.131000 0.6290 0.6260 0.6120 0.6050 0.5970
13.165415 0.5950 0.5830 0.5690 0.5660 0.5450
13.200000 0.5240 0.5040 0.4900 0.4730 0.4540
13.234415 0.4320 0.4090 0.4010 0.3900 0.3730
13.269000 0.3450 0.3180 0.2940 0.2540 0.2370
13.303415 0.2080 0.2010 0.1940 0.1680 0.1350
13.338000 0.1300 0.1100 0.0940 0.0750 0.0600
13.372415 0.0510 0.0390 0.0270 0.0180 0.0150
13.406000 0.0120 0.0080 0.0060 0.0050 0.0030
13.440415 0.0030 0.0030 0.0030 0.0030 0.0030
13.475000 0.0060 0.0150 0.0270 0.0390 0.0510
13.509415 0.0670 0.0910 0.1130 0.1370 0.1600
13.544000 0.1960 0.2530 0.2780 0.3020 0.3230
13.578415 0.3490 0.3660 0.3780 0.3830 0.4400
13.613000 0.4490 0.4570 0.4680 0.4730 0.4810
13.647415 0.4870 0.4900 0.4970 0.4990 0.5000
13.682000 0.5040 0.5070 0.5110 0.5180 0.5230
13.716415 0.5260 0.5310 0.5380 0.5470 0.5500
13.750000 0.5590 0.5670 0.5760 0.5830 0.5900
13.784415 0.5930 0.6110 0.6170 0.6260 0.6290
13.819000 0.6330 0.6380 0.6400 0.6450 0.6470
13.853415 0.6480 0.6500 0.6540 0.6550 0.6570
13.888000 0.6570 0.6570 0.6590 0.6590 0.6600
13.922415 0.6620 0.6620 0.6640 0.6640 0.6660
13.957000 0.6660 0.6660 0.6670 0.6670 0.6670
13.991415 0.6670 0.6670 0.6670 0.6670 0.6670
14.026000 0.6660 0.6640 0.6640 0.6640 0.6640
14.060415 0.6640 0.6620 0.6620 0.6600 0.6590
14.094000 0.6570 0.6570 0.6570 0.6550 0.6550
14.128415 0.6540 0.6540 0.6520 0.6500 0.6500
14.163000 0.6480 0.6470 0.6470 0.6450 0.6430
14.197415 0.6430 0.6410 0.6400 0.6400 0.6380
14.232000 0.6360 0.6350 0.6330 0.6310 0.6310
14.266415 0.6280 0.6280 0.6260 0.6260 0.6240
14.301000 0.6240 0.6230 0.6210 0.6190 0.6170
14.335415 0.6170 0.6160 0.6140 0.6140 0.6120
14.370000 0.6120 0.6120 0.6120 0.6110 0.6090
14.404415 0.6070 0.6050 0.6040 0.6040 0.6020
14.438000 0.6020 0.6000 0.6000 0.5980 0.5980
14.472415 0.5970 0.5970 0.5950 0.5950 0.5920
14.507000 0.5900 0.5860 0.5860 0.5850 0.5830
14.541415 0.5810 0.5800 0.5780 0.5760 0.5740
14.576000 0.5730 0.5710 0.5690 0.5670 0.5660
14.610415 0.5640 0.5620 0.5610 0.5590 0.5570
14.645000 0.5550 0.5540 0.5500 0.5500 0.5500
14.679415 0.5490 0.5490 0.5470 0.5470 0.5430
14.714000 0.5400 0.5370 0.5370 0.5330 0.5310
14.748415 0.5310 0.5300 0.5280 0.5260 0.5230
14.782000 0.5210 0.5210 0.5180 0.5160 0.5120
14.816415 0.5110 0.5090 0.5090 0.5070 0.5060
14.851000 0.5040 0.5020 0.5000 0.4990 0.4990
14.885415 0.4970 0.4930 0.4930 0.4920 0.4920
14.920000 0.4900 0.4870 0.4850 0.4830 0.4800
14.954415 0.4760 0.4730 0.4690 0.4680 0.4640
14.989000 0.4620 0.4570 0.4500 0.4470 0.4440
15.023415 0.4380 0.4370 0.4330 0.4300 0.4260
15.057000 0.4250 0.4210 0.4190 0.4180 0.4160
15.091415 0.4140 0.4130 0.4110 0.4090 0.4070
15.126000 0.4060 0.4060 0.4060 0.4020 0.4020
15.160415 0.4010 0.4010 0.4010 0.3990 0.3990
15.195000 0.3970 0.3970 0.3950 0.3920 0.3900
15.229415 0.3870 0.3830 0.3800 0.3780 0.3780
15.264000 0.3760 0.3760 0.3750 0.3730 0.3710
15.298415 0.3700 0.3680 0.3660 0.3660 0.3640
15.333000 0.3630 0.3610 0.3590 0.3590 0.3580
15.367415 0.3580 0.3580 0.3560 0.3560 0.3560
15.401000 0.3540 0.3540 0.3520 0.3510 0.3510
15.435415 0.3490 0.3470 0.3470 0.3450 0.3420
15.470000 0.3400 0.3390 0.3370 0.3370 0.3350
15.504415 0.3320 0.3300 0.3300 0.3280 0.3280
15.539000 0.3270 0.3250 0.3230 0.3210 0.3200
15.573415 0.3160 0.3160 0.3140 0.3110 0.3110
15.608000 0.3090 0.3090 0.3080 0.3040 0.3040
15.642415 0.3010 0.3010 0.2990 0.2990 0.2970
15.677000 0.2970 0.2960 0.2960 0.2940 0.2920
15.711415 0.2920 0.2920 0.2920 0.2900 0.2900
15.745000 0.2900 0.2890 0.2890 0.2890 0.2890
15.779415 0.2890 0.2890 0.2870 0.2850 0.2850
15.814000 0.2850 0.2850 0.2850 0.2850 0.2850
15.848415 0.2850 0.2850 0.2850 0.2850 0.2850
15.883000 0.2850 0.2850 0.2850 0.2850
##END=
