##TITLE=SODIUM DIPHENYLDIAZO-BIS-Alpha-NAPHTHYLAMINE SULFONATE
##JCAMP-DX=4.24
##DATA TYPE=INFRARED SPECTRUM
##CLASS=COBLENTZ
##ORIGIN=WYANDOTTE CHEMICALS CORP., WYANDOTTE, MICHIGAN, USA
##OWNER=COBLENTZ SOCIETY
Collection (C) 2018 copyright by the U.S. Secretary of Commerce
on behalf of the United States of America. All rights reserved.
##DATE=Not specified, most likely prior to 1970
##NAMES=CONGO RED
##MOLFORM=C32 H22 N6 O6 S2 Na2
##SOURCE REFERENCE=COBLENTZ NO. 3891
##$NIST ID=B6003891
##$NIST SOURCE=COBLENTZ
##$NIST IMAGE=cob3891
##SPECTROMETER/DATA SYSTEM=Not specified, most likely a prism, grating, or hybrid spectrometer.
##STATE=SOLID (MINERAL OIL MULL)
##PATH LENGTH=
$$SPECTRAL CONTAMINATION DUE TO OIL AROUND 2900 CM^-^1
##SAMPLING PROCEDURE=TRANSMISSION
##RESOLUTION=4
##DATA PROCESSING=DIGITIZED BY NIST FROM HARD COPY
##XUNITS=MICROMETERS
##YUNITS=TRANSMITTANCE
##XFACTOR=1.000000
##YFACTOR=1
##DELTAX=000.006192
##FIRSTX=2.019
##LASTX=16.0057
##FIRSTY=0.192
##MAXX=16.0057
##MINX=2.019
##MAXY=0.937
##MINY=0.02
##NPOINTS=2260
##XYDATA=(X++(Y..Y))
2.019000 0.1920 0.1940 0.1950 0.1970 0.1970
2.049973 0.2000 0.2010 0.2060 0.2090 0.2180
2.080000 0.2200 0.2200 0.2200 0.2200 0.2220
2.110973 0.2230 0.2250 0.2280 0.2310 0.2320
2.142000 0.2340 0.2360 0.2360 0.2370 0.2390
2.172973 0.2420 0.2420 0.2430 0.2430 0.2430
2.204000 0.2420 0.2420 0.2430 0.2450 0.2460
2.234973 0.2480 0.2480 0.2480 0.2480 0.2500
2.266000 0.2510 0.2530 0.2530 0.2540 0.2560
2.296973 0.2600 0.2600 0.2620 0.2630 0.2650
2.328000 0.2680 0.2710 0.2740 0.2790 0.2810
2.358973 0.2840 0.2840 0.2850 0.2850 0.2850
2.390000 0.2850 0.2850 0.2820 0.2810 0.2810
2.420973 0.2820 0.2840 0.2870 0.2900 0.2930
2.452000 0.2980 0.3020 0.3070 0.3130 0.3180
2.482973 0.3190 0.3190 0.3190 0.3180 0.3180
2.514000 0.3190 0.3210 0.3240 0.3260 0.3260
2.544973 0.3290 0.3290 0.3300 0.3330 0.3350
2.576000 0.3400 0.3410 0.3430 0.3440 0.3470
2.606973 0.3470 0.3470 0.3490 0.3490 0.3490
2.638000 0.3500 0.3540 0.3610 0.3680 0.3690
2.668973 0.3690 0.3690 0.3690 0.3690 0.3690
2.700000 0.3690 0.3690 0.3690 0.3680 0.3640
2.730973 0.3640 0.3690 0.3690 0.3680 0.3660
2.762000 0.3660 0.3640 0.3630 0.3600 0.3570
2.792973 0.3540 0.3490 0.3430 0.3430 0.3400
2.824000 0.3360 0.3300 0.3260 0.3210 0.3150
2.854973 0.3050 0.3020 0.2960 0.2850 0.2760
2.885000 0.2600 0.2460 0.2290 0.2060 0.1970
2.915973 0.1870 0.1860 0.1870 0.1920 0.1950
2.947000 0.2010 0.2120 0.2230 0.2290 0.2340
2.977973 0.2390 0.2420 0.2460 0.2510 0.2570
3.009000 0.2630 0.2710 0.2740 0.2770 0.2810
3.039973 0.2840 0.2880 0.2930 0.2990 0.3010
3.071000 0.3020 0.3020 0.3050 0.3130 0.3190
3.101973 0.3190 0.3210 0.3240 0.3270 0.3290
3.133000 0.3300 0.3300 0.3320 0.3330 0.3330
3.163973 0.3320 0.3290 0.3290 0.3300 0.3330
3.195000 0.3350 0.3330 0.3290 0.3290 0.3320
3.225973 0.3380 0.3410 0.3430 0.3440 0.3440
3.257000 0.3430 0.3410 0.3380 0.3360 0.3360
3.287973 0.3360 0.3360 0.3360 0.3350 0.3290
3.319000 0.3180 0.2990 0.2710 0.2500 0.2150
3.349973 0.1810 0.1440 0.0960 0.0600 0.0410
3.381000 0.0210 0.0200 0.0200 0.0210 0.0230
3.411973 0.0240 0.0260 0.0290 0.0310 0.0320
3.443000 0.0320 0.0320 0.0320 0.0320 0.0320
3.473973 0.0340 0.0350 0.0370 0.0370 0.0370
3.505000 0.0350 0.0340 0.0350 0.0430 0.0510
3.535973 0.0590 0.1350 0.2010 0.2730 0.3360
3.567000 0.3810 0.4130 0.4360 0.4510 0.4640
3.597973 0.4780 0.4950 0.5200 0.5230 0.5310
3.628000 0.5380 0.5410 0.5430 0.5480 0.5520
3.658973 0.5550 0.5570 0.5550 0.5540 0.5520
3.690000 0.5520 0.5510 0.5520 0.5570 0.5620
3.720973 0.5690 0.5760 0.5790 0.5800 0.5800
3.752000 0.5800 0.5820 0.5820 0.5830 0.5850
3.782973 0.5880 0.5930 0.5960 0.5990 0.6020
3.814000 0.6050 0.6050 0.6080 0.6100 0.6110
3.844973 0.6140 0.6140 0.6140 0.6110 0.6110
3.876000 0.6130 0.6140 0.6180 0.6210 0.6240
3.906973 0.6270 0.6280 0.6300 0.6330 0.6350
3.938000 0.6360 0.6390 0.6420 0.6450 0.6490
3.968973 0.6520 0.6530 0.6550 0.6560 0.6590
4.000000 0.6630 0.6630 0.6640 0.6660 0.6700
4.030973 0.6750 0.6780 0.6800 0.6810 0.6830
4.062000 0.6870 0.6900 0.6920 0.6900 0.6900
4.092973 0.6870 0.6870 0.6870 0.6860 0.6860
4.124000 0.6870 0.6920 0.6940 0.6940 0.6950
4.154973 0.6950 0.6970 0.6980 0.7010 0.7030
4.186000 0.7040 0.7060 0.7060 0.7060 0.7080
4.216973 0.7090 0.7110 0.7140 0.7150 0.7170
4.248000 0.7180 0.7180 0.7110 0.6970 0.6890
4.278973 0.6860 0.6860 0.6890 0.6900 0.6920
4.310000 0.6950 0.7010 0.7060 0.7110 0.7150
4.340973 0.7220 0.7250 0.7290 0.7310 0.7360
4.372000 0.7390 0.7420 0.7480 0.7510 0.7560
4.402973 0.7600 0.7630 0.7630 0.7620 0.7600
4.433000 0.7590 0.7570 0.7570 0.7560 0.7560
4.463973 0.7560 0.7560 0.7570 0.7570 0.7590
4.495000 0.7600 0.7600 0.7620 0.7620 0.7630
4.525973 0.7650 0.7680 0.7680 0.7630 0.7630
4.557000 0.7630 0.7650 0.7670 0.7680 0.7710
4.587973 0.7740 0.7770 0.7810 0.7850 0.7900
4.619000 0.7910 0.7930 0.7980 0.7990 0.7990
4.649973 0.8010 0.8020 0.8020 0.8040 0.8050
4.681000 0.8070 0.8090 0.8090 0.8120 0.8130
4.711973 0.8160 0.8210 0.8240 0.8260 0.8220
4.743000 0.8220 0.8180 0.8190 0.8210 0.8240
4.773973 0.8270 0.8300 0.8320 0.8330 0.8350
4.805000 0.8360 0.8380 0.8400 0.8410 0.8410
4.835973 0.8430 0.8430 0.8440 0.8470 0.8490
4.867000 0.8500 0.8520 0.8540 0.8580 0.8600
4.897973 0.8580 0.8580 0.8520 0.8520 0.8570
4.929000 0.8580 0.8600 0.8600 0.8610 0.8630
4.959973 0.8630 0.8600 0.8580 0.8580 0.8580
4.991000 0.8600 0.8610 0.8680 0.8740 0.8750
5.021973 0.8750 0.8770 0.8770 0.8780 0.8780
5.053000 0.8780 0.8780 0.8780 0.8800 0.8800
5.083973 0.8810 0.8810 0.8850 0.8830 0.8800
5.115000 0.8780 0.8750 0.8740 0.8740 0.8750
5.145973 0.8770 0.8780 0.8830 0.8850 0.8860
5.176000 0.8880 0.8880 0.8880 0.8890 0.8910
5.206973 0.8920 0.8940 0.8990 0.9020 0.9020
5.238000 0.9000 0.8970 0.8950 0.8950 0.8950
5.268973 0.8950 0.8950 0.8950 0.8950 0.8970
5.300000 0.8990 0.9020 0.9030 0.9030 0.9020
5.330973 0.9030 0.9060 0.9090 0.9110 0.9140
5.362000 0.9160 0.9170 0.9170 0.9160 0.9020
5.392973 0.9020 0.9080 0.9170 0.9230 0.9230
5.424000 0.9250 0.9280 0.9300 0.9280 0.9220
5.454973 0.9170 0.9160 0.9190 0.9200 0.9220
5.486000 0.9230 0.9230 0.9190 0.9020 0.9020
5.516973 0.9140 0.9230 0.9250 0.9250 0.9250
5.548000 0.9250 0.9250 0.9300 0.9300 0.9220
5.578973 0.9140 0.9090 0.9080 0.9060 0.9080
5.610000 0.9110 0.9170 0.9270 0.9300 0.9310
5.640973 0.9310 0.9310 0.9300 0.9310 0.9310
5.672000 0.9310 0.9340 0.9370 0.9360 0.9340
5.702973 0.9300 0.9280 0.9300 0.9270 0.9220
5.734000 0.9200 0.9280 0.9280 0.9250 0.9200
5.764973 0.9190 0.9140 0.9200 0.9170 0.9160
5.796000 0.9080 0.8950 0.8750 0.8600 0.8580
5.826973 0.8580 0.8540 0.8490 0.8410 0.8270
5.858000 0.8160 0.8070 0.8070 0.8100 0.8190
5.888973 0.8270 0.8290 0.8300 0.8240 0.8040
5.920000 0.7980 0.7960 0.7960 0.7980 0.8040
5.950973 0.8100 0.8120 0.8070 0.8070 0.8070
5.981000 0.8090 0.8090 0.8120 0.8100 0.8040
6.011973 0.7960 0.7840 0.7700 0.7560 0.7500
6.043000 0.7500 0.7430 0.7360 0.7250 0.7080
6.073973 0.6950 0.6800 0.6780 0.6800 0.6890
6.105000 0.7040 0.7040 0.7000 0.6860 0.6750
6.135973 0.6530 0.6140 0.5570 0.4840 0.3950
6.167000 0.3090 0.2740 0.2730 0.2730 0.2900
6.197973 0.2880 0.2710 0.2600 0.2560 0.2540
6.229000 0.2630 0.2630 0.2500 0.2010 0.1590
6.259973 0.1300 0.1140 0.1140 0.1210 0.1350
6.291000 0.1550 0.1830 0.2140 0.2530 0.2900
6.321973 0.3150 0.3270 0.3460 0.3610 0.3680
6.353000 0.3680 0.3630 0.3610 0.3600 0.3610
6.383973 0.3680 0.3770 0.4020 0.4110 0.4090
6.415000 0.4080 0.3890 0.3880 0.3850 0.3850
6.445973 0.3890 0.4090 0.4400 0.4700 0.5000
6.477000 0.5340 0.5460 0.5590 0.5690 0.5800
6.507973 0.5940 0.5990 0.6000 0.6020 0.6050
6.539000 0.6100 0.6110 0.6130 0.6210 0.6220
6.569973 0.6220 0.6190 0.6070 0.6000 0.5910
6.601000 0.5830 0.5770 0.5710 0.5650 0.5430
6.631973 0.5100 0.5060 0.5060 0.5170 0.5450
6.663000 0.5740 0.5880 0.5930 0.5970 0.5990
6.693973 0.6020 0.6020 0.5990 0.5820 0.5680
6.724000 0.5540 0.5410 0.5260 0.5030 0.4790
6.754973 0.4510 0.4110 0.3540 0.2680 0.2080
6.786000 0.1900 0.1770 0.1610 0.1530 0.1470
6.816973 0.1470 0.1490 0.1520 0.1530 0.1580
6.848000 0.1580 0.1530 0.1470 0.1450 0.1490
6.878973 0.1560 0.1730 0.1940 0.2250 0.2510
6.910000 0.2760 0.2980 0.3190 0.3430 0.3690
6.940973 0.3990 0.4330 0.4530 0.4620 0.4700
6.972000 0.4750 0.4790 0.4820 0.4870 0.4930
7.002973 0.4960 0.4980 0.4930 0.4890 0.4810
7.034000 0.4780 0.4810 0.4780 0.4730 0.4610
7.064973 0.4450 0.4280 0.4060 0.3950 0.3750
7.096000 0.3660 0.3610 0.3580 0.3580 0.3610
7.126973 0.3720 0.3850 0.3990 0.4140 0.4300
7.158000 0.4420 0.4450 0.4480 0.4420 0.4280
7.188973 0.4140 0.3910 0.3600 0.3300 0.3020
7.220000 0.2880 0.2600 0.2400 0.2250 0.2080
7.250973 0.1980 0.1950 0.1970 0.2060 0.2230
7.282000 0.2340 0.2480 0.2480 0.2430 0.2390
7.312973 0.2280 0.2290 0.2310 0.2390 0.2450
7.344000 0.2530 0.2560 0.2570 0.2600 0.2630
7.374973 0.2670 0.2700 0.2700 0.2680 0.2670
7.406000 0.2680 0.2840 0.3020 0.3290 0.3540
7.436973 0.3800 0.4060 0.4390 0.4750 0.5070
7.467000 0.5340 0.5450 0.5550 0.5650 0.5690
7.497973 0.5690 0.5630 0.5510 0.5340 0.5130
7.529000 0.4900 0.4730 0.4580 0.4500 0.4500
7.559973 0.4580 0.4840 0.5130 0.5450 0.5800
7.591000 0.6000 0.6130 0.6190 0.6470 0.6750
7.621973 0.6940 0.7010 0.7090 0.7090 0.7120
7.653000 0.7180 0.7220 0.7260 0.7290 0.7360
7.683973 0.7450 0.7530 0.7630 0.7680 0.7700
7.715000 0.7700 0.7740 0.7770 0.7790 0.7820
7.745973 0.7850 0.7900 0.7980 0.7990 0.8020
7.777000 0.8020 0.8090 0.8150 0.8160 0.8150
7.807973 0.8070 0.8010 0.7980 0.7910 0.7900
7.839000 0.7880 0.7850 0.7790 0.7710 0.7620
7.869973 0.7530 0.7400 0.7320 0.7260 0.7170
7.901000 0.7060 0.6900 0.6690 0.6470 0.6210
7.931973 0.5960 0.5690 0.5450 0.5270 0.5210
7.963000 0.5170 0.5150 0.5180 0.5230 0.5230
7.993973 0.5200 0.5100 0.4860 0.4530 0.4360
8.025000 0.4190 0.3940 0.3630 0.3290 0.2950
8.055973 0.2600 0.2260 0.1980 0.1750 0.1580
8.087000 0.1440 0.1250 0.1140 0.1070 0.0970
8.117973 0.0880 0.0800 0.0660 0.0600 0.0590
8.149000 0.0590 0.0600 0.0620 0.0650 0.0680
8.179973 0.0720 0.0770 0.0960 0.1140 0.1410
8.211000 0.1660 0.1900 0.2150 0.2420 0.2670
8.241973 0.2900 0.3120 0.3300 0.3440 0.3600
8.272000 0.3610 0.3640 0.3630 0.3520 0.3320
8.302973 0.3090 0.2850 0.2650 0.2400 0.2250
8.334000 0.1980 0.1900 0.1900 0.1970 0.2180
8.364973 0.2430 0.2590 0.2740 0.2760 0.2770
8.396000 0.2770 0.2480 0.1870 0.1770 0.1500
8.426973 0.1300 0.1130 0.0900 0.0710 0.0660
8.458000 0.0600 0.0590 0.0600 0.0660 0.0710
8.488973 0.0790 0.0860 0.0970 0.1140 0.1310
8.520000 0.1470 0.1640 0.1750 0.1840 0.1970
8.550973 0.2140 0.2340 0.2560 0.2790 0.2990
8.582000 0.3190 0.3360 0.3460 0.3540 0.3580
8.612973 0.3580 0.3570 0.3470 0.3410 0.3380
8.644000 0.3380 0.3410 0.3490 0.3550 0.3660
8.674973 0.3830 0.4050 0.4170 0.4280 0.4340
8.706000 0.4400 0.4440 0.4500 0.4560 0.4580
8.736973 0.4590 0.4640 0.4650 0.4670 0.4680
8.768000 0.4700 0.4720 0.4730 0.4760 0.4810
8.798973 0.4870 0.4890 0.4870 0.4870 0.4860
8.830000 0.4810 0.4750 0.4640 0.4440 0.4250
8.860973 0.4060 0.3910 0.3720 0.3640 0.3610
8.892000 0.3630 0.3750 0.3890 0.4060 0.4330
8.922973 0.4480 0.4620 0.4790 0.4950 0.5040
8.954000 0.5170 0.5230 0.5350 0.5410 0.5490
8.984973 0.5570 0.5710 0.5830 0.5910 0.5970
9.015000 0.6020 0.6050 0.6080 0.6110 0.6140
9.045973 0.6190 0.6270 0.6350 0.6390 0.6420
9.077000 0.6440 0.6490 0.6500 0.6500 0.6520
9.107973 0.6530 0.6530 0.6550 0.6560 0.6560
9.139000 0.6560 0.6560 0.6560 0.6530 0.6490
9.169973 0.6440 0.6410 0.6380 0.6350 0.6310
9.201000 0.6240 0.6080 0.5970 0.5930 0.5860
9.231973 0.5800 0.5680 0.5480 0.5310 0.4980
9.263000 0.4650 0.4300 0.3860 0.3320 0.2900
9.293973 0.2320 0.1860 0.1490 0.1050 0.0770
9.325000 0.0570 0.0520 0.0490 0.0480 0.0460
9.355973 0.0460 0.0490 0.0510 0.0520 0.0600
9.387000 0.0660 0.0790 0.0960 0.1190 0.1410
9.417973 0.1520 0.1690 0.1940 0.2060 0.2340
9.449000 0.2620 0.2900 0.3180 0.3440 0.3680
9.479973 0.3910 0.4090 0.4250 0.4480 0.4640
9.511000 0.4760 0.4860 0.4980 0.5060 0.5170
9.541973 0.5210 0.5270 0.5340 0.5460 0.5620
9.573000 0.5720 0.5820 0.5960 0.6050 0.6210
9.603973 0.6310 0.6390 0.6440 0.6500 0.6590
9.635000 0.6670 0.6720 0.6780 0.6870 0.6920
9.665973 0.6980 0.7000 0.7010 0.7040 0.7060
9.697000 0.7060 0.7080 0.7090 0.7090 0.7090
9.727973 0.7090 0.7110 0.7120 0.7140 0.7140
9.759000 0.7120 0.7110 0.7080 0.7060 0.7040
9.789973 0.7030 0.7040 0.7060 0.7090 0.7110
9.820000 0.7140 0.7180 0.7230 0.7290 0.7320
9.850973 0.7370 0.7420 0.7450 0.7500 0.7540
9.882000 0.7590 0.7620 0.7650 0.7680 0.7700
9.912973 0.7710 0.7760 0.7870 0.7910 0.7950
9.944000 0.7960 0.7950 0.7910 0.7850 0.7770
9.974973 0.7600 0.7590 0.7600 0.7700 0.7790
10.006000 0.7900 0.7990 0.8040 0.8100 0.8120
10.036973 0.8130 0.8150 0.8160 0.8160 0.8180
10.068000 0.8180 0.8180 0.8180 0.8190 0.8190
10.098973 0.8190 0.8190 0.8190 0.8190 0.8190
10.130000 0.8180 0.8150 0.8150 0.8150 0.8160
10.160973 0.8180 0.8210 0.8240 0.8220 0.8240
10.192000 0.8260 0.8290 0.8300 0.8320 0.8320
10.222973 0.8300 0.8300 0.8290 0.8270 0.8270
10.254000 0.8270 0.8270 0.8270 0.8270 0.8270
10.284973 0.8270 0.8270 0.8270 0.8260 0.8260
10.316000 0.8260 0.8240 0.8220 0.8220 0.8210
10.346973 0.8190 0.8160 0.8150 0.8130 0.8100
10.378000 0.8050 0.8040 0.8010 0.7990 0.7990
10.408973 0.8010 0.8010 0.8010 0.8020 0.8040
10.440000 0.8040 0.8070 0.8100 0.8100 0.8090
10.470973 0.8040 0.8020 0.8010 0.7960 0.7930
10.502000 0.7910 0.7930 0.7950 0.7950 0.7960
10.532973 0.7960 0.7980 0.7980 0.7990 0.7990
10.563000 0.7990 0.7990 0.7990 0.7990 0.7980
10.593973 0.7980 0.7980 0.7960 0.7950 0.7930
10.625000 0.7910 0.7910 0.7900 0.7900 0.7910
10.655973 0.7980 0.7990 0.8010 0.8010 0.8040
10.687000 0.8090 0.8120 0.8130 0.8150 0.8160
10.717973 0.8210 0.8260 0.8300 0.8320 0.8330
10.749000 0.8330 0.8330 0.8350 0.8360 0.8360
10.779973 0.8380 0.8400 0.8380 0.8360 0.8350
10.811000 0.8320 0.8290 0.8270 0.8290 0.8290
10.841973 0.8260 0.8160 0.8090 0.8010 0.7870
10.873000 0.7700 0.7530 0.7360 0.7260 0.7170
10.903973 0.7150 0.7170 0.7250 0.7400 0.7590
10.935000 0.7850 0.8020 0.8160 0.8300 0.8360
10.965973 0.8490 0.8540 0.8570 0.8600 0.8630
10.997000 0.8640 0.8680 0.8720 0.8750 0.8770
11.027973 0.8770 0.8770 0.8770 0.8750 0.8720
11.059000 0.8640 0.8520 0.8410 0.8260 0.8070
11.089973 0.7960 0.7820 0.7790 0.7790 0.7810
11.121000 0.7840 0.7910 0.8050 0.8190 0.8300
11.151973 0.8410 0.8490 0.8540 0.8610 0.8660
11.183000 0.8720 0.8810 0.8830 0.8850 0.8890
11.213973 0.8910 0.8990 0.9000 0.9050 0.9060
11.245000 0.9060 0.9050 0.9000 0.8950 0.8920
11.275973 0.8920 0.8950 0.8970 0.9020 0.9050
11.307000 0.9050 0.9030 0.9020 0.9000 0.9000
11.337973 0.8990 0.9000 0.9000 0.9000 0.8990
11.368000 0.8950 0.8920 0.8910 0.8890 0.8880
11.398973 0.8890 0.8890 0.8860 0.8850 0.8830
11.430000 0.8860 0.8890 0.8890 0.8880 0.8880
11.460973 0.8880 0.8880 0.8860 0.8860 0.8850
11.492000 0.8830 0.8830 0.8860 0.8860 0.8850
11.522973 0.8810 0.8780 0.8770 0.8710 0.8660
11.554000 0.8680 0.8690 0.8720 0.8710 0.8640
11.584973 0.8600 0.8580 0.8570 0.8570 0.8520
11.616000 0.8490 0.8440 0.8410 0.8330 0.8290
11.646973 0.8240 0.8190 0.8160 0.8160 0.8150
11.678000 0.8150 0.8130 0.8120 0.8120 0.8130
11.708973 0.8160 0.8190 0.8220 0.8240 0.8260
11.740000 0.8300 0.8330 0.8360 0.8380 0.8400
11.770973 0.8410 0.8400 0.8360 0.8350 0.8350
11.802000 0.8350 0.8380 0.8360 0.8330 0.8320
11.832973 0.8260 0.8150 0.8130 0.8120 0.8100
11.864000 0.8040 0.7960 0.7790 0.7680 0.7530
11.894973 0.7390 0.7220 0.7040 0.6870 0.6660
11.926000 0.6380 0.5990 0.5720 0.5510 0.5310
11.956973 0.5150 0.5030 0.4930 0.4860 0.4790
11.988000 0.4760 0.4700 0.4650 0.4580 0.4510
12.018973 0.4440 0.4400 0.4300 0.4160 0.4110
12.050000 0.4110 0.4130 0.4270 0.4470 0.4680
12.080973 0.5010 0.5170 0.5400 0.5650 0.5880
12.111000 0.6080 0.6280 0.6380 0.6490 0.6590
12.141973 0.6700 0.6750 0.6830 0.6950 0.7010
12.173000 0.7030 0.7080 0.7090 0.7110 0.7140
12.203973 0.7150 0.7180 0.7220 0.7260 0.7290
12.235000 0.7310 0.7320 0.7320 0.7340 0.7340
12.265973 0.7360 0.7360 0.7370 0.7390 0.7420
12.297000 0.7480 0.7510 0.7510 0.7560 0.7600
12.327973 0.7620 0.7620 0.7620 0.7590 0.7600
12.359000 0.7630 0.7650 0.7630 0.7630 0.7590
12.389973 0.7590 0.7620 0.7650 0.7650 0.7670
12.421000 0.7670 0.7670 0.7670 0.7650 0.7630
12.451973 0.7650 0.7650 0.7650 0.7650 0.7630
12.483000 0.7620 0.7620 0.7630 0.7630 0.7630
12.513973 0.7630 0.7650 0.7650 0.7650 0.7650
12.545000 0.7650 0.7650 0.7650 0.7630 0.7630
12.575973 0.7630 0.7620 0.7620 0.7620 0.7620
12.607000 0.7600 0.7590 0.7570 0.7560 0.7560
12.637973 0.7560 0.7540 0.7540 0.7540 0.7530
12.669000 0.7530 0.7510 0.7500 0.7450 0.7250
12.699973 0.7150 0.7060 0.6970 0.6900 0.6840
12.731000 0.6720 0.6640 0.6490 0.6310 0.6210
12.761973 0.6130 0.6110 0.6160 0.6280 0.6380
12.793000 0.6470 0.6550 0.6670 0.6830 0.6970
12.823973 0.7060 0.7180 0.7280 0.7360 0.7370
12.854000 0.7370 0.7390 0.7390 0.7400 0.7450
12.884973 0.7500 0.7500 0.7510 0.7510 0.7510
12.916000 0.7510 0.7500 0.7500 0.7500 0.7500
12.946973 0.7500 0.7500 0.7500 0.7480 0.7500
12.978000 0.7500 0.7480 0.7480 0.7460 0.7450
13.008973 0.7420 0.7400 0.7390 0.7390 0.7370
13.040000 0.7320 0.7230 0.7140 0.7030 0.6950
13.070973 0.6830 0.6770 0.6700 0.6590 0.6410
13.102000 0.6280 0.6050 0.5930 0.5740 0.5630
13.132973 0.5480 0.5310 0.5240 0.5200 0.5170
13.164000 0.5150 0.5150 0.5150 0.5170 0.5170
13.194973 0.5180 0.5210 0.5260 0.5310 0.5340
13.226000 0.5350 0.5340 0.5310 0.5270 0.5170
13.256973 0.5060 0.5000 0.4950 0.4780 0.4640
13.288000 0.4500 0.4310 0.4110 0.3950 0.3810
13.318973 0.3580 0.3350 0.3300 0.3300 0.3320
13.350000 0.3380 0.3460 0.3640 0.3810 0.4130
13.380973 0.4340 0.4590 0.4820 0.5060 0.5260
13.412000 0.5460 0.5650 0.5690 0.5820 0.5970
13.442973 0.6110 0.6240 0.6270 0.6410 0.6440
13.474000 0.6490 0.6520 0.6580 0.6660 0.6750
13.504973 0.6810 0.6860 0.6890 0.6900 0.6920
13.536000 0.6920 0.6900 0.6890 0.6890 0.6900
13.566973 0.6900 0.6920 0.6940 0.6950 0.6950
13.598000 0.6970 0.7000 0.7040 0.7110 0.7140
13.628973 0.7180 0.7220 0.7250 0.7260 0.7310
13.659000 0.7360 0.7400 0.7430 0.7460 0.7460
13.689973 0.7450 0.7450 0.7450 0.7430 0.7420
13.721000 0.7390 0.7390 0.7370 0.7360 0.7320
13.751973 0.7310 0.7290 0.7280 0.7250 0.7250
13.783000 0.7230 0.7220 0.7150 0.7040 0.6980
13.813973 0.6890 0.6810 0.6720 0.6640 0.6560
13.845000 0.6500 0.6420 0.6310 0.6280 0.6240
13.875973 0.6180 0.6130 0.6110 0.6130 0.6190
13.907000 0.6300 0.6390 0.6490 0.6610 0.6730
13.937973 0.6860 0.7000 0.7110 0.7170 0.7260
13.969000 0.7320 0.7370 0.7430 0.7480 0.7530
13.999973 0.7590 0.7620 0.7670 0.7700 0.7740
14.031000 0.7760 0.7790 0.7850 0.7930 0.7980
14.061973 0.8010 0.8010 0.8010 0.8020 0.8020
14.093000 0.8050 0.8040 0.7990 0.7960 0.7960
14.123973 0.7990 0.8010 0.7990 0.7980 0.7960
14.155000 0.7950 0.7900 0.7870 0.7840 0.7790
14.185973 0.7730 0.7670 0.7620 0.7530 0.7430
14.217000 0.7360 0.7310 0.7220 0.7120 0.7000
14.247973 0.6890 0.6770 0.6560 0.6330 0.6130
14.279000 0.5940 0.5710 0.5510 0.5260 0.4960
14.309973 0.4720 0.4500 0.4280 0.4050 0.3750
14.341000 0.3580 0.3500 0.3410 0.3360 0.3320
14.371973 0.3290 0.3320 0.3410 0.3470 0.3540
14.402000 0.3690 0.3830 0.4000 0.4170 0.4370
14.432973 0.4670 0.4950 0.5090 0.5230 0.5340
14.464000 0.5480 0.5600 0.5760 0.5930 0.6000
14.494973 0.6080 0.6190 0.6280 0.6350 0.6490
14.526000 0.6580 0.6690 0.6750 0.6810 0.6860
14.556973 0.6870 0.6890 0.6900 0.6940 0.6980
14.588000 0.7000 0.7010 0.7040 0.7090 0.7170
14.618973 0.7220 0.7230 0.7230 0.7250 0.7250
14.650000 0.7260 0.7280 0.7280 0.7290 0.7290
14.680973 0.7290 0.7310 0.7320 0.7340 0.7370
14.712000 0.7400 0.7400 0.7420 0.7430 0.7450
14.742973 0.7480 0.7480 0.7480 0.7450 0.7400
14.774000 0.7320 0.7320 0.7370 0.7370 0.7360
14.804973 0.7340 0.7310 0.7280 0.7280 0.7250
14.836000 0.7230 0.7230 0.7200 0.7170 0.7150
14.866973 0.7150 0.7140 0.7110 0.7090 0.7080
14.898000 0.7040 0.7010 0.7010 0.7060 0.7060
14.928973 0.7030 0.6970 0.6900 0.6890 0.6870
14.960000 0.6840 0.6800 0.6750 0.6690 0.6610
14.990973 0.6530 0.6490 0.6360 0.6250 0.6100
15.022000 0.6020 0.5960 0.5820 0.5680 0.5600
15.052973 0.5480 0.5370 0.5260 0.5120 0.5040
15.084000 0.4980 0.4930 0.4920 0.4920 0.4930
15.114973 0.4950 0.4980 0.5010 0.5040 0.5120
15.146000 0.5170 0.5210 0.5230 0.5260 0.5310
15.176973 0.5370 0.5430 0.5490 0.5520 0.5590
15.207000 0.5650 0.5680 0.5680 0.5660 0.5660
15.237973 0.5630 0.5630 0.5650 0.5650 0.5650
15.269000 0.5540 0.5490 0.5480 0.5450 0.5430
15.299973 0.5400 0.5310 0.5230 0.5170 0.5100
15.331000 0.5040 0.5000 0.4950 0.4870 0.4760
15.361973 0.4650 0.4580 0.4500 0.4390 0.4310
15.393000 0.4250 0.4190 0.4090 0.4020 0.3940
15.423973 0.3850 0.3750 0.3690 0.3630 0.3570
15.455000 0.3540 0.3490 0.3430 0.3380 0.3350
15.485973 0.3300 0.3300 0.3320 0.3330 0.3350
15.517000 0.3360 0.3360 0.3380 0.3400 0.3440
15.547973 0.3460 0.3470 0.3470 0.3460 0.3460
15.579000 0.3440 0.3410 0.3410 0.3430 0.3430
15.609973 0.3410 0.3410 0.3380 0.3300 0.3290
15.641000 0.3260 0.3220 0.3210 0.3190 0.3190
15.671973 0.3210 0.3220 0.3220 0.3240 0.3290
15.703000 0.3330 0.3400 0.3430 0.3440 0.3490
15.733973 0.3520 0.3630 0.3710 0.3750 0.3800
15.765000 0.3880 0.3890 0.3920 0.3970 0.3990
15.795973 0.4020 0.4060 0.4130 0.4190 0.4230
15.827000 0.4270 0.4280 0.4280 0.4270 0.4270
15.857973 0.4280 0.4280 0.4280 0.4280 0.4280
15.889000 0.4300 0.4310 0.4330 0.4360 0.4390
15.919973 0.4400 0.4420 0.4420 0.4420 0.4400
15.950000 0.4400 0.4390 0.4390 0.4390 0.4390
15.980973 0.4400 0.4400 0.4440 0.4440 0.4420
##END=
