##TITLE=MONOBROMOPENTABORANE
##JCAMP-DX=4.24
##DATA TYPE=INFRARED SPECTRUM
##CLASS=COBLENTZ
##ORIGIN=KALLERY CHEMICAL COMPANY
##OWNER=COBLENTZ SOCIETY
Collection (C) 2018 copyright by the U.S. Secretary of Commerce
on behalf of the United States of America. All rights reserved.
##DATE=1960
##NAMES=1-bromo-1.lambda.<5>,2.lambda.<5>,3.lambda.<5>,4.lambda.<5>,5.lambda.<5>-tetracyclo[2.1.0.0<1,3>.0<2,4>]pentaborane
##MOLFORM=B5 H8 Br
##SOURCE REFERENCE=COBLENTZ NO. 841
##$NIST ID=B6000841
##$NIST SOURCE=COBLENTZ
##$NIST IMAGE=cob841
##SPECTROMETER/DATA SYSTEM=Not specified, most likely a prism, grating, or hybrid spectrometer.
##STATE=SOLUTION (CS2 SOLUTION VS. SOLVENT); $$ RESEARCH PURITY
##SAMPLING PROCEDURE=TRANSMISSION
##RESOLUTION=4
##DATA PROCESSING=DIGITIZED BY NIST FROM HARD COPY
##XUNITS=MICROMETERS
##YUNITS=TRANSMITTANCE
##XFACTOR=1.000000
##YFACTOR=1
##DELTAX=000.006753
##FIRSTX=2.034
##LASTX=14.9523
##FIRSTY=0.906
##MAXX=14.9523
##MINX=2.034
##MAXY=0.908
##MINY=0.195
##NPOINTS=1914
##XYDATA=(X++(Y..Y))
2.034000 0.9060 0.9060 0.9060 0.9060 0.9080
2.067784 0.9060 0.9060 0.9060 0.9040 0.9040
2.101000 0.9040 0.9030 0.9030 0.9030 0.9030
2.134784 0.9030 0.9030 0.9030 0.9030 0.9030
2.169000 0.9010 0.9010 0.9010 0.9010 0.9010
2.202784 0.8990 0.8990 0.8990 0.8990 0.9010
2.236000 0.8990 0.8990 0.8990 0.8990 0.8990
2.269784 0.8990 0.8980 0.8980 0.8980 0.8980
2.304000 0.8980 0.8980 0.8980 0.8980 0.8980
2.337784 0.8980 0.8980 0.8980 0.8980 0.8980
2.371000 0.8960 0.8980 0.8980 0.8980 0.8960
2.404784 0.8960 0.8960 0.8940 0.8940 0.8940
2.439000 0.8940 0.8940 0.8930 0.8930 0.8930
2.472784 0.8930 0.8930 0.8930 0.8910 0.8910
2.506000 0.8910 0.8890 0.8890 0.8890 0.8890
2.539784 0.8880 0.8880 0.8880 0.8880 0.8880
2.574000 0.8880 0.8880 0.8880 0.8880 0.8880
2.607784 0.8880 0.8880 0.8880 0.8880 0.8880
2.642000 0.8860 0.8860 0.8840 0.8830 0.8810
2.675784 0.8810 0.8810 0.8790 0.8790 0.8790
2.709000 0.8780 0.8780 0.8790 0.8780 0.8780
2.742784 0.8780 0.8760 0.8760 0.8740 0.8740
2.777000 0.8740 0.8710 0.8690 0.8680 0.8640
2.810784 0.8640 0.8630 0.8610 0.8590 0.8590
2.844000 0.8580 0.8580 0.8540 0.8530 0.8530
2.877784 0.8510 0.8490 0.8490 0.8480 0.8480
2.912000 0.8480 0.8460 0.8460 0.8440 0.8430
2.945784 0.8410 0.8390 0.8380 0.8360 0.8340
2.979000 0.8330 0.8290 0.8280 0.8260 0.8230
3.012784 0.8180 0.8140 0.8110 0.8110 0.8090
3.047000 0.8040 0.8030 0.7990 0.7970 0.7920
3.080784 0.7920 0.7910 0.7890 0.7890 0.7890
3.114000 0.7890 0.7910 0.7920 0.7940 0.7960
3.147784 0.7970 0.7990 0.8010 0.8040 0.8060
3.182000 0.8080 0.8080 0.8090 0.8110 0.8130
3.215784 0.8130 0.8140 0.8160 0.8180 0.8180
3.249000 0.8210 0.8230 0.8240 0.8280 0.8290
3.282784 0.8310 0.8330 0.8340 0.8380 0.8390
3.317000 0.8410 0.8430 0.8430 0.8440 0.8440
3.350784 0.8460 0.8460 0.8480 0.8480 0.8490
3.384000 0.8510 0.8510 0.8530 0.8530 0.8540
3.417784 0.8540 0.8560 0.8560 0.8560 0.8560
3.452000 0.8580 0.8590 0.8590 0.8590 0.8590
3.485784 0.8590 0.8590 0.8580 0.8580 0.8560
3.519000 0.8560 0.8560 0.8530 0.8530 0.8530
3.552784 0.8530 0.8530 0.8510 0.8510 0.8510
3.587000 0.8510 0.8510 0.8510 0.8510 0.8530
3.620784 0.8510 0.8510 0.8510 0.8510 0.8510
3.655000 0.8490 0.8490 0.8480 0.8480 0.8460
3.688784 0.8440 0.8440 0.8430 0.8380 0.8340
3.722000 0.8310 0.8230 0.7820 0.7570 0.7360
3.755784 0.7110 0.6690 0.6360 0.6010 0.4940
3.790000 0.3950 0.3550 0.3270 0.2970 0.1960
3.823784 0.1950 0.1950 0.1980 0.2170 0.3220
3.857000 0.4740 0.5020 0.5400 0.6360 0.6660
3.890784 0.7390 0.7540 0.7660 0.7740 0.7840
3.925000 0.7920 0.7990 0.8040 0.8090 0.8160
3.958784 0.8210 0.8230 0.8280 0.8330 0.8330
3.992000 0.8340 0.8360 0.8360 0.8360 0.8360
4.025784 0.8360 0.8360 0.8360 0.8360 0.8360
4.060000 0.8360 0.8340 0.8340 0.8330 0.8330
4.093784 0.8330 0.8330 0.8330 0.8330 0.8330
4.127000 0.8330 0.8330 0.8330 0.8340 0.8340
4.160784 0.8360 0.8380 0.8390 0.8410 0.8410
4.195000 0.8410 0.8430 0.8430 0.8440 0.8440
4.228784 0.8460 0.8460 0.8460 0.8480 0.8460
4.262000 0.8480 0.8480 0.8480 0.8480 0.8460
4.295784 0.8460 0.8460 0.8460 0.8460 0.8440
4.330000 0.8440 0.8430 0.8430 0.8410 0.8410
4.363784 0.8390 0.8390 0.8390 0.8390 0.8410
4.397000 0.8410 0.8430 0.8440 0.8440 0.8440
4.430784 0.8460 0.8460 0.8460 0.8460 0.8460
4.465000 0.8440 0.8440 0.8430 0.8410 0.8410
4.498784 0.8410 0.8410 0.8430 0.8430 0.8430
4.532000 0.8430 0.8440 0.8440 0.8440 0.8430
4.565784 0.8430 0.8390 0.8380 0.8360 0.8340
4.600000 0.8330 0.8310 0.8310 0.8310 0.8290
4.633784 0.8290 0.8290 0.8310 0.8310 0.8310
4.668000 0.8330 0.8330 0.8330 0.8330 0.8340
4.701784 0.8380 0.8390 0.8390 0.8410 0.8410
4.735000 0.8430 0.8430 0.8430 0.8430 0.8410
4.768784 0.8410 0.8410 0.8410 0.8410 0.8430
4.803000 0.8430 0.8430 0.8430 0.8430 0.8430
4.836784 0.8430 0.8430 0.8430 0.8430 0.8390
4.870000 0.8390 0.8390 0.8380 0.8390 0.8380
4.903784 0.8380 0.8390 0.8380 0.8380 0.8380
4.938000 0.8380 0.8380 0.8380 0.8380 0.8360
4.971784 0.8340 0.8340 0.8340 0.8340 0.8330
5.005000 0.8330 0.8310 0.8330 0.8330 0.8330
5.038784 0.8330 0.8330 0.8330 0.8310 0.8310
5.073000 0.8310 0.8310 0.8290 0.8290 0.8280
5.106784 0.8280 0.8280 0.8260 0.8260 0.8240
5.140000 0.8240 0.8240 0.8240 0.8230 0.8230
5.173784 0.8210 0.8210 0.8210 0.8190 0.8190
5.208000 0.8160 0.8140 0.8110 0.8080 0.8040
5.241784 0.8010 0.7970 0.7960 0.7940 0.7920
5.275000 0.7920 0.7920 0.7920 0.7920 0.7920
5.308784 0.7920 0.7910 0.7910 0.7890 0.7870
5.343000 0.7840 0.7770 0.7720 0.7660 0.7610
5.376784 0.7540 0.7460 0.7320 0.7120 0.6820
5.410000 0.6720 0.6620 0.6310 0.6240 0.6220
5.443784 0.6190 0.6170 0.6210 0.6340 0.6570
5.478000 0.6910 0.6920 0.6890 0.6840 0.6710
5.511784 0.6670 0.6620 0.6540 0.6470 0.6420
5.545000 0.6360 0.6290 0.6220 0.6210 0.6220
5.578784 0.6240 0.6320 0.6420 0.6910 0.7020
5.613000 0.7120 0.7190 0.7290 0.7360 0.7410
5.646784 0.7440 0.7520 0.7610 0.7710 0.7790
5.681000 0.7860 0.7890 0.7920 0.7960 0.7960
5.714784 0.7970 0.7990 0.7990 0.7990 0.7990
5.748000 0.7970 0.7970 0.7940 0.7940 0.7940
5.781784 0.7920 0.7920 0.7910 0.7920 0.7940
5.816000 0.7940 0.7960 0.7970 0.7970 0.7960
5.849784 0.7960 0.7940 0.7890 0.7890 0.7870
5.883000 0.7860 0.7870 0.7890 0.7910 0.7920
5.916784 0.7920 0.7960 0.7960 0.7960 0.7960
5.951000 0.7970 0.7970 0.7990 0.7990 0.8010
5.984784 0.8010 0.8010 0.8030 0.8030 0.8030
6.018000 0.8010 0.8010 0.7990 0.7990 0.7970
6.051784 0.7940 0.7860 0.7820 0.7810 0.7810
6.086000 0.7790 0.7760 0.7740 0.7690 0.7690
6.119784 0.7690 0.7670 0.7670 0.7670 0.7660
6.153000 0.7620 0.7610 0.7570 0.7540 0.7520
6.186784 0.7490 0.7470 0.7460 0.7460 0.7460
6.221000 0.7470 0.7470 0.7490 0.7510 0.7540
6.254784 0.7560 0.7560 0.7570 0.7570 0.7590
6.288000 0.7590 0.7610 0.7610 0.7610 0.7620
6.321784 0.7620 0.7620 0.7620 0.7620 0.7620
6.356000 0.7620 0.7610 0.7610 0.7610 0.7610
6.389784 0.7610 0.7610 0.7610 0.7610 0.7610
6.423000 0.7610 0.7610 0.7610 0.7610 0.7610
6.456784 0.7610 0.7610 0.7610 0.7610 0.7610
6.491000 0.7610 0.7610 0.7590 0.7590 0.7590
6.524784 0.7590 0.7590 0.7590 0.7590 0.7590
6.558000 0.7590 0.7590 0.7590 0.7590 0.7590
6.591784 0.7590 0.7590 0.7590 0.7590 0.7590
6.626000 0.7590 0.7590 0.7590 0.7570 0.7570
6.659784 0.7570 0.7570 0.7570 0.7570 0.7570
6.694000 0.7570 0.7570 0.7570 0.7570 0.7570
6.727784 0.7560 0.7560 0.7560 0.7560 0.7560
6.761000 0.7570 0.7570 0.7570 0.7570 0.7570
6.794784 0.7570 0.7560 0.7560 0.7560 0.7540
6.829000 0.7520 0.7510 0.7510 0.7490 0.7490
6.862784 0.7490 0.7490 0.7490 0.7470 0.7460
6.896000 0.7460 0.7440 0.7390 0.6940 0.6740
6.929784 0.6520 0.6140 0.5340 0.4820 0.4050
6.964000 0.3730 0.3420 0.3300 0.3180 0.2820
6.997784 0.2620 0.2600 0.2630 0.2700 0.2750
7.031000 0.2900 0.3200 0.3850 0.4220 0.4590
7.064784 0.4840 0.4890 0.4900 0.4890 0.4870
7.099000 0.4840 0.4820 0.4650 0.4570 0.4490
7.132784 0.4470 0.4440 0.4400 0.4350 0.4270
7.166000 0.4220 0.4150 0.4070 0.3980 0.3930
7.199784 0.3870 0.3680 0.3630 0.3570 0.3530
7.234000 0.3470 0.3470 0.3480 0.3500 0.3500
7.267784 0.3530 0.3530 0.3620 0.3830 0.3950
7.301000 0.4070 0.4290 0.4420 0.4520 0.4700
7.334784 0.4950 0.5090 0.5320 0.5470 0.5590
7.369000 0.5700 0.5840 0.5940 0.5990 0.6010
7.402784 0.6090 0.6160 0.6220 0.6260 0.6270
7.436000 0.6320 0.6340 0.6340 0.6360 0.6360
7.469784 0.6370 0.6390 0.6420 0.6440 0.6470
7.504000 0.6510 0.6540 0.6590 0.6610 0.6620
7.537784 0.6620 0.6640 0.6660 0.6670 0.6670
7.571000 0.6670 0.6670 0.6690 0.6690 0.6690
7.604784 0.6690 0.6670 0.6660 0.6640 0.6640
7.639000 0.6620 0.6620 0.6610 0.6610 0.6610
7.672784 0.6610 0.6610 0.6610 0.6610 0.6620
7.706000 0.6620 0.6620 0.6620 0.6640 0.6640
7.739784 0.6640 0.6640 0.6660 0.6660 0.6660
7.774000 0.6660 0.6670 0.6670 0.6670 0.6670
7.807784 0.6670 0.6660 0.6660 0.6640 0.6640
7.842000 0.6640 0.6640 0.6620 0.6620 0.6620
7.875784 0.6620 0.6620 0.6640 0.6640 0.6640
7.909000 0.6660 0.6660 0.6660 0.6660 0.6660
7.942784 0.6690 0.6710 0.6720 0.6740 0.6760
7.977000 0.6770 0.6770 0.6790 0.6820 0.6840
8.010784 0.6870 0.6890 0.6940 0.6970 0.7010
8.044000 0.7020 0.7060 0.7070 0.7090 0.7110
8.077784 0.7120 0.7140 0.7140 0.7170 0.7190
8.112000 0.7210 0.7220 0.7240 0.7260 0.7260
8.145784 0.7270 0.7270 0.7290 0.7290 0.7290
8.179000 0.7290 0.7290 0.7270 0.7260 0.7240
8.212784 0.7190 0.7110 0.7060 0.7010 0.6940
8.247000 0.6790 0.6690 0.6590 0.6470 0.6370
8.280784 0.6240 0.6190 0.6070 0.5990 0.5890
8.314000 0.5740 0.5600 0.5490 0.5350 0.5170
8.347784 0.5140 0.5120 0.5100 0.5090 0.5100
8.382000 0.5140 0.5220 0.5270 0.5320 0.5350
8.415784 0.5440 0.5500 0.5540 0.5590 0.5670
8.449000 0.5750 0.5840 0.5890 0.5940 0.5970
8.482784 0.5970 0.5990 0.5990 0.5970 0.5920
8.517000 0.5840 0.5790 0.5720 0.5600 0.5490
8.550784 0.5370 0.5270 0.5170 0.5070 0.4990
8.584000 0.4950 0.4850 0.4820 0.4770 0.4700
8.617784 0.4670 0.4620 0.4590 0.4540 0.4540
8.652000 0.4540 0.4520 0.4520 0.4520 0.4520
8.685784 0.4520 0.4520 0.4490 0.4420 0.4290
8.719000 0.3850 0.3570 0.3350 0.3180 0.3000
8.752784 0.2800 0.2530 0.2350 0.2270 0.2230
8.787000 0.2220 0.2180 0.2180 0.2470 0.2670
8.820784 0.3200 0.4100 0.4450 0.4750 0.4970
8.855000 0.5120 0.5240 0.5300 0.5420 0.5640
8.888784 0.5870 0.5970 0.6090 0.6270 0.6370
8.922000 0.6440 0.6510 0.6590 0.6620 0.6690
8.955784 0.6740 0.6770 0.6790 0.6820 0.6840
8.990000 0.6870 0.6870 0.6890 0.6910 0.6920
9.023784 0.6920 0.6940 0.6960 0.6970 0.6990
9.057000 0.7010 0.7020 0.7040 0.7070 0.7070
9.090784 0.7090 0.7110 0.7110 0.7110 0.7120
9.125000 0.7140 0.7160 0.7160 0.7170 0.7190
9.158784 0.7190 0.7210 0.7210 0.7210 0.7220
9.192000 0.7220 0.7220 0.7220 0.7240 0.7240
9.225784 0.7240 0.7260 0.7260 0.7260 0.7270
9.260000 0.7270 0.7290 0.7290 0.7290 0.7290
9.293784 0.7290 0.7290 0.7290 0.7290 0.7290
9.327000 0.7290 0.7290 0.7310 0.7290 0.7290
9.360784 0.7290 0.7290 0.7270 0.7270 0.7270
9.395000 0.7270 0.7260 0.7260 0.7220 0.7170
9.428784 0.7140 0.7020 0.6820 0.6810 0.6790
9.462000 0.6770 0.6760 0.6670 0.6610 0.6520
9.495784 0.6240 0.5850 0.5250 0.5000 0.4950
9.530000 0.5000 0.5040 0.5270 0.5440 0.5620
9.563784 0.5740 0.5900 0.6020 0.6160 0.6220
9.597000 0.6320 0.6420 0.6560 0.6820 0.6940
9.630784 0.7040 0.7140 0.7240 0.7260 0.7310
9.665000 0.7360 0.7390 0.7420 0.7420 0.7440
9.698784 0.7420 0.7420 0.7360 0.7270 0.7190
9.732000 0.7110 0.7020 0.6940 0.6890 0.6760
9.765784 0.6740 0.6760 0.6770 0.6820 0.6890
9.800000 0.6960 0.6960 0.7040 0.7120 0.7190
9.833784 0.7260 0.7390 0.7410 0.7440 0.7470
9.868000 0.7490 0.7510 0.7510 0.7560 0.7570
9.901784 0.7590 0.7610 0.7620 0.7620 0.7640
9.935000 0.7640 0.7660 0.7670 0.7670 0.7670
9.968784 0.7670 0.7690 0.7670 0.7670 0.7670
10.003000 0.7670 0.7670 0.7670 0.7670 0.7670
10.036784 0.7670 0.7670 0.7670 0.7690 0.7690
10.070000 0.7690 0.7690 0.7690 0.7690 0.7690
10.103784 0.7710 0.7710 0.7710 0.7710 0.7710
10.138000 0.7710 0.7710 0.7710 0.7720 0.7720
10.171784 0.7740 0.7720 0.7720 0.7740 0.7720
10.205000 0.7720 0.7720 0.7740 0.7720 0.7720
10.238784 0.7710 0.7710 0.7710 0.7690 0.7690
10.273000 0.7690 0.7670 0.7660 0.7660 0.7640
10.306784 0.7640 0.7640 0.7620 0.7610 0.7610
10.340000 0.7610 0.7610 0.7610 0.7610 0.7610
10.373784 0.7610 0.7610 0.7610 0.7610 0.7610
10.408000 0.7610 0.7610 0.7610 0.7610 0.7610
10.441784 0.7610 0.7610 0.7610 0.7610 0.7610
10.475000 0.7610 0.7610 0.7610 0.7610 0.7610
10.508784 0.7620 0.7610 0.7610 0.7610 0.7610
10.543000 0.7610 0.7590 0.7610 0.7610 0.7610
10.576784 0.7620 0.7620 0.7620 0.7640 0.7620
10.610000 0.7620 0.7620 0.7640 0.7620 0.7620
10.643784 0.7640 0.7640 0.7640 0.7640 0.7640
10.678000 0.7620 0.7640 0.7620 0.7610 0.7610
10.711784 0.7610 0.7590 0.7570 0.7560 0.7540
10.745000 0.7520 0.7520 0.7510 0.7470 0.7460
10.778784 0.7420 0.7410 0.7390 0.7360 0.7310
10.813000 0.7270 0.7170 0.7160 0.7140 0.7110
10.846784 0.7040 0.7020 0.7010 0.6860 0.6710
10.881000 0.6640 0.6560 0.6460 0.6260 0.6040
10.914784 0.5770 0.5470 0.5240 0.5050 0.4840
10.948000 0.4600 0.4390 0.4200 0.3880 0.3680
10.981784 0.3420 0.3270 0.3120 0.2950 0.2780
11.016000 0.2620 0.2550 0.2420 0.2370 0.2350
11.049784 0.2330 0.2330 0.2350 0.2370 0.2370
11.083000 0.2420 0.2530 0.2630 0.2730 0.3000
11.116784 0.3180 0.3720 0.3850 0.4050 0.4200
11.151000 0.4370 0.4500 0.4640 0.4770 0.4850
11.184784 0.5020 0.5140 0.5420 0.5520 0.5750
11.218000 0.5850 0.5990 0.6170 0.6240 0.6310
11.251784 0.6340 0.6370 0.6370 0.6360 0.6340
11.286000 0.6290 0.6220 0.6120 0.6010 0.5940
11.319784 0.5800 0.5700 0.5490 0.5350 0.5290
11.353000 0.5200 0.5100 0.5100 0.5090 0.5090
11.386784 0.5100 0.5120 0.5140 0.5250 0.5320
11.421000 0.5470 0.5570 0.5700 0.5750 0.5840
11.454784 0.5900 0.5940 0.6010 0.5990 0.5950
11.488000 0.5920 0.5890 0.5450 0.5300 0.5090
11.521784 0.4870 0.4650 0.4440 0.4270 0.4120
11.556000 0.4070 0.4050 0.4090 0.4100 0.4150
11.589784 0.4170 0.4150 0.3830 0.3630 0.3570
11.623000 0.3580 0.3670 0.3900 0.4340 0.4470
11.656784 0.4690 0.4870 0.5050 0.5200 0.5520
11.691000 0.5640 0.5950 0.6140 0.6240 0.6370
11.724784 0.6570 0.6660 0.6910 0.6960 0.7020
11.758000 0.7120 0.7170 0.7220 0.7220 0.7240
11.791784 0.7290 0.7370 0.7410 0.7420 0.7440
11.826000 0.7460 0.7460 0.7460 0.7470 0.7470
11.859784 0.7490 0.7490 0.7510 0.7540 0.7540
11.894000 0.7560 0.7560 0.7570 0.7570 0.7590
11.927784 0.7590 0.7590 0.7590 0.7590 0.7590
11.961000 0.7610 0.7610 0.7610 0.7610 0.7610
11.994784 0.7610 0.7610 0.7610 0.7620 0.7620
12.029000 0.7620 0.7620 0.7620 0.7620 0.7620
12.062784 0.7620 0.7620 0.7620 0.7620 0.7620
12.096000 0.7620 0.7620 0.7620 0.7620 0.7620
12.129784 0.7620 0.7620 0.7620 0.7620 0.7620
12.164000 0.7620 0.7620 0.7620 0.7620 0.7620
12.197784 0.7620 0.7610 0.7620 0.7610 0.7610
12.231000 0.7620 0.7610 0.7610 0.7610 0.7610
12.264784 0.7610 0.7610 0.7610 0.7610 0.7610
12.299000 0.7610 0.7610 0.7610 0.7610 0.7610
12.332784 0.7610 0.7590 0.7590 0.7590 0.7590
12.366000 0.7590 0.7590 0.7590 0.7590 0.7590
12.399784 0.7570 0.7570 0.7570 0.7570 0.7570
12.434000 0.7570 0.7570 0.7560 0.7560 0.7560
12.467784 0.7540 0.7540 0.7540 0.7540 0.7520
12.501000 0.7520 0.7520 0.7520 0.7510 0.7510
12.534784 0.7510 0.7510 0.7490 0.7490 0.7470
12.569000 0.7470 0.7470 0.7470 0.7470 0.7460
12.602784 0.7440 0.7440 0.7420 0.7420 0.7410
12.636000 0.7410 0.7390 0.7370 0.7370 0.7360
12.669784 0.7360 0.7340 0.7340 0.7340 0.7340
12.704000 0.7340 0.7340 0.7340 0.7340 0.7340
12.737784 0.7340 0.7340 0.7340 0.7340 0.7340
12.771000 0.7320 0.7320 0.7320 0.7320 0.7320
12.804784 0.7320 0.7320 0.7310 0.7290 0.7290
12.839000 0.7290 0.7290 0.7270 0.7270 0.7240
12.872784 0.7240 0.7240 0.7220 0.7220 0.7210
12.906000 0.7210 0.7190 0.7170 0.7170 0.7160
12.939784 0.7140 0.7110 0.7090 0.7060 0.7020
12.974000 0.6990 0.6960 0.6920 0.6890 0.6810
13.007784 0.6790 0.6760 0.6670 0.6640 0.6610
13.042000 0.6510 0.6420 0.6290 0.6220 0.6110
13.075784 0.6010 0.5920 0.5870 0.5740 0.5600
13.109000 0.5440 0.5300 0.5220 0.5190 0.5070
13.142784 0.4970 0.4870 0.4750 0.4640 0.4520
13.177000 0.4440 0.4290 0.4250 0.4200 0.4150
13.210784 0.4140 0.4150 0.4240 0.4450 0.4700
13.244000 0.4820 0.4950 0.5050 0.5190 0.5350
13.277784 0.5420 0.5490 0.5600 0.5740 0.5840
13.312000 0.5890 0.5970 0.6090 0.6140 0.6190
13.345784 0.6240 0.6290 0.6390 0.6420 0.6440
13.379000 0.6490 0.6520 0.6560 0.6590 0.6610
13.412784 0.6620 0.6640 0.6660 0.6660 0.6690
13.447000 0.6710 0.6720 0.6740 0.6760 0.6760
13.480784 0.6770 0.6770 0.6770 0.6770 0.6770
13.514000 0.6790 0.6810 0.6810 0.6810 0.6810
13.547784 0.6810 0.6810 0.6810 0.6810 0.6810
13.582000 0.6810 0.6820 0.6820 0.6840 0.6840
13.615784 0.6840 0.6840 0.6840 0.6840 0.6820
13.649000 0.6820 0.6820 0.6820 0.6810 0.6790
13.682784 0.6790 0.6790 0.6790 0.6790 0.6790
13.717000 0.6790 0.6790 0.6790 0.6770 0.6770
13.750784 0.6770 0.6770 0.6770 0.6770 0.6790
13.784000 0.6770 0.6770 0.6790 0.6770 0.6790
13.817784 0.6790 0.6790 0.6790 0.6810 0.6810
13.852000 0.6820 0.6820 0.6810 0.6810 0.6820
13.885784 0.6810 0.6810 0.6810 0.6810 0.6810
13.919000 0.6810 0.6820 0.6820 0.6810 0.6810
13.952784 0.6810 0.6820 0.6820 0.6840 0.6840
13.987000 0.6840 0.6860 0.6870 0.6870 0.6870
14.020784 0.6890 0.6890 0.6890 0.6890 0.6910
14.055000 0.6910 0.6910 0.6910 0.6910 0.6910
14.088784 0.6920 0.6920 0.6940 0.6940 0.6940
14.122000 0.6960 0.6960 0.6970 0.6970 0.6990
14.155784 0.6990 0.7010 0.7020 0.7020 0.7040
14.190000 0.7040 0.7060 0.7070 0.7070 0.7070
14.223784 0.7070 0.7070 0.7070 0.7070 0.7090
14.257000 0.7090 0.7090 0.7090 0.7110 0.7110
14.290784 0.7110 0.7110 0.7110 0.7120 0.7120
14.325000 0.7120 0.7120 0.7120 0.7120 0.7120
14.358784 0.7120 0.7140 0.7140 0.7140 0.7140
14.392000 0.7140 0.7160 0.7160 0.7160 0.7160
14.425784 0.7160 0.7160 0.7160 0.7140 0.7140
14.460000 0.7140 0.7140 0.7140 0.7160 0.7160
14.493784 0.7160 0.7140 0.7140 0.7140 0.7120
14.527000 0.7120 0.7120 0.7120 0.7120 0.7120
14.560784 0.7120 0.7110 0.7110 0.7110 0.7090
14.595000 0.7110 0.7090 0.7090 0.7090 0.7090
14.628784 0.7070 0.7070 0.7060 0.7060 0.7040
14.662000 0.7040 0.7040 0.7020 0.7020 0.7020
14.695784 0.7020 0.7020 0.7010 0.7010 0.7010
14.730000 0.6990 0.6990 0.6970 0.6970 0.6960
14.763784 0.6960 0.6940 0.6920 0.6920 0.6920
14.797000 0.6910 0.6890 0.6890 0.6870 0.6870
14.830784 0.6860 0.6840 0.6840 0.6840 0.6840
14.865000 0.6840 0.6840 0.6840 0.6860 0.6860
14.898784 0.6860 0.6870 0.6890 0.6940 0.6970
14.932000 0.7010 0.7010 0.6970 0.7010
##END=
