##TITLE=Iron acetate
##JCAMP-DX=4.24
##DATA TYPE=INFRARED SPECTRUM
##CLASS=COBLENTZ
##ORIGIN=DOW CORNING CORP.
##OWNER=Copyright (C) 1987 by the Coblentz Society
Collection (C) 2018 copyright by the U.S. Secretary of Commerce
on behalf of the United States of America. All rights reserved.
##DATE=1967/01/31
##MOLFORM=C6 H9 O6 Fe
##SOURCE REFERENCE=COBLENTZ NO. 5557
##$NIST ID=B6005557
##$NIST SOURCE=COBLENTZ
##$NIST IMAGE=cob5557
##SPECTROMETER/DATA SYSTEM=PERKIN-ELMER 521 (GRATING)
##INSTRUMENT PARAMETERS=FILTERS AT 3150, 2500, 2000, 1150, 700, 410. GRATING CHANGES: 2000, 630
##STATE=SOLID (SPLIT MULL)
##RESOLUTION=2
$$ THE SPLT IN THE SPECTRAL FEATURE AT 615 CM^-^1 IS AN ARTIFACT CAUSED BY GRATING CHANGE
$$ SPECTRAL FEATURE AT 1303 CM^-^1 IS AN ARTIFACT CAUSED BY A CHANGE IN RECORDING PARAMETER
##XUNITS=1/CM
##YUNITS=TRANSMITTANCE
##XFACTOR=1.0
##YFACTOR=1
##FIRSTX=251
##LASTX=3806
##FIRSTY=0.7817
##MAXX=3806
##MINX=251
##MAXY=0.9373
##MINY=0.1526
##NPOINTS=3556
##XYDATA=(X++(Y..Y))
251.000000 0.7817 0.7831 0.7843 0.7854 0.7864
256.000000 0.7874 0.7882 0.7890 0.7889 0.7888
261.000000 0.7886 0.7885 0.7884 0.7882 0.7880
266.000000 0.7877 0.7875 0.7870 0.7863 0.7857
271.000000 0.7850 0.7894 0.7839 0.7835 0.7831
276.000000 0.7827 0.7823 0.7817 0.7811 0.7805
281.000000 0.7799 0.7793 0.7787 0.7781 0.7769
286.000000 0.7756 0.7743 0.7730 0.7687 0.7642
291.000000 0.7593 0.7544 0.7492 0.7430 0.7368
296.000000 0.7322 0.7277 0.7232 0.7190 0.7153
301.000000 0.7116 0.7076 0.7023 0.6970 0.6907
306.000000 0.6782 0.6658 0.6540 0.6362 0.6265
311.000000 0.6187 0.6110 0.6044 0.5997 0.5951
316.000000 0.5895 0.5823 0.5780 0.5743 0.5708
321.000000 0.5682 0.5666 0.5662 0.5658 0.5654
326.000000 0.5654 0.5654 0.5655 0.5657 0.5661
331.000000 0.5669 0.5679 0.5698 0.5722 0.5752
336.000000 0.5795 0.5838 0.5880 0.5920 0.5961
341.000000 0.6002 0.6054 0.6109 0.6164 0.6218
346.000000 0.6271 0.6324 0.6377 0.6429 0.6474
351.000000 0.6514 0.6555 0.6596 0.6637 0.6677
356.000000 0.6720 0.6763 0.6806 0.6848 0.6891
361.000000 0.6934 0.6978 0.7022 0.7066 0.7110
366.000000 0.7155 0.7205 0.7256 0.7307 0.7358
371.000000 0.7409 0.7454 0.7494 0.7535 0.7575
376.000000 0.7615 0.7656 0.7700 0.7743 0.7786
381.000000 0.7827 0.7860 0.7893 0.7925 0.7958
386.000000 0.7988 0.8019 0.8049 0.8077 0.8102
391.000000 0.8128 0.8154 0.8175 0.8192 0.8209
396.000000 0.8227 0.8244 0.8261 0.8278 0.8291
401.000000 0.8304 0.8317 0.8330 0.8343 0.8355
406.000000 0.8363 0.8371 0.8379 0.8388 0.8396
411.000000 0.8404 0.8412 0.8417 0.8419 0.8421
416.000000 0.8423 0.8425 0.8427 0.8418 0.8427
421.000000 0.8424 0.8421 0.8419 0.8416 0.8413
426.000000 0.8410 0.8406 0.8403 0.8399 0.8395
431.000000 0.8391 0.8388 0.8384 0.8380 0.8375
436.000000 0.8371 0.8366 0.8361 0.8357 0.8352
441.000000 0.8344 0.8337 0.8330 0.8322 0.8315
446.000000 0.8307 0.8300 0.8292 0.8285 0.8276
451.000000 0.8267 0.8258 0.8249 0.8240 0.8231
456.000000 0.8222 0.8213 0.8203 0.8194 0.8184
461.000000 0.8173 0.8163 0.8153 0.8143 0.8133
466.000000 0.8123 0.8112 0.8102 0.8092 0.8082
471.000000 0.8069 0.8055 0.8042 0.8029 0.8016
476.000000 0.8003 0.7990 0.7977 0.7964 0.7951
481.000000 0.7938 0.7925 0.7912 0.7899 0.7888
486.000000 0.7877 0.7866 0.7855 0.7844 0.7833
491.000000 0.7822 0.7810 0.7799 0.7788 0.7777
496.000000 0.7766 0.7753 0.7735 0.7716 0.7698
501.000000 0.7680 0.7661 0.7643 0.7625 0.7606
506.000000 0.7584 0.7563 0.7541 0.7520 0.7498
511.000000 0.7476 0.7450 0.7424 0.7398 0.7372
516.000000 0.7347 0.7315 0.7278 0.7241 0.7213
521.000000 0.7192 0.7170 0.7158 0.7145 0.7133
526.000000 0.7121 0.7114 0.7112 0.7110 0.7108
531.000000 0.7106 0.7107 0.7115 0.7123 0.7132
536.000000 0.7148 0.7156 0.7148 0.7139 0.7124
541.000000 0.7107 0.7085 0.7062 0.7037 0.7004
546.000000 0.6972 0.6936 0.6899 0.6862 0.6825
551.000000 0.6797 0.6769 0.6741 0.6724 0.6713
556.000000 0.6703 0.6696 0.6693 0.6690 0.6687
561.000000 0.6683 0.6681 0.6678 0.6676 0.6673
566.000000 0.6671 0.6668 0.6665 0.6663 0.6660
571.000000 0.6660 0.6660 0.6659 0.6659 0.6659
576.000000 0.6659 0.6659 0.6659 0.6660 0.6660
581.000000 0.6661 0.6662 0.6663 0.6664 0.6664
586.000000 0.6660 0.6655 0.6650 0.6645 0.6640
591.000000 0.6635 0.6625 0.6612 0.6599 0.6586
596.000000 0.6564 0.6542 0.6519 0.6497 0.6462
601.000000 0.6420 0.6352 0.6278 0.6198 0.6118
606.000000 0.5900 0.5663 0.5425 0.5188 0.4951
611.000000 0.4713 0.4519 0.4514 0.4984 0.5402
616.000000 0.5402 0.5159 0.4762 0.4497 0.4486
621.000000 0.4606 0.4855 0.5104 0.5353 0.5602
626.000000 0.5852 0.6101 0.6338 0.6430 0.6475
631.000000 0.6504 0.6512 0.6520 0.6519 0.6525
636.000000 0.6498 0.6479 0.6444 0.6371 0.6209
641.000000 0.6038 0.5867 0.5696 0.5525 0.5353
646.000000 0.5182 0.5011 0.4840 0.4669 0.4498
651.000000 0.4327 0.4155 0.3984 0.3878 0.3777
656.000000 0.3633 0.3459 0.3273 0.3146 0.2999
661.000000 0.2870 0.2724 0.2685 0.2688 0.2697
666.000000 0.2670 0.2842 0.2980 0.3118 0.3326
671.000000 0.3439 0.3664 0.3890 0.4115 0.4341
676.000000 0.4566 0.4792 0.5017 0.5243 0.5642
681.000000 0.5797 0.5926 0.6057 0.6189 0.6293
686.000000 0.6392 0.6490 0.6552 0.6614 0.6668
691.000000 0.6694 0.6719 0.6745 0.6792 0.6776
696.000000 0.6784 0.6778 0.6772 0.6764 0.6753
701.000000 0.6729 0.6694 0.6654 0.6614 0.6575
706.000000 0.6530 0.6485 0.6439 0.6390 0.6340
711.000000 0.6291 0.6244 0.6197 0.6150 0.6110
716.000000 0.6071 0.6019 0.6011 0.6011 0.6011
721.000000 0.6022 0.6030 0.6056 0.6333 0.6491
726.000000 0.6623 0.6800 0.6870 0.6939 0.6994
731.000000 0.7039 0.7085 0.7131 0.7188 0.7245
736.000000 0.7301 0.7358 0.7403 0.7451 0.7502
741.000000 0.7553 0.7599 0.7641 0.7681 0.7715
746.000000 0.7748 0.7782 0.7812 0.7842 0.7872
751.000000 0.7902 0.7922 0.7942 0.7962 0.7982
756.000000 0.8002 0.8022 0.8042 0.8063 0.8083
761.000000 0.8104 0.8124 0.8145 0.8166 0.8186
766.000000 0.8210 0.8235 0.8260 0.8286 0.8311
771.000000 0.8336 0.8359 0.8380 0.8401 0.8422
776.000000 0.8442 0.8463 0.8484 0.8505 0.8525
781.000000 0.8544 0.8562 0.8580 0.8599 0.8617
786.000000 0.8636 0.8653 0.8670 0.8688 0.8705
791.000000 0.8722 0.8739 0.8756 0.8773 0.8790
796.000000 0.8807 0.8824 0.8841 0.8858 0.8875
801.000000 0.8892 0.8909 0.8925 0.8942 0.8959
806.000000 0.8976 0.8993 0.9009 0.9021 0.9033
811.000000 0.9044 0.9056 0.9068 0.9080 0.9091
816.000000 0.9103 0.9115 0.9127 0.9138 0.9148
821.000000 0.9159 0.9170 0.9181 0.9191 0.9202
826.000000 0.9213 0.9223 0.9228 0.9232 0.9236
831.000000 0.9240 0.9242 0.9242 0.9243 0.9244
836.000000 0.9245 0.9246 0.9246 0.9247 0.9247
841.000000 0.9246 0.9246 0.9245 0.9245 0.9249
846.000000 0.9254 0.9260 0.9266 0.9272 0.9288
851.000000 0.9307 0.9324 0.9333 0.9319 0.9352
856.000000 0.9359 0.9360 0.9362 0.9363 0.9364
861.000000 0.9365 0.9365 0.9366 0.9367 0.9368
866.000000 0.9369 0.9370 0.9371 0.9372 0.9373
871.000000 0.9373 0.9367 0.9360 0.9354 0.9348
876.000000 0.9342 0.9336 0.9329 0.9319 0.9309
881.000000 0.9300 0.9290 0.9284 0.9281 0.9277
886.000000 0.9273 0.9270 0.9266 0.9262 0.9265
891.000000 0.9268 0.9271 0.9273 0.9278 0.9285
896.000000 0.9292 0.9299 0.9306 0.9311 0.9316
901.000000 0.9322 0.9327 0.9333 0.9338 0.9343
906.000000 0.9345 0.9348 0.9350 0.9352 0.9354
911.000000 0.9355 0.9354 0.9352 0.9347 0.9342
916.000000 0.9338 0.9333 0.9328 0.9323 0.9319
921.000000 0.9314 0.9309 0.9304 0.9289 0.9273
926.000000 0.9256 0.9235 0.9211 0.9181 0.9149
931.000000 0.9116 0.9094 0.9074 0.9054 0.9033
936.000000 0.9012 0.8989 0.8963 0.8915 0.8943
941.000000 0.8945 0.8951 0.8959 0.8967 0.8976
946.000000 0.8987 0.8997 0.9007 0.9016 0.9024
951.000000 0.9032 0.9036 0.9036 0.9037 0.9034
956.000000 0.9031 0.9027 0.9023 0.9020 0.9018
961.000000 0.9017 0.9016 0.9014 0.9014 0.9016
966.000000 0.9018 0.9026 0.9033 0.9040 0.9049
971.000000 0.9065 0.9082 0.9098 0.9114 0.9128
976.000000 0.9142 0.9156 0.9174 0.9196 0.9218
981.000000 0.9240 0.9250 0.9259 0.9268 0.9291
986.000000 0.9275 0.9274 0.9268 0.9253 0.9240
991.000000 0.9229 0.9218 0.9207 0.9191 0.9175
996.000000 0.9159 0.9143 0.9123 0.9103 0.9082
1001.000000 0.9062 0.9038 0.9015 0.8991 0.8967
1006.000000 0.8941 0.8903 0.8865 0.8827 0.8780
1011.000000 0.8729 0.8677 0.8626 0.8554 0.8482
1016.000000 0.8409 0.8336 0.8263 0.8198 0.8134
1021.000000 0.8069 0.7969 0.7864 0.7699 0.7547
1026.000000 0.7452 0.7401 0.7377 0.7260 0.7179
1031.000000 0.7177 0.7155 0.7190 0.7296 0.7370
1036.000000 0.7455 0.7530 0.7550 0.7579 0.7545
1041.000000 0.7526 0.7484 0.7459 0.7454 0.7456
1046.000000 0.7461 0.7516 0.7618 0.7766 0.7873
1051.000000 0.7977 0.8085 0.8198 0.8325 0.8483
1056.000000 0.8581 0.8675 0.8740 0.8805 0.8860
1061.000000 0.8898 0.8936 0.8974 0.9006 0.9038
1066.000000 0.9069 0.9094 0.9119 0.9141 0.9149
1071.000000 0.9157 0.9164 0.9172 0.9180 0.9188
1076.000000 0.9193 0.9199 0.9204 0.9209 0.9214
1081.000000 0.9218 0.9222 0.9226 0.9230 0.9235
1086.000000 0.9239 0.9254 0.9242 0.9243 0.9245
1091.000000 0.9246 0.9248 0.9249 0.9251 0.9252
1096.000000 0.9254 0.9257 0.9259 0.9262 0.9261
1101.000000 0.9261 0.9260 0.9260 0.9259 0.9259
1106.000000 0.9258 0.9257 0.9253 0.9243 0.9233
1111.000000 0.9222 0.9212 0.9202 0.9201 0.9199
1116.000000 0.9162 0.9118 0.9105 0.9104 0.9104
1121.000000 0.9103 0.9103 0.9106 0.9110 0.9114
1126.000000 0.9118 0.9122 0.9131 0.9140 0.9150
1131.000000 0.9158 0.9163 0.9169 0.9175 0.9175
1136.000000 0.9167 0.9159 0.9151 0.9140 0.9129
1141.000000 0.9117 0.9106 0.9094 0.9091 0.9087
1146.000000 0.9084 0.9080 0.9077 0.9078 0.9079
1151.000000 0.9080 0.9081 0.9082 0.9083 0.9085
1156.000000 0.9087 0.9089 0.9091 0.9093 0.9095
1161.000000 0.9098 0.9100 0.9102 0.9104 0.9106
1166.000000 0.9108 0.9111 0.9113 0.9115 0.9117
1171.000000 0.9120 0.9122 0.9124 0.9126 0.9129
1176.000000 0.9130 0.9126 0.9123 0.9119 0.9116
1181.000000 0.9112 0.9109 0.9104 0.9097 0.9089
1186.000000 0.9081 0.9073 0.9066 0.9058 0.9050
1191.000000 0.9042 0.9034 0.9027 0.9019 0.9019
1196.000000 0.9019 0.9019 0.9019 0.9019 0.9019
1201.000000 0.9018 0.9018 0.9018 0.9019 0.9020
1206.000000 0.9021 0.9023 0.9024 0.9025 0.9027
1211.000000 0.9028 0.9026 0.9024 0.9022 0.9020
1216.000000 0.9018 0.9015 0.9013 0.9011 0.9004
1221.000000 0.8997 0.8990 0.8983 0.8977 0.8971
1226.000000 0.8968 0.8965 0.8962 0.8959 0.8956
1231.000000 0.8952 0.8949 0.8945 0.8939 0.8934
1236.000000 0.8928 0.8923 0.8917 0.8911 0.8906
1241.000000 0.8900 0.8895 0.8889 0.8886 0.8885
1246.000000 0.8883 0.8882 0.8880 0.8879 0.8878
1251.000000 0.8876 0.8875 0.8869 0.8862 0.8854
1256.000000 0.8847 0.8840 0.8832 0.8825 0.8818
1261.000000 0.8808 0.8794 0.8781 0.8767 0.8753
1266.000000 0.8740 0.8732 0.8728 0.8724 0.8719
1271.000000 0.8715 0.8710 0.8706 0.8703 0.8701
1276.000000 0.8699 0.8698 0.8696 0.8694 0.8692
1281.000000 0.8690 0.8689 0.8686 0.8681 0.8677
1286.000000 0.8672 0.8667 0.8662 0.8655 0.8648
1291.000000 0.8641 0.8634 0.8627 0.8620 0.8443
1296.000000 0.8244 0.8045 0.7845 0.7646 0.7447
1301.000000 0.7248 0.7049 0.6850 0.6840 0.6849
1306.000000 0.6851 0.6853 0.6850 0.6858 0.6845
1311.000000 0.6842 0.6839 0.6830 0.6820 0.6811
1316.000000 0.6797 0.6783 0.6769 0.6749 0.6726
1321.000000 0.6702 0.6679 0.6653 0.6618 0.6583
1326.000000 0.6548 0.6507 0.6466 0.6425 0.6381
1331.000000 0.6318 0.6256 0.6194 0.6126 0.6031
1336.000000 0.5936 0.5828 0.5683 0.5532 0.5374
1341.000000 0.5175 0.4952 0.4758 0.4671 0.4629
1346.000000 0.4619 0.4620 0.4617 0.4641 0.4685
1351.000000 0.4767 0.4881 0.4981 0.5074 0.5187
1356.000000 0.5562 0.5720 0.5737 0.5739 0.5740
1361.000000 0.5738 0.5736 0.5730 0.5717 0.5698
1366.000000 0.5676 0.5646 0.5613 0.5579 0.5545
1371.000000 0.5497 0.5436 0.5373 0.5285 0.5198
1376.000000 0.5106 0.5012 0.4917 0.4822 0.4727
1381.000000 0.4632 0.4537 0.4442 0.4347 0.4252
1386.000000 0.4157 0.4062 0.3967 0.3872 0.3777
1391.000000 0.3682 0.3586 0.3491 0.3396 0.3301
1396.000000 0.3206 0.3111 0.3016 0.2921 0.2826
1401.000000 0.2731 0.2636 0.2541 0.2446 0.2355
1406.000000 0.2311 0.2206 0.2100 0.2042 0.1983
1411.000000 0.1919 0.1856 0.1802 0.1751 0.1708
1416.000000 0.1688 0.1683 0.1687 0.1680 0.1686
1421.000000 0.1693 0.1701 0.1712 0.1723 0.1734
1426.000000 0.1745 0.1759 0.1773 0.1788 0.1802
1431.000000 0.1823 0.1843 0.1863 0.1883 0.1908
1436.000000 0.1933 0.1974 0.2016 0.2055 0.2093
1441.000000 0.2131 0.2173 0.2230 0.2287 0.2338
1446.000000 0.2390 0.2451 0.2562 0.2654 0.2743
1451.000000 0.2851 0.2953 0.3144 0.3299 0.3455
1456.000000 0.3610 0.3765 0.3921 0.4076 0.4231
1461.000000 0.4386 0.4542 0.4697 0.4852 0.5008
1466.000000 0.5163 0.5291 0.5388 0.5490 0.5596
1471.000000 0.5644 0.5691 0.5724 0.5756 0.5800
1476.000000 0.5825 0.5841 0.5858 0.5874 0.5886
1481.000000 0.5885 0.5906 0.5882 0.5878 0.5874
1486.000000 0.5866 0.5856 0.5847 0.5838 0.5825
1491.000000 0.5812 0.5799 0.5780 0.5756 0.5731
1496.000000 0.5693 0.5654 0.5614 0.5572 0.5530
1501.000000 0.5485 0.5436 0.5385 0.5333 0.5281
1506.000000 0.5229 0.5173 0.5116 0.5059 0.5002
1511.000000 0.4944 0.4885 0.4826 0.4764 0.4701
1516.000000 0.4637 0.4573 0.4514 0.4457 0.4401
1521.000000 0.4346 0.4296 0.4245 0.4194 0.4144
1526.000000 0.4101 0.4062 0.4023 0.3984 0.3947
1531.000000 0.3916 0.3886 0.3855 0.3825 0.3794
1536.000000 0.3763 0.3733 0.3698 0.3661 0.3624
1541.000000 0.3588 0.3551 0.3515 0.3486 0.3456
1546.000000 0.3427 0.3398 0.3369 0.3340 0.3311
1551.000000 0.3280 0.3243 0.3205 0.3168 0.3126
1556.000000 0.3079 0.3031 0.2976 0.2912 0.2848
1561.000000 0.2784 0.2727 0.2669 0.2612 0.2544
1566.000000 0.2460 0.2375 0.2290 0.2213 0.2166
1571.000000 0.2120 0.2073 0.2029 0.1986 0.1943
1576.000000 0.1898 0.1849 0.1801 0.1755 0.1715
1581.000000 0.1673 0.1628 0.1594 0.1584 0.1526
1586.000000 0.1582 0.1602 0.1622 0.1639 0.1660
1591.000000 0.1684 0.1704 0.1724 0.1745 0.1765
1596.000000 0.1786 0.1815 0.1852 0.1904 0.1965
1601.000000 0.2029 0.2093 0.2155 0.2217 0.2282
1606.000000 0.2348 0.2414 0.2518 0.2622 0.2717
1611.000000 0.2784 0.2855 0.2985 0.3180 0.3339
1616.000000 0.3460 0.3602 0.3782 0.3895 0.4009
1621.000000 0.4112 0.4211 0.4312 0.4428 0.4543
1626.000000 0.4662 0.4784 0.4906 0.5033 0.5161
1631.000000 0.5290 0.5450 0.5610 0.5711 0.5777
1636.000000 0.5843 0.5909 0.5975 0.6032 0.6084
1641.000000 0.6137 0.6189 0.6241 0.6293 0.6345
1646.000000 0.6398 0.6475 0.6552 0.6643 0.6751
1651.000000 0.6807 0.6836 0.6864 0.6893 0.6935
1656.000000 0.6982 0.7029 0.7077 0.7116 0.7154
1661.000000 0.7192 0.7231 0.7269 0.7303 0.7334
1666.000000 0.7366 0.7397 0.7429 0.7461 0.7492
1671.000000 0.7529 0.7571 0.7612 0.7641 0.7664
1676.000000 0.7687 0.7710 0.7732 0.7753 0.7768
1681.000000 0.7783 0.7799 0.7814 0.7830 0.7845
1686.000000 0.7861 0.7879 0.7896 0.7904 0.7910
1691.000000 0.7917 0.7924 0.7930 0.7937 0.7944
1696.000000 0.7946 0.7947 0.7948 0.7949 0.7950
1701.000000 0.7951 0.7952 0.7952 0.7953 0.7954
1706.000000 0.7955 0.7956 0.7956 0.7957 0.7990
1711.000000 0.8023 0.8055 0.8087 0.8120 0.8156
1716.000000 0.8194 0.8233 0.8269 0.8299 0.8329
1721.000000 0.8358 0.8385 0.8409 0.8432 0.8456
1726.000000 0.8479 0.8501 0.8521 0.8540 0.8560
1731.000000 0.8580 0.8598 0.8612 0.8626 0.8640
1736.000000 0.8655 0.8668 0.8678 0.8689 0.8699
1741.000000 0.8709 0.8719 0.8729 0.8737 0.8743
1746.000000 0.8749 0.8755 0.8761 0.8767 0.8773
1751.000000 0.8779 0.8786 0.8792 0.8798 0.8803
1756.000000 0.8808 0.8813 0.8818 0.8823 0.8828
1761.000000 0.8833 0.8837 0.8841 0.8844 0.8848
1766.000000 0.8852 0.8856 0.8860 0.8864 0.8869
1771.000000 0.8875 0.8880 0.8886 0.8892 0.8898
1776.000000 0.8905 0.8912 0.8920 0.8927 0.8934
1781.000000 0.8939 0.8942 0.8945 0.8948 0.8951
1786.000000 0.8955 0.8958 0.8962 0.8965 0.8969
1791.000000 0.8973 0.8976 0.8980 0.8983 0.8985
1796.000000 0.8988 0.8991 0.8994 0.8997 0.9000
1801.000000 0.9002 0.9004 0.9007 0.9009 0.9011
1806.000000 0.9014 0.9016 0.9018 0.9021 0.9024
1811.000000 0.9051 0.9025 0.9025 0.9025 0.9024
1816.000000 0.9024 0.9024 0.9024 0.9024 0.9024
1821.000000 0.9023 0.9023 0.9022 0.9022 0.9021
1826.000000 0.9021 0.9020 0.9020 0.9019 0.9019
1831.000000 0.9019 0.9018 0.9018 0.9018 0.9017
1836.000000 0.9018 0.9019 0.9020 0.9021 0.9022
1841.000000 0.9023 0.9025 0.9026 0.9027 0.9028
1846.000000 0.9029 0.9031 0.9033 0.9035 0.9037
1851.000000 0.9038 0.9040 0.9042 0.9044 0.9046
1856.000000 0.9048 0.9049 0.9051 0.9053 0.9055
1861.000000 0.9056 0.9057 0.9059 0.9060 0.9057
1866.000000 0.9054 0.9050 0.9047 0.9043 0.9039
1871.000000 0.9036 0.9032 0.9031 0.9029 0.9030
1876.000000 0.9031 0.9032 0.9032 0.9033 0.9034
1881.000000 0.9035 0.9036 0.9037 0.9038 0.9038
1886.000000 0.9039 0.9040 0.9041 0.9042 0.9043
1891.000000 0.9044 0.9045 0.9046 0.9047 0.9048
1896.000000 0.9050 0.9051 0.9052 0.9053 0.9054
1901.000000 0.9055 0.9056 0.9057 0.9058 0.9058
1906.000000 0.9059 0.9059 0.9060 0.9061 0.9061
1911.000000 0.9062 0.9063 0.9063 0.9064 0.9065
1916.000000 0.9066 0.9068 0.9069 0.9070 0.9071
1921.000000 0.9072 0.9073 0.9075 0.9076 0.9077
1926.000000 0.9078 0.9079 0.9073 0.9068 0.9062
1931.000000 0.9057 0.9051 0.9045 0.9038 0.9031
1936.000000 0.9028 0.9026 0.9025 0.9023 0.9021
1941.000000 0.9020 0.9018 0.9017 0.9015 0.9013
1946.000000 0.9012 0.9012 0.9011 0.9010 0.9010
1951.000000 0.9009 0.9008 0.9007 0.9006 0.9004
1956.000000 0.9002 0.9001 0.8999 0.8997 0.8995
1961.000000 0.8994 0.8992 0.8990 0.8989 0.8987
1966.000000 0.8985 0.8983 0.8981 0.8978 0.8976
1971.000000 0.8973 0.8971 0.8968 0.8966 0.8964
1976.000000 0.8963 0.8961 0.8959 0.8958 0.8956
1981.000000 0.8954 0.8953 0.8951 0.8949 0.8952
1986.000000 0.8955 0.8957 0.8960 0.8963 0.8966
1991.000000 0.8968 0.8971 0.8972 0.8972 0.8973
1996.000000 0.8974 0.8975 0.8975 0.8976 0.8977
2001.000000 0.8976 0.8975 0.8974 0.8974 0.8973
2006.000000 0.8973 0.8972 0.8972 0.8971 0.8971
2011.000000 0.8970 0.8970 0.8969 0.8969 0.8968
2016.000000 0.8968 0.8967 0.8967 0.8966 0.8966
2021.000000 0.8965 0.8965 0.8964 0.8963 0.8962
2026.000000 0.8961 0.8960 0.8959 0.8958 0.8957
2031.000000 0.8956 0.8955 0.8954 0.8953 0.8952
2036.000000 0.8951 0.8949 0.8948 0.8946 0.8944
2041.000000 0.8942 0.8941 0.8939 0.8937 0.8935
2046.000000 0.8934 0.8932 0.8931 0.8929 0.8927
2051.000000 0.8923 0.8919 0.8915 0.8911 0.8907
2056.000000 0.8903 0.8899 0.8896 0.8891 0.8886
2061.000000 0.8881 0.8877 0.8873 0.8870 0.8872
2066.000000 0.8874 0.8876 0.8878 0.8880 0.8882
2071.000000 0.8883 0.8885 0.8887 0.8889 0.8888
2076.000000 0.8888 0.8887 0.8886 0.8884 0.8883
2081.000000 0.8881 0.8880 0.8878 0.8877 0.8875
2086.000000 0.8874 0.8872 0.8871 0.8869 0.8868
2091.000000 0.8866 0.8865 0.8863 0.8862 0.8860
2096.000000 0.8859 0.8857 0.8856 0.8855 0.8854
2101.000000 0.8853 0.8852 0.8851 0.8850 0.8849
2106.000000 0.8849 0.8848 0.8847 0.8846 0.8845
2111.000000 0.8844 0.8843 0.8842 0.8841 0.8840
2116.000000 0.8839 0.8837 0.8836 0.8835 0.8834
2121.000000 0.8832 0.8831 0.8829 0.8828 0.8827
2126.000000 0.8826 0.8824 0.8823 0.8821 0.8820
2131.000000 0.8819 0.8818 0.8816 0.8815 0.8814
2136.000000 0.8813 0.8811 0.8810 0.8808 0.8807
2141.000000 0.8806 0.8805 0.8803 0.8802 0.8801
2146.000000 0.8800 0.8797 0.8795 0.8792 0.8790
2151.000000 0.8787 0.8785 0.8782 0.8780 0.8777
2156.000000 0.8775 0.8772 0.8770 0.8767 0.8765
2161.000000 0.8762 0.8760 0.8757 0.8755 0.8752
2166.000000 0.8750 0.8748 0.8746 0.8743 0.8741
2171.000000 0.8739 0.8737 0.8734 0.8732 0.8729
2176.000000 0.8727 0.8725 0.8723 0.8720 0.8718
2181.000000 0.8716 0.8714 0.8713 0.8712 0.8711
2186.000000 0.8710 0.8709 0.8708 0.8707 0.8706
2191.000000 0.8704 0.8703 0.8702 0.8701 0.8700
2196.000000 0.8699 0.8697 0.8695 0.8690 0.8686
2201.000000 0.8681 0.8677 0.8672 0.8667 0.8662
2206.000000 0.8658 0.8653 0.8649 0.8644 0.8640
2211.000000 0.8635 0.8631 0.8626 0.8622 0.8617
2216.000000 0.8612 0.8608 0.8605 0.8602 0.8599
2221.000000 0.8596 0.8593 0.8590 0.8587 0.8584
2226.000000 0.8581 0.8578 0.8575 0.8572 0.8569
2231.000000 0.8566 0.8563 0.8560 0.8557 0.8554
2236.000000 0.8551 0.8547 0.8544 0.8540 0.8537
2241.000000 0.8533 0.8530 0.8526 0.8523 0.8520
2246.000000 0.8517 0.8515 0.8514 0.8513 0.8512
2251.000000 0.8511 0.8510 0.8509 0.8508 0.8507
2256.000000 0.8506 0.8504 0.8503 0.8502 0.8501
2261.000000 0.8500 0.8499 0.8498 0.8497 0.8496
2266.000000 0.8496 0.8495 0.8495 0.8494 0.8494
2271.000000 0.8493 0.8493 0.8492 0.8492 0.8491
2276.000000 0.8491 0.8490 0.8490 0.8489 0.8489
2281.000000 0.8488 0.8488 0.8487 0.8486 0.8484
2286.000000 0.8483 0.8482 0.8481 0.8479 0.8478
2291.000000 0.8476 0.8475 0.8474 0.8473 0.8471
2296.000000 0.8470 0.8468 0.8467 0.8466 0.8465
2301.000000 0.8463 0.8462 0.8460 0.8459 0.8458
2306.000000 0.8457 0.8455 0.8454 0.8452 0.8451
2311.000000 0.8450 0.8450 0.8449 0.8448 0.8447
2316.000000 0.8447 0.8446 0.8446 0.8445 0.8444
2321.000000 0.8443 0.8443 0.8442 0.8442 0.8442
2326.000000 0.8443 0.8444 0.8445 0.8445 0.8446
2331.000000 0.8447 0.8448 0.8449 0.8450 0.8451
2336.000000 0.8452 0.8453 0.8454 0.8454 0.8455
2341.000000 0.8456 0.8457 0.8458 0.8459 0.8460
2346.000000 0.8462 0.8464 0.8466 0.8468 0.8470
2351.000000 0.8471 0.8473 0.8475 0.8477 0.8479
2356.000000 0.8481 0.8482 0.8484 0.8486 0.8488
2361.000000 0.8489 0.8491 0.8492 0.8494 0.8495
2366.000000 0.8497 0.8498 0.8500 0.8501 0.8503
2371.000000 0.8504 0.8506 0.8507 0.8508 0.8509
2376.000000 0.8511 0.8512 0.8514 0.8515 0.8517
2381.000000 0.8517 0.8518 0.8517 0.8517 0.8517
2386.000000 0.8517 0.8517 0.8517 0.8517 0.8517
2391.000000 0.8516 0.8516 0.8516 0.8516 0.8516
2396.000000 0.8516 0.8516 0.8516 0.8515 0.8515
2401.000000 0.8515 0.8515 0.8515 0.8515 0.8515
2406.000000 0.8515 0.8514 0.8514 0.8513 0.8512
2411.000000 0.8511 0.8511 0.8510 0.8509 0.8508
2416.000000 0.8508 0.8507 0.8506 0.8505 0.8504
2421.000000 0.8503 0.8503 0.8502 0.8501 0.8500
2426.000000 0.8500 0.8499 0.8498 0.8497 0.8496
2431.000000 0.8495 0.8495 0.8494 0.8493 0.8492
2436.000000 0.8491 0.8490 0.8489 0.8488 0.8487
2441.000000 0.8485 0.8484 0.8483 0.8482 0.8481
2446.000000 0.8480 0.8478 0.8477 0.8476 0.8475
2451.000000 0.8474 0.8473 0.8473 0.8474 0.8475
2456.000000 0.8477 0.8478 0.8479 0.8480 0.8482
2461.000000 0.8483 0.8484 0.8485 0.8487 0.8488
2466.000000 0.8489 0.8490 0.8492 0.8493 0.8494
2471.000000 0.8495 0.8497 0.8498 0.8499 0.8500
2476.000000 0.8501 0.8502 0.8503 0.8504 0.8505
2481.000000 0.8506 0.8508 0.8509 0.8510 0.8511
2486.000000 0.8512 0.8513 0.8514 0.8515 0.8516
2491.000000 0.8517 0.8518 0.8518 0.8519 0.8520
2496.000000 0.8521 0.8522 0.8523 0.8524 0.8525
2501.000000 0.8525 0.8526 0.8527 0.8528 0.8529
2506.000000 0.8530 0.8530 0.8531 0.8532 0.8533
2511.000000 0.8532 0.8532 0.8530 0.8529 0.8527
2516.000000 0.8526 0.8524 0.8523 0.8521 0.8520
2521.000000 0.8518 0.8517 0.8515 0.8514 0.8512
2526.000000 0.8510 0.8508 0.8507 0.8505 0.8504
2531.000000 0.8502 0.8501 0.8499 0.8498 0.8496
2536.000000 0.8495 0.8493 0.8492 0.8490 0.8489
2541.000000 0.8487 0.8486 0.8484 0.8483 0.8481
2546.000000 0.8479 0.8477 0.8476 0.8474 0.8473
2551.000000 0.8471 0.8470 0.8468 0.8467 0.8465
2556.000000 0.8464 0.8462 0.8461 0.8460 0.8459
2561.000000 0.8458 0.8457 0.8456 0.8455 0.8454
2566.000000 0.8453 0.8452 0.8451 0.8450 0.8449
2571.000000 0.8448 0.8447 0.8446 0.8445 0.8444
2576.000000 0.8444 0.8443 0.8442 0.8441 0.8440
2581.000000 0.8439 0.8438 0.8437 0.8436 0.8435
2586.000000 0.8434 0.8433 0.8432 0.8431 0.8430
2591.000000 0.8429 0.8428 0.8427 0.8426 0.8424
2596.000000 0.8423 0.8422 0.8421 0.8419 0.8418
2601.000000 0.8416 0.8415 0.8414 0.8413 0.8411
2606.000000 0.8410 0.8408 0.8407 0.8406 0.8405
2611.000000 0.8403 0.8402 0.8400 0.8399 0.8398
2616.000000 0.8397 0.8395 0.8394 0.8392 0.8391
2621.000000 0.8389 0.8388 0.8387 0.8386 0.8384
2626.000000 0.8383 0.8381 0.8380 0.8378 0.8377
2631.000000 0.8375 0.8373 0.8371 0.8369 0.8366
2636.000000 0.8364 0.8362 0.8360 0.8357 0.8355
2641.000000 0.8353 0.8351 0.8349 0.8347 0.8344
2646.000000 0.8342 0.8340 0.8338 0.8335 0.8333
2651.000000 0.8331 0.8329 0.8327 0.8325 0.8322
2656.000000 0.8320 0.8317 0.8314 0.8311 0.8308
2661.000000 0.8305 0.8303 0.8300 0.8297 0.8294
2666.000000 0.8291 0.8288 0.8286 0.8283 0.8280
2671.000000 0.8277 0.8274 0.8271 0.8269 0.8266
2676.000000 0.8263 0.8260 0.8257 0.8254 0.8251
2681.000000 0.8248 0.8245 0.8242 0.8239 0.8236
2686.000000 0.8233 0.8230 0.8227 0.8224 0.8221
2691.000000 0.8218 0.8215 0.8212 0.8209 0.8205
2696.000000 0.8202 0.8199 0.8196 0.8193 0.8190
2701.000000 0.8187 0.8184 0.8181 0.8178 0.8175
2706.000000 0.8172 0.8169 0.8166 0.8162 0.8159
2711.000000 0.8156 0.8153 0.8150 0.8147 0.8144
2716.000000 0.8141 0.8137 0.8134 0.8131 0.8128
2721.000000 0.8124 0.8121 0.8117 0.8114 0.8111
2726.000000 0.8108 0.8104 0.8101 0.8097 0.8094
2731.000000 0.8091 0.8088 0.8084 0.8081 0.8077
2736.000000 0.8074 0.8071 0.8068 0.8064 0.8061
2741.000000 0.8057 0.8054 0.8051 0.8048 0.8044
2746.000000 0.8041 0.8037 0.8034 0.8031 0.8028
2751.000000 0.8024 0.8021 0.8017 0.8014 0.8010
2756.000000 0.8007 0.8003 0.7999 0.7995 0.7992
2761.000000 0.7988 0.7985 0.7981 0.7978 0.7974
2766.000000 0.7971 0.7967 0.7963 0.7959 0.7956
2771.000000 0.7952 0.7949 0.7945 0.7942 0.7938
2776.000000 0.7935 0.7931 0.7927 0.7923 0.7920
2781.000000 0.7916 0.7913 0.7909 0.7906 0.7902
2786.000000 0.7898 0.7894 0.7890 0.7885 0.7881
2791.000000 0.7876 0.7872 0.7867 0.7863 0.7858
2796.000000 0.7853 0.7848 0.7844 0.7839 0.7835
2801.000000 0.7830 0.7826 0.7821 0.7817 0.7812
2806.000000 0.7808 0.7803 0.7799 0.7794 0.7790
2811.000000 0.7785 0.7781 0.7776 0.7772 0.7766
2816.000000 0.7760 0.7753 0.7747 0.7740 0.7734
2821.000000 0.7727 0.7721 0.7714 0.7707 0.7700
2826.000000 0.7694 0.7687 0.7681 0.7674 0.7668
2831.000000 0.7662 0.7656 0.7650 0.7645 0.7639
2836.000000 0.7634 0.7628 0.7623 0.7617 0.7612
2841.000000 0.7606 0.7600 0.7594 0.7589 0.7583
2846.000000 0.7578 0.7572 0.7567 0.7561 0.7556
2851.000000 0.7550 0.7545 0.7539 0.7534 0.7528
2856.000000 0.7522 0.7516 0.7511 0.7506 0.7501
2861.000000 0.7496 0.7491 0.7486 0.7481 0.7475
2866.000000 0.7470 0.7465 0.7460 0.7455 0.7450
2871.000000 0.7445 0.7440 0.7434 0.7429 0.7424
2876.000000 0.7419 0.7414 0.7409 0.7402 0.7396
2881.000000 0.7389 0.7382 0.7375 0.7368 0.7361
2886.000000 0.7354 0.7346 0.7339 0.7332 0.7325
2891.000000 0.7318 0.7311 0.7304 0.7297 0.7290
2896.000000 0.7283 0.7274 0.7266 0.7255 0.7244
2901.000000 0.7232 0.7221 0.7210 0.7199 0.7187
2906.000000 0.7176 0.7164 0.7153 0.7139 0.7125
2911.000000 0.7110 0.7095 0.7080 0.7065 0.7050
2916.000000 0.7035 0.7017 0.7000 0.6980 0.6960
2921.000000 0.6939 0.6919 0.6911 0.6904 0.6900
2926.000000 0.6896 0.6892 0.6889 0.6885 0.6882
2931.000000 0.6882 0.6882 0.6883 0.6884 0.6885
2936.000000 0.6886 0.6887 0.6888 0.6889 0.6890
2941.000000 0.6891 0.6892 0.6893 0.6895 0.6896
2946.000000 0.6897 0.6897 0.6898 0.6897 0.6897
2951.000000 0.6896 0.6896 0.6895 0.6895 0.6894
2956.000000 0.6894 0.6893 0.6893 0.6889 0.6886
2961.000000 0.6879 0.6873 0.6866 0.6860 0.6849
2966.000000 0.6839 0.6826 0.6814 0.6812 0.6811
2971.000000 0.6809 0.6808 0.6806 0.6805 0.6803
2976.000000 0.6802 0.6800 0.6799 0.6797 0.6796
2981.000000 0.6794 0.6793 0.6791 0.6790 0.6788
2986.000000 0.6787 0.6785 0.6784 0.6782 0.6781
2991.000000 0.6779 0.6778 0.6776 0.6774 0.6771
2996.000000 0.6768 0.6765 0.6762 0.6758 0.6755
3001.000000 0.6752 0.6749 0.6746 0.6743 0.6740
3006.000000 0.6737 0.6733 0.6730 0.6727 0.6724
3011.000000 0.6720 0.6717 0.6713 0.6709 0.6705
3016.000000 0.6702 0.6698 0.6695 0.6691 0.6688
3021.000000 0.6684 0.6681 0.6677 0.6673 0.6669
3026.000000 0.6666 0.6662 0.6659 0.6655 0.6652
3031.000000 0.6648 0.6644 0.6640 0.6637 0.6633
3036.000000 0.6630 0.6626 0.6623 0.6617 0.6612
3041.000000 0.6606 0.6600 0.6594 0.6588 0.6582
3046.000000 0.6576 0.6570 0.6564 0.6557 0.6551
3051.000000 0.6545 0.6539 0.6533 0.6527 0.6521
3056.000000 0.6515 0.6509 0.6503 0.6497 0.6491
3061.000000 0.6485 0.6479 0.6473 0.6467 0.6461
3066.000000 0.6455 0.6448 0.6442 0.6435 0.6428
3071.000000 0.6421 0.6414 0.6407 0.6401 0.6394
3076.000000 0.6387 0.6380 0.6373 0.6366 0.6359
3081.000000 0.6352 0.6345 0.6338 0.6331 0.6324
3086.000000 0.6317 0.6310 0.6303 0.6296 0.6289
3091.000000 0.6282 0.6275 0.6268 0.6261 0.6254
3096.000000 0.6247 0.6240 0.6233 0.6226 0.6219
3101.000000 0.6210 0.6202 0.6193 0.6185 0.6176
3106.000000 0.6168 0.6159 0.6151 0.6142 0.6134
3111.000000 0.6125 0.6117 0.6108 0.6100 0.6091
3116.000000 0.6083 0.6072 0.6061 0.6046 0.6032
3121.000000 0.6017 0.6003 0.5988 0.5974 0.5959
3126.000000 0.5945 0.5930 0.5916 0.5901 0.5887
3131.000000 0.5874 0.5861 0.5851 0.5842 0.5832
3136.000000 0.5823 0.5813 0.5804 0.5794 0.5785
3141.000000 0.5775 0.5766 0.5756 0.5747 0.5740
3146.000000 0.5733 0.5729 0.5725 0.5721 0.5717
3151.000000 0.5713 0.5710 0.5706 0.5702 0.5698
3156.000000 0.5694 0.5689 0.5684 0.5675 0.5667
3161.000000 0.5658 0.5650 0.5636 0.5623 0.5601
3166.000000 0.5580 0.5561 0.5542 0.5529 0.5516
3171.000000 0.5503 0.5490 0.5480 0.5470 0.5464
3176.000000 0.5458 0.5451 0.5445 0.5439 0.5433
3181.000000 0.5426 0.5420 0.5414 0.5408 0.5401
3186.000000 0.5395 0.5388 0.5382 0.5376 0.5370
3191.000000 0.5363 0.5357 0.5351 0.5345 0.5338
3196.000000 0.5332 0.5326 0.5320 0.5313 0.5307
3201.000000 0.5301 0.5295 0.5289 0.5283 0.5278
3206.000000 0.5273 0.5267 0.5262 0.5257 0.5252
3211.000000 0.5247 0.5242 0.5236 0.5231 0.5226
3216.000000 0.5221 0.5216 0.5211 0.5205 0.5200
3221.000000 0.5195 0.5190 0.5185 0.5180 0.5174
3226.000000 0.5169 0.5164 0.5159 0.5154 0.5149
3231.000000 0.5144 0.5139 0.5134 0.5129 0.5124
3236.000000 0.5119 0.5114 0.5109 0.5104 0.5099
3241.000000 0.5094 0.5089 0.5084 0.5079 0.5074
3246.000000 0.5069 0.5064 0.5059 0.5054 0.5049
3251.000000 0.5044 0.5039 0.5034 0.5029 0.5024
3256.000000 0.5019 0.5012 0.5006 0.4999 0.4992
3261.000000 0.4985 0.4978 0.4971 0.4964 0.4957
3266.000000 0.4950 0.4943 0.4936 0.4929 0.4922
3271.000000 0.4915 0.4908 0.4901 0.4894 0.4887
3276.000000 0.4880 0.4873 0.4866 0.4859 0.4852
3281.000000 0.4845 0.4839 0.4833 0.4827 0.4821
3286.000000 0.4815 0.4808 0.4802 0.4796 0.4790
3291.000000 0.4784 0.4778 0.4771 0.4765 0.4759
3296.000000 0.4753 0.4747 0.4741 0.4735 0.4729
3301.000000 0.4722 0.4716 0.4710 0.4704 0.4698
3306.000000 0.4692 0.4685 0.4679 0.4673 0.4667
3311.000000 0.4661 0.4655 0.4649 0.4643 0.4636
3316.000000 0.4630 0.4624 0.4618 0.4612 0.4606
3321.000000 0.4600 0.4595 0.4589 0.4584 0.4578
3326.000000 0.4573 0.4567 0.4562 0.4556 0.4551
3331.000000 0.4545 0.4540 0.4534 0.4529 0.4523
3336.000000 0.4518 0.4512 0.4507 0.4501 0.4496
3341.000000 0.4490 0.4485 0.4479 0.4474 0.4468
3346.000000 0.4463 0.4457 0.4452 0.4446 0.4441
3351.000000 0.4436 0.4431 0.4426 0.4421 0.4416
3356.000000 0.4411 0.4405 0.4400 0.4395 0.4390
3361.000000 0.4385 0.4380 0.4375 0.4370 0.4366
3366.000000 0.4363 0.4360 0.4357 0.4354 0.4351
3371.000000 0.4348 0.4345 0.4342 0.4339 0.4336
3376.000000 0.4333 0.4330 0.4327 0.4324 0.4321
3381.000000 0.4318 0.4315 0.4312 0.4309 0.4306
3386.000000 0.4303 0.4300 0.4297 0.4294 0.4291
3391.000000 0.4288 0.4286 0.4283 0.4280 0.4277
3396.000000 0.4275 0.4272 0.4269 0.4266 0.4264
3401.000000 0.4261 0.4258 0.4255 0.4252 0.4249
3406.000000 0.4247 0.4246 0.4246 0.4245 0.4245
3411.000000 0.4244 0.4244 0.4243 0.4242 0.4241
3416.000000 0.4241 0.4240 0.4240 0.4239 0.4239
3421.000000 0.4238 0.4238 0.4237 0.4249 0.4236
3426.000000 0.4236 0.4236 0.4236 0.4237 0.4238
3431.000000 0.4239 0.4240 0.4240 0.4241 0.4242
3436.000000 0.4243 0.4244 0.4245 0.4246 0.4247
3441.000000 0.4247 0.4248 0.4250 0.4252 0.4253
3446.000000 0.4255 0.4257 0.4259 0.4260 0.4262
3451.000000 0.4264 0.4266 0.4268 0.4270 0.4271
3456.000000 0.4273 0.4276 0.4280 0.4283 0.4286
3461.000000 0.4289 0.4293 0.4296 0.4300 0.4303
3466.000000 0.4307 0.4311 0.4316 0.4321 0.4327
3471.000000 0.4332 0.4337 0.4342 0.4347 0.4352
3476.000000 0.4357 0.4362 0.4368 0.4373 0.4378
3481.000000 0.4383 0.4388 0.4393 0.4399 0.4404
3486.000000 0.4409 0.4414 0.4419 0.4424 0.4430
3491.000000 0.4435 0.4440 0.4445 0.4450 0.4455
3496.000000 0.4460 0.4465 0.4470 0.4474 0.4479
3501.000000 0.4484 0.4489 0.4494 0.4499 0.4503
3506.000000 0.4508 0.4513 0.4518 0.4522 0.4526
3511.000000 0.4530 0.4534 0.4538 0.4542 0.4546
3516.000000 0.4551 0.4555 0.4559 0.4563 0.4567
3521.000000 0.4571 0.4575 0.4579 0.4583 0.4586
3526.000000 0.4590 0.4594 0.4598 0.4601 0.4605
3531.000000 0.4609 0.4613 0.4616 0.4620 0.4624
3536.000000 0.4628 0.4630 0.4632 0.4631 0.4631
3541.000000 0.4630 0.4629 0.4628 0.4627 0.4634
3546.000000 0.4642 0.4653 0.4664 0.4675 0.4686
3551.000000 0.4700 0.4715 0.4730 0.4745 0.4763
3556.000000 0.4781 0.4800 0.4820 0.4839 0.4859
3561.000000 0.4876 0.4894 0.4911 0.4929 0.4946
3566.000000 0.4964 0.4984 0.5004 0.5028 0.5053
3571.000000 0.5078 0.5103 0.5130 0.5158 0.5192
3576.000000 0.5227 0.5262 0.5297 0.5331 0.5365
3581.000000 0.5396 0.5428 0.5459 0.5490 0.5521
3586.000000 0.5552 0.5583 0.5615 0.5649 0.5683
3591.000000 0.5716 0.5750 0.5783 0.5817 0.5851
3596.000000 0.5885 0.5916 0.5947 0.5973 0.6000
3601.000000 0.6026 0.6052 0.6078 0.6105 0.6131
3606.000000 0.6158 0.6184 0.6211 0.6237 0.6263
3611.000000 0.6292 0.6321 0.6351 0.6381 0.6410
3616.000000 0.6440 0.6470 0.6500 0.6529 0.6559
3621.000000 0.6589 0.6619 0.6653 0.6687 0.6721
3626.000000 0.6755 0.6789 0.6824 0.6858 0.6892
3631.000000 0.6922 0.6953 0.6978 0.7004 0.7029
3636.000000 0.7055 0.7080 0.7105 0.7130 0.7156
3641.000000 0.7181 0.7207 0.7228 0.7249 0.7269
3646.000000 0.7290 0.7310 0.7331 0.7351 0.7372
3651.000000 0.7392 0.7413 0.7433 0.7454 0.7476
3656.000000 0.7499 0.7523 0.7547 0.7571 0.7595
3661.000000 0.7619 0.7643 0.7666 0.7689 0.7709
3666.000000 0.7729 0.7749 0.7769 0.7788 0.7807
3671.000000 0.7819 0.7832 0.7844 0.7857 0.7869
3676.000000 0.7882 0.7894 0.7907 0.7919 0.7931
3681.000000 0.7937 0.7943 0.7947 0.7951 0.7952
3686.000000 0.7953 0.7954 0.7956 0.7957 0.7959
3691.000000 0.7960 0.7962 0.7962 0.7963 0.7963
3696.000000 0.7963 0.7963 0.7964 0.7964 0.7965
3701.000000 0.7965 0.7966 0.7966 0.7952 0.7966
3706.000000 0.7967 0.7967 0.7968 0.7968 0.7968
3711.000000 0.7968 0.7969 0.7969 0.7969 0.7969
3716.000000 0.7969 0.7969 0.7970 0.7970 0.7970
3721.000000 0.7970 0.7970 0.7970 0.7971 0.7971
3726.000000 0.7971 0.7971 0.7971 0.7971 0.7971
3731.000000 0.7971 0.7971 0.7971 0.7971 0.7971
3736.000000 0.7971 0.7971 0.7971 0.7971 0.7971
3741.000000 0.7971 0.7971 0.7970 0.7970 0.7970
3746.000000 0.7970 0.7969 0.7969 0.7968 0.7967
3751.000000 0.7966 0.7965 0.7964 0.7963 0.7962
3756.000000 0.7962 0.7961 0.7960 0.7959 0.7958
3761.000000 0.7957 0.7956 0.7955 0.7955 0.7954
3766.000000 0.7953 0.7952 0.7951 0.7950 0.7950
3771.000000 0.7950 0.7950 0.7949 0.7949 0.7949
3776.000000 0.7949 0.7948 0.7948 0.7948 0.7948
3781.000000 0.7947 0.7947 0.7946 0.7946 0.7946
3786.000000 0.7946 0.7945 0.7945 0.7945 0.7945
3791.000000 0.7944 0.7944 0.7944 0.7944 0.7943
3796.000000 0.7943 0.7943 0.7943 0.7942 0.7942
3801.000000 0.7942 0.7942 0.7941 0.7941 0.7941
3806.000000 0.7941
##END=
