##TITLE=1,3,5,7-Tetramethyl-1,3,5,7-tetravinylcyclotetrasiloxane
##JCAMP-DX=4.24
##DATA TYPE=INFRARED SPECTRUM
##CLASS=COBLENTZ III
##ORIGIN=DOW CORNING CORP.
##OWNER=Copyright (C) 1987 by the Coblentz Society
Collection (C) 2018 copyright by the U.S. Secretary of Commerce
on behalf of the United States of America. All rights reserved.
##DATE=1966/04/25
##NAMES=2,4,6,8-tetramethyl-2,4,6,8-tetravinyl-1,3,5,7,2,4,6,8-tetraoxatetrasilocane
##MOLFORM=C12 H24 O4 Si4
##MP=-43.5 C
##BP=111-112 C AT 12 mmHg
##SOURCE REFERENCE=COBLENTZ NO. 6234
##$NIST ID=B6006234
##$NIST SOURCE=COBLENTZ
##$NIST IMAGE=cob6234
##SPECTROMETER/DATA SYSTEM=PERKIN-ELMER 521 (GRATING)
##INSTRUMENT PARAMETERS=FILTERS AT 3150, 2500, 2000, 1150, 700, 410. GRATING CHANGES: 2000, 630
##STATE=SOLUTION (10% CCl4 FOR 3800-1300, 2% CS2 FOR 1300-650, AND 10% CCl4 FOR 650-250) VS SOLVENT
##PATH LENGTH=0.012 CM, 0.011 CM, AND 0.011 CM
$$ SPECTRAL FEATURE AT 1302 CM^-^1 IS AN ARTIFACT CAUSED BY A CHANGE IN SOLVENT
$$ SPECTRAL FEATURE AT 644 CM^-^1 IS AFFECTED BY A CHANGE IN SOLVENT
##RESOLUTION=2
##XUNITS=1/CM
##YUNITS=TRANSMITTANCE
##XFACTOR=1.0
##YFACTOR=1
##FIRSTX=250
##LASTX=3802
##FIRSTY=0.7058
##MAXX=3802
##MINX=250
##MAXY=0.8928
##MINY=0.0154
##NPOINTS=3553
##XYDATA=(X++(Y..Y))
250.000000 0.7058 0.7059 0.7060 0.7061 0.7062
255.000000 0.7063 0.7063 0.7064 0.7069 0.7074
260.000000 0.7056 0.7089 0.7099 0.7109 0.7116
265.000000 0.7117 0.7117 0.7117 0.7114 0.7107
270.000000 0.7101 0.7095 0.7086 0.7076 0.7066
275.000000 0.7056 0.7046 0.7030 0.7007 0.6984
280.000000 0.6961 0.6938 0.6916 0.6895 0.6874
285.000000 0.6853 0.6832 0.6818 0.6805 0.6792
290.000000 0.6779 0.6766 0.6753 0.6739 0.6726
295.000000 0.6712 0.6699 0.6685 0.6671 0.6655
300.000000 0.6639 0.6624 0.6608 0.6592 0.6577
305.000000 0.6561 0.6544 0.6527 0.6511 0.6494
310.000000 0.6477 0.6460 0.6445 0.6435 0.6425
315.000000 0.6414 0.6404 0.6394 0.6383 0.6373
320.000000 0.6363 0.6339 0.6306 0.6273 0.6241
325.000000 0.6204 0.6160 0.6116 0.6072 0.6011
330.000000 0.5949 0.5887 0.5832 0.5786 0.5739
335.000000 0.5693 0.5622 0.5541 0.5343 0.5266
340.000000 0.5187 0.5069 0.4951 0.4804 0.4666
345.000000 0.4599 0.4532 0.4466 0.4365 0.4244
350.000000 0.4140 0.4044 0.3962 0.3881 0.3812
355.000000 0.3752 0.3716 0.3690 0.3671 0.3664
360.000000 0.3658 0.3653 0.3653 0.3662 0.3672
365.000000 0.3682 0.3694 0.3714 0.3734 0.3755
370.000000 0.3774 0.3784 0.3794 0.3805 0.3811
375.000000 0.3814 0.3816 0.3818 0.3819 0.3818
380.000000 0.3817 0.3816 0.3815 0.3813 0.3812
385.000000 0.3811 0.3809 0.3807 0.3805 0.3808
390.000000 0.3815 0.3821 0.3823 0.3824 0.3823
395.000000 0.3818 0.3818 0.3817 0.3817 0.3816
400.000000 0.3816 0.3817 0.3835 0.3859 0.3883
405.000000 0.3912 0.3942 0.3973 0.4016 0.4069
410.000000 0.4122 0.4175 0.4287 0.4419 0.4539
415.000000 0.4645 0.4752 0.4874 0.5001 0.5131
420.000000 0.5265 0.5400 0.5535 0.5669 0.5812
425.000000 0.5954 0.6067 0.6180 0.6337 0.6488
430.000000 0.6563 0.6638 0.6706 0.6758 0.6810
435.000000 0.6861 0.6917 0.6977 0.7033 0.7069
440.000000 0.7106 0.7137 0.7155 0.7173 0.7191
445.000000 0.7209 0.7215 0.7220 0.7224 0.7228
450.000000 0.7233 0.7237 0.7238 0.7240 0.7242
455.000000 0.7243 0.7245 0.7235 0.7244 0.7239
460.000000 0.7235 0.7230 0.7225 0.7220 0.7215
465.000000 0.7210 0.7205 0.7200 0.7195 0.7189
470.000000 0.7184 0.7179 0.7173 0.7165 0.7158
475.000000 0.7151 0.7144 0.7137 0.7130 0.7125
480.000000 0.7122 0.7119 0.7117 0.7114 0.7117
485.000000 0.7122 0.7126 0.7130 0.7131 0.7131
490.000000 0.7131 0.7122 0.7102 0.7082 0.7057
495.000000 0.7028 0.6993 0.6959 0.6925 0.6872
500.000000 0.6819 0.6764 0.6697 0.6630 0.6563
505.000000 0.6496 0.6431 0.6368 0.6305 0.6242
510.000000 0.6172 0.6100 0.6028 0.5933 0.5830
515.000000 0.5700 0.5573 0.5226 0.5107 0.4989
520.000000 0.4840 0.4659 0.4478 0.4297 0.4116
525.000000 0.3934 0.3753 0.3572 0.3391 0.3210
530.000000 0.3106 0.3028 0.2951 0.2887 0.2822
535.000000 0.2774 0.2795 0.2813 0.2861 0.2985
540.000000 0.3201 0.3418 0.3634 0.3850 0.4066
545.000000 0.4282 0.4498 0.4714 0.4930 0.5146
550.000000 0.5242 0.5235 0.5240 0.5196 0.5171
555.000000 0.5117 0.5017 0.4891 0.4765 0.4638
560.000000 0.4512 0.4386 0.4260 0.4133 0.4007
565.000000 0.3881 0.3755 0.3628 0.3502 0.3376
570.000000 0.3250 0.3123 0.3034 0.3006 0.2990
575.000000 0.2991 0.2987 0.3021 0.3061 0.3117
580.000000 0.3189 0.3367 0.3545 0.3724 0.3902
585.000000 0.4080 0.4259 0.4437 0.4575 0.4841
590.000000 0.5030 0.5170 0.5301 0.5419 0.5524
595.000000 0.5605 0.5686 0.5817 0.6073 0.6224
600.000000 0.6375 0.6587 0.6711 0.6805 0.6899
605.000000 0.7039 0.7145 0.7225 0.7265 0.7300
610.000000 0.7335 0.7351 0.7367 0.7382 0.7392
615.000000 0.7401 0.7410 0.7444 0.7506 0.7599
620.000000 0.7668 0.7695 0.7692 0.7684 0.7675
625.000000 0.7678 0.7637 0.7608 0.7567 0.7520
630.000000 0.7469 0.7404 0.7340 0.7281 0.7221
635.000000 0.7077 0.6952 0.6842 0.6733 0.6597
640.000000 0.6489 0.6395 0.6318 0.6278 0.6259
645.000000 0.6257 0.6267 0.6282 0.6307 0.6336
650.000000 0.6880 0.8067 0.8073 0.8079 0.8084
655.000000 0.8086 0.8123 0.8091 0.8093 0.8091
660.000000 0.8090 0.8083 0.8077 0.8062 0.8044
665.000000 0.8025 0.8002 0.7980 0.7956 0.7931
670.000000 0.7909 0.7890 0.7870 0.7837 0.7804
675.000000 0.7764 0.7718 0.7673 0.7629 0.7579
680.000000 0.7529 0.7503 0.7420 0.7466 0.7480
685.000000 0.7509 0.7539 0.7580 0.7622 0.7663
690.000000 0.7719 0.7783 0.7845 0.7896 0.7946
695.000000 0.7997 0.8048 0.8088 0.8119 0.8149
700.000000 0.8179 0.8189 0.8199 0.8207 0.8208
705.000000 0.8210 0.8211 0.8210 0.8207 0.8205
710.000000 0.8202 0.8182 0.8189 0.8183 0.8177
715.000000 0.8170 0.8164 0.8152 0.8136 0.8121
720.000000 0.8093 0.8044 0.7987 0.7908 0.7817
725.000000 0.7722 0.7610 0.7498 0.7388 0.7219
730.000000 0.7021 0.6880 0.6740 0.6614 0.6487
735.000000 0.6261 0.6016 0.5822 0.5671 0.5381
740.000000 0.5176 0.4971 0.4766 0.4561 0.4356
745.000000 0.4151 0.3946 0.3741 0.3526 0.3464
750.000000 0.3397 0.3436 0.3530 0.3800 0.4071
755.000000 0.4342 0.4613 0.4883 0.5154 0.5425
760.000000 0.5553 0.5559 0.5539 0.5507 0.5441
765.000000 0.5385 0.5320 0.5245 0.5217 0.5182
770.000000 0.5197 0.5211 0.5226 0.5238 0.5249
775.000000 0.5260 0.5270 0.5276 0.5321 0.5159
780.000000 0.5071 0.4746 0.4422 0.4098 0.3773
785.000000 0.3449 0.3170 0.3042 0.2945 0.2863
790.000000 0.2802 0.2751 0.2702 0.2633 0.2539
795.000000 0.2445 0.2375 0.2323 0.2303 0.2312
800.000000 0.2532 0.2857 0.3182 0.3508 0.3833
805.000000 0.4159 0.4484 0.4810 0.5135 0.5459
810.000000 0.5531 0.5594 0.5626 0.5645 0.5684
815.000000 0.5647 0.5635 0.5615 0.5570 0.5488
820.000000 0.5367 0.5286 0.5281 0.5275 0.5275
825.000000 0.5261 0.5291 0.5316 0.5494 0.5571
830.000000 0.5780 0.6039 0.6210 0.6384 0.6498
835.000000 0.6604 0.6722 0.6863 0.6975 0.7082
840.000000 0.7176 0.7264 0.7339 0.7404 0.7468
845.000000 0.7525 0.7576 0.7628 0.7679 0.7732
850.000000 0.7792 0.7853 0.7913 0.7960 0.8000
855.000000 0.8040 0.8081 0.8116 0.8145 0.8175
860.000000 0.8204 0.8233 0.8261 0.8285 0.8309
865.000000 0.8333 0.8357 0.8381 0.8395 0.8410
870.000000 0.8424 0.8439 0.8451 0.8463 0.8475
875.000000 0.8486 0.8498 0.8510 0.8522 0.8534
880.000000 0.8547 0.8560 0.8572 0.8585 0.8598
885.000000 0.8611 0.8623 0.8634 0.8645 0.8656
890.000000 0.8667 0.8674 0.8678 0.8682 0.8686
895.000000 0.8690 0.8693 0.8692 0.8689 0.8668
900.000000 0.8685 0.8683 0.8680 0.8680 0.8679
905.000000 0.8679 0.8678 0.8674 0.8669 0.8663
910.000000 0.8658 0.8652 0.8647 0.8641 0.8636
915.000000 0.8630 0.8627 0.8624 0.8621 0.8617
920.000000 0.8614 0.8611 0.8607 0.8600 0.8590
925.000000 0.8581 0.8568 0.8554 0.8539 0.8524
930.000000 0.8507 0.8481 0.8456 0.8421 0.8384
935.000000 0.8348 0.8308 0.8250 0.8191 0.8125
940.000000 0.8058 0.7991 0.7925 0.7859 0.7792
945.000000 0.7550 0.7403 0.7326 0.7248 0.7171
950.000000 0.6793 0.6347 0.5966 0.5790 0.5575
955.000000 0.5365 0.5097 0.5015 0.4956 0.4941
960.000000 0.4894 0.4978 0.5473 0.6044 0.6614
965.000000 0.7167 0.7371 0.7507 0.7608 0.7709
970.000000 0.7850 0.7943 0.7995 0.8031 0.8052
975.000000 0.8053 0.8053 0.8034 0.8005 0.7974
980.000000 0.7943 0.7912 0.7883 0.7856 0.7826
985.000000 0.7788 0.7751 0.7711 0.7670 0.7608
990.000000 0.7535 0.7460 0.7384 0.7309 0.7204
995.000000 0.7099 0.6959 0.6787 0.6541 0.6346
1000.000000 0.6165 0.4497 0.3785 0.3768 0.3795
1005.000000 0.3873 0.4233 0.4593 0.4953 0.5313
1010.000000 0.5534 0.5783 0.5939 0.6022 0.6041
1015.000000 0.6039 0.6027 0.6029 0.6022 0.6011
1020.000000 0.6000 0.5980 0.5949 0.5913 0.5876
1025.000000 0.5832 0.5774 0.5678 0.5548 0.5374
1030.000000 0.5279 0.5189 0.5133 0.5077 0.5022
1035.000000 0.4966 0.4798 0.4628 0.4457 0.4287
1040.000000 0.4117 0.3986 0.3897 0.3816 0.3664
1045.000000 0.3436 0.3231 0.3048 0.2881 0.2701
1050.000000 0.2515 0.1902 0.1763 0.1632 0.1511
1055.000000 0.1391 0.1278 0.1167 0.1068 0.0977
1060.000000 0.0886 0.0809 0.0745 0.0681 0.0612
1065.000000 0.0528 0.0453 0.0386 0.0337 0.0301
1070.000000 0.0264 0.0237 0.0219 0.0200 0.0181
1075.000000 0.0171 0.0165 0.0172 0.0157 0.0154
1080.000000 0.0155 0.0156 0.0164 0.0176 0.0188
1085.000000 0.0201 0.0214 0.0239 0.0270 0.0304
1090.000000 0.0348 0.0392 0.0436 0.0592 0.0769
1095.000000 0.0883 0.0965 0.1041 0.1119 0.1286
1100.000000 0.1452 0.1619 0.1786 0.1952 0.2119
1105.000000 0.2285 0.2580 0.2719 0.2859 0.3018
1110.000000 0.3169 0.3508 0.3748 0.4163 0.4344
1115.000000 0.4477 0.4621 0.4810 0.4982 0.5140
1120.000000 0.5234 0.5314 0.5395 0.5476 0.5579
1125.000000 0.5684 0.5765 0.5829 0.5894 0.5968
1130.000000 0.6167 0.6344 0.6457 0.6571 0.6651
1135.000000 0.6720 0.6789 0.6851 0.6907 0.6963
1140.000000 0.7019 0.7074 0.7128 0.7182 0.7236
1145.000000 0.7289 0.7338 0.7386 0.7434 0.7481
1150.000000 0.7529 0.7586 0.7648 0.7710 0.7772
1155.000000 0.7821 0.7869 0.7916 0.7962 0.8003
1160.000000 0.8044 0.8086 0.8126 0.8158 0.8189
1165.000000 0.8221 0.8241 0.8254 0.8267 0.8288
1170.000000 0.8311 0.8340 0.8378 0.8416 0.8448
1175.000000 0.8476 0.8503 0.8530 0.8548 0.8557
1180.000000 0.8567 0.8574 0.8578 0.8582 0.8587
1185.000000 0.8591 0.8595 0.8599 0.8603 0.8607
1190.000000 0.8610 0.8614 0.8617 0.8621 0.8623
1195.000000 0.8626 0.8629 0.8632 0.8634 0.8637
1200.000000 0.8641 0.8645 0.8649 0.8665 0.8657
1205.000000 0.8660 0.8663 0.8663 0.8663 0.8664
1210.000000 0.8664 0.8663 0.8661 0.8658 0.8655
1215.000000 0.8653 0.8648 0.8636 0.8624 0.8612
1220.000000 0.8600 0.8588 0.8577 0.8561 0.8545
1225.000000 0.8529 0.8510 0.8489 0.8468 0.8447
1230.000000 0.8426 0.8399 0.8362 0.8326 0.8283
1235.000000 0.8228 0.8172 0.8114 0.8055 0.7972
1240.000000 0.7868 0.7731 0.7586 0.7458 0.7338
1245.000000 0.7246 0.7154 0.7028 0.6860 0.6648
1250.000000 0.5870 0.5231 0.4592 0.3953 0.3315
1255.000000 0.2676 0.2254 0.2245 0.2256 0.3044
1260.000000 0.3964 0.4884 0.5804 0.6442 0.6468
1265.000000 0.6471 0.6470 0.6466 0.6461 0.6559
1270.000000 0.6693 0.7010 0.7501 0.7665 0.7754
1275.000000 0.7843 0.7934 0.8025 0.8285 0.8352
1280.000000 0.8413 0.8451 0.8489 0.8521 0.8536
1285.000000 0.8552 0.8567 0.8580 0.8589 0.8597
1290.000000 0.8605 0.8612 0.8618 0.8625 0.8632
1295.000000 0.8641 0.8641 0.8644 0.8647 0.8413
1300.000000 0.8169 0.7925 0.7681 0.7582 0.7609
1305.000000 0.7627 0.7645 0.7662 0.7678 0.7694
1310.000000 0.7709 0.7723 0.7737 0.7752 0.7767
1315.000000 0.7783 0.7800 0.7817 0.7831 0.7844
1320.000000 0.7857 0.7870 0.7883 0.7891 0.7899
1325.000000 0.7907 0.7914 0.7922 0.7929 0.7935
1330.000000 0.7942 0.7948 0.7955 0.7961 0.7968
1335.000000 0.7972 0.7974 0.7975 0.7977 0.7976
1340.000000 0.7980 0.7979 0.7978 0.7977 0.7976
1345.000000 0.7974 0.7968 0.7963 0.7957 0.7951
1350.000000 0.7946 0.7938 0.7928 0.7918 0.7908
1355.000000 0.7898 0.7888 0.7878 0.7864 0.7850
1360.000000 0.7836 0.7822 0.7808 0.7794 0.7777
1365.000000 0.7755 0.7734 0.7712 0.7689 0.7664
1370.000000 0.7640 0.7615 0.7591 0.7567 0.7538
1375.000000 0.7496 0.7454 0.7412 0.7370 0.7323
1380.000000 0.7265 0.7207 0.7148 0.7076 0.6986
1385.000000 0.6896 0.6788 0.6672 0.6564 0.6465
1390.000000 0.6366 0.6257 0.6125 0.5994 0.5862
1395.000000 0.5737 0.5613 0.5368 0.5214 0.5093
1400.000000 0.4978 0.4080 0.2318 0.1781 0.1243
1405.000000 0.0706 0.0350 0.0347 0.0347 0.0320
1410.000000 0.0520 0.0958 0.1397 0.1835 0.2274
1415.000000 0.2712 0.3150 0.3589 0.4027 0.4466
1420.000000 0.5813 0.5949 0.6089 0.6296 0.6481
1425.000000 0.6643 0.6762 0.6870 0.6971 0.7059
1430.000000 0.7131 0.7223 0.7322 0.7379 0.7428
1435.000000 0.7487 0.7564 0.7636 0.7667 0.7694
1440.000000 0.7702 0.7710 0.7718 0.7728 0.7738
1445.000000 0.7748 0.7758 0.7768 0.7774 0.7780
1450.000000 0.7786 0.7792 0.7798 0.7799 0.7800
1455.000000 0.7801 0.7802 0.7803 0.7801 0.7798
1460.000000 0.7795 0.7798 0.7813 0.7827 0.7841
1465.000000 0.7855 0.7868 0.7881 0.7899 0.7921
1470.000000 0.7943 0.7962 0.7973 0.7984 0.7995
1475.000000 0.7994 0.7992 0.7989 0.7976 0.7963
1480.000000 0.7955 0.7956 0.7956 0.7962 0.7968
1485.000000 0.7983 0.7999 0.8015 0.8029 0.8042
1490.000000 0.8056 0.8069 0.8078 0.8087 0.8096
1495.000000 0.8105 0.8115 0.8118 0.8120 0.8122
1500.000000 0.8124 0.8126 0.8128 0.8130 0.8146
1505.000000 0.8131 0.8130 0.8130 0.8130 0.8130
1510.000000 0.8129 0.8127 0.8124 0.8122 0.8119
1515.000000 0.8116 0.8110 0.8103 0.8095 0.8088
1520.000000 0.8077 0.8055 0.8033 0.8011 0.7977
1525.000000 0.7942 0.7921 0.7912 0.7902 0.7893
1530.000000 0.7885 0.7877 0.7870 0.7868 0.7865
1535.000000 0.7863 0.7861 0.7859 0.7856 0.7850
1540.000000 0.7845 0.7839 0.7834 0.7829 0.7823
1545.000000 0.7818 0.7812 0.7807 0.7802 0.7807
1550.000000 0.7817 0.7820 0.7824 0.7822 0.7820
1555.000000 0.7820 0.7819 0.7818 0.7814 0.7807
1560.000000 0.7801 0.7795 0.7779 0.7760 0.7740
1565.000000 0.7720 0.7700 0.7681 0.7662 0.7643
1570.000000 0.7627 0.7610 0.7594 0.7577 0.7564
1575.000000 0.7551 0.7538 0.7530 0.7527 0.7524
1580.000000 0.7521 0.7518 0.7480 0.7422 0.7342
1585.000000 0.7262 0.7182 0.6912 0.6777 0.6550
1590.000000 0.6205 0.5975 0.5843 0.5549 0.5432
1595.000000 0.4867 0.4141 0.3414 0.2688 0.2449
1600.000000 0.2433 0.2684 0.4191 0.5698 0.6959
1605.000000 0.7259 0.7414 0.7533 0.7624 0.7720
1610.000000 0.7834 0.7945 0.7994 0.8037 0.8069
1615.000000 0.8098 0.8126 0.8148 0.8170 0.8189
1620.000000 0.8206 0.8224 0.8241 0.8258 0.8267
1625.000000 0.8274 0.8279 0.8284 0.8290 0.8295
1630.000000 0.8300 0.8306 0.8311 0.8316 0.8320
1635.000000 0.8323 0.8326 0.8329 0.8332 0.8335
1640.000000 0.8338 0.8341 0.8343 0.8346 0.8350
1645.000000 0.8354 0.8357 0.8361 0.8364 0.8368
1650.000000 0.8371 0.8375 0.8378 0.8382 0.8385
1655.000000 0.8386 0.8388 0.8389 0.8390 0.8392
1660.000000 0.8394 0.8396 0.8399 0.8401 0.8403
1665.000000 0.8405 0.8406 0.8407 0.8409 0.8410
1670.000000 0.8411 0.8413 0.8414 0.8415 0.8416
1675.000000 0.8416 0.8416 0.8419 0.8422 0.8425
1680.000000 0.8428 0.8431 0.8435 0.8438 0.8441
1685.000000 0.8444 0.8447 0.8451 0.8456 0.8460
1690.000000 0.8462 0.8463 0.8465 0.8467 0.8469
1695.000000 0.8472 0.8474 0.8477 0.8478 0.8475
1700.000000 0.8473 0.8470 0.8467 0.8464 0.8462
1705.000000 0.8459 0.8456 0.8454 0.8451 0.8449
1710.000000 0.8446 0.8443 0.8441 0.8438 0.8437
1715.000000 0.8436 0.8435 0.8434 0.8433 0.8432
1720.000000 0.8431 0.8430 0.8428 0.8427 0.8425
1725.000000 0.8424 0.8422 0.8421 0.8419 0.8418
1730.000000 0.8415 0.8410 0.8405 0.8400 0.8395
1735.000000 0.8389 0.8381 0.8373 0.8365 0.8358
1740.000000 0.8351 0.8350 0.8350 0.8349 0.8349
1745.000000 0.8372 0.8347 0.8347 0.8348 0.8350
1750.000000 0.8353 0.8356 0.8358 0.8361 0.8363
1755.000000 0.8366 0.8368 0.8371 0.8373 0.8375
1760.000000 0.8378 0.8380 0.8383 0.8389 0.8395
1765.000000 0.8401 0.8408 0.8422 0.8453 0.8486
1770.000000 0.8494 0.8501 0.8503 0.8503 0.8505
1775.000000 0.8508 0.8511 0.8514 0.8517 0.8521
1780.000000 0.8529 0.8538 0.8569 0.8596 0.8611
1785.000000 0.8616 0.8622 0.8626 0.8628 0.8630
1790.000000 0.8633 0.8635 0.8636 0.8638 0.8640
1795.000000 0.8641 0.8643 0.8644 0.8646 0.8648
1800.000000 0.8649 0.8651 0.8652 0.8653 0.8655
1805.000000 0.8656 0.8657 0.8658 0.8659 0.8656
1810.000000 0.8654 0.8652 0.8650 0.8648 0.8646
1815.000000 0.8644 0.8642 0.8639 0.8637 0.8635
1820.000000 0.8633 0.8631 0.8630 0.8628 0.8626
1825.000000 0.8624 0.8622 0.8620 0.8619 0.8618
1830.000000 0.8616 0.8615 0.8614 0.8613 0.8611
1835.000000 0.8610 0.8609 0.8607 0.8602 0.8598
1840.000000 0.8594 0.8591 0.8597 0.8604 0.8610
1845.000000 0.8616 0.8622 0.8628 0.8633 0.8639
1850.000000 0.8645 0.8651 0.8656 0.8661 0.8665
1855.000000 0.8665 0.8666 0.8666 0.8667 0.8667
1860.000000 0.8667 0.8667 0.8666 0.8666 0.8665
1865.000000 0.8665 0.8665 0.8664 0.8664 0.8663
1870.000000 0.8663 0.8664 0.8664 0.8665 0.8665
1875.000000 0.8665 0.8664 0.8659 0.8653 0.8647
1880.000000 0.8642 0.8636 0.8625 0.8615 0.8604
1885.000000 0.8593 0.8582 0.8571 0.8560 0.8548
1890.000000 0.8537 0.8525 0.8514 0.8503 0.8485
1895.000000 0.8467 0.8449 0.8431 0.8413 0.8394
1900.000000 0.8362 0.8331 0.8299 0.8271 0.8244
1905.000000 0.8216 0.8188 0.8161 0.8130 0.8097
1910.000000 0.8065 0.8033 0.8000 0.7954 0.7905
1915.000000 0.7856 0.7787 0.7706 0.7626 0.7547
1920.000000 0.7461 0.7428 0.7408 0.7381 0.7412
1925.000000 0.7431 0.7457 0.7482 0.7505 0.7529
1930.000000 0.7562 0.7612 0.7688 0.7791 0.8004
1935.000000 0.8070 0.8137 0.8204 0.8277 0.8358
1940.000000 0.8412 0.8446 0.8479 0.8506 0.8527
1945.000000 0.8544 0.8562 0.8574 0.8585 0.8597
1950.000000 0.8608 0.8620 0.8634 0.8650 0.8666
1955.000000 0.8683 0.8696 0.8696 0.8696 0.8695
1960.000000 0.8694 0.8686 0.8674 0.8633 0.8640
1965.000000 0.8655 0.8672 0.8688 0.8704 0.8708
1970.000000 0.8713 0.8717 0.8715 0.8712 0.8710
1975.000000 0.8708 0.8705 0.8702 0.8699 0.8695
1980.000000 0.8690 0.8686 0.8681 0.8677 0.8672
1985.000000 0.8668 0.8663 0.8659 0.8654 0.8650
1990.000000 0.8646 0.8641 0.8638 0.8634 0.8630
1995.000000 0.8626 0.8623 0.8619 0.8615 0.8611
2000.000000 0.8607 0.8599 0.8592 0.8592 0.8592
2005.000000 0.8591 0.8591 0.8591 0.8591 0.8598
2010.000000 0.8606 0.8613 0.8620 0.8628 0.8637
2015.000000 0.8647 0.8657 0.8667 0.8678 0.8688
2020.000000 0.8698 0.8708 0.8719 0.8729 0.8739
2025.000000 0.8749 0.8759 0.8769 0.8780 0.8782
2030.000000 0.8785 0.8788 0.8791 0.8793 0.8796
2035.000000 0.8798 0.8801 0.8804 0.8807 0.8809
2040.000000 0.8812 0.8812 0.8812 0.8811 0.8810
2045.000000 0.8809 0.8808 0.8807 0.8807 0.8806
2050.000000 0.8806 0.8805 0.8805 0.8804 0.8803
2055.000000 0.8802 0.8802 0.8801 0.8801 0.8802
2060.000000 0.8804 0.8806 0.8808 0.8809 0.8811
2065.000000 0.8813 0.8815 0.8817 0.8819 0.8820
2070.000000 0.8822 0.8824 0.8826 0.8828 0.8830
2075.000000 0.8832 0.8834 0.8836 0.8824 0.8838
2080.000000 0.8838 0.8837 0.8837 0.8836 0.8835
2085.000000 0.8834 0.8833 0.8830 0.8827 0.8824
2090.000000 0.8821 0.8818 0.8815 0.8812 0.8809
2095.000000 0.8806 0.8803 0.8803 0.8804 0.8811
2100.000000 0.8819 0.8826 0.8833 0.8840 0.8848
2105.000000 0.8855 0.8862 0.8869 0.8876 0.8877
2110.000000 0.8878 0.8878 0.8879 0.8880 0.8881
2115.000000 0.8881 0.8881 0.8881 0.8882 0.8882
2120.000000 0.8882 0.8881 0.8880 0.8877 0.8875
2125.000000 0.8873 0.8871 0.8869 0.8867 0.8865
2130.000000 0.8863 0.8861 0.8860 0.8858 0.8856
2135.000000 0.8854 0.8852 0.8850 0.8849 0.8847
2140.000000 0.8845 0.8844 0.8843 0.8842 0.8842
2145.000000 0.8841 0.8841 0.8840 0.8840 0.8839
2150.000000 0.8839 0.8838 0.8838 0.8840 0.8842
2155.000000 0.8844 0.8847 0.8849 0.8851 0.8852
2160.000000 0.8854 0.8855 0.8857 0.8858 0.8860
2165.000000 0.8861 0.8863 0.8863 0.8864 0.8864
2170.000000 0.8864 0.8864 0.8865 0.8865 0.8865
2175.000000 0.8865 0.8865 0.8865 0.8866 0.8866
2180.000000 0.8866 0.8866 0.8867 0.8867 0.8867
2185.000000 0.8866 0.8866 0.8864 0.8863 0.8861
2190.000000 0.8859 0.8857 0.8856 0.8853 0.8851
2195.000000 0.8847 0.8843 0.8839 0.8835 0.8831
2200.000000 0.8827 0.8823 0.8820 0.8815 0.8810
2205.000000 0.8810 0.8811 0.8814 0.8817 0.8820
2210.000000 0.8824 0.8827 0.8830 0.8831 0.8833
2215.000000 0.8834 0.8835 0.8836 0.8838 0.8837
2220.000000 0.8837 0.8836 0.8836 0.8835 0.8835
2225.000000 0.8834 0.8834 0.8833 0.8832 0.8830
2230.000000 0.8828 0.8826 0.8825 0.8823 0.8821
2235.000000 0.8819 0.8818 0.8816 0.8814 0.8812
2240.000000 0.8811 0.8809 0.8807 0.8804 0.8802
2245.000000 0.8797 0.8793 0.8791 0.8789 0.8787
2250.000000 0.8786 0.8784 0.8782 0.8780 0.8779
2255.000000 0.8777 0.8775 0.8773 0.8771 0.8767
2260.000000 0.8764 0.8760 0.8757 0.8753 0.8750
2265.000000 0.8746 0.8743 0.8739 0.8736 0.8732
2270.000000 0.8729 0.8722 0.8716 0.8709 0.8702
2275.000000 0.8695 0.8689 0.8682 0.8675 0.8673
2280.000000 0.8672 0.8672 0.8618 0.8679 0.8686
2285.000000 0.8692 0.8699 0.8711 0.8724 0.8738
2290.000000 0.8752 0.8766 0.8781 0.8795 0.8810
2295.000000 0.8821 0.8833 0.8844 0.8855 0.8861
2300.000000 0.8868 0.8872 0.8877 0.8882 0.8887
2305.000000 0.8891 0.8896 0.8899 0.8903 0.8906
2310.000000 0.8909 0.8912 0.8916 0.8919 0.8922
2315.000000 0.8924 0.8927 0.8927 0.8927 0.8927
2320.000000 0.8927 0.8927 0.8928 0.8928 0.8928
2325.000000 0.8928 0.8928 0.8928 0.8928 0.8927
2330.000000 0.8927 0.8926 0.8925 0.8922 0.8920
2335.000000 0.8917 0.8914 0.8911 0.8909 0.8907
2340.000000 0.8905 0.8903 0.8901 0.8899 0.8897
2345.000000 0.8895 0.8893 0.8891 0.8889 0.8887
2350.000000 0.8885 0.8883 0.8881 0.8880 0.8879
2355.000000 0.8879 0.8880 0.8880 0.8880 0.8882
2360.000000 0.8884 0.8886 0.8888 0.8890 0.8893
2365.000000 0.8895 0.8897 0.8897 0.8898 0.8897
2370.000000 0.8896 0.8893 0.8890 0.8887 0.8884
2375.000000 0.8881 0.8878 0.8874 0.8871 0.8867
2380.000000 0.8864 0.8860 0.8857 0.8854 0.8851
2385.000000 0.8847 0.8844 0.8841 0.8838 0.8835
2390.000000 0.8833 0.8830 0.8827 0.8825 0.8824
2395.000000 0.8823 0.8823 0.8822 0.8822 0.8821
2400.000000 0.8821 0.8820 0.8820 0.8819 0.8819
2405.000000 0.8819 0.8819 0.8818 0.8818 0.8818
2410.000000 0.8818 0.8818 0.8818 0.8817 0.8817
2415.000000 0.8818 0.8819 0.8820 0.8821 0.8822
2420.000000 0.8823 0.8824 0.8825 0.8826 0.8828
2425.000000 0.8829 0.8830 0.8831 0.8832 0.8832
2430.000000 0.8833 0.8834 0.8835 0.8835 0.8829
2435.000000 0.8836 0.8837 0.8838 0.8839 0.8839
2440.000000 0.8840 0.8841 0.8842 0.8842 0.8843
2445.000000 0.8844 0.8845 0.8845 0.8846 0.8846
2450.000000 0.8847 0.8848 0.8849 0.8850 0.8851
2455.000000 0.8852 0.8853 0.8854 0.8855 0.8856
2460.000000 0.8857 0.8858 0.8859 0.8860 0.8861
2465.000000 0.8862 0.8863 0.8864 0.8865 0.8866
2470.000000 0.8867 0.8868 0.8869 0.8870 0.8871
2475.000000 0.8868 0.8866 0.8863 0.8860 0.8856
2480.000000 0.8853 0.8848 0.8843 0.8834 0.8826
2485.000000 0.8825 0.8824 0.8823 0.8822 0.8821
2490.000000 0.8820 0.8819 0.8818 0.8817 0.8817
2495.000000 0.8816 0.8815 0.8814 0.8814 0.8814
2500.000000 0.8815 0.8816 0.8817 0.8817 0.8818
2505.000000 0.8818 0.8819 0.8819 0.8820 0.8820
2510.000000 0.8821 0.8822 0.8823 0.8823 0.8824
2515.000000 0.8824 0.8825 0.8824 0.8823 0.8822
2520.000000 0.8822 0.8821 0.8821 0.8820 0.8820
2525.000000 0.8819 0.8819 0.8818 0.8817 0.8816
2530.000000 0.8816 0.8816 0.8816 0.8815 0.8815
2535.000000 0.8815 0.8815 0.8815 0.8815 0.8815
2540.000000 0.8815 0.8815 0.8815 0.8815 0.8815
2545.000000 0.8815 0.8815 0.8815 0.8815 0.8815
2550.000000 0.8816 0.8816 0.8816 0.8816 0.8816
2555.000000 0.8815 0.8815 0.8813 0.8812 0.8810
2560.000000 0.8809 0.8807 0.8805 0.8803 0.8802
2565.000000 0.8800 0.8799 0.8797 0.8796 0.8794
2570.000000 0.8793 0.8791 0.8790 0.8788 0.8787
2575.000000 0.8786 0.8785 0.8783 0.8782 0.8780
2580.000000 0.8779 0.8777 0.8776 0.8775 0.8774
2585.000000 0.8773 0.8772 0.8771 0.8771 0.8770
2590.000000 0.8769 0.8768 0.8767 0.8766 0.8766
2595.000000 0.8765 0.8764 0.8763 0.8763 0.8765
2600.000000 0.8768 0.8770 0.8772 0.8774 0.8777
2605.000000 0.8779 0.8782 0.8784 0.8786 0.8788
2610.000000 0.8791 0.8791 0.8792 0.8791 0.8791
2615.000000 0.8791 0.8791 0.8790 0.8790 0.8789
2620.000000 0.8789 0.8787 0.8786 0.8784 0.8783
2625.000000 0.8781 0.8780 0.8778 0.8777 0.8775
2630.000000 0.8774 0.8772 0.8770 0.8768 0.8766
2635.000000 0.8763 0.8761 0.8758 0.8756 0.8754
2640.000000 0.8752 0.8749 0.8747 0.8744 0.8742
2645.000000 0.8740 0.8738 0.8735 0.8733 0.8730
2650.000000 0.8728 0.8726 0.8725 0.8723 0.8722
2655.000000 0.8721 0.8720 0.8718 0.8717 0.8716
2660.000000 0.8715 0.8713 0.8712 0.8711 0.8710
2665.000000 0.8708 0.8707 0.8706 0.8705 0.8703
2670.000000 0.8702 0.8701 0.8700 0.8699 0.8699
2675.000000 0.8699 0.8700 0.8700 0.8700 0.8700
2680.000000 0.8700 0.8700 0.8701 0.8701 0.8701
2685.000000 0.8702 0.8703 0.8704 0.8705 0.8705
2690.000000 0.8706 0.8707 0.8708 0.8709 0.8710
2695.000000 0.8710 0.8711 0.8712 0.8713 0.8713
2700.000000 0.8714 0.8715 0.8716 0.8717 0.8718
2705.000000 0.8718 0.8719 0.8720 0.8721 0.8722
2710.000000 0.8723 0.8724 0.8725 0.8726 0.8727
2715.000000 0.8728 0.8729 0.8730 0.8731 0.8731
2720.000000 0.8732 0.8733 0.8734 0.8735 0.8736
2725.000000 0.8737 0.8738 0.8739 0.8740 0.8740
2730.000000 0.8741 0.8741 0.8741 0.8741 0.8741
2735.000000 0.8741 0.8742 0.8741 0.8741 0.8740
2740.000000 0.8739 0.8738 0.8737 0.8736 0.8736
2745.000000 0.8735 0.8734 0.8733 0.8732 0.8731
2750.000000 0.8730 0.8728 0.8727 0.8724 0.8722
2755.000000 0.8719 0.8717 0.8714 0.8711 0.8708
2760.000000 0.8706 0.8703 0.8701 0.8698 0.8696
2765.000000 0.8693 0.8691 0.8686 0.8681 0.8675
2770.000000 0.8670 0.8665 0.8660 0.8654 0.8649
2775.000000 0.8643 0.8638 0.8632 0.8627 0.8621
2780.000000 0.8616 0.8610 0.8605 0.8599 0.8594
2785.000000 0.8588 0.8583 0.8577 0.8572 0.8566
2790.000000 0.8561 0.8555 0.8550 0.8542 0.8534
2795.000000 0.8526 0.8518 0.8509 0.8501 0.8493
2800.000000 0.8485 0.8481 0.8478 0.8477 0.8476
2805.000000 0.8477 0.8479 0.8481 0.8484 0.8487
2810.000000 0.8491 0.8495 0.8499 0.8502 0.8506
2815.000000 0.8512 0.8518 0.8521 0.8524 0.8523
2820.000000 0.8523 0.8522 0.8522 0.8521 0.8521
2825.000000 0.8520 0.8519 0.8518 0.8517 0.8514
2830.000000 0.8512 0.8510 0.8508 0.8506 0.8504
2835.000000 0.8501 0.8499 0.8495 0.8491 0.8486
2840.000000 0.8481 0.8476 0.8471 0.8466 0.8461
2845.000000 0.8451 0.8442 0.8429 0.8417 0.8404
2850.000000 0.8391 0.8378 0.8366 0.8353 0.8340
2855.000000 0.8327 0.8314 0.8303 0.8293 0.8283
2860.000000 0.8273 0.8263 0.8253 0.8243 0.8233
2865.000000 0.8229 0.8226 0.8225 0.8225 0.8222
2870.000000 0.8219 0.8215 0.8211 0.8207 0.8204
2875.000000 0.8200 0.8197 0.8179 0.8162 0.8114
2880.000000 0.8067 0.7997 0.7927 0.7907 0.7888
2885.000000 0.7878 0.7869 0.7862 0.7855 0.7850
2890.000000 0.7846 0.7841 0.7837 0.7832 0.7827
2895.000000 0.7822 0.7818 0.7797 0.7776 0.7725
2900.000000 0.7674 0.7619 0.7564 0.7513 0.7462
2905.000000 0.7399 0.7337 0.7296 0.7256 0.7248
2910.000000 0.7240 0.7242 0.7244 0.7251 0.7259
2915.000000 0.7276 0.7294 0.7312 0.7330 0.7351
2920.000000 0.7372 0.7390 0.7408 0.7409 0.7411
2925.000000 0.7412 0.7414 0.7401 0.7388 0.7371
2930.000000 0.7354 0.7337 0.7320 0.7296 0.7273
2935.000000 0.7237 0.7202 0.7166 0.7130 0.7068
2940.000000 0.7007 0.6883 0.6759 0.6653 0.6548
2945.000000 0.6337 0.6127 0.5904 0.5682 0.5458
2950.000000 0.5235 0.4990 0.4745 0.4508 0.4271
2955.000000 0.4034 0.3797 0.3560 0.3323 0.3085
2960.000000 0.2848 0.2635 0.2423 0.2408 0.2393
2965.000000 0.2377 0.2362 0.2347 0.2332 0.2316
2970.000000 0.2300 0.2284 0.2258 0.2268 0.2267
2975.000000 0.2272 0.2277 0.2291 0.2306 0.2329
2980.000000 0.2353 0.2394 0.2436 0.2495 0.2555
2985.000000 0.2985 0.3415 0.3693 0.3971 0.4249
2990.000000 0.4528 0.4806 0.5085 0.5334 0.5583
2995.000000 0.5732 0.5881 0.6029 0.6178 0.6326
3000.000000 0.6475 0.6623 0.6772 0.6883 0.6995
3005.000000 0.6998 0.7010 0.7000 0.6999 0.6970
3010.000000 0.6942 0.6871 0.6801 0.6720 0.6640
3015.000000 0.6491 0.6342 0.6193 0.6044 0.5895
3020.000000 0.5746 0.5597 0.5448 0.5324 0.5197
3025.000000 0.5205 0.5210 0.5298 0.5387 0.5543
3030.000000 0.5699 0.5855 0.6011 0.6167 0.6323
3035.000000 0.6479 0.6636 0.6792 0.6948 0.7064
3040.000000 0.7214 0.7175 0.7169 0.7150 0.7131
3045.000000 0.7107 0.7083 0.7000 0.6918 0.6699
3050.000000 0.6481 0.6262 0.6044 0.5825 0.5607
3055.000000 0.5388 0.5170 0.4951 0.4733 0.4514
3060.000000 0.4296 0.4077 0.3859 0.3641 0.3182
3065.000000 0.3302 0.3182 0.3211 0.3241 0.3744
3070.000000 0.4247 0.4750 0.5253 0.5756 0.6259
3075.000000 0.6828 0.7398 0.7654 0.7910 0.7968
3080.000000 0.8026 0.8056 0.8087 0.8105 0.8124
3085.000000 0.8142 0.8161 0.8180 0.8199 0.8215
3090.000000 0.8231 0.8244 0.8258 0.8271 0.8284
3095.000000 0.8297 0.8311 0.8323 0.8336 0.8345
3100.000000 0.8355 0.8365 0.8375 0.8384 0.8394
3105.000000 0.8403 0.8413 0.8423 0.8433 0.8442
3110.000000 0.8451 0.8460 0.8469 0.8478 0.8488
3115.000000 0.8497 0.8506 0.8515 0.8525 0.8533
3120.000000 0.8541 0.8545 0.8549 0.8553 0.8557
3125.000000 0.8561 0.8565 0.8569 0.8573 0.8576
3130.000000 0.8580 0.8581 0.8556 0.8583 0.8585
3135.000000 0.8586 0.8588 0.8589 0.8590 0.8591
3140.000000 0.8593 0.8594 0.8595 0.8596 0.8598
3145.000000 0.8599 0.8600 0.8601 0.8603 0.8604
3150.000000 0.8605 0.8606 0.8608 0.8610 0.8612
3155.000000 0.8613 0.8615 0.8617 0.8619 0.8621
3160.000000 0.8623 0.8624 0.8626 0.8627 0.8629
3165.000000 0.8630 0.8632 0.8633 0.8635 0.8636
3170.000000 0.8638 0.8639 0.8641 0.8637 0.8633
3175.000000 0.8628 0.8623 0.8607 0.8591 0.8569
3180.000000 0.8547 0.8527 0.8507 0.8486 0.8466
3185.000000 0.8446 0.8426 0.8423 0.8421 0.8422
3190.000000 0.8423 0.8425 0.8409 0.8433 0.8439
3195.000000 0.8450 0.8462 0.8487 0.8513 0.8540
3200.000000 0.8568 0.8588 0.8608 0.8623 0.8639
3205.000000 0.8654 0.8670 0.8685 0.8701 0.8716
3210.000000 0.8732 0.8744 0.8756 0.8762 0.8769
3215.000000 0.8772 0.8776 0.8779 0.8783 0.8785
3220.000000 0.8788 0.8790 0.8792 0.8794 0.8796
3225.000000 0.8798 0.8800 0.8801 0.8803 0.8804
3230.000000 0.8805 0.8806 0.8807 0.8807 0.8808
3235.000000 0.8809 0.8810 0.8810 0.8811 0.8812
3240.000000 0.8813 0.8813 0.8813 0.8813 0.8814
3245.000000 0.8814 0.8814 0.8814 0.8814 0.8814
3250.000000 0.8815 0.8815 0.8815 0.8815 0.8816
3255.000000 0.8816 0.8816 0.8816 0.8816 0.8816
3260.000000 0.8816 0.8816 0.8816 0.8816 0.8816
3265.000000 0.8816 0.8816 0.8816 0.8816 0.8816
3270.000000 0.8816 0.8816 0.8816 0.8816 0.8816
3275.000000 0.8816 0.8816 0.8816 0.8816 0.8815
3280.000000 0.8815 0.8815 0.8815 0.8815 0.8815
3285.000000 0.8815 0.8815 0.8815 0.8815 0.8815
3290.000000 0.8815 0.8814 0.8814 0.8814 0.8814
3295.000000 0.8814 0.8814 0.8814 0.8814 0.8814
3300.000000 0.8820 0.8814 0.8814 0.8813 0.8813
3305.000000 0.8813 0.8813 0.8813 0.8813 0.8812
3310.000000 0.8812 0.8812 0.8812 0.8812 0.8812
3315.000000 0.8811 0.8811 0.8811 0.8811 0.8811
3320.000000 0.8811 0.8810 0.8810 0.8810 0.8810
3325.000000 0.8810 0.8810 0.8809 0.8809 0.8809
3330.000000 0.8809 0.8809 0.8809 0.8808 0.8808
3335.000000 0.8808 0.8808 0.8807 0.8807 0.8806
3340.000000 0.8806 0.8805 0.8805 0.8804 0.8804
3345.000000 0.8803 0.8803 0.8803 0.8803 0.8802
3350.000000 0.8802 0.8801 0.8801 0.8800 0.8800
3355.000000 0.8799 0.8799 0.8798 0.8798 0.8797
3360.000000 0.8797 0.8796 0.8796 0.8795 0.8795
3365.000000 0.8794 0.8794 0.8793 0.8793 0.8792
3370.000000 0.8792 0.8791 0.8791 0.8791 0.8791
3375.000000 0.8790 0.8790 0.8789 0.8789 0.8788
3380.000000 0.8788 0.8788 0.8788 0.8787 0.8787
3385.000000 0.8786 0.8786 0.8785 0.8785 0.8784
3390.000000 0.8784 0.8784 0.8784 0.8783 0.8783
3395.000000 0.8782 0.8782 0.8781 0.8781 0.8781
3400.000000 0.8781 0.8781 0.8781 0.8781 0.8782
3405.000000 0.8782 0.8782 0.8782 0.8783 0.8783
3410.000000 0.8783 0.8783 0.8783 0.8783 0.8784
3415.000000 0.8784 0.8784 0.8784 0.8784 0.8784
3420.000000 0.8785 0.8785 0.8785 0.8785 0.8786
3425.000000 0.8786 0.8786 0.8786 0.8786 0.8786
3430.000000 0.8786 0.8786 0.8787 0.8787 0.8787
3435.000000 0.8787 0.8787 0.8787 0.8787 0.8787
3440.000000 0.8787 0.8787 0.8787 0.8787 0.8788
3445.000000 0.8788 0.8788 0.8788 0.8788 0.8788
3450.000000 0.8788 0.8788 0.8788 0.8788 0.8788
3455.000000 0.8788 0.8788 0.8788 0.8789 0.8789
3460.000000 0.8789 0.8789 0.8789 0.8789 0.8789
3465.000000 0.8789 0.8790 0.8790 0.8791 0.8791
3470.000000 0.8792 0.8792 0.8792 0.8792 0.8793
3475.000000 0.8793 0.8794 0.8794 0.8795 0.8795
3480.000000 0.8796 0.8796 0.8797 0.8797 0.8798
3485.000000 0.8798 0.8798 0.8798 0.8799 0.8799
3490.000000 0.8800 0.8800 0.8801 0.8801 0.8802
3495.000000 0.8802 0.8803 0.8803 0.8803 0.8803
3500.000000 0.8804 0.8804 0.8805 0.8805 0.8805
3505.000000 0.8805 0.8806 0.8806 0.8807 0.8807
3510.000000 0.8807 0.8807 0.8808 0.8808 0.8808
3515.000000 0.8808 0.8809 0.8809 0.8810 0.8810
3520.000000 0.8810 0.8810 0.8811 0.8811 0.8811
3525.000000 0.8811 0.8812 0.8812 0.8813 0.8813
3530.000000 0.8813 0.8813 0.8814 0.8814 0.8814
3535.000000 0.8814 0.8814 0.8814 0.8815 0.8815
3540.000000 0.8815 0.8815 0.8815 0.8815 0.8816
3545.000000 0.8816 0.8816 0.8816 0.8817 0.8816
3550.000000 0.8816 0.8815 0.8814 0.8813 0.8813
3555.000000 0.8812 0.8812 0.8811 0.8811 0.8810
3560.000000 0.8810 0.8809 0.8809 0.8808 0.8807
3565.000000 0.8806 0.8806 0.8805 0.8805 0.8804
3570.000000 0.8804 0.8803 0.8803 0.8802 0.8801
3575.000000 0.8799 0.8797 0.8795 0.8794 0.8792
3580.000000 0.8791 0.8789 0.8788 0.8786 0.8785
3585.000000 0.8783 0.8782 0.8780 0.8779 0.8779
3590.000000 0.8780 0.8782 0.8784 0.8785 0.8787
3595.000000 0.8789 0.8791 0.8792 0.8794 0.8796
3600.000000 0.8798 0.8800 0.8802 0.8805 0.8808
3605.000000 0.8811 0.8814 0.8817 0.8820 0.8823
3610.000000 0.8826 0.8829 0.8832 0.8835 0.8838
3615.000000 0.8839 0.8841 0.8841 0.8842 0.8842
3620.000000 0.8843 0.8843 0.8844 0.8844 0.8845
3625.000000 0.8845 0.8846 0.8846 0.8847 0.8843
3630.000000 0.8840 0.8835 0.8831 0.8826 0.8821
3635.000000 0.8816 0.8812 0.8807 0.8803 0.8799
3640.000000 0.8796 0.8793 0.8790 0.8787 0.8785
3645.000000 0.8782 0.8779 0.8776 0.8774 0.8771
3650.000000 0.8768 0.8766 0.8765 0.8764 0.8763
3655.000000 0.8762 0.8762 0.8761 0.8760 0.8759
3660.000000 0.8759 0.8758 0.8757 0.8756 0.8755
3665.000000 0.8754 0.8754 0.8756 0.8759 0.8762
3670.000000 0.8765 0.8767 0.8770 0.8768 0.8767
3675.000000 0.8766 0.8765 0.8763 0.8762 0.8761
3680.000000 0.8760 0.8758 0.8757 0.8754 0.8751
3685.000000 0.8747 0.8743 0.8739 0.8736 0.8732
3690.000000 0.8728 0.8724 0.8721 0.8718 0.8716
3695.000000 0.8714 0.8712 0.8709 0.8707 0.8705
3700.000000 0.8703 0.8701 0.8699 0.8696 0.8694
3705.000000 0.8692 0.8691 0.8691 0.8692 0.8692
3710.000000 0.8692 0.8692 0.8692 0.8692 0.8693
3715.000000 0.8693 0.8693 0.8693 0.8694 0.8695
3720.000000 0.8697 0.8698 0.8700 0.8701 0.8703
3725.000000 0.8704 0.8706 0.8708 0.8710 0.8711
3730.000000 0.8713 0.8714 0.8716 0.8717 0.8719
3735.000000 0.8723 0.8728 0.8734 0.8741 0.8748
3740.000000 0.8755 0.8761 0.8768 0.8770 0.8772
3745.000000 0.8773 0.8775 0.8777 0.8779 0.8781
3750.000000 0.8783 0.8785 0.8787 0.8789 0.8791
3755.000000 0.8793 0.8795 0.8797 0.8799 0.8801
3760.000000 0.8804 0.8806 0.8809 0.8811 0.8814
3765.000000 0.8816 0.8819 0.8821 0.8824 0.8826
3770.000000 0.8828 0.8830 0.8833 0.8835 0.8838
3775.000000 0.8840 0.8843 0.8845 0.8848 0.8850
3780.000000 0.8853 0.8855 0.8858 0.8859 0.8861
3785.000000 0.8862 0.8863 0.8863 0.8864 0.8864
3790.000000 0.8865 0.8864 0.8864 0.8863 0.8862
3795.000000 0.8860 0.8859 0.8858 0.8857 0.8855
3800.000000 0.8854 0.8853 0.8852
##END=
