##TITLE=ESTRADIOL DIBENZOATE
##JCAMP-DX=4.24
##DATA TYPE=INFRARED SPECTRUM
##CLASS=COBLENTZ
##ORIGIN=DEPARTMENT OF PHARMACOLOGY, THE STATE UNIVERSITY OF IOWA, IOWA
##OWNER=COBLENTZ SOCIETY
Collection (C) 2018 copyright by the U.S. Secretary of Commerce
on behalf of the United States of America. All rights reserved.
##DATE=Not specified, most likely prior to 1970
##MOLFORM=C34 H36 O4
##MP=169-173 C (CORR.)
##SOURCE REFERENCE=COBLENTZ NO. 101
##$NIST ID=B6000101
##$NIST SOURCE=COBLENTZ
##$NIST IMAGE=cob101
##SPECTROMETER/DATA SYSTEM=Not specified, most likely a prism, grating, or hybrid spectrometer.
##STATE=SOLUTION (2.2% IN CS2)
##PATH LENGTH=0.1 CM
##SAMPLING PROCEDURE=TRANSMISSION
##RESOLUTION=4
##DATA PROCESSING=DIGITIZED BY NIST FROM HARD COPY
##XUNITS=MICROMETERS
##YUNITS=TRANSMITTANCE
##XFACTOR=1.000000
##YFACTOR=1
##DELTAX=000.007389
##FIRSTX=2.071
##LASTX=15.2017
##FIRSTY=0.615
##MAXX=15.2017
##MINX=2.071
##MAXY=0.62
##MINY=0.111
##NPOINTS=1778
##XYDATA=(X++(Y..Y))
2.071000 0.6150 0.6150 0.6150 0.6130 0.6130
2.107967 0.6130 0.6130 0.6120 0.6120 0.6120
2.145000 0.6120 0.6100 0.6100 0.6100 0.6090
2.181967 0.6090 0.6090 0.6090 0.6090 0.6090
2.219000 0.6090 0.6090 0.6090 0.6070 0.6070
2.255967 0.6060 0.6060 0.6060 0.6060 0.6060
2.293000 0.6060 0.6060 0.6060 0.6060 0.6060
2.329967 0.6060 0.6060 0.6060 0.6060 0.6040
2.367000 0.6040 0.6040 0.6040 0.6040 0.6040
2.403967 0.6040 0.6040 0.6040 0.6040 0.6040
2.441000 0.6040 0.6040 0.6060 0.6060 0.6060
2.477967 0.6060 0.6060 0.6070 0.6070 0.6070
2.515000 0.6070 0.6070 0.6070 0.6090 0.6090
2.551967 0.6100 0.6100 0.6100 0.6100 0.6100
2.589000 0.6100 0.6100 0.6100 0.6100 0.6120
2.625967 0.6130 0.6130 0.6130 0.6150 0.6130
2.663000 0.6130 0.6120 0.6120 0.6120 0.6120
2.699967 0.6120 0.6100 0.6100 0.6100 0.6090
2.736000 0.6090 0.6090 0.6090 0.6090 0.6090
2.772967 0.6090 0.6070 0.6070 0.6060 0.6060
2.810000 0.6060 0.6040 0.6030 0.6030 0.6030
2.846967 0.6020 0.5990 0.5960 0.5940 0.5940
2.884000 0.5940 0.5940 0.5930 0.5930 0.5930
2.920967 0.5930 0.5930 0.5930 0.5930 0.5930
2.958000 0.5930 0.5930 0.5940 0.5940 0.5960
2.994967 0.5960 0.5970 0.5970 0.5970 0.5970
3.032000 0.5970 0.5970 0.5970 0.5970 0.5970
3.068967 0.5970 0.5970 0.5970 0.5970 0.5970
3.106000 0.5970 0.5970 0.5970 0.5970 0.5990
3.142967 0.5970 0.5960 0.5960 0.5960 0.5960
3.180000 0.5940 0.5930 0.5930 0.5910 0.5910
3.216967 0.5900 0.5890 0.5600 0.5550 0.5490
3.254000 0.5360 0.5150 0.4960 0.4930 0.4900
3.290967 0.4900 0.4890 0.4870 0.4860 0.4840
3.328000 0.4740 0.4440 0.4120 0.3990 0.3580
3.364967 0.3380 0.3160 0.2980 0.2930 0.2740
3.401000 0.2510 0.2350 0.2350 0.2320 0.2340
3.437967 0.2350 0.2530 0.2640 0.2760 0.2770
3.475000 0.2790 0.2820 0.2850 0.2890 0.2920
3.511967 0.3180 0.3820 0.4080 0.4250 0.4370
3.549000 0.4640 0.4760 0.4800 0.4860 0.5070
3.585967 0.5130 0.5190 0.5290 0.5390 0.5450
3.623000 0.5520 0.5640 0.5730 0.5750 0.5810
3.659967 0.5860 0.5870 0.5890 0.5890 0.5900
3.697000 0.5900 0.5900 0.5900 0.5900 0.5900
3.733967 0.5900 0.5910 0.5910 0.5910 0.5930
3.771000 0.5930 0.5940 0.5940 0.5940 0.5940
3.807967 0.5940 0.5940 0.5940 0.5960 0.5960
3.845000 0.5970 0.5970 0.5990 0.5990 0.6000
3.881967 0.6000 0.6020 0.6020 0.6020 0.6020
3.919000 0.6020 0.6030 0.6030 0.6040 0.6040
3.955967 0.6060 0.6090 0.6090 0.6090 0.6090
3.993000 0.6090 0.6090 0.6100 0.6090 0.6100
4.029967 0.6090 0.6090 0.6090 0.6090 0.6090
4.067000 0.6090 0.6090 0.6090 0.6090 0.6090
4.103967 0.6100 0.6100 0.6100 0.6120 0.6120
4.140000 0.6120 0.6120 0.6120 0.6120 0.6120
4.176967 0.6120 0.6120 0.6120 0.6120 0.6120
4.214000 0.6120 0.6100 0.6100 0.6100 0.6100
4.250967 0.6100 0.6090 0.6090 0.6090 0.6090
4.288000 0.6090 0.6090 0.6090 0.6100 0.6090
4.324967 0.6090 0.6090 0.6070 0.6070 0.6070
4.362000 0.6070 0.6070 0.6070 0.6070 0.6070
4.398967 0.6070 0.6070 0.6070 0.6070 0.6070
4.436000 0.6070 0.6070 0.6090 0.6090 0.6090
4.472967 0.6090 0.6090 0.6090 0.6090 0.6090
4.510000 0.6090 0.6090 0.6100 0.6100 0.6100
4.546967 0.6100 0.6100 0.6100 0.6100 0.6100
4.584000 0.6100 0.6120 0.6120 0.6120 0.6120
4.620967 0.6120 0.6130 0.6130 0.6130 0.6130
4.658000 0.6130 0.6130 0.6120 0.6120 0.6120
4.694967 0.6120 0.6120 0.6100 0.6100 0.6100
4.732000 0.6100 0.6100 0.6100 0.6100 0.6100
4.768967 0.6100 0.6100 0.6100 0.6090 0.6090
4.805000 0.6090 0.6090 0.6070 0.6090 0.6100
4.841967 0.6100 0.6120 0.6130 0.6130 0.6130
4.879000 0.6150 0.6160 0.6170 0.6190 0.6190
4.915967 0.6190 0.6190 0.6200 0.6190 0.6190
4.953000 0.6190 0.6190 0.6190 0.6190 0.6200
4.989967 0.6190 0.6190 0.6190 0.6190 0.6160
5.027000 0.6150 0.6150 0.6150 0.6130 0.6130
5.063967 0.6090 0.6060 0.6000 0.6020 0.5990
5.101000 0.5990 0.5970 0.5970 0.5970 0.5990
5.137967 0.6000 0.6020 0.6030 0.6060 0.6070
5.175000 0.6070 0.6060 0.6060 0.6040 0.6040
5.211967 0.6030 0.6020 0.6000 0.5990 0.5960
5.249000 0.5960 0.5940 0.5940 0.5930 0.5930
5.285967 0.5930 0.5930 0.5940 0.5960 0.5990
5.323000 0.6020 0.6020 0.6030 0.6040 0.6060
5.359967 0.6070 0.6090 0.6100 0.6120 0.6130
5.397000 0.6130 0.6130 0.6120 0.6120 0.6120
5.433967 0.6100 0.6100 0.6090 0.6070 0.6060
5.470000 0.6060 0.5990 0.5930 0.5890 0.5750
5.506967 0.5740 0.5740 0.5740 0.5730 0.5730
5.544000 0.5710 0.5700 0.5700 0.5680 0.5670
5.580967 0.5640 0.5610 0.5550 0.5490 0.5470
5.618000 0.5410 0.5380 0.5350 0.5310 0.5230
5.654967 0.5200 0.4770 0.4580 0.4500 0.4390
5.692000 0.4240 0.4120 0.3510 0.2890 0.2670
5.728967 0.2380 0.2090 0.1640 0.1600 0.1570
5.766000 0.1560 0.1540 0.1540 0.1530 0.1530
5.802967 0.1530 0.1530 0.1530 0.1530 0.1540
5.840000 0.1560 0.1620 0.2060 0.2180 0.2800
5.876967 0.3050 0.3180 0.3310 0.3970 0.4100
5.914000 0.4240 0.4320 0.4390 0.4580 0.4610
5.950967 0.4650 0.4670 0.4700 0.4760 0.4840
5.988000 0.4890 0.4930 0.5020 0.5050 0.5100
6.024967 0.5190 0.5230 0.5250 0.5260 0.5260
6.062000 0.5280 0.5280 0.5280 0.5280 0.5280
6.098967 0.5280 0.5280 0.5280 0.5260 0.5260
6.135000 0.5260 0.5260 0.5260 0.5260 0.5250
6.171967 0.5250 0.5250 0.5230 0.5230 0.5230
6.209000 0.5230 0.5250 0.5230 0.5230 0.5230
6.245967 0.5230 0.5230 0.5230 0.5230 0.5230
6.283000 0.5220 0.5220 0.5200 0.5200 0.5190
6.319967 0.5190 0.5190 0.5190 0.5190 0.5190
6.357000 0.5200 0.5200 0.5200 0.5200 0.5200
6.393967 0.5200 0.5200 0.5190 0.5190 0.5190
6.431000 0.5190 0.5190 0.5190 0.5190 0.5180
6.467967 0.5180 0.5180 0.5180 0.5180 0.5180
6.505000 0.5160 0.5160 0.5160 0.5160 0.5160
6.541967 0.5160 0.5160 0.5160 0.5160 0.5160
6.579000 0.5160 0.5160 0.5160 0.5160 0.5150
6.615967 0.5150 0.5150 0.5150 0.5150 0.5150
6.653000 0.5150 0.5130 0.5130 0.5130 0.5130
6.689967 0.5130 0.5130 0.5130 0.5130 0.5130
6.727000 0.5120 0.5120 0.5120 0.5120 0.5120
6.763967 0.5120 0.5120 0.5130 0.5130 0.5130
6.800000 0.5130 0.5130 0.5130 0.5130 0.5130
6.836967 0.5130 0.5130 0.5130 0.5130 0.5130
6.874000 0.5130 0.5130 0.5130 0.5120 0.5120
6.910967 0.5120 0.5120 0.5120 0.5120 0.5120
6.948000 0.5100 0.5100 0.5100 0.5100 0.5100
6.984967 0.5100 0.5100 0.5100 0.5100 0.5100
7.022000 0.5090 0.5090 0.5070 0.5070 0.5060
7.058967 0.5060 0.5050 0.5030 0.5030 0.5030
7.096000 0.5020 0.5020 0.5020 0.5000 0.5000
7.132967 0.5000 0.4990 0.4970 0.4970 0.4970
7.170000 0.4960 0.4940 0.4930 0.4900 0.4870
7.206967 0.4830 0.4800 0.4760 0.4680 0.4670
7.244000 0.4630 0.4570 0.4510 0.4480 0.4480
7.280967 0.4470 0.4450 0.4470 0.4480 0.4480
7.318000 0.4480 0.4480 0.4500 0.4510 0.4510
7.354967 0.4510 0.4520 0.4520 0.4520 0.4540
7.392000 0.4550 0.4570 0.4580 0.4600 0.4610
7.428967 0.4610 0.4610 0.4610 0.4580 0.4570
7.466000 0.4540 0.4510 0.4500 0.4470 0.4440
7.502967 0.4410 0.4370 0.4340 0.4310 0.4280
7.539000 0.4250 0.4220 0.4190 0.4180 0.4160
7.575967 0.4150 0.4130 0.4120 0.4100 0.4080
7.613000 0.3700 0.3420 0.3140 0.2510 0.2500
7.649967 0.2470 0.2500 0.2610 0.2720 0.2830
7.687000 0.2860 0.2900 0.2900 0.2900 0.2900
7.723967 0.2890 0.2830 0.2800 0.2590 0.2440
7.761000 0.2300 0.2240 0.2170 0.1960 0.1910
7.797967 0.1760 0.1720 0.1700 0.1660 0.1620
7.835000 0.1570 0.1530 0.1490 0.1440 0.1430
7.871967 0.1370 0.1340 0.1300 0.1270 0.1230
7.909000 0.1210 0.1200 0.1200 0.1180 0.1170
7.945967 0.1150 0.1140 0.1120 0.1110 0.1110
7.983000 0.1110 0.1110 0.1110 0.1110 0.1110
8.019967 0.1140 0.1150 0.1170 0.1180 0.1200
8.057000 0.1210 0.1240 0.1280 0.1310 0.1340
8.093967 0.1360 0.1380 0.1410 0.1440 0.1470
8.131000 0.1500 0.1560 0.1600 0.1640 0.1640
8.167967 0.1640 0.1630 0.1620 0.1590 0.1570
8.204000 0.1530 0.1500 0.1490 0.1470 0.1440
8.240967 0.1430 0.1430 0.1430 0.1430 0.1430
8.278000 0.1440 0.1490 0.1530 0.1560 0.1590
8.314967 0.1620 0.1890 0.2190 0.2500 0.2660
8.352000 0.2800 0.3140 0.3250 0.3420 0.3500
8.388967 0.3660 0.3760 0.3830 0.3920 0.3950
8.426000 0.3960 0.4000 0.4030 0.4060 0.4090
8.462967 0.4120 0.4080 0.4050 0.3510 0.3340
8.500000 0.3150 0.2850 0.2600 0.2320 0.2170
8.536967 0.2010 0.2010 0.2010 0.2010 0.1980
8.574000 0.2010 0.2020 0.2020 0.2170 0.2870
8.610967 0.2980 0.3030 0.3110 0.3150 0.3190
8.648000 0.3190 0.3220 0.3250 0.3250 0.3190
8.684967 0.3150 0.2500 0.2370 0.2270 0.2220
8.722000 0.2180 0.2140 0.2140 0.2210 0.2410
8.758967 0.2410 0.2500 0.2570 0.2640 0.2730
8.796000 0.2760 0.2800 0.2830 0.2860 0.2860
8.832967 0.2870 0.2870 0.2860 0.2860 0.2860
8.869000 0.2850 0.2830 0.2820 0.2770 0.2740
8.905967 0.2670 0.2540 0.2480 0.2280 0.2150
8.943000 0.2010 0.1990 0.1850 0.1790 0.1730
8.979967 0.1660 0.1630 0.1620 0.1600 0.1620
9.017000 0.1620 0.1630 0.1640 0.1660 0.1670
9.053967 0.1720 0.1750 0.1790 0.1820 0.1850
9.091000 0.1910 0.2110 0.2270 0.2300 0.2320
9.127967 0.2370 0.2380 0.2430 0.2530 0.2610
9.165000 0.2700 0.2740 0.2790 0.2850 0.2870
9.201967 0.2900 0.2920 0.2900 0.2690 0.2660
9.239000 0.2610 0.2560 0.2530 0.2510 0.2460
9.275967 0.2410 0.2300 0.2250 0.2240 0.2210
9.313000 0.2190 0.2180 0.2190 0.2210 0.2210
9.349967 0.2240 0.2220 0.2190 0.2180 0.2120
9.387000 0.2060 0.2020 0.1990 0.1990 0.1980
9.423967 0.1910 0.1880 0.1850 0.1780 0.1750
9.461000 0.1720 0.1700 0.1720 0.1750 0.1830
9.497967 0.1960 0.2370 0.2570 0.2730 0.2830
9.534000 0.2890 0.2980 0.3060 0.3120 0.3180
9.570967 0.3280 0.3640 0.3700 0.3730 0.3760
9.608000 0.3770 0.3770 0.3770 0.3770 0.3770
9.644967 0.3770 0.3760 0.3760 0.3740 0.3710
9.682000 0.3690 0.3640 0.3560 0.3500 0.3410
9.718967 0.3320 0.3240 0.3120 0.2830 0.2570
9.756000 0.2400 0.2210 0.2150 0.2040 0.2020
9.792967 0.2020 0.2150 0.2590 0.2660 0.2830
9.830000 0.2950 0.3030 0.3110 0.3190 0.3320
9.866967 0.3570 0.3700 0.3800 0.3840 0.3900
9.904000 0.3920 0.3920 0.3920 0.3920 0.3890
9.940967 0.3890 0.3840 0.3800 0.3770 0.3760
9.978000 0.3710 0.3690 0.3660 0.3630 0.3580
10.014967 0.3540 0.3480 0.3420 0.3410 0.3400
10.052000 0.3370 0.3320 0.3320 0.3420 0.3510
10.088967 0.3600 0.3700 0.3820 0.3930 0.3950
10.126000 0.3960 0.3970 0.4020 0.4090 0.4130
10.162967 0.4220 0.4260 0.4320 0.4390 0.4410
10.200000 0.4440 0.4450 0.4470 0.4470 0.4470
10.236967 0.4470 0.4470 0.4480 0.4500 0.4510
10.273000 0.4520 0.4540 0.4570 0.4580 0.4600
10.309967 0.4640 0.4650 0.4670 0.4680 0.4700
10.347000 0.4710 0.4730 0.4740 0.4760 0.4760
10.383967 0.4770 0.4770 0.4770 0.4770 0.4790
10.421000 0.4800 0.4800 0.4830 0.4860 0.4900
10.457967 0.4920 0.4940 0.4970 0.5000 0.5050
10.495000 0.5100 0.5120 0.5130 0.5150 0.5160
10.531967 0.5180 0.5180 0.5190 0.5200 0.5200
10.569000 0.5220 0.5230 0.5250 0.5260 0.5280
10.605967 0.5280 0.5290 0.5290 0.5290 0.5290
10.643000 0.5290 0.5290 0.5290 0.5280 0.5280
10.679967 0.5260 0.5260 0.5260 0.5250 0.5230
10.717000 0.5200 0.5150 0.5090 0.5030 0.4990
10.753967 0.4960 0.4940 0.4920 0.4900 0.4890
10.791000 0.4890 0.4890 0.4890 0.4870 0.4890
10.827967 0.4890 0.4890 0.4900 0.4920 0.4920
10.865000 0.4920 0.4920 0.4930 0.4920 0.4900
10.901967 0.4870 0.4810 0.4810 0.4770 0.4710
10.938000 0.4710 0.4760 0.4770 0.4810 0.4830
10.974967 0.4860 0.4900 0.4930 0.4970 0.4970
11.012000 0.4990 0.4990 0.5000 0.5000 0.5000
11.048967 0.4990 0.4990 0.4990 0.4970 0.4960
11.086000 0.4940 0.4930 0.4920 0.4900 0.4890
11.122967 0.4870 0.4860 0.4830 0.4800 0.4680
11.160000 0.4580 0.4450 0.4410 0.4350 0.4060
11.196967 0.3950 0.3920 0.3790 0.3760 0.3730
11.234000 0.3690 0.3690 0.3670 0.3660 0.3640
11.270967 0.3640 0.3640 0.3670 0.3690 0.3730
11.308000 0.3790 0.3830 0.3860 0.3890 0.3930
11.344967 0.3960 0.3970 0.3970 0.3990 0.4050
11.382000 0.4080 0.4090 0.4130 0.4150 0.4180
11.418967 0.4210 0.4220 0.4240 0.4250 0.4280
11.456000 0.4280 0.4290 0.4310 0.4320 0.4320
11.492967 0.4340 0.4350 0.4370 0.4370 0.4370
11.530000 0.4380 0.4390 0.4390 0.4390 0.4410
11.566967 0.4410 0.4410 0.4410 0.4410 0.4420
11.603000 0.4420 0.4420 0.4420 0.4420 0.4440
11.639967 0.4440 0.4440 0.4440 0.4450 0.4450
11.677000 0.4450 0.4450 0.4450 0.4450 0.4450
11.713967 0.4450 0.4450 0.4470 0.4470 0.4470
11.751000 0.4480 0.4480 0.4480 0.4480 0.4480
11.787967 0.4480 0.4480 0.4480 0.4500 0.4500
11.825000 0.4510 0.4520 0.4550 0.4570 0.4580
11.861967 0.4610 0.4670 0.4710 0.4740 0.4760
11.899000 0.4790 0.4810 0.4840 0.4870 0.4900
11.935967 0.4930 0.4940 0.4960 0.5000 0.5030
11.973000 0.5050 0.5060 0.5090 0.5100 0.5120
12.009967 0.5130 0.5150 0.5160 0.5180 0.5180
12.047000 0.5180 0.5180 0.5180 0.5180 0.5180
12.083967 0.5180 0.5180 0.5180 0.5180 0.5160
12.121000 0.5160 0.5150 0.5150 0.5150 0.5130
12.157967 0.5130 0.5130 0.5130 0.5130 0.5120
12.195000 0.5100 0.5090 0.5070 0.5070 0.5060
12.231967 0.5050 0.5020 0.4990 0.4970 0.4960
12.268000 0.4930 0.4920 0.4890 0.4870 0.4860
12.304967 0.4860 0.4840 0.4840 0.4840 0.4840
12.342000 0.4840 0.4840 0.4860 0.4860 0.4870
12.378967 0.4920 0.4930 0.4960 0.5000 0.5020
12.416000 0.5030 0.5050 0.5060 0.5070 0.5070
12.452967 0.5070 0.5070 0.5090 0.5090 0.5100
12.490000 0.5100 0.5100 0.5100 0.5120 0.5130
12.526967 0.5130 0.5130 0.5150 0.5160 0.5160
12.564000 0.5180 0.5190 0.5200 0.5220 0.5230
12.600967 0.5230 0.5250 0.5260 0.5280 0.5290
12.638000 0.5290 0.5310 0.5320 0.5320 0.5320
12.674967 0.5320 0.5310 0.5310 0.5310 0.5260
12.712000 0.5230 0.5200 0.5130 0.4990 0.4960
12.748967 0.4940 0.4940 0.4940 0.4940 0.4940
12.786000 0.4940 0.4960 0.4960 0.4970 0.4970
12.822967 0.4970 0.4990 0.4990 0.5000 0.5020
12.860000 0.5030 0.5050 0.5070 0.5100 0.5120
12.896967 0.5130 0.5220 0.5280 0.5380 0.5450
12.933000 0.5510 0.5600 0.5620 0.5670 0.5670
12.969967 0.5700 0.5730 0.5740 0.5770 0.5800
13.007000 0.5810 0.5840 0.5860 0.5890 0.5910
13.043967 0.5930 0.5940 0.5960 0.5970 0.5970
13.081000 0.5970 0.5990 0.5990 0.5990 0.5990
13.117967 0.5990 0.5990 0.5990 0.5990 0.5990
13.155000 0.5990 0.6020 0.6030 0.6030 0.6040
13.191967 0.6060 0.6060 0.6060 0.6070 0.6070
13.229000 0.6070 0.6070 0.6070 0.6070 0.6070
13.265967 0.6070 0.6070 0.6070 0.6070 0.6070
13.303000 0.6070 0.6070 0.6060 0.6060 0.6060
13.339967 0.6060 0.6060 0.6040 0.6040 0.6030
13.377000 0.5990 0.5960 0.5960 0.5930 0.5930
13.413967 0.5910 0.5910 0.5900 0.5900 0.5890
13.451000 0.5840 0.5810 0.5800 0.5780 0.5770
13.487967 0.5750 0.5730 0.5710 0.5710 0.5710
13.525000 0.5710 0.5710 0.5710 0.5700 0.5700
13.561967 0.5700 0.5700 0.5680 0.5680 0.5680
13.599000 0.5680 0.5680 0.5680 0.5670 0.5670
13.635967 0.5680 0.5680 0.5680 0.5670 0.5680
13.672000 0.5680 0.5670 0.5670 0.5670 0.5670
13.708967 0.5670 0.5670 0.5670 0.5670 0.5650
13.746000 0.5650 0.5650 0.5650 0.5640 0.5620
13.782967 0.5620 0.5610 0.5580 0.5570 0.5550
13.820000 0.5540 0.5520 0.5480 0.5450 0.5410
13.856967 0.5380 0.5350 0.5320 0.5290 0.5250
13.894000 0.5230 0.5160 0.5090 0.5000 0.4810
13.930967 0.4610 0.4500 0.4380 0.4130 0.4020
13.968000 0.3870 0.3800 0.3640 0.3570 0.3410
14.004967 0.3340 0.3270 0.3190 0.3010 0.2740
14.042000 0.2530 0.2410 0.2220 0.2180 0.2120
14.078967 0.1990 0.1980 0.1860 0.1830 0.1800
14.116000 0.1780 0.1760 0.1750 0.1730 0.1700
14.152967 0.1690 0.1670 0.1630 0.1600 0.1590
14.190000 0.1560 0.1530 0.1510 0.1500 0.1470
14.226967 0.1470 0.1470 0.1470 0.1500 0.1510
14.264000 0.1540 0.1590 0.1620 0.1660 0.1800
14.300967 0.1990 0.2040 0.2180 0.2460 0.2590
14.337000 0.2660 0.2730 0.2820 0.2990 0.3080
14.373967 0.3150 0.3210 0.3280 0.3510 0.3630
14.411000 0.3700 0.3760 0.3830 0.3930 0.3950
14.447967 0.3970 0.4020 0.4080 0.4080 0.4090
14.485000 0.4090 0.4090 0.4080 0.4080 0.4060
14.521967 0.4060 0.4020 0.3970 0.3960 0.3950
14.559000 0.3950 0.3930 0.3870 0.3860 0.3830
14.595967 0.3800 0.3800 0.3790 0.3770 0.3770
14.633000 0.3790 0.3800 0.3820 0.3870 0.3920
14.669967 0.3960 0.3990 0.4080 0.4090 0.4120
14.707000 0.4160 0.4160 0.4220 0.4260 0.4350
14.743967 0.4580 0.4670 0.4700 0.4790 0.4890
14.781000 0.4930 0.5020 0.5070 0.5100 0.5150
14.817967 0.5190 0.5260 0.5290 0.5320 0.5350
14.855000 0.5380 0.5410 0.5450 0.5490 0.5510
14.891967 0.5540 0.5550 0.5570 0.5570 0.5570
14.929000 0.5580 0.5600 0.5610 0.5620 0.5650
14.965967 0.5650 0.5680 0.5730 0.5750 0.5780
15.002000 0.5870 0.5890 0.5890 0.5900 0.5900
15.038967 0.5910 0.5910 0.5930 0.5930 0.5940
15.076000 0.5940 0.5940 0.5940 0.5960 0.5960
15.112967 0.5960 0.5960 0.5960 0.5970 0.5970
15.150000 0.5970 0.5970 0.5970 0.5960 0.5970
15.186967 0.5970 0.5970 0.5970
##END=
