##TITLE=Aniline, 2,4-di-sec-butyl-
##JCAMP-DX=4.24
##DATA TYPE=INFRARED SPECTRUM
##CLASS=COBLENTZ III
##ORIGIN=MONSANTO (J. FREEMAN)
##OWNER=Copyright (C) 1987 by the Coblentz Society
Collection (C) 2018 copyright by the U.S. Secretary of Commerce
on behalf of the United States of America. All rights reserved.
##DATE=1959/03/05
##NAMES=2,4-disec-butylphenylamine
2,4-disec-butylaniline
##MOLFORM=C14 H23 N
##SOURCE REFERENCE=COBLENTZ NO. 9273
##$NIST ID=B6009273
##$NIST SOURCE=COBLENTZ
##$NIST IMAGE=cob9273
##SPECTROMETER/DATA SYSTEM=BECKMAN IR-4 (HYBRID PRISM-GRATING)
##INSTRUMENT PARAMETERS=NaCl PRISM
##STATE=LIQUID (NEAT)
##PATH LENGTH=CAPILLARY
##SAMPLING PROCEDURE=TRANSMISSION
##RESOLUTION=2
##DATA PROCESSING=DIGITIZED BY COBLENTZ SOCIETY (BATCH II) FROM HARD COPY (ADJUSTED \addmicron\0.06um\)
##XUNITS=1/CM
##YUNITS=TRANSMITTANCE
##XFACTOR=1.0
##YFACTOR=1
##DELTAX=0.969234
##FIRSTX=626.573
##LASTX=3896.77
##FIRSTY=0.5671
##MAXX=3896.77
##MINX=626.573
##MAXY=0.9709
##MINY=0
##NPOINTS=3375
##XYDATA=(X++(Y..Y))
626.573315 0.5671 0.5646 0.5620 0.5595 0.5574
631.419482 0.5565 0.5543 0.5504 0.5457 0.5406
636.265650 0.5363 0.5329 0.5298 0.5276 0.5282
641.111818 0.5270 0.5262 0.5260 0.5260 0.5271
645.957985 0.5307 0.5360 0.5416 0.5469 0.5520
650.804153 0.5569 0.5620 0.5673 0.5728 0.5784
655.650321 0.5843 0.5903 0.5963 0.6025 0.6087
660.496488 0.6155 0.6221 0.6256 0.6268 0.6277
665.342656 0.6284 0.6294 0.6311 0.6336 0.6370
670.188823 0.6407 0.6456 0.6511 0.6564 0.6611
675.034991 0.6648 0.6687 0.6725 0.6762 0.6798
679.881159 0.6833 0.6860 0.6885 0.6910 0.6936
684.727326 0.6960 0.6988 0.7013 0.7045 0.7080
689.573494 0.7115 0.7149 0.7182 0.7213 0.7244
694.419662 0.7269 0.7273 0.7241 0.7271 0.7300
699.265829 0.7324 0.7345 0.7364 0.7378 0.7392
704.111997 0.7410 0.7430 0.7450 0.7471 0.7493
708.958165 0.7516 0.7541 0.7568 0.7594 0.7619
713.804332 0.7644 0.7667 0.7690 0.7712 0.7728
718.650500 0.7741 0.7751 0.7764 0.7764 0.7748
723.496668 0.7740 0.7729 0.7715 0.7698 0.7675
728.342835 0.7642 0.7589 0.7502 0.7359 0.7151
733.189003 0.6917 0.6684 0.6354 0.5952 0.5551
738.035171 0.5152 0.4753 0.4367 0.4046 0.3850
742.881338 0.3784 0.3777 0.3817 0.4072 0.4398
747.727506 0.4724 0.5047 0.5370 0.5692 0.5994
752.573674 0.6218 0.6423 0.6604 0.6752 0.6828
757.419841 0.6874 0.6904 0.6924 0.6939 0.6946
762.266009 0.6953 0.6953 0.6950 0.6948 0.6948
767.112177 0.6974 0.6952 0.6945 0.6943 0.6940
771.958344 0.6936 0.6924 0.6907 0.6889 0.6856
776.804512 0.6818 0.6781 0.6744 0.6709 0.6687
781.650680 0.6671 0.6687 0.6746 0.6829 0.6927
786.496847 0.7034 0.7131 0.7202 0.7237 0.7226
791.343015 0.7185 0.7121 0.7043 0.6967 0.6894
796.189183 0.6815 0.6731 0.6650 0.6624 0.6610
801.035350 0.6592 0.6544 0.6439 0.6270 0.6060
805.881518 0.5782 0.5510 0.5209 0.4908 0.4608
810.727686 0.4308 0.4009 0.3711 0.3532 0.3430
815.573853 0.3414 0.3445 0.3579 0.3841 0.4142
820.420021 0.4442 0.4742 0.5042 0.5341 0.5640
825.266189 0.6085 0.6482 0.6726 0.6906 0.7038
830.112356 0.7138 0.7223 0.7304 0.7382 0.7459
834.958524 0.7535 0.7606 0.7681 0.7769 0.7864
839.804691 0.7954 0.8037 0.8106 0.8165 0.8222
844.650859 0.8275 0.8325 0.8374 0.8417 0.8444
849.497027 0.8470 0.8496 0.8515 0.8535 0.8566
854.343194 0.8603 0.8636 0.8668 0.8708 0.8751
859.189362 0.8796 0.8842 0.8889 0.8926 0.8959
864.035530 0.8991 0.9015 0.9031 0.9045 0.9053
868.881697 0.9056 0.9057 0.9056 0.9054 0.9068
873.727865 0.9060 0.9036 0.9022 0.8995 0.8951
878.574033 0.8886 0.8764 0.8551 0.8285 0.8019
883.420200 0.7754 0.7487 0.7273 0.7223 0.7228
888.266368 0.7300 0.7588 0.7783 0.7978 0.8172
893.112536 0.8366 0.8562 0.8771 0.8877 0.8946
897.958703 0.8964 0.8971 0.8972 0.8962 0.8945
902.804871 0.8924 0.8906 0.8898 0.8910 0.8928
907.651039 0.8948 0.8977 0.9011 0.9060 0.9107
912.497206 0.9145 0.9179 0.9201 0.9207 0.9223
917.343374 0.9232 0.9232 0.9223 0.9207 0.9191
922.189542 0.9174 0.9157 0.9139 0.9114 0.9087
927.035709 0.9064 0.9044 0.9025 0.9010 0.8998
931.881877 0.8986 0.8975 0.8965 0.8956 0.8946
936.728045 0.8937 0.8927 0.8915 0.8898 0.8859
941.574212 0.8798 0.8724 0.8654 0.8585 0.8518
946.420380 0.8452 0.8378 0.8294 0.8212 0.8122
951.266548 0.8013 0.7911 0.7827 0.7790 0.7778
956.112715 0.7792 0.7812 0.7853 0.7911 0.7975
960.958883 0.8032 0.8098 0.8173 0.8262 0.8356
965.805051 0.8447 0.8522 0.8584 0.8623 0.8650
970.651218 0.8677 0.8700 0.8722 0.8745 0.8765
975.497386 0.8781 0.8794 0.8809 0.8822 0.8828
980.343554 0.8828 0.8834 0.8824 0.8763 0.8674
985.189721 0.8541 0.8381 0.8222 0.8084 0.7928
990.035889 0.7743 0.7586 0.7421 0.7245 0.7091
994.882057 0.7072 0.7141 0.7193 0.7256 0.7313
999.728224 0.7395 0.7500 0.7568 0.7626 0.7668
1004.574392 0.7704 0.7712 0.7735 0.7700 0.7675
1009.420560 0.7616 0.7459 0.7310 0.7193 0.7148
1014.266727 0.7132 0.7127 0.7239 0.7436 0.7649
1019.112895 0.7862 0.8074 0.8257 0.8370 0.8457
1023.959062 0.8552 0.8635 0.8707 0.8778 0.8832
1028.805230 0.8865 0.8893 0.8912 0.8926 0.8939
1033.651398 0.8951 0.8960 0.8968 0.8971 0.8957
1038.497565 0.8951 0.8943 0.8926 0.8900 0.8857
1043.343733 0.8811 0.8763 0.8704 0.8629 0.8559
1048.189901 0.8488 0.8418 0.8343 0.8254 0.8174
1053.036068 0.8132 0.8093 0.8064 0.8038 0.8010
1057.882236 0.7990 0.7977 0.7976 0.7975 0.7983
1062.728404 0.7993 0.8006 0.8028 0.8051 0.8079
1067.574571 0.8108 0.8139 0.8173 0.8210 0.8260
1072.420739 0.8317 0.8361 0.8398 0.8422 0.8433
1077.266907 0.8428 0.8411 0.8385 0.8350 0.8315
1082.113074 0.8275 0.8225 0.8167 0.8103 0.8029
1086.959242 0.7940 0.7851 0.7782 0.7741 0.7710
1091.805410 0.7683 0.7664 0.7653 0.7644 0.7636
1096.651577 0.7627 0.7609 0.7586 0.7562 0.7544
1101.497745 0.7547 0.7568 0.7597 0.7632 0.7672
1106.343913 0.7711 0.7746 0.7780 0.7820 0.7875
1111.190080 0.7982 0.8075 0.8163 0.8212 0.8258
1116.036248 0.8279 0.8288 0.8297 0.8298 0.8294
1120.882416 0.8289 0.8283 0.8278 0.8274 0.8272
1125.728583 0.8275 0.8290 0.8297 0.8310 0.8318
1130.574751 0.8315 0.8301 0.8279 0.8227 0.8141
1135.420919 0.8046 0.7950 0.7856 0.7761 0.7666
1140.267086 0.7571 0.7476 0.7379 0.7272 0.7175
1145.113254 0.7116 0.7090 0.7078 0.7069 0.7066
1149.959422 0.7063 0.7059 0.7050 0.7028 0.6964
1154.805589 0.6824 0.6673 0.6523 0.6383 0.6294
1159.651757 0.6265 0.6262 0.6287 0.6408 0.6570
1164.497925 0.6732 0.6894 0.7055 0.7216 0.7376
1169.344092 0.7537 0.7696 0.7812 0.7862 0.7870
1174.190260 0.7868 0.7824 0.7716 0.7536 0.7350
1179.036428 0.7165 0.6980 0.6795 0.6611 0.6430
1183.882595 0.6339 0.6361 0.6324 0.6929 0.7412
1188.728763 0.7801 0.8194 0.8475 0.8638 0.8735
1193.574930 0.8796 0.8829 0.8848 0.8866 0.8872
1198.421098 0.8877 0.8879 0.8871 0.8859 0.8846
1203.267266 0.8833 0.8820 0.8810 0.8804 0.8797
1208.113433 0.8791 0.8780 0.8756 0.8718 0.8674
1212.959601 0.8631 0.8586 0.8536 0.8491 0.8464
1217.805769 0.8463 0.8483 0.8506 0.8523 0.8539
1222.651936 0.8549 0.8549 0.8539 0.8514 0.8456
1227.498104 0.8333 0.8183 0.8031 0.7881 0.7730
1232.344272 0.7579 0.7429 0.7278 0.7129 0.6979
1237.190439 0.6830 0.6681 0.6580 0.6544 0.6516
1242.036607 0.6482 0.6443 0.6401 0.6358 0.6311
1246.882775 0.6249 0.6176 0.6081 0.5941 0.5708
1251.728942 0.5481 0.5322 0.5153 0.4979 0.4853
1256.575110 0.4784 0.4750 0.4730 0.4716 0.4704
1261.421278 0.4693 0.4684 0.4680 0.4679 0.4677
1266.267445 0.4680 0.4686 0.4681 0.4692 0.4714
1271.113613 0.4733 0.4762 0.4793 0.4834 0.4888
1275.959781 0.4942 0.4995 0.5050 0.5110 0.5176
1280.805948 0.5253 0.5332 0.5402 0.5475 0.5559
1285.652116 0.5636 0.5683 0.5711 0.5712 0.5712
1290.498284 0.5709 0.5703 0.5697 0.5689 0.5681
1295.344451 0.5672 0.5657 0.5642 0.5626 0.5612
1300.190619 0.5601 0.5595 0.5602 0.5633 0.5684
1305.036787 0.5760 0.5837 0.5893 0.5933 0.5955
1309.882954 0.5962 0.5958 0.5904 0.5834 0.5763
1314.729122 0.5692 0.5621 0.5549 0.5487 0.5478
1319.575290 0.5480 0.5509 0.5632 0.5782 0.5933
1324.421457 0.6085 0.6240 0.6361 0.6405 0.6420
1329.267625 0.6419 0.6394 0.6362 0.6335 0.6321
1334.113793 0.6323 0.6335 0.6366 0.6411 0.6480
1338.959960 0.6570 0.6665 0.6766 0.6853 0.6914
1343.806128 0.6956 0.6986 0.7010 0.7024 0.7026
1348.652296 0.7022 0.7025 0.6974 0.6867 0.6802
1353.498463 0.6733 0.6663 0.6597 0.6532 0.6468
1358.344631 0.6403 0.6346 0.6305 0.6275 0.6263
1363.190798 0.6258 0.6254 0.6249 0.6173 0.5912
1368.036966 0.5621 0.5331 0.5042 0.4752 0.4461
1372.883134 0.4168 0.3961 0.3891 0.3860 0.3847
1377.729301 0.3849 0.4040 0.4382 0.4724 0.5066
1382.575469 0.5406 0.5746 0.6086 0.6425 0.6763
1387.421637 0.7102 0.7440 0.7678 0.7831 0.7979
1392.267804 0.8035 0.8063 0.8088 0.8106 0.8121
1397.113972 0.8132 0.8158 0.8144 0.8138 0.8128
1401.960140 0.8109 0.8077 0.8000 0.7909 0.7818
1406.806307 0.7727 0.7636 0.7545 0.7455 0.7380
1411.652475 0.7356 0.7360 0.7384 0.7419 0.7452
1416.498643 0.7483 0.7508 0.7521 0.7523 0.7453
1421.344810 0.7290 0.7094 0.6899 0.6703 0.6508
1426.190978 0.6314 0.6119 0.5925 0.5731 0.5537
1431.037146 0.5344 0.5152 0.4959 0.4768 0.4606
1435.883313 0.4454 0.4234 0.4019 0.3878 0.3743
1440.729481 0.3481 0.3138 0.2988 0.2861 0.2749
1445.575649 0.2653 0.2559 0.2456 0.2333 0.2206
1450.421816 0.2145 0.2126 0.2150 0.2155 0.2164
1455.267984 0.2175 0.2189 0.2209 0.2234 0.2264
1460.114152 0.2308 0.2401 0.2545 0.2737 0.2945
1464.960319 0.3154 0.3363 0.3572 0.3779 0.3987
1469.806487 0.4194 0.4400 0.4607 0.4814 0.5021
1474.652655 0.5226 0.5432 0.5633 0.5792 0.5915
1479.498822 0.5975 0.6020 0.6064 0.6108 0.6146
1484.344990 0.6174 0.6199 0.6219 0.6233 0.6242
1489.191158 0.6244 0.6247 0.6111 0.5797 0.5410
1494.037325 0.5016 0.4623 0.4230 0.3837 0.3446
1498.883493 0.3054 0.2663 0.2335 0.2181 0.2154
1503.729661 0.2152 0.2227 0.2412 0.2637 0.2862
1508.575828 0.3064 0.3185 0.3214 0.3203 0.3132
1513.421996 0.2980 0.2802 0.2633 0.2531 0.2529
1518.268164 0.2585 0.2748 0.2940 0.3131 0.3322
1523.114331 0.3512 0.3702 0.3892 0.4081 0.4271
1527.960499 0.4461 0.4650 0.4838 0.5027 0.5215
1532.806666 0.5404 0.5592 0.5778 0.5966 0.6153
1537.652834 0.6340 0.6527 0.6713 0.6900 0.7085
1542.499002 0.7271 0.7456 0.7641 0.7827 0.8012
1547.345169 0.8159 0.8231 0.8271 0.8308 0.8339
1552.191337 0.8367 0.8395 0.8414 0.8429 0.8442
1557.037505 0.8452 0.8459 0.8452 0.8465 0.8465
1561.883672 0.8460 0.8455 0.8449 0.8442 0.8435
1566.729840 0.8425 0.8415 0.8404 0.8389 0.8372
1571.576008 0.8353 0.8333 0.8309 0.8278 0.8244
1576.422175 0.8205 0.8162 0.8116 0.8062 0.7991
1581.268343 0.7903 0.7805 0.7693 0.7532 0.7372
1586.114511 0.7288 0.7245 0.7205 0.7172 0.7149
1590.960678 0.7131 0.7114 0.7098 0.7083 0.7061
1595.806846 0.6999 0.6793 0.6475 0.6189 0.5903
1600.653014 0.5618 0.5333 0.5049 0.4766 0.4482
1605.499181 0.4199 0.3916 0.3634 0.3351 0.3069
1610.345349 0.2787 0.2506 0.2237 0.2028 0.1939
1615.191517 0.1943 0.1960 0.2017 0.2169 0.2320
1620.037684 0.2470 0.2621 0.2772 0.2923 0.3072
1624.883852 0.3222 0.3371 0.3522 0.3671 0.3820
1629.730020 0.3969 0.4119 0.4267 0.4416 0.4564
1634.576187 0.4713 0.4860 0.5009 0.5156 0.5304
1639.422355 0.5451 0.5599 0.5745 0.5891 0.6038
1644.268523 0.6185 0.6331 0.6477 0.6623 0.6769
1649.114690 0.6915 0.7061 0.7205 0.7351 0.7495
1653.960858 0.7641 0.7786 0.7929 0.8121 0.8254
1658.807026 0.8318 0.8364 0.8406 0.8441 0.8472
1663.653193 0.8501 0.8527 0.8552 0.8576 0.8601
1668.499361 0.8629 0.8666 0.8706 0.8745 0.8780
1673.345529 0.8814 0.8848 0.8884 0.8922 0.8963
1678.191696 0.9004 0.9044 0.9073 0.9094 0.9115
1683.037864 0.9134 0.9150 0.9162 0.9172 0.9183
1687.884032 0.9193 0.9204 0.9214 0.9224 0.9235
1692.730199 0.9245 0.9257 0.9269 0.9280 0.9292
1697.576367 0.9303 0.9315 0.9327 0.9339 0.9354
1702.422534 0.9371 0.9390 0.9409 0.9428 0.9447
1707.268702 0.9464 0.9478 0.9491 0.9504 0.9516
1712.114870 0.9529 0.9541 0.9554 0.9566 0.9578
1716.961037 0.9589 0.9601 0.9612 0.9623 0.9634
1721.807205 0.9645 0.9653 0.9660 0.9667 0.9674
1726.653373 0.9680 0.9683 0.9685 0.9686 0.9690
1731.499540 0.9702 0.9690 0.9692 0.9692 0.9691
1736.345708 0.9689 0.9687 0.9685 0.9682 0.9680
1741.191876 0.9677 0.9673 0.9669 0.9665 0.9662
1746.038043 0.9658 0.9654 0.9651 0.9648 0.9645
1750.884211 0.9641 0.9638 0.9635 0.9632 0.9629
1755.730379 0.9625 0.9621 0.9618 0.9616 0.9616
1760.576546 0.9616 0.9616 0.9616 0.9616 0.9616
1765.422714 0.9617 0.9617 0.9616 0.9614 0.9608
1770.268882 0.9599 0.9590 0.9581 0.9570 0.9559
1775.115049 0.9548 0.9539 0.9533 0.9529 0.9525
1779.961217 0.9520 0.9517 0.9517 0.9522 0.9526
1784.807385 0.9531 0.9536 0.9541 0.9546 0.9552
1789.653552 0.9558 0.9564 0.9571 0.9578 0.9585
1794.499720 0.9588 0.9588 0.9589 0.9589 0.9589
1799.345888 0.9589 0.9588 0.9587 0.9587 0.9586
1804.192055 0.9585 0.9584 0.9584 0.9583 0.9583
1809.038223 0.9582 0.9582 0.9582 0.9581 0.9580
1813.884391 0.9579 0.9579 0.9578 0.9576 0.9575
1818.730558 0.9575 0.9574 0.9572 0.9571 0.9570
1823.576726 0.9567 0.9564 0.9561 0.9558 0.9555
1828.422894 0.9552 0.9548 0.9545 0.9542 0.9539
1833.269061 0.9535 0.9532 0.9529 0.9526 0.9523
1838.115229 0.9519 0.9515 0.9511 0.9507 0.9503
1842.961397 0.9499 0.9495 0.9490 0.9483 0.9475
1847.807564 0.9467 0.9460 0.9453 0.9445 0.9437
1852.653732 0.9430 0.9422 0.9413 0.9405 0.9396
1857.499900 0.9387 0.9378 0.9370 0.9361 0.9351
1862.346067 0.9343 0.9334 0.9325 0.9316 0.9306
1867.192235 0.9296 0.9286 0.9276 0.9265 0.9256
1872.038402 0.9248 0.9240 0.9240 0.9241 0.9243
1876.884570 0.9246 0.9248 0.9251 0.9254 0.9269
1881.730738 0.9246 0.9304 0.9324 0.9342 0.9361
1886.576905 0.9378 0.9403 0.9430 0.9448 0.9455
1891.423073 0.9457 0.9457 0.9459 0.9460 0.9461
1896.269241 0.9462 0.9463 0.9463 0.9464 0.9464
1901.115408 0.9464 0.9464 0.9464 0.9464 0.9464
1905.961576 0.9465 0.9465 0.9469 0.9475 0.9481
1910.807744 0.9487 0.9494 0.9503 0.9513 0.9524
1915.653911 0.9534 0.9544 0.9554 0.9565 0.9575
1920.500079 0.9583 0.9589 0.9594 0.9598 0.9602
1925.346247 0.9606 0.9608 0.9610 0.9613 0.9616
1930.192414 0.9618 0.9621 0.9623 0.9625 0.9628
1935.038582 0.9630 0.9632 0.9634 0.9636 0.9639
1939.884750 0.9641 0.9643 0.9645 0.9648 0.9650
1944.730917 0.9652 0.9654 0.9656 0.9658 0.9661
1949.577085 0.9663 0.9666 0.9668 0.9671 0.9673
1954.423253 0.9676 0.9678 0.9681 0.9684 0.9686
1959.269420 0.9688 0.9690 0.9692 0.9693 0.9694
1964.115588 0.9695 0.9696 0.9696 0.9696 0.9697
1968.961756 0.9698 0.9699 0.9700 0.9700 0.9701
1973.807923 0.9702 0.9703 0.9704 0.9705 0.9705
1978.654091 0.9706 0.9706 0.9708 0.9709 0.9709
1983.500259 0.9709 0.9709 0.9709 0.9708 0.9708
1988.346426 0.9708 0.9707 0.9707 0.9707 0.9707
1993.192594 0.9706 0.9706 0.9706 0.9705 0.9705
1998.038762 0.9705 0.9704 0.9704 0.9704 0.9703
2002.884929 0.9703 0.9703 0.9703 0.9702 0.9702
2007.731097 0.9702 0.9702 0.9702 0.9702 0.9702
2012.577265 0.9702 0.9702 0.9702 0.9702 0.9702
2017.423432 0.9702 0.9702 0.9702 0.9700 0.9702
2022.269600 0.9702 0.9702 0.9702 0.9702 0.9702
2027.115768 0.9702 0.9702 0.9702 0.9702 0.9701
2031.961935 0.9701 0.9701 0.9701 0.9700 0.9700
2036.808103 0.9699 0.9699 0.9699 0.9698 0.9698
2041.654270 0.9698 0.9697 0.9697 0.9696 0.9696
2046.500438 0.9696 0.9695 0.9695 0.9695 0.9695
2051.346606 0.9694 0.9694 0.9694 0.9693 0.9693
2056.192773 0.9692 0.9692 0.9692 0.9692 0.9691
2061.038941 0.9691 0.9691 0.9690 0.9690 0.9689
2065.885109 0.9689 0.9689 0.9688 0.9688 0.9687
2070.731276 0.9687 0.9686 0.9685 0.9684 0.9683
2075.577444 0.9682 0.9681 0.9681 0.9680 0.9679
2080.423612 0.9678 0.9677 0.9676 0.9675 0.9675
2085.269779 0.9674 0.9673 0.9672 0.9672 0.9670
2090.115947 0.9669 0.9669 0.9668 0.9667 0.9666
2094.962115 0.9666 0.9665 0.9664 0.9663 0.9662
2099.808282 0.9661 0.9660 0.9660 0.9659 0.9658
2104.654450 0.9657 0.9656 0.9655 0.9654 0.9653
2109.500618 0.9652 0.9651 0.9650 0.9649 0.9648
2114.346785 0.9647 0.9646 0.9646 0.9645 0.9643
2119.192953 0.9642 0.9641 0.9640 0.9639 0.9638
2124.039121 0.9637 0.9637 0.9636 0.9635 0.9634
2128.885288 0.9633 0.9631 0.9630 0.9629 0.9628
2133.731456 0.9628 0.9627 0.9626 0.9625 0.9624
2138.577624 0.9623 0.9622 0.9621 0.9620 0.9619
2143.423791 0.9619 0.9619 0.9619 0.9619 0.9618
2148.269959 0.9618 0.9618 0.9618 0.9618 0.9618
2153.116127 0.9617 0.9617 0.9617 0.9617 0.9617
2157.962294 0.9617 0.9616 0.9616 0.9616 0.9616
2162.808462 0.9616 0.9615 0.9615 0.9615 0.9615
2167.654630 0.9615 0.9615 0.9614 0.9614 0.9614
2172.500797 0.9614 0.9614 0.9614 0.9613 0.9613
2177.346965 0.9613 0.9613 0.9613 0.9613 0.9612
2182.193133 0.9612 0.9612 0.9612 0.9612 0.9612
2187.039300 0.9611 0.9611 0.9611 0.9611 0.9610
2191.885468 0.9610 0.9610 0.9610 0.9610 0.9610
2196.731636 0.9609 0.9609 0.9609 0.9609 0.9608
2201.577803 0.9608 0.9608 0.9608 0.9608 0.9608
2206.423971 0.9607 0.9607 0.9607 0.9607 0.9606
2211.270138 0.9606 0.9606 0.9606 0.9606 0.9606
2216.116306 0.9605 0.9605 0.9605 0.9605 0.9604
2220.962474 0.9604 0.9604 0.9604 0.9603 0.9603
2225.808641 0.9603 0.9603 0.9602 0.9602 0.9601
2230.654809 0.9601 0.9600 0.9600 0.9599 0.9599
2235.500977 0.9598 0.9598 0.9597 0.9597 0.9596
2240.347144 0.9596 0.9595 0.9595 0.9594 0.9594
2245.193312 0.9593 0.9593 0.9592 0.9592 0.9592
2250.039480 0.9591 0.9591 0.9590 0.9590 0.9589
2254.885647 0.9589 0.9588 0.9588 0.9587 0.9587
2259.731815 0.9586 0.9586 0.9585 0.9584 0.9583
2264.577983 0.9583 0.9582 0.9582 0.9581 0.9580
2269.424150 0.9580 0.9579 0.9579 0.9578 0.9577
2274.270318 0.9576 0.9576 0.9575 0.9575 0.9574
2279.116486 0.9573 0.9572 0.9572 0.9571 0.9571
2283.962653 0.9570 0.9570 0.9569 0.9568 0.9568
2288.808821 0.9567 0.9566 0.9565 0.9565 0.9564
2293.654989 0.9564 0.9563 0.9562 0.9561 0.9561
2298.501156 0.9561 0.9560 0.9560 0.9559 0.9557
2303.347324 0.9556 0.9555 0.9553 0.9552 0.9551
2308.193492 0.9550 0.9549 0.9548 0.9547 0.9546
2313.039659 0.9544 0.9543 0.9542 0.9540 0.9539
2317.885827 0.9538 0.9537 0.9536 0.9535 0.9533
2322.731995 0.9532 0.9531 0.9530 0.9529 0.9527
2327.578162 0.9526 0.9525 0.9524 0.9523 0.9522
2332.424330 0.9520 0.9519 0.9518 0.9516 0.9515
2337.270498 0.9514 0.9513 0.9512 0.9510 0.9508
2342.116665 0.9506 0.9504 0.9503 0.9501 0.9499
2346.962833 0.9497 0.9496 0.9495 0.9493 0.9491
2351.809001 0.9490 0.9488 0.9486 0.9484 0.9483
2356.655168 0.9481 0.9479 0.9477 0.9476 0.9474
2361.501336 0.9473 0.9471 0.9470 0.9469 0.9468
2366.347504 0.9466 0.9465 0.9463 0.9462 0.9461
2371.193671 0.9460 0.9460 0.9459 0.9459 0.9458
2376.039839 0.9458 0.9458 0.9457 0.9457 0.9456
2380.886006 0.9456 0.9456 0.9456 0.9456 0.9456
2385.732174 0.9456 0.9456 0.9456 0.9456 0.9456
2390.578342 0.9456 0.9456 0.9456 0.9457 0.9457
2395.424509 0.9457 0.9457 0.9457 0.9457 0.9457
2400.270677 0.9458 0.9459 0.9459 0.9460 0.9460
2405.116845 0.9461 0.9462 0.9463 0.9463 0.9463
2409.963012 0.9464 0.9465 0.9466 0.9466 0.9467
2414.809180 0.9467 0.9468 0.9469 0.9469 0.9470
2419.655348 0.9470 0.9471 0.9472 0.9472 0.9473
2424.501515 0.9474 0.9474 0.9475 0.9475 0.9476
2429.347683 0.9477 0.9478 0.9478 0.9478 0.9479
2434.193851 0.9480 0.9481 0.9481 0.9482 0.9483
2439.040018 0.9484 0.9486 0.9487 0.9487 0.9488
2443.886186 0.9489 0.9490 0.9491 0.9491 0.9492
2448.732354 0.9493 0.9494 0.9495 0.9496 0.9497
2453.578521 0.9498 0.9499 0.9500 0.9500 0.9501
2458.424689 0.9502 0.9503 0.9504 0.9506 0.9506
2463.270857 0.9507 0.9508 0.9509 0.9509 0.9510
2468.117024 0.9511 0.9512 0.9513 0.9513 0.9514
2472.963192 0.9515 0.9516 0.9517 0.9517 0.9518
2477.809360 0.9519 0.9520 0.9521 0.9522 0.9523
2482.655527 0.9524 0.9525 0.9526 0.9526 0.9527
2487.501695 0.9528 0.9529 0.9529 0.9530 0.9531
2492.347863 0.9532 0.9533 0.9533 0.9534 0.9535
2497.194030 0.9535 0.9535 0.9536 0.9537 0.9538
2502.040198 0.9539 0.9539 0.9540 0.9541 0.9542
2506.886366 0.9542 0.9543 0.9544 0.9545 0.9545
2511.732533 0.9546 0.9546 0.9546 0.9544 0.9543
2516.578701 0.9541 0.9539 0.9537 0.9536 0.9534
2521.424869 0.9533 0.9531 0.9530 0.9528 0.9526
2526.271036 0.9524 0.9522 0.9519 0.9517 0.9515
2531.117204 0.9514 0.9511 0.9509 0.9507 0.9504
2535.963372 0.9502 0.9498 0.9494 0.9489 0.9484
2540.809539 0.9479 0.9474 0.9468 0.9463 0.9458
2545.655707 0.9453 0.9447 0.9442 0.9437 0.9432
2550.501874 0.9427 0.9421 0.9416 0.9411 0.9406
2555.348042 0.9402 0.9398 0.9395 0.9391 0.9387
2560.194210 0.9383 0.9380 0.9376 0.9372 0.9368
2565.040377 0.9364 0.9360 0.9357 0.9353 0.9349
2569.886545 0.9346 0.9343 0.9340 0.9337 0.9334
2574.732713 0.9332 0.9330 0.9327 0.9325 0.9323
2579.578880 0.9320 0.9318 0.9315 0.9313 0.9310
2584.425048 0.9308 0.9306 0.9303 0.9301 0.9299
2589.271216 0.9296 0.9294 0.9292 0.9290 0.9288
2594.117383 0.9286 0.9285 0.9284 0.9283 0.9282
2598.963551 0.9281 0.9280 0.9279 0.9278 0.9277
2603.809719 0.9276 0.9275 0.9274 0.9273 0.9273
2608.655886 0.9272 0.9272 0.9271 0.9271 0.9270
2613.502054 0.9269 0.9269 0.9269 0.9268 0.9268
2618.348222 0.9268 0.9267 0.9266 0.9266 0.9265
2623.194389 0.9265 0.9265 0.9264 0.9264 0.9263
2628.040557 0.9263 0.9262 0.9261 0.9261 0.9261
2632.886725 0.9260 0.9260 0.9260 0.9259 0.9258
2637.732892 0.9258 0.9257 0.9257 0.9257 0.9256
2642.579060 0.9256 0.9256 0.9255 0.9254 0.9254
2647.425228 0.9253 0.9253 0.9252 0.9252 0.9250
2652.271395 0.9250 0.9250 0.9249 0.9249 0.9248
2657.117563 0.9247 0.9246 0.9245 0.9243 0.9242
2661.963731 0.9241 0.9239 0.9238 0.9237 0.9235
2666.809898 0.9234 0.9232 0.9230 0.9229 0.9227
2671.656066 0.9226 0.9224 0.9222 0.9220 0.9218
2676.502234 0.9215 0.9213 0.9211 0.9209 0.9207
2681.348401 0.9205 0.9204 0.9202 0.9201 0.9199
2686.194569 0.9198 0.9196 0.9195 0.9194 0.9192
2691.040737 0.9191 0.9190 0.9188 0.9187 0.9184
2695.886904 0.9182 0.9179 0.9177 0.9174 0.9172
2700.733072 0.9169 0.9167 0.9164 0.9162 0.9160
2705.579240 0.9158 0.9155 0.9153 0.9150 0.9147
2710.425407 0.9144 0.9141 0.9137 0.9131 0.9126
2715.271575 0.9120 0.9114 0.9108 0.9102 0.9097
2720.117742 0.9091 0.9085 0.9078 0.9071 0.9065
2724.963910 0.9058 0.9052 0.9044 0.9034 0.9022
2729.810078 0.9009 0.8995 0.8982 0.8968 0.8958
2734.656245 0.8947 0.8937 0.8926 0.8915 0.8904
2739.502413 0.8891 0.8878 0.8865 0.8859 0.8855
2744.348581 0.8852 0.8848 0.8844 0.8840 0.8838
2749.194748 0.8837 0.8836 0.8836 0.8837 0.8838
2754.040916 0.8839 0.8841 0.8843 0.8845 0.8848
2758.887084 0.8851 0.8855 0.8860 0.8866 0.8873
2763.733251 0.8882 0.8893 0.8903 0.8912 0.8920
2768.579419 0.8928 0.8935 0.8942 0.8948 0.8955
2773.425587 0.8961 0.8967 0.8974 0.8982 0.8990
2778.271754 0.8998 0.9004 0.9009 0.9013 0.9016
2783.117922 0.9018 0.9019 0.9019 0.9018 0.9017
2787.964090 0.9016 0.9015 0.9014 0.9013 0.9012
2792.810257 0.9012 0.9009 0.9004 0.8998 0.8988
2797.656425 0.8969 0.8944 0.8922 0.8901 0.8883
2802.502593 0.8864 0.8848 0.8833 0.8818 0.8802
2807.348760 0.8785 0.8768 0.8751 0.8732 0.8713
2812.194928 0.8694 0.8675 0.8656 0.8637 0.8618
2817.041096 0.8599 0.8580 0.8561 0.8543 0.8526
2821.887263 0.8508 0.8491 0.8474 0.8457 0.8440
2826.733431 0.8423 0.8407 0.8380 0.8347 0.8314
2831.579599 0.8282 0.8251 0.8220 0.8189 0.8163
2836.425766 0.8139 0.8114 0.8088 0.8060 0.8033
2841.271934 0.8001 0.7962 0.7920 0.7877 0.7829
2846.118102 0.7779 0.7730 0.7686 0.7645 0.7605
2850.964269 0.7056 0.5648 0.4113 0.2611 0.2436
2855.810437 0.2436 0.2436 0.2436 0.2436 0.2436
2860.656605 0.2436 0.2440 0.2444 0.2448 0.2467
2865.502772 0.2491 0.2514 0.2537 0.2560 0.2583
2870.348940 0.2607 0.2630 0.2653 0.2675 0.2698
2875.195108 0.2721 0.2745 0.2768 0.2791 0.2814
2880.041275 0.2835 0.2847 0.2855 0.2862 0.2867
2884.887443 0.2867 0.2867 0.2860 0.2814 0.2761
2889.733610 0.2707 0.2643 0.2567 0.2491 0.2415
2894.579778 0.2339 0.2264 0.2188 0.2112 0.2037
2899.425946 0.1961 0.1893 0.1843 0.1794 0.1751
2904.272113 0.1726 0.1716 0.1705 0.1696 0.1690
2909.118281 0.1683 0.1677 0.1672 0.1667 0.1663
2913.964449 0.1659 0.1657 0.1654 0.1650 0.1639
2918.810616 0.1624 0.1609 0.1579 0.1529 0.1475
2923.656784 0.1421 0.1367 0.1313 0.1259 0.1205
2928.502952 0.1152 0.1098 0.1047 0.1021 0.1010
2933.349119 0.0998 0.0991 0.0989 0.0989 0.0989
2938.195287 0.0990 0.0990 0.0990 0.1006 0.1055
2943.041455 0.1116 0.1177 0.1240 0.1305 0.1370
2947.887622 0.1435 0.1500 0.1564 0.1629 0.1694
2952.733790 0.1759 0.1824 0.1888 0.1953 0.2018
2957.579958 0.2082 0.2147 0.2211 0.2276 0.2341
2962.426125 0.2404 0.2469 0.2534 0.2597 0.2662
2967.272293 0.2726 0.2790 0.2855 0.2918 0.2982
2972.118461 0.3046 0.3109 0.3174 0.3237 0.3301
2976.964628 0.3365 0.3428 0.3492 0.3556 0.3619
2981.810796 0.3683 0.3746 0.3810 0.3874 0.3936
2986.656964 0.4000 0.4064 0.4126 0.4190 0.4253
2991.503131 0.4316 0.4379 0.4442 0.4505 0.4569
2996.349299 0.4631 0.4694 0.4756 0.4819 0.4883
3001.195467 0.4945 0.5008 0.5071 0.5133 0.5195
3006.041634 0.5258 0.5320 0.5380 0.5432 0.5480
3010.887802 0.5528 0.5569 0.5597 0.5621 0.5645
3015.733970 0.5668 0.5689 0.5711 0.5731 0.5750
3020.580137 0.5767 0.5783 0.5799 0.5813 0.5825
3025.426305 0.5837 0.5850 0.5863 0.5875 0.5888
3030.272473 0.5900 0.5912 0.5924 0.5937 0.5949
3035.118640 0.5961 0.5972 0.5984 0.5996 0.6007
3039.964808 0.6019 0.6031 0.6042 0.6053 0.6065
3044.810976 0.6077 0.6090 0.6103 0.6116 0.6131
3049.657143 0.6149 0.6167 0.6185 0.6202 0.6220
3054.503311 0.6239 0.6257 0.6275 0.6292 0.6310
3059.349478 0.6329 0.6346 0.6364 0.6381 0.6399
3064.195646 0.6414 0.6428 0.6442 0.6457 0.6471
3069.041814 0.6486 0.6501 0.6515 0.6529 0.6544
3073.887981 0.6559 0.6578 0.6606 0.6636 0.6664
3078.734149 0.6698 0.6741 0.6782 0.6825 0.6872
3083.580317 0.6921 0.6971 0.7020 0.7065 0.7107
3088.426484 0.7149 0.7190 0.7230 0.7268 0.7307
3093.272652 0.7343 0.7378 0.7411 0.7443 0.7475
3098.118820 0.7505 0.7533 0.7560 0.7591 0.7628
3102.964987 0.7669 0.7710 0.7756 0.7816 0.7885
3107.811155 0.7954 0.8014 0.8053 0.8080 0.8107
3112.657323 0.8134 0.8160 0.8187 0.8214 0.8240
3117.503490 0.8268 0.8295 0.8322 0.8350 0.8380
3122.349658 0.8411 0.8442 0.8473 0.8506 0.8541
3127.195826 0.8576 0.8609 0.8634 0.8656 0.8678
3132.041993 0.8700 0.8716 0.8731 0.8745 0.8759
3136.888161 0.8771 0.8783 0.8795 0.8806 0.8816
3141.734329 0.8826 0.8835 0.8846 0.8852 0.8857
3146.580496 0.8863 0.8868 0.8873 0.8878 0.8884
3151.426664 0.8889 0.8893 0.8895 0.8898 0.8901
3156.272832 0.8903 0.8904 0.8905 0.8910 0.8927
3161.118999 0.8909 0.8911 0.8912 0.8914 0.8915
3165.965167 0.8916 0.8918 0.8919 0.8920 0.8921
3170.811335 0.8922 0.8922 0.8923 0.8923 0.8923
3175.657502 0.8923 0.8923 0.8923 0.8923 0.8923
3180.503670 0.8922 0.8921 0.8920 0.8919 0.8918
3185.349838 0.8916 0.8914 0.8912 0.8910 0.8908
3190.196005 0.8906 0.8903 0.8901 0.8899 0.8898
3195.042173 0.8896 0.8894 0.8890 0.8887 0.8884
3199.888341 0.8880 0.8876 0.8872 0.8868 0.8864
3204.734508 0.8859 0.8854 0.8849 0.8844 0.8839
3209.580676 0.8834 0.8829 0.8824 0.8819 0.8814
3214.426844 0.8810 0.8806 0.8802 0.8798 0.8794
3219.273011 0.8790 0.8786 0.8782 0.8778 0.8774
3224.119179 0.8770 0.8766 0.8763 0.8759 0.8756
3228.965347 0.8753 0.8753 0.8753 0.8753 0.8753
3233.811514 0.8753 0.8755 0.8757 0.8753 0.8738
3238.657682 0.8763 0.8766 0.8768 0.8770 0.8774
3243.503849 0.8778 0.8783 0.8788 0.8793 0.8800
3248.350017 0.8807 0.8813 0.8820 0.8829 0.8837
3253.196185 0.8846 0.8855 0.8862 0.8870 0.8878
3258.042352 0.8886 0.8893 0.8901 0.8909 0.8917
3262.888520 0.8924 0.8931 0.8937 0.8943 0.8950
3267.734688 0.8955 0.8960 0.8966 0.8972 0.8975
3272.580855 0.8977 0.8980 0.8982 0.8984 0.8986
3277.427023 0.8988 0.8989 0.8991 0.8992 0.8992
3282.273191 0.8992 0.8992 0.8991 0.8991 0.8991
3287.119358 0.8991 0.8991 0.8990 0.8990 0.8990
3291.965526 0.8990 0.8975 0.8987 0.8985 0.8983
3296.811694 0.8981 0.8979 0.8977 0.8975 0.8973
3301.657861 0.8970 0.8965 0.8959 0.8954 0.8948
3306.504029 0.8938 0.8925 0.8912 0.8899 0.8882
3311.350197 0.8859 0.8836 0.8813 0.8790 0.8768
3316.196364 0.8748 0.8727 0.8707 0.8688 0.8672
3321.042532 0.8655 0.8639 0.8620 0.8592 0.8557
3325.888700 0.8522 0.8487 0.8451 0.8413 0.8374
3330.734867 0.8335 0.8296 0.8257 0.8219 0.8180
3335.581035 0.8141 0.8103 0.8064 0.8025 0.7986
3340.427203 0.7948 0.7909 0.7870 0.7832 0.7793
3345.273370 0.7755 0.7717 0.7678 0.7640 0.7601
3350.119538 0.7564 0.7525 0.7486 0.7449 0.7410
3354.965706 0.7372 0.7333 0.7296 0.7257 0.7218
3359.811873 0.7180 0.7142 0.7105 0.7066 0.7028
3364.658041 0.6990 0.6952 0.6915 0.6876 0.6838
3369.504209 0.6800 0.6762 0.6724 0.6686 0.6648
3374.350376 0.6610 0.6572 0.6535 0.6509 0.6505
3379.196544 0.6501 0.6497 0.6494 0.6493 0.6494
3384.042712 0.6495 0.6497 0.6499 0.6500 0.6501
3388.888879 0.6502 0.6503 0.6504 0.6505 0.6507
3393.735047 0.6509 0.6510 0.6507 0.6519 0.6531
3398.581215 0.6538 0.6546 0.6565 0.6588 0.6610
3403.427382 0.6634 0.6657 0.6679 0.6703 0.6725
3408.273550 0.6748 0.6771 0.6793 0.6817 0.6839
3413.119717 0.6862 0.6885 0.6907 0.6930 0.6953
3417.965885 0.6975 0.6999 0.7021 0.7044 0.7067
3422.812053 0.7090 0.7112 0.7135 0.7157 0.7180
3427.658220 0.7203 0.7225 0.7248 0.7270 0.7292
3432.504388 0.7315 0.7338 0.7360 0.7383 0.7406
3437.350556 0.7429 0.7451 0.7473 0.7496 0.7518
3442.196723 0.7536 0.7548 0.7560 0.7572 0.7584
3447.042891 0.7590 0.7591 0.7591 0.7591 0.7591
3451.889059 0.7591 0.7591 0.7591 0.7591 0.7591
3456.735226 0.7587 0.7582 0.7577 0.7571 0.7566
3461.581394 0.7557 0.7548 0.7538 0.7527 0.7517
3466.427562 0.7508 0.7498 0.7489 0.7478 0.7469
3471.273729 0.7459 0.7449 0.7440 0.7430 0.7419
3476.119897 0.7410 0.7400 0.7390 0.7381 0.7371
3480.966065 0.7364 0.7357 0.7351 0.7344 0.7339
3485.812232 0.7337 0.7338 0.7339 0.7340 0.7341
3490.658400 0.7342 0.7343 0.7344 0.7345 0.7350
3495.504568 0.7367 0.7391 0.7415 0.7438 0.7465
3500.350735 0.7504 0.7551 0.7597 0.7644 0.7690
3505.196903 0.7736 0.7782 0.7828 0.7874 0.7920
3510.043071 0.7966 0.8012 0.8058 0.8104 0.8149
3514.889238 0.8195 0.8241 0.8287 0.8334 0.8380
3519.735406 0.8425 0.8470 0.8516 0.8562 0.8608
3524.581574 0.8652 0.8696 0.8740 0.8784 0.8827
3529.427741 0.8862 0.8880 0.8899 0.8916 0.8934
3534.273909 0.8950 0.8960 0.8969 0.8978 0.8987
3539.120077 0.8996 0.9005 0.9014 0.9024 0.9033
3543.966244 0.9042 0.9050 0.9059 0.9068 0.9078
3548.812412 0.9087 0.9096 0.9105 0.9114 0.9123
3553.658580 0.9132 0.9140 0.9147 0.9154 0.9161
3558.504747 0.9168 0.9173 0.9176 0.9179 0.9182
3563.350915 0.9185 0.9188 0.9190 0.9193 0.9196
3568.197083 0.9199 0.9202 0.9205 0.9207 0.9210
3573.043250 0.9212 0.9215 0.9216 0.9218 0.9219
3577.889418 0.9220 0.9222 0.9223 0.9224 0.9226
3582.735585 0.9227 0.9228 0.9229 0.9231 0.9232
3587.581753 0.9233 0.9235 0.9236 0.9237 0.9238
3592.427921 0.9239 0.9240 0.9241 0.9242 0.9242
3597.274088 0.9243 0.9244 0.9245 0.9245 0.9246
3602.120256 0.9247 0.9247 0.9249 0.9250 0.9251
3606.966424 0.9252 0.9252 0.9253 0.9254 0.9255
3611.812591 0.9256 0.9257 0.9257 0.9258 0.9259
3616.658759 0.9259 0.9259 0.9260 0.9260 0.9260
3621.504927 0.9261 0.9261 0.9262 0.9263 0.9263
3626.351094 0.9264 0.9264 0.9264 0.9265 0.9265
3631.197262 0.9265 0.9266 0.9266 0.9267 0.9268
3636.043430 0.9268 0.9269 0.9269 0.9269 0.9270
3640.889597 0.9270 0.9270 0.9271 0.9271 0.9272
3645.735765 0.9272 0.9273 0.9274 0.9274 0.9274
3650.581933 0.9275 0.9275 0.9275 0.9276 0.9277
3655.428100 0.9277 0.9278 0.9278 0.9279 0.9279
3660.274268 0.9280 0.9281 0.9281 0.9282 0.9282
3665.120436 0.9282 0.9283 0.9283 0.9283 0.9311
3669.966603 0.9289 0.9285 0.9285 0.9286 0.9286
3674.812771 0.9287 0.9287 0.9287 0.9287 0.9287
3679.658939 0.9286 0.9286 0.9286 0.9286 0.9286
3684.505106 0.9286 0.9286 0.9286 0.9286 0.9286
3689.351274 0.9286 0.9286 0.9286 0.9286 0.9286
3694.197442 0.9286 0.9286 0.9285 0.9285 0.9285
3699.043609 0.9285 0.9285 0.9285 0.9285 0.9285
3703.889777 0.9285 0.9285 0.9285 0.9285 0.9285
3708.735945 0.9285 0.9285 0.9285 0.9285 0.9284
3713.582112 0.9284 0.9284 0.9284 0.9284 0.9284
3718.428280 0.9284 0.9284 0.9284 0.9284 0.9284
3723.274448 0.9284 0.9284 0.9284 0.9284 0.9284
3728.120615 0.9284 0.9283 0.9283 0.9283 0.9283
3732.966783 0.9283 0.9283 0.9283 0.9283 0.9283
3737.812951 0.9283 0.9283 0.9283 0.9283 0.9283
3742.659118 0.9283 0.9283 0.9283 0.9283 0.9282
3747.505286 0.9282 0.9281 0.9281 0.9281 0.9280
3752.351453 0.9280 0.9280 0.9279 0.9279 0.9279
3757.197621 0.9279 0.9279 0.9279 0.9279 0.9279
3762.043789 0.9279 0.9280 0.9280 0.9280 0.9280
3766.889956 0.9280 0.9281 0.9281 0.9281 0.9282
3771.736124 0.9282 0.9282 0.9283 0.9283 0.9283
3776.582292 0.9283 0.9283 0.9283 0.9284 0.9284
3781.428459 0.9284 0.9284 0.9284 0.9284 0.9285
3786.274627 0.9285 0.9285 0.9285 0.9285 0.9285
3791.120795 0.9286 0.9286 0.9286 0.9286 0.9286
3795.966962 0.9286 0.9287 0.9287 0.9287 0.9287
3800.813130 0.9287 0.9287 0.9288 0.9288 0.9288
3805.659298 0.9288 0.9288 0.9288 0.9289 0.9290
3810.505465 0.9291 0.9292 0.9293 0.9294 0.9295
3815.351633 0.9297 0.9298 0.9299 0.9301 0.9302
3820.197801 0.9303 0.9304 0.9305 0.9307 0.9308
3825.043968 0.9309 0.9310 0.9310 0.9310 0.9310
3829.890136 0.9310 0.9310 0.9310 0.9310 0.9309
3834.736304 0.9309 0.9309 0.9309 0.9308 0.9308
3839.582471 0.9308 0.9307 0.9307 0.9307 0.9306
3844.428639 0.9306 0.9305 0.9305 0.9304 0.9304
3849.274807 0.9303 0.9303 0.9303 0.9302 0.9302
3854.120974 0.9302 0.9301 0.9301 0.9301 0.9300
3858.967142 0.9300 0.9300 0.9299 0.9299 0.9298
3863.813310 0.9298 0.9297 0.9296 0.9295 0.9294
3868.659477 0.9293 0.9291 0.9290 0.9288 0.9287
3873.505645 0.9285 0.9284 0.9282 0.9281 0.9279
3878.351813 0.9278 0.9276 0.9275 0.9274 0.9272
3883.197980 0.9271 0.9269 0.9268 0.9266 0.9265
3888.044148 0.9263 0.9262 0.9260 0.9259 0.9257
3892.890316 0.9256 0.9254 0.9253 0.9251 0.0000
##END=
