##TITLE=ACETIC ACID, p-MENTH-3-YL ESTER
##JCAMP-DX=4.24
##DATA TYPE=INFRARED SPECTRUM
##CLASS=COBLENTZ III
##ORIGIN=DOW CHEMICAL COMPANY
##OWNER=COBLENTZ SOC.
Collection (C) 2018 copyright by the U.S. Secretary of Commerce
on behalf of the United States of America. All rights reserved.
##DATE=1965/12/02
##NAMES=2-isopropyl-5-methylcyclohexyl acetate
##MOLFORM=C12 H22 O2
##SOURCE REFERENCE=COBLENTZ NO. 06717
##$NIST ID=B6006717
##$NIST SOURCE=COBLENTZ
##$NIST IMAGE=cob6717
##SPECTROMETER/DATA SYSTEM=DOW KBr FOREPRISM-GRATING
##INSTRUMENT PARAMETERS=BLAZED AT 3.5, 12.0, 20.0 MICRON AND CHANGED AT 5.0, 7.5, 14.9 MICRON
##STATE=SOLUTION (10% CCl4 FOR 3800-1335, 10% CS2 FOR 1335-400 CM^-^1)
##PATH LENGTH=0.011 CM, 0.011 CM
$$ SPECTRAL FEATURE AT 670 CM^-^1 IS AFFECTED BY GRATING CHANGE
##SAMPLING PROCEDURE=TRANSMISSION
##RESOLUTION=2
##DATA PROCESSING=DIGITIZED BY COBLENTZ SOCIETY (BATCH I) FROM HARD COPY
##XUNITS=1/CM
##YUNITS=TRANSMITTANCE
##XLABEL=Wavenumbers (cm-1)
##YLABEL=% Transmission
##XFACTOR=1
##YFACTOR=1
##DELTAX=1
##FIRSTX=386
##LASTX=3800
##FIRSTY=0.9564
##MAXX=3800
##MINX=386
##MAXY=1.0471
##MINY=0
##NPOINTS=3415
##XYDATA=(X++(Y..Y))
386.000000 0.9564 0.9567 0.9570 0.9575 0.9580
391.000000 0.9586 0.9592 0.9599 0.9606 0.9613
396.000000 0.9620 0.9627 0.9634 0.9642 0.9649
401.000000 0.9656 0.9660 0.9665 0.9670 0.9674
406.000000 0.9675 0.9675 0.9675 0.9675 0.9674
411.000000 0.9653 0.9662 0.9656 0.9650 0.9632
416.000000 0.9615 0.9596 0.9571 0.9548 0.9524
421.000000 0.9492 0.9452 0.9411 0.9357 0.9303
426.000000 0.9246 0.9188 0.9130 0.9062 0.8994
431.000000 0.8952 0.8913 0.8899 0.8900 0.8901
436.000000 0.8866 0.8939 0.8981 0.9028 0.9078
441.000000 0.9167 0.9235 0.9294 0.9346 0.9395
446.000000 0.9428 0.9461 0.9471 0.9495 0.9443
451.000000 0.9427 0.9408 0.9389 0.9371 0.9357
456.000000 0.9344 0.9348 0.9328 0.9406 0.9539
461.000000 0.9657 0.9733 0.9813 0.9883 0.9915
466.000000 0.9947 0.9971 0.9994 1.0016 1.0037
471.000000 1.0054 1.0070 1.0086 1.0096 1.0103
476.000000 1.0110 1.0117 1.0124 1.0130 1.0132
481.000000 1.0134 1.0137 1.0139 1.0141 1.0143
486.000000 1.0144 1.0144 1.0145 1.0145 1.0145
491.000000 1.0146 1.0146 1.0146 1.0146 1.0143
496.000000 1.0141 1.0139 1.0136 1.0134 1.0132
501.000000 1.0130 1.0124 1.0114 1.0104 1.0094
506.000000 1.0083 1.0073 1.0063 1.0051 1.0039
511.000000 1.0027 1.0015 1.0002 0.9991 0.9987
516.000000 0.9983 0.9978 0.9978 1.0001 1.0039
521.000000 1.0065 1.0088 1.0104 1.0118 1.0125
526.000000 1.0130 1.0132 1.0134 1.0134 1.0134
531.000000 1.0133 1.0131 1.0128 1.0125 1.0124
536.000000 1.0121 1.0121 1.0120 1.0118 1.0118
541.000000 1.0118 1.0120 1.0120 1.0124 1.0128
546.000000 1.0133 1.0137 1.0141 1.0143 1.0144
551.000000 1.0145 1.0146 1.0147 1.0146 1.0146
556.000000 1.0146 1.0145 1.0144 1.0143 1.0139
561.000000 1.0121 1.0104 1.0086 1.0065 1.0044
566.000000 1.0025 1.0018 1.0012 1.0005 1.0009
571.000000 1.0016 1.0030 1.0045 1.0065 1.0084
576.000000 1.0090 1.0095 1.0095 1.0092 1.0089
581.000000 1.0078 1.0067 1.0056 1.0042 1.0028
586.000000 1.0012 0.9992 0.9973 0.9949 0.9923
591.000000 0.9896 0.9844 0.9783 0.9716 0.9649
596.000000 0.9581 0.9471 0.9393 0.9315 0.9018
601.000000 0.8703 0.8388 0.8125 0.7980 0.7901
606.000000 0.7903 0.7871 0.8028 0.8264 0.8499
611.000000 0.8734 0.8968 0.9204 0.9350 0.9383
616.000000 0.9390 0.9386 0.9401 0.9341 0.9318
621.000000 0.9292 0.9258 0.9207 0.9148 0.9067
626.000000 0.9044 0.9003 0.9097 0.9136 0.9194
631.000000 0.9298 0.9416 0.9615 0.9818 0.9965
636.000000 1.0048 1.0096 1.0137 1.0168 1.0189
641.000000 1.0196 1.0216 1.0216 1.0216 1.0211
646.000000 1.0207 1.0202 1.0182 1.0157 1.0133
651.000000 1.0112 1.0092 1.0091 1.0090 1.0094
656.000000 1.0086 1.0078 1.0071 1.0064 1.0028
661.000000 0.9994 0.9945 0.9860 0.9414 0.8780
666.000000 0.8856 0.8796 0.9203 0.9375 0.9428
671.000000 0.9450 0.9477 0.9510 0.9543 0.9578
676.000000 0.9620 0.9670 0.9742 0.9877 1.0068
681.000000 1.0196 1.0264 1.0299 1.0333 1.0349
686.000000 1.0366 1.0381 1.0394 1.0407 1.0420
691.000000 1.0428 1.0436 1.0442 1.0449 1.0453
696.000000 1.0471 1.0458 1.0461 1.0464 1.0467
701.000000 1.0468 1.0468 1.0468 1.0467 1.0466
706.000000 1.0466 1.0465 1.0464 1.0461 1.0458
711.000000 1.0455 1.0452 1.0448 1.0445 1.0442
716.000000 1.0439 1.0435 1.0430 1.0425 1.0420
721.000000 1.0416 1.0411 1.0406 1.0401 1.0397
726.000000 1.0392 1.0385 1.0377 1.0368 1.0360
731.000000 1.0352 1.0344 1.0336 1.0328 1.0320
736.000000 1.0311 1.0303 1.0294 1.0286 1.0277
741.000000 1.0268 1.0261 1.0252 1.0244 1.0235
746.000000 1.0227 1.0221 1.0216 1.0211 1.0206
751.000000 1.0200 1.0195 1.0190 1.0185 1.0178
756.000000 1.0174 1.0168 1.0164 1.0160 1.0155
761.000000 1.0151 1.0147 1.0143 1.0139 1.0135
766.000000 1.0125 1.0115 1.0104 1.0092 1.0042
771.000000 0.9983 0.9957 0.9964 0.9983 1.0007
776.000000 1.0047 1.0083 1.0097 1.0106 1.0110
781.000000 1.0113 1.0114 1.0114 1.0114 1.0112
786.000000 1.0109 1.0107 1.0102 1.0098 1.0093
791.000000 1.0081 1.0065 1.0048 1.0028 1.0004
796.000000 0.9981 0.9957 0.9932 0.9907 0.9881
801.000000 0.9849 0.9812 0.9775 0.9738 0.9688
806.000000 0.9633 0.9573 0.9508 0.9204 0.8686
811.000000 0.8167 0.7648 0.7128 0.7117 0.7094
816.000000 0.7756 0.8140 0.8525 0.8909 0.9293
821.000000 0.9597 0.9575 0.9578 0.9557 0.9505
826.000000 0.9438 0.9366 0.9288 0.9197 0.9073
831.000000 0.8951 0.8856 0.8777 0.8702 0.8618
836.000000 0.8467 0.8271 0.8278 0.8466 0.8800
841.000000 0.9134 0.9468 0.9766 0.9891 0.9948
846.000000 0.9973 0.9977 0.9978 0.9997 0.9965
851.000000 0.9941 0.9911 0.9881 0.9849 0.9788
856.000000 0.9728 0.9670 0.9517 0.9361 0.9205
861.000000 0.9048 0.8892 0.8736 0.8646 0.8648
866.000000 0.8620 0.8811 0.9256 0.9586 0.9627
871.000000 0.9640 0.9639 0.9638 0.9632 0.9621
876.000000 0.9598 0.9571 0.9542 0.9513 0.9466
881.000000 0.9417 0.9340 0.9262 0.9181 0.9090
886.000000 0.8987 0.8857 0.8511 0.7765 0.7018
891.000000 0.6508 0.6538 0.6656 0.7060 0.7462
896.000000 0.7867 0.8271 0.8674 0.9078 0.9193
901.000000 0.9207 0.9218 0.9190 0.9162 0.9132
906.000000 0.9091 0.9042 0.8974 0.8825 0.8400
911.000000 0.7975 0.7551 0.7125 0.6701 0.6334
916.000000 0.6340 0.6642 0.7145 0.7648 0.8151
921.000000 0.8315 0.8306 0.8292 0.8258 0.8018
926.000000 0.7755 0.7492 0.7228 0.6965 0.6703
931.000000 0.6405 0.6431 0.6728 0.7198 0.7665
936.000000 0.8135 0.8489 0.8487 0.8460 0.8361
941.000000 0.8062 0.7764 0.7465 0.7167 0.6868
946.000000 0.6864 0.6872 0.7751 0.8186 0.8190
951.000000 0.7801 0.7431 0.7060 0.6690 0.6320
956.000000 0.5949 0.5579 0.5209 0.4838 0.4468
961.000000 0.4098 0.3728 0.3357 0.2987 0.2617
966.000000 0.2260 0.2281 0.2269 0.2898 0.3772
971.000000 0.4646 0.5520 0.6394 0.7268 0.7960
976.000000 0.8019 0.8033 0.8008 0.7993 0.7968
981.000000 0.7938 0.7886 0.7704 0.7553 0.7447
986.000000 0.7096 0.6701 0.6308 0.5914 0.5520
991.000000 0.5426 0.5405 0.5912 0.6162 0.6411
996.000000 0.6661 0.6888 0.6864 0.6851 0.6701
1001.000000 0.6496 0.6291 0.6085 0.5879 0.5674
1006.000000 0.5468 0.5322 0.5096 0.4774 0.4360
1011.000000 0.3884 0.3407 0.2788 0.2541 0.2445
1016.000000 0.2407 0.2399 0.2481 0.2591 0.2581
1021.000000 0.2569 0.2488 0.2277 0.2067 0.1856
1026.000000 0.1645 0.1531 0.1518 0.1535 0.2034
1031.000000 0.2439 0.2843 0.3248 0.3652 0.4057
1036.000000 0.4460 0.4866 0.5270 0.5665 0.5800
1041.000000 0.5902 0.5969 0.6012 0.6043 0.6075
1046.000000 0.6121 0.6173 0.6229 0.6288 0.6366
1051.000000 0.6556 0.6711 0.6868 0.6922 0.6968
1056.000000 0.6951 0.6951 0.6942 0.6900 0.6778
1061.000000 0.6626 0.6486 0.6492 0.6457 0.6715
1066.000000 0.6995 0.7307 0.7482 0.7594 0.7701
1071.000000 0.7808 0.7972 0.8099 0.8193 0.8251
1076.000000 0.8294 0.8333 0.8358 0.8383 0.8404
1081.000000 0.8406 0.8408 0.8437 0.8405 0.8403
1086.000000 0.8395 0.8378 0.8355 0.8324 0.8300
1091.000000 0.8290 0.8294 0.8306 0.8321 0.8335
1096.000000 0.8342 0.8343 0.8302 0.8188 0.8104
1101.000000 0.8011 0.7922 0.7871 0.7858 0.7818
1106.000000 0.7944 0.8292 0.8447 0.8521 0.8560
1111.000000 0.8587 0.8599 0.8598 0.8596 0.8592
1116.000000 0.8587 0.8601 0.8570 0.8555 0.8538
1121.000000 0.8515 0.8486 0.8452 0.8413 0.8352
1126.000000 0.8291 0.8216 0.8131 0.7978 0.7547
1131.000000 0.7075 0.6605 0.6133 0.5800 0.5859
1136.000000 0.5986 0.6112 0.6124 0.5927 0.5548
1141.000000 0.5169 0.4791 0.4457 0.4260 0.4048
1146.000000 0.3830 0.3520 0.3138 0.2757 0.2375
1151.000000 0.2238 0.2288 0.3185 0.4056 0.4925
1156.000000 0.5795 0.6665 0.7375 0.7568 0.7648
1161.000000 0.7660 0.7667 0.7688 0.7654 0.7639
1166.000000 0.7615 0.7565 0.7474 0.7208 0.6954
1171.000000 0.6824 0.6784 0.6812 0.7085 0.7405
1176.000000 0.7568 0.7591 0.7606 0.7610 0.7600
1181.000000 0.7587 0.7565 0.7521 0.7468 0.7392
1186.000000 0.7312 0.7226 0.7101 0.6982 0.6878
1191.000000 0.6761 0.5581 0.4989 0.4398 0.3807
1196.000000 0.3214 0.2624 0.2033 0.1717 0.1748
1201.000000 0.1929 0.2424 0.2918 0.3412 0.3905
1206.000000 0.4399 0.4893 0.5272 0.5262 0.5256
1211.000000 0.5210 0.5078 0.4635 0.4191 0.3747
1216.000000 0.3304 0.2860 0.2417 0.1973 0.1790
1221.000000 0.1790 0.1767 0.2412 0.2770 0.2834
1226.000000 0.2833 0.2832 0.2362 0.2088 0.1814
1231.000000 0.1541 0.1298 0.1085 0.0849 0.0181
1236.000000 0.0000 0.0000 0.0000 0.0000 0.0000
1241.000000 0.0000 0.0000 0.0000 0.0000 0.0000
1246.000000 0.0000 0.0000 0.0016 0.0037 0.0072
1251.000000 0.0162 0.0251 0.0355 0.0456 0.0585
1256.000000 0.0735 0.0876 0.1124 0.1371 0.1619
1261.000000 0.1866 0.2114 0.2361 0.2609 0.2856
1266.000000 0.3034 0.3159 0.3280 0.3409 0.3538
1271.000000 0.3595 0.3650 0.3690 0.3718 0.3747
1276.000000 0.3775 0.3804 0.3998 0.4326 0.4520
1281.000000 0.4619 0.4699 0.4784 0.4868 0.4998
1286.000000 0.5192 0.5449 0.5643 0.5812 0.6299
1291.000000 0.6815 0.6971 0.7175 0.7278 0.7330
1296.000000 0.7382 0.7404 0.7422 0.7443 0.7481
1301.000000 0.7553 0.7689 0.7735 0.7756 0.7767
1306.000000 0.7778 0.7790 0.7801 0.7808 0.7814
1311.000000 0.7818 0.7824 0.7812 0.7801 0.7788
1316.000000 0.7775 0.7757 0.7734 0.7710 0.7675
1321.000000 0.7633 0.7619 0.7549 0.7507 0.7465
1326.000000 0.7425 0.7387 0.7347 0.7298 0.7250
1331.000000 0.7201 0.7158 0.7115 0.7072 0.7055
1336.000000 0.7040 0.7025 0.7010 0.7003 0.6997
1341.000000 0.6991 0.6987 0.6985 0.6983 0.6981
1346.000000 0.6980 0.6978 0.6975 0.6971 0.6967
1351.000000 0.6936 0.6600 0.6232 0.5862 0.5495
1356.000000 0.5126 0.4757 0.4389 0.4020 0.3650
1361.000000 0.3005 0.3014 0.3022 0.3293 0.3618
1366.000000 0.3621 0.3605 0.3318 0.2890 0.2462
1371.000000 0.2033 0.1604 0.1173 0.1082 0.1045
1376.000000 0.1044 0.1022 0.1064 0.1478 0.1904
1381.000000 0.2331 0.2757 0.3184 0.3609 0.4036
1386.000000 0.4378 0.4399 0.4238 0.3957 0.3841
1391.000000 0.5467 0.5857 0.6266 0.6508 0.6851
1396.000000 0.7037 0.7218 0.7371 0.7494 0.7568
1401.000000 0.7634 0.7681 0.7717 0.7745 0.7758
1406.000000 0.7771 0.7774 0.7791 0.7765 0.7756
1411.000000 0.7732 0.7703 0.7668 0.7628 0.7585
1416.000000 0.7521 0.7458 0.7378 0.7289 0.7208
1421.000000 0.7139 0.7068 0.6995 0.6919 0.6844
1426.000000 0.6768 0.6691 0.6612 0.6535 0.6436
1431.000000 0.6336 0.6221 0.6058 0.5869 0.5684
1436.000000 0.5570 0.5558 0.5562 0.5570 0.5578
1441.000000 0.5575 0.5371 0.5008 0.4645 0.4282
1446.000000 0.3918 0.3556 0.3445 0.3548 0.3939
1451.000000 0.4331 0.4540 0.4552 0.4221 0.3859
1456.000000 0.3498 0.3137 0.2837 0.2844 0.2849
1461.000000 0.3286 0.3558 0.3830 0.4103 0.4375
1466.000000 0.4647 0.4919 0.5192 0.5464 0.5765
1471.000000 0.5743 0.5738 0.5562 0.5348 0.5134
1476.000000 0.4920 0.4706 0.4591 0.4605 0.6128
1481.000000 0.6205 0.6403 0.6760 0.7453 0.7971
1486.000000 0.8131 0.8293 0.8459 0.8537 0.8609
1491.000000 0.8670 0.8706 0.8741 0.8777 0.8812
1496.000000 0.8845 0.8867 0.8888 0.8910 0.8932
1501.000000 0.8954 0.8968 0.8980 0.8993 0.9005
1506.000000 0.9017 0.9030 0.9040 0.9046 0.9052
1511.000000 0.9058 0.9064 0.9070 0.9075 0.9081
1516.000000 0.9087 0.9092 0.9097 0.9132 0.9185
1521.000000 0.9233 0.9278 0.9318 0.9353 0.9381
1526.000000 0.9398 0.9416 0.9433 0.9447 0.9456
1531.000000 0.9466 0.9475 0.9484 0.9491 0.9494
1536.000000 0.9498 0.9502 0.9506 0.9509 0.9513
1541.000000 0.9516 0.9520 0.9523 0.9527 0.9530
1546.000000 0.9534 0.9537 0.9541 0.9542 0.9542
1551.000000 0.9541 0.9540 0.9539 0.9538 0.9537
1556.000000 0.9535 0.9533 0.9531 0.9528 0.9527
1561.000000 0.9524 0.9521 0.9517 0.9512 0.9507
1566.000000 0.9502 0.9497 0.9491 0.9486 0.9481
1571.000000 0.9475 0.9471 0.9468 0.9466 0.9463
1576.000000 0.9460 0.9460 0.9461 0.9461 0.9461
1581.000000 0.9462 0.9462 0.9461 0.9458 0.9456
1586.000000 0.9454 0.9452 0.9444 0.9434 0.9425
1591.000000 0.9415 0.9406 0.9397 0.9387 0.9378
1596.000000 0.9368 0.9360 0.9350 0.9341 0.9332
1601.000000 0.9321 0.9312 0.9301 0.9291 0.9280
1606.000000 0.9270 0.9259 0.9249 0.9238 0.9228
1611.000000 0.9217 0.9206 0.9195 0.9186 0.9174
1616.000000 0.9163 0.9152 0.9141 0.9130 0.9120
1621.000000 0.9108 0.9097 0.9086 0.9074 0.9063
1626.000000 0.9051 0.9040 0.9028 0.9017 0.9006
1631.000000 0.8994 0.8983 0.8971 0.8960 0.8948
1636.000000 0.8936 0.8925 0.8913 0.8901 0.8890
1641.000000 0.8878 0.8866 0.8852 0.8837 0.8823
1646.000000 0.8808 0.8793 0.8778 0.8764 0.8750
1651.000000 0.8737 0.8725 0.8716 0.8705 0.8694
1656.000000 0.8685 0.8681 0.8675 0.8671 0.8668
1661.000000 0.8663 0.8659 0.8655 0.8651 0.8645
1666.000000 0.8633 0.8621 0.8600 0.8570 0.8533
1671.000000 0.8478 0.8412 0.8338 0.8275 0.8221
1676.000000 0.8167 0.8112 0.8061 0.8008 0.7957
1681.000000 0.7890 0.7808 0.7728 0.7651 0.7582
1686.000000 0.7511 0.7443 0.7374 0.7300 0.7197
1691.000000 0.7094 0.6991 0.6886 0.6778 0.6678
1696.000000 0.6593 0.6508 0.6442 0.6381 0.6314
1701.000000 0.6246 0.6179 0.6103 0.6023 0.5942
1706.000000 0.5857 0.5767 0.5677 0.5584 0.5460
1711.000000 0.5339 0.5192 0.5030 0.4870 0.4710
1716.000000 0.4560 0.4416 0.4255 0.3956 0.1695
1721.000000 0.1532 0.1386 0.1262 0.1114 0.0924
1726.000000 0.0655 0.0456 0.0282 0.0194 0.0116
1731.000000 0.0054 0.0037 0.0035 0.0040 0.0018
1736.000000 0.0049 0.0056 0.0063 0.0077 0.0101
1741.000000 0.0152 0.0413 0.0787 0.1161 0.1536
1746.000000 0.1910 0.2284 0.2658 0.2902 0.5327
1751.000000 0.5637 0.6298 0.6487 0.6769 0.6962
1756.000000 0.7121 0.7246 0.7369 0.7468 0.7567
1761.000000 0.7676 0.7789 0.7946 0.8017 0.8080
1766.000000 0.8137 0.8199 0.8277 0.8335 0.8367
1771.000000 0.8399 0.8428 0.8459 0.8490 0.8523
1776.000000 0.8556 0.8588 0.8613 0.8638 0.8662
1781.000000 0.8687 0.8711 0.8733 0.8756 0.8778
1786.000000 0.8801 0.8821 0.8840 0.8859 0.8878
1791.000000 0.8897 0.8916 0.8932 0.8947 0.8962
1796.000000 0.8977 0.8992 0.9007 0.9021 0.9035
1801.000000 0.9050 0.9064 0.9075 0.9086 0.9096
1806.000000 0.9106 0.9116 0.9125 0.9133 0.9139
1811.000000 0.9144 0.9150 0.9156 0.9162 0.9166
1816.000000 0.9168 0.9173 0.9175 0.9180 0.9183
1821.000000 0.9186 0.9190 0.9196 0.9204 0.9212
1826.000000 0.9220 0.9228 0.9238 0.9249 0.9261
1831.000000 0.9273 0.9283 0.9292 0.9302 0.9312
1836.000000 0.9321 0.9331 0.9339 0.9346 0.9353
1841.000000 0.9360 0.9367 0.9373 0.9378 0.9384
1846.000000 0.9390 0.9396 0.9402 0.9408 0.9414
1851.000000 0.9418 0.9421 0.9425 0.9428 0.9432
1856.000000 0.9435 0.9439 0.9442 0.9446 0.9449
1861.000000 0.9452 0.9455 0.9457 0.9460 0.9462
1866.000000 0.9465 0.9467 0.9470 0.9471 0.9475
1871.000000 0.9475 0.9477 0.9478 0.9478 0.9480
1876.000000 0.9481 0.9482 0.9483 0.9484 0.9485
1881.000000 0.9487 0.9489 0.9491 0.9494 0.9496
1886.000000 0.9499 0.9501 0.9504 0.9506 0.9509
1891.000000 0.9511 0.9514 0.9516 0.9518 0.9521
1896.000000 0.9524 0.9525 0.9528 0.9532 0.9534
1901.000000 0.9537 0.9540 0.9542 0.9545 0.9548
1906.000000 0.9550 0.9553 0.9556 0.9558 0.9561
1911.000000 0.9565 0.9568 0.9571 0.9575 0.9578
1916.000000 0.9583 0.9587 0.9590 0.9594 0.9598
1921.000000 0.9601 0.9605 0.9609 0.9612 0.9616
1926.000000 0.9620 0.9623 0.9627 0.9631 0.9636
1931.000000 0.9640 0.9644 0.9648 0.9652 0.9656
1936.000000 0.9661 0.9665 0.9668 0.9673 0.9677
1941.000000 0.9682 0.9684 0.9686 0.9687 0.9689
1946.000000 0.9691 0.9692 0.9694 0.9696 0.9698
1951.000000 0.9699 0.9701 0.9703 0.9705 0.9706
1956.000000 0.9706 0.9706 0.9705 0.9704 0.9703
1961.000000 0.9702 0.9701 0.9700 0.9699 0.9698
1966.000000 0.9697 0.9696 0.9695 0.9694 0.9693
1971.000000 0.9693 0.9692 0.9691 0.9691 0.9690
1976.000000 0.9689 0.9689 0.9688 0.9688 0.9687
1981.000000 0.9687 0.9688 0.9689 0.9690 0.9692
1986.000000 0.9693 0.9695 0.9696 0.9698 0.9701
1991.000000 0.9704 0.9707 0.9710 0.9725 0.9748
1996.000000 0.9770 0.9792 0.9814 0.9837 0.9859
2001.000000 0.9881 0.9903 0.9914 0.9925 0.9937
2006.000000 0.9948 0.9959 0.9970 0.9981 0.9992
2011.000000 0.9994 0.9996 0.9996 0.9996 0.9995
2016.000000 0.9995 0.9994 0.9994 0.9993 0.9993
2021.000000 0.9993 0.9994 0.9994 0.9994 0.9994
2026.000000 0.9994 0.9994 0.9994 0.9994 0.9994
2031.000000 0.9993 0.9993 0.9993 0.9993 0.9992
2036.000000 0.9992 0.9992 0.9992 0.9991 0.9991
2041.000000 0.9990 0.9990 0.9989 0.9989 0.9989
2046.000000 0.9989 0.9988 0.9988 0.9987 0.9987
2051.000000 0.9987 0.9987 0.9986 0.9986 0.9987
2056.000000 0.9988 0.9989 0.9990 0.9991 0.9992
2061.000000 0.9993 0.9994 0.9995 0.9996 0.9997
2066.000000 0.9998 0.9998 0.9999 1.0000 1.0000
2071.000000 1.0000 1.0000 1.0000 1.0000 1.0000
2076.000000 1.0000 1.0000 1.0000 0.9999 0.9999
2081.000000 0.9999 0.9999 0.9999 0.9999 0.9999
2086.000000 0.9999 0.9999 0.9999 0.9999 1.0000
2091.000000 1.0000 1.0000 1.0000 1.0000 1.0000
2096.000000 1.0000 1.0000 1.0000 1.0000 1.0000
2101.000000 0.9999 0.9999 0.9998 0.9998 0.9997
2106.000000 0.9997 0.9996 0.9996 0.9995 0.9995
2111.000000 0.9994 0.9994 0.9991 0.9989 0.9987
2116.000000 0.9985 0.9983 0.9981 0.9978 0.9975
2121.000000 0.9971 0.9968 0.9963 0.9959 0.9954
2126.000000 0.9950 0.9945 0.9941 0.9936 0.9932
2131.000000 0.9927 0.9923 0.9918 0.9916 0.9913
2136.000000 0.9911 0.9908 0.9906 0.9903 0.9900
2141.000000 0.9898 0.9896 0.9896 0.9896 0.9896
2146.000000 0.9896 0.9896 0.9897 0.9902 0.9908
2151.000000 0.9914 0.9920 0.9925 0.9933 0.9938
2156.000000 0.9944 0.9949 0.9954 0.9959 0.9965
2161.000000 0.9966 0.9968 0.9970 0.9973 0.9975
2166.000000 0.9978 0.9980 0.9982 0.9984 0.9987
2171.000000 0.9987 0.9988 0.9988 0.9989 0.9989
2176.000000 0.9989 0.9989 0.9990 0.9990 0.9991
2181.000000 0.9991 0.9992 0.9992 0.9993 0.9993
2186.000000 0.9994 0.9994 0.9995 0.9995 0.9996
2191.000000 0.9996 0.9997 0.9998 0.9999 0.9999
2196.000000 1.0000 1.0000 1.0001 1.0001 1.0002
2201.000000 1.0003 1.0004 1.0004 1.0004 1.0004
2206.000000 1.0004 1.0004 1.0004 1.0004 1.0004
2211.000000 1.0004 1.0004 1.0003 1.0003 1.0003
2216.000000 1.0003 1.0003 1.0003 1.0003 1.0003
2221.000000 1.0003 1.0004 1.0004 1.0004 1.0004
2226.000000 1.0005 1.0005 1.0006 1.0006 1.0006
2231.000000 1.0006 1.0007 1.0007 1.0007 1.0007
2236.000000 1.0008 1.0008 1.0009 1.0009 1.0009
2241.000000 1.0009 1.0010 1.0010 1.0011 1.0011
2246.000000 1.0011 1.0011 1.0011 1.0011 1.0011
2251.000000 1.0011 1.0011 1.0011 1.0011 1.0011
2256.000000 1.0011 1.0011 1.0011 1.0011 1.0011
2261.000000 1.0010 1.0010 1.0010 1.0010 1.0010
2266.000000 1.0010 1.0010 1.0010 1.0010 1.0010
2271.000000 1.0011 1.0012 1.0012 1.0013 1.0014
2276.000000 1.0015 1.0015 1.0016 1.0017 1.0018
2281.000000 1.0018 1.0018 1.0020 1.0021 1.0021
2286.000000 1.0024 1.0025 1.0027 1.0028 1.0030
2291.000000 1.0031 1.0032 1.0033 1.0032 1.0031
2296.000000 1.0028 1.0021 1.0017 1.0005 0.9994
2301.000000 0.9988 0.9983 0.9980 0.9978 0.9975
2306.000000 0.9973 0.9970 0.9968 0.9965 0.9963
2311.000000 0.9961 0.9959 0.9957 0.9956 0.9954
2316.000000 0.9952 0.9950 0.9949 0.9947 0.9946
2321.000000 0.9945 0.9945 0.9944 0.9944 0.9943
2326.000000 0.9942 0.9941 0.9941 0.9940 0.9940
2331.000000 0.9940 0.9940 0.9939 0.9939 0.9939
2336.000000 0.9939 0.9938 0.9938 0.9938 0.9938
2341.000000 0.9937 0.9937 0.9937 0.9937 0.9936
2346.000000 0.9936 0.9936 0.9936 0.9935 0.9935
2351.000000 0.9934 0.9934 0.9934 0.9934 0.9933
2356.000000 0.9933 0.9932 0.9932 0.9932 0.9932
2361.000000 0.9931 0.9931 0.9930 0.9930 0.9930
2366.000000 0.9930 0.9928 0.9928 0.9928 0.9928
2371.000000 0.9928 0.9928 0.9927 0.9927 0.9925
2376.000000 0.9925 0.9925 0.9924 0.9923 0.9923
2381.000000 0.9921 0.9921 0.9920 0.9920 0.9918
2386.000000 0.9918 0.9917 0.9916 0.9915 0.9915
2391.000000 0.9914 0.9913 0.9912 0.9912 0.9911
2396.000000 0.9910 0.9909 0.9909 0.9908 0.9908
2401.000000 0.9907 0.9907 0.9906 0.9906 0.9905
2406.000000 0.9905 0.9905 0.9905 0.9904 0.9904
2411.000000 0.9903 0.9903 0.9902 0.9902 0.9901
2416.000000 0.9901 0.9900 0.9900 0.9898 0.9897
2421.000000 0.9895 0.9894 0.9892 0.9891 0.9889
2426.000000 0.9888 0.9886 0.9885 0.9883 0.9882
2431.000000 0.9880 0.9878 0.9877 0.9875 0.9874
2436.000000 0.9873 0.9871 0.9870 0.9868 0.9867
2441.000000 0.9863 0.9860 0.9856 0.9853 0.9849
2446.000000 0.9846 0.9843 0.9840 0.9836 0.9833
2451.000000 0.9828 0.9825 0.9823 0.9820 0.9816
2456.000000 0.9812 0.9808 0.9804 0.9799 0.9795
2461.000000 0.9791 0.9787 0.9782 0.9778 0.9773
2466.000000 0.9768 0.9768 0.9767 0.9767 0.9768
2471.000000 0.9768 0.9768 0.9768 0.9768 0.9771
2476.000000 0.9775 0.9778 0.9783 0.9786 0.9790
2481.000000 0.9793 0.9797 0.9800 0.9804 0.9808
2486.000000 0.9812 0.9816 0.9820 0.9824 0.9828
2491.000000 0.9832 0.9836 0.9840 0.9844 0.9848
2496.000000 0.9853 0.9856 0.9859 0.9861 0.9864
2501.000000 0.9866 0.9868 0.9871 0.9874 0.9877
2506.000000 0.9880 0.9881 0.9882 0.9882 0.9883
2511.000000 0.9884 0.9885 0.9885 0.9885 0.9885
2516.000000 0.9885 0.9884 0.9884 0.9884 0.9884
2521.000000 0.9883 0.9882 0.9878 0.9877 0.9875
2526.000000 0.9873 0.9870 0.9868 0.9865 0.9863
2531.000000 0.9860 0.9858 0.9856 0.9854 0.9851
2536.000000 0.9849 0.9846 0.9843 0.9840 0.9837
2541.000000 0.9834 0.9831 0.9828 0.9825 0.9821
2546.000000 0.9818 0.9816 0.9813 0.9808 0.9803
2551.000000 0.9798 0.9793 0.9788 0.9783 0.9778
2556.000000 0.9774 0.9768 0.9764 0.9759 0.9754
2561.000000 0.9749 0.9744 0.9739 0.9735 0.9730
2566.000000 0.9725 0.9721 0.9717 0.9712 0.9708
2571.000000 0.9703 0.9699 0.9694 0.9690 0.9685
2576.000000 0.9681 0.9675 0.9671 0.9667 0.9663
2581.000000 0.9658 0.9654 0.9649 0.9645 0.9640
2586.000000 0.9636 0.9632 0.9628 0.9625 0.9621
2591.000000 0.9618 0.9615 0.9611 0.9608 0.9604
2596.000000 0.9601 0.9597 0.9594 0.9590 0.9587
2601.000000 0.9583 0.9580 0.9578 0.9575 0.9573
2606.000000 0.9571 0.9568 0.9566 0.9563 0.9561
2611.000000 0.9559 0.9557 0.9554 0.9552 0.9549
2616.000000 0.9547 0.9546 0.9545 0.9544 0.9543
2621.000000 0.9542 0.9542 0.9541 0.9540 0.9539
2626.000000 0.9539 0.9538 0.9538 0.9537 0.9536
2631.000000 0.9535 0.9535 0.9534 0.9534 0.9534
2636.000000 0.9534 0.9533 0.9533 0.9533 0.9533
2641.000000 0.9533 0.9534 0.9534 0.9535 0.9535
2646.000000 0.9536 0.9536 0.9537 0.9537 0.9538
2651.000000 0.9538 0.9538 0.9538 0.9538 0.9537
2656.000000 0.9536 0.9535 0.9535 0.9534 0.9534
2661.000000 0.9533 0.9533 0.9532 0.9532 0.9531
2666.000000 0.9531 0.9530 0.9530 0.9528 0.9528
2671.000000 0.9527 0.9525 0.9525 0.9524 0.9523
2676.000000 0.9521 0.9520 0.9518 0.9518 0.9517
2681.000000 0.9515 0.9514 0.9513 0.9512 0.9510
2686.000000 0.9508 0.9504 0.9500 0.9496 0.9492
2691.000000 0.9488 0.9484 0.9480 0.9475 0.9466
2696.000000 0.9457 0.9446 0.9436 0.9425 0.9414
2701.000000 0.9398 0.9382 0.9362 0.9343 0.9316
2706.000000 0.9290 0.9263 0.9236 0.9208 0.9181
2711.000000 0.9167 0.9154 0.9147 0.9146 0.9145
2716.000000 0.9155 0.9159 0.9168 0.9188 0.9208
2721.000000 0.9234 0.9260 0.9283 0.9306 0.9325
2726.000000 0.9347 0.9367 0.9387 0.9396 0.9405
2731.000000 0.9412 0.9418 0.9418 0.9418 0.9415
2736.000000 0.9413 0.9408 0.9403 0.9398 0.9394
2741.000000 0.9388 0.9382 0.9378 0.9374 0.9371
2746.000000 0.9368 0.9368 0.9367 0.9367 0.9367
2751.000000 0.9370 0.9373 0.9375 0.9378 0.9378
2756.000000 0.9378 0.9378 0.9378 0.9377 0.9373
2761.000000 0.9374 0.9371 0.9368 0.9366 0.9363
2766.000000 0.9361 0.9356 0.9352 0.9343 0.9335
2771.000000 0.9325 0.9315 0.9300 0.9285 0.9270
2776.000000 0.9255 0.9240 0.9225 0.9208 0.9192
2781.000000 0.9171 0.9153 0.9137 0.9121 0.9107
2786.000000 0.9093 0.9078 0.9066 0.9051 0.9037
2791.000000 0.9021 0.9005 0.8988 0.8971 0.8954
2796.000000 0.8936 0.8915 0.8895 0.8875 0.8855
2801.000000 0.8828 0.8804 0.8768 0.8732 0.8696
2806.000000 0.8660 0.8617 0.8574 0.8528 0.8485
2811.000000 0.8439 0.8393 0.8347 0.8301 0.8254
2816.000000 0.8207 0.8158 0.8111 0.8062 0.8015
2821.000000 0.7964 0.7914 0.7860 0.7806 0.7725
2826.000000 0.7647 0.7541 0.7436 0.7006 0.6575
2831.000000 0.6142 0.5708 0.5274 0.4840 0.4406
2836.000000 0.3168 0.3580 0.3189 0.3226 0.3264
2841.000000 0.3368 0.3472 0.3575 0.3679 0.3782
2846.000000 0.3886 0.3990 0.4094 0.4168 0.4242
2851.000000 0.4239 0.4300 0.4076 0.3916 0.3689
2856.000000 0.3462 0.3234 0.3007 0.2779 0.2552
2861.000000 0.2324 0.2097 0.1941 0.1785 0.1839
2866.000000 0.1893 0.2091 0.1749 0.2485 0.2684
2871.000000 0.2881 0.3079 0.3206 0.3334 0.3332
2876.000000 0.3332 0.3318 0.3352 0.3274 0.3244
2881.000000 0.3216 0.3188 0.3169 0.3151 0.3132
2886.000000 0.3113 0.3088 0.3063 0.3034 0.3005
2891.000000 0.2978 0.2952 0.2914 0.2877 0.2830
2896.000000 0.2783 0.2723 0.2664 0.2585 0.2509
2901.000000 0.2385 0.2263 0.2007 0.1752 0.1537
2906.000000 0.1323 0.1213 0.1103 0.1006 0.0909
2911.000000 0.0854 0.0800 0.0762 0.0725 0.0719
2916.000000 0.0713 0.0713 0.0677 0.0720 0.0726
2921.000000 0.0735 0.0744 0.0754 0.0764 0.0785
2926.000000 0.0807 0.0826 0.0846 0.0866 0.0886
2931.000000 0.0906 0.0926 0.0939 0.0953 0.0947
2936.000000 0.0969 0.0914 0.0884 0.0856 0.0829
2941.000000 0.0796 0.0763 0.0673 0.0583 0.0524
2946.000000 0.0465 0.0456 0.0447 0.0453 0.0442
2951.000000 0.0465 0.0471 0.0479 0.0488 0.0498
2956.000000 0.0508 0.0521 0.0534 0.0556 0.0578
2961.000000 0.0605 0.0632 0.0693 0.0755 0.0922
2966.000000 0.1091 0.1246 0.1401 0.1440 0.1479
2971.000000 0.1513 0.1548 0.1877 0.2207 0.2613
2976.000000 0.3019 0.3425 0.3830 0.4237 0.4643
2981.000000 0.5049 0.5455 0.5688 0.5922 0.6016
2986.000000 0.6110 0.6394 0.6676 0.6795 0.6912
2991.000000 0.7075 0.7239 0.7354 0.7469 0.7576
2996.000000 0.7684 0.7784 0.7884 0.7975 0.8067
3001.000000 0.8175 0.8283 0.8356 0.8428 0.8477
3006.000000 0.8525 0.8551 0.8575 0.8595 0.8615
3011.000000 0.8634 0.8653 0.8671 0.8692 0.8710
3016.000000 0.8728 0.8746 0.8764 0.8782 0.8801
3021.000000 0.8820 0.8839 0.8858 0.8877 0.8896
3026.000000 0.8915 0.8931 0.8947 0.8962 0.8978
3031.000000 0.8993 0.9008 0.9023 0.9039 0.9054
3036.000000 0.9070 0.9084 0.9098 0.9111 0.9124
3041.000000 0.9136 0.9149 0.9162 0.9175 0.9187
3046.000000 0.9200 0.9211 0.9223 0.9234 0.9245
3051.000000 0.9256 0.9268 0.9278 0.9290 0.9301
3056.000000 0.9312 0.9318 0.9325 0.9332 0.9339
3061.000000 0.9345 0.9352 0.9359 0.9366 0.9371
3066.000000 0.9378 0.9383 0.9388 0.9392 0.9396
3071.000000 0.9400 0.9404 0.9408 0.9412 0.9415
3076.000000 0.9418 0.9423 0.9427 0.9430 0.9434
3081.000000 0.9435 0.9437 0.9438 0.9440 0.9441
3086.000000 0.9443 0.9444 0.9446 0.9447 0.9449
3091.000000 0.9450 0.9452 0.9453 0.9454 0.9454
3096.000000 0.9455 0.9456 0.9457 0.9458 0.9459
3101.000000 0.9459 0.9460 0.9461 0.9461 0.9461
3106.000000 0.9460 0.9459 0.9458 0.9457 0.9456
3111.000000 0.9455 0.9454 0.9453 0.9452 0.9451
3116.000000 0.9450 0.9449 0.9448 0.9446 0.9444
3121.000000 0.9442 0.9441 0.9439 0.9438 0.9436
3126.000000 0.9435 0.9433 0.9432 0.9430 0.9428
3131.000000 0.9427 0.9425 0.9423 0.9421 0.9420
3136.000000 0.9418 0.9416 0.9415 0.9413 0.9411
3141.000000 0.9409 0.9407 0.9405 0.9404 0.9402
3146.000000 0.9401 0.9399 0.9398 0.9396 0.9395
3151.000000 0.9393 0.9392 0.9390 0.9389 0.9388
3156.000000 0.9388 0.9388 0.9388 0.9388 0.9389
3161.000000 0.9389 0.9389 0.9390 0.9391 0.9391
3166.000000 0.9392 0.9394 0.9396 0.9398 0.9401
3171.000000 0.9404 0.9407 0.9410 0.9413 0.9415
3176.000000 0.9418 0.9421 0.9424 0.9427 0.9430
3181.000000 0.9433 0.9436 0.9438 0.9441 0.9444
3186.000000 0.9447 0.9450 0.9453 0.9456 0.9459
3191.000000 0.9463 0.9467 0.9470 0.9474 0.9477
3196.000000 0.9481 0.9484 0.9488 0.9491 0.9495
3201.000000 0.9498 0.9501 0.9504 0.9507 0.9510
3206.000000 0.9513 0.9515 0.9518 0.9521 0.9524
3211.000000 0.9525 0.9528 0.9532 0.9535 0.9537
3216.000000 0.9540 0.9542 0.9544 0.9545 0.9547
3221.000000 0.9548 0.9550 0.9551 0.9553 0.9554
3226.000000 0.9556 0.9557 0.9559 0.9560 0.9562
3231.000000 0.9563 0.9565 0.9567 0.9568 0.9568
3236.000000 0.9568 0.9568 0.9568 0.9568 0.9570
3241.000000 0.9570 0.9570 0.9570 0.9570 0.9570
3246.000000 0.9571 0.9571 0.9571 0.9571 0.9571
3251.000000 0.9571 0.9571 0.9571 0.9571 0.9571
3256.000000 0.9571 0.9571 0.9571 0.9571 0.9571
3261.000000 0.9571 0.9571 0.9570 0.9570 0.9570
3266.000000 0.9570 0.9568 0.9568 0.9568 0.9568
3271.000000 0.9568 0.9568 0.9568 0.9568 0.9568
3276.000000 0.9568 0.9567 0.9567 0.9567 0.9567
3281.000000 0.9567 0.9567 0.9566 0.9566 0.9566
3286.000000 0.9566 0.9566 0.9566 0.9566 0.9566
3291.000000 0.9565 0.9565 0.9565 0.9565 0.9565
3296.000000 0.9565 0.9565 0.9565 0.9565 0.9565
3301.000000 0.9564 0.9564 0.9564 0.9564 0.9564
3306.000000 0.9564 0.9564 0.9564 0.9564 0.9564
3311.000000 0.9564 0.9564 0.9564 0.9564 0.9564
3316.000000 0.9564 0.9564 0.9564 0.9564 0.9564
3321.000000 0.9564 0.9564 0.9564 0.9564 0.9564
3326.000000 0.9564 0.9564 0.9564 0.9564 0.9564
3331.000000 0.9564 0.9564 0.9564 0.9565 0.9565
3336.000000 0.9565 0.9565 0.9565 0.9565 0.9565
3341.000000 0.9565 0.9565 0.9565 0.9565 0.9565
3346.000000 0.9565 0.9564 0.9564 0.9563 0.9563
3351.000000 0.9562 0.9562 0.9561 0.9561 0.9560
3356.000000 0.9560 0.9559 0.9559 0.9558 0.9558
3361.000000 0.9557 0.9557 0.9556 0.9556 0.9555
3366.000000 0.9555 0.9554 0.9554 0.9553 0.9553
3371.000000 0.9552 0.9552 0.9551 0.9551 0.9550
3376.000000 0.9550 0.9549 0.9549 0.9547 0.9545
3381.000000 0.9543 0.9542 0.9540 0.9538 0.9536
3386.000000 0.9535 0.9533 0.9531 0.9528 0.9527
3391.000000 0.9525 0.9524 0.9521 0.9520 0.9518
3396.000000 0.9517 0.9514 0.9512 0.9509 0.9507
3401.000000 0.9504 0.9501 0.9498 0.9496 0.9493
3406.000000 0.9491 0.9488 0.9485 0.9482 0.9480
3411.000000 0.9477 0.9475 0.9471 0.9468 0.9464
3416.000000 0.9459 0.9453 0.9448 0.9442 0.9436
3421.000000 0.9430 0.9425 0.9418 0.9413 0.9407
3426.000000 0.9402 0.9396 0.9391 0.9385 0.9380
3431.000000 0.9375 0.9370 0.9365 0.9360 0.9354
3436.000000 0.9349 0.9345 0.9342 0.9338 0.9335
3441.000000 0.9333 0.9333 0.9334 0.9323 0.9337
3446.000000 0.9339 0.9341 0.9343 0.9354 0.9366
3451.000000 0.9378 0.9392 0.9402 0.9413 0.9425
3456.000000 0.9440 0.9455 0.9470 0.9484 0.9499
3461.000000 0.9514 0.9530 0.9545 0.9561 0.9574
3466.000000 0.9588 0.9602 0.9616 0.9630 0.9644
3471.000000 0.9653 0.9663 0.9671 0.9678 0.9688
3476.000000 0.9698 0.9708 0.9718 0.9724 0.9728
3481.000000 0.9734 0.9739 0.9743 0.9747 0.9750
3486.000000 0.9754 0.9757 0.9761 0.9762 0.9763
3491.000000 0.9764 0.9766 0.9767 0.9768 0.9770
3496.000000 0.9771 0.9771 0.9774 0.9774 0.9775
3501.000000 0.9775 0.9775 0.9775 0.9775 0.9775
3506.000000 0.9775 0.9775 0.9775 0.9777 0.9778
3511.000000 0.9778 0.9780 0.9781 0.9782 0.9783
3516.000000 0.9784 0.9785 0.9786 0.9787 0.9789
3521.000000 0.9790 0.9791 0.9792 0.9793 0.9794
3526.000000 0.9795 0.9796 0.9798 0.9799 0.9800
3531.000000 0.9802 0.9805 0.9807 0.9810 0.9812
3536.000000 0.9815 0.9817 0.9820 0.9821 0.9825
3541.000000 0.9827 0.9830 0.9833 0.9836 0.9838
3546.000000 0.9841 0.9844 0.9847 0.9849 0.9852
3551.000000 0.9853 0.9854 0.9855 0.9856 0.9856
3556.000000 0.9856 0.9856 0.9856 0.9854 0.9852
3561.000000 0.9850 0.9848 0.9846 0.9845 0.9841
3566.000000 0.9837 0.9828 0.9821 0.9814 0.9807
3571.000000 0.9801 0.9801 0.9802 0.9810 0.9821
3576.000000 0.9834 0.9846 0.9858 0.9867 0.9875
3581.000000 0.9884 0.9892 0.9895 0.9898 0.9901
3586.000000 0.9905 0.9906 0.9908 0.9908 0.9908
3591.000000 0.9907 0.9907 0.9903 0.9900 0.9896
3596.000000 0.9893 0.9889 0.9886 0.9873 0.9861
3601.000000 0.9845 0.9828 0.9823 0.9823 0.9823
3606.000000 0.9830 0.9840 0.9851 0.9861 0.9871
3611.000000 0.9882 0.9893 0.9903 0.9913 0.9915
3616.000000 0.9918 0.9920 0.9923 0.9924 0.9925
3621.000000 0.9928 0.9930 0.9930 0.9931 0.9931
3626.000000 0.9932 0.9932 0.9933 0.9934 0.9935
3631.000000 0.9935 0.9935 0.9935 0.9936 0.9936
3636.000000 0.9936 0.9936 0.9936 0.9935 0.9935
3641.000000 0.9934 0.9934 0.9933 0.9933 0.9932
3646.000000 0.9932 0.9930 0.9928 0.9928 0.9927
3651.000000 0.9925 0.9925 0.9924 0.9923 0.9921
3656.000000 0.9918 0.9917 0.9915 0.9913 0.9911
3661.000000 0.9908 0.9906 0.9904 0.9902 0.9899
3666.000000 0.9896 0.9892 0.9888 0.9884 0.9880
3671.000000 0.9875 0.9873 0.9868 0.9865 0.9861
3676.000000 0.9857 0.9855 0.9853 0.9852 0.9851
3681.000000 0.9849 0.9848 0.9847 0.9846 0.9846
3686.000000 0.9846 0.9850 0.9855 0.9859 0.9863
3691.000000 0.9867 0.9871 0.9878 0.9885 0.9892
3696.000000 0.9899 0.9904 0.9910 0.9914 0.9918
3701.000000 0.9923 0.9927 0.9927 0.9927 0.9927
3706.000000 0.9927 0.9925 0.9925 0.9925 0.9924
3711.000000 0.9923 0.9923 0.9923 0.9923 0.9923
3716.000000 0.9923 0.9923 0.9923 0.9923 0.9924
3721.000000 0.9924 0.9924 0.9924 0.9924 0.9924
3726.000000 0.9924 0.9923 0.9923 0.9921 0.9921
3731.000000 0.9921 0.9921 0.9920 0.9920 0.9918
3736.000000 0.9918 0.9918 0.9918 0.9917 0.9917
3741.000000 0.9916 0.9915 0.9914 0.9914 0.9913
3746.000000 0.9912 0.9911 0.9911 0.9910 0.9909
3751.000000 0.9908 0.9908 0.9908 0.9908 0.9907
3756.000000 0.9907 0.9907 0.9907 0.9907 0.9907
3761.000000 0.9907 0.9907 0.9907 0.9907 0.9907
3766.000000 0.9907 0.9907 0.9907 0.9906 0.9906
3771.000000 0.9905 0.9904 0.9902 0.9901 0.9900
3776.000000 0.9899 0.9897 0.9896 0.9895 0.9894
3781.000000 0.9893 0.9892 0.9892 0.9892 0.9891
3786.000000 0.9891 0.9891 0.9891 0.9891 0.9891
3791.000000 0.9891 0.9891 0.9890 0.9890 0.9890
3796.000000 0.9890 0.9890 0.9890 0.9890 0.9890
##END=
