##TITLE=TRIETHOXYBORANE
##JCAMP-DX=4.24
##DATA TYPE=INFRARED SPECTRUM
##CLASS=COBLENTZ
##ORIGIN=KALLERY CHEMICAL COMPANY
##OWNER=COBLENTZ SOCIETY
Collection (C) 2018 copyright by the U.S. Secretary of Commerce
on behalf of the United States of America. All rights reserved.
##DATE=1960
##MOLFORM=C6 H15 O5 B
##SOURCE REFERENCE=COBLENTZ NO. 837
##$NIST ID=B6000837
##$NIST SOURCE=COBLENTZ
##$NIST IMAGE=cob837
##SPECTROMETER/DATA SYSTEM=Not specified, most likely a prism, grating, or hybrid spectrometer.
##STATE=VAPOR AT 16 mmHg PRESSURE; $$ RESEARCH PURITY
##PATH LENGTH=5 CM
##SAMPLING PROCEDURE=TRANSMISSION
##RESOLUTION=4
##DATA PROCESSING=DIGITIZED BY NIST FROM HARD COPY
##XUNITS=MICROMETERS
##YUNITS=TRANSMITTANCE
##XFACTOR=1.000000
##YFACTOR=1
##DELTAX=000.006936
##FIRSTX=2.055
##LASTX=15.4216
##FIRSTY=0.869
##MAXX=15.4216
##MINX=2.055
##MAXY=0.989
##MINY=0.02
##NPOINTS=1928
##XYDATA=(X++(Y..Y))
2.055000 0.8690 0.8690 0.8690 0.8690 0.8690
2.089700 0.8690 0.8710 0.8720 0.8720 0.8740
2.125000 0.8760 0.8760 0.8760 0.8760 0.8760
2.159700 0.8760 0.8760 0.8780 0.8790 0.8790
2.194000 0.8790 0.8810 0.8810 0.8810 0.8810
2.228700 0.8810 0.8810 0.8790 0.8790 0.8780
2.264000 0.8760 0.8740 0.8740 0.8740 0.8760
2.298700 0.8780 0.8790 0.8790 0.8790 0.8810
2.333000 0.8810 0.8810 0.8830 0.8830 0.8830
2.367700 0.8830 0.8830 0.8830 0.8830 0.8840
2.402000 0.8840 0.8840 0.8840 0.8860 0.8860
2.436700 0.8860 0.8860 0.8860 0.8880 0.8900
2.472000 0.8900 0.8910 0.8910 0.8930 0.8930
2.506700 0.8950 0.8950 0.8980 0.9000 0.9020
2.541000 0.9030 0.9050 0.9070 0.9070 0.9050
2.575700 0.9030 0.9030 0.9030 0.9050 0.9050
2.610000 0.9070 0.9070 0.9080 0.9080 0.9100
2.644700 0.9080 0.9080 0.9080 0.9070 0.9070
2.680000 0.9070 0.9050 0.9020 0.9000 0.8960
2.714700 0.8960 0.8960 0.8960 0.8960 0.8980
2.749000 0.8980 0.9000 0.9020 0.9050 0.9100
2.783700 0.9120 0.9140 0.9140 0.9140 0.9150
2.818000 0.9150 0.9150 0.9150 0.9150 0.9150
2.852700 0.9150 0.9140 0.9140 0.9140 0.9140
2.888000 0.9120 0.9120 0.9120 0.9120 0.9120
2.922700 0.9120 0.9120 0.9120 0.9120 0.9120
2.957000 0.9120 0.9120 0.9120 0.9100 0.9100
2.991700 0.9100 0.9100 0.9100 0.9100 0.9100
3.027000 0.9120 0.9120 0.9120 0.9120 0.9120
3.061700 0.9140 0.9140 0.9140 0.9140 0.9140
3.096000 0.9140 0.9140 0.9140 0.9140 0.9140
3.130700 0.9140 0.9140 0.9140 0.9140 0.9120
3.165000 0.9120 0.9120 0.9120 0.9120 0.9120
3.199700 0.9100 0.9080 0.9080 0.9070 0.9070
3.235000 0.9050 0.9050 0.9030 0.9020 0.9000
3.269700 0.7420 0.5820 0.4220 0.4000 0.3900
3.304000 0.3780 0.3530 0.3310 0.3070 0.3070
3.338700 0.3100 0.3400 0.3690 0.4190 0.4240
3.373000 0.4220 0.4170 0.4120 0.4070 0.4020
3.407700 0.4020 0.4070 0.4790 0.5080 0.5390
3.443000 0.5700 0.6340 0.6630 0.6870 0.7040
3.477700 0.7160 0.7260 0.7420 0.7590 0.7780
3.512000 0.7980 0.8350 0.8470 0.8550 0.8570
3.546700 0.8600 0.8650 0.8670 0.8780 0.8810
3.582000 0.8860 0.8930 0.8980 0.9000 0.9030
3.616700 0.9050 0.9070 0.9080 0.9120 0.9140
3.651000 0.9150 0.9150 0.9170 0.9190 0.9200
3.685700 0.9200 0.9220 0.9240 0.9260 0.9260
3.720000 0.9270 0.9270 0.9290 0.9290 0.9310
3.754700 0.9310 0.9320 0.9320 0.9340 0.9320
3.790000 0.9340 0.9340 0.9360 0.9360 0.9360
3.824700 0.9380 0.9390 0.9390 0.9410 0.9410
3.859000 0.9430 0.9430 0.9430 0.9450 0.9450
3.893700 0.9450 0.9450 0.9460 0.9460 0.9460
3.928000 0.9480 0.9480 0.9500 0.9500 0.9500
3.962700 0.9510 0.9510 0.9510 0.9530 0.9530
3.998000 0.9530 0.9530 0.9530 0.9530 0.9530
4.032700 0.9530 0.9530 0.9530 0.9530 0.9530
4.067000 0.9530 0.9530 0.9530 0.9530 0.9530
4.101700 0.9530 0.9530 0.9550 0.9550 0.9550
4.136000 0.9570 0.9570 0.9570 0.9580 0.9580
4.170700 0.9580 0.9600 0.9600 0.9600 0.9600
4.206000 0.9620 0.9620 0.9620 0.9620 0.9630
4.240700 0.9630 0.9650 0.9650 0.9670 0.9690
4.275000 0.9690 0.9690 0.9700 0.9700 0.9700
4.309700 0.9700 0.9700 0.9700 0.9720 0.9720
4.345000 0.9720 0.9720 0.9740 0.9740 0.9750
4.379700 0.9750 0.9750 0.9750 0.9740 0.9720
4.414000 0.9720 0.9720 0.9700 0.9720 0.9700
4.448700 0.9700 0.9700 0.9690 0.9690 0.9690
4.483000 0.9670 0.9670 0.9650 0.9650 0.9650
4.517700 0.9630 0.9630 0.9620 0.9620 0.9620
4.553000 0.9620 0.9600 0.9600 0.9600 0.9600
4.587700 0.9580 0.9580 0.9580 0.9580 0.9580
4.622000 0.9580 0.9580 0.9580 0.9580 0.9580
4.656700 0.9570 0.9570 0.9570 0.9570 0.9570
4.691000 0.9570 0.9570 0.9570 0.9570 0.9570
4.725700 0.9550 0.9550 0.9550 0.9550 0.9550
4.761000 0.9550 0.9550 0.9550 0.9550 0.9550
4.795700 0.9550 0.9550 0.9550 0.9550 0.9550
4.830000 0.9550 0.9550 0.9550 0.9550 0.9550
4.864700 0.9550 0.9550 0.9550 0.9550 0.9550
4.899000 0.9550 0.9550 0.9550 0.9550 0.9550
4.933700 0.9550 0.9550 0.9550 0.9570 0.9570
4.969000 0.9580 0.9580 0.9580 0.9600 0.9600
5.003700 0.9600 0.9620 0.9620 0.9630 0.9630
5.038000 0.9630 0.9630 0.9650 0.9650 0.9650
5.072700 0.9630 0.9630 0.9630 0.9630 0.9630
5.108000 0.9630 0.9630 0.9630 0.9630 0.9630
5.142700 0.9630 0.9630 0.9650 0.9670 0.9690
5.177000 0.9700 0.9700 0.9700 0.9700 0.9700
5.211700 0.9700 0.9720 0.9740 0.9740 0.9740
5.246000 0.9750 0.9750 0.9750 0.9770 0.9770
5.280700 0.9770 0.9770 0.9770 0.9770 0.9770
5.316000 0.9770 0.9770 0.9770 0.9770 0.9770
5.350700 0.9770 0.9770 0.9770 0.9770 0.9770
5.385000 0.9770 0.9770 0.9770 0.9770 0.9770
5.419700 0.9770 0.9770 0.9770 0.9770 0.9770
5.454000 0.9770 0.9770 0.9770 0.9750 0.9750
5.488700 0.9750 0.9750 0.9740 0.9740 0.9740
5.524000 0.9740 0.9720 0.9720 0.9700 0.9720
5.558700 0.9700 0.9700 0.9690 0.9690 0.9670
5.593000 0.9670 0.9650 0.9650 0.9650 0.9650
5.627700 0.9630 0.9630 0.9630 0.9630 0.9620
5.662000 0.9600 0.9600 0.9580 0.9580 0.9550
5.696700 0.9530 0.9480 0.9460 0.9390 0.9340
5.732000 0.9310 0.9240 0.9200 0.9190 0.9190
5.766700 0.9190 0.9190 0.9190 0.9200 0.9200
5.801000 0.9220 0.9220 0.9200 0.9150 0.9150
5.835700 0.9140 0.9140 0.9140 0.9120 0.9120
5.871000 0.9120 0.9120 0.9140 0.9140 0.9150
5.905700 0.9190 0.9220 0.9240 0.9260 0.9270
5.940000 0.9290 0.9340 0.9340 0.9360 0.9380
5.974700 0.9390 0.9390 0.9410 0.9410 0.9430
6.009000 0.9430 0.9430 0.9450 0.9450 0.9450
6.043700 0.9460 0.9460 0.9460 0.9480 0.9480
6.079000 0.9480 0.9480 0.9480 0.9480 0.9480
6.113700 0.9480 0.9480 0.9480 0.9480 0.9480
6.148000 0.9480 0.9480 0.9480 0.9460 0.9460
6.182700 0.9450 0.9430 0.9430 0.9430 0.9410
6.217000 0.9410 0.9390 0.9390 0.9390 0.9390
6.251700 0.9390 0.9390 0.9390 0.9390 0.9390
6.287000 0.9410 0.9410 0.9410 0.9430 0.9450
6.321700 0.9450 0.9450 0.9450 0.9460 0.9460
6.356000 0.9460 0.9460 0.9460 0.9460 0.9460
6.390700 0.9460 0.9460 0.9450 0.9450 0.9450
6.425000 0.9430 0.9430 0.9430 0.9410 0.9410
6.459700 0.9390 0.9380 0.9360 0.9340 0.9340
6.495000 0.9320 0.9270 0.9260 0.9220 0.9190
6.529700 0.9170 0.9080 0.9050 0.9000 0.8900
6.564000 0.8780 0.8640 0.8500 0.8360 0.7880
6.598700 0.7400 0.6580 0.5750 0.4100 0.3830
6.634000 0.3530 0.3160 0.2950 0.2850 0.2810
6.668700 0.2800 0.2800 0.2800 0.2810 0.2830
6.703000 0.2850 0.2920 0.3000 0.3280 0.6320
6.737700 0.6420 0.6520 0.6580 0.6580 0.6560
6.772000 0.6490 0.6460 0.6300 0.6060 0.5990
6.806700 0.5910 0.5730 0.5720 0.5680 0.5600
6.842000 0.5510 0.5490 0.5200 0.5180 0.4980
6.876700 0.4820 0.4810 0.3710 0.2610 0.2130
6.911000 0.1630 0.1610 0.1610 0.1630 0.1640
6.945700 0.1750 0.1780 0.1800 0.1760 0.1710
6.980000 0.1680 0.1520 0.1370 0.1200 0.0850
7.014700 0.0720 0.0560 0.0530 0.0530 0.0540
7.050000 0.1060 0.1800 0.2570 0.2800 0.2970
7.084700 0.3310 0.3620 0.3960 0.4500 0.4690
7.119000 0.4740 0.4720 0.4690 0.4650 0.4360
7.153700 0.4070 0.3860 0.3650 0.3170 0.2540
7.188000 0.2190 0.1850 0.1040 0.0600 0.0560
7.222700 0.0530 0.0510 0.0510 0.0510 0.0510
7.258000 0.0540 0.0630 0.1030 0.1460 0.1660
7.292700 0.1900 0.2690 0.3310 0.3690 0.3760
7.327000 0.3760 0.3040 0.2430 0.2010 0.1920
7.361700 0.1820 0.1180 0.0650 0.0370 0.0300
7.397000 0.0290 0.0250 0.0220 0.0200 0.0200
7.431700 0.0200 0.0200 0.0200 0.0200 0.0200
7.466000 0.0220 0.0250 0.0270 0.0300 0.0420
7.500700 0.0490 0.0510 0.1390 0.2730 0.3100
7.535000 0.3310 0.3410 0.3520 0.3650 0.3740
7.569700 0.3810 0.3860 0.3880 0.3910 0.3930
7.605000 0.3910 0.3900 0.3810 0.3640 0.3400
7.639700 0.3160 0.2920 0.2730 0.2570 0.2500
7.674000 0.2420 0.2380 0.2370 0.2350 0.2350
7.708700 0.2380 0.2400 0.2470 0.2560 0.2680
7.743000 0.2800 0.2970 0.3140 0.3350 0.3570
7.777700 0.3830 0.4410 0.4720 0.5000 0.5250
7.813000 0.5490 0.5720 0.5920 0.6210 0.6320
7.847700 0.6350 0.6460 0.6560 0.6640 0.6730
7.882000 0.6800 0.6870 0.6940 0.7010 0.7070
7.916700 0.7130 0.7180 0.7210 0.7230 0.7260
7.951000 0.7280 0.7300 0.7330 0.7370 0.7380
7.985700 0.7400 0.7420 0.7430 0.7450 0.7470
8.021000 0.7490 0.7490 0.7490 0.7490 0.7490
8.055700 0.7500 0.7500 0.7520 0.7520 0.7540
8.090000 0.7540 0.7540 0.7560 0.7570 0.7590
8.124700 0.7610 0.7620 0.7640 0.7660 0.7680
8.160000 0.7710 0.7740 0.7780 0.7810 0.7860
8.194700 0.7900 0.7950 0.7980 0.8070 0.8100
8.229000 0.8140 0.8170 0.8210 0.8260 0.8310
8.263700 0.8360 0.8400 0.8450 0.8480 0.8500
8.298000 0.8550 0.8570 0.8600 0.8640 0.8640
8.332700 0.8650 0.8650 0.8650 0.8650 0.8640
8.368000 0.8650 0.8650 0.8640 0.8620 0.8600
8.402700 0.8590 0.8570 0.8550 0.8550 0.8530
8.437000 0.8500 0.8480 0.8450 0.8430 0.8410
8.471700 0.8400 0.8380 0.8380 0.8360 0.8350
8.506000 0.8330 0.8310 0.8310 0.8290 0.8280
8.540700 0.8280 0.8280 0.8280 0.8280 0.8280
8.576000 0.8280 0.8280 0.8280 0.8290 0.8290
8.610700 0.8310 0.8330 0.8330 0.8350 0.8350
8.645000 0.8360 0.8360 0.8380 0.8400 0.8410
8.679700 0.8410 0.8430 0.8450 0.8470 0.8470
8.714000 0.8480 0.8500 0.8500 0.8500 0.8500
8.748700 0.8480 0.8470 0.8470 0.8450 0.8430
8.784000 0.8410 0.8400 0.8380 0.8360 0.8350
8.818700 0.8310 0.8280 0.8240 0.8210 0.8160
8.853000 0.8100 0.8050 0.8000 0.7970 0.7930
8.887700 0.7860 0.7780 0.7680 0.7620 0.7560
8.923000 0.7430 0.7300 0.7140 0.6970 0.6760
8.957700 0.6540 0.6300 0.6040 0.5910 0.5770
8.992000 0.5480 0.5170 0.4930 0.4740 0.4600
9.026700 0.4570 0.4550 0.4530 0.4550 0.4570
9.061000 0.4580 0.4650 0.4700 0.4770 0.4860
9.095700 0.4980 0.5180 0.5480 0.5630 0.5790
9.131000 0.5920 0.6180 0.6300 0.6420 0.6520
9.165700 0.6610 0.6700 0.6750 0.6820 0.6890
9.200000 0.6940 0.6950 0.7010 0.7010 0.7020
9.234700 0.7020 0.7020 0.7020 0.7010 0.6970
9.269000 0.6950 0.6890 0.6800 0.6700 0.6580
9.303700 0.6460 0.6300 0.6150 0.6060 0.5970
9.339000 0.5800 0.5630 0.5440 0.5240 0.5150
9.373700 0.5080 0.4980 0.4820 0.4550 0.4120
9.408000 0.3810 0.3480 0.2610 0.2500 0.2350
9.442700 0.2210 0.2060 0.2020 0.1970 0.1950
9.477000 0.1940 0.1940 0.1940 0.1940 0.1950
9.511700 0.1990 0.2500 0.2780 0.3020 0.3230
9.547000 0.3410 0.3600 0.3760 0.3910 0.4200
9.581700 0.4320 0.4460 0.4600 0.4940 0.5220
9.616000 0.5480 0.5700 0.5890 0.6200 0.6320
9.650700 0.6440 0.6520 0.6610 0.6700 0.6780
9.686000 0.6870 0.6950 0.7060 0.7160 0.7280
9.720700 0.7420 0.7470 0.7560 0.7640 0.7730
9.755000 0.7830 0.7930 0.8090 0.8140 0.8160
9.789700 0.8210 0.8240 0.8280 0.8310 0.8350
9.824000 0.8360 0.8380 0.8410 0.8430 0.8450
9.858700 0.8480 0.8520 0.8530 0.8530 0.8550
9.894000 0.8590 0.8620 0.8620 0.8640 0.8670
9.928700 0.8710 0.8720 0.8740 0.8780 0.8810
9.963000 0.8860 0.8880 0.8900 0.8910 0.8930
9.997700 0.8980 0.9020 0.9050 0.9050 0.9070
10.032000 0.9070 0.9080 0.9100 0.9100 0.9150
10.066700 0.9190 0.9200 0.9220 0.9240 0.9270
10.102000 0.9270 0.9290 0.9320 0.9360 0.9360
10.136700 0.9380 0.9380 0.9390 0.9410 0.9450
10.171000 0.9460 0.9460 0.9480 0.9480 0.9500
10.205700 0.9500 0.9510 0.9530 0.9530 0.9570
10.240000 0.9570 0.9600 0.9600 0.9600 0.9600
10.274700 0.9620 0.9620 0.9620 0.9630 0.9630
10.310000 0.9630 0.9630 0.9650 0.9650 0.9650
10.344700 0.9650 0.9650 0.9650 0.9650 0.9650
10.379000 0.9650 0.9650 0.9650 0.9650 0.9650
10.413700 0.9650 0.9650 0.9650 0.9650 0.9650
10.449000 0.9650 0.9650 0.9650 0.9650 0.9650
10.483700 0.9650 0.9650 0.9650 0.9630 0.9630
10.518000 0.9630 0.9630 0.9620 0.9620 0.9620
10.552700 0.9620 0.9620 0.9620 0.9600 0.9600
10.587000 0.9600 0.9600 0.9600 0.9580 0.9580
10.621700 0.9580 0.9580 0.9580 0.9580 0.9580
10.657000 0.9580 0.9580 0.9580 0.9570 0.9570
10.691700 0.9570 0.9570 0.9570 0.9570 0.9570
10.726000 0.9570 0.9570 0.9570 0.9570 0.9570
10.760700 0.9570 0.9580 0.9580 0.9580 0.9600
10.795000 0.9600 0.9600 0.9600 0.9600 0.9600
10.829700 0.9600 0.9600 0.9600 0.9600 0.9600
10.865000 0.9600 0.9600 0.9620 0.9620 0.9620
10.899700 0.9620 0.9620 0.9620 0.9620 0.9620
10.934000 0.9620 0.9620 0.9620 0.9620 0.9600
10.968700 0.9600 0.9580 0.9580 0.9570 0.9510
11.003000 0.9480 0.9430 0.9390 0.9340 0.9290
11.037700 0.9220 0.9150 0.9100 0.9030 0.8950
11.073000 0.8880 0.8810 0.8720 0.8640 0.8550
11.107700 0.8450 0.8360 0.8260 0.8160 0.8070
11.142000 0.8000 0.7980 0.7950 0.7880 0.7830
11.176700 0.7810 0.7800 0.7780 0.7780 0.7780
11.212000 0.7780 0.7800 0.7810 0.7850 0.7860
11.246700 0.7880 0.7880 0.7920 0.7950 0.7970
11.281000 0.8040 0.8100 0.8190 0.8260 0.8360
11.315700 0.8450 0.8530 0.8550 0.8650 0.8780
11.350000 0.8900 0.8960 0.9000 0.9030 0.9050
11.384700 0.9070 0.9080 0.9120 0.9140 0.9150
11.420000 0.9170 0.9190 0.9200 0.9220 0.9260
11.454700 0.9260 0.9270 0.9310 0.9310 0.9320
11.489000 0.9320 0.9340 0.9340 0.9360 0.9380
11.523700 0.9380 0.9380 0.9390 0.9390 0.9410
11.558000 0.9410 0.9430 0.9450 0.9450 0.9460
11.592700 0.9460 0.9460 0.9480 0.9500 0.9510
11.628000 0.9550 0.9550 0.9580 0.9580 0.9600
11.662700 0.9600 0.9620 0.9620 0.9630 0.9650
11.697000 0.9650 0.9670 0.9700 0.9720 0.9740
11.731700 0.9750 0.9750 0.9770 0.9770 0.9770
11.766000 0.9770 0.9790 0.9790 0.9790 0.9810
11.800700 0.9810 0.9810 0.9820 0.9820 0.9840
11.836000 0.9840 0.9840 0.9840 0.9840 0.9860
11.870700 0.9860 0.9860 0.9860 0.9860 0.9860
11.905000 0.9860 0.9860 0.9860 0.9860 0.9860
11.939700 0.9860 0.9860 0.9860 0.9860 0.9860
11.975000 0.9860 0.9860 0.9860 0.9860 0.9860
12.009700 0.9860 0.9860 0.9860 0.9860 0.9860
12.044000 0.9860 0.9860 0.9860 0.9860 0.9860
12.078700 0.9860 0.9860 0.9860 0.9870 0.9870
12.113000 0.9870 0.9870 0.9870 0.9870 0.9870
12.147700 0.9870 0.9870 0.9870 0.9870 0.9870
12.183000 0.9870 0.9870 0.9870 0.9870 0.9870
12.217700 0.9870 0.9870 0.9870 0.9870 0.9870
12.252000 0.9870 0.9870 0.9870 0.9870 0.9870
12.286700 0.9870 0.9870 0.9870 0.9870 0.9870
12.321000 0.9870 0.9870 0.9870 0.9870 0.9870
12.355700 0.9870 0.9870 0.9890 0.9890 0.9890
12.391000 0.9890 0.9890 0.9890 0.9890 0.9890
12.425700 0.9890 0.9890 0.9890 0.9890 0.9890
12.460000 0.9890 0.9890 0.9890 0.9890 0.9890
12.494700 0.9890 0.9890 0.9890 0.9890 0.9890
12.529000 0.9890 0.9870 0.9870 0.9870 0.9870
12.563700 0.9870 0.9870 0.9870 0.9870 0.9870
12.599000 0.9870 0.9870 0.9870 0.9870 0.9870
12.633700 0.9870 0.9870 0.9870 0.9870 0.9870
12.668000 0.9870 0.9870 0.9870 0.9870 0.9870
12.702700 0.9870 0.9870 0.9870 0.9870 0.9870
12.738000 0.9870 0.9870 0.9870 0.9870 0.9870
12.772700 0.9870 0.9870 0.9870 0.9870 0.9870
12.807000 0.9870 0.9870 0.9870 0.9870 0.9870
12.841700 0.9870 0.9870 0.9860 0.9860 0.9860
12.876000 0.9860 0.9860 0.9860 0.9860 0.9860
12.910700 0.9840 0.9840 0.9840 0.9840 0.9840
12.946000 0.9840 0.9840 0.9840 0.9840 0.9840
12.980700 0.9840 0.9860 0.9840 0.9840 0.9840
13.015000 0.9840 0.9840 0.9820 0.9820 0.9820
13.049700 0.9820 0.9820 0.9810 0.9810 0.9810
13.084000 0.9810 0.9810 0.9810 0.9810 0.9810
13.118700 0.9810 0.9810 0.9790 0.9790 0.9790
13.154000 0.9790 0.9790 0.9810 0.9810 0.9810
13.188700 0.9810 0.9810 0.9810 0.9810 0.9810
13.223000 0.9810 0.9810 0.9810 0.9810 0.9810
13.257700 0.9810 0.9810 0.9810 0.9810 0.9810
13.292000 0.9810 0.9810 0.9810 0.9810 0.9810
13.326700 0.9790 0.9790 0.9790 0.9790 0.9790
13.362000 0.9790 0.9790 0.9790 0.9790 0.9790
13.396700 0.9790 0.9790 0.9790 0.9790 0.9790
13.431000 0.9790 0.9790 0.9790 0.9810 0.9810
13.465700 0.9810 0.9810 0.9810 0.9810 0.9810
13.501000 0.9810 0.9810 0.9810 0.9810 0.9810
13.535700 0.9810 0.9810 0.9810 0.9810 0.9810
13.570000 0.9810 0.9810 0.9810 0.9810 0.9810
13.604700 0.9810 0.9810 0.9810 0.9810 0.9810
13.639000 0.9810 0.9810 0.9810 0.9810 0.9810
13.673700 0.9790 0.9790 0.9790 0.9790 0.9790
13.709000 0.9790 0.9770 0.9770 0.9770 0.9770
13.743700 0.9770 0.9770 0.9750 0.9750 0.9750
13.778000 0.9750 0.9750 0.9750 0.9740 0.9740
13.812700 0.9740 0.9740 0.9740 0.9740 0.9720
13.847000 0.9720 0.9700 0.9700 0.9690 0.9690
13.881700 0.9690 0.9670 0.9670 0.9650 0.9650
13.917000 0.9630 0.9630 0.9630 0.9620 0.9620
13.951700 0.9600 0.9570 0.9570 0.9550 0.9530
13.986000 0.9530 0.9510 0.9500 0.9500 0.9480
14.020700 0.9460 0.9460 0.9430 0.9410 0.9380
14.055000 0.9360 0.9320 0.9320 0.9310 0.9290
14.089700 0.9270 0.9240 0.9220 0.9190 0.9170
14.125000 0.9150 0.9140 0.9120 0.9080 0.9070
14.159700 0.9050 0.9030 0.9020 0.9000 0.8960
14.194000 0.8950 0.8930 0.8930 0.8900 0.8880
14.228700 0.8860 0.8840 0.8810 0.8790 0.8790
14.264000 0.8780 0.8740 0.8720 0.8720 0.8710
14.298700 0.8670 0.8670 0.8650 0.8640 0.8640
14.333000 0.8640 0.8620 0.8600 0.8600 0.8590
14.367700 0.8590 0.8590 0.8590 0.8590 0.8600
14.402000 0.8620 0.8620 0.8640 0.8640 0.8640
14.436700 0.8650 0.8640 0.8640 0.8640 0.8640
14.472000 0.8640 0.8640 0.8620 0.8590 0.8590
14.506700 0.8570 0.8570 0.8550 0.8550 0.8520
14.541000 0.8500 0.8470 0.8470 0.8430 0.8410
14.575700 0.8400 0.8380 0.8330 0.8290 0.8280
14.610000 0.8260 0.8240 0.8190 0.8170 0.8160
14.644700 0.8120 0.8100 0.8070 0.8020 0.8000
14.680000 0.7980 0.7950 0.7900 0.7860 0.7830
14.714700 0.7800 0.7780 0.7740 0.7730 0.7690
14.749000 0.7660 0.7620 0.7570 0.7540 0.7520
14.783700 0.7470 0.7450 0.7400 0.7380 0.7350
14.818000 0.7330 0.7300 0.7280 0.7250 0.7230
14.852700 0.7210 0.7190 0.7180 0.7140 0.7140
14.888000 0.7140 0.7130 0.7130 0.7110 0.7110
14.922700 0.7110 0.7110 0.7110 0.7110 0.7130
14.957000 0.7130 0.7130 0.7140 0.7140 0.7140
14.991700 0.7140 0.7160 0.7160 0.7180 0.7190
15.027000 0.7210 0.7250 0.7280 0.7310 0.7330
15.061700 0.7350 0.7400 0.7430 0.7470 0.7490
15.096000 0.7500 0.7520 0.7540 0.7560 0.7590
15.130700 0.7610 0.7620 0.7620 0.7640 0.7660
15.165000 0.7690 0.7690 0.7710 0.7710 0.7730
15.199700 0.7740 0.7740 0.7760 0.7780 0.7800
15.235000 0.7800 0.7810 0.7830 0.7850 0.7860
15.269700 0.7880 0.7880 0.7900 0.7920 0.7930
15.304000 0.7930 0.7950 0.7970 0.8020 0.8040
15.338700 0.8050 0.8070 0.8100 0.8120 0.8140
15.373000 0.8170 0.8190 0.8190 0.8210 0.8600
15.407700 0.8170 0.8190 0.8190
##END=
