##TITLE=Gluconic acid, sodium salt
##JCAMP-DX=4.24
##DATA TYPE=INFRARED SPECTRUM
##CLASS=COBLENTZ III
##ORIGIN=DOW CHEMICAL COMPANY
##OWNER=COPYRIGHT (C) 1988 by COBLENTZ SOCIETY INC.
Collection (C) 2018 copyright by the U.S. Secretary of Commerce
on behalf of the United States of America. All rights reserved.
##DATE=1964/05/13
##CAS NAME=Sodium gluconate
##MOLFORM=C6 H11 Na O7
##SOURCE REFERENCE=COBLENTZ NO. 06383
##$NIST ID=B6006383
##$NIST SOURCE=COBLENTZ
##$NIST IMAGE=cob6383
##SPECTROMETER/DATA SYSTEM=DOW KBr FOREPRISM-GRATING
##INSTRUMENT PARAMETERS=BLAZED AT 3.5, 12.0, 20.0 MICRON AND CHANGED AT 5.0, 7.5, 14.9 MICRON
##STATE=SOLID (SPLIT MULL)
##SAMPLING PROCEDURE=TRANSMISSION
##RESOLUTION=2
##DATA PROCESSING=DIGITIZED BY COBLENTZ SOCIETY (BATCH I) FROM HARD COPY (ADJUSTED \subtractcm-1\10-0-0\)
##XUNITS=1/CM
##YUNITS=TRANSMITTANCE
##XFACTOR=1
##YFACTOR=1
##DELTAX=0.995729
##FIRSTX=3773.46
##LASTX=383.996
##FIRSTY=0.6233
##MAXX=3773.46
##MINX=383.996
##MAXY=0.8766
##MINY=0.0352746
##NPOINTS=3405
##XYDATA=(X++(Y..Y))
3773.458462 0.6233 0.6234 0.6236 0.6240 0.6244
3768.479815 0.6247 0.6251 0.6255 0.6259 0.6262
3763.501168 0.6266 0.6270 0.6274 0.6277 0.6281
3758.522521 0.6284 0.6288 0.6292 0.6296 0.6300
3753.543874 0.6304 0.6307 0.6311 0.6315 0.6319
3748.565228 0.6323 0.6327 0.6330 0.6334 0.6338
3743.586581 0.6342 0.6345 0.6349 0.6353 0.6357
3738.607934 0.6360 0.6363 0.6368 0.6372 0.6376
3733.629287 0.6381 0.6385 0.6390 0.6394 0.6399
3728.650640 0.6402 0.6407 0.6412 0.6416 0.6420
3723.671994 0.6425 0.6430 0.6434 0.6439 0.6443
3718.693347 0.6448 0.6452 0.6457 0.6462 0.6466
3713.714700 0.6470 0.6476 0.6480 0.6485 0.6490
3708.736053 0.6494 0.6499 0.6504 0.6509 0.6515
3703.757407 0.6522 0.6528 0.6535 0.6541 0.6547
3698.778760 0.6553 0.6560 0.6565 0.6572 0.6578
3693.800113 0.6584 0.6591 0.6597 0.6604 0.6610
3688.821466 0.6616 0.6622 0.6630 0.6637 0.6644
3683.842819 0.6651 0.6657 0.6663 0.6669 0.6676
3678.864173 0.6683 0.6690 0.6696 0.6702 0.6708
3673.885526 0.6713 0.6719 0.6724 0.6730 0.6735
3668.906879 0.6740 0.6745 0.6751 0.6757 0.6762
3663.928232 0.6767 0.6772 0.6777 0.6783 0.6789
3658.949585 0.6795 0.6800 0.6806 0.6813 0.6820
3653.970939 0.6827 0.6834 0.6841 0.6848 0.6855
3648.992292 0.6861 0.6868 0.6875 0.6883 0.6890
3644.013645 0.6897 0.6904 0.6910 0.6917 0.6921
3639.034998 0.6925 0.6930 0.6936 0.6941 0.6946
3634.056352 0.6950 0.6955 0.6958 0.6964 0.6968
3629.077705 0.6974 0.6978 0.6983 0.6987 0.6992
3624.099058 0.6996 0.7001 0.7004 0.7008 0.7011
3619.120411 0.7015 0.7018 0.7021 0.7024 0.7026
3614.141764 0.7030 0.7033 0.7036 0.7039 0.7042
3609.163118 0.7046 0.7049 0.7051 0.7055 0.7058
3604.184471 0.7063 0.7068 0.7073 0.7079 0.7083
3599.205824 0.7088 0.7092 0.7097 0.7102 0.7107
3594.227177 0.7111 0.7116 0.7119 0.7123 0.7127
3589.248530 0.7132 0.7136 0.7139 0.7141 0.7143
3584.269884 0.7146 0.7149 0.7154 0.7161 0.7175
3579.291237 0.7188 0.7202 0.7217 0.7235 0.7250
3574.312590 0.7259 0.7267 0.7273 0.7277 0.7276
3569.333943 0.7275 0.7275 0.7271 0.7264 0.7251
3564.355297 0.7226 0.7166 0.7052 0.6954 0.6880
3559.376650 0.6651 0.6199 0.5739 0.5268 0.4798
3554.398003 0.4328 0.3857 0.3386 0.2916 0.2446
3549.419356 0.1975 0.1505 0.1186 0.1024 0.0946
3544.440709 0.0951 0.0957 0.0966 0.1055 0.1215
3539.462063 0.1394 0.1590 0.1784 0.1979 0.2175
3534.483416 0.2370 0.2565 0.2759 0.2954 0.3149
3529.504769 0.3344 0.3540 0.3692 0.3818 0.3910
3524.526122 0.3983 0.4098 0.4236 0.4328 0.4397
3519.547475 0.4472 0.4549 0.4616 0.4677 0.4732
3514.568829 0.4786 0.4837 0.4887 0.4929 0.4969
3509.590182 0.5003 0.5039 0.5070 0.5100 0.5128
3504.611535 0.5156 0.5185 0.5215 0.5254 0.5297
3499.632888 0.5319 0.5335 0.5343 0.5350 0.5354
3494.654242 0.5359 0.5360 0.5362 0.5364 0.5364
3489.675595 0.5364 0.5362 0.5359 0.5356 0.5350
3484.696948 0.5343 0.5336 0.5329 0.5310 0.5292
3479.718301 0.5264 0.5236 0.5195 0.5154 0.5103
3474.739654 0.5052 0.5011 0.4970 0.4919 0.4870
3469.761008 0.4806 0.4742 0.4630 0.4520 0.4422
3464.782361 0.4326 0.4240 0.4156 0.4095 0.4034
3459.803714 0.3980 0.3926 0.3853 0.3780 0.3698
3454.825067 0.3616 0.3520 0.3419 0.3293 0.3167
3449.846420 0.3046 0.2925 0.2804 0.2683 0.2563
3444.867774 0.2442 0.2321 0.2201 0.2080 0.1960
3439.889127 0.1839 0.1731 0.1671 0.1623 0.1616
3434.910480 0.1610 0.1607 0.1608 0.1611 0.1620
3429.931833 0.1635 0.1657 0.1702 0.1760 0.1853
3424.953186 0.1942 0.2024 0.2106 0.2188 0.2270
3419.974540 0.2352 0.2435 0.2517 0.2600 0.2681
3414.995893 0.2764 0.2845 0.2928 0.3010 0.3092
3410.017246 0.3174 0.3235 0.3265 0.3290 0.3310
3405.038599 0.3331 0.3352 0.3372 0.3390 0.3404
3400.059953 0.3415 0.3426 0.3435 0.3445 0.3453
3395.081306 0.3460 0.3465 0.3468 0.3467 0.3469
3390.102659 0.3472 0.3471 0.3470 0.3468 0.3465
3385.124012 0.3459 0.3449 0.3436 0.3423 0.3409
3380.145365 0.3393 0.3377 0.3361 0.3344 0.3325
3375.166719 0.3306 0.3286 0.3266 0.3246 0.3225
3370.188072 0.3205 0.3186 0.3167 0.3147 0.3128
3365.209425 0.3109 0.3090 0.3067 0.3042 0.3016
3360.230778 0.2988 0.2959 0.2930 0.2896 0.2861
3355.252131 0.2825 0.2789 0.2747 0.2703 0.2651
3350.273485 0.2595 0.2524 0.2449 0.2359 0.2267
3345.294838 0.2191 0.2119 0.2063 0.2012 0.1969
3340.316191 0.1929 0.1875 0.1818 0.1749 0.1678
3335.337544 0.1608 0.1537 0.1467 0.1396 0.1325
3330.358898 0.1254 0.1184 0.1113 0.1043 0.0973
3325.380251 0.0903 0.0834 0.0802 0.0773 0.0748
3320.401604 0.0724 0.0718 0.0712 0.0709 0.0706
3315.422957 0.0706 0.0706 0.0707 0.0708 0.0713
3310.444310 0.0718 0.0723 0.0730 0.0765 0.0803
3305.465664 0.0873 0.0945 0.1016 0.1085 0.1135
3300.487017 0.1184 0.1229 0.1273 0.1311 0.1348
3295.508370 0.1379 0.1410 0.1440 0.1470 0.1492
3290.529723 0.1515 0.1537 0.1560 0.1583 0.1606
3285.551076 0.1628 0.1650 0.1675 0.1698 0.1722
3280.572430 0.1746 0.1768 0.1789 0.1807 0.1824
3275.593783 0.1841 0.1858 0.1873 0.1888 0.1900
3270.615136 0.1914 0.1927 0.1939 0.1950 0.1961
3265.636489 0.1970 0.1979 0.1986 0.1991 0.1996
3260.657843 0.1999 0.2002 0.2006 0.2009 0.2012
3255.679196 0.2015 0.2018 0.2020 0.2023 0.2025
3250.700549 0.2027 0.2028 0.2029 0.2029 0.2030
3245.721902 0.2031 0.2032 0.2032 0.2033 0.2034
3240.743255 0.2034 0.2034 0.2032 0.2029 0.2026
3235.764609 0.2022 0.2018 0.2014 0.2009 0.2005
3230.785962 0.2000 0.1995 0.1989 0.1985 0.1980
3225.807315 0.1975 0.1966 0.1956 0.1945 0.1933
3220.828668 0.1923 0.1912 0.1899 0.1887 0.1874
3215.850021 0.1861 0.1848 0.1836 0.1820 0.1803
3210.871375 0.1784 0.1765 0.1746 0.1728 0.1710
3205.892728 0.1694 0.1677 0.1660 0.1643 0.1627
3200.914081 0.1608 0.1589 0.1569 0.1549 0.1529
3195.935434 0.1510 0.1493 0.1478 0.1463 0.1447
3190.956788 0.1432 0.1417 0.1403 0.1389 0.1375
3185.978141 0.1361 0.1347 0.1333 0.1319 0.1306
3180.999494 0.1293 0.1280 0.1267 0.1254 0.1241
3176.020847 0.1228 0.1214 0.1201 0.1187 0.1172
3171.042200 0.1157 0.1142 0.1127 0.1112 0.1100
3166.063554 0.1089 0.1078 0.1068 0.1061 0.1054
3161.084907 0.1050 0.1046 0.1044 0.1032 0.1042
3156.106260 0.1042 0.1044 0.1046 0.1050 0.1056
3151.127613 0.1061 0.1067 0.1081 0.1096 0.1112
3146.148966 0.1128 0.1140 0.1152 0.1162 0.1171
3141.170320 0.1181 0.1189 0.1198 0.1208 0.1217
3136.191673 0.1227 0.1240 0.1252 0.1264 0.1276
3131.213026 0.1288 0.1301 0.1314 0.1327 0.1340
3126.234379 0.1354 0.1367 0.1380 0.1393 0.1405
3121.255733 0.1415 0.1424 0.1433 0.1441 0.1449
3116.277086 0.1458 0.1466 0.1474 0.1482 0.1491
3111.298439 0.1499 0.1508 0.1518 0.1527 0.1537
3106.319792 0.1546 0.1556 0.1566 0.1575 0.1585
3101.341145 0.1594 0.1602 0.1609 0.1616 0.1622
3096.362499 0.1629 0.1635 0.1642 0.1649 0.1655
3091.383852 0.1661 0.1666 0.1671 0.1676 0.1681
3086.405205 0.1685 0.1689 0.1694 0.1699 0.1705
3081.426558 0.1710 0.1715 0.1721 0.1727 0.1733
3076.447911 0.1739 0.1746 0.1752 0.1758 0.1765
3071.469265 0.1771 0.1777 0.1784 0.1791 0.1799
3066.490618 0.1807 0.1815 0.1823 0.1830 0.1839
3061.511971 0.1847 0.1854 0.1862 0.1869 0.1877
3056.533324 0.1883 0.1892 0.1900 0.1908 0.1915
3051.554678 0.1922 0.1929 0.1936 0.1942 0.1950
3046.576031 0.1958 0.1965 0.1972 0.1978 0.1986
3041.597384 0.1994 0.2004 0.2014 0.2024 0.2033
3036.618737 0.2043 0.2052 0.2059 0.2067 0.2074
3031.640090 0.2082 0.2089 0.2097 0.2104 0.2112
3026.661444 0.2119 0.2127 0.2134 0.2143 0.2153
3021.682797 0.2164 0.2174 0.2184 0.2194 0.2204
3016.704150 0.2216 0.2228 0.2239 0.2251 0.2260
3011.725503 0.2270 0.2278 0.2285 0.2292 0.2299
3006.746856 0.2301 0.2301 0.2301 0.2299 0.2294
3001.768210 0.2289 0.2284 0.2281 0.2279 0.2279
2996.789563 0.2284 0.2290 0.2296 0.2302 0.2307
2991.810916 0.2324 0.2401 0.2471 0.2506 0.2536
2986.832269 0.2549 0.2562 0.2574 0.2586 0.2595
2981.853623 0.2604 0.2615 0.2633 0.2614 0.2615
2976.874976 0.2616 0.2466 0.1888 0.1470 0.1466
2971.896329 0.1490 0.1570 0.1652 0.1733 0.1814
2966.917682 0.1895 0.1976 0.2056 0.2137 0.2218
2961.939035 0.2296 0.2368 0.2427 0.2462 0.2492
2956.960389 0.2513 0.2533 0.2553 0.2571 0.2588
2951.981742 0.2606 0.2622 0.2634 0.2642 0.2646
2947.003095 0.2646 0.2646 0.2646 0.2623 0.2574
2942.024448 0.2522 0.2465 0.2409 0.2353 0.2297
2937.045801 0.2241 0.2186 0.2130 0.2074 0.2018
2932.067155 0.1962 0.1906 0.1855 0.1800 0.1782
2927.088508 0.1788 0.1793 0.1801 0.1875 0.1994
2922.109861 0.2112 0.2231 0.2349 0.2467 0.2541
2917.131214 0.2590 0.2625 0.2654 0.2688 0.2725
2912.152567 0.2769 0.2818 0.2855 0.2886 0.2902
2907.173921 0.2919 0.2918 0.2917 0.2917 0.2917
2902.195274 0.2871 0.2810 0.2742 0.2671 0.2600
2897.216627 0.2530 0.2511 0.2506 0.2503 0.2500
2892.237980 0.2497 0.2494 0.2492 0.2489 0.2487
2887.259334 0.2485 0.2482 0.2480 0.2478 0.2476
2882.280687 0.2474 0.2473 0.2471 0.2470 0.2468
2877.302040 0.2467 0.2465 0.2464 0.2462 0.2461
2872.323393 0.2461 0.2461 0.2461 0.2461 0.2460
2867.344746 0.2459 0.2458 0.2457 0.2469 0.2486
2862.366100 0.2505 0.2525 0.2544 0.2563 0.2575
2857.387453 0.2585 0.2595 0.2605 0.2612 0.2617
2852.408806 0.2621 0.2626 0.2628 0.2630 0.2632
2847.430159 0.2633 0.2634 0.2636 0.2637 0.2637
2842.451512 0.2635 0.2652 0.2638 0.2629 0.2624
2837.472866 0.2618 0.2612 0.2605 0.2596 0.2587
2832.494219 0.2576 0.2564 0.2553 0.2542 0.2532
2827.515572 0.2523 0.2513 0.2504 0.2494 0.2485
2822.536925 0.2476 0.2467 0.2459 0.2450 0.2444
2817.558279 0.2438 0.2433 0.2427 0.2422 0.2418
2812.579632 0.2414 0.2411 0.2410 0.2410 0.2410
2807.600985 0.2410 0.2413 0.2417 0.2421 0.2425
2802.622338 0.2430 0.2435 0.2440 0.2446 0.2451
2797.643691 0.2456 0.2466 0.2478 0.2493 0.2510
2792.665045 0.2526 0.2543 0.2559 0.2575 0.2591
2787.686398 0.2608 0.2624 0.2641 0.2657 0.2673
2782.707751 0.2689 0.2705 0.2722 0.2738 0.2755
2777.729104 0.2771 0.2787 0.2803 0.2820 0.2836
2772.750457 0.2865 0.2901 0.2936 0.2972 0.3003
2767.771811 0.3032 0.3057 0.3078 0.3094 0.3108
2762.793164 0.3114 0.3115 0.3117 0.3118 0.3120
2757.814517 0.3121 0.3123 0.3125 0.3127 0.3128
2752.835870 0.3134 0.3142 0.3150 0.3158 0.3166
2747.857224 0.3174 0.3181 0.3190 0.3199 0.3207
2742.878577 0.3215 0.3224 0.3231 0.3240 0.3251
2737.899930 0.3262 0.3274 0.3287 0.3297 0.3308
2732.921283 0.3315 0.3320 0.3324 0.3325 0.3326
2727.942636 0.3324 0.3321 0.3318 0.3315 0.3312
2722.963990 0.3309 0.3306 0.3302 0.3297 0.3291
2717.985343 0.3285 0.3279 0.3273 0.3268 0.3264
2713.006696 0.3260 0.3257 0.3255 0.3256 0.3257
2708.028049 0.3259 0.3262 0.3266 0.3275 0.3285
2703.049402 0.3295 0.3305 0.3314 0.3324 0.3333
2698.070756 0.3343 0.3352 0.3362 0.3372 0.3382
2693.092109 0.3392 0.3404 0.3415 0.3427 0.3438
2688.113462 0.3448 0.3458 0.3467 0.3476 0.3485
2683.134815 0.3490 0.3491 0.3492 0.3493 0.3496
2678.156169 0.3500 0.3503 0.3504 0.3506 0.3507
2673.177522 0.3508 0.3508 0.3506 0.3502 0.3498
2668.198875 0.3495 0.3493 0.3491 0.3496 0.3507
2663.220228 0.3522 0.3541 0.3560 0.3580 0.3601
2658.241581 0.3620 0.3638 0.3656 0.3674 0.3692
2653.262935 0.3710 0.3728 0.3742 0.3754 0.3765
2648.284288 0.3777 0.3788 0.3800 0.3811 0.3824
2643.305641 0.3838 0.3852 0.3867 0.3882 0.3897
2638.326994 0.3911 0.3926 0.3940 0.3953 0.3967
2633.348347 0.3981 0.3995 0.4008 0.4022 0.4036
2628.369701 0.4050 0.4064 0.4078 0.4092 0.4106
2623.391054 0.4120 0.4136 0.4151 0.4166 0.4181
2618.412407 0.4196 0.4212 0.4227 0.4242 0.4257
2613.433760 0.4271 0.4284 0.4297 0.4309 0.4321
2608.455114 0.4333 0.4345 0.4357 0.4369 0.4381
2603.476467 0.4393 0.4404 0.4417 0.4430 0.4444
2598.497820 0.4460 0.4476 0.4492 0.4509 0.4525
2593.519173 0.4540 0.4556 0.4567 0.4574 0.4581
2588.540526 0.4589 0.4596 0.4603 0.4610 0.4618
2583.561880 0.4625 0.4632 0.4639 0.4647 0.4654
2578.583233 0.4661 0.4668 0.4676 0.4683 0.4690
2573.604586 0.4697 0.4704 0.4711 0.4718 0.4725
2568.625939 0.4732 0.4739 0.4747 0.4754 0.4761
2563.647292 0.4768 0.4775 0.4781 0.4786 0.4790
2558.668646 0.4794 0.4797 0.4801 0.4805 0.4808
2553.689999 0.4812 0.4816 0.4819 0.4823 0.4828
2548.711352 0.4835 0.4843 0.4851 0.4858 0.4866
2543.732705 0.4874 0.4882 0.4889 0.4897 0.4904
2538.754059 0.4912 0.4920 0.4928 0.4936 0.4944
2533.775412 0.4953 0.4961 0.4970 0.4978 0.4986
2528.796765 0.4995 0.5004 0.5014 0.5024 0.5035
2523.818118 0.5045 0.5056 0.5066 0.5077 0.5087
2518.839471 0.5097 0.5107 0.5116 0.5126 0.5135
2513.860825 0.5145 0.5154 0.5164 0.5173 0.5183
2508.882178 0.5192 0.5201 0.5210 0.5219 0.5228
2503.903531 0.5237 0.5246 0.5255 0.5264 0.5272
2498.924884 0.5281 0.5290 0.5299 0.5307 0.5316
2493.946237 0.5324 0.5331 0.5337 0.5343 0.5349
2488.967591 0.5355 0.5361 0.5367 0.5373 0.5380
2483.988944 0.5386 0.5391 0.5397 0.5403 0.5409
2479.010297 0.5414 0.5420 0.5425 0.5428 0.5428
2474.031650 0.5428 0.5428 0.5429 0.5429 0.5430
2469.053004 0.5432 0.5436 0.5443 0.5449 0.5456
2464.074357 0.5463 0.5470 0.5476 0.5483 0.5489
2459.095710 0.5496 0.5502 0.5508 0.5515 0.5522
2454.117063 0.5528 0.5534 0.5540 0.5547 0.5553
2449.138416 0.5560 0.5566 0.5573 0.5580 0.5588
2444.159770 0.5596 0.5604 0.5612 0.5620 0.5628
2439.181123 0.5636 0.5645 0.5653 0.5661 0.5669
2434.202476 0.5678 0.5686 0.5694 0.5702 0.5710
2429.223829 0.5717 0.5724 0.5730 0.5737 0.5743
2424.245182 0.5750 0.5756 0.5762 0.5769 0.5776
2419.266536 0.5782 0.5789 0.5795 0.5802 0.5808
2414.287889 0.5814 0.5821 0.5828 0.5833 0.5838
2409.309242 0.5843 0.5848 0.5853 0.5857 0.5862
2404.330595 0.5867 0.5872 0.5877 0.5882 0.5887
2399.351948 0.5892 0.5896 0.5900 0.5904 0.5906
2394.373302 0.5908 0.5909 0.5911 0.5913 0.5915
2389.394655 0.5917 0.5919 0.5921 0.5923 0.5925
2384.416008 0.5926 0.5928 0.5929 0.5930 0.5931
2379.437361 0.5933 0.5934 0.5935 0.5936 0.5938
2374.458715 0.5939 0.5940 0.5941 0.5943 0.5944
2369.480068 0.5945 0.5947 0.5949 0.5952 0.5954
2364.501421 0.5956 0.5958 0.5961 0.5963 0.5965
2359.522774 0.5967 0.5969 0.5971 0.5974 0.5976
2354.544127 0.5979 0.5981 0.5984 0.5987 0.5990
2349.565481 0.5992 0.5995 0.5997 0.6000 0.6003
2344.586834 0.6006 0.6008 0.6011 0.6015 0.6020
2339.608187 0.6024 0.6028 0.6032 0.6037 0.6041
2334.629540 0.6045 0.6050 0.6057 0.6064 0.6071
2329.650893 0.6078 0.6085 0.6092 0.6100 0.6107
2324.672247 0.6114 0.6121 0.6128 0.6137 0.6146
2319.693600 0.6157 0.6167 0.6178 0.6188 0.6199
2314.714953 0.6209 0.6218 0.6227 0.6234 0.6241
2309.736306 0.6248 0.6254 0.6261 0.6268 0.6275
2304.757660 0.6282 0.6289 0.6296 0.6303 0.6310
2299.779013 0.6317 0.6324 0.6331 0.6339 0.6346
2294.800366 0.6353 0.6361 0.6368 0.6376 0.6383
2289.821719 0.6391 0.6398 0.6405 0.6412 0.6420
2284.843072 0.6428 0.6436 0.6444 0.6452 0.6459
2279.864426 0.6467 0.6477 0.6486 0.6495 0.6503
2274.885779 0.6512 0.6520 0.6530 0.6538 0.6547
2269.907132 0.6556 0.6564 0.6573 0.6582 0.6590
2264.928485 0.6598 0.6607 0.6615 0.6623 0.6632
2259.949838 0.6641 0.6649 0.6658 0.6666 0.6674
2254.971192 0.6683 0.6692 0.6701 0.6710 0.6720
2249.992545 0.6730 0.6740 0.6750 0.6760 0.6770
2245.013898 0.6780 0.6790 0.6800 0.6810 0.6820
2240.035251 0.6830 0.6839 0.6849 0.6858 0.6866
2235.056605 0.6873 0.6882 0.6890 0.6898 0.6906
2230.077958 0.6912 0.6920 0.6929 0.6937 0.6945
2225.099311 0.6952 0.6961 0.6969 0.6976 0.6984
2220.120664 0.6992 0.7000 0.7005 0.7011 0.7016
2215.142017 0.7022 0.7029 0.7035 0.7041 0.7047
2210.163371 0.7052 0.7058 0.7063 0.7069 0.7076
2205.184724 0.7082 0.7088 0.7094 0.7099 0.7105
2200.206077 0.7111 0.7116 0.7122 0.7129 0.7135
2195.227430 0.7142 0.7148 0.7154 0.7159 0.7166
2190.248783 0.7172 0.7179 0.7185 0.7192 0.7198
2185.270137 0.7204 0.7209 0.7216 0.7222 0.7229
2180.291490 0.7236 0.7243 0.7249 0.7256 0.7262
2175.312843 0.7269 0.7276 0.7283 0.7290 0.7296
2170.334196 0.7302 0.7309 0.7316 0.7323 0.7331
2165.355550 0.7339 0.7346 0.7352 0.7359 0.7368
2160.376903 0.7375 0.7383 0.7390 0.7398 0.7405
2155.398256 0.7412 0.7419 0.7427 0.7433 0.7439
2150.419609 0.7445 0.7452 0.7458 0.7464 0.7469
2145.440962 0.7476 0.7482 0.7489 0.7495 0.7501
2140.462316 0.7507 0.7512 0.7518 0.7522 0.7528
2135.483669 0.7534 0.7539 0.7545 0.7550 0.7556
2130.505022 0.7561 0.7565 0.7571 0.7576 0.7582
2125.526375 0.7588 0.7593 0.7599 0.7604 0.7608
2120.547728 0.7614 0.7619 0.7625 0.7631 0.7636
2115.569082 0.7642 0.7647 0.7651 0.7657 0.7662
2110.590435 0.7668 0.7674 0.7678 0.7684 0.7689
2105.611788 0.7695 0.7700 0.7706 0.7711 0.7717
2100.633141 0.7721 0.7726 0.7732 0.7738 0.7744
2095.654495 0.7750 0.7756 0.7762 0.7768 0.7775
2090.675848 0.7781 0.7787 0.7793 0.7799 0.7804
2085.697201 0.7810 0.7814 0.7818 0.7821 0.7825
2080.718554 0.7830 0.7835 0.7839 0.7843 0.7847
2075.739907 0.7851 0.7855 0.7858 0.7862 0.7868
2070.761261 0.7871 0.7875 0.7880 0.7885 0.7889
2065.782614 0.7893 0.7897 0.7901 0.7906 0.7911
2060.803967 0.7915 0.7918 0.7922 0.7928 0.7932
2055.825320 0.7936 0.7940 0.7945 0.7949 0.7954
2050.846673 0.7958 0.7962 0.7967 0.7971 0.7975
2045.868027 0.7980 0.7984 0.7989 0.7993 0.7998
2040.889380 0.8000 0.8001 0.8003 0.8005 0.8007
2035.910733 0.8008 0.8011 0.8012 0.8014 0.8015
2030.932086 0.8018 0.8019 0.8021 0.8022 0.8025
2025.953440 0.8028 0.8031 0.8035 0.8038 0.8042
2020.974793 0.8046 0.8050 0.8054 0.8058 0.8062
2015.996146 0.8068 0.8071 0.8076 0.8080 0.8084
2011.017499 0.8088 0.8092 0.8094 0.8097 0.8099
2006.038852 0.8101 0.8103 0.8103 0.8103 0.8103
2001.060206 0.8096 0.8088 0.8072 0.8065 0.8060
1996.081559 0.8058 0.8057 0.8053 0.8051 0.8003
1991.102912 0.7925 0.7864 0.7864 0.7891 0.7920
1986.124265 0.7950 0.7980 0.8010 0.8040 0.8068
1981.145618 0.8098 0.8113 0.8118 0.8121 0.8124
1976.166972 0.8130 0.8138 0.8145 0.8152 0.8159
1971.188325 0.8166 0.8173 0.8181 0.8188 0.8195
1966.209678 0.8202 0.8209 0.8216 0.8223 0.8231
1961.231031 0.8238 0.8245 0.8252 0.8259 0.8266
1956.252385 0.8271 0.8278 0.8284 0.8290 0.8296
1951.273738 0.8301 0.8306 0.8311 0.8315 0.8320
1946.295091 0.8324 0.8327 0.8330 0.8332 0.8335
1941.316444 0.8337 0.8340 0.8343 0.8345 0.8346
1936.337797 0.8347 0.8347 0.8347 0.8347 0.8347
1931.359151 0.8347 0.8348 0.8350 0.8352 0.8354
1926.380504 0.8356 0.8358 0.8361 0.8364 0.8368
1921.401857 0.8372 0.8375 0.8379 0.8383 0.8387
1916.423210 0.8390 0.8393 0.8397 0.8400 0.8403
1911.444563 0.8406 0.8410 0.8413 0.8416 0.8419
1906.465917 0.8421 0.8423 0.8426 0.8429 0.8431
1901.487270 0.8434 0.8437 0.8440 0.8442 0.8445
1896.508623 0.8448 0.8451 0.8454 0.8458 0.8462
1891.529976 0.8466 0.8469 0.8473 0.8476 0.8480
1886.551329 0.8485 0.8490 0.8495 0.8500 0.8505
1881.572683 0.8511 0.8516 0.8521 0.8526 0.8530
1876.594036 0.8536 0.8540 0.8544 0.8547 0.8550
1871.615389 0.8553 0.8556 0.8559 0.8561 0.8562
1866.636742 0.8563 0.8564 0.8564 0.8564 0.8563
1861.658096 0.8562 0.8558 0.8550 0.8538 0.8524
1856.679449 0.8516 0.8512 0.8508 0.8507 0.8508
1851.700802 0.8512 0.8516 0.8519 0.8524 0.8530
1846.722155 0.8542 0.8554 0.8566 0.8575 0.8582
1841.743508 0.8588 0.8595 0.8602 0.8609 0.8615
1836.764862 0.8619 0.8622 0.8624 0.8626 0.8629
1831.786215 0.8635 0.8640 0.8645 0.8650 0.8655
1826.807568 0.8660 0.8665 0.8669 0.8673 0.8676
1821.828921 0.8679 0.8682 0.8684 0.8687 0.8690
1816.850274 0.8693 0.8696 0.8699 0.8702 0.8705
1811.871628 0.8706 0.8707 0.8708 0.8709 0.8710
1806.892981 0.8711 0.8712 0.8714 0.8717 0.8720
1801.914334 0.8721 0.8725 0.8728 0.8733 0.8737
1796.935687 0.8741 0.8745 0.8749 0.8753 0.8756
1791.957041 0.8757 0.8758 0.8759 0.8760 0.8761
1786.978394 0.8763 0.8764 0.8764 0.8765 0.8765
1781.999747 0.8765 0.8766 0.8766 0.8766 0.8766
1777.021100 0.8765 0.8765 0.8765 0.8761 0.8757
1772.042453 0.8753 0.8750 0.8750 0.8751 0.8752
1767.063807 0.8753 0.8753 0.8754 0.8754 0.8754
1762.085160 0.8754 0.8754 0.8748 0.8745 0.8743
1757.106513 0.8739 0.8735 0.8731 0.8726 0.8721
1752.127866 0.8718 0.8713 0.8708 0.8703 0.8698
1747.149219 0.8694 0.8689 0.8684 0.8679 0.8675
1742.170573 0.8669 0.8664 0.8659 0.8653 0.8647
1737.191926 0.8642 0.8641 0.8642 0.8642 0.8642
1732.213279 0.8642 0.8643 0.8643 0.8643 0.8642
1727.234632 0.8642 0.8639 0.8635 0.8631 0.8626
1722.255986 0.8622 0.8618 0.8610 0.8600 0.8591
1717.277339 0.8581 0.8571 0.8562 0.8554 0.8544
1712.298692 0.8534 0.8524 0.8513 0.8503 0.8492
1707.320045 0.8478 0.8465 0.8451 0.8438 0.8418
1702.341398 0.8395 0.8371 0.8347 0.8325 0.8307
1697.362752 0.8290 0.8272 0.8250 0.8223 0.8193
1692.384105 0.8162 0.8128 0.8094 0.8056 0.8013
1687.405458 0.7964 0.7909 0.7853 0.7796 0.7739
1682.426811 0.7670 0.7583 0.7491 0.7404 0.7323
1677.448164 0.7242 0.7160 0.7078 0.6996 0.6917
1672.469518 0.6841 0.6766 0.6691 0.6602 0.6496
1667.490871 0.6398 0.6309 0.6220 0.6117 0.5997
1662.512224 0.5852 0.5646 0.5397 0.5188 0.5026
1657.533577 0.4871 0.4709 0.4531 0.4302 0.4054
1652.554931 0.3869 0.3704 0.3513 0.3247 0.2954
1647.576284 0.2711 0.2481 0.2202 0.1932 0.1792
1642.597637 0.1672 0.1574 0.1498 0.1425 0.1357
1637.618990 0.1290 0.1217 0.1142 0.1093 0.1075
1632.640343 0.1065 0.1055 0.1065 0.1089 0.1110
1627.661697 0.1131 0.1164 0.1217 0.1271 0.1327
1622.683050 0.1393 0.1464 0.1532 0.1594 0.1648
1617.704403 0.1696 0.1737 0.1769 0.1790 0.1809
1612.725756 0.1825 0.1828 0.1828 0.1832 0.1830
1607.747109 0.1810 0.1770 0.1720 0.1657 0.1592
1602.768463 0.1545 0.1511 0.1483 0.1461 0.1449
1597.789816 0.1441 0.1439 0.1438 0.1439 0.1448
1592.811169 0.1460 0.1495 0.1565 0.1694 0.1824
1587.832522 0.1920 0.2013 0.2101 0.2186 0.2267
1582.853876 0.2323 0.2381 0.2438 0.2496 0.2572
1577.875229 0.2682 0.2803 0.2951 0.3055 0.3130
1572.896582 0.3206 0.3284 0.3386 0.3504 0.3611
1567.917935 0.3706 0.3798 0.3865 0.3927 0.3988
1562.939288 0.4052 0.4123 0.4193 0.4266 0.4342
1557.960642 0.4420 0.4497 0.4571 0.4646 0.4721
1552.981995 0.4793 0.4863 0.4934 0.5007 0.5082
1548.003348 0.5180 0.5273 0.5347 0.5435 0.5516
1543.024701 0.5571 0.5624 0.5669 0.5705 0.5740
1538.046054 0.5772 0.5802 0.5833 0.5864 0.5891
1533.067408 0.5917 0.5943 0.5969 0.5995 0.6021
1528.088761 0.6044 0.6067 0.6090 0.6113 0.6137
1523.110114 0.6162 0.6187 0.6212 0.6234 0.6254
1518.131467 0.6275 0.6304 0.6333 0.6358 0.6382
1513.152821 0.6403 0.6426 0.6443 0.6456 0.6466
1508.174174 0.6471 0.6472 0.6472 0.6481 0.6485
1503.195527 0.6478 0.6466 0.6453 0.6434 0.6410
1498.216880 0.6375 0.6339 0.6298 0.6236 0.6168
1493.238233 0.6099 0.6031 0.5958 0.5880 0.5802
1488.259587 0.5732 0.5661 0.5571 0.5472 0.5369
1483.280940 0.5241 0.4970 0.4790 0.4602 0.4352
1478.302293 0.4086 0.3820 0.3553 0.3287 0.3021
1473.323646 0.2757 0.2681 0.2670 0.2666 0.2861
1468.344999 0.3171 0.3374 0.3441 0.3453 0.3455
1463.366353 0.3448 0.3423 0.3374 0.3307 0.3238
1458.387706 0.3174 0.3126 0.3088 0.3036 0.2956
1453.409059 0.2813 0.2634 0.2454 0.2273 0.2093
1448.430412 0.1912 0.1732 0.1583 0.1496 0.1460
1443.451766 0.1448 0.1442 0.1467 0.1550 0.1639
1438.473119 0.1714 0.1788 0.1862 0.1937 0.2010
1433.494472 0.2084 0.2159 0.2233 0.2307 0.2380
1428.515825 0.2432 0.2454 0.2466 0.2469 0.2460
1423.537178 0.2447 0.2424 0.2369 0.2261 0.2088
1418.558532 0.1878 0.1674 0.1471 0.1268 0.1064
1413.579885 0.0892 0.0762 0.0638 0.0548 0.0495
1408.601238 0.0459 0.0430 0.0403 0.0384 0.0375
1403.622591 0.0370 0.0359 0.0353 0.0366 0.0368
1398.643944 0.0375 0.0390 0.0414 0.0443 0.0489
1393.665298 0.0566 0.0659 0.0756 0.0844 0.0922
1388.686651 0.0997 0.1067 0.1139 0.1216 0.1297
1383.708004 0.1386 0.1482 0.1597 0.1729 0.1805
1378.729357 0.1880 0.1954 0.2025 0.2088 0.2150
1373.750710 0.2215 0.2279 0.2345 0.2412 0.2491
1368.772064 0.2604 0.2695 0.2778 0.2862 0.2947
1363.793417 0.3028 0.3091 0.3140 0.3181 0.3216
1358.814770 0.3234 0.3246 0.3258 0.3257 0.3256
1353.836123 0.3247 0.3224 0.3187 0.3144 0.3087
1348.857477 0.3021 0.2948 0.2881 0.2838 0.2837
1343.878830 0.2853 0.2894 0.2979 0.3090 0.3185
1338.900183 0.3275 0.3362 0.3445 0.3495 0.3532
1333.921536 0.3569 0.3608 0.3648 0.3689 0.3729
1328.942889 0.3768 0.3809 0.3845 0.3882 0.3921
1323.964243 0.3939 0.3955 0.3959 0.3976 0.3977
1318.985596 0.3945 0.3872 0.3731 0.3589 0.3445
1314.006949 0.3303 0.3160 0.3017 0.2990 0.2954
1309.028302 0.3016 0.3108 0.3200 0.3292 0.3385
1304.049655 0.3475 0.3558 0.3626 0.3718 0.3806
1299.071009 0.3873 0.3940 0.4004 0.4059 0.4104
1294.092362 0.4139 0.4166 0.4174 0.4178 0.4172
1289.113715 0.4158 0.4115 0.3941 0.3750 0.3559
1284.135068 0.3375 0.3350 0.3350 0.3393 0.3481
1279.156422 0.3577 0.3673 0.3768 0.3864 0.3960
1274.177775 0.4056 0.4119 0.4147 0.4160 0.4166
1269.199128 0.4157 0.4140 0.4124 0.4107 0.4087
1264.220481 0.4068 0.4058 0.4049 0.4040 0.3989
1259.241834 0.3818 0.3613 0.3409 0.3205 0.3000
1254.263188 0.2796 0.2592 0.2387 0.2201 0.2135
1249.284541 0.2147 0.2225 0.2376 0.2549 0.2723
1244.305894 0.2895 0.3068 0.3241 0.3415 0.3588
1239.327247 0.3761 0.3830 0.3841 0.3799 0.3705
1234.348600 0.3597 0.3490 0.3384 0.3282 0.3238
1229.369954 0.3248 0.3402 0.3633 0.3856 0.4023
1224.391307 0.4136 0.4205 0.4244 0.4271 0.4302
1219.412660 0.4310 0.4300 0.4254 0.4172 0.4068
1214.434013 0.3918 0.3663 0.3454 0.3340 0.3240
1209.455367 0.3156 0.3080 0.3015 0.2978 0.2954
1204.476720 0.2928 0.2909 0.2898 0.2895 0.2893
1199.498073 0.2896 0.2969 0.3097 0.3216 0.3338
1194.519426 0.3467 0.3615 0.3816 0.3981 0.4062
1189.540779 0.4150 0.4256 0.4364 0.4452 0.4531
1184.562133 0.4637 0.4777 0.4907 0.5011 0.5102
1179.583486 0.5203 0.5300 0.5371 0.5423 0.5456
1174.604839 0.5484 0.5511 0.5538 0.5565 0.5590
1169.626192 0.5614 0.5635 0.5657 0.5677 0.5694
1164.647545 0.5707 0.5719 0.5728 0.5731 0.5731
1159.668899 0.5727 0.5728 0.5729 0.5692 0.5674
1154.690252 0.5656 0.5635 0.5605 0.5571 0.5532
1149.711605 0.5492 0.5444 0.5364 0.5244 0.4991
1144.732958 0.4522 0.4314 0.4167 0.3993 0.3790
1139.754312 0.3587 0.3383 0.3180 0.2976 0.2787
1134.775665 0.2670 0.2647 0.2656 0.2693 0.2818
1129.797018 0.2981 0.3144 0.3307 0.3470 0.3633
1124.818371 0.3772 0.3805 0.3830 0.3803 0.3767
1119.839724 0.3711 0.3575 0.3425 0.3276 0.3128
1114.861078 0.2991 0.2934 0.2896 0.2852 0.2751
1109.882431 0.2515 0.2225 0.2053 0.1690 0.1326
1104.903784 0.0968 0.0688 0.0654 0.0620 0.0590
1099.925137 0.0564 0.0537 0.0501 0.0472 0.0460
1094.946490 0.0456 0.0482 0.0463 0.0497 0.0634
1089.967844 0.1071 0.1388 0.1457 0.1523 0.1582
1084.989197 0.1644 0.1708 0.1781 0.1854 0.1929
1080.010550 0.2003 0.2102 0.2203 0.2287 0.2346
1075.031903 0.2370 0.2383 0.2393 0.2401 0.2411
1070.053257 0.2379 0.2280 0.2170 0.1949 0.1619
1065.074610 0.1536 0.1506 0.1508 0.1664 0.1783
1060.095963 0.1860 0.1932 0.2025 0.2115 0.2200
1055.117316 0.2278 0.2367 0.2444 0.2524 0.2558
1050.138669 0.2568 0.2569 0.2569 0.2539 0.2347
1045.160023 0.2102 0.1854 0.1605 0.1357 0.1108
1040.181376 0.0859 0.0727 0.0735 0.0744 0.0800
1035.202729 0.0900 0.1043 0.1185 0.1453 0.1689
1030.224082 0.1868 0.2023 0.2193 0.2355 0.2510
1025.245435 0.2691 0.2869 0.3027 0.3192 0.3333
1020.266789 0.3433 0.3543 0.3660 0.3770 0.3877
1015.288142 0.3979 0.4059 0.4131 0.4206 0.4283
1010.309495 0.4386 0.4479 0.4553 0.4620 0.4674
1005.330848 0.4722 0.4771 0.4819 0.4880 0.4951
1000.352202 0.5024 0.5098 0.5155 0.5200 0.5241
995.373555 0.5283 0.5329 0.5377 0.5424 0.5469
990.394908 0.5513 0.5555 0.5588 0.5609 0.5621
985.416261 0.5630 0.5625 0.5620 0.5621 0.5602
980.437614 0.5531 0.5355 0.5170 0.4907 0.4180
975.458968 0.3560 0.3421 0.3408 0.3407 0.3503
970.480321 0.3763 0.4095 0.4386 0.4541 0.4603
965.501674 0.4671 0.4750 0.4825 0.4889 0.4943
960.523027 0.4978 0.4997 0.5002 0.5006 0.4973
955.544380 0.4704 0.4224 0.3744 0.3264 0.2784
950.565734 0.2417 0.2289 0.2320 0.2517 0.2861
945.587087 0.3206 0.3550 0.3935 0.4278 0.4457
940.608440 0.4587 0.4704 0.4833 0.4942 0.5075
935.629793 0.5195 0.5271 0.5330 0.5387 0.5440
930.651147 0.5481 0.5519 0.5556 0.5590 0.5619
925.672500 0.5646 0.5668 0.5686 0.5699 0.5705
920.693853 0.5708 0.5723 0.5720 0.5705 0.5678
915.715206 0.5646 0.5605 0.5548 0.5473 0.5388
910.736559 0.5289 0.5163 0.4993 0.4757 0.4696
905.757913 0.4681 0.4686 0.4687 0.4691 0.4732
900.779266 0.4902 0.5155 0.5408 0.5650 0.5827
895.800619 0.5905 0.5950 0.5962 0.5974 0.5982
890.821972 0.5986 0.5989 0.5968 0.5937 0.5874
885.843325 0.5746 0.5412 0.5075 0.4737 0.4397
880.864679 0.3994 0.3304 0.2545 0.1847 0.1616
875.886032 0.1623 0.1652 0.1880 0.2108 0.2337
870.907385 0.2566 0.2795 0.3023 0.3253 0.3492
865.928738 0.3827 0.3979 0.4169 0.4305 0.4429
860.950091 0.4542 0.4666 0.4814 0.4920 0.4999
855.971445 0.5071 0.5139 0.5205 0.5263 0.5321
850.992798 0.5378 0.5427 0.5477 0.5522 0.5557
846.014151 0.5592 0.5630 0.5669 0.5707 0.5744
841.035504 0.5781 0.5819 0.5858 0.5895 0.5923
836.056858 0.5937 0.5963 0.5944 0.5939 0.5918
831.078211 0.5869 0.5748 0.5621 0.5518 0.5391
826.099564 0.5239 0.5049 0.4893 0.4740 0.4586
821.120917 0.4416 0.4241 0.4091 0.3931 0.3768
816.142270 0.3605 0.3444 0.3282 0.3119 0.2957
811.163624 0.2795 0.2632 0.2539 0.2496 0.2509
806.184977 0.2566 0.2645 0.2782 0.2934 0.3086
801.206330 0.3238 0.3478 0.3710 0.3931 0.4006
796.227683 0.4014 0.3976 0.3823 0.3738 0.3706
791.249036 0.3686 0.3666 0.3656 0.3654 0.3658
786.270390 0.3666 0.3673 0.3687 0.3706 0.3733
781.291743 0.3768 0.3794 0.3814 0.3834 0.3850
776.313096 0.3862 0.3876 0.3889 0.3901 0.3912
771.334449 0.3923 0.3931 0.3939 0.3943 0.3944
766.355803 0.3945 0.3943 0.3940 0.3937 0.3933
761.377156 0.3922 0.3871 0.3783 0.3685 0.3591
756.398509 0.3507 0.3432 0.3363 0.3295 0.3226
751.419862 0.3149 0.3056 0.2963 0.2879 0.2798
746.441215 0.2722 0.2649 0.2578 0.2518 0.2467
741.462569 0.2417 0.2369 0.2325 0.2291 0.2267
736.483922 0.2251 0.2240 0.2230 0.2220 0.2207
731.505275 0.2189 0.2170 0.2150 0.2130 0.2110
726.526628 0.2090 0.2070 0.2050 0.2033 0.2026
721.547981 0.2028 0.2048 0.2113 0.2211 0.2310
716.569335 0.2409 0.2508 0.2607 0.2705 0.2804
711.590688 0.2903 0.2975 0.3003 0.3022 0.3028
706.612041 0.3015 0.2999 0.2957 0.2816 0.2580
701.633394 0.2343 0.2106 0.1869 0.1691 0.1639
696.654748 0.1620 0.1608 0.1617 0.1629 0.1668
691.676101 0.1751 0.1859 0.1969 0.2079 0.2189
686.697454 0.2299 0.2396 0.2459 0.2513 0.2568
681.718807 0.2629 0.2691 0.2758 0.2836 0.2920
676.740160 0.3004 0.3085 0.3165 0.3238 0.3297
671.761514 0.3355 0.3410 0.3477 0.3548 0.3620
666.782867 0.3690 0.3759 0.3813 0.3831 0.3844
661.804220 0.3858 0.3848 0.3838 0.3810 0.3750
656.825573 0.3667 0.3531 0.3223 0.2914 0.2605
651.846926 0.2297 0.1988 0.1710 0.1626 0.1632
646.868280 0.1702 0.1968 0.2236 0.2503 0.2770
641.889633 0.3054 0.3450 0.3635 0.3767 0.3885
636.910986 0.4108 0.4309 0.4470 0.4609 0.4770
631.932339 0.4974 0.5088 0.5173 0.5233 0.5287
626.953693 0.5340 0.5393 0.5444 0.5495 0.5536
621.975046 0.5574 0.5608 0.5641 0.5666 0.5690
616.996399 0.5710 0.5728 0.5745 0.5753 0.5762
612.017752 0.5762 0.5762 0.5760 0.5757 0.5723
607.039105 0.5685 0.5606 0.5415 0.5222 0.5050
602.060459 0.4839 0.4548 0.4214 0.3878 0.3540
597.081812 0.3205 0.2868 0.2532 0.2276 0.2219
592.103165 0.2211 0.2220 0.2261 0.2607 0.2868
587.124518 0.3114 0.3359 0.3604 0.3943 0.4118
582.145871 0.4306 0.4507 0.4662 0.4783 0.4870
577.167225 0.4942 0.5013 0.5074 0.5134 0.5192
572.188578 0.5249 0.5305 0.5351 0.5387 0.5422
567.209931 0.5455 0.5488 0.5518 0.5542 0.5564
562.231284 0.5587 0.5612 0.5628 0.5640 0.5648
557.252638 0.5667 0.5659 0.5653 0.5651 0.5645
552.273991 0.5636 0.5625 0.5607 0.5587 0.5566
547.295344 0.5546 0.5526 0.5500 0.5470 0.5440
542.316697 0.5405 0.5364 0.5322 0.5270 0.5206
537.338050 0.5139 0.5038 0.4926 0.4821 0.4708
532.359404 0.4591 0.4492 0.4405 0.4297 0.4178
527.380757 0.4090 0.4022 0.3951 0.3866 0.3746
522.402110 0.3614 0.3462 0.3293 0.3125 0.3013
517.423463 0.2973 0.2965 0.2968 0.2973 0.3005
512.444816 0.3062 0.3124 0.3187 0.3259 0.3339
507.466170 0.3415 0.3487 0.3557 0.3655 0.3757
502.487523 0.3852 0.3957 0.4062 0.4167 0.4272
497.508876 0.4377 0.4482 0.4587 0.4692 0.4797
492.530229 0.4902 0.5000 0.5061 0.5079 0.5083
487.551583 0.5077 0.5047 0.4928 0.4754 0.4626
482.572936 0.4497 0.4368 0.4240 0.4112 0.3983
477.594289 0.3855 0.3726 0.3615 0.3553 0.3527
472.615642 0.3515 0.3508 0.3509 0.3516 0.3526
467.636995 0.3536 0.3547 0.3556 0.3565 0.3574
462.658349 0.3577 0.3576 0.3575 0.3569 0.3541
457.679702 0.3446 0.3247 0.3018 0.2788 0.2559
452.701055 0.2391 0.2377 0.2401 0.2528 0.2769
447.722408 0.3010 0.3223 0.3342 0.3391 0.3428
442.743761 0.3456 0.3477 0.3493 0.3510 0.3524
437.765115 0.3510 0.3500 0.3478 0.3441 0.3401
432.786468 0.3361 0.3317 0.3268 0.3217 0.3164
427.807821 0.3110 0.3052 0.2984 0.2921 0.2879
422.829174 0.2837 0.2792 0.2733 0.2669 0.2605
417.850528 0.2550 0.2499 0.2448 0.2399 0.2354
412.871881 0.2308 0.2264 0.2228 0.2195 0.2162
407.893234 0.2132 0.2118 0.2105 0.2092 0.2078
402.914587 0.2065 0.2052 0.2041 0.2033 0.2026
397.935940 0.2019 0.2012 0.2004 0.1996 0.1992
392.957294 0.1986 0.1981 0.1976 0.1977 0.1978
387.978647 0.1981 0.1984 0.1986 0.1989 0.1990
##END=
