##TITLE=BISMUTH OXALATE
##JCAMP-DX=4.24
##DATA TYPE=INFRARED SPECTRUM
##CLASS=COBLENTZ
##OWNER=COBLENTZ SOCIETY
Collection (C) 2018 copyright by the U.S. Secretary of Commerce
on behalf of the United States of America. All rights reserved.
##DATE=Not specified, most likely prior to 1970
##MOLFORM=Bi2 ( C2 O4)3
##SOURCE REFERENCE=COBLENTZ NO. 82
##$NIST ID=B6000082
##$NIST SOURCE=COBLENTZ
##$NIST IMAGE=cob82
##SPECTROMETER/DATA SYSTEM=Not specified, most likely a prism, grating, or hybrid spectrometer.
##STATE=SOLID (KBr DISC)
##SAMPLING PROCEDURE=TRANSMISSION
##RESOLUTION=4
##DATA PROCESSING=DIGITIZED BY NIST FROM HARD COPY
##XUNITS=MICROMETERS
##YUNITS=TRANSMITTANCE
##XFACTOR=1.000000
##YFACTOR=1
##DELTAX=000.007563
##FIRSTX=2.041
##LASTX=15.0345
##FIRSTY=0.456
##MAXX=15.0345
##MINX=2.041
##MAXY=0.824
##MINY=0.251
##NPOINTS=1719
##XYDATA=(X++(Y..Y))
2.041000 0.4560 0.4560 0.4580 0.4580 0.4590
2.078837 0.4600 0.4620 0.4650 0.4680 0.4680
2.117000 0.4690 0.4690 0.4710 0.4710 0.4710
2.154837 0.4720 0.4720 0.4720 0.4740 0.4740
2.192000 0.4750 0.4770 0.4780 0.4780 0.4800
2.229837 0.4800 0.4810 0.4830 0.4840 0.4860
2.268000 0.4870 0.4880 0.4880 0.4900 0.4910
2.305837 0.4930 0.4940 0.4940 0.4960 0.4970
2.344000 0.4970 0.4970 0.4990 0.5020 0.5030
2.381837 0.5050 0.5060 0.5080 0.5090 0.5110
2.419000 0.5130 0.5130 0.5150 0.5160 0.5160
2.456837 0.5180 0.5190 0.5190 0.5210 0.5220
2.495000 0.5240 0.5250 0.5250 0.5250 0.5270
2.532837 0.5280 0.5300 0.5300 0.5310 0.5330
2.571000 0.5330 0.5340 0.5370 0.5390 0.5410
2.608837 0.5430 0.5460 0.5470 0.5520 0.5550
2.646000 0.5550 0.5560 0.5580 0.5580 0.5610
2.683837 0.5610 0.5620 0.5640 0.5670 0.5690
2.722000 0.5720 0.5750 0.5780 0.5800 0.5840
2.759837 0.5840 0.5860 0.5860 0.5860 0.5860
2.797000 0.5860 0.5840 0.5830 0.5750 0.5650
2.834837 0.5390 0.5270 0.5150 0.5000 0.4880
2.873000 0.4770 0.4600 0.4490 0.4400 0.4310
2.910837 0.4250 0.4190 0.4150 0.4090 0.4000
2.949000 0.3970 0.3930 0.3880 0.3850 0.3790
2.986837 0.3780 0.3780 0.3780 0.3780 0.3790
3.024000 0.3810 0.3820 0.3850 0.3880 0.3900
3.061837 0.3930 0.3960 0.3970 0.4030 0.4060
3.100000 0.4090 0.4130 0.4160 0.4190 0.4210
3.137837 0.4220 0.4250 0.4280 0.4310 0.4320
3.176000 0.4350 0.4370 0.4370 0.4380 0.4400
3.213837 0.4410 0.4430 0.4460 0.4470 0.4470
3.251000 0.4490 0.4490 0.4500 0.4500 0.4520
3.288837 0.4530 0.4550 0.4580 0.4590 0.4600
3.327000 0.4650 0.4660 0.4680 0.4710 0.4720
3.364837 0.4740 0.4740 0.4750 0.4750 0.4750
3.403000 0.4750 0.4770 0.4770 0.4780 0.4800
3.440837 0.4810 0.4830 0.4830 0.4840 0.4860
3.478000 0.4870 0.4900 0.4910 0.4930 0.4940
3.515837 0.4960 0.4970 0.4990 0.5050 0.5060
3.554000 0.5080 0.5090 0.5120 0.5130 0.5160
3.591837 0.5190 0.5210 0.5220 0.5250 0.5270
3.629000 0.5280 0.5300 0.5300 0.5330 0.5340
3.666837 0.5360 0.5370 0.5390 0.5400 0.5410
3.705000 0.5430 0.5460 0.5460 0.5460 0.5490
3.742837 0.5490 0.5500 0.5530 0.5550 0.5560
3.781000 0.5560 0.5580 0.5580 0.5590 0.5590
3.818837 0.5610 0.5620 0.5620 0.5650 0.5670
3.856000 0.5670 0.5670 0.5670 0.5680 0.5690
3.893837 0.5690 0.5710 0.5720 0.5720 0.5740
3.932000 0.5740 0.5750 0.5770 0.5770 0.5800
3.969837 0.5810 0.5810 0.5810 0.5830 0.5840
4.008000 0.5840 0.5860 0.5860 0.5860 0.5870
4.045837 0.5870 0.5890 0.5890 0.5900 0.5920
4.083000 0.5920 0.5930 0.5940 0.5940 0.5960
4.120837 0.5960 0.5970 0.5970 0.5970 0.5990
4.159000 0.5990 0.6000 0.6000 0.6000 0.6020
4.196837 0.6020 0.6020 0.6020 0.6030 0.6030
4.234000 0.6030 0.6030 0.6030 0.6030 0.6030
4.271837 0.6030 0.6030 0.6030 0.6030 0.6030
4.310000 0.6030 0.6050 0.6050 0.6050 0.6060
4.347837 0.6080 0.6090 0.6110 0.6120 0.6140
4.386000 0.6150 0.6180 0.6200 0.6210 0.6210
4.423837 0.6210 0.6220 0.6240 0.6250 0.6250
4.461000 0.6270 0.6270 0.6280 0.6300 0.6310
4.498837 0.6330 0.6340 0.6360 0.6370 0.6390
4.537000 0.6390 0.6400 0.6400 0.6420 0.6420
4.574837 0.6430 0.6430 0.6460 0.6480 0.6490
4.613000 0.6520 0.6530 0.6550 0.6580 0.6590
4.650837 0.6590 0.6610 0.6610 0.6620 0.6620
4.688000 0.6640 0.6650 0.6670 0.6670 0.6680
4.725837 0.6680 0.6700 0.6710 0.6730 0.6750
4.764000 0.6770 0.6770 0.6780 0.6800 0.6800
4.801837 0.6810 0.6830 0.6840 0.6860 0.6890
4.839000 0.6900 0.6920 0.6950 0.6960 0.6990
4.876837 0.7030 0.7050 0.7060 0.7090 0.7110
4.915000 0.7120 0.7150 0.7170 0.7180 0.7200
4.952837 0.7210 0.7230 0.7260 0.7270 0.7310
4.991000 0.7330 0.7360 0.7370 0.7370 0.7390
5.028837 0.7400 0.7430 0.7480 0.7520 0.7550
5.066000 0.7580 0.7590 0.7620 0.7650 0.7670
5.103837 0.7700 0.7710 0.7740 0.7760 0.7770
5.142000 0.7790 0.7800 0.7800 0.7820 0.7840
5.179837 0.7840 0.7860 0.7870 0.7870 0.7870
5.218000 0.7890 0.7900 0.7920 0.7920 0.7930
5.255837 0.7930 0.7930 0.7930 0.7930 0.7950
5.293000 0.7960 0.7980 0.7990 0.8040 0.8050
5.330837 0.8070 0.8070 0.8080 0.8140 0.8150
5.369000 0.8210 0.8230 0.8240 0.8240 0.8240
5.406837 0.8240 0.8240 0.8240 0.8240 0.8240
5.445000 0.8240 0.8240 0.8230 0.8230 0.8230
5.482837 0.8210 0.8200 0.8170 0.8140 0.8110
5.520000 0.8080 0.8040 0.7980 0.7930 0.7870
5.557837 0.7840 0.7790 0.7770 0.7730 0.7650
5.596000 0.7580 0.7540 0.7480 0.7430 0.7390
5.633837 0.7300 0.7230 0.7150 0.7060 0.7020
5.671000 0.6980 0.6930 0.6830 0.6740 0.6680
5.708837 0.6640 0.6580 0.6520 0.6400 0.6330
5.747000 0.6240 0.6150 0.6080 0.6020 0.5960
5.784837 0.5770 0.5710 0.5670 0.5620 0.5550
5.823000 0.5410 0.5300 0.5180 0.5130 0.5030
5.860837 0.4990 0.4940 0.4880 0.4490 0.4410
5.898000 0.4210 0.4120 0.4060 0.3990 0.3910
5.935837 0.3810 0.3720 0.3620 0.3590 0.3530
5.974000 0.3460 0.3400 0.3370 0.3310 0.3260
6.011837 0.3260 0.3250 0.3240 0.3220 0.3180
6.050000 0.3100 0.3030 0.3010 0.2980 0.2960
6.087837 0.2940 0.2910 0.2880 0.2850 0.2810
6.125000 0.2780 0.2750 0.2730 0.2700 0.2680
6.162837 0.2660 0.2630 0.2600 0.2570 0.2560
6.201000 0.2540 0.2540 0.2540 0.2530 0.2530
6.238837 0.2530 0.2510 0.2510 0.2510 0.2510
6.276000 0.2530 0.2560 0.2570 0.2600 0.2630
6.313837 0.2660 0.2700 0.2720 0.2820 0.2900
6.352000 0.2940 0.3040 0.3090 0.3130 0.3160
6.389837 0.3190 0.3240 0.3280 0.3370 0.3410
6.428000 0.3470 0.3530 0.3570 0.3590 0.3620
6.465837 0.3650 0.3660 0.3690 0.3740 0.3790
6.503000 0.3840 0.3880 0.3930 0.4020 0.4060
6.540837 0.4090 0.4120 0.4130 0.4160 0.4190
6.579000 0.4240 0.4270 0.4310 0.4340 0.4350
6.616837 0.4370 0.4370 0.4410 0.4470 0.4500
6.655000 0.4520 0.4550 0.4560 0.4620 0.4650
6.692837 0.4660 0.4660 0.4690 0.4740 0.4770
6.730000 0.4800 0.4810 0.4840 0.4860 0.4870
6.767837 0.4870 0.4870 0.4880 0.4900 0.4910
6.806000 0.4930 0.4930 0.4900 0.4880 0.4840
6.843837 0.4780 0.4780 0.4780 0.4780 0.4780
6.882000 0.4770 0.4770 0.4770 0.4770 0.4770
6.919837 0.4770 0.4780 0.4780 0.4780 0.4800
6.957000 0.4810 0.4830 0.4860 0.4880 0.4900
6.994837 0.4900 0.4930 0.4930 0.4940 0.4960
7.033000 0.4970 0.4990 0.4990 0.5030 0.5060
7.070837 0.5090 0.5120 0.5150 0.5180 0.5190
7.108000 0.5210 0.5220 0.5240 0.5250 0.5270
7.145837 0.5270 0.5280 0.5280 0.5310 0.5330
7.184000 0.5360 0.5390 0.5410 0.5440 0.5460
7.221837 0.5490 0.5500 0.5530 0.5560 0.5580
7.260000 0.5590 0.5610 0.5620 0.5620 0.5640
7.297837 0.5640 0.5640 0.5640 0.5620 0.5620
7.335000 0.5620 0.5620 0.5620 0.5620 0.5620
7.372837 0.5610 0.5610 0.5580 0.5560 0.5530
7.411000 0.5500 0.5470 0.5460 0.5460 0.5440
7.448837 0.5440 0.5440 0.5440 0.5440 0.5440
7.487000 0.5440 0.5430 0.5430 0.5430 0.5430
7.524837 0.5430 0.5440 0.5440 0.5430 0.5410
7.562000 0.5360 0.5310 0.5270 0.5150 0.5060
7.599837 0.5000 0.4930 0.4810 0.4720 0.4680
7.638000 0.4620 0.4560 0.4530 0.4520 0.4520
7.675837 0.4500 0.4500 0.4500 0.4500 0.4500
7.713000 0.4500 0.4500 0.4500 0.4530 0.4550
7.750837 0.4580 0.4600 0.4620 0.4660 0.4720
7.789000 0.4750 0.4770 0.4810 0.4830 0.4870
7.826837 0.4900 0.4930 0.4940 0.4970 0.5030
7.865000 0.5060 0.5080 0.5110 0.5120 0.5150
7.902837 0.5180 0.5190 0.5210 0.5250 0.5280
7.940000 0.5300 0.5310 0.5330 0.5340 0.5360
7.977837 0.5360 0.5370 0.5390 0.5400 0.5410
8.016000 0.5430 0.5440 0.5440 0.5460 0.5470
8.053837 0.5490 0.5490 0.5500 0.5500 0.5520
8.092000 0.5530 0.5530 0.5550 0.5550 0.5550
8.129837 0.5550 0.5550 0.5560 0.5560 0.5560
8.167000 0.5580 0.5580 0.5580 0.5580 0.5580
8.204837 0.5580 0.5590 0.5590 0.5590 0.5610
8.243000 0.5620 0.5640 0.5640 0.5640 0.5650
8.280837 0.5650 0.5650 0.5670 0.5670 0.5670
8.318000 0.5680 0.5680 0.5690 0.5690 0.5710
8.355837 0.5710 0.5710 0.5710 0.5720 0.5720
8.394000 0.5740 0.5750 0.5770 0.5770 0.5780
8.431837 0.5780 0.5800 0.5800 0.5830 0.5830
8.470000 0.5840 0.5840 0.5840 0.5860 0.5860
8.507837 0.5860 0.5860 0.5860 0.5870 0.5870
8.545000 0.5870 0.5890 0.5890 0.5890 0.5890
8.582837 0.5890 0.5900 0.5900 0.5900 0.5920
8.621000 0.5920 0.5920 0.5930 0.5930 0.5930
8.658837 0.5930 0.5930 0.5940 0.5940 0.5940
8.697000 0.5940 0.5960 0.5960 0.5970 0.5970
8.734837 0.5970 0.5970 0.5990 0.5990 0.5990
8.772000 0.5990 0.5990 0.5990 0.6000 0.6020
8.809837 0.6020 0.6030 0.6030 0.6030 0.6030
8.848000 0.6050 0.6050 0.6050 0.6050 0.6050
8.885837 0.6050 0.6050 0.6060 0.6060 0.6060
8.924000 0.6060 0.6060 0.6080 0.6080 0.6080
8.961837 0.6080 0.6080 0.6080 0.6090 0.6090
8.999000 0.6090 0.6090 0.6090 0.6110 0.6110
9.036837 0.6110 0.6110 0.6120 0.6120 0.6120
9.075000 0.6120 0.6120 0.6140 0.6150 0.6150
9.112837 0.6150 0.6150 0.6150 0.6170 0.6170
9.150000 0.6170 0.6180 0.6180 0.6200 0.6200
9.187837 0.6200 0.6210 0.6210 0.6210 0.6210
9.226000 0.6220 0.6220 0.6240 0.6240 0.6240
9.263837 0.6240 0.6250 0.6250 0.6270 0.6270
9.302000 0.6270 0.6270 0.6270 0.6270 0.6270
9.339837 0.6270 0.6270 0.6280 0.6280 0.6280
9.377000 0.6280 0.6300 0.6300 0.6310 0.6330
9.414837 0.6330 0.6340 0.6360 0.6360 0.6370
9.453000 0.6370 0.6390 0.6390 0.6390 0.6390
9.490837 0.6390 0.6390 0.6400 0.6400 0.6400
9.529000 0.6400 0.6420 0.6420 0.6430 0.6430
9.566837 0.6450 0.6460 0.6480 0.6480 0.6490
9.604000 0.6490 0.6500 0.6500 0.6500 0.6520
9.641837 0.6520 0.6520 0.6520 0.6530 0.6530
9.680000 0.6530 0.6530 0.6550 0.6550 0.6560
9.717837 0.6580 0.6580 0.6610 0.6610 0.6640
9.755000 0.6650 0.6650 0.6670 0.6670 0.6670
9.792837 0.6670 0.6680 0.6680 0.6680 0.6680
9.831000 0.6680 0.6680 0.6680 0.6700 0.6700
9.868837 0.6710 0.6730 0.6730 0.6740 0.6740
9.907000 0.6740 0.6770 0.6770 0.6780 0.6780
9.944837 0.6780 0.6780 0.6780 0.6780 0.6780
9.982000 0.6780 0.6800 0.6800 0.6810 0.6810
10.019837 0.6830 0.6830 0.6840 0.6860 0.6860
10.058000 0.6870 0.6890 0.6900 0.6920 0.6920
10.095837 0.6930 0.6930 0.6930 0.6950 0.6960
10.134000 0.6960 0.6980 0.6980 0.6980 0.6980
10.171837 0.6980 0.6990 0.6990 0.6990 0.6990
10.209000 0.6990 0.7020 0.7020 0.7030 0.7030
10.246837 0.7030 0.7050 0.7050 0.7050 0.7060
10.285000 0.7060 0.7060 0.7060 0.7080 0.7080
10.322837 0.7090 0.7090 0.7110 0.7120 0.7120
10.361000 0.7140 0.7170 0.7170 0.7170 0.7180
10.398837 0.7180 0.7180 0.7200 0.7200 0.7210
10.436000 0.7210 0.7230 0.7230 0.7230 0.7230
10.473837 0.7240 0.7240 0.7240 0.7260 0.7260
10.512000 0.7260 0.7260 0.7270 0.7270 0.7270
10.549837 0.7290 0.7290 0.7290 0.7300 0.7310
10.587000 0.7310 0.7310 0.7310 0.7330 0.7330
10.624837 0.7330 0.7330 0.7340 0.7340 0.7360
10.663000 0.7360 0.7360 0.7370 0.7370 0.7370
10.700837 0.7370 0.7390 0.7400 0.7400 0.7420
10.739000 0.7420 0.7420 0.7430 0.7450 0.7450
10.776837 0.7450 0.7460 0.7480 0.7480 0.7480
10.814000 0.7480 0.7490 0.7490 0.7490 0.7510
10.851837 0.7510 0.7510 0.7510 0.7520 0.7520
10.890000 0.7520 0.7540 0.7540 0.7550 0.7550
10.927837 0.7560 0.7580 0.7580 0.7580 0.7580
10.966000 0.7580 0.7580 0.7590 0.7590 0.7590
11.003837 0.7590 0.7610 0.7610 0.7610 0.7610
11.041000 0.7610 0.7610 0.7620 0.7610 0.7610
11.078837 0.7610 0.7610 0.7610 0.7610 0.7610
11.117000 0.7610 0.7610 0.7610 0.7610 0.7610
11.154837 0.7610 0.7610 0.7610 0.7610 0.7610
11.192000 0.7610 0.7610 0.7610 0.7610 0.7610
11.229837 0.7610 0.7610 0.7610 0.7620 0.7620
11.268000 0.7620 0.7620 0.7620 0.7620 0.7620
11.305837 0.7640 0.7640 0.7640 0.7640 0.7640
11.344000 0.7640 0.7640 0.7640 0.7640 0.7640
11.381837 0.7640 0.7650 0.7650 0.7650 0.7650
11.419000 0.7650 0.7650 0.7650 0.7650 0.7670
11.456837 0.7670 0.7670 0.7670 0.7670 0.7670
11.495000 0.7670 0.7670 0.7670 0.7670 0.7670
11.532837 0.7670 0.7670 0.7670 0.7670 0.7670
11.571000 0.7670 0.7670 0.7670 0.7670 0.7670
11.608837 0.7650 0.7650 0.7650 0.7640 0.7620
11.646000 0.7610 0.7610 0.7590 0.7580 0.7580
11.683837 0.7560 0.7560 0.7550 0.7540 0.7540
11.722000 0.7520 0.7510 0.7510 0.7510 0.7510
11.759837 0.7510 0.7490 0.7490 0.7490 0.7490
11.797000 0.7480 0.7480 0.7460 0.7460 0.7460
11.834837 0.7430 0.7420 0.7400 0.7390 0.7370
11.873000 0.7360 0.7330 0.7310 0.7300 0.7290
11.910837 0.7270 0.7260 0.7240 0.7230 0.7210
11.949000 0.7200 0.7180 0.7170 0.7150 0.7140
11.986837 0.7120 0.7110 0.7110 0.7090 0.7080
12.024000 0.7050 0.7020 0.7020 0.7010 0.6990
12.061837 0.6980 0.6960 0.6950 0.6930 0.6900
12.100000 0.6890 0.6860 0.6860 0.6840 0.6810
12.137837 0.6800 0.6780 0.6750 0.6740 0.6710
12.176000 0.6680 0.6680 0.6670 0.6650 0.6640
12.213837 0.6620 0.6610 0.6590 0.6580 0.6550
12.251000 0.6520 0.6500 0.6480 0.6430 0.6400
12.288837 0.6370 0.6360 0.6360 0.6340 0.6330
12.327000 0.6310 0.6280 0.6270 0.6240 0.6220
12.364837 0.6210 0.6200 0.6150 0.6140 0.6110
12.403000 0.6090 0.6060 0.6030 0.6000 0.5990
12.440837 0.5970 0.5940 0.5920 0.5900 0.5840
12.478000 0.5800 0.5770 0.5720 0.5690 0.5620
12.515837 0.5560 0.5520 0.5490 0.5440 0.5390
12.554000 0.5360 0.5330 0.5300 0.5280 0.5250
12.591837 0.5220 0.5180 0.5150 0.5150 0.5130
12.629000 0.5130 0.5130 0.5130 0.5130 0.5130
12.666837 0.5150 0.5190 0.5210 0.5270 0.5300
12.705000 0.5340 0.5370 0.5400 0.5430 0.5460
12.742837 0.5490 0.5520 0.5550 0.5560 0.5590
12.781000 0.5640 0.5670 0.5690 0.5720 0.5770
12.818837 0.5800 0.5830 0.5860 0.5870 0.5900
12.856000 0.5930 0.5960 0.5990 0.6030 0.6050
12.893837 0.6080 0.6080 0.6080 0.6110 0.6110
12.932000 0.6120 0.6140 0.6170 0.6180 0.6210
12.969837 0.6210 0.6220 0.6220 0.6250 0.6270
13.008000 0.6280 0.6300 0.6300 0.6310 0.6310
13.045837 0.6330 0.6340 0.6360 0.6370 0.6370
13.083000 0.6390 0.6390 0.6390 0.6390 0.6390
13.120837 0.6390 0.6390 0.6390 0.6390 0.6400
13.159000 0.6420 0.6420 0.6430 0.6450 0.6460
13.196837 0.6490 0.6490 0.6490 0.6490 0.6490
13.234000 0.6490 0.6500 0.6500 0.6500 0.6500
13.271837 0.6500 0.6500 0.6500 0.6500 0.6500
13.310000 0.6520 0.6520 0.6520 0.6520 0.6530
13.347837 0.6530 0.6530 0.6530 0.6550 0.6550
13.386000 0.6550 0.6550 0.6550 0.6560 0.6560
13.423837 0.6560 0.6560 0.6560 0.6560 0.6560
13.461000 0.6550 0.6550 0.6550 0.6550 0.6550
13.498837 0.6550 0.6550 0.6550 0.6550 0.6530
13.537000 0.6530 0.6530 0.6530 0.6530 0.6530
13.574837 0.6530 0.6530 0.6550 0.6550 0.6550
13.613000 0.6550 0.6550 0.6550 0.6530 0.6530
13.650837 0.6550 0.6550 0.6550 0.6550 0.6550
13.688000 0.6560 0.6560 0.6560 0.6560 0.6560
13.725837 0.6560 0.6560 0.6560 0.6560 0.6560
13.764000 0.6560 0.6550 0.6550 0.6550 0.6530
13.801837 0.6530 0.6530 0.6520 0.6520 0.6520
13.839000 0.6520 0.6520 0.6520 0.6520 0.6520
13.876837 0.6520 0.6520 0.6520 0.6520 0.6520
13.915000 0.6520 0.6520 0.6520 0.6520 0.6520
13.952837 0.6520 0.6520 0.6500 0.6500 0.6500
13.991000 0.6500 0.6500 0.6500 0.6500 0.6500
14.028837 0.6500 0.6500 0.6500 0.6500 0.6500
14.066000 0.6490 0.6490 0.6480 0.6480 0.6480
14.103837 0.6480 0.6480 0.6480 0.6480 0.6480
14.142000 0.6480 0.6460 0.6460 0.6460 0.6450
14.179837 0.6460 0.6460 0.6450 0.6450 0.6460
14.218000 0.6460 0.6460 0.6480 0.6480 0.6480
14.255837 0.6480 0.6480 0.6460 0.6460 0.6450
14.293000 0.6450 0.6450 0.6450 0.6450 0.6450
14.330837 0.6450 0.6450 0.6450 0.6450 0.6450
14.369000 0.6450 0.6450 0.6450 0.6450 0.6450
14.406837 0.6450 0.6450 0.6450 0.6450 0.6450
14.445000 0.6450 0.6430 0.6430 0.6430 0.6430
14.482837 0.6430 0.6430 0.6430 0.6430 0.6450
14.520000 0.6450 0.6450 0.6430 0.6430 0.6430
14.557837 0.6430 0.6420 0.6420 0.6420 0.6400
14.596000 0.6400 0.6400 0.6400 0.6390 0.6390
14.633837 0.6390 0.6390 0.6390 0.6370 0.6370
14.671000 0.6370 0.6360 0.6360 0.6360 0.6360
14.708837 0.6360 0.6360 0.6360 0.6340 0.6340
14.747000 0.6340 0.6340 0.6340 0.6340 0.6330
14.784837 0.6340 0.6340 0.6330 0.6330 0.6330
14.823000 0.6310 0.6310 0.6310 0.6310 0.6310
14.860837 0.6310 0.6310 0.6330 0.6310 0.6310
14.898000 0.6330 0.6330 0.6330 0.6310 0.6300
14.935837 0.6300 0.6280 0.6280 0.6270 0.6270
14.974000 0.6250 0.6240 0.6240 0.7010 0.6280
15.011837 0.6270 0.6270 0.6250 0.6240
##END=
