##TITLE=2-PHENYL-3-BENZOFURANYL PENICILLIN, SODIUM SALT
##JCAMP-DX=4.24
##DATA TYPE=INFRARED SPECTRUM
##CLASS=COBLENTZ III
##ORIGIN=SMITH KLINE & FRENCH LABS.
##OWNER=COBLENTZ SOCIETY
Collection (C) 2018 copyright by the U.S. Secretary of Commerce
on behalf of the United States of America. All rights reserved.
##DATE=1962/10/01
##MOLFORM=C23 H19 N2 O5 S Na
##SOURCE REFERENCE=COBLENTZ NO. 9138
##$NIST ID=B6009138
##$NIST SOURCE=COBLENTZ
##$NIST IMAGE=cob9138
##SPECTROMETER/DATA SYSTEM=Not specified, most likely a prism spectrometer.
##INSTRUMENT PARAMETERS=NaCl PRISM
##STATE=SOLID (OIL MULL)
$$SPECTRAL CONTAMINATION DUE TO OIL AROUND 2900, 1450, 1380 CM^-^1
##SAMPLING PROCEDURE=TRANSMISSION
##RESOLUTION=2
##DATA PROCESSING=DIGITIZED BY NIST FROM HARD COPY
##XUNITS=MICROMETERS
##YUNITS=TRANSMITTANCE
##XFACTOR=1.000000
##YFACTOR=1
##DELTAX=000.004880
##FIRSTX=1.995
##LASTX=15.3365
##FIRSTY=0.594
##MAXX=15.3365
##MINX=1.995
##MAXY=0.922
##MINY=0.097
##NPOINTS=2735
##XYDATA=(X++(Y..Y))
1.995000 0.5940 0.5950 0.5940 0.5950 0.5950
2.019409 0.5970 0.5970 0.5980 0.5990 0.5990
2.044000 0.6000 0.6000 0.6000 0.6010 0.6010
2.068409 0.6010 0.6030 0.6040 0.6040 0.6040
2.092000 0.6050 0.6050 0.6050 0.6050 0.6060
2.116409 0.6080 0.6100 0.6140 0.6170 0.6180
2.141000 0.6200 0.6210 0.6210 0.6220 0.6220
2.165409 0.6230 0.6230 0.6250 0.6260 0.6270
2.190000 0.6270 0.6270 0.6270 0.6280 0.6290
2.214409 0.6310 0.6310 0.6310 0.6310 0.6320
2.239000 0.6320 0.6320 0.6330 0.6330 0.6330
2.263409 0.6340 0.6350 0.6350 0.6350 0.6370
2.288000 0.6370 0.6350 0.6350 0.6340 0.6320
2.312409 0.6280 0.6260 0.6210 0.6140 0.6110
2.336000 0.6120 0.6150 0.6200 0.6220 0.6230
2.360409 0.6260 0.6270 0.6280 0.6290 0.6290
2.385000 0.6290 0.6310 0.6320 0.6320 0.6330
2.409409 0.6340 0.6350 0.6370 0.6390 0.6410
2.434000 0.6430 0.6430 0.6440 0.6450 0.6480
2.458409 0.6490 0.6510 0.6510 0.6560 0.6580
2.483000 0.6630 0.6690 0.6770 0.6800 0.6850
2.507409 0.6860 0.6880 0.6880 0.6890 0.6890
2.532000 0.6910 0.6970 0.6990 0.6990 0.7000
2.556409 0.7000 0.7000 0.7020 0.7030 0.7050
2.580000 0.7050 0.7060 0.7060 0.7070 0.7080
2.604409 0.7080 0.7080 0.7090 0.7090 0.7090
2.629000 0.7110 0.7110 0.7110 0.7110 0.7120
2.653409 0.7120 0.7120 0.7140 0.7160 0.7170
2.678000 0.7190 0.7200 0.7220 0.7230 0.7250
2.702409 0.7260 0.7280 0.7280 0.7280 0.7280
2.727000 0.7280 0.7300 0.7310 0.7340 0.7400
2.751409 0.7410 0.7410 0.7410 0.7410 0.7410
2.776000 0.7420 0.7420 0.7450 0.7460 0.7460
2.800409 0.7390 0.7340 0.7300 0.7200 0.7140
2.824000 0.7030 0.6990 0.6890 0.6820 0.6600
2.848409 0.6100 0.5800 0.5760 0.5690 0.5630
2.873000 0.5610 0.5600 0.5600 0.5590 0.5590
2.897409 0.5580 0.5520 0.5490 0.5460 0.5410
2.922000 0.5370 0.5320 0.5270 0.5230 0.5210
2.946409 0.5210 0.5190 0.5090 0.4980 0.4950
2.971000 0.4910 0.4860 0.4840 0.4810 0.4800
2.995409 0.4780 0.4760 0.4700 0.4660 0.4630
3.020000 0.4630 0.4620 0.4590 0.4590 0.4590
3.044409 0.4590 0.4620 0.4620 0.4630 0.4640
3.068000 0.4660 0.4670 0.4690 0.4690 0.4690
3.092409 0.4690 0.4690 0.4680 0.4660 0.4660
3.117000 0.4680 0.4690 0.4730 0.4780 0.4780
3.141409 0.4780 0.4780 0.4790 0.4840 0.4840
3.166000 0.4850 0.4910 0.4910 0.4910 0.4890
3.190409 0.4870 0.4900 0.4900 0.4910 0.4910
3.215000 0.4920 0.4930 0.4960 0.4970 0.5000
3.239409 0.5010 0.5010 0.5030 0.5060 0.5100
3.264000 0.5140 0.5160 0.5190 0.5200 0.5210
3.288409 0.5230 0.5230 0.5240 0.5240 0.5240
3.312000 0.5240 0.5250 0.5240 0.5240 0.5240
3.336409 0.5230 0.5210 0.5200 0.5200 0.5190
3.361000 0.5180 0.5020 0.4860 0.4720 0.4660
3.385409 0.4620 0.4490 0.3320 0.2690 0.2510
3.410000 0.2250 0.2130 0.2110 0.2070 0.1920
3.434409 0.1890 0.1860 0.1650 0.1400 0.1390
3.459000 0.1270 0.1120 0.1060 0.1050 0.1030
3.483409 0.1000 0.0980 0.0970 0.0980 0.0980
3.508000 0.0980 0.0980 0.0980 0.0980 0.0980
3.532409 0.0980 0.1000 0.1010 0.1030 0.1050
3.556000 0.1160 0.1250 0.1340 0.1910 0.2480
3.580409 0.3090 0.3850 0.4020 0.4190 0.5030
3.605000 0.5470 0.5610 0.5770 0.5910 0.6040
3.629409 0.6220 0.6390 0.6620 0.6740 0.6960
3.654000 0.7090 0.7170 0.7220 0.7240 0.7260
3.678409 0.7310 0.7340 0.7360 0.7400 0.7420
3.703000 0.7450 0.7480 0.7510 0.7530 0.7540
3.727409 0.7580 0.7600 0.7620 0.7640 0.7660
3.752000 0.7680 0.7690 0.7700 0.7700 0.7710
3.776409 0.7710 0.7730 0.7730 0.7740 0.7750
3.800000 0.7750 0.7750 0.7760 0.7760 0.7760
3.824409 0.7790 0.7790 0.7800 0.7810 0.7860
3.849000 0.7910 0.7940 0.7980 0.8000 0.8020
3.873409 0.8020 0.8030 0.8030 0.8040 0.8040
3.898000 0.8040 0.8030 0.8020 0.8030 0.8040
3.922409 0.8050 0.8050 0.8050 0.8040 0.8040
3.947000 0.8040 0.8040 0.8040 0.8040 0.8050
3.971409 0.8070 0.8070 0.8080 0.8080 0.8090
3.996000 0.8110 0.8110 0.8150 0.8200 0.8240
4.020409 0.8280 0.8300 0.8300 0.8310 0.8320
4.044000 0.8330 0.8340 0.8360 0.8360 0.8380
4.068409 0.8380 0.8370 0.8370 0.8360 0.8360
4.093000 0.8360 0.8360 0.8360 0.8370 0.8380
4.117409 0.8380 0.8380 0.8380 0.8380 0.8380
4.142000 0.8380 0.8380 0.8380 0.8380 0.8380
4.166409 0.8380 0.8380 0.8380 0.8380 0.8380
4.191000 0.8390 0.8390 0.8410 0.8430 0.8470
4.215409 0.8470 0.8480 0.8490 0.8500 0.8510
4.240000 0.8530 0.8510 0.8530 0.8530 0.8560
4.264409 0.8590 0.8600 0.8600 0.8610 0.8610
4.288000 0.8580 0.8500 0.8500 0.8500 0.8500
4.312409 0.8510 0.8510 0.8510 0.8510 0.8510
4.337000 0.8510 0.8530 0.8550 0.8590 0.8600
4.361409 0.8600 0.8600 0.8590 0.8600 0.8600
4.386000 0.8610 0.8620 0.8620 0.8610 0.8610
4.410409 0.8610 0.8610 0.8610 0.8610 0.8610
4.435000 0.8600 0.8600 0.8660 0.8670 0.8660
4.459409 0.8670 0.8670 0.8680 0.8680 0.8680
4.484000 0.8670 0.8600 0.8590 0.8580 0.8590
4.508409 0.8590 0.8580 0.8580 0.8580 0.8560
4.532000 0.8580 0.8590 0.8590 0.8590 0.8600
4.556409 0.8610 0.8660 0.8700 0.8710 0.8710
4.581000 0.8770 0.8790 0.8790 0.8750 0.8660
4.605409 0.8640 0.8640 0.8650 0.8650 0.8650
4.630000 0.8650 0.8650 0.8650 0.8660 0.8670
4.654409 0.8710 0.8750 0.8790 0.8820 0.8830
4.679000 0.8830 0.8830 0.8840 0.8830 0.8820
4.703409 0.8830 0.8830 0.8840 0.8840 0.8850
4.728000 0.8850 0.8870 0.8870 0.8870 0.8870
4.752409 0.8870 0.8870 0.8870 0.8880 0.8880
4.776000 0.8910 0.8940 0.8950 0.8960 0.8960
4.800409 0.8960 0.8960 0.8950 0.8930 0.8910
4.825000 0.8930 0.8950 0.8980 0.9010 0.9040
4.849409 0.9040 0.9040 0.9020 0.9020 0.9020
4.874000 0.9000 0.9010 0.9010 0.9010 0.9010
4.898409 0.9000 0.9000 0.8950 0.8950 0.8990
4.923000 0.9000 0.9000 0.9060 0.9040 0.9040
4.947409 0.8960 0.8960 0.8990 0.9040 0.9040
4.972000 0.9050 0.9070 0.9080 0.9100 0.9120
4.996409 0.9150 0.9170 0.9180 0.9180 0.9190
5.020000 0.9190 0.9210 0.9220 0.9210 0.9190
5.044409 0.9180 0.9160 0.9160 0.9130 0.9110
5.069000 0.9110 0.9120 0.9130 0.9130 0.9150
5.093409 0.9160 0.9170 0.9170 0.9190 0.9180
5.118000 0.9160 0.9130 0.9130 0.9130 0.9120
5.142409 0.9120 0.9120 0.9120 0.9120 0.9120
5.167000 0.9120 0.9130 0.9150 0.9150 0.9150
5.191409 0.9160 0.9170 0.9180 0.9180 0.9180
5.216000 0.9190 0.9190 0.9190 0.9180 0.9180
5.240409 0.9180 0.9170 0.9160 0.9160 0.9160
5.264000 0.9160 0.9150 0.9100 0.9060 0.9050
5.288409 0.9070 0.9110 0.9150 0.9170 0.9180
5.313000 0.9180 0.9190 0.9190 0.9190 0.9190
5.337409 0.9180 0.9160 0.9160 0.9150 0.9150
5.362000 0.9130 0.9120 0.9110 0.9100 0.9100
5.386409 0.9080 0.9080 0.9070 0.9080 0.9100
5.411000 0.9100 0.9110 0.9110 0.9110 0.9110
5.435409 0.9110 0.9110 0.9100 0.9100 0.9100
5.460000 0.9080 0.9080 0.9070 0.9060 0.9050
5.484409 0.8930 0.8900 0.8890 0.8880 0.8850
5.508000 0.8790 0.8750 0.8730 0.8700 0.8590
5.532409 0.8510 0.8450 0.8360 0.8210 0.7750
5.557000 0.7410 0.7130 0.6800 0.6520 0.6370
5.581409 0.6150 0.5610 0.4360 0.2880 0.2770
5.606000 0.2650 0.2480 0.2410 0.2400 0.2390
5.630409 0.2360 0.2390 0.2710 0.3040 0.3050
5.655000 0.3370 0.3710 0.3890 0.4060 0.4440
5.679409 0.4730 0.4970 0.5120 0.5290 0.5440
5.704000 0.5580 0.5740 0.5930 0.6090 0.6250
5.728409 0.6380 0.6600 0.6800 0.6900 0.7000
5.752000 0.7050 0.7140 0.7310 0.7500 0.7510
5.776409 0.7590 0.7800 0.7880 0.7960 0.8020
5.801000 0.8020 0.8050 0.8090 0.8100 0.8100
5.825409 0.8100 0.8100 0.8100 0.8100 0.8090
5.850000 0.8090 0.8090 0.8090 0.8090 0.8090
5.874409 0.8090 0.8090 0.8080 0.8070 0.8050
5.899000 0.8020 0.7810 0.7740 0.7710 0.7700
5.923409 0.7640 0.7540 0.7410 0.7240 0.7090
5.948000 0.7000 0.6650 0.6510 0.6330 0.6010
5.972409 0.5700 0.5520 0.5320 0.5100 0.4930
5.996000 0.4830 0.4800 0.4220 0.3440 0.3030
6.020409 0.2820 0.2560 0.2420 0.2410 0.2180
6.045000 0.2170 0.2190 0.2310 0.2410 0.2680
6.069409 0.2910 0.3100 0.3430 0.3890 0.4210
6.094000 0.4510 0.5010 0.5160 0.5240 0.5250
6.118409 0.5250 0.5250 0.5250 0.5250 0.5240
6.143000 0.5240 0.5240 0.5180 0.5060 0.4950
6.167409 0.4830 0.4730 0.4610 0.4510 0.4420
6.192000 0.4270 0.2860 0.2590 0.2260 0.2180
6.216409 0.2110 0.1820 0.1520 0.1510 0.1480
6.240000 0.1410 0.1410 0.1480 0.1850 0.2220
6.264409 0.2520 0.2580 0.2700 0.2810 0.2910
6.289000 0.3040 0.3200 0.3670 0.3830 0.3910
6.313409 0.3980 0.4040 0.4120 0.4390 0.4440
6.338000 0.4510 0.4720 0.4860 0.4980 0.5100
6.362409 0.5240 0.5360 0.5400 0.5500 0.5580
6.387000 0.5590 0.5590 0.5590 0.5590 0.5590
6.411409 0.5590 0.5500 0.5430 0.5360 0.5320
6.436000 0.5250 0.5240 0.5260 0.5590 0.5640
6.460409 0.5990 0.6140 0.6280 0.6550 0.6570
6.484000 0.6570 0.6580 0.6580 0.6580 0.6600
6.508409 0.6600 0.6600 0.6600 0.6600 0.6600
6.533000 0.6600 0.6600 0.6600 0.6580 0.6450
6.557409 0.6450 0.6440 0.6440 0.6430 0.6340
6.582000 0.6250 0.6160 0.6000 0.5640 0.5480
6.606409 0.5350 0.5200 0.5020 0.5000 0.4920
6.631000 0.4900 0.4830 0.4680 0.4440 0.4210
6.655409 0.3720 0.3450 0.3200 0.2920 0.2640
6.680000 0.2620 0.2600 0.2630 0.2750 0.2790
6.704409 0.2990 0.3200 0.3390 0.3550 0.3850
6.728000 0.4020 0.4190 0.4440 0.4570 0.4670
6.752409 0.4760 0.4800 0.4810 0.4810 0.4810
6.777000 0.4810 0.4810 0.4810 0.4800 0.4660
6.801409 0.4110 0.3320 0.2690 0.2480 0.2390
6.826000 0.2370 0.2350 0.2350 0.2240 0.2190
6.850409 0.2140 0.2090 0.2050 0.2050 0.2060
6.875000 0.2070 0.2080 0.2090 0.2110 0.2120
6.899409 0.2130 0.2140 0.2360 0.2480 0.2600
6.924000 0.2640 0.2650 0.2660 0.2680 0.2680
6.948409 0.2700 0.2880 0.3210 0.3870 0.4080
6.972000 0.4300 0.4440 0.4800 0.5200 0.5370
6.996409 0.5690 0.5970 0.6030 0.6080 0.6110
7.021000 0.6140 0.6160 0.6170 0.6200 0.6200
7.045409 0.6180 0.6150 0.6120 0.6090 0.6030
7.070000 0.5810 0.5760 0.5740 0.5710 0.5650
7.094409 0.5600 0.5500 0.5310 0.5030 0.4980
7.119000 0.4870 0.4740 0.4440 0.4190 0.3640
7.143409 0.3450 0.3220 0.3140 0.3110 0.3090
7.168000 0.3130 0.3190 0.3300 0.3500 0.3760
7.192409 0.4000 0.4320 0.4360 0.4360 0.4300
7.216000 0.4240 0.4040 0.3710 0.3590 0.3410
7.240409 0.3370 0.3340 0.3300 0.3260 0.3020
7.265000 0.2920 0.2820 0.2750 0.2680 0.2660
7.289409 0.2650 0.2680 0.2710 0.2930 0.3260
7.314000 0.3500 0.3650 0.3650 0.3660 0.3710
7.338409 0.3820 0.3910 0.4000 0.4060 0.4130
7.363000 0.4270 0.4450 0.4740 0.5140 0.5290
7.387409 0.5460 0.5640 0.5770 0.5810 0.5890
7.412000 0.5930 0.5950 0.5990 0.6000 0.6000
7.436409 0.5990 0.5950 0.5940 0.5910 0.5890
7.460000 0.5840 0.5820 0.5760 0.5670 0.5490
7.484409 0.5480 0.5400 0.5310 0.5240 0.5230
7.509000 0.5250 0.5290 0.5310 0.5330 0.5440
7.533409 0.5550 0.5630 0.5640 0.5610 0.5600
7.558000 0.5600 0.5600 0.5610 0.5630 0.5690
7.582409 0.5710 0.5740 0.5770 0.5760 0.5750
7.607000 0.5740 0.5610 0.5540 0.5490 0.5480
7.631409 0.5460 0.5430 0.5400 0.5400 0.5400
7.656000 0.5380 0.5350 0.5320 0.5310 0.5310
7.680409 0.5300 0.5290 0.5300 0.5300 0.5300
7.704000 0.5300 0.5300 0.5290 0.5290 0.5260
7.728409 0.5210 0.5130 0.5030 0.4890 0.4740
7.753000 0.4700 0.4670 0.4620 0.4610 0.4590
7.777409 0.4560 0.4550 0.4520 0.4500 0.4500
7.802000 0.4470 0.4420 0.4390 0.4290 0.4270
7.826409 0.4270 0.4300 0.4730 0.4840 0.5000
7.851000 0.5190 0.5440 0.5520 0.5740 0.5810
7.875409 0.5930 0.5990 0.6000 0.6010 0.6080
7.900000 0.6120 0.6180 0.6220 0.6250 0.6250
7.924409 0.6150 0.6080 0.5710 0.5550 0.5410
7.948000 0.5260 0.5060 0.4840 0.4320 0.4280
7.972409 0.4250 0.4280 0.4300 0.4460 0.4670
7.997000 0.4890 0.5070 0.5240 0.5410 0.5580
8.021409 0.5600 0.5610 0.5660 0.5720 0.5740
8.046000 0.5760 0.5820 0.5880 0.5950 0.6000
8.070409 0.6040 0.6120 0.6160 0.6180 0.6200
8.095000 0.6210 0.6200 0.6180 0.6160 0.6160
8.119409 0.6120 0.6100 0.6010 0.5840 0.5660
8.144000 0.5540 0.5350 0.5310 0.5300 0.5310
8.168409 0.5320 0.5490 0.5670 0.5880 0.5970
8.192000 0.6050 0.6200 0.6270 0.6380 0.6430
8.216409 0.6460 0.6500 0.6540 0.6560 0.6610
8.241000 0.6620 0.6630 0.6630 0.6630 0.6620
8.265409 0.6600 0.6560 0.6410 0.6310 0.6290
8.290000 0.6100 0.5780 0.5640 0.5490 0.5380
8.314409 0.5230 0.5000 0.4800 0.4760 0.4700
8.339000 0.4640 0.4580 0.4520 0.4460 0.4460
8.363409 0.4490 0.4570 0.4620 0.4630 0.4850
8.388000 0.5070 0.5260 0.5420 0.5550 0.5710
8.412409 0.5810 0.5820 0.5890 0.5950 0.6010
8.436000 0.6340 0.6400 0.6490 0.6560 0.6580
8.460409 0.6650 0.6710 0.6770 0.6780 0.6800
8.485000 0.6790 0.6780 0.6770 0.6750 0.6740
8.509409 0.6750 0.6750 0.6770 0.6780 0.6790
8.534000 0.6790 0.6790 0.6790 0.6790 0.6710
8.558409 0.6660 0.6570 0.6510 0.6450 0.6410
8.583000 0.6340 0.6260 0.6170 0.6110 0.6080
8.607409 0.6060 0.6050 0.6030 0.6040 0.6050
8.632000 0.6050 0.6080 0.6100 0.6120 0.6150
8.656409 0.6170 0.6200 0.6200 0.6220 0.6250
8.680000 0.6260 0.6290 0.6390 0.6440 0.6490
8.704409 0.6550 0.6610 0.6620 0.6620 0.6620
8.729000 0.6610 0.6610 0.6600 0.6580 0.6570
8.753409 0.6560 0.6600 0.6710 0.6750 0.6800
8.778000 0.6830 0.7050 0.7110 0.7310 0.7360
8.802409 0.7360 0.7340 0.7200 0.7060 0.7000
8.827000 0.6950 0.6740 0.6680 0.6560 0.6390
8.851409 0.6220 0.6110 0.6010 0.5880 0.5860
8.876000 0.5820 0.5780 0.5750 0.5710 0.5710
8.900409 0.5700 0.5690 0.5690 0.5600 0.5500
8.924000 0.5400 0.5400 0.5410 0.5760 0.6110
8.948409 0.6400 0.6490 0.6500 0.6520 0.6550
8.973000 0.6710 0.6780 0.6830 0.6890 0.6900
8.997409 0.6910 0.6920 0.6910 0.6890 0.6840
9.022000 0.6840 0.6830 0.6820 0.6830 0.6840
9.046409 0.6840 0.6860 0.6860 0.6860 0.6860
9.071000 0.6850 0.6800 0.6780 0.6740 0.6740
9.095409 0.6730 0.6710 0.6690 0.6680 0.6680
9.120000 0.6650 0.6650 0.6630 0.6620 0.6610
9.144409 0.6600 0.6580 0.6520 0.6400 0.6350
9.168000 0.6330 0.6010 0.5640 0.5650 0.5670
9.192409 0.5700 0.5710 0.5710 0.5710 0.5710
9.217000 0.5720 0.5740 0.5740 0.5760 0.5980
9.241409 0.6000 0.6010 0.6270 0.6500 0.6730
9.266000 0.6800 0.6860 0.6940 0.7000 0.7090
9.290409 0.7120 0.7110 0.7110 0.7080 0.7080
9.315000 0.7070 0.6900 0.6830 0.6740 0.6670
9.339409 0.6560 0.6430 0.6290 0.6280 0.6270
9.364000 0.6270 0.6260 0.6260 0.6260 0.6280
9.388409 0.6650 0.6900 0.6950 0.6960 0.7050
9.412000 0.7240 0.7280 0.7280 0.7280 0.7290
9.436409 0.7300 0.7310 0.7310 0.7330 0.7330
9.461000 0.7340 0.7350 0.7350 0.7400 0.7470
9.485409 0.7480 0.7500 0.7500 0.7500 0.7560
9.510000 0.7650 0.7680 0.7790 0.7820 0.7830
9.534409 0.7860 0.7860 0.7870 0.7900 0.7910
9.559000 0.7910 0.7900 0.7880 0.7870 0.7860
9.583409 0.7830 0.7830 0.7790 0.7770 0.7770
9.608000 0.7770 0.7790 0.7790 0.7800 0.7800
9.632409 0.7800 0.7820 0.7820 0.7830 0.7830
9.656000 0.7830 0.7830 0.7830 0.7830 0.7850
9.680409 0.7850 0.7790 0.7710 0.7540 0.7450
9.705000 0.7370 0.7280 0.7170 0.7110 0.7070
9.729409 0.7050 0.7020 0.6970 0.6950 0.6910
9.754000 0.6880 0.6880 0.6900 0.6950 0.7020
9.778409 0.7190 0.7350 0.7530 0.7590 0.7640
9.803000 0.7680 0.7690 0.7700 0.7710 0.7710
9.827409 0.7730 0.7730 0.7750 0.7760 0.7770
9.852000 0.7790 0.7800 0.7810 0.7810 0.7830
9.876409 0.7850 0.7860 0.7870 0.7870 0.7850
9.900000 0.7700 0.7450 0.7430 0.7430 0.7430
9.924409 0.7450 0.7500 0.7530 0.7530 0.7540
9.949000 0.7560 0.7560 0.7580 0.7630 0.7680
9.973409 0.7770 0.7820 0.7860 0.7870 0.7880
9.998000 0.7880 0.7900 0.7910 0.7930 0.7940
10.022409 0.7940 0.7960 0.7960 0.7970 0.7980
10.047000 0.7980 0.7990 0.8000 0.8020 0.8020
10.071409 0.8020 0.7990 0.8000 0.8000 0.8020
10.096000 0.8020 0.8070 0.8090 0.8100 0.8110
10.120409 0.8110 0.8130 0.8130 0.8140 0.8140
10.144000 0.8150 0.8160 0.8170 0.8200 0.8220
10.168409 0.8240 0.8250 0.8250 0.8260 0.8260
10.193000 0.8260 0.8260 0.8250 0.8240 0.8220
10.217409 0.8210 0.8200 0.8190 0.8160 0.7990
10.242000 0.8000 0.8000 0.7990 0.8000 0.7970
10.266409 0.7910 0.7860 0.7820 0.7810 0.7800
10.291000 0.7790 0.7790 0.7830 0.7830 0.7810
10.315409 0.7770 0.7710 0.7700 0.7700 0.7690
10.340000 0.7690 0.7690 0.7730 0.7730 0.7700
10.364409 0.7660 0.7660 0.7660 0.7620 0.7620
10.388000 0.7650 0.7730 0.7740 0.7760 0.7760
10.412409 0.7740 0.7690 0.7680 0.7680 0.7630
10.437000 0.7530 0.7520 0.7480 0.7450 0.7350
10.461409 0.7260 0.7070 0.6900 0.6880 0.6830
10.486000 0.6740 0.6460 0.6320 0.6140 0.5870
10.510409 0.5800 0.5720 0.5650 0.5610 0.5610
10.535000 0.5650 0.5650 0.5720 0.5780 0.5870
10.559409 0.5930 0.6100 0.6270 0.6490 0.6770
10.584000 0.6890 0.7000 0.7160 0.7180 0.7200
10.608409 0.7220 0.7230 0.7280 0.7330 0.7500
10.632000 0.7620 0.7680 0.7690 0.7700 0.7710
10.656409 0.7710 0.7730 0.7740 0.7740 0.7740
10.681000 0.7750 0.7750 0.7760 0.7770 0.7790
10.705409 0.7870 0.7900 0.7900 0.7810 0.7790
10.730000 0.7790 0.7770 0.7770 0.7770 0.7760
10.754409 0.7760 0.7750 0.7810 0.7830 0.7860
10.779000 0.7880 0.7900 0.7930 0.7960 0.7960
10.803409 0.7970 0.7970 0.7980 0.7980 0.7990
10.828000 0.8000 0.8000 0.8020 0.8030 0.8030
10.852409 0.8040 0.8030 0.8030 0.8030 0.8040
10.876000 0.8040 0.8050 0.8070 0.8080 0.8100
10.900409 0.8140 0.8140 0.8150 0.8150 0.8150
10.925000 0.8150 0.8150 0.8170 0.8190 0.8210
10.949409 0.8250 0.8270 0.8280 0.8300 0.8310
10.974000 0.8310 0.8310 0.8310 0.8310 0.8300
10.998409 0.8300 0.8300 0.8280 0.8260 0.8190
11.023000 0.8140 0.8080 0.8080 0.8030 0.8020
11.047409 0.8030 0.8030 0.8040 0.8030 0.8030
11.072000 0.8030 0.8020 0.8000 0.8000 0.8020
11.096409 0.8020 0.8030 0.8030 0.8040 0.8030
11.120000 0.8030 0.8020 0.8030 0.8040 0.8040
11.144409 0.8040 0.8070 0.8070 0.8040 0.8020
11.169000 0.7960 0.7940 0.7930 0.7960 0.7970
11.193409 0.7980 0.7990 0.8000 0.8020 0.8020
11.218000 0.8020 0.8030 0.8030 0.8040 0.8040
11.242409 0.8030 0.8020 0.8020 0.8000 0.8020
11.267000 0.8020 0.8020 0.8030 0.8030 0.8040
11.291409 0.8040 0.8050 0.8070 0.8080 0.8090
11.316000 0.8130 0.8160 0.8200 0.8220 0.8240
11.340409 0.8260 0.8260 0.8260 0.8270 0.8270
11.364000 0.8280 0.8300 0.8320 0.8330 0.8330
11.388409 0.8330 0.8340 0.8340 0.8360 0.8360
11.413000 0.8370 0.8380 0.8370 0.8370 0.8360
11.437409 0.8360 0.8340 0.8320 0.8310 0.8320
11.462000 0.8320 0.8340 0.8340 0.8360 0.8360
11.486409 0.8360 0.8340 0.8340 0.8340 0.8340
11.511000 0.8340 0.8340 0.8340 0.8340 0.8340
11.535409 0.8340 0.8340 0.8340 0.8340 0.8340
11.560000 0.8360 0.8360 0.8360 0.8360 0.8360
11.584409 0.8340 0.8330 0.8320 0.8310 0.8300
11.608000 0.8300 0.8250 0.8220 0.8200 0.8200
11.632409 0.8170 0.8160 0.8090 0.8080 0.8000
11.657000 0.7960 0.7930 0.7900 0.7860 0.7820
11.681409 0.7810 0.7800 0.7800 0.7770 0.7770
11.706000 0.7770 0.7770 0.7770 0.7790 0.7820
11.730409 0.7850 0.7860 0.7830 0.7850 0.7860
11.755000 0.7870 0.7880 0.7880 0.7910 0.7930
11.779409 0.7960 0.7980 0.7990 0.8000 0.8020
11.804000 0.8020 0.8030 0.8030 0.8040 0.8070
11.828409 0.8070 0.8050 0.8040 0.8040 0.8040
11.852000 0.8040 0.8030 0.8030 0.8030 0.8030
11.876409 0.8020 0.8020 0.8020 0.8020 0.8000
11.901000 0.7970 0.7970 0.7940 0.7910 0.7880
11.925409 0.7850 0.7830 0.7820 0.7800 0.7770
11.950000 0.7740 0.7730 0.7710 0.7700 0.7700
11.974409 0.7700 0.7710 0.7710 0.7710 0.7710
11.999000 0.7710 0.7710 0.7740 0.7770 0.7850
12.023409 0.7870 0.7880 0.7910 0.7910 0.7900
12.048000 0.7880 0.7870 0.7860 0.7880 0.7880
12.072409 0.7880 0.7880 0.7880 0.7880 0.7880
12.096000 0.7880 0.7880 0.7870 0.7820 0.7750
12.120409 0.7710 0.7680 0.7640 0.7630 0.7600
12.145000 0.7510 0.7500 0.7500 0.7450 0.7430
12.169409 0.7340 0.7250 0.7180 0.7140 0.7110
12.194000 0.7070 0.7060 0.7030 0.7010 0.6990
12.218409 0.6970 0.6920 0.6900 0.6880 0.6890
12.243000 0.6910 0.6950 0.7020 0.7070 0.7110
12.267409 0.7160 0.7180 0.7200 0.7240 0.7280
12.292000 0.7300 0.7310 0.7330 0.7400 0.7470
12.316409 0.7470 0.7470 0.7470 0.7470 0.7480
12.340000 0.7520 0.7570 0.7690 0.7710 0.7710
12.364409 0.7730 0.7740 0.7740 0.7740 0.7740
12.389000 0.7750 0.7830 0.7870 0.7870 0.7880
12.413409 0.7880 0.7880 0.7880 0.7880 0.7880
12.438000 0.7880 0.7900 0.7910 0.7900 0.7900
12.462409 0.7900 0.7910 0.7910 0.7910 0.7910
12.487000 0.7920 0.7920 0.7920 0.7920 0.7930
12.511409 0.7930 0.7930 0.7920 0.7920 0.7920
12.536000 0.7920 0.7920 0.7920 0.7920 0.7920
12.560409 0.7920 0.7920 0.7920 0.7920 0.7920
12.584000 0.7920 0.7910 0.7910 0.7910 0.7900
12.608409 0.7900 0.7900 0.7880 0.7880 0.7880
12.633000 0.7880 0.7880 0.7880 0.7870 0.7870
12.657409 0.7870 0.7870 0.7870 0.7870 0.7870
12.682000 0.7880 0.7870 0.7870 0.7850 0.7830
12.706409 0.7820 0.7800 0.7770 0.7740 0.7730
12.731000 0.7710 0.7710 0.7700 0.7690 0.7680
12.755409 0.7650 0.7580 0.7540 0.7530 0.7510
12.780000 0.7500 0.7480 0.7470 0.7450 0.7430
12.804409 0.7450 0.7450 0.7460 0.7460 0.7480
12.828000 0.7480 0.7480 0.7470 0.7460 0.7460
12.852409 0.7430 0.7410 0.7390 0.7360 0.7340
12.877000 0.7310 0.7300 0.7290 0.7280 0.7240
12.901409 0.7180 0.7130 0.7110 0.7090 0.7060
12.926000 0.7050 0.7020 0.7030 0.7020 0.7020
12.950409 0.7020 0.7010 0.6990 0.6970 0.6970
12.975000 0.6950 0.6940 0.6910 0.6910 0.6900
12.999409 0.6860 0.6830 0.6780 0.6740 0.6680
13.024000 0.6570 0.6500 0.6490 0.6410 0.6340
13.048409 0.6260 0.6180 0.6100 0.6000 0.5660
13.072000 0.5470 0.5230 0.5090 0.4920 0.4800
13.096409 0.4580 0.4500 0.4490 0.4490 0.4470
13.121000 0.4500 0.4660 0.4850 0.5010 0.5180
13.145409 0.5530 0.5600 0.5690 0.5950 0.6000
13.170000 0.6040 0.6120 0.6200 0.6250 0.6390
13.194409 0.6500 0.6510 0.6520 0.6550 0.6550
13.219000 0.6550 0.6540 0.6540 0.6540 0.6540
13.243409 0.6540 0.6540 0.6540 0.6520 0.6490
13.268000 0.6400 0.6250 0.6210 0.6010 0.5780
13.292409 0.5610 0.5520 0.5500 0.5400 0.5310
13.316000 0.5040 0.4790 0.4620 0.4510 0.4440
13.340409 0.4160 0.3810 0.3540 0.3240 0.3000
13.365000 0.2740 0.2580 0.2410 0.2370 0.2340
13.389409 0.2260 0.2260 0.2540 0.2770 0.3070
13.414000 0.3380 0.3650 0.3900 0.4040 0.4170
13.438409 0.4340 0.4620 0.4890 0.4910 0.5000
13.463000 0.5130 0.5300 0.5490 0.5660 0.5770
13.487409 0.5880 0.5940 0.5980 0.5990 0.6000
13.512000 0.6010 0.6030 0.6110 0.6180 0.6220
13.536409 0.6280 0.6310 0.6320 0.6330 0.6340
13.560000 0.6350 0.6350 0.6350 0.6370 0.6380
13.584409 0.6380 0.6380 0.6400 0.6400 0.6410
13.609000 0.6410 0.6430 0.6480 0.6480 0.6480
13.633409 0.6490 0.6490 0.6490 0.6490 0.6500
13.658000 0.6510 0.6510 0.6550 0.6570 0.6600
13.682409 0.6600 0.6600 0.6610 0.6620 0.6630
13.707000 0.6650 0.6650 0.6660 0.6680 0.6690
13.731409 0.6720 0.6800 0.6880 0.6880 0.6900
13.756000 0.6910 0.6920 0.6920 0.6910 0.6920
13.780409 0.6920 0.6940 0.6950 0.6950 0.6950
13.804000 0.6950 0.6950 0.6960 0.6960 0.6960
13.828409 0.6960 0.6970 0.6970 0.6970 0.6970
13.853000 0.6990 0.6990 0.7000 0.7000 0.7000
13.877409 0.7010 0.7020 0.7020 0.7020 0.7030
13.902000 0.7030 0.7050 0.7050 0.7050 0.7050
13.926409 0.7050 0.7050 0.7050 0.7060 0.7060
13.951000 0.7060 0.7060 0.7070 0.7080 0.7080
13.975409 0.7110 0.7120 0.7130 0.7140 0.7170
14.000000 0.7190 0.7200 0.7220 0.7230 0.7240
14.024409 0.7250 0.7280 0.7290 0.7290 0.7290
14.048000 0.7290 0.7280 0.7260 0.7260 0.7250
14.072409 0.7240 0.7230 0.7230 0.7240 0.7250
14.097000 0.7250 0.7250 0.7260 0.7290 0.7300
14.121409 0.7300 0.7310 0.7310 0.7310 0.7310
14.146000 0.7280 0.7220 0.7120 0.6990 0.6970
14.170409 0.6970 0.6970 0.6970 0.6990 0.7010
14.195000 0.7010 0.7000 0.6990 0.6920 0.6890
14.219409 0.6880 0.6860 0.6840 0.6840 0.6830
14.244000 0.6830 0.6800 0.6780 0.6750 0.6740
14.268409 0.6730 0.6710 0.6680 0.6620 0.6600
14.292000 0.6580 0.6570 0.6580 0.6570 0.6560
14.316409 0.6550 0.6540 0.6510 0.6500 0.6480
14.341000 0.6440 0.6430 0.6430 0.6400 0.6380
14.365409 0.6310 0.6290 0.6270 0.6260 0.6250
14.390000 0.6250 0.6250 0.6230 0.6260 0.6260
14.414409 0.6210 0.6150 0.6150 0.6120 0.6100
14.439000 0.6090 0.6080 0.5930 0.5870 0.5840
14.463409 0.5820 0.5830 0.5820 0.5820 0.5820
14.488000 0.5800 0.5760 0.5670 0.5590 0.5550
14.512409 0.5520 0.5380 0.5310 0.5270 0.5210
14.536000 0.5100 0.5000 0.4870 0.4720 0.4580
14.560409 0.4410 0.4360 0.4340 0.4330 0.4350
14.585000 0.4390 0.4450 0.4510 0.4570 0.4590
14.609409 0.4630 0.4660 0.4680 0.4830 0.4950
14.634000 0.5160 0.5230 0.5320 0.5480 0.5630
14.658409 0.5740 0.5800 0.5870 0.5910 0.5930
14.683000 0.5940 0.5990 0.6000 0.6000 0.6000
14.707409 0.6010 0.6030 0.6050 0.6050 0.6050
14.732000 0.6060 0.6060 0.6060 0.6080 0.6080
14.756409 0.6080 0.6080 0.6050 0.6040 0.6000
14.780000 0.5930 0.5910 0.5870 0.5830 0.5800
14.804409 0.5780 0.5770 0.5760 0.5750 0.5740
14.829000 0.5720 0.5710 0.5720 0.5720 0.5750
14.853409 0.5760 0.5770 0.5770 0.5780 0.5780
14.878000 0.5800 0.5810 0.5880 0.5890 0.5890
14.902409 0.5890 0.5890 0.5890 0.5890 0.5890
14.927000 0.5880 0.5840 0.5800 0.5720 0.5710
14.951409 0.5700 0.5690 0.5690 0.5670 0.5670
14.976000 0.5640 0.5630 0.5630 0.5610 0.5600
15.000409 0.5600 0.5600 0.5600 0.5590 0.5580
15.024000 0.5570 0.5570 0.5420 0.5350 0.5270
15.048409 0.5260 0.5250 0.5240 0.5210 0.5210
15.073000 0.5200 0.5200 0.5200 0.5200 0.5210
15.097409 0.5230 0.5240 0.5290 0.5350 0.5410
15.122000 0.5420 0.5430 0.5440 0.5440 0.5460
15.146409 0.5500 0.5550 0.5590 0.5600 0.5600
15.171000 0.5610 0.5630 0.5640 0.5660 0.5670
15.195409 0.5700 0.5720 0.5740 0.5750 0.5750
15.220000 0.5760 0.5770 0.5770 0.5770 0.5770
15.244409 0.5800 0.5820 0.5830 0.5830 0.5840
15.268000 0.5840 0.5860 0.5860 0.5870 0.5870
15.292409 0.5870 0.5880 0.5880 0.5880 0.5880
15.317000 0.5890 0.5910 0.5920 0.5930 0.5930
##END=
