##TITLE=CD3-2-PHENANTHRENE
##JCAMP-DX=4.24
##DATA TYPE=INFRARED SPECTRUM
##CLASS=COBLENTZ
##ORIGIN=CENTRE D'ETUDES NUCLEAIRES DE GRENOBLE
##OWNER=COBLENTZ SOCIETY
Collection (C) 2018 copyright by the U.S. Secretary of Commerce
on behalf of the United States of America. All rights reserved.
##DATE=Not specified, most likely prior to 1970
##NAMES=2-methylphenanthrene
##MOLFORM=C15 H9 D3
##SOURCE REFERENCE=COBLENTZ NO. 4239
##$NIST ID=B6004239
##$NIST SOURCE=COBLENTZ
##$NIST IMAGE=cob4239
##SPECTROMETER/DATA SYSTEM=Not specified, most likely a prism, grating, or hybrid spectrometer.
##STATE=SOLID (1% IN KBr)
##PATH LENGTH=
$$PURITY 95.2%
##SAMPLING PROCEDURE=TRANSMISSION
##RESOLUTION=4
##DATA PROCESSING=DIGITIZED BY NIST FROM HARD COPY
##XUNITS=MICROMETERS
##YUNITS=TRANSMITTANCE
##XFACTOR=1.000000
##YFACTOR=1
##DELTAX=000.006653
##FIRSTX=1.989
##LASTX=15.914
##FIRSTY=0.235
##MAXX=15.914
##MINX=1.989
##MAXY=0.896
##MINY=0.06
##NPOINTS=2094
##XYDATA=(X++(Y..Y))
1.989000 0.2350 0.2350 0.2350 0.2360 0.2380
2.022281 0.2380 0.2400 0.2400 0.2400 0.2430
2.055000 0.2450 0.2450 0.2460 0.2480 0.2500
2.088281 0.2500 0.2510 0.2530 0.2530 0.2560
2.122000 0.2560 0.2580 0.2600 0.2600 0.2610
2.155281 0.2610 0.2630 0.2650 0.2650 0.2660
2.188000 0.2660 0.2680 0.2700 0.2700 0.2710
2.221281 0.2730 0.2780 0.2810 0.2860 0.2880
2.255000 0.2910 0.2930 0.2960 0.2980 0.3010
2.288281 0.3010 0.3030 0.3030 0.3050 0.3050
2.321000 0.3060 0.3060 0.3080 0.3100 0.3110
2.354281 0.3110 0.3130 0.3150 0.3150 0.3160
2.388000 0.3160 0.3200 0.3210 0.3230 0.3280
2.421281 0.3350 0.3360 0.3380 0.3380 0.3380
2.454000 0.3400 0.3410 0.3410 0.3430 0.3450
2.487281 0.3450 0.3460 0.3480 0.3510 0.3550
2.521000 0.3580 0.3600 0.3600 0.3610 0.3610
2.554281 0.3610 0.3630 0.3630 0.3630 0.3650
2.588000 0.3650 0.3650 0.3650 0.3660 0.3660
2.621281 0.3660 0.3660 0.3680 0.3700 0.3730
2.654000 0.3730 0.3800 0.3810 0.3850 0.3900
2.687281 0.3910 0.3910 0.3930 0.3930 0.3960
2.721000 0.3980 0.3980 0.4000 0.4000 0.4010
2.754281 0.4010 0.4030 0.4030 0.4050 0.4050
2.787000 0.4050 0.4030 0.4030 0.4010 0.4000
2.820281 0.4000 0.3980 0.3980 0.3960 0.3950
2.854000 0.3950 0.3930 0.3910 0.3910 0.3900
2.887281 0.3880 0.3860 0.3860 0.3860 0.3860
2.920000 0.3850 0.3850 0.3850 0.3850 0.3860
2.953281 0.3860 0.3880 0.3900 0.3910 0.3950
2.987000 0.3980 0.4030 0.4060 0.4100 0.4150
3.020281 0.4180 0.4210 0.4230 0.4260 0.4280
3.053000 0.4330 0.4360 0.4380 0.4380 0.4410
3.086281 0.4430 0.4460 0.4480 0.4500 0.4530
3.120000 0.4550 0.4580 0.4600 0.4610 0.4630
3.153281 0.4650 0.4660 0.4700 0.4710 0.4730
3.186000 0.4760 0.4780 0.4810 0.4830 0.4850
3.219281 0.4850 0.4860 0.4880 0.4880 0.4860
3.253000 0.4800 0.4700 0.4600 0.4410 0.4160
3.286281 0.3950 0.3810 0.3650 0.3560 0.3500
3.319000 0.3480 0.3500 0.3610 0.3800 0.3960
3.352281 0.4110 0.4160 0.4300 0.4430 0.4510
3.386000 0.4580 0.4600 0.4660 0.4700 0.4700
3.419281 0.4680 0.4660 0.4650 0.4630 0.4630
3.452000 0.4660 0.4710 0.4780 0.4860 0.4950
3.485281 0.5030 0.5050 0.5080 0.5080 0.5080
3.519000 0.5100 0.5110 0.5150 0.5180 0.5230
3.552281 0.5300 0.5350 0.5400 0.5450 0.5480
3.585000 0.5500 0.5510 0.5510 0.5550 0.5580
3.618281 0.5580 0.5610 0.5630 0.5630 0.5650
3.652000 0.5660 0.5660 0.5680 0.5680 0.5700
3.685281 0.5700 0.5730 0.5730 0.5750 0.5750
3.719000 0.5760 0.5780 0.5780 0.5800 0.5800
3.752281 0.5810 0.5810 0.5810 0.5810 0.5810
3.785000 0.5830 0.5830 0.5830 0.5830 0.5850
3.818281 0.5850 0.5860 0.5880 0.5900 0.5910
3.852000 0.5910 0.5930 0.5930 0.5950 0.5950
3.885281 0.5960 0.5980 0.5980 0.6000 0.6000
3.918000 0.6010 0.6010 0.6050 0.6050 0.6060
3.951281 0.6060 0.6080 0.6080 0.6100 0.6100
3.985000 0.6110 0.6110 0.6130 0.6130 0.6150
4.018281 0.6150 0.6180 0.6180 0.6200 0.6200
4.051000 0.6210 0.6230 0.6230 0.6250 0.6250
4.084281 0.6260 0.6260 0.6280 0.6300 0.6300
4.118000 0.6310 0.6310 0.6330 0.6330 0.6350
4.151281 0.6350 0.6380 0.6380 0.6400 0.6410
4.184000 0.6410 0.6430 0.6450 0.6450 0.6450
4.217281 0.6460 0.6460 0.6460 0.6460 0.6450
4.251000 0.6450 0.6430 0.6410 0.6410 0.6400
4.284281 0.6380 0.6380 0.6360 0.6360 0.6360
4.317000 0.6380 0.6380 0.6400 0.6400 0.6410
4.350281 0.6410 0.6430 0.6450 0.6450 0.6460
4.384000 0.6480 0.6500 0.6500 0.6510 0.6510
4.417281 0.6530 0.6550 0.6550 0.6550 0.6550
4.450000 0.6550 0.6530 0.6530 0.6510 0.6510
4.483281 0.6460 0.6410 0.6330 0.6250 0.6110
4.517000 0.6010 0.6000 0.6010 0.6060 0.6110
4.550281 0.6160 0.6160 0.6130 0.6010 0.5910
4.583000 0.5900 0.5880 0.5900 0.6060 0.6250
4.616281 0.6350 0.6430 0.6480 0.6550 0.6610
4.650000 0.6680 0.6710 0.6730 0.6730 0.6710
4.683281 0.6710 0.6710 0.6700 0.6650 0.6480
4.716000 0.6310 0.6280 0.6030 0.5750 0.5750
4.749281 0.6150 0.6460 0.6580 0.6680 0.6750
4.783000 0.6800 0.6850 0.6880 0.6900 0.6910
4.816281 0.6930 0.6930 0.6950 0.6950 0.6950
4.850000 0.6930 0.6930 0.6860 0.6810 0.6480
4.883281 0.5980 0.5880 0.5880 0.6130 0.6580
4.916000 0.6760 0.6900 0.6980 0.7000 0.7000
4.949281 0.7030 0.7060 0.7060 0.7080 0.7080
4.983000 0.7100 0.7110 0.7130 0.7130 0.7150
5.016281 0.7160 0.7180 0.7200 0.7200 0.7210
5.049000 0.7210 0.7230 0.7230 0.7230 0.7250
5.082281 0.7250 0.7250 0.7250 0.7250 0.7250
5.116000 0.7230 0.7210 0.7210 0.7200 0.7200
5.149281 0.7180 0.7160 0.7150 0.7150 0.7130
5.182000 0.7110 0.7100 0.7080 0.7060 0.7050
5.215281 0.7030 0.7030 0.7010 0.7010 0.7000
5.249000 0.7000 0.7000 0.7010 0.7030 0.7030
5.282281 0.7050 0.7080 0.7100 0.7150 0.7200
5.315000 0.7210 0.7230 0.7250 0.7260 0.7260
5.348281 0.7280 0.7330 0.7350 0.7360 0.7430
5.382000 0.7460 0.7530 0.7550 0.7600 0.7610
5.415281 0.7600 0.7600 0.7580 0.7530 0.7480
5.448000 0.7430 0.7380 0.7360 0.7330 0.7310
5.481281 0.7300 0.7300 0.7280 0.7280 0.7260
5.515000 0.7250 0.7250 0.7230 0.7230 0.7210
5.548281 0.7210 0.7210 0.7230 0.7250 0.7260
5.581000 0.7280 0.7310 0.7360 0.7400 0.7400
5.614281 0.7380 0.7380 0.7350 0.7310 0.7250
5.648000 0.7200 0.7150 0.7100 0.7050 0.7010
5.681281 0.7000 0.7010 0.7030 0.7080 0.7130
5.714000 0.7160 0.7200 0.7210 0.7250 0.7260
5.747281 0.7300 0.7300 0.7310 0.7330 0.7350
5.781000 0.7350 0.7350 0.7330 0.7310 0.7310
5.814281 0.7300 0.7300 0.7300 0.7300 0.7310
5.847000 0.7330 0.7350 0.7350 0.7350 0.7360
5.880281 0.7360 0.7380 0.7380 0.7400 0.7400
5.914000 0.7400 0.7380 0.7380 0.7360 0.7350
5.947281 0.7330 0.7310 0.7300 0.7280 0.7260
5.981000 0.7250 0.7230 0.7230 0.7210 0.7210
6.014281 0.7210 0.7210 0.7230 0.7230 0.7250
6.047000 0.7250 0.7260 0.7260 0.7260 0.7280
6.080281 0.7280 0.7280 0.7260 0.7250 0.7230
6.114000 0.7210 0.7180 0.7160 0.7150 0.7110
6.147281 0.7080 0.7010 0.6910 0.6800 0.6630
6.180000 0.6410 0.6260 0.6030 0.5850 0.5530
6.213281 0.5230 0.5250 0.5480 0.5610 0.5750
6.247000 0.5800 0.5830 0.5900 0.5910 0.5910
6.280281 0.5900 0.5900 0.5910 0.5950 0.6100
6.313000 0.6260 0.6450 0.6660 0.6730 0.6810
6.346281 0.6880 0.6900 0.6950 0.6960 0.7010
6.380000 0.7030 0.7030 0.7050 0.7050 0.7050
6.413281 0.7050 0.7060 0.7060 0.7080 0.7100
6.446000 0.7110 0.7130 0.7160 0.7180 0.7200
6.479281 0.7210 0.7250 0.7260 0.7280 0.7300
6.513000 0.7310 0.7310 0.7330 0.7350 0.7360
6.546281 0.7380 0.7400 0.7410 0.7430 0.7430
6.579000 0.7430 0.7410 0.7400 0.7380 0.7360
6.612281 0.7350 0.7360 0.7400 0.7500 0.7510
6.646000 0.7530 0.7580 0.7580 0.7600 0.7600
6.679281 0.7600 0.7600 0.7600 0.7580 0.7510
6.712000 0.7500 0.7050 0.6830 0.6600 0.6150
6.745281 0.5660 0.5660 0.5830 0.6650 0.6910
6.779000 0.7130 0.7310 0.7330 0.7310 0.7310
6.812281 0.7300 0.7260 0.7210 0.7130 0.7110
6.845000 0.7030 0.6730 0.6380 0.6050 0.5700
6.878281 0.5030 0.5030 0.5160 0.5380 0.5580
6.912000 0.6050 0.6510 0.6950 0.7060 0.7180
6.945281 0.7260 0.7360 0.7510 0.7530 0.7530
6.979000 0.7510 0.7500 0.7460 0.7430 0.7360
7.012281 0.7280 0.7160 0.7010 0.6800 0.6710
7.045000 0.6510 0.6300 0.6260 0.6300 0.6350
7.078281 0.6400 0.6450 0.6460 0.6630 0.6880
7.112000 0.7010 0.7110 0.7200 0.7250 0.7330
7.145281 0.7360 0.7380 0.7380 0.7400 0.7410
7.178000 0.7410 0.7450 0.7450 0.7400 0.7350
7.211281 0.7310 0.7260 0.7210 0.7150 0.7060
7.245000 0.6910 0.6850 0.6810 0.6830 0.7010
7.278281 0.7130 0.7210 0.7280 0.7310 0.7350
7.311000 0.7380 0.7400 0.7410 0.7450 0.7460
7.344281 0.7500 0.7550 0.7550 0.7560 0.7600
7.378000 0.7630 0.7650 0.7660 0.7710 0.7730
7.411281 0.7750 0.7750 0.7750 0.7750 0.7730
7.444000 0.7730 0.7610 0.7580 0.7550 0.7580
7.477281 0.7660 0.7710 0.7750 0.7800 0.7850
7.511000 0.7900 0.7950 0.7960 0.8000 0.8050
7.544281 0.8080 0.8100 0.8110 0.8110 0.8130
7.577000 0.8130 0.8130 0.8150 0.8150 0.8150
7.610281 0.8150 0.8150 0.8150 0.8130 0.8080
7.644000 0.7960 0.7850 0.7230 0.6900 0.6600
7.677281 0.6580 0.6600 0.6830 0.6950 0.6980
7.710000 0.7110 0.7200 0.7460 0.7460 0.7600
7.743281 0.7760 0.7910 0.7950 0.8000 0.8030
7.777000 0.8030 0.8050 0.8080 0.8080 0.8100
7.810281 0.8100 0.8110 0.8110 0.8130 0.8130
7.843000 0.8150 0.8130 0.8130 0.8110 0.8100
7.876281 0.8080 0.8060 0.8050 0.8030 0.8010
7.910000 0.8000 0.7960 0.7930 0.7860 0.7810
7.943281 0.7730 0.7630 0.7430 0.7180 0.6900
7.976000 0.6560 0.6250 0.5910 0.5610 0.5150
8.009281 0.4850 0.4830 0.4850 0.5450 0.5580
8.043000 0.5710 0.5910 0.6080 0.6210 0.6350
8.076281 0.6460 0.6630 0.6660 0.6630 0.6460
8.110000 0.6150 0.5830 0.5660 0.5480 0.5500
8.143281 0.5660 0.5810 0.6130 0.6500 0.6810
8.176000 0.7000 0.7160 0.7300 0.7350 0.7450
8.209281 0.7550 0.7600 0.7630 0.7650 0.7710
8.243000 0.7750 0.7780 0.7830 0.7880 0.7930
8.276281 0.8000 0.8030 0.8060 0.8060 0.8080
8.309000 0.8050 0.8030 0.7960 0.7910 0.7850
8.342281 0.7830 0.7810 0.7810 0.7800 0.7760
8.376000 0.7730 0.7700 0.7680 0.7660 0.7680
8.409281 0.7700 0.7800 0.7850 0.7880 0.7880
8.442000 0.7900 0.7910 0.7880 0.7860 0.7850
8.475281 0.7780 0.7710 0.7600 0.7480 0.7360
8.509000 0.7350 0.7380 0.7610 0.7680 0.7730
8.542281 0.7780 0.7830 0.7900 0.7950 0.8010
8.575000 0.8030 0.8010 0.7980 0.7910 0.7780
8.608281 0.7730 0.7660 0.7650 0.7660 0.7700
8.642000 0.7730 0.7750 0.7730 0.7650 0.7600
8.675281 0.7580 0.7510 0.7500 0.7510 0.7660
8.708000 0.7880 0.8000 0.8000 0.7910 0.7710
8.741281 0.7510 0.7160 0.6900 0.6610 0.6580
8.775000 0.6600 0.7010 0.7260 0.7500 0.7650
8.808281 0.7760 0.7950 0.7980 0.8010 0.8050
8.841000 0.8060 0.8100 0.8110 0.8110 0.8100
8.874281 0.8100 0.8080 0.8060 0.8060 0.8050
8.908000 0.8050 0.8030 0.8030 0.8030 0.8010
8.941281 0.8010 0.8010 0.8010 0.8000 0.8000
8.974000 0.8000 0.7980 0.7980 0.8000 0.8000
9.007281 0.8000 0.8000 0.8010 0.8030 0.8030
9.041000 0.8050 0.8060 0.8060 0.8050 0.8030
9.074281 0.8010 0.7980 0.7930 0.7880 0.7810
9.107000 0.7710 0.7500 0.7310 0.7300 0.7310
9.140281 0.7360 0.7460 0.7550 0.7630 0.7710
9.174000 0.7780 0.7850 0.7880 0.7900 0.7930
9.207281 0.7950 0.7960 0.7980 0.8000 0.8030
9.241000 0.8030 0.8050 0.8050 0.8060 0.8060
9.274281 0.8060 0.8060 0.8060 0.8060 0.8060
9.307000 0.8080 0.8080 0.8080 0.8080 0.8080
9.340281 0.8100 0.8100 0.8100 0.8100 0.8080
9.374000 0.8080 0.8080 0.8060 0.8060 0.8060
9.407281 0.8050 0.8030 0.8010 0.8000 0.7930
9.440000 0.7910 0.7900 0.7900 0.7880 0.7850
9.473281 0.7810 0.7700 0.7580 0.7460 0.7360
9.507000 0.7280 0.7200 0.7110 0.7010 0.7000
9.540281 0.7000 0.7000 0.7010 0.7010 0.7030
9.573000 0.7030 0.7050 0.7050 0.7050 0.7060
9.606281 0.7060 0.7060 0.7060 0.7050 0.6980
9.640000 0.6900 0.6760 0.6600 0.6430 0.6400
9.673281 0.6430 0.6710 0.6880 0.7050 0.7150
9.706000 0.7360 0.7650 0.7700 0.7760 0.7810
9.739281 0.7810 0.7850 0.7850 0.7860 0.7880
9.773000 0.7910 0.7930 0.7930 0.7930 0.7910
9.806281 0.7910 0.7910 0.7910 0.7900 0.7880
9.839000 0.7880 0.7880 0.7880 0.7900 0.7910
9.872281 0.7950 0.7960 0.8000 0.8010 0.8050
9.906000 0.8080 0.8130 0.8150 0.8160 0.8160
9.939281 0.8180 0.8180 0.8160 0.8150 0.8130
9.972000 0.8010 0.7930 0.7780 0.7580 0.7380
10.005281 0.7180 0.7160 0.7200 0.7450 0.7780
10.039000 0.7930 0.8010 0.8110 0.8200 0.8260
10.072281 0.8310 0.8350 0.8380 0.8400 0.8410
10.105000 0.8430 0.8430 0.8460 0.8460 0.8480
10.138281 0.8480 0.8500 0.8500 0.8510 0.8510
10.172000 0.8530 0.8530 0.8550 0.8550 0.8550
10.205281 0.8560 0.8580 0.8580 0.8600 0.8600
10.238000 0.8600 0.8600 0.8580 0.8560 0.8560
10.271281 0.8560 0.8550 0.8550 0.8550 0.8550
10.305000 0.8550 0.8550 0.8550 0.8550 0.8550
10.338281 0.8550 0.8550 0.8530 0.8530 0.8460
10.372000 0.8450 0.8430 0.8430 0.8460 0.8530
10.405281 0.8530 0.8550 0.8550 0.8530 0.8480
10.438000 0.8430 0.8400 0.8350 0.8300 0.8260
10.471281 0.8210 0.8160 0.8150 0.8130 0.8150
10.505000 0.8160 0.8210 0.8300 0.8310 0.8300
10.538281 0.8260 0.8210 0.8100 0.7980 0.7850
10.571000 0.7600 0.7450 0.7280 0.7150 0.7030
10.604281 0.6980 0.6960 0.6980 0.7060 0.7210
10.638000 0.7400 0.7610 0.7830 0.8000 0.8150
10.671281 0.8250 0.8350 0.8430 0.8500 0.8550
10.704000 0.8580 0.8610 0.8660 0.8680 0.8700
10.737281 0.8680 0.8700 0.8700 0.8710 0.8710
10.771000 0.8710 0.8710 0.8710 0.8710 0.8710
10.804281 0.8710 0.8680 0.8660 0.8660 0.8630
10.837000 0.8610 0.8550 0.8480 0.8360 0.8230
10.870281 0.8080 0.7960 0.7910 0.7750 0.7480
10.904000 0.7150 0.6810 0.6050 0.4480 0.4030
10.937281 0.3600 0.3250 0.3200 0.3080 0.2960
10.970000 0.2950 0.2960 0.3010 0.3160 0.3450
11.003281 0.3700 0.3960 0.4260 0.4610 0.5000
11.037000 0.5460 0.5630 0.5800 0.6100 0.6400
11.070281 0.6660 0.6930 0.7160 0.7360 0.7580
11.103000 0.7710 0.7810 0.7950 0.8050 0.8130
11.136281 0.8200 0.8260 0.8310 0.8360 0.8400
11.170000 0.8410 0.8430 0.8450 0.8460 0.8500
11.203281 0.8510 0.8550 0.8560 0.8600 0.8610
11.236000 0.8630 0.8650 0.8650 0.8660 0.8660
11.269281 0.8680 0.8700 0.8700 0.8710 0.8710
11.303000 0.8710 0.8710 0.8710 0.8710 0.8710
11.336281 0.8710 0.8710 0.8730 0.8750 0.8750
11.369000 0.8750 0.8760 0.8780 0.8800 0.8800
11.402281 0.8800 0.8800 0.8780 0.8780 0.8760
11.436000 0.8730 0.8710 0.8700 0.8660 0.8580
11.469281 0.8500 0.8430 0.8330 0.8080 0.8030
11.503000 0.7750 0.7430 0.7210 0.7060 0.6900
11.536281 0.6730 0.6610 0.6600 0.6630 0.6730
11.569000 0.6800 0.6900 0.7030 0.7210 0.7330
11.602281 0.7550 0.7850 0.8010 0.8130 0.8200
11.636000 0.8280 0.8360 0.8410 0.8430 0.8450
11.669281 0.8460 0.8500 0.8560 0.8600 0.8630
11.702000 0.8660 0.8680 0.8700 0.8700 0.8710
11.735281 0.8710 0.8730 0.8750 0.8750 0.8750
11.769000 0.8760 0.8760 0.8760 0.8780 0.8780
11.802281 0.8800 0.8800 0.8830 0.8830 0.8810
11.835000 0.8800 0.8780 0.8780 0.8780 0.8780
11.868281 0.8800 0.8810 0.8830 0.8830 0.8830
11.902000 0.8800 0.8800 0.8780 0.8760 0.8750
11.935281 0.8730 0.8710 0.8700 0.8680 0.8680
11.968000 0.8680 0.8660 0.8660 0.8660 0.8630
12.001281 0.8610 0.8580 0.8560 0.8560 0.8550
12.035000 0.8550 0.8530 0.8530 0.8510 0.8500
12.068281 0.8480 0.8460 0.8430 0.8380 0.8310
12.101000 0.8250 0.8230 0.8150 0.8060 0.8000
12.134281 0.7960 0.7900 0.7800 0.7600 0.7400
12.168000 0.7110 0.6880 0.6430 0.6000 0.5560
12.201281 0.4780 0.4030 0.3600 0.3150 0.2700
12.234000 0.2210 0.1730 0.1200 0.1000 0.0750
12.267281 0.0680 0.0610 0.0600 0.0600 0.0630
12.301000 0.0750 0.0930 0.1060 0.1200 0.1530
12.334281 0.1900 0.2280 0.2680 0.3060 0.3400
12.367000 0.3630 0.3880 0.4130 0.4310 0.4480
12.400281 0.4580 0.4660 0.4710 0.4800 0.4900
12.434000 0.4930 0.5000 0.5050 0.5160 0.5250
12.467281 0.5350 0.5460 0.5550 0.5610 0.5760
12.501000 0.5910 0.6100 0.6300 0.6500 0.6560
12.534281 0.6750 0.6930 0.7100 0.7210 0.7400
12.567000 0.7500 0.7600 0.7680 0.7750 0.7830
12.600281 0.7880 0.7950 0.8000 0.8030 0.8060
12.634000 0.8100 0.8150 0.8160 0.8200 0.8230
12.667281 0.8260 0.8300 0.8330 0.8350 0.8380
12.700000 0.8400 0.8430 0.8450 0.8450 0.8450
12.733281 0.8460 0.8480 0.8510 0.8530 0.8550
12.767000 0.8580 0.8600 0.8600 0.8610 0.8610
12.800281 0.8630 0.8630 0.8630 0.8650 0.8650
12.833000 0.8650 0.8630 0.8610 0.8600 0.8580
12.866281 0.8530 0.8510 0.8500 0.8480 0.8460
12.900000 0.8460 0.8430 0.8400 0.8330 0.8300
12.933281 0.8250 0.8230 0.8210 0.8150 0.8050
12.966000 0.7950 0.7810 0.7680 0.7530 0.7300
12.999281 0.7030 0.6730 0.6430 0.6110 0.5800
13.033000 0.5180 0.4880 0.4630 0.4580 0.4500
13.066281 0.4460 0.4460 0.4500 0.4660 0.4850
13.099000 0.5050 0.5260 0.5360 0.5480 0.5580
13.132281 0.5660 0.5930 0.6050 0.6130 0.6200
13.166000 0.6260 0.6330 0.6400 0.6460 0.6550
13.199281 0.6630 0.6730 0.6760 0.6780 0.6810
13.232000 0.6810 0.6800 0.6800 0.6780 0.6680
13.265281 0.6560 0.6450 0.6310 0.6100 0.5760
13.299000 0.5080 0.4750 0.4410 0.4080 0.3710
13.332281 0.3350 0.2960 0.2500 0.2130 0.1860
13.365000 0.1680 0.1530 0.1430 0.1310 0.1200
13.398281 0.1030 0.0950 0.0880 0.0830 0.0780
13.432000 0.0730 0.0710 0.0700 0.0680 0.0700
13.465281 0.0730 0.0780 0.0910 0.0950 0.1080
13.498000 0.1200 0.1610 0.1950 0.2130 0.2480
13.531281 0.2830 0.3150 0.3450 0.3750 0.4050
13.565000 0.4330 0.4600 0.4860 0.5110 0.5380
13.598281 0.5510 0.5630 0.5860 0.5980 0.6130
13.632000 0.6350 0.6510 0.6680 0.6830 0.6960
13.665281 0.7060 0.7160 0.7260 0.7330 0.7400
13.698000 0.7450 0.7510 0.7680 0.7760 0.7860
13.731281 0.7910 0.7950 0.7960 0.8000 0.8010
13.765000 0.8010 0.8030 0.8050 0.8080 0.8110
13.798281 0.8150 0.8160 0.8200 0.8210 0.8250
13.831000 0.8280 0.8300 0.8360 0.8410 0.8410
13.864281 0.8430 0.8430 0.8450 0.8450 0.8430
13.898000 0.8430 0.8430 0.8410 0.8410 0.8410
13.931281 0.8400 0.8380 0.8380 0.8400 0.8400
13.964000 0.8410 0.8430 0.8450 0.8450 0.8460
13.997281 0.8480 0.8510 0.8530 0.8530 0.8530
14.031000 0.8510 0.8500 0.8480 0.8460 0.8430
14.064281 0.8410 0.8380 0.8350 0.8310 0.8250
14.097000 0.8210 0.8050 0.7780 0.7450 0.7080
14.130281 0.6680 0.6280 0.5900 0.5580 0.5210
14.164000 0.5200 0.5210 0.5310 0.5400 0.5500
14.197281 0.5600 0.5780 0.5960 0.6160 0.6350
14.230000 0.6530 0.6730 0.6900 0.7080 0.7250
14.263281 0.7410 0.7560 0.7710 0.7860 0.8000
14.297000 0.8110 0.8210 0.8300 0.8380 0.8410
14.330281 0.8460 0.8530 0.8580 0.8610 0.8660
14.363000 0.8700 0.8710 0.8730 0.8750 0.8760
14.396281 0.8780 0.8800 0.8800 0.8810 0.8830
14.430000 0.8830 0.8830 0.8850 0.8850 0.8850
14.463281 0.8850 0.8850 0.8850 0.8860 0.8880
14.496000 0.8880 0.8880 0.8900 0.8900 0.8900
14.529281 0.8900 0.8880 0.8860 0.8860 0.8860
14.563000 0.8880 0.8880 0.8900 0.8900 0.8910
14.596281 0.8910 0.8910 0.8910 0.8880 0.8880
14.629000 0.8880 0.8880 0.8880 0.8880 0.8880
14.662281 0.8880 0.8880 0.8880 0.8880 0.8900
14.696000 0.8900 0.8900 0.8900 0.8900 0.8900
14.729281 0.8900 0.8880 0.8880 0.8880 0.8880
14.763000 0.8880 0.8900 0.8900 0.8900 0.8900
14.796281 0.8880 0.8880 0.8880 0.8860 0.8860
14.829000 0.8850 0.8830 0.8830 0.8830 0.8850
14.862281 0.8860 0.8860 0.8880 0.8880 0.8860
14.896000 0.8860 0.8860 0.8850 0.8850 0.8830
14.929281 0.8830 0.8830 0.8830 0.8830 0.8830
14.962000 0.8810 0.8800 0.8760 0.8730 0.8600
14.995281 0.8450 0.8110 0.7810 0.7500 0.7180
15.029000 0.7010 0.6850 0.6800 0.6800 0.6810
15.062281 0.6830 0.6900 0.7000 0.7130 0.7280
15.095000 0.7430 0.7600 0.7760 0.7910 0.8050
15.128281 0.8160 0.8230 0.8250 0.8280 0.8380
15.162000 0.8530 0.8650 0.8680 0.8710 0.8710
15.195281 0.8730 0.8730 0.8750 0.8750 0.8760
15.228000 0.8760 0.8780 0.8810 0.8830 0.8830
15.261281 0.8850 0.8850 0.8860 0.8860 0.8880
15.295000 0.8880 0.8880 0.8880 0.8860 0.8860
15.328281 0.8860 0.8850 0.8850 0.8850 0.8830
15.361000 0.8830 0.8830 0.8810 0.8810 0.8800
15.394281 0.8800 0.8780 0.8780 0.8760 0.8760
15.428000 0.8760 0.8780 0.8780 0.8780 0.8780
15.461281 0.8800 0.8800 0.8800 0.8800 0.8810
15.494000 0.8810 0.8810 0.8810 0.8830 0.8830
15.527281 0.8830 0.8850 0.8850 0.8860 0.8860
15.561000 0.8880 0.8880 0.8880 0.8900 0.8900
15.594281 0.8900 0.8910 0.8910 0.8910 0.8910
15.627000 0.8930 0.8930 0.8930 0.8930 0.8950
15.660281 0.8950 0.8950 0.8950 0.8950 0.8960
15.694000 0.8960 0.8960 0.8960 0.8960 0.8960
15.727281 0.8960 0.8960 0.8960 0.8960 0.8960
15.760000 0.8960 0.8960 0.8960 0.8950 0.8950
15.793281 0.8950 0.8950 0.8930 0.8930 0.8930
15.827000 0.8930 0.8910 0.8910 0.8910 0.8900
15.860281 0.8900 0.8900 0.8880 0.8880 0.8860
15.894000 0.8860 0.8860 0.8850 0.8850
##END=
