##TITLE=2-Furamidoxime, o-(p-methoxybenzoyl)-5-nitro-
##JCAMP-DX=4.24
##DATA TYPE=INFRARED SPECTRUM
##CLASS=COBLENTZ III
##ORIGIN=ABBOTT LABORATORIES - WASHBURN
##OWNER=Copyright (C) 1987 by the Coblentz Society
Collection (C) 2018 copyright by the U.S. Secretary of Commerce
on behalf of the United States of America. All rights reserved.
##DATE=1964/11/11
##NAMES=N'-[(4-methoxybenzoyl)oxy]-5-nitro-2-furancarboximidamide
2-Furamidoxime, o-(p-anisoyl)-5-nitro-
##MOLFORM=C13 H11 N3 O6
##MP=208 C
##SOURCE REFERENCE=COBLENTZ NO. 9046
##$NIST ID=B6009046
##$NIST SOURCE=COBLENTZ
##$NIST IMAGE=cob9046
##SPECTROMETER/DATA SYSTEM=PERKIN-ELMER 21 (GRATING)
##INSTRUMENT PARAMETERS=NaCl PRISM; FILTER AT 10 MICRON
##STATE=SOLID (NUJOL MULL)
$$ PURITY - PURE
$$SPECTRAL CONTAMINATION DUE TO OIL AROUND 2900, 1450 CM^-^1
##SAMPLING PROCEDURE=TRANSMISSION
##RESOLUTION=2
##DATA PROCESSING=DIGITIZED BY COBLENTZ SOCIETY (BATCH II) FROM HARD COPY
##XUNITS=1/CM
##YUNITS=TRANSMITTANCE
##XFACTOR=1.0
##YFACTOR=1
##FIRSTX=645
##LASTX=3900
##FIRSTY=0.5706
##MAXX=3900
##MINX=645
##MAXY=0.8735
##MINY=0.0134
##NPOINTS=3256
##XYDATA=(X++(Y..Y))
645.000000 0.5706 0.5770 0.5840 0.5910 0.5971
650.000000 0.6007 0.6044 0.6093 0.6144 0.6182
655.000000 0.6211 0.6240 0.6270 0.6301 0.6332
660.000000 0.6363 0.6405 0.6451 0.6499 0.6565
665.000000 0.6623 0.6659 0.6695 0.6727 0.6756
670.000000 0.6785 0.6814 0.6843 0.6872 0.6895
675.000000 0.6915 0.6935 0.6939 0.6952 0.6945
680.000000 0.6941 0.6932 0.6916 0.6874 0.6827
685.000000 0.6770 0.6713 0.6669 0.6624 0.6487
690.000000 0.6300 0.6114 0.5928 0.5742 0.5322
695.000000 0.5370 0.5330 0.5333 0.5685 0.6296
700.000000 0.6907 0.7039 0.7056 0.7075 0.7104
705.000000 0.7150 0.7189 0.7205 0.7203 0.7189
710.000000 0.7171 0.7139 0.7107 0.7090 0.7075
715.000000 0.7079 0.7087 0.7093 0.7096 0.7100
720.000000 0.7102 0.7096 0.7078 0.7025 0.6962
725.000000 0.6915 0.6864 0.6802 0.6749 0.6660
730.000000 0.6255 0.5850 0.5446 0.5041 0.4686
735.000000 0.4686 0.4689 0.4850 0.5948 0.7047
740.000000 0.7478 0.7590 0.7700 0.7745 0.7761
745.000000 0.7774 0.7792 0.7781 0.7775 0.7753
750.000000 0.7730 0.7707 0.7678 0.7650 0.7600
755.000000 0.7552 0.7491 0.7212 0.7100 0.6721
760.000000 0.5810 0.4898 0.3506 0.3514 0.3514
765.000000 0.4335 0.5185 0.6034 0.6883 0.7491
770.000000 0.7583 0.7764 0.7983 0.8074 0.8136
775.000000 0.8154 0.8173 0.8184 0.8189 0.8208
780.000000 0.8197 0.8196 0.8195 0.8191 0.8186
785.000000 0.8181 0.8175 0.8160 0.8145 0.8130
790.000000 0.8115 0.8106 0.8103 0.8100 0.8097
795.000000 0.8093 0.8090 0.8086 0.8071 0.7981
800.000000 0.7821 0.7383 0.6944 0.6505 0.6067
805.000000 0.5628 0.4890 0.4898 0.5329 0.7528
810.000000 0.7513 0.7371 0.6873 0.6375 0.5878
815.000000 0.5380 0.4971 0.5301 0.6028 0.6756
820.000000 0.7483 0.7806 0.7904 0.7896 0.7901
825.000000 0.7900 0.7871 0.7818 0.7765 0.7712
830.000000 0.7695 0.7680 0.7797 0.7924 0.8037
835.000000 0.8065 0.8094 0.8091 0.8109 0.8105
840.000000 0.8090 0.8070 0.8043 0.8013 0.7973
845.000000 0.7927 0.7862 0.7783 0.7709 0.7625
850.000000 0.7533 0.6925 0.6181 0.5437 0.4693
855.000000 0.3948 0.3650 0.3646 0.3686 0.4298
860.000000 0.4910 0.5522 0.6135 0.6173 0.6194
865.000000 0.6340 0.6604 0.6868 0.7131 0.7395
870.000000 0.7659 0.8028 0.8102 0.8172 0.8191
875.000000 0.8203 0.8207 0.8208 0.8212 0.8208
880.000000 0.8203 0.8194 0.8184 0.8171 0.8155
885.000000 0.8140 0.8125 0.8110 0.8111 0.8118
890.000000 0.8132 0.8135 0.8137 0.8135 0.8129
895.000000 0.8124 0.8118 0.8109 0.8100 0.8082
900.000000 0.8064 0.8037 0.8010 0.7975 0.7928
905.000000 0.7875 0.7824 0.7771 0.7715 0.7661
910.000000 0.7608 0.7545 0.7482 0.7415 0.7322
915.000000 0.7228 0.7112 0.6958 0.6723 0.6487
920.000000 0.6251 0.5789 0.5782 0.5782 0.5799
925.000000 0.6061 0.6366 0.6672 0.6977 0.7283
930.000000 0.7588 0.7782 0.7827 0.7847 0.7867
935.000000 0.7879 0.7872 0.7890 0.7883 0.7872
940.000000 0.7857 0.7829 0.7760 0.7640 0.7521
945.000000 0.7442 0.7435 0.7471 0.7584 0.7698
950.000000 0.7742 0.7739 0.7736 0.7731 0.7719
955.000000 0.7683 0.7634 0.7585 0.7523 0.7421
960.000000 0.7329 0.7080 0.6830 0.6580 0.6330
965.000000 0.6079 0.5829 0.5769 0.5970 0.6506
970.000000 0.7041 0.7576 0.7664 0.7700 0.7692
975.000000 0.7692 0.7688 0.7678 0.7666 0.7652
980.000000 0.7638 0.7623 0.7608 0.7594 0.7581
985.000000 0.7568 0.7547 0.7526 0.7505 0.7479
990.000000 0.7439 0.7398 0.7351 0.7299 0.7237
995.000000 0.7173 0.7079 0.6987 0.6897 0.6808
1000.000000 0.6720 0.6533 0.6259 0.5984 0.5710
1005.000000 0.5436 0.5162 0.4888 0.4614 0.4340
1010.000000 0.4066 0.3792 0.3518 0.3244 0.2970
1015.000000 0.2871 0.2869 0.6668 0.6850 0.7011
1020.000000 0.7156 0.7285 0.7427 0.7513 0.7543
1025.000000 0.7559 0.7552 0.7543 0.7534 0.7523
1030.000000 0.7510 0.7488 0.7467 0.7437 0.7407
1035.000000 0.7380 0.7353 0.7326 0.7301 0.7276
1040.000000 0.7251 0.7218 0.7178 0.7140 0.7106
1045.000000 0.7071 0.7037 0.7000 0.6955 0.6909
1050.000000 0.6860 0.6797 0.6734 0.6671 0.6598
1055.000000 0.6515 0.6432 0.6340 0.6249 0.6110
1060.000000 0.5918 0.5748 0.5630 0.5509 0.5324
1065.000000 0.5140 0.4956 0.4772 0.4588 0.4404
1070.000000 0.4257 0.4144 0.4024 0.3926 0.3832
1075.000000 0.3814 0.3805 0.3802 0.3811 0.3826
1080.000000 0.3849 0.3886 0.3909 0.3915 0.3916
1085.000000 0.3916 0.3916 0.3917 0.3918 0.3921
1090.000000 0.4227 0.4567 0.4908 0.5248 0.5589
1095.000000 0.5929 0.6269 0.6610 0.6951 0.7291
1100.000000 0.7631 0.7731 0.7740 0.7747 0.7743
1105.000000 0.7732 0.7603 0.7431 0.7259 0.7087
1110.000000 0.6915 0.6769 0.6781 0.7026 0.7355
1115.000000 0.7685 0.7874 0.7916 0.7907 0.7920
1120.000000 0.7914 0.7908 0.7899 0.7884 0.7867
1125.000000 0.7849 0.7827 0.7802 0.7773 0.7742
1130.000000 0.7708 0.7673 0.7623 0.7569 0.7521
1135.000000 0.7477 0.7455 0.7434 0.7419 0.7404
1140.000000 0.7389 0.7378 0.7367 0.7356 0.7345
1145.000000 0.7333 0.7319 0.7305 0.7289 0.7262
1150.000000 0.7235 0.7207 0.7179 0.7143 0.7106
1155.000000 0.7060 0.7008 0.6941 0.6871 0.6749
1160.000000 0.6651 0.6564 0.6417 0.6228 0.5745
1165.000000 0.5261 0.4776 0.4292 0.3911 0.3915
1170.000000 0.4198 0.5043 0.5423 0.5377 0.5273
1175.000000 0.5169 0.5080 0.5112 0.6000 0.6889
1180.000000 0.7244 0.7245 0.7240 0.7229 0.7202
1185.000000 0.7184 0.7172 0.7177 0.7187 0.7205
1190.000000 0.7222 0.7234 0.7238 0.7222 0.7234
1195.000000 0.7222 0.7205 0.7186 0.7163 0.7139
1200.000000 0.7113 0.7084 0.7055 0.7026 0.6997
1205.000000 0.6969 0.6940 0.6911 0.6883 0.6854
1210.000000 0.6826 0.6800 0.6774 0.6748 0.6723
1215.000000 0.6697 0.6665 0.6624 0.6583 0.6542
1220.000000 0.6501 0.6452 0.6400 0.6348 0.6296
1225.000000 0.6244 0.6193 0.6141 0.6090 0.6035
1230.000000 0.5974 0.5913 0.5832 0.5731 0.5611
1235.000000 0.5457 0.5359 0.5265 0.5172 0.5052
1240.000000 0.4926 0.4785 0.4618 0.4517 0.4423
1245.000000 0.4185 0.3907 0.3629 0.3351 0.3072
1250.000000 0.2803 0.2655 0.2542 0.2443 0.2346
1255.000000 0.2239 0.2087 0.1987 0.1900 0.1833
1260.000000 0.1773 0.1724 0.1689 0.1654 0.1627
1265.000000 0.1607 0.1597 0.1602 0.1616 0.2014
1270.000000 0.2423 0.2833 0.3242 0.3652 0.4061
1275.000000 0.4514 0.4848 0.5031 0.5283 0.5450
1280.000000 0.5656 0.5877 0.6015 0.6089 0.6164
1285.000000 0.6236 0.6307 0.6370 0.6429 0.6475
1290.000000 0.6506 0.6536 0.6555 0.6555 0.6582
1295.000000 0.6554 0.6553 0.6542 0.6524 0.6500
1300.000000 0.6476 0.6435 0.6393 0.6352 0.6231
1305.000000 0.6099 0.5968 0.5836 0.5705 0.5573
1310.000000 0.5441 0.5310 0.5224 0.5172 0.5143
1315.000000 0.5154 0.5158 0.5329 0.5570 0.5811
1320.000000 0.6052 0.6287 0.6345 0.6347 0.6345
1325.000000 0.6328 0.6197 0.6022 0.5846 0.5670
1330.000000 0.5494 0.5318 0.5143 0.4967 0.4791
1335.000000 0.4619 0.4571 0.4496 0.4306 0.4073
1340.000000 0.3839 0.3605 0.3372 0.3138 0.2904
1345.000000 0.2670 0.2437 0.2203 0.1969 0.1764
1350.000000 0.1736 0.1742 0.1726 0.1867 0.2314
1355.000000 0.2761 0.3207 0.3654 0.4101 0.4410
1360.000000 0.4565 0.4720 0.4875 0.4953 0.4953
1365.000000 0.4946 0.4809 0.4659 0.4510 0.4360
1370.000000 0.4211 0.4020 0.4028 0.4079 0.4230
1375.000000 0.4381 0.4531 0.4682 0.4771 0.4779
1380.000000 0.4695 0.4555 0.4415 0.4275 0.4135
1385.000000 0.3995 0.3855 0.3776 0.3775 0.4426
1390.000000 0.5156 0.5886 0.6616 0.7111 0.7224
1395.000000 0.7312 0.7366 0.7388 0.7399 0.7386
1400.000000 0.7382 0.7378 0.7374 0.7368 0.7358
1405.000000 0.7346 0.7330 0.7308 0.7285 0.7258
1410.000000 0.7131 0.7003 0.6874 0.6746 0.6618
1415.000000 0.6490 0.6361 0.6235 0.6238 0.6266
1420.000000 0.6373 0.6480 0.6587 0.6612 0.6614
1425.000000 0.6579 0.6383 0.6187 0.5991 0.5795
1430.000000 0.5599 0.5402 0.5206 0.5010 0.4814
1435.000000 0.4614 0.4523 0.4450 0.4397 0.4343
1440.000000 0.4290 0.4247 0.4207 0.4166 0.4101
1445.000000 0.3965 0.3751 0.3537 0.3323 0.3109
1450.000000 0.2896 0.2686 0.2630 0.2613 0.2607
1455.000000 0.2609 0.2625 0.2655 0.2700 0.2766
1460.000000 0.2851 0.2906 0.2954 0.3009 0.3074
1465.000000 0.3178 0.3615 0.4116 0.4617 0.5118
1470.000000 0.5473 0.5573 0.5638 0.5674 0.5681
1475.000000 0.5689 0.5692 0.5695 0.5688 0.5680
1480.000000 0.5650 0.5573 0.5445 0.5350 0.5229
1485.000000 0.5139 0.5010 0.4792 0.4574 0.4356
1490.000000 0.4138 0.3921 0.3703 0.3485 0.3267
1495.000000 0.3049 0.2885 0.2819 0.3239 0.2805
1500.000000 0.2843 0.2952 0.3196 0.3346 0.3572
1505.000000 0.3799 0.4026 0.4252 0.4479 0.4705
1510.000000 0.4932 0.5159 0.5385 0.5612 0.5691
1515.000000 0.5749 0.5833 0.5796 0.5806 0.5790
1520.000000 0.5681 0.5577 0.5473 0.5370 0.5266
1525.000000 0.5162 0.5059 0.4955 0.4890 0.4916
1530.000000 0.5141 0.5691 0.6240 0.6792 0.6847
1535.000000 0.6911 0.6977 0.7042 0.7110 0.7234
1540.000000 0.7282 0.7310 0.7325 0.7341 0.7372
1545.000000 0.7344 0.7332 0.7218 0.7011 0.6947
1550.000000 0.6894 0.6842 0.6789 0.6759 0.6754
1555.000000 0.6750 0.6746 0.6740 0.6634 0.6534
1560.000000 0.6425 0.6337 0.6233 0.5655 0.5589
1565.000000 0.5524 0.5459 0.5329 0.5049 0.4768
1570.000000 0.4714 0.4709 0.4702 0.4696 0.4689
1575.000000 0.4670 0.4483 0.4217 0.3951 0.3686
1580.000000 0.3420 0.3154 0.3081 0.3082 0.3101
1585.000000 0.3257 0.3413 0.3569 0.3728 0.3716
1590.000000 0.3714 0.3540 0.3319 0.3099 0.2878
1595.000000 0.2657 0.2436 0.2215 0.2184 0.2096
1600.000000 0.2562 0.2873 0.3184 0.3495 0.3806
1605.000000 0.4117 0.4143 0.4132 0.3784 0.3299
1610.000000 0.2813 0.2527 0.2411 0.2335 0.2270
1615.000000 0.2188 0.2085 0.1607 0.1471 0.1400
1620.000000 0.1320 0.1273 0.1257 0.1250 0.1247
1625.000000 0.1258 0.1308 0.1566 0.1915 0.2263
1630.000000 0.2601 0.2940 0.3075 0.3177 0.3273
1635.000000 0.3457 0.3744 0.4041 0.4339 0.4549
1640.000000 0.4693 0.5295 0.5610 0.5983 0.6087
1645.000000 0.6174 0.6298 0.6459 0.6632 0.6781
1650.000000 0.6859 0.6937 0.7029 0.7106 0.7157
1655.000000 0.7208 0.7259 0.7318 0.7377 0.7436
1660.000000 0.7537 0.7655 0.7750 0.7838 0.7900
1665.000000 0.7948 0.7969 0.7991 0.8010 0.8020
1670.000000 0.8029 0.8031 0.8030 0.8022 0.8020
1675.000000 0.8011 0.8003 0.7994 0.7977 0.7962
1680.000000 0.7945 0.7924 0.7904 0.7884 0.7797
1685.000000 0.7695 0.7566 0.7450 0.7333 0.7206
1690.000000 0.6880 0.6705 0.6628 0.6499 0.6276
1695.000000 0.6063 0.5863 0.5728 0.5452 0.5081
1700.000000 0.4710 0.4338 0.3967 0.3595 0.3224
1705.000000 0.2853 0.2481 0.2299 0.2296 0.2296
1710.000000 0.2674 0.3090 0.3507 0.3923 0.4339
1715.000000 0.4755 0.5172 0.5588 0.6004 0.6222
1720.000000 0.6559 0.6727 0.6819 0.7197 0.7394
1725.000000 0.7481 0.7563 0.7631 0.7700 0.7768
1730.000000 0.7835 0.7902 0.7957 0.8005 0.8053
1735.000000 0.8107 0.8172 0.8237 0.8288 0.8326
1740.000000 0.8365 0.8403 0.8435 0.8459 0.8484
1745.000000 0.8509 0.8528 0.8547 0.8566 0.8585
1750.000000 0.8600 0.8610 0.8620 0.8630 0.8640
1755.000000 0.8650 0.8656 0.8659 0.8663 0.8667
1760.000000 0.8670 0.8674 0.8676 0.8689 0.8681
1765.000000 0.8681 0.8675 0.8669 0.8660 0.8652
1770.000000 0.8644 0.8634 0.8625 0.8615 0.8606
1775.000000 0.8594 0.8581 0.8567 0.8552 0.8553
1780.000000 0.8531 0.8571 0.8596 0.8628 0.8649
1785.000000 0.8703 0.8685 0.8695 0.8704 0.8700
1790.000000 0.8697 0.8694 0.8691 0.8688 0.8686
1795.000000 0.8682 0.8677 0.8671 0.8666 0.8660
1800.000000 0.8655 0.8650 0.8645 0.8642 0.8642
1805.000000 0.8642 0.8643 0.8644 0.8647 0.8650
1810.000000 0.8652 0.8655 0.8658 0.8663 0.8669
1815.000000 0.8675 0.8681 0.8687 0.8693 0.8698
1820.000000 0.8702 0.8706 0.8710 0.8714 0.8718
1825.000000 0.8721 0.8724 0.8726 0.8729 0.8732
1830.000000 0.8734 0.8735 0.8735 0.8734 0.8734
1835.000000 0.8733 0.8733 0.8732 0.8732 0.8731
1840.000000 0.8731 0.8730 0.8729 0.8728 0.8726
1845.000000 0.8725 0.8724 0.8723 0.8722 0.8719
1850.000000 0.8717 0.8715 0.8713 0.8711 0.8709
1855.000000 0.8706 0.8704 0.8700 0.8697 0.8694
1860.000000 0.8691 0.8687 0.8684 0.8681 0.8678
1865.000000 0.8675 0.8672 0.8670 0.8668 0.8667
1870.000000 0.8665 0.8664 0.8662 0.8663 0.8663
1875.000000 0.8663 0.8664 0.8665 0.8666 0.8667
1880.000000 0.8670 0.8676 0.8681 0.8682 0.8684
1885.000000 0.8685 0.8682 0.8679 0.8677 0.8674
1890.000000 0.8672 0.8670 0.8668 0.8666 0.8663
1895.000000 0.8659 0.8654 0.8650 0.8645 0.8640
1900.000000 0.8636 0.8631 0.8625 0.8620 0.8614
1905.000000 0.8609 0.8603 0.8598 0.8592 0.8585
1910.000000 0.8579 0.8572 0.8566 0.8560 0.8553
1915.000000 0.8546 0.8538 0.8530 0.8522 0.8514
1920.000000 0.8506 0.8498 0.8490 0.8485 0.8481
1925.000000 0.8478 0.8474 0.8470 0.8467 0.8468
1930.000000 0.8470 0.8471 0.8476 0.8488 0.8500
1935.000000 0.8502 0.8501 0.8500 0.8496 0.8492
1940.000000 0.8488 0.8484 0.8477 0.8468 0.8460
1945.000000 0.8451 0.8446 0.8445 0.8445 0.8444
1950.000000 0.8445 0.8451 0.8457 0.8460 0.8460
1955.000000 0.8460 0.8460 0.8460 0.8459 0.8458
1960.000000 0.8456 0.8455 0.8458 0.8464 0.8469
1965.000000 0.8474 0.8487 0.8498 0.8505 0.8512
1970.000000 0.8516 0.8513 0.8511 0.8508 0.8504
1975.000000 0.8499 0.8494 0.8489 0.8483 0.8472
1980.000000 0.8462 0.8452 0.8442 0.8435 0.8429
1985.000000 0.8422 0.8418 0.8419 0.8421 0.8422
1990.000000 0.8425 0.8429 0.8438 0.8446 0.8452
1995.000000 0.8454 0.8455 0.8456 0.8457 0.8458
2000.000000 0.8457 0.8456 0.8454 0.8453 0.8450
2005.000000 0.8447 0.8445 0.8442 0.8439 0.8436
2010.000000 0.8436 0.8436 0.8436 0.8437 0.8437
2015.000000 0.8438 0.8439 0.8440 0.8441 0.8442
2020.000000 0.8442 0.8443 0.8443 0.8443 0.8443
2025.000000 0.8441 0.8439 0.8438 0.8436 0.8434
2030.000000 0.8433 0.8432 0.8431 0.8430 0.8429
2035.000000 0.8428 0.8428 0.8427 0.8426 0.8426
2040.000000 0.8425 0.8425 0.8424 0.8424 0.8423
2045.000000 0.8423 0.8423 0.8422 0.8422 0.8421
2050.000000 0.8421 0.8421 0.8421 0.8421 0.8421
2055.000000 0.8421 0.8421 0.8421 0.8421 0.8421
2060.000000 0.8422 0.8425 0.8429 0.8432 0.8437
2065.000000 0.8442 0.8448 0.8450 0.8452 0.8453
2070.000000 0.8451 0.8449 0.8446 0.8444 0.8441
2075.000000 0.8439 0.8436 0.8433 0.8430 0.8427
2080.000000 0.8425 0.8422 0.8419 0.8416 0.8413
2085.000000 0.8410 0.8407 0.8404 0.8401 0.8398
2090.000000 0.8395 0.8392 0.8388 0.8385 0.8382
2095.000000 0.8379 0.8376 0.8373 0.8369 0.8366
2100.000000 0.8363 0.8360 0.8356 0.8353 0.8349
2105.000000 0.8345 0.8341 0.8338 0.8334 0.8330
2110.000000 0.8327 0.8323 0.8320 0.8317 0.8315
2115.000000 0.8312 0.8310 0.8307 0.8305 0.8302
2120.000000 0.8300 0.8297 0.8295 0.8292 0.8289
2125.000000 0.8287 0.8287 0.8287 0.8287 0.8287
2130.000000 0.8286 0.8286 0.8286 0.8285 0.8285
2135.000000 0.8284 0.8284 0.8283 0.8282 0.8282
2140.000000 0.8281 0.8278 0.8271 0.8264 0.8258
2145.000000 0.8251 0.8244 0.8237 0.8234 0.8232
2150.000000 0.8231 0.8230 0.8228 0.8227 0.8225
2155.000000 0.8224 0.8223 0.8221 0.8220 0.8219
2160.000000 0.8217 0.8216 0.8217 0.8217 0.8217
2165.000000 0.8218 0.8218 0.8218 0.8219 0.8219
2170.000000 0.8219 0.8219 0.8220 0.8219 0.8219
2175.000000 0.8218 0.8218 0.8217 0.8217 0.8216
2180.000000 0.8216 0.8215 0.8215 0.8215 0.8214
2185.000000 0.8214 0.8213 0.8212 0.8211 0.8210
2190.000000 0.8209 0.8208 0.8207 0.8206 0.8205
2195.000000 0.8204 0.8203 0.8202 0.8201 0.8200
2200.000000 0.8199 0.8197 0.8196 0.8195 0.8194
2205.000000 0.8193 0.8192 0.8189 0.8186 0.8184
2210.000000 0.8181 0.8179 0.8176 0.8174 0.8171
2215.000000 0.8169 0.8166 0.8164 0.8161 0.8158
2220.000000 0.8156 0.8153 0.8151 0.8148 0.8147
2225.000000 0.8145 0.8143 0.8141 0.8139 0.8137
2230.000000 0.8135 0.8133 0.8131 0.8129 0.8127
2235.000000 0.8125 0.8123 0.8122 0.8119 0.8117
2240.000000 0.8115 0.8113 0.8111 0.8108 0.8106
2245.000000 0.8104 0.8102 0.8100 0.8097 0.8095
2250.000000 0.8093 0.8091 0.8088 0.8086 0.8084
2255.000000 0.8082 0.8080 0.8077 0.8075 0.8073
2260.000000 0.8071 0.8069 0.8067 0.8065 0.8063
2265.000000 0.8061 0.8059 0.8055 0.8052 0.8048
2270.000000 0.8044 0.8040 0.8036 0.8032 0.8028
2275.000000 0.8024 0.8019 0.8014 0.8010 0.8005
2280.000000 0.8001 0.7996 0.7991 0.7987 0.7981
2285.000000 0.7975 0.7968 0.7962 0.7956 0.7949
2290.000000 0.7943 0.7936 0.7930 0.7924 0.7917
2295.000000 0.7911 0.7905 0.7902 0.7898 0.7894
2300.000000 0.7890 0.7887 0.7883 0.7879 0.7876
2305.000000 0.7873 0.7871 0.7869 0.7867 0.7865
2310.000000 0.7863 0.7861 0.7859 0.7857 0.7855
2315.000000 0.7853 0.7852 0.7851 0.7849 0.7848
2320.000000 0.7847 0.7846 0.7845 0.7844 0.7843
2325.000000 0.7842 0.7841 0.7840 0.7839 0.7838
2330.000000 0.7837 0.7835 0.7835 0.7835 0.7835
2335.000000 0.7835 0.7835 0.7835 0.7835 0.7835
2340.000000 0.7835 0.7835 0.7836 0.7836 0.7836
2345.000000 0.7835 0.7835 0.7835 0.7835 0.7835
2350.000000 0.7835 0.7835 0.7835 0.7834 0.7834
2355.000000 0.7834 0.7834 0.7834 0.7834 0.7834
2360.000000 0.7834 0.7833 0.7833 0.7832 0.7832
2365.000000 0.7831 0.7830 0.7830 0.7829 0.7828
2370.000000 0.7827 0.7827 0.7826 0.7825 0.7825
2375.000000 0.7824 0.7823 0.7822 0.7822 0.7821
2380.000000 0.7821 0.7820 0.7819 0.7819 0.7818
2385.000000 0.7817 0.7817 0.7816 0.7815 0.7815
2390.000000 0.7814 0.7813 0.7813 0.7812 0.7811
2395.000000 0.7811 0.7810 0.7810 0.7809 0.7809
2400.000000 0.7809 0.7808 0.7808 0.7808 0.7807
2405.000000 0.7807 0.7807 0.7806 0.7805 0.7802
2410.000000 0.7799 0.7795 0.7792 0.7789 0.7786
2415.000000 0.7783 0.7780 0.7777 0.7775 0.7773
2420.000000 0.7771 0.7769 0.7766 0.7765 0.7764
2425.000000 0.7764 0.7763 0.7762 0.7761 0.7760
2430.000000 0.7760 0.7759 0.7758 0.7757 0.7757
2435.000000 0.7756 0.7755 0.7754 0.7753 0.7753
2440.000000 0.7752 0.7751 0.7750 0.7750 0.7749
2445.000000 0.7748 0.7747 0.7746 0.7744 0.7743
2450.000000 0.7741 0.7739 0.7737 0.7736 0.7734
2455.000000 0.7732 0.7731 0.7729 0.7727 0.7724
2460.000000 0.7722 0.7719 0.7716 0.7713 0.7711
2465.000000 0.7708 0.7705 0.7702 0.7698 0.7694
2470.000000 0.7691 0.7687 0.7683 0.7680 0.7676
2475.000000 0.7672 0.7668 0.7665 0.7661 0.7657
2480.000000 0.7656 0.7655 0.7654 0.7653 0.7652
2485.000000 0.7651 0.7650 0.7650 0.7649 0.7649
2490.000000 0.7649 0.7647 0.7646 0.7644 0.7642
2495.000000 0.7640 0.7638 0.7636 0.7633 0.7630
2500.000000 0.7627 0.7624 0.7621 0.7617 0.7615
2505.000000 0.7613 0.7611 0.7609 0.7607 0.7605
2510.000000 0.7603 0.7601 0.7599 0.7598 0.7597
2515.000000 0.7596 0.7595 0.7593 0.7592 0.7591
2520.000000 0.7590 0.7587 0.7584 0.7580 0.7577
2525.000000 0.7574 0.7571 0.7568 0.7565 0.7562
2530.000000 0.7559 0.7555 0.7552 0.7549 0.7546
2535.000000 0.7543 0.7540 0.7537 0.7532 0.7528
2540.000000 0.7523 0.7519 0.7514 0.7509 0.7505
2545.000000 0.7500 0.7496 0.7491 0.7486 0.7482
2550.000000 0.7477 0.7471 0.7465 0.7459 0.7452
2555.000000 0.7446 0.7440 0.7433 0.7427 0.7421
2560.000000 0.7415 0.7408 0.7402 0.7396 0.7390
2565.000000 0.7382 0.7375 0.7367 0.7360 0.7352
2570.000000 0.7344 0.7340 0.7337 0.7335 0.7332
2575.000000 0.7329 0.7327 0.7324 0.7322 0.7319
2580.000000 0.7317 0.7314 0.7315 0.7315 0.7315
2585.000000 0.7316 0.7316 0.7316 0.7316 0.7316
2590.000000 0.7316 0.7315 0.7314 0.7313 0.7313
2595.000000 0.7312 0.7311 0.7306 0.7301 0.7296
2600.000000 0.7292 0.7287 0.7282 0.7277 0.7272
2605.000000 0.7267 0.7262 0.7257 0.7253 0.7248
2610.000000 0.7243 0.7239 0.7234 0.7229 0.7225
2615.000000 0.7220 0.7216 0.7211 0.7206 0.7203
2620.000000 0.7199 0.7196 0.7192 0.7189 0.7185
2625.000000 0.7182 0.7178 0.7175 0.7171 0.7168
2630.000000 0.7164 0.7161 0.7158 0.7156 0.7155
2635.000000 0.7154 0.7152 0.7151 0.7150 0.7148
2640.000000 0.7145 0.7142 0.7140 0.7137 0.7135
2645.000000 0.7132 0.7130 0.7127 0.7124 0.7122
2650.000000 0.7119 0.7117 0.7114 0.7111 0.7109
2655.000000 0.7107 0.7105 0.7102 0.7100 0.7098
2660.000000 0.7096 0.7094 0.7091 0.7089 0.7087
2665.000000 0.7085 0.7083 0.7081 0.7078 0.7076
2670.000000 0.7074 0.7071 0.7068 0.7065 0.7063
2675.000000 0.7060 0.7057 0.7055 0.7052 0.7049
2680.000000 0.7047 0.7044 0.7041 0.7039 0.7036
2685.000000 0.7033 0.7030 0.7029 0.7027 0.7026
2690.000000 0.7025 0.7024 0.7023 0.7022 0.7020
2695.000000 0.7019 0.7018 0.7017 0.7016 0.7014
2700.000000 0.7013 0.7012 0.7010 0.7008 0.7006
2705.000000 0.7004 0.7002 0.7000 0.6998 0.6996
2710.000000 0.6994 0.6992 0.6990 0.6988 0.6986
2715.000000 0.6984 0.6982 0.6980 0.6980 0.6981
2720.000000 0.6982 0.6984 0.6985 0.6986 0.6988
2725.000000 0.6989 0.6990 0.6991 0.6993 0.6994
2730.000000 0.6995 0.6996 0.6997 0.6998 0.6999
2735.000000 0.7000 0.7001 0.7002 0.7003 0.7004
2740.000000 0.7004 0.7003 0.7003 0.7002 0.7002
2745.000000 0.7001 0.7000 0.7000 0.6998 0.6995
2750.000000 0.6992 0.6989 0.6986 0.6983 0.6980
2755.000000 0.6977 0.6972 0.6966 0.6960 0.6953
2760.000000 0.6947 0.6940 0.6934 0.6927 0.6918
2765.000000 0.6908 0.6899 0.6889 0.6880 0.6871
2770.000000 0.6861 0.6852 0.6843 0.6833 0.6824
2775.000000 0.6815 0.6805 0.6796 0.6787 0.6779
2780.000000 0.6771 0.6763 0.6755 0.6748 0.6740
2785.000000 0.6730 0.6714 0.6699 0.6683 0.6668
2790.000000 0.6647 0.6623 0.6599 0.6574 0.6550
2795.000000 0.6526 0.6498 0.6467 0.6436 0.6406
2800.000000 0.6375 0.6335 0.6295 0.6256 0.6216
2805.000000 0.6176 0.6134 0.6091 0.6048 0.6005
2810.000000 0.5955 0.5900 0.5844 0.5789 0.5726
2815.000000 0.5664 0.5601 0.5539 0.5476 0.5414
2820.000000 0.5330 0.5223 0.5117 0.5002 0.4883
2825.000000 0.4764 0.4640 0.4497 0.4347 0.4172
2830.000000 0.3706 0.3083 0.2459 0.1992 0.1918
2835.000000 0.1863 0.1616 0.1190 0.1091 0.0990
2840.000000 0.0899 0.0822 0.0784 0.0746 0.0712
2845.000000 0.0684 0.0667 0.0668 0.0671 0.0682
2850.000000 0.0692 0.0708 0.0729 0.0753 0.0778
2855.000000 0.0803 0.0832 0.0860 0.0888 0.0915
2860.000000 0.0941 0.0968 0.0992 0.1015 0.1038
2865.000000 0.1057 0.1076 0.1095 0.1121 0.1149
2870.000000 0.1198 0.1303 0.1445 0.1469 0.1479
2875.000000 0.1484 0.1480 0.1470 0.1416 0.1359
2880.000000 0.1301 0.1244 0.1186 0.1128 0.1041
2885.000000 0.0924 0.0853 0.0784 0.0715 0.0658
2890.000000 0.0611 0.0564 0.0522 0.0480 0.0438
2895.000000 0.0408 0.0379 0.0350 0.0327 0.0306
2900.000000 0.0286 0.0266 0.0249 0.0233 0.0216
2905.000000 0.0200 0.0184 0.0165 0.0146 0.0142
2910.000000 0.0138 0.0134 0.0134 0.0139 0.0143
2915.000000 0.0150 0.0156 0.0162 0.0169 0.0178
2920.000000 0.0186 0.0195 0.0204 0.0213 0.0222
2925.000000 0.0233 0.0248 0.0262 0.0278 0.0294
2930.000000 0.0314 0.0333 0.0359 0.0382 0.0391
2935.000000 0.0400 0.0405 0.0408 0.0411 0.0411
2940.000000 0.0411 0.0410 0.0410 0.0409 0.0412
2945.000000 0.0414 0.0417 0.0426 0.0437 0.0447
2950.000000 0.0462 0.0476 0.0491 0.0519 0.0552
2955.000000 0.0594 0.0636 0.0686 0.0737 0.0810
2960.000000 0.0918 0.0987 0.1055 0.1130 0.1239
2965.000000 0.1643 0.1931 0.2219 0.2507 0.2796
2970.000000 0.3084 0.3227 0.3306 0.3362 0.3411
2975.000000 0.3461 0.3536 0.3635 0.3760 0.3970
2980.000000 0.4053 0.4137 0.4220 0.4312 0.4415
2985.000000 0.4517 0.4588 0.4641 0.4694 0.4750
2990.000000 0.4809 0.4868 0.4927 0.4980 0.5032
2995.000000 0.5084 0.5135 0.5186 0.5237 0.5286
3000.000000 0.5334 0.5387 0.5445 0.5504 0.5559
3005.000000 0.5615 0.5659 0.5682 0.5706 0.5729
3010.000000 0.5747 0.5760 0.5772 0.5785 0.5797
3015.000000 0.5809 0.5821 0.5832 0.5843 0.5855
3020.000000 0.5866 0.5877 0.5888 0.5899 0.5908
3025.000000 0.5918 0.5927 0.5937 0.5946 0.5956
3030.000000 0.5965 0.5974 0.5982 0.5991 0.5999
3035.000000 0.6008 0.6017 0.6028 0.6038 0.6041
3040.000000 0.6043 0.6044 0.6044 0.6044 0.6044
3045.000000 0.6043 0.6043 0.6043 0.6042 0.6040
3050.000000 0.6038 0.6036 0.6034 0.6032 0.6030
3055.000000 0.6028 0.6026 0.6024 0.6022 0.6020
3060.000000 0.6018 0.6018 0.6022 0.6026 0.6035
3065.000000 0.6052 0.6071 0.6092 0.6114 0.6129
3070.000000 0.6133 0.6138 0.6140 0.6141 0.6143
3075.000000 0.6144 0.6144 0.6144 0.6145 0.6145
3080.000000 0.6144 0.6137 0.6130 0.6123 0.6116
3085.000000 0.6109 0.6103 0.6096 0.6087 0.6078
3090.000000 0.6070 0.6061 0.6052 0.6044 0.6037
3095.000000 0.6030 0.6022 0.6022 0.6025 0.6028
3100.000000 0.6030 0.6034 0.6041 0.6047 0.6054
3105.000000 0.6060 0.6063 0.6063 0.6062 0.6062
3110.000000 0.6061 0.6048 0.6035 0.6020 0.5997
3115.000000 0.5975 0.5948 0.5916 0.5883 0.5838
3120.000000 0.5792 0.5732 0.5668 0.5613 0.5581
3125.000000 0.5552 0.5571 0.5574 0.5624 0.5689
3130.000000 0.5753 0.5817 0.5845 0.5848 0.5882
3135.000000 0.5814 0.5785 0.5751 0.5711 0.5661
3140.000000 0.5604 0.5512 0.5306 0.5101 0.4895
3145.000000 0.4737 0.4735 0.4734 0.4942 0.5275
3150.000000 0.5609 0.5861 0.5885 0.5898 0.5905
3155.000000 0.5910 0.5914 0.5918 0.5923 0.5927
3160.000000 0.5930 0.5934 0.5937 0.5943 0.5950
3165.000000 0.5956 0.5963 0.5971 0.5981 0.5991
3170.000000 0.6000 0.6011 0.6027 0.6043 0.6060
3175.000000 0.6080 0.6100 0.6120 0.6134 0.6148
3180.000000 0.6153 0.6157 0.6161 0.6165 0.6164
3185.000000 0.6162 0.6161 0.6160 0.6158 0.6157
3190.000000 0.6155 0.6160 0.6151 0.6149 0.6147
3195.000000 0.6145 0.6143 0.6139 0.6136 0.6132
3200.000000 0.6129 0.6126 0.6122 0.6119 0.6115
3205.000000 0.6112 0.6110 0.6108 0.6106 0.6105
3210.000000 0.6103 0.6101 0.6099 0.6097 0.6095
3215.000000 0.6093 0.6090 0.6087 0.6084 0.6081
3220.000000 0.6078 0.6075 0.6072 0.6068 0.6065
3225.000000 0.6059 0.6054 0.6048 0.6043 0.6037
3230.000000 0.6033 0.6030 0.6027 0.6025 0.6022
3235.000000 0.6019 0.6017 0.6014 0.6013 0.6013
3240.000000 0.6012 0.6011 0.6011 0.6010 0.6009
3245.000000 0.6009 0.6009 0.6009 0.6010 0.6009
3250.000000 0.6007 0.6006 0.6004 0.6003 0.6001
3255.000000 0.5997 0.5992 0.5986 0.5980 0.5975
3260.000000 0.5969 0.5964 0.5958 0.5950 0.5941
3265.000000 0.5933 0.5924 0.5916 0.5907 0.5898
3270.000000 0.5890 0.5881 0.5871 0.5860 0.5850
3275.000000 0.5840 0.5829 0.5819 0.5808 0.5798
3280.000000 0.5788 0.5778 0.5768 0.5758 0.5747
3285.000000 0.5737 0.5727 0.5716 0.5705 0.5693
3290.000000 0.5681 0.5669 0.5658 0.5646 0.5634
3295.000000 0.5622 0.5610 0.5596 0.5583 0.5569
3300.000000 0.5555 0.5542 0.5528 0.5514 0.5501
3305.000000 0.5487 0.5473 0.5459 0.5444 0.5428
3310.000000 0.5413 0.5397 0.5382 0.5366 0.5351
3315.000000 0.5334 0.5310 0.5286 0.5262 0.5238
3320.000000 0.5214 0.5185 0.5152 0.5119 0.5085
3325.000000 0.5052 0.5017 0.4960 0.4903 0.4845
3330.000000 0.4788 0.4741 0.4694 0.4647 0.4600
3335.000000 0.4549 0.4473 0.4396 0.4320 0.4206
3340.000000 0.4079 0.3866 0.3678 0.3509 0.3382
3345.000000 0.3254 0.3121 0.2999 0.2890 0.2781
3350.000000 0.2645 0.2503 0.2398 0.2346 0.2295
3355.000000 0.2223 0.2164 0.2122 0.2086 0.2061
3360.000000 0.2043 0.2097 0.2156 0.2222 0.2433
3365.000000 0.2531 0.2933 0.3799 0.3893 0.4036
3370.000000 0.4146 0.4255 0.4489 0.4989 0.5245
3375.000000 0.5644 0.5789 0.5934 0.6075 0.6187
3380.000000 0.6244 0.6281 0.6318 0.6355 0.6388
3385.000000 0.6419 0.6450 0.6481 0.6501 0.6520
3390.000000 0.6539 0.6553 0.6566 0.6567 0.6567
3395.000000 0.6556 0.6568 0.6568 0.6565 0.6562
3400.000000 0.6559 0.6556 0.6553 0.6549 0.6542
3405.000000 0.6536 0.6529 0.6520 0.6508 0.6496
3410.000000 0.6485 0.6473 0.6456 0.6438 0.6421
3415.000000 0.6401 0.6379 0.6356 0.6333 0.6311
3420.000000 0.6291 0.6271 0.6251 0.6231 0.6210
3425.000000 0.6189 0.6168 0.6144 0.6121 0.6093
3430.000000 0.6057 0.6020 0.5977 0.5930 0.5826
3435.000000 0.5759 0.5675 0.5577 0.5479 0.5381
3440.000000 0.5282 0.5184 0.5086 0.4988 0.4890
3445.000000 0.4792 0.4713 0.4715 0.4721 0.4765
3450.000000 0.4866 0.4968 0.5069 0.5171 0.5273
3455.000000 0.5374 0.5476 0.5577 0.5670 0.5763
3460.000000 0.5945 0.6008 0.6070 0.6148 0.6216
3465.000000 0.6266 0.6317 0.6361 0.6404 0.6446
3470.000000 0.6486 0.6513 0.6522 0.6532 0.6542
3475.000000 0.6552 0.6557 0.6560 0.6563 0.6593
3480.000000 0.6566 0.6565 0.6564 0.6563 0.6562
3485.000000 0.6561 0.6562 0.6563 0.6564 0.6564
3490.000000 0.6565 0.6566 0.6567 0.6567 0.6567
3495.000000 0.6567 0.6567 0.6567 0.6567 0.6567
3500.000000 0.6567 0.6567 0.6567 0.6567 0.6566
3505.000000 0.6565 0.6564 0.6563 0.6562 0.6562
3510.000000 0.6561 0.6560 0.6559 0.6558 0.6557
3515.000000 0.6556 0.6556 0.6554 0.6552 0.6550
3520.000000 0.6548 0.6546 0.6544 0.6541 0.6539
3525.000000 0.6537 0.6535 0.6533 0.6531 0.6529
3530.000000 0.6527 0.6525 0.6523 0.6520 0.6518
3535.000000 0.6516 0.6514 0.6511 0.6509 0.6507
3540.000000 0.6505 0.6503 0.6500 0.6498 0.6496
3545.000000 0.6494 0.6492 0.6490 0.6488 0.6486
3550.000000 0.6485 0.6483 0.6481 0.6479 0.6477
3555.000000 0.6475 0.6473 0.6471 0.6468 0.6463
3560.000000 0.6459 0.6455 0.6451 0.6447 0.6442
3565.000000 0.6438 0.6434 0.6430 0.6426 0.6422
3570.000000 0.6418 0.6414 0.6410 0.6406 0.6402
3575.000000 0.6398 0.6394 0.6390 0.6386 0.6381
3580.000000 0.6379 0.6377 0.6375 0.6372 0.6370
3585.000000 0.6368 0.6366 0.6364 0.6362 0.6359
3590.000000 0.6357 0.6355 0.6353 0.6351 0.6349
3595.000000 0.6346 0.6344 0.6342 0.6339 0.6337
3600.000000 0.6335 0.6332 0.6330 0.6328 0.6326
3605.000000 0.6323 0.6321 0.6319 0.6316 0.6314
3610.000000 0.6312 0.6309 0.6307 0.6305 0.6303
3615.000000 0.6300 0.6298 0.6297 0.6295 0.6293
3620.000000 0.6292 0.6290 0.6288 0.6287 0.6285
3625.000000 0.6283 0.6282 0.6280 0.6279 0.6277
3630.000000 0.6275 0.6274 0.6273 0.6272 0.6271
3635.000000 0.6270 0.6269 0.6268 0.6267 0.6267
3640.000000 0.6266 0.6265 0.6264 0.6263 0.6262
3645.000000 0.6261 0.6261 0.6260 0.6259 0.6258
3650.000000 0.6257 0.6256 0.6255 0.6254 0.6252
3655.000000 0.6251 0.6250 0.6249 0.6248 0.6246
3660.000000 0.6245 0.6244 0.6243 0.6242 0.6240
3665.000000 0.6239 0.6238 0.6237 0.6236 0.6235
3670.000000 0.6233 0.6232 0.6231 0.6230 0.6229
3675.000000 0.6227 0.6226 0.6225 0.6224 0.6223
3680.000000 0.6222 0.6221 0.6219 0.6218 0.6217
3685.000000 0.6216 0.6215 0.6214 0.6212 0.6211
3690.000000 0.6210 0.6209 0.6208 0.6207 0.6205
3695.000000 0.6204 0.6203 0.6201 0.6199 0.6197
3700.000000 0.6195 0.6193 0.6191 0.6189 0.6187
3705.000000 0.6185 0.6183 0.6181 0.6179 0.6177
3710.000000 0.6175 0.6173 0.6171 0.6169 0.6167
3715.000000 0.6165 0.6163 0.6161 0.6159 0.6158
3720.000000 0.6156 0.6154 0.6153 0.6152 0.6151
3725.000000 0.6150 0.6149 0.6148 0.6147 0.6146
3730.000000 0.6145 0.6145 0.6144 0.6143 0.6142
3735.000000 0.6141 0.6140 0.6139 0.6138 0.6138
3740.000000 0.6138 0.6138 0.6138 0.6138 0.6138
3745.000000 0.6138 0.6138 0.6138 0.6138 0.6138
3750.000000 0.6138 0.6138 0.6137 0.6136 0.6134
3755.000000 0.6133 0.6132 0.6130 0.6129 0.6127
3760.000000 0.6126 0.6124 0.6123 0.6121 0.6120
3765.000000 0.6119 0.6117 0.6116 0.6114 0.6113
3770.000000 0.6111 0.6110 0.6108 0.6106 0.6104
3775.000000 0.6102 0.6100 0.6098 0.6096 0.6094
3780.000000 0.6092 0.6090 0.6088 0.6087 0.6085
3785.000000 0.6083 0.6081 0.6079 0.6077 0.6075
3790.000000 0.6073 0.6071 0.6069 0.6067 0.6065
3795.000000 0.6063 0.6062 0.6060 0.6058 0.6056
3800.000000 0.6054 0.6053 0.6051 0.6049 0.6047
3805.000000 0.6045 0.6044 0.6042 0.6040 0.6038
3810.000000 0.6036 0.6035 0.6033 0.6031 0.6029
3815.000000 0.6027 0.6026 0.6024 0.6022 0.6020
3820.000000 0.6018 0.6016 0.6015 0.6013 0.6011
3825.000000 0.6009 0.6007 0.6006 0.6004 0.6002
3830.000000 0.6000 0.5998 0.5996 0.5995 0.5993
3835.000000 0.5991 0.5989 0.5987 0.5986 0.5984
3840.000000 0.5983 0.5982 0.5981 0.5980 0.5979
3845.000000 0.5978 0.5977 0.5976 0.5975 0.5974
3850.000000 0.5973 0.5972 0.5971 0.5970 0.5969
3855.000000 0.5968 0.5967 0.5966 0.5965 0.5965
3860.000000 0.5966 0.5966 0.5966 0.5967 0.5967
3865.000000 0.5967 0.5968 0.5968 0.5968 0.5968
3870.000000 0.5969 0.5969 0.5969 0.5970 0.5988
3875.000000 0.5970 0.5971 0.5973 0.5975 0.5976
3880.000000 0.5978 0.5979 0.5981 0.5982 0.5984
3885.000000 0.5985 0.5987 0.5989 0.5990 0.5992
3890.000000 0.5993 0.5994 0.5996 0.5997 0.5998
3895.000000 0.5999 0.6000 0.6001 0.6002 0.6003
3900.000000 0.6004
##END=
