##TITLE=POTASSIUM THIOCYANATE
$$ A.R.
##JCAMP-DX=4.24
##DATA TYPE=INFRARED SPECTRUM
##CLASS=COBLENTZ
##ORIGIN=MELLON INSTITUTE
##OWNER=COBLENTZ SOCIETY
Collection (C) 2018 copyright by the U.S. Secretary of Commerce
on behalf of the United States of America. All rights reserved.
##DATE=Not specified, most likely prior to 1970
##MOLFORM=K S C N
##SOURCE REFERENCE=COBLENTZ NO. 489
##$NIST ID=B6000489
##$NIST SOURCE=COBLENTZ
##$NIST IMAGE=cob489
##SPECTROMETER/DATA SYSTEM=Not specified, most likely a prism, grating, or hybrid spectrometer.
##STATE=SOLID (NUJOL MULL)
##PATH LENGTH=
$$SPECTRAL CONTAMINATION DUE TO OIL AROUND 2900, 1450, 1380 CM^-^1
##SAMPLING PROCEDURE=TRANSMISSION
##RESOLUTION=4
##DATA PROCESSING=DIGITIZED BY NIST FROM HARD COPY
##XUNITS=MICROMETERS
##YUNITS=TRANSMITTANCE
##XFACTOR=1.000000
##YFACTOR=1
##DELTAX=000.006837
##FIRSTX=2.016
##LASTX=15.9757
##FIRSTY=0.686
##MAXX=15.9757
##MINX=2.016
##MAXY=1.001
##MINY=0.396
##NPOINTS=2043
##XYDATA=(X++(Y..Y))
2.016000 0.6860 0.6860 0.6860 0.6860 0.6870
2.050199 0.6870 0.6870 0.6890 0.6890 0.6890
2.084000 0.6890 0.6910 0.6910 0.6910 0.6910
2.118199 0.6920 0.6920 0.6920 0.6920 0.6920
2.152000 0.6920 0.6940 0.6940 0.6960 0.6960
2.186199 0.6960 0.6980 0.6980 0.6980 0.6990
2.221000 0.6990 0.6980 0.6980 0.6990 0.7010
2.255199 0.7010 0.7030 0.7030 0.7060 0.7080
2.289000 0.7100 0.7100 0.7110 0.7110 0.7130
2.323199 0.7130 0.7130 0.7130 0.7130 0.7130
2.357000 0.7130 0.7130 0.7130 0.7130 0.7110
2.391199 0.7100 0.7100 0.7100 0.7100 0.7100
2.426000 0.7110 0.7130 0.7130 0.7150 0.7150
2.460199 0.7160 0.7160 0.7180 0.7180 0.7200
2.494000 0.7200 0.7200 0.7200 0.7220 0.7220
2.528199 0.7230 0.7230 0.7230 0.7270 0.7270
2.562000 0.7280 0.7320 0.7320 0.7340 0.7340
2.596199 0.7370 0.7390 0.7390 0.7400 0.7400
2.631000 0.7400 0.7390 0.7390 0.7370 0.7370
2.665199 0.7370 0.7370 0.7370 0.7370 0.7350
2.699000 0.7350 0.7340 0.7300 0.7270 0.7250
2.733199 0.7220 0.7180 0.7110 0.7080 0.6990
2.768000 0.6980 0.6920 0.6860 0.6800 0.6750
2.802199 0.6670 0.6580 0.6510 0.6480 0.6480
2.836000 0.6440 0.6430 0.6390 0.6380 0.6360
2.870199 0.6340 0.6340 0.6310 0.6290 0.6290
2.904000 0.6270 0.6260 0.6240 0.6240 0.6240
2.938199 0.6240 0.6240 0.6240 0.6240 0.6240
2.973000 0.6260 0.6260 0.6260 0.6270 0.6270
3.007199 0.6260 0.6260 0.6290 0.6310 0.6320
3.041000 0.6360 0.6380 0.6390 0.6390 0.6430
3.075199 0.6430 0.6440 0.6460 0.6480 0.6480
3.109000 0.6510 0.6560 0.6620 0.6630 0.6670
3.143199 0.6740 0.6820 0.6870 0.6910 0.6960
3.178000 0.6990 0.7040 0.7080 0.7130 0.7160
3.212199 0.7200 0.7250 0.7270 0.7280 0.7340
3.246000 0.7350 0.7370 0.7370 0.7350 0.7350
3.280199 0.7340 0.7320 0.7250 0.7200 0.7080
3.314000 0.6910 0.6670 0.6360 0.5950 0.5420
3.348199 0.4390 0.4180 0.4150 0.4090 0.3970
3.383000 0.3960 0.3960 0.3990 0.4250 0.4320
3.417199 0.4400 0.4490 0.4560 0.4560 0.4510
3.451000 0.4490 0.4470 0.4510 0.4590 0.4880
3.485199 0.5120 0.5350 0.6050 0.7130 0.7350
3.520000 0.7560 0.7700 0.7800 0.7920 0.8010
3.554199 0.8090 0.8130 0.8330 0.8400 0.8450
3.588000 0.8490 0.8500 0.8520 0.8570 0.8610
3.622199 0.8640 0.8670 0.8710 0.8710 0.8730
3.656000 0.8740 0.8740 0.8760 0.8780 0.8790
3.690199 0.8790 0.8810 0.8810 0.8830 0.8830
3.725000 0.8830 0.8830 0.8850 0.8850 0.8850
3.759199 0.8850 0.8860 0.8860 0.8860 0.8880
3.793000 0.8880 0.8880 0.8880 0.8900 0.8900
3.827199 0.8900 0.8900 0.8900 0.8900 0.8900
3.861000 0.8900 0.8900 0.8910 0.8910 0.8910
3.895199 0.8910 0.8910 0.8910 0.8910 0.8930
3.930000 0.8930 0.8930 0.8930 0.8930 0.8930
3.964199 0.8930 0.8930 0.8950 0.8950 0.8950
3.998000 0.8950 0.8950 0.8950 0.8950 0.8970
4.032199 0.8970 0.8970 0.8970 0.8970 0.8970
4.067000 0.8970 0.8970 0.8970 0.8980 0.8980
4.101199 0.8980 0.8980 0.8980 0.8980 0.8980
4.135000 0.8980 0.8980 0.8980 0.8980 0.8980
4.169199 0.8980 0.8980 0.8980 0.8980 0.8980
4.203000 0.8970 0.8970 0.8970 0.8970 0.8970
4.237199 0.8970 0.8950 0.8950 0.8950 0.8950
4.272000 0.8950 0.8950 0.8950 0.8950 0.8950
4.306199 0.8950 0.8950 0.8950 0.8970 0.8970
4.340000 0.8980 0.8980 0.8980 0.9000 0.9000
4.374199 0.9000 0.9000 0.8980 0.8980 0.8980
4.408000 0.8980 0.8980 0.8980 0.8980 0.8980
4.442199 0.8980 0.8980 0.8980 0.8980 0.8980
4.477000 0.9000 0.9000 0.9000 0.9000 0.9000
4.511199 0.9000 0.9000 0.9000 0.9000 0.9000
4.545000 0.9020 0.9020 0.9020 0.9020 0.9020
4.579199 0.9030 0.9030 0.9050 0.9050 0.9070
4.613000 0.9070 0.9070 0.9070 0.9070 0.9070
4.647199 0.9070 0.9070 0.9070 0.9070 0.9070
4.682000 0.9050 0.9070 0.9070 0.9050 0.9050
4.716199 0.9030 0.9020 0.9000 0.8980 0.8930
4.750000 0.8880 0.8830 0.8730 0.8610 0.8470
4.784199 0.8330 0.8160 0.7990 0.7820 0.7630
4.819000 0.7440 0.7250 0.7060 0.6860 0.6670
4.853199 0.6480 0.6290 0.6100 0.5910 0.5740
4.887000 0.5540 0.5500 0.5480 0.5480 0.5480
4.921199 0.5480 0.5480 0.5480 0.5480 0.5480
4.955000 0.5480 0.5500 0.5520 0.5550 0.5570
4.989199 0.5620 0.5660 0.5690 0.5720 0.5740
5.024000 0.5740 0.5760 0.5790 0.5810 0.5830
5.058199 0.5900 0.5980 0.6000 0.6030 0.6050
5.092000 0.6140 0.6170 0.6200 0.6270 0.6360
5.126199 0.6430 0.6480 0.6510 0.6560 0.6620
5.160000 0.6670 0.6740 0.6790 0.6860 0.6890
5.194199 0.6940 0.6960 0.7010 0.7040 0.7060
5.229000 0.7080 0.7150 0.7160 0.7200 0.7220
5.263199 0.7230 0.7270 0.7300 0.7350 0.7390
5.297000 0.7400 0.7470 0.7490 0.7510 0.7530
5.331199 0.7540 0.7580 0.7610 0.7630 0.7630
5.365000 0.7660 0.7680 0.7680 0.7680 0.7700
5.399199 0.7700 0.7710 0.7710 0.7730 0.7730
5.434000 0.7750 0.7750 0.7770 0.7770 0.7780
5.468199 0.7780 0.7820 0.7820 0.7830 0.7850
5.502000 0.7850 0.7870 0.7870 0.7900 0.7920
5.536199 0.7940 0.7950 0.7970 0.7990 0.8010
5.571000 0.8020 0.8040 0.8040 0.8070 0.8090
5.605199 0.8090 0.8110 0.8130 0.8130 0.8140
5.639000 0.8160 0.8160 0.8180 0.8190 0.8190
5.673199 0.8210 0.8210 0.8230 0.8230 0.8250
5.707000 0.8250 0.8260 0.8280 0.8310 0.8350
5.741199 0.8350 0.8380 0.8400 0.8400 0.8400
5.776000 0.8420 0.8420 0.8430 0.8430 0.8430
5.810199 0.8450 0.8450 0.8450 0.8470 0.8470
5.844000 0.8470 0.8470 0.8470 0.8470 0.8470
5.878199 0.8470 0.8470 0.8470 0.8470 0.8470
5.912000 0.8470 0.8450 0.8450 0.8450 0.8430
5.946199 0.8420 0.8420 0.8400 0.8370 0.8350
5.981000 0.8330 0.8300 0.8260 0.8210 0.8160
6.015199 0.8140 0.8110 0.8040 0.8010 0.7990
6.049000 0.7970 0.7850 0.7800 0.7730 0.7610
6.083199 0.7560 0.7490 0.7460 0.7400 0.7320
6.117000 0.7300 0.7250 0.7220 0.7220 0.7220
6.151199 0.7230 0.7280 0.7370 0.7510 0.7580
6.186000 0.7610 0.7680 0.7850 0.7950 0.8020
6.220199 0.8070 0.8140 0.8230 0.8260 0.8300
6.254000 0.8330 0.8350 0.8370 0.8380 0.8430
6.288199 0.8450 0.8470 0.8490 0.8490 0.8500
6.323000 0.8500 0.8500 0.8520 0.8520 0.8540
6.357199 0.8540 0.8550 0.8550 0.8550 0.8570
6.391000 0.8570 0.8590 0.8590 0.8610 0.8620
6.425199 0.8640 0.8670 0.8690 0.8690 0.8710
6.459000 0.8710 0.8730 0.8730 0.8730 0.8730
6.493199 0.8730 0.8740 0.8740 0.8740 0.8740
6.528000 0.8740 0.8740 0.8760 0.8760 0.8780
6.562199 0.8780 0.8780 0.8790 0.8790 0.8790
6.596000 0.8810 0.8810 0.8810 0.8810 0.8810
6.630199 0.8810 0.8810 0.8810 0.8810 0.8810
6.664000 0.8810 0.8790 0.8790 0.8790 0.8780
6.698199 0.8740 0.8730 0.8730 0.8690 0.8660
6.733000 0.8570 0.8490 0.8380 0.8280 0.8160
6.767199 0.8010 0.7830 0.7610 0.7350 0.7040
6.801000 0.6990 0.6980 0.6960 0.6960 0.6960
6.835199 0.6960 0.6980 0.7010 0.7010 0.7030
6.869000 0.7100 0.7180 0.7280 0.7390 0.7470
6.903199 0.7540 0.7630 0.7700 0.7770 0.7850
6.938000 0.7940 0.8020 0.8070 0.8180 0.8190
6.972199 0.8230 0.8260 0.8330 0.8380 0.8430
7.006000 0.8500 0.8550 0.8610 0.8660 0.8710
7.040199 0.8730 0.8760 0.8780 0.8790 0.8830
7.075000 0.8830 0.8860 0.8860 0.8850 0.8850
7.109199 0.8830 0.8830 0.8830 0.8810 0.8740
7.143000 0.8730 0.8690 0.8660 0.8620 0.8540
7.177199 0.8450 0.8370 0.8300 0.8250 0.8180
7.211000 0.8140 0.8060 0.7990 0.7990 0.8010
7.245199 0.8010 0.8040 0.8110 0.8130 0.8140
7.280000 0.8180 0.8250 0.8310 0.8380 0.8430
7.314199 0.8490 0.8540 0.8590 0.8640 0.8690
7.348000 0.8710 0.8730 0.8760 0.8780 0.8810
7.382199 0.8830 0.8850 0.8850 0.8850 0.8860
7.416000 0.8860 0.8860 0.8860 0.8880 0.8880
7.450199 0.8900 0.8900 0.8900 0.8900 0.8910
7.485000 0.8910 0.8910 0.8930 0.8930 0.8930
7.519199 0.8930 0.8950 0.8950 0.8950 0.8950
7.553000 0.8970 0.8970 0.8970 0.8970 0.8970
7.587199 0.8970 0.8980 0.8980 0.8980 0.8980
7.622000 0.8980 0.8980 0.8980 0.8980 0.8980
7.656199 0.8980 0.8980 0.8980 0.8980 0.8980
7.690000 0.8980 0.8980 0.8980 0.8980 0.8980
7.724199 0.8980 0.8980 0.8980 0.8980 0.9000
7.758000 0.9000 0.9000 0.9000 0.9000 0.9000
7.792199 0.9000 0.9000 0.9020 0.9020 0.9020
7.827000 0.9020 0.9020 0.9020 0.9020 0.9020
7.861199 0.9020 0.9030 0.9020 0.9030 0.9030
7.895000 0.9030 0.9030 0.9030 0.9030 0.9030
7.929199 0.9030 0.9030 0.9030 0.9030 0.9030
7.963000 0.9030 0.9030 0.9030 0.9030 0.9030
7.997199 0.9030 0.9030 0.9030 0.9050 0.9050
8.032000 0.9050 0.9050 0.9070 0.9070 0.9070
8.066199 0.9070 0.9070 0.9070 0.9090 0.9100
8.100000 0.9100 0.9120 0.9120 0.9140 0.9140
8.134199 0.9120 0.9140 0.9140 0.9140 0.9140
8.168000 0.9150 0.9150 0.9150 0.9150 0.9150
8.202199 0.9150 0.9150 0.9150 0.9150 0.9150
8.237000 0.9150 0.9150 0.9150 0.9150 0.9150
8.271199 0.9150 0.9150 0.9170 0.9170 0.9170
8.305000 0.9170 0.9170 0.9170 0.9170 0.9190
8.339199 0.9190 0.9190 0.9190 0.9190 0.9190
8.374000 0.9190 0.9190 0.9190 0.9210 0.9210
8.408199 0.9210 0.9210 0.9210 0.9210 0.9210
8.442000 0.9210 0.9210 0.9210 0.9220 0.9220
8.476199 0.9220 0.9220 0.9220 0.9220 0.9220
8.510000 0.9210 0.9210 0.9210 0.9220 0.9220
8.544199 0.9220 0.9220 0.9220 0.9220 0.9220
8.579000 0.9220 0.9220 0.9220 0.9220 0.9220
8.613199 0.9220 0.9220 0.9220 0.9220 0.9220
8.647000 0.9220 0.9220 0.9220 0.9210 0.9210
8.681199 0.9210 0.9210 0.9210 0.9210 0.9210
8.715000 0.9210 0.9210 0.9210 0.9210 0.9210
8.749199 0.9210 0.9220 0.9220 0.9220 0.9220
8.784000 0.9220 0.9220 0.9220 0.9220 0.9220
8.818199 0.9220 0.9220 0.9220 0.9260 0.9260
8.852000 0.9260 0.9260 0.9260 0.9260 0.9270
8.886199 0.9270 0.9270 0.9270 0.9270 0.9270
8.920000 0.9270 0.9270 0.9270 0.9270 0.9270
8.954199 0.9270 0.9270 0.9270 0.9270 0.9270
8.989000 0.9270 0.9270 0.9270 0.9270 0.9270
9.023199 0.9270 0.9270 0.9270 0.9270 0.9270
9.057000 0.9270 0.9270 0.9270 0.9270 0.9270
9.091199 0.9290 0.9290 0.9290 0.9290 0.9310
9.126000 0.9310 0.9310 0.9310 0.9310 0.9310
9.160199 0.9330 0.9330 0.9330 0.9330 0.9330
9.194000 0.9340 0.9340 0.9340 0.9340 0.9340
9.228199 0.9340 0.9340 0.9360 0.9360 0.9360
9.262000 0.9360 0.9360 0.9360 0.9360 0.9380
9.296199 0.9380 0.9380 0.9380 0.9380 0.9380
9.331000 0.9380 0.9380 0.9380 0.9380 0.9380
9.365199 0.9380 0.9380 0.9380 0.9380 0.9380
9.399000 0.9380 0.9380 0.9380 0.9380 0.9380
9.433199 0.9380 0.9380 0.9380 0.9380 0.9390
9.467000 0.9390 0.9390 0.9390 0.9390 0.9410
9.501199 0.9410 0.9410 0.9410 0.9410 0.9410
9.536000 0.9410 0.9430 0.9430 0.9430 0.9430
9.570199 0.9430 0.9430 0.9430 0.9450 0.9450
9.604000 0.9450 0.9450 0.9450 0.9450 0.9450
9.638199 0.9450 0.9460 0.9460 0.9460 0.9460
9.672000 0.9460 0.9460 0.9460 0.9460 0.9460
9.706199 0.9460 0.9460 0.9460 0.9460 0.9460
9.741000 0.9460 0.9480 0.9480 0.9480 0.9480
9.775199 0.9480 0.9480 0.9480 0.9480 0.9480
9.809000 0.9480 0.9480 0.9480 0.9480 0.9480
9.843199 0.9480 0.9480 0.9480 0.9500 0.9500
9.878000 0.9500 0.9480 0.9480 0.9480 0.9480
9.912199 0.9480 0.9480 0.9500 0.9500 0.9500
9.946000 0.9500 0.9500 0.9500 0.9500 0.9500
9.980199 0.9500 0.9500 0.9500 0.9500 0.9510
10.014000 0.9530 0.9530 0.9550 0.9550 0.9550
10.048199 0.9550 0.9550 0.9570 0.9570 0.9580
10.083000 0.9580 0.9600 0.9600 0.9600 0.9600
10.117199 0.9600 0.9600 0.9600 0.9600 0.9600
10.151000 0.9600 0.9600 0.9600 0.9580 0.9580
10.185199 0.9580 0.9580 0.9570 0.9570 0.9570
10.219000 0.9550 0.9550 0.9550 0.9530 0.9510
10.253199 0.9510 0.9480 0.9430 0.9410 0.9390
10.288000 0.9360 0.9360 0.9340 0.9340 0.9330
10.322199 0.9330 0.9330 0.9330 0.9330 0.9330
10.356000 0.9330 0.9330 0.9330 0.9330 0.9330
10.390199 0.9330 0.9330 0.9330 0.9330 0.9330
10.424000 0.9330 0.9330 0.9330 0.9330 0.9330
10.458199 0.9330 0.9330 0.9330 0.9310 0.9310
10.493000 0.9290 0.9290 0.9290 0.9270 0.9270
10.527199 0.9260 0.9260 0.9260 0.9260 0.9260
10.561000 0.9260 0.9260 0.9260 0.9260 0.9270
10.595199 0.9270 0.9290 0.9290 0.9310 0.9310
10.630000 0.9310 0.9330 0.9330 0.9330 0.9330
10.664199 0.9330 0.9330 0.9330 0.9330 0.9330
10.698000 0.9330 0.9330 0.9330 0.9330 0.9330
10.732199 0.9330 0.9330 0.9330 0.9340 0.9340
10.766000 0.9340 0.9340 0.9340 0.9340 0.9360
10.800199 0.9360 0.9360 0.9380 0.9380 0.9390
10.835000 0.9390 0.9390 0.9410 0.9410 0.9410
10.869199 0.9430 0.9450 0.9450 0.9460 0.9460
10.903000 0.9480 0.9480 0.9500 0.9500 0.9500
10.937199 0.9510 0.9510 0.9510 0.9510 0.9530
10.971000 0.9530 0.9530 0.9530 0.9550 0.9550
11.005199 0.9550 0.9550 0.9570 0.9570 0.9570
11.040000 0.9570 0.9570 0.9570 0.9580 0.9580
11.074199 0.9580 0.9600 0.9600 0.9600 0.9600
11.108000 0.9600 0.9620 0.9620 0.9620 0.9620
11.142199 0.9620 0.9630 0.9650 0.9650 0.9670
11.177000 0.9670 0.9670 0.9690 0.9690 0.9690
11.211199 0.9690 0.9700 0.9700 0.9700 0.9700
11.245000 0.9700 0.9700 0.9700 0.9700 0.9700
11.279199 0.9700 0.9700 0.9720 0.9720 0.9720
11.313000 0.9720 0.9720 0.9720 0.9720 0.9740
11.347199 0.9740 0.9740 0.9740 0.9740 0.9740
11.382000 0.9740 0.9740 0.9740 0.9740 0.9740
11.416199 0.9740 0.9740 0.9740 0.9740 0.9740
11.450000 0.9740 0.9740 0.9740 0.9740 0.9740
11.484199 0.9740 0.9740 0.9740 0.9740 0.9740
11.518000 0.9740 0.9740 0.9740 0.9750 0.9750
11.552199 0.9750 0.9750 0.9770 0.9770 0.9770
11.587000 0.9770 0.9770 0.9770 0.9770 0.9770
11.621199 0.9770 0.9770 0.9770 0.9790 0.9790
11.655000 0.9790 0.9790 0.9790 0.9810 0.9810
11.689199 0.9810 0.9820 0.9820 0.9820 0.9820
11.723000 0.9820 0.9840 0.9840 0.9860 0.9860
11.757199 0.9860 0.9870 0.9870 0.9870 0.9870
11.792000 0.9890 0.9890 0.9890 0.9890 0.9890
11.826199 0.9890 0.9890 0.9890 0.9890 0.9890
11.860000 0.9890 0.9890 0.9890 0.9890 0.9890
11.894199 0.9890 0.9890 0.9890 0.9890 0.9890
11.929000 0.9890 0.9890 0.9910 0.9910 0.9910
11.963199 0.9910 0.9930 0.9930 0.9930 0.9930
11.997000 0.9930 0.9930 0.9940 0.9940 0.9940
12.031199 0.9940 0.9940 0.9940 0.9960 0.9960
12.065000 0.9960 0.9960 0.9960 0.9960 0.9960
12.099199 0.9980 0.9980 0.9980 0.9980 0.9980
12.134000 0.9980 0.9980 0.9980 1.0000 1.0000
12.168199 1.0000 1.0000 1.0000 1.0000 1.0000
12.202000 1.0000 1.0000 1.0000 1.0000 1.0010
12.236199 1.0010 1.0010 1.0010 1.0010 1.0010
12.270000 1.0010 1.0010 1.0010 1.0010 1.0010
12.304199 1.0010 1.0010 1.0010 1.0010 1.0010
12.339000 1.0010 1.0010 1.0010 1.0010 1.0010
12.373199 1.0010 1.0010 1.0010 1.0010 1.0010
12.407000 1.0010 1.0010 1.0010 1.0010 1.0010
12.441199 1.0010 1.0010 1.0010 1.0010 1.0010
12.475000 1.0010 1.0010 1.0010 1.0010 1.0010
12.509199 1.0010 1.0010 1.0010 1.0010 1.0010
12.544000 1.0010 1.0010 1.0010 1.0010 1.0010
12.578199 1.0010 1.0010 1.0010 1.0010 1.0010
12.612000 1.0010 1.0010 1.0010 1.0010 1.0000
12.646199 1.0000 1.0000 1.0000 1.0000 1.0000
12.681000 0.9980 0.9980 0.9980 0.9980 0.9980
12.715199 0.9980 0.9960 0.9960 0.9940 0.9940
12.749000 0.9940 0.9930 0.9930 0.9930 0.9910
12.783199 0.9910 0.9890 0.9890 0.9870 0.9860
12.817000 0.9860 0.9840 0.9840 0.9820 0.9820
12.851199 0.9810 0.9810 0.9810 0.9790 0.9790
12.886000 0.9790 0.9770 0.9770 0.9770 0.9770
12.920199 0.9770 0.9750 0.9740 0.9740 0.9740
12.954000 0.9720 0.9720 0.9700 0.9700 0.9700
12.988199 0.9690 0.9670 0.9630 0.9620 0.9600
13.022000 0.9600 0.9600 0.9600 0.9580 0.9580
13.056199 0.9580 0.9580 0.9580 0.9580 0.9580
13.091000 0.9580 0.9570 0.9570 0.9570 0.9570
13.125199 0.9550 0.9550 0.9530 0.9530 0.9510
13.159000 0.9510 0.9500 0.9500 0.9480 0.9460
13.193199 0.9460 0.9460 0.9430 0.9410 0.9380
13.227000 0.9330 0.9290 0.9210 0.9120 0.9030
13.261199 0.8970 0.8910 0.8830 0.8710 0.8610
13.296000 0.8430 0.8350 0.8250 0.8210 0.8160
13.330199 0.8140 0.8070 0.8040 0.8010 0.7990
13.364000 0.7990 0.7970 0.7970 0.7970 0.7950
13.398199 0.7950 0.7950 0.7950 0.7990 0.7990
13.433000 0.8010 0.8020 0.8040 0.8060 0.8060
13.467199 0.8090 0.8130 0.8140 0.8180 0.8190
13.501000 0.8210 0.8210 0.8250 0.8260 0.8280
13.535199 0.8310 0.8350 0.8370 0.8420 0.8420
13.569000 0.8430 0.8450 0.8450 0.8470 0.8470
13.603199 0.8490 0.8490 0.8490 0.8500 0.8500
13.638000 0.8500 0.8500 0.8500 0.8520 0.8520
13.672199 0.8520 0.8520 0.8520 0.8520 0.8520
13.706000 0.8520 0.8520 0.8520 0.8520 0.8520
13.740199 0.8520 0.8520 0.8520 0.8520 0.8520
13.774000 0.8520 0.8500 0.8500 0.8500 0.8500
13.808199 0.8500 0.8500 0.8500 0.8500 0.8500
13.843000 0.8500 0.8500 0.8500 0.8500 0.8500
13.877199 0.8500 0.8500 0.8500 0.8500 0.8490
13.911000 0.8490 0.8490 0.8490 0.8490 0.8470
13.945199 0.8470 0.8470 0.8470 0.8470 0.8450
13.979000 0.8450 0.8450 0.8450 0.8430 0.8430
14.013199 0.8420 0.8400 0.8400 0.8400 0.8380
14.048000 0.8380 0.8380 0.8370 0.8370 0.8370
14.082199 0.8350 0.8350 0.8330 0.8330 0.8310
14.116000 0.8310 0.8300 0.8300 0.8280 0.8280
14.150199 0.8260 0.8260 0.8250 0.8250 0.8250
14.185000 0.8230 0.8210 0.8210 0.8190 0.8180
14.219199 0.8180 0.8160 0.8140 0.8140 0.8130
14.253000 0.8110 0.8070 0.8070 0.8070 0.8060
14.287199 0.8040 0.8040 0.8020 0.8020 0.8010
14.321000 0.8010 0.7970 0.7970 0.7950 0.7940
14.355199 0.7940 0.7920 0.7920 0.7900 0.7870
14.390000 0.7870 0.7870 0.7850 0.7850 0.7830
14.424199 0.7830 0.7830 0.7820 0.7820 0.7800
14.458000 0.7800 0.7780 0.7780 0.7780 0.7770
14.492199 0.7770 0.7750 0.7750 0.7750 0.7730
14.526000 0.7730 0.7710 0.7710 0.7700 0.7700
14.560199 0.7680 0.7680 0.7660 0.7650 0.7650
14.595000 0.7630 0.7630 0.7610 0.7590 0.7560
14.629199 0.7560 0.7540 0.7510 0.7510 0.7490
14.663000 0.7490 0.7460 0.7460 0.7420 0.7420
14.697199 0.7420 0.7420 0.7420 0.7400 0.7400
14.732000 0.7400 0.7400 0.7390 0.7390 0.7390
14.766199 0.7390 0.7370 0.7370 0.7370 0.7370
14.800000 0.7370 0.7350 0.7350 0.7340 0.7340
14.834199 0.7320 0.7320 0.7300 0.7300 0.7300
14.868000 0.7280 0.7280 0.7270 0.7270 0.7250
14.902199 0.7250 0.7250 0.7230 0.7230 0.7220
14.937000 0.7220 0.7200 0.7200 0.7180 0.7160
14.971199 0.7160 0.7160 0.7150 0.7150 0.7150
15.005000 0.7130 0.7130 0.7130 0.7110 0.7110
15.039199 0.7110 0.7100 0.7100 0.7080 0.7080
15.073000 0.7060 0.7060 0.7040 0.7040 0.7030
15.107199 0.7030 0.7030 0.7010 0.7010 0.7010
15.142000 0.6990 0.6990 0.6990 0.6980 0.6980
15.176199 0.6960 0.6960 0.6940 0.6940 0.6920
15.210000 0.6920 0.6910 0.6890 0.6890 0.6890
15.244199 0.6870 0.6870 0.6870 0.6860 0.6860
15.278000 0.6860 0.6840 0.6840 0.6840 0.6820
15.312199 0.6820 0.6820 0.6800 0.6800 0.6800
15.347000 0.6790 0.6790 0.6770 0.6770 0.6770
15.381199 0.6750 0.6740 0.6740 0.6720 0.6720
15.415000 0.6720 0.6700 0.6700 0.6700 0.6700
15.449199 0.6700 0.6700 0.6680 0.6680 0.6680
15.484000 0.6680 0.6670 0.6670 0.6670 0.6650
15.518199 0.6650 0.6650 0.6650 0.6650 0.6650
15.552000 0.6650 0.6650 0.6650 0.6650 0.6650
15.586199 0.6650 0.6630 0.6630 0.6630 0.6620
15.620000 0.6620 0.6620 0.6600 0.6600 0.6600
15.654199 0.6600 0.6600 0.6600 0.6600 0.6600
15.689000 0.6600 0.6600 0.6600 0.6600 0.6600
15.723199 0.6600 0.6600 0.6600 0.6600 0.6600
15.757000 0.6580 0.6580 0.6580 0.6580 0.6580
15.791199 0.6580 0.6580 0.6580 0.6580 0.6580
15.825000 0.6600 0.6600 0.6620 0.6620 0.6630
15.859199 0.6630 0.6630 0.6630 0.6630 0.6630
15.894000 0.6630 0.6650 0.6630 0.6630 0.6620
15.928199 0.6620 0.6620 0.6620 0.6620 0.6630
15.962000 0.6630 0.6650 0.6650
##END=
