##TITLE=HYPOXANTHINE-7-ETHANOL, 2,3-DIHYDRO-3-(DIPHENYLMETHYL)-, ACETATE
##JCAMP-DX=4.24
##DATA TYPE=INFRARED SPECTRUM
##CLASS=COBLENTZ III
##ORIGIN=SOUTHERN RESEARCH INST.
##OWNER=COBLENTZ SOCIETY
Collection (C) 2018 copyright by the U.S. Secretary of Commerce
on behalf of the United States of America. All rights reserved.
##DATE=1964/07/02
##MOLFORM=C22 H22 N4 O3
##SOURCE REFERENCE=COBLENTZ NO. 9933
##$NIST ID=B6009933
##$NIST SOURCE=COBLENTZ
##$NIST IMAGE=cob9933
##SPECTROMETER/DATA SYSTEM=PERKIN-ELMER 221 (GRATING)
##INSTRUMENT PARAMETERS=FILTER CHANGES AT 2490, 980 CM^-^1, GRATING FOR 4000-1428 CM^-^1, NaCl PRISM FOR 1428-650 CM^-^1
##STATE=SOLID (1 mg / 650 mg KBr DISC)
##PATH LENGTH=
$$ SPECTRAL CONTAMINATION DUE TO H2O AROUND 3430 CM^-^1
$$ PURITY - ANALYTICAL
##SAMPLING PROCEDURE=TRANSMISSION
##RESOLUTION=4
##DATA PROCESSING=DIGITIZED BY NIST FROM HARD COPY
##XUNITS=1/CM
##YUNITS=TRANSMITTANCE
##XFACTOR=1.000000
##YFACTOR=1
##DELTAX=001.598677
##FIRSTX=608.875
##LASTX=4009.27
##FIRSTY=0.816
##MAXX=4009.27
##MINX=608.875
##MAXY=0.901
##MINY=0.092
##NPOINTS=2128
##XYDATA=(X++(Y..Y))
608.875000 0.8160 0.8160 0.8160 0.8160 0.8160
616.872144 0.8160 0.8160 0.8160 0.8160 0.8160
624.862000 0.8150 0.8140 0.8120 0.8080 0.8080
632.859144 0.8070 0.8020 0.7980 0.7950 0.7920
640.849000 0.7890 0.7900 0.8010 0.8100 0.8170
648.846144 0.8230 0.8300 0.8380 0.8480 0.8490
656.836000 0.8490 0.8490 0.8480 0.8460 0.8460
664.833144 0.8420 0.8380 0.8350 0.8320 0.8300
672.823000 0.8270 0.8240 0.8220 0.8190 0.8180
680.820144 0.8150 0.8120 0.8100 0.8070 0.8030
688.809000 0.7990 0.7970 0.7940 0.7880 0.7660
696.806144 0.7010 0.6060 0.5580 0.5090 0.5070
704.796000 0.5080 0.6040 0.6510 0.6990 0.7420
712.793144 0.7600 0.7940 0.8200 0.8220 0.8230
720.783000 0.8150 0.8050 0.7970 0.7860 0.7540
728.780144 0.7380 0.7200 0.7040 0.7020 0.7010
736.770000 0.7000 0.6570 0.6540 0.6360 0.6360
744.767144 0.6820 0.6990 0.7210 0.8100 0.8100
752.756000 0.8070 0.8010 0.7910 0.7830 0.7740
760.753144 0.7650 0.7570 0.7480 0.7480 0.7780
768.743000 0.8070 0.7930 0.7710 0.7490 0.7270
776.740144 0.7260 0.7050 0.7050 0.7250 0.7570
784.730000 0.7680 0.7860 0.8020 0.8140 0.8240
792.727144 0.8600 0.8600 0.8610 0.8620 0.8630
800.717000 0.8630 0.8630 0.8620 0.8610 0.8600
808.714144 0.8580 0.8560 0.8540 0.8520 0.8010
816.703000 0.8000 0.8010 0.8110 0.8210 0.8310
824.700144 0.8410 0.8410 0.8410 0.8390 0.8370
832.690000 0.8360 0.8370 0.8410 0.8450 0.8510
840.687144 0.8560 0.8620 0.8660 0.8680 0.8670
848.677000 0.8690 0.8700 0.8690 0.8680 0.8660
856.674144 0.8630 0.8600 0.8560 0.8550 0.8540
864.664000 0.8550 0.8560 0.8560 0.8570 0.8570
872.661144 0.8560 0.8560 0.8550 0.8530 0.8510
880.651000 0.8380 0.8350 0.8350 0.8440 0.8590
888.648144 0.8630 0.8680 0.8710 0.8750 0.8730
896.637000 0.8690 0.8620 0.8520 0.8420 0.8410
904.634144 0.8410 0.8520 0.8560 0.8580 0.8590
912.624000 0.8620 0.8630 0.8640 0.8650 0.8650
920.621144 0.8640 0.8630 0.8630 0.8630 0.8580
928.611000 0.8520 0.8480 0.8460 0.8470 0.8550
936.608144 0.8590 0.8630 0.8670 0.8710 0.8730
944.598000 0.8750 0.8750 0.8750 0.8750 0.8750
952.595144 0.8750 0.8730 0.8730 0.8720 0.8700
960.584000 0.8640 0.8560 0.8500 0.8470 0.8210
968.581144 0.8070 0.8070 0.8080 0.8160 0.8240
976.571000 0.8290 0.8330 0.8340 0.8370 0.8380
984.568144 0.8400 0.8410 0.8410 0.8410 0.8410
992.558000 0.8410 0.8410 0.8410 0.8410 0.8410
1000.555144 0.8410 0.8400 0.8400 0.8380 0.8380
1008.545000 0.8370 0.8370 0.8360 0.8360 0.8350
1016.542144 0.8340 0.8340 0.8290 0.8270 0.8190
1024.531000 0.8120 0.8040 0.7970 0.7860 0.7680
1032.528144 0.7610 0.7530 0.7510 0.7500 0.7480
1040.518000 0.7430 0.7380 0.7350 0.6540 0.5830
1048.515144 0.5800 0.5790 0.5800 0.5900 0.6000
1056.505000 0.6100 0.6510 0.6760 0.7030 0.7270
1064.502144 0.7440 0.7620 0.7790 0.7810 0.7790
1072.492000 0.7740 0.7650 0.7440 0.7240 0.7040
1080.489144 0.7040 0.7200 0.7580 0.7830 0.7960
1088.479000 0.8020 0.8060 0.8120 0.8220 0.8310
1096.476144 0.8410 0.8400 0.8410 0.8400 0.8380
1104.465000 0.8370 0.8350 0.8340 0.8300 0.8270
1112.462144 0.8230 0.8190 0.8170 0.8140 0.8120
1120.452000 0.8110 0.8090 0.8080 0.8080 0.8080
1128.449144 0.8090 0.8100 0.8110 0.8110 0.8080
1136.439000 0.8050 0.7980 0.7930 0.7740 0.7570
1144.436144 0.7560 0.7560 0.7470 0.7420 0.7390
1152.426000 0.7360 0.7310 0.7300 0.7310 0.7340
1160.423144 0.7360 0.7380 0.7390 0.7460 0.7530
1168.412000 0.7540 0.7540 0.7520 0.7450 0.7240
1176.409144 0.7090 0.7080 0.7080 0.7070 0.7080
1184.399000 0.7060 0.7030 0.6980 0.6940 0.6900
1192.396144 0.6860 0.6810 0.6620 0.6580 0.6560
1200.386000 0.6510 0.6350 0.6110 0.5840 0.5520
1208.383144 0.5360 0.5180 0.4810 0.4040 0.3240
1216.373000 0.3230 0.3230 0.3440 0.3640 0.3760
1224.370144 0.4160 0.4560 0.4780 0.5000 0.5110
1232.359000 0.5320 0.5330 0.5310 0.4330 0.4330
1240.356144 0.4420 0.4700 0.4960 0.5210 0.5650
1248.346000 0.5860 0.6050 0.6230 0.6400 0.6570
1256.343144 0.6730 0.6880 0.7020 0.7160 0.7300
1264.333000 0.7390 0.7400 0.7410 0.7410 0.7410
1272.330144 0.7400 0.7380 0.7350 0.7320 0.7310
1280.320000 0.7290 0.7250 0.7220 0.7180 0.7150
1288.317144 0.7110 0.7090 0.7090 0.7110 0.7200
1296.307000 0.7300 0.7350 0.7530 0.7740 0.7910
1304.304144 0.8020 0.8080 0.8080 0.8070 0.8050
1312.293000 0.8010 0.7980 0.7940 0.7900 0.7860
1320.290144 0.7840 0.7820 0.7690 0.7630 0.7580
1328.280000 0.7530 0.7420 0.7250 0.6960 0.6680
1336.277144 0.6650 0.6710 0.6770 0.6910 0.7040
1344.267000 0.7010 0.6940 0.6820 0.6660 0.6510
1352.264144 0.6500 0.6480 0.6470 0.6450 0.6450
1360.254000 0.6440 0.6420 0.6300 0.6220 0.6160
1368.251144 0.6050 0.5860 0.5540 0.5440 0.5330
1376.240000 0.5320 0.5620 0.5800 0.6100 0.6400
1384.237144 0.6870 0.6970 0.6980 0.6980 0.6960
1392.227000 0.6940 0.6940 0.6930 0.6930 0.6940
1400.224144 0.6980 0.7030 0.7270 0.7860 0.8190
1408.214000 0.8220 0.8200 0.8160 0.7610 0.7460
1416.211144 0.7250 0.7240 0.7200 0.7160 0.7100
1424.201000 0.7030 0.6950 0.6870 0.6780 0.6690
1432.198144 0.6610 0.6520 0.6440 0.6370 0.6320
1440.187000 0.6270 0.6230 0.6130 0.5720 0.5290
1448.184144 0.5280 0.5290 0.5620 0.5750 0.5790
1456.174000 0.5840 0.5870 0.5960 0.6050 0.6130
1464.171144 0.6260 0.6370 0.6490 0.6500 0.6500
1472.161000 0.6390 0.6270 0.6220 0.6210 0.6240
1480.158144 0.6470 0.6520 0.6670 0.6930 0.6920
1488.148000 0.6910 0.6900 0.6690 0.6470 0.6270
1496.145144 0.6060 0.6060 0.6530 0.7070 0.7520
1504.135000 0.7650 0.7770 0.8100 0.8080 0.7970
1512.132144 0.7860 0.7720 0.7440 0.7190 0.6920
1520.121000 0.6650 0.6390 0.6120 0.5850 0.5580
1528.118144 0.5440 0.5290 0.5280 0.5590 0.5950
1536.108000 0.6320 0.6510 0.6540 0.6540 0.6770
1544.105144 0.7240 0.7240 0.7310 0.7320 0.7350
1552.095000 0.7280 0.7240 0.7030 0.6840 0.6590
1560.092144 0.5710 0.5320 0.4920 0.4550 0.4220
1568.082000 0.3240 0.3230 0.3230 0.3450 0.3650
1576.079144 0.3860 0.4070 0.4280 0.4480 0.4700
1584.068000 0.5110 0.5120 0.6130 0.6140 0.6320
1592.065144 0.6500 0.6680 0.6850 0.7030 0.7190
1600.055000 0.7370 0.7380 0.7380 0.7380 0.7390
1608.052144 0.7400 0.7400 0.7410 0.7420 0.7420
1616.042000 0.7430 0.7430 0.7430 0.7430 0.7420
1624.039144 0.7390 0.7190 0.7010 0.6800 0.6570
1632.029000 0.6330 0.6060 0.5970 0.5850 0.5600
1640.026144 0.5350 0.4940 0.4550 0.4150 0.4080
1648.015000 0.3890 0.3460 0.2790 0.1980 0.1410
1656.012144 0.1170 0.0940 0.0920 0.1270 0.1600
1664.002000 0.1940 0.2270 0.2610 0.2940 0.3110
1671.999144 0.3480 0.3810 0.4120 0.4410 0.4680
1679.989000 0.4940 0.5180 0.5640 0.5850 0.6070
1687.986144 0.6280 0.6500 0.6720 0.6950 0.7190
1695.976000 0.7360 0.7380 0.7400 0.7500 0.7650
1703.973144 0.7680 0.7690 0.7700 0.7720 0.7730
1711.963000 0.7830 0.7920 0.7930 0.7970 0.7990
1719.960144 0.7990 0.7970 0.7960 0.7900 0.7870
1727.949000 0.7740 0.7520 0.7130 0.6900 0.6650
1735.946144 0.6400 0.6160 0.5640 0.5110 0.3870
1743.936000 0.3380 0.2900 0.2900 0.3310 0.3720
1751.933144 0.4140 0.4390 0.5610 0.6090 0.6500
1759.923000 0.6840 0.7130 0.7370 0.7570 0.7750
1767.920144 0.7900 0.8040 0.8210 0.8230 0.8290
1775.910000 0.8370 0.8480 0.8520 0.8560 0.8600
1783.907144 0.8630 0.8660 0.8680 0.8710 0.8720
1791.896000 0.8740 0.8750 0.8760 0.8770 0.8780
1799.893144 0.8780 0.8790 0.8800 0.8810 0.8820
1807.883000 0.8830 0.8850 0.8860 0.8880 0.8900
1815.880144 0.8930 0.8930 0.8930 0.8950 0.8960
1823.870000 0.8970 0.8970 0.8980 0.8980 0.8980
1831.867144 0.8980 0.8980 0.8980 0.8980 0.8990
1839.857000 0.8990 0.8990 0.8990 0.8990 0.8990
1847.854144 0.9000 0.9000 0.9000 0.9000 0.9000
1855.843000 0.9000 0.9000 0.9000 0.9000 0.9000
1863.840144 0.9000 0.9000 0.9000 0.9010 0.9010
1871.830000 0.9010 0.9010 0.9010 0.9010 0.9010
1879.827144 0.9010 0.9010 0.9010 0.9010 0.9010
1887.817000 0.9010 0.9010 0.9010 0.9010 0.9010
1895.814144 0.9010 0.9010 0.9010 0.9010 0.9010
1903.804000 0.9010 0.9010 0.9010 0.9010 0.9010
1911.801144 0.9010 0.9000 0.9000 0.9000 0.9000
1919.791000 0.9000 0.9000 0.9000 0.9000 0.9000
1927.788144 0.9000 0.9000 0.9000 0.8990 0.8990
1935.777000 0.8990 0.8970 0.8970 0.8970 0.8970
1943.774144 0.8970 0.8960 0.8960 0.8960 0.8960
1951.764000 0.8960 0.8960 0.8960 0.8960 0.8960
1959.761144 0.8960 0.8960 0.8960 0.8960 0.8970
1967.751000 0.8970 0.8970 0.8970 0.8970 0.8970
1975.748144 0.8970 0.8970 0.8970 0.8970 0.8970
1983.738000 0.8970 0.8970 0.8970 0.8970 0.8970
1991.735144 0.8970 0.8970 0.8970 0.8960 0.8960
1999.724000 0.8960 0.8960 0.8950 0.8950 0.8950
2007.721144 0.8940 0.8940 0.8940 0.8940 0.8940
2015.711000 0.8940 0.8940 0.8930 0.8930 0.8930
2023.708144 0.8930 0.8930 0.8930 0.8930 0.8930
2031.698000 0.8930 0.8930 0.8930 0.8930 0.8930
2039.695144 0.8930 0.8930 0.8930 0.8930 0.8930
2047.685000 0.8930 0.8930 0.8930 0.8930 0.8930
2055.682144 0.8930 0.8930 0.8930 0.8930 0.8930
2063.671000 0.8930 0.8930 0.8930 0.8930 0.8930
2071.668144 0.8930 0.8930 0.8930 0.8930 0.8930
2079.658000 0.8930 0.8930 0.8930 0.8930 0.8930
2087.655144 0.8930 0.8930 0.8930 0.8930 0.8930
2095.645000 0.8930 0.8930 0.8930 0.8930 0.8930
2103.642144 0.8930 0.8930 0.8930 0.8920 0.8920
2111.632000 0.8920 0.8920 0.8920 0.8920 0.8920
2119.629144 0.8920 0.8920 0.8920 0.8920 0.8920
2127.618000 0.8920 0.8920 0.8920 0.8920 0.8920
2135.615144 0.8920 0.8920 0.8920 0.8920 0.8920
2143.605000 0.8920 0.8920 0.8920 0.8930 0.8930
2151.602144 0.8930 0.8930 0.8930 0.8930 0.8930
2159.592000 0.8930 0.8930 0.8930 0.8930 0.8930
2167.589144 0.8930 0.8930 0.8930 0.8930 0.8930
2175.579000 0.8930 0.8930 0.8930 0.8930 0.8930
2183.576144 0.8930 0.8930 0.8930 0.8930 0.8930
2191.566000 0.8930 0.8930 0.8930 0.8930 0.8930
2199.563144 0.8930 0.8930 0.8930 0.8930 0.8930
2207.552000 0.8930 0.8930 0.8930 0.8930 0.8930
2215.549144 0.8930 0.8930 0.8930 0.8920 0.8920
2223.539000 0.8920 0.8920 0.8920 0.8920 0.8920
2231.536144 0.8920 0.8910 0.8910 0.8910 0.8910
2239.526000 0.8910 0.8910 0.8910 0.8910 0.8910
2247.523144 0.8900 0.8900 0.8900 0.8900 0.8900
2255.513000 0.8900 0.8900 0.8900 0.8890 0.8890
2263.510144 0.8890 0.8890 0.8890 0.8890 0.8890
2271.500000 0.8890 0.8890 0.8890 0.8890 0.8890
2279.497144 0.8890 0.8890 0.8890 0.8890 0.8880
2287.486000 0.8880 0.8880 0.8880 0.8880 0.8880
2295.483144 0.8880 0.8880 0.8870 0.8870 0.8870
2303.473000 0.8870 0.8870 0.8870 0.8870 0.8870
2311.470144 0.8870 0.8860 0.8860 0.8860 0.8860
2319.460000 0.8860 0.8860 0.8860 0.8860 0.8860
2327.457144 0.8860 0.8860 0.8860 0.8850 0.8850
2335.447000 0.8850 0.8850 0.8850 0.8840 0.8840
2343.444144 0.8840 0.8840 0.8830 0.8830 0.8830
2351.433000 0.8830 0.8830 0.8820 0.8820 0.8820
2359.430144 0.8820 0.8820 0.8820 0.8820 0.8820
2367.420000 0.8810 0.8810 0.8810 0.8810 0.8810
2375.417144 0.8810 0.8810 0.8800 0.8800 0.8800
2383.407000 0.8800 0.8800 0.8800 0.8790 0.8790
2391.404144 0.8790 0.8790 0.8780 0.8780 0.8780
2399.394000 0.8780 0.8780 0.8780 0.8780 0.8780
2407.391144 0.8780 0.8780 0.8780 0.8780 0.8780
2415.380000 0.8780 0.8780 0.8780 0.8780 0.8770
2423.377144 0.8770 0.8770 0.8770 0.8770 0.8770
2431.367000 0.8770 0.8770 0.8760 0.8760 0.8760
2439.364144 0.8760 0.8760 0.8760 0.8760 0.8750
2447.354000 0.8750 0.8750 0.8750 0.8750 0.8750
2455.351144 0.8750 0.8750 0.8750 0.8750 0.8750
2463.341000 0.8750 0.8750 0.8750 0.8750 0.8750
2471.338144 0.8750 0.8750 0.8750 0.8740 0.8740
2479.327000 0.8740 0.8740 0.8740 0.8740 0.8740
2487.324144 0.8740 0.8740 0.8740 0.8730 0.8730
2495.314000 0.8730 0.8730 0.8730 0.8730 0.8730
2503.311144 0.8730 0.8730 0.8720 0.8720 0.8720
2511.301000 0.8720 0.8720 0.8720 0.8720 0.8720
2519.298144 0.8710 0.8710 0.8710 0.8710 0.8710
2527.288000 0.8710 0.8710 0.8710 0.8710 0.8700
2535.285144 0.8700 0.8700 0.8700 0.8700 0.8690
2543.274000 0.8690 0.8690 0.8690 0.8680 0.8680
2551.271144 0.8680 0.8680 0.8680 0.8670 0.8670
2559.261000 0.8670 0.8670 0.8670 0.8670 0.8670
2567.258144 0.8670 0.8670 0.8660 0.8660 0.8660
2575.248000 0.8660 0.8650 0.8650 0.8650 0.8650
2583.245144 0.8650 0.8640 0.8640 0.8640 0.8640
2591.235000 0.8630 0.8630 0.8630 0.8630 0.8630
2599.232144 0.8630 0.8630 0.8630 0.8630 0.8620
2607.222000 0.8620 0.8620 0.8620 0.8620 0.8620
2615.219144 0.8620 0.8620 0.8620 0.8610 0.8610
2623.208000 0.8610 0.8610 0.8610 0.8610 0.8610
2631.205144 0.8600 0.8610 0.8610 0.8610 0.8610
2639.195000 0.8600 0.8600 0.8600 0.8600 0.8600
2647.192144 0.8600 0.8600 0.8600 0.8590 0.8590
2655.182000 0.8580 0.8580 0.8580 0.8580 0.8570
2663.179144 0.8570 0.8570 0.8560 0.8560 0.8560
2671.169000 0.8560 0.8560 0.8550 0.8540 0.8530
2679.166144 0.8530 0.8530 0.8520 0.8520 0.8520
2687.156000 0.8510 0.8510 0.8510 0.8510 0.8510
2695.153144 0.8510 0.8500 0.8500 0.8500 0.8500
2703.142000 0.8500 0.8500 0.8490 0.8490 0.8490
2711.139144 0.8490 0.8490 0.8490 0.8490 0.8490
2719.129000 0.8490 0.8480 0.8480 0.8480 0.8480
2727.126144 0.8470 0.8470 0.8470 0.8460 0.8450
2735.116000 0.8440 0.8410 0.8390 0.8370 0.8350
2743.113144 0.8340 0.8330 0.8310 0.8300 0.8300
2751.103000 0.8300 0.8300 0.8290 0.8280 0.8270
2759.100144 0.8270 0.8270 0.8260 0.8250 0.8250
2767.089000 0.8240 0.8230 0.8230 0.8220 0.8190
2775.086144 0.8160 0.8130 0.8110 0.8080 0.8060
2783.076000 0.8040 0.8010 0.7990 0.7970 0.7940
2791.073144 0.7930 0.7900 0.7880 0.7850 0.7830
2799.063000 0.7790 0.7760 0.7740 0.7730 0.7740
2807.060144 0.7760 0.7770 0.7790 0.7820 0.7850
2815.050000 0.7880 0.7910 0.7940 0.7950 0.7990
2823.047144 0.8030 0.8040 0.8030 0.8010 0.8000
2831.036000 0.7980 0.7960 0.7940 0.7930 0.7910
2839.033144 0.7900 0.7890 0.7890 0.7880 0.7870
2847.023000 0.7860 0.7860 0.7860 0.7860 0.7860
2855.020144 0.7850 0.7850 0.7850 0.7850 0.7840
2863.010000 0.7840 0.7840 0.7840 0.7830 0.7830
2871.007144 0.7830 0.7820 0.7820 0.7810 0.7810
2878.997000 0.7800 0.7790 0.7790 0.7780 0.7770
2886.994144 0.7760 0.7750 0.7740 0.7720 0.7720
2894.983000 0.7710 0.7690 0.7680 0.7680 0.7660
2902.980144 0.7650 0.7640 0.7610 0.7600 0.7570
2910.970000 0.7530 0.7510 0.7480 0.7450 0.7430
2918.967144 0.7430 0.7440 0.7470 0.7490 0.7500
2926.957000 0.7520 0.7530 0.7550 0.7570 0.7580
2934.954144 0.7580 0.7610 0.7620 0.7640 0.7650
2942.944000 0.7650 0.7680 0.7680 0.7680 0.7680
2950.941144 0.7670 0.7670 0.7660 0.7650 0.7650
2958.930000 0.7640 0.7620 0.7610 0.7590 0.7570
2966.927144 0.7560 0.7540 0.7520 0.7510 0.7530
2974.917000 0.7560 0.7610 0.7640 0.7650 0.7650
2982.914144 0.7640 0.7640 0.7640 0.7630 0.7620
2990.904000 0.7610 0.7610 0.7610 0.7600 0.7590
2998.901144 0.7590 0.7580 0.7570 0.7560 0.7550
3006.891000 0.7530 0.7530 0.7520 0.7510 0.7500
3014.888144 0.7490 0.7480 0.7470 0.7460 0.7460
3022.878000 0.7380 0.7310 0.7270 0.7200 0.7160
3030.875144 0.7160 0.7140 0.7140 0.7140 0.7130
3038.864000 0.7130 0.7120 0.7120 0.7110 0.7100
3046.861144 0.7050 0.6980 0.6910 0.6870 0.6860
3054.851000 0.6830 0.6810 0.6800 0.6800 0.6780
3062.848144 0.6800 0.6830 0.6880 0.6940 0.7000
3070.838000 0.7010 0.7000 0.6980 0.6940 0.6910
3078.835144 0.6860 0.6800 0.6760 0.6700 0.6660
3086.825000 0.6650 0.6650 0.6690 0.6760 0.6800
3094.822144 0.6830 0.6860 0.6910 0.6980 0.7000
3102.812000 0.7000 0.6900 0.6840 0.6800 0.6800
3110.809144 0.6800 0.6840 0.6890 0.6910 0.6920
3118.798000 0.7010 0.7080 0.7180 0.7240 0.7290
3126.795144 0.7320 0.7340 0.7350 0.7360 0.7380
3134.785000 0.7380 0.7390 0.7390 0.7380 0.7370
3142.782144 0.7350 0.7330 0.7310 0.7280 0.7250
3150.772000 0.7200 0.7110 0.7090 0.7050 0.7020
3158.769144 0.6980 0.6940 0.6900 0.6860 0.6820
3166.759000 0.6770 0.6730 0.6690 0.6650 0.6610
3174.756144 0.6580 0.6540 0.6500 0.6450 0.6420
3182.745000 0.6380 0.6340 0.6300 0.6270 0.6230
3190.742144 0.6200 0.6160 0.6120 0.6090 0.6070
3198.732000 0.6070 0.6060 0.6060 0.6060 0.6070
3206.729144 0.6070 0.6080 0.6100 0.6120 0.6140
3214.719000 0.6170 0.6190 0.6210 0.6240 0.6260
3222.716144 0.6280 0.6320 0.6350 0.6360 0.6410
3230.706000 0.6500 0.6570 0.6630 0.6690 0.6730
3238.703144 0.6770 0.6800 0.6830 0.6860 0.6880
3246.692000 0.6940 0.6980 0.7020 0.7060 0.7100
3254.689144 0.7130 0.7170 0.7200 0.7230 0.7250
3262.679000 0.7270 0.7300 0.7310 0.7330 0.7350
3270.676144 0.7350 0.7360 0.7370 0.7380 0.7390
3278.666000 0.7400 0.7400 0.7410 0.7410 0.7390
3286.663144 0.7380 0.7350 0.7300 0.7280 0.7270
3294.653000 0.7270 0.7270 0.7270 0.7280 0.7320
3302.650144 0.7390 0.7430 0.7460 0.7480 0.7500
3310.639000 0.7520 0.7530 0.7540 0.7560 0.7570
3318.636144 0.7590 0.7600 0.7610 0.7610 0.7620
3326.626000 0.7630 0.7640 0.7640 0.7640 0.7650
3334.623144 0.7650 0.7650 0.7650 0.7650 0.7650
3342.613000 0.7650 0.7650 0.7650 0.7640 0.7640
3350.610144 0.7640 0.7640 0.7640 0.7630 0.7620
3358.600000 0.7610 0.7610 0.7600 0.7590 0.7580
3366.597144 0.7570 0.7570 0.7560 0.7560 0.7550
3374.586000 0.7540 0.7530 0.7530 0.7520 0.7510
3382.583144 0.7500 0.7500 0.7490 0.7480 0.7470
3390.573000 0.7470 0.7460 0.7460 0.7460 0.7460
3398.570144 0.7450 0.7450 0.7440 0.7440 0.7430
3406.560000 0.7430 0.7430 0.7420 0.7420 0.7420
3414.557144 0.7420 0.7420 0.7420 0.7420 0.7420
3422.547000 0.7420 0.7420 0.7420 0.7420 0.7420
3430.544144 0.7420 0.7420 0.7420 0.7420 0.7420
3438.533000 0.7420 0.7420 0.7420 0.7420 0.7420
3446.530144 0.7420 0.7420 0.7420 0.7420 0.7430
3454.520000 0.7430 0.7440 0.7440 0.7440 0.7440
3462.517144 0.7440 0.7450 0.7460 0.7460 0.7460
3470.507000 0.7470 0.7490 0.7500 0.7510 0.7520
3478.504144 0.7530 0.7540 0.7550 0.7550 0.7570
3486.494000 0.7570 0.7580 0.7590 0.7600 0.7600
3494.491144 0.7610 0.7610 0.7610 0.7610 0.7620
3502.481000 0.7620 0.7630 0.7640 0.7640 0.7640
3510.478144 0.7650 0.7660 0.7670 0.7680 0.7680
3518.468000 0.7700 0.7710 0.7720 0.7720 0.7730
3526.465144 0.7740 0.7760 0.7820 0.7820 0.7830
3534.454000 0.7840 0.7850 0.7860 0.7860 0.7860
3542.451144 0.7870 0.7870 0.7880 0.7890 0.7900
3550.441000 0.7900 0.7900 0.7910 0.7920 0.7930
3558.438144 0.7930 0.7940 0.7940 0.7950 0.7960
3566.428000 0.7960 0.7970 0.7980 0.7990 0.8000
3574.425144 0.8010 0.8010 0.8020 0.8040 0.8050
3582.415000 0.8050 0.8060 0.8070 0.8080 0.8080
3590.412144 0.8090 0.8100 0.8110 0.8120 0.8130
3598.401000 0.8150 0.8190 0.8210 0.8230 0.8240
3606.398144 0.8260 0.8270 0.8270 0.8280 0.8290
3614.388000 0.8300 0.8300 0.8310 0.8330 0.8340
3622.385144 0.8350 0.8370 0.8380 0.8390 0.8400
3630.375000 0.8410 0.8410 0.8410 0.8420 0.8430
3638.372144 0.8440 0.8450 0.8450 0.8450 0.8450
3646.362000 0.8460 0.8460 0.8460 0.8460 0.8460
3654.359144 0.8470 0.8470 0.8470 0.8470 0.8470
3662.348000 0.8480 0.8480 0.8480 0.8480 0.8480
3670.345144 0.8490 0.8490 0.8490 0.8490 0.8490
3678.335000 0.8490 0.8490 0.8490 0.8490 0.8490
3686.332144 0.8490 0.8490 0.8490 0.8490 0.8500
3694.322000 0.8500 0.8500 0.8500 0.8500 0.8510
3702.319144 0.8510 0.8510 0.8510 0.8510 0.8510
3710.309000 0.8520 0.8520 0.8520 0.8520 0.8520
3718.306144 0.8520 0.8520 0.8520 0.8520 0.8520
3726.295000 0.8520 0.8520 0.8520 0.8510 0.8510
3734.292144 0.8510 0.8510 0.8500 0.8500 0.8500
3742.282000 0.8490 0.8490 0.8490 0.8490 0.8490
3750.279144 0.8490 0.8490 0.8490 0.8500 0.8500
3758.269000 0.8510 0.8510 0.8520 0.8520 0.8520
3766.266144 0.8520 0.8520 0.8520 0.8520 0.8520
3774.256000 0.8520 0.8520 0.8520 0.8520 0.8520
3782.253144 0.8520 0.8510 0.8510 0.8510 0.8510
3790.242000 0.8510 0.8510 0.8510 0.8500 0.8500
3798.239144 0.8500 0.8500 0.8500 0.8500 0.8500
3806.229000 0.8500 0.8500 0.8500 0.8500 0.8500
3814.226144 0.8500 0.8500 0.8500 0.8500 0.8500
3822.216000 0.8500 0.8500 0.8500 0.8490 0.8490
3830.213144 0.8490 0.8490 0.8490 0.8490 0.8490
3838.203000 0.8490 0.8490 0.8490 0.8490 0.8480
3846.200144 0.8480 0.8480 0.8480 0.8480 0.8470
3854.189000 0.8470 0.8470 0.8470 0.8460 0.8460
3862.186144 0.8460 0.8460 0.8460 0.8460 0.8460
3870.176000 0.8460 0.8460 0.8460 0.8460 0.8460
3878.173144 0.8460 0.8460 0.8460 0.8460 0.8460
3886.163000 0.8460 0.8460 0.8460 0.8460 0.8460
3894.160144 0.8460 0.8460 0.8460 0.8460 0.8460
3902.150000 0.8460 0.8460 0.8460 0.8460 0.8460
3910.147144 0.8460 0.8460 0.8460 0.8460 0.8460
3918.137000 0.8460 0.8460 0.8460 0.8460 0.8460
3926.134144 0.8460 0.8460 0.8460 0.8460 0.8460
3934.123000 0.8460 0.8460 0.8460 0.8460 0.8460
3942.120144 0.8460 0.8460 0.8460 0.8460 0.8460
3950.110000 0.8460 0.8460 0.8460 0.8460 0.8460
3958.107144 0.8460 0.8460 0.8460 0.8460 0.8460
3966.097000 0.8460 0.8460 0.8460 0.8460 0.8460
3974.094144 0.8460 0.8460 0.8460 0.8460 0.8460
3982.084000 0.8460 0.8460 0.8460 0.8460 0.8460
3990.081144 0.8460 0.8460 0.8450 0.8450 0.8450
3998.071000 0.8450 0.8450 0.8450 0.8450 0.8450
4006.068144 0.8450 0.8450 0.8450
##END=
