##TITLE=STEARIC ACID, LITHIUM SALT
##JCAMP-DX=4.24
##DATA TYPE=INFRARED SPECTRUM
##CLASS=COBLENTZ III
##ORIGIN=WYANDOTTE CHEMICALS CORP.
##OWNER=COBLENTZ SOCIETY
Collection (C) 2018 copyright by the U.S. Secretary of Commerce
on behalf of the United States of America. All rights reserved.
##DATE=1956/03/02
##MOLFORM=C18 H35 Li O2
##SOURCE REFERENCE=COBLENTZ NO. 6527
##$NIST ID=B6006527
##$NIST SOURCE=COBLENTZ
##$NIST IMAGE=cob6527
##SPECTROMETER/DATA SYSTEM=BAIRD (PRISM)
##INSTRUMENT PARAMETERS=NaCl PRISM
##STATE=SOLID (OIL MULL)
##SAMPLING PROCEDURE=TRANSMISSION
##RESOLUTION=2
##DATA PROCESSING=DIGITIZED BY NIST FROM HARD COPY
##XUNITS=MICROMETERS
##YUNITS=TRANSMITTANCE
##XFACTOR=1.000000
##YFACTOR=1
##DELTAX=000.004880
##FIRSTX=1.99
##LASTX=15.9665
##FIRSTY=0.875
##MAXX=15.9665
##MINX=1.99
##MAXY=0.943
##MINY=0.024
##NPOINTS=2865
##XYDATA=(X++(Y..Y))
1.990000 0.8750 0.8750 0.8750 0.8750 0.8750
2.014409 0.8760 0.8760 0.8770 0.8770 0.8780
2.039000 0.8780 0.8780 0.8790 0.8790 0.8810
2.063409 0.8810 0.8810 0.8820 0.8820 0.8820
2.087000 0.8810 0.8810 0.8810 0.8810 0.8810
2.111409 0.8810 0.8810 0.8810 0.8790 0.8810
2.136000 0.8810 0.8810 0.8810 0.8810 0.8790
2.160409 0.8780 0.8770 0.8730 0.8710 0.8620
2.185000 0.8520 0.8450 0.8350 0.8240 0.8120
2.209409 0.8060 0.7970 0.7970 0.7960 0.7950
2.234000 0.7940 0.7940 0.7940 0.7940 0.7940
2.258409 0.7940 0.7940 0.7940 0.7940 0.7950
2.283000 0.7950 0.7960 0.7960 0.7970 0.7970
2.307409 0.7970 0.7990 0.7990 0.8000 0.8000
2.331000 0.8010 0.8010 0.8030 0.8050 0.8060
2.355409 0.8070 0.8120 0.8160 0.8190 0.8210
2.380000 0.8220 0.8270 0.8280 0.8320 0.8340
2.404409 0.8370 0.8390 0.8410 0.8430 0.8440
2.429000 0.8450 0.8460 0.8480 0.8490 0.8490
2.453409 0.8500 0.8510 0.8510 0.8520 0.8540
2.478000 0.8540 0.8550 0.8560 0.8560 0.8570
2.502409 0.8590 0.8590 0.8600 0.8610 0.8610
2.527000 0.8630 0.8650 0.8660 0.8670 0.8680
2.551409 0.8700 0.8710 0.8710 0.8720 0.8730
2.575000 0.8750 0.8760 0.8770 0.8780 0.8790
2.599409 0.8790 0.8820 0.8830 0.8840 0.8860
2.624000 0.8870 0.8880 0.8880 0.8890 0.8900
2.648409 0.8900 0.8920 0.8920 0.8920 0.8920
2.673000 0.8920 0.8920 0.8920 0.8930 0.8930
2.697409 0.8930 0.8930 0.8920 0.8920 0.8920
2.722000 0.8900 0.8890 0.8880 0.8870 0.8860
2.746409 0.8840 0.8840 0.8840 0.8860 0.8870
2.771000 0.8880 0.8890 0.8890 0.8890 0.8890
2.795409 0.8890 0.8890 0.8900 0.8890 0.8890
2.819000 0.8890 0.8880 0.8870 0.8860 0.8860
2.843409 0.8840 0.8830 0.8810 0.8790 0.8780
2.868000 0.8770 0.8770 0.8760 0.8730 0.8730
2.892409 0.8720 0.8720 0.8710 0.8720 0.8710
2.917000 0.8710 0.8710 0.8700 0.8700 0.8680
2.941409 0.8680 0.8670 0.8650 0.8620 0.8610
2.966000 0.8600 0.8600 0.8590 0.8590 0.8570
2.990409 0.8570 0.8560 0.8560 0.8570 0.8570
3.015000 0.8590 0.8590 0.8590 0.8590 0.8570
3.039409 0.8570 0.8570 0.8570 0.8570 0.8560
3.063000 0.8550 0.8520 0.8500 0.8490 0.8480
3.087409 0.8480 0.8460 0.8410 0.8390 0.8340
3.112000 0.8300 0.8270 0.8230 0.8210 0.8190
3.136409 0.8180 0.8170 0.8160 0.8160 0.8160
3.161000 0.8160 0.8140 0.8140 0.8130 0.8120
3.185409 0.8120 0.8110 0.8100 0.8070 0.8030
3.210000 0.8000 0.7960 0.7790 0.7680 0.7560
3.234409 0.7520 0.7500 0.7310 0.7190 0.7030
3.259000 0.6980 0.6810 0.6720 0.6320 0.6130
3.283409 0.5820 0.5520 0.5230 0.4700 0.4380
3.307000 0.3990 0.3520 0.2690 0.2270 0.1820
3.331409 0.1500 0.1110 0.0730 0.0470 0.0260
3.356000 0.0250 0.0240 0.0250 0.0280 0.0300
3.380409 0.0330 0.0350 0.0350 0.0360 0.0360
3.405000 0.0360 0.0340 0.0330 0.0310 0.0310
3.429409 0.0330 0.0340 0.0360 0.0400 0.0410
3.454000 0.0410 0.0410 0.0410 0.0410 0.0400
3.478409 0.0390 0.0370 0.0370 0.0400 0.0460
3.503000 0.0620 0.0790 0.1110 0.1620 0.3050
3.527409 0.3540 0.4010 0.4570 0.4970 0.5300
3.551000 0.5520 0.5730 0.5980 0.6150 0.6320
3.575409 0.6510 0.6610 0.6700 0.6890 0.7050
3.600000 0.7090 0.7180 0.7230 0.7290 0.7310
3.624409 0.7360 0.7360 0.7340 0.7340 0.7320
3.649000 0.7320 0.7310 0.7310 0.7320 0.7380
3.673409 0.7430 0.7460 0.7520 0.7590 0.7670
3.698000 0.7740 0.7780 0.7790 0.7780 0.7730
3.722409 0.7700 0.7690 0.7680 0.7670 0.7670
3.747000 0.7680 0.7690 0.7700 0.7720 0.7730
3.771409 0.7750 0.7790 0.7810 0.7830 0.7890
3.795000 0.7920 0.7940 0.7960 0.8000 0.8050
3.819409 0.8080 0.8120 0.8160 0.8210 0.8230
3.844000 0.8250 0.8280 0.8290 0.8290 0.8330
3.868409 0.8340 0.8370 0.8400 0.8440 0.8500
3.893000 0.8510 0.8520 0.8540 0.8570 0.8600
3.917409 0.8610 0.8630 0.8670 0.8700 0.8720
3.942000 0.8760 0.8770 0.8780 0.8790 0.8790
3.966409 0.8790 0.8790 0.8810 0.8810 0.8840
3.991000 0.8860 0.8880 0.8880 0.8890 0.8890
4.015409 0.8900 0.8890 0.8890 0.8890 0.8890
4.039000 0.8880 0.8880 0.8880 0.8890 0.8900
4.063409 0.8930 0.8950 0.8990 0.9000 0.9010
4.088000 0.9030 0.9050 0.9090 0.9090 0.9100
4.112409 0.9100 0.9100 0.9100 0.9090 0.9080
4.137000 0.9060 0.9060 0.9050 0.9060 0.9060
4.161409 0.9060 0.9060 0.9060 0.9040 0.9040
4.186000 0.9030 0.9040 0.9040 0.9040 0.9050
4.210409 0.9050 0.9050 0.9050 0.9050 0.9050
4.235000 0.9050 0.9050 0.9060 0.9060 0.9080
4.259409 0.9090 0.9100 0.9110 0.9110 0.9120
4.283000 0.9120 0.9120 0.9110 0.9110 0.9120
4.307409 0.9120 0.9140 0.9150 0.9160 0.9160
4.332000 0.9160 0.9160 0.9170 0.9170 0.9170
4.356409 0.9170 0.9170 0.9170 0.9170 0.9170
4.381000 0.9170 0.9200 0.9190 0.9190 0.9190
4.405409 0.9190 0.9170 0.9170 0.9170 0.9170
4.430000 0.9170 0.9190 0.9190 0.9190 0.9190
4.454409 0.9200 0.9200 0.9210 0.9220 0.9220
4.479000 0.9220 0.9240 0.9240 0.9240 0.9250
4.503409 0.9260 0.9270 0.9280 0.9280 0.9280
4.527000 0.9300 0.9300 0.9300 0.9300 0.9310
4.551409 0.9310 0.9330 0.9330 0.9330 0.9350
4.576000 0.9350 0.9330 0.9320 0.9320 0.9330
4.600409 0.9330 0.9330 0.9350 0.9350 0.9360
4.625000 0.9370 0.9360 0.9360 0.9350 0.9360
4.649409 0.9350 0.9350 0.9350 0.9330 0.9330
4.674000 0.9350 0.9350 0.9360 0.9360 0.9360
4.698409 0.9370 0.9370 0.9370 0.9370 0.9370
4.723000 0.9370 0.9370 0.9370 0.9370 0.9370
4.747409 0.9380 0.9380 0.9380 0.9390 0.9410
4.771000 0.9410 0.9420 0.9420 0.9430 0.9430
4.795409 0.9430 0.9430 0.9430 0.9430 0.9430
4.820000 0.9430 0.9420 0.9420 0.9420 0.9420
4.844409 0.9420 0.9420 0.9420 0.9410 0.9410
4.869000 0.9420 0.9420 0.9420 0.9420 0.9420
4.893409 0.9420 0.9420 0.9410 0.9410 0.9410
4.918000 0.9390 0.9390 0.9390 0.9390 0.9390
4.942409 0.9390 0.9390 0.9380 0.9380 0.9380
4.967000 0.9370 0.9370 0.9360 0.9360 0.9360
4.991409 0.9360 0.9360 0.9360 0.9360 0.9360
5.015000 0.9370 0.9380 0.9390 0.9410 0.9410
5.039409 0.9410 0.9420 0.9420 0.9420 0.9420
5.064000 0.9420 0.9420 0.9430 0.9420 0.9410
5.088409 0.9410 0.9410 0.9410 0.9390 0.9410
5.113000 0.9410 0.9420 0.9420 0.9420 0.9420
5.137409 0.9390 0.9410 0.9410 0.9410 0.9410
5.162000 0.9420 0.9410 0.9410 0.9410 0.9390
5.186409 0.9380 0.9370 0.9360 0.9360 0.9370
5.211000 0.9370 0.9370 0.9370 0.9380 0.9380
5.235409 0.9380 0.9380 0.9380 0.9380 0.9380
5.259000 0.9380 0.9380 0.9380 0.9380 0.9380
5.283409 0.9380 0.9370 0.9370 0.9370 0.9370
5.308000 0.9370 0.9380 0.9390 0.9390 0.9390
5.332409 0.9410 0.9410 0.9410 0.9420 0.9420
5.357000 0.9410 0.9410 0.9410 0.9410 0.9410
5.381409 0.9420 0.9410 0.9410 0.9410 0.9390
5.406000 0.9390 0.9390 0.9390 0.9390 0.9390
5.430409 0.9410 0.9410 0.9410 0.9410 0.9410
5.455000 0.9410 0.9410 0.9410 0.9390 0.9410
5.479409 0.9410 0.9410 0.9420 0.9420 0.9410
5.503000 0.9390 0.9390 0.9390 0.9380 0.9380
5.527409 0.9370 0.9370 0.9370 0.9380 0.9370
5.552000 0.9360 0.9370 0.9360 0.9360 0.9360
5.576409 0.9350 0.9330 0.9310 0.9310 0.9310
5.601000 0.9310 0.9300 0.9310 0.9310 0.9310
5.625409 0.9310 0.9310 0.9310 0.9310 0.9300
5.650000 0.9300 0.9270 0.9240 0.9210 0.9200
5.674409 0.9200 0.9190 0.9160 0.9110 0.9060
5.699000 0.9030 0.9010 0.9000 0.8950 0.8940
5.723409 0.8930 0.8930 0.8940 0.8950 0.8980
5.747000 0.9000 0.9010 0.9030 0.9040 0.9040
5.771409 0.9050 0.9040 0.9000 0.8940 0.8900
5.796000 0.8870 0.8820 0.8770 0.8730 0.8720
5.820409 0.8710 0.8720 0.8730 0.8770 0.8810
5.845000 0.8820 0.8830 0.8860 0.8880 0.8900
5.869409 0.8900 0.8890 0.8870 0.8870 0.8860
5.894000 0.8860 0.8840 0.8860 0.8840 0.8830
5.918409 0.8830 0.8820 0.8810 0.8810 0.8790
5.943000 0.8770 0.8750 0.8730 0.8720 0.8720
5.967409 0.8710 0.8670 0.8650 0.8620 0.8590
5.991000 0.8550 0.8540 0.8520 0.8510 0.8500
6.015409 0.8450 0.8410 0.8370 0.8300 0.8230
6.040000 0.8140 0.8130 0.8120 0.8100 0.8050
6.064409 0.8020 0.7920 0.7800 0.7630 0.7520
6.089000 0.7510 0.7450 0.7410 0.7300 0.7150
6.113409 0.7050 0.7020 0.6830 0.6710 0.6430
6.138000 0.6220 0.6020 0.5830 0.5660 0.5520
6.162409 0.5420 0.5280 0.5150 0.4860 0.4570
6.187000 0.4250 0.4010 0.3720 0.3410 0.2830
6.211409 0.2530 0.2240 0.2000 0.1640 0.1320
6.235000 0.1100 0.0890 0.0710 0.0520 0.0370
6.259409 0.0350 0.0350 0.0350 0.0360 0.0370
6.284000 0.0420 0.0510 0.0570 0.0720 0.0900
6.308409 0.1040 0.1200 0.1320 0.1440 0.1480
6.333000 0.1470 0.1420 0.1320 0.1230 0.1130
6.357409 0.1000 0.0980 0.0940 0.0910 0.0900
6.382000 0.0930 0.1000 0.1150 0.1440 0.1720
6.406409 0.1960 0.2240 0.2470 0.2620 0.2800
6.431000 0.3110 0.3320 0.3510 0.4010 0.4520
6.455409 0.4840 0.5020 0.5110 0.5180 0.5240
6.479000 0.5310 0.5360 0.5390 0.5400 0.5400
6.503409 0.5400 0.5410 0.5460 0.5550 0.5710
6.528000 0.5830 0.6020 0.6150 0.6250 0.6310
6.552409 0.6340 0.6380 0.6430 0.6470 0.6530
6.577000 0.6550 0.6610 0.6640 0.6640 0.6610
6.601409 0.6610 0.6590 0.6540 0.6510 0.6450
6.626000 0.6420 0.6360 0.6310 0.6230 0.6220
6.650409 0.6170 0.6150 0.6110 0.6040 0.5930
6.675000 0.5840 0.5730 0.5640 0.5530 0.5410
6.699409 0.5200 0.5060 0.4810 0.4600 0.4320
6.723000 0.4100 0.3700 0.3390 0.2590 0.2190
6.747409 0.1820 0.1500 0.1220 0.1090 0.1000
6.772000 0.0990 0.0890 0.0820 0.0720 0.0690
6.796409 0.0680 0.0680 0.0710 0.0720 0.0730
6.821000 0.0740 0.0740 0.0730 0.0710 0.0640
6.845409 0.0580 0.0570 0.0550 0.0530 0.0550
6.870000 0.0550 0.0570 0.0620 0.0750 0.0790
6.894409 0.0830 0.0960 0.1060 0.1230 0.1430
6.919000 0.1690 0.1960 0.2260 0.2610 0.2970
6.943409 0.3210 0.3340 0.3480 0.3830 0.4220
6.967000 0.4540 0.4770 0.4950 0.5080 0.5230
6.991409 0.5410 0.5580 0.5660 0.5740 0.5830
7.016000 0.5900 0.5900 0.5890 0.5750 0.5550
7.040409 0.5310 0.5020 0.4710 0.4330 0.3980
7.065000 0.3600 0.2790 0.2510 0.2230 0.1930
7.089409 0.1750 0.1660 0.1650 0.1660 0.1670
7.114000 0.2070 0.2620 0.3060 0.3270 0.3460
7.138409 0.3970 0.4240 0.4520 0.4690 0.4820
7.163000 0.4860 0.4870 0.4860 0.4790 0.4700
7.187409 0.4570 0.4470 0.4250 0.4120 0.3970
7.211000 0.3790 0.3610 0.3400 0.3010 0.3000
7.235409 0.2990 0.3000 0.3010 0.3180 0.3350
7.260000 0.3750 0.4060 0.4360 0.4540 0.4630
7.284409 0.4700 0.4740 0.4800 0.4900 0.5020
7.309000 0.5140 0.5410 0.5620 0.5830 0.5870
7.333409 0.5850 0.5850 0.5820 0.5780 0.5740
7.358000 0.5720 0.5710 0.5720 0.5780 0.5850
7.382409 0.5950 0.6000 0.6070 0.6100 0.6120
7.407000 0.6110 0.6100 0.6050 0.5960 0.5900
7.431409 0.5850 0.5840 0.5850 0.5900 0.5990
7.455000 0.6150 0.6320 0.6470 0.6580 0.6650
7.479409 0.6710 0.6820 0.6860 0.6890 0.6890
7.504000 0.6860 0.6690 0.6330 0.6150 0.6130
7.528409 0.6120 0.6130 0.6200 0.6340 0.6560
7.553000 0.6650 0.6740 0.6920 0.7030 0.7040
7.577409 0.7070 0.7070 0.7040 0.7030 0.6920
7.602000 0.6850 0.6780 0.6720 0.6490 0.6340
7.626409 0.6310 0.6280 0.6280 0.6280 0.6310
7.651000 0.6340 0.6550 0.6620 0.6690 0.6810
7.675409 0.6830 0.6880 0.6920 0.6930 0.6940
7.699000 0.7000 0.7020 0.7020 0.7030 0.7070
7.723409 0.7120 0.7160 0.7260 0.7340 0.7400
7.748000 0.7420 0.7460 0.7470 0.7470 0.7470
7.772409 0.7470 0.7470 0.7460 0.7430 0.7410
7.797000 0.7350 0.7340 0.7350 0.7410 0.7450
7.821409 0.7520 0.7530 0.7610 0.7650 0.7670
7.846000 0.7680 0.7680 0.7670 0.7650 0.7630
7.870409 0.7620 0.7630 0.7650 0.7670 0.7700
7.895000 0.7720 0.7730 0.7730 0.7730 0.7730
7.919409 0.7730 0.7730 0.7730 0.7730 0.7700
7.943000 0.7720 0.7730 0.7730 0.7750 0.7780
7.967409 0.7800 0.7810 0.7840 0.7850 0.7850
7.992000 0.7850 0.7850 0.7860 0.7860 0.7860
8.016409 0.7860 0.7870 0.7860 0.7860 0.7870
8.041000 0.7860 0.7860 0.7850 0.7840 0.7800
8.065409 0.7750 0.7700 0.7700 0.7670 0.7650
8.090000 0.7670 0.7680 0.7700 0.7740 0.7760
8.114409 0.7780 0.7790 0.7800 0.7810 0.7830
8.139000 0.7860 0.7920 0.8010 0.8050 0.8050
8.163409 0.8080 0.8120 0.8130 0.8160 0.8180
8.187000 0.8180 0.8140 0.8120 0.8110 0.8080
8.211409 0.8070 0.8050 0.8030 0.8010 0.8000
8.236000 0.7990 0.7960 0.7940 0.7900 0.7900
8.260409 0.7950 0.7960 0.7990 0.8030 0.8050
8.285000 0.8060 0.8120 0.8160 0.8220 0.8240
8.309409 0.8250 0.8250 0.8250 0.8250 0.8240
8.334000 0.8230 0.8230 0.8230 0.8220 0.8220
8.358409 0.8210 0.8160 0.8130 0.8120 0.8110
8.383000 0.8080 0.8070 0.8050 0.7910 0.7870
8.407409 0.7870 0.7910 0.8030 0.8180 0.8230
8.431000 0.8270 0.8320 0.8330 0.8340 0.8340
8.455409 0.8350 0.8340 0.8340 0.8330 0.8320
8.480000 0.8320 0.8330 0.8330 0.8330 0.8320
8.504409 0.8320 0.8320 0.8320 0.8300 0.8290
8.529000 0.8280 0.8270 0.8270 0.8270 0.8250
8.553409 0.8250 0.8240 0.8240 0.8240 0.8240
8.578000 0.8240 0.8240 0.8240 0.8240 0.8250
8.602409 0.8250 0.8250 0.8270 0.8240 0.8250
8.627000 0.8250 0.8270 0.8280 0.8280 0.8280
8.651409 0.8280 0.8290 0.8290 0.8290 0.8300
8.675000 0.8330 0.8340 0.8370 0.8390 0.8400
8.699409 0.8430 0.8450 0.8460 0.8480 0.8490
8.724000 0.8490 0.8500 0.8500 0.8510 0.8510
8.748409 0.8520 0.8520 0.8520 0.8520 0.8520
8.773000 0.8520 0.8520 0.8520 0.8520 0.8520
8.797409 0.8520 0.8520 0.8520 0.8520 0.8520
8.822000 0.8510 0.8500 0.8490 0.8480 0.8450
8.846409 0.8410 0.8380 0.8350 0.8330 0.8270
8.871000 0.8230 0.8180 0.8070 0.8030 0.7940
8.895409 0.7790 0.7650 0.7530 0.7510 0.7500
8.919000 0.7500 0.7510 0.7520 0.7680 0.7860
8.943409 0.8020 0.8160 0.8250 0.8300 0.8300
8.968000 0.8320 0.8320 0.8290 0.8270 0.8230
8.992409 0.8210 0.8180 0.8120 0.8070 0.7990
9.017000 0.7910 0.7850 0.7780 0.7750 0.7720
9.041409 0.7640 0.7580 0.7570 0.7570 0.7590
9.066000 0.7690 0.7720 0.7760 0.7850 0.7970
9.090409 0.8050 0.8130 0.8220 0.8270 0.8320
9.115000 0.8340 0.8350 0.8350 0.8350 0.8350
9.139409 0.8350 0.8350 0.8350 0.8350 0.8350
9.163000 0.8350 0.8350 0.8350 0.8350 0.8340
9.187409 0.8340 0.8330 0.8320 0.8300 0.8300
9.212000 0.8290 0.8280 0.8280 0.8270 0.8270
9.236409 0.8270 0.8270 0.8250 0.8250 0.8230
9.261000 0.8230 0.8210 0.8210 0.8220 0.8230
9.285409 0.8230 0.8240 0.8240 0.8240 0.8240
9.310000 0.8240 0.8250 0.8250 0.8250 0.8250
9.334409 0.8250 0.8270 0.8270 0.8280 0.8280
9.359000 0.8290 0.8290 0.8290 0.8290 0.8300
9.383409 0.8320 0.8320 0.8320 0.8320 0.8300
9.407000 0.8320 0.8320 0.8330 0.8330 0.8330
9.431409 0.8320 0.8320 0.8330 0.8330 0.8330
9.456000 0.8340 0.8340 0.8340 0.8340 0.8330
9.480409 0.8330 0.8330 0.8330 0.8330 0.8320
9.505000 0.8320 0.8320 0.8320 0.8320 0.8300
9.529409 0.8300 0.8300 0.8300 0.8300 0.8320
9.554000 0.8320 0.8320 0.8320 0.8330 0.8340
9.578409 0.8350 0.8350 0.8350 0.8370 0.8350
9.603000 0.8340 0.8340 0.8330 0.8300 0.8300
9.627409 0.8300 0.8300 0.8290 0.8290 0.8290
9.651000 0.8290 0.8280 0.8280 0.8270 0.8270
9.675409 0.8270 0.8270 0.8270 0.8270 0.8270
9.700000 0.8280 0.8280 0.8280 0.8290 0.8300
9.724409 0.8300 0.8320 0.8320 0.8320 0.8320
9.749000 0.8320 0.8320 0.8320 0.8320 0.8320
9.773409 0.8320 0.8320 0.8320 0.8320 0.8300
9.798000 0.8290 0.8280 0.8270 0.8250 0.8250
9.822409 0.8250 0.8250 0.8250 0.8250 0.8250
9.847000 0.8240 0.8230 0.8220 0.8190 0.8180
9.871409 0.8160 0.8140 0.8160 0.8170 0.8170
9.895000 0.8190 0.8220 0.8240 0.8250 0.8280
9.919409 0.8290 0.8290 0.8300 0.8330 0.8350
9.944000 0.8380 0.8400 0.8430 0.8440 0.8450
9.968409 0.8480 0.8510 0.8510 0.8520 0.8520
9.993000 0.8520 0.8540 0.8540 0.8550 0.8560
10.017409 0.8570 0.8570 0.8570 0.8590 0.8570
10.042000 0.8570 0.8570 0.8560 0.8550 0.8550
10.066409 0.8550 0.8540 0.8510 0.8510 0.8520
10.091000 0.8540 0.8560 0.8570 0.8570 0.8570
10.115409 0.8570 0.8570 0.8560 0.8550 0.8550
10.139000 0.8540 0.8540 0.8540 0.8540 0.8540
10.163409 0.8540 0.8540 0.8540 0.8520 0.8520
10.188000 0.8520 0.8510 0.8520 0.8510 0.8500
10.212409 0.8500 0.8480 0.8450 0.8430 0.8400
10.237000 0.8380 0.8350 0.8350 0.8340 0.8320
10.261409 0.8320 0.8290 0.8250 0.8250 0.8240
10.286000 0.8250 0.8270 0.8270 0.8280 0.8290
10.310409 0.8300 0.8320 0.8320 0.8330 0.8340
10.335000 0.8370 0.8390 0.8410 0.8410 0.8430
10.359409 0.8430 0.8430 0.8440 0.8440 0.8440
10.383000 0.8450 0.8450 0.8450 0.8450 0.8430
10.407409 0.8440 0.8440 0.8440 0.8440 0.8440
10.432000 0.8440 0.8440 0.8440 0.8440 0.8440
10.456409 0.8440 0.8410 0.8400 0.8400 0.8370
10.481000 0.8340 0.8330 0.8320 0.8300 0.8290
10.505409 0.8250 0.8250 0.8240 0.8230 0.8230
10.530000 0.8240 0.8250 0.8250 0.8300 0.8320
10.554409 0.8340 0.8350 0.8370 0.8370 0.8370
10.579000 0.8380 0.8380 0.8400 0.8430 0.8450
10.603409 0.8480 0.8480 0.8490 0.8490 0.8480
10.627000 0.8480 0.8460 0.8440 0.8410 0.8390
10.651409 0.8380 0.8380 0.8370 0.8370 0.8340
10.676000 0.8330 0.8300 0.8250 0.8230 0.8210
10.700409 0.8170 0.8160 0.8130 0.8110 0.8050
10.725000 0.8020 0.7910 0.7810 0.7720 0.7630
10.749409 0.7560 0.7520 0.7480 0.7480 0.7500
10.774000 0.7520 0.7520 0.7540 0.7590 0.7610
10.798409 0.7650 0.7680 0.7690 0.7720 0.7720
10.823000 0.7730 0.7750 0.7810 0.7900 0.7940
10.847409 0.8020 0.8030 0.8050 0.8050 0.8110
10.871000 0.8120 0.8140 0.8160 0.8160 0.8190
10.895409 0.8210 0.8210 0.8210 0.8220 0.8210
10.920000 0.8220 0.8220 0.8220 0.8230 0.8240
10.944409 0.8250 0.8250 0.8270 0.8300 0.8330
10.969000 0.8340 0.8350 0.8380 0.8380 0.8390
10.993409 0.8410 0.8430 0.8450 0.8460 0.8480
11.018000 0.8490 0.8500 0.8510 0.8520 0.8520
11.042409 0.8540 0.8540 0.8540 0.8540 0.8540
11.067000 0.8540 0.8520 0.8520 0.8520 0.8520
11.091409 0.8520 0.8540 0.8520 0.8520 0.8520
11.115000 0.8510 0.8490 0.8480 0.8450 0.8450
11.139409 0.8450 0.8450 0.8450 0.8450 0.8440
11.164000 0.8440 0.8430 0.8390 0.8370 0.8340
11.188409 0.8290 0.8250 0.8210 0.8170 0.8140
11.213000 0.8110 0.8110 0.8080 0.8050 0.8030
11.237409 0.8020 0.7990 0.7940 0.7920 0.7910
11.262000 0.7900 0.7910 0.7920 0.7940 0.7960
11.286409 0.7990 0.8020 0.8060 0.8100 0.8140
11.311000 0.8190 0.8230 0.8220 0.8230 0.8240
11.335409 0.8230 0.8230 0.8220 0.8190 0.8160
11.359000 0.8130 0.8120 0.8100 0.8070 0.8050
11.383409 0.8030 0.8030 0.8020 0.8020 0.8030
11.408000 0.8050 0.8100 0.8140 0.8180 0.8220
11.432409 0.8230 0.8250 0.8270 0.8290 0.8290
11.457000 0.8300 0.8320 0.8330 0.8340 0.8350
11.481409 0.8350 0.8370 0.8390 0.8400 0.8410
11.506000 0.8410 0.8430 0.8430 0.8440 0.8440
11.530409 0.8440 0.8440 0.8460 0.8460 0.8460
11.555000 0.8450 0.8450 0.8450 0.8440 0.8430
11.579409 0.8430 0.8410 0.8410 0.8400 0.8400
11.603000 0.8390 0.8380 0.8370 0.8370 0.8370
11.627409 0.8370 0.8370 0.8370 0.8350 0.8340
11.652000 0.8330 0.8320 0.8300 0.8280 0.8250
11.676409 0.8220 0.8210 0.8190 0.8180 0.8170
11.701000 0.8140 0.8130 0.8110 0.8060 0.8030
11.725409 0.8000 0.7920 0.7830 0.7730 0.7630
11.750000 0.7530 0.7450 0.7400 0.7350 0.7340
11.774409 0.7340 0.7350 0.7360 0.7400 0.7480
11.799000 0.7540 0.7630 0.7760 0.7860 0.7940
11.823409 0.7970 0.8010 0.8030 0.8030 0.8050
11.847000 0.8050 0.8050 0.8060 0.8060 0.8060
11.871409 0.8070 0.8070 0.8070 0.8100 0.8110
11.896000 0.8140 0.8170 0.8210 0.8220 0.8230
11.920409 0.8230 0.8240 0.8240 0.8240 0.8240
11.945000 0.8250 0.8250 0.8270 0.8250 0.8270
11.969409 0.8270 0.8280 0.8290 0.8300 0.8320
11.994000 0.8320 0.8330 0.8330 0.8330 0.8330
12.018409 0.8330 0.8330 0.8330 0.8330 0.8330
12.043000 0.8330 0.8330 0.8330 0.8330 0.8340
12.067409 0.8340 0.8330 0.8320 0.8300 0.8290
12.092000 0.8290 0.8280 0.8280 0.8280 0.8280
12.116409 0.8280 0.8280 0.8280 0.8280 0.8270
12.140000 0.8270 0.8270 0.8250 0.8250 0.8240
12.164409 0.8240 0.8230 0.8220 0.8220 0.8180
12.189000 0.8170 0.8140 0.8110 0.8060 0.8030
12.213409 0.8030 0.8010 0.8000 0.7960 0.7940
12.238000 0.7850 0.7800 0.7740 0.7700 0.7650
12.262409 0.7580 0.7530 0.7480 0.7410 0.7340
12.287000 0.7320 0.7310 0.7270 0.7260 0.7250
12.311409 0.7250 0.7250 0.7260 0.7290 0.7340
12.336000 0.7380 0.7510 0.7540 0.7610 0.7700
12.360409 0.7740 0.7800 0.7810 0.7900 0.7940
12.384000 0.7990 0.8000 0.8000 0.8030 0.8100
12.408409 0.8140 0.8180 0.8180 0.8210 0.8210
12.433000 0.8220 0.8230 0.8240 0.8240 0.8240
12.457409 0.8250 0.8250 0.8250 0.8250 0.8250
12.482000 0.8250 0.8250 0.8270 0.8270 0.8280
12.506409 0.8280 0.8280 0.8280 0.8280 0.8280
12.531000 0.8280 0.8280 0.8280 0.8270 0.8250
12.555409 0.8240 0.8240 0.8230 0.8230 0.8220
12.580000 0.8210 0.8190 0.8170 0.8140 0.8130
12.604409 0.8110 0.8110 0.8100 0.8080 0.8070
12.628000 0.8060 0.8050 0.8030 0.8020 0.8010
12.652409 0.7990 0.7910 0.7840 0.7800 0.7730
12.677000 0.7700 0.7630 0.7570 0.7520 0.7430
12.701409 0.7340 0.7250 0.7150 0.7070 0.6960
12.726000 0.6940 0.6920 0.6910 0.6920 0.6920
12.750409 0.6940 0.7000 0.7070 0.7130 0.7340
12.775000 0.7430 0.7520 0.7610 0.7690 0.7790
12.799409 0.7850 0.7900 0.7940 0.7990 0.8010
12.824000 0.8030 0.8050 0.8080 0.8100 0.8110
12.848409 0.8120 0.8120 0.8130 0.8140 0.8140
12.872000 0.8140 0.8140 0.8140 0.8140 0.8140
12.896409 0.8140 0.8140 0.8140 0.8140 0.8140
12.921000 0.8130 0.8130 0.8130 0.8120 0.8110
12.945409 0.8100 0.8100 0.8080 0.8080 0.8070
12.970000 0.8070 0.8060 0.8050 0.8030 0.8030
12.994409 0.8020 0.8020 0.8020 0.8010 0.7990
13.019000 0.7970 0.7940 0.7900 0.7850 0.7810
13.043409 0.7750 0.7720 0.7650 0.7620 0.7570
13.068000 0.7530 0.7510 0.7450 0.7380 0.7350
13.092409 0.7320 0.7310 0.7320 0.7340 0.7350
13.116000 0.7380 0.7400 0.7420 0.7460 0.7510
13.140409 0.7530 0.7560 0.7590 0.7630 0.7670
13.165000 0.7680 0.7700 0.7730 0.7760 0.7780
13.189409 0.7790 0.7810 0.7840 0.7860 0.7900
13.214000 0.7910 0.7910 0.7910 0.7890 0.7890
13.238409 0.7890 0.7900 0.7910 0.7910 0.7920
13.263000 0.7940 0.7940 0.7920 0.7920 0.7910
13.287409 0.7900 0.7870 0.7840 0.7810 0.7800
13.312000 0.7790 0.7780 0.7750 0.7740 0.7720
13.336409 0.7690 0.7640 0.7640 0.7630 0.7630
13.360000 0.7610 0.7610 0.7590 0.7540 0.7530
13.384409 0.7480 0.7450 0.7420 0.7370 0.7310
13.409000 0.7270 0.7230 0.7200 0.7190 0.7150
13.433409 0.7130 0.7100 0.7090 0.7040 0.7020
13.458000 0.6960 0.6890 0.6830 0.6800 0.6760
13.482409 0.6720 0.6660 0.6590 0.6550 0.6550
13.507000 0.6550 0.6550 0.6550 0.6550 0.6560
13.531409 0.6580 0.6610 0.6640 0.6650 0.6650
13.556000 0.6650 0.6640 0.6640 0.6610 0.6600
13.580409 0.6580 0.6550 0.6540 0.6480 0.6390
13.604000 0.6310 0.6260 0.6180 0.6170 0.6120
13.628409 0.6050 0.5990 0.5930 0.5830 0.5800
13.653000 0.5710 0.5620 0.5520 0.5450 0.5340
13.677409 0.5240 0.5140 0.5070 0.5000 0.4910
13.702000 0.4810 0.4740 0.4600 0.4580 0.4530
13.726409 0.4490 0.4470 0.4460 0.4440 0.4440
13.751000 0.4460 0.4490 0.4530 0.4580 0.4650
13.775409 0.4710 0.4740 0.4790 0.4810 0.4850
13.800000 0.4870 0.4880 0.4880 0.4880 0.4880
13.824409 0.4870 0.4860 0.4850 0.4840 0.4820
13.848000 0.4800 0.4740 0.4710 0.4650 0.4580
13.872409 0.4520 0.4430 0.4350 0.4310 0.4220
13.897000 0.4080 0.3990 0.3820 0.3700 0.3590
13.921409 0.3510 0.3490 0.3480 0.3490 0.3500
13.946000 0.3550 0.3650 0.3790 0.3950 0.4110
13.970409 0.4240 0.4430 0.4640 0.4910 0.5070
13.995000 0.5330 0.5500 0.5660 0.5770 0.5890
14.019409 0.5980 0.6060 0.6090 0.6180 0.6230
14.044000 0.6290 0.6340 0.6390 0.6430 0.6490
14.068409 0.6510 0.6510 0.6530 0.6530 0.6530
14.092000 0.6540 0.6540 0.6550 0.6550 0.6560
14.116409 0.6550 0.6550 0.6540 0.6540 0.6540
14.141000 0.6540 0.6540 0.6540 0.6530 0.6530
14.165409 0.6530 0.6530 0.6530 0.6530 0.6510
14.190000 0.6510 0.6510 0.6500 0.6500 0.6500
14.214409 0.6500 0.6500 0.6490 0.6490 0.6490
14.239000 0.6490 0.6490 0.6490 0.6480 0.6480
14.263409 0.6480 0.6480 0.6480 0.6470 0.6470
14.288000 0.6470 0.6450 0.6450 0.6450 0.6450
14.312409 0.6450 0.6470 0.6450 0.6450 0.6470
14.336000 0.6450 0.6450 0.6470 0.6470 0.6470
14.360409 0.6480 0.6490 0.6490 0.6500 0.6530
14.385000 0.6540 0.6540 0.6550 0.6560 0.6590
14.409409 0.6590 0.6600 0.6600 0.6610 0.6620
14.434000 0.6620 0.6640 0.6650 0.6660 0.6660
14.458409 0.6670 0.6690 0.6700 0.6710 0.6740
14.483000 0.6750 0.6760 0.6780 0.6780 0.6800
14.507409 0.6780 0.6800 0.6800 0.6800 0.6810
14.532000 0.6820 0.6850 0.6880 0.6890 0.6930
14.556409 0.6960 0.6970 0.6970 0.6980 0.6980
14.580000 0.6990 0.7000 0.7000 0.7000 0.7020
14.604409 0.7020 0.7020 0.7030 0.7040 0.7040
14.629000 0.7090 0.7100 0.7130 0.7140 0.7160
14.653409 0.7180 0.7180 0.7180 0.7190 0.7190
14.678000 0.7200 0.7200 0.7210 0.7210 0.7230
14.702409 0.7230 0.7240 0.7260 0.7270 0.7270
14.727000 0.7290 0.7300 0.7310 0.7320 0.7340
14.751409 0.7350 0.7360 0.7370 0.7380 0.7400
14.776000 0.7410 0.7420 0.7430 0.7450 0.7460
14.800409 0.7470 0.7480 0.7500 0.7500 0.7510
14.824000 0.7510 0.7520 0.7520 0.7520 0.7530
14.848409 0.7540 0.7540 0.7560 0.7560 0.7570
14.873000 0.7570 0.7580 0.7580 0.7590 0.7590
14.897409 0.7590 0.7610 0.7620 0.7620 0.7620
14.922000 0.7630 0.7630 0.7630 0.7640 0.7640
14.946409 0.7640 0.7640 0.7640 0.7640 0.7640
14.971000 0.7640 0.7640 0.7640 0.7630 0.7630
14.995409 0.7620 0.7620 0.7610 0.7590 0.7580
15.020000 0.7570 0.7560 0.7540 0.7530 0.7520
15.044409 0.7510 0.7510 0.7510 0.7510 0.7520
15.068000 0.7530 0.7540 0.7570 0.7590 0.7610
15.092409 0.7620 0.7630 0.7650 0.7680 0.7720
15.117000 0.7740 0.7760 0.7780 0.7790 0.7800
15.141409 0.7810 0.7810 0.7830 0.7830 0.7830
15.166000 0.7830 0.7830 0.7830 0.7830 0.7830
15.190409 0.7830 0.7810 0.7810 0.7810 0.7810
15.215000 0.7800 0.7800 0.7800 0.7800 0.7800
15.239409 0.7800 0.7800 0.7790 0.7790 0.7780
15.264000 0.7780 0.7780 0.7780 0.7760 0.7760
15.288409 0.7760 0.7760 0.7740 0.7740 0.7740
15.312000 0.7730 0.7730 0.7730 0.7720 0.7720
15.336409 0.7700 0.7700 0.7700 0.7690 0.7690
15.361000 0.7690 0.7680 0.7680 0.7670 0.7670
15.385409 0.7670 0.7650 0.7650 0.7640 0.7640
15.410000 0.7640 0.7630 0.7630 0.7620 0.7620
15.434409 0.7620 0.7590 0.7580 0.7580 0.7570
15.459000 0.7560 0.7560 0.7540 0.7540 0.7530
15.483409 0.7530 0.7520 0.7520 0.7510 0.7510
15.508000 0.7500 0.7500 0.7500 0.7480 0.7480
15.532409 0.7480 0.7480 0.7480 0.7480 0.7480
15.556000 0.7480 0.7480 0.7480 0.7480 0.7480
15.580409 0.7480 0.7480 0.7480 0.7480 0.7480
15.605000 0.7480 0.7480 0.7480 0.7480 0.7470
15.629409 0.7470 0.7460 0.7450 0.7450 0.7430
15.654000 0.7420 0.7420 0.7410 0.7400 0.7400
15.678409 0.7380 0.7370 0.7370 0.7370 0.7360
15.703000 0.7360 0.7350 0.7350 0.7340 0.7340
15.727409 0.7320 0.7320 0.7310 0.7310 0.7300
15.752000 0.7300 0.7290 0.7290 0.7270 0.7270
15.776409 0.7260 0.7250 0.7250 0.7240 0.7240
15.800000 0.7230 0.7230 0.7210 0.7210 0.7210
15.824409 0.7200 0.7200 0.7200 0.7190 0.7190
15.849000 0.7190 0.7190 0.7180 0.7180 0.7180
15.873409 0.7160 0.7160 0.7160 0.7150 0.7150
15.898000 0.7150 0.7140 0.7140 0.7140 0.7130
15.922409 0.7130 0.7120 0.7120 0.7100 0.7090
15.947000 0.7090 0.7090 0.7080 0.7080 0.7080
##END=
