##TITLE=3,4-Dichlorotetrahydrofuran
##JCAMP-DX=4.24
$$ By DXEDIT 1.05 (RS McDonald)
##DATA TYPE=INFRARED SPECTRUM
##CLASS=COBLENTZ III
##ORIGIN=DOW CHEMICAL COMPANY
##OWNER=COPYRIGHT (C) 1988 by COBLENTZ SOCIETY INC.
Collection (C) 2018 copyright by the U.S. Secretary of Commerce
on behalf of the United States of America. All rights reserved.
##DATE=1964/06/01
##MOLFORM=C4 H6 Cl2 O
##SOURCE REFERENCE=COBLENTZ NO. 6657
##$NIST ID=B6006657
##$NIST SOURCE=COBLENTZ
##$NIST IMAGE=cob6657
##SPECTROMETER/DATA SYSTEM=DOW KBr FOREPRISM-GRATING
##INSTRUMENT PARAMETERS=BLAZED AT 3.5, 12.0, 20.0 MICRON AND CHANGED AT 5.0, 7.5, 14.9 MICRON
##STATE=SOLUTION (10% CCl4 FOR 3800-1340, 10% CS2 FOR 1340-450 CM^-^1)
##PATH LENGTH=0.011 CM, 0.011 CM
$$SPECTRAL CONTAMINATION DUE TO CCl4 AROUND 1550, AND CS2 AROUND 850 CM^-^1 HAVE BEEN SUBTRACTED
$$ SPECTRAL FEATURE AT 2000 CM^-^1 IS PROBABLY AN ARTIFACT CAUSED BY GRATING CHANGE
##SAMPLING PROCEDURE=TRANSMISSION
##RESOLUTION=2
##DATA PROCESSING=DIGITIZED BY COBLENTZ SOCIETY (BATCH I) FROM HARD COPY
##XUNITS=1/CM
##YUNITS=TRANSMITTANCE
##XFACTOR=1
##YFACTOR=1
##DELTAX=1
##FIRSTX=454
##LASTX=3800
##FIRSTY=0.8828
##MAXX=3800
##MINX=454
##MAXY=0.9658
##MINY=-0.0036
##NPOINTS=3347
##XYDATA=(X++(Y..Y))
454.000000 0.8828 0.8837 0.8850 0.8863 0.8876
459.000000 0.8889 0.8901 0.8914 0.8927 0.8940
464.000000 0.8952 0.8962 0.8970 0.8982 0.8992
469.000000 0.9003 0.9013 0.9023 0.9034 0.9045
474.000000 0.9055 0.9066 0.9075 0.9079 0.9086
479.000000 0.9090 0.9095 0.9100 0.9104 0.9110
484.000000 0.9115 0.9119 0.9124 0.9130 0.9135
489.000000 0.9141 0.9146 0.9153 0.9158 0.9164
494.000000 0.9169 0.9176 0.9180 0.9187 0.9192
499.000000 0.9199 0.9204 0.9210 0.9218 0.9225
504.000000 0.9232 0.9240 0.9249 0.9256 0.9264
509.000000 0.9272 0.9279 0.9288 0.9295 0.9304
514.000000 0.9311 0.9318 0.9327 0.9335 0.9342
519.000000 0.9351 0.9358 0.9366 0.9375 0.9382
524.000000 0.9389 0.9399 0.9400 0.9397 0.9405
529.000000 0.9413 0.9421 0.9429 0.9437 0.9447
534.000000 0.9444 0.9459 0.9473 0.9467 0.9471
539.000000 0.9466 0.9472 0.9481 0.9489 0.9496
544.000000 0.9500 0.9508 0.9513 0.9520 0.9526
549.000000 0.9532 0.9538 0.9538 0.9538 0.9555
554.000000 0.9562 0.9574 0.9589 0.9594 0.9598
559.000000 0.9588 0.9606 0.9611 0.9615 0.9619
564.000000 0.9637 0.9645 0.9635 0.9635 0.9652
569.000000 0.9655 0.9655 0.9655 0.9657 0.9658
574.000000 0.9650 0.9629 0.9623 0.9622 0.9628
579.000000 0.9622 0.9616 0.9610 0.9600 0.9590
584.000000 0.9580 0.9580 0.9567 0.9561 0.9556
589.000000 0.9542 0.9526 0.9511 0.9496 0.9481
594.000000 0.9466 0.9451 0.9435 0.9419 0.9403
599.000000 0.9387 0.9371 0.9354 0.9338 0.9322
604.000000 0.9301 0.9279 0.9257 0.9241 0.9230
609.000000 0.9210 0.9185 0.9155 0.9125 0.9094
614.000000 0.9074 0.9050 0.9020 0.8989 0.8948
619.000000 0.8890 0.8843 0.8797 0.8752 0.8703
624.000000 0.8652 0.8586 0.8521 0.8469 0.8402
629.000000 0.8323 0.8228 0.8122 0.8028 0.7929
634.000000 0.7830 0.7744 0.7644 0.7538 0.7491
639.000000 0.7449 0.7397 0.7340 0.7166 0.6991
644.000000 0.6849 0.6715 0.6596 0.6495 0.6383
649.000000 0.6234 0.6029 0.5854 0.5677 0.5516
654.000000 0.5358 0.5199 0.4996 0.4782 0.4495
659.000000 0.4158 0.3642 0.3026 0.2595 0.2453
664.000000 0.2363 0.2288 0.2277 0.2292 0.2352
669.000000 0.2530 0.2703 0.2907 0.3121 0.3341
674.000000 0.3557 0.3778 0.3987 0.4184 0.4605
679.000000 0.4583 0.4582 0.4554 0.4485 0.4394
684.000000 0.4297 0.4208 0.4118 0.4029 0.3936
689.000000 0.3843 0.3753 0.3710 0.3671 0.4070
694.000000 0.4326 0.4576 0.4828 0.5083 0.5339
699.000000 0.5595 0.5901 0.6307 0.6395 0.6490
704.000000 0.6577 0.6643 0.6713 0.6775 0.6826
709.000000 0.6875 0.6921 0.6966 0.7005 0.7040
714.000000 0.7052 0.7055 0.7060 0.7055 0.7036
719.000000 0.7024 0.7016 0.6999 0.6977 0.6955
724.000000 0.6949 0.6984 0.7052 0.7126 0.7204
729.000000 0.7282 0.7359 0.7425 0.7522 0.7600
734.000000 0.7705 0.7776 0.7848 0.7919 0.7970
739.000000 0.8019 0.8068 0.8112 0.8152 0.8193
744.000000 0.8235 0.8281 0.8326 0.8365 0.8397
749.000000 0.8429 0.8461 0.8503 0.8534 0.8559
754.000000 0.8569 0.8583 0.8598 0.8609 0.8606
759.000000 0.8603 0.8598 0.8598 0.8574 0.8560
764.000000 0.8547 0.8533 0.8528 0.8510 0.8489
769.000000 0.8469 0.8455 0.8431 0.8410 0.8373
774.000000 0.8408 0.8419 0.8431 0.8441 0.8463
779.000000 0.8480 0.8491 0.8514 0.8528 0.8535
784.000000 0.8542 0.8523 0.8503 0.8482 0.8462
789.000000 0.8441 0.8424 0.8418 0.8387 0.8369
794.000000 0.8354 0.8348 0.8335 0.8320 0.8305
799.000000 0.8291 0.8282 0.8273 0.8264 0.8257
804.000000 0.8249 0.8242 0.8223 0.8198 0.8191
809.000000 0.8175 0.8144 0.8126 0.8113 0.8099
814.000000 0.8109 0.8126 0.8151 0.8161 0.8165
819.000000 0.8165 0.8155 0.8148 0.8148 0.8129
824.000000 0.8114 0.8114 0.8120 0.8132 0.8143
829.000000 0.8178 0.8204 0.8231 0.8266 0.8278
834.000000 0.8305 0.8326 0.8346 0.8366 0.8340
839.000000 0.8322 0.8274 0.8229 0.8232 0.8235
844.000000 0.8243 0.8264 0.8278 0.8306 0.8340
849.000000 0.8386 0.8436 0.8486 0.8555 0.8564
854.000000 0.8674 0.8723 0.8760 0.8791 0.8814
859.000000 0.8826 0.8831 0.8824 0.8831 0.8841
864.000000 0.8836 0.8826 0.8829 0.8834 0.8821
869.000000 0.8826 0.8819 0.8804 0.8786 0.8741
874.000000 0.8711 0.8660 0.8606 0.8535 0.8453
879.000000 0.8353 0.8236 0.8098 0.7869 0.7604
884.000000 0.7425 0.7205 0.6964 0.6656 0.6142
889.000000 0.5627 0.5122 0.4623 0.4127 0.3635
894.000000 0.3151 0.2666 0.2188 0.1712 0.1238
899.000000 0.0765 0.0724 0.0743 0.0969 0.1436
904.000000 0.1906 0.2374 0.2840 0.3308 0.3724
909.000000 0.4108 0.4636 0.4928 0.5194 0.5309
914.000000 0.5429 0.5547 0.5682 0.5807 0.5964
919.000000 0.6131 0.6271 0.6398 0.6495 0.6587
924.000000 0.6676 0.6728 0.6777 0.6826 0.6875
929.000000 0.6919 0.6963 0.7006 0.7050 0.7098
934.000000 0.7149 0.7200 0.7251 0.7302 0.7347
939.000000 0.7390 0.7432 0.7474 0.7518 0.7563
944.000000 0.7608 0.7654 0.7699 0.7744 0.7785
949.000000 0.7826 0.7867 0.7908 0.7948 0.7988
954.000000 0.8053 0.8120 0.8189 0.8260 0.8333
959.000000 0.8386 0.8420 0.8453 0.8486 0.8516
964.000000 0.8537 0.8540 0.8543 0.8545 0.8548
969.000000 0.8542 0.8585 0.8489 0.8432 0.8381
974.000000 0.8299 0.8256 0.8199 0.8238 0.8390
979.000000 0.8528 0.8603 0.8659 0.8673 0.8677
984.000000 0.8666 0.8655 0.8641 0.8619 0.8596
989.000000 0.8572 0.8550 0.8527 0.8493 0.8461
994.000000 0.8437 0.8413 0.8389 0.8363 0.8346
999.000000 0.8324 0.8305 0.8288 0.8270 0.8258
1004.000000 0.8249 0.8258 0.8259 0.8259 0.8258
1009.000000 0.8267 0.8254 0.8221 0.8170 0.8107
1014.000000 0.8052 0.7987 0.7799 0.7604 0.7411
1019.000000 0.7218 0.7025 0.7015 0.6989 0.7131
1024.000000 0.7263 0.7396 0.7540 0.7674 0.7672
1029.000000 0.7664 0.7661 0.7600 0.7531 0.7473
1034.000000 0.7434 0.7405 0.7386 0.7366 0.7345
1039.000000 0.7307 0.7221 0.7125 0.7053 0.6987
1044.000000 0.6927 0.6866 0.6802 0.6739 0.6653
1049.000000 0.6556 0.6452 0.6328 0.6174 0.6006
1054.000000 0.5797 0.5613 0.5393 0.5188 0.5053
1059.000000 0.4678 0.4555 0.4469 0.4419 0.4375
1064.000000 0.4340 0.4312 0.4285 0.4210 0.3930
1069.000000 0.3160 0.2655 0.2150 0.1644 0.1137
1074.000000 0.0690 0.0293 -0.0036 -0.0036 -0.0036
1079.000000 -0.0036 -0.0036 -0.0036 -0.0036 -0.0036
1084.000000 -0.0036 -0.0036 -0.0036 -0.0036 -0.0036
1089.000000 -0.0036 0.0241 0.1131 0.2022 0.2912
1094.000000 0.3755 0.3874 0.4001 0.4115 0.4208
1099.000000 0.4275 0.4432 0.4690 0.6110 0.6425
1104.000000 0.6629 0.6809 0.6983 0.7162 0.7288
1109.000000 0.7422 0.7558 0.7702 0.7850 0.7944
1114.000000 0.8036 0.8129 0.8251 0.8362 0.8440
1119.000000 0.8518 0.8577 0.8617 0.8640 0.8645
1124.000000 0.8660 0.8679 0.8702 0.8728 0.8774
1129.000000 0.8836 0.8876 0.8881 0.8885 0.8842
1134.000000 0.8824 0.8796 0.8747 0.8713 0.8676
1139.000000 0.8637 0.8596 0.8583 0.8573 0.8550
1144.000000 0.8559 0.8557 0.8557 0.8538 0.8565
1149.000000 0.8583 0.8583 0.8587 0.8610 0.8629
1154.000000 0.8647 0.8668 0.8688 0.8709 0.8728
1159.000000 0.8749 0.8770 0.8791 0.8808 0.8800
1164.000000 0.8792 0.8805 0.8761 0.8746 0.8705
1169.000000 0.8676 0.8645 0.8615 0.8578 0.8541
1174.000000 0.8505 0.8422 0.8320 0.8212 0.8097
1179.000000 0.7986 0.7877 0.7751 0.7629 0.7470
1184.000000 0.7302 0.7123 0.7123 0.7067 0.7163
1189.000000 0.7228 0.7291 0.7363 0.7417 0.7417
1194.000000 0.7403 0.7424 0.7376 0.7336 0.7281
1199.000000 0.7172 0.6699 0.6228 0.5755 0.5284
1204.000000 0.4812 0.4339 0.3867 0.3395 0.2923
1209.000000 0.2643 0.2643 0.2665 0.3394 0.3933
1214.000000 0.4472 0.5013 0.5546 0.5872 0.6058
1219.000000 0.6175 0.6290 0.6364 0.6428 0.6490
1224.000000 0.6551 0.6633 0.6744 0.6883 0.7070
1229.000000 0.7325 0.7665 0.7787 0.7879 0.7909
1234.000000 0.7937 0.7960 0.7977 0.7995 0.8013
1239.000000 0.7993 0.8012 0.8013 0.8003 0.7983
1244.000000 0.7963 0.7947 0.7922 0.7888 0.7845
1249.000000 0.7793 0.7674 0.7537 0.7399 0.7263
1254.000000 0.7137 0.7000 0.6861 0.6707 0.6692
1259.000000 0.6759 0.6850 0.6945 0.7039 0.7132
1264.000000 0.7197 0.7217 0.7233 0.7222 0.7207
1269.000000 0.7167 0.6832 0.6500 0.6167 0.5832
1274.000000 0.5500 0.5167 0.4833 0.4491 0.4158
1279.000000 0.3978 0.3978 0.4438 0.4942 0.5445
1284.000000 0.5950 0.6452 0.6958 0.7461 0.7653
1289.000000 0.7775 0.7879 0.7952 0.8023 0.8078
1294.000000 0.8132 0.8190 0.8236 0.8288 0.8331
1299.000000 0.8374 0.8393 0.8405 0.8416 0.8425
1304.000000 0.8434 0.8453 0.8457 0.8470 0.8501
1309.000000 0.8547 0.8594 0.8643 0.8693 0.8737
1314.000000 0.8773 0.8771 0.8770 0.8762 0.8755
1319.000000 0.8655 0.8595 0.8523 0.8420 0.8327
1324.000000 0.8229 0.8125 0.8034 0.7932 0.7827
1329.000000 0.7832 0.7813 0.8247 0.8622 0.8739
1334.000000 0.8840 0.8917 0.8965 0.8963 0.8925
1339.000000 0.8887 0.8859 0.8881 0.8902 0.8937
1344.000000 0.8970 0.9007 0.9037 0.9068 0.9096
1349.000000 0.9122 0.9150 0.9174 0.9193 0.9212
1354.000000 0.9231 0.9233 0.9235 0.9246 0.9235
1359.000000 0.9220 0.9204 0.9168 0.9131 0.9098
1364.000000 0.9065 0.9057 0.9052 0.9050 0.9048
1369.000000 0.9047 0.9045 0.9044 0.9042 0.9041
1374.000000 0.9039 0.9035 0.9042 0.9045 0.9042
1379.000000 0.9039 0.9049 0.9062 0.9091 0.9121
1384.000000 0.9151 0.9147 0.9107 0.9068 0.9032
1389.000000 0.9026 0.9005 0.8990 0.8988 0.8985
1394.000000 0.8983 0.9084 0.8978 0.8976 0.8965
1399.000000 0.8956 0.8953 0.8952 0.8950 0.8949
1404.000000 0.8946 0.8945 0.8943 0.8940 0.8940
1409.000000 0.8941 0.8940 0.8940 0.8939 0.8939
1414.000000 0.8939 0.8938 0.8940 0.8953 0.8950
1419.000000 0.8948 0.8945 0.8941 0.8939 0.8936
1424.000000 0.8941 0.8948 0.8944 0.8930 0.8927
1429.000000 0.8928 0.8923 0.8918 0.8901 0.8891
1434.000000 0.8883 0.8875 0.8866 0.8858 0.8852
1439.000000 0.8844 0.8838 0.8840 0.8826 0.8813
1444.000000 0.8800 0.8787 0.8762 0.8742 0.8724
1449.000000 0.8695 0.8671 0.8640 0.8582 0.8523
1454.000000 0.8436 0.8356 0.8253 0.8124 0.7992
1459.000000 0.7872 0.7203 0.6509 0.5816 0.5656
1464.000000 0.5807 0.6258 0.6698 0.6893 0.6878
1469.000000 0.6437 0.5986 0.5533 0.5275 0.5598
1474.000000 0.6174 0.6771 0.7368 0.7974 0.8192
1479.000000 0.8333 0.8454 0.8538 0.8581 0.8591
1484.000000 0.8596 0.8619 0.8634 0.8650 0.8673
1489.000000 0.8696 0.8710 0.8724 0.8714 0.8686
1494.000000 0.8654 0.8636 0.8603 0.8585 0.8571
1499.000000 0.8567 0.8549 0.8530 0.8516 0.8514
1504.000000 0.8504 0.8491 0.8488 0.8484 0.8479
1509.000000 0.8474 0.8458 0.8447 0.8442 0.8427
1514.000000 0.8425 0.8413 0.8412 0.8407 0.8397
1519.000000 0.8402 0.8380 0.8357 0.8348 0.8321
1524.000000 0.8308 0.8280 0.8221 0.8152 0.8072
1529.000000 0.8021 0.7937 0.7811 0.7789 0.7766
1534.000000 0.7731 0.7668 0.7577 0.7525 0.7551
1539.000000 0.7585 0.7620 0.7638 0.7645 0.7628
1544.000000 0.7594 0.7567 0.7542 0.7528 0.7558
1549.000000 0.7582 0.7591 0.7564 0.7529 0.7490
1554.000000 0.7470 0.7474 0.7481 0.7512 0.7549
1559.000000 0.7559 0.7553 0.7540 0.7569 0.7612
1564.000000 0.7643 0.7671 0.7703 0.7756 0.7808
1569.000000 0.7890 0.7963 0.8048 0.8074 0.8094
1574.000000 0.8089 0.8066 0.8059 0.8072 0.8073
1579.000000 0.8092 0.8094 0.8098 0.8091 0.8101
1584.000000 0.8084 0.8069 0.8063 0.8072 0.8108
1589.000000 0.8133 0.8176 0.8309 0.8371 0.8408
1594.000000 0.8531 0.8791 0.8902 0.8929 0.8904
1599.000000 0.8873 0.8859 0.8843 0.8886 0.8883
1604.000000 0.8894 0.8871 0.8909 0.8912 0.8940
1609.000000 0.8949 0.8951 0.8958 0.8942 0.8935
1614.000000 0.8935 0.8931 0.8923 0.8918 0.8919
1619.000000 0.8923 0.8928 0.8948 0.8961 0.8956
1624.000000 0.8962 0.8952 0.8970 0.8976 0.8967
1629.000000 0.8971 0.8960 0.8974 0.8981 0.8999
1634.000000 0.9003 0.8999 0.8995 0.8982 0.8976
1639.000000 0.8964 0.8960 0.8957 0.8944 0.8932
1644.000000 0.8929 0.8924 0.8909 0.8898 0.8894
1649.000000 0.8890 0.8938 0.8983 0.8984 0.9011
1654.000000 0.9023 0.9030 0.9034 0.9036 0.9024
1659.000000 0.9028 0.9044 0.9032 0.9035 0.9038
1664.000000 0.9040 0.9043 0.9047 0.9050 0.9050
1669.000000 0.9052 0.9053 0.9053 0.9055 0.9045
1674.000000 0.9040 0.9041 0.9042 0.9043 0.9044
1679.000000 0.9045 0.9047 0.9046 0.9047 0.9046
1684.000000 0.9046 0.9048 0.9048 0.9048 0.9047
1689.000000 0.9047 0.9047 0.9046 0.9046 0.9045
1694.000000 0.9045 0.9044 0.9039 0.9034 0.9028
1699.000000 0.9024 0.9018 0.9014 0.9008 0.9003
1704.000000 0.8999 0.8994 0.8989 0.8984 0.8974
1709.000000 0.8965 0.8956 0.8947 0.8936 0.8929
1714.000000 0.8920 0.8909 0.8892 0.8875 0.8859
1719.000000 0.8844 0.8828 0.8813 0.8794 0.8775
1724.000000 0.8756 0.8738 0.8714 0.8689 0.8663
1729.000000 0.8639 0.8612 0.8586 0.8557 0.8531
1734.000000 0.8504 0.8468 0.8473 0.8482 0.8498
1739.000000 0.8518 0.8541 0.8567 0.8595 0.8623
1744.000000 0.8651 0.8675 0.8699 0.8723 0.8747
1749.000000 0.8770 0.8793 0.8816 0.8840 0.8862
1754.000000 0.8884 0.8906 0.8928 0.8950 0.8963
1759.000000 0.8958 0.8962 0.8969 0.8973 0.8974
1764.000000 0.8974 0.8974 0.8973 0.8964 0.8955
1769.000000 0.8943 0.8919 0.8888 0.8797 0.8704
1774.000000 0.8628 0.8554 0.8486 0.8406 0.8317
1779.000000 0.8226 0.8135 0.8096 0.8087 0.8275
1784.000000 0.8380 0.8473 0.8556 0.8617 0.8641
1789.000000 0.8639 0.8651 0.8631 0.8624 0.8618
1794.000000 0.8612 0.8601 0.8588 0.8573 0.8558
1799.000000 0.8542 0.8525 0.8514 0.8504 0.8497
1804.000000 0.8494 0.8494 0.8487 0.8480 0.8472
1809.000000 0.8476 0.8475 0.8436 0.8552 0.8598
1814.000000 0.8643 0.8692 0.8738 0.8778 0.8818
1819.000000 0.8848 0.8859 0.8880 0.8890 0.8900
1824.000000 0.8907 0.8912 0.8917 0.8923 0.8928
1829.000000 0.8934 0.8940 0.8946 0.8952 0.8957
1834.000000 0.8959 0.8961 0.8973 0.8981 0.8983
1839.000000 0.8985 0.8987 0.8989 0.8992 0.8995
1844.000000 0.8998 0.9001 0.9004 0.9007 0.9011
1849.000000 0.9014 0.9018 0.9022 0.9026 0.9031
1854.000000 0.9035 0.9040 0.9049 0.9056 0.9051
1859.000000 0.9054 0.9057 0.9061 0.9064 0.9068
1864.000000 0.9071 0.9075 0.9078 0.9081 0.9084
1869.000000 0.9088 0.9092 0.9095 0.9098 0.9101
1874.000000 0.9105 0.9108 0.9096 0.9098 0.9101
1879.000000 0.9106 0.9109 0.9112 0.9114 0.9114
1884.000000 0.9107 0.9098 0.9100 0.9100 0.9101
1889.000000 0.9101 0.9101 0.9112 0.9118 0.9118
1894.000000 0.9118 0.9118 0.9116 0.9107 0.9098
1899.000000 0.9090 0.9081 0.9075 0.9075 0.9075
1904.000000 0.9082 0.9091 0.9104 0.9113 0.9112
1909.000000 0.9120 0.9121 0.9109 0.9098 0.9085
1914.000000 0.9085 0.9085 0.9091 0.9102 0.9110
1919.000000 0.9116 0.9105 0.9091 0.9070 0.9057
1924.000000 0.9059 0.9061 0.9067 0.9075 0.9080
1929.000000 0.9085 0.9085 0.9085 0.9084 0.9082
1934.000000 0.9074 0.9067 0.9063 0.9060 0.9057
1939.000000 0.9055 0.9052 0.9049 0.9046 0.9042
1944.000000 0.9038 0.9035 0.9032 0.9029 0.9022
1949.000000 0.9014 0.9020 0.9016 0.9008 0.9000
1954.000000 0.8993 0.9000 0.8989 0.8979 0.8969
1959.000000 0.8958 0.8949 0.8938 0.8917 0.8891
1964.000000 0.8859 0.8842 0.8819 0.8784 0.8759
1969.000000 0.8737 0.8715 0.8694 0.8679 0.8670
1974.000000 0.8671 0.8665 0.8675 0.8683 0.8690
1979.000000 0.8717 0.8732 0.8753 0.8773 0.8787
1984.000000 0.8798 0.8804 0.8823 0.8857 0.8877
1989.000000 0.8895 0.8913 0.8882 0.8820 0.8756
1994.000000 0.8724 0.8782 0.8918 0.8804 0.8674
1999.000000 0.8540 0.8477 0.8735 0.8994 0.9003
2004.000000 0.9013 0.9023 0.9034 0.9046 0.9057
2009.000000 0.9062 0.9069 0.9071 0.9073 0.9076
2014.000000 0.9080 0.9084 0.9087 0.9089 0.9094
2019.000000 0.9096 0.9102 0.9105 0.9109 0.9112
2024.000000 0.9116 0.9110 0.9106 0.9120 0.9119
2029.000000 0.9117 0.9120 0.9123 0.9128 0.9131
2034.000000 0.9135 0.9138 0.9142 0.9147 0.9151
2039.000000 0.9155 0.9159 0.9164 0.9168 0.9172
2044.000000 0.9176 0.9180 0.9185 0.9188 0.9191
2049.000000 0.9201 0.9213 0.9206 0.9211 0.9220
2054.000000 0.9222 0.9225 0.9226 0.9212 0.9207
2059.000000 0.9204 0.9202 0.9200 0.9198 0.9195
2064.000000 0.9194 0.9194 0.9194 0.9195 0.9195
2069.000000 0.9197 0.9200 0.9204 0.9208 0.9213
2074.000000 0.9213 0.9214 0.9217 0.9207 0.9205
2079.000000 0.9202 0.9199 0.9196 0.9194 0.9189
2084.000000 0.9188 0.9185 0.9182 0.9181 0.9179
2089.000000 0.9178 0.9177 0.9177 0.9177 0.9175
2094.000000 0.9162 0.9175 0.9172 0.9157 0.9162
2099.000000 0.9174 0.9174 0.9174 0.9175 0.9175
2104.000000 0.9175 0.9175 0.9175 0.9174 0.9173
2109.000000 0.9171 0.9170 0.9169 0.9168 0.9166
2114.000000 0.9165 0.9164 0.9163 0.9162 0.9162
2119.000000 0.9161 0.9160 0.9157 0.9145 0.9157
2124.000000 0.9157 0.9156 0.9156 0.9155 0.9155
2129.000000 0.9154 0.9154 0.9153 0.9152 0.9151
2134.000000 0.9150 0.9149 0.9148 0.9147 0.9146
2139.000000 0.9145 0.9144 0.9143 0.9142 0.9141
2144.000000 0.9140 0.9138 0.9138 0.9137 0.9137
2149.000000 0.9137 0.9137 0.9135 0.9135 0.9135
2154.000000 0.9135 0.9134 0.9134 0.9134 0.9134
2159.000000 0.9133 0.9133 0.9131 0.9131 0.9131
2164.000000 0.9131 0.9131 0.9131 0.9130 0.9130
2169.000000 0.9144 0.9147 0.9147 0.9147 0.9147
2174.000000 0.9147 0.9147 0.9149 0.9149 0.9147
2179.000000 0.9134 0.9134 0.9134 0.9135 0.9142
2184.000000 0.9144 0.9135 0.9135 0.9135 0.9137
2189.000000 0.9137 0.9137 0.9137 0.9139 0.9151
2194.000000 0.9155 0.9141 0.9153 0.9155 0.9155
2199.000000 0.9155 0.9154 0.9152 0.9152 0.9151
2204.000000 0.9150 0.9148 0.9148 0.9147 0.9145
2209.000000 0.9145 0.9144 0.9143 0.9142 0.9141
2214.000000 0.9141 0.9140 0.9140 0.9140 0.9140
2219.000000 0.9140 0.9140 0.9139 0.9152 0.9155
2224.000000 0.9155 0.9155 0.9155 0.9155 0.9155
2229.000000 0.9154 0.9154 0.9154 0.9154 0.9154
2234.000000 0.9154 0.9158 0.9170 0.9169 0.9168
2239.000000 0.9165 0.9164 0.9163 0.9162 0.9159
2244.000000 0.9157 0.9165 0.9168 0.9161 0.9152
2249.000000 0.9145 0.9140 0.9147 0.9142 0.9135
2254.000000 0.9128 0.9137 0.9129 0.9122 0.9118
2259.000000 0.9124 0.9117 0.9114 0.9119 0.9111
2264.000000 0.9104 0.9103 0.9105 0.9098 0.9090
2269.000000 0.9090 0.9088 0.9077 0.9078 0.9073
2274.000000 0.9063 0.9054 0.9058 0.9057 0.9055
2279.000000 0.9067 0.9066 0.9066 0.9066 0.9070
2284.000000 0.9087 0.9089 0.9091 0.9093 0.9089
2289.000000 0.9113 0.9116 0.9118 0.9121 0.9123
2294.000000 0.9126 0.9128 0.9132 0.9134 0.9137
2299.000000 0.9128 0.9126 0.9128 0.9131 0.9136
2304.000000 0.9141 0.9145 0.9150 0.9154 0.9158
2309.000000 0.9163 0.9167 0.9171 0.9176 0.9179
2314.000000 0.9183 0.9187 0.9191 0.9195 0.9200
2319.000000 0.9202 0.9207 0.9211 0.9216 0.9219
2324.000000 0.9223 0.9217 0.9215 0.9207 0.9206
2329.000000 0.9211 0.9215 0.9204 0.9206 0.9209
2334.000000 0.9213 0.9200 0.9206 0.9226 0.9229
2339.000000 0.9220 0.9238 0.9241 0.9246 0.9249
2344.000000 0.9258 0.9271 0.9273 0.9268 0.9254
2349.000000 0.9246 0.9250 0.9262 0.9273 0.9275
2354.000000 0.9278 0.9279 0.9267 0.9250 0.9248
2359.000000 0.9233 0.9232 0.9217 0.9218 0.9218
2364.000000 0.9219 0.9219 0.9220 0.9220 0.9220
2369.000000 0.9224 0.9236 0.9235 0.9233 0.9232
2374.000000 0.9224 0.9214 0.9213 0.9203 0.9195
2379.000000 0.9184 0.9176 0.9173 0.9158 0.9149
2384.000000 0.9146 0.9129 0.9123 0.9119 0.9116
2389.000000 0.9113 0.9093 0.9092 0.9091 0.9090
2394.000000 0.9090 0.9089 0.9089 0.9088 0.9088
2399.000000 0.9089 0.9090 0.9092 0.9094 0.9098
2404.000000 0.9101 0.9104 0.9107 0.9100 0.9108
2409.000000 0.9103 0.9102 0.9103 0.9103 0.9103
2414.000000 0.9103 0.9103 0.9103 0.9102 0.9102
2419.000000 0.9102 0.9102 0.9101 0.9101 0.9098
2424.000000 0.9098 0.9099 0.9099 0.9099 0.9097
2429.000000 0.9095 0.9095 0.9094 0.9093 0.9092
2434.000000 0.9091 0.9090 0.9089 0.9088 0.9087
2439.000000 0.9085 0.9084 0.9083 0.9082 0.9080
2444.000000 0.9079 0.9077 0.9076 0.9074 0.9072
2449.000000 0.9068 0.9058 0.9068 0.9067 0.9060
2454.000000 0.9048 0.9046 0.9051 0.9050 0.9048
2459.000000 0.9054 0.9051 0.9051 0.9051 0.9054
2464.000000 0.9057 0.9060 0.9064 0.9069 0.9074
2469.000000 0.9078 0.9083 0.9088 0.9093 0.9096
2474.000000 0.9102 0.9106 0.9109 0.9112 0.9115
2479.000000 0.9118 0.9122 0.9117 0.9109 0.9110
2484.000000 0.9112 0.9113 0.9114 0.9115 0.9116
2489.000000 0.9117 0.9118 0.9119 0.9120 0.9120
2494.000000 0.9120 0.9120 0.9120 0.9120 0.9120
2499.000000 0.9119 0.9119 0.9118 0.9118 0.9117
2504.000000 0.9117 0.9115 0.9114 0.9112 0.9111
2509.000000 0.9109 0.9108 0.9106 0.9105 0.9102
2514.000000 0.9101 0.9099 0.9098 0.9096 0.9095
2519.000000 0.9094 0.9093 0.9091 0.9090 0.9088
2524.000000 0.9088 0.9086 0.9084 0.9083 0.9081
2529.000000 0.9081 0.9080 0.9077 0.9076 0.9075
2534.000000 0.9074 0.9072 0.9071 0.9070 0.9069
2539.000000 0.9067 0.9066 0.9064 0.9063 0.9061
2544.000000 0.9060 0.9058 0.9057 0.9056 0.9056
2549.000000 0.9057 0.9059 0.9060 0.9062 0.9064
2554.000000 0.9066 0.9069 0.9073 0.9078 0.9083
2559.000000 0.9088 0.9095 0.9100 0.9105 0.9107
2564.000000 0.9110 0.9111 0.9113 0.9114 0.9115
2569.000000 0.9116 0.9117 0.9117 0.9118 0.9118
2574.000000 0.9119 0.9119 0.9120 0.9120 0.9120
2579.000000 0.9119 0.9118 0.9117 0.9116 0.9115
2584.000000 0.9115 0.9114 0.9113 0.9112 0.9111
2589.000000 0.9110 0.9109 0.9108 0.9107 0.9106
2594.000000 0.9105 0.9104 0.9103 0.9102 0.9101
2599.000000 0.9099 0.9096 0.9094 0.9092 0.9091
2604.000000 0.9089 0.9087 0.9085 0.9084 0.9082
2609.000000 0.9080 0.9079 0.9077 0.9075 0.9072
2614.000000 0.9071 0.9069 0.9068 0.9066 0.9065
2619.000000 0.9063 0.9062 0.9060 0.9059 0.9057
2624.000000 0.9056 0.9054 0.9052 0.9049 0.9047
2629.000000 0.9044 0.9028 0.9024 0.9036 0.9036
2634.000000 0.9032 0.9015 0.9013 0.9010 0.9008
2639.000000 0.9006 0.9004 0.9004 0.9008 0.8992
2644.000000 0.8989 0.8994 0.9001 0.9010 0.9011
2649.000000 0.9009 0.9016 0.9031 0.9045 0.9047
2654.000000 0.9047 0.9047 0.9045 0.9037 0.9018
2659.000000 0.9008 0.9001 0.8993 0.8984 0.8968
2664.000000 0.8953 0.8936 0.8919 0.8895 0.8871
2669.000000 0.8836 0.8801 0.8763 0.8727 0.8673
2674.000000 0.8619 0.8591 0.8564 0.8561 0.8560
2679.000000 0.8559 0.8558 0.8579 0.8600 0.8632
2684.000000 0.8664 0.8698 0.8734 0.8760 0.8787
2689.000000 0.8847 0.8907 0.8919 0.8932 0.8941
2694.000000 0.8950 0.8954 0.8960 0.8964 0.8968
2699.000000 0.8969 0.8972 0.8972 0.8974 0.8975
2704.000000 0.8976 0.8978 0.8979 0.8980 0.8981
2709.000000 0.8981 0.8982 0.8982 0.8982 0.8982
2714.000000 0.8982 0.8982 0.8982 0.8982 0.8982
2719.000000 0.8981 0.8980 0.8979 0.8978 0.8977
2724.000000 0.8976 0.8975 0.8973 0.8973 0.8972
2729.000000 0.8969 0.8970 0.8970 0.8970 0.8970
2734.000000 0.8970 0.8970 0.8970 0.8970 0.8970
2739.000000 0.8970 0.8970 0.8970 0.8970 0.8970
2744.000000 0.8970 0.8970 0.8970 0.8970 0.8970
2749.000000 0.8970 0.8970 0.8970 0.8972 0.8972
2754.000000 0.8973 0.8973 0.8973 0.8973 0.8973
2759.000000 0.8973 0.8973 0.8970 0.8966 0.8962
2764.000000 0.8957 0.8952 0.8947 0.8941 0.8935
2769.000000 0.8929 0.8923 0.8916 0.8910 0.8904
2774.000000 0.8898 0.8890 0.8884 0.8877 0.8868
2779.000000 0.8861 0.8854 0.8840 0.8825 0.8824
2784.000000 0.8825 0.8809 0.8794 0.8787 0.8780
2789.000000 0.8775 0.8782 0.8775 0.8787 0.8790
2794.000000 0.8793 0.8795 0.8795 0.8796 0.8796
2799.000000 0.8792 0.8788 0.8784 0.8781 0.8777
2804.000000 0.8774 0.8765 0.8756 0.8749 0.8734
2809.000000 0.8716 0.8709 0.8697 0.8687 0.8673
2814.000000 0.8659 0.8645 0.8630 0.8611 0.8593
2819.000000 0.8586 0.8569 0.8546 0.8511 0.8503
2824.000000 0.8467 0.8432 0.8411 0.8371 0.8322
2829.000000 0.8283 0.8219 0.8165 0.8109 0.8050
2834.000000 0.7992 0.7933 0.7881 0.7828 0.7768
2839.000000 0.7699 0.7641 0.7583 0.7520 0.7436
2844.000000 0.7371 0.7303 0.7230 0.7151 0.7081
2849.000000 0.7012 0.6945 0.6862 0.6779 0.6650
2854.000000 0.6525 0.6367 0.6200 0.6032 0.5865
2859.000000 0.5698 0.5530 0.5362 0.5194 0.5027
2864.000000 0.4860 0.4692 0.4525 0.4358 0.4190
2869.000000 0.4022 0.3854 0.3687 0.3520 0.3352
2874.000000 0.3112 0.3137 0.3090 0.3087 0.3098
2879.000000 0.3283 0.3468 0.3679 0.3889 0.4099
2884.000000 0.4309 0.4519 0.4729 0.4940 0.5151
2889.000000 0.5364 0.5578 0.5641 0.5704 0.5743
2894.000000 0.5785 0.5937 0.6090 0.6262 0.6435
2899.000000 0.6816 0.7200 0.7265 0.7329 0.7357
2904.000000 0.7386 0.7389 0.7389 0.7403 0.7398
2909.000000 0.7378 0.7374 0.7359 0.7346 0.7321
2914.000000 0.7296 0.7270 0.7244 0.7203 0.7163
2919.000000 0.7108 0.7052 0.6993 0.6941 0.6887
2924.000000 0.6827 0.6760 0.6692 0.6577 0.6463
2929.000000 0.6339 0.6217 0.6092 0.5969 0.5846
2934.000000 0.5723 0.5636 0.5557 0.5561 0.5542
2939.000000 0.5681 0.5795 0.5908 0.6029 0.6142
2944.000000 0.6262 0.6258 0.6261 0.6249 0.6324
2949.000000 0.6219 0.6200 0.6177 0.6153 0.6116
2954.000000 0.6070 0.6015 0.5964 0.5916 0.5881
2959.000000 0.5830 0.5770 0.5732 0.5693 0.5656
2964.000000 0.5619 0.5593 0.5567 0.5563 0.5563
2969.000000 0.5559 0.5557 0.5566 0.5536 0.5599
2974.000000 0.5622 0.5671 0.5722 0.5822 0.5933
2979.000000 0.6085 0.6224 0.6311 0.6401 0.6464
2984.000000 0.6526 0.6602 0.6676 0.6759 0.6843
2989.000000 0.6939 0.7036 0.7074 0.7110 0.7107
2994.000000 0.7097 0.7097 0.7097 0.7094 0.7090
2999.000000 0.7092 0.7086 0.7075 0.7070 0.7073
3004.000000 0.7074 0.7096 0.7108 0.7184 0.7276
3009.000000 0.7331 0.7382 0.7472 0.7564 0.7695
3014.000000 0.7827 0.7904 0.7984 0.8047 0.8097
3019.000000 0.8145 0.8183 0.8225 0.8267 0.8292
3024.000000 0.8318 0.8337 0.8356 0.8380 0.8404
3029.000000 0.8420 0.8446 0.8468 0.8484 0.8511
3034.000000 0.8543 0.8560 0.8586 0.8615 0.8630
3039.000000 0.8643 0.8656 0.8653 0.8648 0.8644
3044.000000 0.8641 0.8636 0.8643 0.8638 0.8645
3049.000000 0.8652 0.8660 0.8660 0.8657 0.8663
3054.000000 0.8678 0.8683 0.8683 0.8699 0.8710
3059.000000 0.8714 0.8708 0.8707 0.8711 0.8716
3064.000000 0.8733 0.8740 0.8744 0.8748 0.8767
3069.000000 0.8757 0.8777 0.8782 0.8790 0.8807
3074.000000 0.8809 0.8801 0.8806 0.8804 0.8794
3079.000000 0.8788 0.8792 0.8796 0.8799 0.8803
3084.000000 0.8808 0.8822 0.8843 0.8842 0.8842
3089.000000 0.8859 0.8878 0.8885 0.8900 0.8905
3094.000000 0.8904 0.8904 0.8884 0.8864 0.8845
3099.000000 0.8841 0.8835 0.8818 0.8815 0.8812
3104.000000 0.8810 0.8808 0.8805 0.8796 0.8786
3109.000000 0.8787 0.8788 0.8789 0.8790 0.8791
3114.000000 0.8793 0.8794 0.8795 0.8797 0.8799
3119.000000 0.8800 0.8802 0.8803 0.8806 0.8807
3124.000000 0.8809 0.8810 0.8812 0.8814 0.8815
3129.000000 0.8818 0.8820 0.8822 0.8825 0.8826
3134.000000 0.8828 0.8830 0.8832 0.8834 0.8836
3139.000000 0.8838 0.8840 0.8830 0.8828 0.8829
3144.000000 0.8831 0.8832 0.8834 0.8835 0.8837
3149.000000 0.8854 0.8856 0.8857 0.8858 0.8859
3154.000000 0.8859 0.8847 0.8853 0.8861 0.8857
3159.000000 0.8868 0.8870 0.8864 0.8862 0.8871
3164.000000 0.8865 0.8857 0.8858 0.8858 0.8859
3169.000000 0.8859 0.8859 0.8859 0.8862 0.8862
3174.000000 0.8863 0.8863 0.8863 0.8863 0.8865
3179.000000 0.8865 0.8866 0.8866 0.8867 0.8867
3184.000000 0.8868 0.8868 0.8875 0.8885 0.8886
3189.000000 0.8879 0.8879 0.8887 0.8888 0.8888
3194.000000 0.8889 0.8889 0.8878 0.8884 0.8876
3199.000000 0.8886 0.8875 0.8871 0.8871 0.8871
3204.000000 0.8871 0.8871 0.8871 0.8870 0.8873
3209.000000 0.8886 0.8886 0.8887 0.8887 0.8885
3214.000000 0.8886 0.8886 0.8886 0.8885 0.8885
3219.000000 0.8885 0.8885 0.8885 0.8885 0.8884
3224.000000 0.8884 0.8871 0.8868 0.8881 0.8884
3229.000000 0.8883 0.8883 0.8882 0.8882 0.8880
3234.000000 0.8880 0.8878 0.8876 0.8876 0.8876
3239.000000 0.8875 0.8875 0.8874 0.8872 0.8872
3244.000000 0.8864 0.8861 0.8869 0.8869 0.8868
3249.000000 0.8867 0.8867 0.8866 0.8865 0.8864
3254.000000 0.8864 0.8863 0.8847 0.8860 0.8860
3259.000000 0.8859 0.8859 0.8858 0.8857 0.8856
3264.000000 0.8856 0.8855 0.8854 0.8853 0.8853
3269.000000 0.8852 0.8851 0.8850 0.8850 0.8849
3274.000000 0.8848 0.8847 0.8836 0.8830 0.8840
3279.000000 0.8844 0.8831 0.8827 0.8840 0.8840
3284.000000 0.8825 0.8823 0.8822 0.8821 0.8821
3289.000000 0.8820 0.8819 0.8818 0.8818 0.8817
3294.000000 0.8816 0.8815 0.8814 0.8812 0.8812
3299.000000 0.8812 0.8811 0.8809 0.8809 0.8808
3304.000000 0.8818 0.8821 0.8821 0.8807 0.8817
3309.000000 0.8818 0.8818 0.8817 0.8816 0.8799
3314.000000 0.8798 0.8798 0.8798 0.8798 0.8799
3319.000000 0.8799 0.8800 0.8800 0.8801 0.8801
3324.000000 0.8801 0.8801 0.8802 0.8802 0.8802
3329.000000 0.8802 0.8802 0.8802 0.8804 0.8804
3334.000000 0.8805 0.8805 0.8819 0.8821 0.8821
3339.000000 0.8806 0.8805 0.8806 0.8820 0.8807
3344.000000 0.8821 0.8818 0.8806 0.8806 0.8806
3349.000000 0.8805 0.8805 0.8805 0.8805 0.8802
3354.000000 0.8803 0.8803 0.8803 0.8803 0.8803
3359.000000 0.8803 0.8803 0.8802 0.8802 0.8802
3364.000000 0.8802 0.8801 0.8801 0.8801 0.8801
3369.000000 0.8802 0.8815 0.8801 0.8802 0.8802
3374.000000 0.8803 0.8803 0.8803 0.8803 0.8805
3379.000000 0.8805 0.8806 0.8806 0.8806 0.8806
3384.000000 0.8808 0.8808 0.8809 0.8809 0.8810
3389.000000 0.8810 0.8810 0.8810 0.8810 0.8810
3394.000000 0.8813 0.8813 0.8814 0.8814 0.8814
3399.000000 0.8814 0.8816 0.8816 0.8817 0.8817
3404.000000 0.8818 0.8818 0.8826 0.8827 0.8820
3409.000000 0.8822 0.8824 0.8826 0.8829 0.8830
3414.000000 0.8832 0.8834 0.8836 0.8838 0.8840
3419.000000 0.8842 0.8844 0.8846 0.8849 0.8850
3424.000000 0.8850 0.8840 0.8856 0.8858 0.8859
3429.000000 0.8862 0.8863 0.8866 0.8869 0.8870
3434.000000 0.8872 0.8874 0.8876 0.8878 0.8880
3439.000000 0.8881 0.8883 0.8884 0.8887 0.8888
3444.000000 0.8889 0.8890 0.8892 0.8893 0.8894
3449.000000 0.8895 0.8897 0.8898 0.8900 0.8901
3454.000000 0.8902 0.8903 0.8906 0.8907 0.8908
3459.000000 0.8909 0.8911 0.8912 0.8914 0.8915
3464.000000 0.8916 0.8916 0.8919 0.8919 0.8921
3469.000000 0.8923 0.8925 0.8926 0.8927 0.8928
3474.000000 0.8930 0.8931 0.8932 0.8933 0.8935
3479.000000 0.8936 0.8938 0.8939 0.8941 0.8942
3484.000000 0.8944 0.8945 0.8946 0.8946 0.8946
3489.000000 0.8946 0.8947 0.8947 0.8948 0.8948
3494.000000 0.8949 0.8949 0.8949 0.8949 0.8948
3499.000000 0.8947 0.8947 0.8946 0.8945 0.8944
3504.000000 0.8944 0.8943 0.8942 0.8940 0.8939
3509.000000 0.8937 0.8935 0.8933 0.8932 0.8929
3514.000000 0.8928 0.8926 0.8924 0.8923 0.8923
3519.000000 0.8924 0.8926 0.8932 0.8937 0.8942
3524.000000 0.8947 0.8953 0.8958 0.8961 0.8965
3529.000000 0.8965 0.8982 0.8982 0.8984 0.8984
3534.000000 0.8985 0.8985 0.8986 0.8981 0.8975
3539.000000 0.8980 0.8978 0.8988 0.8989 0.8989
3544.000000 0.8981 0.8984 0.8993 0.8995 0.8998
3549.000000 0.8987 0.8997 0.9002 0.9004 0.8992
3554.000000 0.8992 0.9010 0.8999 0.9001 0.9005
3559.000000 0.9006 0.9008 0.9004 0.9000 0.8996
3564.000000 0.8993 0.8985 0.8976 0.8966 0.8958
3569.000000 0.8943 0.8928 0.8917 0.8915 0.8922
3574.000000 0.8922 0.8922 0.8939 0.8961 0.8979
3579.000000 0.8998 0.9017 0.9023 0.9031 0.9031
3584.000000 0.9031 0.9031 0.9031 0.9029 0.9028
3589.000000 0.9014 0.9001 0.8985 0.8969 0.8948
3594.000000 0.8927 0.8925 0.8924 0.8927 0.8925
3599.000000 0.8923 0.8939 0.8956 0.8956 0.8974
3604.000000 0.8990 0.8995 0.8999 0.9004 0.8995
3609.000000 0.9013 0.9021 0.9026 0.9032 0.9035
3614.000000 0.9042 0.9046 0.9051 0.9055 0.9059
3619.000000 0.9063 0.9067 0.9070 0.9074 0.9077
3624.000000 0.9082 0.9085 0.9088 0.9091 0.9084
3629.000000 0.9081 0.9096 0.9104 0.9107 0.9096
3634.000000 0.9096 0.9098 0.9101 0.9101 0.9102
3639.000000 0.9103 0.9104 0.9104 0.9105 0.9106
3644.000000 0.9107 0.9108 0.9108 0.9109 0.9109
3649.000000 0.9109 0.9109 0.9108 0.9108 0.9107
3654.000000 0.9107 0.9107 0.9107 0.9106 0.9106
3659.000000 0.9102 0.9099 0.9095 0.9091 0.9087
3664.000000 0.9084 0.9079 0.9075 0.9071 0.9067
3669.000000 0.9065 0.9072 0.9054 0.9051 0.9047
3674.000000 0.9043 0.9039 0.9035 0.9030 0.9026
3679.000000 0.9022 0.9017 0.9019 0.9020 0.9023
3684.000000 0.9026 0.9035 0.9043 0.9065 0.9076
3689.000000 0.9083 0.9089 0.9096 0.9103 0.9109
3694.000000 0.9115 0.9119 0.9127 0.9145 0.9151
3699.000000 0.9155 0.9160 0.9161 0.9162 0.9164
3704.000000 0.9165 0.9165 0.9168 0.9168 0.9169
3709.000000 0.9170 0.9160 0.9165 0.9160 0.9155
3714.000000 0.9155 0.9155 0.9155 0.9155 0.9140
3719.000000 0.9139 0.9155 0.9155 0.9155 0.9154
3724.000000 0.9154 0.9154 0.9154 0.9153 0.9153
3729.000000 0.9153 0.9153 0.9154 0.9146 0.9136
3734.000000 0.9145 0.9151 0.9151 0.9149 0.9148
3739.000000 0.9135 0.9129 0.9126 0.9125 0.9123
3744.000000 0.9122 0.9119 0.9117 0.9115 0.9114
3749.000000 0.9112 0.9111 0.9108 0.9105 0.9102
3754.000000 0.9100 0.9097 0.9093 0.9090 0.9088
3759.000000 0.9092 0.9091 0.9080 0.9078 0.9076
3764.000000 0.9074 0.9071 0.9071 0.9068 0.9066
3769.000000 0.9064 0.9062 0.9062 0.9062 0.9065
3774.000000 0.9069 0.9055 0.9074 0.9077 0.9079
3779.000000 0.9071 0.9089 0.9088 0.9080 0.9084
3784.000000 0.9094 0.9109 0.9113 0.9117 0.9122
3789.000000 0.9126 0.9131 0.9134 0.9139 0.9143
3794.000000 0.9147 0.9139 0.9153 0.9146 0.9148
3799.000000 0.9148 0.9149
##END=
