##TITLE=SUCCINIC ACID, BIS(2,2,4,4-TETRA METHYL-3-OXOCYCLOBUTYL) ESTER
##JCAMP-DX=4.24
##DATA TYPE=INFRARED SPECTRUM
##CLASS=COBLENTZ
##ORIGIN=TENNESSEE EASTMAN COMPANY, RESEARCH LABORATORIES
##OWNER=COBLENTZ SOCIETY
Collection (C) 2018 copyright by the U.S. Secretary of Commerce
on behalf of the United States of America. All rights reserved.
##DATE=Not specified, most likely prior to 1970
##NAMES=3-oxo-3-[(2,2,4,4-tetramethyl-3-oxocyclobutyl)oxy]propyl 2,2,4,4-tetramethyl-3-oxocyclobutanecarboxylate
##MOLFORM=C20 H30 O6
##MP=99-101 C
##BP=174 C AT 2 mmHg
##SOURCE REFERENCE=COBLENTZ NO. 1741
##$NIST ID=B6001741
##$NIST SOURCE=COBLENTZ
##$NIST IMAGE=cob1741
##SPECTROMETER/DATA SYSTEM=Not specified, most likely a prism, grating, or hybrid spectrometer.
##STATE=SOLID (KBr PELLET)
##SAMPLING PROCEDURE=TRANSMISSION
##RESOLUTION=4
##DATA PROCESSING=DIGITIZED BY NIST FROM HARD COPY
##XUNITS=MICROMETERS
##YUNITS=TRANSMITTANCE
##XFACTOR=1.000000
##YFACTOR=1
##DELTAX=000.006819
##FIRSTX=2.061
##LASTX=16.0071
##FIRSTY=0.717
##MAXX=16.0071
##MINX=2.061
##MAXY=0.96
##MINY=0.006
##NPOINTS=2046
##XYDATA=(X++(Y..Y))
2.061000 0.7170 0.7180 0.7180 0.7180 0.7200
2.095113 0.7200 0.7240 0.7240 0.7270 0.7300
2.130000 0.7300 0.7320 0.7320 0.7350 0.7390
2.164113 0.7410 0.7420 0.7420 0.7440 0.7440
2.198000 0.7460 0.7490 0.7510 0.7510 0.7510
2.232113 0.7510 0.7510 0.7510 0.7510 0.7490
2.266000 0.7460 0.7440 0.7440 0.7440 0.7470
2.300113 0.7510 0.7520 0.7540 0.7580 0.7590
2.334000 0.7610 0.7630 0.7640 0.7640 0.7640
2.368113 0.7640 0.7660 0.7660 0.7680 0.7680
2.402000 0.7700 0.7700 0.7710 0.7730 0.7750
2.436113 0.7780 0.7810 0.7830 0.7830 0.7870
2.471000 0.7870 0.7880 0.7900 0.7920 0.7920
2.505113 0.7930 0.7930 0.7950 0.7930 0.7970
2.539000 0.7970 0.7980 0.7980 0.8000 0.8020
2.573113 0.8020 0.8020 0.8040 0.8040 0.8040
2.607000 0.8040 0.8050 0.8070 0.8090 0.8100
2.641113 0.8120 0.8140 0.8160 0.8170 0.8170
2.675000 0.8170 0.8190 0.8190 0.8190 0.8190
2.709113 0.8190 0.8190 0.8190 0.8170 0.8160
2.743000 0.8120 0.8100 0.8020 0.8000 0.7970
2.777113 0.7880 0.7810 0.7760 0.7700 0.7630
2.811000 0.7560 0.7470 0.7350 0.7340 0.7350
2.845113 0.7410 0.7460 0.7490 0.7490 0.7420
2.880000 0.7440 0.7510 0.7520 0.7520 0.7460
2.914113 0.7460 0.7490 0.7580 0.7630 0.7660
2.948000 0.7700 0.7730 0.7780 0.7810 0.7870
2.982113 0.7900 0.7950 0.8000 0.8050 0.8090
3.016000 0.8120 0.8160 0.8190 0.8210 0.8210
3.050113 0.8220 0.8220 0.8240 0.8260 0.8290
3.084000 0.8310 0.8330 0.8340 0.8340 0.8360
3.118113 0.8360 0.8380 0.8390 0.8410 0.8410
3.152000 0.8410 0.8430 0.8440 0.8500 0.8500
3.186113 0.8530 0.8580 0.8600 0.8680 0.8750
3.221000 0.8790 0.8820 0.8840 0.8840 0.8850
3.255113 0.8850 0.8850 0.8850 0.8850 0.8850
3.289000 0.8840 0.8820 0.8770 0.8620 0.8410
3.323113 0.8000 0.6910 0.5820 0.4320 0.2810
3.357000 0.2790 0.2810 0.4080 0.4200 0.4370
3.391113 0.4370 0.4370 0.4410 0.5510 0.5860
3.425000 0.6380 0.7050 0.7050 0.6790 0.6520
3.459113 0.5860 0.5840 0.5870 0.7340 0.8070
3.493000 0.8670 0.8850 0.8990 0.9130 0.9190
3.527113 0.9210 0.9230 0.9250 0.9260 0.9280
3.562000 0.9300 0.9300 0.9330 0.9360 0.9400
3.596113 0.9450 0.9480 0.9500 0.9500 0.9500
3.630000 0.9500 0.9500 0.9500 0.9500 0.9500
3.664113 0.9500 0.9500 0.9500 0.9500 0.9480
3.698000 0.9480 0.9480 0.9500 0.9500 0.9540
3.732113 0.9550 0.9570 0.9590 0.9590 0.9600
3.766000 0.9600 0.9600 0.9600 0.9600 0.9600
3.800113 0.9600 0.9600 0.9600 0.9590 0.9570
3.834000 0.9570 0.9570 0.9570 0.9570 0.9570
3.868113 0.9570 0.9570 0.9570 0.9590 0.9590
3.903000 0.9590 0.9590 0.9590 0.9590 0.9590
3.937113 0.9590 0.9590 0.9590 0.9600 0.9600
3.971000 0.9600 0.9600 0.9600 0.9600 0.9600
4.005113 0.9590 0.9590 0.9590 0.9590 0.9590
4.039000 0.9570 0.9570 0.9570 0.9570 0.9570
4.073113 0.9570 0.9570 0.9570 0.9570 0.9570
4.107000 0.9570 0.9550 0.9550 0.9540 0.9540
4.141113 0.9540 0.9540 0.9540 0.9520 0.9520
4.175000 0.9500 0.9500 0.9470 0.9450 0.9450
4.209113 0.9450 0.9480 0.9480 0.9480 0.9480
4.244000 0.9470 0.9450 0.9420 0.9420 0.9380
4.278113 0.9350 0.9310 0.9300 0.9280 0.9280
4.312000 0.9280 0.9280 0.9300 0.9310 0.9350
4.346113 0.9380 0.9430 0.9480 0.9480 0.9500
4.380000 0.9500 0.9520 0.9520 0.9520 0.9540
4.414113 0.9540 0.9540 0.9540 0.9540 0.9540
4.448000 0.9540 0.9540 0.9540 0.9540 0.9540
4.482113 0.9540 0.9540 0.9540 0.9540 0.9540
4.516000 0.9520 0.9520 0.9520 0.9520 0.9520
4.550113 0.9520 0.9520 0.9520 0.9500 0.9500
4.585000 0.9500 0.9500 0.9500 0.9500 0.9500
4.619113 0.9500 0.9480 0.9480 0.9480 0.9480
4.653000 0.9480 0.9480 0.9480 0.9480 0.9480
4.687113 0.9480 0.9480 0.9480 0.9470 0.9470
4.721000 0.9450 0.9430 0.9430 0.9420 0.9420
4.755113 0.9400 0.9380 0.9380 0.9360 0.9350
4.789000 0.9330 0.9330 0.9330 0.9330 0.9350
4.823113 0.9350 0.9360 0.9360 0.9360 0.9360
4.857000 0.9360 0.9360 0.9360 0.9360 0.9360
4.891113 0.9360 0.9360 0.9360 0.9380 0.9400
4.925000 0.9400 0.9420 0.9450 0.9470 0.9470
4.959113 0.9470 0.9450 0.9450 0.9470 0.9470
4.994000 0.9470 0.9470 0.9480 0.9500 0.9500
5.028113 0.9500 0.9500 0.9500 0.9500 0.9450
5.062000 0.9450 0.9430 0.9380 0.9380 0.9360
5.096113 0.9360 0.9330 0.9310 0.9280 0.9230
5.130000 0.9230 0.9230 0.9230 0.9250 0.9280
5.164113 0.9310 0.9330 0.9330 0.9330 0.9330
5.198000 0.9310 0.9300 0.9260 0.9210 0.9190
5.232113 0.9190 0.9190 0.9230 0.9250 0.9260
5.266000 0.9280 0.9300 0.9300 0.9300 0.9300
5.300113 0.9300 0.9300 0.9260 0.9190 0.9160
5.335000 0.9130 0.9110 0.9110 0.9080 0.9040
5.369113 0.8970 0.8920 0.8850 0.8770 0.8670
5.403000 0.8560 0.8510 0.8460 0.8410 0.8330
5.437113 0.8270 0.8220 0.8210 0.8190 0.8120
5.471000 0.8050 0.7970 0.7870 0.7610 0.7370
5.505113 0.7130 0.6860 0.6590 0.6030 0.5890
5.539000 0.5550 0.5210 0.5110 0.4920 0.4510
5.573113 0.3810 0.3500 0.2750 0.2010 0.0060
5.607000 0.0060 0.0110 0.0180 0.0420 0.0660
5.641113 0.1000 0.1830 0.2120 0.2820 0.3150
5.676000 0.3470 0.3470 0.3180 0.2890 0.2010
5.710113 0.1490 0.0230 0.0180 0.0200 0.0230
5.744000 0.0270 0.0370 0.0400 0.0780 0.0830
5.778113 0.2280 0.3010 0.3230 0.3830 0.4580
5.812000 0.5240 0.5860 0.6160 0.6600 0.7300
5.846113 0.7440 0.7510 0.7520 0.7560 0.7580
5.880000 0.7590 0.7590 0.7660 0.7750 0.7760
5.914113 0.8000 0.8160 0.8210 0.8220 0.8220
5.948000 0.8260 0.8270 0.8390 0.8410 0.8480
5.982113 0.8500 0.8500 0.8530 0.8600 0.8670
6.017000 0.8680 0.8680 0.8680 0.8680 0.8680
6.051113 0.8650 0.8630 0.8510 0.8430 0.8430
6.085000 0.8430 0.8430 0.8440 0.8480 0.8510
6.119113 0.8550 0.8580 0.8620 0.8650 0.8650
6.153000 0.8700 0.8720 0.8730 0.8770 0.8800
6.187113 0.8840 0.8890 0.8890 0.8940 0.8990
6.221000 0.9020 0.9040 0.9060 0.9090 0.9140
6.255113 0.9160 0.9180 0.9190 0.9210 0.9210
6.289000 0.9230 0.9260 0.9260 0.9280 0.9300
6.323113 0.9300 0.9280 0.9250 0.9210 0.9210
6.358000 0.9210 0.9210 0.9190 0.9190 0.9190
6.392113 0.9180 0.9160 0.9090 0.9040 0.9060
6.426000 0.9080 0.9110 0.9190 0.9190 0.9180
6.460113 0.9090 0.9020 0.9010 0.9010 0.9010
6.494000 0.9010 0.9060 0.9090 0.9110 0.9130
6.528113 0.9130 0.9090 0.9020 0.8970 0.8920
6.562000 0.8900 0.8900 0.8920 0.8990 0.9010
6.596113 0.9010 0.9010 0.8990 0.8920 0.8920
6.630000 0.8920 0.8920 0.8920 0.8900 0.8890
6.664113 0.8870 0.8840 0.8730 0.8700 0.8580
6.698000 0.8510 0.8480 0.8410 0.8210 0.8050
6.732113 0.7640 0.7350 0.6910 0.6370 0.5800
6.767000 0.5510 0.4320 0.3110 0.2960 0.2820
6.801113 0.2810 0.2840 0.2930 0.2960 0.2960
6.835000 0.2990 0.3710 0.3930 0.4490 0.4680
6.869113 0.4730 0.4880 0.5190 0.5570 0.5910
6.903000 0.6350 0.6500 0.6570 0.6710 0.6760
6.937113 0.7030 0.7350 0.7590 0.7630 0.7680
6.971000 0.7680 0.7700 0.7680 0.7580 0.7460
7.005113 0.7340 0.7240 0.6740 0.6640 0.6520
7.039000 0.3910 0.3450 0.3080 0.2690 0.2480
7.073113 0.2470 0.2500 0.2580 0.2820 0.3040
7.108000 0.3880 0.4200 0.4420 0.4970 0.5090
7.142113 0.5280 0.5280 0.5190 0.4850 0.4290
7.176000 0.3930 0.3620 0.3470 0.3320 0.3010
7.210113 0.2990 0.2310 0.1890 0.1680 0.1560
7.244000 0.1440 0.1310 0.1270 0.1240 0.1270
7.278113 0.1460 0.1720 0.2070 0.2210 0.2570
7.312000 0.2570 0.2570 0.2570 0.2570 0.2600
7.346113 0.2840 0.3250 0.4710 0.4880 0.4880
7.380000 0.4750 0.4610 0.3850 0.3060 0.3030
7.414113 0.2890 0.2500 0.1990 0.1970 0.1990
7.449000 0.2500 0.3040 0.4490 0.4560 0.5770
7.483113 0.5790 0.7420 0.7730 0.8210 0.8220
7.517000 0.8240 0.8270 0.8410 0.8530 0.8600
7.551113 0.8630 0.8680 0.8680 0.8700 0.8700
7.585000 0.8730 0.8730 0.8770 0.8800 0.8840
7.619113 0.8840 0.8840 0.8840 0.8840 0.8840
7.653000 0.8840 0.8840 0.8820 0.8800 0.8770
7.687113 0.8700 0.8700 0.8650 0.8620 0.8560
7.721000 0.8510 0.8460 0.8430 0.8390 0.8220
7.755113 0.8190 0.8140 0.7870 0.7710 0.7250
7.790000 0.6930 0.6740 0.6540 0.6230 0.5600
7.824113 0.5480 0.5360 0.5340 0.5380 0.5680
7.858000 0.5870 0.6010 0.6570 0.6830 0.6980
7.892113 0.7150 0.7250 0.7320 0.7350 0.7350
7.926000 0.7350 0.7340 0.7300 0.7300 0.7250
7.960113 0.7150 0.7120 0.7050 0.6980 0.6880
7.994000 0.6780 0.6760 0.6640 0.6520 0.6320
8.028113 0.5960 0.5650 0.5500 0.5020 0.4990
8.062000 0.5000 0.5260 0.5410 0.5580 0.5600
8.096113 0.5600 0.5500 0.5190 0.4920 0.4750
8.131000 0.4320 0.3690 0.3470 0.3250 0.3080
8.165113 0.2500 0.1870 0.1410 0.1260 0.0910
8.199000 0.0740 0.0350 0.0270 0.0270 0.0270
8.233113 0.0270 0.0280 0.0320 0.0390 0.0490
8.267000 0.0640 0.0740 0.0850 0.1050 0.1070
8.301113 0.1070 0.1000 0.0910 0.0900 0.0910
8.335000 0.1000 0.1070 0.1170 0.1370 0.1510
8.369113 0.1660 0.1940 0.2090 0.2290 0.2500
8.403000 0.2600 0.2650 0.2910 0.3160 0.3560
8.437113 0.3710 0.3850 0.4000 0.4080 0.4080
8.472000 0.4080 0.4080 0.4020 0.3780 0.3420
8.506113 0.3110 0.2810 0.2570 0.2290 0.1990
8.540000 0.1390 0.1220 0.0760 0.0610 0.0450
8.574113 0.0350 0.0280 0.0280 0.0250 0.0220
8.608000 0.0200 0.0200 0.0180 0.0180 0.0170
8.642113 0.0170 0.0170 0.0170 0.0170 0.0180
8.676000 0.0180 0.0200 0.0250 0.0340 0.0450
8.710113 0.0610 0.0800 0.1020 0.1340 0.1650
8.744000 0.1940 0.2190 0.2450 0.2990 0.3110
8.778113 0.3830 0.4030 0.4190 0.4490 0.5110
8.812000 0.5280 0.5510 0.5620 0.5720 0.5800
8.846113 0.5910 0.6030 0.6140 0.6260 0.6370
8.881000 0.6420 0.6430 0.6490 0.6500 0.6640
8.915113 0.6810 0.6830 0.6910 0.6980 0.7010
8.949000 0.7030 0.7080 0.7120 0.7130 0.7150
8.983113 0.7200 0.7240 0.7270 0.7270 0.7290
9.017000 0.7290 0.7290 0.7290 0.7290 0.7250
9.051113 0.7080 0.7000 0.6960 0.6740 0.6690
9.085000 0.6620 0.6540 0.6400 0.6090 0.5890
9.119113 0.5720 0.5460 0.5240 0.5120 0.4850
9.153000 0.4530 0.4150 0.4130 0.3660 0.3570
9.187113 0.3560 0.3570 0.3670 0.3850 0.3960
9.222000 0.4190 0.4560 0.4610 0.5040 0.5160
9.256113 0.5380 0.5500 0.5570 0.5680 0.5740
9.290000 0.5770 0.5740 0.5650 0.5330 0.4830
9.324113 0.4320 0.4290 0.4130 0.4120 0.3400
9.358000 0.2960 0.2500 0.2330 0.2010 0.1700
9.392113 0.1580 0.1560 0.1560 0.1600 0.1830
9.426000 0.1920 0.2160 0.2570 0.2740 0.2930
9.460113 0.3110 0.3730 0.3950 0.4130 0.4540
9.494000 0.4630 0.4800 0.4880 0.4900 0.4900
9.528113 0.4900 0.4900 0.4880 0.4750 0.4560
9.563000 0.4410 0.4150 0.3740 0.3440 0.3270
9.597113 0.3080 0.2790 0.2400 0.2240 0.2140
9.631000 0.2060 0.1950 0.1850 0.1700 0.1490
9.665113 0.1290 0.1090 0.0970 0.0880 0.0760
9.699000 0.0740 0.0740 0.0780 0.0900 0.1090
9.733113 0.1270 0.1440 0.1680 0.1870 0.2040
9.767000 0.2240 0.2380 0.2430 0.2430 0.2380
9.801113 0.2380 0.2360 0.2360 0.2400 0.2580
9.835000 0.2700 0.2860 0.4000 0.4200 0.4320
9.869113 0.5110 0.5400 0.5600 0.5910 0.6060
9.904000 0.6400 0.6540 0.6660 0.6790 0.7050
9.938113 0.7130 0.7270 0.7300 0.7390 0.7420
9.972000 0.7440 0.7470 0.7470 0.7490 0.7490
10.006113 0.7490 0.7470 0.7470 0.7460 0.7460
10.040000 0.7460 0.7460 0.7470 0.7520 0.7590
10.074113 0.7630 0.7680 0.7700 0.7700 0.7710
10.108000 0.7730 0.7730 0.7760 0.7780 0.7780
10.142113 0.7800 0.7810 0.7830 0.7830 0.7870
10.176000 0.7870 0.7870 0.7830 0.7810 0.7800
10.210113 0.7760 0.7700 0.7640 0.7610 0.7580
10.245000 0.7520 0.7510 0.7490 0.7490 0.7510
10.279113 0.7510 0.7520 0.7520 0.7540 0.7540
10.313000 0.7580 0.7580 0.7580 0.7580 0.7580
10.347113 0.7580 0.7560 0.7520 0.7490 0.7460
10.381000 0.7440 0.7410 0.7410 0.7410 0.7420
10.415113 0.7510 0.7590 0.7660 0.7760 0.7830
10.449000 0.7900 0.7970 0.8000 0.8020 0.8120
10.483113 0.8210 0.8260 0.8310 0.8360 0.8410
10.517000 0.8430 0.8440 0.8460 0.8500 0.8510
10.551113 0.8530 0.8550 0.8560 0.8560 0.8580
10.585000 0.8600 0.8600 0.8620 0.8680 0.8680
10.619113 0.8700 0.8700 0.8720 0.8730 0.8750
10.654000 0.8750 0.8770 0.8790 0.8790 0.8790
10.688113 0.8800 0.8800 0.8800 0.8800 0.8800
10.722000 0.8820 0.8820 0.8820 0.8820 0.8820
10.756113 0.8820 0.8820 0.8820 0.8800 0.8800
10.790000 0.8770 0.8730 0.8680 0.8630 0.8580
10.824113 0.8560 0.8500 0.8310 0.8260 0.8140
10.858000 0.8000 0.7870 0.7660 0.7510 0.7490
10.892113 0.7470 0.7470 0.7510 0.7590 0.7850
10.926000 0.7930 0.8090 0.8220 0.8360 0.8390
10.960113 0.8460 0.8530 0.8620 0.8670 0.8730
10.995000 0.8790 0.8840 0.8840 0.8850 0.8890
11.029113 0.8900 0.8900 0.8900 0.8920 0.8940
11.063000 0.8960 0.8990 0.9010 0.9010 0.9020
11.097113 0.9020 0.9020 0.9020 0.9020 0.9020
11.131000 0.9010 0.9010 0.8990 0.8960 0.8900
11.165113 0.8820 0.8750 0.8680 0.8550 0.8410
11.199000 0.8220 0.8140 0.7830 0.7490 0.7200
11.233113 0.6830 0.6660 0.6470 0.5380 0.4830
11.267000 0.4770 0.4290 0.3860 0.3570 0.3520
11.301113 0.3570 0.3710 0.3880 0.4220 0.4270
11.336000 0.4440 0.5340 0.5400 0.6210 0.6320
11.370113 0.7200 0.7440 0.7560 0.7730 0.7880
11.404000 0.8050 0.8190 0.8330 0.8410 0.8460
11.438113 0.8480 0.8550 0.8670 0.8750 0.8800
11.472000 0.8840 0.8870 0.8900 0.8940 0.8970
11.506113 0.9020 0.9060 0.9080 0.9080 0.9090
11.540000 0.9110 0.9130 0.9130 0.9140 0.9140
11.574113 0.9140 0.9160 0.9160 0.9160 0.9160
11.608000 0.9140 0.9140 0.9130 0.9130 0.9110
11.642113 0.9110 0.9080 0.9060 0.9020 0.8990
11.677000 0.8990 0.8960 0.8890 0.8840 0.8790
11.711113 0.8670 0.8550 0.8410 0.8270 0.8100
11.745000 0.8050 0.8020 0.7850 0.7750 0.7700
11.779113 0.7560 0.7490 0.7410 0.7340 0.7220
11.813000 0.7150 0.7100 0.7100 0.7100 0.7170
11.847113 0.7250 0.7390 0.7460 0.7900 0.7980
11.881000 0.8100 0.8170 0.8270 0.8430 0.8510
11.915113 0.8600 0.8680 0.8750 0.8820 0.8890
11.949000 0.8900 0.8920 0.8990 0.9010 0.9040
11.983113 0.9090 0.9130 0.9160 0.9180 0.9210
12.018000 0.9230 0.9250 0.9260 0.9260 0.9280
12.052113 0.9280 0.9300 0.9300 0.9300 0.9300
12.086000 0.9310 0.9310 0.9310 0.9310 0.9330
12.120113 0.9330 0.9330 0.9330 0.9330 0.9330
12.154000 0.9330 0.9330 0.9330 0.9330 0.9330
12.188113 0.9330 0.9330 0.9330 0.9330 0.9330
12.222000 0.9330 0.9330 0.9330 0.9330 0.9330
12.256113 0.9330 0.9330 0.9330 0.9330 0.9330
12.290000 0.9330 0.9330 0.9330 0.9330 0.9310
12.324113 0.9310 0.9310 0.9310 0.9310 0.9310
12.358000 0.9310 0.9310 0.9300 0.9300 0.9300
12.392113 0.9280 0.9280 0.9260 0.9230 0.9230
12.427000 0.9230 0.9210 0.9210 0.9190 0.9190
12.461113 0.9190 0.9190 0.9190 0.9190 0.9190
12.495000 0.9180 0.9180 0.9180 0.9140 0.9130
12.529113 0.9130 0.9110 0.9110 0.9110 0.9090
12.563000 0.9080 0.9060 0.9040 0.9020 0.9010
12.597113 0.8990 0.8890 0.8840 0.8820 0.8750
12.631000 0.8700 0.8650 0.8630 0.8620 0.8620
12.665113 0.8620 0.8630 0.8700 0.8730 0.8750
12.699000 0.8820 0.8870 0.8900 0.8960 0.8970
12.733113 0.9010 0.9020 0.9020 0.9060 0.9060
12.768000 0.9080 0.9080 0.9090 0.9090 0.9110
12.802113 0.9110 0.9110 0.9130 0.9130 0.9130
12.836000 0.9140 0.9140 0.9140 0.9160 0.9160
12.870113 0.9180 0.9180 0.9180 0.9180 0.9180
12.904000 0.9180 0.9180 0.9180 0.9180 0.9180
12.938113 0.9190 0.9190 0.9190 0.9190 0.9190
12.972000 0.9190 0.9190 0.9190 0.9190 0.9190
13.006113 0.9190 0.9190 0.9190 0.9190 0.9210
13.040000 0.9210 0.9230 0.9230 0.9230 0.9250
13.074113 0.9250 0.9250 0.9250 0.9250 0.9250
13.109000 0.9250 0.9250 0.9250 0.9250 0.9250
13.143113 0.9250 0.9250 0.9250 0.9250 0.9250
13.177000 0.9260 0.9280 0.9280 0.9280 0.9280
13.211113 0.9280 0.9280 0.9280 0.9280 0.9280
13.245000 0.9280 0.9280 0.9280 0.9260 0.9260
13.279113 0.9260 0.9260 0.9260 0.9260 0.9260
13.313000 0.9260 0.9250 0.9250 0.9250 0.9250
13.347113 0.9250 0.9250 0.9250 0.9230 0.9230
13.381000 0.9230 0.9230 0.9230 0.9230 0.9230
13.415113 0.9230 0.9230 0.9230 0.9230 0.9230
13.450000 0.9230 0.9230 0.9230 0.9230 0.9230
13.484113 0.9210 0.9210 0.9210 0.9190 0.9190
13.518000 0.9190 0.9190 0.9190 0.9190 0.9190
13.552113 0.9190 0.9180 0.9180 0.9190 0.9180
13.586000 0.9180 0.9180 0.9180 0.9160 0.9160
13.620113 0.9160 0.9160 0.9160 0.9160 0.9160
13.654000 0.9180 0.9180 0.9180 0.9180 0.9180
13.688113 0.9160 0.9160 0.9140 0.9140 0.9130
13.722000 0.9110 0.9110 0.9090 0.9080 0.9080
13.756113 0.9040 0.9020 0.9010 0.8990 0.8970
13.791000 0.8960 0.8940 0.8920 0.8920 0.8920
13.825113 0.8920 0.8900 0.8900 0.8900 0.8900
13.859000 0.8900 0.8900 0.8900 0.8900 0.8920
13.893113 0.8920 0.8940 0.8940 0.8960 0.8960
13.927000 0.8970 0.8970 0.8970 0.8970 0.8970
13.961113 0.8970 0.8970 0.8970 0.8970 0.8990
13.995000 0.8990 0.8990 0.8990 0.8990 0.8990
14.029113 0.9010 0.8990 0.8990 0.9010 0.8990
14.063000 0.8990 0.8990 0.8990 0.8990 0.8990
14.097113 0.8990 0.8990 0.8990 0.8990 0.8990
14.132000 0.8990 0.8990 0.8990 0.8970 0.8970
14.166113 0.8970 0.8960 0.8960 0.8960 0.8960
14.200000 0.8940 0.8940 0.8940 0.8940 0.8940
14.234113 0.8920 0.8920 0.8920 0.8920 0.8900
14.268000 0.8900 0.8890 0.8890 0.8870 0.8870
14.302113 0.8850 0.8840 0.8820 0.8820 0.8820
14.336000 0.8820 0.8820 0.8820 0.8820 0.8800
14.370113 0.8790 0.8790 0.8790 0.8750 0.8750
14.404000 0.8730 0.8720 0.8700 0.8680 0.8680
14.438113 0.8680 0.8680 0.8670 0.8670 0.8650
14.472000 0.8630 0.8630 0.8620 0.8600 0.8600
14.506113 0.8580 0.8580 0.8580 0.8560 0.8560
14.541000 0.8550 0.8530 0.8530 0.8510 0.8510
14.575113 0.8510 0.8500 0.8480 0.8480 0.8480
14.609000 0.8460 0.8430 0.8410 0.8410 0.8410
14.643113 0.8390 0.8390 0.8390 0.8360 0.8340
14.677000 0.8340 0.8330 0.8310 0.8290 0.8260
14.711113 0.8260 0.8240 0.8240 0.8220 0.8210
14.745000 0.8210 0.8190 0.8190 0.8170 0.8170
14.779113 0.8160 0.8140 0.8100 0.8090 0.8050
14.813000 0.8050 0.8020 0.8000 0.7980 0.7970
14.847113 0.7950 0.7930 0.7920 0.7920 0.7880
14.882000 0.7880 0.7830 0.7830 0.7780 0.7750
14.916113 0.7730 0.7700 0.7640 0.7610 0.7540
14.950000 0.7490 0.7470 0.7440 0.7420 0.7390
14.984113 0.7350 0.7350 0.7340 0.7340 0.7340
15.018000 0.7340 0.7350 0.7370 0.7390 0.7390
15.052113 0.7420 0.7440 0.7440 0.7440 0.7440
15.086000 0.7440 0.7440 0.7440 0.7420 0.7410
15.120113 0.7390 0.7370 0.7320 0.7300 0.7270
15.154000 0.7250 0.7250 0.7220 0.7220 0.7180
15.188113 0.7170 0.7170 0.7130 0.7080 0.7050
15.223000 0.7030 0.7010 0.7000 0.7000 0.6980
15.257113 0.6980 0.6960 0.6890 0.6890 0.6880
15.291000 0.6880 0.6830 0.6810 0.6790 0.6790
15.325113 0.6780 0.6760 0.6740 0.6720 0.6710
15.359000 0.6670 0.6670 0.6660 0.6640 0.6620
15.393113 0.6570 0.6520 0.6500 0.6500 0.6500
15.427000 0.6490 0.6470 0.6430 0.6400 0.6380
15.461113 0.6370 0.6370 0.6370 0.6370 0.6330
15.495000 0.6320 0.6300 0.6300 0.6280 0.6260
15.529113 0.6230 0.6210 0.6200 0.6200 0.6180
15.564000 0.6180 0.6160 0.6130 0.6130 0.6110
15.598113 0.6110 0.6080 0.6060 0.6060 0.6030
15.632000 0.6030 0.6010 0.6010 0.5990 0.5990
15.666113 0.5970 0.5940 0.5910 0.5890 0.5870
15.700000 0.5860 0.5800 0.5800 0.5800 0.5790
15.734113 0.5790 0.5770 0.5750 0.5680 0.5680
15.768000 0.5670 0.5670 0.5630 0.5620 0.5600
15.802113 0.5580 0.5550 0.5530 0.5510 0.5500
15.836000 0.5500 0.5460 0.5460 0.5450 0.5450
15.870113 0.5430 0.5410 0.5400 0.5380 0.5360
15.905000 0.5360 0.5360 0.5360 0.5340 0.5330
15.939113 0.5310 0.5290 0.5290 0.5280 0.5280
15.973000 0.5280 0.5280 0.5280 0.5280 0.5210
16.007113 0.5280
##END=
