##TITLE=PSEUDOUREA, 2-METHYL-2-THIO-, SULFATE
##JCAMP-DX=4.24
##DATA TYPE=INFRARED SPECTRUM
##CLASS=COBLENTZ III
##ORIGIN=DOW CHEMICAL COMPANY
##OWNER=COBLENTZ SOCIETY
Collection (C) 2018 copyright by the U.S. Secretary of Commerce
on behalf of the United States of America. All rights reserved.
##DATE=1961/02/20
##MOLFORM=C4 H12 N4 S2  * H2 S O4
##SOURCE REFERENCE=COBLENTZ NO. 6266
##$NIST ID=B6006266
##$NIST SOURCE=COBLENTZ
##$NIST IMAGE=cob6266
##SPECTROMETER/DATA SYSTEM=DOW KBr FOREPRISM-GRATING
##INSTRUMENT PARAMETERS=BLAZED AT 3.5, 12.0, 20.0 MICRONS, AND CHANGED AT 5.0, 7.5, 14.9 MICRONS
##STATE=SOLID (SPLIT MULL)
##SAMPLING PROCEDURE=TRANSMISSION
##RESOLUTION=2
##DATA PROCESSING=DIGITIZED BY NIST FROM HARD COPY (FROM TWO SEGMENTS)
##XUNITS=1/CM
##YUNITS=TRANSMITTANCE
##XFACTOR=1.000000
##YFACTOR=1
##DELTAX=0.860094
##FIRSTX=447.534
##LASTX=3801.9
##FIRSTY=0.918
##MAXX=3801.9
##MINX=447.534
##MAXY=1.024
##MINY=0.002
##NPOINTS=3901
##XYDATA=(X++(Y..Y))
447.534000 0.9180 0.9160 0.9160 0.9150 0.9150
451.834468 0.9140 0.9140 0.9120 0.9120 0.9110
456.134935 0.9080 0.9060 0.9060 0.9030 0.9000
460.435403 0.9000 0.8990 0.8970 0.8920 0.8920
464.735871 0.8920 0.8920 0.8920 0.8920 0.8920
469.036339 0.8910 0.8880 0.8870 0.8790 0.8710
473.336806 0.8670 0.8570 0.8460 0.8340 0.7303
477.637274 0.7081 0.6871 0.6651 0.6441 0.6221
481.937742 0.3691 0.2811 0.2790 0.2800 0.3658
486.238209 0.3670 0.4358 0.4928 0.5119 0.5418
490.538677 0.5970 0.6919 0.7938 0.8419 0.8749
494.839145 0.9079 0.9239 0.9399 0.9569 0.9650
499.139612 0.9730 0.9790 0.9860 0.9900 0.9940
503.440080 0.9970 0.9980 1.0020 1.0040 1.0080
507.740548 1.0090 1.0100 1.0120 1.0130 1.0140
512.041016 1.0140 1.0140 1.0160 1.0170 1.0170
516.341483 1.0180 1.0180 1.0200 1.0200 1.0210
520.641951 1.0210 1.0210 1.0210 1.0210 1.0220
524.942419 1.0220 1.0220 1.0220 1.0220 1.0240
529.242886 1.0240 1.0240 1.0240 1.0240 1.0240
533.543354 1.0240 1.0240 1.0240 1.0240 1.0240
537.843822 1.0240 1.0240 1.0240 1.0240 1.0240
542.144290 1.0240 1.0240 1.0240 1.0240 1.0240
546.444757 1.0220 1.0220 1.0220 1.0220 1.0210
550.745225 1.0210 1.0210 1.0200 1.0200 1.0200
555.045693 1.0200 1.0180 1.0180 1.0170 1.0170
559.346160 1.0160 1.0140 1.0120 1.0100 1.0090
563.646628 1.0080 1.0060 1.0050 1.0040 1.0020
567.947096 1.0010 1.0000 0.9970 0.9970 0.9950
572.247564 0.9940 0.9930 0.9910 0.9890 0.9820
576.548031 0.9790 0.9770 0.9740 0.9730 0.9700
580.848499 0.9630 0.9610 0.9540 0.9500 0.9480
585.148967 0.9380 0.9300 0.9220 0.9140 0.9060
589.449434 0.8910 0.8711 0.8481 0.8261 0.8011
593.749902 0.7670 0.7400 0.6961 0.6611 0.6051
598.050370 0.5342 0.4892 0.4412 0.4131 0.3752
602.350837 0.3610 0.3220 0.2920 0.2890 0.2910
606.651305 0.3070 0.3229 0.3549 0.4207 0.4906
610.951773 0.5110 0.5110 0.5100 0.4990 0.4711
615.252241 0.4650 0.4640 0.4650 0.4909 0.5039
619.552708 0.5360 0.5670 0.6179 0.6300 0.6320
623.853176 0.6320 0.6290 0.6240 0.6131 0.5901
628.153644 0.5670 0.5630 0.5610 0.5620 0.5670
632.454111 0.6119 0.7146 0.7578 0.7739 0.7929
636.754579 0.8060 0.8120 0.8240 0.8280 0.8300
641.055047 0.8320 0.8320 0.8330 0.8320 0.8330
645.355515 0.8320 0.8300 0.8290 0.8290 0.8280
649.655982 0.8260 0.8260 0.8250 0.8220 0.8210
653.956450 0.8180 0.8180 0.8140 0.8120 0.8090
658.256918 0.8080 0.8020 0.7970 0.7930 0.7910
662.557385 0.7900 0.7850 0.7810 0.7790 0.7780
666.857853 0.7740 0.7730 0.7620 0.7580 0.7500
671.158321 0.7440 0.7430 0.7400 0.7360 0.7270
675.458789 0.7230 0.7150 0.7080 0.7040 0.7000
679.759256 0.6890 0.6760 0.6710 0.6600 0.6560
684.059724 0.6420 0.6290 0.6210 0.6120 0.6011
688.360192 0.5930 0.5820 0.5690 0.5530 0.5380
692.660659 0.5230 0.5100 0.4572 0.4490 0.4410
696.961127 0.4340 0.4120 0.4090 0.4100 0.4130
701.261595 0.4140 0.4160 0.4170 0.4170 0.4160
705.562062 0.4160 0.4130 0.4120 0.4100 0.4050
709.862530 0.4040 0.3980 0.3950 0.3890 0.3860
714.162998 0.3780 0.3700 0.3660 0.3570 0.3480
718.463466 0.3390 0.3260 0.3190 0.3110 0.3030
722.763933 0.2920 0.2800 0.2690 0.2570 0.2440
727.064401 0.2290 0.2141 0.1971 0.1751 0.1591
731.364869 0.1550 0.1380 0.1360 0.1380 0.1480
735.665336 0.1610 0.1869 0.2009 0.2129 0.2448
739.965804 0.2680 0.2770 0.2840 0.2910 0.2960
744.266272 0.3020 0.3040 0.3060 0.3060 0.3070
748.566740 0.3080 0.3110 0.3110 0.3120 0.3120
752.867207 0.3140 0.3140 0.3140 0.3150 0.3160
757.167675 0.3180 0.3200 0.3220 0.3270 0.3310
761.468143 0.3320 0.3360 0.3400 0.3480 0.3540
765.768610 0.3590 0.3620 0.3700 0.3730 0.3790
770.069078 0.3950 0.4000 0.4050 0.4130 0.4240
774.369546 0.4280 0.4440 0.4530 0.4610 0.4670
778.670014 0.4760 0.4880 0.5069 0.5120 0.5220
782.970481 0.5310 0.5350 0.5470 0.5580 0.5700
787.270949 0.5780 0.5860 0.5950 0.6139 0.6329
791.571417 0.6360 0.6420 0.6440 0.6440 0.6520
795.871884 0.6799 0.6890 0.6920 0.7020 0.7070
800.172352 0.7190 0.7280 0.7340 0.7380 0.7390
804.472820 0.7460 0.7500 0.7580 0.7630 0.7710
808.773287 0.7730 0.7750 0.7820 0.7900 0.7910
813.073755 0.7950 0.7980 0.8020 0.8090 0.8120
817.374223 0.8170 0.8210 0.8260 0.8280 0.8360
821.674691 0.8380 0.8400 0.8460 0.8480 0.8490
825.975158 0.8530 0.8590 0.8600 0.8650 0.8670
830.275626 0.8690 0.8730 0.8750 0.8770 0.8800
834.576094 0.8850 0.8870 0.8870 0.8870 0.8880
838.876561 0.8910 0.8950 0.8970 0.8990 0.9000
843.177029 0.9020 0.9070 0.9070 0.9100 0.9120
847.477497 0.9150 0.9150 0.9160 0.9190 0.9220
851.777965 0.9230 0.9230 0.9240 0.9270 0.9280
856.078432 0.9300 0.9310 0.9320 0.9350 0.9360
860.378900 0.9390 0.9430 0.9430 0.9440 0.9440
864.679368 0.9460 0.9470 0.9500 0.9500 0.9500
868.979835 0.9510 0.9530 0.9540 0.9570 0.9570
873.280303 0.9580 0.9590 0.9610 0.9630 0.9660
877.580771 0.9670 0.9670 0.9690 0.9690 0.9690
881.881239 0.9690 0.9690 0.9690 0.9690 0.9670
886.181706 0.9670 0.9670 0.9670 0.9670 0.9670
890.482174 0.9670 0.9670 0.9670 0.9730 0.9730
894.782642 0.9730 0.9730 0.9730 0.9730 0.9730
899.083109 0.9730 0.9730 0.9730 0.9710 0.9710
903.383577 0.9710 0.9710 0.9700 0.9690 0.9690
907.684045 0.9690 0.9690 0.9670 0.9670 0.9670
911.984512 0.9660 0.9660 0.9660 0.9650 0.9650
916.284980 0.9650 0.9650 0.9650 0.9650 0.9650
920.585448 0.9650 0.9650 0.9650 0.9650 0.9650
924.885916 0.9650 0.9650 0.9650 0.9650 0.9650
929.186383 0.9630 0.9620 0.9620 0.9610 0.9610
933.486851 0.9620 0.9610 0.9610 0.9590 0.9590
937.787319 0.9580 0.9570 0.9550 0.9540 0.9540
942.087786 0.9530 0.9530 0.9530 0.9510 0.9510
946.388254 0.9500 0.9510 0.9500 0.9480 0.9440
950.688722 0.9420 0.9390 0.9380 0.9350 0.9310
954.989190 0.9300 0.9280 0.9220 0.9180 0.9140
959.289657 0.9080 0.9040 0.8990 0.8920 0.8811
963.590125 0.8680 0.8490 0.8460 0.8460 0.8480
967.890593 0.8490 0.8510 0.8510 0.8480 0.8370
972.191060 0.8360 0.8320 0.8280 0.7980 0.7700
976.491528 0.7390 0.7360 0.7350 0.7270 0.7200
980.791996 0.7138 0.5389 0.3630 0.3610 0.3620
985.092464 0.4019 0.4998 0.5618 0.6756 0.7029
989.392931 0.7730 0.8120 0.8320 0.8570 0.8720
993.693399 0.8730 0.8750 0.8750 0.8750 0.8760
997.993867 0.8770 0.8760 0.8760 0.8750 0.8750
1002.294334 0.8750 0.8730 0.8730 0.8730 0.8720
1006.594802 0.8720 0.8690 0.8670 0.8670 0.8600
1010.895270 0.8560 0.8530 0.8520 0.8510 0.8490
1015.195737 0.8480 0.8450 0.8410 0.8330 0.8300
1019.496205 0.8210 0.8130 0.8100 0.8080 0.8010
1023.796673 0.7940 0.7890 0.7830 0.7770 0.7730
1028.097141 0.7670 0.7610 0.7550 0.7480 0.7400
1032.397608 0.7380 0.7320 0.7230 0.7140 0.7020
1036.698076 0.6890 0.6770 0.6640 0.6520 0.6401
1040.998544 0.6290 0.6290 0.6250 0.6180 0.6090
1045.299011 0.5970 0.5830 0.5690 0.5511 0.5341
1049.599479 0.5150 0.4960 0.4650 0.4370 0.4100
1053.899947 0.3851 0.3621 0.3401 0.3191 0.2991
1058.200415 0.2800 0.2610 0.2410 0.2220 0.2040
1062.500882 0.1830 0.1621 0.1391 0.1161 0.0911
1066.801350 0.0629 0.0280 0.0250 0.0210 0.0170
1071.101818 0.0140 0.0120 0.0090 0.0060 0.0060
1075.402285 0.0050 0.0050 0.0020 0.0040 0.0040
1079.702753 0.0040 0.0040 0.0040 0.0040 0.0040
1084.003221 0.0020 0.0020 0.0020 0.0020 0.0020
1088.303688 0.0020 0.0020 0.0020 0.0020 0.0020
1092.604156 0.0020 0.0040 0.0040 0.0050 0.0060
1096.904624 0.0060 0.0080 0.0090 0.0090 0.0130
1101.205092 0.0160 0.0210 0.0280 0.0400 0.0560
1105.505559 0.0850 0.0950 0.1020 0.1020 0.1020
1109.806027 0.1000 0.0950 0.0880 0.0770 0.0680
1114.106495 0.0590 0.0331 0.0300 0.0280 0.0250
1118.406962 0.0220 0.0200 0.0180 0.0170 0.0170
1122.707430 0.0160 0.0140 0.0130 0.0130 0.0130
1127.007898 0.0120 0.0130 0.0180 0.0260 0.0340
1131.308366 0.0440 0.0530 0.0879 0.1279 0.2097
1135.608833 0.2510 0.2750 0.2800 0.3510 0.3770
1139.909301 0.3770 0.3750 0.3740 0.3730 0.3690
1144.209769 0.3630 0.3590 0.3020 0.2420 0.2370
1148.510236 0.2340 0.2340 0.2360 0.2440 0.2560
1152.810704 0.2680 0.2800 0.3570 0.4249 0.4869
1157.111172 0.5419 0.5889 0.6299 0.6669 0.6949
1161.411640 0.7190 0.7360 0.7470 0.7510 0.7530
1165.712107 0.7789 0.7810 0.7860 0.7910 0.8010
1170.012575 0.8020 0.8140 0.8250 0.8340 0.8450
1174.313043 0.8510 0.8590 0.8670 0.8690 0.8720
1178.613510 0.8750 0.8750 0.8760 0.8770 0.8790
1182.913978 0.8890 0.8970 0.9030 0.9040 0.9150
1187.214446 0.9150 0.9180 0.9200 0.9230 0.9260
1191.514913 0.9280 0.9280 0.9320 0.9350 0.9360
1195.815381 0.9380 0.9380 0.9380 0.9380 0.9380
1200.115849 0.9380 0.9380 0.9380 0.9380 0.9380
1204.416317 0.9380 0.9380 0.9380 0.9380 0.9380
1208.716784 0.9380 0.9380 0.9380 0.9390 0.9390
1213.017252 0.9390 0.9390 0.9390 0.9420 0.9430
1217.317720 0.9430 0.9420 0.9430 0.9460 0.9470
1221.618187 0.9480 0.9530 0.9550 0.9550 0.9550
1225.918655 0.9570 0.9570 0.9570 0.9570 0.9570
1230.219123 0.9550 0.9540 0.9540 0.9530 0.9530
1234.519591 0.9510 0.9500 0.9500 0.9480 0.9480
1238.820058 0.9460 0.9430 0.9400 0.9380 0.9340
1243.120526 0.9310 0.9300 0.9280 0.9280 0.9270
1247.420994 0.9270 0.9260 0.9220 0.9190 0.9180
1251.721461 0.9180 0.9180 0.9180 0.9180 0.9180
1256.021929 0.9180 0.9160 0.9160 0.9160 0.9160
1260.322397 0.9160 0.9150 0.9150 0.9150 0.9150
1264.622865 0.9140 0.9140 0.9140 0.9140 0.9110
1268.923332 0.9110 0.9110 0.9110 0.9110 0.9100
1273.223800 0.9100 0.9080 0.9080 0.9080 0.9080
1277.524268 0.9060 0.9040 0.9040 0.9030 0.9000
1281.824735 0.8990 0.8960 0.8950 0.8930 0.8920
1286.125203 0.8890 0.8910 0.8890 0.8890 0.8880
1290.425671 0.8850 0.8800 0.8770 0.8760 0.8750
1294.726138 0.8710 0.8680 0.8680 0.8640 0.8610
1299.026606 0.8600 0.8550 0.8520 0.8490 0.8480
1303.327074 0.8460 0.8420 0.8400 0.8380 0.8340
1307.627542 0.8330 0.8320 0.8290 0.8240 0.8210
1311.928009 0.8170 0.8160 0.8130 0.8100 0.8040
1316.228477 0.7980 0.7930 0.7890 0.7780 0.7700
1320.528945 0.7550 0.7400 0.7220 0.6213 0.5861
1324.829412 0.5850 0.5890 0.6010 0.6140 0.6520
1329.129880 0.6770 0.6950 0.7150 0.7349 0.7539
1333.430348 0.7540 0.7530 0.7530 0.7510 0.7500
1337.730816 0.7480 0.7440 0.7390 0.7360 0.7310
1342.031283 0.7260 0.7240 0.7220 0.7220 0.7200
1346.331751 0.7200 0.7220 0.7220 0.7260 0.7300
1350.632219 0.7350 0.7390 0.7390 0.7390 0.7390
1354.932686 0.7390 0.7390 0.7380 0.7380 0.7380
1359.233154 0.7380 0.7380 0.7320 0.7310 0.7270
1363.533622 0.7240 0.7230 0.7220 0.7230 0.7220
1367.834090 0.7190 0.7160 0.7150 0.7140 0.7120
1372.134557 0.7110 0.7080 0.7070 0.7000 0.6960
1376.435025 0.6920 0.6910 0.6890 0.6830 0.6770
1380.735493 0.6760 0.6750 0.6730 0.6680 0.6610
1385.035960 0.6570 0.6510 0.6450 0.6420 0.6290
1389.336428 0.6220 0.6200 0.6170 0.6130 0.6020
1393.636896 0.5940 0.5890 0.5820 0.5780 0.5740
1397.937363 0.5650 0.5580 0.5500 0.5420 0.5380
1402.237831 0.5270 0.5230 0.5120 0.5030 0.4950
1406.538299 0.4890 0.4840 0.4570 0.4211 0.4140
1410.838767 0.4040 0.3930 0.3710 0.3580 0.3460
1415.139234 0.3340 0.2990 0.2730 0.2720 0.2720
1419.439702 0.2730 0.2750 0.2750 0.2770 0.2790
1423.740170 0.2850 0.2910 0.2950 0.2970 0.2990
1428.040637 0.3020 0.3000 0.2990 0.2950 0.2880
1432.341105 0.2810 0.2720 0.2560 0.2261 0.2240
1436.641573 0.2240 0.2250 0.2290 0.2330 0.2370
1440.942041 0.2420 0.2480 0.2610 0.2790 0.2840
1445.242508 0.2880 0.3070 0.3190 0.3380 0.3570
1449.542976 0.3770 0.3930 0.4020 0.4259 0.4489
1453.843444 0.4650 0.4800 0.4960 0.5100 0.5220
1458.143911 0.5270 0.5340 0.5510 0.5530 0.5610
1462.444379 0.5620 0.5630 0.5630 0.5630 0.5630
1466.744847 0.5630 0.5630 0.5630 0.5650 0.5660
1471.045315 0.5710 0.5770 0.5860 0.5940 0.6040
1475.345782 0.6160 0.6260 0.6320 0.6360 0.6480
1479.646250 0.6670 0.6720 0.6760 0.6810 0.6890
1483.946718 0.6920 0.6960 0.6990 0.7030 0.7060
1488.247185 0.7070 0.7080 0.7100 0.7120 0.7140
1492.547653 0.7150 0.7160 0.7180 0.7180 0.7190
1496.848121 0.7200 0.7200 0.7220 0.7220 0.7220
1501.148588 0.7220 0.7220 0.7220 0.7220 0.7220
1505.449056 0.7230 0.7230 0.7230 0.7230 0.7230
1509.749524 0.7230 0.7240 0.7240 0.7240 0.7240
1514.049992 0.7240 0.7230 0.7230 0.7230 0.7230
1518.350459 0.7220 0.7220 0.7220 0.7200 0.7200
1522.650927 0.7190 0.7190 0.7180 0.7160 0.7160
1526.951395 0.7150 0.7120 0.7120 0.7110 0.7100
1531.251862 0.7080 0.7080 0.7070 0.7040 0.7020
1535.552330 0.6990 0.6960 0.6930 0.6910 0.6880
1539.852798 0.6850 0.6810 0.6770 0.6760 0.6730
1544.153266 0.6680 0.6610 0.6590 0.6510 0.6410
1548.453733 0.6330 0.6250 0.6160 0.6080 0.6000
1552.754201 0.5910 0.5820 0.5740 0.5650 0.5540
1557.054669 0.5430 0.5350 0.5190 0.5030 0.4870
1561.355136 0.4840 0.4750 0.4720 0.4710 0.4690
1565.655604 0.4690 0.4690 0.4720 0.4730 0.4810
1569.956072 0.4930 0.5030 0.5120 0.5190 0.5260
1574.256539 0.5380 0.5470 0.5550 0.5660 0.5860
1578.557007 0.6000 0.6100 0.6180 0.6260 0.6320
1582.857475 0.6420 0.6460 0.6550 0.6610 0.6680
1587.157943 0.6730 0.6800 0.6870 0.6910 0.6950
1591.458410 0.7000 0.7030 0.7040 0.7070 0.7100
1595.758878 0.7110 0.7140 0.7150 0.7180 0.7220
1600.059346 0.7230 0.7230 0.7240 0.7240 0.7240
1604.359813 0.7240 0.7240 0.7240 0.7240 0.7240
1608.660281 0.7240 0.7240 0.7240 0.7240 0.7230
1612.960749 0.7230 0.7230 0.7230 0.7220 0.7220
1617.261217 0.7200 0.7190 0.7180 0.7160 0.7150
1621.561684 0.7140 0.7120 0.7100 0.7080 0.7070
1625.862152 0.7060 0.7040 0.7030 0.6970 0.6910
1630.162620 0.6840 0.6800 0.6770 0.6750 0.6720
1634.463087 0.6640 0.6610 0.6560 0.6530 0.6490
1638.763555 0.6340 0.6280 0.6260 0.6200 0.6170
1643.064023 0.6090 0.6040 0.5950 0.5870 0.5810
1647.364491 0.5770 0.5700 0.5620 0.5570 0.5470
1651.664958 0.5460 0.5360 0.5240 0.5100 0.5040
1655.965426 0.5020 0.4930 0.4810 0.4690 0.4560
1660.265894 0.4440 0.4360 0.4320 0.4130 0.3950
1664.566361 0.3850 0.3710 0.3550 0.3400 0.3280
1668.866829 0.2799 0.2530 0.2450 0.2170 0.1980
1673.167297 0.1810 0.1570 0.1340 0.1111 0.0960
1677.467764 0.0890 0.0730 0.0630 0.0550 0.0510
1681.768232 0.0460 0.0440 0.0440 0.0420 0.0420
1686.068700 0.0410 0.0400 0.0410 0.0460 0.0560
1690.369168 0.0630 0.0960 0.1060 0.1220 0.1459
1694.669635 0.1751 0.2091 0.2461 0.2851 0.3270
1698.970103 0.3670 0.4060 0.4180 0.4210 0.4849
1703.270571 0.5441 0.5651 0.5901 0.6180 0.6450
1707.571038 0.6680 0.6800 0.7030 0.7260 0.7390
1711.871506 0.7620 0.7730 0.7790 0.7910 0.8080
1716.171974 0.8130 0.8260 0.8340 0.8400 0.8490
1720.472442 0.8570 0.8690 0.8710 0.8720 0.8790
1724.772909 0.8870 0.8920 0.8990 0.9060 0.9110
1729.073377 0.9120 0.9140 0.9240 0.9310 0.9340
1733.373845 0.9380 0.9390 0.9420 0.9440 0.9460
1737.674312 0.9510 0.9540 0.9550 0.9570 0.9580
1741.974780 0.9620 0.9660 0.9670 0.9670 0.9690
1746.275248 0.9700 0.9710 0.9730 0.9730 0.9740
1750.575716 0.9740 0.9740 0.9740 0.9750 0.9750
1754.876183 0.9750 0.9770 0.9770 0.9770 0.9770
1759.176651 0.9780 0.9790 0.9810 0.9810 0.9820
1763.477119 0.9820 0.9830 0.9830 0.9830 0.9830
1767.777586 0.9830 0.9830 0.9830 0.9850 0.9850
1772.078054 0.9850 0.9850 0.9850 0.9850 0.9850
1776.378522 0.9850 0.9850 0.9850 0.9850 0.9850
1780.678989 0.9830 0.9830 0.9830 0.9830 0.9830
1784.979457 0.9830 0.9830 0.9830 0.9830 0.9830
1789.279925 0.9830 0.9830 0.9830 0.9850 0.9850
1793.580393 0.9850 0.9850 0.9850 0.9850 0.9850
1797.880860 0.9850 0.9850 0.9860 0.9860 0.9860
1802.181328 0.9860 0.9860 0.9850 0.9850 0.9850
1806.481796 0.9850 0.9850 0.9850 0.9850 0.9850
1810.782263 0.9850 0.9830 0.9820 0.9820 0.9820
1815.082731 0.9810 0.9790 0.9790 0.9790 0.9790
1819.383199 0.9780 0.9790 0.9810 0.9810 0.9790
1823.683667 0.9790 0.9810 0.9790 0.9780 0.9780
1827.984134 0.9780 0.9780 0.9780 0.9780 0.9780
1832.284602 0.9770 0.9770 0.9770 0.9770 0.9770
1836.585070 0.9770 0.9770 0.9770 0.9770 0.9770
1840.885537 0.9770 0.9770 0.9770 0.9770 0.9770
1845.186005 0.9770 0.9770 0.9770 0.9770 0.9780
1849.486473 0.9790 0.9790 0.9790 0.9790 0.9790
1853.786941 0.9790 0.9790 0.9790 0.9790 0.9790
1858.087408 0.9810 0.9810 0.9820 0.9830 0.9850
1862.387876 0.9850 0.9850 0.9850 0.9850 0.9850
1866.688344 0.9850 0.9850 0.9850 0.9860 0.9860
1870.988811 0.9870 0.9870 0.9890 0.9890 0.9890
1875.289279 0.9890 0.9890 0.9890 0.9890 0.9890
1879.589747 0.9890 0.9890 0.9890 0.9890 0.9890
1883.890214 0.9900 0.9900 0.9900 0.9900 0.9900
1888.190682 0.9900 0.9910 0.9910 0.9930 0.9930
1892.491150 0.9930 0.9940 0.9940 0.9940 0.9940
1896.791618 0.9940 0.9940 0.9940 0.9940 0.9940
1901.092085 0.9940 0.9940 0.9950 0.9950 0.9950
1905.392553 0.9950 0.9950 0.9950 0.9950 0.9950
1909.693021 0.9950 0.9950 0.9950 0.9950 0.9950
1913.993488 0.9950 0.9950 0.9940 0.9940 0.9940
1918.293956 0.9940 0.9940 0.9940 0.9940 0.9940
1922.594424 0.9940 0.9930 0.9930 0.9930 0.9930
1926.894892 0.9910 0.9910 0.9910 0.9900 0.9900
1931.195359 0.9900 0.9900 0.9900 0.9900 0.9900
1935.495827 0.9900 0.9900 0.9910 0.9910 0.9910
1939.796295 0.9910 0.9910 0.9910 0.9910 0.9910
1944.096762 0.9930 0.9930 0.9940 0.9940 0.9940
1948.397230 0.9940 0.9940 0.9940 0.9940 0.9940
1952.697698 0.9940 0.9940 0.9940 0.9940 0.9940
1956.998166 0.9940 0.9940 0.9940 0.9930 0.9930
1961.298633 0.9930 0.9930 0.9930 0.9930 0.9930
1965.599101 0.9930 0.9930 0.9930 0.9930 0.9930
1969.899569 0.9930 0.9940 0.9940 0.9940 0.9940
1974.200036 0.9940 0.9940 0.9940 0.9940 0.9940
1978.500504 0.9940 0.9940 0.9950 0.9940 0.9940
1982.800972 0.9930 0.9930 0.9910 0.9910 0.9900
1987.101439 0.9900 0.9890 0.9890 0.9860 0.9860
1991.401907 0.9850 0.9830 0.9830 0.9820 0.9790
1995.702375 0.9790 0.9790 0.9790 0.9790 0.9790
2000.002843 0.9790 0.9785 0.9780 0.9780 0.9780
2004.303310 0.9780 0.9780 0.9780 0.9780 0.9775
2008.603778 0.9770 0.9770 0.9770 0.9770 0.9770
2012.904246 0.9770 0.9768 0.9758 0.9750 0.9750
2017.204713 0.9750 0.9750 0.9750 0.9750 0.9749
2021.505181 0.9744 0.9740 0.9740 0.9740 0.9740
2025.805649 0.9738 0.9733 0.9730 0.9730 0.9730
2030.106117 0.9730 0.9730 0.9730 0.9730 0.9730
2034.406584 0.9730 0.9730 0.9725 0.9715 0.9707
2038.707052 0.9702 0.9697 0.9692 0.9682 0.9666
2043.007520 0.9651 0.9636 0.9627 0.9622 0.9617
2047.307987 0.9612 0.9600 0.9585 0.9577 0.9572
2051.608455 0.9556 0.9536 0.9508 0.9478 0.9459
2055.908923 0.9444 0.9436 0.9431 0.9418 0.9403
2060.209391 0.9400 0.9400 0.9400 0.9400 0.9409
2064.509858 0.9419 0.9424 0.9429 0.9435 0.9440
2068.810326 0.9449 0.9459 0.9465 0.9470 0.9475
2073.110794 0.9480 0.9490 0.9500 0.9505 0.9510
2077.411261 0.9520 0.9530 0.9530 0.9530 0.9530
2081.711729 0.9530 0.9530 0.9530 0.9530 0.9530
2086.012197 0.9530 0.9530 0.9530 0.9531 0.9536
2090.312664 0.9540 0.9540 0.9540 0.9540 0.9539
2094.613132 0.9534 0.9527 0.9517 0.9508 0.9503
2098.913600 0.9495 0.9480 0.9465 0.9449 0.9432
2103.214068 0.9412 0.9388 0.9357 0.9333 0.9318
2107.514535 0.9310 0.9310 0.9310 0.9310 0.9310
2111.815003 0.9310 0.9310 0.9310 0.9313 0.9318
2116.115471 0.9326 0.9336 0.9343 0.9348 0.9353
2120.415938 0.9358 0.9370 0.9385 0.9390 0.9390
2124.716406 0.9400 0.9416 0.9424 0.9429 0.9434
2129.016874 0.9439 0.9440 0.9440 0.9448 0.9458
2133.317342 0.9460 0.9460 0.9464 0.9469 0.9470
2137.617809 0.9470 0.9470 0.9470 0.9470 0.9470
2141.918277 0.9470 0.9470 0.9470 0.9470 0.9470
2146.218745 0.9470 0.9470 0.9470 0.9465 0.9460
2150.519212 0.9460 0.9460 0.9449 0.9440 0.9435
2154.819680 0.9430 0.9430 0.9429 0.9424 0.9419
2159.120148 0.9408 0.9399 0.9394 0.9387 0.9372
2163.420615 0.9359 0.9354 0.9346 0.9331 0.9317
2167.721083 0.9307 0.9300 0.9300 0.9300 0.9300
2172.021551 0.9302 0.9307 0.9308 0.9303 0.9302
2176.322019 0.9307 0.9310 0.9310 0.9312 0.9317
2180.622486 0.9320 0.9320 0.9320 0.9320 0.9320
2184.922954 0.9320 0.9320 0.9320 0.9320 0.9320
2189.223422 0.9320 0.9320 0.9320 0.9320 0.9320
2193.523889 0.9320 0.9320 0.9320 0.9320 0.9320
2197.824357 0.9320 0.9320 0.9316 0.9311 0.9310
2202.124825 0.9310 0.9306 0.9301 0.9292 0.9282
2206.425293 0.9280 0.9280 0.9280 0.9280 0.9276
2210.725760 0.9271 0.9270 0.9270 0.9266 0.9260
2215.026228 0.9260 0.9260 0.9251 0.9241 0.9235
2219.326696 0.9230 0.9230 0.9230 0.9225 0.9220
2223.627163 0.9210 0.9200 0.9200 0.9200 0.9195
2227.927631 0.9190 0.9184 0.9179 0.9169 0.9159
2232.228099 0.9154 0.9149 0.9144 0.9138 0.9128
2236.528567 0.9120 0.9120 0.9120 0.9120 0.9117
2240.829034 0.9107 0.9096 0.9081 0.9068 0.9063
2245.129502 0.9057 0.9047 0.9037 0.9026 0.9016
2249.429970 0.9006 0.8998 0.8993 0.8990 0.8990
2253.730437 0.8990 0.8990 0.8990 0.8990 0.8990
2258.030905 0.8990 0.8990 0.8990 0.8990 0.8990
2262.331373 0.8990 0.8990 0.8990 0.8990 0.8990
2266.631840 0.8990 0.8990 0.8990 0.8984 0.8973
2270.932308 0.8967 0.8962 0.8956 0.8951 0.8943
2275.232776 0.8933 0.8926 0.8921 0.8916 0.8911
2279.533244 0.8902 0.8892 0.8882 0.8872 0.8857
2283.833711 0.8842 0.8823 0.8803 0.8787 0.8772
2288.134179 0.8747 0.8722 0.8682 0.8642 0.8606
2292.434647 0.8571 0.8560 0.8550 0.8540 0.8530
2296.735114 0.8525 0.8520 0.8520 0.8520 0.8525
2301.035582 0.8531 0.8541 0.8552 0.8572 0.8593
2305.336050 0.8619 0.8643 0.8663 0.8683 0.8698
2309.636518 0.8711 0.8716 0.8721 0.8726 0.8730
2313.936985 0.8730 0.8734 0.8749 0.8764 0.8780
2318.237453 0.8793 0.8803 0.8817 0.8837 0.8855
2322.537921 0.8871 0.8882 0.8887 0.8894 0.8904
2326.838388 0.8912 0.8917 0.8920 0.8920 0.8920
2331.138856 0.8920 0.8920 0.8920 0.8920 0.8920
2335.439324 0.8920 0.8920 0.8920 0.8920 0.8920
2339.739792 0.8920 0.8920 0.8920 0.8920 0.8920
2344.040259 0.8920 0.8920 0.8917 0.8911 0.8903
2348.340727 0.8893 0.8890 0.8890 0.8882 0.8872
2352.641195 0.8870 0.8870 0.8870 0.8870 0.8841
2356.941662 0.8805 0.8783 0.8763 0.8747 0.8732
2361.242130 0.8730 0.8730 0.8730 0.8730 0.8725
2365.542598 0.8720 0.8720 0.8720 0.8715 0.8710
2369.843065 0.8710 0.8710 0.8710 0.8710 0.8710
2374.143533 0.8710 0.8710 0.8709 0.8699 0.8687
2378.444001 0.8661 0.8637 0.8617 0.8597 0.8576
2382.744469 0.8557 0.8542 0.8530 0.8530 0.8530
2387.044936 0.8530 0.8534 0.8549 0.8561 0.8567
2391.345404 0.8573 0.8583 0.8593 0.8604 0.8614
2395.645872 0.8624 0.8632 0.8637 0.8642 0.8647
2399.946339 0.8659 0.8679 0.8690 0.8690 0.8690
2404.246807 0.8690 0.8690 0.8690 0.8695 0.8705
2408.547275 0.8704 0.8694 0.8690 0.8690 0.8690
2412.847743 0.8690 0.8687 0.8682 0.8680 0.8680
2417.148210 0.8680 0.8680 0.8680 0.8680 0.8684
2421.448678 0.8689 0.8690 0.8690 0.8698 0.8708
2425.749146 0.8710 0.8710 0.8714 0.8719 0.8724
2430.049613 0.8729 0.8739 0.8749 0.8750 0.8750
2434.350081 0.8759 0.8769 0.8779 0.8789 0.8790
2438.650549 0.8790 0.8790 0.8790 0.8790 0.8790
2442.951017 0.8790 0.8790 0.8790 0.8790 0.8790
2447.251484 0.8790 0.8790 0.8790 0.8790 0.8790
2451.551952 0.8790 0.8789 0.8779 0.8770 0.8770
2455.852420 0.8770 0.8770 0.8772 0.8782 0.8790
2460.152887 0.8790 0.8790 0.8790 0.8790 0.8790
2464.453355 0.8790 0.8790 0.8790 0.8790 0.8787
2468.753823 0.8776 0.8770 0.8770 0.8768 0.8763
2473.054290 0.8760 0.8760 0.8753 0.8738 0.8730
2477.354758 0.8730 0.8730 0.8730 0.8727 0.8722
2481.655226 0.8720 0.8720 0.8720 0.8720 0.8717
2485.955694 0.8712 0.8710 0.8710 0.8704 0.8694
2490.256161 0.8690 0.8690 0.8687 0.8682 0.8676
2494.556629 0.8671 0.8663 0.8653 0.8646 0.8641
2498.857097 0.8640 0.8640 0.8636 0.8631 0.8630
2503.157564 0.8630 0.8622 0.8612 0.8606 0.8601
2507.458032 0.8600 0.8600 0.8595 0.8590 0.8581
2511.758500 0.8570 0.8570 0.8570 0.8560 0.8550
2516.058968 0.8550 0.8550 0.8540 0.8530 0.8525
2520.359435 0.8520 0.8515 0.8510 0.8510 0.8509
2524.659903 0.8499 0.8489 0.8484 0.8478 0.8462
2528.960371 0.8449 0.8444 0.8438 0.8428 0.8419
2533.260838 0.8414 0.8409 0.8404 0.8397 0.8387
2537.561306 0.8374 0.8354 0.8340 0.8340 0.8337
2541.861774 0.8327 0.8320 0.8320 0.8316 0.8306
2546.162242 0.8296 0.8286 0.8273 0.8258 0.8250
2550.462709 0.8250 0.8243 0.8228 0.8217 0.8212
2554.763177 0.8207 0.8202 0.8192 0.8177 0.8167
2559.063645 0.8162 0.8151 0.8136 0.8127 0.8122
2563.364112 0.8113 0.8103 0.8093 0.8083 0.8070
2567.664580 0.8054 0.8046 0.8041 0.8033 0.8022
2571.965048 0.8020 0.8020 0.8016 0.8011 0.8010
2576.265515 0.8010 0.8006 0.8001 0.8000 0.8000
2580.565983 0.7991 0.7981 0.7975 0.7970 0.7970
2584.866451 0.7970 0.7960 0.7950 0.7950 0.7950
2589.166919 0.7945 0.7940 0.7935 0.7930 0.7930
2593.467386 0.7930 0.7919 0.7910 0.7905 0.7899
2597.767854 0.7894 0.7888 0.7873 0.7859 0.7854
2602.068322 0.7850 0.7850 0.7848 0.7838 0.7830
2606.368789 0.7830 0.7829 0.7824 0.7819 0.7814
2610.669257 0.7807 0.7797 0.7790 0.7790 0.7788
2614.969725 0.7783 0.7775 0.7759 0.7748 0.7743
2619.270193 0.7738 0.7733 0.7726 0.7716 0.7705
2623.570660 0.7695 0.7685 0.7675 0.7668 0.7662
2627.871128 0.7657 0.7652 0.7642 0.7626 0.7611
2632.171596 0.7596 0.7590 0.7590 0.7587 0.7582
2636.472063 0.7577 0.7572 0.7563 0.7553 0.7547
2640.772531 0.7542 0.7536 0.7531 0.7523 0.7513
2645.072999 0.7506 0.7501 0.7488 0.7473 0.7470
2649.373467 0.7470 0.7466 0.7461 0.7460 0.7460
2653.673934 0.7451 0.7441 0.7436 0.7430 0.7416
2657.974402 0.7401 0.7358 0.7312 0.7296 0.7280
2662.274870 0.7275 0.7270 0.7270 0.7270 0.7265
2666.575337 0.7259 0.7239 0.7219 0.7209 0.7198
2670.875805 0.7178 0.7159 0.7154 0.7149 0.7144
2675.176273 0.7138 0.7122 0.7109 0.7104 0.7098
2679.476740 0.7088 0.7079 0.7074 0.7066 0.7051
2683.777208 0.7033 0.7007 0.6985 0.6970 0.6953
2688.077676 0.6933 0.6920 0.6920 0.6914 0.6899
2692.378144 0.6886 0.6876 0.6864 0.6849 0.6829
2696.678611 0.6803 0.6783 0.6768 0.6752 0.6737
2700.979079 0.6725 0.6715 0.6702 0.6687 0.6669
2705.279547 0.6648 0.6625 0.6600 0.6578 0.6558
2709.580014 0.6541 0.6525 0.6507 0.6487 0.6473
2713.880482 0.6463 0.6453 0.6443 0.6403 0.6353
2718.180950 0.6332 0.6322 0.6308 0.6293 0.6270
2722.481418 0.6245 0.6199 0.6148 0.6106 0.6066
2726.781885 0.6038 0.6013 0.5983 0.5953 0.5932
2731.082353 0.5911 0.5886 0.5861 0.5807 0.5751
2735.382821 0.5701 0.5650 0.5620 0.5589 0.5559
2739.683288 0.5528 0.5483 0.5437 0.5392 0.5347
2743.983756 0.5306 0.5266 0.5225 0.5185 0.5150
2748.284224 0.5116 0.5090 0.5067 0.5052 0.5039
2752.584691 0.5034 0.5025 0.5005 0.4981 0.4946
2756.885159 0.4914 0.4894 0.4873 0.4847 0.4825
2761.185627 0.4810 0.4798 0.4793 0.4777 0.4741
2765.486095 0.4710 0.4685 0.4653 0.4613 0.4574
2769.786562 0.4539 0.4520 0.4520 0.4510 0.4490
2774.087030 0.4465 0.4434 0.4407 0.4381 0.4351
2778.387498 0.4315 0.4283 0.4252 0.4219 0.4183
2782.687965 0.4154 0.4129 0.4107 0.4087 0.4046
2786.988433 0.3996 0.3952 0.3912 0.3882 0.3857
2791.288901 0.3824 0.3789 0.3749 0.3709 0.3653
2795.589369 0.3592 0.3548 0.3507 0.3467 0.3426
2799.889836 0.3411 0.3401 0.3409 0.3419 0.3425
2804.190304 0.3430 0.3449 0.3469 0.3489 0.3509
2808.490772 0.3510 0.3510 0.3545 0.3580 0.3605
2812.791239 0.3631 0.3672 0.3714 0.3785 0.3859
2817.091707 0.3955 0.4042 0.4062 0.4091 0.4172
2821.392175 0.4250 0.4316 0.4381 0.4441 0.4500
2825.692643 0.4551 0.4597 0.4627 0.4652 0.4663
2829.993110 0.4671 0.4676 0.4681 0.4687 0.4690
2834.293578 0.4690 0.4690 0.4690 0.4690 0.4690
2838.594046 0.4688 0.4683 0.4680 0.4680 0.4678
2842.894513 0.4673 0.4663 0.4648 0.4633 0.4618
2847.194981 0.4588 0.4542 0.4504 0.4474 0.4449
2851.495449 0.4429 0.4414 0.4404 0.4391 0.4376
2855.795916 0.4358 0.4337 0.4304 0.4264 0.4233
2860.096384 0.4208 0.4186 0.4166 0.4149 0.4134
2864.396852 0.4119 0.4104 0.4077 0.4047 0.4012
2868.697320 0.3977 0.3954 0.3934 0.3913 0.3893
2872.997787 0.3873 0.3853 0.3815 0.3774 0.3725
2877.298255 0.3674 0.3670 0.3670 0.3651 0.3631
2881.598723 0.3606 0.3581 0.3565 0.3550 0.3524
2885.899190 0.3498 0.3448 0.3398 0.3368 0.3338
2890.199658 0.3307 0.3277 0.3252 0.3228 0.3207
2894.500126 0.3187 0.3167 0.3144 0.3109 0.3074
2898.800594 0.3044 0.3009 0.2958 0.2915 0.2895
2903.101061 0.2871 0.2835 0.2801 0.2771 0.2739
2907.401529 0.2704 0.2668 0.2633 0.2606 0.2596
2911.701997 0.2586 0.2576 0.2546 0.2485 0.2433
2916.002464 0.2393 0.2361 0.2341 0.2320 0.2300
2920.302932 0.2282 0.2267 0.2247 0.2222 0.2202
2924.603400 0.2187 0.2143 0.2077 0.2038 0.2018
2928.903868 0.2007 0.2002 0.1991 0.1975 0.1937
2933.204335 0.1887 0.1850 0.1819 0.1785 0.1750
2937.504803 0.1714 0.1679 0.1647 0.1617 0.1587
2941.805271 0.1556 0.1530 0.1505 0.1475 0.1445
2946.105738 0.1419 0.1394 0.1373 0.1352 0.1328
2950.406206 0.1303 0.1272 0.1242 0.1221 0.1201
2954.706674 0.1176 0.1150 0.1130 0.1110 0.1085
2959.007141 0.1059 0.1024 0.0989 0.0958 0.0928
2963.307609 0.0898 0.0867 0.0831 0.0798 0.0783
2967.608077 0.0769 0.0764 0.0757 0.0736 0.0717
2971.908545 0.0702 0.0684 0.0653 0.0625 0.0605
2976.209012 0.0586 0.0571 0.0556 0.0541 0.0527
2980.509480 0.0517 0.0507 0.0497 0.0485 0.0470
2984.809948 0.0456 0.0446 0.0434 0.0419 0.0404
2989.110415 0.0388 0.0378 0.0373 0.0368 0.0363
2993.410883 0.0355 0.0345 0.0337 0.0332 0.0327
2997.711351 0.0322 0.0314 0.0304 0.0297 0.0292
3002.011819 0.0287 0.0282 0.0274 0.0264 0.0257
3006.312286 0.0252 0.0247 0.0242 0.0233 0.0223
3010.612754 0.0216 0.0211 0.0206 0.0201 0.0192
3014.913222 0.0182 0.0180 0.0180 0.0180 0.0180
3019.213689 0.0176 0.0171 0.0170 0.0170 0.0170
3023.514157 0.0170 0.0170 0.0170 0.0170 0.0170
3027.814625 0.0170 0.0170 0.0185 0.0200 0.0200
3032.115093 0.0200 0.0200 0.0200 0.0200 0.0200
3036.415560 0.0205 0.0210 0.0210 0.0210 0.0210
3040.716028 0.0210 0.0210 0.0211 0.0216 0.0220
3045.016496 0.0220 0.0220 0.0220 0.0220 0.0220
3049.316963 0.0222 0.0233 0.0240 0.0240 0.0241
3053.617431 0.0247 0.0250 0.0250 0.0250 0.0250
3057.917899 0.0252 0.0257 0.0260 0.0260 0.0264
3062.218366 0.0274 0.0280 0.0280 0.0280 0.0280
3066.518834 0.0280 0.0280 0.0280 0.0280 0.0280
3070.819302 0.0280 0.0280 0.0280 0.0280 0.0280
3075.119770 0.0280 0.0280 0.0280 0.0280 0.0283
3079.420237 0.0288 0.0290 0.0290 0.0293 0.0299
3083.720705 0.0300 0.0300 0.0307 0.0317 0.0320
3088.021173 0.0320 0.0328 0.0338 0.0348 0.0358
3092.321640 0.0364 0.0369 0.0383 0.0398 0.0404
3096.622108 0.0409 0.0424 0.0439 0.0445 0.0450
3100.922576 0.0455 0.0460 0.0475 0.0490 0.0500
3105.223044 0.0510 0.0515 0.0521 0.0536 0.0550
3109.523511 0.0555 0.0560 0.0565 0.0571 0.0581
3113.823979 0.0591 0.0601 0.0611 0.0622 0.0631
3118.124447 0.0636 0.0641 0.0646 0.0652 0.0662
3122.424914 0.0670 0.0670 0.0671 0.0676 0.0681
3126.725382 0.0687 0.0690 0.0690 0.0693 0.0703
3131.025850 0.0710 0.0710 0.0710 0.0710 0.0710
3135.326318 0.0710 0.0710 0.0710 0.0710 0.0710
3139.626785 0.0710 0.0710 0.0710 0.0710 0.0710
3143.927253 0.0710 0.0705 0.0694 0.0687 0.0682
3148.227721 0.0680 0.0680 0.0680 0.0680 0.0677
3152.528188 0.0672 0.0670 0.0670 0.0663 0.0653
3156.828656 0.0650 0.0650 0.0646 0.0641 0.0640
3161.129124 0.0640 0.0640 0.0640 0.0636 0.0631
3165.429591 0.0630 0.0630 0.0622 0.0611 0.0610
3169.730059 0.0610 0.0610 0.0610 0.0605 0.0600
3174.030527 0.0600 0.0600 0.0600 0.0600 0.0595
3178.330995 0.0590 0.0590 0.0590 0.0590 0.0590
3182.631462 0.0579 0.0570 0.0570 0.0570 0.0570
3186.931930 0.0569 0.0564 0.0560 0.0560 0.0559
3191.232398 0.0554 0.0550 0.0550 0.0550 0.0550
3195.532865 0.0550 0.0550 0.0550 0.0550 0.0550
3199.833333 0.0550 0.0550 0.0550 0.0550 0.0550
3204.133801 0.0550 0.0550 0.0550 0.0550 0.0550
3208.434269 0.0550 0.0552 0.0557 0.0560 0.0560
3212.734736 0.0562 0.0567 0.0570 0.0570 0.0570
3217.035204 0.0570 0.0575 0.0585 0.0593 0.0598
3221.335672 0.0603 0.0608 0.0616 0.0626 0.0630
3225.636139 0.0630 0.0633 0.0638 0.0643 0.0648
3229.936607 0.0657 0.0667 0.0674 0.0679 0.0680
3234.237075 0.0680 0.0684 0.0689 0.0702 0.0717
3238.537542 0.0732 0.0747 0.0754 0.0759 0.0773
3242.838010 0.0788 0.0794 0.0800 0.0823 0.0848
3247.138478 0.0878 0.0909 0.0934 0.0959 0.0994
3251.438946 0.1030 0.1045 0.1060 0.1065 0.1071
3255.739413 0.1096 0.1123 0.1179 0.1232 0.1258
3260.039881 0.1281 0.1291 0.1303 0.1323 0.1343
3264.340349 0.1363 0.1386 0.1416 0.1450 0.1501
3268.640816 0.1550 0.1596 0.1647 0.1718 0.1781
3272.941284 0.1821 0.1865 0.1916 0.1967 0.2017
3277.241752 0.2084 0.2180 0.2255 0.2295 0.2336
3281.542220 0.2376 0.2423 0.2479 0.2530 0.2575
3285.842687 0.2646 0.2747 0.2841 0.2927 0.3013
3290.143155 0.3099 0.3177 0.3249 0.3314 0.3375
3294.443623 0.3438 0.3504 0.3567 0.3627 0.3682
3298.744090 0.3732 0.3783 0.3833 0.3884 0.3934
3303.044558 0.3988 0.4044 0.4103 0.4164 0.4221
3307.345026 0.4276 0.4340 0.4406 0.4480 0.4556
3311.645494 0.4631 0.4707 0.4758 0.4803 0.4853
3315.945961 0.4904 0.4967 0.5033 0.5090 0.5145
3320.246429 0.5201 0.5257 0.5298 0.5338 0.5379
3324.546897 0.5419 0.5460 0.5501 0.5546 0.5592
3328.847364 0.5632 0.5673 0.5713 0.5753 0.5794
3333.147832 0.5833 0.5864 0.5898 0.5958 0.6018
3337.448300 0.6074 0.6123 0.6144 0.6161 0.6166
3341.748767 0.6173 0.6189 0.6210 0.6251 0.6286
3346.049235 0.6306 0.6323 0.6333 0.6346 0.6367
3350.349703 0.6383 0.6394 0.6402 0.6407 0.6416
3354.650171 0.6431 0.6442 0.6447 0.6452 0.6457
3358.950638 0.6465 0.6475 0.6480 0.6480 0.6488
3363.251106 0.6503 0.6513 0.6518 0.6534 0.6559
3367.551574 0.6587 0.6618 0.6633 0.6638 0.6649
3371.852041 0.6664 0.6702 0.6752 0.6780 0.6795
3376.152509 0.6831 0.6877 0.6937 0.7003 0.7027
3380.452977 0.7038 0.7055 0.7076 0.7111 0.7152
3384.753445 0.7192 0.7233 0.7286 0.7341 0.7397
3389.053912 0.7452 0.7495 0.7535 0.7576 0.7616
3393.354380 0.7657 0.7698 0.7753 0.7808 0.7854
3397.654848 0.7899 0.7950 0.8000 0.8031 0.8061
3401.955315 0.8096 0.8131 0.8151 0.8173 0.8208
3406.255783 0.8243 0.8273 0.8304 0.8339 0.8378
3410.556251 0.8434 0.8484 0.8504 0.8523 0.8538
3414.856719 0.8551 0.8556 0.8571 0.8616 0.8655
3419.157186 0.8675 0.8696 0.8716 0.8733 0.8743
3423.457654 0.8760 0.8790 0.8817 0.8837 0.8850
3427.758122 0.8850 0.8858 0.8878 0.8896 0.8912
3432.058589 0.8922 0.8927 0.8937 0.8952 0.8970
3436.359057 0.8990 0.9010 0.9031 0.9051 0.9071
3440.659525 0.9088 0.9104 0.9113 0.9118 0.9120
3444.959992 0.9120 0.9130 0.9145 0.9160 0.9175
3449.260460 0.9187 0.9197 0.9207 0.9217 0.9224
3453.560928 0.9229 0.9230 0.9230 0.9234 0.9239
3457.861396 0.9248 0.9258 0.9260 0.9260 0.9264
3462.161863 0.9269 0.9288 0.9308 0.9315 0.9320
3466.462331 0.9320 0.9320 0.9320 0.9320 0.9320
3470.762799 0.9320 0.9320 0.9320 0.9330 0.9340
3475.063266 0.9345 0.9350 0.9350 0.9350 0.9355
3479.363734 0.9360 0.9360 0.9361 0.9371 0.9380
3483.664202 0.9380 0.9381 0.9386 0.9390 0.9390
3487.964670 0.9390 0.9390 0.9391 0.9396 0.9400
3492.265137 0.9400 0.9400 0.9400 0.9400 0.9400
3496.565605 0.9403 0.9413 0.9420 0.9420 0.9420
3500.866073 0.9420 0.9420 0.9420 0.9420 0.9420
3505.166540 0.9420 0.9420 0.9420 0.9420 0.9422
3509.467008 0.9427 0.9433 0.9438 0.9440 0.9440
3513.767476 0.9440 0.9440 0.9440 0.9440 0.9440
3518.067944 0.9440 0.9440 0.9440 0.9447 0.9457
3522.368411 0.9460 0.9460 0.9460 0.9460 0.9460
3526.668879 0.9460 0.9460 0.9460 0.9464 0.9469
3530.969347 0.9470 0.9470 0.9470 0.9470 0.9470
3535.269814 0.9470 0.9470 0.9470 0.9470 0.9470
3539.570282 0.9470 0.9470 0.9470 0.9470 0.9470
3543.870750 0.9470 0.9470 0.9470 0.9470 0.9470
3548.171217 0.9470 0.9470 0.9470 0.9470 0.9470
3552.471685 0.9470 0.9470 0.9470 0.9470 0.9470
3556.772153 0.9470 0.9470 0.9470 0.9470 0.9470
3561.072621 0.9470 0.9470 0.9470 0.9470 0.9470
3565.373088 0.9470 0.9470 0.9470 0.9470 0.9470
3569.673556 0.9470 0.9470 0.9470 0.9470 0.9470
3573.974024 0.9470 0.9470 0.9470 0.9468 0.9463
3578.274491 0.9460 0.9460 0.9460 0.9460 0.9460
3582.574959 0.9460 0.9460 0.9460 0.9460 0.9460
3586.875427 0.9463 0.9468 0.9467 0.9462 0.9460
3591.175895 0.9460 0.9460 0.9460 0.9460 0.9460
3595.476362 0.9460 0.9460 0.9460 0.9460 0.9460
3599.776830 0.9460 0.9460 0.9460 0.9460 0.9460
3604.077298 0.9460 0.9460 0.9460 0.9460 0.9452
3608.377765 0.9442 0.9440 0.9440 0.9440 0.9440
3612.678233 0.9440 0.9440 0.9440 0.9440 0.9435
3616.978701 0.9430 0.9430 0.9430 0.9430 0.9430
3621.279169 0.9430 0.9430 0.9430 0.9430 0.9425
3625.579636 0.9420 0.9420 0.9420 0.9420 0.9420
3629.880104 0.9420 0.9419 0.9408 0.9400 0.9400
3634.180572 0.9400 0.9400 0.9400 0.9400 0.9400
3638.481039 0.9400 0.9400 0.9400 0.9399 0.9394
3642.781507 0.9390 0.9390 0.9390 0.9390 0.9388
3647.081975 0.9383 0.9380 0.9380 0.9380 0.9380
3651.382442 0.9380 0.9380 0.9375 0.9365 0.9360
3655.682910 0.9360 0.9360 0.9360 0.9357 0.9352
3659.983378 0.9350 0.9350 0.9350 0.9350 0.9350
3664.283846 0.9350 0.9347 0.9342 0.9340 0.9340
3668.584313 0.9333 0.9323 0.9320 0.9320 0.9320
3672.884781 0.9320 0.9320 0.9320 0.9316 0.9311
3677.185249 0.9310 0.9310 0.9310 0.9310 0.9306
3681.485716 0.9301 0.9300 0.9300 0.9291 0.9281
3685.786184 0.9280 0.9280 0.9280 0.9280 0.9275
3690.086652 0.9270 0.9265 0.9260 0.9260 0.9260
3694.387120 0.9250 0.9240 0.9240 0.9240 0.9240
3698.687587 0.9240 0.9240 0.9240 0.9240 0.9241
3702.988055 0.9251 0.9260 0.9260 0.9261 0.9266
3707.288523 0.9270 0.9270 0.9270 0.9270 0.9270
3711.588990 0.9270 0.9270 0.9270 0.9270 0.9270
3715.889458 0.9270 0.9270 0.9268 0.9263 0.9260
3720.189926 0.9260 0.9260 0.9260 0.9260 0.9260
3724.490394 0.9260 0.9260 0.9256 0.9245 0.9240
3728.790861 0.9240 0.9240 0.9240 0.9240 0.9240
3733.091329 0.9237 0.9232 0.9230 0.9230 0.9230
3737.391797 0.9230 0.9230 0.9230 0.9227 0.9222
3741.692264 0.9220 0.9220 0.9220 0.9220 0.9220
3745.992732 0.9220 0.9213 0.9203 0.9200 0.9200
3750.293200 0.9200 0.9200 0.9200 0.9200 0.9196
3754.593667 0.9191 0.9190 0.9190 0.9190 0.9190
3758.894135 0.9186 0.9180 0.9180 0.9180 0.9180
3763.194603 0.9180 0.9180 0.9180 0.9180 0.9180
3767.495071 0.9180 0.9180 0.9180 0.9180 0.9180
3771.795538 0.9179 0.9169 0.9160 0.9160 0.9160
3776.096006 0.9160 0.9159 0.9154 0.9150 0.9150
3780.396474 0.9150 0.9150 0.9149 0.9144 0.9138
3784.696941 0.9128 0.9120 0.9120 0.9120 0.9120
3788.997409 0.9120 0.9120 0.9120 0.9120 0.9120
3793.297877 0.9120 0.9120 0.9120 0.9120 0.9120
3797.598345 0.9120 0.9120 0.9120 0.9120 0.9120
3801.898812 0.9120
##END=
