##TITLE=S-Triazine, 6-butylamino-2,4-diamino-, monohydrochloride
##JCAMP-DX=4.24
##DATA TYPE=INFRARED SPECTRUM
##CLASS=COBLENTZ III
##ORIGIN=BRITISH PETROLEUM CO. LTD., ENGLAND
##OWNER=Copyright (C) 1987 by the Coblentz Society
Collection (C) 2018 copyright by the U.S. Secretary of Commerce
on behalf of the United States of America. All rights reserved.
##DATE=1972/06/12
##NAMES=N<2>-butyl-1,3,5-triazine-2,4,6-triamine hydrochloride
S-Triazine, 2-(butylamine)-4,6-diamino-, monohydrochloride
##MOLFORM=C7 H15 Cl N6
##SOURCE REFERENCE=COBLENTZ NO. 9345
##$NIST ID=B6009345
##$NIST SOURCE=COBLENTZ
##$NIST IMAGE=cob9345
##SPECTROMETER/DATA SYSTEM=PERKIN-ELMER 157
##STATE=SOLID (KBr DISC, 0.9% WT.)
$$ HCl RUN IN KBr MAY CONTAIN SOME HBr
$$ REF. Can. J. Spec., 18,4,101, '73 C. S. DOUSE and P. B. TOOKE
##SAMPLING PROCEDURE=TRANSMISSION
##RESOLUTION=2
##DATA PROCESSING=DIGITIZED BY COBLENTZ SOCIETY (BATCH II) FROM HARD COPY
##XUNITS=1/CM
##YUNITS=TRANSMITTANCE
##XFACTOR=1.0
##YFACTOR=1
##FIRSTX=668
##LASTX=4000
##FIRSTY=0.2169
##MAXX=4000
##MINX=668
##MAXY=0.831
##MINY=0.0135
##NPOINTS=3333
##XYDATA=(X++(Y..Y))
668.000000 0.2169 0.2171 0.2174 0.2176 0.2176
673.000000 0.2172 0.2171 0.2171 0.2174 0.2179
678.000000 0.2187 0.2202 0.2219 0.2224 0.2222
683.000000 0.2195 0.2188 0.2189 0.2188 0.2185
688.000000 0.2177 0.2168 0.2158 0.2139 0.2104
693.000000 0.2043 0.1975 0.1914 0.1848 0.1777
698.000000 0.1701 0.1618 0.1535 0.1446 0.1344
703.000000 0.1246 0.1162 0.1109 0.1097 0.1092
708.000000 0.1088 0.1082 0.1106 0.1168 0.1312
713.000000 0.1388 0.1397 0.1363 0.1296 0.1199
718.000000 0.1051 0.0884 0.0868 0.0868 0.0875
723.000000 0.0897 0.0939 0.1002 0.1079 0.1082
728.000000 0.1081 0.1074 0.1063 0.1048 0.1048
733.000000 0.1058 0.1057 0.1066 0.1051 0.1022
738.000000 0.1011 0.1008 0.1005 0.1001 0.0998
743.000000 0.0981 0.0955 0.0895 0.0849 0.0811
748.000000 0.0780 0.0763 0.0754 0.0729 0.0751
753.000000 0.0758 0.0819 0.0840 0.0859 0.0930
758.000000 0.1077 0.1195 0.1317 0.1450 0.1574
763.000000 0.1699 0.1805 0.1936 0.2077 0.2153
768.000000 0.2191 0.2314 0.2359 0.2400 0.2484
773.000000 0.2505 0.2508 0.2472 0.2444 0.2401
778.000000 0.2353 0.2297 0.2235 0.2168 0.2100
783.000000 0.1851 0.1536 0.1070 0.0588 0.0577
788.000000 0.0570 0.0886 0.1222 0.1624 0.2015
793.000000 0.2435 0.2708 0.3053 0.3189 0.3340
798.000000 0.3521 0.3720 0.3917 0.4186 0.4465
803.000000 0.4768 0.5019 0.5172 0.5305 0.5452
808.000000 0.5573 0.5729 0.5858 0.5948 0.6040
813.000000 0.6104 0.6169 0.6233 0.6304 0.6367
818.000000 0.6403 0.6452 0.6491 0.6528 0.6566
823.000000 0.6609 0.6648 0.6668 0.6674 0.6687
828.000000 0.6728 0.6869 0.6915 0.6991 0.7028
833.000000 0.7048 0.7064 0.7074 0.7084 0.7088
838.000000 0.7092 0.7097 0.7098 0.7099 0.7100
843.000000 0.7099 0.7098 0.7096 0.7091 0.7086
848.000000 0.7081 0.7093 0.7073 0.7069 0.7068
853.000000 0.7068 0.7068 0.7069 0.7070 0.7071
858.000000 0.7073 0.7074 0.7075 0.7076 0.7075
863.000000 0.7073 0.7071 0.7068 0.7063 0.7058
868.000000 0.7053 0.7042 0.7030 0.7017 0.6998
873.000000 0.6979 0.6955 0.6929 0.6901 0.6874
878.000000 0.6846 0.6809 0.6763 0.6736 0.6730
883.000000 0.6731 0.6734 0.6738 0.6739 0.6728
888.000000 0.6714 0.6699 0.6684 0.6670 0.6654
893.000000 0.6623 0.6585 0.6536 0.6481 0.6439
898.000000 0.6419 0.6410 0.6379 0.6323 0.6260
903.000000 0.6207 0.6186 0.6182 0.6179 0.6184
908.000000 0.6190 0.6205 0.6227 0.6235 0.6231
913.000000 0.6218 0.6202 0.6183 0.6162 0.6132
918.000000 0.6100 0.6063 0.6020 0.5971 0.5913
923.000000 0.5852 0.5806 0.5787 0.5750 0.5676
928.000000 0.5581 0.5466 0.5309 0.5195 0.5027
933.000000 0.4805 0.4580 0.4409 0.4341 0.4336
938.000000 0.4334 0.4413 0.4514 0.4577 0.4615
943.000000 0.4625 0.4628 0.4614 0.4635 0.4476
948.000000 0.4409 0.4324 0.4195 0.4177 0.4167
953.000000 0.4162 0.4161 0.4162 0.4111 0.4002
958.000000 0.3857 0.3715 0.3525 0.3388 0.3272
963.000000 0.3153 0.3022 0.2887 0.2721 0.2590
968.000000 0.2467 0.2319 0.2228 0.2205 0.2220
973.000000 0.2313 0.2406 0.2486 0.2554 0.2608
978.000000 0.2651 0.2738 0.3045 0.3414 0.3558
983.000000 0.3664 0.3764 0.3846 0.3909 0.3947
988.000000 0.3965 0.3972 0.3974 0.3973 0.3972
993.000000 0.3970 0.3970 0.3977 0.3975 0.3981
998.000000 0.3997 0.4017 0.4047 0.4085 0.4148
1003.000000 0.4220 0.4290 0.4373 0.4458 0.4559
1008.000000 0.4641 0.4712 0.4780 0.4842 0.4888
1013.000000 0.4918 0.4928 0.4930 0.4933 0.4933
1018.000000 0.4931 0.4922 0.4901 0.4871 0.4840
1023.000000 0.4798 0.4759 0.4722 0.4679 0.4634
1028.000000 0.4573 0.4488 0.4395 0.4312 0.4199
1033.000000 0.4077 0.3928 0.3839 0.3725 0.3605
1038.000000 0.3485 0.3366 0.3247 0.3128 0.3009
1043.000000 0.2891 0.2775 0.2673 0.2576 0.2486
1048.000000 0.2351 0.2218 0.2184 0.2190 0.2191
1053.000000 0.2199 0.2217 0.2245 0.2301 0.2353
1058.000000 0.2367 0.2371 0.2372 0.2275 0.2231
1063.000000 0.2187 0.2125 0.2165 0.2241 0.2317
1068.000000 0.2393 0.2469 0.2539 0.2568 0.2574
1073.000000 0.2593 0.2561 0.2539 0.2507 0.2476
1078.000000 0.2448 0.2433 0.2432 0.2430 0.2450
1083.000000 0.2612 0.2807 0.3001 0.3195 0.3389
1088.000000 0.3498 0.3530 0.3494 0.3473 0.3447
1093.000000 0.3419 0.3381 0.3334 0.3292 0.3252
1098.000000 0.3213 0.3174 0.3129 0.3081 0.3035
1103.000000 0.2990 0.2945 0.2890 0.2822 0.2755
1108.000000 0.2705 0.2683 0.2684 0.2669 0.2711
1113.000000 0.2735 0.2784 0.2826 0.2894 0.3036
1118.000000 0.3103 0.3133 0.3158 0.3173 0.3183
1123.000000 0.3189 0.3194 0.3199 0.3198 0.3196
1128.000000 0.3194 0.3212 0.3185 0.3174 0.3154
1133.000000 0.3129 0.3102 0.3055 0.2991 0.2924
1138.000000 0.2855 0.2781 0.2700 0.2598 0.2482
1143.000000 0.2314 0.2239 0.2232 0.2254 0.2272
1148.000000 0.2287 0.2300 0.2311 0.2322 0.2333
1153.000000 0.2346 0.2350 0.2352 0.2355 0.2371
1158.000000 0.2424 0.2509 0.2634 0.2662 0.2671
1163.000000 0.2675 0.2676 0.2675 0.2674 0.2684
1168.000000 0.2713 0.2751 0.2799 0.2856 0.2924
1173.000000 0.3003 0.3060 0.3088 0.3096 0.3095
1178.000000 0.3103 0.3087 0.3080 0.3061 0.3029
1183.000000 0.2991 0.2940 0.2892 0.2833 0.2744
1188.000000 0.2665 0.2613 0.2556 0.2440 0.2293
1193.000000 0.2145 0.1999 0.1852 0.1705 0.1559
1198.000000 0.1413 0.1256 0.1180 0.1152 0.1130
1203.000000 0.1153 0.1239 0.1370 0.1500 0.1630
1208.000000 0.1760 0.1895 0.2014 0.2059 0.2082
1213.000000 0.2092 0.2109 0.2082 0.2039 0.1983
1218.000000 0.1919 0.1859 0.1805 0.1732 0.1613
1223.000000 0.1494 0.1375 0.1256 0.1152 0.1129
1228.000000 0.1175 0.1308 0.1442 0.1575 0.1708
1233.000000 0.1805 0.1972 0.2051 0.2080 0.2097
1238.000000 0.2099 0.2096 0.2086 0.2114 0.2036
1243.000000 0.2012 0.1988 0.1961 0.1928 0.1895
1248.000000 0.1863 0.1830 0.1798 0.1760 0.1708
1253.000000 0.1656 0.1608 0.1562 0.1515 0.1466
1258.000000 0.1404 0.1354 0.1329 0.1358 0.1394
1263.000000 0.1448 0.1493 0.1528 0.1553 0.1560
1268.000000 0.1577 0.1554 0.1539 0.1522 0.1504
1273.000000 0.1487 0.1469 0.1451 0.1432 0.1414
1278.000000 0.1396 0.1376 0.1357 0.1332 0.1308
1283.000000 0.1275 0.1236 0.1195 0.1155 0.1108
1288.000000 0.1039 0.0973 0.0926 0.0883 0.0840
1293.000000 0.0793 0.0739 0.0687 0.0630 0.0572
1298.000000 0.0513 0.0460 0.0425 0.0405 0.0388
1303.000000 0.0382 0.0378 0.0375 0.0373 0.0370
1308.000000 0.0356 0.0335 0.0318 0.0307 0.0306
1313.000000 0.0312 0.0329 0.0348 0.0362 0.0372
1318.000000 0.0373 0.0369 0.0355 0.0329 0.0298
1323.000000 0.0259 0.0223 0.0215 0.0210 0.0205
1328.000000 0.0204 0.0203 0.0201 0.0200 0.0197
1333.000000 0.0196 0.0195 0.0192 0.0191 0.0189
1338.000000 0.0187 0.0186 0.0184 0.0173 0.0180
1343.000000 0.0179 0.0177 0.0175 0.0173 0.0173
1348.000000 0.0173 0.0173 0.0176 0.0180 0.0183
1353.000000 0.0189 0.0203 0.0216 0.0236 0.0255
1358.000000 0.0270 0.0275 0.0279 0.0283 0.0283
1363.000000 0.0283 0.0284 0.0284 0.0286 0.0294
1368.000000 0.0307 0.0323 0.0339 0.0355 0.0370
1373.000000 0.0375 0.0380 0.0384 0.0387 0.0387
1378.000000 0.0387 0.0389 0.0389 0.0387 0.0380
1383.000000 0.0374 0.0360 0.0335 0.0309 0.0290
1388.000000 0.0273 0.0258 0.0243 0.0233 0.0224
1393.000000 0.0214 0.0208 0.0204 0.0200 0.0200
1398.000000 0.0210 0.0206 0.0208 0.0211 0.0212
1403.000000 0.0221 0.0230 0.0241 0.0251 0.0261
1408.000000 0.0274 0.0287 0.0301 0.0313 0.0324
1413.000000 0.0334 0.0344 0.0354 0.0358 0.0360
1418.000000 0.0362 0.0364 0.0362 0.0357 0.0354
1423.000000 0.0349 0.0346 0.0344 0.0342 0.0340
1428.000000 0.0341 0.0349 0.0356 0.0364 0.0373
1433.000000 0.0383 0.0392 0.0402 0.0412 0.0419
1438.000000 0.0428 0.0436 0.0445 0.0446 0.0443
1443.000000 0.0439 0.0439 0.0426 0.0419 0.0411
1448.000000 0.0405 0.0403 0.0401 0.0399 0.0397
1453.000000 0.0397 0.0396 0.0396 0.0395 0.0395
1458.000000 0.0394 0.0394 0.0393 0.0393 0.0392
1463.000000 0.0392 0.0392 0.0391 0.0391 0.0391
1468.000000 0.0390 0.0390 0.0389 0.0389 0.0389
1473.000000 0.0388 0.0388 0.0387 0.0387 0.0384
1478.000000 0.0376 0.0365 0.0353 0.0341 0.0329
1483.000000 0.0316 0.0303 0.0291 0.0279 0.0266
1488.000000 0.0254 0.0241 0.0229 0.0216 0.0206
1493.000000 0.0200 0.0196 0.0193 0.0191 0.0189
1498.000000 0.0185 0.0183 0.0181 0.0180 0.0183
1503.000000 0.0187 0.0191 0.0195 0.0198 0.0203
1508.000000 0.0207 0.0211 0.0215 0.0218 0.0221
1513.000000 0.0223 0.0223 0.0223 0.0222 0.0220
1518.000000 0.0219 0.0219 0.0218 0.0217 0.0217
1523.000000 0.0216 0.0215 0.0215 0.0214 0.0213
1528.000000 0.0213 0.0212 0.0210 0.0210 0.0209
1533.000000 0.0208 0.0207 0.0206 0.0206 0.0205
1538.000000 0.0204 0.0203 0.0203 0.0202 0.0201
1543.000000 0.0200 0.0200 0.0199 0.0198 0.0197
1548.000000 0.0196 0.0195 0.0194 0.0194 0.0193
1553.000000 0.0192 0.0191 0.0191 0.0190 0.0189
1558.000000 0.0188 0.0188 0.0187 0.0186 0.0186
1563.000000 0.0185 0.0184 0.0184 0.0183 0.0183
1568.000000 0.0182 0.0181 0.0181 0.0180 0.0179
1573.000000 0.0179 0.0178 0.0177 0.0177 0.0176
1578.000000 0.0175 0.0175 0.0174 0.0173 0.0173
1583.000000 0.0172 0.0172 0.0171 0.0170 0.0170
1588.000000 0.0169 0.0168 0.0168 0.0167 0.0167
1593.000000 0.0166 0.0166 0.0165 0.0165 0.0164
1598.000000 0.0164 0.0164 0.0163 0.0162 0.0162
1603.000000 0.0161 0.0161 0.0160 0.0160 0.0159
1608.000000 0.0159 0.0158 0.0158 0.0157 0.0157
1613.000000 0.0158 0.0158 0.0159 0.0159 0.0159
1618.000000 0.0159 0.0160 0.0160 0.0161 0.0161
1623.000000 0.0161 0.0162 0.0162 0.0163 0.0163
1628.000000 0.0164 0.0164 0.0164 0.0165 0.0165
1633.000000 0.0166 0.0166 0.0166 0.0167 0.0168
1638.000000 0.0169 0.0169 0.0170 0.0171 0.0172
1643.000000 0.0173 0.0173 0.0174 0.0175 0.0176
1648.000000 0.0177 0.0177 0.0177 0.0178 0.0179
1653.000000 0.0180 0.0181 0.0182 0.0182 0.0183
1658.000000 0.0185 0.0187 0.0188 0.0190 0.0192
1663.000000 0.0194 0.0196 0.0197 0.0199 0.0201
1668.000000 0.0203 0.0205 0.0206 0.0209 0.0213
1673.000000 0.0217 0.0221 0.0224 0.0228 0.0231
1678.000000 0.0235 0.0240 0.0243 0.0247 0.0253
1683.000000 0.0259 0.0266 0.0273 0.0279 0.0283
1688.000000 0.0285 0.0287 0.0290 0.0292 0.0293
1693.000000 0.0293 0.0293 0.0293 0.0293 0.0292
1698.000000 0.0292 0.0292 0.0293 0.0294 0.0294
1703.000000 0.0295 0.0295 0.0296 0.0297 0.0297
1708.000000 0.0300 0.0306 0.0312 0.0320 0.0329
1713.000000 0.0337 0.0346 0.0354 0.0361 0.0368
1718.000000 0.0373 0.0376 0.0377 0.0399 0.0451
1723.000000 0.0502 0.0553 0.0605 0.0656 0.0707
1728.000000 0.0758 0.0809 0.0860 0.0911 0.0988
1733.000000 0.1046 0.1069 0.1082 0.1092 0.1102
1738.000000 0.1111 0.1127 0.1155 0.1196 0.1273
1743.000000 0.1335 0.1395 0.1460 0.1537 0.1636
1748.000000 0.1673 0.1710 0.1747 0.1863 0.2154
1753.000000 0.2311 0.2422 0.2561 0.2691 0.2786
1758.000000 0.2971 0.3064 0.3148 0.3232 0.3316
1763.000000 0.3399 0.3482 0.3566 0.3649 0.3732
1768.000000 0.3816 0.3899 0.3981 0.4064 0.4147
1773.000000 0.4229 0.4312 0.4388 0.4463 0.4554
1778.000000 0.4707 0.4764 0.4811 0.4860 0.4913
1783.000000 0.4980 0.5048 0.5139 0.5239 0.5317
1788.000000 0.5392 0.5459 0.5522 0.5579 0.5637
1793.000000 0.5699 0.5761 0.5855 0.6018 0.6061
1798.000000 0.6099 0.6134 0.6169 0.6204 0.6224
1803.000000 0.6241 0.6258 0.6276 0.6292 0.6309
1808.000000 0.6326 0.6344 0.6361 0.6379 0.6399
1813.000000 0.6422 0.6444 0.6467 0.6489 0.6512
1818.000000 0.6534 0.6558 0.6583 0.6609 0.6635
1823.000000 0.6661 0.6687 0.6715 0.6745 0.6774
1828.000000 0.6804 0.6834 0.6868 0.6909 0.6951
1833.000000 0.7016 0.7209 0.7351 0.7458 0.7533
1838.000000 0.7575 0.7586 0.7587 0.7589 0.7592
1843.000000 0.7602 0.7621 0.7651 0.7680 0.7707
1848.000000 0.7734 0.7761 0.7789 0.7818 0.7847
1853.000000 0.7876 0.7914 0.7954 0.7993 0.8025
1858.000000 0.8056 0.8079 0.8087 0.8094 0.8101
1863.000000 0.8108 0.8114 0.8119 0.8124 0.8129
1868.000000 0.8134 0.8140 0.8146 0.8156 0.8166
1873.000000 0.8176 0.8186 0.8209 0.8233 0.8254
1878.000000 0.8264 0.8274 0.8282 0.8288 0.8289
1883.000000 0.8289 0.8289 0.8289 0.8288 0.8298
1888.000000 0.8284 0.8281 0.8279 0.8277 0.8274
1893.000000 0.8271 0.8269 0.8261 0.8254 0.8246
1898.000000 0.8236 0.8226 0.8216 0.8209 0.8204
1903.000000 0.8200 0.8197 0.8193 0.8189 0.8185
1908.000000 0.8182 0.8181 0.8181 0.8181 0.8181
1913.000000 0.8182 0.8182 0.8182 0.8182 0.8182
1918.000000 0.8184 0.8173 0.8187 0.8191 0.8196
1923.000000 0.8201 0.8206 0.8211 0.8218 0.8226
1928.000000 0.8233 0.8239 0.8251 0.8263 0.8275
1933.000000 0.8281 0.8288 0.8294 0.8299 0.8302
1938.000000 0.8303 0.8303 0.8304 0.8305 0.8305
1943.000000 0.8304 0.8304 0.8302 0.8310 0.8299
1948.000000 0.8297 0.8295 0.8293 0.8291 0.8287
1953.000000 0.8279 0.8272 0.8265 0.8259 0.8252
1958.000000 0.8244 0.8233 0.8223 0.8213 0.8204
1963.000000 0.8195 0.8186 0.8178 0.8173 0.8169
1968.000000 0.8167 0.8166 0.8164 0.8162 0.8160
1973.000000 0.8158 0.8156 0.8154 0.8152 0.8150
1978.000000 0.8149 0.8149 0.8149 0.8150 0.8150
1983.000000 0.8151 0.8151 0.8151 0.8152 0.8152
1988.000000 0.8152 0.8154 0.8156 0.8157 0.8158
1993.000000 0.8160 0.8161 0.8162 0.8162 0.8160
1998.000000 0.8153 0.8145 0.8137 0.8128 0.8119
2003.000000 0.8110 0.8095 0.8076 0.8046 0.8022
2008.000000 0.8003 0.7996 0.7989 0.7983 0.7980
2013.000000 0.7977 0.7975 0.7974 0.7972 0.7970
2018.000000 0.7968 0.7966 0.7962 0.7957 0.7943
2023.000000 0.7930 0.7917 0.7905 0.7893 0.7880
2028.000000 0.7867 0.7855 0.7843 0.7830 0.7819
2033.000000 0.7809 0.7800 0.7791 0.7782 0.7773
2038.000000 0.7764 0.7755 0.7745 0.7736 0.7726
2043.000000 0.7716 0.7706 0.7696 0.7687 0.7677
2048.000000 0.7667 0.7657 0.7648 0.7639 0.7631
2053.000000 0.7623 0.7615 0.7607 0.7599 0.7591
2058.000000 0.7582 0.7574 0.7566 0.7559 0.7554
2063.000000 0.7549 0.7544 0.7540 0.7535 0.7531
2068.000000 0.7527 0.7522 0.7519 0.7517 0.7515
2073.000000 0.7513 0.7512 0.7510 0.7507 0.7504
2078.000000 0.7501 0.7498 0.7494 0.7491 0.7483
2083.000000 0.7470 0.7457 0.7444 0.7428 0.7412
2088.000000 0.7399 0.7391 0.7387 0.7383 0.7380
2093.000000 0.7376 0.7372 0.7368 0.7365 0.7362
2098.000000 0.7358 0.7355 0.7352 0.7350 0.7347
2103.000000 0.7345 0.7342 0.7340 0.7338 0.7336
2108.000000 0.7333 0.7331 0.7329 0.7327 0.7325
2113.000000 0.7323 0.7321 0.7319 0.7317 0.7315
2118.000000 0.7313 0.7311 0.7308 0.7307 0.7305
2123.000000 0.7303 0.7301 0.7299 0.7297 0.7290
2128.000000 0.7283 0.7277 0.7271 0.7264 0.7254
2133.000000 0.7245 0.7235 0.7226 0.7216 0.7205
2138.000000 0.7189 0.7172 0.7155 0.7137 0.7120
2143.000000 0.7102 0.7084 0.7066 0.7047 0.7032
2148.000000 0.7018 0.7005 0.6993 0.6981 0.6974
2153.000000 0.6971 0.6968 0.6966 0.6964 0.6962
2158.000000 0.6959 0.6957 0.6955 0.6953 0.6953
2163.000000 0.6952 0.6952 0.6951 0.6951 0.6950
2168.000000 0.6950 0.6949 0.6949 0.6948 0.6948
2173.000000 0.6947 0.6947 0.6947 0.6947 0.6947
2178.000000 0.6948 0.6948 0.6949 0.6949 0.6949
2183.000000 0.6949 0.6950 0.6950 0.6951 0.6951
2188.000000 0.6952 0.6952 0.6951 0.6951 0.6950
2193.000000 0.6948 0.6947 0.6946 0.6945 0.6944
2198.000000 0.6943 0.6942 0.6939 0.6935 0.6932
2203.000000 0.6927 0.6921 0.6915 0.6909 0.6902
2208.000000 0.6896 0.6889 0.6883 0.6877 0.6870
2213.000000 0.6863 0.6855 0.6848 0.6841 0.6834
2218.000000 0.6826 0.6819 0.6812 0.6805 0.6798
2223.000000 0.6791 0.6784 0.6777 0.6770 0.6763
2228.000000 0.6756 0.6749 0.6742 0.6735 0.6728
2233.000000 0.6720 0.6713 0.6705 0.6698 0.6691
2238.000000 0.6684 0.6677 0.6670 0.6662 0.6655
2243.000000 0.6646 0.6638 0.6630 0.6622 0.6612
2248.000000 0.6602 0.6591 0.6581 0.6569 0.6557
2253.000000 0.6544 0.6531 0.6519 0.6506 0.6494
2258.000000 0.6481 0.6469 0.6456 0.6444 0.6432
2263.000000 0.6420 0.6408 0.6395 0.6383 0.6371
2268.000000 0.6358 0.6346 0.6334 0.6321 0.6309
2273.000000 0.6297 0.6285 0.6273 0.6261 0.6249
2278.000000 0.6236 0.6224 0.6212 0.6200 0.6188
2283.000000 0.6176 0.6164 0.6152 0.6140 0.6128
2288.000000 0.6116 0.6103 0.6091 0.6079 0.6065
2293.000000 0.6049 0.6031 0.6012 0.5994 0.5978
2298.000000 0.5963 0.5948 0.5934 0.5920 0.5906
2303.000000 0.5892 0.5878 0.5868 0.5860 0.5851
2308.000000 0.5842 0.5833 0.5825 0.5816 0.5807
2313.000000 0.5799 0.5790 0.5782 0.5773 0.5764
2318.000000 0.5755 0.5746 0.5738 0.5730 0.5721
2323.000000 0.5712 0.5703 0.5694 0.5685 0.5676
2328.000000 0.5667 0.5659 0.5650 0.5641 0.5631
2333.000000 0.5623 0.5614 0.5605 0.5596 0.5587
2338.000000 0.5578 0.5569 0.5561 0.5553 0.5544
2343.000000 0.5536 0.5527 0.5518 0.5510 0.5501
2348.000000 0.5492 0.5484 0.5475 0.5467 0.5459
2353.000000 0.5450 0.5442 0.5435 0.5429 0.5424
2358.000000 0.5418 0.5413 0.5407 0.5402 0.5397
2363.000000 0.5391 0.5386 0.5380 0.5375 0.5370
2368.000000 0.5364 0.5359 0.5354 0.5348 0.5343
2373.000000 0.5338 0.5332 0.5327 0.5322 0.5316
2378.000000 0.5311 0.5306 0.5301 0.5295 0.5290
2383.000000 0.5285 0.5280 0.5275 0.5270 0.5265
2388.000000 0.5259 0.5254 0.5249 0.5244 0.5238
2393.000000 0.5233 0.5229 0.5224 0.5218 0.5213
2398.000000 0.5206 0.5199 0.5192 0.5184 0.5177
2403.000000 0.5170 0.5163 0.5156 0.5149 0.5142
2408.000000 0.5135 0.5128 0.5120 0.5113 0.5105
2413.000000 0.5097 0.5085 0.5073 0.5061 0.5049
2418.000000 0.5037 0.5025 0.5013 0.5001 0.4988
2423.000000 0.4974 0.4957 0.4940 0.4923 0.4907
2428.000000 0.4890 0.4873 0.4855 0.4838 0.4820
2433.000000 0.4801 0.4782 0.4763 0.4744 0.4725
2438.000000 0.4706 0.4688 0.4671 0.4654 0.4638
2443.000000 0.4621 0.4605 0.4588 0.4572 0.4556
2448.000000 0.4541 0.4527 0.4512 0.4498 0.4485
2453.000000 0.4471 0.4457 0.4443 0.4429 0.4415
2458.000000 0.4400 0.4386 0.4372 0.4357 0.4343
2463.000000 0.4328 0.4313 0.4299 0.4284 0.4269
2468.000000 0.4254 0.4240 0.4226 0.4210 0.4195
2473.000000 0.4178 0.4156 0.4133 0.4111 0.4088
2478.000000 0.4067 0.4048 0.4029 0.4015 0.4000
2483.000000 0.3986 0.3972 0.3958 0.3944 0.3929
2488.000000 0.3915 0.3901 0.3887 0.3864 0.3841
2493.000000 0.3815 0.3783 0.3752 0.3720 0.3688
2498.000000 0.3661 0.3637 0.3614 0.3591 0.3569
2503.000000 0.3545 0.3521 0.3497 0.3460 0.3424
2508.000000 0.3387 0.3351 0.3315 0.3293 0.3272
2513.000000 0.3250 0.3229 0.3207 0.3186 0.3165
2518.000000 0.3145 0.3128 0.3110 0.3094 0.3078
2523.000000 0.3062 0.3046 0.3030 0.3014 0.2998
2528.000000 0.2981 0.2963 0.2944 0.2926 0.2908
2533.000000 0.2889 0.2871 0.2853 0.2837 0.2823
2538.000000 0.2809 0.2798 0.2787 0.2776 0.2765
2543.000000 0.2754 0.2743 0.2732 0.2721 0.2710
2548.000000 0.2699 0.2688 0.2677 0.2666 0.2654
2553.000000 0.2642 0.2630 0.2617 0.2604 0.2592
2558.000000 0.2580 0.2568 0.2556 0.2543 0.2531
2563.000000 0.2519 0.2507 0.2494 0.2482 0.2469
2568.000000 0.2457 0.2444 0.2432 0.2420 0.2408
2573.000000 0.2395 0.2383 0.2370 0.2358 0.2345
2578.000000 0.2333 0.2321 0.2308 0.2296 0.2284
2583.000000 0.2272 0.2260 0.2248 0.2236 0.2224
2588.000000 0.2212 0.2201 0.2189 0.2178 0.2166
2593.000000 0.2154 0.2142 0.2130 0.2118 0.2105
2598.000000 0.2091 0.2077 0.2062 0.2047 0.2032
2603.000000 0.2017 0.2002 0.1987 0.1972 0.1958
2608.000000 0.1943 0.1929 0.1915 0.1901 0.1887
2613.000000 0.1873 0.1859 0.1845 0.1831 0.1818
2618.000000 0.1804 0.1790 0.1776 0.1762 0.1748
2623.000000 0.1735 0.1710 0.1682 0.1653 0.1622
2628.000000 0.1591 0.1560 0.1530 0.1500 0.1470
2633.000000 0.1440 0.1410 0.1379 0.1348 0.1317
2638.000000 0.1285 0.1254 0.1223 0.1197 0.1170
2643.000000 0.1144 0.1117 0.1091 0.1066 0.1044
2648.000000 0.1021 0.1001 0.0981 0.0962 0.0942
2653.000000 0.0923 0.0903 0.0887 0.0870 0.0853
2658.000000 0.0837 0.0821 0.0805 0.0791 0.0777
2663.000000 0.0765 0.0754 0.0742 0.0731 0.0720
2668.000000 0.0709 0.0698 0.0688 0.0678 0.0671
2673.000000 0.0664 0.0657 0.0650 0.0643 0.0637
2678.000000 0.0634 0.0631 0.0629 0.0626 0.0624
2683.000000 0.0622 0.0620 0.0618 0.0616 0.0615
2688.000000 0.0613 0.0613 0.0613 0.0613 0.0613
2693.000000 0.0613 0.0612 0.0612 0.0612 0.0611
2698.000000 0.0611 0.0611 0.0610 0.0610 0.0610
2703.000000 0.0609 0.0606 0.0604 0.0601 0.0598
2708.000000 0.0595 0.0592 0.0589 0.0586 0.0582
2713.000000 0.0578 0.0574 0.0570 0.0566 0.0561
2718.000000 0.0557 0.0552 0.0547 0.0540 0.0532
2723.000000 0.0523 0.0511 0.0498 0.0485 0.0474
2728.000000 0.0465 0.0455 0.0452 0.0450 0.0449
2733.000000 0.0448 0.0447 0.0446 0.0445 0.0444
2738.000000 0.0443 0.0442 0.0441 0.0440 0.0439
2743.000000 0.0438 0.0438 0.0437 0.0436 0.0436
2748.000000 0.0435 0.0435 0.0435 0.0434 0.0433
2753.000000 0.0433 0.0432 0.0431 0.0431 0.0430
2758.000000 0.0429 0.0429 0.0428 0.0426 0.0425
2763.000000 0.0424 0.0422 0.0421 0.0419 0.0415
2768.000000 0.0411 0.0408 0.0404 0.0400 0.0396
2773.000000 0.0392 0.0388 0.0384 0.0378 0.0373
2778.000000 0.0367 0.0361 0.0355 0.0349 0.0344
2783.000000 0.0340 0.0335 0.0331 0.0327 0.0323
2788.000000 0.0318 0.0314 0.0309 0.0305 0.0300
2793.000000 0.0296 0.0291 0.0287 0.0282 0.0278
2798.000000 0.0274 0.0270 0.0266 0.0263 0.0260
2803.000000 0.0257 0.0254 0.0251 0.0248 0.0245
2808.000000 0.0242 0.0239 0.0236 0.0233 0.0230
2813.000000 0.0227 0.0224 0.0221 0.0219 0.0216
2818.000000 0.0213 0.0210 0.0207 0.0204 0.0202
2823.000000 0.0200 0.0199 0.0197 0.0196 0.0195
2828.000000 0.0194 0.0192 0.0190 0.0189 0.0188
2833.000000 0.0186 0.0185 0.0184 0.0182 0.0181
2838.000000 0.0179 0.0178 0.0177 0.0175 0.0174
2843.000000 0.0172 0.0171 0.0169 0.0168 0.0167
2848.000000 0.0166 0.0165 0.0164 0.0163 0.0162
2853.000000 0.0161 0.0160 0.0160 0.0159 0.0159
2858.000000 0.0158 0.0157 0.0157 0.0156 0.0155
2863.000000 0.0154 0.0153 0.0153 0.0152 0.0151
2868.000000 0.0151 0.0150 0.0150 0.0150 0.0150
2873.000000 0.0150 0.0149 0.0149 0.0149 0.0148
2878.000000 0.0148 0.0148 0.0148 0.0148 0.0148
2883.000000 0.0148 0.0147 0.0147 0.0147 0.0147
2888.000000 0.0147 0.0147 0.0147 0.0146 0.0146
2893.000000 0.0146 0.0145 0.0145 0.0145 0.0145
2898.000000 0.0145 0.0145 0.0145 0.0144 0.0144
2903.000000 0.0144 0.0144 0.0144 0.0144 0.0144
2908.000000 0.0144 0.0144 0.0144 0.0143 0.0143
2913.000000 0.0143 0.0143 0.0143 0.0143 0.0143
2918.000000 0.0143 0.0143 0.0143 0.0143 0.0143
2923.000000 0.0143 0.0143 0.0143 0.0143 0.0143
2928.000000 0.0143 0.0143 0.0143 0.0142 0.0142
2933.000000 0.0142 0.0142 0.0142 0.0142 0.0142
2938.000000 0.0142 0.0142 0.0142 0.0142 0.0142
2943.000000 0.0142 0.0142 0.0142 0.0142 0.0142
2948.000000 0.0142 0.0142 0.0142 0.0142 0.0141
2953.000000 0.0141 0.0141 0.0141 0.0141 0.0141
2958.000000 0.0141 0.0140 0.0140 0.0140 0.0140
2963.000000 0.0140 0.0140 0.0140 0.0139 0.0139
2968.000000 0.0139 0.0139 0.0139 0.0139 0.0139
2973.000000 0.0138 0.0138 0.0138 0.0138 0.0137
2978.000000 0.0137 0.0137 0.0137 0.0137 0.0137
2983.000000 0.0137 0.0136 0.0136 0.0136 0.0136
2988.000000 0.0136 0.0136 0.0136 0.0135 0.0135
2993.000000 0.0135 0.0135 0.0135 0.0135 0.0135
2998.000000 0.0135 0.0135 0.0135 0.0135 0.0135
3003.000000 0.0135 0.0135 0.0135 0.0135 0.0135
3008.000000 0.0135 0.0135 0.0135 0.0135 0.0135
3013.000000 0.0136 0.0136 0.0136 0.0136 0.0136
3018.000000 0.0136 0.0136 0.0136 0.0136 0.0136
3023.000000 0.0136 0.0136 0.0136 0.0136 0.0136
3028.000000 0.0136 0.0136 0.0136 0.0137 0.0137
3033.000000 0.0137 0.0137 0.0137 0.0137 0.0137
3038.000000 0.0137 0.0137 0.0137 0.0137 0.0137
3043.000000 0.0137 0.0137 0.0137 0.0137 0.0137
3048.000000 0.0137 0.0138 0.0138 0.0138 0.0138
3053.000000 0.0139 0.0139 0.0140 0.0140 0.0141
3058.000000 0.0141 0.0141 0.0142 0.0142 0.0142
3063.000000 0.0142 0.0143 0.0143 0.0143 0.0143
3068.000000 0.0138 0.0144 0.0145 0.0145 0.0146
3073.000000 0.0146 0.0146 0.0146 0.0147 0.0147
3078.000000 0.0147 0.0148 0.0148 0.0148 0.0148
3083.000000 0.0149 0.0149 0.0150 0.0150 0.0151
3088.000000 0.0151 0.0151 0.0151 0.0152 0.0152
3093.000000 0.0152 0.0152 0.0153 0.0153 0.0153
3098.000000 0.0154 0.0154 0.0154 0.0154 0.0155
3103.000000 0.0155 0.0155 0.0155 0.0156 0.0156
3108.000000 0.0157 0.0157 0.0158 0.0158 0.0158
3113.000000 0.0158 0.0159 0.0159 0.0159 0.0159
3118.000000 0.0160 0.0160 0.0160 0.0160 0.0161
3123.000000 0.0161 0.0161 0.0162 0.0162 0.0162
3128.000000 0.0162 0.0163 0.0163 0.0164 0.0164
3133.000000 0.0165 0.0165 0.0165 0.0165 0.0166
3138.000000 0.0166 0.0166 0.0166 0.0167 0.0167
3143.000000 0.0168 0.0168 0.0169 0.0169 0.0169
3148.000000 0.0169 0.0170 0.0170 0.0170 0.0170
3153.000000 0.0171 0.0171 0.0172 0.0172 0.0173
3158.000000 0.0173 0.0173 0.0173 0.0174 0.0174
3163.000000 0.0174 0.0174 0.0175 0.0175 0.0176
3168.000000 0.0176 0.0177 0.0177 0.0177 0.0177
3173.000000 0.0178 0.0178 0.0178 0.0178 0.0179
3178.000000 0.0179 0.0180 0.0180 0.0181 0.0181
3183.000000 0.0182 0.0182 0.0183 0.0183 0.0184
3188.000000 0.0184 0.0185 0.0185 0.0186 0.0186
3193.000000 0.0187 0.0187 0.0188 0.0188 0.0189
3198.000000 0.0189 0.0190 0.0190 0.0190 0.0191
3203.000000 0.0191 0.0192 0.0192 0.0193 0.0193
3208.000000 0.0194 0.0194 0.0195 0.0195 0.0196
3213.000000 0.0196 0.0197 0.0198 0.0198 0.0199
3218.000000 0.0200 0.0201 0.0201 0.0202 0.0203
3223.000000 0.0203 0.0204 0.0204 0.0205 0.0205
3228.000000 0.0206 0.0207 0.0208 0.0208 0.0209
3233.000000 0.0210 0.0210 0.0211 0.0211 0.0212
3238.000000 0.0212 0.0213 0.0214 0.0214 0.0215
3243.000000 0.0216 0.0217 0.0217 0.0218 0.0219
3248.000000 0.0219 0.0220 0.0221 0.0222 0.0223
3253.000000 0.0224 0.0225 0.0226 0.0227 0.0228
3258.000000 0.0229 0.0230 0.0231 0.0232 0.0233
3263.000000 0.0235 0.0236 0.0237 0.0238 0.0239
3268.000000 0.0240 0.0241 0.0242 0.0243 0.0244
3273.000000 0.0246 0.0247 0.0248 0.0250 0.0251
3278.000000 0.0253 0.0255 0.0256 0.0258 0.0260
3283.000000 0.0262 0.0263 0.0265 0.0268 0.0270
3288.000000 0.0273 0.0275 0.0278 0.0280 0.0282
3293.000000 0.0285 0.0287 0.0288 0.0289 0.0289
3298.000000 0.0290 0.0291 0.0292 0.0292 0.0293
3303.000000 0.0294 0.0295 0.0296 0.0297 0.0298
3308.000000 0.0298 0.0299 0.0300 0.0300 0.0301
3313.000000 0.0302 0.0302 0.0303 0.0304 0.0304
3318.000000 0.0305 0.0306 0.0306 0.0307 0.0308
3323.000000 0.0309 0.0310 0.0311 0.0312 0.0312
3328.000000 0.0313 0.0314 0.0317 0.0320 0.0323
3333.000000 0.0326 0.0332 0.0338 0.0344 0.0351
3338.000000 0.0356 0.0360 0.0364 0.0368 0.0373
3343.000000 0.0374 0.0375 0.0377 0.0378 0.0379
3348.000000 0.0380 0.0382 0.0384 0.0385 0.0387
3353.000000 0.0388 0.0389 0.0391 0.0392 0.0393
3358.000000 0.0395 0.0396 0.0397 0.0399 0.0400
3363.000000 0.0401 0.0403 0.0404 0.0406 0.0408
3368.000000 0.0411 0.0413 0.0431 0.0455 0.0479
3373.000000 0.0503 0.0527 0.0549 0.0571 0.0593
3378.000000 0.0615 0.0632 0.0644 0.0657 0.0670
3383.000000 0.0683 0.0700 0.0716 0.0732 0.0749
3388.000000 0.0769 0.0793 0.0817 0.0840 0.0864
3393.000000 0.0901 0.0940 0.0979 0.1018 0.1058
3398.000000 0.1101 0.1144 0.1187 0.1230 0.1268
3403.000000 0.1304 0.1339 0.1375 0.1411 0.1459
3408.000000 0.1508 0.1557 0.1605 0.1654 0.1703
3413.000000 0.1752 0.1801 0.1850 0.1888 0.1921
3418.000000 0.1955 0.1988 0.2021 0.2052 0.2082
3423.000000 0.2113 0.2143 0.2197 0.2293 0.2389
3428.000000 0.2486 0.2582 0.2638 0.2670 0.2703
3433.000000 0.2736 0.2768 0.2793 0.2817 0.2841
3438.000000 0.2865 0.2897 0.2961 0.3026 0.3090
3443.000000 0.3155 0.3219 0.3285 0.3350 0.3415
3448.000000 0.3481 0.3525 0.3561 0.3597 0.3633
3453.000000 0.3669 0.3705 0.3741 0.3777 0.3813
3458.000000 0.3849 0.3885 0.3921 0.3957 0.3993
3463.000000 0.4029 0.4065 0.4100 0.4136 0.4172
3468.000000 0.4208 0.4243 0.4279 0.4315 0.4351
3473.000000 0.4386 0.4422 0.4457 0.4493 0.4529
3478.000000 0.4564 0.4600 0.4635 0.4671 0.4706
3483.000000 0.4742 0.4777 0.4813 0.4848 0.4879
3488.000000 0.4897 0.4915 0.4933 0.4950 0.4971
3493.000000 0.4996 0.5021 0.5046 0.5071 0.5095
3498.000000 0.5119 0.5142 0.5166 0.5189 0.5212
3503.000000 0.5234 0.5257 0.5279 0.5302 0.5328
3508.000000 0.5357 0.5385 0.5413 0.5442 0.5503
3513.000000 0.5574 0.5646 0.5717 0.5788 0.5815
3518.000000 0.5833 0.5851 0.5869 0.5887 0.5905
3523.000000 0.5923 0.5940 0.5958 0.5976 0.5991
3528.000000 0.6005 0.6020 0.6034 0.6048 0.6058
3533.000000 0.6067 0.6076 0.6086 0.6095 0.6104
3538.000000 0.6114 0.6123 0.6132 0.6142 0.6150
3543.000000 0.6158 0.6166 0.6175 0.6183 0.6190
3548.000000 0.6197 0.6204 0.6211 0.6219 0.6225
3553.000000 0.6232 0.6239 0.6246 0.6253 0.6261
3558.000000 0.6268 0.6276 0.6284 0.6292 0.6304
3563.000000 0.6319 0.6334 0.6348 0.6363 0.6374
3568.000000 0.6384 0.6394 0.6404 0.6414 0.6421
3573.000000 0.6426 0.6431 0.6435 0.6440 0.6444
3578.000000 0.6447 0.6450 0.6453 0.6456 0.6459
3583.000000 0.6461 0.6463 0.6464 0.6466 0.6468
3588.000000 0.6469 0.6471 0.6472 0.6474 0.6476
3593.000000 0.6477 0.6478 0.6479 0.6480 0.6481
3598.000000 0.6482 0.6483 0.6484 0.6484 0.6485
3603.000000 0.6486 0.6486 0.6486 0.6486 0.6486
3608.000000 0.6486 0.6486 0.6486 0.6486 0.6486
3613.000000 0.6486 0.6486 0.6486 0.6486 0.6486
3618.000000 0.6486 0.6486 0.6486 0.6486 0.6486
3623.000000 0.6486 0.6485 0.6485 0.6484 0.6484
3628.000000 0.6484 0.6480 0.6483 0.6482 0.6481
3633.000000 0.6481 0.6480 0.6480 0.6479 0.6478
3638.000000 0.6477 0.6477 0.6476 0.6475 0.6475
3643.000000 0.6474 0.6474 0.6473 0.6472 0.6470
3648.000000 0.6469 0.6468 0.6467 0.6465 0.6463
3653.000000 0.6461 0.6459 0.6457 0.6453 0.6449
3658.000000 0.6444 0.6440 0.6436 0.6431 0.6425
3663.000000 0.6420 0.6415 0.6409 0.6404 0.6400
3668.000000 0.6396 0.6393 0.6389 0.6385 0.6381
3673.000000 0.6377 0.6374 0.6370 0.6366 0.6362
3678.000000 0.6359 0.6355 0.6351 0.6347 0.6343
3683.000000 0.6339 0.6334 0.6330 0.6325 0.6321
3688.000000 0.6316 0.6311 0.6305 0.6300 0.6295
3693.000000 0.6290 0.6288 0.6287 0.6285 0.6284
3698.000000 0.6282 0.6280 0.6279 0.6277 0.6275
3703.000000 0.6274 0.6272 0.6271 0.6270 0.6269
3708.000000 0.6268 0.6267 0.6266 0.6266 0.6265
3713.000000 0.6265 0.6265 0.6264 0.6264 0.6264
3718.000000 0.6264 0.6264 0.6264 0.6263 0.6263
3723.000000 0.6263 0.6262 0.6262 0.6261 0.6261
3728.000000 0.6261 0.6261 0.6261 0.6261 0.6261
3733.000000 0.6261 0.6261 0.6261 0.6261 0.6260
3738.000000 0.6260 0.6259 0.6259 0.6258 0.6258
3743.000000 0.6256 0.6254 0.6252 0.6249 0.6247
3748.000000 0.6245 0.6240 0.6235 0.6229 0.6224
3753.000000 0.6219 0.6213 0.6208 0.6203 0.6197
3758.000000 0.6192 0.6187 0.6181 0.6176 0.6171
3763.000000 0.6165 0.6160 0.6155 0.6150 0.6144
3768.000000 0.6139 0.6134 0.6128 0.6123 0.6118
3773.000000 0.6112 0.6107 0.6101 0.6096 0.6090
3778.000000 0.6085 0.6080 0.6074 0.6069 0.6063
3783.000000 0.6058 0.6053 0.6048 0.6043 0.6038
3788.000000 0.6033 0.6028 0.6023 0.6018 0.6013
3793.000000 0.6009 0.6004 0.5999 0.5994 0.5989
3798.000000 0.5984 0.5979 0.5975 0.5970 0.5965
3803.000000 0.5961 0.5956 0.5951 0.5947 0.5942
3808.000000 0.5938 0.5933 0.5929 0.5924 0.5920
3813.000000 0.5915 0.5910 0.5906 0.5901 0.5897
3818.000000 0.5892 0.5888 0.5883 0.5879 0.5874
3823.000000 0.5870 0.5865 0.5861 0.5857 0.5852
3828.000000 0.5848 0.5843 0.5840 0.5836 0.5832
3833.000000 0.5828 0.5824 0.5820 0.5816 0.5812
3838.000000 0.5808 0.5804 0.5800 0.5796 0.5792
3843.000000 0.5788 0.5784 0.5780 0.5776 0.5772
3848.000000 0.5768 0.5764 0.5760 0.5756 0.5752
3853.000000 0.5747 0.5743 0.5738 0.5734 0.5729
3858.000000 0.5725 0.5722 0.5720 0.5717 0.5714
3863.000000 0.5712 0.5709 0.5708 0.5706 0.5705
3868.000000 0.5703 0.5702 0.5700 0.5700 0.5699
3873.000000 0.5698 0.5697 0.5696 0.5695 0.5695
3878.000000 0.5694 0.5694 0.5693 0.5693 0.5692
3883.000000 0.5692 0.5691 0.5691 0.5690 0.5689
3888.000000 0.5689 0.5688 0.5687 0.5686 0.5685
3893.000000 0.5684 0.5683 0.5681 0.5680 0.5679
3898.000000 0.5678 0.5677 0.5676 0.5671 0.5666
3903.000000 0.5661 0.5656 0.5651 0.5646 0.5642
3908.000000 0.5638 0.5635 0.5632 0.5628 0.5625
3913.000000 0.5623 0.5621 0.5620 0.5618 0.5617
3918.000000 0.5615 0.5614 0.5614 0.5613 0.5612
3923.000000 0.5612 0.5611 0.5610 0.5610 0.5610
3928.000000 0.5610 0.5610 0.5610 0.5609 0.5609
3933.000000 0.5609 0.5608 0.5608 0.5608 0.5608
3938.000000 0.5606 0.5605 0.5604 0.5602 0.5601
3943.000000 0.5600 0.5598 0.5597 0.5596 0.5595
3948.000000 0.5593 0.5592 0.5591 0.5589 0.5588
3953.000000 0.5586 0.5585 0.5584 0.5582 0.5581
3958.000000 0.5579 0.5578 0.5576 0.5575 0.5573
3963.000000 0.5572 0.5571 0.5569 0.5568 0.5566
3968.000000 0.5565 0.5563 0.5562 0.5561 0.5559
3973.000000 0.5558 0.5556 0.5555 0.5553 0.5552
3978.000000 0.5551 0.5549 0.5548 0.5546 0.5545
3983.000000 0.5544 0.5542 0.5541 0.5539 0.5538
3988.000000 0.5536 0.5535 0.5534 0.5532 0.5531
3993.000000 0.5529 0.5528 0.5527 0.5526 0.5525
3998.000000 0.5524 0.5523 0.5522
##END=
