##TITLE=HISTAMINE DIHYDROCHLORIDE
##JCAMP-DX=4.24
$$ By DXEDIT 1.05 (RS McDonald)
##DATA TYPE=INFRARED SPECTRUM
##CLASS=COBLENTZ III
##OWNER=COBLENTZ SOC.
Collection (C) 2018 copyright by the U.S. Secretary of Commerce
on behalf of the United States of America. All rights reserved.
##DATE=1961/08/08
##NAMES=2-(4-IMIDAZOLYL)-ETHYLAMINE DIHYDROCHLORIDE
##MOLFORM=C5 H11 Cl2 N3
##MP=244-246 C
##SOURCE REFERENCE=COBLENTZ NO. 05160
##$NIST ID=B6005160
##$NIST SOURCE=COBLENTZ
##$NIST IMAGE=cob5160
##SPECTROMETER/DATA SYSTEM=PERKIN-ELMER 21 (GRATING)
##INSTRUMENT PARAMETERS=FILTER AT ABOUT 10 MICRONS
##STATE=SOLID (1 mg / 200 mg KCl DISC) VS KCl
##PATH LENGTH=0.055 CM (THICKNESS)
##SAMPLING PROCEDURE=TRANSMISSION
##RESOLUTION=2
##DATA PROCESSING=DIGITIZED BY COBLENTZ SOCIETY (BATCH I) FROM HARD COPY
##XUNITS=1/CM
##YUNITS=TRANSMITTANCE
##XLABEL=Wavenumbers (cm-1)
##YLABEL=Transmittance
##XFACTOR=1
##YFACTOR=1
##DELTAX=1
##FIRSTX=4000
##LASTX=653
##FIRSTY=0.669
##MAXX=4000
##MINX=653
##MAXY=0.8748
##MINY=0.0496
##NPOINTS=3348
##XYDATA=(X++(Y..Y))
4000.000000 0.6690 0.6692 0.6694 0.6696 0.6698
3995.000000 0.6700 0.6703 0.6705 0.6707 0.6710
3990.000000 0.6711 0.6714 0.6717 0.6718 0.6721
3985.000000 0.6724 0.6725 0.6728 0.6731 0.6733
3980.000000 0.6736 0.6738 0.6740 0.6743 0.6745
3975.000000 0.6747 0.6750 0.6751 0.6755 0.6757
3970.000000 0.6758 0.6761 0.6764 0.6765 0.6768
3965.000000 0.6771 0.6774 0.6775 0.6778 0.6781
3960.000000 0.6783 0.6786 0.6788 0.6790 0.6793
3955.000000 0.6795 0.6797 0.6799 0.6801 0.6803
3950.000000 0.6805 0.6807 0.6808 0.6811 0.6812
3945.000000 0.6815 0.6817 0.6818 0.6821 0.6822
3940.000000 0.6825 0.6826 0.6828 0.6832 0.6834
3935.000000 0.6836 0.6838 0.6840 0.6842 0.6844
3930.000000 0.6846 0.6848 0.6850 0.6851 0.6854
3925.000000 0.6856 0.6858 0.6860 0.6861 0.6864
3920.000000 0.6865 0.6868 0.6871 0.6872 0.6875
3915.000000 0.6876 0.6878 0.6881 0.6883 0.6885
3910.000000 0.6887 0.6889 0.6891 0.6893 0.6895
3905.000000 0.6897 0.6899 0.6901 0.6904 0.6906
3900.000000 0.6908 0.6910 0.6911 0.6914 0.6915
3895.000000 0.6918 0.6921 0.6922 0.6925 0.6926
3890.000000 0.6928 0.6931 0.6934 0.6936 0.6938
3885.000000 0.6940 0.6941 0.6943 0.6945 0.6948
3880.000000 0.6950 0.6951 0.6954 0.6956 0.6958
3875.000000 0.6961 0.6962 0.6965 0.6967 0.6968
3870.000000 0.6971 0.6974 0.6975 0.6978 0.6980
3865.000000 0.6982 0.6984 0.6987 0.6989 0.6991
3860.000000 0.6993 0.6995 0.6998 0.7000 0.7001
3855.000000 0.7005 0.7007 0.7008 0.7011 0.7014
3850.000000 0.7015 0.7018 0.7021 0.7024 0.7025
3845.000000 0.7028 0.7030 0.7032 0.7035 0.7037
3840.000000 0.7039 0.7041 0.7044 0.7046 0.7049
3835.000000 0.7051 0.7053 0.7056 0.7058 0.7061
3830.000000 0.7062 0.7065 0.7068 0.7069 0.7071
3825.000000 0.7075 0.7076 0.7080 0.7082 0.7084
3820.000000 0.7086 0.7089 0.7091 0.7093 0.7095
3815.000000 0.7098 0.7100 0.7103 0.7105 0.7107
3810.000000 0.7110 0.7111 0.7115 0.7117 0.7119
3805.000000 0.7121 0.7124 0.7125 0.7128 0.7131
3800.000000 0.7133 0.7135 0.7138 0.7140 0.7143
3795.000000 0.7145 0.7148 0.7150 0.7151 0.7155
3790.000000 0.7157 0.7160 0.7161 0.7165 0.7167
3785.000000 0.7169 0.7171 0.7174 0.7176 0.7178
3780.000000 0.7181 0.7184 0.7186 0.7188 0.7191
3775.000000 0.7194 0.7198 0.7201 0.7204 0.7208
3770.000000 0.7211 0.7215 0.7218 0.7221 0.7225
3765.000000 0.7230 0.7233 0.7237 0.7240 0.7244
3760.000000 0.7247 0.7251 0.7255 0.7258 0.7261
3755.000000 0.7265 0.7269 0.7272 0.7276 0.7281
3750.000000 0.7285 0.7288 0.7292 0.7296 0.7299
3745.000000 0.7303 0.7307 0.7311 0.7314 0.7318
3740.000000 0.7321 0.7325 0.7328 0.7332 0.7336
3735.000000 0.7340 0.7343 0.7347 0.7351 0.7355
3730.000000 0.7358 0.7361 0.7365 0.7369 0.7374
3725.000000 0.7378 0.7382 0.7386 0.7390 0.7394
3720.000000 0.7399 0.7403 0.7407 0.7411 0.7415
3715.000000 0.7419 0.7425 0.7428 0.7433 0.7438
3710.000000 0.7442 0.7446 0.7451 0.7455 0.7458
3705.000000 0.7464 0.7468 0.7472 0.7476 0.7481
3700.000000 0.7486 0.7490 0.7495 0.7499 0.7504
3695.000000 0.7508 0.7512 0.7517 0.7521 0.7525
3690.000000 0.7530 0.7534 0.7539 0.7543 0.7547
3685.000000 0.7551 0.7555 0.7558 0.7562 0.7567
3680.000000 0.7571 0.7575 0.7580 0.7584 0.7588
3675.000000 0.7592 0.7597 0.7601 0.7605 0.7608
3670.000000 0.7612 0.7617 0.7621 0.7625 0.7628
3665.000000 0.7633 0.7637 0.7641 0.7644 0.7648
3660.000000 0.7651 0.7655 0.7658 0.7661 0.7664
3655.000000 0.7667 0.7671 0.7674 0.7676 0.7680
3650.000000 0.7683 0.7686 0.7689 0.7692 0.7695
3645.000000 0.7698 0.7701 0.7705 0.7708 0.7711
3640.000000 0.7715 0.7718 0.7721 0.7725 0.7728
3635.000000 0.7733 0.7736 0.7740 0.7743 0.7746
3630.000000 0.7749 0.7751 0.7754 0.7756 0.7758
3625.000000 0.7760 0.7761 0.7764 0.7764 0.7765
3620.000000 0.7765 0.7765 0.7765 0.7765 0.7765
3615.000000 0.7765 0.7765 0.7765 0.7765 0.7765
3610.000000 0.7765 0.7765 0.7765 0.7765 0.7765
3605.000000 0.7765 0.7765 0.7765 0.7765 0.7764
3600.000000 0.7764 0.7762 0.7769 0.7761 0.7760
3595.000000 0.7758 0.7758 0.7758 0.7757 0.7756
3590.000000 0.7755 0.7754 0.7753 0.7751 0.7750
3585.000000 0.7749 0.7748 0.7746 0.7745 0.7743
3580.000000 0.7740 0.7737 0.7734 0.7732 0.7728
3575.000000 0.7726 0.7724 0.7721 0.7718 0.7715
3570.000000 0.7714 0.7711 0.7708 0.7705 0.7701
3565.000000 0.7697 0.7692 0.7686 0.7681 0.7675
3560.000000 0.7671 0.7665 0.7661 0.7656 0.7651
3555.000000 0.7645 0.7640 0.7635 0.7630 0.7625
3550.000000 0.7619 0.7614 0.7608 0.7604 0.7599
3545.000000 0.7590 0.7582 0.7572 0.7564 0.7556
3540.000000 0.7544 0.7532 0.7519 0.7508 0.7497
3535.000000 0.7485 0.7472 0.7461 0.7449 0.7437
3530.000000 0.7425 0.7412 0.7400 0.7388 0.7376
3525.000000 0.7368 0.7360 0.7351 0.7343 0.7335
3520.000000 0.7326 0.7319 0.7312 0.7306 0.7298
3515.000000 0.7291 0.7284 0.7275 0.7268 0.7261
3510.000000 0.7254 0.7247 0.7239 0.7232 0.7224
3505.000000 0.7217 0.7210 0.7201 0.7195 0.7188
3500.000000 0.7180 0.7172 0.7165 0.7158 0.7151
3495.000000 0.7143 0.7136 0.7128 0.7119 0.7111
3490.000000 0.7101 0.7092 0.7083 0.7072 0.7062
3485.000000 0.7054 0.7044 0.7034 0.7025 0.7015
3480.000000 0.7005 0.6995 0.6986 0.6975 0.6965
3475.000000 0.6957 0.6947 0.6937 0.6926 0.6918
3470.000000 0.6908 0.6900 0.6891 0.6883 0.6875
3465.000000 0.6868 0.6861 0.6854 0.6847 0.6840
3460.000000 0.6833 0.6825 0.6818 0.6811 0.6805
3455.000000 0.6797 0.6790 0.6783 0.6775 0.6768
3450.000000 0.6761 0.6755 0.6748 0.6740 0.6733
3445.000000 0.6725 0.6718 0.6711 0.6703 0.6695
3440.000000 0.6687 0.6678 0.6671 0.6662 0.6654
3435.000000 0.6646 0.6638 0.6628 0.6621 0.6611
3430.000000 0.6604 0.6596 0.6587 0.6578 0.6571
3425.000000 0.6561 0.6555 0.6547 0.6540 0.6533
3420.000000 0.6525 0.6519 0.6514 0.6508 0.6501
3415.000000 0.6496 0.6490 0.6484 0.6478 0.6471
3410.000000 0.6467 0.6461 0.6458 0.6453 0.6449
3405.000000 0.6444 0.6440 0.6436 0.6432 0.6428
3400.000000 0.6424 0.6419 0.6415 0.6412 0.6408
3395.000000 0.6404 0.6400 0.6396 0.6392 0.6391
3390.000000 0.6389 0.6388 0.6386 0.6385 0.6384
3385.000000 0.6383 0.6382 0.6381 0.6379 0.6378
3380.000000 0.6377 0.6376 0.6375 0.6374 0.6373
3375.000000 0.6372 0.6371 0.6370 0.6368 0.6367
3370.000000 0.6366 0.6365 0.6364 0.6362 0.6362
3365.000000 0.6362 0.6360 0.6360 0.6358 0.6357
3360.000000 0.6356 0.6355 0.6354 0.6353 0.6352
3355.000000 0.6351 0.6349 0.6348 0.6347 0.6345
3350.000000 0.6344 0.6343 0.6341 0.6340 0.6339
3345.000000 0.6337 0.6336 0.6335 0.6333 0.6332
3340.000000 0.6330 0.6329 0.6328 0.6326 0.6325
3335.000000 0.6324 0.6322 0.6321 0.6320 0.6318
3330.000000 0.6317 0.6316 0.6312 0.6310 0.6306
3325.000000 0.6303 0.6299 0.6295 0.6290 0.6285
3320.000000 0.6280 0.6275 0.6271 0.6266 0.6260
3315.000000 0.6256 0.6252 0.6247 0.6242 0.6237
3310.000000 0.6232 0.6228 0.6223 0.6218 0.6207
3305.000000 0.6195 0.6183 0.6171 0.6159 0.6147
3300.000000 0.6135 0.6123 0.6110 0.6098 0.6086
3295.000000 0.6074 0.6062 0.6048 0.6034 0.6020
3290.000000 0.6006 0.5988 0.5965 0.5943 0.5921
3285.000000 0.5898 0.5876 0.5854 0.5831 0.5809
3280.000000 0.5787 0.5765 0.5743 0.5721 0.5699
3275.000000 0.5677 0.5656 0.5635 0.5612 0.5592
3270.000000 0.5570 0.5549 0.5527 0.5500 0.5473
3265.000000 0.5446 0.5419 0.5388 0.5356 0.5323
3260.000000 0.5290 0.5252 0.5206 0.5160 0.5115
3255.000000 0.5075 0.5056 0.5038 0.5019 0.5001
3250.000000 0.4976 0.4951 0.4927 0.4902 0.4872
3245.000000 0.4840 0.4808 0.4776 0.4744 0.4712
3240.000000 0.4680 0.4648 0.4615 0.4583 0.4551
3235.000000 0.4519 0.4487 0.4454 0.4422 0.4390
3230.000000 0.4357 0.4325 0.4293 0.4260 0.4229
3225.000000 0.4196 0.4164 0.4131 0.4099 0.4066
3220.000000 0.4034 0.4000 0.3968 0.3936 0.3903
3215.000000 0.3871 0.3838 0.3806 0.3773 0.3741
3210.000000 0.3708 0.3676 0.3643 0.3609 0.3577
3205.000000 0.3544 0.3510 0.3478 0.3446 0.3412
3200.000000 0.3380 0.3347 0.3314 0.3280 0.3248
3195.000000 0.3214 0.3182 0.3149 0.3116 0.3083
3190.000000 0.3050 0.3017 0.2984 0.2950 0.2917
3185.000000 0.2884 0.2851 0.2817 0.2784 0.2751
3180.000000 0.2718 0.2684 0.2651 0.2618 0.2584
3175.000000 0.2551 0.2518 0.2484 0.2451 0.2417
3170.000000 0.2384 0.2350 0.2316 0.2283 0.2249
3165.000000 0.2215 0.2182 0.2148 0.2115 0.2081
3160.000000 0.2046 0.2012 0.1976 0.1941 0.1920
3155.000000 0.1909 0.1899 0.1889 0.1879 0.1871
3150.000000 0.1863 0.1854 0.1846 0.1840 0.1832
3145.000000 0.1825 0.1819 0.1814 0.1808 0.1803
3140.000000 0.1799 0.1794 0.1791 0.1785 0.1782
3135.000000 0.1778 0.1774 0.1770 0.1766 0.1762
3130.000000 0.1757 0.1753 0.1717 0.1678 0.1639
3125.000000 0.1600 0.1563 0.1526 0.1489 0.1452
3120.000000 0.1415 0.1378 0.1341 0.1304 0.1266
3115.000000 0.1229 0.1192 0.1154 0.1117 0.1080
3110.000000 0.1042 0.1006 0.0968 0.0931 0.0893
3105.000000 0.0856 0.0819 0.0782 0.0744 0.0714
3100.000000 0.0687 0.0660 0.0632 0.0625 0.0619
3095.000000 0.0614 0.0608 0.0603 0.0597 0.0592
3090.000000 0.0586 0.0580 0.0575 0.0569 0.0564
3085.000000 0.0560 0.0557 0.0553 0.0550 0.0548
3080.000000 0.0546 0.0544 0.0542 0.0540 0.0540
3075.000000 0.0536 0.0535 0.0534 0.0533 0.0532
3070.000000 0.0531 0.0530 0.0529 0.0528 0.0528
3065.000000 0.0528 0.0528 0.0531 0.0535 0.0539
3060.000000 0.0543 0.0548 0.0552 0.0557 0.0562
3055.000000 0.0568 0.0574 0.0580 0.0588 0.0596
3050.000000 0.0604 0.0612 0.0620 0.0627 0.0635
3045.000000 0.0643 0.0650 0.0657 0.0664 0.0671
3040.000000 0.0677 0.0684 0.0690 0.0696 0.0702
3035.000000 0.0708 0.0714 0.0717 0.0720 0.0723
3030.000000 0.0725 0.0727 0.0729 0.0775 0.0732
3025.000000 0.0732 0.0733 0.0733 0.0734 0.0734
3020.000000 0.0734 0.0734 0.0732 0.0731 0.0729
3015.000000 0.0725 0.0721 0.0716 0.0711 0.0707
3010.000000 0.0702 0.0697 0.0693 0.0688 0.0683
3005.000000 0.0678 0.0674 0.0670 0.0666 0.0662
3000.000000 0.0657 0.0653 0.0648 0.0644 0.0639
2995.000000 0.0635 0.0630 0.0626 0.0622 0.0618
2990.000000 0.0614 0.0610 0.0606 0.0602 0.0598
2985.000000 0.0594 0.0590 0.0586 0.0583 0.0579
2980.000000 0.0575 0.0572 0.0568 0.0564 0.0561
2975.000000 0.0557 0.0553 0.0550 0.0546 0.0542
2970.000000 0.0539 0.0535 0.0531 0.0528 0.0524
2965.000000 0.0521 0.0518 0.0516 0.0513 0.0512
2960.000000 0.0510 0.0508 0.0507 0.0505 0.0503
2955.000000 0.0501 0.0501 0.0501 0.0501 0.0500
2950.000000 0.0500 0.0499 0.0498 0.0498 0.0497
2945.000000 0.0497 0.0496 0.0496 0.0496 0.0496
2940.000000 0.0496 0.0496 0.0496 0.0498 0.0500
2935.000000 0.0502 0.0504 0.0506 0.0507 0.0509
2930.000000 0.0511 0.0513 0.0514 0.0517 0.0519
2925.000000 0.0522 0.0524 0.0528 0.0532 0.0536
2920.000000 0.0540 0.0543 0.0547 0.0551 0.0554
2915.000000 0.0557 0.0560 0.0563 0.0566 0.0569
2910.000000 0.0572 0.0575 0.0577 0.0580 0.0583
2905.000000 0.0586 0.0588 0.0590 0.0590 0.0591
2900.000000 0.0592 0.0592 0.0593 0.0593 0.0592
2895.000000 0.0591 0.0589 0.0588 0.0586 0.0640
2890.000000 0.0583 0.0581 0.0580 0.0578 0.0576
2885.000000 0.0574 0.0572 0.0571 0.0569 0.0567
2880.000000 0.0565 0.0563 0.0562 0.0560 0.0558
2875.000000 0.0556 0.0554 0.0552 0.0551 0.0549
2870.000000 0.0547 0.0545 0.0543 0.0542 0.0540
2865.000000 0.0538 0.0537 0.0536 0.0534 0.0533
2860.000000 0.0532 0.0531 0.0530 0.0528 0.0527
2855.000000 0.0526 0.0525 0.0523 0.0522 0.0521
2850.000000 0.0520 0.0518 0.0516 0.0515 0.0515
2845.000000 0.0515 0.0515 0.0515 0.0515 0.0515
2840.000000 0.0515 0.0515 0.0515 0.0516 0.0516
2835.000000 0.0516 0.0517 0.0517 0.0517 0.0517
2830.000000 0.0519 0.0521 0.0523 0.0524 0.0526
2825.000000 0.0527 0.0529 0.0531 0.0533 0.0535
2820.000000 0.0537 0.0528 0.0540 0.0542 0.0544
2815.000000 0.0546 0.0549 0.0552 0.0555 0.0559
2810.000000 0.0563 0.0567 0.0572 0.0576 0.0580
2805.000000 0.0584 0.0588 0.0592 0.0596 0.0601
2800.000000 0.0605 0.0609 0.0613 0.0617 0.0621
2795.000000 0.0626 0.0630 0.0635 0.0639 0.0644
2790.000000 0.0648 0.0653 0.0657 0.0662 0.0666
2785.000000 0.0671 0.0675 0.0680 0.0685 0.0690
2780.000000 0.0698 0.0706 0.0715 0.0723 0.0731
2775.000000 0.0740 0.0749 0.0757 0.0766 0.0775
2770.000000 0.0784 0.0793 0.0801 0.0810 0.0818
2765.000000 0.0828 0.0839 0.0851 0.0863 0.0874
2760.000000 0.0886 0.0897 0.0910 0.0922 0.0933
2755.000000 0.0941 0.0949 0.0957 0.0965 0.0972
2750.000000 0.0981 0.0989 0.0996 0.1005 0.1012
2745.000000 0.1020 0.1029 0.1040 0.1052 0.1063
2740.000000 0.1074 0.1086 0.1096 0.1108 0.1120
2735.000000 0.1131 0.1142 0.1154 0.1166 0.1179
2730.000000 0.1192 0.1207 0.1229 0.1251 0.1273
2725.000000 0.1295 0.1316 0.1342 0.1378 0.1413
2720.000000 0.1442 0.1460 0.1478 0.1492 0.1505
2715.000000 0.1516 0.1528 0.1539 0.1551 0.1562
2710.000000 0.1574 0.1585 0.1596 0.1609 0.1620
2705.000000 0.1632 0.1644 0.1656 0.1668 0.1679
2700.000000 0.1692 0.1704 0.1717 0.1729 0.1741
2695.000000 0.1753 0.1765 0.1777 0.1790 0.1802
2690.000000 0.1814 0.1826 0.1837 0.1849 0.1860
2685.000000 0.1871 0.1881 0.1892 0.1903 0.1914
2680.000000 0.1924 0.1934 0.1944 0.1956 0.1966
2675.000000 0.1977 0.1986 0.1998 0.2008 0.2018
2670.000000 0.2024 0.2031 0.2036 0.2039 0.2042
2665.000000 0.2044 0.2044 0.2046 0.2048 0.2050
2660.000000 0.2052 0.2053 0.2055 0.2056 0.2058
2655.000000 0.2060 0.2062 0.2064 0.2066 0.2068
2650.000000 0.2070 0.2072 0.2074 0.2076 0.2078
2645.000000 0.2080 0.2082 0.2084 0.2088 0.2092
2640.000000 0.2096 0.2101 0.2106 0.2112 0.2125
2635.000000 0.2137 0.2158 0.2195 0.2232 0.2265
2630.000000 0.2295 0.2326 0.2341 0.2352 0.2363
2625.000000 0.2373 0.2383 0.2392 0.2397 0.2401
2620.000000 0.2406 0.2411 0.2416 0.2420 0.2425
2615.000000 0.2430 0.2434 0.2439 0.2443 0.2448
2610.000000 0.2453 0.2458 0.2463 0.2469 0.2475
2605.000000 0.2482 0.2489 0.2496 0.2503 0.2510
2600.000000 0.2518 0.2526 0.2534 0.2542 0.2550
2595.000000 0.2558 0.2566 0.2574 0.2582 0.2590
2590.000000 0.2598 0.2606 0.2613 0.2633 0.2653
2585.000000 0.2674 0.2698 0.2721 0.2745 0.2769
2580.000000 0.2793 0.2819 0.2846 0.2872 0.2899
2575.000000 0.2926 0.2953 0.2981 0.3009 0.3038
2570.000000 0.3067 0.3096 0.3126 0.3155 0.3184
2565.000000 0.3214 0.3244 0.3280 0.3318 0.3352
2560.000000 0.3382 0.3412 0.3438 0.3462 0.3488
2555.000000 0.3512 0.3539 0.3552 0.3558 0.3564
2550.000000 0.3568 0.3571 0.3574 0.3577 0.3580
2545.000000 0.3582 0.3584 0.3588 0.3591 0.3594
2540.000000 0.3600 0.3607 0.3616 0.3642 0.3668
2535.000000 0.3693 0.3720 0.3746 0.3771 0.3797
2530.000000 0.3823 0.3849 0.3875 0.3900 0.3927
2525.000000 0.3953 0.3979 0.4005 0.4030 0.4057
2520.000000 0.4084 0.4110 0.4136 0.4150 0.4158
2515.000000 0.4165 0.4169 0.4173 0.4177 0.4181
2510.000000 0.4186 0.4190 0.4194 0.4199 0.4204
2505.000000 0.4210 0.4218 0.4227 0.4236 0.4245
2500.000000 0.4255 0.4264 0.4273 0.4287 0.4306
2495.000000 0.4326 0.4334 0.4342 0.4351 0.4359
2490.000000 0.4368 0.4372 0.4377 0.4380 0.4422
2485.000000 0.4385 0.4387 0.4389 0.4391 0.4392
2480.000000 0.4387 0.4343 0.4300 0.4241 0.4176
2475.000000 0.4110 0.4044 0.3979 0.3912 0.3848
2470.000000 0.3782 0.3716 0.3550 0.3618 0.3589
2465.000000 0.3574 0.3575 0.3576 0.3594 0.3610
2460.000000 0.3644 0.3687 0.3730 0.3773 0.3816
2455.000000 0.3859 0.3902 0.3945 0.3988 0.4032
2450.000000 0.4075 0.4118 0.4160 0.4204 0.4247
2445.000000 0.4291 0.4334 0.4378 0.4422 0.4465
2440.000000 0.4507 0.4549 0.4578 0.4607 0.4636
2435.000000 0.4665 0.4694 0.4723 0.4752 0.4776
2430.000000 0.4800 0.4823 0.4847 0.4871 0.4895
2425.000000 0.4918 0.4938 0.4957 0.4974 0.4991
2420.000000 0.5008 0.5024 0.5041 0.5058 0.5074
2415.000000 0.5091 0.5109 0.5126 0.5142 0.5159
2410.000000 0.5176 0.5194 0.5210 0.5227 0.5244
2405.000000 0.5262 0.5279 0.5296 0.5312 0.5329
2400.000000 0.5344 0.5359 0.5374 0.5388 0.5404
2395.000000 0.5419 0.5434 0.5449 0.5462 0.5473
2390.000000 0.5483 0.5492 0.5501 0.5509 0.5517
2385.000000 0.5525 0.5533 0.5541 0.5548 0.5555
2380.000000 0.5562 0.5569 0.5576 0.5583 0.5588
2375.000000 0.5591 0.5594 0.5597 0.5600 0.5602
2370.000000 0.5603 0.5604 0.5604 0.5604 0.5604
2365.000000 0.5605 0.5605 0.5605 0.5606 0.5606
2360.000000 0.5608 0.5610 0.5612 0.5616 0.5618
2355.000000 0.5621 0.5624 0.5626 0.5629 0.5632
2350.000000 0.5634 0.5637 0.5639 0.5642 0.5644
2345.000000 0.5647 0.5650 0.5654 0.5660 0.5666
2340.000000 0.5673 0.5680 0.5687 0.5693 0.5699
2335.000000 0.5706 0.5712 0.5719 0.5725 0.5733
2330.000000 0.5740 0.5749 0.5757 0.5766 0.5775
2325.000000 0.5784 0.5792 0.5801 0.5810 0.5820
2320.000000 0.5829 0.5837 0.5846 0.5855 0.5864
2315.000000 0.5873 0.5881 0.5890 0.5898 0.5907
2310.000000 0.5915 0.5923 0.5931 0.5939 0.5948
2305.000000 0.5956 0.5964 0.5972 0.5980 0.5988
2300.000000 0.5997 0.6005 0.6012 0.6021 0.6029
2295.000000 0.6037 0.6046 0.6054 0.6062 0.6070
2290.000000 0.6078 0.6087 0.6095 0.6105 0.6116
2285.000000 0.6127 0.6140 0.6153 0.6165 0.6178
2280.000000 0.6190 0.6203 0.6215 0.6228 0.6240
2275.000000 0.6253 0.6262 0.6272 0.6281 0.6290
2270.000000 0.6298 0.6307 0.6315 0.6324 0.6332
2265.000000 0.6341 0.6350 0.6359 0.6367 0.6376
2260.000000 0.6385 0.6393 0.6401 0.6410 0.6418
2255.000000 0.6428 0.6436 0.6444 0.6451 0.6458
2250.000000 0.6467 0.6475 0.6482 0.6490 0.6498
2245.000000 0.6506 0.6514 0.6521 0.6530 0.6538
2240.000000 0.6546 0.6553 0.6561 0.6568 0.6576
2235.000000 0.6585 0.6593 0.6600 0.6608 0.6615
2230.000000 0.6621 0.6628 0.6635 0.6642 0.6649
2225.000000 0.6655 0.6661 0.6668 0.6675 0.6683
2220.000000 0.6689 0.6696 0.6703 0.6710 0.6717
2215.000000 0.6724 0.6731 0.6737 0.6744 0.6751
2210.000000 0.6758 0.6765 0.6771 0.6778 0.6785
2205.000000 0.6792 0.6798 0.6803 0.6808 0.6814
2200.000000 0.6819 0.6825 0.6831 0.6837 0.6842
2195.000000 0.6848 0.6854 0.6858 0.6865 0.6871
2190.000000 0.6876 0.6882 0.6888 0.6894 0.6900
2185.000000 0.6905 0.6911 0.6917 0.6922 0.6928
2180.000000 0.6933 0.6937 0.6942 0.6947 0.6951
2175.000000 0.6956 0.6961 0.6965 0.6971 0.6975
2170.000000 0.6980 0.6985 0.6990 0.6995 0.6999
2165.000000 0.7004 0.7008 0.7014 0.7018 0.7024
2160.000000 0.7028 0.7034 0.7039 0.7044 0.7048
2155.000000 0.7053 0.7058 0.7062 0.7068 0.7072
2150.000000 0.7078 0.7083 0.7088 0.7093 0.7098
2145.000000 0.7103 0.7108 0.7112 0.7118 0.7122
2140.000000 0.7128 0.7133 0.7138 0.7143 0.7148
2135.000000 0.7153 0.7158 0.7162 0.7167 0.7171
2130.000000 0.7175 0.7178 0.7183 0.7182 0.7178
2125.000000 0.7175 0.7171 0.7168 0.7165 0.7162
2120.000000 0.7161 0.7158 0.7156 0.7154 0.7151
2115.000000 0.7149 0.7147 0.7146 0.7149 0.7151
2110.000000 0.7155 0.7158 0.7162 0.7168 0.7174
2105.000000 0.7181 0.7187 0.7193 0.7199 0.7206
2100.000000 0.7211 0.7218 0.7224 0.7228 0.7236
2095.000000 0.7241 0.7246 0.7250 0.7255 0.7258
2090.000000 0.7264 0.7268 0.7269 0.7271 0.7274
2085.000000 0.7275 0.7276 0.7278 0.7281 0.7283
2080.000000 0.7284 0.7287 0.7289 0.7290 0.7292
2075.000000 0.7295 0.7297 0.7299 0.7301 0.7303
2070.000000 0.7305 0.7308 0.7310 0.7311 0.7315
2065.000000 0.7317 0.7318 0.7321 0.7325 0.7328
2060.000000 0.7331 0.7335 0.7338 0.7342 0.7345
2055.000000 0.7349 0.7351 0.7356 0.7358 0.7361
2050.000000 0.7365 0.7368 0.7372 0.7375 0.7380
2045.000000 0.7383 0.7387 0.7391 0.7394 0.7398
2040.000000 0.7401 0.7405 0.7408 0.7411 0.7415
2035.000000 0.7421 0.7425 0.7431 0.7435 0.7439
2030.000000 0.7441 0.7443 0.7445 0.7448 0.7449
2025.000000 0.7451 0.7454 0.7456 0.7458 0.7460
2020.000000 0.7461 0.7461 0.7464 0.7465 0.7467
2015.000000 0.7468 0.7468 0.7469 0.7471 0.7472
2010.000000 0.7475 0.7475 0.7478 0.7478 0.7480
2005.000000 0.7481 0.7482 0.7483 0.7484 0.7485
2000.000000 0.7486 0.7486 0.7487 0.7488 0.7489
1995.000000 0.7490 0.7491 0.7492 0.7492 0.7492
1990.000000 0.7491 0.7489 0.7487 0.7486 0.7485
1985.000000 0.7483 0.7481 0.7480 0.7478 0.7476
1980.000000 0.7475 0.7474 0.7471 0.7471 0.7472
1975.000000 0.7474 0.7475 0.7475 0.7476 0.7478
1970.000000 0.7480 0.7480 0.7481 0.7482 0.7484
1965.000000 0.7485 0.7486 0.7487 0.7488 0.7490
1960.000000 0.7492 0.7494 0.7496 0.7498 0.7500
1955.000000 0.7501 0.7504 0.7506 0.7508 0.7510
1950.000000 0.7511 0.7512 0.7515 0.7517 0.7518
1945.000000 0.7521 0.7522 0.7522 0.7522 0.7522
1940.000000 0.7522 0.7522 0.7522 0.7522 0.7522
1935.000000 0.7522 0.7522 0.7522 0.7522 0.7521
1930.000000 0.7517 0.7511 0.7508 0.7503 0.7498
1925.000000 0.7493 0.7488 0.7483 0.7478 0.7474
1920.000000 0.7468 0.7461 0.7455 0.7448 0.7441
1915.000000 0.7435 0.7428 0.7421 0.7415 0.7408
1910.000000 0.7406 0.7401 0.7398 0.7395 0.7391
1905.000000 0.7388 0.7384 0.7381 0.7376 0.7374
1900.000000 0.7371 0.7368 0.7368 0.7368 0.7368
1895.000000 0.7368 0.7368 0.7371 0.7372 0.7375
1890.000000 0.7376 0.7378 0.7380 0.7382 0.7384
1885.000000 0.7386 0.7387 0.7390 0.7392 0.7394
1880.000000 0.7395 0.7397 0.7399 0.7401 0.7403
1875.000000 0.7405 0.7408 0.7411 0.7415 0.7418
1870.000000 0.7421 0.7425 0.7428 0.7433 0.7436
1865.000000 0.7439 0.7443 0.7446 0.7450 0.7453
1860.000000 0.7457 0.7461 0.7464 0.7467 0.7468
1855.000000 0.7472 0.7475 0.7478 0.7482 0.7485
1850.000000 0.7488 0.7491 0.7495 0.7498 0.7501
1845.000000 0.7504 0.7506 0.7510 0.7512 0.7515
1840.000000 0.7518 0.7521 0.7525 0.7528 0.7532
1835.000000 0.7535 0.7538 0.7539 0.7540 0.7541
1830.000000 0.7541 0.7541 0.7542 0.7543 0.7544
1825.000000 0.7544 0.7544 0.7545 0.7546 0.7546
1820.000000 0.7547 0.7547 0.7548 0.7548 0.7548
1815.000000 0.7547 0.7547 0.7547 0.7546 0.7545
1810.000000 0.7544 0.7544 0.7543 0.7542 0.7541
1805.000000 0.7540 0.7540 0.7539 0.7538 0.7537
1800.000000 0.7537 0.7536 0.7536 0.7535 0.7535
1795.000000 0.7534 0.7533 0.7532 0.7531 0.7531
1790.000000 0.7530 0.7525 0.7515 0.7503 0.7490
1785.000000 0.7478 0.7465 0.7451 0.7440 0.7426
1780.000000 0.7408 0.7388 0.7365 0.7344 0.7321
1775.000000 0.7300 0.7281 0.7265 0.7251 0.7235
1770.000000 0.7218 0.7204 0.7189 0.7174 0.7165
1765.000000 0.7158 0.7151 0.7145 0.7139 0.7132
1760.000000 0.7125 0.7118 0.7111 0.7105 0.7106
1755.000000 0.7108 0.7112 0.7115 0.7119 0.7124
1750.000000 0.7128 0.7131 0.7136 0.7143 0.7149
1745.000000 0.7156 0.7161 0.7168 0.7175 0.7178
1740.000000 0.7178 0.7175 0.7174 0.7171 0.7169
1735.000000 0.7168 0.7165 0.7164 0.7161 0.7160
1730.000000 0.7157 0.7147 0.7137 0.7125 0.7115
1725.000000 0.7105 0.7095 0.7085 0.7074 0.7064
1720.000000 0.7054 0.7043 0.7032 0.7021 0.7012
1715.000000 0.7004 0.6995 0.6986 0.6975 0.6967
1710.000000 0.6958 0.6949 0.6938 0.6925 0.6912
1705.000000 0.6900 0.6888 0.6875 0.6862 0.6854
1700.000000 0.6846 0.6837 0.6828 0.6819 0.6811
1695.000000 0.6801 0.6793 0.6784 0.6768 0.6747
1690.000000 0.6724 0.6700 0.6675 0.6653 0.6581
1685.000000 0.6496 0.6435 0.6398 0.6366 0.6334
1680.000000 0.6302 0.6273 0.6246 0.6217 0.6189
1675.000000 0.6162 0.6134 0.6107 0.6079 0.6054
1670.000000 0.6047 0.6042 0.6037 0.6032 0.6027
1665.000000 0.6021 0.6017 0.6015 0.6015 0.6014
1660.000000 0.6012 0.6012 0.6010 0.6005 0.6000
1655.000000 0.5995 0.5990 0.5984 0.5980 0.5974
1650.000000 0.5968 0.5962 0.5957 0.5948 0.5933
1645.000000 0.5918 0.5903 0.5887 0.5855 0.5810
1640.000000 0.5595 0.5221 0.4988 0.4754 0.4520
1635.000000 0.4286 0.4052 0.3816 0.3580 0.3346
1630.000000 0.3115 0.3046 0.3052 0.3087 0.3258
1625.000000 0.3527 0.3795 0.4056 0.4250 0.4323
1620.000000 0.4388 0.4462 0.4493 0.4543 0.4523
1615.000000 0.4527 0.4531 0.4523 0.4490 0.4445
1610.000000 0.4398 0.4351 0.4304 0.4257 0.4209
1605.000000 0.4162 0.4115 0.4086 0.4076 0.4071
1600.000000 0.4071 0.4076 0.4091 0.4124 0.4178
1595.000000 0.4239 0.4300 0.4362 0.4423 0.4485
1590.000000 0.4546 0.4608 0.4670 0.4731 0.4793
1585.000000 0.4855 0.4917 0.4979 0.5041 0.5104
1580.000000 0.5164 0.5216 0.5264 0.5310 0.5348
1575.000000 0.5374 0.5393 0.5405 0.5410 0.5416
1570.000000 0.5432 0.5425 0.5428 0.5427 0.5426
1565.000000 0.5425 0.5423 0.5419 0.5412 0.5407
1560.000000 0.5401 0.5394 0.5381 0.5364 0.5346
1555.000000 0.5331 0.5335 0.5325 0.5332 0.5366
1550.000000 0.5396 0.5420 0.5437 0.5452 0.5456
1545.000000 0.5458 0.5476 0.5449 0.5438 0.5415
1540.000000 0.5245 0.4731 0.4103 0.3475 0.2846
1535.000000 0.2477 0.2401 0.2383 0.2384 0.2384
1530.000000 0.2383 0.2390 0.2562 0.2831 0.3100
1525.000000 0.3370 0.3640 0.3909 0.4181 0.4453
1520.000000 0.4724 0.4996 0.5268 0.5541 0.5814
1515.000000 0.6064 0.6169 0.6219 0.6273 0.6331
1510.000000 0.6392 0.6456 0.6521 0.6593 0.6671
1505.000000 0.6741 0.6786 0.6821 0.6853 0.6883
1500.000000 0.6905 0.6922 0.6938 0.6949 0.6971
1495.000000 0.6965 0.6965 0.6967 0.6962 0.6942
1490.000000 0.6730 0.6387 0.6032 0.5677 0.5321
1485.000000 0.4964 0.4607 0.4250 0.3892 0.3534
1480.000000 0.3216 0.3133 0.3134 0.3123 0.3181
1475.000000 0.3359 0.3559 0.3759 0.3959 0.4162
1470.000000 0.4362 0.4564 0.4767 0.4969 0.5172
1465.000000 0.5375 0.5578 0.5781 0.5979 0.6012
1460.000000 0.6012 0.6014 0.6015 0.5733 0.5342
1455.000000 0.4950 0.4557 0.4267 0.4196 0.4228
1450.000000 0.4282 0.4335 0.4382 0.4396 0.4357
1445.000000 0.4068 0.3758 0.3448 0.3135 0.2933
1440.000000 0.2934 0.2974 0.3209 0.3454 0.3699
1435.000000 0.3945 0.4190 0.4437 0.4683 0.4931
1430.000000 0.5178 0.5425 0.5648 0.5771 0.5841
1425.000000 0.5897 0.5935 0.5955 0.5970 0.5991
1420.000000 0.5990 0.5990 0.5992 0.5946 0.5864
1415.000000 0.5781 0.5697 0.5619 0.5583 0.5580
1410.000000 0.5587 0.5673 0.5759 0.5846 0.5932
1405.000000 0.6019 0.6104 0.6165 0.6216 0.6268
1400.000000 0.6322 0.6379 0.6435 0.6491 0.6545
1395.000000 0.6599 0.6654 0.6706 0.6755 0.6803
1390.000000 0.6851 0.6901 0.6950 0.6998 0.7042
1385.000000 0.7087 0.7132 0.7176 0.7221 0.7257
1380.000000 0.7289 0.7319 0.7351 0.7384 0.7414
1375.000000 0.7440 0.7467 0.7494 0.7517 0.7535
1370.000000 0.7554 0.7571 0.7587 0.7598 0.7608
1365.000000 0.7617 0.7621 0.7622 0.7615 0.7605
1360.000000 0.7589 0.7569 0.7550 0.7514 0.7476
1355.000000 0.7428 0.7362 0.7267 0.7046 0.6801
1350.000000 0.6644 0.6638 0.6649 0.6746 0.6875
1345.000000 0.7006 0.7125 0.7161 0.7200 0.7236
1340.000000 0.7271 0.7308 0.7349 0.7384 0.7410
1335.000000 0.7438 0.7481 0.7471 0.7468 0.7461
1330.000000 0.7447 0.7430 0.7404 0.7374 0.7331
1325.000000 0.7280 0.7231 0.7201 0.7225 0.7238
1320.000000 0.7278 0.7324 0.7378 0.7432 0.7490
1315.000000 0.7549 0.7608 0.7671 0.7726 0.7775
1310.000000 0.7801 0.7819 0.7833 0.7845 0.7858
1305.000000 0.7871 0.7883 0.7895 0.7901 0.7912
1300.000000 0.7892 0.7882 0.7865 0.7848 0.7830
1295.000000 0.7811 0.7796 0.7751 0.7771 0.7768
1290.000000 0.7778 0.7803 0.7828 0.7856 0.7882
1285.000000 0.7904 0.7925 0.7945 0.7958 0.7971
1280.000000 0.7976 0.7976 0.7976 0.7961 0.7944
1275.000000 0.7926 0.7908 0.7889 0.7864 0.7838
1270.000000 0.7811 0.7785 0.7758 0.7732 0.7708
1265.000000 0.7690 0.7687 0.7686 0.7686 0.7696
1260.000000 0.7710 0.7724 0.7739 0.7751 0.7764
1255.000000 0.7775 0.7787 0.7799 0.7810 0.7810
1250.000000 0.7828 0.7768 0.7728 0.7665 0.7589
1245.000000 0.7521 0.7461 0.7411 0.7308 0.6853
1240.000000 0.6371 0.5889 0.4802 0.4802 0.4802
1235.000000 0.4853 0.5208 0.5608 0.6010 0.6725
1230.000000 0.6968 0.7062 0.7132 0.7200 0.7258
1225.000000 0.7314 0.7368 0.7421 0.7468 0.7511
1220.000000 0.7555 0.7598 0.7641 0.7684 0.7719
1215.000000 0.7756 0.7793 0.7828 0.7861 0.7894
1210.000000 0.7925 0.7949 0.7971 0.7994 0.8011
1205.000000 0.8025 0.8038 0.8051 0.8064 0.8075
1200.000000 0.8088 0.8098 0.8108 0.8118 0.8118
1195.000000 0.8122 0.8124 0.8124 0.8115 0.8089
1190.000000 0.8049 0.7997 0.7936 0.7862 0.7768
1185.000000 0.7675 0.7581 0.7506 0.7522 0.7578
1180.000000 0.7644 0.7693 0.7741 0.7780 0.7818
1175.000000 0.7853 0.7865 0.7871 0.7860 0.7831
1170.000000 0.7728 0.7575 0.7494 0.7508 0.7508
1165.000000 0.7510 0.7526 0.7549 0.7568 0.7621
1160.000000 0.7558 0.7506 0.7385 0.7172 0.6888
1155.000000 0.6560 0.6230 0.5902 0.5571 0.5005
1150.000000 0.5012 0.5000 0.5089 0.5322 0.5562
1145.000000 0.5803 0.6044 0.6286 0.6525 0.6696
1140.000000 0.6825 0.6965 0.7111 0.7196 0.7257
1135.000000 0.7318 0.7381 0.7447 0.7515 0.7575
1130.000000 0.7625 0.7682 0.7730 0.7761 0.7790
1125.000000 0.7822 0.7825 0.7830 0.7818 0.7801
1120.000000 0.7776 0.7751 0.7698 0.7597 0.7454
1115.000000 0.7224 0.6987 0.6749 0.6511 0.6273
1110.000000 0.6148 0.6189 0.6340 0.6491 0.6642
1105.000000 0.6794 0.6946 0.7098 0.7250 0.7376
1100.000000 0.7408 0.7408 0.7408 0.7365 0.6850
1095.000000 0.6149 0.5447 0.4743 0.4038 0.3298
1090.000000 0.3316 0.3750 0.4294 0.4837 0.5381
1085.000000 0.5949 0.6486 0.6704 0.6875 0.7072
1080.000000 0.7190 0.7278 0.7356 0.7437 0.7518
1075.000000 0.7588 0.7639 0.7690 0.7739 0.7784
1070.000000 0.7828 0.7874 0.7915 0.7953 0.7991
1065.000000 0.8025 0.8047 0.8068 0.8089 0.8104
1060.000000 0.8117 0.8130 0.8143 0.8151 0.8160
1055.000000 0.8167 0.8174 0.8181 0.8184 0.8189
1050.000000 0.8182 0.8197 0.8197 0.8190 0.8184
1045.000000 0.8175 0.8148 0.8118 0.8087 0.8051
1040.000000 0.8011 0.7965 0.7915 0.7826 0.7710
1035.000000 0.7443 0.7085 0.6797 0.6508 0.6035
1030.000000 0.6050 0.6125 0.6337 0.6551 0.6768
1025.000000 0.6985 0.7201 0.7412 0.7581 0.7699
1020.000000 0.7818 0.7934 0.8018 0.8088 0.8142
1015.000000 0.8187 0.8231 0.8266 0.8299 0.8333
1010.000000 0.8360 0.8380 0.8400 0.8414 0.8425
1005.000000 0.8437 0.8447 0.8458 0.8468 0.8471
1000.000000 0.8475 0.8716 0.8748 0.8704 0.8627
995.000000 0.8571 0.8514 0.8407 0.8247 0.8101
990.000000 0.7998 0.7751 0.7471 0.7418 0.7428
985.000000 0.7555 0.7711 0.7865 0.7971 0.8051
980.000000 0.8104 0.8150 0.8191 0.8228 0.8258
975.000000 0.8274 0.8283 0.8284 0.8285 0.8273
970.000000 0.8227 0.8111 0.8024 0.7930 0.7728
965.000000 0.7548 0.7338 0.7057 0.6517 0.5766
960.000000 0.5012 0.3924 0.3906 0.4131 0.4591
955.000000 0.5053 0.5515 0.5978 0.6418 0.6615
950.000000 0.6775 0.6961 0.7106 0.7200 0.7292
945.000000 0.7375 0.7458 0.7542 0.7630 0.7696
940.000000 0.7728 0.7745 0.7744 0.7764 0.7768
935.000000 0.7765 0.7739 0.7699 0.7693 0.7693
930.000000 0.7693 0.7693 0.7693 0.7694 0.7695
925.000000 0.7672 0.7647 0.7594 0.7536 0.7437
920.000000 0.7339 0.7245 0.7134 0.6993 0.6801
915.000000 0.6612 0.6428 0.6258 0.6173 0.6089
910.000000 0.6040 0.6012 0.5968 0.5990 0.5997
905.000000 0.6017 0.6047 0.6087 0.6149 0.6273
900.000000 0.6406 0.6537 0.6696 0.6818 0.6924
895.000000 0.7028 0.7134 0.7265 0.7396 0.7511
890.000000 0.7610 0.7684 0.7756 0.7818 0.7868
885.000000 0.7914 0.7948 0.7996 0.7987 0.7969
880.000000 0.7947 0.7912 0.7869 0.7826 0.7760
875.000000 0.7686 0.7597 0.7478 0.7341 0.7165
870.000000 0.6910 0.6705 0.6451 0.6084 0.5752
865.000000 0.5409 0.5101 0.4636 0.4097 0.3558
860.000000 0.3016 0.2474 0.1929 0.1723 0.1690
855.000000 0.1702 0.1785 0.1879 0.2060 0.2374
850.000000 0.2702 0.3005 0.3309 0.3614 0.3921
845.000000 0.4227 0.4535 0.4843 0.5129 0.5326
840.000000 0.5588 0.5743 0.5849 0.5944 0.6036
835.000000 0.6114 0.6158 0.6172 0.6182 0.6155
830.000000 0.6097 0.5988 0.5840 0.5584 0.5309
825.000000 0.5034 0.4757 0.4480 0.4201 0.4106
820.000000 0.4129 0.4241 0.4319 0.4359 0.4302
815.000000 0.4240 0.4155 0.4045 0.3880 0.3705
810.000000 0.3626 0.3591 0.3593 0.3580 0.3652
805.000000 0.3827 0.3992 0.4135 0.4295 0.4450
800.000000 0.4658 0.4881 0.5020 0.5157 0.5299
795.000000 0.5445 0.5591 0.5742 0.5893 0.6012
790.000000 0.6131 0.6255 0.6348 0.6411 0.6399
785.000000 0.6319 0.6174 0.6044 0.5955 0.5915
780.000000 0.5941 0.6086 0.6287 0.6418 0.6530
775.000000 0.6643 0.6754 0.6862 0.6965 0.7065
770.000000 0.7141 0.7217 0.7288 0.7351 0.7414
765.000000 0.7468 0.7511 0.7556 0.7593 0.7618
760.000000 0.7645 0.7669 0.7693 0.7715 0.7742
755.000000 0.7771 0.7803 0.7834 0.7865 0.7896
750.000000 0.7925 0.7943 0.7958 0.7975 0.7989
745.000000 0.8004 0.8040 0.8024 0.8031 0.8028
740.000000 0.8024 0.8015 0.8001 0.7974 0.7868
735.000000 0.7687 0.7503 0.7365 0.7275 0.7305
730.000000 0.7371 0.7498 0.7611 0.7719 0.7797
725.000000 0.7871 0.7947 0.8008 0.8068 0.8104
720.000000 0.8135 0.8165 0.8197 0.8225 0.8239
715.000000 0.8254 0.8268 0.8282 0.8296 0.8311
710.000000 0.8325 0.8342 0.8357 0.8371 0.8386
705.000000 0.8395 0.8404 0.8413 0.8421 0.8431
700.000000 0.8440 0.8443 0.8444 0.8446 0.8447
695.000000 0.8448 0.8450 0.8452 0.8457 0.8462
690.000000 0.8468 0.8424 0.8478 0.8484 0.8486
685.000000 0.8487 0.8489 0.8491 0.8492 0.8494
680.000000 0.8496 0.8497 0.8499 0.8504 0.8509
675.000000 0.8510 0.8510 0.8507 0.8501 0.8495
670.000000 0.8480 0.8439 0.8385 0.8432 0.8490
665.000000 0.8518 0.8509 0.8497 0.8499 0.8503
660.000000 0.8503 0.8500 0.8498 0.8503 0.8507
655.000000 0.8515 0.8524 0.8532
##END=
