##TITLE=PHOSPHORAMIDIC ACID, (2,4,5-TRICHLOROPHENYL) ETHYL ESTER
##JCAMP-DX=4.24
##DATA TYPE=INFRARED SPECTRUM
##CLASS=COBLENTZ III
##ORIGIN=DOW CHEMICAL COMPANY
##OWNER=COBLENTZ SOCIETY
Collection (C) 2018 copyright by the U.S. Secretary of Commerce
on behalf of the United States of America. All rights reserved.
##DATE=Not specified, most likely prior to 1970
##NAMES=2,4,5-TRICHLOROPHENYL ETHYL PHOSPHORAMIDATE
##MOLFORM=C8 H9 Cl N O3 P
##SOURCE REFERENCE=COBLENTZ NO. 1021
##$NIST ID=B6001021
##$NIST SOURCE=COBLENTZ
##$NIST IMAGE=cob1021
##SPECTROMETER/DATA SYSTEM=Not specified, most likely a prism, grating, or hybrid spectrometer.
##STATE=SOLID (OIL MULL OF CS2 INSOLUBLES)
##SAMPLING PROCEDURE=TRANSMISSION
##RESOLUTION=4
##DATA PROCESSING=DIGITIZED BY NIST FROM HARD COPY (FROM TWO SEGMENTS)
##XUNITS=1/CM
##YUNITS=TRANSMITTANCE
##XFACTOR=1.000000
##YFACTOR=1
##DELTAX=1.138089
##FIRSTX=449.924
##LASTX=3791.35
##FIRSTY=0.879
##MAXX=3791.35
##MINX=449.924
##MAXY=1.092
##MINY=0.028
##NPOINTS=2937
##XYDATA=(X++(Y..Y))
449.924000 0.8790 0.8790 0.8790 0.8790 0.8790
455.614447 0.8790 0.8790 0.8790 0.8790 0.8770
461.304895 0.8770 0.8730 0.8700 0.8650 0.8610
466.995342 0.8560 0.8520 0.8470 0.8311 0.8240
472.685789 0.7860 0.7440 0.7330 0.7190 0.7080
478.376237 0.7050 0.7030 0.7050 0.7139 0.7915
484.066684 0.8680 0.8800 0.8800 0.8800 0.8790
489.757131 0.8790 0.8730 0.8660 0.8521 0.8331
495.447579 0.8010 0.7810 0.7371 0.6742 0.4996
501.138026 0.3377 0.3330 0.3330 0.3757 0.4942
506.828473 0.5790 0.6619 0.7947 0.8888 0.9229
512.518920 0.9409 0.9519 0.9570 0.9620 0.9690
518.209368 0.9730 0.9750 0.9750 0.9750 0.9730
523.899815 0.9730 0.9710 0.9690 0.9660 0.9620
529.590262 0.9600 0.9570 0.9530 0.9480 0.9460
535.280710 0.9430 0.9370 0.9360 0.9320 0.9300
540.971157 0.9300 0.9270 0.9200 0.9110 0.8931
546.661604 0.8820 0.8701 0.8680 0.8700 0.8799
552.352052 0.8860 0.8950 0.8950 0.8930 0.8890
558.042499 0.8860 0.8860 0.8751 0.8661 0.8561
563.732946 0.8470 0.8430 0.8340 0.8270 0.8091
569.423394 0.7990 0.7930 0.7771 0.7581 0.7461
575.113841 0.7350 0.7210 0.7050 0.6761 0.6461
580.804288 0.6211 0.4996 0.4264 0.2391 0.1337
586.494736 0.1240 0.1330 0.2288 0.3667 0.4767
592.185183 0.5856 0.6228 0.6578 0.6620 0.6640
597.875630 0.6670 0.6690 0.6710 0.6730 0.6760
603.566077 0.6780 0.6780 0.6800 0.6820 0.6850
609.256525 0.6870 0.6890 0.6920 0.7030 0.7080
614.946972 0.7120 0.7190 0.7210 0.7210 0.7220
620.637419 0.7220 0.7220 0.7220 0.7010 0.6531
626.327867 0.7058 0.7538 0.7699 0.7949 0.8109
632.018314 0.8340 0.8470 0.8610 0.8650 0.8660
637.708761 0.8700 0.8770 0.8860 0.8910 0.8999
643.399209 0.9090 0.9160 0.9160 0.9200 0.9270
649.089656 0.9320 0.9410 0.9440 0.9480 0.9500
654.780103 0.9530 0.9550 0.9590 0.9600 0.9640
660.470551 0.9680 0.9710 0.9730 0.9750 0.9750
666.160998 0.9760 0.9750 0.9730 0.9710 0.9570
671.851445 0.9530 0.9480 0.9390 0.9320 0.9300
677.541893 0.8860 0.8590 0.8500 0.4499 0.3443
683.232340 0.2384 0.2340 0.2360 0.4706 0.5922
688.922787 0.7140 0.9528 0.9550 0.9570 0.9550
694.613235 0.9500 0.9390 0.9201 0.9120 0.8862
700.303682 0.8570 0.8340 0.7561 0.6691 0.4814
705.994129 0.4740 0.3943 0.3233 0.3190 0.3210
711.684576 0.3601 0.5040 0.6459 0.7398 0.7949
717.375024 0.8588 0.9068 0.9179 0.9200 0.9210
723.065471 0.9230 0.9270 0.9280 0.9340 0.9370
728.755918 0.9500 0.9530 0.9679 0.9730 0.9800
734.446366 0.9870 0.9910 0.9910 0.9940 0.9980
740.136813 1.0010 1.0030 0.9940 0.9890 0.9850
745.827260 0.9890 0.9980 1.0000 1.0010 1.0100
751.517708 1.0120 1.0120 1.0080 1.0070 1.0050
757.208155 0.9980 0.9940 0.9940 0.9910 0.9870
762.898602 0.9800 0.9710 0.9571 0.9520 0.9411
768.589050 0.9070 0.8720 0.8151 0.7541 0.6942
774.279497 0.5396 0.4723 0.4720 0.4720 0.5316
779.969944 0.5630 0.5910 0.7927 0.9227 0.9320
785.660392 0.9499 0.9779 0.9939 0.9980 1.0000
791.350839 1.0010 1.0070 1.0100 1.0120 1.0120
797.041286 1.0140 1.0150 1.0150 1.0140 1.0120
802.731733 1.0080 1.0070 1.0030 0.9960 0.9960
808.422181 0.9940 0.9920 0.9840 0.9780 0.9869
814.112628 0.9910 0.9980 1.0050 1.0070 1.0070
819.803075 1.0070 1.0070 1.0070 1.0030 1.0010
825.493523 0.9960 0.9940 0.9920 0.9890 0.9890
831.183970 0.9870 0.9800 0.9750 0.9730 0.9710
836.874417 0.9690 0.9590 0.9500 0.9440 0.8842
842.564865 0.8561 0.8251 0.7225 0.5688 0.5640
848.255312 0.5640 0.5660 0.8567 0.8560 0.8560
853.945759 0.8560 0.8152 0.7921 0.7532 0.7262
859.636207 0.5450 0.4541 0.3601 0.0796 0.0760
865.326654 0.0760 0.0969 0.1169 0.1359 0.1380
871.017101 0.4350 0.4350 0.3711 0.2692 0.1793
876.707549 0.1750 0.1770 0.4655 0.5336 0.6016
882.397996 0.7350 0.8379 0.8660 0.8929 0.9119
888.088443 0.9269 0.9340 0.9519 0.9659 0.9680
893.778891 0.9680 0.9680 0.9680 0.9680 0.9680
899.469338 0.9660 0.9640 0.9620 0.9600 0.9590
905.159785 0.9550 0.9520 0.9480 0.9480 0.9460
910.850232 0.9430 0.9370 0.9360 0.9340 0.9300
916.540680 0.9280 0.9270 0.9200 0.9200 0.9180
922.231127 0.9120 0.9050 0.9020 0.8960 0.8880
927.921574 0.8770 0.8720 0.8590 0.8450 0.8340
933.612022 0.8240 0.8130 0.8060 0.7901 0.7771
939.302469 0.7670 0.7510 0.7350 0.7220 0.7050
944.992916 0.6891 0.6711 0.6302 0.6051 0.5752
950.683364 0.4719 0.2091 0.2060 0.2090 0.2529
956.373811 0.2998 0.3458 0.3898 0.5054 0.5060
962.064258 0.4930 0.4840 0.4680 0.4031 0.3691
967.754706 0.3252 0.2662 0.0411 0.0370 0.0370
973.445153 0.0370 0.0370 0.0370 0.0390 0.0829
979.135600 0.1039 0.1259 0.1787 0.1810 0.2525
984.826048 0.3250 0.3960 0.4629 0.4670 0.4451
990.516495 0.4330 0.4220 0.4130 0.4031 0.3921
996.206942 0.3580 0.3320 0.2930 0.2750 0.2590
1001.897389 0.2411 0.2251 0.2091 0.1911 0.1751
1007.587837 0.1590 0.1420 0.1260 0.1080 0.1040
1013.278284 0.1040 0.1040 0.1080 0.1100 0.1150
1018.968731 0.1200 0.1260 0.1330 0.1330 0.1330
1024.659179 0.1330 0.1310 0.1200 0.0991 0.0831
1030.349626 0.0780 0.0690 0.0670 0.0620 0.0600
1036.040073 0.0600 0.0600 0.0600 0.0620 0.0690
1041.730521 0.0850 0.0970 0.1100 0.1220 0.1539
1047.420968 0.1999 0.2159 0.2707 0.3118 0.3806
1053.111415 0.4520 0.4900 0.5320 0.5470 0.5590
1058.801863 0.6118 0.6409 0.6709 0.6979 0.6990
1064.492310 0.6990 0.7060 0.7120 0.7170 0.7220
1070.182757 0.7260 0.7240 0.7190 0.7140 0.7080
1075.873205 0.7030 0.6940 0.6710 0.6530 0.3678
1081.563652 0.3172 0.2622 0.2073 0.1523 0.1500
1087.254099 0.1521 0.2750 0.3869 0.5868 0.7856
1092.944547 0.7880 0.7880 0.7880 0.7880 0.7880
1098.634994 0.7830 0.7720 0.7460 0.6961 0.6920
1104.325441 0.6940 0.7239 0.7539 0.7848 0.8148
1110.015888 0.8400 0.8400 0.8400 0.8380 0.8340
1115.706336 0.8290 0.8091 0.7931 0.7831 0.7512
1121.396783 0.6390 0.6350 0.6370 0.6390 0.6550
1127.087230 0.6690 0.6979 0.6980 0.7010 0.5300
1132.777678 0.4629 0.3730 0.2821 0.2730 0.2820
1138.468125 0.3827 0.4717 0.5586 0.6684 0.7923
1144.158572 0.8170 0.8180 0.8220 0.8400 0.8400
1149.849020 0.8400 0.8400 0.8400 0.8400 0.8380
1155.539467 0.8290 0.8090 0.8010 0.7900 0.7790
1161.229914 0.7312 0.6483 0.6032 0.5324 0.5181
1166.920362 0.5180 0.5200 0.5590 0.5959 0.8035
1172.610809 0.8060 0.8150 0.8200 0.8240 0.8240
1178.301256 0.8250 0.8250 0.8270 0.8270 0.8290
1183.991704 0.8290 0.8310 0.8310 0.8290 0.8290
1189.682151 0.8270 0.8250 0.8240 0.8220 0.8180
1195.372598 0.8060 0.7970 0.7920 0.7900 0.7830
1201.063046 0.7760 0.7700 0.7690 0.7600 0.7530
1206.753493 0.7400 0.7350 0.7310 0.7210 0.7121
1212.443940 0.7030 0.6870 0.6640 0.6550 0.6261
1218.134387 0.6110 0.5791 0.5222 0.4902 0.4472
1223.824835 0.4280 0.3830 0.3420 0.2871 0.2431
1229.515282 0.1981 0.0994 0.0741 0.0601 0.0471
1235.205729 0.0460 0.0470 0.0550 0.0560 0.0580
1240.896177 0.0600 0.0620 0.0630 0.0650 0.0650
1246.586624 0.0650 0.0620 0.0580 0.0560 0.0550
1252.277071 0.0560 0.0560 0.0600 0.1077 0.1537
1257.967519 0.2660 0.3330 0.5308 0.5290 0.5290
1263.657966 0.5111 0.4841 0.3884 0.3830 0.3512
1269.348413 0.3490 0.3490 0.4309 0.5218 0.5749
1275.038861 0.6258 0.6848 0.7736 0.7989 0.8427
1280.729308 0.8520 0.8520 0.8520 0.8500 0.8360
1286.419755 0.8290 0.8250 0.8240 0.7922 0.7512
1292.110203 0.7330 0.7150 0.6980 0.6980 0.6990
1297.800650 0.7299 0.7599 0.8696 0.8700 0.8680
1303.491097 0.8680 0.8660 0.8660 0.8770 0.8890
1309.181544 0.9020 0.9140 0.9269 0.9389 0.9519
1314.871992 0.9520 0.9530 0.9530 0.9530 0.9530
1320.562439 0.9530 0.9530 0.9530 0.9530 0.9520
1326.252886 0.9480 0.9460 0.9430 0.9370 0.9320
1331.943334 0.9270 0.9180 0.9140 0.8981 0.8722
1337.633781 0.8680 0.8680 0.8680 0.8540 0.8011
1343.324228 0.7791 0.7541 0.7301 0.7051 0.6801
1349.014676 0.6549 0.4680 0.1563 0.1520 0.1520
1354.705123 0.1839 0.2139 0.4280 0.5195 0.6313
1360.395570 0.7420 0.7670 0.8110 0.8130 0.8130
1366.086018 0.7701 0.7222 0.6742 0.6710 0.6740
1371.776465 0.6890 0.7240 0.7260 0.7260 0.7030
1377.466912 0.6890 0.6800 0.6780 0.6800 0.7258
1383.157360 0.7610 0.7900 0.8130 0.8450 0.8730
1388.847807 0.8730 0.8680 0.8570 0.8540 0.8450
1394.538254 0.8340 0.8170 0.8020 0.8010 0.8040
1400.228702 0.8519 0.8819 0.8979 0.9119 0.9120
1405.919149 0.9120 0.9120 0.9120 0.9110 0.9110
1411.609596 0.9090 0.9070 0.9070 0.9050 0.9050
1417.300043 0.9050 0.9050 0.9050 0.9050 0.9050
1422.990491 0.9040 0.9000 0.8950 0.8890 0.8840
1428.680938 0.8840 0.8720 0.8570 0.8450 0.8270
1434.371385 0.8091 0.7921 0.7761 0.7690 0.7213
1440.061833 0.6940 0.6710 0.6110 0.5890 0.5182
1445.752280 0.4652 0.4202 0.3901 0.3005 0.2344
1451.442727 0.2090 0.1630 0.1520 0.0971 0.0741
1457.133175 0.0690 0.0690 0.0949 0.1238 0.1498
1462.823622 0.1862 0.3350 0.3350 0.3350 0.3330
1468.514069 0.3170 0.3100 0.3070 0.3090 0.2891
1474.204517 0.2567 0.0630 0.0530 0.0490 0.0470
1479.894964 0.0739 0.1657 0.2586 0.3705 0.5222
1485.585411 0.5891 0.6550 0.7060 0.7699 0.7920
1491.275859 0.8129 0.8250 0.8379 0.8400 0.8400
1496.966306 0.8410 0.8430 0.8890 0.9340 0.9360
1502.656753 0.9480 0.9500 0.9570 0.9600 0.9590
1508.347200 0.9570 0.9550 0.9530 0.9530 0.9520
1514.037648 0.9520 0.9530 0.9570 0.9590 0.9600
1519.728095 0.9660 0.9680 0.9690 0.9690 0.9690
1525.418542 0.9710 0.9750 0.9750 0.9760 0.9760
1531.108990 0.9780 0.9820 0.9850 0.9910 0.9920
1536.799437 0.9920 0.9910 0.9910 0.9840 0.9820
1542.489884 0.9760 0.9750 0.9710 0.9620 0.9590
1548.180332 0.9570 0.9500 0.9410 0.9281 0.9210
1553.870779 0.9090 0.8930 0.8860 0.8820 0.8750
1559.561226 0.7763 0.7192 0.7011 0.6891 0.6830
1565.251674 0.6780 0.6550 0.6110 0.4991 0.4061
1570.942121 0.2962 0.2930 0.2940 0.3069 0.3368
1576.632568 0.4361 0.4970 0.5570 0.6409 0.7049
1582.323016 0.7060 0.6960 0.6761 0.6571 0.6391
1588.013463 0.5980 0.5950 0.5960 0.8078 0.9817
1593.703910 0.9960 1.0030 1.0080 1.0170 1.0190
1599.394358 1.0230 1.0300 1.0350 1.0390 1.0400
1605.084805 1.0400 1.0420 1.0420 1.0420 1.0420
1610.775252 1.0420 1.0440 1.0460 1.0470 1.0490
1616.465699 1.0510 1.0530 1.0550 1.0560 1.0560
1622.156147 1.0550 1.0550 1.0550 1.0550 1.0550
1627.846594 1.0560 1.0600 1.0630 1.0650 1.0809
1633.537041 1.0880 1.0900 1.0920 1.0920 1.0920
1639.227489 1.0920 1.0920 1.0900 1.0880 1.0870
1644.917936 1.0850 1.0810 1.0760 1.0740 1.0710
1650.608383 1.0690 1.0630 1.0600 1.0600 1.0600
1656.298831 1.0560 1.0550 1.0510 1.0490 1.0460
1661.989278 1.0420 1.0420 1.0420 1.0420 1.0400
1667.679725 1.0370 1.0350 1.0330 1.0210 1.0170
1673.370173 1.0170 1.0170 1.0190 1.0170 1.0170
1679.060620 1.0170 1.0170 1.0170 1.0190 1.0190
1684.751067 1.0190 1.0210 1.0230 1.0260 1.0300
1690.441515 1.0310 1.0350 1.0400 1.0400 1.0400
1696.131962 1.0400 1.0400 1.0400 1.0390 1.0390
1701.822409 1.0370 1.0350 1.0310 1.0260 1.0170
1707.512856 1.0100 1.0080 1.0070 1.0070 1.0080
1713.203304 1.0140 1.0170 1.0260 1.0260 1.0280
1718.893751 1.0280 1.0260 1.0260 1.0280 1.0280
1724.584198 1.0280 1.0300 1.0300 1.0300 1.0280
1730.274646 1.0280 1.0230 1.0170 1.0170 1.0170
1735.965093 1.0170 1.0170 1.0190 1.0240 1.0260
1741.655540 1.0400 1.0470 1.0470 1.0440 1.0440
1747.345988 1.0440 1.0440 1.0470 1.0510 1.0510
1753.036435 1.0510 1.0510 1.0510 1.0510 1.0510
1758.726882 1.0510 1.0510 1.0510 1.0490 1.0490
1764.417330 1.0490 1.0490 1.0490 1.0490 1.0470
1770.107777 1.0470 1.0470 1.0460 1.0460 1.0440
1775.798224 1.0440 1.0440 1.0440 1.0420 1.0420
1781.488672 1.0420 1.0400 1.0390 1.0390 1.0370
1787.179119 1.0370 1.0400 1.0400 1.0370 1.0310
1792.869566 1.0280 1.0280 1.0260 1.0230 1.0230
1798.560014 1.0240 1.0260 1.0240 1.0230 1.0210
1804.250461 1.0190 1.0190 1.0230 1.0230 1.0240
1809.940908 1.0240 1.0240 1.0260 1.0280 1.0280
1815.631355 1.0300 1.0300 1.0300 1.0300 1.0300
1821.321803 1.0300 1.0300 1.0280 1.0260 1.0260
1827.012250 1.0260 1.0260 1.0280 1.0310 1.0330
1832.702697 1.0350 1.0350 1.0350 1.0350 1.0350
1838.393145 1.0370 1.0400 1.0400 1.0400 1.0420
1844.083592 1.0420 1.0440 1.0440 1.0460 1.0460
1849.774039 1.0460 1.0460 1.0420 1.0440 1.0440
1855.464487 1.0440 1.0440 1.0460 1.0490 1.0510
1861.154934 1.0510 1.0490 1.0490 1.0490 1.0490
1866.845381 1.0490 1.0490 1.0490 1.0490 1.0490
1872.535829 1.0490 1.0490 1.0490 1.0490 1.0470
1878.226276 1.0470 1.0470 1.0470 1.0460 1.0440
1883.916723 1.0440 1.0440 1.0440 1.0440 1.0440
1889.607171 1.0440 1.0440 1.0440 1.0440 1.0440
1895.297618 1.0440 1.0420 1.0400 1.0400 1.0400
1900.988065 1.0400 1.0370 1.0400 1.0400 1.0400
1906.678512 1.0400 1.0400 1.0420 1.0420 1.0420
1912.368960 1.0400 1.0400 1.0400 1.0420 1.0400
1918.059407 1.0400 1.0390 1.0390 1.0390 1.0350
1923.749854 1.0350 1.0350 1.0350 1.0350 1.0330
1929.440302 1.0310 1.0310 1.0330 1.0310 1.0280
1935.130749 1.0280 1.0260 1.0240 1.0240 1.0230
1940.821196 1.0230 1.0240 1.0240 1.0240 1.0240
1946.511644 1.0240 1.0240 1.0260 1.0280 1.0230
1952.202091 1.0230 1.0210 1.0190 1.0190 1.0210
1957.892538 1.0210 1.0230 1.0230 1.0230 1.0230
1963.582986 1.0230 1.0240 1.0230 1.0230 1.0230
1969.273433 1.0210 1.0190 1.0230 1.0230 1.0210
1974.963880 1.0210 1.0240 1.0260 1.0260 1.0280
1980.654328 1.0280 1.0280 1.0280 1.0280 1.0280
1986.344775 1.0260 1.0240 1.0240 1.0260 1.0260
1992.035222 1.0260 1.0240 1.0230 1.0210 1.0190
1997.725670 1.0210 1.0210 1.0230 1.0210 1.0190
2003.416117 1.0170 1.0150 1.0145 1.0140 1.0140
2009.106564 1.0140 1.0140 1.0140 1.0130 1.0120
2014.797011 1.0120 1.0120 1.0120 1.0120 1.0120
2020.487459 1.0120 1.0120 1.0120 1.0120 1.0120
2026.177906 1.0120 1.0120 1.0130 1.0140 1.0145
2031.868353 1.0150 1.0169 1.0189 1.0190 1.0190
2037.558801 1.0190 1.0190 1.0190 1.0190 1.0181
2043.249248 1.0171 1.0170 1.0170 1.0180 1.0189
2048.939695 1.0190 1.0190 1.0190 1.0190 1.0181
2054.630143 1.0171 1.0170 1.0170 1.0170 1.0170
2060.320590 1.0161 1.0151 1.0150 1.0150 1.0146
2066.011037 1.0140 1.0140 1.0140 1.0140 1.0140
2071.701485 1.0154 1.0169 1.0170 1.0170 1.0161
2077.391932 1.0151 1.0150 1.0150 1.0159 1.0169
2083.082379 1.0170 1.0170 1.0170 1.0170 1.0170
2088.772827 1.0170 1.0170 1.0170 1.0170 1.0170
2094.463274 1.0170 1.0170 1.0170 1.0170 1.0170
2100.153721 1.0170 1.0161 1.0151 1.0150 1.0150
2105.844168 1.0150 1.0150 1.0150 1.0150 1.0150
2111.534616 1.0150 1.0150 1.0150 1.0150 1.0150
2117.225063 1.0150 1.0150 1.0150 1.0150 1.0150
2122.915510 1.0150 1.0146 1.0141 1.0140 1.0140
2128.605958 1.0144 1.0149 1.0150 1.0150 1.0150
2134.296405 1.0150 1.0150 1.0150 1.0137 1.0122
2139.986852 1.0120 1.0120 1.0120 1.0120 1.0120
2145.677300 1.0120 1.0120 1.0120 1.0112 1.0102
2151.367747 1.0100 1.0100 1.0100 1.0100 1.0100
2157.058194 1.0100 1.0100 1.0100 1.0100 1.0100
2162.748642 1.0108 1.0118 1.0120 1.0120 1.0112
2168.439089 1.0102 1.0100 1.0100 1.0092 1.0082
2174.129536 1.0080 1.0080 1.0088 1.0098 1.0092
2179.819984 1.0082 1.0080 1.0080 1.0080 1.0080
2185.510431 1.0080 1.0080 1.0080 1.0080 1.0080
2191.200878 1.0080 1.0080 1.0080 1.0076 1.0071
2196.891326 1.0070 1.0070 1.0063 1.0053 1.0043
2202.581773 1.0033 1.0023 1.0012 0.9991 0.9966
2208.272220 0.9960 0.9960 0.9960 0.9960 0.9967
2213.962667 0.9977 0.9980 0.9980 0.9980 0.9980
2219.653115 0.9973 0.9963 0.9974 0.9994 1.0011
2225.343562 1.0026 1.0030 1.0030 1.0030 1.0030
2231.034009 1.0030 1.0030 1.0030 1.0030 1.0012
2236.724457 0.9987 0.9980 0.9980 0.9973 0.9963
2242.414904 0.9960 0.9960 0.9960 0.9960 0.9960
2248.105351 0.9960 0.9967 0.9977 0.9980 0.9980
2253.795799 0.9987 0.9997 1.0000 1.0000 1.0000
2259.486246 1.0000 0.9986 0.9966 0.9967 0.9977
2265.176693 0.9987 0.9997 1.0000 1.0000 1.0000
2270.867141 1.0000 0.9993 0.9983 0.9980 0.9980
2276.557588 0.9980 0.9980 0.9973 0.9963 0.9960
2282.248035 0.9960 0.9960 0.9960 0.9967 0.9977
2287.938483 0.9974 0.9964 0.9960 0.9960 0.9960
2293.628930 0.9960 0.9960 0.9960 0.9960 0.9960
2299.319377 0.9960 0.9960 0.9960 0.9960 0.9960
2305.009824 0.9960 0.9960 0.9960 0.9960 0.9960
2310.700272 0.9960 0.9960 0.9966 0.9976 0.9974
2316.390719 0.9964 0.9960 0.9960 0.9960 0.9960
2322.081166 0.9960 0.9960 0.9954 0.9944 0.9940
2327.771614 0.9940 0.9940 0.9940 0.9940 0.9940
2333.462061 0.9934 0.9924 0.9920 0.9920 0.9917
2339.152508 0.9912 0.9910 0.9910 0.9910 0.9910
2344.842956 0.9904 0.9894 0.9890 0.9890 0.9884
2350.533403 0.9874 0.9870 0.9870 0.9864 0.9854
2356.223850 0.9850 0.9850 0.9847 0.9842 0.9834
2361.914298 0.9824 0.9820 0.9820 0.9820 0.9820
2367.604745 0.9820 0.9820 0.9820 0.9820 0.9820
2373.295192 0.9820 0.9820 0.9820 0.9820 0.9820
2378.985640 0.9820 0.9820 0.9815 0.9805 0.9800
2384.676087 0.9800 0.9800 0.9800 0.9800 0.9800
2390.366534 0.9800 0.9800 0.9800 0.9800 0.9800
2396.056982 0.9800 0.9800 0.9800 0.9800 0.9800
2401.747429 0.9800 0.9800 0.9800 0.9800 0.9800
2407.437876 0.9800 0.9795 0.9785 0.9780 0.9780
2413.128323 0.9780 0.9780 0.9780 0.9780 0.9772
2418.818771 0.9757 0.9750 0.9750 0.9750 0.9750
2424.509218 0.9750 0.9750 0.9750 0.9750 0.9750
2430.199665 0.9750 0.9745 0.9735 0.9730 0.9730
2435.890113 0.9730 0.9730 0.9730 0.9730 0.9730
2441.580560 0.9730 0.9730 0.9730 0.9730 0.9730
2447.271007 0.9725 0.9715 0.9710 0.9710 0.9710
2452.961455 0.9710 0.9703 0.9688 0.9680 0.9680
2458.651902 0.9680 0.9680 0.9680 0.9680 0.9675
2464.342349 0.9665 0.9660 0.9660 0.9660 0.9660
2470.032797 0.9660 0.9660 0.9656 0.9646 0.9636
2475.723244 0.9626 0.9620 0.9620 0.9616 0.9606
2481.413691 0.9600 0.9600 0.9600 0.9600 0.9600
2487.104139 0.9600 0.9598 0.9593 0.9590 0.9590
2492.794586 0.9590 0.9590 0.9586 0.9576 0.9570
2498.485033 0.9570 0.9570 0.9570 0.9570 0.9570
2504.175481 0.9566 0.9556 0.9550 0.9550 0.9550
2509.865928 0.9550 0.9546 0.9536 0.9524 0.9509
2515.556375 0.9500 0.9500 0.9500 0.9500 0.9489
2521.246822 0.9459 0.9440 0.9440 0.9438 0.9433
2526.937270 0.9426 0.9416 0.9397 0.9362 0.9327
2532.627717 0.9292 0.9259 0.9229 0.9208 0.9203
2538.318164 0.9189 0.9159 0.9131 0.9106 0.9090
2544.008612 0.9090 0.9090 0.9090 0.9090 0.9090
2549.699059 0.9090 0.9090 0.9090 0.9090 0.9095
2555.389506 0.9110 0.9123 0.9133 0.9143 0.9153
2561.079954 0.9163 0.9173 0.9185 0.9200 0.9220
2566.770401 0.9250 0.9270 0.9270 0.9272 0.9277
2572.460848 0.9280 0.9280 0.9278 0.9273 0.9267
2578.151296 0.9257 0.9244 0.9224 0.9205 0.9190
2583.841743 0.9174 0.9154 0.9135 0.9121 0.9107
2589.532190 0.9097 0.9087 0.9077 0.9067 0.9057
2595.222638 0.9048 0.9043 0.9040 0.9040 0.9041
2600.913085 0.9046 0.9050 0.9050 0.9050 0.9050
2606.603532 0.9053 0.9063 0.9070 0.9070 0.9070
2612.293979 0.9070 0.9073 0.9083 0.9090 0.9090
2617.984427 0.9090 0.9090 0.9090 0.9090 0.9090
2623.674874 0.9090 0.9093 0.9103 0.9110 0.9110
2629.365321 0.9110 0.9110 0.9108 0.9098 0.9090
2635.055769 0.9090 0.9088 0.9078 0.9070 0.9070
2640.746216 0.9067 0.9058 0.9049 0.9044 0.9040
2646.436663 0.9040 0.9040 0.9040 0.9040 0.9040
2652.127111 0.9041 0.9046 0.9050 0.9050 0.9050
2657.817558 0.9050 0.9050 0.9050 0.9052 0.9062
2663.508005 0.9068 0.9058 0.9050 0.9050 0.9050
2669.198453 0.9050 0.9052 0.9062 0.9070 0.9070
2674.888900 0.9070 0.9070 0.9070 0.9070 0.9070
2680.579347 0.9070 0.9067 0.9052 0.9040 0.9040
2686.269795 0.9040 0.9040 0.9040 0.9040 0.9040
2691.960242 0.9040 0.9038 0.9028 0.9020 0.9020
2697.650689 0.9020 0.9020 0.9020 0.9020 0.9020
2703.341137 0.9020 0.9020 0.9020 0.9020 0.9020
2709.031584 0.9018 0.9008 0.8998 0.8988 0.8978
2714.722031 0.8968 0.8960 0.8960 0.8960 0.8960
2720.412478 0.8960 0.8960 0.8961 0.8971 0.8981
2726.102926 0.8991 0.9001 0.9011 0.9022 0.9031
2731.793373 0.9041 0.9046 0.9050 0.9050 0.9050
2737.483820 0.9050 0.9050 0.9050 0.9051 0.9061
2743.174268 0.9070 0.9070 0.9070 0.9070 0.9070
2748.864715 0.9070 0.9071 0.9081 0.9090 0.9090
2754.555162 0.9090 0.9090 0.9089 0.9079 0.9069
2760.245610 0.9059 0.9048 0.9033 0.9018 0.8998
2765.936057 0.8978 0.8953 0.8930 0.8930 0.8929
2771.626504 0.8919 0.8909 0.8899 0.8891 0.8901
2777.316952 0.8910 0.8910 0.8909 0.8899 0.8890
2783.007399 0.8885 0.8877 0.8837 0.8797 0.8757
2788.697846 0.8719 0.8699 0.8679 0.8669 0.8658
2794.388294 0.8623 0.8588 0.8553 0.8519 0.8504
2800.078741 0.8487 0.8442 0.8397 0.8352 0.8308
2805.769188 0.8273 0.8239 0.8230 0.8219 0.8194
2811.459635 0.8168 0.8123 0.8078 0.8034 0.7989
2817.150083 0.7954 0.7920 0.7899 0.7872 0.7698
2822.840530 0.7530 0.7520 0.7509 0.7474 0.7438
2828.530977 0.7373 0.7307 0.7167 0.7027 0.6893
2834.221425 0.6758 0.6629 0.6499 0.6364 0.6227
2839.911872 0.5254 0.4282 0.3972 0.3665 0.3375
2845.602319 0.3085 0.2686 0.2287 0.1868 0.1449
2851.292767 0.1185 0.0921 0.0910 0.0900 0.0900
2856.983214 0.0900 0.1048 0.1197 0.1342 0.1487
2862.673661 0.1636 0.1786 0.1913 0.2039 0.2050
2868.364109 0.2060 0.2065 0.2070 0.2090 0.2110
2874.054556 0.2134 0.2159 0.2392 0.2632 0.2727
2879.745003 0.2816 0.2897 0.2976 0.3037 0.3097
2885.435451 0.3100 0.3100 0.3043 0.2982 0.2879
2891.125898 0.2774 0.2598 0.2418 0.2205 0.1991
2896.816345 0.1914 0.1844 0.1741 0.1636 0.1265
2902.506793 0.0876 0.0822 0.0792 0.0758 0.0723
2908.197240 0.0688 0.0653 0.0576 0.0495 0.0476
2913.887687 0.0461 0.0451 0.0441 0.0431 0.0421
2919.578134 0.0397 0.0372 0.0343 0.0313 0.0305
2925.268582 0.0300 0.0291 0.0281 0.0280 0.0280
2930.959029 0.0289 0.0299 0.0314 0.0329 0.0362
2936.649476 0.0397 0.0490 0.0590 0.0681 0.0771
2942.339924 0.0784 0.0789 0.0790 0.0790 0.0786
2948.030371 0.0781 0.0780 0.0780 0.0771 0.0761
2953.720818 0.0769 0.0779 0.0784 0.0789 0.0830
2959.411266 0.0875 0.0889 0.0899 0.1000 0.1115
2965.101713 0.1221 0.1326 0.1340 0.1340 0.1464
2970.792160 0.1609 0.1749 0.1889 0.2101 0.2325
2976.482608 0.2920 0.3583 0.3991 0.4350 0.4589
2982.173055 0.4808 0.4938 0.5053 0.5070 0.5070
2987.863502 0.5070 0.5070 0.4865 0.4621 0.4580
2993.553950 0.4580 0.4646 0.4726 0.4908 0.5113
2999.244397 0.5313 0.5513 0.5940 0.6420 0.6683
3004.934844 0.6902 0.7027 0.7131 0.7240 0.7350
3010.625291 0.7382 0.7397 0.7416 0.7436 0.7448
3016.315739 0.7458 0.7464 0.7469 0.7478 0.7488
3022.006186 0.7490 0.7490 0.7498 0.7508 0.7522
3027.696633 0.7537 0.7556 0.7576 0.7592 0.7607
3033.387081 0.7618 0.7628 0.7630 0.7630 0.7630
3039.077528 0.7630 0.7630 0.7630 0.7630 0.7630
3044.767975 0.7611 0.7586 0.7565 0.7544 0.7540
3050.458423 0.7540 0.7540 0.7540 0.7540 0.7540
3056.148870 0.7540 0.7540 0.7540 0.7540 0.7536
3061.839317 0.7531 0.7515 0.7495 0.7483 0.7473
3067.529765 0.7466 0.7461 0.7453 0.7442 0.7417
3073.220212 0.7388 0.7376 0.7371 0.7370 0.7370
3078.910659 0.7363 0.7353 0.7317 0.7272 0.7216
3084.601107 0.7157 0.7118 0.7088 0.7080 0.7080
3090.291554 0.7055 0.7020 0.6967 0.6907 0.6843
3095.982001 0.6778 0.6710 0.6640 0.6424 0.6149
3101.672449 0.5949 0.5780 0.5681 0.5611 0.5660
3107.362896 0.5760 0.5894 0.6044 0.6169 0.6284
3113.053343 0.6320 0.6320 0.6265 0.6184 0.6111
3118.743790 0.6041 0.6006 0.5986 0.5901 0.5786
3124.434238 0.5569 0.5305 0.5091 0.4902 0.4769
3130.124685 0.4665 0.4547 0.4422 0.4294 0.4164
3135.815132 0.4038 0.3913 0.3659 0.3336 0.3092
3141.505580 0.2888 0.2560 0.2171 0.2027 0.2007
3147.196027 0.2007 0.2017 0.2066 0.2135 0.2166
3152.886474 0.2176 0.2343 0.2598 0.2855 0.3115
3158.576922 0.3374 0.3633 0.4009 0.4453 0.4623
3164.267369 0.4643 0.4832 0.5117 0.5401 0.5685
3169.957816 0.5966 0.6246 0.6469 0.6658 0.6795
3175.648264 0.6900 0.6952 0.6972 0.6983 0.6988
3181.338711 0.6990 0.6990 0.6990 0.6990 0.6987
3187.029158 0.6982 0.6974 0.6964 0.6948 0.6928
3192.719606 0.6905 0.6880 0.6870 0.6870 0.6855
3198.410053 0.6830 0.6796 0.6757 0.6720 0.6685
3204.100500 0.6650 0.6615 0.6580 0.6544 0.6509
3209.790947 0.6474 0.6419 0.6349 0.6282 0.6217
3215.481395 0.6150 0.6080 0.6030 0.5995 0.5966
3221.171842 0.5941 0.5790 0.5540 0.5386 0.5306
3226.862289 0.5245 0.5200 0.5064 0.4852 0.4703
3232.552737 0.4604 0.4510 0.4420 0.4330 0.4240
3238.243184 0.4084 0.3875 0.3698 0.3549 0.3402
3243.933631 0.3257 0.3072 0.2853 0.2692 0.2582
3249.624079 0.2326 0.1937 0.1742 0.1727 0.1720
3255.314526 0.1720 0.1720 0.1720 0.1725 0.1735
3261.004973 0.1753 0.1778 0.1803 0.1828 0.1881
3266.695421 0.1961 0.2036 0.2105 0.2288 0.2583
3272.385868 0.2840 0.3059 0.3270 0.3472 0.3647
3278.076315 0.3797 0.3946 0.4096 0.4238 0.4372
3283.766763 0.4442 0.4447 0.4507 0.4621 0.4680
3289.457210 0.4680 0.4680 0.4680 0.4678 0.4673
3295.147657 0.4665 0.4655 0.4641 0.4620 0.4598
3300.838105 0.4573 0.4534 0.4479 0.4426 0.4376
3306.528552 0.4324 0.4269 0.4228 0.4203 0.4153
3312.218999 0.4073 0.4005 0.3950 0.3895 0.3840
3317.909446 0.3783 0.3723 0.3634 0.3508 0.3412
3323.599894 0.3353 0.3243 0.3073 0.2951 0.2886
3329.290341 0.2828 0.2778 0.2695 0.2570 0.2426
3334.980788 0.2257 0.2130 0.2060 0.1976 0.1871
3340.671236 0.1802 0.1782 0.1770 0.1770 0.1770
3346.361683 0.1770 0.1770 0.1770 0.1774 0.1784
3352.052130 0.1794 0.1804 0.1816 0.1831 0.1854
3357.742578 0.1889 0.1928 0.1973 0.2026 0.2091
3363.433025 0.2175 0.2290 0.2440 0.2647 0.2809
3369.123472 0.2903 0.2974 0.3009 0.3089 0.3239
3374.813920 0.3414 0.3629 0.3781 0.3836 0.3958
3380.504367 0.4187 0.4369 0.4474 0.4603 0.4773
3386.194814 0.4902 0.4962 0.5029 0.5110 0.5219
3391.885262 0.5374 0.5500 0.5580 0.5656 0.5726
3397.575709 0.5803 0.5893 0.5997 0.6126 0.6247
3403.266156 0.6352 0.6455 0.6555 0.6651 0.6741
3408.956603 0.6803 0.6813 0.6859 0.6975 0.7068
3414.647051 0.7118 0.7162 0.7197 0.7230 0.7260
3420.337498 0.7297 0.7347 0.7405 0.7480 0.7535
3426.027945 0.7550 0.7566 0.7586 0.7605 0.7620
3431.718393 0.7647 0.7702 0.7743 0.7753 0.7762
3437.408840 0.7767 0.7783 0.7823 0.7861 0.7896
3443.099287 0.7920 0.7920 0.7922 0.7927 0.7936
3448.789735 0.7956 0.7970 0.7970 0.7977 0.8002
3454.480182 0.8029 0.8059 0.8081 0.8086 0.8093
3460.170629 0.8103 0.8116 0.8136 0.8154 0.8169
3465.861077 0.8180 0.8180 0.8183 0.8193 0.8200
3471.551524 0.8200 0.8200 0.8200 0.8203 0.8213
3477.241971 0.8220 0.8220 0.8220 0.8220 0.8220
3482.932419 0.8220 0.8223 0.8233 0.8237 0.8227
3488.622866 0.8223 0.8233 0.8241 0.8246 0.8249
3494.313313 0.8244 0.8240 0.8240 0.8241 0.8246
3500.003761 0.8252 0.8262 0.8270 0.8270 0.8270
3505.694208 0.8270 0.8270 0.8270 0.8272 0.8282
3511.384655 0.8290 0.8290 0.8288 0.8278 0.8270
3517.075102 0.8270 0.8270 0.8270 0.8272 0.8282
3522.765550 0.8290 0.8290 0.8290 0.8290 0.8290
3528.455997 0.8290 0.8290 0.8290 0.8288 0.8278
3534.146444 0.8270 0.8270 0.8270 0.8270 0.8272
3539.836892 0.8282 0.8290 0.8290 0.8286 0.8266
3545.527339 0.8250 0.8250 0.8250 0.8250 0.8250
3551.217786 0.8250 0.8250 0.8250 0.8252 0.8262
3556.908234 0.8270 0.8270 0.8270 0.8270 0.8272
3562.598681 0.8282 0.8290 0.8290 0.8290 0.8290
3568.289128 0.8290 0.8290 0.8290 0.8290 0.8290
3573.979576 0.8290 0.8290 0.8290 0.8287 0.8267
3579.670023 0.8250 0.8250 0.8250 0.8250 0.8249
3585.360470 0.8244 0.8240 0.8240 0.8243 0.8268
3591.050918 0.8290 0.8290 0.8288 0.8267 0.8251
3596.741365 0.8261 0.8270 0.8270 0.8270 0.8270
3602.431812 0.8269 0.8259 0.8249 0.8244 0.8240
3608.122259 0.8240 0.8241 0.8246 0.8250 0.8250
3613.812707 0.8250 0.8250 0.8250 0.8250 0.8252
3619.503154 0.8272 0.8290 0.8290 0.8288 0.8268
3625.193601 0.8250 0.8250 0.8251 0.8261 0.8270
3630.884049 0.8270 0.8269 0.8259 0.8250 0.8250
3636.574496 0.8250 0.8245 0.8240 0.8240 0.8242
3642.264943 0.8267 0.8290 0.8290 0.8290 0.8290
3647.955391 0.8290 0.8290 0.8290 0.8290 0.8289
3653.645838 0.8269 0.8250 0.8250 0.8250 0.8250
3659.336285 0.8250 0.8245 0.8240 0.8240 0.8240
3665.026733 0.8245 0.8250 0.8250 0.8251 0.8260
3670.717180 0.8270 0.8270 0.8269 0.8254 0.8240
3676.407627 0.8230 0.8220 0.8220 0.8220 0.8235
3682.098075 0.8250 0.8250 0.8250 0.8245 0.8240
3687.788522 0.8240 0.8240 0.8230 0.8220 0.8210
3693.478969 0.8200 0.8200 0.8200 0.8200 0.8200
3699.169417 0.8200 0.8200 0.8200 0.8200 0.8185
3704.859864 0.8170 0.8150 0.8130 0.8130 0.8130
3710.550311 0.8130 0.8130 0.8130 0.8130 0.8150
3716.240758 0.8170 0.8170 0.8170 0.8170 0.8170
3721.931206 0.8175 0.8180 0.8190 0.8200 0.8200
3727.621653 0.8200 0.8210 0.8220 0.8210 0.8200
3733.312100 0.8190 0.8180 0.8175 0.8170 0.8170
3739.002548 0.8170 0.8160 0.8150 0.8150 0.8150
3744.692995 0.8140 0.8130 0.8139 0.8149 0.8141
3750.383442 0.8131 0.8130 0.8130 0.8121 0.8110
3756.073890 0.8110 0.8110 0.8110 0.8110 0.8110
3761.764337 0.8110 0.8101 0.8091 0.8090 0.8090
3767.454784 0.8090 0.8090 0.8090 0.8090 0.8090
3773.145232 0.8090 0.8090 0.8090 0.8090 0.8090
3778.835679 0.8085 0.8080 0.8085 0.8090 0.8090
3784.526126 0.8090 0.8090 0.8090 0.8090 0.8090
3790.216574 0.8090 0.8090
##END=
