##TITLE=STEARIC ACID, TRIETHYLCITRATE ESTER
##JCAMP-DX=4.24
##DATA TYPE=INFRARED SPECTRUM
##CLASS=COBLENTZ III
##ORIGIN=SOUTHERN RESEARCH INSTITUTE
##OWNER=COBLENTZ SOCIETY
Collection (C) 2018 copyright by the U.S. Secretary of Commerce
on behalf of the United States of America. All rights reserved.
##DATE=1956/07/11
##NAMES=triethyl 2-(stearoyloxy)-1,2,3-propanetricarboxylate
##MOLFORM=C30 H54 O8
##SOURCE REFERENCE=COBLENTZ NO. 7398
##$NIST ID=B6007398
##$NIST SOURCE=COBLENTZ
##$NIST IMAGE=cob7398
##SPECTROMETER/DATA SYSTEM=PERKIN-ELMER 21 (GRATING)
##INSTRUMENT PARAMETERS=FILTER CHANGE AT ABOUT 1070 CM^-^1
##STATE=LIQUID (NEAT) VS ONE NaCl WINDOW IN REFERENCE BEAM
##PATH LENGTH=CAPILLARY
##SAMPLING PROCEDURE=TRANSMISSION
##RESOLUTION=2
##DATA PROCESSING=DIGITIZED BY NIST FROM HARD COPY (FROM TWO SEGMENTS)
##XUNITS=1/CM
##YUNITS=TRANSMITTANCE
##XFACTOR=1.000000
##YFACTOR=1
##DELTAX=1.196581
##FIRSTX=627.711
##LASTX=3822.58
##FIRSTY=0.839
##MAXX=3822.58
##MINX=627.711
##MAXY=0.952844
##MINY=0.066
##NPOINTS=2671
##XYDATA=(X++(Y..Y))
627.711000 0.8390 0.8430 0.8460 0.8489 0.8509
633.693905 0.8520 0.8539 0.8540 0.8549 0.8550
639.676810 0.8559 0.8569 0.8579 0.8607 0.8619
645.659715 0.8620 0.8620 0.8629 0.8630 0.8630
651.642620 0.8639 0.8640 0.8640 0.8657 0.8685
657.625525 0.8715 0.8753 0.8800 0.8842 0.8882
663.608430 0.8953 0.8970 0.8978 0.8980 0.8988
669.591335 0.8990 0.8990 0.8983 0.8980 0.8973
675.574240 0.8948 0.8933 0.8923 0.8899 0.8827
681.557145 0.8779 0.8770 0.8770 0.8770 0.8763
687.540050 0.8760 0.8760 0.8760 0.8754 0.8750
693.522955 0.8750 0.8738 0.8706 0.8654 0.8601
699.505860 0.8557 0.8517 0.8471 0.8410 0.8341
705.488765 0.8255 0.8139 0.8042 0.7968 0.7868
711.471670 0.7769 0.7709 0.7675 0.7645 0.7620
717.454575 0.7610 0.7620 0.7649 0.7679 0.7704
723.437480 0.7724 0.7743 0.7764 0.7770 0.7770
729.420385 0.7766 0.7744 0.7708 0.7674 0.7627
735.403290 0.7575 0.7384 0.6947 0.6612 0.6453
741.386195 0.6288 0.6140 0.6037 0.5905 0.5681
747.369100 0.5270 0.4971 0.4947 0.4934 0.4943
753.352005 0.5014 0.5091 0.5279 0.5671 0.6237
759.334910 0.6491 0.6652 0.6809 0.7341 0.7530
765.317815 0.7731 0.7818 0.7854 0.7900 0.8035
771.300720 0.8063 0.8082 0.8090 0.8095 0.8122
777.283625 0.8133 0.8154 0.8184 0.8211 0.8223
783.266530 0.8250 0.8251 0.8260 0.8261 0.8271
789.249435 0.8280 0.8281 0.8301 0.8311 0.8320
795.232340 0.8331 0.8360 0.8370 0.8380 0.8400
801.215245 0.8420 0.8430 0.8430 0.8450 0.8460
807.198150 0.8489 0.8500 0.8519 0.8549 0.8559
813.181055 0.8569 0.8579 0.8598 0.8582 0.8580
819.163960 0.8580 0.8562 0.8551 0.8541 0.8540
825.146865 0.8523 0.8503 0.8491 0.8490 0.8482
831.129770 0.8463 0.8435 0.8397 0.8374 0.8370
837.112675 0.8362 0.8328 0.8304 0.8269 0.8252
843.095580 0.8242 0.8164 0.8102 0.8083 0.8080
849.078485 0.8080 0.8080 0.8080 0.8080 0.8087
855.061390 0.8104 0.8124 0.8151 0.8214 0.8280
861.044295 0.8327 0.8366 0.8425 0.8482 0.8532
867.027200 0.8569 0.8605 0.8645 0.8666 0.8682
873.010105 0.8714 0.8742 0.8756 0.8760 0.8766
878.993010 0.8770 0.8787 0.8800 0.8811 0.8820
884.975915 0.8820 0.8815 0.8810 0.8805 0.8800
890.958820 0.8785 0.8760 0.8750 0.8745 0.8740
896.941725 0.8735 0.8730 0.8717 0.8700 0.8700
902.924630 0.8700 0.8696 0.8690 0.8686 0.8672
908.907535 0.8648 0.8599 0.8539 0.8520 0.8520
914.890440 0.8520 0.8513 0.8493 0.8466 0.8427
920.873345 0.8397 0.8390 0.8387 0.8380 0.8377
926.856250 0.8370 0.8370 0.8370 0.8370 0.8367
932.839155 0.8355 0.8338 0.8328 0.8318 0.8310
938.822060 0.8308 0.8300 0.8300 0.8300 0.8302
944.804965 0.8312 0.8322 0.8338 0.8383 0.8406
950.787870 0.8441 0.8454 0.8481 0.8494 0.8524
956.770775 0.8552 0.8570 0.8571 0.8580 0.8582
962.753680 0.8601 0.8610 0.8610 0.8610 0.8610
968.736585 0.8610 0.8609 0.8580 0.8580 0.8570
974.719490 0.8560 0.8550 0.8540 0.8510 0.8480
980.702395 0.8441 0.8430 0.8382 0.8313 0.8281
986.685300 0.8271 0.8186 0.8096 0.8025 0.7992
992.668205 0.7944 0.7859 0.7760 0.7617 0.7459
998.651110 0.7239 0.7054 0.6874 0.6644 0.6491
1004.634015 0.6369 0.6258 0.6132 0.6020 0.5902
1010.616920 0.5421 0.5190 0.5064 0.4945 0.4591
1016.599825 0.4213 0.3838 0.3461 0.3317 0.3300
1022.582730 0.3307 0.3346 0.3411 0.3481 0.3536
1028.565635 0.3592 0.3708 0.3999 0.4219 0.4358
1034.548540 0.4480 0.4579 0.4676 0.4762 0.4835
1040.531445 0.4898 0.4983 0.5051 0.5088 0.5118
1046.514350 0.5142 0.5174 0.5196 0.5212 0.5220
1052.497255 0.5209 0.5200 0.5200 0.5200 0.5200
1058.480160 0.5200 0.5200 0.5200 0.5205 0.5215
1064.463065 0.5235 0.5255 0.5265 0.5275 0.5280
1070.445970 0.5280 0.5280 0.5285 0.5290 0.5290
1076.428875 0.5290 0.5290 0.5265 0.5173 0.5074
1082.411780 0.5042 0.5011 0.4965 0.4856 0.4638
1088.394685 0.4357 0.4103 0.4083 0.4070 0.4070
1094.377590 0.4070 0.4070 0.4070 0.4064 0.4047
1100.360495 0.4040 0.4037 0.4019 0.3987 0.3977
1106.343400 0.3965 0.3975 0.4065 0.4139 0.4247
1112.326305 0.4300 0.4311 0.4352 0.4360 0.4360
1118.309210 0.4358 0.4332 0.4248 0.4236 0.4210
1124.292115 0.4155 0.4125 0.4087 0.4005 0.3964
1130.275020 0.3892 0.3684 0.3634 0.3577 0.3549
1136.257925 0.3538 0.3518 0.3498 0.3470 0.3326
1142.240830 0.3259 0.3249 0.3218 0.3178 0.3117
1148.223735 0.3029 0.2999 0.2949 0.2870 0.2810
1154.206640 0.2692 0.2651 0.2601 0.2542 0.2482
1160.189545 0.2413 0.2344 0.2284 0.2205 0.2126
1166.172450 0.2056 0.2023 0.1975 0.1907 0.1837
1172.155355 0.1750 0.1678 0.1609 0.1540 0.1479
1178.138260 0.1402 0.1382 0.1380 0.1380 0.1380
1184.121165 0.1388 0.1414 0.1428 0.1470 0.1519
1190.104070 0.1561 0.1609 0.1658 0.1708 0.1758
1196.086975 0.1815 0.1860 0.1914 0.2010 0.2083
1202.069880 0.2136 0.2185 0.2242 0.2281 0.2325
1208.052785 0.2354 0.2421 0.2510 0.2599 0.2682
1214.035690 0.2755 0.2825 0.2951 0.3048 0.3114
1220.018595 0.3183 0.3252 0.3316 0.3387 0.3455
1226.001500 0.3520 0.3584 0.3649 0.3719 0.3789
1231.984405 0.3858 0.3971 0.4082 0.4157 0.4216
1237.967310 0.4260 0.4315 0.4365 0.4380 0.4380
1243.950215 0.4380 0.4375 0.4356 0.4326 0.4292
1249.933120 0.4252 0.4213 0.4182 0.4166 0.4160
1255.916025 0.4160 0.4160 0.4160 0.4156 0.4135
1261.898930 0.4080 0.4015 0.3990 0.3987 0.3970
1267.881835 0.3936 0.3893 0.3844 0.3794 0.3741
1273.864740 0.3679 0.3624 0.3607 0.3600 0.3600
1279.847645 0.3600 0.3600 0.3600 0.3600 0.3600
1285.830550 0.3602 0.3615 0.3632 0.3646 0.3674
1291.813455 0.3702 0.3770 0.3897 0.4109 0.4160
1297.796360 0.4213 0.4239 0.4293 0.4326 0.4463
1303.779265 0.4758 0.5006 0.5054 0.5087 0.5148
1309.762170 0.5221 0.5233 0.5262 0.5291 0.5311
1315.745075 0.5320 0.5320 0.5320 0.5320 0.5320
1321.727980 0.5320 0.5319 0.5270 0.5250 0.5220
1327.710885 0.5190 0.5131 0.5071 0.5002 0.4971
1333.693790 0.4941 0.4864 0.4832 0.4783 0.4771
1339.676695 0.4789 0.4873 0.5109 0.5266 0.5424
1345.659600 0.5574 0.5723 0.5845 0.5921 0.6095
1351.642505 0.6267 0.6290 0.6290 0.6265 0.6210
1357.625410 0.6093 0.5956 0.5534 0.5104 0.4860
1363.608315 0.4645 0.4293 0.3891 0.3792 0.3790
1369.591220 0.3790 0.4022 0.4115 0.4193 0.4322
1375.574125 0.4498 0.4880 0.5159 0.5368 0.5541
1381.557030 0.5899 0.6101 0.6137 0.6140 0.6140
1387.539935 0.6153 0.6173 0.6206 0.6252 0.6308
1393.522840 0.6361 0.6404 0.6432 0.6440 0.6446
1399.505745 0.6450 0.6450 0.6444 0.6440 0.6440
1405.488650 0.6440 0.6440 0.6440 0.6445 0.6450
1411.471555 0.6445 0.6440 0.6445 0.6460 0.6470
1417.454460 0.6470 0.6470 0.6456 0.6431 0.6415
1423.437365 0.6392 0.6361 0.6328 0.6296 0.6214
1429.420270 0.6085 0.6026 0.5954 0.5877 0.5825
1435.403175 0.5777 0.5699 0.5612 0.5551 0.5468
1441.386080 0.5382 0.5306 0.5257 0.5250 0.5244
1447.368985 0.5205 0.5125 0.5055 0.5002 0.4912
1453.351890 0.4748 0.4629 0.4579 0.4495 0.4415
1459.334795 0.4388 0.4350 0.4350 0.4352 0.4373
1465.317700 0.4548 0.5113 0.5583 0.6212 0.6379
1471.300605 0.6573 0.6862 0.6875 0.6903 0.6923
1477.283510 0.6972 0.7243 0.7770 0.8141 0.8320
1483.266415 0.8487 0.8541 0.8551 0.8561 0.8571
1489.249320 0.8584 0.8633 0.8672 0.8702 0.8751
1495.232225 0.8772 0.8821 0.8851 0.8891 0.8941
1501.215130 0.9010 0.9030 0.9040 0.9040 0.9050
1507.198035 0.9060 0.9070 0.9089 0.9090 0.9099
1513.180940 0.9100 0.9100 0.9109 0.9110 0.9110
1519.163845 0.9119 0.9120 0.9120 0.9129 0.9148
1525.146750 0.9150 0.9159 0.9169 0.9170 0.9178
1531.129655 0.9172 0.9170 0.9170 0.9162 0.9160
1537.112560 0.9160 0.9160 0.9160 0.9160 0.9160
1543.095465 0.9160 0.9160 0.9160 0.9160 0.9160
1549.078370 0.9160 0.9160 0.9160 0.9153 0.9136
1555.061275 0.9130 0.9123 0.9120 0.9113 0.9103
1561.044180 0.9093 0.9090 0.9090 0.9090 0.9090
1567.027085 0.9077 0.9070 0.9070 0.9070 0.9064
1573.009990 0.9060 0.9054 0.9050 0.9044 0.9040
1578.992895 0.9034 0.9030 0.9019 0.9005 0.8995
1584.975800 0.8990 0.8985 0.8954 0.8905 0.8870
1590.958705 0.8855 0.8850 0.8850 0.8855 0.8860
1596.941610 0.8865 0.8870 0.8870 0.8870 0.8866
1602.924515 0.8860 0.8856 0.8850 0.8842 0.8830
1608.907420 0.8830 0.8830 0.8830 0.8823 0.8806
1614.890325 0.8789 0.8763 0.8747 0.8727 0.8697
1620.873230 0.8687 0.8677 0.8667 0.8654 0.8637
1626.856135 0.8627 0.8617 0.8607 0.8603 0.8610
1632.839040 0.8613 0.8620 0.8620 0.8622 0.8630
1638.821945 0.8628 0.8620 0.8618 0.8610 0.8608
1644.804850 0.8600 0.8596 0.8580 0.8578 0.8567
1650.787755 0.8549 0.8540 0.8540 0.8537 0.8519
1656.770660 0.8508 0.8485 0.8438 0.8416 0.8377
1662.753565 0.8338 0.8309 0.8298 0.8269 0.8247
1668.736470 0.8183 0.8048 0.8008 0.7960 0.7969
1674.719375 0.7940 0.7889 0.7820 0.7731 0.7651
1680.702280 0.7581 0.7522 0.7308 0.7032 0.6925
1686.685185 0.6817 0.6584 0.6346 0.6080 0.5987
1692.668090 0.5889 0.5726 0.5549 0.5388 0.5212
1698.650995 0.5042 0.4968 0.4908 0.4677 0.4393
1704.633900 0.4106 0.3943 0.3796 0.3491 0.3324
1710.616805 0.3203 0.3027 0.2830 0.2577 0.2105
1716.599710 0.1882 0.1743 0.1505 0.1335 0.1203
1722.582615 0.1008 0.0796 0.0725 0.0698 0.0683
1728.565520 0.0680 0.0666 0.0660 0.0674 0.0687
1734.548425 0.0703 0.0717 0.0733 0.0753 0.0786
1740.531330 0.0864 0.0969 0.1041 0.1109 0.1219
1746.514235 0.1396 0.1605 0.1974 0.2304 0.2504
1752.497140 0.2677 0.2952 0.3221 0.3441 0.3911
1758.480045 0.4740 0.5369 0.5897 0.6302 0.6436
1764.462950 0.6585 0.6828 0.7107 0.7306 0.7480
1770.445855 0.7639 0.7775 0.7881 0.7993 0.8096
1776.428760 0.8169 0.8258 0.8348 0.8425 0.8484
1782.411665 0.8532 0.8562 0.8588 0.8608 0.8627
1788.394570 0.8655 0.8684 0.8693 0.8707 0.8720
1794.377475 0.8720 0.8726 0.8743 0.8762 0.8799
1800.360380 0.8829 0.8853 0.8866 0.8883 0.8895
1806.343285 0.8915 0.8955 0.9035 0.9052 0.9067
1812.326190 0.9090 0.9090 0.9092 0.9100 0.9100
1818.309095 0.9100 0.9100 0.9100 0.9102 0.9110
1824.292000 0.9110 0.9110 0.9111 0.9120 0.9120
1830.274905 0.9120 0.9121 0.9130 0.9132 0.9150
1836.257810 0.9151 0.9161 0.9170 0.9171 0.9180
1842.240715 0.9181 0.9191 0.9210 0.9210 0.9220
1848.223620 0.9220 0.9220 0.9220 0.9220 0.9230
1854.206525 0.9230 0.9230 0.9230 0.9230 0.9230
1860.189430 0.9230 0.9230 0.9230 0.9230 0.9230
1866.172335 0.9230 0.9230 0.9230 0.9230 0.9230
1872.155240 0.9230 0.9230 0.9230 0.9230 0.9230
1878.138145 0.9230 0.9230 0.9230 0.9230 0.9230
1884.121050 0.9230 0.9230 0.9238 0.9240 0.9248
1890.103955 0.9266 0.9278 0.9280 0.9280 0.9288
1896.086860 0.9290 0.9297 0.9300 0.9300 0.9300
1902.069765 0.9300 0.9300 0.9307 0.9310 0.9310
1908.052670 0.9324 0.9330 0.9330 0.9337 0.9340
1914.035575 0.9340 0.9340 0.9340 0.9340 0.9340
1920.018480 0.9340 0.9340 0.9346 0.9350 0.9350
1926.001385 0.9350 0.9350 0.9350 0.9350 0.9350
1931.984290 0.9350 0.9350 0.9350 0.9350 0.9350
1937.967195 0.9350 0.9350 0.9350 0.9350 0.9350
1943.950100 0.9350 0.9350 0.9350 0.9350 0.9350
1949.933005 0.9350 0.9350 0.9350 0.9350 0.9350
1955.915910 0.9350 0.9350 0.9350 0.9350 0.9350
1961.898815 0.9350 0.9346 0.9340 0.9340 0.9340
1967.881720 0.9340 0.9337 0.9330 0.9330 0.9324
1973.864625 0.9310 0.9310 0.9310 0.9307 0.9300
1979.847530 0.9300 0.9300 0.9300 0.9300 0.9300
1985.830435 0.9300 0.9302 0.9310 0.9310 0.9314
1991.813340 0.9330 0.9330 0.9334 0.9350 0.9350
1997.796245 0.9350 0.9350 0.9350 0.9350 0.9350
2003.779150 0.9350 0.9350 0.9348 0.9340 0.9340
2009.762055 0.9340 0.9340 0.9340 0.9340 0.9338
2015.744960 0.9330 0.9330 0.9330 0.9330 0.9330
2021.727865 0.9330 0.9330 0.9330 0.9330 0.9330
2027.710770 0.9330 0.9330 0.9330 0.9330 0.9330
2033.693675 0.9330 0.9330 0.9330 0.9330 0.9330
2039.676580 0.9327 0.9310 0.9310 0.9310 0.9310
2045.659485 0.9310 0.9310 0.9310 0.9310 0.9310
2051.642390 0.9310 0.9310 0.9310 0.9310 0.9313
2057.625295 0.9330 0.9332 0.9342 0.9350 0.9350
2063.608200 0.9350 0.9350 0.9350 0.9350 0.9350
2069.591105 0.9350 0.9350 0.9350 0.9350 0.9352
2075.574010 0.9360 0.9360 0.9360 0.9360 0.9360
2081.556915 0.9360 0.9360 0.9360 0.9360 0.9360
2087.539820 0.9360 0.9360 0.9360 0.9360 0.9360
2093.522725 0.9360 0.9360 0.9360 0.9360 0.9360
2099.505630 0.9360 0.9360 0.9360 0.9360 0.9360
2105.488535 0.9360 0.9360 0.9360 0.9360 0.9360
2111.471440 0.9360 0.9360 0.9360 0.9360 0.9360
2117.454345 0.9360 0.9360 0.9360 0.9360 0.9360
2123.437250 0.9360 0.9360 0.9360 0.9360 0.9360
2129.420155 0.9360 0.9360 0.9360 0.9360 0.9360
2135.403060 0.9360 0.9360 0.9360 0.9360 0.9360
2141.385965 0.9360 0.9360 0.9360 0.9360 0.9360
2147.368870 0.9360 0.9360 0.9360 0.9360 0.9360
2153.351775 0.9360 0.9360 0.9360 0.9360 0.9360
2159.334680 0.9360 0.9362 0.9370 0.9370 0.9370
2165.317585 0.9370 0.9372 0.9380 0.9380 0.9383
2171.300490 0.9400 0.9402 0.9410 0.9410 0.9410
2177.283395 0.9408 0.9397 0.9380 0.9380 0.9378
2183.266300 0.9370 0.9370 0.9370 0.9370 0.9370
2189.249205 0.9368 0.9360 0.9360 0.9360 0.9360
2195.232110 0.9358 0.9350 0.9350 0.9350 0.9350
2201.215015 0.9350 0.9350 0.9352 0.9358 0.9350
2207.197920 0.9350 0.9350 0.9350 0.9350 0.9352
2213.180825 0.9358 0.9350 0.9350 0.9352 0.9360
2219.163730 0.9360 0.9360 0.9360 0.9360 0.9360
2225.146635 0.9360 0.9362 0.9370 0.9370 0.9370
2231.129540 0.9368 0.9362 0.9370 0.9370 0.9370
2237.112445 0.9370 0.9370 0.9370 0.9370 0.9370
2243.095350 0.9370 0.9370 0.9370 0.9370 0.9372
2249.078255 0.9380 0.9380 0.9380 0.9380 0.9380
2255.061160 0.9380 0.9380 0.9380 0.9380 0.9380
2261.044065 0.9383 0.9400 0.9400 0.9400 0.9400
2267.026970 0.9400 0.9400 0.9400 0.9400 0.9400
2273.009875 0.9400 0.9402 0.9410 0.9410 0.9412
2278.992780 0.9420 0.9422 0.9432 0.9443 0.9460
2284.975685 0.9462 0.9470 0.9472 0.9480 0.9482
2290.958590 0.9490 0.9492 0.9500 0.9500 0.9500
2296.941495 0.9503 0.9520 0.9520 0.9520 0.9520
2302.924400 0.9522 0.9528 0.9520 0.9517 0.9500
2308.907305 0.9500 0.9500 0.9500 0.9500 0.9500
2314.890210 0.9498 0.9490 0.9490 0.9490 0.9488
2320.873115 0.9480 0.9480 0.9480 0.9480 0.9480
2326.856020 0.9480 0.9480 0.9480 0.9480 0.9480
2332.838925 0.9480 0.9478 0.9470 0.9468 0.9460
2338.821830 0.9457 0.9440 0.9440 0.9438 0.9430
2344.804735 0.9428 0.9420 0.9420 0.9418 0.9410
2350.787640 0.9408 0.9400 0.9400 0.9397 0.9380
2356.770545 0.9378 0.9370 0.9370 0.9368 0.9360
2362.753450 0.9358 0.9350 0.9348 0.9340 0.9340
2368.736355 0.9340 0.9340 0.9340 0.9340 0.9340
2374.719260 0.9340 0.9340 0.9340 0.9340 0.9340
2380.702165 0.9340 0.9342 0.9350 0.9350 0.9350
2386.685070 0.9352 0.9360 0.9360 0.9360 0.9360
2392.667975 0.9363 0.9380 0.9380 0.9380 0.9380
2398.650880 0.9383 0.9400 0.9400 0.9400 0.9400
2404.633785 0.9400 0.9400 0.9400 0.9400 0.9400
2410.616690 0.9400 0.9400 0.9400 0.9400 0.9400
2416.599595 0.9397 0.9378 0.9370 0.9370 0.9370
2422.582500 0.9370 0.9370 0.9370 0.9370 0.9370
2428.565405 0.9370 0.9370 0.9370 0.9370 0.9370
2434.548310 0.9370 0.9370 0.9370 0.9370 0.9370
2440.531215 0.9370 0.9370 0.9370 0.9370 0.9370
2446.514120 0.9370 0.9370 0.9368 0.9360 0.9360
2452.497025 0.9360 0.9360 0.9357 0.9338 0.9330
2458.479930 0.9330 0.9330 0.9327 0.9310 0.9308
2464.462835 0.9300 0.9300 0.9300 0.9300 0.9300
2470.445740 0.9300 0.9300 0.9300 0.9300 0.9300
2476.428645 0.9300 0.9300 0.9300 0.9300 0.9300
2482.411550 0.9300 0.9300 0.9300 0.9300 0.9300
2488.394455 0.9300 0.9300 0.9300 0.9300 0.9300
2494.377360 0.9300 0.9300 0.9300 0.9300 0.9300
2500.360265 0.9300 0.9300 0.9300 0.9300 0.9300
2506.343170 0.9300 0.9298 0.9290 0.9290 0.9290
2512.326075 0.9290 0.9290 0.9290 0.9290 0.9290
2518.308980 0.9290 0.9290 0.9290 0.9290 0.9290
2524.291885 0.9290 0.9290 0.9290 0.9290 0.9290
2530.274790 0.9290 0.9290 0.9288 0.9280 0.9280
2536.257695 0.9280 0.9280 0.9280 0.9280 0.9278
2542.240600 0.9270 0.9270 0.9270 0.9270 0.9270
2548.223505 0.9270 0.9270 0.9267 0.9250 0.9250
2554.206410 0.9250 0.9250 0.9250 0.9250 0.9248
2560.189315 0.9240 0.9240 0.9240 0.9240 0.9240
2566.172220 0.9240 0.9240 0.9240 0.9240 0.9240
2572.155125 0.9240 0.9238 0.9230 0.9230 0.9230
2578.138030 0.9230 0.9230 0.9230 0.9230 0.9230
2584.120935 0.9230 0.9230 0.9230 0.9230 0.9230
2590.103840 0.9230 0.9230 0.9232 0.9240 0.9240
2596.086745 0.9240 0.9240 0.9240 0.9240 0.9240
2602.069650 0.9240 0.9240 0.9240 0.9238 0.9230
2608.052555 0.9228 0.9218 0.9207 0.9188 0.9180
2614.035460 0.9178 0.9168 0.9158 0.9150 0.9150
2620.018365 0.9150 0.9150 0.9150 0.9150 0.9150
2626.001270 0.9150 0.9150 0.9150 0.9147 0.9130
2631.984175 0.9130 0.9130 0.9130 0.9128 0.9120
2637.967080 0.9120 0.9120 0.9120 0.9118 0.9110
2643.949985 0.9110 0.9110 0.9110 0.9108 0.9100
2649.932890 0.9100 0.9098 0.9090 0.9090 0.9087
2655.915795 0.9070 0.9070 0.9068 0.9060 0.9060
2661.898700 0.9058 0.9050 0.9048 0.9040 0.9040
2667.881605 0.9040 0.9038 0.9030 0.9030 0.9030
2673.864510 0.9027 0.9010 0.9008 0.9000 0.9000
2679.847415 0.9000 0.8998 0.8990 0.8990 0.8988
2685.830320 0.8980 0.8978 0.8970 0.8970 0.8967
2691.813225 0.8950 0.8950 0.8950 0.8948 0.8940
2697.796130 0.8940 0.8940 0.8940 0.8940 0.8940
2703.779035 0.8940 0.8938 0.8930 0.8930 0.8928
2709.761940 0.8920 0.8920 0.8918 0.8910 0.8907
2715.744845 0.8890 0.8890 0.8888 0.8880 0.8880
2721.727750 0.8880 0.8878 0.8870 0.8870 0.8870
2727.710655 0.8868 0.8858 0.8850 0.8847 0.8830
2733.693560 0.8828 0.8818 0.8808 0.8798 0.8790
2739.676465 0.8787 0.8768 0.8760 0.8758 0.8750
2745.659370 0.8748 0.8738 0.8728 0.8715 0.8688
2751.642275 0.8677 0.8655 0.8625 0.8595 0.8565
2757.625180 0.8534 0.8497 0.8472 0.8424 0.8385
2763.608085 0.8354 0.8312 0.8265 0.8232 0.8182
2769.590990 0.8135 0.8102 0.8052 0.8008 0.7995
2775.573895 0.7964 0.7922 0.7872 0.7824 0.7784
2781.556800 0.7742 0.7692 0.7635 0.7535 0.7433
2787.539705 0.7325 0.7231 0.7177 0.7135 0.6984
2793.522610 0.6883 0.6756 0.6541 0.6352 0.6185
2799.505515 0.6083 0.5956 0.5737 0.5521 0.5275
2805.488420 0.5068 0.4925 0.4731 0.4361 0.4039
2811.471325 0.3700 0.3341 0.3166 0.3084 0.3042
2817.454230 0.2992 0.2948 0.2940 0.2942 0.2958
2823.437135 0.3011 0.3078 0.3129 0.3205 0.3359
2829.420040 0.3476 0.3572 0.3652 0.3728 0.3782
2835.402945 0.3879 0.4042 0.4050 0.4050 0.4050
2841.385850 0.4050 0.4050 0.4050 0.4048 0.4035
2847.368755 0.4007 0.3987 0.3962 0.3915 0.3885
2853.351660 0.3855 0.3824 0.3779 0.3703 0.3596
2859.334565 0.3506 0.3413 0.3301 0.3183 0.3081
2865.317470 0.3021 0.2951 0.2835 0.2736 0.2648
2871.300375 0.2571 0.2512 0.2438 0.2265 0.2237
2877.283280 0.2217 0.2195 0.2165 0.2131 0.2071
2883.266185 0.2012 0.1962 0.1896 0.1746 0.1598
2889.249090 0.1453 0.1307 0.1287 0.1267 0.1250
2895.231995 0.1250 0.1250 0.1252 0.1260 0.1262
2901.214900 0.1276 0.1313 0.1335 0.1372 0.1457
2907.197805 0.1576 0.1767 0.2057 0.2214 0.2306
2913.180710 0.2395 0.2436 0.2525 0.2559 0.2625
2919.163615 0.2725 0.2819 0.2876 0.2918 0.2976
2925.146520 0.3068 0.3122 0.3199 0.3259 0.3321
2931.129425 0.3389 0.3452 0.3533 0.3613 0.3693
2937.112330 0.3776 0.3890 0.4066 0.4165 0.4268
2943.095235 0.4387 0.4500 0.4619 0.4681 0.4746
2949.078140 0.4814 0.5012 0.5091 0.5158 0.5209
2955.061045 0.5269 0.5338 0.5457 0.5567 0.5677
2961.043950 0.5787 0.5911 0.6097 0.6205 0.6304
2967.026855 0.6397 0.6505 0.6604 0.6696 0.6794
2973.009760 0.6900 0.7077 0.7185 0.7282 0.7364
2978.992665 0.7449 0.7508 0.7559 0.7619 0.7678
2984.975570 0.7728 0.7778 0.7829 0.7888 0.7933
2990.958475 0.7952 0.7969 0.8028 0.8083 0.8161
2996.941380 0.8225 0.8253 0.8275 0.8305 0.8336
3002.924285 0.8373 0.8396 0.8435 0.8465 0.8495
3008.907190 0.8523 0.8549 0.8602 0.8612 0.8622
3014.890095 0.8632 0.8640 0.8643 0.8662 0.8672
3020.873000 0.8680 0.8680 0.8680 0.8682 0.8690
3026.855905 0.8690 0.8690 0.8690 0.8690 0.8690
3032.838810 0.8692 0.8700 0.8700 0.8700 0.8703
3038.821715 0.8725 0.8753 0.8773 0.8792 0.8802
3044.804620 0.8812 0.8822 0.8833 0.8852 0.8862
3050.787525 0.8872 0.8882 0.8893 0.8912 0.8920
3056.770430 0.8922 0.8930 0.8932 0.8940 0.8942
3062.753335 0.8950 0.8953 0.8970 0.8972 0.8980
3068.736240 0.8982 0.8992 0.9000 0.9002 0.9010
3074.719145 0.9013 0.9030 0.9030 0.9032 0.9040
3080.702050 0.9040 0.9040 0.9042 0.9050 0.9050
3086.684955 0.9050 0.9052 0.9060 0.9060 0.9060
3092.667860 0.9060 0.9060 0.9060 0.9060 0.9060
3098.650765 0.9060 0.9060 0.9060 0.9060 0.9060
3104.633670 0.9060 0.9060 0.9060 0.9060 0.9060
3110.616575 0.9060 0.9060 0.9060 0.9060 0.9060
3116.599480 0.9060 0.9060 0.9060 0.9060 0.9060
3122.582385 0.9060 0.9060 0.9060 0.9060 0.9060
3128.565290 0.9060 0.9060 0.9060 0.9060 0.9058
3134.548195 0.9050 0.9050 0.9050 0.9050 0.9050
3140.531100 0.9050 0.9050 0.9048 0.9040 0.9038
3146.514005 0.9030 0.9030 0.9030 0.9030 0.9030
3152.496910 0.9030 0.9030 0.9030 0.9030 0.9027
3158.479815 0.9013 0.9030 0.9030 0.9030 0.9030
3164.462720 0.9032 0.9040 0.9040 0.9040 0.9040
3170.445625 0.9040 0.9042 0.9050 0.9050 0.9050
3176.428530 0.9050 0.9050 0.9050 0.9050 0.9050
3182.411435 0.9050 0.9050 0.9050 0.9050 0.9050
3188.394340 0.9050 0.9050 0.9052 0.9058 0.9050
3194.377245 0.9050 0.9050 0.9050 0.9048 0.9040
3200.360150 0.9040 0.9040 0.9040 0.9038 0.9030
3206.343055 0.9027 0.9010 0.9008 0.9000 0.9000
3212.325960 0.9000 0.8998 0.8990 0.8988 0.8980
3218.308865 0.8978 0.8970 0.8967 0.8950 0.8950
3224.291770 0.8950 0.8950 0.8948 0.8940 0.8940
3230.274675 0.8940 0.8940 0.8940 0.8940 0.8942
3236.257580 0.8950 0.8950 0.8953 0.8970 0.8972
3242.240485 0.8982 0.8992 0.9000 0.9000 0.9000
3248.223390 0.9000 0.9000 0.9000 0.9000 0.9000
3254.206295 0.9000 0.9000 0.9000 0.9000 0.9000
3260.189200 0.9000 0.9000 0.9000 0.9000 0.9000
3266.172105 0.9000 0.9000 0.9000 0.9000 0.9000
3272.155010 0.9000 0.9000 0.9000 0.9000 0.9000
3278.137915 0.9000 0.9000 0.9000 0.9000 0.9000
3284.120820 0.9000 0.9000 0.9000 0.9000 0.9000
3290.103725 0.9000 0.9000 0.9000 0.9000 0.9000
3296.086630 0.9000 0.8998 0.8990 0.8990 0.8990
3302.069535 0.8990 0.8990 0.8990 0.8990 0.8988
3308.052440 0.8980 0.8980 0.8980 0.8980 0.8980
3314.035345 0.8980 0.8980 0.8978 0.8967 0.8948
3320.018250 0.8940 0.8938 0.8928 0.8918 0.8910
3326.001155 0.8907 0.8888 0.8878 0.8870 0.8870
3331.984060 0.8870 0.8868 0.8860 0.8860 0.8860
3337.966965 0.8860 0.8858 0.8850 0.8850 0.8850
3343.949870 0.8850 0.8850 0.8850 0.8852 0.8860
3349.932775 0.8860 0.8862 0.8870 0.8870 0.8872
3355.915680 0.8880 0.8880 0.8880 0.8880 0.8880
3361.898585 0.8880 0.8880 0.8880 0.8880 0.8880
3367.881490 0.8880 0.8880 0.8880 0.8878 0.8870
3373.864395 0.8870 0.8868 0.8860 0.8860 0.8860
3379.847300 0.8858 0.8850 0.8850 0.8847 0.8830
3385.830205 0.8830 0.8828 0.8820 0.8818 0.8810
3391.813110 0.8810 0.8810 0.8807 0.8787 0.8770
3397.796015 0.8768 0.8758 0.8748 0.8740 0.8738
3403.778920 0.8728 0.8720 0.8720 0.8720 0.8717
3409.761825 0.8700 0.8698 0.8690 0.8688 0.8680
3415.744730 0.8680 0.8678 0.8670 0.8668 0.8660
3421.727635 0.8657 0.8640 0.8640 0.8640 0.8640
3427.710540 0.8640 0.8640 0.8640 0.8640 0.8640
3433.693445 0.8640 0.8640 0.8640 0.8640 0.8640
3439.676350 0.8640 0.8640 0.8640 0.8640 0.8640
3445.659255 0.8640 0.8643 0.8660 0.8660 0.8660
3451.642160 0.8660 0.8660 0.8662 0.8670 0.8670
3457.625065 0.8670 0.8670 0.8670 0.8672 0.8680
3463.607970 0.8680 0.8680 0.8680 0.8682 0.8690
3469.590875 0.8690 0.8690 0.8690 0.8692 0.8700
3475.573780 0.8700 0.8700 0.8700 0.8703 0.8720
3481.556685 0.8720 0.8720 0.8720 0.8722 0.8732
3487.539590 0.8740 0.8742 0.8750 0.8752 0.8762
3493.522495 0.8770 0.8773 0.8790 0.8792 0.8800
3499.505400 0.8802 0.8812 0.8820 0.8822 0.8830
3505.488305 0.8833 0.8850 0.8852 0.8862 0.8870
3511.471210 0.8872 0.8880 0.8882 0.8893 0.8912
3517.454115 0.8922 0.8932 0.8942 0.8953 0.8972
3523.437020 0.8983 0.9002 0.9013 0.9032 0.9042
3529.419925 0.9052 0.9062 0.9070 0.9073 0.9092
3535.402830 0.9100 0.9100 0.9102 0.9110 0.9110
3541.385735 0.9110 0.9110 0.9110 0.9110 0.9110
3547.368640 0.9112 0.9120 0.9120 0.9120 0.9120
3553.351545 0.9122 0.9133 0.9150 0.9152 0.9160
3559.334450 0.9162 0.9170 0.9172 0.9180 0.9182
3565.317355 0.9193 0.9212 0.9220 0.9222 0.9230
3571.300260 0.9230 0.9230 0.9230 0.9230 0.9230
3577.283165 0.9230 0.9230 0.9230 0.9232 0.9240
3583.266070 0.9240 0.9240 0.9240 0.9240 0.9240
3589.248975 0.9242 0.9250 0.9250 0.9253 0.9270
3595.231880 0.9272 0.9280 0.9282 0.9290 0.9292
3601.214785 0.9302 0.9310 0.9313 0.9330 0.9332
3607.197690 0.9340 0.9342 0.9352 0.9360 0.9360
3613.180595 0.9360 0.9360 0.9360 0.9362 0.9370
3619.163500 0.9370 0.9370 0.9370 0.9372 0.9380
3625.146405 0.9380 0.9380 0.9380 0.9380 0.9383
3631.129310 0.9400 0.9400 0.9400 0.9400 0.9402
3637.112215 0.9410 0.9410 0.9410 0.9410 0.9410
3643.095120 0.9412 0.9420 0.9420 0.9420 0.9420
3649.078025 0.9420 0.9420 0.9420 0.9420 0.9420
3655.060930 0.9420 0.9420 0.9420 0.9420 0.9420
3661.043835 0.9420 0.9420 0.9420 0.9420 0.9420
3667.026740 0.9420 0.9420 0.9420 0.9420 0.9420
3673.009645 0.9420 0.9420 0.9420 0.9420 0.9420
3678.992550 0.9420 0.9420 0.9420 0.9420 0.9420
3684.975455 0.9420 0.9420 0.9420 0.9420 0.9420
3690.958360 0.9420 0.9420 0.9420 0.9420 0.9420
3696.941265 0.9420 0.9420 0.9420 0.9418 0.9410
3702.924170 0.9410 0.9410 0.9410 0.9410 0.9410
3708.907075 0.9410 0.9410 0.9410 0.9410 0.9410
3714.889980 0.9410 0.9410 0.9410 0.9410 0.9410
3720.872885 0.9410 0.9410 0.9410 0.9410 0.9410
3726.855790 0.9410 0.9410 0.9410 0.9410 0.9410
3732.838695 0.9410 0.9410 0.9410 0.9410 0.9410
3738.821600 0.9410 0.9410 0.9410 0.9410 0.9410
3744.804505 0.9410 0.9410 0.9410 0.9410 0.9410
3750.787410 0.9410 0.9410 0.9410 0.9410 0.9410
3756.770315 0.9412 0.9420 0.9420 0.9420 0.9420
3762.753220 0.9420 0.9420 0.9420 0.9420 0.9420
3768.736125 0.9420 0.9422 0.9430 0.9430 0.9430
3774.719030 0.9430 0.9430 0.9430 0.9430 0.9430
3780.701935 0.9430 0.9430 0.9430 0.9430 0.9430
3786.684840 0.9430 0.9430 0.9432 0.9440 0.9440
3792.667745 0.9440 0.9440 0.9440 0.9440 0.9440
3798.650650 0.9440 0.9440 0.9440 0.9440 0.9440
3804.633555 0.9440 0.9438 0.9430 0.9430 0.9430
3810.616460 0.9430 0.9428 0.9420 0.9423 0.9438
3816.599365 0.9430 0.9430 0.9430 0.9430 0.9428
3822.582270 0.9420
##END=
