##TITLE=SILVER BROMATE
$$ C.P.
##JCAMP-DX=4.24
##DATA TYPE=INFRARED SPECTRUM
##CLASS=COBLENTZ
##ORIGIN=MELLON INSTITUTE
##OWNER=COBLENTZ SOCIETY
Collection (C) 2018 copyright by the U.S. Secretary of Commerce
on behalf of the United States of America. All rights reserved.
##DATE=Not specified, most likely prior to 1970
##MOLFORM=Ag Br O3
##SOURCE REFERENCE=COBLENTZ NO. 521
##$NIST ID=B6000521
##$NIST SOURCE=COBLENTZ
##$NIST IMAGE=cob521
##SPECTROMETER/DATA SYSTEM=Not specified, most likely a prism, grating, or hybrid spectrometer.
##STATE=SOLID (NUJOL MULL)
##PATH LENGTH=
$$SPECTRAL CONTAMINATION DUE TO OIL AROUND 2900, 1450, 1380 CM^-^1
##SAMPLING PROCEDURE=TRANSMISSION
##RESOLUTION=4
##DATA PROCESSING=DIGITIZED BY NIST FROM HARD COPY
##XUNITS=MICROMETERS
##YUNITS=TRANSMITTANCE
##XFACTOR=1.000000
##YFACTOR=1
##DELTAX=000.006824
##FIRSTX=2.031
##LASTX=15.9861
##FIRSTY=0.748
##MAXX=15.9861
##MINX=2.031
##MAXY=0.977
##MINY=0.084
##NPOINTS=2046
##XYDATA=(X++(Y..Y))
2.031000 0.7480 0.7480 0.7500 0.7500 0.7520
2.065136 0.7520 0.7520 0.7530 0.7530 0.7550
2.099000 0.7550 0.7570 0.7590 0.7600 0.7600
2.133136 0.7600 0.7620 0.7640 0.7640 0.7640
2.167000 0.7640 0.7640 0.7650 0.7650 0.7650
2.201136 0.7650 0.7670 0.7670 0.7650 0.7650
2.236000 0.7650 0.7670 0.7670 0.7670 0.7670
2.270136 0.7670 0.7670 0.7670 0.7690 0.7690
2.304000 0.7710 0.7710 0.7710 0.7710 0.7710
2.338136 0.7720 0.7740 0.7740 0.7740 0.7740
2.372000 0.7760 0.7760 0.7770 0.7790 0.7810
2.406136 0.7810 0.7830 0.7830 0.7830 0.7840
2.440000 0.7860 0.7860 0.7880 0.7900 0.7900
2.474136 0.7900 0.7910 0.7930 0.7930 0.7950
2.509000 0.7950 0.7960 0.7980 0.7980 0.8000
2.543136 0.8000 0.8000 0.8000 0.8000 0.8000
2.577000 0.8000 0.8020 0.8020 0.8020 0.8030
2.611136 0.8050 0.8030 0.8030 0.8030 0.8030
2.645000 0.8030 0.8050 0.8050 0.8050 0.8050
2.679136 0.8050 0.8050 0.8050 0.8070 0.8070
2.713000 0.8070 0.8070 0.8070 0.8070 0.8070
2.747136 0.8050 0.8050 0.8030 0.8030 0.8030
2.782000 0.8030 0.8030 0.8030 0.8030 0.8030
2.816136 0.8020 0.8020 0.8020 0.8020 0.8020
2.850000 0.8020 0.8020 0.8020 0.8020 0.8020
2.884136 0.8020 0.8020 0.8020 0.8020 0.8020
2.918000 0.8020 0.8030 0.8030 0.8030 0.8030
2.952136 0.8030 0.8030 0.8030 0.8030 0.8030
2.986000 0.8030 0.8020 0.8020 0.8020 0.8020
3.020136 0.8020 0.8020 0.8020 0.8030 0.8030
3.055000 0.8030 0.8030 0.8030 0.8050 0.8050
3.089136 0.8050 0.8050 0.8050 0.8070 0.8070
3.123000 0.8080 0.8080 0.8080 0.8100 0.8100
3.157136 0.8120 0.8120 0.8120 0.8140 0.8140
3.191000 0.8150 0.8150 0.8150 0.8150 0.8150
3.225136 0.8150 0.8150 0.8150 0.8150 0.8140
3.259000 0.8140 0.8120 0.8050 0.7960 0.7840
3.293136 0.7760 0.7590 0.7460 0.7260 0.6470
3.328000 0.6160 0.5040 0.4300 0.4020 0.3760
3.362136 0.3280 0.3020 0.2830 0.3020 0.3420
3.396000 0.4320 0.4620 0.5380 0.5420 0.5400
3.430136 0.5300 0.5140 0.4970 0.4950 0.4920
3.464000 0.4950 0.5180 0.5520 0.6240 0.6780
3.498136 0.7340 0.7690 0.8080 0.8240 0.8290
3.532000 0.8380 0.8410 0.8450 0.8500 0.8510
3.566136 0.8530 0.8550 0.8550 0.8570 0.8580
3.600000 0.8600 0.8620 0.8620 0.8620 0.8640
3.634136 0.8640 0.8650 0.8650 0.8650 0.8650
3.669000 0.8670 0.8670 0.8690 0.8690 0.8690
3.703136 0.8700 0.8700 0.8700 0.8720 0.8700
3.737000 0.8700 0.8700 0.8700 0.8720 0.8720
3.771136 0.8720 0.8720 0.8720 0.8720 0.8720
3.805000 0.8740 0.8740 0.8740 0.8740 0.8740
3.839136 0.8740 0.8740 0.8740 0.8740 0.8740
3.873000 0.8740 0.8760 0.8760 0.8760 0.8760
3.907136 0.8760 0.8760 0.8770 0.8770 0.8770
3.942000 0.8770 0.8770 0.8770 0.8790 0.8790
3.976136 0.8790 0.8790 0.8790 0.8790 0.8790
4.010000 0.8790 0.8810 0.8810 0.8810 0.8810
4.044136 0.8810 0.8810 0.8810 0.8810 0.8810
4.078000 0.8810 0.8810 0.8810 0.8810 0.8810
4.112136 0.8810 0.8810 0.8810 0.8810 0.8810
4.146000 0.8810 0.8810 0.8810 0.8810 0.8810
4.180136 0.8810 0.8810 0.8810 0.8810 0.8810
4.215000 0.8810 0.8810 0.8810 0.8810 0.8810
4.249136 0.8790 0.8790 0.8790 0.8790 0.8770
4.283000 0.8770 0.8770 0.8760 0.8760 0.8760
4.317136 0.8760 0.8740 0.8740 0.8740 0.8740
4.351000 0.8740 0.8720 0.8720 0.8720 0.8700
4.385136 0.8700 0.8700 0.8700 0.8700 0.8700
4.419000 0.8700 0.8700 0.8700 0.8700 0.8690
4.453136 0.8700 0.8690 0.8690 0.8690 0.8700
4.488000 0.8690 0.8700 0.8690 0.8690 0.8690
4.522136 0.8690 0.8690 0.8670 0.8670 0.8670
4.556000 0.8670 0.8670 0.8670 0.8670 0.8670
4.590136 0.8670 0.8670 0.8670 0.8690 0.8670
4.624000 0.8670 0.8670 0.8670 0.8670 0.8670
4.658136 0.8670 0.8670 0.8670 0.8690 0.8670
4.692000 0.8670 0.8690 0.8690 0.8700 0.8700
4.726136 0.8700 0.8700 0.8700 0.8700 0.8700
4.761000 0.8720 0.8720 0.8720 0.8720 0.8720
4.795136 0.8740 0.8740 0.8740 0.8760 0.8760
4.829000 0.8760 0.8760 0.8760 0.8760 0.8760
4.863136 0.8770 0.8770 0.8770 0.8770 0.8770
4.897000 0.8770 0.8790 0.8810 0.8810 0.8810
4.931136 0.8810 0.8810 0.8810 0.8810 0.8820
4.965000 0.8820 0.8820 0.8820 0.8820 0.8820
4.999136 0.8820 0.8820 0.8840 0.8840 0.8840
5.033000 0.8840 0.8840 0.8840 0.8860 0.8860
5.067136 0.8860 0.8860 0.8860 0.8860 0.8860
5.102000 0.8880 0.8880 0.8880 0.8890 0.8890
5.136136 0.8890 0.8890 0.8890 0.8890 0.8890
5.170000 0.8890 0.8910 0.8910 0.8910 0.8890
5.204136 0.8910 0.8910 0.8910 0.8910 0.8910
5.238000 0.8910 0.8910 0.8910 0.8930 0.8930
5.272136 0.8930 0.8930 0.8950 0.8950 0.8950
5.306000 0.8950 0.8950 0.8950 0.8960 0.8960
5.340136 0.8960 0.8960 0.8980 0.8980 0.8980
5.375000 0.8980 0.9000 0.9000 0.9000 0.9000
5.409136 0.9000 0.9000 0.9000 0.9000 0.9000
5.443000 0.9000 0.9000 0.9000 0.9000 0.9000
5.477136 0.9000 0.9000 0.9010 0.9010 0.9010
5.511000 0.9030 0.9030 0.9030 0.9030 0.9050
5.545136 0.9050 0.9050 0.9080 0.9100 0.9100
5.579000 0.9100 0.9100 0.9120 0.9120 0.9120
5.613136 0.9120 0.9120 0.9120 0.9130 0.9130
5.648000 0.9130 0.9130 0.9150 0.9150 0.9120
5.682136 0.9120 0.9120 0.9120 0.9100 0.9120
5.716000 0.9120 0.9120 0.9120 0.9130 0.9130
5.750136 0.9150 0.9150 0.9150 0.9150 0.9150
5.784000 0.9150 0.9150 0.9150 0.9170 0.9190
5.818136 0.9190 0.9200 0.9200 0.9200 0.9220
5.852000 0.9220 0.9240 0.9240 0.9250 0.9250
5.886136 0.9250 0.9270 0.9270 0.9270 0.9270
5.921000 0.9290 0.9290 0.9310 0.9310 0.9310
5.955136 0.9320 0.9320 0.9340 0.9340 0.9340
5.989000 0.9360 0.9360 0.9380 0.9380 0.9380
6.023136 0.9380 0.9380 0.9360 0.9360 0.9340
6.057000 0.9340 0.9320 0.9340 0.9340 0.9340
6.091136 0.9340 0.9340 0.9340 0.9340 0.9340
6.125000 0.9320 0.9320 0.9320 0.9320 0.9320
6.159136 0.9320 0.9320 0.9340 0.9340 0.9340
6.194000 0.9340 0.9340 0.9340 0.9340 0.9340
6.228136 0.9340 0.9340 0.9340 0.9340 0.9360
6.262000 0.9360 0.9360 0.9340 0.9340 0.9340
6.296136 0.9340 0.9340 0.9340 0.9360 0.9360
6.330000 0.9340 0.9340 0.9340 0.9340 0.9340
6.364136 0.9340 0.9340 0.9340 0.9340 0.9320
6.398000 0.9320 0.9320 0.9310 0.9310 0.9310
6.432136 0.9310 0.9310 0.9310 0.9310 0.9290
6.467000 0.9290 0.9290 0.9290 0.9290 0.9290
6.501136 0.9270 0.9250 0.9250 0.9250 0.9250
6.535000 0.9250 0.9250 0.9250 0.9250 0.9250
6.569136 0.9250 0.9250 0.9250 0.9250 0.9250
6.603000 0.9250 0.9250 0.9250 0.9270 0.9270
6.637136 0.9270 0.9270 0.9270 0.9270 0.9270
6.671000 0.9250 0.9250 0.9240 0.9220 0.9220
6.705136 0.9220 0.9220 0.9200 0.9190 0.9170
6.739000 0.9150 0.9120 0.9070 0.8950 0.8860
6.773136 0.8740 0.8410 0.8240 0.8080 0.7980
6.808000 0.7840 0.7670 0.7600 0.7570 0.7530
6.842136 0.7520 0.7460 0.7450 0.7460 0.7570
6.876000 0.7650 0.7830 0.7910 0.8000 0.8050
6.910136 0.8170 0.8200 0.8260 0.8330 0.8360
6.944000 0.8390 0.8430 0.8450 0.8500 0.8510
6.978136 0.8550 0.8620 0.8670 0.8760 0.8810
7.012000 0.8840 0.8820 0.8820 0.8770 0.8740
7.046136 0.8670 0.8620 0.8580 0.8570 0.8510
7.081000 0.8500 0.8450 0.8410 0.8340 0.8340
7.115136 0.8310 0.8270 0.8240 0.8200 0.8150
7.149000 0.8100 0.8050 0.8000 0.7900 0.7860
7.183136 0.7790 0.7760 0.7590 0.7530 0.7450
7.217000 0.7410 0.7400 0.7360 0.7360 0.7380
7.251136 0.7400 0.7520 0.7690 0.7860 0.7980
7.285000 0.8070 0.8170 0.8200 0.8220 0.8290
7.319136 0.8330 0.8390 0.8500 0.8570 0.8620
7.354000 0.8650 0.8690 0.8760 0.8790 0.8860
7.388136 0.8930 0.9000 0.9010 0.9050 0.9070
7.422000 0.9070 0.9070 0.9080 0.9080 0.9100
7.456136 0.9100 0.9120 0.9120 0.9130 0.9150
7.490000 0.9170 0.9170 0.9190 0.9200 0.9200
7.524136 0.9220 0.9240 0.9240 0.9250 0.9270
7.558000 0.9290 0.9290 0.9310 0.9310 0.9310
7.592136 0.9320 0.9320 0.9320 0.9320 0.9320
7.627000 0.9340 0.9340 0.9340 0.9340 0.9340
7.661136 0.9340 0.9340 0.9360 0.9360 0.9360
7.695000 0.9380 0.9380 0.9360 0.9360 0.9360
7.729136 0.9380 0.9380 0.9380 0.9390 0.9410
7.763000 0.9410 0.9410 0.9430 0.9430 0.9430
7.797136 0.9440 0.9440 0.9440 0.9440 0.9440
7.831000 0.9440 0.9460 0.9460 0.9440 0.9440
7.865136 0.9440 0.9440 0.9440 0.9440 0.9440
7.900000 0.9440 0.9440 0.9440 0.9440 0.9440
7.934136 0.9440 0.9440 0.9440 0.9440 0.9440
7.968000 0.9440 0.9440 0.9440 0.9440 0.9440
8.002136 0.9440 0.9440 0.9460 0.9460 0.9460
8.036000 0.9460 0.9460 0.9460 0.9460 0.9460
8.070136 0.9460 0.9460 0.9460 0.9460 0.9460
8.104000 0.9460 0.9460 0.9460 0.9460 0.9460
8.138136 0.9460 0.9460 0.9460 0.9460 0.9460
8.172000 0.9460 0.9460 0.9460 0.9460 0.9460
8.206136 0.9460 0.9460 0.9460 0.9460 0.9460
8.241000 0.9460 0.9440 0.9440 0.9440 0.9440
8.275136 0.9440 0.9440 0.9440 0.9440 0.9440
8.309000 0.9440 0.9440 0.9440 0.9440 0.9460
8.343136 0.9440 0.9440 0.9440 0.9440 0.9440
8.377000 0.9440 0.9440 0.9440 0.9440 0.9460
8.411136 0.9460 0.9460 0.9460 0.9460 0.9460
8.445000 0.9460 0.9460 0.9460 0.9460 0.9460
8.479136 0.9460 0.9460 0.9460 0.9460 0.9460
8.514000 0.9460 0.9460 0.9460 0.9460 0.9460
8.548136 0.9460 0.9460 0.9460 0.9460 0.9460
8.582000 0.9460 0.9480 0.9460 0.9460 0.9460
8.616136 0.9460 0.9460 0.9460 0.9440 0.9440
8.650000 0.9430 0.9430 0.9430 0.9430 0.9430
8.684136 0.9430 0.9430 0.9430 0.9410 0.9410
8.718000 0.9410 0.9410 0.9410 0.9390 0.9390
8.752136 0.9390 0.9380 0.9380 0.9380 0.9380
8.787000 0.9380 0.9380 0.9380 0.9380 0.9380
8.821136 0.9380 0.9380 0.9380 0.9380 0.9390
8.855000 0.9380 0.9380 0.9380 0.9380 0.9380
8.889136 0.9380 0.9380 0.9380 0.9380 0.9380
8.923000 0.9380 0.9380 0.9380 0.9390 0.9390
8.957136 0.9390 0.9390 0.9390 0.9390 0.9390
8.991000 0.9390 0.9390 0.9410 0.9390 0.9390
9.025136 0.9390 0.9390 0.9390 0.9390 0.9390
9.060000 0.9390 0.9390 0.9390 0.9390 0.9410
9.094136 0.9390 0.9390 0.9390 0.9390 0.9410
9.128000 0.9410 0.9410 0.9410 0.9410 0.9410
9.162136 0.9410 0.9430 0.9410 0.9410 0.9410
9.196000 0.9410 0.9410 0.9390 0.9410 0.9390
9.230136 0.9390 0.9390 0.9390 0.9390 0.9390
9.264000 0.9390 0.9390 0.9390 0.9390 0.9390
9.298136 0.9390 0.9390 0.9390 0.9390 0.9390
9.333000 0.9410 0.9410 0.9410 0.9410 0.9410
9.367136 0.9410 0.9410 0.9410 0.9430 0.9430
9.401000 0.9430 0.9430 0.9430 0.9430 0.9410
9.435136 0.9410 0.9410 0.9410 0.9410 0.9410
9.469000 0.9410 0.9410 0.9410 0.9410 0.9410
9.503136 0.9410 0.9410 0.9410 0.9430 0.9410
9.537000 0.9410 0.9410 0.9410 0.9410 0.9410
9.571136 0.9430 0.9430 0.9430 0.9430 0.9430
9.605000 0.9430 0.9430 0.9430 0.9430 0.9440
9.639136 0.9430 0.9430 0.9430 0.9430 0.9430
9.674000 0.9430 0.9430 0.9430 0.9430 0.9430
9.708136 0.9430 0.9440 0.9440 0.9440 0.9440
9.742000 0.9440 0.9440 0.9440 0.9440 0.9440
9.776136 0.9440 0.9440 0.9440 0.9440 0.9440
9.810000 0.9440 0.9440 0.9440 0.9440 0.9440
9.844136 0.9440 0.9440 0.9460 0.9460 0.9460
9.878000 0.9460 0.9460 0.9460 0.9460 0.9460
9.912136 0.9460 0.9460 0.9460 0.9460 0.9460
9.947000 0.9460 0.9440 0.9460 0.9440 0.9440
9.981136 0.9440 0.9440 0.9440 0.9440 0.9440
10.015000 0.9440 0.9440 0.9440 0.9440 0.9440
10.049136 0.9440 0.9440 0.9430 0.9430 0.9430
10.083000 0.9430 0.9430 0.9430 0.9430 0.9430
10.117136 0.9430 0.9430 0.9430 0.9430 0.9430
10.151000 0.9430 0.9430 0.9430 0.9440 0.9430
10.185136 0.9430 0.9430 0.9430 0.9430 0.9440
10.220000 0.9440 0.9440 0.9430 0.9430 0.9430
10.254136 0.9440 0.9440 0.9440 0.9440 0.9440
10.288000 0.9440 0.9440 0.9440 0.9440 0.9460
10.322136 0.9460 0.9460 0.9460 0.9460 0.9440
10.356000 0.9440 0.9440 0.9440 0.9440 0.9440
10.390136 0.9440 0.9460 0.9440 0.9440 0.9440
10.424000 0.9440 0.9440 0.9440 0.9440 0.9440
10.458136 0.9440 0.9440 0.9440 0.9440 0.9460
10.493000 0.9460 0.9460 0.9460 0.9460 0.9480
10.527136 0.9480 0.9500 0.9500 0.9500 0.9500
10.561000 0.9500 0.9510 0.9510 0.9510 0.9530
10.595136 0.9550 0.9550 0.9550 0.9550 0.9550
10.629000 0.9550 0.9550 0.9560 0.9560 0.9560
10.663136 0.9560 0.9560 0.9560 0.9560 0.9560
10.697000 0.9560 0.9560 0.9560 0.9560 0.9560
10.731136 0.9560 0.9580 0.9580 0.9580 0.9580
10.766000 0.9580 0.9580 0.9600 0.9600 0.9600
10.800136 0.9600 0.9600 0.9600 0.9600 0.9600
10.834000 0.9600 0.9600 0.9600 0.9600 0.9600
10.868136 0.9600 0.9600 0.9600 0.9600 0.9600
10.902000 0.9600 0.9600 0.9600 0.9620 0.9620
10.936136 0.9620 0.9620 0.9620 0.9620 0.9620
10.970000 0.9620 0.9620 0.9620 0.9620 0.9620
11.004136 0.9620 0.9630 0.9630 0.9620 0.9620
11.038000 0.9620 0.9620 0.9620 0.9620 0.9620
11.072136 0.9620 0.9630 0.9630 0.9630 0.9630
11.107000 0.9630 0.9630 0.9630 0.9630 0.9650
11.141136 0.9650 0.9650 0.9650 0.9650 0.9650
11.175000 0.9650 0.9670 0.9670 0.9670 0.9670
11.209136 0.9670 0.9670 0.9670 0.9670 0.9670
11.243000 0.9670 0.9670 0.9670 0.9670 0.9690
11.277136 0.9670 0.9670 0.9690 0.9690 0.9690
11.311000 0.9690 0.9690 0.9690 0.9690 0.9690
11.345136 0.9700 0.9700 0.9700 0.9700 0.9700
11.380000 0.9700 0.9700 0.9700 0.9720 0.9720
11.414136 0.9720 0.9720 0.9720 0.9720 0.9720
11.448000 0.9720 0.9740 0.9740 0.9740 0.9750
11.482136 0.9750 0.9750 0.9750 0.9750 0.9750
11.516000 0.9750 0.9770 0.9770 0.9770 0.9770
11.550136 0.9770 0.9770 0.9770 0.9770 0.9770
11.584000 0.9770 0.9770 0.9770 0.9750 0.9750
11.618136 0.9750 0.9750 0.9740 0.9740 0.9740
11.653000 0.9720 0.9720 0.9700 0.9700 0.9690
11.687136 0.9670 0.9670 0.9630 0.9630 0.9620
11.721000 0.9620 0.9620 0.9600 0.9580 0.9580
11.755136 0.9560 0.9560 0.9560 0.9550 0.9530
11.789000 0.9510 0.9480 0.9440 0.9430 0.9410
11.823136 0.9380 0.9340 0.9320 0.9290 0.9240
11.857000 0.9190 0.9170 0.9120 0.9070 0.9010
11.891136 0.8930 0.8840 0.8760 0.8670 0.8580
11.926000 0.8530 0.8430 0.8330 0.8200 0.8150
11.960136 0.8030 0.8020 0.7930 0.7880 0.7790
11.994000 0.7690 0.7500 0.7380 0.7260 0.7120
12.028136 0.7020 0.6860 0.6710 0.6590 0.6520
12.062000 0.6400 0.6290 0.6170 0.6090 0.6040
12.096136 0.6000 0.5860 0.5810 0.5710 0.5590
12.130000 0.5540 0.5490 0.5400 0.5310 0.5260
12.164136 0.5210 0.5160 0.5090 0.5060 0.5000
12.199000 0.4990 0.4920 0.4870 0.4810 0.4750
12.233136 0.4690 0.4610 0.4540 0.4450 0.4350
12.267000 0.4260 0.4180 0.4070 0.4020 0.3880
12.301136 0.3780 0.3640 0.3560 0.3470 0.3370
12.335000 0.3280 0.3200 0.3060 0.2970 0.2890
12.369136 0.2800 0.2750 0.2680 0.2610 0.2590
12.403000 0.2530 0.2400 0.2270 0.2180 0.2060
12.437136 0.1910 0.1770 0.1650 0.1560 0.1510
12.471000 0.1390 0.1300 0.1220 0.1170 0.1080
12.505136 0.1030 0.0980 0.0920 0.0910 0.0890
12.540000 0.0870 0.0860 0.0860 0.0840 0.0840
12.574136 0.0860 0.0910 0.0910 0.0990 0.1110
12.608000 0.1270 0.1390 0.1580 0.1700 0.1850
12.642136 0.1970 0.2090 0.2230 0.2270 0.2350
12.676000 0.2440 0.2540 0.2630 0.2710 0.2870
12.710136 0.2920 0.3010 0.3060 0.3090 0.3160
12.744000 0.3210 0.3250 0.3300 0.3350 0.3350
12.778136 0.3370 0.3400 0.3420 0.3450 0.3450
12.813000 0.3470 0.3470 0.3470 0.3470 0.3470
12.847136 0.3470 0.3470 0.3470 0.3470 0.3470
12.881000 0.3450 0.3440 0.3420 0.3400 0.3370
12.915136 0.3370 0.3350 0.3320 0.3300 0.3270
12.949000 0.3270 0.3250 0.3230 0.3210 0.3200
12.983136 0.3160 0.3140 0.3130 0.3130 0.3110
13.017000 0.3090 0.3080 0.3060 0.3040 0.3020
13.051136 0.3010 0.3010 0.3010 0.3010 0.3020
13.086000 0.3040 0.3040 0.3080 0.3110 0.3160
13.120136 0.3230 0.3300 0.3350 0.3400 0.3510
13.154000 0.3580 0.3630 0.3660 0.3730 0.3780
13.188136 0.3820 0.4010 0.4130 0.4280 0.4450
13.222000 0.4560 0.4660 0.4880 0.5040 0.5210
13.256136 0.5420 0.5520 0.5610 0.5740 0.5830
13.290000 0.5920 0.6040 0.6140 0.6210 0.6310
13.324136 0.6410 0.6520 0.6620 0.6740 0.6810
13.359000 0.6880 0.6950 0.7030 0.7090 0.7140
13.393136 0.7210 0.7260 0.7330 0.7380 0.7430
13.427000 0.7460 0.7550 0.7620 0.7670 0.7720
13.461136 0.7770 0.7810 0.7840 0.7860 0.7900
13.495000 0.7930 0.7960 0.8020 0.8050 0.8070
13.529136 0.8070 0.8080 0.8100 0.8150 0.8170
13.563000 0.8190 0.8220 0.8240 0.8240 0.8270
13.597136 0.8290 0.8330 0.8340 0.8340 0.8360
13.632000 0.8380 0.8390 0.8390 0.8410 0.8430
13.666136 0.8430 0.8430 0.8450 0.8450 0.8460
13.700000 0.8480 0.8480 0.8500 0.8500 0.8510
13.734136 0.8510 0.8530 0.8530 0.8530 0.8550
13.768000 0.8550 0.8550 0.8570 0.8570 0.8570
13.802136 0.8570 0.8570 0.8570 0.8570 0.8580
13.836000 0.8580 0.8580 0.8600 0.8600 0.8600
13.870136 0.8620 0.8620 0.8620 0.8640 0.8640
13.904000 0.8640 0.8640 0.8650 0.8650 0.8650
13.938136 0.8670 0.8670 0.8670 0.8670 0.8670
13.973000 0.8670 0.8670 0.8670 0.8690 0.8690
14.007136 0.8670 0.8670 0.8670 0.8670 0.8670
14.041000 0.8670 0.8670 0.8670 0.8670 0.8670
14.075136 0.8670 0.8670 0.8670 0.8690 0.8670
14.109000 0.8670 0.8670 0.8670 0.8670 0.8670
14.143136 0.8670 0.8670 0.8650 0.8650 0.8650
14.177000 0.8640 0.8640 0.8640 0.8620 0.8600
14.211136 0.8600 0.8580 0.8580 0.8570 0.8570
14.246000 0.8550 0.8550 0.8550 0.8530 0.8510
14.280136 0.8510 0.8500 0.8500 0.8480 0.8480
14.314000 0.8460 0.8450 0.8430 0.8410 0.8410
14.348136 0.8390 0.8390 0.8390 0.8380 0.8380
14.382000 0.8360 0.8360 0.8340 0.8330 0.8310
14.416136 0.8290 0.8290 0.8270 0.8260 0.8260
14.450000 0.8240 0.8220 0.8220 0.8200 0.8190
14.484136 0.8190 0.8170 0.8170 0.8150 0.8140
14.519000 0.8100 0.8100 0.8080 0.8080 0.8070
14.553136 0.8070 0.8050 0.8050 0.8030 0.8030
14.587000 0.8030 0.8020 0.7980 0.7980 0.7960
14.621136 0.7930 0.7930 0.7910 0.7910 0.7900
14.655000 0.7880 0.7860 0.7840 0.7840 0.7830
14.689136 0.7810 0.7810 0.7790 0.7790 0.7770
14.723000 0.7760 0.7760 0.7720 0.7720 0.7720
14.757136 0.7710 0.7710 0.7690 0.7670 0.7650
14.792000 0.7640 0.7620 0.7620 0.7600 0.7600
14.826136 0.7590 0.7570 0.7550 0.7550 0.7530
14.860000 0.7520 0.7500 0.7480 0.7460 0.7450
14.894136 0.7430 0.7430 0.7410 0.7400 0.7380
14.928000 0.7360 0.7340 0.7330 0.7310 0.7310
14.962136 0.7290 0.7260 0.7260 0.7260 0.7240
14.996000 0.7220 0.7210 0.7190 0.7170 0.7160
15.030136 0.7160 0.7140 0.7120 0.7120 0.7100
15.065000 0.7090 0.7050 0.7050 0.7050 0.7030
15.099136 0.7030 0.7020 0.7020 0.7000 0.6980
15.133000 0.6970 0.6970 0.6950 0.6930 0.6930
15.167136 0.6930 0.6910 0.6900 0.6880 0.6830
15.201000 0.6810 0.6810 0.6790 0.6790 0.6780
15.235136 0.6760 0.6760 0.6760 0.6740 0.6720
15.269000 0.6720 0.6710 0.6710 0.6710 0.6690
15.303136 0.6670 0.6660 0.6660 0.6640 0.6640
15.337000 0.6620 0.6620 0.6620 0.6600 0.6590
15.371136 0.6590 0.6590 0.6570 0.6550 0.6540
15.406000 0.6520 0.6520 0.6520 0.6500 0.6480
15.440136 0.6470 0.6470 0.6450 0.6430 0.6430
15.474000 0.6410 0.6410 0.6400 0.6400 0.6380
15.508136 0.6360 0.6360 0.6350 0.6330 0.6310
15.542000 0.6310 0.6290 0.6280 0.6280 0.6260
15.576136 0.6240 0.6240 0.6230 0.6210 0.6210
15.610000 0.6210 0.6190 0.6170 0.6160 0.6160
15.644136 0.6140 0.6120 0.6120 0.6110 0.6110
15.679000 0.6110 0.6070 0.6070 0.6050 0.6040
15.713136 0.6040 0.6020 0.6020 0.6020 0.6020
15.747000 0.6000 0.6000 0.5980 0.5970 0.5970
15.781136 0.5950 0.5950 0.5950 0.5950 0.5930
15.815000 0.5930 0.5920 0.5920 0.5920 0.5920
15.849136 0.5920 0.5900 0.5900 0.5900 0.5900
15.883000 0.5880 0.5880 0.5880 0.5880 0.5880
15.917136 0.5880 0.5860 0.5860 0.5860 0.5860
15.952000 0.5850 0.5850 0.5850 0.5850 0.5850
15.986136 0.5850
##END=
