##TITLE=P-PHENYLAZO CARBANILIC ACID, 4-TERPINENOL ESTER
##JCAMP-DX=4.24
##DATA TYPE=INFRARED SPECTRUM
##CLASS=COBLENTZ
##ORIGIN=CITRUS EXPERIMENT STATION, UNIVERSITY OF FLORIDA (G. EDWARDS)
##OWNER=COBLENTZ SOCIETY
Collection (C) 2018 copyright by the U.S. Secretary of Commerce
on behalf of the United States of America. All rights reserved.
##DATE=Not specified, most likely prior to 1970
##NAMES=6-isopropyl-3-methyl-3-cyclohexen-1-yl 4-(phenyldiazenyl)phenylcarbamate
##MOLFORM=C23 H27 N3 O2
##MP=146-148 C
##SOURCE REFERENCE=COBLENTZ NO. 2472
##$NIST ID=B6002472
##$NIST SOURCE=COBLENTZ
##$NIST IMAGE=cob2472
##SPECTROMETER/DATA SYSTEM=Not specified, most likely a grating spectrometer.
##STATE=SOLID (1.5 mg / 100 mg KBr)
##SAMPLING PROCEDURE=TRANSMISSION
##RESOLUTION=4
##DATA PROCESSING=DIGITIZED BY NIST FROM HARD COPY
##XUNITS=MICROMETERS
##YUNITS=TRANSMITTANCE
##XFACTOR=1.000000
##YFACTOR=1
##DELTAX=000.006645
##FIRSTX=2.027
##LASTX=15.0162
##FIRSTY=0.914
##MAXX=15.0162
##MINX=2.027
##MAXY=0.97
##MINY=0.354
##NPOINTS=1956
##XYDATA=(X++(Y..Y))
2.027000 0.9140 0.9140 0.9140 0.9140 0.9140
2.060240 0.9140 0.9140 0.9140 0.9160 0.9170
2.093000 0.9170 0.9180 0.9180 0.9200 0.9200
2.126240 0.9210 0.9210 0.9210 0.9210 0.9210
2.159000 0.9210 0.9210 0.9210 0.9220 0.9220
2.192240 0.9220 0.9220 0.9220 0.9220 0.9220
2.226000 0.9220 0.9220 0.9220 0.9220 0.9240
2.259240 0.9240 0.9240 0.9240 0.9250 0.9250
2.292000 0.9250 0.9250 0.9250 0.9280 0.9280
2.325240 0.9280 0.9280 0.9290 0.9290 0.9290
2.359000 0.9290 0.9300 0.9300 0.9290 0.9290
2.392240 0.9290 0.9290 0.9290 0.9290 0.9290
2.425000 0.9290 0.9290 0.9300 0.9300 0.9300
2.458240 0.9300 0.9300 0.9300 0.9300 0.9300
2.492000 0.9320 0.9330 0.9370 0.9400 0.9410
2.525240 0.9420 0.9420 0.9420 0.9420 0.9420
2.558000 0.9420 0.9420 0.9420 0.9420 0.9420
2.591240 0.9410 0.9410 0.9400 0.9400 0.9380
2.625000 0.9380 0.9380 0.9380 0.9380 0.9380
2.658240 0.9380 0.9380 0.9380 0.9380 0.9380
2.691000 0.9380 0.9380 0.9370 0.9370 0.9360
2.724240 0.9340 0.9340 0.9330 0.9330 0.9320
2.757000 0.9300 0.9300 0.9300 0.9300 0.9300
2.790240 0.9300 0.9320 0.9320 0.9320 0.9320
2.824000 0.9320 0.9300 0.9300 0.9290 0.9290
2.857240 0.9290 0.9240 0.9180 0.9060 0.8960
2.890000 0.8460 0.8170 0.8160 0.8170 0.8370
2.923240 0.8640 0.8890 0.9000 0.9010 0.9120
2.957000 0.9140 0.9200 0.9200 0.9210 0.9210
2.990240 0.9200 0.9200 0.9210 0.9280 0.9300
3.023000 0.9330 0.9340 0.9360 0.9380 0.9400
3.056240 0.9410 0.9410 0.9420 0.9420 0.9440
3.090000 0.9440 0.9440 0.9450 0.9450 0.9460
3.123240 0.9460 0.9460 0.9480 0.9480 0.9480
3.156000 0.9480 0.9480 0.9460 0.9450 0.9440
3.189240 0.9420 0.9410 0.9400 0.9380 0.9370
3.223000 0.9340 0.9290 0.9280 0.9260 0.9260
3.256240 0.9250 0.9240 0.9240 0.9220 0.9220
3.289000 0.9200 0.9170 0.9160 0.9120 0.8610
3.322240 0.8210 0.7620 0.7610 0.7640 0.7880
3.355000 0.7880 0.7740 0.7730 0.7720 0.7720
3.388240 0.7740 0.7920 0.8000 0.8160 0.8240
3.422000 0.8400 0.8500 0.8580 0.8620 0.8660
3.455240 0.8700 0.8760 0.8770 0.8780 0.8810
3.488000 0.8880 0.9000 0.9100 0.9200 0.9290
3.521240 0.9360 0.9380 0.9400 0.9420 0.9460
3.555000 0.9460 0.9460 0.9490 0.9500 0.9500
3.588240 0.9500 0.9490 0.9490 0.9480 0.9480
3.621000 0.9480 0.9480 0.9480 0.9490 0.9490
3.654240 0.9490 0.9490 0.9500 0.9500 0.9530
3.688000 0.9540 0.9560 0.9560 0.9570 0.9580
3.721240 0.9600 0.9600 0.9600 0.9600 0.9600
3.754000 0.9600 0.9580 0.9580 0.9570 0.9560
3.787240 0.9540 0.9540 0.9540 0.9540 0.9540
3.821000 0.9560 0.9560 0.9570 0.9570 0.9570
3.854240 0.9580 0.9580 0.9580 0.9580 0.9580
3.887000 0.9580 0.9570 0.9570 0.9570 0.9580
3.920240 0.9620 0.9650 0.9650 0.9650 0.9650
3.953000 0.9650 0.9650 0.9640 0.9620 0.9610
3.986240 0.9610 0.9610 0.9610 0.9620 0.9620
4.020000 0.9620 0.9620 0.9640 0.9640 0.9640
4.053240 0.9640 0.9640 0.9640 0.9640 0.9640
4.086000 0.9640 0.9640 0.9640 0.9650 0.9650
4.119240 0.9650 0.9650 0.9660 0.9660 0.9680
4.153000 0.9690 0.9690 0.9700 0.9700 0.9690
4.186240 0.9690 0.9690 0.9690 0.9690 0.9690
4.219000 0.9690 0.9690 0.9690 0.9690 0.9680
4.252240 0.9680 0.9600 0.9570 0.9560 0.9540
4.286000 0.9540 0.9560 0.9570 0.9610 0.9640
4.319240 0.9640 0.9660 0.9660 0.9660 0.9660
4.352000 0.9660 0.9660 0.9660 0.9660 0.9680
4.385240 0.9680 0.9680 0.9680 0.9680 0.9680
4.419000 0.9680 0.9680 0.9680 0.9660 0.9650
4.452240 0.9640 0.9620 0.9610 0.9580 0.9580
4.485000 0.9580 0.9580 0.9600 0.9610 0.9620
4.518240 0.9640 0.9650 0.9650 0.9650 0.9650
4.551000 0.9660 0.9660 0.9680 0.9680 0.9680
4.584240 0.9680 0.9690 0.9690 0.9690 0.9690
4.618000 0.9690 0.9690 0.9690 0.9690 0.9690
4.651240 0.9690 0.9690 0.9690 0.9680 0.9680
4.684000 0.9680 0.9680 0.9660 0.9660 0.9660
4.717240 0.9660 0.9660 0.9660 0.9660 0.9660
4.751000 0.9660 0.9660 0.9660 0.9660 0.9660
4.784240 0.9660 0.9660 0.9660 0.9660 0.9660
4.817000 0.9650 0.9650 0.9650 0.9650 0.9650
4.850240 0.9640 0.9640 0.9640 0.9640 0.9640
4.884000 0.9640 0.9640 0.9650 0.9650 0.9650
4.917240 0.9650 0.9650 0.9650 0.9650 0.9650
4.950000 0.9650 0.9650 0.9650 0.9650 0.9650
4.983240 0.9650 0.9640 0.9650 0.9650 0.9640
5.017000 0.9640 0.9620 0.9620 0.9610 0.9610
5.050240 0.9610 0.9580 0.9580 0.9580 0.9580
5.083000 0.9600 0.9600 0.9600 0.9600 0.9610
5.116240 0.9610 0.9610 0.9610 0.9620 0.9620
5.150000 0.9620 0.9620 0.9610 0.9600 0.9570
5.183240 0.9570 0.9560 0.9560 0.9540 0.9540
5.216000 0.9540 0.9560 0.9570 0.9580 0.9600
5.249240 0.9610 0.9620 0.9620 0.9620 0.9620
5.282000 0.9620 0.9620 0.9620 0.9640 0.9640
5.315240 0.9640 0.9650 0.9650 0.9650 0.9650
5.349000 0.9660 0.9680 0.9680 0.9680 0.9680
5.382240 0.9680 0.9680 0.9680 0.9680 0.9660
5.415000 0.9650 0.9650 0.9640 0.9610 0.9580
5.448240 0.9570 0.9540 0.9530 0.9530 0.9530
5.482000 0.9530 0.9540 0.9540 0.9540 0.9560
5.515240 0.9560 0.9560 0.9560 0.9560 0.9560
5.548000 0.9560 0.9560 0.9560 0.9560 0.9560
5.581240 0.9560 0.9540 0.9540 0.9540 0.9530
5.615000 0.9530 0.9530 0.9520 0.9520 0.9500
5.648240 0.9490 0.9460 0.9450 0.9410 0.9400
5.681000 0.9360 0.9240 0.9140 0.9050 0.8890
5.714240 0.8880 0.8860 0.8840 0.8730 0.8580
5.748000 0.8520 0.8450 0.8320 0.8280 0.8200
5.781240 0.8050 0.7880 0.7330 0.6720 0.6090
5.814000 0.5870 0.5670 0.5530 0.5530 0.5750
5.847240 0.6120 0.6630 0.7090 0.7570 0.7780
5.880000 0.7890 0.8050 0.8260 0.8410 0.8690
5.913240 0.8760 0.8840 0.8880 0.8900 0.8980
5.947000 0.9040 0.9100 0.9140 0.9160 0.9170
5.980240 0.9170 0.9180 0.9210 0.9210 0.9250
6.013000 0.9290 0.9290 0.9290 0.9290 0.9300
6.046240 0.9300 0.9300 0.9300 0.9320 0.9360
6.080000 0.9370 0.9370 0.9380 0.9380 0.9370
6.113240 0.9340 0.9330 0.9280 0.9220 0.9100
6.146000 0.9050 0.9010 0.8900 0.8740 0.8580
6.179240 0.8490 0.8170 0.7350 0.6710 0.6520
6.213000 0.6520 0.6850 0.7200 0.7540 0.7730
6.246240 0.7850 0.8000 0.8200 0.8330 0.8530
6.279000 0.8640 0.8730 0.8900 0.9000 0.9080
6.312240 0.9140 0.9210 0.9240 0.9260 0.9220
6.346000 0.9200 0.9140 0.9130 0.9100 0.9060
6.379240 0.9000 0.8920 0.8840 0.8820 0.8800
6.412000 0.8700 0.8660 0.8490 0.8300 0.8020
6.445240 0.7560 0.7210 0.7110 0.7030 0.6890
6.478000 0.6810 0.6600 0.6360 0.6350 0.5680
6.511240 0.5000 0.4710 0.4400 0.4110 0.3750
6.545000 0.3560 0.3540 0.3550 0.3590 0.3740
6.578240 0.4000 0.4510 0.5390 0.5590 0.5690
6.611000 0.5800 0.5990 0.6270 0.6650 0.7010
6.644240 0.7480 0.7810 0.7900 0.8000 0.8080
6.678000 0.8180 0.8210 0.8220 0.8240 0.8280
6.711240 0.8330 0.8400 0.8460 0.8460 0.8420
6.744000 0.8260 0.8100 0.7930 0.7850 0.7770
6.777240 0.7690 0.7610 0.7450 0.7390 0.7390
6.811000 0.7500 0.7720 0.8000 0.8210 0.8330
6.844240 0.8340 0.8340 0.8320 0.8280 0.8210
6.877000 0.8090 0.7960 0.7800 0.7610 0.7410
6.910240 0.6920 0.6470 0.6430 0.6450 0.6690
6.944000 0.6960 0.7190 0.7430 0.7650 0.7850
6.977240 0.8080 0.8160 0.8320 0.8400 0.8410
7.010000 0.8400 0.8160 0.8080 0.7810 0.7650
7.043240 0.7520 0.6770 0.6480 0.6430 0.6410
7.076000 0.6440 0.6840 0.7240 0.7560 0.7820
7.109240 0.8160 0.8330 0.8370 0.8480 0.8530
7.143000 0.8540 0.8530 0.8490 0.8400 0.8320
7.176240 0.8260 0.8200 0.8180 0.8180 0.8180
7.209000 0.8170 0.8160 0.8140 0.8120 0.8120
7.242240 0.8120 0.8120 0.8120 0.8120 0.8140
7.276000 0.8220 0.8300 0.8360 0.8410 0.8450
7.309240 0.8500 0.8540 0.8570 0.8580 0.8610
7.342000 0.8640 0.8650 0.8680 0.8680 0.8660
7.375240 0.8620 0.8620 0.8620 0.8640 0.8640
7.409000 0.8640 0.8650 0.8660 0.8680 0.8680
7.442240 0.8660 0.8660 0.8640 0.8610 0.8540
7.475000 0.8490 0.8340 0.8250 0.8160 0.8090
7.508240 0.8000 0.7810 0.7800 0.7800 0.7800
7.542000 0.7810 0.7810 0.7840 0.7880 0.7880
7.575240 0.7880 0.7880 0.7820 0.7800 0.7660
7.608000 0.7500 0.7280 0.7050 0.6890 0.6760
7.641240 0.6710 0.6710 0.6880 0.7080 0.7270
7.674000 0.7520 0.7820 0.8020 0.8140 0.8360
7.707240 0.8530 0.8620 0.8690 0.8730 0.8770
7.741000 0.8800 0.8820 0.8840 0.8850 0.8880
7.774240 0.8890 0.8900 0.8920 0.8930 0.8930
7.807000 0.8860 0.8800 0.8740 0.8700 0.8640
7.840240 0.8520 0.8450 0.8410 0.8340 0.8260
7.874000 0.8130 0.8020 0.7880 0.7810 0.7610
7.907240 0.7580 0.7580 0.7660 0.7700 0.7820
7.940000 0.7960 0.8000 0.8100 0.8160 0.8200
7.973240 0.8220 0.8250 0.8320 0.8360 0.8420
8.007000 0.8460 0.8460 0.8440 0.8410 0.8380
8.040240 0.8330 0.8320 0.8260 0.8180 0.8090
8.073000 0.8000 0.7890 0.7800 0.7620 0.7410
8.106240 0.7130 0.6830 0.6450 0.6200 0.5770
8.140000 0.5430 0.5030 0.4800 0.4580 0.4340
8.173240 0.4340 0.4390 0.4580 0.4830 0.5410
8.206000 0.5720 0.6010 0.6090 0.6150 0.6150
8.239240 0.6010 0.5830 0.5630 0.5450 0.5230
8.272000 0.5120 0.5080 0.5070 0.5040 0.5000
8.305240 0.4950 0.4900 0.4750 0.4300 0.4220
8.339000 0.3980 0.3960 0.3990 0.4200 0.4520
8.372240 0.4900 0.5410 0.5670 0.5890 0.6120
8.405000 0.6320 0.6530 0.6730 0.6850 0.6960
8.438240 0.7200 0.7370 0.7500 0.7700 0.7760
8.472000 0.7860 0.7960 0.7980 0.8020 0.8080
8.505240 0.8130 0.8140 0.8160 0.8240 0.8280
8.538000 0.8290 0.8260 0.8250 0.8100 0.8020
8.571240 0.7900 0.7800 0.7560 0.7330 0.7190
8.605000 0.6310 0.6040 0.6030 0.6050 0.6200
8.638240 0.6390 0.6510 0.6710 0.6840 0.7040
8.671000 0.7230 0.7370 0.7490 0.7570 0.7570
8.704240 0.7570 0.7500 0.7450 0.7430 0.7410
8.738000 0.7430 0.7500 0.7600 0.7690 0.7780
8.771240 0.7890 0.7920 0.8000 0.8000 0.8000
8.804000 0.7850 0.7730 0.7620 0.7500 0.7490
8.837240 0.7480 0.7480 0.7500 0.7560 0.7620
8.870000 0.7720 0.7840 0.7900 0.7980 0.8060
8.903240 0.8140 0.8260 0.8340 0.8400 0.8410
8.937000 0.8440 0.8440 0.8440 0.8420 0.8410
8.970240 0.8400 0.8380 0.8380 0.8370 0.8370
9.003000 0.8360 0.8360 0.8360 0.8360 0.8370
9.036240 0.8370 0.8400 0.8410 0.8450 0.8490
9.070000 0.8530 0.8580 0.8600 0.8600 0.8600
9.103240 0.8580 0.8580 0.8580 0.8580 0.8600
9.136000 0.8610 0.8620 0.8620 0.8640 0.8640
9.169240 0.8660 0.8690 0.8700 0.8720 0.8730
9.203000 0.8760 0.8770 0.8780 0.8780 0.8780
9.236240 0.8780 0.8770 0.8760 0.8740 0.8720
9.269000 0.8680 0.8640 0.8570 0.8500 0.8420
9.302240 0.8330 0.8260 0.8170 0.8090 0.7930
9.336000 0.7820 0.7800 0.7800 0.7730 0.7700
9.369240 0.7600 0.7470 0.7330 0.7160 0.6990
9.402000 0.6880 0.6770 0.6670 0.6670 0.6760
9.435240 0.6920 0.7010 0.7120 0.7240 0.7310
9.468000 0.7320 0.7330 0.7320 0.7320 0.7230
9.501240 0.7170 0.7080 0.6970 0.6850 0.6760
9.535000 0.6640 0.6590 0.6440 0.6390 0.6360
9.568240 0.6350 0.6350 0.6360 0.6590 0.6690
9.601000 0.6760 0.6920 0.7110 0.7190 0.7290
9.634240 0.7390 0.7490 0.7620 0.7720 0.7740
9.668000 0.7820 0.7840 0.7840 0.7820 0.7820
9.701240 0.7810 0.7780 0.7740 0.7690 0.7640
9.734000 0.7580 0.7470 0.7350 0.7240 0.7210
9.767240 0.7200 0.7200 0.7230 0.7280 0.7320
9.801000 0.7360 0.7410 0.7450 0.7480 0.7480
9.834240 0.7480 0.7480 0.7440 0.7410 0.7390
9.867000 0.7390 0.7360 0.7320 0.7310 0.7280
9.900240 0.7280 0.7280 0.7290 0.7310 0.7330
9.934000 0.7400 0.7500 0.7600 0.7610 0.7640
9.967240 0.7730 0.7840 0.7890 0.7900 0.8000
10.000000 0.8060 0.8100 0.8220 0.8300 0.8320
10.033240 0.8360 0.8480 0.8500 0.8600 0.8610
10.066000 0.8620 0.8650 0.8660 0.8660 0.8680
10.099240 0.8690 0.8700 0.8730 0.8760 0.8800
10.133000 0.8820 0.8840 0.8820 0.8820 0.8820
10.166240 0.8810 0.8810 0.8810 0.8820 0.8820
10.199000 0.8820 0.8820 0.8840 0.8840 0.8850
10.232240 0.8860 0.8860 0.8860 0.8860 0.8860
10.266000 0.8860 0.8860 0.8860 0.8880 0.8890
10.299240 0.8890 0.8890 0.8900 0.8900 0.8900
10.332000 0.8900 0.8900 0.8900 0.8900 0.8900
10.365240 0.8900 0.8900 0.8920 0.8920 0.8920
10.399000 0.8930 0.8930 0.8930 0.8930 0.8940
10.432240 0.8940 0.8940 0.8960 0.8960 0.8960
10.465000 0.8960 0.8960 0.8960 0.8960 0.8940
10.498240 0.8940 0.8940 0.8930 0.8900 0.8890
10.532000 0.8860 0.8850 0.8840 0.8820 0.8810
10.565240 0.8800 0.8800 0.8800 0.8810 0.8820
10.598000 0.8820 0.8840 0.8840 0.8850 0.8860
10.631240 0.8890 0.8900 0.8930 0.8960 0.8970
10.664000 0.8980 0.8980 0.8980 0.8980 0.8970
10.697240 0.8970 0.8960 0.8920 0.8890 0.8860
10.731000 0.8850 0.8840 0.8800 0.8740 0.8680
10.764240 0.8660 0.8650 0.8640 0.8650 0.8660
10.797000 0.8690 0.8700 0.8720 0.8720 0.8730
10.830240 0.8730 0.8730 0.8730 0.8720 0.8680
10.864000 0.8650 0.8650 0.8640 0.8600 0.8500
10.897240 0.8460 0.8400 0.8290 0.8280 0.8280
10.930000 0.8300 0.8370 0.8490 0.8610 0.8650
10.963240 0.8700 0.8730 0.8800 0.8880 0.8920
10.997000 0.8940 0.8960 0.8970 0.9000 0.9020
11.030240 0.9020 0.9040 0.9040 0.9040 0.9040
11.063000 0.9040 0.9020 0.9020 0.9010 0.9010
11.096240 0.9000 0.9000 0.8980 0.8970 0.8960
11.130000 0.8930 0.8920 0.8920 0.8890 0.8880
11.163240 0.8850 0.8810 0.8770 0.8730 0.8720
11.196000 0.8690 0.8650 0.8600 0.8580 0.8560
11.229240 0.8560 0.8560 0.8560 0.8570 0.8570
11.262000 0.8580 0.8600 0.8610 0.8610 0.8610
11.295240 0.8620 0.8620 0.8640 0.8640 0.8650
11.329000 0.8660 0.8660 0.8660 0.8660 0.8680
11.362240 0.8680 0.8690 0.8700 0.8720 0.8770
11.395000 0.8780 0.8810 0.8820 0.8860 0.8890
11.428240 0.8920 0.8930 0.8980 0.9000 0.9010
11.462000 0.9010 0.9020 0.9040 0.9040 0.9050
11.495240 0.9050 0.9050 0.9050 0.9060 0.9060
11.528000 0.9080 0.9080 0.9090 0.9090 0.9080
11.561240 0.9080 0.9060 0.9060 0.9050 0.9050
11.595000 0.9040 0.9020 0.9010 0.9000 0.8970
11.628240 0.8960 0.8940 0.8930 0.8900 0.8880
11.661000 0.8860 0.8850 0.8820 0.8800 0.8740
11.694240 0.8720 0.8650 0.8610 0.8600 0.8540
11.728000 0.8460 0.8400 0.8370 0.8330 0.8250
11.761240 0.8210 0.8130 0.7970 0.7900 0.7890
11.794000 0.7820 0.7730 0.7580 0.7470 0.7360
11.827240 0.7270 0.7130 0.6990 0.6790 0.6630
11.860000 0.6470 0.6310 0.6200 0.6110 0.6070
11.893240 0.6070 0.6090 0.6330 0.6440 0.6560
11.927000 0.6640 0.6800 0.6890 0.7000 0.7090
11.960240 0.7130 0.7270 0.7310 0.7440 0.7500
11.993000 0.7530 0.7570 0.7620 0.7660 0.7720
12.026240 0.7770 0.7840 0.7900 0.7970 0.8010
12.060000 0.8060 0.8100 0.8100 0.8130 0.8160
12.093240 0.8210 0.8210 0.8250 0.8290 0.8330
12.126000 0.8360 0.8380 0.8410 0.8420 0.8440
12.159240 0.8440 0.8460 0.8460 0.8480 0.8480
12.193000 0.8490 0.8490 0.8500 0.8520 0.8520
12.226240 0.8530 0.8530 0.8540 0.8540 0.8540
12.259000 0.8540 0.8540 0.8540 0.8540 0.8540
12.292240 0.8540 0.8540 0.8530 0.8520 0.8520
12.326000 0.8500 0.8490 0.8490 0.8450 0.8440
12.359240 0.8410 0.8400 0.8400 0.8370 0.8330
12.392000 0.8300 0.8280 0.8210 0.8180 0.8180
12.425240 0.8200 0.8280 0.8290 0.8300 0.8300
12.458000 0.8300 0.8280 0.8240 0.8240 0.8210
12.491240 0.8180 0.8180 0.8170 0.8160 0.8140
12.525000 0.8140 0.8140 0.8160 0.8160 0.8170
12.558240 0.8180 0.8210 0.8220 0.8240 0.8260
12.591000 0.8280 0.8290 0.8320 0.8330 0.8330
12.624240 0.8340 0.8340 0.8340 0.8360 0.8360
12.658000 0.8360 0.8360 0.8360 0.8360 0.8340
12.691240 0.8340 0.8340 0.8340 0.8330 0.8320
12.724000 0.8300 0.8290 0.8280 0.8260 0.8260
12.757240 0.8250 0.8240 0.8220 0.8200 0.8180
12.791000 0.8180 0.8180 0.8170 0.8160 0.8140
12.824240 0.8100 0.8010 0.7980 0.7960 0.7920
12.857000 0.7880 0.7840 0.7840 0.7840 0.7840
12.890240 0.7840 0.7850 0.7880 0.7880 0.7890
12.924000 0.7900 0.7900 0.7900 0.7900 0.7880
12.957240 0.7840 0.7810 0.7800 0.7730 0.7730
12.990000 0.7720 0.7660 0.7610 0.7560 0.7500
13.023240 0.7490 0.7470 0.7400 0.7330 0.7310
13.056000 0.7290 0.7250 0.7230 0.7170 0.7130
13.089240 0.7110 0.7050 0.7010 0.6970 0.6960
13.123000 0.6930 0.6930 0.6950 0.7000 0.7070
13.156240 0.7190 0.7330 0.7440 0.7540 0.7660
13.189000 0.7760 0.7810 0.7850 0.7880 0.7920
13.222240 0.7980 0.8000 0.8020 0.8040 0.8050
13.256000 0.8050 0.8050 0.8040 0.8040 0.8040
13.289240 0.8040 0.8040 0.8040 0.8050 0.8060
13.322000 0.8080 0.8090 0.8100 0.8120 0.8180
13.355240 0.8220 0.8250 0.8290 0.8300 0.8340
13.389000 0.8410 0.8460 0.8520 0.8540 0.8560
13.422240 0.8570 0.8580 0.8600 0.8610 0.8620
13.455000 0.8610 0.8640 0.8640 0.8640 0.8650
13.488240 0.8650 0.8650 0.8650 0.8650 0.8680
13.522000 0.8690 0.8690 0.8700 0.8700 0.8720
13.555240 0.8720 0.8720 0.8720 0.8720 0.8720
13.588000 0.8720 0.8720 0.8720 0.8720 0.8720
13.621240 0.8720 0.8720 0.8700 0.8700 0.8700
13.654000 0.8690 0.8680 0.8660 0.8660 0.8640
13.687240 0.8640 0.8610 0.8600 0.8600 0.8600
13.721000 0.8600 0.8600 0.8600 0.8600 0.8600
13.754240 0.8580 0.8570 0.8570 0.8560 0.8540
13.787000 0.8540 0.8530 0.8530 0.8520 0.8520
13.820240 0.8520 0.8500 0.8490 0.8460 0.8450
13.854000 0.8440 0.8420 0.8420 0.8400 0.8380
13.887240 0.8370 0.8370 0.8370 0.8380 0.8380
13.920000 0.8400 0.8410 0.8420 0.8420 0.8420
13.953240 0.8420 0.8410 0.8400 0.8400 0.8410
13.987000 0.8440 0.8440 0.8450 0.8490 0.8520
14.020240 0.8560 0.8580 0.8610 0.8640 0.8660
14.053000 0.8680 0.8690 0.8700 0.8730 0.8730
14.086240 0.8730 0.8740 0.8740 0.8770 0.8770
14.120000 0.8780 0.8780 0.8800 0.8800 0.8810
14.153240 0.8810 0.8810 0.8820 0.8820 0.8810
14.186000 0.8810 0.8810 0.8810 0.8820 0.8820
14.219240 0.8820 0.8820 0.8840 0.8840 0.8840
14.252000 0.8840 0.8840 0.8840 0.8840 0.8840
14.285240 0.8840 0.8820 0.8820 0.8820 0.8820
14.319000 0.8820 0.8820 0.8810 0.8810 0.8810
14.352240 0.8800 0.8800 0.8800 0.8780 0.8780
14.385000 0.8770 0.8760 0.8730 0.8720 0.8690
14.418240 0.8650 0.8580 0.8520 0.8490 0.8450
14.452000 0.8420 0.8380 0.8300 0.8240 0.8200
14.485240 0.8100 0.8080 0.8050 0.8020 0.7980
14.518000 0.7930 0.7880 0.7810 0.7800 0.7760
14.551240 0.7740 0.7740 0.7730 0.7730 0.7720
14.585000 0.7720 0.7720 0.7720 0.7720 0.7720
14.618240 0.7720 0.7700 0.7700 0.7700 0.7700
14.651000 0.7700 0.7700 0.7720 0.7720 0.7730
14.684240 0.7730 0.7740 0.7780 0.7820 0.7840
14.718000 0.7850 0.7880 0.7890 0.7900 0.7970
14.751240 0.8020 0.8080 0.8100 0.8130 0.8160
14.784000 0.8210 0.8280 0.8330 0.8330 0.8400
14.817240 0.8440 0.8480 0.8490 0.8530 0.8560
14.850000 0.8560 0.8530 0.8500 0.8460 0.8410
14.883240 0.8370 0.8330 0.8290 0.8280 0.8250
14.917000 0.8140 0.8080 0.8020 0.8010 0.8020
14.950240 0.8050 0.8170 0.8280 0.8380 0.8490
14.983000 0.8600 0.8700 0.8800 0.8850 0.8880
15.016240 0.8850
##END=
