##TITLE=SODIUM GALACTONATE
##JCAMP-DX=4.24
##DATA TYPE=INFRARED SPECTRUM
##CLASS=COBLENTZ
##ORIGIN=DOW CHEMICAL COMPANY
##OWNER=COBLENTZ SOCIETY
Collection (C) 2018 copyright by the U.S. Secretary of Commerce
on behalf of the United States of America. All rights reserved.
##DATE=Not specified, most likely prior to 1970
##MOLFORM=C6 H11 O7 Na
##SOURCE REFERENCE=COBLENTZ NO. 2265
##$NIST ID=B6002265
##$NIST SOURCE=COBLENTZ
##$NIST IMAGE=cob2265
##SPECTROMETER/DATA SYSTEM=Not specified, most likely a prism, grating, or hybrid spectrometer.
##STATE=SOLID (MINERAL OIL MULL)
##PATH LENGTH=
$$SPECTRAL CONTAMINATION DUE TO OIL AROUND 2900, 1450, 1380 CM^-^1
##SAMPLING PROCEDURE=TRANSMISSION
##RESOLUTION=4
##DATA PROCESSING=DIGITIZED BY NIST FROM HARD COPY
##XUNITS=MICROMETERS
##YUNITS=TRANSMITTANCE
##XFACTOR=1.000000
##YFACTOR=1
##DELTAX=000.006686
##FIRSTX=2.027
##LASTX=15.9464
##FIRSTY=0.895
##MAXX=15.9464
##MINX=2.027
##MAXY=0.943
##MINY=0.033
##NPOINTS=2083
##XYDATA=(X++(Y..Y))
2.027000 0.8950 0.8950 0.8950 0.8970 0.8970
2.060445 0.8980 0.9000 0.9000 0.9000 0.9000
2.094000 0.9000 0.9000 0.9000 0.9010 0.9010
2.127445 0.9010 0.9010 0.9030 0.9030 0.9060
2.160000 0.9080 0.9080 0.9080 0.9080 0.9060
2.193445 0.9010 0.8980 0.8950 0.8900 0.8900
2.227000 0.8870 0.8820 0.8800 0.8780 0.8770
2.260445 0.8770 0.8770 0.8780 0.8800 0.8820
2.294000 0.8830 0.8850 0.8870 0.8880 0.8900
2.327445 0.8920 0.8930 0.8950 0.8970 0.8980
2.361000 0.9000 0.9000 0.9010 0.9010 0.9030
2.394445 0.9030 0.9050 0.9050 0.9060 0.9060
2.428000 0.9080 0.9100 0.9110 0.9130 0.9150
2.461445 0.9160 0.9180 0.9200 0.9210 0.9230
2.495000 0.9250 0.9260 0.9260 0.9280 0.9310
2.528445 0.9330 0.9350 0.9350 0.9360 0.9360
2.562000 0.9380 0.9400 0.9400 0.9410 0.9410
2.595445 0.9410 0.9410 0.9400 0.9400 0.9380
2.628000 0.9380 0.9380 0.9400 0.9430 0.9430
2.661445 0.9430 0.9430 0.9410 0.9400 0.9400
2.695000 0.9360 0.9280 0.9210 0.9100 0.8980
2.728445 0.8930 0.8820 0.8650 0.8520 0.8380
2.762000 0.8220 0.8120 0.7940 0.7840 0.7540
2.795445 0.7120 0.6920 0.6510 0.6140 0.5810
2.829000 0.5510 0.5240 0.5130 0.5000 0.4780
2.862445 0.4580 0.4380 0.4210 0.4030 0.3880
2.896000 0.3720 0.3550 0.3370 0.3180 0.3050
2.929445 0.3000 0.2950 0.2890 0.2800 0.2740
2.963000 0.2650 0.2570 0.2440 0.2290 0.2100
2.996445 0.1940 0.1760 0.1710 0.1670 0.1660
3.030000 0.1660 0.1670 0.1770 0.1860 0.1940
3.063445 0.1990 0.2040 0.2050 0.2040 0.2020
3.096000 0.1990 0.1940 0.1840 0.1790 0.1760
3.129445 0.1760 0.1770 0.1940 0.2040 0.2220
3.163000 0.2390 0.2570 0.2790 0.2990 0.3170
3.196445 0.3370 0.3550 0.3700 0.3850 0.3970
3.230000 0.4050 0.4230 0.4280 0.4380 0.4450
3.263445 0.4510 0.4560 0.4600 0.4610 0.4630
3.297000 0.4610 0.4530 0.4360 0.3930 0.3670
3.330445 0.3530 0.2990 0.2390 0.1860 0.1270
3.364000 0.0790 0.0360 0.0330 0.0330 0.0340
3.397445 0.0380 0.0410 0.0480 0.0560 0.0640
3.431000 0.0760 0.0830 0.0860 0.0880 0.0930
3.464445 0.1010 0.1140 0.1490 0.2170 0.2790
3.498000 0.3880 0.4510 0.5490 0.5740 0.5930
3.531445 0.6020 0.6110 0.6220 0.6320 0.6440
3.564000 0.6540 0.6620 0.6660 0.6670 0.6670
3.597445 0.6690 0.6690 0.6690 0.6690 0.6690
3.631000 0.6720 0.6760 0.6790 0.6810 0.6840
3.664445 0.6870 0.6870 0.6870 0.6870 0.6870
3.698000 0.6870 0.6890 0.6910 0.6940 0.6970
3.731445 0.7000 0.7040 0.7070 0.7120 0.7150
3.765000 0.7200 0.7250 0.7290 0.7340 0.7350
3.798445 0.7420 0.7490 0.7550 0.7600 0.7640
3.832000 0.7670 0.7690 0.7740 0.7790 0.7850
3.865445 0.7890 0.7890 0.7970 0.7990 0.8000
3.899000 0.8050 0.8050 0.8070 0.8070 0.8100
3.932445 0.8120 0.8130 0.8150 0.8170 0.8180
3.966000 0.8200 0.8220 0.8230 0.8250 0.8280
3.999445 0.8320 0.8330 0.8380 0.8420 0.8450
4.032000 0.8480 0.8480 0.8520 0.8570 0.8570
4.065445 0.8570 0.8570 0.8570 0.8580 0.8600
4.099000 0.8630 0.8650 0.8650 0.8650 0.8650
4.132445 0.8630 0.8620 0.8620 0.8620 0.8620
4.166000 0.8620 0.8620 0.8650 0.8700 0.8720
4.199445 0.8730 0.8750 0.8770 0.8770 0.8770
4.233000 0.8770 0.8780 0.8800 0.8820 0.8850
4.266445 0.8870 0.8880 0.8900 0.8900 0.8920
4.300000 0.8930 0.8930 0.8930 0.8930 0.8950
4.333445 0.8950 0.8950 0.8950 0.8950 0.8970
4.367000 0.8970 0.8970 0.8970 0.8970 0.8970
4.400445 0.8980 0.9000 0.9000 0.9000 0.9000
4.434000 0.9000 0.8980 0.8980 0.8980 0.8980
4.467445 0.8980 0.8980 0.8980 0.8980 0.8980
4.500000 0.8980 0.8980 0.8980 0.8980 0.8980
4.533445 0.8980 0.9000 0.9000 0.9000 0.9000
4.567000 0.9010 0.9010 0.9010 0.9010 0.9010
4.600445 0.9000 0.9000 0.9010 0.9010 0.9010
4.634000 0.9010 0.9030 0.9030 0.9060 0.9080
4.667445 0.9100 0.9110 0.9110 0.9110 0.9110
4.701000 0.9110 0.9110 0.9110 0.9110 0.9130
4.734445 0.9150 0.9150 0.9150 0.9150 0.9150
4.768000 0.9150 0.9150 0.9150 0.9150 0.9150
4.801445 0.9150 0.9150 0.9150 0.9150 0.9150
4.835000 0.9150 0.9160 0.9160 0.9180 0.9180
4.868445 0.9180 0.9180 0.9180 0.9180 0.9180
4.902000 0.9200 0.9200 0.9210 0.9230 0.9230
4.935445 0.9250 0.9260 0.9260 0.9280 0.9280
4.968000 0.9280 0.9280 0.9260 0.9260 0.9250
5.001445 0.9250 0.9250 0.9260 0.9260 0.9280
5.035000 0.9300 0.9310 0.9330 0.9330 0.9330
5.068445 0.9330 0.9350 0.9350 0.9350 0.9360
5.102000 0.9360 0.9360 0.9360 0.9360 0.9360
5.135445 0.9350 0.9350 0.9350 0.9350 0.9350
5.169000 0.9330 0.9330 0.9310 0.9310 0.9310
5.202445 0.9310 0.9310 0.9300 0.9300 0.9310
5.236000 0.9310 0.9310 0.9330 0.9330 0.9330
5.269445 0.9330 0.9330 0.9330 0.9330 0.9310
5.303000 0.9310 0.9310 0.9310 0.9310 0.9310
5.336445 0.9310 0.9330 0.9330 0.9350 0.9350
5.370000 0.9360 0.9360 0.9380 0.9380 0.9380
5.403445 0.9400 0.9400 0.9400 0.9400 0.9380
5.436000 0.9380 0.9360 0.9360 0.9360 0.9360
5.469445 0.9360 0.9360 0.9350 0.9350 0.9330
5.503000 0.9310 0.9280 0.9280 0.9260 0.9260
5.536445 0.9260 0.9260 0.9260 0.9250 0.9250
5.570000 0.9230 0.9230 0.9210 0.9200 0.9180
5.603445 0.9160 0.9150 0.9150 0.9150 0.9160
5.637000 0.9160 0.9150 0.9150 0.9130 0.9100
5.670445 0.9080 0.9080 0.9080 0.9080 0.9060
5.704000 0.9050 0.9030 0.9030 0.9000 0.9000
5.737445 0.8980 0.8980 0.8970 0.8950 0.8950
5.771000 0.8950 0.8930 0.8920 0.8880 0.8830
5.804445 0.8800 0.8780 0.8770 0.8770 0.8750
5.838000 0.8730 0.8680 0.8650 0.8630 0.8580
5.871445 0.8570 0.8550 0.8480 0.8480 0.8470
5.904000 0.8450 0.8430 0.8350 0.8250 0.8180
5.937445 0.8150 0.8070 0.8050 0.8000 0.7970
5.971000 0.7940 0.7900 0.7820 0.7720 0.7620
6.004445 0.7520 0.7450 0.7370 0.7290 0.7150
6.038000 0.6960 0.6770 0.6560 0.6370 0.6090
6.071445 0.5880 0.5560 0.5160 0.4980 0.4780
6.105000 0.4380 0.3980 0.3700 0.3370 0.2940
6.138445 0.2450 0.2190 0.1860 0.1520 0.1290
6.172000 0.1160 0.1070 0.1060 0.1060 0.1060
6.205445 0.1170 0.1470 0.1740 0.2020 0.2290
6.239000 0.2770 0.3050 0.3520 0.3950 0.4330
6.272445 0.4450 0.4760 0.5360 0.5530 0.5680
6.306000 0.5840 0.6010 0.6120 0.6340 0.6510
6.339445 0.6640 0.6690 0.6770 0.6860 0.6960
6.372000 0.7000 0.7040 0.7240 0.7300 0.7350
6.405445 0.7370 0.7390 0.7400 0.7440 0.7450
6.439000 0.7450 0.7490 0.7540 0.7570 0.7640
6.472445 0.7650 0.7650 0.7650 0.7650 0.7650
6.506000 0.7650 0.7640 0.7640 0.7620 0.7600
6.539445 0.7590 0.7570 0.7550 0.7540 0.7500
6.573000 0.7470 0.7450 0.7440 0.7400 0.7350
6.606445 0.7320 0.7270 0.7240 0.7170 0.7120
6.640000 0.6990 0.6920 0.6860 0.6760 0.6640
6.673445 0.6490 0.6340 0.6160 0.5960 0.5810
6.707000 0.5660 0.5440 0.5240 0.5010 0.4910
6.740445 0.4810 0.4530 0.4230 0.3650 0.3170
6.774000 0.2620 0.2350 0.2120 0.1870 0.1660
6.807445 0.1570 0.1510 0.1510 0.1510 0.1540
6.840000 0.1560 0.1640 0.1690 0.1760 0.1810
6.873445 0.1870 0.1960 0.2020 0.2090 0.2150
6.907000 0.2200 0.2270 0.2350 0.2440 0.2620
6.940445 0.2740 0.2890 0.3020 0.3120 0.3200
6.974000 0.3280 0.3330 0.3450 0.3520 0.3570
7.007445 0.3670 0.3680 0.3720 0.3780 0.3920
7.041000 0.3970 0.3980 0.4060 0.4100 0.4180
7.074445 0.4260 0.4330 0.4400 0.4460 0.4500
7.108000 0.4550 0.4560 0.4600 0.4660 0.4710
7.141445 0.4750 0.4760 0.4780 0.4780 0.4700
7.175000 0.4660 0.4460 0.4330 0.4050 0.3850
7.208445 0.3670 0.3530 0.3470 0.3350 0.3230
7.242000 0.3170 0.3150 0.3170 0.3250 0.3420
7.275445 0.3550 0.3680 0.3800 0.3920 0.4010
7.309000 0.4200 0.4400 0.4480 0.4710 0.4880
7.342445 0.5160 0.5280 0.5380 0.5460 0.5560
7.375000 0.5630 0.5660 0.5680 0.5680 0.5680
7.408445 0.5660 0.5640 0.5640 0.5630 0.5610
7.442000 0.5590 0.5590 0.5590 0.5610 0.5640
7.475445 0.5680 0.5730 0.5740 0.5780 0.5780
7.509000 0.5760 0.5760 0.5730 0.5660 0.5580
7.542445 0.5530 0.5480 0.5430 0.5340 0.5280
7.576000 0.5240 0.5230 0.5160 0.5130 0.5080
7.609445 0.5060 0.5080 0.5230 0.5360 0.5460
7.643000 0.5540 0.5580 0.5660 0.5740 0.5830
7.676445 0.5890 0.5930 0.5960 0.5980 0.5980
7.710000 0.6020 0.6040 0.6060 0.6060 0.6060
7.743445 0.6040 0.5980 0.5980 0.5960 0.5940
7.777000 0.5930 0.5930 0.5940 0.5990 0.6070
7.810445 0.6160 0.6170 0.6190 0.6210 0.6240
7.843000 0.6270 0.6340 0.6390 0.6420 0.6470
7.876445 0.6560 0.6610 0.6660 0.6670 0.6720
7.910000 0.6740 0.6740 0.6690 0.6660 0.6560
7.943445 0.6410 0.6160 0.5930 0.5710 0.5610
7.977000 0.5490 0.5430 0.5390 0.5410 0.5440
8.010445 0.5530 0.5630 0.5790 0.5980 0.6160
8.044000 0.6290 0.6420 0.6560 0.6660 0.6760
8.077445 0.6860 0.6910 0.6960 0.6970 0.7020
8.111000 0.7040 0.7070 0.7090 0.7100 0.7120
8.144445 0.7120 0.7140 0.7120 0.7120 0.7100
8.178000 0.7090 0.7090 0.7050 0.6990 0.6960
8.211445 0.6920 0.6920 0.6910 0.6910 0.6890
8.245000 0.6890 0.6920 0.6960 0.6990 0.7040
8.278445 0.7120 0.7190 0.7270 0.7340 0.7400
8.311000 0.7450 0.7500 0.7550 0.7570 0.7600
8.344445 0.7640 0.7650 0.7690 0.7740 0.7750
8.378000 0.7790 0.7800 0.7840 0.7900 0.7970
8.411445 0.7990 0.8000 0.8030 0.8030 0.8080
8.445000 0.8100 0.8120 0.8120 0.8130 0.8150
8.478445 0.8180 0.8180 0.8180 0.8180 0.8180
8.512000 0.8180 0.8180 0.8180 0.8180 0.8170
8.545445 0.8170 0.8170 0.8170 0.8170 0.8150
8.579000 0.8150 0.8130 0.8080 0.8020 0.7970
8.612445 0.7940 0.7890 0.7850 0.7820 0.7790
8.646000 0.7750 0.7740 0.7690 0.7670 0.7650
8.679445 0.7640 0.7640 0.7590 0.7570 0.7550
8.713000 0.7540 0.7540 0.7540 0.7540 0.7550
8.746445 0.7550 0.7550 0.7570 0.7570 0.7570
8.779000 0.7570 0.7540 0.7520 0.7450 0.7320
8.812445 0.7250 0.7170 0.7070 0.6920 0.6760
8.846000 0.6610 0.6460 0.6270 0.6160 0.5980
8.879445 0.5860 0.5740 0.5560 0.5440 0.5210
8.913000 0.5010 0.4880 0.4730 0.4680 0.4480
8.946445 0.4330 0.4180 0.4050 0.3950 0.3830
8.980000 0.3750 0.3720 0.3650 0.3630 0.3650
9.013445 0.3670 0.3680 0.3770 0.3870 0.4010
9.047000 0.4080 0.4380 0.4560 0.4750 0.4930
9.080445 0.5140 0.5260 0.5340 0.5430 0.5440
9.114000 0.5440 0.5440 0.5460 0.5460 0.5490
9.147445 0.5560 0.5630 0.5680 0.5710 0.5760
9.181000 0.5860 0.5930 0.6010 0.6060 0.6070
9.214445 0.6070 0.6070 0.6060 0.6040 0.5960
9.247000 0.5860 0.5760 0.5640 0.5560 0.5490
9.280445 0.5480 0.5460 0.5460 0.5480 0.5490
9.314000 0.5540 0.5630 0.5660 0.5690 0.5730
9.347445 0.5730 0.5680 0.5640 0.5560 0.5460
9.381000 0.5390 0.5310 0.5240 0.5130 0.5010
9.414445 0.5000 0.4980 0.4910 0.4760 0.4460
9.448000 0.4280 0.4180 0.4080 0.4000 0.3950
9.481445 0.3250 0.3000 0.2690 0.2450 0.2250
9.515000 0.2150 0.2070 0.2040 0.2020 0.2040
9.548445 0.2240 0.2490 0.2670 0.2900 0.3100
9.582000 0.3470 0.3670 0.3770 0.3800 0.4130
9.615445 0.4500 0.4530 0.4530 0.4510 0.4460
9.649000 0.4450 0.4280 0.4100 0.4050 0.3970
9.682445 0.3970 0.3950 0.3950 0.3970 0.4060
9.715000 0.4150 0.4260 0.4360 0.4460 0.4600
9.748445 0.4750 0.4880 0.5000 0.5090 0.5110
9.782000 0.5080 0.5030 0.5010 0.4980 0.4900
9.815445 0.4760 0.4630 0.4480 0.4450 0.4380
9.849000 0.4350 0.4350 0.4360 0.4450 0.4550
9.882445 0.4660 0.4760 0.4910 0.4980 0.5440
9.916000 0.5640 0.5830 0.5980 0.6110 0.6240
9.949445 0.6410 0.6540 0.6720 0.6960 0.7040
9.983000 0.7150 0.7240 0.7320 0.7390 0.7470
10.016445 0.7550 0.7590 0.7640 0.7640 0.7670
10.050000 0.7690 0.7740 0.7750 0.7790 0.7790
10.083445 0.7820 0.7840 0.7850 0.7890 0.7920
10.117000 0.7940 0.7950 0.7950 0.7950 0.7950
10.150445 0.7950 0.7950 0.7890 0.7850 0.7770
10.183000 0.7750 0.7670 0.7590 0.7540 0.7450
10.216445 0.7440 0.7390 0.7340 0.7340 0.7300
10.250000 0.7290 0.7270 0.7270 0.7270 0.7270
10.283445 0.7290 0.7300 0.7320 0.7340 0.7340
10.317000 0.7320 0.7270 0.7240 0.7140 0.7050
10.350445 0.6970 0.6870 0.6770 0.6740 0.6670
10.384000 0.6660 0.6610 0.6590 0.6590 0.6610
10.417445 0.6640 0.6660 0.6740 0.6770 0.6870
10.451000 0.6960 0.7040 0.7120 0.7220 0.7320
10.484445 0.7450 0.7550 0.7640 0.7670 0.7720
10.518000 0.7770 0.7850 0.7920 0.7970 0.8000
10.551445 0.8050 0.8100 0.8150 0.8170 0.8220
10.585000 0.8220 0.8230 0.8230 0.8250 0.8250
10.618445 0.8270 0.8280 0.8280 0.8300 0.8300
10.651000 0.8320 0.8320 0.8320 0.8320 0.8330
10.684445 0.8330 0.8350 0.8350 0.8350 0.8370
10.718000 0.8370 0.8370 0.8370 0.8370 0.8380
10.751445 0.8380 0.8380 0.8380 0.8380 0.8380
10.785000 0.8380 0.8370 0.8350 0.8300 0.8200
10.818445 0.8180 0.8150 0.8100 0.8070 0.8000
10.852000 0.7970 0.7920 0.7850 0.7770 0.7720
10.885445 0.7650 0.7640 0.7570 0.7550 0.7540
10.919000 0.7540 0.7540 0.7550 0.7550 0.7570
10.952445 0.7590 0.7600 0.7620 0.7670 0.7720
10.986000 0.7790 0.7800 0.7820 0.7850 0.7900
11.019445 0.7940 0.7970 0.8000 0.8000 0.8030
11.053000 0.8070 0.8100 0.8120 0.8130 0.8150
11.086445 0.8150 0.8150 0.8150 0.8150 0.8150
11.119000 0.8150 0.8130 0.8120 0.8100 0.8080
11.152445 0.8070 0.8030 0.7990 0.7970 0.7950
11.186000 0.7940 0.7900 0.7840 0.7770 0.7720
11.219445 0.7670 0.7620 0.7550 0.7470 0.7450
11.253000 0.7370 0.7340 0.7270 0.7220 0.7150
11.286445 0.7040 0.6940 0.6790 0.6670 0.6570
11.320000 0.6540 0.6440 0.6360 0.6290 0.6260
11.353445 0.6240 0.6220 0.6240 0.6270 0.6340
11.387000 0.6390 0.6520 0.6660 0.6770 0.6890
11.420445 0.6910 0.6960 0.6970 0.6990 0.7000
11.454000 0.7000 0.6990 0.6970 0.6960 0.6940
11.487445 0.6810 0.6740 0.6660 0.6590 0.6570
11.521000 0.6540 0.6460 0.6410 0.6340 0.6270
11.554445 0.6240 0.6220 0.6160 0.6140 0.6120
11.587000 0.6110 0.6110 0.6110 0.6160 0.6210
11.620445 0.6310 0.6410 0.6470 0.6570 0.6670
11.654000 0.6770 0.6870 0.6960 0.6970 0.7050
11.687445 0.7120 0.7150 0.7170 0.7240 0.7250
11.721000 0.7270 0.7290 0.7320 0.7350 0.7400
11.754445 0.7420 0.7420 0.7440 0.7440 0.7450
11.788000 0.7450 0.7440 0.7440 0.7420 0.7350
11.821445 0.7300 0.7250 0.7170 0.7050 0.6960
11.855000 0.6810 0.6640 0.6510 0.6360 0.6260
11.888445 0.6110 0.5990 0.5860 0.5760 0.5690
11.922000 0.5660 0.5640 0.5640 0.5680 0.5790
11.955445 0.5940 0.6070 0.6190 0.6320 0.6440
11.989000 0.6540 0.6670 0.6790 0.6920 0.6970
12.022445 0.7040 0.7090 0.7150 0.7190 0.7220
12.055000 0.7240 0.7240 0.7240 0.7250 0.7270
12.088445 0.7270 0.7290 0.7300 0.7320 0.7340
12.122000 0.7350 0.7370 0.7420 0.7440 0.7450
12.155445 0.7450 0.7450 0.7470 0.7490 0.7520
12.189000 0.7520 0.7550 0.7570 0.7570 0.7590
12.222445 0.7590 0.7590 0.7590 0.7590 0.7590
12.256000 0.7590 0.7590 0.7590 0.7590 0.7600
12.289445 0.7600 0.7620 0.7620 0.7620 0.7620
12.323000 0.7620 0.7620 0.7600 0.7600 0.7590
12.356445 0.7590 0.7570 0.7570 0.7550 0.7550
12.390000 0.7550 0.7540 0.7540 0.7500 0.7490
12.423445 0.7490 0.7490 0.7470 0.7470 0.7450
12.457000 0.7440 0.7440 0.7400 0.7390 0.7370
12.490445 0.7350 0.7350 0.7350 0.7350 0.7350
12.523000 0.7350 0.7340 0.7320 0.7270 0.7240
12.556445 0.7190 0.7150 0.7140 0.7090 0.7070
12.590000 0.7040 0.6990 0.6960 0.6920 0.6910
12.623445 0.6860 0.6820 0.6760 0.6690 0.6640
12.657000 0.6620 0.6590 0.6560 0.6540 0.6470
12.690445 0.6440 0.6370 0.6340 0.6290 0.6240
12.724000 0.6210 0.6170 0.6140 0.6120 0.6060
12.757445 0.6040 0.5990 0.5980 0.5980 0.5960
12.791000 0.5930 0.5890 0.5880 0.5860 0.5860
12.824445 0.5840 0.5840 0.5790 0.5760 0.5740
12.858000 0.5730 0.5730 0.5740 0.5740 0.5760
12.891445 0.5760 0.5760 0.5760 0.5760 0.5760
12.925000 0.5760 0.5740 0.5740 0.5730 0.5690
12.958445 0.5660 0.5640 0.5610 0.5590 0.5580
12.991000 0.5560 0.5540 0.5530 0.5480 0.5460
13.024445 0.5440 0.5440 0.5390 0.5360 0.5330
13.058000 0.5280 0.5260 0.5180 0.5140 0.5080
13.091445 0.5040 0.5010 0.4980 0.4960 0.4930
13.125000 0.4860 0.4760 0.4750 0.4680 0.4600
13.158445 0.4560 0.4510 0.4480 0.4460 0.4410
13.192000 0.4410 0.4350 0.4300 0.4210 0.4160
13.225445 0.4130 0.4080 0.4030 0.3980 0.3970
13.259000 0.3970 0.3950 0.3880 0.3850 0.3850
13.292445 0.3800 0.3770 0.3750 0.3730 0.3700
13.326000 0.3680 0.3670 0.3650 0.3630 0.3630
13.359445 0.3620 0.3620 0.3600 0.3600 0.3600
13.393000 0.3600 0.3600 0.3620 0.3620 0.3630
13.426445 0.3650 0.3670 0.3680 0.3680 0.3700
13.459000 0.3720 0.3730 0.3750 0.3770 0.3780
13.492445 0.3820 0.3830 0.3850 0.3870 0.3880
13.526000 0.3900 0.3930 0.3950 0.3950 0.3970
13.559445 0.3980 0.3980 0.4000 0.4010 0.4050
13.593000 0.4100 0.4110 0.4130 0.4130 0.4160
13.626445 0.4160 0.4160 0.4160 0.4160 0.4180
13.660000 0.4180 0.4180 0.4200 0.4200 0.4200
13.693445 0.4210 0.4210 0.4250 0.4250 0.4250
13.727000 0.4250 0.4250 0.4250 0.4250 0.4230
13.760445 0.4210 0.4210 0.4200 0.4200 0.4200
13.794000 0.4180 0.4180 0.4180 0.4160 0.4160
13.827445 0.4160 0.4160 0.4150 0.4150 0.4150
13.861000 0.4150 0.4150 0.4150 0.4150 0.4150
13.894445 0.4150 0.4160 0.4180 0.4200 0.4200
13.927000 0.4200 0.4200 0.4200 0.4200 0.4210
13.960445 0.4210 0.4230 0.4250 0.4260 0.4260
13.994000 0.4260 0.4280 0.4280 0.4260 0.4260
14.027445 0.4260 0.4260 0.4250 0.4250 0.4250
14.061000 0.4250 0.4260 0.4260 0.4260 0.4260
14.094445 0.4260 0.4260 0.4250 0.4250 0.4250
14.128000 0.4230 0.4230 0.4210 0.4210 0.4200
14.161445 0.4200 0.4210 0.4210 0.4210 0.4230
14.195000 0.4250 0.4250 0.4250 0.4200 0.4200
14.228445 0.4200 0.4200 0.4200 0.4210 0.4210
14.262000 0.4230 0.4230 0.4230 0.4230 0.4250
14.295445 0.4250 0.4250 0.4250 0.4260 0.4260
14.329000 0.4260 0.4260 0.4260 0.4260 0.4250
14.362445 0.4250 0.4230 0.4230 0.4230 0.4230
14.395000 0.4230 0.4210 0.4200 0.4180 0.4180
14.428445 0.4180 0.4180 0.4180 0.4180 0.4180
14.462000 0.4180 0.4180 0.4180 0.4160 0.4160
14.495445 0.4130 0.4110 0.4110 0.4100 0.4080
14.529000 0.4060 0.4050 0.4030 0.4010 0.4000
14.562445 0.3970 0.3950 0.3930 0.3920 0.3880
14.596000 0.3850 0.3800 0.3780 0.3730 0.3720
14.629445 0.3680 0.3630 0.3600 0.3570 0.3550
14.663000 0.3500 0.3480 0.3470 0.3430 0.3400
14.696445 0.3350 0.3300 0.3270 0.3250 0.3200
14.730000 0.3200 0.3180 0.3180 0.3170 0.3150
14.763445 0.3120 0.3100 0.3050 0.3030 0.3020
14.797000 0.3020 0.3020 0.3020 0.3030 0.3030
14.830445 0.3050 0.3070 0.3070 0.3080 0.3100
14.863000 0.3120 0.3120 0.3130 0.3150 0.3150
14.896445 0.3170 0.3170 0.3180 0.3200 0.3220
14.930000 0.3220 0.3250 0.3280 0.3320 0.3330
14.963445 0.3330 0.3350 0.3350 0.3350 0.3350
14.997000 0.3370 0.3370 0.3380 0.3380 0.3380
15.030445 0.3380 0.3380 0.3380 0.3380 0.3380
15.064000 0.3380 0.3380 0.3380 0.3380 0.3380
15.097445 0.3380 0.3380 0.3380 0.3370 0.3350
15.131000 0.3350 0.3350 0.3350 0.3350 0.3350
15.164445 0.3350 0.3370 0.3370 0.3370 0.3380
15.198000 0.3380 0.3380 0.3380 0.3380 0.3380
15.231445 0.3380 0.3380 0.3380 0.3380 0.3380
15.265000 0.3380 0.3380 0.3380 0.3380 0.3380
15.298445 0.3380 0.3380 0.3380 0.3380 0.3380
15.331000 0.3380 0.3400 0.3400 0.3420 0.3420
15.364445 0.3430 0.3450 0.3450 0.3450 0.3450
15.398000 0.3450 0.3430 0.3420 0.3400 0.3370
15.431445 0.3350 0.3350 0.3350 0.3320 0.3280
15.465000 0.3250 0.3250 0.3200 0.3180 0.3180
15.498445 0.3170 0.3170 0.3130 0.3120 0.3120
15.532000 0.3100 0.3100 0.3100 0.3100 0.3100
15.565445 0.3080 0.3080 0.3070 0.3050 0.3030
15.599000 0.3030 0.3000 0.3000 0.2990 0.2970
15.632445 0.2950 0.2950 0.2940 0.2920 0.2900
15.666000 0.2870 0.2870 0.2850 0.2840 0.2840
15.699445 0.2840 0.2840 0.2820 0.2790 0.2790
15.733000 0.2770 0.2750 0.2750 0.2750 0.2750
15.766445 0.2750 0.2750 0.2750 0.2750 0.2750
15.799000 0.2750 0.2750 0.2740 0.2720 0.2720
15.832445 0.2700 0.2690 0.2690 0.2670 0.2650
15.866000 0.2650 0.2650 0.2650 0.2650 0.2650
15.899445 0.2650 0.2670 0.2690 0.2700 0.2720
15.933000 0.2740 0.2750 0.2750
##END=
