##TITLE=1-CYCLOPENTADIENYL-5-PHENYL-1,1,3,3,5,5-HEXAMETHYL TRISILOXANE
##JCAMP-DX=4.24
##DATA TYPE=INFRARED SPECTRUM
##CLASS=COBLENTZ
##ORIGIN=WYANDOTTE CHEMICALS CORP., WYANDOTTE, MICHIGAN, USA
##OWNER=COBLENTZ SOCIETY
Collection (C) 2018 copyright by the U.S. Secretary of Commerce
on behalf of the United States of America. All rights reserved.
##DATE=Not specified, most likely prior to 1970
##NAMES=1-(2,4-cyclopentadien-1-yl)-1,1,3,3,5,5-hexamethyl-5-phenyltrisiloxane
##MOLFORM=C17 H28 O2 Si3
##SOURCE REFERENCE=COBLENTZ NO. 2874
##$NIST ID=B6002874
##$NIST SOURCE=COBLENTZ
##$NIST IMAGE=cob2874
##SPECTROMETER/DATA SYSTEM=Not specified, most likely a prism, grating, or hybrid spectrometer.
##STATE=LIQUID
##PATH LENGTH=CAPILLARY
##SAMPLING PROCEDURE=TRANSMISSION
##RESOLUTION=4
##DATA PROCESSING=DIGITIZED BY NIST FROM HARD COPY
##XUNITS=MICROMETERS
##YUNITS=TRANSMITTANCE
##XFACTOR=1.000000
##YFACTOR=1
##DELTAX=000.006629
##FIRSTX=2.04
##LASTX=15.9932
##FIRSTY=0.915
##MAXX=15.9932
##MINX=2.04
##MAXY=0.973
##MINY=0.069
##NPOINTS=2106
##XYDATA=(X++(Y..Y))
2.040000 0.9150 0.9150 0.9150 0.9150 0.9150
2.073160 0.9160 0.9160 0.9160 0.9160 0.9160
2.106000 0.9180 0.9200 0.9210 0.9210 0.9230
2.139160 0.9230 0.9250 0.9250 0.9230 0.9230
2.172000 0.9230 0.9210 0.9210 0.9210 0.9210
2.205160 0.9210 0.9210 0.9210 0.9230 0.9230
2.239000 0.9230 0.9230 0.9230 0.9230 0.9230
2.272160 0.9250 0.9250 0.9260 0.9260 0.9260
2.305000 0.9280 0.9280 0.9280 0.9280 0.9280
2.338160 0.9280 0.9280 0.9280 0.9260 0.9260
2.371000 0.9260 0.9260 0.9260 0.9260 0.9260
2.404160 0.9260 0.9260 0.9260 0.9260 0.9260
2.437000 0.9280 0.9280 0.9280 0.9280 0.9280
2.470160 0.9280 0.9300 0.9300 0.9300 0.9300
2.504000 0.9300 0.9310 0.9310 0.9310 0.9310
2.537160 0.9330 0.9330 0.9330 0.9330 0.9330
2.570000 0.9330 0.9330 0.9330 0.9330 0.9310
2.603160 0.9310 0.9310 0.9310 0.9300 0.9300
2.636000 0.9300 0.9300 0.9300 0.9300 0.9300
2.669160 0.9300 0.9300 0.9300 0.9300 0.9300
2.703000 0.9300 0.9300 0.9300 0.9310 0.9310
2.736160 0.9310 0.9310 0.9310 0.9310 0.9310
2.769000 0.9310 0.9310 0.9310 0.9310 0.9310
2.802160 0.9310 0.9310 0.9330 0.9330 0.9330
2.835000 0.9310 0.9310 0.9310 0.9310 0.9300
2.868160 0.9300 0.9300 0.9280 0.9280 0.9260
2.902000 0.9250 0.9250 0.9230 0.9230 0.9230
2.935160 0.9230 0.9230 0.9230 0.9230 0.9250
2.968000 0.9250 0.9250 0.9250 0.9250 0.9250
3.001160 0.9260 0.9260 0.9280 0.9280 0.9280
3.034000 0.9280 0.9280 0.9280 0.9280 0.9280
3.067160 0.9280 0.9280 0.9280 0.9280 0.9280
3.100000 0.9280 0.9280 0.9280 0.9280 0.9260
3.133160 0.9260 0.9250 0.9250 0.9210 0.9200
3.167000 0.9180 0.9150 0.9130 0.9080 0.9030
3.200160 0.9000 0.8930 0.8870 0.8870 0.8620
3.233000 0.8230 0.7940 0.7650 0.7570 0.7550
3.266160 0.7570 0.8130 0.8350 0.8350 0.8350
3.299000 0.8320 0.8250 0.8230 0.8220 0.8200
3.332160 0.7720 0.7140 0.6560 0.5790 0.5360
3.366000 0.5340 0.5360 0.7320 0.7840 0.7940
3.399160 0.8230 0.8230 0.8230 0.8150 0.7940
3.432000 0.7920 0.7940 0.8180 0.8450 0.8550
3.465160 0.8600 0.8670 0.8780 0.8900 0.8980
3.498000 0.9010 0.9010 0.9010 0.9010 0.9030
3.531160 0.9060 0.9130 0.9160 0.9180 0.9200
3.564000 0.9200 0.9210 0.9230 0.9260 0.9280
3.597160 0.9310 0.9330 0.9350 0.9350 0.9360
3.631000 0.9360 0.9400 0.9410 0.9410 0.9410
3.664160 0.9410 0.9410 0.9410 0.9410 0.9410
3.697000 0.9410 0.9410 0.9430 0.9430 0.9480
3.730160 0.9500 0.9510 0.9510 0.9510 0.9510
3.763000 0.9480 0.9480 0.9460 0.9460 0.9460
3.796160 0.9500 0.9530 0.9600 0.9600 0.9600
3.830000 0.9610 0.9630 0.9630 0.9630 0.9630
3.863160 0.9630 0.9630 0.9630 0.9630 0.9630
3.896000 0.9610 0.9610 0.9610 0.9600 0.9600
3.929160 0.9600 0.9600 0.9600 0.9600 0.9600
3.962000 0.9600 0.9600 0.9600 0.9600 0.9600
3.995160 0.9600 0.9600 0.9600 0.9580 0.9580
4.028000 0.9580 0.9580 0.9580 0.9580 0.9580
4.061160 0.9580 0.9580 0.9580 0.9600 0.9600
4.095000 0.9600 0.9600 0.9600 0.9600 0.9610
4.128160 0.9610 0.9610 0.9610 0.9610 0.9610
4.161000 0.9610 0.9610 0.9610 0.9610 0.9610
4.194160 0.9610 0.9610 0.9630 0.9630 0.9650
4.227000 0.9650 0.9650 0.9660 0.9680 0.9680
4.260160 0.9700 0.9700 0.9710 0.9710 0.9710
4.294000 0.9710 0.9710 0.9710 0.9710 0.9710
4.327160 0.9700 0.9680 0.9650 0.9650 0.9630
4.360000 0.9600 0.9600 0.9580 0.9580 0.9580
4.393160 0.9580 0.9600 0.9600 0.9600 0.9600
4.426000 0.9610 0.9610 0.9630 0.9630 0.9650
4.459160 0.9650 0.9660 0.9680 0.9680 0.9680
4.492000 0.9680 0.9680 0.9660 0.9650 0.9650
4.525160 0.9630 0.9630 0.9650 0.9650 0.9680
4.559000 0.9680 0.9700 0.9700 0.9700 0.9700
4.592160 0.9700 0.9700 0.9700 0.9700 0.9700
4.625000 0.9680 0.9660 0.9660 0.9650 0.9650
4.658160 0.9650 0.9660 0.9660 0.9680 0.9680
4.691000 0.9680 0.9680 0.9680 0.9700 0.9700
4.724160 0.9700 0.9700 0.9700 0.9700 0.9710
4.758000 0.9710 0.9710 0.9710 0.9710 0.9710
4.791160 0.9730 0.9730 0.9730 0.9730 0.9730
4.824000 0.9730 0.9730 0.9730 0.9710 0.9710
4.857160 0.9700 0.9680 0.9650 0.9630 0.9630
4.890000 0.9630 0.9610 0.9610 0.9610 0.9610
4.923160 0.9610 0.9610 0.9610 0.9610 0.9630
4.956000 0.9630 0.9650 0.9650 0.9660 0.9660
4.989160 0.9680 0.9680 0.9680 0.9700 0.9700
5.023000 0.9710 0.9730 0.9730 0.9710 0.9700
5.056160 0.9700 0.9680 0.9680 0.9680 0.9680
5.089000 0.9680 0.9680 0.9660 0.9650 0.9650
5.122160 0.9630 0.9610 0.9610 0.9580 0.9530
5.155000 0.9480 0.9460 0.9430 0.9400 0.9380
5.188160 0.9380 0.9400 0.9410 0.9430 0.9500
5.222000 0.9530 0.9550 0.9580 0.9600 0.9610
5.255160 0.9610 0.9610 0.9610 0.9580 0.9560
5.288000 0.9530 0.9510 0.9500 0.9480 0.9500
5.321160 0.9510 0.9580 0.9600 0.9600 0.9610
5.354000 0.9610 0.9610 0.9650 0.9650 0.9680
5.387160 0.9700 0.9700 0.9700 0.9700 0.9700
5.420000 0.9700 0.9680 0.9680 0.9680 0.9660
5.453160 0.9650 0.9630 0.9610 0.9600 0.9600
5.487000 0.9580 0.9560 0.9530 0.9500 0.9480
5.520160 0.9450 0.9430 0.9430 0.9430 0.9460
5.553000 0.9500 0.9530 0.9560 0.9600 0.9610
5.586160 0.9650 0.9650 0.9650 0.9630 0.9630
5.619000 0.9610 0.9610 0.9610 0.9600 0.9600
5.652160 0.9580 0.9560 0.9550 0.9510 0.9500
5.686000 0.9500 0.9480 0.9460 0.9460 0.9460
5.719160 0.9460 0.9450 0.9450 0.9430 0.9410
5.752000 0.9410 0.9410 0.9410 0.9410 0.9410
5.785160 0.9410 0.9410 0.9430 0.9430 0.9450
5.818000 0.9450 0.9450 0.9450 0.9450 0.9450
5.851160 0.9450 0.9430 0.9430 0.9410 0.9400
5.884000 0.9360 0.9330 0.9330 0.9350 0.9360
5.917160 0.9400 0.9400 0.9400 0.9380 0.9330
5.951000 0.9300 0.9300 0.9280 0.9260 0.9260
5.984160 0.9250 0.9250 0.9230 0.9200 0.9160
6.017000 0.9130 0.9110 0.9100 0.9100 0.9080
6.050160 0.9050 0.9050 0.9060 0.9100 0.9130
6.083000 0.9110 0.9060 0.9000 0.9000 0.8950
6.116160 0.8930 0.8930 0.8930 0.8930 0.8930
6.150000 0.8930 0.8950 0.8950 0.8950 0.8980
6.183160 0.9000 0.9030 0.9010 0.9000 0.9000
6.216000 0.8970 0.8950 0.8930 0.8880 0.8870
6.249160 0.8870 0.8900 0.8930 0.8950 0.9050
6.282000 0.9050 0.9060 0.9080 0.9080 0.9010
6.315160 0.9010 0.8980 0.8980 0.9000 0.9000
6.348000 0.9010 0.9030 0.9080 0.9110 0.9160
6.381160 0.9160 0.9150 0.9110 0.9080 0.9080
6.415000 0.9080 0.9110 0.9200 0.9210 0.9250
6.448160 0.9250 0.9160 0.9150 0.9150 0.9150
6.481000 0.9180 0.9230 0.9330 0.9330 0.9300
6.514160 0.9280 0.9280 0.9280 0.9200 0.9160
6.547000 0.9160 0.9160 0.9180 0.9180 0.9210
6.580160 0.9210 0.9260 0.9300 0.9280 0.9150
6.614000 0.9100 0.9080 0.9080 0.9100 0.9130
6.647160 0.9180 0.9200 0.9180 0.9110 0.9050
6.680000 0.8920 0.8870 0.8850 0.8850 0.8880
6.713160 0.8930 0.8980 0.8980 0.8980 0.8980
6.746000 0.8980 0.8970 0.8950 0.8930 0.8870
6.779160 0.8780 0.8720 0.8630 0.8620 0.8600
6.812000 0.8600 0.8630 0.8650 0.8700 0.8720
6.845160 0.8730 0.8720 0.8720 0.8700 0.8700
6.879000 0.8680 0.8670 0.8670 0.8650 0.8650
6.912160 0.8630 0.8630 0.8630 0.8620 0.8600
6.945000 0.8430 0.8300 0.8170 0.7320 0.7040
6.978160 0.6920 0.6910 0.6920 0.7390 0.7700
7.011000 0.7990 0.8020 0.8080 0.8100 0.8080
7.044160 0.7940 0.7840 0.7790 0.7740 0.7700
7.078000 0.7690 0.7690 0.7720 0.7740 0.7800
7.111160 0.7890 0.7970 0.8000 0.8020 0.8100
7.144000 0.8120 0.8170 0.8230 0.8350 0.8350
7.177160 0.8400 0.8420 0.8430 0.8470 0.8470
7.210000 0.8450 0.8420 0.8420 0.8430 0.8470
7.243160 0.8500 0.8530 0.8550 0.8570 0.8580
7.277000 0.8600 0.8600 0.8620 0.8630 0.8630
7.310160 0.8670 0.8670 0.8680 0.8730 0.8850
7.343000 0.8880 0.8930 0.8970 0.8980 0.8980
7.376160 0.8980 0.8980 0.8980 0.8970 0.8930
7.409000 0.8880 0.8770 0.8720 0.8700 0.8700
7.442160 0.8720 0.8720 0.8730 0.8730 0.8750
7.475000 0.8800 0.8850 0.8900 0.8950 0.8980
7.508160 0.8980 0.9000 0.9000 0.9000 0.8980
7.542000 0.8980 0.8980 0.8970 0.8900 0.8880
7.575160 0.8850 0.8850 0.8850 0.8850 0.8850
7.608000 0.8830 0.8830 0.8830 0.8830 0.8830
7.641160 0.8830 0.8820 0.8780 0.8770 0.8720
7.674000 0.8700 0.8680 0.8670 0.8670 0.8630
7.707160 0.8620 0.8620 0.8600 0.8580 0.8550
7.741000 0.8520 0.8500 0.8500 0.8500 0.8500
7.774160 0.8500 0.8470 0.8450 0.8400 0.8330
7.807000 0.8330 0.8270 0.8100 0.8020 0.7970
7.840160 0.7840 0.7600 0.7400 0.7220 0.6840
7.873000 0.6440 0.5930 0.5190 0.4800 0.4400
7.906160 0.3580 0.2720 0.2090 0.1740 0.1290
7.939000 0.1220 0.1220 0.1240 0.1420 0.1620
7.972160 0.1840 0.1940 0.2200 0.2490 0.3080
8.006000 0.3600 0.4100 0.4610 0.5910 0.6340
8.039160 0.6560 0.7000 0.7270 0.7540 0.7720
8.072000 0.7890 0.8020 0.8120 0.8220 0.8320
8.105160 0.8350 0.8430 0.8520 0.8530 0.8570
8.138000 0.8600 0.8680 0.8720 0.8720 0.8730
8.171160 0.8770 0.8770 0.8800 0.8820 0.8820
8.205000 0.8830 0.8830 0.8870 0.8870 0.8900
8.238160 0.8900 0.8880 0.8870 0.8870 0.8850
8.271000 0.8850 0.8850 0.8830 0.8830 0.8820
8.304160 0.8820 0.8820 0.8820 0.8820 0.8830
8.337000 0.8850 0.8870 0.8870 0.8850 0.8850
8.370160 0.8830 0.8830 0.8830 0.8830 0.8800
8.403000 0.8800 0.8800 0.8820 0.8870 0.8880
8.436160 0.8880 0.8880 0.8880 0.8880 0.8880
8.470000 0.8900 0.8900 0.8880 0.8880 0.8850
8.503160 0.8830 0.8820 0.8800 0.8800 0.8770
8.536000 0.8730 0.8720 0.8720 0.8680 0.8670
8.569160 0.8650 0.8620 0.8600 0.8550 0.8500
8.602000 0.8400 0.8380 0.8350 0.8330 0.8330
8.635160 0.8270 0.8250 0.8230 0.8200 0.8170
8.669000 0.8100 0.8070 0.8020 0.7990 0.7920
8.702160 0.7890 0.7890 0.7800 0.7790 0.7770
8.735000 0.7620 0.7600 0.7590 0.7520 0.7420
8.768160 0.7350 0.7300 0.7200 0.7050 0.6940
8.801000 0.6810 0.6660 0.6560 0.6510 0.6360
8.834160 0.6040 0.5760 0.5580 0.5360 0.5060
8.867000 0.4960 0.4850 0.4500 0.4000 0.3470
8.900160 0.2900 0.2590 0.2290 0.2270 0.2270
8.934000 0.2390 0.2670 0.2920 0.3250 0.3500
8.967160 0.3600 0.3720 0.3870 0.3870 0.3820
9.000000 0.3780 0.3770 0.3680 0.3480 0.3330
9.033160 0.3280 0.3150 0.2970 0.2870 0.2740
9.066000 0.2520 0.2450 0.2390 0.2340 0.2270
9.099160 0.2100 0.2020 0.1990 0.1890 0.1870
9.133000 0.1820 0.1770 0.1720 0.1710 0.1660
9.166160 0.1660 0.1640 0.1570 0.1540 0.1490
9.199000 0.1390 0.1310 0.1290 0.1290 0.1290
9.232160 0.1270 0.1260 0.1260 0.1240 0.1220
9.265000 0.1210 0.1210 0.1190 0.1170 0.1170
9.298160 0.1170 0.1170 0.1160 0.1160 0.1160
9.331000 0.1160 0.1140 0.1110 0.1110 0.1060
9.364160 0.1040 0.1010 0.0980 0.0980 0.0960
9.398000 0.0940 0.0930 0.0930 0.0890 0.0880
9.431160 0.0880 0.0840 0.0840 0.0830 0.0810
9.464000 0.0810 0.0790 0.0780 0.0740 0.0730
9.497160 0.0710 0.0690 0.0690 0.0690 0.0690
9.530000 0.0710 0.0730 0.0740 0.0740 0.0760
9.563160 0.0780 0.0780 0.0790 0.0810 0.0810
9.597000 0.0830 0.0880 0.0890 0.0910 0.0980
9.630160 0.0980 0.1020 0.1090 0.1170 0.1310
9.663000 0.1470 0.1490 0.1620 0.1720 0.1770
9.696160 0.1870 0.1910 0.1920 0.1940 0.1990
9.729000 0.2090 0.2240 0.2370 0.2520 0.2620
9.762160 0.2700 0.2890 0.3200 0.3300 0.3380
9.795000 0.3630 0.3830 0.4010 0.4110 0.4180
9.828160 0.4300 0.4450 0.4530 0.4580 0.4630
9.862000 0.4630 0.4650 0.4680 0.4800 0.4960
9.895160 0.5230 0.5440 0.5530 0.5680 0.5810
9.928000 0.5980 0.6020 0.6140 0.6170 0.6240
9.961160 0.6320 0.6370 0.6370 0.6370 0.6290
9.994000 0.6190 0.6070 0.5840 0.5660 0.5630
10.027160 0.5610 0.5610 0.5640 0.5790 0.5910
10.061000 0.5930 0.5930 0.5930 0.5930 0.5890
10.094160 0.5880 0.5860 0.5840 0.5810 0.5730
10.127000 0.5690 0.5660 0.5610 0.5480 0.5410
10.160160 0.5310 0.5180 0.5110 0.5010 0.5000
10.193000 0.4960 0.4830 0.4660 0.4580 0.4500
10.226160 0.4410 0.4350 0.4330 0.4300 0.4200
10.259000 0.4150 0.4130 0.4130 0.4150 0.4210
10.292160 0.4310 0.4480 0.4560 0.4630 0.4760
10.326000 0.4980 0.5190 0.5290 0.5540 0.5760
10.359160 0.5890 0.6040 0.6170 0.6190 0.6260
10.392000 0.6440 0.6620 0.6710 0.6770 0.6890
10.425160 0.6920 0.6920 0.6920 0.6910 0.6890
10.458000 0.6870 0.6760 0.6620 0.6520 0.6390
10.491160 0.6120 0.5880 0.5710 0.5480 0.5090
10.525000 0.4960 0.4830 0.4750 0.4610 0.4600
10.558160 0.4600 0.4630 0.4900 0.5510 0.5680
10.591000 0.5930 0.6120 0.6440 0.6610 0.6740
10.624160 0.7040 0.7170 0.7220 0.7370 0.7500
10.657000 0.7650 0.7670 0.7770 0.7850 0.7870
10.690160 0.7940 0.7970 0.8000 0.8020 0.8080
10.723000 0.8130 0.8180 0.8200 0.8220 0.8250
10.756160 0.8270 0.8270 0.8280 0.8280 0.8300
10.790000 0.8300 0.8300 0.8320 0.8330 0.8350
10.823160 0.8370 0.8380 0.8380 0.8400 0.8400
10.856000 0.8380 0.8380 0.8380 0.8380 0.8380
10.889160 0.8380 0.8380 0.8380 0.8370 0.8350
10.922000 0.8320 0.8300 0.8270 0.8250 0.8250
10.955160 0.8230 0.8220 0.8200 0.8180 0.8150
10.989000 0.8050 0.7940 0.7800 0.7690 0.7490
11.022160 0.7440 0.7300 0.7220 0.7190 0.7170
11.055000 0.7190 0.7240 0.7300 0.7370 0.7420
11.088160 0.7500 0.7590 0.7600 0.7600 0.7600
11.121000 0.7600 0.7590 0.7570 0.7550 0.7490
11.154160 0.7470 0.7450 0.7450 0.7450 0.7470
11.188000 0.7490 0.7540 0.7590 0.7640 0.7670
11.221160 0.7700 0.7740 0.7770 0.7790 0.7800
11.254000 0.7800 0.7820 0.7840 0.7840 0.7840
11.287160 0.7820 0.7820 0.7770 0.7740 0.7740
11.320000 0.7740 0.7700 0.7650 0.7600 0.7590
11.353160 0.7590 0.7570 0.7550 0.7520 0.7390
11.386000 0.7320 0.7300 0.7290 0.7220 0.7120
11.419160 0.7100 0.7050 0.7020 0.6990 0.6970
11.453000 0.6910 0.6860 0.6790 0.6760 0.6710
11.486160 0.6640 0.6520 0.6490 0.6490 0.6360
11.519000 0.6290 0.6240 0.6190 0.6090 0.5990
11.552160 0.5910 0.5810 0.5690 0.5630 0.5540
11.585000 0.5480 0.5430 0.5260 0.5160 0.5090
11.618160 0.5040 0.5000 0.4930 0.4830 0.4730
11.652000 0.4680 0.4530 0.4330 0.4250 0.4160
11.685160 0.4100 0.4080 0.4050 0.4010 0.4000
11.718000 0.4000 0.3980 0.3980 0.4000 0.4010
11.751160 0.4100 0.4160 0.4180 0.4180 0.4200
11.784000 0.4210 0.4230 0.4260 0.4310 0.4380
11.817160 0.4410 0.4450 0.4480 0.4480 0.4500
11.850000 0.4510 0.4530 0.4550 0.4550 0.4560
11.883160 0.4560 0.4560 0.4580 0.4580 0.4580
11.917000 0.4550 0.4430 0.4410 0.4400 0.4380
11.950160 0.4310 0.4210 0.4100 0.3980 0.3880
11.983000 0.3820 0.3670 0.3550 0.3400 0.3180
12.016160 0.3050 0.2990 0.2900 0.2800 0.2700
12.049000 0.2670 0.2570 0.2490 0.2400 0.2390
12.082160 0.2390 0.2400 0.2420 0.2470 0.2470
12.116000 0.2540 0.2670 0.2740 0.2800 0.2870
12.149160 0.2900 0.2990 0.3080 0.3130 0.3180
12.182000 0.3250 0.3250 0.3250 0.3220 0.3200
12.215160 0.3100 0.3050 0.3030 0.3020 0.2970
12.248000 0.2870 0.2840 0.2840 0.2840 0.2840
12.281160 0.2850 0.2850 0.2890 0.2900 0.2920
12.314000 0.2920 0.2920 0.2920 0.2900 0.2900
12.347160 0.2870 0.2790 0.2740 0.2670 0.2600
12.381000 0.2490 0.2390 0.2350 0.2300 0.2240
12.414160 0.2120 0.2000 0.1910 0.1820 0.1810
12.447000 0.1770 0.1710 0.1610 0.1420 0.1410
12.480160 0.1370 0.1310 0.1270 0.1260 0.1210
12.513000 0.1170 0.1120 0.1070 0.0990 0.0910
12.546160 0.0890 0.0890 0.0880 0.0860 0.0860
12.580000 0.0840 0.0840 0.0840 0.0830 0.0810
12.613160 0.0810 0.0810 0.0810 0.0830 0.0840
12.646000 0.0860 0.0880 0.0910 0.0930 0.0990
12.679160 0.1040 0.1120 0.1210 0.1320 0.1420
12.712000 0.1470 0.1640 0.1690 0.1740 0.1870
12.745160 0.2070 0.2140 0.2200 0.2290 0.2390
12.778000 0.2470 0.2570 0.2670 0.2870 0.2990
12.811160 0.3050 0.3100 0.3330 0.3480 0.3500
12.845000 0.3700 0.3920 0.3980 0.4150 0.4360
12.878160 0.4580 0.4680 0.4800 0.4930 0.5210
12.911000 0.5290 0.5410 0.5510 0.5590 0.5690
12.944160 0.5890 0.5930 0.6010 0.6110 0.6140
12.977000 0.6160 0.6210 0.6290 0.6370 0.6420
13.010160 0.6440 0.6460 0.6460 0.6440 0.6420
13.044000 0.6420 0.6410 0.6240 0.6210 0.6210
13.077160 0.6160 0.6060 0.6020 0.5910 0.5690
13.110000 0.5640 0.5530 0.5390 0.5260 0.5180
13.143160 0.5130 0.5110 0.5010 0.5010 0.5000
13.176000 0.5000 0.5080 0.5110 0.5210 0.5340
13.209160 0.5460 0.5510 0.5630 0.5810 0.5880
13.242000 0.5910 0.6040 0.6160 0.6190 0.6240
13.275160 0.6290 0.6340 0.6410 0.6470 0.6490
13.309000 0.6490 0.6490 0.6490 0.6460 0.6410
13.342160 0.6390 0.6360 0.6310 0.6210 0.6170
13.375000 0.6110 0.6010 0.5940 0.5790 0.5690
13.408160 0.5640 0.5510 0.5330 0.5280 0.5260
13.441000 0.5180 0.5080 0.5040 0.5030 0.5030
13.474160 0.5030 0.5060 0.5060 0.5110 0.5130
13.508000 0.5160 0.5260 0.5290 0.5310 0.5330
13.541160 0.5360 0.5390 0.5480 0.5510 0.5540
13.574000 0.5560 0.5580 0.5610 0.5640 0.5680
13.607160 0.5690 0.5710 0.5730 0.5740 0.5780
13.640000 0.5810 0.5810 0.5810 0.5810 0.5790
13.673160 0.5780 0.5780 0.5780 0.5760 0.5730
13.706000 0.5680 0.5630 0.5610 0.5590 0.5540
13.739160 0.5510 0.5410 0.5310 0.5280 0.5240
13.773000 0.5160 0.5080 0.5030 0.5010 0.5000
13.806160 0.4960 0.4900 0.4830 0.4780 0.4750
13.839000 0.4730 0.4700 0.4680 0.4680 0.4680
13.872160 0.4680 0.4710 0.4780 0.4780 0.4860
13.905000 0.4960 0.5080 0.5180 0.5240 0.5330
13.938160 0.5380 0.5480 0.5540 0.5610 0.5640
13.972000 0.5730 0.5760 0.5790 0.5830 0.5880
14.005160 0.5910 0.5940 0.5960 0.5960 0.5980
14.038000 0.5980 0.5960 0.5940 0.5940 0.5930
14.071160 0.5890 0.5810 0.5790 0.5780 0.5740
14.104000 0.5710 0.5640 0.5610 0.5530 0.5480
14.137160 0.5380 0.5230 0.5190 0.5130 0.5030
14.170000 0.5010 0.4980 0.4910 0.4860 0.4780
14.203160 0.4650 0.4530 0.4480 0.4400 0.4350
14.237000 0.4330 0.4310 0.4200 0.4110 0.4000
14.270160 0.3980 0.3970 0.3880 0.3780 0.3770
14.303000 0.3750 0.3670 0.3600 0.3570 0.3500
14.336160 0.3470 0.3380 0.3330 0.3300 0.3250
14.369000 0.3230 0.3200 0.3200 0.3200 0.3220
14.402160 0.3270 0.3280 0.3330 0.3370 0.3420
14.436000 0.3500 0.3650 0.3680 0.3800 0.3970
14.469160 0.4030 0.4100 0.4160 0.4250 0.4350
14.502000 0.4480 0.4500 0.4630 0.4700 0.4730
14.535160 0.4780 0.4810 0.4910 0.4980 0.5000
14.568000 0.5080 0.5110 0.5180 0.5210 0.5280
14.601160 0.5290 0.5340 0.5380 0.5410 0.5530
14.634000 0.5580 0.5580 0.5610 0.5690 0.5740
14.667160 0.5760 0.5830 0.5880 0.5980 0.5990
14.701000 0.6020 0.6090 0.6110 0.6110 0.6140
14.734160 0.6170 0.6220 0.6260 0.6310 0.6360
14.767000 0.6390 0.6420 0.6470 0.6490 0.6510
14.800160 0.6590 0.6660 0.6670 0.6670 0.6690
14.833000 0.6710 0.6720 0.6740 0.6790 0.6810
14.866160 0.6820 0.6870 0.6940 0.6970 0.6970
14.900000 0.6990 0.7000 0.7000 0.7020 0.7040
14.933160 0.7040 0.7070 0.7100 0.7120 0.7120
14.966000 0.7170 0.7170 0.7170 0.7170 0.7170
14.999160 0.7170 0.7170 0.7170 0.7150 0.7140
15.032000 0.7120 0.7090 0.7090 0.7070 0.7050
15.065160 0.7050 0.7050 0.7070 0.7070 0.7100
15.098000 0.7100 0.7140 0.7170 0.7250 0.7370
15.131160 0.7420 0.7440 0.7440 0.7450 0.7470
15.165000 0.7470 0.7490 0.7500 0.7500 0.7520
15.198160 0.7540 0.7550 0.7570 0.7570 0.7590
15.231000 0.7620 0.7620 0.7620 0.7600 0.7600
15.264160 0.7590 0.7590 0.7590 0.7590 0.7590
15.297000 0.7550 0.7540 0.7520 0.7500 0.7500
15.330160 0.7490 0.7490 0.7490 0.7450 0.7440
15.364000 0.7440 0.7400 0.7400 0.7390 0.7390
15.397160 0.7390 0.7390 0.7400 0.7400 0.7400
15.430000 0.7400 0.7400 0.7420 0.7420 0.7420
15.463160 0.7420 0.7400 0.7390 0.7370 0.7340
15.496000 0.7340 0.7320 0.7320 0.7340 0.7350
15.529160 0.7370 0.7370 0.7370 0.7390 0.7390
15.563000 0.7400 0.7400 0.7400 0.7400 0.7400
15.596160 0.7420 0.7470 0.7490 0.7500 0.7500
15.629000 0.7550 0.7640 0.7640 0.7640 0.7600
15.662160 0.7600 0.7590 0.7590 0.7640 0.7690
15.695000 0.7740 0.7750 0.7750 0.7740 0.7720
15.728160 0.7720 0.7720 0.7700 0.7700 0.7700
15.761000 0.7690 0.7690 0.7690 0.7700 0.7700
15.794160 0.7700 0.7700 0.7720 0.7720 0.7720
15.828000 0.7700 0.7690 0.7650 0.7640 0.7600
15.861160 0.7590 0.7590 0.7590 0.7590 0.7590
15.894000 0.7590 0.7590 0.7600 0.7600 0.7590
15.927160 0.7570 0.7570 0.7550 0.7550 0.7550
15.960000 0.7540 0.7520 0.7520 0.7520 0.7540
15.993160 0.7520
##END=
