##TITLE=Phenol, 4-(2-aminopropyl), N-methyl-, hydrogen sulfate
##JCAMP-DX=4.24
$$ By DXEDIT 1.05 (RS McDonald)
##DATA TYPE=INFRARED SPECTRUM
##CLASS=COBLENTZ III
##ORIGIN=DOW CHEMICAL COMPANY
##OWNER=COPYRIGHT (C) 1988 by COBLENTZ SOCIETY INC.
Collection (C) 2018 copyright by the U.S. Secretary of Commerce
on behalf of the United States of America. All rights reserved.
##DATE=1969/11/25
##MOLFORM=C20 H32 N2 O6 S
##SOURCE REFERENCE=COBLENTZ NO. 09973
##$NIST ID=B6009973
##$NIST SOURCE=COBLENTZ
##$NIST IMAGE=cob9973
##SPECTROMETER/DATA SYSTEM=DOW KBr FOREPRISM-GRATING
##INSTRUMENT PARAMETERS=BLAZED AT 3.5, 12.0, 20.0 MICRON AND CHANGED AT 5.0, 7.5, 14.9 MICRON
##STATE=SOLID (SPLIT MULL), FLUOROLUBE FOR 3800-1330 CM^-^1, NUJOL FOR 1330-400 CM^-^1
##SAMPLING PROCEDURE=TRANSMISSION
##RESOLUTION=2
##DATA PROCESSING=DIGITIZED BY COBLENTZ SOCIETY (BATCH I) FROM HARD COPY
##XUNITS=1/CM
##YUNITS=TRANSMITTANCE
##XFACTOR=1
##YFACTOR=1
##DELTAX=1
##FIRSTX=3800
##LASTX=384
##FIRSTY=0.6875
##MAXX=3800
##MINX=384
##MAXY=0.8812
##MINY=0.0333
##NPOINTS=3417
##XYDATA=(X++(Y..Y))
3800.000000 0.6875 0.6875 0.6878 0.6881 0.6885
3795.000000 0.6888 0.6892 0.6895 0.6899 0.6901
3790.000000 0.6906 0.6910 0.6914 0.6917 0.6921
3785.000000 0.6924 0.6928 0.6931 0.6935 0.6937
3780.000000 0.6940 0.6943 0.6946 0.6949 0.6951
3775.000000 0.6954 0.6957 0.6960 0.6962 0.6965
3770.000000 0.6968 0.6971 0.6974 0.6976 0.6980
3765.000000 0.6982 0.6984 0.6986 0.6988 0.6990
3760.000000 0.6994 0.6995 0.6997 0.6999 0.7001
3755.000000 0.7003 0.7005 0.7007 0.7010 0.7011
3750.000000 0.7014 0.7015 0.7018 0.7019 0.7022
3745.000000 0.7025 0.7026 0.7028 0.7031 0.7033
3740.000000 0.7035 0.7037 0.7039 0.7040 0.7042
3735.000000 0.7043 0.7045 0.7046 0.7048 0.7049
3730.000000 0.7051 0.7051 0.7054 0.7055 0.7057
3725.000000 0.7058 0.7060 0.7061 0.7062 0.7064
3720.000000 0.7065 0.7067 0.7068 0.7069 0.7071
3715.000000 0.7072 0.7075 0.7075 0.7078 0.7080
3710.000000 0.7082 0.7083 0.7085 0.7086 0.7088
3705.000000 0.7089 0.7091 0.7092 0.7094 0.7096
3700.000000 0.7098 0.7099 0.7101 0.7101 0.7104
3695.000000 0.7105 0.7107 0.7108 0.7110 0.7111
3690.000000 0.7114 0.7115 0.7117 0.7118 0.7119
3685.000000 0.7121 0.7122 0.7124 0.7125 0.7128
3680.000000 0.7130 0.7131 0.7133 0.7135 0.7137
3675.000000 0.7138 0.7140 0.7141 0.7143 0.7145
3670.000000 0.7147 0.7148 0.7150 0.7151 0.7154
3665.000000 0.7155 0.7157 0.7158 0.7160 0.7161
3660.000000 0.7164 0.7165 0.7167 0.7168 0.7171
3655.000000 0.7174 0.7176 0.7178 0.7182 0.7185
3650.000000 0.7188 0.7191 0.7194 0.7197 0.7200
3645.000000 0.7203 0.7206 0.7208 0.7211 0.7215
3640.000000 0.7218 0.7219 0.7222 0.7225 0.7228
3635.000000 0.7232 0.7235 0.7238 0.7241 0.7244
3630.000000 0.7248 0.7251 0.7254 0.7257 0.7260
3625.000000 0.7262 0.7267 0.7269 0.7272 0.7275
3620.000000 0.7278 0.7282 0.7286 0.7288 0.7290
3615.000000 0.7292 0.7295 0.7297 0.7299 0.7301
3610.000000 0.7303 0.7305 0.7308 0.7310 0.7311
3605.000000 0.7314 0.7317 0.7318 0.7321 0.7322
3600.000000 0.7325 0.7325 0.7328 0.7328 0.7330
3595.000000 0.7331 0.7333 0.7334 0.7336 0.7337
3590.000000 0.7339 0.7340 0.7340 0.7340 0.7340
3585.000000 0.7338 0.7337 0.7335 0.7334 0.7331
3580.000000 0.7328 0.7325 0.7321 0.7317 0.7315
3575.000000 0.7315 0.7317 0.7318 0.7321 0.7322
3570.000000 0.7325 0.7326 0.7328 0.7331 0.7333
3565.000000 0.7335 0.7338 0.7340 0.7343 0.7345
3560.000000 0.7348 0.7350 0.7351 0.7354 0.7357
3555.000000 0.7358 0.7361 0.7364 0.7367 0.7368
3550.000000 0.7371 0.7372 0.7375 0.7378 0.7381
3545.000000 0.7383 0.7386 0.7388 0.7390 0.7391
3540.000000 0.7393 0.7395 0.7397 0.7398 0.7400
3535.000000 0.7401 0.7404 0.7405 0.7407 0.7408
3530.000000 0.7411 0.7411 0.7414 0.7415 0.7418
3525.000000 0.7418 0.7421 0.7422 0.7425 0.7425
3520.000000 0.7428 0.7430 0.7432 0.7434 0.7436
3515.000000 0.7437 0.7439 0.7441 0.7443 0.7444
3510.000000 0.7446 0.7447 0.7449 0.7450 0.7451
3505.000000 0.7451 0.7454 0.7455 0.7456 0.7457
3500.000000 0.7458 0.7460 0.7461 0.7461 0.7464
3495.000000 0.7465 0.7465 0.7467 0.7468 0.7469
3490.000000 0.7471 0.7471 0.7474 0.7475 0.7475
3485.000000 0.7476 0.7478 0.7480 0.7481 0.7482
3480.000000 0.7484 0.7485 0.7486 0.7487 0.7488
3475.000000 0.7489 0.7491 0.7491 0.7492 0.7492
3470.000000 0.7493 0.7494 0.7495 0.7495 0.7496
3465.000000 0.7496 0.7497 0.7497 0.7498 0.7499
3460.000000 0.7500 0.7500 0.7501 0.7501 0.7501
3455.000000 0.7501 0.7503 0.7504 0.7505 0.7505
3450.000000 0.7506 0.7506 0.7507 0.7508 0.7508
3445.000000 0.7508 0.7508 0.7508 0.7508 0.7508
3440.000000 0.7508 0.7508 0.7508 0.7508 0.7508
3435.000000 0.7508 0.7508 0.7508 0.7508 0.7508
3430.000000 0.7508 0.7508 0.7508 0.7508 0.7508
3425.000000 0.7508 0.7508 0.7508 0.7508 0.7508
3420.000000 0.7508 0.7508 0.7508 0.7507 0.7506
3415.000000 0.7504 0.7503 0.7501 0.7499 0.7497
3410.000000 0.7496 0.7494 0.7492 0.7490 0.7489
3405.000000 0.7487 0.7485 0.7483 0.7482 0.7480
3400.000000 0.7478 0.7474 0.7471 0.7467 0.7462
3395.000000 0.7458 0.7456 0.7451 0.7449 0.7445
3390.000000 0.7441 0.7437 0.7434 0.7430 0.7426
3385.000000 0.7422 0.7418 0.7415 0.7411 0.7407
3380.000000 0.7401 0.7396 0.7391 0.7385 0.7380
3375.000000 0.7374 0.7368 0.7362 0.7358 0.7351
3370.000000 0.7347 0.7341 0.7336 0.7330 0.7325
3365.000000 0.7318 0.7311 0.7305 0.7298 0.7291
3360.000000 0.7285 0.7278 0.7271 0.7265 0.7258
3355.000000 0.7249 0.7240 0.7230 0.7221 0.7211
3350.000000 0.7201 0.7192 0.7183 0.7172 0.7162
3345.000000 0.7153 0.7143 0.7133 0.7122 0.7112
3340.000000 0.7103 0.7093 0.7084 0.7075 0.7067
3335.000000 0.7058 0.7049 0.7040 0.7032 0.7022
3330.000000 0.7014 0.7005 0.6997 0.6988 0.6978
3325.000000 0.6969 0.6961 0.6951 0.6944 0.6932
3320.000000 0.6919 0.6904 0.6888 0.6869 0.6853
3315.000000 0.6837 0.6821 0.6806 0.6790 0.6774
3310.000000 0.6758 0.6740 0.6721 0.6703 0.6684
3305.000000 0.6665 0.6647 0.6628 0.6610 0.6591
3300.000000 0.6571 0.6553 0.6535 0.6514 0.6494
3295.000000 0.6469 0.6446 0.6421 0.6399 0.6375
3290.000000 0.6351 0.6327 0.6304 0.6281 0.6259
3285.000000 0.6241 0.6223 0.6205 0.6187 0.6169
3280.000000 0.6151 0.6133 0.6115 0.6096 0.6078
3275.000000 0.6059 0.6041 0.6022 0.6004 0.5986
3270.000000 0.5968 0.5950 0.5932 0.5915 0.5898
3265.000000 0.5881 0.5865 0.5848 0.5832 0.5815
3260.000000 0.5799 0.5782 0.5765 0.5748 0.5732
3255.000000 0.5715 0.5699 0.5682 0.5665 0.5648
3250.000000 0.5632 0.5615 0.5599 0.5582 0.5566
3245.000000 0.5549 0.5532 0.5509 0.5486 0.5460
3240.000000 0.5436 0.5410 0.5387 0.5360 0.5335
3235.000000 0.5306 0.5278 0.5254 0.5230 0.5210
3230.000000 0.5190 0.5170 0.5150 0.5130 0.5110
3225.000000 0.5090 0.5070 0.5049 0.5029 0.5008
3220.000000 0.4988 0.4967 0.4946 0.4925 0.4904
3215.000000 0.4883 0.4862 0.4842 0.4821 0.4800
3210.000000 0.4780 0.4759 0.4738 0.4717 0.4696
3205.000000 0.4674 0.4653 0.4631 0.4609 0.4587
3200.000000 0.4566 0.4544 0.4523 0.4501 0.4480
3195.000000 0.4458 0.4437 0.4415 0.4394 0.4372
3190.000000 0.4350 0.4321 0.4292 0.4262 0.4235
3185.000000 0.4206 0.4177 0.4148 0.4119 0.4090
3180.000000 0.4062 0.4032 0.4005 0.3976 0.3947
3175.000000 0.3918 0.3890 0.3862 0.3834 0.3806
3170.000000 0.3779 0.3750 0.3724 0.3693 0.3662
3165.000000 0.3630 0.3600 0.3568 0.3539 0.3507
3160.000000 0.3476 0.3444 0.3412 0.3380 0.3349
3155.000000 0.3316 0.3286 0.3255 0.3225 0.3204
3150.000000 0.3183 0.3161 0.3140 0.3119 0.3098
3145.000000 0.3076 0.3055 0.3034 0.3013 0.2991
3140.000000 0.2970 0.2949 0.2928 0.2906 0.2884
3135.000000 0.2864 0.2843 0.2819 0.2796 0.2771
3130.000000 0.2746 0.2721 0.2696 0.2678 0.2660
3125.000000 0.2642 0.2624 0.2606 0.2588 0.2570
3120.000000 0.2552 0.2534 0.2516 0.2498 0.2480
3115.000000 0.2462 0.2444 0.2426 0.2408 0.2390
3110.000000 0.2372 0.2354 0.2335 0.2318 0.2300
3105.000000 0.2280 0.2260 0.2234 0.2209 0.2187
3100.000000 0.2166 0.2145 0.2125 0.2104 0.2083
3095.000000 0.2062 0.2042 0.2020 0.1999 0.1976
3090.000000 0.1954 0.1932 0.1911 0.1893 0.1875
3085.000000 0.1857 0.1839 0.1821 0.1803 0.1784
3080.000000 0.1767 0.1749 0.1731 0.1713 0.1694
3075.000000 0.1675 0.1654 0.1635 0.1617 0.1604
3070.000000 0.1592 0.1581 0.1569 0.1557 0.1545
3065.000000 0.1533 0.1521 0.1510 0.1500 0.1490
3060.000000 0.1480 0.1470 0.1461 0.1451 0.1441
3055.000000 0.1430 0.1420 0.1408 0.1396 0.1384
3050.000000 0.1372 0.1359 0.1346 0.1334 0.1322
3045.000000 0.1307 0.1292 0.1276 0.1260 0.1253
3040.000000 0.1246 0.1242 0.1238 0.1233 0.1228
3035.000000 0.1224 0.1220 0.1217 0.1214 0.1198
3030.000000 0.1183 0.1165 0.1146 0.1129 0.1111
3025.000000 0.1092 0.1075 0.1058 0.1041 0.1031
3020.000000 0.1021 0.1015 0.1010 0.1006 0.1002
3015.000000 0.1001 0.1001 0.1001 0.1001 0.1006
3010.000000 0.1011 0.1017 0.1024 0.1033 0.1042
3005.000000 0.1059 0.1076 0.1092 0.1111 0.1132
3000.000000 0.1153 0.1173 0.1194 0.1220 0.1246
2995.000000 0.1273 0.1300 0.1326 0.1352 0.1378
2990.000000 0.1404 0.1429 0.1455 0.1480 0.1505
2985.000000 0.1526 0.1548 0.1569 0.1591 0.1610
2980.000000 0.1629 0.1639 0.1648 0.1656 0.1664
2975.000000 0.1672 0.1681 0.1692 0.1703 0.1714
2970.000000 0.1725 0.1735 0.1746 0.1768 0.1789
2965.000000 0.1815 0.1841 0.1869 0.1896 0.1915
2960.000000 0.1934 0.1933 0.1933 0.1933 0.1933
2955.000000 0.1933 0.1934 0.1935 0.1937 0.1940
2950.000000 0.1942 0.1944 0.1945 0.1948 0.1951
2945.000000 0.1953 0.1954 0.1959 0.1964 0.1974
2940.000000 0.1984 0.1994 0.2006 0.2016 0.2026
2935.000000 0.2035 0.2046 0.2060 0.2074 0.2088
2930.000000 0.2103 0.2117 0.2132 0.2147 0.2162
2925.000000 0.2180 0.2198 0.2216 0.2234 0.2250
2920.000000 0.2267 0.2281 0.2296 0.2310 0.2324
2915.000000 0.2333 0.2342 0.2346 0.2351 0.2355
2910.000000 0.2360 0.2364 0.2369 0.2370 0.2370
2905.000000 0.2371 0.2371 0.2368 0.2366 0.2363
2900.000000 0.2361 0.2343 0.2325 0.2301 0.2278
2895.000000 0.2249 0.2220 0.2189 0.2159 0.2131
2890.000000 0.2104 0.2096 0.2089 0.2088 0.2088
2885.000000 0.2087 0.2085 0.2084 0.2084 0.2084
2880.000000 0.2084 0.2083 0.2082 0.2081 0.2080
2875.000000 0.2078 0.2077 0.2076 0.2075 0.2074
2870.000000 0.2073 0.2072 0.2071 0.2070 0.2069
2865.000000 0.2068 0.2068 0.2067 0.2066 0.2066
2860.000000 0.2067 0.2068 0.2070 0.2072 0.2074
2855.000000 0.2082 0.2090 0.2108 0.2126 0.2137
2850.000000 0.2148 0.2158 0.2168 0.2175 0.2183
2845.000000 0.2184 0.2188 0.2190 0.2192 0.2194
2840.000000 0.2197 0.2199 0.2199 0.2200 0.2198
2835.000000 0.2196 0.2194 0.2192 0.2190 0.2171
2830.000000 0.2152 0.2132 0.2112 0.2087 0.2063
2825.000000 0.2037 0.2013 0.1989 0.1965 0.1941
2820.000000 0.1918 0.1894 0.1872 0.1851 0.1831
2815.000000 0.1813 0.1794 0.1776 0.1758 0.1739
2810.000000 0.1721 0.1702 0.1683 0.1663 0.1644
2805.000000 0.1625 0.1606 0.1586 0.1567 0.1554
2800.000000 0.1542 0.1530 0.1518 0.1506 0.1494
2795.000000 0.1482 0.1470 0.1459 0.1449 0.1439
2790.000000 0.1429 0.1419 0.1409 0.1408 0.1407
2785.000000 0.1406 0.1405 0.1405 0.1405 0.1405
2780.000000 0.1406 0.1406 0.1407 0.1401 0.1395
2775.000000 0.1387 0.1380 0.1370 0.1360 0.1344
2770.000000 0.1329 0.1309 0.1290 0.1278 0.1266
2765.000000 0.1256 0.1246 0.1244 0.1242 0.1240
2760.000000 0.1240 0.1240 0.1248 0.1246 0.1246
2755.000000 0.1249 0.1252 0.1254 0.1257 0.1259
2750.000000 0.1262 0.1269 0.1276 0.1283 0.1291
2745.000000 0.1299 0.1307 0.1316 0.1326 0.1338
2740.000000 0.1350 0.1362 0.1374 0.1386 0.1398
2735.000000 0.1410 0.1422 0.1437 0.1453 0.1474
2730.000000 0.1496 0.1517 0.1539 0.1560 0.1581
2725.000000 0.1612 0.1643 0.1675 0.1708 0.1741
2720.000000 0.1775 0.1809 0.1843 0.1875 0.1907
2715.000000 0.1936 0.1967 0.1995 0.2025 0.2036
2710.000000 0.2050 0.2063 0.2076 0.2088 0.2101
2705.000000 0.2113 0.2126 0.2137 0.2148 0.2157
2700.000000 0.2167 0.2176 0.2184 0.2194 0.2203
2695.000000 0.2212 0.2222 0.2233 0.2245 0.2259
2690.000000 0.2274 0.2288 0.2303 0.2317 0.2332
2685.000000 0.2346 0.2361 0.2375 0.2390 0.2407
2680.000000 0.2424 0.2458 0.2493 0.2528 0.2563
2675.000000 0.2597 0.2632 0.2669 0.2706 0.2743
2670.000000 0.2780 0.2817 0.2854 0.2889 0.2925
2665.000000 0.2960 0.2995 0.3026 0.3057 0.3082
2660.000000 0.3108 0.3133 0.3159 0.3184 0.3210
2655.000000 0.3234 0.3258 0.3273 0.3289 0.3305
2650.000000 0.3321 0.3337 0.3353 0.3368 0.3384
2645.000000 0.3400 0.3416 0.3432 0.3448 0.3464
2640.000000 0.3480 0.3495 0.3510 0.3526 0.3541
2635.000000 0.3556 0.3572 0.3587 0.3602 0.3616
2630.000000 0.3632 0.3648 0.3664 0.3680 0.3698
2625.000000 0.3714 0.3732 0.3749 0.3766 0.3782
2620.000000 0.3799 0.3810 0.3824 0.3836 0.3848
2615.000000 0.3859 0.3873 0.3884 0.3898 0.3908
2610.000000 0.3918 0.3923 0.3928 0.3932 0.3939
2605.000000 0.3942 0.3946 0.3947 0.3949 0.3950
2600.000000 0.3952 0.3954 0.3956 0.3958 0.3959
2595.000000 0.3962 0.3966 0.3968 0.3971 0.3974
2590.000000 0.3977 0.3979 0.3982 0.3984 0.3988
2585.000000 0.3994 0.4000 0.4009 0.4018 0.4027
2580.000000 0.4036 0.4047 0.4058 0.4075 0.4093
2575.000000 0.4110 0.4127 0.4143 0.4160 0.4175
2570.000000 0.4191 0.4206 0.4222 0.4237 0.4253
2565.000000 0.4269 0.4285 0.4301 0.4317 0.4332
2560.000000 0.4348 0.4366 0.4385 0.4401 0.4417
2555.000000 0.4423 0.4430 0.4436 0.4443 0.4448
2550.000000 0.4453 0.4457 0.4473 0.4460 0.4460
2545.000000 0.4457 0.4454 0.4440 0.4426 0.4410
2540.000000 0.4397 0.4368 0.4339 0.4309 0.4280
2535.000000 0.4249 0.4219 0.4187 0.4156 0.4127
2530.000000 0.4098 0.4076 0.4054 0.4032 0.4010
2525.000000 0.3980 0.3952 0.3920 0.3888 0.3856
2520.000000 0.3825 0.3793 0.3760 0.3729 0.3697
2515.000000 0.3664 0.3632 0.3600 0.3568 0.3537
2510.000000 0.3505 0.3473 0.3441 0.3409 0.3377
2505.000000 0.3358 0.3328 0.3334 0.3330 0.3330
2500.000000 0.3329 0.3329 0.3329 0.3334 0.3339
2495.000000 0.3344 0.3349 0.3371 0.3394 0.3420
2490.000000 0.3447 0.3476 0.3506 0.3534 0.3564
2485.000000 0.3595 0.3625 0.3664 0.3703 0.3744
2480.000000 0.3784 0.3826 0.3866 0.3908 0.3950
2475.000000 0.3997 0.4044 0.4093 0.4143 0.4192
2470.000000 0.4242 0.4291 0.4340 0.4381 0.4423
2465.000000 0.4464 0.4505 0.4546 0.4588 0.4628
2460.000000 0.4668 0.4704 0.4741 0.4777 0.4814
2455.000000 0.4850 0.4886 0.4922 0.4959 0.4999
2450.000000 0.5039 0.5087 0.5136 0.5184 0.5233
2445.000000 0.5281 0.5330 0.5366 0.5403 0.5439
2440.000000 0.5475 0.5510 0.5548 0.5584 0.5621
2435.000000 0.5654 0.5687 0.5712 0.5740 0.5766
2430.000000 0.5793 0.5819 0.5846 0.5872 0.5899
2425.000000 0.5925 0.5952 0.5976 0.6001 0.6024
2420.000000 0.6047 0.6070 0.6094 0.6117 0.6141
2415.000000 0.6164 0.6187 0.6210 0.6234 0.6257
2410.000000 0.6281 0.6303 0.6325 0.6343 0.6362
2405.000000 0.6380 0.6399 0.6417 0.6435 0.6453
2400.000000 0.6471 0.6490 0.6508 0.6525 0.6541
2395.000000 0.6556 0.6571 0.6586 0.6601 0.6615
2390.000000 0.6630 0.6645 0.6660 0.6668 0.6678
2385.000000 0.6685 0.6693 0.6700 0.6708 0.6715
2380.000000 0.6721 0.6728 0.6737 0.6742 0.6747
2375.000000 0.6751 0.6755 0.6758 0.6762 0.6767
2370.000000 0.6771 0.6775 0.6780 0.6784 0.6788
2365.000000 0.6792 0.6796 0.6800 0.6804 0.6808
2360.000000 0.6811 0.6815 0.6819 0.6824 0.6828
2355.000000 0.6833 0.6837 0.6840 0.6844 0.6848
2350.000000 0.6851 0.6855 0.6858 0.6862 0.6867
2345.000000 0.6869 0.6874 0.6878 0.6882 0.6886
2340.000000 0.6890 0.6896 0.6903 0.6908 0.6915
2335.000000 0.6922 0.6930 0.6937 0.6944 0.6951
2330.000000 0.6958 0.6965 0.6971 0.6978 0.6985
2325.000000 0.6998 0.7011 0.7025 0.7039 0.7053
2320.000000 0.7067 0.7095 0.7124 0.7151 0.7181
2315.000000 0.7205 0.7230 0.7247 0.7264 0.7281
2310.000000 0.7298 0.7315 0.7332 0.7343 0.7355
2305.000000 0.7361 0.7367 0.7372 0.7380 0.7386
2300.000000 0.7392 0.7398 0.7405 0.7410 0.7415
2295.000000 0.7418 0.7424 0.7428 0.7433 0.7438
2290.000000 0.7443 0.7447 0.7451 0.7457 0.7461
2285.000000 0.7465 0.7471 0.7475 0.7481 0.7488
2280.000000 0.7495 0.7501 0.7510 0.7517 0.7525
2275.000000 0.7532 0.7540 0.7547 0.7554 0.7560
2270.000000 0.7567 0.7572 0.7578 0.7585 0.7592
2265.000000 0.7598 0.7605 0.7611 0.7617 0.7622
2260.000000 0.7630 0.7636 0.7643 0.7649 0.7655
2255.000000 0.7661 0.7668 0.7674 0.7681 0.7687
2250.000000 0.7693 0.7699 0.7706 0.7711 0.7718
2245.000000 0.7724 0.7730 0.7735 0.7741 0.7746
2240.000000 0.7751 0.7758 0.7765 0.7771 0.7780
2235.000000 0.7787 0.7795 0.7801 0.7810 0.7818
2230.000000 0.7825 0.7835 0.7844 0.7853 0.7862
2225.000000 0.7871 0.7881 0.7890 0.7899 0.7908
2220.000000 0.7917 0.7922 0.7928 0.7935 0.7941
2215.000000 0.7947 0.7953 0.7958 0.7965 0.7971
2210.000000 0.7976 0.7983 0.7989 0.7994 0.7999
2205.000000 0.8004 0.8008 0.8012 0.8018 0.8021
2200.000000 0.8026 0.8032 0.8037 0.8042 0.8047
2195.000000 0.8051 0.8057 0.8061 0.8065 0.8071
2190.000000 0.8076 0.8085 0.8093 0.8101 0.8110
2185.000000 0.8125 0.8142 0.8186 0.8230 0.8257
2180.000000 0.8284 0.8295 0.8306 0.8284 0.8263
2175.000000 0.8245 0.8227 0.8221 0.8218 0.8217
2170.000000 0.8217 0.8217 0.8217 0.8217 0.8217
2165.000000 0.8217 0.8218 0.8218 0.8218 0.8220
2160.000000 0.8221 0.8221 0.8221 0.8223 0.8224
2155.000000 0.8224 0.8225 0.8225 0.8227 0.8228
2150.000000 0.8228 0.8230 0.8232 0.8233 0.8234
2145.000000 0.8234 0.8234 0.8228 0.8223 0.8217
2140.000000 0.8212 0.8208 0.8204 0.8199 0.8195
2135.000000 0.8190 0.8186 0.8182 0.8178 0.8175
2130.000000 0.8175 0.8175 0.8175 0.8175 0.8176
2125.000000 0.8178 0.8178 0.8178 0.8178 0.8178
2120.000000 0.8178 0.8178 0.8178 0.8175 0.8174
2115.000000 0.8168 0.8161 0.8156 0.8150 0.8144
2110.000000 0.8139 0.8135 0.8131 0.8126 0.8124
2105.000000 0.8119 0.8117 0.8114 0.8111 0.8111
2100.000000 0.8112 0.8112 0.8112 0.8112 0.8107
2095.000000 0.8115 0.8117 0.8118 0.8121 0.8122
2090.000000 0.8125 0.8128 0.8130 0.8138 0.8146
2085.000000 0.8156 0.8167 0.8176 0.8187 0.8197
2080.000000 0.8208 0.8218 0.8228 0.8238 0.8247
2075.000000 0.8252 0.8257 0.8262 0.8267 0.8271
2070.000000 0.8277 0.8282 0.8287 0.8292 0.8297
2065.000000 0.8302 0.8307 0.8312 0.8317 0.8321
2060.000000 0.8327 0.8332 0.8337 0.8340 0.8344
2055.000000 0.8347 0.8351 0.8354 0.8357 0.8360
2050.000000 0.8364 0.8367 0.8371 0.8374 0.8377
2045.000000 0.8380 0.8383 0.8386 0.8389 0.8393
2040.000000 0.8397 0.8401 0.8405 0.8409 0.8414
2035.000000 0.8418 0.8423 0.8427 0.8431 0.8436
2030.000000 0.8441 0.8446 0.8451 0.8456 0.8461
2025.000000 0.8466 0.8471 0.8475 0.8481 0.8487
2020.000000 0.8493 0.8500 0.8507 0.8514 0.8521
2015.000000 0.8528 0.8536 0.8542 0.8549 0.8555
2010.000000 0.8562 0.8566 0.8571 0.8571 0.8573
2005.000000 0.8574 0.8575 0.8575 0.8577 0.8578
2000.000000 0.8581 0.8583 0.8584 0.8586 0.8588
1995.000000 0.8589 0.8591 0.8593 0.8594 0.8596
1990.000000 0.8598 0.8600 0.8601 0.8603 0.8605
1985.000000 0.8606 0.8608 0.8610 0.8612 0.8614
1980.000000 0.8616 0.8618 0.8620 0.8623 0.8625
1975.000000 0.8627 0.8628 0.8632 0.8634 0.8636
1970.000000 0.8638 0.8641 0.8643 0.8646 0.8650
1965.000000 0.8653 0.8656 0.8659 0.8662 0.8665
1960.000000 0.8668 0.8671 0.8675 0.8678 0.8680
1955.000000 0.8682 0.8683 0.8684 0.8685 0.8687
1950.000000 0.8688 0.8689 0.8690 0.8692 0.8693
1945.000000 0.8694 0.8695 0.8697 0.8698 0.8699
1940.000000 0.8699 0.8700 0.8701 0.8701 0.8702
1935.000000 0.8702 0.8703 0.8707 0.8706 0.8705
1930.000000 0.8705 0.8707 0.8708 0.8709 0.8710
1925.000000 0.8712 0.8713 0.8714 0.8716 0.8717
1920.000000 0.8718 0.8718 0.8721 0.8721 0.8720
1915.000000 0.8720 0.8720 0.8718 0.8718 0.8718
1910.000000 0.8718 0.8718 0.8718 0.8717 0.8714
1905.000000 0.8712 0.8709 0.8707 0.8704 0.8702
1900.000000 0.8699 0.8696 0.8688 0.8677 0.8667
1895.000000 0.8647 0.8624 0.8601 0.8557 0.8508
1890.000000 0.8449 0.8397 0.8352 0.8325 0.8302
1885.000000 0.8290 0.8278 0.8266 0.8262 0.8253
1880.000000 0.8273 0.8292 0.8311 0.8330 0.8349
1875.000000 0.8367 0.8386 0.8404 0.8423 0.8441
1870.000000 0.8459 0.8475 0.8491 0.8508 0.8524
1865.000000 0.8541 0.8554 0.8566 0.8577 0.8589
1860.000000 0.8599 0.8607 0.8615 0.8623 0.8631
1855.000000 0.8638 0.8641 0.8644 0.8647 0.8648
1850.000000 0.8649 0.8650 0.8652 0.8653 0.8654
1845.000000 0.8655 0.8655 0.8655 0.8655 0.8654
1840.000000 0.8654 0.8654 0.8654 0.8653 0.8653
1835.000000 0.8652 0.8651 0.8650 0.8649 0.8649
1830.000000 0.8648 0.8647 0.8646 0.8646 0.8646
1825.000000 0.8645 0.8645 0.8645 0.8645 0.8644
1820.000000 0.8643 0.8638 0.8639 0.8639 0.8642
1815.000000 0.8644 0.8646 0.8648 0.8651 0.8653
1810.000000 0.8655 0.8658 0.8660 0.8662 0.8665
1805.000000 0.8667 0.8668 0.8671 0.8674 0.8675
1800.000000 0.8678 0.8681 0.8683 0.8686 0.8688
1795.000000 0.8690 0.8692 0.8694 0.8695 0.8697
1790.000000 0.8698 0.8700 0.8701 0.8703 0.8704
1785.000000 0.8705 0.8707 0.8708 0.8710 0.8711
1780.000000 0.8713 0.8715 0.8716 0.8718 0.8718
1775.000000 0.8721 0.8721 0.8724 0.8724 0.8724
1770.000000 0.8725 0.8725 0.8725 0.8725 0.8725
1765.000000 0.8727 0.8727 0.8727 0.8727 0.8727
1760.000000 0.8725 0.8725 0.8724 0.8723 0.8721
1755.000000 0.8721 0.8725 0.8728 0.8733 0.8736
1750.000000 0.8740 0.8743 0.8748 0.8756 0.8764
1745.000000 0.8771 0.8780 0.8789 0.8794 0.8795
1740.000000 0.8797 0.8798 0.8800 0.8801 0.8802
1735.000000 0.8804 0.8805 0.8807 0.8808 0.8809
1730.000000 0.8811 0.8812 0.8812 0.8811 0.8811
1725.000000 0.8811 0.8810 0.8810 0.8810 0.8809
1720.000000 0.8809 0.8809 0.8808 0.8808 0.8806
1715.000000 0.8804 0.8802 0.8800 0.8798 0.8796
1710.000000 0.8791 0.8783 0.8775 0.8767 0.8759
1705.000000 0.8750 0.8742 0.8734 0.8724 0.8714
1700.000000 0.8704 0.8694 0.8683 0.8673 0.8663
1695.000000 0.8654 0.8644 0.8634 0.8625 0.8615
1690.000000 0.8605 0.8595 0.8586 0.8582 0.8578
1685.000000 0.8575 0.8571 0.8568 0.8562 0.8551
1680.000000 0.8541 0.8531 0.8520 0.8510 0.8500
1675.000000 0.8489 0.8478 0.8468 0.8458 0.8445
1670.000000 0.8432 0.8420 0.8407 0.8394 0.8381
1665.000000 0.8368 0.8356 0.8342 0.8325 0.8308
1660.000000 0.8287 0.8266 0.8246 0.8230 0.8213
1655.000000 0.8197 0.8180 0.8158 0.8135 0.8112
1650.000000 0.8082 0.8045 0.8008 0.7964 0.7914
1645.000000 0.7862 0.7815 0.7772 0.7730 0.7686
1640.000000 0.7640 0.7575 0.7510 0.7445 0.7380
1635.000000 0.7295 0.7187 0.6939 0.6625 0.6107
1630.000000 0.5703 0.5496 0.5334 0.5180 0.5033
1625.000000 0.4953 0.4878 0.4782 0.4588 0.4215
1620.000000 0.3841 0.3468 0.3094 0.2721 0.2433
1615.000000 0.2418 0.2507 0.2727 0.2947 0.3167
1610.000000 0.3387 0.3608 0.3828 0.4048 0.4268
1605.000000 0.4488 0.4708 0.4928 0.5149 0.5369
1600.000000 0.5469 0.5485 0.5480 0.4984 0.4368
1595.000000 0.3752 0.3135 0.2827 0.2820 0.3037
1590.000000 0.3706 0.4375 0.5044 0.5712 0.6024
1585.000000 0.6192 0.6366 0.6541 0.6695 0.6826
1580.000000 0.6936 0.7008 0.7080 0.7151 0.7224
1575.000000 0.7292 0.7360 0.7425 0.7485 0.7545
1570.000000 0.7593 0.7630 0.7664 0.7689 0.7714
1565.000000 0.7738 0.7762 0.7784 0.7804 0.7822
1560.000000 0.7843 0.7861 0.7880 0.7895 0.7910
1555.000000 0.7924 0.7939 0.7953 0.7961 0.7971
1550.000000 0.7981 0.7990 0.7999 0.8007 0.8015
1545.000000 0.8024 0.8032 0.8035 0.8038 0.8041
1540.000000 0.8030 0.8031 0.8021 0.8008 0.7982
1535.000000 0.7935 0.7718 0.7408 0.7234 0.6731
1530.000000 0.6228 0.5725 0.5223 0.4720 0.4217
1525.000000 0.3714 0.3210 0.2708 0.2206 0.1703
1520.000000 0.1200 0.1073 0.1136 0.1399 0.1663
1515.000000 0.1927 0.2190 0.2454 0.2718 0.2982
1510.000000 0.3245 0.3509 0.3773 0.4036 0.4062
1505.000000 0.4073 0.3989 0.3871 0.3752 0.3632
1500.000000 0.3514 0.3396 0.3277 0.3158 0.3107
1495.000000 0.3087 0.3053 0.3071 0.3068 0.3111
1490.000000 0.3178 0.3246 0.3312 0.3380 0.3448
1485.000000 0.3514 0.3582 0.3650 0.3718 0.3784
1480.000000 0.3840 0.3826 0.3853 0.3845 0.3792
1475.000000 0.3732 0.3668 0.3641 0.3638 0.3655
1470.000000 0.3688 0.3709 0.3709 0.3709 0.3696
1465.000000 0.3680 0.3649 0.3609 0.3522 0.3475
1460.000000 0.3449 0.3436 0.3434 0.3447 0.3520
1455.000000 0.3594 0.3668 0.3738 0.3639 0.3437
1450.000000 0.3234 0.3062 0.3077 0.3084 0.3151
1445.000000 0.3429 0.3707 0.3984 0.4262 0.4541
1440.000000 0.4819 0.5097 0.5375 0.5462 0.5550
1435.000000 0.5668 0.5797 0.6058 0.6146 0.6235
1430.000000 0.6341 0.6436 0.6503 0.6508 0.6511
1425.000000 0.6512 0.6323 0.6008 0.5906 0.5974
1420.000000 0.6303 0.6633 0.6775 0.6885 0.6954
1415.000000 0.7015 0.7078 0.7131 0.7183 0.7233
1410.000000 0.7271 0.7311 0.7335 0.7354 0.7372
1405.000000 0.7392 0.7401 0.7410 0.7417 0.7415
1400.000000 0.7415 0.7407 0.7398 0.7390 0.7351
1395.000000 0.7117 0.6578 0.6038 0.5499 0.4959
1390.000000 0.4419 0.4048 0.4066 0.4044 0.4119
1385.000000 0.4238 0.4358 0.4478 0.4597 0.4643
1380.000000 0.4648 0.4599 0.4515 0.4431 0.4399
1375.000000 0.4376 0.4358 0.4355 0.4362 0.4386
1370.000000 0.4415 0.4480 0.4635 0.4803 0.4928
1365.000000 0.5044 0.5139 0.5234 0.5320 0.5389
1360.000000 0.5459 0.5528 0.5607 0.5692 0.5779
1355.000000 0.5886 0.6002 0.6126 0.6247 0.6368
1350.000000 0.6490 0.6611 0.6708 0.6728 0.6735
1345.000000 0.6745 0.6621 0.6421 0.6223 0.6107
1340.000000 0.6084 0.6126 0.6223 0.6319 0.6415
1335.000000 0.6511 0.6608 0.6704 0.6800 0.6897
1330.000000 0.6993 0.7089 0.7185 0.7260 0.7301
1325.000000 0.7342 0.7384 0.7425 0.7465 0.7491
1320.000000 0.7478 0.7474 0.7439 0.7326 0.7250
1315.000000 0.7182 0.7155 0.7133 0.7125 0.7103
1310.000000 0.7108 0.7111 0.7115 0.7121 0.7143
1305.000000 0.7178 0.7219 0.7267 0.7318 0.7376
1300.000000 0.7421 0.7444 0.7450 0.7454 0.7458
1295.000000 0.7451 0.7442 0.7421 0.7397 0.7341
1290.000000 0.7222 0.6933 0.6595 0.6257 0.5919
1285.000000 0.5581 0.5243 0.4904 0.4566 0.4228
1280.000000 0.3890 0.3552 0.3212 0.2875 0.2537
1275.000000 0.2281 0.2277 0.2277 0.2273 0.2547
1270.000000 0.2830 0.3113 0.3396 0.3679 0.3962
1265.000000 0.4246 0.4529 0.4712 0.4787 0.4840
1260.000000 0.4858 0.4867 0.4875 0.4878 0.4619
1255.000000 0.4236 0.3853 0.3471 0.3088 0.2705
1250.000000 0.2322 0.1939 0.1559 0.1514 0.1513
1245.000000 0.1512 0.1512 0.1536 0.1586 0.1656
1240.000000 0.1893 0.2129 0.2366 0.2603 0.2839
1235.000000 0.3076 0.3312 0.3549 0.3786 0.3928
1230.000000 0.3839 0.3652 0.3464 0.3277 0.3090
1225.000000 0.2902 0.2583 0.2587 0.2587 0.2761
1220.000000 0.3021 0.3280 0.3541 0.3800 0.4059
1215.000000 0.4320 0.4580 0.4726 0.4612 0.4412
1210.000000 0.4214 0.4158 0.4224 0.4408 0.4591
1205.000000 0.4774 0.4958 0.5141 0.5324 0.5508
1200.000000 0.5676 0.5686 0.5686 0.5650 0.5544
1195.000000 0.5438 0.5332 0.5264 0.5258 0.5275
1190.000000 0.5367 0.5458 0.5549 0.5641 0.5732
1185.000000 0.5823 0.5914 0.6006 0.6097 0.6188
1180.000000 0.6272 0.6268 0.6152 0.5960 0.5849
1175.000000 0.5857 0.5889 0.5925 0.5962 0.5998
1170.000000 0.6020 0.6029 0.6032 0.6012 0.6028
1165.000000 0.6005 0.5942 0.5789 0.5560 0.5330
1160.000000 0.5101 0.4871 0.4642 0.4469 0.4469
1155.000000 0.4475 0.4493 0.4545 0.4572 0.4573
1150.000000 0.4556 0.4504 0.4440 0.4330 0.4221
1145.000000 0.4112 0.3994 0.3864 0.3534 0.3324
1140.000000 0.3109 0.2895 0.2681 0.2466 0.2252
1135.000000 0.2037 0.1824 0.1609 0.1395 0.1181
1130.000000 0.0967 0.0825 0.0788 0.0791 0.0784
1125.000000 0.0777 0.0780 0.0785 0.0817 0.0861
1120.000000 0.0986 0.1121 0.1245 0.1259 0.1270
1115.000000 0.1270 0.1265 0.1256 0.1238 0.1291
1110.000000 0.1401 0.1512 0.1623 0.1734 0.1844
1105.000000 0.1915 0.1942 0.1958 0.1971 0.1982
1100.000000 0.1974 0.1867 0.1746 0.1627 0.1506
1095.000000 0.1386 0.1266 0.1146 0.1114 0.1138
1090.000000 0.1149 0.1159 0.1159 0.1159 0.1146
1085.000000 0.1124 0.1022 0.0922 0.0822 0.0723
1080.000000 0.0685 0.0678 0.0677 0.0677 0.0691
1075.000000 0.0725 0.0762 0.0802 0.0858 0.0912
1070.000000 0.0956 0.1000 0.1038 0.1010 0.1005
1065.000000 0.1000 0.0976 0.0951 0.0922 0.0891
1060.000000 0.0860 0.0830 0.0801 0.0772 0.0732
1055.000000 0.0683 0.0634 0.0585 0.0536 0.0487
1050.000000 0.0438 0.0389 0.0348 0.0339 0.0335
1045.000000 0.0336 0.0336 0.0333 0.0341 0.0368
1040.000000 0.0397 0.0459 0.0524 0.0588 0.0733
1035.000000 0.0949 0.1164 0.1380 0.1596 0.1812
1030.000000 0.2028 0.2244 0.2460 0.2675 0.2891
1025.000000 0.3107 0.3323 0.3539 0.3755 0.3971
1020.000000 0.4186 0.4380 0.4348 0.4355 0.4238
1015.000000 0.4041 0.3844 0.3642 0.3618 0.3612
1010.000000 0.3976 0.4339 0.4703 0.5066 0.5430
1005.000000 0.5694 0.5824 0.5992 0.6237 0.6355
1000.000000 0.6462 0.6571 0.6680 0.6789 0.6884
995.000000 0.6969 0.7055 0.7114 0.7172 0.7214
990.000000 0.7245 0.7268 0.7290 0.7306 0.7315
985.000000 0.7321 0.7343 0.7330 0.7328 0.7310
980.000000 0.7275 0.6846 0.6082 0.5637 0.5653
975.000000 0.5847 0.6075 0.6303 0.6531 0.6760
970.000000 0.6988 0.7215 0.7331 0.7414 0.7491
965.000000 0.7549 0.7607 0.7638 0.7661 0.7687
960.000000 0.7701 0.7715 0.7730 0.7744 0.7751
955.000000 0.7758 0.7764 0.7768 0.7767 0.7761
950.000000 0.7756 0.7756 0.7755 0.7758 0.7776
945.000000 0.7796 0.7815 0.7830 0.7843 0.7856
940.000000 0.7854 0.7843 0.7818 0.7793 0.7747
935.000000 0.7691 0.7646 0.7621 0.7618 0.7617
930.000000 0.7617 0.7618 0.7621 0.7625 0.7638
925.000000 0.7650 0.7662 0.7684 0.7712 0.7774
920.000000 0.7828 0.7868 0.7907 0.7946 0.7968
915.000000 0.7987 0.8005 0.8015 0.8024 0.8032
910.000000 0.8040 0.8005 0.8048 0.8045 0.8039
905.000000 0.8025 0.8010 0.7986 0.7960 0.7933
900.000000 0.7903 0.7872 0.7846 0.7822 0.7821
895.000000 0.7818 0.7828 0.7841 0.7853 0.7860
890.000000 0.7865 0.7871 0.7875 0.7881 0.7887
885.000000 0.7892 0.7896 0.7900 0.7903 0.7907
880.000000 0.7911 0.7914 0.7915 0.7918 0.7918
875.000000 0.7918 0.7918 0.7914 0.7908 0.7904
870.000000 0.7892 0.7880 0.7861 0.7812 0.7765
865.000000 0.7703 0.7624 0.7530 0.7418 0.7295
860.000000 0.6850 0.6233 0.5615 0.4998 0.4380
855.000000 0.3997 0.3970 0.3982 0.4162 0.4759
850.000000 0.5357 0.5954 0.6551 0.6811 0.6808
845.000000 0.6761 0.6227 0.5693 0.5347 0.5343
840.000000 0.5452 0.5601 0.5751 0.5900 0.6050
835.000000 0.6199 0.6349 0.6498 0.6648 0.6798
830.000000 0.6947 0.7058 0.7080 0.7062 0.6888
825.000000 0.6718 0.6681 0.6660 0.6637 0.6093
820.000000 0.5471 0.4849 0.4227 0.3605 0.2983
815.000000 0.2720 0.2724 0.2728 0.3446 0.3971
810.000000 0.4496 0.5020 0.5360 0.5535 0.5691
805.000000 0.5799 0.5906 0.6008 0.6096 0.6185
800.000000 0.6271 0.6327 0.6383 0.6439 0.6488
795.000000 0.6528 0.6567 0.6607 0.6648 0.6691
790.000000 0.6731 0.6761 0.6791 0.6818 0.6839
785.000000 0.6858 0.6865 0.6875 0.6875 0.6875
780.000000 0.6876 0.6854 0.6721 0.6588 0.6455
775.000000 0.6322 0.6189 0.6015 0.6000 0.5996
770.000000 0.6588 0.7085 0.7148 0.7211 0.7285
765.000000 0.7358 0.7433 0.7474 0.7512 0.7551
760.000000 0.7590 0.7625 0.7647 0.7669 0.7692
755.000000 0.7715 0.7734 0.7748 0.7762 0.7776
750.000000 0.7792 0.7806 0.7818 0.7826 0.7836
745.000000 0.7845 0.7855 0.7864 0.7872 0.7881
740.000000 0.7888 0.7895 0.7901 0.7908 0.7915
735.000000 0.7921 0.7928 0.7934 0.7937 0.7939
730.000000 0.7942 0.7944 0.7947 0.7950 0.7951
725.000000 0.7955 0.7958 0.7962 0.7965 0.7969
720.000000 0.7974 0.7976 0.7948 0.7987 0.7994
715.000000 0.8001 0.8008 0.8017 0.8028 0.8064
710.000000 0.8114 0.8190 0.8228 0.8267 0.8306
705.000000 0.8335 0.8357 0.8380 0.8402 0.8424
700.000000 0.8437 0.8449 0.8462 0.8474 0.8487
695.000000 0.8499 0.8512 0.8525 0.8537 0.8550
690.000000 0.8562 0.8570 0.8578 0.8587 0.8586
685.000000 0.8585 0.8571 0.8564 0.8568 0.8574
680.000000 0.8578 0.8584 0.8589 0.8595 0.8600
675.000000 0.8606 0.8612 0.8618 0.8623 0.8628
670.000000 0.8631 0.8635 0.8638 0.8641 0.8645
665.000000 0.8636 0.8648 0.8648 0.8648 0.8648
660.000000 0.8648 0.8648 0.8648 0.8648 0.8648
655.000000 0.8643 0.8639 0.8634 0.8628 0.8624
650.000000 0.8618 0.8612 0.8598 0.8583 0.8568
645.000000 0.8535 0.8497 0.8459 0.8421 0.8344
640.000000 0.8243 0.7951 0.7904 0.7878 0.7856
635.000000 0.7834 0.7784 0.7734 0.7585 0.7422
630.000000 0.7285 0.7064 0.6121 0.5472 0.4822
625.000000 0.4489 0.4491 0.4477 0.4540 0.4664
620.000000 0.4788 0.4912 0.5036 0.5116 0.5126
615.000000 0.5149 0.4981 0.4850 0.4720 0.4589
610.000000 0.4488 0.4423 0.4374 0.4349 0.4338
605.000000 0.4344 0.4767 0.5190 0.5612 0.6035
600.000000 0.6458 0.7025 0.7207 0.7368 0.7481
595.000000 0.7589 0.7668 0.7725 0.7783 0.7835
590.000000 0.7868 0.7901 0.7936 0.7958 0.7980
585.000000 0.8000 0.8021 0.8041 0.8058 0.8072
580.000000 0.8088 0.8103 0.8118 0.8134 0.8149
575.000000 0.8165 0.8180 0.8191 0.8195 0.8200
570.000000 0.8192 0.8203 0.8203 0.8188 0.8171
565.000000 0.8145 0.8115 0.8040 0.7338 0.6343
560.000000 0.5348 0.4251 0.4251 0.4260 0.4724
555.000000 0.5189 0.5654 0.6119 0.6584 0.7049
550.000000 0.7514 0.7744 0.7847 0.7914 0.7980
545.000000 0.8039 0.8072 0.8106 0.8131 0.8150
540.000000 0.8168 0.8182 0.8188 0.8194 0.8200
535.000000 0.8202 0.8205 0.8207 0.8209 0.8211
530.000000 0.8214 0.8217 0.8220 0.8220 0.8225
525.000000 0.8228 0.8232 0.8234 0.8234 0.8233
520.000000 0.8228 0.8223 0.8216 0.8196 0.8165
515.000000 0.7901 0.7511 0.7124 0.6735 0.6347
510.000000 0.5972 0.6086 0.6482 0.6878 0.7275
505.000000 0.7671 0.7933 0.8008 0.8081 0.8139
500.000000 0.8169 0.8197 0.8213 0.8228 0.8235
495.000000 0.8247 0.8240 0.8243 0.8237 0.8231
490.000000 0.8224 0.8218 0.8197 0.8165 0.8124
485.000000 0.8045 0.7962 0.7874 0.7571 0.7228
480.000000 0.6884 0.6540 0.6312 0.6315 0.6333
475.000000 0.6483 0.6633 0.6782 0.6932 0.7037
470.000000 0.7021 0.6991 0.6861 0.6731 0.6600
465.000000 0.6469 0.6340 0.6292 0.6317 0.6301
460.000000 0.6408 0.6532 0.6654 0.6776 0.6885
455.000000 0.6971 0.7056 0.7132 0.7206 0.7262
450.000000 0.7318 0.7351 0.7361 0.7368 0.7375
445.000000 0.7381 0.7393 0.7412 0.7435 0.7458
440.000000 0.7481 0.7503 0.7528 0.7553 0.7578
435.000000 0.7603 0.7628 0.7653 0.7678 0.7691
430.000000 0.7704 0.7718 0.7731 0.7744 0.7757
425.000000 0.7769 0.7784 0.7793 0.7800 0.7808
420.000000 0.7815 0.7822 0.7830 0.7837 0.7842
415.000000 0.7845 0.7849 0.7851 0.7855 0.7858
410.000000 0.7861 0.7865 0.7868 0.7871 0.7875
405.000000 0.7875 0.7876 0.7878 0.7880 0.7882
400.000000 0.7883 0.7884 0.7901 0.7887 0.7888
395.000000 0.7889 0.7890 0.7892 0.7893 0.7894
390.000000 0.7895 0.7897 0.7899 0.7901 0.7903
385.000000 0.7905 0.7908
##END=
