##TITLE=LEAD CARBONATE
##JCAMP-DX=4.24
##DATA TYPE=INFRARED SPECTRUM
##CLASS=COBLENTZ
##ORIGIN=DESOTO CHEMICAL COATINGS, INC.
##OWNER=COBLENTZ SOCIETY
Collection (C) 2018 copyright by the U.S. Secretary of Commerce
on behalf of the United States of America. All rights reserved.
##DATE=Not specified, most likely prior to 1970
##NAMES=WHITE LEAD CARBONATE
##MOLFORM=C2 H2 O8 Pb3
##SOURCE REFERENCE=COBLENTZ NO. 4645
##$NIST ID=B6004645
##$NIST SOURCE=COBLENTZ
##$NIST IMAGE=cob4645
##SPECTROMETER/DATA SYSTEM=BECKMAN IR-12 (GRATING)
##INSTRUMENT PARAMETERS=GRATING BLAZED AT 3330, 1330, 445, 220 CM^-^1
##STATE=SOLID (0.5 mg / 300 mg CsI DISC)
##SAMPLING PROCEDURE=TRANSMISSION
##RESOLUTION=4
##DATA PROCESSING=DIGITIZED BY NIST FROM HARD COPY (FROM TWO SEGMENTS)
##XUNITS=1/CM
##YUNITS=TRANSMITTANCE
##XFACTOR=1.000000
##YFACTOR=1
##DELTAX=1.331362
##FIRSTX=201.331
##LASTX=3986.39
##FIRSTY=0.697
##MAXX=3986.39
##MINX=201.331
##MAXY=0.959
##MINY=0.189
##NPOINTS=2844
##XYDATA=(X++(Y..Y))
201.331000 0.6970 0.6970 0.6950 0.6970 0.6970
207.987811 0.6950 0.6950 0.6950 0.6950 0.6950
214.644622 0.6970 0.6980 0.6980 0.6990 0.6990
221.301433 0.6990 0.6990 0.7010 0.7020 0.7020
227.958244 0.7050 0.7050 0.7060 0.7090 0.7100
234.615055 0.7130 0.7180 0.7210 0.7230 0.7260
241.271866 0.7290 0.7300 0.7340 0.7350 0.7350
247.928677 0.7370 0.7390 0.7390 0.7420 0.7430
254.585488 0.7490 0.7520 0.7520 0.7530 0.7580
261.242299 0.7600 0.7610 0.7610 0.7620 0.7620
267.899111 0.7620 0.7620 0.7620 0.7640 0.7680
274.555922 0.7690 0.7700 0.7700 0.7700 0.7700
281.212733 0.7700 0.7700 0.7720 0.7720 0.7720
287.869544 0.7720 0.7720 0.7730 0.7740 0.7740
294.526355 0.7760 0.7760 0.7760 0.7780 0.7780
301.183166 0.7800 0.7800 0.7800 0.7780 0.7780
307.839977 0.7780 0.7770 0.7760 0.7760 0.7760
314.496788 0.7760 0.7740 0.7740 0.7740 0.7740
321.153599 0.7740 0.7740 0.7740 0.7740 0.7740
327.810410 0.7740 0.7740 0.7740 0.7760 0.7770
334.467221 0.7770 0.7770 0.7770 0.7780 0.7780
341.124032 0.7780 0.7780 0.7770 0.7760 0.7760
347.780843 0.7760 0.7740 0.7730 0.7730 0.7720
354.437654 0.7690 0.7660 0.7620 0.7610 0.7600
361.094465 0.7600 0.7570 0.7540 0.7530 0.7500
367.751276 0.7500 0.7450 0.7420 0.7410 0.7370
374.408087 0.7330 0.7300 0.7250 0.7220 0.7210
381.064898 0.7190 0.7180 0.7170 0.7140 0.7130
387.721710 0.7110 0.7060 0.7020 0.7010 0.6980
394.378521 0.6950 0.6950 0.6940 0.6930 0.6930
401.035332 0.6930 0.6910 0.6910 0.6910 0.6910
407.692143 0.6910 0.6910 0.6910 0.6910 0.6910
414.348954 0.6930 0.6930 0.6930 0.6940 0.6950
421.005765 0.6950 0.6990 0.7030 0.7090 0.7100
427.662576 0.7110 0.7150 0.7190 0.7220 0.7290
434.319387 0.7300 0.7350 0.7390 0.7410 0.7450
440.976198 0.7500 0.7530 0.7560 0.7610 0.7660
447.633009 0.7690 0.7720 0.7770 0.7800 0.7810
454.289820 0.7850 0.7860 0.7880 0.7880 0.7890
460.946631 0.7900 0.7920 0.7960 0.7980 0.8000
467.603442 0.8000 0.8000 0.8010 0.8010 0.8010
474.260253 0.8020 0.8040 0.8050 0.8080 0.8100
480.917064 0.8120 0.8150 0.8190 0.8200 0.8210
487.573875 0.8210 0.8210 0.8230 0.8240 0.8250
494.230686 0.8290 0.8290 0.8320 0.8350 0.8360
500.887497 0.8370 0.8370 0.8400 0.8430 0.8470
507.544309 0.8480 0.8490 0.8510 0.8510 0.8520
514.201120 0.8530 0.8590 0.8600 0.8600 0.8610
520.857931 0.8610 0.8610 0.8630 0.8650 0.8680
527.514742 0.8680 0.8680 0.8690 0.8690 0.8690
534.171553 0.8710 0.8710 0.8710 0.8720 0.8720
540.828364 0.8720 0.8720 0.8720 0.8720 0.8730
547.485175 0.8730 0.8750 0.8750 0.8780 0.8790
554.141986 0.8790 0.8800 0.8800 0.8820 0.8820
560.798797 0.8820 0.8800 0.8800 0.8800 0.8820
567.455608 0.8820 0.8820 0.8830 0.8830 0.8840
574.112419 0.8840 0.8840 0.8860 0.8860 0.8860
580.769230 0.8860 0.8860 0.8860 0.8860 0.8870
587.426041 0.8870 0.8900 0.8900 0.8910 0.8910
594.082852 0.8910 0.8910 0.8920 0.8920 0.8920
600.739663 0.8920 0.8920 0.8920 0.8920 0.8920
607.396474 0.8920 0.8920 0.8920 0.8920 0.8920
614.053285 0.8940 0.8940 0.8940 0.8950 0.8960
620.710096 0.8960 0.8960 0.8980 0.8980 0.8990
627.366908 0.8990 0.9000 0.9000 0.9000 0.9000
634.023719 0.9000 0.9020 0.9020 0.9020 0.9030
640.680530 0.9030 0.9030 0.9040 0.9040 0.9040
647.337341 0.9040 0.9040 0.9040 0.9040 0.9040
653.994152 0.9040 0.9040 0.9040 0.9030 0.9030
660.650963 0.9030 0.9030 0.9030 0.9030 0.9020
667.307774 0.9020 0.9000 0.9000 0.9000 0.8990
673.964585 0.8960 0.8940 0.8900 0.8840 0.8761
680.621396 0.8650 0.7261 0.5732 0.5730 0.5969
687.278207 0.6478 0.6978 0.7428 0.7698 0.7859
693.935018 0.7860 0.7810 0.7810 0.7760 0.7760
700.591829 0.7969 0.8129 0.8279 0.8509 0.8609
707.248640 0.8670 0.8720 0.8750 0.8790 0.8830
713.905451 0.8840 0.8900 0.8950 0.9020 0.9030
720.562262 0.9060 0.9070 0.9080 0.9080 0.9100
727.219073 0.9100 0.9100 0.9100 0.9100 0.9100
733.875884 0.9110 0.9110 0.9140 0.9150 0.9150
740.532695 0.9150 0.9140 0.9140 0.9140 0.9120
747.189507 0.9120 0.9120 0.9110 0.9110 0.9110
753.846318 0.9100 0.9100 0.9070 0.9060 0.9060
760.503129 0.9040 0.9030 0.9030 0.9030 0.9040
767.159940 0.9060 0.9070 0.9080 0.9100 0.9100
773.816751 0.9100 0.9100 0.9100 0.9100 0.9100
780.473562 0.9100 0.9100 0.9100 0.9100 0.9100
787.130373 0.9110 0.9110 0.9110 0.9110 0.9120
793.787184 0.9120 0.9120 0.9140 0.9150 0.9150
800.443995 0.9150 0.9160 0.9160 0.9180 0.9190
807.100806 0.9200 0.9200 0.9220 0.9220 0.9230
813.757617 0.9230 0.9230 0.9240 0.9260 0.9270
820.414428 0.9270 0.9280 0.9280 0.9280 0.9300
827.071239 0.9300 0.9310 0.9320 0.9320 0.9320
833.728050 0.9320 0.9320 0.9320 0.9320 0.9310
840.384861 0.9310 0.9310 0.9300 0.9280 0.9260
847.041672 0.9240 0.9220 0.9200 0.9190 0.9180
853.698483 0.9180 0.9190 0.9200 0.9220 0.9240
860.355294 0.9240 0.9260 0.9270 0.9280 0.9310
867.012106 0.9340 0.9350 0.9360 0.9360 0.9360
873.668917 0.9360 0.9380 0.9450 0.9470 0.9510
880.325728 0.9530 0.9540 0.9540 0.9540 0.9540
886.982539 0.9540 0.9540 0.9540 0.9550 0.9550
893.639350 0.9550 0.9550 0.9550 0.9550 0.9550
900.296161 0.9570 0.9570 0.9580 0.9580 0.9580
906.952972 0.9580 0.9580 0.9580 0.9580 0.9580
913.609783 0.9580 0.9580 0.9580 0.9580 0.9580
920.266594 0.9580 0.9580 0.9580 0.9580 0.9580
926.923405 0.9580 0.9580 0.9570 0.9570 0.9570
933.580216 0.9570 0.9580 0.9580 0.9580 0.9590
940.237027 0.9590 0.9590 0.9590 0.9580 0.9580
946.893838 0.9590 0.9590 0.9590 0.9590 0.9580
953.550649 0.9580 0.9580 0.9580 0.9590 0.9590
960.207460 0.9590 0.9590 0.9590 0.9590 0.9580
966.864271 0.9580 0.9580 0.9580 0.9580 0.9580
973.521082 0.9580 0.9580 0.9580 0.9570 0.9570
980.177893 0.9570 0.9570 0.9570 0.9570 0.9570
986.834705 0.9570 0.9570 0.9550 0.9550 0.9550
993.491516 0.9550 0.9570 0.9570 0.9550 0.9550
1000.148327 0.9550 0.9550 0.9540 0.9540 0.9530
1006.805138 0.9510 0.9510 0.9500 0.9500 0.9500
1013.461949 0.9500 0.9490 0.9460 0.9450 0.9430
1020.118760 0.9420 0.9420 0.9420 0.9420 0.9410
1026.775571 0.9390 0.9380 0.9360 0.9350 0.9340
1033.432382 0.9320 0.9320 0.9320 0.9340 0.9350
1040.089193 0.9380 0.9380 0.9360 0.9340 0.9310
1046.746004 0.9280 0.9240 0.9200 0.9180 0.9180
1053.402815 0.9190 0.9200 0.9230 0.9240 0.9260
1060.059626 0.9270 0.9280 0.9300 0.9320 0.9320
1066.716437 0.9350 0.9350 0.9360 0.9360 0.9360
1073.373248 0.9360 0.9360 0.9350 0.9350 0.9350
1080.030059 0.9350 0.9340 0.9340 0.9320 0.9320
1086.686870 0.9320 0.9320 0.9320 0.9320 0.9320
1093.343681 0.9340 0.9340 0.9320 0.9320 0.9310
1100.000492 0.9310 0.9300 0.9300 0.9310 0.9310
1106.657304 0.9310 0.9300 0.9300 0.9300 0.9310
1113.314115 0.9320 0.9320 0.9320 0.9320 0.9340
1119.970926 0.9340 0.9350 0.9350 0.9350 0.9350
1126.627737 0.9360 0.9380 0.9380 0.9390 0.9390
1133.284548 0.9390 0.9390 0.9390 0.9390 0.9390
1139.941359 0.9380 0.9380 0.9380 0.9390 0.9390
1146.598170 0.9410 0.9410 0.9420 0.9420 0.9410
1153.254981 0.9410 0.9420 0.9420 0.9430 0.9430
1159.911792 0.9430 0.9430 0.9430 0.9450 0.9460
1166.568603 0.9460 0.9460 0.9460 0.9470 0.9460
1173.225414 0.9460 0.9460 0.9460 0.9460 0.9460
1179.882225 0.9460 0.9460 0.9470 0.9460 0.9460
1186.539036 0.9470 0.9470 0.9470 0.9470 0.9470
1193.195847 0.9470 0.9470 0.9470 0.9470 0.9470
1199.852658 0.9470 0.9470 0.9470 0.9470 0.9470
1206.509469 0.9470 0.9470 0.9470 0.9470 0.9470
1213.166280 0.9470 0.9460 0.9460 0.9450 0.9450
1219.823091 0.9430 0.9420 0.9420 0.9390 0.9390
1226.479903 0.9390 0.9390 0.9390 0.9390 0.9390
1233.136714 0.9390 0.9390 0.9390 0.9390 0.9380
1239.793525 0.9350 0.9340 0.9340 0.9340 0.9350
1246.450336 0.9350 0.9350 0.9350 0.9340 0.9320
1253.107147 0.9310 0.9280 0.9270 0.9270 0.9270
1259.763958 0.9260 0.9230 0.9220 0.9200 0.9190
1266.420769 0.9190 0.9180 0.9160 0.9150 0.9150
1273.077580 0.9140 0.9120 0.9100 0.9080 0.9080
1279.734391 0.9070 0.9060 0.9040 0.9030 0.9000
1286.391202 0.9000 0.8990 0.8990 0.8960 0.8950
1293.048013 0.8950 0.8910 0.8900 0.8840 0.8820
1299.704824 0.8800 0.8790 0.8780 0.8760 0.8730
1306.361635 0.8720 0.8690 0.8680 0.8650 0.8610
1313.018446 0.8610 0.8530 0.8510 0.8480 0.8391
1319.675257 0.8330 0.8320 0.8320 0.8310 0.8280
1326.332068 0.8270 0.8240 0.8210 0.8200 0.8190
1332.988879 0.8120 0.7980 0.7930 0.7890 0.7840
1339.645690 0.7800 0.7730 0.7700 0.7620 0.7600
1346.302502 0.7520 0.7450 0.7330 0.7300 0.7250
1352.959313 0.7190 0.7130 0.7050 0.6990 0.6891
1359.616124 0.6830 0.6790 0.6720 0.6600 0.6540
1366.272935 0.6480 0.6390 0.6320 0.6240 0.6200
1372.929746 0.5920 0.5830 0.5770 0.5630 0.5500
1379.586557 0.5420 0.5370 0.5201 0.4971 0.4821
1386.243368 0.4690 0.4490 0.4280 0.4160 0.3711
1392.900179 0.3481 0.3311 0.3061 0.2971 0.2821
1399.556990 0.2620 0.2460 0.2290 0.2090 0.1970
1406.213801 0.1900 0.1890 0.1890 0.1900 0.1910
1412.870612 0.1930 0.1950 0.1990 0.2010 0.2010
1419.527423 0.2050 0.2090 0.2180 0.2299 0.2370
1426.184234 0.2420 0.2500 0.2570 0.2610 0.2690
1432.841045 0.2860 0.2970 0.3020 0.3189 0.3279
1439.497856 0.3370 0.3490 0.3680 0.3780 0.3880
1446.154667 0.3990 0.4100 0.4190 0.4270 0.4419
1452.811478 0.4590 0.4780 0.4830 0.4980 0.5100
1459.468289 0.5220 0.5369 0.5489 0.5639 0.5749
1466.125101 0.5880 0.5950 0.6000 0.6090 0.6190
1472.781912 0.6280 0.6429 0.6579 0.6600 0.6719
1479.438723 0.6820 0.6890 0.6970 0.7090 0.7190
1486.095534 0.7190 0.7250 0.7340 0.7380 0.7450
1492.752345 0.7520 0.7620 0.7640 0.7690 0.7700
1499.409156 0.7780 0.7780 0.7810 0.7840 0.7860
1506.065967 0.7890 0.7900 0.7930 0.7980 0.8000
1512.722778 0.8000 0.8020 0.8080 0.8090 0.8100
1519.379589 0.8150 0.8190 0.8200 0.8200 0.8210
1526.036400 0.8290 0.8290 0.8310 0.8310 0.8310
1532.693211 0.8320 0.8350 0.8360 0.8390 0.8390
1539.350022 0.8390 0.8400 0.8400 0.8410 0.8430
1546.006833 0.8440 0.8450 0.8450 0.8480 0.8480
1552.663644 0.8490 0.8510 0.8560 0.8600 0.8600
1559.320455 0.8630 0.8670 0.8680 0.8690 0.8710
1565.977266 0.8720 0.8750 0.8790 0.8800 0.8820
1572.634077 0.8820 0.8830 0.8830 0.8840 0.8840
1579.290888 0.8840 0.8860 0.8870 0.8870 0.8870
1585.947700 0.8860 0.8840 0.8840 0.8830 0.8820
1592.604511 0.8790 0.8790 0.8780 0.8760 0.8730
1599.261322 0.8710 0.8680 0.8650 0.8630 0.8600
1605.918133 0.8590 0.8560 0.8550 0.8550 0.8530
1612.574944 0.8530 0.8520 0.8520 0.8510 0.8510
1619.231755 0.8510 0.8520 0.8520 0.8530 0.8530
1625.888566 0.8560 0.8570 0.8600 0.8630 0.8640
1632.545377 0.8650 0.8680 0.8720 0.8730 0.8780
1639.202188 0.8790 0.8800 0.8830 0.8860 0.8880
1645.858999 0.8900 0.8910 0.8920 0.8950 0.8960
1652.515810 0.8980 0.8990 0.8990 0.9000 0.9020
1659.172621 0.9020 0.9020 0.9030 0.9030 0.9040
1665.829432 0.9040 0.9060 0.9060 0.9060 0.9070
1672.486243 0.9080 0.9100 0.9140 0.9150 0.9150
1679.143054 0.9110 0.9060 0.9020 0.9020 0.9070
1685.799865 0.9100 0.9110 0.9110 0.9120 0.9120
1692.456676 0.9140 0.9140 0.9150 0.9160 0.9160
1699.113487 0.9180 0.9190 0.9200 0.9220 0.9230
1705.770298 0.9240 0.9260 0.9270 0.9280 0.9280
1712.427110 0.9310 0.9320 0.9340 0.9340 0.9320
1719.083921 0.9310 0.9310 0.9320 0.9320 0.9320
1725.740732 0.9340 0.9340 0.9320 0.9310 0.9300
1732.397543 0.9270 0.9260 0.9230 0.9220 0.9200
1739.054354 0.9200 0.9190 0.9190 0.9190 0.9190
1745.711165 0.9190 0.9200 0.9200 0.9200 0.9220
1752.367976 0.9220 0.9230 0.9230 0.9240 0.9240
1759.024787 0.9260 0.9280 0.9300 0.9320 0.9340
1765.681598 0.9360 0.9360 0.9380 0.9410 0.9430
1772.338409 0.9430 0.9420 0.9410 0.9410 0.9410
1778.995220 0.9410 0.9420 0.9430 0.9450 0.9450
1785.652031 0.9460 0.9460 0.9450 0.9450 0.9430
1792.308842 0.9430 0.9450 0.9460 0.9450 0.9450
1798.965653 0.9430 0.9430 0.9430 0.9430 0.9430
1805.622464 0.9430 0.9430 0.9430 0.9430 0.9450
1812.279275 0.9450 0.9450 0.9460 0.9460 0.9460
1818.936086 0.9460 0.9460 0.9460 0.9460 0.9460
1825.592897 0.9460 0.9460 0.9450 0.9450 0.9450
1832.249709 0.9450 0.9450 0.9450 0.9450 0.9450
1838.906520 0.9460 0.9460 0.9460 0.9450 0.9450
1845.563331 0.9450 0.9430 0.9430 0.9430 0.9430
1852.220142 0.9450 0.9450 0.9450 0.9450 0.9450
1858.876953 0.9450 0.9450 0.9450 0.9450 0.9450
1865.533764 0.9430 0.9430 0.9430 0.9430 0.9430
1872.190575 0.9430 0.9430 0.9420 0.9420 0.9420
1878.847386 0.9420 0.9420 0.9420 0.9410 0.9410
1885.504197 0.9420 0.9420 0.9420 0.9420 0.9420
1892.161008 0.9410 0.9410 0.9410 0.9410 0.9390
1898.817819 0.9390 0.9410 0.9410 0.9410 0.9410
1905.474630 0.9410 0.9410 0.9410 0.9420 0.9420
1912.131441 0.9410 0.9410 0.9410 0.9410 0.9390
1918.788252 0.9390 0.9390 0.9390 0.9390 0.9410
1925.445063 0.9410 0.9410 0.9410 0.9390 0.9390
1932.101874 0.9380 0.9360 0.9380 0.9390 0.9390
1938.758685 0.9410 0.9410 0.9390 0.9390 0.9390
1945.415496 0.9390 0.9390 0.9390 0.9390 0.9390
1952.072308 0.9390 0.9410 0.9390 0.9390 0.9390
1958.729119 0.9380 0.9380 0.9380 0.9390 0.9390
1965.385930 0.9390 0.9390 0.9390 0.9380 0.9360
1972.042741 0.9360 0.9360 0.9360 0.9360 0.9360
1978.699552 0.9360 0.9360 0.9380 0.9360 0.9360
1985.356363 0.9360 0.9360 0.9360 0.9360 0.9360
1992.013174 0.9360 0.9360 0.9360 0.9360 0.9360
1998.669985 0.9360 0.9360 0.9355 0.9350 0.9350
2005.326796 0.9350 0.9350 0.9350 0.9345 0.9340
2011.983607 0.9340 0.9340 0.9340 0.9340 0.9340
2018.640418 0.9340 0.9340 0.9340 0.9330 0.9320
2025.297229 0.9320 0.9320 0.9315 0.9310 0.9310
2031.954040 0.9310 0.9310 0.9310 0.9310 0.9310
2038.610851 0.9310 0.9310 0.9310 0.9310 0.9315
2045.267662 0.9320 0.9320 0.9320 0.9310 0.9300
2051.924473 0.9300 0.9300 0.9300 0.9300 0.9300
2058.581284 0.9300 0.9305 0.9310 0.9310 0.9310
2065.238095 0.9310 0.9310 0.9310 0.9310 0.9305
2071.894907 0.9300 0.9300 0.9300 0.9300 0.9300
2078.551718 0.9300 0.9300 0.9300 0.9300 0.9300
2085.208529 0.9300 0.9305 0.9310 0.9310 0.9310
2091.865340 0.9305 0.9300 0.9300 0.9300 0.9305
2098.522151 0.9310 0.9310 0.9310 0.9310 0.9310
2105.178962 0.9310 0.9310 0.9310 0.9310 0.9310
2111.835773 0.9310 0.9310 0.9310 0.9310 0.9310
2118.492584 0.9310 0.9310 0.9310 0.9310 0.9310
2125.149395 0.9310 0.9310 0.9310 0.9310 0.9310
2131.806206 0.9305 0.9300 0.9300 0.9300 0.9300
2138.463017 0.9300 0.9300 0.9300 0.9300 0.9300
2145.119828 0.9290 0.9280 0.9275 0.9270 0.9270
2151.776639 0.9270 0.9270 0.9270 0.9270 0.9270
2158.433450 0.9265 0.9260 0.9260 0.9260 0.9265
2165.090261 0.9270 0.9270 0.9270 0.9275 0.9280
2171.747072 0.9280 0.9280 0.9280 0.9280 0.9280
2178.403883 0.9280 0.9275 0.9270 0.9270 0.9270
2185.060694 0.9270 0.9270 0.9275 0.9280 0.9275
2191.717506 0.9270 0.9270 0.9270 0.9270 0.9270
2198.374317 0.9265 0.9260 0.9260 0.9260 0.9265
2205.031128 0.9270 0.9270 0.9270 0.9270 0.9270
2211.687939 0.9275 0.9280 0.9275 0.9270 0.9270
2218.344750 0.9270 0.9270 0.9270 0.9270 0.9270
2225.001561 0.9270 0.9270 0.9270 0.9270 0.9265
2231.658372 0.9260 0.9260 0.9260 0.9265 0.9270
2238.315183 0.9270 0.9270 0.9265 0.9260 0.9260
2244.971994 0.9260 0.9260 0.9260 0.9265 0.9270
2251.628805 0.9270 0.9270 0.9270 0.9270 0.9270
2258.285616 0.9270 0.9270 0.9270 0.9265 0.9260
2264.942427 0.9250 0.9240 0.9240 0.9240 0.9240
2271.599238 0.9240 0.9250 0.9260 0.9260 0.9260
2278.256049 0.9265 0.9270 0.9270 0.9270 0.9270
2284.912860 0.9270 0.9270 0.9270 0.9270 0.9270
2291.569671 0.9270 0.9270 0.9270 0.9270 0.9270
2298.226482 0.9270 0.9270 0.9270 0.9270 0.9270
2304.883293 0.9265 0.9260 0.9260 0.9260 0.9260
2311.540105 0.9260 0.9260 0.9260 0.9260 0.9260
2318.196916 0.9260 0.9260 0.9260 0.9260 0.9260
2324.853727 0.9260 0.9265 0.9270 0.9270 0.9270
2331.510538 0.9270 0.9270 0.9265 0.9260 0.9260
2338.167349 0.9260 0.9260 0.9260 0.9251 0.9241
2344.824160 0.9235 0.9230 0.9230 0.9230 0.9230
2351.480971 0.9230 0.9225 0.9220 0.9220 0.9220
2358.137782 0.9220 0.9220 0.9211 0.9201 0.9200
2364.794593 0.9200 0.9195 0.9190 0.9190 0.9190
2371.451404 0.9190 0.9190 0.9190 0.9190 0.9190
2378.108215 0.9190 0.9190 0.9190 0.9190 0.9190
2384.765026 0.9185 0.9180 0.9180 0.9180 0.9180
2391.421837 0.9180 0.9171 0.9161 0.9169 0.9179
2398.078648 0.9180 0.9180 0.9180 0.9180 0.9170
2404.735459 0.9160 0.9160 0.9160 0.9155 0.9150
2411.392270 0.9150 0.9150 0.9150 0.9150 0.9150
2418.049081 0.9150 0.9150 0.9150 0.9150 0.9150
2424.705892 0.9145 0.9140 0.9140 0.9140 0.9140
2431.362704 0.9140 0.9131 0.9121 0.9115 0.9110
2438.019515 0.9110 0.9110 0.9110 0.9110 0.9115
2444.676326 0.9120 0.9120 0.9120 0.9120 0.9120
2451.333137 0.9120 0.9120 0.9120 0.9120 0.9129
2457.989948 0.9139 0.9140 0.9140 0.9140 0.9140
2464.646759 0.9131 0.9121 0.9120 0.9120 0.9120
2471.303570 0.9120 0.9120 0.9120 0.9120 0.9120
2477.960381 0.9120 0.9120 0.9120 0.9120 0.9129
2484.617192 0.9139 0.9140 0.9140 0.9140 0.9140
2491.274003 0.9140 0.9140 0.9140 0.9140 0.9140
2497.930814 0.9140 0.9140 0.9140 0.9145 0.9150
2504.587625 0.9150 0.9150 0.9150 0.9150 0.9150
2511.244436 0.9150 0.9150 0.9150 0.9150 0.9150
2517.901247 0.9150 0.9150 0.9150 0.9150 0.9150
2524.558058 0.9150 0.9150 0.9150 0.9150 0.9150
2531.214869 0.9150 0.9150 0.9150 0.9150 0.9150
2537.871680 0.9150 0.9155 0.9160 0.9160 0.9160
2544.528491 0.9160 0.9160 0.9160 0.9160 0.9155
2551.185303 0.9150 0.9150 0.9150 0.9150 0.9150
2557.842114 0.9150 0.9150 0.9150 0.9150 0.9150
2564.498925 0.9150 0.9150 0.9150 0.9150 0.9150
2571.155736 0.9145 0.9140 0.9140 0.9140 0.9140
2577.812547 0.9140 0.9140 0.9140 0.9140 0.9140
2584.469358 0.9140 0.9140 0.9145 0.9150 0.9145
2591.126169 0.9140 0.9140 0.9140 0.9140 0.9140
2597.782980 0.9140 0.9140 0.9140 0.9140 0.9140
2604.439791 0.9140 0.9140 0.9140 0.9140 0.9140
2611.096602 0.9140 0.9140 0.9140 0.9140 0.9140
2617.753413 0.9140 0.9140 0.9140 0.9131 0.9121
2624.410224 0.9115 0.9110 0.9110 0.9110 0.9105
2631.067035 0.9100 0.9100 0.9100 0.9105 0.9110
2637.723846 0.9115 0.9120 0.9120 0.9120 0.9115
2644.380657 0.9110 0.9105 0.9100 0.9100 0.9100
2651.037468 0.9100 0.9100 0.9100 0.9100 0.9100
2657.694279 0.9100 0.9100 0.9100 0.9105 0.9110
2664.351090 0.9110 0.9110 0.9105 0.9100 0.9100
2671.007902 0.9100 0.9100 0.9100 0.9100 0.9100
2677.664713 0.9100 0.9100 0.9091 0.9081 0.9080
2684.321524 0.9080 0.9080 0.9080 0.9075 0.9071
2690.978335 0.9070 0.9070 0.9075 0.9080 0.9080
2697.635146 0.9080 0.9080 0.9080 0.9080 0.9080
2704.291957 0.9080 0.9080 0.9080 0.9080 0.9080
2710.948768 0.9080 0.9080 0.9080 0.9080 0.9080
2717.605579 0.9080 0.9080 0.9080 0.9080 0.9075
2724.262390 0.9070 0.9070 0.9070 0.9070 0.9070
2730.919201 0.9070 0.9070 0.9070 0.9070 0.9070
2737.576012 0.9070 0.9070 0.9070 0.9070 0.9070
2744.232823 0.9070 0.9070 0.9065 0.9060 0.9060
2750.889634 0.9060 0.9060 0.9060 0.9060 0.9060
2757.546445 0.9060 0.9060 0.9060 0.9060 0.9051
2764.203256 0.9041 0.9040 0.9040 0.9040 0.9040
2770.860067 0.9035 0.9030 0.9030 0.9030 0.9025
2777.516878 0.9020 0.9020 0.9020 0.9020 0.9020
2784.173689 0.9020 0.9020 0.9020 0.9020 0.9011
2790.830501 0.9001 0.9000 0.9000 0.9000 0.9000
2797.487312 0.9000 0.9000 0.9000 0.9000 0.9000
2804.144123 0.9000 0.9000 0.9000 0.9000 0.9000
2810.800934 0.9000 0.9000 0.9000 0.9000 0.9000
2817.457745 0.9000 0.9000 0.9000 0.9000 0.9000
2824.114556 0.9000 0.9000 0.8995 0.8990 0.8990
2830.771367 0.8990 0.8985 0.8980 0.8980 0.8980
2837.428178 0.8980 0.8980 0.8980 0.8980 0.8980
2844.084989 0.8980 0.8971 0.8961 0.8956 0.8951
2850.741800 0.8950 0.8950 0.8945 0.8940 0.8931
2857.398611 0.8921 0.8920 0.8920 0.8916 0.8911
2864.055422 0.8910 0.8910 0.8914 0.8919 0.8920
2870.712233 0.8920 0.8916 0.8911 0.8910 0.8910
2877.369044 0.8910 0.8910 0.8910 0.8910 0.8910
2884.025855 0.8910 0.8910 0.8910 0.8914 0.8919
2890.682666 0.8920 0.8920 0.8920 0.8920 0.8920
2897.339477 0.8920 0.8933 0.8948 0.8950 0.8950
2903.996288 0.8937 0.8922 0.8911 0.8901 0.8891
2910.653100 0.8881 0.8871 0.8861 0.8851 0.8841
2917.309911 0.8836 0.8831 0.8830 0.8830 0.8817
2923.966722 0.8802 0.8796 0.8791 0.8790 0.8790
2930.623533 0.8790 0.8790 0.8790 0.8790 0.8790
2937.280344 0.8790 0.8790 0.8790 0.8794 0.8799
2943.937155 0.8809 0.8819 0.8820 0.8820 0.8824
2950.593966 0.8829 0.8830 0.8830 0.8826 0.8821
2957.250777 0.8820 0.8820 0.8820 0.8820 0.8811
2963.907588 0.8801 0.8800 0.8800 0.8809 0.8819
2970.564399 0.8824 0.8829 0.8834 0.8839 0.8840
2977.221210 0.8840 0.8849 0.8859 0.8860 0.8860
2983.878021 0.8860 0.8860 0.8864 0.8869 0.8870
2990.534832 0.8870 0.8870 0.8870 0.8874 0.8879
2997.191643 0.8880 0.8880 0.8880 0.8880 0.8880
3003.848454 0.8880 0.8880 0.8880 0.8880 0.8880
3010.505265 0.8880 0.8880 0.8880 0.8880 0.8880
3017.162076 0.8880 0.8880 0.8880 0.8880 0.8880
3023.818887 0.8880 0.8880 0.8880 0.8880 0.8876
3030.475699 0.8871 0.8870 0.8870 0.8870 0.8870
3037.132510 0.8866 0.8861 0.8860 0.8860 0.8860
3043.789321 0.8860 0.8860 0.8860 0.8851 0.8841
3050.446132 0.8840 0.8840 0.8840 0.8840 0.8840
3057.102943 0.8840 0.8840 0.8840 0.8840 0.8840
3063.759754 0.8840 0.8840 0.8840 0.8840 0.8840
3070.416565 0.8840 0.8840 0.8840 0.8840 0.8840
3077.073376 0.8840 0.8840 0.8840 0.8840 0.8840
3083.730187 0.8840 0.8836 0.8831 0.8830 0.8830
3090.386998 0.8830 0.8830 0.8830 0.8830 0.8830
3097.043809 0.8830 0.8830 0.8830 0.8830 0.8830
3103.700620 0.8826 0.8821 0.8820 0.8820 0.8820
3110.357431 0.8820 0.8820 0.8820 0.8820 0.8820
3117.014242 0.8820 0.8820 0.8820 0.8820 0.8811
3123.671053 0.8801 0.8800 0.8800 0.8796 0.8791
3130.327864 0.8790 0.8790 0.8790 0.8790 0.8786
3136.984675 0.8781 0.8780 0.8780 0.8780 0.8780
3143.641486 0.8771 0.8761 0.8760 0.8760 0.8760
3150.298297 0.8760 0.8756 0.8751 0.8750 0.8750
3156.955109 0.8741 0.8731 0.8730 0.8730 0.8726
3163.611920 0.8721 0.8720 0.8720 0.8720 0.8720
3170.268731 0.8716 0.8711 0.8710 0.8710 0.8710
3176.925542 0.8710 0.8701 0.8691 0.8690 0.8690
3183.582353 0.8690 0.8690 0.8686 0.8681 0.8680
3190.239164 0.8680 0.8680 0.8680 0.8676 0.8671
3196.895975 0.8661 0.8651 0.8646 0.8641 0.8627
3203.552786 0.8612 0.8606 0.8601 0.8596 0.8591
3210.209597 0.8590 0.8590 0.8590 0.8590 0.8590
3216.866408 0.8590 0.8582 0.8572 0.8570 0.8570
3223.523219 0.8561 0.8551 0.8550 0.8550 0.8537
3230.180030 0.8522 0.8520 0.8520 0.8520 0.8520
3236.836841 0.8516 0.8511 0.8510 0.8510 0.8502
3243.493652 0.8492 0.8473 0.8453 0.8450 0.8450
3250.150463 0.8446 0.8441 0.8440 0.8440 0.8427
3256.807274 0.8412 0.8410 0.8410 0.8410 0.8410
3263.464085 0.8406 0.8401 0.8396 0.8391 0.8382
3270.120896 0.8372 0.8366 0.8361 0.8360 0.8360
3276.777708 0.8360 0.8360 0.8360 0.8360 0.8356
3283.434519 0.8351 0.8337 0.8322 0.8316 0.8311
3290.091330 0.8310 0.8310 0.8302 0.8292 0.8290
3296.748141 0.8290 0.8286 0.8281 0.8276 0.8271
3303.404952 0.8257 0.8242 0.8236 0.8231 0.8230
3310.061763 0.8230 0.8222 0.8212 0.8206 0.8201
3316.718574 0.8196 0.8191 0.8177 0.8162 0.8143
3323.375385 0.8123 0.8107 0.8093 0.8078 0.8063
3330.032196 0.8039 0.8014 0.7980 0.7945 0.7936
3336.689007 0.7931 0.7926 0.7921 0.7895 0.7865
3343.345818 0.7839 0.7814 0.7797 0.7782 0.7763
3350.002629 0.7743 0.7736 0.7731 0.7726 0.7721
3356.659440 0.7707 0.7692 0.7677 0.7662 0.7652
3363.316251 0.7642 0.7627 0.7612 0.7606 0.7601
3369.973062 0.7592 0.7582 0.7555 0.7525 0.7508
3376.629873 0.7493 0.7482 0.7472 0.7437 0.7397
3383.286684 0.7373 0.7353 0.7333 0.7313 0.7302
3389.943495 0.7292 0.7290 0.7290 0.7282 0.7272
3396.600307 0.7253 0.7233 0.7213 0.7193 0.7169
3403.257118 0.7144 0.7119 0.7094 0.7065 0.7035
3409.913929 0.7013 0.6993 0.6973 0.6953 0.6942
3416.570740 0.6932 0.6917 0.6902 0.6896 0.6891
3423.227551 0.6882 0.6872 0.6866 0.6861 0.6852
3429.884362 0.6842 0.6836 0.6831 0.6826 0.6821
3436.541173 0.6820 0.6820 0.6812 0.6802 0.6800
3443.197984 0.6800 0.6796 0.6791 0.6790 0.6790
3449.854795 0.6786 0.6781 0.6780 0.6780 0.6772
3456.511606 0.6762 0.6756 0.6751 0.6750 0.6750
3463.168417 0.6750 0.6750 0.6754 0.6759 0.6760
3469.825228 0.6760 0.6760 0.6760 0.6760 0.6760
3476.482039 0.6760 0.6760 0.6760 0.6760 0.6768
3483.138850 0.6778 0.6780 0.6780 0.6780 0.6780
3489.795661 0.6780 0.6780 0.6780 0.6780 0.6784
3496.452472 0.6789 0.6790 0.6790 0.6790 0.6790
3503.109283 0.6802 0.6817 0.6820 0.6820 0.6820
3509.766094 0.6820 0.6824 0.6829 0.6830 0.6830
3516.422906 0.6834 0.6839 0.6848 0.6858 0.6860
3523.079717 0.6860 0.6852 0.6842 0.6840 0.6840
3529.736528 0.6836 0.6831 0.6826 0.6821 0.6820
3536.393339 0.6820 0.6812 0.6802 0.6800 0.6800
3543.050150 0.6800 0.6800 0.6800 0.6800 0.6808
3549.706961 0.6818 0.6824 0.6829 0.6859 0.6894
3556.363772 0.6904 0.6909 0.6922 0.6937 0.6985
3563.020583 0.7040 0.7082 0.7122 0.7154 0.7184
3569.677394 0.7247 0.7318 0.7367 0.7412 0.7478
3576.334205 0.7548 0.7576 0.7596 0.7625 0.7654
3582.991016 0.7701 0.7751 0.7768 0.7778 0.7796
3589.647827 0.7816 0.7860 0.7910 0.7924 0.7929
3596.304638 0.7950 0.7976 0.7988 0.7998 0.8000
3602.961449 0.8000 0.8004 0.8009 0.8026 0.8046
3609.618260 0.8078 0.8113 0.8140 0.8165 0.8194
3616.275071 0.8224 0.8254 0.8284 0.8302 0.8317
3622.931882 0.8324 0.8329 0.8355 0.8385 0.8394
3629.588693 0.8399 0.8412 0.8427 0.8446 0.8466
3636.245505 0.8474 0.8479 0.8492 0.8507 0.8514
3642.902316 0.8519 0.8524 0.8529 0.8538 0.8548
3649.559127 0.8558 0.8568 0.8582 0.8597 0.8600
3656.215938 0.8600 0.8604 0.8609 0.8618 0.8628
3662.872749 0.8630 0.8630 0.8630 0.8630 0.8630
3669.529560 0.8630 0.8634 0.8639 0.8640 0.8640
3676.186371 0.8640 0.8640 0.8640 0.8640 0.8640
3682.843182 0.8640 0.8640 0.8640 0.8640 0.8640
3689.499993 0.8640 0.8640 0.8640 0.8640 0.8644
3696.156804 0.8649 0.8650 0.8650 0.8650 0.8650
3702.813615 0.8650 0.8650 0.8650 0.8650 0.8650
3709.470426 0.8650 0.8650 0.8650 0.8650 0.8650
3716.127237 0.8650 0.8650 0.8650 0.8650 0.8650
3722.784048 0.8650 0.8658 0.8668 0.8670 0.8670
3729.440859 0.8670 0.8670 0.8670 0.8670 0.8670
3736.097670 0.8670 0.8670 0.8670 0.8670 0.8670
3742.754481 0.8670 0.8670 0.8670 0.8670 0.8670
3749.411292 0.8670 0.8670 0.8670 0.8674 0.8679
3756.068104 0.8680 0.8680 0.8680 0.8680 0.8680
3762.724915 0.8680 0.8680 0.8680 0.8680 0.8680
3769.381726 0.8680 0.8680 0.8680 0.8680 0.8680
3776.038537 0.8680 0.8680 0.8680 0.8680 0.8680
3782.695348 0.8680 0.8680 0.8680 0.8680 0.8680
3789.352159 0.8680 0.8680 0.8680 0.8680 0.8680
3796.008970 0.8680 0.8680 0.8680 0.8680 0.8680
3802.665781 0.8680 0.8680 0.8680 0.8680 0.8680
3809.322592 0.8680 0.8680 0.8680 0.8680 0.8676
3815.979403 0.8671 0.8670 0.8670 0.8670 0.8670
3822.636214 0.8670 0.8670 0.8670 0.8670 0.8670
3829.293025 0.8670 0.8670 0.8670 0.8662 0.8652
3835.949836 0.8650 0.8650 0.8650 0.8650 0.8650
3842.606647 0.8650 0.8650 0.8650 0.8650 0.8650
3849.263458 0.8646 0.8641 0.8640 0.8640 0.8640
3855.920269 0.8640 0.8640 0.8640 0.8640 0.8640
3862.577080 0.8640 0.8640 0.8640 0.8640 0.8640
3869.233891 0.8640 0.8640 0.8640 0.8640 0.8640
3875.890703 0.8640 0.8640 0.8644 0.8649 0.8650
3882.547514 0.8650 0.8642 0.8632 0.8630 0.8630
3889.204325 0.8630 0.8630 0.8622 0.8612 0.8610
3895.861136 0.8610 0.8606 0.8601 0.8600 0.8600
3902.517947 0.8604 0.8609 0.8610 0.8610 0.8610
3909.174758 0.8610 0.8610 0.8610 0.8618 0.8628
3915.831569 0.8634 0.8639 0.8640 0.8640 0.8640
3922.488380 0.8640 0.8636 0.8631 0.8630 0.8630
3929.145191 0.8630 0.8630 0.8630 0.8630 0.8634
3935.802002 0.8639 0.8636 0.8631 0.8630 0.8630
3942.458813 0.8630 0.8630 0.8622 0.8612 0.8610
3949.115624 0.8610 0.8610 0.8610 0.8610 0.8610
3955.772435 0.8610 0.8610 0.8610 0.8610 0.8610
3962.429246 0.8610 0.8610 0.8610 0.8610 0.8610
3969.086057 0.8610 0.8610 0.8610 0.8610 0.8610
3975.742868 0.8610 0.8610 0.8610 0.8610 0.8610
3982.399679 0.8606 0.8601 0.8600 0.8600
##END=
