##TITLE=ESTRADIOL-17B MONOBENZOATE
##JCAMP-DX=4.24
##DATA TYPE=INFRARED SPECTRUM
##CLASS=COBLENTZ
##ORIGIN=DEPARTMENT OF PHARMACOLOGY, THE STATE UNIVERSITY OF IOWA, IOWA
##OWNER=COBLENTZ SOCIETY
Collection (C) 2018 copyright by the U.S. Secretary of Commerce
on behalf of the United States of America. All rights reserved.
##DATE=Not specified, most likely prior to 1970
##MOLFORM=C27 H32 O3
##MP=195-197 C (CORR.)
##SOURCE REFERENCE=COBLENTZ NO. 103
##$NIST ID=B6000103
##$NIST SOURCE=COBLENTZ
##$NIST IMAGE=cob103
##SPECTROMETER/DATA SYSTEM=Not specified, most likely a prism, grating, or hybrid spectrometer.
##STATE=SOLUTION (2.2% IN CS2)
##PATH LENGTH=0.1 CM
##SAMPLING PROCEDURE=TRANSMISSION
##RESOLUTION=4
##DATA PROCESSING=DIGITIZED BY NIST FROM HARD COPY
##XUNITS=MICROMETERS
##YUNITS=TRANSMITTANCE
##XFACTOR=1.000000
##YFACTOR=1
##DELTAX=000.007432
##FIRSTX=2.038
##LASTX=15.2143
##FIRSTY=0.634
##MAXX=15.2143
##MINX=2.038
##MAXY=0.65
##MINY=0.117
##NPOINTS=1774
##XYDATA=(X++(Y..Y))
2.038000 0.6340 0.6340 0.6340 0.6350 0.6350
2.075180 0.6350 0.6350 0.6350 0.6350 0.6350
2.112000 0.6350 0.6350 0.6350 0.6350 0.6350
2.149180 0.6350 0.6350 0.6350 0.6350 0.6350
2.187000 0.6350 0.6370 0.6370 0.6350 0.6350
2.224180 0.6350 0.6350 0.6350 0.6340 0.6320
2.261000 0.6320 0.6310 0.6310 0.6310 0.6310
2.298180 0.6310 0.6310 0.6310 0.6310 0.6310
2.335000 0.6310 0.6310 0.6310 0.6310 0.6310
2.372180 0.6310 0.6310 0.6310 0.6310 0.6310
2.410000 0.6310 0.6290 0.6290 0.6290 0.6290
2.447180 0.6290 0.6290 0.6290 0.6290 0.6290
2.484000 0.6290 0.6290 0.6310 0.6310 0.6310
2.521180 0.6320 0.6320 0.6320 0.6320 0.6320
2.558000 0.6320 0.6320 0.6340 0.6340 0.6340
2.595180 0.6340 0.6340 0.6340 0.6340 0.6340
2.633000 0.6340 0.6340 0.6340 0.6320 0.6320
2.670180 0.6320 0.6310 0.6310 0.6310 0.6290
2.707000 0.6280 0.6260 0.6220 0.6150 0.5350
2.744180 0.4860 0.4860 0.4920 0.5010 0.5110
2.781000 0.5200 0.5260 0.5480 0.5610 0.5670
2.818180 0.5720 0.5810 0.5850 0.5940 0.5950
2.855000 0.5970 0.5970 0.5980 0.5980 0.5980
2.892180 0.6000 0.6000 0.6010 0.6010 0.6030
2.930000 0.6040 0.6060 0.6070 0.6090 0.6100
2.967180 0.6130 0.6150 0.6160 0.6170 0.6190
3.004000 0.6200 0.6190 0.6190 0.6190 0.6190
3.041180 0.6190 0.6190 0.6190 0.6200 0.6190
3.078000 0.6190 0.6200 0.6190 0.6190 0.6200
3.115180 0.6200 0.6200 0.6200 0.6200 0.6200
3.153000 0.6200 0.6220 0.6220 0.6200 0.6200
3.190180 0.6200 0.6200 0.6190 0.6190 0.6160
3.227000 0.6100 0.6040 0.6010 0.5810 0.5640
3.264180 0.5570 0.5560 0.5530 0.5510 0.5510
3.301000 0.5500 0.5480 0.5390 0.4480 0.4380
3.338180 0.4050 0.3980 0.3950 0.3740 0.3390
3.376000 0.3000 0.2800 0.2550 0.2370 0.2270
3.413180 0.2210 0.2210 0.2210 0.2220 0.2240
3.450000 0.2240 0.2250 0.2270 0.2280 0.2310
3.487180 0.2340 0.2460 0.2780 0.2900 0.3510
3.524000 0.3680 0.3920 0.4020 0.4230 0.4430
3.561180 0.4640 0.4760 0.4890 0.5000 0.5100
3.599000 0.5250 0.5320 0.5470 0.5580 0.5730
3.636180 0.5840 0.5870 0.5940 0.5970 0.6000
3.673000 0.6010 0.6010 0.6040 0.6060 0.6070
3.710180 0.6090 0.6100 0.6120 0.6130 0.6130
3.747000 0.6150 0.6160 0.6170 0.6170 0.6190
3.784180 0.6200 0.6200 0.6220 0.6220 0.6230
3.822000 0.6250 0.6250 0.6250 0.6260 0.6260
3.859180 0.6280 0.6280 0.6280 0.6290 0.6290
3.896000 0.6310 0.6310 0.6310 0.6320 0.6320
3.933180 0.6340 0.6340 0.6340 0.6350 0.6350
3.970000 0.6350 0.6350 0.6350 0.6370 0.6370
4.007180 0.6350 0.6350 0.6350 0.6350 0.6350
4.045000 0.6350 0.6370 0.6370 0.6370 0.6370
4.082180 0.6370 0.6370 0.6370 0.6380 0.6380
4.119000 0.6380 0.6380 0.6380 0.6380 0.6380
4.156180 0.6380 0.6380 0.6400 0.6380 0.6380
4.193000 0.6400 0.6380 0.6380 0.6380 0.6380
4.230180 0.6380 0.6380 0.6380 0.6380 0.6370
4.268000 0.6370 0.6350 0.6350 0.6350 0.6340
4.305180 0.6340 0.6320 0.6310 0.6290 0.6280
4.342000 0.6260 0.6250 0.6230 0.6190 0.6120
4.379180 0.6060 0.6010 0.5970 0.5940 0.5920
4.416000 0.5910 0.5880 0.5880 0.5910 0.5920
4.453180 0.6000 0.6000 0.6010 0.6030 0.6060
4.491000 0.6090 0.6090 0.6040 0.6030 0.6010
4.528180 0.5980 0.5970 0.5870 0.5820 0.5750
4.565000 0.5720 0.5660 0.5580 0.5530 0.5470
4.602180 0.5440 0.5390 0.5360 0.5330 0.5290
4.639000 0.5230 0.5160 0.5070 0.5010 0.4970
4.676180 0.4920 0.4860 0.4830 0.4800 0.4770
4.713000 0.4730 0.4710 0.4700 0.4700 0.4700
4.750180 0.4710 0.4710 0.4760 0.4770 0.4860
4.788000 0.5480 0.5790 0.5880 0.5980 0.6000
4.825180 0.6010 0.6070 0.6130 0.6170 0.6220
4.862000 0.6250 0.6310 0.6340 0.6350 0.6400
4.899180 0.6410 0.6410 0.6430 0.6440 0.6460
4.936000 0.6480 0.6480 0.6500 0.6500 0.6500
4.973180 0.6500 0.6500 0.6500 0.6500 0.6500
5.011000 0.6480 0.6480 0.6480 0.6480 0.6480
5.048180 0.6480 0.6470 0.6460 0.6460 0.6440
5.085000 0.6410 0.6400 0.6400 0.6380 0.6380
5.122180 0.6380 0.6400 0.6400 0.6400 0.6410
5.159000 0.6430 0.6430 0.6440 0.6440 0.6430
5.196180 0.6430 0.6410 0.6410 0.6400 0.6400
5.234000 0.6380 0.6380 0.6380 0.6380 0.6380
5.271180 0.6380 0.6380 0.6380 0.6380 0.6380
5.308000 0.6380 0.6380 0.6380 0.6400 0.6400
5.345180 0.6400 0.6410 0.6410 0.6410 0.6410
5.382000 0.6430 0.6430 0.6430 0.6430 0.6430
5.419180 0.6430 0.6440 0.6440 0.6430 0.6410
5.457000 0.6400 0.6380 0.6350 0.6310 0.6280
5.494180 0.6260 0.6230 0.6220 0.6220 0.6220
5.531000 0.6220 0.6220 0.6220 0.6220 0.6200
5.568180 0.6200 0.6190 0.6170 0.6150 0.6120
5.605000 0.6070 0.6040 0.5980 0.5910 0.5820
5.642180 0.5750 0.5670 0.5560 0.5470 0.5360
5.680000 0.5170 0.4920 0.4770 0.3760 0.3430
5.717180 0.3120 0.2710 0.2550 0.2370 0.2210
5.754000 0.1990 0.1840 0.1790 0.1780 0.1790
5.791180 0.2500 0.3000 0.3230 0.3520 0.4010
5.828000 0.4140 0.4460 0.4640 0.4760 0.4910
5.865180 0.4970 0.5040 0.5100 0.5130 0.5140
5.903000 0.5220 0.5280 0.5350 0.5410 0.5440
5.940180 0.5480 0.5510 0.5600 0.5610 0.5690
5.977000 0.5690 0.5720 0.5730 0.5750 0.5750
6.014180 0.5760 0.5780 0.5790 0.5790 0.5790
6.051000 0.5780 0.5760 0.5750 0.5750 0.5750
6.088180 0.5730 0.5720 0.5720 0.5700 0.5660
6.126000 0.5660 0.5640 0.5580 0.5530 0.5450
6.163180 0.5410 0.5330 0.5230 0.5160 0.5140
6.200000 0.5100 0.5070 0.5050 0.4950 0.4890
6.237180 0.4850 0.4790 0.4740 0.4640 0.4570
6.274000 0.4510 0.4450 0.4420 0.4390 0.4350
6.311180 0.4320 0.4270 0.4240 0.4230 0.4210
6.348000 0.4180 0.4150 0.4140 0.4110 0.4080
6.385180 0.4070 0.4020 0.4020 0.4010 0.4010
6.423000 0.3990 0.3980 0.3980 0.3960 0.3960
6.460180 0.3950 0.3930 0.3930 0.3920 0.3920
6.497000 0.3900 0.3900 0.3900 0.3900 0.3900
6.534180 0.3900 0.3900 0.3900 0.3900 0.3900
6.571000 0.3900 0.3900 0.3900 0.3900 0.3900
6.608180 0.3900 0.3890 0.3890 0.3890 0.3890
6.646000 0.3890 0.3870 0.3890 0.3870 0.3870
6.683180 0.3860 0.3840 0.3840 0.3840 0.3840
6.720000 0.3840 0.3830 0.3830 0.3820 0.3820
6.757180 0.3820 0.3800 0.3800 0.3800 0.3790
6.794000 0.3790 0.3770 0.3770 0.3770 0.3760
6.831180 0.3760 0.3740 0.3730 0.3730 0.3710
6.869000 0.3710 0.3700 0.3680 0.3680 0.3670
6.906180 0.3670 0.3650 0.3640 0.3620 0.3590
6.943000 0.3590 0.3580 0.3560 0.3560 0.3550
6.980180 0.3550 0.3530 0.3530 0.3510 0.3490
7.017000 0.3480 0.3460 0.3460 0.3450 0.3450
7.054180 0.3450 0.3430 0.3430 0.3420 0.3420
7.092000 0.3420 0.3420 0.3420 0.3420 0.3420
7.129180 0.3420 0.3420 0.3430 0.3430 0.3430
7.166000 0.3430 0.3430 0.3450 0.3460 0.3490
7.203180 0.3530 0.3580 0.3640 0.3680 0.3710
7.240000 0.3730 0.3740 0.3740 0.3740 0.3760
7.277180 0.3770 0.3790 0.3820 0.3900 0.3920
7.315000 0.3990 0.4240 0.4640 0.4700 0.4730
7.352180 0.4790 0.4830 0.4850 0.4880 0.4890
7.389000 0.4910 0.4920 0.4940 0.4940 0.4950
7.426180 0.4950 0.4940 0.4940 0.4920 0.4920
7.463000 0.4910 0.4910 0.4880 0.4860 0.4850
7.500180 0.4830 0.4830 0.4820 0.4800 0.4800
7.538000 0.4790 0.4770 0.4770 0.4770 0.4760
7.575180 0.4740 0.4730 0.4670 0.4600 0.4390
7.612000 0.4290 0.4180 0.4100 0.4070 0.3990
7.649180 0.3990 0.3930 0.3900 0.3870 0.3860
7.686000 0.3870 0.3870 0.3870 0.3890 0.3870
7.723180 0.3870 0.3870 0.3870 0.3860 0.3860
7.761000 0.3860 0.3840 0.3830 0.3800 0.3730
7.798180 0.3700 0.3530 0.3480 0.3370 0.3240
7.835000 0.3210 0.3000 0.2690 0.2490 0.2330
7.872180 0.2220 0.2100 0.1970 0.1910 0.1900
7.909000 0.1820 0.1750 0.1680 0.1660 0.1530
7.946180 0.1460 0.1380 0.1370 0.1340 0.1310
7.983000 0.1280 0.1260 0.1250 0.1220 0.1200
8.020180 0.1200 0.1190 0.1190 0.1170 0.1170
8.058000 0.1170 0.1190 0.1190 0.1220 0.1230
8.095180 0.1230 0.1260 0.1430 0.1510 0.1570
8.132000 0.1630 0.1710 0.1740 0.1740 0.1740
8.169180 0.1720 0.1720 0.1650 0.1620 0.1570
8.206000 0.1540 0.1500 0.1470 0.1430 0.1400
8.243180 0.1370 0.1350 0.1340 0.1320 0.1320
8.281000 0.1320 0.1320 0.1340 0.1370 0.1460
8.318180 0.1510 0.1570 0.1650 0.1970 0.2470
8.355000 0.2660 0.2870 0.3120 0.3250 0.3360
8.392180 0.3450 0.3520 0.3590 0.3650 0.3670
8.429000 0.3680 0.3680 0.3730 0.3700 0.3680
8.466180 0.3640 0.3580 0.3490 0.3340 0.3110
8.504000 0.3030 0.2870 0.2710 0.2520 0.2350
8.541180 0.2310 0.2270 0.2250 0.2240 0.2250
8.578000 0.2280 0.2470 0.2640 0.2800 0.2920
8.615180 0.2960 0.3000 0.3030 0.3080 0.3120
8.652000 0.3050 0.2970 0.2810 0.2720 0.2590
8.689180 0.2520 0.2440 0.2370 0.2220 0.2160
8.727000 0.2120 0.2020 0.1990 0.1990 0.2020
8.764180 0.2240 0.2400 0.2650 0.2720 0.2810
8.801000 0.2870 0.3000 0.3050 0.3150 0.3330
8.838180 0.3450 0.3530 0.3610 0.3680 0.3770
8.875000 0.3840 0.3950 0.3960 0.3980 0.4020
8.912180 0.4040 0.4050 0.4050 0.4050 0.4040
8.950000 0.4040 0.4020 0.3990 0.3960 0.3930
8.987180 0.3920 0.3900 0.3870 0.3870 0.3870
9.024000 0.3870 0.3870 0.3870 0.3870 0.3830
9.061180 0.3820 0.3770 0.3740 0.3710 0.3640
9.098000 0.3560 0.3490 0.3420 0.3400 0.3310
9.135180 0.3310 0.3360 0.3390 0.3400 0.3450
9.173000 0.3530 0.3610 0.3640 0.3710 0.3770
9.210180 0.3800 0.3870 0.3820 0.3760 0.3590
9.247000 0.3270 0.3180 0.2780 0.2550 0.2460
9.284180 0.2350 0.2210 0.2060 0.2020 0.2000
9.321000 0.1970 0.1960 0.1970 0.1990 0.2020
9.358180 0.2060 0.2190 0.2250 0.2270 0.2310
9.396000 0.2240 0.2180 0.2000 0.1910 0.1820
9.433180 0.1790 0.1780 0.1780 0.1760 0.1760
9.470000 0.1760 0.1760 0.1760 0.1760 0.1780
9.507180 0.1840 0.2270 0.2470 0.3230 0.3340
9.544000 0.3550 0.3680 0.3730 0.3770 0.3800
9.581180 0.3820 0.3830 0.3830 0.3840 0.3860
9.618000 0.3860 0.3860 0.3870 0.3860 0.3860
9.655180 0.3860 0.3840 0.3840 0.3840 0.3830
9.693000 0.3820 0.3800 0.3790 0.3790 0.3760
9.730180 0.3670 0.3530 0.3390 0.3050 0.2810
9.767000 0.2750 0.2470 0.2250 0.2310 0.2580
9.804180 0.2960 0.3310 0.3430 0.3480 0.3550
9.841000 0.3610 0.3670 0.3700 0.3740 0.3770
9.878180 0.3800 0.3840 0.3870 0.3890 0.3890
9.916000 0.3950 0.3980 0.4020 0.4120 0.4180
9.953180 0.4290 0.4320 0.4380 0.4390 0.4420
9.990000 0.4450 0.4480 0.4480 0.4510 0.4550
10.027180 0.4570 0.4610 0.4630 0.4640 0.4640
10.064000 0.4660 0.4660 0.4670 0.4670 0.4670
10.101180 0.4670 0.4670 0.4690 0.4690 0.4690
10.139000 0.4690 0.4690 0.4690 0.4690 0.4690
10.176180 0.4700 0.4700 0.4710 0.4710 0.4710
10.213000 0.4710 0.4730 0.4730 0.4740 0.4760
10.250180 0.4760 0.4770 0.4790 0.4800 0.4850
10.287000 0.4760 0.4670 0.4630 0.4570 0.4540
10.324180 0.4490 0.4390 0.4300 0.4300 0.4430
10.362000 0.4510 0.4540 0.4600 0.4800 0.4880
10.399180 0.5040 0.5100 0.5200 0.5250 0.5290
10.436000 0.5320 0.5360 0.5420 0.5450 0.5470
10.473180 0.5500 0.5530 0.5540 0.5570 0.5580
10.510000 0.5580 0.5580 0.5600 0.5580 0.5580
10.547180 0.5560 0.5540 0.5480 0.5410 0.5360
10.585000 0.5300 0.5250 0.5160 0.5110 0.5080
10.622180 0.5050 0.5040 0.5020 0.5020 0.5010
10.659000 0.5000 0.4980 0.4970 0.4970 0.4970
10.696180 0.4970 0.4970 0.4950 0.4950 0.4950
10.733000 0.4950 0.4940 0.4940 0.4950 0.4950
10.770180 0.4970 0.4970 0.4980 0.5010 0.5020
10.808000 0.5050 0.5070 0.5070 0.5080 0.5080
10.845180 0.5100 0.5110 0.5130 0.5130 0.5130
10.882000 0.5130 0.5130 0.5130 0.5130 0.5110
10.919180 0.5100 0.5010 0.4830 0.4760 0.4700
10.956000 0.4630 0.4600 0.4550 0.4520 0.4510
10.993180 0.4510 0.4520 0.4540 0.4570 0.4580
11.031000 0.4600 0.4630 0.4670 0.4710 0.4740
11.068180 0.4740 0.4770 0.4770 0.4770 0.4770
11.105000 0.4760 0.4740 0.4730 0.4700 0.4630
11.142180 0.4380 0.4020 0.3980 0.3920 0.3730
11.179000 0.3640 0.3580 0.3520 0.3490 0.3460
11.216180 0.3460 0.3450 0.3490 0.3520 0.3520
11.254000 0.3560 0.3640 0.3680 0.3730 0.3790
11.291180 0.3830 0.3960 0.3960 0.3990 0.4020
11.328000 0.4080 0.4120 0.4140 0.4150 0.4170
11.365180 0.4170 0.4170 0.4170 0.4170 0.4180
11.402000 0.4180 0.4180 0.4200 0.4200 0.4200
11.439180 0.4200 0.4210 0.4210 0.4230 0.4230
11.476000 0.4230 0.4230 0.4230 0.4240 0.4240
11.513180 0.4240 0.4240 0.4240 0.4240 0.4240
11.551000 0.4240 0.4240 0.4230 0.4230 0.4230
11.588180 0.4230 0.4230 0.4230 0.4230 0.4240
11.625000 0.4240 0.4240 0.4240 0.4240 0.4240
11.662180 0.4240 0.4240 0.4240 0.4240 0.4240
11.699000 0.4240 0.4240 0.4240 0.4240 0.4260
11.736180 0.4260 0.4260 0.4260 0.4240 0.4240
11.774000 0.4240 0.4260 0.4260 0.4260 0.4270
11.811180 0.4270 0.4290 0.4300 0.4330 0.4350
11.848000 0.4380 0.4410 0.4450 0.4520 0.4580
11.885180 0.4610 0.4660 0.4670 0.4700 0.4730
11.922000 0.4760 0.4800 0.4850 0.4950 0.5010
11.959180 0.5020 0.5100 0.5170 0.5230 0.5260
11.997000 0.5300 0.5350 0.5390 0.5410 0.5420
12.034180 0.5450 0.5470 0.5470 0.5470 0.5480
12.071000 0.5480 0.5480 0.5480 0.5500 0.5500
12.108180 0.5500 0.5500 0.5480 0.5480 0.5470
12.145000 0.5450 0.5410 0.5380 0.5350 0.5230
12.182180 0.5070 0.4970 0.4940 0.4910 0.4880
12.220000 0.4880 0.4880 0.4890 0.4920 0.4940
12.257180 0.4980 0.5020 0.5070 0.5110 0.5160
12.294000 0.5220 0.5280 0.5350 0.5420 0.5450
12.331180 0.5480 0.5500 0.5510 0.5530 0.5540
12.368000 0.5570 0.5580 0.5610 0.5610 0.5630
12.405180 0.5640 0.5660 0.5660 0.5660 0.5660
12.443000 0.5660 0.5660 0.5660 0.5640 0.5640
12.480180 0.5640 0.5630 0.5610 0.5610 0.5600
12.517000 0.5580 0.5580 0.5570 0.5560 0.5530
12.554180 0.5510 0.5500 0.5500 0.5480 0.5470
12.591000 0.5450 0.5440 0.5410 0.5390 0.5380
12.628180 0.5360 0.5350 0.5320 0.5300 0.5280
12.666000 0.5260 0.5230 0.5200 0.5160 0.5140
12.703180 0.5110 0.5100 0.5070 0.5040 0.5010
12.740000 0.5000 0.4970 0.4950 0.4950 0.4940
12.777180 0.4920 0.4920 0.4920 0.4920 0.4920
12.814000 0.4940 0.4940 0.4950 0.4950 0.4980
12.851180 0.5000 0.5020 0.5070 0.5110 0.5170
12.889000 0.5300 0.5410 0.5440 0.5500 0.5540
12.926180 0.5570 0.5610 0.5630 0.5660 0.5690
12.963000 0.5720 0.5750 0.5780 0.5810 0.5840
13.000180 0.5850 0.5850 0.5870 0.5880 0.5890
13.037000 0.5910 0.5910 0.5920 0.5940 0.5950
13.074180 0.5970 0.5980 0.5980 0.5980 0.6000
13.111000 0.6000 0.6010 0.6010 0.6010 0.6040
13.148180 0.6060 0.6070 0.6090 0.6090 0.6120
13.186000 0.6120 0.6120 0.6130 0.6130 0.6160
13.223180 0.6170 0.6190 0.6190 0.6200 0.6200
13.260000 0.6220 0.6220 0.6220 0.6220 0.6230
13.297180 0.6230 0.6230 0.6250 0.6250 0.6260
13.334000 0.6260 0.6250 0.6250 0.6250 0.6230
13.371180 0.6230 0.6230 0.6230 0.6230 0.6220
13.409000 0.6220 0.6200 0.6200 0.6190 0.6190
13.446180 0.6170 0.6160 0.6150 0.6150 0.6150
13.483000 0.6130 0.6130 0.6120 0.6120 0.6100
13.520180 0.6100 0.6090 0.6090 0.6090 0.6090
13.557000 0.6070 0.6090 0.6100 0.6100 0.6100
13.594180 0.6120 0.6130 0.6150 0.6160 0.6170
13.632000 0.6190 0.6190 0.6200 0.6200 0.6220
13.669180 0.6220 0.6220 0.6230 0.6230 0.6250
13.706000 0.6250 0.6250 0.6250 0.6250 0.6260
13.743180 0.6260 0.6260 0.6260 0.6260 0.6280
13.780000 0.6280 0.6260 0.6260 0.6260 0.6260
13.817180 0.6260 0.6250 0.6250 0.6230 0.6230
13.855000 0.6220 0.6220 0.6200 0.6190 0.6190
13.892180 0.6170 0.6160 0.6100 0.6090 0.6070
13.929000 0.6060 0.6040 0.6040 0.6040 0.5880
13.966180 0.5820 0.5750 0.5690 0.5570 0.5450
14.003000 0.5330 0.5260 0.5100 0.4970 0.4850
14.040180 0.4730 0.4640 0.4390 0.4200 0.3360
14.078000 0.3280 0.3170 0.3050 0.2970 0.2890
14.115180 0.2770 0.2640 0.2440 0.2350 0.2310
14.152000 0.2210 0.2070 0.2060 0.2050 0.2020
14.189180 0.2000 0.1940 0.1900 0.1850 0.1790
14.226000 0.1780 0.1760 0.1760 0.1750 0.1740
14.263180 0.1740 0.1750 0.1760 0.1780 0.1990
14.301000 0.2030 0.2130 0.2300 0.2410 0.2740
14.338180 0.2890 0.3030 0.3170 0.3550 0.3790
14.375000 0.3960 0.3980 0.3980 0.4010 0.4010
14.412180 0.4010 0.4020 0.4080 0.4320 0.4430
14.449000 0.4520 0.4610 0.4670 0.4760 0.4850
14.486180 0.4940 0.4950 0.4970 0.4980 0.4980
14.524000 0.4980 0.4980 0.4970 0.4970 0.4950
14.561180 0.4940 0.4940 0.4920 0.4880 0.4860
14.598000 0.4850 0.4820 0.4820 0.4820 0.4820
14.635180 0.4800 0.4800 0.4800 0.4820 0.4820
14.672000 0.4830 0.4850 0.4860 0.4880 0.4890
14.709180 0.4920 0.4950 0.5010 0.5020 0.5050
14.746000 0.5100 0.5110 0.5140 0.5190 0.5220
14.783180 0.5280 0.5320 0.5360 0.5420 0.5480
14.821000 0.5510 0.5560 0.5580 0.5630 0.5670
14.858180 0.5700 0.5730 0.5760 0.5790 0.5790
14.895000 0.5810 0.5810 0.5810 0.5810 0.5820
14.932180 0.5840 0.5840 0.5870 0.5890 0.5920
14.969000 0.5950 0.5970 0.6000 0.6030 0.6060
15.006180 0.6100 0.6090 0.6100 0.6130 0.6150
15.044000 0.6170 0.6170 0.6190 0.6190 0.6190
15.081180 0.6200 0.6200 0.6200 0.6220 0.6220
15.118000 0.6220 0.6220 0.6220 0.6220 0.6230
15.155180 0.6230 0.6230 0.6230 0.6250 0.6260
15.192000 0.6280 0.6290 0.6310 0.6320
##END=
