##TITLE=AMMONIUM CARBONATE
$$ FISHER SCIENTIFIC CO.
##JCAMP-DX=4.24
##DATA TYPE=INFRARED SPECTRUM
##CLASS=COBLENTZ
##ORIGIN=WYANDOTTE CHEMICALS CORP., WYANDOTTE, MICHIGAN, USA
##OWNER=COBLENTZ SOCIETY
Collection (C) 2018 copyright by the U.S. Secretary of Commerce
on behalf of the United States of America. All rights reserved.
##DATE=Not specified, most likely prior to 1970
##MOLFORM=C H8 N2 O3
##SOURCE REFERENCE=COBLENTZ NO. 2848
##$NIST ID=B6002848
##$NIST SOURCE=COBLENTZ
##$NIST IMAGE=cob2848
##SPECTROMETER/DATA SYSTEM=Not specified, most likely a prism, grating, or hybrid spectrometer.
##STATE=SOLID (MINERAL OIL MULL)
##PATH LENGTH=
$$SPECTRAL CONTAMINATION DUE TO OIL AROUND 2900 CM^-^1
##SAMPLING PROCEDURE=TRANSMISSION
##RESOLUTION=4
##DATA PROCESSING=DIGITIZED BY NIST FROM HARD COPY
##XUNITS=MICROMETERS
##YUNITS=TRANSMITTANCE
##XFACTOR=1.000000
##YFACTOR=1
##DELTAX=000.006632
##FIRSTX=2.066
##LASTX=16.0063
##FIRSTY=0.951
##MAXX=16.0063
##MINX=2.066
##MAXY=0.956
##MINY=0.028
##NPOINTS=2103
##XYDATA=(X++(Y..Y))
2.066000 0.9510 0.9480 0.9430 0.9410 0.9380
2.099175 0.9360 0.9360 0.9380 0.9400 0.9430
2.133000 0.9480 0.9500 0.9530 0.9550 0.9550
2.166175 0.9560 0.9560 0.9560 0.9530 0.9460
2.199000 0.9400 0.9330 0.9260 0.9250 0.9250
2.232175 0.9260 0.9260 0.9260 0.9280 0.9300
2.265000 0.9300 0.9300 0.9300 0.9310 0.9310
2.298175 0.9330 0.9360 0.9400 0.9400 0.9330
2.332000 0.9300 0.9280 0.9280 0.9300 0.9300
2.365175 0.9330 0.9350 0.9360 0.9360 0.9400
2.398000 0.9410 0.9410 0.9410 0.9400 0.9400
2.431175 0.9380 0.9380 0.9400 0.9410 0.9410
2.464000 0.9430 0.9430 0.9410 0.9400 0.9400
2.497175 0.9330 0.9310 0.9300 0.9280 0.9280
2.531000 0.9260 0.9260 0.9250 0.9250 0.9250
2.564175 0.9230 0.9210 0.9200 0.9180 0.9160
2.597000 0.9150 0.9110 0.9100 0.9080 0.9050
2.630175 0.9030 0.9000 0.8980 0.8950 0.8930
2.663000 0.8900 0.8880 0.8870 0.8850 0.8820
2.696175 0.8800 0.8780 0.8770 0.8770 0.8730
2.730000 0.8670 0.8620 0.8530 0.8470 0.8420
2.763175 0.8380 0.8350 0.8330 0.8280 0.8230
2.796000 0.8170 0.8080 0.7970 0.7840 0.7770
2.829175 0.7650 0.7520 0.7370 0.7240 0.7120
2.862000 0.6960 0.6810 0.6690 0.6590 0.6540
2.895175 0.6520 0.6470 0.6470 0.6420 0.6360
2.928000 0.6340 0.6320 0.6270 0.6160 0.6020
2.961175 0.5960 0.5810 0.5660 0.5490 0.5340
2.995000 0.5160 0.5080 0.5000 0.4800 0.4580
3.028175 0.4360 0.4100 0.3830 0.3520 0.3180
3.061000 0.2820 0.2400 0.2190 0.1990 0.1840
3.094175 0.1690 0.1570 0.1460 0.1390 0.1360
3.127000 0.1320 0.1320 0.1320 0.1340 0.1360
3.160175 0.1360 0.1360 0.1360 0.1320 0.1270
3.194000 0.1260 0.1240 0.1210 0.1170 0.1120
3.227175 0.1110 0.1060 0.1020 0.1010 0.0980
3.260000 0.0960 0.0960 0.0980 0.1020 0.1070
3.293175 0.1070 0.1070 0.1090 0.1090 0.1070
3.326000 0.0960 0.0860 0.0590 0.0310 0.0280
3.359175 0.0280 0.0280 0.0290 0.0290 0.0310
3.393000 0.0310 0.0310 0.0290 0.0280 0.0280
3.426175 0.0290 0.0310 0.0330 0.0380 0.0390
3.459000 0.0380 0.0340 0.0330 0.0310 0.0310
3.492175 0.0330 0.0380 0.0390 0.0440 0.0540
3.525000 0.0730 0.0910 0.1110 0.1320 0.1490
3.558175 0.1640 0.1770 0.1890 0.2000 0.2100
3.592000 0.2190 0.2270 0.2350 0.2450 0.2550
3.625175 0.2650 0.2770 0.2900 0.2990 0.3020
3.658000 0.3070 0.3120 0.3170 0.3230 0.3280
3.691175 0.3350 0.3380 0.3430 0.3450 0.3470
3.724000 0.3470 0.3480 0.3480 0.3480 0.3470
3.757175 0.3450 0.3430 0.3430 0.3400 0.3380
3.791000 0.3330 0.3300 0.3250 0.3180 0.3130
3.824175 0.3100 0.3030 0.3020 0.2990 0.2990
3.857000 0.2970 0.2970 0.2950 0.2950 0.2950
3.890175 0.2940 0.2940 0.2950 0.2950 0.2950
3.923000 0.2970 0.2970 0.2970 0.2970 0.2990
3.956175 0.3000 0.3050 0.3120 0.3150 0.3180
3.990000 0.3250 0.3320 0.3400 0.3470 0.3520
4.023175 0.3550 0.3600 0.3650 0.3720 0.3780
4.056000 0.3880 0.3930 0.3980 0.4010 0.4080
4.089175 0.4150 0.4200 0.4230 0.4260 0.4310
4.122000 0.4380 0.4460 0.4560 0.4600 0.4610
4.155175 0.4650 0.4660 0.4680 0.4710 0.4750
4.189000 0.4780 0.4830 0.4880 0.4930 0.4930
4.222175 0.4950 0.5090 0.5190 0.5260 0.5290
4.255000 0.5340 0.5390 0.5430 0.5440 0.5490
4.288175 0.5510 0.5510 0.5530 0.5530 0.5560
4.321000 0.5590 0.5660 0.5730 0.5810 0.5890
4.354175 0.5980 0.6040 0.6090 0.6140 0.6170
4.387000 0.6240 0.6310 0.6420 0.6540 0.6570
4.420175 0.6610 0.6640 0.6690 0.6720 0.6760
4.454000 0.6770 0.6810 0.6840 0.6870 0.6890
4.487175 0.6910 0.6920 0.6940 0.6940 0.6960
4.520000 0.6970 0.7000 0.7040 0.7090 0.7120
4.553175 0.7150 0.7190 0.7220 0.7250 0.7300
4.586000 0.7340 0.7370 0.7370 0.7390 0.7390
4.619175 0.7390 0.7390 0.7350 0.7320 0.7320
4.653000 0.7300 0.7300 0.7300 0.7290 0.7250
4.686175 0.7220 0.7200 0.7190 0.7170 0.7150
4.719000 0.7140 0.7120 0.7070 0.7050 0.7050
4.752175 0.7050 0.7070 0.7140 0.7200 0.7240
4.785000 0.7290 0.7340 0.7370 0.7440 0.7490
4.818175 0.7520 0.7540 0.7550 0.7570 0.7590
4.852000 0.7600 0.7620 0.7650 0.7670 0.7690
4.885175 0.7700 0.7720 0.7720 0.7740 0.7740
4.918000 0.7750 0.7750 0.7770 0.7790 0.7800
4.951175 0.7820 0.7840 0.7850 0.7850 0.7850
4.984000 0.7850 0.7850 0.7850 0.7840 0.7820
5.017175 0.7790 0.7790 0.7770 0.7750 0.7700
5.051000 0.7670 0.7640 0.7620 0.7590 0.7570
5.084175 0.7570 0.7550 0.7550 0.7540 0.7500
5.117000 0.7470 0.7420 0.7350 0.7300 0.7250
5.150175 0.7200 0.7120 0.7050 0.6970 0.6890
5.183000 0.6810 0.6720 0.6620 0.6570 0.6520
5.216175 0.6510 0.6490 0.6490 0.6470 0.6460
5.250000 0.6390 0.6360 0.6340 0.6320 0.6290
5.283175 0.6260 0.6170 0.6120 0.6070 0.6040
5.316000 0.6020 0.6010 0.5980 0.5960 0.5960
5.349175 0.5960 0.5960 0.5960 0.5930 0.5890
5.382000 0.5860 0.5810 0.5780 0.5730 0.5710
5.415175 0.5710 0.5690 0.5680 0.5660 0.5630
5.449000 0.5610 0.5580 0.5580 0.5560 0.5560
5.482175 0.5590 0.5680 0.5730 0.5790 0.5840
5.515000 0.5910 0.5990 0.6060 0.6120 0.6210
5.548175 0.6290 0.6390 0.6470 0.6560 0.6620
5.581000 0.6690 0.6760 0.6820 0.6890 0.6970
5.614175 0.7050 0.7140 0.7220 0.7300 0.7320
5.648000 0.7320 0.7320 0.7320 0.7340 0.7340
5.681175 0.7340 0.7350 0.7390 0.7390 0.7390
5.714000 0.7340 0.7300 0.7240 0.7140 0.7050
5.747175 0.6960 0.6840 0.6760 0.6670 0.6610
5.780000 0.6540 0.6470 0.6370 0.6270 0.6140
5.813175 0.6010 0.5890 0.5810 0.5730 0.5690
5.847000 0.5660 0.5640 0.5580 0.5460 0.5240
5.880175 0.5090 0.5010 0.4930 0.4780 0.4650
5.913000 0.4560 0.4510 0.4480 0.4430 0.4410
5.946175 0.4400 0.4400 0.4400 0.4400 0.4380
5.979000 0.4380 0.4380 0.4300 0.4160 0.4030
6.012175 0.3900 0.3770 0.3630 0.3500 0.3350
6.045000 0.3170 0.2990 0.2790 0.2570 0.2300
6.078175 0.2170 0.2040 0.1960 0.1810 0.1690
6.112000 0.1560 0.1440 0.1340 0.1240 0.1140
6.145175 0.1070 0.0990 0.0930 0.0830 0.0740
6.178000 0.0680 0.0630 0.0590 0.0580 0.0540
6.211175 0.0540 0.0510 0.0490 0.0490 0.0510
6.244000 0.0540 0.0640 0.0690 0.0760 0.0840
6.277175 0.0960 0.1070 0.1190 0.1290 0.1410
6.311000 0.1520 0.1620 0.1720 0.1820 0.1920
6.344175 0.2020 0.2090 0.2140 0.2220 0.2320
6.377000 0.2370 0.2450 0.2490 0.2520 0.2600
6.410175 0.2670 0.2750 0.2800 0.2850 0.2920
6.443000 0.2940 0.2950 0.2990 0.3020 0.3030
6.476175 0.3050 0.3080 0.3120 0.3150 0.3180
6.510000 0.3180 0.3250 0.3320 0.3330 0.3370
6.543175 0.3400 0.3400 0.3400 0.3380 0.3200
6.576000 0.3100 0.3020 0.2970 0.2870 0.2740
6.609175 0.2490 0.2190 0.1820 0.1560 0.1490
6.642000 0.1420 0.1410 0.1420 0.1440 0.1520
6.675175 0.1590 0.1610 0.1610 0.1610 0.1610
6.709000 0.1590 0.1520 0.1470 0.1460 0.1420
6.742175 0.1420 0.1410 0.1410 0.1370 0.1340
6.775000 0.1270 0.1190 0.1060 0.0890 0.0830
6.808175 0.0810 0.0790 0.0780 0.0740 0.0690
6.841000 0.0680 0.0610 0.0540 0.0490 0.0480
6.874175 0.0480 0.0480 0.0480 0.0480 0.0490
6.908000 0.0490 0.0510 0.0540 0.0590 0.0690
6.941175 0.0830 0.0990 0.1190 0.1390 0.1590
6.974000 0.1790 0.1990 0.2170 0.2370 0.2550
7.007175 0.2720 0.2870 0.3020 0.3150 0.3250
7.040000 0.3350 0.3400 0.3430 0.3470 0.3480
7.073175 0.3500 0.3480 0.3420 0.3300 0.3180
7.107000 0.3120 0.2990 0.2900 0.2790 0.2670
7.140175 0.2550 0.2490 0.2450 0.2420 0.2340
7.173000 0.2170 0.2070 0.2040 0.1970 0.1860
7.206175 0.1570 0.1340 0.1190 0.1010 0.0840
7.239000 0.0760 0.0710 0.0660 0.0590 0.0560
7.272175 0.0540 0.0540 0.0540 0.0560 0.0590
7.306000 0.0590 0.0610 0.0630 0.0660 0.0710
7.339175 0.0790 0.0880 0.0990 0.1010 0.1020
7.372000 0.1020 0.1040 0.1040 0.1060 0.1070
7.405175 0.1070 0.1070 0.1070 0.1070 0.1070
7.438000 0.1070 0.1090 0.1090 0.1090 0.1090
7.471175 0.1070 0.1060 0.1040 0.1040 0.1020
7.505000 0.1020 0.1020 0.1010 0.1010 0.0990
7.538175 0.0980 0.0980 0.0960 0.0910 0.0880
7.571000 0.0860 0.0840 0.0840 0.0810 0.0790
7.604175 0.0740 0.0740 0.0710 0.0710 0.0690
7.637000 0.0660 0.0640 0.0640 0.0610 0.0610
7.670175 0.0610 0.0610 0.0590 0.0590 0.0590
7.703000 0.0590 0.0580 0.0580 0.0580 0.0580
7.736175 0.0590 0.0590 0.0590 0.0590 0.0590
7.770000 0.0590 0.0590 0.0590 0.0590 0.0590
7.803175 0.0590 0.0610 0.0610 0.0630 0.0630
7.836000 0.0630 0.0660 0.0680 0.0690 0.0690
7.869175 0.0710 0.0710 0.0710 0.0710 0.0710
7.902000 0.0740 0.0790 0.0830 0.0860 0.0890
7.935175 0.0890 0.0890 0.0910 0.0930 0.0960
7.969000 0.0990 0.1020 0.1020 0.1090 0.1160
8.002175 0.1240 0.1310 0.1360 0.1370 0.1390
8.035000 0.1420 0.1470 0.1520 0.1540 0.1560
8.068175 0.1590 0.1620 0.1670 0.1710 0.1760
8.101000 0.1790 0.1890 0.1940 0.1960 0.1990
8.134175 0.2000 0.2050 0.2120 0.2150 0.2170
8.168000 0.2190 0.2220 0.2250 0.2290 0.2350
8.201175 0.2420 0.2450 0.2470 0.2520 0.2550
8.234000 0.2600 0.2640 0.2670 0.2700 0.2740
8.267175 0.2770 0.2800 0.2840 0.2890 0.2940
8.300000 0.2950 0.2990 0.3000 0.3030 0.3080
8.333175 0.3130 0.3180 0.3250 0.3270 0.3280
8.367000 0.3320 0.3350 0.3370 0.3380 0.3420
8.400175 0.3480 0.3520 0.3530 0.3570 0.3620
8.433000 0.3680 0.3700 0.3730 0.3770 0.3800
8.466175 0.3830 0.3850 0.3870 0.3880 0.3920
8.499000 0.3950 0.3980 0.4010 0.4010 0.4060
8.532175 0.4080 0.4110 0.4130 0.4150 0.4150
8.566000 0.4160 0.4160 0.4200 0.4210 0.4250
8.599175 0.4280 0.4350 0.4400 0.4400 0.4410
8.632000 0.4430 0.4450 0.4480 0.4480 0.4500
8.665175 0.4500 0.4510 0.4560 0.4610 0.4660
8.698000 0.4660 0.4680 0.4700 0.4730 0.4780
8.731175 0.4810 0.4810 0.4850 0.4850 0.4900
8.765000 0.4910 0.4910 0.4910 0.4930 0.4930
8.798175 0.4950 0.4950 0.4960 0.4960 0.4980
8.831000 0.4980 0.5000 0.5000 0.5000 0.5030
8.864175 0.5040 0.5060 0.5090 0.5130 0.5130
8.897000 0.5110 0.5110 0.5110 0.5130 0.5130
8.930175 0.5130 0.5160 0.5160 0.5190 0.5260
8.964000 0.5310 0.5340 0.5360 0.5360 0.5390
8.997175 0.5430 0.5460 0.5480 0.5510 0.5540
9.030000 0.5580 0.5590 0.5590 0.5610 0.5610
9.063175 0.5630 0.5640 0.5640 0.5630 0.5630
9.096000 0.5610 0.5610 0.5610 0.5630 0.5640
9.129175 0.5680 0.5710 0.5740 0.5760 0.5760
9.162000 0.5760 0.5740 0.5730 0.5710 0.5710
9.195175 0.5710 0.5740 0.5740 0.5780 0.5780
9.229000 0.5760 0.5760 0.5760 0.5780 0.5780
9.262175 0.5790 0.5790 0.5790 0.5790 0.5790
9.295000 0.5790 0.5780 0.5760 0.5760 0.5780
9.328175 0.5810 0.5860 0.5890 0.5910 0.5910
9.361000 0.5910 0.5910 0.5910 0.5910 0.5910
9.394175 0.5910 0.5910 0.5930 0.5930 0.5940
9.428000 0.5940 0.5960 0.5960 0.5960 0.5960
9.461175 0.5960 0.5960 0.5930 0.5910 0.5910
9.494000 0.5890 0.5880 0.5830 0.5760 0.5690
9.527175 0.5630 0.5540 0.5390 0.5210 0.5110
9.560000 0.5010 0.4960 0.4910 0.4830 0.4800
9.593175 0.4780 0.4760 0.4760 0.4860 0.5210
9.627000 0.5340 0.5440 0.5540 0.5630 0.5690
9.660175 0.5730 0.5760 0.5780 0.5780 0.5730
9.693000 0.5680 0.5590 0.5510 0.5410 0.5240
9.726175 0.5110 0.4980 0.4850 0.4600 0.4480
9.759000 0.4330 0.4280 0.4280 0.4300 0.4450
9.792175 0.4580 0.4780 0.4950 0.5180 0.5260
9.826000 0.5330 0.5390 0.5460 0.5530 0.5590
9.859175 0.5660 0.5710 0.5760 0.5780 0.5790
9.892000 0.5810 0.5830 0.5840 0.5880 0.5940
9.925175 0.5980 0.5990 0.6010 0.6020 0.6060
9.958000 0.6070 0.6070 0.6090 0.6110 0.6110
9.991175 0.6120 0.6120 0.6140 0.6160 0.6170
10.025000 0.6170 0.6190 0.6190 0.6170 0.6170
10.058175 0.6110 0.6090 0.6060 0.6060 0.6040
10.091000 0.6020 0.6020 0.6010 0.5990 0.5990
10.124175 0.5980 0.5960 0.5930 0.5910 0.5880
10.157000 0.5840 0.5830 0.5790 0.5760 0.5760
10.190175 0.5740 0.5710 0.5680 0.5640 0.5610
10.224000 0.5580 0.5530 0.5460 0.5410 0.5380
10.257175 0.5360 0.5340 0.5310 0.5290 0.5260
10.290000 0.5210 0.5130 0.5080 0.5040 0.5060
10.323175 0.5030 0.5010 0.5000 0.4960 0.4900
10.356000 0.4860 0.4810 0.4780 0.4760 0.4730
10.389175 0.4680 0.4630 0.4550 0.4480 0.4480
10.423000 0.4460 0.4410 0.4380 0.4350 0.4300
10.456175 0.4260 0.4250 0.4180 0.4100 0.4030
10.489000 0.3970 0.3900 0.3880 0.3880 0.3870
10.522175 0.3870 0.3870 0.3850 0.3850 0.3850
10.555000 0.3870 0.3870 0.3870 0.3880 0.3920
10.588175 0.3970 0.3970 0.4000 0.4030 0.4050
10.622000 0.4080 0.4110 0.4130 0.4200 0.4230
10.655175 0.4300 0.4350 0.4380 0.4450 0.4480
10.688000 0.4500 0.4510 0.4580 0.4660 0.4710
10.721175 0.4730 0.4760 0.4800 0.4830 0.4880
10.754000 0.4910 0.4980 0.5140 0.5210 0.5260
10.787175 0.5290 0.5360 0.5390 0.5440 0.5460
10.820000 0.5460 0.5490 0.5560 0.5630 0.5710
10.853175 0.5740 0.5780 0.5840 0.5930 0.5990
10.887000 0.5990 0.6020 0.6060 0.6110 0.6160
10.920175 0.6190 0.6210 0.6240 0.6270 0.6310
10.953000 0.6340 0.6370 0.6410 0.6460 0.6510
10.986175 0.6540 0.6560 0.6590 0.6620 0.6640
11.019000 0.6660 0.6660 0.6670 0.6690 0.6720
11.052175 0.6740 0.6790 0.6810 0.6820 0.6860
11.086000 0.6870 0.6890 0.6960 0.6990 0.7020
11.119175 0.7050 0.7090 0.7100 0.7100 0.7100
11.152000 0.7120 0.7140 0.7150 0.7190 0.7190
11.185175 0.7200 0.7200 0.7200 0.7220 0.7220
11.218000 0.7220 0.7250 0.7250 0.7270 0.7270
11.251175 0.7290 0.7300 0.7300 0.7340 0.7350
11.285000 0.7350 0.7370 0.7390 0.7390 0.7420
11.318175 0.7470 0.7500 0.7520 0.7520 0.7500
11.351000 0.7500 0.7490 0.7490 0.7490 0.7500
11.384175 0.7540 0.7550 0.7590 0.7600 0.7600
11.417000 0.7600 0.7600 0.7600 0.7600 0.7600
11.450175 0.7600 0.7620 0.7620 0.7620 0.7620
11.484000 0.7640 0.7640 0.7640 0.7650 0.7650
11.517175 0.7650 0.7650 0.7670 0.7670 0.7670
11.550000 0.7690 0.7720 0.7750 0.7750 0.7750
11.583175 0.7720 0.7700 0.7700 0.7700 0.7720
11.616000 0.7740 0.7750 0.7750 0.7750 0.7750
11.649175 0.7750 0.7750 0.7750 0.7750 0.7740
11.683000 0.7740 0.7720 0.7700 0.7700 0.7690
11.716175 0.7670 0.7670 0.7650 0.7650 0.7620
11.749000 0.7600 0.7600 0.7600 0.7590 0.7590
11.782175 0.7570 0.7520 0.7500 0.7470 0.7440
11.815000 0.7390 0.7370 0.7290 0.7200 0.7120
11.848175 0.7040 0.6970 0.6920 0.6820 0.6720
11.882000 0.6640 0.6570 0.6520 0.6470 0.6410
11.915175 0.6310 0.6170 0.6010 0.5860 0.5690
11.948000 0.5480 0.5260 0.5030 0.4910 0.4780
11.981175 0.4510 0.4250 0.3970 0.3620 0.3300
12.014000 0.3070 0.2800 0.2650 0.2590 0.2550
12.047175 0.2490 0.2470 0.2470 0.2490 0.2740
12.081000 0.2890 0.3000 0.3130 0.3370 0.3530
12.114175 0.3700 0.3900 0.4060 0.4310 0.4510
12.147000 0.4760 0.4960 0.5330 0.5480 0.5590
12.180175 0.5730 0.5830 0.5930 0.6040 0.6220
12.213000 0.6290 0.6360 0.6460 0.6560 0.6670
12.246175 0.6810 0.6920 0.7020 0.7140 0.7220
12.279000 0.7300 0.7350 0.7390 0.7440 0.7490
12.312175 0.7540 0.7550 0.7590 0.7620 0.7650
12.346000 0.7690 0.7700 0.7740 0.7770 0.7800
12.379175 0.7840 0.7850 0.7850 0.7870 0.7900
12.412000 0.7950 0.8000 0.8070 0.8100 0.8130
12.445175 0.8170 0.8200 0.8250 0.8300 0.8330
12.478000 0.8370 0.8380 0.8420 0.8450 0.8470
12.511175 0.8500 0.8520 0.8520 0.8570 0.8580
12.545000 0.8600 0.8600 0.8630 0.8670 0.8680
12.578175 0.8700 0.8720 0.8720 0.8730 0.8730
12.611000 0.8750 0.8750 0.8770 0.8780 0.8820
12.644175 0.8870 0.8900 0.8900 0.8920 0.8920
12.677000 0.8930 0.8930 0.8970 0.8970 0.8980
12.710175 0.8980 0.9000 0.9000 0.9000 0.9010
12.744000 0.9010 0.9010 0.9010 0.9010 0.9010
12.777175 0.9010 0.9010 0.9010 0.9010 0.9030
12.810000 0.9030 0.9030 0.9030 0.9050 0.9050
12.843175 0.9060 0.9080 0.9100 0.9100 0.9080
12.876000 0.9060 0.9060 0.9080 0.9100 0.9100
12.909175 0.9100 0.9100 0.9110 0.9110 0.9110
12.943000 0.9110 0.9110 0.9110 0.9110 0.9110
12.976175 0.9100 0.9100 0.9100 0.9100 0.9110
13.009000 0.9130 0.9130 0.9150 0.9150 0.9160
13.042175 0.9160 0.9160 0.9160 0.9180 0.9180
13.075000 0.9180 0.9180 0.9180 0.9200 0.9200
13.108175 0.9230 0.9250 0.9250 0.9250 0.9250
13.142000 0.9250 0.9250 0.9260 0.9260 0.9280
13.175175 0.9280 0.9280 0.9280 0.9280 0.9260
13.208000 0.9260 0.9250 0.9250 0.9250 0.9260
13.241175 0.9260 0.9280 0.9280 0.9310 0.9330
13.274000 0.9330 0.9330 0.9330 0.9330 0.9330
13.307175 0.9330 0.9310 0.9280 0.9280 0.9280
13.341000 0.9280 0.9280 0.9280 0.9280 0.9280
13.374175 0.9280 0.9310 0.9330 0.9330 0.9330
13.407000 0.9310 0.9280 0.9260 0.9260 0.9250
13.440175 0.9250 0.9230 0.9230 0.9210 0.9210
13.473000 0.9200 0.9200 0.9180 0.9180 0.9160
13.506175 0.9160 0.9150 0.9150 0.9130 0.9080
13.540000 0.9050 0.9000 0.8970 0.8950 0.8950
13.573175 0.8930 0.8930 0.8920 0.8900 0.8900
13.606000 0.8880 0.8880 0.8870 0.8830 0.8820
13.639175 0.8820 0.8800 0.8770 0.8730 0.8720
13.672000 0.8700 0.8680 0.8680 0.8670 0.8670
13.705175 0.8650 0.8630 0.8620 0.8600 0.8570
13.739000 0.8550 0.8520 0.8500 0.8450 0.8420
13.772175 0.8350 0.8300 0.8270 0.8230 0.8220
13.805000 0.8170 0.8120 0.8100 0.8030 0.7990
13.838175 0.7950 0.7900 0.7890 0.7850 0.7750
13.871000 0.7690 0.7620 0.7570 0.7550 0.7500
13.904175 0.7440 0.7350 0.7270 0.7220 0.7150
13.937000 0.7100 0.7020 0.6940 0.6860 0.6790
13.970175 0.6710 0.6620 0.6540 0.6510 0.6420
14.004000 0.6260 0.6120 0.6020 0.5930 0.5840
14.037175 0.5730 0.5610 0.5460 0.5240 0.5130
14.070000 0.5060 0.5000 0.4850 0.4700 0.4530
14.103175 0.4360 0.4180 0.4010 0.3850 0.3630
14.136000 0.3430 0.3350 0.3230 0.3130 0.3050
14.169175 0.2950 0.2890 0.2790 0.2700 0.2600
14.203000 0.2550 0.2520 0.2500 0.2490 0.2470
14.236175 0.2400 0.2370 0.2350 0.2350 0.2370
14.269000 0.2390 0.2400 0.2450 0.2520 0.2590
14.302175 0.2670 0.2740 0.2840 0.2900 0.2970
14.335000 0.3030 0.3120 0.3180 0.3250 0.3370
14.368175 0.3480 0.3570 0.3630 0.3770 0.3880
14.402000 0.4010 0.4130 0.4250 0.4310 0.4430
14.435175 0.4510 0.4580 0.4680 0.4750 0.4810
14.468000 0.4880 0.4950 0.4980 0.5130 0.5190
14.501175 0.5260 0.5260 0.5280 0.5280 0.5330
14.534000 0.5360 0.5380 0.5390 0.5410 0.5410
14.567175 0.5390 0.5390 0.5380 0.5360 0.5340
14.601000 0.5310 0.5280 0.5240 0.5190 0.5180
14.634175 0.5180 0.5180 0.5190 0.5210 0.5240
14.667000 0.5280 0.5310 0.5380 0.5440 0.5510
14.700175 0.5560 0.5610 0.5690 0.5780 0.5810
14.733000 0.5840 0.5890 0.5960 0.5990 0.6020
14.766175 0.6070 0.6110 0.6210 0.6270 0.6270
14.800000 0.6320 0.6360 0.6440 0.6510 0.6560
14.833175 0.6590 0.6610 0.6620 0.6660 0.6670
14.866000 0.6720 0.6760 0.6770 0.6790 0.6840
14.899175 0.6920 0.6990 0.7020 0.7050 0.7050
14.932000 0.7050 0.7040 0.7020 0.7040 0.7070
14.965175 0.7100 0.7120 0.7140 0.7140 0.7150
14.999000 0.7170 0.7170 0.7150 0.7070 0.7040
15.032175 0.7000 0.6960 0.6910 0.6870 0.6820
15.065000 0.6790 0.6760 0.6690 0.6660 0.6640
15.098175 0.6660 0.6710 0.6770 0.6840 0.6910
15.131000 0.6910 0.6990 0.7040 0.7070 0.7140
15.164175 0.7200 0.7250 0.7290 0.7350 0.7390
15.198000 0.7390 0.7400 0.7420 0.7440 0.7440
15.231175 0.7450 0.7450 0.7450 0.7420 0.7420
15.264000 0.7400 0.7400 0.7390 0.7390 0.7390
15.297175 0.7370 0.7340 0.7290 0.7240 0.7190
15.330000 0.7140 0.7070 0.6970 0.6870 0.6760
15.363175 0.6670 0.6570 0.6490 0.6420 0.6360
15.396000 0.6290 0.6170 0.6020 0.5960 0.5890
15.429175 0.5840 0.5790 0.5760 0.5740 0.5730
15.463000 0.5710 0.5710 0.5730 0.5760 0.5810
15.496175 0.5880 0.5940 0.5990 0.6010 0.6040
15.529000 0.6140 0.6210 0.6260 0.6290 0.6310
15.562175 0.6340 0.6390 0.6420 0.6460 0.6470
15.595000 0.6470 0.6470 0.6460 0.6460 0.6460
15.628175 0.6460 0.6460 0.6410 0.6370 0.6370
15.662000 0.6390 0.6420 0.6460 0.6460 0.6460
15.695175 0.6440 0.6440 0.6410 0.6390 0.6370
15.728000 0.6370 0.6370 0.6390 0.6410 0.6460
15.761175 0.6490 0.6510 0.6520 0.6540 0.6560
15.794000 0.6560 0.6560 0.6560 0.6560 0.6560
15.827175 0.6560 0.6560 0.6540 0.6540 0.6490
15.861000 0.6420 0.6410 0.6410 0.6410 0.6420
15.894175 0.6420 0.6440 0.6440 0.6440 0.6440
15.927000 0.6440 0.6420 0.6420 0.6410 0.6390
15.960175 0.6370 0.6340 0.6320 0.6290 0.6290
15.993000 0.6270 0.6240 0.6270
##END=
