##TITLE=POTASSIUM CHROMATE
$$ A.R.
##JCAMP-DX=4.24
##DATA TYPE=INFRARED SPECTRUM
##CLASS=COBLENTZ
##ORIGIN=MELLON INSTITUTE
##OWNER=COBLENTZ SOCIETY
Collection (C) 2018 copyright by the U.S. Secretary of Commerce
on behalf of the United States of America. All rights reserved.
##DATE=Not specified, most likely prior to 1970
##MOLFORM=K2 Cr O4
##SOURCE REFERENCE=COBLENTZ NO. 459
##$NIST ID=B6000459
##$NIST SOURCE=COBLENTZ
##$NIST IMAGE=cob459
##SPECTROMETER/DATA SYSTEM=Not specified, most likely a prism, grating, or hybrid spectrometer.
##STATE=SOLID (NUJOL MULL)
##PATH LENGTH=
$$SPECTRAL CONTAMINATION DUE TO OIL AROUND 2900, 1450, 1380 CM^-^1
##SAMPLING PROCEDURE=TRANSMISSION
##RESOLUTION=4
##DATA PROCESSING=DIGITIZED BY NIST FROM HARD COPY
##XUNITS=MICROMETERS
##YUNITS=TRANSMITTANCE
##XFACTOR=1.000000
##YFACTOR=1
##DELTAX=000.006639
##FIRSTX=2.011
##LASTX=15.9985
##FIRSTY=0.396
##MAXX=15.9985
##MINX=2.011
##MAXY=0.963
##MINY=0.065
##NPOINTS=2108
##XYDATA=(X++(Y..Y))
2.011000 0.3960 0.3960 0.3960 0.3960 0.3960
2.044208 0.3960 0.3960 0.3960 0.3960 0.3960
2.077000 0.3960 0.3980 0.3980 0.3980 0.3980
2.110208 0.3980 0.3980 0.4000 0.4000 0.4000
2.144000 0.4000 0.4000 0.4000 0.4000 0.4020
2.177208 0.4020 0.4020 0.4020 0.4020 0.4020
2.210000 0.4020 0.4020 0.4020 0.4030 0.4050
2.243208 0.4050 0.4070 0.4070 0.4070 0.4080
2.276000 0.4080 0.4080 0.4100 0.4100 0.4120
2.309208 0.4120 0.4130 0.4130 0.4150 0.4170
2.343000 0.4180 0.4180 0.4200 0.4220 0.4230
2.376208 0.4230 0.4250 0.4270 0.4280 0.4280
2.409000 0.4300 0.4320 0.4320 0.4350 0.4370
2.442208 0.4380 0.4400 0.4420 0.4430 0.4450
2.476000 0.4470 0.4480 0.4500 0.4500 0.4520
2.509208 0.4530 0.4530 0.4550 0.4570 0.4570
2.542000 0.4600 0.4620 0.4620 0.4630 0.4650
2.575208 0.4650 0.4670 0.4690 0.4690 0.4700
2.608000 0.4720 0.4720 0.4740 0.4750 0.4790
2.641208 0.4790 0.4800 0.4820 0.4840 0.4840
2.675000 0.4850 0.4870 0.4890 0.4900 0.4900
2.708208 0.4920 0.4940 0.4940 0.4950 0.4950
2.741000 0.4990 0.5000 0.5000 0.5020 0.5040
2.774208 0.5040 0.5050 0.5050 0.5070 0.5070
2.807000 0.5090 0.5090 0.5090 0.5090 0.5070
2.840208 0.5070 0.5070 0.5070 0.5070 0.5070
2.874000 0.5070 0.5070 0.5070 0.5070 0.5070
2.907208 0.5090 0.5090 0.5090 0.5090 0.5090
2.940000 0.5090 0.5090 0.5100 0.5100 0.5100
2.973208 0.5100 0.5120 0.5120 0.5140 0.5120
3.007000 0.5120 0.5140 0.5140 0.5150 0.5170
3.040208 0.5170 0.5170 0.5190 0.5190 0.5200
3.073000 0.5200 0.5220 0.5220 0.5240 0.5250
3.106208 0.5270 0.5290 0.5290 0.5300 0.5320
3.139000 0.5340 0.5360 0.5370 0.5390 0.5410
3.172208 0.5410 0.5420 0.5420 0.5420 0.5440
3.206000 0.5460 0.5470 0.5490 0.5510 0.5510
3.239208 0.5520 0.5520 0.5540 0.5570 0.5590
3.272000 0.5590 0.5590 0.5590 0.5570 0.5560
3.305208 0.5520 0.5490 0.5390 0.5200 0.5070
3.339000 0.4670 0.4220 0.3650 0.3430 0.2940
3.372208 0.2680 0.2460 0.2240 0.1990 0.1520
3.405000 0.1440 0.1390 0.1370 0.1400 0.1470
3.438208 0.1500 0.1540 0.1540 0.1540 0.1520
3.471000 0.1500 0.1500 0.1490 0.1490 0.1520
3.504208 0.2090 0.2210 0.2340 0.2890 0.3510
3.538000 0.4220 0.4500 0.5020 0.5300 0.5890
3.571208 0.6240 0.6330 0.6410 0.6460 0.6580
3.604000 0.6680 0.6760 0.6810 0.6900 0.6960
3.637208 0.6980 0.7000 0.7030 0.7050 0.7060
3.670000 0.7060 0.7060 0.7100 0.7110 0.7130
3.703208 0.7160 0.7200 0.7200 0.7210 0.7210
3.737000 0.7230 0.7250 0.7260 0.7280 0.7280
3.770208 0.7300 0.7310 0.7310 0.7310 0.7310
3.803000 0.7350 0.7370 0.7370 0.7380 0.7380
3.836208 0.7400 0.7400 0.7420 0.7430 0.7430
3.870000 0.7430 0.7450 0.7470 0.7480 0.7480
3.903208 0.7500 0.7500 0.7520 0.7520 0.7520
3.936000 0.7530 0.7530 0.7530 0.7550 0.7570
3.969208 0.7580 0.7580 0.7580 0.7600 0.7600
4.002000 0.7600 0.7620 0.7630 0.7630 0.7650
4.035208 0.7670 0.7670 0.7680 0.7700 0.7700
4.069000 0.7700 0.7720 0.7720 0.7720 0.7730
4.102208 0.7750 0.7750 0.7770 0.7770 0.7780
4.135000 0.7780 0.7780 0.7800 0.7800 0.7800
4.168208 0.7800 0.7800 0.7800 0.7820 0.7820
4.202000 0.7830 0.7830 0.7830 0.7830 0.7850
4.235208 0.7850 0.7870 0.7870 0.7870 0.7880
4.268000 0.7880 0.7880 0.7880 0.7880 0.7900
4.301208 0.7900 0.7900 0.7920 0.7920 0.7930
4.334000 0.7930 0.7930 0.7930 0.7930 0.7950
4.367208 0.7950 0.7950 0.7950 0.7950 0.7950
4.401000 0.7970 0.7970 0.7970 0.7980 0.7970
4.434208 0.7980 0.7980 0.7980 0.7980 0.7980
4.467000 0.8000 0.8000 0.7980 0.7980 0.8000
4.500208 0.8000 0.8000 0.8000 0.8000 0.8020
4.533000 0.8020 0.8020 0.8020 0.8020 0.8020
4.566208 0.8020 0.8020 0.8040 0.8040 0.8050
4.600000 0.8040 0.8040 0.8050 0.8050 0.8050
4.633208 0.8050 0.8070 0.8090 0.8090 0.8090
4.666000 0.8090 0.8100 0.8100 0.8100 0.8100
4.699208 0.8100 0.8120 0.8120 0.8120 0.8120
4.733000 0.8120 0.8120 0.8120 0.8120 0.8140
4.766208 0.8140 0.8140 0.8150 0.8150 0.8150
4.799000 0.8140 0.8150 0.8150 0.8150 0.8170
4.832208 0.8170 0.8170 0.8170 0.8190 0.8190
4.865000 0.8200 0.8200 0.8200 0.8200 0.8220
4.898208 0.8220 0.8220 0.8220 0.8220 0.8240
4.932000 0.8240 0.8240 0.8250 0.8250 0.8250
4.965208 0.8250 0.8270 0.8270 0.8270 0.8270
4.998000 0.8290 0.8290 0.8290 0.8290 0.8300
5.031208 0.8300 0.8320 0.8340 0.8340 0.8340
5.065000 0.8340 0.8340 0.8340 0.8340 0.8350
5.098208 0.8350 0.8370 0.8370 0.8390 0.8390
5.131000 0.8400 0.8400 0.8400 0.8420 0.8420
5.164208 0.8420 0.8420 0.8440 0.8440 0.8440
5.197000 0.8440 0.8440 0.8450 0.8470 0.8490
5.230208 0.8490 0.8490 0.8490 0.8490 0.8500
5.264000 0.8500 0.8500 0.8500 0.8500 0.8520
5.297208 0.8540 0.8520 0.8520 0.8520 0.8540
5.330000 0.8540 0.8540 0.8550 0.8550 0.8550
5.363208 0.8570 0.8570 0.8570 0.8570 0.8570
5.397000 0.8590 0.8590 0.8590 0.8590 0.8600
5.430208 0.8620 0.8620 0.8620 0.8620 0.8640
5.463000 0.8640 0.8650 0.8650 0.8640 0.8650
5.496208 0.8650 0.8650 0.8670 0.8670 0.8690
5.529000 0.8690 0.8690 0.8690 0.8710 0.8710
5.562208 0.8710 0.8720 0.8720 0.8720 0.8720
5.596000 0.8720 0.8720 0.8740 0.8740 0.8760
5.629208 0.8760 0.8760 0.8760 0.8770 0.8770
5.662000 0.8760 0.8760 0.8770 0.8770 0.8770
5.695208 0.8770 0.8790 0.8790 0.8790 0.8790
5.728000 0.8790 0.8790 0.8790 0.8790 0.8790
5.761208 0.8790 0.8790 0.8790 0.8790 0.8790
5.795000 0.8770 0.8770 0.8790 0.8770 0.8790
5.828208 0.8810 0.8810 0.8810 0.8810 0.8810
5.861000 0.8810 0.8820 0.8820 0.8820 0.8820
5.894208 0.8820 0.8840 0.8860 0.8860 0.8860
5.928000 0.8860 0.8870 0.8870 0.8870 0.8870
5.961208 0.8890 0.8910 0.8910 0.8910 0.8920
5.994000 0.8920 0.8940 0.8940 0.8940 0.8940
6.027208 0.8940 0.8940 0.8960 0.8960 0.8970
6.060000 0.8990 0.8990 0.8990 0.8990 0.8990
6.093208 0.8990 0.9010 0.9010 0.9020 0.9020
6.127000 0.9020 0.9040 0.9040 0.9060 0.9040
6.160208 0.9060 0.9060 0.9060 0.9070 0.9090
6.193000 0.9090 0.9110 0.9140 0.9140 0.9140
6.226208 0.9140 0.9160 0.9160 0.9170 0.9170
6.260000 0.9190 0.9210 0.9210 0.9220 0.9220
6.293208 0.9220 0.9240 0.9240 0.9240 0.9240
6.326000 0.9240 0.9260 0.9260 0.9260 0.9260
6.359208 0.9260 0.9260 0.9290 0.9290 0.9290
6.392000 0.9290 0.9290 0.9290 0.9290 0.9290
6.425208 0.9290 0.9290 0.9290 0.9290 0.9290
6.459000 0.9290 0.9290 0.9290 0.9290 0.9290
6.492208 0.9290 0.9290 0.9290 0.9290 0.9290
6.525000 0.9290 0.9290 0.9290 0.9290 0.9290
6.558208 0.9290 0.9290 0.9290 0.9290 0.9270
6.591000 0.9270 0.9270 0.9270 0.9270 0.9290
6.624208 0.9270 0.9270 0.9270 0.9260 0.9240
6.658000 0.9240 0.9240 0.9220 0.9210 0.9170
6.691208 0.9160 0.9120 0.9090 0.9060 0.9020
6.724000 0.8990 0.8920 0.8870 0.8790 0.8690
6.757208 0.8500 0.8350 0.8170 0.7970 0.7780
6.791000 0.7330 0.6540 0.6240 0.5870 0.5720
6.824208 0.5610 0.5460 0.5390 0.5370 0.5340
6.857000 0.5320 0.5300 0.5290 0.5270 0.5270
6.890208 0.5270 0.5300 0.5520 0.5720 0.5820
6.923000 0.6040 0.6310 0.6560 0.6640 0.6810
6.956208 0.6980 0.7080 0.7300 0.7470 0.7600
6.990000 0.7750 0.7850 0.7930 0.8020 0.8100
7.023208 0.8200 0.8240 0.8290 0.8390 0.8490
7.056000 0.8520 0.8590 0.8640 0.8710 0.8790
7.089208 0.8840 0.8890 0.8970 0.8990 0.9020
7.123000 0.9020 0.9040 0.9040 0.9040 0.9040
7.156208 0.9020 0.9010 0.8940 0.8870 0.8720
7.189000 0.8490 0.7980 0.7350 0.7300 0.7150
7.222208 0.7010 0.6850 0.6800 0.6760 0.6800
7.255000 0.6930 0.7050 0.7100 0.7130 0.7200
7.288208 0.7250 0.7310 0.7380 0.7500 0.7570
7.322000 0.7780 0.7980 0.8050 0.8100 0.8170
7.355208 0.8200 0.8250 0.8300 0.8340 0.8350
7.388000 0.8390 0.8420 0.8440 0.8470 0.8490
7.421208 0.8500 0.8540 0.8540 0.8550 0.8600
7.454000 0.8620 0.8650 0.8670 0.8710 0.8740
7.487208 0.8810 0.8840 0.8890 0.8920 0.8940
7.521000 0.8990 0.9020 0.9060 0.9090 0.9090
7.554208 0.9110 0.9110 0.9120 0.9140 0.9140
7.587000 0.9160 0.9160 0.9160 0.9160 0.9160
7.620208 0.9160 0.9160 0.9160 0.9160 0.9160
7.654000 0.9160 0.9160 0.9140 0.9140 0.9140
7.687208 0.9140 0.9160 0.9170 0.9170 0.9170
7.720000 0.9170 0.9190 0.9190 0.9210 0.9220
7.753208 0.9220 0.9220 0.9220 0.9220 0.9240
7.786000 0.9240 0.9260 0.9260 0.9260 0.9260
7.819208 0.9260 0.9260 0.9260 0.9260 0.9260
7.853000 0.9260 0.9260 0.9260 0.9270 0.9270
7.886208 0.9260 0.9260 0.9270 0.9270 0.9270
7.919000 0.9270 0.9270 0.9270 0.9270 0.9270
7.952208 0.9270 0.9290 0.9270 0.9270 0.9270
7.986000 0.9270 0.9270 0.9270 0.9290 0.9290
8.019208 0.9290 0.9290 0.9290 0.9290 0.9290
8.052000 0.9290 0.9310 0.9310 0.9310 0.9320
8.085208 0.9320 0.9320 0.9320 0.9320 0.9340
8.118000 0.9340 0.9340 0.9340 0.9340 0.9360
8.151208 0.9360 0.9360 0.9360 0.9380 0.9360
8.185000 0.9360 0.9360 0.9360 0.9340 0.9380
8.218208 0.9380 0.9390 0.9410 0.9430 0.9430
8.251000 0.9430 0.9430 0.9440 0.9440 0.9460
8.284208 0.9460 0.9460 0.9460 0.9460 0.9480
8.317000 0.9480 0.9490 0.9510 0.9530 0.9530
8.350208 0.9530 0.9530 0.9540 0.9560 0.9560
8.384000 0.9560 0.9580 0.9580 0.9580 0.9590
8.417208 0.9610 0.9610 0.9630 0.9610 0.9610
8.450000 0.9630 0.9630 0.9630 0.9630 0.9630
8.483208 0.9630 0.9630 0.9630 0.9590 0.9580
8.517000 0.9560 0.9540 0.9540 0.9540 0.9540
8.550208 0.9540 0.9530 0.9530 0.9510 0.9510
8.583000 0.9510 0.9490 0.9490 0.9490 0.9490
8.616208 0.9480 0.9480 0.9460 0.9460 0.9460
8.649000 0.9440 0.9440 0.9460 0.9460 0.9460
8.682208 0.9460 0.9460 0.9460 0.9460 0.9460
8.716000 0.9480 0.9480 0.9480 0.9490 0.9490
8.749208 0.9490 0.9510 0.9510 0.9510 0.9510
8.782000 0.9510 0.9510 0.9510 0.9530 0.9540
8.815208 0.9540 0.9540 0.9540 0.9540 0.9540
8.849000 0.9540 0.9540 0.9540 0.9560 0.9560
8.882208 0.9560 0.9580 0.9580 0.9580 0.9580
8.915000 0.9580 0.9590 0.9590 0.9590 0.9590
8.948208 0.9590 0.9610 0.9610 0.9610 0.9610
8.981000 0.9630 0.9610 0.9610 0.9610 0.9630
9.014208 0.9630 0.9630 0.9610 0.9610 0.9610
9.048000 0.9610 0.9610 0.9610 0.9610 0.9610
9.081208 0.9610 0.9610 0.9610 0.9610 0.9610
9.114000 0.9610 0.9610 0.9590 0.9590 0.9590
9.147208 0.9590 0.9590 0.9590 0.9590 0.9590
9.180000 0.9590 0.9590 0.9590 0.9590 0.9590
9.213208 0.9590 0.9590 0.9590 0.9590 0.9590
9.247000 0.9590 0.9590 0.9590 0.9590 0.9610
9.280208 0.9590 0.9590 0.9590 0.9610 0.9590
9.313000 0.9590 0.9590 0.9590 0.9590 0.9590
9.346208 0.9580 0.9580 0.9580 0.9580 0.9580
9.380000 0.9590 0.9580 0.9560 0.9560 0.9560
9.413208 0.9560 0.9560 0.9540 0.9540 0.9540
9.446000 0.9540 0.9540 0.9540 0.9540 0.9540
9.479208 0.9540 0.9540 0.9540 0.9540 0.9540
9.512000 0.9540 0.9530 0.9530 0.9530 0.9510
9.545208 0.9510 0.9510 0.9510 0.9510 0.9510
9.579000 0.9510 0.9510 0.9490 0.9490 0.9480
9.612208 0.9480 0.9480 0.9460 0.9460 0.9460
9.645000 0.9460 0.9460 0.9440 0.9440 0.9430
9.678208 0.9430 0.9430 0.9430 0.9430 0.9410
9.712000 0.9410 0.9410 0.9410 0.9390 0.9380
9.745208 0.9380 0.9360 0.9340 0.9340 0.9320
9.778000 0.9320 0.9320 0.9310 0.9270 0.9270
9.811208 0.9270 0.9270 0.9270 0.9260 0.9260
9.844000 0.9260 0.9240 0.9240 0.9220 0.9210
9.877208 0.9210 0.9210 0.9190 0.9190 0.9190
9.911000 0.9170 0.9160 0.9160 0.9160 0.9140
9.944208 0.9140 0.9120 0.9110 0.9110 0.9060
9.977000 0.9060 0.9040 0.9020 0.9010 0.8990
10.010208 0.8970 0.8960 0.8960 0.8940 0.8920
10.043000 0.8910 0.8890 0.8860 0.8840 0.8820
10.076208 0.8810 0.8760 0.8760 0.8740 0.8720
10.110000 0.8670 0.8650 0.8650 0.8620 0.8570
10.143208 0.8550 0.8540 0.8500 0.8470 0.8440
10.176000 0.8400 0.8370 0.8340 0.8270 0.8220
10.209208 0.8200 0.8150 0.8140 0.8050 0.8020
10.243000 0.8000 0.7980 0.7900 0.7850 0.7780
10.276208 0.7700 0.7600 0.7530 0.7430 0.7350
10.309000 0.7280 0.7180 0.7080 0.6930 0.6850
10.342208 0.6680 0.6580 0.6480 0.6340 0.6160
10.375000 0.6130 0.6040 0.5970 0.5810 0.5660
10.408208 0.5520 0.5370 0.5290 0.5200 0.5090
10.442000 0.5000 0.4820 0.4630 0.4520 0.4420
10.475208 0.4350 0.4300 0.4170 0.4100 0.3950
10.508000 0.3880 0.3710 0.3580 0.3430 0.3230
10.541208 0.3180 0.3060 0.3030 0.2990 0.2980
10.575000 0.2940 0.2860 0.2780 0.2680 0.2570
10.608208 0.2510 0.2470 0.2420 0.2410 0.2360
10.641000 0.2340 0.2320 0.2310 0.2270 0.2260
10.674208 0.2240 0.2240 0.2220 0.2210 0.2210
10.707000 0.2190 0.2190 0.2160 0.2160 0.2160
10.740208 0.2140 0.2140 0.2140 0.2120 0.2120
10.774000 0.2120 0.2120 0.2140 0.2120 0.2120
10.807208 0.2120 0.2120 0.2120 0.2140 0.2120
10.840000 0.2120 0.2120 0.2120 0.2120 0.2120
10.873208 0.2120 0.2110 0.2090 0.2040 0.2020
10.906000 0.2020 0.2020 0.1990 0.1970 0.1940
10.939208 0.1920 0.1900 0.1850 0.1840 0.1840
10.973000 0.1800 0.1770 0.1750 0.1740 0.1720
11.006208 0.1690 0.1670 0.1670 0.1650 0.1640
11.039000 0.1620 0.1600 0.1550 0.1540 0.1540
11.072208 0.1520 0.1500 0.1490 0.1470 0.1450
11.106000 0.1420 0.1400 0.1350 0.1340 0.1340
11.139208 0.1320 0.1300 0.1300 0.1280 0.1250
11.172000 0.1230 0.1180 0.1170 0.1170 0.1150
11.205208 0.1130 0.1120 0.1100 0.1080 0.1070
11.238000 0.1050 0.1030 0.1030 0.1020 0.1000
11.271208 0.0980 0.0950 0.0950 0.0930 0.0930
11.305000 0.0920 0.0900 0.0900 0.0880 0.0870
11.338208 0.0850 0.0830 0.0830 0.0830 0.0820
11.371000 0.0820 0.0800 0.0800 0.0770 0.0750
11.404208 0.0750 0.0750 0.0730 0.0730 0.0730
11.438000 0.0720 0.0720 0.0720 0.0700 0.0680
11.471208 0.0670 0.0650 0.0650 0.0650 0.0670
11.504000 0.0680 0.0720 0.0720 0.0730 0.0730
11.537208 0.0750 0.0800 0.0830 0.0870 0.0920
11.570000 0.0980 0.0980 0.1050 0.1120 0.1150
11.603208 0.1200 0.1230 0.1250 0.1270 0.1300
11.637000 0.1300 0.1300 0.1320 0.1340 0.1340
11.670208 0.1350 0.1400 0.1420 0.1440 0.1450
11.703000 0.1500 0.1540 0.1600 0.1640 0.1670
11.736208 0.1770 0.1800 0.1900 0.1970 0.2040
11.769000 0.2070 0.2210 0.2290 0.2420 0.2510
11.802208 0.2590 0.2780 0.2840 0.2910 0.2960
11.836000 0.3040 0.3160 0.3240 0.3290 0.3410
11.869208 0.3500 0.3630 0.3760 0.3830 0.3980
11.902000 0.4030 0.4120 0.4170 0.4230 0.4320
11.935208 0.4350 0.4400 0.4450 0.4500 0.4550
11.969000 0.4630 0.4690 0.4700 0.4750 0.4770
12.002208 0.4840 0.4890 0.4940 0.4970 0.5000
12.035000 0.5000 0.5040 0.5100 0.5140 0.5170
12.068208 0.5200 0.5250 0.5270 0.5300 0.5340
12.101000 0.5390 0.5420 0.5460 0.5470 0.5540
12.134208 0.5560 0.5620 0.5660 0.5690 0.5740
12.168000 0.5810 0.5860 0.5910 0.5910 0.5920
12.201208 0.5960 0.6010 0.6040 0.6090 0.6140
12.234000 0.6160 0.6210 0.6230 0.6260 0.6260
12.267208 0.6290 0.6310 0.6330 0.6360 0.6390
12.301000 0.6430 0.6460 0.6490 0.6530 0.6540
12.334208 0.6560 0.6590 0.6640 0.6660 0.6710
12.367000 0.6760 0.6780 0.6800 0.6810 0.6850
12.400208 0.6860 0.6900 0.6930 0.6950 0.6950
12.433000 0.6960 0.6980 0.7000 0.7010 0.7030
12.466208 0.7030 0.7050 0.7060 0.7060 0.7060
12.500000 0.7110 0.7110 0.7130 0.7150 0.7160
12.533208 0.7160 0.7180 0.7180 0.7200 0.7200
12.566000 0.7210 0.7210 0.7230 0.7230 0.7230
12.599208 0.7250 0.7250 0.7250 0.7260 0.7280
12.632000 0.7300 0.7300 0.7310 0.7310 0.7330
12.665208 0.7330 0.7350 0.7350 0.7370 0.7370
12.699000 0.7380 0.7380 0.7400 0.7400 0.7400
12.732208 0.7420 0.7420 0.7420 0.7420 0.7420
12.765000 0.7430 0.7450 0.7450 0.7470 0.7480
12.798208 0.7480 0.7480 0.7500 0.7500 0.7520
12.832000 0.7520 0.7520 0.7530 0.7530 0.7550
12.865208 0.7550 0.7550 0.7550 0.7580 0.7580
12.898000 0.7600 0.7600 0.7620 0.7620 0.7630
12.931208 0.7630 0.7650 0.7650 0.7650 0.7670
12.964000 0.7650 0.7670 0.7670 0.7700 0.7720
12.997208 0.7720 0.7730 0.7730 0.7750 0.7750
13.031000 0.7770 0.7770 0.7780 0.7780 0.7800
13.064208 0.7800 0.7830 0.7850 0.7870 0.7880
13.097000 0.7900 0.7900 0.7920 0.7950 0.7970
13.130208 0.7970 0.7980 0.8000 0.8000 0.8020
13.164000 0.8040 0.8050 0.8050 0.8090 0.8100
13.197208 0.8120 0.8150 0.8170 0.8190 0.8200
13.230000 0.8200 0.8240 0.8240 0.8250 0.8250
13.263208 0.8270 0.8250 0.8250 0.8250 0.8250
13.296000 0.8250 0.8250 0.8250 0.8240 0.8240
13.329208 0.8240 0.8240 0.8220 0.8220 0.8200
13.363000 0.8200 0.8190 0.8190 0.8190 0.8170
13.396208 0.8170 0.8170 0.8170 0.8170 0.8170
13.429000 0.8170 0.8170 0.8170 0.8190 0.8190
13.462208 0.8190 0.8170 0.8170 0.8190 0.8190
13.495000 0.8190 0.8190 0.8190 0.8190 0.8200
13.528208 0.8200 0.8190 0.8200 0.8200 0.8200
13.562000 0.8190 0.8190 0.8190 0.8190 0.8190
13.595208 0.8190 0.8190 0.8170 0.8190 0.8190
13.628000 0.8190 0.8190 0.8170 0.8190 0.8190
13.661208 0.8190 0.8190 0.8200 0.8200 0.8200
13.695000 0.8200 0.8200 0.8200 0.8220 0.8220
13.728208 0.8220 0.8200 0.8200 0.8200 0.8190
13.761000 0.8170 0.8150 0.8150 0.8150 0.8140
13.794208 0.8140 0.8120 0.8120 0.8120 0.8120
13.827000 0.8120 0.8120 0.8120 0.8140 0.8140
13.860208 0.8120 0.8140 0.8140 0.8140 0.8150
13.894000 0.8150 0.8150 0.8170 0.8190 0.8190
13.927208 0.8190 0.8200 0.8200 0.8220 0.8220
13.960000 0.8220 0.8240 0.8240 0.8250 0.8270
13.993208 0.8270 0.8270 0.8270 0.8270 0.8270
14.027000 0.8270 0.8290 0.8290 0.8290 0.8300
14.060208 0.8300 0.8300 0.8300 0.8300 0.8300
14.093000 0.8300 0.8320 0.8320 0.8320 0.8320
14.126208 0.8340 0.8340 0.8340 0.8320 0.8320
14.159000 0.8340 0.8340 0.8320 0.8320 0.8320
14.192208 0.8320 0.8300 0.8320 0.8320 0.8320
14.226000 0.8320 0.8320 0.8320 0.8320 0.8320
14.259208 0.8320 0.8300 0.8300 0.8300 0.8290
14.292000 0.8290 0.8290 0.8270 0.8270 0.8270
14.325208 0.8250 0.8250 0.8240 0.8240 0.8220
14.358000 0.8220 0.8220 0.8190 0.8190 0.8170
14.391208 0.8170 0.8170 0.8150 0.8150 0.8150
14.425000 0.8140 0.8120 0.8120 0.8120 0.8100
14.458208 0.8100 0.8100 0.8050 0.8050 0.8040
14.491000 0.8040 0.8040 0.8040 0.8040 0.8020
14.524208 0.8020 0.8000 0.8000 0.7970 0.7970
14.558000 0.7950 0.7950 0.7950 0.7930 0.7930
14.591208 0.7920 0.7920 0.7900 0.7900 0.7900
14.624000 0.7880 0.7880 0.7870 0.7870 0.7850
14.657208 0.7850 0.7830 0.7830 0.7820 0.7820
14.690000 0.7800 0.7800 0.7780 0.7750 0.7750
14.723208 0.7750 0.7750 0.7750 0.7730 0.7730
14.757000 0.7720 0.7720 0.7700 0.7680 0.7670
14.790208 0.7650 0.7630 0.7580 0.7580 0.7550
14.823000 0.7550 0.7530 0.7530 0.7520 0.7520
14.856208 0.7500 0.7480 0.7470 0.7450 0.7450
14.890000 0.7450 0.7430 0.7420 0.7400 0.7400
14.923208 0.7380 0.7380 0.7370 0.7370 0.7350
14.956000 0.7350 0.7350 0.7330 0.7330 0.7310
14.989208 0.7310 0.7300 0.7300 0.7280 0.7260
15.022000 0.7250 0.7250 0.7250 0.7230 0.7230
15.055208 0.7230 0.7230 0.7210 0.7210 0.7200
15.089000 0.7160 0.7160 0.7160 0.7160 0.7150
15.122208 0.7150 0.7130 0.7130 0.7110 0.7100
15.155000 0.7100 0.7080 0.7080 0.7060 0.7050
15.188208 0.7030 0.7030 0.7030 0.7010 0.7010
15.221000 0.7000 0.7000 0.7000 0.6980 0.6980
15.254208 0.6960 0.6950 0.6930 0.6910 0.6910
15.288000 0.6880 0.6860 0.6850 0.6850 0.6850
15.321208 0.6850 0.6830 0.6830 0.6810 0.6810
15.354000 0.6800 0.6780 0.6780 0.6760 0.6750
15.387208 0.6750 0.6710 0.6710 0.6700 0.6660
15.421000 0.6680 0.6660 0.6660 0.6660 0.6640
15.454208 0.6630 0.6610 0.6590 0.6580 0.6580
15.487000 0.6580 0.6580 0.6540 0.6540 0.6540
15.520208 0.6540 0.6540 0.6530 0.6530 0.6530
15.553000 0.6530 0.6530 0.6530 0.6510 0.6530
15.586208 0.6510 0.6510 0.6510 0.6490 0.6510
15.620000 0.6490 0.6490 0.6480 0.6480 0.6460
15.653208 0.6460 0.6460 0.6460 0.6440 0.6440
15.686000 0.6430 0.6430 0.6430 0.6430 0.6430
15.719208 0.6410 0.6410 0.6390 0.6390 0.6390
15.753000 0.6380 0.6380 0.6360 0.6360 0.6360
15.786208 0.6360 0.6340 0.6340 0.6340 0.6340
15.819000 0.6340 0.6340 0.6340 0.6340 0.6330
15.852208 0.6330 0.6330 0.6330 0.6310 0.6310
15.885000 0.6310 0.6310 0.6310 0.6310 0.6290
15.918208 0.6290 0.6280 0.6280 0.6280 0.6260
15.952000 0.6240 0.6230 0.6230 0.6230 0.6230
15.985208 0.6230 0.6230 0.6230
##END=
