##TITLE=DEHYDROACETIC ACID, COPPER SALT
##JCAMP-DX=4.24
##DATA TYPE=INFRARED SPECTRUM
##CLASS=COBLENTZ
##ORIGIN=DOW CHEMICAL COMPANY
##OWNER=COBLENTZ SOCIETY
Collection (C) 2018 copyright by the U.S. Secretary of Commerce
on behalf of the United States of America. All rights reserved.
##DATE=Not specified, most likely prior to 1970
##NAMES=3-ACETYL-6-METHYL-1,2-PYRAN-2,4(3H)DIONE, COPPER SALT
##MOLFORM=C16 H14 O8 Cu
##SOURCE REFERENCE=COBLENTZ NO. 1496
##$NIST ID=B6001496
##$NIST SOURCE=COBLENTZ
##$NIST IMAGE=cob1496
##SPECTROMETER/DATA SYSTEM=Not specified, most likely a prism, grating, or hybrid spectrometer.
##STATE=SOLID (MINERAL OIL MULL)
##SAMPLING PROCEDURE=TRANSMISSION
##RESOLUTION=4
##DATA PROCESSING=DIGITIZED BY NIST FROM HARD COPY
##XUNITS=MICROMETERS
##YUNITS=TRANSMITTANCE
##XFACTOR=1.000000
##YFACTOR=1
##DELTAX=000.006843
##FIRSTX=2.021
##LASTX=15.9178
##FIRSTY=0.322
##MAXX=15.9178
##MINX=2.021
##MAXY=0.945
##MINY=0.022
##NPOINTS=2032
##XYDATA=(X++(Y..Y))
2.021000 0.3220 0.3250 0.3270 0.3290 0.3290
2.055230 0.3310 0.3320 0.3370 0.3410 0.3430
2.089000 0.3430 0.3440 0.3460 0.3480 0.3510
2.123230 0.3510 0.3530 0.3540 0.3560 0.3610
2.157000 0.3630 0.3650 0.3680 0.3700 0.3720
2.191230 0.3720 0.3720 0.3730 0.3780 0.3800
2.226000 0.3800 0.3800 0.3800 0.3800 0.3800
2.260230 0.3750 0.3730 0.3730 0.3700 0.3700
2.294000 0.3700 0.3700 0.3720 0.3730 0.3730
2.328230 0.3750 0.3780 0.3800 0.3820 0.3890
2.363000 0.3900 0.3920 0.3970 0.3990 0.4010
2.397230 0.4040 0.4060 0.4070 0.4110 0.4120
2.431000 0.4140 0.4140 0.4180 0.4190 0.4210
2.465230 0.4230 0.4240 0.4260 0.4300 0.4310
2.500000 0.4330 0.4350 0.4380 0.4410 0.4430
2.534230 0.4470 0.4480 0.4500 0.4520 0.4530
2.568000 0.4530 0.4600 0.4620 0.4640 0.4650
2.602230 0.4670 0.4690 0.4700 0.4740 0.4760
2.636000 0.4770 0.4790 0.4810 0.4840 0.4880
2.670230 0.4890 0.4910 0.4930 0.4940 0.4960
2.705000 0.4980 0.5010 0.5030 0.5030 0.5050
2.739230 0.5060 0.5060 0.5080 0.5100 0.5100
2.773000 0.5110 0.5110 0.5110 0.5130 0.5130
2.807230 0.5150 0.5170 0.5180 0.5180 0.5180
2.842000 0.5220 0.5230 0.5230 0.5230 0.5230
2.876230 0.5230 0.5230 0.5220 0.5220 0.5220
2.910000 0.5220 0.5200 0.5200 0.5200 0.5200
2.944230 0.5200 0.5220 0.5230 0.5250 0.5290
2.978000 0.5300 0.5320 0.5340 0.5370 0.5390
3.012230 0.5390 0.5390 0.5390 0.5400 0.5400
3.047000 0.5400 0.5400 0.5400 0.5400 0.5400
3.081230 0.5400 0.5400 0.5390 0.5370 0.5350
3.115000 0.5350 0.5340 0.5320 0.5300 0.5300
3.149230 0.5290 0.5230 0.5180 0.5130 0.5100
3.184000 0.5010 0.5000 0.4960 0.4940 0.4890
3.218230 0.4820 0.4820 0.4820 0.4820 0.4820
3.252000 0.4820 0.4860 0.4860 0.4880 0.4880
3.286230 0.4840 0.4760 0.4600 0.4520 0.4310
3.321000 0.4020 0.3750 0.3430 0.2880 0.2610
3.355230 0.1600 0.0730 0.0460 0.0350 0.0230
3.389000 0.0220 0.0220 0.0230 0.0230 0.0250
3.423230 0.0250 0.0250 0.0270 0.0270 0.0300
3.457000 0.0320 0.0340 0.0370 0.0400 0.0510
3.491230 0.0580 0.0710 0.0930 0.1310 0.1870
3.526000 0.2180 0.3080 0.3510 0.4110 0.4570
3.560230 0.4930 0.5180 0.5390 0.5540 0.5660
3.594000 0.5760 0.5880 0.6040 0.6160 0.6170
3.628230 0.6170 0.6160 0.6120 0.6090 0.6050
3.663000 0.6020 0.6000 0.6020 0.6050 0.6100
3.697230 0.6140 0.6210 0.6210 0.6240 0.6260
3.731000 0.6260 0.6260 0.6260 0.6220 0.6210
3.765230 0.6190 0.6190 0.6210 0.6240 0.6310
3.800000 0.6360 0.6390 0.6430 0.6460 0.6500
3.834230 0.6510 0.6530 0.6560 0.6600 0.6630
3.868000 0.6700 0.6720 0.6790 0.6860 0.6890
3.902230 0.6970 0.6990 0.7010 0.7030 0.7080
3.936000 0.7110 0.7160 0.7200 0.7230 0.7250
3.970230 0.7280 0.7320 0.7330 0.7350 0.7380
4.005000 0.7420 0.7450 0.7490 0.7490 0.7490
4.039230 0.7440 0.7380 0.7370 0.7370 0.7370
4.073000 0.7370 0.7380 0.7380 0.7380 0.7380
4.107230 0.7380 0.7400 0.7400 0.7420 0.7440
4.142000 0.7450 0.7490 0.7490 0.7500 0.7500
4.176230 0.7500 0.7490 0.7500 0.7500 0.7500
4.210000 0.7540 0.7540 0.7540 0.7550 0.7550
4.244230 0.7570 0.7610 0.7640 0.7670 0.7710
4.279000 0.7730 0.7780 0.7810 0.7860 0.7900
4.313230 0.7910 0.7950 0.7950 0.7950 0.7950
4.347000 0.7950 0.7960 0.7960 0.7960 0.7960
4.381230 0.7960 0.7960 0.7980 0.8000 0.8030
4.415000 0.8080 0.8080 0.8080 0.8080 0.8100
4.449230 0.8080 0.8070 0.8050 0.8030 0.8020
4.484000 0.8000 0.7980 0.8000 0.8120 0.8170
4.518230 0.8200 0.8220 0.8220 0.8220 0.8220
4.552000 0.8200 0.8200 0.8200 0.8200 0.8220
4.586230 0.8220 0.8220 0.8220 0.8200 0.8200
4.621000 0.8190 0.8200 0.8220 0.8240 0.8290
4.655230 0.8320 0.8340 0.8360 0.8360 0.8340
4.689000 0.8340 0.8310 0.8290 0.8290 0.8290
4.723230 0.8290 0.8290 0.8290 0.8310 0.8320
4.758000 0.8370 0.8410 0.8460 0.8510 0.8530
4.792230 0.8540 0.8540 0.8540 0.8530 0.8490
4.826000 0.8490 0.8490 0.8490 0.8490 0.8510
4.860230 0.8510 0.8530 0.8530 0.8510 0.8510
4.894000 0.8530 0.8530 0.8530 0.8510 0.8510
4.928230 0.8510 0.8510 0.8510 0.8580 0.8580
4.963000 0.8580 0.8580 0.8530 0.8490 0.8490
4.997230 0.8490 0.8490 0.8510 0.8650 0.8720
5.031000 0.8780 0.8780 0.8780 0.8780 0.8780
5.065230 0.8770 0.8770 0.8750 0.8750 0.8770
5.100000 0.8770 0.8770 0.8780 0.8780 0.8780
5.134230 0.8800 0.8800 0.8820 0.8830 0.8890
5.168000 0.8920 0.8990 0.8990 0.8990 0.8940
5.202230 0.8870 0.8820 0.8770 0.8720 0.8720
5.237000 0.8720 0.8730 0.8750 0.8780 0.8780
5.271230 0.8780 0.8780 0.8780 0.8780 0.8700
5.305000 0.8680 0.8540 0.8460 0.8360 0.8250
5.339230 0.8100 0.7980 0.7960 0.7960 0.7980
5.373000 0.8100 0.8220 0.8360 0.8490 0.8610
5.407230 0.8730 0.8850 0.8920 0.8990 0.8990
5.442000 0.9010 0.9010 0.9010 0.9010 0.9010
5.476230 0.9010 0.8990 0.8990 0.8990 0.8940
5.510000 0.8890 0.8850 0.8800 0.8770 0.8770
5.544230 0.8750 0.8770 0.8770 0.8770 0.8770
5.579000 0.8700 0.8660 0.8480 0.8320 0.8240
5.613230 0.8070 0.7840 0.7740 0.7620 0.7540
5.647000 0.7450 0.7440 0.7440 0.7450 0.7500
5.681230 0.7550 0.7550 0.7550 0.7490 0.7370
5.716000 0.7180 0.6990 0.6740 0.6450 0.6020
5.750230 0.5610 0.5200 0.4760 0.4260 0.3730
5.784000 0.3100 0.2370 0.1510 0.0930 0.0750
5.818230 0.0560 0.0540 0.0490 0.0460 0.0400
5.852000 0.0390 0.0390 0.0370 0.0370 0.0400
5.886230 0.0560 0.0760 0.0980 0.1210 0.1790
5.921000 0.2370 0.2760 0.3170 0.3540 0.4010
5.955230 0.4480 0.4570 0.4570 0.4550 0.4230
5.989000 0.3900 0.3510 0.3100 0.2690 0.2300
6.023230 0.1860 0.1410 0.1100 0.0900 0.0730
6.058000 0.0640 0.0560 0.0510 0.0560 0.0660
6.092230 0.0900 0.1100 0.1500 0.2040 0.2640
6.126000 0.3030 0.3410 0.3770 0.4040 0.4260
6.160230 0.4350 0.4530 0.4650 0.4820 0.5000
6.195000 0.5080 0.5100 0.5100 0.5080 0.5060
6.229230 0.4880 0.4690 0.4480 0.4230 0.3900
6.263000 0.3580 0.3080 0.2660 0.2200 0.1510
6.297230 0.1050 0.0880 0.0680 0.0520 0.0370
6.331000 0.0290 0.0290 0.0290 0.0300 0.0300
6.365230 0.0300 0.0300 0.0320 0.0340 0.0350
6.400000 0.0390 0.0420 0.0460 0.0490 0.0470
6.434230 0.0510 0.0520 0.0560 0.0630 0.0710
6.468000 0.0870 0.1050 0.1310 0.1650 0.2200
6.502230 0.2550 0.2840 0.3050 0.3290 0.3480
6.537000 0.3650 0.3820 0.3950 0.4110 0.4230
6.571230 0.4330 0.4470 0.4500 0.4550 0.4590
6.605000 0.4600 0.4600 0.4570 0.4500 0.4410
6.639230 0.4300 0.4140 0.3990 0.3830 0.3650
6.674000 0.3460 0.3270 0.3030 0.2640 0.2380
6.708230 0.1600 0.1240 0.0850 0.0580 0.0340
6.742000 0.0320 0.0340 0.0400 0.0510 0.0540
6.776230 0.0610 0.0630 0.0660 0.0680 0.0680
6.810000 0.0640 0.0590 0.0580 0.0520 0.0520
6.844230 0.0510 0.0510 0.0470 0.0400 0.0300
6.879000 0.0290 0.0290 0.0290 0.0290 0.0290
6.913230 0.0270 0.0270 0.0270 0.0250 0.0250
6.947000 0.0250 0.0250 0.0250 0.0250 0.0270
6.981230 0.0320 0.0370 0.0460 0.0540 0.0560
7.016000 0.0610 0.0690 0.0830 0.1000 0.1210
7.050230 0.1410 0.1650 0.1890 0.1990 0.2160
7.084000 0.2250 0.2260 0.2280 0.2260 0.2200
7.118230 0.2060 0.1910 0.1740 0.1530 0.1340
7.152000 0.1160 0.0980 0.0830 0.0710 0.0690
7.186230 0.0690 0.0690 0.0760 0.0870 0.0950
7.221000 0.0980 0.0980 0.0920 0.0830 0.0750
7.255230 0.0680 0.0660 0.0660 0.0710 0.0880
7.289000 0.0950 0.1050 0.1190 0.1290 0.1450
7.323230 0.1600 0.1740 0.1820 0.1860 0.1860
7.358000 0.1790 0.1310 0.1040 0.0780 0.0730
7.392230 0.0760 0.0800 0.1190 0.1530 0.1840
7.426000 0.2090 0.2350 0.2570 0.2810 0.3030
7.460230 0.3270 0.3530 0.3680 0.3940 0.4210
7.495000 0.4410 0.4500 0.4530 0.4640 0.4690
7.529230 0.4790 0.4930 0.5010 0.5130 0.5200
7.563000 0.5290 0.5340 0.5400 0.5470 0.5470
7.597230 0.5540 0.5580 0.5630 0.5660 0.5680
7.631000 0.5690 0.5750 0.5760 0.5780 0.5800
7.665230 0.5810 0.5870 0.5870 0.5930 0.5970
7.700000 0.6040 0.6100 0.6170 0.6220 0.6270
7.734230 0.6290 0.6330 0.6380 0.6380 0.6390
7.768000 0.6390 0.6390 0.6390 0.6390 0.6260
7.802230 0.6170 0.6020 0.5810 0.5540 0.5290
7.837000 0.5030 0.4930 0.4770 0.4620 0.4620
7.871230 0.4650 0.4790 0.5050 0.5440 0.5640
7.905000 0.5950 0.6210 0.6270 0.6500 0.6620
7.939230 0.6670 0.6740 0.6770 0.6800 0.6860
7.974000 0.6890 0.6910 0.6910 0.6910 0.6910
8.008230 0.6890 0.6840 0.6820 0.6790 0.6770
8.042000 0.6560 0.6310 0.6070 0.5540 0.5180
8.076230 0.4880 0.4530 0.4380 0.4070 0.3970
8.110000 0.3970 0.4070 0.4260 0.4480 0.4940
8.144230 0.5340 0.5920 0.6020 0.6220 0.6330
8.179000 0.6430 0.6480 0.6530 0.6560 0.6630
8.213230 0.6720 0.6750 0.6820 0.6820 0.6910
8.247000 0.6970 0.6990 0.7030 0.7130 0.7210
8.281230 0.7260 0.7330 0.7380 0.7450 0.7500
8.316000 0.7550 0.7590 0.7620 0.7660 0.7660
8.350230 0.7670 0.7670 0.7690 0.7730 0.7740
8.384000 0.7760 0.7760 0.7760 0.7760 0.7760
8.418230 0.7760 0.7760 0.7740 0.7690 0.7640
8.453000 0.7550 0.7420 0.7260 0.7080 0.6840
8.487230 0.6500 0.6190 0.5780 0.5270 0.4940
8.521000 0.4620 0.4280 0.3940 0.3870 0.3870
8.555230 0.3890 0.4110 0.4500 0.4840 0.5180
8.589000 0.5520 0.5880 0.6270 0.6720 0.6870
8.623230 0.6990 0.7090 0.7180 0.7250 0.7300
8.658000 0.7350 0.7400 0.7450 0.7490 0.7540
8.692230 0.7590 0.7640 0.7690 0.7760 0.7760
8.726000 0.7840 0.7930 0.7950 0.7980 0.8000
8.760230 0.8050 0.8050 0.8070 0.8100 0.8120
8.795000 0.8130 0.8130 0.8170 0.8190 0.8200
8.829230 0.8200 0.8200 0.8240 0.8240 0.8250
8.863000 0.8250 0.8250 0.8250 0.8270 0.8270
8.897230 0.8270 0.8290 0.8290 0.8310 0.8310
8.932000 0.8310 0.8290 0.8290 0.8270 0.8270
8.966230 0.8250 0.8220 0.8190 0.8170 0.8170
9.000000 0.8170 0.8150 0.8150 0.8190 0.8190
9.034230 0.8240 0.8240 0.8270 0.8290 0.8340
9.068000 0.8360 0.8370 0.8440 0.8460 0.8460
9.102230 0.8480 0.8480 0.8490 0.8480 0.8490
9.137000 0.8490 0.8510 0.8530 0.8540 0.8540
9.171230 0.8540 0.8540 0.8560 0.8560 0.8560
9.205000 0.8580 0.8600 0.8600 0.8600 0.8580
9.239230 0.8580 0.8580 0.8560 0.8560 0.8540
9.274000 0.8490 0.8480 0.8440 0.8410 0.8310
9.308230 0.8220 0.8100 0.8000 0.7900 0.7730
9.342000 0.7490 0.7230 0.6910 0.6560 0.6210
9.376230 0.5830 0.5420 0.5270 0.5030 0.5010
9.411000 0.5050 0.5580 0.5920 0.6430 0.6770
9.445230 0.7200 0.7620 0.7900 0.8000 0.8080
9.479000 0.8100 0.8150 0.8150 0.8150 0.8150
9.513230 0.8150 0.8130 0.8050 0.7910 0.7740
9.547000 0.7540 0.7320 0.7060 0.6800 0.6460
9.581230 0.6340 0.6160 0.5950 0.5750 0.5580
9.616000 0.5540 0.5490 0.5470 0.5400 0.5290
9.650230 0.5110 0.4930 0.4720 0.4550 0.4400
9.684000 0.4240 0.4160 0.4160 0.4190 0.4240
9.718230 0.4280 0.4350 0.4410 0.4470 0.4570
9.753000 0.4670 0.4810 0.5010 0.5250 0.5420
9.787230 0.5540 0.5690 0.5880 0.6220 0.6390
9.821000 0.6530 0.6770 0.6770 0.6770 0.6740
9.855230 0.6550 0.6190 0.5870 0.5340 0.5030
9.890000 0.4620 0.4310 0.3680 0.3130 0.2590
9.924230 0.2060 0.1550 0.1120 0.0950 0.0750
9.958000 0.0730 0.0760 0.0970 0.1120 0.1510
9.992230 0.1890 0.2230 0.2660 0.3150 0.3650
10.026000 0.4160 0.4620 0.5030 0.5340 0.5490
10.060230 0.5750 0.5920 0.6050 0.6210 0.6330
10.095000 0.6410 0.6480 0.6550 0.6560 0.6560
10.129230 0.6560 0.6550 0.6430 0.6270 0.6070
10.163000 0.5900 0.5610 0.5270 0.5010 0.4790
10.197230 0.4500 0.4110 0.3530 0.2960 0.2710
10.232000 0.2210 0.1750 0.1580 0.1580 0.1580
10.266230 0.1670 0.1910 0.2160 0.2500 0.2830
10.300000 0.3200 0.3600 0.4070 0.4600 0.4960
10.334230 0.5250 0.5470 0.5680 0.5830 0.5980
10.369000 0.6100 0.6240 0.6360 0.6410 0.6480
10.403230 0.6600 0.6700 0.6820 0.6920 0.6960
10.437000 0.6990 0.7060 0.7090 0.7150 0.7160
10.471230 0.7200 0.7230 0.7250 0.7260 0.7280
10.505000 0.7280 0.7280 0.7280 0.7260 0.7250
10.539230 0.7180 0.7110 0.7030 0.6890 0.6750
10.574000 0.6620 0.6480 0.6310 0.6100 0.5880
10.608230 0.5590 0.5230 0.4860 0.4650 0.4330
10.642000 0.4070 0.3630 0.3410 0.3200 0.2960
10.676230 0.2950 0.2960 0.3070 0.3170 0.3370
10.711000 0.3650 0.4020 0.4400 0.4760 0.5100
10.745230 0.5420 0.5710 0.5970 0.6210 0.6380
10.779000 0.6510 0.6600 0.6700 0.6820 0.6940
10.813230 0.7060 0.7180 0.7300 0.7400 0.7470
10.848000 0.7520 0.7570 0.7610 0.7660 0.7730
10.882230 0.7780 0.7860 0.7930 0.7950 0.7980
10.916000 0.8030 0.8080 0.8130 0.8170 0.8190
10.950230 0.8220 0.8250 0.8270 0.8290 0.8360
10.984000 0.8370 0.8390 0.8430 0.8440 0.8480
11.018230 0.8510 0.8510 0.8530 0.8540 0.8560
11.053000 0.8610 0.8630 0.8630 0.8650 0.8650
11.087230 0.8650 0.8650 0.8650 0.8650 0.8660
11.121000 0.8660 0.8660 0.8660 0.8660 0.8660
11.155230 0.8660 0.8660 0.8660 0.8660 0.8660
11.190000 0.8660 0.8660 0.8660 0.8680 0.8680
11.224230 0.8680 0.8680 0.8700 0.8680 0.8700
11.258000 0.8720 0.8720 0.8750 0.8750 0.8770
11.292230 0.8780 0.8800 0.8800 0.8830 0.8850
11.326000 0.8850 0.8850 0.8850 0.8850 0.8850
11.360230 0.8870 0.8890 0.8890 0.8900 0.8890
11.395000 0.8920 0.8920 0.8940 0.8940 0.8950
11.429230 0.8950 0.8950 0.8970 0.8970 0.8970
11.463000 0.8970 0.8970 0.8970 0.8970 0.8970
11.497230 0.8950 0.8950 0.8950 0.8940 0.8890
11.532000 0.8870 0.8830 0.8800 0.8750 0.8700
11.566230 0.8650 0.8580 0.8490 0.8430 0.8390
11.600000 0.8290 0.8150 0.7960 0.7780 0.7570
11.634230 0.7350 0.7130 0.6920 0.6670 0.6410
11.669000 0.6070 0.5660 0.5150 0.4760 0.4310
11.703230 0.3780 0.3430 0.2930 0.2520 0.2090
11.737000 0.1740 0.1480 0.1340 0.1290 0.1290
11.771230 0.1390 0.1680 0.1890 0.2230 0.2710
11.805000 0.3250 0.3830 0.4360 0.4590 0.4820
11.839230 0.5100 0.5350 0.5630 0.5870 0.5980
11.874000 0.6220 0.6410 0.6600 0.6860 0.7110
11.908230 0.7350 0.7500 0.7620 0.7760 0.7900
11.942000 0.7980 0.8070 0.8130 0.8190 0.8250
11.976230 0.8310 0.8360 0.8390 0.8440 0.8490
12.011000 0.8540 0.8600 0.8630 0.8660 0.8680
12.045230 0.8720 0.8750 0.8780 0.8820 0.8830
12.079000 0.8870 0.8920 0.8950 0.8970 0.8990
12.113230 0.9010 0.9020 0.9040 0.9060 0.9090
12.148000 0.9110 0.9120 0.9120 0.9120 0.9140
12.182230 0.9160 0.9160 0.9180 0.9180 0.9230
12.216000 0.9240 0.9240 0.9240 0.9240 0.9260
12.250230 0.9260 0.9280 0.9280 0.9280 0.9280
12.284000 0.9280 0.9300 0.9310 0.9350 0.9360
12.318230 0.9380 0.9380 0.9380 0.9380 0.9380
12.353000 0.9400 0.9400 0.9400 0.9400 0.9400
12.387230 0.9400 0.9400 0.9400 0.9400 0.9410
12.421000 0.9450 0.9450 0.9450 0.9450 0.9450
12.455230 0.9450 0.9450 0.9450 0.9450 0.9450
12.490000 0.9450 0.9450 0.9430 0.9430 0.9430
12.524230 0.9430 0.9430 0.9430 0.9430 0.9430
12.558000 0.9430 0.9430 0.9430 0.9430 0.9430
12.592230 0.9430 0.9430 0.9410 0.9360 0.9350
12.627000 0.9330 0.9330 0.9300 0.9260 0.9240
12.661230 0.9230 0.9210 0.9160 0.9120 0.9040
12.695000 0.8970 0.8900 0.8800 0.8660 0.8560
12.729230 0.8490 0.8370 0.8170 0.8020 0.7810
12.763000 0.7590 0.7350 0.7040 0.6790 0.6460
12.797230 0.6450 0.5850 0.5200 0.4810 0.4300
12.832000 0.3950 0.3510 0.3130 0.2710 0.2450
12.866230 0.2160 0.2060 0.2060 0.2080 0.2280
12.900000 0.2570 0.2960 0.3530 0.4140 0.4840
12.934230 0.5400 0.5850 0.6120 0.6390 0.6670
12.969000 0.6920 0.7160 0.7380 0.7590 0.7760
13.003230 0.7880 0.7910 0.8080 0.8250 0.8310
13.037000 0.8360 0.8430 0.8460 0.8510 0.8530
13.071230 0.8540 0.8580 0.8580 0.8600 0.8630
13.106000 0.8630 0.8650 0.8660 0.8680 0.8680
13.140230 0.8700 0.8730 0.8730 0.8750 0.8750
13.174000 0.8770 0.8770 0.8770 0.8770 0.8770
13.208230 0.8770 0.8770 0.8770 0.8750 0.8730
13.242000 0.8730 0.8730 0.8720 0.8700 0.8700
13.276230 0.8700 0.8680 0.8660 0.8660 0.8650
13.311000 0.8630 0.8630 0.8630 0.8600 0.8580
13.345230 0.8580 0.8560 0.8540 0.8530 0.8480
13.379000 0.8460 0.8440 0.8430 0.8370 0.8360
13.413230 0.8290 0.8240 0.8200 0.8130 0.8130
13.448000 0.8070 0.8000 0.7950 0.7910 0.7830
13.482230 0.7760 0.7690 0.7620 0.7540 0.7470
13.516000 0.7380 0.7300 0.7200 0.7110 0.6990
13.550230 0.6890 0.6750 0.6670 0.6560 0.6480
13.585000 0.6390 0.6330 0.6240 0.6170 0.6090
13.619230 0.6040 0.5970 0.5950 0.5930 0.5930
13.653000 0.5950 0.5970 0.5970 0.6040 0.6070
13.687230 0.6120 0.6170 0.6260 0.6330 0.6380
13.721000 0.6430 0.6450 0.6460 0.6460 0.6460
13.755230 0.6450 0.6390 0.6310 0.6170 0.5980
13.790000 0.5870 0.5750 0.5610 0.5510 0.5390
13.824230 0.5390 0.5400 0.5420 0.5470 0.5520
13.858000 0.5610 0.5710 0.5850 0.5970 0.6100
13.892230 0.6190 0.6430 0.6620 0.6770 0.6910
13.927000 0.7030 0.7110 0.7210 0.7300 0.7400
13.961230 0.7450 0.7470 0.7540 0.7550 0.7620
13.995000 0.7660 0.7670 0.7710 0.7740 0.7760
14.029230 0.7780 0.7830 0.7840 0.7840 0.7860
14.064000 0.7900 0.7910 0.7910 0.7930 0.7930
14.098230 0.7950 0.7960 0.7960 0.7960 0.7980
14.132000 0.7980 0.8000 0.8000 0.8000 0.8000
14.166230 0.8000 0.8000 0.8000 0.8000 0.7980
14.200000 0.7980 0.7980 0.7960 0.7960 0.7960
14.234230 0.7950 0.7950 0.7950 0.7950 0.7930
14.269000 0.7930 0.7910 0.7910 0.7900 0.7880
14.303230 0.7860 0.7860 0.7860 0.7840 0.7840
14.337000 0.7840 0.7830 0.7840 0.7840 0.7830
14.371230 0.7790 0.7780 0.7780 0.7780 0.7760
14.406000 0.7740 0.7740 0.7730 0.7710 0.7710
14.440230 0.7690 0.7670 0.7660 0.7640 0.7640
14.474000 0.7620 0.7590 0.7570 0.7550 0.7540
14.508230 0.7540 0.7490 0.7490 0.7470 0.7440
14.543000 0.7380 0.7350 0.7320 0.7260 0.7230
14.577230 0.7180 0.7150 0.7090 0.6990 0.6940
14.611000 0.6920 0.6910 0.6890 0.6860 0.6800
14.645230 0.6770 0.6750 0.6700 0.6680 0.6650
14.679000 0.6650 0.6630 0.6630 0.6630 0.6630
14.713230 0.6630 0.6650 0.6650 0.6670 0.6700
14.748000 0.6720 0.6750 0.6770 0.6840 0.6860
14.782230 0.6870 0.6890 0.6940 0.6960 0.6970
14.816000 0.6970 0.6970 0.6990 0.6990 0.7030
14.850230 0.7040 0.7040 0.7040 0.7040 0.7040
14.885000 0.7040 0.7060 0.7040 0.7040 0.7040
14.919230 0.7040 0.7040 0.7040 0.7040 0.7040
14.953000 0.7040 0.7040 0.7040 0.7040 0.7040
14.987230 0.7030 0.7030 0.7030 0.7030 0.7030
15.022000 0.7010 0.6960 0.6940 0.6940 0.6920
15.056230 0.6910 0.6890 0.6890 0.6870 0.6860
15.090000 0.6860 0.6820 0.6800 0.6790 0.6770
15.124230 0.6750 0.6750 0.6740 0.6720 0.6720
15.158000 0.6720 0.6700 0.6680 0.6680 0.6670
15.192230 0.6670 0.6650 0.6670 0.6650 0.6620
15.227000 0.6620 0.6600 0.6580 0.6580 0.6560
15.261230 0.6550 0.6530 0.6530 0.6530 0.6510
15.295000 0.6480 0.6460 0.6460 0.6450 0.6410
15.329230 0.6390 0.6390 0.6380 0.6360 0.6360
15.364000 0.6330 0.6310 0.6290 0.6270 0.6270
15.398230 0.6260 0.6240 0.6220 0.6190 0.6170
15.432000 0.6140 0.6120 0.6070 0.6040 0.5980
15.466230 0.5970 0.5930 0.5870 0.5800 0.5690
15.500000 0.5630 0.5540 0.5490 0.5440 0.5290
15.534230 0.5270 0.5180 0.5080 0.5000 0.4930
15.569000 0.4840 0.4770 0.4720 0.4670 0.4600
15.603230 0.4530 0.4470 0.4450 0.4410 0.4380
15.637000 0.4360 0.4350 0.4350 0.4350 0.4350
15.671230 0.4350 0.4350 0.4350 0.4360 0.4360
15.706000 0.4380 0.4380 0.4400 0.4410 0.4430
15.740230 0.4470 0.4480 0.4520 0.4520 0.4550
15.774000 0.4570 0.4590 0.4620 0.4640 0.4670
15.808230 0.4700 0.4740 0.4770 0.4790 0.4810
15.843000 0.4840 0.4860 0.4880 0.4890 0.4890
15.877230 0.4890 0.4890 0.4890 0.4880 0.4860
15.911000 0.4840 0.4820
##END=
