##TITLE=Pentanamine, 1,1-2,2-3,3-4,4-octamethyl-, hydrochloride
##JCAMP-DX=4.24
##DATA TYPE=INFRARED SPECTRUM
##CLASS=COBLENTZ III
##ORIGIN=BRITISH PETROLEUM CO. LTD., ENGLAND
##OWNER=Copyright (C) 1987 by the Coblentz Society
Collection (C) 2018 copyright by the U.S. Secretary of Commerce
on behalf of the United States of America. All rights reserved.
##DATE=1972/06/12
##NAMES=2,3,3,4,4,5,5-heptamethyl-2-hexanamine hydrochloride
PRIMENE 81R HYDROCHLORIDE
##MOLFORM=C13 H30 Cl N
##SOURCE REFERENCE=COBLENTZ NO. 9380
##$NIST ID=B6009380
##$NIST SOURCE=COBLENTZ
##$NIST IMAGE=cob9380
##SPECTROMETER/DATA SYSTEM=Not specified, most likely a prism, grating, or hybrid spectrometer.
##STATE=LIQUID (NEAT)
##PATH LENGTH=CAPILLARY
$$ REF. Can. J. Spec., 18,4,101, '73 C. S. DOUSE and P. B. TOOKE
##SAMPLING PROCEDURE=TRANSMISSION
##RESOLUTION=2
##DATA PROCESSING=DIGITIZED BY COBLENTZ SOCIETY (BATCH II) FROM HARD COPY
##XUNITS=1/CM
##YUNITS=TRANSMITTANCE
##XFACTOR=1.0
##YFACTOR=1
##FIRSTX=667
##LASTX=4000
##FIRSTY=0.7035
##MAXX=4000
##MINX=667
##MAXY=0.7212
##MINY=0.01
##NPOINTS=3334
##XYDATA=(X++(Y..Y))
667.000000 0.7035 0.7041 0.7038 0.7039 0.7042
672.000000 0.7044 0.7046 0.7045 0.7044 0.7040
677.000000 0.7035 0.7028 0.7022 0.7012 0.6992
682.000000 0.6970 0.6957 0.6947 0.6942 0.6935
687.000000 0.6920 0.6893 0.6845 0.6826 0.6820
692.000000 0.6817 0.6814 0.6811 0.6809 0.6799
697.000000 0.6783 0.6735 0.6710 0.6702 0.6694
702.000000 0.6669 0.6618 0.6562 0.6508 0.6469
707.000000 0.6443 0.6424 0.6414 0.6407 0.6400
712.000000 0.6395 0.6388 0.6349 0.6293 0.6253
717.000000 0.6234 0.6221 0.6205 0.6137 0.6067
722.000000 0.5993 0.5928 0.5877 0.5829 0.5782
727.000000 0.5741 0.5702 0.5666 0.5643 0.5619
732.000000 0.5608 0.5596 0.5584 0.5578 0.5574
737.000000 0.5559 0.5577 0.5584 0.5590 0.5612
742.000000 0.5642 0.5684 0.5730 0.5781 0.5855
747.000000 0.5906 0.5925 0.5926 0.5946 0.5974
752.000000 0.6009 0.6027 0.6027 0.6024 0.6018
757.000000 0.6013 0.6039 0.6002 0.5996 0.5988
762.000000 0.5972 0.5955 0.5926 0.5892 0.5849
767.000000 0.5801 0.5782 0.5766 0.5751 0.5738
772.000000 0.5688 0.5613 0.5544 0.5491 0.5457
777.000000 0.5437 0.5429 0.5422 0.5419 0.5409
782.000000 0.5419 0.5426 0.5433 0.5443 0.5458
787.000000 0.5486 0.5549 0.5623 0.5721 0.5828
792.000000 0.5886 0.5944 0.6001 0.6066 0.6135
797.000000 0.6190 0.6244 0.6285 0.6325 0.6358
802.000000 0.6382 0.6395 0.6405 0.6413 0.6427
807.000000 0.6417 0.6414 0.6408 0.6402 0.6393
812.000000 0.6383 0.6374 0.6364 0.6355 0.6347
817.000000 0.6338 0.6330 0.6323 0.6315 0.6307
822.000000 0.6299 0.6293 0.6285 0.6278 0.6272
827.000000 0.6268 0.6265 0.6261 0.6259 0.6255
832.000000 0.6251 0.6248 0.6242 0.6238 0.6232
837.000000 0.6227 0.6223 0.6211 0.6199 0.6187
842.000000 0.6176 0.6164 0.6153 0.6141 0.6130
847.000000 0.6118 0.6107 0.6096 0.6086 0.6080
852.000000 0.6075 0.6069 0.6051 0.6015 0.5993
857.000000 0.5974 0.5964 0.5958 0.5953 0.5949
862.000000 0.5945 0.5940 0.5936 0.5931 0.5924
867.000000 0.5915 0.5897 0.5876 0.5856 0.5839
872.000000 0.5820 0.5807 0.5794 0.5781 0.5771
877.000000 0.5761 0.5752 0.5736 0.5712 0.5691
882.000000 0.5669 0.5639 0.5619 0.5599 0.5581
887.000000 0.5564 0.5547 0.5526 0.5472 0.5433
892.000000 0.5412 0.5402 0.5395 0.5390 0.5389
897.000000 0.5388 0.5387 0.5386 0.5387 0.5392
902.000000 0.5396 0.5401 0.5402 0.5402 0.5396
907.000000 0.5382 0.5365 0.5348 0.5329 0.5304
912.000000 0.5278 0.5256 0.5234 0.5212 0.5187
917.000000 0.5162 0.5126 0.5084 0.5042 0.5032
922.000000 0.5029 0.5029 0.5030 0.5032 0.5038
927.000000 0.5066 0.5110 0.5149 0.5159 0.5159
932.000000 0.5159 0.5158 0.5157 0.5156 0.5155
937.000000 0.5155 0.5156 0.5158 0.5160 0.5161
942.000000 0.5160 0.5160 0.5160 0.5159 0.5156
947.000000 0.5151 0.5147 0.5142 0.5135 0.5124
952.000000 0.5087 0.5035 0.4983 0.4939 0.4927
957.000000 0.4894 0.4860 0.4822 0.4790 0.4760
962.000000 0.4737 0.4721 0.4705 0.4696 0.4688
967.000000 0.4683 0.4680 0.4691 0.4699 0.4718
972.000000 0.4750 0.4796 0.4833 0.4860 0.4886
977.000000 0.4905 0.4910 0.4915 0.4932 0.4977
982.000000 0.5004 0.5015 0.5030 0.5083 0.5103
987.000000 0.5117 0.5121 0.5123 0.5123 0.5145
992.000000 0.5116 0.5110 0.5102 0.5089 0.5064
997.000000 0.5023 0.4963 0.4930 0.4928 0.4900
1002.000000 0.4841 0.4778 0.4729 0.4697 0.4682
1007.000000 0.4673 0.4688 0.4685 0.4697 0.4724
1012.000000 0.4767 0.4812 0.4885 0.4898 0.4904
1017.000000 0.4907 0.4911 0.4914 0.4917 0.4919
1022.000000 0.4922 0.4933 0.4965 0.4990 0.4999
1027.000000 0.5004 0.5009 0.5013 0.5018 0.5024
1032.000000 0.5029 0.5037 0.5049 0.5073 0.5103
1037.000000 0.5117 0.5120 0.5123 0.5128 0.5133
1042.000000 0.5141 0.5152 0.5158 0.5153 0.5138
1047.000000 0.5099 0.5073 0.5052 0.5039 0.5034
1052.000000 0.5027 0.5021 0.5016 0.5014 0.5012
1057.000000 0.5010 0.5010 0.5011 0.5011 0.5012
1062.000000 0.5017 0.5027 0.5037 0.5052 0.5069
1067.000000 0.5097 0.5128 0.5160 0.5193 0.5235
1072.000000 0.5279 0.5320 0.5340 0.5358 0.5377
1077.000000 0.5393 0.5401 0.5408 0.5414 0.5421
1082.000000 0.5423 0.5424 0.5425 0.5425 0.5425
1087.000000 0.5422 0.5420 0.5448 0.5416 0.5413
1092.000000 0.5408 0.5399 0.5390 0.5378 0.5349
1097.000000 0.5306 0.5251 0.5200 0.5150 0.5099
1102.000000 0.5049 0.4993 0.4937 0.4880 0.4828
1107.000000 0.4779 0.4735 0.4701 0.4668 0.4637
1112.000000 0.4620 0.4589 0.4610 0.4616 0.4634
1117.000000 0.4658 0.4678 0.4688 0.4690 0.4691
1122.000000 0.4693 0.4695 0.4696 0.4713 0.4749
1127.000000 0.4812 0.4872 0.4907 0.4918 0.4929
1132.000000 0.4935 0.4938 0.4941 0.4940 0.4940
1137.000000 0.4967 0.4927 0.4914 0.4866 0.4808
1142.000000 0.4745 0.4696 0.4637 0.4542 0.4412
1147.000000 0.4281 0.4151 0.4021 0.3892 0.3762
1152.000000 0.3633 0.3505 0.3389 0.3307 0.3234
1157.000000 0.3156 0.3077 0.3006 0.2941 0.2878
1162.000000 0.2792 0.2705 0.2636 0.2578 0.2542
1167.000000 0.2512 0.2489 0.2482 0.2483 0.2451
1172.000000 0.2487 0.2498 0.2525 0.2556 0.2628
1177.000000 0.2737 0.2845 0.2953 0.3061 0.3169
1182.000000 0.3277 0.3384 0.3491 0.3621 0.3795
1187.000000 0.3883 0.3951 0.4020 0.4096 0.4180
1192.000000 0.4334 0.4429 0.4451 0.4471 0.4480
1197.000000 0.4483 0.4484 0.4503 0.4484 0.4481
1202.000000 0.4474 0.4463 0.4434 0.4404 0.4373
1207.000000 0.4341 0.4305 0.4269 0.4236 0.4204
1212.000000 0.4174 0.4149 0.4126 0.4103 0.4086
1217.000000 0.4074 0.4069 0.4064 0.4059 0.4055
1222.000000 0.4051 0.4048 0.4044 0.4044 0.4045
1227.000000 0.4046 0.4049 0.4052 0.4055 0.4061
1232.000000 0.4072 0.4084 0.4098 0.4113 0.4127
1237.000000 0.4132 0.4136 0.4135 0.4129 0.4121
1242.000000 0.4112 0.4102 0.4090 0.4079 0.4066
1247.000000 0.4053 0.4039 0.4026 0.4013 0.4000
1252.000000 0.3987 0.3974 0.3961 0.3950 0.3938
1257.000000 0.3927 0.3915 0.3905 0.3894 0.3889
1262.000000 0.3885 0.3881 0.3880 0.3882 0.3884
1267.000000 0.3866 0.3894 0.3898 0.3903 0.3910
1272.000000 0.3916 0.3923 0.3929 0.3935 0.3942
1277.000000 0.3950 0.3958 0.3966 0.3975 0.3983
1282.000000 0.3990 0.3995 0.3999 0.4004 0.4009
1287.000000 0.4013 0.4010 0.4006 0.3998 0.3989
1292.000000 0.3980 0.3971 0.3961 0.3951 0.3941
1297.000000 0.3930 0.3919 0.3908 0.3898 0.3888
1302.000000 0.3878 0.3869 0.3868 0.3870 0.3871
1307.000000 0.3874 0.3878 0.3882 0.3885 0.3889
1312.000000 0.3891 0.3892 0.3894 0.3894 0.3891
1317.000000 0.3889 0.3887 0.3885 0.3882 0.3879
1322.000000 0.3873 0.3867 0.3857 0.3840 0.3813
1327.000000 0.3791 0.3786 0.3783 0.3779 0.3774
1332.000000 0.3769 0.3762 0.3754 0.3745 0.3736
1337.000000 0.3727 0.3716 0.3703 0.3689 0.3675
1342.000000 0.3662 0.3647 0.3629 0.3612 0.3593
1347.000000 0.3570 0.3546 0.3514 0.3477 0.3440
1352.000000 0.3399 0.3354 0.3310 0.3266 0.3223
1357.000000 0.3170 0.3104 0.2943 0.2804 0.2635
1362.000000 0.2115 0.1953 0.1731 0.1679 0.1654
1367.000000 0.1637 0.1628 0.1619 0.1610 0.1602
1372.000000 0.1595 0.1587 0.1573 0.1541 0.0988
1377.000000 0.0798 0.0725 0.0676 0.0627 0.0585
1382.000000 0.0545 0.0526 0.0513 0.0501 0.0495
1387.000000 0.0489 0.0484 0.0485 0.0491 0.0512
1392.000000 0.0575 0.0654 0.0795 0.0900 0.0972
1397.000000 0.1055 0.1218 0.1426 0.1634 0.1842
1402.000000 0.2049 0.2257 0.2464 0.2671 0.2877
1407.000000 0.3083 0.3289 0.3494 0.3699 0.3895
1412.000000 0.3989 0.3986 0.3982 0.4013 0.3964
1417.000000 0.3944 0.3914 0.3872 0.3838 0.3811
1422.000000 0.3782 0.3751 0.3713 0.3660 0.3611
1427.000000 0.3558 0.3438 0.3314 0.3191 0.3068
1432.000000 0.2944 0.2821 0.2698 0.2576 0.2453
1437.000000 0.2331 0.2209 0.2087 0.1965 0.1842
1442.000000 0.1712 0.1605 0.1505 0.1402 0.1299
1447.000000 0.1202 0.1111 0.1038 0.0970 0.0897
1452.000000 0.0782 0.0624 0.0519 0.0463 0.0420
1457.000000 0.0380 0.0359 0.0341 0.0327 0.0319
1462.000000 0.0313 0.0308 0.0306 0.0304 0.0302
1467.000000 0.0301 0.0305 0.0321 0.0287 0.0489
1472.000000 0.0629 0.0761 0.0865 0.0963 0.1059
1477.000000 0.1156 0.1253 0.1349 0.1446 0.1542
1482.000000 0.1638 0.1735 0.1830 0.1926 0.2019
1487.000000 0.2058 0.2062 0.2059 0.2076 0.2047
1492.000000 0.2036 0.2011 0.1946 0.1858 0.1769
1497.000000 0.1681 0.1593 0.1505 0.1417 0.1329
1502.000000 0.1242 0.1155 0.1068 0.0981 0.0894
1507.000000 0.0807 0.0720 0.0633 0.0546 0.0469
1512.000000 0.0408 0.0369 0.0356 0.0350 0.0349
1517.000000 0.0350 0.0347 0.0353 0.0355 0.0359
1522.000000 0.0366 0.0378 0.0393 0.0424 0.0469
1527.000000 0.0522 0.0585 0.0627 0.0667 0.0720
1532.000000 0.0782 0.0917 0.1125 0.1333 0.1541
1537.000000 0.1748 0.1955 0.2162 0.2369 0.2574
1542.000000 0.2780 0.3222 0.3404 0.3467 0.3523
1547.000000 0.3579 0.3641 0.3714 0.3786 0.3861
1552.000000 0.3932 0.3980 0.4019 0.4054 0.4080
1557.000000 0.4100 0.4117 0.4126 0.4135 0.4139
1562.000000 0.4141 0.4142 0.4143 0.4144 0.4143
1567.000000 0.4141 0.4139 0.4136 0.4131 0.4125
1572.000000 0.4166 0.4103 0.4091 0.4072 0.4044
1577.000000 0.4006 0.3964 0.3924 0.3891 0.3855
1582.000000 0.3816 0.3757 0.3669 0.3572 0.3474
1587.000000 0.3377 0.3280 0.3183 0.3086 0.2989
1592.000000 0.2893 0.2796 0.2700 0.2604 0.2507
1597.000000 0.2411 0.2315 0.2219 0.2124 0.2029
1602.000000 0.1933 0.1838 0.1743 0.1649 0.1570
1607.000000 0.1515 0.1469 0.1425 0.1383 0.1341
1612.000000 0.1281 0.1105 0.0920 0.0737 0.0594
1617.000000 0.0547 0.0524 0.0505 0.0503 0.0507
1622.000000 0.0517 0.0503 0.0622 0.0806 0.1043
1627.000000 0.1280 0.1516 0.1753 0.1989 0.2225
1632.000000 0.2461 0.2696 0.2932 0.3166 0.3400
1637.000000 0.3634 0.3868 0.4102 0.4336 0.4518
1642.000000 0.4632 0.4720 0.4816 0.4926 0.5044
1647.000000 0.5097 0.5126 0.5150 0.5174 0.5182
1652.000000 0.5188 0.5194 0.5199 0.5203 0.5207
1657.000000 0.5210 0.5213 0.5217 0.5220 0.5224
1662.000000 0.5228 0.5232 0.5247 0.5377 0.5514
1667.000000 0.5543 0.5556 0.5566 0.5572 0.5578
1672.000000 0.5583 0.5589 0.5595 0.5602 0.5608
1677.000000 0.5616 0.5637 0.5702 0.5757 0.5843
1682.000000 0.5892 0.5917 0.5930 0.5937 0.5940
1687.000000 0.5943 0.5946 0.5949 0.5952 0.5960
1692.000000 0.5976 0.5997 0.6015 0.6032 0.6046
1697.000000 0.6052 0.6059 0.6066 0.6072 0.6079
1702.000000 0.6086 0.6093 0.6099 0.6108 0.6126
1707.000000 0.6147 0.6167 0.6186 0.6204 0.6218
1712.000000 0.6228 0.6238 0.6247 0.6255 0.6258
1717.000000 0.6260 0.6262 0.6279 0.6299 0.6317
1722.000000 0.6336 0.6354 0.6375 0.6395 0.6406
1727.000000 0.6413 0.6419 0.6424 0.6427 0.6430
1732.000000 0.6434 0.6437 0.6440 0.6441 0.6442
1737.000000 0.6443 0.6444 0.6445 0.6446 0.6447
1742.000000 0.6447 0.6447 0.6448 0.6449 0.6449
1747.000000 0.6449 0.6450 0.6451 0.6452 0.6453
1752.000000 0.6455 0.6456 0.6469 0.6483 0.6498
1757.000000 0.6514 0.6530 0.6546 0.6554 0.6559
1762.000000 0.6564 0.6569 0.6574 0.6577 0.6578
1767.000000 0.6580 0.6581 0.6582 0.6584 0.6585
1772.000000 0.6587 0.6587 0.6589 0.6591 0.6592
1777.000000 0.6593 0.6594 0.6596 0.6597 0.6598
1782.000000 0.6600 0.6600 0.6602 0.6603 0.6604
1787.000000 0.6606 0.6606 0.6608 0.6609 0.6610
1792.000000 0.6611 0.6612 0.6613 0.6615 0.6616
1797.000000 0.6616 0.6616 0.6617 0.6617 0.6617
1802.000000 0.6618 0.6619 0.6619 0.6619 0.6637
1807.000000 0.6620 0.6621 0.6620 0.6620 0.6619
1812.000000 0.6618 0.6617 0.6617 0.6616 0.6615
1817.000000 0.6613 0.6613 0.6612 0.6611 0.6610
1822.000000 0.6610 0.6609 0.6608 0.6606 0.6605
1827.000000 0.6604 0.6603 0.6601 0.6601 0.6599
1832.000000 0.6598 0.6596 0.6596 0.6594 0.6593
1837.000000 0.6591 0.6591 0.6589 0.6587 0.6583
1842.000000 0.6580 0.6577 0.6574 0.6572 0.6569
1847.000000 0.6566 0.6563 0.6560 0.6556 0.6553
1852.000000 0.6550 0.6547 0.6541 0.6534 0.6526
1857.000000 0.6520 0.6514 0.6508 0.6502 0.6497
1862.000000 0.6492 0.6486 0.6480 0.6475 0.6470
1867.000000 0.6466 0.6461 0.6457 0.6453 0.6449
1872.000000 0.6446 0.6444 0.6443 0.6441 0.6439
1877.000000 0.6437 0.6436 0.6434 0.6432 0.6432
1882.000000 0.6431 0.6430 0.6429 0.6429 0.6428
1887.000000 0.6427 0.6422 0.6418 0.6413 0.6406
1892.000000 0.6395 0.6383 0.6371 0.6358 0.6345
1897.000000 0.6332 0.6319 0.6306 0.6293 0.6279
1902.000000 0.6267 0.6255 0.6243 0.6231 0.6220
1907.000000 0.6208 0.6196 0.6184 0.6173 0.6161
1912.000000 0.6150 0.6138 0.6127 0.6116 0.6104
1917.000000 0.6093 0.6081 0.6069 0.6057 0.6042
1922.000000 0.6027 0.6012 0.5998 0.5987 0.5980
1927.000000 0.5973 0.5966 0.5959 0.5955 0.5952
1932.000000 0.5949 0.5946 0.5941 0.5934 0.5928
1937.000000 0.5919 0.5908 0.5891 0.5876 0.5863
1942.000000 0.5851 0.5840 0.5828 0.5807 0.5784
1947.000000 0.5760 0.5743 0.5727 0.5713 0.5699
1952.000000 0.5685 0.5670 0.5659 0.5650 0.5641
1957.000000 0.5633 0.5625 0.5617 0.5609 0.5601
1962.000000 0.5593 0.5585 0.5577 0.5569 0.5559
1967.000000 0.5548 0.5537 0.5526 0.5514 0.5503
1972.000000 0.5492 0.5481 0.5460 0.5436 0.5412
1977.000000 0.5388 0.5363 0.5333 0.5300 0.5266
1982.000000 0.5232 0.5193 0.5150 0.5106 0.5063
1987.000000 0.5020 0.4981 0.4943 0.4907 0.4870
1992.000000 0.4834 0.4805 0.4780 0.4761 0.4741
1997.000000 0.4721 0.4701 0.4682 0.4663 0.4643
2002.000000 0.4623 0.4602 0.4579 0.4556 0.4534
2007.000000 0.4512 0.4489 0.4466 0.4444 0.4421
2012.000000 0.4398 0.4375 0.4352 0.4329 0.4306
2017.000000 0.4282 0.4258 0.4230 0.4203 0.4175
2022.000000 0.4147 0.4120 0.4093 0.4065 0.4038
2027.000000 0.4013 0.3988 0.3963 0.3938 0.3913
2032.000000 0.3888 0.3860 0.3826 0.3790 0.3753
2037.000000 0.3721 0.3692 0.3666 0.3641 0.3619
2042.000000 0.3608 0.3597 0.3586 0.3576 0.3566
2047.000000 0.3557 0.3551 0.3548 0.3545 0.3542
2052.000000 0.3542 0.3521 0.3542 0.3542 0.3542
2057.000000 0.3544 0.3547 0.3552 0.3572 0.3599
2062.000000 0.3620 0.3639 0.3656 0.3672 0.3689
2067.000000 0.3706 0.3725 0.3751 0.3777 0.3804
2072.000000 0.3837 0.3872 0.3906 0.3941 0.3976
2077.000000 0.4011 0.4046 0.4080 0.4115 0.4149
2082.000000 0.4183 0.4218 0.4253 0.4287 0.4322
2087.000000 0.4356 0.4390 0.4425 0.4459 0.4493
2092.000000 0.4528 0.4561 0.4595 0.4629 0.4664
2097.000000 0.4698 0.4732 0.4766 0.4800 0.4834
2102.000000 0.4867 0.4901 0.4936 0.4972 0.5011
2107.000000 0.5047 0.5082 0.5116 0.5160 0.5228
2112.000000 0.5288 0.5340 0.5388 0.5435 0.5467
2117.000000 0.5498 0.5525 0.5552 0.5579 0.5606
2122.000000 0.5633 0.5659 0.5685 0.5711 0.5737
2127.000000 0.5763 0.5788 0.5812 0.5835 0.5858
2132.000000 0.5881 0.5905 0.5928 0.5950 0.5971
2137.000000 0.5992 0.6012 0.6032 0.6051 0.6065
2142.000000 0.6077 0.6088 0.6100 0.6111 0.6122
2147.000000 0.6134 0.6146 0.6156 0.6164 0.6172
2152.000000 0.6180 0.6187 0.6195 0.6202 0.6210
2157.000000 0.6217 0.6225 0.6232 0.6239 0.6245
2162.000000 0.6248 0.6251 0.6254 0.6257 0.6260
2167.000000 0.6262 0.6264 0.6265 0.6265 0.6266
2172.000000 0.6267 0.6268 0.6269 0.6269 0.6270
2177.000000 0.6271 0.6274 0.6278 0.6282 0.6286
2182.000000 0.6294 0.6305 0.6315 0.6325 0.6333
2187.000000 0.6341 0.6344 0.6346 0.6348 0.6349
2192.000000 0.6351 0.6354 0.6354 0.6354 0.6354
2197.000000 0.6354 0.6354 0.6354 0.6354 0.6354
2202.000000 0.6354 0.6354 0.6354 0.6355 0.6355
2207.000000 0.6354 0.6354 0.6354 0.6354 0.6354
2212.000000 0.6354 0.6354 0.6354 0.6354 0.6354
2217.000000 0.6354 0.6354 0.6354 0.6354 0.6354
2222.000000 0.6354 0.6354 0.6354 0.6354 0.6354
2227.000000 0.6354 0.6354 0.6355 0.6355 0.6355
2232.000000 0.6355 0.6368 0.6355 0.6355 0.6355
2237.000000 0.6355 0.6355 0.6355 0.6355 0.6355
2242.000000 0.6355 0.6355 0.6355 0.6355 0.6355
2247.000000 0.6355 0.6355 0.6355 0.6355 0.6355
2252.000000 0.6355 0.6355 0.6355 0.6355 0.6355
2257.000000 0.6355 0.6355 0.6355 0.6355 0.6354
2262.000000 0.6354 0.6353 0.6353 0.6352 0.6351
2267.000000 0.6350 0.6349 0.6348 0.6347 0.6346
2272.000000 0.6343 0.6341 0.6338 0.6335 0.6332
2277.000000 0.6329 0.6326 0.6323 0.6319 0.6315
2282.000000 0.6311 0.6307 0.6303 0.6298 0.6294
2287.000000 0.6290 0.6286 0.6282 0.6278 0.6274
2292.000000 0.6269 0.6265 0.6261 0.6256 0.6252
2297.000000 0.6245 0.6239 0.6233 0.6226 0.6220
2302.000000 0.6214 0.6208 0.6201 0.6195 0.6189
2307.000000 0.6180 0.6170 0.6159 0.6148 0.6136
2312.000000 0.6124 0.6112 0.6097 0.6082 0.6066
2317.000000 0.6051 0.6036 0.6021 0.6001 0.5981
2322.000000 0.5960 0.5938 0.5925 0.5919 0.5912
2327.000000 0.5905 0.5898 0.5891 0.5885 0.5878
2332.000000 0.5871 0.5864 0.5857 0.5854 0.5852
2337.000000 0.5849 0.5848 0.5846 0.5844 0.5842
2342.000000 0.5840 0.5839 0.5837 0.5835 0.5833
2347.000000 0.5831 0.5829 0.5828 0.5826 0.5823
2352.000000 0.5821 0.5819 0.5818 0.5816 0.5814
2357.000000 0.5812 0.5810 0.5809 0.5807 0.5805
2362.000000 0.5801 0.5798 0.5795 0.5792 0.5789
2367.000000 0.5786 0.5782 0.5779 0.5775 0.5772
2372.000000 0.5769 0.5766 0.5763 0.5759 0.5754
2377.000000 0.5749 0.5744 0.5739 0.5734 0.5729
2382.000000 0.5724 0.5720 0.5713 0.5707 0.5700
2387.000000 0.5694 0.5687 0.5680 0.5673 0.5666
2392.000000 0.5660 0.5653 0.5646 0.5638 0.5630
2397.000000 0.5621 0.5610 0.5600 0.5590 0.5579
2402.000000 0.5569 0.5558 0.5548 0.5538 0.5527
2407.000000 0.5517 0.5506 0.5496 0.5486 0.5475
2412.000000 0.5462 0.5449 0.5436 0.5423 0.5409
2417.000000 0.5396 0.5383 0.5370 0.5357 0.5344
2422.000000 0.5331 0.5318 0.5304 0.5291 0.5278
2427.000000 0.5265 0.5248 0.5231 0.5214 0.5197
2432.000000 0.5180 0.5163 0.5145 0.5128 0.5111
2437.000000 0.5093 0.5075 0.5057 0.5037 0.5017
2442.000000 0.4997 0.4976 0.4956 0.4936 0.4916
2447.000000 0.4896 0.4876 0.4842 0.4789 0.4736
2452.000000 0.4670 0.4603 0.4555 0.4518 0.4482
2457.000000 0.4448 0.4415 0.4384 0.4355 0.4326
2462.000000 0.4298 0.4269 0.4248 0.4228 0.4208
2467.000000 0.4189 0.4169 0.4149 0.4130 0.4104
2472.000000 0.4075 0.4047 0.4017 0.3988 0.3959
2477.000000 0.3930 0.3901 0.3872 0.3843 0.3817
2482.000000 0.3791 0.3771 0.3760 0.3749 0.3718
2487.000000 0.3686 0.3649 0.3607 0.3565 0.3539
2492.000000 0.3513 0.3490 0.3470 0.3450 0.3430
2497.000000 0.3410 0.3385 0.3356 0.3328 0.3297
2502.000000 0.3267 0.3238 0.3210 0.3182 0.3160
2507.000000 0.3138 0.3116 0.3095 0.3073 0.3052
2512.000000 0.3031 0.3011 0.2994 0.2977 0.2960
2517.000000 0.2943 0.2926 0.2909 0.2892 0.2871
2522.000000 0.2850 0.2826 0.2798 0.2771 0.2744
2527.000000 0.2718 0.2693 0.2674 0.2654 0.2635
2532.000000 0.2616 0.2597 0.2578 0.2560 0.2540
2537.000000 0.2518 0.2496 0.2470 0.2444 0.2418
2542.000000 0.2392 0.2366 0.2319 0.2267 0.2216
2547.000000 0.2176 0.2136 0.2110 0.2093 0.2077
2552.000000 0.2071 0.2066 0.2061 0.2059 0.2056
2557.000000 0.2053 0.2051 0.2048 0.2045 0.2043
2562.000000 0.2040 0.2038 0.2036 0.2034 0.2032
2567.000000 0.2030 0.2029 0.2027 0.2026 0.2025
2572.000000 0.2025 0.2023 0.2022 0.2021 0.2020
2577.000000 0.2020 0.2019 0.2018 0.2017 0.2016
2582.000000 0.2015 0.2014 0.2013 0.2013 0.2013
2587.000000 0.2013 0.2013 0.2013 0.2013 0.2014
2592.000000 0.2014 0.2014 0.2015 0.2015 0.2015
2597.000000 0.2016 0.2016 0.2014 0.2009 0.2004
2602.000000 0.1997 0.1990 0.1983 0.1975 0.1967
2607.000000 0.1958 0.1947 0.1936 0.1925 0.1915
2612.000000 0.1905 0.1895 0.1886 0.1877 0.1868
2617.000000 0.1858 0.1849 0.1840 0.1830 0.1822
2622.000000 0.1813 0.1805 0.1796 0.1788 0.1779
2627.000000 0.1770 0.1762 0.1753 0.1744 0.1736
2632.000000 0.1727 0.1719 0.1711 0.1703 0.1695
2637.000000 0.1688 0.1680 0.1672 0.1664 0.1656
2642.000000 0.1648 0.1640 0.1632 0.1624 0.1616
2647.000000 0.1608 0.1600 0.1590 0.1579 0.1568
2652.000000 0.1557 0.1546 0.1536 0.1525 0.1514
2657.000000 0.1503 0.1492 0.1482 0.1471 0.1461
2662.000000 0.1452 0.1441 0.1431 0.1421 0.1411
2667.000000 0.1401 0.1391 0.1381 0.1371 0.1361
2672.000000 0.1351 0.1341 0.1332 0.1322 0.1313
2677.000000 0.1304 0.1297 0.1289 0.1282 0.1275
2682.000000 0.1268 0.1255 0.1237 0.1220 0.1196
2687.000000 0.1170 0.1144 0.1125 0.1107 0.1089
2692.000000 0.1071 0.1053 0.1035 0.1019 0.1004
2697.000000 0.0989 0.0973 0.0958 0.0943 0.0928
2702.000000 0.0912 0.0897 0.0881 0.0865 0.0848
2707.000000 0.0832 0.0816 0.0799 0.0783 0.0767
2712.000000 0.0750 0.0734 0.0718 0.0705 0.0694
2717.000000 0.0684 0.0674 0.0665 0.0656 0.0647
2722.000000 0.0637 0.0628 0.0619 0.0610 0.0601
2727.000000 0.0592 0.0583 0.0575 0.0566 0.0557
2732.000000 0.0548 0.0539 0.0530 0.0521 0.0512
2737.000000 0.0504 0.0495 0.0487 0.0479 0.0470
2742.000000 0.0462 0.0453 0.0445 0.0436 0.0428
2747.000000 0.0420 0.0411 0.0403 0.0395 0.0386
2752.000000 0.0376 0.0366 0.0357 0.0347 0.0338
2757.000000 0.0328 0.0319 0.0310 0.0301 0.0291
2762.000000 0.0282 0.0272 0.0264 0.0255 0.0246
2767.000000 0.0237 0.0228 0.0219 0.0212 0.0204
2772.000000 0.0198 0.0195 0.0193 0.0190 0.0187
2777.000000 0.0184 0.0181 0.0178 0.0175 0.0172
2782.000000 0.0169 0.0166 0.0163 0.0160 0.0157
2787.000000 0.0154 0.0151 0.0149 0.0147 0.0145
2792.000000 0.0143 0.0141 0.0139 0.0138 0.0136
2797.000000 0.0135 0.0133 0.0131 0.0130 0.0128
2802.000000 0.0127 0.0125 0.0123 0.0121 0.0119
2807.000000 0.0118 0.0116 0.0114 0.0114 0.0113
2812.000000 0.0113 0.0112 0.0111 0.0111 0.0110
2817.000000 0.0110 0.0110 0.0109 0.0109 0.0108
2822.000000 0.0107 0.0107 0.0107 0.0106 0.0106
2827.000000 0.0106 0.0106 0.0105 0.0104 0.0104
2832.000000 0.0104 0.0104 0.0104 0.0103 0.0103
2837.000000 0.0103 0.0103 0.0103 0.0103 0.0103
2842.000000 0.0103 0.0103 0.0103 0.0103 0.0103
2847.000000 0.0103 0.0102 0.0102 0.0102 0.0102
2852.000000 0.0102 0.0102 0.0102 0.0102 0.0102
2857.000000 0.0102 0.0102 0.0102 0.0102 0.0101
2862.000000 0.0101 0.0101 0.0101 0.0101 0.0101
2867.000000 0.0101 0.0101 0.0101 0.0101 0.0102
2872.000000 0.0102 0.0102 0.0103 0.0103 0.0104
2877.000000 0.0105 0.0105 0.0105 0.0105 0.0106
2882.000000 0.0106 0.0106 0.0107 0.0107 0.0108
2887.000000 0.0100 0.0109 0.0109 0.0109 0.0110
2892.000000 0.0110 0.0110 0.0111 0.0111 0.0112
2897.000000 0.0113 0.0113 0.0113 0.0113 0.0114
2902.000000 0.0115 0.0115 0.0116 0.0116 0.0117
2907.000000 0.0118 0.0118 0.0119 0.0120 0.0121
2912.000000 0.0121 0.0122 0.0123 0.0123 0.0124
2917.000000 0.0124 0.0125 0.0126 0.0126 0.0127
2922.000000 0.0128 0.0129 0.0130 0.0130 0.0131
2927.000000 0.0131 0.0132 0.0132 0.0133 0.0134
2932.000000 0.0135 0.0135 0.0136 0.0137 0.0138
2937.000000 0.0138 0.0139 0.0139 0.0140 0.0140
2942.000000 0.0141 0.0142 0.0143 0.0144 0.0144
2947.000000 0.0145 0.0145 0.0146 0.0147 0.0147
2952.000000 0.0148 0.0149 0.0150 0.0150 0.0151
2957.000000 0.0152 0.0152 0.0153 0.0153 0.0154
2962.000000 0.0154 0.0155 0.0156 0.0156 0.0157
2967.000000 0.0158 0.0159 0.0159 0.0161 0.0162
2972.000000 0.0164 0.0165 0.0166 0.0167 0.0168
2977.000000 0.0169 0.0171 0.0172 0.0173 0.0174
2982.000000 0.0175 0.0176 0.0177 0.0178 0.0180
2987.000000 0.0181 0.0182 0.0183 0.0184 0.0185
2992.000000 0.0186 0.0187 0.0188 0.0190 0.0191
2997.000000 0.0193 0.0194 0.0195 0.0197 0.0198
3002.000000 0.0200 0.0201 0.0202 0.0204 0.0205
3007.000000 0.0207 0.0208 0.0209 0.0211 0.0212
3012.000000 0.0213 0.0215 0.0216 0.0218 0.0219
3017.000000 0.0221 0.0223 0.0225 0.0227 0.0229
3022.000000 0.0231 0.0234 0.0236 0.0238 0.0241
3027.000000 0.0243 0.0245 0.0248 0.0250 0.0252
3032.000000 0.0254 0.0256 0.0259 0.0262 0.0266
3037.000000 0.0269 0.0273 0.0277 0.0280 0.0284
3042.000000 0.0288 0.0291 0.0295 0.0298 0.0302
3047.000000 0.0306 0.0310 0.0313 0.0317 0.0320
3052.000000 0.0324 0.0328 0.0332 0.0336 0.0340
3057.000000 0.0345 0.0350 0.0355 0.0360 0.0365
3062.000000 0.0370 0.0375 0.0380 0.0385 0.0389
3067.000000 0.0394 0.0399 0.0404 0.0409 0.0414
3072.000000 0.0419 0.0424 0.0429 0.0433 0.0438
3077.000000 0.0443 0.0448 0.0453 0.0460 0.0467
3082.000000 0.0474 0.0483 0.0495 0.0507 0.0519
3087.000000 0.0532 0.0544 0.0556 0.0569 0.0589
3092.000000 0.0612 0.0635 0.0658 0.0676 0.0694
3097.000000 0.0712 0.0730 0.0745 0.0760 0.0775
3102.000000 0.0790 0.0805 0.0821 0.0837 0.0853
3107.000000 0.0869 0.0886 0.0902 0.0937 0.0986
3112.000000 0.1036 0.1085 0.1142 0.1201 0.1261
3117.000000 0.1320 0.1347 0.1364 0.1382 0.1400
3122.000000 0.1417 0.1435 0.1453 0.1471 0.1496
3127.000000 0.1522 0.1547 0.1574 0.1615 0.1655
3132.000000 0.1696 0.1737 0.1784 0.1832 0.1879
3137.000000 0.1926 0.1973 0.2020 0.2066 0.2113
3142.000000 0.2160 0.2207 0.2254 0.2302 0.2352
3147.000000 0.2402 0.2452 0.2492 0.2518 0.2544
3152.000000 0.2569 0.2587 0.2594 0.2601 0.2609
3157.000000 0.2614 0.2618 0.2621 0.2625 0.2628
3162.000000 0.2632 0.2635 0.2639 0.2642 0.2645
3167.000000 0.2648 0.2652 0.2655 0.2658 0.2661
3172.000000 0.2665 0.2668 0.2671 0.2674 0.2678
3177.000000 0.2681 0.2684 0.2687 0.2690 0.2694
3182.000000 0.2703 0.2712 0.2720 0.2729 0.2739
3187.000000 0.2749 0.2759 0.2769 0.2782 0.2794
3192.000000 0.2806 0.2818 0.2830 0.2842 0.2854
3197.000000 0.2871 0.2954 0.3037 0.3120 0.3202
3202.000000 0.3244 0.3285 0.3326 0.3366 0.3460
3207.000000 0.3561 0.3662 0.3763 0.3845 0.3921
3212.000000 0.3997 0.4073 0.4148 0.4224 0.4299
3217.000000 0.4375 0.4450 0.4525 0.4601 0.4676
3222.000000 0.4752 0.4827 0.4902 0.4977 0.5052
3227.000000 0.5127 0.5202 0.5277 0.5352 0.5427
3232.000000 0.5502 0.5576 0.5651 0.5723 0.5795
3237.000000 0.5866 0.5938 0.5994 0.6041 0.6088
3242.000000 0.6135 0.6169 0.6187 0.6205 0.6224
3247.000000 0.6240 0.6252 0.6263 0.6274 0.6286
3252.000000 0.6299 0.6312 0.6325 0.6338 0.6355
3257.000000 0.6373 0.6390 0.6408 0.6423 0.6436
3262.000000 0.6448 0.6461 0.6472 0.6479 0.6487
3267.000000 0.6495 0.6503 0.6511 0.6519 0.6527
3272.000000 0.6535 0.6541 0.6546 0.6551 0.6557
3277.000000 0.6562 0.6566 0.6571 0.6576 0.6580
3282.000000 0.6585 0.6590 0.6594 0.6599 0.6601
3287.000000 0.6604 0.6606 0.6608 0.6610 0.6612
3292.000000 0.6613 0.6614 0.6616 0.6617 0.6619
3297.000000 0.6620 0.6621 0.6623 0.6624 0.6625
3302.000000 0.6627 0.6628 0.6630 0.6631 0.6632
3307.000000 0.6634 0.6635 0.6636 0.6638 0.6639
3312.000000 0.6641 0.6643 0.6645 0.6647 0.6650
3317.000000 0.6652 0.6655 0.6658 0.6661 0.6666
3322.000000 0.6671 0.6676 0.6681 0.6686 0.6691
3327.000000 0.6697 0.6702 0.6707 0.6713 0.6720
3332.000000 0.6726 0.6732 0.6738 0.6744 0.6749
3337.000000 0.6755 0.6761 0.6765 0.6770 0.6775
3342.000000 0.6780 0.6784 0.6788 0.6791 0.6795
3347.000000 0.6798 0.6800 0.6803 0.6805 0.6807
3352.000000 0.6809 0.6811 0.6814 0.6816 0.6818
3357.000000 0.6820 0.6822 0.6824 0.6826 0.6827
3362.000000 0.6828 0.6829 0.6830 0.6831 0.6831
3367.000000 0.6832 0.6833 0.6833 0.6834 0.6835
3372.000000 0.6835 0.6836 0.6837 0.6837 0.6838
3377.000000 0.6839 0.6839 0.6840 0.6840 0.6841
3382.000000 0.6841 0.6842 0.6842 0.6842 0.6842
3387.000000 0.6842 0.6843 0.6843 0.6844 0.6844
3392.000000 0.6844 0.6845 0.6845 0.6845 0.6845
3397.000000 0.6844 0.6844 0.6844 0.6844 0.6844
3402.000000 0.6843 0.6843 0.6842 0.6842 0.6841
3407.000000 0.6841 0.6841 0.6841 0.6841 0.6840
3412.000000 0.6840 0.6840 0.6840 0.6840 0.6839
3417.000000 0.6839 0.6838 0.6838 0.6837 0.6837
3422.000000 0.6837 0.6836 0.6836 0.6835 0.6835
3427.000000 0.6834 0.6833 0.6833 0.6832 0.6832
3432.000000 0.6831 0.6831 0.6831 0.6831 0.6831
3437.000000 0.6831 0.6831 0.6831 0.6831 0.6831
3442.000000 0.6831 0.6831 0.6832 0.6833 0.6834
3447.000000 0.6835 0.6836 0.6838 0.6840 0.6842
3452.000000 0.6844 0.6846 0.6851 0.6855 0.6860
3457.000000 0.6864 0.6869 0.6875 0.6881 0.6887
3462.000000 0.6893 0.6899 0.6906 0.6912 0.6918
3467.000000 0.6925 0.6931 0.6936 0.6942 0.6948
3472.000000 0.6953 0.6958 0.6962 0.6966 0.6970
3477.000000 0.6974 0.6976 0.6977 0.6978 0.6979
3482.000000 0.6981 0.6982 0.6983 0.6984 0.6986
3487.000000 0.6987 0.6988 0.6989 0.6991 0.6992
3492.000000 0.6993 0.6994 0.6996 0.6997 0.6999
3497.000000 0.7002 0.7007 0.7012 0.7017 0.7022
3502.000000 0.7027 0.7032 0.7038 0.7043 0.7049
3507.000000 0.7056 0.7065 0.7073 0.7082 0.7090
3512.000000 0.7096 0.7100 0.7104 0.7108 0.7112
3517.000000 0.7116 0.7120 0.7124 0.7128 0.7132
3522.000000 0.7136 0.7140 0.7143 0.7147 0.7151
3527.000000 0.7154 0.7156 0.7158 0.7160 0.7162
3532.000000 0.7164 0.7166 0.7168 0.7170 0.7172
3537.000000 0.7175 0.7177 0.7179 0.7181 0.7183
3542.000000 0.7185 0.7187 0.7189 0.7191 0.7193
3547.000000 0.7194 0.7194 0.7195 0.7195 0.7195
3552.000000 0.7196 0.7196 0.7197 0.7197 0.7197
3557.000000 0.7198 0.7199 0.7199 0.7200 0.7200
3562.000000 0.7201 0.7201 0.7202 0.7202 0.7202
3567.000000 0.7203 0.7203 0.7204 0.7204 0.7204
3572.000000 0.7205 0.7205 0.7206 0.7207 0.7207
3577.000000 0.7208 0.7208 0.7208 0.7208 0.7208
3582.000000 0.7209 0.7209 0.7209 0.7209 0.7209
3587.000000 0.7209 0.7209 0.7209 0.7209 0.7209
3592.000000 0.7210 0.7210 0.7210 0.7210 0.7210
3597.000000 0.7210 0.7210 0.7210 0.7210 0.7210
3602.000000 0.7210 0.7207 0.7211 0.7211 0.7211
3607.000000 0.7211 0.7211 0.7211 0.7211 0.7211
3612.000000 0.7211 0.7212 0.7212 0.7212 0.7212
3617.000000 0.7212 0.7211 0.7211 0.7211 0.7211
3622.000000 0.7211 0.7211 0.7210 0.7210 0.7210
3627.000000 0.7210 0.7210 0.7209 0.7209 0.7209
3632.000000 0.7209 0.7209 0.7208 0.7208 0.7208
3637.000000 0.7208 0.7208 0.7208 0.7208 0.7208
3642.000000 0.7208 0.7208 0.7208 0.7207 0.7207
3647.000000 0.7207 0.7207 0.7207 0.7206 0.7206
3652.000000 0.7206 0.7206 0.7206 0.7205 0.7205
3657.000000 0.7205 0.7205 0.7205 0.7205 0.7204
3662.000000 0.7204 0.7203 0.7202 0.7202 0.7201
3667.000000 0.7201 0.7200 0.7199 0.7198 0.7198
3672.000000 0.7197 0.7196 0.7195 0.7195 0.7194
3677.000000 0.7193 0.7192 0.7192 0.7191 0.7190
3682.000000 0.7189 0.7189 0.7188 0.7187 0.7186
3687.000000 0.7186 0.7185 0.7184 0.7184 0.7183
3692.000000 0.7182 0.7181 0.7181 0.7180 0.7179
3697.000000 0.7178 0.7178 0.7176 0.7175 0.7173
3702.000000 0.7171 0.7170 0.7168 0.7166 0.7164
3707.000000 0.7163 0.7161 0.7159 0.7157 0.7155
3712.000000 0.7153 0.7152 0.7150 0.7148 0.7146
3717.000000 0.7144 0.7141 0.7139 0.7137 0.7135
3722.000000 0.7132 0.7130 0.7127 0.7124 0.7122
3727.000000 0.7121 0.7119 0.7118 0.7116 0.7115
3732.000000 0.7114 0.7114 0.7114 0.7113 0.7113
3737.000000 0.7112 0.7112 0.7112 0.7111 0.7111
3742.000000 0.7111 0.7110 0.7110 0.7110 0.7109
3747.000000 0.7109 0.7109 0.7108 0.7108 0.7107
3752.000000 0.7107 0.7107 0.7106 0.7106 0.7106
3757.000000 0.7105 0.7105 0.7105 0.7104 0.7104
3762.000000 0.7104 0.7103 0.7103 0.7103 0.7102
3767.000000 0.7102 0.7102 0.7102 0.7102 0.7101
3772.000000 0.7101 0.7101 0.7100 0.7100 0.7100
3777.000000 0.7099 0.7099 0.7099 0.7098 0.7098
3782.000000 0.7098 0.7097 0.7097 0.7097 0.7097
3787.000000 0.7097 0.7096 0.7096 0.7095 0.7094
3792.000000 0.7093 0.7092 0.7091 0.7089 0.7087
3797.000000 0.7085 0.7083 0.7081 0.7079 0.7077
3802.000000 0.7076 0.7074 0.7072 0.7070 0.7066
3807.000000 0.7063 0.7059 0.7055 0.7051 0.7047
3812.000000 0.7045 0.7043 0.7041 0.7039 0.7036
3817.000000 0.7034 0.7032 0.7029 0.7027 0.7024
3822.000000 0.7022 0.7019 0.7017 0.7014 0.7011
3827.000000 0.7009 0.7006 0.7003 0.7000 0.6998
3832.000000 0.6995 0.6992 0.6989 0.6987 0.6984
3837.000000 0.6982 0.6979 0.6977 0.6974 0.6971
3842.000000 0.6969 0.6966 0.6963 0.6961 0.6958
3847.000000 0.6955 0.6953 0.6950 0.6947 0.6944
3852.000000 0.6942 0.6940 0.6938 0.6936 0.6934
3857.000000 0.6932 0.6931 0.6930 0.6929 0.6928
3862.000000 0.6926 0.6925 0.6924 0.6923 0.6922
3867.000000 0.6921 0.6920 0.6919 0.6918 0.6917
3872.000000 0.6916 0.6915 0.6914 0.6913 0.6912
3877.000000 0.6912 0.6911 0.6910 0.6909 0.6908
3882.000000 0.6907 0.6907 0.6906 0.6905 0.6904
3887.000000 0.6903 0.6903 0.6902 0.6901 0.6901
3892.000000 0.6900 0.6899 0.6899 0.6898 0.6897
3897.000000 0.6897 0.6896 0.6895 0.6895 0.6894
3902.000000 0.6893 0.6892 0.6891 0.6890 0.6889
3907.000000 0.6888 0.6887 0.6886 0.6885 0.6884
3912.000000 0.6883 0.6882 0.6881 0.6880 0.6879
3917.000000 0.6878 0.6877 0.6876 0.6875 0.6874
3922.000000 0.6873 0.6871 0.6870 0.6869 0.6867
3927.000000 0.6865 0.6863 0.6861 0.6859 0.6857
3932.000000 0.6855 0.6853 0.6851 0.6849 0.6847
3937.000000 0.6845 0.6843 0.6841 0.6839 0.6837
3942.000000 0.6835 0.6833 0.6831 0.6828 0.6826
3947.000000 0.6823 0.6821 0.6819 0.6816 0.6814
3952.000000 0.6811 0.6809 0.6807 0.6804 0.6800
3957.000000 0.6794 0.6787 0.6780 0.6774 0.6767
3962.000000 0.6760 0.6753 0.6746 0.6739 0.6732
3967.000000 0.6725 0.6718 0.6711 0.6704 0.6697
3972.000000 0.6690 0.6683 0.6676 0.6669 0.6663
3977.000000 0.6656 0.6649 0.6642 0.6635 0.6628
3982.000000 0.6621 0.6614 0.6607 0.6600 0.6593
3987.000000 0.6586 0.6579 0.6572 0.6565 0.6559
3992.000000 0.6552 0.6545 0.6539 0.6534 0.6530
3997.000000 0.6525 0.6521 0.6516 0.6512
##END=
