##TITLE=4'-CHLORO-2-HYDROXY-5-ISOPROPYLBENZOPHENONE
##JCAMP-DX=4.24
##DATA TYPE=INFRARED SPECTRUM
##CLASS=COBLENTZ
##ORIGIN=DOW CHEMICAL COMPANY
##OWNER=COBLENTZ SOCIETY
Collection (C) 2018 copyright by the U.S. Secretary of Commerce
on behalf of the United States of America. All rights reserved.
##DATE=Not specified, most likely prior to 1970
##NAMES=(4-chlorophenyl)(2-hydroxy-5-isopropylphenyl)methanone
##MOLFORM=C16 H15 Cl O2
##SOURCE REFERENCE=COBLENTZ NO. 4144
##$NIST ID=B6004144
##$NIST SOURCE=COBLENTZ
##$NIST IMAGE=cob4144
##SPECTROMETER/DATA SYSTEM=Not specified, most likely a prism, grating, or hybrid spectrometer.
##STATE=SOLID (MINERAL OIL MULL)
##PATH LENGTH=
$$SPECTRAL CONTAMINATION DUE TO OIL AROUND 2930 CM^-^1
##SAMPLING PROCEDURE=TRANSMISSION
##RESOLUTION=4
##DATA PROCESSING=DIGITIZED BY NIST FROM HARD COPY
##XUNITS=MICROMETERS
##YUNITS=TRANSMITTANCE
##XFACTOR=1.000000
##YFACTOR=1
##DELTAX=000.006523
##FIRSTX=2.022
##LASTX=15.8892
##FIRSTY=0.44
##MAXX=15.8892
##MINX=2.022
##MAXY=0.944
##MINY=0.127
##NPOINTS=2127
##XYDATA=(X++(Y..Y))
2.022000 0.4400 0.4400 0.4400 0.4410 0.4410
2.054629 0.4430 0.4440 0.4460 0.4480 0.4490
2.087000 0.4490 0.4510 0.4530 0.4540 0.4570
2.119629 0.4590 0.4590 0.4610 0.4610 0.4640
2.152000 0.4660 0.4670 0.4690 0.4700 0.4700
2.184629 0.4720 0.4740 0.4740 0.4750 0.4770
2.217000 0.4770 0.4780 0.4780 0.4780 0.4800
2.249629 0.4800 0.4820 0.4820 0.4820 0.4830
2.282000 0.4850 0.4870 0.4880 0.4900 0.4910
2.314629 0.4930 0.4950 0.4960 0.4980 0.5000
2.348000 0.5010 0.5030 0.5030 0.5040 0.5060
2.380629 0.5080 0.5090 0.5110 0.5120 0.5140
2.413000 0.5140 0.5170 0.5190 0.5190 0.5210
2.445629 0.5210 0.5220 0.5220 0.5240 0.5240
2.478000 0.5250 0.5290 0.5300 0.5330 0.5370
2.510629 0.5380 0.5400 0.5420 0.5420 0.5430
2.543000 0.5430 0.5450 0.5460 0.5480 0.5500
2.575629 0.5510 0.5510 0.5530 0.5550 0.5550
2.609000 0.5560 0.5580 0.5590 0.5610 0.5610
2.641629 0.5630 0.5640 0.5640 0.5660 0.5660
2.674000 0.5670 0.5690 0.5710 0.5720 0.5740
2.706629 0.5760 0.5770 0.5790 0.5790 0.5800
2.739000 0.5820 0.5840 0.5850 0.5870 0.5880
2.771629 0.5900 0.5920 0.5930 0.5950 0.5970
2.804000 0.5980 0.6000 0.6010 0.6010 0.6030
2.836629 0.6050 0.6060 0.6060 0.6050 0.6030
2.870000 0.5980 0.5900 0.5820 0.5720 0.5580
2.902629 0.5480 0.5270 0.5040 0.4870 0.4620
2.935000 0.4320 0.3990 0.3640 0.3260 0.2880
2.967629 0.2520 0.2160 0.1970 0.1790 0.1740
3.000000 0.1740 0.1770 0.2000 0.2180 0.2360
3.032629 0.2520 0.2700 0.2860 0.2970 0.3100
3.065000 0.3250 0.3360 0.3470 0.3570 0.3700
3.097629 0.3800 0.3880 0.3980 0.4110 0.4200
3.130000 0.4320 0.4410 0.4490 0.4530 0.4590
3.162629 0.4660 0.4720 0.4750 0.4820 0.4900
3.196000 0.4960 0.5010 0.5040 0.5060 0.5090
3.228629 0.5120 0.5140 0.5160 0.5170 0.5190
3.261000 0.5190 0.5210 0.5210 0.5210 0.5190
3.293629 0.5160 0.5140 0.5110 0.5090 0.5010
3.326000 0.4960 0.4850 0.4740 0.4440 0.4020
3.358629 0.3550 0.3050 0.2570 0.2180 0.1920
3.391000 0.1840 0.1710 0.1500 0.1480 0.1500
3.423629 0.1680 0.1860 0.2070 0.2330 0.2550
3.457000 0.2730 0.2830 0.2890 0.2890 0.2910
3.489629 0.2970 0.3150 0.3470 0.3770 0.4510
3.522000 0.5040 0.5460 0.5720 0.5880 0.5970
3.554629 0.5980 0.6010 0.6060 0.6110 0.6180
3.587000 0.6220 0.6260 0.6310 0.6320 0.6340
3.619629 0.6350 0.6370 0.6370 0.6350 0.6340
3.652000 0.6310 0.6290 0.6270 0.6260 0.6240
3.684629 0.6240 0.6270 0.6310 0.6340 0.6370
3.718000 0.6400 0.6400 0.6400 0.6420 0.6420
3.750629 0.6420 0.6420 0.6420 0.6440 0.6480
3.783000 0.6480 0.6520 0.6610 0.6630 0.6650
3.815629 0.6650 0.6650 0.6630 0.6630 0.6610
3.848000 0.6610 0.6610 0.6610 0.6610 0.6630
3.880629 0.6650 0.6690 0.6690 0.6710 0.6710
3.913000 0.6730 0.6740 0.6760 0.6790 0.6790
3.945629 0.6790 0.6810 0.6810 0.6810 0.6810
3.978000 0.6820 0.6820 0.6860 0.6900 0.6950
4.010629 0.6990 0.7000 0.7000 0.7020 0.7020
4.044000 0.7000 0.6990 0.6950 0.6940 0.6900
4.076629 0.6870 0.6860 0.6820 0.6810 0.6820
4.109000 0.6900 0.6920 0.7000 0.7020 0.7030
4.141629 0.7080 0.7100 0.7100 0.7100 0.7100
4.174000 0.7110 0.7110 0.7110 0.7110 0.7110
4.206629 0.7100 0.7080 0.7080 0.7100 0.7100
4.239000 0.7110 0.7130 0.7160 0.7200 0.7200
4.271629 0.7210 0.7240 0.7290 0.7330 0.7390
4.305000 0.7410 0.7420 0.7440 0.7450 0.7470
4.337629 0.7470 0.7490 0.7500 0.7500 0.7500
4.370000 0.7520 0.7520 0.7520 0.7520 0.7540
4.402629 0.7540 0.7550 0.7570 0.7580 0.7580
4.435000 0.7580 0.7600 0.7620 0.7620 0.7620
4.467629 0.7620 0.7630 0.7630 0.7630 0.7630
4.500000 0.7650 0.7660 0.7660 0.7660 0.7660
4.532629 0.7680 0.7700 0.7700 0.7700 0.7700
4.565000 0.7710 0.7710 0.7710 0.7710 0.7710
4.597629 0.7710 0.7730 0.7750 0.7750 0.7780
4.631000 0.7790 0.7790 0.7790 0.7790 0.7790
4.663629 0.7790 0.7790 0.7790 0.7790 0.7810
4.696000 0.7810 0.7810 0.7810 0.7790 0.7790
4.728629 0.7790 0.7790 0.7810 0.7810 0.7840
4.761000 0.7860 0.7890 0.7890 0.7890 0.7910
4.793629 0.7920 0.7920 0.7940 0.7940 0.7960
4.826000 0.7960 0.7970 0.7970 0.7990 0.7990
4.858629 0.7990 0.7990 0.7990 0.7990 0.7990
4.892000 0.7990 0.8000 0.8000 0.8000 0.8000
4.924629 0.8000 0.8020 0.8020 0.8020 0.8020
4.957000 0.8020 0.8020 0.8020 0.8020 0.8040
4.989629 0.8040 0.8070 0.8090 0.8100 0.8100
5.022000 0.8100 0.8120 0.8120 0.8120 0.8130
5.054629 0.8130 0.8170 0.8170 0.8180 0.8200
5.087000 0.8200 0.8200 0.8220 0.8220 0.8200
5.119629 0.8200 0.8200 0.8200 0.8180 0.8170
5.153000 0.8150 0.8130 0.8100 0.8050 0.8000
5.185629 0.7990 0.7940 0.7920 0.7940 0.8000
5.218000 0.8050 0.8130 0.8200 0.8220 0.8230
5.250629 0.8230 0.8250 0.8250 0.8250 0.8300
5.283000 0.8300 0.8310 0.8330 0.8330 0.8330
5.315629 0.8330 0.8330 0.8310 0.8310 0.8330
5.348000 0.8360 0.8390 0.8390 0.8410 0.8410
5.380629 0.8410 0.8410 0.8410 0.8380 0.8380
5.413000 0.8390 0.8410 0.8410 0.8430 0.8430
5.445629 0.8410 0.8410 0.8410 0.8430 0.8440
5.479000 0.8460 0.8470 0.8490 0.8490 0.8470
5.511629 0.8460 0.8430 0.8410 0.8340 0.8330
5.544000 0.8310 0.8310 0.8310 0.8300 0.8300
5.576629 0.8300 0.8300 0.8300 0.8280 0.8260
5.609000 0.8260 0.8280 0.8280 0.8360 0.8410
5.641629 0.8440 0.8440 0.8470 0.8490 0.8490
5.674000 0.8490 0.8460 0.8440 0.8430 0.8410
5.706629 0.8410 0.8430 0.8440 0.8470 0.8490
5.740000 0.8510 0.8510 0.8520 0.8550 0.8600
5.772629 0.8640 0.8640 0.8650 0.8650 0.8650
5.805000 0.8570 0.8550 0.8540 0.8540 0.8540
5.837629 0.8540 0.8520 0.8510 0.8510 0.8490
5.870000 0.8460 0.8440 0.8440 0.8430 0.8410
5.902629 0.8360 0.8310 0.8220 0.8130 0.8120
5.935000 0.8020 0.7970 0.7880 0.7750 0.7630
5.967629 0.7520 0.7420 0.7370 0.7160 0.7000
6.001000 0.6950 0.6630 0.6390 0.5920 0.5590
6.033629 0.5120 0.4670 0.3430 0.3360 0.3090
6.066000 0.2890 0.2540 0.2540 0.3220 0.4270
6.098629 0.5030 0.5930 0.6480 0.6920 0.7030
6.131000 0.7030 0.6920 0.6730 0.6530 0.6390
6.163629 0.6080 0.5930 0.5630 0.5590 0.5170
6.196000 0.4560 0.3850 0.3220 0.2790 0.2310
6.228629 0.2230 0.1970 0.1970 0.2210 0.2620
6.261000 0.2860 0.3040 0.3050 0.3020 0.2810
6.293629 0.2600 0.2330 0.2050 0.1820 0.1660
6.327000 0.1480 0.1370 0.1310 0.1270 0.1290
6.359629 0.1350 0.1520 0.1680 0.1860 0.2110
6.392000 0.2420 0.2830 0.3330 0.3620 0.3860
6.424629 0.4060 0.4220 0.4360 0.4530 0.4670
6.457000 0.4870 0.5080 0.5370 0.5630 0.5820
6.489629 0.6000 0.6110 0.6270 0.6400 0.6520
6.522000 0.6600 0.6610 0.6610 0.6550 0.6440
6.554629 0.6270 0.5930 0.5710 0.5460 0.5220
6.588000 0.5030 0.4930 0.4800 0.4780 0.4820
6.620629 0.5110 0.5510 0.5820 0.6050 0.6310
6.653000 0.6420 0.6610 0.6690 0.6710 0.6710
6.685629 0.6610 0.6520 0.6420 0.6370 0.6340
6.718000 0.6350 0.6440 0.6500 0.6560 0.6560
6.750629 0.6420 0.6260 0.6000 0.5800 0.5630
6.783000 0.5510 0.5450 0.5350 0.5240 0.5220
6.815629 0.5210 0.5210 0.5220 0.5290 0.5330
6.848000 0.5460 0.5530 0.5630 0.5710 0.5800
6.880629 0.5870 0.6000 0.6110 0.6270 0.6530
6.914000 0.6810 0.7020 0.7230 0.7420 0.7630
6.946629 0.7750 0.7830 0.7910 0.7970 0.7990
6.979000 0.8000 0.8020 0.8050 0.8090 0.8100
7.011629 0.8120 0.8130 0.8150 0.8170 0.8170
7.044000 0.8180 0.8180 0.8100 0.8090 0.8050
7.076629 0.8000 0.7890 0.7840 0.7790 0.7710
7.109000 0.7630 0.7520 0.7410 0.7240 0.7110
7.141629 0.7020 0.6900 0.6860 0.6820 0.6820
7.175000 0.6810 0.6790 0.6740 0.6650 0.6530
7.207629 0.6420 0.6310 0.6190 0.6110 0.6080
7.240000 0.6060 0.6060 0.6100 0.6130 0.6220
7.272629 0.6340 0.6550 0.6560 0.6600 0.6600
7.305000 0.6500 0.6350 0.6310 0.6220 0.6180
7.337629 0.6130 0.6110 0.6130 0.6220 0.6400
7.370000 0.6560 0.6760 0.6950 0.7030 0.7110
7.402629 0.7150 0.7150 0.7030 0.7000 0.6900
7.436000 0.6740 0.6630 0.6600 0.6560 0.6550
7.468629 0.6530 0.6550 0.6560 0.6560 0.6500
7.501000 0.6320 0.6060 0.5770 0.5430 0.5060
7.533629 0.4700 0.4220 0.3720 0.3260 0.2620
7.566000 0.2050 0.1710 0.1530 0.1530 0.1900
7.598629 0.2310 0.2890 0.3550 0.3800 0.4010
7.631000 0.4140 0.4200 0.4200 0.4120 0.4010
7.663629 0.3850 0.3590 0.3360 0.3020 0.2710
7.696000 0.2470 0.2210 0.2030 0.1940 0.1920
7.728629 0.1920 0.1940 0.2130 0.2410 0.2630
7.762000 0.2810 0.3000 0.3120 0.3200 0.3220
7.794629 0.3230 0.3200 0.3070 0.3000 0.2920
7.827000 0.2830 0.2790 0.2790 0.2920 0.3100
7.859629 0.3330 0.3540 0.3730 0.3910 0.4060
7.892000 0.4200 0.4320 0.4430 0.4590 0.4640
7.924629 0.4740 0.4900 0.5010 0.5190 0.5320
7.957000 0.5500 0.5610 0.5640 0.5710 0.5740
7.989629 0.5790 0.5820 0.5850 0.5880 0.5900
8.023000 0.5900 0.5880 0.5850 0.5800 0.5740
8.055629 0.5710 0.5610 0.5510 0.5320 0.5010
8.088000 0.4930 0.4700 0.4460 0.4020 0.3720
8.120629 0.3220 0.2880 0.2420 0.2020 0.1770
8.153000 0.1600 0.1440 0.1420 0.1420 0.1500
8.185629 0.1680 0.2050 0.2420 0.2860 0.3260
8.218000 0.3430 0.3730 0.4020 0.4360 0.4610
8.250629 0.4800 0.4910 0.5060 0.5220 0.5430
8.283000 0.5630 0.5740 0.5900 0.5980 0.6010
8.315629 0.6130 0.6210 0.6290 0.6370 0.6440
8.349000 0.6530 0.6630 0.6710 0.6770 0.6810
8.381629 0.6820 0.6860 0.6890 0.6900 0.6950
8.414000 0.7000 0.7020 0.7020 0.7030 0.7030
8.446629 0.7020 0.6970 0.6840 0.6680 0.6520
8.479000 0.6270 0.6050 0.5820 0.5590 0.5430
8.511629 0.5380 0.5380 0.5430 0.5670 0.5950
8.544000 0.6180 0.6470 0.6730 0.6890 0.6890
8.576629 0.6820 0.6660 0.6520 0.6030 0.5510
8.610000 0.4950 0.4330 0.4070 0.3470 0.3020
8.642629 0.2580 0.2310 0.2150 0.2150 0.2310
8.675000 0.2750 0.3310 0.3830 0.4220 0.4530
8.707629 0.4820 0.5170 0.5460 0.5630 0.5770
8.740000 0.5970 0.6000 0.6110 0.6130 0.6310
8.772629 0.6440 0.6560 0.6660 0.6840 0.7030
8.805000 0.7160 0.7280 0.7310 0.7340 0.7410
8.837629 0.7450 0.7520 0.7540 0.7600 0.7620
8.871000 0.7630 0.7660 0.7700 0.7700 0.7710
8.903629 0.7710 0.7710 0.7700 0.7650 0.7620
8.936000 0.7540 0.7470 0.7340 0.7210 0.7070
8.968629 0.6870 0.6730 0.6660 0.6600 0.6440
9.001000 0.6320 0.6240 0.6160 0.6130 0.6160
9.033629 0.6350 0.6580 0.6770 0.6970 0.7110
9.066000 0.7210 0.7240 0.7260 0.7290 0.7260
9.098629 0.7210 0.7070 0.6970 0.6690 0.6470
9.131000 0.6180 0.5930 0.5670 0.5460 0.5240
9.163629 0.5110 0.4930 0.4910 0.4930 0.5400
9.197000 0.5640 0.6160 0.6790 0.7470 0.7680
9.229629 0.7970 0.8170 0.8250 0.8300 0.8310
9.262000 0.8310 0.8330 0.8340 0.8390 0.8410
9.294629 0.8440 0.8490 0.8510 0.8510 0.8520
9.327000 0.8520 0.8540 0.8550 0.8590 0.8590
9.359629 0.8600 0.8620 0.8650 0.8680 0.8700
9.392000 0.8720 0.8730 0.8730 0.8750 0.8750
9.424629 0.8750 0.8750 0.8770 0.8780 0.8800
9.458000 0.8810 0.8810 0.8830 0.8830 0.8850
9.490629 0.8850 0.8850 0.8850 0.8860 0.8880
9.523000 0.8880 0.8880 0.8880 0.8880 0.8880
9.555629 0.8880 0.8880 0.8880 0.8880 0.8880
9.588000 0.8880 0.8880 0.8890 0.8890 0.8890
9.620629 0.8890 0.8910 0.8910 0.8930 0.8930
9.653000 0.8940 0.8960 0.8980 0.8990 0.9010
9.685629 0.9020 0.9060 0.9060 0.9070 0.9070
9.719000 0.9090 0.9090 0.9090 0.9110 0.9110
9.751629 0.9090 0.9090 0.9040 0.8990 0.8860
9.784000 0.8720 0.8600 0.8470 0.8250 0.7450
9.816629 0.7030 0.6970 0.6810 0.6790 0.6810
9.849000 0.7230 0.7660 0.8100 0.8490 0.8770
9.881629 0.8890 0.8960 0.8960 0.8960 0.8930
9.914000 0.8910 0.8890 0.8910 0.8990 0.9020
9.946629 0.9090 0.9190 0.9200 0.9250 0.9280
9.979000 0.9300 0.9300 0.9320 0.9330 0.9330
10.011629 0.9330 0.9350 0.9360 0.9380 0.9380
10.045000 0.9400 0.9410 0.9410 0.9410 0.9410
10.077629 0.9410 0.9410 0.9410 0.9410 0.9410
10.110000 0.9410 0.9410 0.9410 0.9430 0.9430
10.142629 0.9440 0.9440 0.9440 0.9440 0.9440
10.175000 0.9440 0.9410 0.9410 0.9400 0.9320
10.207629 0.9230 0.9010 0.8910 0.8890 0.8830
10.240000 0.8720 0.8640 0.8600 0.8590 0.8590
10.272629 0.8620 0.8720 0.8800 0.8810 0.8830
10.306000 0.8830 0.8810 0.8810 0.8800 0.8800
10.338629 0.8810 0.8880 0.8890 0.8990 0.9010
10.371000 0.9060 0.9060 0.9090 0.9090 0.8670
10.403629 0.8550 0.8410 0.8100 0.8020 0.7860
10.436000 0.7730 0.7700 0.7700 0.7780 0.7970
10.468629 0.8220 0.8510 0.8720 0.8910 0.9020
10.501000 0.9090 0.9120 0.9190 0.9200 0.9230
10.533629 0.9250 0.9250 0.9250 0.9200 0.9150
10.566000 0.9120 0.9090 0.9060 0.9040 0.8960
10.598629 0.8930 0.8800 0.8730 0.8670 0.8640
10.632000 0.8600 0.8520 0.8440 0.8330 0.8100
10.664629 0.7910 0.7630 0.7410 0.7160 0.6820
10.697000 0.6530 0.6180 0.5870 0.5460 0.5030
10.729629 0.4820 0.4620 0.4400 0.4380 0.4400
10.762000 0.4670 0.5000 0.5420 0.5970 0.6180
10.794629 0.7030 0.7490 0.7790 0.7920 0.7990
10.827000 0.8130 0.8330 0.8410 0.8510 0.8540
10.859629 0.8600 0.8640 0.8700 0.8730 0.8780
10.893000 0.8800 0.8810 0.8830 0.8890 0.8910
10.925629 0.9010 0.9020 0.9090 0.9110 0.9120
10.958000 0.9120 0.9140 0.9190 0.9190 0.9200
10.990629 0.9220 0.9230 0.9230 0.9250 0.9250
11.023000 0.9250 0.9250 0.9270 0.9270 0.9280
11.055629 0.9280 0.9280 0.9280 0.9280 0.9280
11.088000 0.9280 0.9280 0.9280 0.9280 0.9280
11.120629 0.9250 0.9250 0.9250 0.9250 0.9250
11.154000 0.9250 0.9250 0.9250 0.9250 0.9250
11.186629 0.9250 0.9220 0.9220 0.9220 0.9220
11.219000 0.9220 0.9220 0.9220 0.9220 0.9230
11.251629 0.9230 0.9250 0.9270 0.9280 0.9280
11.284000 0.9280 0.9300 0.9300 0.9300 0.9300
11.316629 0.9300 0.9280 0.9280 0.9280 0.9280
11.349000 0.9280 0.9280 0.9250 0.9230 0.9230
11.381629 0.9230 0.9230 0.9230 0.9220 0.9220
11.414000 0.9220 0.9230 0.9220 0.9220 0.9220
11.446629 0.9200 0.9200 0.9200 0.9170 0.9140
11.480000 0.9120 0.9110 0.9090 0.9040 0.9040
11.512629 0.9010 0.9010 0.8980 0.8910 0.8890
11.545000 0.8810 0.8730 0.8700 0.8620 0.8520
11.577629 0.8430 0.8380 0.8260 0.7990 0.7660
11.610000 0.7260 0.6840 0.6680 0.6370 0.6050
11.642629 0.5630 0.5370 0.4980 0.4770 0.4480
11.675000 0.4110 0.3910 0.3810 0.3810 0.3880
11.707629 0.4040 0.4330 0.4670 0.5110 0.5820
11.741000 0.5980 0.6270 0.6820 0.7280 0.7490
11.773629 0.7710 0.7810 0.7840 0.7890 0.7890
11.806000 0.7860 0.7710 0.7620 0.7570 0.7470
11.838629 0.7330 0.7070 0.6870 0.6630 0.6420
11.871000 0.6100 0.5870 0.5510 0.5220 0.4930
11.903629 0.4620 0.4380 0.4150 0.3990 0.3890
11.936000 0.3830 0.3830 0.3930 0.4220 0.4510
11.968629 0.4720 0.4960 0.4980 0.5270 0.5380
12.002000 0.5530 0.5640 0.5690 0.5710 0.5720
12.034629 0.5740 0.5760 0.5800 0.5820 0.5870
12.067000 0.5970 0.5980 0.6030 0.6060 0.6130
12.099629 0.6180 0.6240 0.6270 0.6320 0.6420
12.132000 0.6530 0.6680 0.6860 0.7020 0.7200
12.164629 0.7360 0.7520 0.7650 0.7750 0.7790
12.197000 0.7910 0.8020 0.8050 0.8170 0.8250
12.229629 0.8310 0.8360 0.8410 0.8430 0.8440
12.262000 0.8460 0.8490 0.8510 0.8510 0.8540
12.294629 0.8570 0.8590 0.8600 0.8620 0.8640
12.328000 0.8650 0.8670 0.8670 0.8680 0.8680
12.360629 0.8680 0.8700 0.8700 0.8700 0.8720
12.393000 0.8720 0.8720 0.8730 0.8730 0.8730
12.425629 0.8730 0.8730 0.8730 0.8730 0.8730
12.458000 0.8730 0.8750 0.8750 0.8750 0.8750
12.490629 0.8770 0.8770 0.8780 0.8780 0.8780
12.523000 0.8780 0.8780 0.8780 0.8800 0.8800
12.555629 0.8800 0.8800 0.8800 0.8800 0.8800
12.589000 0.8800 0.8800 0.8810 0.8810 0.8810
12.621629 0.8810 0.8810 0.8830 0.8830 0.8830
12.654000 0.8850 0.8850 0.8850 0.8850 0.8850
12.686629 0.8850 0.8850 0.8850 0.8850 0.8850
12.719000 0.8860 0.8880 0.8880 0.8890 0.8880
12.751629 0.8860 0.8850 0.8850 0.8850 0.8850
12.784000 0.8850 0.8850 0.8830 0.8830 0.8810
12.816629 0.8810 0.8800 0.8800 0.8780 0.8750
12.849000 0.8730 0.8700 0.8680 0.8620 0.8550
12.881629 0.8470 0.8390 0.8310 0.8130 0.7940
12.915000 0.7650 0.7420 0.7110 0.6940 0.6500
12.947629 0.6140 0.5760 0.5420 0.5010 0.4640
12.980000 0.4360 0.4200 0.3940 0.3730 0.3380
13.012629 0.3310 0.3310 0.3510 0.3910 0.4400
13.045000 0.4610 0.4640 0.5590 0.5610 0.6420
13.077629 0.6610 0.7260 0.7500 0.7680 0.7860
13.110000 0.7960 0.8000 0.8090 0.8220 0.8300
13.142629 0.8310 0.8340 0.8390 0.8430 0.8490
13.176000 0.8540 0.8570 0.8590 0.8600 0.8620
13.208629 0.8650 0.8680 0.8720 0.8730 0.8730
13.241000 0.8770 0.8780 0.8780 0.8780 0.8780
13.273629 0.8780 0.8800 0.8800 0.8780 0.8780
13.306000 0.8730 0.8720 0.8680 0.8650 0.8600
13.338629 0.8550 0.8460 0.8360 0.8260 0.8130
13.371000 0.8000 0.7970 0.7890 0.7810 0.7730
13.403629 0.7710 0.7700 0.7710 0.7840 0.7860
13.437000 0.7970 0.8050 0.8200 0.8330 0.8430
13.469629 0.8520 0.8600 0.8640 0.8670 0.8700
13.502000 0.8730 0.8770 0.8810 0.8800 0.8810
13.534629 0.8850 0.8860 0.8860 0.8860 0.8880
13.567000 0.8880 0.8880 0.8880 0.8880 0.8880
13.599629 0.8880 0.8880 0.8860 0.8860 0.8860
13.632000 0.8850 0.8850 0.8830 0.8810 0.8800
13.664629 0.8800 0.8800 0.8780 0.8780 0.8750
13.697000 0.8730 0.8700 0.8700 0.8650 0.8640
13.729629 0.8600 0.8550 0.8510 0.8430 0.8380
13.763000 0.8310 0.8220 0.8120 0.7990 0.7940
13.795629 0.7790 0.7680 0.7600 0.7540 0.7500
13.828000 0.7490 0.7500 0.7520 0.7550 0.7700
13.860629 0.7790 0.7940 0.8000 0.8120 0.8300
13.893000 0.8460 0.8550 0.8650 0.8730 0.8800
13.925629 0.8810 0.8810 0.8830 0.8830 0.8850
13.958000 0.8860 0.8880 0.8890 0.8890 0.8890
13.990629 0.8890 0.8880 0.8860 0.8850 0.8830
14.024000 0.8830 0.8810 0.8800 0.8770 0.8770
14.056629 0.8750 0.8750 0.8730 0.8720 0.8700
14.089000 0.8680 0.8620 0.8600 0.8550 0.8520
14.121629 0.8510 0.8470 0.8460 0.8430 0.8390
14.154000 0.8360 0.8310 0.8300 0.8260 0.8220
14.186629 0.8200 0.8150 0.8100 0.8050 0.8000
14.219000 0.7920 0.7910 0.7890 0.7810 0.7790
14.251629 0.7730 0.7710 0.7700 0.7650 0.7600
14.284000 0.7580 0.7540 0.7500 0.7440 0.7390
14.316629 0.7330 0.7260 0.7200 0.7100 0.7020
14.350000 0.6950 0.6820 0.6760 0.6660 0.6560
14.382629 0.6470 0.6340 0.6220 0.6130 0.6010
14.415000 0.5900 0.5770 0.5710 0.5610 0.5550
14.447629 0.5420 0.5380 0.5320 0.5290 0.5190
14.480000 0.5120 0.5110 0.5090 0.5090 0.5090
14.512629 0.5110 0.5160 0.5210 0.5270 0.5370
14.545000 0.5460 0.5580 0.5690 0.5820 0.5900
14.577629 0.5980 0.5980 0.6240 0.6320 0.6420
14.611000 0.6680 0.6790 0.6900 0.7020 0.7110
14.643629 0.7200 0.7240 0.7290 0.7330 0.7370
14.676000 0.7390 0.7390 0.7420 0.7420 0.7420
14.708629 0.7420 0.7410 0.7410 0.7390 0.7340
14.741000 0.7310 0.7260 0.7230 0.7200 0.7130
14.773629 0.7100 0.7030 0.7000 0.6940 0.6870
14.806000 0.6790 0.6730 0.6660 0.6630 0.6560
14.838629 0.6530 0.6470 0.6400 0.6320 0.6270
14.872000 0.6210 0.6140 0.6050 0.6000 0.5970
14.904629 0.5930 0.5880 0.5850 0.5820 0.5800
14.937000 0.5790 0.5760 0.5740 0.5720 0.5710
14.969629 0.5690 0.5670 0.5660 0.5640 0.5610
15.002000 0.5590 0.5580 0.5560 0.5550 0.5530
15.034629 0.5530 0.5510 0.5510 0.5510 0.5530
15.067000 0.5530 0.5550 0.5560 0.5580 0.5590
15.099629 0.5610 0.5630 0.5660 0.5670 0.5710
15.132000 0.5740 0.5740 0.5770 0.5800 0.5820
15.164629 0.5840 0.5900 0.5920 0.5930 0.5970
15.198000 0.6000 0.6030 0.6050 0.6060 0.6100
15.230629 0.6110 0.6130 0.6140 0.6160 0.6190
15.263000 0.6210 0.6220 0.6240 0.6260 0.6270
15.295629 0.6290 0.6310 0.6320 0.6340 0.6350
15.328000 0.6370 0.6400 0.6400 0.6400 0.6390
15.360629 0.6370 0.6350 0.6320 0.6310 0.6270
15.393000 0.6240 0.6160 0.6080 0.6060 0.6030
15.425629 0.6010 0.6000 0.5970 0.5970 0.5920
15.459000 0.5900 0.5880 0.5880 0.5880 0.5880
15.491629 0.5900 0.5920 0.5950 0.5970 0.5980
15.524000 0.6010 0.6030 0.6050 0.6100 0.6130
15.556629 0.6140 0.6210 0.6220 0.6260 0.6310
15.589000 0.6340 0.6350 0.6400 0.6440 0.6470
15.621629 0.6500 0.6530 0.6560 0.6610 0.6660
15.654000 0.6710 0.6790 0.6810 0.6820 0.6840
15.686629 0.6900 0.6950 0.7020 0.7030 0.7080
15.720000 0.7110 0.7130 0.7150 0.7160 0.7180
15.752629 0.7210 0.7230 0.7240 0.7260 0.7280
15.785000 0.7290 0.7330 0.7330 0.7340 0.7340
15.817629 0.7360 0.7360 0.7370 0.7370 0.7390
15.850000 0.7390 0.7390 0.7390 0.7410 0.7410
15.882629 0.7410 0.7410
##END=
