##TITLE=1,4-PIPERAZINEDIACETONITRILE, Alpha,Alpha',2,5-TETRAMETHYL-,TRANS-
##JCAMP-DX=4.24
$$ By DXEDIT 1.05 (RS McDonald)
##DATA TYPE=INFRARED SPECTRUM
##CLASS=COBLENTZ III
##ORIGIN=DOW CHEMICAL COMPANY
##OWNER=COBLENTZ SOC.
Collection (C) 2018 copyright by the U.S. Secretary of Commerce
on behalf of the United States of America. All rights reserved.
##DATE=1964/07/22
##MOLFORM=C12 H20 N4
##SOURCE REFERENCE=COBLENTZ NO. 05698
##$NIST ID=B6005698
##$NIST SOURCE=COBLENTZ
##$NIST IMAGE=cob5698
##SPECTROMETER/DATA SYSTEM=DOW KBr FOREPRISM-GRATING
##INSTRUMENT PARAMETERS=BLAZED AT 3.5, 12.0, 20.0 MICRON AND CHANGED AT 5.0, 7.5, 14.9 MICRON
##STATE=SOLID (SPLIT MULL)
##SAMPLING PROCEDURE=TRANSMISSION
##RESOLUTION=2
##DATA PROCESSING=DIGITIZED BY COBLENTZ SOCIETY (BATCH I) FROM HARD COPY
##XUNITS=1/CM
##YUNITS=TRANSMITTANCE
##XLABEL=Wavenumbers (cm-1)
##YLABEL=% Transmission
##XFACTOR=1
##YFACTOR=1
##DELTAX=1
##FIRSTX=3820
##LASTX=380
##FIRSTY=0.7548
##MAXX=3820
##MINX=380
##MAXY=0.8911
##MINY=0.0088
##NPOINTS=3441
##XYDATA=(X++(Y..Y))
3820.000000 0.7548 0.7548 0.7548 0.7549 0.7550
3815.000000 0.7551 0.7551 0.7553 0.7554 0.7554
3810.000000 0.7555 0.7556 0.7557 0.7558 0.7558
3805.000000 0.7560 0.7561 0.7561 0.7561 0.7562
3800.000000 0.7564 0.7565 0.7565 0.7567 0.7568
3795.000000 0.7568 0.7568 0.7569 0.7571 0.7571
3790.000000 0.7572 0.7574 0.7575 0.7575 0.7575
3785.000000 0.7576 0.7578 0.7578 0.7580 0.7580
3780.000000 0.7581 0.7582 0.7583 0.7584 0.7585
3775.000000 0.7586 0.7587 0.7587 0.7588 0.7589
3770.000000 0.7590 0.7591 0.7592 0.7593 0.7594
3765.000000 0.7594 0.7595 0.7596 0.7597 0.7598
3760.000000 0.7599 0.7600 0.7601 0.7601 0.7601
3755.000000 0.7603 0.7604 0.7604 0.7605 0.7605
3750.000000 0.7605 0.7605 0.7605 0.7605 0.7605
3745.000000 0.7605 0.7605 0.7605 0.7605 0.7605
3740.000000 0.7605 0.7605 0.7605 0.7605 0.7605
3735.000000 0.7605 0.7605 0.7605 0.7605 0.7605
3730.000000 0.7605 0.7604 0.7604 0.7604 0.7604
3725.000000 0.7604 0.7604 0.7604 0.7604 0.7604
3720.000000 0.7604 0.7604 0.7604 0.7604 0.7604
3715.000000 0.7604 0.7604 0.7604 0.7605 0.7605
3710.000000 0.7605 0.7605 0.7605 0.7605 0.7605
3705.000000 0.7605 0.7605 0.7605 0.7606 0.7606
3700.000000 0.7606 0.7606 0.7606 0.7606 0.7606
3695.000000 0.7606 0.7607 0.7607 0.7607 0.7607
3690.000000 0.7607 0.7607 0.7607 0.7607 0.7607
3685.000000 0.7607 0.7607 0.7606 0.7605 0.7603
3680.000000 0.7601 0.7600 0.7599 0.7598 0.7597
3675.000000 0.7595 0.7594 0.7592 0.7591 0.7589
3670.000000 0.7588 0.7587 0.7586 0.7585 0.7584
3665.000000 0.7583 0.7583 0.7582 0.7582 0.7581
3660.000000 0.7581 0.7580 0.7580 0.7578 0.7578
3655.000000 0.7578 0.7578 0.7578 0.7578 0.7576
3650.000000 0.7576 0.7575 0.7575 0.7575 0.7575
3645.000000 0.7574 0.7574 0.7574 0.7574 0.7572
3640.000000 0.7572 0.7572 0.7572 0.7571 0.7571
3635.000000 0.7571 0.7571 0.7571 0.7571 0.7571
3630.000000 0.7571 0.7571 0.7571 0.7569 0.7569
3625.000000 0.7569 0.7569 0.7568 0.7568 0.7568
3620.000000 0.7568 0.7568 0.7568 0.7568 0.7568
3615.000000 0.7568 0.7568 0.7567 0.7567 0.7567
3610.000000 0.7567 0.7567 0.7567 0.7565 0.7565
3605.000000 0.7565 0.7565 0.7565 0.7565 0.7565
3600.000000 0.7565 0.7565 0.7565 0.7565 0.7565
3595.000000 0.7565 0.7565 0.7565 0.7565 0.7564
3590.000000 0.7564 0.7564 0.7564 0.7564 0.7564
3585.000000 0.7564 0.7564 0.7564 0.7564 0.7564
3580.000000 0.7564 0.7564 0.7564 0.7564 0.7564
3575.000000 0.7562 0.7562 0.7562 0.7562 0.7562
3570.000000 0.7562 0.7562 0.7562 0.7562 0.7562
3565.000000 0.7562 0.7562 0.7562 0.7562 0.7562
3560.000000 0.7562 0.7561 0.7561 0.7561 0.7561
3555.000000 0.7561 0.7561 0.7561 0.7561 0.7561
3550.000000 0.7561 0.7561 0.7561 0.7561 0.7561
3545.000000 0.7561 0.7561 0.7561 0.7561 0.7561
3540.000000 0.7561 0.7561 0.7561 0.7561 0.7561
3535.000000 0.7561 0.7562 0.7562 0.7564 0.7564
3530.000000 0.7565 0.7565 0.7565 0.7565 0.7567
3525.000000 0.7567 0.7568 0.7568 0.7569 0.7569
3520.000000 0.7571 0.7571 0.7571 0.7571 0.7572
3515.000000 0.7572 0.7574 0.7574 0.7575 0.7575
3510.000000 0.7575 0.7575 0.7576 0.7576 0.7578
3505.000000 0.7578 0.7578 0.7578 0.7580 0.7580
3500.000000 0.7581 0.7581 0.7582 0.7582 0.7583
3495.000000 0.7583 0.7584 0.7584 0.7585 0.7585
3490.000000 0.7586 0.7586 0.7587 0.7587 0.7588
3485.000000 0.7588 0.7589 0.7589 0.7590 0.7590
3480.000000 0.7591 0.7591 0.7592 0.7593 0.7594
3475.000000 0.7594 0.7595 0.7595 0.7596 0.7596
3470.000000 0.7597 0.7597 0.7598 0.7598 0.7599
3465.000000 0.7599 0.7600 0.7600 0.7600 0.7600
3460.000000 0.7600 0.7600 0.7600 0.7600 0.7601
3455.000000 0.7601 0.7601 0.7601 0.7601 0.7601
3450.000000 0.7601 0.7601 0.7601 0.7601 0.7601
3445.000000 0.7601 0.7601 0.7601 0.7601 0.7601
3440.000000 0.7601 0.7601 0.7601 0.7601 0.7603
3435.000000 0.7603 0.7603 0.7603 0.7603 0.7603
3430.000000 0.7603 0.7603 0.7603 0.7603 0.7604
3425.000000 0.7604 0.7604 0.7604 0.7604 0.7604
3420.000000 0.7604 0.7604 0.7604 0.7604 0.7605
3415.000000 0.7606 0.7607 0.7608 0.7608 0.7610
3410.000000 0.7611 0.7612 0.7614 0.7615 0.7617
3405.000000 0.7618 0.7618 0.7619 0.7621 0.7622
3400.000000 0.7625 0.7625 0.7626 0.7628 0.7630
3395.000000 0.7631 0.7632 0.7633 0.7635 0.7636
3390.000000 0.7637 0.7638 0.7640 0.7641 0.7643
3385.000000 0.7644 0.7646 0.7647 0.7649 0.7650
3380.000000 0.7651 0.7653 0.7654 0.7655 0.7657
3375.000000 0.7658 0.7660 0.7661 0.7662 0.7664
3370.000000 0.7665 0.7667 0.7668 0.7669 0.7671
3365.000000 0.7672 0.7675 0.7675 0.7678 0.7678
3360.000000 0.7681 0.7682 0.7684 0.7685 0.7687
3355.000000 0.7688 0.7690 0.7691 0.7692 0.7692
3350.000000 0.7692 0.7692 0.7692 0.7692 0.7692
3345.000000 0.7692 0.7693 0.7693 0.7693 0.7693
3340.000000 0.7693 0.7693 0.7693 0.7693 0.7694
3335.000000 0.7694 0.7694 0.7694 0.7694 0.7694
3330.000000 0.7694 0.7694 0.7694 0.7694 0.7695
3325.000000 0.7695 0.7695 0.7695 0.7695 0.7696
3320.000000 0.7697 0.7697 0.7698 0.7699 0.7700
3315.000000 0.7700 0.7701 0.7701 0.7703 0.7703
3310.000000 0.7704 0.7705 0.7706 0.7706 0.7707
3305.000000 0.7708 0.7708 0.7708 0.7710 0.7711
3300.000000 0.7711 0.7711 0.7712 0.7715 0.7718
3295.000000 0.7721 0.7725 0.7728 0.7733 0.7737
3290.000000 0.7741 0.7744 0.7748 0.7751 0.7756
3285.000000 0.7758 0.7762 0.7767 0.7771 0.7775
3280.000000 0.7778 0.7782 0.7785 0.7786 0.7787
3275.000000 0.7788 0.7789 0.7790 0.7791 0.7792
3270.000000 0.7793 0.7794 0.7795 0.7796 0.7797
3265.000000 0.7798 0.7799 0.7800 0.7801 0.7801
3260.000000 0.7803 0.7804 0.7805 0.7806 0.7806
3255.000000 0.7806 0.7806 0.7805 0.7805 0.7804
3250.000000 0.7804 0.7803 0.7803 0.7803 0.7803
3245.000000 0.7801 0.7801 0.7801 0.7801 0.7800
3240.000000 0.7800 0.7799 0.7799 0.7798 0.7798
3235.000000 0.7797 0.7797 0.7796 0.7796 0.7795
3230.000000 0.7795 0.7795 0.7795 0.7794 0.7794
3225.000000 0.7793 0.7793 0.7792 0.7792 0.7791
3220.000000 0.7791 0.7790 0.7790 0.7789 0.7789
3215.000000 0.7788 0.7788 0.7787 0.7787 0.7788
3210.000000 0.7789 0.7789 0.7790 0.7791 0.7792
3205.000000 0.7793 0.7794 0.7794 0.7795 0.7796
3200.000000 0.7797 0.7797 0.7798 0.7799 0.7800
3195.000000 0.7801 0.7801 0.7801 0.7803 0.7804
3190.000000 0.7805 0.7805 0.7806 0.7807 0.7808
3185.000000 0.7808 0.7810 0.7810 0.7811 0.7811
3180.000000 0.7812 0.7815 0.7817 0.7818 0.7819
3175.000000 0.7821 0.7824 0.7825 0.7828 0.7830
3170.000000 0.7832 0.7834 0.7836 0.7837 0.7839
3165.000000 0.7841 0.7843 0.7845 0.7847 0.7849
3160.000000 0.7851 0.7853 0.7855 0.7857 0.7858
3155.000000 0.7861 0.7862 0.7865 0.7867 0.7868
3150.000000 0.7871 0.7872 0.7875 0.7876 0.7878
3145.000000 0.7881 0.7884 0.7886 0.7888 0.7890
3140.000000 0.7892 0.7894 0.7896 0.7898 0.7900
3135.000000 0.7901 0.7903 0.7904 0.7906 0.7907
3130.000000 0.7908 0.7910 0.7911 0.7912 0.7915
3125.000000 0.7915 0.7917 0.7918 0.7919 0.7921
3120.000000 0.7922 0.7924 0.7925 0.7926 0.7928
3115.000000 0.7930 0.7931 0.7932 0.7934 0.7935
3110.000000 0.7937 0.7938 0.7940 0.7941 0.7943
3105.000000 0.7944 0.7945 0.7945 0.7945 0.7945
3100.000000 0.7945 0.7945 0.7945 0.7945 0.7945
3095.000000 0.7945 0.7945 0.7945 0.7945 0.7945
3090.000000 0.7945 0.7945 0.7945 0.7945 0.7945
3085.000000 0.7945 0.7945 0.7945 0.7945 0.7945
3080.000000 0.7945 0.7945 0.7945 0.7945 0.7945
3075.000000 0.7945 0.7945 0.7945 0.7945 0.7945
3070.000000 0.7945 0.7944 0.7944 0.7944 0.7944
3065.000000 0.7944 0.7944 0.7944 0.7944 0.7943
3060.000000 0.7943 0.7943 0.7943 0.7943 0.7943
3055.000000 0.7943 0.7943 0.7943 0.7943 0.7942
3050.000000 0.7942 0.7939 0.7937 0.7933 0.7930
3045.000000 0.7926 0.7924 0.7919 0.7917 0.7912
3040.000000 0.7908 0.7907 0.7904 0.7900 0.7897
3035.000000 0.7886 0.7875 0.7865 0.7855 0.7844
3030.000000 0.7833 0.7821 0.7811 0.7798 0.7784
3025.000000 0.7751 0.7718 0.7686 0.7654 0.7621
3020.000000 0.7590 0.7541 0.7493 0.7428 0.7365
3015.000000 0.7301 0.7238 0.7122 0.7008 0.4825
3010.000000 0.2642 0.2642 0.2642 0.2752 0.1795
3005.000000 0.2997 0.3132 0.3266 0.3400 0.3536
3000.000000 0.3671 0.3805 0.3940 0.4074 0.4209
2995.000000 0.4343 0.4560 0.4512 0.4547 0.4539
2990.000000 0.4532 0.4004 0.1296 0.2661 0.1845
2985.000000 0.1561 0.1277 0.1275 0.1274 0.1272
2980.000000 0.1271 0.1489 0.1707 0.1986 0.2268
2975.000000 0.2549 0.2830 0.3111 0.3392 0.3672
2970.000000 0.3953 0.4234 0.4515 0.4796 0.5077
2965.000000 0.5357 0.5638 0.5915 0.6193 0.6193
2960.000000 0.6193 0.6142 0.6092 0.5818 0.5544
2955.000000 0.5270 0.4997 0.4723 0.3982 0.4210
2950.000000 0.3973 0.4152 0.4331 0.4540 0.4750
2945.000000 0.4959 0.5169 0.5375 0.5581 0.5653
2940.000000 0.5726 0.5767 0.5809 0.5846 0.5884
2935.000000 0.5912 0.5942 0.5970 0.5998 0.6012
2930.000000 0.6028 0.6042 0.6057 0.6066 0.6075
2925.000000 0.6080 0.6085 0.6086 0.6087 0.6087
2920.000000 0.6087 0.6079 0.6077 0.6074 0.6071
2915.000000 0.6064 0.6058 0.6049 0.6040 0.6025
2910.000000 0.5889 0.5993 0.5977 0.5960 0.5946
2905.000000 0.5931 0.5917 0.5905 0.5894 0.5865
2900.000000 0.5836 0.5782 0.5729 0.5675 0.5621
2895.000000 0.5567 0.6156 0.5460 0.5407 0.5353
2890.000000 0.5299 0.5286 0.5274 0.5272 0.5259
2885.000000 0.5358 0.5446 0.5533 0.5620 0.5707
2880.000000 0.5795 0.5882 0.5969 0.6056 0.6144
2875.000000 0.6231 0.6319 0.6406 0.6493 0.6551
2870.000000 0.6618 0.6612 0.6615 0.6615 0.6617
2865.000000 0.6617 0.6617 0.6291 0.5965 0.5604
2860.000000 0.5243 0.4882 0.4522 0.4160 0.3800
2855.000000 0.3439 0.3078 0.2717 0.2357 0.1995
2850.000000 0.1634 0.1383 0.1132 0.1133 0.1135
2845.000000 0.1136 0.1138 0.1244 0.1076 0.1463
2840.000000 0.1576 0.1687 0.1801 0.1914 0.2027
2835.000000 0.2140 0.2253 0.2366 0.2479 0.2591
2830.000000 0.2704 0.2817 0.2930 0.3043 0.3156
2825.000000 0.3268 0.3382 0.3494 0.3607 0.3720
2820.000000 0.3832 0.3946 0.4059 0.4172 0.4285
2815.000000 0.4398 0.4510 0.4623 0.4736 0.4849
2810.000000 0.4962 0.5075 0.5188 0.5301 0.5414
2805.000000 0.5526 0.5639 0.5752 0.5865 0.5978
2800.000000 0.6091 0.6204 0.6317 0.6397 0.6478
2795.000000 0.6532 0.6586 0.6638 0.6690 0.6740
2790.000000 0.6791 0.6833 0.6875 0.6911 0.6947
2785.000000 0.6967 0.6987 0.6990 0.6992 0.6996
2780.000000 0.6999 0.6951 0.6903 0.6851 0.6617
2775.000000 0.6751 0.6701 0.6658 0.6618 0.6630
2770.000000 0.6643 0.6656 0.6669 0.6683 0.6697
2765.000000 0.6710 0.6724 0.6737 0.6815 0.6764
2760.000000 0.6778 0.6789 0.6800 0.6247 0.5701
2755.000000 0.5693 0.5693 0.5742 0.5791 0.5872
2750.000000 0.5953 0.6033 0.6114 0.6195 0.6276
2745.000000 0.6356 0.6437 0.6518 0.6599 0.6680
2740.000000 0.6761 0.6828 0.6897 0.6943 0.6990
2735.000000 0.7025 0.7062 0.7075 0.7090 0.7103
2730.000000 0.7115 0.7128 0.7143 0.7151 0.7158
2725.000000 0.7165 0.7172 0.7178 0.7186 0.7192
2720.000000 0.7199 0.7207 0.7215 0.7225 0.7238
2715.000000 0.7249 0.7261 0.7271 0.7284 0.7296
2710.000000 0.7308 0.7318 0.7331 0.7342 0.7354
2705.000000 0.7374 0.7394 0.7417 0.7441 0.7464
2700.000000 0.7487 0.7506 0.7525 0.7537 0.7549
2695.000000 0.7561 0.7572 0.7581 0.7590 0.7593
2690.000000 0.7597 0.7600 0.7604 0.7607 0.7610
2685.000000 0.7612 0.7617 0.7618 0.7618 0.7618
2680.000000 0.7618 0.7618 0.7618 0.7618 0.7618
2675.000000 0.7605 0.7592 0.7575 0.7558 0.7521
2670.000000 0.7487 0.7454 0.7421 0.7406 0.7391
2665.000000 0.7389 0.7388 0.7387 0.7387 0.7388
2660.000000 0.7392 0.7396 0.7401 0.7405 0.7408
2655.000000 0.7446 0.7483 0.7517 0.7551 0.7574
2650.000000 0.7598 0.7621 0.7644 0.7645 0.7647
2645.000000 0.7648 0.7650 0.7651 0.7654 0.7655
2640.000000 0.7657 0.7658 0.7660 0.7668 0.7678
2635.000000 0.7691 0.7704 0.7715 0.7728 0.7742
2630.000000 0.7757 0.7778 0.7801 0.7824 0.7847
2625.000000 0.7868 0.7889 0.7903 0.7917 0.7922
2620.000000 0.7928 0.7926 0.7925 0.7922 0.7921
2615.000000 0.7918 0.7917 0.7915 0.7912 0.7875
2610.000000 0.7840 0.7803 0.7767 0.7740 0.7714
2605.000000 0.7704 0.7694 0.7691 0.7689 0.7686
2600.000000 0.7684 0.7682 0.7680 0.7676 0.7675
2595.000000 0.7671 0.7669 0.7711 0.7751 0.7804
2590.000000 0.7857 0.7871 0.7887 0.7896 0.7897
2585.000000 0.7898 0.7891 0.7884 0.7876 0.7856
2580.000000 0.7835 0.7821 0.7810 0.7812 0.7815
2575.000000 0.7818 0.7821 0.7825 0.7828 0.7831
2570.000000 0.7834 0.7844 0.7855 0.7876 0.7899
2565.000000 0.7918 0.7938 0.7945 0.7951 0.7958
2560.000000 0.7967 0.7974 0.7982 0.7989 0.7996
2555.000000 0.8003 0.8011 0.8014 0.8017 0.8018
2550.000000 0.8021 0.8022 0.8025 0.8025 0.8028
2545.000000 0.8030 0.8032 0.8034 0.8036 0.8038
2540.000000 0.8040 0.8041 0.8043 0.8045 0.8047
2535.000000 0.8049 0.8051 0.8053 0.8055 0.8056
2530.000000 0.8058 0.8060 0.8061 0.8064 0.8065
2525.000000 0.8067 0.8068 0.8071 0.8072 0.8074
2520.000000 0.8075 0.8078 0.8080 0.8082 0.8084
2515.000000 0.8085 0.8087 0.8089 0.8091 0.8093
2510.000000 0.8095 0.8096 0.8098 0.8100 0.8101
2505.000000 0.8101 0.8101 0.8100 0.8099 0.8098
2500.000000 0.8097 0.8096 0.8095 0.8091 0.8087
2495.000000 0.8083 0.8078 0.8075 0.8071 0.8068
2490.000000 0.8064 0.8060 0.8056 0.8051 0.8048
2485.000000 0.8044 0.8040 0.8037 0.8034 0.8033
2480.000000 0.8032 0.8031 0.8031 0.8030 0.8028
2475.000000 0.8028 0.8028 0.8026 0.8025 0.8025
2470.000000 0.8025 0.8024 0.8022 0.8021 0.8021
2465.000000 0.8021 0.8019 0.8018 0.8018 0.8018
2460.000000 0.8017 0.8015 0.8015 0.8015 0.8014
2455.000000 0.8012 0.8012 0.8011 0.8011 0.8010
2450.000000 0.8010 0.8008 0.8008 0.8007 0.8007
2445.000000 0.8006 0.8006 0.8005 0.8005 0.8004
2440.000000 0.8004 0.8003 0.8001 0.8001 0.8001
2435.000000 0.8000 0.8000 0.7999 0.7999 0.7998
2430.000000 0.7997 0.7996 0.7996 0.7995 0.7995
2425.000000 0.7994 0.7994 0.7993 0.7992 0.7991
2420.000000 0.7991 0.7990 0.7990 0.7989 0.7989
2415.000000 0.7988 0.7987 0.7986 0.7986 0.7983
2410.000000 0.7981 0.7978 0.7975 0.7971 0.7968
2405.000000 0.7965 0.7962 0.7960 0.7957 0.7954
2400.000000 0.7951 0.7949 0.7946 0.7943 0.7940
2395.000000 0.7937 0.7934 0.7931 0.7928 0.7925
2390.000000 0.7922 0.7919 0.7918 0.7915 0.7912
2385.000000 0.7910 0.7907 0.7904 0.7901 0.7899
2380.000000 0.7897 0.7894 0.7891 0.7888 0.7886
2375.000000 0.7883 0.7881 0.7878 0.7875 0.7872
2370.000000 0.7869 0.7867 0.7865 0.7862 0.7861
2365.000000 0.7861 0.7861 0.7860 0.7860 0.7860
2360.000000 0.7860 0.7860 0.7860 0.7860 0.7860
2355.000000 0.7858 0.7858 0.7858 0.7858 0.7858
2350.000000 0.7858 0.7858 0.7858 0.7858 0.7858
2345.000000 0.7858 0.7858 0.7858 0.7858 0.7858
2340.000000 0.7858 0.7857 0.7856 0.7853 0.7851
2335.000000 0.7848 0.7846 0.7843 0.7841 0.7838
2330.000000 0.7836 0.7833 0.7831 0.7828 0.7825
2325.000000 0.7822 0.7821 0.7818 0.7815 0.7811
2320.000000 0.7808 0.7805 0.7801 0.7797 0.7794
2315.000000 0.7790 0.7787 0.7783 0.7780 0.7775
2310.000000 0.7771 0.7771 0.7771 0.7772 0.7775
2305.000000 0.7775 0.7776 0.7778 0.7778 0.7780
2300.000000 0.7781 0.7782 0.7784 0.7785 0.7786
2295.000000 0.7787 0.7788 0.7789 0.7791 0.7796
2290.000000 0.7801 0.7806 0.7811 0.7815 0.7821
2285.000000 0.7826 0.7832 0.7835 0.7839 0.7840
2280.000000 0.7842 0.7844 0.7846 0.7848 0.7850
2275.000000 0.7851 0.7854 0.7856 0.7858 0.7860
2270.000000 0.7861 0.7862 0.7864 0.7865 0.7865
2265.000000 0.7865 0.7867 0.7867 0.7868 0.7868
2260.000000 0.7868 0.7869 0.7871 0.7871 0.7871
2255.000000 0.7872 0.7874 0.7875 0.7875 0.7876
2250.000000 0.7878 0.7878 0.7880 0.7881 0.7882
2245.000000 0.7882 0.7882 0.7882 0.7882 0.7882
2240.000000 0.7882 0.7882 0.7882 0.7883 0.7884
2235.000000 0.7768 0.7654 0.7280 0.6906 0.6531
2230.000000 0.6157 0.5783 0.4509 0.5034 0.4660
2225.000000 0.4597 0.4535 0.4691 0.4848 0.5493
2220.000000 0.6138 0.6783 0.7428 0.7675 0.7924
2215.000000 0.7941 0.7958 0.7975 0.7994 0.8011
2210.000000 0.8028 0.8043 0.8058 0.8062 0.8068
2205.000000 0.8071 0.8076 0.8082 0.8087 0.8091
2200.000000 0.8096 0.8101 0.8106 0.8110 0.8115
2195.000000 0.8118 0.8122 0.8125 0.8130 0.8134
2190.000000 0.8138 0.8142 0.8146 0.8149 0.8153
2185.000000 0.8157 0.8161 0.8167 0.8172 0.8178
2180.000000 0.8184 0.8189 0.8195 0.8200 0.8206
2175.000000 0.8211 0.8217 0.8221 0.8228 0.8233
2170.000000 0.8239 0.8243 0.8248 0.8252 0.8257
2165.000000 0.8261 0.8266 0.8270 0.8274 0.8278
2160.000000 0.8283 0.8287 0.8292 0.8296 0.8301
2155.000000 0.8305 0.8340 0.8314 0.8318 0.8323
2150.000000 0.8328 0.8330 0.8332 0.8332 0.8333
2145.000000 0.8333 0.8333 0.8333 0.8333 0.8333
2140.000000 0.8333 0.8333 0.8334 0.8334 0.8334
2135.000000 0.8334 0.8334 0.8334 0.8334 0.8334
2130.000000 0.8335 0.8335 0.8335 0.8335 0.8335
2125.000000 0.8335 0.8336 0.8336 0.8336 0.8336
2120.000000 0.8336 0.8338 0.8341 0.8343 0.8345
2115.000000 0.8347 0.8349 0.8351 0.8354 0.8356
2110.000000 0.8358 0.8360 0.8362 0.8364 0.8367
2105.000000 0.8368 0.8371 0.8373 0.8375 0.8377
2100.000000 0.8380 0.8382 0.8384 0.8386 0.8388
2095.000000 0.8390 0.8393 0.8396 0.8399 0.8402
2090.000000 0.8406 0.8409 0.8413 0.8417 0.8421
2085.000000 0.8424 0.8428 0.8431 0.8435 0.8439
2080.000000 0.8443 0.8446 0.8450 0.8453 0.8457
2075.000000 0.8460 0.8464 0.8468 0.8471 0.8473
2070.000000 0.8474 0.8475 0.8477 0.8478 0.8480
2065.000000 0.8481 0.8482 0.8483 0.8485 0.8486
2060.000000 0.8487 0.8488 0.8490 0.8491 0.8493
2055.000000 0.8494 0.8495 0.8495 0.8496 0.8496
2050.000000 0.8496 0.8496 0.8497 0.8497 0.8497
2045.000000 0.8500 0.8504 0.8509 0.8514 0.8518
2040.000000 0.8525 0.8530 0.8535 0.8540 0.8546
2035.000000 0.8551 0.8557 0.8562 0.8567 0.8571
2030.000000 0.8578 0.8580 0.8583 0.8584 0.8586
2025.000000 0.8588 0.8590 0.8592 0.8594 0.8596
2020.000000 0.8598 0.8600 0.8602 0.8604 0.8606
2015.000000 0.8608 0.8610 0.8611 0.8612 0.8612
2010.000000 0.8613 0.8614 0.8615 0.8616 0.8617
2005.000000 0.8617 0.8618 0.8617 0.8616 0.8605
2000.000000 0.8595 0.8582 0.8568 0.8554 0.8547
1995.000000 0.8545 0.8542 0.8539 0.8538 0.8538
1990.000000 0.8538 0.8538 0.8538 0.8538 0.8538
1985.000000 0.8538 0.8538 0.8539 0.8539 0.8540
1980.000000 0.8541 0.8542 0.8542 0.8543 0.8544
1975.000000 0.8545 0.8546 0.8547 0.8548 0.8551
1970.000000 0.8554 0.8557 0.8560 0.8563 0.8582
1965.000000 0.8609 0.8653 0.8697 0.8731 0.8744
1960.000000 0.8758 0.8747 0.8702 0.8662 0.8651
1955.000000 0.8641 0.8631 0.8621 0.8611 0.8608
1950.000000 0.8609 0.8609 0.8610 0.8611 0.8611
1945.000000 0.8612 0.8613 0.8613 0.8614 0.8615
1940.000000 0.8615 0.8616 0.8616 0.8617 0.8618
1935.000000 0.8618 0.8618 0.8620 0.8620 0.8621
1930.000000 0.8624 0.8625 0.8628 0.8630 0.8633
1925.000000 0.8635 0.8637 0.8639 0.8642 0.8644
1920.000000 0.8646 0.8648 0.8651 0.8653 0.8655
1915.000000 0.8657 0.8657 0.8656 0.8656 0.8655
1910.000000 0.8655 0.8655 0.8654 0.8654 0.8653
1905.000000 0.8653 0.8653 0.8652 0.8652 0.8652
1900.000000 0.8651 0.8651 0.8650 0.8650 0.8650
1895.000000 0.8649 0.8649 0.8649 0.8648 0.8648
1890.000000 0.8647 0.8647 0.8647 0.8647 0.8647
1885.000000 0.8647 0.8647 0.8647 0.8647 0.8647
1880.000000 0.8647 0.8647 0.8647 0.8647 0.8647
1875.000000 0.8647 0.8647 0.8647 0.8647 0.8646
1870.000000 0.8645 0.8643 0.8642 0.8641 0.8640
1865.000000 0.8638 0.8637 0.8636 0.8635 0.8633
1860.000000 0.8633 0.8633 0.8634 0.8634 0.8634
1855.000000 0.8634 0.8634 0.8634 0.8634 0.8634
1850.000000 0.8634 0.8635 0.8635 0.8635 0.8635
1845.000000 0.8635 0.8635 0.8635 0.8635 0.8635
1840.000000 0.8636 0.8639 0.8642 0.8645 0.8648
1835.000000 0.8650 0.8653 0.8656 0.8659 0.8661
1830.000000 0.8664 0.8667 0.8670 0.8673 0.8675
1825.000000 0.8678 0.8681 0.8684 0.8686 0.8689
1820.000000 0.8692 0.8694 0.8697 0.8699 0.8702
1815.000000 0.8704 0.8707 0.8709 0.8712 0.8714
1810.000000 0.8717 0.8717 0.8712 0.8707 0.8701
1805.000000 0.8696 0.8690 0.8685 0.8678 0.8674
1800.000000 0.8668 0.8663 0.8657 0.8652 0.8647
1795.000000 0.8641 0.8637 0.8634 0.8631 0.8628
1790.000000 0.8625 0.8623 0.8620 0.8617 0.8614
1785.000000 0.8611 0.8611 0.8611 0.8611 0.8611
1780.000000 0.8610 0.8610 0.8610 0.8610 0.8609
1775.000000 0.8609 0.8609 0.8609 0.8608 0.8608
1770.000000 0.8608 0.8608 0.8608 0.8609 0.8611
1765.000000 0.8612 0.8613 0.8614 0.8615 0.8616
1760.000000 0.8617 0.8618 0.8618 0.8620 0.8621
1755.000000 0.8623 0.8625 0.8628 0.8632 0.8636
1750.000000 0.8639 0.8642 0.8646 0.8649 0.8652
1745.000000 0.8653 0.8654 0.8655 0.8655 0.8656
1740.000000 0.8657 0.8657 0.8658 0.8658 0.8657
1735.000000 0.8656 0.8655 0.8654 0.8653 0.8647
1730.000000 0.8640 0.8633 0.8625 0.8618 0.8611
1725.000000 0.8604 0.8598 0.8594 0.8590 0.8586
1720.000000 0.8582 0.8578 0.8574 0.8570 0.8566
1715.000000 0.8573 0.8580 0.8587 0.8594 0.8601
1710.000000 0.8608 0.8615 0.8621 0.8628 0.8634
1705.000000 0.8636 0.8638 0.8640 0.8642 0.8644
1700.000000 0.8646 0.8649 0.8651 0.8653 0.8655
1695.000000 0.8657 0.8659 0.8661 0.8664 0.8664
1690.000000 0.8664 0.8662 0.8660 0.8659 0.8657
1685.000000 0.8656 0.8654 0.8652 0.8651 0.8649
1680.000000 0.8647 0.8645 0.8643 0.8641 0.8638
1675.000000 0.8636 0.8634 0.8631 0.8628 0.8627
1670.000000 0.8625 0.8621 0.8620 0.8618 0.8616
1665.000000 0.8613 0.8611 0.8609 0.8606 0.8604
1660.000000 0.8604 0.8605 0.8606 0.8607 0.8608
1655.000000 0.8609 0.8610 0.8611 0.8612 0.8613
1650.000000 0.8614 0.8615 0.8616 0.8617 0.8618
1645.000000 0.8618 0.8620 0.8621 0.8621 0.8623
1640.000000 0.8624 0.8625 0.8625 0.8627 0.8628
1635.000000 0.8628 0.8630 0.8631 0.8632 0.8633
1630.000000 0.8634 0.8635 0.8636 0.8637 0.8638
1625.000000 0.8639 0.8640 0.8640 0.8641 0.8642
1620.000000 0.8643 0.8644 0.8646 0.8650 0.8655
1615.000000 0.8659 0.8663 0.8667 0.8671 0.8675
1610.000000 0.8678 0.8684 0.8688 0.8692 0.8696
1605.000000 0.8699 0.8702 0.8705 0.8708 0.8711
1600.000000 0.8713 0.8716 0.8718 0.8721 0.8725
1595.000000 0.8728 0.8731 0.8732 0.8732 0.8731
1590.000000 0.8730 0.8730 0.8728 0.8728 0.8728
1585.000000 0.8727 0.8725 0.8725 0.8725 0.8724
1580.000000 0.8723 0.8723 0.8721 0.8725 0.8727
1575.000000 0.8730 0.8732 0.8734 0.8737 0.8739
1570.000000 0.8742 0.8744 0.8746 0.8749 0.8751
1565.000000 0.8751 0.8749 0.8748 0.8747 0.8746
1560.000000 0.8745 0.8743 0.8742 0.8741 0.8740
1555.000000 0.8738 0.8734 0.8728 0.8724 0.8718
1550.000000 0.8714 0.8709 0.8704 0.8699 0.8695
1545.000000 0.8692 0.8689 0.8686 0.8684 0.8681
1540.000000 0.8678 0.8675 0.8671 0.8668 0.8666
1535.000000 0.8664 0.8661 0.8658 0.8656 0.8654
1530.000000 0.8652 0.8650 0.8648 0.8647 0.8645
1525.000000 0.8643 0.8641 0.8639 0.8637 0.8636
1520.000000 0.8631 0.8627 0.8621 0.8618 0.8613
1515.000000 0.8609 0.8604 0.8599 0.8594 0.8589
1510.000000 0.8583 0.8578 0.8573 0.8568 0.8564
1505.000000 0.8560 0.8555 0.8550 0.8546 0.8547
1500.000000 0.8547 0.8532 0.8523 0.8514 0.8505
1495.000000 0.8475 0.8439 0.8402 0.8362 0.8321
1490.000000 0.8290 0.8283 0.8277 0.8271 0.8265
1485.000000 0.8258 0.8246 0.8234 0.8216 0.8171
1480.000000 0.8125 0.8082 0.8008 0.7898 0.7225
1475.000000 0.6799 0.6373 0.5947 0.5520 0.5094
1470.000000 0.4668 0.4402 0.4382 0.4466 0.4633
1465.000000 0.4800 0.4967 0.5101 0.5097 0.5092
1460.000000 0.4703 0.3568 0.3564 0.3618 0.3834
1455.000000 0.4053 0.4270 0.4488 0.4705 0.4922
1450.000000 0.4971 0.4571 0.4156 0.3741 0.3537
1445.000000 0.3544 0.4139 0.4781 0.5422 0.6064
1440.000000 0.6706 0.7232 0.7335 0.7437 0.7500
1435.000000 0.7557 0.7615 0.7671 0.7724 0.7758
1430.000000 0.7778 0.7799 0.7818 0.7824 0.7828
1425.000000 0.7834 0.7839 0.7844 0.7849 0.7850
1420.000000 0.7850 0.7847 0.7862 0.7841 0.7838
1415.000000 0.7835 0.7831 0.7822 0.7815 0.7808
1410.000000 0.7804 0.7803 0.7803 0.7803 0.7803
1405.000000 0.7801 0.7801 0.7796 0.7790 0.7783
1400.000000 0.7764 0.7745 0.7725 0.7707 0.7632
1395.000000 0.7551 0.7338 0.6022 0.4542 0.4514
1390.000000 0.4669 0.4897 0.5124 0.5352 0.5595
1385.000000 0.5595 0.5594 0.4874 0.3992 0.3111
1380.000000 0.2229 0.1619 0.1592 0.1615 0.1998
1375.000000 0.2398 0.2799 0.2940 0.3088 0.3456
1370.000000 0.4318 0.5181 0.6043 0.6400 0.6487
1365.000000 0.6558 0.6637 0.6686 0.6725 0.6719
1360.000000 0.6718 0.6664 0.6597 0.6506 0.6385
1355.000000 0.5829 0.4878 0.3927 0.3605 0.3862
1350.000000 0.4146 0.4430 0.4533 0.4517 0.4028
1345.000000 0.3432 0.2835 0.2240 0.1879 0.1894
1340.000000 0.1899 0.2284 0.2744 0.3204 0.3664
1335.000000 0.4124 0.4584 0.5044 0.5504 0.5964
1330.000000 0.6462 0.6426 0.6426 0.5779 0.5054
1325.000000 0.4329 0.3604 0.3230 0.3216 0.3443
1320.000000 0.3772 0.4102 0.4431 0.4760 0.5090
1315.000000 0.5419 0.5749 0.6078 0.6408 0.6737
1310.000000 0.6767 0.6748 0.6656 0.6382 0.6109
1305.000000 0.5836 0.5562 0.5520 0.5512 0.5773
1300.000000 0.6039 0.6304 0.6347 0.6347 0.6346
1295.000000 0.6375 0.5017 0.4235 0.3452 0.2669
1290.000000 0.1886 0.1868 0.1836 0.1863 0.2207
1285.000000 0.2808 0.3408 0.4009 0.4609 0.5044
1280.000000 0.5169 0.5749 0.6060 0.6281 0.6460
1275.000000 0.6650 0.6911 0.7084 0.7169 0.7253
1270.000000 0.7311 0.7357 0.7399 0.7426 0.7454
1265.000000 0.7481 0.7508 0.7518 0.7530 0.7541
1260.000000 0.7551 0.7560 0.7565 0.7569 0.7575
1255.000000 0.7580 0.7585 0.7590 0.7595 0.7600
1250.000000 0.7604 0.7606 0.7606 0.7606 0.7607
1245.000000 0.7607 0.7607 0.7607 0.7601 0.7596
1240.000000 0.7590 0.7584 0.7578 0.7572 0.7567
1235.000000 0.7561 0.7550 0.7538 0.7526 0.7515
1230.000000 0.7503 0.7492 0.7475 0.7454 0.7431
1225.000000 0.7408 0.7385 0.7361 0.7340 0.7317
1220.000000 0.7243 0.7167 0.7082 0.6978 0.6875
1215.000000 0.6774 0.6678 0.6583 0.6487 0.6348
1210.000000 0.6108 0.5973 0.5850 0.5644 0.5304
1205.000000 0.4465 0.4110 0.3588 0.3022 0.2141
1200.000000 0.1260 0.0379 0.0088 0.0104 0.0109
1195.000000 0.0127 0.0149 0.0170 0.0222 0.0528
1190.000000 0.0941 0.1353 0.1766 0.2178 0.2590
1185.000000 0.3003 0.3414 0.3828 0.4240 0.4653
1180.000000 0.5065 0.5477 0.5890 0.6302 0.6551
1175.000000 0.6597 0.6615 0.6661 0.6628 0.6625
1170.000000 0.6590 0.6436 0.6264 0.6140 0.6036
1165.000000 0.5885 0.5705 0.5512 0.5321 0.5125
1160.000000 0.4604 0.4087 0.3570 0.3054 0.2922
1155.000000 0.2916 0.2901 0.3115 0.3395 0.3676
1150.000000 0.3956 0.4237 0.4517 0.4798 0.5073
1145.000000 0.5080 0.5109 0.5070 0.4960 0.4080
1140.000000 0.3200 0.2321 0.2194 0.2175 0.2409
1135.000000 0.2682 0.2955 0.3228 0.3500 0.3774
1130.000000 0.4047 0.4320 0.4593 0.4865 0.5138
1125.000000 0.5410 0.5684 0.5957 0.6230 0.6503
1120.000000 0.6775 0.7049 0.7232 0.7281 0.7310
1115.000000 0.7335 0.7348 0.7365 0.7351 0.7342
1110.000000 0.7326 0.7245 0.6688 0.5785 0.4882
1105.000000 0.3979 0.3076 0.2173 0.1909 0.1908
1100.000000 0.1941 0.2344 0.2748 0.3151 0.3555
1095.000000 0.3958 0.4362 0.4766 0.5169 0.5573
1090.000000 0.5976 0.6380 0.6606 0.6615 0.6634
1085.000000 0.6600 0.6531 0.5504 0.4477 0.3450
1080.000000 0.2423 0.2154 0.2175 0.2505 0.2984
1075.000000 0.3464 0.3945 0.4064 0.4082 0.4068
1070.000000 0.3509 0.2868 0.2225 0.1583 0.0941
1065.000000 0.0884 0.0885 0.0865 0.1406 0.1812
1060.000000 0.2218 0.2624 0.3029 0.3434 0.3841
1055.000000 0.4247 0.4653 0.5059 0.5464 0.5870
1050.000000 0.6276 0.6287 0.6287 0.6288 0.6284
1045.000000 0.5568 0.4654 0.3928 0.3930 0.3930
1040.000000 0.3900 0.4691 0.5106 0.5520 0.5935
1035.000000 0.6350 0.6765 0.7151 0.7281 0.7417
1030.000000 0.7547 0.7617 0.7678 0.7725 0.7771
1025.000000 0.7830 0.7878 0.7910 0.7938 0.7964
1020.000000 0.7989 0.8011 0.8028 0.8032 0.8025
1015.000000 0.8028 0.8019 0.8011 0.7978 0.7946
1010.000000 0.7864 0.7483 0.7084 0.6685 0.6286
1005.000000 0.6040 0.5997 0.6050 0.6215 0.6915
1000.000000 0.7615 0.7724 0.7814 0.7897 0.7965
995.000000 0.8033 0.8089 0.8128 0.8167 0.8206
990.000000 0.8239 0.8257 0.8275 0.8293 0.8305
985.000000 0.8310 0.8316 0.8321 0.8318 0.8316
980.000000 0.8312 0.8309 0.8304 0.8295 0.8287
975.000000 0.8278 0.8270 0.8262 0.8254 0.8250
970.000000 0.8250 0.8249 0.8249 0.8248 0.8248
965.000000 0.8247 0.8246 0.8246 0.8245 0.8277
960.000000 0.8254 0.8260 0.8266 0.8273 0.8278
955.000000 0.8286 0.8296 0.8305 0.8315 0.8324
950.000000 0.8334 0.8343 0.8352 0.8362 0.8371
945.000000 0.8380 0.8389 0.8398 0.8401 0.8401
940.000000 0.8402 0.8402 0.8400 0.8392 0.8382
935.000000 0.8313 0.8233 0.8101 0.7898 0.7541
930.000000 0.7183 0.6825 0.6640 0.6636 0.6646
925.000000 0.6965 0.7340 0.7715 0.7828 0.7910
920.000000 0.8080 0.8186 0.8231 0.8241 0.8252
915.000000 0.8225 0.8247 0.8217 0.8171 0.8125
910.000000 0.8058 0.7844 0.7535 0.7439 0.7308
905.000000 0.6747 0.5716 0.4685 0.3658 0.3662
900.000000 0.3668 0.4009 0.4562 0.5116 0.5669
895.000000 0.6222 0.6774 0.7091 0.7487 0.7626
890.000000 0.7751 0.7872 0.7974 0.8075 0.8175
885.000000 0.8261 0.8311 0.8361 0.8411 0.8460
880.000000 0.8512 0.8561 0.8581 0.8602 0.8614
875.000000 0.8621 0.8628 0.8635 0.8643 0.8650
870.000000 0.8657 0.8661 0.8664 0.8668 0.8671
865.000000 0.8674 0.8678 0.8681 0.8685 0.8688
860.000000 0.8692 0.8696 0.8700 0.8704 0.8708
855.000000 0.8711 0.8715 0.8718 0.8723 0.8725
850.000000 0.8725 0.8723 0.8721 0.8718 0.8718
845.000000 0.8716 0.8714 0.8710 0.8704 0.8698
840.000000 0.8693 0.8688 0.8683 0.8675 0.8667
835.000000 0.8658 0.8649 0.8640 0.8631 0.8617
830.000000 0.8603 0.8588 0.8574 0.8560 0.8533
825.000000 0.8497 0.8461 0.8425 0.8389 0.8340
820.000000 0.8287 0.8233 0.8175 0.8118 0.8060
815.000000 0.7998 0.7937 0.7875 0.7812 0.7681
810.000000 0.7549 0.7411 0.7271 0.7068 0.5924
805.000000 0.5674 0.5616 0.5325 0.4782 0.4239
800.000000 0.3696 0.3153 0.2610 0.2103 0.2045
795.000000 0.2063 0.2059 0.2058 0.2287 0.2862
790.000000 0.3437 0.4012 0.4587 0.5162 0.5737
785.000000 0.5921 0.6118 0.6956 0.7096 0.7261
780.000000 0.7445 0.7500 0.7503 0.7511 0.7542
775.000000 0.7604 0.7691 0.7778 0.7882 0.7996
770.000000 0.8078 0.8150 0.8215 0.8271 0.8328
765.000000 0.8367 0.8399 0.8417 0.8435 0.8451
760.000000 0.8462 0.8473 0.8480 0.8481 0.8482
755.000000 0.8482 0.8470 0.8458 0.8446 0.8434
750.000000 0.8421 0.8405 0.8386 0.8367 0.8347
745.000000 0.8328 0.8309 0.8287 0.8264 0.8241
740.000000 0.8218 0.8195 0.8171 0.8149 0.8125
735.000000 0.8103 0.8080 0.8057 0.8033 0.8008
730.000000 0.7981 0.7937 0.7893 0.7850 0.7808
725.000000 0.7767 0.7721 0.7669 0.7628 0.7604
720.000000 0.7578 0.7631 0.7699 0.7804 0.7915
715.000000 0.8036 0.8160 0.8274 0.8354 0.8435
710.000000 0.8501 0.8535 0.8570 0.8604 0.8638
705.000000 0.8668 0.8691 0.8714 0.8736 0.8754
700.000000 0.8767 0.8780 0.8794 0.8807 0.8820
695.000000 0.8834 0.8845 0.8852 0.8859 0.8864
690.000000 0.8866 0.8868 0.8870 0.8871 0.8862
685.000000 0.8854 0.8846 0.8835 0.8795 0.8752
680.000000 0.8597 0.8158 0.7719 0.7472 0.7522
675.000000 0.7705 0.7888 0.8071 0.8254 0.8405
670.000000 0.8492 0.8580 0.8615 0.8649 0.8683
665.000000 0.8713 0.8728 0.8742 0.8756 0.8770
660.000000 0.8778 0.8785 0.8791 0.8798 0.8804
655.000000 0.8810 0.8816 0.8821 0.8828 0.8834
650.000000 0.8840 0.8846 0.8852 0.8858 0.8861
645.000000 0.8863 0.8865 0.8868 0.8870 0.8871
640.000000 0.8874 0.8875 0.8878 0.8880 0.8882
635.000000 0.8882 0.8882 0.8882 0.8882 0.8882
630.000000 0.8882 0.8882 0.8882 0.8882 0.8883
625.000000 0.8883 0.8883 0.8883 0.8882 0.8880
620.000000 0.8878 0.8875 0.8911 0.8871 0.8870
615.000000 0.8868 0.8866 0.8864 0.8862 0.8860
610.000000 0.8858 0.8854 0.8850 0.8845 0.8840
605.000000 0.8836 0.8831 0.8827 0.8821 0.8812
600.000000 0.8802 0.8793 0.8784 0.8774 0.8765
595.000000 0.8751 0.8731 0.8711 0.8685 0.8659
590.000000 0.8636 0.8617 0.8609 0.8608 0.8607
585.000000 0.8606 0.8605 0.8600 0.8595 0.8589
580.000000 0.8584 0.8450 0.8043 0.7636 0.7228
575.000000 0.6821 0.6487 0.6486 0.6518 0.6695
570.000000 0.6994 0.7294 0.7594 0.7894 0.8191
565.000000 0.8191 0.8192 0.8193 0.7344 0.6346
560.000000 0.5348 0.4690 0.4714 0.5204 0.5693
555.000000 0.6183 0.6671 0.7161 0.7651 0.7842
550.000000 0.8053 0.8156 0.8242 0.8309 0.8371
545.000000 0.8433 0.8471 0.8510 0.8543 0.8555
540.000000 0.8567 0.8577 0.8578 0.8582 0.8584
535.000000 0.8587 0.8589 0.8591 0.8594 0.8596
530.000000 0.8597 0.8597 0.8598 0.8599 0.8600
525.000000 0.8600 0.8601 0.8602 0.8602 0.8603
520.000000 0.8586 0.8606 0.8609 0.8613 0.8616
515.000000 0.8618 0.8621 0.8625 0.8628 0.8628
510.000000 0.8625 0.8620 0.8615 0.8611 0.8606
505.000000 0.8601 0.8596 0.8590 0.8582 0.8573
500.000000 0.8564 0.8555 0.8545 0.8534 0.8524
495.000000 0.8513 0.8501 0.8484 0.8468 0.8452
490.000000 0.8435 0.8418 0.8393 0.8365 0.8337
485.000000 0.8309 0.8281 0.8234 0.8187 0.8125
480.000000 0.8051 0.7715 0.7561 0.7415 0.7361
475.000000 0.7318 0.7338 0.7346 0.7396 0.7478
470.000000 0.7568 0.7651 0.7734 0.7808 0.7865
465.000000 0.7893 0.7917 0.7925 0.7934 0.7942
460.000000 0.7942 0.7939 0.7937 0.7954 0.7931
455.000000 0.7928 0.7925 0.7921 0.7914 0.7906
450.000000 0.7899 0.7891 0.7884 0.7875 0.7868
445.000000 0.7861 0.7854 0.7847 0.7840 0.7833
440.000000 0.7825 0.7818 0.7811 0.7805 0.7798
435.000000 0.7791 0.7784 0.7774 0.7761 0.7749
430.000000 0.7737 0.7725 0.7711 0.7700 0.7684
425.000000 0.7661 0.7641 0.7618 0.7596 0.7568
420.000000 0.7540 0.7512 0.7472 0.7428 0.7384
415.000000 0.7340 0.7296 0.7228 0.7154 0.7082
410.000000 0.7021 0.7000 0.6986 0.6986 0.6987
405.000000 0.6992 0.6998 0.7003 0.7008 0.7012
400.000000 0.7018 0.7022 0.7028 0.7033 0.7039
395.000000 0.7045 0.7051 0.7057 0.7062 0.7068
390.000000 0.7075 0.7081 0.7087 0.7091 0.7095
385.000000 0.7099 0.7103 0.7107 0.7111 0.7115
380.000000 0.7121
##END=
