##TITLE=L-HISTIDINE, HYDROCHLORIDE, HYDRATE
##JCAMP-DX=4.24
$$ By DXEDIT 1.05 (RS McDonald)
##DATA TYPE=INFRARED SPECTRUM
##CLASS=COBLENTZ III
##ORIGIN=SMITH KLINE & FRENCH LABS.
##OWNER=COBLENTZ SOC.
Collection (C) 2018 copyright by the U.S. Secretary of Commerce
on behalf of the United States of America. All rights reserved.
##DATE=1965/06/22
##MOLFORM=C6 H10 Cl N3 O2  * H2 O
##MP=80 C
##SOURCE REFERENCE=COBLENTZ NO. 05816
##$NIST ID=B6005816
##$NIST SOURCE=COBLENTZ
##$NIST IMAGE=cob5816
##SPECTROMETER/DATA SYSTEM=PERKIN-ELMER 521 (GRATING)
##INSTRUMENT PARAMETERS=ORDER CHANGES: 1999, 690 CM^-^1
##STATE=SOLID (MULL)
##PATH LENGTH=KBr PLATES
$$INACTIVE KBr PLATES AROUND 300-200 CM^-^1
$$SPECTRAL CONTAMINATION DUE TO OIL AROUND 2900 CM^-^1
$$ THE SPLT IN THE SPECTRAL FEATURE AT 628 CM^-^1 IS AN ARTIFACT CAUSED BY A CHANGE IN RECORDING PARAMETER
##SAMPLING PROCEDURE=TRANSMISSION
##RESOLUTION=2
##DATA PROCESSING=DIGITIZED BY COBLENTZ SOCIETY (BATCH I) FROM HARD COPY
##XUNITS=1/CM
##YUNITS=TRANSMITTANCE
##XLABEL=Wavenumbers (cm-1)
##YLABEL=Transmittance
##XFACTOR=1
##YFACTOR=1
##DELTAX=1
##FIRSTX=4010
##LASTX=202
##FIRSTY=0.6697
##MAXX=4010
##MINX=202
##MAXY=0.8061
##MINY=0.0851
##NPOINTS=3809
##XYDATA=(X++(Y..Y))
4010.000000 0.6697 0.6697 0.6697 0.6698 0.6700
4005.000000 0.6701 0.6704 0.6705 0.6707 0.6708
4000.000000 0.6710 0.6711 0.6714 0.6715 0.6717
3995.000000 0.6718 0.6719 0.6721 0.6724 0.6725
3990.000000 0.6726 0.6738 0.6749 0.6761 0.6774
3985.000000 0.6786 0.6799 0.6801 0.6803 0.6803
3980.000000 0.6803 0.6803 0.6803 0.6801 0.6800
3975.000000 0.6797 0.6795 0.6793 0.6791 0.6788
3970.000000 0.6786 0.6783 0.6781 0.6778 0.6776
3965.000000 0.6775 0.6774 0.6778 0.6783 0.6788
3960.000000 0.6793 0.6798 0.6803 0.6805 0.6808
3955.000000 0.6807 0.6806 0.6805 0.6805 0.6804
3950.000000 0.6803 0.6801 0.6801 0.6800 0.6799
3945.000000 0.6798 0.6797 0.6795 0.6794 0.6792
3940.000000 0.6791 0.6789 0.6788 0.6786 0.6785
3935.000000 0.6783 0.6782 0.6781 0.6781 0.6781
3930.000000 0.6783 0.6786 0.6789 0.6791 0.6794
3925.000000 0.6796 0.6799 0.6803 0.6808 0.6812
3920.000000 0.6818 0.6822 0.6828 0.6833 0.6838
3915.000000 0.6843 0.6848 0.6850 0.6851 0.6854
3910.000000 0.6856 0.6857 0.6858 0.6860 0.6861
3905.000000 0.6864 0.6865 0.6865 0.6865 0.6865
3900.000000 0.6864 0.6862 0.6862 0.6861 0.6861
3895.000000 0.6860 0.6858 0.6858 0.6857 0.6856
3890.000000 0.6856 0.6856 0.6857 0.6857 0.6858
3885.000000 0.6858 0.6860 0.6860 0.6861 0.6861
3880.000000 0.6861 0.6861 0.6862 0.6864 0.6865
3875.000000 0.6865 0.6865 0.6865 0.6867 0.6868
3870.000000 0.6868 0.6868 0.6869 0.6869 0.6871
3865.000000 0.6871 0.6874 0.6875 0.6878 0.6882
3860.000000 0.6885 0.6889 0.6893 0.6897 0.6901
3855.000000 0.6906 0.6910 0.6911 0.6915 0.6915
3850.000000 0.6915 0.6915 0.6915 0.6915 0.6915
3845.000000 0.6914 0.6914 0.6914 0.6914 0.6914
3840.000000 0.6914 0.6912 0.6911 0.6911 0.6911
3835.000000 0.6910 0.6910 0.6908 0.6908 0.6907
3830.000000 0.6907 0.6906 0.6906 0.6905 0.6905
3825.000000 0.6904 0.6903 0.6901 0.6901 0.6901
3820.000000 0.6903 0.6903 0.6903 0.6903 0.6903
3815.000000 0.6903 0.6903 0.6903 0.6904 0.6904
3810.000000 0.6904 0.6904 0.6904 0.6904 0.6904
3805.000000 0.6904 0.6905 0.6905 0.6905 0.6905
3800.000000 0.6905 0.6905 0.6905 0.6905 0.6906
3795.000000 0.6906 0.6906 0.6906 0.6906 0.6906
3790.000000 0.6907 0.6907 0.6907 0.6907 0.6907
3785.000000 0.6908 0.6908 0.6910 0.6911 0.6912
3780.000000 0.6915 0.6915 0.6918 0.6919 0.6921
3775.000000 0.6922 0.6925 0.6925 0.6928 0.6928
3770.000000 0.6931 0.6932 0.6933 0.6934 0.6935
3765.000000 0.6935 0.6936 0.6937 0.6938 0.6939
3760.000000 0.6940 0.6940 0.6941 0.6942 0.6943
3755.000000 0.6944 0.6945 0.6947 0.6949 0.6951
3750.000000 0.6954 0.6957 0.6960 0.6962 0.6965
3745.000000 0.6968 0.6971 0.6975 0.6978 0.6980
3740.000000 0.6982 0.6983 0.6985 0.6986 0.6988
3735.000000 0.6990 0.6992 0.6993 0.6995 0.6996
3730.000000 0.6998 0.6998 0.6999 0.6999 0.7000
3725.000000 0.7000 0.6999 0.6999 0.6998 0.6994
3720.000000 0.6990 0.6982 0.6975 0.6965 0.6957
3715.000000 0.6948 0.6939 0.6934 0.6930 0.6931
3710.000000 0.6932 0.6933 0.6935 0.6936 0.6937
3705.000000 0.6938 0.6939 0.6940 0.6942 0.6943
3700.000000 0.6944 0.6945 0.6947 0.6948 0.6949
3695.000000 0.6950 0.6950 0.6951 0.6951 0.6951
3690.000000 0.6953 0.6954 0.6955 0.6955 0.6956
3685.000000 0.6957 0.6958 0.6958 0.6958 0.6958
3680.000000 0.6960 0.6960 0.6960 0.6960 0.6961
3675.000000 0.6961 0.6961 0.6961 0.6961 0.6961
3670.000000 0.6961 0.6961 0.6961 0.6961 0.6961
3665.000000 0.6961 0.6961 0.6961 0.6961 0.6961
3660.000000 0.6961 0.6961 0.6961 0.6961 0.6961
3655.000000 0.6961 0.6961 0.6961 0.6961 0.6961
3650.000000 0.6962 0.6962 0.6964 0.6964 0.6962
3645.000000 0.6961 0.6960 0.6957 0.6954 0.6949
3640.000000 0.6945 0.6936 0.6926 0.6918 0.6910
3635.000000 0.6896 0.6882 0.6871 0.6861 0.6857
3630.000000 0.6854 0.6850 0.6847 0.6847 0.6848
3625.000000 0.6845 0.6843 0.6840 0.6837 0.6834
3620.000000 0.6831 0.6825 0.6821 0.6817 0.6812
3615.000000 0.6808 0.6804 0.6796 0.6788 0.6778
3610.000000 0.6769 0.6761 0.6751 0.6743 0.6734
3605.000000 0.6725 0.6715 0.6707 0.6698 0.6688
3600.000000 0.6678 0.6667 0.6657 0.6647 0.6637
3595.000000 0.6625 0.6615 0.6605 0.6595 0.6571
3590.000000 0.6547 0.6518 0.6491 0.6467 0.6444
3585.000000 0.6441 0.6438 0.6437 0.6437 0.6436
3580.000000 0.6436 0.6431 0.6425 0.6415 0.6406
3575.000000 0.6394 0.6383 0.6370 0.6357 0.6344
3570.000000 0.6331 0.6317 0.6304 0.6291 0.6278
3565.000000 0.6264 0.6250 0.6236 0.6223 0.6209
3560.000000 0.6196 0.6183 0.6171 0.6159 0.6148
3555.000000 0.6136 0.6124 0.6112 0.6100 0.6088
3550.000000 0.6077 0.6064 0.6052 0.6039 0.6027
3545.000000 0.6018 0.6009 0.5999 0.5990 0.5981
3540.000000 0.5972 0.5962 0.5953 0.5941 0.5929
3535.000000 0.5910 0.5891 0.5873 0.5855 0.5837
3530.000000 0.5819 0.5801 0.5783 0.5758 0.5733
3525.000000 0.5705 0.5678 0.5650 0.5623 0.5600
3520.000000 0.5578 0.5557 0.5537 0.5516 0.5496
3515.000000 0.5476 0.5456 0.5432 0.5408 0.5380
3510.000000 0.5352 0.5324 0.5296 0.5267 0.5239
3505.000000 0.5205 0.5172 0.5136 0.5101 0.5064
3500.000000 0.5027 0.4990 0.4953 0.4915 0.4878
3495.000000 0.4842 0.4807 0.4771 0.4736 0.4701
3490.000000 0.4666 0.4634 0.4603 0.4576 0.4549
3485.000000 0.4521 0.4494 0.4457 0.4420 0.4382
3480.000000 0.4344 0.4305 0.4267 0.4234 0.4201
3475.000000 0.4178 0.4155 0.4132 0.4109 0.4086
3470.000000 0.4062 0.4034 0.4006 0.3959 0.3912
3465.000000 0.3847 0.3780 0.3725 0.3670 0.3618
3460.000000 0.3566 0.3557 0.3548 0.3539 0.3530
3455.000000 0.3503 0.3476 0.3427 0.3379 0.3350
3450.000000 0.3322 0.3298 0.3274 0.3250 0.3227
3445.000000 0.3187 0.3148 0.3102 0.3057 0.3000
3440.000000 0.2943 0.2853 0.2763 0.2700 0.2638
3435.000000 0.2606 0.2574 0.2443 0.2313 0.2297
3430.000000 0.2281 0.2268 0.2256 0.2181 0.2106
3425.000000 0.2025 0.1944 0.1871 0.1798 0.1773
3420.000000 0.1748 0.1729 0.1710 0.1695 0.1682
3415.000000 0.1677 0.1685 0.1670 0.1671 0.1672
3410.000000 0.1676 0.1701 0.1727 0.1754 0.1783
3405.000000 0.1810 0.1837 0.1866 0.1894 0.1934
3400.000000 0.1974 0.2014 0.2055 0.2097 0.2140
3395.000000 0.2184 0.2230 0.2275 0.2320 0.2364
3390.000000 0.2409 0.2452 0.2496 0.2539 0.2583
3385.000000 0.2626 0.2670 0.2713 0.2757 0.2790
3380.000000 0.2824 0.2857 0.2891 0.2924 0.2958
3375.000000 0.2992 0.3026 0.3064 0.3103 0.3149
3370.000000 0.3195 0.3241 0.3288 0.3336 0.3384
3365.000000 0.3432 0.3480 0.3528 0.3575 0.3612
3360.000000 0.3652 0.3691 0.3730 0.3764 0.3800
3355.000000 0.3834 0.3870 0.3891 0.3912 0.3918
3350.000000 0.3924 0.3929 0.3934 0.3940 0.3946
3345.000000 0.3962 0.3980 0.3999 0.4018 0.4036
3340.000000 0.4055 0.4073 0.4092 0.4112 0.4134
3335.000000 0.4136 0.4139 0.4138 0.4137 0.4136
3330.000000 0.4135 0.4135 0.4134 0.4133 0.4132
3325.000000 0.4127 0.4123 0.4116 0.4109 0.4095
3320.000000 0.4080 0.4066 0.4052 0.4038 0.4024
3315.000000 0.4012 0.4003 0.3993 0.3984 0.3980
3310.000000 0.3976 0.3972 0.3968 0.3964 0.3959
3305.000000 0.3956 0.3952 0.3948 0.3944 0.3940
3300.000000 0.3936 0.3932 0.3928 0.3924 0.3920
3295.000000 0.3914 0.3909 0.3902 0.3894 0.3886
3290.000000 0.3879 0.3871 0.3862 0.3855 0.3847
3285.000000 0.3839 0.3830 0.3823 0.3814 0.3806
3280.000000 0.3798 0.3790 0.3782 0.3774 0.3766
3275.000000 0.3757 0.3749 0.3740 0.3732 0.3723
3270.000000 0.3714 0.3706 0.3698 0.3689 0.3680
3265.000000 0.3672 0.3664 0.3655 0.3647 0.3639
3260.000000 0.3630 0.3622 0.3614 0.3607 0.3600
3255.000000 0.3597 0.3593 0.3589 0.3584 0.3580
3250.000000 0.3577 0.3574 0.3571 0.3568 0.3566
3245.000000 0.3562 0.3560 0.3558 0.3556 0.3553
3240.000000 0.3550 0.3549 0.3548 0.3546 0.3544
3235.000000 0.3542 0.3541 0.3539 0.3537 0.3534
3230.000000 0.3534 0.3532 0.3530 0.3528 0.3527
3225.000000 0.3525 0.3524 0.3522 0.3521 0.3518
3220.000000 0.3518 0.3516 0.3514 0.3510 0.3508
3215.000000 0.3503 0.3499 0.3495 0.3491 0.3487
3210.000000 0.3482 0.3479 0.3475 0.3466 0.3457
3205.000000 0.3447 0.3437 0.3427 0.3418 0.3408
3200.000000 0.3399 0.3389 0.3380 0.3370 0.3359
3195.000000 0.3350 0.3340 0.3330 0.3320 0.3308
3190.000000 0.3297 0.3284 0.3272 0.3259 0.3246
3185.000000 0.3232 0.3220 0.3205 0.3190 0.3175
3180.000000 0.3160 0.3145 0.3130 0.3116 0.3103
3175.000000 0.3089 0.3075 0.3054 0.3034 0.2961
3170.000000 0.2889 0.2806 0.2723 0.2640 0.2558
3165.000000 0.2512 0.2466 0.2462 0.2453 0.2490
3160.000000 0.2522 0.2554 0.2585 0.2618 0.2650
3155.000000 0.2682 0.2714 0.2746 0.2778 0.2809
3150.000000 0.2841 0.2857 0.2873 0.2881 0.2889
3145.000000 0.2893 0.2897 0.2900 0.2900 0.2901
3140.000000 0.2899 0.2894 0.2890 0.2884 0.2878
3135.000000 0.2865 0.2853 0.2830 0.2807 0.2787
3130.000000 0.2768 0.2748 0.2728 0.2697 0.2667
3125.000000 0.2618 0.2569 0.2507 0.2445 0.2368
3120.000000 0.2291 0.2213 0.2135 0.2058 0.1981
3115.000000 0.1903 0.1826 0.1748 0.1572 0.1625
3110.000000 0.1579 0.1582 0.1585 0.1610 0.1635
3105.000000 0.1661 0.1686 0.1712 0.1736 0.1762
3100.000000 0.1787 0.1813 0.1839 0.1846 0.1846
3095.000000 0.1848 0.1840 0.1829 0.1818 0.1807
3090.000000 0.1795 0.1782 0.1768 0.1748 0.1729
3085.000000 0.1681 0.1621 0.1624 0.1615 0.1613
3080.000000 0.1611 0.1609 0.1608 0.1619 0.1629
3075.000000 0.1642 0.1654 0.1668 0.1681 0.1694
3070.000000 0.1708 0.1725 0.1742 0.1764 0.1786
3065.000000 0.1825 0.1864 0.1894 0.1927 0.1957
3060.000000 0.1987 0.2017 0.2046 0.2065 0.2083
3055.000000 0.2099 0.2116 0.2129 0.2142 0.2146
3050.000000 0.2151 0.2154 0.2158 0.2158 0.2159
3045.000000 0.2159 0.2159 0.2158 0.2177 0.2155
3040.000000 0.2153 0.2145 0.2138 0.2129 0.2121
3035.000000 0.2091 0.2062 0.2018 0.1974 0.1934
3030.000000 0.1894 0.1858 0.1822 0.1791 0.1761
3025.000000 0.1744 0.1729 0.1718 0.1706 0.1706
3020.000000 0.1704 0.1706 0.1709 0.1711 0.1714
3015.000000 0.1717 0.1720 0.1723 0.1727 0.1729
3010.000000 0.1734 0.1735 0.1736 0.1736 0.1735
3005.000000 0.1734 0.1734 0.1734 0.1734 0.1734
3000.000000 0.1734 0.1734 0.1735 0.1740 0.1744
2995.000000 0.1746 0.1750 0.1751 0.1753 0.1754
2990.000000 0.1754 0.1754 0.1754 0.1752 0.1751
2985.000000 0.1749 0.1748 0.1744 0.1743 0.1737
2980.000000 0.1734 0.1724 0.1715 0.1681 0.1648
2975.000000 0.1610 0.1572 0.1532 0.1492 0.1451
2970.000000 0.1410 0.1375 0.1341 0.1313 0.1286
2965.000000 0.1249 0.1213 0.1181 0.1149 0.1144
2960.000000 0.1140 0.1135 0.1131 0.1127 0.1124
2955.000000 0.1123 0.1123 0.1122 0.1121 0.1120
2950.000000 0.1119 0.1116 0.1114 0.1111 0.1109
2945.000000 0.1105 0.1101 0.1092 0.1085 0.1067
2940.000000 0.1050 0.1033 0.1017 0.1001 0.0986
2935.000000 0.0968 0.0951 0.0934 0.0917 0.0899
2930.000000 0.0882 0.0872 0.0865 0.0858 0.0852
2925.000000 0.0851 0.0851 0.0851 0.0853 0.0857
2920.000000 0.0861 0.0865 0.0869 0.0892 0.0917
2915.000000 0.0942 0.0968 0.0992 0.1017 0.1045
2910.000000 0.1073 0.1103 0.1134 0.1163 0.1192
2905.000000 0.1223 0.1253 0.1275 0.1298 0.1316
2900.000000 0.1334 0.1352 0.1370 0.1387 0.1404
2895.000000 0.1424 0.1444 0.1464 0.1484 0.1511
2890.000000 0.1539 0.1567 0.1595 0.1634 0.1674
2885.000000 0.1687 0.1703 0.1711 0.1720 0.1723
2880.000000 0.1726 0.1729 0.1732 0.1732 0.1732
2875.000000 0.1728 0.1724 0.1718 0.1712 0.1689
2870.000000 0.1667 0.1639 0.1612 0.1610 0.1609
2865.000000 0.1613 0.1617 0.1622 0.1628 0.1633
2860.000000 0.1639 0.1651 0.1684 0.1675 0.1686
2855.000000 0.1702 0.1718 0.1752 0.1785 0.1842
2850.000000 0.1899 0.1983 0.2067 0.2150 0.2234
2845.000000 0.2318 0.2402 0.2484 0.2569 0.2653
2840.000000 0.2737 0.2821 0.2905 0.2988 0.3072
2835.000000 0.3146 0.3221 0.3272 0.3323 0.3377
2830.000000 0.3430 0.3491 0.3550 0.3582 0.3614
2825.000000 0.3638 0.3660 0.3678 0.3695 0.3712
2820.000000 0.3729 0.3743 0.3758 0.3766 0.3777
2815.000000 0.3786 0.3796 0.3806 0.3816 0.3826
2810.000000 0.3836 0.3850 0.3866 0.3884 0.3902
2805.000000 0.3920 0.3938 0.3953 0.3968 0.3982
2800.000000 0.3997 0.4010 0.4026 0.4044 0.4062
2795.000000 0.4080 0.4098 0.4110 0.4123 0.4127
2790.000000 0.4164 0.4135 0.4139 0.4139 0.4140
2785.000000 0.4141 0.4142 0.4142 0.4143 0.4143
2780.000000 0.4144 0.4144 0.4145 0.4146 0.4147
2775.000000 0.4148 0.4149 0.4149 0.4150 0.4151
2770.000000 0.4152 0.4153 0.4154 0.4155 0.4156
2765.000000 0.4156 0.4157 0.4158 0.4159 0.4160
2760.000000 0.4160 0.4160 0.4162 0.4162 0.4162
2755.000000 0.4162 0.4162 0.4162 0.4162 0.4160
2750.000000 0.4160 0.4158 0.4157 0.4148 0.4139
2745.000000 0.4123 0.4107 0.4093 0.4080 0.4068
2740.000000 0.4059 0.4048 0.4038 0.4028 0.4018
2735.000000 0.4012 0.4006 0.4005 0.4004 0.4002
2730.000000 0.4000 0.3997 0.3994 0.3984 0.3976
2725.000000 0.3966 0.3958 0.3949 0.3940 0.3934
2720.000000 0.3930 0.3927 0.3923 0.3922 0.3922
2715.000000 0.3921 0.3918 0.3918 0.3918 0.3925
2710.000000 0.3930 0.3938 0.3945 0.3955 0.3964
2705.000000 0.3976 0.3987 0.3998 0.4009 0.4016
2700.000000 0.4025 0.4032 0.4040 0.4053 0.4066
2695.000000 0.4086 0.4105 0.4124 0.4144 0.4162
2690.000000 0.4181 0.4200 0.4219 0.4236 0.4253
2685.000000 0.4268 0.4283 0.4298 0.4312 0.4327
2680.000000 0.4342 0.4357 0.4372 0.4387 0.4403
2675.000000 0.4418 0.4434 0.4441 0.4449 0.4455
2670.000000 0.4460 0.4465 0.4470 0.4474 0.4479
2665.000000 0.4483 0.4496 0.4488 0.4488 0.4488
2660.000000 0.4488 0.4488 0.4488 0.4484 0.4480
2655.000000 0.4475 0.4471 0.4466 0.4462 0.4445
2650.000000 0.4428 0.4409 0.4391 0.4371 0.4352
2645.000000 0.4325 0.4299 0.4272 0.4246 0.4188
2640.000000 0.4131 0.4078 0.4026 0.3988 0.3950
2635.000000 0.3921 0.3892 0.3866 0.3843 0.3825
2630.000000 0.3807 0.3790 0.3773 0.3759 0.3747
2625.000000 0.3741 0.3736 0.3730 0.3726 0.3723
2620.000000 0.3694 0.3718 0.3716 0.3716 0.3720
2615.000000 0.3730 0.3743 0.3756 0.3768 0.3798
2610.000000 0.3828 0.3849 0.3870 0.3884 0.3900
2605.000000 0.3914 0.3929 0.3942 0.3955 0.3964
2600.000000 0.3973 0.3982 0.3991 0.3999 0.4008
2595.000000 0.4016 0.4026 0.4028 0.4030 0.4032
2590.000000 0.4034 0.4037 0.4040 0.4042 0.4045
2585.000000 0.4047 0.4049 0.4050 0.4054 0.4056
2580.000000 0.4059 0.4059 0.4060 0.4060 0.4062
2575.000000 0.4062 0.4064 0.4064 0.4064 0.4066
2570.000000 0.4066 0.4068 0.4068 0.4070 0.4071
2565.000000 0.4073 0.4075 0.4077 0.4079 0.4080
2560.000000 0.4082 0.4084 0.4089 0.4093 0.4097
2555.000000 0.4100 0.4104 0.4108 0.4112 0.4120
2550.000000 0.4129 0.4140 0.4151 0.4162 0.4174
2545.000000 0.4185 0.4196 0.4207 0.4218 0.4228
2540.000000 0.4239 0.4257 0.4275 0.4291 0.4308
2535.000000 0.4323 0.4339 0.4350 0.4360 0.4362
2530.000000 0.4366 0.4368 0.4371 0.4372 0.4372
2525.000000 0.4372 0.4372 0.4371 0.4371 0.4370
2520.000000 0.4370 0.4368 0.4366 0.4364 0.4362
2515.000000 0.4352 0.4343 0.4333 0.4323 0.4316
2510.000000 0.4310 0.4312 0.4316 0.4321 0.4327
2505.000000 0.4332 0.4338 0.4344 0.4350 0.4356
2500.000000 0.4362 0.4369 0.4376 0.4381 0.4387
2495.000000 0.4390 0.4394 0.4398 0.4402 0.4405
2490.000000 0.4409 0.4412 0.4417 0.4415 0.4414
2485.000000 0.4412 0.4410 0.4407 0.4405 0.4402
2480.000000 0.4400 0.4399 0.4399 0.4398 0.4398
2475.000000 0.4397 0.4397 0.4396 0.4396 0.4395
2470.000000 0.4395 0.4395 0.4396 0.4396 0.4397
2465.000000 0.4397 0.4397 0.4397 0.4398 0.4405
2460.000000 0.4412 0.4427 0.4441 0.4456 0.4471
2455.000000 0.4495 0.4519 0.4543 0.4567 0.4576
2450.000000 0.4586 0.4595 0.4605 0.4610 0.4618
2445.000000 0.4620 0.4622 0.4627 0.4632 0.4637
2440.000000 0.4642 0.4647 0.4652 0.4657 0.4662
2435.000000 0.4667 0.4672 0.4677 0.4682 0.4690
2430.000000 0.4699 0.4709 0.4720 0.4738 0.4757
2425.000000 0.4780 0.4803 0.4827 0.4852 0.4873
2420.000000 0.4894 0.4905 0.4916 0.4910 0.4904
2415.000000 0.4897 0.4891 0.4886 0.4881 0.4878
2410.000000 0.4878 0.4878 0.4880 0.4882 0.4884
2405.000000 0.4886 0.4888 0.4890 0.4892 0.4894
2400.000000 0.4896 0.4898 0.4900 0.4902 0.4905
2395.000000 0.4908 0.4912 0.4916 0.4920 0.4923
2390.000000 0.4927 0.4930 0.4934 0.4937 0.4941
2385.000000 0.4945 0.4949 0.4953 0.4958 0.4962
2380.000000 0.4967 0.4971 0.4976 0.4980 0.4985
2375.000000 0.4991 0.4998 0.5004 0.5010 0.5017
2370.000000 0.5024 0.5030 0.5036 0.5042 0.5049
2365.000000 0.5055 0.5062 0.5070 0.5079 0.5087
2360.000000 0.5096 0.5104 0.5112 0.5121 0.5130
2355.000000 0.5138 0.5147 0.5155 0.5164 0.5173
2350.000000 0.5182 0.5192 0.5203 0.5214 0.5226
2345.000000 0.5237 0.5249 0.5260 0.5272 0.5283
2340.000000 0.5294 0.5302 0.5310 0.5318 0.5326
2335.000000 0.5334 0.5343 0.5353 0.5362 0.5373
2330.000000 0.5383 0.5393 0.5404 0.5414 0.5424
2325.000000 0.5434 0.5445 0.5456 0.5467 0.5484
2320.000000 0.5502 0.5523 0.5545 0.5569 0.5594
2315.000000 0.5618 0.5643 0.5654 0.5665 0.5666
2310.000000 0.5667 0.5667 0.5667 0.5667 0.5667
2305.000000 0.5666 0.5665 0.5664 0.5664 0.5665
2300.000000 0.5666 0.5667 0.5668 0.5669 0.5670
2295.000000 0.5671 0.5672 0.5673 0.5674 0.5675
2290.000000 0.5676 0.5676 0.5677 0.5678 0.5679
2285.000000 0.5679 0.5680 0.5681 0.5682 0.5683
2280.000000 0.5684 0.5687 0.5691 0.5697 0.5703
2275.000000 0.5709 0.5715 0.5721 0.5727 0.5735
2270.000000 0.5744 0.5757 0.5770 0.5783 0.5797
2265.000000 0.5810 0.5823 0.5827 0.5831 0.5833
2260.000000 0.5835 0.5837 0.5839 0.5841 0.5843
2255.000000 0.5845 0.5847 0.5849 0.5851 0.5853
2250.000000 0.5855 0.5859 0.5862 0.5867 0.5872
2245.000000 0.5876 0.5881 0.5885 0.5890 0.5895
2240.000000 0.5900 0.5906 0.5912 0.5918 0.5924
2235.000000 0.5929 0.5935 0.5940 0.5946 0.5951
2230.000000 0.5956 0.5960 0.5967 0.5972 0.5977
2225.000000 0.5982 0.5987 0.5992 0.5997 0.6002
2220.000000 0.6007 0.6012 0.6017 0.6021 0.6026
2215.000000 0.6030 0.6034 0.6038 0.6043 0.6047
2210.000000 0.6051 0.6054 0.6058 0.6060 0.6064
2205.000000 0.6066 0.6069 0.6071 0.6074 0.6076
2200.000000 0.6079 0.6081 0.6084 0.6086 0.6089
2195.000000 0.6091 0.6094 0.6093 0.6093 0.6086
2190.000000 0.6080 0.6074 0.6068 0.6062 0.6058
2185.000000 0.6058 0.6059 0.6059 0.6060 0.6060
2180.000000 0.6060 0.6060 0.6062 0.6062 0.6062
2175.000000 0.6064 0.6065 0.6065 0.6066 0.6067
2170.000000 0.6068 0.6069 0.6070 0.6071 0.6072
2165.000000 0.6072 0.6073 0.6073 0.6074 0.6074
2160.000000 0.6075 0.6075 0.6076 0.6076 0.6076
2155.000000 0.6076 0.6076 0.6077 0.6078 0.6078
2150.000000 0.6078 0.6078 0.6079 0.6079 0.6080
2145.000000 0.6080 0.6081 0.6081 0.6081 0.6081
2140.000000 0.6082 0.6082 0.6083 0.6083 0.6083
2135.000000 0.6081 0.6079 0.6076 0.6074 0.6071
2130.000000 0.6069 0.6065 0.6062 0.6058 0.6055
2125.000000 0.6051 0.6047 0.6041 0.6035 0.6025
2120.000000 0.6015 0.6005 0.5996 0.5985 0.5974
2115.000000 0.5959 0.5944 0.5929 0.5915 0.5900
2110.000000 0.5885 0.5874 0.5862 0.5852 0.5842
2105.000000 0.5831 0.5821 0.5810 0.5800 0.5791
2100.000000 0.5782 0.5772 0.5762 0.5756 0.5750
2095.000000 0.5747 0.5744 0.5740 0.5737 0.5733
2090.000000 0.5730 0.5726 0.5722 0.5716 0.5710
2085.000000 0.5699 0.5688 0.5677 0.5666 0.5648
2080.000000 0.5631 0.5612 0.5596 0.5577 0.5559
2075.000000 0.5540 0.5521 0.5506 0.5492 0.5477
2070.000000 0.5462 0.5442 0.5422 0.5402 0.5382
2065.000000 0.5360 0.5341 0.5321 0.5301 0.5280
2060.000000 0.5260 0.5240 0.5220 0.5199 0.5179
2055.000000 0.5159 0.5139 0.5118 0.5098 0.5012
2050.000000 0.4928 0.4891 0.4854 0.4849 0.4844
2045.000000 0.4839 0.4835 0.4830 0.4825 0.4820
2040.000000 0.4816 0.4812 0.4810 0.4809 0.4809
2035.000000 0.4808 0.4807 0.4806 0.4805 0.4804
2030.000000 0.4804 0.4802 0.4801 0.4799 0.4798
2025.000000 0.4796 0.4795 0.4793 0.4792 0.4790
2020.000000 0.4788 0.4786 0.4785 0.4783 0.4821
2015.000000 0.4780 0.4779 0.4777 0.4776 0.4775
2010.000000 0.4774 0.4772 0.4771 0.4769 0.4768
2005.000000 0.4766 0.4765 0.4762 0.4760 0.4759
2000.000000 0.4758 0.4764 0.4769 0.4774 0.4780
1995.000000 0.4791 0.4802 0.4812 0.4825 0.4842
1990.000000 0.4858 0.4875 0.4917 0.4956 0.4968
1985.000000 0.4979 0.4990 0.4994 0.4997 0.5012
1980.000000 0.5029 0.5046 0.5062 0.5086 0.5109
1975.000000 0.5132 0.5165 0.5172 0.5174 0.5176
1970.000000 0.5178 0.5180 0.5181 0.5183 0.5197
1965.000000 0.5230 0.5266 0.5304 0.5316 0.5327
1960.000000 0.5335 0.5339 0.5343 0.5352 0.5364
1955.000000 0.5375 0.5386 0.5398 0.5425 0.5452
1950.000000 0.5468 0.5478 0.5488 0.5492 0.5495
1945.000000 0.5498 0.5500 0.5508 0.5521 0.5533
1940.000000 0.5545 0.5560 0.5574 0.5587 0.5587
1935.000000 0.5586 0.5586 0.5586 0.5587 0.5589
1930.000000 0.5591 0.5593 0.5595 0.5604 0.5619
1925.000000 0.5634 0.5649 0.5664 0.5682 0.5702
1920.000000 0.5723 0.5743 0.5765 0.5786 0.5808
1915.000000 0.5827 0.5843 0.5860 0.5877 0.5894
1910.000000 0.5908 0.5919 0.5930 0.5941 0.5952
1905.000000 0.5964 0.5987 0.6010 0.6033 0.6055
1900.000000 0.6070 0.6086 0.6101 0.6110 0.6122
1895.000000 0.6132 0.6143 0.6153 0.6164 0.6170
1890.000000 0.6173 0.6176 0.6180 0.6183 0.6186
1885.000000 0.6189 0.6192 0.6195 0.6198 0.6201
1880.000000 0.6204 0.6207 0.6210 0.6214 0.6217
1875.000000 0.6222 0.6229 0.6236 0.6243 0.6251
1870.000000 0.6258 0.6265 0.6272 0.6279 0.6286
1865.000000 0.6293 0.6300 0.6307 0.6315 0.6322
1860.000000 0.6329 0.6338 0.6347 0.6356 0.6365
1855.000000 0.6374 0.6382 0.6391 0.6400 0.6408
1850.000000 0.6418 0.6426 0.6435 0.6444 0.6453
1845.000000 0.6458 0.6465 0.6471 0.6476 0.6482
1840.000000 0.6487 0.6492 0.6497 0.6501 0.6507
1835.000000 0.6511 0.6519 0.6528 0.6539 0.6549
1830.000000 0.6558 0.6581 0.6601 0.6621 0.6639
1825.000000 0.6655 0.6658 0.6662 0.6668 0.6671
1820.000000 0.6676 0.6684 0.6694 0.6704 0.6714
1815.000000 0.6722 0.6733 0.6743 0.6753 0.6762
1810.000000 0.6772 0.6783 0.6792 0.6799 0.6806
1805.000000 0.6811 0.6818 0.6825 0.6833 0.6837
1800.000000 0.6842 0.6848 0.6854 0.6861 0.6867
1795.000000 0.6872 0.6878 0.6878 0.6878 0.6878
1790.000000 0.6880 0.6880 0.6880 0.6878 0.6875
1785.000000 0.6874 0.6871 0.6868 0.6867 0.6864
1780.000000 0.6861 0.6858 0.6856 0.6854 0.6851
1775.000000 0.6850 0.6848 0.6848 0.6848 0.6849
1770.000000 0.6850 0.6851 0.6853 0.6854 0.6855
1765.000000 0.6856 0.6858 0.6861 0.6864 0.6867
1760.000000 0.6868 0.6871 0.6871 0.6874 0.6876
1755.000000 0.6876 0.6875 0.6875 0.6875 0.6874
1750.000000 0.6874 0.6874 0.6875 0.6875 0.6876
1745.000000 0.6876 0.6876 0.6869 0.6862 0.6856
1740.000000 0.6849 0.6840 0.6832 0.6824 0.6815
1735.000000 0.6808 0.6799 0.6789 0.6778 0.6768
1730.000000 0.6760 0.6750 0.6737 0.6721 0.6707
1725.000000 0.6691 0.6672 0.6651 0.6631 0.6619
1720.000000 0.6608 0.6599 0.6593 0.6589 0.6586
1715.000000 0.6593 0.6601 0.6603 0.6604 0.6605
1710.000000 0.6596 0.6578 0.6560 0.6533 0.6505
1705.000000 0.6471 0.6439 0.6407 0.6371 0.6328
1700.000000 0.6286 0.6251 0.6216 0.6188 0.6159
1695.000000 0.6138 0.6121 0.6103 0.6085 0.6067
1690.000000 0.6015 0.5851 0.5793 0.5783 0.5774
1685.000000 0.5762 0.5752 0.5741 0.5731 0.5714
1680.000000 0.5640 0.5562 0.5485 0.5401 0.5315
1675.000000 0.5121 0.5088 0.5055 0.5010 0.4938
1670.000000 0.4865 0.4802 0.4749 0.4696 0.4615
1665.000000 0.4519 0.4337 0.4293 0.4102 0.4058
1660.000000 0.4032 0.4010 0.3982 0.3782 0.3730
1655.000000 0.3718 0.3705 0.3693 0.3682 0.3673
1650.000000 0.3662 0.3652 0.3641 0.3628 0.3590
1645.000000 0.3470 0.3407 0.3316 0.3275 0.3176
1640.000000 0.2973 0.2784 0.2467 0.2205 0.2170
1635.000000 0.2146 0.2109 0.2122 0.2121 0.2119
1630.000000 0.2133 0.2147 0.2162 0.2202 0.2247
1625.000000 0.2269 0.2279 0.2305 0.2284 0.2284
1620.000000 0.2279 0.2275 0.2270 0.2265 0.2260
1615.000000 0.2254 0.2249 0.2244 0.2238 0.2232
1610.000000 0.2198 0.2063 0.1927 0.1792 0.1657
1605.000000 0.1521 0.1386 0.1362 0.1364 0.1456
1600.000000 0.1574 0.1692 0.1810 0.1929 0.2046
1595.000000 0.2165 0.2283 0.2401 0.2520 0.2638
1590.000000 0.2756 0.2871 0.2884 0.2913 0.2901
1585.000000 0.2906 0.2796 0.2678 0.2561 0.2443
1580.000000 0.2325 0.2208 0.2090 0.2034 0.2062
1575.000000 0.2072 0.2088 0.2117 0.2157 0.2314
1570.000000 0.2502 0.2659 0.2816 0.2973 0.3130
1565.000000 0.3287 0.3444 0.3600 0.3758 0.3916
1560.000000 0.4073 0.4230 0.4387 0.4508 0.4529
1555.000000 0.4547 0.4570 0.4604 0.4639 0.4835
1550.000000 0.4966 0.5072 0.5162 0.5293 0.5423
1545.000000 0.5474 0.5498 0.5550 0.5632 0.5646
1540.000000 0.5659 0.5674 0.5692 0.5710 0.5742
1535.000000 0.5805 0.5871 0.5925 0.5939 0.5939
1530.000000 0.5939 0.5938 0.5927 0.5904 0.5881
1525.000000 0.5856 0.5844 0.5844 0.5848 0.5853
1520.000000 0.5858 0.5864 0.5868 0.5879 0.5877
1515.000000 0.5877 0.5866 0.5844 0.5702 0.5448
1510.000000 0.5237 0.5027 0.4817 0.4607 0.4397
1505.000000 0.4182 0.4047 0.4025 0.4004 0.3980
1500.000000 0.2321 0.1954 0.1939 0.1925 0.1881
1495.000000 0.1908 0.1904 0.1911 0.1920 0.1962
1490.000000 0.2026 0.2181 0.2468 0.2755 0.3042
1485.000000 0.3329 0.3614 0.3902 0.4184 0.4195
1480.000000 0.4197 0.4192 0.4178 0.4165 0.4154
1475.000000 0.4142 0.4158 0.4182 0.4206 0.4230
1470.000000 0.4256 0.4281 0.4306 0.4328 0.4391
1465.000000 0.4343 0.4325 0.4308 0.4279 0.4251
1460.000000 0.4242 0.4248 0.4255 0.4262 0.4274
1455.000000 0.4287 0.4295 0.4290 0.4285 0.4280
1450.000000 0.4254 0.4142 0.4090 0.4062 0.4054
1445.000000 0.4045 0.4040 0.4036 0.4240 0.4504
1440.000000 0.4768 0.5032 0.5237 0.5322 0.5396
1435.000000 0.5471 0.5515 0.5550 0.5539 0.5542
1430.000000 0.5517 0.4885 0.3684 0.3695 0.3695
1425.000000 0.3695 0.4057 0.4347 0.4636 0.5005
1420.000000 0.4975 0.4973 0.4678 0.4315 0.3952
1415.000000 0.3588 0.3225 0.2861 0.2498 0.2344
1410.000000 0.2345 0.2345 0.2370 0.2428 0.2507
1405.000000 0.2595 0.2684 0.2830 0.2984 0.3091
1400.000000 0.3210 0.3371 0.3566 0.3764 0.3964
1395.000000 0.4162 0.4360 0.4559 0.4758 0.4956
1390.000000 0.5155 0.5354 0.5552 0.5702 0.5757
1385.000000 0.5768 0.5782 0.5730 0.5494 0.5440
1380.000000 0.5409 0.5382 0.5356 0.5331 0.5306
1375.000000 0.5020 0.4733 0.4469 0.4462 0.4474
1370.000000 0.4577 0.4724 0.4840 0.4929 0.5025
1365.000000 0.5115 0.5196 0.5269 0.5334 0.5421
1360.000000 0.5488 0.5515 0.5530 0.5543 0.5570
1355.000000 0.5550 0.5546 0.5523 0.5485 0.5429
1350.000000 0.5334 0.5229 0.5121 0.4966 0.4732
1345.000000 0.4362 0.4236 0.4029 0.3584 0.3139
1340.000000 0.2695 0.2250 0.2106 0.1984 0.1864
1335.000000 0.1793 0.1726 0.1637 0.1511 0.1478
1330.000000 0.1471 0.1553 0.1693 0.1814 0.1976
1325.000000 0.2258 0.2709 0.3160 0.3610 0.4060
1320.000000 0.4499 0.4627 0.4755 0.4883 0.5010
1315.000000 0.5139 0.5268 0.5396 0.5457 0.5446
1310.000000 0.5446 0.5193 0.4856 0.4518 0.4160
1305.000000 0.4175 0.4279 0.4408 0.4537 0.4666
1300.000000 0.4795 0.4924 0.5053 0.5182 0.5310
1295.000000 0.5439 0.5568 0.5581 0.5571 0.5560
1290.000000 0.5442 0.5360 0.5295 0.5108 0.4722
1285.000000 0.4337 0.3952 0.3776 0.3802 0.3780
1280.000000 0.4410 0.4716 0.5020 0.5325 0.5605
1275.000000 0.5699 0.5917 0.6009 0.6081 0.6152
1270.000000 0.6218 0.6281 0.6331 0.6370 0.6393
1265.000000 0.6401 0.6401 0.6403 0.6397 0.6383
1260.000000 0.6353 0.6242 0.6125 0.6006 0.6006
1255.000000 0.6006 0.6146 0.6287 0.6426 0.6517
1250.000000 0.6567 0.6618 0.6669 0.6711 0.6724
1245.000000 0.6728 0.6733 0.6738 0.6743 0.6764
1240.000000 0.6784 0.6805 0.6830 0.6854 0.6876
1235.000000 0.6894 0.6911 0.6928 0.6947 0.6960
1230.000000 0.6967 0.6974 0.6982 0.6989 0.6988
1225.000000 0.6987 0.6986 0.6985 0.6988 0.6990
1220.000000 0.6993 0.6995 0.6998 0.7001 0.7008
1215.000000 0.7015 0.7025 0.7033 0.7041 0.7046
1210.000000 0.7048 0.7051 0.7046 0.7091 0.7028
1205.000000 0.7010 0.6990 0.6949 0.6900 0.6855
1200.000000 0.6846 0.6845 0.6854 0.6889 0.6925
1195.000000 0.6949 0.6961 0.6974 0.6971 0.6961
1190.000000 0.6950 0.6931 0.6761 0.6456 0.6152
1185.000000 0.5847 0.5543 0.5335 0.5332 0.5414
1180.000000 0.5550 0.5686 0.5822 0.5958 0.6095
1175.000000 0.6231 0.6367 0.6432 0.6454 0.6380
1170.000000 0.6217 0.6054 0.5891 0.5727 0.5564
1165.000000 0.5468 0.5467 0.5523 0.5637 0.5751
1160.000000 0.5865 0.5947 0.6007 0.6067 0.6127
1155.000000 0.6187 0.6247 0.6307 0.6366 0.6425
1150.000000 0.6464 0.6480 0.6471 0.6468 0.6455
1145.000000 0.6426 0.5983 0.5519 0.5054 0.4589
1140.000000 0.4290 0.4290 0.4481 0.4691 0.4901
1135.000000 0.5110 0.5320 0.5529 0.5739 0.5948
1130.000000 0.6158 0.6368 0.6518 0.6535 0.6388
1125.000000 0.6151 0.5915 0.5678 0.5441 0.5205
1120.000000 0.5089 0.5084 0.5133 0.5368 0.5602
1115.000000 0.5837 0.6072 0.6251 0.6310 0.6387
1110.000000 0.6511 0.6621 0.6711 0.6798 0.6881
1105.000000 0.6919 0.6944 0.6962 0.6975 0.6987
1100.000000 0.6999 0.7008 0.7012 0.7012 0.7032
1095.000000 0.7008 0.7007 0.7004 0.6990 0.6971
1090.000000 0.6951 0.6937 0.6922 0.6910 0.6895
1085.000000 0.6876 0.6858 0.6819 0.6675 0.6568
1080.000000 0.6462 0.6357 0.6251 0.6146 0.6040
1075.000000 0.5938 0.5919 0.5910 0.5938 0.6001
1070.000000 0.6062 0.6103 0.6103 0.6104 0.5833
1065.000000 0.5480 0.5127 0.4775 0.4422 0.4375
1060.000000 0.4350 0.4999 0.5362 0.5725 0.6088
1055.000000 0.6274 0.6348 0.6421 0.6503 0.6586
1050.000000 0.6654 0.6715 0.6776 0.6803 0.6815
1045.000000 0.6832 0.6850 0.6884 0.6924 0.6975
1040.000000 0.7014 0.7038 0.7045 0.7053 0.7060
1035.000000 0.7068 0.7075 0.7084 0.7096 0.7107
1030.000000 0.7118 0.7131 0.7142 0.7154 0.7168
1025.000000 0.7182 0.7196 0.7211 0.7225 0.7246
1020.000000 0.7271 0.7299 0.7328 0.7358 0.7401
1015.000000 0.7404 0.7406 0.7408 0.7411 0.7414
1010.000000 0.7417 0.7421 0.7424 0.7428 0.7431
1005.000000 0.7436 0.7442 0.7456 0.7474 0.7491
1000.000000 0.7511 0.7535 0.7558 0.7580 0.7601
995.000000 0.7622 0.7641 0.7658 0.7675 0.7690
990.000000 0.7697 0.7703 0.7721 0.7712 0.7715
985.000000 0.7718 0.7710 0.7701 0.7683 0.7664
980.000000 0.7635 0.7584 0.7535 0.7483 0.7375
975.000000 0.7165 0.6954 0.6806 0.6808 0.6821
970.000000 0.6907 0.6981 0.7056 0.7130 0.7251
965.000000 0.7225 0.7204 0.7006 0.6569 0.6135
960.000000 0.5699 0.5262 0.4827 0.4391 0.4364
955.000000 0.4745 0.5012 0.5279 0.5546 0.5812
950.000000 0.6080 0.6347 0.6614 0.6880 0.6978
945.000000 0.7050 0.7111 0.7168 0.7365 0.7485
940.000000 0.7514 0.7543 0.7571 0.7599 0.7625
935.000000 0.7653 0.7680 0.7706 0.7726 0.7733
930.000000 0.7765 0.7738 0.7725 0.7704 0.7540
925.000000 0.7349 0.7157 0.6965 0.6772 0.6581
920.000000 0.6390 0.6198 0.6006 0.5814 0.5623
915.000000 0.5448 0.5454 0.5428 0.5425 0.5578
910.000000 0.5745 0.5912 0.6080 0.6247 0.6405
905.000000 0.6501 0.6592 0.6662 0.6728 0.6780
900.000000 0.6826 0.6868 0.6899 0.6911 0.6924
895.000000 0.6941 0.6960 0.6980 0.7017 0.7061
890.000000 0.7104 0.7146 0.7199 0.7245 0.7278
885.000000 0.7301 0.7321 0.7341 0.7351 0.7361
880.000000 0.7368 0.7358 0.7051 0.6651 0.6252
875.000000 0.5852 0.5452 0.5118 0.5079 0.5039
870.000000 0.4954 0.4888 0.4722 0.4410 0.4100
865.000000 0.3790 0.3712 0.3742 0.4229 0.4628
860.000000 0.5027 0.5425 0.5824 0.6034 0.6119
855.000000 0.6308 0.6455 0.6621 0.6668 0.6683
850.000000 0.6691 0.6700 0.6704 0.6705 0.6706
845.000000 0.6704 0.6690 0.6675 0.6654 0.6621
840.000000 0.6580 0.6537 0.6494 0.6384 0.6194
835.000000 0.6049 0.5904 0.5759 0.5614 0.5525
830.000000 0.5519 0.5544 0.5618 0.5693 0.5767
825.000000 0.5815 0.5817 0.5517 0.5028 0.4539
820.000000 0.4101 0.4126 0.4307 0.4490 0.4673
815.000000 0.4856 0.5039 0.5222 0.5405 0.5588
810.000000 0.5771 0.5954 0.6137 0.6320 0.6504
805.000000 0.6522 0.6316 0.5839 0.5392 0.5405
800.000000 0.5406 0.5759 0.6112 0.6465 0.6817
795.000000 0.7076 0.7158 0.7242 0.7322 0.7396
790.000000 0.7467 0.7512 0.7558 0.7604 0.7642
785.000000 0.7671 0.7703 0.7733 0.7762 0.7792
780.000000 0.7815 0.7841 0.7865 0.7878 0.7886
775.000000 0.7893 0.7900 0.7912 0.7932 0.7951
770.000000 0.7967 0.7980 0.7992 0.8004 0.8008
765.000000 0.8011 0.8015 0.8018 0.8021 0.8025
760.000000 0.8028 0.8032 0.8035 0.8037 0.8040
755.000000 0.8043 0.8046 0.8049 0.8050 0.8051
750.000000 0.8051 0.8051 0.8051 0.8053 0.8054
745.000000 0.8054 0.8055 0.8055 0.8055 0.8055
740.000000 0.8054 0.8053 0.8053 0.8051 0.8051
735.000000 0.8051 0.8051 0.8051 0.8053 0.8053
730.000000 0.8054 0.8054 0.8058 0.8061 0.8061
725.000000 0.8055 0.8049 0.8042 0.8036 0.8028
720.000000 0.8021 0.8012 0.8005 0.7997 0.7988
715.000000 0.7978 0.7965 0.7953 0.7940 0.7925
710.000000 0.7912 0.7893 0.7867 0.7842 0.7817
705.000000 0.7788 0.7754 0.7719 0.7684 0.7645
700.000000 0.7607 0.7564 0.7511 0.7458 0.7401
695.000000 0.7324 0.7237 0.6847 0.6202 0.6034
690.000000 0.6340 0.6711 0.7203 0.7318 0.7393
685.000000 0.7442 0.7483 0.7525 0.7567 0.7599
680.000000 0.7625 0.7647 0.7656 0.7664 0.7671
675.000000 0.7678 0.7682 0.7685 0.7688 0.7688
670.000000 0.7688 0.7688 0.7688 0.7687 0.7687
665.000000 0.7668 0.7668 0.7669 0.7636 0.7549
660.000000 0.7490 0.7455 0.7419 0.7390 0.7361
655.000000 0.7333 0.7287 0.7211 0.7083 0.6992
650.000000 0.6839 0.6740 0.6686 0.6634 0.6591
645.000000 0.6547 0.6498 0.6436 0.6356 0.6330
640.000000 0.6328 0.6344 0.6396 0.6448 0.6496
635.000000 0.6504 0.6511 0.6474 0.5966 0.5458
630.000000 0.4950 0.4672 0.4676 0.4775 0.4918
625.000000 0.5062 0.5205 0.4432 0.5491 0.5634
620.000000 0.5692 0.4597 0.4739 0.4881 0.5022
615.000000 0.5164 0.5306 0.5448 0.5568 0.5604
610.000000 0.5640 0.5676 0.5707 0.5725 0.5743
605.000000 0.5764 0.5790 0.5815 0.5841 0.5867
600.000000 0.5942 0.6016 0.6077 0.6137 0.6195
595.000000 0.6252 0.6300 0.6317 0.6335 0.6352
590.000000 0.6384 0.6424 0.6460 0.6480 0.6500
585.000000 0.6519 0.6541 0.6561 0.6581 0.6600
580.000000 0.6615 0.6628 0.6642 0.6648 0.6654
575.000000 0.6668 0.6648 0.6621 0.6595 0.6564
570.000000 0.6521 0.6478 0.6433 0.6387 0.6341
565.000000 0.6294 0.6249 0.6205 0.6160 0.6115
560.000000 0.6059 0.5967 0.5876 0.5809 0.5744
555.000000 0.5686 0.5629 0.5576 0.5527 0.5502
550.000000 0.5485 0.5485 0.5485 0.5487 0.5488
545.000000 0.5494 0.5504 0.5512 0.5518 0.5519
540.000000 0.5520 0.5514 0.5503 0.5487 0.5472
535.000000 0.5402 0.5352 0.5302 0.5252 0.5202
530.000000 0.5152 0.5102 0.5052 0.5002 0.4957
525.000000 0.4932 0.4950 0.4954 0.4962 0.5034
520.000000 0.5139 0.5199 0.5298 0.5432 0.5565
515.000000 0.5699 0.5832 0.5966 0.6099 0.6233
510.000000 0.6352 0.6417 0.6482 0.6548 0.6611
505.000000 0.6651 0.6675 0.6700 0.6724 0.6749
500.000000 0.6772 0.6797 0.6815 0.6825 0.6825
495.000000 0.6825 0.6807 0.6790 0.6772 0.6755
490.000000 0.6736 0.6718 0.6692 0.6661 0.6645
485.000000 0.6634 0.6634 0.6634 0.6636 0.6665
480.000000 0.6707 0.6748 0.6799 0.6853 0.6907
475.000000 0.6942 0.6975 0.7006 0.7022 0.7041
470.000000 0.7058 0.7072 0.7083 0.7092 0.7101
465.000000 0.7111 0.7118 0.7125 0.7134 0.7142
460.000000 0.7153 0.7162 0.7171 0.7180 0.7188
455.000000 0.7197 0.7205 0.7212 0.7218 0.7225
450.000000 0.7225 0.7224 0.7221 0.7218 0.7215
445.000000 0.7212 0.7210 0.7206 0.7203 0.7198
440.000000 0.7193 0.7175 0.7149 0.7111 0.7062
435.000000 0.7012 0.6962 0.6889 0.6801 0.6747
430.000000 0.6701 0.6680 0.6674 0.6675 0.6683
425.000000 0.6701 0.6725 0.6748 0.6764 0.6780
420.000000 0.6795 0.6808 0.6828 0.6858 0.6882
415.000000 0.6904 0.6919 0.6919 0.6919 0.6818
410.000000 0.6718 0.6617 0.6549 0.6544 0.6539
405.000000 0.6525 0.6501 0.6478 0.6455 0.6419
400.000000 0.6368 0.6320 0.6286 0.6256 0.6249
395.000000 0.6241 0.6233 0.6226 0.6221 0.6216
390.000000 0.6184 0.6126 0.5903 0.5632 0.5407
385.000000 0.5338 0.5291 0.5251 0.5228 0.5204
380.000000 0.5170 0.5041 0.4850 0.4658 0.4467
375.000000 0.4276 0.4127 0.4125 0.4124 0.4123
370.000000 0.4121 0.4120 0.4119 0.4117 0.4132
365.000000 0.4165 0.4204 0.4214 0.4222 0.4226
360.000000 0.4256 0.4218 0.4209 0.4193 0.4176
355.000000 0.4160 0.4134 0.4104 0.4074 0.4045
350.000000 0.4003 0.3955 0.3908 0.3859 0.3745
345.000000 0.3504 0.3348 0.3253 0.3158 0.3082
340.000000 0.3014 0.2945 0.2873 0.2799 0.2725
335.000000 0.2628 0.2473 0.2277 0.2257 0.2249
330.000000 0.2242 0.2193 0.2142 0.2134 0.2128
325.000000 0.2121 0.2114 0.2107 0.2090 0.2053
320.000000 0.2016 0.1979 0.1926 0.1872 0.1818
315.000000 0.1765 0.1707 0.1648 0.1589 0.1530
310.000000 0.1470 0.1418 0.1375 0.1332 0.1289
305.000000 0.1268 0.1274 0.1279 0.1285 0.1291
300.000000 0.1296 0.1304 0.1310 0.1316 0.1316
295.000000 0.1315 0.1294 0.1273 0.1252 0.1231
290.000000 0.1210 0.1189 0.1168 0.1155 0.1144
285.000000 0.1141 0.1148 0.1155 0.1163 0.1170
280.000000 0.1179 0.1196 0.1213 0.1230 0.1248
275.000000 0.1261 0.1254 0.1246 0.1238 0.1231
270.000000 0.1223 0.1215 0.1208 0.1203 0.1196
265.000000 0.1191 0.1186 0.1180 0.1174 0.1169
260.000000 0.1163 0.1160 0.1160 0.1160 0.1159
255.000000 0.1159 0.1159 0.1159 0.1159 0.1159
250.000000 0.1159 0.1159 0.1159 0.1161 0.1170
245.000000 0.1179 0.1188 0.1196 0.1206 0.1216
240.000000 0.1225 0.1234 0.1242 0.1252 0.1261
235.000000 0.1270 0.1273 0.1277 0.1281 0.1284
230.000000 0.1288 0.1292 0.1296 0.1299 0.1303
225.000000 0.1302 0.1299 0.1296 0.1296 0.1295
220.000000 0.1307 0.1319 0.1331 0.1342 0.1351
215.000000 0.1353 0.1355 0.1357 0.1359 0.1361
210.000000 0.1364 0.1373 0.1382 0.1391 0.1399
205.000000 0.1406 0.1413 0.1419 0.1426
##END=
