##TITLE=Phenol, 2-dimethylaminomethyl-3,5-dimethyl-, hydrochloride
##JCAMP-DX=4.24
##DATA TYPE=INFRARED SPECTRUM
##CLASS=COBLENTZ III
##ORIGIN=BRITISH PETROLEUM CO. LTD., ENGLAND
##OWNER=Copyright (C) 1987 by the Coblentz Society
Collection (C) 2018 copyright by the U.S. Secretary of Commerce
on behalf of the United States of America. All rights reserved.
##DATE=1972/07/06
##NAMES=2-[(dimethylamino)methyl]-3,5-dimethylphenol hydrochloride
Phenyl, 3,5-dimethyl-2-((dimethyl-amino)methyl)-, hydrochloride
##MOLFORM=C11 H18 Cl N O
##SOURCE REFERENCE=COBLENTZ NO. 9385
##$NIST ID=B6009385
##$NIST SOURCE=COBLENTZ
##$NIST IMAGE=cob9385
##SPECTROMETER/DATA SYSTEM=PERKIN-ELMER 157
##STATE=SOLID (KBr DISC, 0.8% WT.)
$$ HCl RUN IN KBr MAY CONTAIN SOME HBr
$$ REF. Can. J. Spec., 18,4,101, '73 C. S. DOUSE and P. B. TOOKE
##SAMPLING PROCEDURE=TRANSMISSION
##RESOLUTION=2
##DATA PROCESSING=DIGITIZED BY COBLENTZ SOCIETY (BATCH II) FROM HARD COPY
##XUNITS=1/CM
##YUNITS=TRANSMITTANCE
##XFACTOR=1.0
##YFACTOR=1
##FIRSTX=668
##LASTX=4000
##FIRSTY=0.507
##MAXX=4000
##MINX=668
##MAXY=0.8529
##MINY=0.0231
##NPOINTS=3333
##XYDATA=(X++(Y..Y))
668.000000 0.5070 0.5004 0.4985 0.4973 0.4983
673.000000 0.4997 0.5021 0.5071 0.5158 0.5297
678.000000 0.5473 0.5568 0.5616 0.5647 0.5669
683.000000 0.5685 0.5678 0.5675 0.5656 0.5630
688.000000 0.5591 0.5531 0.5452 0.5361 0.5262
693.000000 0.5148 0.4983 0.4810 0.4582 0.4277
698.000000 0.4035 0.3947 0.3928 0.4060 0.4121
703.000000 0.4118 0.4123 0.3804 0.3598 0.3392
708.000000 0.3187 0.2983 0.2781 0.2633 0.2583
713.000000 0.2574 0.2999 0.3477 0.3954 0.4429
718.000000 0.4903 0.5377 0.5688 0.5728 0.5639
723.000000 0.5365 0.5021 0.4678 0.4335 0.3994
728.000000 0.3654 0.3315 0.2976 0.2695 0.2582
733.000000 0.2564 0.2605 0.2867 0.3194 0.3519
738.000000 0.3845 0.4169 0.4493 0.4758 0.4988
743.000000 0.5239 0.5383 0.5506 0.5637 0.5735
748.000000 0.5783 0.5798 0.5788 0.5774 0.5762
753.000000 0.5807 0.5890 0.6067 0.6271 0.6423
758.000000 0.6600 0.6781 0.6867 0.6937 0.7014
763.000000 0.7072 0.7110 0.7142 0.7162 0.7182
768.000000 0.7204 0.7228 0.7248 0.7263 0.7275
773.000000 0.7281 0.7282 0.7280 0.7279 0.7278
778.000000 0.7277 0.7314 0.7276 0.7276 0.7275
783.000000 0.7274 0.7272 0.7270 0.7267 0.7263
788.000000 0.7259 0.7251 0.7225 0.7188 0.7174
793.000000 0.7128 0.7095 0.7087 0.7080 0.7076
798.000000 0.7067 0.7051 0.7033 0.7006 0.6978
803.000000 0.6948 0.6922 0.6901 0.6890 0.6883
808.000000 0.6881 0.6878 0.6873 0.6868 0.6832
813.000000 0.6741 0.6640 0.6521 0.6396 0.6272
818.000000 0.6121 0.6012 0.5799 0.5358 0.5056
823.000000 0.4558 0.4092 0.3578 0.3032 0.2487
828.000000 0.2069 0.2041 0.2312 0.2769 0.3224
833.000000 0.3678 0.4165 0.4448 0.4484 0.4493
838.000000 0.4490 0.4482 0.4476 0.4507 0.4581
843.000000 0.4639 0.4687 0.4731 0.4779 0.4852
848.000000 0.4939 0.5043 0.5141 0.5282 0.5353
853.000000 0.5367 0.5370 0.5394 0.5348 0.5278
858.000000 0.5164 0.4765 0.4342 0.3888 0.3435
863.000000 0.2982 0.2530 0.2080 0.1643 0.1315
868.000000 0.1130 0.0959 0.0940 0.0940 0.1590
873.000000 0.2189 0.2787 0.3384 0.3979 0.4572
878.000000 0.5165 0.5756 0.6241 0.6374 0.6405
883.000000 0.6412 0.6415 0.6435 0.6398 0.6373
888.000000 0.6325 0.6273 0.6207 0.6106 0.6022
893.000000 0.5951 0.5861 0.5739 0.5632 0.5503
898.000000 0.5358 0.5144 0.4902 0.4441 0.3853
903.000000 0.3265 0.2679 0.2088 0.1788 0.1783
908.000000 0.2138 0.2691 0.3242 0.3792 0.4341
913.000000 0.4889 0.5436 0.5839 0.5856 0.5860
918.000000 0.5807 0.5617 0.5280 0.4944 0.4608
923.000000 0.4273 0.3939 0.3606 0.3273 0.2827
928.000000 0.2389 0.1952 0.1517 0.1082 0.0910
933.000000 0.0791 0.0698 0.0709 0.0721 0.1015
938.000000 0.1509 0.2001 0.2492 0.2982 0.3471
943.000000 0.3959 0.4446 0.4846 0.4849 0.4751
948.000000 0.4496 0.4241 0.3987 0.3739 0.3680
953.000000 0.3678 0.4150 0.4594 0.5036 0.5478
958.000000 0.5919 0.6291 0.6442 0.6480 0.6485
963.000000 0.6487 0.6463 0.6358 0.6277 0.6147
968.000000 0.6029 0.5948 0.5960 0.6021 0.6124
973.000000 0.6226 0.6268 0.6274 0.6236 0.6207
978.000000 0.6162 0.6118 0.6100 0.6090 0.6074
983.000000 0.5976 0.5960 0.5951 0.5945 0.5908
988.000000 0.5840 0.5771 0.5705 0.5648 0.5588
993.000000 0.5553 0.5550 0.5558 0.5564 0.5570
998.000000 0.5572 0.5571 0.5566 0.5539 0.5308
1003.000000 0.5018 0.4728 0.4439 0.4151 0.3863
1008.000000 0.3576 0.3289 0.3003 0.2732 0.2687
1013.000000 0.2684 0.2858 0.3117 0.3375 0.3632
1018.000000 0.3889 0.4146 0.4402 0.4657 0.4804
1023.000000 0.4831 0.4827 0.4826 0.4810 0.4674
1028.000000 0.4452 0.4229 0.4006 0.3785 0.3535
1033.000000 0.3454 0.3440 0.3480 0.3711 0.3985
1038.000000 0.4259 0.4532 0.4804 0.5042 0.5082
1043.000000 0.5095 0.5099 0.5082 0.5052 0.5006
1048.000000 0.4910 0.4782 0.4655 0.4528 0.4401
1053.000000 0.4274 0.4148 0.4022 0.3923 0.3786
1058.000000 0.3749 0.3736 0.3736 0.3762 0.3781
1063.000000 0.3801 0.3821 0.3826 0.3819 0.3804
1068.000000 0.3781 0.3690 0.3292 0.2728 0.2248
1073.000000 0.1774 0.1418 0.1065 0.0714 0.0463
1078.000000 0.0405 0.0392 0.0434 0.0547 0.0892
1083.000000 0.1262 0.1632 0.2001 0.2369 0.2736
1088.000000 0.3103 0.3469 0.3835 0.4199 0.4563
1093.000000 0.4927 0.5289 0.5651 0.5863 0.5905
1098.000000 0.5926 0.5931 0.5929 0.5918 0.5904
1103.000000 0.5861 0.5816 0.5766 0.5723 0.5676
1108.000000 0.5619 0.5569 0.5518 0.5461 0.5385
1113.000000 0.5286 0.5186 0.5098 0.4782 0.4647
1118.000000 0.4518 0.4375 0.4217 0.3830 0.3472
1123.000000 0.3097 0.2497 0.1892 0.1289 0.1024
1128.000000 0.0958 0.0920 0.0913 0.0928 0.0928
1133.000000 0.1359 0.1604 0.1849 0.2093 0.2339
1138.000000 0.2505 0.2611 0.2704 0.2793 0.2884
1143.000000 0.2986 0.3113 0.3270 0.3365 0.3401
1148.000000 0.3415 0.3427 0.3391 0.3272 0.3152
1153.000000 0.3034 0.2915 0.2796 0.2678 0.2560
1158.000000 0.2443 0.2325 0.2195 0.2085 0.1972
1163.000000 0.1828 0.1781 0.1770 0.1772 0.1925
1168.000000 0.2085 0.2244 0.2403 0.2544 0.2541
1173.000000 0.2550 0.2386 0.2230 0.2076 0.1921
1178.000000 0.1767 0.1637 0.1562 0.1515 0.1494
1183.000000 0.1489 0.1490 0.1515 0.1687 0.1972
1188.000000 0.2254 0.2537 0.2819 0.3100 0.3381
1193.000000 0.3662 0.3942 0.4101 0.4097 0.3949
1198.000000 0.3602 0.3254 0.2907 0.2561 0.2215
1203.000000 0.1870 0.1525 0.1181 0.0840 0.0705
1208.000000 0.0707 0.0833 0.1155 0.1475 0.1794
1213.000000 0.2113 0.2432 0.2750 0.3067 0.3384
1218.000000 0.3701 0.4017 0.4279 0.4267 0.4296
1223.000000 0.4071 0.3973 0.3876 0.3778 0.3680
1228.000000 0.3583 0.3488 0.3468 0.3581 0.3747
1233.000000 0.3825 0.3821 0.3769 0.3820 0.3340
1238.000000 0.3116 0.2892 0.2669 0.2447 0.2224
1243.000000 0.2002 0.1780 0.1559 0.1338 0.1206
1248.000000 0.1203 0.1212 0.1260 0.1315 0.1370
1253.000000 0.1425 0.1468 0.1468 0.1467 0.1455
1258.000000 0.1158 0.0918 0.0680 0.0470 0.0390
1263.000000 0.0349 0.0321 0.0306 0.0303 0.0307
1268.000000 0.0301 0.0349 0.0739 0.1165 0.1589
1273.000000 0.2013 0.2436 0.2859 0.3144 0.3182
1278.000000 0.3183 0.3164 0.3138 0.2902 0.2651
1283.000000 0.2401 0.2150 0.1901 0.1652 0.1403
1288.000000 0.1154 0.0906 0.0494 0.0383 0.0336
1293.000000 0.0284 0.0263 0.0256 0.0257 0.0265
1298.000000 0.0262 0.0602 0.0828 0.1054 0.1279
1303.000000 0.1504 0.1729 0.1953 0.2155 0.2270
1308.000000 0.2314 0.2343 0.2372 0.2402 0.2435
1313.000000 0.2471 0.2511 0.2561 0.2633 0.2727
1318.000000 0.2821 0.3272 0.3571 0.3591 0.3604
1323.000000 0.3597 0.3605 0.3572 0.3476 0.3379
1328.000000 0.3283 0.3186 0.3091 0.2995 0.2899
1333.000000 0.2803 0.2708 0.2619 0.2575 0.2551
1338.000000 0.2522 0.2492 0.2456 0.2396 0.2271
1343.000000 0.2173 0.2103 0.2048 0.1986 0.1929
1348.000000 0.1913 0.1897 0.1890 0.1886 0.1852
1353.000000 0.1759 0.1663 0.1568 0.1472 0.1376
1358.000000 0.1281 0.1186 0.1091 0.0989 0.0872
1363.000000 0.0852 0.0841 0.0845 0.0927 0.1012
1368.000000 0.1097 0.1182 0.1266 0.1339 0.1365
1373.000000 0.1379 0.1390 0.1398 0.1403 0.1407
1378.000000 0.1408 0.1410 0.1411 0.1412 0.1423
1383.000000 0.1412 0.1411 0.1410 0.1407 0.1405
1388.000000 0.1398 0.1378 0.1322 0.1176 0.1008
1393.000000 0.0718 0.0627 0.0561 0.0501 0.0445
1398.000000 0.0403 0.0366 0.0330 0.0299 0.0269
1403.000000 0.0251 0.0238 0.0235 0.0234 0.0231
1408.000000 0.0241 0.0248 0.0260 0.0298 0.0370
1413.000000 0.0496 0.0583 0.0650 0.0740 0.0828
1418.000000 0.0896 0.0963 0.1031 0.1099 0.1166
1423.000000 0.1257 0.1289 0.1298 0.1300 0.1309
1428.000000 0.1260 0.1224 0.1186 0.1146 0.1103
1433.000000 0.1060 0.1022 0.1009 0.1004 0.1001
1438.000000 0.0997 0.0992 0.0991 0.0989 0.0986
1443.000000 0.0981 0.0976 0.0970 0.0963 0.0956
1448.000000 0.0948 0.0938 0.0913 0.0881 0.0845
1453.000000 0.0815 0.0794 0.0768 0.0748 0.0734
1458.000000 0.0711 0.0676 0.0638 0.0619 0.0607
1463.000000 0.0606 0.0605 0.0605 0.0593 0.0685
1468.000000 0.0746 0.0783 0.0805 0.0820 0.0823
1473.000000 0.0821 0.0818 0.0814 0.0808 0.0804
1478.000000 0.0803 0.0805 0.0865 0.1109 0.1385
1483.000000 0.1661 0.1936 0.2211 0.2486 0.2979
1488.000000 0.3333 0.3490 0.3557 0.3616 0.3673
1493.000000 0.3724 0.3774 0.3813 0.3844 0.3874
1498.000000 0.3891 0.3908 0.3921 0.3926 0.3931
1503.000000 0.3934 0.3955 0.3922 0.3911 0.3883
1508.000000 0.3847 0.3793 0.3693 0.3539 0.3336
1513.000000 0.3133 0.2931 0.2728 0.2526 0.2325
1518.000000 0.2123 0.1922 0.1721 0.1549 0.1485
1523.000000 0.1496 0.1594 0.1879 0.2219 0.2559
1528.000000 0.2898 0.3237 0.3576 0.3913 0.4252
1533.000000 0.4559 0.4700 0.4816 0.4906 0.4979
1538.000000 0.5066 0.5132 0.5172 0.5203 0.5230
1543.000000 0.5280 0.5349 0.5442 0.5480 0.5492
1548.000000 0.5500 0.5501 0.5500 0.5498 0.5494
1553.000000 0.5486 0.5468 0.5436 0.5405 0.5373
1558.000000 0.5343 0.5316 0.5289 0.5261 0.5228
1563.000000 0.5189 0.5144 0.5063 0.4957 0.4870
1568.000000 0.4799 0.4694 0.4556 0.4418 0.4285
1573.000000 0.4152 0.4019 0.3886 0.3753 0.3621
1578.000000 0.3489 0.3321 0.3130 0.2957 0.2791
1583.000000 0.2624 0.2458 0.2293 0.2127 0.1962
1588.000000 0.1798 0.1670 0.1628 0.1631 0.1689
1593.000000 0.1844 0.2025 0.2206 0.2388 0.2568
1598.000000 0.2749 0.2929 0.3093 0.3171 0.3174
1603.000000 0.3157 0.3178 0.2908 0.2749 0.2591
1608.000000 0.2433 0.2274 0.2116 0.1958 0.1800
1613.000000 0.1642 0.1485 0.1327 0.1170 0.1039
1618.000000 0.1029 0.1002 0.1278 0.1557 0.1836
1623.000000 0.2114 0.2392 0.2670 0.2947 0.3238
1628.000000 0.3546 0.3857 0.4166 0.4476 0.4786
1633.000000 0.5094 0.5395 0.5429 0.5671 0.5751
1638.000000 0.5805 0.5864 0.5930 0.5999 0.6075
1643.000000 0.6177 0.6336 0.6516 0.6592 0.6688
1648.000000 0.6802 0.6829 0.6857 0.6886 0.6919
1653.000000 0.6956 0.7002 0.7049 0.7089 0.7120
1658.000000 0.7152 0.7185 0.7219 0.7247 0.7266
1663.000000 0.7284 0.7301 0.7314 0.7324 0.7335
1668.000000 0.7344 0.7353 0.7358 0.7363 0.7367
1673.000000 0.7372 0.7374 0.7373 0.7381 0.7363
1678.000000 0.7349 0.7324 0.7300 0.7282 0.7262
1683.000000 0.7240 0.7221 0.7205 0.7191 0.7175
1688.000000 0.7155 0.7135 0.7114 0.7092 0.7070
1693.000000 0.7047 0.7024 0.6998 0.6985 0.6975
1698.000000 0.6970 0.6969 0.6969 0.6971 0.6967
1703.000000 0.6979 0.6985 0.6999 0.7047 0.7115
1708.000000 0.7178 0.7222 0.7261 0.7325 0.7447
1713.000000 0.7511 0.7540 0.7566 0.7591 0.7616
1718.000000 0.7642 0.7667 0.7696 0.7727 0.7759
1723.000000 0.7791 0.7823 0.7855 0.7886 0.7918
1728.000000 0.7950 0.7981 0.8013 0.8045 0.8088
1733.000000 0.8127 0.8155 0.8179 0.8202 0.8227
1738.000000 0.8252 0.8273 0.8288 0.8301 0.8306
1743.000000 0.8309 0.8313 0.8316 0.8319 0.8322
1748.000000 0.8324 0.8326 0.8327 0.8329 0.8330
1753.000000 0.8330 0.8331 0.8332 0.8333 0.8334
1758.000000 0.8334 0.8335 0.8335 0.8336 0.8337
1763.000000 0.8337 0.8338 0.8339 0.8340 0.8343
1768.000000 0.8351 0.8359 0.8367 0.8374 0.8381
1773.000000 0.8388 0.8395 0.8401 0.8406 0.8410
1778.000000 0.8414 0.8419 0.8422 0.8424 0.8426
1783.000000 0.8422 0.8416 0.8409 0.8402 0.8395
1788.000000 0.8384 0.8367 0.8351 0.8336 0.8322
1793.000000 0.8307 0.8291 0.8276 0.8260 0.8244
1798.000000 0.8228 0.8214 0.8203 0.8191 0.8179
1803.000000 0.8170 0.8164 0.8159 0.8149 0.8167
1808.000000 0.8195 0.8247 0.8299 0.8351 0.8405
1813.000000 0.8456 0.8471 0.8481 0.8489 0.8495
1818.000000 0.8497 0.8500 0.8503 0.8506 0.8508
1823.000000 0.8510 0.8512 0.8514 0.8516 0.8518
1828.000000 0.8521 0.8523 0.8523 0.8524 0.8525
1833.000000 0.8526 0.8526 0.8526 0.8528 0.8529
1838.000000 0.8529 0.8528 0.8527 0.8526 0.8526
1843.000000 0.8524 0.8522 0.8520 0.8517 0.8515
1848.000000 0.8512 0.8510 0.8506 0.8503 0.8500
1853.000000 0.8496 0.8493 0.8490 0.8486 0.8484
1858.000000 0.8481 0.8478 0.8475 0.8472 0.8469
1863.000000 0.8466 0.8463 0.8458 0.8453 0.8448
1868.000000 0.8443 0.8434 0.8423 0.8411 0.8400
1873.000000 0.8388 0.8376 0.8364 0.8354 0.8346
1878.000000 0.8339 0.8333 0.8328 0.8327 0.8327
1883.000000 0.8326 0.8325 0.8323 0.8319 0.8315
1888.000000 0.8307 0.8298 0.8287 0.8273 0.8259
1893.000000 0.8246 0.8236 0.8225 0.8217 0.8213
1898.000000 0.8211 0.8209 0.8209 0.8210 0.8212
1903.000000 0.8213 0.8214 0.8216 0.8217 0.8219
1908.000000 0.8221 0.8223 0.8225 0.8227 0.8229
1913.000000 0.8231 0.8231 0.8231 0.8231 0.8231
1918.000000 0.8232 0.8232 0.8232 0.8232 0.8232
1923.000000 0.8232 0.8231 0.8230 0.8230 0.8230
1928.000000 0.8229 0.8229 0.8228 0.8227 0.8226
1933.000000 0.8226 0.8225 0.8224 0.8224 0.8223
1938.000000 0.8222 0.8221 0.8220 0.8219 0.8219
1943.000000 0.8218 0.8217 0.8216 0.8215 0.8214
1948.000000 0.8212 0.8211 0.8210 0.8208 0.8207
1953.000000 0.8205 0.8203 0.8202 0.8200 0.8198
1958.000000 0.8196 0.8194 0.8192 0.8190 0.8188
1963.000000 0.8186 0.8184 0.8182 0.8179 0.8175
1968.000000 0.8172 0.8169 0.8166 0.8162 0.8158
1973.000000 0.8153 0.8144 0.8134 0.8124 0.8115
1978.000000 0.8105 0.8096 0.8087 0.8077 0.8068
1983.000000 0.8059 0.8049 0.8038 0.8027 0.8017
1988.000000 0.8012 0.8009 0.8007 0.8004 0.8003
1993.000000 0.8002 0.8001 0.8001 0.8001 0.8000
1998.000000 0.8000 0.7999 0.7999 0.7994 0.7988
2003.000000 0.7979 0.7967 0.7954 0.7941 0.7929
2008.000000 0.7919 0.7909 0.7899 0.7889 0.7885
2013.000000 0.7882 0.7881 0.7880 0.7878 0.7877
2018.000000 0.7876 0.7875 0.7874 0.7873 0.7869
2023.000000 0.7866 0.7863 0.7860 0.7856 0.7853
2028.000000 0.7850 0.7846 0.7843 0.7839 0.7838
2033.000000 0.7837 0.7836 0.7835 0.7834 0.7833
2038.000000 0.7832 0.7830 0.7828 0.7827 0.7826
2043.000000 0.7825 0.7823 0.7821 0.7820 0.7816
2048.000000 0.7812 0.7806 0.7799 0.7791 0.7783
2053.000000 0.7775 0.7766 0.7759 0.7752 0.7744
2058.000000 0.7737 0.7732 0.7729 0.7727 0.7724
2063.000000 0.7721 0.7718 0.7716 0.7714 0.7712
2068.000000 0.7711 0.7710 0.7709 0.7708 0.7707
2073.000000 0.7705 0.7705 0.7704 0.7703 0.7702
2078.000000 0.7702 0.7701 0.7699 0.7699 0.7698
2083.000000 0.7698 0.7697 0.7697 0.7695 0.7694
2088.000000 0.7694 0.7693 0.7693 0.7692 0.7692
2093.000000 0.7692 0.7692 0.7692 0.7692 0.7692
2098.000000 0.7693 0.7693 0.7693 0.7693 0.7693
2103.000000 0.7693 0.7693 0.7694 0.7694 0.7694
2108.000000 0.7694 0.7694 0.7694 0.7694 0.7694
2113.000000 0.7694 0.7694 0.7694 0.7693 0.7692
2118.000000 0.7692 0.7692 0.7692 0.7691 0.7691
2123.000000 0.7691 0.7691 0.7690 0.7690 0.7690
2128.000000 0.7689 0.7689 0.7688 0.7688 0.7688
2133.000000 0.7688 0.7687 0.7687 0.7687 0.7686
2138.000000 0.7686 0.7686 0.7686 0.7685 0.7685
2143.000000 0.7685 0.7685 0.7685 0.7686 0.7686
2148.000000 0.7686 0.7686 0.7687 0.7687 0.7687
2153.000000 0.7687 0.7688 0.7688 0.7688 0.7688
2158.000000 0.7688 0.7689 0.7689 0.7689 0.7689
2163.000000 0.7690 0.7690 0.7690 0.7690 0.7690
2168.000000 0.7690 0.7689 0.7689 0.7689 0.7689
2173.000000 0.7689 0.7688 0.7688 0.7688 0.7688
2178.000000 0.7688 0.7688 0.7686 0.7683 0.7678
2183.000000 0.7672 0.7666 0.7659 0.7653 0.7647
2188.000000 0.7641 0.7636 0.7634 0.7632 0.7630
2193.000000 0.7628 0.7627 0.7625 0.7624 0.7622
2198.000000 0.7621 0.7620 0.7618 0.7616 0.7614
2203.000000 0.7613 0.7611 0.7609 0.7607 0.7605
2208.000000 0.7602 0.7600 0.7596 0.7591 0.7585
2213.000000 0.7578 0.7571 0.7564 0.7557 0.7549
2218.000000 0.7542 0.7534 0.7526 0.7518 0.7510
2223.000000 0.7502 0.7494 0.7486 0.7479 0.7471
2228.000000 0.7463 0.7455 0.7448 0.7440 0.7433
2233.000000 0.7425 0.7418 0.7413 0.7407 0.7403
2238.000000 0.7400 0.7396 0.7392 0.7388 0.7384
2243.000000 0.7380 0.7376 0.7371 0.7365 0.7360
2248.000000 0.7355 0.7350 0.7345 0.7340 0.7335
2253.000000 0.7329 0.7324 0.7319 0.7314 0.7309
2258.000000 0.7303 0.7298 0.7293 0.7287 0.7282
2263.000000 0.7276 0.7270 0.7264 0.7258 0.7252
2268.000000 0.7245 0.7239 0.7233 0.7227 0.7218
2273.000000 0.7208 0.7197 0.7186 0.7175 0.7164
2278.000000 0.7153 0.7142 0.7131 0.7121 0.7110
2283.000000 0.7100 0.7089 0.7078 0.7067 0.7056
2288.000000 0.7046 0.7036 0.7029 0.7024 0.7019
2293.000000 0.7014 0.7009 0.7004 0.7000 0.6997
2298.000000 0.6988 0.6959 0.6930 0.6901 0.6871
2303.000000 0.6842 0.6814 0.6785 0.6755 0.6725
2308.000000 0.6693 0.6668 0.6647 0.6626 0.6607
2313.000000 0.6587 0.6567 0.6547 0.6529 0.6511
2318.000000 0.6495 0.6478 0.6462 0.6446 0.6430
2323.000000 0.6413 0.6397 0.6381 0.6365 0.6349
2328.000000 0.6333 0.6317 0.6302 0.6287 0.6271
2333.000000 0.6256 0.6241 0.6225 0.6209 0.6190
2338.000000 0.6168 0.6144 0.6115 0.6088 0.6073
2343.000000 0.6059 0.6045 0.6031 0.6023 0.6018
2348.000000 0.6013 0.6008 0.6004 0.5999 0.5994
2353.000000 0.5989 0.5984 0.5979 0.5975 0.5970
2358.000000 0.5965 0.5961 0.5957 0.5954 0.5951
2363.000000 0.5948 0.5946 0.5943 0.5940 0.5938
2368.000000 0.5935 0.5932 0.5928 0.5925 0.5921
2373.000000 0.5918 0.5914 0.5911 0.5907 0.5903
2378.000000 0.5899 0.5895 0.5890 0.5885 0.5880
2383.000000 0.5876 0.5871 0.5866 0.5859 0.5851
2388.000000 0.5843 0.5834 0.5826 0.5818 0.5809
2393.000000 0.5801 0.5793 0.5783 0.5770 0.5757
2398.000000 0.5743 0.5730 0.5717 0.5703 0.5690
2403.000000 0.5677 0.5665 0.5652 0.5640 0.5627
2408.000000 0.5614 0.5598 0.5579 0.5561 0.5541
2413.000000 0.5521 0.5501 0.5481 0.5462 0.5443
2418.000000 0.5425 0.5406 0.5388 0.5369 0.5351
2423.000000 0.5332 0.5314 0.5295 0.5272 0.5250
2428.000000 0.5221 0.5190 0.5161 0.5135 0.5109
2433.000000 0.5088 0.5067 0.5021 0.4966 0.4913
2438.000000 0.4863 0.4813 0.4790 0.4768 0.4741
2443.000000 0.4712 0.4678 0.4627 0.4577 0.4513
2448.000000 0.4447 0.4389 0.4343 0.4297 0.4263
2453.000000 0.4229 0.4201 0.4176 0.4152 0.4131
2458.000000 0.4109 0.4090 0.4073 0.4055 0.4037
2463.000000 0.4019 0.4002 0.3984 0.3966 0.3949
2468.000000 0.3931 0.3913 0.3895 0.3877 0.3860
2473.000000 0.3842 0.3824 0.3807 0.3798 0.3792
2478.000000 0.3788 0.3791 0.3793 0.3801 0.3811
2483.000000 0.3822 0.3838 0.3854 0.3869 0.3885
2488.000000 0.3900 0.3916 0.3931 0.3946 0.3962
2493.000000 0.3970 0.3970 0.3970 0.3963 0.3957
2498.000000 0.3944 0.3924 0.3904 0.3883 0.3863
2503.000000 0.3843 0.3823 0.3803 0.3783 0.3763
2508.000000 0.3743 0.3723 0.3702 0.3682 0.3663
2513.000000 0.3643 0.3623 0.3602 0.3583 0.3563
2518.000000 0.3543 0.3523 0.3504 0.3484 0.3464
2523.000000 0.3446 0.3433 0.3420 0.3414 0.3412
2528.000000 0.3409 0.3407 0.3405 0.3403 0.3401
2533.000000 0.3399 0.3397 0.3395 0.3392 0.3389
2538.000000 0.3386 0.3379 0.3371 0.3358 0.3335
2543.000000 0.3311 0.3287 0.3263 0.3239 0.3216
2548.000000 0.3192 0.3169 0.3145 0.3121 0.3098
2553.000000 0.3074 0.3051 0.3027 0.3004 0.2980
2558.000000 0.2957 0.2933 0.2910 0.2887 0.2863
2563.000000 0.2840 0.2816 0.2799 0.2783 0.2769
2568.000000 0.2762 0.2754 0.2748 0.2743 0.2738
2573.000000 0.2733 0.2729 0.2724 0.2721 0.2718
2578.000000 0.2717 0.2717 0.2716 0.2716 0.2716
2583.000000 0.2716 0.2716 0.2716 0.2717 0.2717
2588.000000 0.2718 0.2718 0.2718 0.2719 0.2719
2593.000000 0.2719 0.2719 0.2719 0.2719 0.2717
2598.000000 0.2716 0.2714 0.2711 0.2708 0.2703
2603.000000 0.2698 0.2692 0.2685 0.2677 0.2667
2608.000000 0.2650 0.2633 0.2614 0.2594 0.2574
2613.000000 0.2550 0.2524 0.2497 0.2471 0.2444
2618.000000 0.2417 0.2391 0.2365 0.2338 0.2312
2623.000000 0.2285 0.2259 0.2232 0.2206 0.2179
2628.000000 0.2153 0.2127 0.2100 0.2074 0.2047
2633.000000 0.2021 0.1995 0.1968 0.1942 0.1916
2638.000000 0.1890 0.1864 0.1838 0.1812 0.1786
2643.000000 0.1760 0.1734 0.1708 0.1682 0.1655
2648.000000 0.1629 0.1603 0.1577 0.1551 0.1526
2653.000000 0.1500 0.1474 0.1448 0.1422 0.1396
2658.000000 0.1371 0.1345 0.1320 0.1294 0.1268
2663.000000 0.1242 0.1217 0.1191 0.1165 0.1139
2668.000000 0.1114 0.1088 0.1063 0.1037 0.1011
2673.000000 0.0986 0.0960 0.0935 0.0909 0.0884
2678.000000 0.0859 0.0834 0.0800 0.0756 0.0712
2683.000000 0.0682 0.0661 0.0640 0.0624 0.0612
2688.000000 0.0599 0.0588 0.0578 0.0568 0.0561
2693.000000 0.0553 0.0546 0.0542 0.0537 0.0532
2698.000000 0.0531 0.0530 0.0528 0.0527 0.0526
2703.000000 0.0526 0.0527 0.0528 0.0524 0.0530
2708.000000 0.0531 0.0532 0.0533 0.0535 0.0536
2713.000000 0.0537 0.0538 0.0540 0.0542 0.0545
2718.000000 0.0548 0.0553 0.0558 0.0562 0.0566
2723.000000 0.0570 0.0574 0.0578 0.0581 0.0589
2728.000000 0.0598 0.0607 0.0617 0.0628 0.0639
2733.000000 0.0661 0.0687 0.0714 0.0752 0.0793
2738.000000 0.0835 0.0877 0.0918 0.0960 0.1002
2743.000000 0.1043 0.1085 0.1126 0.1168 0.1209
2748.000000 0.1250 0.1292 0.1333 0.1374 0.1416
2753.000000 0.1457 0.1498 0.1539 0.1580 0.1621
2758.000000 0.1662 0.1703 0.1751 0.1804 0.1857
2763.000000 0.1883 0.1890 0.1896 0.1902 0.1906
2768.000000 0.1911 0.1916 0.1921 0.1925 0.1930
2773.000000 0.1934 0.1938 0.1941 0.1945 0.1948
2778.000000 0.1951 0.1955 0.1958 0.1962 0.1966
2783.000000 0.1969 0.1973 0.1976 0.1979 0.1982
2788.000000 0.1985 0.1987 0.1989 0.1981 0.1992
2793.000000 0.1994 0.1994 0.1993 0.1992 0.1990
2798.000000 0.1988 0.1987 0.1984 0.1982 0.1979
2803.000000 0.1976 0.1969 0.1963 0.1954 0.1936
2808.000000 0.1917 0.1898 0.1882 0.1867 0.1851
2813.000000 0.1837 0.1824 0.1811 0.1797 0.1783
2818.000000 0.1768 0.1753 0.1738 0.1722 0.1706
2823.000000 0.1687 0.1669 0.1651 0.1631 0.1611
2828.000000 0.1592 0.1571 0.1551 0.1531 0.1515
2833.000000 0.1501 0.1486 0.1473 0.1460 0.1448
2838.000000 0.1436 0.1424 0.1412 0.1400 0.1389
2843.000000 0.1378 0.1367 0.1356 0.1345 0.1335
2848.000000 0.1325 0.1316 0.1306 0.1297 0.1288
2853.000000 0.1279 0.1270 0.1262 0.1253 0.1244
2858.000000 0.1239 0.1234 0.1229 0.1225 0.1220
2863.000000 0.1215 0.1210 0.1204 0.1197 0.1191
2868.000000 0.1184 0.1177 0.1170 0.1164 0.1157
2873.000000 0.1151 0.1140 0.1124 0.1108 0.1091
2878.000000 0.1065 0.1039 0.1013 0.0990 0.0968
2883.000000 0.0945 0.0922 0.0899 0.0877 0.0853
2888.000000 0.0824 0.0795 0.0766 0.0748 0.0731
2893.000000 0.0714 0.0698 0.0681 0.0665 0.0648
2898.000000 0.0632 0.0616 0.0599 0.0584 0.0569
2903.000000 0.0554 0.0540 0.0529 0.0517 0.0506
2908.000000 0.0494 0.0482 0.0470 0.0457 0.0444
2913.000000 0.0431 0.0419 0.0411 0.0403 0.0395
2918.000000 0.0387 0.0380 0.0373 0.0366 0.0361
2923.000000 0.0356 0.0350 0.0348 0.0346 0.0344
2928.000000 0.0343 0.0341 0.0340 0.0338 0.0336
2933.000000 0.0335 0.0333 0.0332 0.0331 0.0330
2938.000000 0.0329 0.0329 0.0329 0.0329 0.0328
2943.000000 0.0328 0.0328 0.0328 0.0329 0.0330
2948.000000 0.0331 0.0324 0.0335 0.0336 0.0339
2953.000000 0.0341 0.0344 0.0346 0.0350 0.0355
2958.000000 0.0359 0.0364 0.0372 0.0379 0.0386
2963.000000 0.0396 0.0406 0.0416 0.0427 0.0440
2968.000000 0.0454 0.0467 0.0475 0.0483 0.0491
2973.000000 0.0498 0.0505 0.0513 0.0520 0.0527
2978.000000 0.0534 0.0541 0.0547 0.0550 0.0552
2983.000000 0.0555 0.0556 0.0558 0.0559 0.0561
2988.000000 0.0561 0.0562 0.0563 0.0564 0.0565
2993.000000 0.0566 0.0566 0.0567 0.0567 0.0567
2998.000000 0.0572 0.0566 0.0566 0.0566 0.0565
3003.000000 0.0564 0.0563 0.0562 0.0560 0.0558
3008.000000 0.0556 0.0554 0.0552 0.0551 0.0549
3013.000000 0.0547 0.0545 0.0544 0.0542 0.0539
3018.000000 0.0537 0.0534 0.0532 0.0529 0.0526
3023.000000 0.0523 0.0520 0.0517 0.0514 0.0511
3028.000000 0.0508 0.0505 0.0502 0.0499 0.0496
3033.000000 0.0493 0.0489 0.0486 0.0483 0.0480
3038.000000 0.0477 0.0473 0.0470 0.0466 0.0461
3043.000000 0.0456 0.0450 0.0445 0.0439 0.0434
3048.000000 0.0429 0.0423 0.0418 0.0413 0.0408
3053.000000 0.0403 0.0399 0.0395 0.0391 0.0386
3058.000000 0.0382 0.0378 0.0373 0.0369 0.0365
3063.000000 0.0361 0.0356 0.0352 0.0348 0.0344
3068.000000 0.0339 0.0335 0.0330 0.0326 0.0321
3073.000000 0.0316 0.0311 0.0307 0.0302 0.0297
3078.000000 0.0292 0.0288 0.0283 0.0278 0.0273
3083.000000 0.0269 0.0265 0.0262 0.0258 0.0254
3088.000000 0.0251 0.0247 0.0243 0.0242 0.0242
3093.000000 0.0242 0.0242 0.0241 0.0241 0.0241
3098.000000 0.0241 0.0241 0.0241 0.0241 0.0241
3103.000000 0.0241 0.0241 0.0241 0.0252 0.0242
3108.000000 0.0243 0.0243 0.0244 0.0245 0.0245
3113.000000 0.0246 0.0247 0.0247 0.0248 0.0248
3118.000000 0.0249 0.0249 0.0250 0.0250 0.0251
3123.000000 0.0252 0.0253 0.0254 0.0254 0.0255
3128.000000 0.0256 0.0257 0.0257 0.0258 0.0259
3133.000000 0.0260 0.0260 0.0261 0.0262 0.0263
3138.000000 0.0264 0.0266 0.0267 0.0269 0.0271
3143.000000 0.0273 0.0275 0.0277 0.0279 0.0281
3148.000000 0.0283 0.0285 0.0287 0.0289 0.0291
3153.000000 0.0293 0.0295 0.0297 0.0299 0.0302
3158.000000 0.0304 0.0307 0.0309 0.0313 0.0318
3163.000000 0.0323 0.0328 0.0333 0.0338 0.0343
3168.000000 0.0348 0.0355 0.0367 0.0378 0.0390
3173.000000 0.0400 0.0409 0.0418 0.0427 0.0435
3178.000000 0.0441 0.0447 0.0453 0.0459 0.0465
3183.000000 0.0471 0.0477 0.0484 0.0492 0.0501
3188.000000 0.0509 0.0518 0.0528 0.0537 0.0547
3193.000000 0.0557 0.0567 0.0578 0.0588 0.0598
3198.000000 0.0608 0.0619 0.0629 0.0639 0.0650
3203.000000 0.0660 0.0671 0.0681 0.0691 0.0700
3208.000000 0.0709 0.0718 0.0727 0.0736 0.0745
3213.000000 0.0753 0.0762 0.0770 0.0779 0.0787
3218.000000 0.0796 0.0804 0.0813 0.0822 0.0837
3223.000000 0.0864 0.0890 0.0917 0.0942 0.0963
3228.000000 0.0984 0.1004 0.1025 0.1043 0.1060
3233.000000 0.1078 0.1096 0.1111 0.1125 0.1140
3238.000000 0.1155 0.1168 0.1181 0.1194 0.1207
3243.000000 0.1219 0.1230 0.1242 0.1254 0.1266
3248.000000 0.1279 0.1293 0.1306 0.1320 0.1340
3253.000000 0.1359 0.1379 0.1398 0.1421 0.1445
3258.000000 0.1468 0.1492 0.1513 0.1531 0.1550
3263.000000 0.1568 0.1584 0.1592 0.1600 0.1609
3268.000000 0.1617 0.1625 0.1634 0.1642 0.1650
3273.000000 0.1659 0.1667 0.1675 0.1683 0.1692
3278.000000 0.1702 0.1712 0.1721 0.1731 0.1743
3283.000000 0.1755 0.1767 0.1779 0.1791 0.1802
3288.000000 0.1814 0.1826 0.1845 0.1872 0.1899
3293.000000 0.1925 0.1949 0.1963 0.1976 0.1990
3298.000000 0.2003 0.2019 0.2034 0.2050 0.2066
3303.000000 0.2080 0.2095 0.2109 0.2123 0.2137
3308.000000 0.2146 0.2156 0.2165 0.2175 0.2184
3313.000000 0.2193 0.2201 0.2210 0.2217 0.2223
3318.000000 0.2229 0.2235 0.2240 0.2246 0.2252
3323.000000 0.2258 0.2264 0.2269 0.2274 0.2279
3328.000000 0.2283 0.2288 0.2291 0.2295 0.2299
3333.000000 0.2302 0.2306 0.2309 0.2313 0.2317
3338.000000 0.2320 0.2323 0.2325 0.2328 0.2331
3343.000000 0.2333 0.2334 0.2335 0.2337 0.2338
3348.000000 0.2339 0.2341 0.2342 0.2343 0.2345
3353.000000 0.2346 0.2347 0.2349 0.2350 0.2351
3358.000000 0.2352 0.2353 0.2354 0.2356 0.2357
3363.000000 0.2358 0.2360 0.2361 0.2362 0.2363
3368.000000 0.2365 0.2366 0.2368 0.2369 0.2371
3373.000000 0.2372 0.2374 0.2377 0.2380 0.2383
3378.000000 0.2385 0.2388 0.2391 0.2394 0.2397
3383.000000 0.2400 0.2403 0.2407 0.2410 0.2414
3388.000000 0.2417 0.2421 0.2425 0.2429 0.2433
3393.000000 0.2442 0.2451 0.2460 0.2470 0.2478
3398.000000 0.2486 0.2493 0.2500 0.2507 0.2510
3403.000000 0.2511 0.2512 0.2513 0.2515 0.2515
3408.000000 0.2516 0.2517 0.2518 0.2519 0.2521
3413.000000 0.2522 0.2524 0.2525 0.2527 0.2528
3418.000000 0.2530 0.2531 0.2533 0.2534 0.2536
3423.000000 0.2538 0.2540 0.2543 0.2548 0.2553
3428.000000 0.2559 0.2564 0.2569 0.2573 0.2578
3433.000000 0.2583 0.2587 0.2591 0.2596 0.2600
3438.000000 0.2604 0.2611 0.2627 0.2643 0.2660
3443.000000 0.2676 0.2696 0.2722 0.2747 0.2772
3448.000000 0.2798 0.2823 0.2848 0.2874 0.2899
3453.000000 0.2925 0.2950 0.2975 0.3000 0.3025
3458.000000 0.3050 0.3075 0.3100 0.3125 0.3150
3463.000000 0.3175 0.3200 0.3225 0.3250 0.3275
3468.000000 0.3300 0.3325 0.3350 0.3375 0.3400
3473.000000 0.3425 0.3450 0.3475 0.3500 0.3525
3478.000000 0.3550 0.3575 0.3600 0.3624 0.3649
3483.000000 0.3674 0.3699 0.3723 0.3748 0.3773
3488.000000 0.3797 0.3822 0.3847 0.3871 0.3896
3493.000000 0.3920 0.3945 0.3970 0.3994 0.4019
3498.000000 0.4043 0.4068 0.4093 0.4118 0.4142
3503.000000 0.4167 0.4191 0.4215 0.4240 0.4264
3508.000000 0.4289 0.4313 0.4337 0.4362 0.4386
3513.000000 0.4410 0.4435 0.4459 0.4483 0.4508
3518.000000 0.4532 0.4556 0.4580 0.4604 0.4629
3523.000000 0.4653 0.4678 0.4702 0.4726 0.4750
3528.000000 0.4774 0.4799 0.4823 0.4847 0.4871
3533.000000 0.4895 0.4919 0.4943 0.4967 0.4991
3538.000000 0.5015 0.5039 0.5063 0.5087 0.5111
3543.000000 0.5135 0.5159 0.5183 0.5207 0.5231
3548.000000 0.5255 0.5279 0.5302 0.5326 0.5350
3553.000000 0.5374 0.5398 0.5421 0.5445 0.5469
3558.000000 0.5492 0.5516 0.5540 0.5563 0.5587
3563.000000 0.5611 0.5634 0.5658 0.5682 0.5705
3568.000000 0.5729 0.5753 0.5777 0.5800 0.5824
3573.000000 0.5847 0.5871 0.5894 0.5918 0.5941
3578.000000 0.5965 0.5988 0.6012 0.6035 0.6058
3583.000000 0.6082 0.6105 0.6128 0.6152 0.6175
3588.000000 0.6198 0.6222 0.6245 0.6268 0.6292
3593.000000 0.6315 0.6338 0.6362 0.6385 0.6409
3598.000000 0.6432 0.6455 0.6478 0.6501 0.6524
3603.000000 0.6548 0.6571 0.6594 0.6617 0.6640
3608.000000 0.6663 0.6686 0.6709 0.6732 0.6755
3613.000000 0.6796 0.6882 0.6968 0.7054 0.7140
3618.000000 0.7223 0.7241 0.7259 0.7277 0.7296
3623.000000 0.7314 0.7327 0.7339 0.7351 0.7362
3628.000000 0.7374 0.7385 0.7396 0.7406 0.7417
3633.000000 0.7427 0.7437 0.7446 0.7456 0.7465
3638.000000 0.7474 0.7483 0.7539 0.7595 0.7651
3643.000000 0.7708 0.7764 0.7790 0.7802 0.7814
3648.000000 0.7826 0.7838 0.7849 0.7857 0.7865
3653.000000 0.7874 0.7882 0.7891 0.7894 0.7898
3658.000000 0.7901 0.7905 0.7908 0.7912 0.7915
3663.000000 0.7919 0.7923 0.7926 0.7930 0.7933
3668.000000 0.7936 0.7940 0.7943 0.7946 0.7949
3673.000000 0.7951 0.7953 0.7955 0.7957 0.7960
3678.000000 0.7962 0.7964 0.7966 0.7969 0.7971
3683.000000 0.7973 0.7975 0.7977 0.7980 0.7982
3688.000000 0.7984 0.7986 0.7988 0.7990 0.7992
3693.000000 0.7994 0.7996 0.7998 0.8000 0.8002
3698.000000 0.8004 0.8005 0.8006 0.8007 0.8007
3703.000000 0.8008 0.8009 0.8010 0.8011 0.8011
3708.000000 0.8012 0.8013 0.8014 0.8014 0.8015
3713.000000 0.8016 0.8016 0.8017 0.8017 0.8017
3718.000000 0.8017 0.8017 0.8017 0.8017 0.8017
3723.000000 0.8017 0.8017 0.8017 0.8016 0.8016
3728.000000 0.8016 0.8016 0.8016 0.8016 0.8020
3733.000000 0.8016 0.8016 0.8016 0.8016 0.8016
3738.000000 0.8016 0.8016 0.8016 0.8016 0.8016
3743.000000 0.8015 0.8015 0.8015 0.8015 0.8015
3748.000000 0.8015 0.8015 0.8015 0.8015 0.8015
3753.000000 0.8015 0.8014 0.8014 0.8014 0.8013
3758.000000 0.8013 0.8013 0.8012 0.8012 0.8012
3763.000000 0.8011 0.8011 0.8011 0.8010 0.8010
3768.000000 0.8009 0.8009 0.8009 0.8008 0.8008
3773.000000 0.8008 0.8007 0.8007 0.8007 0.8006
3778.000000 0.8005 0.8004 0.8003 0.8002 0.8001
3783.000000 0.7999 0.7997 0.7996 0.7994 0.7992
3788.000000 0.7990 0.7988 0.7985 0.7983 0.7980
3793.000000 0.7978 0.7976 0.7973 0.7971 0.7968
3798.000000 0.7966 0.7963 0.7961 0.7958 0.7955
3803.000000 0.7952 0.7949 0.7946 0.7943 0.7940
3808.000000 0.7937 0.7934 0.7931 0.7928 0.7926
3813.000000 0.7923 0.7920 0.7917 0.7915 0.7912
3818.000000 0.7908 0.7905 0.7902 0.7898 0.7895
3823.000000 0.7891 0.7888 0.7884 0.7881 0.7878
3828.000000 0.7874 0.7871 0.7867 0.7864 0.7860
3833.000000 0.7856 0.7853 0.7849 0.7846 0.7842
3838.000000 0.7839 0.7835 0.7831 0.7828 0.7825
3843.000000 0.7822 0.7818 0.7815 0.7812 0.7810
3848.000000 0.7807 0.7805 0.7803 0.7801 0.7799
3853.000000 0.7796 0.7794 0.7792 0.7789 0.7787
3858.000000 0.7785 0.7783 0.7781 0.7780 0.7778
3863.000000 0.7776 0.7774 0.7774 0.7773 0.7772
3868.000000 0.7771 0.7770 0.7769 0.7769 0.7768
3873.000000 0.7767 0.7766 0.7765 0.7764 0.7764
3878.000000 0.7763 0.7762 0.7761 0.7760 0.7759
3883.000000 0.7759 0.7758 0.7757 0.7756 0.7755
3888.000000 0.7755 0.7754 0.7753 0.7752 0.7751
3893.000000 0.7750 0.7750 0.7749 0.7748 0.7747
3898.000000 0.7746 0.7745 0.7745 0.7744 0.7743
3903.000000 0.7742 0.7741 0.7740 0.7739 0.7737
3908.000000 0.7735 0.7733 0.7731 0.7729 0.7727
3913.000000 0.7725 0.7723 0.7721 0.7719 0.7717
3918.000000 0.7715 0.7712 0.7709 0.7706 0.7703
3923.000000 0.7700 0.7697 0.7695 0.7692 0.7690
3928.000000 0.7687 0.7685 0.7682 0.7680 0.7679
3933.000000 0.7677 0.7676 0.7674 0.7673 0.7672
3938.000000 0.7670 0.7669 0.7667 0.7666 0.7664
3943.000000 0.7663 0.7661 0.7660 0.7658 0.7657
3948.000000 0.7656 0.7654 0.7653 0.7653 0.7652
3953.000000 0.7652 0.7651 0.7651 0.7650 0.7650
3958.000000 0.7649 0.7648 0.7648 0.7647 0.7646
3963.000000 0.7646 0.7645 0.7645 0.7644 0.7643
3968.000000 0.7643 0.7641 0.7639 0.7637 0.7635
3973.000000 0.7633 0.7631 0.7629 0.7627 0.7624
3978.000000 0.7622 0.7620 0.7618 0.7616 0.7614
3983.000000 0.7612 0.7610 0.7608 0.7606 0.7604
3988.000000 0.7602 0.7600 0.7598 0.7596 0.7594
3993.000000 0.7592 0.7590 0.7590 0.7589 0.7589
3998.000000 0.7588 0.7588 0.7588
##END=
