##TITLE=NICOTINE SILICOTUNGSTATE
##JCAMP-DX=4.24
##DATA TYPE=INFRARED SPECTRUM
##CLASS=COBLENTZ
##ORIGIN=TENNESSEE EASTMAN COMPANY, RESEARCH LABORATORIES
##OWNER=COBLENTZ SOCIETY
Collection (C) 2018 copyright by the U.S. Secretary of Commerce
on behalf of the United States of America. All rights reserved.
##DATE=Not specified, most likely prior to 1970
##MOLFORM=C20 H32 N4 O40 Si W12
##SOURCE REFERENCE=COBLENTZ NO. 437
##$NIST ID=B6000437
##$NIST SOURCE=COBLENTZ
##$NIST IMAGE=cob437
##SPECTROMETER/DATA SYSTEM=Not specified, most likely a prism, grating, or hybrid spectrometer.
##STATE=SOLID (NUJOL MULL)
##SAMPLING PROCEDURE=TRANSMISSION
##RESOLUTION=4
##DATA PROCESSING=DIGITIZED BY NIST FROM HARD COPY
##XUNITS=MICROMETERS
##YUNITS=TRANSMITTANCE
##XFACTOR=1.000000
##YFACTOR=1
##DELTAX=000.006649
##FIRSTX=2.023
##LASTX=15.9916
##FIRSTY=0.323
##MAXX=15.9916
##MINX=2.023
##MAXY=0.816
##MINY=0
##NPOINTS=2102
##XYDATA=(X++(Y..Y))
2.023000 0.3230 0.3230 0.3250 0.3250 0.3270
2.056261 0.3280 0.3300 0.3300 0.3300 0.3320
2.089000 0.3330 0.3350 0.3370 0.3380 0.3380
2.122261 0.3420 0.3420 0.3430 0.3430 0.3470
2.156000 0.3470 0.3500 0.3500 0.3500 0.3500
2.189261 0.3520 0.3530 0.3550 0.3570 0.3570
2.222000 0.3580 0.3580 0.3580 0.3580 0.3580
2.255261 0.3580 0.3580 0.3580 0.3580 0.3580
2.289000 0.3580 0.3580 0.3580 0.3580 0.3580
2.322261 0.3580 0.3580 0.3600 0.3600 0.3620
2.355000 0.3650 0.3670 0.3680 0.3720 0.3720
2.388261 0.3730 0.3730 0.3770 0.3780 0.3800
2.422000 0.3800 0.3820 0.3830 0.3830 0.3830
2.455261 0.3850 0.3880 0.3900 0.3900 0.3970
2.488000 0.3980 0.4000 0.4050 0.4090 0.4100
2.521261 0.4120 0.4150 0.4170 0.4200 0.4200
2.555000 0.4220 0.4240 0.4270 0.4300 0.4320
2.588261 0.4340 0.4340 0.4340 0.4370 0.4390
2.621000 0.4390 0.4400 0.4400 0.4420 0.4420
2.654261 0.4450 0.4470 0.4500 0.4500 0.4520
2.687000 0.4550 0.4590 0.4620 0.4670 0.4690
2.720261 0.4700 0.4700 0.4700 0.4690 0.4650
2.754000 0.4570 0.4490 0.4420 0.4390 0.4390
2.787261 0.4370 0.4370 0.4350 0.4320 0.4300
2.820000 0.4290 0.4290 0.4270 0.4270 0.4270
2.853261 0.4250 0.4250 0.4270 0.4270 0.4270
2.887000 0.4270 0.4270 0.4270 0.4290 0.4290
2.920261 0.4340 0.4350 0.4370 0.4390 0.4390
2.953000 0.4400 0.4440 0.4470 0.4470 0.4470
2.986261 0.4470 0.4500 0.4540 0.4550 0.4590
3.020000 0.4620 0.4640 0.4640 0.4650 0.4670
3.053261 0.4670 0.4690 0.4690 0.4690 0.4690
3.086000 0.4690 0.4670 0.4670 0.4670 0.4670
3.119261 0.4670 0.4670 0.4670 0.4650 0.4650
3.153000 0.4620 0.4550 0.4550 0.4550 0.4540
3.186261 0.4520 0.4520 0.4490 0.4440 0.4400
3.219000 0.4390 0.4370 0.4350 0.4290 0.4220
3.252261 0.4100 0.4040 0.3980 0.3870 0.3820
3.286000 0.3750 0.3700 0.3630 0.3550 0.3470
3.319261 0.3070 0.2500 0.2280 0.2050 0.1060
3.352000 0.0630 0.0080 0.0010 0.0010 0.0010
3.385261 0.0010 0.0000 0.0000 0.0010 0.0010
3.419000 0.0010 0.0010 0.0030 0.0110 0.0180
3.452261 0.0210 0.0260 0.0250 0.0230 0.0230
3.485000 0.0260 0.0510 0.0830 0.1460 0.2000
3.518261 0.3080 0.3530 0.3820 0.4020 0.4220
3.552000 0.4520 0.4650 0.4720 0.4800 0.4850
3.585261 0.4920 0.5050 0.5100 0.5120 0.5170
3.618000 0.5170 0.5170 0.5150 0.5150 0.5140
3.651261 0.5100 0.5090 0.5070 0.5070 0.5070
3.685000 0.5070 0.5070 0.5120 0.5140 0.5170
3.718261 0.5190 0.5200 0.5220 0.5220 0.5240
3.751000 0.5240 0.5240 0.5240 0.5240 0.5240
3.784261 0.5250 0.5270 0.5300 0.5340 0.5370
3.818000 0.5390 0.5400 0.5420 0.5450 0.5470
3.851261 0.5490 0.5500 0.5520 0.5550 0.5590
3.884000 0.5650 0.5670 0.5690 0.5700 0.5740
3.917261 0.5770 0.5800 0.5840 0.5890 0.5900
3.951000 0.5940 0.5990 0.5990 0.5990 0.6010
3.984261 0.6020 0.6040 0.6070 0.6090 0.6110
4.017000 0.6120 0.6140 0.6160 0.6170 0.6190
4.050261 0.6220 0.6220 0.6260 0.6270 0.6310
4.084000 0.6310 0.6340 0.6340 0.6360 0.6370
4.117261 0.6390 0.6410 0.6410 0.6420 0.6440
4.150000 0.6440 0.6470 0.6470 0.6470 0.6490
4.183261 0.6490 0.6510 0.6520 0.6540 0.6540
4.217000 0.6560 0.6610 0.6640 0.6690 0.6740
4.250261 0.6770 0.6810 0.6840 0.6870 0.6890
4.283000 0.6910 0.6910 0.6940 0.6970 0.6970
4.316261 0.6970 0.6970 0.6970 0.6970 0.6970
4.350000 0.6970 0.6960 0.6960 0.6960 0.6960
4.383261 0.6960 0.6960 0.6960 0.6960 0.6960
4.416000 0.6960 0.6960 0.6970 0.6970 0.6990
4.449261 0.6990 0.6990 0.6990 0.6990 0.7010
4.483000 0.7020 0.7040 0.7060 0.7060 0.7060
4.516261 0.7070 0.7070 0.7070 0.7070 0.7070
4.549000 0.7090 0.7090 0.7090 0.7090 0.7110
4.582261 0.7110 0.7120 0.7120 0.7120 0.7140
4.616000 0.7160 0.7160 0.7170 0.7170 0.7190
4.649261 0.7210 0.7220 0.7220 0.7220 0.7220
4.682000 0.7240 0.7240 0.7270 0.7270 0.7290
4.715261 0.7290 0.7310 0.7310 0.7320 0.7320
4.749000 0.7340 0.7340 0.7340 0.7360 0.7360
4.782261 0.7370 0.7370 0.7420 0.7420 0.7420
4.815000 0.7420 0.7420 0.7440 0.7440 0.7440
4.848261 0.7460 0.7460 0.7460 0.7460 0.7470
4.882000 0.7470 0.7470 0.7470 0.7490 0.7490
4.915261 0.7490 0.7510 0.7510 0.7490 0.7490
4.948000 0.7490 0.7510 0.7540 0.7540 0.7560
4.981261 0.7560 0.7570 0.7590 0.7590 0.7610
5.015000 0.7610 0.7620 0.7620 0.7620 0.7620
5.048261 0.7620 0.7620 0.7620 0.7620 0.7620
5.081000 0.7610 0.7610 0.7610 0.7610 0.7610
5.114261 0.7610 0.7610 0.7620 0.7640 0.7660
5.148000 0.7660 0.7660 0.7670 0.7670 0.7670
5.181261 0.7670 0.7690 0.7670 0.7690 0.7690
5.214000 0.7710 0.7710 0.7710 0.7720 0.7710
5.247261 0.7740 0.7740 0.7740 0.7760 0.7770
5.281000 0.7760 0.7770 0.7770 0.7790 0.7810
5.314261 0.7820 0.7840 0.7860 0.7870 0.7870
5.347000 0.7890 0.7890 0.7890 0.7890 0.7890
5.380261 0.7890 0.7890 0.7910 0.7940 0.7960
5.414000 0.7960 0.7960 0.7960 0.7960 0.7960
5.447261 0.7960 0.7970 0.7970 0.7970 0.7970
5.480000 0.7970 0.7990 0.7990 0.7990 0.7990
5.513261 0.8010 0.8030 0.8010 0.8010 0.8030
5.547000 0.8030 0.8030 0.8030 0.8030 0.8040
5.580261 0.8040 0.8060 0.8060 0.8060 0.8080
5.613000 0.8080 0.8080 0.8080 0.8090 0.8090
5.646261 0.8090 0.8090 0.8090 0.8090 0.8090
5.680000 0.8110 0.8110 0.8110 0.8110 0.8110
5.713261 0.8110 0.8110 0.8110 0.8110 0.8110
5.746000 0.8110 0.8110 0.8110 0.8110 0.8110
5.779261 0.8110 0.8110 0.8140 0.8140 0.8140
5.813000 0.8140 0.8140 0.8140 0.8140 0.8140
5.846261 0.8140 0.8140 0.8140 0.8140 0.8140
5.879000 0.8140 0.8140 0.8140 0.8140 0.8140
5.912261 0.8140 0.8140 0.8140 0.8160 0.8160
5.945000 0.8140 0.8140 0.8140 0.8140 0.8140
5.978261 0.8140 0.8160 0.8160 0.8160 0.8160
6.012000 0.8160 0.8140 0.8140 0.8140 0.8140
6.045261 0.8140 0.8130 0.8110 0.8060 0.8030
6.078000 0.7990 0.7910 0.7740 0.7660 0.7620
6.111261 0.7610 0.7590 0.7590 0.7590 0.7590
6.145000 0.7590 0.7590 0.7590 0.7590 0.7560
6.178261 0.7510 0.7490 0.7470 0.7440 0.7390
6.211000 0.7310 0.7310 0.7320 0.7320 0.7320
6.244261 0.7340 0.7620 0.7670 0.7690 0.7720
6.278000 0.7770 0.7890 0.7960 0.7990 0.8010
6.311261 0.8010 0.8010 0.8030 0.8030 0.8010
6.344000 0.8010 0.7970 0.7890 0.7820 0.7770
6.377261 0.7710 0.7690 0.7690 0.7660 0.7670
6.411000 0.7620 0.7610 0.7590 0.7590 0.7610
6.444261 0.7620 0.7660 0.7670 0.7710 0.7740
6.477000 0.7770 0.7860 0.7970 0.7990 0.8030
6.510261 0.8030 0.8030 0.8060 0.8080 0.8080
6.544000 0.8080 0.8080 0.8080 0.8080 0.8080
6.577261 0.8080 0.8080 0.8060 0.8060 0.8040
6.610000 0.8010 0.7990 0.7970 0.7960 0.7890
6.643261 0.7870 0.7810 0.7770 0.7710 0.7620
6.677000 0.7590 0.7520 0.7460 0.7390 0.7060
6.710261 0.6590 0.6340 0.6190 0.5850 0.5470
6.743000 0.5100 0.4970 0.4840 0.4370 0.3630
6.776261 0.3050 0.2450 0.2120 0.1930 0.1800
6.810000 0.1730 0.1710 0.1700 0.1680 0.1700
6.843261 0.1760 0.1810 0.1960 0.2030 0.2180
6.876000 0.2270 0.2420 0.2870 0.3120 0.3380
6.909261 0.3620 0.3830 0.4000 0.4340 0.4620
6.943000 0.5340 0.5700 0.5900 0.6190 0.6290
6.976261 0.6510 0.6660 0.6720 0.6840 0.6960
7.009000 0.7060 0.7120 0.7190 0.7220 0.7270
7.042261 0.7320 0.7390 0.7440 0.7490 0.7570
7.076000 0.7570 0.7590 0.7590 0.7590 0.7610
7.109261 0.7590 0.7590 0.7570 0.7540 0.7540
7.142000 0.7520 0.7490 0.7390 0.7260 0.7070
7.175261 0.6840 0.6570 0.6240 0.5850 0.5150
7.209000 0.4890 0.4600 0.4190 0.4000 0.3770
7.242261 0.3500 0.3300 0.3200 0.3180 0.3200
7.275000 0.3470 0.3820 0.4090 0.4440 0.4570
7.308261 0.4650 0.4770 0.4800 0.4920 0.5320
7.342000 0.5490 0.5800 0.5990 0.6220 0.6370
7.375261 0.6490 0.6520 0.6590 0.6660 0.6690
7.408000 0.6720 0.6760 0.6770 0.6790 0.6840
7.441261 0.6840 0.6870 0.6910 0.6920 0.6970
7.475000 0.6970 0.6990 0.6990 0.7040 0.7090
7.508261 0.7170 0.7190 0.7210 0.7240 0.7290
7.541000 0.7340 0.7340 0.7370 0.7370 0.7390
7.574261 0.7420 0.7470 0.7490 0.7490 0.7490
7.608000 0.7510 0.7510 0.7510 0.7510 0.7510
7.641261 0.7510 0.7520 0.7510 0.7540 0.7540
7.674000 0.7560 0.7560 0.7560 0.7590 0.7620
7.707261 0.7620 0.7640 0.7660 0.7660 0.7670
7.741000 0.7670 0.7690 0.7690 0.7710 0.7710
7.774261 0.7720 0.7720 0.7740 0.7760 0.7770
7.807000 0.7770 0.7790 0.7770 0.7770 0.7770
7.840261 0.7770 0.7760 0.7720 0.7710 0.7690
7.874000 0.7670 0.7670 0.7670 0.7670 0.7670
7.907261 0.7670 0.7670 0.7690 0.7690 0.7690
7.940000 0.7710 0.7710 0.7740 0.7770 0.7810
7.973261 0.7820 0.7870 0.7910 0.7940 0.7940
8.007000 0.7960 0.7960 0.7960 0.7960 0.7970
8.040261 0.7970 0.7970 0.7970 0.7990 0.7990
8.073000 0.7990 0.7990 0.8010 0.8010 0.8010
8.106261 0.8030 0.8040 0.8040 0.8080 0.8080
8.140000 0.8090 0.8090 0.8090 0.8090 0.8090
8.173261 0.8090 0.8090 0.8080 0.8080 0.8090
8.206000 0.8090 0.8090 0.8090 0.8080 0.8080
8.239261 0.8080 0.8060 0.8040 0.8030 0.8010
8.273000 0.8010 0.8010 0.8010 0.8010 0.8010
8.306261 0.8010 0.8030 0.8030 0.8030 0.8030
8.339000 0.8030 0.8040 0.8030 0.8030 0.8040
8.372261 0.8040 0.8040 0.8040 0.8040 0.8040
8.406000 0.8040 0.8040 0.8040 0.8040 0.8040
8.439261 0.8040 0.8030 0.8030 0.8030 0.8030
8.472000 0.8010 0.8010 0.8010 0.7990 0.7970
8.505261 0.7940 0.7890 0.7870 0.7860 0.7860
8.539000 0.7860 0.7860 0.7860 0.7860 0.7860
8.572261 0.7860 0.7860 0.7860 0.7860 0.7860
8.605000 0.7860 0.7860 0.7860 0.7860 0.7860
8.638261 0.7860 0.7870 0.7870 0.7870 0.7870
8.672000 0.7870 0.7870 0.7910 0.7920 0.7940
8.705261 0.7940 0.7960 0.7960 0.7970 0.8010
8.738000 0.8030 0.8040 0.8080 0.8080 0.8090
8.771261 0.8090 0.8090 0.8080 0.8090 0.8090
8.805000 0.8090 0.8090 0.8090 0.8090 0.8080
8.838261 0.8080 0.8080 0.8080 0.8080 0.8080
8.871000 0.8060 0.8060 0.8060 0.8080 0.8060
8.904261 0.8060 0.8060 0.8060 0.8040 0.8030
8.938000 0.8030 0.8030 0.8040 0.8040 0.8040
8.971261 0.8040 0.8040 0.8040 0.8030 0.8010
9.004000 0.8010 0.7990 0.7990 0.7990 0.7970
9.037261 0.7960 0.7940 0.7920 0.7920 0.7910
9.070000 0.7910 0.7910 0.7910 0.7910 0.7910
9.103261 0.7910 0.7910 0.7910 0.7910 0.7890
9.137000 0.7890 0.7910 0.7890 0.7890 0.7890
9.170261 0.7890 0.7890 0.7890 0.7890 0.7890
9.203000 0.7890 0.7890 0.7890 0.7890 0.7890
9.236261 0.7890 0.7890 0.7910 0.7910 0.7910
9.270000 0.7910 0.7910 0.7910 0.7910 0.7910
9.303261 0.7910 0.7910 0.7910 0.7910 0.7910
9.336000 0.7910 0.7910 0.7910 0.7910 0.7890
9.369261 0.7870 0.7870 0.7870 0.7860 0.7820
9.403000 0.7790 0.7770 0.7740 0.7710 0.7690
9.436261 0.7670 0.7660 0.7660 0.7640 0.7620
9.469000 0.7620 0.7620 0.7610 0.7590 0.7570
9.502261 0.7590 0.7570 0.7570 0.7540 0.7520
9.536000 0.7520 0.7510 0.7510 0.7510 0.7490
9.569261 0.7490 0.7490 0.7490 0.7470 0.7440
9.602000 0.7420 0.7410 0.7390 0.7360 0.7320
9.635261 0.7290 0.7260 0.7220 0.7190 0.7160
9.669000 0.7120 0.7090 0.7040 0.6990 0.6960
9.702261 0.6860 0.6810 0.6740 0.6690 0.6610
9.735000 0.6540 0.6460 0.6360 0.6270 0.6170
9.768261 0.6040 0.5950 0.5870 0.5740 0.5620
9.802000 0.5570 0.5500 0.5420 0.5400 0.5400
9.835261 0.5420 0.5420 0.5420 0.5470 0.5570
9.868000 0.5720 0.5850 0.5990 0.6060 0.6220
9.901261 0.6290 0.6390 0.6540 0.6610 0.6710
9.935000 0.6760 0.6790 0.6810 0.6820 0.6820
9.968261 0.6810 0.6790 0.6760 0.6670 0.6590
10.001000 0.6490 0.6360 0.6290 0.6240 0.6170
10.034261 0.6090 0.5990 0.5950 0.5840 0.5740
10.068000 0.5570 0.5490 0.5350 0.5220 0.5020
10.101261 0.4940 0.4850 0.4690 0.4540 0.4400
10.134000 0.4270 0.4150 0.4000 0.3820 0.3680
10.167261 0.3550 0.3470 0.3380 0.3300 0.3180
10.201000 0.3100 0.3020 0.2970 0.2900 0.2850
10.234261 0.2780 0.2730 0.2720 0.2720 0.2700
10.267000 0.2700 0.2680 0.2680 0.2700 0.2700
10.300261 0.2730 0.2780 0.2880 0.3000 0.3050
10.334000 0.3170 0.3280 0.3370 0.3530 0.3650
10.367261 0.3770 0.3950 0.4070 0.4140 0.4320
10.400000 0.4550 0.4640 0.4700 0.4790 0.4920
10.433261 0.5170 0.5250 0.5320 0.5350 0.5370
10.467000 0.5390 0.5400 0.5420 0.5400 0.5400
10.500261 0.5390 0.5350 0.5270 0.5190 0.5050
10.533000 0.5000 0.4940 0.4850 0.4700 0.4570
10.566261 0.4450 0.4370 0.4300 0.4050 0.3830
10.600000 0.3670 0.3480 0.3350 0.3270 0.3150
10.633261 0.3020 0.2900 0.2830 0.2720 0.2600
10.666000 0.2520 0.2480 0.2430 0.2330 0.2280
10.699261 0.2200 0.2130 0.2050 0.2020 0.1980
10.733000 0.1910 0.1880 0.1810 0.1750 0.1700
10.766261 0.1680 0.1610 0.1560 0.1510 0.1460
10.799000 0.1400 0.1330 0.1260 0.1200 0.1150
10.832261 0.1130 0.1100 0.1080 0.1050 0.1010
10.866000 0.1010 0.1000 0.0980 0.0960 0.0930
10.899261 0.0930 0.0930 0.0950 0.0950 0.0960
10.932000 0.0980 0.1000 0.1030 0.1110 0.1180
10.965261 0.1230 0.1300 0.1360 0.1510 0.1610
10.999000 0.1830 0.2070 0.2270 0.2370 0.2480
11.032261 0.2780 0.3000 0.3130 0.3280 0.3450
11.065000 0.3600 0.3750 0.3870 0.3980 0.4070
11.098261 0.4240 0.4400 0.4500 0.4540 0.4570
11.132000 0.4590 0.4590 0.4600 0.4620 0.4620
11.165261 0.4620 0.4640 0.4640 0.4640 0.4650
11.198000 0.4650 0.4670 0.4670 0.4670 0.4670
11.231261 0.4670 0.4650 0.4640 0.4620 0.4600
11.265000 0.4550 0.4500 0.4470 0.4420 0.4400
11.298261 0.4400 0.4390 0.4370 0.4370 0.4350
11.331000 0.4350 0.4340 0.4340 0.4340 0.4340
11.364261 0.4340 0.4350 0.4350 0.4370 0.4370
11.398000 0.4400 0.4450 0.4540 0.4590 0.4600
11.431261 0.4700 0.4740 0.4790 0.4840 0.4950
11.464000 0.5070 0.5220 0.5300 0.5420 0.5490
11.497261 0.5550 0.5670 0.5720 0.5790 0.5840
11.531000 0.5900 0.5990 0.6010 0.6090 0.6120
11.564261 0.6190 0.6240 0.6260 0.6320 0.6390
11.597000 0.6460 0.6460 0.6470 0.6490 0.6490
11.630261 0.6490 0.6510 0.6520 0.6540 0.6560
11.664000 0.6570 0.6570 0.6590 0.6590 0.6590
11.697261 0.6590 0.6590 0.6590 0.6590 0.6590
11.730000 0.6590 0.6590 0.6590 0.6570 0.6560
11.763261 0.6560 0.6560 0.6540 0.6520 0.6510
11.797000 0.6490 0.6440 0.6410 0.6390 0.6340
11.830261 0.6310 0.6270 0.6240 0.6210 0.6170
11.863000 0.6110 0.6040 0.6010 0.5990 0.5900
11.896261 0.5840 0.5790 0.5720 0.5640 0.5570
11.930000 0.5500 0.5420 0.5340 0.5250 0.5170
11.963261 0.5090 0.5000 0.4950 0.4900 0.4790
11.996000 0.4700 0.4600 0.4500 0.4400 0.4350
12.029261 0.4270 0.4150 0.4020 0.3900 0.3800
12.063000 0.3670 0.3550 0.3470 0.3330 0.3280
12.096261 0.3200 0.3100 0.3030 0.3000 0.2920
12.129000 0.2850 0.2820 0.2720 0.2650 0.2600
12.162261 0.2530 0.2500 0.2500 0.2480 0.2430
12.195000 0.2370 0.2280 0.2220 0.2180 0.2170
12.228261 0.2130 0.2080 0.2050 0.2030 0.2020
12.262000 0.2000 0.2000 0.1900 0.1880 0.1860
12.295261 0.1830 0.1800 0.1780 0.1760 0.1710
12.328000 0.1700 0.1680 0.1650 0.1610 0.1600
12.361261 0.1560 0.1530 0.1500 0.1500 0.1450
12.395000 0.1430 0.1360 0.1310 0.1300 0.1280
12.428261 0.1250 0.1210 0.1200 0.1180 0.1160
12.461000 0.1150 0.1130 0.1110 0.1110 0.1100
12.494261 0.1060 0.1060 0.1050 0.1030 0.1010
12.528000 0.0960 0.0950 0.0930 0.0900 0.0900
12.561261 0.0880 0.0880 0.0860 0.0860 0.0850
12.594000 0.0850 0.0850 0.0850 0.0830 0.0830
12.627261 0.0830 0.0810 0.0810 0.0810 0.0800
12.661000 0.0800 0.0800 0.0800 0.0780 0.0780
12.694261 0.0780 0.0780 0.0780 0.0780 0.0780
12.727000 0.0780 0.0780 0.0780 0.0760 0.0760
12.760261 0.0760 0.0760 0.0760 0.0760 0.0760
12.794000 0.0760 0.0760 0.0760 0.0780 0.0780
12.827261 0.0780 0.0780 0.0780 0.0780 0.0780
12.860000 0.0780 0.0780 0.0780 0.0780 0.0800
12.893261 0.0800 0.0810 0.0810 0.0830 0.0830
12.927000 0.0850 0.0850 0.0860 0.0860 0.0880
12.960261 0.0900 0.0900 0.0930 0.0950 0.0960
12.993000 0.1010 0.1030 0.1050 0.1080 0.1100
13.026261 0.1110 0.1130 0.1150 0.1160 0.1180
13.060000 0.1180 0.1200 0.1210 0.1230 0.1250
13.093261 0.1280 0.1310 0.1310 0.1330 0.1350
13.126000 0.1380 0.1410 0.1430 0.1500 0.1510
13.159261 0.1550 0.1560 0.1580 0.1610 0.1650
13.193000 0.1660 0.1710 0.1760 0.1780 0.1780
13.226261 0.1800 0.1810 0.1850 0.1900 0.1910
13.259000 0.1960 0.2000 0.2020 0.2030 0.2030
13.292261 0.2100 0.2130 0.2150 0.2180 0.2200
13.326000 0.2230 0.2250 0.2300 0.2320 0.2370
13.359261 0.2400 0.2420 0.2430 0.2450 0.2520
13.392000 0.2550 0.2600 0.2630 0.2670 0.2680
13.425261 0.2700 0.2720 0.2770 0.2800 0.2820
13.459000 0.2850 0.2870 0.2880 0.2900 0.2930
13.492261 0.2950 0.3000 0.3000 0.3000 0.3020
13.525000 0.3050 0.3080 0.3120 0.3130 0.3150
13.558261 0.3170 0.3200 0.3220 0.3230 0.3250
13.592000 0.3280 0.3320 0.3350 0.3380 0.3400
13.625261 0.3420 0.3430 0.3450 0.3500 0.3500
13.658000 0.3520 0.3580 0.3580 0.3600 0.3620
13.691261 0.3630 0.3630 0.3670 0.3700 0.3730
13.725000 0.3770 0.3780 0.3800 0.3830 0.3850
13.758261 0.3870 0.3880 0.3900 0.3920 0.3950
13.791000 0.3970 0.3980 0.4020 0.4020 0.4020
13.824261 0.4050 0.4050 0.4100 0.4150 0.4190
13.858000 0.4240 0.4300 0.4350 0.4400 0.4420
13.891261 0.4420 0.4450 0.4470 0.4540 0.4550
13.924000 0.4570 0.4600 0.4620 0.4640 0.4670
13.957261 0.4690 0.4700 0.4720 0.4720 0.4740
13.991000 0.4770 0.4790 0.4800 0.4840 0.4850
14.024261 0.4850 0.4870 0.4890 0.4900 0.4920
14.057000 0.4920 0.4950 0.4970 0.4990 0.5020
14.090261 0.5040 0.5050 0.5070 0.5090 0.5100
14.124000 0.5100 0.5140 0.5150 0.5170 0.5170
14.157261 0.5190 0.5200 0.5220 0.5220 0.5250
14.190000 0.5270 0.5270 0.5290 0.5300 0.5300
14.223261 0.5320 0.5340 0.5340 0.5350 0.5350
14.257000 0.5370 0.5370 0.5390 0.5390 0.5400
14.290261 0.5400 0.5420 0.5440 0.5440 0.5450
14.323000 0.5450 0.5470 0.5470 0.5490 0.5490
14.356261 0.5490 0.5500 0.5500 0.5500 0.5500
14.390000 0.5500 0.5500 0.5520 0.5520 0.5520
14.423261 0.5520 0.5520 0.5520 0.5520 0.5520
14.456000 0.5520 0.5520 0.5520 0.5520 0.5520
14.489261 0.5500 0.5500 0.5490 0.5490 0.5440
14.523000 0.5440 0.5420 0.5390 0.5340 0.5320
14.556261 0.5300 0.5250 0.5220 0.5190 0.5140
14.589000 0.5090 0.5000 0.4990 0.4970 0.4940
14.622261 0.4890 0.4870 0.4840 0.4800 0.4790
14.656000 0.4720 0.4700 0.4690 0.4670 0.4620
14.689261 0.4600 0.4590 0.4550 0.4540 0.4520
14.722000 0.4500 0.4490 0.4490 0.4470 0.4470
14.755261 0.4470 0.4470 0.4470 0.4450 0.4450
14.789000 0.4440 0.4440 0.4440 0.4440 0.4450
14.822261 0.4450 0.4450 0.4450 0.4450 0.4450
14.855000 0.4470 0.4470 0.4490 0.4500 0.4500
14.888261 0.4520 0.4540 0.4570 0.4620 0.4650
14.922000 0.4690 0.4700 0.4720 0.4750 0.4770
14.955261 0.4790 0.4820 0.4890 0.4940 0.5040
14.988000 0.5090 0.5120 0.5170 0.5240 0.5270
15.021261 0.5300 0.5300 0.5320 0.5320 0.5340
15.055000 0.5340 0.5340 0.5340 0.5340 0.5340
15.088261 0.5340 0.5340 0.5350 0.5350 0.5340
15.121000 0.5340 0.5340 0.5340 0.5340 0.5340
15.154261 0.5340 0.5350 0.5370 0.5370 0.5390
15.188000 0.5400 0.5400 0.5420 0.5440 0.5440
15.221261 0.5440 0.5440 0.5440 0.5440 0.5440
15.254000 0.5450 0.5450 0.5470 0.5470 0.5470
15.287261 0.5470 0.5490 0.5490 0.5490 0.5490
15.320000 0.5500 0.5500 0.5500 0.5500 0.5520
15.353261 0.5520 0.5520 0.5540 0.5520 0.5540
15.387000 0.5540 0.5540 0.5540 0.5550 0.5550
15.420261 0.5550 0.5550 0.5550 0.5550 0.5590
15.453000 0.5590 0.5590 0.5590 0.5590 0.5590
15.486261 0.5600 0.5600 0.5600 0.5600 0.5600
15.520000 0.5600 0.5600 0.5600 0.5600 0.5600
15.553261 0.5620 0.5620 0.5620 0.5620 0.5620
15.586000 0.5620 0.5620 0.5620 0.5620 0.5620
15.619261 0.5620 0.5640 0.5650 0.5650 0.5650
15.653000 0.5650 0.5650 0.5670 0.5670 0.5690
15.686261 0.5690 0.5690 0.5690 0.5690 0.5690
15.719000 0.5690 0.5690 0.5700 0.5700 0.5700
15.752261 0.5700 0.5700 0.5720 0.5720 0.5720
15.786000 0.5720 0.5740 0.5750 0.5770 0.5770
15.819261 0.5790 0.5790 0.5800 0.5800 0.5820
15.852000 0.5820 0.5840 0.5840 0.5850 0.5850
15.885261 0.5870 0.5870 0.5870 0.5890 0.5890
15.919000 0.5900 0.5900 0.5920 0.5920 0.5920
15.952261 0.5920 0.5920 0.5940 0.5940 0.5920
15.985000 0.5940 0.5940
##END=
