##TITLE=POTASSIUM BICARBONATE
$$ C.P.
##JCAMP-DX=4.24
##DATA TYPE=INFRARED SPECTRUM
##CLASS=COBLENTZ
##ORIGIN=MELLON INSTITUTE
##OWNER=COBLENTZ SOCIETY
Collection (C) 2018 copyright by the U.S. Secretary of Commerce
on behalf of the United States of America. All rights reserved.
##DATE=Not specified, most likely prior to 1970
##MOLFORM=K H C O3
##SOURCE REFERENCE=COBLENTZ NO. 513
##$NIST ID=B6000513
##$NIST SOURCE=COBLENTZ
##$NIST IMAGE=cob513
##SPECTROMETER/DATA SYSTEM=Not specified, most likely a prism, grating, or hybrid spectrometer.
##STATE=SOLID (FLUOROLUBE MULL FOR HIGH FREQUENCY REGION AND DRY POWDER FOR LOW FREQUENCY REGION)
##SAMPLING PROCEDURE=TRANSMISSION
##RESOLUTION=4
##DATA PROCESSING=DIGITIZED BY NIST FROM HARD COPY
##XUNITS=MICROMETERS
##YUNITS=TRANSMITTANCE
##XFACTOR=1.000000
##YFACTOR=1
##DELTAX=000.006794
##FIRSTX=2.049
##LASTX=16.0042
##FIRSTY=0.874
##MAXX=16.0042
##MINX=2.049
##MAXY=0.981
##MINY=0.221
##NPOINTS=2055
##XYDATA=(X++(Y..Y))
2.049000 0.8740 0.8760 0.8760 0.8760 0.8740
2.082988 0.8740 0.8740 0.8740 0.8740 0.8760
2.117000 0.8760 0.8780 0.8780 0.8810 0.8830
2.150988 0.8850 0.8880 0.8900 0.8910 0.8930
2.185000 0.8950 0.8950 0.8970 0.8980 0.8970
2.218988 0.8930 0.8930 0.8930 0.8950 0.8950
2.253000 0.9000 0.9000 0.9020 0.9030 0.9050
2.286988 0.9090 0.9090 0.9100 0.9100 0.9100
2.321000 0.9140 0.9170 0.9170 0.9170 0.9170
2.354988 0.9190 0.9190 0.9190 0.9190 0.9190
2.389000 0.9190 0.9210 0.9220 0.9260 0.9290
2.422988 0.9310 0.9330 0.9330 0.9340 0.9360
2.456000 0.9380 0.9410 0.9410 0.9410 0.9410
2.489988 0.9430 0.9450 0.9480 0.9500 0.9500
2.524000 0.9500 0.9500 0.9500 0.9500 0.9500
2.557988 0.9500 0.9510 0.9530 0.9570 0.9580
2.592000 0.9600 0.9630 0.9630 0.9630 0.9630
2.625988 0.9630 0.9620 0.9620 0.9630 0.9630
2.660000 0.9670 0.9690 0.9700 0.9700 0.9700
2.693988 0.9700 0.9700 0.9690 0.9690 0.9690
2.728000 0.9700 0.9700 0.9700 0.9700 0.9720
2.761988 0.9720 0.9720 0.9720 0.9720 0.9740
2.796000 0.9740 0.9750 0.9770 0.9770 0.9750
2.829988 0.9750 0.9750 0.9740 0.9740 0.9750
2.864000 0.9750 0.9770 0.9770 0.9790 0.9790
2.897988 0.9810 0.9810 0.9810 0.9810 0.9810
2.932000 0.9790 0.9790 0.9770 0.9750 0.9750
2.965988 0.9740 0.9720 0.9720 0.9740 0.9740
3.000000 0.9720 0.9720 0.9690 0.9630 0.9620
3.033988 0.9600 0.9550 0.9500 0.9500 0.9430
3.068000 0.9360 0.9310 0.9220 0.9150 0.9090
3.101988 0.9030 0.9000 0.8910 0.8850 0.8830
3.136000 0.8760 0.8640 0.8590 0.8540 0.8420
3.169988 0.8330 0.8230 0.8130 0.8070 0.8010
3.204000 0.7820 0.7680 0.7630 0.7610 0.7590
3.237988 0.7540 0.7490 0.7390 0.7320 0.7280
3.272000 0.7220 0.7110 0.7040 0.6990 0.6700
3.305988 0.6600 0.6500 0.6410 0.6270 0.6200
3.340000 0.6150 0.6140 0.6120 0.6100 0.6080
3.373988 0.6080 0.6100 0.6120 0.6120 0.6170
3.408000 0.6220 0.6260 0.6340 0.6410 0.6440
3.441988 0.6530 0.6530 0.6600 0.6630 0.6740
3.476000 0.6750 0.6790 0.6840 0.6860 0.6910
3.509988 0.6980 0.7010 0.7030 0.7030 0.7040
3.544000 0.7030 0.6960 0.6870 0.6740 0.6600
3.577988 0.6460 0.6320 0.6240 0.6140 0.6070
3.611000 0.6020 0.5980 0.5900 0.5830 0.5830
3.644988 0.5790 0.5780 0.5760 0.5720 0.5670
3.679000 0.5620 0.5570 0.5520 0.5430 0.5420
3.712988 0.5380 0.5330 0.5300 0.5240 0.5230
3.747000 0.5210 0.5180 0.5160 0.5120 0.5120
3.780988 0.5110 0.5110 0.5090 0.5070 0.5060
3.815000 0.5060 0.5040 0.5040 0.5040 0.5040
3.848988 0.5040 0.5060 0.5070 0.5110 0.5110
3.883000 0.5140 0.5180 0.5230 0.5240 0.5300
3.916988 0.5330 0.5350 0.5360 0.5400 0.5430
3.951000 0.5470 0.5480 0.5520 0.5540 0.5550
3.984988 0.5590 0.5620 0.5660 0.5690 0.5710
4.019000 0.5760 0.5790 0.5830 0.5880 0.5910
4.052988 0.5930 0.5980 0.5980 0.6020 0.6070
4.087000 0.6100 0.6120 0.6170 0.6220 0.6270
4.120988 0.6310 0.6360 0.6430 0.6480 0.6510
4.155000 0.6550 0.6560 0.6580 0.6560 0.6530
4.188988 0.6500 0.6440 0.6430 0.6410 0.6430
4.223000 0.6440 0.6480 0.6500 0.6510 0.6530
4.256988 0.6530 0.6530 0.6530 0.6530 0.6530
4.291000 0.6550 0.6580 0.6620 0.6630 0.6700
4.324988 0.6700 0.6720 0.6740 0.6750 0.6800
4.359000 0.6860 0.6940 0.7010 0.7060 0.7100
4.392988 0.7150 0.7150 0.7200 0.7200 0.7340
4.427000 0.7490 0.7530 0.7540 0.7610 0.7680
4.460988 0.7730 0.7780 0.7830 0.7850 0.7900
4.495000 0.7940 0.7950 0.7970 0.8010 0.8020
4.528988 0.8040 0.8090 0.8140 0.8160 0.8190
4.563000 0.8230 0.8250 0.8260 0.8280 0.8300
4.596988 0.8330 0.8350 0.8380 0.8420 0.8470
4.631000 0.8490 0.8520 0.8540 0.8550 0.8590
4.664988 0.8610 0.8620 0.8620 0.8640 0.8660
4.699000 0.8670 0.8670 0.8690 0.8690 0.8690
4.732988 0.8690 0.8690 0.8690 0.8690 0.8690
4.767000 0.8690 0.8690 0.8710 0.8710 0.8730
4.800988 0.8740 0.8740 0.8760 0.8760 0.8780
4.834000 0.8790 0.8790 0.8790 0.8790 0.8790
4.867988 0.8790 0.8790 0.8790 0.8790 0.8790
4.902000 0.8790 0.8790 0.8790 0.8790 0.8790
4.935988 0.8790 0.8790 0.8790 0.8790 0.8790
4.970000 0.8790 0.8790 0.8810 0.8810 0.8830
5.003988 0.8830 0.8830 0.8830 0.8830 0.8830
5.038000 0.8830 0.8850 0.8860 0.8880 0.8880
5.071988 0.8880 0.8900 0.8910 0.8930 0.8950
5.106000 0.8950 0.8950 0.8950 0.8950 0.8950
5.139988 0.8950 0.8930 0.8930 0.8910 0.8910
5.174000 0.8900 0.8880 0.8860 0.8850 0.8830
5.207988 0.8810 0.8790 0.8780 0.8760 0.8730
5.242000 0.8710 0.8710 0.8690 0.8690 0.8640
5.275988 0.8640 0.8640 0.8640 0.8660 0.8660
5.310000 0.8660 0.8660 0.8660 0.8660 0.8670
5.343988 0.8670 0.8670 0.8670 0.8660 0.8660
5.378000 0.8660 0.8660 0.8660 0.8660 0.8660
5.411988 0.8660 0.8660 0.8670 0.8670 0.8690
5.446000 0.8730 0.8740 0.8760 0.8760 0.8830
5.479988 0.8850 0.8880 0.8900 0.8930 0.8950
5.514000 0.9000 0.9020 0.9030 0.9050 0.9100
5.547988 0.9140 0.9150 0.9190 0.9220 0.9260
5.582000 0.9310 0.9340 0.9380 0.9410 0.9430
5.615988 0.9430 0.9430 0.9450 0.9460 0.9460
5.650000 0.9460 0.9460 0.9460 0.9460 0.9460
5.683988 0.9460 0.9480 0.9480 0.9480 0.9480
5.718000 0.9480 0.9480 0.9480 0.9480 0.9480
5.751988 0.9480 0.9430 0.9310 0.9190 0.9050
5.786000 0.9000 0.8930 0.8810 0.8620 0.8540
5.819988 0.8520 0.8450 0.8400 0.8350 0.8070
5.854000 0.7400 0.7280 0.6990 0.6670 0.6320
5.887988 0.6080 0.5880 0.5480 0.5380 0.5180
5.922000 0.4630 0.4470 0.4440 0.4400 0.4320
5.955988 0.4250 0.4160 0.4030 0.3870 0.3770
5.989000 0.3530 0.3360 0.3190 0.3070 0.2880
6.022988 0.2740 0.2640 0.2600 0.2590 0.2590
6.057000 0.2590 0.2530 0.2520 0.2500 0.2430
6.090988 0.2380 0.2360 0.2310 0.2260 0.2240
6.125000 0.2220 0.2220 0.2210 0.2220 0.2240
6.158988 0.2500 0.2650 0.2790 0.2930 0.3320
6.193000 0.4040 0.4280 0.4420 0.4540 0.4680
6.226988 0.4780 0.4950 0.5180 0.5230 0.5310
6.261000 0.5360 0.5420 0.5500 0.5620 0.5810
6.294988 0.5910 0.5980 0.6020 0.6070 0.6140
6.329000 0.6170 0.6220 0.6260 0.6340 0.6510
6.362988 0.6600 0.6650 0.6700 0.6720 0.6740
6.397000 0.6740 0.6790 0.6820 0.6890 0.6920
6.430988 0.6980 0.7030 0.7040 0.7110 0.7230
6.465000 0.7280 0.7320 0.7340 0.7350 0.7390
6.498988 0.7390 0.7390 0.7390 0.7400 0.7400
6.533000 0.7420 0.7440 0.7470 0.7490 0.7540
6.566988 0.7580 0.7630 0.7650 0.7650 0.7660
6.601000 0.7680 0.7700 0.7750 0.7750 0.7800
6.634988 0.7890 0.7920 0.7950 0.8010 0.8010
6.669000 0.8020 0.8040 0.8040 0.8040 0.8060
6.702988 0.8060 0.8040 0.8040 0.8040 0.8020
6.737000 0.8010 0.7970 0.7950 0.7890 0.7830
6.770988 0.7710 0.7540 0.7440 0.7350 0.7280
6.805000 0.7250 0.7220 0.7010 0.6840 0.6560
6.838988 0.6290 0.6150 0.5840 0.5480 0.5120
6.873000 0.5060 0.4990 0.4880 0.4780 0.4590
6.906988 0.4520 0.4370 0.4300 0.4200 0.4150
6.941000 0.4030 0.3990 0.3840 0.3670 0.3610
6.974988 0.3530 0.3390 0.3320 0.3240 0.3100
7.009000 0.2980 0.2890 0.2860 0.2810 0.2740
7.042988 0.2710 0.2620 0.2590 0.2530 0.2460
7.077000 0.2400 0.2290 0.2280 0.2260 0.2240
7.110988 0.2220 0.2220 0.2220 0.2240 0.2260
7.145000 0.2280 0.2280 0.2310 0.2330 0.2360
7.178988 0.2460 0.2620 0.2760 0.2890 0.3050
7.212000 0.3120 0.3120 0.3120 0.3120 0.3100
7.245988 0.3100 0.3100 0.3100 0.3100 0.3100
7.280000 0.3100 0.3100 0.3120 0.3130 0.3200
7.313988 0.3480 0.3630 0.3800 0.3990 0.4060
7.348000 0.4130 0.4200 0.4270 0.4330 0.4370
7.381988 0.4420 0.4490 0.4520 0.4590 0.4680
7.416000 0.4690 0.4710 0.4750 0.4780 0.4800
7.449988 0.4830 0.4870 0.4920 0.4990 0.5000
7.484000 0.5020 0.5090 0.5140 0.5210 0.5240
7.517988 0.5240 0.5300 0.5380 0.5430 0.5480
7.552000 0.5540 0.5550 0.5550 0.5590 0.5600
7.585988 0.5600 0.5620 0.5640 0.5690 0.5720
7.620000 0.5740 0.5760 0.5780 0.5810 0.5830
7.653988 0.5880 0.5910 0.5930 0.5980 0.6020
7.688000 0.6020 0.6080 0.6100 0.6140 0.6170
7.721988 0.6220 0.6260 0.6290 0.6340 0.6410
7.756000 0.6440 0.6510 0.6530 0.6600 0.6630
7.789988 0.6650 0.6750 0.6820 0.6860 0.6890
7.824000 0.6920 0.6960 0.7010 0.7030 0.7030
7.857988 0.7100 0.7130 0.7150 0.7200 0.7250
7.892000 0.7300 0.7340 0.7370 0.7400 0.7420
7.925988 0.7470 0.7510 0.7530 0.7540 0.7560
7.960000 0.7590 0.7630 0.7650 0.7660 0.7680
7.993988 0.7730 0.7800 0.7800 0.7820 0.7830
8.028000 0.7830 0.7850 0.7850 0.7850 0.7870
8.061988 0.7890 0.7900 0.7920 0.7940 0.7950
8.096000 0.7950 0.7990 0.8010 0.8010 0.8020
8.129988 0.8020 0.8020 0.8040 0.8090 0.8110
8.164000 0.8110 0.8130 0.8140 0.8140 0.8160
8.197988 0.8160 0.8180 0.8180 0.8180 0.8180
8.232000 0.8180 0.8180 0.8180 0.8180 0.8190
8.265988 0.8210 0.8210 0.8230 0.8230 0.8260
8.300000 0.8260 0.8280 0.8280 0.8280 0.8300
8.333988 0.8300 0.8300 0.8300 0.8310 0.8330
8.368000 0.8330 0.8350 0.8350 0.8350 0.8370
8.401988 0.8370 0.8380 0.8380 0.8380 0.8400
8.435000 0.8400 0.8400 0.8400 0.8420 0.8430
8.468988 0.8450 0.8470 0.8490 0.8490 0.8500
8.503000 0.8520 0.8520 0.8520 0.8540 0.8540
8.536988 0.8540 0.8550 0.8550 0.8570 0.8570
8.571000 0.8590 0.8610 0.8610 0.8620 0.8620
8.604988 0.8640 0.8640 0.8640 0.8660 0.8660
8.639000 0.8670 0.8670 0.8670 0.8690 0.8690
8.672988 0.8710 0.8710 0.8730 0.8730 0.8730
8.707000 0.8710 0.8710 0.8710 0.8730 0.8730
8.740988 0.8710 0.8710 0.8710 0.8730 0.8730
8.775000 0.8730 0.8730 0.8730 0.8730 0.8740
8.808988 0.8740 0.8740 0.8740 0.8740 0.8740
8.843000 0.8740 0.8740 0.8760 0.8780 0.8780
8.876988 0.8780 0.8780 0.8790 0.8790 0.8790
8.911000 0.8790 0.8790 0.8790 0.8790 0.8810
8.944988 0.8810 0.8830 0.8830 0.8830 0.8850
8.979000 0.8850 0.8850 0.8860 0.8860 0.8860
9.012988 0.8860 0.8860 0.8860 0.8880 0.8880
9.047000 0.8880 0.8880 0.8900 0.8900 0.8900
9.080988 0.8910 0.8910 0.8910 0.8910 0.8930
9.115000 0.8930 0.8930 0.8930 0.8930 0.8950
9.148988 0.8950 0.8950 0.8950 0.8950 0.8970
9.183000 0.8970 0.8970 0.8970 0.8970 0.8970
9.216988 0.8970 0.8970 0.8970 0.8970 0.8970
9.251000 0.8970 0.8970 0.8970 0.8970 0.8950
9.284988 0.8950 0.8950 0.8950 0.8930 0.8930
9.319000 0.8930 0.8930 0.8930 0.8970 0.8970
9.352988 0.8980 0.8980 0.9000 0.9000 0.9020
9.387000 0.9020 0.9020 0.9020 0.9020 0.9020
9.420988 0.9020 0.9020 0.9020 0.9020 0.9020
9.455000 0.9020 0.9020 0.9020 0.9020 0.9020
9.488988 0.9020 0.9020 0.9020 0.9020 0.9030
9.523000 0.9030 0.9030 0.9030 0.9030 0.9030
9.556988 0.9030 0.9030 0.9030 0.9030 0.9030
9.590000 0.9030 0.9030 0.9030 0.9030 0.9030
9.623988 0.9030 0.9030 0.9030 0.9030 0.9030
9.658000 0.9030 0.9030 0.9030 0.9020 0.9000
9.691988 0.8970 0.8930 0.8900 0.8880 0.8880
9.726000 0.8850 0.8830 0.8810 0.8760 0.8740
9.759988 0.8730 0.8710 0.8710 0.8570 0.8500
9.794000 0.8470 0.8260 0.8040 0.7820 0.7580
9.827988 0.7560 0.7540 0.7040 0.6700 0.6630
9.862000 0.6550 0.6390 0.6290 0.6200 0.6150
9.895988 0.6120 0.6080 0.6080 0.6080 0.6080
9.930000 0.6120 0.6150 0.6150 0.6170 0.6190
9.963988 0.6200 0.6220 0.6240 0.6260 0.6260
9.998000 0.6270 0.6290 0.6290 0.6290 0.6290
10.031988 0.6290 0.6270 0.6260 0.6260 0.6240
10.066000 0.6220 0.6200 0.6200 0.6200 0.6200
10.099988 0.6200 0.6200 0.6220 0.6220 0.6220
10.134000 0.6240 0.6240 0.6240 0.6260 0.6260
10.167988 0.6270 0.6270 0.6290 0.6290 0.6310
10.202000 0.6320 0.6320 0.6340 0.6340 0.6360
10.235988 0.6380 0.6390 0.6410 0.6430 0.6440
10.270000 0.6480 0.6500 0.6530 0.6600 0.6620
10.303988 0.6740 0.6790 0.6840 0.6860 0.6890
10.338000 0.6920 0.6960 0.6960 0.7030 0.7040
10.371988 0.7060 0.7130 0.7180 0.7230 0.7270
10.406000 0.7350 0.7440 0.7490 0.7510 0.7540
10.439988 0.7560 0.7580 0.7660 0.7680 0.7730
10.474000 0.7750 0.7770 0.7820 0.7870 0.7920
10.507988 0.7950 0.7970 0.8010 0.8020 0.8040
10.542000 0.8060 0.8060 0.8070 0.8140 0.8180
10.575988 0.8180 0.8230 0.8260 0.8300 0.8330
10.610000 0.8370 0.8430 0.8470 0.8490 0.8500
10.643988 0.8520 0.8540 0.8540 0.8540 0.8540
10.678000 0.8540 0.8540 0.8550 0.8550 0.8550
10.711988 0.8570 0.8570 0.8610 0.8620 0.8640
10.746000 0.8660 0.8670 0.8690 0.8690 0.8710
10.779988 0.8730 0.8740 0.8740 0.8760 0.8760
10.813000 0.8760 0.8780 0.8780 0.8790 0.8830
10.846988 0.8830 0.8830 0.8850 0.8860 0.8880
10.881000 0.8900 0.8910 0.8930 0.8930 0.8950
10.914988 0.8970 0.8970 0.8980 0.8980 0.9000
10.949000 0.9020 0.9030 0.9030 0.9030 0.9030
10.982988 0.9030 0.9050 0.9050 0.9070 0.9090
11.017000 0.9090 0.9090 0.9090 0.9100 0.9090
11.050988 0.9100 0.9100 0.9120 0.9140 0.9120
11.085000 0.9120 0.9140 0.9140 0.9140 0.9140
11.118988 0.9150 0.9150 0.9170 0.9190 0.9210
11.153000 0.9220 0.9220 0.9220 0.9260 0.9260
11.186988 0.9240 0.9240 0.9260 0.9260 0.9260
11.221000 0.9260 0.9260 0.9260 0.9260 0.9260
11.254988 0.9260 0.9260 0.9260 0.9260 0.9270
11.289000 0.9270 0.9270 0.9290 0.9290 0.9310
11.322988 0.9310 0.9310 0.9330 0.9330 0.9340
11.357000 0.9360 0.9380 0.9380 0.9380 0.9380
11.390988 0.9380 0.9390 0.9410 0.9410 0.9410
11.425000 0.9410 0.9410 0.9410 0.9410 0.9410
11.458988 0.9430 0.9430 0.9430 0.9430 0.9450
11.493000 0.9460 0.9460 0.9480 0.9460 0.9480
11.526988 0.9480 0.9500 0.9500 0.9500 0.9510
11.561000 0.9530 0.9510 0.9510 0.9510 0.9530
11.594988 0.9510 0.9510 0.9510 0.9510 0.9510
11.629000 0.9510 0.9510 0.9510 0.9530 0.9530
11.662988 0.9530 0.9530 0.9530 0.9530 0.9530
11.697000 0.9550 0.9550 0.9550 0.9550 0.9550
11.730988 0.9550 0.9550 0.9550 0.9550 0.9550
11.765000 0.9550 0.9550 0.9550 0.9530 0.9530
11.798988 0.9530 0.9450 0.9430 0.9390 0.9270
11.833000 0.9190 0.9020 0.8860 0.8690 0.8500
11.866988 0.8330 0.8130 0.7830 0.7400 0.7230
11.901000 0.6990 0.6860 0.6530 0.6200 0.5960
11.934988 0.5830 0.5720 0.5600 0.5420 0.5360
11.968000 0.5330 0.5330 0.5300 0.5300 0.5260
12.001988 0.5280 0.5330 0.5360 0.5470 0.5570
12.036000 0.5670 0.5740 0.5980 0.6120 0.6360
12.069988 0.6600 0.6980 0.7200 0.7270 0.7460
12.104000 0.7510 0.7610 0.7710 0.7920 0.8020
12.137988 0.8060 0.8190 0.8330 0.8380 0.8540
12.172000 0.8550 0.8620 0.8690 0.8780 0.8830
12.205988 0.8880 0.8950 0.8980 0.9030 0.9070
12.240000 0.9070 0.9140 0.9150 0.9150 0.9170
12.273988 0.9170 0.9190 0.9210 0.9210 0.9210
12.308000 0.9220 0.9220 0.9220 0.9240 0.9240
12.341988 0.9240 0.9240 0.9240 0.9260 0.9260
12.376000 0.9270 0.9290 0.9290 0.9310 0.9330
12.409988 0.9330 0.9340 0.9340 0.9380 0.9380
12.444000 0.9380 0.9390 0.9410 0.9430 0.9430
12.477988 0.9450 0.9450 0.9450 0.9460 0.9460
12.512000 0.9460 0.9460 0.9480 0.9480 0.9480
12.545988 0.9500 0.9500 0.9510 0.9510 0.9510
12.580000 0.9530 0.9530 0.9530 0.9530 0.9530
12.613988 0.9550 0.9550 0.9550 0.9550 0.9550
12.648000 0.9570 0.9570 0.9570 0.9570 0.9580
12.681988 0.9580 0.9580 0.9580 0.9580 0.9580
12.716000 0.9580 0.9580 0.9580 0.9600 0.9600
12.749988 0.9600 0.9600 0.9600 0.9600 0.9600
12.784000 0.9600 0.9600 0.9600 0.9620 0.9620
12.817988 0.9620 0.9620 0.9620 0.9620 0.9620
12.852000 0.9620 0.9630 0.9630 0.9620 0.9630
12.885988 0.9620 0.9620 0.9620 0.9620 0.9620
12.920000 0.9620 0.9620 0.9620 0.9620 0.9620
12.953988 0.9620 0.9620 0.9600 0.9600 0.9600
12.988000 0.9600 0.9580 0.9580 0.9580 0.9580
13.021988 0.9570 0.9570 0.9570 0.9570 0.9570
13.056000 0.9570 0.9570 0.9580 0.9580 0.9580
13.089988 0.9580 0.9580 0.9580 0.9580 0.9580
13.124000 0.9580 0.9580 0.9580 0.9580 0.9580
13.157988 0.9600 0.9600 0.9600 0.9580 0.9580
13.191000 0.9580 0.9580 0.9580 0.9580 0.9580
13.224988 0.9580 0.9570 0.9570 0.9550 0.9550
13.259000 0.9550 0.9550 0.9570 0.9570 0.9550
13.292988 0.9550 0.9550 0.9550 0.9550 0.9550
13.327000 0.9550 0.9530 0.9530 0.9530 0.9530
13.360988 0.9530 0.9530 0.9530 0.9530 0.9530
13.395000 0.9530 0.9510 0.9500 0.9480 0.9460
13.428988 0.9460 0.9460 0.9450 0.9450 0.9450
13.463000 0.9430 0.9430 0.9450 0.9450 0.9450
13.496988 0.9450 0.9450 0.9430 0.9430 0.9410
13.531000 0.9410 0.9380 0.9380 0.9360 0.9340
13.564988 0.9330 0.9330 0.9330 0.9310 0.9310
13.599000 0.9290 0.9310 0.9310 0.9310 0.9310
13.632988 0.9310 0.9330 0.9330 0.9310 0.9310
13.667000 0.9290 0.9270 0.9260 0.9240 0.9240
13.700988 0.9220 0.9210 0.9210 0.9190 0.9170
13.735000 0.9150 0.9150 0.9140 0.9140 0.9140
13.768988 0.9120 0.9120 0.9100 0.9100 0.9090
13.803000 0.9090 0.9050 0.9020 0.8970 0.8970
13.836988 0.8930 0.8910 0.8860 0.8850 0.8810
13.871000 0.8780 0.8760 0.8730 0.8690 0.8670
13.904988 0.8590 0.8540 0.8470 0.8380 0.8330
13.939000 0.8230 0.8090 0.8020 0.8010 0.7990
13.972988 0.7770 0.7660 0.7540 0.7420 0.7280
14.007000 0.7220 0.7030 0.6750 0.6700 0.6670
14.040988 0.6600 0.6530 0.6290 0.6140 0.6080
14.075000 0.6030 0.5810 0.5740 0.5690 0.5620
14.108988 0.5540 0.5450 0.5380 0.5350 0.5280
14.143000 0.5240 0.5230 0.5190 0.5180 0.5180
14.176988 0.5160 0.5140 0.5140 0.5190 0.5240
14.211000 0.5330 0.5400 0.5470 0.5540 0.5590
14.244988 0.5640 0.5690 0.5760 0.5840 0.5910
14.279000 0.6030 0.6050 0.6120 0.6170 0.6240
14.312988 0.6380 0.6430 0.6530 0.6550 0.6580
14.347000 0.6630 0.6680 0.6720 0.6740 0.6750
14.380988 0.6790 0.6790 0.6820 0.6860 0.6890
14.414000 0.6910 0.6920 0.6960 0.6990 0.7040
14.447988 0.7060 0.7080 0.7130 0.7150 0.7160
14.482000 0.7180 0.7200 0.7230 0.7230 0.7220
14.515988 0.7220 0.7230 0.7230 0.7250 0.7270
14.550000 0.7270 0.7270 0.7270 0.7250 0.7230
14.583988 0.7230 0.7230 0.7220 0.7230 0.7230
14.618000 0.7230 0.7230 0.7250 0.7250 0.7250
14.651988 0.7250 0.7230 0.7230 0.7200 0.7180
14.686000 0.7160 0.7150 0.7150 0.7150 0.7150
14.719988 0.7150 0.7130 0.7130 0.7080 0.7060
14.754000 0.7060 0.7030 0.6990 0.6960 0.6920
14.787988 0.6840 0.6740 0.6700 0.6670 0.6650
14.822000 0.6630 0.6630 0.6630 0.6630 0.6620
14.855988 0.6620 0.6600 0.6580 0.6560 0.6560
14.890000 0.6550 0.6560 0.6550 0.6550 0.6530
14.923988 0.6530 0.6510 0.6480 0.6480 0.6440
14.958000 0.6440 0.6430 0.6410 0.6390 0.6380
14.991988 0.6380 0.6380 0.6360 0.6380 0.6340
15.026000 0.6340 0.6340 0.6340 0.6340 0.6320
15.059988 0.6320 0.6320 0.6310 0.6310 0.6310
15.094000 0.6310 0.6310 0.6310 0.6310 0.6310
15.127988 0.6310 0.6310 0.6310 0.6320 0.6320
15.162000 0.6320 0.6320 0.6320 0.6310 0.6340
15.195988 0.6320 0.6320 0.6320 0.6320 0.6320
15.230000 0.6310 0.6310 0.6290 0.6290 0.6270
15.263988 0.6270 0.6270 0.6270 0.6260 0.6260
15.298000 0.6260 0.6240 0.6240 0.6240 0.6240
15.331988 0.6240 0.6240 0.6220 0.6220 0.6200
15.366000 0.6200 0.6190 0.6190 0.6170 0.6170
15.399988 0.6170 0.6170 0.6150 0.6150 0.6150
15.434000 0.6140 0.6140 0.6140 0.6140 0.6120
15.467988 0.6120 0.6100 0.6080 0.6080 0.6080
15.502000 0.6070 0.6080 0.6070 0.6070 0.6050
15.535988 0.6030 0.6030 0.6020 0.6000 0.6000
15.569000 0.5980 0.5980 0.5980 0.5960 0.5960
15.602988 0.5960 0.5960 0.5960 0.5980 0.5960
15.637000 0.5950 0.5950 0.5950 0.5930 0.5930
15.670988 0.5910 0.5910 0.5910 0.5910 0.5910
15.705000 0.5900 0.5900 0.5900 0.5880 0.5860
15.738988 0.5860 0.5840 0.5840 0.5840 0.5840
15.773000 0.5830 0.5830 0.5830 0.5830 0.5830
15.806988 0.5830 0.5810 0.5830 0.5810 0.5790
15.841000 0.5780 0.5780 0.5780 0.5780 0.5760
15.874988 0.5760 0.5760 0.5760 0.5760 0.5740
15.909000 0.5740 0.5740 0.5720 0.5720 0.5720
15.942988 0.5720 0.5720 0.5720 0.5710 0.5710
15.977000 0.5690 0.5690 0.5670 0.5670 0.5670
##END=
