##TITLE=ADENINE, N-[2-[[2-(p-TOLYLTHIO)ETHYL]THIO]ETHYL]-
##JCAMP-DX=4.24
##DATA TYPE=INFRARED SPECTRUM
##CLASS=COBLENTZ III
##ORIGIN=SOUTHERN RESEARCH INSTITUTE
##OWNER=COBLENTZ SOCIETY
Collection (C) 2018 copyright by the U.S. Secretary of Commerce
on behalf of the United States of America. All rights reserved.
##DATE=1960/01/21
##NAMES=N-[2-((2-[(4-methylphenyl)sulfanyl]ethyl)sulfanyl)ethyl]-N-(7H-purin-6-yl)amine
N-[2-((2-[(4-methylphenyl)sulfanyl]ethyl)sulfanyl)ethyl]-7H-purin-6-amine
##MOLFORM=C16 H19 N5 S2
##SOURCE REFERENCE=COBLENTZ NO. 8321
##$NIST ID=B6008321
##$NIST SOURCE=COBLENTZ
##$NIST IMAGE=cob8321
##SPECTROMETER/DATA SYSTEM=PERKIN-ELMER 21 (GRATING)
##INSTRUMENT PARAMETERS=FILTER CHANGE AT 1025 CM^-^1
##STATE=SOLID (0.8 mg / 650 mg KBr DISC)
$$ PURITY - ANALYTICAL
##SAMPLING PROCEDURE=TRANSMISSION
##RESOLUTION=2
##DATA PROCESSING=DIGITIZED BY NIST FROM HARD COPY (FROM TWO SEGMENTS)
##XUNITS=1/CM
##YUNITS=TRANSMITTANCE
##XFACTOR=1.000000
##YFACTOR=1
##DELTAX=1.317957
##FIRSTX=618.868
##LASTX=3965.16
##FIRSTY=0.637
##MAXX=3965.16
##MINX=618.868
##MAXY=0.794
##MINY=0.181023
##NPOINTS=2540
##XYDATA=(X++(Y..Y))
618.868000 0.6370 0.6360 0.6340 0.6330 0.6320
625.457785 0.6311 0.6291 0.6281 0.6271 0.6252
632.047570 0.6232 0.6203 0.6174 0.6153 0.6124
638.637355 0.6112 0.6102 0.6084 0.6072 0.6062
645.227140 0.6060 0.6060 0.6060 0.6060 0.6060
651.816925 0.6060 0.6060 0.6060 0.6046 0.6033
658.406710 0.6030 0.6023 0.6013 0.6010 0.5991
664.996495 0.5974 0.5958 0.5944 0.5934 0.5918
671.586280 0.5893 0.5863 0.5833 0.5809 0.5784
678.176065 0.5775 0.5811 0.5895 0.6009 0.6113
684.765850 0.6179 0.6214 0.6235 0.6240 0.6240
691.355635 0.6240 0.6244 0.6250 0.6250 0.6250
697.945420 0.6250 0.6250 0.6250 0.6250 0.6250
704.535205 0.6250 0.6250 0.6250 0.6250 0.6250
711.124990 0.6250 0.6250 0.6250 0.6250 0.6250
717.714775 0.6250 0.6250 0.6250 0.6250 0.6250
724.304560 0.6250 0.6250 0.6250 0.6250 0.6250
730.894345 0.6250 0.6250 0.6250 0.6250 0.6250
737.484130 0.6250 0.6250 0.6250 0.6250 0.6250
744.073915 0.6250 0.6250 0.6250 0.6250 0.6269
750.663700 0.6308 0.6367 0.6417 0.6466 0.6506
757.253485 0.6564 0.6588 0.6608 0.6619 0.6654
763.843270 0.6677 0.6714 0.6745 0.6766 0.6786
770.433055 0.6790 0.6790 0.6790 0.6790 0.6790
777.022840 0.6768 0.6753 0.6728 0.6706 0.6679
783.612625 0.6642 0.6616 0.6583 0.6544 0.6491
790.202410 0.6375 0.6238 0.6028 0.5930 0.5906
796.792195 0.5872 0.5837 0.5797 0.5774 0.5770
803.381980 0.5770 0.5775 0.5796 0.5835 0.5885
809.971765 0.5987 0.6127 0.6245 0.6350 0.6444
816.561550 0.6534 0.6614 0.6681 0.6730 0.6756
823.151335 0.6750 0.6746 0.6733 0.6717 0.6700
829.741120 0.6674 0.6647 0.6608 0.6571 0.6544
836.330905 0.6522 0.6492 0.6462 0.6435 0.6420
842.920690 0.6420 0.6424 0.6442 0.6452 0.6462
849.510475 0.6473 0.6496 0.6531 0.6540 0.6540
856.100260 0.6540 0.6539 0.6530 0.6530 0.6531
862.690045 0.6542 0.6571 0.6580 0.6591 0.6610
869.279830 0.6620 0.6670 0.6680 0.6719 0.6739
875.869615 0.6740 0.6740 0.6740 0.6740 0.6712
882.459400 0.6683 0.6662 0.6633 0.6612 0.6584
889.049185 0.6554 0.6542 0.6456 0.6374 0.6319
895.638970 0.6286 0.6256 0.6242 0.6217 0.6172
902.228755 0.6115 0.6011 0.5878 0.5826 0.5834
908.818540 0.5917 0.6053 0.6195 0.6240 0.6240
915.408325 0.6240 0.6240 0.6215 0.6151 0.6035
921.998110 0.5903 0.5710 0.5558 0.5497 0.5452
928.587895 0.5419 0.5394 0.5448 0.5592 0.5810
935.177680 0.6058 0.6237 0.6479 0.6874 0.7164
941.767465 0.7270 0.7341 0.7383 0.7412 0.7438
948.357250 0.7462 0.7487 0.7507 0.7524 0.7540
954.947035 0.7567 0.7590 0.7613 0.7620 0.7626
961.536820 0.7640 0.7640 0.7643 0.7650 0.7650
968.126605 0.7650 0.7650 0.7648 0.7640 0.7640
974.716390 0.7636 0.7620 0.7620 0.7618 0.7610
981.306175 0.7604 0.7556 0.7527 0.7499 0.7489
987.895960 0.7480 0.7479 0.7470 0.7469 0.7450
994.485745 0.7440 0.7440 0.7440 0.7440 0.7440
1001.075530 0.7450 0.7450 0.7441 0.7440 0.7440
1007.665315 0.7440 0.7413 0.7401 0.7365 0.7351
1014.255100 0.7341 0.7340 0.7340 0.7340 0.7340
1020.844885 0.7340 0.7340 0.7340 0.7348 0.7350
1027.434670 0.7350 0.7350 0.7350 0.7350 0.7357
1034.024455 0.7360 0.7360 0.7360 0.7360 0.7360
1040.614240 0.7367 0.7370 0.7370 0.7370 0.7382
1047.204025 0.7390 0.7396 0.7406 0.7421 0.7430
1053.793810 0.7436 0.7440 0.7440 0.7435 0.7430
1060.383595 0.7435 0.7440 0.7440 0.7440 0.7435
1066.973380 0.7421 0.7406 0.7400 0.7396 0.7382
1073.563165 0.7362 0.7346 0.7329 0.7299 0.7266
1080.152950 0.7219 0.7163 0.7111 0.7061 0.7022
1086.742735 0.6974 0.6901 0.6726 0.6631 0.6545
1093.332520 0.6532 0.6558 0.6631 0.6686 0.6766
1099.922305 0.6845 0.6930 0.7023 0.7034 0.6996
1106.512090 0.6966 0.6934 0.6883 0.6824 0.6764
1113.101875 0.6707 0.6679 0.6657 0.6608 0.6569
1119.691660 0.6539 0.6510 0.6490 0.6470 0.6460
1126.281445 0.6440 0.6421 0.6401 0.6381 0.6343
1132.871230 0.6312 0.6246 0.6213 0.6085 0.5981
1139.461015 0.5830 0.5671 0.5590 0.5496 0.5322
1146.050800 0.5282 0.5296 0.5579 0.5666 0.5678
1152.640585 0.5688 0.5713 0.5720 0.5720 0.5727
1159.230370 0.5730 0.5878 0.6009 0.6177 0.6335
1165.820155 0.6420 0.6440 0.6440 0.6440 0.6440
1172.409940 0.6440 0.6440 0.6446 0.6462 0.6493
1178.999725 0.6550 0.6608 0.6646 0.6660 0.6665
1185.589510 0.6670 0.6665 0.6660 0.6651 0.6635
1192.179295 0.6625 0.6598 0.6552 0.6517 0.6500
1198.769080 0.6460 0.6388 0.6374 0.6402 0.6458
1205.358865 0.6519 0.6573 0.6590 0.6613 0.6623
1211.948650 0.6630 0.6627 0.6617 0.6610 0.6610
1218.538435 0.6610 0.6603 0.6573 0.6546 0.6522
1225.128220 0.6480 0.6429 0.6363 0.6274 0.6225
1231.718005 0.6134 0.6097 0.6073 0.6014 0.5964
1238.307790 0.5902 0.5812 0.5715 0.5637 0.5588
1244.897575 0.5539 0.5509 0.5480 0.5460 0.5410
1251.487360 0.5301 0.5183 0.4871 0.4831 0.4849
1258.077145 0.4878 0.5019 0.5112 0.5554 0.5832
1264.666930 0.6089 0.6338 0.6593 0.6834 0.6870
1271.256715 0.6853 0.6842 0.6816 0.6802 0.6768
1277.846500 0.6744 0.6717 0.6687 0.6665 0.6638
1284.436285 0.6601 0.6561 0.6536 0.6530 0.6475
1291.026070 0.6403 0.6334 0.6264 0.6208 0.6159
1297.615855 0.6103 0.6068 0.6048 0.6040 0.6040
1304.205640 0.6040 0.6057 0.6141 0.6216 0.6251
1310.795425 0.6270 0.6270 0.6270 0.6270 0.6251
1317.385210 0.6211 0.6176 0.6040 0.5778 0.5538
1323.974995 0.5315 0.5086 0.4776 0.4498 0.4491
1330.564780 0.4619 0.4849 0.4971 0.5103 0.5192
1337.154565 0.5243 0.5241 0.5194 0.5096 0.4980
1343.744350 0.4779 0.4376 0.4196 0.4146 0.4132
1350.334135 0.4148 0.4230 0.4544 0.5086 0.5397
1356.923920 0.5918 0.6094 0.6261 0.6401 0.6410
1363.513705 0.6411 0.6420 0.6419 0.6409 0.6400
1370.103490 0.6400 0.6401 0.6421 0.6450 0.6460
1376.693275 0.6470 0.6500 0.6500 0.6500 0.6500
1383.283060 0.6472 0.6442 0.6375 0.6288 0.6217
1389.872845 0.6112 0.5923 0.5716 0.5612 0.5549
1396.462630 0.5515 0.5535 0.5589 0.5705 0.5786
1403.052415 0.5839 0.5858 0.5883 0.5898 0.5907
1409.642200 0.5910 0.5903 0.5900 0.5886 0.5852
1416.231985 0.5799 0.5746 0.5677 0.5611 0.5545
1422.821770 0.5507 0.5475 0.5430 0.5386 0.5358
1429.411555 0.5275 0.5214 0.5216 0.5264 0.5429
1436.001340 0.5551 0.5581 0.5605 0.5610 0.5620
1442.591125 0.5630 0.5621 0.5610 0.5606 0.5591
1449.180910 0.5563 0.5515 0.5440 0.5329 0.5208
1455.770695 0.5103 0.5018 0.4973 0.4974 0.5040
1462.360480 0.5165 0.5334 0.5518 0.5620 0.5800
1468.950265 0.5885 0.5923 0.5988 0.5973 0.5930
1475.540050 0.5843 0.5762 0.5669 0.5566 0.5497
1482.129835 0.5478 0.5466 0.5433 0.5383 0.5329
1488.719620 0.5244 0.5196 0.5156 0.5117 0.5075
1495.309405 0.5007 0.4948 0.4898 0.4849 0.4810
1501.899190 0.4799 0.6183 0.6200 0.6336 0.6398
1508.488975 0.6447 0.6469 0.6507 0.6538 0.6577
1515.078760 0.6616 0.6620 0.6620 0.6620 0.6611
1521.668545 0.6593 0.6582 0.6572 0.6554 0.6534
1528.258330 0.6530 0.6530 0.6514 0.6502 0.6455
1534.848115 0.6396 0.6373 0.6341 0.6294 0.6273
1541.437900 0.6249 0.6240 0.6240 0.6260 0.6270
1548.027685 0.6232 0.6154 0.6089 0.6033 0.5962
1554.617470 0.5889 0.5825 0.5749 0.5643 0.5552
1561.207255 0.5477 0.5362 0.5202 0.5029 0.4846
1567.797040 0.4687 0.4539 0.4381 0.4214 0.4088
1574.386825 0.4043 0.4016 0.3998 0.3976 0.4013
1580.976610 0.4194 0.4654 0.5120 0.5117 0.5100
1587.566395 0.5070 0.5031 0.4957 0.4823 0.4664
1594.156180 0.4578 0.4496 0.4410 0.4328 0.4253
1600.745965 0.4210 0.4107 0.3950 0.3795 0.3637
1607.335750 0.3573 0.3537 0.3504 0.3374 0.3141
1613.925535 0.3065 0.2937 0.2808 0.2680 0.2574
1620.515320 0.2506 0.2441 0.2294 0.2165 0.2026
1627.105105 0.1870 0.1830 0.1810 0.1820 0.1898
1633.694890 0.1977 0.2113 0.2318 0.2609 0.2740
1640.284675 0.2986 0.3171 0.3314 0.3436 0.3555
1646.874460 0.3656 0.3958 0.4219 0.4524 0.4857
1653.464245 0.5008 0.5410 0.5713 0.5933 0.6110
1660.054030 0.6271 0.6392 0.6515 0.6637 0.6762
1666.643815 0.7003 0.7166 0.7268 0.7360 0.7430
1673.233600 0.7496 0.7552 0.7595 0.7635 0.7674
1679.823385 0.7702 0.7733 0.7767 0.7808 0.7847
1686.413170 0.7865 0.7875 0.7890 0.7905 0.7910
1693.002955 0.7910 0.7915 0.7920 0.7920 0.7920
1699.592740 0.7929 0.7940 0.7940 0.7940 0.7940
1706.182525 0.7932 0.7916 0.7910 0.7906 0.7893
1712.772310 0.7877 0.7870 0.7867 0.7851 0.7830
1719.362095 0.7827 0.7815 0.7795 0.7780 0.7780
1725.951880 0.7778 0.7770 0.7770 0.7770 0.7770
1732.541665 0.7770 0.7770 0.7770 0.7770 0.7770
1739.131450 0.7770 0.7770 0.7770 0.7770 0.7770
1745.721235 0.7770 0.7770 0.7770 0.7770 0.7770
1752.311020 0.7770 0.7770 0.7770 0.7770 0.7770
1758.900805 0.7770 0.7751 0.7750 0.7750 0.7750
1765.490590 0.7741 0.7731 0.7730 0.7712 0.7710
1772.080375 0.7701 0.7691 0.7690 0.7690 0.7690
1778.670160 0.7690 0.7690 0.7690 0.7674 0.7670
1785.259945 0.7670 0.7670 0.7670 0.7670 0.7670
1791.849730 0.7670 0.7670 0.7670 0.7670 0.7670
1798.439515 0.7670 0.7670 0.7670 0.7670 0.7670
1805.029300 0.7670 0.7670 0.7670 0.7670 0.7670
1811.619085 0.7670 0.7670 0.7670 0.7670 0.7670
1818.208870 0.7670 0.7670 0.7670 0.7679 0.7681
1824.798655 0.7670 0.7683 0.7700 0.7700 0.7700
1831.388440 0.7700 0.7700 0.7700 0.7700 0.7700
1837.978225 0.7700 0.7700 0.7700 0.7703 0.7710
1844.568010 0.7710 0.7716 0.7730 0.7730 0.7733
1851.157795 0.7740 0.7740 0.7742 0.7750 0.7750
1857.747580 0.7750 0.7750 0.7750 0.7750 0.7749
1864.337365 0.7740 0.7740 0.7739 0.7730 0.7730
1870.927150 0.7730 0.7730 0.7730 0.7730 0.7730
1877.516935 0.7730 0.7730 0.7730 0.7730 0.7730
1884.106720 0.7730 0.7730 0.7730 0.7730 0.7730
1890.696505 0.7730 0.7730 0.7730 0.7739 0.7740
1897.286290 0.7740 0.7740 0.7740 0.7748 0.7750
1903.876075 0.7750 0.7750 0.7750 0.7766 0.7770
1910.465860 0.7770 0.7770 0.7778 0.7780 0.7780
1917.055645 0.7780 0.7780 0.7780 0.7780 0.7780
1923.645430 0.7780 0.7780 0.7780 0.7780 0.7780
1930.235215 0.7780 0.7780 0.7780 0.7780 0.7780
1936.825000 0.7780 0.7780 0.7780 0.7780 0.7780
1943.414785 0.7780 0.7780 0.7780 0.7780 0.7780
1950.004570 0.7780 0.7780 0.7780 0.7780 0.7776
1956.594355 0.7770 0.7770 0.7762 0.7750 0.7750
1963.184140 0.7750 0.7750 0.7750 0.7750 0.7750
1969.773925 0.7750 0.7750 0.7750 0.7750 0.7750
1976.363710 0.7750 0.7750 0.7750 0.7748 0.7740
1982.953495 0.7740 0.7740 0.7740 0.7740 0.7740
1989.543280 0.7740 0.7740 0.7740 0.7740 0.7739
1996.133065 0.7730 0.7730 0.7730 0.7729 0.7711
2002.722850 0.7730 0.7729 0.7710 0.7710 0.7710
2009.312635 0.7710 0.7710 0.7709 0.7700 0.7700
2015.902420 0.7700 0.7700 0.7700 0.7700 0.7700
2022.492205 0.7700 0.7700 0.7700 0.7700 0.7700
2029.081990 0.7700 0.7699 0.7690 0.7690 0.7689
2035.671775 0.7670 0.7669 0.7660 0.7659 0.7650
2042.261560 0.7650 0.7649 0.7640 0.7640 0.7639
2048.851345 0.7620 0.7620 0.7619 0.7610 0.7610
2055.441130 0.7610 0.7610 0.7610 0.7610 0.7610
2062.030915 0.7610 0.7610 0.7610 0.7609 0.7600
2068.620700 0.7600 0.7600 0.7599 0.7580 0.7580
2075.210485 0.7579 0.7570 0.7570 0.7570 0.7569
2081.800270 0.7560 0.7560 0.7560 0.7560 0.7560
2088.390055 0.7560 0.7560 0.7560 0.7560 0.7559
2094.979840 0.7540 0.7540 0.7540 0.7540 0.7540
2101.569625 0.7540 0.7539 0.7530 0.7530 0.7530
2108.159410 0.7530 0.7530 0.7530 0.7529 0.7519
2114.749195 0.7499 0.7490 0.7489 0.7480 0.7480
2121.338980 0.7480 0.7479 0.7470 0.7470 0.7470
2127.928765 0.7469 0.7450 0.7450 0.7450 0.7449
2134.518550 0.7440 0.7440 0.7440 0.7440 0.7440
2141.108335 0.7439 0.7430 0.7430 0.7430 0.7430
2147.698120 0.7429 0.7410 0.7410 0.7410 0.7409
2154.287905 0.7400 0.7400 0.7400 0.7399 0.7390
2160.877690 0.7390 0.7389 0.7370 0.7370 0.7370
2167.467475 0.7370 0.7369 0.7360 0.7360 0.7359
2174.057260 0.7350 0.7350 0.7349 0.7340 0.7340
2180.647045 0.7339 0.7320 0.7319 0.7310 0.7310
2187.236830 0.7309 0.7299 0.7280 0.7279 0.7270
2193.826615 0.7269 0.7259 0.7240 0.7239 0.7228
2200.416400 0.7200 0.7200 0.7199 0.7190 0.7190
2207.006185 0.7189 0.7180 0.7179 0.7169 0.7150
2213.595970 0.7150 0.7149 0.7140 0.7140 0.7139
2220.185755 0.7130 0.7129 0.7110 0.7110 0.7109
2226.775540 0.7099 0.7090 0.7090 0.7090 0.7089
2233.365325 0.7070 0.7070 0.7069 0.7060 0.7060
2239.955110 0.7059 0.7050 0.7049 0.7040 0.7039
2246.544895 0.7020 0.7019 0.7009 0.7000 0.7000
2253.134680 0.7000 0.6999 0.6979 0.6970 0.6969
2259.724465 0.6960 0.6959 0.6939 0.6929 0.6919
2266.314250 0.6909 0.6889 0.6879 0.6868 0.6840
2272.904035 0.6839 0.6828 0.6798 0.6768 0.6738
2279.493820 0.6709 0.6699 0.6680 0.6680 0.6680
2286.083605 0.6680 0.6680 0.6680 0.6679 0.6668
2292.673390 0.6639 0.6630 0.6629 0.6619 0.6609
2299.263175 0.6589 0.6579 0.6569 0.6549 0.6539
2305.852960 0.6529 0.6509 0.6490 0.6488 0.6460
2312.442745 0.6460 0.6460 0.6459 0.6450 0.6450
2319.032530 0.6449 0.6440 0.6440 0.6440 0.6439
2325.622315 0.6420 0.6420 0.6419 0.6410 0.6410
2332.212100 0.6410 0.6410 0.6410 0.6410 0.6410
2338.801885 0.6410 0.6410 0.6409 0.6400 0.6400
2345.391670 0.6400 0.6400 0.6400 0.6400 0.6399
2351.981455 0.6380 0.6380 0.6380 0.6380 0.6380
2358.571240 0.6380 0.6380 0.6380 0.6380 0.6380
2365.161025 0.6380 0.6380 0.6380 0.6380 0.6380
2371.750810 0.6380 0.6379 0.6370 0.6370 0.6370
2378.340595 0.6369 0.6360 0.6359 0.6340 0.6339
2384.930380 0.6330 0.6329 0.6320 0.6319 0.6310
2391.520165 0.6309 0.6290 0.6289 0.6280 0.6278
2398.109950 0.6250 0.6250 0.6250 0.6250 0.6250
2404.699735 0.6249 0.6240 0.6239 0.6230 0.6230
2411.289520 0.6229 0.6210 0.6209 0.6200 0.6200
2417.879305 0.6199 0.6189 0.6170 0.6169 0.6160
2424.469090 0.6159 0.6149 0.6140 0.6139 0.6119
2431.058875 0.6110 0.6109 0.6099 0.6080 0.6079
2437.648660 0.6069 0.6059 0.6039 0.6029 0.6010
2444.238445 0.6009 0.5990 0.5989 0.5980 0.5979
2450.828230 0.5970 0.5970 0.5969 0.5950 0.5949
2457.418015 0.5940 0.5939 0.5930 0.5929 0.5910
2464.007800 0.5909 0.5900 0.5899 0.5890 0.5889
2470.597585 0.5880 0.5878 0.5850 0.5850 0.5849
2477.187370 0.5840 0.5839 0.5820 0.5819 0.5810
2483.777155 0.5809 0.5800 0.5798 0.5769 0.5759
2490.366940 0.5739 0.5720 0.5719 0.5710 0.5709
2496.956725 0.5689 0.5680 0.5679 0.5669 0.5650
2503.546510 0.5649 0.5639 0.5630 0.5629 0.5609
2510.136295 0.5599 0.5590 0.5589 0.5579 0.5559
2516.726080 0.5550 0.5550 0.5550 0.5550 0.5550
2523.315865 0.5550 0.5550 0.5550 0.5550 0.5550
2529.905650 0.5550 0.5549 0.5540 0.5540 0.5539
2536.495435 0.5519 0.5508 0.5479 0.5468 0.5440
2543.085220 0.5440 0.5440 0.5440 0.5440 0.5440
2549.675005 0.5440 0.5440 0.5439 0.5430 0.5430
2556.264790 0.5430 0.5430 0.5429 0.5420 0.5420
2562.854575 0.5420 0.5420 0.5420 0.5420 0.5420
2569.444360 0.5420 0.5420 0.5420 0.5420 0.5420
2576.034145 0.5420 0.5420 0.5420 0.5421 0.5430
2582.623930 0.5430 0.5430 0.5430 0.5430 0.5430
2589.213715 0.5430 0.5431 0.5440 0.5440 0.5440
2595.803500 0.5440 0.5440 0.5440 0.5440 0.5440
2602.393285 0.5440 0.5440 0.5440 0.5440 0.5440
2608.983070 0.5440 0.5440 0.5440 0.5440 0.5440
2615.572855 0.5440 0.5440 0.5440 0.5440 0.5440
2622.162640 0.5440 0.5440 0.5440 0.5440 0.5440
2628.752425 0.5440 0.5440 0.5440 0.5440 0.5440
2635.342210 0.5440 0.5440 0.5440 0.5440 0.5440
2641.931995 0.5440 0.5440 0.5440 0.5440 0.5440
2648.521780 0.5440 0.5440 0.5440 0.5440 0.5440
2655.111565 0.5440 0.5440 0.5440 0.5440 0.5440
2661.701350 0.5440 0.5440 0.5440 0.5440 0.5440
2668.291135 0.5440 0.5440 0.5440 0.5441 0.5459
2674.880920 0.5440 0.5440 0.5440 0.5440 0.5440
2681.470705 0.5440 0.5440 0.5440 0.5440 0.5441
2688.060490 0.5460 0.5460 0.5460 0.5460 0.5460
2694.650275 0.5460 0.5460 0.5460 0.5460 0.5460
2701.240060 0.5460 0.5460 0.5460 0.5460 0.5460
2707.829845 0.5460 0.5460 0.5460 0.5460 0.5459
2714.419630 0.5440 0.5440 0.5440 0.5440 0.5440
2721.009415 0.5440 0.5440 0.5440 0.5439 0.5430
2727.599200 0.5430 0.5430 0.5430 0.5430 0.5430
2734.188985 0.5429 0.5420 0.5420 0.5420 0.5419
2740.778770 0.5410 0.5410 0.5410 0.5409 0.5390
2747.368555 0.5390 0.5389 0.5379 0.5369 0.5349
2753.958340 0.5339 0.5329 0.5310 0.5310 0.5310
2760.548125 0.5310 0.5310 0.5310 0.5310 0.5310
2767.137910 0.5310 0.5311 0.5330 0.5330 0.5330
2773.727695 0.5330 0.5330 0.5331 0.5340 0.5341
2780.317480 0.5350 0.5350 0.5351 0.5370 0.5370
2786.907265 0.5370 0.5370 0.5370 0.5370 0.5370
2793.497050 0.5370 0.5371 0.5380 0.5380 0.5380
2800.086835 0.5381 0.5390 0.5390 0.5390 0.5390
2806.676620 0.5390 0.5390 0.5390 0.5390 0.5390
2813.266405 0.5390 0.5390 0.5390 0.5390 0.5390
2819.856190 0.5390 0.5390 0.5390 0.5390 0.5390
2826.445975 0.5390 0.5390 0.5390 0.5390 0.5390
2833.035760 0.5390 0.5390 0.5390 0.5390 0.5390
2839.625545 0.5390 0.5390 0.5390 0.5390 0.5390
2846.215330 0.5390 0.5390 0.5390 0.5390 0.5390
2852.805115 0.5390 0.5390 0.5390 0.5390 0.5390
2859.394900 0.5390 0.5390 0.5390 0.5390 0.5389
2865.984685 0.5380 0.5380 0.5380 0.5379 0.5370
2872.574470 0.5370 0.5369 0.5350 0.5349 0.5339
2879.164255 0.5329 0.5309 0.5299 0.5280 0.5279
2885.754040 0.5259 0.5249 0.5239 0.5219 0.5208
2892.343825 0.5179 0.5158 0.5129 0.5109 0.5089
2898.933610 0.5079 0.5068 0.5038 0.5009 0.4988
2905.523395 0.4952 0.4829 0.4819 0.4809 0.4789
2912.113180 0.4779 0.4769 0.4749 0.4740 0.4740
2918.702965 0.4740 0.4740 0.4741 0.4750 0.4750
2925.292750 0.4750 0.4750 0.4751 0.4770 0.4771
2931.882535 0.4780 0.4781 0.4790 0.4791 0.4811
2938.472320 0.4823 0.4860 0.4861 0.4871 0.4881
2945.062105 0.4901 0.4921 0.4941 0.4950 0.4950
2951.651890 0.4951 0.4960 0.4961 0.4981 0.4990
2958.241675 0.4991 0.5000 0.5001 0.5010 0.5011
2964.831460 0.5030 0.5031 0.5040 0.5041 0.5050
2971.421245 0.5050 0.5050 0.5050 0.5050 0.5050
2978.011030 0.5050 0.5050 0.5050 0.5050 0.5050
2984.600815 0.5050 0.5050 0.5050 0.5050 0.5050
2991.190600 0.5050 0.5050 0.5050 0.5050 0.5050
2997.780385 0.5050 0.5050 0.5050 0.5050 0.5050
3004.370170 0.5050 0.5050 0.5050 0.5050 0.5049
3010.959955 0.5040 0.5040 0.5040 0.5040 0.5040
3017.549740 0.5040 0.5041 0.5051 0.5070 0.5071
3024.139525 0.5081 0.5090 0.5091 0.5110 0.5110
3030.729310 0.5111 0.5121 0.5131 0.5142 0.5181
3037.319095 0.5200 0.5201 0.5211 0.5221 0.5241
3043.908880 0.5251 0.5263 0.5301 0.5311 0.5331
3050.498665 0.5351 0.5370 0.5371 0.5380 0.5381
3057.088450 0.5391 0.5411 0.5420 0.5420 0.5421
3063.678235 0.5431 0.5447 0.5551 0.5561 0.5581
3070.268020 0.5602 0.5631 0.5640 0.5643 0.5679
3076.857805 0.5671 0.5690 0.5690 0.5690 0.5690
3083.447590 0.5689 0.5682 0.5710 0.5711 0.5720
3090.037375 0.5721 0.5731 0.5742 0.5770 0.5771
3096.627160 0.5780 0.5780 0.5780 0.5781 0.5800
3103.216945 0.5800 0.5799 0.5780 0.5780 0.5780
3109.806730 0.5779 0.5770 0.5770 0.5770 0.5769
3116.396515 0.5760 0.5760 0.5760 0.5759 0.5740
3122.986300 0.5740 0.5739 0.5730 0.5730 0.5730
3129.576085 0.5730 0.5729 0.5719 0.5708 0.5680
3136.165870 0.5679 0.5668 0.5640 0.5639 0.5630
3142.755655 0.5628 0.5600 0.5600 0.5600 0.5600
3149.345440 0.5600 0.5600 0.5600 0.5600 0.5600
3155.935225 0.5601 0.5610 0.5610 0.5611 0.5630
3162.525010 0.5630 0.5631 0.5640 0.5640 0.5641
3169.114795 0.5650 0.5651 0.5670 0.5670 0.5671
3175.704580 0.5680 0.5680 0.5680 0.5681 0.5690
3182.294365 0.5690 0.5690 0.5691 0.5710 0.5710
3188.884150 0.5710 0.5711 0.5720 0.5720 0.5720
3195.473935 0.5721 0.5731 0.5741 0.5761 0.5770
3202.063720 0.5770 0.5770 0.5771 0.5780 0.5781
3208.653505 0.5800 0.5801 0.5811 0.5820 0.5820
3215.243290 0.5820 0.5821 0.5840 0.5840 0.5841
3221.833075 0.5850 0.5850 0.5851 0.5860 0.5860
3228.422860 0.5861 0.5880 0.5881 0.5890 0.5891
3235.012645 0.5900 0.5901 0.5911 0.5930 0.5930
3241.602430 0.5931 0.5940 0.5941 0.5950 0.5951
3248.192215 0.5971 0.5992 0.6031 0.6041 0.6061
3254.782000 0.6071 0.6081 0.6101 0.6120 0.6120
3261.371785 0.6121 0.6140 0.6141 0.6150 0.6150
3267.961570 0.6151 0.6160 0.6161 0.6171 0.6191
3274.551355 0.6211 0.6230 0.6231 0.6240 0.6241
3281.141140 0.6250 0.6251 0.6270 0.6271 0.6280
3287.730925 0.6281 0.6290 0.6290 0.6291 0.6310
3294.320710 0.6310 0.6311 0.6320 0.6320 0.6321
3300.910495 0.6330 0.6330 0.6331 0.6340 0.6340
3307.500280 0.6340 0.6341 0.6360 0.6360 0.6360
3314.090065 0.6361 0.6370 0.6370 0.6370 0.6371
3320.679850 0.6380 0.6380 0.6380 0.6380 0.6380
3327.269635 0.6380 0.6380 0.6381 0.6400 0.6401
3333.859420 0.6410 0.6410 0.6410 0.6410 0.6410
3340.449205 0.6410 0.6410 0.6410 0.6410 0.6410
3347.038990 0.6410 0.6409 0.6400 0.6399 0.6379
3353.628775 0.6370 0.6370 0.6369 0.6360 0.6359
3360.218560 0.6340 0.6340 0.6339 0.6330 0.6329
3366.808345 0.6319 0.6310 0.6309 0.6289 0.6279
3373.398130 0.6269 0.6249 0.6239 0.6228 0.6199
3379.987915 0.6189 0.6169 0.6159 0.6149 0.6139
3386.577700 0.6119 0.6109 0.6099 0.6079 0.6068
3393.167485 0.6029 0.6018 0.5990 0.5990 0.5989
3399.757270 0.5979 0.5969 0.5949 0.5939 0.5928
3406.347055 0.5900 0.5899 0.5889 0.5879 0.5859
3412.936840 0.5850 0.5849 0.5839 0.5820 0.5819
3419.526625 0.5810 0.5810 0.5810 0.5810 0.5810
3426.116410 0.5809 0.5801 0.5810 0.5810 0.5810
3432.706195 0.5810 0.5810 0.5810 0.5810 0.5810
3439.295980 0.5809 0.5800 0.5800 0.5800 0.5800
3445.885765 0.5800 0.5800 0.5800 0.5800 0.5801
3452.475550 0.5810 0.5810 0.5810 0.5811 0.5820
3459.065335 0.5821 0.5840 0.5840 0.5840 0.5840
3465.655120 0.5841 0.5850 0.5851 0.5861 0.5880
3472.244905 0.5881 0.5890 0.5891 0.5900 0.5901
3478.834690 0.5910 0.5910 0.5910 0.5911 0.5930
3485.424475 0.5931 0.5940 0.5940 0.5941 0.5951
3492.014260 0.5970 0.5970 0.5971 0.5981 0.5990
3498.604045 0.5991 0.6010 0.6011 0.6018 0.5991
3505.193830 0.6010 0.6010 0.6010 0.6011 0.6021
3511.783615 0.6031 0.6040 0.6041 0.6060 0.6061
3518.373400 0.6081 0.6101 0.6120 0.6120 0.6120
3524.963185 0.6120 0.6120 0.6121 0.6140 0.6140
3531.552970 0.6141 0.6150 0.6151 0.6160 0.6160
3538.142755 0.6160 0.6160 0.6161 0.6171 0.6191
3544.732540 0.6202 0.6231 0.6241 0.6250 0.6251
3551.322325 0.6270 0.6271 0.6280 0.6280 0.6281
3557.912110 0.6291 0.6310 0.6311 0.6320 0.6321
3564.501895 0.6330 0.6331 0.6340 0.6340 0.6340
3571.091680 0.6341 0.6361 0.6370 0.6371 0.6380
3577.681465 0.6382 0.6411 0.6420 0.6421 0.6440
3584.271250 0.6441 0.6450 0.6451 0.6461 0.6471
3590.861035 0.6491 0.6501 0.6512 0.6541 0.6552
3597.450820 0.6581 0.6590 0.6591 0.6610 0.6611
3604.040605 0.6620 0.6621 0.6631 0.6640 0.6643
3610.630390 0.6684 0.6741 0.6751 0.6771 0.6791
3617.220175 0.6811 0.6831 0.6842 0.6871 0.6891
3623.809960 0.6911 0.6921 0.6931 0.6940 0.6941
3630.399745 0.6961 0.6972 0.7001 0.7021 0.7041
3636.989530 0.7061 0.7071 0.7090 0.7091 0.7100
3643.579315 0.7102 0.7131 0.7141 0.7151 0.7170
3650.169100 0.7170 0.7171 0.7181 0.7192 0.7220
3656.758885 0.7221 0.7241 0.7261 0.7270 0.7271
3663.348670 0.7280 0.7281 0.7300 0.7300 0.7300
3669.938455 0.7301 0.7310 0.7309 0.7301 0.7310
3676.528240 0.7311 0.7320 0.7320 0.7321 0.7340
3683.118025 0.7340 0.7340 0.7340 0.7340 0.7340
3689.707810 0.7340 0.7340 0.7340 0.7340 0.7341
3696.297595 0.7349 0.7340 0.7340 0.7340 0.7340
3702.887380 0.7340 0.7341 0.7350 0.7350 0.7350
3709.477165 0.7350 0.7350 0.7350 0.7350 0.7350
3716.066950 0.7351 0.7360 0.7360 0.7360 0.7359
3722.656735 0.7350 0.7350 0.7350 0.7351 0.7360
3729.246520 0.7360 0.7360 0.7360 0.7360 0.7360
3735.836305 0.7360 0.7360 0.7360 0.7360 0.7360
3742.426090 0.7360 0.7360 0.7360 0.7360 0.7360
3749.015875 0.7360 0.7360 0.7360 0.7360 0.7361
3755.605660 0.7370 0.7371 0.7388 0.7360 0.7360
3762.195445 0.7360 0.7360 0.7360 0.7360 0.7360
3768.785230 0.7360 0.7360 0.7360 0.7360 0.7360
3775.375015 0.7360 0.7360 0.7361 0.7370 0.7370
3781.964800 0.7370 0.7370 0.7370 0.7370 0.7370
3788.554585 0.7370 0.7370 0.7369 0.7360 0.7361
3795.144370 0.7370 0.7370 0.7370 0.7370 0.7370
3801.734155 0.7370 0.7370 0.7370 0.7370 0.7371
3808.323940 0.7390 0.7389 0.7371 0.7389 0.7370
3814.913725 0.7369 0.7360 0.7360 0.7359 0.7350
3821.503510 0.7349 0.7340 0.7340 0.7340 0.7339
3828.093295 0.7320 0.7319 0.7309 0.7300 0.7299
3834.683080 0.7279 0.7269 0.7260 0.7259 0.7240
3841.272865 0.7239 0.7230 0.7230 0.7229 0.7220
3847.862650 0.7220 0.7219 0.7200 0.7200 0.7199
3854.452435 0.7190 0.7190 0.7191 0.7201 0.7219
3861.042220 0.7200 0.7200 0.7199 0.7190 0.7190
3867.632005 0.7189 0.7180 0.7180 0.7179 0.7170
3874.221790 0.7170 0.7170 0.7170 0.7170 0.7171
3880.811575 0.7179 0.7170 0.7170 0.7169 0.7150
3887.401360 0.7149 0.7139 0.7131 0.7140 0.7140
3893.991145 0.7140 0.7140 0.7140 0.7139 0.7130
3900.580930 0.7130 0.7130 0.7129 0.7110 0.7110
3907.170715 0.7110 0.7110 0.7110 0.7110 0.7110
3913.760500 0.7110 0.7110 0.7110 0.7110 0.7110
3920.350285 0.7109 0.7100 0.7100 0.7100 0.7100
3926.940070 0.7100 0.7100 0.7100 0.7100 0.7100
3933.529855 0.7099 0.7090 0.7090 0.7090 0.7090
3940.119640 0.7090 0.7090 0.7089 0.7071 0.7090
3946.709425 0.7090 0.7090 0.7090 0.7090 0.7090
3953.299210 0.7090 0.7090 0.7091 0.7100 0.7100
3959.888995 0.7100 0.7100 0.7100 0.7100 0.7100
##END=
