##TITLE=Methanediamine, N,N'-dimethyl-, dihydrochloride
##JCAMP-DX=4.24
##DATA TYPE=INFRARED SPECTRUM
##CLASS=COBLENTZ III
##ORIGIN=BRITISH PETROLEUM CO. LTD., ENGLAND
##OWNER=Copyright (C) 1987 by the Coblentz Society
Collection (C) 2018 copyright by the U.S. Secretary of Commerce
on behalf of the United States of America. All rights reserved.
##DATE=1972/06/13
##MOLFORM=C3 H12 Cl2 N2
##SOURCE REFERENCE=COBLENTZ NO. 9370
##$NIST ID=B6009370
##$NIST SOURCE=COBLENTZ
##$NIST IMAGE=cob9370
##SPECTROMETER/DATA SYSTEM=PERKIN-ELMER 157
##STATE=SOLID (KBr DISC, 0.9% WT.)
$$ HCl RUN IN KBr MAY CONTAIN SOME HBr
$$ REF. Can. J. Spec., 18,4,101, '73 C. S. DOUSE and P. B. TOOKE
##SAMPLING PROCEDURE=TRANSMISSION
##RESOLUTION=2
##DATA PROCESSING=DIGITIZED BY COBLENTZ SOCIETY (BATCH II) FROM HARD COPY
##XUNITS=1/CM
##YUNITS=TRANSMITTANCE
##XFACTOR=1.0
##YFACTOR=1
##FIRSTX=667
##LASTX=4000
##FIRSTY=0.8677
##MAXX=4000
##MINX=667
##MAXY=0.8662
##MINY=0.0087
##NPOINTS=3334
##XYDATA=(X++(Y..Y))
667.000000 0.8677 0.8673 0.8668 0.8663 0.8661
672.000000 0.8662 0.8657 0.8652 0.8645 0.8638
677.000000 0.8630 0.8622 0.8613 0.8604 0.8637
682.000000 0.8587 0.8582 0.8583 0.8584 0.8585
687.000000 0.8587 0.8591 0.8594 0.8597 0.8600
692.000000 0.8602 0.8602 0.8601 0.8600 0.8600
697.000000 0.8600 0.8594 0.8580 0.8560 0.8539
702.000000 0.8530 0.8524 0.8516 0.8510 0.8503
707.000000 0.8494 0.8486 0.8476 0.8467 0.8457
712.000000 0.8448 0.8435 0.8421 0.8386 0.8344
717.000000 0.8301 0.8251 0.8211 0.8183 0.8172
722.000000 0.8166 0.8165 0.8163 0.8161 0.8159
727.000000 0.8157 0.8156 0.8154 0.8134 0.8112
732.000000 0.8079 0.8050 0.8020 0.7992 0.7974
737.000000 0.7959 0.7945 0.7931 0.7911 0.7884
742.000000 0.7860 0.7848 0.7839 0.7830 0.7822
747.000000 0.7814 0.7795 0.7767 0.7733 0.7700
752.000000 0.7668 0.7637 0.7624 0.7620 0.7619
757.000000 0.7618 0.7617 0.7619 0.7621 0.7623
762.000000 0.7626 0.7628 0.7625 0.7617 0.7610
767.000000 0.7596 0.7576 0.7555 0.7527 0.7491
772.000000 0.7466 0.7443 0.7430 0.7418 0.7413
777.000000 0.7408 0.7402 0.7401 0.7401 0.7385
782.000000 0.7350 0.7298 0.7268 0.7250 0.7236
787.000000 0.7207 0.7171 0.7124 0.7082 0.7049
792.000000 0.7012 0.6967 0.6927 0.6894 0.6867
797.000000 0.6843 0.6818 0.6793 0.6761 0.6726
802.000000 0.6685 0.6645 0.6606 0.6565 0.6516
807.000000 0.6467 0.6423 0.6391 0.6353 0.6282
812.000000 0.6206 0.6123 0.6056 0.6003 0.5967
817.000000 0.5953 0.5944 0.5935 0.5922 0.5886
822.000000 0.5841 0.5788 0.5753 0.5728 0.5640
827.000000 0.5507 0.5486 0.5481 0.5475 0.5469
832.000000 0.5487 0.5470 0.5470 0.5470 0.5470
837.000000 0.5470 0.5465 0.5459 0.5454 0.5431
842.000000 0.5397 0.5359 0.5315 0.5271 0.5220
847.000000 0.5163 0.5069 0.4941 0.4892 0.4842
852.000000 0.4726 0.4572 0.4345 0.4086 0.3851
857.000000 0.3696 0.3449 0.3282 0.3101 0.2851
862.000000 0.2608 0.2393 0.1879 0.1697 0.1291
867.000000 0.1128 0.1086 0.1085 0.1092 0.1196
872.000000 0.1555 0.1913 0.2271 0.2627 0.2979
877.000000 0.3115 0.3149 0.3163 0.3149 0.3110
882.000000 0.3067 0.2731 0.2279 0.1829 0.1379
887.000000 0.1132 0.1082 0.1443 0.2076 0.2707
892.000000 0.3337 0.3965 0.4693 0.4911 0.5056
897.000000 0.5119 0.5139 0.5148 0.5154 0.5160
902.000000 0.5162 0.5169 0.5158 0.5151 0.5119
907.000000 0.5069 0.4993 0.4919 0.4863 0.4809
912.000000 0.4753 0.4684 0.4585 0.4463 0.4356
917.000000 0.4237 0.4198 0.4197 0.4210 0.4256
922.000000 0.4181 0.4388 0.4436 0.4489 0.4557
927.000000 0.4600 0.4643 0.4673 0.4694 0.4718
932.000000 0.4748 0.4782 0.4825 0.4872 0.4920
937.000000 0.4965 0.5010 0.5065 0.5119 0.5161
942.000000 0.5183 0.5206 0.5240 0.5286 0.5367
947.000000 0.5525 0.5616 0.5631 0.5631 0.5623
952.000000 0.5620 0.5605 0.5579 0.5542 0.5512
957.000000 0.5495 0.5490 0.5478 0.5439 0.5406
962.000000 0.5376 0.5348 0.5312 0.5280 0.5251
967.000000 0.5221 0.5176 0.5128 0.5076 0.5005
972.000000 0.4927 0.4889 0.4872 0.4867 0.4868
977.000000 0.4868 0.4868 0.4867 0.4867 0.4865
982.000000 0.4862 0.4859 0.4850 0.4835 0.4798
987.000000 0.4763 0.4740 0.4737 0.4738 0.4746
992.000000 0.4758 0.4778 0.4797 0.4808 0.4814
997.000000 0.4816 0.4816 0.4814 0.4812 0.4802
1002.000000 0.4778 0.4755 0.4740 0.4704 0.4664
1007.000000 0.4599 0.4534 0.4461 0.4351 0.4213
1012.000000 0.4007 0.3729 0.3452 0.3207 0.3033
1017.000000 0.2730 0.2343 0.1904 0.1453 0.1001
1022.000000 0.0679 0.0471 0.0267 0.0131 0.0124
1027.000000 0.0423 0.0685 0.1234 0.1731 0.2520
1032.000000 0.2983 0.3445 0.3921 0.4271 0.4459
1037.000000 0.4590 0.4651 0.4671 0.4652 0.4618
1042.000000 0.4610 0.4653 0.4782 0.5005 0.5147
1047.000000 0.5258 0.5316 0.5347 0.5366 0.5348
1052.000000 0.5334 0.5314 0.5305 0.5303 0.5300
1057.000000 0.5297 0.5293 0.5289 0.5285 0.5278
1062.000000 0.5272 0.5264 0.5255 0.5245 0.5233
1067.000000 0.5221 0.5201 0.5180 0.5156 0.5128
1072.000000 0.5089 0.5045 0.4990 0.4922 0.4834
1077.000000 0.4756 0.4642 0.4501 0.4444 0.4236
1082.000000 0.3971 0.3880 0.3858 0.3846 0.3979
1087.000000 0.4116 0.4252 0.4389 0.4529 0.4635
1092.000000 0.4677 0.4705 0.4718 0.4717 0.4710
1097.000000 0.4713 0.4684 0.4599 0.4520 0.4462
1102.000000 0.4399 0.4347 0.4306 0.4275 0.4250
1107.000000 0.4234 0.4224 0.4224 0.4208 0.4250
1112.000000 0.4324 0.4399 0.4472 0.4546 0.4620
1117.000000 0.4693 0.4767 0.4840 0.4913 0.4972
1122.000000 0.5018 0.5075 0.5138 0.5194 0.5246
1127.000000 0.5293 0.5313 0.5315 0.5313 0.5328
1132.000000 0.5304 0.5295 0.5280 0.5262 0.5239
1137.000000 0.5212 0.5183 0.5161 0.5151 0.5136
1142.000000 0.5093 0.5037 0.4985 0.4944 0.4905
1147.000000 0.4865 0.4821 0.4777 0.4736 0.4699
1152.000000 0.4656 0.4594 0.4537 0.4486 0.4439
1157.000000 0.4410 0.4382 0.4352 0.4320 0.4295
1162.000000 0.4280 0.4264 0.4254 0.4226 0.4247
1167.000000 0.4252 0.4256 0.4274 0.4304 0.4349
1172.000000 0.4381 0.4399 0.4406 0.4412 0.4418
1177.000000 0.4420 0.4421 0.4422 0.4421 0.4421
1182.000000 0.4425 0.4431 0.4442 0.4458 0.4473
1187.000000 0.4495 0.4516 0.4539 0.4564 0.4588
1192.000000 0.4627 0.4675 0.4719 0.4761 0.4831
1197.000000 0.4909 0.4973 0.5024 0.5063 0.5096
1202.000000 0.5120 0.5136 0.5147 0.5156 0.5165
1207.000000 0.5172 0.5179 0.5184 0.5189 0.5194
1212.000000 0.5202 0.5208 0.5216 0.5224 0.5232
1217.000000 0.5237 0.5249 0.5233 0.5209 0.5180
1222.000000 0.5144 0.5089 0.5047 0.5004 0.4950
1227.000000 0.4865 0.4736 0.4560 0.4362 0.4164
1232.000000 0.3966 0.3771 0.3675 0.3692 0.3938
1237.000000 0.4238 0.4538 0.4750 0.4766 0.4771
1242.000000 0.4776 0.4737 0.4674 0.4615 0.4553
1247.000000 0.4438 0.4340 0.4135 0.3903 0.3559
1252.000000 0.3217 0.2898 0.2779 0.2729 0.2715
1257.000000 0.2714 0.2726 0.2701 0.2920 0.3194
1262.000000 0.3468 0.3741 0.4014 0.4286 0.4559
1267.000000 0.4812 0.4903 0.5014 0.5118 0.5174
1272.000000 0.5206 0.5228 0.5243 0.5252 0.5260
1277.000000 0.5255 0.5281 0.5225 0.5200 0.5160
1282.000000 0.5115 0.5080 0.5057 0.5032 0.5002
1287.000000 0.4981 0.4961 0.4944 0.4926 0.4911
1292.000000 0.4899 0.4888 0.4876 0.4865 0.4856
1297.000000 0.4847 0.4838 0.4830 0.4823 0.4815
1302.000000 0.4807 0.4798 0.4790 0.4780 0.4772
1307.000000 0.4756 0.4736 0.4709 0.4681 0.4654
1312.000000 0.4629 0.4603 0.4577 0.4549 0.4518
1317.000000 0.4479 0.4430 0.4387 0.4346 0.4307
1322.000000 0.4269 0.4237 0.4204 0.4175 0.4147
1327.000000 0.4120 0.4096 0.4072 0.4042 0.4004
1332.000000 0.3982 0.3968 0.3956 0.3944 0.3930
1337.000000 0.3914 0.3897 0.3881 0.3866 0.3851
1342.000000 0.3836 0.3823 0.3809 0.3795 0.3781
1347.000000 0.3767 0.3753 0.3740 0.3726 0.3710
1352.000000 0.3694 0.3678 0.3663 0.3646 0.3621
1357.000000 0.3597 0.3572 0.3545 0.3518 0.3492
1362.000000 0.3465 0.3439 0.3414 0.3389 0.3364
1367.000000 0.3339 0.3314 0.3290 0.3268 0.3246
1372.000000 0.3223 0.3201 0.3178 0.3156 0.3135
1377.000000 0.3120 0.3104 0.3088 0.3074 0.3054
1382.000000 0.3032 0.3007 0.2977 0.2937 0.2882
1387.000000 0.2808 0.2722 0.2668 0.2617 0.2562
1392.000000 0.2507 0.2459 0.2410 0.2342 0.2263
1397.000000 0.2171 0.2035 0.1859 0.1748 0.1665
1402.000000 0.1590 0.1515 0.1440 0.1398 0.1396
1407.000000 0.1389 0.1463 0.1606 0.1749 0.1891
1412.000000 0.2034 0.2173 0.2204 0.2208 0.2163
1417.000000 0.2129 0.2094 0.2059 0.2026 0.2000
1422.000000 0.1979 0.1952 0.1920 0.1877 0.1812
1427.000000 0.1669 0.1663 0.1664 0.1654 0.1677
1432.000000 0.1698 0.1730 0.1765 0.1833 0.1889
1437.000000 0.1924 0.1950 0.1961 0.1963 0.1967
1442.000000 0.1966 0.1983 0.1957 0.1943 0.1882
1447.000000 0.1813 0.1769 0.1723 0.1666 0.1593
1452.000000 0.1513 0.1381 0.1301 0.1204 0.0920
1457.000000 0.0746 0.0534 0.0458 0.0407 0.0373
1462.000000 0.0352 0.0349 0.0346 0.0343 0.0340
1467.000000 0.0336 0.0332 0.0329 0.0330 0.0329
1472.000000 0.0354 0.0372 0.0391 0.0408 0.0423
1477.000000 0.0446 0.0473 0.0493 0.0519 0.0556
1482.000000 0.0632 0.0733 0.0786 0.0843 0.0982
1487.000000 0.1112 0.1359 0.1503 0.2211 0.2551
1492.000000 0.2644 0.2761 0.2853 0.2926 0.2992
1497.000000 0.3052 0.3099 0.3135 0.3164 0.3186
1502.000000 0.3195 0.3201 0.3207 0.3214 0.3219
1507.000000 0.3226 0.3232 0.3238 0.3244 0.3250
1512.000000 0.3256 0.3262 0.3265 0.3266 0.3266
1517.000000 0.3266 0.3265 0.3265 0.3263 0.3259
1522.000000 0.3257 0.3254 0.3252 0.3250 0.3247
1527.000000 0.3244 0.3239 0.3239 0.3235 0.3233
1532.000000 0.3231 0.3229 0.3227 0.3225 0.3224
1537.000000 0.3222 0.3220 0.3218 0.3216 0.3215
1542.000000 0.3215 0.3214 0.3214 0.3213 0.3213
1547.000000 0.3212 0.3212 0.3212 0.3213 0.3213
1552.000000 0.3213 0.3213 0.3213 0.3213 0.3213
1557.000000 0.3214 0.3214 0.3213 0.3209 0.3201
1562.000000 0.3194 0.3185 0.3172 0.3157 0.3139
1567.000000 0.3119 0.3099 0.3077 0.3052 0.3025
1572.000000 0.2990 0.2946 0.2872 0.2749 0.2637
1577.000000 0.2549 0.2471 0.2370 0.2326 0.2305
1582.000000 0.2280 0.2249 0.2163 0.2024 0.1873
1587.000000 0.1722 0.1571 0.1420 0.1269 0.1155
1592.000000 0.1122 0.1119 0.1270 0.1443 0.1616
1597.000000 0.1789 0.1962 0.2135 0.2307 0.2479
1602.000000 0.2651 0.2822 0.2989 0.3108 0.3149
1607.000000 0.3171 0.3188 0.3200 0.3208 0.3213
1612.000000 0.3218 0.3221 0.3222 0.3224 0.3225
1617.000000 0.3226 0.3225 0.3224 0.3222 0.3221
1622.000000 0.3219 0.3218 0.3216 0.3216 0.3216
1627.000000 0.3218 0.3225 0.3236 0.3251 0.3267
1632.000000 0.3288 0.3317 0.3346 0.3379 0.3412
1637.000000 0.3439 0.3461 0.3481 0.3500 0.3518
1642.000000 0.3540 0.3568 0.3600 0.3632 0.3662
1647.000000 0.3693 0.3725 0.3756 0.3800 0.3857
1652.000000 0.3894 0.3923 0.3955 0.4001 0.4051
1657.000000 0.4083 0.4102 0.4105 0.4108 0.4110
1662.000000 0.4111 0.4112 0.4113 0.4114 0.4115
1667.000000 0.4116 0.4116 0.4116 0.4116 0.4116
1672.000000 0.4117 0.4137 0.4116 0.4116 0.4115
1677.000000 0.4115 0.4114 0.4114 0.4114 0.4112
1682.000000 0.4109 0.4106 0.4103 0.4100 0.4095
1687.000000 0.4087 0.4077 0.4066 0.4050 0.4029
1692.000000 0.4011 0.3997 0.3983 0.3966 0.3950
1697.000000 0.3932 0.3910 0.3887 0.3865 0.3842
1702.000000 0.3820 0.3798 0.3781 0.3765 0.3749
1707.000000 0.3736 0.3729 0.3728 0.3726 0.3726
1712.000000 0.3724 0.3723 0.3722 0.3721 0.3720
1717.000000 0.3720 0.3719 0.3718 0.3716 0.3705
1722.000000 0.3714 0.3713 0.3713 0.3711 0.3710
1727.000000 0.3709 0.3709 0.3709 0.3709 0.3710
1732.000000 0.3710 0.3711 0.3712 0.3713 0.3713
1737.000000 0.3718 0.3729 0.3742 0.3760 0.3795
1742.000000 0.3838 0.3877 0.3912 0.3945 0.3980
1747.000000 0.4020 0.4068 0.4101 0.4118 0.4124
1752.000000 0.4130 0.4137 0.4149 0.4180 0.4208
1757.000000 0.4211 0.4213 0.4216 0.4217 0.4217
1762.000000 0.4216 0.4216 0.4214 0.4212 0.4209
1767.000000 0.4205 0.4200 0.4194 0.4189 0.4178
1772.000000 0.4162 0.4149 0.4139 0.4136 0.4137
1777.000000 0.4138 0.4140 0.4144 0.4148 0.4151
1782.000000 0.4154 0.4163 0.4172 0.4181 0.4191
1787.000000 0.4204 0.4218 0.4232 0.4247 0.4262
1792.000000 0.4277 0.4292 0.4304 0.4316 0.4329
1797.000000 0.4355 0.4383 0.4416 0.4455 0.4494
1802.000000 0.4533 0.4572 0.4610 0.4648 0.4687
1807.000000 0.4726 0.4764 0.4800 0.4830 0.4858
1812.000000 0.4885 0.4912 0.4939 0.4965 0.4990
1817.000000 0.5017 0.5047 0.5079 0.5112 0.5147
1822.000000 0.5198 0.5239 0.5263 0.5273 0.5284
1827.000000 0.5294 0.5303 0.5310 0.5311 0.5313
1832.000000 0.5316 0.5318 0.5320 0.5322 0.5324
1837.000000 0.5325 0.5325 0.5326 0.5326 0.5326
1842.000000 0.5326 0.5327 0.5327 0.5327 0.5327
1847.000000 0.5328 0.5328 0.5328 0.5342 0.5329
1852.000000 0.5329 0.5329 0.5329 0.5329 0.5329
1857.000000 0.5329 0.5330 0.5330 0.5330 0.5329
1862.000000 0.5327 0.5325 0.5323 0.5321 0.5319
1867.000000 0.5317 0.5312 0.5307 0.5303 0.5298
1872.000000 0.5293 0.5288 0.5283 0.5278 0.5272
1877.000000 0.5266 0.5259 0.5252 0.5246 0.5239
1882.000000 0.5233 0.5227 0.5222 0.5217 0.5212
1887.000000 0.5207 0.5203 0.5198 0.5193 0.5188
1892.000000 0.5184 0.5182 0.5180 0.5178 0.5176
1897.000000 0.5177 0.5172 0.5170 0.5168 0.5166
1902.000000 0.5166 0.5168 0.5173 0.5179 0.5187
1907.000000 0.5198 0.5210 0.5221 0.5232 0.5242
1912.000000 0.5253 0.5262 0.5271 0.5278 0.5284
1917.000000 0.5291 0.5296 0.5300 0.5303 0.5306
1922.000000 0.5310 0.5312 0.5316 0.5318 0.5318
1927.000000 0.5320 0.5321 0.5321 0.5322 0.5323
1932.000000 0.5325 0.5325 0.5326 0.5327 0.5327
1937.000000 0.5328 0.5328 0.5328 0.5328 0.5327
1942.000000 0.5327 0.5327 0.5327 0.5327 0.5327
1947.000000 0.5327 0.5327 0.5326 0.5326 0.5326
1952.000000 0.5326 0.5326 0.5326 0.5355 0.5326
1957.000000 0.5325 0.5325 0.5325 0.5325 0.5325
1962.000000 0.5325 0.5324 0.5324 0.5324 0.5324
1967.000000 0.5324 0.5324 0.5323 0.5323 0.5323
1972.000000 0.5323 0.5323 0.5321 0.5320 0.5318
1977.000000 0.5316 0.5314 0.5312 0.5309 0.5305
1982.000000 0.5298 0.5291 0.5283 0.5276 0.5269
1987.000000 0.5262 0.5255 0.5249 0.5242 0.5236
1992.000000 0.5230 0.5223 0.5217 0.5211 0.5205
1997.000000 0.5199 0.5195 0.5191 0.5187 0.5183
2002.000000 0.5179 0.5175 0.5171 0.5166 0.5161
2007.000000 0.5157 0.5152 0.5147 0.5143 0.5138
2012.000000 0.5132 0.5127 0.5121 0.5114 0.5108
2017.000000 0.5102 0.5095 0.5087 0.5080 0.5072
2022.000000 0.5064 0.5057 0.5049 0.5042 0.5036
2027.000000 0.5029 0.5023 0.5016 0.5010 0.5004
2032.000000 0.4997 0.4991 0.4985 0.4978 0.4971
2037.000000 0.4963 0.4956 0.4948 0.4940 0.4932
2042.000000 0.4924 0.4916 0.4909 0.4900 0.4892
2047.000000 0.4884 0.4877 0.4870 0.4862 0.4854
2052.000000 0.4847 0.4839 0.4831 0.4824 0.4816
2057.000000 0.4809 0.4802 0.4794 0.4787 0.4780
2062.000000 0.4772 0.4765 0.4760 0.4755 0.4752
2067.000000 0.4749 0.4746 0.4742 0.4735 0.4724
2072.000000 0.4698 0.4666 0.4606 0.4562 0.4550
2077.000000 0.4537 0.4524 0.4512 0.4500 0.4488
2082.000000 0.4475 0.4460 0.4446 0.4432 0.4418
2087.000000 0.4406 0.4396 0.4386 0.4377 0.4368
2092.000000 0.4358 0.4346 0.4333 0.4320 0.4307
2097.000000 0.4294 0.4281 0.4268 0.4254 0.4240
2102.000000 0.4227 0.4215 0.4202 0.4190 0.4177
2107.000000 0.4164 0.4150 0.4135 0.4120 0.4105
2112.000000 0.4093 0.4085 0.4078 0.4071 0.4071
2117.000000 0.4071 0.4072 0.4069 0.4076 0.4079
2122.000000 0.4083 0.4087 0.4092 0.4116 0.4140
2127.000000 0.4166 0.4190 0.4211 0.4231 0.4250
2132.000000 0.4268 0.4287 0.4305 0.4324 0.4344
2137.000000 0.4364 0.4387 0.4410 0.4432 0.4462
2142.000000 0.4497 0.4523 0.4547 0.4563 0.4579
2147.000000 0.4590 0.4601 0.4609 0.4616 0.4618
2152.000000 0.4621 0.4624 0.4627 0.4628 0.4629
2157.000000 0.4629 0.4629 0.4628 0.4628 0.4628
2162.000000 0.4628 0.4630 0.4627 0.4626 0.4625
2167.000000 0.4624 0.4623 0.4621 0.4620 0.4618
2172.000000 0.4617 0.4615 0.4613 0.4612 0.4610
2177.000000 0.4608 0.4606 0.4604 0.4602 0.4600
2182.000000 0.4596 0.4592 0.4588 0.4584 0.4580
2187.000000 0.4575 0.4571 0.4567 0.4563 0.4559
2192.000000 0.4555 0.4551 0.4547 0.4543 0.4539
2197.000000 0.4535 0.4529 0.4523 0.4518 0.4512
2202.000000 0.4507 0.4502 0.4497 0.4491 0.4486
2207.000000 0.4481 0.4476 0.4472 0.4470 0.4467
2212.000000 0.4464 0.4462 0.4460 0.4458 0.4455
2217.000000 0.4453 0.4452 0.4450 0.4449 0.4447
2222.000000 0.4446 0.4444 0.4443 0.4437 0.4430
2227.000000 0.4414 0.4395 0.4378 0.4360 0.4352
2232.000000 0.4345 0.4337 0.4330 0.4326 0.4321
2237.000000 0.4317 0.4312 0.4308 0.4304 0.4300
2242.000000 0.4296 0.4292 0.4288 0.4284 0.4279
2247.000000 0.4276 0.4272 0.4269 0.4265 0.4262
2252.000000 0.4258 0.4255 0.4251 0.4248 0.4245
2257.000000 0.4241 0.4238 0.4234 0.4231 0.4227
2262.000000 0.4222 0.4218 0.4212 0.4207 0.4201
2267.000000 0.4196 0.4190 0.4179 0.4159 0.4140
2272.000000 0.4122 0.4104 0.4089 0.4075 0.4060
2277.000000 0.4045 0.4027 0.4009 0.3983 0.3957
2282.000000 0.3935 0.3913 0.3893 0.3873 0.3854
2287.000000 0.3835 0.3816 0.3798 0.3780 0.3762
2292.000000 0.3747 0.3733 0.3724 0.3721 0.3719
2297.000000 0.3716 0.3713 0.3713 0.3712 0.3712
2302.000000 0.3712 0.3711 0.3711 0.3710 0.3710
2307.000000 0.3697 0.3680 0.3661 0.3639 0.3618
2312.000000 0.3597 0.3576 0.3555 0.3534 0.3513
2317.000000 0.3492 0.3471 0.3450 0.3429 0.3408
2322.000000 0.3387 0.3366 0.3345 0.3325 0.3304
2327.000000 0.3282 0.3261 0.3241 0.3220 0.3199
2332.000000 0.3178 0.3158 0.3137 0.3116 0.3096
2337.000000 0.3075 0.3055 0.3034 0.3013 0.2993
2342.000000 0.2975 0.2957 0.2945 0.2933 0.2922
2347.000000 0.2911 0.2900 0.2889 0.2879 0.2868
2352.000000 0.2857 0.2843 0.2829 0.2811 0.2793
2357.000000 0.2775 0.2757 0.2740 0.2725 0.2709
2362.000000 0.2695 0.2680 0.2665 0.2649 0.2635
2367.000000 0.2621 0.2606 0.2591 0.2577 0.2563
2372.000000 0.2548 0.2532 0.2515 0.2490 0.2462
2377.000000 0.2443 0.2430 0.2418 0.2406 0.2394
2382.000000 0.2382 0.2369 0.2353 0.2335 0.2316
2387.000000 0.2295 0.2276 0.2260 0.2243 0.2227
2392.000000 0.2211 0.2141 0.2042 0.1951 0.1875
2397.000000 0.1798 0.1722 0.1646 0.1570 0.1494
2402.000000 0.1418 0.1343 0.1267 0.1191 0.1116
2407.000000 0.1040 0.0964 0.0889 0.0815 0.0745
2412.000000 0.0690 0.0635 0.0584 0.0534 0.0496
2417.000000 0.0469 0.0443 0.0421 0.0399 0.0380
2422.000000 0.0362 0.0348 0.0339 0.0331 0.0326
2427.000000 0.0321 0.0318 0.0316 0.0314 0.0313
2432.000000 0.0312 0.0312 0.0312 0.0312 0.0312
2437.000000 0.0312 0.0314 0.0315 0.0320 0.0324
2442.000000 0.0303 0.0358 0.0382 0.0421 0.0459
2447.000000 0.0498 0.0536 0.0575 0.0614 0.0652
2452.000000 0.0691 0.0729 0.0767 0.0805 0.0843
2457.000000 0.0881 0.0919 0.0958 0.0996 0.1035
2462.000000 0.1072 0.1110 0.1148 0.1186 0.1224
2467.000000 0.1262 0.1300 0.1337 0.1375 0.1404
2472.000000 0.1427 0.1450 0.1472 0.1495 0.1508
2477.000000 0.1519 0.1528 0.1533 0.1539 0.1542
2482.000000 0.1544 0.1546 0.1547 0.1547 0.1548
2487.000000 0.1548 0.1549 0.1549 0.1549 0.1548
2492.000000 0.1548 0.1546 0.1544 0.1542 0.1538
2497.000000 0.1534 0.1530 0.1526 0.1523 0.1521
2502.000000 0.1519 0.1518 0.1518 0.1518 0.1521
2507.000000 0.1525 0.1529 0.1535 0.1540 0.1546
2512.000000 0.1552 0.1559 0.1567 0.1576 0.1585
2517.000000 0.1594 0.1603 0.1612 0.1621 0.1630
2522.000000 0.1639 0.1648 0.1655 0.1662 0.1666
2527.000000 0.1669 0.1671 0.1670 0.1668 0.1666
2532.000000 0.1664 0.1670 0.1660 0.1659 0.1658
2537.000000 0.1657 0.1657 0.1653 0.1649 0.1645
2542.000000 0.1640 0.1636 0.1630 0.1624 0.1617
2547.000000 0.1612 0.1606 0.1600 0.1593 0.1587
2552.000000 0.1580 0.1574 0.1568 0.1563 0.1559
2557.000000 0.1554 0.1549 0.1544 0.1538 0.1533
2562.000000 0.1528 0.1522 0.1516 0.1509 0.1503
2567.000000 0.1495 0.1487 0.1479 0.1472 0.1464
2572.000000 0.1456 0.1448 0.1441 0.1434 0.1426
2577.000000 0.1419 0.1411 0.1404 0.1396 0.1387
2582.000000 0.1378 0.1368 0.1357 0.1345 0.1334
2587.000000 0.1322 0.1310 0.1300 0.1290 0.1280
2592.000000 0.1272 0.1264 0.1257 0.1249 0.1242
2597.000000 0.1234 0.1227 0.1220 0.1212 0.1204
2602.000000 0.1196 0.1187 0.1179 0.1170 0.1161
2607.000000 0.1152 0.1143 0.1134 0.1124 0.1113
2612.000000 0.1102 0.1090 0.1078 0.1066 0.1053
2617.000000 0.1039 0.1025 0.1005 0.0985 0.0965
2622.000000 0.0945 0.0925 0.0905 0.0885 0.0866
2627.000000 0.0846 0.0826 0.0805 0.0781 0.0757
2632.000000 0.0732 0.0705 0.0678 0.0661 0.0650
2637.000000 0.0638 0.0627 0.0615 0.0604 0.0592
2642.000000 0.0581 0.0569 0.0554 0.0539 0.0522
2647.000000 0.0504 0.0485 0.0468 0.0451 0.0434
2652.000000 0.0423 0.0412 0.0401 0.0391 0.0381
2657.000000 0.0372 0.0368 0.0364 0.0361 0.0359
2662.000000 0.0357 0.0356 0.0354 0.0353 0.0351
2667.000000 0.0349 0.0348 0.0346 0.0344 0.0342
2672.000000 0.0340 0.0338 0.0336 0.0334 0.0332
2677.000000 0.0330 0.0328 0.0326 0.0323 0.0318
2682.000000 0.0314 0.0308 0.0301 0.0294 0.0270
2687.000000 0.0239 0.0209 0.0191 0.0176 0.0161
2692.000000 0.0158 0.0154 0.0151 0.0148 0.0145
2697.000000 0.0142 0.0140 0.0137 0.0135 0.0134
2702.000000 0.0132 0.0131 0.0129 0.0128 0.0126
2707.000000 0.0125 0.0123 0.0122 0.0120 0.0118
2712.000000 0.0117 0.0116 0.0116 0.0115 0.0114
2717.000000 0.0113 0.0112 0.0111 0.0111 0.0110
2722.000000 0.0109 0.0108 0.0107 0.0106 0.0106
2727.000000 0.0104 0.0103 0.0101 0.0099 0.0098
2732.000000 0.0096 0.0095 0.0095 0.0095 0.0094
2737.000000 0.0094 0.0094 0.0093 0.0093 0.0093
2742.000000 0.0092 0.0092 0.0092 0.0091 0.0091
2747.000000 0.0091 0.0090 0.0090 0.0090 0.0089
2752.000000 0.0089 0.0089 0.0088 0.0088 0.0088
2757.000000 0.0087 0.0087 0.0087 0.0087 0.0087
2762.000000 0.0087 0.0087 0.0087 0.0087 0.0087
2767.000000 0.0087 0.0087 0.0088 0.0088 0.0088
2772.000000 0.0088 0.0088 0.0088 0.0088 0.0088
2777.000000 0.0088 0.0089 0.0089 0.0089 0.0089
2782.000000 0.0089 0.0089 0.0089 0.0089 0.0089
2787.000000 0.0089 0.0090 0.0090 0.0090 0.0090
2792.000000 0.0090 0.0090 0.0091 0.0091 0.0091
2797.000000 0.0091 0.0091 0.0091 0.0092 0.0092
2802.000000 0.0092 0.0092 0.0092 0.0092 0.0093
2807.000000 0.0093 0.0093 0.0093 0.0093 0.0093
2812.000000 0.0093 0.0093 0.0093 0.0093 0.0094
2817.000000 0.0094 0.0094 0.0094 0.0094 0.0094
2822.000000 0.0095 0.0095 0.0095 0.0095 0.0095
2827.000000 0.0095 0.0095 0.0096 0.0096 0.0096
2832.000000 0.0096 0.0096 0.0096 0.0097 0.0097
2837.000000 0.0097 0.0101 0.0097 0.0097 0.0098
2842.000000 0.0098 0.0098 0.0098 0.0098 0.0098
2847.000000 0.0098 0.0099 0.0099 0.0099 0.0100
2852.000000 0.0100 0.0100 0.0100 0.0100 0.0100
2857.000000 0.0100 0.0101 0.0101 0.0101 0.0102
2862.000000 0.0102 0.0102 0.0102 0.0102 0.0102
2867.000000 0.0103 0.0103 0.0103 0.0103 0.0103
2872.000000 0.0103 0.0103 0.0104 0.0104 0.0104
2877.000000 0.0105 0.0105 0.0105 0.0105 0.0105
2882.000000 0.0105 0.0105 0.0106 0.0106 0.0106
2887.000000 0.0106 0.0106 0.0106 0.0106 0.0106
2892.000000 0.0106 0.0106 0.0106 0.0106 0.0106
2897.000000 0.0106 0.0106 0.0106 0.0106 0.0106
2902.000000 0.0106 0.0106 0.0106 0.0106 0.0106
2907.000000 0.0107 0.0107 0.0107 0.0107 0.0107
2912.000000 0.0107 0.0107 0.0107 0.0107 0.0107
2917.000000 0.0107 0.0107 0.0107 0.0107 0.0107
2922.000000 0.0107 0.0107 0.0107 0.0107 0.0107
2927.000000 0.0107 0.0107 0.0107 0.0107 0.0108
2932.000000 0.0108 0.0108 0.0108 0.0108 0.0108
2937.000000 0.0108 0.0109 0.0109 0.0109 0.0109
2942.000000 0.0110 0.0110 0.0110 0.0110 0.0110
2947.000000 0.0110 0.0110 0.0111 0.0111 0.0111
2952.000000 0.0111 0.0111 0.0111 0.0111 0.0112
2957.000000 0.0112 0.0112 0.0113 0.0113 0.0113
2962.000000 0.0113 0.0113 0.0113 0.0113 0.0114
2967.000000 0.0114 0.0114 0.0114 0.0115 0.0116
2972.000000 0.0116 0.0117 0.0117 0.0117 0.0117
2977.000000 0.0118 0.0119 0.0119 0.0120 0.0120
2982.000000 0.0120 0.0120 0.0121 0.0121 0.0121
2987.000000 0.0122 0.0122 0.0123 0.0123 0.0124
2992.000000 0.0124 0.0124 0.0124 0.0126 0.0128
2997.000000 0.0129 0.0132 0.0135 0.0138 0.0142
3002.000000 0.0146 0.0149 0.0153 0.0158 0.0163
3007.000000 0.0168 0.0173 0.0179 0.0186 0.0192
3012.000000 0.0198 0.0203 0.0209 0.0214 0.0219
3017.000000 0.0223 0.0227 0.0231 0.0235 0.0239
3022.000000 0.0243 0.0247 0.0250 0.0254 0.0257
3027.000000 0.0260 0.0261 0.0263 0.0264 0.0265
3032.000000 0.0266 0.0267 0.0269 0.0270 0.0271
3037.000000 0.0273 0.0274 0.0275 0.0276 0.0277
3042.000000 0.0278 0.0280 0.0281 0.0282 0.0284
3047.000000 0.0285 0.0286 0.0288 0.0289 0.0290
3052.000000 0.0292 0.0294 0.0297 0.0301 0.0304
3057.000000 0.0307 0.0310 0.0313 0.0316 0.0319
3062.000000 0.0322 0.0325 0.0328 0.0331 0.0334
3067.000000 0.0337 0.0340 0.0343 0.0346 0.0349
3072.000000 0.0352 0.0356 0.0359 0.0362 0.0366
3077.000000 0.0370 0.0374 0.0378 0.0382 0.0386
3082.000000 0.0389 0.0393 0.0397 0.0401 0.0405
3087.000000 0.0409 0.0412 0.0416 0.0420 0.0424
3092.000000 0.0427 0.0431 0.0435 0.0439 0.0444
3097.000000 0.0448 0.0452 0.0456 0.0460 0.0464
3102.000000 0.0470 0.0478 0.0486 0.0495 0.0503
3107.000000 0.0512 0.0520 0.0529 0.0538 0.0547
3112.000000 0.0556 0.0565 0.0574 0.0581 0.0588
3117.000000 0.0596 0.0602 0.0607 0.0612 0.0617
3122.000000 0.0622 0.0627 0.0632 0.0637 0.0639
3127.000000 0.0642 0.0645 0.0648 0.0649 0.0650
3132.000000 0.0651 0.0653 0.0654 0.0656 0.0657
3137.000000 0.0659 0.0660 0.0661 0.0663 0.0664
3142.000000 0.0665 0.0667 0.0669 0.0670 0.0671
3147.000000 0.0671 0.0672 0.0673 0.0674 0.0675
3152.000000 0.0676 0.0677 0.0678 0.0678 0.0679
3157.000000 0.0680 0.0681 0.0682 0.0683 0.0684
3162.000000 0.0686 0.0688 0.0690 0.0691 0.0693
3167.000000 0.0695 0.0697 0.0700 0.0705 0.0711
3172.000000 0.0716 0.0726 0.0743 0.0760 0.0776
3177.000000 0.0792 0.0806 0.0819 0.0833 0.0846
3182.000000 0.0858 0.0869 0.0880 0.0890 0.0896
3187.000000 0.0901 0.0907 0.0912 0.0916 0.0920
3192.000000 0.0924 0.0928 0.0932 0.0936 0.0940
3197.000000 0.0944 0.0947 0.0950 0.0952 0.0955
3202.000000 0.0958 0.0961 0.0964 0.0967 0.0970
3207.000000 0.0973 0.0977 0.0980 0.0983 0.0986
3212.000000 0.0990 0.0993 0.0997 0.1000 0.1003
3217.000000 0.1007 0.1010 0.1014 0.1017 0.1020
3222.000000 0.1024 0.1027 0.1030 0.1033 0.1036
3227.000000 0.1040 0.1043 0.1046 0.1050 0.1052
3232.000000 0.1055 0.1057 0.1060 0.1063 0.1066
3237.000000 0.1069 0.1072 0.1074 0.1077 0.1079
3242.000000 0.1082 0.1084 0.1087 0.1089 0.1091
3247.000000 0.1093 0.1094 0.1096 0.1097 0.1099
3252.000000 0.1100 0.1101 0.1102 0.1103 0.1104
3257.000000 0.1104 0.1104 0.1104 0.1104 0.1104
3262.000000 0.1104 0.1104 0.1121 0.1103 0.1103
3267.000000 0.1103 0.1102 0.1101 0.1100 0.1099
3272.000000 0.1098 0.1097 0.1095 0.1094 0.1093
3277.000000 0.1092 0.1091 0.1090 0.1088 0.1087
3282.000000 0.1085 0.1083 0.1081 0.1079 0.1077
3287.000000 0.1074 0.1072 0.1070 0.1067 0.1064
3292.000000 0.1062 0.1059 0.1056 0.1053 0.1050
3297.000000 0.1047 0.1044 0.1041 0.1038 0.1034
3302.000000 0.1031 0.1028 0.1025 0.1022 0.1019
3307.000000 0.1016 0.1013 0.1010 0.1007 0.1003
3312.000000 0.1000 0.0997 0.0993 0.0990 0.0986
3317.000000 0.0983 0.0980 0.0977 0.0974 0.0970
3322.000000 0.0967 0.0963 0.0960 0.0957 0.0953
3327.000000 0.0950 0.0947 0.0943 0.0941 0.0938
3332.000000 0.0935 0.0932 0.0930 0.0927 0.0924
3337.000000 0.0922 0.0919 0.0916 0.0914 0.0911
3342.000000 0.0908 0.0905 0.0903 0.0900 0.0897
3347.000000 0.0895 0.0892 0.0889 0.0886 0.0883
3352.000000 0.0880 0.0877 0.0874 0.0872 0.0869
3357.000000 0.0866 0.0863 0.0860 0.0857 0.0854
3362.000000 0.0852 0.0849 0.0846 0.0844 0.0842
3367.000000 0.0841 0.0839 0.0837 0.0835 0.0833
3372.000000 0.0831 0.0829 0.0827 0.0825 0.0824
3377.000000 0.0822 0.0820 0.0818 0.0816 0.0814
3382.000000 0.0812 0.0810 0.0809 0.0807 0.0806
3387.000000 0.0804 0.0803 0.0801 0.0800 0.0798
3392.000000 0.0797 0.0795 0.0794 0.0792 0.0791
3397.000000 0.0789 0.0788 0.0787 0.0785 0.0784
3402.000000 0.0783 0.0783 0.0782 0.0782 0.0782
3407.000000 0.0782 0.0782 0.0782 0.0782 0.0781
3412.000000 0.0781 0.0781 0.0781 0.0781 0.0781
3417.000000 0.0781 0.0781 0.0781 0.0782 0.0782
3422.000000 0.0782 0.0783 0.0783 0.0784 0.0784
3427.000000 0.0784 0.0785 0.0785 0.0787 0.0789
3432.000000 0.0791 0.0793 0.0795 0.0786 0.0801
3437.000000 0.0804 0.0806 0.0809 0.0812 0.0815
3442.000000 0.0817 0.0820 0.0823 0.0826 0.0828
3447.000000 0.0831 0.0834 0.0838 0.0842 0.0847
3452.000000 0.0851 0.0855 0.0862 0.0868 0.0874
3457.000000 0.0880 0.0887 0.0893 0.0900 0.0907
3462.000000 0.0913 0.0920 0.0927 0.0933 0.0939
3467.000000 0.0946 0.0952 0.0959 0.0965 0.0972
3472.000000 0.0978 0.0984 0.0989 0.0994 0.1000
3477.000000 0.1005 0.1010 0.1015 0.1020 0.1025
3482.000000 0.1030 0.1035 0.1040 0.1045 0.1050
3487.000000 0.1055 0.1060 0.1065 0.1070 0.1074
3492.000000 0.1079 0.1084 0.1089 0.1094 0.1099
3497.000000 0.1104 0.1109 0.1113 0.1118 0.1123
3502.000000 0.1127 0.1131 0.1135 0.1139 0.1143
3507.000000 0.1147 0.1151 0.1155 0.1159 0.1164
3512.000000 0.1172 0.1181 0.1191 0.1200 0.1210
3517.000000 0.1241 0.1277 0.1313 0.1349 0.1385
3522.000000 0.1422 0.1460 0.1498 0.1535 0.1573
3527.000000 0.1590 0.1605 0.1620 0.1635 0.1650
3532.000000 0.1662 0.1673 0.1685 0.1696 0.1708
3537.000000 0.1716 0.1724 0.1731 0.1739 0.1747
3542.000000 0.1755 0.1763 0.1771 0.1779 0.1787
3547.000000 0.1797 0.1808 0.1818 0.1829 0.1839
3552.000000 0.1851 0.1863 0.1875 0.1887 0.1899
3557.000000 0.1923 0.1950 0.1977 0.2004 0.2031
3562.000000 0.2044 0.2053 0.2061 0.2070 0.2079
3567.000000 0.2089 0.2101 0.2113 0.2125 0.2137
3572.000000 0.2148 0.2159 0.2169 0.2180 0.2190
3577.000000 0.2198 0.2204 0.2209 0.2215 0.2221
3582.000000 0.2226 0.2232 0.2238 0.2244 0.2250
3587.000000 0.2256 0.2261 0.2267 0.2273 0.2278
3592.000000 0.2284 0.2292 0.2300 0.2308 0.2316
3597.000000 0.2324 0.2328 0.2332 0.2336 0.2339
3602.000000 0.2343 0.2347 0.2350 0.2353 0.2356
3607.000000 0.2359 0.2362 0.2364 0.2366 0.2369
3612.000000 0.2371 0.2373 0.2375 0.2377 0.2379
3617.000000 0.2382 0.2384 0.2385 0.2387 0.2388
3622.000000 0.2390 0.2391 0.2393 0.2394 0.2395
3627.000000 0.2397 0.2398 0.2399 0.2400 0.2401
3632.000000 0.2403 0.2404 0.2405 0.2405 0.2406
3637.000000 0.2406 0.2407 0.2407 0.2408 0.2409
3642.000000 0.2409 0.2410 0.2410 0.2411 0.2412
3647.000000 0.2413 0.2413 0.2414 0.2415 0.2415
3652.000000 0.2416 0.2416 0.2417 0.2418 0.2418
3657.000000 0.2419 0.2419 0.2420 0.2420 0.2421
3662.000000 0.2421 0.2422 0.2423 0.2423 0.2424
3667.000000 0.2424 0.2424 0.2425 0.2425 0.2425
3672.000000 0.2426 0.2426 0.2427 0.2427 0.2427
3677.000000 0.2428 0.2428 0.2428 0.2429 0.2429
3682.000000 0.2430 0.2430 0.2430 0.2431 0.2431
3687.000000 0.2431 0.2432 0.2432 0.2432 0.2432
3692.000000 0.2432 0.2433 0.2433 0.2433 0.2433
3697.000000 0.2433 0.2433 0.2434 0.2434 0.2434
3702.000000 0.2434 0.2434 0.2459 0.2435 0.2435
3707.000000 0.2436 0.2436 0.2436 0.2437 0.2437
3712.000000 0.2437 0.2437 0.2437 0.2438 0.2438
3717.000000 0.2438 0.2438 0.2438 0.2438 0.2439
3722.000000 0.2439 0.2439 0.2440 0.2440 0.2441
3727.000000 0.2441 0.2441 0.2441 0.2441 0.2441
3732.000000 0.2442 0.2442 0.2442 0.2442 0.2442
3737.000000 0.2442 0.2442 0.2442 0.2442 0.2442
3742.000000 0.2442 0.2442 0.2442 0.2442 0.2442
3747.000000 0.2442 0.2442 0.2442 0.2442 0.2442
3752.000000 0.2442 0.2442 0.2441 0.2441 0.2441
3757.000000 0.2440 0.2440 0.2440 0.2439 0.2439
3762.000000 0.2439 0.2438 0.2438 0.2438 0.2437
3767.000000 0.2436 0.2436 0.2435 0.2435 0.2434
3772.000000 0.2434 0.2433 0.2433 0.2432 0.2432
3777.000000 0.2431 0.2430 0.2429 0.2428 0.2427
3782.000000 0.2426 0.2424 0.2422 0.2421 0.2419
3787.000000 0.2417 0.2415 0.2413 0.2411 0.2408
3792.000000 0.2406 0.2404 0.2402 0.2400 0.2398
3797.000000 0.2395 0.2393 0.2391 0.2389 0.2387
3802.000000 0.2386 0.2384 0.2382 0.2380 0.2378
3807.000000 0.2376 0.2374 0.2372 0.2370 0.2368
3812.000000 0.2367 0.2365 0.2363 0.2362 0.2360
3817.000000 0.2358 0.2357 0.2355 0.2354 0.2352
3822.000000 0.2350 0.2349 0.2347 0.2345 0.2344
3827.000000 0.2342 0.2340 0.2339 0.2338 0.2337
3832.000000 0.2335 0.2334 0.2333 0.2332 0.2331
3837.000000 0.2329 0.2328 0.2327 0.2326 0.2325
3842.000000 0.2324 0.2323 0.2322 0.2321 0.2320
3847.000000 0.2319 0.2318 0.2317 0.2316 0.2315
3852.000000 0.2314 0.2313 0.2312 0.2311 0.2310
3857.000000 0.2309 0.2309 0.2308 0.2307 0.2307
3862.000000 0.2306 0.2305 0.2304 0.2304 0.2304
3867.000000 0.2303 0.2303 0.2303 0.2302 0.2302
3872.000000 0.2301 0.2301 0.2300 0.2300 0.2299
3877.000000 0.2299 0.2299 0.2298 0.2298 0.2298
3882.000000 0.2297 0.2297 0.2296 0.2296 0.2296
3887.000000 0.2295 0.2295 0.2294 0.2294 0.2294
3892.000000 0.2293 0.2293 0.2293 0.2292 0.2292
3897.000000 0.2292 0.2291 0.2291 0.2291 0.2290
3902.000000 0.2290 0.2290 0.2290 0.2290 0.2290
3907.000000 0.2289 0.2289 0.2289 0.2289 0.2289
3912.000000 0.2289 0.2288 0.2288 0.2288 0.2287
3917.000000 0.2287 0.2287 0.2286 0.2286 0.2286
3922.000000 0.2286 0.2286 0.2286 0.2285 0.2285
3927.000000 0.2285 0.2285 0.2285 0.2285 0.2284
3932.000000 0.2284 0.2284 0.2283 0.2283 0.2283
3937.000000 0.2283 0.2283 0.2283 0.2283 0.2283
3942.000000 0.2283 0.2283 0.2283 0.2283 0.2283
3947.000000 0.2283 0.2283 0.2283 0.2283 0.2283
3952.000000 0.2283 0.2283 0.2283 0.2283 0.2283
3957.000000 0.2283 0.2283 0.2283 0.2283 0.2283
3962.000000 0.2283 0.2283 0.2283 0.2283 0.2283
3967.000000 0.2283 0.2283 0.2283 0.2283 0.2283
3972.000000 0.2283 0.2283 0.2283 0.2283 0.2283
3977.000000 0.2283 0.2283 0.2283 0.2283 0.2283
3982.000000 0.2283 0.2283 0.2283 0.2283 0.2283
3987.000000 0.2283 0.2282 0.2282 0.2282 0.2282
3992.000000 0.2282 0.2282 0.2282 0.2282 0.2282
3997.000000 0.2282 0.2282 0.2282 0.2282
##END=
