##TITLE=4,4'-DISULFANIC ACID BIPHENYL DIPOTASSIUM SALT
##JCAMP-DX=4.24
##DATA TYPE=INFRARED SPECTRUM
##CLASS=COBLENTZ
##OWNER=COBLENTZ SOCIETY
Collection (C) 2018 copyright by the U.S. Secretary of Commerce
on behalf of the United States of America. All rights reserved.
##DATE=1960
##MOLFORM=C12 H8 O6 K2 S2
##SOURCE REFERENCE=COBLENTZ NO. 865
##$NIST ID=B6000865
##$NIST SOURCE=COBLENTZ
##$NIST IMAGE=cob865
##SPECTROMETER/DATA SYSTEM=Not specified, most likely a prism, grating, or hybrid spectrometer.
##SAMPLING PROCEDURE=TRANSMISSION
##RESOLUTION=4
##DATA PROCESSING=DIGITIZED BY NIST FROM HARD COPY
##XUNITS=MICROMETERS
##YUNITS=TRANSMITTANCE
##XFACTOR=1.000000
##YFACTOR=1
##DELTAX=000.006663
##FIRSTX=1.82
##LASTX=15.2663
##FIRSTY=0.484
##MAXX=15.2663
##MINX=1.82
##MAXY=1.005
##MINY=0.004
##NPOINTS=2019
##XYDATA=(X++(Y..Y))
1.820000 0.4840 0.4850 0.4860 0.4860 0.4880
1.853333 0.4880 0.4900 0.4920 0.4930 0.4980
1.887000 0.4980 0.5010 0.5020 0.5020 0.5040
1.920333 0.5050 0.5060 0.5080 0.5090 0.5100
1.953000 0.5130 0.5170 0.5180 0.5210 0.5210
1.986333 0.5220 0.5240 0.5250 0.5280 0.5290
2.020000 0.5300 0.5300 0.5320 0.5320 0.5330
2.053333 0.5340 0.5380 0.5440 0.5460 0.5480
2.087000 0.5490 0.5490 0.5490 0.5500 0.5500
2.120333 0.5500 0.5500 0.5520 0.5530 0.5560
2.153000 0.5600 0.5600 0.5610 0.5620 0.5640
2.186333 0.5650 0.5650 0.5640 0.5620 0.5620
2.220000 0.5610 0.5600 0.5580 0.5570 0.5560
2.253333 0.5530 0.5520 0.5500 0.5490 0.5490
2.287000 0.5500 0.5500 0.5520 0.5520 0.5540
2.320333 0.5600 0.5610 0.5620 0.5640 0.5680
2.353000 0.5680 0.5690 0.5700 0.5720 0.5740
2.386333 0.5760 0.5770 0.5780 0.5800 0.5810
2.420000 0.5810 0.5820 0.5820 0.5820 0.5840
2.453333 0.5850 0.5920 0.6010 0.6010 0.6040
2.486000 0.6050 0.6060 0.6090 0.6120 0.6160
2.519333 0.6180 0.6180 0.6200 0.6210 0.6220
2.553000 0.6240 0.6250 0.6290 0.6300 0.6300
2.586333 0.6330 0.6340 0.6370 0.6400 0.6410
2.620000 0.6410 0.6420 0.6450 0.6460 0.6480
2.653333 0.6480 0.6490 0.6500 0.6520 0.6520
2.686000 0.6530 0.6530 0.6530 0.6540 0.6540
2.719333 0.6540 0.6560 0.6560 0.6560 0.6570
2.753000 0.6570 0.6580 0.6580 0.6580 0.6580
2.786333 0.6580 0.6600 0.6600 0.6600 0.6600
2.820000 0.6610 0.6610 0.6610 0.6610 0.6610
2.853333 0.6610 0.6610 0.6610 0.6620 0.6620
2.886000 0.6620 0.6620 0.6620 0.6620 0.6620
2.919333 0.6640 0.6650 0.6660 0.6680 0.6700
2.953000 0.6720 0.6740 0.6770 0.6780 0.6810
2.986333 0.6820 0.6840 0.6840 0.6840 0.6840
3.019000 0.6850 0.6860 0.6880 0.6890 0.6890
3.052333 0.6900 0.6900 0.6920 0.6920 0.6920
3.086000 0.6920 0.6930 0.6920 0.6920 0.6920
3.119333 0.6890 0.6880 0.6850 0.6840 0.6820
3.153000 0.6810 0.6800 0.6800 0.6780 0.6770
3.186333 0.6770 0.6760 0.6730 0.6690 0.6650
3.219000 0.6610 0.6500 0.6420 0.6380 0.6210
3.252333 0.6090 0.6020 0.5940 0.5840 0.5840
3.286000 0.5840 0.5740 0.5690 0.5540 0.5000
3.319333 0.4440 0.3880 0.3120 0.2360 0.1600
3.353000 0.0900 0.0200 0.0080 0.0050 0.0040
3.386333 0.0040 0.0040 0.0050 0.0060 0.0080
3.419000 0.0090 0.0120 0.0210 0.0280 0.0340
3.452333 0.0410 0.0340 0.0300 0.0290 0.0290
3.486000 0.0300 0.0650 0.1520 0.2660 0.3200
3.519333 0.3540 0.4400 0.4820 0.5520 0.5700
3.553000 0.5960 0.6520 0.6660 0.6860 0.7060
3.586333 0.7260 0.7330 0.7400 0.7420 0.7440
3.619000 0.7450 0.7450 0.7440 0.7410 0.7400
3.652333 0.7380 0.7370 0.7380 0.7440 0.7480
3.686000 0.7500 0.7520 0.7520 0.7520 0.7520
3.719333 0.7530 0.7540 0.7540 0.7570 0.7580
3.752000 0.7610 0.7620 0.7650 0.7690 0.7760
3.785333 0.7760 0.7770 0.7770 0.7780 0.7780
3.819000 0.7800 0.7810 0.7840 0.7890 0.7930
3.852333 0.7960 0.7970 0.8010 0.8040 0.8060
3.886000 0.8100 0.8140 0.8200 0.8220 0.8220
3.919333 0.8240 0.8260 0.8280 0.8330 0.8360
3.952000 0.8400 0.8400 0.8410 0.8420 0.8440
3.985333 0.8440 0.8450 0.8450 0.8460 0.8460
4.019000 0.8460 0.8480 0.8480 0.8490 0.8490
4.052333 0.8490 0.8500 0.8520 0.8520 0.8530
4.086000 0.8530 0.8530 0.8540 0.8540 0.8540
4.119333 0.8540 0.8540 0.8540 0.8570 0.8570
4.152000 0.8570 0.8570 0.8570 0.8570 0.8580
4.185333 0.8610 0.8640 0.8680 0.8770 0.8900
4.219000 0.9040 0.9040 0.9020 0.9010 0.8970
4.252333 0.8930 0.8920 0.8900 0.8880 0.8860
4.285000 0.8850 0.8840 0.8810 0.8800 0.8770
4.318333 0.8770 0.8760 0.8760 0.8760 0.8740
4.352000 0.8740 0.8740 0.8740 0.8740 0.8740
4.385333 0.8740 0.8740 0.8740 0.8740 0.8760
4.419000 0.8760 0.8770 0.8770 0.8770 0.8780
4.452333 0.8780 0.8800 0.8800 0.8810 0.8810
4.485000 0.8810 0.8820 0.8850 0.8860 0.8880
4.518333 0.8880 0.8890 0.8900 0.8900 0.8930
4.552000 0.8940 0.8960 0.8960 0.8970 0.8980
4.585333 0.8980 0.9010 0.9020 0.9020 0.9040
4.619000 0.9050 0.9060 0.9060 0.9080 0.9080
4.652333 0.9090 0.9090 0.9090 0.9100 0.9100
4.685000 0.9120 0.9120 0.9120 0.9130 0.9130
4.718333 0.9140 0.9140 0.9140 0.9160 0.9160
4.752000 0.9170 0.9170 0.9170 0.9170 0.9170
4.785333 0.9160 0.9160 0.9140 0.9140 0.9130
4.819000 0.9140 0.9160 0.9200 0.9220 0.9240
4.852333 0.9260 0.9280 0.9280 0.9290 0.9290
4.885000 0.9300 0.9300 0.9320 0.9320 0.9330
4.918333 0.9330 0.9340 0.9340 0.9360 0.9360
4.952000 0.9370 0.9370 0.9380 0.9380 0.9380
4.985333 0.9380 0.9380 0.9380 0.9380 0.9380
5.018000 0.9380 0.9380 0.9380 0.9400 0.9400
5.051333 0.9400 0.9400 0.9400 0.9410 0.9410
5.085000 0.9410 0.9410 0.9410 0.9410 0.9400
5.118333 0.9400 0.9380 0.9360 0.9330 0.9320
5.152000 0.9300 0.9260 0.9220 0.9210 0.9240
5.185333 0.9280 0.9320 0.9340 0.9360 0.9370
5.218000 0.9420 0.9450 0.9480 0.9490 0.9500
5.251333 0.9520 0.9530 0.9540 0.9560 0.9560
5.285000 0.9560 0.9560 0.9560 0.9570 0.9570
5.318333 0.9570 0.9570 0.9580 0.9580 0.9580
5.352000 0.9580 0.9600 0.9600 0.9600 0.9600
5.385333 0.9610 0.9610 0.9610 0.9620 0.9620
5.418000 0.9620 0.9620 0.9620 0.9620 0.9620
5.451333 0.9620 0.9620 0.9620 0.9620 0.9620
5.485000 0.9620 0.9610 0.9610 0.9600 0.9600
5.518333 0.9580 0.9580 0.9570 0.9580 0.9580
5.552000 0.9600 0.9600 0.9610 0.9610 0.9620
5.585333 0.9620 0.9640 0.9640 0.9640 0.9650
5.618000 0.9660 0.9660 0.9660 0.9680 0.9680
5.651333 0.9690 0.9690 0.9690 0.9700 0.9700
5.685000 0.9720 0.9720 0.9720 0.9730 0.9730
5.718333 0.9740 0.9740 0.9740 0.9740 0.9740
5.751000 0.9730 0.9730 0.9730 0.9730 0.9730
5.784333 0.9730 0.9730 0.9730 0.9720 0.9720
5.818000 0.9700 0.9690 0.9690 0.9690 0.9690
5.851333 0.9680 0.9660 0.9660 0.9650 0.9640
5.885000 0.9640 0.9620 0.9620 0.9620 0.9620
5.918333 0.9610 0.9610 0.9610 0.9600 0.9600
5.951000 0.9600 0.9600 0.9580 0.9570 0.9570
5.984333 0.9570 0.9570 0.9570 0.9570 0.9570
6.018000 0.9570 0.9600 0.9610 0.9620 0.9640
6.051333 0.9650 0.9660 0.9660 0.9680 0.9690
6.085000 0.9690 0.9690 0.9700 0.9700 0.9700
6.118333 0.9720 0.9720 0.9720 0.9720 0.9720
6.151000 0.9720 0.9720 0.9720 0.9720 0.9720
6.184333 0.9690 0.9690 0.9680 0.9660 0.9640
6.218000 0.9540 0.9500 0.9370 0.9210 0.9090
6.251333 0.9090 0.9130 0.9210 0.9260 0.9340
6.284000 0.9400 0.9450 0.9490 0.9520 0.9560
6.317333 0.9600 0.9610 0.9620 0.9640 0.9640
6.351000 0.9650 0.9660 0.9660 0.9660 0.9660
6.384333 0.9650 0.9600 0.9490 0.9290 0.9210
6.418000 0.9130 0.9020 0.9020 0.9210 0.9300
6.451333 0.9330 0.9400 0.9480 0.9540 0.9600
6.484000 0.9650 0.9690 0.9720 0.9730 0.9740
6.517333 0.9730 0.9720 0.9690 0.9690 0.9680
6.551000 0.9680 0.9660 0.9660 0.9650 0.9650
6.584333 0.9620 0.9580 0.9560 0.9540 0.9540
6.618000 0.9540 0.9540 0.9530 0.9520 0.9500
6.651333 0.9420 0.9410 0.9340 0.9320 0.9160
6.684000 0.9020 0.8920 0.8800 0.8160 0.7840
6.717333 0.7520 0.7240 0.7130 0.7020 0.6930
6.751000 0.6820 0.6540 0.6100 0.5330 0.4560
6.784333 0.3780 0.3010 0.2680 0.2330 0.1980
6.818000 0.1890 0.1820 0.1780 0.1780 0.1880
6.851333 0.2180 0.2300 0.2420 0.2500 0.2560
6.884000 0.2650 0.2900 0.3380 0.3560 0.3700
6.917333 0.3920 0.4330 0.4660 0.4850 0.5440
6.951000 0.5700 0.5960 0.6660 0.6920 0.7320
6.984333 0.7500 0.7650 0.7770 0.7940 0.8360
7.017000 0.8500 0.8610 0.8690 0.8700 0.8740
7.050333 0.8840 0.8890 0.8900 0.8900 0.8900
7.084000 0.8900 0.8900 0.8900 0.8900 0.8900
7.117333 0.8840 0.8820 0.8800 0.8640 0.8530
7.151000 0.8380 0.8050 0.7810 0.7560 0.7210
7.184333 0.6860 0.6120 0.5740 0.5360 0.5100
7.217000 0.5010 0.4900 0.4460 0.4120 0.3770
7.250333 0.3740 0.3760 0.3980 0.4520 0.4810
7.284000 0.5280 0.5450 0.5700 0.5840 0.5970
7.317333 0.6200 0.6410 0.6620 0.6810 0.7120
7.351000 0.7170 0.7220 0.7300 0.7340 0.7370
7.384333 0.7450 0.7520 0.7610 0.7680 0.7760
7.417000 0.7800 0.7820 0.7860 0.7900 0.7960
7.450333 0.7970 0.8090 0.8120 0.8160 0.8180
7.484000 0.8210 0.8250 0.8290 0.8330 0.8360
7.517333 0.8370 0.8370 0.8380 0.8380 0.8380
7.550000 0.8380 0.8370 0.8360 0.8320 0.8290
7.583333 0.8250 0.8220 0.8200 0.8160 0.8120
7.617000 0.8120 0.8090 0.8060 0.8040 0.8010
7.650333 0.8000 0.7980 0.7970 0.7970 0.7960
7.684000 0.7960 0.7940 0.7930 0.7920 0.7900
7.717333 0.7890 0.7880 0.7850 0.7840 0.7820
7.750000 0.7810 0.7720 0.7690 0.7640 0.7570
7.783333 0.7560 0.7500 0.7360 0.7290 0.7260
7.817000 0.7240 0.7140 0.7040 0.6940 0.6850
7.850333 0.6620 0.6370 0.6010 0.5720 0.5410
7.884000 0.5120 0.5020 0.4920 0.4900 0.4930
7.917333 0.4980 0.5020 0.5020 0.4640 0.4250
7.950000 0.4060 0.3860 0.3460 0.3450 0.3060
7.983333 0.2970 0.2880 0.2500 0.2250 0.2210
8.017000 0.2250 0.2490 0.2610 0.2780 0.2840
8.050333 0.2900 0.2850 0.2810 0.2700 0.2650
8.084000 0.2580 0.2480 0.2240 0.2050 0.1860
8.117333 0.1690 0.1440 0.1130 0.1020 0.0900
8.150000 0.0810 0.0660 0.0610 0.0600 0.0610
8.183333 0.0640 0.0700 0.0770 0.0810 0.0970
8.217000 0.1210 0.1360 0.1490 0.1560 0.1620
8.250333 0.1610 0.1500 0.1250 0.1200 0.1000
8.283000 0.0960 0.0900 0.0860 0.0850 0.0800
8.316333 0.0770 0.0720 0.0700 0.0700 0.0700
8.350000 0.0720 0.0730 0.0740 0.0760 0.0800
8.383333 0.0900 0.0980 0.1050 0.1060 0.1100
8.417000 0.1100 0.1080 0.1060 0.1040 0.1050
8.450333 0.1160 0.1280 0.1380 0.1520 0.1690
8.483000 0.1820 0.1940 0.1980 0.2370 0.2530
8.516333 0.2700 0.2860 0.3200 0.3410 0.3520
8.550000 0.3650 0.3780 0.3890 0.3930 0.4130
8.583333 0.4200 0.4320 0.4330 0.4410 0.4420
8.617000 0.4410 0.4410 0.4380 0.4370 0.4360
8.650333 0.4330 0.4300 0.4260 0.4250 0.4210
8.683000 0.4170 0.4120 0.4080 0.4040 0.4000
8.716333 0.3970 0.3930 0.3850 0.3780 0.3700
8.750000 0.3410 0.3240 0.3100 0.2960 0.2650
8.783333 0.2170 0.1920 0.1660 0.1260 0.1010
8.817000 0.0920 0.0820 0.0780 0.0640 0.0580
8.850333 0.0570 0.0580 0.0640 0.0700 0.0780
8.883000 0.0820 0.0900 0.0960 0.1210 0.1440
8.916333 0.1620 0.1730 0.1890 0.2210 0.2320
8.950000 0.2490 0.2540 0.2620 0.2690 0.2720
8.983333 0.2780 0.2840 0.2900 0.2970 0.3060
9.016000 0.3180 0.3210 0.3320 0.3420 0.3530
9.049333 0.3700 0.3800 0.3930 0.4240 0.4330
9.083000 0.4460 0.4580 0.4690 0.4810 0.4920
9.116333 0.5100 0.5210 0.5250 0.5400 0.5400
9.150000 0.5620 0.5720 0.5810 0.5880 0.6010
9.183333 0.6130 0.6200 0.6300 0.6360 0.6440
9.216000 0.6460 0.6520 0.6610 0.6620 0.6700
9.249333 0.6740 0.6810 0.6850 0.6900 0.6940
9.283000 0.7040 0.7090 0.7130 0.7180 0.7210
9.316333 0.7240 0.7260 0.7280 0.7300 0.7330
9.350000 0.7340 0.7410 0.7450 0.7460 0.7460
9.383333 0.7460 0.7460 0.7450 0.7450 0.7420
9.416000 0.7410 0.7380 0.7360 0.7320 0.7260
9.449333 0.7200 0.7140 0.7060 0.7020 0.6980
9.483000 0.6900 0.6820 0.6810 0.6100 0.5400
9.516333 0.5040 0.4680 0.4680 0.3890 0.3100
9.549000 0.2900 0.2700 0.2520 0.2400 0.2300
9.582333 0.2160 0.2060 0.1970 0.1490 0.1140
9.616000 0.1020 0.0900 0.0810 0.0780 0.0780
9.649333 0.0900 0.1240 0.1490 0.1730 0.2340
9.683000 0.2570 0.2810 0.3320 0.3570 0.3820
9.716333 0.4320 0.4570 0.4820 0.5330 0.5580
9.749000 0.6250 0.6460 0.6680 0.6780 0.6920
9.782333 0.7130 0.7240 0.7340 0.7340 0.7320
9.816000 0.7240 0.7100 0.6970 0.6410 0.6060
9.849333 0.5720 0.5120 0.5040 0.4960 0.4960
9.883000 0.5260 0.5490 0.5760 0.6620 0.6820
9.916333 0.7160 0.7340 0.7570 0.7720 0.7810
9.949000 0.7900 0.7900 0.7420 0.6730 0.6020
9.982333 0.5330 0.4620 0.3930 0.3240 0.2540
10.016000 0.1850 0.1840 0.1860 0.2540 0.2940
10.049333 0.3610 0.3960 0.4600 0.4840 0.5260
10.083000 0.5400 0.5700 0.5860 0.5930 0.6460
10.116333 0.6740 0.6840 0.6930 0.7140 0.7260
10.149000 0.7290 0.7320 0.7340 0.7370 0.7370
10.182333 0.7420 0.7460 0.7500 0.7560 0.7620
10.216000 0.7720 0.7730 0.7740 0.7770 0.7800
10.249333 0.7820 0.7840 0.7860 0.7900 0.7940
10.282000 0.7980 0.8050 0.8080 0.8100 0.8120
10.315333 0.8130 0.8170 0.8210 0.8220 0.8260
10.349000 0.8280 0.8280 0.8290 0.8300 0.8330
10.382333 0.8360 0.8370 0.8410 0.8440 0.8460
10.416000 0.8480 0.8500 0.8530 0.8560 0.8580
10.449333 0.8610 0.8620 0.8650 0.8680 0.8700
10.482000 0.8730 0.8760 0.8780 0.8800 0.8810
10.515333 0.8820 0.8840 0.8850 0.8860 0.8880
10.549000 0.8890 0.8900 0.8930 0.8930 0.8940
10.582333 0.8960 0.8960 0.8970 0.8980 0.8980
10.616000 0.9010 0.9010 0.9020 0.9040 0.9040
10.649333 0.9050 0.9060 0.9060 0.9080 0.9090
10.682000 0.9090 0.9120 0.9130 0.9130 0.9140
10.715333 0.9160 0.9160 0.9170 0.9180 0.9180
10.749000 0.9200 0.9210 0.9210 0.9220 0.9240
10.782333 0.9240 0.9250 0.9260 0.9260 0.9280
10.815000 0.9290 0.9290 0.9290 0.9300 0.9300
10.848333 0.9300 0.9320 0.9320 0.9330 0.9330
10.882000 0.9330 0.9340 0.9340 0.9340 0.9360
10.915333 0.9360 0.9360 0.9380 0.9410 0.9420
10.949000 0.9420 0.9440 0.9440 0.9450 0.9450
10.982333 0.9460 0.9460 0.9480 0.9480 0.9490
11.015000 0.9490 0.9500 0.9500 0.9530 0.9530
11.048333 0.9530 0.9540 0.9540 0.9540 0.9560
11.082000 0.9560 0.9560 0.9560 0.9570 0.9570
11.115333 0.9570 0.9570 0.9570 0.9570 0.9570
11.149000 0.9570 0.9570 0.9570 0.9570 0.9570
11.182333 0.9570 0.9570 0.9560 0.9570 0.9570
11.215000 0.9580 0.9580 0.9580 0.9580 0.9600
11.248333 0.9600 0.9600 0.9610 0.9610 0.9620
11.282000 0.9620 0.9640 0.9640 0.9650 0.9660
11.315333 0.9660 0.9680 0.9680 0.9690 0.9690
11.349000 0.9700 0.9700 0.9720 0.9730 0.9730
11.382333 0.9730 0.9740 0.9740 0.9740 0.9740
11.415000 0.9760 0.9760 0.9760 0.9760 0.9760
11.448333 0.9760 0.9760 0.9760 0.9760 0.9740
11.482000 0.9740 0.9730 0.9730 0.9720 0.9720
11.515333 0.9700 0.9700 0.9690 0.9690 0.9680
11.548000 0.9660 0.9660 0.9650 0.9640 0.9640
11.581333 0.9620 0.9610 0.9600 0.9600 0.9580
11.615000 0.9570 0.9560 0.9560 0.9560 0.9560
11.648333 0.9560 0.9560 0.9560 0.9560 0.9560
11.682000 0.9570 0.9600 0.9610 0.9620 0.9640
11.715333 0.9650 0.9650 0.9660 0.9660 0.9680
11.748000 0.9680 0.9680 0.9680 0.9680 0.9680
11.781333 0.9680 0.9660 0.9660 0.9650 0.9650
11.815000 0.9640 0.9640 0.9620 0.9610 0.9610
11.848333 0.9600 0.9600 0.9580 0.9570 0.9570
11.882000 0.9570 0.9560 0.9560 0.9540 0.9540
11.915333 0.9540 0.9530 0.9530 0.9520 0.9500
11.948000 0.9490 0.9460 0.9450 0.9440 0.9420
11.981333 0.9380 0.9340 0.9290 0.9250 0.9180
12.015000 0.9120 0.9040 0.8980 0.8920 0.8860
12.048333 0.8660 0.8540 0.8320 0.7970 0.7610
12.081000 0.7330 0.6720 0.6100 0.5730 0.5360
12.114333 0.4970 0.4010 0.3540 0.3080 0.3000
12.148000 0.3000 0.3020 0.3250 0.3500 0.3720
12.181333 0.4260 0.4650 0.5520 0.5890 0.6800
12.215000 0.6960 0.7460 0.7690 0.7980 0.8370
12.248333 0.8610 0.8720 0.8880 0.9160 0.9220
12.281000 0.9290 0.9380 0.9460 0.9540 0.9600
12.314333 0.9640 0.9680 0.9720 0.9760 0.9780
12.348000 0.9810 0.9840 0.9860 0.9890 0.9890
12.381333 0.9900 0.9920 0.9920 0.9930 0.9930
12.415000 0.9930 0.9940 0.9940 0.9940 0.9960
12.448333 0.9960 0.9960 0.9970 0.9970 0.9980
12.481000 0.9980 0.9980 0.9980 0.9980 0.9980
12.514333 1.0000 1.0000 1.0000 1.0000 1.0010
12.548000 1.0010 1.0010 1.0020 1.0020 1.0020
12.581333 1.0020 1.0040 1.0040 1.0040 1.0040
12.615000 1.0040 1.0040 1.0040 1.0050 1.0050
12.648333 1.0050 1.0040 1.0040 1.0020 1.0010
12.681000 1.0000 1.0000 0.9980 0.9980 0.9970
12.714333 0.9960 0.9940 0.9930 0.9930 0.9920
12.748000 0.9900 0.9890 0.9880 0.9850 0.9850
12.781333 0.9840 0.9820 0.9820 0.9810 0.9810
12.814000 0.9810 0.9810 0.9810 0.9810 0.9810
12.847333 0.9810 0.9810 0.9810 0.9810 0.9810
12.881000 0.9810 0.9810 0.9810 0.9810 0.9810
12.914333 0.9810 0.9810 0.9810 0.9800 0.9800
12.948000 0.9800 0.9780 0.9780 0.9770 0.9770
12.981333 0.9760 0.9770 0.9760 0.9760 0.9760
13.014000 0.9740 0.9740 0.9740 0.9730 0.9730
13.047333 0.9730 0.9730 0.9730 0.9730 0.9740
13.081000 0.9740 0.9740 0.9760 0.9760 0.9760
13.114333 0.9770 0.9770 0.9770 0.9780 0.9780
13.148000 0.9780 0.9780 0.9780 0.9780 0.9780
13.181333 0.9780 0.9780 0.9780 0.9770 0.9770
13.214000 0.9760 0.9740 0.9730 0.9730 0.9720
13.247333 0.9700 0.9690 0.9680 0.9660 0.9650
13.281000 0.9640 0.9620 0.9610 0.9600 0.9580
13.314333 0.9570 0.9560 0.9540 0.9530 0.9520
13.348000 0.9490 0.9450 0.9420 0.9400 0.9370
13.381333 0.9340 0.9300 0.9260 0.9220 0.9180
13.414000 0.9160 0.9120 0.9090 0.9050 0.9020
13.447333 0.9010 0.8980 0.8930 0.8880 0.8820
13.481000 0.8770 0.8700 0.8640 0.8530 0.8490
13.514333 0.8410 0.8340 0.8250 0.8210 0.8060
13.547000 0.8010 0.7940 0.7860 0.7770 0.7680
13.580333 0.7600 0.7450 0.7220 0.7080 0.6960
13.614000 0.6820 0.6690 0.6420 0.6120 0.5970
13.647333 0.5810 0.5500 0.5370 0.5240 0.4780
13.681000 0.4330 0.4100 0.3880 0.3420 0.3040
13.714333 0.2850 0.2660 0.2650 0.2300 0.1960
13.747000 0.1740 0.1560 0.1540 0.1420 0.1330
13.780333 0.1250 0.1200 0.1180 0.1180 0.1210
13.814000 0.1240 0.1280 0.1300 0.1400 0.1500
13.847333 0.1540 0.1610 0.1690 0.1740 0.1800
13.881000 0.1850 0.2010 0.2100 0.2200 0.2280
13.914333 0.2300 0.2400 0.2500 0.2530 0.2620
13.947000 0.2740 0.2840 0.2940 0.3140 0.3320
13.980333 0.3440 0.3560 0.3760 0.3860 0.3960
14.014000 0.4320 0.4620 0.4660 0.4840 0.5160
14.047333 0.5330 0.5580 0.5700 0.5840 0.5960
14.080000 0.6210 0.6340 0.6460 0.6600 0.6720
14.113333 0.6850 0.6980 0.7220 0.7410 0.7420
14.147000 0.7520 0.7640 0.7720 0.7760 0.7850
14.180333 0.7930 0.8020 0.8120 0.8170 0.8210
14.214000 0.8240 0.8300 0.8330 0.8360 0.8440
14.247333 0.8450 0.8500 0.8530 0.8540 0.8560
14.280000 0.8580 0.8620 0.8700 0.8740 0.8770
14.313333 0.8800 0.8810 0.8820 0.8840 0.8850
14.347000 0.8880 0.8900 0.8920 0.8940 0.8980
14.380333 0.9020 0.9040 0.9050 0.9060 0.9080
14.414000 0.9090 0.9100 0.9120 0.9130 0.9140
14.447333 0.9160 0.9160 0.9160 0.9170 0.9170
14.480000 0.9170 0.9170 0.9180 0.9180 0.9180
14.513333 0.9180 0.9180 0.9180 0.9170 0.9170
14.547000 0.9170 0.9160 0.9140 0.9140 0.9140
14.580333 0.9130 0.9130 0.9130 0.9130 0.9140
14.614000 0.9140 0.9140 0.9160 0.9180 0.9220
14.647333 0.9240 0.9290 0.9300 0.9320 0.9320
14.680000 0.9340 0.9370 0.9380 0.9400 0.9400
14.713333 0.9410 0.9420 0.9420 0.9450 0.9460
14.747000 0.9480 0.9490 0.9500 0.9500 0.9520
14.780333 0.9520 0.9530 0.9530 0.9540 0.9540
14.813000 0.9540 0.9540 0.9540 0.9540 0.9540
14.846333 0.9540 0.9540 0.9530 0.9530 0.9520
14.880000 0.9500 0.9500 0.9490 0.9480 0.9460
14.913333 0.9450 0.9420 0.9380 0.9360 0.9340
14.947000 0.9340 0.9360 0.9360 0.9370 0.9370
14.980333 0.9410 0.9440 0.9480 0.9480 0.9480
15.013000 0.9480 0.9420 0.9410 0.9370 0.9360
15.046333 0.9340 0.9340 0.9340 0.9340 0.9340
15.080000 0.9340 0.9360 0.9360 0.9360 0.9360
15.113333 0.9380 0.9380 0.9410 0.9420 0.9420
15.147000 0.9450 0.9480 0.9490 0.9490 0.9490
15.180333 0.9500 0.9500 0.9500 0.9500 0.9490
15.213000 0.9450 0.9480 0.9490 0.9490 0.9490
15.246333 0.9500 0.9500 0.9500 0.9500
##END=
