##TITLE=2-NORBORNANEACETONITRILE, EXO-
##JCAMP-DX=4.24
##DATA TYPE=INFRARED SPECTRUM
##CLASS=COBLENTZ III
##ORIGIN=DOW CHEMICAL COMPANY
##OWNER=COBLENTZ SOC.
Collection (C) 2018 copyright by the U.S. Secretary of Commerce
on behalf of the United States of America. All rights reserved.
##DATE=1964/08/18
##NAMES=bicyclo[2.2.1]hept-2-ylacetonitrile
##MOLFORM=C9 H13 N
##BP=102 C AT 10 mmHg
##SOURCE REFERENCE=COBLENTZ NO. 06686
##$NIST ID=B6006686
##$NIST SOURCE=COBLENTZ
##$NIST IMAGE=cob6686
##SPECTROMETER/DATA SYSTEM=BECKMAN IR-9 (GRATING)
##INSTRUMENT PARAMETERS=ORDER CHANGES: 670, 1200, 2000 CM^-^1
##STATE=SOLUTION (10% CCl4 FOR 3800-1330, 10% CS2 FOR 1330-400 CM^-^1))
##PATH LENGTH=0.011 CM, 0.012 CM
$$SPECTRAL CONTAMINATION DUE TO CCl4 AROUND 1550, AND AN UNKNOWN AROUND 1720, 400 CM^-^1
##SAMPLING PROCEDURE=TRANSMISSION
##RESOLUTION=2
##DATA PROCESSING=DIGITIZED BY COBLENTZ SOCIETY (BATCH I) FROM HARD COPY
##XUNITS=1/CM
##YUNITS=TRANSMITTANCE
##XLABEL=Wavenumbers (cm-1)
##YLABEL=% Transmission
##XFACTOR=1
##YFACTOR=1
##DELTAX=1
##FIRSTX=404
##LASTX=3800
##FIRSTY=0.1368
##MAXX=3800
##MINX=404
##MAXY=0.9931
##MINY=0.0024
##NPOINTS=3397
##XYDATA=(X++(Y..Y))
404.000000 0.1368 0.1364 0.1362 0.1361 0.1374
409.000000 0.1386 0.1430 0.1563 0.1684 0.1884
414.000000 0.2110 0.2253 0.2434 0.2759 0.4280
419.000000 0.4414 0.4547 0.4681 0.4815 0.4950
424.000000 0.5199 0.5745 0.5870 0.5994 0.6098
429.000000 0.6160 0.6222 0.6283 0.6392 0.6503
434.000000 0.6600 0.6681 0.6761 0.6851 0.6961
439.000000 0.7071 0.7181 0.7283 0.7364 0.7444
444.000000 0.7525 0.7604 0.7671 0.7740 0.7808
449.000000 0.7875 0.7922 0.7969 0.8017 0.8064
454.000000 0.8111 0.8158 0.8207 0.8255 0.8302
459.000000 0.8350 0.8388 0.8421 0.8456 0.8490
464.000000 0.8523 0.8557 0.8587 0.8613 0.8639
469.000000 0.8665 0.8691 0.8717 0.8742 0.8768
474.000000 0.8794 0.8818 0.8843 0.8866 0.8890
479.000000 0.8913 0.8937 0.8960 0.8984 0.9008
484.000000 0.9032 0.9062 0.9092 0.9121 0.9152
489.000000 0.9175 0.9198 0.9220 0.9242 0.9264
494.000000 0.9286 0.9306 0.9324 0.9342 0.9360
499.000000 0.9378 0.9394 0.9406 0.9418 0.9430
504.000000 0.9441 0.9453 0.9465 0.9477 0.9489
509.000000 0.9501 0.9513 0.9525 0.9537 0.9547
514.000000 0.9558 0.9568 0.9578 0.9589 0.9597
519.000000 0.9605 0.9613 0.9621 0.9628 0.9709
524.000000 0.9645 0.9657 0.9671 0.9673 0.9674
529.000000 0.9675 0.9674 0.9673 0.9666 0.9659
534.000000 0.9639 0.9618 0.9592 0.9566 0.9528
539.000000 0.9487 0.9446 0.9402 0.9356 0.9324
544.000000 0.9298 0.9303 0.9318 0.9350 0.9387
549.000000 0.9446 0.9538 0.9640 0.9739 0.9796
554.000000 0.9813 0.9825 0.9837 0.9849 0.9859
559.000000 0.9868 0.9878 0.9886 0.9893 0.9900
564.000000 0.9907 0.9912 0.9916 0.9920 0.9923
569.000000 0.9927 0.9931 0.9931 0.9930 0.9928
574.000000 0.9928 0.9921 0.9913 0.9901 0.9888
579.000000 0.9875 0.9862 0.9847 0.9830 0.9813
584.000000 0.9799 0.9785 0.9813 0.9809 0.9825
589.000000 0.9844 0.9862 0.9878 0.9890 0.9896
594.000000 0.9901 0.9901 0.9901 0.9901 0.9897
599.000000 0.9893 0.9888 0.9882 0.9875 0.9870
604.000000 0.9864 0.9860 0.9858 0.9857 0.9857
609.000000 0.9857 0.9857 0.9857 0.9860 0.9865
614.000000 0.9868 0.9873 0.9878 0.9882 0.9887
619.000000 0.9891 0.9896 0.9896 0.9895 0.9881
624.000000 0.9868 0.9855 0.9841 0.9828 0.9811
629.000000 0.9789 0.9768 0.9748 0.9728 0.9707
634.000000 0.9687 0.9665 0.9638 0.9612 0.9585
639.000000 0.9559 0.9530 0.9500 0.9468 0.9439
644.000000 0.9409 0.9368 0.9325 0.9285 0.9237
649.000000 0.9184 0.9131 0.9078 0.9017 0.8948
654.000000 0.8885 0.8833 0.8788 0.8771 0.8766
659.000000 0.8906 0.9073 0.9241 0.9330 0.9381
664.000000 0.9423 0.9454 0.9481 0.9506 0.9528
669.000000 0.9550 0.9565 0.9578 0.9590 0.9594
674.000000 0.9599 0.9603 0.9615 0.9635 0.9661
679.000000 0.9691 0.9725 0.9736 0.9739 0.9740
684.000000 0.9739 0.9738 0.9735 0.9732 0.9728
689.000000 0.9725 0.9721 0.9718 0.9714 0.9748
694.000000 0.9706 0.9701 0.9697 0.9692 0.9687
699.000000 0.9687 0.9689 0.9690 0.9692 0.9698
704.000000 0.9704 0.9711 0.9717 0.9723 0.9727
709.000000 0.9730 0.9733 0.9736 0.9738 0.9740
714.000000 0.9742 0.9744 0.9743 0.9743 0.9740
719.000000 0.9737 0.9735 0.9731 0.9727 0.9723
724.000000 0.9718 0.9714 0.9710 0.9700 0.9689
729.000000 0.9678 0.9665 0.9640 0.9615 0.9587
734.000000 0.9556 0.9531 0.9516 0.9509 0.9510
739.000000 0.9512 0.9517 0.9523 0.9528 0.9535
744.000000 0.9543 0.9552 0.9561 0.9570 0.9578
749.000000 0.9593 0.9607 0.9621 0.9632 0.9642
754.000000 0.9642 0.9641 0.9632 0.9609 0.9573
759.000000 0.9506 0.9367 0.9259 0.9153 0.9077
764.000000 0.9033 0.9023 0.9056 0.9198 0.9342
769.000000 0.9486 0.9587 0.9623 0.9638 0.9654
774.000000 0.9668 0.9681 0.9683 0.9683 0.9683
779.000000 0.9682 0.9678 0.9721 0.9663 0.9650
784.000000 0.9631 0.9607 0.9583 0.9547 0.9497
789.000000 0.9415 0.9293 0.9178 0.9071 0.8961
794.000000 0.8840 0.8790 0.8790 0.8798 0.8859
799.000000 0.8975 0.9014 0.9014 0.8995 0.8897
804.000000 0.8799 0.8701 0.8603 0.8510 0.8510
809.000000 0.8941 0.9300 0.9332 0.9356 0.9378
814.000000 0.9394 0.9410 0.9427 0.9446 0.9461
819.000000 0.9328 0.9271 0.9184 0.9120 0.9100
824.000000 0.9105 0.9073 0.9201 0.9265 0.9314
829.000000 0.9348 0.9358 0.9355 0.9355 0.9355
834.000000 0.9255 0.9150 0.9044 0.8939 0.8833
839.000000 0.8728 0.8621 0.8560 0.8534 0.8512
844.000000 0.8487 0.8382 0.8164 0.7946 0.7728
849.000000 0.7510 0.7292 0.7151 0.7143 0.7392
854.000000 0.7617 0.7649 0.7675 0.7695 0.7710
859.000000 0.7725 0.7760 0.7780 0.7767 0.7788
864.000000 0.7695 0.7645 0.7601 0.7565 0.7558
869.000000 0.7519 0.7634 0.7736 0.7856 0.7984
874.000000 0.8098 0.8209 0.8316 0.8424 0.8524
879.000000 0.8578 0.8633 0.8694 0.8725 0.8743
884.000000 0.8741 0.8728 0.8694 0.8639 0.8578
889.000000 0.8530 0.8652 0.8799 0.8778 0.8720
894.000000 0.8661 0.8602 0.8594 0.8633 0.8748
899.000000 0.8928 0.9035 0.9152 0.9251 0.9336
904.000000 0.9395 0.9449 0.9477 0.9477 0.9477
909.000000 0.9480 0.9468 0.9453 0.9417 0.9382
914.000000 0.9343 0.9296 0.9250 0.9171 0.8841
919.000000 0.8511 0.8182 0.7851 0.7640 0.7661
924.000000 0.7624 0.8235 0.8521 0.8757 0.9075
929.000000 0.9208 0.9263 0.9316 0.9343 0.9357
934.000000 0.9359 0.9343 0.9321 0.9202 0.9082
939.000000 0.8963 0.8843 0.8723 0.8604 0.8484
944.000000 0.8364 0.8245 0.8108 0.8158 0.8236
949.000000 0.8346 0.8457 0.8567 0.8665 0.8713
954.000000 0.8621 0.8566 0.8511 0.8455 0.8428
959.000000 0.8431 0.8416 0.9218 0.9293 0.9363
964.000000 0.9411 0.9451 0.9483 0.9508 0.9523
969.000000 0.9538 0.9553 0.9568 0.9581 0.9593
974.000000 0.9604 0.9616 0.9624 0.9632 0.9640
979.000000 0.9647 0.9655 0.9659 0.9664 0.9665
984.000000 0.9665 0.9665 0.9665 0.9665 0.9665
989.000000 0.9665 0.9666 0.9666 0.9664 0.9659
994.000000 0.9653 0.9648 0.9642 0.9636 0.9630
999.000000 0.9624 0.9618 0.9611 0.9600 0.9589
1004.000000 0.9578 0.9567 0.9555 0.9542 0.9530
1009.000000 0.9517 0.9504 0.9491 0.9477 0.9462
1014.000000 0.9447 0.9432 0.9418 0.9403 0.9388
1019.000000 0.9375 0.9365 0.9354 0.9342 0.9331
1024.000000 0.9320 0.9308 0.9295 0.9281 0.9287
1029.000000 0.9295 0.9302 0.9308 0.9315 0.9316
1034.000000 0.9317 0.9301 0.9286 0.9270 0.9225
1039.000000 0.9149 0.9018 0.8975 0.8980 0.9160
1044.000000 0.9246 0.9294 0.9334 0.9367 0.9398
1049.000000 0.9425 0.9444 0.9462 0.9478 0.9490
1054.000000 0.9500 0.9506 0.9511 0.9515 0.9520
1059.000000 0.9525 0.9528 0.9528 0.9530 0.9518
1064.000000 0.9520 0.9521 0.9516 0.9510 0.9503
1069.000000 0.9496 0.9489 0.9482 0.9462 0.9442
1074.000000 0.9421 0.9398 0.9371 0.9345 0.9318
1079.000000 0.9275 0.9228 0.9183 0.9125 0.9050
1084.000000 0.8974 0.8865 0.8706 0.8555 0.8404
1089.000000 0.8253 0.7956 0.7989 0.7992 0.8962
1094.000000 0.9013 0.9074 0.9128 0.9163 0.9193
1099.000000 0.9212 0.9232 0.9237 0.9237 0.9238
1104.000000 0.9278 0.9212 0.9189 0.9158 0.9117
1109.000000 0.9073 0.9030 0.8990 0.8952 0.8920
1114.000000 0.8891 0.8861 0.8834 0.8818 0.8803
1119.000000 0.8809 0.8823 0.8840 0.8859 0.8877
1124.000000 0.8890 0.8894 0.8895 0.8890 0.8884
1129.000000 0.8871 0.8843 0.8793 0.8749 0.8690
1134.000000 0.8615 0.8541 0.8465 0.8247 0.7991
1139.000000 0.7734 0.7478 0.7362 0.7324 0.7287
1144.000000 0.7361 0.7614 0.7865 0.8118 0.8332
1149.000000 0.8386 0.8430 0.8464 0.8486 0.8505
1154.000000 0.8518 0.8532 0.8540 0.8545 0.8547
1159.000000 0.8549 0.8551 0.8552 0.8539 0.8533
1164.000000 0.8534 0.8535 0.8542 0.8561 0.8593
1169.000000 0.8625 0.8660 0.8701 0.8748 0.8794
1174.000000 0.8834 0.8875 0.8913 0.8941 0.8968
1179.000000 0.8996 0.9021 0.9038 0.9055 0.9071
1184.000000 0.9071 0.9074 0.9074 0.9108 0.9068
1189.000000 0.9061 0.9043 0.9016 0.8988 0.8953
1194.000000 0.8912 0.8863 0.8817 0.8777 0.8743
1199.000000 0.8734 0.8730 0.8727 0.8723 0.8724
1204.000000 0.8724 0.8725 0.8725 0.8659 0.8594
1209.000000 0.8508 0.8421 0.8346 0.8271 0.8161
1214.000000 0.8111 0.8132 0.8151 0.8199 0.8375
1219.000000 0.8590 0.8704 0.8745 0.8778 0.8788
1224.000000 0.8796 0.8781 0.8855 0.8686 0.8648
1229.000000 0.8608 0.8525 0.8449 0.8399 0.8411
1234.000000 0.8452 0.8528 0.8598 0.8665 0.8705
1239.000000 0.8738 0.8766 0.8766 0.8757 0.8728
1244.000000 0.8688 0.8620 0.8552 0.8491 0.8491
1249.000000 0.8491 0.8509 0.8541 0.8575 0.8614
1254.000000 0.8678 0.8705 0.8713 0.8711 0.8695
1259.000000 0.8665 0.8624 0.8525 0.8447 0.8374
1264.000000 0.8345 0.8366 0.8428 0.8500 0.8525
1269.000000 0.8523 0.8481 0.8423 0.8414 0.8442
1274.000000 0.8503 0.8590 0.8667 0.8674 0.8674
1279.000000 0.8657 0.8606 0.8558 0.8500 0.8428
1284.000000 0.8395 0.8407 0.8468 0.8512 0.8574
1289.000000 0.8590 0.8585 0.8570 0.8547 0.8510
1294.000000 0.8410 0.8325 0.8264 0.8232 0.8231
1299.000000 0.8231 0.8238 0.8238 0.7943 0.7534
1304.000000 0.7124 0.6715 0.6305 0.5896 0.5486
1309.000000 0.5331 0.5339 0.6009 0.6105 0.6120
1314.000000 0.5530 0.5135 0.4771 0.4770 0.4770
1319.000000 0.5049 0.5414 0.5779 0.6143 0.6508
1324.000000 0.6872 0.7238 0.7603 0.7956 0.8137
1329.000000 0.8342 0.8502 0.9052 0.9104 0.9142
1334.000000 0.9165 0.9188 0.9209 0.9227 0.9225
1339.000000 0.9221 0.9220 0.9190 0.9162 0.9124
1344.000000 0.9086 0.9039 0.8992 0.8945 0.8898
1349.000000 0.8696 0.8445 0.8193 0.7942 0.7690
1354.000000 0.7439 0.7188 0.6936 0.6685 0.6551
1359.000000 0.6548 0.6550 0.7411 0.8360 0.8503
1364.000000 0.8607 0.8704 0.8797 0.8877 0.8946
1369.000000 0.9015 0.9068 0.9120 0.9168 0.9189
1374.000000 0.9211 0.9232 0.9253 0.9275 0.9286
1379.000000 0.9296 0.9307 0.9317 0.9323 0.9325
1384.000000 0.9325 0.9327 0.9328 0.9330 0.9328
1389.000000 0.9328 0.9328 0.9315 0.9308 0.9289
1394.000000 0.9268 0.9249 0.9228 0.9209 0.9185
1399.000000 0.9157 0.9130 0.9103 0.9075 0.9040
1404.000000 0.9006 0.8971 0.8937 0.8888 0.8825
1409.000000 0.8762 0.8701 0.8640 0.8578 0.8498
1414.000000 0.8414 0.8328 0.8220 0.8111 0.8010
1419.000000 0.7915 0.7125 0.5653 0.4180 0.3882
1424.000000 0.3850 0.4250 0.4783 0.5316 0.5849
1429.000000 0.6381 0.6914 0.7447 0.7946 0.8224
1434.000000 0.8343 0.8423 0.8458 0.8474 0.8485
1439.000000 0.8471 0.8493 0.8409 0.8165 0.7878
1444.000000 0.7591 0.7303 0.7015 0.6937 0.6908
1449.000000 0.6886 0.6800 0.6238 0.5677 0.5115
1454.000000 0.4553 0.3991 0.3430 0.2868 0.2457
1459.000000 0.2465 0.3450 0.5828 0.7324 0.7493
1464.000000 0.7648 0.7948 0.8217 0.8310 0.8375
1469.000000 0.8412 0.8440 0.8442 0.8442 0.8425
1474.000000 0.8291 0.8036 0.7782 0.7526 0.7358
1479.000000 0.7353 0.7712 0.7941 0.8168 0.8397
1484.000000 0.8489 0.8518 0.8536 0.8530 0.8547
1489.000000 0.8541 0.8533 0.8521 0.8507 0.8490
1494.000000 0.8466 0.8442 0.8396 0.8350 0.8304
1499.000000 0.8257 0.8187 0.8115 0.8025 0.7955
1504.000000 0.7901 0.7847 0.7793 0.7739 0.7683
1509.000000 0.7628 0.7572 0.7521 0.7472 0.7424
1514.000000 0.7375 0.7325 0.7275 0.7221 0.7168
1519.000000 0.7114 0.7060 0.7006 0.6934 0.6861
1524.000000 0.6790 0.6706 0.6621 0.6537 0.6460
1529.000000 0.6390 0.6319 0.6250 0.6183 0.6117
1534.000000 0.6050 0.5983 0.5916 0.5843 0.5771
1539.000000 0.5698 0.5639 0.5582 0.5526 0.5469
1544.000000 0.5409 0.5349 0.5287 0.5224 0.5162
1549.000000 0.5103 0.5048 0.5000 0.4967 0.4949
1554.000000 0.4951 0.4962 0.5025 0.5101 0.5171
1559.000000 0.5300 0.5495 0.5691 0.5767 0.5856
1564.000000 0.5906 0.5954 0.6012 0.6072 0.6153
1569.000000 0.6224 0.6286 0.6338 0.6377 0.6385
1574.000000 0.6391 0.6408 0.6425 0.6451 0.6486
1579.000000 0.6522 0.6558 0.6603 0.6653 0.6693
1584.000000 0.6728 0.6771 0.6819 0.6868 0.6918
1589.000000 0.6969 0.7021 0.7080 0.7147 0.7212
1594.000000 0.7281 0.7365 0.7450 0.7578 0.7707
1599.000000 0.7798 0.7881 0.7955 0.8030 0.8104
1604.000000 0.8176 0.8248 0.8318 0.8386 0.8444
1609.000000 0.8501 0.8557 0.8610 0.8662 0.8711
1614.000000 0.8753 0.8795 0.8836 0.8875 0.8913
1619.000000 0.8945 0.8975 0.9008 0.9040 0.9071
1624.000000 0.9093 0.9114 0.9133 0.9149 0.9165
1629.000000 0.9181 0.9196 0.9212 0.9228 0.9244
1634.000000 0.9260 0.9275 0.9289 0.9304 0.9318
1639.000000 0.9330 0.9343 0.9356 0.9368 0.9380
1644.000000 0.9387 0.9395 0.9403 0.9410 0.9418
1649.000000 0.9425 0.9433 0.9439 0.9443 0.9447
1654.000000 0.9450 0.9454 0.9458 0.9462 0.9466
1659.000000 0.9468 0.9471 0.9475 0.9478 0.9482
1664.000000 0.9485 0.9488 0.9491 0.9494 0.9497
1669.000000 0.9501 0.9504 0.9507 0.9509 0.9511
1674.000000 0.9513 0.9515 0.9517 0.9518 0.9521
1679.000000 0.9523 0.9525 0.9527 0.9528 0.9530
1684.000000 0.9531 0.9533 0.9532 0.9532 0.9528
1689.000000 0.9527 0.9524 0.9521 0.9518 0.9507
1694.000000 0.9492 0.9475 0.9461 0.9441 0.9417
1699.000000 0.9393 0.9368 0.9332 0.9295 0.9258
1704.000000 0.9221 0.9183 0.9145 0.9107 0.9071
1709.000000 0.9041 0.9009 0.8977 0.8945 0.8910
1714.000000 0.8871 0.8833 0.8799 0.8773 0.8747
1719.000000 0.8751 0.8783 0.8878 0.8981 0.9047
1724.000000 0.9099 0.9151 0.9207 0.9268 0.9321
1729.000000 0.9351 0.9381 0.9411 0.9441 0.9463
1734.000000 0.9480 0.9493 0.9506 0.9518 0.9531
1739.000000 0.9535 0.9539 0.9539 0.9540 0.9536
1744.000000 0.9533 0.9530 0.9525 0.9518 0.9510
1749.000000 0.9502 0.9494 0.9488 0.9497 0.9509
1754.000000 0.9528 0.9550 0.9568 0.9586 0.9604
1759.000000 0.9618 0.9632 0.9644 0.9653 0.9659
1764.000000 0.9665 0.9673 0.9681 0.9700 0.9718
1769.000000 0.9731 0.9742 0.9744 0.9745 0.9746
1774.000000 0.9747 0.9748 0.9748 0.9748 0.9747
1779.000000 0.9746 0.9745 0.9740 0.9732 0.9728
1784.000000 0.9724 0.9720 0.9716 0.9712 0.9708
1789.000000 0.9704 0.9700 0.9694 0.9691 0.9690
1794.000000 0.9690 0.9689 0.9687 0.9686 0.9684
1799.000000 0.9682 0.9681 0.9680 0.9680 0.9681
1804.000000 0.9681 0.9681 0.9680 0.9680 0.9678
1809.000000 0.9678 0.9678 0.9678 0.9677 0.9674
1814.000000 0.9671 0.9667 0.9664 0.9660 0.9657
1819.000000 0.9653 0.9651 0.9649 0.9647 0.9645
1824.000000 0.9643 0.9641 0.9639 0.9637 0.9635
1829.000000 0.9633 0.9631 0.9628 0.9627 0.9625
1834.000000 0.9621 0.9620 0.9618 0.9616 0.9614
1839.000000 0.9612 0.9610 0.9607 0.9605 0.9605
1844.000000 0.9604 0.9603 0.9602 0.9602 0.9601
1849.000000 0.9600 0.9599 0.9599 0.9598 0.9597
1854.000000 0.9596 0.9596 0.9595 0.9594 0.9594
1859.000000 0.9594 0.9594 0.9595 0.9595 0.9595
1864.000000 0.9595 0.9595 0.9595 0.9595 0.9595
1869.000000 0.9595 0.9596 0.9596 0.9596 0.9597
1874.000000 0.9597 0.9598 0.9598 0.9598 0.9599
1879.000000 0.9599 0.9600 0.9600 0.9600 0.9602
1884.000000 0.9605 0.9607 0.9609 0.9612 0.9614
1889.000000 0.9617 0.9618 0.9621 0.9624 0.9625
1894.000000 0.9628 0.9651 0.9635 0.9639 0.9643
1899.000000 0.9647 0.9651 0.9655 0.9659 0.9662
1904.000000 0.9666 0.9670 0.9674 0.9677 0.9680
1909.000000 0.9683 0.9685 0.9688 0.9691 0.9693
1914.000000 0.9696 0.9698 0.9699 0.9700 0.9700
1919.000000 0.9701 0.9702 0.9702 0.9702 0.9702
1924.000000 0.9702 0.9701 0.9701 0.9700 0.9700
1929.000000 0.9702 0.9704 0.9706 0.9708 0.9711
1934.000000 0.9713 0.9715 0.9717 0.9718 0.9721
1939.000000 0.9721 0.9714 0.9700 0.9686 0.9673
1944.000000 0.9658 0.9635 0.9636 0.9666 0.9693
1949.000000 0.9717 0.9721 0.9721 0.9720 0.9718
1954.000000 0.9715 0.9712 0.9709 0.9704 0.9699
1959.000000 0.9694 0.9689 0.9684 0.9678 0.9678
1964.000000 0.9678 0.9680 0.9681 0.9681 0.9685
1969.000000 0.9695 0.9705 0.9714 0.9718 0.9724
1974.000000 0.9728 0.9733 0.9736 0.9737 0.9737
1979.000000 0.9737 0.9737 0.9737 0.9736 0.9731
1984.000000 0.9725 0.9720 0.9715 0.9710 0.9704
1989.000000 0.9697 0.9690 0.9683 0.9675 0.9668
1994.000000 0.9661 0.9654 0.9649 0.9644 0.9644
1999.000000 0.9644 0.9658 0.9694 0.9730 0.9731
2004.000000 0.9733 0.9733 0.9733 0.9733 0.9733
2009.000000 0.9732 0.9732 0.9731 0.9731 0.9728
2014.000000 0.9727 0.9725 0.9724 0.9721 0.9721
2019.000000 0.9718 0.9718 0.9716 0.9714 0.9709
2024.000000 0.9705 0.9700 0.9696 0.9691 0.9687
2029.000000 0.9682 0.9678 0.9675 0.9675 0.9675
2034.000000 0.9678 0.9678 0.9681 0.9682 0.9684
2039.000000 0.9686 0.9689 0.9691 0.9691 0.9691
2044.000000 0.9688 0.9683 0.9678 0.9674 0.9670
2049.000000 0.9664 0.9658 0.9651 0.9645 0.9638
2054.000000 0.9631 0.9624 0.9618 0.9615 0.9612
2059.000000 0.9610 0.9609 0.9608 0.9607 0.9606
2064.000000 0.9605 0.9604 0.9603 0.9602 0.9601
2069.000000 0.9601 0.9602 0.9602 0.9602 0.9602
2074.000000 0.9603 0.9603 0.9603 0.9603 0.9604
2079.000000 0.9604 0.9605 0.9605 0.9605 0.9605
2084.000000 0.9606 0.9607 0.9609 0.9610 0.9612
2089.000000 0.9613 0.9614 0.9615 0.9617 0.9618
2094.000000 0.9620 0.9621 0.9621 0.9623 0.9625
2099.000000 0.9625 0.9628 0.9628 0.9630 0.9631
2104.000000 0.9632 0.9633 0.9634 0.9634 0.9635
2109.000000 0.9636 0.9637 0.9638 0.9639 0.9644
2114.000000 0.9649 0.9656 0.9663 0.9668 0.9675
2119.000000 0.9683 0.9690 0.9698 0.9706 0.9713
2124.000000 0.9720 0.9721 0.9724 0.9725 0.9728
2129.000000 0.9730 0.9732 0.9734 0.9735 0.9734
2134.000000 0.9734 0.9733 0.9732 0.9731 0.9731
2139.000000 0.9730 0.9728 0.9724 0.9718 0.9709
2144.000000 0.9699 0.9688 0.9678 0.9665 0.9652
2149.000000 0.9639 0.9627 0.9618 0.9611 0.9608
2154.000000 0.9606 0.9603 0.9601 0.9599 0.9597
2159.000000 0.9597 0.9597 0.9597 0.9597 0.9597
2164.000000 0.9597 0.9597 0.9597 0.9596 0.9596
2169.000000 0.9595 0.9595 0.9594 0.9594 0.9593
2174.000000 0.9593 0.9592 0.9592 0.9591 0.9591
2179.000000 0.9590 0.9590 0.9589 0.9589 0.9587
2184.000000 0.9585 0.9583 0.9582 0.9580 0.9578
2189.000000 0.9575 0.9575 0.9573 0.9571 0.9568
2194.000000 0.9568 0.9566 0.9565 0.9563 0.9561
2199.000000 0.9559 0.9558 0.9556 0.9555 0.9553
2204.000000 0.9551 0.9549 0.9548 0.9546 0.9545
2209.000000 0.9543 0.9542 0.9540 0.9538 0.9536
2214.000000 0.9535 0.9532 0.9530 0.9524 0.9518
2219.000000 0.9507 0.9497 0.9454 0.9412 0.9361
2224.000000 0.9311 0.9251 0.9192 0.9123 0.9054
2229.000000 0.8965 0.8875 0.8806 0.8736 0.8665
2234.000000 0.8594 0.8394 0.8194 0.7808 0.7424
2239.000000 0.7039 0.6654 0.6269 0.5884 0.5814
2244.000000 0.5734 0.5744 0.5743 0.6224 0.6706
2249.000000 0.7195 0.7684 0.8068 0.8453 0.8506
2254.000000 0.8560 0.8610 0.8660 0.8708 0.8756
2259.000000 0.8797 0.8839 0.8868 0.8898 0.8927
2264.000000 0.8957 0.8994 0.9031 0.9067 0.9104
2269.000000 0.9124 0.9144 0.9158 0.9173 0.9187
2274.000000 0.9201 0.9209 0.9217 0.9224 0.9231
2279.000000 0.9238 0.9245 0.9251 0.9258 0.9263
2284.000000 0.9268 0.9274 0.9280 0.9285 0.9290
2289.000000 0.9295 0.9301 0.9306 0.9311 0.9316
2294.000000 0.9321 0.9325 0.9330 0.9335 0.9340
2299.000000 0.9344 0.9349 0.9354 0.9359 0.9363
2304.000000 0.9368 0.9371 0.9377 0.9381 0.9385
2309.000000 0.9389 0.9393 0.9397 0.9402 0.9406
2314.000000 0.9410 0.9414 0.9418 0.9424 0.9431
2319.000000 0.9439 0.9447 0.9453 0.9460 0.9461
2324.000000 0.9462 0.9463 0.9465 0.9466 0.9465
2329.000000 0.9465 0.9464 0.9462 0.9460 0.9458
2334.000000 0.9456 0.9454 0.9453 0.9461 0.9470
2339.000000 0.9484 0.9498 0.9512 0.9525 0.9540
2344.000000 0.9555 0.9570 0.9585 0.9594 0.9603
2349.000000 0.9607 0.9612 0.9614 0.9617 0.9617
2354.000000 0.9617 0.9617 0.9617 0.9614 0.9612
2359.000000 0.9609 0.9607 0.9604 0.9601 0.9598
2364.000000 0.9595 0.9591 0.9588 0.9584 0.9580
2369.000000 0.9577 0.9574 0.9571 0.9568 0.9567
2374.000000 0.9565 0.9562 0.9560 0.9557 0.9555
2379.000000 0.9553 0.9552 0.9551 0.9550 0.9549
2384.000000 0.9549 0.9549 0.9550 0.9552 0.9555
2389.000000 0.9557 0.9560 0.9562 0.9564 0.9566
2394.000000 0.9568 0.9571 0.9575 0.9581 0.9587
2399.000000 0.9593 0.9599 0.9605 0.9611 0.9617
2404.000000 0.9623 0.9628 0.9635 0.9641 0.9647
2409.000000 0.9653 0.9659 0.9663 0.9667 0.9668
2414.000000 0.9671 0.9673 0.9675 0.9675 0.9675
2419.000000 0.9671 0.9668 0.9666 0.9663 0.9658
2424.000000 0.9654 0.9648 0.9643 0.9637 0.9632
2429.000000 0.9625 0.9621 0.9616 0.9612 0.9612
2434.000000 0.9612 0.9612 0.9612 0.9612 0.9612
2439.000000 0.9612 0.9613 0.9613 0.9613 0.9613
2444.000000 0.9613 0.9614 0.9615 0.9616 0.9618
2449.000000 0.9618 0.9621 0.9621 0.9624 0.9625
2454.000000 0.9627 0.9628 0.9631 0.9632 0.9634
2459.000000 0.9636 0.9638 0.9639 0.9641 0.9643
2464.000000 0.9645 0.9647 0.9649 0.9650 0.9652
2469.000000 0.9654 0.9656 0.9657 0.9658 0.9659
2474.000000 0.9660 0.9661 0.9662 0.9663 0.9664
2479.000000 0.9665 0.9666 0.9667 0.9668 0.9670
2484.000000 0.9671 0.9671 0.9673 0.9674 0.9675
2489.000000 0.9675 0.9677 0.9677 0.9677 0.9677
2494.000000 0.9677 0.9677 0.9677 0.9677 0.9677
2499.000000 0.9677 0.9677 0.9677 0.9677 0.9677
2504.000000 0.9677 0.9677 0.9677 0.9677 0.9677
2509.000000 0.9677 0.9678 0.9678 0.9678 0.9678
2514.000000 0.9678 0.9678 0.9678 0.9678 0.9678
2519.000000 0.9678 0.9678 0.9678 0.9678 0.9678
2524.000000 0.9678 0.9678 0.9678 0.9678 0.9678
2529.000000 0.9678 0.9678 0.9678 0.9678 0.9678
2534.000000 0.9678 0.9678 0.9678 0.9678 0.9678
2539.000000 0.9678 0.9678 0.9678 0.9678 0.9677
2544.000000 0.9675 0.9668 0.9662 0.9655 0.9649
2549.000000 0.9643 0.9637 0.9630 0.9624 0.9615
2554.000000 0.9607 0.9598 0.9590 0.9581 0.9573
2559.000000 0.9568 0.9563 0.9558 0.9553 0.9548
2564.000000 0.9543 0.9540 0.9540 0.9540 0.9544
2569.000000 0.9547 0.9551 0.9556 0.9561 0.9568
2574.000000 0.9575 0.9582 0.9589 0.9593 0.9597
2579.000000 0.9601 0.9605 0.9607 0.9607 0.9607
2584.000000 0.9605 0.9603 0.9601 0.9599 0.9597
2589.000000 0.9593 0.9590 0.9587 0.9584 0.9580
2594.000000 0.9577 0.9574 0.9571 0.9567 0.9564
2599.000000 0.9559 0.9555 0.9550 0.9546 0.9541
2604.000000 0.9537 0.9532 0.9528 0.9525 0.9524
2609.000000 0.9523 0.9521 0.9521 0.9521 0.9528
2614.000000 0.9537 0.9545 0.9553 0.9558 0.9564
2619.000000 0.9568 0.9573 0.9575 0.9575 0.9575
2624.000000 0.9575 0.9568 0.9562 0.9559 0.9556
2629.000000 0.9557 0.9558 0.9559 0.9561 0.9565
2634.000000 0.9570 0.9577 0.9584 0.9591 0.9598
2639.000000 0.9607 0.9617 0.9625 0.9633 0.9639
2644.000000 0.9645 0.9650 0.9655 0.9657 0.9660
2649.000000 0.9662 0.9665 0.9666 0.9667 0.9668
2654.000000 0.9668 0.9668 0.9670 0.9670 0.9670
2659.000000 0.9670 0.9670 0.9668 0.9666 0.9664
2664.000000 0.9662 0.9660 0.9658 0.9655 0.9652
2669.000000 0.9649 0.9646 0.9642 0.9639 0.9635
2674.000000 0.9632 0.9628 0.9625 0.9621 0.9618
2679.000000 0.9616 0.9613 0.9610 0.9608 0.9605
2684.000000 0.9603 0.9601 0.9599 0.9596 0.9594
2689.000000 0.9591 0.9589 0.9586 0.9584 0.9583
2694.000000 0.9582 0.9582 0.9582 0.9582 0.9582
2699.000000 0.9582 0.9582 0.9582 0.9582 0.9583
2704.000000 0.9584 0.9586 0.9588 0.9589 0.9591
2709.000000 0.9592 0.9594 0.9595 0.9597 0.9598
2714.000000 0.9600 0.9601 0.9603 0.9604 0.9605
2719.000000 0.9605 0.9606 0.9606 0.9607 0.9608
2724.000000 0.9609 0.9609 0.9610 0.9610 0.9611
2729.000000 0.9611 0.9612 0.9612 0.9612 0.9611
2734.000000 0.9611 0.9610 0.9610 0.9610 0.9610
2739.000000 0.9609 0.9609 0.9607 0.9605 0.9601
2744.000000 0.9598 0.9594 0.9591 0.9587 0.9584
2749.000000 0.9580 0.9577 0.9573 0.9568 0.9565
2754.000000 0.9562 0.9558 0.9555 0.9549 0.9544
2759.000000 0.9539 0.9534 0.9528 0.9523 0.9517
2764.000000 0.9512 0.9507 0.9502 0.9495 0.9488
2769.000000 0.9481 0.9474 0.9470 0.9466 0.9466
2774.000000 0.9466 0.9466 0.9466 0.9466 0.9466
2779.000000 0.9466 0.9467 0.9470 0.9474 0.9477
2784.000000 0.9481 0.9484 0.9488 0.9489 0.9491
2789.000000 0.9491 0.9491 0.9491 0.9491 0.9491
2794.000000 0.9491 0.9490 0.9490 0.9488 0.9486
2799.000000 0.9484 0.9483 0.9480 0.9478 0.9474
2804.000000 0.9471 0.9467 0.9464 0.9459 0.9455
2809.000000 0.9446 0.9437 0.9428 0.9418 0.9410
2814.000000 0.9401 0.9385 0.9370 0.9352 0.9335
2819.000000 0.9317 0.9300 0.9275 0.9251 0.9224
2824.000000 0.9198 0.9168 0.9140 0.9111 0.9083
2829.000000 0.9054 0.9025 0.8986 0.8946 0.8908
2834.000000 0.8870 0.8842 0.8815 0.8788 0.8761
2839.000000 0.8737 0.8714 0.8688 0.8663 0.8595
2844.000000 0.8527 0.8415 0.8304 0.8192 0.8080
2849.000000 0.7942 0.7805 0.7536 0.7267 0.7036
2854.000000 0.6805 0.6501 0.6197 0.5893 0.5590
2859.000000 0.5286 0.4982 0.4678 0.4374 0.4070
2864.000000 0.3766 0.3462 0.3159 0.2855 0.2551
2869.000000 0.2247 0.1944 0.1640 0.1336 0.1032
2874.000000 0.0728 0.0687 0.0647 0.0672 0.0652
2879.000000 0.1037 0.1377 0.1717 0.2057 0.2397
2884.000000 0.2737 0.3076 0.3416 0.3756 0.4096
2889.000000 0.4436 0.4776 0.5115 0.5455 0.5504
2894.000000 0.5553 0.5557 0.5588 0.5562 0.5564
2899.000000 0.5554 0.5545 0.5512 0.5479 0.5409
2904.000000 0.5340 0.5180 0.5020 0.4658 0.4296
2909.000000 0.3934 0.3572 0.3209 0.2848 0.2485
2914.000000 0.2124 0.1885 0.1648 0.1595 0.1542
2919.000000 0.1502 0.1463 0.1441 0.1419 0.1422
2924.000000 0.1425 0.1499 0.1414 0.1661 0.1749
2929.000000 0.1836 0.1925 0.1933 0.1946 0.1886
2934.000000 0.1833 0.1642 0.1452 0.1261 0.1071
2939.000000 0.0881 0.0691 0.0606 0.0522 0.0445
2944.000000 0.0367 0.0336 0.0304 0.0272 0.0241
2949.000000 0.0210 0.0181 0.0155 0.0129 0.0114
2954.000000 0.0099 0.0084 0.0070 0.0061 0.0052
2959.000000 0.0048 0.0044 0.0044 0.0044 0.0046
2964.000000 0.0024 0.0063 0.0078 0.0100 0.0122
2969.000000 0.0221 0.0321 0.0642 0.0964 0.1285
2974.000000 0.1607 0.1928 0.2250 0.2571 0.2893
2979.000000 0.3214 0.3536 0.3766 0.3996 0.4093
2984.000000 0.4191 0.4256 0.4321 0.4451 0.4581
2989.000000 0.4677 0.4773 0.4846 0.4919 0.5784
2994.000000 0.6649 0.6880 0.7111 0.7272 0.7435
2999.000000 0.7528 0.7621 0.7688 0.7755 0.7818
3004.000000 0.7882 0.7943 0.8005 0.8057 0.8108
3009.000000 0.8161 0.8213 0.8264 0.8316 0.8366
3014.000000 0.8417 0.8457 0.8497 0.8528 0.8559
3019.000000 0.8589 0.8620 0.8647 0.8674 0.8695
3024.000000 0.8716 0.8737 0.8759 0.8780 0.8802
3029.000000 0.8818 0.8835 0.8852 0.8868 0.8886
3034.000000 0.8903 0.8920 0.8937 0.8954 0.8971
3039.000000 0.8988 0.9005 0.9023 0.9042 0.9061
3044.000000 0.9080 0.9097 0.9115 0.9128 0.9143
3049.000000 0.9157 0.9171 0.9184 0.9198 0.9212
3054.000000 0.9225 0.9240 0.9254 0.9268 0.9282
3059.000000 0.9291 0.9301 0.9310 0.9320 0.9328
3064.000000 0.9338 0.9347 0.9357 0.9366 0.9375
3069.000000 0.9384 0.9394 0.9402 0.9410 0.9418
3074.000000 0.9425 0.9434 0.9442 0.9449 0.9457
3079.000000 0.9462 0.9468 0.9471 0.9477 0.9481
3084.000000 0.9485 0.9489 0.9494 0.9496 0.9499
3089.000000 0.9501 0.9504 0.9506 0.9509 0.9511
3094.000000 0.9513 0.9514 0.9516 0.9517 0.9518
3099.000000 0.9518 0.9521 0.9521 0.9524 0.9525
3104.000000 0.9527 0.9528 0.9528 0.9528 0.9530
3109.000000 0.9530 0.9530 0.9530 0.9531 0.9531
3114.000000 0.9531 0.9531 0.9532 0.9532 0.9532
3119.000000 0.9532 0.9533 0.9533 0.9533 0.9533
3124.000000 0.9533 0.9533 0.9533 0.9532 0.9532
3129.000000 0.9531 0.9531 0.9530 0.9530 0.9528
3134.000000 0.9528 0.9528 0.9527 0.9525 0.9525
3139.000000 0.9525 0.9524 0.9523 0.9523 0.9521
3144.000000 0.9521 0.9520 0.9520 0.9518 0.9518
3149.000000 0.9517 0.9516 0.9515 0.9515 0.9513
3154.000000 0.9511 0.9509 0.9508 0.9506 0.9504
3159.000000 0.9502 0.9500 0.9498 0.9496 0.9492
3164.000000 0.9489 0.9484 0.9480 0.9475 0.9470
3169.000000 0.9465 0.9461 0.9456 0.9451 0.9446
3174.000000 0.9442 0.9437 0.9433 0.9428 0.9423
3179.000000 0.9418 0.9413 0.9408 0.9404 0.9399
3184.000000 0.9394 0.9389 0.9385 0.9380 0.9375
3189.000000 0.9370 0.9365 0.9359 0.9354 0.9349
3194.000000 0.9344 0.9338 0.9333 0.9330 0.9331
3199.000000 0.9331 0.9334 0.9339 0.9345 0.9350
3204.000000 0.9356 0.9360 0.9365 0.9370 0.9375
3209.000000 0.9378 0.9384 0.9388 0.9393 0.9398
3214.000000 0.9403 0.9410 0.9417 0.9425 0.9433
3219.000000 0.9440 0.9448 0.9455 0.9462 0.9466
3224.000000 0.9470 0.9471 0.9475 0.9477 0.9480
3229.000000 0.9482 0.9485 0.9487 0.9487 0.9488
3234.000000 0.9488 0.9487 0.9487 0.9486 0.9486
3239.000000 0.9485 0.9485 0.9484 0.9483 0.9481
3244.000000 0.9480 0.9478 0.9475 0.9474 0.9473
3249.000000 0.9471 0.9470 0.9468 0.9467 0.9465
3254.000000 0.9464 0.9462 0.9461 0.9459 0.9458
3259.000000 0.9457 0.9456 0.9454 0.9454 0.9454
3264.000000 0.9456 0.9457 0.9459 0.9460 0.9462
3269.000000 0.9463 0.9465 0.9465 0.9466 0.9466
3274.000000 0.9466 0.9466 0.9466 0.9465 0.9465
3279.000000 0.9464 0.9463 0.9462 0.9461 0.9460
3284.000000 0.9459 0.9457 0.9456 0.9454 0.9453
3289.000000 0.9451 0.9450 0.9448 0.9447 0.9445
3294.000000 0.9443 0.9441 0.9439 0.9437 0.9435
3299.000000 0.9433 0.9431 0.9428 0.9425 0.9424
3304.000000 0.9421 0.9420 0.9418 0.9416 0.9414
3309.000000 0.9411 0.9408 0.9405 0.9402 0.9399
3314.000000 0.9397 0.9394 0.9391 0.9388 0.9386
3319.000000 0.9383 0.9380 0.9377 0.9374 0.9370
3324.000000 0.9366 0.9362 0.9358 0.9354 0.9351
3329.000000 0.9347 0.9343 0.9339 0.9335 0.9331
3334.000000 0.9327 0.9323 0.9320 0.9317 0.9314
3339.000000 0.9310 0.9307 0.9304 0.9301 0.9297
3344.000000 0.9294 0.9292 0.9291 0.9291 0.9292
3349.000000 0.9292 0.9293 0.9295 0.9297 0.9299
3354.000000 0.9302 0.9304 0.9307 0.9308 0.9310
3359.000000 0.9310 0.9311 0.9312 0.9313 0.9313
3364.000000 0.9313 0.9313 0.9313 0.9312 0.9312
3369.000000 0.9312 0.9312 0.9311 0.9311 0.9311
3374.000000 0.9311 0.9311 0.9311 0.9310 0.9310
3379.000000 0.9310 0.9310 0.9309 0.9309 0.9309
3384.000000 0.9309 0.9309 0.9309 0.9308 0.9308
3389.000000 0.9308 0.9308 0.9308 0.9308 0.9308
3394.000000 0.9308 0.9307 0.9307 0.9307 0.9307
3399.000000 0.9307 0.9307 0.9306 0.9306 0.9306
3404.000000 0.9306 0.9305 0.9304 0.9303 0.9302
3409.000000 0.9301 0.9300 0.9299 0.9298 0.9296
3414.000000 0.9295 0.9294 0.9294 0.9294 0.9295
3419.000000 0.9295 0.9295 0.9295 0.9295 0.9295
3424.000000 0.9295 0.9295 0.9295 0.9295 0.9295
3429.000000 0.9295 0.9295 0.9295 0.9295 0.9295
3434.000000 0.9295 0.9295 0.9296 0.9298 0.9301
3439.000000 0.9303 0.9306 0.9308 0.9311 0.9313
3444.000000 0.9316 0.9318 0.9320 0.9321 0.9324
3449.000000 0.9325 0.9328 0.9330 0.9332 0.9334
3454.000000 0.9336 0.9337 0.9339 0.9340 0.9341
3459.000000 0.9341 0.9341 0.9340 0.9340 0.9340
3464.000000 0.9340 0.9339 0.9339 0.9339 0.9339
3469.000000 0.9338 0.9338 0.9338 0.9338 0.9337
3474.000000 0.9337 0.9337 0.9337 0.9336 0.9336
3479.000000 0.9335 0.9335 0.9335 0.9335 0.9334
3484.000000 0.9333 0.9332 0.9331 0.9330 0.9328
3489.000000 0.9328 0.9327 0.9325 0.9325 0.9324
3494.000000 0.9323 0.9321 0.9321 0.9320 0.9318
3499.000000 0.9318 0.9318 0.9318 0.9318 0.9317
3504.000000 0.9317 0.9317 0.9317 0.9316 0.9316
3509.000000 0.9316 0.9316 0.9316 0.9316 0.9315
3514.000000 0.9315 0.9314 0.9313 0.9312 0.9311
3519.000000 0.9310 0.9309 0.9308 0.9307 0.9306
3524.000000 0.9305 0.9304 0.9303 0.9302 0.9301
3529.000000 0.9300 0.9299 0.9299 0.9300 0.9300
3534.000000 0.9301 0.9301 0.9302 0.9302 0.9303
3539.000000 0.9303 0.9304 0.9306 0.9308 0.9309
3544.000000 0.9311 0.9313 0.9315 0.9317 0.9318
3549.000000 0.9320 0.9321 0.9324 0.9325 0.9328
3554.000000 0.9330 0.9332 0.9335 0.9337 0.9339
3559.000000 0.9341 0.9344 0.9347 0.9350 0.9354
3564.000000 0.9358 0.9362 0.9366 0.9370 0.9374
3569.000000 0.9374 0.9374 0.9373 0.9371 0.9367
3574.000000 0.9363 0.9353 0.9344 0.9334 0.9324
3579.000000 0.9318 0.9318 0.9317 0.9323 0.9332
3584.000000 0.9342 0.9353 0.9364 0.9378 0.9392
3589.000000 0.9406 0.9421 0.9435 0.9450 0.9461
3594.000000 0.9473 0.9483 0.9493 0.9494 0.9496
3599.000000 0.9498 0.9500 0.9502 0.9504 0.9498
3604.000000 0.9493 0.9485 0.9478 0.9463 0.9448
3609.000000 0.9451 0.9455 0.9458 0.9462 0.9467
3614.000000 0.9471 0.9477 0.9483 0.9488 0.9493
3619.000000 0.9497 0.9502 0.9506 0.9511 0.9515
3624.000000 0.9518 0.9521 0.9525 0.9528 0.9533
3629.000000 0.9536 0.9540 0.9542 0.9545 0.9546
3634.000000 0.9548 0.9549 0.9550 0.9551 0.9553
3639.000000 0.9554 0.9555 0.9556 0.9557 0.9558
3644.000000 0.9559 0.9559 0.9560 0.9560 0.9560
3649.000000 0.9560 0.9560 0.9560 0.9560 0.9560
3654.000000 0.9560 0.9560 0.9559 0.9557 0.9556
3659.000000 0.9554 0.9552 0.9550 0.9548 0.9546
3664.000000 0.9545 0.9543 0.9541 0.9535 0.9528
3669.000000 0.9521 0.9516 0.9509 0.9503 0.9495
3674.000000 0.9488 0.9478 0.9468 0.9458 0.9448
3679.000000 0.9437 0.9427 0.9417 0.9408 0.9398
3684.000000 0.9389 0.9378 0.9370 0.9361 0.9353
3689.000000 0.9347 0.9341 0.9336 0.9331 0.9332
3694.000000 0.9333 0.9333 0.9334 0.9335 0.9337
3699.000000 0.9341 0.9346 0.9352 0.9358 0.9366
3704.000000 0.9374 0.9382 0.9390 0.9397 0.9404
3709.000000 0.9409 0.9414 0.9418 0.9421 0.9421
3714.000000 0.9420 0.9418 0.9417 0.9416 0.9415
3719.000000 0.9414 0.9413 0.9412 0.9411 0.9411
3724.000000 0.9411 0.9411 0.9411 0.9411 0.9411
3729.000000 0.9415 0.9420 0.9425 0.9430 0.9435
3734.000000 0.9440 0.9444 0.9449 0.9454 0.9459
3739.000000 0.9463 0.9468 0.9471 0.9477 0.9481
3744.000000 0.9486 0.9491 0.9496 0.9500 0.9504
3749.000000 0.9508 0.9512 0.9516 0.9520 0.9524
3754.000000 0.9528 0.9532 0.9536 0.9539 0.9543
3759.000000 0.9546 0.9550 0.9553 0.9556 0.9558
3764.000000 0.9561 0.9563 0.9566 0.9568 0.9571
3769.000000 0.9573 0.9575 0.9577 0.9578 0.9580
3774.000000 0.9581 0.9582 0.9583 0.9584 0.9585
3779.000000 0.9585 0.9585 0.9585 0.9584 0.9583
3784.000000 0.9582 0.9581 0.9581 0.9580 0.9580
3789.000000 0.9578 0.9578 0.9578 0.9578 0.9577
3794.000000 0.9577 0.9575 0.9575 0.9575 0.9575
3799.000000 0.9575 0.9575
##END=
