##TITLE=Chloramine-T
##JCAMP-DX=4.24
##DATA TYPE=INFRARED SPECTRUM
##CLASS=COBLENTZ III
##ORIGIN=WYANDOTTE CHEMICALS CORP..
##OWNER=Copyright (C) 1987 by the Coblentz Society
Collection (C) 2018 copyright by the U.S. Secretary of Commerce
on behalf of the United States of America. All rights reserved.
##DATE=Not specified, most likely prior to 1970
##NAMES=N-CHLORO-p-TOLUENESULFONAMIDE, SODIUM DERIVATIVE TRIHYDRATE
##MOLFORM=C7 H7 Cl N Na O2 S  * 3 H2 O
##SOURCE REFERENCE=COBLENTZ NO. 7462
##$NIST ID=B6007462
##$NIST SOURCE=COBLENTZ
##$NIST IMAGE=cob7462
##SPECTROMETER/DATA SYSTEM=BAIRD (GRATING)
##INSTRUMENT PARAMETERS=NaCl PRISM
##STATE=SOLID (OIL MULL)
$$SPECTRAL CONTAMINATION DUE TO OIL AROUND 2900, 1470, 1380 CM^-^1
##SAMPLING PROCEDURE=TRANSMISSION
##RESOLUTION=2
##DATA PROCESSING=DIGITIZED BY COBLENTZ SOCIETY (BATCH II) FROM HARD COPY
##XUNITS=1/CM
##YUNITS=TRANSMITTANCE
##XFACTOR=1.0
##YFACTOR=1
##FIRSTX=627
##LASTX=4000
##FIRSTY=0.4874
##MAXX=4000
##MINX=627
##MAXY=0.9397
##MINY=0.0171
##NPOINTS=3374
##XYDATA=(X++(Y..Y))
627.000000 0.4874 0.4872 0.4872 0.4873 0.4870
632.000000 0.4866 0.4861 0.4855 0.4850 0.4844
637.000000 0.4840 0.4835 0.4835 0.4836 0.4837
642.000000 0.4845 0.4857 0.4869 0.4886 0.4918
647.000000 0.4985 0.5058 0.5127 0.5192 0.5243
652.000000 0.5272 0.5286 0.5300 0.5308 0.5313
657.000000 0.5306 0.5296 0.5274 0.5240 0.5191
662.000000 0.5142 0.5093 0.5053 0.5034 0.5031
667.000000 0.5028 0.5007 0.4973 0.4935 0.4889
672.000000 0.4836 0.4777 0.4708 0.4640 0.4565
677.000000 0.4485 0.4395 0.4300 0.4206 0.4111
682.000000 0.4011 0.3910 0.3810 0.3705 0.3597
687.000000 0.3480 0.3327 0.3174 0.3019 0.2878
692.000000 0.2737 0.2575 0.2471 0.2432 0.2435
697.000000 0.2444 0.2483 0.2537 0.2629 0.2831
702.000000 0.3050 0.3318 0.3614 0.3908 0.4201
707.000000 0.4494 0.4808 0.5097 0.5351 0.5644
712.000000 0.5906 0.6065 0.6168 0.6232 0.6276
717.000000 0.6303 0.6315 0.6330 0.6350 0.6386
722.000000 0.6425 0.6463 0.6504 0.6547 0.6590
727.000000 0.6632 0.6674 0.6713 0.6748 0.6783
732.000000 0.6818 0.6853 0.6890 0.6927 0.6963
737.000000 0.6999 0.7036 0.7074 0.7110 0.7147
742.000000 0.7184 0.7223 0.7264 0.7305 0.7347
747.000000 0.7387 0.7424 0.7460 0.7474 0.7475
752.000000 0.7477 0.7480 0.7484 0.7488 0.7494
757.000000 0.7499 0.7504 0.7513 0.7577 0.7659
762.000000 0.7735 0.7773 0.7785 0.7793 0.7799
767.000000 0.7803 0.7807 0.7806 0.7804 0.7802
772.000000 0.7799 0.7797 0.7805 0.7790 0.7787
777.000000 0.7785 0.7782 0.7783 0.7784 0.7784
782.000000 0.7780 0.7765 0.7750 0.7729 0.7708
787.000000 0.7679 0.7637 0.7572 0.7481 0.7368
792.000000 0.7269 0.7178 0.7092 0.7007 0.6910
797.000000 0.6785 0.6639 0.6453 0.6138 0.5758
802.000000 0.4701 0.3701 0.2680 0.2465 0.2471
807.000000 0.3077 0.3711 0.4343 0.4973 0.5644
812.000000 0.6113 0.6426 0.6823 0.7026 0.7130
817.000000 0.7185 0.7207 0.7216 0.7225 0.7230
822.000000 0.7243 0.7235 0.7230 0.7226 0.7212
827.000000 0.7196 0.7171 0.7142 0.7099 0.7056
832.000000 0.7032 0.7031 0.7030 0.7031 0.7033
837.000000 0.7036 0.7038 0.7051 0.7041 0.7041
842.000000 0.7042 0.7043 0.7043 0.7046 0.7048
847.000000 0.7052 0.7054 0.7059 0.7069 0.7078
852.000000 0.7088 0.7097 0.7107 0.7118 0.7129
857.000000 0.7139 0.7150 0.7161 0.7182 0.7203
862.000000 0.7224 0.7245 0.7266 0.7284 0.7300
867.000000 0.7316 0.7333 0.7349 0.7365 0.7380
872.000000 0.7397 0.7412 0.7428 0.7444 0.7460
877.000000 0.7476 0.7493 0.7506 0.7503 0.7506
882.000000 0.7504 0.7499 0.7495 0.7482 0.7466
887.000000 0.7451 0.7435 0.7406 0.7375 0.7346
892.000000 0.7312 0.7273 0.7211 0.7145 0.7078
897.000000 0.6999 0.6919 0.6831 0.6734 0.6625
902.000000 0.6478 0.6321 0.6166 0.6012 0.5823
907.000000 0.5608 0.5380 0.5122 0.4822 0.4517
912.000000 0.4213 0.3911 0.3609 0.3307 0.3006
917.000000 0.2712 0.2442 0.2137 0.1843 0.1621
922.000000 0.1478 0.1412 0.1406 0.1428 0.1489
927.000000 0.1607 0.1936 0.2289 0.2641 0.2993
932.000000 0.3343 0.3693 0.4042 0.4390 0.4669
937.000000 0.4903 0.5105 0.5274 0.5430 0.5616
942.000000 0.5833 0.6078 0.6299 0.6493 0.6662
947.000000 0.6786 0.6868 0.6949 0.7029 0.7109
952.000000 0.7193 0.7281 0.7359 0.7426 0.7505
957.000000 0.7602 0.7710 0.7854 0.7969 0.8056
962.000000 0.8097 0.8121 0.8141 0.8156 0.8165
967.000000 0.8174 0.8187 0.8200 0.8221 0.8246
972.000000 0.8272 0.8315 0.8357 0.8405 0.8454
977.000000 0.8505 0.8567 0.8628 0.8686 0.8737
982.000000 0.8772 0.8794 0.8806 0.8810 0.8815
987.000000 0.8819 0.8824 0.8829 0.8833 0.8838
992.000000 0.8838 0.8835 0.8831 0.8828 0.8825
997.000000 0.8821 0.8832 0.8816 0.8815 0.8812
1002.000000 0.8806 0.8793 0.8782 0.8759 0.8734
1007.000000 0.8709 0.8667 0.8620 0.8558 0.8484
1012.000000 0.8386 0.8247 0.7980 0.7755 0.7403
1017.000000 0.7035 0.6724 0.6681 0.6702 0.7087
1022.000000 0.7458 0.7829 0.8198 0.8316 0.8315
1027.000000 0.8339 0.8292 0.8266 0.8234 0.8189
1032.000000 0.8138 0.8075 0.8012 0.7951 0.7899
1037.000000 0.7847 0.7801 0.7764 0.7727 0.7694
1042.000000 0.7666 0.7639 0.7612 0.7590 0.7568
1047.000000 0.7547 0.7529 0.7515 0.7501 0.7487
1052.000000 0.7470 0.7448 0.7420 0.7367 0.7313
1057.000000 0.7241 0.7165 0.7089 0.7006 0.6914
1062.000000 0.6819 0.6708 0.6602 0.6505 0.6407
1067.000000 0.6306 0.6200 0.6094 0.5977 0.5849
1072.000000 0.5704 0.5524 0.5348 0.5176 0.4950
1077.000000 0.4653 0.4356 0.3902 0.3484 0.3067
1082.000000 0.2650 0.2235 0.1820 0.1530 0.1231
1087.000000 0.1196 0.1184 0.1219 0.1329 0.1643
1092.000000 0.2002 0.2360 0.2718 0.3075 0.3431
1097.000000 0.3785 0.4086 0.4210 0.4309 0.4362
1102.000000 0.4389 0.4407 0.4417 0.4372 0.4328
1107.000000 0.4281 0.4233 0.4203 0.4178 0.4153
1112.000000 0.4130 0.4091 0.4049 0.3886 0.3624
1117.000000 0.3362 0.3142 0.3044 0.2966 0.2938
1122.000000 0.2921 0.2905 0.2893 0.2761 0.2436
1127.000000 0.2113 0.1790 0.1467 0.1212 0.1075
1132.000000 0.0969 0.0937 0.0938 0.0950 0.0985
1137.000000 0.1050 0.1172 0.1428 0.1684 0.1940
1142.000000 0.2195 0.2449 0.2703 0.2957 0.3210
1147.000000 0.3462 0.3716 0.3901 0.4164 0.4345
1152.000000 0.4546 0.4755 0.4961 0.5158 0.5304
1157.000000 0.5436 0.5547 0.5655 0.5746 0.5832
1162.000000 0.5903 0.5974 0.6072 0.6188 0.6297
1167.000000 0.6391 0.6485 0.6571 0.6618 0.6656
1172.000000 0.6692 0.6700 0.6707 0.6713 0.6716
1177.000000 0.6719 0.6723 0.6726 0.6727 0.6721
1182.000000 0.6714 0.6708 0.6708 0.6708 0.6717
1187.000000 0.6727 0.6738 0.6750 0.6760 0.6784
1192.000000 0.6755 0.6750 0.6742 0.6734 0.6724
1197.000000 0.6710 0.6697 0.6684 0.6664 0.6635
1202.000000 0.6606 0.6574 0.6540 0.6507 0.6472
1207.000000 0.6435 0.6393 0.6352 0.6300 0.6241
1212.000000 0.6182 0.6122 0.6057 0.5991 0.5925
1217.000000 0.5857 0.5780 0.5703 0.5626 0.5540
1222.000000 0.5434 0.5327 0.5219 0.5104 0.4986
1227.000000 0.4854 0.4690 0.4524 0.4312 0.4104
1232.000000 0.3896 0.3688 0.3481 0.3274 0.3068
1237.000000 0.2862 0.2656 0.2451 0.2245 0.2040
1242.000000 0.1836 0.1632 0.1428 0.1225 0.1104
1247.000000 0.1037 0.0972 0.0878 0.0797 0.0761
1252.000000 0.0763 0.0771 0.0800 0.0846 0.1076
1257.000000 0.1314 0.1552 0.1789 0.2026 0.2263
1262.000000 0.2499 0.2735 0.2970 0.3206 0.3440
1267.000000 0.3675 0.3909 0.4142 0.4375 0.4608
1272.000000 0.4928 0.5229 0.5468 0.5774 0.5974
1277.000000 0.6120 0.6253 0.6375 0.6496 0.6581
1282.000000 0.6652 0.6723 0.6777 0.6818 0.6860
1287.000000 0.6893 0.6911 0.6926 0.6937 0.6947
1292.000000 0.6958 0.6965 0.6973 0.6983 0.6998
1297.000000 0.7014 0.7033 0.7054 0.7074 0.7101
1302.000000 0.7128 0.7154 0.7175 0.7196 0.7217
1307.000000 0.7238 0.7259 0.7280 0.7305 0.7333
1312.000000 0.7360 0.7388 0.7424 0.7460 0.7496
1317.000000 0.7532 0.7565 0.7591 0.7597 0.7597
1322.000000 0.7597 0.7598 0.7598 0.7598 0.7598
1327.000000 0.7597 0.7593 0.7589 0.7586 0.7581
1332.000000 0.7574 0.7564 0.7556 0.7546 0.7531
1337.000000 0.7507 0.7476 0.7446 0.7418 0.7390
1342.000000 0.7367 0.7352 0.7337 0.7322 0.7307
1347.000000 0.7293 0.7280 0.7267 0.7253 0.7240
1352.000000 0.7227 0.7213 0.7200 0.7188 0.7171
1357.000000 0.7138 0.7100 0.7049 0.6991 0.6930
1362.000000 0.6863 0.6789 0.6666 0.6532 0.6385
1367.000000 0.6213 0.6058 0.5970 0.5900 0.5751
1372.000000 0.5572 0.5394 0.5215 0.5037 0.4743
1377.000000 0.4552 0.4459 0.4439 0.4442 0.4455
1382.000000 0.4550 0.4762 0.4972 0.5184 0.5394
1387.000000 0.5604 0.5814 0.6024 0.6233 0.6425
1392.000000 0.6514 0.6538 0.6552 0.6557 0.6560
1397.000000 0.6563 0.6566 0.6572 0.6578 0.6589
1402.000000 0.6603 0.6618 0.6641 0.6665 0.6688
1407.000000 0.6709 0.6730 0.6751 0.6770 0.6788
1412.000000 0.6804 0.6808 0.6805 0.6800 0.6795
1417.000000 0.6790 0.6780 0.6770 0.6756 0.6737
1422.000000 0.6719 0.6695 0.6668 0.6636 0.6604
1427.000000 0.6572 0.6534 0.6477 0.6402 0.6312
1432.000000 0.6233 0.6161 0.6089 0.5988 0.5851
1437.000000 0.5711 0.5570 0.5430 0.5290 0.5151
1442.000000 0.5011 0.4872 0.4733 0.4594 0.4473
1447.000000 0.4381 0.4288 0.4193 0.4099 0.4007
1452.000000 0.3911 0.3803 0.3686 0.3516 0.3414
1457.000000 0.3332 0.3249 0.3160 0.2990 0.2700
1462.000000 0.2579 0.2532 0.2501 0.2485 0.2482
1467.000000 0.2485 0.2492 0.2500 0.2516 0.2560
1472.000000 0.2634 0.2736 0.2829 0.2908 0.3042
1477.000000 0.3413 0.3836 0.4259 0.4681 0.5102
1482.000000 0.5519 0.5868 0.6087 0.6237 0.6337
1487.000000 0.6398 0.6449 0.6486 0.6502 0.6513
1492.000000 0.6516 0.6519 0.6518 0.6513 0.6509
1497.000000 0.6504 0.6504 0.6505 0.6528 0.6618
1502.000000 0.6733 0.6848 0.6964 0.7079 0.7194
1507.000000 0.7309 0.7424 0.7525 0.7572 0.7589
1512.000000 0.7599 0.7602 0.7605 0.7607 0.7609
1517.000000 0.7612 0.7612 0.7612 0.7612 0.7611
1522.000000 0.7611 0.7610 0.7610 0.7609 0.7609
1527.000000 0.7609 0.7608 0.7608 0.7604 0.7601
1532.000000 0.7598 0.7595 0.7592 0.7588 0.7598
1537.000000 0.7583 0.7580 0.7577 0.7574 0.7570
1542.000000 0.7567 0.7564 0.7562 0.7559 0.7556
1547.000000 0.7553 0.7549 0.7546 0.7544 0.7542
1552.000000 0.7541 0.7539 0.7538 0.7536 0.7535
1557.000000 0.7533 0.7532 0.7530 0.7529 0.7527
1562.000000 0.7526 0.7523 0.7518 0.7513 0.7508
1567.000000 0.7503 0.7491 0.7473 0.7457 0.7443
1572.000000 0.7432 0.7424 0.7418 0.7412 0.7407
1577.000000 0.7402 0.7396 0.7391 0.7383 0.7372
1582.000000 0.7360 0.7344 0.7325 0.7305 0.7285
1587.000000 0.7265 0.7242 0.7218 0.7194 0.7171
1592.000000 0.7146 0.7120 0.7092 0.7064 0.7036
1597.000000 0.7005 0.6974 0.6941 0.6874 0.6761
1602.000000 0.6633 0.6506 0.6380 0.6244 0.6126
1607.000000 0.6080 0.6058 0.6046 0.6028 0.6055
1612.000000 0.6135 0.6242 0.6348 0.6456 0.6562
1617.000000 0.6668 0.6774 0.6860 0.6880 0.6880
1622.000000 0.6904 0.6871 0.6861 0.6849 0.6833
1627.000000 0.6814 0.6794 0.6774 0.6754 0.6737
1632.000000 0.6721 0.6706 0.6690 0.6674 0.6658
1637.000000 0.6641 0.6623 0.6605 0.6587 0.6569
1642.000000 0.6548 0.6522 0.6497 0.6470 0.6441
1647.000000 0.6407 0.6375 0.6341 0.6305 0.6270
1652.000000 0.6234 0.6198 0.6159 0.6115 0.6068
1657.000000 0.6021 0.5966 0.5874 0.5795 0.5746
1662.000000 0.5725 0.5713 0.5706 0.5701 0.5695
1667.000000 0.5691 0.5689 0.5689 0.5689 0.5688
1672.000000 0.5688 0.5688 0.5689 0.5690 0.5691
1677.000000 0.5707 0.5695 0.5702 0.5710 0.5723
1682.000000 0.5741 0.5761 0.5785 0.5813 0.5853
1687.000000 0.5924 0.5983 0.6038 0.6088 0.6166
1692.000000 0.6332 0.6547 0.6739 0.6931 0.7122
1697.000000 0.7312 0.7503 0.7722 0.7872 0.7929
1702.000000 0.7985 0.8039 0.8087 0.8136 0.8184
1707.000000 0.8234 0.8287 0.8339 0.8391 0.8437
1712.000000 0.8483 0.8528 0.8578 0.8633 0.8690
1717.000000 0.8738 0.8766 0.8793 0.8816 0.8834
1722.000000 0.8849 0.8863 0.8878 0.8897 0.8919
1727.000000 0.8952 0.9006 0.9086 0.9120 0.9147
1732.000000 0.9163 0.9173 0.9181 0.9190 0.9199
1737.000000 0.9207 0.9215 0.9222 0.9230 0.9238
1742.000000 0.9246 0.9254 0.9261 0.9269 0.9277
1747.000000 0.9286 0.9296 0.9306 0.9317 0.9327
1752.000000 0.9337 0.9347 0.9357 0.9367 0.9375
1757.000000 0.9378 0.9381 0.9384 0.9388 0.9391
1762.000000 0.9393 0.9393 0.9394 0.9394 0.9395
1767.000000 0.9396 0.9396 0.9396 0.9397 0.9397
1772.000000 0.9397 0.9397 0.9397 0.9391 0.9397
1777.000000 0.9397 0.9397 0.9397 0.9397 0.9397
1782.000000 0.9397 0.9397 0.9396 0.9396 0.9396
1787.000000 0.9396 0.9396 0.9395 0.9395 0.9394
1792.000000 0.9394 0.9393 0.9393 0.9392 0.9391
1797.000000 0.9391 0.9390 0.9390 0.9389 0.9389
1802.000000 0.9388 0.9388 0.9387 0.9385 0.9380
1807.000000 0.9376 0.9372 0.9367 0.9364 0.9359
1812.000000 0.9355 0.9351 0.9347 0.9343 0.9338
1817.000000 0.9334 0.9330 0.9327 0.9324 0.9321
1822.000000 0.9318 0.9315 0.9312 0.9309 0.9306
1827.000000 0.9303 0.9300 0.9297 0.9295 0.9295
1832.000000 0.9295 0.9295 0.9295 0.9295 0.9295
1837.000000 0.9296 0.9296 0.9296 0.9296 0.9296
1842.000000 0.9296 0.9295 0.9294 0.9293 0.9291
1847.000000 0.9290 0.9288 0.9287 0.9285 0.9284
1852.000000 0.9282 0.9280 0.9278 0.9277 0.9275
1857.000000 0.9273 0.9269 0.9264 0.9260 0.9256
1862.000000 0.9252 0.9248 0.9244 0.9240 0.9236
1867.000000 0.9232 0.9228 0.9223 0.9215 0.9208
1872.000000 0.9201 0.9194 0.9187 0.9179 0.9172
1877.000000 0.9165 0.9158 0.9150 0.9143 0.9136
1882.000000 0.9130 0.9125 0.9118 0.9113 0.9107
1887.000000 0.9101 0.9095 0.9092 0.9091 0.9091
1892.000000 0.9091 0.9090 0.9090 0.9090 0.9089
1897.000000 0.9089 0.9092 0.9098 0.9104 0.9111
1902.000000 0.9117 0.9125 0.9133 0.9145 0.9154
1907.000000 0.9160 0.9164 0.9168 0.9170 0.9170
1912.000000 0.9169 0.9168 0.9168 0.9166 0.9165
1917.000000 0.9165 0.9162 0.9160 0.9157 0.9154
1922.000000 0.9151 0.9148 0.9145 0.9142 0.9140
1927.000000 0.9134 0.9129 0.9125 0.9119 0.9114
1932.000000 0.9108 0.9103 0.9098 0.9093 0.9088
1937.000000 0.9082 0.9076 0.9070 0.9065 0.9059
1942.000000 0.9053 0.9048 0.9042 0.9036 0.9030
1947.000000 0.9025 0.9019 0.9013 0.9006 0.9000
1952.000000 0.8994 0.8988 0.8982 0.8975 0.8970
1957.000000 0.8964 0.8958 0.8951 0.8945 0.8939
1962.000000 0.8933 0.8928 0.8924 0.8920 0.8916
1967.000000 0.8912 0.8908 0.8904 0.8900 0.8896
1972.000000 0.8892 0.8887 0.8884 0.8882 0.8882
1977.000000 0.8881 0.8879 0.8879 0.8878 0.8877
1982.000000 0.8876 0.8875 0.8875 0.8872 0.8869
1987.000000 0.8864 0.8859 0.8855 0.8850 0.8845
1992.000000 0.8841 0.8834 0.8827 0.8819 0.8812
1997.000000 0.8804 0.8797 0.8789 0.8782 0.8774
2002.000000 0.8766 0.8758 0.8749 0.8740 0.8730
2007.000000 0.8720 0.8710 0.8701 0.8691 0.8681
2012.000000 0.8671 0.8661 0.8652 0.8643 0.8634
2017.000000 0.8624 0.8615 0.8607 0.8598 0.8589
2022.000000 0.8580 0.8571 0.8562 0.8553 0.8545
2027.000000 0.8536 0.8527 0.8518 0.8510 0.8501
2032.000000 0.8493 0.8485 0.8477 0.8469 0.8460
2037.000000 0.8452 0.8444 0.8436 0.8427 0.8419
2042.000000 0.8411 0.8402 0.8394 0.8385 0.8376
2047.000000 0.8366 0.8357 0.8348 0.8339 0.8330
2052.000000 0.8321 0.8312 0.8304 0.8295 0.8286
2057.000000 0.8277 0.8268 0.8259 0.8250 0.8242
2062.000000 0.8233 0.8224 0.8215 0.8206 0.8198
2067.000000 0.8187 0.8176 0.8165 0.8153 0.8141
2072.000000 0.8129 0.8117 0.8106 0.8094 0.8082
2077.000000 0.8070 0.8058 0.8047 0.8035 0.8023
2082.000000 0.8012 0.8000 0.7987 0.7975 0.7963
2087.000000 0.7951 0.7938 0.7926 0.7914 0.7902
2092.000000 0.7890 0.7878 0.7865 0.7853 0.7841
2097.000000 0.7828 0.7816 0.7802 0.7787 0.7771
2102.000000 0.7754 0.7738 0.7722 0.7706 0.7690
2107.000000 0.7674 0.7659 0.7649 0.7640 0.7632
2112.000000 0.7624 0.7617 0.7610 0.7603 0.7597
2117.000000 0.7592 0.7587 0.7584 0.7584 0.7584
2122.000000 0.7585 0.7586 0.7586 0.7588 0.7589
2127.000000 0.7589 0.7590 0.7591 0.7579 0.7592
2132.000000 0.7593 0.7594 0.7598 0.7603 0.7608
2137.000000 0.7613 0.7617 0.7621 0.7625 0.7628
2142.000000 0.7632 0.7635 0.7638 0.7641 0.7645
2147.000000 0.7648 0.7651 0.7655 0.7659 0.7664
2152.000000 0.7669 0.7674 0.7679 0.7684 0.7688
2157.000000 0.7692 0.7697 0.7702 0.7707 0.7712
2162.000000 0.7717 0.7723 0.7730 0.7737 0.7744
2167.000000 0.7751 0.7758 0.7765 0.7772 0.7778
2172.000000 0.7785 0.7794 0.7802 0.7811 0.7820
2177.000000 0.7829 0.7837 0.7846 0.7855 0.7863
2182.000000 0.7870 0.7877 0.7884 0.7891 0.7894
2187.000000 0.7894 0.7894 0.7894 0.7894 0.7894
2192.000000 0.7894 0.7895 0.7895 0.7895 0.7895
2197.000000 0.7895 0.7895 0.7895 0.7895 0.7895
2202.000000 0.7895 0.7895 0.7895 0.7896 0.7896
2207.000000 0.7896 0.7896 0.7896 0.7896 0.7896
2212.000000 0.7896 0.7896 0.7896 0.7897 0.7897
2217.000000 0.7897 0.7897 0.7897 0.7897 0.7897
2222.000000 0.7897 0.7897 0.7897 0.7897 0.7897
2227.000000 0.7898 0.7898 0.7898 0.7898 0.7898
2232.000000 0.7898 0.7898 0.7898 0.7898 0.7898
2237.000000 0.7898 0.7898 0.7899 0.7899 0.7899
2242.000000 0.7899 0.7898 0.7898 0.7897 0.7896
2247.000000 0.7895 0.7894 0.7893 0.7892 0.7891
2252.000000 0.7890 0.7888 0.7887 0.7886 0.7885
2257.000000 0.7884 0.7883 0.7880 0.7877 0.7873
2262.000000 0.7868 0.7863 0.7857 0.7852 0.7846
2267.000000 0.7841 0.7836 0.7831 0.7826 0.7821
2272.000000 0.7815 0.7810 0.7803 0.7797 0.7790
2277.000000 0.7784 0.7776 0.7769 0.7762 0.7756
2282.000000 0.7748 0.7741 0.7735 0.7729 0.7724
2287.000000 0.7719 0.7714 0.7709 0.7705 0.7701
2292.000000 0.7696 0.7691 0.7686 0.7682 0.7678
2297.000000 0.7675 0.7673 0.7671 0.7669 0.7667
2302.000000 0.7665 0.7662 0.7660 0.7658 0.7656
2307.000000 0.7654 0.7651 0.7649 0.7648 0.7646
2312.000000 0.7644 0.7643 0.7643 0.7642 0.7642
2317.000000 0.7642 0.7642 0.7642 0.7642 0.7642
2322.000000 0.7642 0.7642 0.7642 0.7642 0.7641
2327.000000 0.7641 0.7641 0.7641 0.7641 0.7641
2332.000000 0.7641 0.7641 0.7641 0.7641 0.7641
2337.000000 0.7640 0.7640 0.7640 0.7640 0.7640
2342.000000 0.7640 0.7640 0.7640 0.7640 0.7640
2347.000000 0.7640 0.7640 0.7640 0.7640 0.7640
2352.000000 0.7640 0.7640 0.7640 0.7640 0.7640
2357.000000 0.7639 0.7639 0.7639 0.7639 0.7638
2362.000000 0.7638 0.7637 0.7637 0.7636 0.7635
2367.000000 0.7634 0.7633 0.7632 0.7631 0.7630
2372.000000 0.7628 0.7628 0.7627 0.7626 0.7625
2377.000000 0.7624 0.7623 0.7622 0.7621 0.7619
2382.000000 0.7619 0.7618 0.7617 0.7616 0.7615
2387.000000 0.7614 0.7613 0.7612 0.7611 0.7609
2392.000000 0.7607 0.7605 0.7604 0.7602 0.7600
2397.000000 0.7598 0.7597 0.7595 0.7593 0.7591
2402.000000 0.7590 0.7588 0.7586 0.7585 0.7583
2407.000000 0.7581 0.7579 0.7578 0.7576 0.7574
2412.000000 0.7572 0.7571 0.7569 0.7567 0.7565
2417.000000 0.7562 0.7559 0.7556 0.7553 0.7550
2422.000000 0.7546 0.7543 0.7540 0.7537 0.7534
2427.000000 0.7531 0.7528 0.7524 0.7521 0.7518
2432.000000 0.7515 0.7512 0.7509 0.7506 0.7503
2437.000000 0.7499 0.7496 0.7493 0.7489 0.7485
2442.000000 0.7481 0.7477 0.7473 0.7469 0.7465
2447.000000 0.7461 0.7457 0.7453 0.7449 0.7445
2452.000000 0.7442 0.7438 0.7434 0.7430 0.7426
2457.000000 0.7422 0.7418 0.7415 0.7411 0.7407
2462.000000 0.7403 0.7399 0.7395 0.7391 0.7388
2467.000000 0.7384 0.7380 0.7377 0.7373 0.7369
2472.000000 0.7365 0.7361 0.7357 0.7353 0.7350
2477.000000 0.7346 0.7342 0.7339 0.7335 0.7332
2482.000000 0.7330 0.7328 0.7325 0.7323 0.7321
2487.000000 0.7319 0.7316 0.7314 0.7312 0.7309
2492.000000 0.7307 0.7304 0.7302 0.7300 0.7298
2497.000000 0.7296 0.7293 0.7291 0.7289 0.7287
2502.000000 0.7285 0.7283 0.7281 0.7279 0.7277
2507.000000 0.7275 0.7273 0.7271 0.7270 0.7268
2512.000000 0.7266 0.7262 0.7257 0.7252 0.7245
2517.000000 0.7239 0.7232 0.7225 0.7218 0.7211
2522.000000 0.7203 0.7197 0.7190 0.7183 0.7176
2527.000000 0.7169 0.7162 0.7155 0.7148 0.7141
2532.000000 0.7135 0.7128 0.7121 0.7114 0.7107
2537.000000 0.7099 0.7092 0.7085 0.7077 0.7070
2542.000000 0.7063 0.7055 0.7048 0.7041 0.7033
2547.000000 0.7026 0.7019 0.7012 0.7005 0.6998
2552.000000 0.6990 0.6983 0.6976 0.6969 0.6961
2557.000000 0.6954 0.6947 0.6939 0.6933 0.6926
2562.000000 0.6919 0.6913 0.6906 0.6900 0.6894
2567.000000 0.6888 0.6881 0.6875 0.6868 0.6862
2572.000000 0.6856 0.6849 0.6843 0.6836 0.6830
2577.000000 0.6824 0.6818 0.6812 0.6805 0.6799
2582.000000 0.6793 0.6786 0.6780 0.6774 0.6768
2587.000000 0.6762 0.6755 0.6749 0.6743 0.6736
2592.000000 0.6730 0.6724 0.6718 0.6712 0.6706
2597.000000 0.6700 0.6693 0.6687 0.6681 0.6674
2602.000000 0.6668 0.6661 0.6655 0.6648 0.6641
2607.000000 0.6634 0.6627 0.6620 0.6614 0.6607
2612.000000 0.6600 0.6593 0.6587 0.6580 0.6573
2617.000000 0.6566 0.6559 0.6553 0.6546 0.6539
2622.000000 0.6532 0.6526 0.6519 0.6512 0.6506
2627.000000 0.6499 0.6492 0.6485 0.6479 0.6472
2632.000000 0.6466 0.6459 0.6452 0.6445 0.6439
2637.000000 0.6432 0.6426 0.6419 0.6412 0.6404
2642.000000 0.6397 0.6389 0.6381 0.6373 0.6366
2647.000000 0.6358 0.6350 0.6342 0.6334 0.6326
2652.000000 0.6319 0.6311 0.6304 0.6296 0.6288
2657.000000 0.6281 0.6273 0.6265 0.6257 0.6249
2662.000000 0.6242 0.6234 0.6227 0.6219 0.6212
2667.000000 0.6204 0.6196 0.6188 0.6181 0.6173
2672.000000 0.6165 0.6158 0.6150 0.6143 0.6135
2677.000000 0.6128 0.6121 0.6113 0.6106 0.6098
2682.000000 0.6091 0.6083 0.6076 0.6069 0.6061
2687.000000 0.6053 0.6046 0.6038 0.6031 0.6024
2692.000000 0.6016 0.6009 0.6001 0.5994 0.5987
2697.000000 0.5981 0.5977 0.5973 0.5970 0.5966
2702.000000 0.5962 0.5958 0.5955 0.5951 0.5947
2707.000000 0.5943 0.5940 0.5936 0.5932 0.5928
2712.000000 0.5925 0.5922 0.5919 0.5916 0.5913
2717.000000 0.5911 0.5908 0.5905 0.5902 0.5900
2722.000000 0.5897 0.5894 0.5890 0.5884 0.5878
2727.000000 0.5869 0.5859 0.5848 0.5838 0.5827
2732.000000 0.5817 0.5807 0.5796 0.5786 0.5775
2737.000000 0.5763 0.5751 0.5735 0.5718 0.5700
2742.000000 0.5683 0.5666 0.5650 0.5630 0.5610
2747.000000 0.5591 0.5570 0.5550 0.5529 0.5509
2752.000000 0.5488 0.5468 0.5448 0.5427 0.5407
2757.000000 0.5387 0.5366 0.5345 0.5325 0.5304
2762.000000 0.5283 0.5263 0.5242 0.5222 0.5201
2767.000000 0.5181 0.5161 0.5140 0.5118 0.5096
2772.000000 0.5071 0.5041 0.5010 0.4980 0.4950
2777.000000 0.4920 0.4890 0.4860 0.4830 0.4800
2782.000000 0.4775 0.4749 0.4724 0.4698 0.4673
2787.000000 0.4647 0.4622 0.4596 0.4571 0.4546
2792.000000 0.4520 0.4495 0.4457 0.4413 0.4370
2797.000000 0.4325 0.4278 0.4232 0.4154 0.4037
2802.000000 0.3920 0.3774 0.3564 0.3353 0.3143
2807.000000 0.2933 0.2723 0.2510 0.2042 0.1573
2812.000000 0.1105 0.1002 0.0962 0.0922 0.0893
2817.000000 0.0869 0.0844 0.0820 0.0795 0.0771
2822.000000 0.0743 0.0708 0.0673 0.0638 0.0600
2827.000000 0.0561 0.0523 0.0506 0.0490 0.0475
2832.000000 0.0463 0.0454 0.0444 0.0435 0.0425
2837.000000 0.0416 0.0409 0.0407 0.0405 0.0403
2842.000000 0.0401 0.0400 0.0398 0.0396 0.0393
2847.000000 0.0391 0.0389 0.0387 0.0384 0.0381
2852.000000 0.0379 0.0376 0.0373 0.0371 0.0368
2857.000000 0.0366 0.0363 0.0360 0.0358 0.0352
2862.000000 0.0344 0.0336 0.0328 0.0320 0.0312
2867.000000 0.0304 0.0298 0.0292 0.0285 0.0279
2872.000000 0.0273 0.0267 0.0261 0.0254 0.0248
2877.000000 0.0242 0.0238 0.0234 0.0229 0.0226
2882.000000 0.0223 0.0220 0.0217 0.0214 0.0210
2887.000000 0.0207 0.0204 0.0201 0.0198 0.0195
2892.000000 0.0191 0.0188 0.0186 0.0184 0.0182
2897.000000 0.0180 0.0179 0.0177 0.0176 0.0174
2902.000000 0.0173 0.0171 0.0171 0.0171 0.0171
2907.000000 0.0172 0.0172 0.0173 0.0173 0.0174
2912.000000 0.0174 0.0174 0.0175 0.0175 0.0176
2917.000000 0.0176 0.0177 0.0178 0.0178 0.0180
2922.000000 0.0182 0.0184 0.0187 0.0189 0.0191
2927.000000 0.0193 0.0196 0.0199 0.0203 0.0206
2932.000000 0.0211 0.0215 0.0219 0.0224 0.0229
2937.000000 0.0233 0.0238 0.0242 0.0247 0.0252
2942.000000 0.0263 0.0276 0.0289 0.0303 0.0318
2947.000000 0.0334 0.0349 0.0368 0.0388 0.0409
2952.000000 0.0429 0.0449 0.0469 0.0489 0.0564
2957.000000 0.0644 0.0724 0.0785 0.0819 0.0853
2962.000000 0.0887 0.0905 0.0922 0.0938 0.0955
2967.000000 0.0972 0.0989 0.1005 0.1042 0.1081
2972.000000 0.1120 0.1154 0.1179 0.1205 0.1230
2977.000000 0.1237 0.1240 0.1242 0.1245 0.1248
2982.000000 0.1251 0.1254 0.1255 0.1255 0.1255
2987.000000 0.1255 0.1255 0.1255 0.1255 0.1256
2992.000000 0.1256 0.1256 0.1256 0.1256 0.1256
2997.000000 0.1256 0.1255 0.1254 0.1252 0.1251
3002.000000 0.1249 0.1247 0.1244 0.1242 0.1240
3007.000000 0.1238 0.1235 0.1233 0.1231 0.1229
3012.000000 0.1227 0.1223 0.1218 0.1214 0.1209
3017.000000 0.1203 0.1197 0.1191 0.1184 0.1177
3022.000000 0.1170 0.1163 0.1156 0.1149 0.1142
3027.000000 0.1135 0.1127 0.1119 0.1112 0.1103
3032.000000 0.1093 0.1083 0.1073 0.1064 0.1054
3037.000000 0.1045 0.1035 0.1026 0.1016 0.1007
3042.000000 0.0998 0.0989 0.0981 0.0972 0.0963
3047.000000 0.0955 0.0946 0.0938 0.0929 0.0921
3052.000000 0.0913 0.0904 0.0896 0.0888 0.0879
3057.000000 0.0872 0.0864 0.0856 0.0848 0.0841
3062.000000 0.0833 0.0825 0.0817 0.0810 0.0803
3067.000000 0.0795 0.0788 0.0780 0.0772 0.0764
3072.000000 0.0757 0.0749 0.0741 0.0734 0.0727
3077.000000 0.0720 0.0714 0.0707 0.0702 0.0696
3082.000000 0.0691 0.0685 0.0679 0.0674 0.0668
3087.000000 0.0663 0.0658 0.0654 0.0650 0.0646
3092.000000 0.0643 0.0640 0.0637 0.0634 0.0631
3097.000000 0.0628 0.0625 0.0622 0.0619 0.0616
3102.000000 0.0613 0.0612 0.0610 0.0608 0.0607
3107.000000 0.0606 0.0604 0.0603 0.0602 0.0600
3112.000000 0.0599 0.0597 0.0595 0.0594 0.0592
3117.000000 0.0591 0.0590 0.0589 0.0588 0.0587
3122.000000 0.0587 0.0587 0.0587 0.0624 0.0588
3127.000000 0.0588 0.0588 0.0589 0.0589 0.0589
3132.000000 0.0589 0.0590 0.0590 0.0590 0.0590
3137.000000 0.0591 0.0591 0.0591 0.0591 0.0592
3142.000000 0.0592 0.0592 0.0592 0.0593 0.0593
3147.000000 0.0593 0.0593 0.0594 0.0594 0.0595
3152.000000 0.0595 0.0596 0.0597 0.0598 0.0599
3157.000000 0.0600 0.0601 0.0602 0.0603 0.0604
3162.000000 0.0605 0.0606 0.0607 0.0608 0.0609
3167.000000 0.0610 0.0611 0.0612 0.0613 0.0614
3172.000000 0.0615 0.0616 0.0617 0.0618 0.0620
3177.000000 0.0621 0.0622 0.0623 0.0625 0.0626
3182.000000 0.0627 0.0629 0.0630 0.0632 0.0633
3187.000000 0.0635 0.0636 0.0638 0.0639 0.0641
3192.000000 0.0642 0.0644 0.0645 0.0647 0.0648
3197.000000 0.0650 0.0651 0.0652 0.0653 0.0654
3202.000000 0.0658 0.0661 0.0665 0.0668 0.0672
3207.000000 0.0676 0.0680 0.0684 0.0690 0.0696
3212.000000 0.0703 0.0710 0.0718 0.0726 0.0734
3217.000000 0.0742 0.0750 0.0758 0.0766 0.0774
3222.000000 0.0783 0.0792 0.0800 0.0809 0.0818
3227.000000 0.0827 0.0837 0.0846 0.0855 0.0866
3232.000000 0.0878 0.0889 0.0901 0.0912 0.0924
3237.000000 0.0935 0.0947 0.0960 0.0974 0.0988
3242.000000 0.1003 0.1017 0.1033 0.1048 0.1063
3247.000000 0.1078 0.1093 0.1109 0.1124 0.1139
3252.000000 0.1150 0.1161 0.1172 0.1183 0.1194
3257.000000 0.1205 0.1216 0.1227 0.1241 0.1257
3262.000000 0.1273 0.1290 0.1306 0.1323 0.1339
3267.000000 0.1356 0.1372 0.1388 0.1404 0.1420
3272.000000 0.1436 0.1453 0.1469 0.1485 0.1502
3277.000000 0.1518 0.1534 0.1551 0.1567 0.1583
3282.000000 0.1599 0.1616 0.1632 0.1648 0.1664
3287.000000 0.1680 0.1696 0.1712 0.1728 0.1744
3292.000000 0.1760 0.1776 0.1793 0.1809 0.1825
3297.000000 0.1841 0.1857 0.1873 0.1889 0.1905
3302.000000 0.1920 0.1936 0.1952 0.1968 0.1984
3307.000000 0.2001 0.2023 0.2044 0.2065 0.2087
3312.000000 0.2106 0.2124 0.2142 0.2161 0.2175
3317.000000 0.2182 0.2189 0.2195 0.2202 0.2207
3322.000000 0.2213 0.2218 0.2223 0.2226 0.2226
3327.000000 0.2227 0.2227 0.2228 0.2228 0.2228
3332.000000 0.2229 0.2229 0.2230 0.2230 0.2231
3337.000000 0.2231 0.2232 0.2232 0.2232 0.2233
3342.000000 0.2233 0.2234 0.2235 0.2235 0.2236
3347.000000 0.2236 0.2235 0.2234 0.2234 0.2233
3352.000000 0.2232 0.2231 0.2229 0.2228 0.2227
3357.000000 0.2226 0.2224 0.2223 0.2222 0.2248
3362.000000 0.2220 0.2218 0.2217 0.2216 0.2213
3367.000000 0.2211 0.2208 0.2205 0.2202 0.2199
3372.000000 0.2196 0.2193 0.2190 0.2187 0.2183
3377.000000 0.2180 0.2177 0.2172 0.2167 0.2162
3382.000000 0.2156 0.2151 0.2145 0.2139 0.2134
3387.000000 0.2128 0.2122 0.2116 0.2110 0.2104
3392.000000 0.2098 0.2092 0.2086 0.2079 0.2073
3397.000000 0.2067 0.2061 0.2055 0.2049 0.2043
3402.000000 0.2036 0.2030 0.2024 0.2018 0.2011
3407.000000 0.2001 0.1991 0.1981 0.1971 0.1960
3412.000000 0.1947 0.1934 0.1921 0.1907 0.1894
3417.000000 0.1881 0.1867 0.1854 0.1840 0.1823
3422.000000 0.1806 0.1789 0.1773 0.1756 0.1739
3427.000000 0.1722 0.1705 0.1688 0.1674 0.1662
3432.000000 0.1649 0.1637 0.1624 0.1615 0.1605
3437.000000 0.1596 0.1587 0.1578 0.1570 0.1562
3442.000000 0.1554 0.1546 0.1541 0.1539 0.1537
3447.000000 0.1536 0.1534 0.1532 0.1531 0.1529
3452.000000 0.1527 0.1526 0.1527 0.1528 0.1529
3457.000000 0.1530 0.1551 0.1533 0.1534 0.1535
3462.000000 0.1537 0.1538 0.1540 0.1541 0.1542
3467.000000 0.1544 0.1546 0.1549 0.1552 0.1554
3472.000000 0.1557 0.1565 0.1576 0.1586 0.1596
3477.000000 0.1606 0.1616 0.1626 0.1636 0.1646
3482.000000 0.1656 0.1668 0.1680 0.1692 0.1704
3487.000000 0.1717 0.1735 0.1753 0.1771 0.1788
3492.000000 0.1808 0.1830 0.1852 0.1874 0.1896
3497.000000 0.1919 0.1941 0.1964 0.1986 0.2009
3502.000000 0.2045 0.2091 0.2138 0.2184 0.2230
3507.000000 0.2294 0.2366 0.2438 0.2510 0.2582
3512.000000 0.2653 0.2725 0.2796 0.2868 0.2939
3517.000000 0.3011 0.3082 0.3153 0.3225 0.3296
3522.000000 0.3368 0.3439 0.3510 0.3581 0.3652
3527.000000 0.3723 0.3794 0.3865 0.3935 0.4006
3532.000000 0.4077 0.4148 0.4219 0.4290 0.4361
3537.000000 0.4431 0.4502 0.4572 0.4643 0.4713
3542.000000 0.4784 0.4854 0.4925 0.4995 0.5066
3547.000000 0.5136 0.5206 0.5276 0.5346 0.5416
3552.000000 0.5486 0.5556 0.5626 0.5696 0.5766
3557.000000 0.5836 0.5906 0.5975 0.6045 0.6115
3562.000000 0.6184 0.6254 0.6323 0.6393 0.6462
3567.000000 0.6532 0.6601 0.6671 0.6740 0.6810
3572.000000 0.6879 0.6948 0.7017 0.7086 0.7155
3577.000000 0.7224 0.7294 0.7363 0.7432 0.7501
3582.000000 0.7572 0.7648 0.7723 0.7799 0.7874
3587.000000 0.7938 0.7954 0.7970 0.7986 0.8002
3592.000000 0.8018 0.8030 0.8043 0.8055 0.8068
3597.000000 0.8080 0.8090 0.8101 0.8111 0.8121
3602.000000 0.8131 0.8142 0.8152 0.8162 0.8173
3607.000000 0.8183 0.8194 0.8206 0.8218 0.8229
3612.000000 0.8241 0.8253 0.8266 0.8279 0.8292
3617.000000 0.8305 0.8318 0.8331 0.8344 0.8357
3622.000000 0.8369 0.8382 0.8400 0.8420 0.8440
3627.000000 0.8459 0.8479 0.8491 0.8496 0.8502
3632.000000 0.8507 0.8513 0.8518 0.8523 0.8529
3637.000000 0.8534 0.8539 0.8544 0.8547 0.8551
3642.000000 0.8554 0.8557 0.8560 0.8580 0.8565
3647.000000 0.8567 0.8570 0.8572 0.8574 0.8574
3652.000000 0.8575 0.8575 0.8576 0.8577 0.8577
3657.000000 0.8578 0.8579 0.8580 0.8580 0.8580
3662.000000 0.8579 0.8578 0.8576 0.8575 0.8574
3667.000000 0.8573 0.8571 0.8570 0.8569 0.8568
3672.000000 0.8566 0.8565 0.8564 0.8562 0.8561
3677.000000 0.8560 0.8559 0.8557 0.8556 0.8555
3682.000000 0.8553 0.8552 0.8550 0.8549 0.8547
3687.000000 0.8546 0.8544 0.8542 0.8541 0.8539
3692.000000 0.8537 0.8535 0.8532 0.8529 0.8527
3697.000000 0.8524 0.8521 0.8519 0.8516 0.8513
3702.000000 0.8511 0.8508 0.8506 0.8503 0.8501
3707.000000 0.8499 0.8496 0.8494 0.8492 0.8489
3712.000000 0.8487 0.8485 0.8482 0.8480 0.8477
3717.000000 0.8475 0.8473 0.8470 0.8468 0.8464
3722.000000 0.8461 0.8457 0.8453 0.8449 0.8444
3727.000000 0.8440 0.8435 0.8430 0.8426 0.8421
3732.000000 0.8416 0.8412 0.8407 0.8402 0.8398
3737.000000 0.8393 0.8389 0.8385 0.8381 0.8377
3742.000000 0.8373 0.8368 0.8364 0.8360 0.8356
3747.000000 0.8351 0.8347 0.8343 0.8339 0.8335
3752.000000 0.8331 0.8327 0.8323 0.8319 0.8315
3757.000000 0.8311 0.8308 0.8304 0.8301 0.8297
3762.000000 0.8294 0.8291 0.8288 0.8285 0.8282
3767.000000 0.8278 0.8275 0.8272 0.8269 0.8266
3772.000000 0.8263 0.8259 0.8256 0.8253 0.8250
3777.000000 0.8247 0.8243 0.8240 0.8237 0.8233
3782.000000 0.8230 0.8227 0.8224 0.8221 0.8217
3787.000000 0.8214 0.8211 0.8208 0.8205 0.8202
3792.000000 0.8199 0.8195 0.8192 0.8189 0.8186
3797.000000 0.8182 0.8179 0.8176 0.8173 0.8169
3802.000000 0.8166 0.8163 0.8160 0.8157 0.8154
3807.000000 0.8151 0.8147 0.8144 0.8141 0.8137
3812.000000 0.8134 0.8131 0.8128 0.8124 0.8121
3817.000000 0.8118 0.8115 0.8111 0.8108 0.8105
3822.000000 0.8102 0.8098 0.8095 0.8092 0.8089
3827.000000 0.8086 0.8083 0.8080 0.8077 0.8073
3832.000000 0.8070 0.8067 0.8064 0.8060 0.8056
3837.000000 0.8052 0.8048 0.8044 0.8040 0.8037
3842.000000 0.8033 0.8029 0.8025 0.8021 0.8017
3847.000000 0.8013 0.8009 0.8005 0.8001 0.7997
3852.000000 0.7993 0.7989 0.7985 0.7981 0.7977
3857.000000 0.7973 0.7970 0.7966 0.7963 0.7959
3862.000000 0.7955 0.7952 0.7948 0.7945 0.7942
3867.000000 0.7939 0.7936 0.7933 0.7929 0.7926
3872.000000 0.7923 0.7920 0.7917 0.7914 0.7910
3877.000000 0.7907 0.7904 0.7901 0.7898 0.7895
3882.000000 0.7891 0.7888 0.7885 0.7882 0.7879
3887.000000 0.7876 0.7873 0.7869 0.7866 0.7863
3892.000000 0.7860 0.7857 0.7854 0.7851 0.7848
3897.000000 0.7845 0.7842 0.7839 0.7836 0.7833
3902.000000 0.7830 0.7827 0.7824 0.7820 0.7817
3907.000000 0.7814 0.7811 0.7808 0.7805 0.7802
3912.000000 0.7799 0.7796 0.7792 0.7789 0.7786
3917.000000 0.7783 0.7780 0.7777 0.7774 0.7770
3922.000000 0.7767 0.7764 0.7761 0.7757 0.7754
3927.000000 0.7751 0.7748 0.7744 0.7741 0.7738
3932.000000 0.7735 0.7731 0.7728 0.7725 0.7722
3937.000000 0.7719 0.7715 0.7712 0.7709 0.7706
3942.000000 0.7702 0.7699 0.7696 0.7693 0.7690
3947.000000 0.7686 0.7683 0.7680 0.7677 0.7674
3952.000000 0.7670 0.7667 0.7664 0.7661 0.7658
3957.000000 0.7654 0.7651 0.7648 0.7645 0.7642
3962.000000 0.7638 0.7635 0.7632 0.7629 0.7626
3967.000000 0.7622 0.7619 0.7616 0.7613 0.7610
3972.000000 0.7607 0.7604 0.7601 0.7598 0.7595
3977.000000 0.7592 0.7589 0.7585 0.7582 0.7579
3982.000000 0.7576 0.7573 0.7570 0.7567 0.7563
3987.000000 0.7560 0.7557 0.7554 0.7551 0.7548
3992.000000 0.7545 0.7542 0.7539 0.7536 0.7533
3997.000000 0.7530 0.7527 0.7524 0.7522
##END=
