##TITLE=HYPOXANTHINE, 7-(2-HYDROXYETHYL)-, p-TOLUENESULFONATE
##JCAMP-DX=4.24
##DATA TYPE=INFRARED SPECTRUM
##CLASS=COBLENTZ III
##ORIGIN=SOUTHERN RESEARCH INST.
##OWNER=COBLENTZ SOCIETY
Collection (C) 2018 copyright by the U.S. Secretary of Commerce
on behalf of the United States of America. All rights reserved.
##DATE=1964/10/16
##NAMES=2-(6-oxo-1,6-dihydro-7H-purin-7-yl)ethyl 4-methylbenzenesulfonate
##MOLFORM=C14 H14 N4 O4 S
##SOURCE REFERENCE=COBLENTZ NO. 9925
##$NIST ID=B6009925
##$NIST SOURCE=COBLENTZ
##$NIST IMAGE=cob9925
##SPECTROMETER/DATA SYSTEM=PERKIN-ELMER 221 (GRATING)
##INSTRUMENT PARAMETERS=FILTER CHANGES AT 2490, 980 CM^-^1, GRATING FOR 4000-1428 CM^-^1, NaCl PRISM FOR 1428-650 CM^-^1
##STATE=SOLID (1 mg / 650 mg KBr DISC)
##PATH LENGTH=
$$ PURITY - ANALYTICAL
$$ SPECTRAL CONTAMINATION DUE TO H2O AROUND 3420 CM^-^1
##SAMPLING PROCEDURE=TRANSMISSION
##RESOLUTION=4
##DATA PROCESSING=DIGITIZED BY NIST FROM HARD COPY
##XUNITS=1/CM
##YUNITS=TRANSMITTANCE
##XFACTOR=1.000000
##YFACTOR=1
##DELTAX=001.603096
##FIRSTX=599.005
##LASTX=4005.59
##FIRSTY=0.821
##MAXX=4005.59
##MINX=599.005
##MAXY=0.947
##MINY=0.025
##NPOINTS=2126
##XYDATA=(X++(Y..Y))
599.005000 0.8210 0.8190 0.8210 0.8190 0.8180
607.024252 0.8160 0.8150 0.8110 0.8070 0.8040
615.036000 0.7960 0.7730 0.7540 0.7350 0.6610
623.055252 0.6610 0.7400 0.7620 0.7750 0.7880
631.067000 0.8110 0.8330 0.8680 0.8850 0.8850
639.086252 0.8740 0.8630 0.8400 0.8150 0.7910
647.098000 0.7560 0.7490 0.6620 0.4080 0.2310
655.117252 0.2310 0.2660 0.4670 0.5520 0.6370
663.129000 0.6450 0.6430 0.6150 0.5850 0.5840
671.148252 0.5570 0.5570 0.6610 0.6920 0.7650
679.160000 0.8110 0.8420 0.8650 0.8900 0.9250
687.179252 0.9460 0.9460 0.9390 0.9350 0.9160
695.191000 0.8990 0.8820 0.8800 0.8820 0.8890
703.210252 0.9060 0.9180 0.9250 0.9290 0.9320
711.222000 0.9350 0.9410 0.9440 0.9470 0.9440
719.241252 0.9390 0.9280 0.9190 0.9100 0.9010
727.253000 0.8920 0.8800 0.8640 0.8440 0.7680
735.272252 0.7660 0.7660 0.8580 0.8570 0.8570
743.284000 0.8560 0.8490 0.8390 0.8210 0.8030
751.303252 0.7990 0.7890 0.7800 0.7460 0.7190
759.315000 0.6930 0.4200 0.3360 0.2530 0.2530
767.334252 0.3000 0.3470 0.3930 0.4220 0.5030
775.346000 0.5540 0.6050 0.6570 0.6850 0.6860
783.365252 0.7090 0.7310 0.7540 0.7750 0.7950
791.376000 0.7960 0.7960 0.7720 0.7470 0.7220
799.395252 0.6970 0.6140 0.5060 0.5040 0.4520
807.407000 0.4520 0.5110 0.5700 0.5710 0.5990
815.426252 0.6260 0.6530 0.6800 0.7080 0.8420
823.438000 0.8430 0.8910 0.8940 0.8940 0.8950
831.457252 0.8950 0.8940 0.8930 0.8900 0.8860
839.469000 0.8810 0.8730 0.8660 0.8500 0.8450
847.488252 0.8390 0.8290 0.8150 0.7890 0.7620
855.500000 0.7600 0.5390 0.4280 0.4260 0.4270
863.519252 0.4400 0.4910 0.5240 0.5580 0.5910
871.531000 0.6180 0.6720 0.7560 0.7560 0.7320
879.550252 0.6760 0.6520 0.6330 0.4910 0.4490
887.562000 0.4480 0.4980 0.5470 0.4640 0.3820
895.581252 0.3000 0.2090 0.1400 0.1370 0.1360
903.593000 0.1370 0.1660 0.1880 0.2690 0.3390
911.612252 0.3980 0.4500 0.4970 0.5400 0.5620
919.624000 0.5830 0.6260 0.6730 0.8130 0.8370
927.643252 0.8500 0.8620 0.8640 0.8680 0.8700
935.655000 0.8690 0.8660 0.8620 0.8570 0.8520
943.674252 0.8330 0.8170 0.8120 0.8190 0.8260
951.686000 0.8330 0.8410 0.8470 0.8450 0.8380
959.705252 0.8310 0.8250 0.8180 0.8120 0.8060
967.717000 0.8000 0.7930 0.7860 0.7800 0.7730
975.736252 0.7670 0.7610 0.7540 0.7480 0.7420
983.748000 0.7320 0.7240 0.7050 0.6940 0.6630
991.767252 0.5310 0.3260 0.3250 0.3260 0.3530
999.779000 0.3790 0.4910 0.5660 0.6410 0.6980
1007.798252 0.7520 0.7510 0.7120 0.6860 0.6760
1015.810000 0.6760 0.6990 0.7750 0.7880 0.8030
1023.829252 0.8120 0.8200 0.8150 0.8130 0.8100
1031.841000 0.8130 0.8170 0.8220 0.8290 0.8360
1039.860252 0.8430 0.8500 0.8560 0.8560 0.8560
1047.872000 0.8560 0.8560 0.8550 0.8540 0.8530
1055.891252 0.8490 0.8420 0.8350 0.8170 0.7920
1063.903000 0.7630 0.7340 0.7080 0.6870 0.6860
1071.922252 0.6860 0.6850 0.6840 0.6840 0.6830
1079.934000 0.6510 0.6330 0.6320 0.6310 0.6290
1087.953252 0.6250 0.6140 0.5880 0.5350 0.5340
1095.965000 0.5350 0.6180 0.7010 0.7470 0.7840
1103.984252 0.7880 0.7940 0.8000 0.8070 0.8110
1111.996000 0.8130 0.8170 0.8180 0.8190 0.8200
1120.015252 0.8210 0.8200 0.8180 0.8180 0.8180
1128.026000 0.8140 0.8090 0.8000 0.7980 0.7970
1136.045252 0.7900 0.7770 0.7660 0.7510 0.7310
1144.057000 0.7000 0.6540 0.5890 0.5220 0.4870
1152.076252 0.4520 0.4110 0.3780 0.3470 0.3140
1160.089000 0.2490 0.1770 0.1160 0.1160 0.1160
1168.108252 0.1290 0.2260 0.2800 0.3310 0.3810
1176.119000 0.4080 0.4350 0.4490 0.4710 0.4900
1184.138252 0.5090 0.5280 0.5430 0.5570 0.5750
1192.150000 0.6670 0.7710 0.7710 0.7720 0.7720
1200.169252 0.7240 0.6370 0.6120 0.5350 0.4730
1208.181000 0.4530 0.4310 0.4100 0.3880 0.3660
1216.200252 0.3440 0.3440 0.3770 0.4090 0.4420
1224.212000 0.4730 0.5350 0.5730 0.6110 0.6820
1232.231252 0.7470 0.8000 0.8390 0.8600 0.8640
1240.243000 0.8690 0.8750 0.8760 0.8770 0.8760
1248.262252 0.8750 0.8730 0.8710 0.8480 0.7820
1256.274000 0.7210 0.7200 0.7200 0.7360 0.7530
1264.293252 0.7690 0.7850 0.8170 0.8170 0.8170
1272.305000 0.8150 0.8140 0.8100 0.7690 0.7100
1280.324252 0.6540 0.6520 0.6530 0.6660 0.6770
1288.336000 0.6980 0.7190 0.7410 0.7580 0.7580
1296.355252 0.7560 0.7540 0.7160 0.7140 0.7160
1304.367000 0.7320 0.7470 0.7520 0.7560 0.7580
1312.386252 0.7580 0.7560 0.7540 0.7430 0.7290
1320.398000 0.6310 0.5000 0.4510 0.4010 0.3430
1328.417252 0.2680 0.2010 0.1480 0.1470 0.1470
1336.429000 0.1580 0.1670 0.1770 0.2710 0.3050
1344.448252 0.3270 0.3570 0.3940 0.4370 0.4810
1352.460000 0.5250 0.5470 0.5670 0.6040 0.6330
1360.479252 0.6530 0.6600 0.6800 0.6840 0.6880
1368.491000 0.6880 0.6890 0.6890 0.6880 0.6860
1376.510252 0.6830 0.6820 0.6720 0.6370 0.5450
1384.522000 0.3370 0.3370 0.3630 0.4940 0.5340
1392.541252 0.5560 0.5770 0.6380 0.7280 0.7300
1400.553000 0.7300 0.6920 0.6000 0.5740 0.5470
1408.572252 0.5410 0.5360 0.5310 0.5210 0.5210
1416.584000 0.5200 0.4680 0.4520 0.3820 0.3810
1424.603252 0.3810 0.4090 0.4100 0.4080 0.3930
1432.615000 0.3740 0.3600 0.3580 0.3590 0.4770
1440.634252 0.5950 0.6000 0.5130 0.5130 0.5320
1448.646000 0.5500 0.5860 0.6140 0.6310 0.6650
1456.665252 0.6950 0.6950 0.6880 0.6590 0.6290
1464.677000 0.6270 0.6290 0.6570 0.6860 0.7200
1472.696252 0.7660 0.7920 0.7950 0.8070 0.8220
1480.708000 0.8350 0.8780 0.8800 0.8790 0.8780
1488.727252 0.8370 0.8120 0.7880 0.7630 0.7380
1496.739000 0.7360 0.7380 0.7870 0.8350 0.8590
1504.758252 0.8580 0.8560 0.8420 0.8060 0.7930
1512.770000 0.7700 0.7370 0.6980 0.6750 0.6510
1520.789252 0.6260 0.6030 0.5790 0.5790 0.6350
1528.800000 0.6610 0.6980 0.7390 0.7810 0.8180
1536.819252 0.8460 0.8600 0.8740 0.8810 0.8820
1544.831000 0.8830 0.8830 0.8820 0.8820 0.8810
1552.850252 0.8800 0.8790 0.8760 0.8730 0.8710
1560.862000 0.8680 0.8560 0.8450 0.8350 0.8120
1568.881252 0.7940 0.7760 0.7580 0.7400 0.7230
1576.893000 0.7050 0.6870 0.6690 0.6520 0.6360
1584.912252 0.6010 0.2910 0.2900 0.2910 0.3360
1592.924000 0.3810 0.4030 0.4540 0.5230 0.5620
1600.943252 0.6000 0.6750 0.7370 0.7750 0.7790
1608.955000 0.8130 0.8240 0.8240 0.8230 0.8220
1616.974252 0.8220 0.8180 0.8160 0.8150 0.8050
1624.986000 0.7960 0.7870 0.7770 0.7670 0.7540
1633.005252 0.7530 0.7530 0.7530 0.7530 0.7520
1641.017000 0.7520 0.7520 0.7500 0.7470 0.7450
1649.036252 0.7430 0.7380 0.7350 0.7300 0.7090
1657.048000 0.6880 0.6690 0.6520 0.6330 0.6160
1665.067252 0.5970 0.5770 0.5310 0.5040 0.4730
1673.079000 0.4380 0.3990 0.3540 0.3040 0.2470
1681.098252 0.2130 0.1800 0.0920 0.0710 0.0490
1689.110000 0.0270 0.0260 0.0250 0.0250 0.0260
1697.129252 0.0670 0.0870 0.1070 0.1280 0.1440
1705.141000 0.1980 0.2490 0.2990 0.3470 0.3940
1713.160252 0.4390 0.4830 0.5250 0.5460 0.5660
1721.172000 0.6060 0.6450 0.6830 0.7190 0.7540
1729.191252 0.7580 0.7590 0.7600 0.7760 0.7920
1737.203000 0.8070 0.8410 0.8500 0.8600 0.8690
1745.222252 0.8790 0.8880 0.8970 0.8970 0.8960
1753.234000 0.8950 0.8940 0.8940 0.8930 0.8920
1761.253252 0.8900 0.8890 0.8870 0.8850 0.8830
1769.265000 0.8790 0.8660 0.8610 0.8600 0.8590
1777.284252 0.8600 0.8650 0.8710 0.8770 0.8830
1785.296000 0.8860 0.8970 0.8980 0.8970 0.8960
1793.315252 0.8930 0.8890 0.8890 0.8900 0.8900
1801.327000 0.8940 0.8940 0.8980 0.9010 0.9050
1809.346252 0.9060 0.9090 0.9090 0.9110 0.9120
1817.358000 0.9130 0.9130 0.9130 0.9130 0.9130
1825.377252 0.9130 0.9140 0.9150 0.9150 0.9160
1833.389000 0.9180 0.9200 0.9210 0.9230 0.9240
1841.408252 0.9250 0.9260 0.9280 0.9280 0.9280
1849.420000 0.9280 0.9280 0.9290 0.9290 0.9290
1857.439252 0.9290 0.9290 0.9280 0.9280 0.9280
1865.451000 0.9270 0.9270 0.9260 0.9260 0.9240
1873.470252 0.9240 0.9230 0.9220 0.9200 0.9190
1881.481000 0.9130 0.9080 0.9040 0.9040 0.9020
1889.500252 0.9020 0.9010 0.9010 0.9010 0.9010
1897.512000 0.9010 0.9000 0.9000 0.9000 0.9000
1905.531252 0.9010 0.9040 0.9070 0.9120 0.9130
1913.543000 0.9200 0.9200 0.9210 0.9220 0.9240
1921.562252 0.9240 0.9240 0.9260 0.9270 0.9280
1929.574000 0.9290 0.9290 0.9290 0.9300 0.9300
1937.593252 0.9310 0.9310 0.9310 0.9310 0.9310
1945.605000 0.9310 0.9310 0.9310 0.9310 0.9310
1953.624252 0.9310 0.9310 0.9310 0.9310 0.9310
1961.636000 0.9310 0.9310 0.9310 0.9310 0.9320
1969.655252 0.9320 0.9320 0.9320 0.9320 0.9320
1977.667000 0.9320 0.9320 0.9320 0.9320 0.9320
1985.686252 0.9320 0.9320 0.9320 0.9320 0.9320
1993.698000 0.9320 0.9320 0.9320 0.9320 0.9320
2001.717252 0.9320 0.9320 0.9310 0.9310 0.9310
2009.729000 0.9310 0.9310 0.9310 0.9310 0.9310
2017.748252 0.9310 0.9300 0.9300 0.9300 0.9290
2025.760000 0.9290 0.9290 0.9290 0.9290 0.9290
2033.779252 0.9280 0.9280 0.9280 0.9280 0.9280
2041.791000 0.9270 0.9270 0.9260 0.9260 0.9260
2049.810252 0.9260 0.9250 0.9250 0.9250 0.9250
2057.822000 0.9240 0.9240 0.9240 0.9240 0.9240
2065.841252 0.9230 0.9230 0.9220 0.9220 0.9210
2073.853000 0.9210 0.9200 0.9200 0.9200 0.9200
2081.872252 0.9190 0.9190 0.9180 0.9170 0.9170
2089.884000 0.9160 0.9160 0.9160 0.9160 0.9160
2097.903252 0.9150 0.9150 0.9150 0.9140 0.9140
2105.915000 0.9130 0.9130 0.9130 0.9120 0.9110
2113.934252 0.9110 0.9100 0.9100 0.9100 0.9100
2121.946000 0.9100 0.9100 0.9100 0.9100 0.9100
2129.965252 0.9100 0.9100 0.9100 0.9090 0.9090
2137.977000 0.9090 0.9090 0.9090 0.9090 0.9090
2145.996252 0.9090 0.9090 0.9090 0.9090 0.9090
2154.008000 0.9090 0.9090 0.9090 0.9090 0.9090
2162.027252 0.9090 0.9090 0.9080 0.9080 0.9080
2170.039000 0.9080 0.9080 0.9080 0.9080 0.9070
2178.058252 0.9070 0.9070 0.9070 0.9070 0.9070
2186.070000 0.9060 0.9060 0.9060 0.9060 0.9050
2194.089252 0.9050 0.9050 0.9050 0.9050 0.9050
2202.101000 0.9050 0.9050 0.9040 0.9040 0.9040
2210.120252 0.9040 0.9030 0.9030 0.9030 0.9030
2218.132000 0.9030 0.9030 0.9020 0.9020 0.9010
2226.151252 0.9010 0.9000 0.8990 0.8980 0.8980
2234.163000 0.8950 0.8940 0.8910 0.8900 0.8880
2242.182252 0.8870 0.8860 0.8860 0.8860 0.8850
2250.194000 0.8840 0.8830 0.8830 0.8830 0.8820
2258.213252 0.8820 0.8810 0.8800 0.8800 0.8800
2266.224000 0.8790 0.8790 0.8790 0.8790 0.8790
2274.243252 0.8790 0.8790 0.8790 0.8790 0.8790
2282.255000 0.8790 0.8790 0.8790 0.8780 0.8780
2290.274252 0.8770 0.8770 0.8770 0.8770 0.8760
2298.286000 0.8760 0.8760 0.8750 0.8750 0.8750
2306.305252 0.8750 0.8750 0.8750 0.8740 0.8730
2314.317000 0.8720 0.8710 0.8710 0.8700 0.8690
2322.336252 0.8680 0.8680 0.8670 0.8670 0.8660
2330.348000 0.8660 0.8650 0.8640 0.8640 0.8630
2338.367252 0.8630 0.8620 0.8610 0.8600 0.8590
2346.379000 0.8570 0.8560 0.8530 0.8520 0.8520
2354.398252 0.8520 0.8520 0.8520 0.8520 0.8520
2362.410000 0.8520 0.8520 0.8520 0.8520 0.8520
2370.429252 0.8520 0.8520 0.8520 0.8520 0.8520
2378.441000 0.8520 0.8520 0.8510 0.8510 0.8500
2386.460252 0.8500 0.8500 0.8490 0.8490 0.8490
2394.472000 0.8490 0.8480 0.8480 0.8470 0.8460
2402.491252 0.8450 0.8430 0.8420 0.8410 0.8400
2410.503000 0.8390 0.8380 0.8370 0.8370 0.8370
2418.522252 0.8360 0.8350 0.8330 0.8320 0.8300
2426.534000 0.8300 0.8280 0.8260 0.8260 0.8250
2434.553252 0.8250 0.8230 0.8220 0.8220 0.8210
2442.565000 0.8200 0.8200 0.8190 0.8190 0.8180
2450.584252 0.8180 0.8180 0.8180 0.8170 0.8170
2458.596000 0.8160 0.8140 0.8110 0.8090 0.8080
2466.615252 0.8070 0.8070 0.8060 0.8050 0.8040
2474.627000 0.8030 0.8030 0.8020 0.8010 0.8000
2482.646252 0.8000 0.7990 0.7980 0.7960 0.7950
2490.658000 0.7930 0.7920 0.7910 0.7900 0.7880
2498.677252 0.7870 0.7860 0.7840 0.7840 0.7820
2506.689000 0.7810 0.7800 0.7780 0.7780 0.7770
2514.708252 0.7770 0.7750 0.7730 0.7710 0.7690
2522.720000 0.7670 0.7650 0.7620 0.7600 0.7580
2530.739252 0.7550 0.7530 0.7500 0.7490 0.7470
2538.751000 0.7460 0.7440 0.7430 0.7410 0.7390
2546.770252 0.7390 0.7380 0.7360 0.7350 0.7350
2554.782000 0.7340 0.7330 0.7320 0.7310 0.7300
2562.801252 0.7280 0.7270 0.7270 0.7260 0.7250
2570.813000 0.7240 0.7230 0.7220 0.7210 0.7200
2578.832252 0.7200 0.7160 0.7100 0.7050 0.7010
2586.844000 0.6940 0.6940 0.6910 0.6890 0.6850
2594.863252 0.6820 0.6770 0.6730 0.6690 0.6640
2602.875000 0.6600 0.6570 0.6550 0.6520 0.6510
2610.894252 0.6500 0.6460 0.6390 0.6370 0.6330
2618.906000 0.6300 0.6290 0.6300 0.6370 0.6450
2626.925252 0.6520 0.6580 0.6620 0.6660 0.6690
2634.937000 0.6710 0.6730 0.6750 0.6750 0.6750
2642.956252 0.6720 0.6700 0.6670 0.6630 0.6600
2650.967000 0.6560 0.6520 0.6480 0.6440 0.6400
2658.986252 0.6370 0.6330 0.6300 0.6280 0.6260
2666.998000 0.6240 0.6220 0.6170 0.6160 0.6170
2675.017252 0.6230 0.6260 0.6290 0.6320 0.6330
2683.029000 0.6330 0.6330 0.6330 0.6330 0.6330
2691.048252 0.6310 0.6300 0.6280 0.6260 0.6240
2699.060000 0.6220 0.6190 0.6160 0.6130 0.6100
2707.079252 0.6070 0.6030 0.6000 0.5960 0.5930
2715.091000 0.5890 0.5860 0.5830 0.5800 0.5770
2723.110252 0.5730 0.5700 0.5680 0.5660 0.5630
2731.122000 0.5620 0.5600 0.5580 0.5580 0.5580
2739.141252 0.5570 0.5570 0.5570 0.5570 0.5570
2747.153000 0.5570 0.5560 0.5560 0.5560 0.5550
2755.172252 0.5540 0.5530 0.5450 0.5380 0.5320
2763.184000 0.5300 0.5280 0.5270 0.5250 0.5230
2771.203252 0.5210 0.5200 0.5180 0.5160 0.5130
2779.215000 0.5120 0.5090 0.5060 0.5030 0.4990
2787.234252 0.4940 0.4880 0.4830 0.4790 0.4750
2795.246000 0.4720 0.4710 0.4700 0.4690 0.4670
2803.265252 0.4640 0.4610 0.4550 0.4510 0.4480
2811.277000 0.4450 0.4410 0.4390 0.4370 0.4360
2819.296252 0.4350 0.4350 0.4350 0.4340 0.4340
2827.308000 0.4340 0.4350 0.4390 0.4420 0.4450
2835.327252 0.4490 0.4560 0.4640 0.4700 0.4750
2843.339000 0.4790 0.4820 0.4840 0.4860 0.4870
2851.358252 0.4890 0.4900 0.4910 0.4920 0.4930
2859.370000 0.4930 0.4940 0.4960 0.4980 0.5010
2867.389252 0.5030 0.5070 0.5160 0.5260 0.5350
2875.401000 0.5440 0.5490 0.5530 0.5600 0.5670
2883.420252 0.5730 0.5790 0.5840 0.5880 0.5930
2891.432000 0.5970 0.6000 0.6030 0.6060 0.6080
2899.451252 0.6110 0.6120 0.6150 0.6150 0.6170
2907.463000 0.6180 0.6180 0.6200 0.6210 0.6220
2915.482252 0.6220 0.6210 0.6190 0.6190 0.6180
2923.494000 0.6160 0.6150 0.6130 0.6110 0.6110
2931.513252 0.6080 0.6030 0.5960 0.5900 0.5840
2939.525000 0.5790 0.5760 0.5750 0.5750 0.5760
2947.544252 0.5770 0.5770 0.5770 0.5780 0.5800
2955.556000 0.5850 0.5950 0.6030 0.6110 0.6170
2963.575252 0.6220 0.6270 0.6300 0.6320 0.6330
2971.586000 0.6380 0.6390 0.6400 0.6410 0.6440
2979.605252 0.6450 0.6470 0.6480 0.6490 0.6490
2987.617000 0.6480 0.6450 0.6400 0.6330 0.6260
2995.636252 0.6180 0.6090 0.6010 0.5930 0.5870
3003.648000 0.5820 0.5790 0.5770 0.5720 0.5710
3011.667252 0.5720 0.5720 0.5730 0.5780 0.5820
3019.679000 0.5870 0.5920 0.6010 0.6130 0.6260
3027.698252 0.6280 0.6240 0.6210 0.6150 0.6080
3035.710000 0.6000 0.5870 0.5780 0.5750 0.5740
3043.729252 0.5760 0.5840 0.5930 0.5960 0.6000
3051.741000 0.6010 0.6030 0.6020 0.6000 0.5960
3059.760252 0.5930 0.5880 0.5810 0.5740 0.5660
3067.772000 0.5540 0.5540 0.5540 0.5540 0.5590
3075.791252 0.5630 0.5710 0.5720 0.5880 0.6030
3083.803000 0.6330 0.6340 0.6390 0.6440 0.6490
3091.822252 0.6520 0.6710 0.6780 0.6810 0.6860
3099.834000 0.6940 0.6960 0.6980 0.6980 0.6980
3107.853252 0.6970 0.6960 0.6940 0.6910 0.6880
3115.865000 0.6830 0.6760 0.6660 0.6350 0.6330
3123.884252 0.6340 0.6410 0.6490 0.6560 0.6600
3131.896000 0.6840 0.7000 0.7120 0.7210 0.7290
3139.915252 0.7370 0.7460 0.7470 0.7470 0.7470
3147.927000 0.7470 0.7470 0.7460 0.7460 0.7450
3155.946252 0.7430 0.7420 0.7400 0.7390 0.7390
3163.958000 0.7390 0.7390 0.7410 0.7430 0.7430
3171.977252 0.7460 0.7510 0.7580 0.7620 0.7680
3179.989000 0.7730 0.7770 0.7810 0.7830 0.7840
3188.008252 0.7850 0.7860 0.7870 0.7870 0.7870
3196.020000 0.7870 0.7870 0.7870 0.7860 0.7860
3204.039252 0.7850 0.7850 0.7850 0.7840 0.7840
3212.051000 0.7840 0.7840 0.7840 0.7840 0.7840
3220.070252 0.7840 0.7840 0.7850 0.7860 0.7890
3228.082000 0.7900 0.7910 0.7920 0.7920 0.7930
3236.101252 0.7930 0.7940 0.7940 0.7950 0.7950
3244.113000 0.7950 0.7950 0.7940 0.7940 0.7930
3252.132252 0.7920 0.7920 0.7910 0.7900 0.7890
3260.144000 0.7880 0.7870 0.7860 0.7860 0.7850
3268.163252 0.7840 0.7840 0.7830 0.7820 0.7810
3276.175000 0.7810 0.7810 0.7810 0.7800 0.7800
3284.194252 0.7790 0.7780 0.7780 0.7780 0.7780
3292.206000 0.7780 0.7780 0.7780 0.7780 0.7770
3300.225252 0.7770 0.7770 0.7760 0.7740 0.7740
3308.237000 0.7740 0.7740 0.7730 0.7730 0.7730
3316.256252 0.7730 0.7720 0.7720 0.7710 0.7700
3324.268000 0.7700 0.7690 0.7690 0.7680 0.7680
3332.287252 0.7670 0.7660 0.7660 0.7650 0.7650
3340.299000 0.7640 0.7630 0.7620 0.7620 0.7600
3348.318252 0.7590 0.7580 0.7570 0.7560 0.7540
3356.330000 0.7540 0.7540 0.7530 0.7530 0.7480
3364.349252 0.7470 0.7470 0.7470 0.7460 0.7450
3372.360000 0.7450 0.7440 0.7430 0.7420 0.7420
3380.379252 0.7410 0.7410 0.7400 0.7390 0.7390
3388.391000 0.7380 0.7380 0.7380 0.7380 0.7380
3396.410252 0.7370 0.7370 0.7370 0.7370 0.7370
3404.422000 0.7360 0.7360 0.7360 0.7360 0.7350
3412.441252 0.7350 0.7350 0.7350 0.7350 0.7350
3420.453000 0.7350 0.7350 0.7350 0.7350 0.7350
3428.472252 0.7350 0.7350 0.7350 0.7350 0.7350
3436.484000 0.7360 0.7360 0.7360 0.7360 0.7360
3444.503252 0.7360 0.7370 0.7370 0.7370 0.7370
3452.515000 0.7370 0.7370 0.7380 0.7380 0.7380
3460.534252 0.7380 0.7380 0.7380 0.7380 0.7380
3468.546000 0.7390 0.7390 0.7390 0.7390 0.7400
3476.565252 0.7400 0.7410 0.7410 0.7410 0.7420
3484.577000 0.7420 0.7430 0.7430 0.7430 0.7430
3492.596252 0.7440 0.7440 0.7440 0.7450 0.7460
3500.608000 0.7470 0.7470 0.7480 0.7490 0.7500
3508.627252 0.7500 0.7500 0.7520 0.7530 0.7540
3516.639000 0.7550 0.7570 0.7580 0.7590 0.7600
3524.658252 0.7620 0.7630 0.7640 0.7650 0.7660
3532.670000 0.7660 0.7670 0.7690 0.7690 0.7690
3540.689252 0.7700 0.7710 0.7710 0.7720 0.7730
3548.701000 0.7730 0.7740 0.7740 0.7750 0.7760
3556.720252 0.7770 0.7770 0.7770 0.7780 0.7790
3564.732000 0.7800 0.7800 0.7810 0.7810 0.7820
3572.751252 0.7820 0.7830 0.7840 0.7840 0.7850
3580.763000 0.7850 0.7850 0.7860 0.7860 0.7860
3588.782252 0.7870 0.7870 0.7880 0.7880 0.7880
3596.794000 0.7880 0.7880 0.7880 0.7890 0.7890
3604.813252 0.7900 0.7910 0.7920 0.7920 0.7930
3612.825000 0.7950 0.7950 0.7960 0.7960 0.7960
3620.844252 0.7970 0.7980 0.7980 0.7990 0.8000
3628.856000 0.8000 0.8000 0.8010 0.8030 0.8030
3636.875252 0.8030 0.8030 0.8030 0.8030 0.8030
3644.887000 0.8030 0.8030 0.8030 0.8030 0.8030
3652.906252 0.8030 0.8030 0.8030 0.8030 0.8030
3660.918000 0.8030 0.8030 0.8030 0.8020 0.8020
3668.937252 0.8020 0.8010 0.8010 0.8010 0.8010
3676.949000 0.8020 0.8030 0.8030 0.8030 0.8040
3684.968252 0.8040 0.8050 0.8060 0.8070 0.8070
3692.979000 0.8070 0.8080 0.8080 0.8090 0.8090
3700.998252 0.8090 0.8090 0.8080 0.8080 0.8070
3709.010000 0.8070 0.8060 0.8050 0.8040 0.8030
3717.029252 0.8030 0.8030 0.8030 0.8020 0.8020
3725.042000 0.8010 0.8010 0.8000 0.8000 0.8000
3733.061252 0.8000 0.7990 0.7990 0.7980 0.7970
3741.073000 0.7970 0.7960 0.7960 0.7960 0.7960
3749.092252 0.7970 0.7980 0.8000 0.8000 0.8010
3757.104000 0.8030 0.8040 0.8050 0.8050 0.8050
3765.123252 0.8050 0.8040 0.8040 0.8040 0.8030
3773.134000 0.8030 0.8030 0.8030 0.8030 0.8020
3781.153252 0.8020 0.8010 0.8010 0.8000 0.8000
3789.165000 0.8000 0.8000 0.7990 0.7980 0.7980
3797.184252 0.7970 0.7970 0.7970 0.7960 0.7960
3805.196000 0.7960 0.7960 0.7960 0.7960 0.7950
3813.215252 0.7950 0.7950 0.7950 0.7950 0.7950
3821.227000 0.7950 0.7950 0.7950 0.7950 0.7940
3829.246252 0.7940 0.7940 0.7940 0.7940 0.7940
3837.258000 0.7940 0.7940 0.7940 0.7930 0.7930
3845.277252 0.7930 0.7930 0.7930 0.7920 0.7920
3853.289000 0.7920 0.7920 0.7920 0.7920 0.7920
3861.308252 0.7920 0.7920 0.7920 0.7910 0.7910
3869.320000 0.7910 0.7900 0.7900 0.7900 0.7900
3877.339252 0.7900 0.7900 0.7900 0.7890 0.7890
3885.351000 0.7890 0.7890 0.7890 0.7890 0.7880
3893.370252 0.7880 0.7880 0.7880 0.7880 0.7880
3901.382000 0.7880 0.7880 0.7880 0.7880 0.7870
3909.401252 0.7870 0.7870 0.7860 0.7860 0.7860
3917.413000 0.7860 0.7850 0.7850 0.7850 0.7850
3925.432252 0.7840 0.7840 0.7840 0.7840 0.7840
3933.444000 0.7840 0.7830 0.7830 0.7830 0.7830
3941.463252 0.7830 0.7830 0.7830 0.7830 0.7830
3949.475000 0.7830 0.7820 0.7820 0.7820 0.7820
3957.494252 0.7820 0.7820 0.7820 0.7820 0.7810
3965.506000 0.7810 0.7810 0.7810 0.7810 0.7810
3973.525252 0.7810 0.7810 0.7810 0.7810 0.7810
3981.537000 0.7810 0.7810 0.7810 0.7810 0.7810
3989.556252 0.7810 0.7810 0.7810 0.7810 0.7810
3997.568000 0.7810 0.7810 0.7810 0.7810 0.7810
4005.587252 0.7810
##END=
