##TITLE=2-(p-NONYLPHENOXY)-3-METHYL-6-TRIDECYL PYRAZINE
##JCAMP-DX=4.24
##DATA TYPE=INFRARED SPECTRUM
##CLASS=COBLENTZ
##ORIGIN=WYANDOTTE CHEMICALS CORP., WYANDOTTE, MICHIGAN, USA
##OWNER=COBLENTZ SOCIETY
Collection (C) 2018 copyright by the U.S. Secretary of Commerce
on behalf of the United States of America. All rights reserved.
##DATE=Not specified, most likely prior to 1970
##NAMES=3-methyl-6-tridecyl-2-pyrazinyl 4-nonylphenyl ether
2-methyl-3-(4-nonylphenoxy)-5-tridecylpyrazine
##MOLFORM=C33 H54 N2 O
##SOURCE REFERENCE=COBLENTZ NO. 3123
##$NIST ID=B6003123
##$NIST SOURCE=COBLENTZ
##$NIST IMAGE=cob3123
##SPECTROMETER/DATA SYSTEM=Not specified, most likely a prism, grating, or hybrid spectrometer.
##STATE=LIQUID
##PATH LENGTH=0.0015 CM
##SAMPLING PROCEDURE=TRANSMISSION
##RESOLUTION=4
##DATA PROCESSING=DIGITIZED BY NIST FROM HARD COPY
##XUNITS=MICROMETERS
##YUNITS=TRANSMITTANCE
##XFACTOR=1.000000
##YFACTOR=1
##DELTAX=000.006809
##FIRSTX=2.048
##LASTX=15.9867
##FIRSTY=1
##MAXX=15.9867
##MINX=2.048
##MAXY=1
##MINY=0.053
##NPOINTS=2048
##XYDATA=(X++(Y..Y))
2.048000 1.0000 0.9980 0.9940 0.9940 0.9930
2.082063 0.9910 0.9910 0.9910 0.9910 0.9910
2.116000 0.9910 0.9910 0.9910 0.9890 0.9880
2.150063 0.9860 0.9820 0.9770 0.9720 0.9690
2.184000 0.9670 0.9640 0.9530 0.9410 0.9290
2.218063 0.9210 0.9210 0.9210 0.9220 0.9260
2.252000 0.9280 0.9310 0.9310 0.9290 0.9310
2.286063 0.9310 0.9330 0.9340 0.9360 0.9380
2.320000 0.9410 0.9430 0.9430 0.9430 0.9430
2.354063 0.9410 0.9380 0.9380 0.9360 0.9360
2.388000 0.9380 0.9400 0.9430 0.9460 0.9520
2.422063 0.9570 0.9600 0.9550 0.9550 0.9520
2.456000 0.9520 0.9520 0.9520 0.9520 0.9530
2.490063 0.9550 0.9550 0.9530 0.9550 0.9580
2.524000 0.9640 0.9670 0.9700 0.9700 0.9720
2.558063 0.9720 0.9720 0.9740 0.9740 0.9760
2.592000 0.9760 0.9770 0.9790 0.9810 0.9820
2.626063 0.9820 0.9860 0.9860 0.9840 0.9820
2.661000 0.9810 0.9820 0.9820 0.9820 0.9820
2.695063 0.9820 0.9810 0.9790 0.9790 0.9790
2.729000 0.9770 0.9770 0.9810 0.9810 0.9790
2.763063 0.9790 0.9770 0.9770 0.9760 0.9720
2.797000 0.9700 0.9670 0.9650 0.9650 0.9640
2.831063 0.9640 0.9640 0.9640 0.9620 0.9570
2.865000 0.9530 0.9520 0.9480 0.9450 0.9430
2.899063 0.9410 0.9400 0.9380 0.9380 0.9380
2.933000 0.9360 0.9330 0.9330 0.9310 0.9310
2.967063 0.9260 0.9240 0.9220 0.9220 0.9190
3.001000 0.9190 0.9190 0.9170 0.9170 0.9160
3.035063 0.9160 0.9140 0.9140 0.9120 0.9120
3.069000 0.9100 0.9100 0.9090 0.9070 0.9070
3.103063 0.9040 0.9020 0.9020 0.8980 0.8950
3.137000 0.8930 0.8900 0.8900 0.8900 0.8900
3.171063 0.8900 0.8900 0.8880 0.8850 0.8760
3.205000 0.8660 0.8520 0.8440 0.8330 0.8270
3.239063 0.8110 0.7920 0.7480 0.7030 0.6660
3.273000 0.6430 0.6570 0.6710 0.6620 0.6540
3.307063 0.6310 0.5820 0.4910 0.4190 0.3280
3.341000 0.2360 0.1520 0.0920 0.0680 0.0630
3.375063 0.0610 0.0610 0.0610 0.0590 0.0590
3.410000 0.0590 0.0610 0.0630 0.0710 0.0820
3.444063 0.0870 0.0970 0.1140 0.1160 0.1180
3.478000 0.1180 0.1140 0.1140 0.0990 0.0990
3.512063 0.1110 0.1790 0.2920 0.3810 0.4820
3.546000 0.5660 0.6310 0.6780 0.7140 0.7380
3.580063 0.7550 0.7700 0.7820 0.7970 0.8160
3.614000 0.8250 0.8300 0.8350 0.8350 0.8320
3.648063 0.8300 0.8280 0.8270 0.8250 0.8230
3.682000 0.8250 0.8300 0.8370 0.8510 0.8610
3.716063 0.8610 0.8560 0.8560 0.8560 0.8590
3.750000 0.8590 0.8610 0.8630 0.8640 0.8660
3.784063 0.8710 0.8710 0.8760 0.8800 0.8810
3.818000 0.8830 0.8850 0.8850 0.8850 0.8880
3.852063 0.8880 0.8930 0.8970 0.9000 0.9020
3.886000 0.9100 0.9100 0.9100 0.9020 0.9020
3.920063 0.9090 0.9100 0.9120 0.9160 0.9160
3.954000 0.9160 0.9120 0.9120 0.9120 0.9120
3.988063 0.9120 0.9120 0.9120 0.9120 0.9140
4.022000 0.9170 0.9170 0.9170 0.9190 0.9190
4.056063 0.9210 0.9220 0.9220 0.9210 0.9210
4.090000 0.9190 0.9190 0.9160 0.9140 0.9120
4.124063 0.9100 0.9120 0.9120 0.9140 0.9120
4.159000 0.9100 0.9090 0.9100 0.9100 0.9100
4.193063 0.9100 0.9100 0.9100 0.9100 0.9100
4.227000 0.9070 0.9070 0.9050 0.9050 0.9090
4.261063 0.9140 0.9210 0.9240 0.9240 0.9290
4.295000 0.9290 0.9290 0.9310 0.9330 0.9400
4.329063 0.9410 0.9430 0.9430 0.9430 0.9430
4.363000 0.9410 0.9400 0.9400 0.9400 0.9380
4.397063 0.9380 0.9360 0.9330 0.9260 0.9240
4.431000 0.9240 0.9260 0.9290 0.9310 0.9330
4.465063 0.9400 0.9410 0.9410 0.9410 0.9410
4.499000 0.9410 0.9410 0.9410 0.9430 0.9430
4.533063 0.9450 0.9450 0.9450 0.9450 0.9450
4.567000 0.9450 0.9450 0.9430 0.9430 0.9430
4.601063 0.9430 0.9450 0.9460 0.9460 0.9480
4.635000 0.9480 0.9500 0.9500 0.9500 0.9500
4.669063 0.9460 0.9460 0.9450 0.9450 0.9430
4.703000 0.9430 0.9410 0.9410 0.9410 0.9410
4.737063 0.9410 0.9410 0.9430 0.9430 0.9430
4.771000 0.9430 0.9430 0.9430 0.9430 0.9430
4.805063 0.9430 0.9410 0.9400 0.9400 0.9330
4.839000 0.9340 0.9340 0.9340 0.9330 0.9290
4.873063 0.9280 0.9240 0.9220 0.9210 0.9210
4.908000 0.9210 0.9210 0.9210 0.9210 0.9220
4.942063 0.9260 0.9290 0.9290 0.9280 0.9280
4.976000 0.9280 0.9260 0.9260 0.9260 0.9280
5.010063 0.9290 0.9310 0.9330 0.9340 0.9360
5.044000 0.9400 0.9400 0.9400 0.9400 0.9380
5.078063 0.9380 0.9380 0.9400 0.9400 0.9410
5.112000 0.9410 0.9400 0.9410 0.9450 0.9450
5.146063 0.9500 0.9500 0.9460 0.9450 0.9410
5.180000 0.9400 0.9380 0.9400 0.9450 0.9450
5.214063 0.9410 0.9410 0.9410 0.9410 0.9410
5.248000 0.9410 0.9410 0.9400 0.9340 0.9330
5.282063 0.9290 0.9290 0.9280 0.9260 0.9190
5.316000 0.9050 0.8920 0.8900 0.8880 0.8900
5.350063 0.9020 0.9050 0.9120 0.9170 0.9220
5.384000 0.9260 0.9310 0.9330 0.9340 0.9340
5.418063 0.9340 0.9360 0.9360 0.9400 0.9410
5.452000 0.9430 0.9430 0.9410 0.9400 0.9400
5.486063 0.9410 0.9410 0.9410 0.9410 0.9410
5.520000 0.9400 0.9400 0.9400 0.9400 0.9400
5.554063 0.9360 0.9340 0.9310 0.9310 0.9310
5.589000 0.9260 0.9240 0.9210 0.9190 0.9160
5.623063 0.9140 0.9120 0.9120 0.9100 0.9090
5.657000 0.9050 0.9050 0.9000 0.8970 0.8920
5.691063 0.8900 0.8920 0.8950 0.8980 0.8980
5.725000 0.9000 0.9000 0.9020 0.9040 0.9040
5.759063 0.9040 0.9050 0.9050 0.9040 0.9040
5.793000 0.9020 0.9000 0.8980 0.9000 0.9000
5.827063 0.8970 0.8930 0.8920 0.8930 0.8950
5.861000 0.8950 0.8950 0.8950 0.8930 0.8930
5.895063 0.8920 0.8850 0.8810 0.8800 0.8800
5.929000 0.8780 0.8750 0.8710 0.8640 0.8590
5.963063 0.8520 0.8470 0.8400 0.8370 0.8320
5.997000 0.8270 0.8230 0.8210 0.8210 0.8210
6.031063 0.8200 0.8180 0.8150 0.8130 0.8130
6.065000 0.8130 0.8160 0.8200 0.8210 0.8210
6.099063 0.8200 0.8200 0.8180 0.8180 0.8160
6.133000 0.8110 0.8040 0.7970 0.7800 0.7580
6.167063 0.7310 0.7020 0.6710 0.6600 0.6620
6.201000 0.6840 0.6960 0.7150 0.7190 0.7190
6.235063 0.7100 0.6960 0.6860 0.6760 0.6670
6.269000 0.6620 0.6570 0.6520 0.6520 0.6600
6.303063 0.6910 0.7190 0.7360 0.7480 0.7510
6.338000 0.7560 0.7610 0.7630 0.7630 0.7630
6.372063 0.7610 0.7550 0.7460 0.7240 0.6980
6.406000 0.6710 0.6420 0.6160 0.5890 0.5660
6.440063 0.5440 0.5290 0.5150 0.5010 0.4760
6.474000 0.4720 0.4790 0.5110 0.5510 0.5770
6.508063 0.5990 0.6090 0.6140 0.6140 0.6090
6.542000 0.5870 0.5610 0.5100 0.4450 0.3610
6.576063 0.2870 0.2600 0.2120 0.1600 0.1350
6.610000 0.1210 0.1250 0.1480 0.1810 0.2340
6.644063 0.2850 0.3350 0.3800 0.4050 0.4290
6.678000 0.4570 0.4810 0.4940 0.5000 0.5000
6.712063 0.4910 0.4770 0.4520 0.4260 0.4070
6.746000 0.3760 0.3370 0.2610 0.1880 0.1210
6.780063 0.1060 0.0970 0.0890 0.0830 0.0780
6.814000 0.0780 0.0820 0.0890 0.0970 0.1040
6.848063 0.1140 0.1260 0.1350 0.1430 0.1540
6.882000 0.1600 0.1640 0.1690 0.1710 0.1760
6.916063 0.1840 0.1930 0.2030 0.2140 0.2270
6.950000 0.2430 0.2580 0.2730 0.2920 0.3150
6.984063 0.3390 0.3660 0.3930 0.4170 0.4380
7.018000 0.4550 0.4620 0.4650 0.4690 0.4640
7.052063 0.4520 0.4360 0.4210 0.4020 0.3970
7.087000 0.3970 0.4020 0.4120 0.4210 0.4310
7.121063 0.4360 0.4360 0.4340 0.4220 0.4020
7.155000 0.3710 0.3420 0.3060 0.2730 0.2550
7.189063 0.2200 0.1760 0.1350 0.0970 0.0820
7.223000 0.0710 0.0630 0.0590 0.0590 0.0590
7.257063 0.0580 0.0580 0.0560 0.0540 0.0530
7.291000 0.0530 0.0540 0.0540 0.0580 0.0630
7.325063 0.0710 0.0800 0.0900 0.0970 0.1020
7.359000 0.1040 0.1160 0.1300 0.1420 0.1550
7.393063 0.1670 0.1810 0.1910 0.1980 0.2070
7.427000 0.2190 0.2310 0.2390 0.2510 0.2670
7.461063 0.2820 0.3010 0.3250 0.3490 0.3750
7.495000 0.3980 0.4190 0.4380 0.4520 0.4640
7.529063 0.4740 0.4760 0.4760 0.4720 0.4700
7.563000 0.4620 0.4520 0.4450 0.4380 0.4260
7.597063 0.4120 0.4040 0.3930 0.3900 0.3830
7.631000 0.3760 0.3660 0.3570 0.3520 0.3510
7.665063 0.3510 0.3510 0.3490 0.3450 0.3420
7.699000 0.3400 0.3330 0.3300 0.3250 0.3210
7.733063 0.3200 0.3160 0.3130 0.3080 0.3080
7.768000 0.3110 0.3130 0.3160 0.3230 0.3330
7.802063 0.3450 0.3570 0.3630 0.3690 0.3730
7.836000 0.3800 0.3860 0.4000 0.4040 0.4120
7.870063 0.4220 0.4380 0.4500 0.4520 0.4530
7.904000 0.4550 0.4570 0.4600 0.4620 0.4640
7.938063 0.4650 0.4670 0.4700 0.4700 0.4690
7.972000 0.4670 0.4670 0.4670 0.4670 0.4700
8.006063 0.4700 0.4690 0.4640 0.4570 0.4500
8.040000 0.4410 0.4310 0.4220 0.4050 0.3900
8.074063 0.3780 0.3630 0.3470 0.3250 0.3040
8.108000 0.2770 0.2580 0.2410 0.2310 0.2200
8.142063 0.2020 0.1760 0.1620 0.1520 0.1400
8.176000 0.1190 0.1130 0.0970 0.0770 0.0700
8.210063 0.0630 0.0610 0.0610 0.0630 0.0680
8.244000 0.0730 0.0830 0.1010 0.1280 0.1570
8.278063 0.1860 0.2120 0.2510 0.2870 0.3250
8.312000 0.3570 0.3760 0.3970 0.4160 0.4330
8.346063 0.4450 0.4460 0.4480 0.4480 0.4480
8.380000 0.4480 0.4360 0.4160 0.3780 0.3470
8.414063 0.3280 0.2960 0.2510 0.2120 0.1810
8.448000 0.1570 0.1350 0.1140 0.0920 0.0830
8.482063 0.0780 0.0710 0.0700 0.0700 0.0680
8.517000 0.0680 0.0700 0.0820 0.0970 0.1160
8.551063 0.1450 0.1670 0.1900 0.2070 0.2290
8.585000 0.2510 0.2700 0.2910 0.2920 0.2910
8.619063 0.2790 0.2670 0.2530 0.2320 0.2220
8.653000 0.2220 0.2290 0.2430 0.2560 0.2750
8.687063 0.2940 0.3160 0.3390 0.3640 0.3880
8.721000 0.4100 0.4330 0.4520 0.4670 0.4770
8.755063 0.4910 0.5080 0.5270 0.5350 0.5460
8.789000 0.5530 0.5610 0.5800 0.5920 0.6060
8.823063 0.6160 0.6260 0.6350 0.6400 0.6430
8.857000 0.6450 0.6500 0.6500 0.6430 0.6400
8.891063 0.6300 0.6180 0.6090 0.5990 0.5900
8.925000 0.5800 0.5750 0.5660 0.5590 0.5540
8.959063 0.5530 0.5530 0.5530 0.5530 0.5540
8.993000 0.5660 0.5770 0.5850 0.5970 0.6090
9.027063 0.6160 0.6250 0.6300 0.6300 0.6310
9.061000 0.6310 0.6310 0.6310 0.6330 0.6330
9.095063 0.6330 0.6310 0.6310 0.6310 0.6310
9.129000 0.6310 0.6330 0.6350 0.6350 0.6360
9.163063 0.6360 0.6380 0.6420 0.6450 0.6480
9.197000 0.6480 0.6500 0.6500 0.6500 0.6520
9.231063 0.6520 0.6520 0.6520 0.6520 0.6520
9.266000 0.6540 0.6550 0.6600 0.6640 0.6690
9.300063 0.6740 0.6790 0.6810 0.6860 0.6900
9.334000 0.6900 0.6930 0.7000 0.7020 0.7030
9.368063 0.7030 0.7080 0.7100 0.7120 0.7140
9.402000 0.7150 0.7190 0.7200 0.7220 0.7220
9.436063 0.7240 0.7260 0.7270 0.7290 0.7290
9.470000 0.7310 0.7310 0.7320 0.7320 0.7320
9.504063 0.7320 0.7310 0.7310 0.7310 0.7290
9.538000 0.7240 0.7220 0.7200 0.7190 0.7190
9.572063 0.7100 0.7080 0.7050 0.7030 0.7020
9.606000 0.6980 0.6960 0.6900 0.6810 0.6760
9.640063 0.6720 0.6710 0.6600 0.6500 0.6420
9.674000 0.6400 0.6400 0.6380 0.6310 0.6210
9.708063 0.6130 0.6020 0.5940 0.5820 0.5680
9.742000 0.5530 0.5420 0.5300 0.5170 0.4960
9.776063 0.4790 0.4690 0.4500 0.4360 0.3970
9.810000 0.3560 0.3320 0.2920 0.2600 0.2530
9.844063 0.2530 0.2610 0.2840 0.3160 0.3610
9.878000 0.4070 0.4480 0.4820 0.5030 0.5220
9.912063 0.5390 0.5560 0.5700 0.5800 0.5990
9.946000 0.6140 0.6210 0.6300 0.6380 0.6470
9.980063 0.6550 0.6600 0.6690 0.6740 0.6860
10.015000 0.6980 0.7050 0.7100 0.7140 0.7190
10.049063 0.7240 0.7290 0.7340 0.7390 0.7430
10.083000 0.7440 0.7500 0.7510 0.7530 0.7550
10.117063 0.7550 0.7560 0.7580 0.7600 0.7600
10.151000 0.7600 0.7600 0.7600 0.7610 0.7610
10.185063 0.7600 0.7600 0.7600 0.7560 0.7550
10.219000 0.7550 0.7530 0.7530 0.7510 0.7480
10.253063 0.7500 0.7500 0.7510 0.7530 0.7530
10.287000 0.7530 0.7530 0.7530 0.7550 0.7600
10.321063 0.7610 0.7650 0.7680 0.7700 0.7680
10.355000 0.7610 0.7610 0.7630 0.7630 0.7680
10.389063 0.7700 0.7700 0.7700 0.7720 0.7720
10.423000 0.7730 0.7730 0.7750 0.7790 0.7790
10.457063 0.7800 0.7800 0.7800 0.7800 0.7820
10.491000 0.7840 0.7840 0.7890 0.7940 0.8010
10.525063 0.8010 0.7910 0.7920 0.7990 0.8060
10.559000 0.8090 0.8090 0.8110 0.8110 0.8110
10.593063 0.8130 0.8130 0.8130 0.8130 0.8130
10.627000 0.8130 0.8110 0.8110 0.8110 0.8110
10.661063 0.8110 0.8090 0.8090 0.8080 0.8060
10.696000 0.8040 0.8030 0.8030 0.8010 0.8010
10.730063 0.8030 0.8040 0.8040 0.8060 0.8080
10.764000 0.8090 0.8110 0.8110 0.8090 0.8090
10.798063 0.8080 0.8080 0.8080 0.8080 0.8090
10.832000 0.8090 0.8110 0.8130 0.8130 0.8130
10.866063 0.8130 0.8110 0.8110 0.8110 0.8110
10.900000 0.8130 0.8130 0.8130 0.8150 0.8150
10.934063 0.8160 0.8160 0.8160 0.8160 0.8160
10.968000 0.8160 0.8160 0.8180 0.8180 0.8180
11.002063 0.8160 0.8150 0.8130 0.8110 0.8110
11.036000 0.8090 0.8090 0.8060 0.8030 0.8010
11.070063 0.8010 0.8010 0.7990 0.7970 0.7940
11.104000 0.7910 0.7850 0.7840 0.7800 0.7790
11.138063 0.7790 0.7730 0.7720 0.7680 0.7610
11.172000 0.7550 0.7500 0.7410 0.7380 0.7340
11.206063 0.7290 0.7220 0.7150 0.7120 0.7050
11.240000 0.7000 0.6980 0.6960 0.6950 0.6930
11.274063 0.6900 0.6900 0.6830 0.6790 0.6780
11.308000 0.6720 0.6710 0.6710 0.6720 0.6720
11.342063 0.6720 0.6740 0.6760 0.6810 0.6860
11.376000 0.6930 0.7020 0.7070 0.7150 0.7240
11.410063 0.7310 0.7380 0.7440 0.7530 0.7630
11.445000 0.7720 0.7800 0.7820 0.7850 0.7910
11.479063 0.7940 0.7960 0.7960 0.7970 0.7970
11.513000 0.7970 0.7960 0.7960 0.7960 0.7960
11.547063 0.7920 0.7910 0.7870 0.7850 0.7820
11.581000 0.7800 0.7730 0.7680 0.7630 0.7560
11.615063 0.7510 0.7430 0.7360 0.7290 0.7200
11.649000 0.7120 0.7030 0.6980 0.6880 0.6810
11.683063 0.6670 0.6520 0.6420 0.6330 0.6250
11.717000 0.6110 0.6020 0.5940 0.5850 0.5800
11.751063 0.5700 0.5630 0.5580 0.5470 0.5390
11.785000 0.5340 0.5290 0.5200 0.5010 0.4960
11.819063 0.4930 0.4840 0.4760 0.4700 0.4620
11.853000 0.4550 0.4500 0.4410 0.4360 0.4310
11.887063 0.4220 0.4190 0.4160 0.4120 0.4090
11.921000 0.4050 0.4050 0.4040 0.4020 0.4020
11.955063 0.4000 0.3980 0.3980 0.4020 0.4040
11.989000 0.4070 0.4120 0.4170 0.4210 0.4240
12.023063 0.4310 0.4400 0.4520 0.4620 0.4720
12.057000 0.4790 0.4840 0.4980 0.5060 0.5220
12.091063 0.5300 0.5410 0.5490 0.5590 0.5700
12.125000 0.5770 0.5830 0.5920 0.6010 0.6040
12.159063 0.6140 0.6230 0.6300 0.6310 0.6360
12.194000 0.6400 0.6470 0.6570 0.6600 0.6600
12.228063 0.6620 0.6660 0.6710 0.6720 0.6740
12.262000 0.6740 0.6760 0.6830 0.6900 0.6900
12.296063 0.6910 0.6910 0.7000 0.7020 0.7020
12.330000 0.7050 0.7070 0.7080 0.7100 0.7140
12.364063 0.7190 0.7220 0.7240 0.7240 0.7260
12.398000 0.7290 0.7310 0.7320 0.7340 0.7360
12.432063 0.7410 0.7410 0.7430 0.7430 0.7430
12.466000 0.7430 0.7440 0.7460 0.7480 0.7480
12.500063 0.7480 0.7480 0.7480 0.7480 0.7480
12.534000 0.7460 0.7440 0.7430 0.7390 0.7310
12.568063 0.7260 0.7260 0.7240 0.7240 0.7240
12.602000 0.7240 0.7260 0.7260 0.7260 0.7240
12.636063 0.7220 0.7220 0.7260 0.7290 0.7310
12.670000 0.7310 0.7340 0.7390 0.7410 0.7410
12.704063 0.7410 0.7410 0.7410 0.7410 0.7440
12.738000 0.7440 0.7440 0.7440 0.7440 0.7430
12.772063 0.7410 0.7410 0.7410 0.7410 0.7410
12.806000 0.7410 0.7410 0.7410 0.7410 0.7430
12.840063 0.7440 0.7460 0.7500 0.7510 0.7510
12.875000 0.7510 0.7530 0.7550 0.7580 0.7600
12.909063 0.7600 0.7610 0.7630 0.7650 0.7680
12.943000 0.7700 0.7720 0.7720 0.7750 0.7770
12.977063 0.7770 0.7770 0.7750 0.7750 0.7770
13.011000 0.7790 0.7800 0.7800 0.7800 0.7800
13.045063 0.7800 0.7800 0.7800 0.7820 0.7820
13.079000 0.7840 0.7840 0.7840 0.7840 0.7840
13.113063 0.7840 0.7840 0.7840 0.7850 0.7840
13.147000 0.7840 0.7820 0.7820 0.7840 0.7840
13.181063 0.7840 0.7840 0.7840 0.7840 0.7840
13.215000 0.7840 0.7820 0.7820 0.7820 0.7820
13.249063 0.7820 0.7820 0.7820 0.7840 0.7840
13.283000 0.7800 0.7790 0.7790 0.7790 0.7800
13.317063 0.7800 0.7800 0.7790 0.7730 0.7730
13.351000 0.7730 0.7730 0.7730 0.7720 0.7720
13.385063 0.7720 0.7730 0.7720 0.7700 0.7680
13.419000 0.7630 0.7610 0.7610 0.7610 0.7600
13.453063 0.7600 0.7580 0.7580 0.7560 0.7550
13.487000 0.7510 0.7480 0.7460 0.7460 0.7430
13.521063 0.7430 0.7430 0.7390 0.7390 0.7340
13.555000 0.7320 0.7320 0.7360 0.7360 0.7340
13.589063 0.7320 0.7320 0.7310 0.7290 0.7290
13.624000 0.7260 0.7260 0.7240 0.7240 0.7220
13.658063 0.7220 0.7200 0.7190 0.7150 0.7140
13.692000 0.7100 0.7080 0.7030 0.7020 0.7000
13.726063 0.6980 0.6960 0.6950 0.6910 0.6900
13.760000 0.6860 0.6840 0.6810 0.6740 0.6710
13.794063 0.6710 0.6670 0.6640 0.6550 0.6500
13.828000 0.6500 0.6470 0.6450 0.6420 0.6360
13.862063 0.6330 0.6310 0.6300 0.6250 0.6210
13.896000 0.6190 0.6180 0.6160 0.6180 0.6210
13.930063 0.6230 0.6280 0.6350 0.6420 0.6450
13.964000 0.6520 0.6590 0.6690 0.6720 0.6830
13.998063 0.6860 0.6930 0.7020 0.7050 0.7070
14.032000 0.7080 0.7100 0.7150 0.7260 0.7290
14.066063 0.7320 0.7380 0.7430 0.7480 0.7510
14.100000 0.7550 0.7560 0.7580 0.7580 0.7600
14.134063 0.7610 0.7650 0.7680 0.7730 0.7800
14.168000 0.7840 0.7890 0.7890 0.7890 0.7910
14.202063 0.7920 0.7920 0.7920 0.7910 0.7910
14.236000 0.7910 0.7920 0.7960 0.7970 0.7970
14.270063 0.7990 0.7990 0.8010 0.8010 0.8010
14.304000 0.7990 0.7990 0.8010 0.8040 0.8040
14.338063 0.8040 0.8030 0.8010 0.8010 0.8010
14.373000 0.8010 0.8010 0.8010 0.8010 0.8010
14.407063 0.8030 0.8030 0.8010 0.8010 0.8010
14.441000 0.8010 0.7990 0.7920 0.7910 0.7910
14.475063 0.7910 0.7910 0.7910 0.7920 0.7910
14.509000 0.7910 0.7890 0.7890 0.7890 0.7890
14.543063 0.7850 0.7840 0.7820 0.7820 0.7800
14.577000 0.7790 0.7790 0.7770 0.7730 0.7680
14.611063 0.7630 0.7630 0.7630 0.7650 0.7650
14.645000 0.7670 0.7680 0.7680 0.7680 0.7680
14.679063 0.7680 0.7670 0.7650 0.7610 0.7600
14.713000 0.7580 0.7580 0.7550 0.7530 0.7510
14.747063 0.7500 0.7500 0.7480 0.7460 0.7460
14.781000 0.7460 0.7480 0.7480 0.7480 0.7480
14.815063 0.7500 0.7510 0.7530 0.7550 0.7550
14.849000 0.7530 0.7500 0.7500 0.7510 0.7550
14.883063 0.7550 0.7530 0.7510 0.7510 0.7510
14.917000 0.7510 0.7510 0.7510 0.7510 0.7510
14.951063 0.7510 0.7510 0.7510 0.7510 0.7530
14.985000 0.7530 0.7530 0.7500 0.7460 0.7430
15.019063 0.7340 0.7290 0.7240 0.7190 0.7140
15.054000 0.7080 0.7070 0.7070 0.7070 0.7070
15.088063 0.7080 0.7100 0.7140 0.7150 0.7190
15.122000 0.7240 0.7290 0.7310 0.7320 0.7340
15.156063 0.7340 0.7340 0.7340 0.7340 0.7340
15.190000 0.7340 0.7340 0.7340 0.7320 0.7320
15.224063 0.7320 0.7320 0.7320 0.7320 0.7320
15.258000 0.7310 0.7290 0.7290 0.7240 0.7240
15.292063 0.7220 0.7190 0.7190 0.7190 0.7170
15.326000 0.7150 0.7140 0.7140 0.7140 0.7140
15.360063 0.7140 0.7140 0.7140 0.7120 0.7100
15.394000 0.7100 0.7080 0.7080 0.7100 0.7100
15.428063 0.7100 0.7100 0.7070 0.7070 0.7070
15.462000 0.7030 0.7020 0.7000 0.7000 0.7000
15.496063 0.7000 0.6980 0.6950 0.6950 0.6950
15.530000 0.6930 0.6910 0.6900 0.6880 0.6880
15.564063 0.6880 0.6880 0.6880 0.6880 0.6880
15.598000 0.6880 0.6900 0.6880 0.6880 0.6860
15.632063 0.6860 0.6860 0.6840 0.6840 0.6840
15.666000 0.6830 0.6830 0.6810 0.6790 0.6780
15.700063 0.6760 0.6740 0.6740 0.6740 0.6740
15.734000 0.6740 0.6740 0.6720 0.6710 0.6690
15.768063 0.6670 0.6660 0.6640 0.6620 0.6620
15.803000 0.6600 0.6590 0.6590 0.6590 0.6550
15.837063 0.6520 0.6500 0.6480 0.6480 0.6470
15.871000 0.6470 0.6470 0.6480 0.6480 0.6480
15.905063 0.6480 0.6480 0.6450 0.6430 0.6430
15.939000 0.6420 0.6420 0.6380 0.6360 0.6360
15.973063 0.6360 0.6360 0.6310
##END=
