##TITLE=Alpha-Hydroxy-4-pyridinemethanesulfonic acid
##JCAMP-DX=4.24
##DATA TYPE=INFRARED SPECTRUM
##CLASS=COBLENTZ III
##ORIGIN=DOW CORNING CORP.
##OWNER=COBLENTZ SOC.
Collection (C) 2018 copyright by the U.S. Secretary of Commerce
on behalf of the United States of America. All rights reserved.
##DATE=1954/01/03
##NAMES=hydroxy(4-pyridinyl)methanesulfonic acid
##MOLFORM=C6 H7 N O4 S
##SOURCE REFERENCE=COBLENTZ NO. 08579
##$NIST ID=B6008579
##$NIST SOURCE=COBLENTZ
##$NIST IMAGE=cob8579
##SPECTROMETER/DATA SYSTEM=BAIRD (PRISM)
##INSTRUMENT PARAMETERS=NaCl PRISM
##STATE=SOLID (NUJOL MULL)
$$SPECTRAL CONTAMINATION DUE TO OIL AROUND 2900, 1470, 1380 CM^-^1
##SAMPLING PROCEDURE=TRANSMISSION
##RESOLUTION=2
##DATA PROCESSING=DIGITIZED BY COBLENTZ SOCIETY (BATCH I) FROM HARD COPY
##XUNITS=1/CM
##YUNITS=TRANSMITTANCE
##XLABEL=Wavenumbers (cm-1)
##YLABEL=% Transmission
##XFACTOR=1
##YFACTOR=1
##DELTAX=1
##FIRSTX=631
##LASTX=4000
##FIRSTY=0.7107
##MAXX=4000
##MINX=631
##MAXY=0.9217
##MINY=0.0387
##NPOINTS=3370
##XYDATA=(X++(Y..Y))
631.000000 0.7107 0.6938 0.6838 0.6693 0.6555
636.000000 0.6407 0.6231 0.6035 0.5803 0.5562
641.000000 0.5332 0.5077 0.4794 0.4537 0.4375
646.000000 0.4246 0.4223 0.4334 0.4460 0.4634
651.000000 0.4857 0.5141 0.5396 0.5742 0.6074
656.000000 0.6247 0.6373 0.6521 0.6635 0.6740
661.000000 0.6837 0.6926 0.7014 0.7091 0.7153
666.000000 0.7205 0.7255 0.7317 0.7365 0.7382
671.000000 0.7415 0.7471 0.7544 0.7607 0.7658
676.000000 0.7701 0.7735 0.7768 0.7799 0.7826
681.000000 0.7844 0.7857 0.7861 0.7836 0.7806
686.000000 0.7771 0.7742 0.7742 0.7786 0.7886
691.000000 0.8021 0.8118 0.8206 0.8291 0.8371
696.000000 0.8447 0.8497 0.8547 0.8584 0.8618
701.000000 0.8654 0.8691 0.8727 0.8763 0.8787
706.000000 0.8794 0.8813 0.8778 0.8745 0.8689
711.000000 0.8632 0.8546 0.8412 0.8167 0.7850
716.000000 0.7326 0.6819 0.6428 0.6165 0.6027
721.000000 0.6106 0.6282 0.6576 0.6939 0.7258
726.000000 0.7490 0.7626 0.7764 0.7905 0.8048
731.000000 0.8199 0.8291 0.8366 0.8439 0.8514
736.000000 0.8565 0.8602 0.8639 0.8675 0.8702
741.000000 0.8728 0.8748 0.8758 0.8768 0.8771
746.000000 0.8771 0.8771 0.8770 0.8764 0.8754
751.000000 0.8739 0.8712 0.8671 0.8623 0.8559
756.000000 0.8477 0.8353 0.8215 0.8074 0.7931
761.000000 0.7824 0.7741 0.7669 0.7599 0.7443
766.000000 0.7125 0.6914 0.6649 0.6340 0.6170
771.000000 0.6137 0.6286 0.6478 0.6753 0.7026
776.000000 0.7300 0.7599 0.7872 0.8186 0.8368
781.000000 0.8537 0.8685 0.8792 0.8898 0.8994
786.000000 0.9081 0.9151 0.9178 0.9189 0.9193
791.000000 0.9201 0.9184 0.9175 0.9168 0.9163
796.000000 0.9154 0.9142 0.9131 0.9116 0.9103
801.000000 0.9078 0.9052 0.9025 0.8998 0.8960
806.000000 0.8923 0.8884 0.8839 0.8783 0.8727
811.000000 0.8668 0.8594 0.8517 0.8427 0.8330
816.000000 0.8218 0.8083 0.7826 0.7384 0.6824
821.000000 0.6386 0.6107 0.5586 0.5265 0.4926
826.000000 0.4535 0.4102 0.3700 0.3568 0.3570
831.000000 0.3884 0.4351 0.4825 0.5299 0.5771
836.000000 0.6262 0.6700 0.7049 0.7404 0.7634
841.000000 0.7746 0.7793 0.7830 0.7860 0.7915
846.000000 0.8040 0.8192 0.8338 0.8471 0.8603
851.000000 0.8731 0.8848 0.8966 0.9081 0.9165
856.000000 0.9190 0.9211 0.9215 0.9217 0.9217
861.000000 0.9217 0.9216 0.9210 0.9185 0.9161
866.000000 0.9118 0.9077 0.9025 0.8971 0.8918
871.000000 0.8901 0.8901 0.8901 0.8913 0.8934
876.000000 0.8958 0.8983 0.9001 0.9011 0.8966
881.000000 0.8932 0.8898 0.8863 0.8825 0.8786
886.000000 0.8747 0.8728 0.8728 0.8708 0.8774
891.000000 0.8805 0.8837 0.8868 0.8896 0.8912
896.000000 0.8928 0.8944 0.8960 0.8975 0.8993
901.000000 0.9010 0.9021 0.9028 0.9027 0.9025
906.000000 0.9023 0.9040 0.9015 0.9011 0.9007
911.000000 0.9003 0.8995 0.8986 0.8977 0.8968
916.000000 0.8960 0.8949 0.8936 0.8923 0.8910
921.000000 0.8897 0.8884 0.8871 0.8859 0.8846
926.000000 0.8833 0.8820 0.8807 0.8793 0.8771
931.000000 0.8749 0.8728 0.8702 0.8664 0.8625
936.000000 0.8585 0.8535 0.8485 0.8434 0.8367
941.000000 0.8298 0.8230 0.8171 0.8115 0.8058
946.000000 0.8001 0.7955 0.7921 0.7912 0.7900
951.000000 0.7940 0.7999 0.8078 0.8176 0.8268
956.000000 0.8320 0.8370 0.8410 0.8449 0.8487
961.000000 0.8523 0.8550 0.8571 0.8593 0.8585
966.000000 0.8588 0.8577 0.8565 0.8552 0.8535
971.000000 0.8518 0.8500 0.8478 0.8460 0.8439
976.000000 0.8418 0.8388 0.8353 0.8317 0.8263
981.000000 0.8199 0.8134 0.8058 0.7980 0.7882
986.000000 0.7735 0.7585 0.7412 0.6922 0.6661
991.000000 0.6422 0.6059 0.5910 0.5881 0.6027
996.000000 0.6285 0.6536 0.6695 0.6885 0.7142
1001.000000 0.7265 0.7308 0.7291 0.7245 0.7318
1006.000000 0.6988 0.6721 0.6455 0.6189 0.5864
1011.000000 0.5627 0.5459 0.5347 0.5293 0.5266
1016.000000 0.5249 0.5231 0.5169 0.5076 0.4924
1021.000000 0.4723 0.4419 0.4136 0.3689 0.2928
1026.000000 0.2145 0.1539 0.1365 0.1260 0.1270
1031.000000 0.1252 0.1831 0.2268 0.2706 0.3141
1036.000000 0.3576 0.4010 0.4444 0.4876 0.5167
1041.000000 0.5494 0.5862 0.6124 0.6312 0.6528
1046.000000 0.6740 0.6911 0.7061 0.7197 0.7328
1051.000000 0.7374 0.7391 0.7382 0.7345 0.7237
1056.000000 0.7130 0.6997 0.6845 0.6691 0.6549
1061.000000 0.6518 0.6510 0.6621 0.6775 0.7114
1066.000000 0.7248 0.7311 0.7328 0.7326 0.7296
1071.000000 0.7239 0.7151 0.6998 0.6869 0.6625
1076.000000 0.6271 0.5776 0.5282 0.4788 0.4297
1081.000000 0.3805 0.3514 0.3498 0.3802 0.4135
1086.000000 0.4467 0.4798 0.5129 0.5458 0.5788
1091.000000 0.6054 0.6135 0.6200 0.6348 0.6590
1096.000000 0.6824 0.7019 0.7134 0.7197 0.7196
1101.000000 0.7195 0.7187 0.7158 0.7115 0.7065
1106.000000 0.6994 0.6912 0.6821 0.6705 0.6569
1111.000000 0.6408 0.6187 0.5999 0.5769 0.5446
1116.000000 0.5326 0.5325 0.5325 0.5435 0.5534
1121.000000 0.5629 0.5725 0.5816 0.5898 0.5956
1126.000000 0.5995 0.6001 0.6010 0.5985 0.5974
1131.000000 0.5956 0.5933 0.5909 0.5862 0.5812
1136.000000 0.5762 0.5648 0.5503 0.5364 0.5227
1141.000000 0.5051 0.4841 0.4627 0.4337 0.4122
1146.000000 0.3956 0.3814 0.3666 0.3448 0.3234
1151.000000 0.3043 0.2844 0.2442 0.2128 0.1932
1156.000000 0.1792 0.1660 0.1538 0.1438 0.1342
1161.000000 0.1266 0.1232 0.1205 0.1190 0.1196
1166.000000 0.1203 0.1202 0.1264 0.1296 0.1331
1171.000000 0.1415 0.1490 0.1599 0.1779 0.1957
1176.000000 0.2135 0.2314 0.2493 0.2670 0.2848
1181.000000 0.3024 0.3202 0.3378 0.3554 0.3730
1186.000000 0.3904 0.4016 0.4045 0.4050 0.4066
1191.000000 0.4022 0.3959 0.3750 0.3518 0.3289
1196.000000 0.3058 0.2828 0.2598 0.2368 0.2139
1201.000000 0.1971 0.1843 0.1790 0.1804 0.1807
1206.000000 0.1860 0.1998 0.2144 0.2274 0.2361
1211.000000 0.2378 0.2389 0.2364 0.2325 0.2258
1216.000000 0.2192 0.2127 0.2065 0.2044 0.2048
1221.000000 0.2072 0.2116 0.2184 0.2278 0.2399
1226.000000 0.2545 0.2705 0.2775 0.2800 0.2800
1231.000000 0.2782 0.2742 0.2648 0.2548 0.2450
1236.000000 0.2351 0.2252 0.2154 0.2055 0.1956
1241.000000 0.1859 0.1760 0.1663 0.1565 0.1467
1246.000000 0.1385 0.1341 0.1342 0.1330 0.1364
1251.000000 0.1435 0.1589 0.1753 0.1918 0.2081
1256.000000 0.2245 0.2408 0.2572 0.2734 0.2896
1261.000000 0.3058 0.3221 0.3405 0.3543 0.3666
1266.000000 0.3802 0.4008 0.4239 0.4609 0.4879
1271.000000 0.5071 0.5237 0.5409 0.5583 0.5716
1276.000000 0.5838 0.5960 0.6115 0.6283 0.6432
1281.000000 0.6593 0.6788 0.6908 0.6999 0.7078
1286.000000 0.7145 0.7212 0.7280 0.7382 0.7485
1291.000000 0.7555 0.7604 0.7651 0.7688 0.7711
1296.000000 0.7736 0.7761 0.7785 0.7808 0.7833
1301.000000 0.7857 0.7885 0.7921 0.7958 0.7995
1306.000000 0.8024 0.8047 0.8068 0.8090 0.8111
1311.000000 0.8132 0.8157 0.8186 0.8213 0.8235
1316.000000 0.8266 0.8209 0.8178 0.8139 0.8122
1321.000000 0.8134 0.8151 0.8168 0.8168 0.8158
1326.000000 0.8146 0.8121 0.8086 0.8058 0.8031
1331.000000 0.7995 0.7953 0.7912 0.7878 0.7865
1336.000000 0.7861 0.7860 0.7858 0.7858 0.7856
1341.000000 0.7853 0.7849 0.7840 0.7824 0.7793
1346.000000 0.7761 0.7731 0.7705 0.7691 0.7685
1351.000000 0.7685 0.7685 0.7684 0.7690 0.7696
1356.000000 0.7703 0.7710 0.7717 0.7722 0.7721
1361.000000 0.7721 0.7710 0.7697 0.7675 0.7637
1366.000000 0.7571 0.7498 0.7421 0.7346 0.7080
1371.000000 0.6784 0.6685 0.6583 0.6478 0.6370
1376.000000 0.6249 0.6102 0.5952 0.5826 0.5757
1381.000000 0.5737 0.5739 0.5796 0.5933 0.6069
1386.000000 0.6206 0.6342 0.6476 0.6612 0.6748
1391.000000 0.6883 0.7018 0.7153 0.7287 0.7421
1396.000000 0.7554 0.7658 0.7744 0.7801 0.7811
1401.000000 0.7808 0.7801 0.7793 0.7784 0.7768
1406.000000 0.7754 0.7734 0.7708 0.7681 0.7650
1411.000000 0.7617 0.7586 0.7560 0.7536 0.7515
1416.000000 0.7506 0.7501 0.7501 0.7508 0.7515
1421.000000 0.7528 0.7543 0.7558 0.7575 0.7593
1426.000000 0.7610 0.7626 0.7644 0.7662 0.7682
1431.000000 0.7701 0.7718 0.7730 0.7734 0.7733
1436.000000 0.7730 0.7725 0.7719 0.7711 0.7697
1441.000000 0.7680 0.7637 0.7581 0.7521 0.7428
1446.000000 0.7319 0.7211 0.7025 0.6751 0.6475
1451.000000 0.6202 0.5929 0.5655 0.5455 0.5335
1456.000000 0.5226 0.5047 0.4844 0.4616 0.4501
1461.000000 0.4389 0.4280 0.4196 0.4131 0.4092
1466.000000 0.4068 0.4053 0.4053 0.4058 0.4075
1471.000000 0.4106 0.4149 0.4287 0.4486 0.4690
1476.000000 0.4893 0.5096 0.5299 0.5502 0.5704
1481.000000 0.5906 0.6108 0.6309 0.6510 0.6711
1486.000000 0.6911 0.7111 0.7311 0.7371 0.7389
1491.000000 0.7394 0.7394 0.7389 0.7378 0.7355
1496.000000 0.7297 0.6984 0.6641 0.6298 0.5956
1501.000000 0.5614 0.5407 0.5337 0.5256 0.5199
1506.000000 0.5162 0.5127 0.5096 0.5078 0.5060
1511.000000 0.5046 0.5039 0.5039 0.5039 0.5052
1516.000000 0.5051 0.5075 0.5146 0.5328 0.5510
1521.000000 0.5693 0.5875 0.6057 0.6239 0.6419
1526.000000 0.6601 0.6782 0.6962 0.7142 0.7226
1531.000000 0.7311 0.7436 0.7583 0.7726 0.7832
1536.000000 0.7908 0.7983 0.8055 0.8124 0.8189
1541.000000 0.8237 0.8275 0.8313 0.8351 0.8363
1546.000000 0.8371 0.8378 0.8386 0.8391 0.8393
1551.000000 0.8395 0.8397 0.8400 0.8409 0.8421
1556.000000 0.8435 0.8460 0.8490 0.8524 0.8564
1561.000000 0.8607 0.8646 0.8671 0.8692 0.8712
1566.000000 0.8731 0.8750 0.8762 0.8771 0.8782
1571.000000 0.8788 0.8791 0.8794 0.8796 0.8799
1576.000000 0.8799 0.8798 0.8801 0.8796 0.8795
1581.000000 0.8793 0.8792 0.8789 0.8785 0.8780
1586.000000 0.8774 0.8768 0.8762 0.8751 0.8739
1591.000000 0.8725 0.8713 0.8695 0.8668 0.8637
1596.000000 0.8606 0.8577 0.8548 0.8518 0.8491
1601.000000 0.8464 0.8439 0.8416 0.8393 0.8371
1606.000000 0.8350 0.8333 0.8315 0.8295 0.8019
1611.000000 0.6990 0.6710 0.6428 0.6150 0.5870
1616.000000 0.5590 0.5312 0.5250 0.5245 0.5227
1621.000000 0.5418 0.5534 0.5650 0.5766 0.5881
1626.000000 0.5997 0.6112 0.6227 0.6342 0.6457
1631.000000 0.6558 0.6605 0.6619 0.6512 0.6284
1636.000000 0.6055 0.5827 0.5597 0.5369 0.5141
1641.000000 0.4935 0.4841 0.4843 0.4838 0.5032
1646.000000 0.5224 0.5416 0.5609 0.5800 0.5991
1651.000000 0.6183 0.6374 0.6564 0.6755 0.6945
1656.000000 0.7135 0.7321 0.7498 0.7672 0.7847
1661.000000 0.7958 0.8054 0.8148 0.8245 0.8353
1666.000000 0.8453 0.8520 0.8562 0.8595 0.8612
1671.000000 0.8628 0.8646 0.8663 0.8681 0.8697
1676.000000 0.8709 0.8718 0.8725 0.8734 0.8743
1681.000000 0.8751 0.8758 0.8764 0.8770 0.8775
1686.000000 0.8781 0.8787 0.8792 0.8798 0.8804
1691.000000 0.8808 0.8812 0.8816 0.8818 0.8823
1696.000000 0.8825 0.8830 0.8833 0.8837 0.8837
1701.000000 0.8838 0.8856 0.8831 0.8828 0.8823
1706.000000 0.8818 0.8812 0.8807 0.8803 0.8801
1711.000000 0.8800 0.8798 0.8796 0.8795 0.8794
1716.000000 0.8792 0.8791 0.8790 0.8789 0.8787
1721.000000 0.8786 0.8785 0.8784 0.8783 0.8783
1726.000000 0.8785 0.8786 0.8787 0.8789 0.8789
1731.000000 0.8791 0.8796 0.8803 0.8811 0.8818
1736.000000 0.8825 0.8833 0.8841 0.8848 0.8855
1741.000000 0.8863 0.8870 0.8870 0.8870 0.8867
1746.000000 0.8865 0.8863 0.8860 0.8858 0.8854
1751.000000 0.8850 0.8846 0.8842 0.8839 0.8835
1756.000000 0.8831 0.8827 0.8823 0.8820 0.8816
1761.000000 0.8812 0.8808 0.8804 0.8800 0.8796
1766.000000 0.8793 0.8789 0.8785 0.8781 0.8777
1771.000000 0.8774 0.8770 0.8766 0.8760 0.8755
1776.000000 0.8749 0.8745 0.8739 0.8733 0.8728
1781.000000 0.8723 0.8718 0.8712 0.8708 0.8702
1786.000000 0.8697 0.8691 0.8687 0.8683 0.8684
1791.000000 0.8684 0.8687 0.8692 0.8696 0.8701
1796.000000 0.8706 0.8710 0.8715 0.8720 0.8724
1801.000000 0.8728 0.8734 0.8739 0.8744 0.8748
1806.000000 0.8753 0.8757 0.8761 0.8764 0.8767
1811.000000 0.8770 0.8774 0.8777 0.8780 0.8783
1816.000000 0.8786 0.8788 0.8788 0.8788 0.8788
1821.000000 0.8788 0.8788 0.8787 0.8787 0.8786
1826.000000 0.8785 0.8783 0.8781 0.8778 0.8777
1831.000000 0.8775 0.8771 0.8770 0.8767 0.8763
1836.000000 0.8759 0.8755 0.8751 0.8748 0.8744
1841.000000 0.8740 0.8737 0.8732 0.8728 0.8724
1846.000000 0.8717 0.8710 0.8703 0.8696 0.8690
1851.000000 0.8683 0.8675 0.8667 0.8657 0.8646
1856.000000 0.8636 0.8625 0.8614 0.8604 0.8593
1861.000000 0.8582 0.8571 0.8561 0.8551 0.8540
1866.000000 0.8530 0.8523 0.8517 0.8511 0.8505
1871.000000 0.8499 0.8493 0.8487 0.8481 0.8475
1876.000000 0.8470 0.8466 0.8466 0.8466 0.8465
1881.000000 0.8465 0.8464 0.8464 0.8463 0.8463
1886.000000 0.8463 0.8464 0.8471 0.8477 0.8484
1891.000000 0.8491 0.8499 0.8508 0.8516 0.8525
1896.000000 0.8534 0.8543 0.8552 0.8563 0.8574
1901.000000 0.8587 0.8599 0.8606 0.8608 0.8610
1906.000000 0.8611 0.8613 0.8614 0.8616 0.8618
1911.000000 0.8618 0.8616 0.8614 0.8612 0.8610
1916.000000 0.8608 0.8605 0.8603 0.8601 0.8599
1921.000000 0.8597 0.8594 0.8591 0.8582 0.8573
1926.000000 0.8564 0.8555 0.8546 0.8538 0.8528
1931.000000 0.8518 0.8509 0.8499 0.8489 0.8478
1936.000000 0.8470 0.8460 0.8450 0.8440 0.8431
1941.000000 0.8423 0.8418 0.8413 0.8408 0.8402
1946.000000 0.8397 0.8392 0.8386 0.8381 0.8375
1951.000000 0.8368 0.8362 0.8356 0.8350 0.8344
1956.000000 0.8338 0.8332 0.8325 0.8320 0.8314
1961.000000 0.8307 0.8301 0.8296 0.8290 0.8283
1966.000000 0.8277 0.8271 0.8265 0.8259 0.8253
1971.000000 0.8247 0.8242 0.8239 0.8238 0.8238
1976.000000 0.8238 0.8237 0.8237 0.8237 0.8240
1981.000000 0.8244 0.8247 0.8251 0.8256 0.8261
1986.000000 0.8267 0.8274 0.8281 0.8287 0.8294
1991.000000 0.8301 0.8307 0.8314 0.8321 0.8328
1996.000000 0.8328 0.8325 0.8323 0.8320 0.8318
2001.000000 0.8314 0.8312 0.8309 0.8307 0.8304
2006.000000 0.8301 0.8298 0.8295 0.8288 0.8281
2011.000000 0.8275 0.8268 0.8262 0.8256 0.8249
2016.000000 0.8243 0.8237 0.8230 0.8225 0.8218
2021.000000 0.8214 0.8208 0.8203 0.8197 0.8192
2026.000000 0.8186 0.8181 0.8175 0.8169 0.8164
2031.000000 0.8158 0.8153 0.8148 0.8142 0.8136
2036.000000 0.8128 0.8122 0.8117 0.8111 0.8105
2041.000000 0.8100 0.8098 0.8096 0.8094 0.8091
2046.000000 0.8089 0.8089 0.8090 0.8093 0.8096
2051.000000 0.8099 0.8103 0.8108 0.8115 0.8122
2056.000000 0.8130 0.8138 0.8145 0.8153 0.8160
2061.000000 0.8167 0.8175 0.8184 0.8193 0.8201
2066.000000 0.8210 0.8218 0.8227 0.8236 0.8243
2071.000000 0.8250 0.8256 0.8263 0.8270 0.8275
2076.000000 0.8283 0.8289 0.8296 0.8302 0.8309
2081.000000 0.8316 0.8323 0.8328 0.8333 0.8336
2086.000000 0.8337 0.8337 0.8337 0.8338 0.8338
2091.000000 0.8338 0.8338 0.8338 0.8338 0.8338
2096.000000 0.8338 0.8338 0.8337 0.8337 0.8336
2101.000000 0.8335 0.8335 0.8334 0.8333 0.8332
2106.000000 0.8332 0.8331 0.8330 0.8330 0.8328
2111.000000 0.8328 0.8327 0.8327 0.8325 0.8324
2116.000000 0.8321 0.8321 0.8320 0.8318 0.8317
2121.000000 0.8316 0.8314 0.8313 0.8312 0.8310
2126.000000 0.8308 0.8307 0.8306 0.8304 0.8303
2131.000000 0.8302 0.8301 0.8300 0.8298 0.8296
2136.000000 0.8295 0.8294 0.8292 0.8291 0.8290
2141.000000 0.8289 0.8287 0.8285 0.8284 0.8282
2146.000000 0.8278 0.8278 0.8275 0.8274 0.8271
2151.000000 0.8270 0.8267 0.8265 0.8263 0.8262
2156.000000 0.8260 0.8258 0.8255 0.8253 0.8251
2161.000000 0.8249 0.8248 0.8246 0.8244 0.8241
2166.000000 0.8239 0.8237 0.8235 0.8233 0.8232
2171.000000 0.8230 0.8228 0.8225 0.8223 0.8221
2176.000000 0.8218 0.8218 0.8216 0.8214 0.8212
2181.000000 0.8210 0.8207 0.8205 0.8203 0.8201
2186.000000 0.8199 0.8197 0.8195 0.8193 0.8191
2191.000000 0.8189 0.8187 0.8184 0.8182 0.8180
2196.000000 0.8178 0.8175 0.8172 0.8171 0.8168
2201.000000 0.8167 0.8165 0.8162 0.8161 0.8158
2206.000000 0.8157 0.8155 0.8151 0.8150 0.8148
2211.000000 0.8146 0.8144 0.8142 0.8140 0.8138
2216.000000 0.8136 0.8134 0.8132 0.8130 0.8126
2221.000000 0.8125 0.8122 0.8121 0.8118 0.8117
2226.000000 0.8115 0.8112 0.8111 0.8108 0.8107
2231.000000 0.8104 0.8101 0.8100 0.8098 0.8096
2236.000000 0.8094 0.8092 0.8090 0.8087 0.8085
2241.000000 0.8083 0.8081 0.8078 0.8076 0.8075
2246.000000 0.8072 0.8069 0.8068 0.8065 0.8064
2251.000000 0.8061 0.8060 0.8058 0.8056 0.8054
2256.000000 0.8051 0.8049 0.8047 0.8045 0.8042
2261.000000 0.8040 0.8038 0.8035 0.8033 0.8030
2266.000000 0.8028 0.8025 0.8022 0.8021 0.8018
2271.000000 0.8015 0.8012 0.8011 0.8008 0.8006
2276.000000 0.8004 0.8001 0.7999 0.7996 0.7994
2281.000000 0.7992 0.7989 0.7987 0.7986 0.7986
2286.000000 0.7985 0.7984 0.7983 0.7982 0.7981
2291.000000 0.7980 0.7978 0.7978 0.7978 0.7976
2296.000000 0.7975 0.7975 0.7975 0.7976 0.7978
2301.000000 0.7978 0.7978 0.7978 0.7980 0.7981
2306.000000 0.7981 0.7982 0.7983 0.7984 0.7984
2311.000000 0.7985 0.7986 0.7987 0.7988 0.7989
2316.000000 0.7990 0.7991 0.7991 0.7992 0.7993
2321.000000 0.7994 0.7995 0.7996 0.7996 0.7995
2326.000000 0.7993 0.7991 0.7988 0.7984 0.7981
2331.000000 0.7978 0.7975 0.7971 0.7968 0.7965
2336.000000 0.7961 0.7957 0.7951 0.7946 0.7940
2341.000000 0.7934 0.7928 0.7921 0.7915 0.7910
2346.000000 0.7904 0.7897 0.7891 0.7884 0.7878
2351.000000 0.7871 0.7865 0.7860 0.7854 0.7847
2356.000000 0.7841 0.7835 0.7828 0.7824 0.7818
2361.000000 0.7811 0.7807 0.7801 0.7795 0.7790
2366.000000 0.7784 0.7778 0.7771 0.7765 0.7761
2371.000000 0.7755 0.7749 0.7743 0.7737 0.7732
2376.000000 0.7725 0.7719 0.7714 0.7708 0.7704
2381.000000 0.7698 0.7696 0.7693 0.7690 0.7688
2386.000000 0.7685 0.7683 0.7681 0.7678 0.7675
2391.000000 0.7672 0.7669 0.7668 0.7665 0.7662
2396.000000 0.7661 0.7658 0.7657 0.7655 0.7655
2401.000000 0.7655 0.7656 0.7656 0.7657 0.7657
2406.000000 0.7657 0.7658 0.7658 0.7658 0.7660
2411.000000 0.7661 0.7664 0.7665 0.7667 0.7669
2416.000000 0.7671 0.7674 0.7675 0.7678 0.7680
2421.000000 0.7682 0.7684 0.7686 0.7688 0.7690
2426.000000 0.7692 0.7694 0.7696 0.7698 0.7700
2431.000000 0.7700 0.7700 0.7698 0.7695 0.7693
2436.000000 0.7691 0.7688 0.7686 0.7683 0.7680
2441.000000 0.7676 0.7674 0.7671 0.7668 0.7665
2446.000000 0.7661 0.7658 0.7655 0.7651 0.7649
2451.000000 0.7646 0.7644 0.7641 0.7637 0.7634
2456.000000 0.7631 0.7628 0.7625 0.7621 0.7618
2461.000000 0.7614 0.7610 0.7607 0.7603 0.7600
2466.000000 0.7597 0.7593 0.7589 0.7586 0.7582
2471.000000 0.7578 0.7575 0.7572 0.7569 0.7567
2476.000000 0.7564 0.7561 0.7558 0.7556 0.7553
2481.000000 0.7550 0.7547 0.7543 0.7541 0.7538
2486.000000 0.7535 0.7532 0.7528 0.7525 0.7524
2491.000000 0.7521 0.7518 0.7517 0.7515 0.7512
2496.000000 0.7510 0.7508 0.7506 0.7504 0.7501
2501.000000 0.7499 0.7497 0.7495 0.7493 0.7491
2506.000000 0.7488 0.7486 0.7484 0.7482 0.7480
2511.000000 0.7476 0.7475 0.7472 0.7471 0.7468
2516.000000 0.7465 0.7464 0.7461 0.7460 0.7458
2521.000000 0.7455 0.7451 0.7447 0.7444 0.7440
2526.000000 0.7437 0.7433 0.7430 0.7425 0.7422
2531.000000 0.7418 0.7415 0.7411 0.7408 0.7405
2536.000000 0.7401 0.7398 0.7395 0.7391 0.7388
2541.000000 0.7384 0.7378 0.7374 0.7367 0.7360
2546.000000 0.7353 0.7346 0.7339 0.7333 0.7325
2551.000000 0.7319 0.7312 0.7306 0.7299 0.7292
2556.000000 0.7285 0.7278 0.7271 0.7265 0.7258
2561.000000 0.7251 0.7245 0.7238 0.7231 0.7224
2566.000000 0.7218 0.7210 0.7203 0.7195 0.7188
2571.000000 0.7180 0.7171 0.7162 0.7155 0.7147
2576.000000 0.7138 0.7130 0.7121 0.7114 0.7105
2581.000000 0.7097 0.7089 0.7081 0.7071 0.7064
2586.000000 0.7056 0.7048 0.7039 0.7031 0.7022
2591.000000 0.7015 0.7006 0.6998 0.6989 0.6981
2596.000000 0.6971 0.6962 0.6955 0.6946 0.6938
2601.000000 0.6928 0.6921 0.6911 0.6904 0.6895
2606.000000 0.6887 0.6878 0.6869 0.6861 0.6853
2611.000000 0.6845 0.6836 0.6828 0.6818 0.6811
2616.000000 0.6803 0.6794 0.6786 0.6776 0.6768
2621.000000 0.6761 0.6758 0.6753 0.6748 0.6743
2626.000000 0.6739 0.6734 0.6730 0.6725 0.6721
2631.000000 0.6715 0.6711 0.6707 0.6703 0.6699
2636.000000 0.6696 0.6693 0.6692 0.6692 0.6692
2641.000000 0.6692 0.6692 0.6691 0.6691 0.6691
2646.000000 0.6690 0.6690 0.6690 0.6690 0.6690
2651.000000 0.6690 0.6689 0.6689 0.6689 0.6689
2656.000000 0.6689 0.6688 0.6688 0.6687 0.6686
2661.000000 0.6684 0.6682 0.6680 0.6678 0.6675
2666.000000 0.6674 0.6671 0.6671 0.6668 0.6667
2671.000000 0.6665 0.6664 0.6661 0.6660 0.6657
2676.000000 0.6654 0.6650 0.6645 0.6640 0.6635
2681.000000 0.6630 0.6625 0.6619 0.6615 0.6610
2686.000000 0.6605 0.6600 0.6594 0.6589 0.6585
2691.000000 0.6580 0.6574 0.6568 0.6562 0.6557
2696.000000 0.6551 0.6546 0.6540 0.6533 0.6526
2701.000000 0.6521 0.6515 0.6510 0.6504 0.6497
2706.000000 0.6491 0.6486 0.6480 0.6474 0.6468
2711.000000 0.6461 0.6456 0.6450 0.6444 0.6438
2716.000000 0.6431 0.6425 0.6418 0.6412 0.6407
2721.000000 0.6401 0.6394 0.6388 0.6382 0.6376
2726.000000 0.6369 0.6362 0.6357 0.6351 0.6345
2731.000000 0.6338 0.6332 0.6326 0.6321 0.6316
2736.000000 0.6310 0.6307 0.6302 0.6298 0.6294
2741.000000 0.6289 0.6285 0.6280 0.6276 0.6271
2746.000000 0.6267 0.6262 0.6258 0.6254 0.6250
2751.000000 0.6245 0.6241 0.6237 0.6232 0.6228
2756.000000 0.6223 0.6218 0.6214 0.6209 0.6204
2761.000000 0.6200 0.6195 0.6190 0.6185 0.6181
2766.000000 0.6176 0.6171 0.6166 0.6160 0.6156
2771.000000 0.6152 0.6147 0.6142 0.6137 0.6132
2776.000000 0.6127 0.6122 0.6115 0.6102 0.6088
2781.000000 0.6075 0.6060 0.6048 0.6034 0.6020
2786.000000 0.6007 0.5993 0.5980 0.5966 0.5953
2791.000000 0.5937 0.5921 0.5904 0.5887 0.5870
2796.000000 0.5853 0.5836 0.5818 0.5801 0.5784
2801.000000 0.5767 0.5750 0.5733 0.5716 0.5699
2806.000000 0.5677 0.5631 0.5584 0.5538 0.5500
2811.000000 0.5460 0.5423 0.5390 0.5357 0.5325
2816.000000 0.5292 0.5260 0.5228 0.5189 0.5142
2821.000000 0.5096 0.5051 0.5010 0.4970 0.4930
2826.000000 0.4898 0.4867 0.4835 0.4781 0.4725
2831.000000 0.4670 0.4569 0.4452 0.4335 0.4218
2836.000000 0.4102 0.3984 0.3868 0.3752 0.3636
2841.000000 0.3520 0.3404 0.3288 0.3172 0.3056
2846.000000 0.2940 0.2825 0.2709 0.2593 0.2478
2851.000000 0.2359 0.2233 0.2108 0.1991 0.1936
2856.000000 0.1883 0.1829 0.1792 0.1758 0.1724
2861.000000 0.1620 0.1467 0.1315 0.1202 0.1180
2866.000000 0.1157 0.1135 0.1118 0.1101 0.1084
2871.000000 0.1074 0.1066 0.1058 0.1050 0.1042
2876.000000 0.1034 0.1027 0.1019 0.1011 0.1004
2881.000000 0.0996 0.0988 0.0980 0.0972 0.0965
2886.000000 0.0957 0.0949 0.0938 0.0928 0.0917
2891.000000 0.0906 0.0895 0.0883 0.0872 0.0860
2896.000000 0.0849 0.0837 0.0822 0.0809 0.0795
2901.000000 0.0779 0.0762 0.0745 0.0728 0.0711
2906.000000 0.0694 0.0677 0.0663 0.0649 0.0636
2911.000000 0.0622 0.0609 0.0595 0.0582 0.0569
2916.000000 0.0555 0.0542 0.0528 0.0515 0.0502
2921.000000 0.0489 0.0477 0.0467 0.0455 0.0445
2926.000000 0.0435 0.0425 0.0417 0.0410 0.0404
2931.000000 0.0398 0.0395 0.0392 0.0388 0.0387
2936.000000 0.0387 0.0387 0.0387 0.0388 0.0390
2941.000000 0.0391 0.0393 0.0395 0.0396 0.0399
2946.000000 0.0404 0.0409 0.0414 0.0421 0.0430
2951.000000 0.0439 0.0455 0.0483 0.0510 0.0538
2956.000000 0.0584 0.0630 0.0677 0.0724 0.0771
2961.000000 0.0818 0.0865 0.0911 0.0958 0.1005
2966.000000 0.1051 0.1098 0.1144 0.1191 0.1237
2971.000000 0.1284 0.1330 0.1377 0.1423 0.1469
2976.000000 0.1516 0.1562 0.1608 0.1654 0.1701
2981.000000 0.1746 0.1793 0.1840 0.1890 0.1941
2986.000000 0.1992 0.2044 0.2099 0.2153 0.2208
2991.000000 0.2249 0.2280 0.2311 0.2342 0.2362
2996.000000 0.2381 0.2401 0.2415 0.2423 0.2430
3001.000000 0.2437 0.2444 0.2451 0.2458 0.2464
3006.000000 0.2467 0.2470 0.2473 0.2475 0.2476
3011.000000 0.2477 0.2477 0.2478 0.2479 0.2479
3016.000000 0.2479 0.2477 0.2474 0.2472 0.2469
3021.000000 0.2466 0.2463 0.2459 0.2451 0.2443
3026.000000 0.2435 0.2428 0.2420 0.2412 0.2405
3031.000000 0.2392 0.2376 0.2360 0.2344 0.2325
3036.000000 0.2306 0.2285 0.2266 0.2245 0.2224
3041.000000 0.2202 0.2184 0.2169 0.2153 0.2138
3046.000000 0.2131 0.2125 0.2118 0.2113 0.2112
3051.000000 0.2111 0.2109 0.2109 0.2109 0.2109
3056.000000 0.2109 0.2110 0.2110 0.2111 0.2112
3061.000000 0.2113 0.2114 0.2115 0.2116 0.2119
3066.000000 0.2121 0.2123 0.2127 0.2132 0.2137
3071.000000 0.2142 0.2161 0.2184 0.2208 0.2232
3076.000000 0.2258 0.2283 0.2309 0.2334 0.2358
3081.000000 0.2381 0.2404 0.2427 0.2451 0.2474
3086.000000 0.2497 0.2520 0.2543 0.2565 0.2588
3091.000000 0.2602 0.2613 0.2625 0.2635 0.2645
3096.000000 0.2654 0.2663 0.2673 0.2683 0.2693
3101.000000 0.2704 0.2712 0.2712 0.2712 0.2712
3106.000000 0.2713 0.2713 0.2713 0.2713 0.2714
3111.000000 0.2714 0.2714 0.2714 0.2715 0.2715
3116.000000 0.2715 0.2715 0.2716 0.2716 0.2716
3121.000000 0.2716 0.2716 0.2715 0.2714 0.2713
3126.000000 0.2711 0.2710 0.2709 0.2708 0.2708
3131.000000 0.2709 0.2710 0.2711 0.2713 0.2714
3136.000000 0.2716 0.2719 0.2723 0.2728 0.2733
3141.000000 0.2738 0.2743 0.2748 0.2752 0.2760
3146.000000 0.2773 0.2785 0.2799 0.2818 0.2845
3151.000000 0.2872 0.2899 0.2931 0.2971 0.3011
3156.000000 0.3051 0.3095 0.3145 0.3195 0.3245
3161.000000 0.3289 0.3327 0.3364 0.3403 0.3432
3166.000000 0.3448 0.3462 0.3479 0.3495 0.3510
3171.000000 0.3527 0.3543 0.3559 0.3575 0.3590
3176.000000 0.3606 0.3618 0.3627 0.3636 0.3645
3181.000000 0.3653 0.3659 0.3666 0.3674 0.3680
3186.000000 0.3687 0.3693 0.3693 0.3693 0.3703
3191.000000 0.3703 0.3703 0.3702 0.3702 0.3702
3196.000000 0.3702 0.3700 0.3697 0.3693 0.3690
3201.000000 0.3686 0.3678 0.3671 0.3664 0.3656
3206.000000 0.3648 0.3639 0.3630 0.3621 0.3600
3211.000000 0.3576 0.3552 0.3527 0.3497 0.3464
3216.000000 0.3430 0.3397 0.3366 0.3338 0.3309
3221.000000 0.3280 0.3256 0.3236 0.3216 0.3197
3226.000000 0.3178 0.3162 0.3146 0.3130 0.3114
3231.000000 0.3105 0.3095 0.3085 0.3076 0.3071
3236.000000 0.3068 0.3064 0.3061 0.3060 0.3060
3241.000000 0.3060 0.3060 0.3051 0.3062 0.3063
3246.000000 0.3065 0.3066 0.3067 0.3068 0.3069
3251.000000 0.3071 0.3072 0.3074 0.3076 0.3078
3256.000000 0.3081 0.3084 0.3085 0.3089 0.3093
3261.000000 0.3097 0.3101 0.3106 0.3111 0.3121
3266.000000 0.3130 0.3139 0.3149 0.3158 0.3168
3271.000000 0.3178 0.3187 0.3198 0.3209 0.3222
3276.000000 0.3232 0.3245 0.3258 0.3270 0.3282
3281.000000 0.3296 0.3308 0.3321 0.3332 0.3346
3286.000000 0.3358 0.3370 0.3382 0.3394 0.3406
3291.000000 0.3416 0.3429 0.3441 0.3453 0.3464
3296.000000 0.3476 0.3488 0.3500 0.3510 0.3521
3301.000000 0.3532 0.3543 0.3554 0.3564 0.3576
3306.000000 0.3587 0.3598 0.3609 0.3618 0.3630
3311.000000 0.3641 0.3652 0.3662 0.3673 0.3684
3316.000000 0.3697 0.3712 0.3727 0.3742 0.3757
3321.000000 0.3772 0.3787 0.3802 0.3816 0.3844
3326.000000 0.3882 0.3918 0.3957 0.3993 0.4018
3331.000000 0.4045 0.4071 0.4097 0.4117 0.4134
3336.000000 0.4152 0.4169 0.4186 0.4204 0.4221
3341.000000 0.4239 0.4256 0.4310 0.4375 0.4440
3346.000000 0.4505 0.4557 0.4579 0.4600 0.4621
3351.000000 0.4642 0.4662 0.4683 0.4703 0.4723
3356.000000 0.4742 0.4755 0.4769 0.4783 0.4797
3361.000000 0.4810 0.4824 0.4838 0.4852 0.4866
3366.000000 0.4880 0.4894 0.4909 0.4923 0.4938
3371.000000 0.4955 0.4971 0.4987 0.5003 0.5014
3376.000000 0.5026 0.5038 0.5050 0.5057 0.5060
3381.000000 0.5064 0.5068 0.5072 0.5075 0.5079
3386.000000 0.5083 0.5087 0.5090 0.5094 0.5097
3391.000000 0.5101 0.5104 0.5108 0.5112 0.5116
3396.000000 0.5120 0.5124 0.5128 0.5132 0.5137
3401.000000 0.5141 0.5145 0.5150 0.5154 0.5158
3406.000000 0.5162 0.5167 0.5171 0.5175 0.5180
3411.000000 0.5184 0.5190 0.5195 0.5201 0.5206
3416.000000 0.5212 0.5219 0.5225 0.5232 0.5239
3421.000000 0.5245 0.5252 0.5259 0.5265 0.5272
3426.000000 0.5278 0.5284 0.5291 0.5297 0.5304
3431.000000 0.5310 0.5317 0.5323 0.5330 0.5339
3436.000000 0.5348 0.5357 0.5366 0.5375 0.5384
3441.000000 0.5394 0.5403 0.5412 0.5421 0.5430
3446.000000 0.5439 0.5449 0.5458 0.5467 0.5476
3451.000000 0.5485 0.5494 0.5503 0.5510 0.5517
3456.000000 0.5525 0.5532 0.5539 0.5546 0.5553
3461.000000 0.5559 0.5566 0.5573 0.5580 0.5587
3466.000000 0.5595 0.5602 0.5607 0.5612 0.5617
3471.000000 0.5622 0.5626 0.5629 0.5632 0.5634
3476.000000 0.5637 0.5639 0.5642 0.5644 0.5646
3481.000000 0.5648 0.5651 0.5653 0.5656 0.5658
3486.000000 0.5660 0.5660 0.5660 0.5660 0.5660
3491.000000 0.5659 0.5658 0.5658 0.5657 0.5656
3496.000000 0.5656 0.5655 0.5653 0.5652 0.5651
3501.000000 0.5649 0.5647 0.5645 0.5643 0.5640
3506.000000 0.5638 0.5636 0.5634 0.5631 0.5629
3511.000000 0.5627 0.5625 0.5623 0.5620 0.5618
3516.000000 0.5616 0.5612 0.5610 0.5608 0.5605
3521.000000 0.5603 0.5599 0.5595 0.5592 0.5588
3526.000000 0.5584 0.5580 0.5577 0.5573 0.5569
3531.000000 0.5566 0.5562 0.5558 0.5554 0.5551
3536.000000 0.5547 0.5543 0.5540 0.5536 0.5532
3541.000000 0.5529 0.5525 0.5521 0.5517 0.5514
3546.000000 0.5510 0.5505 0.5500 0.5495 0.5489
3551.000000 0.5484 0.5479 0.5473 0.5468 0.5462
3556.000000 0.5457 0.5451 0.5445 0.5440 0.5434
3561.000000 0.5429 0.5424 0.5418 0.5412 0.5408
3566.000000 0.5402 0.5398 0.5395 0.5392 0.5388
3571.000000 0.5385 0.5383 0.5383 0.5383 0.5383
3576.000000 0.5383 0.5383 0.5384 0.5384 0.5385
3581.000000 0.5386 0.5387 0.5389 0.5391 0.5392
3586.000000 0.5394 0.5396 0.5399 0.5401 0.5404
3591.000000 0.5406 0.5409 0.5410 0.5414 0.5416
3596.000000 0.5419 0.5421 0.5429 0.5438 0.5447
3601.000000 0.5456 0.5465 0.5479 0.5495 0.5510
3606.000000 0.5526 0.5542 0.5558 0.5574 0.5590
3611.000000 0.5606 0.5622 0.5638 0.5654 0.5670
3616.000000 0.5686 0.5702 0.5717 0.5733 0.5749
3621.000000 0.5765 0.5781 0.5797 0.5812 0.5828
3626.000000 0.5843 0.5859 0.5875 0.5890 0.5906
3631.000000 0.5922 0.5937 0.5953 0.5969 0.5985
3636.000000 0.6000 0.6016 0.6032 0.6047 0.6062
3641.000000 0.6079 0.6094 0.6110 0.6126 0.6141
3646.000000 0.6157 0.6172 0.6188 0.6204 0.6219
3651.000000 0.6235 0.6250 0.6266 0.6281 0.6297
3656.000000 0.6312 0.6328 0.6343 0.6358 0.6374
3661.000000 0.6389 0.6404 0.6419 0.6435 0.6451
3666.000000 0.6465 0.6482 0.6497 0.6512 0.6528
3671.000000 0.6543 0.6561 0.6580 0.6598 0.6615
3676.000000 0.6634 0.6651 0.6669 0.6688 0.6706
3681.000000 0.6724 0.6741 0.6751 0.6761 0.6769
3686.000000 0.6780 0.6790 0.6799 0.6808 0.6815
3691.000000 0.6825 0.6833 0.6841 0.6848 0.6855
3696.000000 0.6861 0.6868 0.6875 0.6878 0.6882
3701.000000 0.6886 0.6889 0.6892 0.6895 0.6897
3706.000000 0.6900 0.6901 0.6904 0.6906 0.6906
3711.000000 0.6906 0.6905 0.6904 0.6904 0.6903
3716.000000 0.6903 0.6901 0.6901 0.6901 0.6901
3721.000000 0.6900 0.6900 0.6900 0.6899 0.6899
3726.000000 0.6898 0.6898 0.6897 0.6897 0.6896
3731.000000 0.6896 0.6895 0.6893 0.6892 0.6891
3736.000000 0.6890 0.6888 0.6886 0.6884 0.6882
3741.000000 0.6880 0.6878 0.6875 0.6874 0.6871
3746.000000 0.6868 0.6865 0.6862 0.6858 0.6854
3751.000000 0.6850 0.6845 0.6841 0.6836 0.6832
3756.000000 0.6828 0.6824 0.6819 0.6815 0.6811
3761.000000 0.6808 0.6805 0.6801 0.6797 0.6794
3766.000000 0.6790 0.6786 0.6782 0.6778 0.6774
3771.000000 0.6769 0.6767 0.6762 0.6758 0.6755
3776.000000 0.6751 0.6749 0.6747 0.6745 0.6743
3781.000000 0.6742 0.6740 0.6739 0.6738 0.6737
3786.000000 0.6735 0.6734 0.6733 0.6733 0.6733
3791.000000 0.6732 0.6732 0.6732 0.6731 0.6731
3796.000000 0.6730 0.6730 0.6728 0.6728 0.6728
3801.000000 0.6728 0.6726 0.6726 0.6725 0.6725
3806.000000 0.6725 0.6725 0.6724 0.6724 0.6722
3811.000000 0.6721 0.6721 0.6721 0.6721 0.6721
3816.000000 0.6721 0.6719 0.6719 0.6719 0.6719
3821.000000 0.6719 0.6719 0.6718 0.6718 0.6718
3826.000000 0.6718 0.6718 0.6718 0.6718 0.6718
3831.000000 0.6718 0.6717 0.6717 0.6717 0.6715
3836.000000 0.6715 0.6715 0.6715 0.6715 0.6715
3841.000000 0.6715 0.6715 0.6715 0.6714 0.6714
3846.000000 0.6714 0.6712 0.6711 0.6710 0.6708
3851.000000 0.6708 0.6707 0.6704 0.6701 0.6699
3856.000000 0.6696 0.6693 0.6691 0.6688 0.6685
3861.000000 0.6683 0.6680 0.6676 0.6674 0.6671
3866.000000 0.6668 0.6665 0.6662 0.6660 0.6657
3871.000000 0.6653 0.6649 0.6645 0.6641 0.6637
3876.000000 0.6633 0.6628 0.6625 0.6619 0.6615
3881.000000 0.6611 0.6607 0.6603 0.6599 0.6595
3886.000000 0.6591 0.6587 0.6583 0.6578 0.6574
3891.000000 0.6569 0.6565 0.6561 0.6557 0.6554
3896.000000 0.6550 0.6547 0.6544 0.6541 0.6538
3901.000000 0.6535 0.6533 0.6530 0.6528 0.6525
3906.000000 0.6522 0.6521 0.6518 0.6515 0.6512
3911.000000 0.6511 0.6508 0.6506 0.6503 0.6501
3916.000000 0.6499 0.6496 0.6494 0.6491 0.6489
3921.000000 0.6486 0.6484 0.6482 0.6478 0.6476
3926.000000 0.6475 0.6472 0.6471 0.6468 0.6467
3931.000000 0.6465 0.6464 0.6461 0.6461 0.6458
3936.000000 0.6458 0.6457 0.6455 0.6454 0.6451
3941.000000 0.6451 0.6449 0.6448 0.6446 0.6445
3946.000000 0.6443 0.6441 0.6440 0.6438 0.6437
3951.000000 0.6435 0.6434 0.6432 0.6431 0.6430
3956.000000 0.6428 0.6426 0.6425 0.6424 0.6421
3961.000000 0.6421 0.6418 0.6418 0.6415 0.6415
3966.000000 0.6412 0.6411 0.6410 0.6408 0.6407
3971.000000 0.6406 0.6404 0.6403 0.6401 0.6400
3976.000000 0.6398 0.6397 0.6396 0.6394 0.6393
3981.000000 0.6391 0.6390 0.6389 0.6387 0.6386
3986.000000 0.6384 0.6383 0.6381 0.6380 0.6379
3991.000000 0.6377 0.6376 0.6374 0.6373 0.6371
3996.000000 0.6370 0.6368 0.6367 0.6365 0.6364
##END=
