##TITLE=Cyclohexane-1,4-diamine, 2-isopropyl-5-methyl-, dihydrochloride
##JCAMP-DX=4.24
##DATA TYPE=INFRARED SPECTRUM
##CLASS=COBLENTZ III
##ORIGIN=BRITISH PETROLEUM CO. LTD., ENGLAND
##OWNER=Copyright (C) 1987 by the Coblentz Society
Collection (C) 2018 copyright by the U.S. Secretary of Commerce
on behalf of the United States of America. All rights reserved.
##DATE=1972/07/27
##NAMES=1,4-cyclohexanediamine, 2-isopropyl-5-methyl-, dihydrochloride
##MOLFORM=C10 H24 Cl2 N2
##SOURCE REFERENCE=COBLENTZ NO. 9353
##$NIST ID=B6009353
##$NIST SOURCE=COBLENTZ
##$NIST IMAGE=cob9353
##SPECTROMETER/DATA SYSTEM=PERKIN-ELMER 157
##STATE=SOLID (KBr DISC, 0.8% WT.)
$$ HCl RUN IN KBr MAY CONTAIN SOME HBr
$$ REF. Can. J. Spec., 18,4,101, '73 C. S. DOUSE and P. B. TOOKE
##SAMPLING PROCEDURE=TRANSMISSION
##RESOLUTION=2
##DATA PROCESSING=DIGITIZED BY COBLENTZ SOCIETY (BATCH II) FROM HARD COPY
##XUNITS=1/CM
##YUNITS=TRANSMITTANCE
##XFACTOR=1.0
##YFACTOR=1
##FIRSTX=668
##LASTX=4000
##FIRSTY=0.9427
##MAXX=4000
##MINX=668
##MAXY=0.9426
##MINY=0.0307
##NPOINTS=3333
##XYDATA=(X++(Y..Y))
668.000000 0.9427 0.9425 0.9424 0.9417 0.9411
673.000000 0.9426 0.9382 0.9356 0.9323 0.9289
678.000000 0.9260 0.9232 0.9204 0.9180 0.9156
683.000000 0.9132 0.9099 0.9064 0.9029 0.8997
688.000000 0.8965 0.8933 0.8902 0.8875 0.8849
693.000000 0.8823 0.8795 0.8767 0.8739 0.8698
698.000000 0.8656 0.8612 0.8552 0.8481 0.8353
703.000000 0.8231 0.8033 0.7798 0.7489 0.7338
708.000000 0.7235 0.7233 0.7208 0.7521 0.7825
713.000000 0.8129 0.8306 0.8406 0.8470 0.8508
718.000000 0.8529 0.8535 0.8551 0.8539 0.8536
723.000000 0.8534 0.8531 0.8527 0.8522 0.8523
728.000000 0.8526 0.8529 0.8530 0.8526 0.8513
733.000000 0.8498 0.8482 0.8466 0.8449 0.8432
738.000000 0.8416 0.8400 0.8384 0.8369 0.8353
743.000000 0.8341 0.8327 0.8314 0.8306 0.8301
748.000000 0.8297 0.8294 0.8293 0.8290 0.8275
753.000000 0.8261 0.8230 0.8192 0.8133 0.8056
758.000000 0.7955 0.7841 0.7719 0.7568 0.7387
763.000000 0.7205 0.7086 0.7082 0.7253 0.7673
768.000000 0.7798 0.7864 0.7914 0.7938 0.7948
773.000000 0.7951 0.7942 0.7950 0.7947 0.7938
778.000000 0.7927 0.7913 0.7898 0.7880 0.7862
783.000000 0.7844 0.7831 0.7816 0.7802 0.7791
788.000000 0.7784 0.7778 0.7777 0.7780 0.7784
793.000000 0.7787 0.7790 0.7792 0.7794 0.7796
798.000000 0.7790 0.7781 0.7765 0.7737 0.7710
803.000000 0.7686 0.7669 0.7658 0.7648 0.7644
808.000000 0.7643 0.7640 0.7637 0.7632 0.7615
813.000000 0.7551 0.7496 0.7465 0.7413 0.7375
818.000000 0.7363 0.7362 0.7357 0.7396 0.7443
823.000000 0.7494 0.7529 0.7528 0.7525 0.7523
828.000000 0.7521 0.7518 0.7512 0.7506 0.7500
833.000000 0.7497 0.7492 0.7489 0.7484 0.7493
838.000000 0.7476 0.7472 0.7468 0.7464 0.7460
843.000000 0.7456 0.7452 0.7448 0.7444 0.7445
848.000000 0.7446 0.7446 0.7439 0.7423 0.7390
853.000000 0.7353 0.7313 0.7278 0.7245 0.7214
858.000000 0.7198 0.7186 0.7178 0.7171 0.7166
863.000000 0.7160 0.7156 0.7154 0.7152 0.7151
868.000000 0.7150 0.7150 0.7152 0.7154 0.7156
873.000000 0.7158 0.7160 0.7161 0.7159 0.7156
878.000000 0.7128 0.7061 0.6971 0.6850 0.6727
883.000000 0.6641 0.6561 0.6513 0.6517 0.6521
888.000000 0.6707 0.6916 0.7132 0.7158 0.7118
893.000000 0.7084 0.7041 0.7016 0.7000 0.6990
898.000000 0.6990 0.6996 0.7019 0.7060 0.7072
903.000000 0.7065 0.7030 0.6972 0.6897 0.6807
908.000000 0.6772 0.6766 0.6747 0.6906 0.7140
913.000000 0.7373 0.7547 0.7633 0.7652 0.7654
918.000000 0.7661 0.7607 0.7556 0.7504 0.7469
923.000000 0.7463 0.7452 0.7398 0.7317 0.7238
928.000000 0.7152 0.7036 0.6920 0.6728 0.6532
933.000000 0.6363 0.6076 0.5790 0.5498 0.5426
938.000000 0.5352 0.5222 0.5054 0.4904 0.4875
943.000000 0.4937 0.4847 0.5452 0.5754 0.6057
948.000000 0.6264 0.6274 0.6277 0.6258 0.6238
953.000000 0.6184 0.6098 0.5994 0.5897 0.5756
958.000000 0.5433 0.5074 0.4850 0.4831 0.4815
963.000000 0.4791 0.4696 0.4583 0.4545 0.4542
968.000000 0.4535 0.5425 0.5951 0.6421 0.6620
973.000000 0.6827 0.6952 0.7067 0.7166 0.7178
978.000000 0.7185 0.7214 0.7297 0.7400 0.7475
983.000000 0.7491 0.7496 0.7497 0.7517 0.7466
988.000000 0.7427 0.7393 0.7360 0.7320 0.7277
993.000000 0.7223 0.7152 0.7062 0.7042 0.7017
998.000000 0.6981 0.6678 0.6377 0.6074 0.5773
1003.000000 0.5484 0.5345 0.5220 0.5114 0.5062
1008.000000 0.5049 0.5046 0.5034 0.5067 0.5088
1013.000000 0.5171 0.5407 0.5645 0.5883 0.6120
1018.000000 0.6357 0.6593 0.6828 0.7008 0.7055
1023.000000 0.7105 0.7141 0.7152 0.7150 0.7149
1028.000000 0.7122 0.7102 0.7078 0.7048 0.7018
1033.000000 0.6982 0.6942 0.6897 0.6853 0.6801
1038.000000 0.6745 0.6683 0.6615 0.6505 0.6174
1043.000000 0.5776 0.5407 0.5150 0.5144 0.5155
1048.000000 0.5601 0.5903 0.5983 0.5998 0.6026
1053.000000 0.6065 0.6116 0.6199 0.6264 0.6342
1058.000000 0.6474 0.6609 0.6686 0.6719 0.6728
1063.000000 0.6737 0.6836 0.7043 0.7171 0.7204
1068.000000 0.7231 0.7246 0.7255 0.7264 0.7267
1073.000000 0.7275 0.7271 0.7268 0.7261 0.7243
1078.000000 0.7224 0.7195 0.7153 0.7121 0.7090
1083.000000 0.7064 0.7054 0.7051 0.7050 0.7048
1088.000000 0.7048 0.7053 0.7057 0.7062 0.7068
1093.000000 0.7076 0.7085 0.7093 0.7101 0.7110
1098.000000 0.7118 0.7126 0.7122 0.7118 0.7114
1103.000000 0.7107 0.7098 0.7089 0.7076 0.7064
1108.000000 0.7050 0.7032 0.7009 0.6988 0.6966
1113.000000 0.6945 0.6926 0.6915 0.6908 0.6900
1118.000000 0.6890 0.6867 0.6843 0.6818 0.6782
1123.000000 0.6743 0.6688 0.6633 0.6566 0.6480
1128.000000 0.6355 0.6268 0.6186 0.6106 0.5993
1133.000000 0.5813 0.5492 0.5188 0.4885 0.4583
1138.000000 0.4282 0.3981 0.3771 0.3768 0.3765
1143.000000 0.3768 0.3851 0.4034 0.4193 0.4223
1148.000000 0.4219 0.4188 0.4170 0.4169 0.4179
1153.000000 0.4316 0.4465 0.4615 0.4765 0.4915
1158.000000 0.5066 0.5125 0.5134 0.5131 0.5106
1163.000000 0.5011 0.4821 0.4622 0.4423 0.4225
1168.000000 0.4027 0.3830 0.3633 0.3438 0.3271
1173.000000 0.3087 0.2814 0.2179 0.1541 0.1424
1178.000000 0.1413 0.1414 0.1418 0.1465 0.1682
1183.000000 0.2051 0.2418 0.2785 0.3152 0.3518
1188.000000 0.3883 0.4247 0.4611 0.4902 0.5002
1193.000000 0.5016 0.5022 0.5012 0.4974 0.4881
1198.000000 0.4622 0.4325 0.4029 0.3733 0.3438
1203.000000 0.3143 0.2849 0.2611 0.2581 0.2594
1208.000000 0.2624 0.2653 0.2671 0.2688 0.2812
1213.000000 0.3160 0.3507 0.3853 0.4199 0.4544
1218.000000 0.4888 0.5233 0.5576 0.5825 0.5916
1223.000000 0.5923 0.5918 0.5898 0.5796 0.5582
1228.000000 0.5361 0.5142 0.4923 0.4703 0.4485
1233.000000 0.4267 0.4049 0.3831 0.3614 0.3503
1238.000000 0.3510 0.3602 0.4042 0.4480 0.4917
1243.000000 0.5354 0.5791 0.6130 0.6252 0.6321
1248.000000 0.6359 0.6374 0.6381 0.6384 0.6383
1253.000000 0.6399 0.6377 0.6369 0.6353 0.6323
1258.000000 0.6276 0.6213 0.6137 0.6060 0.5983
1263.000000 0.5882 0.5767 0.5647 0.5386 0.5098
1268.000000 0.4811 0.4525 0.4283 0.4235 0.4235
1273.000000 0.4304 0.4385 0.4459 0.4476 0.4398
1278.000000 0.4145 0.3892 0.3640 0.3389 0.3136
1283.000000 0.3005 0.3009 0.3075 0.3467 0.3944
1288.000000 0.4420 0.4895 0.5371 0.5723 0.5726
1293.000000 0.5725 0.5719 0.5655 0.5430 0.5172
1298.000000 0.4915 0.4659 0.4403 0.4195 0.4152
1303.000000 0.4279 0.4570 0.4862 0.5153 0.5444
1308.000000 0.5734 0.5975 0.6023 0.6053 0.6043
1313.000000 0.6042 0.6035 0.6021 0.6003 0.5969
1318.000000 0.5928 0.5883 0.5843 0.5836 0.5833
1323.000000 0.5831 0.5814 0.5645 0.5522 0.5334
1328.000000 0.5177 0.5075 0.4963 0.4692 0.4374
1333.000000 0.4056 0.3739 0.3421 0.3130 0.3062
1338.000000 0.3125 0.3252 0.3393 0.3534 0.3675
1343.000000 0.3761 0.3770 0.3725 0.3676 0.3628
1348.000000 0.3578 0.3541 0.3554 0.3757 0.4105
1353.000000 0.4452 0.4750 0.4849 0.4857 0.4860
1358.000000 0.4862 0.4674 0.4536 0.4398 0.4259
1363.000000 0.4121 0.3983 0.3846 0.3712 0.3580
1368.000000 0.3198 0.2798 0.2397 0.1997 0.1690
1373.000000 0.1615 0.1564 0.1511 0.1457 0.1379
1378.000000 0.1232 0.1161 0.1152 0.1152 0.1157
1383.000000 0.1228 0.1524 0.1838 0.2151 0.2464
1388.000000 0.2677 0.2687 0.2695 0.2671 0.2519
1393.000000 0.2339 0.2160 0.1980 0.1800 0.1621
1398.000000 0.1442 0.1263 0.1118 0.1145 0.1430
1403.000000 0.1824 0.2218 0.2611 0.3004 0.3396
1408.000000 0.3788 0.4179 0.4570 0.4894 0.4928
1413.000000 0.4933 0.4936 0.4926 0.4913 0.4892
1418.000000 0.4856 0.4814 0.4770 0.4725 0.4679
1423.000000 0.4620 0.4553 0.4488 0.4425 0.4360
1428.000000 0.4283 0.4139 0.3948 0.3757 0.3567
1433.000000 0.3376 0.3186 0.2996 0.2807 0.2617
1438.000000 0.2461 0.2394 0.2209 0.2060 0.1919
1443.000000 0.1778 0.1638 0.1498 0.1358 0.1218
1448.000000 0.1078 0.0946 0.0914 0.0910 0.0922
1453.000000 0.1047 0.1292 0.1454 0.1487 0.1497
1458.000000 0.1506 0.1513 0.1518 0.1516 0.1511
1463.000000 0.1507 0.1516 0.1575 0.1649 0.1715
1468.000000 0.1821 0.1944 0.2066 0.2188 0.2310
1473.000000 0.2432 0.2554 0.2675 0.2795 0.2884
1478.000000 0.2927 0.2975 0.3018 0.3043 0.3052
1483.000000 0.3044 0.3050 0.3003 0.2861 0.2691
1488.000000 0.2521 0.2350 0.2180 0.2010 0.1841
1493.000000 0.1672 0.1503 0.1334 0.1165 0.0996
1498.000000 0.0840 0.0777 0.0697 0.0561 0.0394
1503.000000 0.0333 0.0318 0.0366 0.0397 0.0414
1508.000000 0.0430 0.0444 0.0456 0.0464 0.0467
1513.000000 0.0466 0.0466 0.0471 0.0504 0.0660
1518.000000 0.0825 0.0990 0.1154 0.1319 0.1483
1523.000000 0.1647 0.1811 0.1974 0.2137 0.2301
1528.000000 0.2463 0.2626 0.2789 0.2951 0.3113
1533.000000 0.3276 0.3437 0.3598 0.3760 0.3921
1538.000000 0.4081 0.4242 0.4402 0.4562 0.4722
1543.000000 0.4768 0.4775 0.4783 0.4789 0.4795
1548.000000 0.4801 0.4806 0.4811 0.4817 0.4817
1553.000000 0.4816 0.4837 0.4796 0.4766 0.4736
1558.000000 0.4710 0.4683 0.4656 0.4628 0.4602
1563.000000 0.4578 0.4556 0.4534 0.4491 0.4400
1568.000000 0.4288 0.4176 0.4065 0.3954 0.3843
1573.000000 0.3732 0.3621 0.3515 0.3453 0.3386
1578.000000 0.3239 0.3047 0.2848 0.2649 0.2452
1583.000000 0.2254 0.2056 0.1858 0.1661 0.1464
1588.000000 0.1267 0.1071 0.0844 0.0665 0.0585
1593.000000 0.0547 0.0523 0.0506 0.0497 0.0495
1598.000000 0.0493 0.0491 0.0492 0.0493 0.0496
1603.000000 0.0501 0.0483 0.0517 0.0530 0.0545
1608.000000 0.0563 0.0586 0.0610 0.0635 0.0662
1613.000000 0.0689 0.0729 0.0786 0.0883 0.1110
1618.000000 0.1346 0.1583 0.1819 0.2056 0.2291
1623.000000 0.2483 0.2588 0.2705 0.2861 0.3018
1628.000000 0.3174 0.3330 0.3485 0.3614 0.3673
1633.000000 0.3778 0.3842 0.3911 0.4373 0.4561
1638.000000 0.4658 0.4717 0.4763 0.4850 0.4947
1643.000000 0.5021 0.5095 0.5169 0.5242 0.5316
1648.000000 0.5389 0.5463 0.5536 0.5610 0.5683
1653.000000 0.5762 0.5830 0.5871 0.5896 0.5917
1658.000000 0.5931 0.5942 0.5954 0.5966 0.5983
1663.000000 0.6001 0.6024 0.6049 0.6077 0.6107
1668.000000 0.6141 0.6175 0.6208 0.6235 0.6263
1673.000000 0.6290 0.6317 0.6342 0.6365 0.6389
1678.000000 0.6412 0.6438 0.6470 0.6501 0.6524
1683.000000 0.6538 0.6549 0.6560 0.6571 0.6579
1688.000000 0.6584 0.6589 0.6593 0.6597 0.6601
1693.000000 0.6603 0.6606 0.6609 0.6611 0.6614
1698.000000 0.6617 0.6619 0.6621 0.6623 0.6626
1703.000000 0.6628 0.6629 0.6631 0.6634 0.6646
1708.000000 0.6664 0.6682 0.6702 0.6731 0.6759
1713.000000 0.6803 0.6851 0.6891 0.6921 0.6940
1718.000000 0.6949 0.6957 0.6964 0.6968 0.6969
1723.000000 0.6970 0.6971 0.6972 0.6974 0.6978
1728.000000 0.6986 0.6996 0.7011 0.7026 0.7041
1733.000000 0.7055 0.7066 0.7075 0.7085 0.7095
1738.000000 0.7104 0.7113 0.7122 0.7131 0.7142
1743.000000 0.7153 0.7165 0.7176 0.7184 0.7191
1748.000000 0.7198 0.7205 0.7212 0.7220 0.7227
1753.000000 0.7234 0.7242 0.7262 0.7290 0.7320
1758.000000 0.7344 0.7352 0.7357 0.7363 0.7368
1763.000000 0.7371 0.7374 0.7376 0.7379 0.7381
1768.000000 0.7383 0.7384 0.7385 0.7385 0.7386
1773.000000 0.7386 0.7386 0.7386 0.7386 0.7386
1778.000000 0.7386 0.7387 0.7387 0.7387 0.7387
1783.000000 0.7386 0.7385 0.7384 0.7383 0.7382
1788.000000 0.7382 0.7381 0.7380 0.7379 0.7378
1793.000000 0.7377 0.7376 0.7375 0.7374 0.7374
1798.000000 0.7372 0.7369 0.7366 0.7362 0.7354
1803.000000 0.7342 0.7329 0.7317 0.7305 0.7293
1808.000000 0.7281 0.7270 0.7264 0.7261 0.7259
1813.000000 0.7256 0.7255 0.7253 0.7252 0.7250
1818.000000 0.7250 0.7242 0.7233 0.7223 0.7214
1823.000000 0.7205 0.7192 0.7176 0.7160 0.7154
1828.000000 0.7149 0.7145 0.7140 0.7135 0.7130
1833.000000 0.7126 0.7126 0.7124 0.7123 0.7122
1838.000000 0.7122 0.7120 0.7119 0.7118 0.7116
1843.000000 0.7114 0.7113 0.7111 0.7108 0.7104
1848.000000 0.7099 0.7095 0.7091 0.7086 0.7081
1853.000000 0.7075 0.7068 0.7062 0.7055 0.7049
1858.000000 0.7042 0.7036 0.7028 0.7019 0.7006
1863.000000 0.6989 0.6971 0.6951 0.6928 0.6900
1868.000000 0.6892 0.6886 0.6881 0.6879 0.6877
1873.000000 0.6876 0.6875 0.6873 0.6872 0.6872
1878.000000 0.6872 0.6872 0.6870 0.6863 0.6856
1883.000000 0.6846 0.6835 0.6824 0.6808 0.6791
1888.000000 0.6772 0.6749 0.6724 0.6697 0.6671
1893.000000 0.6645 0.6619 0.6590 0.6562 0.6533
1898.000000 0.6504 0.6474 0.6443 0.6413 0.6382
1903.000000 0.6351 0.6321 0.6289 0.6257 0.6225
1908.000000 0.6192 0.6158 0.6123 0.6088 0.6052
1913.000000 0.6016 0.5984 0.5961 0.5941 0.5921
1918.000000 0.5901 0.5881 0.5864 0.5848 0.5832
1923.000000 0.5817 0.5801 0.5786 0.5770 0.5755
1928.000000 0.5738 0.5719 0.5698 0.5677 0.5656
1933.000000 0.5636 0.5612 0.5587 0.5560 0.5534
1938.000000 0.5507 0.5460 0.5406 0.5345 0.5225
1943.000000 0.5105 0.4983 0.4861 0.4759 0.4681
1948.000000 0.4642 0.4605 0.4567 0.4522 0.4476
1953.000000 0.4429 0.4383 0.4337 0.4291 0.4245
1958.000000 0.4198 0.4153 0.4107 0.4061 0.4015
1963.000000 0.3969 0.3923 0.3877 0.3832 0.3786
1968.000000 0.3741 0.3695 0.3650 0.3604 0.3559
1973.000000 0.3513 0.3468 0.3423 0.3377 0.3332
1978.000000 0.3287 0.3242 0.3197 0.3152 0.3107
1983.000000 0.3062 0.3017 0.2972 0.2928 0.2886
1988.000000 0.2847 0.2810 0.2776 0.2749 0.2729
1993.000000 0.2718 0.2709 0.2704 0.2701 0.2699
1998.000000 0.2697 0.2696 0.2696 0.2696 0.2696
2003.000000 0.2696 0.2696 0.2695 0.2695 0.2694
2008.000000 0.2695 0.2695 0.2696 0.2696 0.2697
2013.000000 0.2699 0.2699 0.2700 0.2701 0.2703
2018.000000 0.2705 0.2707 0.2709 0.2710 0.2712
2023.000000 0.2714 0.2716 0.2718 0.2720 0.2722
2028.000000 0.2726 0.2730 0.2735 0.2740 0.2746
2033.000000 0.2751 0.2757 0.2764 0.2772 0.2781
2038.000000 0.2791 0.2803 0.2814 0.2827 0.2849
2043.000000 0.2882 0.2926 0.2971 0.3017 0.3066
2048.000000 0.3147 0.3260 0.3374 0.3487 0.3600
2053.000000 0.3713 0.3825 0.3938 0.4050 0.4163
2058.000000 0.4275 0.4387 0.4499 0.4611 0.4720
2063.000000 0.4827 0.4931 0.4994 0.5028 0.5062
2068.000000 0.5095 0.5129 0.5163 0.5196 0.5230
2073.000000 0.5264 0.5297 0.5330 0.5364 0.5397
2078.000000 0.5431 0.5464 0.5497 0.5530 0.5564
2083.000000 0.5597 0.5630 0.5663 0.5696 0.5729
2088.000000 0.5762 0.5795 0.5829 0.5861 0.5893
2093.000000 0.5913 0.5933 0.5950 0.5964 0.5973
2098.000000 0.5982 0.5991 0.5997 0.6003 0.6008
2103.000000 0.6012 0.6017 0.6020 0.6023 0.6025
2108.000000 0.6028 0.6035 0.6045 0.6062 0.6088
2113.000000 0.6121 0.6155 0.6188 0.6221 0.6254
2118.000000 0.6287 0.6320 0.6354 0.6387 0.6420
2123.000000 0.6453 0.6486 0.6519 0.6551 0.6585
2128.000000 0.6616 0.6645 0.6668 0.6686 0.6699
2133.000000 0.6708 0.6717 0.6726 0.6737 0.6749
2138.000000 0.6765 0.6776 0.6779 0.6783 0.6787
2143.000000 0.6788 0.6789 0.6790 0.6792 0.6793
2148.000000 0.6795 0.6796 0.6797 0.6798 0.6799
2153.000000 0.6799 0.6800 0.6800 0.6801 0.6801
2158.000000 0.6801 0.6802 0.6802 0.6802 0.6802
2163.000000 0.6803 0.6803 0.6803 0.6803 0.6803
2168.000000 0.6803 0.6802 0.6802 0.6802 0.6802
2173.000000 0.6801 0.6801 0.6801 0.6800 0.6800
2178.000000 0.6827 0.6800 0.6799 0.6799 0.6799
2183.000000 0.6799 0.6798 0.6797 0.6795 0.6792
2188.000000 0.6789 0.6786 0.6781 0.6777 0.6773
2193.000000 0.6768 0.6764 0.6760 0.6755 0.6750
2198.000000 0.6743 0.6736 0.6729 0.6722 0.6715
2203.000000 0.6708 0.6701 0.6694 0.6686 0.6679
2208.000000 0.6672 0.6665 0.6657 0.6651 0.6645
2213.000000 0.6644 0.6644 0.6644 0.6645 0.6646
2218.000000 0.6647 0.6648 0.6649 0.6651 0.6652
2223.000000 0.6656 0.6661 0.6667 0.6673 0.6678
2228.000000 0.6683 0.6687 0.6692 0.6697 0.6702
2233.000000 0.6706 0.6710 0.6714 0.6717 0.6719
2238.000000 0.6720 0.6720 0.6719 0.6718 0.6717
2243.000000 0.6716 0.6716 0.6714 0.6713 0.6708
2248.000000 0.6703 0.6694 0.6685 0.6674 0.6663
2253.000000 0.6653 0.6642 0.6632 0.6621 0.6609
2258.000000 0.6598 0.6586 0.6574 0.6562 0.6550
2263.000000 0.6538 0.6526 0.6515 0.6505 0.6498
2268.000000 0.6494 0.6491 0.6491 0.6491 0.6491
2273.000000 0.6490 0.6490 0.6490 0.6490 0.6490
2278.000000 0.6490 0.6489 0.6489 0.6489 0.6489
2283.000000 0.6489 0.6479 0.6469 0.6439 0.6406
2288.000000 0.6391 0.6383 0.6380 0.6379 0.6378
2293.000000 0.6378 0.6378 0.6378 0.6378 0.6378
2298.000000 0.6378 0.6378 0.6378 0.6378 0.6378
2303.000000 0.6379 0.6379 0.6379 0.6379 0.6380
2308.000000 0.6380 0.6374 0.6363 0.6346 0.6320
2313.000000 0.6294 0.6268 0.6242 0.6216 0.6190
2318.000000 0.6165 0.6139 0.6114 0.6088 0.6062
2323.000000 0.6036 0.6011 0.5985 0.5960 0.5934
2328.000000 0.5909 0.5884 0.5859 0.5845 0.5831
2333.000000 0.5816 0.5801 0.5787 0.5773 0.5759
2338.000000 0.5745 0.5732 0.5718 0.5705 0.5692
2343.000000 0.5679 0.5666 0.5652 0.5642 0.5632
2348.000000 0.5624 0.5617 0.5610 0.5603 0.5595
2353.000000 0.5588 0.5581 0.5574 0.5566 0.5559
2358.000000 0.5552 0.5544 0.5536 0.5528 0.5521
2363.000000 0.5513 0.5505 0.5497 0.5489 0.5481
2368.000000 0.5473 0.5465 0.5457 0.5448 0.5440
2373.000000 0.5432 0.5424 0.5416 0.5408 0.5400
2378.000000 0.5393 0.5385 0.5377 0.5369 0.5361
2383.000000 0.5353 0.5345 0.5337 0.5328 0.5319
2388.000000 0.5309 0.5300 0.5291 0.5281 0.5272
2393.000000 0.5261 0.5249 0.5237 0.5224 0.5212
2398.000000 0.5199 0.5186 0.5090 0.4967 0.4886
2403.000000 0.4853 0.4821 0.4794 0.4767 0.4744
2408.000000 0.4721 0.4699 0.4676 0.4653 0.4630
2413.000000 0.4607 0.4585 0.4562 0.4539 0.4517
2418.000000 0.4494 0.4471 0.4449 0.4426 0.4403
2423.000000 0.4381 0.4358 0.4337 0.4323 0.4309
2428.000000 0.4304 0.4302 0.4300 0.4297 0.4295
2433.000000 0.4292 0.4289 0.4286 0.4283 0.4280
2438.000000 0.4277 0.4274 0.4260 0.4245 0.4228
2443.000000 0.4208 0.4189 0.4170 0.4152 0.4134
2448.000000 0.4116 0.4098 0.4080 0.4062 0.4044
2453.000000 0.4026 0.4006 0.3986 0.3960 0.3910
2458.000000 0.3859 0.3809 0.3758 0.3708 0.3658
2463.000000 0.3607 0.3557 0.3507 0.3457 0.3406
2468.000000 0.3356 0.3306 0.3256 0.3206 0.3156
2473.000000 0.3107 0.3057 0.3008 0.2958 0.2908
2478.000000 0.2859 0.2809 0.2759 0.2710 0.2660
2483.000000 0.2627 0.2622 0.2616 0.2613 0.2610
2488.000000 0.2608 0.2606 0.2604 0.2603 0.2602
2493.000000 0.2601 0.2601 0.2601 0.2599 0.2598
2498.000000 0.2597 0.2596 0.2595 0.2594 0.2593
2503.000000 0.2591 0.2588 0.2585 0.2568 0.2550
2508.000000 0.2520 0.2474 0.2428 0.2382 0.2336
2513.000000 0.2290 0.2245 0.2199 0.2153 0.2108
2518.000000 0.2062 0.2017 0.1971 0.1925 0.1880
2523.000000 0.1834 0.1789 0.1744 0.1707 0.1673
2528.000000 0.1641 0.1616 0.1591 0.1571 0.1553
2533.000000 0.1535 0.1517 0.1499 0.1481 0.1463
2538.000000 0.1445 0.1426 0.1408 0.1389 0.1370
2543.000000 0.1352 0.1336 0.1321 0.1306 0.1293
2548.000000 0.1280 0.1266 0.1250 0.1235 0.1218
2553.000000 0.1201 0.1187 0.1177 0.1168 0.1164
2558.000000 0.1163 0.1161 0.1161 0.1161 0.1161
2563.000000 0.1161 0.1161 0.1162 0.1164 0.1165
2568.000000 0.1203 0.1233 0.1278 0.1331 0.1384
2573.000000 0.1437 0.1490 0.1543 0.1596 0.1649
2578.000000 0.1701 0.1754 0.1807 0.1860 0.1912
2583.000000 0.1965 0.2018 0.2070 0.2123 0.2175
2588.000000 0.2228 0.2249 0.2269 0.2284 0.2284
2593.000000 0.2284 0.2283 0.2282 0.2282 0.2285
2598.000000 0.2279 0.2276 0.2268 0.2259 0.2250
2603.000000 0.2239 0.2228 0.2217 0.2206 0.2195
2608.000000 0.2184 0.2173 0.2162 0.2151 0.2140
2613.000000 0.2129 0.2118 0.2107 0.2096 0.2085
2618.000000 0.2074 0.2063 0.2052 0.2042 0.2031
2623.000000 0.2020 0.2009 0.1998 0.1987 0.1976
2628.000000 0.1965 0.1952 0.1931 0.1910 0.1886
2633.000000 0.1858 0.1830 0.1802 0.1774 0.1746
2638.000000 0.1718 0.1691 0.1663 0.1636 0.1608
2643.000000 0.1580 0.1552 0.1525 0.1504 0.1490
2648.000000 0.1476 0.1472 0.1472 0.1472 0.1473
2653.000000 0.1475 0.1476 0.1477 0.1478 0.1482
2658.000000 0.1491 0.1500 0.1457 0.1518 0.1526
2663.000000 0.1534 0.1542 0.1550 0.1557 0.1564
2668.000000 0.1572 0.1578 0.1585 0.1591 0.1597
2673.000000 0.1603 0.1608 0.1613 0.1618 0.1622
2678.000000 0.1623 0.1625 0.1626 0.1628 0.1629
2683.000000 0.1630 0.1630 0.1630 0.1630 0.1630
2688.000000 0.1630 0.1628 0.1626 0.1625 0.1632
2693.000000 0.1620 0.1618 0.1610 0.1602 0.1591
2698.000000 0.1562 0.1534 0.1505 0.1477 0.1448
2703.000000 0.1420 0.1392 0.1363 0.1335 0.1307
2708.000000 0.1278 0.1250 0.1222 0.1194 0.1165
2713.000000 0.1137 0.1108 0.1081 0.1055 0.1029
2718.000000 0.1004 0.0980 0.0956 0.0927 0.0895
2723.000000 0.0862 0.0839 0.0818 0.0798 0.0783
2728.000000 0.0769 0.0756 0.0742 0.0729 0.0715
2733.000000 0.0702 0.0689 0.0676 0.0666 0.0655
2738.000000 0.0645 0.0635 0.0624 0.0614 0.0604
2743.000000 0.0593 0.0583 0.0573 0.0562 0.0552
2748.000000 0.0543 0.0535 0.0527 0.0520 0.0515
2753.000000 0.0509 0.0504 0.0498 0.0492 0.0487
2758.000000 0.0482 0.0477 0.0471 0.0465 0.0460
2763.000000 0.0454 0.0449 0.0443 0.0438 0.0432
2768.000000 0.0427 0.0421 0.0416 0.0411 0.0405
2773.000000 0.0399 0.0394 0.0388 0.0381 0.0375
2778.000000 0.0369 0.0363 0.0357 0.0351 0.0347
2783.000000 0.0343 0.0339 0.0336 0.0333 0.0330
2788.000000 0.0327 0.0325 0.0323 0.0322 0.0321
2793.000000 0.0321 0.0320 0.0319 0.0319 0.0318
2798.000000 0.0317 0.0316 0.0315 0.0315 0.0314
2803.000000 0.0313 0.0313 0.0312 0.0312 0.0312
2808.000000 0.0312 0.0312 0.0312 0.0312 0.0312
2813.000000 0.0311 0.0311 0.0311 0.0311 0.0311
2818.000000 0.0311 0.0311 0.0311 0.0311 0.0311
2823.000000 0.0311 0.0311 0.0311 0.0311 0.0311
2828.000000 0.0311 0.0311 0.0311 0.0311 0.0311
2833.000000 0.0311 0.0311 0.0311 0.0311 0.0311
2838.000000 0.0311 0.0311 0.0311 0.0311 0.0311
2843.000000 0.0311 0.0311 0.0311 0.0311 0.0311
2848.000000 0.0311 0.0311 0.0311 0.0311 0.0311
2853.000000 0.0311 0.0311 0.0311 0.0311 0.0311
2858.000000 0.0311 0.0311 0.0311 0.0311 0.0311
2863.000000 0.0311 0.0311 0.0311 0.0311 0.0311
2868.000000 0.0311 0.0311 0.0311 0.0311 0.0311
2873.000000 0.0311 0.0312 0.0312 0.0312 0.0312
2878.000000 0.0312 0.0312 0.0312 0.0312 0.0312
2883.000000 0.0312 0.0312 0.0312 0.0312 0.0312
2888.000000 0.0312 0.0312 0.0312 0.0313 0.0313
2893.000000 0.0313 0.0313 0.0313 0.0313 0.0313
2898.000000 0.0313 0.0313 0.0313 0.0313 0.0313
2903.000000 0.0313 0.0313 0.0313 0.0313 0.0313
2908.000000 0.0313 0.0313 0.0313 0.0314 0.0314
2913.000000 0.0314 0.0314 0.0314 0.0314 0.0314
2918.000000 0.0315 0.0315 0.0315 0.0307 0.0315
2923.000000 0.0315 0.0316 0.0316 0.0316 0.0316
2928.000000 0.0316 0.0316 0.0316 0.0317 0.0317
2933.000000 0.0317 0.0317 0.0318 0.0318 0.0318
2938.000000 0.0318 0.0318 0.0318 0.0318 0.0319
2943.000000 0.0319 0.0319 0.0319 0.0319 0.0319
2948.000000 0.0319 0.0320 0.0320 0.0320 0.0320
2953.000000 0.0320 0.0320 0.0320 0.0321 0.0321
2958.000000 0.0321 0.0321 0.0321 0.0321 0.0321
2963.000000 0.0321 0.0321 0.0321 0.0321 0.0321
2968.000000 0.0321 0.0321 0.0321 0.0321 0.0321
2973.000000 0.0322 0.0322 0.0322 0.0322 0.0322
2978.000000 0.0322 0.0322 0.0322 0.0322 0.0322
2983.000000 0.0322 0.0322 0.0322 0.0322 0.0322
2988.000000 0.0322 0.0322 0.0322 0.0323 0.0323
2993.000000 0.0323 0.0323 0.0323 0.0323 0.0323
2998.000000 0.0323 0.0323 0.0323 0.0323 0.0323
3003.000000 0.0323 0.0323 0.0324 0.0324 0.0324
3008.000000 0.0324 0.0324 0.0324 0.0324 0.0324
3013.000000 0.0325 0.0325 0.0325 0.0325 0.0325
3018.000000 0.0325 0.0325 0.0326 0.0326 0.0326
3023.000000 0.0326 0.0326 0.0326 0.0326 0.0327
3028.000000 0.0327 0.0327 0.0327 0.0327 0.0327
3033.000000 0.0327 0.0328 0.0328 0.0328 0.0328
3038.000000 0.0329 0.0329 0.0329 0.0329 0.0329
3043.000000 0.0329 0.0329 0.0329 0.0330 0.0330
3048.000000 0.0330 0.0331 0.0331 0.0331 0.0331
3053.000000 0.0332 0.0332 0.0332 0.0332 0.0333
3058.000000 0.0333 0.0333 0.0334 0.0334 0.0334
3063.000000 0.0334 0.0335 0.0335 0.0335 0.0335
3068.000000 0.0336 0.0336 0.0336 0.0336 0.0337
3073.000000 0.0337 0.0337 0.0337 0.0338 0.0338
3078.000000 0.0338 0.0339 0.0339 0.0340 0.0340
3083.000000 0.0341 0.0341 0.0341 0.0341 0.0342
3088.000000 0.0342 0.0342 0.0342 0.0343 0.0343
3093.000000 0.0343 0.0343 0.0344 0.0344 0.0344
3098.000000 0.0345 0.0345 0.0345 0.0345 0.0346
3103.000000 0.0346 0.0346 0.0346 0.0346 0.0346
3108.000000 0.0346 0.0346 0.0347 0.0347 0.0347
3113.000000 0.0347 0.0348 0.0348 0.0348 0.0348
3118.000000 0.0354 0.0360 0.0366 0.0373 0.0384
3123.000000 0.0396 0.0408 0.0420 0.0432 0.0444
3128.000000 0.0456 0.0468 0.0479 0.0491 0.0503
3133.000000 0.0515 0.0526 0.0538 0.0550 0.0562
3138.000000 0.0574 0.0586 0.0597 0.0609 0.0621
3143.000000 0.0633 0.0645 0.0657 0.0668 0.0680
3148.000000 0.0691 0.0703 0.0715 0.0726 0.0738
3153.000000 0.0749 0.0760 0.0771 0.0782 0.0790
3158.000000 0.0794 0.0798 0.0802 0.0806 0.0810
3163.000000 0.0814 0.0817 0.0821 0.0825 0.0829
3168.000000 0.0832 0.0836 0.0840 0.0844 0.0847
3173.000000 0.0852 0.0860 0.0867 0.0874 0.0884
3178.000000 0.0899 0.0914 0.0930 0.0951 0.0984
3183.000000 0.1017 0.1051 0.1076 0.1080 0.1084
3188.000000 0.1088 0.1093 0.1097 0.1102 0.1107
3193.000000 0.1116 0.1154 0.1191 0.1229 0.1264
3198.000000 0.1277 0.1290 0.1302 0.1315 0.1320
3203.000000 0.1324 0.1329 0.1333 0.1336 0.1338
3208.000000 0.1340 0.1343 0.1345 0.1348 0.1350
3213.000000 0.1353 0.1355 0.1358 0.1361 0.1363
3218.000000 0.1366 0.1370 0.1374 0.1378 0.1392
3223.000000 0.1424 0.1457 0.1489 0.1518 0.1528
3228.000000 0.1539 0.1549 0.1560 0.1576 0.1591
3233.000000 0.1607 0.1623 0.1654 0.1687 0.1720
3238.000000 0.1753 0.1790 0.1828 0.1867 0.1906
3243.000000 0.1944 0.1982 0.2020 0.2059 0.2091
3248.000000 0.2107 0.2123 0.2139 0.2155 0.2175
3253.000000 0.2195 0.2215 0.2234 0.2260 0.2287
3258.000000 0.2314 0.2341 0.2368 0.2395 0.2422
3263.000000 0.2449 0.2475 0.2499 0.2522 0.2546
3268.000000 0.2569 0.2578 0.2587 0.2597 0.2606
3273.000000 0.2615 0.2625 0.2634 0.2643 0.2653
3278.000000 0.2662 0.2671 0.2681 0.2690 0.2702
3283.000000 0.2714 0.2725 0.2737 0.2747 0.2758
3288.000000 0.2768 0.2779 0.2787 0.2792 0.2798
3293.000000 0.2804 0.2810 0.2815 0.2821 0.2826
3298.000000 0.2832 0.2833 0.2834 0.2835 0.2836
3303.000000 0.2837 0.2838 0.2839 0.2840 0.2841
3308.000000 0.2842 0.2842 0.2843 0.2844 0.2844
3313.000000 0.2844 0.2844 0.2844 0.2865 0.2843
3318.000000 0.2842 0.2841 0.2841 0.2840 0.2840
3323.000000 0.2839 0.2839 0.2838 0.2836 0.2834
3328.000000 0.2832 0.2830 0.2828 0.2826 0.2824
3333.000000 0.2821 0.2818 0.2815 0.2812 0.2808
3338.000000 0.2805 0.2801 0.2797 0.2793 0.2788
3343.000000 0.2784 0.2779 0.2775 0.2770 0.2765
3348.000000 0.2761 0.2756 0.2752 0.2747 0.2743
3353.000000 0.2738 0.2733 0.2729 0.2724 0.2719
3358.000000 0.2715 0.2710 0.2706 0.2701 0.2696
3363.000000 0.2691 0.2686 0.2681 0.2676 0.2671
3368.000000 0.2666 0.2661 0.2656 0.2651 0.2646
3373.000000 0.2641 0.2636 0.2633 0.2629 0.2626
3378.000000 0.2623 0.2620 0.2618 0.2616 0.2614
3383.000000 0.2612 0.2611 0.2609 0.2608 0.2606
3388.000000 0.2605 0.2605 0.2604 0.2604 0.2604
3393.000000 0.2603 0.2603 0.2602 0.2602 0.2601
3398.000000 0.2601 0.2601 0.2600 0.2600 0.2599
3403.000000 0.2599 0.2599 0.2599 0.2598 0.2598
3408.000000 0.2597 0.2596 0.2595 0.2594 0.2594
3413.000000 0.2593 0.2592 0.2592 0.2591 0.2590
3418.000000 0.2589 0.2588 0.2587 0.2587 0.2586
3423.000000 0.2586 0.2585 0.2584 0.2582 0.2580
3428.000000 0.2578 0.2576 0.2574 0.2572 0.2570
3433.000000 0.2568 0.2566 0.2563 0.2561 0.2559
3438.000000 0.2556 0.2554 0.2550 0.2546 0.2542
3443.000000 0.2538 0.2535 0.2531 0.2528 0.2524
3448.000000 0.2520 0.2517 0.2514 0.2510 0.2507
3453.000000 0.2504 0.2500 0.2497 0.2494 0.2490
3458.000000 0.2487 0.2485 0.2482 0.2480 0.2478
3463.000000 0.2476 0.2475 0.2474 0.2472 0.2471
3468.000000 0.2470 0.2470 0.2470 0.2470 0.2470
3473.000000 0.2470 0.2470 0.2470 0.2470 0.2470
3478.000000 0.2471 0.2471 0.2471 0.2471 0.2472
3483.000000 0.2473 0.2474 0.2475 0.2476 0.2472
3488.000000 0.2478 0.2479 0.2481 0.2482 0.2484
3493.000000 0.2488 0.2491 0.2495 0.2499 0.2503
3498.000000 0.2509 0.2515 0.2521 0.2527 0.2534
3503.000000 0.2541 0.2548 0.2555 0.2562 0.2571
3508.000000 0.2581 0.2590 0.2600 0.2609 0.2616
3513.000000 0.2623 0.2629 0.2635 0.2641 0.2648
3518.000000 0.2654 0.2660 0.2666 0.2672 0.2675
3523.000000 0.2678 0.2681 0.2683 0.2686 0.2687
3528.000000 0.2688 0.2689 0.2690 0.2690 0.2691
3533.000000 0.2692 0.2692 0.2693 0.2693 0.2694
3538.000000 0.2695 0.2696 0.2697 0.2697 0.2698
3543.000000 0.2699 0.2700 0.2701 0.2701 0.2702
3548.000000 0.2703 0.2704 0.2705 0.2705 0.2713
3553.000000 0.2721 0.2730 0.2738 0.2747 0.2770
3558.000000 0.2796 0.2823 0.2849 0.2876 0.2902
3563.000000 0.2928 0.2954 0.2981 0.3007 0.3033
3568.000000 0.3059 0.3086 0.3112 0.3138 0.3164
3573.000000 0.3190 0.3216 0.3242 0.3268 0.3295
3578.000000 0.3321 0.3347 0.3373 0.3399 0.3425
3583.000000 0.3451 0.3477 0.3503 0.3529 0.3555
3588.000000 0.3581 0.3607 0.3633 0.3659 0.3685
3593.000000 0.3710 0.3736 0.3762 0.3788 0.3813
3598.000000 0.3839 0.3865 0.3891 0.3917 0.3943
3603.000000 0.3968 0.3994 0.4019 0.4045 0.4071
3608.000000 0.4096 0.4122 0.4148 0.4173 0.4199
3613.000000 0.4225 0.4250 0.4276 0.4301 0.4326
3618.000000 0.4352 0.4377 0.4403 0.4429 0.4454
3623.000000 0.4480 0.4505 0.4530 0.4556 0.4581
3628.000000 0.4606 0.4632 0.4657 0.4683 0.4708
3633.000000 0.4734 0.4755 0.4763 0.4771 0.4779
3638.000000 0.4786 0.4794 0.4802 0.4810 0.4818
3643.000000 0.4825 0.4833 0.4841 0.4848 0.4856
3648.000000 0.4864 0.4872 0.4884 0.4905 0.4926
3653.000000 0.4947 0.4968 0.4989 0.5007 0.5026
3658.000000 0.5044 0.5062 0.5081 0.5094 0.5105
3663.000000 0.5116 0.5127 0.5138 0.5149 0.5162
3668.000000 0.5174 0.5186 0.5198 0.5211 0.5232
3673.000000 0.5255 0.5277 0.5300 0.5322 0.5340
3678.000000 0.5353 0.5366 0.5379 0.5393 0.5406
3683.000000 0.5416 0.5426 0.5435 0.5445 0.5455
3688.000000 0.5464 0.5473 0.5482 0.5490 0.5499
3693.000000 0.5506 0.5510 0.5515 0.5519 0.5523
3698.000000 0.5527 0.5531 0.5535 0.5539 0.5543
3703.000000 0.5547 0.5550 0.5552 0.5554 0.5556
3708.000000 0.5558 0.5560 0.5561 0.5562 0.5563
3713.000000 0.5563 0.5564 0.5565 0.5565 0.5566
3718.000000 0.5567 0.5568 0.5568 0.5569 0.5569
3723.000000 0.5569 0.5569 0.5569 0.5570 0.5570
3728.000000 0.5570 0.5570 0.5570 0.5570 0.5571
3733.000000 0.5571 0.5571 0.5571 0.5571 0.5571
3738.000000 0.5571 0.5571 0.5571 0.5571 0.5571
3743.000000 0.5572 0.5572 0.5572 0.5572 0.5572
3748.000000 0.5572 0.5572 0.5572 0.5572 0.5572
3753.000000 0.5572 0.5573 0.5573 0.5573 0.5573
3758.000000 0.5573 0.5573 0.5573 0.5573 0.5573
3763.000000 0.5573 0.5573 0.5573 0.5573 0.5573
3768.000000 0.5573 0.5573 0.5573 0.5573 0.5573
3773.000000 0.5573 0.5573 0.5573 0.5573 0.5573
3778.000000 0.5573 0.5573 0.5573 0.5573 0.5573
3783.000000 0.5593 0.5572 0.5572 0.5572 0.5572
3788.000000 0.5572 0.5572 0.5572 0.5572 0.5572
3793.000000 0.5572 0.5571 0.5571 0.5571 0.5571
3798.000000 0.5571 0.5571 0.5571 0.5571 0.5571
3803.000000 0.5571 0.5571 0.5571 0.5570 0.5569
3808.000000 0.5568 0.5567 0.5566 0.5564 0.5563
3813.000000 0.5562 0.5561 0.5560 0.5558 0.5557
3818.000000 0.5556 0.5555 0.5554 0.5552 0.5551
3823.000000 0.5550 0.5549 0.5548 0.5546 0.5545
3828.000000 0.5544 0.5543 0.5542 0.5541 0.5539
3833.000000 0.5538 0.5537 0.5536 0.5534 0.5532
3838.000000 0.5531 0.5529 0.5528 0.5526 0.5525
3843.000000 0.5524 0.5522 0.5521 0.5520 0.5518
3848.000000 0.5517 0.5516 0.5514 0.5513 0.5512
3853.000000 0.5510 0.5509 0.5507 0.5506 0.5504
3858.000000 0.5503 0.5501 0.5500 0.5499 0.5497
3863.000000 0.5496 0.5494 0.5493 0.5491 0.5490
3868.000000 0.5488 0.5487 0.5485 0.5484 0.5483
3873.000000 0.5481 0.5480 0.5479 0.5477 0.5476
3878.000000 0.5474 0.5473 0.5471 0.5470 0.5468
3883.000000 0.5467 0.5466 0.5465 0.5463 0.5462
3888.000000 0.5461 0.5459 0.5458 0.5457 0.5455
3893.000000 0.5454 0.5453 0.5451 0.5450 0.5449
3898.000000 0.5447 0.5446 0.5445 0.5442 0.5440
3903.000000 0.5437 0.5435 0.5433 0.5430 0.5428
3908.000000 0.5425 0.5423 0.5421 0.5419 0.5416
3913.000000 0.5415 0.5414 0.5413 0.5412 0.5411
3918.000000 0.5410 0.5409 0.5408 0.5407 0.5406
3923.000000 0.5405 0.5404 0.5403 0.5402 0.5401
3928.000000 0.5400 0.5399 0.5398 0.5397 0.5396
3933.000000 0.5395 0.5394 0.5393 0.5392 0.5392
3938.000000 0.5391 0.5390 0.5389 0.5388 0.5387
3943.000000 0.5386 0.5385 0.5384 0.5383 0.5382
3948.000000 0.5381 0.5380 0.5379 0.5378 0.5377
3953.000000 0.5376 0.5375 0.5374 0.5373 0.5372
3958.000000 0.5371 0.5370 0.5369 0.5368 0.5367
3963.000000 0.5367 0.5366 0.5365 0.5364 0.5363
3968.000000 0.5362 0.5361 0.5360 0.5359 0.5358
3973.000000 0.5357 0.5356 0.5355 0.5354 0.5353
3978.000000 0.5352 0.5351 0.5350 0.5349 0.5348
3983.000000 0.5348 0.5347 0.5346 0.5345 0.5344
3988.000000 0.5343 0.5342 0.5341 0.5340 0.5339
3993.000000 0.5338 0.5338 0.5338 0.5338 0.5338
3998.000000 0.5338 0.5338 0.5338
##END=
