##TITLE=SILVER NITRITE
$$ C.P.
##JCAMP-DX=4.24
##DATA TYPE=INFRARED SPECTRUM
##CLASS=COBLENTZ
##ORIGIN=MELLON INSTITUTE
##OWNER=COBLENTZ SOCIETY
Collection (C) 2018 copyright by the U.S. Secretary of Commerce
on behalf of the United States of America. All rights reserved.
##DATE=Not specified, most likely prior to 1970
##MOLFORM=Ag N O2
##SOURCE REFERENCE=COBLENTZ NO. 540
##$NIST ID=B6000540
##$NIST SOURCE=COBLENTZ
##$NIST IMAGE=cob540
##SPECTROMETER/DATA SYSTEM=Not specified, most likely a prism, grating, or hybrid spectrometer.
##STATE=SOLID (NUJOL MULL)
##PATH LENGTH=
$$SPECTRAL CONTAMINATION DUE TO OIL AROUND 2900, 1450 CM^-^1
##SAMPLING PROCEDURE=TRANSMISSION
##RESOLUTION=4
##DATA PROCESSING=DIGITIZED BY NIST FROM HARD COPY
##XUNITS=MICROMETERS
##YUNITS=TRANSMITTANCE
##XFACTOR=1.000000
##YFACTOR=1
##DELTAX=000.006643
##FIRSTX=2.024
##LASTX=15.9996
##FIRSTY=0.57
##MAXX=15.9996
##MINX=2.024
##MAXY=0.924
##MINY=0.093
##NPOINTS=2105
##XYDATA=(X++(Y..Y))
2.024000 0.5700 0.5700 0.5680 0.5680 0.5680
2.057228 0.5680 0.5680 0.5680 0.5700 0.5680
2.090000 0.5680 0.5660 0.5630 0.5630 0.5610
2.123228 0.5610 0.5610 0.5630 0.5630 0.5650
2.156000 0.5650 0.5650 0.5660 0.5660 0.5660
2.189228 0.5660 0.5660 0.5660 0.5650 0.5650
2.223000 0.5650 0.5650 0.5650 0.5650 0.5650
2.256228 0.5660 0.5680 0.5700 0.5700 0.5710
2.289000 0.5730 0.5750 0.5750 0.5750 0.5750
2.322228 0.5760 0.5780 0.5800 0.5800 0.5810
2.356000 0.5800 0.5780 0.5780 0.5780 0.5780
2.389228 0.5780 0.5780 0.5800 0.5810 0.5830
2.422000 0.5830 0.5860 0.5860 0.5860 0.5860
2.455228 0.5860 0.5860 0.5860 0.5880 0.5900
2.489000 0.5900 0.5900 0.5900 0.5900 0.5910
2.522228 0.5910 0.5910 0.5910 0.5910 0.5910
2.555000 0.5930 0.5930 0.5930 0.5960 0.5980
2.588228 0.5980 0.5980 0.5980 0.5980 0.5980
2.621000 0.5980 0.5960 0.5960 0.5980 0.5980
2.654228 0.5980 0.5980 0.5980 0.5980 0.5980
2.688000 0.5980 0.5980 0.5980 0.5980 0.5980
2.721228 0.5980 0.5980 0.5980 0.6000 0.6000
2.754000 0.6000 0.6000 0.6000 0.6000 0.6000
2.787228 0.6000 0.6000 0.6000 0.6000 0.6000
2.821000 0.6000 0.6000 0.6000 0.6000 0.6000
2.854228 0.5980 0.5980 0.5980 0.5980 0.5980
2.887000 0.5980 0.5980 0.5980 0.5980 0.5980
2.920228 0.5980 0.6000 0.6000 0.6020 0.6020
2.954000 0.6020 0.6020 0.6020 0.6020 0.6030
2.987228 0.6030 0.6050 0.6050 0.6050 0.6050
3.020000 0.6050 0.6050 0.6050 0.6050 0.6050
3.053228 0.6050 0.6050 0.6050 0.6050 0.6070
3.086000 0.6070 0.6070 0.6070 0.6080 0.6080
3.119228 0.6080 0.6080 0.6080 0.6080 0.6100
3.153000 0.6120 0.6130 0.6150 0.6170 0.6180
3.186228 0.6200 0.6200 0.6220 0.6220 0.6230
3.219000 0.6250 0.6250 0.6270 0.6280 0.6300
3.252228 0.6320 0.6320 0.6320 0.6320 0.6300
3.286000 0.6300 0.6280 0.6200 0.6070 0.5910
3.319228 0.5810 0.5480 0.5180 0.5030 0.4860
3.352000 0.4360 0.4190 0.4090 0.4060 0.4060
3.385228 0.4060 0.4060 0.4080 0.4110 0.4180
3.418000 0.4210 0.4260 0.4260 0.4260 0.4260
3.451228 0.4260 0.4280 0.4340 0.4430 0.4590
3.485000 0.4880 0.5260 0.5510 0.5800 0.6200
3.518228 0.6370 0.6470 0.6530 0.6620 0.6630
3.551000 0.6720 0.6730 0.6750 0.6780 0.6800
3.584228 0.6830 0.6850 0.6850 0.6870 0.6880
3.618000 0.6900 0.6900 0.6920 0.6950 0.6970
3.651228 0.6970 0.6970 0.6980 0.6980 0.6980
3.684000 0.6980 0.7000 0.7000 0.7000 0.7020
3.717228 0.7020 0.7020 0.7020 0.7020 0.7020
3.751000 0.7020 0.7020 0.7020 0.7020 0.7020
3.784228 0.7020 0.7020 0.7020 0.7020 0.7020
3.817000 0.7020 0.7020 0.7020 0.7000 0.7000
3.850228 0.6980 0.6980 0.6980 0.6980 0.7000
3.883000 0.7000 0.7000 0.7000 0.7020 0.7020
3.916228 0.7020 0.7020 0.7020 0.7020 0.7000
3.950000 0.7020 0.7020 0.7020 0.7040 0.7040
3.983228 0.7040 0.7040 0.7040 0.7050 0.7070
4.016000 0.7070 0.7070 0.7070 0.7070 0.7050
4.049228 0.7050 0.7050 0.7040 0.7020 0.7020
4.083000 0.7020 0.7020 0.7040 0.7040 0.7040
4.116228 0.7050 0.7070 0.7070 0.7070 0.7090
4.149000 0.7090 0.7090 0.7070 0.7070 0.7070
4.182228 0.7050 0.7050 0.7050 0.7050 0.7050
4.216000 0.7040 0.7040 0.7040 0.7040 0.7020
4.249228 0.7020 0.7020 0.7020 0.7020 0.7020
4.282000 0.7020 0.7020 0.7020 0.7040 0.7040
4.315228 0.7040 0.7050 0.7040 0.7040 0.7040
4.348000 0.7040 0.7040 0.7050 0.7050 0.7070
4.381228 0.7090 0.7100 0.7100 0.7120 0.7120
4.415000 0.7120 0.7120 0.7120 0.7140 0.7140
4.448228 0.7140 0.7150 0.7150 0.7150 0.7140
4.481000 0.7140 0.7150 0.7150 0.7170 0.7170
4.514228 0.7170 0.7170 0.7170 0.7190 0.7190
4.548000 0.7190 0.7200 0.7200 0.7200 0.7200
4.581228 0.7200 0.7220 0.7220 0.7220 0.7220
4.614000 0.7240 0.7240 0.7240 0.7240 0.7240
4.647228 0.7240 0.7250 0.7250 0.7250 0.7270
4.681000 0.7270 0.7270 0.7270 0.7270 0.7270
4.714228 0.7290 0.7290 0.7290 0.7290 0.7290
4.747000 0.7290 0.7290 0.7270 0.7270 0.7270
4.780228 0.7270 0.7270 0.7290 0.7290 0.7290
4.813000 0.7270 0.7290 0.7290 0.7300 0.7290
4.846228 0.7290 0.7300 0.7300 0.7290 0.7290
4.880000 0.7290 0.7290 0.7290 0.7300 0.7300
4.913228 0.7300 0.7320 0.7320 0.7320 0.7320
4.946000 0.7340 0.7340 0.7340 0.7350 0.7350
4.979228 0.7370 0.7390 0.7390 0.7390 0.7400
5.013000 0.7420 0.7420 0.7440 0.7440 0.7440
5.046228 0.7450 0.7450 0.7470 0.7490 0.7490
5.079000 0.7490 0.7500 0.7500 0.7500 0.7500
5.112228 0.7520 0.7520 0.7540 0.7540 0.7540
5.146000 0.7550 0.7550 0.7550 0.7570 0.7590
5.179228 0.7570 0.7570 0.7590 0.7590 0.7590
5.212000 0.7600 0.7600 0.7600 0.7620 0.7620
5.245228 0.7620 0.7620 0.7640 0.7640 0.7650
5.278000 0.7640 0.7640 0.7670 0.7670 0.7670
5.311228 0.7670 0.7690 0.7690 0.7690 0.7690
5.345000 0.7690 0.7690 0.7690 0.7690 0.7690
5.378228 0.7700 0.7700 0.7700 0.7690 0.7700
5.411000 0.7700 0.7720 0.7740 0.7740 0.7740
5.444228 0.7750 0.7750 0.7750 0.7750 0.7750
5.478000 0.7740 0.7740 0.7770 0.7750 0.7750
5.511228 0.7750 0.7750 0.7770 0.7770 0.7800
5.544000 0.7800 0.7800 0.7800 0.7800 0.7800
5.577228 0.7800 0.7800 0.7820 0.7800 0.7800
5.611000 0.7800 0.7800 0.7800 0.7820 0.7820
5.644228 0.7840 0.7820 0.7840 0.7840 0.7840
5.677000 0.7840 0.7850 0.7870 0.7890 0.7920
5.710228 0.7940 0.7940 0.7940 0.7970 0.7970
5.743000 0.7990 0.7990 0.7990 0.8010 0.8020
5.776228 0.8040 0.8040 0.8060 0.8060 0.8060
5.810000 0.8060 0.8040 0.8060 0.8040 0.8040
5.843228 0.8040 0.8040 0.8020 0.8020 0.8020
5.876000 0.8020 0.8020 0.8020 0.8020 0.8020
5.909228 0.8020 0.8020 0.8020 0.8020 0.8020
5.943000 0.8020 0.8020 0.8020 0.8020 0.8020
5.976228 0.8020 0.8020 0.8020 0.8020 0.8020
6.009000 0.8020 0.8020 0.8020 0.8020 0.8020
6.042228 0.8020 0.8020 0.8020 0.8040 0.8040
6.075000 0.8040 0.8060 0.8060 0.8070 0.8070
6.108228 0.8070 0.8070 0.8070 0.8070 0.8070
6.142000 0.8060 0.8070 0.8070 0.8090 0.8110
6.175228 0.8120 0.8120 0.8140 0.8160 0.8170
6.208000 0.8170 0.8190 0.8190 0.8210 0.8210
6.241228 0.8220 0.8220 0.8220 0.8220 0.8210
6.275000 0.8210 0.8210 0.8220 0.8220 0.8220
6.308228 0.8220 0.8220 0.8220 0.8220 0.8240
6.341000 0.8240 0.8240 0.8240 0.8240 0.8220
6.374228 0.8220 0.8220 0.8190 0.8190 0.8170
6.408000 0.8190 0.8190 0.8190 0.8190 0.8190
6.441228 0.8210 0.8210 0.8210 0.8210 0.8210
6.474000 0.8210 0.8220 0.8220 0.8210 0.8210
6.507228 0.8210 0.8210 0.8210 0.8210 0.8210
6.540000 0.8190 0.8190 0.8210 0.8210 0.8210
6.573228 0.8210 0.8210 0.8210 0.8210 0.8210
6.607000 0.8210 0.8210 0.8190 0.8190 0.8190
6.640228 0.8170 0.8170 0.8170 0.8160 0.8140
6.673000 0.8140 0.8140 0.8120 0.8110 0.8060
6.706228 0.8020 0.8010 0.7990 0.7990 0.7970
6.740000 0.7920 0.7890 0.7770 0.7640 0.7400
6.773228 0.7200 0.7050 0.6930 0.6920 0.6880
6.806000 0.6870 0.6800 0.6730 0.6720 0.6680
6.839228 0.6630 0.6570 0.6500 0.6450 0.6450
6.873000 0.6400 0.6380 0.6380 0.6380 0.6380
6.906228 0.6370 0.6370 0.6370 0.6350 0.6330
6.939000 0.6320 0.6270 0.6200 0.6100 0.6030
6.972228 0.5960 0.5850 0.5650 0.5500 0.5350
7.005000 0.5080 0.4810 0.4630 0.4410 0.4310
7.038228 0.4140 0.3590 0.3440 0.3270 0.3140
7.072000 0.2940 0.2750 0.2570 0.2490 0.2350
7.105228 0.2200 0.2090 0.2000 0.1780 0.1480
7.138000 0.1400 0.1350 0.1300 0.1230 0.1180
7.171228 0.1130 0.1100 0.1030 0.1030 0.1020
7.205000 0.1000 0.1000 0.1000 0.1000 0.1000
7.238228 0.1000 0.1000 0.1000 0.1000 0.1000
7.271000 0.1000 0.1000 0.1020 0.1030 0.1050
7.304228 0.1100 0.1170 0.1220 0.1300 0.1370
7.338000 0.1430 0.1500 0.1670 0.1850 0.2000
7.371228 0.2150 0.2220 0.2290 0.2340 0.2390
7.404000 0.2440 0.2490 0.2500 0.2540 0.2550
7.437228 0.2570 0.2570 0.2570 0.2570 0.2570
7.470000 0.2550 0.2540 0.2520 0.2500 0.2490
7.503228 0.2450 0.2440 0.2390 0.2370 0.2340
7.537000 0.2300 0.2270 0.2250 0.2220 0.2190
7.570228 0.2140 0.2100 0.2070 0.2040 0.2020
7.603000 0.2000 0.1980 0.1980 0.1900 0.1870
7.636228 0.1830 0.1830 0.1780 0.1750 0.1700
7.670000 0.1650 0.1600 0.1530 0.1500 0.1500
7.703228 0.1450 0.1430 0.1420 0.1400 0.1370
7.736000 0.1330 0.1300 0.1280 0.1250 0.1230
7.769228 0.1230 0.1220 0.1200 0.1180 0.1150
7.803000 0.1130 0.1120 0.1080 0.1070 0.1030
7.836228 0.1030 0.1020 0.1000 0.0980 0.0980
7.869000 0.0980 0.0960 0.0960 0.0950 0.0950
7.902228 0.0950 0.0950 0.0950 0.0930 0.0930
7.935000 0.0930 0.0930 0.0930 0.0930 0.0930
7.968228 0.0930 0.0930 0.0930 0.0930 0.0930
8.002000 0.0930 0.0930 0.0930 0.0930 0.0950
8.035228 0.0950 0.0950 0.0950 0.0950 0.0950
8.068000 0.0950 0.0960 0.0980 0.0980 0.1000
8.101228 0.1030 0.1080 0.1120 0.1130 0.1150
8.135000 0.1180 0.1220 0.1250 0.1280 0.1320
8.168228 0.1350 0.1380 0.1400 0.1420 0.1470
8.201000 0.1500 0.1570 0.1620 0.1650 0.1670
8.234228 0.1700 0.1730 0.1800 0.1830 0.1920
8.268000 0.2000 0.2150 0.2220 0.2320 0.2390
8.301228 0.2500 0.2550 0.2600 0.2650 0.2700
8.334000 0.2790 0.2900 0.2990 0.3160 0.3240
8.367228 0.3370 0.3460 0.3540 0.3620 0.3660
8.400000 0.3690 0.3760 0.3840 0.3910 0.4060
8.433228 0.4160 0.4230 0.4330 0.4410 0.4490
8.467000 0.4590 0.4710 0.4760 0.4810 0.4860
8.500228 0.4940 0.5030 0.5100 0.5150 0.5230
8.533000 0.5300 0.5380 0.5430 0.5460 0.5530
8.566228 0.5600 0.5650 0.5660 0.5710 0.5760
8.600000 0.5800 0.5880 0.6020 0.6030 0.6120
8.633228 0.6220 0.6270 0.6300 0.6330 0.6350
8.666000 0.6380 0.6400 0.6430 0.6500 0.6570
8.699228 0.6580 0.6620 0.6650 0.6680 0.6730
8.732000 0.6780 0.6800 0.6830 0.6870 0.6900
8.765228 0.6930 0.6970 0.6980 0.7020 0.7040
8.799000 0.7050 0.7050 0.7070 0.7070 0.7090
8.832228 0.7090 0.7100 0.7120 0.7140 0.7150
8.865000 0.7170 0.7200 0.7240 0.7250 0.7290
8.898228 0.7300 0.7340 0.7340 0.7350 0.7370
8.932000 0.7390 0.7400 0.7400 0.7420 0.7420
8.965228 0.7440 0.7450 0.7470 0.7490 0.7500
8.998000 0.7520 0.7540 0.7550 0.7550 0.7550
9.031228 0.7570 0.7570 0.7600 0.7600 0.7620
9.065000 0.7620 0.7640 0.7650 0.7650 0.7650
9.098228 0.7670 0.7670 0.7690 0.7700 0.7720
9.131000 0.7720 0.7740 0.7740 0.7750 0.7750
9.164228 0.7770 0.7790 0.7790 0.7800 0.7820
9.197000 0.7820 0.7820 0.7840 0.7850 0.7850
9.230228 0.7870 0.7890 0.7900 0.7900 0.7900
9.264000 0.7940 0.7950 0.7970 0.7970 0.7990
9.297228 0.7990 0.8010 0.8010 0.8020 0.8020
9.330000 0.8040 0.8040 0.8040 0.8040 0.8060
9.363228 0.8060 0.8110 0.8120 0.8120 0.8140
9.397000 0.8140 0.8140 0.8160 0.8160 0.8170
9.430228 0.8170 0.8190 0.8210 0.8220 0.8240
9.463000 0.8240 0.8260 0.8270 0.8270 0.8270
9.496228 0.8290 0.8290 0.8310 0.8320 0.8320
9.530000 0.8320 0.8340 0.8340 0.8360 0.8360
9.563228 0.8360 0.8360 0.8370 0.8390 0.8390
9.596000 0.8410 0.8410 0.8410 0.8420 0.8420
9.629228 0.8420 0.8420 0.8440 0.8440 0.8460
9.662000 0.8470 0.8490 0.8510 0.8510 0.8520
9.695228 0.8520 0.8520 0.8520 0.8520 0.8540
9.729000 0.8540 0.8560 0.8560 0.8560 0.8560
9.762228 0.8560 0.8570 0.8590 0.8620 0.8620
9.795000 0.8620 0.8620 0.8620 0.8640 0.8640
9.828228 0.8640 0.8640 0.8640 0.8640 0.8640
9.862000 0.8620 0.8620 0.8620 0.8620 0.8620
9.895228 0.8640 0.8640 0.8640 0.8640 0.8660
9.928000 0.8660 0.8670 0.8670 0.8690 0.8710
9.961228 0.8710 0.8710 0.8710 0.8710 0.8710
9.995000 0.8720 0.8720 0.8720 0.8740 0.8740
10.028228 0.8740 0.8740 0.8740 0.8740 0.8760
10.061000 0.8760 0.8760 0.8760 0.8760 0.8760
10.094228 0.8770 0.8770 0.8770 0.8770 0.8770
10.127000 0.8770 0.8770 0.8760 0.8740 0.8740
10.160228 0.8740 0.8740 0.8760 0.8760 0.8760
10.194000 0.8770 0.8770 0.8770 0.8790 0.8790
10.227228 0.8810 0.8810 0.8810 0.8810 0.8790
10.260000 0.8790 0.8810 0.8810 0.8810 0.8820
10.293228 0.8820 0.8820 0.8840 0.8840 0.8840
10.327000 0.8860 0.8860 0.8860 0.8860 0.8870
10.360228 0.8870 0.8890 0.8890 0.8890 0.8910
10.393000 0.8920 0.8920 0.8920 0.8920 0.8920
10.426228 0.8920 0.8920 0.8920 0.8920 0.8920
10.460000 0.8920 0.8910 0.8890 0.8910 0.8910
10.493228 0.8920 0.8940 0.8940 0.8940 0.8940
10.526000 0.8940 0.8940 0.8940 0.8940 0.8960
10.559228 0.8960 0.8960 0.8970 0.8970 0.8990
10.592000 0.8990 0.9010 0.8990 0.9010 0.8990
10.625228 0.8990 0.8990 0.8970 0.8960 0.8960
10.659000 0.8960 0.8960 0.8960 0.8960 0.8960
10.692228 0.8960 0.8970 0.8970 0.8970 0.8970
10.725000 0.8970 0.8970 0.8970 0.8970 0.8970
10.758228 0.8970 0.8970 0.8970 0.8970 0.8970
10.792000 0.8970 0.8970 0.8970 0.8990 0.9010
10.825228 0.9040 0.9040 0.9080 0.9080 0.9080
10.858000 0.9080 0.9080 0.9080 0.9080 0.9080
10.891228 0.9080 0.9080 0.9080 0.9080 0.9080
10.925000 0.9080 0.9080 0.9080 0.9080 0.9080
10.958228 0.9080 0.9080 0.9080 0.9090 0.9090
10.991000 0.9090 0.9090 0.9110 0.9110 0.9110
11.024228 0.9110 0.9110 0.9110 0.9130 0.9130
11.057000 0.9140 0.9140 0.9140 0.9140 0.9140
11.090228 0.9140 0.9160 0.9160 0.9160 0.9140
11.124000 0.9140 0.9140 0.9140 0.9140 0.9140
11.157228 0.9160 0.9140 0.9140 0.9140 0.9130
11.190000 0.9130 0.9130 0.9130 0.9130 0.9130
11.223228 0.9130 0.9140 0.9140 0.9130 0.9130
11.257000 0.9130 0.9140 0.9140 0.9140 0.9140
11.290228 0.9160 0.9160 0.9160 0.9140 0.9140
11.323000 0.9160 0.9160 0.9140 0.9140 0.9140
11.356228 0.9140 0.9140 0.9140 0.9160 0.9160
11.389000 0.9190 0.9190 0.9210 0.9210 0.9210
11.422228 0.9210 0.9210 0.9210 0.9210 0.9210
11.456000 0.9210 0.9210 0.9210 0.9210 0.9210
11.489228 0.9230 0.9230 0.9240 0.9230 0.9230
11.522000 0.9230 0.9210 0.9210 0.9210 0.9190
11.555228 0.9190 0.9180 0.9160 0.9160 0.9140
11.589000 0.9140 0.9130 0.9130 0.9130 0.9110
11.622228 0.9080 0.9080 0.9040 0.9040 0.9030
11.655000 0.8990 0.8990 0.8940 0.8910 0.8890
11.688228 0.8860 0.8840 0.8810 0.8770 0.8740
11.722000 0.8720 0.8720 0.8720 0.8720 0.8740
11.755228 0.8740 0.8740 0.8740 0.8690 0.8670
11.788000 0.8660 0.8660 0.8660 0.8660 0.8670
11.821228 0.8690 0.8710 0.8720 0.8740 0.8770
11.854000 0.8810 0.8810 0.8820 0.8840 0.8860
11.887228 0.8840 0.8810 0.8760 0.8670 0.8220
11.921000 0.8110 0.8060 0.8020 0.7950 0.7900
11.954228 0.7900 0.7850 0.7840 0.7840 0.7840
11.987000 0.7820 0.7820 0.7820 0.7820 0.7800
12.020228 0.7800 0.7790 0.7790 0.7790 0.7800
12.054000 0.7800 0.7800 0.7840 0.7920 0.7990
12.087228 0.8040 0.8120 0.8270 0.8360 0.8440
12.120000 0.8490 0.8540 0.8590 0.8620 0.8670
12.153228 0.8710 0.8760 0.8810 0.8840 0.8870
12.187000 0.8870 0.8870 0.8890 0.8890 0.8910
12.220228 0.8920 0.8940 0.8940 0.8940 0.8960
12.253000 0.8940 0.8960 0.8960 0.8960 0.8970
12.286228 0.8960 0.8960 0.8960 0.8960 0.8940
12.319000 0.8940 0.8960 0.8970 0.8990 0.8990
12.352228 0.9010 0.8990 0.9010 0.9010 0.8990
12.386000 0.8990 0.8970 0.8960 0.8940 0.8940
12.419228 0.8920 0.8920 0.8920 0.8910 0.8910
12.452000 0.8910 0.8910 0.8910 0.8910 0.8910
12.485228 0.8920 0.8920 0.8940 0.8940 0.8960
12.519000 0.8970 0.8970 0.8990 0.9010 0.9010
12.552228 0.9010 0.9010 0.9010 0.9030 0.9030
12.585000 0.9030 0.9010 0.9010 0.9010 0.9010
12.618228 0.9010 0.9030 0.9030 0.9030 0.9030
12.652000 0.9040 0.9060 0.9060 0.9060 0.9080
12.685228 0.9080 0.9060 0.9080 0.9090 0.9090
12.718000 0.9080 0.9090 0.9090 0.9110 0.9110
12.751228 0.9110 0.9110 0.9130 0.9130 0.9130
12.784000 0.9130 0.9130 0.9140 0.9140 0.9140
12.817228 0.9140 0.9160 0.9160 0.9160 0.9160
12.851000 0.9160 0.9140 0.9130 0.9110 0.9110
12.884228 0.9110 0.9130 0.9130 0.9130 0.9130
12.917000 0.9130 0.9130 0.9130 0.9130 0.9110
12.950228 0.9110 0.9110 0.9110 0.9130 0.9130
12.984000 0.9130 0.9130 0.9130 0.9130 0.9130
13.017228 0.9110 0.9110 0.9110 0.9130 0.9130
13.050000 0.9130 0.9140 0.9140 0.9140 0.9140
13.083228 0.9140 0.9130 0.9130 0.9110 0.9110
13.117000 0.9130 0.9130 0.9110 0.9110 0.9130
13.150228 0.9130 0.9130 0.9130 0.9130 0.9130
13.183000 0.9140 0.9140 0.9140 0.9140 0.9140
13.216228 0.9140 0.9140 0.9140 0.9140 0.9130
13.249000 0.9110 0.9110 0.9090 0.9080 0.9080
13.282228 0.9080 0.9090 0.9060 0.9060 0.9080
13.316000 0.9080 0.9080 0.9080 0.9060 0.9040
13.349228 0.9030 0.9030 0.9010 0.8990 0.9010
13.382000 0.9010 0.8990 0.8990 0.8970 0.8990
13.415228 0.8990 0.8990 0.8990 0.8990 0.8970
13.449000 0.8960 0.8940 0.8920 0.8920 0.8910
13.482228 0.8910 0.8910 0.8910 0.8910 0.8890
13.515000 0.8890 0.8910 0.8910 0.8910 0.8910
13.548228 0.8910 0.8890 0.8870 0.8870 0.8840
13.582000 0.8840 0.8840 0.8840 0.8860 0.8840
13.615228 0.8860 0.8860 0.8860 0.8860 0.8870
13.648000 0.8870 0.8870 0.8870 0.8860 0.8840
13.681228 0.8840 0.8840 0.8840 0.8840 0.8820
13.714000 0.8820 0.8820 0.8820 0.8820 0.8810
13.747228 0.8810 0.8810 0.8810 0.8790 0.8770
13.781000 0.8770 0.8770 0.8770 0.8760 0.8760
13.814228 0.8740 0.8720 0.8720 0.8720 0.8720
13.847000 0.8720 0.8710 0.8710 0.8710 0.8710
13.880228 0.8710 0.8690 0.8690 0.8670 0.8670
13.914000 0.8670 0.8670 0.8660 0.8640 0.8620
13.947228 0.8610 0.8590 0.8570 0.8570 0.8560
13.980000 0.8560 0.8560 0.8570 0.8570 0.8590
14.013228 0.8590 0.8570 0.8570 0.8570 0.8560
14.046000 0.8560 0.8540 0.8540 0.8540 0.8520
14.079228 0.8520 0.8520 0.8510 0.8510 0.8490
14.113000 0.8490 0.8470 0.8460 0.8460 0.8440
14.146228 0.8440 0.8420 0.8410 0.8390 0.8390
14.179000 0.8370 0.8370 0.8370 0.8360 0.8340
14.212228 0.8340 0.8320 0.8310 0.8310 0.8310
14.246000 0.8290 0.8270 0.8260 0.8240 0.8220
14.279228 0.8220 0.8220 0.8210 0.8210 0.8190
14.312000 0.8170 0.8160 0.8160 0.8140 0.8120
14.345228 0.8110 0.8090 0.8070 0.8060 0.8040
14.379000 0.8020 0.8010 0.7970 0.7970 0.7950
14.412228 0.7940 0.7940 0.7920 0.7900 0.7900
14.445000 0.7890 0.7890 0.7870 0.7870 0.7850
14.478228 0.7840 0.7840 0.7840 0.7820 0.7820
14.511000 0.7820 0.7800 0.7790 0.7770 0.7740
14.544228 0.7740 0.7740 0.7740 0.7720 0.7700
14.578000 0.7700 0.7690 0.7690 0.7670 0.7650
14.611228 0.7620 0.7600 0.7590 0.7570 0.7550
14.644000 0.7550 0.7540 0.7540 0.7520 0.7500
14.677228 0.7500 0.7500 0.7490 0.7490 0.7470
14.711000 0.7470 0.7450 0.7450 0.7440 0.7440
14.744228 0.7420 0.7420 0.7390 0.7350 0.7350
14.777000 0.7320 0.7290 0.7170 0.7140 0.7140
14.810228 0.7140 0.7140 0.7140 0.7140 0.7150
14.844000 0.7150 0.7150 0.7170 0.7170 0.7170
14.877228 0.7170 0.7190 0.7170 0.7170 0.7170
14.910000 0.7170 0.7150 0.7150 0.7150 0.7150
14.943228 0.7140 0.7120 0.7120 0.7100 0.7070
14.976000 0.7050 0.7050 0.7050 0.7050 0.7050
15.009228 0.7040 0.7000 0.7000 0.7000 0.6980
15.043000 0.6980 0.6980 0.6980 0.6980 0.6970
15.076228 0.6950 0.6930 0.6920 0.6920 0.6920
15.109000 0.6920 0.6900 0.6880 0.6870 0.6850
15.142228 0.6850 0.6830 0.6820 0.6820 0.6800
15.176000 0.6780 0.6750 0.6730 0.6720 0.6700
15.209228 0.6700 0.6680 0.6670 0.6670 0.6670
15.242000 0.6670 0.6650 0.6650 0.6650 0.6630
15.275228 0.6630 0.6630 0.6630 0.6630 0.6630
15.309000 0.6630 0.6630 0.6630 0.6620 0.6600
15.342228 0.6600 0.6580 0.6550 0.6530 0.6530
15.375000 0.6520 0.6500 0.6480 0.6470 0.6450
15.408228 0.6430 0.6430 0.6430 0.6430 0.6420
15.441000 0.6420 0.6420 0.6400 0.6400 0.6380
15.474228 0.6380 0.6380 0.6350 0.6330 0.6330
15.508000 0.6330 0.6320 0.6320 0.6320 0.6320
15.541228 0.6320 0.6320 0.6320 0.6320 0.6320
15.574000 0.6320 0.6300 0.6300 0.6300 0.6280
15.607228 0.6280 0.6280 0.6280 0.6270 0.6270
15.641000 0.6270 0.6250 0.6270 0.6250 0.6250
15.674228 0.6230 0.6230 0.6230 0.6230 0.6220
15.707000 0.6220 0.6220 0.6220 0.6200 0.6200
15.740228 0.6200 0.6200 0.6200 0.6200 0.6200
15.774000 0.6220 0.6200 0.6200 0.6180 0.6180
15.807228 0.6180 0.6180 0.6180 0.6180 0.6180
15.840000 0.6180 0.6180 0.6180 0.6180 0.6180
15.873228 0.6180 0.6180 0.6180 0.6180 0.6180
15.906000 0.6180 0.6170 0.6170 0.6150 0.6130
15.939228 0.6150 0.6150 0.6150 0.6150 0.6150
15.973000 0.6150 0.6130 0.6130 0.6130 0.6130
##END=
