##TITLE=ACETIC ACID, CHLORO-, SODIUM SALT
##JCAMP-DX=4.24
$$ By DXEDIT 1.05 (RS McDonald)
##DATA TYPE=INFRARED SPECTRUM
##CLASS=COBLENTZ III
##ORIGIN=WYANDOTTE CHEMICALS CORP.
##OWNER=COBLENTZ SOC.
Collection (C) 2018 copyright by the U.S. Secretary of Commerce
on behalf of the United States of America. All rights reserved.
##DATE=1956/05/25
##MOLFORM=C2 H2 Cl Na O2
##SOURCE REFERENCE=COBLENTZ NO. 05934
##$NIST ID=B6005934
##$NIST SOURCE=COBLENTZ
##$NIST IMAGE=cob5934
##SPECTROMETER/DATA SYSTEM=BAIRD (GRATING)
##INSTRUMENT PARAMETERS=NaCl PRISM
##STATE=SOLID (OIL MULL)
##PATH LENGTH=
$$SPECTRAL CONTAMINATION DUE TO OIL AROUND 1480 AND 2900 CM^-^1
##SAMPLING PROCEDURE=TRANSMISSION
##RESOLUTION=2
##DATA PROCESSING=DIGITIZED BY COBLENTZ SOCIETY (BATCH I) FROM HARD COPY
##XUNITS=1/CM
##YUNITS=TRANSMITTANCE
##XLABEL=Wavenumbers (cm-1)
##YLABEL=Transmittance
##XFACTOR=1
##YFACTOR=1
##DELTAX=1
##FIRSTX=4000
##LASTX=625
##FIRSTY=0.9338
##MAXX=4000
##MINX=625
##MAXY=0.9737
##MINY=0.0439
##NPOINTS=3376
##XYDATA=(X++(Y..Y))
4000.000000 0.9338 0.9338 0.9339 0.9339 0.9340
3995.000000 0.9341 0.9341 0.9342 0.9344 0.9345
3990.000000 0.9347 0.9348 0.9349 0.9351 0.9354
3985.000000 0.9358 0.9361 0.9364 0.9367 0.9370
3980.000000 0.9373 0.9375 0.9380 0.9383 0.9386
3975.000000 0.9389 0.9392 0.9395 0.9399 0.9402
3970.000000 0.9405 0.9408 0.9411 0.9415 0.9418
3965.000000 0.9421 0.9425 0.9428 0.9431 0.9435
3960.000000 0.9438 0.9441 0.9445 0.9448 0.9451
3955.000000 0.9455 0.9458 0.9462 0.9466 0.9468
3950.000000 0.9473 0.9475 0.9478 0.9483 0.9486
3945.000000 0.9489 0.9493 0.9496 0.9500 0.9503
3940.000000 0.9506 0.9510 0.9513 0.9517 0.9518
3935.000000 0.9521 0.9524 0.9527 0.9528 0.9532
3930.000000 0.9534 0.9537 0.9539 0.9542 0.9544
3925.000000 0.9547 0.9549 0.9552 0.9554 0.9557
3920.000000 0.9560 0.9562 0.9562 0.9562 0.9561
3915.000000 0.9560 0.9559 0.9558 0.9556 0.9554
3910.000000 0.9551 0.9548 0.9545 0.9543 0.9540
3905.000000 0.9537 0.9533 0.9530 0.9527 0.9524
3900.000000 0.9521 0.9518 0.9515 0.9512 0.9509
3895.000000 0.9505 0.9502 0.9499 0.9496 0.9493
3890.000000 0.9490 0.9487 0.9483 0.9480 0.9477
3885.000000 0.9474 0.9471 0.9468 0.9465 0.9461
3880.000000 0.9458 0.9454 0.9451 0.9447 0.9444
3875.000000 0.9440 0.9437 0.9433 0.9430 0.9425
3870.000000 0.9423 0.9421 0.9418 0.9417 0.9415
3865.000000 0.9413 0.9413 0.9413 0.9414 0.9415
3860.000000 0.9416 0.9417 0.9418 0.9421 0.9424
3855.000000 0.9427 0.9428 0.9432 0.9435 0.9438
3850.000000 0.9440 0.9443 0.9446 0.9449 0.9452
3845.000000 0.9455 0.9458 0.9461 0.9463 0.9466
3840.000000 0.9468 0.9471 0.9475 0.9478 0.9481
3835.000000 0.9484 0.9487 0.9490 0.9493 0.9496
3830.000000 0.9499 0.9502 0.9505 0.9508 0.9511
3825.000000 0.9514 0.9517 0.9518 0.9521 0.9525
3820.000000 0.9527 0.9530 0.9532 0.9535 0.9538
3815.000000 0.9540 0.9543 0.9546 0.9549 0.9551
3810.000000 0.9554 0.9557 0.9560 0.9562 0.9565
3805.000000 0.9568 0.9571 0.9574 0.9575 0.9578
3800.000000 0.9582 0.9585 0.9587 0.9590 0.9593
3795.000000 0.9596 0.9598 0.9601 0.9604 0.9607
3790.000000 0.9610 0.9612 0.9615 0.9618 0.9620
3785.000000 0.9623 0.9625 0.9628 0.9631 0.9633
3780.000000 0.9635 0.9638 0.9640 0.9642 0.9644
3775.000000 0.9645 0.9645 0.9646 0.9647 0.9647
3770.000000 0.9648 0.9648 0.9648 0.9648 0.9648
3765.000000 0.9649 0.9649 0.9649 0.9649 0.9649
3760.000000 0.9649 0.9649 0.9647 0.9645 0.9643
3755.000000 0.9642 0.9640 0.9638 0.9636 0.9634
3750.000000 0.9631 0.9628 0.9627 0.9625 0.9623
3745.000000 0.9621 0.9618 0.9617 0.9614 0.9611
3740.000000 0.9609 0.9606 0.9603 0.9601 0.9598
3735.000000 0.9595 0.9593 0.9590 0.9587 0.9585
3730.000000 0.9582 0.9578 0.9575 0.9574 0.9571
3725.000000 0.9568 0.9566 0.9563 0.9560 0.9558
3720.000000 0.9555 0.9552 0.9549 0.9546 0.9543
3715.000000 0.9540 0.9537 0.9534 0.9530 0.9527
3710.000000 0.9523 0.9520 0.9517 0.9513 0.9510
3705.000000 0.9507 0.9503 0.9500 0.9497 0.9494
3700.000000 0.9490 0.9487 0.9484 0.9480 0.9477
3695.000000 0.9473 0.9470 0.9466 0.9463 0.9460
3690.000000 0.9456 0.9453 0.9450 0.9446 0.9442
3685.000000 0.9437 0.9433 0.9428 0.9424 0.9418
3680.000000 0.9413 0.9408 0.9403 0.9397 0.9392
3675.000000 0.9386 0.9381 0.9375 0.9370 0.9364
3670.000000 0.9357 0.9349 0.9342 0.9335 0.9328
3665.000000 0.9318 0.9309 0.9299 0.9289 0.9278
3660.000000 0.9270 0.9262 0.9254 0.9246 0.9238
3655.000000 0.9230 0.9224 0.9218 0.9212 0.9206
3650.000000 0.9200 0.9194 0.9188 0.9182 0.9175
3645.000000 0.9170 0.9164 0.9161 0.9157 0.9153
3640.000000 0.9149 0.9145 0.9143 0.9140 0.9137
3635.000000 0.9134 0.9131 0.9130 0.9130 0.9128
3630.000000 0.9128 0.9128 0.9127 0.9125 0.9125
3625.000000 0.9125 0.9124 0.9123 0.9123 0.9121
3620.000000 0.9121 0.9121 0.9121 0.9121 0.9123
3615.000000 0.9124 0.9125 0.9125 0.9128 0.9128
3610.000000 0.9131 0.9132 0.9134 0.9135 0.9137
3605.000000 0.9139 0.9141 0.9142 0.9144 0.9147
3600.000000 0.9150 0.9152 0.9155 0.9158 0.9162
3595.000000 0.9167 0.9171 0.9175 0.9180 0.9185
3590.000000 0.9189 0.9193 0.9197 0.9202 0.9205
3585.000000 0.9209 0.9213 0.9217 0.9220 0.9223
3580.000000 0.9225 0.9228 0.9232 0.9235 0.9238
3575.000000 0.9241 0.9243 0.9246 0.9249 0.9251
3570.000000 0.9252 0.9252 0.9253 0.9254 0.9254
3565.000000 0.9252 0.9251 0.9249 0.9248 0.9246
3560.000000 0.9244 0.9242 0.9241 0.9239 0.9237
3555.000000 0.9236 0.9234 0.9232 0.9231 0.9228
3550.000000 0.9228 0.9225 0.9225 0.9223 0.9221
3545.000000 0.9220 0.9218 0.9216 0.9214 0.9212
3540.000000 0.9211 0.9209 0.9208 0.9206 0.9204
3535.000000 0.9203 0.9201 0.9199 0.9197 0.9195
3530.000000 0.9194 0.9192 0.9191 0.9189 0.9187
3525.000000 0.9186 0.9184 0.9182 0.9180 0.9178
3520.000000 0.9177 0.9175 0.9173 0.9171 0.9170
3515.000000 0.9168 0.9167 0.9165 0.9164 0.9162
3510.000000 0.9162 0.9162 0.9162 0.9162 0.9161
3505.000000 0.9161 0.9161 0.9160 0.9160 0.9159
3500.000000 0.9159 0.9159 0.9159 0.9159 0.9158
3495.000000 0.9158 0.9157 0.9157 0.9157 0.9156
3490.000000 0.9156 0.9156 0.9156 0.9156 0.9155
3485.000000 0.9155 0.9154 0.9154 0.9154 0.9153
3480.000000 0.9153 0.9153 0.9153 0.9152 0.9152
3475.000000 0.9152 0.9151 0.9151 0.9150 0.9150
3470.000000 0.9150 0.9150 0.9150 0.9149 0.9149
3465.000000 0.9148 0.9148 0.9148 0.9147 0.9146
3460.000000 0.9145 0.9144 0.9144 0.9141 0.9139
3455.000000 0.9136 0.9133 0.9130 0.9128 0.9125
3450.000000 0.9121 0.9118 0.9117 0.9114 0.9111
3445.000000 0.9109 0.9106 0.9103 0.9101 0.9098
3440.000000 0.9096 0.9093 0.9090 0.9088 0.9085
3435.000000 0.9082 0.9078 0.9077 0.9074 0.9071
3430.000000 0.9068 0.9066 0.9063 0.9060 0.9058
3425.000000 0.9055 0.9053 0.9050 0.9048 0.9045
3420.000000 0.9043 0.9040 0.9037 0.9035 0.9032
3415.000000 0.9030 0.9027 0.9025 0.9023 0.9020
3410.000000 0.9018 0.9016 0.9013 0.9011 0.9009
3405.000000 0.9006 0.9003 0.9001 0.8998 0.8996
3400.000000 0.8993 0.8991 0.8989 0.8986 0.8984
3395.000000 0.8981 0.8978 0.8977 0.8974 0.8971
3390.000000 0.8968 0.8966 0.8964 0.8961 0.8959
3385.000000 0.8956 0.8954 0.8952 0.8949 0.8947
3380.000000 0.8944 0.8942 0.8940 0.8937 0.8935
3375.000000 0.8932 0.8930 0.8927 0.8925 0.8921
3370.000000 0.8918 0.8917 0.8914 0.8911 0.8909
3365.000000 0.8906 0.8904 0.8901 0.8899 0.8896
3360.000000 0.8894 0.8891 0.8889 0.8886 0.8883
3355.000000 0.8881 0.8878 0.8875 0.8873 0.8870
3350.000000 0.8868 0.8865 0.8863 0.8860 0.8858
3345.000000 0.8855 0.8852 0.8850 0.8847 0.8844
3340.000000 0.8841 0.8839 0.8836 0.8833 0.8831
3335.000000 0.8828 0.8825 0.8823 0.8820 0.8818
3330.000000 0.8815 0.8813 0.8810 0.8807 0.8805
3325.000000 0.8802 0.8799 0.8797 0.8794 0.8791
3320.000000 0.8788 0.8786 0.8783 0.8780 0.8777
3315.000000 0.8775 0.8771 0.8768 0.8767 0.8764
3310.000000 0.8761 0.8758 0.8756 0.8753 0.8750
3305.000000 0.8747 0.8745 0.8742 0.8739 0.8736
3300.000000 0.8734 0.8731 0.8728 0.8725 0.8723
3295.000000 0.8721 0.8718 0.8717 0.8716 0.8715
3290.000000 0.8714 0.8713 0.8712 0.8711 0.8709
3285.000000 0.8708 0.8707 0.8706 0.8705 0.8704
3280.000000 0.8702 0.8700 0.8698 0.8695 0.8692
3275.000000 0.8687 0.8682 0.8677 0.8671 0.8667
3270.000000 0.8662 0.8658 0.8653 0.8648 0.8643
3265.000000 0.8638 0.8633 0.8627 0.8620 0.8614
3260.000000 0.8607 0.8600 0.8592 0.8583 0.8575
3255.000000 0.8567 0.8558 0.8550 0.8541 0.8533
3250.000000 0.8524 0.8516 0.8508 0.8500 0.8491
3245.000000 0.8483 0.8474 0.8465 0.8457 0.8449
3240.000000 0.8442 0.8434 0.8425 0.8418 0.8412
3235.000000 0.8405 0.8398 0.8392 0.8385 0.8378
3230.000000 0.8371 0.8363 0.8356 0.8349 0.8342
3225.000000 0.8335 0.8328 0.8321 0.8314 0.8307
3220.000000 0.8301 0.8295 0.8289 0.8282 0.8275
3215.000000 0.8268 0.8263 0.8256 0.8250 0.8244
3210.000000 0.8237 0.8231 0.8225 0.8218 0.8212
3205.000000 0.8206 0.8201 0.8197 0.8192 0.8187
3200.000000 0.8183 0.8178 0.8175 0.8171 0.8167
3195.000000 0.8161 0.8158 0.8154 0.8151 0.8151
3190.000000 0.8149 0.8148 0.8146 0.8145 0.8143
3185.000000 0.8142 0.8140 0.8139 0.8137 0.8136
3180.000000 0.8135 0.8133 0.8132 0.8131 0.8130
3175.000000 0.8128 0.8126 0.8125 0.8124 0.8121
3170.000000 0.8121 0.8118 0.8115 0.8111 0.8108
3165.000000 0.8104 0.8099 0.8094 0.8088 0.8082
3160.000000 0.8075 0.8071 0.8065 0.8058 0.8053
3155.000000 0.8047 0.8041 0.8035 0.8028 0.8022
3150.000000 0.8017 0.8011 0.8003 0.7993 0.7984
3145.000000 0.7975 0.7965 0.7956 0.7947 0.7937
3140.000000 0.7928 0.7918 0.7908 0.7900 0.7890
3135.000000 0.7881 0.7871 0.7861 0.7853 0.7843
3130.000000 0.7834 0.7824 0.7814 0.7803 0.7792
3125.000000 0.7782 0.7769 0.7758 0.7748 0.7737
3120.000000 0.7726 0.7715 0.7705 0.7694 0.7683
3115.000000 0.7671 0.7661 0.7650 0.7639 0.7628
3110.000000 0.7617 0.7606 0.7593 0.7581 0.7568
3105.000000 0.7556 0.7542 0.7528 0.7515 0.7501
3100.000000 0.7488 0.7474 0.7461 0.7447 0.7434
3095.000000 0.7419 0.7407 0.7393 0.7380 0.7365
3090.000000 0.7351 0.7337 0.7322 0.7308 0.7292
3085.000000 0.7274 0.7256 0.7238 0.7221 0.7203
3080.000000 0.7185 0.7168 0.7150 0.7132 0.7114
3075.000000 0.7096 0.7075 0.7057 0.7037 0.7017
3070.000000 0.6996 0.6974 0.6953 0.6931 0.6908
3065.000000 0.6887 0.6865 0.6844 0.6821 0.6800
3060.000000 0.6778 0.6738 0.6697 0.6657 0.6615
3055.000000 0.6575 0.6534 0.6493 0.6451 0.6410
3050.000000 0.6368 0.6326 0.6210 0.6074 0.5938
3045.000000 0.5808 0.5764 0.5721 0.5677 0.5639
3040.000000 0.5610 0.5581 0.5552 0.5523 0.5494
3035.000000 0.5465 0.5436 0.5405 0.5373 0.5341
3030.000000 0.5284 0.5166 0.5049 0.4931 0.4871
3025.000000 0.4843 0.4814 0.4786 0.4762 0.4740
3020.000000 0.4717 0.4690 0.4653 0.4616 0.4579
3015.000000 0.4537 0.4492 0.4447 0.4399 0.4293
3010.000000 0.4187 0.4080 0.3979 0.3884 0.3790
3005.000000 0.3696 0.3600 0.3506 0.3410 0.3316
3000.000000 0.3221 0.3126 0.3031 0.2935 0.2840
2995.000000 0.2745 0.2649 0.2554 0.2458 0.2363
2990.000000 0.2267 0.2172 0.2076 0.1979 0.1884
2985.000000 0.1787 0.1691 0.1595 0.1499 0.1403
2980.000000 0.1307 0.1211 0.1115 0.1019 0.0939
2975.000000 0.0922 0.0907 0.0892 0.0876 0.0863
2970.000000 0.0847 0.0834 0.0820 0.0805 0.0791
2965.000000 0.0778 0.0765 0.0751 0.0739 0.0729
2960.000000 0.0720 0.0710 0.0705 0.0701 0.0698
2955.000000 0.0694 0.0691 0.0688 0.0685 0.0682
2950.000000 0.0679 0.0676 0.0673 0.0673 0.0672
2945.000000 0.0671 0.0670 0.0669 0.0668 0.0668
2940.000000 0.0671 0.0673 0.0676 0.0680 0.0684
2935.000000 0.0688 0.0693 0.0698 0.0703 0.0708
2930.000000 0.0716 0.0725 0.0734 0.0744 0.0754
2925.000000 0.0765 0.0775 0.0796 0.0817 0.0838
2920.000000 0.0865 0.0896 0.0928 0.0959 0.0991
2915.000000 0.1022 0.1054 0.1085 0.1117 0.1148
2910.000000 0.1180 0.1212 0.1242 0.1275 0.1306
2905.000000 0.1338 0.1370 0.1402 0.1433 0.1465
2900.000000 0.1496 0.1529 0.1561 0.1592 0.1625
2895.000000 0.1657 0.1689 0.1715 0.1734 0.1753
2890.000000 0.1770 0.1770 0.1771 0.1771 0.1761
2885.000000 0.1749 0.1736 0.1720 0.1698 0.1677
2880.000000 0.1656 0.1634 0.1613 0.1591 0.1570
2875.000000 0.1548 0.1526 0.1504 0.1483 0.1461
2870.000000 0.1442 0.1431 0.1419 0.1408 0.1408
2865.000000 0.1408 0.1408 0.1408 0.1408 0.1408
2860.000000 0.1481 0.1658 0.1835 0.2015 0.2201
2855.000000 0.2387 0.2573 0.2760 0.2947 0.3134
2850.000000 0.3321 0.3508 0.3695 0.3882 0.4068
2845.000000 0.4257 0.4444 0.4632 0.4820 0.5007
2840.000000 0.5196 0.5384 0.5573 0.5665 0.5714
2835.000000 0.5762 0.5802 0.5834 0.5866 0.5901
2830.000000 0.5944 0.5987 0.6030 0.6079 0.6127
2825.000000 0.6176 0.6274 0.6381 0.6488 0.6548
2820.000000 0.6583 0.6618 0.6655 0.6691 0.6725
2815.000000 0.6768 0.6821 0.6875 0.6928 0.6974
2810.000000 0.7019 0.7065 0.7094 0.7122 0.7151
2805.000000 0.7178 0.7207 0.7236 0.7264 0.7292
2800.000000 0.7321 0.7349 0.7378 0.7406 0.7434
2795.000000 0.7461 0.7488 0.7511 0.7532 0.7551
2790.000000 0.7571 0.7592 0.7611 0.7632 0.7651
2785.000000 0.7671 0.7692 0.7711 0.7732 0.7751
2780.000000 0.7771 0.7791 0.7811 0.7831 0.7850
2775.000000 0.7869 0.7889 0.7907 0.7925 0.7944
2770.000000 0.7960 0.7975 0.7991 0.8005 0.8018
2765.000000 0.8030 0.8038 0.8046 0.8054 0.8061
2760.000000 0.8069 0.8076 0.8084 0.8091 0.8097
2755.000000 0.8103 0.8108 0.8112 0.8118 0.8124
2750.000000 0.8130 0.8135 0.8141 0.8146 0.8151
2745.000000 0.8156 0.8161 0.8165 0.8171 0.8175
2740.000000 0.8178 0.8183 0.8187 0.8191 0.8195
2735.000000 0.8198 0.8202 0.8206 0.8210 0.8214
2730.000000 0.8218 0.8221 0.8225 0.8228 0.8231
2725.000000 0.8235 0.8238 0.8242 0.8245 0.8249
2720.000000 0.8252 0.8255 0.8258 0.8261 0.8263
2715.000000 0.8266 0.8268 0.8271 0.8273 0.8275
2710.000000 0.8278 0.8280 0.8283 0.8286 0.8288
2705.000000 0.8288 0.8286 0.8284 0.8282 0.8280
2700.000000 0.8278 0.8275 0.8274 0.8271 0.8270
2695.000000 0.8268 0.8266 0.8264 0.8261 0.8259
2690.000000 0.8258 0.8256 0.8254 0.8252 0.8251
2685.000000 0.8250 0.8250 0.8251 0.8252 0.8252
2680.000000 0.8252 0.8253 0.8254 0.8254 0.8256
2675.000000 0.8257 0.8259 0.8262 0.8265 0.8267
2670.000000 0.8270 0.8273 0.8275 0.8278 0.8281
2665.000000 0.8285 0.8291 0.8296 0.8303 0.8311
2660.000000 0.8320 0.8328 0.8337 0.8345 0.8354
2655.000000 0.8362 0.8371 0.8381 0.8391 0.8402
2650.000000 0.8416 0.8430 0.8444 0.8458 0.8471
2645.000000 0.8486 0.8499 0.8513 0.8525 0.8538
2640.000000 0.8550 0.8559 0.8567 0.8575 0.8577
2635.000000 0.8578 0.8580 0.8582 0.8584 0.8586
2630.000000 0.8587 0.8589 0.8590 0.8591 0.8592
2625.000000 0.8592 0.8592 0.8593 0.8593 0.8593
2620.000000 0.8593 0.8593 0.8593 0.8594 0.8594
2615.000000 0.8595 0.8595 0.8595 0.8596 0.8596
2610.000000 0.8596 0.8596 0.8597 0.8598 0.8605
2605.000000 0.8612 0.8618 0.8625 0.8633 0.8640
2600.000000 0.8647 0.8654 0.8661 0.8667 0.8674
2595.000000 0.8681 0.8687 0.8694 0.8701 0.8707
2590.000000 0.8713 0.8718 0.8724 0.8728 0.8731
2585.000000 0.8734 0.8737 0.8740 0.8744 0.8747
2580.000000 0.8750 0.8754 0.8757 0.8760 0.8763
2575.000000 0.8766 0.8770 0.8773 0.8777 0.8780
2570.000000 0.8783 0.8786 0.8788 0.8789 0.8790
2565.000000 0.8791 0.8793 0.8793 0.8794 0.8795
2560.000000 0.8796 0.8797 0.8798 0.8799 0.8800
2555.000000 0.8800 0.8801 0.8802 0.8803 0.8805
2550.000000 0.8805 0.8806 0.8807 0.8808 0.8809
2545.000000 0.8810 0.8811 0.8812 0.8815 0.8818
2540.000000 0.8821 0.8824 0.8827 0.8830 0.8833
2535.000000 0.8836 0.8839 0.8841 0.8844 0.8848
2530.000000 0.8851 0.8854 0.8857 0.8860 0.8863
2525.000000 0.8866 0.8870 0.8873 0.8878 0.8884
2520.000000 0.8889 0.8895 0.8900 0.8906 0.8911
2515.000000 0.8917 0.8923 0.8928 0.8934 0.8939
2510.000000 0.8945 0.8950 0.8956 0.8961 0.8967
2505.000000 0.8973 0.8978 0.8984 0.8989 0.8994
2500.000000 0.9000 0.9005 0.9010 0.9015 0.9021
2495.000000 0.9027 0.9032 0.9037 0.9042 0.9047
2490.000000 0.9053 0.9058 0.9063 0.9068 0.9074
2485.000000 0.9078 0.9083 0.9088 0.9091 0.9093
2480.000000 0.9096 0.9098 0.9100 0.9102 0.9105
2475.000000 0.9107 0.9110 0.9112 0.9114 0.9116
2470.000000 0.9118 0.9121 0.9123 0.9125 0.9128
2465.000000 0.9130 0.9133 0.9135 0.9136 0.9137
2460.000000 0.9138 0.9140 0.9141 0.9143 0.9144
2455.000000 0.9145 0.9147 0.9148 0.9149 0.9150
2450.000000 0.9152 0.9153 0.9154 0.9156 0.9158
2445.000000 0.9159 0.9160 0.9161 0.9163 0.9164
2440.000000 0.9164 0.9164 0.9164 0.9164 0.9164
2435.000000 0.9164 0.9164 0.9164 0.9164 0.9164
2430.000000 0.9164 0.9164 0.9164 0.9164 0.9164
2425.000000 0.9164 0.9163 0.9163 0.9162 0.9161
2420.000000 0.9159 0.9158 0.9157 0.9155 0.9154
2415.000000 0.9153 0.9152 0.9150 0.9149 0.9148
2410.000000 0.9145 0.9141 0.9137 0.9133 0.9128
2405.000000 0.9125 0.9121 0.9117 0.9113 0.9108
2400.000000 0.9104 0.9099 0.9095 0.9091 0.9084
2395.000000 0.9077 0.9075 0.9075 0.9078 0.9082
2390.000000 0.9086 0.9090 0.9094 0.9097 0.9100
2385.000000 0.9103 0.9105 0.9107 0.9109 0.9111
2380.000000 0.9114 0.9117 0.9118 0.9121 0.9124
2375.000000 0.9125 0.9128 0.9130 0.9131 0.9133
2370.000000 0.9134 0.9135 0.9136 0.9137 0.9138
2365.000000 0.9141 0.9147 0.9154 0.9164 0.9174
2360.000000 0.9184 0.9194 0.9205 0.9216 0.9228
2355.000000 0.9240 0.9252 0.9264 0.9275 0.9288
2350.000000 0.9300 0.9312 0.9324 0.9337 0.9349
2345.000000 0.9361 0.9373 0.9386 0.9398 0.9409
2340.000000 0.9421 0.9434 0.9446 0.9459 0.9471
2335.000000 0.9483 0.9496 0.9508 0.9521 0.9533
2330.000000 0.9545 0.9557 0.9568 0.9580 0.9591
2325.000000 0.9602 0.9613 0.9624 0.9636 0.9647
2320.000000 0.9655 0.9663 0.9668 0.9675 0.9681
2315.000000 0.9687 0.9693 0.9700 0.9704 0.9708
2310.000000 0.9711 0.9712 0.9714 0.9715 0.9717
2305.000000 0.9718 0.9718 0.9718 0.9715 0.9710
2300.000000 0.9705 0.9699 0.9694 0.9680 0.9664
2295.000000 0.9646 0.9625 0.9607 0.9589 0.9575
2290.000000 0.9565 0.9555 0.9544 0.9534 0.9523
2285.000000 0.9513 0.9507 0.9500 0.9494 0.9488
2280.000000 0.9482 0.9475 0.9471 0.9468 0.9467
2275.000000 0.9465 0.9463 0.9461 0.9459 0.9457
2270.000000 0.9457 0.9457 0.9458 0.9459 0.9460
2265.000000 0.9460 0.9461 0.9462 0.9463 0.9463
2260.000000 0.9464 0.9465 0.9466 0.9466 0.9467
2255.000000 0.9468 0.9468 0.9470 0.9471 0.9473
2250.000000 0.9475 0.9477 0.9478 0.9481 0.9483
2245.000000 0.9485 0.9487 0.9489 0.9491 0.9494
2240.000000 0.9498 0.9504 0.9512 0.9518 0.9525
2235.000000 0.9533 0.9540 0.9547 0.9554 0.9558
2230.000000 0.9562 0.9565 0.9568 0.9571 0.9574
2225.000000 0.9575 0.9578 0.9582 0.9585 0.9588
2220.000000 0.9591 0.9594 0.9597 0.9598 0.9599
2215.000000 0.9599 0.9598 0.9598 0.9598 0.9598
2210.000000 0.9597 0.9597 0.9597 0.9597 0.9596
2205.000000 0.9596 0.9596 0.9596 0.9595 0.9595
2200.000000 0.9595 0.9595 0.9595 0.9595 0.9595
2195.000000 0.9595 0.9596 0.9596 0.9597 0.9598
2190.000000 0.9598 0.9599 0.9600 0.9601 0.9601
2185.000000 0.9602 0.9602 0.9603 0.9603 0.9604
2180.000000 0.9604 0.9605 0.9606 0.9607 0.9607
2175.000000 0.9608 0.9608 0.9609 0.9611 0.9612
2170.000000 0.9614 0.9615 0.9617 0.9618 0.9620
2165.000000 0.9621 0.9623 0.9625 0.9627 0.9628
2160.000000 0.9630 0.9631 0.9632 0.9634 0.9635
2155.000000 0.9637 0.9638 0.9640 0.9642 0.9643
2150.000000 0.9645 0.9646 0.9648 0.9650 0.9651
2145.000000 0.9654 0.9656 0.9657 0.9659 0.9661
2140.000000 0.9662 0.9665 0.9666 0.9668 0.9670
2135.000000 0.9671 0.9674 0.9675 0.9677 0.9678
2130.000000 0.9681 0.9683 0.9685 0.9687 0.9688
2125.000000 0.9690 0.9692 0.9693 0.9695 0.9697
2120.000000 0.9699 0.9701 0.9703 0.9704 0.9706
2115.000000 0.9709 0.9710 0.9712 0.9714 0.9715
2110.000000 0.9717 0.9718 0.9721 0.9723 0.9725
2105.000000 0.9727 0.9728 0.9731 0.9733 0.9735
2100.000000 0.9737 0.9737 0.9737 0.9735 0.9733
2095.000000 0.9731 0.9728 0.9725 0.9720 0.9715
2090.000000 0.9710 0.9705 0.9700 0.9694 0.9689
2085.000000 0.9684 0.9682 0.9680 0.9678 0.9677
2080.000000 0.9675 0.9674 0.9674 0.9674 0.9677
2075.000000 0.9680 0.9682 0.9684 0.9687 0.9690
2070.000000 0.9692 0.9695 0.9698 0.9700 0.9703
2065.000000 0.9706 0.9709 0.9712 0.9715 0.9718
2060.000000 0.9721 0.9724 0.9727 0.9730 0.9733
2055.000000 0.9732 0.9730 0.9727 0.9724 0.9721
2050.000000 0.9718 0.9716 0.9713 0.9710 0.9708
2045.000000 0.9705 0.9702 0.9700 0.9697 0.9695
2040.000000 0.9693 0.9690 0.9688 0.9685 0.9682
2035.000000 0.9678 0.9677 0.9675 0.9673 0.9673
2030.000000 0.9671 0.9670 0.9670 0.9668 0.9668
2025.000000 0.9667 0.9666 0.9665 0.9664 0.9663
2020.000000 0.9662 0.9661 0.9660 0.9659 0.9658
2015.000000 0.9658 0.9657 0.9657 0.9657 0.9656
2010.000000 0.9656 0.9656 0.9655 0.9655 0.9654
2005.000000 0.9654 0.9654 0.9653 0.9653 0.9652
2000.000000 0.9652 0.9652 0.9651 0.9651 0.9651
1995.000000 0.9650 0.9650 0.9649 0.9649 0.9649
1990.000000 0.9649 0.9649 0.9649 0.9649 0.9649
1985.000000 0.9649 0.9649 0.9649 0.9650 0.9650
1980.000000 0.9650 0.9650 0.9694 0.9652 0.9654
1975.000000 0.9656 0.9658 0.9661 0.9663 0.9665
1970.000000 0.9668 0.9670 0.9671 0.9674 0.9675
1965.000000 0.9678 0.9681 0.9683 0.9685 0.9688
1960.000000 0.9690 0.9692 0.9694 0.9696 0.9699
1955.000000 0.9701 0.9703 0.9706 0.9708 0.9710
1950.000000 0.9712 0.9714 0.9716 0.9718 0.9718
1945.000000 0.9720 0.9721 0.9723 0.9724 0.9725
1940.000000 0.9727 0.9728 0.9728 0.9731 0.9732
1935.000000 0.9733 0.9735 0.9736 0.9736 0.9736
1930.000000 0.9736 0.9734 0.9733 0.9732 0.9730
1925.000000 0.9728 0.9727 0.9725 0.9725 0.9724
1920.000000 0.9723 0.9721 0.9721 0.9720 0.9720
1915.000000 0.9718 0.9718 0.9718 0.9718 0.9718
1910.000000 0.9718 0.9718 0.9718 0.9718 0.9718
1905.000000 0.9717 0.9716 0.9716 0.9715 0.9714
1900.000000 0.9714 0.9713 0.9712 0.9711 0.9710
1895.000000 0.9709 0.9708 0.9706 0.9703 0.9701
1890.000000 0.9699 0.9697 0.9694 0.9692 0.9690
1885.000000 0.9687 0.9685 0.9682 0.9680 0.9678
1880.000000 0.9675 0.9671 0.9668 0.9665 0.9662
1875.000000 0.9659 0.9655 0.9652 0.9648 0.9643
1870.000000 0.9638 0.9633 0.9628 0.9623 0.9618
1865.000000 0.9614 0.9605 0.9591 0.9577 0.9563
1860.000000 0.9549 0.9533 0.9517 0.9501 0.9485
1855.000000 0.9470 0.9454 0.9439 0.9424 0.9408
1850.000000 0.9398 0.9393 0.9393 0.9393 0.9393
1845.000000 0.9392 0.9391 0.9390 0.9388 0.9387
1840.000000 0.9385 0.9384 0.9382 0.9381 0.9378
1835.000000 0.9375 0.9373 0.9371 0.9368 0.9365
1830.000000 0.9362 0.9360 0.9357 0.9354 0.9351
1825.000000 0.9349 0.9345 0.9340 0.9335 0.9328
1820.000000 0.9324 0.9318 0.9314 0.9308 0.9304
1815.000000 0.9298 0.9291 0.9278 0.9265 0.9253
1810.000000 0.9241 0.9228 0.9216 0.9202 0.9188
1805.000000 0.9171 0.9156 0.9139 0.9123 0.9107
1800.000000 0.9093 0.9078 0.9063 0.9049 0.9034
1795.000000 0.9018 0.9004 0.8989 0.8973 0.8955
1790.000000 0.8938 0.8920 0.8898 0.8871 0.8854
1785.000000 0.8837 0.8821 0.8806 0.8786 0.8764
1780.000000 0.8741 0.8716 0.8689 0.8662 0.8635
1775.000000 0.8607 0.8577 0.8543 0.8509 0.8471
1770.000000 0.8431 0.8384 0.8338 0.8280 0.8217
1765.000000 0.8155 0.8101 0.8069 0.8038 0.8006
1760.000000 0.7972 0.7941 0.7908 0.7878 0.7851
1755.000000 0.7824 0.7797 0.7769 0.7743 0.7715
1750.000000 0.7688 0.7661 0.7633 0.7606 0.7578
1745.000000 0.7551 0.7524 0.7500 0.7475 0.7451
1740.000000 0.7428 0.7405 0.7381 0.7357 0.7330
1735.000000 0.7303 0.7275 0.7247 0.7219 0.7187
1730.000000 0.7143 0.7085 0.7028 0.6974 0.6928
1725.000000 0.6888 0.6847 0.6807 0.6765 0.6725
1720.000000 0.6680 0.6625 0.6561 0.6498 0.6422
1715.000000 0.6295 0.6089 0.5925 0.5848 0.5799
1710.000000 0.5748 0.5715 0.5690 0.5666 0.5644
1705.000000 0.5621 0.5596 0.5566 0.5536 0.5506
1700.000000 0.5476 0.5439 0.5397 0.5354 0.5312
1695.000000 0.5269 0.5218 0.5154 0.5087 0.5020
1690.000000 0.4935 0.4809 0.4642 0.4183 0.4054
1685.000000 0.3975 0.3927 0.3893 0.3852 0.3800
1680.000000 0.3755 0.3714 0.3674 0.3632 0.3586
1675.000000 0.3534 0.3479 0.3425 0.3372 0.3323
1670.000000 0.3277 0.3230 0.3184 0.3137 0.3078
1665.000000 0.3011 0.2945 0.2872 0.2784 0.2696
1660.000000 0.2607 0.2525 0.2468 0.2413 0.2358
1655.000000 0.2301 0.2242 0.2168 0.2084 0.2019
1650.000000 0.1953 0.1887 0.1822 0.1757 0.1691
1645.000000 0.1625 0.1559 0.1492 0.1428 0.1362
1640.000000 0.1295 0.1229 0.1163 0.1096 0.1030
1635.000000 0.0964 0.0896 0.0830 0.0763 0.0584
1630.000000 0.0528 0.0511 0.0495 0.0481 0.0467
1625.000000 0.0454 0.0447 0.0444 0.0442 0.0439
1620.000000 0.0445 0.0443 0.0447 0.0450 0.0462
1615.000000 0.0477 0.0494 0.0517 0.0540 0.0563
1610.000000 0.0587 0.0610 0.0634 0.0659 0.0692
1605.000000 0.0729 0.0765 0.0801 0.0838 0.0874
1600.000000 0.0911 0.0958 0.1026 0.1108 0.1186
1595.000000 0.1258 0.1327 0.1385 0.1425 0.1467
1590.000000 0.1514 0.1566 0.1618 0.1695 0.1839
1585.000000 0.1977 0.2062 0.2147 0.2232 0.2314
1580.000000 0.2382 0.2449 0.2516 0.2583 0.2650
1575.000000 0.2716 0.2771 0.2817 0.2864 0.2910
1570.000000 0.2956 0.3002 0.3048 0.3094 0.3135
1565.000000 0.3179 0.3221 0.3264 0.3306 0.3349
1560.000000 0.3391 0.3432 0.3476 0.3518 0.3562
1555.000000 0.3604 0.3646 0.3688 0.3730 0.3773
1550.000000 0.3816 0.3858 0.3900 0.3943 0.3984
1545.000000 0.4016 0.4050 0.4082 0.4114 0.4147
1540.000000 0.4179 0.4212 0.4244 0.4275 0.4305
1535.000000 0.4334 0.4364 0.4393 0.4422 0.4458
1530.000000 0.4497 0.4537 0.4576 0.4616 0.4656
1525.000000 0.4698 0.4742 0.4781 0.4809 0.4831
1520.000000 0.4853 0.4876 0.4898 0.4920 0.4937
1515.000000 0.4943 0.4912 0.4955 0.4958 0.4959
1510.000000 0.4960 0.4954 0.4945 0.4936 0.4927
1505.000000 0.4912 0.4895 0.4877 0.4855 0.4817
1500.000000 0.4774 0.4722 0.4660 0.4595 0.4484
1495.000000 0.4346 0.4202 0.4062 0.3936 0.3798
1490.000000 0.3628 0.3448 0.3262 0.3059 0.2807
1485.000000 0.2578 0.2470 0.2374 0.2312 0.2303
1480.000000 0.2298 0.2295 0.2302 0.2317 0.2342
1475.000000 0.2370 0.2413 0.2457 0.2501 0.2544
1470.000000 0.2588 0.2632 0.2677 0.2722 0.2775
1465.000000 0.2834 0.2893 0.2938 0.2972 0.2984
1460.000000 0.2992 0.3000 0.3000 0.3000 0.2996
1455.000000 0.2989 0.2961 0.2930 0.2877 0.2795
1450.000000 0.2658 0.2519 0.2380 0.2240 0.2100
1445.000000 0.1961 0.1821 0.1681 0.1540 0.1399
1440.000000 0.1260 0.1165 0.1145 0.1129 0.1119
1435.000000 0.1053 0.1103 0.1100 0.1100 0.1111
1430.000000 0.1127 0.1148 0.1184 0.1224 0.1273
1425.000000 0.1395 0.1570 0.1702 0.1833 0.1965
1420.000000 0.2096 0.2392 0.2357 0.2385 0.2369
1415.000000 0.2202 0.1965 0.1727 0.1548 0.1527
1410.000000 0.1535 0.1763 0.2040 0.2317 0.2595
1405.000000 0.2874 0.3152 0.3432 0.3709 0.3990
1400.000000 0.4310 0.4298 0.4297 0.4296 0.4231
1395.000000 0.4137 0.4043 0.3949 0.3855 0.3762
1390.000000 0.3668 0.3609 0.3587 0.3590 0.3653
1385.000000 0.3816 0.3990 0.4165 0.4340 0.4514
1380.000000 0.4690 0.4865 0.5006 0.5082 0.5158
1375.000000 0.5234 0.5322 0.5430 0.5533 0.5607
1370.000000 0.5669 0.5715 0.5743 0.5743 0.5739
1365.000000 0.5733 0.5728 0.5744 0.5785 0.5828
1360.000000 0.5872 0.5916 0.5960 0.6003 0.6048
1355.000000 0.6092 0.6142 0.6196 0.6250 0.6303
1350.000000 0.6358 0.6412 0.6468 0.6525 0.6591
1345.000000 0.6651 0.6701 0.6753 0.6803 0.6850
1340.000000 0.6895 0.6941 0.6990 0.7031 0.7050
1335.000000 0.7047 0.7044 0.7042 0.7040 0.7037
1330.000000 0.7035 0.7032 0.7030 0.7028 0.7026
1325.000000 0.7031 0.7034 0.7038 0.7041 0.7045
1320.000000 0.7049 0.7055 0.7061 0.7068 0.7074
1315.000000 0.7080 0.7091 0.7108 0.7125 0.7145
1310.000000 0.7190 0.7237 0.7280 0.7306 0.7328
1305.000000 0.7338 0.7347 0.7358 0.7372 0.7388
1300.000000 0.7417 0.7454 0.7490 0.7526 0.7564
1295.000000 0.7594 0.7622 0.7639 0.7651 0.7662
1290.000000 0.7671 0.7680 0.7687 0.7694 0.7700
1285.000000 0.7700 0.7699 0.7699 0.7698 0.7690
1280.000000 0.7683 0.7672 0.7658 0.7642 0.7611
1275.000000 0.7576 0.7532 0.7462 0.6846 0.6625
1270.000000 0.6056 0.5598 0.5020 0.4409 0.3795
1265.000000 0.3192 0.2884 0.2706 0.2315 0.1983
1260.000000 0.1652 0.1320 0.1007 0.0900 0.0929
1255.000000 0.0895 0.1108 0.1465 0.1821 0.2178
1250.000000 0.2535 0.2894 0.3253 0.3612 0.3972
1245.000000 0.4338 0.4685 0.4904 0.5075 0.5328
1240.000000 0.5549 0.5688 0.5823 0.5941 0.6051
1235.000000 0.6160 0.6248 0.6329 0.6408 0.6482
1230.000000 0.6553 0.6618 0.6665 0.6715 0.6762
1225.000000 0.6811 0.6843 0.6871 0.6901 0.6933
1220.000000 0.6962 0.6993 0.7022 0.7054 0.7084
1215.000000 0.7115 0.7145 0.7175 0.7206 0.7233
1210.000000 0.7260 0.7287 0.7312 0.7340 0.7367
1205.000000 0.7392 0.7414 0.7435 0.7457 0.7478
1200.000000 0.7501 0.7521 0.7544 0.7565 0.7587
1195.000000 0.7605 0.7614 0.7622 0.7633 0.7643
1190.000000 0.7651 0.7661 0.7668 0.7675 0.7678
1185.000000 0.7682 0.7683 0.7683 0.7676 0.7655
1180.000000 0.7615 0.7465 0.7269 0.7074 0.6876
1175.000000 0.6501 0.6521 0.6518 0.6735 0.7034
1170.000000 0.7335 0.7585 0.7651 0.7680 0.7699
1165.000000 0.7718 0.7738 0.7757 0.7776 0.7798
1160.000000 0.7825 0.7855 0.7884 0.7912 0.7943
1155.000000 0.7972 0.8003 0.8033 0.8062 0.8092
1150.000000 0.8117 0.8143 0.8168 0.8188 0.8200
1145.000000 0.8206 0.8204 0.8181 0.8147 0.8111
1140.000000 0.8076 0.8045 0.8019 0.7996 0.7971
1135.000000 0.7948 0.7924 0.7900 0.7875 0.7857
1130.000000 0.7838 0.7818 0.7798 0.7778 0.7758
1125.000000 0.7739 0.7721 0.7701 0.7684 0.7667
1120.000000 0.7651 0.7635 0.7618 0.7601 0.7585
1115.000000 0.7568 0.7556 0.7546 0.7536 0.7526
1110.000000 0.7517 0.7508 0.7499 0.7489 0.7480
1105.000000 0.7469 0.7460 0.7451 0.7442 0.7439
1100.000000 0.7436 0.7432 0.7428 0.7425 0.7421
1095.000000 0.7418 0.7414 0.7411 0.7408 0.7408
1090.000000 0.7412 0.7415 0.7418 0.7421 0.7425
1085.000000 0.7415 0.7433 0.7440 0.7447 0.7455
1080.000000 0.7461 0.7468 0.7476 0.7484 0.7492
1075.000000 0.7505 0.7518 0.7531 0.7545 0.7558
1070.000000 0.7574 0.7592 0.7608 0.7625 0.7640
1065.000000 0.7648 0.7656 0.7664 0.7671 0.7680
1060.000000 0.7687 0.7693 0.7697 0.7701 0.7706
1055.000000 0.7711 0.7715 0.7718 0.7718 0.7718
1050.000000 0.7717 0.7715 0.7714 0.7712 0.7708
1045.000000 0.7706 0.7703 0.7700 0.7696 0.7694
1040.000000 0.7692 0.7689 0.7689 0.7693 0.7698
1035.000000 0.7701 0.7706 0.7714 0.7721 0.7730
1030.000000 0.7741 0.7755 0.7771 0.7789 0.7808
1025.000000 0.7830 0.7844 0.7855 0.7867 0.7876
1020.000000 0.7881 0.7887 0.7892 0.7898 0.7904
1015.000000 0.7910 0.7915 0.7921 0.7934 0.7947
1010.000000 0.7961 0.7975 0.7991 0.8017 0.8044
1005.000000 0.8068 0.8092 0.8114 0.8138 0.8149
1000.000000 0.8157 0.8165 0.8172 0.8180 0.8188
995.000000 0.8195 0.8199 0.8198 0.8198 0.8198
990.000000 0.8198 0.8198 0.8198 0.8198 0.8198
985.000000 0.8198 0.8198 0.8198 0.8198 0.8197
980.000000 0.8197 0.8197 0.8197 0.8197 0.8197
975.000000 0.8197 0.8197 0.8199 0.8201 0.8202
970.000000 0.8204 0.8205 0.8207 0.8209 0.8211
965.000000 0.8213 0.8215 0.8216 0.8216 0.8215
960.000000 0.8214 0.8214 0.8212 0.8209 0.8205
955.000000 0.8202 0.8180 0.8155 0.8131 0.8092
950.000000 0.8054 0.7998 0.7936 0.7871 0.7807
945.000000 0.7742 0.7662 0.7581 0.7487 0.7386
940.000000 0.7222 0.6950 0.6578 0.5815 0.4738
935.000000 0.3659 0.2591 0.2587 0.3146 0.4030
930.000000 0.5083 0.5017 0.4528 0.4466 0.5218
925.000000 0.6265 0.7314 0.7665 0.7835 0.7948
920.000000 0.8055 0.8121 0.8184 0.8246 0.8296
915.000000 0.8346 0.8394 0.8428 0.8463 0.8488
910.000000 0.8510 0.8531 0.8543 0.8552 0.8561
905.000000 0.8568 0.8568 0.8568 0.8568 0.8568
900.000000 0.8568 0.8566 0.8564 0.8561 0.8559
895.000000 0.8559 0.8561 0.8562 0.8563 0.8575
890.000000 0.8586 0.8605 0.8633 0.8660 0.8685
885.000000 0.8691 0.8687 0.8687 0.8686 0.8688
880.000000 0.8690 0.8693 0.8704 0.8718 0.8732
875.000000 0.8740 0.8743 0.8746 0.8738 0.8725
870.000000 0.8713 0.8701 0.8690 0.8680 0.8668
865.000000 0.8688 0.8661 0.8662 0.8662 0.8662
860.000000 0.8661 0.8657 0.8654 0.8650 0.8637
855.000000 0.8624 0.8612 0.8603 0.8593 0.8583
850.000000 0.8574 0.8566 0.8558 0.8550 0.8542
845.000000 0.8535 0.8527 0.8521 0.8516 0.8511
840.000000 0.8505 0.8500 0.8495 0.8491 0.8485
835.000000 0.8480 0.8473 0.8466 0.8459 0.8452
830.000000 0.8443 0.8428 0.8413 0.8399 0.8378
825.000000 0.8359 0.8338 0.8318 0.8303 0.8288
820.000000 0.8273 0.8262 0.8252 0.8243 0.8233
815.000000 0.8225 0.8218 0.8210 0.8203 0.8197
810.000000 0.8192 0.8186 0.8178 0.8175 0.8169
805.000000 0.8164 0.8158 0.8148 0.8118 0.8084
800.000000 0.8028 0.7964 0.7887 0.7804 0.7718
795.000000 0.7625 0.7524 0.7419 0.7284 0.7078
790.000000 0.6875 0.6701 0.6511 0.6229 0.5706
785.000000 0.5367 0.5102 0.4808 0.4326 0.3686
780.000000 0.3225 0.2477 0.2084 0.1811 0.1512
775.000000 0.1295 0.1171 0.1103 0.1042 0.1055
770.000000 0.1102 0.1224 0.1371 0.1539 0.1844
765.000000 0.2207 0.2573 0.2939 0.3250 0.3621
760.000000 0.3943 0.4212 0.4456 0.4638 0.4820
755.000000 0.5003 0.5182 0.5322 0.5462 0.5596
750.000000 0.5720 0.5844 0.5962 0.6074 0.6186
745.000000 0.6260 0.6331 0.6400 0.6462 0.6522
740.000000 0.6574 0.6608 0.6643 0.6676 0.6706
735.000000 0.6734 0.6761 0.6787 0.6811 0.6833
730.000000 0.6818 0.6838 0.6834 0.6830 0.6824
725.000000 0.6818 0.6815 0.6811 0.6831 0.6884
720.000000 0.6958 0.7036 0.7105 0.7168 0.7231
715.000000 0.7294 0.7342 0.7384 0.7425 0.7467
710.000000 0.7505 0.7533 0.7555 0.7578 0.7600
705.000000 0.7611 0.7624 0.7636 0.7646 0.7645
700.000000 0.7645 0.7647 0.7635 0.7628 0.7624
695.000000 0.7617 0.7607 0.7581 0.7555 0.7528
690.000000 0.7490 0.7436 0.7381 0.7305 0.7230
685.000000 0.7134 0.7034 0.6910 0.6771 0.6538
680.000000 0.6303 0.6070 0.5818 0.5602 0.5307
675.000000 0.5004 0.4824 0.4753 0.4715 0.4651
670.000000 0.4702 0.4778 0.4916 0.5107 0.5284
665.000000 0.5384 0.5429 0.5469 0.5549 0.5651
660.000000 0.5960 0.6356 0.6596 0.6725 0.6825
655.000000 0.6910 0.6984 0.7045 0.7098 0.7141
650.000000 0.7167 0.7192 0.7215 0.7238 0.7261
645.000000 0.7283 0.7231 0.7187 0.7261 0.7375
640.000000 0.7367 0.7364 0.7308 0.7243 0.7219
635.000000 0.7265 0.7258 0.7210 0.7201 0.7200
630.000000 0.7190 0.7156 0.7115 0.7074 0.7038
625.000000 0.7026
##END=
