##TITLE=Ethomeen C/15 hydrochloride
##JCAMP-DX=4.24
##DATA TYPE=INFRARED SPECTRUM
##CLASS=COBLENTZ
##ORIGIN=BRITISH PETROLEUM CO. LTD., ENGLAND
##OWNER=Copyright (C) 1987 by the Coblentz Society
Collection (C) 2018 copyright by the U.S. Secretary of Commerce
on behalf of the United States of America. All rights reserved.
##DATE=1972/07/31
##MOLFORM=C22-24 H48-52 Cl N O5
##SOURCE REFERENCE=COBLENTZ NO. 9063
##$NIST ID=B6009063
##$NIST SOURCE=COBLENTZ
##$NIST IMAGE=cob9063
##SPECTROMETER/DATA SYSTEM=PERKIN-ELMER 157
##STATE=LIQUID (NEAT)
$$ R - DERIVED FROM COCO-FATTY ACID SOURCE
$$ REF. Can. J. Spec., 18,4,101, '73 C. S. DOUSE and P. B. TOOKE
##SAMPLING PROCEDURE=TRANSMISSION
##RESOLUTION=2
##DATA PROCESSING=DIGITIZED BY COBLENTZ SOCIETY (BATCH II) FROM HARD COPY
##XUNITS=1/CM
##YUNITS=TRANSMITTANCE
##XFACTOR=1.0
##YFACTOR=1
##FIRSTX=668
##LASTX=4000
##FIRSTY=0.3225
##MAXX=4000
##MINX=668
##MAXY=0.7172
##MINY=0.0115
##NPOINTS=3333
##XYDATA=(X++(Y..Y))
668.000000 0.3225 0.3230 0.3236 0.3256 0.3286
673.000000 0.3317 0.3364 0.3404 0.3436 0.3458
678.000000 0.3479 0.3500 0.3507 0.3513 0.3519
683.000000 0.3521 0.3522 0.3529 0.3541 0.3564
688.000000 0.3592 0.3625 0.3647 0.3667 0.3682
693.000000 0.3697 0.3703 0.3708 0.3708 0.3716
698.000000 0.3718 0.3716 0.3715 0.3711 0.3704
703.000000 0.3696 0.3688 0.3667 0.3638 0.3599
708.000000 0.3561 0.3525 0.3488 0.3442 0.3392
713.000000 0.3328 0.3260 0.3187 0.3129 0.3019
718.000000 0.2875 0.2775 0.2756 0.2749 0.2793
723.000000 0.2820 0.2840 0.2908 0.2989 0.3066
728.000000 0.3163 0.3233 0.3308 0.3376 0.3441
733.000000 0.3504 0.3566 0.3623 0.3676 0.3724
738.000000 0.3771 0.3821 0.3874 0.3916 0.3955
743.000000 0.3992 0.4021 0.4050 0.4078 0.4103
748.000000 0.4125 0.4149 0.4172 0.4196 0.4220
753.000000 0.4244 0.4266 0.4287 0.4312 0.4337
758.000000 0.4363 0.4386 0.4401 0.4415 0.4429
763.000000 0.4451 0.4469 0.4481 0.4486 0.4493
768.000000 0.4508 0.4523 0.4548 0.4576 0.4602
773.000000 0.4623 0.4638 0.4649 0.4658 0.4668
778.000000 0.4678 0.4685 0.4687 0.4686 0.4685
783.000000 0.4684 0.4683 0.4681 0.4710 0.4675
788.000000 0.4669 0.4663 0.4657 0.4649 0.4639
793.000000 0.4624 0.4610 0.4588 0.4567 0.4545
798.000000 0.4522 0.4498 0.4474 0.4442 0.4409
803.000000 0.4376 0.4345 0.4313 0.4284 0.4261
808.000000 0.4238 0.4215 0.4197 0.4183 0.4170
813.000000 0.4160 0.4153 0.4143 0.4134 0.4105
818.000000 0.4079 0.4071 0.4063 0.4058 0.4052
823.000000 0.4046 0.4020 0.3998 0.3987 0.3982
828.000000 0.3981 0.3981 0.3983 0.3969 0.3991
833.000000 0.4000 0.4008 0.4021 0.4038 0.4056
838.000000 0.4077 0.4098 0.4119 0.4141 0.4165
843.000000 0.4189 0.4213 0.4237 0.4262 0.4286
848.000000 0.4311 0.4334 0.4353 0.4372 0.4389
853.000000 0.4392 0.4394 0.4402 0.4365 0.4339
858.000000 0.4306 0.4263 0.4221 0.4194 0.4151
863.000000 0.4083 0.4014 0.3946 0.3878 0.3810
868.000000 0.3742 0.3675 0.3608 0.3540 0.3473
873.000000 0.3398 0.3313 0.3249 0.3189 0.3134
878.000000 0.3079 0.3002 0.2919 0.2828 0.2735
883.000000 0.2638 0.2561 0.2498 0.2440 0.2421
888.000000 0.2418 0.2392 0.2433 0.2452 0.2486
893.000000 0.2542 0.2610 0.2694 0.2776 0.2850
898.000000 0.2919 0.2982 0.3044 0.3104 0.3164
903.000000 0.3209 0.3240 0.3245 0.3263 0.3235
908.000000 0.3215 0.3193 0.3170 0.3147 0.3120
913.000000 0.3093 0.3059 0.3023 0.2986 0.2926
918.000000 0.2857 0.2783 0.2725 0.2710 0.2700
923.000000 0.2687 0.2652 0.2613 0.2570 0.2542
928.000000 0.2521 0.2511 0.2512 0.2513 0.2514
933.000000 0.2515 0.2517 0.2518 0.2501 0.2521
938.000000 0.2523 0.2529 0.2534 0.2539 0.2547
943.000000 0.2565 0.2583 0.2603 0.2626 0.2649
948.000000 0.2673 0.2699 0.2712 0.2719 0.2726
953.000000 0.2731 0.2733 0.2735 0.2736 0.2738
958.000000 0.2740 0.2746 0.2751 0.2757 0.2764
963.000000 0.2792 0.2822 0.2849 0.2862 0.2873
968.000000 0.2883 0.2892 0.2901 0.2921 0.2942
973.000000 0.2963 0.2976 0.2979 0.2991 0.2976
978.000000 0.2964 0.2952 0.2940 0.2925 0.2907
983.000000 0.2889 0.2871 0.2849 0.2824 0.2800
988.000000 0.2775 0.2749 0.2718 0.2687 0.2655
993.000000 0.2624 0.2592 0.2547 0.2502 0.2457
998.000000 0.2413 0.2369 0.2328 0.2286 0.2245
1003.000000 0.2204 0.2166 0.2128 0.2094 0.2076
1008.000000 0.2070 0.2063 0.2050 0.2019 0.1940
1013.000000 0.1857 0.1783 0.1724 0.1664 0.1605
1018.000000 0.1551 0.1495 0.1442 0.1390 0.1338
1023.000000 0.1286 0.1234 0.1190 0.1151 0.1112
1028.000000 0.1074 0.1035 0.0997 0.0959 0.0922
1033.000000 0.0886 0.0849 0.0814 0.0779 0.0750
1038.000000 0.0722 0.0694 0.0666 0.0637 0.0607
1043.000000 0.0576 0.0545 0.0514 0.0484 0.0456
1048.000000 0.0426 0.0408 0.0395 0.0384 0.0365
1053.000000 0.0338 0.0301 0.0261 0.0238 0.0222
1058.000000 0.0204 0.0186 0.0168 0.0156 0.0144
1063.000000 0.0135 0.0133 0.0130 0.0128 0.0126
1068.000000 0.0128 0.0125 0.0125 0.0124 0.0124
1073.000000 0.0127 0.0129 0.0132 0.0134 0.0137
1078.000000 0.0139 0.0142 0.0146 0.0152 0.0158
1083.000000 0.0164 0.0171 0.0176 0.0182 0.0186
1088.000000 0.0188 0.0190 0.0192 0.0195 0.0197
1093.000000 0.0199 0.0201 0.0199 0.0199 0.0196
1098.000000 0.0193 0.0188 0.0179 0.0169 0.0160
1103.000000 0.0150 0.0144 0.0139 0.0134 0.0129
1108.000000 0.0123 0.0118 0.0115 0.0116 0.0117
1113.000000 0.0118 0.0119 0.0121 0.0122 0.0123
1118.000000 0.0124 0.0125 0.0123 0.0131 0.0134
1123.000000 0.0137 0.0140 0.0143 0.0146 0.0149
1128.000000 0.0153 0.0157 0.0161 0.0164 0.0168
1133.000000 0.0171 0.0175 0.0179 0.0186 0.0197
1138.000000 0.0233 0.0284 0.0296 0.0301 0.0306
1143.000000 0.0308 0.0311 0.0314 0.0338 0.0382
1148.000000 0.0432 0.0499 0.0667 0.0791 0.1045
1153.000000 0.1179 0.1314 0.1447 0.1581 0.1715
1158.000000 0.1848 0.1980 0.2103 0.2187 0.2325
1163.000000 0.2508 0.2660 0.2753 0.2838 0.2919
1168.000000 0.2998 0.3076 0.3144 0.3209 0.3274
1173.000000 0.3331 0.3371 0.3409 0.3447 0.3486
1178.000000 0.3520 0.3553 0.3585 0.3617 0.3648
1183.000000 0.3674 0.3700 0.3725 0.3739 0.3750
1188.000000 0.3761 0.3765 0.3768 0.3771 0.3775
1193.000000 0.3767 0.3775 0.3772 0.3767 0.3759
1198.000000 0.3751 0.3742 0.3732 0.3723 0.3714
1203.000000 0.3699 0.3681 0.3663 0.3638 0.3609
1208.000000 0.3580 0.3551 0.3521 0.3484 0.3428
1213.000000 0.3363 0.3286 0.2959 0.2895 0.2835
1218.000000 0.2785 0.2747 0.2709 0.2678 0.2652
1223.000000 0.2625 0.2600 0.2575 0.2551 0.2526
1228.000000 0.2502 0.2475 0.2450 0.2424 0.2398
1233.000000 0.2372 0.2346 0.2321 0.2300 0.2284
1238.000000 0.2266 0.2250 0.2233 0.2219 0.2211
1243.000000 0.2209 0.2210 0.2210 0.2211 0.2211
1248.000000 0.2198 0.2212 0.2215 0.2217 0.2219
1253.000000 0.2221 0.2226 0.2238 0.2253 0.2270
1258.000000 0.2292 0.2314 0.2336 0.2353 0.2371
1263.000000 0.2388 0.2401 0.2410 0.2418 0.2423
1268.000000 0.2413 0.2414 0.2406 0.2390 0.2370
1273.000000 0.2353 0.2337 0.2320 0.2304 0.2289
1278.000000 0.2273 0.2258 0.2244 0.2236 0.2228
1283.000000 0.2224 0.2221 0.2218 0.2214 0.2211
1288.000000 0.2208 0.2208 0.2200 0.2207 0.2207
1293.000000 0.2206 0.2206 0.2205 0.2205 0.2205
1298.000000 0.2205 0.2205 0.2205 0.2205 0.2211
1303.000000 0.2222 0.2243 0.2263 0.2281 0.2302
1308.000000 0.2333 0.2364 0.2402 0.2439 0.2459
1313.000000 0.2474 0.2479 0.2484 0.2488 0.2490
1318.000000 0.2492 0.2494 0.2496 0.2498 0.2499
1323.000000 0.2499 0.2500 0.2500 0.2501 0.2501
1328.000000 0.2501 0.2503 0.2505 0.2508 0.2510
1333.000000 0.2508 0.2528 0.2494 0.2447 0.2397
1338.000000 0.2343 0.2268 0.2169 0.2069 0.1969
1343.000000 0.1869 0.1769 0.1666 0.1584 0.1525
1348.000000 0.1454 0.1397 0.1390 0.1397 0.1389
1353.000000 0.1438 0.1465 0.1489 0.1512 0.1529
1358.000000 0.1537 0.1542 0.1548 0.1552 0.1553
1363.000000 0.1555 0.1557 0.1557 0.1557 0.1556
1368.000000 0.1556 0.1556 0.1554 0.1552 0.1550
1373.000000 0.1547 0.1547 0.1556 0.1584 0.1617
1378.000000 0.1642 0.1665 0.1687 0.1703 0.1710
1383.000000 0.1710 0.1710 0.1709 0.1709 0.1707
1388.000000 0.1706 0.1709 0.1703 0.1702 0.1699
1393.000000 0.1698 0.1696 0.1694 0.1692 0.1690
1398.000000 0.1688 0.1685 0.1683 0.1680 0.1679
1403.000000 0.1676 0.1674 0.1671 0.1669 0.1667
1408.000000 0.1665 0.1662 0.1660 0.1657 0.1645
1413.000000 0.1622 0.1607 0.1592 0.1577 0.1561
1418.000000 0.1544 0.1539 0.1532 0.1526 0.1521
1423.000000 0.1516 0.1511 0.1507 0.1500 0.1490
1428.000000 0.1479 0.1460 0.1428 0.1378 0.1240
1433.000000 0.1038 0.0970 0.0912 0.0872 0.0833
1438.000000 0.0795 0.0757 0.0721 0.0687 0.0652
1443.000000 0.0622 0.0593 0.0565 0.0535 0.0504
1448.000000 0.0474 0.0450 0.0436 0.0422 0.0413
1453.000000 0.0407 0.0401 0.0396 0.0393 0.0393
1458.000000 0.0392 0.0392 0.0399 0.0400 0.0408
1463.000000 0.0419 0.0431 0.0442 0.0456 0.0472
1468.000000 0.0492 0.0528 0.0618 0.0792 0.0967
1473.000000 0.1141 0.1219 0.1257 0.1302 0.1348
1478.000000 0.1408 0.1481 0.1550 0.1779 0.1879
1483.000000 0.1972 0.2131 0.2290 0.2449 0.2607
1488.000000 0.2765 0.2923 0.3082 0.3240 0.3397
1493.000000 0.3554 0.3711 0.3868 0.4025 0.4182
1498.000000 0.4338 0.4494 0.4649 0.4805 0.4961
1503.000000 0.5116 0.5248 0.5421 0.5512 0.5543
1508.000000 0.5558 0.5565 0.5573 0.5580 0.5583
1513.000000 0.5585 0.5587 0.5592 0.5745 0.5902
1518.000000 0.5949 0.5981 0.6002 0.6013 0.6023
1523.000000 0.6033 0.6041 0.6048 0.6055 0.6061
1528.000000 0.6065 0.6070 0.6076 0.6080 0.6083
1533.000000 0.6086 0.6089 0.6093 0.6096 0.6098
1538.000000 0.6101 0.6104 0.6106 0.6108 0.6110
1543.000000 0.6112 0.6114 0.6116 0.6117 0.6117
1548.000000 0.6119 0.6120 0.6121 0.6122 0.6123
1553.000000 0.6124 0.6122 0.6125 0.6125 0.6126
1558.000000 0.6127 0.6130 0.6133 0.6136 0.6138
1563.000000 0.6141 0.6144 0.6146 0.6147 0.6146
1568.000000 0.6146 0.6145 0.6144 0.6143 0.6142
1573.000000 0.6141 0.6140 0.6138 0.6136 0.6135
1578.000000 0.6133 0.6130 0.6126 0.6121 0.6116
1583.000000 0.6111 0.6106 0.6100 0.6095 0.6089
1588.000000 0.6083 0.6073 0.6054 0.6034 0.6015
1593.000000 0.5997 0.5981 0.5964 0.5948 0.5929
1598.000000 0.5907 0.5886 0.5867 0.5854 0.5847
1603.000000 0.5833 0.5797 0.5751 0.5704 0.5658
1608.000000 0.5611 0.5564 0.5518 0.5471 0.5425
1613.000000 0.5379 0.5332 0.5286 0.5240 0.5194
1618.000000 0.5148 0.5101 0.5056 0.5010 0.4961
1623.000000 0.4927 0.4899 0.4872 0.4847 0.4824
1628.000000 0.4802 0.4780 0.4759 0.4744 0.4734
1633.000000 0.4729 0.4728 0.4728 0.4730 0.4732
1638.000000 0.4734 0.4736 0.4739 0.4741 0.4745
1643.000000 0.4753 0.4764 0.4776 0.4792 0.4816
1648.000000 0.4844 0.4886 0.4979 0.5028 0.5048
1653.000000 0.5061 0.5073 0.5083 0.5091 0.5099
1658.000000 0.5107 0.5117 0.5127 0.5137 0.5148
1663.000000 0.5160 0.5173 0.5206 0.5279 0.5380
1668.000000 0.5480 0.5579 0.5669 0.5715 0.5757
1673.000000 0.5795 0.5831 0.5867 0.5902 0.5936
1678.000000 0.5970 0.6001 0.6032 0.6056 0.6079
1683.000000 0.6102 0.6122 0.6138 0.6153 0.6166
1688.000000 0.6177 0.6183 0.6188 0.6193 0.6196
1693.000000 0.6197 0.6195 0.6193 0.6189 0.6184
1698.000000 0.6178 0.6173 0.6168 0.6162 0.6158
1703.000000 0.6152 0.6147 0.6144 0.6144 0.6145
1708.000000 0.6145 0.6145 0.6144 0.6144 0.6144
1713.000000 0.6143 0.6142 0.6142 0.6141 0.6141
1718.000000 0.6141 0.6141 0.6141 0.6141 0.6134
1723.000000 0.6142 0.6142 0.6144 0.6147 0.6155
1728.000000 0.6170 0.6187 0.6207 0.6229 0.6255
1733.000000 0.6294 0.6342 0.6378 0.6409 0.6438
1738.000000 0.6462 0.6484 0.6504 0.6520 0.6536
1743.000000 0.6552 0.6568 0.6585 0.6603 0.6622
1748.000000 0.6640 0.6659 0.6677 0.6696 0.6716
1753.000000 0.6735 0.6755 0.6774 0.6793 0.6813
1758.000000 0.6833 0.6852 0.6871 0.6887 0.6901
1763.000000 0.6915 0.6929 0.6939 0.6945 0.6951
1768.000000 0.6957 0.6963 0.6969 0.6975 0.6981
1773.000000 0.6986 0.6990 0.6993 0.6996 0.6998
1778.000000 0.6999 0.7002 0.7004 0.7005 0.7008
1783.000000 0.7009 0.7011 0.7013 0.7015 0.7017
1788.000000 0.7019 0.7021 0.7023 0.7025 0.7025
1793.000000 0.7025 0.7026 0.7026 0.7026 0.7026
1798.000000 0.7026 0.7027 0.7027 0.7027 0.7027
1803.000000 0.7027 0.7028 0.7028 0.7028 0.7028
1808.000000 0.7028 0.7029 0.7029 0.7029 0.7042
1813.000000 0.7029 0.7029 0.7030 0.7030 0.7030
1818.000000 0.7030 0.7030 0.7031 0.7031 0.7031
1823.000000 0.7031 0.7031 0.7031 0.7031 0.7029
1828.000000 0.7028 0.7027 0.7026 0.7025 0.7024
1833.000000 0.7022 0.7022 0.7020 0.7019 0.7018
1838.000000 0.7017 0.7016 0.7015 0.7013 0.7013
1843.000000 0.7011 0.7010 0.7010 0.7007 0.7004
1848.000000 0.7001 0.6998 0.6995 0.6992 0.6989
1853.000000 0.6985 0.6982 0.6979 0.6976 0.6974
1858.000000 0.6971 0.6968 0.6964 0.6961 0.6958
1863.000000 0.6954 0.6951 0.6947 0.6943 0.6940
1868.000000 0.6937 0.6934 0.6930 0.6926 0.6924
1873.000000 0.6922 0.6922 0.6922 0.6921 0.6921
1878.000000 0.6921 0.6920 0.6919 0.6919 0.6918
1883.000000 0.6917 0.6916 0.6914 0.6912 0.6910
1888.000000 0.6907 0.6902 0.6895 0.6889 0.6883
1893.000000 0.6878 0.6872 0.6867 0.6862 0.6856
1898.000000 0.6849 0.6842 0.6835 0.6828 0.6820
1903.000000 0.6812 0.6805 0.6799 0.6792 0.6786
1908.000000 0.6780 0.6774 0.6768 0.6761 0.6755
1913.000000 0.6749 0.6743 0.6737 0.6731 0.6725
1918.000000 0.6718 0.6713 0.6707 0.6702 0.6697
1923.000000 0.6692 0.6687 0.6682 0.6677 0.6672
1928.000000 0.6667 0.6662 0.6657 0.6652 0.6646
1933.000000 0.6644 0.6643 0.6642 0.6642 0.6641
1938.000000 0.6639 0.6639 0.6638 0.6636 0.6636
1943.000000 0.6635 0.6635 0.6633 0.6632 0.6632
1948.000000 0.6630 0.6629 0.6629 0.6628 0.6628
1953.000000 0.6628 0.6629 0.6630 0.6630 0.6630
1958.000000 0.6631 0.6631 0.6632 0.6633 0.6633
1963.000000 0.6634 0.6635 0.6635 0.6636 0.6636
1968.000000 0.6636 0.6637 0.6638 0.6640 0.6642
1973.000000 0.6644 0.6647 0.6649 0.6651 0.6653
1978.000000 0.6655 0.6657 0.6659 0.6662 0.6663
1983.000000 0.6665 0.6667 0.6669 0.6671 0.6674
1988.000000 0.6675 0.6677 0.6677 0.6678 0.6679
1993.000000 0.6681 0.6682 0.6682 0.6680 0.6678
1998.000000 0.6676 0.6674 0.6673 0.6671 0.6669
2003.000000 0.6667 0.6665 0.6663 0.6661 0.6659
2008.000000 0.6658 0.6656 0.6654 0.6652 0.6650
2013.000000 0.6648 0.6646 0.6642 0.6634 0.6627
2018.000000 0.6619 0.6611 0.6603 0.6595 0.6587
2023.000000 0.6581 0.6575 0.6570 0.6564 0.6559
2028.000000 0.6553 0.6548 0.6543 0.6538 0.6534
2033.000000 0.6530 0.6526 0.6522 0.6518 0.6514
2038.000000 0.6510 0.6506 0.6502 0.6498 0.6494
2043.000000 0.6489 0.6485 0.6481 0.6477 0.6472
2048.000000 0.6467 0.6463 0.6459 0.6455 0.6451
2053.000000 0.6446 0.6442 0.6437 0.6433 0.6429
2058.000000 0.6425 0.6420 0.6416 0.6412 0.6407
2063.000000 0.6403 0.6398 0.6394 0.6390 0.6385
2068.000000 0.6381 0.6376 0.6372 0.6368 0.6363
2073.000000 0.6358 0.6354 0.6349 0.6345 0.6341
2078.000000 0.6336 0.6332 0.6327 0.6322 0.6318
2083.000000 0.6314 0.6309 0.6305 0.6300 0.6296
2088.000000 0.6292 0.6287 0.6283 0.6279 0.6275
2093.000000 0.6270 0.6266 0.6261 0.6257 0.6253
2098.000000 0.6248 0.6244 0.6239 0.6235 0.6231
2103.000000 0.6227 0.6222 0.6218 0.6214 0.6210
2108.000000 0.6205 0.6201 0.6196 0.6192 0.6188
2113.000000 0.6184 0.6180 0.6176 0.6171 0.6167
2118.000000 0.6161 0.6156 0.6151 0.6146 0.6141
2123.000000 0.6136 0.6131 0.6126 0.6121 0.6116
2128.000000 0.6111 0.6105 0.6100 0.6095 0.6090
2133.000000 0.6085 0.6080 0.6075 0.6070 0.6065
2138.000000 0.6060 0.6056 0.6053 0.6050 0.6047
2143.000000 0.6044 0.6041 0.6038 0.6035 0.6032
2148.000000 0.6029 0.6025 0.6022 0.6020 0.6017
2153.000000 0.6014 0.6011 0.6008 0.6005 0.6002
2158.000000 0.5999 0.5996 0.5995 0.5994 0.5993
2163.000000 0.5992 0.5990 0.5989 0.5988 0.5987
2168.000000 0.5986 0.5985 0.5984 0.5983 0.5982
2173.000000 0.5980 0.5979 0.5978 0.5976 0.5975
2178.000000 0.5974 0.5973 0.5970 0.5963 0.5955
2183.000000 0.5945 0.5935 0.5925 0.5915 0.5905
2188.000000 0.5894 0.5884 0.5878 0.5873 0.5869
2193.000000 0.5864 0.5861 0.5857 0.5854 0.5850
2198.000000 0.5847 0.5844 0.5842 0.5840 0.5837
2203.000000 0.5835 0.5833 0.5831 0.5829 0.5827
2208.000000 0.5824 0.5822 0.5820 0.5818 0.5816
2213.000000 0.5814 0.5812 0.5808 0.5803 0.5798
2218.000000 0.5792 0.5787 0.5782 0.5777 0.5772
2223.000000 0.5763 0.5754 0.5745 0.5735 0.5726
2228.000000 0.5717 0.5708 0.5699 0.5689 0.5680
2233.000000 0.5669 0.5658 0.5647 0.5636 0.5625
2238.000000 0.5614 0.5603 0.5592 0.5581 0.5569
2243.000000 0.5558 0.5546 0.5535 0.5524 0.5513
2248.000000 0.5502 0.5490 0.5479 0.5468 0.5456
2253.000000 0.5445 0.5434 0.5422 0.5411 0.5399
2258.000000 0.5388 0.5376 0.5364 0.5352 0.5341
2263.000000 0.5329 0.5317 0.5306 0.5295 0.5283
2268.000000 0.5272 0.5260 0.5248 0.5237 0.5225
2273.000000 0.5213 0.5202 0.5190 0.5177 0.5164
2278.000000 0.5151 0.5138 0.5125 0.5112 0.5099
2283.000000 0.5086 0.5072 0.5059 0.5046 0.5033
2288.000000 0.5020 0.5007 0.4994 0.4979 0.4964
2293.000000 0.4949 0.4933 0.4918 0.4903 0.4887
2298.000000 0.4871 0.4856 0.4840 0.4824 0.4809
2303.000000 0.4793 0.4778 0.4763 0.4749 0.4737
2308.000000 0.4726 0.4715 0.4704 0.4692 0.4681
2313.000000 0.4670 0.4658 0.4646 0.4635 0.4624
2318.000000 0.4613 0.4602 0.4581 0.4560 0.4538
2323.000000 0.4516 0.4494 0.4471 0.4449 0.4426
2328.000000 0.4404 0.4382 0.4360 0.4338 0.4315
2333.000000 0.4293 0.4271 0.4249 0.4227 0.4204
2338.000000 0.4182 0.4160 0.4139 0.4117 0.4095
2343.000000 0.4073 0.4051 0.4028 0.4006 0.3985
2348.000000 0.3965 0.3946 0.3931 0.3922 0.3913
2353.000000 0.3904 0.3895 0.3885 0.3876 0.3864
2358.000000 0.3850 0.3837 0.3824 0.3811 0.3797
2363.000000 0.3784 0.3770 0.3757 0.3744 0.3730
2368.000000 0.3718 0.3707 0.3696 0.3684 0.3673
2373.000000 0.3661 0.3650 0.3639 0.3627 0.3615
2378.000000 0.3603 0.3590 0.3574 0.3559 0.3543
2383.000000 0.3528 0.3508 0.3488 0.3467 0.3447
2388.000000 0.3427 0.3406 0.3385 0.3362 0.3339
2393.000000 0.3316 0.3293 0.3270 0.3248 0.3227
2398.000000 0.3215 0.3203 0.3191 0.3179 0.3167
2403.000000 0.3155 0.3144 0.3132 0.3120 0.3108
2408.000000 0.3096 0.3084 0.3073 0.3060 0.3045
2413.000000 0.3029 0.2990 0.2947 0.2910 0.2879
2418.000000 0.2850 0.2835 0.2820 0.2804 0.2789
2423.000000 0.2774 0.2759 0.2744 0.2732 0.2720
2428.000000 0.2709 0.2698 0.2688 0.2678 0.2668
2433.000000 0.2657 0.2646 0.2636 0.2626 0.2616
2438.000000 0.2605 0.2595 0.2585 0.2575 0.2564
2443.000000 0.2554 0.2541 0.2522 0.2502 0.2480
2448.000000 0.2458 0.2436 0.2415 0.2393 0.2373
2453.000000 0.2352 0.2332 0.2312 0.2291 0.2272
2458.000000 0.2252 0.2233 0.2216 0.2198 0.2180
2463.000000 0.2161 0.2149 0.2136 0.2127 0.2119
2468.000000 0.2112 0.2105 0.2098 0.2091 0.2083
2473.000000 0.2076 0.2070 0.2064 0.2059 0.2055
2478.000000 0.2050 0.2045 0.2040 0.2036 0.2031
2483.000000 0.2026 0.2018 0.2011 0.2004 0.1997
2488.000000 0.1989 0.1981 0.1974 0.1966 0.1958
2493.000000 0.1951 0.1944 0.1938 0.1930 0.1923
2498.000000 0.1916 0.1909 0.1902 0.1894 0.1887
2503.000000 0.1880 0.1873 0.1866 0.1857 0.1848
2508.000000 0.1840 0.1831 0.1823 0.1815 0.1806
2513.000000 0.1798 0.1790 0.1781 0.1775 0.1769
2518.000000 0.1763 0.1757 0.1751 0.1745 0.1740
2523.000000 0.1736 0.1732 0.1729 0.1726 0.1722
2528.000000 0.1719 0.1715 0.1712 0.1708 0.1705
2533.000000 0.1701 0.1699 0.1696 0.1693 0.1691
2538.000000 0.1689 0.1686 0.1684 0.1682 0.1679
2543.000000 0.1677 0.1675 0.1672 0.1670 0.1666
2548.000000 0.1662 0.1658 0.1654 0.1651 0.1642
2553.000000 0.1634 0.1623 0.1608 0.1593 0.1577
2558.000000 0.1561 0.1546 0.1535 0.1524 0.1515
2563.000000 0.1508 0.1501 0.1494 0.1488 0.1481
2568.000000 0.1474 0.1467 0.1461 0.1456 0.1452
2573.000000 0.1448 0.1445 0.1441 0.1438 0.1435
2578.000000 0.1432 0.1429 0.1426 0.1423 0.1420
2583.000000 0.1418 0.1417 0.1417 0.1416 0.1415
2588.000000 0.1414 0.1414 0.1414 0.1413 0.1413
2593.000000 0.1412 0.1411 0.1410 0.1410 0.1419
2598.000000 0.1410 0.1411 0.1411 0.1412 0.1413
2603.000000 0.1414 0.1414 0.1415 0.1416 0.1417
2608.000000 0.1417 0.1418 0.1419 0.1420 0.1421
2613.000000 0.1422 0.1423 0.1424 0.1426 0.1427
2618.000000 0.1429 0.1430 0.1432 0.1433 0.1435
2623.000000 0.1436 0.1438 0.1439 0.1440 0.1442
2628.000000 0.1443 0.1444 0.1445 0.1447 0.1448
2633.000000 0.1450 0.1451 0.1452 0.1453 0.1453
2638.000000 0.1454 0.1455 0.1456 0.1456 0.1457
2643.000000 0.1458 0.1458 0.1459 0.1460 0.1461
2648.000000 0.1461 0.1462 0.1463 0.1463 0.1464
2653.000000 0.1465 0.1466 0.1466 0.1466 0.1467
2658.000000 0.1467 0.1468 0.1469 0.1469 0.1469
2663.000000 0.1470 0.1471 0.1471 0.1472 0.1472
2668.000000 0.1472 0.1473 0.1473 0.1474 0.1474
2673.000000 0.1475 0.1476 0.1476 0.1476 0.1477
2678.000000 0.1477 0.1478 0.1479 0.1479 0.1479
2683.000000 0.1480 0.1480 0.1480 0.1481 0.1482
2688.000000 0.1482 0.1483 0.1483 0.1483 0.1484
2693.000000 0.1484 0.1485 0.1485 0.1485 0.1485
2698.000000 0.1485 0.1485 0.1486 0.1486 0.1486
2703.000000 0.1487 0.1487 0.1487 0.1487 0.1487
2708.000000 0.1487 0.1488 0.1488 0.1488 0.1489
2713.000000 0.1489 0.1489 0.1489 0.1489 0.1489
2718.000000 0.1490 0.1490 0.1490 0.1491 0.1491
2723.000000 0.1491 0.1491 0.1491 0.1491 0.1491
2728.000000 0.1491 0.1491 0.1491 0.1491 0.1491
2733.000000 0.1491 0.1491 0.1491 0.1490 0.1490
2738.000000 0.1490 0.1490 0.1490 0.1490 0.1490
2743.000000 0.1490 0.1490 0.1490 0.1490 0.1490
2748.000000 0.1490 0.1490 0.1490 0.1489 0.1489
2753.000000 0.1489 0.1488 0.1488 0.1488 0.1487
2758.000000 0.1486 0.1486 0.1497 0.1484 0.1484
2763.000000 0.1483 0.1482 0.1482 0.1481 0.1480
2768.000000 0.1478 0.1476 0.1473 0.1470 0.1463
2773.000000 0.1452 0.1440 0.1426 0.1405 0.1385
2778.000000 0.1364 0.1343 0.1322 0.1301 0.1280
2783.000000 0.1259 0.1239 0.1218 0.1198 0.1177
2788.000000 0.1156 0.1135 0.1114 0.1094 0.1073
2793.000000 0.1053 0.1032 0.1012 0.0991 0.0970
2798.000000 0.0950 0.0929 0.0908 0.0888 0.0868
2803.000000 0.0847 0.0827 0.0807 0.0786 0.0765
2808.000000 0.0745 0.0724 0.0704 0.0684 0.0664
2813.000000 0.0643 0.0623 0.0603 0.0582 0.0562
2818.000000 0.0542 0.0521 0.0501 0.0481 0.0462
2823.000000 0.0445 0.0427 0.0411 0.0401 0.0390
2828.000000 0.0380 0.0372 0.0365 0.0357 0.0350
2833.000000 0.0342 0.0334 0.0327 0.0319 0.0312
2838.000000 0.0305 0.0298 0.0292 0.0286 0.0283
2843.000000 0.0279 0.0276 0.0274 0.0273 0.0272
2848.000000 0.0271 0.0271 0.0271 0.0270 0.0271
2853.000000 0.0271 0.0271 0.0272 0.0272 0.0273
2858.000000 0.0275 0.0276 0.0277 0.0278 0.0279
2863.000000 0.0281 0.0282 0.0283 0.0284 0.0286
2868.000000 0.0287 0.0289 0.0290 0.0292 0.0293
2873.000000 0.0295 0.0296 0.0297 0.0298 0.0300
2878.000000 0.0301 0.0302 0.0303 0.0304 0.0305
2883.000000 0.0306 0.0307 0.0308 0.0309 0.0310
2888.000000 0.0310 0.0311 0.0311 0.0312 0.0312
2893.000000 0.0312 0.0313 0.0313 0.0314 0.0315
2898.000000 0.0315 0.0315 0.0315 0.0316 0.0317
2903.000000 0.0317 0.0318 0.0318 0.0318 0.0319
2908.000000 0.0319 0.0319 0.0319 0.0319 0.0319
2913.000000 0.0319 0.0320 0.0320 0.0320 0.0320
2918.000000 0.0321 0.0321 0.0321 0.0322 0.0322
2923.000000 0.0322 0.0323 0.0323 0.0324 0.0324
2928.000000 0.0307 0.0326 0.0327 0.0328 0.0328
2933.000000 0.0329 0.0329 0.0330 0.0331 0.0331
2938.000000 0.0333 0.0340 0.0346 0.0352 0.0384
2943.000000 0.0420 0.0457 0.0494 0.0531 0.0567
2948.000000 0.0604 0.0641 0.0678 0.0715 0.0751
2953.000000 0.0788 0.0824 0.0860 0.0897 0.0934
2958.000000 0.0970 0.1007 0.1043 0.1080 0.1116
2963.000000 0.1153 0.1189 0.1225 0.1261 0.1297
2968.000000 0.1334 0.1370 0.1406 0.1443 0.1479
2973.000000 0.1515 0.1551 0.1587 0.1623 0.1659
2978.000000 0.1695 0.1731 0.1767 0.1803 0.1839
2983.000000 0.1875 0.1911 0.1946 0.1982 0.2016
2988.000000 0.2039 0.2062 0.2086 0.2103 0.2117
2993.000000 0.2131 0.2145 0.2154 0.2162 0.2170
2998.000000 0.2179 0.2187 0.2195 0.2203 0.2206
3003.000000 0.2208 0.2211 0.2213 0.2214 0.2216
3008.000000 0.2218 0.2220 0.2222 0.2223 0.2225
3013.000000 0.2227 0.2229 0.2230 0.2232 0.2233
3018.000000 0.2234 0.2235 0.2236 0.2236 0.2237
3023.000000 0.2238 0.2238 0.2238 0.2238 0.2239
3028.000000 0.2239 0.2240 0.2240 0.2241 0.2241
3033.000000 0.2241 0.2242 0.2242 0.2242 0.2242
3038.000000 0.2242 0.2242 0.2242 0.2242 0.2242
3043.000000 0.2242 0.2242 0.2242 0.2241 0.2240
3048.000000 0.2240 0.2247 0.2239 0.2238 0.2237
3053.000000 0.2236 0.2235 0.2234 0.2233 0.2230
3058.000000 0.2228 0.2225 0.2222 0.2216 0.2210
3063.000000 0.2203 0.2196 0.2188 0.2180 0.2171
3068.000000 0.2163 0.2155 0.2147 0.2140 0.2131
3073.000000 0.2122 0.2114 0.2105 0.2096 0.2087
3078.000000 0.2078 0.2069 0.2060 0.2050 0.2041
3083.000000 0.2031 0.2021 0.2010 0.2000 0.1989
3088.000000 0.1979 0.1968 0.1958 0.1947 0.1937
3093.000000 0.1927 0.1916 0.1904 0.1893 0.1881
3098.000000 0.1869 0.1858 0.1846 0.1834 0.1822
3103.000000 0.1810 0.1798 0.1787 0.1775 0.1763
3108.000000 0.1751 0.1740 0.1728 0.1717 0.1706
3113.000000 0.1695 0.1684 0.1673 0.1663 0.1652
3118.000000 0.1641 0.1630 0.1619 0.1608 0.1597
3123.000000 0.1586 0.1575 0.1564 0.1547 0.1531
3128.000000 0.1515 0.1497 0.1462 0.1426 0.1390
3133.000000 0.1357 0.1337 0.1316 0.1296 0.1276
3138.000000 0.1256 0.1237 0.1217 0.1196 0.1172
3143.000000 0.1148 0.1124 0.1100 0.1074 0.1048
3148.000000 0.1022 0.0995 0.0966 0.0937 0.0908
3153.000000 0.0869 0.0818 0.0766 0.0715 0.0679
3158.000000 0.0664 0.0650 0.0635 0.0623 0.0615
3163.000000 0.0608 0.0600 0.0592 0.0585 0.0577
3168.000000 0.0570 0.0562 0.0554 0.0547 0.0539
3173.000000 0.0532 0.0527 0.0523 0.0518 0.0513
3178.000000 0.0508 0.0503 0.0499 0.0494 0.0490
3183.000000 0.0485 0.0481 0.0476 0.0472 0.0467
3188.000000 0.0463 0.0459 0.0455 0.0451 0.0447
3193.000000 0.0443 0.0439 0.0435 0.0430 0.0426
3198.000000 0.0422 0.0418 0.0415 0.0411 0.0407
3203.000000 0.0404 0.0401 0.0398 0.0396 0.0393
3208.000000 0.0391 0.0389 0.0387 0.0385 0.0382
3213.000000 0.0380 0.0378 0.0376 0.0373 0.0371
3218.000000 0.0368 0.0366 0.0364 0.0362 0.0360
3223.000000 0.0358 0.0357 0.0355 0.0353 0.0352
3228.000000 0.0351 0.0350 0.0349 0.0348 0.0347
3233.000000 0.0346 0.0345 0.0343 0.0342 0.0341
3238.000000 0.0340 0.0339 0.0338 0.0336 0.0335
3243.000000 0.0334 0.0333 0.0332 0.0331 0.0330
3248.000000 0.0330 0.0329 0.0329 0.0328 0.0328
3253.000000 0.0328 0.0327 0.0327 0.0326 0.0326
3258.000000 0.0325 0.0325 0.0324 0.0324 0.0324
3263.000000 0.0324 0.0323 0.0323 0.0322 0.0322
3268.000000 0.0321 0.0321 0.0321 0.0320 0.0320
3273.000000 0.0319 0.0319 0.0319 0.0319 0.0318
3278.000000 0.0318 0.0317 0.0317 0.0317 0.0317
3283.000000 0.0317 0.0317 0.0317 0.0317 0.0317
3288.000000 0.0317 0.0317 0.0318 0.0318 0.0318
3293.000000 0.0318 0.0318 0.0318 0.0318 0.0318
3298.000000 0.0318 0.0318 0.0318 0.0318 0.0318
3303.000000 0.0319 0.0319 0.0319 0.0319 0.0319
3308.000000 0.0319 0.0319 0.0319 0.0319 0.0317
3313.000000 0.0319 0.0319 0.0319 0.0320 0.0320
3318.000000 0.0320 0.0320 0.0320 0.0320 0.0320
3323.000000 0.0321 0.0321 0.0322 0.0322 0.0323
3328.000000 0.0323 0.0324 0.0324 0.0324 0.0325
3333.000000 0.0325 0.0326 0.0326 0.0326 0.0326
3338.000000 0.0327 0.0327 0.0327 0.0328 0.0328
3343.000000 0.0329 0.0329 0.0330 0.0330 0.0331
3348.000000 0.0331 0.0332 0.0333 0.0333 0.0334
3353.000000 0.0335 0.0336 0.0337 0.0338 0.0339
3358.000000 0.0340 0.0340 0.0341 0.0342 0.0343
3363.000000 0.0344 0.0345 0.0346 0.0347 0.0347
3368.000000 0.0348 0.0349 0.0350 0.0351 0.0352
3373.000000 0.0354 0.0355 0.0356 0.0358 0.0359
3378.000000 0.0361 0.0363 0.0364 0.0366 0.0368
3383.000000 0.0370 0.0371 0.0373 0.0375 0.0377
3388.000000 0.0379 0.0381 0.0384 0.0387 0.0389
3393.000000 0.0393 0.0396 0.0399 0.0403 0.0406
3398.000000 0.0410 0.0414 0.0417 0.0421 0.0425
3403.000000 0.0428 0.0432 0.0435 0.0439 0.0442
3408.000000 0.0446 0.0449 0.0453 0.0457 0.0460
3413.000000 0.0464 0.0468 0.0471 0.0475 0.0478
3418.000000 0.0482 0.0485 0.0489 0.0492 0.0496
3423.000000 0.0499 0.0503 0.0507 0.0512 0.0516
3428.000000 0.0520 0.0525 0.0530 0.0536 0.0542
3433.000000 0.0547 0.0553 0.0559 0.0565 0.0571
3438.000000 0.0577 0.0583 0.0589 0.0596 0.0602
3443.000000 0.0608 0.0616 0.0625 0.0634 0.0643
3448.000000 0.0652 0.0661 0.0670 0.0679 0.0688
3453.000000 0.0697 0.0707 0.0717 0.0727 0.0736
3458.000000 0.0747 0.0758 0.0770 0.0782 0.0793
3463.000000 0.0806 0.0820 0.0834 0.0849 0.0863
3468.000000 0.0879 0.0896 0.0914 0.0931 0.0949
3473.000000 0.0961 0.0972 0.0983 0.0994 0.1005
3478.000000 0.1015 0.1026 0.1037 0.1047 0.1058
3483.000000 0.1068 0.1079 0.1089 0.1100 0.1110
3488.000000 0.1122 0.1133 0.1145 0.1156 0.1168
3493.000000 0.1181 0.1193 0.1206 0.1218 0.1231
3498.000000 0.1243 0.1256 0.1269 0.1281 0.1310
3503.000000 0.1350 0.1390 0.1430 0.1470 0.1494
3508.000000 0.1510 0.1526 0.1542 0.1558 0.1571
3513.000000 0.1583 0.1595 0.1606 0.1618 0.1631
3518.000000 0.1643 0.1655 0.1667 0.1679 0.1691
3523.000000 0.1703 0.1715 0.1727 0.1738 0.1750
3528.000000 0.1762 0.1774 0.1786 0.1798 0.1810
3533.000000 0.1822 0.1834 0.1846 0.1858 0.1872
3538.000000 0.1886 0.1900 0.1914 0.1928 0.2003
3543.000000 0.2083 0.2163 0.2243 0.2323 0.2368
3548.000000 0.2409 0.2450 0.2492 0.2533 0.2574
3553.000000 0.2615 0.2656 0.2698 0.2739 0.2780
3558.000000 0.2821 0.2863 0.2904 0.2945 0.2986
3563.000000 0.3027 0.3068 0.3109 0.3150 0.3191
3568.000000 0.3232 0.3272 0.3313 0.3354 0.3395
3573.000000 0.3435 0.3476 0.3517 0.3558 0.3598
3578.000000 0.3639 0.3680 0.3721 0.3762 0.3802
3583.000000 0.3843 0.3883 0.3924 0.3964 0.4005
3588.000000 0.4045 0.4085 0.4126 0.4166 0.4209
3593.000000 0.4313 0.4417 0.4520 0.4624 0.4728
3598.000000 0.4803 0.4874 0.4945 0.5016 0.5087
3603.000000 0.5158 0.5228 0.5299 0.5370 0.5441
3608.000000 0.5512 0.5582 0.5653 0.5723 0.5794
3613.000000 0.5864 0.5932 0.6000 0.6069 0.6137
3618.000000 0.6203 0.6221 0.6240 0.6259 0.6277
3623.000000 0.6296 0.6315 0.6333 0.6352 0.6371
3628.000000 0.6389 0.6408 0.6426 0.6444 0.6462
3633.000000 0.6480 0.6498 0.6514 0.6531 0.6547
3638.000000 0.6563 0.6579 0.6593 0.6606 0.6620
3643.000000 0.6633 0.6646 0.6660 0.6673 0.6687
3648.000000 0.6700 0.6714 0.6726 0.6737 0.6747
3653.000000 0.6757 0.6767 0.6778 0.6788 0.6798
3658.000000 0.6808 0.6817 0.6827 0.6837 0.6847
3663.000000 0.6857 0.6868 0.6878 0.6889 0.6903
3668.000000 0.6916 0.6930 0.6944 0.6958 0.6967
3673.000000 0.6976 0.6986 0.6995 0.7004 0.7012
3678.000000 0.7018 0.7025 0.7031 0.7038 0.7044
3683.000000 0.7050 0.7056 0.7062 0.7068 0.7074
3688.000000 0.7078 0.7082 0.7085 0.7089 0.7093
3693.000000 0.7096 0.7100 0.7104 0.7108 0.7112
3698.000000 0.7116 0.7118 0.7120 0.7122 0.7124
3703.000000 0.7126 0.7128 0.7129 0.7130 0.7132
3708.000000 0.7133 0.7134 0.7136 0.7137 0.7138
3713.000000 0.7139 0.7141 0.7142 0.7143 0.7144
3718.000000 0.7146 0.7147 0.7148 0.7149 0.7150
3723.000000 0.7151 0.7153 0.7154 0.7155 0.7155
3728.000000 0.7156 0.7156 0.7157 0.7157 0.7158
3733.000000 0.7158 0.7159 0.7159 0.7160 0.7161
3738.000000 0.7161 0.7162 0.7162 0.7163 0.7163
3743.000000 0.7164 0.7164 0.7164 0.7165 0.7165
3748.000000 0.7165 0.7166 0.7166 0.7167 0.7167
3753.000000 0.7167 0.7168 0.7168 0.7168 0.7168
3758.000000 0.7168 0.7168 0.7169 0.7169 0.7169
3763.000000 0.7170 0.7170 0.7170 0.7171 0.7171
3768.000000 0.7171 0.7171 0.7171 0.7172 0.7172
3773.000000 0.7172 0.7172 0.7172 0.7172 0.7172
3778.000000 0.7172 0.7172 0.7172 0.7172 0.7172
3783.000000 0.7161 0.7171 0.7171 0.7171 0.7171
3788.000000 0.7171 0.7171 0.7171 0.7171 0.7171
3793.000000 0.7171 0.7170 0.7170 0.7170 0.7170
3798.000000 0.7170 0.7170 0.7170 0.7170 0.7170
3803.000000 0.7170 0.7170 0.7170 0.7169 0.7169
3808.000000 0.7169 0.7169 0.7169 0.7168 0.7168
3813.000000 0.7168 0.7168 0.7168 0.7168 0.7167
3818.000000 0.7167 0.7166 0.7166 0.7165 0.7165
3823.000000 0.7164 0.7164 0.7164 0.7163 0.7163
3828.000000 0.7163 0.7162 0.7162 0.7161 0.7161
3833.000000 0.7160 0.7160 0.7159 0.7159 0.7159
3838.000000 0.7158 0.7158 0.7158 0.7157 0.7157
3843.000000 0.7156 0.7156 0.7155 0.7155 0.7154
3848.000000 0.7153 0.7153 0.7152 0.7151 0.7151
3853.000000 0.7149 0.7147 0.7145 0.7143 0.7141
3858.000000 0.7139 0.7137 0.7135 0.7133 0.7130
3863.000000 0.7128 0.7126 0.7125 0.7123 0.7121
3868.000000 0.7119 0.7117 0.7115 0.7113 0.7111
3873.000000 0.7109 0.7107 0.7105 0.7102 0.7100
3878.000000 0.7098 0.7096 0.7094 0.7092 0.7089
3883.000000 0.7087 0.7085 0.7083 0.7080 0.7078
3888.000000 0.7076 0.7073 0.7071 0.7069 0.7067
3893.000000 0.7065 0.7063 0.7060 0.7057 0.7055
3898.000000 0.7052 0.7050 0.7047 0.7044 0.7042
3903.000000 0.7039 0.7036 0.7034 0.7031 0.7029
3908.000000 0.7026 0.7024 0.7021 0.7019 0.7016
3913.000000 0.7014 0.7013 0.7011 0.7009 0.7007
3918.000000 0.7005 0.7004 0.7002 0.7000 0.6998
3923.000000 0.6996 0.6995 0.6993 0.6991 0.6990
3928.000000 0.6988 0.6986 0.6985 0.6983 0.6982
3933.000000 0.6981 0.6980 0.6979 0.6978 0.6977
3938.000000 0.6975 0.6974 0.6973 0.6972 0.6971
3943.000000 0.6970 0.6968 0.6967 0.6966 0.6965
3948.000000 0.6963 0.6962 0.6961 0.6960 0.6959
3953.000000 0.6959 0.6958 0.6957 0.6956 0.6956
3958.000000 0.6955 0.6955 0.6954 0.6954 0.6953
3963.000000 0.6953 0.6952 0.6952 0.6951 0.6950
3968.000000 0.6950 0.6949 0.6948 0.6948 0.6947
3973.000000 0.6946 0.6946 0.6945 0.6945 0.6944
3978.000000 0.6944 0.6943 0.6943 0.6942 0.6942
3983.000000 0.6941 0.6941 0.6940 0.6939 0.6939
3988.000000 0.6938 0.6938 0.6937 0.6937 0.6936
3993.000000 0.6936 0.6935 0.6935 0.6934 0.6933
3998.000000 0.6933 0.6932 0.6932
##END=
