##TITLE=MAGNESIUM OXALATE
##JCAMP-DX=4.24
##DATA TYPE=INFRARED SPECTRUM
##CLASS=COBLENTZ
##OWNER=COBLENTZ SOCIETY
Collection (C) 2018 copyright by the U.S. Secretary of Commerce
on behalf of the United States of America. All rights reserved.
##DATE=Not specified, most likely prior to 1970
##MOLFORM=Mg C2 O4  * 2 H2 O
##SOURCE REFERENCE=COBLENTZ NO. 58
##$NIST ID=B6000058
##$NIST SOURCE=COBLENTZ
##$NIST IMAGE=cob58
##SPECTROMETER/DATA SYSTEM=Not specified, most likely a prism, grating, or hybrid spectrometer.
##STATE=SOLID (KBr DISC)
##SAMPLING PROCEDURE=TRANSMISSION
##RESOLUTION=4
##DATA PROCESSING=DIGITIZED BY NIST FROM HARD COPY
##XUNITS=MICROMETERS
##YUNITS=TRANSMITTANCE
##XFACTOR=1.000000
##YFACTOR=1
##DELTAX=000.007589
##FIRSTX=2.065
##LASTX=15.8076
##FIRSTY=0.941
##MAXX=15.8076
##MINX=2.065
##MAXY=0.97
##MINY=0.045
##NPOINTS=1812
##XYDATA=(X++(Y..Y))
2.065000 0.9410 0.9410 0.9420 0.9420 0.9440
2.102964 0.9450 0.9450 0.9460 0.9480 0.9480
2.141000 0.9480 0.9490 0.9490 0.9490 0.9490
2.178964 0.9490 0.9490 0.9490 0.9490 0.9490
2.217000 0.9490 0.9510 0.9510 0.9510 0.9510
2.254964 0.9510 0.9510 0.9520 0.9520 0.9510
2.293000 0.9510 0.9520 0.9520 0.9520 0.9520
2.330964 0.9520 0.9520 0.9520 0.9520 0.9520
2.368000 0.9520 0.9520 0.9520 0.9520 0.9520
2.405964 0.9520 0.9520 0.9540 0.9540 0.9540
2.444000 0.9540 0.9520 0.9510 0.9510 0.9510
2.481964 0.9490 0.9490 0.9490 0.9490 0.9490
2.520000 0.9490 0.9490 0.9490 0.9480 0.9480
2.557964 0.9480 0.9480 0.9480 0.9480 0.9480
2.596000 0.9480 0.9480 0.9480 0.9460 0.9460
2.633964 0.9460 0.9460 0.9440 0.9420 0.9390
2.672000 0.9380 0.9360 0.9350 0.9350 0.9320
2.709964 0.9270 0.9230 0.9100 0.8910 0.8790
2.748000 0.8670 0.8420 0.8080 0.7710 0.7330
2.785964 0.6890 0.6480 0.6050 0.5490 0.4930
2.824000 0.4740 0.4310 0.4030 0.3740 0.3130
2.861964 0.2840 0.2560 0.2380 0.2200 0.1760
2.900000 0.1310 0.1250 0.1190 0.0860 0.0780
2.937964 0.0690 0.0640 0.0630 0.0600 0.0600
2.976000 0.0630 0.0670 0.0780 0.1230 0.1940
3.013964 0.2160 0.2250 0.2690 0.2910 0.3180
3.051000 0.3340 0.3530 0.3650 0.3900 0.4070
3.088964 0.4220 0.4310 0.4400 0.4520 0.4750
3.127000 0.4910 0.5210 0.5390 0.5530 0.5610
3.164964 0.5720 0.5840 0.5920 0.6020 0.6140
3.203000 0.6210 0.6450 0.6460 0.6560 0.6770
3.240964 0.6900 0.7050 0.7210 0.7390 0.7450
3.279000 0.7760 0.7820 0.7890 0.7920 0.7980
3.316964 0.8010 0.8080 0.8150 0.8210 0.8260
3.355000 0.8300 0.8330 0.8350 0.8390 0.8430
3.392964 0.8490 0.8580 0.8610 0.8650 0.8710
3.431000 0.8850 0.8920 0.8960 0.9010 0.9020
3.468964 0.9070 0.9080 0.9110 0.9140 0.9160
3.507000 0.9170 0.9200 0.9200 0.9210 0.9230
3.544964 0.9260 0.9260 0.9260 0.9270 0.9290
3.583000 0.9320 0.9330 0.9350 0.9360 0.9380
3.620964 0.9380 0.9380 0.9390 0.9390 0.9410
3.659000 0.9420 0.9450 0.9460 0.9480 0.9480
3.696964 0.9490 0.9510 0.9520 0.9520 0.9550
3.734000 0.9550 0.9550 0.9570 0.9570 0.9570
3.771964 0.9580 0.9580 0.9600 0.9600 0.9600
3.810000 0.9610 0.9600 0.9600 0.9610 0.9610
3.847964 0.9610 0.9610 0.9610 0.9610 0.9610
3.886000 0.9610 0.9610 0.9630 0.9630 0.9630
3.923964 0.9630 0.9630 0.9630 0.9640 0.9640
3.962000 0.9640 0.9640 0.9640 0.9660 0.9660
3.999964 0.9690 0.9690 0.9690 0.9690 0.9690
4.038000 0.9690 0.9690 0.9690 0.9690 0.9690
4.075964 0.9700 0.9700 0.9700 0.9700 0.9700
4.114000 0.9700 0.9700 0.9690 0.9690 0.9690
4.151964 0.9670 0.9660 0.9660 0.9630 0.9610
4.190000 0.9600 0.9550 0.9520 0.9510 0.9490
4.227964 0.9480 0.9480 0.9480 0.9480 0.9480
4.266000 0.9480 0.9480 0.9480 0.9480 0.9480
4.303964 0.9480 0.9480 0.9480 0.9460 0.9460
4.341000 0.9460 0.9440 0.9390 0.9380 0.9330
4.378964 0.9290 0.9230 0.9230 0.9230 0.9230
4.417000 0.9230 0.9230 0.9230 0.9240 0.9240
4.454964 0.9240 0.9260 0.9270 0.9290 0.9290
4.493000 0.9300 0.9320 0.9330 0.9350 0.9350
4.530964 0.9350 0.9360 0.9380 0.9390 0.9390
4.569000 0.9410 0.9420 0.9440 0.9450 0.9460
4.606964 0.9460 0.9460 0.9460 0.9460 0.9480
4.645000 0.9480 0.9480 0.9480 0.9480 0.9490
4.682964 0.9490 0.9490 0.9490 0.9490 0.9490
4.721000 0.9490 0.9490 0.9510 0.9510 0.9520
4.758964 0.9520 0.9520 0.9520 0.9540 0.9540
4.797000 0.9520 0.9520 0.9520 0.9540 0.9540
4.834964 0.9540 0.9540 0.9540 0.9550 0.9550
4.873000 0.9550 0.9540 0.9540 0.9550 0.9540
4.910964 0.9540 0.9540 0.9550 0.9550 0.9550
4.949000 0.9550 0.9570 0.9570 0.9570 0.9570
4.986964 0.9570 0.9580 0.9580 0.9570 0.9580
5.024000 0.9580 0.9570 0.9580 0.9580 0.9580
5.061964 0.9580 0.9580 0.9580 0.9580 0.9570
5.100000 0.9570 0.9550 0.9550 0.9540 0.9520
5.137964 0.9510 0.9510 0.9510 0.9510 0.9490
5.176000 0.9490 0.9480 0.9460 0.9450 0.9410
5.213964 0.9380 0.9360 0.9330 0.9330 0.9330
5.252000 0.9330 0.9330 0.9350 0.9350 0.9360
5.289964 0.9380 0.9380 0.9390 0.9410 0.9410
5.328000 0.9420 0.9420 0.9440 0.9440 0.9440
5.365964 0.9440 0.9450 0.9450 0.9450 0.9450
5.404000 0.9440 0.9440 0.9440 0.9440 0.9440
5.441964 0.9450 0.9440 0.9440 0.9440 0.9440
5.480000 0.9440 0.9440 0.9440 0.9420 0.9420
5.517964 0.9410 0.9380 0.9360 0.9350 0.9330
5.556000 0.9320 0.9320 0.9290 0.9270 0.9270
5.593964 0.9240 0.9210 0.9200 0.9140 0.9130
5.632000 0.9110 0.9050 0.8990 0.8930 0.8880
5.669964 0.8860 0.8830 0.8800 0.8770 0.8730
5.707000 0.8640 0.8580 0.8370 0.8170 0.7740
5.744964 0.7580 0.7400 0.6920 0.6480 0.6330
5.783000 0.6170 0.5920 0.5830 0.5690 0.5270
5.820964 0.5050 0.4870 0.4690 0.4460 0.4280
5.859000 0.4090 0.3780 0.3540 0.3310 0.2970
5.896964 0.2510 0.2370 0.2220 0.1780 0.1280
5.935000 0.1170 0.1070 0.1060 0.1060 0.0700
5.972964 0.0540 0.0530 0.0480 0.0480 0.0480
6.011000 0.0480 0.0480 0.0480 0.0500 0.0510
6.048964 0.0510 0.0500 0.0480 0.0450 0.0450
6.087000 0.0450 0.0480 0.0480 0.0510 0.0610
6.124964 0.0790 0.1190 0.1470 0.1730 0.1870
6.163000 0.1970 0.2090 0.2190 0.2280 0.2400
6.200964 0.2660 0.2790 0.2880 0.3130 0.3430
6.239000 0.3560 0.3880 0.4340 0.4620 0.4810
6.276964 0.4880 0.5190 0.5610 0.5750 0.5840
6.315000 0.5930 0.6060 0.6150 0.6480 0.6590
6.352964 0.6670 0.6840 0.6930 0.6990 0.7030
6.390000 0.7060 0.7090 0.7230 0.7310 0.7450
6.427964 0.7620 0.7670 0.7710 0.7760 0.7800
6.466000 0.7820 0.7870 0.7900 0.7990 0.8020
6.503964 0.8050 0.8120 0.8180 0.8200 0.8210
6.542000 0.8230 0.8230 0.8240 0.8270 0.8330
6.579964 0.8370 0.8390 0.8400 0.8420 0.8420
6.618000 0.8490 0.8520 0.8540 0.8550 0.8570
6.655964 0.8580 0.8600 0.8610 0.8630 0.8640
6.694000 0.8650 0.8670 0.8680 0.8680 0.8700
6.731964 0.8700 0.8710 0.8710 0.8730 0.8730
6.770000 0.8740 0.8740 0.8740 0.8740 0.8740
6.807964 0.8740 0.8740 0.8740 0.8740 0.8740
6.846000 0.8740 0.8730 0.8730 0.8730 0.8710
6.883964 0.8700 0.8700 0.8680 0.8670 0.8650
6.922000 0.8650 0.8630 0.8630 0.8610 0.8640
6.959964 0.8640 0.8650 0.8670 0.8670 0.8670
6.997000 0.8670 0.8680 0.8680 0.8680 0.8700
7.034964 0.8700 0.8700 0.8710 0.8740 0.8740
7.073000 0.8740 0.8760 0.8760 0.8760 0.8760
7.110964 0.8760 0.8740 0.8740 0.8740 0.8730
7.149000 0.8700 0.8650 0.8610 0.8550 0.8450
7.186964 0.8200 0.8120 0.7830 0.7550 0.7370
7.225000 0.7200 0.6490 0.5780 0.5400 0.5000
7.262964 0.4590 0.4310 0.4180 0.4000 0.4000
7.301000 0.4160 0.4270 0.4410 0.4620 0.4870
7.338964 0.5460 0.5640 0.5770 0.5970 0.6110
7.377000 0.6170 0.6390 0.6480 0.6480 0.6460
7.414964 0.6460 0.6370 0.6310 0.6220 0.6140
7.453000 0.5490 0.5280 0.5020 0.4590 0.4150
7.490964 0.3710 0.2560 0.2250 0.1920 0.1780
7.529000 0.1570 0.1450 0.1450 0.1510 0.1750
7.566964 0.1920 0.2280 0.3000 0.3470 0.3590
7.605000 0.4210 0.4430 0.4740 0.5360 0.5520
7.642964 0.5750 0.5960 0.6120 0.6430 0.6640
7.680000 0.6710 0.6890 0.7050 0.7180 0.7340
7.717964 0.7460 0.7760 0.7790 0.7860 0.7900
7.756000 0.7950 0.7990 0.8040 0.8080 0.8120
7.793964 0.8170 0.8200 0.8240 0.8290 0.8320
7.832000 0.8330 0.8350 0.8370 0.8400 0.8420
7.869964 0.8430 0.8460 0.8460 0.8480 0.8490
7.908000 0.8490 0.8510 0.8510 0.8520 0.8520
7.945964 0.8520 0.8540 0.8540 0.8550 0.8550
7.984000 0.8550 0.8570 0.8580 0.8580 0.8600
8.021964 0.8600 0.8600 0.8600 0.8600 0.8600
8.060000 0.8600 0.8610 0.8610 0.8610 0.8630
8.097964 0.8630 0.8640 0.8640 0.8650 0.8650
8.136000 0.8650 0.8640 0.8650 0.8650 0.8650
8.173964 0.8650 0.8640 0.8640 0.8640 0.8640
8.212000 0.8640 0.8640 0.8640 0.8640 0.8640
8.249964 0.8640 0.8640 0.8640 0.8640 0.8640
8.288000 0.8640 0.8640 0.8640 0.8640 0.8640
8.325964 0.8640 0.8640 0.8640 0.8640 0.8640
8.363000 0.8640 0.8640 0.8640 0.8640 0.8640
8.400964 0.8640 0.8640 0.8640 0.8640 0.8640
8.439000 0.8640 0.8650 0.8650 0.8650 0.8650
8.476964 0.8650 0.8650 0.8650 0.8650 0.8650
8.515000 0.8650 0.8650 0.8650 0.8650 0.8650
8.552964 0.8650 0.8650 0.8650 0.8650 0.8650
8.591000 0.8670 0.8670 0.8670 0.8670 0.8670
8.628964 0.8670 0.8670 0.8670 0.8670 0.8670
8.667000 0.8670 0.8670 0.8670 0.8670 0.8670
8.704964 0.8670 0.8670 0.8670 0.8670 0.8670
8.743000 0.8670 0.8680 0.8680 0.8680 0.8680
8.780964 0.8680 0.8680 0.8680 0.8680 0.8680
8.819000 0.8680 0.8680 0.8680 0.8700 0.8700
8.856964 0.8700 0.8700 0.8700 0.8700 0.8700
8.895000 0.8700 0.8700 0.8700 0.8700 0.8700
8.932964 0.8700 0.8700 0.8710 0.8710 0.8710
8.970000 0.8710 0.8710 0.8710 0.8710 0.8710
9.007964 0.8730 0.8730 0.8730 0.8730 0.8730
9.046000 0.8730 0.8730 0.8730 0.8730 0.8730
9.083964 0.8730 0.8740 0.8740 0.8740 0.8740
9.122000 0.8740 0.8740 0.8740 0.8740 0.8740
9.159964 0.8740 0.8740 0.8740 0.8740 0.8740
9.198000 0.8740 0.8740 0.8740 0.8740 0.8760
9.235964 0.8760 0.8760 0.8770 0.8770 0.8770
9.274000 0.8770 0.8770 0.8790 0.8790 0.8790
9.311964 0.8790 0.8790 0.8800 0.8800 0.8800
9.350000 0.8800 0.8800 0.8800 0.8820 0.8820
9.387964 0.8820 0.8830 0.8830 0.8830 0.8830
9.426000 0.8850 0.8850 0.8850 0.8850 0.8860
9.463964 0.8860 0.8860 0.8860 0.8880 0.8880
9.502000 0.8880 0.8880 0.8890 0.8890 0.8890
9.539964 0.8890 0.8890 0.8890 0.8890 0.8910
9.578000 0.8910 0.8910 0.8910 0.8920 0.8920
9.615964 0.8920 0.8920 0.8930 0.8930 0.8930
9.653000 0.8930 0.8930 0.8950 0.8950 0.8950
9.690964 0.8960 0.8960 0.8960 0.8960 0.8980
9.729000 0.8980 0.8980 0.8980 0.8990 0.8990
9.766964 0.8990 0.8990 0.9010 0.9010 0.9010
9.805000 0.9010 0.9010 0.9010 0.9020 0.9020
9.842964 0.9020 0.9020 0.9020 0.9020 0.9020
9.881000 0.9020 0.9040 0.9040 0.9040 0.9040
9.918964 0.9050 0.9050 0.9050 0.9070 0.9070
9.957000 0.9070 0.9070 0.9080 0.9080 0.9080
9.994964 0.9080 0.9080 0.9070 0.9070 0.9070
10.033000 0.9070 0.9070 0.9070 0.9070 0.9070
10.070964 0.9080 0.9080 0.9080 0.9080 0.9080
10.109000 0.9080 0.9080 0.9080 0.9080 0.9080
10.146964 0.9080 0.9080 0.9100 0.9100 0.9100
10.185000 0.9100 0.9100 0.9100 0.9100 0.9100
10.222964 0.9100 0.9100 0.9100 0.9100 0.9100
10.261000 0.9100 0.9110 0.9110 0.9110 0.9110
10.298964 0.9110 0.9110 0.9110 0.9110 0.9110
10.336000 0.9110 0.9110 0.9110 0.9110 0.9110
10.373964 0.9130 0.9130 0.9130 0.9130 0.9130
10.412000 0.9130 0.9130 0.9140 0.9140 0.9140
10.449964 0.9140 0.9140 0.9140 0.9140 0.9140
10.488000 0.9160 0.9160 0.9160 0.9160 0.9160
10.525964 0.9160 0.9160 0.9160 0.9170 0.9170
10.564000 0.9170 0.9170 0.9170 0.9170 0.9170
10.601964 0.9170 0.9170 0.9170 0.9170 0.9170
10.640000 0.9170 0.9170 0.9170 0.9170 0.9170
10.677964 0.9170 0.9170 0.9170 0.9170 0.9170
10.716000 0.9170 0.9170 0.9170 0.9170 0.9170
10.753964 0.9170 0.9170 0.9170 0.9170 0.9170
10.792000 0.9170 0.9170 0.9170 0.9170 0.9170
10.829964 0.9170 0.9170 0.9170 0.9170 0.9170
10.868000 0.9170 0.9170 0.9170 0.9170 0.9160
10.905964 0.9160 0.9160 0.9160 0.9160 0.9140
10.944000 0.9140 0.9140 0.9140 0.9140 0.9130
10.981964 0.9130 0.9130 0.9130 0.9130 0.9130
11.019000 0.9130 0.9130 0.9130 0.9130 0.9130
11.056964 0.9130 0.9130 0.9130 0.9130 0.9130
11.095000 0.9130 0.9130 0.9130 0.9130 0.9130
11.132964 0.9130 0.9110 0.9130 0.9110 0.9110
11.171000 0.9110 0.9110 0.9110 0.9100 0.9100
11.208964 0.9080 0.9080 0.9080 0.9080 0.9070
11.247000 0.9070 0.9070 0.9050 0.9050 0.9050
11.284964 0.9050 0.9050 0.9040 0.9040 0.9040
11.323000 0.9040 0.9040 0.9020 0.9020 0.9020
11.360964 0.9020 0.9010 0.9010 0.8990 0.8980
11.399000 0.8960 0.8950 0.8930 0.8920 0.8910
11.436964 0.8880 0.8880 0.8860 0.8860 0.8850
11.475000 0.8830 0.8820 0.8800 0.8790 0.8770
11.512964 0.8760 0.8740 0.8730 0.8710 0.8680
11.551000 0.8650 0.8630 0.8600 0.8550 0.8520
11.588964 0.8460 0.8430 0.8390 0.8360 0.8290
11.626000 0.8270 0.8260 0.8260 0.8240 0.8200
11.663964 0.8170 0.8140 0.8050 0.7980 0.7900
11.702000 0.7820 0.7770 0.7700 0.7610 0.7550
11.739964 0.7510 0.7460 0.7270 0.7230 0.7140
11.778000 0.7090 0.6990 0.6870 0.6750 0.6670
11.815964 0.6500 0.6430 0.6300 0.6250 0.6210
11.854000 0.6080 0.5940 0.5830 0.5500 0.5300
11.891964 0.5220 0.5120 0.5050 0.4990 0.4910
11.930000 0.4780 0.4710 0.4620 0.4500 0.4410
11.967964 0.4310 0.4210 0.4160 0.4120 0.4100
12.006000 0.4060 0.4060 0.4050 0.4030 0.4030
12.043964 0.4050 0.4050 0.4050 0.4060 0.4070
12.082000 0.4070 0.4100 0.4180 0.4240 0.4410
12.119964 0.4460 0.4590 0.4650 0.4740 0.4810
12.158000 0.4860 0.4970 0.5180 0.5270 0.5340
12.195964 0.5430 0.5530 0.5620 0.5690 0.5770
12.234000 0.5890 0.5960 0.6020 0.6050 0.6110
12.271964 0.6180 0.6200 0.6210 0.6300 0.6360
12.309000 0.6370 0.6420 0.6460 0.6500 0.6530
12.346964 0.6580 0.6610 0.6680 0.6710 0.6740
12.385000 0.6750 0.6800 0.6830 0.6860 0.6890
12.422964 0.6920 0.6930 0.6980 0.7010 0.7020
12.461000 0.7050 0.7080 0.7110 0.7120 0.7170
12.498964 0.7180 0.7230 0.7240 0.7260 0.7270
12.537000 0.7300 0.7310 0.7330 0.7360 0.7400
12.574964 0.7430 0.7450 0.7460 0.7480 0.7490
12.613000 0.7510 0.7540 0.7540 0.7550 0.7560
12.650964 0.7560 0.7560 0.7560 0.7560 0.7580
12.689000 0.7590 0.7610 0.7620 0.7640 0.7640
12.726964 0.7650 0.7650 0.7670 0.7670 0.7680
12.765000 0.7680 0.7700 0.7710 0.7710 0.7710
12.802964 0.7730 0.7730 0.7730 0.7760 0.7760
12.841000 0.7760 0.7770 0.7770 0.7770 0.7770
12.878964 0.7790 0.7790 0.7790 0.7790 0.7790
12.917000 0.7790 0.7790 0.7790 0.7790 0.7800
12.954964 0.7800 0.7800 0.7800 0.7800 0.7800
12.992000 0.7800 0.7800 0.7800 0.7800 0.7800
13.029964 0.7800 0.7800 0.7790 0.7790 0.7790
13.068000 0.7790 0.7790 0.7790 0.7790 0.7790
13.105964 0.7790 0.7790 0.7790 0.7790 0.7770
13.144000 0.7760 0.7760 0.7740 0.7730 0.7730
13.181964 0.7710 0.7700 0.7700 0.7680 0.7670
13.220000 0.7670 0.7650 0.7640 0.7640 0.7620
13.257964 0.7610 0.7610 0.7610 0.7610 0.7590
13.296000 0.7580 0.7580 0.7560 0.7550 0.7540
13.333964 0.7540 0.7510 0.7510 0.7510 0.7510
13.372000 0.7490 0.7480 0.7460 0.7450 0.7430
13.409964 0.7420 0.7400 0.7390 0.7360 0.7340
13.448000 0.7330 0.7310 0.7300 0.7290 0.7270
13.485964 0.7260 0.7240 0.7230 0.7200 0.7180
13.524000 0.7170 0.7150 0.7140 0.7120 0.7110
13.561964 0.7090 0.7080 0.7060 0.7030 0.7030
13.599000 0.7020 0.7010 0.6980 0.6960 0.6950
13.636964 0.6930 0.6920 0.6900 0.6890 0.6870
13.675000 0.6840 0.6810 0.6800 0.6770 0.6750
13.712964 0.6750 0.6730 0.6730 0.6710 0.6700
13.751000 0.6670 0.6650 0.6640 0.6610 0.6610
13.788964 0.6590 0.6590 0.6560 0.6560 0.6550
13.827000 0.6520 0.6520 0.6500 0.6490 0.6480
13.864964 0.6460 0.6450 0.6430 0.6420 0.6400
13.903000 0.6390 0.6390 0.6340 0.6310 0.6300
13.940964 0.6300 0.6280 0.6270 0.6250 0.6240
13.979000 0.6220 0.6220 0.6220 0.6200 0.6180
14.016964 0.6170 0.6150 0.6150 0.6140 0.6120
14.055000 0.6110 0.6110 0.6110 0.6110 0.6090
14.092964 0.6080 0.6080 0.6060 0.6060 0.6050
14.131000 0.6030 0.6030 0.6020 0.6000 0.5970
14.168964 0.5970 0.5960 0.5960 0.5940 0.5920
14.207000 0.5900 0.5890 0.5860 0.5860 0.5840
14.244964 0.5840 0.5840 0.5840 0.5830 0.5830
14.282000 0.5830 0.5830 0.5810 0.5810 0.5810
14.319964 0.5800 0.5800 0.5800 0.5800 0.5800
14.358000 0.5800 0.5800 0.5800 0.5800 0.5800
14.395964 0.5800 0.5800 0.5800 0.5800 0.5800
14.434000 0.5800 0.5800 0.5800 0.5800 0.5810
14.471964 0.5810 0.5810 0.5830 0.5830 0.5830
14.510000 0.5830 0.5830 0.5830 0.5840 0.5840
14.547964 0.5860 0.5860 0.5870 0.5870 0.5870
14.586000 0.5890 0.5890 0.5890 0.5890 0.5900
14.623964 0.5900 0.5900 0.5900 0.5920 0.5920
14.662000 0.5930 0.5930 0.5940 0.5940 0.5960
14.699964 0.5970 0.5990 0.6000 0.6000 0.6020
14.738000 0.6030 0.6030 0.6030 0.6050 0.6050
14.775964 0.6060 0.6060 0.6080 0.6080 0.6090
14.814000 0.6090 0.6110 0.6110 0.6120 0.6120
14.851964 0.6140 0.6140 0.6150 0.6150 0.6170
14.890000 0.6170 0.6180 0.6200 0.6220 0.6240
14.927964 0.6270 0.6270 0.6280 0.6280 0.6280
14.965000 0.6280 0.6300 0.6280 0.6280 0.6280
15.002964 0.6280 0.6280 0.6300 0.6300 0.6300
15.041000 0.6300 0.6310 0.6310 0.6310 0.6330
15.078964 0.6330 0.6340 0.6360 0.6360 0.6370
15.117000 0.6390 0.6390 0.6400 0.6400 0.6420
15.154964 0.6430 0.6430 0.6450 0.6450 0.6460
15.193000 0.6480 0.6490 0.6500 0.6520 0.6530
15.230964 0.6550 0.6550 0.6550 0.6560 0.6560
15.269000 0.6580 0.6580 0.6590 0.6610 0.6610
15.306964 0.6620 0.6650 0.6650 0.6680 0.6700
15.345000 0.6710 0.6710 0.6710 0.6730 0.6730
15.382964 0.6730 0.6730 0.6740 0.6740 0.6740
15.421000 0.6750 0.6750 0.6770 0.6770 0.6770
15.458964 0.6780 0.6780 0.6800 0.6800 0.6800
15.497000 0.6810 0.6810 0.6810 0.6810 0.6830
15.534964 0.6830 0.6830 0.6830 0.6840 0.6840
15.573000 0.6840 0.6860 0.6860 0.6870 0.6870
15.610964 0.6890 0.6890 0.6900 0.6900 0.6900
15.648000 0.6900 0.6900 0.6900 0.6900 0.6900
15.685964 0.6900 0.6900 0.6900 0.6900 0.6900
15.724000 0.6900 0.6900 0.6900 0.6900 0.6900
15.761964 0.6900 0.6900 0.6900 0.6900 0.6900
15.800000 0.6900 0.6900
##END=
