##TITLE=Oxadiazole, 1,2,4-, 5-(4-butoxyphenyl)-3-(5-nitrofuran-2-yl)-
##JCAMP-DX=4.24
##DATA TYPE=INFRARED SPECTRUM
##CLASS=COBLENTZ III
##ORIGIN=ABBOTT LABORATORIES - WASHBURN
##OWNER=Copyright (C) 1987 by the Coblentz Society
Collection (C) 2018 copyright by the U.S. Secretary of Commerce
on behalf of the United States of America. All rights reserved.
##DATE=1964/12/30
##NAMES=butyl 4-[3-(5-nitro-2-furyl)-1,2,4-oxadiazol-5-yl]phenyl ether
5-(4-butoxyphenyl)-3-(5-nitro-2-furyl)-1,2,4-oxadiazole
Oxadiazole, 1,2,4-, 5-(p-butoxyphenyl(-3-)5-nitro-2-furyl)-
##MOLFORM=C16 H15 N3 O5
##MP=132 C
##SOURCE REFERENCE=COBLENTZ NO. 9052
##$NIST ID=B6009052
##$NIST SOURCE=COBLENTZ
##$NIST IMAGE=cob9052
##SPECTROMETER/DATA SYSTEM=PERKIN-ELMER 421 (GRATING)
##INSTRUMENT PARAMETERS=GRATINGS: 1999 CM^-^1
##STATE=SOLUTION (7% CHCl3) VS SOLVENT
$$ PURITY MORE THAN 95%
##PATH LENGTH=0.01 CM
$$SPECTRAL CONTAMINATION DUE TO INACTIVE CHCl3 AROUND 1200, 700-800 CM^-^1
##SAMPLING PROCEDURE=TRANSMISSION
##RESOLUTION=2
##DATA PROCESSING=DIGITIZED BY COBLENTZ SOCIETY (BATCH II) FROM HARD COPY
##XUNITS=1/CM
##YUNITS=TRANSMITTANCE
##XFACTOR=1.0
##YFACTOR=1
##FIRSTX=663
##LASTX=4000
##FIRSTY=0.857
##MAXX=4000
##MINX=663
##MAXY=0.8988
##MINY=0.0374
##NPOINTS=3338
##XYDATA=(X++(Y..Y))
663.000000 0.8570 0.8567 0.8565 0.8565 0.8565
668.000000 0.8564 0.8559 0.8555 0.8550 0.8545
673.000000 0.8532 0.8504 0.8476 0.8448 0.8421
678.000000 0.8393 0.8364 0.8328 0.8291 0.8255
683.000000 0.8218 0.8188 0.8160 0.8132 0.8104
688.000000 0.8076 0.8005 0.7963 0.7961 0.7958
693.000000 0.7955 0.7953 0.7948 0.7944 0.7904
698.000000 0.7858 0.7702 0.7589 0.7497 0.7427
703.000000 0.7371 0.7315 0.7260 0.7204 0.7148
708.000000 0.7076 0.7002 0.6927 0.6863 0.6811
713.000000 0.6758 0.6739 0.6723 0.6706 0.6697
718.000000 0.6694 0.6690 0.6687 0.6684 0.6680
723.000000 0.6682 0.6686 0.6689 0.6692 0.6695
728.000000 0.6698 0.6700 0.6703 0.6706 0.6709
733.000000 0.6711 0.6714 0.6717 0.6720 0.6723
738.000000 0.6724 0.6731 0.6722 0.6722 0.6721
743.000000 0.6721 0.6720 0.6720 0.6719 0.6718
748.000000 0.6717 0.6717 0.6716 0.6715 0.6714
753.000000 0.6713 0.6712 0.6711 0.6710 0.6710
758.000000 0.6710 0.6711 0.6711 0.6711 0.6712
763.000000 0.6712 0.6712 0.6713 0.6713 0.6713
768.000000 0.6714 0.6714 0.6714 0.6713 0.6712
773.000000 0.6711 0.6710 0.6709 0.6707 0.6706
778.000000 0.6705 0.6704 0.6700 0.6694 0.6688
783.000000 0.6683 0.6677 0.6671 0.6653 0.6634
788.000000 0.6615 0.6596 0.6564 0.6530 0.6495
793.000000 0.6437 0.6380 0.6322 0.6014 0.5684
798.000000 0.5355 0.5025 0.4695 0.4365 0.4035
803.000000 0.3706 0.3376 0.3046 0.2716 0.2631
808.000000 0.2631 0.2633 0.2764 0.3272 0.3781
813.000000 0.4290 0.4799 0.5307 0.5816 0.6325
818.000000 0.6833 0.7342 0.7698 0.7732 0.7747
823.000000 0.7751 0.7754 0.7744 0.7727 0.7522
828.000000 0.7080 0.6639 0.6197 0.5756 0.5314
833.000000 0.4873 0.4432 0.3990 0.3549 0.3107
838.000000 0.2998 0.3013 0.3010 0.3597 0.4190
843.000000 0.4783 0.5375 0.5968 0.6561 0.7154
848.000000 0.7747 0.7999 0.8291 0.8351 0.8407
853.000000 0.8446 0.8471 0.8487 0.8503 0.8506
858.000000 0.8521 0.8506 0.8496 0.8475 0.8443
863.000000 0.8410 0.8327 0.8236 0.8142 0.8047
868.000000 0.8005 0.8008 0.8008 0.8021 0.8041
873.000000 0.8101 0.8143 0.8197 0.8233 0.8259
878.000000 0.8281 0.8294 0.8309 0.8291 0.8283
883.000000 0.8266 0.8230 0.8193 0.8128 0.8033
888.000000 0.7952 0.7862 0.7770 0.7657 0.7495
893.000000 0.7322 0.7136 0.6871 0.6606 0.6341
898.000000 0.6076 0.5811 0.5546 0.5237 0.5197
903.000000 0.5205 0.5566 0.6096 0.6625 0.7155
908.000000 0.7684 0.8162 0.8234 0.8249 0.8258
913.000000 0.8268 0.8274 0.8281 0.8289 0.8297
918.000000 0.8305 0.8314 0.8330 0.8345 0.8363
923.000000 0.8382 0.8401 0.8420 0.8441 0.8461
928.000000 0.8482 0.8495 0.8508 0.8516 0.8508
933.000000 0.8495 0.8482 0.8468 0.8448 0.8427
938.000000 0.8404 0.8380 0.8354 0.8321 0.8287
943.000000 0.8252 0.8217 0.8177 0.8130 0.8068
948.000000 0.7991 0.7912 0.7815 0.7700 0.7547
953.000000 0.7471 0.7395 0.7282 0.7161 0.7029
958.000000 0.6897 0.6705 0.5956 0.5241 0.4549
963.000000 0.4546 0.4581 0.4856 0.5132 0.5408
968.000000 0.5684 0.5959 0.6235 0.6511 0.6787
973.000000 0.7062 0.7338 0.7405 0.7442 0.7459
978.000000 0.7466 0.7470 0.7467 0.7464 0.7457
983.000000 0.7445 0.7422 0.7316 0.7055 0.6795
988.000000 0.6534 0.6274 0.6013 0.5938 0.5934
993.000000 0.6070 0.6216 0.6300 0.6295 0.6220
998.000000 0.6143 0.6065 0.5987 0.5910 0.5834
1003.000000 0.5774 0.5724 0.5662 0.5587 0.5484
1008.000000 0.5366 0.5243 0.4212 0.3054 0.2239
1013.000000 0.2205 0.2211 0.2229 0.2668 0.3187
1018.000000 0.3705 0.4224 0.4742 0.5261 0.5779
1023.000000 0.6298 0.6473 0.6566 0.6627 0.6662
1028.000000 0.6696 0.6724 0.6751 0.6784 0.6877
1033.000000 0.7038 0.7198 0.7359 0.7520 0.7680
1038.000000 0.7841 0.7961 0.8006 0.8028 0.8038
1043.000000 0.8046 0.8039 0.8038 0.8036 0.8034
1048.000000 0.8027 0.8013 0.7901 0.7763 0.7626
1053.000000 0.7488 0.7351 0.7213 0.7076 0.6938
1058.000000 0.6801 0.6663 0.6525 0.6399 0.6382
1063.000000 0.6428 0.6559 0.6689 0.6819 0.6950
1068.000000 0.7080 0.7211 0.7341 0.7619 0.7602
1073.000000 0.7614 0.7568 0.7481 0.7395 0.7308
1078.000000 0.7222 0.7135 0.7091 0.7098 0.7357
1083.000000 0.7712 0.8066 0.8374 0.8510 0.8574
1088.000000 0.8613 0.8646 0.8678 0.8711 0.8742
1093.000000 0.8759 0.8773 0.8783 0.8787 0.8785
1098.000000 0.8781 0.8766 0.8743 0.8718 0.8685
1103.000000 0.8651 0.8611 0.8565 0.8518 0.8454
1108.000000 0.8290 0.8125 0.7960 0.7795 0.7631
1113.000000 0.7466 0.7208 0.7192 0.7201 0.7278
1118.000000 0.7439 0.7599 0.7759 0.7920 0.8080
1123.000000 0.8241 0.8401 0.8523 0.8550 0.8579
1128.000000 0.8561 0.8550 0.8501 0.8447 0.8383
1133.000000 0.8297 0.8196 0.8094 0.7920 0.7746
1138.000000 0.7572 0.7398 0.7224 0.7115 0.7078
1143.000000 0.7079 0.7081 0.7084 0.7087 0.7091
1148.000000 0.7106 0.7121 0.7141 0.7162 0.7173
1153.000000 0.7183 0.7176 0.7153 0.7118 0.6914
1158.000000 0.6595 0.6277 0.5959 0.5640 0.5522
1163.000000 0.5368 0.4351 0.3026 0.1700 0.1087
1168.000000 0.1065 0.1072 0.1076 0.1141 0.1758
1173.000000 0.2375 0.2992 0.3608 0.4225 0.4842
1178.000000 0.5459 0.6076 0.6568 0.6601 0.6610
1183.000000 0.6619 0.6613 0.6606 0.6592 0.6578
1188.000000 0.6556 0.6532 0.6388 0.6181 0.5975
1193.000000 0.5768 0.5561 0.5355 0.5148 0.4941
1198.000000 0.4746 0.4697 0.4637 0.4588 0.4556
1203.000000 0.4525 0.4495 0.4474 0.4458 0.4449
1208.000000 0.4440 0.4433 0.4431 0.4428 0.4425
1213.000000 0.4423 0.4424 0.4425 0.4426 0.4427
1218.000000 0.4431 0.4434 0.4438 0.4441 0.4444
1223.000000 0.4446 0.4447 0.4442 0.4436 0.4420
1228.000000 0.4394 0.4197 0.3908 0.3618 0.3329
1233.000000 0.3039 0.2750 0.2460 0.2171 0.2041
1238.000000 0.1976 0.1934 0.1894 0.1862 0.1838
1243.000000 0.1820 0.1802 0.1792 0.1621 0.1307
1248.000000 0.0993 0.0828 0.0763 0.0712 0.0689
1253.000000 0.0668 0.0695 0.0712 0.0744 0.0783
1258.000000 0.0890 0.1051 0.1211 0.1372 0.1532
1263.000000 0.1692 0.1864 0.1949 0.2034 0.2087
1268.000000 0.2134 0.2176 0.2422 0.2744 0.3067
1273.000000 0.3389 0.3712 0.4035 0.4357 0.4680
1278.000000 0.5002 0.5325 0.5647 0.5824 0.5872
1283.000000 0.5891 0.5894 0.5891 0.5893 0.5882
1288.000000 0.5813 0.5690 0.5568 0.5445 0.5322
1293.000000 0.5200 0.5077 0.4955 0.4832 0.4735
1298.000000 0.3865 0.2948 0.2030 0.1283 0.1209
1303.000000 0.1198 0.1199 0.1222 0.1217 0.1278
1308.000000 0.1378 0.1477 0.1577 0.1677 0.1776
1313.000000 0.1876 0.1975 0.2075 0.2100 0.2096
1318.000000 0.2097 0.2079 0.2043 0.1931 0.1780
1323.000000 0.1629 0.1477 0.1326 0.1161 0.1054
1328.000000 0.0904 0.0813 0.0729 0.0569 0.0515
1333.000000 0.0491 0.0489 0.0474 0.0512 0.0567
1338.000000 0.0656 0.0746 0.0835 0.0927 0.0888
1343.000000 0.0883 0.0792 0.0682 0.0573 0.0464
1348.000000 0.0374 0.0378 0.0378 0.0391 0.0413
1353.000000 0.0950 0.1170 0.1716 0.2146 0.2576
1358.000000 0.3006 0.3436 0.3866 0.4328 0.4474
1363.000000 0.4511 0.4522 0.4557 0.4515 0.4448
1368.000000 0.4293 0.4137 0.3982 0.3827 0.3672
1373.000000 0.3517 0.3396 0.3393 0.3404 0.3486
1378.000000 0.3822 0.4158 0.4494 0.4830 0.5165
1383.000000 0.5458 0.5496 0.5524 0.5563 0.5616
1388.000000 0.5747 0.5807 0.5844 0.5848 0.5848
1393.000000 0.5839 0.5844 0.5833 0.5809 0.5662
1398.000000 0.5043 0.4425 0.3806 0.3187 0.3038
1403.000000 0.3001 0.2987 0.2982 0.2980 0.2964
1408.000000 0.3315 0.3819 0.4323 0.4827 0.5332
1413.000000 0.5724 0.5714 0.5685 0.5490 0.5284
1418.000000 0.5077 0.4871 0.4664 0.4563 0.4549
1423.000000 0.4605 0.4754 0.4903 0.4996 0.4984
1428.000000 0.4838 0.4680 0.4521 0.4363 0.4343
1433.000000 0.4372 0.4561 0.4634 0.4895 0.5453
1438.000000 0.6010 0.6567 0.6685 0.6678 0.6675
1443.000000 0.6649 0.6404 0.6106 0.5809 0.5511
1448.000000 0.5213 0.4916 0.4618 0.4321 0.4023
1453.000000 0.3792 0.3724 0.3679 0.3531 0.3328
1458.000000 0.3124 0.3093 0.3077 0.3097 0.3120
1463.000000 0.3200 0.3497 0.3794 0.4091 0.4387
1468.000000 0.4684 0.4925 0.4982 0.5043 0.5258
1473.000000 0.5569 0.5879 0.6226 0.6239 0.6257
1478.000000 0.6245 0.6238 0.6187 0.5938 0.5690
1483.000000 0.5442 0.5193 0.4945 0.4697 0.3954
1488.000000 0.2769 0.1584 0.1034 0.0899 0.0721
1493.000000 0.0606 0.0500 0.0453 0.0433 0.0419
1498.000000 0.0420 0.0410 0.0878 0.1655 0.2431
1503.000000 0.3208 0.3425 0.3320 0.3169 0.3437
1508.000000 0.2866 0.2714 0.2563 0.2411 0.2260
1513.000000 0.2109 0.2009 0.1971 0.2010 0.2105
1518.000000 0.2208 0.2312 0.2416 0.2759 0.3115
1523.000000 0.3470 0.3826 0.4182 0.4538 0.4894
1528.000000 0.5227 0.5227 0.5246 0.5248 0.5246
1533.000000 0.5139 0.5011 0.4882 0.4754 0.4641
1538.000000 0.4600 0.4559 0.4523 0.4487 0.4237
1543.000000 0.3904 0.3570 0.3237 0.2643 0.2567
1548.000000 0.2500 0.2463 0.2440 0.2434 0.2428
1553.000000 0.2428 0.2398 0.2448 0.2470 0.2657
1558.000000 0.3247 0.3837 0.4426 0.5016 0.5606
1563.000000 0.6010 0.6180 0.6234 0.6255 0.6265
1568.000000 0.6255 0.6246 0.6165 0.6049 0.5933
1573.000000 0.5817 0.5701 0.5506 0.5079 0.4652
1578.000000 0.4225 0.3798 0.3371 0.3125 0.3127
1583.000000 0.3104 0.3514 0.4058 0.4602 0.5078
1588.000000 0.5098 0.5083 0.5078 0.5050 0.5006
1593.000000 0.4905 0.4817 0.4708 0.4495 0.4363
1598.000000 0.3406 0.1270 0.0752 0.0649 0.0623
1603.000000 0.0612 0.0614 0.0612 0.0633 0.0654
1608.000000 0.0684 0.0719 0.0780 0.1041 0.1678
1613.000000 0.2315 0.2952 0.3589 0.4604 0.4701
1618.000000 0.4857 0.5091 0.5638 0.5784 0.5903
1623.000000 0.6165 0.6577 0.6722 0.7184 0.7397
1628.000000 0.7565 0.7668 0.7778 0.7856 0.7919
1633.000000 0.7972 0.8021 0.8064 0.8107 0.8129
1638.000000 0.8151 0.8173 0.8190 0.8206 0.8222
1643.000000 0.8238 0.8254 0.8268 0.8282 0.8298
1648.000000 0.8313 0.8329 0.8344 0.8354 0.8364
1653.000000 0.8374 0.8384 0.8395 0.8406 0.8417
1658.000000 0.8429 0.8440 0.8452 0.8465 0.8478
1663.000000 0.8490 0.8503 0.8518 0.8536 0.8553
1668.000000 0.8572 0.8590 0.8609 0.8628 0.8647
1673.000000 0.8666 0.8687 0.8707 0.8725 0.8742
1678.000000 0.8751 0.8750 0.8749 0.8746 0.8741
1683.000000 0.8737 0.8733 0.8729 0.8727 0.8729
1688.000000 0.8731 0.8733 0.8735 0.8737 0.8739
1693.000000 0.8745 0.8752 0.8759 0.8765 0.8772
1698.000000 0.8779 0.8786 0.8793 0.8799 0.8806
1703.000000 0.8813 0.8817 0.8822 0.8826 0.8831
1708.000000 0.8836 0.8840 0.8896 0.8853 0.8860
1713.000000 0.8863 0.8865 0.8868 0.8870 0.8872
1718.000000 0.8874 0.8876 0.8878 0.8878 0.8877
1723.000000 0.8876 0.8876 0.8875 0.8874 0.8873
1728.000000 0.8870 0.8868 0.8865 0.8863 0.8860
1733.000000 0.8858 0.8855 0.8853 0.8846 0.8838
1738.000000 0.8831 0.8823 0.8816 0.8808 0.8794
1743.000000 0.8781 0.8768 0.8755 0.8742 0.8726
1748.000000 0.8709 0.8693 0.8677 0.8661 0.8645
1753.000000 0.8629 0.8613 0.8598 0.8582 0.8566
1758.000000 0.8551 0.8534 0.8513 0.8506 0.8506
1763.000000 0.8502 0.8510 0.8510 0.8514 0.8519
1768.000000 0.8528 0.8538 0.8548 0.8558 0.8569
1773.000000 0.8581 0.8592 0.8604 0.8616 0.8630
1778.000000 0.8645 0.8660 0.8676 0.8693 0.8710
1783.000000 0.8726 0.8744 0.8762 0.8779 0.8797
1788.000000 0.8812 0.8823 0.8834 0.8844 0.8853
1793.000000 0.8860 0.8867 0.8871 0.8873 0.8875
1798.000000 0.8876 0.8878 0.8879 0.8879 0.8880
1803.000000 0.8880 0.8880 0.8881 0.8879 0.8877
1808.000000 0.8875 0.8872 0.8870 0.8868 0.8866
1813.000000 0.8865 0.8864 0.8863 0.8862 0.8861
1818.000000 0.8863 0.8867 0.8870 0.8873 0.8878
1823.000000 0.8886 0.8897 0.8909 0.8921 0.8928
1828.000000 0.8933 0.8936 0.8939 0.8941 0.8943
1833.000000 0.8944 0.8945 0.8946 0.8948 0.8948
1838.000000 0.8948 0.8947 0.8947 0.8947 0.8947
1843.000000 0.8947 0.8947 0.8947 0.8947 0.8947
1848.000000 0.8947 0.8947 0.8947 0.8947 0.8947
1853.000000 0.8948 0.8948 0.8948 0.8948 0.8947
1858.000000 0.8947 0.8947 0.8947 0.8947 0.8946
1863.000000 0.8945 0.8943 0.8942 0.8940 0.8938
1868.000000 0.8937 0.8935 0.8933 0.8931 0.8925
1873.000000 0.8919 0.8913 0.8907 0.8901 0.8895
1878.000000 0.8889 0.8883 0.8878 0.8871 0.8862
1883.000000 0.8852 0.8843 0.8834 0.8827 0.8820
1888.000000 0.8814 0.8807 0.8801 0.8794 0.8791
1893.000000 0.8789 0.8786 0.8784 0.8782 0.8780
1898.000000 0.8778 0.8777 0.8775 0.8773 0.8772
1903.000000 0.8770 0.8770 0.8773 0.8776 0.8778
1908.000000 0.8781 0.8784 0.8787 0.8790 0.8794
1913.000000 0.8798 0.8802 0.8807 0.8811 0.8815
1918.000000 0.8820 0.8824 0.8828 0.8833 0.8838
1923.000000 0.8843 0.8849 0.8854 0.8859 0.8864
1928.000000 0.8869 0.8875 0.8880 0.8885 0.8890
1933.000000 0.8895 0.8900 0.8907 0.8916 0.8924
1938.000000 0.8932 0.8941 0.8949 0.8954 0.8956
1943.000000 0.8958 0.8960 0.8962 0.8963 0.8965
1948.000000 0.8966 0.8964 0.8962 0.8960 0.8958
1953.000000 0.8956 0.8954 0.8952 0.8951 0.8949
1958.000000 0.8947 0.8946 0.8944 0.8942 0.8941
1963.000000 0.8939 0.8937 0.8935 0.8932 0.8930
1968.000000 0.8928 0.8925 0.8923 0.8921 0.8918
1973.000000 0.8916 0.8914 0.8911 0.8909 0.8907
1978.000000 0.8904 0.8902 0.8900 0.8899 0.8897
1983.000000 0.8896 0.8895 0.8893 0.8892 0.8891
1988.000000 0.8889 0.8888 0.8887 0.8885 0.8884
1993.000000 0.8883 0.8881 0.8880 0.8876 0.8868
1998.000000 0.8860 0.8852 0.8844 0.8836 0.8828
2003.000000 0.8820 0.8814 0.8811 0.8808 0.8805
2008.000000 0.8802 0.8800 0.8801 0.8802 0.8803
2013.000000 0.8804 0.8805 0.8805 0.8805 0.8805
2018.000000 0.8805 0.8805 0.8805 0.8805 0.8805
2023.000000 0.8805 0.8805 0.8806 0.8806 0.8806
2028.000000 0.8807 0.8807 0.8807 0.8808 0.8808
2033.000000 0.8808 0.8809 0.8813 0.8818 0.8822
2038.000000 0.8826 0.8831 0.8835 0.8838 0.8840
2043.000000 0.8842 0.8844 0.8847 0.8849 0.8851
2048.000000 0.8853 0.8854 0.8856 0.8857 0.8858
2053.000000 0.8860 0.8861 0.8862 0.8863 0.8864
2058.000000 0.8864 0.8865 0.8866 0.8867 0.8867
2063.000000 0.8868 0.8870 0.8871 0.8873 0.8874
2068.000000 0.8875 0.8877 0.8881 0.8886 0.8892
2073.000000 0.8897 0.8901 0.8905 0.8909 0.8911
2078.000000 0.8911 0.8911 0.8911 0.8911 0.8911
2083.000000 0.8911 0.8910 0.8911 0.8912 0.8912
2088.000000 0.8913 0.8914 0.8914 0.8915 0.8916
2093.000000 0.8916 0.8917 0.8918 0.8918 0.8919
2098.000000 0.8919 0.8919 0.8920 0.8920 0.8920
2103.000000 0.8921 0.8921 0.8921 0.8922 0.8922
2108.000000 0.8923 0.8923 0.8923 0.8924 0.8924
2113.000000 0.8924 0.8925 0.8925 0.8925 0.8927
2118.000000 0.8928 0.8930 0.8931 0.8933 0.8934
2123.000000 0.8936 0.8937 0.8939 0.8940 0.8942
2128.000000 0.8943 0.8945 0.8946 0.8948 0.8950
2133.000000 0.8953 0.8955 0.8958 0.8961 0.8963
2138.000000 0.8966 0.8968 0.8971 0.8973 0.8975
2143.000000 0.8977 0.8979 0.8980 0.8980 0.8978
2148.000000 0.8976 0.8973 0.8969 0.8964 0.8958
2153.000000 0.8953 0.8947 0.8942 0.8937 0.8932
2158.000000 0.8927 0.8923 0.8924 0.8924 0.8924
2163.000000 0.8926 0.8927 0.8928 0.8933 0.8940
2168.000000 0.8947 0.8955 0.8964 0.8972 0.8978
2173.000000 0.8982 0.8986 0.8988 0.8986 0.8984
2178.000000 0.8982 0.8980 0.8978 0.8977 0.8976
2183.000000 0.8975 0.8974 0.8973 0.8972 0.8971
2188.000000 0.8970 0.8969 0.8968 0.8966 0.8965
2193.000000 0.8964 0.8962 0.8961 0.8959 0.8958
2198.000000 0.8957 0.8955 0.8954 0.8953 0.8951
2203.000000 0.8950 0.8949 0.8948 0.8948 0.8947
2208.000000 0.8947 0.8946 0.8945 0.8945 0.8944
2213.000000 0.8943 0.8943 0.8942 0.8941 0.8941
2218.000000 0.8940 0.8940 0.8939 0.8938 0.8939
2223.000000 0.8939 0.8939 0.8939 0.8939 0.8939
2228.000000 0.8939 0.8940 0.8940 0.8940 0.8940
2233.000000 0.8940 0.8940 0.8940 0.8940 0.8941
2238.000000 0.8941 0.8941 0.8941 0.8941 0.8941
2243.000000 0.8942 0.8942 0.8942 0.8942 0.8942
2248.000000 0.8942 0.8942 0.8943 0.8943 0.8943
2253.000000 0.8943 0.8943 0.8943 0.8943 0.8943
2258.000000 0.8942 0.8942 0.8942 0.8942 0.8941
2263.000000 0.8941 0.8941 0.8941 0.8941 0.8940
2268.000000 0.8940 0.8940 0.8940 0.8939 0.8939
2273.000000 0.8938 0.8937 0.8936 0.8935 0.8934
2278.000000 0.8933 0.8932 0.8931 0.8929 0.8928
2283.000000 0.8927 0.8926 0.8925 0.8924 0.8924
2288.000000 0.8924 0.8924 0.8925 0.8925 0.8925
2293.000000 0.8926 0.8926 0.8926 0.8927 0.8927
2298.000000 0.8927 0.8926 0.8924 0.8923 0.8921
2303.000000 0.8919 0.8917 0.8915 0.8907 0.8899
2308.000000 0.8891 0.8883 0.8875 0.8867 0.8860
2313.000000 0.8849 0.8838 0.8827 0.8816 0.8810
2318.000000 0.8805 0.8799 0.8794 0.8788 0.8786
2323.000000 0.8788 0.8790 0.8792 0.8793 0.8795
2328.000000 0.8797 0.8800 0.8802 0.8806 0.8809
2333.000000 0.8813 0.8817 0.8821 0.8824 0.8828
2338.000000 0.8831 0.8834 0.8837 0.8840 0.8843
2343.000000 0.8846 0.8849 0.8851 0.8853 0.8855
2348.000000 0.8857 0.8858 0.8860 0.8862 0.8863
2353.000000 0.8864 0.8865 0.8865 0.8866 0.8867
2358.000000 0.8868 0.8868 0.8869 0.8869 0.8869
2363.000000 0.8868 0.8868 0.8868 0.8868 0.8867
2368.000000 0.8867 0.8867 0.8866 0.8866 0.8867
2373.000000 0.8867 0.8867 0.8868 0.8868 0.8868
2378.000000 0.8869 0.8869 0.8869 0.8867 0.8866
2383.000000 0.8865 0.8864 0.8863 0.8862 0.8860
2388.000000 0.8859 0.8857 0.8853 0.8849 0.8845
2393.000000 0.8841 0.8837 0.8833 0.8829 0.8826
2398.000000 0.8822 0.8818 0.8814 0.8810 0.8806
2403.000000 0.8802 0.8798 0.8794 0.8790 0.8786
2408.000000 0.8782 0.8778 0.8774 0.8770 0.8764
2413.000000 0.8758 0.8755 0.8753 0.8750 0.8747
2418.000000 0.8743 0.8739 0.8735 0.8732 0.8728
2423.000000 0.8725 0.8721 0.8717 0.8716 0.8714
2428.000000 0.8712 0.8710 0.8708 0.8706 0.8703
2433.000000 0.8701 0.8701 0.8703 0.8706 0.8708
2438.000000 0.8711 0.8714 0.8717 0.8721 0.8726
2443.000000 0.8731 0.8735 0.8740 0.8745 0.8749
2448.000000 0.8753 0.8756 0.8758 0.8757 0.8757
2453.000000 0.8756 0.8756 0.8754 0.8752 0.8750
2458.000000 0.8748 0.8746 0.8744 0.8742 0.8740
2463.000000 0.8739 0.8734 0.8729 0.8723 0.8718
2468.000000 0.8713 0.8708 0.8702 0.8696 0.8687
2473.000000 0.8677 0.8668 0.8659 0.8650 0.8634
2478.000000 0.8619 0.8605 0.8598 0.8591 0.8591
2483.000000 0.8598 0.8606 0.8621 0.8635 0.8648
2488.000000 0.8664 0.8685 0.8703 0.8721 0.8734
2493.000000 0.8742 0.8741 0.8741 0.8740 0.8739
2498.000000 0.8736 0.8734 0.8731 0.8728 0.8724
2503.000000 0.8720 0.8716 0.8712 0.8708 0.8705
2508.000000 0.8703 0.8702 0.8701 0.8700 0.8698
2513.000000 0.8697 0.8696 0.8696 0.8695 0.8695
2518.000000 0.8694 0.8694 0.8693 0.8693 0.8696
2523.000000 0.8699 0.8702 0.8705 0.8708 0.8711
2528.000000 0.8715 0.8718 0.8723 0.8728 0.8732
2533.000000 0.8737 0.8739 0.8739 0.8740 0.8740
2538.000000 0.8740 0.8740 0.8738 0.8736 0.8733
2543.000000 0.8723 0.8713 0.8703 0.8693 0.8684
2548.000000 0.8674 0.8664 0.8654 0.8645 0.8635
2553.000000 0.8625 0.8616 0.8606 0.8595 0.8585
2558.000000 0.8575 0.8565 0.8555 0.8544 0.8535
2563.000000 0.8525 0.8516 0.8507 0.8503 0.8505
2568.000000 0.8506 0.8510 0.8515 0.8520 0.8525
2573.000000 0.8530 0.8535 0.8539 0.8543 0.8548
2578.000000 0.8552 0.8557 0.8561 0.8565 0.8568
2583.000000 0.8572 0.8576 0.8579 0.8583 0.8588
2588.000000 0.8593 0.8598 0.8603 0.8608 0.8613
2593.000000 0.8618 0.8623 0.8628 0.8632 0.8637
2598.000000 0.8642 0.8647 0.8651 0.8653 0.8655
2603.000000 0.8657 0.8659 0.8661 0.8663 0.8665
2608.000000 0.8666 0.8669 0.8673 0.8677 0.8681
2613.000000 0.8685 0.8689 0.8693 0.8695 0.8694
2618.000000 0.8694 0.8694 0.8693 0.8693 0.8692
2623.000000 0.8692 0.8691 0.8690 0.8689 0.8688
2628.000000 0.8686 0.8684 0.8682 0.8680 0.8678
2633.000000 0.8676 0.8674 0.8672 0.8670 0.8668
2638.000000 0.8666 0.8664 0.8662 0.8660 0.8659
2643.000000 0.8657 0.8655 0.8653 0.8652 0.8650
2648.000000 0.8648 0.8647 0.8646 0.8644 0.8643
2653.000000 0.8642 0.8641 0.8640 0.8639 0.8638
2658.000000 0.8637 0.8636 0.8635 0.8634 0.8634
2663.000000 0.8634 0.8634 0.8634 0.8634 0.8635
2668.000000 0.8635 0.8635 0.8635 0.8635 0.8635
2673.000000 0.8635 0.8636 0.8637 0.8639 0.8640
2678.000000 0.8641 0.8643 0.8644 0.8643 0.8640
2683.000000 0.8636 0.8635 0.8634 0.8633 0.8633
2688.000000 0.8632 0.8632 0.8631 0.8633 0.8637
2693.000000 0.8640 0.8644 0.8644 0.8640 0.8636
2698.000000 0.8631 0.8627 0.8623 0.8618 0.8612
2703.000000 0.8606 0.8599 0.8592 0.8586 0.8581
2708.000000 0.8576 0.8571 0.8566 0.8561 0.8558
2713.000000 0.8561 0.8563 0.8566 0.8569 0.8580
2718.000000 0.8594 0.8606 0.8612 0.8611 0.8608
2723.000000 0.8605 0.8603 0.8600 0.8597 0.8593
2728.000000 0.8590 0.8587 0.8584 0.8581 0.8577
2733.000000 0.8571 0.8565 0.8559 0.8553 0.8547
2738.000000 0.8541 0.8535 0.8529 0.8523 0.8517
2743.000000 0.8512 0.8505 0.8498 0.8490 0.8483
2748.000000 0.8475 0.8468 0.8461 0.8453 0.8446
2753.000000 0.8438 0.8435 0.8433 0.8431 0.8429
2758.000000 0.8427 0.8425 0.8423 0.8421 0.8419
2763.000000 0.8425 0.8431 0.8437 0.8444 0.8450
2768.000000 0.8454 0.8456 0.8458 0.8459 0.8456
2773.000000 0.8453 0.8450 0.8446 0.8443 0.8439
2778.000000 0.8436 0.8430 0.8425 0.8419 0.8413
2783.000000 0.8408 0.8402 0.8397 0.8391 0.8386
2788.000000 0.8380 0.8375 0.8369 0.8364 0.8358
2793.000000 0.8351 0.8344 0.8337 0.8330 0.8323
2798.000000 0.8316 0.8310 0.8303 0.8299 0.8299
2803.000000 0.8298 0.8298 0.8298 0.8298 0.8298
2808.000000 0.8299 0.8299 0.8299 0.8300 0.8300
2813.000000 0.8293 0.8285 0.8278 0.8267 0.8251
2818.000000 0.8235 0.8218 0.8202 0.8186 0.8168
2823.000000 0.8150 0.8133 0.8115 0.8097 0.8080
2828.000000 0.8064 0.8047 0.8030 0.8012 0.7992
2833.000000 0.7971 0.7951 0.7930 0.7898 0.7864
2838.000000 0.7829 0.7788 0.7742 0.7696 0.7657
2843.000000 0.7631 0.7606 0.7581 0.7557 0.7543
2848.000000 0.7530 0.7517 0.7498 0.7477 0.7454
2853.000000 0.7407 0.7356 0.7298 0.7226 0.7145
2858.000000 0.7064 0.6984 0.6904 0.6809 0.6632
2863.000000 0.6454 0.6277 0.6099 0.5922 0.5744
2868.000000 0.5593 0.5524 0.5467 0.5417 0.5385
2873.000000 0.5298 0.5407 0.5463 0.5692 0.5890
2878.000000 0.6089 0.6287 0.6486 0.6673 0.6765
2883.000000 0.6855 0.6924 0.6931 0.6939 0.6932
2888.000000 0.6927 0.6909 0.6887 0.6852 0.6821
2893.000000 0.6790 0.6761 0.6731 0.6702 0.6672
2898.000000 0.6628 0.6585 0.6552 0.6519 0.6485
2903.000000 0.6475 0.6469 0.6462 0.6456 0.6449
2908.000000 0.6442 0.6419 0.6391 0.6357 0.6315
2913.000000 0.6243 0.6186 0.6134 0.6048 0.5963
2918.000000 0.5878 0.5792 0.5707 0.5622 0.5536
2923.000000 0.5451 0.5366 0.5280 0.5208 0.5120
2928.000000 0.5031 0.4931 0.4819 0.4774 0.4746
2933.000000 0.4740 0.4749 0.4758 0.4770 0.4786
2938.000000 0.4799 0.4806 0.4811 0.4809 0.4807
2943.000000 0.4804 0.4801 0.4794 0.4777 0.4750
2948.000000 0.4706 0.4655 0.4560 0.4423 0.4307
2953.000000 0.4218 0.4098 0.4067 0.4051 0.4050
2958.000000 0.4053 0.4059 0.3983 0.4114 0.4258
2963.000000 0.4425 0.4593 0.4760 0.4928 0.5096
2968.000000 0.5263 0.5431 0.5598 0.5766 0.5933
2973.000000 0.6101 0.6268 0.6436 0.6604 0.6775
2978.000000 0.6830 0.6885 0.6965 0.7052 0.7103
2983.000000 0.7153 0.7187 0.7217 0.7228 0.7232
2988.000000 0.7237 0.7226 0.7222 0.7217 0.7209
2993.000000 0.7190 0.7165 0.7140 0.7098 0.7056
2998.000000 0.7000 0.6943 0.6834 0.6748 0.6694
3003.000000 0.6640 0.6567 0.6506 0.6508 0.6468
3008.000000 0.6516 0.6525 0.6537 0.6552 0.6566
3013.000000 0.6575 0.6583 0.6584 0.6608 0.6587
3018.000000 0.6581 0.6572 0.6563 0.6557 0.6551
3023.000000 0.6549 0.6541 0.6560 0.6565 0.6572
3028.000000 0.6590 0.6607 0.6637 0.6679 0.6721
3033.000000 0.6763 0.6810 0.6861 0.6911 0.6962
3038.000000 0.7009 0.7053 0.7098 0.7142 0.7186
3043.000000 0.7231 0.7275 0.7319 0.7364 0.7402
3048.000000 0.7435 0.7469 0.7503 0.7537 0.7559
3053.000000 0.7580 0.7601 0.7622 0.7643 0.7663
3058.000000 0.7678 0.7694 0.7710 0.7725 0.7738
3063.000000 0.7750 0.7762 0.7775 0.7783 0.7790
3068.000000 0.7796 0.7803 0.7810 0.7816 0.7819
3073.000000 0.7819 0.7819 0.7819 0.7819 0.7818
3078.000000 0.7819 0.7821 0.7823 0.7826 0.7833
3083.000000 0.7843 0.7853 0.7862 0.7874 0.7881
3088.000000 0.7891 0.7892 0.7891 0.7891 0.7890
3093.000000 0.7890 0.7886 0.7881 0.7877 0.7872
3098.000000 0.7865 0.7858 0.7850 0.7843 0.7835
3103.000000 0.7828 0.7821 0.7814 0.7807 0.7799
3108.000000 0.7792 0.7784 0.7777 0.7769 0.7761
3113.000000 0.7748 0.7734 0.7721 0.7705 0.7681
3118.000000 0.7657 0.7633 0.7600 0.7565 0.7530
3123.000000 0.7495 0.7452 0.7407 0.7362 0.7317
3128.000000 0.7271 0.7226 0.7180 0.7134 0.7089
3133.000000 0.7043 0.6997 0.6951 0.6906 0.6863
3138.000000 0.6821 0.6779 0.6740 0.6708 0.6675
3143.000000 0.6646 0.6629 0.6628 0.6628 0.6616
3148.000000 0.6637 0.6663 0.6756 0.6871 0.6987
3153.000000 0.7103 0.7218 0.7334 0.7455 0.7496
3158.000000 0.7534 0.7569 0.7601 0.7632 0.7707
3163.000000 0.7780 0.7812 0.7845 0.7876 0.7899
3168.000000 0.7923 0.7947 0.7970 0.7987 0.8000
3173.000000 0.8014 0.8027 0.8041 0.8054 0.8067
3178.000000 0.8077 0.8087 0.8098 0.8108 0.8118
3183.000000 0.8129 0.8139 0.8149 0.8160 0.8170
3188.000000 0.8178 0.8186 0.8194 0.8202 0.8211
3193.000000 0.8219 0.8227 0.8231 0.8236 0.8240
3198.000000 0.8245 0.8249 0.8254 0.8258 0.8263
3203.000000 0.8267 0.8272 0.8276 0.8278 0.8280
3208.000000 0.8282 0.8284 0.8286 0.8288 0.8290
3213.000000 0.8291 0.8293 0.8295 0.8297 0.8299
3218.000000 0.8301 0.8303 0.8305 0.8308 0.8315
3223.000000 0.8322 0.8330 0.8337 0.8344 0.8351
3228.000000 0.8358 0.8366 0.8373 0.8380 0.8387
3233.000000 0.8396 0.8406 0.8415 0.8425 0.8434
3238.000000 0.8443 0.8453 0.8462 0.8473 0.8484
3243.000000 0.8495 0.8507 0.8518 0.8528 0.8535
3248.000000 0.8542 0.8548 0.8552 0.8557 0.8561
3253.000000 0.8565 0.8569 0.8573 0.8577 0.8581
3258.000000 0.8585 0.8588 0.8590 0.8593 0.8596
3263.000000 0.8598 0.8601 0.8603 0.8606 0.8609
3268.000000 0.8611 0.8613 0.8615 0.8617 0.8618
3273.000000 0.8619 0.8619 0.8619 0.8620 0.8620
3278.000000 0.8620 0.8621 0.8621 0.8621 0.8622
3283.000000 0.8622 0.8623 0.8623 0.8623 0.8624
3288.000000 0.8623 0.8623 0.8622 0.8622 0.8622
3293.000000 0.8621 0.8621 0.8621 0.8620 0.8620
3298.000000 0.8620 0.8620 0.8620 0.8619 0.8619
3303.000000 0.8619 0.8619 0.8619 0.8619 0.8619
3308.000000 0.8619 0.8619 0.8619 0.8618 0.8619
3313.000000 0.8620 0.8620 0.8621 0.8622 0.8623
3318.000000 0.8624 0.8625 0.8626 0.8627 0.8628
3323.000000 0.8628 0.8629 0.8630 0.8631 0.8632
3328.000000 0.8633 0.8634 0.8635 0.8635 0.8636
3333.000000 0.8636 0.8637 0.8637 0.8638 0.8638
3338.000000 0.8638 0.8639 0.8639 0.8639 0.8639
3343.000000 0.8638 0.8637 0.8637 0.8636 0.8635
3348.000000 0.8634 0.8634 0.8633 0.8632 0.8631
3353.000000 0.8631 0.8630 0.8629 0.8628 0.8628
3358.000000 0.8627 0.8626 0.8625 0.8625 0.8624
3363.000000 0.8623 0.8623 0.8622 0.8621 0.8621
3368.000000 0.8620 0.8619 0.8619 0.8618 0.8618
3373.000000 0.8617 0.8616 0.8616 0.8615 0.8614
3378.000000 0.8614 0.8613 0.8613 0.8612 0.8611
3383.000000 0.8611 0.8610 0.8609 0.8609 0.8608
3388.000000 0.8608 0.8607 0.8606 0.8606 0.8605
3393.000000 0.8605 0.8604 0.8604 0.8603 0.8602
3398.000000 0.8602 0.8601 0.8601 0.8600 0.8600
3403.000000 0.8599 0.8599 0.8598 0.8597 0.8597
3408.000000 0.8596 0.8596 0.8595 0.8595 0.8594
3413.000000 0.8593 0.8593 0.8592 0.8592 0.8591
3418.000000 0.8591 0.8590 0.8590 0.8590 0.8589
3423.000000 0.8589 0.8589 0.8589 0.8588 0.8588
3428.000000 0.8588 0.8588 0.8587 0.8587 0.8587
3433.000000 0.8587 0.8587 0.8586 0.8586 0.8586
3438.000000 0.8586 0.8585 0.8585 0.8585 0.8585
3443.000000 0.8584 0.8584 0.8584 0.8584 0.8583
3448.000000 0.8583 0.8583 0.8583 0.8582 0.8582
3453.000000 0.8582 0.8582 0.8583 0.8584 0.8585
3458.000000 0.8586 0.8587 0.8588 0.8589 0.8590
3463.000000 0.8590 0.8591 0.8592 0.8593 0.8594
3468.000000 0.8595 0.8596 0.8597 0.8598 0.8599
3473.000000 0.8600 0.8601 0.8602 0.8603 0.8604
3478.000000 0.8604 0.8605 0.8605 0.8605 0.8606
3483.000000 0.8606 0.8607 0.8607 0.8607 0.8608
3488.000000 0.8608 0.8608 0.8609 0.8609 0.8609
3493.000000 0.8610 0.8610 0.8610 0.8611 0.8611
3498.000000 0.8612 0.8612 0.8614 0.8615 0.8617
3503.000000 0.8618 0.8619 0.8621 0.8622 0.8623
3508.000000 0.8625 0.8626 0.8628 0.8629 0.8630
3513.000000 0.8632 0.8633 0.8634 0.8635 0.8635
3518.000000 0.8635 0.8635 0.8634 0.8634 0.8634
3523.000000 0.8634 0.8634 0.8634 0.8633 0.8633
3528.000000 0.8633 0.8633 0.8633 0.8632 0.8632
3533.000000 0.8632 0.8632 0.8632 0.8630 0.8629
3538.000000 0.8628 0.8627 0.8625 0.8624 0.8623
3543.000000 0.8622 0.8620 0.8619 0.8618 0.8616
3548.000000 0.8615 0.8614 0.8613 0.8611 0.8610
3553.000000 0.8605 0.8599 0.8594 0.8588 0.8582
3558.000000 0.8576 0.8570 0.8564 0.8559 0.8553
3563.000000 0.8547 0.8544 0.8541 0.8538 0.8534
3568.000000 0.8531 0.8528 0.8525 0.8522 0.8520
3573.000000 0.8519 0.8518 0.8510 0.8489 0.8468
3578.000000 0.8448 0.8427 0.8407 0.8399 0.8397
3583.000000 0.8417 0.8440 0.8463 0.8486 0.8511
3588.000000 0.8536 0.8544 0.8552 0.8559 0.8565
3593.000000 0.8564 0.8564 0.8564 0.8564 0.8563
3598.000000 0.8563 0.8561 0.8559 0.8557 0.8556
3603.000000 0.8554 0.8552 0.8550 0.8549 0.8547
3608.000000 0.8547 0.8549 0.8552 0.8554 0.8556
3613.000000 0.8559 0.8561 0.8563 0.8566 0.8565
3618.000000 0.8563 0.8561 0.8559 0.8556 0.8552
3623.000000 0.8549 0.8546 0.8542 0.8539 0.8535
3628.000000 0.8532 0.8531 0.8529 0.8528 0.8526
3633.000000 0.8525 0.8523 0.8522 0.8520 0.8519
3638.000000 0.8517 0.8516 0.8514 0.8513 0.8511
3643.000000 0.8510 0.8509 0.8509 0.8509 0.8509
3648.000000 0.8508 0.8508 0.8508 0.8508 0.8507
3653.000000 0.8507 0.8507 0.8507 0.8506 0.8506
3658.000000 0.8506 0.8506 0.8505 0.8505 0.8505
3663.000000 0.8505 0.8504 0.8504 0.8504 0.8504
3668.000000 0.8505 0.8506 0.8507 0.8508 0.8509
3673.000000 0.8510 0.8511 0.8512 0.8513 0.8514
3678.000000 0.8515 0.8515 0.8517 0.8518 0.8519
3683.000000 0.8521 0.8522 0.8523 0.8524 0.8526
3688.000000 0.8527 0.8528 0.8529 0.8530 0.8530
3693.000000 0.8530 0.8530 0.8530 0.8530 0.8530
3698.000000 0.8530 0.8530 0.8530 0.8530 0.8530
3703.000000 0.8530 0.8530 0.8530 0.8530 0.8530
3708.000000 0.8530 0.8530 0.8530 0.8530 0.8530
3713.000000 0.8530 0.8531 0.8531 0.8531 0.8531
3718.000000 0.8532 0.8532 0.8532 0.8532 0.8532
3723.000000 0.8533 0.8533 0.8533 0.8533 0.8533
3728.000000 0.8534 0.8534 0.8534 0.8534 0.8535
3733.000000 0.8535 0.8535 0.8535 0.8535 0.8535
3738.000000 0.8535 0.8535 0.8535 0.8535 0.8535
3743.000000 0.8535 0.8535 0.8534 0.8534 0.8534
3748.000000 0.8534 0.8534 0.8534 0.8534 0.8534
3753.000000 0.8534 0.8534 0.8534 0.8534 0.8534
3758.000000 0.8534 0.8534 0.8534 0.8533 0.8531
3763.000000 0.8530 0.8528 0.8526 0.8525 0.8523
3768.000000 0.8522 0.8520 0.8518 0.8517 0.8515
3773.000000 0.8513 0.8512 0.8510 0.8509 0.8507
3778.000000 0.8505 0.8504 0.8502 0.8500 0.8499
3783.000000 0.8497 0.8496 0.8494 0.8492 0.8491
3788.000000 0.8489 0.8488 0.8488 0.8488 0.8487
3793.000000 0.8487 0.8487 0.8486 0.8486 0.8486
3798.000000 0.8486 0.8485 0.8485 0.8485 0.8485
3803.000000 0.8484 0.8484 0.8484 0.8484 0.8483
3808.000000 0.8483 0.8483 0.8483 0.8482 0.8482
3813.000000 0.8482 0.8482 0.8481 0.8481 0.8481
3818.000000 0.8480 0.8480 0.8479 0.8479 0.8478
3823.000000 0.8478 0.8477 0.8477 0.8476 0.8476
3828.000000 0.8475 0.8475 0.8474 0.8474 0.8473
3833.000000 0.8473 0.8472 0.8472 0.8471 0.8471
3838.000000 0.8470 0.8470 0.8469 0.8469 0.8468
3843.000000 0.8468 0.8467 0.8466 0.8466 0.8464
3848.000000 0.8463 0.8462 0.8461 0.8460 0.8459
3853.000000 0.8458 0.8457 0.8456 0.8455 0.8454
3858.000000 0.8453 0.8452 0.8451 0.8450 0.8449
3863.000000 0.8448 0.8447 0.8446 0.8445 0.8444
3868.000000 0.8443 0.8441 0.8440 0.8439 0.8438
3873.000000 0.8437 0.8436 0.8435 0.8434 0.8433
3878.000000 0.8432 0.8431 0.8430 0.8429 0.8428
3883.000000 0.8427 0.8427 0.8427 0.8426 0.8426
3888.000000 0.8426 0.8425 0.8425 0.8425 0.8425
3893.000000 0.8424 0.8424 0.8424 0.8423 0.8423
3898.000000 0.8423 0.8423 0.8422 0.8422 0.8422
3903.000000 0.8422 0.8421 0.8421 0.8421 0.8420
3908.000000 0.8420 0.8420 0.8420 0.8419 0.8419
3913.000000 0.8419 0.8418 0.8418 0.8417 0.8417
3918.000000 0.8416 0.8415 0.8415 0.8414 0.8413
3923.000000 0.8412 0.8412 0.8411 0.8410 0.8410
3928.000000 0.8409 0.8408 0.8407 0.8407 0.8406
3933.000000 0.8405 0.8405 0.8404 0.8457 0.8402
3938.000000 0.8402 0.8401 0.8400 0.8400 0.8399
3943.000000 0.8397 0.8396 0.8395 0.8394 0.8393
3948.000000 0.8391 0.8390 0.8389 0.8388 0.8387
3953.000000 0.8386 0.8384 0.8383 0.8382 0.8381
3958.000000 0.8380 0.8378 0.8377 0.8376 0.8375
3963.000000 0.8375 0.8374 0.8374 0.8374 0.8373
3968.000000 0.8373 0.8373 0.8372 0.8372 0.8371
3973.000000 0.8371 0.8371 0.8370 0.8370 0.8371
3978.000000 0.8372 0.8373 0.8374 0.8375 0.8376
3983.000000 0.8377 0.8378 0.8379 0.8380 0.8382
3988.000000 0.8383 0.8385 0.8387 0.8388 0.8390
3993.000000 0.8392 0.8393 0.8395 0.8397 0.8398
3998.000000 0.8400 0.8402 0.8403
##END=
