##TITLE=PICRIC ACID, CALCIUM SALT
##JCAMP-DX=4.24
##DATA TYPE=INFRARED SPECTRUM
##CLASS=COBLENTZ
##ORIGIN=TENNESSEE EASTMAN COMPANY, RESEARCH LABORATORIES
##OWNER=COBLENTZ SOCIETY
Collection (C) 2018 copyright by the U.S. Secretary of Commerce
on behalf of the United States of America. All rights reserved.
##DATE=Not specified, most likely prior to 1970
##MOLFORM=C12 H4 N6 O14 Ca
##SOURCE REFERENCE=COBLENTZ NO. 1783
##$NIST ID=B6001783
##$NIST SOURCE=COBLENTZ
##$NIST IMAGE=cob1783
##SPECTROMETER/DATA SYSTEM=Not specified, most likely a prism, grating, or hybrid spectrometer.
##STATE=SOLID (KBr PELLET)
##SAMPLING PROCEDURE=TRANSMISSION
##RESOLUTION=4
##DATA PROCESSING=DIGITIZED BY NIST FROM HARD COPY
##XUNITS=MICROMETERS
##YUNITS=TRANSMITTANCE
##XFACTOR=1.000000
##YFACTOR=1
##DELTAX=000.006829
##FIRSTX=2.191
##LASTX=15.85
##FIRSTY=0.401
##MAXX=15.85
##MINX=2.191
##MAXY=0.858
##MINY=0.025
##NPOINTS=2001
##XYDATA=(X++(Y..Y))
2.191000 0.4010 0.4060 0.4130 0.4150 0.4180
2.225163 0.4220 0.4230 0.4250 0.4290 0.4300
2.260000 0.4320 0.4340 0.4350 0.4350 0.4370
2.294163 0.4390 0.4390 0.4410 0.4410 0.4440
2.328000 0.4470 0.4490 0.4510 0.4520 0.4520
2.362163 0.4520 0.4540 0.4560 0.4590 0.4610
2.396000 0.4640 0.4660 0.4680 0.4680 0.4700
2.430163 0.4730 0.4780 0.4800 0.4820 0.4830
2.464000 0.4830 0.4830 0.4830 0.4870 0.4870
2.498163 0.4880 0.4920 0.4950 0.4950 0.4950
2.533000 0.4970 0.4970 0.4990 0.5000 0.5000
2.567163 0.5020 0.5020 0.5020 0.5020 0.5040
2.601000 0.5050 0.5050 0.5090 0.5090 0.5110
2.635163 0.5120 0.5120 0.5140 0.5160 0.5160
2.669000 0.5160 0.5160 0.5160 0.5120 0.5000
2.703163 0.4750 0.4470 0.4170 0.3700 0.3480
2.738000 0.3050 0.2940 0.2730 0.2490 0.2370
2.772163 0.2300 0.2170 0.2030 0.1960 0.1810
2.806000 0.1720 0.1650 0.1620 0.1550 0.1520
2.840163 0.1430 0.1350 0.1330 0.1280 0.1230
2.874000 0.1210 0.1190 0.1160 0.1160 0.1160
2.908163 0.1170 0.1170 0.1210 0.1260 0.1350
2.942000 0.1430 0.1480 0.1570 0.1740 0.1770
2.976163 0.1860 0.2000 0.2170 0.2290 0.2460
3.011000 0.2580 0.2660 0.2800 0.2850 0.2950
3.045163 0.3040 0.3160 0.3240 0.3350 0.3400
3.079000 0.3500 0.3530 0.3650 0.3770 0.3890
3.113163 0.3980 0.4080 0.4220 0.4350 0.4490
3.147000 0.4590 0.4750 0.4820 0.4970 0.5000
3.181163 0.5040 0.5040 0.5040 0.4830 0.4730
3.216000 0.4610 0.4170 0.4170 0.4220 0.4610
3.250163 0.5090 0.5380 0.5580 0.5690 0.5790
3.284000 0.5880 0.5980 0.6030 0.6050 0.6110
3.318163 0.6150 0.6170 0.6170 0.6150 0.6150
3.352000 0.6130 0.6110 0.6010 0.5910 0.5840
3.386163 0.5810 0.5840 0.6000 0.6060 0.6150
3.420000 0.6230 0.6290 0.6320 0.6350 0.6370
3.454163 0.6350 0.6340 0.6340 0.6320 0.6340
3.489000 0.6410 0.6440 0.6470 0.6510 0.6520
3.523163 0.6540 0.6540 0.6630 0.6680 0.6750
3.557000 0.6820 0.6820 0.6830 0.6850 0.6850
3.591163 0.6870 0.6880 0.6920 0.6920 0.6940
3.625000 0.6990 0.7000 0.7000 0.7000 0.7000
3.659163 0.7000 0.7040 0.7050 0.7110 0.7120
3.694000 0.7160 0.7160 0.7160 0.7160 0.7170
3.728163 0.7170 0.7170 0.7190 0.7190 0.7210
3.762000 0.7230 0.7230 0.7240 0.7240 0.7260
3.796163 0.7260 0.7280 0.7280 0.7290 0.7310
3.830000 0.7310 0.7310 0.7310 0.7330 0.7330
3.864163 0.7330 0.7330 0.7350 0.7350 0.7350
3.899000 0.7360 0.7380 0.7410 0.7410 0.7410
3.933163 0.7410 0.7410 0.7410 0.7400 0.7360
3.967000 0.7360 0.7360 0.7360 0.7360 0.7380
4.001163 0.7380 0.7410 0.7410 0.7400 0.7360
4.035000 0.7330 0.7330 0.7330 0.7360 0.7410
4.069163 0.7430 0.7450 0.7450 0.7470 0.7480
4.103000 0.7520 0.7520 0.7530 0.7520 0.7520
4.137163 0.7520 0.7520 0.7500 0.7500 0.7520
4.172000 0.7530 0.7580 0.7640 0.7640 0.7670
4.206163 0.7690 0.7690 0.7700 0.7700 0.7720
4.240000 0.7720 0.7740 0.7740 0.7700 0.7670
4.274163 0.7620 0.7600 0.7600 0.7600 0.7600
4.308000 0.7600 0.7600 0.7600 0.7620 0.7620
4.342163 0.7650 0.7670 0.7690 0.7700 0.7720
4.377000 0.7720 0.7720 0.7720 0.7720 0.7720
4.411163 0.7720 0.7700 0.7700 0.7700 0.7650
4.445000 0.7640 0.7640 0.7650 0.7670 0.7690
4.479163 0.7760 0.7760 0.7770 0.7770 0.7770
4.513000 0.7790 0.7810 0.7810 0.7810 0.7810
4.547163 0.7820 0.7860 0.7860 0.7860 0.7880
4.581000 0.7880 0.7880 0.7890 0.7890 0.7890
4.615163 0.7890 0.7910 0.7910 0.7910 0.7910
4.650000 0.7910 0.7910 0.7910 0.7910 0.7910
4.684163 0.7910 0.7910 0.7910 0.7910 0.7910
4.718000 0.7910 0.7910 0.7930 0.7930 0.7930
4.752163 0.7940 0.7940 0.7940 0.7940 0.7960
4.786000 0.7960 0.7960 0.7980 0.7980 0.7980
4.820163 0.7980 0.7980 0.7980 0.7980 0.7980
4.855000 0.7980 0.7980 0.7980 0.8000 0.8000
4.889163 0.7980 0.7980 0.8000 0.8010 0.8010
4.923000 0.8030 0.8030 0.8050 0.8050 0.8050
4.957163 0.8050 0.8050 0.8050 0.8080 0.8080
4.991000 0.8080 0.8080 0.8060 0.8050 0.8050
5.025163 0.8030 0.8050 0.8050 0.8080 0.8100
5.060000 0.8100 0.8130 0.8150 0.8150 0.8170
5.094163 0.8170 0.8180 0.8180 0.8200 0.8200
5.128000 0.8200 0.8200 0.8200 0.8200 0.8220
5.162163 0.8220 0.8230 0.8230 0.8250 0.8270
5.196000 0.8270 0.8270 0.8250 0.8220 0.8220
5.230163 0.8230 0.8270 0.8270 0.8270 0.8250
5.264000 0.8230 0.8230 0.8220 0.8220 0.8200
5.298163 0.8150 0.8130 0.8050 0.8030 0.8000
5.333000 0.7980 0.7930 0.7890 0.7930 0.7980
5.367163 0.8030 0.8100 0.8130 0.8130 0.8170
5.401000 0.8180 0.8200 0.8200 0.8220 0.8220
5.435163 0.8230 0.8250 0.8270 0.8290 0.8290
5.469000 0.8270 0.8250 0.8230 0.8220 0.8220
5.503163 0.8220 0.8230 0.8230 0.8250 0.8270
5.538000 0.8300 0.8320 0.8320 0.8320 0.8320
5.572163 0.8300 0.8290 0.8270 0.8250 0.8230
5.606000 0.8230 0.8300 0.8300 0.8300 0.8290
5.640163 0.8290 0.8290 0.8230 0.8220 0.8200
5.674000 0.8180 0.8180 0.8200 0.8180 0.8180
5.708163 0.8110 0.8100 0.8080 0.8050 0.8050
5.742000 0.8030 0.8030 0.8010 0.8010 0.7980
5.776163 0.7930 0.7930 0.7930 0.7930 0.8010
5.811000 0.8010 0.8000 0.7860 0.7690 0.7600
5.845163 0.7600 0.7600 0.7600 0.7600 0.7600
5.879000 0.7580 0.7530 0.7470 0.7400 0.7400
5.913163 0.7360 0.7350 0.7310 0.7210 0.7050
5.947000 0.7040 0.6880 0.6780 0.6760 0.6660
5.981163 0.6640 0.6050 0.5790 0.5530 0.5280
6.016000 0.5020 0.4760 0.4510 0.4250 0.4230
6.050163 0.3650 0.2940 0.1910 0.1230 0.1120
6.084000 0.0940 0.0780 0.0580 0.0510 0.0370
6.118163 0.0340 0.0340 0.0390 0.0540 0.0640
6.152000 0.0710 0.0730 0.0730 0.0750 0.0750
6.186163 0.0760 0.0760 0.0800 0.1330 0.1530
6.220000 0.1930 0.2420 0.2800 0.3090 0.3430
6.254163 0.3720 0.4000 0.4030 0.4050 0.4030
6.289000 0.3720 0.3600 0.3500 0.3350 0.3170
6.323163 0.3000 0.2610 0.2220 0.1020 0.0950
6.357000 0.0850 0.0830 0.0830 0.0830 0.1210
6.391163 0.1410 0.1770 0.2130 0.2490 0.2780
6.425000 0.2970 0.3020 0.3110 0.3120 0.3120
6.459163 0.3110 0.2990 0.2940 0.2940 0.3020
6.494000 0.3260 0.3380 0.3480 0.3620 0.3770
6.528163 0.3910 0.4060 0.4250 0.4420 0.4590
6.562000 0.4700 0.4710 0.4730 0.4750 0.4750
6.596163 0.4730 0.4680 0.4580 0.4350 0.4010
6.630000 0.3480 0.3330 0.3230 0.3140 0.3120
6.664163 0.3160 0.3260 0.3120 0.2730 0.2180
6.699000 0.2180 0.2300 0.2730 0.3140 0.3520
6.733163 0.3910 0.4290 0.4660 0.5050 0.5430
6.767000 0.5820 0.6170 0.6300 0.6350 0.6440
6.801163 0.6560 0.6630 0.6660 0.6700 0.6710
6.835000 0.6700 0.6700 0.6580 0.6470 0.6350
6.869163 0.6270 0.6150 0.5380 0.4990 0.4630
6.903000 0.3960 0.3770 0.3520 0.3430 0.3430
6.937163 0.3480 0.3820 0.4100 0.4370 0.4580
6.972000 0.4800 0.5050 0.5110 0.5260 0.5450
7.006163 0.5530 0.5580 0.5670 0.5740 0.5790
7.040000 0.5820 0.5940 0.6030 0.6060 0.6180
7.074163 0.6340 0.6420 0.6470 0.6510 0.6580
7.108000 0.6610 0.6660 0.6680 0.6700 0.6700
7.142163 0.6730 0.6730 0.6710 0.6630 0.6590
7.177000 0.6540 0.6460 0.6320 0.6180 0.6010
7.211163 0.5840 0.5690 0.5550 0.5410 0.5260
7.245000 0.4920 0.4460 0.3810 0.3240 0.2010
7.279163 0.1530 0.1350 0.1290 0.1290 0.1330
7.313000 0.1740 0.1910 0.2060 0.2270 0.2470
7.347163 0.2580 0.2590 0.2580 0.2460 0.2350
7.381000 0.2270 0.2170 0.1940 0.1640 0.1400
7.415163 0.1120 0.0870 0.0640 0.0490 0.0410
7.450000 0.0340 0.0320 0.0300 0.0270 0.0250
7.484163 0.0250 0.0250 0.0270 0.0320 0.0390
7.518000 0.0470 0.0560 0.0760 0.0940 0.1120
7.552163 0.1330 0.1550 0.1770 0.2010 0.2250
7.586000 0.2490 0.2710 0.2900 0.3140 0.3450
7.620163 0.3550 0.3720 0.3860 0.4010 0.4100
7.655000 0.4200 0.4250 0.4300 0.4320 0.4350
7.689163 0.4390 0.4410 0.4460 0.4460 0.4460
7.723000 0.4420 0.4270 0.4030 0.3860 0.3520
7.757163 0.3290 0.2900 0.2490 0.2100 0.1700
7.791000 0.1360 0.1070 0.0850 0.0710 0.0680
7.825163 0.0660 0.0660 0.0660 0.0660 0.0660
7.860000 0.0660 0.0680 0.0780 0.0870 0.0970
7.894163 0.1110 0.1260 0.1430 0.1670 0.1930
7.928000 0.2250 0.2560 0.2990 0.3170 0.3410
7.962163 0.3600 0.3760 0.3890 0.4010 0.4150
7.996000 0.4320 0.4520 0.4610 0.4660 0.4680
8.030163 0.4700 0.4710 0.4750 0.4820 0.4850
8.064000 0.5040 0.5210 0.5410 0.5700 0.5910
8.098163 0.6100 0.6300 0.6490 0.6680 0.6820
8.133000 0.6940 0.7000 0.7110 0.7310 0.7330
8.167163 0.7430 0.7450 0.7480 0.7620 0.7670
8.201000 0.7690 0.7740 0.7770 0.7810 0.7820
8.235163 0.7840 0.7840 0.7860 0.7860 0.7860
8.269000 0.7860 0.7890 0.7910 0.7940 0.7980
8.303163 0.8010 0.8050 0.8060 0.8080 0.8110
8.338000 0.8150 0.8180 0.8180 0.8200 0.8200
8.372163 0.8200 0.8200 0.8200 0.8200 0.8200
8.406000 0.8180 0.8180 0.8170 0.8110 0.8100
8.440163 0.8030 0.7910 0.7880 0.7840 0.7760
8.474000 0.7620 0.7450 0.7260 0.7110 0.6950
8.508163 0.6800 0.6680 0.6510 0.6320 0.6050
8.542000 0.5810 0.5640 0.5470 0.5360 0.5280
8.576163 0.5240 0.5260 0.5570 0.5620 0.5910
8.611000 0.6200 0.6510 0.6850 0.6940 0.7020
8.645163 0.7090 0.7170 0.7260 0.7350 0.7600
8.679000 0.7700 0.7770 0.7820 0.7890 0.8000
8.713163 0.8030 0.8110 0.8170 0.8200 0.8230
8.747000 0.8270 0.8320 0.8350 0.8370 0.8390
8.781163 0.8390 0.8410 0.8440 0.8440 0.8460
8.816000 0.8460 0.8470 0.8490 0.8490 0.8490
8.850163 0.8510 0.8510 0.8510 0.8520 0.8520
8.884000 0.8540 0.8540 0.8540 0.8540 0.8540
8.918163 0.8560 0.8560 0.8560 0.8580 0.8580
8.952000 0.8580 0.8580 0.8580 0.8580 0.8560
8.986163 0.8560 0.8560 0.8560 0.8560 0.8560
9.020000 0.8560 0.8560 0.8560 0.8560 0.8560
9.054163 0.8540 0.8520 0.8470 0.8440 0.8390
9.089000 0.8320 0.8230 0.8180 0.8030 0.7910
9.123163 0.7840 0.7770 0.7650 0.7520 0.7350
9.157000 0.7210 0.7020 0.6870 0.6710 0.6510
9.191163 0.6390 0.6220 0.6080 0.5860 0.5810
9.225000 0.5810 0.5880 0.6370 0.6710 0.6990
9.259163 0.7230 0.7410 0.7580 0.7700 0.7820
9.294000 0.7910 0.8000 0.8050 0.8080 0.8110
9.328163 0.8170 0.8200 0.8250 0.8270 0.8290
9.362000 0.8300 0.8300 0.8320 0.8340 0.8340
9.396163 0.8350 0.8350 0.8350 0.8350 0.8350
9.430000 0.8340 0.8340 0.8320 0.8320 0.8320
9.464163 0.8300 0.8300 0.8300 0.8290 0.8290
9.499000 0.8290 0.8270 0.8270 0.8270 0.8250
9.533163 0.8250 0.8250 0.8250 0.8230 0.8230
9.567000 0.8230 0.8230 0.8230 0.8250 0.8250
9.601163 0.8290 0.8290 0.8300 0.8300 0.8300
9.635000 0.8320 0.8320 0.8320 0.8320 0.8320
9.669163 0.8300 0.8300 0.8300 0.8290 0.8290
9.703000 0.8290 0.8270 0.8270 0.8270 0.8250
9.737163 0.8250 0.8250 0.8230 0.8230 0.8230
9.772000 0.8230 0.8230 0.8230 0.8220 0.8220
9.806163 0.8220 0.8220 0.8230 0.8230 0.8230
9.840000 0.8230 0.8250 0.8250 0.8270 0.8290
9.874163 0.8300 0.8320 0.8320 0.8320 0.8320
9.908000 0.8340 0.8350 0.8370 0.8390 0.8410
9.942163 0.8420 0.8420 0.8440 0.8460 0.8470
9.977000 0.8490 0.8490 0.8490 0.8510 0.8510
10.011163 0.8510 0.8510 0.8490 0.8470 0.8470
10.045000 0.8460 0.8460 0.8460 0.8460 0.8470
10.079163 0.8470 0.8490 0.8490 0.8510 0.8520
10.113000 0.8520 0.8540 0.8540 0.8540 0.8540
10.147163 0.8540 0.8540 0.8520 0.8520 0.8510
10.181000 0.8510 0.8510 0.8510 0.8520 0.8540
10.215163 0.8540 0.8560 0.8540 0.8540 0.8540
10.250000 0.8540 0.8540 0.8540 0.8540 0.8540
10.284163 0.8540 0.8540 0.8540 0.8540 0.8540
10.318000 0.8540 0.8540 0.8540 0.8540 0.8540
10.352163 0.8540 0.8540 0.8540 0.8540 0.8540
10.386000 0.8540 0.8540 0.8540 0.8540 0.8540
10.420163 0.8540 0.8540 0.8540 0.8540 0.8540
10.455000 0.8540 0.8520 0.8520 0.8510 0.8490
10.489163 0.8470 0.8440 0.8410 0.8340 0.8320
10.523000 0.8290 0.8250 0.8180 0.8100 0.7980
10.557163 0.7940 0.7820 0.7810 0.7770 0.7760
10.591000 0.7720 0.7690 0.7670 0.7620 0.7550
10.625163 0.7450 0.7350 0.7230 0.7050 0.6730
10.660000 0.6520 0.6320 0.5980 0.5930 0.5930
10.694163 0.5980 0.6270 0.6520 0.6710 0.6920
10.728000 0.7020 0.7050 0.7140 0.7190 0.7190
10.762163 0.7190 0.7190 0.7140 0.7090 0.7050
10.796000 0.7020 0.6990 0.6940 0.6900 0.6880
10.830163 0.6830 0.6800 0.6760 0.6760 0.6780
10.864000 0.6780 0.6800 0.6820 0.6830 0.6830
10.898163 0.6850 0.6920 0.6950 0.6990 0.7000
10.933000 0.7020 0.7040 0.7040 0.7020 0.6820
10.967163 0.6540 0.6270 0.6060 0.5820 0.5720
11.001000 0.5310 0.5290 0.5310 0.5670 0.5760
11.035163 0.5910 0.6130 0.6370 0.6630 0.6870
11.069000 0.7110 0.7290 0.7410 0.7480 0.7580
11.103163 0.7740 0.7890 0.7960 0.8000 0.8010
11.138000 0.8060 0.8110 0.8150 0.8180 0.8250
11.172163 0.8300 0.8340 0.8350 0.8350 0.8370
11.206000 0.8390 0.8390 0.8410 0.8420 0.8440
11.240163 0.8440 0.8440 0.8460 0.8470 0.8470
11.274000 0.8470 0.8470 0.8440 0.8440 0.8420
11.308163 0.8420 0.8420 0.8440 0.8460 0.8470
11.342000 0.8490 0.8490 0.8490 0.8490 0.8490
11.376163 0.8490 0.8490 0.8510 0.8510 0.8510
11.411000 0.8520 0.8520 0.8520 0.8520 0.8520
11.445163 0.8520 0.8520 0.8520 0.8520 0.8520
11.479000 0.8520 0.8520 0.8520 0.8520 0.8520
11.513163 0.8540 0.8540 0.8540 0.8540 0.8540
11.547000 0.8540 0.8540 0.8540 0.8540 0.8540
11.581163 0.8540 0.8540 0.8540 0.8540 0.8540
11.616000 0.8540 0.8540 0.8540 0.8540 0.8540
11.650163 0.8540 0.8540 0.8540 0.8540 0.8540
11.684000 0.8540 0.8520 0.8520 0.8510 0.8510
11.718163 0.8490 0.8490 0.8470 0.8440 0.8420
11.752000 0.8420 0.8410 0.8410 0.8350 0.8340
11.786163 0.8320 0.8300 0.8300 0.8290 0.8290
11.820000 0.8270 0.8250 0.8230 0.8230 0.8230
11.854163 0.8230 0.8250 0.8250 0.8250 0.8250
11.889000 0.8250 0.8250 0.8230 0.8220 0.8220
11.923163 0.8200 0.8200 0.8180 0.8180 0.8180
11.957000 0.8170 0.8150 0.8150 0.8150 0.8170
11.991163 0.8200 0.8220 0.8230 0.8230 0.8230
12.025000 0.8230 0.8230 0.8230 0.8230 0.8230
12.059163 0.8230 0.8230 0.8250 0.8250 0.8250
12.094000 0.8270 0.8270 0.8290 0.8300 0.8300
12.128163 0.8320 0.8340 0.8340 0.8350 0.8370
12.162000 0.8390 0.8410 0.8420 0.8440 0.8460
12.196163 0.8470 0.8490 0.8490 0.8490 0.8490
12.230000 0.8490 0.8490 0.8490 0.8490 0.8510
12.264163 0.8510 0.8510 0.8510 0.8510 0.8510
12.299000 0.8510 0.8510 0.8510 0.8510 0.8510
12.333163 0.8510 0.8520 0.8540 0.8540 0.8540
12.367000 0.8540 0.8540 0.8540 0.8540 0.8540
12.401163 0.8540 0.8540 0.8540 0.8540 0.8520
12.435000 0.8520 0.8490 0.8440 0.8420 0.8390
12.469163 0.8340 0.8300 0.8250 0.8180 0.8030
12.503000 0.7790 0.7380 0.6730 0.6030 0.5310
12.537163 0.4780 0.4470 0.4420 0.4420 0.4520
12.572000 0.5050 0.5400 0.5570 0.5770 0.5840
12.606163 0.5940 0.6000 0.6080 0.6180 0.6340
12.640000 0.6510 0.6680 0.6870 0.7050 0.7230
12.674163 0.7410 0.7580 0.7740 0.7840 0.7940
12.708000 0.8010 0.8050 0.8110 0.8150 0.8200
12.742163 0.8220 0.8250 0.8300 0.8340 0.8340
12.777000 0.8350 0.8350 0.8370 0.8370 0.8390
12.811163 0.8390 0.8410 0.8410 0.8410 0.8410
12.845000 0.8410 0.8410 0.8410 0.8420 0.8410
12.879163 0.8410 0.8410 0.8410 0.8410 0.8390
12.913000 0.8390 0.8390 0.8390 0.8370 0.8370
12.947163 0.8350 0.8350 0.8350 0.8350 0.8350
12.981000 0.8350 0.8350 0.8350 0.8340 0.8340
13.015163 0.8340 0.8340 0.8320 0.8320 0.8300
13.050000 0.8290 0.8290 0.8290 0.8270 0.8270
13.084163 0.8230 0.8230 0.8220 0.8220 0.8200
13.118000 0.8180 0.8180 0.8150 0.8130 0.8110
13.152163 0.8100 0.8080 0.8030 0.8010 0.8000
13.186000 0.7980 0.7960 0.7890 0.7840 0.7790
13.220163 0.7700 0.7640 0.7570 0.7480 0.7380
13.255000 0.7280 0.7140 0.6970 0.6780 0.6540
13.289163 0.6230 0.6000 0.5640 0.5410 0.5000
13.323000 0.4610 0.4320 0.4110 0.3960 0.3910
13.357163 0.3910 0.3930 0.4010 0.4150 0.4320
13.391000 0.4610 0.4920 0.5190 0.5230 0.5260
13.425163 0.5570 0.5810 0.6030 0.6200 0.6340
13.460000 0.6460 0.6580 0.6660 0.6750 0.6830
13.494163 0.6900 0.6970 0.7020 0.7110 0.7120
13.528000 0.7160 0.7170 0.7190 0.7190 0.7190
13.562163 0.7160 0.7110 0.7050 0.7020 0.6990
13.596000 0.6950 0.6880 0.6830 0.6820 0.6800
13.630163 0.6820 0.6870 0.6920 0.6940 0.6950
13.664000 0.6970 0.6990 0.7000 0.7000 0.6990
13.698163 0.6990 0.6970 0.6920 0.6870 0.6820
13.733000 0.6780 0.6750 0.6680 0.6610 0.6540
13.767163 0.6470 0.6420 0.6350 0.6300 0.6230
13.801000 0.6180 0.6130 0.6060 0.6000 0.5960
13.835163 0.5890 0.5840 0.5820 0.5790 0.5720
13.869000 0.5690 0.5650 0.5640 0.5580 0.5520
13.903163 0.5470 0.5430 0.5400 0.5380 0.5350
13.938000 0.5290 0.5230 0.5140 0.5110 0.5040
13.972163 0.5000 0.4920 0.4850 0.4820 0.4710
14.006000 0.4610 0.4490 0.4410 0.4350 0.4300
14.040163 0.4290 0.4230 0.4200 0.4200 0.4180
14.074000 0.4180 0.4200 0.4200 0.4220 0.4220
14.108163 0.4220 0.4230 0.4290 0.4300 0.4320
14.142000 0.4350 0.4390 0.4420 0.4420 0.4420
14.176163 0.4440 0.4460 0.4510 0.4540 0.4580
14.211000 0.4660 0.4760 0.4880 0.5000 0.5090
14.245163 0.5230 0.5350 0.5470 0.5580 0.5690
14.279000 0.5810 0.5930 0.6030 0.6130 0.6230
14.313163 0.6320 0.6410 0.6490 0.6560 0.6630
14.347000 0.6680 0.6730 0.6800 0.6880 0.6920
14.381163 0.6990 0.7020 0.7070 0.7110 0.7120
14.416000 0.7140 0.7170 0.7230 0.7230 0.7240
14.450163 0.7240 0.7260 0.7260 0.7290 0.7290
14.484000 0.7330 0.7350 0.7360 0.7380 0.7380
14.518163 0.7380 0.7380 0.7380 0.7380 0.7380
14.552000 0.7380 0.7380 0.7400 0.7400 0.7400
14.586163 0.7400 0.7400 0.7400 0.7400 0.7410
14.620000 0.7410 0.7410 0.7410 0.7410 0.7410
14.654163 0.7410 0.7410 0.7410 0.7410 0.7410
14.689000 0.7400 0.7400 0.7400 0.7410 0.7410
14.723163 0.7400 0.7400 0.7400 0.7400 0.7400
14.757000 0.7380 0.7360 0.7350 0.7330 0.7310
14.791163 0.7310 0.7310 0.7310 0.7310 0.7310
14.825000 0.7330 0.7330 0.7310 0.7310 0.7310
14.859163 0.7290 0.7290 0.7290 0.7280 0.7260
14.894000 0.7260 0.7260 0.7260 0.7260 0.7240
14.928163 0.7240 0.7240 0.7230 0.7230 0.7210
14.962000 0.7170 0.7120 0.7070 0.7070 0.7040
14.996163 0.7020 0.7000 0.6990 0.6950 0.6920
15.030000 0.6880 0.6870 0.6870 0.6820 0.6800
15.064163 0.6800 0.6820 0.6820 0.6830 0.6830
15.099000 0.6850 0.6870 0.6870 0.6870 0.6870
15.133163 0.6870 0.6850 0.6830 0.6820 0.6820
15.167000 0.6800 0.6780 0.6760 0.6750 0.6750
15.201163 0.6730 0.6730 0.6710 0.6700 0.6680
15.235000 0.6680 0.6680 0.6680 0.6660 0.6640
15.269163 0.6630 0.6610 0.6610 0.6590 0.6590
15.303000 0.6580 0.6580 0.6580 0.6560 0.6560
15.337163 0.6540 0.6520 0.6510 0.6510 0.6490
15.372000 0.6490 0.6470 0.6460 0.6460 0.6460
15.406163 0.6460 0.6440 0.6420 0.6420 0.6420
15.440000 0.6410 0.6410 0.6370 0.6340 0.6340
15.474163 0.6340 0.6340 0.6320 0.6300 0.6300
15.508000 0.6290 0.6290 0.6270 0.6270 0.6270
15.542163 0.6270 0.6270 0.6270 0.6270 0.6250
15.577000 0.6250 0.6250 0.6220 0.6220 0.6200
15.611163 0.6180 0.6170 0.6170 0.6130 0.6130
15.645000 0.6130 0.6130 0.6130 0.6130 0.6110
15.679163 0.6100 0.6080 0.6060 0.6060 0.6080
15.713000 0.6100 0.6100 0.6080 0.6080 0.6060
15.747163 0.6050 0.6050 0.6050 0.6010 0.6010
15.781000 0.6010 0.6000 0.5980 0.5980 0.5980
15.815163 0.5940 0.5940 0.5930 0.5930 0.5910
15.850000 0.5910
##END=
