##TITLE=1,1'-BIS(1,1-DIMETHYL-3,3,3-TRIPHENYL DI-SILOXANYL) FERROCENE
##JCAMP-DX=4.24
##DATA TYPE=INFRARED SPECTRUM
##CLASS=COBLENTZ
##ORIGIN=WYANDOTTE CHEMICALS CORP., WYANDOTTE, MICHIGAN, USA
##OWNER=COBLENTZ SOCIETY
Collection (C) 2018 copyright by the U.S. Secretary of Commerce
on behalf of the United States of America. All rights reserved.
##DATE=Not specified, most likely prior to 1970
##MOLFORM=C50 H50 Fe O2 Si4
##SOURCE REFERENCE=COBLENTZ NO. 2868
##$NIST ID=B6002868
##$NIST SOURCE=COBLENTZ
##$NIST IMAGE=cob2868
##SPECTROMETER/DATA SYSTEM=Not specified, most likely a prism, grating, or hybrid spectrometer.
##STATE=SOLID (MINERAL OIL MULL)
##PATH LENGTH=
$$SPECTRAL CONTAMINATION DUE TO OIL AROUND 2900 CM^-^1
##SAMPLING PROCEDURE=TRANSMISSION
##RESOLUTION=4
##DATA PROCESSING=DIGITIZED BY NIST FROM HARD COPY
##XUNITS=MICROMETERS
##YUNITS=TRANSMITTANCE
##XFACTOR=1.000000
##YFACTOR=1
##DELTAX=000.006638
##FIRSTX=2.027
##LASTX=16.0002
##FIRSTY=0.737
##MAXX=16.0002
##MINX=2.027
##MAXY=0.978
##MINY=0.029
##NPOINTS=2106
##XYDATA=(X++(Y..Y))
2.027000 0.7370 0.7370 0.7390 0.7400 0.7400
2.060207 0.7400 0.7420 0.7420 0.7440 0.7470
2.093000 0.7470 0.7490 0.7490 0.7490 0.7490
2.126207 0.7490 0.7500 0.7520 0.7520 0.7520
2.159000 0.7520 0.7520 0.7500 0.7470 0.7470
2.192207 0.7470 0.7470 0.7470 0.7450 0.7450
2.226000 0.7470 0.7470 0.7490 0.7500 0.7520
2.259207 0.7540 0.7550 0.7570 0.7590 0.7590
2.292000 0.7590 0.7590 0.7590 0.7590 0.7590
2.325207 0.7590 0.7570 0.7570 0.7570 0.7590
2.358000 0.7620 0.7640 0.7650 0.7650 0.7670
2.391207 0.7720 0.7740 0.7770 0.7790 0.7800
2.425000 0.7820 0.7840 0.7840 0.7850 0.7850
2.458207 0.7870 0.7890 0.7890 0.7890 0.7890
2.491000 0.7900 0.7900 0.7900 0.7900 0.7900
2.524207 0.7920 0.7950 0.7990 0.8000 0.8050
2.558000 0.8050 0.8030 0.8000 0.7990 0.7990
2.591207 0.8000 0.8030 0.8070 0.8070 0.8070
2.624000 0.8080 0.8080 0.8080 0.8080 0.8100
2.657207 0.8120 0.8150 0.8170 0.8170 0.8180
2.690000 0.8200 0.8200 0.8200 0.8220 0.8220
2.723207 0.8220 0.8220 0.8230 0.8230 0.8250
2.757000 0.8250 0.8250 0.8250 0.8250 0.8250
2.790207 0.8230 0.8230 0.8220 0.8220 0.8220
2.823000 0.8220 0.8220 0.8200 0.8200 0.8200
2.856207 0.8200 0.8200 0.8200 0.8200 0.8200
2.890000 0.8200 0.8200 0.8200 0.8200 0.8200
2.923207 0.8200 0.8180 0.8180 0.8180 0.8180
2.956000 0.8180 0.8180 0.8180 0.8180 0.8180
2.989207 0.8180 0.8180 0.8180 0.8180 0.8180
3.022000 0.8180 0.8180 0.8180 0.8180 0.8180
3.055207 0.8180 0.8180 0.8170 0.8150 0.8150
3.089000 0.8120 0.8070 0.8050 0.8020 0.8000
3.122207 0.7990 0.7950 0.7920 0.7890 0.7870
3.155000 0.7850 0.7820 0.7750 0.7700 0.7650
3.188207 0.7550 0.7470 0.7250 0.7000 0.6810
3.221000 0.6410 0.5960 0.5310 0.5290 0.5310
3.254207 0.5440 0.5690 0.5780 0.5810 0.5780
3.288000 0.5440 0.5110 0.5030 0.4930 0.4400
3.321207 0.3650 0.2750 0.1870 0.1110 0.0810
3.354000 0.0680 0.0610 0.0530 0.0510 0.0490
3.387207 0.0490 0.0510 0.0590 0.0740 0.0960
3.421000 0.1090 0.1290 0.1470 0.1640 0.1740
3.454207 0.1760 0.1740 0.1610 0.1590 0.1590
3.487000 0.1610 0.2150 0.2690 0.3270 0.4100
3.520207 0.4880 0.6310 0.6940 0.7400 0.7700
3.553000 0.7840 0.7970 0.8080 0.8180 0.8280
3.586207 0.8380 0.8470 0.8550 0.8620 0.8670
3.620000 0.8700 0.8720 0.8720 0.8700 0.8680
3.653207 0.8650 0.8620 0.8600 0.8600 0.8600
3.686000 0.8600 0.8620 0.8650 0.8680 0.8700
3.719207 0.8720 0.8720 0.8730 0.8750 0.8780
3.752000 0.8800 0.8850 0.8870 0.8880 0.8880
3.785207 0.8920 0.8930 0.8950 0.8970 0.8970
3.819000 0.8980 0.8980 0.9000 0.9000 0.9010
3.852207 0.9010 0.9030 0.9030 0.9050 0.9080
3.885000 0.9100 0.9130 0.9150 0.9160 0.9180
3.918207 0.9200 0.9230 0.9230 0.9250 0.9250
3.952000 0.9250 0.9250 0.9250 0.9250 0.9250
3.985207 0.9280 0.9280 0.9300 0.9300 0.9310
4.018000 0.9310 0.9310 0.9310 0.9310 0.9310
4.051207 0.9310 0.9330 0.9350 0.9350 0.9350
4.084000 0.9350 0.9350 0.9360 0.9360 0.9360
4.117207 0.9360 0.9360 0.9360 0.9360 0.9360
4.151000 0.9360 0.9360 0.9360 0.9360 0.9360
4.184207 0.9360 0.9360 0.9350 0.9330 0.9330
4.217000 0.9310 0.9300 0.9260 0.9250 0.9210
4.250207 0.9180 0.9160 0.9160 0.9180 0.9210
4.284000 0.9230 0.9250 0.9250 0.9230 0.9210
4.317207 0.9210 0.9210 0.9230 0.9260 0.9300
4.350000 0.9350 0.9380 0.9410 0.9500 0.9510
4.383207 0.9530 0.9550 0.9550 0.9560 0.9560
4.416000 0.9560 0.9560 0.9560 0.9560 0.9560
4.449207 0.9560 0.9560 0.9560 0.9560 0.9560
4.483000 0.9560 0.9560 0.9560 0.9560 0.9560
4.516207 0.9560 0.9560 0.9550 0.9550 0.9530
4.549000 0.9530 0.9530 0.9530 0.9550 0.9550
4.582207 0.9550 0.9560 0.9580 0.9600 0.9610
4.615000 0.9610 0.9610 0.9630 0.9630 0.9630
4.648207 0.9610 0.9610 0.9630 0.9630 0.9650
4.682000 0.9650 0.9650 0.9650 0.9650 0.9650
4.715207 0.9660 0.9680 0.9680 0.9700 0.9700
4.748000 0.9710 0.9730 0.9730 0.9730 0.9730
4.781207 0.9730 0.9730 0.9730 0.9750 0.9750
4.815000 0.9750 0.9730 0.9730 0.9730 0.9730
4.848207 0.9730 0.9730 0.9730 0.9730 0.9730
4.881000 0.9730 0.9730 0.9730 0.9750 0.9750
4.914207 0.9750 0.9750 0.9750 0.9760 0.9760
4.947000 0.9760 0.9760 0.9760 0.9760 0.9780
4.980207 0.9780 0.9780 0.9780 0.9780 0.9780
5.014000 0.9780 0.9780 0.9780 0.9760 0.9760
5.047207 0.9750 0.9710 0.9700 0.9680 0.9660
5.080000 0.9630 0.9600 0.9550 0.9530 0.9500
5.113207 0.9430 0.9360 0.9300 0.9280 0.9280
5.147000 0.9280 0.9310 0.9350 0.9430 0.9480
5.180207 0.9530 0.9560 0.9650 0.9710 0.9730
5.213000 0.9730 0.9710 0.9710 0.9700 0.9700
5.246207 0.9680 0.9610 0.9550 0.9480 0.9410
5.279000 0.9330 0.9260 0.9200 0.9130 0.9100
5.312207 0.9100 0.9110 0.9230 0.9330 0.9400
5.346000 0.9450 0.9500 0.9550 0.9610 0.9650
5.379207 0.9680 0.9700 0.9700 0.9710 0.9710
5.412000 0.9710 0.9700 0.9660 0.9630 0.9630
5.445207 0.9610 0.9600 0.9530 0.9460 0.9360
5.478000 0.9280 0.9200 0.9150 0.9130 0.9130
5.511207 0.9180 0.9330 0.9450 0.9550 0.9630
5.545000 0.9660 0.9680 0.9700 0.9700 0.9710
5.578207 0.9730 0.9750 0.9730 0.9660 0.9580
5.611000 0.9480 0.9400 0.9260 0.9180 0.9150
5.644207 0.9150 0.9160 0.9250 0.9300 0.9310
5.678000 0.9350 0.9350 0.9310 0.9300 0.9300
5.711207 0.9300 0.9330 0.9350 0.9380 0.9380
5.744000 0.9400 0.9430 0.9430 0.9410 0.9310
5.777207 0.9260 0.9180 0.9130 0.9060 0.9010
5.810000 0.8920 0.8880 0.8880 0.8900 0.8920
5.843207 0.8950 0.9000 0.9080 0.9110 0.9160
5.877000 0.9160 0.9150 0.9100 0.9080 0.9080
5.910207 0.9080 0.9080 0.9060 0.9060 0.9010
5.943000 0.8970 0.8900 0.8830 0.8770 0.8700
5.976207 0.8600 0.8550 0.8480 0.8370 0.8330
6.009000 0.8330 0.8350 0.8400 0.8450 0.8520
6.042207 0.8570 0.8580 0.8600 0.8600 0.8620
6.076000 0.8630 0.8650 0.8630 0.8570 0.8550
6.109207 0.8520 0.8470 0.8400 0.8330 0.8300
6.142000 0.8270 0.8220 0.8200 0.8180 0.8170
6.175207 0.8150 0.8150 0.8150 0.8170 0.8180
6.209000 0.8220 0.8220 0.8100 0.7420 0.7400
6.242207 0.7420 0.7750 0.8200 0.8520 0.8700
6.275000 0.8800 0.8920 0.8970 0.8970 0.8950
6.308207 0.8820 0.8770 0.8750 0.8750 0.8780
6.341000 0.8830 0.8920 0.8980 0.9060 0.9130
6.374207 0.9200 0.9250 0.9260 0.9280 0.9300
6.408000 0.9300 0.9280 0.9260 0.9260 0.9280
6.441207 0.9300 0.9310 0.9330 0.9350 0.9350
6.474000 0.9350 0.9350 0.9350 0.9330 0.9310
6.507207 0.9300 0.9260 0.9260 0.9280 0.9310
6.541000 0.9350 0.9360 0.9350 0.9330 0.9300
6.574207 0.9300 0.9280 0.9280 0.9280 0.9250
6.607000 0.9230 0.9160 0.9100 0.9060 0.9030
6.640207 0.9000 0.8920 0.8780 0.8620 0.8370
6.673000 0.8000 0.7470 0.6720 0.6710 0.6720
6.706207 0.7050 0.7270 0.7300 0.7300 0.7220
6.740000 0.6760 0.5960 0.5360 0.5130 0.4880
6.773207 0.4530 0.4310 0.4160 0.4010 0.4000
6.806000 0.4000 0.4010 0.4080 0.4230 0.4360
6.839207 0.4500 0.4630 0.4780 0.4930 0.5210
6.872000 0.5360 0.5510 0.5680 0.5830 0.5960
6.905207 0.6040 0.6070 0.6120 0.6120 0.6020
6.939000 0.5160 0.4280 0.3400 0.2790 0.2240
6.972207 0.2240 0.2250 0.2940 0.3500 0.4150
7.005000 0.4850 0.6010 0.6340 0.6860 0.7350
7.038207 0.7590 0.7700 0.7740 0.7790 0.7800
7.072000 0.7840 0.7850 0.7890 0.7940 0.7950
7.105207 0.7990 0.8000 0.8020 0.8020 0.8050
7.138000 0.8080 0.8100 0.8100 0.8050 0.7950
7.171207 0.7740 0.7440 0.7020 0.6610 0.5760
7.204000 0.5460 0.5360 0.5240 0.5210 0.5190
7.237207 0.5210 0.5240 0.5490 0.5740 0.6110
7.271000 0.6310 0.6320 0.6310 0.5890 0.5880
7.304207 0.5890 0.6190 0.6620 0.7090 0.7420
7.337000 0.7670 0.7790 0.7840 0.7850 0.7900
7.370207 0.8000 0.8020 0.8030 0.8070 0.8100
7.404000 0.8150 0.8200 0.8270 0.8300 0.8370
7.437207 0.8430 0.8480 0.8500 0.8520 0.8500
7.470000 0.8500 0.8450 0.8430 0.8450 0.8470
7.503207 0.8500 0.8520 0.8550 0.8580 0.8580
7.536000 0.8550 0.8500 0.8400 0.8280 0.8100
7.569207 0.7950 0.7820 0.7770 0.7720 0.7700
7.603000 0.7700 0.7700 0.7740 0.7740 0.7740
7.636207 0.7720 0.7700 0.7670 0.7650 0.7650
7.669000 0.7690 0.7790 0.7900 0.8020 0.8080
7.702207 0.8250 0.8320 0.8380 0.8450 0.8500
7.735000 0.8550 0.8550 0.8570 0.8600 0.8630
7.768207 0.8680 0.8700 0.8720 0.8720 0.8700
7.802000 0.8670 0.8650 0.8620 0.8580 0.8550
7.835207 0.8480 0.8420 0.8320 0.8220 0.8080
7.868000 0.7900 0.7650 0.7350 0.6960 0.6090
7.901207 0.5460 0.5160 0.4860 0.4280 0.3550
7.935000 0.2740 0.2620 0.2620 0.2650 0.2750
7.968207 0.2750 0.2740 0.2720 0.2720 0.2990
8.001000 0.3680 0.4330 0.4930 0.6110 0.6690
8.034207 0.7250 0.7570 0.7790 0.7920 0.8020
8.067000 0.8120 0.8230 0.8320 0.8400 0.8450
8.100207 0.8500 0.8500 0.8520 0.8530 0.8570
8.134000 0.8570 0.8570 0.8550 0.8530 0.8520
8.167207 0.8520 0.8520 0.8520 0.8520 0.8530
8.200000 0.8570 0.8620 0.8650 0.8680 0.8700
8.233207 0.8720 0.8750 0.8770 0.8780 0.8780
8.266000 0.8800 0.8800 0.8800 0.8820 0.8820
8.299207 0.8830 0.8820 0.8800 0.8780 0.8720
8.333000 0.8670 0.8630 0.8580 0.8520 0.8450
8.366207 0.8300 0.8080 0.7790 0.7450 0.6820
8.399000 0.5880 0.5610 0.5390 0.5180 0.5160
8.432207 0.5190 0.5380 0.5630 0.5960 0.6370
8.466000 0.6490 0.6510 0.6490 0.5930 0.5330
8.499207 0.5080 0.4810 0.4160 0.3580 0.2890
8.532000 0.2540 0.2520 0.2540 0.3120 0.3880
8.565207 0.4560 0.5730 0.6190 0.6560 0.6840
8.598000 0.7000 0.7050 0.7100 0.7140 0.7200
8.631207 0.7240 0.7300 0.7350 0.7420 0.7470
8.665000 0.7500 0.7500 0.7470 0.7440 0.7390
8.698207 0.7320 0.7250 0.7190 0.7120 0.7050
8.731000 0.7020 0.7000 0.6990 0.6940 0.6920
8.764207 0.6910 0.6910 0.6910 0.6910 0.6890
8.798000 0.6840 0.6760 0.6640 0.6540 0.6440
8.831207 0.6310 0.6190 0.6070 0.5930 0.5610
8.864000 0.5280 0.5110 0.4950 0.4530 0.4050
8.897207 0.3450 0.2540 0.1670 0.1140 0.0710
8.930000 0.0430 0.0410 0.0410 0.0430 0.0580
8.963207 0.0690 0.0730 0.0730 0.0680 0.0660
8.997000 0.0640 0.0680 0.1120 0.1440 0.2000
9.030207 0.2620 0.3330 0.4150 0.4710 0.5340
9.063000 0.5480 0.5510 0.5510 0.5490 0.5330
9.096207 0.5140 0.5080 0.5000 0.4810 0.4610
9.129000 0.4410 0.4230 0.4050 0.3920 0.3820
9.162207 0.3770 0.3680 0.3600 0.3480 0.3400
9.196000 0.3250 0.3080 0.2870 0.2650 0.2420
9.229207 0.2170 0.1960 0.1740 0.1540 0.1360
9.262000 0.1160 0.0990 0.0830 0.0680 0.0590
9.295207 0.0510 0.0440 0.0380 0.0340 0.0330
9.329000 0.0330 0.0310 0.0290 0.0290 0.0290
9.362207 0.0290 0.0310 0.0330 0.0330 0.0340
9.395000 0.0380 0.0380 0.0390 0.0410 0.0480
9.428207 0.0540 0.0640 0.0730 0.0830 0.0890
9.461000 0.0910 0.0930 0.0960 0.0990 0.1040
9.494207 0.1160 0.1340 0.1590 0.1890 0.2090
9.528000 0.2300 0.2550 0.2750 0.2950 0.3150
9.561207 0.3330 0.3450 0.3520 0.3550 0.3550
9.594000 0.3450 0.3250 0.2890 0.2500 0.2250
9.627207 0.2150 0.2140 0.2150 0.2450 0.2700
9.661000 0.2990 0.3250 0.3430 0.3500 0.3500
9.694207 0.3480 0.3320 0.3150 0.2940 0.2700
9.727000 0.2690 0.2700 0.2820 0.3070 0.3380
9.760207 0.3830 0.4200 0.4510 0.4780 0.4960
9.793000 0.5330 0.5460 0.5590 0.5690 0.5790
9.826207 0.5910 0.6040 0.6190 0.6310 0.6420
9.860000 0.6520 0.6660 0.6770 0.6870 0.6990
9.893207 0.7100 0.7190 0.7290 0.7370 0.7450
9.926000 0.7540 0.7600 0.7620 0.7670 0.7700
9.959207 0.7720 0.7700 0.7600 0.7140 0.6590
9.992000 0.5980 0.5140 0.5040 0.4950 0.4930
10.025207 0.4960 0.5840 0.6220 0.6710 0.7270
10.059000 0.7520 0.7640 0.7720 0.7790 0.7820
10.092207 0.7850 0.7870 0.7890 0.7890 0.7890
10.125000 0.7900 0.7900 0.7920 0.7990 0.8030
10.158207 0.8080 0.8120 0.8170 0.8220 0.8270
10.192000 0.8300 0.8320 0.8330 0.8350 0.8370
10.225207 0.8370 0.8370 0.8380 0.8380 0.8380
10.258000 0.8380 0.8370 0.8370 0.8370 0.8380
10.291207 0.8420 0.8450 0.8480 0.8500 0.8520
10.324000 0.8580 0.8600 0.8620 0.8630 0.8650
10.357207 0.8670 0.8670 0.8680 0.8700 0.8720
10.391000 0.8730 0.8750 0.8770 0.8780 0.8780
10.424207 0.8780 0.8800 0.8820 0.8820 0.8820
10.457000 0.8820 0.8820 0.8820 0.8820 0.8820
10.490207 0.8820 0.8820 0.8820 0.8820 0.8820
10.523000 0.8820 0.8820 0.8800 0.8800 0.8820
10.556207 0.8820 0.8830 0.8850 0.8870 0.8880
10.590000 0.8880 0.8880 0.8900 0.8900 0.8900
10.623207 0.8900 0.8900 0.8880 0.8880 0.8880
10.656000 0.8900 0.8920 0.8920 0.8920 0.8920
10.689207 0.8900 0.8900 0.8920 0.8920 0.8920
10.723000 0.8920 0.8920 0.8920 0.8930 0.8930
10.756207 0.8930 0.8950 0.8970 0.8970 0.8980
10.789000 0.8980 0.8980 0.8980 0.8980 0.8970
10.822207 0.8970 0.8970 0.8950 0.8950 0.8950
10.855000 0.8950 0.8950 0.8930 0.8930 0.8900
10.888207 0.8880 0.8870 0.8820 0.8800 0.8770
10.922000 0.8750 0.8730 0.8720 0.8730 0.8750
10.955207 0.8800 0.8830 0.8870 0.8900 0.8900
10.988000 0.8920 0.8920 0.8900 0.8900 0.8870
11.021207 0.8830 0.8820 0.8800 0.8780 0.8730
11.055000 0.8680 0.8620 0.8570 0.8520 0.8480
11.088207 0.8400 0.8370 0.8350 0.8330 0.8320
11.121000 0.8270 0.8250 0.8230 0.8200 0.8130
11.154207 0.8020 0.7820 0.7670 0.7470 0.7290
11.187000 0.7100 0.6960 0.6740 0.6620 0.6610
11.220207 0.6620 0.6790 0.6940 0.7200 0.7470
11.254000 0.7770 0.7870 0.7970 0.8070 0.8150
11.287207 0.8250 0.8320 0.8370 0.8400 0.8450
11.320000 0.8500 0.8530 0.8600 0.8630 0.8670
11.353207 0.8680 0.8730 0.8750 0.8770 0.8770
11.386000 0.8770 0.8770 0.8770 0.8750 0.8720
11.419207 0.8700 0.8680 0.8620 0.8530 0.8420
11.453000 0.8130 0.7550 0.7490 0.7170 0.6840
11.486207 0.6560 0.6170 0.5940 0.5860 0.5840
11.519000 0.5860 0.6160 0.6510 0.6860 0.7540
11.552207 0.7590 0.7720 0.7820 0.7900 0.8030
11.586000 0.8050 0.8120 0.8180 0.8200 0.8200
11.619207 0.8200 0.8200 0.8200 0.8200 0.8200
11.652000 0.8180 0.8150 0.8150 0.8130 0.8130
11.685207 0.8130 0.8130 0.8130 0.8100 0.8030
11.718000 0.8020 0.7990 0.7950 0.7940 0.7920
11.751207 0.7920 0.7900 0.7900 0.7890 0.7870
11.785000 0.7870 0.7890 0.7890 0.7900 0.7900
11.818207 0.7890 0.7890 0.7870 0.7840 0.7800
11.851000 0.7740 0.7620 0.7540 0.7490 0.7400
11.884207 0.7320 0.7200 0.7120 0.7040 0.6970
11.917000 0.6920 0.6910 0.6910 0.6910 0.6920
11.950207 0.6940 0.6990 0.6990 0.6990 0.6990
11.984000 0.6990 0.6970 0.6940 0.6890 0.6870
12.017207 0.6860 0.6820 0.6740 0.6640 0.6510
12.050000 0.6360 0.6210 0.6010 0.5810 0.5590
12.083207 0.5380 0.5130 0.5010 0.4880 0.4600
12.117000 0.4300 0.3980 0.3670 0.3320 0.2970
12.150207 0.2590 0.2150 0.1920 0.1740 0.1620
12.183000 0.1520 0.1460 0.1440 0.1440 0.1460
12.216207 0.1470 0.1510 0.1520 0.1570 0.1620
12.249000 0.1670 0.1710 0.1720 0.1740 0.1740
12.282207 0.1720 0.1710 0.1660 0.1620 0.1570
12.316000 0.1520 0.1510 0.1510 0.1490 0.1490
12.349207 0.1490 0.1510 0.1570 0.1620 0.1710
12.382000 0.1790 0.1890 0.2020 0.2150 0.2300
12.415207 0.2440 0.2550 0.2750 0.2940 0.3130
12.449000 0.3350 0.3550 0.3750 0.3920 0.4080
12.482207 0.4210 0.4310 0.4460 0.4560 0.4700
12.515000 0.4780 0.4860 0.4960 0.5110 0.5140
12.548207 0.5190 0.5190 0.5180 0.5160 0.5130
12.581000 0.5080 0.5030 0.5000 0.4950 0.4830
12.614207 0.4700 0.4550 0.4360 0.4180 0.3970
12.648000 0.3720 0.3430 0.3120 0.2850 0.2290
12.681207 0.1940 0.1610 0.1360 0.1190 0.1060
12.714000 0.0940 0.0840 0.0830 0.0830 0.0860
12.747207 0.1010 0.1160 0.1360 0.1570 0.1760
12.780000 0.2020 0.2270 0.2540 0.2750 0.3120
12.813207 0.3450 0.3680 0.3950 0.4230 0.4460
12.847000 0.4680 0.4880 0.5310 0.5460 0.5640
12.880207 0.5790 0.5980 0.6140 0.6270 0.6460
12.913000 0.6560 0.6710 0.6860 0.7000 0.7120
12.946207 0.7220 0.7320 0.7450 0.7520 0.7570
12.980000 0.7620 0.7670 0.7750 0.7800 0.7890
13.013207 0.7940 0.7990 0.8000 0.8020 0.8030
13.046000 0.8050 0.8070 0.8070 0.8080 0.8100
13.079207 0.8130 0.8150 0.8180 0.8200 0.8200
13.112000 0.8200 0.8220 0.8220 0.8230 0.8230
13.145207 0.8230 0.8250 0.8270 0.8270 0.8270
13.179000 0.8270 0.8270 0.8250 0.8250 0.8230
13.212207 0.8220 0.8220 0.8200 0.8180 0.8170
13.245000 0.8150 0.8120 0.8050 0.8020 0.7970
13.278207 0.7850 0.7800 0.7690 0.7500 0.7300
13.312000 0.7090 0.6910 0.6570 0.6290 0.6070
13.345207 0.5940 0.5730 0.5490 0.5310 0.5060
13.378000 0.4960 0.4860 0.4660 0.4430 0.4210
13.411207 0.4060 0.3920 0.3900 0.3900 0.3920
13.444000 0.4000 0.4150 0.4360 0.4530 0.4680
13.477207 0.4800 0.4860 0.4910 0.4930 0.4930
13.511000 0.4910 0.4860 0.4800 0.4730 0.4680
13.544207 0.4650 0.4650 0.4700 0.4850 0.4980
13.577000 0.5460 0.5740 0.6040 0.6310 0.6560
13.610207 0.6760 0.6890 0.7040 0.7190 0.7340
13.643000 0.7470 0.7540 0.7640 0.7720 0.7800
13.676207 0.7840 0.7870 0.7900 0.7920 0.7940
13.710000 0.7950 0.7970 0.8000 0.8020 0.8030
13.743207 0.8030 0.8030 0.8030 0.8030 0.8030
13.776000 0.8020 0.8000 0.7990 0.7970 0.7900
13.809207 0.7870 0.7850 0.7820 0.7790 0.7740
13.843000 0.7670 0.7600 0.7550 0.7500 0.7490
13.876207 0.7420 0.7340 0.7290 0.7200 0.7100
13.909000 0.7000 0.6870 0.6660 0.6440 0.6260
13.942207 0.6070 0.5930 0.5710 0.5510 0.5210
13.975000 0.5030 0.4850 0.4660 0.4310 0.3980
14.008207 0.3600 0.3280 0.2940 0.2470 0.2020
14.042000 0.1740 0.1490 0.1290 0.1070 0.0960
14.075207 0.0860 0.0790 0.0730 0.0680 0.0640
14.108000 0.0630 0.0610 0.0630 0.0680 0.0740
14.141207 0.0810 0.0880 0.0980 0.1020 0.1110
14.174000 0.1220 0.1320 0.1460 0.1560 0.1690
14.207207 0.1810 0.1960 0.2000 0.2040 0.2120
14.241000 0.2150 0.2150 0.2120 0.2070 0.2020
14.274207 0.1960 0.1810 0.1640 0.1520 0.1460
14.307000 0.1340 0.1260 0.1190 0.1140 0.1090
14.340207 0.1020 0.0960 0.0940 0.0940 0.0960
14.374000 0.0980 0.1020 0.1070 0.1120 0.1220
14.407207 0.1340 0.1510 0.1670 0.1860 0.2020
14.440000 0.2240 0.2470 0.2720 0.2970 0.3250
14.473207 0.3520 0.3800 0.4060 0.4350 0.4630
14.506000 0.4900 0.5310 0.5490 0.5680 0.5880
14.539207 0.6020 0.6170 0.6290 0.6420 0.6520
14.573000 0.6610 0.6690 0.6770 0.6840 0.6920
14.606207 0.6990 0.7070 0.7120 0.7150 0.7200
14.639000 0.7240 0.7270 0.7290 0.7320 0.7370
14.672207 0.7440 0.7490 0.7520 0.7520 0.7550
14.706000 0.7570 0.7590 0.7600 0.7600 0.7600
14.739207 0.7640 0.7650 0.7650 0.7650 0.7650
14.772000 0.7640 0.7640 0.7620 0.7620 0.7620
14.805207 0.7600 0.7550 0.7540 0.7520 0.7490
14.838000 0.7440 0.7400 0.7370 0.7320 0.7220
14.871207 0.7120 0.7020 0.6940 0.6810 0.6670
14.905000 0.6540 0.6410 0.6310 0.6260 0.6160
14.938207 0.6040 0.5960 0.5860 0.5780 0.5730
14.971000 0.5680 0.5630 0.5610 0.5610 0.5610
15.004207 0.5630 0.5680 0.5730 0.5760 0.5790
15.037000 0.5860 0.5930 0.6020 0.6140 0.6260
15.070207 0.6410 0.6540 0.6670 0.6840 0.6970
15.104000 0.7100 0.7250 0.7350 0.7450 0.7540
15.137207 0.7640 0.7750 0.7820 0.7850 0.7900
15.170000 0.7940 0.7990 0.8000 0.8000 0.8020
15.203207 0.8030 0.8050 0.8080 0.8100 0.8120
15.237000 0.8130 0.8130 0.8130 0.8130 0.8150
15.270207 0.8170 0.8170 0.8170 0.8170 0.8170
15.303000 0.8150 0.8130 0.8100 0.8100 0.8080
15.336207 0.8080 0.8070 0.8070 0.8080 0.8080
15.369000 0.8080 0.8070 0.8070 0.8070 0.8050
15.402207 0.8030 0.8030 0.8020 0.8020 0.8020
15.436000 0.8000 0.7990 0.7990 0.7940 0.7920
15.469207 0.7900 0.7900 0.7890 0.7870 0.7870
15.502000 0.7870 0.7890 0.7890 0.7870 0.7870
15.535207 0.7850 0.7840 0.7840 0.7820 0.7800
15.569000 0.7800 0.7800 0.7800 0.7800 0.7800
15.602207 0.7790 0.7790 0.7770 0.7770 0.7750
15.635000 0.7740 0.7700 0.7700 0.7690 0.7690
15.668207 0.7690 0.7670 0.7650 0.7640 0.7620
15.701000 0.7620 0.7600 0.7600 0.7590 0.7550
15.734207 0.7540 0.7520 0.7500 0.7490 0.7470
15.768000 0.7470 0.7450 0.7440 0.7440 0.7420
15.801207 0.7420 0.7400 0.7390 0.7350 0.7340
15.834000 0.7300 0.7300 0.7290 0.7250 0.7250
15.867207 0.7220 0.7190 0.7170 0.7140 0.7100
15.900000 0.7070 0.7020 0.6970 0.6970 0.6960
15.933207 0.6940 0.6910 0.6870 0.6840 0.6770
15.967000 0.6710 0.6670 0.6660 0.6610 0.6560
16.000207 0.6610
##END=
