##TITLE=BARIUM CARBONATE
$$ A.R.
##JCAMP-DX=4.24
##DATA TYPE=INFRARED SPECTRUM
##CLASS=COBLENTZ
##ORIGIN=MELLON INSTITUTE
##OWNER=COBLENTZ SOCIETY
Collection (C) 2018 copyright by the U.S. Secretary of Commerce
on behalf of the United States of America. All rights reserved.
##DATE=Not specified, most likely prior to 1970
##MOLFORM=Ba C O3
##SOURCE REFERENCE=COBLENTZ NO. 506
##$NIST ID=B6000506
##$NIST SOURCE=COBLENTZ
##$NIST IMAGE=cob506
##SPECTROMETER/DATA SYSTEM=Not specified, most likely a prism, grating, or hybrid spectrometer.
##STATE=SOLID (NUJOL MULL)
##PATH LENGTH=
$$SPECTRAL CONTAMINATION DUE TO OIL AROUND 2900 CM^-^1
##SAMPLING PROCEDURE=TRANSMISSION
##RESOLUTION=4
##DATA PROCESSING=DIGITIZED BY NIST FROM HARD COPY
##XUNITS=MICROMETERS
##YUNITS=TRANSMITTANCE
##XFACTOR=1.000000
##YFACTOR=1
##DELTAX=000.006832
##FIRSTX=2.009
##LASTX=15.988
##FIRSTY=0.843
##MAXX=15.988
##MINX=2.009
##MAXY=0.984
##MINY=0.07
##NPOINTS=2047
##XYDATA=(X++(Y..Y))
2.009000 0.8430 0.8430 0.8430 0.8450 0.8450
2.043178 0.8450 0.8470 0.8470 0.8480 0.8470
2.078000 0.8470 0.8470 0.8470 0.8480 0.8480
2.112178 0.8480 0.8480 0.8480 0.8480 0.8480
2.146000 0.8500 0.8500 0.8520 0.8520 0.8530
2.180178 0.8520 0.8500 0.8500 0.8500 0.8500
2.214000 0.8500 0.8480 0.8480 0.8480 0.8480
2.248178 0.8470 0.8470 0.8450 0.8450 0.8450
2.283000 0.8450 0.8450 0.8450 0.8470 0.8450
2.317178 0.8450 0.8470 0.8470 0.8480 0.8480
2.351000 0.8470 0.8470 0.8470 0.8450 0.8470
2.385178 0.8470 0.8470 0.8480 0.8500 0.8500
2.419000 0.8530 0.8530 0.8530 0.8530 0.8530
2.453178 0.8530 0.8530 0.8530 0.8550 0.8550
2.488000 0.8570 0.8590 0.8590 0.8600 0.8600
2.522178 0.8600 0.8620 0.8620 0.8640 0.8640
2.556000 0.8640 0.8650 0.8650 0.8650 0.8650
2.590178 0.8650 0.8650 0.8650 0.8650 0.8690
2.624000 0.8690 0.8690 0.8670 0.8670 0.8650
2.658178 0.8650 0.8650 0.8650 0.8650 0.8670
2.693000 0.8690 0.8690 0.8670 0.8650 0.8650
2.727178 0.8640 0.8640 0.8640 0.8640 0.8640
2.761000 0.8640 0.8650 0.8650 0.8650 0.8650
2.795178 0.8650 0.8650 0.8650 0.8650 0.8650
2.829000 0.8650 0.8650 0.8650 0.8650 0.8650
2.863178 0.8650 0.8650 0.8670 0.8670 0.8690
2.898000 0.8670 0.8650 0.8650 0.8640 0.8640
2.932178 0.8640 0.8640 0.8640 0.8640 0.8620
2.966000 0.8620 0.8620 0.8620 0.8640 0.8620
3.000178 0.8620 0.8620 0.8620 0.8620 0.8620
3.034000 0.8620 0.8620 0.8620 0.8620 0.8620
3.068178 0.8620 0.8620 0.8620 0.8620 0.8620
3.102000 0.8620 0.8640 0.8640 0.8640 0.8640
3.136178 0.8640 0.8650 0.8650 0.8650 0.8670
3.171000 0.8670 0.8670 0.8670 0.8670 0.8670
3.205178 0.8670 0.8670 0.8670 0.8690 0.8670
3.239000 0.8670 0.8670 0.8650 0.8640 0.8590
3.273178 0.8570 0.8380 0.8070 0.7680 0.7400
3.307000 0.7010 0.5680 0.5240 0.4910 0.4530
3.341178 0.4310 0.4080 0.3910 0.3900 0.3880
3.376000 0.3910 0.4220 0.4460 0.4500 0.4790
3.410178 0.5080 0.5340 0.5320 0.5300 0.5290
3.444000 0.5270 0.5250 0.5290 0.5730 0.6030
3.478178 0.6800 0.7800 0.7980 0.8140 0.8290
3.512000 0.8360 0.8470 0.8590 0.8650 0.8740
3.546178 0.8790 0.8840 0.8880 0.8880 0.8900
3.581000 0.8910 0.8910 0.8930 0.8930 0.8930
3.615178 0.8930 0.8930 0.8930 0.8930 0.8950
3.649000 0.8950 0.8960 0.8960 0.8980 0.8980
3.683178 0.8980 0.9000 0.9000 0.9000 0.9000
3.717000 0.9020 0.9020 0.9020 0.9020 0.9030
3.751178 0.9030 0.9030 0.9030 0.9030 0.9030
3.786000 0.9030 0.9030 0.9030 0.9030 0.9030
3.820178 0.9030 0.9030 0.9030 0.9030 0.9030
3.854000 0.9030 0.9030 0.9050 0.9050 0.9050
3.888178 0.9050 0.9050 0.9050 0.9050 0.9050
3.922000 0.9050 0.9050 0.9050 0.9050 0.9050
3.956178 0.9030 0.9030 0.9030 0.9030 0.9020
3.991000 0.9020 0.9020 0.9000 0.8980 0.8960
4.025178 0.8950 0.8930 0.8910 0.8910 0.8930
4.059000 0.8930 0.8950 0.8980 0.9020 0.9050
4.093178 0.9050 0.9050 0.9070 0.9080 0.9080
4.127000 0.9080 0.9080 0.9080 0.9080 0.9070
4.161178 0.9070 0.9070 0.9070 0.9070 0.9050
4.196000 0.9050 0.9050 0.9050 0.9050 0.9030
4.230178 0.9030 0.9020 0.9020 0.9020 0.9020
4.264000 0.9020 0.9020 0.9000 0.9000 0.9000
4.298178 0.9000 0.9000 0.9000 0.9000 0.9000
4.332000 0.9000 0.9000 0.9000 0.9020 0.9020
4.366178 0.9030 0.9030 0.9030 0.9050 0.9050
4.401000 0.9050 0.9070 0.9050 0.9070 0.9070
4.435178 0.9070 0.9070 0.9070 0.9050 0.9030
4.469000 0.9030 0.9020 0.9020 0.9020 0.9000
4.503178 0.9000 0.9000 0.9020 0.9020 0.9020
4.537000 0.9030 0.9030 0.9030 0.9030 0.9030
4.571178 0.9030 0.9050 0.9050 0.9050 0.9050
4.606000 0.9050 0.9050 0.9070 0.9070 0.9070
4.640178 0.9080 0.9080 0.9100 0.9100 0.9120
4.674000 0.9100 0.9100 0.9100 0.9100 0.9080
4.708178 0.9080 0.9080 0.9070 0.9070 0.9070
4.742000 0.9070 0.9070 0.9080 0.9080 0.9080
4.776178 0.9080 0.9080 0.9080 0.9080 0.9100
4.811000 0.9100 0.9100 0.9100 0.9080 0.9080
4.845178 0.9100 0.9080 0.9080 0.9080 0.9080
4.879000 0.9080 0.9100 0.9100 0.9100 0.9100
4.913178 0.9100 0.9100 0.9100 0.9100 0.9120
4.947000 0.9140 0.9120 0.9120 0.9120 0.9140
4.981178 0.9140 0.9140 0.9140 0.9150 0.9150
5.016000 0.9170 0.9170 0.9190 0.9190 0.9170
5.050178 0.9170 0.9170 0.9170 0.9170 0.9170
5.084000 0.9150 0.9170 0.9170 0.9170 0.9170
5.118178 0.9170 0.9170 0.9170 0.9170 0.9150
5.152000 0.9150 0.9170 0.9170 0.9170 0.9170
5.186178 0.9170 0.9170 0.9190 0.9200 0.9200
5.220000 0.9200 0.9200 0.9200 0.9200 0.9220
5.254178 0.9220 0.9220 0.9220 0.9220 0.9240
5.289000 0.9240 0.9240 0.9240 0.9240 0.9240
5.323178 0.9240 0.9260 0.9260 0.9270 0.9270
5.357000 0.9260 0.9260 0.9260 0.9270 0.9270
5.391178 0.9270 0.9290 0.9290 0.9290 0.9290
5.425000 0.9290 0.9290 0.9290 0.9290 0.9310
5.459178 0.9310 0.9310 0.9310 0.9310 0.9310
5.494000 0.9320 0.9320 0.9320 0.9320 0.9340
5.528178 0.9340 0.9340 0.9360 0.9360 0.9360
5.562000 0.9360 0.9360 0.9360 0.9380 0.9380
5.596178 0.9380 0.9380 0.9390 0.9380 0.9380
5.630000 0.9380 0.9380 0.9360 0.9360 0.9360
5.664178 0.9360 0.9360 0.9360 0.9360 0.9360
5.699000 0.9340 0.9320 0.9310 0.9290 0.9260
5.733178 0.9240 0.9240 0.9240 0.9240 0.9260
5.767000 0.9270 0.9290 0.9320 0.9340 0.9340
5.801178 0.9380 0.9410 0.9410 0.9430 0.9430
5.835000 0.9430 0.9430 0.9430 0.9430 0.9430
5.869178 0.9430 0.9430 0.9430 0.9430 0.9450
5.904000 0.9450 0.9460 0.9460 0.9460 0.9460
5.938178 0.9460 0.9460 0.9480 0.9480 0.9480
5.972000 0.9480 0.9480 0.9480 0.9480 0.9480
6.006178 0.9480 0.9480 0.9480 0.9480 0.9480
6.040000 0.9480 0.9480 0.9460 0.9460 0.9460
6.074178 0.9450 0.9450 0.9450 0.9430 0.9410
6.109000 0.9410 0.9390 0.9390 0.9390 0.9380
6.143178 0.9380 0.9360 0.9360 0.9340 0.9340
6.177000 0.9340 0.9340 0.9340 0.9340 0.9320
6.211178 0.9320 0.9310 0.9290 0.9270 0.9270
6.245000 0.9260 0.9260 0.9240 0.9240 0.9220
6.279178 0.9200 0.9200 0.9190 0.9150 0.9120
6.314000 0.9080 0.9080 0.9070 0.9050 0.9030
6.348178 0.9030 0.9030 0.9030 0.9030 0.9030
6.382000 0.9030 0.9030 0.9030 0.9030 0.9030
6.416178 0.9030 0.9030 0.9030 0.9020 0.9030
6.450000 0.9030 0.9020 0.9000 0.8980 0.8980
6.484178 0.8980 0.8950 0.8950 0.8930 0.8880
6.519000 0.8830 0.8760 0.8720 0.8670 0.8620
6.553178 0.8530 0.8430 0.8330 0.8290 0.8230
6.587000 0.8140 0.8040 0.7900 0.7420 0.6920
6.621178 0.6870 0.6630 0.6470 0.6110 0.5730
6.655000 0.5670 0.5420 0.5320 0.4930 0.4570
6.689178 0.4080 0.3960 0.3620 0.3410 0.3330
6.724000 0.3210 0.3020 0.2900 0.2690 0.2570
6.758178 0.2490 0.2110 0.2040 0.1940 0.1760
6.792000 0.1660 0.1540 0.1470 0.1440 0.1440
6.826178 0.1400 0.1320 0.1280 0.1180 0.1060
6.860000 0.0910 0.0840 0.0790 0.0770 0.0750
6.894178 0.0750 0.0720 0.0720 0.0700 0.0700
6.929000 0.0700 0.0700 0.0700 0.0700 0.0700
6.963178 0.0700 0.0720 0.0730 0.0770 0.0790
6.997000 0.0820 0.0870 0.0920 0.0940 0.1010
7.031178 0.1230 0.1520 0.1660 0.2370 0.2900
7.065000 0.3310 0.4270 0.4720 0.4910 0.5050
7.099178 0.5370 0.5730 0.5960 0.6350 0.6470
7.134000 0.6660 0.6760 0.6990 0.7060 0.7210
7.168178 0.7380 0.7470 0.7490 0.7490 0.7490
7.202000 0.7490 0.7490 0.7490 0.7490 0.7490
7.236178 0.7500 0.7520 0.7620 0.7690 0.7800
7.270000 0.7860 0.7970 0.8070 0.8140 0.8210
7.304178 0.8280 0.8330 0.8400 0.8480 0.8550
7.339000 0.8620 0.8690 0.8720 0.8790 0.8830
7.373178 0.8900 0.8910 0.8910 0.8910 0.8930
7.407000 0.8910 0.8910 0.8910 0.8930 0.8930
7.441178 0.8950 0.8960 0.8980 0.8980 0.9000
7.475000 0.9030 0.9050 0.9050 0.9070 0.9070
7.509178 0.9070 0.9080 0.9080 0.9080 0.9100
7.543000 0.9080 0.9080 0.9070 0.9070 0.9070
7.577178 0.9070 0.9070 0.9070 0.9070 0.9070
7.612000 0.9070 0.9080 0.9080 0.9100 0.9120
7.646178 0.9120 0.9140 0.9140 0.9140 0.9140
7.680000 0.9140 0.9150 0.9170 0.9150 0.9170
7.714178 0.9170 0.9190 0.9200 0.9200 0.9200
7.748000 0.9200 0.9220 0.9220 0.9220 0.9220
7.782178 0.9220 0.9240 0.9240 0.9260 0.9270
7.817000 0.9270 0.9290 0.9290 0.9290 0.9310
7.851178 0.9310 0.9310 0.9320 0.9320 0.9320
7.885000 0.9320 0.9320 0.9320 0.9320 0.9320
7.919178 0.9320 0.9320 0.9320 0.9340 0.9340
7.953000 0.9360 0.9360 0.9360 0.9380 0.9380
7.987178 0.9380 0.9380 0.9380 0.9390 0.9390
8.022000 0.9390 0.9410 0.9410 0.9410 0.9410
8.056178 0.9410 0.9430 0.9430 0.9450 0.9450
8.090000 0.9450 0.9450 0.9460 0.9460 0.9460
8.124178 0.9460 0.9450 0.9450 0.9430 0.9430
8.158000 0.9410 0.9410 0.9410 0.9430 0.9430
8.192178 0.9450 0.9460 0.9460 0.9460 0.9480
8.227000 0.9480 0.9480 0.9480 0.9480 0.9460
8.261178 0.9460 0.9460 0.9480 0.9460 0.9460
8.295000 0.9460 0.9460 0.9460 0.9460 0.9460
8.329178 0.9480 0.9500 0.9510 0.9510 0.9510
8.363000 0.9510 0.9510 0.9510 0.9510 0.9530
8.397178 0.9530 0.9510 0.9530 0.9530 0.9530
8.432000 0.9510 0.9510 0.9510 0.9510 0.9510
8.466178 0.9530 0.9530 0.9510 0.9510 0.9510
8.500000 0.9500 0.9500 0.9500 0.9500 0.9500
8.534178 0.9500 0.9510 0.9510 0.9510 0.9510
8.568000 0.9510 0.9510 0.9510 0.9510 0.9510
8.602178 0.9510 0.9510 0.9510 0.9500 0.9500
8.637000 0.9510 0.9510 0.9500 0.9510 0.9510
8.671178 0.9500 0.9500 0.9500 0.9500 0.9500
8.705000 0.9500 0.9500 0.9500 0.9500 0.9500
8.739178 0.9500 0.9500 0.9510 0.9510 0.9510
8.773000 0.9510 0.9510 0.9510 0.9510 0.9500
8.807178 0.9500 0.9500 0.9500 0.9480 0.9480
8.842000 0.9460 0.9450 0.9450 0.9460 0.9460
8.876178 0.9480 0.9480 0.9480 0.9460 0.9450
8.910000 0.9450 0.9450 0.9450 0.9450 0.9450
8.944178 0.9450 0.9450 0.9450 0.9430 0.9430
8.978000 0.9430 0.9450 0.9450 0.9450 0.9480
9.012178 0.9500 0.9500 0.9500 0.9500 0.9500
9.047000 0.9500 0.9500 0.9500 0.9510 0.9510
9.081178 0.9500 0.9500 0.9500 0.9480 0.9480
9.115000 0.9480 0.9480 0.9480 0.9480 0.9480
9.149178 0.9480 0.9480 0.9500 0.9500 0.9500
9.183000 0.9500 0.9500 0.9480 0.9500 0.9480
9.217178 0.9480 0.9480 0.9460 0.9450 0.9450
9.252000 0.9450 0.9450 0.9450 0.9450 0.9460
9.286178 0.9480 0.9500 0.9510 0.9510 0.9510
9.320000 0.9510 0.9510 0.9510 0.9500 0.9500
9.354178 0.9500 0.9500 0.9500 0.9500 0.9500
9.388000 0.9500 0.9450 0.9380 0.9340 0.9290
9.422178 0.9320 0.9320 0.9340 0.9380 0.9380
9.457000 0.9380 0.9390 0.9410 0.9410 0.9430
9.491178 0.9430 0.9450 0.9450 0.9450 0.9460
9.525000 0.9460 0.9480 0.9480 0.9480 0.9500
9.559178 0.9500 0.9500 0.9510 0.9510 0.9510
9.593000 0.9510 0.9530 0.9510 0.9510 0.9510
9.627178 0.9510 0.9510 0.9510 0.9530 0.9530
9.661000 0.9530 0.9530 0.9530 0.9530 0.9530
9.695178 0.9530 0.9550 0.9550 0.9550 0.9550
9.730000 0.9550 0.9550 0.9550 0.9550 0.9550
9.764178 0.9570 0.9570 0.9570 0.9570 0.9570
9.798000 0.9570 0.9570 0.9570 0.9570 0.9570
9.832178 0.9570 0.9570 0.9570 0.9570 0.9570
9.866000 0.9570 0.9570 0.9570 0.9570 0.9570
9.900178 0.9570 0.9570 0.9570 0.9570 0.9570
9.935000 0.9570 0.9570 0.9570 0.9570 0.9570
9.969178 0.9570 0.9570 0.9570 0.9570 0.9570
10.003000 0.9570 0.9570 0.9570 0.9570 0.9570
10.037178 0.9570 0.9570 0.9570 0.9570 0.9570
10.071000 0.9570 0.9570 0.9570 0.9570 0.9570
10.105178 0.9570 0.9570 0.9570 0.9570 0.9570
10.140000 0.9570 0.9570 0.9570 0.9570 0.9570
10.174178 0.9570 0.9570 0.9570 0.9570 0.9570
10.208000 0.9570 0.9570 0.9580 0.9580 0.9580
10.242178 0.9580 0.9570 0.9570 0.9570 0.9570
10.276000 0.9570 0.9570 0.9570 0.9570 0.9580
10.310178 0.9600 0.9600 0.9600 0.9580 0.9580
10.345000 0.9600 0.9580 0.9580 0.9580 0.9580
10.379178 0.9580 0.9570 0.9580 0.9570 0.9570
10.413000 0.9570 0.9550 0.9530 0.9530 0.9530
10.447178 0.9530 0.9530 0.9530 0.9530 0.9530
10.481000 0.9530 0.9530 0.9530 0.9530 0.9550
10.515178 0.9550 0.9550 0.9570 0.9580 0.9600
10.550000 0.9580 0.9580 0.9580 0.9580 0.9580
10.584178 0.9580 0.9580 0.9580 0.9580 0.9580
10.618000 0.9580 0.9570 0.9550 0.9550 0.9550
10.652178 0.9550 0.9550 0.9550 0.9570 0.9570
10.686000 0.9570 0.9580 0.9600 0.9600 0.9600
10.720178 0.9600 0.9600 0.9600 0.9600 0.9600
10.755000 0.9600 0.9620 0.9620 0.9620 0.9620
10.789178 0.9620 0.9620 0.9600 0.9600 0.9600
10.823000 0.9600 0.9600 0.9600 0.9600 0.9600
10.857178 0.9600 0.9600 0.9600 0.9600 0.9600
10.891000 0.9620 0.9620 0.9620 0.9620 0.9630
10.925178 0.9630 0.9630 0.9630 0.9630 0.9630
10.960000 0.9630 0.9630 0.9630 0.9630 0.9650
10.994178 0.9650 0.9650 0.9650 0.9650 0.9650
11.028000 0.9650 0.9650 0.9650 0.9670 0.9670
11.062178 0.9670 0.9670 0.9670 0.9690 0.9690
11.096000 0.9690 0.9700 0.9700 0.9700 0.9700
11.130178 0.9700 0.9700 0.9700 0.9700 0.9700
11.165000 0.9700 0.9700 0.9720 0.9700 0.9700
11.199178 0.9700 0.9700 0.9690 0.9700 0.9700
11.233000 0.9690 0.9690 0.9690 0.9690 0.9690
11.267178 0.9690 0.9670 0.9670 0.9670 0.9670
11.301000 0.9670 0.9670 0.9670 0.9670 0.9670
11.335178 0.9670 0.9690 0.9690 0.9690 0.9690
11.370000 0.9690 0.9690 0.9700 0.9690 0.9690
11.404178 0.9700 0.9700 0.9690 0.9690 0.9690
11.438000 0.9690 0.9690 0.9690 0.9690 0.9690
11.472178 0.9690 0.9690 0.9670 0.9650 0.9630
11.506000 0.9620 0.9600 0.9550 0.9530 0.9480
11.540178 0.9390 0.9310 0.9220 0.8980 0.8690
11.575000 0.8520 0.8210 0.7830 0.7250 0.7020
11.609178 0.6580 0.6280 0.6230 0.6030 0.5870
11.643000 0.5840 0.5720 0.5720 0.5750 0.5960
11.677178 0.6040 0.6370 0.6510 0.6630 0.6780
11.711000 0.7020 0.7570 0.7900 0.8160 0.8290
11.745178 0.8400 0.8530 0.8670 0.8720 0.8810
11.780000 0.8860 0.9000 0.9020 0.9080 0.9140
11.814178 0.9200 0.9240 0.9270 0.9290 0.9290
11.848000 0.9290 0.9290 0.9290 0.9310 0.9320
11.882178 0.9340 0.9360 0.9380 0.9390 0.9410
11.916000 0.9450 0.9460 0.9500 0.9510 0.9550
11.950178 0.9550 0.9600 0.9600 0.9620 0.9620
11.984000 0.9630 0.9630 0.9650 0.9650 0.9670
12.018178 0.9670 0.9670 0.9670 0.9670 0.9690
12.053000 0.9690 0.9700 0.9700 0.9720 0.9740
12.087178 0.9740 0.9750 0.9770 0.9790 0.9810
12.121000 0.9810 0.9810 0.9820 0.9820 0.9840
12.155178 0.9840 0.9820 0.9820 0.9820 0.9820
12.189000 0.9840 0.9840 0.9840 0.9840 0.9840
12.223178 0.9840 0.9820 0.9820 0.9840 0.9840
12.258000 0.9820 0.9820 0.9820 0.9820 0.9820
12.292178 0.9820 0.9820 0.9820 0.9820 0.9820
12.326000 0.9820 0.9810 0.9810 0.9810 0.9810
12.360178 0.9810 0.9810 0.9820 0.9820 0.9820
12.394000 0.9840 0.9820 0.9820 0.9820 0.9840
12.428178 0.9840 0.9820 0.9820 0.9840 0.9840
12.463000 0.9840 0.9840 0.9840 0.9840 0.9840
12.497178 0.9820 0.9820 0.9820 0.9820 0.9820
12.531000 0.9820 0.9820 0.9810 0.9810 0.9790
12.565178 0.9770 0.9770 0.9750 0.9770 0.9770
12.599000 0.9750 0.9750 0.9750 0.9750 0.9770
12.633178 0.9770 0.9750 0.9740 0.9740 0.9740
12.668000 0.9740 0.9720 0.9720 0.9720 0.9720
12.702178 0.9720 0.9720 0.9700 0.9700 0.9690
12.736000 0.9700 0.9700 0.9700 0.9720 0.9720
12.770178 0.9720 0.9720 0.9720 0.9700 0.9700
12.804000 0.9700 0.9690 0.9690 0.9690 0.9670
12.838178 0.9670 0.9690 0.9670 0.9670 0.9670
12.873000 0.9650 0.9650 0.9650 0.9650 0.9670
12.907178 0.9670 0.9670 0.9670 0.9690 0.9690
12.941000 0.9690 0.9690 0.9690 0.9690 0.9690
12.975178 0.9690 0.9690 0.9690 0.9670 0.9670
13.009000 0.9650 0.9650 0.9650 0.9650 0.9650
13.043178 0.9650 0.9650 0.9630 0.9620 0.9600
13.078000 0.9600 0.9600 0.9580 0.9570 0.9570
13.112178 0.9550 0.9530 0.9510 0.9510 0.9510
13.146000 0.9510 0.9510 0.9510 0.9510 0.9510
13.180178 0.9500 0.9500 0.9500 0.9500 0.9480
13.214000 0.9460 0.9450 0.9450 0.9450 0.9450
13.248178 0.9450 0.9460 0.9460 0.9460 0.9460
13.283000 0.9480 0.9480 0.9480 0.9500 0.9500
13.317178 0.9480 0.9480 0.9480 0.9460 0.9460
13.351000 0.9460 0.9460 0.9460 0.9450 0.9450
13.385178 0.9430 0.9430 0.9430 0.9430 0.9430
13.419000 0.9430 0.9430 0.9450 0.9430 0.9410
13.453178 0.9410 0.9410 0.9390 0.9390 0.9390
13.488000 0.9380 0.9380 0.9380 0.9380 0.9360
13.522178 0.9360 0.9360 0.9360 0.9340 0.9340
13.556000 0.9340 0.9320 0.9320 0.9310 0.9310
13.590178 0.9310 0.9290 0.9270 0.9260 0.9260
13.624000 0.9260 0.9240 0.9240 0.9240 0.9240
13.658178 0.9240 0.9220 0.9200 0.9200 0.9200
13.693000 0.9190 0.9190 0.9190 0.9190 0.9190
13.727178 0.9190 0.9190 0.9190 0.9190 0.9190
13.761000 0.9190 0.9190 0.9190 0.9170 0.9170
13.795178 0.9170 0.9170 0.9150 0.9150 0.9150
13.829000 0.9150 0.9140 0.9140 0.9120 0.9120
13.863178 0.9100 0.9100 0.9080 0.9070 0.9070
13.898000 0.9070 0.9070 0.9070 0.9070 0.9070
13.932178 0.9050 0.9070 0.9070 0.9070 0.9050
13.966000 0.9050 0.9050 0.9050 0.9050 0.9070
14.000178 0.9030 0.9030 0.9030 0.9020 0.9000
14.034000 0.9000 0.9000 0.9000 0.9000 0.9000
14.068178 0.8980 0.8980 0.8980 0.8960 0.8960
14.102000 0.8950 0.8950 0.8950 0.8950 0.8930
14.136178 0.8930 0.8930 0.8910 0.8910 0.8900
14.171000 0.8880 0.8880 0.8860 0.8840 0.8840
14.205178 0.8830 0.8810 0.8790 0.8790 0.8790
14.239000 0.8740 0.8670 0.8570 0.8470 0.8310
14.273178 0.8210 0.8050 0.7800 0.7380 0.7250
14.307000 0.7070 0.7020 0.7010 0.7010 0.6990
14.341178 0.6970 0.6970 0.6970 0.6990 0.7160
14.376000 0.7350 0.7380 0.7430 0.7490 0.7500
14.410178 0.7520 0.7620 0.7680 0.7780 0.7830
14.444000 0.7900 0.7930 0.7950 0.7970 0.7970
14.478178 0.8000 0.8020 0.8020 0.8040 0.8090
14.512000 0.8100 0.8120 0.8120 0.8140 0.8140
14.546178 0.8140 0.8120 0.8120 0.8140 0.8140
14.581000 0.8140 0.8140 0.8140 0.8120 0.8140
14.615178 0.8120 0.8120 0.8120 0.8140 0.8120
14.649000 0.8120 0.8120 0.8120 0.8120 0.8120
14.683178 0.8120 0.8120 0.8120 0.8100 0.8100
14.717000 0.8100 0.8100 0.8100 0.8100 0.8100
14.751178 0.8090 0.8070 0.8050 0.8050 0.8040
14.786000 0.8040 0.8040 0.8040 0.8040 0.8040
14.820178 0.8050 0.8050 0.8090 0.8100 0.8100
14.854000 0.8100 0.8100 0.8090 0.8070 0.8020
14.888178 0.8020 0.8000 0.8000 0.8000 0.7980
14.922000 0.7980 0.7980 0.7930 0.7920 0.7920
14.956178 0.7900 0.7900 0.7880 0.7860 0.7860
14.991000 0.7850 0.7850 0.7850 0.7850 0.7830
15.025178 0.7830 0.7830 0.7830 0.7810 0.7810
15.059000 0.7810 0.7810 0.7810 0.7810 0.7800
15.093178 0.7810 0.7810 0.7810 0.7810 0.7800
15.127000 0.7800 0.7800 0.7800 0.7780 0.7780
15.161178 0.7780 0.7780 0.7780 0.7780 0.7800
15.196000 0.7800 0.7800 0.7800 0.7800 0.7800
15.230178 0.7780 0.7780 0.7760 0.7760 0.7740
15.264000 0.7740 0.7730 0.7710 0.7710 0.7710
15.298178 0.7690 0.7690 0.7690 0.7680 0.7680
15.332000 0.7680 0.7680 0.7660 0.7660 0.7660
15.366178 0.7660 0.7660 0.7660 0.7640 0.7640
15.401000 0.7640 0.7640 0.7640 0.7640 0.7640
15.435178 0.7640 0.7640 0.7660 0.7660 0.7660
15.469000 0.7680 0.7680 0.7680 0.7680 0.7680
15.503178 0.7660 0.7660 0.7660 0.7660 0.7660
15.537000 0.7660 0.7660 0.7660 0.7660 0.7660
15.571178 0.7660 0.7660 0.7660 0.7660 0.7680
15.606000 0.7660 0.7660 0.7660 0.7680 0.7680
15.640178 0.7680 0.7660 0.7660 0.7660 0.7660
15.674000 0.7660 0.7660 0.7640 0.7640 0.7640
15.708178 0.7640 0.7640 0.7640 0.7640 0.7640
15.742000 0.7660 0.7660 0.7660 0.7680 0.7680
15.776178 0.7690 0.7690 0.7690 0.7710 0.7710
15.811000 0.7730 0.7730 0.7730 0.7710 0.7710
15.845178 0.7710 0.7710 0.7710 0.7710 0.7730
15.879000 0.7730 0.7740 0.7780 0.7800 0.7810
15.913178 0.7830 0.7830 0.7830 0.7830 0.7830
15.947000 0.7830 0.7810 0.7810 0.7810 0.7810
15.981178 0.7810 0.7810
##END=
