##TITLE=N-PHENYL-N-BENZYL BENZENESULFONAMIDE
##JCAMP-DX=4.24
##DATA TYPE=INFRARED SPECTRUM
##CLASS=COBLENTZ
##ORIGIN=ANDERSON PHYSICAL LABORATORY
##OWNER=COBLENTZ SOCIETY
Collection (C) 2018 copyright by the U.S. Secretary of Commerce
on behalf of the United States of America. All rights reserved.
##DATE=Not specified, most likely prior to 1970
##NAMES=N-benzyl-N-phenylbenzenesulfonamide
##MOLFORM=C19 H17 N O2 S
##SOURCE REFERENCE=COBLENTZ NO. 2656
##$NIST ID=B6002656
##$NIST SOURCE=COBLENTZ
##$NIST IMAGE=cob2656
##SPECTROMETER/DATA SYSTEM=Not specified, most likely a prism, grating, or hybrid spectrometer.
##STATE=SOLID (1.0% IN KBr PELLET)
##PATH LENGTH=0.0355 CM THICK
##SAMPLING PROCEDURE=TRANSMISSION
##RESOLUTION=4
##DATA PROCESSING=DIGITIZED BY NIST FROM HARD COPY (FROM TWO SEGMENTS)
##XUNITS=1/CM
##YUNITS=TRANSMITTANCE
##XFACTOR=1.000000
##YFACTOR=1
##DELTAX=0.934000
##FIRSTX=677.46
##LASTX=3995.96
##FIRSTY=0.658
##MAXX=3995.96
##MINX=677.46
##MAXY=0.961
##MINY=0.0980028
##NPOINTS=3554
##XYDATA=(X++(Y..Y))
677.460000 0.6580 0.6580 0.6350 0.5761 0.5381
682.130000 0.4772 0.3944 0.3174 0.2911 0.2642
686.800000 0.2369 0.1880 0.1850 0.1860 0.2100
691.469999 0.2200 0.2519 0.3616 0.3640 0.4456
696.139999 0.4490 0.4460 0.3430 0.2851 0.2830
700.809999 0.2850 0.2940 0.3040 0.3130 0.3110
705.479999 0.2619 0.2100 0.2080 0.2100 0.3188
710.149999 0.4636 0.5647 0.6158 0.6379 0.6549
714.819998 0.6881 0.7590 0.7970 0.7980 0.7970
719.489998 0.7521 0.7291 0.6702 0.6162 0.5673
724.159998 0.5159 0.4610 0.3920 0.2551 0.2280
728.829998 0.2021 0.1771 0.1531 0.1520 0.1530
733.499998 0.2080 0.2470 0.3170 0.3939 0.5607
738.169997 0.6109 0.6798 0.7338 0.7738 0.8038
742.839997 0.8250 0.8400 0.8520 0.8590 0.8680
747.509997 0.8790 0.8800 0.8800 0.8760 0.8641
752.179997 0.7999 0.7259 0.5591 0.5580 0.5610
756.849997 0.6139 0.6339 0.7256 0.7788 0.7770
761.519997 0.6379 0.5700 0.5020 0.5010 0.5020
766.189996 0.6067 0.7366 0.8585 0.8789 0.9188
770.859996 0.9370 0.9380 0.9370 0.9260 0.9110
775.529996 0.8851 0.8202 0.7562 0.7172 0.6921
780.199996 0.6580 0.6250 0.5910 0.5560 0.5550
784.869996 0.5560 0.6108 0.6638 0.7735 0.8556
789.539995 0.9050 0.9340 0.9460 0.9530 0.9590
794.209995 0.9610 0.9610 0.9610 0.9610 0.9610
798.879995 0.9590 0.9590 0.9580 0.9550 0.9520
803.549995 0.9490 0.9440 0.9400 0.9340 0.9280
808.219995 0.9220 0.9140 0.9050 0.8980 0.8880
812.889994 0.8790 0.8670 0.8580 0.8560 0.8580
817.559994 0.8640 0.8680 0.8710 0.8740 0.8820
822.229994 0.8830 0.8830 0.8820 0.8770 0.8740
826.899994 0.8760 0.8770 0.8790 0.8800 0.8790
831.569994 0.8770 0.8730 0.8710 0.8700 0.8700
836.239993 0.8700 0.8710 0.8770 0.8800 0.8820
840.909993 0.8800 0.8710 0.8640 0.8590 0.8580
845.579993 0.8520 0.8470 0.8460 0.8460 0.8440
850.249993 0.8430 0.8410 0.8400 0.8370 0.8261
854.919993 0.8100 0.7910 0.7740 0.7590 0.7470
859.589992 0.7350 0.7230 0.7110 0.7000 0.6851
864.259992 0.6700 0.6500 0.6280 0.6020 0.5711
868.929992 0.5351 0.4941 0.4462 0.3893 0.3253
873.599992 0.2850 0.2520 0.2320 0.2290 0.2310
878.269992 0.2679 0.3049 0.3399 0.4017 0.4587
882.939992 0.5111 0.5610 0.6050 0.6460 0.6829
887.609991 0.7159 0.7439 0.7679 0.7879 0.8039
892.279991 0.8160 0.8280 0.8370 0.8460 0.8530
896.949991 0.8610 0.8670 0.8730 0.8770 0.8820
901.619991 0.8850 0.8880 0.8910 0.8940 0.8950
906.289991 0.8980 0.9000 0.9010 0.9020 0.9040
910.959990 0.9040 0.9020 0.8980 0.8920 0.8850
915.629990 0.8790 0.8740 0.8730 0.8740 0.8879
920.299990 0.8940 0.9040 0.9110 0.9130 0.9130
924.969990 0.9130 0.9100 0.9010 0.8891 0.8761
929.639990 0.8590 0.8290 0.8080 0.8070 0.8080
934.309989 0.8280 0.8559 0.8699 0.8819 0.8919
938.979989 0.8980 0.9040 0.9040 0.9050 0.9070
943.649989 0.9080 0.9080 0.9100 0.9100 0.9100
948.319989 0.9100 0.9100 0.9100 0.9100 0.9100
952.989989 0.9100 0.9100 0.9100 0.9080 0.9070
957.659988 0.9070 0.9050 0.9040 0.9010 0.9000
962.329988 0.8980 0.8940 0.8910 0.8890 0.8890
966.999988 0.8890 0.8880 0.8850 0.8850 0.8820
971.669988 0.8800 0.8760 0.8710 0.8650 0.8580
976.339988 0.8520 0.8440 0.8380 0.8320 0.8280
981.009987 0.8260 0.8260 0.8280 0.8370 0.8410
985.679987 0.8440 0.8440 0.8470 0.8470 0.8460
990.349987 0.8460 0.8430 0.8380 0.8340 0.8290
995.019987 0.8250 0.8190 0.8140 0.8100 0.8040
999.689987 0.7980 0.7920 0.7850 0.7770 0.7680
1004.359987 0.7530 0.7520 0.7530 0.7590 0.7650
1009.029986 0.7680 0.7680 0.7640 0.7521 0.7351
1013.699986 0.7190 0.6950 0.6940 0.6950 0.7070
1018.369986 0.7110 0.7230 0.7350 0.7410 0.7430
1023.039986 0.7400 0.7230 0.7130 0.6940 0.6680
1027.709986 0.6341 0.5971 0.5562 0.5530 0.5530
1032.379985 0.5550 0.5650 0.5670 0.5670 0.5680
1037.049985 0.5700 0.5760 0.5999 0.6309 0.6678
1041.719985 0.7040 0.7230 0.7250 0.7260 0.7280
1046.389985 0.7260 0.7140 0.7010 0.6891 0.6771
1051.059985 0.6650 0.6520 0.6400 0.6250 0.6100
1055.729984 0.5940 0.5760 0.5561 0.5341 0.5111
1060.399984 0.4850 0.4560 0.4250 0.3910 0.3521
1065.069984 0.3111 0.2651 0.2411 0.1972 0.1940
1069.739984 0.1970 0.2200 0.2440 0.2580 0.3488
1074.409984 0.4428 0.5287 0.5340 0.5340 0.5231
1079.079983 0.5100 0.4890 0.4880 0.4910 0.5040
1083.749983 0.5200 0.6168 0.6190 0.6220 0.6190
1088.419983 0.5530 0.5490 0.5460 0.5430 0.4671
1093.089983 0.4221 0.3621 0.3131 0.2263 0.2001
1097.759983 0.1970 0.1981 0.2410 0.2620 0.3250
1102.429982 0.3789 0.4249 0.4639 0.4969 0.5259
1107.099982 0.5551 0.5820 0.6070 0.6370 0.6580
1111.769982 0.6760 0.6880 0.6950 0.7010 0.7040
1116.439982 0.7070 0.7100 0.7130 0.7170 0.7170
1121.109982 0.7200 0.7200 0.7200 0.7220 0.7220
1125.779982 0.7220 0.7220 0.7220 0.7220 0.7230
1130.449981 0.7230 0.7230 0.7230 0.7200 0.7170
1135.119981 0.7140 0.7070 0.7000 0.6940 0.6860
1139.789981 0.6790 0.6680 0.6560 0.6411 0.6231
1144.459981 0.6009 0.5730 0.5380 0.4980 0.4890
1149.129981 0.4590 0.4370 0.4071 0.3741 0.3382
1153.799980 0.3019 0.2649 0.2290 0.1970 0.1680
1158.469980 0.1460 0.1280 0.1190 0.1080 0.1020
1163.139980 0.1000 0.0980 0.1000 0.1110 0.1340
1167.809980 0.1490 0.1620 0.1740 0.1889 0.2069
1172.479980 0.2320 0.2531 0.3340 0.3680 0.4010
1177.149979 0.4340 0.4609 0.4710 0.4730 0.4760
1181.819979 0.4758 0.4040 0.3830 0.3620 0.3590
1186.489979 0.3610 0.4019 0.4439 0.4759 0.5905
1191.159979 0.6261 0.6640 0.6940 0.7200 0.7410
1195.829979 0.7590 0.7730 0.7830 0.7910 0.7970
1200.499978 0.8010 0.8020 0.8050 0.8070 0.8080
1205.169978 0.8100 0.8110 0.8110 0.8100 0.8020
1209.839978 0.7920 0.7800 0.7650 0.7520 0.7410
1214.509978 0.7400 0.7400 0.7340 0.7230 0.7071
1219.179978 0.6800 0.6680 0.6640 0.6620 0.6640
1223.849977 0.6860 0.7499 0.7979 0.8309 0.8519
1228.519977 0.8650 0.8740 0.8790 0.8830 0.8920
1233.189977 0.8980 0.9010 0.9040 0.9050 0.9070
1237.859977 0.9070 0.9070 0.9070 0.9070 0.9080
1242.529977 0.9080 0.9080 0.9100 0.9110 0.9110
1247.199976 0.9130 0.9130 0.9130 0.9130 0.9110
1251.869976 0.9110 0.9110 0.9110 0.9080 0.9050
1256.539976 0.9010 0.8980 0.8940 0.8920 0.8890
1261.209976 0.8860 0.8820 0.8760 0.8700 0.8620
1265.879976 0.8550 0.8460 0.8350 0.8250 0.8130
1270.549976 0.8010 0.7860 0.7710 0.7551 0.7371
1275.219975 0.7170 0.7020 0.6830 0.6820 0.6830
1279.889975 0.7000 0.7070 0.7200 0.7459 0.7560
1284.559975 0.7620 0.7740 0.7760 0.7740 0.7700
1289.229975 0.7640 0.7580 0.7500 0.7430 0.7340
1293.899975 0.7260 0.7190 0.7110 0.7050 0.6980
1298.569974 0.6940 0.6850 0.6830 0.6850 0.7019
1303.239974 0.7100 0.7200 0.7220 0.7260 0.7260
1307.909974 0.7230 0.7170 0.6861 0.6621 0.6401
1312.579974 0.6140 0.6130 0.6140 0.6220 0.6860
1317.249974 0.6940 0.7010 0.7040 0.7050 0.7070
1321.919973 0.7110 0.7190 0.7220 0.7370 0.7380
1326.589973 0.7380 0.7340 0.7141 0.6921 0.6671
1331.259973 0.6409 0.6140 0.5890 0.5650 0.5430
1335.929973 0.5250 0.5110 0.5020 0.4920 0.4801
1340.599973 0.4790 0.4770 0.4770 0.4790 0.4800
1345.269972 0.4890 0.4980 0.4980 0.4970 0.4084
1349.939972 0.3559 0.2889 0.2340 0.2110 0.1970
1354.609972 0.1680 0.1371 0.1350 0.1370 0.1559
1359.279972 0.1760 0.1921 0.2460 0.2790 0.2920
1363.949972 0.3200 0.3230 0.3260 0.3290 0.3380
1368.619971 0.3431 0.3912 0.5101 0.5820 0.6230
1373.289971 0.6490 0.6739 0.7129 0.7818 0.7949
1377.959971 0.8000 0.8050 0.8140 0.8230 0.8340
1382.629971 0.8500 0.8610 0.8700 0.8770 0.8830
1387.299971 0.8880 0.8940 0.9020 0.9050 0.9070
1391.969971 0.9080 0.9080 0.9080 0.9080 0.9070
1396.639970 0.9050 0.9040 0.9020 0.9000 0.8980
1401.309970 0.8980 0.8970 0.8950 0.8940 0.8910
1405.979970 0.8880 0.8860 0.8850 0.8830 0.8820
1410.649970 0.8820 0.8820 0.8820 0.8820 0.8830
1415.319970 0.8850 0.8860 0.8860 0.8880 0.8910
1419.989969 0.8920 0.8950 0.8970 0.8980 0.9000
1424.659969 0.9000 0.9000 0.9000 0.9000 0.9000
1429.329969 0.9000 0.8980 0.8980 0.8980 0.8970
1433.999969 0.8950 0.8940 0.8920 0.8890 0.8830
1438.669969 0.8770 0.8730 0.8620 0.8490 0.8311
1443.339968 0.8099 0.7850 0.7580 0.7260 0.6940
1448.009968 0.6581 0.6191 0.5771 0.5342 0.4882
1452.679968 0.4400 0.4370 0.4380 0.4591 0.5200
1457.349968 0.5250 0.5250 0.5250 0.5230 0.4801
1462.019968 0.4790 0.4800 0.5000 0.5012 0.6471
1466.689967 0.7940 0.8350 0.8410 0.8729 0.8770
1471.359967 0.8790 0.8790 0.8790 0.8790 0.8770
1476.029967 0.8620 0.8490 0.8350 0.8250 0.8140
1480.699967 0.8050 0.7980 0.7890 0.7820 0.7730
1485.369967 0.7620 0.7530 0.7410 0.7280 0.7130
1490.039966 0.6969 0.6769 0.6550 0.6290 0.5850
1494.709966 0.5430 0.5400 0.5410 0.5580 0.5789
1499.379966 0.6021 0.6251 0.6460 0.6590 0.6620
1504.049966 0.6860 0.7100 0.7320 0.7529 0.7729
1508.719966 0.7910 0.8050 0.8190 0.8290 0.8350
1513.389966 0.8380 0.8500 0.8640 0.8770 0.8920
1518.059965 0.9050 0.9160 0.9260 0.9310 0.9320
1522.729965 0.9340 0.9340 0.9350 0.9350 0.9350
1527.399965 0.9350 0.9350 0.9340 0.9340 0.9340
1532.069965 0.9340 0.9340 0.9340 0.9340 0.9320
1536.739965 0.9320 0.9290 0.9280 0.9250 0.9250
1541.409964 0.9230 0.9220 0.9200 0.9190 0.9170
1546.079964 0.9160 0.9140 0.9130 0.9110 0.9100
1550.749964 0.9100 0.9080 0.9080 0.9070 0.9050
1555.419964 0.9040 0.9040 0.9020 0.9010 0.9010
1560.089964 0.9000 0.8980 0.8970 0.8970 0.8950
1564.759963 0.8950 0.8940 0.8940 0.8920 0.8920
1569.429963 0.8920 0.8920 0.8920 0.8910 0.8910
1574.099963 0.8910 0.8890 0.8880 0.8860 0.8850
1578.769963 0.8820 0.8800 0.8740 0.8650 0.8530
1583.439963 0.8410 0.8260 0.8100 0.7940 0.7790
1588.109962 0.7620 0.7470 0.7340 0.7320 0.7320
1592.779962 0.7350 0.7470 0.7520 0.7580 0.7590
1597.449962 0.7550 0.7520 0.7520 0.7530 0.7610
1602.119962 0.7730 0.7830 0.7940 0.8010 0.8080
1606.789962 0.8140 0.8190 0.8230 0.8290 0.8310
1611.459961 0.8350 0.8380 0.8430 0.8460 0.8490
1616.129961 0.8520 0.8550 0.8590 0.8590 0.8590
1620.799961 0.8610 0.8610 0.8610 0.8610 0.8610
1625.469961 0.8610 0.8610 0.8610 0.8590 0.8590
1630.139961 0.8590 0.8590 0.8590 0.8590 0.8580
1634.809961 0.8580 0.8580 0.8560 0.8560 0.8560
1639.479960 0.8560 0.8580 0.8580 0.8590 0.8590
1644.149960 0.8610 0.8610 0.8620 0.8620 0.8640
1648.819960 0.8640 0.8640 0.8640 0.8640 0.8650
1653.489960 0.8670 0.8670 0.8680 0.8680 0.8700
1658.159960 0.8700 0.8710 0.8730 0.8740 0.8760
1662.829959 0.8760 0.8770 0.8770 0.8790 0.8790
1667.499959 0.8800 0.8800 0.8800 0.8800 0.8800
1672.169959 0.8800 0.8800 0.8790 0.8790 0.8790
1676.839959 0.8790 0.8770 0.8770 0.8770 0.8770
1681.509959 0.8770 0.8760 0.8740 0.8730 0.8730
1686.179958 0.8710 0.8710 0.8710 0.8710 0.8730
1690.849958 0.8740 0.8760 0.8800 0.8830 0.8850
1695.519958 0.8860 0.8860 0.8880 0.8890 0.8890
1700.189958 0.8890 0.8890 0.8910 0.8910 0.8910
1704.859958 0.8910 0.8920 0.8920 0.8920 0.8940
1709.529957 0.8940 0.8950 0.8950 0.8950 0.8950
1714.199957 0.8950 0.8950 0.8950 0.8950 0.8940
1718.869957 0.8940 0.8940 0.8940 0.8950 0.8950
1723.539957 0.8970 0.8970 0.8970 0.8980 0.8980
1728.209957 0.8980 0.8980 0.8980 0.8970 0.8970
1732.879956 0.8970 0.8970 0.8970 0.8970 0.8950
1737.549956 0.8950 0.8950 0.8950 0.8950 0.8940
1742.219956 0.8940 0.8940 0.8920 0.8910 0.8880
1746.889956 0.8880 0.8860 0.8860 0.8860 0.8860
1751.559956 0.8860 0.8860 0.8860 0.8860 0.8850
1756.229955 0.8850 0.8830 0.8820 0.8790 0.8760
1760.899955 0.8740 0.8730 0.8700 0.8680 0.8670
1765.569955 0.8650 0.8640 0.8620 0.8610 0.8610
1770.239955 0.8590 0.8590 0.8580 0.8580 0.8580
1774.909955 0.8590 0.8620 0.8640 0.8650 0.8670
1779.579955 0.8700 0.8730 0.8760 0.8770 0.8800
1784.249954 0.8820 0.8830 0.8850 0.8860 0.8860
1788.919954 0.8860 0.8860 0.8860 0.8880 0.8880
1793.589954 0.8880 0.8880 0.8880 0.8880 0.8880
1798.259954 0.8860 0.8860 0.8830 0.8800 0.8770
1802.929954 0.8710 0.8670 0.8620 0.8590 0.8580
1807.599953 0.8560 0.8560 0.8560 0.8560 0.8560
1812.269953 0.8560 0.8560 0.8560 0.8580 0.8580
1816.939953 0.8580 0.8590 0.8590 0.8610 0.8610
1821.609953 0.8620 0.8640 0.8650 0.8650 0.8680
1826.279953 0.8680 0.8700 0.8710 0.8710 0.8740
1830.949952 0.8740 0.8770 0.8790 0.8800 0.8800
1835.619952 0.8820 0.8820 0.8800 0.8800 0.8800
1840.289952 0.8790 0.8790 0.8790 0.8800 0.8800
1844.959952 0.8820 0.8830 0.8830 0.8850 0.8850
1849.629952 0.8860 0.8860 0.8860 0.8860 0.8860
1854.299951 0.8860 0.8860 0.8860 0.8860 0.8860
1858.969951 0.8860 0.8860 0.8860 0.8860 0.8860
1863.639951 0.8860 0.8860 0.8860 0.8850 0.8850
1868.309951 0.8830 0.8800 0.8790 0.8770 0.8770
1872.979951 0.8740 0.8740 0.8740 0.8730 0.8710
1877.649950 0.8680 0.8670 0.8650 0.8640 0.8610
1882.319950 0.8590 0.8560 0.8560 0.8550 0.8530
1886.989950 0.8530 0.8520 0.8490 0.8460 0.8430
1891.659950 0.8410 0.8370 0.8340 0.8290 0.8260
1896.329950 0.8250 0.8250 0.8250 0.8260 0.8290
1900.999950 0.8320 0.8350 0.8430 0.8490 0.8530
1905.669949 0.8560 0.8590 0.8620 0.8640 0.8650
1910.339949 0.8650 0.8650 0.8670 0.8670 0.8670
1915.009949 0.8670 0.8670 0.8670 0.8670 0.8650
1919.679949 0.8640 0.8640 0.8640 0.8640 0.8650
1924.349949 0.8650 0.8670 0.8680 0.8680 0.8680
1929.019948 0.8700 0.8700 0.8700 0.8710 0.8710
1933.689948 0.8710 0.8730 0.8730 0.8740 0.8740
1938.359948 0.8740 0.8740 0.8730 0.8730 0.8710
1943.029948 0.8710 0.8700 0.8700 0.8700 0.8680
1947.699948 0.8680 0.8680 0.8670 0.8650 0.8650
1952.369947 0.8640 0.8640 0.8610 0.8610 0.8590
1957.039947 0.8590 0.8580 0.8530 0.8460 0.8460
1961.709947 0.8410 0.8400 0.8380 0.8380 0.8350
1966.379947 0.8340 0.8320 0.8310 0.8290 0.8290
1971.049947 0.8280 0.8280 0.8280 0.8280 0.8290
1975.719946 0.8340 0.8340 0.8370 0.8400 0.8410
1980.389946 0.8410 0.8430 0.8440 0.8440 0.8440
1985.059946 0.8440 0.8460 0.8460 0.8470 0.8470
1989.729946 0.8490 0.8490 0.8490 0.8490 0.8490
1994.399946 0.8490 0.8490 0.8490 0.8490 0.8490
1999.069945 0.8500 0.8520 0.8523 0.8525 0.8527
2003.739945 0.8530 0.8535 0.8540 0.8545 0.8550
2008.409945 0.8564 0.8579 0.8594 0.8609 0.8619
2013.079945 0.8629 0.8639 0.8649 0.8662 0.8674
2017.749945 0.8687 0.8699 0.8702 0.8705 0.8707
2022.419945 0.8710 0.8714 0.8719 0.8724 0.8729
2027.089944 0.8732 0.8735 0.8737 0.8740 0.8740
2031.759944 0.8740 0.8740 0.8740 0.8740 0.8740
2036.429944 0.8740 0.8740 0.8740 0.8740 0.8740
2041.099944 0.8740 0.8740 0.8740 0.8740 0.8740
2045.769944 0.8738 0.8735 0.8733 0.8730 0.8726
2050.439943 0.8721 0.8716 0.8711 0.8708 0.8705
2055.109943 0.8703 0.8700 0.8700 0.8700 0.8700
2059.779943 0.8700 0.8700 0.8700 0.8700 0.8700
2064.449943 0.8700 0.8700 0.8700 0.8700 0.8696
2069.119943 0.8691 0.8686 0.8681 0.8680 0.8680
2073.789942 0.8680 0.8680 0.8678 0.8676 0.8673
2078.459942 0.8671 0.8670 0.8670 0.8670 0.8670
2083.129942 0.8670 0.8670 0.8670 0.8670 0.8670
2087.799942 0.8670 0.8670 0.8670 0.8670 0.8670
2092.469942 0.8670 0.8670 0.8666 0.8661 0.8656
2097.139941 0.8651 0.8650 0.8650 0.8650 0.8650
2101.809941 0.8650 0.8650 0.8650 0.8650 0.8650
2106.479941 0.8650 0.8650 0.8650 0.8650 0.8650
2111.149941 0.8650 0.8650 0.8650 0.8650 0.8650
2115.819941 0.8650 0.8650 0.8650 0.8650 0.8650
2120.489940 0.8650 0.8650 0.8650 0.8650 0.8650
2125.159940 0.8650 0.8650 0.8650 0.8650 0.8650
2129.829940 0.8650 0.8650 0.8648 0.8646 0.8643
2134.499940 0.8641 0.8640 0.8640 0.8640 0.8640
2139.169940 0.8637 0.8632 0.8627 0.8622 0.8620
2143.839940 0.8620 0.8620 0.8620 0.8619 0.8616
2148.509939 0.8614 0.8611 0.8610 0.8610 0.8610
2153.179939 0.8610 0.8610 0.8610 0.8610 0.8610
2157.849939 0.8607 0.8602 0.8597 0.8592 0.8590
2162.519939 0.8590 0.8590 0.8590 0.8589 0.8586
2167.189939 0.8584 0.8581 0.8580 0.8580 0.8580
2171.859938 0.8580 0.8578 0.8573 0.8568 0.8563
2176.529938 0.8560 0.8560 0.8560 0.8560 0.8559
2181.199938 0.8556 0.8554 0.8551 0.8550 0.8550
2185.869938 0.8550 0.8550 0.8550 0.8550 0.8550
2190.539938 0.8550 0.8550 0.8550 0.8550 0.8550
2195.209937 0.8550 0.8550 0.8550 0.8550 0.8550
2199.879937 0.8550 0.8550 0.8550 0.8550 0.8550
2204.549937 0.8550 0.8550 0.8550 0.8550 0.8550
2209.219937 0.8550 0.8550 0.8550 0.8550 0.8550
2213.889937 0.8550 0.8550 0.8550 0.8550 0.8548
2218.559936 0.8543 0.8538 0.8533 0.8530 0.8530
2223.229936 0.8530 0.8530 0.8530 0.8530 0.8530
2227.899936 0.8530 0.8529 0.8527 0.8524 0.8522
2232.569936 0.8520 0.8520 0.8520 0.8520 0.8518
2237.239936 0.8513 0.8508 0.8503 0.8497 0.8490
2241.909935 0.8483 0.8475 0.8468 0.8460 0.8453
2246.579935 0.8445 0.8438 0.8430 0.8423 0.8415
2251.249935 0.8408 0.8400 0.8393 0.8385 0.8379
2255.919935 0.8377 0.8374 0.8372 0.8369 0.8364
2260.589935 0.8359 0.8354 0.8350 0.8350 0.8350
2265.259934 0.8350 0.8350 0.8350 0.8350 0.8350
2269.929934 0.8351 0.8356 0.8361 0.8366 0.8370
2274.599934 0.8370 0.8370 0.8370 0.8371 0.8373
2279.269934 0.8376 0.8378 0.8381 0.8386 0.8391
2283.939934 0.8396 0.8400 0.8403 0.8405 0.8408
2288.609934 0.8410 0.8410 0.8410 0.8410 0.8410
2293.279933 0.8410 0.8410 0.8410 0.8410 0.8410
2297.949933 0.8410 0.8410 0.8410 0.8410 0.8410
2302.619933 0.8410 0.8410 0.8410 0.8410 0.8410
2307.289933 0.8410 0.8407 0.8405 0.8402 0.8399
2311.959933 0.8394 0.8389 0.8384 0.8379 0.8369
2316.629932 0.8359 0.8349 0.8339 0.8332 0.8324
2321.299932 0.8317 0.8309 0.8302 0.8294 0.8287
2325.969932 0.8280 0.8275 0.8270 0.8265 0.8260
2330.639932 0.8257 0.8255 0.8252 0.8250 0.8242
2335.309932 0.8234 0.8227 0.8219 0.8212 0.8204
2339.979931 0.8197 0.8190 0.8185 0.8180 0.8175
2344.649931 0.8170 0.8170 0.8170 0.8170 0.8170
2349.319931 0.8167 0.8165 0.8162 0.8160 0.8160
2353.989931 0.8160 0.8160 0.8160 0.8155 0.8150
2358.659931 0.8145 0.8140 0.8140 0.8140 0.8140
2363.329930 0.8140 0.8140 0.8140 0.8140 0.8140
2367.999930 0.8145 0.8150 0.8155 0.8160 0.8160
2372.669930 0.8160 0.8160 0.8160 0.8163 0.8165
2377.339930 0.8167 0.8170 0.8175 0.8180 0.8185
2382.009930 0.8190 0.8190 0.8190 0.8190 0.8190
2386.679929 0.8192 0.8195 0.8197 0.8200 0.8207
2391.349929 0.8214 0.8222 0.8229 0.8235 0.8240
2396.019929 0.8245 0.8250 0.8250 0.8250 0.8250
2400.689929 0.8250 0.8250 0.8250 0.8250 0.8250
2405.359929 0.8252 0.8255 0.8257 0.8260 0.8260
2410.029929 0.8260 0.8260 0.8260 0.8260 0.8260
2414.699928 0.8260 0.8260 0.8260 0.8260 0.8260
2419.369928 0.8260 0.8253 0.8246 0.8239 0.8231
2424.039928 0.8230 0.8230 0.8230 0.8230 0.8228
2428.709928 0.8225 0.8223 0.8220 0.8220 0.8220
2433.379928 0.8220 0.8220 0.8216 0.8211 0.8206
2438.049927 0.8201 0.8198 0.8196 0.8193 0.8191
2442.719927 0.8186 0.8181 0.8176 0.8171 0.8170
2447.389927 0.8170 0.8170 0.8170 0.8170 0.8170
2452.059927 0.8170 0.8170 0.8170 0.8170 0.8170
2456.729927 0.8170 0.8170 0.8170 0.8170 0.8170
2461.399926 0.8170 0.8170 0.8170 0.8170 0.8170
2466.069926 0.8170 0.8170 0.8170 0.8168 0.8166
2470.739926 0.8163 0.8161 0.8160 0.8160 0.8160
2475.409926 0.8160 0.8160 0.8160 0.8160 0.8160
2480.079926 0.8157 0.8152 0.8147 0.8142 0.8140
2484.749925 0.8140 0.8140 0.8140 0.8140 0.8140
2489.419925 0.8140 0.8140 0.8140 0.8140 0.8140
2494.089925 0.8140 0.8140 0.8140 0.8140 0.8140
2498.759925 0.8138 0.8136 0.8133 0.8131 0.8125
2503.429925 0.8118 0.8110 0.8103 0.8097 0.8092
2508.099924 0.8087 0.8082 0.8079 0.8076 0.8074
2512.769924 0.8071 0.8070 0.8070 0.8070 0.8070
2517.439924 0.8070 0.8070 0.8070 0.8070 0.8070
2522.109924 0.8070 0.8070 0.8070 0.8070 0.8070
2526.779924 0.8070 0.8070 0.8070 0.8070 0.8070
2531.449924 0.8070 0.8070 0.8070 0.8070 0.8070
2536.119923 0.8067 0.8062 0.8057 0.8052 0.8050
2540.789923 0.8050 0.8050 0.8050 0.8050 0.8050
2545.459923 0.8050 0.8050 0.8049 0.8046 0.8044
2550.129923 0.8041 0.8040 0.8040 0.8040 0.8040
2554.799923 0.8040 0.8040 0.8040 0.8040 0.8038
2559.469922 0.8033 0.8028 0.8023 0.8020 0.8020
2564.139922 0.8020 0.8020 0.8020 0.8020 0.8020
2568.809922 0.8020 0.8019 0.8016 0.8014 0.8011
2573.479922 0.8010 0.8010 0.8010 0.8010 0.8009
2578.149922 0.8006 0.8004 0.8001 0.8000 0.8000
2582.819921 0.8000 0.8000 0.7998 0.7993 0.7988
2587.489921 0.7983 0.7980 0.7980 0.7980 0.7980
2592.159921 0.7980 0.7980 0.7980 0.7980 0.7979
2596.829921 0.7977 0.7974 0.7972 0.7970 0.7970
2601.499921 0.7970 0.7970 0.7970 0.7970 0.7970
2606.169920 0.7970 0.7968 0.7963 0.7958 0.7953
2610.839920 0.7950 0.7950 0.7950 0.7950 0.7950
2615.509920 0.7950 0.7950 0.7950 0.7949 0.7947
2620.179920 0.7944 0.7942 0.7940 0.7940 0.7940
2624.849920 0.7940 0.7940 0.7940 0.7940 0.7940
2629.519919 0.7940 0.7940 0.7940 0.7940 0.7939
2634.189919 0.7934 0.7929 0.7924 0.7920 0.7920
2638.859919 0.7920 0.7920 0.7920 0.7920 0.7920
2643.529919 0.7920 0.7919 0.7917 0.7914 0.7912
2648.199919 0.7910 0.7910 0.7910 0.7910 0.7910
2652.869919 0.7910 0.7910 0.7910 0.7910 0.7910
2657.539918 0.7910 0.7910 0.7909 0.7904 0.7899
2662.209918 0.7894 0.7890 0.7890 0.7890 0.7890
2666.879918 0.7890 0.7890 0.7890 0.7890 0.7890
2671.549918 0.7887 0.7885 0.7882 0.7880 0.7880
2676.219918 0.7880 0.7880 0.7880 0.7880 0.7880
2680.889917 0.7880 0.7880 0.7880 0.7880 0.7880
2685.559917 0.7879 0.7874 0.7869 0.7864 0.7860
2690.229917 0.7860 0.7860 0.7860 0.7860 0.7860
2694.899917 0.7860 0.7860 0.7860 0.7857 0.7855
2699.569917 0.7852 0.7850 0.7850 0.7850 0.7850
2704.239916 0.7850 0.7845 0.7840 0.7835 0.7830
2708.909916 0.7830 0.7830 0.7830 0.7830 0.7830
2713.579916 0.7830 0.7830 0.7830 0.7827 0.7825
2718.249916 0.7822 0.7820 0.7820 0.7820 0.7820
2722.919916 0.7820 0.7820 0.7820 0.7820 0.7820
2727.589915 0.7815 0.7810 0.7805 0.7800 0.7800
2732.259915 0.7800 0.7800 0.7800 0.7798 0.7795
2736.929915 0.7793 0.7790 0.7785 0.7780 0.7775
2741.599915 0.7770 0.7770 0.7770 0.7770 0.7770
2746.269915 0.7770 0.7770 0.7770 0.7770 0.7770
2750.939914 0.7770 0.7770 0.7770 0.7770 0.7770
2755.609914 0.7770 0.7770 0.7770 0.7770 0.7770
2760.279914 0.7770 0.7768 0.7765 0.7763 0.7760
2764.949914 0.7755 0.7750 0.7745 0.7740 0.7740
2769.619914 0.7740 0.7740 0.7740 0.7738 0.7735
2774.289913 0.7733 0.7730 0.7726 0.7721 0.7716
2778.959913 0.7711 0.7710 0.7710 0.7710 0.7710
2783.629913 0.7708 0.7705 0.7703 0.7700 0.7680
2788.299913 0.7657 0.7635 0.7612 0.7603 0.7596
2792.969913 0.7588 0.7581 0.7573 0.7566 0.7559
2797.639913 0.7551 0.7550 0.7550 0.7550 0.7550
2802.309912 0.7550 0.7550 0.7550 0.7550 0.7550
2806.979912 0.7550 0.7550 0.7550 0.7546 0.7541
2811.649912 0.7536 0.7531 0.7530 0.7530 0.7530
2816.319912 0.7530 0.7528 0.7526 0.7523 0.7521
2820.989912 0.7520 0.7520 0.7520 0.7520 0.7520
2825.659911 0.7520 0.7520 0.7520 0.7516 0.7511
2830.329911 0.7506 0.7501 0.7500 0.7500 0.7500
2834.999911 0.7500 0.7500 0.7500 0.7500 0.7500
2839.669911 0.7493 0.7483 0.7473 0.7463 0.7455
2844.339911 0.7447 0.7440 0.7432 0.7421 0.7409
2849.009910 0.7396 0.7384 0.7375 0.7367 0.7360
2853.679910 0.7352 0.7340 0.7325 0.7310 0.7295
2858.349910 0.7285 0.7277 0.7270 0.7262 0.7253
2863.019910 0.7243 0.7233 0.7223 0.7215 0.7207
2867.689910 0.7200 0.7192 0.7187 0.7182 0.7177
2872.359909 0.7172 0.7170 0.7170 0.7170 0.7170
2877.029909 0.7170 0.7170 0.7170 0.7170 0.7168
2881.699909 0.7166 0.7163 0.7161 0.7160 0.7160
2886.369909 0.7160 0.7160 0.7160 0.7160 0.7160
2891.039909 0.7160 0.7156 0.7148 0.7141 0.7133
2895.709908 0.7126 0.7118 0.7111 0.7103 0.7097
2900.379908 0.7092 0.7087 0.7082 0.7076 0.7068
2905.049908 0.7061 0.7053 0.7043 0.7030 0.7018
2909.719908 0.7006 0.6992 0.6977 0.6962 0.6947
2914.389908 0.6933 0.6921 0.6908 0.6896 0.6882
2919.059908 0.6867 0.6852 0.6837 0.6826 0.6819
2923.729907 0.6811 0.6804 0.6799 0.6796 0.6794
2928.399907 0.6791 0.6791 0.6794 0.6796 0.6799
2933.069907 0.6816 0.6852 0.6887 0.6923 0.6945
2937.739907 0.6955 0.6965 0.6975 0.6991 0.7013
2942.409907 0.7036 0.7058 0.7081 0.7103 0.7125
2947.079906 0.7148 0.7163 0.7171 0.7178 0.7186
2951.749906 0.7193 0.7201 0.7208 0.7216 0.7221
2956.419906 0.7224 0.7226 0.7229 0.7230 0.7230
2961.089906 0.7230 0.7230 0.7229 0.7227 0.7224
2965.759906 0.7222 0.7217 0.7210 0.7202 0.7195
2970.429905 0.7188 0.7183 0.7178 0.7173 0.7169
2975.099905 0.7166 0.7164 0.7162 0.7157 0.7150
2979.769905 0.7142 0.7135 0.7130 0.7130 0.7130
2984.439905 0.7130 0.7126 0.7113 0.7101 0.7088
2989.109905 0.7075 0.7060 0.7045 0.7030 0.7014
2993.779904 0.6997 0.6980 0.6962 0.6945 0.6931
2998.449904 0.6916 0.6901 0.6888 0.6880 0.6873
3003.119904 0.6865 0.6859 0.6857 0.6854 0.6852
3007.789904 0.6846 0.6831 0.6816 0.6800 0.6779
3012.459904 0.6744 0.6709 0.6675 0.6638 0.6599
3017.129903 0.6559 0.6519 0.6482 0.6455 0.6428
3021.799903 0.6400 0.6372 0.6342 0.6313 0.6283
3026.469903 0.6251 0.6214 0.6176 0.6139 0.6102
3031.139903 0.6067 0.6033 0.5998 0.5968 0.5961
3035.809903 0.5954 0.5946 0.5939 0.5934 0.5929
3040.479903 0.5924 0.5921 0.5926 0.5931 0.5936
3045.149902 0.5940 0.5943 0.5945 0.5948 0.5953
3049.819902 0.5965 0.5978 0.5990 0.6001 0.6006
3054.489902 0.6011 0.6016 0.6019 0.6014 0.6009
3059.159902 0.6004 0.5999 0.5991 0.5984 0.5976
3063.829902 0.5968 0.5953 0.5938 0.5923 0.5909
3068.499901 0.5904 0.5899 0.5894 0.5891 0.5898
3073.169901 0.5906 0.5913 0.5924 0.5963 0.6003
3077.839901 0.6043 0.6082 0.6117 0.6152 0.6187
3082.509901 0.6222 0.6252 0.6282 0.6313 0.6343
3087.179901 0.6368 0.6393 0.6417 0.6443 0.6470
3091.849900 0.6497 0.6525 0.6551 0.6569 0.6586
3096.519900 0.6604 0.6621 0.6641 0.6661 0.6681
3101.189900 0.6701 0.6718 0.6736 0.6753 0.6770
3105.859900 0.6785 0.6800 0.6815 0.6830 0.6843
3110.529900 0.6855 0.6867 0.6880 0.6895 0.6910
3115.199899 0.6925 0.6940 0.6950 0.6960 0.6970
3119.869899 0.6980 0.6990 0.7000 0.7010 0.7020
3124.539899 0.7033 0.7045 0.7057 0.7070 0.7077
3129.209899 0.7085 0.7092 0.7100 0.7107 0.7115
3133.879899 0.7122 0.7130 0.7132 0.7135 0.7137
3138.549898 0.7140 0.7140 0.7140 0.7140 0.7140
3143.219898 0.7140 0.7140 0.7140 0.7140 0.7140
3147.889898 0.7140 0.7140 0.7140 0.7140 0.7140
3152.559898 0.7140 0.7140 0.7140 0.7140 0.7140
3157.229898 0.7140 0.7140 0.7140 0.7140 0.7140
3161.899898 0.7140 0.7140 0.7140 0.7140 0.7138
3166.569897 0.7135 0.7133 0.7130 0.7130 0.7130
3171.239897 0.7130 0.7130 0.7126 0.7121 0.7116
3175.909897 0.7111 0.7110 0.7110 0.7110 0.7110
3180.579897 0.7108 0.7105 0.7103 0.7100 0.7100
3185.249897 0.7100 0.7100 0.7100 0.7096 0.7091
3189.919896 0.7086 0.7081 0.7080 0.7080 0.7080
3194.589896 0.7080 0.7078 0.7076 0.7073 0.7070
3199.259896 0.7070 0.7070 0.7070 0.7070 0.7066
3203.929896 0.7061 0.7056 0.7051 0.7044 0.7037
3208.599896 0.7029 0.7022 0.7020 0.7020 0.7020
3213.269895 0.7020 0.7020 0.7020 0.7020 0.7020
3217.939895 0.7018 0.7016 0.7013 0.7011 0.7008
3222.609895 0.7006 0.7003 0.7001 0.7000 0.7000
3227.279895 0.7000 0.7000 0.6997 0.6992 0.6987
3231.949895 0.6982 0.6978 0.6976 0.6973 0.6971
3236.619894 0.6965 0.6957 0.6950 0.6942 0.6937
3241.289894 0.6932 0.6927 0.6922 0.6918 0.6916
3245.959894 0.6913 0.6911 0.6907 0.6902 0.6897
3250.629894 0.6892 0.6888 0.6886 0.6883 0.6881
3255.299894 0.6877 0.6872 0.6867 0.6862 0.6855
3259.969893 0.6848 0.6841 0.6833 0.6826 0.6818
3264.639893 0.6811 0.6803 0.6796 0.6788 0.6781
3269.309893 0.6773 0.6769 0.6766 0.6764 0.6761
3273.979893 0.6757 0.6752 0.6747 0.6742 0.6739
3278.649893 0.6736 0.6734 0.6731 0.6730 0.6730
3283.319892 0.6730 0.6730 0.6730 0.6730 0.6730
3287.989892 0.6730 0.6727 0.6722 0.6717 0.6712
3292.659892 0.6710 0.6710 0.6710 0.6710 0.6709
3297.329892 0.6706 0.6704 0.6701 0.6700 0.6700
3301.999892 0.6700 0.6700 0.6698 0.6693 0.6688
3306.669892 0.6683 0.6680 0.6680 0.6680 0.6680
3311.339891 0.6679 0.6676 0.6674 0.6671 0.6668
3316.009891 0.6663 0.6658 0.6653 0.6649 0.6646
3320.679891 0.6644 0.6641 0.6637 0.6629 0.6622
3325.349891 0.6614 0.6607 0.6599 0.6592 0.6584
3330.019891 0.6577 0.6569 0.6562 0.6554 0.6547
3334.689890 0.6539 0.6532 0.6525 0.6517 0.6510
3339.359890 0.6502 0.6495 0.6487 0.6480 0.6472
3344.029890 0.6465 0.6457 0.6450 0.6442 0.6434
3348.699890 0.6425 0.6412 0.6400 0.6388 0.6377
3353.369890 0.6370 0.6362 0.6355 0.6347 0.6340
3358.039889 0.6332 0.6325 0.6316 0.6306 0.6297
3362.709889 0.6287 0.6275 0.6260 0.6245 0.6230
3367.379889 0.6214 0.6194 0.6174 0.6154 0.6140
3372.049889 0.6140 0.6140 0.6140 0.6137 0.6127
3376.719889 0.6117 0.6107 0.6099 0.6094 0.6089
3381.389888 0.6084 0.6078 0.6070 0.6063 0.6055
3386.059888 0.6049 0.6047 0.6044 0.6042 0.6039
3390.729888 0.6034 0.6029 0.6024 0.6019 0.6014
3395.399888 0.6009 0.6004 0.5998 0.5991 0.5983
3400.069888 0.5976 0.5968 0.5961 0.5953 0.5946
3404.739887 0.5938 0.5931 0.5923 0.5916 0.5907
3409.409887 0.5895 0.5883 0.5870 0.5859 0.5851
3414.079887 0.5844 0.5836 0.5828 0.5818 0.5808
3418.749887 0.5798 0.5789 0.5781 0.5774 0.5766
3423.419887 0.5757 0.5745 0.5732 0.5720 0.5708
3428.089887 0.5698 0.5688 0.5678 0.5668 0.5655
3432.759886 0.5643 0.5630 0.5620 0.5617 0.5615
3437.429886 0.5612 0.5610 0.5610 0.5610 0.5610
3442.099886 0.5610 0.5613 0.5615 0.5618 0.5620
3446.769886 0.5620 0.5620 0.5620 0.5620 0.5625
3451.439886 0.5630 0.5635 0.5640 0.5640 0.5640
3456.109885 0.5640 0.5640 0.5640 0.5640 0.5640
3460.779885 0.5640 0.5643 0.5645 0.5648 0.5650
3465.449885 0.5655 0.5660 0.5665 0.5670 0.5673
3470.119885 0.5675 0.5678 0.5680 0.5680 0.5680
3474.789885 0.5680 0.5680 0.5685 0.5690 0.5695
3479.459884 0.5700 0.5708 0.5715 0.5723 0.5730
3484.129884 0.5738 0.5745 0.5752 0.5760 0.5767
3488.799884 0.5775 0.5782 0.5790 0.5797 0.5805
3493.469884 0.5812 0.5820 0.5822 0.5825 0.5827
3498.139884 0.5830 0.5830 0.5830 0.5830 0.5830
3502.809883 0.5835 0.5840 0.5845 0.5850 0.5850
3507.479883 0.5850 0.5850 0.5850 0.5852 0.5855
3512.149883 0.5857 0.5860 0.5865 0.5870 0.5875
3516.819883 0.5880 0.5887 0.5894 0.5902 0.5909
3521.489883 0.5917 0.5924 0.5932 0.5939 0.5942
3526.159882 0.5945 0.5947 0.5950 0.5957 0.5964
3530.829882 0.5971 0.5979 0.5984 0.5989 0.5994
3535.499882 0.6000 0.6002 0.6005 0.6007 0.6010
3540.169882 0.6017 0.6024 0.6032 0.6039 0.6042
3544.839882 0.6045 0.6047 0.6050 0.6054 0.6059
3549.509882 0.6064 0.6069 0.6072 0.6075 0.6077
3554.179881 0.6080 0.6084 0.6089 0.6094 0.6099
3558.849881 0.6106 0.6114 0.6121 0.6128 0.6132
3563.519881 0.6134 0.6137 0.6139 0.6144 0.6149
3568.189881 0.6154 0.6159 0.6162 0.6164 0.6167
3572.859881 0.6170 0.6174 0.6179 0.6184 0.6189
3577.529880 0.6192 0.6194 0.6197 0.6199 0.6206
3582.199880 0.6213 0.6221 0.6228 0.6234 0.6239
3586.869880 0.6244 0.6249 0.6252 0.6254 0.6257
3591.539880 0.6259 0.6265 0.6273 0.6280 0.6288
3596.209880 0.6294 0.6299 0.6303 0.6308 0.6312
3600.879879 0.6314 0.6317 0.6319 0.6320 0.6320
3605.549879 0.6320 0.6320 0.6323 0.6328 0.6333
3610.219879 0.6339 0.6342 0.6344 0.6347 0.6349
3614.889879 0.6350 0.6350 0.6350 0.6350 0.6355
3619.559879 0.6363 0.6370 0.6377 0.6383 0.6388
3624.229878 0.6393 0.6398 0.6402 0.6404 0.6407
3628.899878 0.6409 0.6413 0.6418 0.6423 0.6428
3633.569878 0.6432 0.6434 0.6436 0.6439 0.6443
3638.239878 0.6448 0.6453 0.6458 0.6461 0.6464
3642.909878 0.6466 0.6469 0.6473 0.6478 0.6483
3647.579877 0.6488 0.6492 0.6494 0.6497 0.6499
3652.249877 0.6503 0.6508 0.6513 0.6518 0.6521
3656.919877 0.6524 0.6526 0.6529 0.6533 0.6538
3661.589877 0.6543 0.6548 0.6551 0.6554 0.6556
3666.259877 0.6559 0.6560 0.6560 0.6560 0.6560
3670.929877 0.6563 0.6568 0.6572 0.6577 0.6580
3675.599876 0.6580 0.6580 0.6580 0.6581 0.6584
3680.269876 0.6586 0.6589 0.6592 0.6597 0.6602
3684.939876 0.6608 0.6610 0.6610 0.6610 0.6610
3689.609876 0.6611 0.6614 0.6616 0.6619 0.6620
3694.279876 0.6620 0.6620 0.6620 0.6622 0.6627
3698.949875 0.6632 0.6637 0.6640 0.6640 0.6640
3703.619875 0.6640 0.6640 0.6640 0.6640 0.6640
3708.289875 0.6640 0.6640 0.6640 0.6640 0.6640
3712.959875 0.6640 0.6640 0.6640 0.6640 0.6640
3717.629875 0.6640 0.6640 0.6640 0.6640 0.6640
3722.299874 0.6640 0.6640 0.6640 0.6640 0.6640
3726.969874 0.6640 0.6640 0.6640 0.6640 0.6640
3731.639874 0.6640 0.6640 0.6640 0.6640 0.6640
3736.309874 0.6640 0.6640 0.6640 0.6640 0.6640
3740.979874 0.6640 0.6638 0.6633 0.6628 0.6623
3745.649873 0.6620 0.6620 0.6620 0.6620 0.6620
3750.319873 0.6620 0.6620 0.6620 0.6618 0.6610
3754.989873 0.6603 0.6596 0.6588 0.6580 0.6573
3759.659873 0.6565 0.6560 0.6560 0.6560 0.6560
3764.329873 0.6559 0.6557 0.6554 0.6552 0.6550
3768.999872 0.6550 0.6550 0.6550 0.6551 0.6553
3773.669872 0.6556 0.6558 0.6561 0.6566 0.6571
3778.339872 0.6576 0.6581 0.6583 0.6586 0.6588
3783.009872 0.6593 0.6605 0.6618 0.6630 0.6640
3787.679872 0.6643 0.6645 0.6648 0.6650 0.6650
3792.349871 0.6650 0.6650 0.6650 0.6650 0.6650
3797.019871 0.6650 0.6650 0.6650 0.6650 0.6650
3801.689871 0.6650 0.6650 0.6650 0.6650 0.6650
3806.359871 0.6647 0.6645 0.6642 0.6639 0.6634
3811.029871 0.6629 0.6624 0.6620 0.6617 0.6615
3815.699871 0.6612 0.6609 0.6604 0.6599 0.6594
3820.369870 0.6590 0.6587 0.6585 0.6582 0.6580
3825.039870 0.6580 0.6580 0.6580 0.6580 0.6575
3829.709870 0.6570 0.6565 0.6560 0.6560 0.6560
3834.379870 0.6560 0.6560 0.6557 0.6555 0.6552
3839.049870 0.6550 0.6550 0.6550 0.6550 0.6550
3843.719869 0.6545 0.6540 0.6535 0.6530 0.6530
3848.389869 0.6530 0.6530 0.6530 0.6527 0.6525
3853.059869 0.6522 0.6520 0.6520 0.6520 0.6520
3857.729869 0.6520 0.6515 0.6510 0.6505 0.6500
3862.399869 0.6500 0.6500 0.6500 0.6500 0.6500
3867.069868 0.6500 0.6500 0.6500 0.6500 0.6500
3871.739868 0.6500 0.6500 0.6500 0.6500 0.6500
3876.409868 0.6500 0.6500 0.6500 0.6500 0.6500
3881.079868 0.6500 0.6500 0.6500 0.6500 0.6500
3885.749868 0.6500 0.6500 0.6500 0.6500 0.6500
3890.419867 0.6500 0.6500 0.6505 0.6510 0.6515
3895.089867 0.6520 0.6520 0.6520 0.6520 0.6520
3899.759867 0.6522 0.6525 0.6527 0.6530 0.6530
3904.429867 0.6530 0.6530 0.6530 0.6530 0.6530
3909.099867 0.6530 0.6530 0.6528 0.6525 0.6523
3913.769866 0.6520 0.6516 0.6511 0.6506 0.6501
3918.439866 0.6493 0.6486 0.6478 0.6471 0.6464
3923.109866 0.6456 0.6449 0.6441 0.6438 0.6435
3927.779866 0.6433 0.6430 0.6430 0.6430 0.6430
3932.449866 0.6430 0.6436 0.6444 0.6451 0.6458
3937.119866 0.6468 0.6478 0.6488 0.6498 0.6506
3941.789865 0.6513 0.6521 0.6528 0.6530 0.6530
3946.459865 0.6530 0.6530 0.6534 0.6539 0.6544
3951.129865 0.6549 0.6550 0.6550 0.6550 0.6550
3955.799865 0.6546 0.6541 0.6536 0.6531 0.6524
3960.469865 0.6517 0.6509 0.6502 0.6498 0.6496
3965.139864 0.6493 0.6491 0.6485 0.6477 0.6470
3969.809864 0.6462 0.6455 0.6447 0.6440 0.6432
3974.479864 0.6425 0.6417 0.6410 0.6402 0.6397
3979.149864 0.6392 0.6387 0.6382 0.6378 0.6376
3983.819864 0.6373 0.6371 0.6370 0.6370 0.6370
3988.489863 0.6370 0.6367 0.6362 0.6357 0.6352
3993.159863 0.6350 0.6350 0.6350 0.6350
##END=
