##TITLE=Ethylenediamine dihydrochloride
##JCAMP-DX=4.24
$$ By DXEDIT 1.05 (RS McDonald)
##DATA TYPE=INFRARED SPECTRUM
##CLASS=COBLENTZ III
##ORIGIN=DOW CHEMICAL COMPANY
##OWNER=COPYRIGHT (C) 1988 by COBLENTZ SOCIETY INC.
Collection (C) 2018 copyright by the U.S. Secretary of Commerce
on behalf of the United States of America. All rights reserved.
##DATE=1964/04/30
##MOLFORM=C2 H10 Cl2 N2
##SOURCE REFERENCE=COBLENTZ NO. 06441
##$NIST ID=B6006441
##$NIST SOURCE=COBLENTZ
##$NIST IMAGE=cob6441
##SPECTROMETER/DATA SYSTEM=DOW KBr FOREPRISM-GRATING
##INSTRUMENT PARAMETERS=BLAZED AT 3.5, 12.0, 20.0 MICRON AND CHANGED AT 5.0, 7.5, 14.9 MICRON
##STATE=SOLID (SPLIT MULL)
##SAMPLING PROCEDURE=TRANSMISSION
##RESOLUTION=2
##DATA PROCESSING=DIGITIZED BY COBLENTZ SOCIETY (BATCH I) FROM HARD COPY
##XUNITS=1/CM
##YUNITS=TRANSMITTANCE
##XFACTOR=1
##YFACTOR=1
##DELTAX=1
##FIRSTX=3790
##LASTX=382
##FIRSTY=0.6646
##MAXX=3790
##MINX=382
##MAXY=0.8855
##MINY=0.0528
##NPOINTS=3409
##XYDATA=(X++(Y..Y))
3790.000000 0.6646 0.6648 0.6650 0.6651 0.6655
3785.000000 0.6657 0.6658 0.6661 0.6662 0.6665
3780.000000 0.6667 0.6668 0.6671 0.6672 0.6675
3775.000000 0.6676 0.6680 0.6682 0.6684 0.6686
3770.000000 0.6688 0.6690 0.6692 0.6694 0.6696
3765.000000 0.6699 0.6703 0.6706 0.6710 0.6714
3760.000000 0.6718 0.6721 0.6725 0.6728 0.6733
3755.000000 0.6737 0.6741 0.6745 0.6749 0.6751
3750.000000 0.6756 0.6760 0.6764 0.6768 0.6771
3745.000000 0.6775 0.6778 0.6783 0.6787 0.6791
3740.000000 0.6795 0.6798 0.6801 0.6805 0.6808
3735.000000 0.6811 0.6815 0.6818 0.6821 0.6824
3730.000000 0.6828 0.6831 0.6834 0.6837 0.6841
3725.000000 0.6844 0.6847 0.6850 0.6854 0.6857
3720.000000 0.6860 0.6862 0.6867 0.6869 0.6872
3715.000000 0.6875 0.6880 0.6883 0.6886 0.6889
3710.000000 0.6893 0.6896 0.6899 0.6901 0.6906
3705.000000 0.6908 0.6911 0.6915 0.6918 0.6921
3700.000000 0.6925 0.6930 0.6934 0.6938 0.6942
3695.000000 0.6946 0.6950 0.6954 0.6958 0.6961
3690.000000 0.6965 0.6969 0.6974 0.6978 0.6982
3685.000000 0.6986 0.6990 0.6994 0.6998 0.7001
3680.000000 0.7006 0.7010 0.7014 0.7018 0.7021
3675.000000 0.7025 0.7028 0.7033 0.7037 0.7041
3670.000000 0.7045 0.7049 0.7053 0.7057 0.7061
3665.000000 0.7065 0.7068 0.7072 0.7076 0.7081
3660.000000 0.7085 0.7089 0.7093 0.7097 0.7101
3655.000000 0.7105 0.7108 0.7112 0.7117 0.7121
3650.000000 0.7125 0.7128 0.7133 0.7136 0.7140
3645.000000 0.7144 0.7148 0.7151 0.7156 0.7160
3640.000000 0.7164 0.7168 0.7171 0.7175 0.7180
3635.000000 0.7183 0.7187 0.7191 0.7195 0.7199
3630.000000 0.7203 0.7207 0.7211 0.7215 0.7218
3625.000000 0.7222 0.7226 0.7230 0.7234 0.7238
3620.000000 0.7242 0.7246 0.7250 0.7253 0.7257
3615.000000 0.7261 0.7265 0.7268 0.7272 0.7275
3610.000000 0.7280 0.7283 0.7286 0.7289 0.7293
3605.000000 0.7296 0.7299 0.7301 0.7305 0.7308
3600.000000 0.7311 0.7312 0.7314 0.7315 0.7315
3595.000000 0.7317 0.7317 0.7317 0.7315 0.7311
3590.000000 0.7307 0.7294 0.7281 0.7265 0.7249
3585.000000 0.7231 0.7212 0.7219 0.7228 0.7238
3580.000000 0.7248 0.7258 0.7269 0.7280 0.7291
3575.000000 0.7301 0.7312 0.7321 0.7331 0.7338
3570.000000 0.7345 0.7351 0.7360 0.7367 0.7375
3565.000000 0.7382 0.7389 0.7396 0.7403 0.7407
3560.000000 0.7411 0.7417 0.7421 0.7425 0.7431
3555.000000 0.7436 0.7441 0.7445 0.7450 0.7455
3550.000000 0.7460 0.7464 0.7468 0.7474 0.7478
3545.000000 0.7483 0.7488 0.7493 0.7498 0.7501
3540.000000 0.7507 0.7511 0.7517 0.7521 0.7525
3535.000000 0.7530 0.7534 0.7537 0.7540 0.7542
3530.000000 0.7545 0.7548 0.7551 0.7553 0.7556
3525.000000 0.7558 0.7561 0.7564 0.7567 0.7568
3520.000000 0.7571 0.7575 0.7578 0.7580 0.7583
3515.000000 0.7585 0.7588 0.7591 0.7594 0.7596
3510.000000 0.7599 0.7601 0.7605 0.7607 0.7610
3505.000000 0.7612 0.7615 0.7618 0.7621 0.7622
3500.000000 0.7625 0.7628 0.7632 0.7635 0.7638
3495.000000 0.7641 0.7645 0.7648 0.7651 0.7654
3490.000000 0.7657 0.7660 0.7662 0.7665 0.7668
3485.000000 0.7671 0.7675 0.7678 0.7682 0.7685
3480.000000 0.7688 0.7691 0.7694 0.7697 0.7700
3475.000000 0.7703 0.7706 0.7710 0.7714 0.7718
3470.000000 0.7721 0.7725 0.7731 0.7735 0.7740
3465.000000 0.7744 0.7748 0.7751 0.7757 0.7761
3460.000000 0.7765 0.7769 0.7775 0.7778 0.7783
3455.000000 0.7787 0.7792 0.7796 0.7801 0.7805
3450.000000 0.7808 0.7812 0.7818 0.7821 0.7826
3445.000000 0.7831 0.7835 0.7839 0.7844 0.7848
3440.000000 0.7853 0.7857 0.7861 0.7865 0.7871
3435.000000 0.7875 0.7882 0.7887 0.7893 0.7898
3430.000000 0.7904 0.7908 0.7915 0.7919 0.7925
3425.000000 0.7931 0.7937 0.7942 0.7948 0.7953
3420.000000 0.7958 0.7964 0.7969 0.7975 0.7981
3415.000000 0.7986 0.7992 0.7997 0.8003 0.8008
3410.000000 0.8014 0.8018 0.8025 0.8030 0.8036
3405.000000 0.8042 0.8048 0.8054 0.8060 0.8065
3400.000000 0.8071 0.8076 0.8083 0.8089 0.8095
3395.000000 0.8101 0.8107 0.8112 0.8118 0.8124
3390.000000 0.8130 0.8136 0.8142 0.8148 0.8154
3385.000000 0.8160 0.8165 0.8171 0.8178 0.8184
3380.000000 0.8191 0.8197 0.8203 0.8209 0.8216
3375.000000 0.8221 0.8228 0.8235 0.8241 0.8247
3370.000000 0.8254 0.8260 0.8266 0.8271 0.8278
3365.000000 0.8285 0.8291 0.8297 0.8304 0.8310
3360.000000 0.8317 0.8323 0.8328 0.8335 0.8341
3355.000000 0.8346 0.8352 0.8357 0.8363 0.8368
3350.000000 0.8374 0.8378 0.8385 0.8390 0.8396
3345.000000 0.8401 0.8407 0.8412 0.8418 0.8423
3340.000000 0.8428 0.8434 0.8440 0.8445 0.8451
3335.000000 0.8456 0.8462 0.8467 0.8473 0.8478
3330.000000 0.8485 0.8491 0.8497 0.8503 0.8509
3325.000000 0.8515 0.8521 0.8527 0.8533 0.8539
3320.000000 0.8545 0.8551 0.8557 0.8562 0.8568
3315.000000 0.8573 0.8578 0.8584 0.8590 0.8595
3310.000000 0.8600 0.8605 0.8611 0.8616 0.8621
3305.000000 0.8627 0.8633 0.8638 0.8644 0.8649
3300.000000 0.8654 0.8659 0.8665 0.8670 0.8675
3295.000000 0.8681 0.8687 0.8692 0.8698 0.8702
3290.000000 0.8706 0.8709 0.8712 0.8715 0.8718
3285.000000 0.8721 0.8724 0.8727 0.8730 0.8733
3280.000000 0.8736 0.8740 0.8745 0.8750 0.8755
3275.000000 0.8759 0.8764 0.8768 0.8773 0.8775
3270.000000 0.8768 0.8782 0.8782 0.8782 0.8780
3265.000000 0.8775 0.8771 0.8767 0.8763 0.8758
3260.000000 0.8754 0.8747 0.8741 0.8734 0.8728
3255.000000 0.8721 0.8716 0.8695 0.8675 0.8650
3250.000000 0.8625 0.8588 0.8550 0.8510 0.8470
3245.000000 0.8427 0.8385 0.8343 0.8301 0.8161
3240.000000 0.8021 0.7972 0.7925 0.7891 0.7858
3235.000000 0.7840 0.7821 0.7804 0.7786 0.7782
3230.000000 0.7778 0.7778 0.7778 0.7776 0.7776
3225.000000 0.7791 0.7806 0.7839 0.7942 0.7897
3220.000000 0.7921 0.7922 0.7924 0.7922 0.7919
3215.000000 0.7901 0.7885 0.7861 0.7839 0.7782
3210.000000 0.7671 0.7694 0.7662 0.7665 0.7668
3205.000000 0.7672 0.7678 0.7686 0.7695 0.7703
3200.000000 0.7711 0.7718 0.7725 0.7731 0.7738
3195.000000 0.7745 0.7751 0.7758 0.7765 0.7771
3190.000000 0.7776 0.7783 0.7790 0.7796 0.7803
3185.000000 0.7810 0.7817 0.7821 0.7851 0.7828
3180.000000 0.7828 0.7819 0.7812 0.7793 0.7774
3175.000000 0.7754 0.7735 0.7712 0.7691 0.7654
3170.000000 0.7617 0.7589 0.7561 0.7532 0.7503
3165.000000 0.7468 0.7434 0.7401 0.7369 0.7339
3160.000000 0.7308 0.7278 0.7248 0.7215 0.7182
3155.000000 0.7136 0.7091 0.7033 0.6975 0.6892
3150.000000 0.6808 0.6751 0.6696 0.6644 0.6592
3145.000000 0.6561 0.6532 0.6501 0.6472 0.6443
3140.000000 0.6412 0.6383 0.6353 0.6330 0.6308
3135.000000 0.6286 0.6265 0.6243 0.6221 0.6199
3130.000000 0.6178 0.6138 0.6099 0.6050 0.6002
3125.000000 0.5953 0.5905 0.5857 0.5809 0.5738
3120.000000 0.5667 0.5504 0.5342 0.5246 0.5150
3115.000000 0.5108 0.5067 0.5025 0.4984 0.4939
3110.000000 0.4894 0.4842 0.4790 0.4729 0.4668
3105.000000 0.4585 0.4503 0.4460 0.4419 0.4382
3100.000000 0.4346 0.4319 0.4293 0.4278 0.4264
3095.000000 0.4257 0.4251 0.4245 0.4239 0.4232
3090.000000 0.4225 0.4217 0.4210 0.4202 0.4195
3085.000000 0.4179 0.4164 0.4136 0.4109 0.4084
3080.000000 0.4062 0.4039 0.4016 0.3995 0.3973
3075.000000 0.3950 0.3927 0.3898 0.3868 0.3834
3070.000000 0.3799 0.3745 0.3691 0.3609 0.3528
3065.000000 0.3484 0.3443 0.3407 0.3372 0.3334
3060.000000 0.3299 0.3256 0.3214 0.3172 0.3130
3055.000000 0.3095 0.3061 0.3026 0.2992 0.2957
3050.000000 0.2923 0.2882 0.2842 0.2801 0.2760
3045.000000 0.2704 0.2649 0.2553 0.2458 0.2394
3040.000000 0.2330 0.2289 0.2249 0.2208 0.2167
3035.000000 0.2119 0.2071 0.2020 0.1970 0.1884
3030.000000 0.1799 0.1768 0.1737 0.1716 0.1694
3025.000000 0.1676 0.1657 0.1637 0.1619 0.1599
3020.000000 0.1580 0.1555 0.1531 0.1501 0.1472
3015.000000 0.1439 0.1407 0.1339 0.1272 0.1228
3010.000000 0.1184 0.1160 0.1137 0.1121 0.1106
3005.000000 0.1091 0.1076 0.1070 0.1065 0.1066
3000.000000 0.1068 0.1069 0.1071 0.1071 0.1071
2995.000000 0.1071 0.1071 0.1068 0.1066 0.1058
2990.000000 0.1051 0.1042 0.1035 0.1022 0.1009
2985.000000 0.0992 0.0978 0.0961 0.0945 0.0922
2980.000000 0.0899 0.0881 0.0863 0.0851 0.0839
2975.000000 0.0837 0.0835 0.0852 0.0870 0.0888
2970.000000 0.0907 0.0939 0.0971 0.0981 0.0991
2965.000000 0.0989 0.0989 0.0983 0.0976 0.0971
2960.000000 0.0965 0.0957 0.0950 0.0942 0.0934
2955.000000 0.0921 0.0909 0.0904 0.0899 0.0893
2950.000000 0.0889 0.0884 0.0880 0.0878 0.0876
2945.000000 0.0872 0.0871 0.0867 0.0864 0.0859
2940.000000 0.0854 0.0847 0.0842 0.0838 0.0833
2935.000000 0.0828 0.0822 0.0812 0.0801 0.0785
2930.000000 0.0769 0.0755 0.0742 0.0729 0.0717
2925.000000 0.0704 0.0692 0.0679 0.0667 0.0653
2920.000000 0.0640 0.0629 0.0618 0.0607 0.0596
2915.000000 0.0588 0.0581 0.0575 0.0569 0.0562
2910.000000 0.0555 0.0549 0.0543 0.0539 0.0535
2905.000000 0.0531 0.0532 0.0528 0.0528 0.0530
2900.000000 0.0533 0.0538 0.0543 0.0548 0.0553
2895.000000 0.0567 0.0581 0.0599 0.0617 0.0624
2890.000000 0.0631 0.0631 0.0631 0.0631 0.0631
2885.000000 0.0631 0.0631 0.0625 0.0620 0.0614
2880.000000 0.0609 0.0609 0.0609 0.0619 0.0630
2875.000000 0.0641 0.0653 0.0665 0.0678 0.0690
2870.000000 0.0703 0.0716 0.0729 0.0741 0.0754
2865.000000 0.0766 0.0779 0.0791 0.0804 0.0817
2860.000000 0.0830 0.0842 0.0857 0.0872 0.0889
2855.000000 0.0905 0.0921 0.0937 0.0954 0.0971
2850.000000 0.0989 0.1006 0.1022 0.1039 0.1055
2845.000000 0.1070 0.1086 0.1100 0.1115 0.1127
2840.000000 0.1140 0.1153 0.1167 0.1180 0.1192
2835.000000 0.1198 0.1203 0.1206 0.1210 0.1210
2830.000000 0.1210 0.1210 0.1210 0.1209 0.1208
2825.000000 0.1203 0.1199 0.1191 0.1183 0.1164
2820.000000 0.1145 0.1114 0.1083 0.1055 0.1027
2815.000000 0.0999 0.0971 0.0942 0.0916 0.0879
2810.000000 0.0842 0.0792 0.0742 0.0739 0.0738
2805.000000 0.0737 0.0737 0.0736 0.0735 0.0755
2800.000000 0.0776 0.0794 0.0813 0.0832 0.0852
2795.000000 0.0875 0.0899 0.0922 0.0945 0.0966
2790.000000 0.0988 0.1009 0.1030 0.1051 0.1072
2785.000000 0.1102 0.1133 0.1172 0.1211 0.1254
2780.000000 0.1296 0.1346 0.1396 0.1442 0.1491
2775.000000 0.1551 0.1612 0.1644 0.1678 0.1714
2770.000000 0.1750 0.1776 0.1803 0.1820 0.1837
2765.000000 0.1843 0.1851 0.1852 0.1856 0.1859
2760.000000 0.1862 0.1863 0.1865 0.1858 0.1851
2755.000000 0.1833 0.1815 0.1784 0.1754 0.1726
2750.000000 0.1698 0.1684 0.1667 0.1671 0.1671
2745.000000 0.1673 0.1676 0.1716 0.1756 0.1787
2740.000000 0.1821 0.1853 0.1885 0.1917 0.1949
2735.000000 0.1989 0.2029 0.2100 0.2171 0.2221
2730.000000 0.2269 0.2274 0.2278 0.2279 0.2280
2725.000000 0.2280 0.2280 0.2260 0.2241 0.2201
2720.000000 0.2161 0.2112 0.2063 0.2029 0.1996
2715.000000 0.1993 0.1954 0.1987 0.1986 0.2004
2710.000000 0.2021 0.2066 0.2111 0.2178 0.2245
2705.000000 0.2311 0.2378 0.2444 0.2511 0.2577
2700.000000 0.2644 0.2679 0.2714 0.2715 0.2717
2695.000000 0.2702 0.2689 0.2573 0.2457 0.2341
2690.000000 0.2225 0.2108 0.1992 0.1876 0.1760
2685.000000 0.1708 0.1657 0.1659 0.1627 0.1673
2680.000000 0.1684 0.1744 0.1804 0.1874 0.1944
2675.000000 0.1993 0.2041 0.2059 0.2077 0.2081
2670.000000 0.2085 0.2095 0.2105 0.2119 0.2133
2665.000000 0.2166 0.2199 0.2242 0.2285 0.2337
2660.000000 0.2388 0.2442 0.2497 0.2537 0.2577
2655.000000 0.2616 0.2655 0.2684 0.2716 0.2740
2650.000000 0.2765 0.2779 0.2794 0.2792 0.2791
2645.000000 0.2789 0.2788 0.2787 0.2785 0.2784
2640.000000 0.2784 0.2784 0.2785 0.2788 0.2791
2635.000000 0.2793 0.2795 0.2797 0.2799 0.2850
2630.000000 0.2901 0.2964 0.3028 0.3080 0.3132
2625.000000 0.3191 0.3250 0.3309 0.3366 0.3412
2620.000000 0.3457 0.3484 0.3512 0.3541 0.3568
2615.000000 0.3598 0.3627 0.3659 0.3694 0.3724
2610.000000 0.3754 0.3777 0.3800 0.3818 0.3836
2605.000000 0.3849 0.3862 0.3866 0.3884 0.3870
2600.000000 0.3870 0.3855 0.3840 0.3796 0.3752
2595.000000 0.3688 0.3624 0.3590 0.3557 0.3529
2590.000000 0.3500 0.3475 0.3450 0.3424 0.3399
2585.000000 0.3375 0.3352 0.3329 0.3306 0.3287
2580.000000 0.3268 0.3264 0.3239 0.3259 0.3259
2575.000000 0.3259 0.3262 0.3378 0.3494 0.3528
2570.000000 0.3562 0.3586 0.3609 0.3632 0.3657
2565.000000 0.3680 0.3703 0.3726 0.3750 0.3776
2560.000000 0.3803 0.3824 0.3884 0.3848 0.3848
2555.000000 0.3847 0.3843 0.3836 0.3830 0.3824
2550.000000 0.3818 0.3809 0.3803 0.3795 0.3788
2545.000000 0.3777 0.3766 0.3755 0.3744 0.3730
2540.000000 0.3716 0.3698 0.3680 0.3652 0.3624
2535.000000 0.3550 0.3477 0.3324 0.3172 0.3122
2530.000000 0.3073 0.3051 0.3030 0.3029 0.3028
2525.000000 0.3028 0.3027 0.3054 0.3081 0.3116
2520.000000 0.3151 0.3184 0.3216 0.3246 0.3276
2515.000000 0.3304 0.3332 0.3429 0.3526 0.3600
2510.000000 0.3676 0.3738 0.3800 0.3904 0.4008
2505.000000 0.4073 0.4138 0.4188 0.4239 0.4287
2500.000000 0.4336 0.4365 0.4394 0.4421 0.4449
2495.000000 0.4469 0.4489 0.4509 0.4530 0.4550
2490.000000 0.4571 0.4592 0.4612 0.4634 0.4655
2485.000000 0.4676 0.4698 0.4719 0.4741 0.4762
2480.000000 0.4783 0.4802 0.4822 0.4841 0.4860
2475.000000 0.4871 0.4881 0.4892 0.4904 0.4918
2470.000000 0.4960 0.4935 0.4935 0.4935 0.4934
2465.000000 0.4922 0.4910 0.4819 0.4728 0.4564
2460.000000 0.4400 0.4362 0.4325 0.4288 0.4251
2455.000000 0.4225 0.4200 0.4175 0.4150 0.4122
2450.000000 0.4094 0.4076 0.4025 0.4053 0.4047
2445.000000 0.4046 0.4045 0.4049 0.4053 0.4097
2440.000000 0.4142 0.4168 0.4195 0.4221 0.4248
2435.000000 0.4269 0.4291 0.4297 0.4304 0.4300
2430.000000 0.4297 0.4295 0.4293 0.4293 0.4294
2425.000000 0.4297 0.4300 0.4357 0.4415 0.4442
2420.000000 0.4469 0.4496 0.4523 0.4550 0.4577
2415.000000 0.4609 0.4642 0.4682 0.4722 0.4755
2410.000000 0.4789 0.4822 0.4856 0.4880 0.4904
2405.000000 0.4925 0.4946 0.4967 0.4988 0.5009
2400.000000 0.5030 0.5051 0.5072 0.5093 0.5114
2395.000000 0.5135 0.5156 0.5177 0.5198 0.5219
2390.000000 0.5240 0.5262 0.5284 0.5305 0.5327
2385.000000 0.5341 0.5356 0.5367 0.5379 0.5391
2380.000000 0.5403 0.5414 0.5426 0.5437 0.5449
2375.000000 0.5457 0.5466 0.5474 0.5483 0.5491
2370.000000 0.5500 0.5508 0.5516 0.5524 0.5533
2365.000000 0.5540 0.5548 0.5555 0.5562 0.5569
2360.000000 0.5576 0.5583 0.5590 0.5597 0.5604
2355.000000 0.5610 0.5618 0.5625 0.5632 0.5639
2350.000000 0.5646 0.5653 0.5660 0.5667 0.5674
2345.000000 0.5680 0.5687 0.5694 0.5701 0.5707
2340.000000 0.5714 0.5720 0.5727 0.5733 0.5740
2335.000000 0.5745 0.5755 0.5757 0.5762 0.5767
2330.000000 0.5767 0.5766 0.5760 0.5756 0.5751
2325.000000 0.5741 0.5731 0.5722 0.5712 0.5709
2320.000000 0.5706 0.5702 0.5699 0.5695 0.5692
2315.000000 0.5688 0.5685 0.5681 0.5678 0.5674
2310.000000 0.5670 0.5668 0.5667 0.5667 0.5668
2305.000000 0.5671 0.5674 0.5678 0.5683 0.5689
2300.000000 0.5696 0.5702 0.5708 0.5712 0.5716
2295.000000 0.5719 0.5723 0.5723 0.5724 0.5712
2290.000000 0.5700 0.5681 0.5630 0.5644 0.5626
2285.000000 0.5626 0.5626 0.5634 0.5642 0.5664
2280.000000 0.5687 0.5712 0.5738 0.5791 0.5845
2275.000000 0.5871 0.5898 0.5918 0.5938 0.5957
2270.000000 0.5976 0.5985 0.5995 0.6004 0.6014
2265.000000 0.6024 0.6034 0.6045 0.6057 0.6068
2260.000000 0.6079 0.6090 0.6101 0.6112 0.6123
2255.000000 0.6134 0.6145 0.6156 0.6167 0.6178
2250.000000 0.6190 0.6201 0.6212 0.6223 0.6234
2245.000000 0.6245 0.6257 0.6267 0.6278 0.6288
2240.000000 0.6299 0.6309 0.6320 0.6330 0.6341
2235.000000 0.6351 0.6362 0.6371 0.6380 0.6389
2230.000000 0.6398 0.6407 0.6415 0.6425 0.6434
2225.000000 0.6443 0.6451 0.6461 0.6469 0.6478
2220.000000 0.6488 0.6496 0.6505 0.6514 0.6522
2215.000000 0.6531 0.6540 0.6548 0.6557 0.6565
2210.000000 0.6574 0.6582 0.6590 0.6598 0.6607
2205.000000 0.6615 0.6624 0.6632 0.6641 0.6649
2200.000000 0.6658 0.6665 0.6674 0.6682 0.6691
2195.000000 0.6699 0.6708 0.6715 0.6725 0.6733
2190.000000 0.6741 0.6749 0.6758 0.6765 0.6774
2185.000000 0.6781 0.6789 0.6795 0.6801 0.6808
2180.000000 0.6815 0.6821 0.6828 0.6834 0.6840
2175.000000 0.6846 0.6853 0.6858 0.6865 0.6871
2170.000000 0.6878 0.6884 0.6890 0.6895 0.6901
2165.000000 0.6907 0.6912 0.6918 0.6925 0.6928
2160.000000 0.6932 0.6934 0.6937 0.6940 0.6943
2155.000000 0.6946 0.6949 0.6951 0.6954 0.6957
2150.000000 0.6960 0.6962 0.6965 0.6968 0.6971
2145.000000 0.6975 0.6978 0.6981 0.6984 0.6987
2140.000000 0.6990 0.6994 0.6998 0.7001 0.7007
2135.000000 0.7010 0.7012 0.7015 0.7018 0.7021
2130.000000 0.7025 0.7025 0.7025 0.7025 0.7025
2125.000000 0.6998 0.7051 0.6889 0.6808 0.6743
2120.000000 0.6678 0.6656 0.6634 0.6615 0.6596
2115.000000 0.6571 0.6546 0.6517 0.6489 0.6458
2110.000000 0.6430 0.6414 0.6391 0.6401 0.6404
2105.000000 0.6406 0.6408 0.6468 0.6526 0.6558
2100.000000 0.6592 0.6595 0.6598 0.6599 0.6600
2095.000000 0.6601 0.6621 0.6598 0.6594 0.6562
2090.000000 0.6533 0.6501 0.6471 0.6438 0.6405
2085.000000 0.6360 0.6315 0.6271 0.6227 0.6167
2080.000000 0.6107 0.6076 0.6046 0.6015 0.5984
2075.000000 0.5953 0.5922 0.5894 0.5867 0.5839
2070.000000 0.5810 0.5756 0.4490 0.5085 0.4469
2065.000000 0.4467 0.4465 0.4485 0.4506 0.4534
2060.000000 0.4562 0.4597 0.4633 0.4818 0.5003
2055.000000 0.5043 0.5084 0.5124 0.5164 0.5203
2050.000000 0.5243 0.5282 0.5321 0.5366 0.5410
2045.000000 0.5459 0.5508 0.5553 0.5599 0.5637
2040.000000 0.5676 0.5714 0.5752 0.5790 0.5829
2035.000000 0.5862 0.5895 0.5927 0.5959 0.5991
2030.000000 0.6024 0.6039 0.6055 0.6070 0.6086
2025.000000 0.6104 0.6122 0.6145 0.6168 0.6189
2020.000000 0.6210 0.6225 0.6240 0.6246 0.6252
2015.000000 0.6249 0.6247 0.6231 0.6215 0.6204
2010.000000 0.6194 0.6210 0.6229 0.6255 0.6282
2005.000000 0.6307 0.6333 0.6356 0.6380 0.6426
2000.000000 0.6474 0.6521 0.6562 0.6606 0.6649
1995.000000 0.6691 0.6725 0.6758 0.6789 0.6821
1990.000000 0.6851 0.6882 0.6911 0.6940 0.6968
1985.000000 0.6997 0.7025 0.7051 0.7076 0.7103
1980.000000 0.7125 0.7148 0.7168 0.7181 0.7187
1975.000000 0.7194 0.7200 0.7206 0.7218 0.7232
1970.000000 0.7245 0.7258 0.7265 0.7271 0.7276
1965.000000 0.7283 0.7288 0.7289 0.7290 0.7290
1960.000000 0.7291 0.7291 0.7290 0.7290 0.7289
1955.000000 0.7288 0.7294 0.7308 0.7321 0.7336
1950.000000 0.7350 0.7364 0.7378 0.7392 0.7406
1945.000000 0.7417 0.7428 0.7439 0.7451 0.7461
1940.000000 0.7472 0.7484 0.7495 0.7506 0.7518
1935.000000 0.7528 0.7540 0.7551 0.7561 0.7571
1930.000000 0.7583 0.7594 0.7604 0.7615 0.7625
1925.000000 0.7636 0.7647 0.7657 0.7668 0.7678
1920.000000 0.7685 0.7691 0.7697 0.7703 0.7708
1915.000000 0.7714 0.7719 0.7725 0.7732 0.7738
1910.000000 0.7743 0.7749 0.7755 0.7761 0.7765
1905.000000 0.7768 0.7772 0.7776 0.7781 0.7785
1900.000000 0.7788 0.7792 0.7796 0.7800 0.7804
1895.000000 0.7808 0.7811 0.7815 0.7818 0.7818
1890.000000 0.7819 0.7821 0.7821 0.7822 0.7824
1885.000000 0.7825 0.7828 0.7832 0.7836 0.7839
1880.000000 0.7843 0.7847 0.7850 0.7854 0.7858
1875.000000 0.7861 0.7868 0.7875 0.7884 0.7891
1870.000000 0.7899 0.7906 0.7914 0.7921 0.7928
1865.000000 0.7936 0.7943 0.7946 0.7949 0.7951
1860.000000 0.7954 0.7957 0.7960 0.7962 0.7965
1855.000000 0.7968 0.7971 0.7974 0.7976 0.7976
1850.000000 0.7976 0.7975 0.7974 0.7971 0.7971
1845.000000 0.7968 0.7967 0.7965 0.7962 0.7958
1840.000000 0.7953 0.7948 0.7943 0.7938 0.7933
1835.000000 0.7928 0.7922 0.7918 0.7914 0.7908
1830.000000 0.7904 0.7899 0.7894 0.7889 0.7884
1825.000000 0.7878 0.7874 0.7868 0.7867 0.7871
1820.000000 0.7875 0.7878 0.7883 0.7887 0.7891
1815.000000 0.7895 0.7899 0.7903 0.7907 0.7911
1810.000000 0.7915 0.7918 0.7921 0.7925 0.7930
1805.000000 0.7934 0.7938 0.7942 0.7946 0.7949
1800.000000 0.7951 0.7951 0.7953 0.7954 0.7955
1795.000000 0.7956 0.7957 0.7958 0.7962 0.7969
1790.000000 0.7975 0.7982 0.7988 0.7995 0.8001
1785.000000 0.8007 0.8012 0.8018 0.8022 0.8028
1780.000000 0.8033 0.8038 0.8043 0.8047 0.8051
1775.000000 0.8057 0.8061 0.8067 0.8071 0.8078
1770.000000 0.8084 0.8089 0.8095 0.8101 0.8107
1765.000000 0.8111 0.8118 0.8124 0.8125 0.8128
1760.000000 0.8130 0.8132 0.8134 0.8136 0.8138
1755.000000 0.8140 0.8141 0.8142 0.8143 0.8144
1750.000000 0.8145 0.8146 0.8142 0.8139 0.8136
1745.000000 0.8133 0.8128 0.8125 0.8121 0.8118
1740.000000 0.8115 0.8111 0.8108 0.8104 0.8101
1735.000000 0.8101 0.8103 0.8107 0.8111 0.8114
1730.000000 0.8118 0.8121 0.8125 0.8128 0.8132
1725.000000 0.8136 0.8140 0.8148 0.8157 0.8165
1720.000000 0.8174 0.8184 0.8195 0.8205 0.8215
1715.000000 0.8225 0.8235 0.8245 0.8256 0.8265
1710.000000 0.8268 0.8273 0.8277 0.8282 0.8286
1705.000000 0.8290 0.8291 0.8293 0.8288 0.8281
1700.000000 0.8275 0.8270 0.8264 0.8258 0.8253
1695.000000 0.8247 0.8240 0.8234 0.8227 0.8220
1690.000000 0.8213 0.8207 0.8200 0.8198 0.8198
1685.000000 0.8198 0.8198 0.8198 0.8198 0.8198
1680.000000 0.8195 0.8193 0.8189 0.8184 0.8178
1675.000000 0.8172 0.8167 0.8161 0.8156 0.8151
1670.000000 0.8151 0.8151 0.8151 0.8151 0.8151
1665.000000 0.8151 0.8157 0.8164 0.8171 0.8178
1660.000000 0.8175 0.8171 0.8165 0.8161 0.8156
1655.000000 0.8151 0.8153 0.8156 0.8160 0.8164
1650.000000 0.8168 0.8172 0.8180 0.8186 0.8193
1645.000000 0.8200 0.8206 0.8216 0.8227 0.8239
1640.000000 0.8252 0.8268 0.8284 0.8299 0.8320
1635.000000 0.8347 0.8374 0.8401 0.8428 0.8454
1630.000000 0.8478 0.8505 0.8530 0.8556 0.8581
1625.000000 0.8606 0.8630 0.8655 0.8677 0.8698
1620.000000 0.8718 0.8740 0.8762 0.8773 0.8774
1615.000000 0.8775 0.8062 0.5664 0.5671 0.5835
1610.000000 0.6228 0.6619 0.6893 0.6871 0.6871
1605.000000 0.5568 0.3768 0.2984 0.3000 0.3137
1600.000000 0.3774 0.4412 0.5049 0.5686 0.6448
1595.000000 0.6678 0.6842 0.6985 0.7169 0.7433
1590.000000 0.7603 0.7712 0.7754 0.7796 0.7837
1585.000000 0.7876 0.7917 0.7957 0.7990 0.8022
1580.000000 0.8048 0.8068 0.8085 0.8099 0.8114
1575.000000 0.8131 0.8147 0.8161 0.8172 0.8185
1570.000000 0.8178 0.8160 0.8136 0.8118 0.8104
1565.000000 0.8090 0.8085 0.8083 0.8081 0.8078
1560.000000 0.8089 0.8101 0.8119 0.8154 0.8181
1555.000000 0.8193 0.8186 0.8178 0.8171 0.8171
1550.000000 0.8171 0.8171 0.8171 0.8180 0.8198
1545.000000 0.8234 0.8271 0.8304 0.8332 0.8360
1540.000000 0.8389 0.8420 0.8452 0.8482 0.8510
1535.000000 0.8538 0.8567 0.8596 0.8625 0.8654
1530.000000 0.8687 0.8717 0.8744 0.8770 0.8791
1525.000000 0.8798 0.8813 0.8795 0.8658 0.7733
1520.000000 0.7389 0.7168 0.6772 0.6575 0.5125
1515.000000 0.3614 0.2065 0.2058 0.2058 0.2592
1510.000000 0.3499 0.4058 0.4050 0.4040 0.2994
1505.000000 0.1589 0.1558 0.1519 0.2292 0.3520
1500.000000 0.4910 0.5030 0.5153 0.5312 0.5473
1495.000000 0.5632 0.5875 0.5845 0.5854 0.5595
1490.000000 0.4770 0.4802 0.4800 0.4950 0.5425
1485.000000 0.5854 0.6069 0.6214 0.6343 0.6468
1480.000000 0.6590 0.6680 0.6778 0.6908 0.6990
1475.000000 0.7051 0.7118 0.7151 0.7185 0.7218
1470.000000 0.7261 0.7304 0.7345 0.7382 0.7419
1465.000000 0.7457 0.7491 0.7525 0.7558 0.7587
1460.000000 0.7615 0.7644 0.7672 0.7695 0.7718
1455.000000 0.7740 0.7748 0.7754 0.7760 0.7769
1450.000000 0.7781 0.7793 0.7805 0.7815 0.7833
1445.000000 0.7853 0.7871 0.7864 0.7856 0.7849
1440.000000 0.7861 0.7838 0.7835 0.7835 0.7835
1435.000000 0.7839 0.7839 0.7840 0.7841 0.7841
1430.000000 0.7841 0.7841 0.7840 0.7838 0.7836
1425.000000 0.7834 0.7833 0.7831 0.7828 0.7826
1420.000000 0.7825 0.7822 0.7821 0.7818 0.7817
1415.000000 0.7815 0.7812 0.7808 0.7801 0.7797
1410.000000 0.7792 0.7787 0.7784 0.7784 0.7784
1405.000000 0.7784 0.7785 0.7786 0.7787 0.7788
1400.000000 0.7789 0.7790 0.7792 0.7795 0.7798
1395.000000 0.7801 0.7804 0.7807 0.7808 0.7799
1390.000000 0.7771 0.7760 0.7748 0.7736 0.7725
1385.000000 0.7712 0.7704 0.7699 0.7694 0.7689
1380.000000 0.7683 0.7678 0.7672 0.7668 0.7665
1375.000000 0.7665 0.7664 0.7662 0.7661 0.7660
1370.000000 0.7660 0.7660 0.7660 0.7660 0.7645
1365.000000 0.7621 0.7598 0.7572 0.7548 0.7517
1360.000000 0.7483 0.7449 0.7415 0.7390 0.7397
1355.000000 0.7401 0.7406 0.7410 0.7415 0.7405
1350.000000 0.7368 0.7311 0.7251 0.6975 0.6503
1345.000000 0.6119 0.6120 0.6123 0.6348 0.6488
1340.000000 0.6626 0.6821 0.6896 0.6958 0.7021
1335.000000 0.7071 0.7111 0.7140 0.7151 0.7151
1330.000000 0.7151 0.7153 0.7153 0.7154 0.7149
1325.000000 0.7145 0.7140 0.7136 0.7131 0.7126
1320.000000 0.7121 0.7118 0.7110 0.7101 0.7094
1315.000000 0.7099 0.7107 0.7110 0.7110 0.7110
1310.000000 0.7110 0.7110 0.7110 0.7110 0.7110
1305.000000 0.7110 0.7110 0.7115 0.7121 0.7128
1300.000000 0.7135 0.7142 0.7149 0.7156 0.7162
1295.000000 0.7168 0.7175 0.7183 0.7190 0.7197
1290.000000 0.7205 0.7211 0.7219 0.7226 0.7235
1285.000000 0.7242 0.7250 0.7257 0.7265 0.7271
1280.000000 0.7278 0.7284 0.7289 0.7295 0.7301
1275.000000 0.7306 0.7311 0.7321 0.7330 0.7340
1270.000000 0.7349 0.7358 0.7368 0.7376 0.7386
1265.000000 0.7396 0.7405 0.7414 0.7419 0.7425
1260.000000 0.7432 0.7438 0.7443 0.7449 0.7451
1255.000000 0.7455 0.7458 0.7461 0.7465 0.7472
1250.000000 0.7480 0.7487 0.7493 0.7497 0.7500
1245.000000 0.7504 0.7507 0.7511 0.7514 0.7518
1240.000000 0.7522 0.7526 0.7532 0.7536 0.7544
1235.000000 0.7551 0.7560 0.7568 0.7576 0.7584
1230.000000 0.7588 0.7625 0.7586 0.7581 0.7568
1225.000000 0.7556 0.7553 0.7551 0.7549 0.7547
1220.000000 0.7544 0.7538 0.7532 0.7525 0.7519
1215.000000 0.7514 0.7508 0.7504 0.7499 0.7493
1210.000000 0.7488 0.7483 0.7471 0.7460 0.7449
1205.000000 0.7438 0.7436 0.7447 0.7458 0.7469
1200.000000 0.7480 0.7487 0.7494 0.7501 0.7508
1195.000000 0.7512 0.7518 0.7518 0.7517 0.7515
1190.000000 0.7518 0.7522 0.7526 0.7532 0.7530
1185.000000 0.7515 0.7498 0.7483 0.7474 0.7475
1180.000000 0.7483 0.7489 0.7494 0.7500 0.7501
1175.000000 0.7501 0.7500 0.7498 0.7495 0.7492
1170.000000 0.7486 0.7481 0.7475 0.7471 0.7465
1165.000000 0.7457 0.7447 0.7418 0.7388 0.7365
1160.000000 0.7343 0.7321 0.7292 0.7258 0.7197
1155.000000 0.7219 0.7211 0.7211 0.7210 0.7215
1150.000000 0.7221 0.7226 0.7242 0.7265 0.7288
1145.000000 0.7305 0.7318 0.7333 0.7347 0.7360
1140.000000 0.7369 0.7380 0.7390 0.7398 0.7399
1135.000000 0.7399 0.7385 0.7365 0.7372 0.7395
1130.000000 0.7417 0.7438 0.7460 0.7482 0.7507
1125.000000 0.7531 0.7554 0.7576 0.7600 0.7625
1120.000000 0.7650 0.7674 0.7695 0.7715 0.7732
1115.000000 0.7745 0.7753 0.7761 0.7765 0.7774
1110.000000 0.7755 0.7746 0.7736 0.7725 0.7707
1105.000000 0.7684 0.7658 0.7632 0.7606 0.7562
1100.000000 0.7506 0.7358 0.7186 0.6971 0.6554
1095.000000 0.6462 0.5585 0.4706 0.3828 0.2949
1090.000000 0.2259 0.2259 0.2334 0.3040 0.3745
1085.000000 0.4450 0.5033 0.5501 0.5910 0.6226
1080.000000 0.6455 0.6736 0.6896 0.7001 0.7114
1075.000000 0.7206 0.7285 0.7358 0.7421 0.7475
1070.000000 0.7517 0.7558 0.7595 0.7611 0.7626
1065.000000 0.7643 0.7660 0.7675 0.7689 0.7706
1060.000000 0.7711 0.7711 0.7711 0.7693 0.7681
1055.000000 0.7668 0.7656 0.7639 0.7607 0.7564
1050.000000 0.7503 0.7398 0.7255 0.7111 0.6976
1045.000000 0.6836 0.6674 0.6370 0.5290 0.4210
1040.000000 0.3131 0.2051 0.1225 0.1184 0.1199
1035.000000 0.1323 0.1676 0.2029 0.2384 0.2738
1030.000000 0.3071 0.3774 0.5064 0.5196 0.5302
1025.000000 0.5447 0.5585 0.5702 0.5824 0.5947
1020.000000 0.6070 0.6192 0.6310 0.6369 0.6359
1015.000000 0.6379 0.6351 0.6303 0.5662 0.4571
1010.000000 0.3479 0.3459 0.3486 0.4088 0.4640
1005.000000 0.5193 0.5841 0.6145 0.6467 0.6592
1000.000000 0.6715 0.6808 0.6886 0.6962 0.7040
995.000000 0.7101 0.7162 0.7225 0.7275 0.7324
990.000000 0.7357 0.7385 0.7411 0.7433 0.7454
985.000000 0.7468 0.7478 0.7481 0.7483 0.7485
980.000000 0.7487 0.7489 0.7485 0.7478 0.7478
975.000000 0.7476 0.7476 0.7476 0.7482 0.7487
970.000000 0.7492 0.7497 0.7501 0.7507 0.7515
965.000000 0.7525 0.7536 0.7545 0.7555 0.7568
960.000000 0.7587 0.7604 0.7621 0.7639 0.7656
955.000000 0.7671 0.7687 0.7701 0.7717 0.7732
950.000000 0.7745 0.7756 0.7768 0.7778 0.7791
945.000000 0.7803 0.7814 0.7825 0.7836 0.7846
940.000000 0.7857 0.7867 0.7876 0.7888 0.7898
935.000000 0.7908 0.7918 0.7930 0.7941 0.7951
930.000000 0.7961 0.7964 0.7968 0.7971 0.7971
925.000000 0.7971 0.7967 0.7962 0.7961 0.7961
920.000000 0.7962 0.7965 0.7965 0.7968 0.7972
915.000000 0.7976 0.7982 0.7987 0.7998 0.8008
910.000000 0.8019 0.8044 0.8074 0.8076 0.8075
905.000000 0.8075 0.8075 0.8075 0.8076 0.8078
900.000000 0.8078 0.8080 0.8081 0.8087 0.8093
895.000000 0.8099 0.8105 0.8111 0.8117 0.8130
890.000000 0.8144 0.8158 0.8171 0.8189 0.8208
885.000000 0.8225 0.8245 0.8263 0.8281 0.8294
880.000000 0.8308 0.8321 0.8335 0.8348 0.8362
875.000000 0.8375 0.8385 0.8393 0.8402 0.8410
870.000000 0.8418 0.8427 0.8436 0.8444 0.8453
865.000000 0.8462 0.8470 0.8478 0.8488 0.8496
860.000000 0.8505 0.8513 0.8521 0.8530 0.8537
855.000000 0.8544 0.8550 0.8557 0.8564 0.8568
850.000000 0.8571 0.8541 0.8578 0.8578 0.8578
845.000000 0.8577 0.8574 0.8571 0.8568 0.8566
840.000000 0.8563 0.8560 0.8557 0.8551 0.8534
835.000000 0.8490 0.8411 0.8287 0.8099 0.7944
830.000000 0.7798 0.6865 0.4627 0.4108 0.4102
825.000000 0.4121 0.4160 0.4210 0.4265 0.4322
820.000000 0.4582 0.5934 0.6757 0.7134 0.7306
815.000000 0.7467 0.7561 0.7657 0.7750 0.7842
810.000000 0.7904 0.7964 0.8019 0.8064 0.8108
805.000000 0.8151 0.8186 0.8221 0.8256 0.8291
800.000000 0.8325 0.8361 0.8390 0.8409 0.8428
795.000000 0.8447 0.8460 0.8470 0.8480 0.8490
790.000000 0.8498 0.8505 0.8506 0.8509 0.8509
785.000000 0.8509 0.8509 0.8509 0.8503 0.8498
780.000000 0.8492 0.8487 0.8480 0.8470 0.8461
775.000000 0.8451 0.8441 0.8439 0.8439 0.8439
770.000000 0.8440 0.8442 0.8445 0.8448 0.8450
765.000000 0.8454 0.8457 0.8464 0.8471 0.8478
760.000000 0.8480 0.8475 0.8461 0.8443 0.8428
755.000000 0.8421 0.8417 0.8416 0.8415 0.8412
750.000000 0.8406 0.8397 0.8380 0.8363 0.8340
745.000000 0.8288 0.8215 0.8201 0.8187 0.8171
740.000000 0.8156 0.8097 0.8064 0.8050 0.8044
735.000000 0.8033 0.8014 0.7995 0.7976 0.7898
730.000000 0.7774 0.7671 0.7554 0.7460 0.7424
725.000000 0.7411 0.7410 0.7408 0.7406 0.7875
720.000000 0.7965 0.8057 0.8132 0.8203 0.8274
715.000000 0.8320 0.8363 0.8406 0.8449 0.8483
710.000000 0.8506 0.8528 0.8552 0.8575 0.8599
705.000000 0.8627 0.8655 0.8683 0.8711 0.8731
700.000000 0.8750 0.8770 0.8789 0.8789 0.8790
695.000000 0.8788 0.8786 0.8798 0.8798 0.8798
690.000000 0.8786 0.8787 0.8787 0.8788 0.8790
685.000000 0.8855 0.8804 0.8811 0.8811 0.8812
680.000000 0.8809 0.8804 0.8794 0.8784 0.8774
675.000000 0.8768 0.8771 0.8778 0.8789 0.8799
670.000000 0.8809 0.8821 0.8834 0.8839 0.8811
665.000000 0.8804 0.8801 0.8797 0.8793 0.8789
660.000000 0.8789 0.8790 0.8795 0.8799 0.8803
655.000000 0.8805 0.8807 0.8808 0.8810 0.8811
650.000000 0.8813 0.8814 0.8816 0.8817 0.8818
645.000000 0.8821 0.8821 0.8821 0.8821 0.8821
640.000000 0.8820 0.8818 0.8818 0.8818 0.8817
635.000000 0.8817 0.8816 0.8815 0.8814 0.8814
630.000000 0.8813 0.8812 0.8809 0.8806 0.8802
625.000000 0.8799 0.8796 0.8793 0.8789 0.8786
620.000000 0.8783 0.8780 0.8775 0.8773 0.8771
615.000000 0.8768 0.8768 0.8766 0.8764 0.8763
610.000000 0.8761 0.8759 0.8758 0.8756 0.8754
605.000000 0.8753 0.8751 0.8750 0.8750 0.8750
600.000000 0.8749 0.8749 0.8749 0.8749 0.8749
595.000000 0.8749 0.8748 0.8748 0.8748 0.8748
590.000000 0.8748 0.8747 0.8747 0.8747 0.8747
585.000000 0.8746 0.8743 0.8741 0.8739 0.8736
580.000000 0.8734 0.8731 0.8728 0.8725 0.8724
575.000000 0.8721 0.8718 0.8717 0.8714 0.8709
570.000000 0.8702 0.8696 0.8690 0.8684 0.8678
565.000000 0.8671 0.8665 0.8659 0.8653 0.8646
560.000000 0.8640 0.8634 0.8628 0.8621 0.8618
555.000000 0.8613 0.8609 0.8605 0.8601 0.8596
550.000000 0.8592 0.8588 0.8583 0.8578 0.8575
545.000000 0.8571 0.8566 0.8562 0.8558 0.8555
540.000000 0.8551 0.8547 0.8543 0.8539 0.8535
535.000000 0.8531 0.8527 0.8524 0.8520 0.8517
530.000000 0.8515 0.8512 0.8509 0.8507 0.8504
525.000000 0.8502 0.8499 0.8496 0.8494 0.8491
520.000000 0.8488 0.8486 0.8483 0.8478 0.8475
515.000000 0.8470 0.8466 0.8462 0.8458 0.8453
510.000000 0.8449 0.8445 0.8441 0.8437 0.8432
505.000000 0.8428 0.8423 0.8418 0.8414 0.8410
500.000000 0.8405 0.8401 0.8396 0.8392 0.8387
495.000000 0.8383 0.8375 0.8366 0.8357 0.8348
490.000000 0.8339 0.8330 0.8321 0.8312 0.8299
485.000000 0.8287 0.8274 0.8262 0.8249 0.8217
480.000000 0.8185 0.8156 0.8131 0.8107 0.8081
475.000000 0.8048 0.8018 0.8014 0.8010 0.8010
470.000000 0.8008 0.8011 0.8011 0.8014 0.8014
465.000000 0.8012 0.8012 0.8011 0.8011 0.8000
460.000000 0.7989 0.7978 0.7965 0.7955 0.7944
455.000000 0.7933 0.7921 0.7910 0.7899 0.7887
450.000000 0.7875 0.7864 0.7853 0.7841 0.7830
445.000000 0.7818 0.7806 0.7793 0.7780 0.7767
440.000000 0.7754 0.7741 0.7728 0.7715 0.7701
435.000000 0.7689 0.7675 0.7662 0.7650 0.7637
430.000000 0.7624 0.7611 0.7595 0.7578 0.7561
425.000000 0.7546 0.7530 0.7512 0.7497 0.7481
420.000000 0.7465 0.7448 0.7432 0.7418 0.7403
415.000000 0.7388 0.7372 0.7358 0.7343 0.7328
410.000000 0.7314 0.7299 0.7285 0.7269 0.7256
405.000000 0.7242 0.7226 0.7212 0.7201 0.7191
400.000000 0.7180 0.7168 0.7157 0.7146 0.7135
395.000000 0.7125 0.7117 0.7107 0.7094 0.7082
390.000000 0.7068 0.7053 0.7038 0.7028 0.7021
385.000000 0.7014 0.7007 0.7000 0.6993
##END=
