##TITLE=ZINC OXALATE
##JCAMP-DX=4.24
##DATA TYPE=INFRARED SPECTRUM
##CLASS=COBLENTZ
##OWNER=COBLENTZ SOCIETY
Collection (C) 2018 copyright by the U.S. Secretary of Commerce
on behalf of the United States of America. All rights reserved.
##DATE=Not specified, most likely prior to 1970
##MOLFORM=Zn C2 O4  * 2 H2 O
##SOURCE REFERENCE=COBLENTZ NO. 60
##$NIST ID=B6000060
##$NIST SOURCE=COBLENTZ
##$NIST IMAGE=cob60
##SPECTROMETER/DATA SYSTEM=Not specified, most likely a prism, grating, or hybrid spectrometer.
##STATE=SOLID (KBr DISC)
##SAMPLING PROCEDURE=TRANSMISSION
##RESOLUTION=4
##DATA PROCESSING=DIGITIZED BY NIST FROM HARD COPY
##XUNITS=MICROMETERS
##YUNITS=TRANSMITTANCE
##XFACTOR=1.000000
##YFACTOR=1
##DELTAX=000.007563
##FIRSTX=1.996
##LASTX=14.8984
##FIRSTY=0.903
##MAXX=14.8984
##MINX=1.996
##MAXY=0.952
##MINY=0.038
##NPOINTS=1707
##XYDATA=(X++(Y..Y))
1.996000 0.9030 0.9030 0.9040 0.9040 0.9040
2.033837 0.9060 0.9060 0.9060 0.9070 0.9070
2.071000 0.9070 0.9070 0.9090 0.9100 0.9100
2.108837 0.9120 0.9130 0.9150 0.9160 0.9160
2.147000 0.9160 0.9180 0.9180 0.9190 0.9190
2.184837 0.9210 0.9210 0.9220 0.9210 0.9220
2.223000 0.9220 0.9220 0.9220 0.9220 0.9220
2.260837 0.9220 0.9220 0.9220 0.9240 0.9240
2.298000 0.9250 0.9250 0.9250 0.9250 0.9250
2.335837 0.9270 0.9270 0.9270 0.9270 0.9280
2.374000 0.9280 0.9280 0.9280 0.9280 0.9280
2.411837 0.9280 0.9280 0.9280 0.9300 0.9300
2.450000 0.9300 0.9300 0.9300 0.9300 0.9300
2.487837 0.9300 0.9300 0.9300 0.9300 0.9300
2.525000 0.9300 0.9300 0.9300 0.9300 0.9300
2.562837 0.9300 0.9300 0.9300 0.9300 0.9300
2.601000 0.9300 0.9300 0.9310 0.9300 0.9300
2.638837 0.9300 0.9300 0.9300 0.9300 0.9300
2.676000 0.9300 0.9300 0.9300 0.9280 0.9280
2.713837 0.9270 0.9240 0.9180 0.9120 0.9070
2.752000 0.9000 0.8900 0.8780 0.8640 0.8450
2.789837 0.8030 0.7840 0.7590 0.7220 0.6800
2.828000 0.6250 0.6060 0.5640 0.5340 0.5150
2.865837 0.4630 0.4360 0.4040 0.3830 0.3680
2.903000 0.3250 0.3190 0.2880 0.2670 0.2460
2.940837 0.2100 0.2020 0.1810 0.1640 0.1600
2.979000 0.1510 0.1510 0.1530 0.1700 0.2160
3.016837 0.2540 0.3090 0.3260 0.3770 0.3990
3.055000 0.4240 0.4540 0.4720 0.4880 0.5030
3.092837 0.5170 0.5370 0.5630 0.5800 0.5980
3.130000 0.6130 0.6210 0.6340 0.6440 0.6580
3.167837 0.6680 0.6760 0.6820 0.6860 0.6960
3.206000 0.7040 0.7100 0.7160 0.7220 0.7280
3.243837 0.7350 0.7410 0.7480 0.7560 0.7660
3.282000 0.7740 0.7890 0.7960 0.8030 0.8170
3.319837 0.8230 0.8330 0.8360 0.8420 0.8450
3.357000 0.8480 0.8490 0.8510 0.8520 0.8540
3.394837 0.8550 0.8580 0.8580 0.8610 0.8660
3.433000 0.8720 0.8780 0.8790 0.8870 0.8900
3.470837 0.8940 0.8970 0.9000 0.9010 0.9030
3.508000 0.9060 0.9090 0.9090 0.9100 0.9100
3.545837 0.9120 0.9120 0.9130 0.9150 0.9180
3.584000 0.9190 0.9210 0.9220 0.9220 0.9240
3.621837 0.9240 0.9250 0.9250 0.9270 0.9280
3.660000 0.9280 0.9300 0.9300 0.9310 0.9330
3.697837 0.9360 0.9370 0.9390 0.9390 0.9400
3.735000 0.9400 0.9400 0.9400 0.9420 0.9430
3.772837 0.9430 0.9450 0.9460 0.9460 0.9460
3.811000 0.9460 0.9460 0.9460 0.9460 0.9460
3.848837 0.9460 0.9470 0.9470 0.9470 0.9470
3.887000 0.9470 0.9470 0.9470 0.9470 0.9490
3.924837 0.9490 0.9490 0.9490 0.9490 0.9490
3.962000 0.9490 0.9490 0.9490 0.9490 0.9490
3.999837 0.9500 0.9490 0.9490 0.9490 0.9490
4.038000 0.9490 0.9490 0.9490 0.9490 0.9490
4.075837 0.9490 0.9490 0.9490 0.9490 0.9500
4.113000 0.9490 0.9500 0.9500 0.9500 0.9500
4.150837 0.9500 0.9500 0.9500 0.9500 0.9500
4.189000 0.9500 0.9490 0.9490 0.9490 0.9490
4.226837 0.9490 0.9490 0.9490 0.9490 0.9490
4.265000 0.9470 0.9470 0.9470 0.9470 0.9470
4.302837 0.9470 0.9490 0.9500 0.9500 0.9500
4.340000 0.9500 0.9500 0.9500 0.9500 0.9500
4.377837 0.9500 0.9500 0.9500 0.9500 0.9500
4.416000 0.9500 0.9500 0.9490 0.9490 0.9500
4.453837 0.9500 0.9520 0.9500 0.9500 0.9500
4.492000 0.9500 0.9500 0.9520 0.9500 0.9500
4.529837 0.9500 0.9500 0.9500 0.9500 0.9500
4.567000 0.9490 0.9490 0.9470 0.9460 0.9450
4.604837 0.9450 0.9420 0.9420 0.9420 0.9420
4.643000 0.9420 0.9400 0.9400 0.9400 0.9400
4.680837 0.9400 0.9400 0.9400 0.9390 0.9390
4.718000 0.9390 0.9390 0.9390 0.9390 0.9390
4.755837 0.9390 0.9390 0.9390 0.9390 0.9390
4.794000 0.9390 0.9390 0.9390 0.9390 0.9390
4.831837 0.9400 0.9400 0.9400 0.9400 0.9400
4.870000 0.9400 0.9400 0.9420 0.9420 0.9430
4.907837 0.9430 0.9430 0.9430 0.9450 0.9450
4.945000 0.9450 0.9450 0.9460 0.9460 0.9460
4.982837 0.9460 0.9460 0.9470 0.9470 0.9470
5.021000 0.9490 0.9470 0.9470 0.9470 0.9470
5.058837 0.9470 0.9490 0.9490 0.9490 0.9490
5.097000 0.9490 0.9470 0.9470 0.9460 0.9430
5.134837 0.9430 0.9420 0.9420 0.9420 0.9420
5.172000 0.9420 0.9430 0.9430 0.9430 0.9420
5.209837 0.9420 0.9400 0.9400 0.9400 0.9390
5.248000 0.9390 0.9370 0.9390 0.9390 0.9390
5.285837 0.9390 0.9390 0.9390 0.9400 0.9400
5.324000 0.9420 0.9420 0.9420 0.9420 0.9420
5.361837 0.9420 0.9420 0.9400 0.9400 0.9400
5.399000 0.9390 0.9400 0.9400 0.9400 0.9400
5.436837 0.9400 0.9400 0.9400 0.9400 0.9400
5.475000 0.9390 0.9390 0.9370 0.9340 0.9330
5.512837 0.9330 0.9310 0.9310 0.9310 0.9310
5.550000 0.9300 0.9280 0.9280 0.9280 0.9280
5.587837 0.9280 0.9280 0.9280 0.9270 0.9250
5.626000 0.9240 0.9210 0.9180 0.9160 0.9160
5.663837 0.9090 0.9060 0.9030 0.8950 0.8940
5.702000 0.8850 0.8840 0.8720 0.8670 0.8630
5.739837 0.8600 0.8520 0.8410 0.8000 0.7910
5.777000 0.7870 0.7780 0.7740 0.7690 0.7440
5.814837 0.7260 0.7100 0.6990 0.6800 0.6680
5.853000 0.6620 0.6530 0.6440 0.6350 0.6120
5.890837 0.6060 0.5230 0.5090 0.4760 0.4450
5.929000 0.4210 0.3930 0.3530 0.3310 0.3130
5.966837 0.2970 0.2830 0.2610 0.2330 0.2180
6.004000 0.1870 0.1780 0.1600 0.1510 0.1360
6.041837 0.1350 0.1320 0.1200 0.1120 0.0950
6.080000 0.0860 0.0740 0.0590 0.0540 0.0490
6.117837 0.0460 0.0440 0.0440 0.0400 0.0380
6.155000 0.0380 0.0410 0.0520 0.0600 0.0690
6.192837 0.0990 0.1150 0.1500 0.2020 0.2340
6.231000 0.3000 0.3070 0.3230 0.3380 0.3960
6.268837 0.4290 0.4590 0.4790 0.5000 0.5140
6.307000 0.5260 0.5430 0.5630 0.5830 0.5920
6.344837 0.6060 0.6160 0.6410 0.6490 0.6530
6.382000 0.6640 0.6670 0.6730 0.6740 0.6760
6.419837 0.6950 0.7050 0.7130 0.7230 0.7260
6.458000 0.7310 0.7320 0.7350 0.7380 0.7390
6.495837 0.7440 0.7570 0.7680 0.7740 0.7750
6.534000 0.7800 0.7830 0.7870 0.7890 0.7900
6.571837 0.7930 0.7970 0.8020 0.8080 0.8090
6.609000 0.8090 0.8110 0.8120 0.8120 0.8150
6.646837 0.8170 0.8180 0.8200 0.8230 0.8240
6.685000 0.8240 0.8260 0.8270 0.8290 0.8300
6.722837 0.8300 0.8320 0.8320 0.8320 0.8330
6.761000 0.8330 0.8330 0.8330 0.8320 0.8330
6.798837 0.8330 0.8330 0.8330 0.8330 0.8330
6.836000 0.8330 0.8350 0.8330 0.8330 0.8330
6.873837 0.8330 0.8330 0.8320 0.8300 0.8260
6.912000 0.8240 0.8230 0.8210 0.8210 0.8210
6.949837 0.8210 0.8200 0.8180 0.8180 0.8170
6.987000 0.8170 0.8170 0.8150 0.8150 0.8150
7.024837 0.8150 0.8150 0.8140 0.8140 0.8140
7.063000 0.8140 0.8120 0.8120 0.8120 0.8110
7.100837 0.8110 0.8110 0.8120 0.8120 0.8120
7.139000 0.8140 0.8170 0.8180 0.8200 0.8210
7.176837 0.8210 0.8230 0.8230 0.8230 0.8230
7.214000 0.8200 0.8170 0.8050 0.7930 0.7800
7.251837 0.7630 0.7510 0.7350 0.7190 0.6310
7.290000 0.5970 0.5600 0.5340 0.5280 0.5170
7.327837 0.5110 0.5030 0.5030 0.5210 0.5730
7.366000 0.5800 0.6090 0.6220 0.6460 0.6560
7.403837 0.6860 0.6930 0.6980 0.7010 0.7080
7.441000 0.7110 0.7130 0.7160 0.7160 0.7110
7.478837 0.7070 0.7020 0.6860 0.6530 0.6320
7.517000 0.6090 0.5820 0.5340 0.5020 0.4380
7.554837 0.3920 0.3670 0.3580 0.3550 0.3430
7.592000 0.3430 0.3610 0.3900 0.4270 0.4760
7.629837 0.4910 0.5060 0.5660 0.6370 0.6580
7.668000 0.6710 0.6800 0.6930 0.7050 0.7190
7.705837 0.7320 0.7450 0.7570 0.7660 0.7780
7.744000 0.7870 0.7910 0.8030 0.8120 0.8150
7.781837 0.8200 0.8260 0.8320 0.8330 0.8380
7.819000 0.8420 0.8430 0.8460 0.8490 0.8520
7.856837 0.8550 0.8580 0.8600 0.8610 0.8660
7.895000 0.8670 0.8690 0.8700 0.8730 0.8750
7.932837 0.8760 0.8780 0.8780 0.8790 0.8790
7.971000 0.8810 0.8810 0.8810 0.8820 0.8820
8.008837 0.8840 0.8840 0.8840 0.8850 0.8850
8.046000 0.8850 0.8880 0.8880 0.8900 0.8900
8.083837 0.8900 0.8910 0.8910 0.8930 0.8930
8.122000 0.8940 0.8940 0.8950 0.8970 0.8970
8.159837 0.8970 0.8950 0.8970 0.8970 0.8970
8.197000 0.8970 0.8970 0.8970 0.8980 0.8980
8.234837 0.8980 0.8980 0.9000 0.9000 0.9010
8.273000 0.9010 0.9010 0.9030 0.9030 0.9040
8.310837 0.9060 0.9060 0.9060 0.9070 0.9090
8.349000 0.9090 0.9070 0.9070 0.9090 0.9090
8.386837 0.9090 0.9090 0.9090 0.9090 0.9090
8.424000 0.9090 0.9090 0.9090 0.9100 0.9100
8.461837 0.9100 0.9100 0.9100 0.9100 0.9100
8.500000 0.9100 0.9100 0.9100 0.9100 0.9100
8.537837 0.9100 0.9100 0.9100 0.9100 0.9100
8.576000 0.9100 0.9100 0.9100 0.9100 0.9100
8.613837 0.9100 0.9100 0.9100 0.9100 0.9100
8.651000 0.9120 0.9120 0.9120 0.9100 0.9100
8.688837 0.9100 0.9100 0.9100 0.9100 0.9120
8.727000 0.9120 0.9120 0.9120 0.9120 0.9120
8.764837 0.9120 0.9120 0.9120 0.9120 0.9120
8.803000 0.9120 0.9120 0.9120 0.9120 0.9120
8.840837 0.9100 0.9100 0.9090 0.9090 0.9090
8.878000 0.9090 0.9090 0.9070 0.9070 0.9070
8.915837 0.9070 0.9070 0.9070 0.9070 0.9070
8.954000 0.9070 0.9070 0.9070 0.9070 0.9070
8.991837 0.9070 0.9090 0.9090 0.9090 0.9090
9.029000 0.9090 0.9100 0.9100 0.9100 0.9100
9.066837 0.9120 0.9120 0.9130 0.9130 0.9150
9.105000 0.9150 0.9160 0.9160 0.9160 0.9160
9.142837 0.9160 0.9190 0.9210 0.9210 0.9220
9.181000 0.9220 0.9240 0.9250 0.9250 0.9250
9.218837 0.9250 0.9250 0.9250 0.9250 0.9250
9.256000 0.9250 0.9250 0.9250 0.9250 0.9270
9.293837 0.9270 0.9270 0.9280 0.9270 0.9270
9.332000 0.9270 0.9280 0.9280 0.9280 0.9280
9.369837 0.9280 0.9280 0.9280 0.9280 0.9280
9.408000 0.9280 0.9280 0.9280 0.9280 0.9280
9.445837 0.9280 0.9280 0.9300 0.9300 0.9300
9.483000 0.9310 0.9310 0.9310 0.9310 0.9310
9.520837 0.9310 0.9300 0.9300 0.9310 0.9300
9.559000 0.9300 0.9300 0.9300 0.9300 0.9300
9.596837 0.9300 0.9300 0.9300 0.9300 0.9300
9.634000 0.9300 0.9300 0.9310 0.9310 0.9310
9.671837 0.9310 0.9310 0.9310 0.9310 0.9310
9.710000 0.9310 0.9310 0.9310 0.9310 0.9310
9.747837 0.9310 0.9310 0.9310 0.9310 0.9310
9.786000 0.9310 0.9330 0.9310 0.9310 0.9310
9.823837 0.9310 0.9310 0.9310 0.9330 0.9330
9.861000 0.9330 0.9330 0.9330 0.9340 0.9340
9.898837 0.9340 0.9340 0.9360 0.9360 0.9360
9.937000 0.9360 0.9360 0.9360 0.9360 0.9370
9.974837 0.9370 0.9370 0.9370 0.9390 0.9390
10.013000 0.9390 0.9390 0.9390 0.9390 0.9390
10.050837 0.9390 0.9370 0.9370 0.9370 0.9390
10.088000 0.9390 0.9390 0.9390 0.9390 0.9390
10.125837 0.9400 0.9390 0.9390 0.9390 0.9390
10.164000 0.9400 0.9390 0.9390 0.9390 0.9390
10.201837 0.9390 0.9400 0.9400 0.9400 0.9400
10.239000 0.9390 0.9390 0.9390 0.9390 0.9390
10.276837 0.9400 0.9400 0.9400 0.9400 0.9400
10.315000 0.9400 0.9400 0.9400 0.9400 0.9400
10.352837 0.9400 0.9400 0.9400 0.9400 0.9400
10.391000 0.9400 0.9400 0.9400 0.9420 0.9420
10.428837 0.9420 0.9420 0.9420 0.9420 0.9420
10.466000 0.9420 0.9420 0.9400 0.9420 0.9420
10.503837 0.9420 0.9420 0.9420 0.9420 0.9420
10.542000 0.9420 0.9420 0.9420 0.9420 0.9420
10.579837 0.9420 0.9420 0.9420 0.9420 0.9420
10.618000 0.9420 0.9420 0.9420 0.9420 0.9420
10.655837 0.9420 0.9420 0.9420 0.9420 0.9420
10.693000 0.9400 0.9400 0.9420 0.9420 0.9420
10.730837 0.9420 0.9420 0.9420 0.9420 0.9420
10.769000 0.9420 0.9420 0.9420 0.9420 0.9420
10.806837 0.9420 0.9420 0.9420 0.9420 0.9420
10.845000 0.9420 0.9420 0.9420 0.9420 0.9420
10.882837 0.9420 0.9400 0.9400 0.9390 0.9370
10.920000 0.9370 0.9370 0.9360 0.9340 0.9340
10.957837 0.9340 0.9340 0.9340 0.9340 0.9340
10.996000 0.9340 0.9340 0.9360 0.9360 0.9360
11.033837 0.9360 0.9360 0.9360 0.9360 0.9360
11.071000 0.9360 0.9360 0.9360 0.9360 0.9360
11.108837 0.9360 0.9360 0.9360 0.9360 0.9340
11.147000 0.9340 0.9340 0.9340 0.9340 0.9340
11.184837 0.9330 0.9330 0.9330 0.9330 0.9310
11.223000 0.9310 0.9310 0.9310 0.9310 0.9310
11.260837 0.9310 0.9310 0.9310 0.9310 0.9310
11.298000 0.9300 0.9300 0.9280 0.9280 0.9270
11.335837 0.9270 0.9250 0.9250 0.9240 0.9240
11.374000 0.9220 0.9220 0.9210 0.9210 0.9190
11.411837 0.9190 0.9190 0.9190 0.9190 0.9190
11.450000 0.9190 0.9190 0.9190 0.9190 0.9180
11.487837 0.9160 0.9150 0.9130 0.9120 0.9100
11.525000 0.9090 0.9090 0.9090 0.9060 0.9030
11.562837 0.9000 0.9000 0.8970 0.8970 0.8950
11.601000 0.8950 0.8940 0.8930 0.8900 0.8880
11.638837 0.8870 0.8850 0.8840 0.8820 0.8780
11.676000 0.8760 0.8750 0.8720 0.8670 0.8630
11.713837 0.8600 0.8570 0.8570 0.8540 0.8510
11.752000 0.8480 0.8450 0.8410 0.8380 0.8350
11.789837 0.8300 0.8270 0.8200 0.8150 0.8090
11.828000 0.8050 0.8000 0.7940 0.7860 0.7780
11.865837 0.7680 0.7630 0.7570 0.7510 0.7410
11.903000 0.7320 0.7190 0.7130 0.7050 0.6990
11.940837 0.6870 0.6830 0.6700 0.6650 0.6580
11.979000 0.6490 0.6460 0.6410 0.6320 0.6180
12.016837 0.6120 0.6070 0.6040 0.5970 0.5940
12.055000 0.5880 0.5850 0.5830 0.5800 0.5780
12.092837 0.5730 0.5720 0.5700 0.5700 0.5690
12.130000 0.5670 0.5670 0.5670 0.5670 0.5690
12.167837 0.5700 0.5720 0.5790 0.5850 0.5910
12.206000 0.6010 0.6030 0.6070 0.6120 0.6250
12.243837 0.6350 0.6460 0.6550 0.6560 0.6700
12.282000 0.6740 0.6830 0.6870 0.6900 0.6950
12.319837 0.7010 0.7040 0.7100 0.7160 0.7170
12.357000 0.7250 0.7290 0.7290 0.7310 0.7320
12.394837 0.7340 0.7380 0.7410 0.7420 0.7450
12.433000 0.7470 0.7480 0.7500 0.7510 0.7530
12.470837 0.7530 0.7540 0.7540 0.7540 0.7560
12.508000 0.7560 0.7560 0.7560 0.7560 0.7560
12.545837 0.7560 0.7560 0.7560 0.7560 0.7560
12.584000 0.7560 0.7540 0.7540 0.7530 0.7530
12.621837 0.7510 0.7500 0.7500 0.7470 0.7470
12.660000 0.7470 0.7450 0.7450 0.7440 0.7420
12.697837 0.7420 0.7420 0.7440 0.7440 0.7420
12.735000 0.7420 0.7420 0.7420 0.7420 0.7410
12.772837 0.7410 0.7390 0.7390 0.7380 0.7380
12.811000 0.7360 0.7360 0.7350 0.7350 0.7340
12.848837 0.7340 0.7320 0.7310 0.7310 0.7290
12.887000 0.7290 0.7280 0.7260 0.7260 0.7250
12.924837 0.7230 0.7230 0.7220 0.7200 0.7190
12.962000 0.7190 0.7170 0.7160 0.7140 0.7130
12.999837 0.7130 0.7110 0.7100 0.7080 0.7070
13.038000 0.7050 0.7050 0.7040 0.7040 0.7020
13.075837 0.7020 0.7020 0.7010 0.7010 0.7010
13.113000 0.6990 0.6990 0.6990 0.6980 0.6980
13.150837 0.6960 0.6960 0.6960 0.6950 0.6950
13.189000 0.6950 0.6930 0.6930 0.6930 0.6920
13.226837 0.6920 0.6920 0.6900 0.6900 0.6900
13.265000 0.6900 0.6890 0.6890 0.6890 0.6890
13.302837 0.6870 0.6890 0.6890 0.6890 0.6890
13.340000 0.6890 0.6890 0.6900 0.6900 0.6900
13.377837 0.6900 0.6900 0.6900 0.6900 0.6920
13.416000 0.6920 0.6920 0.6920 0.6920 0.6930
13.453837 0.6930 0.6930 0.6930 0.6930 0.6930
13.492000 0.6930 0.6950 0.6960 0.6960 0.6980
13.529837 0.6980 0.6980 0.6990 0.6990 0.6990
13.567000 0.7020 0.7020 0.7040 0.7050 0.7050
13.604837 0.7070 0.7070 0.7100 0.7100 0.7110
13.643000 0.7110 0.7130 0.7140 0.7140 0.7160
13.680837 0.7160 0.7170 0.7170 0.7190 0.7190
13.718000 0.7200 0.7200 0.7230 0.7230 0.7250
13.755837 0.7250 0.7260 0.7260 0.7280 0.7280
13.794000 0.7290 0.7290 0.7310 0.7310 0.7320
13.831837 0.7340 0.7340 0.7350 0.7350 0.7360
13.870000 0.7360 0.7380 0.7380 0.7390 0.7390
13.907837 0.7410 0.7410 0.7420 0.7420 0.7440
13.945000 0.7440 0.7440 0.7450 0.7450 0.7470
13.982837 0.7470 0.7470 0.7480 0.7480 0.7480
14.021000 0.7500 0.7500 0.7500 0.7510 0.7510
14.058837 0.7510 0.7510 0.7510 0.7510 0.7510
14.097000 0.7510 0.7510 0.7510 0.7510 0.7510
14.134837 0.7530 0.7530 0.7530 0.7530 0.7530
14.172000 0.7540 0.7540 0.7560 0.7560 0.7560
14.209837 0.7560 0.7570 0.7570 0.7570 0.7570
14.248000 0.7590 0.7590 0.7590 0.7590 0.7600
14.285837 0.7600 0.7600 0.7620 0.7620 0.7620
14.324000 0.7620 0.7620 0.7630 0.7630 0.7630
14.361837 0.7630 0.7630 0.7650 0.7650 0.7660
14.399000 0.7650 0.7660 0.7660 0.7660 0.7660
14.436837 0.7660 0.7660 0.7660 0.7660 0.7660
14.475000 0.7660 0.7660 0.7680 0.7680 0.7690
14.512837 0.7690 0.7690 0.7690 0.7690 0.7710
14.550000 0.7710 0.7720 0.7720 0.7720 0.7720
14.587837 0.7740 0.7740 0.7770 0.7770 0.7770
14.626000 0.7780 0.7780 0.7780 0.7770 0.7770
14.663837 0.7770 0.7770 0.7770 0.7770 0.7770
14.702000 0.7770 0.7780 0.7780 0.7780 0.7800
14.739837 0.7800 0.7810 0.7810 0.7810 0.7810
14.777000 0.7810 0.7810 0.7810 0.7810 0.7810
14.814837 0.7830 0.7830 0.7830 0.7830 0.7830
14.853000 0.7830 0.7830 0.7810 0.7810 0.7810
14.890837 0.7810 0.7810
##END=
