##TITLE=1,2,5-THIADIAZOLE-3-CARBOXAMIDOXIME, 4-(HYDROXYIMINOMETHYLAMINO)-
##JCAMP-DX=4.24
##DATA TYPE=INFRARED SPECTRUM
##CLASS=COBLENTZ III
##ORIGIN=SOUTHERN RESEARCH INSTITUTE
##OWNER=COBLENTZ SOCIETY
Collection (C) 2018 copyright by the U.S. Secretary of Commerce
on behalf of the United States of America. All rights reserved.
##DATE=1963/02/08
##NAMES=N-hydroxy-4-([(E)-(hydroxyimino)methyl]amino)-1,2,5-thiadiazole-3-carboximidamide
##MOLFORM=C4 H6 N6 O2 S
##SOURCE REFERENCE=COBLENTZ NO. 8434
##$NIST ID=B6008434
##$NIST SOURCE=COBLENTZ
##$NIST IMAGE=cob8434
##SPECTROMETER/DATA SYSTEM=PERKIN-ELMER 221 (GRATING)
##INSTRUMENT PARAMETERS=FILTER CHANGE AT 2490, 980 CM^-^1, GRATING FOR 4000-1428 CM^-^1, NaCl PRISM FOR 1428-650 CM^-^1
##STATE=SOLID (0.7 mg / 670 mg KBr DISC)
##SAMPLING PROCEDURE=TRANSMISSION
##RESOLUTION=4
##DATA PROCESSING=DIGITIZED BY NIST FROM HARD COPY
##XUNITS=1/CM
##YUNITS=TRANSMITTANCE
##XFACTOR=1.000000
##YFACTOR=1
##DELTAX=001.527924
##FIRSTX=603.741
##LASTX=4004.9
##FIRSTY=0.599
##MAXX=4004.9
##MINX=603.741
##MAXY=0.922
##MINY=0.076
##NPOINTS=2227
##XYDATA=(X++(Y..Y))
603.741000 0.5990 0.5980 0.5980 0.5980 0.5980
611.384054 0.5980 0.5980 0.5980 0.5990 0.6010
619.020000 0.6010 0.6030 0.6030 0.6040 0.6050
626.663054 0.6070 0.6080 0.6100 0.6120 0.6140
634.299000 0.6160 0.6170 0.6180 0.6180 0.6170
641.942054 0.6170 0.6170 0.6150 0.6110 0.6000
649.578000 0.5910 0.5840 0.5820 0.5850 0.5910
657.221054 0.6000 0.6050 0.6110 0.6200 0.6340
664.858000 0.6570 0.6670 0.6670 0.6660 0.6650
672.501054 0.6640 0.6610 0.6570 0.6550 0.6520
680.137000 0.6490 0.6460 0.6430 0.6420 0.6360
687.780054 0.6260 0.6120 0.5980 0.5810 0.5680
695.416000 0.5550 0.5350 0.5160 0.4960 0.4960
703.059054 0.5110 0.5240 0.5380 0.5520 0.5660
710.695000 0.5800 0.5940 0.6060 0.6090 0.6070
718.338054 0.5920 0.5490 0.5470 0.5490 0.5810
725.975000 0.6070 0.6280 0.6450 0.6580 0.6680
733.618054 0.6750 0.6800 0.6810 0.6800 0.6760
741.254000 0.6720 0.6670 0.6620 0.6550 0.6490
748.897054 0.6440 0.6140 0.6120 0.6110 0.6060
756.533000 0.5990 0.5900 0.5810 0.5720 0.4920
764.176054 0.4800 0.4690 0.4620 0.4140 0.3700
771.812000 0.3310 0.3080 0.2820 0.2570 0.2320
779.455054 0.2320 0.2600 0.2870 0.3140 0.3380
787.092000 0.3670 0.3950 0.4490 0.4910 0.5130
794.735054 0.5300 0.5330 0.5360 0.5360 0.5370
802.371000 0.5400 0.5430 0.5460 0.5480 0.5490
810.014054 0.5580 0.5690 0.5780 0.5980 0.5990
817.650000 0.6050 0.6110 0.6230 0.6360 0.6370
825.293054 0.6170 0.6030 0.5890 0.5750 0.5620
832.929000 0.5620 0.5880 0.6680 0.6800 0.6890
840.572054 0.6970 0.7130 0.7270 0.7280 0.7290
848.209000 0.7280 0.7240 0.6780 0.6160 0.5280
855.852054 0.4380 0.3520 0.3500 0.3520 0.3940
863.488000 0.4370 0.4660 0.5620 0.6270 0.6700
871.131054 0.6990 0.7200 0.7500 0.7730 0.7780
878.767000 0.7790 0.7800 0.7800 0.7780 0.7710
886.410054 0.7510 0.7330 0.7130 0.6900 0.6590
894.046000 0.6200 0.5660 0.4130 0.4110 0.4120
901.689054 0.4300 0.5520 0.5500 0.3280 0.3270
909.326000 0.3270 0.3850 0.5520 0.5520 0.5510
916.969054 0.5180 0.4790 0.4530 0.4270 0.4010
924.605000 0.3990 0.3720 0.3720 0.4570 0.5000
932.248054 0.5240 0.5860 0.6300 0.6640 0.6910
939.884000 0.7190 0.7520 0.7810 0.8020 0.8230
947.527054 0.8140 0.7920 0.7640 0.7390 0.7030
955.163000 0.6650 0.5470 0.4300 0.4300 0.4400
962.806054 0.4420 0.5230 0.6040 0.6410 0.6780
970.443000 0.7310 0.7310 0.7290 0.7260 0.6100
978.086054 0.5330 0.4580 0.1140 0.1120 0.1130
985.722000 0.1540 0.1930 0.2340 0.2720 0.4000
993.365054 0.4620 0.4620 0.4950 0.5280 0.5610
1001.001000 0.5940 0.6450 0.6840 0.7250 0.7650
1008.644054 0.8070 0.8400 0.8730 0.9040 0.9150
1016.280000 0.9180 0.9210 0.9220 0.9220 0.9220
1023.923054 0.9220 0.9210 0.9200 0.9190 0.9180
1031.560000 0.9160 0.9150 0.9130 0.9120 0.9100
1039.203054 0.9090 0.9070 0.9060 0.9040 0.9030
1046.839000 0.9010 0.8990 0.8970 0.8940 0.8930
1054.482054 0.8900 0.8890 0.8870 0.8860 0.8840
1062.118000 0.8830 0.8810 0.8790 0.8770 0.8760
1069.761054 0.8740 0.8720 0.8700 0.8680 0.8640
1077.397000 0.8620 0.8590 0.8550 0.8520 0.8360
1085.040054 0.8220 0.8100 0.8010 0.7920 0.7840
1092.677000 0.7750 0.7660 0.7550 0.7540 0.7530
1100.320054 0.7530 0.7540 0.7600 0.7650 0.7750
1107.956000 0.7850 0.7940 0.8140 0.8510 0.8520
1115.599054 0.8510 0.8480 0.8440 0.8420 0.8400
1123.235000 0.8390 0.8390 0.8380 0.8370 0.8360
1130.878054 0.8360 0.8330 0.8320 0.8310 0.8300
1138.514000 0.8290 0.8260 0.8230 0.8200 0.8180
1146.157054 0.8160 0.8160 0.8140 0.8130 0.8120
1153.793000 0.8100 0.8070 0.8040 0.8000 0.7980
1161.436054 0.7950 0.7930 0.7900 0.7860 0.7820
1169.073000 0.7780 0.7740 0.7700 0.7650 0.7600
1176.716054 0.7550 0.7510 0.7450 0.7400 0.7350
1184.352000 0.7340 0.7320 0.7270 0.7190 0.7070
1191.995054 0.6940 0.6770 0.6570 0.6360 0.6130
1199.631000 0.5880 0.5620 0.5330 0.5040 0.4750
1207.274054 0.4450 0.4140 0.3830 0.3160 0.3150
1214.910000 0.3160 0.3220 0.3370 0.3970 0.4370
1222.553054 0.4660 0.4780 0.5210 0.5690 0.5780
1230.190000 0.5850 0.6330 0.6520 0.6710 0.6900
1237.833054 0.7110 0.7360 0.7620 0.7840 0.7850
1245.469000 0.7850 0.7840 0.7820 0.7780 0.7750
1253.112054 0.7710 0.7670 0.7620 0.7570 0.7520
1260.748000 0.7450 0.7390 0.7330 0.7260 0.7200
1268.391054 0.7120 0.6980 0.6910 0.6890 0.6880
1276.027000 0.6880 0.6880 0.6880 0.6880 0.6880
1283.670054 0.6880 0.6870 0.6850 0.6790 0.6690
1291.307000 0.6570 0.6430 0.6290 0.6140 0.6010
1298.950054 0.5880 0.5870 0.5860 0.5840 0.5810
1306.586000 0.5770 0.5730 0.5640 0.5500 0.5360
1314.229054 0.5220 0.4820 0.4800 0.4810 0.4940
1321.865000 0.5200 0.5820 0.6030 0.6020 0.6010
1329.508054 0.5980 0.5880 0.5660 0.5330 0.4970
1337.144000 0.4660 0.4380 0.4150 0.3950 0.3790
1344.787054 0.3660 0.3540 0.3390 0.3370 0.3370
1352.424000 0.3370 0.3370 0.3370 0.3390 0.3470
1360.067054 0.3630 0.3770 0.3920 0.4060 0.4210
1367.703000 0.4360 0.4520 0.4690 0.4860 0.5060
1375.346054 0.5270 0.5490 0.5730 0.5930 0.6010
1382.982000 0.6020 0.6100 0.6170 0.6250 0.6360
1390.625054 0.6430 0.6550 0.6660 0.6720 0.6730
1398.261000 0.6810 0.6870 0.6870 0.6880 0.6880
1405.904054 0.6870 0.6850 0.6820 0.6780 0.6730
1413.541000 0.6680 0.6650 0.6620 0.6610 0.6530
1421.184054 0.6480 0.6440 0.6410 0.6380 0.6360
1428.820000 0.6330 0.6300 0.6250 0.6180 0.6100
1436.463054 0.5980 0.5820 0.5750 0.5620 0.5480
1444.099000 0.5340 0.5260 0.5180 0.4920 0.4630
1451.742054 0.4330 0.4040 0.4020 0.4010 0.4000
1459.378000 0.3990 0.3980 0.3960 0.3950 0.3930
1467.021054 0.3910 0.3890 0.3890 0.3900 0.3930
1474.658000 0.4000 0.4110 0.4240 0.4370 0.4510
1482.301054 0.4660 0.4790 0.4920 0.5020 0.5140
1489.937000 0.5190 0.5190 0.5180 0.5170 0.5110
1497.580054 0.4980 0.4850 0.4710 0.4550 0.4380
1505.216000 0.4180 0.3970 0.3710 0.3420 0.2890
1512.859054 0.2700 0.2500 0.2290 0.2090 0.1880
1520.495000 0.1870 0.1880 0.1920 0.1980 0.2030
1528.138054 0.2090 0.2170 0.2260 0.2380 0.2530
1535.775000 0.2720 0.2730 0.2730 0.2660 0.2580
1543.418054 0.2400 0.2040 0.2030 0.2040 0.2150
1551.054000 0.2270 0.2340 0.2560 0.2960 0.3420
1558.697054 0.3770 0.3880 0.4120 0.4140 0.4110
1566.333000 0.4080 0.3880 0.3690 0.3500 0.3320
1573.976054 0.3140 0.2970 0.2950 0.2960 0.3200
1581.612000 0.3450 0.3700 0.3950 0.4180 0.4400
1589.255054 0.4740 0.5170 0.5650 0.6120 0.6540
1596.891000 0.6850 0.7020 0.7070 0.7080 0.7050
1604.534054 0.7020 0.6840 0.6710 0.6610 0.6520
1612.171000 0.6440 0.6330 0.6160 0.5930 0.5610
1619.814054 0.5170 0.4670 0.4060 0.3920 0.3770
1627.450000 0.3630 0.3200 0.2890 0.2600 0.2300
1635.093054 0.2090 0.1930 0.1770 0.1600 0.1300
1642.729000 0.1280 0.1290 0.1410 0.1540 0.1650
1650.372054 0.1660 0.1730 0.1810 0.1850 0.2090
1658.008000 0.2280 0.2430 0.2530 0.2610 0.2790
1665.651054 0.2810 0.2630 0.2470 0.1650 0.1240
1673.288000 0.1010 0.0900 0.0770 0.0760 0.1070
1680.931054 0.1440 0.1800 0.2120 0.2430 0.2730
1688.567000 0.3010 0.3280 0.3550 0.3810 0.4070
1696.210054 0.4330 0.4590 0.4850 0.5110 0.5200
1703.846000 0.5320 0.5510 0.5760 0.6100 0.6290
1711.489054 0.6410 0.6510 0.6680 0.6970 0.7130
1719.125000 0.7280 0.7410 0.7530 0.7640 0.7740
1726.768054 0.7830 0.7900 0.7980 0.8050 0.8110
1734.405000 0.8170 0.8230 0.8290 0.8360 0.8410
1742.048054 0.8420 0.8420 0.8390 0.8360 0.8350
1749.684000 0.8360 0.8500 0.8550 0.8610 0.8650
1757.327054 0.8660 0.8670 0.8670 0.8680 0.8680
1764.963000 0.8680 0.8680 0.8680 0.8680 0.8680
1772.606054 0.8680 0.8670 0.8660 0.8640 0.8640
1780.242000 0.8630 0.8620 0.8610 0.8600 0.8600
1787.885054 0.8590 0.8580 0.8570 0.8550 0.8540
1795.522000 0.8520 0.8480 0.8440 0.8380 0.8300
1803.165054 0.8220 0.8120 0.8100 0.8110 0.8230
1810.801000 0.8340 0.8450 0.8460 0.8550 0.8640
1818.444054 0.8690 0.8740 0.8750 0.8770 0.8770
1826.080000 0.8770 0.8770 0.8790 0.8800 0.8810
1833.723054 0.8810 0.8810 0.8820 0.8820 0.8830
1841.359000 0.8830 0.8830 0.8830 0.8820 0.8820
1849.002054 0.8810 0.8810 0.8810 0.8800 0.8790
1856.639000 0.8780 0.8770 0.8770 0.8740 0.8740
1864.282054 0.8730 0.8710 0.8690 0.8680 0.8670
1871.918000 0.8660 0.8660 0.8650 0.8650 0.8640
1879.561054 0.8640 0.8640 0.8640 0.8630 0.8620
1887.197000 0.8620 0.8610 0.8610 0.8600 0.8580
1894.840054 0.8560 0.8550 0.8550 0.8550 0.8540
1902.476000 0.8530 0.8520 0.8520 0.8520 0.8510
1910.119054 0.8500 0.8490 0.8480 0.8480 0.8470
1917.756000 0.8460 0.8460 0.8450 0.8450 0.8440
1925.399054 0.8430 0.8420 0.8420 0.8420 0.8420
1933.035000 0.8410 0.8390 0.8370 0.8360 0.8360
1940.678054 0.8350 0.8340 0.8330 0.8320 0.8320
1948.314000 0.8310 0.8300 0.8290 0.8290 0.8280
1955.957054 0.8270 0.8260 0.8260 0.8260 0.8260
1963.593000 0.8260 0.8250 0.8250 0.8240 0.8240
1971.236054 0.8230 0.8230 0.8230 0.8220 0.8220
1978.873000 0.8210 0.8210 0.8200 0.8190 0.8190
1986.516054 0.8180 0.8170 0.8160 0.8160 0.8160
1994.152000 0.8150 0.8140 0.8130 0.8130 0.8130
2001.795054 0.8120 0.8110 0.8100 0.8100 0.8100
2009.431000 0.8100 0.8090 0.8070 0.8070 0.8050
2017.074054 0.8030 0.8020 0.8000 0.7990 0.7970
2024.710000 0.7970 0.7950 0.7940 0.7940 0.7940
2032.353054 0.7930 0.7930 0.7920 0.7920 0.7910
2039.990000 0.7910 0.7900 0.7900 0.7890 0.7880
2047.633054 0.7870 0.7870 0.7870 0.7860 0.7850
2055.269000 0.7840 0.7840 0.7830 0.7820 0.7810
2062.912054 0.7810 0.7810 0.7800 0.7790 0.7780
2070.548000 0.7780 0.7780 0.7770 0.7770 0.7750
2078.191054 0.7740 0.7730 0.7720 0.7720 0.7710
2085.827000 0.7710 0.7710 0.7710 0.7700 0.7700
2093.470054 0.7690 0.7680 0.7680 0.7680 0.7670
2101.106000 0.7670 0.7660 0.7650 0.7650 0.7650
2108.749054 0.7640 0.7630 0.7630 0.7620 0.7620
2116.386000 0.7600 0.7580 0.7570 0.7560 0.7550
2124.029054 0.7550 0.7550 0.7540 0.7530 0.7520
2131.665000 0.7520 0.7510 0.7510 0.7510 0.7510
2139.308054 0.7500 0.7500 0.7490 0.7490 0.7490
2146.944000 0.7490 0.7480 0.7480 0.7480 0.7480
2154.587054 0.7480 0.7480 0.7480 0.7480 0.7470
2162.223000 0.7470 0.7470 0.7470 0.7450 0.7450
2169.866054 0.7450 0.7440 0.7430 0.7410 0.7400
2177.503000 0.7390 0.7370 0.7360 0.7360 0.7360
2185.146054 0.7360 0.7360 0.7350 0.7350 0.7350
2192.782000 0.7350 0.7350 0.7350 0.7340 0.7340
2200.425054 0.7340 0.7340 0.7340 0.7330 0.7330
2208.061000 0.7320 0.7300 0.7290 0.7270 0.7260
2215.704054 0.7260 0.7260 0.7250 0.7230 0.7230
2223.340000 0.7220 0.7200 0.7200 0.7180 0.7170
2230.983054 0.7170 0.7150 0.7130 0.7130 0.7120
2238.620000 0.7120 0.7110 0.7110 0.7100 0.7100
2246.263054 0.7100 0.7090 0.7080 0.7070 0.7070
2253.899000 0.7070 0.7060 0.7060 0.7040 0.7040
2261.542054 0.7030 0.7020 0.7010 0.7000 0.7000
2269.178000 0.6990 0.6980 0.6970 0.6970 0.6960
2276.821054 0.6950 0.6940 0.6930 0.6930 0.6920
2284.457000 0.6920 0.6910 0.6910 0.6910 0.6900
2292.100054 0.6880 0.6870 0.6860 0.6850 0.6810
2299.737000 0.6800 0.6780 0.6770 0.6760 0.6750
2307.380054 0.6730 0.6720 0.6700 0.6680 0.6680
2315.016000 0.6660 0.6640 0.6590 0.6550 0.6510
2322.659054 0.6480 0.6460 0.6430 0.6430 0.6430
2330.295000 0.6420 0.6410 0.6410 0.6410 0.6400
2337.938054 0.6400 0.6390 0.6390 0.6390 0.6380
2345.574000 0.6380 0.6370 0.6370 0.6360 0.6360
2353.217054 0.6360 0.6360 0.6360 0.6370 0.6370
2360.854000 0.6370 0.6370 0.6370 0.6370 0.6370
2368.497054 0.6370 0.6370 0.6370 0.6370 0.6370
2376.133000 0.6370 0.6370 0.6370 0.6370 0.6360
2383.776054 0.6360 0.6360 0.6360 0.6360 0.6350
2391.412000 0.6350 0.6330 0.6330 0.6320 0.6300
2399.055054 0.6290 0.6270 0.6230 0.6210 0.6190
2406.691000 0.6180 0.6170 0.6170 0.6160 0.6160
2414.334054 0.6160 0.6160 0.6160 0.6150 0.6150
2421.970000 0.6150 0.6140 0.6140 0.6140 0.6140
2429.613054 0.6140 0.6140 0.6140 0.6140 0.6130
2437.250000 0.6120 0.6110 0.6110 0.6100 0.6100
2444.893054 0.6100 0.6090 0.6080 0.6070 0.6070
2452.529000 0.6070 0.6070 0.6060 0.6050 0.6040
2460.172054 0.6040 0.6030 0.6020 0.6010 0.6010
2467.808000 0.6000 0.5990 0.5980 0.5980 0.5950
2475.451054 0.5940 0.5920 0.5910 0.5880 0.5860
2483.087000 0.5850 0.5820 0.5800 0.5780 0.5770
2490.730054 0.5750 0.5740 0.5720 0.5710 0.5710
2498.367000 0.5700 0.5690 0.5690 0.5690 0.5680
2506.010054 0.5670 0.5660 0.5650 0.5650 0.5640
2513.646000 0.5630 0.5620 0.5610 0.5600 0.5590
2521.289054 0.5590 0.5580 0.5570 0.5560 0.5560
2528.925000 0.5540 0.5510 0.5480 0.5430 0.5400
2536.568054 0.5370 0.5350 0.5320 0.5310 0.5310
2544.205000 0.5300 0.5300 0.5300 0.5300 0.5300
2551.848054 0.5300 0.5300 0.5290 0.5290 0.5290
2559.484000 0.5290 0.5290 0.5290 0.5300 0.5300
2567.127054 0.5290 0.5290 0.5280 0.5270 0.5270
2574.763000 0.5270 0.5260 0.5250 0.5240 0.5230
2582.406054 0.5220 0.5200 0.5200 0.5190 0.5180
2590.042000 0.5170 0.5170 0.5160 0.5150 0.5130
2597.685054 0.5110 0.5080 0.5060 0.5040 0.5030
2605.322000 0.5010 0.5000 0.4980 0.4970 0.4950
2612.965054 0.4930 0.4910 0.4880 0.4850 0.4800
2620.601000 0.4790 0.4790 0.4780 0.4770 0.4750
2628.244054 0.4750 0.4750 0.4740 0.4730 0.4720
2635.880000 0.4720 0.4710 0.4700 0.4700 0.4690
2643.523054 0.4690 0.4690 0.4680 0.4670 0.4650
2651.159000 0.4610 0.4570 0.4550 0.4530 0.4520
2658.802054 0.4480 0.4470 0.4460 0.4450 0.4450
2666.438000 0.4440 0.4430 0.4430 0.4410 0.4400
2674.081054 0.4380 0.4360 0.4340 0.4320 0.4300
2681.718000 0.4270 0.4240 0.4220 0.4200 0.4170
2689.361054 0.4140 0.4110 0.4090 0.4060 0.4030
2696.997000 0.4010 0.3980 0.3950 0.3920 0.3890
2704.640054 0.3870 0.3850 0.3820 0.3800 0.3780
2712.276000 0.3760 0.3730 0.3720 0.3690 0.3690
2719.919054 0.3690 0.3670 0.3660 0.3650 0.3640
2727.555000 0.3640 0.3640 0.3640 0.3630 0.3630
2735.198054 0.3630 0.3630 0.3630 0.3630 0.3630
2742.835000 0.3630 0.3630 0.3620 0.3610 0.3610
2750.478054 0.3600 0.3600 0.3600 0.3560 0.3530
2758.114000 0.3490 0.3460 0.3430 0.3420 0.3410
2765.757054 0.3410 0.3400 0.3390 0.3370 0.3350
2773.393000 0.3330 0.3300 0.3260 0.3250 0.3210
2781.036054 0.3170 0.3130 0.3100 0.3060 0.3030
2788.672000 0.3000 0.2960 0.2920 0.2870 0.2810
2796.315054 0.2740 0.2650 0.2630 0.2600 0.2560
2803.952000 0.2500 0.2480 0.2470 0.2450 0.2440
2811.595054 0.2430 0.2420 0.2410 0.2400 0.2350
2819.231000 0.2320 0.2300 0.2280 0.2250 0.2250
2826.874054 0.2240 0.2240 0.2230 0.2230 0.2220
2834.510000 0.2220 0.2220 0.2220 0.2220 0.2220
2842.153054 0.2220 0.2220 0.2220 0.2220 0.2230
2849.789000 0.2230 0.2230 0.2240 0.2250 0.2250
2857.432054 0.2280 0.2300 0.2330 0.2370 0.2410
2865.069000 0.2440 0.2480 0.2530 0.2580 0.2630
2872.712054 0.2700 0.2760 0.2830 0.2900 0.2980
2880.348000 0.3060 0.3140 0.3220 0.3310 0.3400
2887.991054 0.3490 0.3580 0.3670 0.3760 0.3820
2895.627000 0.3840 0.3850 0.3850 0.3860 0.3860
2903.270054 0.3860 0.3850 0.3850 0.3850 0.3850
2910.906000 0.3840 0.3830 0.3820 0.3820 0.3820
2918.549054 0.3820 0.3810 0.3810 0.3810 0.3810
2926.186000 0.3800 0.3800 0.3800 0.3800 0.3800
2933.829054 0.3800 0.3790 0.3790 0.3780 0.3760
2941.465000 0.3750 0.3730 0.3720 0.3690 0.3680
2949.108054 0.3660 0.3650 0.3630 0.3630 0.3610
2956.744000 0.3600 0.3600 0.3590 0.3560 0.3490
2964.387054 0.3440 0.3410 0.3390 0.3370 0.3370
2972.023000 0.3360 0.3340 0.3330 0.3290 0.3260
2979.666054 0.3240 0.3240 0.3240 0.3240 0.3240
2987.302000 0.3240 0.3240 0.3230 0.3230 0.3230
2994.945054 0.3220 0.3220 0.3220 0.3210 0.3210
3002.582000 0.3210 0.3210 0.3210 0.3200 0.3200
3010.225054 0.3190 0.3190 0.3180 0.3180 0.3160
3017.861000 0.3150 0.3120 0.3110 0.3110 0.3110
3025.504054 0.3100 0.3100 0.3090 0.3090 0.3080
3033.140000 0.3080 0.3080 0.3080 0.3080 0.3080
3040.783054 0.3080 0.3080 0.3080 0.3080 0.3080
3048.419000 0.3070 0.3060 0.3050 0.3050 0.3020
3056.062054 0.3000 0.2980 0.2950 0.2920 0.2880
3063.699000 0.2850 0.2810 0.2770 0.2740 0.2710
3071.342054 0.2690 0.2660 0.2640 0.2630 0.2620
3078.978000 0.2610 0.2600 0.2600 0.2600 0.2600
3086.621054 0.2600 0.2600 0.2600 0.2600 0.2600
3094.257000 0.2600 0.2600 0.2600 0.2600 0.2600
3101.900054 0.2600 0.2600 0.2600 0.2600 0.2600
3109.536000 0.2620 0.2630 0.2660 0.2690 0.2720
3117.179054 0.2730 0.2720 0.2720 0.2700 0.2690
3124.816000 0.2670 0.2660 0.2640 0.2630 0.2620
3132.459054 0.2600 0.2590 0.2570 0.2570 0.2560
3140.095000 0.2550 0.2550 0.2540 0.2540 0.2540
3147.738054 0.2550 0.2550 0.2560 0.2570 0.2570
3155.374000 0.2580 0.2590 0.2600 0.2600 0.2610
3163.017054 0.2620 0.2620 0.2630 0.2630 0.2630
3170.653000 0.2630 0.2630 0.2630 0.2630 0.2630
3178.296054 0.2630 0.2630 0.2630 0.2630 0.2630
3185.933000 0.2630 0.2620 0.2620 0.2620 0.2610
3193.576054 0.2610 0.2600 0.2600 0.2600 0.2600
3201.212000 0.2600 0.2590 0.2590 0.2590 0.2590
3208.855054 0.2590 0.2590 0.2590 0.2600 0.2600
3216.491000 0.2600 0.2600 0.2610 0.2610 0.2650
3224.134054 0.2710 0.2760 0.2800 0.2830 0.2870
3231.770000 0.2920 0.2960 0.2980 0.3000 0.3010
3239.413054 0.3030 0.3070 0.3070 0.3080 0.3080
3247.050000 0.3080 0.3080 0.3080 0.3080 0.3080
3254.693054 0.3080 0.3080 0.3080 0.3080 0.3080
3262.329000 0.3080 0.3070 0.3060 0.3060 0.3050
3269.972054 0.3050 0.3040 0.3030 0.3030 0.3020
3277.608000 0.3020 0.3000 0.3000 0.2990 0.2990
3285.251054 0.2980 0.2980 0.2970 0.2960 0.2950
3292.887000 0.2950 0.2950 0.2940 0.2930 0.2930
3300.530054 0.2930 0.2920 0.2910 0.2890 0.2890
3308.167000 0.2880 0.2880 0.2880 0.2860 0.2850
3315.810054 0.2850 0.2840 0.2820 0.2790 0.2760
3323.446000 0.2730 0.2720 0.2700 0.2680 0.2660
3331.089054 0.2650 0.2640 0.2630 0.2620 0.2620
3338.725000 0.2610 0.2580 0.2550 0.2540 0.2530
3346.368054 0.2520 0.2510 0.2510 0.2500 0.2490
3354.004000 0.2470 0.2440 0.2410 0.2350 0.2280
3361.647054 0.2200 0.2090 0.1980 0.1860 0.1730
3369.283000 0.1600 0.1470 0.1340 0.1200 0.1190
3376.926054 0.1200 0.1370 0.1540 0.1700 0.2020
3384.563000 0.2030 0.2130 0.2220 0.2340 0.2470
3392.206054 0.2710 0.2890 0.3040 0.3150 0.3240
3399.842000 0.3310 0.3390 0.3470 0.3500 0.3520
3407.485054 0.3530 0.3540 0.3560 0.3560 0.3580
3415.121000 0.3600 0.3610 0.3620 0.3630 0.3630
3422.764054 0.3630 0.3640 0.3640 0.3650 0.3650
3430.400000 0.3660 0.3660 0.3660 0.3660 0.3660
3438.043054 0.3660 0.3660 0.3660 0.3660 0.3660
3445.680000 0.3660 0.3650 0.3650 0.3640 0.3630
3453.323054 0.3610 0.3600 0.3570 0.3550 0.3520
3460.959000 0.3490 0.3450 0.3400 0.3350 0.3300
3468.602054 0.3240 0.3160 0.3080 0.2990 0.2890
3476.238000 0.2730 0.2440 0.2190 0.2030 0.1850
3483.881054 0.1830 0.1840 0.1880 0.1920 0.1990
3491.518000 0.2080 0.2150 0.2240 0.2310 0.2520
3499.161054 0.2900 0.3800 0.4470 0.4970 0.5310
3506.797000 0.5550 0.5700 0.5820 0.5930 0.6070
3514.440054 0.6200 0.6300 0.6400 0.6490 0.6570
3522.076000 0.6650 0.6710 0.6760 0.6810 0.6840
3529.719054 0.6880 0.6910 0.6940 0.6950 0.6970
3537.355000 0.6990 0.7000 0.7010 0.7020 0.7040
3544.998054 0.7040 0.7040 0.7050 0.7060 0.7060
3552.635000 0.7060 0.7070 0.7070 0.7070 0.7070
3560.278054 0.7070 0.7070 0.7070 0.7070 0.7070
3567.914000 0.7070 0.7070 0.7070 0.7070 0.7070
3575.557054 0.7070 0.7070 0.7070 0.7070 0.7070
3583.193000 0.7070 0.7070 0.7070 0.7070 0.7070
3590.836054 0.7060 0.7060 0.7060 0.7050 0.7050
3598.472000 0.7040 0.7040 0.7040 0.7040 0.7030
3606.115054 0.7030 0.7020 0.7020 0.7010 0.7010
3613.751000 0.7000 0.6990 0.6980 0.6970 0.6970
3621.394054 0.6970 0.6970 0.6960 0.6960 0.6950
3629.031000 0.6950 0.6940 0.6940 0.6940 0.6940
3636.674054 0.6930 0.6930 0.6920 0.6920 0.6910
3644.310000 0.6910 0.6910 0.6910 0.6900 0.6890
3651.953054 0.6880 0.6880 0.6880 0.6870 0.6870
3659.589000 0.6870 0.6870 0.6860 0.6860 0.6850
3667.232054 0.6850 0.6840 0.6830 0.6810 0.6770
3674.868000 0.6750 0.6720 0.6680 0.6670 0.6650
3682.511054 0.6630 0.6620 0.6620 0.6610 0.6600
3690.148000 0.6590 0.6590 0.6580 0.6580 0.6570
3697.791054 0.6560 0.6560 0.6550 0.6550 0.6550
3705.427000 0.6540 0.6530 0.6530 0.6520 0.6520
3713.070054 0.6510 0.6500 0.6490 0.6490 0.6490
3720.706000 0.6490 0.6490 0.6480 0.6470 0.6460
3728.349054 0.6450 0.6430 0.6410 0.6390 0.6360
3735.985000 0.6340 0.6340 0.6330 0.6330 0.6320
3743.628054 0.6320 0.6310 0.6310 0.6300 0.6300
3751.265000 0.6300 0.6300 0.6290 0.6290 0.6280
3758.908054 0.6280 0.6270 0.6270 0.6270 0.6270
3766.544000 0.6260 0.6260 0.6250 0.6250 0.6250
3774.187054 0.6240 0.6230 0.6230 0.6230 0.6220
3781.823000 0.6220 0.6210 0.6200 0.6200 0.6200
3789.466054 0.6190 0.6190 0.6180 0.6170 0.6170
3797.102000 0.6160 0.6150 0.6140 0.6140 0.6140
3804.745054 0.6130 0.6120 0.6120 0.6110 0.6100
3812.382000 0.6100 0.6090 0.6090 0.6080 0.6070
3820.025054 0.6070 0.6050 0.6040 0.6040 0.6030
3827.661000 0.6020 0.6010 0.6010 0.6000 0.5990
3835.304054 0.5980 0.5980 0.5980 0.5980 0.5970
3842.940000 0.5960 0.5960 0.5950 0.5950 0.5940
3850.583054 0.5940 0.5940 0.5940 0.5930 0.5930
3858.219000 0.5920 0.5920 0.5910 0.5910 0.5910
3865.862054 0.5910 0.5900 0.5900 0.5900 0.5890
3873.499000 0.5890 0.5880 0.5880 0.5880 0.5880
3881.142054 0.5880 0.5870 0.5870 0.5860 0.5850
3888.778000 0.5840 0.5830 0.5820 0.5810 0.5810
3896.421054 0.5810 0.5810 0.5800 0.5800 0.5800
3904.057000 0.5800 0.5790 0.5790 0.5790 0.5780
3911.700054 0.5780 0.5780 0.5770 0.5770 0.5760
3919.336000 0.5760 0.5750 0.5750 0.5750 0.5750
3926.979054 0.5740 0.5740 0.5740 0.5730 0.5730
3934.615000 0.5720 0.5720 0.5720 0.5720 0.5710
3942.258054 0.5710 0.5710 0.5700 0.5700 0.5700
3949.895000 0.5690 0.5690 0.5690 0.5690 0.5690
3957.538054 0.5690 0.5680 0.5680 0.5680 0.5670
3965.174000 0.5670 0.5660 0.5660 0.5660 0.5660
3972.817054 0.5650 0.5650 0.5650 0.5650 0.5650
3980.453000 0.5650 0.5650 0.5650 0.5650 0.5650
3988.096054 0.5650 0.5640 0.5640 0.5640 0.5640
3995.732000 0.5640 0.5640 0.5640 0.5640 0.5640
4003.375054 0.5640 0.5630
##END=
