##TITLE=Aldehyde of Bryodulcosigenine 5
##JCAMP-DX=4.24
##DATA TYPE=INFRARED SPECTRUM
##CLASS=COBLENTZ III
##ORIGIN=PROF. P. TUNMAN,UNIV. OF WURZBURG, GERMANY VIA SCIENTIFIC DOCUM. CTR., U.K.
##OWNER=Copyright (C) 1987 by the Coblentz Society
Collection (C) 2018 copyright by the U.S. Secretary of Commerce
on behalf of the United States of America. All rights reserved.
##DATE=1964/05/24
##NAMES=4-(3-hydroxy-4,4,9,14-tetramethyl-11-oxoestr-5-en-17-yl)pentanal
##MOLFORM=C27 H42 O3
##SOURCE REFERENCE=COBLENTZ NO. 9951
##$NIST ID=B6009951
##$NIST SOURCE=COBLENTZ
##$NIST IMAGE=cob9951
##SPECTROMETER/DATA SYSTEM=PERKIN-ELMER 21 (GRATING)
##INSTRUMENT PARAMETERS=NaCl PRISM
##STATE=SOLID (KBr DISC)
##SAMPLING PROCEDURE=TRANSMISSION
##RESOLUTION=2
##DATA PROCESSING=DIGITIZED BY COBLENTZ SOCIETY (BATCH II) FROM HARD COPY
##XUNITS=1/CM
##YUNITS=TRANSMITTANCE
##XFACTOR=1.0
##YFACTOR=1
##FIRSTX=649
##LASTX=4000
##FIRSTY=0.8289
##MAXX=4000
##MINX=649
##MAXY=0.9379
##MINY=0.148
##NPOINTS=3352
##XYDATA=(X++(Y..Y))
649.000000 0.8289 0.8359 0.8479 0.8558 0.8560
654.000000 0.8563 0.8581 0.8563 0.8527 0.8490
659.000000 0.8467 0.8489 0.8561 0.8574 0.8615
664.000000 0.8682 0.8683 0.8424 0.8288 0.8237
669.000000 0.8155 0.7917 0.7632 0.7608 0.7763
674.000000 0.8028 0.8258 0.8441 0.8558 0.8619
679.000000 0.8589 0.8550 0.8504 0.8474 0.8456
684.000000 0.8422 0.8504 0.8531 0.8557 0.8584
689.000000 0.8612 0.8645 0.8685 0.8732 0.8781
694.000000 0.8834 0.8889 0.8895 0.8905 0.8914
699.000000 0.8923 0.8933 0.8941 0.8950 0.8959
704.000000 0.8969 0.8978 0.8984 0.8999 0.8998
709.000000 0.9002 0.9005 0.9003 0.9003 0.9012
714.000000 0.9030 0.9045 0.9008 0.8976 0.8972
719.000000 0.8976 0.8981 0.8983 0.8985 0.8973
724.000000 0.8955 0.8930 0.8897 0.8870 0.8861
729.000000 0.8881 0.8908 0.8905 0.8854 0.8805
734.000000 0.8772 0.8745 0.8703 0.8574 0.8417
739.000000 0.8267 0.8179 0.8125 0.8254 0.8389
744.000000 0.8510 0.8630 0.8751 0.8848 0.8931
749.000000 0.8966 0.8974 0.8952 0.8941 0.8937
754.000000 0.8953 0.8991 0.9013 0.9018 0.9018
759.000000 0.9015 0.9013 0.9005 0.8996 0.8986
764.000000 0.8975 0.8964 0.8950 0.8936 0.8921
769.000000 0.8906 0.8892 0.8877 0.8859 0.8833
774.000000 0.8808 0.8783 0.8749 0.8709 0.8657
779.000000 0.8605 0.8542 0.8462 0.8379 0.8233
784.000000 0.7962 0.7638 0.7381 0.7341 0.7618
789.000000 0.8018 0.8292 0.8468 0.8601 0.8703
794.000000 0.8768 0.8822 0.8872 0.8905 0.8931
799.000000 0.8942 0.8942 0.8938 0.8932 0.8926
804.000000 0.8908 0.8872 0.8827 0.8759 0.8685
809.000000 0.8554 0.8346 0.8121 0.7875 0.7826
814.000000 0.8065 0.8337 0.8587 0.8730 0.8810
819.000000 0.8844 0.8850 0.8801 0.8739 0.8686
824.000000 0.8636 0.8624 0.8586 0.8652 0.8683
829.000000 0.8714 0.8750 0.8766 0.8772 0.8746
834.000000 0.8765 0.8760 0.8749 0.8733 0.8712
839.000000 0.8686 0.8658 0.8625 0.8591 0.8581
844.000000 0.8560 0.8703 0.8801 0.8875 0.8874
849.000000 0.8871 0.8863 0.8855 0.8850 0.8847
854.000000 0.8830 0.8805 0.8787 0.8790 0.8819
859.000000 0.8839 0.8823 0.8804 0.8785 0.8765
864.000000 0.8745 0.8729 0.8722 0.8715 0.8703
869.000000 0.8667 0.8610 0.8595 0.8619 0.8635
874.000000 0.8659 0.8692 0.8741 0.8790 0.8781
879.000000 0.8791 0.8783 0.8774 0.8763 0.8750
884.000000 0.8737 0.8724 0.8714 0.8703 0.8692
889.000000 0.8678 0.8664 0.8650 0.8632 0.8609
894.000000 0.8548 0.8469 0.8367 0.8254 0.8173
899.000000 0.8134 0.8126 0.8125 0.8105 0.8123
904.000000 0.8133 0.8161 0.8231 0.8300 0.8380
909.000000 0.8462 0.8485 0.8495 0.8456 0.8426
914.000000 0.8346 0.8224 0.8063 0.7913 0.7738
919.000000 0.7611 0.7514 0.7478 0.7455 0.7907
924.000000 0.8169 0.8304 0.8297 0.8270 0.8212
929.000000 0.8028 0.7846 0.7674 0.7441 0.7066
934.000000 0.6570 0.6507 0.6491 0.6785 0.7139
939.000000 0.7479 0.7676 0.7717 0.7738 0.7725
944.000000 0.7700 0.7638 0.7310 0.6979 0.6949
949.000000 0.6931 0.7078 0.7250 0.7423 0.7567
954.000000 0.7632 0.7643 0.7642 0.7633 0.7629
959.000000 0.7617 0.7601 0.7571 0.7536 0.7489
964.000000 0.7375 0.7144 0.6679 0.6395 0.6256
969.000000 0.6163 0.6052 0.5725 0.5351 0.5076
974.000000 0.4605 0.3461 0.3134 0.3059 0.3055
979.000000 0.3053 0.4086 0.4896 0.5539 0.6459
984.000000 0.6786 0.7226 0.7734 0.7928 0.8011
989.000000 0.8067 0.8090 0.8102 0.8104 0.8090
994.000000 0.8069 0.8044 0.8015 0.7982 0.7948
999.000000 0.7900 0.7851 0.7799 0.7748 0.7689
1004.000000 0.7604 0.7480 0.7349 0.7339 0.7359
1009.000000 0.7500 0.7702 0.7903 0.8053 0.8107
1014.000000 0.8124 0.8119 0.8093 0.8089 0.8069
1019.000000 0.8047 0.8019 0.7977 0.7916 0.7821
1024.000000 0.7635 0.7407 0.6984 0.6527 0.6071
1029.000000 0.5802 0.5783 0.5789 0.6756 0.7233
1034.000000 0.7577 0.7885 0.7999 0.8063 0.8109
1039.000000 0.8141 0.8159 0.8170 0.8156 0.8175
1044.000000 0.8170 0.8162 0.8148 0.8131 0.8107
1049.000000 0.8084 0.8052 0.8010 0.7963 0.7903
1054.000000 0.7828 0.7753 0.7680 0.7608 0.7536
1059.000000 0.7458 0.7389 0.7362 0.7320 0.7260
1064.000000 0.7193 0.7123 0.7022 0.6878 0.6747
1069.000000 0.6511 0.6316 0.6324 0.6300 0.6503
1074.000000 0.6596 0.6676 0.6685 0.6640 0.6506
1079.000000 0.6339 0.6172 0.6042 0.6040 0.6073
1084.000000 0.6231 0.6562 0.6821 0.6879 0.6874
1089.000000 0.6898 0.6728 0.6439 0.6151 0.5910
1094.000000 0.5878 0.5869 0.6051 0.6277 0.6456
1099.000000 0.6466 0.6454 0.6369 0.6174 0.5980
1104.000000 0.5786 0.5730 0.5745 0.5730 0.5911
1109.000000 0.6189 0.6661 0.6772 0.6782 0.6773
1114.000000 0.6752 0.6757 0.6772 0.6798 0.6828
1119.000000 0.6860 0.6890 0.6912 0.6907 0.6926
1124.000000 0.6878 0.6842 0.6792 0.6714 0.6640
1129.000000 0.6590 0.6597 0.6604 0.6818 0.6936
1134.000000 0.7054 0.7153 0.7203 0.7210 0.7191
1139.000000 0.7127 0.7079 0.7066 0.7080 0.7181
1144.000000 0.7303 0.7426 0.7547 0.7669 0.7831
1149.000000 0.7870 0.7889 0.7889 0.7894 0.7901
1154.000000 0.7932 0.7974 0.8000 0.7984 0.7995
1159.000000 0.7968 0.7911 0.7860 0.7802 0.7721
1164.000000 0.7632 0.7564 0.7494 0.7421 0.7326
1169.000000 0.7220 0.7114 0.7009 0.6904 0.6798
1174.000000 0.6690 0.6610 0.6585 0.6593 0.6604
1179.000000 0.6872 0.7004 0.7135 0.7247 0.7306
1184.000000 0.7317 0.7313 0.7304 0.7294 0.7283
1189.000000 0.7327 0.7431 0.7534 0.7581 0.7585
1194.000000 0.7581 0.7561 0.7534 0.7465 0.7370
1199.000000 0.7287 0.7194 0.7059 0.6831 0.6596
1204.000000 0.6394 0.6271 0.6194 0.6190 0.6181
1209.000000 0.6364 0.6506 0.6648 0.6712 0.6628
1214.000000 0.6480 0.6366 0.6364 0.6370 0.6349
1219.000000 0.6493 0.6648 0.6803 0.6957 0.7111
1224.000000 0.7265 0.7418 0.7540 0.7553 0.7567
1229.000000 0.7499 0.7407 0.7285 0.7149 0.7004
1234.000000 0.6767 0.6523 0.6294 0.6136 0.6016
1239.000000 0.5888 0.5535 0.4826 0.4388 0.4349
1244.000000 0.4343 0.4350 0.4350 0.4941 0.5452
1249.000000 0.5964 0.6475 0.6861 0.7014 0.7162
1254.000000 0.7314 0.7469 0.7690 0.7804 0.7859
1259.000000 0.7870 0.7864 0.7891 0.7759 0.7676
1264.000000 0.7609 0.7551 0.7500 0.7453 0.7419
1269.000000 0.7390 0.7351 0.7278 0.7159 0.6990
1274.000000 0.6766 0.6665 0.6591 0.6560 0.6562
1279.000000 0.6573 0.6598 0.6630 0.6642 0.6639
1284.000000 0.6623 0.6556 0.6470 0.6387 0.6308
1289.000000 0.6233 0.6164 0.6091 0.6050 0.6024
1294.000000 0.6010 0.6008 0.6017 0.6030 0.6070
1299.000000 0.6411 0.6786 0.6928 0.7106 0.7250
1304.000000 0.7387 0.7526 0.7664 0.7796 0.7920
1309.000000 0.8019 0.8109 0.8178 0.8241 0.8296
1314.000000 0.8329 0.8340 0.8335 0.8328 0.8289
1319.000000 0.8257 0.8205 0.8143 0.8075 0.7908
1324.000000 0.7703 0.7505 0.7396 0.7372 0.7367
1329.000000 0.7353 0.7454 0.7524 0.7595 0.7666
1334.000000 0.7736 0.7807 0.7877 0.7947 0.8016
1339.000000 0.8077 0.8108 0.8120 0.8126 0.8099
1344.000000 0.8074 0.8029 0.7967 0.7881 0.7789
1349.000000 0.7704 0.7624 0.7544 0.7462 0.7372
1354.000000 0.7177 0.6738 0.6299 0.6163 0.6186
1359.000000 0.6298 0.6393 0.6488 0.6547 0.6546
1364.000000 0.6562 0.6215 0.5926 0.5638 0.5350
1369.000000 0.5062 0.4817 0.4813 0.4811 0.4870
1374.000000 0.5003 0.5137 0.5272 0.5399 0.5443
1379.000000 0.5471 0.5066 0.4858 0.4654 0.4621
1384.000000 0.4602 0.4734 0.4869 0.5051 0.5227
1389.000000 0.5644 0.6259 0.6793 0.7059 0.7263
1394.000000 0.7340 0.7378 0.7397 0.7399 0.7393
1399.000000 0.7381 0.7357 0.7266 0.7073 0.6862
1404.000000 0.6650 0.6439 0.6227 0.6016 0.5805
1409.000000 0.5630 0.5597 0.5565 0.6138 0.6428
1414.000000 0.6718 0.6991 0.7121 0.7135 0.7136
1419.000000 0.7146 0.7050 0.6936 0.6790 0.6682
1424.000000 0.6551 0.6320 0.6044 0.5765 0.5488
1429.000000 0.5177 0.5165 0.5244 0.5483 0.5725
1434.000000 0.5966 0.6124 0.6149 0.5895 0.5750
1439.000000 0.5606 0.5462 0.5318 0.5204 0.5194
1444.000000 0.5356 0.5502 0.5647 0.5792 0.5937
1449.000000 0.6082 0.6149 0.6190 0.6037 0.5908
1454.000000 0.5778 0.5649 0.5519 0.5437 0.5396
1459.000000 0.5347 0.5224 0.5003 0.4766 0.4727
1464.000000 0.4750 0.4869 0.4980 0.5360 0.6193
1469.000000 0.6868 0.6970 0.7106 0.7234 0.7364
1474.000000 0.7518 0.7706 0.7824 0.7955 0.8122
1479.000000 0.8287 0.8383 0.8457 0.8524 0.8588
1484.000000 0.8650 0.8692 0.8720 0.8749 0.8778
1489.000000 0.8802 0.8822 0.8842 0.8863 0.8882
1494.000000 0.8902 0.8921 0.8935 0.8949 0.8963
1499.000000 0.8976 0.8991 0.9004 0.9015 0.9024
1504.000000 0.9033 0.9041 0.9049 0.9058 0.9064
1509.000000 0.9056 0.9044 0.9032 0.9020 0.9013
1514.000000 0.9010 0.9007 0.9005 0.9012 0.9018
1519.000000 0.9025 0.9032 0.9039 0.9045 0.9053
1524.000000 0.9053 0.9034 0.9010 0.9046 0.8957
1529.000000 0.8938 0.8923 0.8926 0.8928 0.8931
1534.000000 0.8941 0.8961 0.8984 0.9011 0.9038
1539.000000 0.9060 0.9076 0.9077 0.9073 0.9066
1544.000000 0.9057 0.9043 0.9032 0.9024 0.9015
1549.000000 0.9007 0.9010 0.9015 0.9025 0.9035
1554.000000 0.9035 0.9032 0.9030 0.9026 0.9020
1559.000000 0.9013 0.9005 0.8995 0.8982 0.8968
1564.000000 0.8954 0.8940 0.8926 0.8913 0.8900
1569.000000 0.8894 0.8900 0.8912 0.8919 0.8924
1574.000000 0.8927 0.8928 0.8925 0.8910 0.8891
1579.000000 0.8871 0.8849 0.8825 0.8804 0.8784
1584.000000 0.8770 0.8768 0.8771 0.8773 0.8774
1589.000000 0.8775 0.8774 0.8771 0.8768 0.8763
1594.000000 0.8752 0.8740 0.8716 0.8683 0.8648
1599.000000 0.8602 0.8540 0.8479 0.8434 0.8400
1604.000000 0.8362 0.8328 0.8310 0.8305 0.8301
1609.000000 0.8303 0.8312 0.8326 0.8340 0.8350
1614.000000 0.8355 0.8354 0.8353 0.8342 0.8331
1619.000000 0.8314 0.8294 0.8272 0.8250 0.8227
1624.000000 0.8205 0.8183 0.8158 0.8132 0.8104
1629.000000 0.8076 0.8048 0.8020 0.7992 0.7964
1634.000000 0.7937 0.7910 0.7884 0.7858 0.7817
1639.000000 0.7766 0.7713 0.7650 0.7577 0.7494
1644.000000 0.7376 0.7244 0.7181 0.7121 0.7081
1649.000000 0.7055 0.7030 0.6882 0.6658 0.6416
1654.000000 0.6174 0.5932 0.5691 0.5501 0.5456
1659.000000 0.5443 0.5435 0.5428 0.5420 0.5062
1664.000000 0.4473 0.3822 0.3171 0.2522 0.1914
1669.000000 0.1501 0.1488 0.1486 0.1480 0.1487
1674.000000 0.1724 0.2091 0.2458 0.2825 0.3192
1679.000000 0.3557 0.3922 0.4288 0.4652 0.5016
1684.000000 0.5380 0.5743 0.6106 0.6468 0.6830
1689.000000 0.7189 0.7315 0.7371 0.7413 0.7438
1694.000000 0.7444 0.7446 0.7437 0.7428 0.7400
1699.000000 0.7364 0.7313 0.7235 0.7134 0.7052
1704.000000 0.6865 0.6290 0.5643 0.4997 0.4351
1709.000000 0.3706 0.3061 0.2417 0.1973 0.1841
1714.000000 0.1821 0.2134 0.2746 0.3357 0.3968
1719.000000 0.4578 0.5187 0.5795 0.6403 0.6990
1724.000000 0.7207 0.7280 0.7339 0.7472 0.7643
1729.000000 0.7722 0.7799 0.7857 0.7912 0.7960
1734.000000 0.7998 0.8028 0.8059 0.8091 0.8123
1739.000000 0.8155 0.8187 0.8219 0.8254 0.8291
1744.000000 0.8328 0.8366 0.8401 0.8432 0.8461
1749.000000 0.8491 0.8521 0.8550 0.8579 0.8603
1754.000000 0.8625 0.8647 0.8670 0.8693 0.8715
1759.000000 0.8737 0.8755 0.8769 0.8781 0.8793
1764.000000 0.8806 0.8818 0.8829 0.8839 0.8848
1769.000000 0.8858 0.8867 0.8876 0.8884 0.8889
1774.000000 0.8891 0.8893 0.8895 0.8897 0.8899
1779.000000 0.8901 0.8903 0.8904 0.8906 0.8907
1784.000000 0.8909 0.8912 0.8917 0.8925 0.8932
1789.000000 0.8940 0.8948 0.8956 0.8965 0.8972
1794.000000 0.8981 0.8989 0.8999 0.9007 0.9016
1799.000000 0.9026 0.9035 0.9044 0.9053 0.9063
1804.000000 0.9072 0.9081 0.9090 0.9101 0.9114
1809.000000 0.9126 0.9138 0.9150 0.9163 0.9176
1814.000000 0.9187 0.9198 0.9210 0.9221 0.9232
1819.000000 0.9244 0.9255 0.9265 0.9270 0.9273
1824.000000 0.9276 0.9278 0.9281 0.9281 0.9277
1829.000000 0.9271 0.9265 0.9258 0.9252 0.9246
1834.000000 0.9246 0.9247 0.9248 0.9250 0.9251
1839.000000 0.9253 0.9254 0.9255 0.9256 0.9258
1844.000000 0.9260 0.9262 0.9265 0.9266 0.9268
1849.000000 0.9270 0.9272 0.9276 0.9280 0.9285
1854.000000 0.9291 0.9297 0.9303 0.9308 0.9314
1859.000000 0.9319 0.9319 0.9321 0.9322 0.9323
1864.000000 0.9323 0.9325 0.9326 0.9326 0.9327
1869.000000 0.9328 0.9327 0.9326 0.9324 0.9323
1874.000000 0.9322 0.9320 0.9319 0.9317 0.9316
1879.000000 0.9321 0.9329 0.9338 0.9346 0.9353
1884.000000 0.9360 0.9362 0.9365 0.9368 0.9371
1889.000000 0.9374 0.9376 0.9379 0.9377 0.9374
1894.000000 0.9371 0.9369 0.9366 0.9364 0.9361
1899.000000 0.9358 0.9355 0.9350 0.9344 0.9337
1904.000000 0.9331 0.9324 0.9317 0.9310 0.9303
1909.000000 0.9298 0.9293 0.9290 0.9287 0.9284
1914.000000 0.9281 0.9281 0.9281 0.9282 0.9283
1919.000000 0.9284 0.9285 0.9286 0.9287 0.9288
1924.000000 0.9289 0.9290 0.9291 0.9292 0.9293
1929.000000 0.9295 0.9299 0.9303 0.9307 0.9311
1934.000000 0.9314 0.9318 0.9328 0.9340 0.9352
1939.000000 0.9362 0.9365 0.9360 0.9357 0.9354
1944.000000 0.9352 0.9349 0.9346 0.9343 0.9340
1949.000000 0.9337 0.9333 0.9328 0.9324 0.9319
1954.000000 0.9314 0.9310 0.9307 0.9306 0.9305
1959.000000 0.9304 0.9302 0.9300 0.9298 0.9296
1964.000000 0.9294 0.9292 0.9290 0.9288 0.9286
1969.000000 0.9285 0.9283 0.9281 0.9280 0.9279
1974.000000 0.9280 0.9281 0.9285 0.9288 0.9292
1979.000000 0.9296 0.9300 0.9305 0.9312 0.9319
1984.000000 0.9326 0.9332 0.9339 0.9346 0.9352
1989.000000 0.9358 0.9358 0.9359 0.9360 0.9362
1994.000000 0.9363 0.9364 0.9365 0.9367 0.9368
1999.000000 0.9369 0.9371 0.9371 0.9371 0.9371
2004.000000 0.9372 0.9372 0.9372 0.9373 0.9373
2009.000000 0.9373 0.9373 0.9373 0.9374 0.9374
2014.000000 0.9374 0.9374 0.9374 0.9373 0.9373
2019.000000 0.9373 0.9372 0.9372 0.9372 0.9371
2024.000000 0.9371 0.9371 0.9370 0.9370 0.9370
2029.000000 0.9370 0.9370 0.9370 0.9370 0.9371
2034.000000 0.9371 0.9371 0.9371 0.9371 0.9372
2039.000000 0.9372 0.9372 0.9372 0.9372 0.9373
2044.000000 0.9373 0.9373 0.9374 0.9374 0.9374
2049.000000 0.9374 0.9375 0.9376 0.9376 0.9376
2054.000000 0.9376 0.9377 0.9378 0.9378 0.9379
2059.000000 0.9379 0.9379 0.9379 0.9379 0.9378
2064.000000 0.9377 0.9376 0.9375 0.9373 0.9371
2069.000000 0.9370 0.9369 0.9368 0.9367 0.9365
2074.000000 0.9364 0.9364 0.9362 0.9361 0.9360
2079.000000 0.9357 0.9354 0.9352 0.9350 0.9347
2084.000000 0.9345 0.9343 0.9340 0.9337 0.9335
2089.000000 0.9334 0.9332 0.9330 0.9329 0.9327
2094.000000 0.9325 0.9323 0.9324 0.9326 0.9328
2099.000000 0.9329 0.9333 0.9337 0.9342 0.9346
2104.000000 0.9351 0.9355 0.9358 0.9361 0.9365
2109.000000 0.9366 0.9366 0.9366 0.9366 0.9366
2114.000000 0.9365 0.9365 0.9365 0.9364 0.9364
2119.000000 0.9364 0.9364 0.9363 0.9363 0.9363
2124.000000 0.9363 0.9362 0.9361 0.9360 0.9359
2129.000000 0.9359 0.9358 0.9358 0.9357 0.9356
2134.000000 0.9355 0.9354 0.9354 0.9353 0.9352
2139.000000 0.9351 0.9351 0.9350 0.9349 0.9348
2144.000000 0.9348 0.9347 0.9346 0.9346 0.9345
2149.000000 0.9344 0.9343 0.9343 0.9342 0.9342
2154.000000 0.9341 0.9341 0.9340 0.9339 0.9338
2159.000000 0.9337 0.9337 0.9336 0.9336 0.9335
2164.000000 0.9334 0.9333 0.9333 0.9332 0.9330
2169.000000 0.9328 0.9327 0.9325 0.9324 0.9322
2174.000000 0.9320 0.9319 0.9318 0.9317 0.9315
2179.000000 0.9313 0.9312 0.9310 0.9309 0.9307
2184.000000 0.9307 0.9307 0.9308 0.9309 0.9312
2189.000000 0.9315 0.9320 0.9325 0.9334 0.9344
2194.000000 0.9353 0.9362 0.9363 0.9363 0.9362
2199.000000 0.9361 0.9361 0.9360 0.9360 0.9359
2204.000000 0.9357 0.9355 0.9352 0.9349 0.9346
2209.000000 0.9343 0.9340 0.9337 0.9334 0.9331
2214.000000 0.9328 0.9324 0.9321 0.9317 0.9314
2219.000000 0.9311 0.9307 0.9304 0.9301 0.9297
2224.000000 0.9292 0.9287 0.9281 0.9276 0.9271
2229.000000 0.9266 0.9261 0.9256 0.9250 0.9245
2234.000000 0.9240 0.9235 0.9230 0.9223 0.9216
2239.000000 0.9213 0.9211 0.9216 0.9222 0.9228
2244.000000 0.9234 0.9243 0.9253 0.9262 0.9272
2249.000000 0.9278 0.9283 0.9287 0.9291 0.9292
2254.000000 0.9293 0.9295 0.9296 0.9297 0.9298
2259.000000 0.9299 0.9300 0.9301 0.9301 0.9301
2264.000000 0.9301 0.9301 0.9301 0.9302 0.9302
2269.000000 0.9302 0.9302 0.9302 0.9302 0.9303
2274.000000 0.9303 0.9303 0.9303 0.9304 0.9304
2279.000000 0.9304 0.9304 0.9304 0.9304 0.9304
2284.000000 0.9305 0.9305 0.9305 0.9305 0.9304
2289.000000 0.9304 0.9303 0.9303 0.9302 0.9302
2294.000000 0.9301 0.9301 0.9300 0.9300 0.9299
2299.000000 0.9299 0.9298 0.9298 0.9298 0.9296
2304.000000 0.9295 0.9291 0.9288 0.9283 0.9279
2309.000000 0.9275 0.9271 0.9267 0.9263 0.9259
2314.000000 0.9254 0.9249 0.9238 0.9228 0.9216
2319.000000 0.9205 0.9193 0.9181 0.9168 0.9156
2324.000000 0.9137 0.9113 0.9099 0.9099 0.9098
2329.000000 0.9098 0.9098 0.9098 0.9099 0.9102
2334.000000 0.9106 0.9109 0.9113 0.9117 0.9120
2339.000000 0.9124 0.9129 0.9134 0.9140 0.9146
2344.000000 0.9152 0.9157 0.9163 0.9168 0.9173
2349.000000 0.9178 0.9183 0.9186 0.9190 0.9194
2354.000000 0.9197 0.9201 0.9204 0.9206 0.9208
2359.000000 0.9210 0.9212 0.9214 0.9216 0.9219
2364.000000 0.9221 0.9223 0.9225 0.9227 0.9228
2369.000000 0.9229 0.9230 0.9231 0.9233 0.9233
2374.000000 0.9234 0.9236 0.9237 0.9238 0.9239
2379.000000 0.9240 0.9242 0.9245 0.9247 0.9249
2384.000000 0.9251 0.9253 0.9256 0.9258 0.9260
2389.000000 0.9262 0.9263 0.9265 0.9267 0.9269
2394.000000 0.9270 0.9272 0.9274 0.9276 0.9277
2399.000000 0.9279 0.9280 0.9280 0.9280 0.9279
2404.000000 0.9278 0.9278 0.9277 0.9276 0.9275
2409.000000 0.9274 0.9273 0.9272 0.9271 0.9271
2414.000000 0.9270 0.9269 0.9268 0.9267 0.9265
2419.000000 0.9264 0.9263 0.9261 0.9259 0.9258
2424.000000 0.9257 0.9255 0.9254 0.9253 0.9251
2429.000000 0.9250 0.9249 0.9247 0.9245 0.9243
2434.000000 0.9241 0.9239 0.9237 0.9235 0.9233
2439.000000 0.9231 0.9228 0.9226 0.9224 0.9222
2444.000000 0.9220 0.9218 0.9216 0.9214 0.9212
2449.000000 0.9210 0.9208 0.9206 0.9204 0.9202
2454.000000 0.9200 0.9197 0.9195 0.9193 0.9191
2459.000000 0.9189 0.9187 0.9185 0.9183 0.9181
2464.000000 0.9179 0.9176 0.9174 0.9172 0.9169
2469.000000 0.9167 0.9165 0.9163 0.9161 0.9159
2474.000000 0.9157 0.9155 0.9153 0.9151 0.9149
2479.000000 0.9146 0.9144 0.9142 0.9141 0.9139
2484.000000 0.9137 0.9135 0.9133 0.9131 0.9129
2489.000000 0.9127 0.9126 0.9124 0.9122 0.9120
2494.000000 0.9118 0.9116 0.9114 0.9112 0.9111
2499.000000 0.9109 0.9107 0.9105 0.9103 0.9101
2504.000000 0.9099 0.9098 0.9096 0.9094 0.9092
2509.000000 0.9090 0.9088 0.9086 0.9084 0.9083
2514.000000 0.9081 0.9079 0.9077 0.9075 0.9073
2519.000000 0.9071 0.9070 0.9068 0.9066 0.9064
2524.000000 0.9061 0.9058 0.9056 0.9053 0.9051
2529.000000 0.9048 0.9045 0.9043 0.9040 0.9037
2534.000000 0.9035 0.9033 0.9030 0.9027 0.9025
2539.000000 0.9022 0.9019 0.9017 0.9014 0.9012
2544.000000 0.9009 0.9007 0.9004 0.9001 0.8999
2549.000000 0.8996 0.8993 0.8991 0.8988 0.8986
2554.000000 0.8983 0.8981 0.8978 0.8975 0.8973
2559.000000 0.8970 0.8966 0.8962 0.8959 0.8955
2564.000000 0.8951 0.8947 0.8943 0.8939 0.8936
2569.000000 0.8932 0.8928 0.8924 0.8921 0.8917
2574.000000 0.8913 0.8909 0.8905 0.8902 0.8898
2579.000000 0.8894 0.8890 0.8887 0.8883 0.8879
2584.000000 0.8875 0.8871 0.8866 0.8861 0.8856
2589.000000 0.8852 0.8847 0.8842 0.8837 0.8832
2594.000000 0.8827 0.8823 0.8818 0.8813 0.8807
2599.000000 0.8802 0.8798 0.8793 0.8788 0.8783
2604.000000 0.8778 0.8774 0.8769 0.8764 0.8759
2609.000000 0.8754 0.8750 0.8745 0.8740 0.8734
2614.000000 0.8728 0.8722 0.8716 0.8709 0.8703
2619.000000 0.8697 0.8691 0.8685 0.8679 0.8672
2624.000000 0.8666 0.8660 0.8654 0.8648 0.8641
2629.000000 0.8635 0.8629 0.8623 0.8617 0.8611
2634.000000 0.8605 0.8597 0.8589 0.8581 0.8572
2639.000000 0.8563 0.8555 0.8546 0.8538 0.8529
2644.000000 0.8520 0.8512 0.8503 0.8495 0.8486
2649.000000 0.8478 0.8469 0.8460 0.8449 0.8437
2654.000000 0.8426 0.8412 0.8398 0.8384 0.8371
2659.000000 0.8357 0.8344 0.8330 0.8317 0.8303
2664.000000 0.8287 0.8272 0.8255 0.8236 0.8218
2669.000000 0.8200 0.8182 0.8163 0.8139 0.8115
2674.000000 0.8089 0.8058 0.8027 0.7994 0.7958
2679.000000 0.7922 0.7881 0.7833 0.7786 0.7727
2684.000000 0.7661 0.7594 0.7524 0.7453 0.7382
2689.000000 0.7311 0.7240 0.7169 0.7098 0.7027
2694.000000 0.6956 0.6886 0.6815 0.6747 0.6697
2699.000000 0.6647 0.6607 0.6607 0.6606 0.6606
2704.000000 0.6607 0.6608 0.6621 0.6653 0.6685
2709.000000 0.6587 0.6860 0.6969 0.7077 0.7186
2714.000000 0.7295 0.7403 0.7511 0.7619 0.7727
2719.000000 0.7836 0.7944 0.8052 0.8159 0.8267
2724.000000 0.8327 0.8365 0.8403 0.8418 0.8424
2729.000000 0.8431 0.8433 0.8435 0.8436 0.8443
2734.000000 0.8432 0.8429 0.8426 0.8423 0.8420
2739.000000 0.8416 0.8412 0.8407 0.8401 0.8394
2744.000000 0.8387 0.8378 0.8368 0.8358 0.8335
2749.000000 0.8309 0.8282 0.8249 0.8215 0.8180
2754.000000 0.8145 0.8111 0.8076 0.8042 0.8007
2759.000000 0.7973 0.7938 0.7904 0.7869 0.7835
2764.000000 0.7801 0.7766 0.7732 0.7698 0.7663
2769.000000 0.7629 0.7595 0.7561 0.7527 0.7493
2774.000000 0.7459 0.7425 0.7391 0.7357 0.7325
2779.000000 0.7302 0.7279 0.7253 0.7216 0.7178
2784.000000 0.7141 0.7118 0.7096 0.7074 0.7007
2789.000000 0.6936 0.6866 0.6698 0.6508 0.6319
2794.000000 0.6181 0.6065 0.5949 0.5892 0.5876
2799.000000 0.5861 0.5847 0.5835 0.5824 0.5814
2804.000000 0.5808 0.5802 0.5795 0.5789 0.5783
2809.000000 0.5776 0.5773 0.5769 0.5765 0.5763
2814.000000 0.5760 0.5758 0.5756 0.5754 0.5752
2819.000000 0.5749 0.5747 0.5744 0.5741 0.5738
2824.000000 0.5735 0.5730 0.5710 0.5690 0.5671
2829.000000 0.5646 0.5620 0.5595 0.5546 0.5489
2834.000000 0.5432 0.5377 0.5324 0.5272 0.5219
2839.000000 0.5166 0.5113 0.5060 0.5007 0.4955
2844.000000 0.4902 0.4849 0.4797 0.4744 0.4692
2849.000000 0.4639 0.4587 0.4534 0.4482 0.4430
2854.000000 0.4377 0.4325 0.4272 0.4220 0.4193
2859.000000 0.4171 0.4149 0.4129 0.4111 0.4093
2864.000000 0.4075 0.4057 0.4039 0.4021 0.4006
2869.000000 0.3991 0.3976 0.3963 0.3949 0.3936
2874.000000 0.3928 0.3926 0.3924 0.3923 0.3923
2879.000000 0.3923 0.3923 0.3925 0.3929 0.3932
2884.000000 0.3936 0.3940 0.3945 0.3949 0.3951
2889.000000 0.3954 0.3956 0.3942 0.3925 0.3907
2894.000000 0.3868 0.3806 0.3744 0.3684 0.3642
2899.000000 0.3600 0.3558 0.3498 0.3432 0.3366
2904.000000 0.3311 0.3274 0.3236 0.3199 0.3183
2909.000000 0.3166 0.3149 0.3133 0.3117 0.3101
2914.000000 0.3085 0.3069 0.3053 0.3037 0.3022
2919.000000 0.3008 0.2994 0.2981 0.2972 0.2962
2924.000000 0.2952 0.2944 0.2937 0.2929 0.2924
2929.000000 0.2921 0.2918 0.2915 0.2912 0.2909
2934.000000 0.2905 0.2903 0.2901 0.2900 0.2899
2939.000000 0.2899 0.2899 0.2899 0.2899 0.2899
2944.000000 0.2899 0.2895 0.2908 0.2915 0.2923
2949.000000 0.3013 0.3114 0.3215 0.3315 0.3416
2954.000000 0.3517 0.3618 0.3719 0.3819 0.3919
2959.000000 0.4020 0.4120 0.4221 0.4321 0.4421
2964.000000 0.4521 0.4622 0.4721 0.4821 0.4921
2969.000000 0.5020 0.5120 0.5220 0.5320 0.5419
2974.000000 0.5518 0.5617 0.5717 0.5816 0.5915
2979.000000 0.6014 0.6113 0.6212 0.6311 0.6410
2984.000000 0.6509 0.6608 0.6706 0.6805 0.6903
2989.000000 0.7002 0.7100 0.7198 0.7296 0.7394
2994.000000 0.7492 0.7590 0.7688 0.7786 0.7884
2999.000000 0.7982 0.8080 0.8178 0.8289 0.8404
3004.000000 0.8519 0.8614 0.8627 0.8639 0.8652
3009.000000 0.8660 0.8664 0.8667 0.8671 0.8675
3014.000000 0.8680 0.8684 0.8687 0.8690 0.8694
3019.000000 0.8697 0.8699 0.8702 0.8704 0.8707
3024.000000 0.8709 0.8711 0.8714 0.8716 0.8719
3029.000000 0.8721 0.8724 0.8726 0.8729 0.8731
3034.000000 0.8734 0.8738 0.8742 0.8746 0.8750
3039.000000 0.8754 0.8759 0.8763 0.8767 0.8772
3044.000000 0.8776 0.8780 0.8786 0.8791 0.8797
3049.000000 0.8803 0.8808 0.8813 0.8819 0.8824
3054.000000 0.8830 0.8836 0.8841 0.8847 0.8852
3059.000000 0.8858 0.8864 0.8870 0.8875 0.8881
3064.000000 0.8887 0.8892 0.8896 0.8901 0.8905
3069.000000 0.8908 0.8911 0.8914 0.8916 0.8919
3074.000000 0.8922 0.8924 0.8926 0.8927 0.8928
3079.000000 0.8930 0.8931 0.8933 0.8935 0.8936
3084.000000 0.8937 0.8939 0.8940 0.8941 0.8942
3089.000000 0.8943 0.8943 0.8943 0.8943 0.8943
3094.000000 0.8943 0.8943 0.8943 0.8943 0.8915
3099.000000 0.8942 0.8942 0.8942 0.8941 0.8941
3104.000000 0.8941 0.8941 0.8940 0.8939 0.8939
3109.000000 0.8938 0.8937 0.8936 0.8936 0.8935
3114.000000 0.8934 0.8933 0.8932 0.8932 0.8931
3119.000000 0.8930 0.8929 0.8929 0.8928 0.8927
3124.000000 0.8926 0.8926 0.8925 0.8924 0.8924
3129.000000 0.8923 0.8922 0.8921 0.8920 0.8918
3134.000000 0.8917 0.8915 0.8914 0.8912 0.8910
3139.000000 0.8909 0.8907 0.8905 0.8904 0.8902
3144.000000 0.8900 0.8899 0.8897 0.8895 0.8894
3149.000000 0.8892 0.8890 0.8888 0.8887 0.8884
3154.000000 0.8880 0.8876 0.8872 0.8868 0.8863
3159.000000 0.8859 0.8855 0.8851 0.8846 0.8842
3164.000000 0.8838 0.8833 0.8828 0.8823 0.8818
3169.000000 0.8813 0.8808 0.8803 0.8798 0.8793
3174.000000 0.8788 0.8784 0.8779 0.8774 0.8768
3179.000000 0.8763 0.8758 0.8753 0.8748 0.8743
3184.000000 0.8738 0.8733 0.8728 0.8723 0.8718
3189.000000 0.8712 0.8707 0.8703 0.8698 0.8693
3194.000000 0.8688 0.8684 0.8680 0.8675 0.8671
3199.000000 0.8666 0.8662 0.8658 0.8653 0.8649
3204.000000 0.8644 0.8640 0.8636 0.8633 0.8629
3209.000000 0.8625 0.8622 0.8618 0.8614 0.8611
3214.000000 0.8607 0.8603 0.8599 0.8595 0.8593
3219.000000 0.8591 0.8589 0.8588 0.8586 0.8585
3224.000000 0.8584 0.8582 0.8581 0.8580 0.8579
3229.000000 0.8578 0.8577 0.8577 0.8576 0.8575
3234.000000 0.8574 0.8573 0.8572 0.8571 0.8570
3239.000000 0.8569 0.8568 0.8566 0.8565 0.8564
3244.000000 0.8563 0.8562 0.8561 0.8559 0.8555
3249.000000 0.8550 0.8545 0.8540 0.8528 0.8516
3254.000000 0.8504 0.8492 0.8479 0.8466 0.8453
3259.000000 0.8440 0.8429 0.8418 0.8408 0.8398
3264.000000 0.8388 0.8377 0.8367 0.8357 0.8347
3269.000000 0.8337 0.8327 0.8316 0.8306 0.8296
3274.000000 0.8286 0.8275 0.8265 0.8255 0.8245
3279.000000 0.8235 0.8225 0.8215 0.8204 0.8193
3284.000000 0.8183 0.8172 0.8160 0.8147 0.8134
3289.000000 0.8122 0.8109 0.8096 0.8083 0.8071
3294.000000 0.8058 0.8046 0.8033 0.8021 0.8008
3299.000000 0.7996 0.7983 0.7971 0.7958 0.7943
3304.000000 0.7926 0.7909 0.7892 0.7874 0.7857
3309.000000 0.7840 0.7822 0.7805 0.7788 0.7771
3314.000000 0.7754 0.7737 0.7717 0.7694 0.7670
3319.000000 0.7646 0.7623 0.7599 0.7576 0.7553
3324.000000 0.7529 0.7513 0.7502 0.7492 0.7481
3329.000000 0.7470 0.7460 0.7449 0.7439 0.7428
3334.000000 0.7417 0.7407 0.7396 0.7385 0.7374
3339.000000 0.7363 0.7352 0.7341 0.7330 0.7319
3344.000000 0.7308 0.7296 0.7285 0.7273 0.7262
3349.000000 0.7250 0.7238 0.7227 0.7215 0.7204
3354.000000 0.7192 0.7181 0.7168 0.7151 0.7134
3359.000000 0.7117 0.7100 0.7081 0.7062 0.7043
3364.000000 0.7024 0.7004 0.6985 0.6966 0.6947
3369.000000 0.6928 0.6898 0.6863 0.6829 0.6795
3374.000000 0.6761 0.6729 0.6697 0.6665 0.6633
3379.000000 0.6605 0.6580 0.6556 0.6531 0.6506
3384.000000 0.6483 0.6459 0.6436 0.6412 0.6390
3389.000000 0.6368 0.6347 0.6326 0.6304 0.6283
3394.000000 0.6261 0.6240 0.6218 0.6195 0.6169
3399.000000 0.6142 0.6115 0.6088 0.6057 0.6024
3404.000000 0.5991 0.5958 0.5925 0.5885 0.5844
3409.000000 0.5804 0.5763 0.5722 0.5681 0.5639
3414.000000 0.5597 0.5555 0.5504 0.5449 0.5395
3419.000000 0.5340 0.5284 0.5203 0.5122 0.5041
3424.000000 0.4960 0.4879 0.4798 0.4717 0.4635
3429.000000 0.4554 0.4473 0.4392 0.4312 0.4231
3434.000000 0.4150 0.4069 0.3988 0.3908 0.3827
3439.000000 0.3747 0.3666 0.3586 0.3505 0.3425
3444.000000 0.3376 0.3362 0.3349 0.3335 0.3321
3449.000000 0.3317 0.3315 0.3314 0.3313 0.3312
3454.000000 0.3311 0.3311 0.3311 0.3311 0.3302
3459.000000 0.3349 0.3381 0.3414 0.3446 0.3492
3464.000000 0.3557 0.3623 0.3689 0.3755 0.3821
3469.000000 0.3886 0.3952 0.4018 0.4084 0.4149
3474.000000 0.4215 0.4280 0.4346 0.4411 0.4476
3479.000000 0.4542 0.4607 0.4672 0.4737 0.4802
3484.000000 0.4868 0.4933 0.4998 0.5063 0.5128
3489.000000 0.5193 0.5258 0.5323 0.5388 0.5453
3494.000000 0.5518 0.5582 0.5647 0.5712 0.5776
3499.000000 0.5841 0.5905 0.5970 0.6034 0.6098
3504.000000 0.6163 0.6227 0.6291 0.6356 0.6420
3509.000000 0.6484 0.6548 0.6612 0.6677 0.6741
3514.000000 0.6805 0.6869 0.6933 0.6997 0.7061
3519.000000 0.7125 0.7189 0.7252 0.7316 0.7380
3524.000000 0.7443 0.7507 0.7571 0.7634 0.7698
3529.000000 0.7761 0.7824 0.7888 0.7951 0.8015
3534.000000 0.8078 0.8142 0.8205 0.8243 0.8279
3539.000000 0.8315 0.8351 0.8387 0.8425 0.8464
3544.000000 0.8502 0.8541 0.8580 0.8630 0.8682
3549.000000 0.8734 0.8786 0.8838 0.8854 0.8863
3554.000000 0.8873 0.8882 0.8892 0.8897 0.8902
3559.000000 0.8907 0.8912 0.8916 0.8920 0.8923
3564.000000 0.8926 0.8929 0.8932 0.8935 0.8938
3569.000000 0.8941 0.8944 0.8947 0.8950 0.8953
3574.000000 0.8957 0.8960 0.8963 0.8966 0.8969
3579.000000 0.8972 0.8975 0.8978 0.8981 0.8984
3584.000000 0.8987 0.8990 0.8993 0.8996 0.8999
3589.000000 0.9002 0.9005 0.9009 0.9012 0.9015
3594.000000 0.9017 0.9020 0.9023 0.9026 0.9030
3599.000000 0.9033 0.9036 0.9040 0.9043 0.9049
3604.000000 0.9057 0.9064 0.9071 0.9078 0.9084
3609.000000 0.9090 0.9096 0.9102 0.9107 0.9113
3614.000000 0.9119 0.9124 0.9130 0.9135 0.9141
3619.000000 0.9148 0.9155 0.9162 0.9169 0.9176
3624.000000 0.9185 0.9195 0.9205 0.9214 0.9224
3629.000000 0.9231 0.9234 0.9238 0.9242 0.9246
3634.000000 0.9249 0.9252 0.9255 0.9258 0.9261
3639.000000 0.9263 0.9264 0.9265 0.9266 0.9267
3644.000000 0.9267 0.9274 0.9269 0.9270 0.9271
3649.000000 0.9272 0.9273 0.9274 0.9274 0.9275
3654.000000 0.9276 0.9277 0.9277 0.9277 0.9278
3659.000000 0.9278 0.9278 0.9279 0.9279 0.9279
3664.000000 0.9279 0.9279 0.9280 0.9280 0.9280
3669.000000 0.9280 0.9280 0.9280 0.9281 0.9281
3674.000000 0.9281 0.9281 0.9281 0.9282 0.9282
3679.000000 0.9282 0.9282 0.9282 0.9283 0.9283
3684.000000 0.9283 0.9283 0.9283 0.9283 0.9284
3689.000000 0.9284 0.9284 0.9284 0.9284 0.9285
3694.000000 0.9285 0.9285 0.9285 0.9285 0.9285
3699.000000 0.9286 0.9286 0.9286 0.9286 0.9286
3704.000000 0.9286 0.9286 0.9286 0.9286 0.9286
3709.000000 0.9286 0.9287 0.9287 0.9287 0.9287
3714.000000 0.9287 0.9288 0.9288 0.9288 0.9288
3719.000000 0.9288 0.9288 0.9289 0.9289 0.9289
3724.000000 0.9289 0.9289 0.9290 0.9290 0.9290
3729.000000 0.9290 0.9290 0.9290 0.9290 0.9290
3734.000000 0.9290 0.9290 0.9290 0.9291 0.9291
3739.000000 0.9291 0.9292 0.9292 0.9292 0.9293
3744.000000 0.9293 0.9293 0.9294 0.9294 0.9294
3749.000000 0.9295 0.9295 0.9296 0.9296 0.9296
3754.000000 0.9297 0.9297 0.9298 0.9298 0.9299
3759.000000 0.9299 0.9300 0.9300 0.9300 0.9301
3764.000000 0.9301 0.9301 0.9302 0.9303 0.9303
3769.000000 0.9304 0.9304 0.9304 0.9304 0.9304
3774.000000 0.9304 0.9304 0.9304 0.9303 0.9303
3779.000000 0.9303 0.9303 0.9303 0.9303 0.9303
3784.000000 0.9303 0.9303 0.9303 0.9303 0.9302
3789.000000 0.9302 0.9302 0.9302 0.9302 0.9302
3794.000000 0.9301 0.9301 0.9301 0.9301 0.9301
3799.000000 0.9301 0.9300 0.9300 0.9300 0.9300
3804.000000 0.9300 0.9300 0.9299 0.9299 0.9299
3809.000000 0.9298 0.9298 0.9297 0.9296 0.9295
3814.000000 0.9294 0.9293 0.9292 0.9291 0.9290
3819.000000 0.9289 0.9288 0.9287 0.9286 0.9285
3824.000000 0.9284 0.9283 0.9282 0.9281 0.9280
3829.000000 0.9279 0.9278 0.9277 0.9276 0.9275
3834.000000 0.9274 0.9273 0.9272 0.9271 0.9270
3839.000000 0.9270 0.9269 0.9268 0.9267 0.9266
3844.000000 0.9265 0.9264 0.9263 0.9262 0.9261
3849.000000 0.9260 0.9259 0.9258 0.9257 0.9256
3854.000000 0.9256 0.9255 0.9255 0.9254 0.9254
3859.000000 0.9253 0.9252 0.9252 0.9251 0.9250
3864.000000 0.9249 0.9249 0.9248 0.9248 0.9247
3869.000000 0.9247 0.9246 0.9246 0.9245 0.9244
3874.000000 0.9244 0.9243 0.9242 0.9242 0.9241
3879.000000 0.9241 0.9240 0.9240 0.9239 0.9239
3884.000000 0.9238 0.9238 0.9237 0.9236 0.9236
3889.000000 0.9235 0.9235 0.9234 0.9234 0.9233
3894.000000 0.9233 0.9232 0.9231 0.9231 0.9230
3899.000000 0.9229 0.9229 0.9228 0.9228 0.9227
3904.000000 0.9227 0.9226 0.9226 0.9225 0.9225
3909.000000 0.9225 0.9225 0.9225 0.9225 0.9224
3914.000000 0.9224 0.9224 0.9224 0.9224 0.9224
3919.000000 0.9223 0.9223 0.9223 0.9223 0.9223
3924.000000 0.9223 0.9222 0.9222 0.9222 0.9222
3929.000000 0.9222 0.9222 0.9221 0.9221 0.9221
3934.000000 0.9221 0.9221 0.9221 0.9221 0.9220
3939.000000 0.9220 0.9220 0.9220 0.9220 0.9220
3944.000000 0.9219 0.9219 0.9219 0.9219 0.9219
3949.000000 0.9219 0.9218 0.9218 0.9218 0.9218
3954.000000 0.9218 0.9218 0.9217 0.9217 0.9217
3959.000000 0.9217 0.9217 0.9217 0.9216 0.9216
3964.000000 0.9216 0.9216 0.9216 0.9216 0.9216
3969.000000 0.9215 0.9215 0.9215 0.9215 0.9215
3974.000000 0.9215 0.9214 0.9214 0.9214 0.9214
3979.000000 0.9214 0.9214 0.9213 0.9213 0.9213
3984.000000 0.9213 0.9212 0.9212 0.9212 0.9211
3989.000000 0.9211 0.9211 0.9211 0.9211 0.9211
3994.000000 0.9210 0.9210 0.9210 0.9209 0.9209
3999.000000 0.9209 0.9209
##END=
