##TITLE=ANDROSTA-4-ENE-3,17-DIONE, 1Alpha-DEUTERIO-
##JCAMP-DX=4.24
##DATA TYPE=INFRARED SPECTRUM
##CLASS=COBLENTZ III
##ORIGIN=N. L. McNIVEN- THE WORCESTER FOUNDATION FOR EXPERIMENTAL BIOLOGY
##OWNER=COBLENTZ SOCIETY
Collection (C) 2018 copyright by the U.S. Secretary of Commerce
on behalf of the United States of America. All rights reserved.
##DATE=1964/01/13
##NAMES=androst-4-ene-3,17-dione
##MOLFORM=C19 H25 O2 D
##SOURCE REFERENCE=COBLENTZ NO. 9860
##$NIST ID=B6009860
##$NIST SOURCE=COBLENTZ
##$NIST IMAGE=cob9860
##SPECTROMETER/DATA SYSTEM=BECKMAN IR-7
##STATE=SOLID (KBr DISC)
##SAMPLING PROCEDURE=TRANSMISSION
##RESOLUTION=4
##DATA PROCESSING=DIGITIZED BY NIST FROM HARD COPY (FROM TWO SEGMENTS)
##XUNITS=1/CM
##YUNITS=TRANSMITTANCE
##XFACTOR=1.000000
##YFACTOR=1
##DELTAX=0.663508
##FIRSTX=601.327
##LASTX=3983.89
##FIRSTY=0.614
##MAXX=3983.89
##MINX=601.327
##MAXY=0.964
##MINY=0.004
##NPOINTS=5099
##XYDATA=(X++(Y..Y))
601.327000 0.6140 0.6150 0.6150 0.6160 0.6190
604.644542 0.6210 0.6250 0.6300 0.6330 0.6360
607.962083 0.6400 0.6430 0.6470 0.6510 0.6560
611.279625 0.6600 0.6650 0.6700 0.6740 0.6790
614.597167 0.6840 0.6880 0.6930 0.6970 0.7010
617.914708 0.7050 0.7090 0.7130 0.7170 0.7210
621.232250 0.7230 0.7270 0.7290 0.7310 0.7330
624.549792 0.7330 0.7340 0.7350 0.7370 0.7390
627.867334 0.7410 0.7440 0.7470 0.7500 0.7540
631.184875 0.7580 0.7610 0.7650 0.7690 0.7760
634.502417 0.7800 0.7830 0.7860 0.7890 0.7910
637.819959 0.7940 0.7980 0.8010 0.8030 0.8040
641.137500 0.8050 0.8040 0.7980 0.7850 0.7790
644.455042 0.7730 0.7680 0.7560 0.7351 0.7131
647.772584 0.6930 0.6920 0.6930 0.7100 0.7270
651.090125 0.7609 0.7620 0.7759 0.7840 0.7900
654.407667 0.7920 0.7950 0.7990 0.8020 0.8050
657.725209 0.8080 0.8150 0.8200 0.8240 0.8270
661.042750 0.8320 0.8390 0.8430 0.8450 0.8470
664.360292 0.8470 0.8500 0.8520 0.8570 0.8580
667.677834 0.8580 0.8580 0.8560 0.8530 0.8500
670.995375 0.8470 0.8430 0.8191 0.8051 0.7771
674.312917 0.7340 0.6910 0.6520 0.6111 0.5701
677.630459 0.5500 0.5291 0.5290 0.5669 0.5859
680.948001 0.6050 0.6250 0.6440 0.6770 0.7109
684.265542 0.7369 0.7579 0.7859 0.7960 0.8030
687.583084 0.8100 0.8170 0.8250 0.8350 0.8490
690.900626 0.8660 0.8889 0.8910 0.8920 0.8930
694.218167 0.8940 0.8950 0.8960 0.8980 0.8980
697.535709 0.9000 0.9010 0.9020 0.9030 0.9040
700.853251 0.9050 0.9050 0.9070 0.9090 0.9090
704.170792 0.9090 0.9090 0.9070 0.9030 0.9010
707.488334 0.8980 0.8960 0.8920 0.8840 0.8670
710.805876 0.8450 0.7811 0.7172 0.7160 0.7170
714.123417 0.7340 0.7510 0.7850 0.8020 0.8190
717.440959 0.8290 0.8370 0.8450 0.8540 0.8689
720.758501 0.8880 0.9080 0.9220 0.9250 0.9250
724.076042 0.9230 0.9210 0.9190 0.9160 0.9110
727.393584 0.9070 0.9040 0.8410 0.8390 0.8400
730.711126 0.8520 0.8630 0.8660 0.8750 0.8810
734.028668 0.9010 0.9110 0.9210 0.9290 0.9350
737.346209 0.9390 0.9400 0.9410 0.9410 0.9430
740.663751 0.9430 0.9450 0.9470 0.9490 0.9490
743.981293 0.9500 0.9500 0.9510 0.9520 0.9510
747.298834 0.9510 0.9500 0.9500 0.9490 0.9470
750.616376 0.9420 0.9390 0.9330 0.9290 0.9230
753.933918 0.9190 0.9010 0.8860 0.8730 0.8590
757.251459 0.8251 0.8220 0.8250 0.8350 0.8499
760.569001 0.8640 0.8760 0.8880 0.8980 0.9080
763.886543 0.9180 0.9280 0.9370 0.9500 0.9520
767.204084 0.9540 0.9550 0.9580 0.9600 0.9600
770.521626 0.9610 0.9620 0.9620 0.9620 0.9620
773.839168 0.9620 0.9600 0.9590 0.9580 0.9570
777.156710 0.9550 0.9500 0.9480 0.9430 0.9390
780.474251 0.9330 0.9190 0.9100 0.9070 0.9070
783.791793 0.9070 0.9140 0.9290 0.9370 0.9430
787.109335 0.9460 0.9490 0.9500 0.9540 0.9580
790.426876 0.9590 0.9630 0.9640 0.9640 0.9640
793.744418 0.9640 0.9640 0.9630 0.9620 0.9620
797.061960 0.9620 0.9610 0.9600 0.9600 0.9600
800.379501 0.9600 0.9590 0.9570 0.9540 0.9500
803.697043 0.9470 0.9430 0.9410 0.9400 0.9390
807.014585 0.9390 0.9390 0.9400 0.9410 0.9410
810.332126 0.9430 0.9440 0.9440 0.9450 0.9450
813.649668 0.9450 0.9440 0.9430 0.9390 0.9300
816.967210 0.9260 0.9230 0.9150 0.8990 0.8930
820.284751 0.8819 0.8320 0.7660 0.7000 0.6960
823.602293 0.6920 0.6860 0.6820 0.6780 0.6680
826.919835 0.6650 0.6640 0.6610 0.6520 0.6320
830.237377 0.5960 0.5660 0.5351 0.5310 0.5310
833.554918 0.5800 0.6180 0.6510 0.6800 0.7050
836.872460 0.7269 0.7469 0.7779 0.7900 0.8010
840.190002 0.8120 0.8230 0.8320 0.8400 0.8510
843.507543 0.8560 0.8560 0.8550 0.8271 0.8260
846.825085 0.8260 0.8270 0.8390 0.8520 0.8760
850.142627 0.8770 0.8830 0.8890 0.8940 0.8970
853.460168 0.8990 0.9020 0.9030 0.9040 0.9050
856.777710 0.9060 0.9070 0.9070 0.9070 0.9060
860.095252 0.9030 0.8660 0.8430 0.8230 0.7960
863.412793 0.7740 0.7521 0.6802 0.6740 0.5096
866.730335 0.3439 0.1780 0.1450 0.1120 0.1120
870.047877 0.1250 0.1629 0.1829 0.2029 0.2209
873.365418 0.2491 0.3480 0.3940 0.4390 0.4799
876.682960 0.5589 0.5949 0.6289 0.6619 0.6919
880.000502 0.7200 0.7470 0.8040 0.8330 0.8420
883.318044 0.8430 0.8530 0.8640 0.8740 0.8939
886.635585 0.8960 0.8970 0.8980 0.9000 0.9010
889.953127 0.9020 0.9030 0.9050 0.9050 0.9050
893.270669 0.9040 0.8860 0.8770 0.8330 0.7960
896.588210 0.7780 0.7600 0.7091 0.6781 0.6780
899.905752 0.6970 0.7150 0.7340 0.7520 0.7900
903.223294 0.8300 0.8310 0.8370 0.8440 0.8500
906.540835 0.8560 0.8630 0.8700 0.8760 0.8900
909.858377 0.8900 0.8910 0.8910 0.8900 0.8880
913.175919 0.8569 0.8030 0.7840 0.7700 0.7540
916.493460 0.7080 0.6621 0.6600 0.6620 0.6899
919.811002 0.7080 0.7210 0.7310 0.7380 0.7450
923.128544 0.7520 0.7630 0.7720 0.7720 0.7710
926.446086 0.7700 0.7650 0.7589 0.6540 0.5490
929.763627 0.4461 0.3421 0.3410 0.3420 0.3639
933.081169 0.3750 0.4110 0.4540 0.5709 0.6049
936.398711 0.6369 0.6410 0.6520 0.7357 0.7470
939.716252 0.7530 0.7590 0.7780 0.7900 0.8010
943.033794 0.8090 0.8100 0.7950 0.7860 0.7770
946.351336 0.7680 0.7050 0.6870 0.6700 0.6700
949.668877 0.6940 0.7090 0.7180 0.7379 0.7519
952.986419 0.7850 0.8050 0.8060 0.8110 0.8160
956.303961 0.8260 0.8260 0.8270 0.8290 0.8290
959.621502 0.8290 0.8110 0.8080 0.7810 0.7760
962.939044 0.7730 0.7700 0.7630 0.7132 0.7030
966.256586 0.7020 0.7020 0.7130 0.7810 0.7990
969.574127 0.8110 0.8230 0.8350 0.8410 0.8500
972.891669 0.8500 0.8520 0.8520 0.8500 0.8460
976.209211 0.8390 0.8130 0.7920 0.7850 0.7850
979.526753 0.8030 0.8120 0.8200 0.8200 0.8190
982.844294 0.8100 0.8000 0.7890 0.7770 0.7581
986.161836 0.7390 0.7000 0.6990 0.7000 0.7190
989.479378 0.7460 0.7959 0.8100 0.8230 0.8240
992.796919 0.8240 0.8240 0.8240 0.8230 0.8230
996.114461 0.8170 0.8130 0.8110 0.8090 0.8070
999.432003 0.8030 0.7990 0.7910 0.7800 0.7730
1002.749544 0.7660 0.7460 0.7200 0.6980 0.6711
1006.067086 0.6450 0.6179 0.5590 0.5000 0.3890
1009.384628 0.2781 0.2770 0.2770 0.2860 0.2960
1012.702169 0.3441 0.3780 0.4090 0.4390 0.4670
1016.019711 0.4940 0.5190 0.5649 0.5870 0.6070
1019.337253 0.6270 0.6450 0.6630 0.6800 0.6960
1022.654795 0.7040 0.7210 0.7200 0.7170 0.7120
1025.972336 0.7070 0.7030 0.6880 0.6530 0.5801
1029.289878 0.5521 0.5390 0.5250 0.5240 0.5499
1032.607420 0.5750 0.5920 0.6000 0.6260 0.6400
1035.924961 0.6410 0.6630 0.6849 0.6900 0.6940
1039.242503 0.6990 0.7030 0.7030 0.7010 0.6860
1042.560045 0.6740 0.6630 0.5842 0.5441 0.5031
1045.877586 0.4159 0.3350 0.2940 0.2520 0.2520
1049.195128 0.2520 0.2580 0.2780 0.3249 0.3499
1052.512670 0.3770 0.4030 0.4310 0.4560 0.4800
1055.830211 0.5020 0.5210 0.5549 0.5720 0.5870
1059.147753 0.6010 0.6140 0.6270 0.6370 0.6480
1062.465295 0.6580 0.6670 0.6760 0.6840 0.6920
1065.782836 0.7000 0.7070 0.7150 0.7230 0.7310
1069.100378 0.7320 0.7330 0.7380 0.7430 0.7490
1072.417920 0.7510 0.7620 0.7770 0.7820 0.7860
1075.735462 0.7880 0.7900 0.7920 0.7930 0.7940
1079.053003 0.7940 0.7940 0.7920 0.7910 0.7900
1082.370545 0.7860 0.7860 0.7820 0.7760 0.7720
1085.688087 0.7680 0.7560 0.7450 0.7170 0.7000
1089.005628 0.6830 0.6430 0.5691 0.5530 0.5370
1092.323170 0.5049 0.4740 0.4430 0.4110 0.3800
1095.640712 0.3800 0.3870 0.4050 0.4309 0.4559
1098.958253 0.4820 0.5081 0.5530 0.5680 0.5830
1102.275795 0.6000 0.6160 0.6320 0.6470 0.6590
1105.593337 0.6700 0.6760 0.6780 0.6840 0.6840
1108.910878 0.6840 0.6800 0.6760 0.6680 0.6590
1112.228420 0.6540 0.6450 0.6430 0.6440 0.6600
1115.545962 0.6740 0.6860 0.6980 0.7110 0.7220
1118.863503 0.7320 0.7400 0.7470 0.7530 0.7590
1122.181045 0.7650 0.7750 0.7760 0.7740 0.7730
1125.498587 0.7680 0.7580 0.7500 0.7450 0.7400
1128.816129 0.7340 0.7320 0.7310 0.7310 0.7300
1132.133670 0.7300 0.7300 0.7310 0.7310 0.7320
1135.451212 0.7330 0.7330 0.7350 0.7370 0.7390
1138.768754 0.7400 0.7420 0.7440 0.7450 0.7470
1142.086295 0.7490 0.7500 0.7510 0.7520 0.7540
1145.403837 0.7560 0.7580 0.7600 0.7620 0.7640
1148.721379 0.7660 0.7680 0.7680 0.7690 0.7690
1152.038920 0.7690 0.7690 0.7660 0.7620 0.7520
1155.356462 0.7350 0.6971 0.6840 0.6700 0.6550
1158.674004 0.6410 0.6260 0.6110 0.5980 0.5980
1161.991545 0.6050 0.6639 0.6720 0.6810 0.6880
1165.309087 0.6890 0.6880 0.6840 0.6800 0.6740
1168.626629 0.6690 0.6610 0.6291 0.5981 0.5561
1171.944171 0.5520 0.5490 0.5470 0.5260 0.4970
1175.261712 0.4760 0.4610 0.4570 0.4610 0.5009
1178.579254 0.5081 0.5520 0.5560 0.5560 0.5520
1181.896796 0.5500 0.5450 0.5390 0.5310 0.5290
1185.214337 0.5300 0.5330 0.5390 0.5610 0.5750
1188.531879 0.5900 0.6070 0.6230 0.6380 0.6450
1191.849421 0.6560 0.6560 0.6560 0.6560 0.6500
1195.166962 0.6440 0.6370 0.6310 0.6240 0.5961
1198.484504 0.5680 0.5540 0.5400 0.5120 0.4840
1201.802046 0.4840 0.4840 0.4880 0.5010 0.5100
1205.119587 0.5230 0.5580 0.5750 0.5890 0.5970
1208.437129 0.5980 0.6050 0.6110 0.6110 0.6110
1211.754671 0.5790 0.5350 0.4920 0.4340 0.3980
1215.072212 0.3760 0.3580 0.3390 0.3240 0.3081
1218.389754 0.2700 0.2690 0.2700 0.3250 0.3700
1221.707296 0.3940 0.4100 0.4409 0.4560 0.4680
1225.024838 0.4690 0.4820 0.4960 0.5110 0.5170
1228.342379 0.5170 0.5180 0.5150 0.4891 0.4621
1231.659921 0.4470 0.4320 0.4170 0.4160 0.4170
1234.977463 0.4260 0.4350 0.4430 0.4520 0.4949
1238.295004 0.4990 0.5190 0.5280 0.5330 0.5390
1241.612546 0.5410 0.5410 0.5400 0.5300 0.5031
1244.930088 0.4369 0.3970 0.3660 0.3440 0.3290
1248.247629 0.3240 0.3190 0.2940 0.2561 0.2171
1251.565171 0.1799 0.1430 0.1420 0.1430 0.1520
1254.882713 0.1620 0.1720 0.1820 0.1900 0.2090
1258.200254 0.2310 0.2530 0.2720 0.2840 0.2870
1261.517796 0.3370 0.3530 0.3640 0.3740 0.3840
1264.835338 0.3960 0.4100 0.4300 0.4380 0.4430
1268.152879 0.4430 0.4420 0.4390 0.4370 0.4330
1271.470421 0.4310 0.4290 0.4300 0.4360 0.4430
1274.787963 0.4480 0.4740 0.5559 0.5860 0.5890
1278.105505 0.6000 0.6090 0.6090 0.6250 0.6410
1281.423046 0.6560 0.6720 0.6890 0.6890 0.6880
1284.740588 0.6860 0.6820 0.6740 0.6720 0.6680
1288.058130 0.6650 0.6640 0.6630 0.6610 0.6560
1291.375671 0.6440 0.6320 0.6230 0.6130 0.6030
1294.693213 0.5940 0.5920 0.5930 0.5970 0.6010
1298.010755 0.6050 0.6090 0.6170 0.6360 0.6520
1301.328296 0.6580 0.6800 0.7010 0.7100 0.7260
1304.645838 0.7430 0.7520 0.7600 0.7650 0.7700
1307.963380 0.7670 0.7600 0.7500 0.7370 0.7280
1311.280921 0.7270 0.7280 0.7430 0.7490 0.7610
1314.598463 0.7810 0.7880 0.7890 0.7900 0.7920
1317.916005 0.7940 0.7960 0.7970 0.8000 0.8050
1321.233547 0.8100 0.8110 0.8130 0.8160 0.8120
1324.551088 0.8000 0.7820 0.7720 0.7600 0.7370
1327.868630 0.7120 0.6900 0.6700 0.6560 0.6271
1331.186172 0.5949 0.5640 0.5550 0.5470 0.5300
1334.503713 0.5130 0.4960 0.4790 0.4790 0.4999
1337.821255 0.5221 0.5560 0.5750 0.5830 0.5870
1341.138797 0.5840 0.5710 0.5560 0.5400 0.5230
1344.456338 0.5150 0.5110 0.5060 0.4950 0.4720
1347.773880 0.4470 0.3801 0.3790 0.3800 0.4000
1351.091422 0.4190 0.4390 0.4580 0.4780 0.5160
1354.408963 0.5160 0.5170 0.5160 0.4970 0.4740
1357.726505 0.4620 0.4420 0.4200 0.4190 0.4190
1361.044047 0.4270 0.4350 0.4760 0.5040 0.5539
1364.361588 0.5740 0.5840 0.5900 0.5960 0.5960
1367.679130 0.5980 0.5960 0.5820 0.5530 0.5021
1370.996672 0.4498 0.3510 0.3500 0.3490 0.3480
1374.314214 0.3470 0.3450 0.3410 0.3290 0.3170
1377.631755 0.2959 0.2750 0.2750 0.2981 0.3430
1380.949297 0.3660 0.3890 0.4110 0.4250 0.4819
1384.266839 0.5171 0.5550 0.5740 0.6010 0.6180
1387.584380 0.6340 0.6500 0.6640 0.6780 0.6900
1390.901922 0.7010 0.7110 0.7200 0.7270 0.7310
1394.219464 0.7340 0.7400 0.7410 0.7400 0.7390
1397.537005 0.7390 0.7330 0.7290 0.7190 0.7050
1400.854547 0.6910 0.6790 0.6700 0.6540 0.6061
1404.172089 0.6050 0.6060 0.6110 0.6190 0.6270
1407.489630 0.6310 0.6370 0.6450 0.6500 0.6510
1410.807172 0.6500 0.6370 0.6220 0.6030 0.5900
1414.124714 0.4981 0.4061 0.4020 0.3461 0.3280
1417.442255 0.3089 0.2740 0.2720 0.2730 0.2990
1420.759797 0.3350 0.4219 0.4280 0.4510 0.4620
1424.077339 0.4620 0.4540 0.4290 0.3970 0.3340
1427.394881 0.2840 0.2330 0.2320 0.2330 0.2520
1430.712422 0.2721 0.2960 0.2960 0.3290 0.3460
1434.029964 0.3620 0.3790 0.3960 0.4120 0.4290
1437.347506 0.4450 0.4601 0.4900 0.5200 0.5490
1440.665047 0.5480 0.5080 0.5020 0.4970 0.4381
1443.982589 0.3999 0.3760 0.3580 0.3400 0.3260
1447.300131 0.3120 0.2960 0.2810 0.2800 0.2830
1450.617672 0.3001 0.3490 0.3590 0.3720 0.3840
1453.935214 0.3940 0.4030 0.4110 0.4170 0.4230
1457.252756 0.4290 0.4330 0.4360 0.4410 0.4440
1460.570297 0.4450 0.4450 0.4440 0.4310 0.4280
1463.887839 0.4260 0.4220 0.4190 0.4180 0.4190
1467.205381 0.4240 0.4290 0.4370 0.4520 0.4680
1470.522923 0.4760 0.4810 0.4842 0.5740 0.6030
1473.840464 0.6300 0.6540 0.6760 0.6960 0.7140
1477.158006 0.7300 0.7450 0.7580 0.7790 0.7880
1480.475548 0.7960 0.8020 0.8070 0.8120 0.8170
1483.793089 0.8200 0.8230 0.8260 0.8290 0.8310
1487.110631 0.8330 0.8360 0.8390 0.8410 0.8440
1490.428173 0.8450 0.8450 0.8460 0.8470 0.8470
1493.745714 0.8470 0.8470 0.8470 0.8480 0.8490
1497.063256 0.8490 0.8490 0.8500 0.8500 0.8500
1500.380798 0.8500 0.8500 0.8500 0.8510 0.8510
1503.698339 0.8510 0.8520 0.8520 0.8520 0.8520
1507.015881 0.8520 0.8520 0.8520 0.8520 0.8520
1510.333423 0.8520 0.8520 0.8520 0.8510 0.8500
1513.650964 0.8500 0.8500 0.8490 0.8490 0.8490
1516.968506 0.8480 0.8470 0.8470 0.8470 0.8460
1520.286048 0.8460 0.8450 0.8450 0.8450 0.8450
1523.603590 0.8450 0.8450 0.8440 0.8440 0.8440
1526.921131 0.8440 0.8430 0.8430 0.8430 0.8430
1530.238673 0.8430 0.8430 0.8430 0.8430 0.8430
1533.556215 0.8420 0.8420 0.8410 0.8410 0.8400
1536.873756 0.8390 0.8380 0.8370 0.8350 0.8340
1540.191298 0.8320 0.8310 0.8290 0.8270 0.8250
1543.508840 0.8230 0.8210 0.8190 0.8170 0.8140
1546.826381 0.8120 0.8090 0.8070 0.8040 0.8010
1550.143923 0.7980 0.7950 0.7920 0.7900 0.7890
1553.461465 0.7880 0.7880 0.7870 0.7860 0.7860
1556.779006 0.7830 0.7820 0.7800 0.7790 0.7760
1560.096548 0.7740 0.7720 0.7690 0.7650 0.7610
1563.414090 0.7560 0.7520 0.7510 0.7510 0.7500
1566.731631 0.7500 0.7500 0.7490 0.7490 0.7480
1570.049173 0.7470 0.7450 0.7430 0.7400 0.7370
1573.366715 0.7330 0.7290 0.7250 0.7200 0.7150
1576.684257 0.7100 0.7050 0.6990 0.6930 0.6870
1580.001798 0.6800 0.6740 0.6670 0.6600 0.6530
1583.319340 0.6460 0.6390 0.6310 0.6240 0.6160
1586.636882 0.6090 0.6010 0.5940 0.5860 0.5790
1589.954423 0.5720 0.5640 0.5570 0.5500 0.5470
1593.271965 0.5430 0.5400 0.5320 0.5250 0.5170
1596.589507 0.5100 0.5030 0.4960 0.4810 0.4660
1599.907048 0.4350 0.4080 0.3820 0.3550 0.3291
1603.224590 0.3160 0.3029 0.2760 0.2730 0.2610
1606.542132 0.2050 0.1510 0.1480 0.1270 0.1060
1609.859673 0.1050 0.1050 0.1210 0.1300 0.1390
1613.177215 0.1600 0.1810 0.1920 0.1980 0.1980
1616.494757 0.2110 0.2230 0.2360 0.2490 0.2600
1619.812299 0.2620 0.2730 0.2840 0.2960 0.2970
1623.129840 0.2980 0.2980 0.2980 0.2980 0.2960
1626.447382 0.2940 0.2890 0.2820 0.2740 0.2660
1629.764924 0.2590 0.2520 0.2460 0.2450 0.2330
1633.082465 0.2210 0.2090 0.1980 0.1860 0.1750
1636.400007 0.1640 0.1520 0.1420 0.1310 0.1210
1639.717549 0.1120 0.1030 0.1000 0.0950 0.0870
1643.035090 0.0800 0.0740 0.0660 0.0600 0.0550
1646.352632 0.0500 0.0470 0.0430 0.0380 0.0330
1649.670174 0.0270 0.0220 0.0130 0.0090 0.0050
1652.987715 0.0050 0.0050 0.0050 0.0040 0.0040
1656.305257 0.0040 0.0040 0.0050 0.0050 0.0050
1659.622799 0.0050 0.0050 0.0050 0.0050 0.0060
1662.940340 0.0060 0.0060 0.0070 0.0090 0.0140
1666.257882 0.0190 0.0260 0.0330 0.0400 0.0470
1669.575424 0.0550 0.0620 0.0700 0.0770 0.0830
1672.892966 0.0890 0.1070 0.1210 0.1360 0.1500
1676.210507 0.1651 0.1800 0.1940 0.2090 0.2240
1679.528049 0.2390 0.2530 0.2680 0.2820 0.2960
1682.845591 0.3091 0.3350 0.3480 0.3590 0.3700
1686.163132 0.3820 0.3830 0.3840 0.3920 0.4000
1689.480674 0.4150 0.4230 0.4370 0.4480 0.4560
1692.798216 0.4620 0.4660 0.4690 0.4720 0.4740
1696.115757 0.4760 0.4760 0.4760 0.4760 0.4760
1699.433299 0.4770 0.4770 0.4770 0.4770 0.4770
1702.750841 0.4770 0.4770 0.4770 0.4760 0.4760
1706.068382 0.4760 0.4750 0.4730 0.4550 0.4450
1709.385924 0.4340 0.4230 0.4130 0.4000 0.3860
1712.703466 0.3650 0.3410 0.3310 0.3190 0.2970
1716.021007 0.2719 0.2519 0.2169 0.1860 0.1560
1719.338549 0.1200 0.0980 0.0760 0.0160 0.0130
1722.656091 0.0090 0.0070 0.0070 0.0060 0.0050
1725.973633 0.0050 0.0040 0.0040 0.0040 0.0040
1729.291174 0.0050 0.0050 0.0050 0.0050 0.0050
1732.608716 0.0050 0.0050 0.0050 0.0060 0.0070
1735.926258 0.0090 0.0110 0.0140 0.0250 0.0450
1739.243799 0.0540 0.0640 0.1060 0.1170 0.1340
1742.561341 0.1351 0.1631 0.1921 0.2171 0.2420
1745.878883 0.2640 0.2870 0.3310 0.3540 0.3780
1749.196424 0.4031 0.4301 0.4581 0.4780 0.4860
1752.513966 0.4880 0.4990 0.5180 0.5350 0.5590
1755.831508 0.5690 0.5780 0.5860 0.5930 0.6010
1759.149049 0.6090 0.6180 0.6280 0.6360 0.6440
1762.466591 0.6500 0.6570 0.6640 0.6710 0.6780
1765.784133 0.6840 0.6920 0.6990 0.7070 0.7160
1769.101675 0.7260 0.7360 0.7470 0.7590 0.7640
1772.419216 0.7660 0.7820 0.7920 0.7930 0.7940
1775.736758 0.8000 0.8060 0.8110 0.8140 0.8180
1779.054300 0.8220 0.8250 0.8290 0.8320 0.8350
1782.371841 0.8380 0.8410 0.8430 0.8450 0.8470
1785.689383 0.8490 0.8490 0.8500 0.8520 0.8540
1789.006925 0.8560 0.8580 0.8610 0.8620 0.8630
1792.324466 0.8640 0.8650 0.8660 0.8670 0.8680
1795.642008 0.8680 0.8690 0.8700 0.8720 0.8740
1798.959550 0.8810 0.8870 0.8880 0.8890 0.8910
1802.277091 0.8930 0.8960 0.8980 0.8990 0.9000
1805.594633 0.9000 0.9010 0.9010 0.9030 0.9050
1808.912175 0.9070 0.9080 0.9100 0.9120 0.9130
1812.229716 0.9150 0.9170 0.9190 0.9190 0.9190
1815.547258 0.9190 0.9200 0.9200 0.9210 0.9210
1818.864800 0.9220 0.9230 0.9230 0.9250 0.9250
1822.182342 0.9250 0.9260 0.9270 0.9270 0.9280
1825.499883 0.9290 0.9290 0.9300 0.9310 0.9310
1828.817425 0.9320 0.9320 0.9330 0.9330 0.9340
1832.134967 0.9350 0.9350 0.9360 0.9370 0.9370
1835.452508 0.9380 0.9390 0.9390 0.9400 0.9410
1838.770050 0.9410 0.9410 0.9410 0.9410 0.9410
1842.087592 0.9410 0.9410 0.9410 0.9410 0.9410
1845.405133 0.9410 0.9410 0.9410 0.9410 0.9410
1848.722675 0.9410 0.9400 0.9400 0.9400 0.9400
1852.040217 0.9410 0.9410 0.9410 0.9410 0.9410
1855.357758 0.9410 0.9400 0.9400 0.9400 0.9400
1858.675300 0.9400 0.9400 0.9400 0.9400 0.9400
1861.992842 0.9400 0.9400 0.9400 0.9400 0.9400
1865.310384 0.9400 0.9400 0.9400 0.9400 0.9400
1868.627925 0.9400 0.9400 0.9390 0.9400 0.9400
1871.945467 0.9400 0.9400 0.9400 0.9400 0.9400
1875.263009 0.9400 0.9400 0.9400 0.9400 0.9400
1878.580550 0.9410 0.9410 0.9410 0.9410 0.9410
1881.898092 0.9410 0.9410 0.9420 0.9420 0.9420
1885.215634 0.9430 0.9430 0.9430 0.9430 0.9430
1888.533175 0.9430 0.9440 0.9440 0.9450 0.9450
1891.850717 0.9450 0.9450 0.9460 0.9460 0.9470
1895.168259 0.9470 0.9470 0.9470 0.9480 0.9490
1898.485800 0.9490 0.9500 0.9500 0.9500 0.9500
1901.803342 0.9500 0.9500 0.9500 0.9500 0.9500
1905.120884 0.9500 0.9500 0.9500 0.9500 0.9500
1908.438425 0.9500 0.9490 0.9490 0.9490 0.9490
1911.755967 0.9490 0.9490 0.9480 0.9480 0.9480
1915.073509 0.9480 0.9480 0.9480 0.9470 0.9470
1918.391051 0.9470 0.9470 0.9470 0.9470 0.9470
1921.708592 0.9470 0.9460 0.9460 0.9460 0.9460
1925.026134 0.9460 0.9460 0.9450 0.9450 0.9450
1928.343676 0.9450 0.9450 0.9440 0.9440 0.9430
1931.661217 0.9430 0.9430 0.9420 0.9410 0.9410
1934.978759 0.9410 0.9410 0.9400 0.9390 0.9390
1938.296301 0.9380 0.9370 0.9370 0.9360 0.9350
1941.613842 0.9350 0.9340 0.9330 0.9320 0.9320
1944.931384 0.9310 0.9310 0.9300 0.9290 0.9290
1948.248926 0.9280 0.9270 0.9270 0.9260 0.9250
1951.566467 0.9250 0.9250 0.9240 0.9240 0.9240
1954.884009 0.9240 0.9240 0.9250 0.9260 0.9270
1958.201551 0.9290 0.9300 0.9330 0.9330 0.9330
1961.519092 0.9340 0.9350 0.9350 0.9350 0.9370
1964.836634 0.9370 0.9380 0.9380 0.9380 0.9380
1968.154176 0.9380 0.9380 0.9380 0.9380 0.9370
1971.471718 0.9370 0.9370 0.9370 0.9370 0.9370
1974.789259 0.9370 0.9370 0.9370 0.9360 0.9360
1978.106801 0.9360 0.9350 0.9350 0.9350 0.9350
1981.424343 0.9350 0.9340 0.9330 0.9330 0.9330
1984.741884 0.9330 0.9330 0.9330 0.9330 0.9330
1988.059426 0.9330 0.9330 0.9330 0.9330 0.9330
1991.376968 0.9330 0.9330 0.9340 0.9350 0.9350
1994.694509 0.9350 0.9360 0.9360 0.9370 0.9370
1998.012051 0.9370 0.9380 0.9380 0.9390 0.9390
2001.329593 0.9390 0.9390 0.9390 0.9390 0.9390
2004.647134 0.9390 0.9390 0.9393 0.9395 0.9398
2007.964676 0.9400 0.9400 0.9400 0.9400 0.9401
2011.282218 0.9403 0.9406 0.9408 0.9410 0.9410
2014.599760 0.9410 0.9410 0.9410 0.9410 0.9410
2017.917301 0.9410 0.9410 0.9410 0.9410 0.9410
2021.234843 0.9410 0.9410 0.9410 0.9410 0.9410
2024.552385 0.9410 0.9410 0.9410 0.9410 0.9410
2027.869926 0.9410 0.9410 0.9410 0.9410 0.9410
2031.187468 0.9410 0.9410 0.9410 0.9410 0.9410
2034.505010 0.9408 0.9406 0.9403 0.9400 0.9400
2037.822551 0.9400 0.9400 0.9400 0.9398 0.9395
2041.140093 0.9393 0.9390 0.9388 0.9385 0.9383
2044.457635 0.9380 0.9375 0.9370 0.9365 0.9359
2047.775176 0.9344 0.9329 0.9314 0.9299 0.9286
2051.092718 0.9273 0.9260 0.9248 0.9238 0.9228
2054.410260 0.9218 0.9207 0.9197 0.9187 0.9177
2057.727801 0.9168 0.9163 0.9158 0.9153 0.9148
2061.045343 0.9143 0.9138 0.9133 0.9128 0.9123
2064.362885 0.9118 0.9113 0.9110 0.9110 0.9110
2067.680427 0.9110 0.9107 0.9102 0.9097 0.9092
2070.997968 0.9090 0.9090 0.9090 0.9090 0.9090
2074.315510 0.9090 0.9090 0.9090 0.9088 0.9086
2077.633052 0.9083 0.9081 0.9078 0.9075 0.9073
2080.950593 0.9070 0.9068 0.9065 0.9063 0.9060
2084.268135 0.9058 0.9055 0.9053 0.9050 0.9045
2087.585677 0.9040 0.9035 0.9030 0.9022 0.9015
2090.903218 0.9007 0.8999 0.8989 0.8979 0.8969
2094.220760 0.8959 0.8949 0.8938 0.8928 0.8917
2097.538302 0.8902 0.8887 0.8872 0.8856 0.8841
2100.855843 0.8826 0.8811 0.8794 0.8774 0.8753
2104.173385 0.8732 0.8719 0.8716 0.8714 0.8711
2107.490927 0.8709 0.8706 0.8704 0.8701 0.8700
2110.808468 0.8700 0.8700 0.8700 0.8680 0.8645
2114.126010 0.8609 0.8574 0.8498 0.8396 0.8295
2117.443552 0.8194 0.8114 0.8046 0.7977 0.7909
2120.761094 0.7866 0.7833 0.7800 0.7767 0.7734
2124.078635 0.7701 0.7669 0.7636 0.7575 0.7509
2127.396177 0.7443 0.7378 0.7306 0.7234 0.7162
2130.713719 0.7091 0.7087 0.7085 0.7082 0.7080
2134.031260 0.7083 0.7085 0.7088 0.7093 0.7118
2137.348802 0.7143 0.7169 0.7194 0.7219 0.7245
2140.666344 0.7270 0.7295 0.7321 0.7346 0.7371
2143.983885 0.7395 0.7416 0.7436 0.7456 0.7476
2147.301427 0.7497 0.7517 0.7537 0.7559 0.7581
2150.618969 0.7604 0.7627 0.7656 0.7694 0.7732
2153.936510 0.7770 0.7800 0.7820 0.7841 0.7862
2157.254052 0.7882 0.7902 0.7923 0.7943 0.7963
2160.571594 0.7983 0.8004 0.8024 0.8044 0.8064
2163.889136 0.8085 0.8105 0.8125 0.8146 0.8166
2167.206677 0.8186 0.8208 0.8231 0.8254 0.8277
2170.524219 0.8300 0.8322 0.8345 0.8368 0.8393
2173.841761 0.8419 0.8444 0.8469 0.8492 0.8515
2177.159302 0.8538 0.8561 0.8586 0.8611 0.8637
2180.476844 0.8660 0.8666 0.8671 0.8676 0.8681
2183.794386 0.8686 0.8691 0.8696 0.8700 0.8700
2187.111927 0.8700 0.8700 0.8701 0.8707 0.8712
2190.429469 0.8717 0.8720 0.8720 0.8720 0.8720
2193.747011 0.8721 0.8724 0.8726 0.8729 0.8730
2197.064552 0.8730 0.8730 0.8730 0.8730 0.8730
2200.382094 0.8730 0.8730 0.8730 0.8730 0.8730
2203.699636 0.8730 0.8730 0.8730 0.8730 0.8730
2207.017177 0.8730 0.8730 0.8730 0.8730 0.8730
2210.334719 0.8730 0.8730 0.8730 0.8728 0.8725
2213.652261 0.8723 0.8720 0.8720 0.8720 0.8720
2216.969803 0.8720 0.8720 0.8720 0.8720 0.8720
2220.287344 0.8717 0.8715 0.8712 0.8710 0.8710
2223.604886 0.8710 0.8710 0.8710 0.8707 0.8705
2226.922428 0.8702 0.8700 0.8697 0.8695 0.8692
2230.239969 0.8689 0.8687 0.8684 0.8682 0.8680
2233.557511 0.8680 0.8680 0.8680 0.8679 0.8677
2236.875053 0.8674 0.8671 0.8669 0.8666 0.8664
2240.192594 0.8661 0.8660 0.8660 0.8660 0.8660
2243.510136 0.8657 0.8652 0.8647 0.8642 0.8638
2246.827678 0.8636 0.8633 0.8631 0.8628 0.8626
2250.145219 0.8623 0.8621 0.8618 0.8616 0.8613
2253.462761 0.8611 0.8608 0.8606 0.8603 0.8600
2256.780303 0.8600 0.8600 0.8600 0.8600 0.8598
2260.097844 0.8595 0.8593 0.8590 0.8588 0.8585
2263.415386 0.8582 0.8580 0.8577 0.8575 0.8572
2266.732928 0.8570 0.8567 0.8565 0.8562 0.8560
2270.050470 0.8560 0.8560 0.8560 0.8560 0.8560
2273.368011 0.8560 0.8560 0.8559 0.8557 0.8554
2276.685553 0.8552 0.8549 0.8547 0.8544 0.8542
2280.003095 0.8540 0.8540 0.8540 0.8540 0.8538
2283.320636 0.8533 0.8528 0.8523 0.8519 0.8516
2286.638178 0.8514 0.8511 0.8509 0.8506 0.8503
2289.955720 0.8501 0.8500 0.8500 0.8500 0.8500
2293.273261 0.8498 0.8496 0.8493 0.8491 0.8488
2296.590803 0.8486 0.8483 0.8481 0.8478 0.8475
2299.908345 0.8473 0.8470 0.8466 0.8461 0.8456
2303.225886 0.8450 0.8445 0.8440 0.8435 0.8430
2306.543428 0.8425 0.8420 0.8415 0.8410 0.8402
2309.860970 0.8395 0.8387 0.8380 0.8375 0.8369
2313.178512 0.8364 0.8359 0.8351 0.8343 0.8336
2316.496053 0.8329 0.8324 0.8319 0.8314 0.8309
2319.813595 0.8303 0.8298 0.8293 0.8288 0.8283
2323.131137 0.8278 0.8273 0.8268 0.8263 0.8258
2326.448678 0.8253 0.8250 0.8250 0.8250 0.8250
2329.766220 0.8249 0.8246 0.8244 0.8241 0.8239
2333.083762 0.8236 0.8234 0.8231 0.8230 0.8230
2336.401303 0.8230 0.8230 0.8227 0.8221 0.8216
2339.718845 0.8211 0.8210 0.8210 0.8210 0.8210
2343.036387 0.8208 0.8205 0.8203 0.8200 0.8198
2346.353928 0.8195 0.8193 0.8190 0.8190 0.8190
2349.671470 0.8190 0.8190 0.8187 0.8185 0.8182
2352.989012 0.8180 0.8177 0.8175 0.8172 0.8170
2356.306553 0.8170 0.8170 0.8170 0.8170 0.8170
2359.624095 0.8170 0.8170 0.8170 0.8170 0.8170
2362.941637 0.8170 0.8169 0.8167 0.8164 0.8162
2366.259179 0.8160 0.8160 0.8160 0.8160 0.8160
2369.576720 0.8160 0.8160 0.8160 0.8160 0.8160
2372.894262 0.8160 0.8160 0.8160 0.8160 0.8160
2376.211804 0.8160 0.8161 0.8164 0.8167 0.8169
2379.529345 0.8170 0.8170 0.8170 0.8170 0.8170
2382.846887 0.8170 0.8170 0.8170 0.8170 0.8170
2386.164429 0.8170 0.8170 0.8172 0.8175 0.8177
2389.481970 0.8180 0.8180 0.8180 0.8180 0.8180
2392.799512 0.8180 0.8180 0.8180 0.8180 0.8177
2396.117054 0.8175 0.8172 0.8170 0.8170 0.8170
2399.434595 0.8170 0.8170 0.8167 0.8165 0.8162
2402.752137 0.8160 0.8157 0.8154 0.8152 0.8149
2406.069679 0.8147 0.8144 0.8142 0.8139 0.8137
2409.387220 0.8134 0.8132 0.8130 0.8130 0.8130
2412.704762 0.8130 0.8130 0.8130 0.8130 0.8130
2416.022304 0.8130 0.8130 0.8130 0.8130 0.8129
2419.339846 0.8126 0.8124 0.8121 0.8120 0.8120
2422.657387 0.8120 0.8120 0.8118 0.8116 0.8113
2425.974929 0.8111 0.8110 0.8110 0.8110 0.8110
2429.292471 0.8110 0.8110 0.8110 0.8110 0.8108
2432.610012 0.8105 0.8103 0.8100 0.8100 0.8100
2435.927554 0.8100 0.8100 0.8098 0.8095 0.8093
2439.245096 0.8090 0.8090 0.8090 0.8090 0.8090
2442.562637 0.8087 0.8085 0.8082 0.8080 0.8077
2445.880179 0.8075 0.8072 0.8070 0.8070 0.8070
2449.197721 0.8070 0.8069 0.8067 0.8064 0.8062
2452.515262 0.8059 0.8057 0.8054 0.8052 0.8050
2455.832804 0.8050 0.8050 0.8050 0.8049 0.8046
2459.150346 0.8044 0.8041 0.8039 0.8036 0.8034
2462.467888 0.8031 0.8030 0.8030 0.8030 0.8030
2465.785429 0.8030 0.8030 0.8030 0.8030 0.8028
2469.102971 0.8026 0.8023 0.8021 0.8018 0.8016
2472.420513 0.8013 0.8010 0.8010 0.8010 0.8010
2475.738054 0.8010 0.8008 0.8005 0.8003 0.8000
2479.055596 0.8000 0.8000 0.8000 0.8000 0.7995
2482.373138 0.7990 0.7985 0.7980 0.7975 0.7970
2485.690679 0.7965 0.7960 0.7954 0.7949 0.7944
2489.008221 0.7940 0.7937 0.7935 0.7932 0.7929
2492.325763 0.7924 0.7919 0.7914 0.7909 0.7907
2495.643304 0.7904 0.7902 0.7898 0.7893 0.7888
2498.960846 0.7883 0.7880 0.7880 0.7880 0.7880
2502.278388 0.7878 0.7873 0.7867 0.7862 0.7860
2505.595929 0.7860 0.7860 0.7860 0.7859 0.7856
2508.913471 0.7853 0.7851 0.7848 0.7846 0.7843
2512.231013 0.7841 0.7840 0.7840 0.7840 0.7840
2515.548555 0.7840 0.7840 0.7840 0.7840 0.7840
2518.866096 0.7840 0.7840 0.7840 0.7838 0.7835
2522.183638 0.7833 0.7830 0.7825 0.7820 0.7815
2525.501180 0.7810 0.7807 0.7805 0.7802 0.7800
2528.818721 0.7797 0.7795 0.7792 0.7790 0.7787
2532.136263 0.7785 0.7782 0.7780 0.7777 0.7774
2535.453805 0.7772 0.7769 0.7767 0.7764 0.7762
2538.771346 0.7759 0.7757 0.7754 0.7752 0.7750
2542.088888 0.7750 0.7750 0.7750 0.7749 0.7746
2545.406430 0.7744 0.7741 0.7739 0.7736 0.7734
2548.723971 0.7731 0.7729 0.7726 0.7724 0.7721
2552.041513 0.7717 0.7712 0.7707 0.7702 0.7698
2555.359055 0.7696 0.7693 0.7691 0.7686 0.7681
2558.676597 0.7676 0.7671 0.7664 0.7657 0.7649
2561.994138 0.7641 0.7634 0.7626 0.7619 0.7611
2565.311680 0.7606 0.7600 0.7595 0.7590 0.7585
2568.629222 0.7580 0.7575 0.7570 0.7565 0.7560
2571.946763 0.7555 0.7550 0.7545 0.7539 0.7534
2575.264305 0.7529 0.7521 0.7514 0.7506 0.7499
2578.581847 0.7494 0.7489 0.7484 0.7478 0.7470
2581.899388 0.7463 0.7455 0.7446 0.7433 0.7421
2585.216930 0.7408 0.7400 0.7400 0.7400 0.7400
2588.534472 0.7399 0.7396 0.7394 0.7391 0.7388
2591.852013 0.7382 0.7377 0.7372 0.7369 0.7366
2595.169555 0.7364 0.7361 0.7359 0.7356 0.7353
2598.487097 0.7351 0.7348 0.7346 0.7343 0.7341
2601.804638 0.7338 0.7336 0.7333 0.7330 0.7330
2605.122180 0.7330 0.7330 0.7330 0.7328 0.7325
2608.439722 0.7323 0.7320 0.7318 0.7315 0.7313
2611.757264 0.7310 0.7310 0.7310 0.7310 0.7310
2615.074805 0.7307 0.7305 0.7302 0.7300 0.7297
2618.392347 0.7295 0.7292 0.7290 0.7287 0.7285
2621.709889 0.7282 0.7280 0.7277 0.7274 0.7272
2625.027430 0.7270 0.7270 0.7270 0.7270 0.7270
2628.344972 0.7270 0.7270 0.7270 0.7269 0.7266
2631.662514 0.7264 0.7261 0.7259 0.7256 0.7254
2634.980055 0.7251 0.7250 0.7250 0.7250 0.7250
2638.297597 0.7250 0.7250 0.7250 0.7250 0.7248
2641.615139 0.7246 0.7243 0.7241 0.7237 0.7232
2644.932680 0.7226 0.7221 0.7218 0.7216 0.7213
2648.250222 0.7211 0.7208 0.7205 0.7203 0.7200
2651.567764 0.7198 0.7195 0.7193 0.7190 0.7188
2654.885305 0.7185 0.7183 0.7180 0.7177 0.7175
2658.202847 0.7172 0.7170 0.7167 0.7165 0.7162
2661.520389 0.7160 0.7157 0.7155 0.7152 0.7150
2664.837931 0.7150 0.7150 0.7150 0.7150 0.7150
2668.155472 0.7150 0.7150 0.7149 0.7147 0.7144
2671.473014 0.7142 0.7139 0.7137 0.7134 0.7132
2674.790556 0.7129 0.7127 0.7124 0.7121 0.7119
2678.108097 0.7116 0.7114 0.7111 0.7110 0.7110
2681.425639 0.7110 0.7110 0.7108 0.7106 0.7103
2684.743181 0.7101 0.7098 0.7096 0.7093 0.7091
2688.060722 0.7086 0.7081 0.7076 0.7071 0.7066
2691.378264 0.7061 0.7056 0.7051 0.7046 0.7041
2694.695806 0.7036 0.7031 0.7023 0.7016 0.7008
2698.013347 0.7001 0.6995 0.6990 0.6985 0.6980
2701.330889 0.6975 0.6970 0.6965 0.6960 0.6952
2704.648431 0.6944 0.6937 0.6929 0.6924 0.6919
2707.965973 0.6914 0.6909 0.6901 0.6893 0.6886
2711.283514 0.6879 0.6877 0.6874 0.6872 0.6868
2714.601056 0.6863 0.6858 0.6853 0.6849 0.6847
2717.918598 0.6844 0.6841 0.6838 0.6833 0.6828
2721.236139 0.6823 0.6816 0.6809 0.6801 0.6794
2724.553681 0.6787 0.6782 0.6777 0.6772 0.6767
2727.871223 0.6762 0.6757 0.6752 0.6748 0.6746
2731.188764 0.6743 0.6741 0.6736 0.6731 0.6726
2734.506306 0.6721 0.6720 0.6720 0.6720 0.6720
2737.823848 0.6716 0.6711 0.6706 0.6700 0.6700
2741.141389 0.6700 0.6700 0.6700 0.6695 0.6690
2744.458931 0.6685 0.6680 0.6680 0.6680 0.6680
2747.776473 0.6680 0.6675 0.6670 0.6664 0.6659
2751.094014 0.6654 0.6649 0.6644 0.6639 0.6634
2754.411556 0.6629 0.6624 0.6619 0.6614 0.6609
2757.729098 0.6603 0.6598 0.6593 0.6588 0.6583
2761.046640 0.6578 0.6573 0.6568 0.6563 0.6553
2764.364181 0.6538 0.6523 0.6508 0.6492 0.6477
2767.681723 0.6462 0.6447 0.6420 0.6385 0.6349
2770.999265 0.6314 0.6298 0.6296 0.6293 0.6291
2774.316806 0.6196 0.6054 0.5912 0.5770 0.5708
2777.634348 0.5678 0.5647 0.5617 0.5587 0.5556
2780.951890 0.5526 0.5495 0.5441 0.5382 0.5323
2784.269431 0.5264 0.5203 0.5142 0.5082 0.5021
2787.586973 0.4962 0.4904 0.4846 0.4788 0.4729
2790.904515 0.4671 0.4613 0.4554 0.4493 0.4432
2794.222056 0.4372 0.4311 0.4253 0.4195 0.4136
2797.539598 0.4078 0.4020 0.3961 0.3903 0.3844
2800.857140 0.3783 0.3723 0.3662 0.3603 0.3550
2804.174681 0.3497 0.3444 0.3398 0.3365 0.3332
2807.492223 0.3299 0.3265 0.3229 0.3193 0.3157
2810.809765 0.3117 0.3074 0.3031 0.2988 0.2946
2814.127307 0.2906 0.2865 0.2825 0.2782 0.2739
2817.444848 0.2696 0.2653 0.2612 0.2571 0.2531
2820.762390 0.2490 0.2444 0.2396 0.2348 0.2299
2824.079932 0.2249 0.2199 0.2148 0.2097 0.2040
2827.397473 0.1982 0.1923 0.1865 0.1809 0.1753
2830.715015 0.1698 0.1642 0.1584 0.1525 0.1467
2834.032557 0.1409 0.1352 0.1296 0.1239 0.1182
2837.350098 0.1124 0.1066 0.1008 0.0960 0.0957
2840.667640 0.0954 0.0952 0.0962 0.1013 0.1063
2843.985182 0.1114 0.1226 0.1487 0.1749 0.2010
2847.302723 0.2191 0.2224 0.2257 0.2290 0.2324
2850.620265 0.2360 0.2395 0.2431 0.2477 0.2535
2853.937807 0.2593 0.2651 0.2708 0.2764 0.2820
2857.255349 0.2876 0.2973 0.3102 0.3232 0.3361
2860.572890 0.3416 0.3427 0.3437 0.3447 0.3443
2863.890432 0.3433 0.3422 0.3412 0.3378 0.3338
2867.207974 0.3297 0.3257 0.3227 0.3199 0.3171
2870.525515 0.3143 0.3115 0.3087 0.3059 0.3032
2873.843057 0.2965 0.2897 0.2828 0.2760 0.2709
2877.160599 0.2659 0.2608 0.2559 0.2531 0.2503
2880.478140 0.2475 0.2443 0.2383 0.2322 0.2261
2883.795682 0.2189 0.2063 0.1936 0.1809 0.1695
2887.113224 0.1629 0.1562 0.1495 0.1425 0.1349
2890.430765 0.1273 0.1197 0.1134 0.1091 0.1048
2893.748307 0.1004 0.0960 0.0915 0.0869 0.0823
2897.065849 0.0795 0.0785 0.0775 0.0765 0.0755
2900.383390 0.0744 0.0734 0.0724 0.0712 0.0700
2903.700932 0.0687 0.0674 0.0667 0.0662 0.0657
2907.018474 0.0651 0.0582 0.0486 0.0389 0.0293
2910.336016 0.0268 0.0266 0.0263 0.0260 0.0262
2913.653557 0.0265 0.0267 0.0270 0.0272 0.0275
2916.971099 0.0277 0.0280 0.0312 0.0345 0.0378
2920.288641 0.0411 0.0444 0.0477 0.0510 0.0544
2923.606182 0.0587 0.0630 0.0673 0.0714 0.0742
2926.923724 0.0770 0.0798 0.0820 0.0820 0.0820
2930.241266 0.0820 0.0815 0.0795 0.0774 0.0754
2933.558807 0.0735 0.0720 0.0705 0.0690 0.0671
2936.876349 0.0646 0.0620 0.0595 0.0578 0.0573
2940.193891 0.0568 0.0562 0.0561 0.0564 0.0566
2943.511432 0.0569 0.0574 0.0582 0.0590 0.0597
2946.828974 0.0606 0.0616 0.0627 0.0637 0.0652
2950.146516 0.0670 0.0688 0.0705 0.0725 0.0745
2953.464057 0.0765 0.0786 0.0856 0.0940 0.1023
2956.781599 0.1107 0.1219 0.1335 0.1452 0.1568
2960.099141 0.1690 0.1811 0.1933 0.2055 0.2116
2963.416683 0.2174 0.2232 0.2290 0.2316 0.2342
2966.734224 0.2367 0.2390 0.2390 0.2390 0.2390
2970.051766 0.2397 0.2435 0.2473 0.2511 0.2549
2973.369308 0.2587 0.2625 0.2663 0.2701 0.2739
2976.686849 0.2777 0.2815 0.2855 0.2901 0.2947
2980.004391 0.2992 0.3035 0.3073 0.3111 0.3149
2983.321933 0.3227 0.3357 0.3486 0.3615 0.3734
2986.639474 0.3843 0.3952 0.4061 0.4144 0.4205
2989.957016 0.4265 0.4326 0.4392 0.4462 0.4531
2993.274558 0.4600 0.4653 0.4698 0.4744 0.4789
2996.592099 0.4825 0.4858 0.4891 0.4924 0.4932
2999.909641 0.4935 0.4937 0.4940 0.4953 0.4969
3003.227183 0.4984 0.4999 0.5014 0.5029 0.5045
3006.544725 0.5060 0.5163 0.5267 0.5370 0.5470
3009.862266 0.5470 0.5470 0.5470 0.5464 0.5403
3013.179808 0.5342 0.5282 0.5221 0.5163 0.5105
3016.497350 0.5046 0.5000 0.5000 0.5000 0.5000
3019.814891 0.5015 0.5063 0.5111 0.5159 0.5225
3023.132433 0.5322 0.5418 0.5514 0.5591 0.5642
3026.449975 0.5693 0.5743 0.5803 0.5871 0.5939
3029.767516 0.6008 0.6055 0.6083 0.6111 0.6138
3033.085058 0.6172 0.6210 0.6248 0.6286 0.6315
3036.402600 0.6337 0.6360 0.6383 0.6401 0.6416
3039.720141 0.6431 0.6446 0.6452 0.6454 0.6457
3043.037683 0.6460 0.6462 0.6465 0.6467 0.6470
3046.355225 0.6470 0.6470 0.6470 0.6470 0.6470
3049.672766 0.6470 0.6470 0.6470 0.6475 0.6480
3052.990308 0.6485 0.6490 0.6490 0.6490 0.6490
3056.307850 0.6490 0.6490 0.6490 0.6490 0.6490
3059.625392 0.6490 0.6490 0.6490 0.6490 0.6490
3062.942933 0.6490 0.6490 0.6490 0.6490 0.6490
3066.260475 0.6490 0.6490 0.6490 0.6490 0.6490
3069.578017 0.6489 0.6486 0.6484 0.6481 0.6480
3072.895558 0.6480 0.6480 0.6480 0.6479 0.6476
3076.213100 0.6474 0.6471 0.6470 0.6470 0.6470
3079.530642 0.6470 0.6470 0.6470 0.6470 0.6470
3082.848183 0.6470 0.6470 0.6470 0.6470 0.6466
3086.165725 0.6461 0.6456 0.6451 0.6450 0.6450
3089.483267 0.6450 0.6450 0.6448 0.6445 0.6443
3092.800808 0.6440 0.6438 0.6435 0.6433 0.6430
3096.118350 0.6427 0.6425 0.6422 0.6420 0.6417
3099.435892 0.6415 0.6412 0.6410 0.6410 0.6410
3102.753433 0.6410 0.6409 0.6407 0.6404 0.6402
3106.070975 0.6399 0.6397 0.6394 0.6392 0.6390
3109.388517 0.6390 0.6390 0.6390 0.6390 0.6390
3112.706059 0.6390 0.6390 0.6389 0.6386 0.6384
3116.023600 0.6381 0.6380 0.6380 0.6380 0.6380
3119.341142 0.6380 0.6380 0.6380 0.6380 0.6378
3122.658684 0.6376 0.6373 0.6371 0.6370 0.6370
3125.976225 0.6370 0.6370 0.6370 0.6370 0.6370
3129.293767 0.6370 0.6370 0.6370 0.6370 0.6370
3132.611309 0.6370 0.6370 0.6370 0.6370 0.6368
3135.928850 0.6365 0.6363 0.6360 0.6360 0.6360
3139.246392 0.6360 0.6360 0.6357 0.6355 0.6352
3142.563934 0.6350 0.6350 0.6350 0.6350 0.6350
3145.881475 0.6350 0.6350 0.6350 0.6350 0.6350
3149.199017 0.6350 0.6350 0.6350 0.6350 0.6350
3152.516559 0.6350 0.6350 0.6350 0.6350 0.6350
3155.834101 0.6349 0.6346 0.6344 0.6341 0.6340
3159.151642 0.6340 0.6340 0.6340 0.6340 0.6340
3162.469184 0.6340 0.6340 0.6339 0.6336 0.6333
3165.786726 0.6331 0.6330 0.6330 0.6330 0.6330
3169.104267 0.6330 0.6330 0.6330 0.6330 0.6330
3172.421809 0.6330 0.6330 0.6330 0.6328 0.6325
3175.739351 0.6323 0.6320 0.6318 0.6315 0.6313
3179.056892 0.6310 0.6310 0.6310 0.6310 0.6310
3182.374434 0.6310 0.6310 0.6310 0.6310 0.6307
3185.691976 0.6305 0.6302 0.6300 0.6300 0.6300
3189.009517 0.6300 0.6300 0.6297 0.6295 0.6292
3192.327059 0.6290 0.6290 0.6290 0.6290 0.6290
3195.644601 0.6290 0.6290 0.6290 0.6290 0.6290
3198.962142 0.6290 0.6290 0.6289 0.6286 0.6284
3202.279684 0.6281 0.6280 0.6280 0.6280 0.6280
3205.597226 0.6279 0.6276 0.6274 0.6271 0.6268
3208.914768 0.6266 0.6263 0.6261 0.6258 0.6256
3212.232309 0.6253 0.6251 0.6250 0.6250 0.6250
3215.549851 0.6250 0.6248 0.6246 0.6243 0.6240
3218.867393 0.6238 0.6235 0.6233 0.6230 0.6230
3222.184934 0.6230 0.6230 0.6230 0.6228 0.6225
3225.502476 0.6223 0.6220 0.6217 0.6215 0.6212
3228.820018 0.6210 0.6210 0.6210 0.6210 0.6210
3232.137559 0.6207 0.6205 0.6202 0.6200 0.6200
3235.455101 0.6200 0.6200 0.6199 0.6197 0.6194
3238.772643 0.6192 0.6189 0.6187 0.6184 0.6182
3242.090184 0.6177 0.6170 0.6162 0.6154 0.6148
3245.407726 0.6143 0.6138 0.6133 0.6126 0.6119
3248.725268 0.6111 0.6104 0.6097 0.6092 0.6087
3252.042809 0.6082 0.6079 0.6076 0.6073 0.6071
3255.360351 0.6067 0.6061 0.6056 0.6051 0.6046
3258.677893 0.6041 0.6036 0.6031 0.6028 0.6025
3261.995435 0.6023 0.6020 0.6016 0.6011 0.6006
3265.312976 0.6000 0.5998 0.5995 0.5993 0.5990
3268.630518 0.5983 0.5975 0.5967 0.5960 0.5955
3271.948060 0.5950 0.5945 0.5939 0.5932 0.5924
3275.265601 0.5917 0.5909 0.5899 0.5888 0.5878
3278.583143 0.5868 0.5858 0.5848 0.5837 0.5826
3281.900685 0.5814 0.5801 0.5788 0.5775 0.5760
3285.218226 0.5744 0.5729 0.5713 0.5695 0.5677
3288.535768 0.5660 0.5649 0.5646 0.5644 0.5641
3291.853310 0.5640 0.5640 0.5640 0.5640 0.5640
3295.170851 0.5640 0.5640 0.5640 0.5642 0.5644
3298.488393 0.5647 0.5649 0.5655 0.5663 0.5670
3301.805935 0.5678 0.5684 0.5689 0.5694 0.5699
3305.123477 0.5708 0.5718 0.5729 0.5739 0.5749
3308.441018 0.5759 0.5769 0.5779 0.5785 0.5790
3311.758560 0.5795 0.5800 0.5813 0.5825 0.5838
3315.076102 0.5850 0.5861 0.5871 0.5881 0.5891
3318.393643 0.5898 0.5906 0.5914 0.5921 0.5926
3321.711185 0.5931 0.5936 0.5941 0.5943 0.5946
3325.028727 0.5948 0.5951 0.5953 0.5956 0.5958
3328.346268 0.5960 0.5960 0.5960 0.5960 0.5961
3331.663810 0.5964 0.5966 0.5969 0.5971 0.5974
3334.981352 0.5976 0.5979 0.5980 0.5980 0.5980
3338.298893 0.5980 0.5980 0.5980 0.5980 0.5980
3341.616435 0.5982 0.5984 0.5987 0.5989 0.5992
3344.933977 0.5994 0.5997 0.5999 0.6000 0.6000
3348.251518 0.6000 0.6000 0.6000 0.6000 0.6000
3351.569060 0.6000 0.6000 0.6000 0.6000 0.6000
3354.886602 0.5998 0.5995 0.5993 0.5990 0.5990
3358.204144 0.5990 0.5990 0.5990 0.5987 0.5985
3361.521685 0.5982 0.5980 0.5980 0.5980 0.5980
3364.839227 0.5980 0.5977 0.5974 0.5972 0.5970
3368.156769 0.5970 0.5970 0.5970 0.5969 0.5967
3371.474310 0.5964 0.5962 0.5960 0.5960 0.5960
3374.791852 0.5960 0.5959 0.5956 0.5954 0.5951
3378.109394 0.5949 0.5946 0.5944 0.5941 0.5937
3381.426935 0.5932 0.5927 0.5922 0.5920 0.5920
3384.744477 0.5920 0.5920 0.5917 0.5911 0.5906
3388.062019 0.5901 0.5898 0.5896 0.5893 0.5891
3391.379560 0.5888 0.5885 0.5883 0.5880 0.5878
3394.697102 0.5875 0.5873 0.5870 0.5868 0.5865
3398.014644 0.5863 0.5860 0.5855 0.5850 0.5845
3401.332186 0.5840 0.5840 0.5840 0.5840 0.5839
3404.649727 0.5821 0.5803 0.5786 0.5768 0.5750
3407.967269 0.5732 0.5715 0.5697 0.5682 0.5667
3411.284811 0.5651 0.5632 0.5601 0.5571 0.5540
3414.602352 0.5515 0.5500 0.5485 0.5469 0.5454
3417.919894 0.5439 0.5424 0.5409 0.5387 0.5356
3421.237436 0.5326 0.5295 0.5265 0.5235 0.5204
3424.554977 0.5174 0.5145 0.5117 0.5089 0.5061
3427.872519 0.5047 0.5042 0.5037 0.5032 0.5032
3431.190061 0.5034 0.5037 0.5039 0.5053 0.5070
3434.507602 0.5088 0.5106 0.5126 0.5146 0.5167
3437.825144 0.5187 0.5206 0.5223 0.5241 0.5259
3441.142686 0.5276 0.5294 0.5312 0.5330 0.5350
3444.460227 0.5370 0.5391 0.5411 0.5447 0.5482
3447.777769 0.5518 0.5551 0.5564 0.5577 0.5589
3451.095311 0.5603 0.5623 0.5644 0.5664 0.5680
3454.412853 0.5680 0.5680 0.5680 0.5681 0.5686
3457.730394 0.5691 0.5697 0.5701 0.5703 0.5706
3461.047936 0.5708 0.5711 0.5714 0.5716 0.5719
3464.365478 0.5720 0.5720 0.5720 0.5720 0.5721
3467.683019 0.5724 0.5726 0.5729 0.5731 0.5734
3471.000561 0.5737 0.5739 0.5740 0.5740 0.5740
3474.318103 0.5740 0.5742 0.5744 0.5747 0.5749
3477.635644 0.5752 0.5754 0.5757 0.5759 0.5760
3480.953186 0.5760 0.5760 0.5760 0.5760 0.5760
3484.270728 0.5760 0.5760 0.5762 0.5765 0.5767
3487.588269 0.5770 0.5770 0.5770 0.5770 0.5770
3490.905811 0.5773 0.5775 0.5778 0.5780 0.5780
3494.223353 0.5780 0.5780 0.5780 0.5780 0.5780
3497.540894 0.5780 0.5781 0.5783 0.5786 0.5788
3500.858436 0.5790 0.5790 0.5790 0.5790 0.5791
3504.175978 0.5793 0.5796 0.5798 0.5800 0.5800
3507.493520 0.5800 0.5800 0.5800 0.5800 0.5800
3510.811061 0.5800 0.5801 0.5804 0.5806 0.5809
3514.128603 0.5810 0.5810 0.5810 0.5810 0.5812
3517.446145 0.5814 0.5817 0.5819 0.5820 0.5820
3520.763686 0.5820 0.5820 0.5820 0.5820 0.5820
3524.081228 0.5820 0.5820 0.5820 0.5820 0.5820
3527.398770 0.5822 0.5825 0.5827 0.5830 0.5830
3530.716311 0.5830 0.5830 0.5830 0.5830 0.5830
3534.033853 0.5830 0.5830 0.5830 0.5830 0.5830
3537.351395 0.5830 0.5830 0.5830 0.5830 0.5830
3540.668936 0.5830 0.5830 0.5830 0.5830 0.5830
3543.986478 0.5830 0.5830 0.5830 0.5830 0.5830
3547.304020 0.5830 0.5830 0.5830 0.5830 0.5830
3550.621562 0.5829 0.5826 0.5824 0.5821 0.5820
3553.939103 0.5820 0.5820 0.5820 0.5820 0.5820
3557.256645 0.5820 0.5820 0.5820 0.5820 0.5820
3560.574187 0.5820 0.5820 0.5820 0.5820 0.5820
3563.891728 0.5820 0.5820 0.5820 0.5820 0.5820
3567.209270 0.5820 0.5820 0.5820 0.5820 0.5820
3570.526812 0.5820 0.5820 0.5820 0.5820 0.5820
3573.844353 0.5820 0.5820 0.5820 0.5820 0.5820
3577.161895 0.5820 0.5820 0.5820 0.5820 0.5820
3580.479437 0.5820 0.5820 0.5820 0.5820 0.5820
3583.796978 0.5820 0.5820 0.5820 0.5820 0.5820
3587.114520 0.5819 0.5817 0.5814 0.5812 0.5810
3590.432062 0.5810 0.5810 0.5810 0.5810 0.5810
3593.749603 0.5810 0.5810 0.5811 0.5814 0.5816
3597.067145 0.5819 0.5819 0.5816 0.5814 0.5811
3600.384687 0.5810 0.5810 0.5810 0.5810 0.5808
3603.702229 0.5806 0.5803 0.5801 0.5800 0.5800
3607.019770 0.5800 0.5800 0.5800 0.5800 0.5800
3610.337312 0.5800 0.5800 0.5800 0.5800 0.5800
3613.654854 0.5800 0.5800 0.5800 0.5800 0.5800
3616.972395 0.5800 0.5800 0.5800 0.5800 0.5800
3620.289937 0.5800 0.5800 0.5797 0.5795 0.5792
3623.607479 0.5790 0.5787 0.5785 0.5782 0.5780
3626.925020 0.5780 0.5780 0.5780 0.5780 0.5780
3630.242562 0.5780 0.5780 0.5780 0.5780 0.5780
3633.560104 0.5780 0.5779 0.5777 0.5774 0.5772
3636.877645 0.5770 0.5770 0.5770 0.5770 0.5769
3640.195187 0.5766 0.5764 0.5761 0.5760 0.5760
3643.512729 0.5760 0.5760 0.5760 0.5760 0.5760
3646.830270 0.5760 0.5760 0.5760 0.5760 0.5760
3650.147812 0.5758 0.5756 0.5753 0.5751 0.5750
3653.465354 0.5750 0.5750 0.5750 0.5748 0.5745
3656.782896 0.5743 0.5740 0.5740 0.5740 0.5740
3660.100437 0.5740 0.5738 0.5735 0.5733 0.5730
3663.417979 0.5730 0.5730 0.5730 0.5730 0.5727
3666.735521 0.5725 0.5722 0.5720 0.5720 0.5720
3670.053062 0.5720 0.5720 0.5720 0.5720 0.5720
3673.370604 0.5720 0.5720 0.5720 0.5720 0.5719
3676.688146 0.5717 0.5714 0.5712 0.5709 0.5707
3680.005687 0.5704 0.5701 0.5700 0.5700 0.5700
3683.323229 0.5700 0.5699 0.5696 0.5694 0.5691
3686.640771 0.5689 0.5686 0.5684 0.5681 0.5680
3689.958312 0.5680 0.5680 0.5680 0.5680 0.5680
3693.275854 0.5680 0.5680 0.5678 0.5676 0.5673
3696.593396 0.5671 0.5668 0.5666 0.5663 0.5660
3699.910938 0.5660 0.5660 0.5660 0.5660 0.5660
3703.228479 0.5660 0.5660 0.5660 0.5658 0.5655
3706.546021 0.5653 0.5650 0.5647 0.5645 0.5642
3709.863563 0.5640 0.5640 0.5640 0.5640 0.5640
3713.181104 0.5637 0.5635 0.5632 0.5630 0.5627
3716.498646 0.5624 0.5622 0.5620 0.5620 0.5620
3719.816188 0.5620 0.5619 0.5617 0.5614 0.5612
3723.133729 0.5609 0.5607 0.5604 0.5601 0.5600
3726.451271 0.5600 0.5600 0.5600 0.5599 0.5596
3729.768813 0.5594 0.5591 0.5589 0.5586 0.5584
3733.086354 0.5581 0.5580 0.5580 0.5580 0.5580
3736.403896 0.5578 0.5576 0.5573 0.5571 0.5570
3739.721438 0.5570 0.5570 0.5570 0.5568 0.5565
3743.038979 0.5563 0.5560 0.5560 0.5560 0.5560
3746.356521 0.5560 0.5558 0.5555 0.5553 0.5550
3749.674063 0.5548 0.5545 0.5542 0.5540 0.5540
3752.991605 0.5540 0.5540 0.5540 0.5537 0.5535
3756.309146 0.5532 0.5530 0.5527 0.5525 0.5522
3759.626688 0.5520 0.5520 0.5520 0.5520 0.5519
3762.944230 0.5517 0.5514 0.5512 0.5509 0.5507
3766.261771 0.5504 0.5502 0.5500 0.5500 0.5500
3769.579313 0.5500 0.5500 0.5500 0.5500 0.5500
3772.896855 0.5499 0.5496 0.5494 0.5491 0.5490
3776.214396 0.5490 0.5490 0.5490 0.5488 0.5486
3779.531938 0.5483 0.5481 0.5478 0.5476 0.5473
3782.849480 0.5471 0.5470 0.5470 0.5470 0.5470
3786.167021 0.5468 0.5465 0.5463 0.5460 0.5458
3789.484563 0.5455 0.5453 0.5450 0.5450 0.5450
3792.802105 0.5450 0.5450 0.5448 0.5445 0.5442
3796.119646 0.5440 0.5437 0.5435 0.5432 0.5430
3799.437188 0.5430 0.5430 0.5430 0.5430 0.5427
3802.754730 0.5425 0.5422 0.5419 0.5417 0.5414
3806.072272 0.5412 0.5409 0.5407 0.5404 0.5402
3809.389813 0.5399 0.5397 0.5394 0.5392 0.5390
3812.707355 0.5390 0.5390 0.5390 0.5389 0.5386
3816.024897 0.5384 0.5381 0.5379 0.5376 0.5374
3819.342438 0.5371 0.5370 0.5370 0.5370 0.5370
3822.659980 0.5368 0.5366 0.5363 0.5361 0.5358
3825.977522 0.5356 0.5353 0.5351 0.5350 0.5350
3829.295063 0.5350 0.5350 0.5348 0.5345 0.5343
3832.612605 0.5340 0.5338 0.5335 0.5333 0.5330
3835.930147 0.5330 0.5330 0.5330 0.5330 0.5325
3839.247688 0.5320 0.5315 0.5310 0.5310 0.5310
3842.565230 0.5310 0.5310 0.5307 0.5305 0.5302
3845.882772 0.5300 0.5297 0.5295 0.5292 0.5290
3849.200314 0.5290 0.5290 0.5290 0.5290 0.5290
3852.517855 0.5290 0.5290 0.5289 0.5287 0.5284
3855.835397 0.5281 0.5279 0.5276 0.5274 0.5271
3859.152939 0.5270 0.5270 0.5270 0.5270 0.5270
3862.470480 0.5270 0.5270 0.5270 0.5268 0.5266
3865.788022 0.5263 0.5261 0.5258 0.5256 0.5253
3869.105564 0.5251 0.5250 0.5250 0.5250 0.5250
3872.423105 0.5250 0.5250 0.5250 0.5250 0.5248
3875.740647 0.5245 0.5243 0.5240 0.5238 0.5235
3879.058189 0.5233 0.5230 0.5230 0.5230 0.5230
3882.375730 0.5230 0.5230 0.5230 0.5230 0.5230
3885.693272 0.5227 0.5225 0.5222 0.5220 0.5217
3889.010814 0.5215 0.5212 0.5210 0.5210 0.5210
3892.328355 0.5210 0.5209 0.5207 0.5204 0.5202
3895.645897 0.5199 0.5197 0.5194 0.5192 0.5189
3898.963439 0.5187 0.5184 0.5181 0.5179 0.5176
3902.280981 0.5174 0.5171 0.5170 0.5170 0.5170
3905.598522 0.5170 0.5167 0.5162 0.5157 0.5152
3908.916064 0.5150 0.5150 0.5150 0.5150 0.5148
3912.233606 0.5146 0.5143 0.5141 0.5138 0.5136
3915.551147 0.5133 0.5131 0.5128 0.5125 0.5123
3918.868689 0.5120 0.5118 0.5115 0.5113 0.5110
3922.186231 0.5110 0.5110 0.5110 0.5110 0.5105
3925.503772 0.5100 0.5095 0.5090 0.5087 0.5085
3928.821314 0.5082 0.5080 0.5080 0.5080 0.5080
3932.138856 0.5080 0.5077 0.5075 0.5072 0.5070
3935.456397 0.5070 0.5070 0.5070 0.5070 0.5070
3938.773939 0.5070 0.5070 0.5069 0.5067 0.5064
3942.091481 0.5062 0.5059 0.5056 0.5054 0.5051
3945.409022 0.5050 0.5050 0.5050 0.5050 0.5050
3948.726564 0.5050 0.5050 0.5050 0.5049 0.5046
3952.044106 0.5044 0.5041 0.5038 0.5036 0.5033
3955.361648 0.5031 0.5030 0.5030 0.5030 0.5030
3958.679189 0.5030 0.5030 0.5030 0.5030 0.5028
3961.996731 0.5025 0.5023 0.5020 0.5020 0.5020
3965.314273 0.5020 0.5020 0.5018 0.5015 0.5013
3968.631814 0.5010 0.5010 0.5010 0.5010 0.5010
3971.949356 0.5010 0.5010 0.5010 0.5010 0.5010
3975.266898 0.5010 0.5010 0.5010 0.5007 0.5005
3978.584439 0.5002 0.5000 0.5000 0.5000 0.5000
3981.901981 0.5000 0.5000 0.5000 0.5000
##END=
