##TITLE=2-NAPHTHYLAMINE, N-(P-METHOXYBENZYLIDENE)-1-(P-METHOXYPHENYLAZO)-,HYDROGEN TETRAFLUOROBORATE
##JCAMP-DX=4.24
##DATA TYPE=INFRARED SPECTRUM
##CLASS=COBLENTZ III
##ORIGIN=HUNGARIAN ACAD. OF SCI., VIA SCIENTIFIC DOC. CENTRE LTD.
##OWNER=COBLENTZ SOCIETY
Collection (C) 2018 copyright by the U.S. Secretary of Commerce
on behalf of the United States of America. All rights reserved.
##DATE=1967
##MOLFORM=C25 H22 B F4 N3 O2
##SOURCE REFERENCE=COBLENTZ NO. 5832
##$NIST ID=B6005832
##$NIST SOURCE=COBLENTZ
##$NIST IMAGE=cob5832
##SPECTROMETER/DATA SYSTEM=UNICAM SP-200
##STATE=SOLID (KBr DISC)
##SAMPLING PROCEDURE=TRANSMISSION
##RESOLUTION=4
##DATA PROCESSING=DIGITIZED BY NIST FROM HARD COPY (FROM TWO SEGMENTS)
##XUNITS=1/CM
##YUNITS=TRANSMITTANCE
##XFACTOR=1.000000
##YFACTOR=1
##DELTAX=0.795522
##FIRSTX=651.591
##LASTX=4971.27
##FIRSTY=0.778
##MAXX=4971.27
##MINX=651.591
##MAXY=0.878
##MINY=0.09
##NPOINTS=5431
##XYDATA=(X++(Y..Y))
651.591000 0.7780 0.7780 0.7800 0.7800 0.7820
655.568609 0.7850 0.7850 0.7870 0.7890 0.7910
659.546218 0.7920 0.7940 0.7960 0.7960 0.7960
663.523826 0.7970 0.7970 0.7970 0.7980 0.7980
667.501435 0.7990 0.7990 0.8010 0.8020 0.8030
671.479044 0.8040 0.8050 0.8050 0.8040 0.8040
675.456653 0.8020 0.8000 0.7990 0.7990 0.7990
679.434262 0.7980 0.7970 0.7960 0.7960 0.7960
683.411871 0.7970 0.7980 0.7990 0.8000 0.8020
687.389479 0.8030 0.8040 0.8060 0.8060 0.8060
691.367088 0.8040 0.8000 0.7970 0.7960 0.7960
695.344697 0.7950 0.7880 0.7850 0.7800 0.7770
699.322306 0.7740 0.7700 0.7680 0.7670 0.7660
703.299915 0.7660 0.7630 0.7610 0.7590 0.7590
707.277524 0.7570 0.7560 0.7550 0.7550 0.7550
711.255132 0.7550 0.7550 0.7550 0.7570 0.7570
715.232741 0.7580 0.7580 0.7590 0.7610 0.7640
719.210350 0.7650 0.7660 0.7660 0.7670 0.7690
723.187959 0.7710 0.7710 0.7760 0.7780 0.7790
727.165568 0.7800 0.7800 0.7820 0.7820 0.7820
731.143176 0.7820 0.7810 0.7790 0.7750 0.7690
735.120785 0.7590 0.7540 0.7480 0.7301 0.7220
739.098394 0.7050 0.6630 0.6480 0.6470 0.6480
743.076003 0.6580 0.6700 0.6869 0.6970 0.7060
747.053612 0.7120 0.7180 0.7240 0.7250 0.7250
751.031221 0.7230 0.7210 0.7160 0.7150 0.7080
755.008829 0.7020 0.6960 0.6810 0.6750 0.6650
758.986438 0.6600 0.6580 0.6560 0.6550 0.6560
762.964047 0.6620 0.6720 0.6930 0.7040 0.7150
766.941656 0.7180 0.7260 0.7360 0.7440 0.7500
770.919265 0.7520 0.7550 0.7550 0.7550 0.7550
774.896874 0.7510 0.7470 0.7380 0.7320 0.7250
778.874482 0.7180 0.7120 0.7050 0.6980 0.6970
782.852091 0.6960 0.6970 0.7040 0.7060 0.7219
786.829700 0.7570 0.7670 0.7710 0.7760 0.7820
790.807309 0.7850 0.7850 0.7850 0.7870 0.7900
794.784918 0.7920 0.7940 0.7930 0.7920 0.7920
798.762526 0.7890 0.7870 0.7820 0.7780 0.7750
802.740135 0.7740 0.7730 0.7720 0.7710 0.7710
806.717744 0.7700 0.7660 0.7600 0.7580 0.7560
810.695353 0.7500 0.7440 0.7380 0.7300 0.7250
814.672962 0.7190 0.7090 0.7010 0.6881 0.6771
818.650571 0.6660 0.6460 0.6260 0.6050 0.5611
822.628179 0.5381 0.5161 0.4941 0.4472 0.4013
826.605788 0.3690 0.3490 0.3091 0.3080 0.3090
830.583397 0.3100 0.3160 0.3210 0.3250 0.3409
834.561006 0.3440 0.3650 0.3710 0.3760 0.3790
838.538615 0.3989 0.4070 0.4080 0.4309 0.4350
842.516224 0.4410 0.4480 0.4670 0.5049 0.5260
846.493832 0.5459 0.5570 0.5680 0.5770 0.5909
850.471441 0.6070 0.6160 0.6280 0.6360 0.6410
854.449050 0.6480 0.6560 0.6670 0.6760 0.6760
858.426659 0.6780 0.6780 0.6760 0.6760 0.6740
862.404268 0.6720 0.6710 0.6660 0.6640 0.6640
866.381876 0.6750 0.6850 0.7000 0.7170 0.7270
870.359485 0.7589 0.7650 0.7660 0.7670 0.7680
874.337094 0.7690 0.7700 0.7710 0.7730 0.7730
878.314703 0.7750 0.7750 0.7780 0.7820 0.7850
882.292312 0.7860 0.7860 0.7850 0.7850 0.7840
886.269921 0.7840 0.7820 0.7800 0.7800 0.7780
890.247529 0.7760 0.7740 0.7660 0.7660 0.7620
894.225138 0.7620 0.7630 0.7660 0.7720 0.7760
898.202747 0.7850 0.7990 0.8060 0.8080 0.8100
902.180356 0.8120 0.8150 0.8170 0.8230 0.8250
906.157965 0.8260 0.8260 0.8280 0.8290 0.8290
910.135574 0.8290 0.8300 0.8310 0.8310 0.8320
914.113182 0.8330 0.8330 0.8330 0.8320 0.8310
918.090791 0.8300 0.8270 0.8240 0.8210 0.8160
922.068400 0.8130 0.8130 0.8150 0.8150 0.8150
926.046009 0.8160 0.8170 0.8190 0.8170 0.8150
930.023618 0.8150 0.8140 0.8130 0.8120 0.8100
934.001226 0.8080 0.8060 0.8040 0.8040 0.8040
937.978835 0.8030 0.8020 0.7990 0.7940 0.7890
941.956444 0.7860 0.7850 0.7790 0.7770 0.7750
945.934053 0.7740 0.7710 0.7690 0.7650 0.7580
949.911662 0.7550 0.7500 0.7450 0.7420 0.7350
953.889271 0.7270 0.7250 0.7160 0.7150 0.7070
957.866879 0.7060 0.6990 0.6950 0.6850 0.6741
961.844488 0.6720 0.6710 0.6700 0.6690 0.6650
965.822097 0.6620 0.6580 0.6550 0.6450 0.6380
969.799706 0.6280 0.6250 0.6170 0.6150 0.6100
973.777315 0.6070 0.6070 0.5970 0.5950 0.5880
977.754924 0.5860 0.5750 0.5670 0.5610 0.5530
981.732532 0.5460 0.5450 0.5360 0.5290 0.5081
985.710141 0.5010 0.4970 0.4940 0.4870 0.4770
989.687750 0.4730 0.4730 0.4760 0.4800 0.4820
993.665359 0.4870 0.5030 0.5100 0.5170 0.5190
997.642968 0.5220 0.5220 0.5200 0.5011 0.4920
1001.620576 0.4830 0.4650 0.4450 0.4350 0.4280
1005.598185 0.4250 0.4250 0.4280 0.4280 0.4310
1009.575794 0.4330 0.4310 0.4290 0.4260 0.4160
1013.553403 0.4090 0.3891 0.3761 0.3661 0.3421
1017.531012 0.3320 0.3080 0.2890 0.2800 0.2581
1021.508621 0.2530 0.2470 0.2271 0.2230 0.2180
1025.486229 0.2120 0.2080 0.2070 0.2080 0.2090
1029.463838 0.2090 0.2080 0.2070 0.2050 0.2030
1033.441447 0.2010 0.1990 0.1980 0.1980 0.2000
1037.419056 0.2030 0.2070 0.2120 0.2150 0.2259
1041.396665 0.2580 0.2860 0.2880 0.2880 0.2880
1045.374274 0.2880 0.2880 0.2870 0.2860 0.2860
1049.351882 0.2820 0.2770 0.2760 0.2730 0.2720
1053.329491 0.2700 0.2680 0.2660 0.2630 0.2600
1057.307100 0.2600 0.2580 0.2540 0.2490 0.2470
1061.284709 0.2420 0.2380 0.2340 0.2330 0.2330
1065.262318 0.2310 0.2290 0.2280 0.2280 0.2270
1069.239926 0.2260 0.2240 0.2210 0.2180 0.2170
1073.217535 0.2170 0.2160 0.2150 0.2100 0.2040
1077.195144 0.1980 0.1830 0.1730 0.1700 0.1700
1081.172753 0.1700 0.1720 0.1750 0.1820 0.1870
1085.150362 0.1930 0.2000 0.2100 0.2219 0.2290
1089.127971 0.2380 0.2420 0.2470 0.2490 0.2510
1093.105579 0.2530 0.2560 0.2580 0.2590 0.2600
1097.083188 0.2600 0.2600 0.2580 0.2560 0.2540
1101.060797 0.2540 0.2510 0.2490 0.2460 0.2440
1105.038406 0.2400 0.2380 0.2340 0.2330 0.2320
1109.016015 0.2320 0.2320 0.2330 0.2330 0.2340
1112.993624 0.2350 0.2370 0.2380 0.2400 0.2410
1116.971232 0.2430 0.2450 0.2470 0.2569 0.2679
1120.948841 0.2770 0.2870 0.2910 0.3000 0.3170
1124.926450 0.3230 0.3429 0.3619 0.3690 0.3819
1128.904059 0.3870 0.3900 0.4000 0.4150 0.4290
1132.881668 0.4360 0.4360 0.4360 0.4340 0.4310
1136.859276 0.4200 0.4090 0.3960 0.3850 0.3830
1140.836885 0.3780 0.3780 0.3840 0.3880 0.4109
1144.814494 0.4220 0.4330 0.4340 0.4360 0.4340
1148.792103 0.4310 0.4270 0.4071 0.3970 0.3801
1152.769712 0.3740 0.3690 0.3680 0.3690 0.3770
1156.747321 0.3790 0.3810 0.3820 0.3820 0.3671
1160.724929 0.3550 0.3300 0.2811 0.2580 0.2430
1164.702538 0.2280 0.1921 0.1691 0.1411 0.1340
1168.680147 0.1270 0.1200 0.1090 0.1030 0.0900
1172.657756 0.0900 0.0960 0.0980 0.1169 0.1279
1176.635365 0.1420 0.1560 0.1660 0.1860 0.2090
1180.612974 0.2679 0.2790 0.3019 0.3199 0.3409
1184.590582 0.3500 0.3670 0.3830 0.3990 0.4070
1188.568191 0.4190 0.4270 0.4569 0.4680 0.4750
1192.545800 0.4860 0.4900 0.4910 0.4930 0.4900
1196.523409 0.4900 0.4840 0.4780 0.4681 0.4511
1200.501018 0.4450 0.4310 0.4290 0.4310 0.4360
1204.478626 0.4410 0.4530 0.4650 0.4769 0.4959
1208.456235 0.5070 0.5120 0.5150 0.5160 0.5210
1212.433844 0.5210 0.5170 0.5120 0.5120 0.5200
1216.411453 0.5270 0.5300 0.5400 0.5610 0.5650
1220.389062 0.5680 0.5700 0.5720 0.5720 0.5700
1224.366671 0.5630 0.5410 0.5130 0.5030 0.4920
1228.344279 0.4701 0.4481 0.4201 0.3981 0.3771
1232.321888 0.3570 0.3510 0.3370 0.3180 0.3080
1236.299497 0.2930 0.2860 0.2810 0.2511 0.2401
1240.277106 0.2300 0.2200 0.2090 0.2000 0.1681
1244.254715 0.1431 0.1370 0.1310 0.1220 0.1081
1248.232324 0.1060 0.1030 0.1030 0.1030 0.1020
1252.209932 0.1020 0.1030 0.1040 0.1060 0.1080
1256.187541 0.1100 0.1130 0.1160 0.1200 0.1270
1260.165150 0.1290 0.1380 0.1430 0.1470 0.1589
1264.142759 0.1800 0.1990 0.2110 0.2599 0.2809
1268.120368 0.3169 0.3459 0.3570 0.3670 0.3799
1272.097976 0.3980 0.4190 0.4450 0.4680 0.4880
1276.075585 0.5169 0.5260 0.5370 0.5400 0.5460
1280.053194 0.5480 0.5510 0.5540 0.5520 0.5510
1284.030803 0.5470 0.5380 0.5330 0.5250 0.5081
1288.008412 0.5000 0.4910 0.4860 0.4810 0.4780
1291.986021 0.4770 0.4770 0.4780 0.4790 0.4800
1295.963629 0.4840 0.4850 0.4890 0.4910 0.4940
1299.941238 0.4960 0.4970 0.4980 0.4960 0.4910
1303.918847 0.4850 0.4720 0.4580 0.4520 0.4430
1307.896456 0.4370 0.4280 0.4190 0.4110 0.4090
1311.874065 0.4080 0.4080 0.4080 0.4080 0.4110
1315.851674 0.4130 0.4230 0.4359 0.4460 0.4569
1319.829282 0.4680 0.5050 0.5110 0.5200 0.5260
1323.806891 0.5320 0.5380 0.5400 0.5420 0.5470
1327.784500 0.5480 0.5510 0.5560 0.5600 0.5670
1331.762109 0.5780 0.5860 0.5970 0.6070 0.6130
1335.739718 0.6180 0.6320 0.6460 0.6650 0.6760
1339.717326 0.6890 0.6960 0.6990 0.7020 0.7030
1343.694935 0.7060 0.7060 0.7080 0.7080 0.7060
1347.672544 0.7030 0.7000 0.6980 0.6950 0.6920
1351.650153 0.6890 0.6880 0.6890 0.6900 0.6900
1355.627762 0.6920 0.6950 0.6970 0.6980 0.7060
1359.605371 0.7090 0.7150 0.7180 0.7200 0.7270
1363.582979 0.7290 0.7340 0.7360 0.7380 0.7400
1367.560588 0.7420 0.7470 0.7520 0.7550 0.7570
1371.538197 0.7570 0.7570 0.7580 0.7580 0.7560
1375.515806 0.7520 0.7500 0.7490 0.7470 0.7460
1379.493415 0.7400 0.7360 0.7310 0.7220 0.7170
1383.471024 0.7150 0.7150 0.7140 0.7130 0.7130
1387.448632 0.7150 0.7180 0.7200 0.7220 0.7270
1391.426241 0.7320 0.7360 0.7370 0.7390 0.7430
1395.403850 0.7450 0.7450 0.7450 0.7440 0.7440
1399.381459 0.7360 0.7320 0.7260 0.7130 0.6980
1403.359068 0.6900 0.6760 0.6660 0.6421 0.6261
1407.336676 0.6060 0.5830 0.5740 0.5620 0.5490
1411.314285 0.5390 0.5340 0.5250 0.5180 0.5170
1415.291894 0.5160 0.5160 0.5160 0.5130 0.5080
1419.269503 0.5030 0.5010 0.4980 0.4960 0.4831
1423.247112 0.4770 0.4750 0.4590 0.4570 0.4470
1427.224721 0.4291 0.4180 0.4170 0.3981 0.3871
1431.202329 0.3670 0.3570 0.3430 0.3230 0.3160
1435.179938 0.3000 0.2920 0.2870 0.2820 0.2740
1439.157547 0.2740 0.2760 0.2780 0.2810 0.2860
1443.135156 0.2890 0.2970 0.3030 0.3159 0.3200
1447.112765 0.3270 0.3370 0.3460 0.3510 0.3690
1451.090374 0.3790 0.3969 0.4089 0.4120 0.4160
1455.067982 0.4180 0.4240 0.4260 0.4290 0.4300
1459.045591 0.4370 0.4410 0.4500 0.4570 0.4590
1463.023200 0.4690 0.5070 0.5210 0.5310 0.5480
1467.000809 0.5600 0.5809 0.5880 0.5980 0.6070
1470.978418 0.6120 0.6180 0.6280 0.6370 0.6570
1474.956026 0.6670 0.6869 0.6960 0.7000 0.7020
1478.933635 0.7040 0.7040 0.7040 0.7040 0.7040
1482.911244 0.7040 0.7020 0.6980 0.6920 0.6870
1486.888853 0.6760 0.6650 0.6560 0.6380 0.5981
1490.866462 0.5761 0.5670 0.5560 0.5470 0.5321
1494.844071 0.5120 0.5060 0.4980 0.4910 0.4641
1498.821679 0.4361 0.4091 0.3801 0.3531 0.3371
1502.799288 0.3310 0.3120 0.3010 0.2880 0.2790
1506.776897 0.2780 0.2630 0.2610 0.2600 0.2610
1510.754506 0.2630 0.2660 0.2720 0.2840 0.3080
1514.732115 0.3290 0.3509 0.3779 0.3969 0.4239
1518.709724 0.4541 0.5260 0.5740 0.5970 0.6220
1522.687332 0.6569 0.6750 0.6949 0.7070 0.7110
1526.664941 0.7170 0.7220 0.7270 0.7320 0.7360
1530.642550 0.7410 0.7460 0.7470 0.7500 0.7510
1534.620159 0.7520 0.7520 0.7520 0.7530 0.7520
1538.597768 0.7500 0.7480 0.7430 0.7320 0.7012
1542.575376 0.6880 0.6690 0.6570 0.6500 0.6420
1546.552985 0.6250 0.5961 0.5910 0.5840 0.5750
1550.530594 0.5650 0.5640 0.5640 0.5650 0.5680
1554.508203 0.5720 0.5780 0.5880 0.5980 0.6020
1558.485812 0.6090 0.6160 0.6210 0.6210 0.6220
1562.463421 0.6230 0.6220 0.6180 0.6071 0.5980
1566.441029 0.5820 0.5720 0.5670 0.5630 0.5500
1570.418638 0.5330 0.5280 0.5081 0.4881 0.4870
1574.396247 0.4820 0.4680 0.4670 0.4540 0.4530
1578.373856 0.4480 0.4430 0.4360 0.4350 0.4340
1582.351465 0.4340 0.4340 0.4340 0.4300 0.4270
1586.329074 0.4190 0.4140 0.3921 0.3870 0.3422
1590.306682 0.3370 0.3180 0.2880 0.2790 0.2740
1594.284291 0.2610 0.2480 0.2281 0.2081 0.1980
1598.261900 0.1930 0.1870 0.1730 0.1680 0.1670
1602.239509 0.1660 0.1670 0.1690 0.1720 0.1780
1606.217118 0.1990 0.2090 0.2699 0.2930 0.3239
1610.194726 0.3320 0.3719 0.3969 0.4189 0.4479
1614.172335 0.5020 0.5230 0.5430 0.5660 0.5800
1618.149944 0.5920 0.6209 0.6459 0.6649 0.6730
1622.127553 0.6790 0.6860 0.6890 0.6970 0.7000
1626.105162 0.7080 0.7160 0.7190 0.7230 0.7320
1630.082771 0.7390 0.7420 0.7500 0.7530 0.7570
1634.060379 0.7580 0.7590 0.7620 0.7630 0.7640
1638.037988 0.7660 0.7660 0.7670 0.7700 0.7770
1642.015597 0.7790 0.7820 0.7830 0.7870 0.7920
1645.993206 0.7970 0.7980 0.8010 0.8060 0.8070
1649.970815 0.8080 0.8120 0.8170 0.8180 0.8190
1653.948424 0.8200 0.8200 0.8200 0.8210 0.8210
1657.926032 0.8220 0.8230 0.8240 0.8240 0.8250
1661.903641 0.8260 0.8260 0.8260 0.8270 0.8270
1665.881250 0.8280 0.8300 0.8320 0.8330 0.8330
1669.858859 0.8350 0.8360 0.8360 0.8360 0.8360
1673.836468 0.8370 0.8380 0.8380 0.8380 0.8380
1677.814076 0.8380 0.8390 0.8390 0.8400 0.8400
1681.791685 0.8400 0.8400 0.8400 0.8400 0.8400
1685.769294 0.8400 0.8400 0.8400 0.8400 0.8400
1689.746903 0.8400 0.8400 0.8410 0.8440 0.8450
1693.724512 0.8470 0.8480 0.8480 0.8490 0.8500
1697.702121 0.8500 0.8500 0.8500 0.8500 0.8500
1701.679729 0.8500 0.8500 0.8500 0.8500 0.8510
1705.657338 0.8510 0.8520 0.8520 0.8520 0.8520
1709.634947 0.8530 0.8540 0.8560 0.8570 0.8570
1713.612556 0.8570 0.8570 0.8560 0.8570 0.8570
1717.590165 0.8580 0.8590 0.8600 0.8620 0.8630
1721.567774 0.8670 0.8670 0.8680 0.8680 0.8680
1725.545382 0.8680 0.8680 0.8670 0.8670 0.8660
1729.522991 0.8660 0.8660 0.8650 0.8650 0.8640
1733.500600 0.8640 0.8640 0.8650 0.8660 0.8670
1737.478209 0.8680 0.8680 0.8700 0.8710 0.8730
1741.455818 0.8750 0.8760 0.8740 0.8740 0.8740
1745.433426 0.8730 0.8720 0.8720 0.8720 0.8700
1749.411035 0.8680 0.8660 0.8680 0.8680 0.8680
1753.388644 0.8700 0.8710 0.8720 0.8730 0.8740
1757.366253 0.8750 0.8750 0.8750 0.8770 0.8770
1761.343862 0.8750 0.8740 0.8720 0.8710 0.8700
1765.321471 0.8720 0.8720 0.8730 0.8740 0.8750
1769.299079 0.8750 0.8760 0.8770 0.8770 0.8780
1773.276688 0.8780 0.8770 0.8760 0.8750 0.8750
1777.254297 0.8740 0.8740 0.8730 0.8730 0.8730
1781.231906 0.8720 0.8710 0.8710 0.8720 0.8720
1785.209515 0.8720 0.8730 0.8740 0.8750 0.8750
1789.187124 0.8750 0.8760 0.8770 0.8770 0.8770
1793.164732 0.8780 0.8780 0.8780 0.8780 0.8770
1797.142341 0.8770 0.8750 0.8740 0.8730 0.8740
1801.119950 0.8750 0.8750 0.8760 0.8770 0.8770
1805.097559 0.8770 0.8770 0.8760 0.8760 0.8760
1809.075168 0.8750 0.8750 0.8750 0.8730 0.8720
1813.052776 0.8710 0.8690 0.8680 0.8690 0.8720
1817.030385 0.8720 0.8720 0.8720 0.8720 0.8730
1821.007994 0.8730 0.8740 0.8750 0.8750 0.8750
1824.985603 0.8740 0.8740 0.8730 0.8720 0.8740
1828.963212 0.8740 0.8740 0.8740 0.8740 0.8750
1832.940821 0.8750 0.8720 0.8730 0.8740 0.8750
1836.918429 0.8750 0.8750 0.8750 0.8750 0.8760
1840.896038 0.8760 0.8760 0.8750 0.8750 0.8750
1844.873647 0.8750 0.8750 0.8750 0.8750 0.8750
1848.851256 0.8740 0.8720 0.8700 0.8690 0.8680
1852.828865 0.8620 0.8620 0.8680 0.8700 0.8700
1856.806474 0.8710 0.8730 0.8720 0.8690 0.8650
1860.784082 0.8650 0.8670 0.8680 0.8710 0.8710
1864.761691 0.8730 0.8730 0.8710 0.8690 0.8680
1868.739300 0.8670 0.8700 0.8700 0.8700 0.8700
1872.716909 0.8680 0.8670 0.8630 0.8630 0.8680
1876.694518 0.8660 0.8650 0.8650 0.8680 0.8680
1880.672126 0.8680 0.8670 0.8660 0.8630 0.8620
1884.649735 0.8610 0.8600 0.8600 0.8660 0.8590
1888.627344 0.8630 0.8680 0.8680 0.8700 0.8680
1892.604953 0.8680 0.8660 0.8640 0.8640 0.8620
1896.582562 0.8620 0.8670 0.8670 0.8680 0.8680
1900.560171 0.8680 0.8590 0.8590 0.8670 0.8660
1904.537779 0.8660 0.8660 0.8660 0.8650 0.8630
1908.515388 0.8610 0.8590 0.8570 0.8590 0.8590
1912.492997 0.8600 0.8610 0.8610 0.8640 0.8650
1916.470606 0.8680 0.8680 0.8630 0.8630 0.8600
1920.448215 0.8630 0.8650 0.8650 0.8640 0.8640
1924.425824 0.8620 0.8600 0.8590 0.8590 0.8590
1928.403432 0.8600 0.8620 0.8650 0.8640 0.8640
1932.381041 0.8640 0.8630 0.8630 0.8620 0.8610
1936.358650 0.8590 0.8590 0.8590 0.8570 0.8610
1940.336259 0.8640 0.8680 0.8610 0.8580 0.8570
1944.313868 0.8570 0.8570 0.8570 0.8570 0.8610
1948.291476 0.8570 0.8540 0.8540 0.8580 0.8580
1952.269085 0.8580 0.8580 0.8580 0.8550 0.8530
1956.246694 0.8520 0.8500 0.8520 0.8540 0.8550
1960.224303 0.8580 0.8580 0.8570 0.8570 0.8570
1964.201912 0.8540 0.8540 0.8530 0.8490 0.8490
1968.179521 0.8490 0.8500 0.8520 0.8520 0.8530
1972.157129 0.8530 0.8530 0.8540 0.8520 0.8450
1976.134738 0.8460 0.8530 0.8540 0.8550 0.8570
1980.112347 0.8570 0.8580 0.8560 0.8540 0.8530
1984.089956 0.8540 0.8570 0.8570 0.8570 0.8590
1988.067565 0.8540 0.8470 0.8470 0.8490 0.8490
1992.045174 0.8520 0.8540 0.8560 0.8580 0.8590
1996.022782 0.8590 0.8590 0.8590 0.8600 0.8600
2000.000391 0.8600 0.8600 0.8610 0.8600 0.8600
2003.978000 0.8610 0.8600 0.8590 0.8580 0.8569
2007.955609 0.8559 0.8549 0.8539 0.8529 0.8519
2011.933218 0.8509 0.8498 0.8488 0.8478 0.8468
2015.910826 0.8459 0.8457 0.8454 0.8452 0.8449
2019.888435 0.8447 0.8444 0.8442 0.8439 0.8437
2023.866044 0.8434 0.8432 0.8427 0.8417 0.8406
2027.843653 0.8396 0.8389 0.8387 0.8384 0.8381
2031.821262 0.8379 0.8376 0.8374 0.8371 0.8370
2035.798871 0.8370 0.8370 0.8370 0.8370 0.8370
2039.776479 0.8370 0.8370 0.8371 0.8374 0.8376
2043.754088 0.8379 0.8381 0.8384 0.8387 0.8389
2047.731697 0.8390 0.8390 0.8390 0.8390 0.8392
2051.709306 0.8394 0.8397 0.8399 0.8402 0.8404
2055.686915 0.8407 0.8409 0.8412 0.8414 0.8417
2059.664524 0.8419 0.8420 0.8420 0.8420 0.8420
2063.642132 0.8420 0.8420 0.8420 0.8420 0.8420
2067.619741 0.8420 0.8420 0.8420 0.8422 0.8425
2071.597350 0.8427 0.8430 0.8430 0.8430 0.8430
2075.574959 0.8430 0.8433 0.8435 0.8438 0.8440
2079.552568 0.8440 0.8440 0.8440 0.8440 0.8440
2083.530176 0.8440 0.8440 0.8440 0.8443 0.8445
2087.507785 0.8448 0.8450 0.8450 0.8450 0.8450
2091.485394 0.8450 0.8450 0.8450 0.8450 0.8451
2095.463003 0.8453 0.8456 0.8458 0.8460 0.8460
2099.440612 0.8460 0.8460 0.8460 0.8460 0.8460
2103.418221 0.8460 0.8460 0.8460 0.8460 0.8460
2107.395829 0.8460 0.8460 0.8460 0.8460 0.8460
2111.373438 0.8460 0.8460 0.8460 0.8461 0.8464
2115.351047 0.8466 0.8469 0.8470 0.8470 0.8470
2119.328656 0.8470 0.8470 0.8470 0.8470 0.8470
2123.306265 0.8470 0.8470 0.8470 0.8470 0.8470
2127.283874 0.8470 0.8470 0.8470 0.8468 0.8466
2131.261482 0.8463 0.8461 0.8460 0.8460 0.8460
2135.239091 0.8460 0.8460 0.8460 0.8460 0.8460
2139.216700 0.8460 0.8460 0.8460 0.8460 0.8455
2143.194309 0.8450 0.8445 0.8440 0.8438 0.8435
2147.171918 0.8433 0.8430 0.8427 0.8425 0.8422
2151.149526 0.8420 0.8417 0.8415 0.8412 0.8410
2155.127135 0.8410 0.8410 0.8410 0.8410 0.8413
2159.104744 0.8415 0.8418 0.8420 0.8420 0.8420
2163.082353 0.8420 0.8420 0.8420 0.8420 0.8420
2167.059962 0.8421 0.8423 0.8426 0.8428 0.8430
2171.037571 0.8430 0.8430 0.8430 0.8429 0.8427
2175.015179 0.8424 0.8422 0.8420 0.8420 0.8420
2178.992788 0.8420 0.8418 0.8413 0.8408 0.8403
2182.970397 0.8400 0.8400 0.8400 0.8400 0.8399
2186.948006 0.8396 0.8394 0.8391 0.8390 0.8390
2190.925615 0.8390 0.8390 0.8390 0.8390 0.8390
2194.903224 0.8390 0.8390 0.8390 0.8390 0.8390
2198.880832 0.8390 0.8390 0.8390 0.8390 0.8390
2202.858441 0.8390 0.8390 0.8390 0.8388 0.8385
2206.836050 0.8383 0.8380 0.8378 0.8375 0.8373
2210.813659 0.8370 0.8370 0.8370 0.8370 0.8370
2214.791268 0.8370 0.8370 0.8370 0.8370 0.8368
2218.768876 0.8365 0.8363 0.8360 0.8358 0.8355
2222.746485 0.8352 0.8350 0.8350 0.8350 0.8350
2226.724094 0.8350 0.8347 0.8345 0.8342 0.8340
2230.701703 0.8337 0.8335 0.8332 0.8330 0.8327
2234.679312 0.8325 0.8322 0.8320 0.8320 0.8320
2238.656921 0.8320 0.8320 0.8320 0.8320 0.8320
2242.634529 0.8320 0.8320 0.8320 0.8320 0.8319
2246.612138 0.8317 0.8314 0.8312 0.8310 0.8310
2250.589747 0.8310 0.8310 0.8310 0.8310 0.8310
2254.567356 0.8310 0.8309 0.8306 0.8304 0.8301
2258.544965 0.8300 0.8300 0.8300 0.8300 0.8300
2262.522574 0.8300 0.8300 0.8300 0.8299 0.8296
2266.500182 0.8293 0.8291 0.8288 0.8286 0.8283
2270.477791 0.8281 0.8280 0.8280 0.8280 0.8280
2274.455400 0.8278 0.8276 0.8273 0.8271 0.8268
2278.433009 0.8266 0.8263 0.8260 0.8260 0.8260
2282.410618 0.8260 0.8260 0.8258 0.8255 0.8253
2286.388226 0.8250 0.8248 0.8245 0.8243 0.8240
2290.365835 0.8240 0.8240 0.8240 0.8240 0.8240
2294.343444 0.8240 0.8240 0.8240 0.8240 0.8240
2298.321053 0.8240 0.8240 0.8240 0.8240 0.8240
2302.298662 0.8240 0.8243 0.8245 0.8248 0.8250
2306.276271 0.8250 0.8250 0.8250 0.8250 0.8253
2310.253879 0.8256 0.8258 0.8261 0.8263 0.8266
2314.231488 0.8268 0.8269 0.8267 0.8264 0.8262
2318.209097 0.8260 0.8260 0.8260 0.8260 0.8260
2322.186706 0.8260 0.8260 0.8260 0.8257 0.8250
2326.164315 0.8242 0.8234 0.8229 0.8226 0.8224
2330.141924 0.8221 0.8219 0.8216 0.8214 0.8211
2334.119532 0.8207 0.8202 0.8197 0.8192 0.8186
2338.097141 0.8178 0.8170 0.8163 0.8157 0.8152
2342.074750 0.8147 0.8142 0.8138 0.8136 0.8133
2346.052359 0.8131 0.8128 0.8126 0.8123 0.8121
2350.029968 0.8118 0.8116 0.8113 0.8111 0.8104
2354.007576 0.8097 0.8089 0.8081 0.8078 0.8075
2357.985185 0.8073 0.8070 0.8068 0.8065 0.8063
2361.962794 0.8060 0.8053 0.8045 0.8038 0.8030
2365.940403 0.8023 0.8015 0.8007 0.8000 0.7990
2369.918012 0.7980 0.7970 0.7960 0.7952 0.7944
2373.895621 0.7937 0.7929 0.7922 0.7914 0.7907
2377.873229 0.7899 0.7891 0.7884 0.7876 0.7870
2381.850838 0.7867 0.7865 0.7862 0.7859 0.7854
2385.828447 0.7849 0.7844 0.7839 0.7834 0.7829
2389.806056 0.7824 0.7817 0.7807 0.7797 0.7786
2393.783665 0.7780 0.7780 0.7780 0.7780 0.7779
2397.761274 0.7776 0.7774 0.7771 0.7766 0.7755
2401.738882 0.7745 0.7735 0.7723 0.7708 0.7692
2405.716491 0.7677 0.7666 0.7659 0.7651 0.7643
2409.694100 0.7639 0.7636 0.7634 0.7631 0.7628
2413.671709 0.7626 0.7623 0.7621 0.7620 0.7620
2417.649318 0.7620 0.7620 0.7615 0.7607 0.7600
2421.626926 0.7592 0.7586 0.7581 0.7576 0.7571
2425.604535 0.7568 0.7565 0.7563 0.7560 0.7560
2429.582144 0.7560 0.7560 0.7560 0.7558 0.7555
2433.559753 0.7553 0.7550 0.7548 0.7545 0.7543
2437.537362 0.7540 0.7538 0.7535 0.7533 0.7530
2441.514971 0.7525 0.7520 0.7515 0.7510 0.7502
2445.492579 0.7495 0.7487 0.7480 0.7472 0.7464
2449.470188 0.7457 0.7449 0.7444 0.7439 0.7434
2453.447797 0.7429 0.7424 0.7419 0.7414 0.7409
2457.425406 0.7404 0.7399 0.7394 0.7388 0.7380
2461.403015 0.7373 0.7365 0.7358 0.7350 0.7343
2465.380624 0.7335 0.7326 0.7313 0.7300 0.7288
2469.358232 0.7279 0.7277 0.7274 0.7271 0.7269
2473.335841 0.7266 0.7264 0.7261 0.7259 0.7256
2477.313450 0.7254 0.7251 0.7249 0.7246 0.7244
2481.291059 0.7241 0.7235 0.7225 0.7214 0.7204
2485.268668 0.7196 0.7188 0.7180 0.7173 0.7165
2489.246276 0.7158 0.7150 0.7142 0.7138 0.7136
2493.223885 0.7133 0.7131 0.7126 0.7121 0.7116
2497.201494 0.7111 0.7096 0.7079 0.7061 0.7043
2501.179103 0.7032 0.7022 0.7012 0.7002 0.6994
2505.156712 0.6986 0.6978 0.6971 0.6970 0.6970
2509.134321 0.6970 0.6970 0.6970 0.6970 0.6970
2513.111929 0.6970 0.6965 0.6960 0.6955 0.6950
2517.089538 0.6945 0.6940 0.6935 0.6929 0.6922
2521.067147 0.6914 0.6907 0.6899 0.6892 0.6884
2525.044756 0.6876 0.6867 0.6850 0.6832 0.6814
2529.022365 0.6799 0.6791 0.6783 0.6776 0.6766
2532.999974 0.6748 0.6730 0.6713 0.6698 0.6690
2536.977582 0.6683 0.6675 0.6668 0.6663 0.6658
2540.955191 0.6653 0.6649 0.6647 0.6644 0.6642
2544.932800 0.6639 0.6636 0.6634 0.6631 0.6629
2548.910409 0.6626 0.6624 0.6621 0.6619 0.6616
2552.888018 0.6614 0.6611 0.6606 0.6598 0.6591
2556.865626 0.6583 0.6570 0.6552 0.6534 0.6517
2560.843235 0.6507 0.6502 0.6497 0.6492 0.6490
2564.820844 0.6490 0.6490 0.6490 0.6486 0.6481
2568.798453 0.6476 0.6471 0.6466 0.6461 0.6456
2572.776062 0.6451 0.6448 0.6446 0.6443 0.6440
2576.753671 0.6423 0.6403 0.6383 0.6363 0.6360
2580.731279 0.6360 0.6360 0.6360 0.6353 0.6345
2584.708888 0.6338 0.6330 0.6325 0.6320 0.6315
2588.686497 0.6310 0.6305 0.6300 0.6295 0.6290
2592.664106 0.6290 0.6290 0.6290 0.6290 0.6287
2596.641715 0.6285 0.6282 0.6280 0.6277 0.6275
2600.619324 0.6272 0.6270 0.6270 0.6270 0.6270
2604.596932 0.6270 0.6270 0.6270 0.6270 0.6270
2608.574541 0.6270 0.6270 0.6270 0.6270 0.6270
2612.552150 0.6270 0.6270 0.6269 0.6267 0.6264
2616.529759 0.6261 0.6257 0.6249 0.6242 0.6234
2620.507368 0.6230 0.6230 0.6230 0.6230 0.6225
2624.484976 0.6215 0.6205 0.6195 0.6187 0.6182
2628.462585 0.6177 0.6172 0.6159 0.6138 0.6118
2632.440194 0.6098 0.6087 0.6082 0.6077 0.6072
2636.417803 0.6068 0.6066 0.6063 0.6061 0.6055
2640.395412 0.6047 0.6040 0.6032 0.6028 0.6026
2644.373021 0.6023 0.6021 0.6016 0.6011 0.6006
2648.350629 0.6001 0.6000 0.6000 0.6000 0.6000
2652.328238 0.5998 0.5995 0.5993 0.5990 0.5990
2656.305847 0.5990 0.5990 0.5990 0.5990 0.5990
2660.283456 0.5990 0.5990 0.5988 0.5985 0.5982
2664.261065 0.5980 0.5980 0.5980 0.5980 0.5980
2668.238674 0.5977 0.5975 0.5972 0.5970 0.5970
2672.216282 0.5970 0.5970 0.5970 0.5970 0.5970
2676.193891 0.5970 0.5970 0.5970 0.5970 0.5970
2680.171500 0.5969 0.5967 0.5964 0.5962 0.5960
2684.149109 0.5960 0.5960 0.5960 0.5959 0.5957
2688.126718 0.5954 0.5952 0.5950 0.5950 0.5950
2692.104326 0.5950 0.5948 0.5943 0.5938 0.5933
2696.081935 0.5928 0.5923 0.5918 0.5913 0.5909
2700.059544 0.5906 0.5904 0.5901 0.5897 0.5892
2704.037153 0.5887 0.5882 0.5877 0.5872 0.5867
2708.014762 0.5862 0.5860 0.5860 0.5860 0.5860
2711.992371 0.5858 0.5856 0.5853 0.5851 0.5850
2715.969979 0.5850 0.5850 0.5850 0.5850 0.5850
2719.947588 0.5850 0.5850 0.5850 0.5850 0.5850
2723.925197 0.5850 0.5848 0.5845 0.5843 0.5840
2727.902806 0.5840 0.5840 0.5840 0.5840 0.5840
2731.880415 0.5840 0.5840 0.5840 0.5838 0.5835
2735.858024 0.5833 0.5830 0.5830 0.5830 0.5830
2739.835632 0.5830 0.5825 0.5819 0.5814 0.5809
2743.813241 0.5804 0.5799 0.5794 0.5789 0.5784
2747.790850 0.5779 0.5774 0.5766 0.5749 0.5731
2751.768459 0.5713 0.5697 0.5684 0.5672 0.5659
2755.746068 0.5649 0.5644 0.5639 0.5633 0.5627
2759.723676 0.5617 0.5607 0.5597 0.5589 0.5587
2763.701285 0.5584 0.5582 0.5579 0.5576 0.5574
2767.678894 0.5571 0.5564 0.5552 0.5539 0.5526
2771.656503 0.5514 0.5501 0.5488 0.5476 0.5459
2775.634112 0.5439 0.5418 0.5398 0.5390 0.5390
2779.611721 0.5390 0.5390 0.5393 0.5398 0.5403
2783.589329 0.5408 0.5415 0.5423 0.5430 0.5438
2787.566938 0.5445 0.5453 0.5460 0.5468 0.5481
2791.544547 0.5496 0.5512 0.5527 0.5536 0.5544
2795.522156 0.5551 0.5559 0.5564 0.5569 0.5574
2799.499765 0.5579 0.5584 0.5590 0.5595 0.5600
2803.477374 0.5605 0.5610 0.5615 0.5620 0.5620
2807.454982 0.5620 0.5620 0.5620 0.5625 0.5630
2811.432591 0.5635 0.5640 0.5643 0.5645 0.5648
2815.410200 0.5650 0.5650 0.5650 0.5650 0.5650
2819.387809 0.5653 0.5655 0.5658 0.5660 0.5663
2823.365418 0.5665 0.5668 0.5670 0.5670 0.5670
2827.343026 0.5670 0.5670 0.5670 0.5670 0.5670
2831.320635 0.5670 0.5670 0.5670 0.5670 0.5668
2835.298244 0.5663 0.5658 0.5653 0.5648 0.5643
2839.275853 0.5638 0.5633 0.5628 0.5623 0.5618
2843.253462 0.5613 0.5606 0.5599 0.5591 0.5584
2847.231071 0.5579 0.5576 0.5574 0.5571 0.5559
2851.208679 0.5538 0.5518 0.5498 0.5485 0.5478
2855.186288 0.5470 0.5463 0.5458 0.5456 0.5453
2859.163897 0.5451 0.5448 0.5446 0.5443 0.5441
2863.141506 0.5440 0.5440 0.5440 0.5440 0.5440
2867.119115 0.5440 0.5440 0.5440 0.5438 0.5435
2871.096724 0.5433 0.5430 0.5419 0.5406 0.5394
2875.074332 0.5381 0.5373 0.5365 0.5358 0.5350
2879.051941 0.5348 0.5345 0.5343 0.5340 0.5332
2883.029550 0.5325 0.5317 0.5310 0.5302 0.5295
2887.007159 0.5287 0.5278 0.5250 0.5222 0.5195
2890.984768 0.5170 0.5170 0.5170 0.5170 0.5170
2894.962376 0.5173 0.5175 0.5178 0.5185 0.5208
2898.939985 0.5231 0.5253 0.5273 0.5283 0.5293
2902.917594 0.5303 0.5317 0.5340 0.5362 0.5385
2906.895203 0.5403 0.5410 0.5418 0.5425 0.5435
2910.872812 0.5447 0.5460 0.5473 0.5482 0.5487
2914.850421 0.5492 0.5497 0.5503 0.5511 0.5519
2918.828029 0.5526 0.5535 0.5545 0.5555 0.5565
2922.805638 0.5571 0.5574 0.5576 0.5579 0.5580
2926.783247 0.5580 0.5580 0.5580 0.5580 0.5580
2930.760856 0.5580 0.5580 0.5584 0.5589 0.5594
2934.738465 0.5599 0.5600 0.5600 0.5600 0.5600
2938.716074 0.5602 0.5604 0.5607 0.5610 0.5612
2942.693682 0.5615 0.5617 0.5620 0.5624 0.5629
2946.671291 0.5634 0.5639 0.5645 0.5650 0.5655
2950.648900 0.5660 0.5672 0.5684 0.5697 0.5710
2954.626509 0.5708 0.5705 0.5703 0.5700 0.5697
2958.604118 0.5695 0.5692 0.5689 0.5682 0.5674
2962.581726 0.5667 0.5660 0.5660 0.5660 0.5660
2966.559335 0.5661 0.5666 0.5671 0.5676 0.5680
2970.536944 0.5680 0.5680 0.5680 0.5681 0.5686
2974.514553 0.5691 0.5696 0.5701 0.5706 0.5712
2978.492162 0.5717 0.5720 0.5720 0.5720 0.5720
2982.469771 0.5715 0.5703 0.5690 0.5678 0.5669
2986.447379 0.5666 0.5664 0.5661 0.5660 0.5660
2990.424988 0.5660 0.5660 0.5657 0.5652 0.5647
2994.402597 0.5642 0.5640 0.5640 0.5640 0.5640
2998.380206 0.5642 0.5644 0.5647 0.5649 0.5656
3002.357815 0.5666 0.5677 0.5687 0.5693 0.5698
3006.335424 0.5703 0.5709 0.5719 0.5732 0.5744
3010.313032 0.5757 0.5764 0.5769 0.5774 0.5779
3014.290641 0.5786 0.5794 0.5801 0.5809 0.5814
3018.268250 0.5819 0.5824 0.5829 0.5839 0.5849
3022.245859 0.5859 0.5869 0.5877 0.5885 0.5892
3026.223468 0.5900 0.5905 0.5910 0.5915 0.5920
3030.201076 0.5923 0.5925 0.5928 0.5930 0.5933
3034.178685 0.5935 0.5938 0.5941 0.5951 0.5961
3038.156294 0.5971 0.5983 0.6006 0.6029 0.6051
3042.133903 0.6070 0.6073 0.6075 0.6078 0.6081
3046.111512 0.6083 0.6086 0.6088 0.6091 0.6093
3050.089121 0.6096 0.6098 0.6100 0.6100 0.6100
3054.066729 0.6100 0.6102 0.6107 0.6112 0.6117
3058.044338 0.6123 0.6131 0.6138 0.6146 0.6152
3062.021947 0.6157 0.6162 0.6167 0.6175 0.6185
3065.999556 0.6195 0.6205 0.6213 0.6218 0.6223
3069.977165 0.6228 0.6231 0.6234 0.6236 0.6239
3073.954774 0.6243 0.6248 0.6253 0.6258 0.6260
3077.932382 0.6260 0.6260 0.6260 0.6262 0.6264
3081.909991 0.6267 0.6269 0.6270 0.6270 0.6270
3085.887600 0.6270 0.6270 0.6270 0.6270 0.6270
3089.865209 0.6270 0.6270 0.6270 0.6270 0.6270
3093.842818 0.6270 0.6270 0.6270 0.6268 0.6265
3097.820426 0.6263 0.6260 0.6260 0.6260 0.6260
3101.798035 0.6260 0.6252 0.6245 0.6237 0.6230
3105.775644 0.6227 0.6225 0.6222 0.6220 0.6217
3109.753253 0.6215 0.6212 0.6209 0.6204 0.6199
3113.730862 0.6194 0.6189 0.6184 0.6179 0.6174
3117.708471 0.6164 0.6139 0.6114 0.6088 0.6069
3121.686079 0.6067 0.6064 0.6062 0.6059 0.6057
3125.663688 0.6054 0.6052 0.6049 0.6047 0.6044
3129.641297 0.6042 0.6035 0.6023 0.6010 0.5997
3133.618906 0.5982 0.5965 0.5947 0.5929 0.5915
3137.596515 0.5905 0.5895 0.5885 0.5875 0.5865
3141.574124 0.5855 0.5845 0.5839 0.5836 0.5834
3145.551732 0.5831 0.5827 0.5822 0.5817 0.5812
3149.529341 0.5808 0.5806 0.5803 0.5801 0.5795
3153.506950 0.5787 0.5780 0.5772 0.5757 0.5739
3157.484559 0.5722 0.5704 0.5692 0.5682 0.5672
3161.462168 0.5662 0.5654 0.5646 0.5639 0.5631
3165.439776 0.5617 0.5602 0.5587 0.5572 0.5568
3169.417385 0.5565 0.5563 0.5560 0.5551 0.5540
3173.394994 0.5530 0.5520 0.5518 0.5515 0.5513
3177.372603 0.5510 0.5510 0.5510 0.5510 0.5510
3181.350212 0.5510 0.5510 0.5510 0.5510 0.5513
3185.327821 0.5515 0.5518 0.5520 0.5523 0.5525
3189.305429 0.5528 0.5531 0.5533 0.5536 0.5538
3193.283038 0.5541 0.5546 0.5551 0.5556 0.5561
3197.260647 0.5566 0.5572 0.5577 0.5581 0.5583
3201.238256 0.5586 0.5588 0.5591 0.5593 0.5596
3205.215865 0.5598 0.5600 0.5600 0.5600 0.5600
3209.193474 0.5600 0.5600 0.5600 0.5600 0.5603
3213.171082 0.5608 0.5613 0.5618 0.5621 0.5624
3217.148691 0.5626 0.5629 0.5632 0.5634 0.5637
3221.126300 0.5639 0.5648 0.5661 0.5673 0.5686
3225.103909 0.5697 0.5707 0.5717 0.5727 0.5737
3229.081518 0.5747 0.5757 0.5767 0.5772 0.5774
3233.059126 0.5777 0.5779 0.5786 0.5794 0.5801
3237.036735 0.5809 0.5816 0.5824 0.5831 0.5839
3241.014344 0.5849 0.5859 0.5869 0.5879 0.5885
3244.991953 0.5890 0.5895 0.5900 0.5920 0.5940
3248.969562 0.5960 0.5980 0.5988 0.5995 0.6003
3252.947171 0.6011 0.6021 0.6031 0.6041 0.6050
3256.924779 0.6053 0.6055 0.6058 0.6059 0.6054
3260.902388 0.6049 0.6044 0.6039 0.6034 0.6029
3264.879997 0.6024 0.6019 0.6017 0.6014 0.6012
3268.857606 0.6009 0.6004 0.5999 0.5994 0.5990
3272.835215 0.5990 0.5990 0.5990 0.5991 0.5993
3276.812824 0.5996 0.5999 0.6001 0.6004 0.6006
3280.790432 0.6009 0.6010 0.6010 0.6010 0.6010
3284.768041 0.6010 0.6010 0.6010 0.6010 0.6014
3288.745650 0.6022 0.6029 0.6037 0.6043 0.6048
3292.723259 0.6053 0.6058 0.6062 0.6064 0.6067
3296.700868 0.6069 0.6072 0.6074 0.6077 0.6079
3300.678476 0.6078 0.6076 0.6073 0.6071 0.6066
3304.656085 0.6061 0.6056 0.6051 0.6048 0.6045
3308.633694 0.6043 0.6040 0.6027 0.6012 0.5997
3312.611303 0.5982 0.5967 0.5951 0.5936 0.5921
3316.588912 0.5915 0.5910 0.5905 0.5900 0.5895
3320.566521 0.5890 0.5885 0.5880 0.5880 0.5880
3324.544129 0.5880 0.5880 0.5877 0.5875 0.5872
3328.521738 0.5870 0.5867 0.5865 0.5862 0.5860
3332.499347 0.5860 0.5860 0.5860 0.5860 0.5863
3336.476956 0.5866 0.5868 0.5871 0.5873 0.5876
3340.454565 0.5878 0.5880 0.5880 0.5880 0.5880
3344.432174 0.5881 0.5883 0.5886 0.5888 0.5890
3348.409782 0.5890 0.5890 0.5890 0.5889 0.5886
3352.387391 0.5884 0.5881 0.5879 0.5876 0.5874
3356.365000 0.5871 0.5866 0.5859 0.5851 0.5844
3360.342609 0.5839 0.5836 0.5834 0.5831 0.5829
3364.320218 0.5826 0.5824 0.5821 0.5820 0.5820
3368.297826 0.5820 0.5820 0.5822 0.5824 0.5827
3372.275435 0.5829 0.5834 0.5839 0.5844 0.5849
3376.253044 0.5852 0.5854 0.5857 0.5859 0.5864
3380.230653 0.5869 0.5874 0.5879 0.5882 0.5885
3384.208262 0.5887 0.5890 0.5890 0.5890 0.5890
3388.185871 0.5890 0.5892 0.5895 0.5897 0.5900
3392.163479 0.5905 0.5910 0.5915 0.5920 0.5920
3396.141088 0.5920 0.5920 0.5920 0.5923 0.5925
3400.118697 0.5928 0.5930 0.5933 0.5935 0.5938
3404.096306 0.5941 0.5949 0.5956 0.5964 0.5971
3408.073915 0.5976 0.5981 0.5986 0.5994 0.6014
3412.051524 0.6035 0.6055 0.6074 0.6092 0.6110
3416.029132 0.6127 0.6145 0.6163 0.6180 0.6198
3420.006741 0.6212 0.6220 0.6228 0.6235 0.6243
3423.984350 0.6250 0.6258 0.6265 0.6272 0.6277
3427.961959 0.6282 0.6287 0.6290 0.6290 0.6290
3431.939568 0.6290 0.6290 0.6290 0.6290 0.6290
3435.917176 0.6291 0.6294 0.6296 0.6299 0.6300
3439.894785 0.6300 0.6300 0.6300 0.6302 0.6304
3443.872394 0.6307 0.6309 0.6310 0.6310 0.6310
3447.850003 0.6310 0.6315 0.6323 0.6331 0.6338
3451.827612 0.6350 0.6362 0.6375 0.6387 0.6398
3455.805221 0.6408 0.6418 0.6428 0.6434 0.6439
3459.782829 0.6444 0.6449 0.6454 0.6460 0.6465
3463.760438 0.6470 0.6470 0.6470 0.6470 0.6470
3467.738047 0.6470 0.6470 0.6470 0.6470 0.6473
3471.715656 0.6475 0.6478 0.6481 0.6496 0.6511
3475.693265 0.6526 0.6541 0.6554 0.6567 0.6579
3479.670874 0.6591 0.6596 0.6601 0.6606 0.6613
3483.648482 0.6628 0.6643 0.6658 0.6671 0.6673
3487.626091 0.6676 0.6678 0.6680 0.6680 0.6680
3491.603700 0.6680 0.6682 0.6687 0.6692 0.6697
3495.581309 0.6703 0.6710 0.6718 0.6726 0.6735
3499.558918 0.6748 0.6761 0.6773 0.6783 0.6791
3503.536526 0.6799 0.6806 0.6813 0.6818 0.6823
3507.514135 0.6828 0.6833 0.6838 0.6843 0.6848
3511.491744 0.6853 0.6858 0.6863 0.6868 0.6870
3515.469353 0.6870 0.6870 0.6870 0.6872 0.6874
3519.446962 0.6877 0.6879 0.6882 0.6884 0.6887
3523.424571 0.6889 0.6894 0.6899 0.6904 0.6909
3527.402179 0.6916 0.6924 0.6931 0.6939 0.6946
3531.379788 0.6954 0.6962 0.6969 0.6972 0.6975
3535.357397 0.6977 0.6980 0.6980 0.6980 0.6980
3539.335006 0.6980 0.6982 0.6985 0.6987 0.6990
3543.312615 0.6998 0.7005 0.7013 0.7020 0.7028
3547.290224 0.7035 0.7043 0.7050 0.7055 0.7060
3551.267832 0.7066 0.7070 0.7070 0.7070 0.7070
3555.245441 0.7070 0.7070 0.7070 0.7070 0.7071
3559.223050 0.7076 0.7081 0.7086 0.7097 0.7122
3563.200659 0.7148 0.7173 0.7192 0.7200 0.7208
3567.178268 0.7215 0.7220 0.7220 0.7220 0.7220
3571.155876 0.7221 0.7224 0.7226 0.7229 0.7230
3575.133485 0.7230 0.7230 0.7230 0.7230 0.7230
3579.111094 0.7230 0.7230 0.7233 0.7238 0.7243
3583.088703 0.7248 0.7250 0.7250 0.7250 0.7250
3587.066312 0.7253 0.7258 0.7263 0.7268 0.7270
3591.043921 0.7270 0.7270 0.7270 0.7272 0.7274
3595.021529 0.7277 0.7279 0.7280 0.7280 0.7280
3598.999138 0.7280 0.7282 0.7285 0.7287 0.7290
3602.976747 0.7290 0.7290 0.7290 0.7290 0.7299
3606.954356 0.7309 0.7319 0.7329 0.7332 0.7335
3610.931965 0.7337 0.7340 0.7347 0.7355 0.7362
3614.909574 0.7370 0.7372 0.7375 0.7378 0.7380
3618.887182 0.7383 0.7385 0.7388 0.7390 0.7390
3622.864791 0.7390 0.7390 0.7390 0.7393 0.7395
3626.842400 0.7398 0.7400 0.7403 0.7405 0.7408
3630.820009 0.7411 0.7413 0.7416 0.7418 0.7421
3634.797618 0.7423 0.7426 0.7428 0.7431 0.7433
3638.775226 0.7436 0.7438 0.7441 0.7443 0.7446
3642.752835 0.7448 0.7452 0.7457 0.7462 0.7467
3646.730444 0.7470 0.7470 0.7470 0.7470 0.7470
3650.708053 0.7470 0.7470 0.7470 0.7466 0.7458
3654.685662 0.7451 0.7443 0.7439 0.7436 0.7434
3658.663271 0.7431 0.7428 0.7426 0.7423 0.7421
3662.640879 0.7415 0.7408 0.7400 0.7392 0.7390
3666.618488 0.7390 0.7390 0.7390 0.7386 0.7381
3670.596097 0.7376 0.7371 0.7368 0.7366 0.7363
3674.573706 0.7361 0.7360 0.7360 0.7360 0.7360
3678.551315 0.7360 0.7360 0.7360 0.7360 0.7362
3682.528924 0.7365 0.7367 0.7370 0.7372 0.7375
3686.506532 0.7377 0.7380 0.7380 0.7380 0.7380
3690.484141 0.7380 0.7383 0.7385 0.7388 0.7390
3694.461750 0.7395 0.7400 0.7406 0.7411 0.7416
3698.439359 0.7421 0.7426 0.7430 0.7430 0.7430
3702.416968 0.7430 0.7427 0.7412 0.7397 0.7382
3706.394576 0.7370 0.7370 0.7370 0.7370 0.7371
3710.372185 0.7373 0.7376 0.7378 0.7381 0.7383
3714.349794 0.7386 0.7388 0.7390 0.7390 0.7390
3718.327403 0.7390 0.7392 0.7397 0.7402 0.7407
3722.305012 0.7410 0.7410 0.7410 0.7410 0.7411
3726.282621 0.7414 0.7416 0.7419 0.7421 0.7424
3730.260229 0.7426 0.7429 0.7431 0.7434 0.7437
3734.237838 0.7439 0.7442 0.7444 0.7447 0.7449
3738.215447 0.7450 0.7450 0.7450 0.7450 0.7443
3742.193056 0.7433 0.7423 0.7413 0.7406 0.7401
3746.170665 0.7396 0.7391 0.7384 0.7376 0.7369
3750.148274 0.7361 0.7358 0.7355 0.7353 0.7350
3754.125882 0.7352 0.7355 0.7357 0.7360 0.7360
3758.103491 0.7360 0.7360 0.7360 0.7360 0.7360
3762.081100 0.7360 0.7360 0.7363 0.7365 0.7368
3766.058709 0.7370 0.7375 0.7380 0.7385 0.7390
3770.036318 0.7393 0.7395 0.7398 0.7400 0.7403
3774.013926 0.7405 0.7408 0.7409 0.7404 0.7399
3777.991535 0.7394 0.7389 0.7387 0.7384 0.7382
3781.969144 0.7379 0.7374 0.7368 0.7363 0.7361
3785.946753 0.7363 0.7366 0.7368 0.7371 0.7373
3789.924362 0.7376 0.7378 0.7380 0.7380 0.7380
3793.901971 0.7380 0.7378 0.7373 0.7368 0.7363
3797.879579 0.7359 0.7356 0.7354 0.7351 0.7345
3801.857188 0.7335 0.7325 0.7315 0.7306 0.7298
3805.834797 0.7291 0.7283 0.7278 0.7276 0.7273
3809.812406 0.7271 0.7272 0.7274 0.7277 0.7279
3813.790015 0.7280 0.7280 0.7280 0.7280 0.7282
3817.767624 0.7284 0.7287 0.7289 0.7290 0.7290
3821.745232 0.7290 0.7290 0.7288 0.7285 0.7283
3825.722841 0.7280 0.7280 0.7280 0.7280 0.7280
3829.700450 0.7280 0.7280 0.7280 0.7280 0.7278
3833.678059 0.7275 0.7273 0.7270 0.7270 0.7270
3837.655668 0.7270 0.7270 0.7267 0.7265 0.7262
3841.633276 0.7260 0.7260 0.7260 0.7260 0.7260
3845.610885 0.7260 0.7260 0.7260 0.7260 0.7260
3849.588494 0.7260 0.7260 0.7260 0.7260 0.7260
3853.566103 0.7260 0.7260 0.7260 0.7260 0.7260
3857.543712 0.7260 0.7260 0.7260 0.7260 0.7260
3861.521321 0.7260 0.7260 0.7260 0.7259 0.7257
3865.498929 0.7254 0.7251 0.7251 0.7254 0.7256
3869.476538 0.7259 0.7261 0.7264 0.7266 0.7269
3873.454147 0.7270 0.7270 0.7270 0.7270 0.7271
3877.431756 0.7274 0.7276 0.7279 0.7282 0.7284
3881.409365 0.7287 0.7289 0.7292 0.7294 0.7297
3885.386974 0.7299 0.7300 0.7300 0.7300 0.7300
3889.364582 0.7300 0.7300 0.7300 0.7300 0.7302
3893.342191 0.7304 0.7307 0.7310 0.7310 0.7310
3897.319800 0.7310 0.7310 0.7306 0.7301 0.7296
3901.297409 0.7291 0.7288 0.7285 0.7283 0.7280
3905.275018 0.7278 0.7275 0.7273 0.7270 0.7270
3909.252626 0.7270 0.7270 0.7270 0.7270 0.7270
3913.230235 0.7270 0.7270 0.7270 0.7270 0.7270
3917.207844 0.7270 0.7270 0.7270 0.7270 0.7270
3921.185453 0.7270 0.7270 0.7270 0.7270 0.7273
3925.163062 0.7276 0.7278 0.7279 0.7277 0.7274
3929.140671 0.7272 0.7270 0.7270 0.7270 0.7270
3933.118279 0.7270 0.7270 0.7270 0.7270 0.7270
3937.095888 0.7270 0.7270 0.7270 0.7269 0.7266
3941.073497 0.7264 0.7261 0.7260 0.7260 0.7260
3945.051106 0.7260 0.7257 0.7252 0.7247 0.7242
3949.028715 0.7239 0.7236 0.7234 0.7231 0.7230
3953.006324 0.7230 0.7230 0.7230 0.7233 0.7238
3956.983932 0.7243 0.7248 0.7250 0.7250 0.7250
3960.961541 0.7250 0.7254 0.7259 0.7264 0.7269
3964.939150 0.7270 0.7270 0.7270 0.7270 0.7272
3968.916759 0.7275 0.7277 0.7280 0.7280 0.7280
3972.894368 0.7280 0.7280 0.7278 0.7275 0.7273
3976.871976 0.7270 0.7268 0.7265 0.7263 0.7260
3980.849585 0.7258 0.7255 0.7253 0.7250 0.7247
3984.827194 0.7245 0.7242 0.7240 0.7237 0.7235
3988.804803 0.7232 0.7230 0.7227 0.7225 0.7222
3992.782412 0.7220 0.7223 0.7225 0.7228 0.7230
3996.760021 0.7230 0.7230 0.7230 0.7231 0.7233
4000.737629 0.7236 0.7238 0.7240 0.7240 0.7240
4004.715238 0.7240 0.7240 0.7240 0.7240 0.7240
4008.692847 0.7239 0.7237 0.7234 0.7232 0.7230
4012.670456 0.7230 0.7230 0.7230 0.7230 0.7230
4016.648065 0.7230 0.7230 0.7228 0.7223 0.7217
4020.625674 0.7212 0.7209 0.7206 0.7204 0.7201
4024.603282 0.7199 0.7196 0.7194 0.7191 0.7188
4028.580891 0.7186 0.7183 0.7181 0.7180 0.7180
4032.558500 0.7180 0.7180 0.7180 0.7180 0.7180
4036.536109 0.7180 0.7178 0.7176 0.7173 0.7171
4040.513718 0.7170 0.7170 0.7170 0.7170 0.7172
4044.491326 0.7175 0.7177 0.7180 0.7184 0.7189
4048.468935 0.7194 0.7200 0.7202 0.7205 0.7207
4052.446544 0.7210 0.7210 0.7210 0.7210 0.7210
4056.424153 0.7203 0.7195 0.7187 0.7180 0.7180
4060.401762 0.7180 0.7180 0.7179 0.7174 0.7169
4064.379371 0.7164 0.7161 0.7166 0.7171 0.7176
4068.356979 0.7180 0.7180 0.7180 0.7180 0.7181
4072.334588 0.7183 0.7186 0.7188 0.7191 0.7193
4076.312197 0.7196 0.7198 0.7200 0.7200 0.7200
4080.289806 0.7200 0.7203 0.7210 0.7218 0.7225
4084.267415 0.7230 0.7230 0.7230 0.7230 0.7227
4088.245024 0.7219 0.7212 0.7204 0.7199 0.7196
4092.222632 0.7194 0.7191 0.7189 0.7186 0.7184
4096.200241 0.7181 0.7180 0.7180 0.7180 0.7180
4100.177850 0.7180 0.7180 0.7180 0.7180 0.7180
4104.155459 0.7180 0.7180 0.7180 0.7183 0.7189
4108.133068 0.7194 0.7199 0.7202 0.7204 0.7207
4112.110676 0.7209 0.7212 0.7214 0.7217 0.7220
4116.088285 0.7220 0.7220 0.7220 0.7220 0.7218
4120.065894 0.7215 0.7213 0.7210 0.7208 0.7205
4124.043503 0.7203 0.7200 0.7200 0.7200 0.7200
4128.021112 0.7200 0.7195 0.7190 0.7185 0.7180
4131.998721 0.7172 0.7165 0.7157 0.7150 0.7145
4135.976329 0.7140 0.7134 0.7130 0.7130 0.7130
4139.953938 0.7130 0.7130 0.7127 0.7125 0.7122
4143.931547 0.7120 0.7120 0.7120 0.7120 0.7119
4147.909156 0.7117 0.7114 0.7112 0.7110 0.7110
4151.886765 0.7110 0.7110 0.7110 0.7110 0.7110
4155.864374 0.7110 0.7110 0.7110 0.7110 0.7110
4159.841982 0.7110 0.7110 0.7110 0.7110 0.7111
4163.819591 0.7114 0.7116 0.7119 0.7121 0.7124
4167.797200 0.7126 0.7129 0.7130 0.7130 0.7130
4171.774809 0.7130 0.7130 0.7130 0.7130 0.7130
4175.752418 0.7132 0.7134 0.7137 0.7139 0.7140
4179.730026 0.7140 0.7140 0.7140 0.7138 0.7136
4183.707635 0.7133 0.7131 0.7128 0.7126 0.7123
4187.685244 0.7120 0.7116 0.7111 0.7106 0.7101
4191.662853 0.7098 0.7095 0.7093 0.7090 0.7090
4195.640462 0.7090 0.7090 0.7090 0.7090 0.7090
4199.618071 0.7090 0.7090 0.7088 0.7085 0.7082
4203.595679 0.7080 0.7083 0.7085 0.7088 0.7090
4207.573288 0.7093 0.7095 0.7098 0.7100 0.7103
4211.550897 0.7105 0.7108 0.7111 0.7116 0.7121
4215.528506 0.7126 0.7130 0.7130 0.7130 0.7130
4219.506115 0.7129 0.7124 0.7119 0.7114 0.7109
4223.483724 0.7104 0.7098 0.7093 0.7088 0.7083
4227.461332 0.7078 0.7073 0.7068 0.7063 0.7058
4231.438941 0.7053 0.7049 0.7046 0.7044 0.7041
4235.416550 0.7039 0.7036 0.7034 0.7031 0.7029
4239.394159 0.7026 0.7024 0.7021 0.7021 0.7024
4243.371768 0.7026 0.7029 0.7031 0.7034 0.7036
4247.349376 0.7039 0.7040 0.7040 0.7040 0.7040
4251.326985 0.7042 0.7044 0.7047 0.7049 0.7054
4255.304594 0.7059 0.7064 0.7069 0.7070 0.7070
4259.282203 0.7070 0.7070 0.7070 0.7070 0.7070
4263.259812 0.7070 0.7074 0.7079 0.7084 0.7089
4267.237421 0.7090 0.7090 0.7090 0.7090 0.7088
4271.215029 0.7085 0.7083 0.7080 0.7080 0.7080
4275.192638 0.7080 0.7080 0.7078 0.7075 0.7072
4279.170247 0.7070 0.7070 0.7070 0.7070 0.7070
4283.147856 0.7073 0.7075 0.7078 0.7080 0.7083
4287.125465 0.7085 0.7088 0.7090 0.7090 0.7090
4291.103074 0.7090 0.7090 0.7090 0.7090 0.7090
4295.080682 0.7090 0.7090 0.7090 0.7090 0.7090
4299.058291 0.7090 0.7090 0.7090 0.7089 0.7087
4303.035900 0.7084 0.7082 0.7080 0.7080 0.7080
4307.013509 0.7080 0.7079 0.7076 0.7074 0.7071
4310.991118 0.7068 0.7063 0.7057 0.7052 0.7049
4314.968726 0.7046 0.7044 0.7041 0.7037 0.7032
4318.946335 0.7027 0.7022 0.7017 0.7012 0.7007
4322.923944 0.7002 0.7000 0.7000 0.7000 0.7000
4326.901553 0.7000 0.7000 0.7000 0.7000 0.7002
4330.879162 0.7004 0.7007 0.7009 0.7010 0.7010
4334.856771 0.7010 0.7010 0.7012 0.7015 0.7017
4338.834379 0.7020 0.7020 0.7020 0.7020 0.7020
4342.811988 0.7020 0.7020 0.7020 0.7020 0.7020
4346.789597 0.7020 0.7020 0.7020 0.7020 0.7020
4350.767206 0.7020 0.7020 0.7020 0.7020 0.7020
4354.744815 0.7020 0.7025 0.7031 0.7036 0.7040
4358.722424 0.7040 0.7040 0.7040 0.7040 0.7043
4362.700032 0.7045 0.7048 0.7050 0.7050 0.7050
4366.677641 0.7050 0.7050 0.7050 0.7050 0.7050
4370.655250 0.7049 0.7047 0.7044 0.7042 0.7040
4374.632859 0.7040 0.7040 0.7040 0.7040 0.7040
4378.610468 0.7040 0.7040 0.7040 0.7040 0.7040
4382.588076 0.7040 0.7038 0.7033 0.7028 0.7022
4386.565685 0.7019 0.7016 0.7014 0.7011 0.7009
4390.543294 0.7006 0.7004 0.7001 0.6997 0.6992
4394.520903 0.6987 0.6982 0.6978 0.6976 0.6973
4398.498512 0.6971 0.6972 0.6974 0.6977 0.6979
4402.476121 0.6984 0.6989 0.6994 0.6999 0.7004
4406.453729 0.7009 0.7014 0.7019 0.7020 0.7020
4410.431338 0.7020 0.7020 0.7020 0.7020 0.7020
4414.408947 0.7020 0.7020 0.7020 0.7020 0.7020
4418.386556 0.7020 0.7020 0.7020 0.7020 0.7020
4422.364165 0.7020 0.7020 0.7020 0.7020 0.7020
4426.341774 0.7020 0.7020 0.7020 0.7020 0.7020
4430.319382 0.7020 0.7020 0.7020 0.7020 0.7020
4434.296991 0.7020 0.7020 0.7020 0.7020 0.7020
4438.274600 0.7020 0.7020 0.7019 0.7017 0.7014
4442.252209 0.7012 0.7009 0.7007 0.7004 0.7002
4446.229818 0.6997 0.6990 0.6982 0.6975 0.6970
4450.207426 0.6970 0.6970 0.6970 0.6969 0.6966
4454.185035 0.6964 0.6961 0.6960 0.6960 0.6960
4458.162644 0.6960 0.6960 0.6960 0.6960 0.6960
4462.140253 0.6961 0.6964 0.6966 0.6969 0.6970
4466.117862 0.6970 0.6970 0.6970 0.6970 0.6970
4470.095471 0.6970 0.6970 0.6972 0.6974 0.6977
4474.073079 0.6979 0.6980 0.6980 0.6980 0.6980
4478.050688 0.6980 0.6980 0.6980 0.6980 0.6982
4482.028297 0.6985 0.6987 0.6990 0.6992 0.6995
4486.005906 0.6997 0.7000 0.7000 0.7000 0.7000
4489.983515 0.7000 0.7002 0.7005 0.7007 0.7010
4493.961124 0.7012 0.7015 0.7017 0.7020 0.7020
4497.938732 0.7020 0.7020 0.7020 0.7017 0.7015
4501.916341 0.7012 0.7010 0.7007 0.7005 0.7002
4505.893950 0.7000 0.6997 0.6995 0.6992 0.6989
4509.871559 0.6984 0.6979 0.6974 0.6969 0.6967
4513.849168 0.6964 0.6962 0.6959 0.6954 0.6949
4517.826776 0.6944 0.6939 0.6937 0.6934 0.6932
4521.804385 0.6929 0.6927 0.6924 0.6922 0.6919
4525.781994 0.6917 0.6914 0.6911 0.6911 0.6914
4529.759603 0.6916 0.6919 0.6920 0.6920 0.6920
4533.737212 0.6920 0.6921 0.6924 0.6926 0.6929
4537.714821 0.6930 0.6930 0.6930 0.6930 0.6930
4541.692429 0.6930 0.6930 0.6930 0.6930 0.6930
4545.670038 0.6930 0.6930 0.6932 0.6934 0.6937
4549.647647 0.6939 0.6940 0.6940 0.6940 0.6940
4553.625256 0.6942 0.6944 0.6947 0.6950 0.6950
4557.602865 0.6950 0.6950 0.6950 0.6950 0.6950
4561.580474 0.6950 0.6950 0.6950 0.6950 0.6950
4565.558082 0.6950 0.6950 0.6950 0.6950 0.6950
4569.535691 0.6950 0.6950 0.6950 0.6950 0.6947
4573.513300 0.6945 0.6942 0.6940 0.6937 0.6935
4577.490909 0.6932 0.6930 0.6927 0.6925 0.6922
4581.468518 0.6921 0.6926 0.6931 0.6936 0.6941
4585.446126 0.6943 0.6946 0.6948 0.6950 0.6950
4589.423735 0.6950 0.6950 0.6950 0.6950 0.6950
4593.401344 0.6950 0.6952 0.6957 0.6962 0.6967
4597.378953 0.6970 0.6970 0.6970 0.6970 0.6970
4601.356562 0.6970 0.6970 0.6970 0.6970 0.6970
4605.334171 0.6970 0.6970 0.6967 0.6962 0.6957
4609.311779 0.6952 0.6950 0.6950 0.6950 0.6950
4613.289388 0.6946 0.6938 0.6930 0.6923 0.6915
4617.266997 0.6908 0.6900 0.6893 0.6887 0.6882
4621.244606 0.6877 0.6871 0.6868 0.6866 0.6863
4625.222215 0.6861 0.6860 0.6860 0.6860 0.6860
4629.199824 0.6860 0.6860 0.6860 0.6860 0.6860
4633.177432 0.6860 0.6860 0.6860 0.6862 0.6865
4637.155041 0.6867 0.6870 0.6870 0.6870 0.6870
4641.132650 0.6870 0.6870 0.6870 0.6870 0.6870
4645.110259 0.6870 0.6870 0.6870 0.6870 0.6870
4649.087868 0.6870 0.6870 0.6870 0.6870 0.6870
4653.065476 0.6870 0.6870 0.6867 0.6865 0.6862
4657.043085 0.6860 0.6860 0.6860 0.6860 0.6860
4661.020694 0.6860 0.6860 0.6860 0.6859 0.6857
4664.998303 0.6854 0.6852 0.6850 0.6850 0.6850
4668.975912 0.6850 0.6851 0.6853 0.6856 0.6859
4672.953521 0.6860 0.6860 0.6860 0.6860 0.6862
4676.931129 0.6867 0.6872 0.6877 0.6881 0.6884
4680.908738 0.6886 0.6889 0.6893 0.6898 0.6903
4684.886347 0.6908 0.6911 0.6914 0.6916 0.6919
4688.863956 0.6925 0.6932 0.6940 0.6948 0.6945
4692.841565 0.6937 0.6930 0.6922 0.6915 0.6907
4696.819174 0.6899 0.6892 0.6886 0.6881 0.6876
4700.796782 0.6871 0.6870 0.6870 0.6870 0.6870
4704.774391 0.6868 0.6865 0.6863 0.6860 0.6860
4708.752000 0.6860 0.6860 0.6860 0.6860 0.6860
4712.729609 0.6860 0.6860 0.6860 0.6860 0.6860
4716.707218 0.6860 0.6863 0.6865 0.6868 0.6870
4720.684826 0.6873 0.6875 0.6878 0.6880 0.6880
4724.662435 0.6880 0.6880 0.6880 0.6880 0.6880
4728.640044 0.6880 0.6880 0.6880 0.6880 0.6880
4732.617653 0.6879 0.6877 0.6874 0.6872 0.6870
4736.595262 0.6870 0.6870 0.6870 0.6869 0.6867
4740.572871 0.6864 0.6862 0.6858 0.6853 0.6848
4744.550479 0.6843 0.6840 0.6840 0.6840 0.6840
4748.528088 0.6840 0.6840 0.6840 0.6840 0.6840
4752.505697 0.6840 0.6840 0.6840 0.6839 0.6836
4756.483306 0.6834 0.6831 0.6830 0.6830 0.6830
4760.460915 0.6830 0.6828 0.6826 0.6823 0.6821
4764.438524 0.6818 0.6816 0.6813 0.6811 0.6810
4768.416132 0.6810 0.6810 0.6810 0.6810 0.6810
4772.393741 0.6810 0.6810 0.6810 0.6810 0.6810
4776.371350 0.6810 0.6810 0.6810 0.6810 0.6810
4780.348959 0.6810 0.6810 0.6810 0.6810 0.6810
4784.326568 0.6810 0.6810 0.6810 0.6812 0.6815
4788.304176 0.6818 0.6820 0.6820 0.6820 0.6820
4792.281785 0.6820 0.6820 0.6820 0.6820 0.6820
4796.259394 0.6823 0.6825 0.6828 0.6830 0.6833
4800.237003 0.6835 0.6838 0.6840 0.6840 0.6840
4804.214612 0.6840 0.6839 0.6837 0.6834 0.6832
4808.192221 0.6829 0.6824 0.6819 0.6814 0.6809
4812.169829 0.6804 0.6798 0.6793 0.6790 0.6790
4816.147438 0.6790 0.6790 0.6790 0.6790 0.6790
4820.125047 0.6790 0.6790 0.6790 0.6790 0.6790
4824.102656 0.6790 0.6790 0.6790 0.6790 0.6790
4828.080265 0.6790 0.6790 0.6790 0.6789 0.6786
4832.057874 0.6784 0.6781 0.6780 0.6780 0.6780
4836.035482 0.6780 0.6778 0.6776 0.6773 0.6771
4840.013091 0.6772 0.6774 0.6777 0.6779 0.6780
4843.990700 0.6780 0.6780 0.6780 0.6782 0.6784
4847.968309 0.6787 0.6790 0.6790 0.6790 0.6790
4851.945918 0.6790 0.6790 0.6790 0.6790 0.6790
4855.923526 0.6790 0.6790 0.6790 0.6790 0.6790
4859.901135 0.6790 0.6790 0.6790 0.6792 0.6795
4863.878744 0.6798 0.6800 0.6800 0.6800 0.6800
4867.856353 0.6800 0.6800 0.6800 0.6800 0.6800
4871.833962 0.6800 0.6800 0.6800 0.6800 0.6803
4875.811571 0.6805 0.6808 0.6810 0.6810 0.6810
4879.789179 0.6810 0.6810 0.6810 0.6810 0.6810
4883.766788 0.6809 0.6807 0.6804 0.6802 0.6800
4887.744397 0.6800 0.6800 0.6800 0.6799 0.6797
4891.722006 0.6794 0.6791 0.6790 0.6790 0.6790
4895.699615 0.6790 0.6790 0.6790 0.6790 0.6790
4899.677224 0.6788 0.6782 0.6777 0.6772 0.6770
4903.654832 0.6770 0.6770 0.6770 0.6770 0.6770
4907.632441 0.6770 0.6770 0.6770 0.6770 0.6770
4911.610050 0.6770 0.6770 0.6770 0.6770 0.6770
4915.587659 0.6774 0.6779 0.6784 0.6789 0.6792
4919.565268 0.6794 0.6797 0.6800 0.6800 0.6800
4923.542876 0.6800 0.6800 0.6798 0.6795 0.6793
4927.520485 0.6790 0.6790 0.6790 0.6790 0.6790
4931.498094 0.6788 0.6785 0.6783 0.6780 0.6780
4935.475703 0.6780 0.6780 0.6780 0.6777 0.6775
4939.453312 0.6772 0.6770 0.6770 0.6770 0.6770
4943.430921 0.6770 0.6770 0.6770 0.6770 0.6770
4947.408529 0.6767 0.6765 0.6762 0.6760 0.6757
4951.386138 0.6754 0.6752 0.6750 0.6750 0.6750
4955.363747 0.6750 0.6750 0.6750 0.6750 0.6750
4959.341356 0.6751 0.6753 0.6756 0.6758 0.6759
4963.318965 0.6757 0.6754 0.6752 0.6750 0.6750
4967.296574 0.6750 0.6750 0.6750 0.6750 0.6750
4971.274182 0.6750
##END=
