##TITLE=PHOSPHORIC ACID, DI-HEXADECYL ESTER, ALUMINUM SALT
##JCAMP-DX=4.24
##DATA TYPE=INFRARED SPECTRUM
##CLASS=COBLENTZ III
##ORIGIN=DOW CHEMICAL COMPANY
##OWNER=COBLENTZ SOCIETY
Collection (C) 2018 copyright by the U.S. Secretary of Commerce
on behalf of the United States of America. All rights reserved.
##DATE=1965/04/23
##MOLFORM=C96 H198 Al O12 P3
##SOURCE REFERENCE=COBLENTZ NO. 8077
##$NIST ID=B6008077
##$NIST SOURCE=COBLENTZ
##$NIST IMAGE=cob8077
##SPECTROMETER/DATA SYSTEM=DOW KBr FOREPRISM-GRATING
##INSTRUMENT PARAMETERS=BLAZED AT 3.5, 12.0, 20.0 MICRON AND CHANGED AT 5.0, 7.5, 14.9 MICRON
##STATE=SOLID (SPLIT MULL), FLUOROLUBE FOR 3800-1330 CM^-^1, NUJOL FOR 1330-400 CM^-^1
##SAMPLING PROCEDURE=TRANSMISSION
##RESOLUTION=2
##DATA PROCESSING=DIGITIZED BY NIST FROM HARD COPY (FROM TWO SEGMENTS)
##XUNITS=1/CM
##YUNITS=TRANSMITTANCE
##XFACTOR=1.000000
##YFACTOR=1
##DELTAX=0.884304
##FIRSTX=387.915
##LASTX=3802.21
##FIRSTY=0.74
##MAXX=3802.21
##MINX=387.915
##MAXY=0.993
##MINY=0.146161
##NPOINTS=3862
##XYDATA=(X++(Y..Y))
387.915000 0.7400 0.7420 0.7420 0.7430 0.7430
392.336520 0.7440 0.7460 0.7470 0.7480 0.7510
396.758041 0.7540 0.7570 0.7600 0.7600 0.7620
401.179561 0.7650 0.7690 0.7720 0.7730 0.7760
405.601082 0.7770 0.7770 0.7790 0.7800 0.7820
410.022602 0.7830 0.7860 0.7870 0.7900 0.7910
414.444123 0.7940 0.7950 0.7950 0.7950 0.7950
418.865643 0.7970 0.7970 0.7970 0.7970 0.7970
423.287164 0.7970 0.7970 0.7970 0.7970 0.7970
427.708684 0.7970 0.7970 0.7970 0.7970 0.7970
432.130205 0.7970 0.7950 0.7950 0.7950 0.7950
436.551725 0.7950 0.7950 0.7940 0.7940 0.7930
440.973246 0.7900 0.7860 0.7820 0.7770 0.7730
445.394766 0.7710 0.7690 0.7680 0.7680 0.7690
449.816287 0.7710 0.7730 0.7760 0.7770 0.7770
454.237807 0.7770 0.7770 0.7770 0.7770 0.7770
458.659328 0.7770 0.7730 0.7690 0.7660 0.7620
463.080848 0.7610 0.7580 0.7530 0.7510 0.7500
467.502369 0.7500 0.7480 0.7470 0.7430 0.7390
471.923889 0.7370 0.7360 0.7330 0.7320 0.7290
476.345410 0.7280 0.7260 0.7260 0.7250 0.7240
480.766930 0.7240 0.7240 0.7240 0.7250 0.7260
485.188451 0.7260 0.7290 0.7310 0.7350 0.7390
489.609971 0.7430 0.7470 0.7550 0.7610 0.7640
494.031492 0.7650 0.7660 0.7660 0.7660 0.7660
498.453012 0.7610 0.7570 0.7550 0.7530 0.7510
502.874532 0.7470 0.7440 0.7430 0.7430 0.7420
507.296053 0.7420 0.7420 0.7420 0.7400 0.7390
511.717573 0.7370 0.7330 0.7310 0.7290 0.7280
516.139094 0.7280 0.7280 0.7290 0.7310 0.7330
520.560614 0.7460 0.7620 0.7770 0.7790 0.7870
524.982135 0.7900 0.7950 0.7970 0.7980 0.8010
529.403655 0.8040 0.8120 0.8170 0.8240 0.8240
533.825176 0.8310 0.8330 0.8340 0.8350 0.8370
538.246696 0.8380 0.8400 0.8400 0.8410 0.8410
542.668217 0.8410 0.8400 0.8400 0.8380 0.8380
547.089737 0.8350 0.8340 0.8330 0.8310 0.8300
551.511258 0.8270 0.8230 0.8200 0.8160 0.8130
555.932778 0.8090 0.8060 0.8050 0.8040 0.7980
560.354299 0.7910 0.7830 0.7760 0.7710 0.7610
564.775819 0.7510 0.7310 0.7220 0.7200 0.7200
569.197340 0.7200 0.7210 0.7260 0.7360 0.7400
573.618860 0.7420 0.7440 0.7510 0.7580 0.7620
578.040381 0.7660 0.7690 0.7750 0.7790 0.7820
582.461901 0.7840 0.7870 0.7950 0.7980 0.8050
586.883422 0.8090 0.8150 0.8160 0.8200 0.8220
591.304942 0.8230 0.8230 0.8240 0.8240 0.8260
595.726463 0.8260 0.8260 0.8260 0.8260 0.8270
600.147983 0.8280 0.8280 0.8300 0.8300 0.8310
604.569504 0.8330 0.8330 0.8330 0.8330 0.8330
608.991024 0.8310 0.8280 0.8240 0.8200 0.8150
613.412544 0.8150 0.8150 0.8150 0.8160 0.8160
617.834065 0.8170 0.8170 0.8200 0.8220 0.8240
622.255585 0.8270 0.8270 0.8330 0.8350 0.8509
626.677106 0.8530 0.8560 0.8570 0.8600 0.8630
631.098626 0.8630 0.8640 0.8640 0.8640 0.8660
635.520147 0.8710 0.8740 0.8750 0.8810 0.8890
639.941667 0.8990 0.9060 0.9170 0.9260 0.9290
644.363188 0.9330 0.9390 0.9440 0.9480 0.9510
648.784708 0.9530 0.9580 0.9600 0.9610 0.9610
653.206229 0.9620 0.9620 0.9620 0.9640 0.9640
657.627749 0.9650 0.9650 0.9660 0.9680 0.9680
662.049270 0.9690 0.9690 0.9710 0.9710 0.9710
666.470790 0.9710 0.9720 0.9720 0.9720 0.9720
670.892311 0.9730 0.9730 0.9730 0.9730 0.9730
675.313831 0.9730 0.9730 0.9730 0.9730 0.9730
679.735352 0.9730 0.9730 0.9730 0.9730 0.9720
684.156872 0.9710 0.9710 0.9690 0.9680 0.9660
688.578393 0.9660 0.9650 0.9640 0.9620 0.9620
692.999913 0.9610 0.9580 0.9550 0.9530 0.9500
697.421434 0.9470 0.9460 0.9440 0.9420 0.9390
701.842954 0.9350 0.9330 0.9250 0.9220 0.9170
706.264475 0.9140 0.9040 0.8990 0.8930 0.8850
710.685995 0.8740 0.8590 0.8450 0.8340 0.8171
715.107515 0.8000 0.7650 0.7430 0.7000 0.6521
719.529036 0.6061 0.5711 0.4952 0.4920 0.4930
723.950556 0.5150 0.5420 0.5790 0.5970 0.6309
728.372077 0.6510 0.6779 0.6930 0.7368 0.7768
732.793597 0.7800 0.7870 0.7950 0.7970 0.7970
737.215118 0.7980 0.7980 0.8010 0.8090 0.8239
741.636638 0.8370 0.8490 0.8520 0.8550 0.8600
746.058159 0.8630 0.8660 0.8670 0.8660 0.8670
750.479679 0.8700 0.8710 0.8730 0.8740 0.8750
754.901200 0.8820 0.8850 0.8880 0.8920 0.8930
759.322720 0.8960 0.8970 0.9000 0.9000 0.8990
763.744241 0.8990 0.8970 0.8960 0.8950 0.8920
768.165761 0.8880 0.8860 0.8780 0.8710 0.8700
772.587282 0.8700 0.8740 0.8820 0.8920 0.8950
777.008802 0.9000 0.9060 0.9080 0.9140 0.9170
781.430323 0.9210 0.9240 0.9240 0.9240 0.9240
785.851843 0.9220 0.9220 0.9210 0.9210 0.9210
790.273364 0.9200 0.9170 0.9140 0.9140 0.9060
794.694884 0.9030 0.9000 0.8950 0.8950 0.8950
799.116405 0.8970 0.8970 0.9040 0.9100 0.9110
803.537925 0.9130 0.9140 0.9150 0.9150 0.9180
807.959446 0.9180 0.9200 0.9200 0.9200 0.9200
812.380966 0.9180 0.9180 0.9170 0.9140 0.9140
816.802487 0.9130 0.9070 0.9060 0.9060 0.9030
821.224007 0.8950 0.8930 0.8920 0.8890 0.8860
825.645527 0.8840 0.8810 0.8750 0.8680 0.8660
830.067048 0.8640 0.8640 0.8660 0.8670 0.8670
834.488568 0.8700 0.8710 0.8710 0.8710 0.8710
838.910089 0.8700 0.8670 0.8630 0.8590 0.8570
843.331609 0.8570 0.8550 0.8550 0.8520 0.8460
847.753130 0.8410 0.8350 0.8330 0.8300 0.8240
852.174650 0.8200 0.8190 0.8170 0.8160 0.8130
856.596171 0.8110 0.8080 0.8080 0.8080 0.8060
861.017691 0.8060 0.8060 0.8080 0.8080 0.8090
865.439212 0.8110 0.8120 0.8160 0.8230 0.8260
869.860732 0.8310 0.8340 0.8370 0.8410 0.8420
874.282253 0.8420 0.8440 0.8440 0.8440 0.8440
878.703773 0.8440 0.8440 0.8440 0.8440 0.8420
883.125294 0.8410 0.8400 0.8350 0.8340 0.8330
887.546814 0.8310 0.8310 0.8310 0.8330 0.8340
891.968335 0.8370 0.8380 0.8380 0.8380 0.8380
896.389855 0.8370 0.8350 0.8340 0.8330 0.8310
900.811376 0.8310 0.8310 0.8310 0.8330 0.8340
905.232896 0.8340 0.8350 0.8350 0.8370 0.8370
909.654417 0.8350 0.8340 0.8330 0.8310 0.8280
914.075937 0.8230 0.8200 0.8160 0.8130 0.8080
918.497458 0.8050 0.8010 0.7980 0.7940 0.7840
922.918978 0.7750 0.7690 0.7600 0.7480 0.7400
927.340499 0.7280 0.7210 0.7080 0.6930 0.6770
931.762019 0.6620 0.6460 0.6340 0.6201 0.6051
936.183539 0.5950 0.5760 0.5730 0.5730 0.5750
940.605060 0.5750 0.5770 0.5800 0.5820 0.5870
945.026580 0.5900 0.5930 0.6010 0.6040 0.6110
949.448101 0.6190 0.6270 0.6370 0.6490 0.6570
953.869621 0.6590 0.6620 0.6620 0.6630 0.6630
958.291142 0.6630 0.6630 0.6630 0.6620 0.6570
962.712662 0.6510 0.6460 0.6450 0.6450 0.6450
967.134183 0.6450 0.6460 0.6480 0.6480 0.6490
971.555703 0.6510 0.6510 0.6510 0.6510 0.6490
975.977224 0.6490 0.6480 0.6460 0.6460 0.6440
980.398744 0.6410 0.6380 0.6350 0.6330 0.6190
984.820265 0.6160 0.6060 0.5900 0.5820 0.5790
989.241785 0.5790 0.5770 0.5750 0.5720 0.5690
993.663306 0.5640 0.5570 0.5460 0.5370 0.5260
998.084826 0.5250 0.5260 0.5280 0.5330 0.5350
1002.506347 0.5360 0.5370 0.5360 0.5360 0.5360
1006.927867 0.5350 0.5310 0.5280 0.5240 0.5200
1011.349388 0.5100 0.4970 0.4850 0.4740 0.4571
1015.770908 0.4560 0.4560 0.4560 0.4570 0.4640
1020.192429 0.4780 0.4800 0.4800 0.4800 0.4780
1024.613949 0.4770 0.4740 0.4740 0.4710 0.4700
1029.035470 0.4700 0.4670 0.4630 0.4550 0.4520
1033.456990 0.4490 0.4450 0.4380 0.4370 0.4350
1037.878511 0.4350 0.4350 0.4350 0.4380 0.4440
1042.300031 0.4450 0.4450 0.4460 0.4460 0.4450
1046.721551 0.4440 0.4400 0.4400 0.4340 0.4300
1051.143072 0.4220 0.4130 0.4080 0.4020 0.3980
1055.564592 0.3940 0.3840 0.3800 0.3770 0.3750
1059.986113 0.3710 0.3680 0.3640 0.3610 0.3580
1064.407633 0.3540 0.3500 0.3460 0.3430 0.3400
1068.829154 0.3400 0.3390 0.3370 0.3360 0.3350
1073.250674 0.3330 0.3310 0.3280 0.3240 0.3200
1077.672195 0.3130 0.3000 0.2930 0.2850 0.2770
1082.093715 0.2670 0.2550 0.2520 0.2510 0.2510
1086.515236 0.2510 0.2520 0.2520 0.2530 0.2550
1090.936756 0.2560 0.2640 0.2750 0.2880 0.3000
1095.358277 0.3100 0.3210 0.3290 0.3390 0.3470
1099.779797 0.3540 0.3600 0.3650 0.3660 0.3660
1104.201318 0.3650 0.3640 0.3620 0.3610 0.3600
1108.622838 0.3580 0.3570 0.3570 0.3550 0.3550
1113.044359 0.3550 0.3550 0.3570 0.3600 0.3600
1117.465879 0.3600 0.3600 0.3600 0.3580 0.3570
1121.887400 0.3540 0.3530 0.3510 0.3470 0.3460
1126.308920 0.3400 0.3360 0.3350 0.3310 0.3210
1130.730441 0.3020 0.3000 0.2960 0.2910 0.2840
1135.151961 0.2770 0.2670 0.2590 0.2490 0.2400
1139.573482 0.2310 0.2240 0.2190 0.2150 0.2120
1143.995002 0.2120 0.2110 0.2110 0.2090 0.2090
1148.416522 0.2110 0.2110 0.2110 0.2120 0.2120
1152.838043 0.2120 0.2130 0.2160 0.2170 0.2200
1157.259563 0.2220 0.2280 0.2410 0.2420 0.2490
1161.681084 0.2550 0.2620 0.2670 0.2770 0.2909
1166.102604 0.2990 0.3060 0.3060 0.3100 0.3130
1170.524125 0.3150 0.3200 0.3200 0.3210 0.3220
1174.945645 0.3250 0.3260 0.3260 0.3280 0.3280
1179.367166 0.3280 0.3280 0.3280 0.3310 0.3360
1183.788686 0.3390 0.3420 0.3460 0.3470 0.3480
1188.210207 0.3500 0.3510 0.3510 0.3530 0.3530
1192.631727 0.3530 0.3530 0.3530 0.3530 0.3530
1197.053248 0.3540 0.3550 0.3550 0.3570 0.3570
1201.474768 0.3580 0.3580 0.3580 0.3580 0.3570
1205.896289 0.3550 0.3540 0.3530 0.3480 0.3420
1210.317809 0.3330 0.3250 0.3150 0.3080 0.3020
1214.739330 0.2960 0.2960 0.2960 0.2960 0.2960
1219.160850 0.3000 0.3040 0.3140 0.3200 0.3250
1223.582371 0.3290 0.3310 0.3350 0.3390 0.3400
1228.003891 0.3460 0.3460 0.3470 0.3470 0.3470
1232.425412 0.3470 0.3470 0.3460 0.3460 0.3440
1236.846932 0.3400 0.3370 0.3360 0.3370 0.3370
1241.268453 0.3400 0.3420 0.3460 0.3470 0.3510
1245.689973 0.3580 0.3650 0.3750 0.3860 0.3980
1250.111494 0.4130 0.4310 0.4480 0.4630 0.4779
1254.533014 0.4890 0.4960 0.5030 0.5140 0.5250
1258.954534 0.5280 0.5330 0.5460 0.5619 0.5680
1263.376055 0.5760 0.5820 0.5930 0.6020 0.6050
1267.797575 0.6060 0.6120 0.6170 0.6200 0.6220
1272.219096 0.6240 0.6260 0.6270 0.6280 0.6300
1276.640616 0.6300 0.6330 0.6340 0.6370 0.6380
1281.062137 0.6440 0.6490 0.6520 0.6550 0.6550
1285.483657 0.6550 0.6530 0.6520 0.6490 0.6460
1289.905178 0.6450 0.6440 0.6410 0.6400 0.6370
1294.326698 0.6340 0.6340 0.6330 0.6330 0.6310
1298.748219 0.6280 0.6270 0.6240 0.6230 0.6220
1303.169739 0.6200 0.6170 0.6170 0.6160 0.6160
1307.591260 0.6150 0.6120 0.6110 0.6090 0.6080
1312.012780 0.6060 0.6060 0.6060 0.6060 0.6050
1316.434301 0.6060 0.6080 0.6090 0.6120 0.6150
1320.855821 0.6170 0.6220 0.6230 0.6350 0.6460
1325.277342 0.6680 0.6700 0.6700 0.6700 0.6700
1329.698862 0.6700 0.6700 0.6700 0.6700 0.6700
1334.120383 0.6700 0.6700 0.6550 0.6480 0.6440
1338.541903 0.6380 0.6340 0.6310 0.6280 0.6300
1342.963424 0.6310 0.6330 0.6350 0.6350 0.6420
1347.384944 0.6480 0.6530 0.6700 0.6919 0.7099
1351.806465 0.7250 0.7390 0.7510 0.7600 0.7680
1356.227985 0.7750 0.7800 0.7840 0.7870 0.7910
1360.649506 0.7940 0.7980 0.8010 0.8050 0.8060
1365.071026 0.8090 0.8120 0.8120 0.8130 0.8130
1369.492546 0.8130 0.8130 0.8130 0.8110 0.8080
1373.914067 0.8080 0.8080 0.8080 0.8080 0.8080
1378.335587 0.8090 0.8110 0.8120 0.8130 0.8170
1382.757108 0.8200 0.8230 0.8240 0.8330 0.8340
1387.178628 0.8350 0.8400 0.8410 0.8440 0.8450
1391.600149 0.8460 0.8480 0.8480 0.8490 0.8490
1396.021669 0.8510 0.8510 0.8510 0.8510 0.8520
1400.443190 0.8520 0.8520 0.8530 0.8530 0.8530
1404.864710 0.8550 0.8550 0.8560 0.8560 0.8570
1409.286231 0.8590 0.8590 0.8600 0.8600 0.8620
1413.707751 0.8600 0.8600 0.8600 0.8600 0.8600
1418.129272 0.8620 0.8620 0.8620 0.8620 0.8620
1422.550792 0.8620 0.8630 0.8630 0.8630 0.8630
1426.972313 0.8640 0.8640 0.8640 0.8640 0.8660
1431.393833 0.8660 0.8660 0.8660 0.8660 0.8660
1435.815354 0.8670 0.8670 0.8670 0.8670 0.8670
1440.236874 0.8670 0.8670 0.8670 0.8660 0.8660
1444.658395 0.8640 0.8640 0.8640 0.8630 0.8630
1449.079915 0.8620 0.8620 0.8620 0.8570 0.8520
1453.501436 0.8460 0.8440 0.8410 0.8340 0.8310
1457.922956 0.8260 0.8230 0.8200 0.8160 0.8080
1462.344477 0.7950 0.7900 0.7820 0.7690 0.7441
1466.765997 0.7200 0.6970 0.6730 0.6700 0.6710
1471.187518 0.6780 0.7079 0.7369 0.7639 0.7750
1475.609038 0.8190 0.8420 0.8550 0.8640 0.8710
1480.030558 0.8750 0.8880 0.8960 0.9060 0.9110
1484.452079 0.9140 0.9140 0.9150 0.9200 0.9210
1488.873599 0.9240 0.9260 0.9280 0.9290 0.9290
1493.295120 0.9310 0.9320 0.9320 0.9330 0.9330
1497.716640 0.9330 0.9330 0.9330 0.9330 0.9350
1502.138161 0.9350 0.9350 0.9350 0.9350 0.9350
1506.559681 0.9350 0.9350 0.9350 0.9350 0.9360
1510.981202 0.9360 0.9350 0.9360 0.9360 0.9370
1515.402722 0.9370 0.9390 0.9400 0.9400 0.9400
1519.824243 0.9420 0.9420 0.9430 0.9430 0.9440
1524.245763 0.9430 0.9430 0.9430 0.9430 0.9430
1528.667284 0.9430 0.9430 0.9430 0.9430 0.9430
1533.088804 0.9440 0.9430 0.9430 0.9440 0.9430
1537.510325 0.9430 0.9430 0.9430 0.9430 0.9430
1541.931845 0.9430 0.9440 0.9440 0.9460 0.9460
1546.353366 0.9460 0.9470 0.9480 0.9500 0.9500
1550.774886 0.9510 0.9530 0.9540 0.9550 0.9570
1555.196407 0.9570 0.9570 0.9570 0.9570 0.9580
1559.617927 0.9580 0.9580 0.9580 0.9580 0.9600
1564.039448 0.9580 0.9580 0.9580 0.9580 0.9580
1568.460968 0.9580 0.9580 0.9580 0.9580 0.9580
1572.882489 0.9580 0.9620 0.9620 0.9620 0.9640
1577.304009 0.9640 0.9650 0.9650 0.9650 0.9650
1581.725529 0.9660 0.9660 0.9660 0.9660 0.9660
1586.147050 0.9660 0.9660 0.9650 0.9650 0.9650
1590.568570 0.9650 0.9650 0.9640 0.9640 0.9640
1594.990091 0.9640 0.9640 0.9640 0.9640 0.9640
1599.411611 0.9650 0.9650 0.9650 0.9650 0.9650
1603.833132 0.9650 0.9650 0.9650 0.9650 0.9650
1608.254652 0.9650 0.9640 0.9640 0.9640 0.9640
1612.676173 0.9640 0.9620 0.9620 0.9620 0.9620
1617.097693 0.9610 0.9610 0.9610 0.9600 0.9600
1621.519214 0.9600 0.9600 0.9600 0.9600 0.9600
1625.940734 0.9600 0.9600 0.9580 0.9570 0.9570
1630.362255 0.9570 0.9570 0.9550 0.9550 0.9550
1634.783775 0.9550 0.9540 0.9550 0.9550 0.9550
1639.205296 0.9550 0.9550 0.9540 0.9530 0.9530
1643.626816 0.9530 0.9510 0.9480 0.9430 0.9370
1648.048337 0.9350 0.9330 0.9330 0.9350 0.9370
1652.469857 0.9460 0.9500 0.9510 0.9530 0.9540
1656.891378 0.9550 0.9550 0.9570 0.9580 0.9580
1661.312898 0.9600 0.9600 0.9600 0.9600 0.9610
1665.734419 0.9610 0.9610 0.9610 0.9610 0.9610
1670.155939 0.9610 0.9610 0.9610 0.9610 0.9610
1674.577460 0.9610 0.9610 0.9610 0.9610 0.9610
1678.998980 0.9610 0.9610 0.9610 0.9610 0.9610
1683.420501 0.9610 0.9610 0.9610 0.9610 0.9610
1687.842021 0.9610 0.9620 0.9620 0.9620 0.9620
1692.263541 0.9620 0.9620 0.9620 0.9620 0.9620
1696.685062 0.9620 0.9620 0.9620 0.9620 0.9620
1701.106582 0.9620 0.9620 0.9620 0.9610 0.9610
1705.528103 0.9610 0.9610 0.9610 0.9610 0.9610
1709.949623 0.9600 0.9600 0.9600 0.9600 0.9580
1714.371144 0.9600 0.9600 0.9600 0.9600 0.9600
1718.792664 0.9600 0.9600 0.9600 0.9600 0.9600
1723.214185 0.9600 0.9600 0.9600 0.9600 0.9600
1727.635705 0.9580 0.9580 0.9580 0.9580 0.9580
1732.057226 0.9580 0.9600 0.9580 0.9580 0.9580
1736.478746 0.9580 0.9580 0.9580 0.9580 0.9580
1740.900267 0.9600 0.9610 0.9640 0.9650 0.9650
1745.321787 0.9650 0.9660 0.9660 0.9680 0.9680
1749.743308 0.9690 0.9690 0.9690 0.9690 0.9690
1754.164828 0.9690 0.9690 0.9690 0.9690 0.9690
1758.586349 0.9680 0.9680 0.9680 0.9680 0.9680
1763.007869 0.9680 0.9680 0.9680 0.9680 0.9680
1767.429390 0.9680 0.9680 0.9680 0.9680 0.9680
1771.850910 0.9660 0.9660 0.9660 0.9660 0.9660
1776.272431 0.9650 0.9650 0.9650 0.9650 0.9650
1780.693951 0.9650 0.9650 0.9650 0.9660 0.9660
1785.115472 0.9660 0.9680 0.9680 0.9680 0.9690
1789.536992 0.9690 0.9690 0.9710 0.9710 0.9720
1793.958513 0.9720 0.9720 0.9720 0.9720 0.9720
1798.380033 0.9720 0.9730 0.9730 0.9750 0.9750
1802.801553 0.9730 0.9750 0.9750 0.9750 0.9760
1807.223074 0.9760 0.9770 0.9770 0.9770 0.9770
1811.644594 0.9770 0.9770 0.9770 0.9790 0.9790
1816.066115 0.9790 0.9790 0.9790 0.9790 0.9790
1820.487635 0.9790 0.9790 0.9800 0.9800 0.9800
1824.909156 0.9800 0.9800 0.9800 0.9800 0.9800
1829.330676 0.9800 0.9800 0.9790 0.9790 0.9790
1833.752197 0.9800 0.9800 0.9800 0.9800 0.9800
1838.173717 0.9820 0.9820 0.9820 0.9820 0.9820
1842.595238 0.9820 0.9820 0.9820 0.9820 0.9820
1847.016758 0.9820 0.9820 0.9820 0.9820 0.9820
1851.438279 0.9820 0.9820 0.9820 0.9800 0.9790
1855.859799 0.9790 0.9770 0.9770 0.9770 0.9770
1860.281320 0.9770 0.9770 0.9770 0.9770 0.9770
1864.702840 0.9770 0.9770 0.9790 0.9800 0.9800
1869.124361 0.9800 0.9800 0.9800 0.9800 0.9820
1873.545881 0.9820 0.9820 0.9820 0.9820 0.9820
1877.967402 0.9820 0.9830 0.9830 0.9830 0.9830
1882.388922 0.9830 0.9840 0.9840 0.9840 0.9840
1886.810443 0.9840 0.9840 0.9860 0.9860 0.9860
1891.231963 0.9860 0.9870 0.9870 0.9870 0.9870
1895.653484 0.9870 0.9880 0.9880 0.9880 0.9880
1900.075004 0.9880 0.9900 0.9900 0.9900 0.9900
1904.496525 0.9900 0.9900 0.9900 0.9900 0.9900
1908.918045 0.9900 0.9900 0.9900 0.9900 0.9900
1913.339565 0.9900 0.9900 0.9900 0.9910 0.9910
1917.761086 0.9910 0.9910 0.9910 0.9910 0.9910
1922.182606 0.9910 0.9910 0.9910 0.9910 0.9910
1926.604127 0.9910 0.9910 0.9930 0.9910 0.9910
1931.025647 0.9910 0.9910 0.9910 0.9930 0.9930
1935.447168 0.9930 0.9930 0.9930 0.9930 0.9930
1939.868688 0.9930 0.9930 0.9930 0.9910 0.9910
1944.290209 0.9910 0.9910 0.9910 0.9910 0.9910
1948.711729 0.9910 0.9910 0.9910 0.9900 0.9900
1953.133250 0.9900 0.9900 0.9900 0.9900 0.9900
1957.554770 0.9900 0.9900 0.9900 0.9880 0.9880
1961.976291 0.9880 0.9880 0.9880 0.9880 0.9880
1966.397811 0.9880 0.9880 0.9880 0.9870 0.9870
1970.819332 0.9870 0.9870 0.9870 0.9870 0.9870
1975.240852 0.9870 0.9860 0.9860 0.9860 0.9840
1979.662373 0.9840 0.9830 0.9830 0.9830 0.9820
1984.083893 0.9820 0.9800 0.9800 0.9790 0.9790
1988.505414 0.9790 0.9770 0.9770 0.9760 0.9760
1992.926934 0.9750 0.9750 0.9750 0.9730 0.9730
1997.348455 0.9720 0.9720 0.9720 0.9710 0.9710
2001.769975 0.9710 0.9700 0.9690 0.9690 0.9690
2006.191496 0.9685 0.9680 0.9680 0.9680 0.9680
2010.613016 0.9680 0.9670 0.9660 0.9660 0.9660
2015.034537 0.9655 0.9650 0.9650 0.9650 0.9645
2019.456057 0.9640 0.9640 0.9640 0.9640 0.9640
2023.877577 0.9630 0.9620 0.9620 0.9620 0.9615
2028.299098 0.9610 0.9610 0.9610 0.9605 0.9600
2032.720618 0.9600 0.9600 0.9600 0.9599 0.9589
2037.142139 0.9580 0.9580 0.9580 0.9575 0.9570
2041.563659 0.9570 0.9569 0.9554 0.9540 0.9540
2045.985180 0.9540 0.9540 0.9540 0.9540 0.9540
2050.406700 0.9535 0.9530 0.9530 0.9530 0.9530
2054.828221 0.9529 0.9519 0.9510 0.9510 0.9510
2059.249741 0.9510 0.9510 0.9510 0.9509 0.9504
2063.671262 0.9500 0.9500 0.9500 0.9500 0.9499
2068.092782 0.9489 0.9480 0.9480 0.9480 0.9480
2072.514303 0.9480 0.9480 0.9480 0.9480 0.9479
2076.935823 0.9474 0.9470 0.9470 0.9470 0.9470
2081.357344 0.9470 0.9470 0.9470 0.9470 0.9469
2085.778864 0.9464 0.9460 0.9460 0.9460 0.9460
2090.200385 0.9458 0.9448 0.9440 0.9440 0.9439
2094.621905 0.9434 0.9430 0.9430 0.9429 0.9424
2099.043426 0.9420 0.9420 0.9418 0.9408 0.9400
2103.464946 0.9400 0.9399 0.9394 0.9390 0.9390
2107.886467 0.9388 0.9378 0.9370 0.9370 0.9369
2112.307987 0.9364 0.9360 0.9360 0.9360 0.9360
2116.729508 0.9360 0.9360 0.9359 0.9354 0.9350
2121.151028 0.9350 0.9350 0.9350 0.9350 0.9350
2125.572548 0.9350 0.9350 0.9350 0.9350 0.9350
2129.994069 0.9350 0.9347 0.9337 0.9330 0.9330
2134.415589 0.9329 0.9324 0.9319 0.9314 0.9310
2138.837110 0.9310 0.9310 0.9310 0.9307 0.9297
2143.258630 0.9290 0.9290 0.9290 0.9290 0.9289
2147.680151 0.9284 0.9277 0.9267 0.9260 0.9260
2152.101671 0.9260 0.9260 0.9260 0.9260 0.9259
2156.523192 0.9253 0.9250 0.9250 0.9250 0.9250
2160.944712 0.9248 0.9243 0.9240 0.9240 0.9237
2165.366233 0.9227 0.9220 0.9220 0.9218 0.9213
2169.787753 0.9210 0.9210 0.9208 0.9203 0.9200
2174.209274 0.9200 0.9197 0.9186 0.9180 0.9180
2178.630794 0.9178 0.9173 0.9170 0.9170 0.9166
2183.052315 0.9156 0.9148 0.9143 0.9140 0.9140
2187.473835 0.9140 0.9140 0.9140 0.9140 0.9140
2191.895356 0.9140 0.9140 0.9140 0.9140 0.9140
2196.316876 0.9140 0.9140 0.9140 0.9140 0.9140
2200.738397 0.9140 0.9140 0.9140 0.9140 0.9140
2205.159917 0.9138 0.9133 0.9130 0.9130 0.9126
2209.581438 0.9116 0.9110 0.9110 0.9108 0.9103
2214.002958 0.9100 0.9100 0.9096 0.9086 0.9078
2218.424479 0.9073 0.9068 0.9063 0.9056 0.9046
2222.845999 0.9038 0.9033 0.9028 0.9023 0.9013
2227.267520 0.8998 0.8983 0.8968 0.8958 0.8953
2231.689040 0.8945 0.8935 0.8925 0.8915 0.8903
2236.110560 0.8888 0.8880 0.8880 0.8875 0.8865
2240.532081 0.8860 0.8860 0.8858 0.8853 0.8848
2244.953601 0.8843 0.8840 0.8840 0.8840 0.8840
2249.375122 0.8840 0.8840 0.8835 0.8825 0.8820
2253.796642 0.8820 0.8820 0.8820 0.8817 0.8812
2258.218163 0.8807 0.8802 0.8800 0.8800 0.8795
2262.639683 0.8785 0.8772 0.8757 0.8750 0.8750
2267.061204 0.8747 0.8742 0.8737 0.8732 0.8725
2271.482724 0.8715 0.8707 0.8702 0.8700 0.8700
2275.904245 0.8700 0.8700 0.8700 0.8700 0.8700
2280.325765 0.8700 0.8694 0.8684 0.8680 0.8680
2284.747286 0.8680 0.8680 0.8680 0.8680 0.8677
2289.168806 0.8672 0.8670 0.8670 0.8670 0.8670
2293.590327 0.8670 0.8670 0.8670 0.8670 0.8670
2298.011847 0.8670 0.8670 0.8670 0.8670 0.8670
2302.433368 0.8673 0.8678 0.8680 0.8680 0.8680
2306.854888 0.8680 0.8680 0.8680 0.8680 0.8680
2311.276409 0.8686 0.8696 0.8700 0.8700 0.8712
2315.697929 0.8732 0.8753 0.8773 0.8786 0.8796
2320.119450 0.8806 0.8816 0.8826 0.8836 0.8847
2324.540970 0.8857 0.8867 0.8877 0.8890 0.8905
2328.962491 0.8917 0.8927 0.8937 0.8947 0.8950
2333.384011 0.8950 0.8950 0.8950 0.8943 0.8933
2337.805532 0.8930 0.8930 0.8930 0.8930 0.8927
2342.227052 0.8922 0.8920 0.8920 0.8920 0.8920
2346.648572 0.8917 0.8912 0.8910 0.8910 0.8910
2351.070093 0.8910 0.8910 0.8910 0.8910 0.8910
2355.491613 0.8910 0.8910 0.8910 0.8910 0.8910
2359.913134 0.8910 0.8910 0.8910 0.8910 0.8910
2364.334654 0.8910 0.8910 0.8910 0.8910 0.8910
2368.756175 0.8910 0.8910 0.8910 0.8910 0.8910
2373.177695 0.8910 0.8910 0.8902 0.8892 0.8890
2377.599216 0.8890 0.8890 0.8890 0.8890 0.8890
2382.020736 0.8890 0.8890 0.8890 0.8890 0.8890
2386.442257 0.8890 0.8890 0.8890 0.8898 0.8908
2390.863777 0.8910 0.8910 0.8910 0.8910 0.8910
2395.285298 0.8910 0.8910 0.8910 0.8914 0.8919
2399.706818 0.8920 0.8920 0.8920 0.8920 0.8920
2404.128339 0.8920 0.8920 0.8920 0.8924 0.8929
2408.549859 0.8930 0.8930 0.8930 0.8930 0.8938
2412.971380 0.8948 0.8950 0.8950 0.8950 0.8950
2417.392900 0.8954 0.8959 0.8960 0.8960 0.8964
2421.814421 0.8969 0.8970 0.8970 0.8970 0.8970
2426.235941 0.8979 0.8989 0.8990 0.8990 0.8990
2430.657462 0.8990 0.8990 0.8990 0.8994 0.8999
2435.078982 0.9000 0.9000 0.9000 0.9000 0.9009
2439.500503 0.9019 0.9020 0.9020 0.9020 0.9020
2443.922023 0.9024 0.9029 0.9030 0.9030 0.9030
2448.343544 0.9030 0.9030 0.9030 0.9030 0.9030
2452.765064 0.9030 0.9030 0.9035 0.9040 0.9040
2457.186584 0.9040 0.9040 0.9040 0.9040 0.9040
2461.608105 0.9049 0.9059 0.9060 0.9060 0.9060
2466.029625 0.9060 0.9060 0.9060 0.9065 0.9070
2470.451146 0.9070 0.9070 0.9070 0.9070 0.9070
2474.872666 0.9070 0.9075 0.9080 0.9080 0.9080
2479.294187 0.9080 0.9080 0.9080 0.9080 0.9090
2483.715707 0.9100 0.9100 0.9100 0.9105 0.9110
2488.137228 0.9110 0.9110 0.9110 0.9110 0.9120
2492.558748 0.9130 0.9130 0.9130 0.9130 0.9130
2496.980269 0.9135 0.9140 0.9140 0.9140 0.9145
2501.401789 0.9150 0.9150 0.9150 0.9150 0.9150
2505.823310 0.9150 0.9150 0.9160 0.9170 0.9170
2510.244830 0.9170 0.9170 0.9170 0.9175 0.9180
2514.666351 0.9180 0.9180 0.9180 0.9180 0.9180
2519.087871 0.9180 0.9190 0.9200 0.9200 0.9200
2523.509392 0.9200 0.9200 0.9200 0.9200 0.9200
2527.930912 0.9200 0.9200 0.9200 0.9200 0.9200
2532.352433 0.9200 0.9200 0.9200 0.9200 0.9200
2536.773953 0.9200 0.9200 0.9200 0.9200 0.9200
2541.195474 0.9200 0.9199 0.9189 0.9180 0.9180
2545.616994 0.9180 0.9180 0.9180 0.9180 0.9180
2550.038515 0.9180 0.9180 0.9180 0.9180 0.9180
2554.460035 0.9180 0.9180 0.9180 0.9180 0.9180
2558.881555 0.9180 0.9179 0.9174 0.9170 0.9170
2563.303076 0.9170 0.9170 0.9170 0.9170 0.9170
2567.724596 0.9170 0.9170 0.9170 0.9169 0.9158
2572.146117 0.9150 0.9150 0.9150 0.9150 0.9150
2576.567637 0.9150 0.9149 0.9144 0.9140 0.9140
2580.989158 0.9140 0.9140 0.9140 0.9140 0.9140
2585.410678 0.9140 0.9140 0.9140 0.9140 0.9140
2589.832199 0.9140 0.9140 0.9140 0.9140 0.9140
2594.253719 0.9140 0.9140 0.9140 0.9140 0.9140
2598.675240 0.9140 0.9140 0.9140 0.9140 0.9140
2603.096760 0.9140 0.9140 0.9140 0.9139 0.9134
2607.518281 0.9130 0.9130 0.9130 0.9130 0.9130
2611.939801 0.9130 0.9130 0.9130 0.9128 0.9118
2616.361322 0.9110 0.9110 0.9110 0.9110 0.9110
2620.782842 0.9110 0.9110 0.9110 0.9110 0.9110
2625.204363 0.9109 0.9104 0.9100 0.9100 0.9100
2629.625883 0.9100 0.9100 0.9100 0.9100 0.9100
2634.047404 0.9100 0.9100 0.9097 0.9087 0.9080
2638.468924 0.9080 0.9080 0.9080 0.9080 0.9080
2642.890445 0.9079 0.9074 0.9070 0.9070 0.9070
2647.311965 0.9070 0.9069 0.9063 0.9060 0.9060
2651.733486 0.9057 0.9047 0.9040 0.9040 0.9038
2656.155006 0.9033 0.9028 0.9023 0.9020 0.9020
2660.576527 0.9020 0.9020 0.9020 0.9020 0.9020
2664.998047 0.9020 0.9017 0.9007 0.9000 0.9000
2669.419567 0.9000 0.9000 0.8998 0.8993 0.8990
2673.841088 0.8990 0.8990 0.8990 0.8990 0.8990
2678.262608 0.8990 0.8990 0.8990 0.8990 0.8990
2682.684129 0.8990 0.8990 0.8990 0.8986 0.8976
2687.105649 0.8970 0.8970 0.8970 0.8970 0.8970
2691.527170 0.8970 0.8970 0.8970 0.8968 0.8963
2695.948690 0.8960 0.8960 0.8960 0.8960 0.8960
2700.370211 0.8960 0.8958 0.8953 0.8950 0.8950
2704.791731 0.8950 0.8950 0.8946 0.8936 0.8930
2709.213252 0.8930 0.8930 0.8930 0.8928 0.8923
2713.634772 0.8920 0.8920 0.8918 0.8913 0.8910
2718.056293 0.8910 0.8906 0.8896 0.8890 0.8890
2722.477813 0.8888 0.8883 0.8880 0.8880 0.8875
2726.899334 0.8865 0.8860 0.8860 0.8858 0.8853
2731.320854 0.8850 0.8850 0.8848 0.8843 0.8840
2735.742375 0.8840 0.8833 0.8818 0.8810 0.8810
2740.163895 0.8808 0.8803 0.8800 0.8800 0.8795
2744.585416 0.8785 0.8777 0.8772 0.8770 0.8770
2749.006936 0.8765 0.8755 0.8750 0.8750 0.8747
2753.428457 0.8742 0.8737 0.8732 0.8730 0.8730
2757.849977 0.8725 0.8715 0.8710 0.8710 0.8707
2762.271498 0.8702 0.8695 0.8685 0.8680 0.8680
2766.693018 0.8675 0.8665 0.8660 0.8660 0.8655
2771.114539 0.8645 0.8637 0.8632 0.8627 0.8622
2775.536059 0.8620 0.8620 0.8614 0.8604 0.8597
2779.957579 0.8592 0.8584 0.8574 0.8564 0.8554
2784.379100 0.8538 0.8518 0.8504 0.8494 0.8487
2788.800620 0.8482 0.8474 0.8464 0.8454 0.8444
2793.222141 0.8431 0.8416 0.8401 0.8386 0.8371
2797.643661 0.8356 0.8338 0.8318 0.8307 0.8302
2802.065182 0.8281 0.8251 0.8228 0.8208 0.8191
2806.486702 0.8176 0.8164 0.8154 0.8141 0.8126
2810.908223 0.8095 0.8054 0.8008 0.7958 0.7937
2815.329743 0.7932 0.7911 0.7880 0.7857 0.7837
2819.751264 0.7794 0.7739 0.7687 0.7637 0.7597
2824.172784 0.7562 0.7415 0.7210 0.7114 0.7074
2828.594305 0.7040 0.7010 0.6925 0.6815 0.6715
2833.015825 0.6620 0.6432 0.6202 0.6027 0.5877
2837.437346 0.5730 0.5585 0.5436 0.5286 0.4842
2841.858866 0.4267 0.3885 0.3590 0.3441 0.3356
2846.280387 0.2978 0.2473 0.2319 0.2304 0.2304
2850.701907 0.2309 0.2587 0.2973 0.3690 0.4536
2855.123428 0.4929 0.5149 0.5290 0.5400 0.5532
2859.544948 0.5672 0.5808 0.5944 0.6111 0.6292
2863.966469 0.6392 0.6463 0.6484 0.6489 0.6486
2868.387989 0.6481 0.6480 0.6480 0.6472 0.6462
2872.809510 0.6452 0.6442 0.6432 0.6422 0.6416
2877.231030 0.6411 0.6399 0.6384 0.6353 0.6318
2881.652551 0.6291 0.6265 0.6193 0.6108 0.5999
2886.074071 0.5884 0.5793 0.5708 0.5658 0.5618
2890.495591 0.5534 0.5439 0.5368 0.5303 0.5202
2894.917112 0.5092 0.4986 0.4881 0.4772 0.4662
2899.338632 0.4559 0.4458 0.4209 0.3929 0.3756
2903.760153 0.3606 0.3460 0.3315 0.3165 0.3015
2908.181673 0.2869 0.2724 0.2579 0.2434 0.2285
2912.603194 0.2135 0.1846 0.1531 0.1472 0.1462
2917.024714 0.1464 0.1469 0.1573 0.1693 0.1809
2921.446235 0.1924 0.2039 0.2154 0.2257 0.2357
2925.867755 0.2704 0.3089 0.3283 0.3448 0.3622
2930.289276 0.3797 0.3925 0.4045 0.4278 0.4529
2934.710796 0.4816 0.5110 0.5257 0.5387 0.5557
2939.132317 0.5732 0.5781 0.5817 0.5978 0.6153
2943.553837 0.6265 0.6370 0.6380 0.6380 0.6375
2947.975358 0.6370 0.6261 0.6141 0.6044 0.5948
2952.396878 0.5926 0.5911 0.5924 0.5939 0.6099
2956.818399 0.6269 0.6355 0.6435 0.6445 0.6450
2961.239919 0.6586 0.6731 0.6890 0.7051 0.7258
2965.661440 0.7468 0.7574 0.7674 0.7798 0.7923
2970.082960 0.8002 0.8078 0.8187 0.8297 0.8407
2974.504481 0.8517 0.8612 0.8707 0.8739 0.8769
2978.926001 0.8824 0.8879 0.8895 0.8910 0.8915
2983.347522 0.8920 0.8954 0.8989 0.9015 0.9040
2987.769042 0.9060 0.9080 0.9090 0.9100 0.9105
2992.190562 0.9110 0.9120 0.9130 0.9130 0.9130
2996.612083 0.9135 0.9140 0.9135 0.9130 0.9135
3001.033603 0.9140 0.9140 0.9140 0.9145 0.9150
3005.455124 0.9150 0.9150 0.9150 0.9150 0.9150
3009.876644 0.9150 0.9150 0.9150 0.9150 0.9150
3014.298165 0.9150 0.9150 0.9150 0.9150 0.9150
3018.719685 0.9150 0.9150 0.9150 0.9150 0.9150
3023.141206 0.9150 0.9150 0.9150 0.9150 0.9150
3027.562726 0.9150 0.9150 0.9150 0.9150 0.9150
3031.984247 0.9150 0.9150 0.9150 0.9150 0.9150
3036.405767 0.9150 0.9150 0.9150 0.9150 0.9150
3040.827288 0.9150 0.9150 0.9150 0.9150 0.9150
3045.248808 0.9150 0.9150 0.9150 0.9150 0.9150
3049.670329 0.9150 0.9150 0.9150 0.9150 0.9150
3054.091849 0.9150 0.9150 0.9150 0.9150 0.9150
3058.513370 0.9150 0.9149 0.9144 0.9140 0.9140
3062.934890 0.9140 0.9140 0.9140 0.9140 0.9140
3067.356411 0.9140 0.9140 0.9140 0.9140 0.9140
3071.777931 0.9140 0.9140 0.9140 0.9140 0.9140
3076.199452 0.9140 0.9140 0.9140 0.9140 0.9140
3080.620972 0.9140 0.9140 0.9140 0.9140 0.9140
3085.042493 0.9140 0.9140 0.9140 0.9140 0.9140
3089.464013 0.9140 0.9140 0.9140 0.9140 0.9140
3093.885534 0.9140 0.9140 0.9140 0.9140 0.9140
3098.307054 0.9140 0.9140 0.9141 0.9146 0.9150
3102.728574 0.9150 0.9150 0.9150 0.9150 0.9150
3107.150095 0.9150 0.9150 0.9150 0.9150 0.9150
3111.571615 0.9150 0.9150 0.9150 0.9150 0.9150
3115.993136 0.9150 0.9150 0.9150 0.9150 0.9150
3120.414656 0.9150 0.9150 0.9150 0.9150 0.9150
3124.836177 0.9150 0.9150 0.9150 0.9150 0.9150
3129.257697 0.9150 0.9150 0.9150 0.9150 0.9150
3133.679218 0.9150 0.9150 0.9149 0.9144 0.9140
3138.100738 0.9140 0.9140 0.9140 0.9140 0.9140
3142.522259 0.9140 0.9140 0.9140 0.9140 0.9140
3146.943779 0.9140 0.9140 0.9140 0.9140 0.9140
3151.365300 0.9140 0.9140 0.9138 0.9133 0.9130
3155.786820 0.9130 0.9130 0.9130 0.9130 0.9130
3160.208341 0.9130 0.9130 0.9130 0.9130 0.9130
3164.629861 0.9130 0.9130 0.9130 0.9126 0.9116
3169.051382 0.9110 0.9110 0.9110 0.9110 0.9110
3173.472902 0.9110 0.9110 0.9110 0.9110 0.9110
3177.894423 0.9110 0.9110 0.9110 0.9110 0.9110
3182.315943 0.9110 0.9110 0.9110 0.9108 0.9103
3186.737464 0.9100 0.9100 0.9100 0.9100 0.9100
3191.158984 0.9100 0.9100 0.9100 0.9100 0.9100
3195.580505 0.9100 0.9100 0.9100 0.9100 0.9100
3200.002025 0.9100 0.9096 0.9086 0.9080 0.9080
3204.423546 0.9080 0.9080 0.9080 0.9080 0.9080
3208.845066 0.9080 0.9080 0.9080 0.9080 0.9080
3213.266586 0.9080 0.9080 0.9078 0.9073 0.9070
3217.688107 0.9070 0.9070 0.9070 0.9070 0.9070
3222.109627 0.9070 0.9070 0.9070 0.9070 0.9068
3226.531148 0.9063 0.9060 0.9060 0.9060 0.9060
3230.952668 0.9060 0.9060 0.9060 0.9060 0.9060
3235.374189 0.9060 0.9060 0.9060 0.9060 0.9060
3239.795709 0.9060 0.9060 0.9055 0.9045 0.9040
3244.217230 0.9040 0.9040 0.9040 0.9040 0.9040
3248.638750 0.9040 0.9040 0.9040 0.9040 0.9040
3253.060271 0.9040 0.9040 0.9040 0.9037 0.9032
3257.481791 0.9030 0.9030 0.9030 0.9030 0.9030
3261.903312 0.9030 0.9030 0.9030 0.9030 0.9030
3266.324832 0.9030 0.9030 0.9030 0.9030 0.9030
3270.746353 0.9030 0.9027 0.9022 0.9020 0.9020
3275.167873 0.9020 0.9020 0.9020 0.9020 0.9020
3279.589394 0.9020 0.9020 0.9020 0.9020 0.9020
3284.010914 0.9020 0.9020 0.9014 0.9004 0.9000
3288.432435 0.9000 0.9000 0.9000 0.9000 0.9000
3292.853955 0.9000 0.9000 0.9000 0.9000 0.9000
3297.275476 0.9000 0.9000 0.9000 0.9000 0.9000
3301.696996 0.9000 0.9000 0.9000 0.9000 0.9000
3306.118517 0.9000 0.9000 0.9000 0.9000 0.9000
3310.540037 0.9000 0.9000 0.9007 0.9017 0.9020
3314.961558 0.9020 0.9020 0.9020 0.9023 0.9028
3319.383078 0.9030 0.9030 0.9030 0.9030 0.9033
3323.804598 0.9038 0.9040 0.9040 0.9040 0.9040
3328.226119 0.9047 0.9057 0.9060 0.9060 0.9060
3332.647639 0.9060 0.9063 0.9068 0.9070 0.9070
3337.069160 0.9070 0.9070 0.9070 0.9070 0.9070
3341.490680 0.9070 0.9070 0.9070 0.9070 0.9070
3345.912201 0.9070 0.9070 0.9070 0.9070 0.9070
3350.333721 0.9070 0.9074 0.9079 0.9080 0.9080
3354.755242 0.9080 0.9080 0.9080 0.9080 0.9080
3359.176762 0.9080 0.9080 0.9080 0.9080 0.9080
3363.598283 0.9080 0.9080 0.9080 0.9080 0.9080
3368.019803 0.9080 0.9080 0.9080 0.9080 0.9080
3372.441324 0.9080 0.9080 0.9080 0.9080 0.9080
3376.862844 0.9080 0.9080 0.9080 0.9080 0.9080
3381.284365 0.9080 0.9080 0.9080 0.9080 0.9080
3385.705885 0.9080 0.9080 0.9080 0.9088 0.9098
3390.127406 0.9100 0.9100 0.9100 0.9100 0.9100
3394.548926 0.9100 0.9100 0.9100 0.9100 0.9100
3398.970447 0.9092 0.9082 0.9080 0.9080 0.9080
3403.391967 0.9080 0.9080 0.9080 0.9088 0.9098
3407.813488 0.9100 0.9100 0.9100 0.9100 0.9100
3412.235008 0.9100 0.9100 0.9100 0.9100 0.9100
3416.656529 0.9100 0.9100 0.9100 0.9100 0.9100
3421.078049 0.9100 0.9100 0.9100 0.9104 0.9109
3425.499570 0.9110 0.9110 0.9110 0.9110 0.9110
3429.921090 0.9110 0.9110 0.9110 0.9110 0.9110
3434.342610 0.9110 0.9110 0.9110 0.9110 0.9110
3438.764131 0.9110 0.9110 0.9110 0.9119 0.9129
3443.185651 0.9130 0.9130 0.9130 0.9130 0.9130
3447.607172 0.9130 0.9130 0.9130 0.9130 0.9130
3452.028692 0.9130 0.9130 0.9130 0.9130 0.9130
3456.450213 0.9130 0.9130 0.9130 0.9135 0.9140
3460.871733 0.9140 0.9140 0.9140 0.9140 0.9140
3465.293254 0.9140 0.9140 0.9140 0.9140 0.9140
3469.714774 0.9140 0.9140 0.9140 0.9140 0.9140
3474.136295 0.9140 0.9140 0.9140 0.9145 0.9150
3478.557815 0.9150 0.9150 0.9150 0.9150 0.9150
3482.979336 0.9150 0.9150 0.9150 0.9150 0.9150
3487.400856 0.9150 0.9150 0.9160 0.9170 0.9170
3491.822377 0.9170 0.9170 0.9170 0.9170 0.9170
3496.243897 0.9170 0.9170 0.9170 0.9170 0.9170
3500.665418 0.9170 0.9175 0.9180 0.9180 0.9180
3505.086938 0.9190 0.9200 0.9200 0.9200 0.9200
3509.508459 0.9200 0.9205 0.9210 0.9210 0.9210
3513.929979 0.9215 0.9220 0.9220 0.9220 0.9220
3518.351500 0.9221 0.9231 0.9240 0.9240 0.9240
3522.773020 0.9245 0.9250 0.9255 0.9261 0.9271
3527.194541 0.9280 0.9285 0.9290 0.9290 0.9290
3531.616061 0.9290 0.9291 0.9301 0.9310 0.9310
3536.037581 0.9310 0.9310 0.9310 0.9310 0.9311
3540.459102 0.9316 0.9320 0.9320 0.9320 0.9320
3544.880622 0.9320 0.9320 0.9321 0.9326 0.9330
3549.302143 0.9330 0.9330 0.9330 0.9330 0.9330
3553.723663 0.9331 0.9341 0.9350 0.9350 0.9350
3558.145184 0.9350 0.9350 0.9350 0.9350 0.9350
3562.566704 0.9350 0.9350 0.9350 0.9350 0.9350
3566.988225 0.9350 0.9350 0.9350 0.9350 0.9350
3571.409745 0.9348 0.9338 0.9330 0.9330 0.9329
3575.831266 0.9324 0.9320 0.9320 0.9320 0.9320
3580.252786 0.9293 0.9153 0.9038 0.9028 0.9022
3584.674307 0.9032 0.9065 0.9190 0.9293 0.9308
3589.095827 0.9323 0.9338 0.9354 0.9374 0.9391
3593.517348 0.9396 0.9402 0.9412 0.9421 0.9426
3597.938868 0.9430 0.9430 0.9431 0.9436 0.9440
3602.360389 0.9440 0.9442 0.9452 0.9460 0.9460
3606.781909 0.9461 0.9466 0.9470 0.9470 0.9471
3611.203430 0.9476 0.9480 0.9480 0.9480 0.9480
3615.624950 0.9483 0.9493 0.9500 0.9500 0.9501
3620.046471 0.9506 0.9510 0.9510 0.9510 0.9510
3624.467991 0.9510 0.9510 0.9510 0.9510 0.9510
3628.889512 0.9510 0.9513 0.9523 0.9530 0.9530
3633.311032 0.9530 0.9530 0.9530 0.9530 0.9530
3637.732553 0.9530 0.9530 0.9530 0.9532 0.9537
3642.154073 0.9540 0.9540 0.9540 0.9540 0.9540
3646.575593 0.9540 0.9540 0.9540 0.9540 0.9540
3650.997114 0.9542 0.9547 0.9550 0.9550 0.9550
3655.418634 0.9550 0.9550 0.9550 0.9550 0.9550
3659.840155 0.9550 0.9550 0.9550 0.9550 0.9550
3664.261675 0.9550 0.9550 0.9550 0.9550 0.9550
3668.683196 0.9550 0.9550 0.9550 0.9550 0.9550
3673.104716 0.9550 0.9550 0.9550 0.9550 0.9550
3677.526237 0.9550 0.9550 0.9550 0.9550 0.9550
3681.947757 0.9550 0.9550 0.9550 0.9550 0.9550
3686.369278 0.9550 0.9550 0.9550 0.9550 0.9550
3690.790798 0.9550 0.9550 0.9550 0.9550 0.9550
3695.212319 0.9550 0.9550 0.9550 0.9550 0.9554
3699.633839 0.9564 0.9570 0.9570 0.9570 0.9570
3704.055360 0.9570 0.9570 0.9570 0.9570 0.9570
3708.476880 0.9570 0.9572 0.9577 0.9580 0.9580
3712.898401 0.9580 0.9580 0.9580 0.9580 0.9580
3717.319921 0.9580 0.9580 0.9580 0.9580 0.9580
3721.741442 0.9580 0.9580 0.9580 0.9580 0.9580
3726.162962 0.9580 0.9580 0.9580 0.9580 0.9580
3730.584483 0.9580 0.9580 0.9580 0.9580 0.9580
3735.006003 0.9580 0.9580 0.9580 0.9577 0.9572
3739.427524 0.9570 0.9570 0.9570 0.9570 0.9570
3743.849044 0.9570 0.9570 0.9570 0.9570 0.9570
3748.270565 0.9570 0.9570 0.9570 0.9570 0.9565
3752.692085 0.9555 0.9550 0.9550 0.9550 0.9550
3757.113605 0.9550 0.9550 0.9550 0.9550 0.9550
3761.535126 0.9550 0.9550 0.9550 0.9550 0.9550
3765.956646 0.9550 0.9550 0.9550 0.9550 0.9550
3770.378167 0.9550 0.9550 0.9550 0.9550 0.9550
3774.799687 0.9550 0.9550 0.9550 0.9550 0.9550
3779.221208 0.9550 0.9550 0.9550 0.9550 0.9550
3783.642728 0.9550 0.9550 0.9550 0.9550 0.9550
3788.064249 0.9550 0.9550 0.9550 0.9550 0.9550
3792.485769 0.9550 0.9550 0.9550 0.9550 0.9550
3796.907290 0.9550 0.9550 0.9550 0.9550 0.9550
3801.328810 0.9550 0.9550
##END=
