##TITLE=Chlorpheniramine
##JCAMP-DX=4.24
##DATA TYPE=INFRARED SPECTRUM
##CLASS=COBLENTZ III
##ORIGIN=THE SQUIBB INSTITUTE FOR MEDICAL RESEARCH
##OWNER=Copyright (C) 1987 by the Coblentz Society
Collection (C) 2018 copyright by the U.S. Secretary of Commerce
on behalf of the United States of America. All rights reserved.
##DATE=1961/05/19
##NAMES=2[p-CHLORO-Alpha(2-DIMETHYLAMINO-ETHYL) BENZYL] PYRIDINE MALEATE
##MOLFORM=C20 H23 Cl N2 O4
##MP=130-135 C
##SOURCE REFERENCE=COBLENTZ NO. 5413
##$NIST ID=B6005413
##$NIST SOURCE=COBLENTZ
##$NIST IMAGE=cob5413
##SPECTROMETER/DATA SYSTEM=PERKIN-ELMER 21 (GRATING)
##STATE=SOLID (NUJOL MULL)
##RESOLUTION=2
##XUNITS=1/CM
##YUNITS=TRANSMITTANCE
##XFACTOR=1.0
##YFACTOR=1
##FIRSTX=658
##LASTX=4000
##FIRSTY=0.7282
##MAXX=4000
##MINX=658
##MAXY=1.0063
##MINY=0.1142
##NPOINTS=3343
##XYDATA=(X++(Y..Y))
658.000000 0.7282 0.7728 0.7866 0.7928 0.7865
663.000000 0.7790 0.7782 0.7763 0.8080 0.8698
668.000000 0.9060 0.9238 0.9341 0.9436 0.9547
673.000000 0.9635 0.9707 0.9768 0.9834 0.9839
678.000000 0.9865 0.9881 0.9891 0.9893 0.9895
683.000000 0.9899 0.9906 0.9911 0.9926 0.9947
688.000000 0.9983 0.9988 0.9991 0.9988 0.9985
693.000000 0.9984 0.9983 0.9982 0.9981 0.9988
698.000000 0.9997 1.0005 1.0015 1.0025 1.0034
703.000000 1.0044 1.0053 1.0061 1.0063 1.0054
708.000000 1.0043 1.0027 1.0009 0.9988 0.9968
713.000000 0.9917 0.9822 0.9692 0.9505 0.9257
718.000000 0.9154 0.9143 0.9584 0.9866 0.9953
723.000000 0.9990 1.0014 1.0034 1.0049 1.0055
728.000000 1.0037 0.9992 0.9945 0.9898 0.9851
733.000000 0.9805 0.9762 0.9719 0.9676 0.9634
738.000000 0.9592 0.9548 0.9485 0.9421 0.9357
743.000000 0.9283 0.9209 0.9121 0.9014 0.8854
748.000000 0.8630 0.8360 0.8083 0.7349 0.6440
753.000000 0.5894 0.5883 0.5844 0.6993 0.7220
758.000000 0.7217 0.7252 0.6781 0.6122 0.5465
763.000000 0.4809 0.4262 0.4209 0.4239 0.4578
768.000000 0.5041 0.5485 0.5926 0.6366 0.6805
773.000000 0.7243 0.7757 0.7979 0.8032 0.8059
778.000000 0.7928 0.7601 0.7270 0.6940 0.6825
783.000000 0.6795 0.7842 0.8236 0.8642 0.8966
788.000000 0.9364 0.9583 0.9705 0.9758 0.9737
793.000000 0.9654 0.9546 0.9430 0.9300 0.9171
798.000000 0.9074 0.9014 0.9067 0.9119 0.9184
803.000000 0.9208 0.9189 0.9158 0.9110 0.9051
808.000000 0.8980 0.8937 0.8909 0.8951 0.9079
813.000000 0.9353 0.9579 0.9693 0.9691 0.9724
818.000000 0.9619 0.9504 0.9288 0.8983 0.8666
823.000000 0.8403 0.8143 0.8007 0.7975 0.8085
828.000000 0.8245 0.8473 0.8717 0.9017 0.9027
833.000000 0.8974 0.8849 0.8667 0.8228 0.7786
838.000000 0.7458 0.7263 0.7213 0.7199 0.7844
843.000000 0.8213 0.8555 0.8776 0.8884 0.8943
848.000000 0.8983 0.9009 0.9035 0.9073 0.9089
853.000000 0.9080 0.9028 0.8951 0.8830 0.8687
858.000000 0.8311 0.7788 0.7242 0.6577 0.5463
863.000000 0.4352 0.3325 0.3225 0.3218 0.4857
868.000000 0.5868 0.6876 0.7711 0.7790 0.7779
873.000000 0.7779 0.7725 0.7617 0.7331 0.6998
878.000000 0.6665 0.6333 0.6002 0.5631 0.5367
883.000000 0.5308 0.5299 0.5283 0.5485 0.5623
888.000000 0.5900 0.6398 0.6896 0.7392 0.7881
893.000000 0.8071 0.8141 0.8202 0.8275 0.8392
898.000000 0.8576 0.8817 0.9036 0.9195 0.9313
903.000000 0.9389 0.9424 0.9438 0.9440 0.9441
908.000000 0.9431 0.9422 0.9406 0.9383 0.9351
913.000000 0.9318 0.9282 0.9247 0.9222 0.9197
918.000000 0.9184 0.9173 0.9161 0.9146 0.9130
923.000000 0.9114 0.9096 0.9068 0.9039 0.9011
928.000000 0.8979 0.8935 0.8893 0.8850 0.8807
933.000000 0.8751 0.8690 0.8628 0.8558 0.8442
938.000000 0.8327 0.8219 0.8111 0.8001 0.7809
943.000000 0.7528 0.7181 0.7160 0.7167 0.7194
948.000000 0.7347 0.7654 0.7955 0.8074 0.8138
953.000000 0.8165 0.8144 0.8127 0.8093 0.8057
958.000000 0.8002 0.7944 0.7876 0.7803 0.7718
963.000000 0.7600 0.7473 0.7259 0.7029 0.6794
968.000000 0.6541 0.6340 0.6211 0.6202 0.6164
973.000000 0.6358 0.6518 0.6803 0.7088 0.7320
978.000000 0.7464 0.7530 0.7580 0.7629 0.7570
983.000000 0.7543 0.7507 0.7469 0.7420 0.7364
988.000000 0.7284 0.7180 0.7006 0.6760 0.6581
993.000000 0.6290 0.6068 0.5768 0.5747 0.5811
998.000000 0.5892 0.5942 0.5959 0.5879 0.5801
1003.000000 0.5706 0.5599 0.5489 0.5371 0.5251
1008.000000 0.5130 0.5021 0.4922 0.4820 0.4780
1013.000000 0.4773 0.5427 0.6096 0.6335 0.6446
1018.000000 0.6495 0.6512 0.6526 0.6439 0.6363
1023.000000 0.6287 0.6211 0.6135 0.6059 0.5983
1028.000000 0.5909 0.5833 0.5757 0.5683 0.5608
1033.000000 0.5533 0.5459 0.5384 0.5310 0.5236
1038.000000 0.5167 0.5088 0.4944 0.4809 0.4715
1043.000000 0.4631 0.4584 0.4548 0.4512 0.4474
1048.000000 0.4438 0.4420 0.4424 0.4455 0.4495
1053.000000 0.4515 0.4509 0.4484 0.4443 0.4400
1058.000000 0.4357 0.4311 0.4285 0.4273 0.4269
1063.000000 0.4269 0.4258 0.4235 0.4200 0.4155
1068.000000 0.4104 0.4045 0.3989 0.3935 0.3881
1073.000000 0.3820 0.3759 0.3699 0.3646 0.3592
1078.000000 0.3539 0.3496 0.3457 0.3418 0.3379
1083.000000 0.3338 0.3298 0.3306 0.3257 0.3334
1088.000000 0.3502 0.3543 0.3169 0.2767 0.2789
1093.000000 0.2911 0.3009 0.3108 0.3158 0.3155
1098.000000 0.3135 0.3109 0.3077 0.3046 0.3035
1103.000000 0.3040 0.3085 0.3188 0.3325 0.3438
1108.000000 0.3551 0.3738 0.3911 0.4004 0.4089
1113.000000 0.4148 0.4206 0.4262 0.4317 0.4374
1118.000000 0.4430 0.4488 0.4546 0.4604 0.4649
1123.000000 0.4693 0.4736 0.4777 0.4816 0.4854
1128.000000 0.4890 0.4913 0.4933 0.4954 0.4968
1133.000000 0.5011 0.4978 0.4977 0.4975 0.4969
1138.000000 0.4960 0.4951 0.4939 0.4925 0.4911
1143.000000 0.4896 0.4878 0.4859 0.4839 0.4812
1148.000000 0.4782 0.4750 0.4756 0.4778 0.4843
1153.000000 0.4915 0.5002 0.5114 0.5258 0.5401
1158.000000 0.5465 0.5482 0.5492 0.5496 0.5498
1163.000000 0.5498 0.5494 0.5488 0.5471 0.5454
1168.000000 0.5432 0.5408 0.5383 0.5353 0.5320
1173.000000 0.5270 0.5214 0.5164 0.5118 0.5103
1178.000000 0.5097 0.5135 0.5157 0.5180 0.5204
1183.000000 0.5231 0.5265 0.5332 0.5408 0.5496
1188.000000 0.5589 0.5749 0.5851 0.5879 0.5880
1193.000000 0.5877 0.5887 0.5773 0.5665 0.5558
1198.000000 0.5451 0.5345 0.5238 0.5132 0.5025
1203.000000 0.4934 0.4937 0.4931 0.5504 0.5851
1208.000000 0.6198 0.6533 0.6795 0.6955 0.7101
1213.000000 0.7263 0.7397 0.7508 0.7598 0.7677
1218.000000 0.7744 0.7786 0.7805 0.7811 0.7813
1223.000000 0.7808 0.7798 0.7787 0.7767 0.7740
1228.000000 0.7708 0.7676 0.7643 0.7612 0.7588
1233.000000 0.7581 0.7619 0.7670 0.7733 0.7896
1238.000000 0.8086 0.8275 0.8464 0.8651 0.8813
1243.000000 0.8868 0.8911 0.8950 0.8982 0.8998
1248.000000 0.9014 0.9028 0.9037 0.9044 0.9052
1253.000000 0.9063 0.9076 0.9087 0.9103 0.9120
1258.000000 0.9132 0.9137 0.9140 0.9139 0.9129
1263.000000 0.9161 0.9108 0.9097 0.9086 0.9076
1268.000000 0.9072 0.9068 0.9066 0.9073 0.9080
1273.000000 0.9087 0.9098 0.9110 0.9124 0.9134
1278.000000 0.9133 0.9111 0.9080 0.9050 0.9014
1283.000000 0.8956 0.8892 0.8817 0.8736 0.8647
1288.000000 0.8544 0.8405 0.8289 0.8183 0.8091
1293.000000 0.8006 0.7935 0.7884 0.7848 0.7817
1298.000000 0.7803 0.7789 0.7820 0.7909 0.8038
1303.000000 0.8167 0.8279 0.8286 0.8302 0.8248
1308.000000 0.8142 0.8013 0.7884 0.7755 0.7626
1313.000000 0.7498 0.7370 0.7305 0.7282 0.7371
1318.000000 0.7426 0.7480 0.7535 0.7571 0.7577
1323.000000 0.7569 0.7584 0.7540 0.7511 0.7435
1328.000000 0.7282 0.7129 0.6976 0.6825 0.6672
1333.000000 0.6520 0.6369 0.6218 0.6066 0.5915
1338.000000 0.5765 0.5614 0.5464 0.5315 0.5165
1343.000000 0.5015 0.4865 0.4729 0.4598 0.4446
1348.000000 0.4094 0.3667 0.3242 0.2817 0.2392
1353.000000 0.1968 0.1706 0.1684 0.1683 0.1664
1358.000000 0.2108 0.2464 0.2821 0.3176 0.3531
1363.000000 0.3885 0.4222 0.4379 0.4418 0.4427
1368.000000 0.4419 0.4411 0.4401 0.4393 0.4384
1373.000000 0.4376 0.4371 0.4374 0.4387 0.4405
1378.000000 0.4429 0.4456 0.4496 0.4555 0.4634
1383.000000 0.4712 0.4790 0.4884 0.4988 0.5087
1388.000000 0.5178 0.5270 0.5381 0.5519 0.5783
1393.000000 0.5941 0.6099 0.6256 0.6413 0.6545
1398.000000 0.6578 0.6584 0.6559 0.6541 0.6501
1403.000000 0.6366 0.6217 0.6069 0.5920 0.5772
1408.000000 0.5624 0.5512 0.5494 0.5489 0.5582
1413.000000 0.5642 0.5702 0.5762 0.5802 0.5803
1418.000000 0.5801 0.5778 0.5742 0.5667 0.5592
1423.000000 0.5529 0.5421 0.5244 0.4917 0.4185
1428.000000 0.3471 0.2758 0.2381 0.2341 0.2332
1433.000000 0.2331 0.2577 0.2789 0.3001 0.3213
1438.000000 0.3425 0.3636 0.3728 0.3700 0.3640
1443.000000 0.3453 0.3267 0.3081 0.2894 0.2708
1448.000000 0.2523 0.2345 0.2253 0.2188 0.2111
1453.000000 0.2027 0.1968 0.1918 0.1886 0.1859
1458.000000 0.1834 0.1813 0.1791 0.1773 0.1760
1463.000000 0.1749 0.1737 0.1724 0.1710 0.1650
1468.000000 0.1548 0.1465 0.1395 0.1325 0.1241
1473.000000 0.1169 0.1151 0.1144 0.1142 0.1149
1478.000000 0.1146 0.1157 0.1175 0.1198 0.1220
1483.000000 0.1243 0.1267 0.1291 0.1323 0.1361
1488.000000 0.1395 0.1425 0.1460 0.1531 0.1627
1493.000000 0.1723 0.1818 0.1913 0.2008 0.2103
1498.000000 0.2198 0.2292 0.2387 0.2481 0.2575
1503.000000 0.2672 0.2802 0.2986 0.3171 0.3315
1508.000000 0.3415 0.3490 0.3574 0.3676 0.3780
1513.000000 0.3855 0.3913 0.3971 0.4028 0.4068
1518.000000 0.4099 0.4132 0.4162 0.4184 0.4206
1523.000000 0.4228 0.4246 0.4258 0.4268 0.4279
1528.000000 0.4288 0.4298 0.4307 0.4316 0.4325
1533.000000 0.4335 0.4359 0.4433 0.4586 0.4777
1538.000000 0.4928 0.5041 0.5117 0.5157 0.5178
1543.000000 0.5186 0.5191 0.5196 0.5198 0.5198
1548.000000 0.5196 0.5211 0.5185 0.5177 0.5165
1553.000000 0.5127 0.5013 0.4891 0.4769 0.4647
1558.000000 0.4525 0.4403 0.4282 0.4161 0.4040
1563.000000 0.3919 0.3798 0.3677 0.3557 0.3436
1568.000000 0.3316 0.3198 0.3143 0.3122 0.3101
1573.000000 0.3079 0.3052 0.3009 0.2940 0.2873
1578.000000 0.2812 0.2738 0.2534 0.2370 0.2267
1583.000000 0.2172 0.2077 0.1997 0.1962 0.1952
1588.000000 0.1953 0.1959 0.1965 0.1973 0.1956
1593.000000 0.2007 0.2109 0.2286 0.2487 0.2688
1598.000000 0.2888 0.3089 0.3289 0.3488 0.3687
1603.000000 0.3886 0.4085 0.4284 0.4482 0.4680
1608.000000 0.4951 0.4966 0.4958 0.4916 0.4847
1613.000000 0.4777 0.4707 0.4637 0.4567 0.4497
1618.000000 0.4427 0.4357 0.4288 0.4264 0.4262
1623.000000 0.4262 0.4405 0.4556 0.4707 0.4858
1628.000000 0.5008 0.5159 0.5308 0.5458 0.5608
1633.000000 0.5758 0.5907 0.6056 0.6206 0.6354
1638.000000 0.6503 0.6625 0.6686 0.6720 0.6754
1643.000000 0.6787 0.6820 0.6854 0.6893 0.6936
1648.000000 0.6982 0.7334 0.7483 0.7673 0.7895
1653.000000 0.8103 0.8255 0.8343 0.8397 0.8437
1658.000000 0.8459 0.8482 0.8498 0.8506 0.8515
1663.000000 0.8523 0.8531 0.8538 0.8545 0.8549
1668.000000 0.8539 0.8547 0.8547 0.8546 0.8542
1673.000000 0.8537 0.8532 0.8527 0.8522 0.8513
1678.000000 0.8496 0.8464 0.8388 0.8304 0.8219
1683.000000 0.8135 0.8050 0.7966 0.7881 0.7798
1688.000000 0.7714 0.7629 0.7546 0.7462 0.7378
1693.000000 0.7295 0.7212 0.7132 0.7097 0.7077
1698.000000 0.7064 0.7054 0.7047 0.7043 0.7041
1703.000000 0.7012 0.7047 0.7054 0.7067 0.7083
1708.000000 0.7103 0.7126 0.7151 0.7179 0.7219
1713.000000 0.7259 0.7296 0.7345 0.7436 0.7568
1718.000000 0.7700 0.7831 0.7963 0.8094 0.8225
1723.000000 0.8356 0.8487 0.8618 0.8749 0.8879
1728.000000 0.9009 0.9140 0.9269 0.9399 0.9529
1733.000000 0.9644 0.9730 0.9779 0.9813 0.9840
1738.000000 0.9864 0.9880 0.9889 0.9898 0.9907
1743.000000 0.9913 0.9916 0.9918 0.9920 0.9920
1748.000000 0.9918 0.9916 0.9914 0.9912 0.9909
1753.000000 0.9903 0.9896 0.9890 0.9882 0.9872
1758.000000 0.9859 0.9846 0.9832 0.9819 0.9805
1763.000000 0.9791 0.9775 0.9759 0.9742 0.9725
1768.000000 0.9708 0.9694 0.9681 0.9669 0.9660
1773.000000 0.9656 0.9651 0.9646 0.9641 0.9637
1778.000000 0.9631 0.9624 0.9613 0.9599 0.9585
1783.000000 0.9571 0.9552 0.9532 0.9512 0.9492
1788.000000 0.9473 0.9453 0.9434 0.9414 0.9395
1793.000000 0.9379 0.9363 0.9348 0.9332 0.9317
1798.000000 0.9305 0.9295 0.9286 0.9278 0.9270
1803.000000 0.9264 0.9258 0.9252 0.9246 0.9240
1808.000000 0.9234 0.9228 0.9225 0.9221 0.9217
1813.000000 0.9213 0.9209 0.9206 0.9202 0.9198
1818.000000 0.9195 0.9193 0.9192 0.9190 0.9189
1823.000000 0.9188 0.9188 0.9190 0.9190 0.9192
1828.000000 0.9193 0.9194 0.9196 0.9199 0.9202
1833.000000 0.9205 0.9209 0.9212 0.9216 0.9220
1838.000000 0.9224 0.9229 0.9234 0.9239 0.9243
1843.000000 0.9248 0.9252 0.9256 0.9261 0.9264
1848.000000 0.9267 0.9271 0.9275 0.9278 0.9282
1853.000000 0.9285 0.9288 0.9292 0.9296 0.9298
1858.000000 0.9300 0.9302 0.9303 0.9305 0.9307
1863.000000 0.9309 0.9310 0.9312 0.9314 0.9315
1868.000000 0.9317 0.9318 0.9320 0.9321 0.9322
1873.000000 0.9323 0.9323 0.9325 0.9326 0.9327
1878.000000 0.9327 0.9329 0.9330 0.9330 0.9331
1883.000000 0.9332 0.9334 0.9334 0.9333 0.9331
1888.000000 0.9329 0.9335 0.9326 0.9324 0.9322
1893.000000 0.9320 0.9317 0.9312 0.9306 0.9301
1898.000000 0.9296 0.9291 0.9286 0.9281 0.9276
1903.000000 0.9271 0.9268 0.9264 0.9261 0.9258
1908.000000 0.9255 0.9252 0.9249 0.9246 0.9246
1913.000000 0.9246 0.9246 0.9248 0.9249 0.9249
1918.000000 0.9251 0.9252 0.9252 0.9254 0.9255
1923.000000 0.9255 0.9257 0.9258 0.9258 0.9257
1928.000000 0.9256 0.9254 0.9252 0.9251 0.9249
1933.000000 0.9248 0.9247 0.9245 0.9243 0.9240
1938.000000 0.9237 0.9234 0.9231 0.9228 0.9225
1943.000000 0.9222 0.9220 0.9217 0.9214 0.9212
1948.000000 0.9210 0.9208 0.9206 0.9204 0.9203
1953.000000 0.9203 0.9208 0.9213 0.9218 0.9223
1958.000000 0.9228 0.9232 0.9239 0.9246 0.9253
1963.000000 0.9260 0.9266 0.9274 0.9281 0.9288
1968.000000 0.9294 0.9299 0.9305 0.9311 0.9317
1973.000000 0.9323 0.9328 0.9334 0.9340 0.9346
1978.000000 0.9351 0.9358 0.9364 0.9370 0.9377
1983.000000 0.9385 0.9392 0.9399 0.9407 0.9414
1988.000000 0.9421 0.9428 0.9435 0.9442 0.9449
1993.000000 0.9454 0.9459 0.9464 0.9469 0.9473
1998.000000 0.9478 0.9483 0.9488 0.9492 0.9497
2003.000000 0.9502 0.9506 0.9511 0.9516 0.9519
2008.000000 0.9521 0.9523 0.9525 0.9528 0.9530
2013.000000 0.9533 0.9535 0.9538 0.9540 0.9542
2018.000000 0.9543 0.9543 0.9544 0.9544 0.9545
2023.000000 0.9553 0.9544 0.9543 0.9541 0.9540
2028.000000 0.9539 0.9539 0.9538 0.9536 0.9536
2033.000000 0.9535 0.9534 0.9533 0.9531 0.9530
2038.000000 0.9529 0.9528 0.9526 0.9524 0.9522
2043.000000 0.9521 0.9519 0.9517 0.9516 0.9514
2048.000000 0.9513 0.9511 0.9509 0.9507 0.9505
2053.000000 0.9502 0.9500 0.9498 0.9495 0.9493
2058.000000 0.9491 0.9488 0.9486 0.9484 0.9481
2063.000000 0.9479 0.9476 0.9473 0.9470 0.9467
2068.000000 0.9464 0.9462 0.9459 0.9456 0.9453
2073.000000 0.9450 0.9448 0.9445 0.9442 0.9438
2078.000000 0.9433 0.9428 0.9423 0.9418 0.9412
2083.000000 0.9407 0.9402 0.9397 0.9392 0.9387
2088.000000 0.9381 0.9376 0.9371 0.9366 0.9361
2093.000000 0.9356 0.9351 0.9347 0.9342 0.9338
2098.000000 0.9333 0.9329 0.9324 0.9320 0.9315
2103.000000 0.9311 0.9307 0.9303 0.9298 0.9294
2108.000000 0.9289 0.9285 0.9280 0.9276 0.9271
2113.000000 0.9267 0.9262 0.9258 0.9253 0.9248
2118.000000 0.9243 0.9238 0.9233 0.9229 0.9224
2123.000000 0.9219 0.9214 0.9209 0.9204 0.9199
2128.000000 0.9194 0.9189 0.9184 0.9179 0.9174
2133.000000 0.9169 0.9164 0.9159 0.9155 0.9150
2138.000000 0.9145 0.9140 0.9136 0.9131 0.9126
2143.000000 0.9121 0.9116 0.9110 0.9104 0.9098
2148.000000 0.9092 0.9086 0.9080 0.9074 0.9068
2153.000000 0.9062 0.9056 0.9051 0.9045 0.9039
2158.000000 0.9033 0.9027 0.9021 0.9015 0.9009
2163.000000 0.9003 0.8997 0.8992 0.8986 0.8980
2168.000000 0.8974 0.8968 0.8962 0.8956 0.8949
2173.000000 0.8941 0.8934 0.8926 0.8919 0.8912
2178.000000 0.8904 0.8897 0.8890 0.8882 0.8875
2183.000000 0.8867 0.8860 0.8853 0.8845 0.8838
2188.000000 0.8831 0.8824 0.8816 0.8809 0.8802
2193.000000 0.8794 0.8787 0.8780 0.8773 0.8765
2198.000000 0.8757 0.8748 0.8737 0.8726 0.8716
2203.000000 0.8706 0.8696 0.8685 0.8674 0.8664
2208.000000 0.8653 0.8643 0.8632 0.8622 0.8611
2213.000000 0.8601 0.8591 0.8582 0.8572 0.8564
2218.000000 0.8555 0.8546 0.8537 0.8528 0.8519
2223.000000 0.8510 0.8501 0.8492 0.8483 0.8474
2228.000000 0.8466 0.8457 0.8448 0.8439 0.8431
2233.000000 0.8422 0.8413 0.8400 0.8387 0.8373
2238.000000 0.8358 0.8343 0.8328 0.8313 0.8298
2243.000000 0.8283 0.8268 0.8253 0.8239 0.8226
2248.000000 0.8213 0.8200 0.8187 0.8175 0.8162
2253.000000 0.8149 0.8136 0.8123 0.8110 0.8097
2258.000000 0.8084 0.8071 0.8059 0.8045 0.8032
2263.000000 0.8018 0.8003 0.7989 0.7975 0.7961
2268.000000 0.7947 0.7933 0.7919 0.7905 0.7891
2273.000000 0.7877 0.7863 0.7848 0.7833 0.7818
2278.000000 0.7800 0.7782 0.7765 0.7747 0.7729
2283.000000 0.7711 0.7694 0.7676 0.7658 0.7640
2288.000000 0.7621 0.7603 0.7583 0.7561 0.7539
2293.000000 0.7517 0.7495 0.7473 0.7451 0.7429
2298.000000 0.7407 0.7385 0.7363 0.7341 0.7319
2303.000000 0.7294 0.7268 0.7243 0.7217 0.7192
2308.000000 0.7168 0.7143 0.7118 0.7098 0.7084
2313.000000 0.7070 0.7057 0.7043 0.7029 0.7016
2318.000000 0.7003 0.6990 0.6979 0.6969 0.6959
2323.000000 0.6950 0.6942 0.6935 0.6929 0.6923
2328.000000 0.6917 0.6911 0.6905 0.6899 0.6893
2333.000000 0.6887 0.6881 0.6875 0.6869 0.6864
2338.000000 0.6860 0.6856 0.6852 0.6848 0.6844
2343.000000 0.6840 0.6836 0.6832 0.6828 0.6824
2348.000000 0.6820 0.6816 0.6812 0.6809 0.6806
2353.000000 0.6803 0.6801 0.6798 0.6795 0.6793
2358.000000 0.6790 0.6787 0.6784 0.6782 0.6780
2363.000000 0.6777 0.6773 0.6769 0.6764 0.6759
2368.000000 0.6754 0.6749 0.6744 0.6738 0.6732
2373.000000 0.6727 0.6721 0.6716 0.6711 0.6705
2378.000000 0.6700 0.6695 0.6690 0.6685 0.6682
2383.000000 0.6678 0.6675 0.6671 0.6668 0.6664
2388.000000 0.6661 0.6658 0.6655 0.6651 0.6648
2393.000000 0.6644 0.6641 0.6638 0.6635 0.6632
2398.000000 0.6629 0.6626 0.6623 0.6620 0.6617
2403.000000 0.6614 0.6611 0.6609 0.6606 0.6606
2408.000000 0.6606 0.6607 0.6608 0.6609 0.6609
2413.000000 0.6609 0.6610 0.6610 0.6611 0.6611
2418.000000 0.6612 0.6612 0.6612 0.6614 0.6616
2423.000000 0.6617 0.6619 0.6584 0.6622 0.6624
2428.000000 0.6626 0.6628 0.6629 0.6631 0.6633
2433.000000 0.6636 0.6639 0.6642 0.6645 0.6649
2438.000000 0.6652 0.6655 0.6659 0.6662 0.6667
2443.000000 0.6673 0.6679 0.6686 0.6692 0.6699
2448.000000 0.6706 0.6712 0.6719 0.6726 0.6732
2453.000000 0.6739 0.6746 0.6752 0.6759 0.6765
2458.000000 0.6772 0.6779 0.6785 0.6792 0.6799
2463.000000 0.6805 0.6812 0.6818 0.6825 0.6832
2468.000000 0.6839 0.6845 0.6850 0.6856 0.6861
2473.000000 0.6867 0.6872 0.6878 0.6883 0.6889
2478.000000 0.6894 0.6899 0.6905 0.6910 0.6916
2483.000000 0.6921 0.6927 0.6932 0.6937 0.6943
2488.000000 0.6948 0.6953 0.6958 0.6964 0.6970
2493.000000 0.6975 0.6981 0.6986 0.6992 0.6998
2498.000000 0.7003 0.7009 0.7016 0.7021 0.7027
2503.000000 0.7032 0.7038 0.7044 0.7050 0.7056
2508.000000 0.7061 0.7067 0.7073 0.7079 0.7084
2513.000000 0.7090 0.7096 0.7102 0.7107 0.7112
2518.000000 0.7116 0.7121 0.7126 0.7130 0.7135
2523.000000 0.7140 0.7145 0.7149 0.7154 0.7159
2528.000000 0.7164 0.7169 0.7174 0.7178 0.7183
2533.000000 0.7188 0.7193 0.7197 0.7202 0.7207
2538.000000 0.7212 0.7218 0.7224 0.7230 0.7235
2543.000000 0.7241 0.7244 0.7246 0.7248 0.7249
2548.000000 0.7250 0.7251 0.7252 0.7253 0.7255
2553.000000 0.7256 0.7257 0.7258 0.7259 0.7260
2558.000000 0.7262 0.7263 0.7264 0.7266 0.7267
2563.000000 0.7269 0.7270 0.7272 0.7273 0.7274
2568.000000 0.7275 0.7276 0.7277 0.7278 0.7278
2573.000000 0.7279 0.7280 0.7281 0.7282 0.7282
2578.000000 0.7283 0.7284 0.7285 0.7285 0.7286
2583.000000 0.7287 0.7288 0.7289 0.7291 0.7293
2588.000000 0.7296 0.7297 0.7299 0.7301 0.7304
2593.000000 0.7307 0.7310 0.7315 0.7319 0.7328
2598.000000 0.7336 0.7345 0.7354 0.7363 0.7375
2603.000000 0.7388 0.7401 0.7414 0.7426 0.7439
2608.000000 0.7456 0.7473 0.7487 0.7497 0.7507
2613.000000 0.7515 0.7521 0.7527 0.7533 0.7540
2618.000000 0.7546 0.7552 0.7558 0.7564 0.7570
2623.000000 0.7576 0.7581 0.7585 0.7589 0.7593
2628.000000 0.7597 0.7601 0.7606 0.7610 0.7614
2633.000000 0.7618 0.7622 0.7626 0.7631 0.7635
2638.000000 0.7639 0.7643 0.7647 0.7651 0.7655
2643.000000 0.7658 0.7661 0.7663 0.7666 0.7668
2648.000000 0.7670 0.7672 0.7674 0.7675 0.7677
2653.000000 0.7679 0.7681 0.7683 0.7685 0.7687
2658.000000 0.7689 0.7690 0.7692 0.7694 0.7696
2663.000000 0.7698 0.7700 0.7702 0.7704 0.7706
2668.000000 0.7707 0.7709 0.7711 0.7713 0.7714
2673.000000 0.7716 0.7718 0.7719 0.7721 0.7722
2678.000000 0.7724 0.7726 0.7728 0.7731 0.7734
2683.000000 0.7741 0.7749 0.7758 0.7768 0.7778
2688.000000 0.7789 0.7799 0.7809 0.7820 0.7830
2693.000000 0.7841 0.7851 0.7863 0.7875 0.7887
2698.000000 0.7899 0.7910 0.7922 0.7934 0.7946
2703.000000 0.7958 0.7971 0.7984 0.7997 0.8010
2708.000000 0.8024 0.8038 0.8051 0.8065 0.8079
2713.000000 0.8092 0.8106 0.8121 0.8135 0.8150
2718.000000 0.8165 0.8179 0.8194 0.8208 0.8221
2723.000000 0.8234 0.8244 0.8253 0.8263 0.8273
2728.000000 0.8282 0.8292 0.8302 0.8311 0.8321
2733.000000 0.8331 0.8341 0.8351 0.8361 0.8371
2738.000000 0.8381 0.8386 0.8390 0.8394 0.8397
2743.000000 0.8400 0.8404 0.8407 0.8410 0.8414
2748.000000 0.8416 0.8419 0.8422 0.8424 0.8426
2753.000000 0.8428 0.8430 0.8432 0.8435 0.8437
2758.000000 0.8439 0.8441 0.8443 0.8445 0.8447
2763.000000 0.8449 0.8451 0.8453 0.8454 0.8456
2768.000000 0.8458 0.8459 0.8461 0.8462 0.8464
2773.000000 0.8466 0.8467 0.8469 0.8471 0.8472
2778.000000 0.8474 0.8475 0.8477 0.8479 0.8479
2783.000000 0.8479 0.8480 0.8480 0.8480 0.8480
2788.000000 0.8480 0.8480 0.8480 0.8478 0.8477
2793.000000 0.8475 0.8497 0.8465 0.8460 0.8454
2798.000000 0.8447 0.8441 0.8435 0.8428 0.8422
2803.000000 0.8415 0.8406 0.8398 0.8389 0.8379
2808.000000 0.8369 0.8358 0.8347 0.8336 0.8324
2813.000000 0.8313 0.8302 0.8291 0.8281 0.8273
2818.000000 0.8264 0.8255 0.8247 0.8238 0.8230
2823.000000 0.8221 0.8213 0.8204 0.8195 0.8187
2828.000000 0.8178 0.8170 0.8161 0.8153 0.8144
2833.000000 0.8136 0.8127 0.8119 0.8111 0.8102
2838.000000 0.8094 0.8085 0.8077 0.8069 0.8060
2843.000000 0.8052 0.8044 0.8035 0.8027 0.8019
2848.000000 0.8012 0.8006 0.8000 0.7994 0.7988
2853.000000 0.7983 0.7977 0.7971 0.7965 0.7958
2858.000000 0.7953 0.7947 0.7941 0.7935 0.7929
2863.000000 0.7923 0.7918 0.7915 0.7911 0.7907
2868.000000 0.7904 0.7901 0.7897 0.7894 0.7890
2873.000000 0.7887 0.7883 0.7880 0.7876 0.7873
2878.000000 0.7869 0.7866 0.7862 0.7860 0.7858
2883.000000 0.7856 0.7854 0.7852 0.7850 0.7848
2888.000000 0.7846 0.7845 0.7843 0.7841 0.7839
2893.000000 0.7837 0.7835 0.7833 0.7831 0.7829
2898.000000 0.7827 0.7826 0.7824 0.7822 0.7820
2903.000000 0.7819 0.7817 0.7816 0.7815 0.7814
2908.000000 0.7813 0.7812 0.7811 0.7810 0.7809
2913.000000 0.7808 0.7807 0.7806 0.7805 0.7804
2918.000000 0.7803 0.7802 0.7801 0.7800 0.7799
2923.000000 0.7798 0.7796 0.7796 0.7795 0.7794
2928.000000 0.7792 0.7791 0.7789 0.7787 0.7785
2933.000000 0.7784 0.7782 0.7780 0.7778 0.7777
2938.000000 0.7775 0.7773 0.7772 0.7770 0.7768
2943.000000 0.7766 0.7765 0.7763 0.7761 0.7759
2948.000000 0.7758 0.7756 0.7754 0.7753 0.7751
2953.000000 0.7749 0.7747 0.7746 0.7744 0.7742
2958.000000 0.7740 0.7738 0.7736 0.7733 0.7731
2963.000000 0.7728 0.7725 0.7722 0.7719 0.7717
2968.000000 0.7714 0.7711 0.7708 0.7705 0.7702
2973.000000 0.7700 0.7697 0.7694 0.7691 0.7689
2978.000000 0.7687 0.7685 0.7683 0.7681 0.7680
2983.000000 0.7678 0.7677 0.7676 0.7675 0.7675
2988.000000 0.7675 0.7676 0.7677 0.7678 0.7678
2993.000000 0.7679 0.7679 0.7680 0.7681 0.7682
2998.000000 0.7696 0.7683 0.7684 0.7684 0.7688
3003.000000 0.7693 0.7698 0.7704 0.7709 0.7714
3008.000000 0.7719 0.7725 0.7730 0.7736 0.7741
3013.000000 0.7749 0.7757 0.7764 0.7772 0.7780
3018.000000 0.7787 0.7795 0.7803 0.7811 0.7819
3023.000000 0.7828 0.7836 0.7844 0.7851 0.7860
3028.000000 0.7869 0.7878 0.7887 0.7897 0.7907
3033.000000 0.7917 0.7927 0.7937 0.7947 0.7957
3038.000000 0.7967 0.7978 0.7989 0.8000 0.8011
3043.000000 0.8023 0.8034 0.8046 0.8057 0.8069
3048.000000 0.8080 0.8092 0.8106 0.8119 0.8133
3053.000000 0.8149 0.8167 0.8186 0.8204 0.8225
3058.000000 0.8248 0.8270 0.8293 0.8358 0.8422
3063.000000 0.8487 0.8545 0.8588 0.8631 0.8674
3068.000000 0.8711 0.8744 0.8777 0.8810 0.8839
3073.000000 0.8867 0.8895 0.8923 0.8949 0.8974
3078.000000 0.9000 0.9029 0.9070 0.9112 0.9153
3083.000000 0.9188 0.9212 0.9236 0.9259 0.9282
3088.000000 0.9302 0.9323 0.9344 0.9362 0.9380
3093.000000 0.9398 0.9416 0.9430 0.9443 0.9457
3098.000000 0.9470 0.9482 0.9494 0.9506 0.9517
3103.000000 0.9523 0.9528 0.9534 0.9540 0.9546
3108.000000 0.9551 0.9557 0.9563 0.9568 0.9574
3113.000000 0.9580 0.9585 0.9591 0.9596 0.9601
3118.000000 0.9607 0.9613 0.9618 0.9624 0.9628
3123.000000 0.9632 0.9636 0.9640 0.9643 0.9646
3128.000000 0.9649 0.9653 0.9656 0.9659 0.9662
3133.000000 0.9665 0.9668 0.9672 0.9675 0.9678
3138.000000 0.9681 0.9684 0.9687 0.9690 0.9694
3143.000000 0.9697 0.9700 0.9703 0.9705 0.9707
3148.000000 0.9708 0.9710 0.9712 0.9714 0.9715
3153.000000 0.9717 0.9719 0.9721 0.9723 0.9724
3158.000000 0.9726 0.9728 0.9730 0.9732 0.9734
3163.000000 0.9736 0.9738 0.9739 0.9741 0.9743
3168.000000 0.9745 0.9746 0.9747 0.9748 0.9749
3173.000000 0.9750 0.9750 0.9750 0.9750 0.9751
3178.000000 0.9751 0.9751 0.9751 0.9752 0.9752
3183.000000 0.9752 0.9752 0.9752 0.9752 0.9752
3188.000000 0.9752 0.9753 0.9753 0.9753 0.9753
3193.000000 0.9752 0.9752 0.9752 0.9752 0.9739
3198.000000 0.9751 0.9750 0.9750 0.9750 0.9749
3203.000000 0.9749 0.9749 0.9749 0.9748 0.9748
3208.000000 0.9748 0.9748 0.9747 0.9747 0.9747
3213.000000 0.9747 0.9746 0.9746 0.9745 0.9745
3218.000000 0.9744 0.9744 0.9744 0.9744 0.9743
3223.000000 0.9743 0.9743 0.9743 0.9742 0.9742
3228.000000 0.9741 0.9740 0.9739 0.9739 0.9738
3233.000000 0.9737 0.9737 0.9736 0.9735 0.9734
3238.000000 0.9734 0.9733 0.9732 0.9732 0.9731
3243.000000 0.9730 0.9729 0.9729 0.9728 0.9727
3248.000000 0.9727 0.9726 0.9725 0.9724 0.9724
3253.000000 0.9723 0.9722 0.9722 0.9721 0.9720
3258.000000 0.9720 0.9719 0.9718 0.9717 0.9717
3263.000000 0.9716 0.9715 0.9715 0.9714 0.9713
3268.000000 0.9712 0.9712 0.9711 0.9710 0.9710
3273.000000 0.9709 0.9708 0.9708 0.9707 0.9706
3278.000000 0.9705 0.9705 0.9704 0.9703 0.9702
3283.000000 0.9701 0.9701 0.9700 0.9699 0.9698
3288.000000 0.9698 0.9697 0.9696 0.9695 0.9694
3293.000000 0.9693 0.9692 0.9692 0.9691 0.9690
3298.000000 0.9690 0.9689 0.9688 0.9688 0.9687
3303.000000 0.9686 0.9685 0.9684 0.9683 0.9682
3308.000000 0.9682 0.9681 0.9680 0.9680 0.9679
3313.000000 0.9678 0.9677 0.9676 0.9675 0.9675
3318.000000 0.9674 0.9673 0.9673 0.9672 0.9671
3323.000000 0.9670 0.9669 0.9668 0.9667 0.9667
3328.000000 0.9666 0.9665 0.9665 0.9664 0.9663
3333.000000 0.9663 0.9662 0.9661 0.9660 0.9659
3338.000000 0.9658 0.9658 0.9657 0.9656 0.9656
3343.000000 0.9655 0.9655 0.9654 0.9654 0.9653
3348.000000 0.9653 0.9652 0.9651 0.9651 0.9650
3353.000000 0.9649 0.9649 0.9648 0.9647 0.9647
3358.000000 0.9646 0.9645 0.9645 0.9644 0.9643
3363.000000 0.9643 0.9642 0.9641 0.9641 0.9641
3368.000000 0.9640 0.9640 0.9639 0.9638 0.9638
3373.000000 0.9637 0.9636 0.9636 0.9635 0.9634
3378.000000 0.9634 0.9633 0.9633 0.9633 0.9633
3383.000000 0.9632 0.9632 0.9632 0.9631 0.9631
3388.000000 0.9630 0.9630 0.9630 0.9630 0.9630
3393.000000 0.9629 0.9629 0.9628 0.9628 0.9627
3398.000000 0.9627 0.9627 0.9627 0.9627 0.9626
3403.000000 0.9626 0.9625 0.9625 0.9624 0.9624
3408.000000 0.9624 0.9624 0.9624 0.9623 0.9623
3413.000000 0.9622 0.9622 0.9622 0.9621 0.9621
3418.000000 0.9621 0.9621 0.9620 0.9620 0.9620
3423.000000 0.9619 0.9619 0.9618 0.9618 0.9618
3428.000000 0.9618 0.9618 0.9617 0.9617 0.9616
3433.000000 0.9616 0.9616 0.9615 0.9615 0.9615
3438.000000 0.9615 0.9614 0.9614 0.9614 0.9613
3443.000000 0.9613 0.9612 0.9612 0.9612 0.9612
3448.000000 0.9612 0.9611 0.9611 0.9610 0.9610
3453.000000 0.9610 0.9609 0.9609 0.9609 0.9609
3458.000000 0.9608 0.9608 0.9608 0.9607 0.9607
3463.000000 0.9606 0.9606 0.9606 0.9606 0.9606
3468.000000 0.9605 0.9605 0.9604 0.9604 0.9604
3473.000000 0.9603 0.9603 0.9602 0.9602 0.9602
3478.000000 0.9601 0.9601 0.9601 0.9601 0.9600
3483.000000 0.9600 0.9600 0.9599 0.9599 0.9598
3488.000000 0.9598 0.9598 0.9598 0.9598 0.9597
3493.000000 0.9597 0.9597 0.9596 0.9596 0.9595
3498.000000 0.9595 0.9595 0.9595 0.9595 0.9594
3503.000000 0.9594 0.9593 0.9593 0.9593 0.9592
3508.000000 0.9592 0.9592 0.9592 0.9592 0.9591
3513.000000 0.9590 0.9589 0.9588 0.9588 0.9587
3518.000000 0.9586 0.9585 0.9584 0.9583 0.9582
3523.000000 0.9581 0.9580 0.9579 0.9579 0.9578
3528.000000 0.9577 0.9576 0.9575 0.9575 0.9574
3533.000000 0.9573 0.9572 0.9571 0.9570 0.9569
3538.000000 0.9568 0.9567 0.9566 0.9566 0.9565
3543.000000 0.9564 0.9563 0.9562 0.9561 0.9559
3548.000000 0.9558 0.9557 0.9556 0.9555 0.9553
3553.000000 0.9552 0.9550 0.9548 0.9547 0.9545
3558.000000 0.9544 0.9542 0.9540 0.9539 0.9537
3563.000000 0.9536 0.9534 0.9533 0.9531 0.9529
3568.000000 0.9528 0.9526 0.9525 0.9523 0.9522
3573.000000 0.9520 0.9518 0.9517 0.9515 0.9514
3578.000000 0.9512 0.9511 0.9509 0.9508 0.9506
3583.000000 0.9504 0.9503 0.9501 0.9500 0.9498
3588.000000 0.9497 0.9495 0.9494 0.9492 0.9490
3593.000000 0.9489 0.9488 0.9487 0.9486 0.9485
3598.000000 0.9484 0.9483 0.9482 0.9481 0.9480
3603.000000 0.9479 0.9478 0.9477 0.9476 0.9475
3608.000000 0.9474 0.9473 0.9473 0.9472 0.9471
3613.000000 0.9470 0.9469 0.9468 0.9467 0.9466
3618.000000 0.9465 0.9465 0.9464 0.9463 0.9462
3623.000000 0.9462 0.9461 0.9460 0.9459 0.9458
3628.000000 0.9457 0.9456 0.9455 0.9455 0.9454
3633.000000 0.9453 0.9452 0.9451 0.9450 0.9449
3638.000000 0.9448 0.9448 0.9447 0.9447 0.9446
3643.000000 0.9446 0.9446 0.9445 0.9445 0.9444
3648.000000 0.9444 0.9444 0.9443 0.9443 0.9443
3653.000000 0.9443 0.9443 0.9442 0.9442 0.9442
3658.000000 0.9441 0.9441 0.9441 0.9440 0.9440
3663.000000 0.9440 0.9440 0.9440 0.9439 0.9439
3668.000000 0.9439 0.9438 0.9438 0.9438 0.9437
3673.000000 0.9437 0.9436 0.9436 0.9436 0.9435
3678.000000 0.9435 0.9435 0.9435 0.9435 0.9434
3683.000000 0.9434 0.9434 0.9433 0.9433 0.9433
3688.000000 0.9432 0.9432 0.9432 0.9431 0.9431
3693.000000 0.9430 0.9430 0.9430 0.9430 0.9430
3698.000000 0.9430 0.9429 0.9429 0.9428 0.9428
3703.000000 0.9428 0.9427 0.9427 0.9427 0.9426
3708.000000 0.9426 0.9426 0.9425 0.9425 0.9424
3713.000000 0.9423 0.9423 0.9422 0.9422 0.9421
3718.000000 0.9420 0.9419 0.9419 0.9418 0.9417
3723.000000 0.9416 0.9415 0.9414 0.9413 0.9413
3728.000000 0.9412 0.9411 0.9410 0.9410 0.9409
3733.000000 0.9408 0.9407 0.9406 0.9405 0.9404
3738.000000 0.9404 0.9403 0.9402 0.9402 0.9401
3743.000000 0.9400 0.9399 0.9398 0.9397 0.9397
3748.000000 0.9396 0.9395 0.9394 0.9393 0.9392
3753.000000 0.9391 0.9390 0.9389 0.9389 0.9388
3758.000000 0.9387 0.9386 0.9385 0.9384 0.9383
3763.000000 0.9382 0.9381 0.9380 0.9378 0.9377
3768.000000 0.9376 0.9375 0.9373 0.9372 0.9371
3773.000000 0.9370 0.9369 0.9368 0.9367 0.9366
3778.000000 0.9365 0.9363 0.9362 0.9361 0.9360
3783.000000 0.9359 0.9358 0.9357 0.9355 0.9354
3788.000000 0.9353 0.9352 0.9351 0.9350 0.9349
3793.000000 0.9348 0.9347 0.9346 0.9345 0.9343
3798.000000 0.9342 0.9341 0.9340 0.9339 0.9338
3803.000000 0.9337 0.9336 0.9335 0.9334 0.9333
3808.000000 0.9332 0.9331 0.9330 0.9328 0.9327
3813.000000 0.9326 0.9325 0.9324 0.9323 0.9322
3818.000000 0.9321 0.9320 0.9319 0.9318 0.9317
3823.000000 0.9316 0.9315 0.9314 0.9313 0.9312
3828.000000 0.9311 0.9310 0.9309 0.9308 0.9307
3833.000000 0.9306 0.9305 0.9304 0.9303 0.9302
3838.000000 0.9301 0.9300 0.9299 0.9298 0.9297
3843.000000 0.9296 0.9295 0.9294 0.9293 0.9292
3848.000000 0.9291 0.9290 0.9289 0.9288 0.9287
3853.000000 0.9286 0.9285 0.9284 0.9283 0.9282
3858.000000 0.9281 0.9280 0.9279 0.9278 0.9276
3863.000000 0.9275 0.9274 0.9273 0.9272 0.9271
3868.000000 0.9270 0.9269 0.9268 0.9267 0.9266
3873.000000 0.9265 0.9264 0.9263 0.9262 0.9261
3878.000000 0.9260 0.9259 0.9258 0.9257 0.9256
3883.000000 0.9255 0.9254 0.9254 0.9253 0.9252
3888.000000 0.9251 0.9250 0.9249 0.9248 0.9247
3893.000000 0.9246 0.9245 0.9244 0.9243 0.9242
3898.000000 0.9241 0.9240 0.9239 0.9238 0.9237
3903.000000 0.9236 0.9235 0.9234 0.9233 0.9232
3908.000000 0.9231 0.9230 0.9229 0.9228 0.9227
3913.000000 0.9226 0.9225 0.9224 0.9223 0.9222
3918.000000 0.9221 0.9220 0.9219 0.9218 0.9217
3923.000000 0.9216 0.9215 0.9214 0.9213 0.9212
3928.000000 0.9211 0.9210 0.9209 0.9208 0.9207
3933.000000 0.9206 0.9205 0.9204 0.9203 0.9203
3938.000000 0.9202 0.9201 0.9200 0.9199 0.9198
3943.000000 0.9197 0.9196 0.9195 0.9194 0.9193
3948.000000 0.9192 0.9191 0.9190 0.9189 0.9188
3953.000000 0.9187 0.9186 0.9185 0.9184 0.9183
3958.000000 0.9182 0.9181 0.9180 0.9179 0.9178
3963.000000 0.9178 0.9177 0.9176 0.9175 0.9174
3968.000000 0.9173 0.9172 0.9171 0.9170 0.9169
3973.000000 0.9168 0.9167 0.9166 0.9165 0.9165
3978.000000 0.9164 0.9163 0.9162 0.9161 0.9160
3983.000000 0.9160 0.9159 0.9158 0.9157 0.9156
3988.000000 0.9155 0.9154 0.9153 0.9152 0.9151
3993.000000 0.9150 0.9149 0.9148 0.9147 0.9146
3998.000000 0.9145 0.9144 0.9144
##END=
