##TITLE=TITANIUM CALCIUM (RUTILE)
##JCAMP-DX=4.24
##DATA TYPE=INFRARED SPECTRUM
##CLASS=COBLENTZ
##ORIGIN=DESOTO CHEMICAL COATINGS, INC.
##OWNER=COBLENTZ SOCIETY
Collection (C) 2018 copyright by the U.S. Secretary of Commerce
on behalf of the United States of America. All rights reserved.
##DATE=Not specified, most likely prior to 1970
##MOLFORM=Ti O2  * Ca S O4
$$ TiO2 MORE THAN 49%, CaSO4 LESS THAN 51%
##SOURCE REFERENCE=COBLENTZ NO. 4653
##$NIST ID=B6004653
##$NIST SOURCE=COBLENTZ
##$NIST IMAGE=cob4653
##SPECTROMETER/DATA SYSTEM=Not specified, most likely a grating spectrometer.
##STATE=SOLID (0.5 mg / 300 mg CsI PELLET)
##SAMPLING PROCEDURE=TRANSMISSION
##RESOLUTION=4
##DATA PROCESSING=DIGITIZED BY NIST FROM HARD COPY (FROM TWO SEGMENTS)
##XUNITS=1/CM
##YUNITS=TRANSMITTANCE
##XFACTOR=1.000000
##YFACTOR=1
##DELTAX=1.329397
##FIRSTX=200
##LASTX=3980.81
##FIRSTY=0.7
##MAXX=3980.81
##MINX=200
##MAXY=0.959
##MINY=0.116001
##NPOINTS=2845
##XYDATA=(X++(Y..Y))
200.000000 0.7000 0.7020 0.7020 0.7000 0.7020
206.646985 0.7020 0.7030 0.7030 0.7030 0.7040
213.293970 0.7040 0.7040 0.7040 0.7040 0.7040
219.940955 0.7060 0.7070 0.7070 0.7080 0.7100
226.587940 0.7100 0.7110 0.7110 0.7110 0.7100
233.234924 0.7100 0.7080 0.7070 0.7040 0.7020
239.881909 0.7000 0.6960 0.6900 0.6830 0.6780
246.528894 0.6750 0.6740 0.6710 0.6700 0.6680
253.175879 0.6590 0.6560 0.6540 0.6480 0.6440
259.822864 0.6360 0.6151 0.5911 0.5592 0.5421
266.469849 0.5300 0.5190 0.5110 0.4970 0.4840
273.116834 0.4730 0.4690 0.4630 0.4600 0.4570
279.763819 0.4550 0.4520 0.4510 0.4490 0.4480
286.410804 0.4430 0.4400 0.4370 0.4290 0.4240
293.057788 0.4200 0.4150 0.4130 0.4110 0.4080
299.704773 0.4050 0.4030 0.4010 0.4000 0.3990
306.351758 0.3960 0.3950 0.3920 0.3920 0.3910
312.998743 0.3890 0.3880 0.3880 0.3870 0.3870
319.645728 0.3850 0.3840 0.3830 0.3830 0.3810
326.292713 0.3810 0.3810 0.3810 0.3800 0.3800
332.939698 0.3800 0.3800 0.3800 0.3800 0.3790
339.586683 0.3790 0.3790 0.3790 0.3790 0.3790
346.233668 0.3800 0.3800 0.3800 0.3810 0.3830
352.880652 0.3840 0.3850 0.3850 0.3870 0.3890
359.527637 0.3920 0.3990 0.4130 0.4280 0.4390
366.174622 0.4490 0.4639 0.4769 0.4869 0.4920
372.821607 0.4960 0.4990 0.5000 0.4970 0.4970
379.468592 0.4950 0.4830 0.4790 0.4720 0.4640
386.115577 0.4590 0.4480 0.4410 0.4320 0.4250
392.762562 0.4230 0.4170 0.4160 0.4130 0.4110
399.409547 0.4090 0.4080 0.4070 0.4070 0.4070
406.056532 0.4080 0.4090 0.4120 0.4130 0.4160
412.703516 0.4200 0.4230 0.4240 0.4280 0.4320
419.350501 0.4330 0.4350 0.4390 0.4410 0.4480
425.997486 0.4520 0.4610 0.4680 0.4710 0.4830
432.644471 0.4920 0.4990 0.5000 0.5020 0.5080
439.291456 0.5110 0.5190 0.5280 0.5340 0.5380
445.938441 0.5430 0.5430 0.5460 0.5480 0.5500
452.585426 0.5540 0.5550 0.5560 0.5560 0.5550
459.232411 0.5520 0.5480 0.5440 0.5430 0.5420
465.879396 0.5390 0.5360 0.5320 0.5300 0.5240
472.526380 0.5220 0.5220 0.5200 0.5200 0.5190
479.173365 0.5180 0.5150 0.5110 0.5080 0.4990
485.820350 0.4950 0.4920 0.4890 0.4890 0.4880
492.467335 0.4850 0.4810 0.4800 0.4800 0.4800
499.114320 0.4770 0.4750 0.4720 0.4690 0.4690
505.761305 0.4680 0.4680 0.4650 0.4630 0.4600
512.408290 0.4570 0.4550 0.4530 0.4520 0.4520
519.055275 0.4520 0.4530 0.4530 0.4530 0.4530
525.702260 0.4530 0.4530 0.4550 0.4550 0.4550
532.349244 0.4560 0.4570 0.4570 0.4590 0.4600
538.996229 0.4610 0.4630 0.4640 0.4670 0.4670
545.643214 0.4670 0.4670 0.4680 0.4690 0.4720
552.290199 0.4760 0.4770 0.4770 0.4770 0.4770
558.937184 0.4790 0.4790 0.4790 0.4800 0.4800
565.584169 0.4810 0.4830 0.4830 0.4830 0.4840
572.231154 0.4850 0.4870 0.4870 0.4880 0.4880
578.878139 0.4880 0.4880 0.4880 0.4880 0.4880
585.525124 0.4880 0.4880 0.4880 0.4850 0.4830
592.172108 0.4391 0.3683 0.3162 0.2951 0.2950
598.819093 0.3360 0.3810 0.4030 0.4160 0.4290
605.466078 0.4320 0.4350 0.4310 0.4201 0.3713
612.113063 0.3290 0.3110 0.3000 0.3000 0.3120
618.760048 0.3230 0.3350 0.3748 0.4238 0.4280
625.407033 0.4330 0.4390 0.4480 0.4490 0.4530
632.054018 0.4570 0.4610 0.4630 0.4650 0.4670
638.701003 0.4670 0.4680 0.4690 0.4710 0.4730
645.347988 0.4750 0.4760 0.4790 0.4800 0.4800
651.994972 0.4810 0.4830 0.4830 0.4840 0.4850
658.641957 0.4880 0.4880 0.4890 0.4910 0.4920
665.288942 0.4920 0.4890 0.4880 0.4840 0.4790
671.935927 0.3893 0.3133 0.2831 0.2561 0.2560
678.582912 0.2810 0.3050 0.3410 0.3829 0.4239
685.229897 0.4489 0.4689 0.4800 0.4909 0.4990
691.876882 0.5040 0.5080 0.5190 0.5200 0.5240
698.523867 0.5280 0.5300 0.5340 0.5390 0.5430
705.170852 0.5470 0.5480 0.5500 0.5520 0.5550
711.817836 0.5580 0.5600 0.5630 0.5680 0.5700
718.464821 0.5710 0.5740 0.5750 0.5780 0.5800
725.111806 0.5820 0.5840 0.5860 0.5880 0.5900
731.758791 0.5940 0.5980 0.6000 0.6030 0.6040
738.405776 0.6070 0.6100 0.6140 0.6150 0.6180
745.052761 0.6190 0.6200 0.6220 0.6230 0.6240
751.699746 0.6280 0.6320 0.6360 0.6380 0.6400
758.346731 0.6430 0.6460 0.6500 0.6520 0.6560
764.993716 0.6590 0.6630 0.6680 0.6710 0.6780
771.640700 0.6830 0.6880 0.6940 0.6960 0.6990
778.287685 0.7020 0.7070 0.7110 0.7180 0.7240
784.934670 0.7300 0.7380 0.7390 0.7440 0.7500
791.581655 0.7570 0.7590 0.7690 0.7740 0.7750
798.228640 0.7780 0.7810 0.7890 0.7930 0.7980
804.875625 0.8030 0.8090 0.8110 0.8180 0.8220
811.522610 0.8250 0.8340 0.8450 0.8470 0.8490
818.169595 0.8500 0.8540 0.8580 0.8590 0.8650
824.816580 0.8690 0.8730 0.8780 0.8790 0.8810
831.463564 0.8850 0.8890 0.8900 0.8900 0.8910
838.110549 0.8940 0.8980 0.8990 0.9010 0.9010
844.757534 0.9030 0.9030 0.9030 0.9050 0.9060
851.404519 0.9090 0.9100 0.9130 0.9150 0.9170
858.051504 0.9180 0.9180 0.9180 0.9180 0.9180
864.698489 0.9180 0.9180 0.9180 0.9190 0.9190
871.345474 0.9190 0.9210 0.9230 0.9270 0.9270
877.992459 0.9290 0.9300 0.9300 0.9300 0.9300
884.639443 0.9300 0.9300 0.9300 0.9300 0.9300
891.286428 0.9300 0.9300 0.9300 0.9310 0.9310
897.933413 0.9310 0.9310 0.9330 0.9350 0.9350
904.580398 0.9350 0.9350 0.9350 0.9350 0.9370
911.227383 0.9380 0.9380 0.9390 0.9410 0.9410
917.874368 0.9410 0.9410 0.9420 0.9430 0.9430
924.521353 0.9430 0.9450 0.9450 0.9450 0.9460
931.168338 0.9460 0.9460 0.9460 0.9460 0.9460
937.815323 0.9460 0.9470 0.9470 0.9470 0.9470
944.462307 0.9470 0.9470 0.9470 0.9470 0.9470
951.109292 0.9470 0.9490 0.9490 0.9490 0.9500
957.756277 0.9500 0.9500 0.9500 0.9500 0.9490
964.403262 0.9470 0.9470 0.9470 0.9470 0.9490
971.050247 0.9500 0.9500 0.9500 0.9500 0.9500
977.697232 0.9500 0.9500 0.9500 0.9500 0.9500
984.344217 0.9500 0.9500 0.9500 0.9500 0.9510
990.991202 0.9510 0.9510 0.9500 0.9500 0.9500
997.638187 0.9500 0.9490 0.9490 0.9490 0.9490
1004.285171 0.9470 0.9450 0.9450 0.9450 0.9450
1010.932156 0.9450 0.9450 0.9450 0.9450 0.9430
1017.579141 0.9410 0.9380 0.9370 0.9370 0.9380
1024.226126 0.9380 0.9390 0.9390 0.9390 0.9410
1030.873111 0.9410 0.9390 0.9390 0.9390 0.9380
1037.520096 0.9380 0.9380 0.9380 0.9380 0.9370
1044.167081 0.9370 0.9370 0.9370 0.9350 0.9350
1050.814066 0.9350 0.9370 0.9370 0.9350 0.9350
1057.461051 0.9350 0.9340 0.9330 0.9310 0.9300
1064.108035 0.9300 0.9290 0.9270 0.9270 0.9270
1070.755020 0.9260 0.9250 0.9250 0.9250 0.9230
1077.402005 0.9210 0.9190 0.9180 0.9150 0.9110
1084.048990 0.9070 0.9050 0.9020 0.9010 0.8990
1090.695975 0.8980 0.8890 0.8820 0.8780 0.8730
1097.342960 0.8610 0.8470 0.7444 0.7241 0.6802
1103.989945 0.6320 0.6100 0.5720 0.5400 0.4601
1110.636930 0.4091 0.3552 0.3211 0.2563 0.2381
1117.283915 0.2220 0.2080 0.1920 0.1900 0.1920
1123.930899 0.1970 0.2050 0.2279 0.2409 0.2529
1130.577884 0.2800 0.3110 0.3210 0.3290 0.3390
1137.224869 0.3410 0.3480 0.3510 0.3510 0.3490
1143.871854 0.3390 0.3210 0.3010 0.2460 0.2041
1150.518839 0.1691 0.1521 0.1321 0.1181 0.1170
1157.165824 0.1160 0.1170 0.1180 0.1290 0.1410
1163.812809 0.1580 0.1819 0.1999 0.2050 0.2249
1170.459794 0.2490 0.2530 0.2570 0.2610 0.2690
1177.106779 0.2730 0.2790 0.2880 0.2999 0.3199
1183.753763 0.3390 0.3600 0.3800 0.4040 0.4310
1190.400748 0.4689 0.4889 0.5099 0.5299 0.5579
1197.047733 0.5900 0.6160 0.6580 0.6980 0.7260
1203.694718 0.7420 0.7580 0.7670 0.7789 0.7989
1210.341703 0.8180 0.8290 0.8350 0.8500 0.8530
1216.988688 0.8590 0.8650 0.8690 0.8730 0.8750
1223.635673 0.8790 0.8830 0.8850 0.8890 0.8930
1230.282658 0.8980 0.8990 0.9030 0.9060 0.9070
1236.929643 0.9090 0.9090 0.9110 0.9130 0.9140
1243.576627 0.9150 0.9180 0.9180 0.9180 0.9190
1250.223612 0.9210 0.9210 0.9250 0.9260 0.9270
1256.870597 0.9290 0.9310 0.9330 0.9340 0.9340
1263.517582 0.9350 0.9370 0.9370 0.9370 0.9370
1270.164567 0.9370 0.9370 0.9380 0.9380 0.9380
1276.811552 0.9380 0.9380 0.9390 0.9390 0.9390
1283.458537 0.9390 0.9390 0.9410 0.9410 0.9410
1290.105522 0.9410 0.9420 0.9430 0.9450 0.9450
1296.752507 0.9450 0.9450 0.9460 0.9460 0.9460
1303.399491 0.9460 0.9470 0.9470 0.9490 0.9490
1310.046476 0.9490 0.9490 0.9500 0.9500 0.9500
1316.693461 0.9500 0.9500 0.9500 0.9500 0.9510
1323.340446 0.9510 0.9510 0.9510 0.9510 0.9510
1329.987431 0.9510 0.9510 0.9530 0.9530 0.9530
1336.634416 0.9540 0.9550 0.9550 0.9550 0.9540
1343.281401 0.9540 0.9540 0.9530 0.9530 0.9530
1349.928386 0.9530 0.9530 0.9530 0.9530 0.9530
1356.575371 0.9530 0.9540 0.9540 0.9540 0.9540
1363.222355 0.9540 0.9540 0.9540 0.9540 0.9540
1369.869340 0.9540 0.9540 0.9540 0.9540 0.9540
1376.516325 0.9540 0.9540 0.9540 0.9540 0.9540
1383.163310 0.9540 0.9540 0.9550 0.9550 0.9550
1389.810295 0.9550 0.9550 0.9550 0.9540 0.9540
1396.457280 0.9540 0.9540 0.9540 0.9530 0.9530
1403.104265 0.9530 0.9510 0.9510 0.9530 0.9540
1409.751250 0.9540 0.9550 0.9550 0.9570 0.9550
1416.398235 0.9540 0.9540 0.9530 0.9530 0.9530
1423.045219 0.9530 0.9540 0.9540 0.9550 0.9550
1429.692204 0.9550 0.9550 0.9550 0.9540 0.9540
1436.339189 0.9540 0.9530 0.9530 0.9510 0.9510
1442.986174 0.9540 0.9540 0.9540 0.9540 0.9540
1449.633159 0.9540 0.9540 0.9530 0.9530 0.9540
1456.280144 0.9540 0.9540 0.9530 0.9510 0.9510
1462.927129 0.9500 0.9500 0.9500 0.9500 0.9500
1469.574114 0.9500 0.9510 0.9510 0.9530 0.9530
1476.221099 0.9530 0.9540 0.9540 0.9540 0.9550
1482.868083 0.9580 0.9580 0.9580 0.9590 0.9590
1489.515068 0.9580 0.9580 0.9570 0.9570 0.9580
1496.162053 0.9580 0.9580 0.9590 0.9590 0.9590
1502.809038 0.9580 0.9580 0.9580 0.9580 0.9570
1509.456023 0.9550 0.9540 0.9540 0.9540 0.9540
1516.103008 0.9540 0.9550 0.9550 0.9550 0.9570
1522.749993 0.9570 0.9570 0.9570 0.9570 0.9550
1529.396978 0.9550 0.9550 0.9550 0.9540 0.9540
1536.043963 0.9530 0.9530 0.9530 0.9530 0.9510
1542.690947 0.9510 0.9510 0.9510 0.9510 0.9510
1549.337932 0.9510 0.9500 0.9500 0.9500 0.9500
1555.984917 0.9500 0.9490 0.9490 0.9470 0.9470
1562.631902 0.9460 0.9460 0.9450 0.9450 0.9450
1569.278887 0.9430 0.9420 0.9410 0.9410 0.9410
1575.925872 0.9410 0.9410 0.9390 0.9380 0.9370
1582.572857 0.9370 0.9350 0.9340 0.9300 0.9290
1589.219842 0.9260 0.9230 0.9210 0.9210 0.9180
1595.866827 0.9170 0.9140 0.9100 0.9090 0.9070
1602.513811 0.9050 0.9030 0.9010 0.8970 0.8950
1609.160796 0.8930 0.8930 0.8830 0.8810 0.8790
1615.807781 0.8780 0.8780 0.8780 0.8780 0.8780
1622.454766 0.8780 0.8780 0.8780 0.8790 0.8790
1629.101751 0.8810 0.8820 0.8860 0.8890 0.8940
1635.748736 0.8950 0.8970 0.8980 0.8990 0.9010
1642.395721 0.9020 0.9060 0.9090 0.9100 0.9110
1649.042706 0.9110 0.9130 0.9140 0.9140 0.9140
1655.689691 0.9140 0.9140 0.9140 0.9150 0.9150
1662.336675 0.9190 0.9210 0.9210 0.9210 0.9210
1668.983660 0.9220 0.9250 0.9250 0.9260 0.9290
1675.630645 0.9290 0.9290 0.9310 0.9330 0.9340
1682.277630 0.9350 0.9370 0.9370 0.9370 0.9370
1688.924615 0.9370 0.9380 0.9390 0.9410 0.9410
1695.571600 0.9410 0.9410 0.9420 0.9430 0.9430
1702.218585 0.9430 0.9430 0.9430 0.9430 0.9430
1708.865570 0.9430 0.9430 0.9430 0.9430 0.9430
1715.512555 0.9430 0.9430 0.9430 0.9430 0.9430
1722.159539 0.9430 0.9430 0.9430 0.9450 0.9450
1728.806524 0.9460 0.9460 0.9470 0.9470 0.9470
1735.453509 0.9470 0.9470 0.9470 0.9470 0.9470
1742.100494 0.9470 0.9470 0.9490 0.9490 0.9490
1748.747479 0.9490 0.9500 0.9510 0.9510 0.9510
1755.394464 0.9510 0.9530 0.9530 0.9530 0.9530
1762.041449 0.9530 0.9540 0.9540 0.9540 0.9540
1768.688434 0.9540 0.9550 0.9540 0.9540 0.9540
1775.335419 0.9540 0.9530 0.9530 0.9530 0.9530
1781.982403 0.9540 0.9540 0.9540 0.9540 0.9540
1788.629388 0.9540 0.9540 0.9540 0.9540 0.9540
1795.276373 0.9540 0.9530 0.9530 0.9530 0.9540
1801.923358 0.9540 0.9540 0.9540 0.9550 0.9550
1808.570343 0.9550 0.9550 0.9550 0.9550 0.9550
1815.217328 0.9550 0.9550 0.9550 0.9550 0.9570
1821.864313 0.9570 0.9570 0.9570 0.9570 0.9570
1828.511298 0.9570 0.9570 0.9550 0.9540 0.9540
1835.158283 0.9540 0.9530 0.9510 0.9510 0.9510
1841.805267 0.9530 0.9530 0.9530 0.9540 0.9540
1848.452252 0.9540 0.9540 0.9540 0.9550 0.9550
1855.099237 0.9550 0.9550 0.9550 0.9550 0.9550
1861.746222 0.9540 0.9540 0.9530 0.9530 0.9530
1868.393207 0.9510 0.9510 0.9510 0.9500 0.9500
1875.040192 0.9500 0.9510 0.9510 0.9530 0.9500
1881.687177 0.9500 0.9500 0.9500 0.9500 0.9500
1888.334162 0.9500 0.9500 0.9500 0.9500 0.9500
1894.981147 0.9500 0.9500 0.9510 0.9510 0.9510
1901.628131 0.9510 0.9530 0.9530 0.9530 0.9530
1908.275116 0.9530 0.9510 0.9500 0.9500 0.9500
1914.922101 0.9500 0.9500 0.9490 0.9490 0.9490
1921.569086 0.9490 0.9500 0.9500 0.9500 0.9500
1928.216071 0.9490 0.9490 0.9490 0.9490 0.9490
1934.863056 0.9490 0.9490 0.9500 0.9490 0.9490
1941.510041 0.9490 0.9490 0.9490 0.9490 0.9490
1948.157026 0.9490 0.9490 0.9490 0.9490 0.9490
1954.804011 0.9490 0.9470 0.9470 0.9470 0.9470
1961.450995 0.9470 0.9470 0.9470 0.9470 0.9470
1968.097980 0.9470 0.9470 0.9470 0.9490 0.9490
1974.744965 0.9490 0.9490 0.9490 0.9470 0.9470
1981.391950 0.9470 0.9470 0.9470 0.9470 0.9470
1988.038935 0.9460 0.9450 0.9450 0.9450 0.9470
1994.685920 0.9470 0.9490 0.9490 0.9490 0.9490
2001.332905 0.9480 0.9470 0.9465 0.9460 0.9460
2007.979890 0.9460 0.9440 0.9420 0.9415 0.9410
2014.626875 0.9400 0.9390 0.9390 0.9390 0.9390
2021.273859 0.9390 0.9385 0.9380 0.9380 0.9380
2027.920844 0.9380 0.9380 0.9380 0.9380 0.9380
2034.567829 0.9380 0.9380 0.9380 0.9380 0.9380
2041.214814 0.9375 0.9370 0.9370 0.9370 0.9360
2047.861799 0.9350 0.9345 0.9340 0.9340 0.9340
2054.508784 0.9335 0.9330 0.9330 0.9330 0.9330
2061.155769 0.9330 0.9330 0.9330 0.9330 0.9330
2067.802754 0.9320 0.9310 0.9310 0.9310 0.9310
2074.449739 0.9310 0.9310 0.9310 0.9310 0.9311
2081.096723 0.9321 0.9330 0.9330 0.9330 0.9330
2087.743708 0.9329 0.9319 0.9310 0.9310 0.9310
2094.390693 0.9310 0.9310 0.9310 0.9310 0.9310
2101.037678 0.9310 0.9305 0.9300 0.9295 0.9290
2107.684663 0.9290 0.9290 0.9290 0.9290 0.9290
2114.331648 0.9290 0.9290 0.9290 0.9290 0.9289
2120.978633 0.9279 0.9270 0.9270 0.9270 0.9265
2127.625618 0.9260 0.9260 0.9260 0.9255 0.9249
2134.272603 0.9239 0.9230 0.9230 0.9229 0.9224
2140.919587 0.9219 0.9214 0.9210 0.9210 0.9210
2147.566572 0.9210 0.9209 0.9199 0.9190 0.9190
2154.213557 0.9190 0.9190 0.9190 0.9190 0.9190
2160.860542 0.9190 0.9191 0.9201 0.9210 0.9210
2167.507527 0.9210 0.9210 0.9211 0.9216 0.9221
2174.154512 0.9226 0.9231 0.9241 0.9250 0.9250
2180.801497 0.9251 0.9256 0.9260 0.9260 0.9260
2187.448482 0.9260 0.9259 0.9254 0.9250 0.9250
2194.095466 0.9250 0.9250 0.9250 0.9250 0.9250
2200.742451 0.9250 0.9250 0.9250 0.9250 0.9250
2207.389436 0.9250 0.9250 0.9250 0.9250 0.9248
2214.036421 0.9238 0.9229 0.9224 0.9220 0.9220
2220.683406 0.9220 0.9220 0.9221 0.9226 0.9229
2227.330391 0.9224 0.9219 0.9214 0.9210 0.9210
2233.977376 0.9210 0.9210 0.9210 0.9210 0.9210
2240.624361 0.9210 0.9208 0.9198 0.9190 0.9190
2247.271346 0.9192 0.9202 0.9210 0.9210 0.9210
2253.918330 0.9210 0.9210 0.9210 0.9208 0.9198
2260.565315 0.9190 0.9190 0.9190 0.9190 0.9190
2267.212300 0.9190 0.9190 0.9190 0.9190 0.9190
2273.859285 0.9190 0.9190 0.9192 0.9202 0.9211
2280.506270 0.9216 0.9221 0.9226 0.9230 0.9230
2287.153255 0.9228 0.9218 0.9210 0.9210 0.9210
2293.800240 0.9210 0.9208 0.9198 0.9190 0.9190
2300.447225 0.9190 0.9190 0.9190 0.9190 0.9190
2307.094210 0.9190 0.9190 0.9190 0.9189 0.9184
2313.741194 0.9180 0.9180 0.9180 0.9180 0.9180
2320.388179 0.9180 0.9180 0.9180 0.9180 0.9180
2327.035164 0.9180 0.9180 0.9180 0.9180 0.9176
2333.682149 0.9161 0.9148 0.9138 0.9130 0.9130
2340.329134 0.9128 0.9118 0.9109 0.9104 0.9100
2346.976119 0.9100 0.9100 0.9100 0.9099 0.9094
2353.623104 0.9090 0.9090 0.9090 0.9090 0.9091
2360.270089 0.9096 0.9101 0.9106 0.9110 0.9110
2366.917074 0.9110 0.9110 0.9110 0.9110 0.9110
2373.564058 0.9110 0.9110 0.9110 0.9109 0.9104
2380.211043 0.9100 0.9100 0.9100 0.9100 0.9101
2386.858028 0.9106 0.9110 0.9110 0.9113 0.9123
2393.505013 0.9130 0.9130 0.9131 0.9137 0.9140
2400.151998 0.9140 0.9142 0.9147 0.9153 0.9163
2406.798983 0.9172 0.9177 0.9180 0.9180 0.9180
2413.445968 0.9180 0.9180 0.9180 0.9180 0.9180
2420.092953 0.9182 0.9187 0.9190 0.9190 0.9188
2426.739938 0.9183 0.9180 0.9180 0.9178 0.9173
2433.386922 0.9170 0.9170 0.9167 0.9157 0.9150
2440.033907 0.9150 0.9150 0.9150 0.9150 0.9150
2446.680892 0.9150 0.9150 0.9150 0.9150 0.9150
2453.327877 0.9150 0.9150 0.9150 0.9150 0.9150
2459.974862 0.9150 0.9150 0.9150 0.9150 0.9150
2466.621847 0.9150 0.9150 0.9150 0.9150 0.9150
2473.268832 0.9150 0.9150 0.9148 0.9143 0.9142
2479.915817 0.9147 0.9150 0.9150 0.9146 0.9136
2486.562802 0.9126 0.9116 0.9110 0.9110 0.9110
2493.209786 0.9110 0.9110 0.9110 0.9110 0.9110
2499.856771 0.9110 0.9110 0.9110 0.9110 0.9110
2506.503756 0.9110 0.9114 0.9124 0.9132 0.9137
2513.150741 0.9140 0.9140 0.9140 0.9140 0.9140
2519.797726 0.9140 0.9138 0.9133 0.9130 0.9130
2526.444711 0.9126 0.9116 0.9110 0.9110 0.9110
2533.091696 0.9110 0.9110 0.9110 0.9110 0.9110
2539.738681 0.9108 0.9103 0.9098 0.9093 0.9090
2546.385666 0.9090 0.9090 0.9090 0.9092 0.9097
2553.032650 0.9100 0.9100 0.9100 0.9100 0.9100
2559.679635 0.9100 0.9100 0.9100 0.9100 0.9100
2566.326620 0.9100 0.9100 0.9098 0.9093 0.9090
2572.973605 0.9090 0.9090 0.9090 0.9092 0.9097
2579.620590 0.9102 0.9107 0.9106 0.9095 0.9090
2586.267575 0.9090 0.9090 0.9090 0.9090 0.9090
2592.914560 0.9090 0.9090 0.9090 0.9090 0.9090
2599.561545 0.9090 0.9092 0.9097 0.9093 0.9078
2606.208530 0.9070 0.9070 0.9070 0.9070 0.9070
2612.855514 0.9070 0.9070 0.9070 0.9070 0.9070
2619.502499 0.9075 0.9085 0.9090 0.9090 0.9090
2626.149484 0.9090 0.9090 0.9090 0.9090 0.9090
2632.796469 0.9090 0.9090 0.9090 0.9090 0.9090
2639.443454 0.9090 0.9085 0.9075 0.9070 0.9070
2646.090439 0.9070 0.9070 0.9070 0.9070 0.9068
2652.737424 0.9063 0.9060 0.9060 0.9060 0.9060
2659.384409 0.9058 0.9053 0.9050 0.9050 0.9050
2666.031394 0.9050 0.9050 0.9050 0.9050 0.9050
2672.678378 0.9053 0.9058 0.9060 0.9060 0.9060
2679.325363 0.9060 0.9060 0.9060 0.9060 0.9060
2685.972348 0.9060 0.9060 0.9060 0.9060 0.9060
2692.619333 0.9060 0.9057 0.9052 0.9050 0.9050
2699.266318 0.9050 0.9050 0.9045 0.9035 0.9030
2705.913303 0.9030 0.9030 0.9030 0.9030 0.9030
2712.560288 0.9027 0.9022 0.9020 0.9020 0.9020
2719.207273 0.9020 0.9020 0.9020 0.9020 0.9020
2725.854258 0.9020 0.9020 0.9017 0.9012 0.9010
2732.501242 0.9010 0.9010 0.9010 0.9010 0.9010
2739.148227 0.9010 0.9010 0.9010 0.9010 0.9010
2745.795212 0.9010 0.9004 0.8994 0.8990 0.8990
2752.442197 0.8990 0.8990 0.8990 0.8990 0.8990
2759.089182 0.8990 0.8990 0.8990 0.8990 0.8990
2765.736167 0.8987 0.8982 0.8980 0.8980 0.8980
2772.383152 0.8980 0.8980 0.8980 0.8980 0.8980
2779.030137 0.8980 0.8980 0.8980 0.8980 0.8980
2785.677122 0.8980 0.8980 0.8980 0.8980 0.8980
2792.324106 0.8980 0.8980 0.8980 0.8980 0.8983
2798.971091 0.8988 0.8990 0.8990 0.8990 0.8990
2805.618076 0.8990 0.8990 0.8987 0.8982 0.8980
2812.265061 0.8980 0.8980 0.8980 0.8980 0.8980
2818.912046 0.8980 0.8980 0.8980 0.8980 0.8977
2825.559031 0.8972 0.8964 0.8954 0.8947 0.8942
2832.206016 0.8940 0.8940 0.8940 0.8940 0.8937
2838.853001 0.8932 0.8924 0.8914 0.8904 0.8894
2845.499986 0.8884 0.8874 0.8851 0.8820 0.8803
2852.146970 0.8793 0.8787 0.8782 0.8777 0.8772
2858.793955 0.8770 0.8770 0.8770 0.8770 0.8770
2865.440940 0.8770 0.8773 0.8778 0.8780 0.8780
2872.087925 0.8780 0.8780 0.8783 0.8788 0.8790
2878.734910 0.8790 0.8797 0.8807 0.8810 0.8810
2885.381895 0.8810 0.8810 0.8810 0.8810 0.8810
2892.028880 0.8810 0.8810 0.8810 0.8803 0.8793
2898.675865 0.8790 0.8790 0.8787 0.8781 0.8766
2905.322850 0.8746 0.8736 0.8731 0.8723 0.8713
2911.969834 0.8703 0.8693 0.8690 0.8690 0.8676
2918.616819 0.8656 0.8629 0.8599 0.8572 0.8547
2925.263804 0.8529 0.8514 0.8506 0.8501 0.8504
2931.910789 0.8509 0.8517 0.8527 0.8537 0.8547
2938.557774 0.8561 0.8576 0.8584 0.8589 0.8601
2945.204759 0.8616 0.8624 0.8629 0.8637 0.8647
2951.851744 0.8650 0.8650 0.8654 0.8659 0.8664
2958.498729 0.8669 0.8670 0.8670 0.8677 0.8687
2965.145714 0.8694 0.8699 0.8704 0.8709 0.8717
2971.792698 0.8727 0.8730 0.8730 0.8734 0.8739
2978.439683 0.8740 0.8740 0.8744 0.8749 0.8750
2985.086668 0.8750 0.8758 0.8768 0.8770 0.8770
2991.733653 0.8774 0.8779 0.8780 0.8780 0.8780
2998.380638 0.8780 0.8784 0.8789 0.8790 0.8790
3005.027623 0.8790 0.8790 0.8790 0.8790 0.8790
3011.674608 0.8790 0.8790 0.8790 0.8790 0.8790
3018.321593 0.8790 0.8790 0.8786 0.8781 0.8780
3024.968578 0.8780 0.8780 0.8780 0.8780 0.8780
3031.615562 0.8780 0.8780 0.8780 0.8780 0.8780
3038.262547 0.8780 0.8780 0.8780 0.8776 0.8771
3044.909532 0.8770 0.8770 0.8770 0.8770 0.8770
3051.556517 0.8770 0.8774 0.8779 0.8780 0.8780
3058.203502 0.8780 0.8780 0.8780 0.8780 0.8780
3064.850487 0.8780 0.8780 0.8780 0.8780 0.8780
3071.497472 0.8780 0.8780 0.8780 0.8780 0.8780
3078.144457 0.8780 0.8780 0.8780 0.8776 0.8771
3084.791442 0.8770 0.8770 0.8762 0.8752 0.8750
3091.438426 0.8750 0.8750 0.8750 0.8746 0.8741
3098.085411 0.8736 0.8731 0.8730 0.8730 0.8730
3104.732396 0.8730 0.8722 0.8712 0.8710 0.8710
3111.379381 0.8710 0.8710 0.8706 0.8701 0.8696
3118.026366 0.8691 0.8690 0.8690 0.8681 0.8671
3124.673351 0.8670 0.8670 0.8666 0.8661 0.8660
3131.320336 0.8660 0.8660 0.8660 0.8660 0.8660
3137.967321 0.8660 0.8660 0.8656 0.8651 0.8650
3144.614306 0.8650 0.8650 0.8650 0.8650 0.8650
3151.261290 0.8650 0.8650 0.8650 0.8650 0.8650
3157.908275 0.8650 0.8650 0.8650 0.8641 0.8631
3164.555260 0.8630 0.8630 0.8626 0.8620 0.8620
3171.202245 0.8620 0.8615 0.8610 0.8610 0.8610
3177.849230 0.8610 0.8610 0.8601 0.8591 0.8590
3184.496215 0.8590 0.8581 0.8571 0.8570 0.8570
3191.143200 0.8556 0.8541 0.8535 0.8530 0.8530
3197.790185 0.8530 0.8521 0.8511 0.8505 0.8500
3204.437170 0.8495 0.8490 0.8490 0.8490 0.8490
3211.084154 0.8490 0.8490 0.8490 0.8490 0.8490
3217.731139 0.8490 0.8490 0.8490 0.8490 0.8480
3224.378124 0.8470 0.8470 0.8470 0.8465 0.8460
3231.025109 0.8460 0.8460 0.8455 0.8450 0.8450
3237.672094 0.8450 0.8436 0.8421 0.8415 0.8410
3244.319079 0.8410 0.8410 0.8400 0.8390 0.8390
3250.966064 0.8390 0.8385 0.8380 0.8380 0.8380
3257.613049 0.8380 0.8380 0.8380 0.8380 0.8375
3264.260034 0.8370 0.8360 0.8350 0.8350 0.8350
3270.907018 0.8345 0.8340 0.8325 0.8310 0.8310
3277.554003 0.8310 0.8305 0.8300 0.8300 0.8300
3284.200988 0.8295 0.8290 0.8280 0.8270 0.8270
3290.847973 0.8270 0.8265 0.8260 0.8255 0.8250
3297.494958 0.8240 0.8230 0.8225 0.8220 0.8205
3304.141943 0.8190 0.8185 0.8180 0.8165 0.8150
3310.788928 0.8145 0.8140 0.8125 0.8110 0.8105
3317.435913 0.8100 0.8085 0.8070 0.8060 0.8050
3324.082898 0.8035 0.8020 0.8005 0.7990 0.7985
3330.729882 0.7980 0.7975 0.7970 0.7960 0.7950
3337.376867 0.7945 0.7939 0.7924 0.7910 0.7900
3344.023852 0.7889 0.7874 0.7860 0.7845 0.7830
3350.670837 0.7825 0.7820 0.7815 0.7809 0.7799
3357.317822 0.7789 0.7779 0.7769 0.7749 0.7729
3363.964807 0.7714 0.7700 0.7695 0.7689 0.7674
3370.611792 0.7658 0.7623 0.7589 0.7569 0.7549
3377.258777 0.7539 0.7529 0.7503 0.7480 0.7475
3383.905762 0.7468 0.7443 0.7419 0.7409 0.7400
3390.552746 0.7395 0.7390 0.7385 0.7378 0.7348
3397.199731 0.7318 0.7299 0.7278 0.7248 0.7219
3403.846716 0.7204 0.7189 0.7174 0.7159 0.7149
3410.493701 0.7139 0.7129 0.7120 0.7115 0.7110
3417.140686 0.7105 0.7099 0.7089 0.7080 0.7075
3423.787671 0.7070 0.7065 0.7059 0.7044 0.7030
3430.434656 0.7025 0.7020 0.7020 0.7019 0.7009
3437.081641 0.6999 0.6994 0.6989 0.6984 0.6980
3443.728626 0.6980 0.6979 0.6969 0.6960 0.6960
3450.375610 0.6959 0.6954 0.6950 0.6950 0.6950
3457.022595 0.6950 0.6950 0.6950 0.6950 0.6950
3463.669580 0.6951 0.6956 0.6960 0.6960 0.6960
3470.316565 0.6960 0.6960 0.6960 0.6961 0.6971
3476.963550 0.6980 0.6980 0.6981 0.6986 0.6991
3483.610535 0.6996 0.7000 0.7000 0.7002 0.7012
3490.257520 0.7021 0.7026 0.7030 0.7030 0.7032
3496.904505 0.7047 0.7062 0.7072 0.7082 0.7097
3503.551490 0.7111 0.7116 0.7120 0.7120 0.7122
3510.198474 0.7132 0.7140 0.7140 0.7142 0.7152
3516.845459 0.7162 0.7172 0.7181 0.7186 0.7193
3523.492444 0.7208 0.7221 0.7226 0.7231 0.7236
3530.139429 0.7242 0.7252 0.7262 0.7272 0.7284
3536.786414 0.7304 0.7322 0.7332 0.7342 0.7352
3543.433399 0.7363 0.7378 0.7393 0.7408 0.7422
3550.080384 0.7432 0.7444 0.7464 0.7480 0.7480
3556.727369 0.7482 0.7492 0.7500 0.7500 0.7503
3563.374353 0.7518 0.7535 0.7560 0.7581 0.7586
3570.021338 0.7594 0.7614 0.7637 0.7667 0.7692
3576.668323 0.7702 0.7713 0.7728 0.7741 0.7746
3583.315308 0.7753 0.7768 0.7781 0.7786 0.7792
3589.962293 0.7802 0.7811 0.7816 0.7825 0.7845
3596.609278 0.7864 0.7879 0.7895 0.7915 0.7932
3603.256263 0.7942 0.7954 0.7969 0.7985 0.8005
3609.903248 0.8021 0.8026 0.8034 0.8049 0.8060
3616.550233 0.8060 0.8061 0.8066 0.8073 0.8083
3623.197217 0.8090 0.8090 0.8091 0.8096 0.8105
3629.844202 0.8125 0.8145 0.8165 0.8181 0.8186
3636.491187 0.8194 0.8209 0.8221 0.8226 0.8234
3643.138172 0.8249 0.8261 0.8266 0.8273 0.8283
3649.785157 0.8291 0.8296 0.8300 0.8300 0.8300
3656.432142 0.8300 0.8301 0.8306 0.8310 0.8310
3663.079127 0.8313 0.8323 0.8330 0.8330 0.8330
3669.726112 0.8330 0.8330 0.8330 0.8330 0.8330
3676.373097 0.8330 0.8330 0.8330 0.8330 0.8330
3683.020081 0.8330 0.8330 0.8330 0.8330 0.8330
3689.667066 0.8330 0.8330 0.8330 0.8330 0.8330
3696.314051 0.8330 0.8330 0.8330 0.8330 0.8330
3702.961036 0.8330 0.8330 0.8330 0.8330 0.8330
3709.608021 0.8330 0.8330 0.8330 0.8330 0.8330
3716.255006 0.8330 0.8330 0.8330 0.8330 0.8330
3722.901991 0.8330 0.8330 0.8330 0.8330 0.8330
3729.548976 0.8330 0.8330 0.8330 0.8330 0.8330
3736.195961 0.8330 0.8330 0.8330 0.8327 0.8317
3742.842945 0.8310 0.8310 0.8310 0.8310 0.8308
3749.489930 0.8303 0.8300 0.8300 0.8300 0.8300
3756.136915 0.8300 0.8300 0.8300 0.8300 0.8300
3762.783900 0.8300 0.8300 0.8300 0.8300 0.8300
3769.430885 0.8300 0.8300 0.8300 0.8300 0.8300
3776.077870 0.8300 0.8300 0.8300 0.8300 0.8300
3782.724855 0.8300 0.8300 0.8300 0.8300 0.8300
3789.371840 0.8300 0.8300 0.8300 0.8298 0.8293
3796.018825 0.8290 0.8290 0.8290 0.8290 0.8290
3802.665809 0.8290 0.8290 0.8290 0.8286 0.8276
3809.312794 0.8270 0.8270 0.8270 0.8270 0.8270
3815.959779 0.8270 0.8270 0.8270 0.8270 0.8270
3822.606764 0.8270 0.8270 0.8270 0.8270 0.8270
3829.253749 0.8270 0.8270 0.8270 0.8270 0.8270
3835.900734 0.8268 0.8263 0.8258 0.8253 0.8250
3842.547719 0.8250 0.8246 0.8236 0.8230 0.8230
3849.194704 0.8228 0.8223 0.8220 0.8220 0.8220
3855.841689 0.8220 0.8220 0.8220 0.8220 0.8220
3862.488673 0.8220 0.8220 0.8220 0.8220 0.8220
3869.135658 0.8220 0.8220 0.8220 0.8220 0.8220
3875.782643 0.8220 0.8220 0.8220 0.8220 0.8220
3882.429628 0.8220 0.8220 0.8220 0.8220 0.8220
3889.076613 0.8220 0.8220 0.8220 0.8220 0.8220
3895.723598 0.8220 0.8220 0.8220 0.8220 0.8220
3902.370583 0.8220 0.8220 0.8220 0.8220 0.8220
3909.017568 0.8220 0.8220 0.8220 0.8220 0.8220
3915.664553 0.8220 0.8220 0.8220 0.8220 0.8220
3922.311537 0.8220 0.8218 0.8213 0.8210 0.8210
3928.958522 0.8205 0.8195 0.8190 0.8190 0.8190
3935.605507 0.8190 0.8188 0.8182 0.8180 0.8180
3942.252492 0.8183 0.8188 0.8190 0.8190 0.8190
3948.899477 0.8190 0.8190 0.8190 0.8190 0.8190
3955.546462 0.8190 0.8190 0.8187 0.8182 0.8180
3962.193447 0.8180 0.8180 0.8180 0.8180 0.8180
3968.840432 0.8180 0.8180 0.8183 0.8188 0.8190
3975.487417 0.8190 0.8187 0.8182 0.8180 0.8180
##END=
