##TITLE=RHODIUM, TRIS(1,1,1-TRIFLUORO-2,4-PENTANEDIONATO)-
##JCAMP-DX=4.24
##DATA TYPE=INFRARED SPECTRUM
##CLASS=COBLENTZ III
##ORIGIN=SOUTHERN RESEARCH INSTITUTE
##OWNER=COBLENTZ SOCIETY
Collection (C) 2018 copyright by the U.S. Secretary of Commerce
on behalf of the United States of America. All rights reserved.
##DATE=1966/04/12
##MOLFORM=C15 H12 F9 O6 Rh
##SOURCE REFERENCE=COBLENTZ NO. 6917
##$NIST ID=B6006917
##$NIST SOURCE=COBLENTZ
##$NIST IMAGE=cob6917
##SPECTROMETER/DATA SYSTEM=PERKIN-ELMER 521 (GRATING)
##INSTRUMENT PARAMETERS=FILTERS AT 3150, 2500, 2000, 1150, 700, 410 AND GRATING CHANGES: 2000, 630 CM^-^1
##STATE=SOLID (1.0 mg / 650 mg KBr DISC)
##PATH LENGTH=
$$SPECTRAL CONTAMINATION DUE TO H2O AROUND 3430 CM^-^1
##SAMPLING PROCEDURE=TRANSMISSION
##RESOLUTION=4
##DATA PROCESSING=DIGITIZED BY NIST FROM HARD COPY (FROM TWO SEGMENTS)
##XUNITS=1/CM
##YUNITS=TRANSMITTANCE
##XFACTOR=1.000000
##YFACTOR=1
##DELTAX=1.200000
##FIRSTX=250
##LASTX=3812.8
##FIRSTY=0.239
##MAXX=3812.8
##MINX=250
##MAXY=0.896666
##MINY=0.131605
##NPOINTS=2970
##XYDATA=(X++(Y..Y))
250.000000 0.2390 0.2490 0.2510 0.2540 0.2580
256.000000 0.2620 0.2729 0.2809 0.2879 0.2979
262.000000 0.3100 0.3130 0.3180 0.3279 0.3399
268.000000 0.3519 0.3589 0.3669 0.3769 0.3800
274.000000 0.3890 0.4019 0.4119 0.4219 0.4270
280.000000 0.4349 0.4419 0.4460 0.4549 0.4609
286.000000 0.4680 0.4769 0.4780 0.4859 0.4880
292.000000 0.4900 0.4949 0.4960 0.5108 0.5199
298.000000 0.5259 0.5329 0.5360 0.5380 0.5400
304.000000 0.5420 0.5459 0.5509 0.5520 0.5540
310.000000 0.5570 0.5600 0.5600 0.5620 0.5630
316.000000 0.5650 0.5719 0.5730 0.5759 0.5838
322.000000 0.5889 0.5939 0.5970 0.6000 0.6049
328.000000 0.6070 0.6090 0.6139 0.6189 0.6278
334.000000 0.6310 0.6379 0.6439 0.6489 0.6510
340.000000 0.6510 0.6520 0.6559 0.6619 0.6679
346.000000 0.6729 0.6740 0.6769 0.6799 0.6810
352.000000 0.6810 0.6830 0.6869 0.6899 0.6929
358.000000 0.6940 0.6960 0.6989 0.7000 0.7020
364.000000 0.7020 0.7049 0.7050 0.7060 0.7060
370.000000 0.7060 0.7070 0.7070 0.7070 0.7080
376.000000 0.7099 0.7119 0.7130 0.7140 0.7237
382.000000 0.7269 0.7270 0.7143 0.7140 0.7150
388.000000 0.7189 0.7209 0.7268 0.7299 0.7348
394.000000 0.7389 0.7429 0.7469 0.7499 0.7500
400.000000 0.7519 0.7549 0.7550 0.7560 0.7560
406.000000 0.7560 0.7570 0.7570 0.7580 0.7580
412.000000 0.7580 0.7599 0.7600 0.7581 0.7580
418.000000 0.7580 0.7580 0.7580 0.7580 0.7580
424.000000 0.7570 0.7560 0.7493 0.7452 0.7431
430.000000 0.7411 0.7362 0.7312 0.7233 0.7201
436.000000 0.7142 0.7102 0.7081 0.7080 0.7147
442.000000 0.7179 0.7228 0.7288 0.7348 0.7408
448.000000 0.7468 0.7508 0.7596 0.7619 0.7639
454.000000 0.7659 0.7679 0.7699 0.7729 0.7730
460.000000 0.7740 0.7740 0.7740 0.7740 0.7750
466.000000 0.7750 0.7750 0.7750 0.7750 0.7750
472.000000 0.7750 0.7760 0.7760 0.7750 0.7750
478.000000 0.7750 0.7750 0.7750 0.7750 0.7750
484.000000 0.7740 0.7740 0.7731 0.7730 0.7702
490.000000 0.7690 0.7690 0.7680 0.7670 0.7660
496.000000 0.7641 0.7621 0.7611 0.7610 0.7601
502.000000 0.7600 0.7600 0.7581 0.7561 0.7551
508.000000 0.7493 0.7443 0.7431 0.7421 0.7411
514.000000 0.7391 0.7371 0.7370 0.7408 0.7429
520.000000 0.7430 0.7430 0.7439 0.7440 0.7431
526.000000 0.7421 0.7420 0.7392 0.7381 0.7323
532.000000 0.7311 0.7301 0.7291 0.7271 0.7270
538.000000 0.7261 0.7260 0.7288 0.7299 0.7319
544.000000 0.7367 0.7408 0.7438 0.7534 0.7568
550.000000 0.7608 0.7619 0.7639 0.7668 0.7689
556.000000 0.7728 0.7739 0.7749 0.7759 0.7779
562.000000 0.7780 0.7780 0.7789 0.7790 0.7790
568.000000 0.7799 0.7809 0.7810 0.7810 0.7810
574.000000 0.7810 0.7819 0.7820 0.7811 0.7810
580.000000 0.7801 0.7800 0.7800 0.7791 0.7790
586.000000 0.7781 0.7761 0.7760 0.7751 0.7731
592.000000 0.7702 0.7644 0.7603 0.7489 0.7387
598.000000 0.7305 0.7188 0.7022 0.7010 0.7215
604.000000 0.7249 0.7269 0.7298 0.7402 0.7512
610.000000 0.7576 0.7720 0.7758 0.7816 0.7913
616.000000 0.7929 0.7939 0.7968 0.7970 0.7988
622.000000 0.8027 0.8049 0.8059 0.8060 0.8069
628.000000 0.8088 0.8090 0.8090 0.8090 0.8090
634.000000 0.8090 0.8071 0.8061 0.8060 0.8042
640.000000 0.8012 0.7992 0.7935 0.7912 0.7846
646.000000 0.7757 0.7676 0.7587 0.7506 0.7417
652.000000 0.7300 0.7207 0.7090 0.7043 0.6985
658.000000 0.6869 0.6749 0.6648 0.6640 0.6787
664.000000 0.7020 0.7040 0.7067 0.7216 0.7230
670.000000 0.7212 0.7146 0.7122 0.7111 0.7128
676.000000 0.7148 0.7241 0.7396 0.7538 0.7659
682.000000 0.7780 0.7928 0.8032 0.8113 0.8211
688.000000 0.8284 0.8290 0.8317 0.8356 0.8369
694.000000 0.8397 0.8418 0.8438 0.8467 0.8479
700.000000 0.8480 0.8480 0.8480 0.8480 0.8489
706.000000 0.8490 0.8481 0.8480 0.8480 0.8471
712.000000 0.8470 0.8461 0.8442 0.8440 0.8431
718.000000 0.8430 0.8412 0.8383 0.8362 0.8342
724.000000 0.8313 0.8283 0.8199 0.8118 0.7966
730.000000 0.7814 0.7655 0.7504 0.7309 0.7082
736.000000 0.6843 0.6441 0.7410 0.7610 0.7674
742.000000 0.7734 0.7749 0.7868 0.7916 0.7992
748.000000 0.8162 0.8333 0.8476 0.8499 0.8518
754.000000 0.8529 0.8530 0.8521 0.8502 0.8500
760.000000 0.8491 0.8481 0.8471 0.8425 0.8402
766.000000 0.8346 0.8313 0.8283 0.8235 0.8131
772.000000 0.8102 0.7983 0.7836 0.7677 0.7517
778.000000 0.7392 0.7245 0.7095 0.7053 0.7041
784.000000 0.7040 0.7022 0.7020 0.7020 0.7020
790.000000 0.7038 0.7040 0.7058 0.7114 0.7174
796.000000 0.7243 0.7411 0.7599 0.7780 0.7951
802.000000 0.7979 0.8087 0.8154 0.8276 0.8335
808.000000 0.8411 0.8456 0.8469 0.8497 0.8518
814.000000 0.8529 0.8548 0.8568 0.8570 0.8588
820.000000 0.8590 0.8590 0.8590 0.8590 0.8590
826.000000 0.8590 0.8590 0.8590 0.8590 0.8590
832.000000 0.8590 0.8590 0.8572 0.8570 0.8570
838.000000 0.8561 0.8560 0.8560 0.8560 0.8551
844.000000 0.8541 0.8531 0.8521 0.8520 0.8520
850.000000 0.8502 0.8491 0.8481 0.8445 0.8387
856.000000 0.8327 0.8294 0.8228 0.8141 0.8025
862.000000 0.7939 0.7762 0.7449 0.7111 0.6912
868.000000 0.6732 0.6359 0.6310 0.6363 0.6528
874.000000 0.7131 0.7641 0.7902 0.8123 0.8282
880.000000 0.8318 0.8390 0.8461 0.8479 0.8497
886.000000 0.8518 0.8520 0.8520 0.8529 0.8530
892.000000 0.8539 0.8540 0.8531 0.8530 0.8530
898.000000 0.8530 0.8530 0.8539 0.8531 0.8530
904.000000 0.8530 0.8530 0.8521 0.8520 0.8503
910.000000 0.8500 0.8491 0.8490 0.8481 0.8480
916.000000 0.8480 0.8471 0.8470 0.8461 0.8443
922.000000 0.8431 0.8421 0.8403 0.8383 0.8354
928.000000 0.8324 0.8320 0.8303 0.8283 0.8150
934.000000 0.8069 0.7990 0.7867 0.7763 0.7603
940.000000 0.7563 0.7569 0.7630 0.7718 0.7851
946.000000 0.7965 0.8075 0.8177 0.8251 0.8312
952.000000 0.8320 0.8354 0.8360 0.8360 0.8369
958.000000 0.8370 0.8370 0.8379 0.8371 0.8370
964.000000 0.8361 0.8351 0.8350 0.8341 0.8340
970.000000 0.8340 0.8323 0.8320 0.8311 0.8310
976.000000 0.8301 0.8291 0.8281 0.8280 0.8263
982.000000 0.8260 0.8260 0.8260 0.8251 0.8250
988.000000 0.8233 0.8196 0.8173 0.8161 0.8160
994.000000 0.8151 0.8133 0.8113 0.8076 0.8036
1000.000000 0.7987 0.7954 0.7950 0.7941 0.7923
1006.000000 0.7877 0.7861 0.7851 0.7824 0.7803
1012.000000 0.7783 0.7763 0.7752 0.7742 0.7740
1018.000000 0.7740 0.7740 0.7749 0.7750 0.7759
1024.000000 0.7760 0.7794 0.7817 0.7837 0.7874
1030.000000 0.7906 0.7919 0.7912 0.7918 0.7920
1036.000000 0.7928 0.7930 0.7930 0.7930 0.7938
1042.000000 0.7940 0.7940 0.7940 0.7940 0.7932
1048.000000 0.7930 0.7930 0.7930 0.7930 0.7930
1054.000000 0.7930 0.7930 0.7930 0.7930 0.7930
1060.000000 0.7930 0.7938 0.7932 0.7930 0.7922
1066.000000 0.7920 0.7912 0.7910 0.7910 0.7893
1072.000000 0.7882 0.7880 0.7872 0.7853 0.7842
1078.000000 0.7840 0.7815 0.7802 0.7783 0.7780
1084.000000 0.7763 0.7743 0.7698 0.7673 0.7670
1090.000000 0.7662 0.7635 0.7613 0.7585 0.7563
1096.000000 0.7510 0.7458 0.7417 0.7360 0.7283
1102.000000 0.7245 0.7232 0.7155 0.7073 0.7002
1108.000000 0.6932 0.6828 0.6785 0.6738 0.6564
1114.000000 0.6447 0.6330 0.6160 0.5972 0.5857
1120.000000 0.5740 0.5562 0.5464 0.5375 0.5195
1126.000000 0.5027 0.4650 0.4239 0.4054 0.3914
1132.000000 0.3650 0.3352 0.2820 0.2538 0.2327
1138.000000 0.2016 0.1952 0.1834 0.1694 0.1653
1144.000000 0.1642 0.1640 0.1648 0.1675 0.1705
1150.000000 0.1751 0.1793 0.1833 0.1956 0.2079
1156.000000 0.2125 0.2179 0.2437 0.2646 0.2819
1162.000000 0.3098 0.3340 0.3512 0.3655 0.3935
1168.000000 0.4138 0.4310 0.4455 0.4668 0.4866
1174.000000 0.4982 0.5107 0.5179 0.5165 0.5144
1180.000000 0.5099 0.5000 0.4816 0.4608 0.4480
1186.000000 0.4353 0.4108 0.3921 0.3743 0.3563
1192.000000 0.3326 0.3190 0.3064 0.2999 0.2974
1198.000000 0.2978 0.2996 0.3025 0.3136 0.3242
1204.000000 0.3399 0.3479 0.3514 0.3561 0.3732
1210.000000 0.4007 0.4346 0.4524 0.4672 0.4944
1216.000000 0.5016 0.5044 0.5050 0.5034 0.5014
1222.000000 0.5002 0.4902 0.4677 0.4484 0.4280
1228.000000 0.4110 0.3991 0.3881 0.3707 0.3670
1234.000000 0.3978 0.4196 0.4441 0.4692 0.5476
1240.000000 0.6078 0.6576 0.6807 0.7033 0.7201
1246.000000 0.7311 0.7370 0.7380 0.7380 0.7364
1252.000000 0.7352 0.7334 0.7306 0.7268 0.7236
1258.000000 0.7157 0.7092 0.7048 0.7000 0.6942
1264.000000 0.6850 0.6750 0.6562 0.6440 0.6324
1270.000000 0.6115 0.5909 0.5717 0.5535 0.5428
1276.000000 0.5346 0.4890 0.4524 0.4093 0.3824
1282.000000 0.3595 0.3133 0.2789 0.2490 0.2150
1288.000000 0.1912 0.1814 0.1728 0.1646 0.1566
1294.000000 0.1486 0.1406 0.1350 0.1316 0.1318
1300.000000 0.1336 0.1380 0.1430 0.1511 0.1593
1306.000000 0.1730 0.1800 0.1834 0.1959 0.2149
1312.000000 0.2913 0.3949 0.4559 0.5507 0.5991
1318.000000 0.6267 0.6527 0.6731 0.6865 0.7041
1324.000000 0.7183 0.7273 0.7361 0.7404 0.7513
1330.000000 0.7572 0.7596 0.7616 0.7628 0.7638
1336.000000 0.7640 0.7632 0.7622 0.7620 0.7620
1342.000000 0.7620 0.7612 0.7610 0.7586 0.7564
1348.000000 0.7497 0.7449 0.7401 0.7335 0.7187
1354.000000 0.7071 0.6963 0.6727 0.6497 0.6340
1360.000000 0.6176 0.6093 0.5923 0.5731 0.5690
1366.000000 0.5863 0.6099 0.6339 0.6578 0.6716
1372.000000 0.7006 0.7229 0.7387 0.7475 0.7552
1378.000000 0.7609 0.7651 0.7676 0.7735 0.7758
1384.000000 0.7776 0.7764 0.7760 0.7752 0.7750
1390.000000 0.7727 0.7697 0.7674 0.7639 0.7607
1396.000000 0.7514 0.7443 0.7376 0.7282 0.7237
1402.000000 0.7160 0.7117 0.7063 0.6996 0.6918
1408.000000 0.6791 0.6574 0.6458 0.6355 0.6315
1414.000000 0.6310 0.6333 0.6363 0.6378 0.6380
1420.000000 0.6380 0.6380 0.6380 0.6372 0.6370
1426.000000 0.6362 0.6337 0.6322 0.6281 0.6200
1432.000000 0.6134 0.6097 0.6059 0.6012 0.5962
1438.000000 0.5865 0.5740 0.5702 0.5708 0.5772
1444.000000 0.5836 0.5881 0.5936 0.6027 0.6119
1450.000000 0.6217 0.6263 0.6301 0.6318 0.6351
1456.000000 0.6429 0.6504 0.6574 0.6674 0.6761
1462.000000 0.6818 0.6968 0.7079 0.7131 0.7209
1468.000000 0.7276 0.7366 0.7405 0.7433 0.7470
1474.000000 0.7503 0.7564 0.7626 0.7709 0.7753
1480.000000 0.7760 0.7775 0.7788 0.7790 0.7798
1486.000000 0.7792 0.7790 0.7782 0.7780 0.7765
1492.000000 0.7760 0.7737 0.7700 0.7629 0.7602
1498.000000 0.7509 0.7472 0.7440 0.7415 0.7372
1504.000000 0.7277 0.7144 0.7034 0.6942 0.6746
1510.000000 0.6455 0.6251 0.5960 0.5653 0.5444
1516.000000 0.5256 0.4878 0.4536 0.4204 0.4030
1522.000000 0.3917 0.3814 0.3790 0.3820 0.4079
1528.000000 0.4311 0.4586 0.4900 0.5160 0.5535
1534.000000 0.5791 0.5998 0.6125 0.6203 0.6325
1540.000000 0.6458 0.6512 0.6572 0.6620 0.6682
1546.000000 0.6745 0.6790 0.6800 0.6785 0.6780
1552.000000 0.6780 0.6773 0.6770 0.6763 0.6753
1558.000000 0.6743 0.6687 0.6603 0.6498 0.6418
1564.000000 0.6355 0.6251 0.6116 0.5998 0.5881
1570.000000 0.5678 0.5560 0.5488 0.5351 0.5243
1576.000000 0.5034 0.4740 0.4430 0.4113 0.3912
1582.000000 0.3758 0.3571 0.3356 0.3166 0.2875
1588.000000 0.2590 0.2453 0.2356 0.2241 0.2085
1594.000000 0.1981 0.1789 0.1574 0.1424 0.1375
1600.000000 0.1377 0.1387 0.1493 0.1633 0.1766
1606.000000 0.1896 0.2026 0.2156 0.2419 0.2773
1612.000000 0.3054 0.3429 0.3606 0.3894 0.4144
1618.000000 0.4399 0.4618 0.4950 0.5183 0.5561
1624.000000 0.5827 0.5990 0.6162 0.6298 0.6447
1630.000000 0.6593 0.6718 0.6772 0.6868 0.6973
1636.000000 0.7059 0.7124 0.7228 0.7282 0.7297
1642.000000 0.7322 0.7352 0.7404 0.7435 0.7462
1648.000000 0.7499 0.7539 0.7572 0.7595 0.7615
1654.000000 0.7657 0.7707 0.7749 0.7775 0.7795
1660.000000 0.7807 0.7817 0.7835 0.7847 0.7864
1666.000000 0.7921 0.7940 0.7947 0.7950 0.7965
1672.000000 0.7970 0.7977 0.7994 0.8022 0.8044
1678.000000 0.8065 0.8085 0.8090 0.8112 0.8120
1684.000000 0.8127 0.8144 0.8157 0.8167 0.8177
1690.000000 0.8187 0.8212 0.8234 0.8254 0.8253
1696.000000 0.8272 0.8309 0.8349 0.8374 0.8394
1702.000000 0.8407 0.8424 0.8430 0.8437 0.8483
1708.000000 0.8514 0.8534 0.8547 0.8550 0.8550
1714.000000 0.8564 0.8592 0.8614 0.8642 0.8657
1720.000000 0.8667 0.8677 0.8680 0.8687 0.8690
1726.000000 0.8690 0.8704 0.8710 0.8717 0.8720
1732.000000 0.8720 0.8720 0.8720 0.8720 0.8720
1738.000000 0.8720 0.8720 0.8727 0.8730 0.8730
1744.000000 0.8730 0.8730 0.8737 0.8747 0.8764
1750.000000 0.8770 0.8770 0.8770 0.8770 0.8777
1756.000000 0.8787 0.8797 0.8807 0.8810 0.8810
1762.000000 0.8810 0.8810 0.8810 0.8810 0.8824
1768.000000 0.8837 0.8847 0.8850 0.8857 0.8860
1774.000000 0.8860 0.8860 0.8860 0.8860 0.8860
1780.000000 0.8860 0.8860 0.8860 0.8860 0.8860
1786.000000 0.8860 0.8860 0.8860 0.8860 0.8860
1792.000000 0.8860 0.8860 0.8867 0.8870 0.8870
1798.000000 0.8870 0.8870 0.8870 0.8870 0.8870
1804.000000 0.8870 0.8870 0.8870 0.8870 0.8870
1810.000000 0.8870 0.8870 0.8870 0.8870 0.8870
1816.000000 0.8870 0.8884 0.8904 0.8910 0.8910
1822.000000 0.8910 0.8917 0.8913 0.8910 0.8910
1828.000000 0.8910 0.8903 0.8914 0.8920 0.8920
1834.000000 0.8920 0.8920 0.8920 0.8920 0.8920
1840.000000 0.8920 0.8920 0.8920 0.8920 0.8920
1846.000000 0.8927 0.8923 0.8920 0.8920 0.8920
1852.000000 0.8920 0.8920 0.8920 0.8920 0.8927
1858.000000 0.8930 0.8930 0.8930 0.8923 0.8920
1864.000000 0.8913 0.8910 0.8903 0.8900 0.8900
1870.000000 0.8900 0.8893 0.8897 0.8893 0.8890
1876.000000 0.8890 0.8876 0.8863 0.8860 0.8860
1882.000000 0.8853 0.8850 0.8843 0.8840 0.8840
1888.000000 0.8840 0.8840 0.8840 0.8840 0.8847
1894.000000 0.8857 0.8860 0.8867 0.8884 0.8904
1900.000000 0.8917 0.8920 0.8920 0.8913 0.8917
1906.000000 0.8920 0.8927 0.8930 0.8930 0.8930
1912.000000 0.8930 0.8930 0.8930 0.8930 0.8930
1918.000000 0.8930 0.8930 0.8930 0.8930 0.8930
1924.000000 0.8937 0.8940 0.8940 0.8940 0.8940
1930.000000 0.8940 0.8940 0.8940 0.8940 0.8940
1936.000000 0.8940 0.8940 0.8933 0.8930 0.8930
1942.000000 0.8930 0.8930 0.8930 0.8930 0.8930
1948.000000 0.8930 0.8930 0.8930 0.8930 0.8930
1954.000000 0.8930 0.8930 0.8937 0.8940 0.8940
1960.000000 0.8940 0.8940 0.8940 0.8940 0.8933
1966.000000 0.8937 0.8940 0.8940 0.8940 0.8940
1972.000000 0.8940 0.8940 0.8940 0.8940 0.8940
1978.000000 0.8953 0.8960 0.8960 0.8960 0.8960
1984.000000 0.8960 0.8967 0.8963 0.8960 0.8960
1990.000000 0.8947 0.8940 0.8940 0.8933 0.8930
1996.000000 0.8917 0.8897 0.8870 0.8860 0.8853
2002.000000 0.8850 0.8850 0.8850 0.8850 0.8850
2008.000000 0.8843 0.8840 0.8840 0.8840 0.8840
2014.000000 0.8840 0.8840 0.8840 0.8840 0.8840
2020.000000 0.8840 0.8840 0.8840 0.8840 0.8840
2026.000000 0.8840 0.8840 0.8847 0.8850 0.8850
2032.000000 0.8850 0.8850 0.8850 0.8850 0.8850
2038.000000 0.8850 0.8850 0.8850 0.8850 0.8850
2044.000000 0.8857 0.8860 0.8860 0.8860 0.8860
2050.000000 0.8860 0.8860 0.8867 0.8870 0.8870
2056.000000 0.8863 0.8860 0.8860 0.8860 0.8860
2062.000000 0.8867 0.8870 0.8883 0.8890 0.8897
2068.000000 0.8900 0.8900 0.8900 0.8900 0.8900
2074.000000 0.8900 0.8900 0.8893 0.8877 0.8863
2080.000000 0.8860 0.8860 0.8860 0.8860 0.8860
2086.000000 0.8860 0.8860 0.8860 0.8867 0.8870
2092.000000 0.8870 0.8870 0.8883 0.8897 0.8880
2098.000000 0.8883 0.8897 0.8900 0.8907 0.8910
2104.000000 0.8917 0.8920 0.8920 0.8920 0.8920
2110.000000 0.8913 0.8910 0.8917 0.8920 0.8920
2116.000000 0.8920 0.8927 0.8930 0.8923 0.8920
2122.000000 0.8920 0.8920 0.8920 0.8920 0.8920
2128.000000 0.8920 0.8927 0.8930 0.8930 0.8930
2134.000000 0.8930 0.8930 0.8923 0.8920 0.8920
2140.000000 0.8920 0.8920 0.8920 0.8920 0.8920
2146.000000 0.8913 0.8910 0.8910 0.8910 0.8910
2152.000000 0.8917 0.8920 0.8920 0.8920 0.8927
2158.000000 0.8930 0.8923 0.8920 0.8920 0.8920
2164.000000 0.8920 0.8920 0.8920 0.8920 0.8920
2170.000000 0.8927 0.8930 0.8930 0.8930 0.8930
2176.000000 0.8930 0.8930 0.8930 0.8937 0.8940
2182.000000 0.8940 0.8940 0.8940 0.8940 0.8940
2188.000000 0.8940 0.8940 0.8940 0.8940 0.8940
2194.000000 0.8940 0.8940 0.8940 0.8933 0.8930
2200.000000 0.8937 0.8940 0.8940 0.8940 0.8940
2206.000000 0.8940 0.8940 0.8940 0.8933 0.8930
2212.000000 0.8930 0.8930 0.8930 0.8930 0.8930
2218.000000 0.8923 0.8927 0.8930 0.8930 0.8930
2224.000000 0.8930 0.8923 0.8920 0.8920 0.8913
2230.000000 0.8910 0.8910 0.8910 0.8910 0.8910
2236.000000 0.8910 0.8910 0.8910 0.8910 0.8910
2242.000000 0.8910 0.8910 0.8910 0.8910 0.8910
2248.000000 0.8910 0.8910 0.8910 0.8910 0.8917
2254.000000 0.8920 0.8920 0.8920 0.8927 0.8930
2260.000000 0.8923 0.8920 0.8927 0.8930 0.8930
2266.000000 0.8930 0.8930 0.8930 0.8930 0.8930
2272.000000 0.8930 0.8930 0.8930 0.8930 0.8930
2278.000000 0.8930 0.8923 0.8920 0.8927 0.8930
2284.000000 0.8930 0.8930 0.8930 0.8923 0.8920
2290.000000 0.8920 0.8920 0.8920 0.8920 0.8920
2296.000000 0.8920 0.8920 0.8913 0.8910 0.8917
2302.000000 0.8920 0.8920 0.8920 0.8920 0.8920
2308.000000 0.8927 0.8930 0.8923 0.8920 0.8920
2314.000000 0.8920 0.8920 0.8920 0.8920 0.8913
2320.000000 0.8910 0.8917 0.8920 0.8920 0.8920
2326.000000 0.8920 0.8920 0.8920 0.8913 0.8910
2332.000000 0.8903 0.8900 0.8900 0.8900 0.8893
2338.000000 0.8890 0.8890 0.8890 0.8897 0.8900
2344.000000 0.8900 0.8900 0.8900 0.8900 0.8900
2350.000000 0.8900 0.8900 0.8900 0.8900 0.8900
2356.000000 0.8900 0.8900 0.8900 0.8900 0.8900
2362.000000 0.8900 0.8900 0.8900 0.8900 0.8900
2368.000000 0.8900 0.8900 0.8893 0.8890 0.8890
2374.000000 0.8897 0.8893 0.8890 0.8897 0.8893
2380.000000 0.8890 0.8877 0.8863 0.8860 0.8860
2386.000000 0.8860 0.8860 0.8860 0.8867 0.8883
2392.000000 0.8890 0.8890 0.8890 0.8890 0.8890
2398.000000 0.8890 0.8897 0.8900 0.8900 0.8900
2404.000000 0.8900 0.8900 0.8893 0.8890 0.8890
2410.000000 0.8890 0.8903 0.8910 0.8910 0.8910
2416.000000 0.8910 0.8910 0.8910 0.8903 0.8900
2422.000000 0.8900 0.8900 0.8900 0.8900 0.8893
2428.000000 0.8890 0.8890 0.8890 0.8890 0.8890
2434.000000 0.8877 0.8870 0.8870 0.8870 0.8870
2440.000000 0.8870 0.8870 0.8870 0.8870 0.8870
2446.000000 0.8870 0.8870 0.8863 0.8860 0.8853
2452.000000 0.8850 0.8850 0.8843 0.8833 0.8830
2458.000000 0.8817 0.8810 0.8803 0.8807 0.8810
2464.000000 0.8830 0.8853 0.8860 0.8867 0.8870
2470.000000 0.8870 0.8863 0.8860 0.8853 0.8850
2476.000000 0.8843 0.8833 0.8837 0.8840 0.8840
2482.000000 0.8840 0.8840 0.8840 0.8840 0.8840
2488.000000 0.8833 0.8830 0.8830 0.8830 0.8830
2494.000000 0.8830 0.8830 0.8830 0.8830 0.8830
2500.000000 0.8837 0.8840 0.8840 0.8840 0.8840
2506.000000 0.8840 0.8847 0.8843 0.8840 0.8840
2512.000000 0.8840 0.8833 0.8830 0.8830 0.8830
2518.000000 0.8837 0.8840 0.8840 0.8840 0.8840
2524.000000 0.8833 0.8830 0.8817 0.8810 0.8810
2530.000000 0.8810 0.8810 0.8810 0.8810 0.8810
2536.000000 0.8810 0.8810 0.8810 0.8810 0.8810
2542.000000 0.8810 0.8810 0.8810 0.8810 0.8823
2548.000000 0.8810 0.8807 0.8810 0.8810 0.8810
2554.000000 0.8810 0.8810 0.8803 0.8807 0.8810
2560.000000 0.8810 0.8810 0.8810 0.8810 0.8810
2566.000000 0.8810 0.8810 0.8810 0.8810 0.8810
2572.000000 0.8810 0.8810 0.8810 0.8810 0.8803
2578.000000 0.8800 0.8800 0.8800 0.8800 0.8793
2584.000000 0.8790 0.8790 0.8783 0.8780 0.8787
2590.000000 0.8790 0.8790 0.8790 0.8790 0.8790
2596.000000 0.8803 0.8810 0.8803 0.8800 0.8800
2602.000000 0.8800 0.8800 0.8800 0.8800 0.8800
2608.000000 0.8807 0.8810 0.8810 0.8810 0.8810
2614.000000 0.8823 0.8817 0.8810 0.8810 0.8810
2620.000000 0.8810 0.8810 0.8810 0.8810 0.8810
2626.000000 0.8810 0.8810 0.8810 0.8810 0.8810
2632.000000 0.8810 0.8810 0.8810 0.8810 0.8823
2638.000000 0.8817 0.8810 0.8810 0.8810 0.8803
2644.000000 0.8800 0.8800 0.8800 0.8800 0.8807
2650.000000 0.8803 0.8800 0.8800 0.8800 0.8800
2656.000000 0.8800 0.8793 0.8797 0.8800 0.8800
2662.000000 0.8800 0.8800 0.8793 0.8790 0.8790
2668.000000 0.8790 0.8790 0.8790 0.8790 0.8790
2674.000000 0.8790 0.8790 0.8790 0.8790 0.8790
2680.000000 0.8790 0.8790 0.8797 0.8800 0.8800
2686.000000 0.8793 0.8790 0.8790 0.8790 0.8790
2692.000000 0.8790 0.8790 0.8790 0.8790 0.8790
2698.000000 0.8790 0.8797 0.8800 0.8800 0.8800
2704.000000 0.8793 0.8790 0.8783 0.8780 0.8780
2710.000000 0.8773 0.8770 0.8770 0.8757 0.8750
2716.000000 0.8743 0.8740 0.8740 0.8733 0.8730
2722.000000 0.8730 0.8730 0.8730 0.8730 0.8730
2728.000000 0.8730 0.8730 0.8730 0.8730 0.8730
2734.000000 0.8730 0.8730 0.8730 0.8730 0.8730
2740.000000 0.8737 0.8740 0.8740 0.8740 0.8747
2746.000000 0.8750 0.8750 0.8750 0.8750 0.8743
2752.000000 0.8740 0.8740 0.8740 0.8740 0.8740
2758.000000 0.8740 0.8747 0.8750 0.8750 0.8750
2764.000000 0.8750 0.8763 0.8770 0.8777 0.8773
2770.000000 0.8770 0.8770 0.8770 0.8770 0.8770
2776.000000 0.8750 0.8740 0.8740 0.8740 0.8733
2782.000000 0.8730 0.8730 0.8730 0.8730 0.8723
2788.000000 0.8720 0.8713 0.8710 0.8710 0.8710
2794.000000 0.8710 0.8710 0.8710 0.8710 0.8710
2800.000000 0.8710 0.8690 0.8680 0.8680 0.8680
2806.000000 0.8673 0.8670 0.8670 0.8670 0.8677
2812.000000 0.8673 0.8670 0.8663 0.8660 0.8660
2818.000000 0.8660 0.8660 0.8667 0.8670 0.8670
2824.000000 0.8670 0.8663 0.8660 0.8640 0.8617
2830.000000 0.8603 0.8593 0.8590 0.8577 0.8563
2836.000000 0.8560 0.8547 0.8533 0.8523 0.8520
2842.000000 0.8507 0.8500 0.8500 0.8500 0.8493
2848.000000 0.8490 0.8490 0.8490 0.8497 0.8500
2854.000000 0.8500 0.8513 0.8527 0.8523 0.8520
2860.000000 0.8520 0.8520 0.8520 0.8527 0.8523
2866.000000 0.8520 0.8507 0.8500 0.8500 0.8500
2872.000000 0.8513 0.8520 0.8520 0.8507 0.8500
2878.000000 0.8500 0.8500 0.8500 0.8493 0.8490
2884.000000 0.8490 0.8490 0.8483 0.8473 0.8470
2890.000000 0.8463 0.8447 0.8433 0.8430 0.8423
2896.000000 0.8413 0.8410 0.8384 0.8357 0.8343
2902.000000 0.8327 0.8313 0.8310 0.8303 0.8287
2908.000000 0.8267 0.8240 0.8223 0.8213 0.8190
2914.000000 0.8180 0.8173 0.8163 0.8153 0.8137
2920.000000 0.8123 0.8113 0.8110 0.8117 0.8127
2926.000000 0.8150 0.8160 0.8173 0.8187 0.8203
2932.000000 0.8217 0.8227 0.8243 0.8277 0.8303
2938.000000 0.8330 0.8347 0.8357 0.8360 0.8373
2944.000000 0.8393 0.8400 0.8407 0.8410 0.8403
2950.000000 0.8387 0.8380 0.8380 0.8380 0.8393
2956.000000 0.8407 0.8410 0.8390 0.8380 0.8380
2962.000000 0.8380 0.8380 0.8380 0.8380 0.8393
2968.000000 0.8400 0.8407 0.8410 0.8410 0.8410
2974.000000 0.8410 0.8410 0.8410 0.8410 0.8423
2980.000000 0.8430 0.8430 0.8437 0.8440 0.8440
2986.000000 0.8453 0.8460 0.8467 0.8470 0.8470
2992.000000 0.8470 0.8470 0.8470 0.8470 0.8477
2998.000000 0.8467 0.8460 0.8460 0.8460 0.8460
3004.000000 0.8460 0.8460 0.8460 0.8467 0.8470
3010.000000 0.8470 0.8470 0.8470 0.8470 0.8470
3016.000000 0.8470 0.8470 0.8470 0.8470 0.8470
3022.000000 0.8470 0.8470 0.8470 0.8470 0.8463
3028.000000 0.8460 0.8460 0.8460 0.8460 0.8460
3034.000000 0.8460 0.8467 0.8477 0.8473 0.8470
3040.000000 0.8470 0.8470 0.8470 0.8477 0.8480
3046.000000 0.8487 0.8490 0.8490 0.8490 0.8490
3052.000000 0.8490 0.8490 0.8490 0.8490 0.8483
3058.000000 0.8480 0.8480 0.8480 0.8480 0.8480
3064.000000 0.8480 0.8480 0.8480 0.8480 0.8480
3070.000000 0.8480 0.8480 0.8480 0.8480 0.8480
3076.000000 0.8480 0.8480 0.8473 0.8463 0.8460
3082.000000 0.8460 0.8460 0.8447 0.8440 0.8433
3088.000000 0.8430 0.8430 0.8430 0.8430 0.8430
3094.000000 0.8430 0.8423 0.8420 0.8420 0.8420
3100.000000 0.8420 0.8420 0.8413 0.8410 0.8410
3106.000000 0.8410 0.8417 0.8427 0.8437 0.8453
3112.000000 0.8467 0.8477 0.8487 0.8497 0.8493
3118.000000 0.8477 0.8410 0.8353 0.8307 0.8283
3124.000000 0.8260 0.8237 0.8223 0.8213 0.8197
3130.000000 0.8190 0.8190 0.8190 0.8190 0.8190
3136.000000 0.8190 0.8190 0.8190 0.8203 0.8210
3142.000000 0.8210 0.8217 0.8220 0.8220 0.8227
3148.000000 0.8230 0.8230 0.8230 0.8230 0.8237
3154.000000 0.8240 0.8240 0.8247 0.8250 0.8250
3160.000000 0.8250 0.8250 0.8250 0.8250 0.8243
3166.000000 0.8240 0.8240 0.8240 0.8240 0.8240
3172.000000 0.8240 0.8233 0.8230 0.8230 0.8230
3178.000000 0.8223 0.8220 0.8220 0.8220 0.8213
3184.000000 0.8210 0.8210 0.8197 0.8183 0.8167
3190.000000 0.8153 0.8150 0.8137 0.8130 0.8123
3196.000000 0.8120 0.8113 0.8110 0.8103 0.8100
3202.000000 0.8100 0.8093 0.8077 0.8070 0.8070
3208.000000 0.8070 0.8070 0.8070 0.8063 0.8060
3214.000000 0.8060 0.8053 0.8050 0.8050 0.8043
3220.000000 0.8040 0.8033 0.8030 0.8030 0.8017
3226.000000 0.8003 0.7987 0.7980 0.7980 0.7973
3232.000000 0.7970 0.7970 0.7957 0.7950 0.7943
3238.000000 0.7933 0.7930 0.7923 0.7920 0.7920
3244.000000 0.7920 0.7920 0.7920 0.7920 0.7920
3250.000000 0.7920 0.7913 0.7897 0.7890 0.7883
3256.000000 0.7880 0.7880 0.7880 0.7873 0.7870
3262.000000 0.7870 0.7863 0.7860 0.7860 0.7853
3268.000000 0.7850 0.7843 0.7820 0.7810 0.7803
3274.000000 0.7800 0.7793 0.7790 0.7783 0.7767
3280.000000 0.7760 0.7760 0.7753 0.7750 0.7750
3286.000000 0.7743 0.7733 0.7730 0.7730 0.7730
3292.000000 0.7723 0.7727 0.7730 0.7723 0.7720
3298.000000 0.7707 0.7680 0.7663 0.7647 0.7633
3304.000000 0.7630 0.7623 0.7613 0.7603 0.7587
3310.000000 0.7573 0.7563 0.7560 0.7560 0.7560
3316.000000 0.7553 0.7530 0.7494 0.7460 0.7443
3322.000000 0.7440 0.7440 0.7433 0.7430 0.7423
3328.000000 0.7413 0.7397 0.7390 0.7383 0.7380
3334.000000 0.7373 0.7363 0.7333 0.7307 0.7300
3340.000000 0.7293 0.7290 0.7277 0.7270 0.7257
3346.000000 0.7237 0.7210 0.7160 0.7133 0.7123
3352.000000 0.7120 0.7113 0.7103 0.7087 0.7067
3358.000000 0.7053 0.7043 0.7027 0.7020 0.7007
3364.000000 0.6974 0.6953 0.6943 0.6933 0.6923
3370.000000 0.6900 0.6883 0.6873 0.6850 0.6827
3376.000000 0.6807 0.6787 0.6773 0.6763 0.6753
3382.000000 0.6750 0.6750 0.6743 0.6733 0.6717
3388.000000 0.6710 0.6684 0.6637 0.6613 0.6610
3394.000000 0.6597 0.6590 0.6583 0.6580 0.6573
3400.000000 0.6557 0.6530 0.6513 0.6497 0.6490
3406.000000 0.6477 0.6470 0.6463 0.6453 0.6443
3412.000000 0.6433 0.6430 0.6430 0.6423 0.6420
3418.000000 0.6420 0.6420 0.6420 0.6407 0.6400
3424.000000 0.6400 0.6400 0.6400 0.6400 0.6400
3430.000000 0.6400 0.6400 0.6400 0.6400 0.6400
3436.000000 0.6400 0.6400 0.6400 0.6400 0.6400
3442.000000 0.6400 0.6413 0.6420 0.6420 0.6427
3448.000000 0.6437 0.6447 0.6450 0.6457 0.6467
3454.000000 0.6470 0.6483 0.6490 0.6497 0.6500
3460.000000 0.6500 0.6507 0.6510 0.6517 0.6527
3466.000000 0.6543 0.6550 0.6550 0.6550 0.6550
3472.000000 0.6557 0.6567 0.6570 0.6577 0.6580
3478.000000 0.6580 0.6587 0.6583 0.6587 0.6590
3484.000000 0.6603 0.6617 0.6633 0.6647 0.6663
3490.000000 0.6670 0.6670 0.6677 0.6687 0.6697
3496.000000 0.6700 0.6720 0.6737 0.6747 0.6750
3502.000000 0.6757 0.6773 0.6793 0.6800 0.6807
3508.000000 0.6817 0.6827 0.6830 0.6830 0.6850
3514.000000 0.6887 0.6913 0.6927 0.6937 0.6940
3520.000000 0.6940 0.6980 0.7033 0.7057 0.7067
3526.000000 0.7077 0.7080 0.7093 0.7100 0.7107
3532.000000 0.7123 0.7137 0.7147 0.7163 0.7183
3538.000000 0.7217 0.7237 0.7247 0.7257 0.7260
3544.000000 0.7267 0.7290 0.7307 0.7317 0.7327
3550.000000 0.7330 0.7350 0.7367 0.7383 0.7403
3556.000000 0.7410 0.7417 0.7420 0.7427 0.7430
3562.000000 0.7437 0.7460 0.7483 0.7503 0.7517
3568.000000 0.7533 0.7547 0.7563 0.7577 0.7600
3574.000000 0.7623 0.7663 0.7687 0.7710 0.7733
3580.000000 0.7747 0.7750 0.7750 0.7757 0.7773
3586.000000 0.7793 0.7807 0.7830 0.7853 0.7873
3592.000000 0.7900 0.7910 0.7917 0.7927 0.7937
3598.000000 0.7947 0.7950 0.7983 0.8007 0.8030
3604.000000 0.8053 0.8080 0.8110 0.8127 0.8130
3610.000000 0.8130 0.8143 0.8170 0.8200 0.8223
3616.000000 0.8237 0.8247 0.8257 0.8273 0.8280
3622.000000 0.8300 0.8317 0.8340 0.8363 0.8377
3628.000000 0.8393 0.8413 0.8427 0.8450 0.8467
3634.000000 0.8470 0.8490 0.8513 0.8520 0.8520
3640.000000 0.8527 0.8537 0.8547 0.8550 0.8550
3646.000000 0.8550 0.8557 0.8567 0.8570 0.8583
3652.000000 0.8590 0.8597 0.8607 0.8610 0.8610
3658.000000 0.8610 0.8617 0.8620 0.8620 0.8627
3664.000000 0.8623 0.8620 0.8620 0.8620 0.8620
3670.000000 0.8620 0.8613 0.8610 0.8610 0.8610
3676.000000 0.8603 0.8600 0.8600 0.8600 0.8607
3682.000000 0.8610 0.8617 0.8620 0.8627 0.8643
3688.000000 0.8657 0.8667 0.8670 0.8670 0.8677
3694.000000 0.8687 0.8703 0.8717 0.8733 0.8747
3700.000000 0.8750 0.8750 0.8770 0.8780 0.8780
3706.000000 0.8787 0.8790 0.8783 0.8780 0.8780
3712.000000 0.8787 0.8783 0.8780 0.8780 0.8787
3718.000000 0.8790 0.8797 0.8800 0.8800 0.8800
3724.000000 0.8800 0.8800 0.8800 0.8800 0.8800
3730.000000 0.8800 0.8800 0.8807 0.8810 0.8810
3736.000000 0.8810 0.8810 0.8810 0.8810 0.8810
3742.000000 0.8810 0.8810 0.8810 0.8810 0.8810
3748.000000 0.8810 0.8810 0.8810 0.8810 0.8810
3754.000000 0.8810 0.8810 0.8810 0.8810 0.8823
3760.000000 0.8817 0.8823 0.8830 0.8830 0.8830
3766.000000 0.8830 0.8830 0.8830 0.8830 0.8830
3772.000000 0.8830 0.8830 0.8830 0.8830 0.8830
3778.000000 0.8830 0.8830 0.8830 0.8830 0.8817
3784.000000 0.8823 0.8830 0.8830 0.8830 0.8830
3790.000000 0.8830 0.8830 0.8830 0.8830 0.8830
3796.000000 0.8830 0.8830 0.8830 0.8830 0.8830
3802.000000 0.8837 0.8833 0.8830 0.8817 0.8810
3808.000000 0.8830 0.8833 0.8830 0.8817 0.8810
##END=
