##TITLE=CHROME GREEN (DEEP)
##JCAMP-DX=4.24
##DATA TYPE=INFRARED SPECTRUM
##CLASS=COBLENTZ III
##ORIGIN=DESOTO CHEMICAL COATINGS, INC.
##OWNER=COBLENTZ SOCIETY
Collection (C) 2018 copyright by the U.S. Secretary of Commerce
on behalf of the United States of America. All rights reserved.
##DATE=Not specified, most likely prior to 1970
##MOLFORM=Pb Cr O4  * Pb S O4
$$ Pb Cr O4 * Pb S O4 50%, C6H4N7Fe2 50%
##SOURCE REFERENCE=COBLENTZ NO. 4698
##$NIST ID=B6004698
##$NIST SOURCE=COBLENTZ
##$NIST IMAGE=cob4698
##SPECTROMETER/DATA SYSTEM=BECKMAN IR-12 (GRATING)
##STATE=SOLID (2 mg / 300 mg CsI DISC)
##SAMPLING PROCEDURE=TRANSMISSION
##RESOLUTION=4
##DATA PROCESSING=DIGITIZED BY NIST FROM HARD COPY (FROM TWO SEGMENTS)
##XUNITS=1/CM
##YUNITS=TRANSMITTANCE
##XFACTOR=1.000000
##YFACTOR=1
##DELTAX=1.331362
##FIRSTX=201.331
##LASTX=3989.06
##FIRSTY=0.509
##MAXX=3989.06
##MINX=201.331
##MAXY=0.922
##MINY=0.001
##NPOINTS=2846
##XYDATA=(X++(Y..Y))
201.331000 0.5090 0.5090 0.5090 0.5090 0.5090
207.987811 0.5090 0.5080 0.5070 0.5050 0.5040
214.644622 0.5000 0.4940 0.4880 0.4860 0.4780
221.301433 0.4680 0.4551 0.4281 0.4022 0.3881
227.958244 0.3760 0.3390 0.3001 0.2741 0.2411
234.615055 0.1992 0.1791 0.1750 0.1611 0.1531
241.271866 0.1430 0.1410 0.1390 0.1370 0.1330
247.928677 0.1290 0.1260 0.1250 0.1250 0.1250
254.585488 0.1250 0.1250 0.1230 0.1210 0.1190
261.242299 0.1180 0.1180 0.1180 0.1190 0.1190
267.899111 0.1220 0.1230 0.1260 0.1330 0.1340
274.555922 0.1380 0.1499 0.1580 0.1650 0.1729
281.212733 0.1860 0.1940 0.2010 0.2409 0.2819
287.869544 0.3119 0.3339 0.3539 0.3779 0.3879
294.526355 0.4000 0.4110 0.4180 0.4260 0.4310
301.183166 0.4320 0.4340 0.4350 0.4360 0.4390
307.839977 0.4400 0.4430 0.4440 0.4460 0.4460
314.496788 0.4470 0.4470 0.4510 0.4580 0.4590
321.153599 0.4620 0.4640 0.4670 0.4700 0.4720
327.810410 0.4780 0.4800 0.4820 0.4870 0.4920
334.467221 0.4940 0.4980 0.4990 0.5000 0.5040
341.124032 0.5070 0.5110 0.5120 0.5130 0.5150
347.780843 0.5170 0.5210 0.5240 0.5270 0.5270
354.437654 0.5270 0.5270 0.5280 0.5280 0.5280
361.094465 0.5290 0.5290 0.5310 0.5320 0.5350
367.751276 0.5350 0.5360 0.5360 0.5360 0.5360
374.408087 0.5360 0.5360 0.5370 0.5370 0.5400
381.064898 0.5410 0.5430 0.5480 0.5490 0.5510
387.721710 0.5510 0.5490 0.5480 0.5480 0.5470
394.378521 0.5470 0.5470 0.5470 0.5470 0.5470
401.035332 0.5480 0.5480 0.5490 0.5490 0.5510
407.692143 0.5510 0.5530 0.5530 0.5560 0.5570
414.348954 0.5590 0.5600 0.5610 0.5610 0.5640
421.005765 0.5650 0.5650 0.5670 0.5670 0.5670
427.662576 0.5670 0.5670 0.5670 0.5650 0.5650
434.319387 0.5640 0.5640 0.5610 0.5600 0.5590
440.976198 0.5560 0.5530 0.5520 0.5480 0.5450
447.633009 0.5430 0.5400 0.5320 0.5240 0.5190
454.289820 0.5160 0.5080 0.4990 0.4910 0.4880
460.946631 0.4780 0.4680 0.4551 0.4480 0.4192
467.603442 0.4070 0.3960 0.3800 0.3700 0.3630
474.260253 0.3580 0.3480 0.3391 0.3231 0.3021
480.917064 0.2900 0.2780 0.2640 0.2550 0.2450
487.573875 0.2191 0.1742 0.1571 0.1411 0.1340
494.230686 0.1250 0.1150 0.1130 0.1130 0.1150
500.887497 0.1260 0.1350 0.1459 0.1569 0.1669
507.544309 0.1780 0.1990 0.2060 0.2110 0.2130
514.201120 0.2190 0.2290 0.2489 0.2719 0.2839
520.857931 0.3000 0.3110 0.3200 0.3320 0.3480
527.514742 0.3560 0.3679 0.3789 0.3909 0.3999
534.171553 0.4180 0.4280 0.4350 0.4420 0.4500
540.828364 0.4639 0.4779 0.4840 0.4920 0.5009
547.485175 0.5080 0.5120 0.5190 0.5270 0.5330
554.141986 0.5370 0.5440 0.5470 0.5480 0.5490
560.798797 0.5490 0.5490 0.5490 0.5490 0.5490
567.455608 0.5490 0.5490 0.5510 0.5530 0.5550
574.112419 0.5550 0.5530 0.5510 0.5410 0.5350
580.769230 0.5230 0.5120 0.4991 0.4712 0.4561
587.426041 0.4230 0.4080 0.3780 0.3590 0.3480
594.082852 0.3231 0.3081 0.2981 0.2871 0.2840
600.739663 0.2820 0.2720 0.2700 0.2740 0.2830
607.396474 0.3139 0.3439 0.3987 0.4189 0.4389
614.053285 0.4640 0.5010 0.5280 0.5520 0.5630
620.710096 0.5799 0.5999 0.6080 0.6090 0.6150
627.366908 0.6190 0.6230 0.6250 0.6280 0.6400
634.023719 0.6490 0.6590 0.6630 0.6650 0.6680
640.680530 0.6720 0.6760 0.6850 0.6890 0.6930
647.337341 0.7000 0.7030 0.7040 0.7050 0.7070
653.994152 0.7090 0.7090 0.7110 0.7110 0.7110
660.650963 0.7120 0.7130 0.7160 0.7190 0.7190
667.307774 0.7190 0.7190 0.7190 0.7190 0.7200
673.964585 0.7210 0.7210 0.7250 0.7270 0.7270
680.621396 0.7280 0.7280 0.7290 0.7290 0.7310
687.278207 0.7310 0.7310 0.7310 0.7310 0.7310
693.935018 0.7310 0.7310 0.7310 0.7310 0.7310
700.591829 0.7310 0.7290 0.7290 0.7280 0.7280
707.248640 0.7280 0.7270 0.7270 0.7270 0.7250
713.905451 0.7250 0.7230 0.7200 0.7160 0.7150
720.562262 0.7150 0.7110 0.7080 0.7040 0.7000
727.219073 0.6970 0.6890 0.6850 0.6840 0.6731
733.875884 0.6650 0.6520 0.6490 0.6430 0.6430
740.532695 0.6320 0.6230 0.6150 0.6041 0.5990
747.189507 0.5840 0.5800 0.5720 0.5630 0.5570
753.846318 0.5490 0.5430 0.5400 0.5370 0.5330
760.503129 0.5310 0.5280 0.5250 0.5210 0.5190
767.159940 0.5160 0.5130 0.5120 0.5080 0.5010
773.816751 0.4980 0.4940 0.4910 0.4820 0.4800
780.473562 0.4780 0.4671 0.4620 0.4580 0.4501
787.130373 0.4320 0.4280 0.4240 0.4120 0.4040
793.787184 0.3990 0.3900 0.3870 0.3840 0.3820
800.443995 0.3750 0.3680 0.3630 0.3600 0.3550
807.100806 0.3500 0.3480 0.3460 0.3420 0.3380
813.757617 0.3350 0.3310 0.3280 0.3260 0.3240
820.414428 0.3140 0.3100 0.3040 0.2990 0.2901
827.071239 0.2840 0.2820 0.2780 0.2720 0.2700
833.728050 0.2630 0.2580 0.2540 0.2500 0.2500
840.384861 0.2460 0.2390 0.2310 0.2270 0.2180
847.041672 0.2110 0.1931 0.1850 0.1820 0.1790
853.698483 0.1770 0.1740 0.1730 0.1700 0.1690
860.355294 0.1670 0.1660 0.1620 0.1620 0.1610
867.012106 0.1610 0.1590 0.1590 0.1590 0.1590
873.668917 0.1610 0.1610 0.1630 0.1630 0.1660
880.325728 0.1660 0.1670 0.1690 0.1690 0.1700
886.982539 0.1710 0.1730 0.1740 0.1750 0.1770
893.639350 0.1780 0.1780 0.1790 0.1790 0.1790
900.296161 0.1810 0.1810 0.1820 0.1820 0.1830
906.952972 0.1850 0.1860 0.1860 0.1890 0.1900
913.609783 0.1930 0.1990 0.2010 0.2010 0.2089
920.266594 0.2150 0.2290 0.2470 0.2590 0.2670
926.923405 0.2780 0.2900 0.2990 0.3109 0.3219
933.580216 0.3300 0.3510 0.3800 0.4000 0.4179
940.237027 0.4310 0.4439 0.4699 0.4839 0.4989
946.893838 0.5120 0.5280 0.5390 0.5480 0.5600
953.550649 0.5750 0.5880 0.5999 0.6080 0.6150
960.207460 0.6200 0.6280 0.6350 0.6390 0.6400
966.864271 0.6430 0.6430 0.6430 0.6410 0.6410
973.521082 0.6390 0.6360 0.6330 0.6290 0.6250
980.177893 0.6230 0.6190 0.6150 0.6110 0.6080
986.834705 0.6070 0.6050 0.6040 0.6040 0.6030
993.491516 0.6030 0.6030 0.6030 0.6030 0.6030
1000.148327 0.6010 0.6010 0.6010 0.6010 0.6010
1006.805138 0.6010 0.6000 0.6000 0.6000 0.5990
1013.461949 0.5930 0.5880 0.5830 0.5770 0.5710
1020.118760 0.5650 0.5590 0.5491 0.5391 0.5291
1026.775571 0.5200 0.5170 0.5120 0.5010 0.4990
1033.432382 0.4910 0.4870 0.4800 0.4780 0.4740
1040.089193 0.4710 0.4630 0.4600 0.4560 0.4470
1046.746004 0.4430 0.4400 0.4380 0.4300 0.4280
1053.402815 0.4260 0.4240 0.4220 0.4200 0.4180
1060.059626 0.4160 0.4150 0.4140 0.4120 0.4110
1066.716437 0.4110 0.4110 0.4120 0.4150 0.4190
1073.373248 0.4220 0.4280 0.4320 0.4340 0.4350
1080.030059 0.4360 0.4430 0.4500 0.4520 0.4540
1086.686870 0.4580 0.4600 0.4630 0.4640 0.4660
1093.343681 0.4660 0.4660 0.4640 0.4640 0.4660
1100.000492 0.4670 0.4670 0.4680 0.4680 0.4670
1106.657304 0.4670 0.4670 0.4670 0.4670 0.4680
1113.314115 0.4680 0.4700 0.4700 0.4700 0.4710
1119.970926 0.4710 0.4720 0.4740 0.4760 0.4780
1126.627737 0.4790 0.4790 0.4800 0.4840 0.4900
1133.284548 0.4980 0.4980 0.4990 0.5030 0.5050
1139.941359 0.5110 0.5170 0.5210 0.5240 0.5280
1146.598170 0.5320 0.5370 0.5390 0.5410 0.5480
1153.254981 0.5520 0.5570 0.5600 0.5640 0.5680
1159.911792 0.5750 0.5790 0.5850 0.5920 0.5990
1166.568603 0.6040 0.6090 0.6170 0.6200 0.6280
1173.225414 0.6310 0.6320 0.6390 0.6440 0.6490
1179.882225 0.6520 0.6600 0.6650 0.6690 0.6690
1186.539036 0.6730 0.6770 0.6800 0.6830 0.6890
1193.195847 0.6920 0.6990 0.7010 0.7050 0.7080
1199.852658 0.7130 0.7200 0.7250 0.7280 0.7310
1206.509469 0.7310 0.7360 0.7390 0.7390 0.7390
1213.166280 0.7400 0.7450 0.7490 0.7490 0.7520
1219.823091 0.7560 0.7610 0.7640 0.7690 0.7700
1226.479903 0.7730 0.7760 0.7770 0.7770 0.7800
1233.136714 0.7810 0.7880 0.7890 0.7930 0.8000
1239.793525 0.8000 0.8040 0.8100 0.8160 0.8200
1246.450336 0.8240 0.8300 0.8330 0.8400 0.8440
1253.107147 0.8490 0.8530 0.8580 0.8610 0.8650
1259.763958 0.8700 0.8740 0.8770 0.8800 0.8810
1266.420769 0.8820 0.8840 0.8850 0.8880 0.8920
1273.077580 0.8930 0.8960 0.8980 0.9000 0.9000
1279.734391 0.9010 0.9020 0.9020 0.9020 0.9020
1286.391202 0.9020 0.9020 0.9020 0.9020 0.9020
1293.048013 0.9010 0.9010 0.9000 0.8980 0.8970
1299.704824 0.8970 0.8960 0.8960 0.8940 0.8920
1306.361635 0.8880 0.8880 0.8860 0.8860 0.8850
1313.018446 0.8840 0.8820 0.8820 0.8810 0.8810
1319.675257 0.8800 0.8800 0.8770 0.8730 0.8730
1326.332068 0.8720 0.8720 0.8700 0.8700 0.8650
1332.988879 0.8620 0.8610 0.8600 0.8570 0.8540
1339.645690 0.8520 0.8530 0.8490 0.8410 0.8380
1346.302502 0.8340 0.8320 0.8290 0.8280 0.8220
1352.959313 0.8160 0.8090 0.8010 0.8000 0.7901
1359.616124 0.7890 0.7850 0.7820 0.7780 0.7770
1366.272935 0.7760 0.7730 0.7720 0.7720 0.7690
1372.929746 0.7650 0.7640 0.7620 0.7610 0.7600
1379.586557 0.7570 0.7560 0.7490 0.7410 0.7390
1386.243368 0.7320 0.7290 0.7200 0.7130 0.7070
1392.900179 0.6990 0.6532 0.6391 0.6191 0.6031
1399.556990 0.5770 0.5210 0.4880 0.4311 0.4001
1406.213801 0.3591 0.3241 0.2523 0.2460 0.2371
1412.870612 0.2210 0.2180 0.2170 0.2170 0.2180
1419.527423 0.2339 0.2639 0.3018 0.3507 0.3977
1426.184234 0.4190 0.4390 0.4820 0.5030 0.5489
1432.841045 0.5799 0.5989 0.6189 0.6319 0.6489
1439.497856 0.6630 0.6710 0.6770 0.6840 0.6990
1446.154667 0.7010 0.7110 0.7130 0.7210 0.7290
1452.811478 0.7320 0.7360 0.7390 0.7390 0.7440
1459.468289 0.7490 0.7500 0.7540 0.7580 0.7610
1466.125101 0.7610 0.7640 0.7690 0.7730 0.7780
1472.781912 0.7810 0.7890 0.7900 0.7999 0.8010
1479.438723 0.8040 0.8100 0.8160 0.8250 0.8260
1486.095534 0.8290 0.8320 0.8340 0.8380 0.8410
1492.752345 0.8440 0.8460 0.8490 0.8500 0.8520
1499.409156 0.8560 0.8570 0.8600 0.8610 0.8610
1506.065967 0.8610 0.8620 0.8620 0.8620 0.8620
1512.722778 0.8640 0.8650 0.8650 0.8660 0.8660
1519.379589 0.8680 0.8690 0.8700 0.8700 0.8700
1526.036400 0.8700 0.8690 0.8690 0.8680 0.8680
1532.693211 0.8680 0.8660 0.8660 0.8660 0.8660
1539.350022 0.8650 0.8640 0.8620 0.8610 0.8610
1546.006833 0.8600 0.8600 0.8580 0.8570 0.8560
1552.663644 0.8540 0.8530 0.8520 0.8520 0.8500
1559.320455 0.8500 0.8500 0.8490 0.8480 0.8460
1565.977266 0.8450 0.8420 0.8400 0.8360 0.8360
1572.634077 0.8320 0.8290 0.8260 0.8210 0.8160
1579.290888 0.8130 0.8100 0.8010 0.7940 0.7890
1585.947700 0.7820 0.7770 0.7690 0.7620 0.7540
1592.604511 0.7390 0.7280 0.7131 0.7001 0.6801
1599.261322 0.6600 0.6470 0.6310 0.6240 0.6170
1605.918133 0.6000 0.5791 0.5451 0.5231 0.4962
1612.574944 0.4710 0.4710 0.4870 0.5130 0.5160
1619.231755 0.5399 0.5559 0.5988 0.6169 0.6279
1625.888566 0.6310 0.6410 0.6480 0.6570 0.6630
1632.545377 0.6680 0.6720 0.6790 0.6840 0.6890
1639.202188 0.6920 0.6990 0.7010 0.7090 0.7120
1645.858999 0.7130 0.7170 0.7200 0.7270 0.7290
1652.515810 0.7330 0.7370 0.7400 0.7430 0.7490
1659.172621 0.7500 0.7530 0.7570 0.7600 0.7620
1665.829432 0.7660 0.7690 0.7720 0.7760 0.7810
1672.486243 0.7840 0.7880 0.7900 0.7900 0.7930
1679.143054 0.8000 0.8020 0.8120 0.8160 0.8200
1685.799865 0.8210 0.8240 0.8290 0.8300 0.8360
1692.456676 0.8400 0.8480 0.8490 0.8520 0.8540
1699.113487 0.8580 0.8620 0.8640 0.8680 0.8720
1705.770298 0.8740 0.8770 0.8800 0.8810 0.8810
1712.427110 0.8820 0.8860 0.8880 0.8900 0.8920
1719.083921 0.8940 0.8960 0.8960 0.8980 0.8980
1725.740732 0.9000 0.9000 0.9010 0.9010 0.9010
1732.397543 0.9020 0.9020 0.9040 0.9050 0.9080
1739.054354 0.9090 0.9090 0.9100 0.9100 0.9100
1745.711165 0.9120 0.9120 0.9130 0.9130 0.9140
1752.367976 0.9140 0.9140 0.9140 0.9160 0.9160
1759.024787 0.9160 0.9160 0.9160 0.9170 0.9170
1765.681598 0.9170 0.9170 0.9180 0.9180 0.9200
1772.338409 0.9200 0.9210 0.9210 0.9220 0.9220
1778.995220 0.9220 0.9220 0.9220 0.9220 0.9220
1785.652031 0.9220 0.9220 0.9220 0.9220 0.9210
1792.308842 0.9210 0.9200 0.9200 0.9210 0.9210
1798.965653 0.9210 0.9210 0.9210 0.9210 0.9210
1805.622464 0.9200 0.9200 0.9180 0.9170 0.9170
1812.279275 0.9170 0.9170 0.9170 0.9170 0.9170
1818.936086 0.9170 0.9170 0.9170 0.9160 0.9140
1825.592897 0.9140 0.9130 0.9130 0.9130 0.9130
1832.249709 0.9120 0.9120 0.9120 0.9120 0.9120
1838.906520 0.9120 0.9100 0.9100 0.9100 0.9100
1845.563331 0.9100 0.9100 0.9100 0.9090 0.9090
1852.220142 0.9090 0.9090 0.9090 0.9090 0.9090
1858.876953 0.9100 0.9100 0.9100 0.9100 0.9100
1865.533764 0.9120 0.9120 0.9120 0.9120 0.9120
1872.190575 0.9120 0.9120 0.9120 0.9120 0.9120
1878.847386 0.9120 0.9120 0.9100 0.9100 0.9100
1885.504197 0.9090 0.9090 0.9090 0.9080 0.9080
1892.161008 0.9080 0.9080 0.9080 0.9080 0.9080
1898.817819 0.9080 0.9080 0.9080 0.9060 0.9060
1905.474630 0.9050 0.9050 0.9050 0.9050 0.9040
1912.131441 0.9040 0.9040 0.9040 0.9020 0.9020
1918.788252 0.9020 0.9020 0.9020 0.9020 0.9020
1925.445063 0.9010 0.9010 0.9010 0.9010 0.8980
1932.101874 0.8970 0.8960 0.8940 0.8930 0.8920
1938.758685 0.8920 0.8900 0.8890 0.8880 0.8860
1945.415496 0.8860 0.8860 0.8850 0.8840 0.8820
1952.072308 0.8800 0.8780 0.8780 0.8770 0.8760
1958.729119 0.8720 0.8700 0.8690 0.8640 0.8620
1965.385930 0.8610 0.8600 0.8560 0.8540 0.8530
1972.042741 0.8490 0.8410 0.8380 0.8340 0.8300
1978.699552 0.8290 0.8290 0.8220 0.8180 0.8170
1985.356363 0.8120 0.8090 0.8020 0.8000 0.7970
1992.013174 0.7890 0.7860 0.7800 0.7740 0.7700
1998.669985 0.7680 0.7620 0.7595 0.7570 0.7530
2005.326796 0.7490 0.7445 0.7400 0.7335 0.7270
2011.983607 0.7190 0.7110 0.6850 0.6590 0.6495
2018.640418 0.6400 0.6165 0.5930 0.5720 0.5510
2025.297229 0.5212 0.4909 0.4439 0.3974 0.3739
2031.954040 0.3504 0.3264 0.3025 0.2830 0.2627
2038.610851 0.2057 0.1495 0.1275 0.1058 0.0963
2045.267662 0.0866 0.0681 0.0498 0.0413 0.0328
2051.924473 0.0258 0.0188 0.0148 0.0109 0.0079
2058.581284 0.0049 0.0034 0.0020 0.0020 0.0020
2065.238095 0.0015 0.0010 0.0010 0.0010 0.0010
2071.894907 0.0010 0.0010 0.0010 0.0010 0.0010
2078.551718 0.0010 0.0010 0.0010 0.0010 0.0010
2085.208529 0.0010 0.0010 0.0010 0.0010 0.0010
2091.865340 0.0010 0.0010 0.0010 0.0010 0.0015
2098.522151 0.0020 0.0020 0.0020 0.0025 0.0032
2105.178962 0.0063 0.0092 0.0112 0.0133 0.0163
2111.835773 0.0219 0.0518 0.0818 0.1118 0.1405
2118.492584 0.1560 0.1715 0.1870 0.2054 0.2524
2125.149395 0.3003 0.3568 0.4097 0.4277 0.4457
2131.806206 0.4639 0.4824 0.5029 0.5223 0.5333
2138.463017 0.5431 0.5436 0.5441 0.5446 0.5452
2145.119828 0.5472 0.5496 0.5551 0.5628 0.5868
2151.776639 0.6104 0.6309 0.6497 0.6557 0.6616
2158.433450 0.6672 0.6729 0.6794 0.6855 0.6890
2165.090261 0.6923 0.6943 0.6962 0.6977 0.6991
2171.747072 0.6996 0.7000 0.7000 0.7000 0.7000
2178.403883 0.7001 0.7006 0.7011 0.7021 0.7033
2185.060694 0.7053 0.7071 0.7076 0.7087 0.7127
2191.717506 0.7167 0.7212 0.7262 0.7337 0.7407
2198.374317 0.7452 0.7492 0.7507 0.7531 0.7596
2205.031128 0.7661 0.7726 0.7790 0.7850 0.7907
2211.687939 0.7947 0.7986 0.8016 0.8045 0.8070
2218.344750 0.8094 0.8114 0.8135 0.8160 0.8186
2225.001561 0.8216 0.8245 0.8270 0.8293 0.8308
2231.658372 0.8322 0.8332 0.8340 0.8340 0.8342
2238.315183 0.8352 0.8362 0.8372 0.8382 0.8392
2244.971994 0.8405 0.8430 0.8451 0.8456 0.8462
2251.628805 0.8472 0.8480 0.8480 0.8481 0.8486
2258.285616 0.8490 0.8490 0.8490 0.8490 0.8490
2264.942427 0.8490 0.8491 0.8496 0.8500 0.8500
2271.599238 0.8500 0.8500 0.8500 0.8500 0.8502
2278.256049 0.8512 0.8520 0.8520 0.8520 0.8520
2284.912860 0.8520 0.8520 0.8518 0.8508 0.8502
2291.569671 0.8513 0.8520 0.8520 0.8521 0.8526
2298.226482 0.8530 0.8530 0.8529 0.8524 0.8520
2304.883293 0.8520 0.8517 0.8507 0.8499 0.8494
2311.540105 0.8491 0.8496 0.8503 0.8513 0.8520
2318.196916 0.8520 0.8523 0.8533 0.8543 0.8553
2324.853727 0.8561 0.8566 0.8571 0.8576 0.8580
2331.510538 0.8580 0.8580 0.8580 0.8580 0.8580
2338.167349 0.8580 0.8580 0.8580 0.8580 0.8580
2344.824160 0.8580 0.8580 0.8580 0.8580 0.8580
2351.480971 0.8585 0.8600 0.8610 0.8610 0.8610
2358.137782 0.8610 0.8610 0.8610 0.8610 0.8610
2364.794593 0.8608 0.8603 0.8600 0.8600 0.8600
2371.451404 0.8600 0.8602 0.8607 0.8612 0.8617
2378.108215 0.8627 0.8647 0.8667 0.8687 0.8712
2384.765026 0.8747 0.8782 0.8817 0.8840 0.8840
2391.421837 0.8850 0.8880 0.8900 0.8900 0.8903
2398.078648 0.8913 0.8920 0.8920 0.8922 0.8927
2404.735459 0.8930 0.8930 0.8930 0.8930 0.8930
2411.392270 0.8930 0.8932 0.8937 0.8940 0.8940
2418.049081 0.8940 0.8940 0.8944 0.8954 0.8962
2424.705892 0.8967 0.8970 0.8970 0.8970 0.8970
2431.362704 0.8970 0.8970 0.8972 0.8977 0.8980
2438.019515 0.8980 0.8980 0.8980 0.8980 0.8980
2444.676326 0.8980 0.8980 0.8980 0.8980 0.8980
2451.333137 0.8980 0.8980 0.8980 0.8980 0.8980
2457.989948 0.8980 0.8980 0.8980 0.8980 0.8980
2464.646759 0.8980 0.8980 0.8980 0.8980 0.8980
2471.303570 0.8980 0.8980 0.8980 0.8980 0.8980
2477.960381 0.8980 0.8980 0.8980 0.8978 0.8973
2484.617192 0.8970 0.8970 0.8970 0.8970 0.8968
2491.274003 0.8963 0.8960 0.8960 0.8960 0.8960
2497.930814 0.8956 0.8946 0.8940 0.8940 0.8938
2504.587625 0.8933 0.8930 0.8930 0.8930 0.8930
2511.244436 0.8930 0.8930 0.8930 0.8930 0.8930
2517.901247 0.8930 0.8928 0.8923 0.8920 0.8920
2524.558058 0.8916 0.8906 0.8898 0.8893 0.8890
2531.214869 0.8890 0.8890 0.8890 0.8888 0.8883
2537.871680 0.8880 0.8880 0.8873 0.8858 0.8848
2544.528491 0.8843 0.8835 0.8825 0.8818 0.8813
2551.185303 0.8810 0.8810 0.8808 0.8803 0.8800
2557.842114 0.8800 0.8800 0.8800 0.8795 0.8785
2564.498925 0.8780 0.8780 0.8780 0.8780 0.8778
2571.155736 0.8773 0.8770 0.8770 0.8768 0.8763
2577.812547 0.8760 0.8760 0.8755 0.8745 0.8740
2584.469358 0.8740 0.8740 0.8740 0.8737 0.8732
2591.126169 0.8730 0.8730 0.8727 0.8722 0.8720
2597.782980 0.8720 0.8715 0.8705 0.8700 0.8700
2604.439791 0.8700 0.8700 0.8700 0.8700 0.8700
2611.096602 0.8700 0.8700 0.8700 0.8700 0.8700
2617.753413 0.8700 0.8700 0.8700 0.8700 0.8700
2624.410224 0.8700 0.8700 0.8700 0.8697 0.8692
2631.067035 0.8690 0.8690 0.8690 0.8690 0.8687
2637.723846 0.8682 0.8680 0.8680 0.8680 0.8680
2644.380657 0.8674 0.8664 0.8657 0.8652 0.8650
2651.037468 0.8650 0.8647 0.8642 0.8631 0.8617
2657.694279 0.8610 0.8610 0.8607 0.8602 0.8594
2664.351090 0.8584 0.8577 0.8572 0.8567 0.8562
2671.007902 0.8551 0.8536 0.8527 0.8522 0.8511
2677.664713 0.8496 0.8481 0.8466 0.8454 0.8444
2684.321524 0.8428 0.8408 0.8394 0.8384 0.8374
2690.978335 0.8364 0.8354 0.8344 0.8340 0.8340
2697.635146 0.8337 0.8332 0.8330 0.8330 0.8330
2704.291957 0.8330 0.8327 0.8322 0.8320 0.8320
2710.948768 0.8323 0.8328 0.8333 0.8338 0.8340
2717.605579 0.8340 0.8337 0.8332 0.8330 0.8330
2724.262390 0.8327 0.8322 0.8314 0.8304 0.8300
2730.919201 0.8300 0.8300 0.8300 0.8300 0.8300
2737.576012 0.8300 0.8300 0.8297 0.8292 0.8287
2744.232823 0.8282 0.8280 0.8280 0.8280 0.8280
2750.889634 0.8280 0.8280 0.8273 0.8263 0.8257
2757.546445 0.8252 0.8250 0.8250 0.8240 0.8225
2764.203256 0.8217 0.8212 0.8207 0.8202 0.8193
2770.860067 0.8183 0.8180 0.8180 0.8180 0.8180
2777.516878 0.8177 0.8172 0.8167 0.8162 0.8150
2784.173689 0.8135 0.8127 0.8122 0.8110 0.8095
2790.830501 0.8087 0.8082 0.8070 0.8055 0.8040
2797.487312 0.8024 0.8013 0.8003 0.7989 0.7974
2804.144123 0.7945 0.7910 0.7893 0.7883 0.7880
2810.800934 0.7880 0.7880 0.7880 0.7873 0.7863
2817.457745 0.7860 0.7860 0.7860 0.7860 0.7860
2824.114556 0.7860 0.7856 0.7851 0.7850 0.7850
2830.771367 0.7839 0.7824 0.7816 0.7811 0.7810
2837.428178 0.7810 0.7806 0.7801 0.7793 0.7783
2844.084989 0.7765 0.7745 0.7722 0.7697 0.7679
2850.741800 0.7664 0.7637 0.7607 0.7589 0.7574
2857.398611 0.7555 0.7535 0.7511 0.7486 0.7450
2864.055422 0.7410 0.7385 0.7365 0.7345 0.7325
2870.712233 0.7305 0.7285 0.7269 0.7254 0.7246
2877.369044 0.7241 0.7240 0.7240 0.7244 0.7249
2884.025855 0.7250 0.7250 0.7250 0.7250 0.7242
2890.682666 0.7232 0.7222 0.7212 0.7210 0.7210
2897.339477 0.7206 0.7201 0.7188 0.7173 0.7150
2903.996288 0.7125 0.7116 0.7111 0.7098 0.7083
2910.653100 0.7060 0.7035 0.7014 0.6994 0.6978
2917.309911 0.6963 0.6944 0.6924 0.6904 0.6884
2923.966722 0.6844 0.6799 0.6750 0.6700 0.6649
2930.623533 0.6599 0.6573 0.6553 0.6542 0.6532
2937.280344 0.6530 0.6530 0.6526 0.6521 0.6520
2943.937155 0.6520 0.6508 0.6493 0.6469 0.6444
2950.593966 0.6419 0.6394 0.6365 0.6335 0.6313
2957.250777 0.6293 0.6273 0.6253 0.6233 0.6213
2963.907588 0.6201 0.6191 0.6190 0.6190 0.6199
2970.564399 0.6209 0.6240 0.6275 0.6301 0.6326
2977.221210 0.6373 0.6423 0.6455 0.6485 0.6516
2983.878021 0.6546 0.6568 0.6588 0.6594 0.6599
2990.534832 0.6600 0.6600 0.6600 0.6600 0.6600
2997.191643 0.6600 0.6596 0.6591 0.6577 0.6562
3003.848454 0.6547 0.6532 0.6521 0.6511 0.6501
3010.505265 0.6491 0.6481 0.6471 0.6461 0.6451
3017.162076 0.6441 0.6431 0.6412 0.6392 0.6363
3023.818887 0.6333 0.6312 0.6292 0.6286 0.6281
3030.475699 0.6262 0.6242 0.6240 0.6240 0.6235
3037.132510 0.6230 0.6230 0.6230 0.6221 0.6211
3043.789321 0.6205 0.6200 0.6200 0.6200 0.6195
3050.446132 0.6190 0.6181 0.6171 0.6161 0.6151
3057.102943 0.6150 0.6150 0.6118 0.6083 0.6057
3063.759754 0.6031 0.6016 0.6001 0.5995 0.5990
3070.416565 0.5990 0.5990 0.5962 0.5932 0.5925
3077.073376 0.5920 0.5915 0.5910 0.5891 0.5871
3083.730187 0.5842 0.5812 0.5801 0.5791 0.5780
3090.386998 0.5770 0.5770 0.5770 0.5765 0.5760
3097.043809 0.5741 0.5721 0.5701 0.5681 0.5636
3103.700620 0.5591 0.5556 0.5521 0.5505 0.5490
3110.357431 0.5480 0.5470 0.5441 0.5411 0.5405
3117.014242 0.5400 0.5395 0.5390 0.5360 0.5330
3123.671053 0.5290 0.5250 0.5225 0.5200 0.5185
3130.327864 0.5170 0.5150 0.5130 0.5105 0.5080
3136.984675 0.5075 0.5070 0.5030 0.4990 0.4985
3143.641486 0.4979 0.4944 0.4909 0.4874 0.4840
3150.298297 0.4835 0.4830 0.4805 0.4780 0.4770
3156.955109 0.4760 0.4750 0.4740 0.4720 0.4700
3163.611920 0.4685 0.4670 0.4645 0.4620 0.4599
3170.268731 0.4579 0.4549 0.4520 0.4510 0.4500
3176.925542 0.4490 0.4480 0.4480 0.4479 0.4454
3183.582353 0.4429 0.4409 0.4388 0.4333 0.4279
3190.239164 0.4249 0.4219 0.4199 0.4179 0.4164
3196.895975 0.4148 0.4113 0.4078 0.4053 0.4028
3203.552786 0.4003 0.3979 0.3969 0.3957 0.3917
3210.209597 0.3878 0.3853 0.3829 0.3814 0.3799
3216.866408 0.3789 0.3778 0.3743 0.3709 0.3688
3223.523219 0.3666 0.3626 0.3587 0.3552 0.3519
3230.180030 0.3509 0.3499 0.3484 0.3469 0.3454
3236.836841 0.3435 0.3375 0.3318 0.3298 0.3280
3243.493652 0.3275 0.3269 0.3254 0.3238 0.3212
3250.150463 0.3187 0.3162 0.3138 0.3123 0.3108
3256.807274 0.3093 0.3079 0.3074 0.3068 0.3048
3263.464085 0.3028 0.3013 0.3000 0.3000 0.3001
3270.120896 0.3011 0.3022 0.3042 0.3062 0.3083
3276.777708 0.3103 0.3123 0.3141 0.3146 0.3155
3283.434519 0.3190 0.3221 0.3231 0.3243 0.3263
3290.091330 0.3282 0.3297 0.3312 0.3327 0.3343
3296.748141 0.3368 0.3393 0.3413 0.3432 0.3447
3303.404952 0.3463 0.3483 0.3501 0.3506 0.3511
3310.061763 0.3516 0.3522 0.3532 0.3540 0.3540
3316.718574 0.3538 0.3523 0.3510 0.3510 0.3509
3323.375385 0.3504 0.3500 0.3500 0.3498 0.3488
3330.032196 0.3478 0.3468 0.3458 0.3448 0.3439
3336.689007 0.3434 0.3429 0.3424 0.3418 0.3408
3343.345818 0.3398 0.3388 0.3378 0.3368 0.3355
3350.002629 0.3330 0.3306 0.3286 0.3266 0.3246
3356.659440 0.3226 0.3206 0.3187 0.3172 0.3158
3363.316251 0.3148 0.3138 0.3128 0.3116 0.3096
3369.973062 0.3075 0.3050 0.3026 0.3006 0.2989
3376.629873 0.2984 0.2980 0.2980 0.2976 0.2956
3383.286684 0.2940 0.2940 0.2937 0.2922 0.2909
3389.943495 0.2904 0.2898 0.2888 0.2879 0.2874
3396.600307 0.2867 0.2852 0.2838 0.2828 0.2817
3403.257118 0.2802 0.2789 0.2784 0.2778 0.2768
3409.913929 0.2759 0.2754 0.2749 0.2744 0.2736
3416.570740 0.2721 0.2709 0.2704 0.2697 0.2687
3423.227551 0.2679 0.2674 0.2669 0.2664 0.2660
3429.884362 0.2660 0.2660 0.2660 0.2661 0.2666
3436.541173 0.2670 0.2670 0.2670 0.2670 0.2671
3443.197984 0.2676 0.2683 0.2693 0.2700 0.2700
3449.854795 0.2701 0.2706 0.2711 0.2716 0.2723
3456.511606 0.2733 0.2741 0.2746 0.2751 0.2756
3463.168417 0.2763 0.2773 0.2783 0.2793 0.2803
3469.825228 0.2813 0.2822 0.2827 0.2835 0.2850
3476.482039 0.2872 0.2912 0.2946 0.2966 0.2981
3483.138850 0.2986 0.2991 0.2996 0.3005 0.3020
3489.795661 0.3038 0.3063 0.3085 0.3100 0.3121
3496.452472 0.3156 0.3186 0.3206 0.3226 0.3246
3503.109283 0.3263 0.3273 0.3283 0.3293 0.3306
3509.766094 0.3326 0.3346 0.3366 0.3383 0.3393
3516.422906 0.3414 0.3454 0.3487 0.3507 0.3530
3523.079717 0.3560 0.3589 0.3614 0.3639 0.3664
3529.736528 0.3687 0.3707 0.3730 0.3760 0.3787
3536.393339 0.3807 0.3836 0.3881 0.3922 0.3958
3543.050150 0.3984 0.3994 0.4013 0.4048 0.4077
3549.706961 0.4097 0.4123 0.4158 0.4197 0.4242
3556.363772 0.4279 0.4304 0.4327 0.4347 0.4367
3563.020583 0.4387 0.4415 0.4455 0.4499 0.4549
3569.677394 0.4598 0.4643 0.4692 0.4747 0.4790
3576.334205 0.4815 0.4860 0.4935 0.4984 0.4994
3582.991016 0.5006 0.5021 0.5032 0.5037 0.5042
3589.647827 0.5047 0.5054 0.5064 0.5072 0.5077
3596.304638 0.5086 0.5101 0.5156 0.5266 0.5378
3602.961449 0.5493 0.5638 0.5823 0.5959 0.6029
3609.618260 0.6089 0.6134 0.6168 0.6188 0.6208
3616.275071 0.6228 0.6259 0.6304 0.6355 0.6416
3622.931882 0.6459 0.6479 0.6499 0.6519 0.6539
3629.588693 0.6559 0.6574 0.6584 0.6592 0.6597
3636.245505 0.6607 0.6622 0.6634 0.6644 0.6657
3642.902316 0.6672 0.6700 0.6745 0.6774 0.6785
3649.559127 0.6799 0.6819 0.6851 0.6896 0.6941
3656.215938 0.6986 0.7036 0.7091 0.7139 0.7179
3662.872749 0.7226 0.7281 0.7315 0.7325 0.7335
3669.529560 0.7345 0.7362 0.7387 0.7419 0.7459
3676.186371 0.7490 0.7510 0.7535 0.7565 0.7605
3682.843182 0.7655 0.7690 0.7710 0.7735 0.7765
3689.499993 0.7787 0.7802 0.7827 0.7862 0.7875
3696.156804 0.7865 0.7884 0.7934 0.7970 0.7990
3702.813615 0.8005 0.8015 0.8030 0.8050 0.8068
3709.470426 0.8083 0.8098 0.8113 0.8125 0.8135
3716.127237 0.8148 0.8163 0.8178 0.8193 0.8205
3722.784048 0.8215 0.8220 0.8220 0.8228 0.8243
3729.440859 0.8253 0.8258 0.8265 0.8275 0.8280
3736.097670 0.8280 0.8280 0.8280 0.8283 0.8288
3742.754481 0.8290 0.8290 0.8290 0.8290 0.8290
3749.411292 0.8290 0.8293 0.8298 0.8300 0.8300
3756.068104 0.8300 0.8300 0.8306 0.8316 0.8320
3762.724915 0.8320 0.8323 0.8328 0.8333 0.8338
3769.381726 0.8340 0.8340 0.8340 0.8340 0.8340
3776.038537 0.8340 0.8340 0.8340 0.8340 0.8340
3782.695348 0.8340 0.8340 0.8346 0.8356 0.8360
3789.352159 0.8360 0.8360 0.8360 0.8360 0.8360
3796.008970 0.8366 0.8376 0.8380 0.8380 0.8386
3802.665781 0.8396 0.8400 0.8400 0.8400 0.8400
3809.322592 0.8394 0.8384 0.8380 0.8380 0.8380
3815.979403 0.8380 0.8380 0.8380 0.8380 0.8380
3822.636214 0.8380 0.8380 0.8380 0.8380 0.8380
3829.293025 0.8380 0.8380 0.8380 0.8380 0.8380
3835.949836 0.8380 0.8380 0.8380 0.8380 0.8386
3842.606647 0.8396 0.8400 0.8400 0.8403 0.8408
3849.263458 0.8410 0.8410 0.8413 0.8418 0.8426
3855.920269 0.8436 0.8440 0.8440 0.8440 0.8440
3862.577080 0.8433 0.8423 0.8420 0.8420 0.8417
3869.233891 0.8412 0.8410 0.8410 0.8407 0.8402
3875.890703 0.8400 0.8400 0.8400 0.8400 0.8400
3882.547514 0.8400 0.8400 0.8400 0.8403 0.8408
3889.204325 0.8410 0.8410 0.8407 0.8402 0.8400
3895.861136 0.8400 0.8400 0.8400 0.8400 0.8400
3902.517947 0.8400 0.8400 0.8400 0.8400 0.8403
3909.174758 0.8408 0.8410 0.8410 0.8410 0.8410
3915.831569 0.8410 0.8410 0.8410 0.8410 0.8410
3922.488380 0.8410 0.8410 0.8410 0.8410 0.8410
3929.145191 0.8406 0.8401 0.8393 0.8383 0.8380
3935.802002 0.8380 0.8380 0.8380 0.8373 0.8363
3942.458813 0.8360 0.8360 0.8360 0.8360 0.8360
3949.115624 0.8360 0.8360 0.8360 0.8353 0.8343
3955.772435 0.8340 0.8340 0.8340 0.8340 0.8347
3962.429246 0.8357 0.8360 0.8360 0.8364 0.8369
3969.086057 0.8370 0.8370 0.8366 0.8361 0.8352
3975.742868 0.8342 0.8340 0.8340 0.8340 0.8340
3982.399679 0.8336 0.8331 0.8330 0.8330 0.8330
3989.056490 0.8330
##END=
