##TITLE=MANGANESE PHOSPHATE, TRIBASIC
$$ C.P.
##JCAMP-DX=4.24
##DATA TYPE=INFRARED SPECTRUM
##CLASS=COBLENTZ
##ORIGIN=MELLON INSTITUTE
##OWNER=COBLENTZ SOCIETY
Collection (C) 2018 copyright by the U.S. Secretary of Commerce
on behalf of the United States of America. All rights reserved.
##DATE=Not specified, most likely prior to 1970
##MOLFORM=Mn3 ( P O4)2  * 7 H2 O
##SOURCE REFERENCE=COBLENTZ NO. 569
##$NIST ID=B6000569
##$NIST SOURCE=COBLENTZ
##$NIST IMAGE=cob569
##SPECTROMETER/DATA SYSTEM=Not specified, most likely a prism, grating, or hybrid spectrometer.
##STATE=SOLID (NUJOL MULL)
##PATH LENGTH=
$$SPECTRAL CONTAMINATION DUE TO OIL AROUND 2900, 1450, 1380 CM^-^1
##SAMPLING PROCEDURE=TRANSMISSION
##RESOLUTION=4
##DATA PROCESSING=DIGITIZED BY NIST FROM HARD COPY
##XUNITS=MICROMETERS
##YUNITS=TRANSMITTANCE
##XFACTOR=1.000000
##YFACTOR=1
##DELTAX=000.006655
##FIRSTX=2.028
##LASTX=16.003
##FIRSTY=0.958
##MAXX=16.003
##MINX=2.028
##MAXY=0.984
##MINY=0.07
##NPOINTS=2101
##XYDATA=(X++(Y..Y))
2.028000 0.9580 0.9580 0.9580 0.9590 0.9590
2.061289 0.9590 0.9610 0.9610 0.9610 0.9610
2.095000 0.9630 0.9630 0.9630 0.9630 0.9630
2.128289 0.9640 0.9640 0.9640 0.9640 0.9660
2.162000 0.9660 0.9660 0.9660 0.9660 0.9680
2.195289 0.9690 0.9690 0.9710 0.9710 0.9710
2.228000 0.9710 0.9690 0.9690 0.9690 0.9690
2.261289 0.9680 0.9640 0.9610 0.9610 0.9590
2.295000 0.9590 0.9540 0.9510 0.9510 0.9510
2.328289 0.9510 0.9530 0.9530 0.9530 0.9530
2.361000 0.9530 0.9540 0.9560 0.9580 0.9580
2.394289 0.9580 0.9580 0.9580 0.9590 0.9580
2.428000 0.9580 0.9580 0.9580 0.9590 0.9590
2.461289 0.9630 0.9640 0.9680 0.9690 0.9710
2.494000 0.9710 0.9730 0.9730 0.9730 0.9730
2.527289 0.9730 0.9730 0.9740 0.9740 0.9760
2.561000 0.9760 0.9740 0.9730 0.9730 0.9730
2.594289 0.9730 0.9730 0.9740 0.9740 0.9760
2.627000 0.9780 0.9810 0.9830 0.9840 0.9840
2.660289 0.9790 0.9760 0.9730 0.9730 0.9730
2.694000 0.9730 0.9740 0.9780 0.9780 0.9780
2.727289 0.9740 0.9730 0.9690 0.9640 0.9610
2.760000 0.9590 0.9540 0.9480 0.9430 0.9360
2.793289 0.9290 0.9220 0.9160 0.9090 0.9020
2.827000 0.8970 0.8890 0.8740 0.8640 0.8500
2.860289 0.8400 0.8240 0.8000 0.7680 0.7400
2.894000 0.7030 0.6610 0.6410 0.6380 0.6410
2.927289 0.6610 0.6800 0.7050 0.7110 0.7180
2.960000 0.7130 0.7110 0.7030 0.7000 0.6850
2.993289 0.6750 0.6660 0.6610 0.6560 0.6540
3.027000 0.6580 0.6610 0.6680 0.6710 0.6810
3.060289 0.6850 0.6880 0.6900 0.6900 0.6860
3.093000 0.6850 0.6810 0.6800 0.6730 0.6700
3.126289 0.6640 0.6630 0.6610 0.6610 0.6590
3.160000 0.6590 0.6590 0.6610 0.6630 0.6680
3.193289 0.6680 0.6700 0.6700 0.6700 0.6680
3.226000 0.6680 0.6660 0.6630 0.6630 0.6610
3.259289 0.6590 0.6580 0.6560 0.6480 0.6330
3.293000 0.6230 0.6080 0.5910 0.5520 0.5200
3.326289 0.4890 0.3930 0.2590 0.1720 0.1420
3.359000 0.1200 0.1120 0.0850 0.0800 0.0700
3.392289 0.0700 0.0920 0.1180 0.1450 0.1770
3.426000 0.2090 0.2260 0.2310 0.2260 0.2170
3.459289 0.2070 0.1970 0.1950 0.1970 0.2470
3.492000 0.2890 0.3500 0.4320 0.5640 0.6110
3.525289 0.6480 0.6680 0.6860 0.6960 0.7130
3.559000 0.7230 0.7380 0.7430 0.7580 0.7600
3.592289 0.7620 0.7670 0.7780 0.7830 0.7870
3.626000 0.7880 0.7900 0.7920 0.7930 0.7970
3.659289 0.8000 0.8020 0.8070 0.8100 0.8120
3.692000 0.8170 0.8190 0.8200 0.8220 0.8240
3.725289 0.8240 0.8270 0.8290 0.8300 0.8340
3.759000 0.8370 0.8390 0.8420 0.8420 0.8450
3.792289 0.8450 0.8490 0.8500 0.8500 0.8520
3.825000 0.8540 0.8570 0.8590 0.8590 0.8600
3.858289 0.8620 0.8620 0.8640 0.8650 0.8670
3.892000 0.8670 0.8670 0.8650 0.8650 0.8640
3.925289 0.8620 0.8600 0.8590 0.8570 0.8550
3.958000 0.8550 0.8520 0.8520 0.8500 0.8500
3.991289 0.8500 0.8490 0.8490 0.8470 0.8470
4.025000 0.8470 0.8470 0.8470 0.8470 0.8470
4.058289 0.8470 0.8470 0.8490 0.8490 0.8490
4.091000 0.8500 0.8500 0.8500 0.8500 0.8520
4.124289 0.8520 0.8520 0.8500 0.8500 0.8520
4.158000 0.8520 0.8540 0.8540 0.8570 0.8570
4.191289 0.8570 0.8570 0.8520 0.8490 0.8450
4.224000 0.8440 0.8420 0.8400 0.8370 0.8350
4.257289 0.8350 0.8340 0.8320 0.8320 0.8320
4.291000 0.8320 0.8320 0.8320 0.8320 0.8320
4.324289 0.8340 0.8340 0.8350 0.8370 0.8390
4.358000 0.8400 0.8450 0.8520 0.8540 0.8570
4.391289 0.8570 0.8600 0.8640 0.8670 0.8690
4.424000 0.8720 0.8720 0.8740 0.8760 0.8790
4.457289 0.8810 0.8810 0.8840 0.8840 0.8840
4.491000 0.8860 0.8870 0.8870 0.8890 0.8890
4.524289 0.8910 0.8910 0.8910 0.8910 0.8920
4.557000 0.8920 0.8920 0.8920 0.8920 0.8920
4.590289 0.8920 0.8920 0.8920 0.8920 0.8920
4.624000 0.8920 0.8960 0.8960 0.8960 0.8970
4.657289 0.8970 0.8970 0.8990 0.8990 0.8990
4.690000 0.8990 0.9010 0.9010 0.9020 0.9020
4.723289 0.9020 0.9020 0.9020 0.9020 0.9040
4.757000 0.9040 0.9060 0.9070 0.9090 0.9090
4.790289 0.9090 0.9110 0.9110 0.9110 0.9110
4.823000 0.9120 0.9110 0.9110 0.9110 0.9120
4.856289 0.9120 0.9120 0.9120 0.9140 0.9160
4.890000 0.9160 0.9160 0.9170 0.9170 0.9170
4.923289 0.9170 0.9190 0.9210 0.9210 0.9220
4.956000 0.9220 0.9240 0.9240 0.9220 0.9220
4.989289 0.9220 0.9240 0.9240 0.9240 0.9240
5.023000 0.9240 0.9260 0.9270 0.9290 0.9290
5.056289 0.9310 0.9310 0.9320 0.9310 0.9310
5.090000 0.9310 0.9310 0.9320 0.9320 0.9340
5.123289 0.9340 0.9340 0.9360 0.9360 0.9360
5.156000 0.9380 0.9380 0.9380 0.9380 0.9380
5.189289 0.9380 0.9380 0.9380 0.9380 0.9380
5.223000 0.9380 0.9390 0.9410 0.9410 0.9410
5.256289 0.9410 0.9410 0.9430 0.9430 0.9430
5.289000 0.9440 0.9440 0.9430 0.9430 0.9430
5.322289 0.9430 0.9430 0.9430 0.9430 0.9430
5.356000 0.9430 0.9430 0.9440 0.9440 0.9440
5.389289 0.9440 0.9430 0.9430 0.9440 0.9440
5.422000 0.9440 0.9440 0.9430 0.9430 0.9430
5.455289 0.9440 0.9440 0.9440 0.9430 0.9410
5.489000 0.9390 0.9390 0.9390 0.9410 0.9410
5.522289 0.9410 0.9430 0.9430 0.9430 0.9440
5.555000 0.9440 0.9460 0.9490 0.9490 0.9480
5.588289 0.9480 0.9490 0.9510 0.9510 0.9510
5.622000 0.9510 0.9510 0.9510 0.9510 0.9530
5.655289 0.9510 0.9530 0.9530 0.9530 0.9530
5.688000 0.9510 0.9510 0.9510 0.9510 0.9510
5.721289 0.9510 0.9510 0.9530 0.9530 0.9530
5.755000 0.9530 0.9510 0.9510 0.9510 0.9510
5.788289 0.9510 0.9510 0.9510 0.9490 0.9490
5.822000 0.9510 0.9530 0.9530 0.9530 0.9530
5.855289 0.9530 0.9530 0.9540 0.9540 0.9540
5.888000 0.9540 0.9540 0.9530 0.9530 0.9530
5.921289 0.9530 0.9530 0.9540 0.9560 0.9540
5.955000 0.9540 0.9510 0.9510 0.9510 0.9510
5.988289 0.9530 0.9540 0.9560 0.9580 0.9580
6.021000 0.9590 0.9590 0.9580 0.9560 0.9530
6.054289 0.9490 0.9440 0.9440 0.9430 0.9430
6.088000 0.9430 0.9410 0.9410 0.9390 0.9390
6.121289 0.9390 0.9390 0.9390 0.9390 0.9390
6.154000 0.9380 0.9380 0.9380 0.9380 0.9380
6.187289 0.9380 0.9380 0.9380 0.9380 0.9380
6.221000 0.9380 0.9380 0.9380 0.9390 0.9390
6.254289 0.9390 0.9390 0.9390 0.9390 0.9380
6.287000 0.9380 0.9360 0.9340 0.9320 0.9320
6.320289 0.9320 0.9320 0.9320 0.9290 0.9290
6.354000 0.9270 0.9270 0.9270 0.9270 0.9290
6.387289 0.9290 0.9290 0.9290 0.9290 0.9270
6.420000 0.9270 0.9270 0.9290 0.9290 0.9310
6.453289 0.9310 0.9320 0.9320 0.9320 0.9360
6.487000 0.9380 0.9380 0.9380 0.9380 0.9380
6.520289 0.9360 0.9340 0.9340 0.9320 0.9320
6.554000 0.9310 0.9310 0.9310 0.9310 0.9290
6.587289 0.9310 0.9310 0.9310 0.9310 0.9310
6.620000 0.9290 0.9270 0.9260 0.9270 0.9310
6.653289 0.9320 0.9310 0.9310 0.9310 0.9320
6.687000 0.9320 0.9320 0.9310 0.9240 0.9220
6.720289 0.9220 0.9220 0.9160 0.9110 0.9060
6.753000 0.9020 0.8910 0.8770 0.8690 0.8500
6.786289 0.8420 0.7630 0.7110 0.6800 0.6510
6.820000 0.6340 0.6130 0.6080 0.6010 0.5970
6.853289 0.5920 0.5920 0.5920 0.5940 0.5990
6.886000 0.6040 0.6190 0.6310 0.6460 0.6660
6.919289 0.6880 0.7100 0.7230 0.7330 0.7480
6.953000 0.7630 0.7800 0.8000 0.8100 0.8270
6.986289 0.8400 0.8500 0.8650 0.8820 0.8940
7.019000 0.9010 0.9010 0.9010 0.9020 0.9040
7.052289 0.9040 0.9120 0.9190 0.9240 0.9260
7.086000 0.9310 0.9340 0.9380 0.9390 0.9430
7.119289 0.9440 0.9460 0.9480 0.9480 0.9480
7.152000 0.9480 0.9460 0.9430 0.9410 0.9390
7.185289 0.9220 0.9040 0.8940 0.8720 0.8520
7.219000 0.8350 0.8040 0.7800 0.7680 0.7620
7.252289 0.7600 0.7620 0.7700 0.7720 0.7830
7.286000 0.7920 0.8000 0.8050 0.8150 0.8200
7.319289 0.8250 0.8340 0.8440 0.8590 0.8670
7.352000 0.8740 0.8840 0.8860 0.8920 0.8940
7.385289 0.8970 0.9010 0.9020 0.9020 0.9020
7.419000 0.9040 0.9040 0.9040 0.9040 0.9040
7.452289 0.9040 0.9040 0.9060 0.9060 0.9070
7.485000 0.9070 0.9090 0.9090 0.9110 0.9120
7.518289 0.9120 0.9120 0.9120 0.9110 0.9040
7.552000 0.9040 0.9020 0.8990 0.8990 0.8970
7.585289 0.8960 0.8920 0.8910 0.8870 0.8840
7.618000 0.8820 0.8790 0.8760 0.8720 0.8690
7.651289 0.8650 0.8640 0.8620 0.8600 0.8570
7.685000 0.8550 0.8550 0.8540 0.8520 0.8500
7.718289 0.8500 0.8490 0.8490 0.8490 0.8490
7.751000 0.8490 0.8490 0.8490 0.8500 0.8500
7.784289 0.8540 0.8550 0.8570 0.8590 0.8590
7.818000 0.8600 0.8600 0.8600 0.8600 0.8600
7.851289 0.8590 0.8590 0.8590 0.8550 0.8540
7.884000 0.8540 0.8500 0.8500 0.8470 0.8470
7.917289 0.8450 0.8450 0.8420 0.8420 0.8390
7.951000 0.8390 0.8370 0.8350 0.8350 0.8340
7.984289 0.8320 0.8320 0.8320 0.8340 0.8340
8.018000 0.8350 0.8350 0.8370 0.8370 0.8390
8.051289 0.8420 0.8450 0.8470 0.8500 0.8500
8.084000 0.8540 0.8550 0.8620 0.8640 0.8650
8.117289 0.8720 0.8760 0.8770 0.8790 0.8810
8.151000 0.8820 0.8820 0.8860 0.8860 0.8860
8.184289 0.8870 0.8870 0.8890 0.8890 0.8890
8.217000 0.8890 0.8890 0.8910 0.8910 0.8910
8.250289 0.8910 0.8910 0.8890 0.8890 0.8890
8.284000 0.8890 0.8890 0.8890 0.8890 0.8890
8.317289 0.8890 0.8870 0.8870 0.8870 0.8860
8.350000 0.8840 0.8820 0.8810 0.8810 0.8810
8.383289 0.8790 0.8770 0.8770 0.8760 0.8760
8.417000 0.8760 0.8740 0.8720 0.8720 0.8710
8.450289 0.8690 0.8600 0.8550 0.8520 0.8490
8.483000 0.8450 0.8400 0.8370 0.8340 0.8290
8.516289 0.8250 0.8220 0.8140 0.8090 0.8020
8.550000 0.7920 0.7820 0.7750 0.7680 0.7630
8.583289 0.7570 0.7500 0.7380 0.7300 0.7230
8.616000 0.7160 0.7110 0.7030 0.7010 0.6950
8.649289 0.6830 0.6780 0.6730 0.6640 0.6540
8.683000 0.6490 0.6440 0.6410 0.6340 0.6330
8.716289 0.6310 0.6290 0.6280 0.6260 0.6260
8.750000 0.6290 0.6310 0.6340 0.6380 0.6440
8.783289 0.6480 0.6510 0.6530 0.6590 0.6660
8.816000 0.6710 0.6730 0.6800 0.6830 0.6850
8.849289 0.6860 0.6880 0.6900 0.6910 0.6910
8.883000 0.6910 0.6910 0.6930 0.6930 0.6930
8.916289 0.6910 0.6910 0.6910 0.6910 0.6900
8.949000 0.6880 0.6850 0.6810 0.6760 0.6710
8.982289 0.6610 0.6530 0.6430 0.6330 0.6230
9.016000 0.6140 0.6030 0.6010 0.5910 0.5860
9.049289 0.5810 0.5790 0.5740 0.5720 0.5690
9.082000 0.5670 0.5660 0.5640 0.5610 0.5560
9.115289 0.5540 0.5490 0.5440 0.5390 0.5270
9.149000 0.5200 0.5100 0.5020 0.5000 0.4990
9.182289 0.4900 0.4840 0.4630 0.4500 0.4350
9.215000 0.4230 0.4120 0.4030 0.4020 0.3830
9.248289 0.3710 0.3650 0.3530 0.3480 0.3350
9.282000 0.3310 0.3230 0.3190 0.3130 0.3060
9.315289 0.3030 0.3030 0.2990 0.2990 0.2990
9.348000 0.2980 0.2980 0.2980 0.2980 0.2990
9.381289 0.3010 0.3030 0.3060 0.3090 0.3110
9.415000 0.3130 0.3130 0.3140 0.3160 0.3160
9.448289 0.3180 0.3180 0.3180 0.3180 0.3180
9.482000 0.3160 0.3160 0.3160 0.3130 0.3110
9.515289 0.3040 0.2990 0.2940 0.2930 0.2910
9.548000 0.2910 0.2890 0.2840 0.2830 0.2810
9.581289 0.2790 0.2780 0.2780 0.2780 0.2760
9.615000 0.2760 0.2740 0.2740 0.2740 0.2740
9.648289 0.2740 0.2740 0.2730 0.2730 0.2730
9.681000 0.2710 0.2710 0.2690 0.2680 0.2640
9.714289 0.2620 0.2590 0.2560 0.2560 0.2540
9.748000 0.2540 0.2540 0.2540 0.2540 0.2540
9.781289 0.2540 0.2540 0.2560 0.2560 0.2590
9.814000 0.2610 0.2620 0.2660 0.2690 0.2710
9.847289 0.2780 0.2840 0.2890 0.2930 0.2980
9.881000 0.3030 0.3080 0.3180 0.3190 0.3330
9.914289 0.3400 0.3430 0.3500 0.3560 0.3680
9.947000 0.3780 0.3860 0.3930 0.4000 0.4070
9.980289 0.4230 0.4330 0.4380 0.4420 0.4470
10.014000 0.4550 0.4600 0.4630 0.4700 0.4720
10.047289 0.4740 0.4750 0.4800 0.4800 0.4800
10.080000 0.4800 0.4820 0.4820 0.4820 0.4800
10.113289 0.4800 0.4790 0.4750 0.4720 0.4700
10.147000 0.4670 0.4650 0.4650 0.4630 0.4620
10.180289 0.4620 0.4600 0.4580 0.4580 0.4580
10.214000 0.4580 0.4600 0.4600 0.4600 0.4630
10.247289 0.4670 0.4700 0.4720 0.4750 0.4820
10.280000 0.4840 0.4850 0.4870 0.4900 0.4920
10.313289 0.4920 0.4940 0.4950 0.4990 0.5020
10.347000 0.5040 0.5050 0.5120 0.5150 0.5200
10.380289 0.5200 0.5220 0.5250 0.5290 0.5320
10.413000 0.5340 0.5360 0.5390 0.5420 0.5440
10.446289 0.5460 0.5490 0.5510 0.5520 0.5560
10.480000 0.5610 0.5640 0.5670 0.5720 0.5810
10.513289 0.5860 0.5920 0.6010 0.6010 0.6030
10.546000 0.6040 0.6130 0.6160 0.6210 0.6260
10.579289 0.6260 0.6290 0.6340 0.6380 0.6390
10.613000 0.6390 0.6390 0.6410 0.6410 0.6410
10.646289 0.6410 0.6410 0.6430 0.6430 0.6410
10.679000 0.6410 0.6410 0.6410 0.6430 0.6440
10.712289 0.6480 0.6510 0.6530 0.6540 0.6560
10.746000 0.6610 0.6640 0.6680 0.6750 0.6780
10.779289 0.6850 0.6900 0.6950 0.7010 0.7050
10.812000 0.7060 0.7100 0.7150 0.7210 0.7250
10.845289 0.7280 0.7310 0.7350 0.7400 0.7430
10.879000 0.7470 0.7500 0.7530 0.7530 0.7530
10.912289 0.7550 0.7550 0.7570 0.7600 0.7620
10.946000 0.7630 0.7650 0.7670 0.7670 0.7670
10.979289 0.7680 0.7700 0.7720 0.7720 0.7720
11.012000 0.7720 0.7720 0.7730 0.7730 0.7730
11.045289 0.7730 0.7750 0.7750 0.7750 0.7750
11.079000 0.7750 0.7770 0.7770 0.7770 0.7780
11.112289 0.7780 0.7780 0.7780 0.7800 0.7800
11.145000 0.7820 0.7820 0.7830 0.7830 0.7850
11.178289 0.7870 0.7870 0.7880 0.7900 0.7920
11.212000 0.7930 0.7930 0.7930 0.7950 0.7950
11.245289 0.7970 0.7980 0.7980 0.8000 0.8020
11.278000 0.8040 0.8040 0.8050 0.8070 0.8070
11.311289 0.8090 0.8100 0.8120 0.8150 0.8190
11.345000 0.8200 0.8220 0.8240 0.8240 0.8250
11.378289 0.8270 0.8270 0.8290 0.8320 0.8340
11.411000 0.8340 0.8340 0.8350 0.8350 0.8370
11.444289 0.8400 0.8420 0.8440 0.8450 0.8450
11.478000 0.8490 0.8490 0.8490 0.8500 0.8520
11.511289 0.8540 0.8550 0.8550 0.8550 0.8570
11.544000 0.8600 0.8600 0.8600 0.8620 0.8640
11.577289 0.8640 0.8650 0.8650 0.8690 0.8710
11.611000 0.8710 0.8710 0.8720 0.8740 0.8760
11.644289 0.8770 0.8810 0.8810 0.8820 0.8840
11.678000 0.8860 0.8860 0.8870 0.8870 0.8870
11.711289 0.8890 0.8890 0.8910 0.8910 0.8920
11.744000 0.8940 0.8940 0.8960 0.8960 0.8970
11.777289 0.8970 0.8990 0.9010 0.9010 0.9020
11.811000 0.9020 0.9010 0.9010 0.9020 0.9020
11.844289 0.9020 0.9020 0.9020 0.9020 0.9040
11.877000 0.9020 0.9020 0.9020 0.9020 0.9020
11.910289 0.9040 0.9040 0.9040 0.9040 0.9040
11.944000 0.9060 0.9060 0.9060 0.9060 0.9060
11.977289 0.9070 0.9070 0.9070 0.9090 0.9090
12.010000 0.9090 0.9090 0.9110 0.9110 0.9110
12.043289 0.9110 0.9110 0.9090 0.9070 0.9070
12.077000 0.9060 0.9060 0.9060 0.9060 0.9060
12.110289 0.9060 0.9060 0.9060 0.9040 0.9040
12.143000 0.9040 0.9040 0.9040 0.9040 0.9040
12.176289 0.9040 0.9040 0.9060 0.9060 0.9040
12.210000 0.9040 0.9040 0.9040 0.9040 0.9040
12.243289 0.9020 0.9020 0.9010 0.9010 0.9010
12.276000 0.9010 0.9010 0.9010 0.9010 0.9010
12.309289 0.8990 0.9010 0.9010 0.9010 0.8990
12.343000 0.8990 0.8990 0.8970 0.8970 0.8970
12.376289 0.8970 0.8970 0.8970 0.8970 0.8970
12.410000 0.8960 0.8960 0.8940 0.8920 0.8920
12.443289 0.8920 0.8910 0.8910 0.8890 0.8890
12.476000 0.8870 0.8870 0.8860 0.8840 0.8840
12.509289 0.8840 0.8840 0.8840 0.8820 0.8820
12.543000 0.8810 0.8810 0.8790 0.8770 0.8770
12.576289 0.8770 0.8760 0.8760 0.8740 0.8740
12.609000 0.8760 0.8740 0.8740 0.8740 0.8740
12.642289 0.8740 0.8740 0.8720 0.8720 0.8720
12.676000 0.8710 0.8710 0.8710 0.8690 0.8690
12.709289 0.8670 0.8670 0.8650 0.8650 0.8650
12.742000 0.8650 0.8650 0.8650 0.8650 0.8650
12.775289 0.8650 0.8650 0.8650 0.8620 0.8620
12.809000 0.8620 0.8620 0.8620 0.8620 0.8620
12.842289 0.8620 0.8620 0.8620 0.8620 0.8620
12.875000 0.8620 0.8620 0.8600 0.8600 0.8600
12.908289 0.8600 0.8600 0.8600 0.8600 0.8570
12.942000 0.8570 0.8570 0.8570 0.8570 0.8550
12.975289 0.8550 0.8540 0.8520 0.8540 0.8540
13.008000 0.8520 0.8520 0.8520 0.8500 0.8500
13.041289 0.8500 0.8500 0.8500 0.8500 0.8500
13.075000 0.8490 0.8490 0.8470 0.8470 0.8470
13.108289 0.8470 0.8450 0.8440 0.8440 0.8420
13.142000 0.8400 0.8400 0.8390 0.8390 0.8390
13.175289 0.8390 0.8390 0.8370 0.8370 0.8370
13.208000 0.8350 0.8350 0.8350 0.8340 0.8340
13.241289 0.8340 0.8340 0.8340 0.8320 0.8320
13.275000 0.8300 0.8290 0.8290 0.8270 0.8270
13.308289 0.8270 0.8270 0.8250 0.8270 0.8270
13.341000 0.8250 0.8250 0.8240 0.8240 0.8240
13.374289 0.8240 0.8240 0.8240 0.8240 0.8220
13.408000 0.8220 0.8220 0.8220 0.8220 0.8220
13.441289 0.8220 0.8220 0.8220 0.8240 0.8240
13.474000 0.8240 0.8250 0.8250 0.8250 0.8250
13.507289 0.8250 0.8250 0.8250 0.8250 0.8240
13.541000 0.8240 0.8240 0.8250 0.8250 0.8250
13.574289 0.8250 0.8250 0.8250 0.8250 0.8240
13.607000 0.8240 0.8240 0.8240 0.8240 0.8240
13.640289 0.8240 0.8240 0.8240 0.8240 0.8240
13.674000 0.8240 0.8240 0.8240 0.8240 0.8240
13.707289 0.8250 0.8250 0.8250 0.8240 0.8240
13.740000 0.8240 0.8240 0.8220 0.8240 0.8220
13.773289 0.8220 0.8220 0.8220 0.8220 0.8200
13.807000 0.8200 0.8200 0.8190 0.8170 0.8170
13.840289 0.8170 0.8150 0.8150 0.8140 0.8140
13.874000 0.8140 0.8140 0.8120 0.8120 0.8100
13.907289 0.8100 0.8100 0.8100 0.8090 0.8070
13.940000 0.8070 0.8070 0.8070 0.8070 0.8070
13.973289 0.8070 0.8050 0.8050 0.8040 0.8020
14.007000 0.8020 0.8020 0.8020 0.8020 0.8020
14.040289 0.8020 0.8020 0.8020 0.8020 0.8020
14.073000 0.8020 0.8020 0.8020 0.8020 0.8020
14.106289 0.8020 0.8020 0.8020 0.8020 0.8020
14.140000 0.8020 0.8040 0.8040 0.8050 0.8050
14.173289 0.8050 0.8050 0.8050 0.8040 0.8050
14.206000 0.8050 0.8050 0.8050 0.8050 0.8050
14.239289 0.8050 0.8050 0.8050 0.8050 0.8050
14.273000 0.8050 0.8040 0.8050 0.8050 0.8070
14.306289 0.8070 0.8070 0.8070 0.8070 0.8050
14.339000 0.8050 0.8070 0.8070 0.8070 0.8070
14.372289 0.8070 0.8070 0.8070 0.8070 0.8090
14.406000 0.8070 0.8070 0.8070 0.8070 0.8070
14.439289 0.8070 0.8070 0.8070 0.8050 0.8050
14.472000 0.8050 0.8050 0.8050 0.8050 0.8050
14.505289 0.8050 0.8050 0.8050 0.8050 0.8050
14.539000 0.8050 0.8050 0.8050 0.8050 0.8050
14.572289 0.8050 0.8050 0.8050 0.8050 0.8050
14.606000 0.8050 0.8050 0.8050 0.8050 0.8050
14.639289 0.8050 0.8050 0.8050 0.8050 0.8050
14.672000 0.8040 0.8040 0.8040 0.8040 0.8040
14.705289 0.8040 0.8040 0.8040 0.8040 0.8040
14.739000 0.8040 0.8040 0.8040 0.8020 0.8020
14.772289 0.8020 0.8020 0.8020 0.8000 0.7980
14.805000 0.7980 0.7970 0.7950 0.7930 0.7930
14.838289 0.7930 0.7930 0.7930 0.7930 0.7930
14.872000 0.7930 0.7930 0.7930 0.7930 0.7930
14.905289 0.7950 0.7930 0.7930 0.7930 0.7930
14.938000 0.7930 0.7930 0.7930 0.7930 0.7920
14.971289 0.7920 0.7920 0.7920 0.7920 0.7920
15.005000 0.7920 0.7900 0.7880 0.7880 0.7880
15.038289 0.7870 0.7870 0.7850 0.7850 0.7850
15.071000 0.7850 0.7850 0.7830 0.7830 0.7830
15.104289 0.7830 0.7830 0.7820 0.7820 0.7820
15.138000 0.7820 0.7820 0.7820 0.7820 0.7820
15.171289 0.7800 0.7800 0.7800 0.7800 0.7780
15.204000 0.7770 0.7770 0.7750 0.7750 0.7750
15.237289 0.7750 0.7730 0.7730 0.7730 0.7720
15.271000 0.7720 0.7720 0.7700 0.7700 0.7700
15.304289 0.7700 0.7680 0.7680 0.7680 0.7680
15.338000 0.7680 0.7680 0.7670 0.7670 0.7670
15.371289 0.7670 0.7670 0.7670 0.7670 0.7670
15.404000 0.7670 0.7650 0.7650 0.7650 0.7650
15.437289 0.7630 0.7630 0.7620 0.7600 0.7600
15.471000 0.7600 0.7600 0.7600 0.7600 0.7600
15.504289 0.7600 0.7550 0.7550 0.7550 0.7550
15.537000 0.7550 0.7550 0.7550 0.7550 0.7550
15.570289 0.7530 0.7530 0.7550 0.7550 0.7550
15.604000 0.7530 0.7530 0.7520 0.7520 0.7520
15.637289 0.7500 0.7500 0.7500 0.7500 0.7480
15.670000 0.7480 0.7470 0.7470 0.7470 0.7470
15.703289 0.7470 0.7450 0.7450 0.7430 0.7430
15.737000 0.7430 0.7430 0.7430 0.7430 0.7420
15.770289 0.7420 0.7420 0.7420 0.7430 0.7420
15.803000 0.7420 0.7420 0.7420 0.7420 0.7420
15.836289 0.7400 0.7400 0.7400 0.7400 0.7420
15.870000 0.7420 0.7400 0.7400 0.7400 0.7400
15.903289 0.7400 0.7380 0.7380 0.7380 0.7370
15.936000 0.7370 0.7370 0.7370 0.7370 0.7370
15.969289 0.7380 0.7370 0.7370 0.7370 0.7370
16.003000 0.7370
##END=
