##TITLE=LEAD NITRATE
$$ A.R.
##JCAMP-DX=4.24
##DATA TYPE=INFRARED SPECTRUM
##CLASS=COBLENTZ
##ORIGIN=MELLON INSTITUTE
##OWNER=COBLENTZ SOCIETY
Collection (C) 2018 copyright by the U.S. Secretary of Commerce
on behalf of the United States of America. All rights reserved.
##DATE=Not specified, most likely prior to 1970
##MOLFORM=Pb ( N O3)2
##SOURCE REFERENCE=COBLENTZ NO. 533
##$NIST ID=B6000533
##$NIST SOURCE=COBLENTZ
##$NIST IMAGE=cob533
##SPECTROMETER/DATA SYSTEM=Not specified, most likely a prism, grating, or hybrid spectrometer.
##STATE=SOLID (NUJOL MULL)
##PATH LENGTH=
$$SPECTRAL CONTAMINATION DUE TO OIL AROUND 2900, 1450 CM^-^1
##SAMPLING PROCEDURE=TRANSMISSION
##RESOLUTION=4
##DATA PROCESSING=DIGITIZED BY NIST FROM HARD COPY
##XUNITS=MICROMETERS
##YUNITS=TRANSMITTANCE
##XFACTOR=1.000000
##YFACTOR=1
##DELTAX=000.006659
##FIRSTX=2.041
##LASTX=16.0179
##FIRSTY=0.619
##MAXX=16.0179
##MINX=2.041
##MAXY=0.934
##MINY=0.187
##NPOINTS=2100
##XYDATA=(X++(Y..Y))
2.041000 0.6190 0.6190 0.6190 0.6190 0.6210
2.074309 0.6190 0.6190 0.6190 0.6180 0.6180
2.108000 0.6160 0.6160 0.6180 0.6180 0.6180
2.141309 0.6160 0.6160 0.6160 0.6160 0.6180
2.174000 0.6180 0.6180 0.6190 0.6190 0.6190
2.207309 0.6210 0.6210 0.6230 0.6230 0.6240
2.241000 0.6240 0.6230 0.6230 0.6240 0.6240
2.274309 0.6240 0.6240 0.6240 0.6240 0.6240
2.308000 0.6260 0.6280 0.6280 0.6290 0.6290
2.341309 0.6290 0.6290 0.6290 0.6290 0.6310
2.374000 0.6310 0.6310 0.6310 0.6310 0.6330
2.407309 0.6310 0.6330 0.6330 0.6330 0.6330
2.441000 0.6330 0.6330 0.6340 0.6340 0.6340
2.474309 0.6340 0.6340 0.6360 0.6360 0.6380
2.507000 0.6380 0.6380 0.6390 0.6410 0.6410
2.540309 0.6430 0.6440 0.6440 0.6460 0.6480
2.574000 0.6480 0.6490 0.6510 0.6510 0.6510
2.607309 0.6530 0.6530 0.6580 0.6590 0.6590
2.640000 0.6610 0.6630 0.6630 0.6630 0.6630
2.673309 0.6640 0.6640 0.6640 0.6640 0.6660
2.707000 0.6680 0.6680 0.6680 0.6680 0.6680
2.740309 0.6680 0.6680 0.6680 0.6700 0.6700
2.774000 0.6700 0.6700 0.6700 0.6700 0.6710
2.807309 0.6710 0.6710 0.6730 0.6730 0.6730
2.840000 0.6730 0.6730 0.6730 0.6730 0.6730
2.873309 0.6730 0.6730 0.6730 0.6730 0.6730
2.907000 0.6730 0.6730 0.6730 0.6730 0.6730
2.940309 0.6730 0.6730 0.6730 0.6730 0.6730
2.973000 0.6730 0.6750 0.6760 0.6750 0.6750
3.006309 0.6750 0.6750 0.6750 0.6760 0.6760
3.040000 0.6760 0.6780 0.6780 0.6800 0.6800
3.073309 0.6800 0.6800 0.6800 0.6810 0.6810
3.107000 0.6830 0.6830 0.6830 0.6830 0.6830
3.140309 0.6850 0.6850 0.6860 0.6860 0.6860
3.173000 0.6860 0.6880 0.6880 0.6900 0.6910
3.206309 0.6910 0.6910 0.6930 0.6930 0.6950
3.240000 0.6950 0.6950 0.6960 0.6960 0.6950
3.273309 0.6950 0.6910 0.6880 0.6810 0.6800
3.306000 0.6580 0.6340 0.5990 0.5890 0.5520
3.339309 0.5320 0.5100 0.4890 0.4370 0.3900
3.373000 0.3860 0.3860 0.3860 0.3980 0.4170
3.406309 0.4370 0.4480 0.4600 0.4620 0.4620
3.439000 0.4580 0.4550 0.4520 0.4530 0.4550
3.472309 0.4770 0.5300 0.5520 0.5790 0.6010
3.506000 0.6140 0.6540 0.6710 0.6850 0.7000
3.539309 0.7010 0.7080 0.7110 0.7150 0.7180
3.573000 0.7230 0.7260 0.7310 0.7350 0.7350
3.606309 0.7370 0.7380 0.7400 0.7420 0.7430
3.639000 0.7450 0.7450 0.7470 0.7470 0.7470
3.672309 0.7480 0.7480 0.7480 0.7500 0.7500
3.706000 0.7500 0.7520 0.7520 0.7520 0.7530
3.739309 0.7530 0.7530 0.7530 0.7550 0.7530
3.772000 0.7550 0.7550 0.7550 0.7550 0.7570
3.805309 0.7570 0.7570 0.7570 0.7580 0.7580
3.839000 0.7580 0.7580 0.7600 0.7600 0.7600
3.872309 0.7600 0.7600 0.7620 0.7620 0.7620
3.906000 0.7620 0.7620 0.7620 0.7620 0.7620
3.939309 0.7620 0.7620 0.7620 0.7620 0.7620
3.972000 0.7630 0.7630 0.7630 0.7630 0.7630
4.005309 0.7630 0.7630 0.7630 0.7630 0.7630
4.039000 0.7630 0.7630 0.7630 0.7630 0.7630
4.072309 0.7630 0.7630 0.7630 0.7630 0.7630
4.105000 0.7630 0.7630 0.7630 0.7630 0.7630
4.138309 0.7630 0.7630 0.7630 0.7630 0.7630
4.172000 0.7630 0.7630 0.7650 0.7630 0.7630
4.205309 0.7630 0.7630 0.7630 0.7630 0.7650
4.238000 0.7630 0.7620 0.7630 0.7630 0.7630
4.271309 0.7630 0.7630 0.7630 0.7630 0.7650
4.305000 0.7650 0.7650 0.7650 0.7650 0.7670
4.338309 0.7670 0.7680 0.7700 0.7700 0.7700
4.372000 0.7700 0.7700 0.7700 0.7700 0.7720
4.405309 0.7720 0.7720 0.7720 0.7720 0.7720
4.438000 0.7730 0.7750 0.7750 0.7750 0.7750
4.471309 0.7750 0.7750 0.7750 0.7750 0.7750
4.505000 0.7750 0.7750 0.7750 0.7750 0.7750
4.538309 0.7750 0.7750 0.7750 0.7750 0.7750
4.571000 0.7750 0.7750 0.7750 0.7750 0.7750
4.604309 0.7770 0.7770 0.7770 0.7770 0.7770
4.638000 0.7770 0.7770 0.7770 0.7770 0.7770
4.671309 0.7770 0.7770 0.7770 0.7770 0.7770
4.705000 0.7770 0.7770 0.7770 0.7770 0.7770
4.738309 0.7770 0.7770 0.7770 0.7770 0.7780
4.771000 0.7780 0.7780 0.7780 0.7780 0.7780
4.804309 0.7780 0.7780 0.7780 0.7780 0.7780
4.838000 0.7800 0.7800 0.7800 0.7780 0.7780
4.871309 0.7780 0.7780 0.7780 0.7780 0.7780
4.904000 0.7800 0.7800 0.7800 0.7800 0.7800
4.937309 0.7820 0.7820 0.7820 0.7830 0.7830
4.971000 0.7830 0.7830 0.7830 0.7850 0.7850
5.004309 0.7850 0.7850 0.7870 0.7870 0.7870
5.038000 0.7870 0.7880 0.7880 0.7880 0.7880
5.071309 0.7900 0.7920 0.7930 0.7930 0.7930
5.104000 0.7950 0.7950 0.7950 0.7950 0.7970
5.137309 0.7970 0.7970 0.7980 0.7980 0.7980
5.171000 0.7980 0.8000 0.8000 0.8000 0.8000
5.204309 0.8020 0.8020 0.8040 0.8020 0.8040
5.237000 0.8050 0.8050 0.8050 0.8050 0.8050
5.270309 0.8050 0.8050 0.8070 0.8070 0.8070
5.304000 0.8070 0.8090 0.8090 0.8090 0.8090
5.337309 0.8090 0.8090 0.8090 0.8090 0.8090
5.370000 0.8090 0.8090 0.8090 0.8090 0.8090
5.403309 0.8090 0.8090 0.8090 0.8100 0.8100
5.437000 0.8120 0.8120 0.8140 0.8140 0.8140
5.470309 0.8140 0.8150 0.8150 0.8150 0.8150
5.504000 0.8190 0.8190 0.8200 0.8200 0.8200
5.537309 0.8220 0.8220 0.8240 0.8240 0.8250
5.570000 0.8250 0.8250 0.8250 0.8250 0.8270
5.603309 0.8290 0.8290 0.8300 0.8300 0.8320
5.637000 0.8340 0.8340 0.8350 0.8350 0.8350
5.670309 0.8370 0.8390 0.8400 0.8400 0.8420
5.703000 0.8440 0.8440 0.8450 0.8470 0.8490
5.736309 0.8500 0.8500 0.8520 0.8540 0.8540
5.770000 0.8550 0.8550 0.8570 0.8590 0.8590
5.803309 0.8600 0.8600 0.8600 0.8600 0.8620
5.837000 0.8620 0.8620 0.8640 0.8640 0.8640
5.870309 0.8640 0.8640 0.8650 0.8650 0.8650
5.903000 0.8650 0.8650 0.8670 0.8670 0.8670
5.936309 0.8670 0.8670 0.8690 0.8710 0.8710
5.970000 0.8710 0.8720 0.8720 0.8720 0.8720
6.003309 0.8720 0.8720 0.8720 0.8740 0.8740
6.036000 0.8740 0.8740 0.8740 0.8740 0.8740
6.069309 0.8740 0.8740 0.8740 0.8740 0.8740
6.103000 0.8740 0.8760 0.8760 0.8760 0.8760
6.136309 0.8760 0.8760 0.8760 0.8760 0.8760
6.169000 0.8760 0.8760 0.8770 0.8770 0.8770
6.202309 0.8770 0.8770 0.8790 0.8790 0.8790
6.236000 0.8790 0.8790 0.8790 0.8790 0.8790
6.269309 0.8790 0.8790 0.8810 0.8810 0.8810
6.303000 0.8810 0.8810 0.8810 0.8810 0.8790
6.336309 0.8810 0.8810 0.8790 0.8790 0.8790
6.369000 0.8790 0.8770 0.8770 0.8760 0.8760
6.402309 0.8760 0.8760 0.8770 0.8770 0.8770
6.436000 0.8770 0.8760 0.8760 0.8760 0.8760
6.469309 0.8760 0.8760 0.8760 0.8760 0.8770
6.502000 0.8770 0.8760 0.8760 0.8740 0.8760
6.535309 0.8740 0.8740 0.8740 0.8720 0.8720
6.569000 0.8710 0.8710 0.8690 0.8670 0.8670
6.602309 0.8650 0.8650 0.8650 0.8650 0.8650
6.636000 0.8650 0.8650 0.8650 0.8650 0.8650
6.669309 0.8640 0.8620 0.8570 0.8550 0.8550
6.702000 0.8540 0.8520 0.8500 0.8440 0.8390
6.735309 0.8320 0.8200 0.8050 0.7950 0.7780
6.769000 0.7570 0.7500 0.7420 0.7280 0.7150
6.802309 0.6980 0.6830 0.6800 0.6760 0.6760
6.835000 0.6750 0.6750 0.6750 0.6750 0.6750
6.868309 0.6750 0.6750 0.6750 0.6750 0.6750
6.902000 0.6780 0.6810 0.6830 0.6830 0.6850
6.935309 0.6850 0.6850 0.6830 0.6800 0.6750
6.969000 0.6660 0.6630 0.6610 0.6510 0.6410
7.002309 0.6280 0.6040 0.5740 0.5520 0.5270
7.035000 0.5000 0.4920 0.4840 0.4650 0.4420
7.068309 0.4220 0.4020 0.3900 0.3730 0.3510
7.102000 0.3400 0.3080 0.2860 0.2730 0.2610
7.135309 0.2540 0.2460 0.2360 0.2290 0.2220
7.168000 0.2160 0.2090 0.2040 0.2020 0.1970
7.201309 0.1920 0.1890 0.1890 0.1870 0.1870
7.235000 0.1870 0.1870 0.1890 0.1920 0.1940
7.268309 0.1970 0.2010 0.2040 0.2110 0.2190
7.301000 0.2290 0.2360 0.2440 0.2470 0.2660
7.334309 0.2790 0.2980 0.3090 0.3260 0.3480
7.368000 0.3750 0.3980 0.4200 0.4330 0.4470
7.401309 0.4580 0.4650 0.4750 0.4870 0.4920
7.435000 0.5150 0.5250 0.5300 0.5370 0.5440
7.468309 0.5510 0.5540 0.5570 0.5620 0.5670
7.501000 0.5720 0.5760 0.5810 0.5840 0.5870
7.534309 0.5920 0.6010 0.6010 0.6030 0.6060
7.568000 0.6110 0.6140 0.6190 0.6240 0.6280
7.601309 0.6310 0.6380 0.6410 0.6440 0.6460
7.634000 0.6530 0.6560 0.6590 0.6640 0.6680
7.667309 0.6710 0.6750 0.6800 0.6850 0.6880
7.701000 0.6910 0.7000 0.7010 0.7050 0.7100
7.734309 0.7150 0.7180 0.7230 0.7280 0.7310
7.768000 0.7350 0.7420 0.7430 0.7470 0.7480
7.801309 0.7530 0.7570 0.7580 0.7620 0.7630
7.834000 0.7650 0.7680 0.7720 0.7750 0.7770
7.867309 0.7780 0.7820 0.7830 0.7850 0.7870
7.901000 0.7900 0.7920 0.7930 0.7970 0.8000
7.934309 0.8020 0.8020 0.8040 0.8040 0.8050
7.967000 0.8050 0.8090 0.8120 0.8140 0.8150
8.000309 0.8170 0.8190 0.8200 0.8220 0.8240
8.034000 0.8250 0.8270 0.8300 0.8300 0.8320
8.067309 0.8340 0.8340 0.8350 0.8350 0.8390
8.100000 0.8400 0.8400 0.8420 0.8420 0.8440
8.133309 0.8440 0.8450 0.8470 0.8470 0.8490
8.167000 0.8500 0.8500 0.8500 0.8520 0.8520
8.200309 0.8520 0.8520 0.8540 0.8540 0.8540
8.234000 0.8540 0.8550 0.8550 0.8590 0.8590
8.267309 0.8600 0.8600 0.8620 0.8620 0.8620
8.300000 0.8620 0.8620 0.8640 0.8640 0.8650
8.333309 0.8650 0.8650 0.8650 0.8650 0.8650
8.367000 0.8650 0.8670 0.8690 0.8690 0.8690
8.400309 0.8690 0.8720 0.8710 0.8710 0.8710
8.433000 0.8720 0.8720 0.8720 0.8720 0.8720
8.466309 0.8720 0.8760 0.8760 0.8760 0.8760
8.500000 0.8770 0.8770 0.8770 0.8770 0.8770
8.533309 0.8770 0.8770 0.8770 0.8770 0.8770
8.567000 0.8770 0.8790 0.8790 0.8790 0.8790
8.600309 0.8790 0.8790 0.8790 0.8790 0.8790
8.633000 0.8790 0.8790 0.8790 0.8790 0.8790
8.666309 0.8790 0.8790 0.8790 0.8790 0.8790
8.700000 0.8790 0.8790 0.8790 0.8790 0.8790
8.733309 0.8790 0.8790 0.8790 0.8790 0.8790
8.766000 0.8790 0.8790 0.8790 0.8790 0.8790
8.799309 0.8790 0.8790 0.8790 0.8790 0.8790
8.833000 0.8790 0.8790 0.8790 0.8790 0.8790
8.866309 0.8790 0.8790 0.8790 0.8790 0.8790
8.900000 0.8790 0.8790 0.8790 0.8790 0.8790
8.933309 0.8790 0.8790 0.8790 0.8790 0.8790
8.966000 0.8790 0.8790 0.8790 0.8810 0.8810
8.999309 0.8820 0.8810 0.8810 0.8810 0.8810
9.033000 0.8790 0.8790 0.8790 0.8790 0.8790
9.066309 0.8790 0.8790 0.8790 0.8790 0.8790
9.099000 0.8790 0.8790 0.8790 0.8790 0.8790
9.132309 0.8790 0.8790 0.8810 0.8810 0.8810
9.166000 0.8810 0.8810 0.8810 0.8810 0.8810
9.199309 0.8810 0.8810 0.8810 0.8810 0.8810
9.232000 0.8810 0.8820 0.8820 0.8820 0.8820
9.265309 0.8820 0.8820 0.8820 0.8820 0.8820
9.299000 0.8820 0.8820 0.8820 0.8820 0.8840
9.332309 0.8840 0.8840 0.8840 0.8840 0.8840
9.366000 0.8840 0.8840 0.8840 0.8860 0.8860
9.399309 0.8860 0.8860 0.8860 0.8860 0.8860
9.432000 0.8860 0.8860 0.8860 0.8860 0.8860
9.465309 0.8870 0.8890 0.8890 0.8890 0.8890
9.499000 0.8890 0.8910 0.8910 0.8910 0.8910
9.532309 0.8910 0.8910 0.8910 0.8910 0.8910
9.565000 0.8890 0.8890 0.8890 0.8890 0.8890
9.598309 0.8890 0.8890 0.8890 0.8890 0.8890
9.632000 0.8890 0.8890 0.8890 0.8910 0.8910
9.665309 0.8920 0.8910 0.8910 0.8910 0.8910
9.699000 0.8910 0.8910 0.8910 0.8910 0.8910
9.732309 0.8910 0.8910 0.8910 0.8910 0.8910
9.765000 0.8910 0.8910 0.8910 0.8910 0.8910
9.798309 0.8910 0.8910 0.8910 0.8910 0.8910
9.832000 0.8910 0.8910 0.8910 0.8920 0.8920
9.865309 0.8920 0.8940 0.8940 0.8940 0.8940
9.898000 0.8940 0.8940 0.8940 0.8940 0.8940
9.931309 0.8960 0.8960 0.8960 0.8960 0.8960
9.965000 0.8960 0.8960 0.8960 0.8960 0.8970
9.998309 0.8990 0.8990 0.8990 0.8990 0.8990
10.031000 0.8990 0.8990 0.8990 0.8990 0.8990
10.064309 0.8990 0.9010 0.9010 0.9010 0.9020
10.098000 0.9010 0.9010 0.9010 0.9010 0.9010
10.131309 0.9010 0.9010 0.9010 0.9010 0.9010
10.165000 0.9010 0.9010 0.9010 0.9010 0.9010
10.198309 0.9010 0.9010 0.9010 0.9020 0.9020
10.231000 0.9020 0.9020 0.9020 0.9020 0.9020
10.264309 0.9020 0.9020 0.9040 0.9040 0.9040
10.298000 0.9040 0.9040 0.9040 0.9040 0.9040
10.331309 0.9040 0.9040 0.9040 0.9020 0.9020
10.364000 0.9020 0.9020 0.9020 0.9020 0.9020
10.397309 0.9020 0.9020 0.9020 0.9010 0.9010
10.431000 0.9020 0.9020 0.9020 0.9020 0.9020
10.464309 0.9020 0.9020 0.9020 0.9020 0.9020
10.498000 0.9020 0.9020 0.9020 0.9020 0.9020
10.531309 0.9020 0.9020 0.9020 0.9020 0.9040
10.564000 0.9040 0.9040 0.9040 0.9040 0.9040
10.597309 0.9040 0.9040 0.9060 0.9040 0.9040
10.631000 0.9060 0.9060 0.9060 0.9060 0.9040
10.664309 0.9040 0.9040 0.9040 0.9040 0.9040
10.697000 0.9040 0.9040 0.9040 0.9040 0.9060
10.730309 0.9060 0.9060 0.9060 0.9060 0.9040
10.764000 0.9040 0.9060 0.9060 0.9060 0.9060
10.797309 0.9060 0.9070 0.9070 0.9060 0.9060
10.831000 0.9040 0.9040 0.9040 0.9040 0.9040
10.864309 0.9040 0.9040 0.9040 0.9040 0.9060
10.897000 0.9060 0.9060 0.9040 0.9040 0.9040
10.930309 0.9060 0.9060 0.9060 0.9070 0.9070
10.964000 0.9070 0.9090 0.9070 0.9070 0.9070
10.997309 0.9070 0.9070 0.9070 0.9070 0.9070
11.030000 0.9070 0.9070 0.9070 0.9070 0.9070
11.063309 0.9070 0.9070 0.9070 0.9070 0.9070
11.097000 0.9070 0.9070 0.9070 0.9070 0.9070
11.130309 0.9070 0.9060 0.9060 0.9060 0.9060
11.163000 0.9060 0.9060 0.9060 0.9060 0.9060
11.196309 0.9070 0.9070 0.9090 0.9090 0.9110
11.230000 0.9120 0.9120 0.9120 0.9140 0.9140
11.263309 0.9140 0.9140 0.9140 0.9140 0.9140
11.297000 0.9140 0.9140 0.9160 0.9140 0.9140
11.330309 0.9140 0.9140 0.9140 0.9140 0.9140
11.363000 0.9140 0.9140 0.9140 0.9160 0.9160
11.396309 0.9160 0.9160 0.9160 0.9160 0.9160
11.430000 0.9170 0.9170 0.9170 0.9170 0.9190
11.463309 0.9190 0.9190 0.9190 0.9190 0.9210
11.496000 0.9210 0.9210 0.9210 0.9210 0.9210
11.529309 0.9210 0.9210 0.9210 0.9210 0.9210
11.563000 0.9210 0.9210 0.9210 0.9210 0.9210
11.596309 0.9210 0.9210 0.9210 0.9210 0.9210
11.630000 0.9220 0.9210 0.9210 0.9210 0.9210
11.663309 0.9210 0.9210 0.9210 0.9210 0.9210
11.696000 0.9210 0.9220 0.9220 0.9220 0.9220
11.729309 0.9220 0.9220 0.9240 0.9240 0.9260
11.763000 0.9260 0.9260 0.9270 0.9270 0.9290
11.796309 0.9290 0.9290 0.9310 0.9310 0.9310
11.829000 0.9310 0.9310 0.9310 0.9310 0.9310
11.862309 0.9270 0.9240 0.9140 0.8920 0.8720
11.896000 0.8420 0.8320 0.8090 0.8050 0.8090
11.929309 0.8170 0.8270 0.8400 0.8520 0.8640
11.962000 0.8710 0.8760 0.8810 0.8840 0.8890
11.995309 0.8920 0.8940 0.8970 0.9020 0.9040
12.029000 0.9040 0.9060 0.9090 0.9090 0.9120
12.062309 0.9140 0.9160 0.9170 0.9190 0.9210
12.096000 0.9210 0.9220 0.9220 0.9240 0.9240
12.129309 0.9260 0.9260 0.9260 0.9270 0.9270
12.162000 0.9270 0.9270 0.9290 0.9290 0.9290
12.195309 0.9270 0.9270 0.9270 0.9290 0.9290
12.229000 0.9290 0.9290 0.9290 0.9290 0.9290
12.262309 0.9290 0.9290 0.9290 0.9290 0.9270
12.295000 0.9260 0.9260 0.9260 0.9260 0.9260
12.328309 0.9260 0.9240 0.9220 0.9190 0.9160
12.362000 0.9160 0.9160 0.9160 0.9160 0.9170
12.395309 0.9170 0.9190 0.9210 0.9220 0.9240
12.429000 0.9240 0.9260 0.9260 0.9270 0.9270
12.462309 0.9270 0.9290 0.9310 0.9320 0.9320
12.495000 0.9320 0.9320 0.9340 0.9340 0.9340
12.528309 0.9340 0.9340 0.9320 0.9320 0.9320
12.562000 0.9340 0.9320 0.9320 0.9310 0.9310
12.595309 0.9310 0.9320 0.9320 0.9320 0.9320
12.628000 0.9320 0.9320 0.9320 0.9340 0.9320
12.661309 0.9320 0.9320 0.9320 0.9320 0.9320
12.695000 0.9320 0.9320 0.9310 0.9310 0.9310
12.728309 0.9320 0.9310 0.9310 0.9310 0.9310
12.762000 0.9310 0.9310 0.9320 0.9320 0.9320
12.795309 0.9320 0.9320 0.9320 0.9320 0.9320
12.828000 0.9320 0.9320 0.9320 0.9320 0.9320
12.861309 0.9320 0.9320 0.9340 0.9340 0.9340
12.895000 0.9340 0.9340 0.9340 0.9340 0.9320
12.928309 0.9320 0.9320 0.9310 0.9310 0.9310
12.961000 0.9310 0.9290 0.9290 0.9270 0.9270
12.994309 0.9270 0.9260 0.9260 0.9260 0.9260
13.028000 0.9260 0.9260 0.9260 0.9260 0.9260
13.061309 0.9260 0.9240 0.9240 0.9240 0.9240
13.094000 0.9240 0.9220 0.9220 0.9220 0.9220
13.127309 0.9220 0.9220 0.9220 0.9210 0.9210
13.161000 0.9190 0.9190 0.9190 0.9160 0.9160
13.194309 0.9160 0.9160 0.9160 0.9140 0.9140
13.228000 0.9140 0.9120 0.9120 0.9120 0.9120
13.261309 0.9120 0.9110 0.9110 0.9110 0.9090
13.294000 0.9060 0.9040 0.9040 0.9040 0.9040
13.327309 0.9040 0.9040 0.9020 0.9020 0.9020
13.361000 0.9020 0.9020 0.9020 0.9020 0.9010
13.394309 0.9010 0.8990 0.8990 0.8990 0.8990
13.427000 0.8990 0.9010 0.9010 0.9010 0.8990
13.460309 0.8990 0.8990 0.8990 0.8990 0.8990
13.494000 0.8990 0.8990 0.8990 0.8990 0.8990
13.527309 0.8990 0.8990 0.8990 0.8990 0.8990
13.561000 0.8970 0.8960 0.8960 0.8940 0.8940
13.594309 0.8920 0.8920 0.8910 0.8890 0.8870
13.627000 0.8860 0.8860 0.8860 0.8840 0.8840
13.660309 0.8810 0.8790 0.8740 0.8690 0.8620
13.694000 0.8550 0.8490 0.8420 0.8340 0.8270
13.727309 0.8170 0.8050 0.8000 0.7920 0.7820
13.760000 0.7800 0.7780 0.7780 0.7780 0.7780
13.793309 0.7780 0.7780 0.7800 0.7820 0.7850
13.827000 0.7900 0.7950 0.8020 0.8040 0.8190
13.860309 0.8220 0.8290 0.8340 0.8370 0.8400
13.893000 0.8420 0.8440 0.8440 0.8450 0.8450
13.926309 0.8450 0.8470 0.8470 0.8470 0.8470
13.960000 0.8470 0.8470 0.8490 0.8470 0.8470
13.993309 0.8470 0.8470 0.8470 0.8470 0.8450
14.027000 0.8450 0.8450 0.8450 0.8440 0.8440
14.060309 0.8440 0.8440 0.8420 0.8420 0.8420
14.093000 0.8420 0.8420 0.8400 0.8400 0.8390
14.126309 0.8390 0.8390 0.8370 0.8370 0.8350
14.160000 0.8350 0.8340 0.8320 0.8300 0.8300
14.193309 0.8290 0.8290 0.8270 0.8270 0.8250
14.226000 0.8250 0.8240 0.8240 0.8220 0.8220
14.259309 0.8200 0.8190 0.8170 0.8150 0.8150
14.293000 0.8140 0.8140 0.8120 0.8100 0.8100
14.326309 0.8070 0.8070 0.8070 0.8050 0.8050
14.360000 0.8050 0.8040 0.8020 0.8020 0.8000
14.393309 0.7980 0.7970 0.7950 0.7950 0.7930
14.426000 0.7930 0.7920 0.7900 0.7880 0.7870
14.459309 0.7870 0.7850 0.7830 0.7830 0.7820
14.493000 0.7800 0.7780 0.7770 0.7750 0.7730
14.526309 0.7730 0.7730 0.7720 0.7720 0.7700
14.559000 0.7700 0.7680 0.7680 0.7670 0.7650
14.592309 0.7630 0.7630 0.7620 0.7600 0.7580
14.626000 0.7550 0.7550 0.7550 0.7530 0.7520
14.659309 0.7520 0.7500 0.7500 0.7500 0.7480
14.692000 0.7470 0.7450 0.7430 0.7430 0.7420
14.725309 0.7420 0.7420 0.7400 0.7380 0.7380
14.759000 0.7370 0.7370 0.7350 0.7350 0.7330
14.792309 0.7310 0.7310 0.7300 0.7280 0.7260
14.826000 0.7260 0.7250 0.7250 0.7250 0.7230
14.859309 0.7230 0.7210 0.7210 0.7200 0.7200
14.892000 0.7180 0.7160 0.7160 0.7150 0.7150
14.925309 0.7130 0.7130 0.7110 0.7110 0.7100
14.959000 0.7100 0.7100 0.7080 0.7080 0.7050
14.992309 0.7060 0.7050 0.7050 0.7030 0.7030
15.025000 0.7010 0.7010 0.7010 0.7000 0.6980
15.058309 0.6980 0.6980 0.6960 0.6950 0.6950
15.092000 0.6930 0.6930 0.6910 0.6910 0.6900
15.125309 0.6900 0.6900 0.6880 0.6860 0.6850
15.159000 0.6850 0.6850 0.6830 0.6830 0.6830
15.192309 0.6810 0.6810 0.6810 0.6800 0.6800
15.225000 0.6780 0.6780 0.6760 0.6750 0.6730
15.258309 0.6730 0.6730 0.6710 0.6710 0.6710
15.292000 0.6700 0.6700 0.6680 0.6680 0.6660
15.325309 0.6640 0.6640 0.6640 0.6630 0.6630
15.358000 0.6640 0.6630 0.6630 0.6610 0.6610
15.391309 0.6610 0.6610 0.6590 0.6590 0.6590
15.425000 0.6590 0.6580 0.6580 0.6560 0.6560
15.458309 0.6540 0.6540 0.6540 0.6540 0.6540
15.492000 0.6530 0.6530 0.6540 0.6540 0.6540
15.525309 0.6530 0.6530 0.6530 0.6530 0.6530
15.558000 0.6530 0.6530 0.6530 0.6530 0.6530
15.591309 0.6530 0.6530 0.6530 0.6530 0.6530
15.625000 0.6530 0.6530 0.6530 0.6530 0.6530
15.658309 0.6530 0.6510 0.6510 0.6510 0.6510
15.691000 0.6490 0.6490 0.6490 0.6490 0.6490
15.724309 0.6490 0.6490 0.6490 0.6480 0.6480
15.758000 0.6480 0.6480 0.6480 0.6460 0.6460
15.791309 0.6460 0.6460 0.6460 0.6460 0.6460
15.824000 0.6460 0.6460 0.6460 0.6440 0.6440
15.857309 0.6440 0.6440 0.6440 0.6440 0.6440
15.891000 0.6440 0.6440 0.6440 0.6440 0.6440
15.924309 0.6440 0.6440 0.6440 0.6440 0.6440
15.958000 0.6440 0.6440 0.6440 0.6440 0.6440
15.991309 0.6440 0.6440 0.6440 0.6440 0.6440
##END=
