##TITLE=METHYL NICOTINIUM P-TOLUENE SULFONATE HYDRAZIDE
$$ E.K. (W.L.)
##JCAMP-DX=4.24
##DATA TYPE=INFRARED SPECTRUM
##CLASS=COBLENTZ
##ORIGIN=WYANDOTTE CHEMICALS CORP., WYANDOTTE, MICHIGAN, USA
##OWNER=COBLENTZ SOCIETY
Collection (C) 2018 copyright by the U.S. Secretary of Commerce
on behalf of the United States of America. All rights reserved.
##DATE=Not specified, most likely prior to 1970
##MOLFORM=C14 H17 N3 O4 S
##SOURCE REFERENCE=COBLENTZ NO. 352
##$NIST ID=B6000352
##$NIST SOURCE=COBLENTZ
##$NIST IMAGE=cob352
##SPECTROMETER/DATA SYSTEM=Not specified, most likely a prism, grating, or hybrid spectrometer.
##STATE=SOLID (MULL)
##SAMPLING PROCEDURE=TRANSMISSION
##RESOLUTION=4
##DATA PROCESSING=DIGITIZED BY NIST FROM HARD COPY
##XUNITS=MICROMETERS
##YUNITS=TRANSMITTANCE
##XFACTOR=1.000000
##YFACTOR=1
##DELTAX=000.006658
##FIRSTX=2.041
##LASTX=16.0093
##FIRSTY=0.589
##MAXX=16.0093
##MINX=2.041
##MAXY=0.985
##MINY=0.036
##NPOINTS=2099
##XYDATA=(X++(Y..Y))
2.041000 0.5890 0.5890 0.5900 0.5950 0.5990
2.074305 0.6000 0.6050 0.6120 0.6120 0.6000
2.108000 0.5990 0.6000 0.6030 0.6050 0.6100
2.141305 0.6120 0.6120 0.6120 0.6150 0.6150
2.174000 0.6050 0.6020 0.6050 0.6100 0.6130
2.207305 0.6130 0.6120 0.6120 0.6100 0.6070
2.241000 0.6070 0.6070 0.6080 0.6100 0.6120
2.274305 0.6120 0.6150 0.6150 0.6170 0.6220
2.308000 0.6230 0.6280 0.6330 0.6330 0.6280
2.341305 0.6220 0.6150 0.6120 0.6150 0.6200
2.374000 0.6280 0.6320 0.6330 0.6350 0.6370
2.407305 0.6400 0.6470 0.6480 0.6500 0.6520
2.441000 0.6520 0.6530 0.6530 0.6550 0.6550
2.474305 0.6570 0.6570 0.6580 0.6580 0.6580
2.507000 0.6600 0.6600 0.6600 0.6620 0.6630
2.540305 0.6650 0.6680 0.6720 0.6730 0.6780
2.574000 0.6820 0.6850 0.6870 0.6880 0.6880
2.607305 0.6850 0.6850 0.6820 0.6820 0.6820
2.640000 0.6820 0.6850 0.6880 0.6900 0.6900
2.673305 0.6880 0.6870 0.6800 0.6730 0.6650
2.707000 0.6570 0.6470 0.6330 0.6230 0.6020
2.740305 0.5890 0.5600 0.5300 0.5090 0.4870
2.774000 0.4290 0.3740 0.3370 0.2820 0.2560
2.807305 0.2290 0.2040 0.1980 0.1980 0.2070
2.840000 0.2310 0.2460 0.2620 0.2660 0.2670
2.873305 0.2690 0.2710 0.2710 0.2710 0.2720
2.907000 0.2860 0.2970 0.3170 0.3410 0.3710
2.940305 0.4000 0.4300 0.4600 0.4850 0.5190
2.973000 0.5340 0.5500 0.5520 0.5170 0.5000
3.006305 0.4820 0.4440 0.3660 0.3060 0.2670
3.040000 0.2520 0.2370 0.1830 0.1440 0.1140
3.073305 0.1130 0.1180 0.1360 0.1580 0.1760
3.107000 0.1910 0.2040 0.2170 0.2290 0.2410
3.140305 0.2660 0.2810 0.2970 0.3160 0.3240
3.173000 0.3310 0.3410 0.3460 0.3540 0.3620
3.206305 0.3660 0.3660 0.3640 0.3520 0.3320
3.240000 0.3120 0.2810 0.2540 0.2390 0.2240
3.273305 0.2020 0.1840 0.1730 0.1730 0.1760
3.306000 0.1860 0.2040 0.2120 0.2120 0.2040
3.339305 0.1860 0.1490 0.1160 0.0940 0.0710
3.373000 0.0560 0.0490 0.0430 0.0390 0.0410
3.406305 0.0430 0.0440 0.0490 0.0540 0.0630
3.439000 0.0710 0.0830 0.0930 0.1060 0.1180
3.472305 0.1190 0.1160 0.1060 0.1060 0.1090
3.506000 0.1190 0.1280 0.1630 0.2160 0.3360
3.539305 0.3840 0.4550 0.5490 0.5750 0.5970
3.573000 0.6130 0.6280 0.6450 0.6670 0.6750
3.606305 0.6800 0.6830 0.6920 0.7020 0.7030
3.639000 0.7030 0.7050 0.7070 0.7070 0.7070
3.672305 0.7030 0.7000 0.6980 0.6970 0.6980
3.706000 0.7050 0.7120 0.7150 0.7180 0.7180
3.739305 0.7220 0.7230 0.7270 0.7300 0.7320
3.772000 0.7330 0.7370 0.7380 0.7420 0.7450
3.805305 0.7480 0.7530 0.7530 0.7550 0.7550
3.839000 0.7550 0.7550 0.7550 0.7550 0.7570
3.872305 0.7570 0.7570 0.7580 0.7580 0.7580
3.905000 0.7580 0.7580 0.7600 0.7620 0.7670
3.938305 0.7700 0.7730 0.7780 0.7850 0.7900
3.972000 0.7930 0.7980 0.8000 0.8000 0.8010
4.005305 0.8030 0.8050 0.8050 0.8080 0.8080
4.039000 0.8100 0.8110 0.8150 0.8160 0.8160
4.072305 0.8180 0.8180 0.8180 0.8180 0.8200
4.105000 0.8200 0.8200 0.8200 0.8200 0.8200
4.138305 0.8200 0.8200 0.8200 0.8200 0.8200
4.172000 0.8200 0.8200 0.8200 0.8200 0.8200
4.205305 0.8200 0.8200 0.8200 0.8200 0.8180
4.238000 0.8160 0.8150 0.8110 0.8100 0.8080
4.271305 0.8110 0.8110 0.8160 0.8200 0.8210
4.305000 0.8210 0.8180 0.8180 0.8210 0.8280
4.338305 0.8330 0.8410 0.8480 0.8560 0.8610
4.372000 0.8630 0.8660 0.8680 0.8700 0.8700
4.405305 0.8710 0.8710 0.8710 0.8710 0.8710
4.438000 0.8710 0.8710 0.8710 0.8710 0.8710
4.471305 0.8710 0.8710 0.8700 0.8700 0.8680
4.505000 0.8660 0.8650 0.8650 0.8630 0.8610
4.538305 0.8610 0.8610 0.8610 0.8610 0.8600
4.571000 0.8600 0.8600 0.8600 0.8610 0.8610
4.604305 0.8610 0.8610 0.8630 0.8630 0.8630
4.638000 0.8630 0.8630 0.8630 0.8650 0.8680
4.671305 0.8710 0.8760 0.8760 0.8780 0.8780
4.704000 0.8760 0.8750 0.8730 0.8710 0.8680
4.737305 0.8610 0.8600 0.8600 0.8600 0.8600
4.771000 0.8600 0.8600 0.8600 0.8610 0.8630
4.804305 0.8650 0.8700 0.8730 0.8800 0.8860
4.838000 0.8950 0.8980 0.9010 0.9050 0.9050
4.871305 0.9050 0.9050 0.9060 0.9060 0.9060
4.904000 0.9060 0.9060 0.9060 0.9080 0.9100
4.937305 0.9100 0.9100 0.9100 0.9110 0.9110
4.971000 0.9130 0.9150 0.9160 0.9160 0.9180
5.004305 0.9180 0.9180 0.9150 0.9110 0.9110
5.037000 0.9130 0.9160 0.9180 0.9200 0.9200
5.070305 0.9200 0.9180 0.9080 0.9050 0.9010
5.104000 0.9010 0.9100 0.9110 0.9130 0.9130
5.137305 0.9130 0.9160 0.9160 0.9210 0.9210
5.170000 0.9210 0.9200 0.9200 0.9180 0.9160
5.203305 0.9110 0.9050 0.8980 0.8930 0.8910
5.237000 0.8850 0.8830 0.8860 0.8900 0.9000
5.270305 0.9150 0.9210 0.9260 0.9330 0.9360
5.304000 0.9410 0.9460 0.9500 0.9550 0.9600
5.337305 0.9630 0.9660 0.9700 0.9710 0.9680
5.370000 0.9700 0.9710 0.9800 0.9800 0.9760
5.403305 0.9710 0.9660 0.9630 0.9650 0.9680
5.437000 0.9710 0.9680 0.9710 0.9710 0.9760
5.470305 0.9760 0.9750 0.9730 0.9710 0.9700
5.503000 0.9660 0.9600 0.9430 0.9410 0.9410
5.536305 0.9430 0.9600 0.9660 0.9710 0.9730
5.570000 0.9710 0.9700 0.9700 0.9730 0.9710
5.603305 0.9750 0.9780 0.9850 0.9850 0.9810
5.636000 0.9710 0.9630 0.9610 0.9630 0.9730
5.669305 0.9810 0.9830 0.9830 0.9810 0.9750
5.703000 0.9730 0.9710 0.9700 0.9660 0.9650
5.736305 0.9580 0.9500 0.9350 0.9280 0.9210
5.770000 0.9150 0.9050 0.8950 0.8530 0.8410
5.803305 0.8430 0.8430 0.8580 0.8580 0.8500
5.836000 0.8330 0.8210 0.8100 0.8000 0.7880
5.869305 0.7700 0.7580 0.7470 0.7150 0.6700
5.903000 0.6350 0.5870 0.5270 0.4890 0.4500
5.936305 0.3620 0.2590 0.2260 0.1930 0.1260
5.969000 0.0710 0.0430 0.0430 0.0610 0.0840
6.002305 0.0980 0.1160 0.1390 0.1590 0.1760
6.036000 0.1840 0.2420 0.2540 0.2510 0.2320
6.069305 0.2120 0.1960 0.1910 0.1890 0.1830
6.103000 0.1740 0.1590 0.1380 0.1190 0.1080
6.136305 0.1080 0.1090 0.1240 0.1460 0.1710
6.169000 0.2110 0.2440 0.2860 0.3040 0.3610
6.202305 0.3810 0.3790 0.3790 0.3620 0.3170
6.236000 0.3120 0.3110 0.3290 0.3610 0.4050
6.269305 0.4390 0.4770 0.4950 0.5520 0.5790
6.302000 0.5990 0.6020 0.6070 0.6200 0.6270
6.335305 0.6270 0.6200 0.6100 0.6030 0.5950
6.369000 0.5800 0.5550 0.5090 0.4840 0.4570
6.402305 0.4070 0.3570 0.3140 0.2740 0.2560
6.435000 0.2370 0.2170 0.2040 0.1910 0.1890
6.468305 0.1890 0.1980 0.2160 0.2420 0.2860
6.502000 0.3010 0.3170 0.3310 0.3440 0.3560
6.535305 0.3670 0.3770 0.3770 0.3710 0.3570
6.569000 0.3440 0.3240 0.3160 0.2940 0.2720
6.602305 0.2570 0.2420 0.2210 0.2210 0.2220
6.635000 0.2370 0.2670 0.2770 0.2820 0.2960
6.668305 0.3190 0.3460 0.3760 0.4040 0.4240
6.702000 0.4290 0.4320 0.4320 0.4290 0.4140
6.735305 0.4040 0.3970 0.3720 0.3410 0.3210
6.768000 0.2960 0.2740 0.2590 0.2520 0.2440
6.801305 0.2420 0.2410 0.2410 0.2390 0.2410
6.835000 0.2670 0.2740 0.2810 0.2890 0.2990
6.868305 0.3140 0.3340 0.3470 0.3590 0.3720
6.901000 0.3890 0.4040 0.4240 0.4440 0.4650
6.934305 0.4900 0.5250 0.5400 0.5500 0.5500
6.968000 0.5500 0.5500 0.5550 0.5650 0.5770
7.001305 0.5890 0.6050 0.6230 0.6320 0.6400
7.035000 0.6420 0.6420 0.6380 0.6320 0.6250
7.068305 0.6200 0.6150 0.6050 0.6030 0.6020
7.101000 0.5970 0.5940 0.5900 0.5900 0.5870
7.134305 0.5870 0.5850 0.5850 0.5750 0.5590
7.168000 0.5290 0.5100 0.4950 0.4790 0.4240
7.201305 0.3860 0.3560 0.3440 0.3490 0.3510
7.234000 0.3520 0.3640 0.3710 0.3860 0.4050
7.267305 0.4400 0.4600 0.4740 0.4800 0.4850
7.301000 0.4940 0.4940 0.5090 0.5200 0.5320
7.334305 0.5320 0.5240 0.5020 0.4920 0.4820
7.368000 0.4670 0.4520 0.4400 0.4270 0.4150
7.401305 0.4140 0.4170 0.4270 0.4450 0.4520
7.434000 0.4620 0.4640 0.4690 0.4740 0.4750
7.467305 0.4740 0.4650 0.4550 0.4500 0.4490
7.501000 0.4420 0.4390 0.4340 0.4240 0.4220
7.534305 0.4220 0.4250 0.4290 0.4300 0.4350
7.567000 0.4400 0.4490 0.4500 0.4520 0.4520
7.600305 0.4470 0.4470 0.4450 0.4340 0.4250
7.634000 0.4170 0.4050 0.3970 0.3870 0.3740
7.667305 0.3740 0.3840 0.3840 0.3820 0.3790
7.700000 0.3740 0.3690 0.3620 0.3520 0.3520
7.733305 0.3510 0.3520 0.3620 0.3720 0.3740
7.767000 0.3860 0.3970 0.4120 0.4270 0.4320
7.800305 0.4370 0.4400 0.4800 0.4940 0.5070
7.834000 0.5140 0.5200 0.5270 0.5340 0.5390
7.867305 0.5420 0.5520 0.5600 0.5720 0.5790
7.900000 0.5790 0.5740 0.5720 0.5700 0.5700
7.933305 0.5690 0.5670 0.5620 0.5550 0.5520
7.967000 0.5500 0.5450 0.5390 0.5270 0.5120
8.000305 0.5020 0.4920 0.4770 0.4600 0.4420
8.033000 0.4240 0.4000 0.3760 0.3440 0.3110
8.066305 0.2690 0.2510 0.2320 0.2040 0.1540
8.100000 0.1180 0.0990 0.0790 0.0640 0.0540
8.133305 0.0430 0.0390 0.0390 0.0410 0.0430
8.166000 0.0440 0.0510 0.0560 0.0640 0.0760
8.199305 0.0860 0.0960 0.1010 0.1030 0.1060
8.233000 0.1160 0.1210 0.1290 0.1340 0.1410
8.266305 0.1440 0.1490 0.1640 0.1690 0.1740
8.300000 0.1790 0.1860 0.1890 0.1890 0.1840
8.333305 0.1790 0.1740 0.1660 0.1540 0.1430
8.366000 0.1330 0.1230 0.1140 0.1040 0.0930
8.399305 0.0780 0.0730 0.0640 0.0590 0.0530
8.433000 0.0490 0.0480 0.0440 0.0440 0.0390
8.466305 0.0390 0.0360 0.0360 0.0360 0.0360
8.499000 0.0380 0.0380 0.0380 0.0390 0.0410
8.532305 0.0430 0.0460 0.0490 0.0490 0.0510
8.566000 0.0530 0.0560 0.0590 0.0710 0.0790
8.599305 0.0890 0.1140 0.1310 0.1460 0.1590
8.632000 0.1760 0.1940 0.2160 0.2340 0.2670
8.665305 0.2820 0.2970 0.3090 0.3190 0.3270
8.699000 0.3410 0.3490 0.3540 0.3620 0.3740
8.732305 0.3840 0.3960 0.4040 0.4050 0.4090
8.766000 0.4090 0.4040 0.3990 0.3960 0.3890
8.799305 0.3760 0.3520 0.3420 0.3260 0.3090
8.832000 0.2860 0.2660 0.2560 0.2460 0.2310
8.865305 0.2110 0.1840 0.1530 0.1230 0.1060
8.899000 0.0880 0.0710 0.0560 0.0540 0.0560
8.932305 0.0580 0.0780 0.0960 0.1160 0.1360
8.965000 0.1560 0.1740 0.1940 0.2120 0.2320
8.998305 0.2690 0.2860 0.3010 0.3160 0.3290
9.032000 0.3320 0.3670 0.3960 0.4220 0.4370
9.065305 0.4470 0.4720 0.4840 0.4920 0.5150
9.099000 0.5270 0.5340 0.5400 0.5440 0.5440
9.132305 0.5440 0.5420 0.5400 0.5390 0.5370
9.165000 0.5350 0.5340 0.5320 0.5320 0.5340
9.198305 0.5370 0.5420 0.5490 0.5590 0.5690
9.232000 0.5720 0.5770 0.5840 0.5920 0.6000
9.265305 0.6050 0.6120 0.6170 0.6220 0.6300
9.298000 0.6380 0.6430 0.6450 0.6480 0.6520
9.331305 0.6550 0.6570 0.6600 0.6630 0.6650
9.365000 0.6670 0.6700 0.6700 0.6720 0.6720
9.398305 0.6750 0.6800 0.6830 0.6850 0.6850
9.431000 0.6850 0.6880 0.6900 0.6920 0.6970
9.464305 0.7000 0.7000 0.7000 0.7020 0.7070
9.498000 0.7070 0.7050 0.6980 0.6950 0.6900
9.531305 0.6870 0.6830 0.6700 0.6580 0.6350
9.565000 0.6000 0.5620 0.5120 0.4820 0.4520
9.598305 0.3790 0.2960 0.2470 0.1980 0.1390
9.631000 0.1110 0.0830 0.0680 0.0530 0.0530
9.664305 0.0530 0.0610 0.0710 0.0890 0.1110
9.698000 0.1430 0.1830 0.2290 0.3290 0.3760
9.731305 0.4190 0.4540 0.4850 0.5340 0.5540
9.764000 0.5720 0.5850 0.5900 0.6020 0.6150
9.797305 0.6180 0.6180 0.6150 0.6100 0.5950
9.831000 0.5720 0.5320 0.5020 0.4700 0.3810
9.864305 0.2690 0.2370 0.2060 0.1230 0.0830
9.897000 0.0790 0.0790 0.0890 0.1260 0.1710
9.930305 0.2160 0.3040 0.3410 0.3720 0.4020
9.964000 0.4270 0.4490 0.4670 0.4850 0.5120
9.997305 0.5270 0.5440 0.5570 0.5670 0.5800
10.031000 0.5850 0.5920 0.6000 0.6000 0.6000
10.064305 0.6000 0.6000 0.6000 0.5990 0.5950
10.097000 0.5950 0.5940 0.5920 0.5890 0.5820
10.130305 0.5770 0.5690 0.5600 0.5520 0.5440
10.164000 0.5350 0.5270 0.5190 0.5040 0.4940
10.197305 0.4820 0.4650 0.4500 0.4370 0.4220
10.230000 0.4090 0.3960 0.3790 0.3640 0.3440
10.263305 0.3260 0.3110 0.2970 0.2810 0.2740
10.297000 0.2660 0.2510 0.2460 0.2390 0.2310
10.330305 0.2240 0.2160 0.2110 0.2070 0.2010
10.364000 0.2010 0.2010 0.2010 0.2010 0.2060
10.397305 0.2120 0.2210 0.2310 0.2370 0.2460
10.430000 0.2610 0.2690 0.2770 0.2870 0.2990
10.463305 0.3110 0.3240 0.3370 0.3490 0.3560
10.497000 0.3710 0.3990 0.4200 0.4370 0.4520
10.530305 0.4670 0.4790 0.4940 0.5300 0.5440
10.563000 0.5570 0.5650 0.5720 0.5800 0.5890
10.596305 0.5970 0.6050 0.6130 0.6200 0.6280
10.630000 0.6330 0.6380 0.6470 0.6520 0.6550
10.663305 0.6600 0.6630 0.6670 0.6730 0.6800
10.696000 0.6900 0.6930 0.7000 0.7030 0.7030
10.729305 0.7050 0.7120 0.7170 0.7180 0.7220
10.763000 0.7250 0.7270 0.7300 0.7330 0.7380
10.796305 0.7430 0.7500 0.7520 0.7530 0.7600
10.830000 0.7600 0.7600 0.7600 0.7600 0.7600
10.863305 0.7570 0.7500 0.7480 0.7470 0.7470
10.896000 0.7430 0.7430 0.7430 0.7430 0.7470
10.929305 0.7480 0.7500 0.7500 0.7500 0.7500
10.963000 0.7520 0.7500 0.7520 0.7520 0.7520
10.996305 0.7520 0.7500 0.7500 0.7500 0.7480
11.029000 0.7420 0.7320 0.7250 0.7250 0.7330
11.062305 0.7400 0.7370 0.7320 0.7300 0.7270
11.096000 0.7250 0.7250 0.7230 0.7220 0.7150
11.129305 0.7130 0.7100 0.7100 0.7030 0.7030
11.162000 0.7030 0.7030 0.7030 0.7030 0.7080
11.195305 0.7150 0.7220 0.7280 0.7320 0.7330
11.229000 0.7350 0.7350 0.7370 0.7400 0.7450
11.262305 0.7650 0.7700 0.7720 0.7730 0.7780
11.296000 0.7830 0.7870 0.7880 0.7900 0.7930
11.329305 0.7950 0.7980 0.8000 0.8010 0.8030
11.362000 0.8050 0.8060 0.8130 0.8150 0.8180
11.395305 0.8200 0.8210 0.8230 0.8250 0.8250
11.429000 0.8250 0.8210 0.8210 0.8210 0.8210
11.462305 0.8230 0.8260 0.8260 0.8260 0.8260
11.495000 0.8260 0.8260 0.8260 0.8260 0.8260
11.528305 0.8260 0.8260 0.8280 0.8280 0.8300
11.562000 0.8300 0.8300 0.8300 0.8300 0.8300
11.595305 0.8300 0.8300 0.8300 0.8300 0.8300
11.628000 0.8280 0.8280 0.8260 0.8260 0.8250
11.661305 0.8260 0.8250 0.8230 0.8230 0.8210
11.695000 0.8180 0.8150 0.8130 0.8100 0.8060
11.728305 0.8060 0.8030 0.8010 0.7970 0.7870
11.762000 0.7730 0.7700 0.7630 0.7530 0.7500
11.795305 0.7450 0.7350 0.7230 0.7150 0.7070
11.828000 0.6980 0.6880 0.6850 0.6800 0.6780
11.861305 0.6730 0.6670 0.6550 0.6450 0.6380
11.895000 0.6370 0.6380 0.6380 0.6420 0.6400
11.928305 0.6370 0.6350 0.6330 0.6270 0.6230
11.961000 0.6100 0.6020 0.5970 0.5800 0.5650
11.994305 0.5500 0.5370 0.5240 0.5140 0.5040
12.028000 0.5000 0.4950 0.4850 0.4790 0.4700
12.061305 0.4640 0.4550 0.4450 0.4340 0.4200
12.095000 0.4070 0.3870 0.3660 0.3360 0.3010
12.128305 0.2560 0.2420 0.2270 0.2090 0.1910
12.161000 0.1860 0.1860 0.1880 0.2120 0.2320
12.194305 0.3120 0.3310 0.3570 0.4220 0.4420
12.228000 0.4650 0.4870 0.5120 0.5220 0.5320
12.261305 0.5490 0.5720 0.5920 0.6130 0.6370
12.294000 0.6580 0.6830 0.7070 0.7320 0.7800
12.327305 0.7980 0.8110 0.8250 0.8330 0.8410
12.361000 0.8480 0.8550 0.8600 0.8630 0.8660
12.394305 0.8760 0.8800 0.8810 0.8830 0.8850
12.427000 0.8850 0.8860 0.8860 0.8860 0.8860
12.460305 0.8830 0.8810 0.8760 0.8700 0.8630
12.494000 0.8510 0.8360 0.8200 0.7970 0.7680
12.527305 0.7500 0.7450 0.7380 0.7370 0.7380
12.561000 0.7700 0.7850 0.8000 0.8130 0.8260
12.594305 0.8380 0.8510 0.8650 0.8780 0.8930
12.627000 0.8980 0.9060 0.9100 0.9160 0.9210
12.660305 0.9250 0.9260 0.9280 0.9310 0.9350
12.694000 0.9380 0.9400 0.9400 0.9410 0.9430
12.727305 0.9430 0.9450 0.9460 0.9460 0.9460
12.760000 0.9460 0.9460 0.9460 0.9460 0.9460
12.793305 0.9460 0.9460 0.9460 0.9460 0.9460
12.827000 0.9460 0.9460 0.9460 0.9450 0.9430
12.860305 0.9410 0.9410 0.9410 0.9380 0.9380
12.893000 0.9360 0.9360 0.9360 0.9360 0.9360
12.926305 0.9350 0.9350 0.9350 0.9350 0.9350
12.960000 0.9350 0.9350 0.9350 0.9350 0.9350
12.993305 0.9350 0.9350 0.9350 0.9350 0.9350
13.027000 0.9350 0.9350 0.9360 0.9360 0.9350
13.060305 0.9350 0.9350 0.9350 0.9330 0.9330
13.093000 0.9330 0.9310 0.9310 0.9310 0.9300
13.126305 0.9280 0.9280 0.9260 0.9250 0.9250
13.160000 0.9230 0.9210 0.9200 0.9160 0.9130
13.193305 0.9110 0.9110 0.9100 0.9060 0.9030
13.226000 0.9000 0.8960 0.8950 0.8910 0.8830
13.259305 0.8800 0.8760 0.8730 0.8710 0.8680
13.293000 0.8660 0.8650 0.8650 0.8650 0.8650
13.326305 0.8650 0.8650 0.8660 0.8680 0.8700
13.360000 0.8710 0.8730 0.8750 0.8750 0.8760
13.393305 0.8760 0.8760 0.8760 0.8760 0.8780
13.426000 0.8780 0.8780 0.8800 0.8810 0.8810
13.459305 0.8810 0.8810 0.8800 0.8760 0.8760
13.493000 0.8750 0.8730 0.8700 0.8700 0.8680
13.526305 0.8650 0.8630 0.8610 0.8600 0.8580
13.559000 0.8580 0.8560 0.8550 0.8530 0.8510
13.592305 0.8500 0.8460 0.8430 0.8410 0.8400
13.626000 0.8380 0.8380 0.8350 0.8330 0.8300
13.659305 0.8300 0.8260 0.8260 0.8250 0.8230
13.692000 0.8230 0.8210 0.8180 0.8150 0.8130
13.725305 0.8110 0.8110 0.8100 0.8100 0.8080
13.759000 0.8060 0.8050 0.8030 0.8010 0.8000
13.792305 0.7980 0.7970 0.7930 0.7900 0.7850
13.826000 0.7800 0.7750 0.7730 0.7720 0.7700
13.859305 0.7650 0.7630 0.7600 0.7580 0.7550
13.892000 0.7530 0.7530 0.7520 0.7500 0.7480
13.925305 0.7470 0.7450 0.7420 0.7380 0.7370
13.959000 0.7350 0.7330 0.7320 0.7300 0.7250
13.992305 0.7220 0.7170 0.7070 0.7000 0.6970
14.025000 0.6900 0.6830 0.6730 0.6670 0.6520
14.058305 0.6470 0.6320 0.6180 0.6120 0.6020
14.092000 0.5990 0.5940 0.5920 0.5900 0.5890
14.125305 0.5850 0.5840 0.5820 0.5800 0.5790
14.158000 0.5770 0.5720 0.5690 0.5620 0.5570
14.191305 0.5500 0.5400 0.5250 0.5170 0.5070
14.225000 0.5020 0.4970 0.4850 0.4750 0.4650
14.258305 0.4540 0.4420 0.4300 0.4190 0.4050
14.292000 0.3920 0.3770 0.3660 0.3540 0.3410
14.325305 0.3290 0.3170 0.3040 0.2940 0.2820
14.358000 0.2710 0.2590 0.2540 0.2470 0.2370
14.391305 0.2260 0.2140 0.2020 0.1890 0.1780
14.425000 0.1660 0.1560 0.1460 0.1390 0.1330
14.458305 0.1280 0.1230 0.1190 0.1180 0.1140
14.491000 0.1130 0.1060 0.1060 0.1030 0.1030
14.524305 0.1030 0.1040 0.1040 0.1060 0.1080
14.558000 0.1110 0.1140 0.1160 0.1210 0.1260
14.591305 0.1290 0.1340 0.1390 0.1430 0.1440
14.625000 0.1460 0.1480 0.1490 0.1490 0.1510
14.658305 0.1530 0.1560 0.1560 0.1560 0.1560
14.691000 0.1560 0.1540 0.1540 0.1530 0.1480
14.724305 0.1440 0.1440 0.1410 0.1380 0.1280
14.758000 0.1240 0.1230 0.1190 0.1180 0.1160
14.791305 0.1140 0.1160 0.1180 0.1190 0.1210
14.824000 0.1230 0.1240 0.1290 0.1310 0.1340
14.857305 0.1390 0.1440 0.1490 0.1560 0.1610
14.891000 0.1680 0.1760 0.1860 0.1960 0.2070
14.924305 0.2210 0.2320 0.2420 0.2610 0.2670
14.957000 0.2760 0.2820 0.2910 0.2970 0.3040
14.990305 0.3120 0.3210 0.3290 0.3370 0.3470
15.024000 0.3570 0.3690 0.3810 0.3940 0.4100
15.057305 0.4200 0.4270 0.4320 0.4390 0.4490
15.091000 0.4650 0.4720 0.4770 0.4870 0.4940
15.124305 0.4970 0.4990 0.5070 0.5150 0.5220
15.157000 0.5270 0.5300 0.5320 0.5350 0.5420
15.190305 0.5470 0.5540 0.5550 0.5640 0.5670
15.224000 0.5690 0.5690 0.5670 0.5670 0.5670
15.257305 0.5650 0.5650 0.5650 0.5620 0.5600
15.290000 0.5600 0.5570 0.5550 0.5540 0.5500
15.323305 0.5450 0.5400 0.5390 0.5350 0.5350
15.357000 0.5340 0.5320 0.5320 0.5300 0.5290
15.390305 0.5290 0.5250 0.5220 0.5170 0.5150
15.423000 0.5140 0.5140 0.5140 0.5140 0.5140
15.456305 0.5140 0.5170 0.5170 0.5190 0.5220
15.490000 0.5220 0.5250 0.5290 0.5300 0.5320
15.523305 0.5350 0.5390 0.5420 0.5470 0.5520
15.557000 0.5540 0.5550 0.5550 0.5570 0.5620
15.590305 0.5690 0.5700 0.5720 0.5750 0.5820
15.623000 0.5890 0.5940 0.5940 0.5990 0.5990
15.656305 0.6000 0.6020 0.6020 0.6030 0.6030
15.690000 0.6050 0.6070 0.6080 0.6080 0.6100
15.723305 0.6080 0.6080 0.6070 0.6080 0.6080
15.756000 0.6080 0.6080 0.6100 0.6080 0.6100
15.789305 0.6100 0.6100 0.6100 0.6100 0.6120
15.823000 0.6120 0.6120 0.6120 0.6120 0.6120
15.856305 0.6120 0.6120 0.6100 0.6080 0.6070
15.889000 0.6050 0.6050 0.6050 0.6050 0.6070
15.922305 0.6070 0.6070 0.6070 0.6070 0.6050
15.956000 0.6050 0.6030 0.6030 0.6020 0.6020
15.989305 0.6000 0.5990 0.6020 0.6000
##END=
