##TITLE=ZINC CHROMATE
$$ C.P.
##JCAMP-DX=4.24
##DATA TYPE=INFRARED SPECTRUM
##CLASS=COBLENTZ
##ORIGIN=MELLON INSTITUTE
##OWNER=COBLENTZ SOCIETY
Collection (C) 2018 copyright by the U.S. Secretary of Commerce
on behalf of the United States of America. All rights reserved.
##DATE=Not specified, most likely prior to 1970
##MOLFORM=Zn Cr O4  * 7 H2 O
##SOURCE REFERENCE=COBLENTZ NO. 462
##$NIST ID=B6000462
##$NIST SOURCE=COBLENTZ
##$NIST IMAGE=cob462
##SPECTROMETER/DATA SYSTEM=Not specified, most likely a prism, grating, or hybrid spectrometer.
##STATE=SOLID (NUJOL MULL)
##PATH LENGTH=
$$SPECTRAL CONTAMINATION DUE TO OIL AROUND 2900, 1450, 1380 CM^-^1
##SAMPLING PROCEDURE=TRANSMISSION
##RESOLUTION=4
##DATA PROCESSING=DIGITIZED BY NIST FROM HARD COPY
##XUNITS=MICROMETERS
##YUNITS=TRANSMITTANCE
##XFACTOR=1.000000
##YFACTOR=1
##DELTAX=000.006824
##FIRSTX=2.031
##LASTX=15.993
##FIRSTY=0.499
##MAXX=15.993
##MINX=2.031
##MAXY=0.948
##MINY=0.089
##NPOINTS=2047
##XYDATA=(X++(Y..Y))
2.031000 0.4990 0.5040 0.5040 0.5090 0.5120
2.065136 0.5140 0.5180 0.5210 0.5240 0.5300
2.099000 0.5350 0.5400 0.5430 0.5450 0.5500
2.133136 0.5540 0.5590 0.5620 0.5660 0.5710
2.167000 0.5720 0.5760 0.5790 0.5790 0.5840
2.201136 0.5880 0.5910 0.5930 0.5960 0.5980
2.236000 0.6000 0.6020 0.6030 0.6030 0.6050
2.270136 0.6070 0.6080 0.6120 0.6140 0.6170
2.304000 0.6190 0.6200 0.6220 0.6260 0.6290
2.338136 0.6320 0.6360 0.6390 0.6430 0.6480
2.372000 0.6510 0.6530 0.6560 0.6580 0.6620
2.406136 0.6650 0.6680 0.6720 0.6770 0.6790
2.440000 0.6840 0.6870 0.6910 0.6940 0.7010
2.474136 0.7030 0.7030 0.7100 0.7110 0.7150
2.509000 0.7180 0.7200 0.7220 0.7230 0.7250
2.543136 0.7270 0.7280 0.7300 0.7320 0.7320
2.577000 0.7340 0.7370 0.7390 0.7400 0.7440
2.611136 0.7490 0.7530 0.7590 0.7650 0.7680
2.645000 0.7700 0.7710 0.7710 0.7710 0.7730
2.679136 0.7750 0.7780 0.7820 0.7830 0.7850
2.713000 0.7830 0.7830 0.7780 0.7750 0.7700
2.747136 0.7630 0.7580 0.7530 0.7490 0.7440
2.782000 0.7320 0.7230 0.7100 0.6650 0.6170
2.816136 0.5810 0.5500 0.5310 0.5120 0.4930
2.850000 0.4730 0.4440 0.4110 0.3970 0.3730
2.884136 0.3580 0.3480 0.3410 0.3410 0.3430
2.918000 0.3440 0.3460 0.3480 0.3510 0.3550
2.952136 0.3580 0.3630 0.3680 0.3750 0.3750
2.986000 0.3800 0.3850 0.3870 0.3870 0.3920
3.020136 0.3940 0.3990 0.4010 0.4030 0.4040
3.055000 0.4090 0.4130 0.4180 0.4230 0.4280
3.089136 0.4330 0.4400 0.4450 0.4520 0.4590
3.123000 0.4640 0.4760 0.4810 0.4900 0.5110
3.157136 0.5190 0.5330 0.5430 0.5520 0.5600
3.191000 0.5670 0.5780 0.5860 0.5930 0.6000
3.225136 0.6030 0.6080 0.6140 0.6190 0.6240
3.259000 0.6240 0.6240 0.6240 0.6200 0.6140
3.293136 0.6030 0.5960 0.5640 0.5260 0.4870
3.328000 0.3870 0.3070 0.2600 0.2120 0.1690
3.362136 0.1280 0.0940 0.0900 0.0890 0.0900
3.396000 0.1090 0.1350 0.1730 0.2070 0.2280
3.430136 0.2690 0.2600 0.2530 0.2500 0.2460
3.464000 0.2330 0.2310 0.2340 0.4160 0.5950
3.498136 0.6310 0.6650 0.6820 0.6980 0.7220
3.532000 0.7440 0.7710 0.7780 0.7920 0.7990
3.566136 0.8110 0.8160 0.8210 0.8250 0.8280
3.600000 0.8300 0.8300 0.8330 0.8330 0.8330
3.634136 0.8330 0.8330 0.8330 0.8350 0.8330
3.669000 0.8330 0.8330 0.8330 0.8330 0.8330
3.703136 0.8330 0.8330 0.8330 0.8330 0.8330
3.737000 0.8330 0.8330 0.8330 0.8350 0.8350
3.771136 0.8350 0.8330 0.8330 0.8330 0.8330
3.805000 0.8330 0.8350 0.8330 0.8330 0.8350
3.839136 0.8350 0.8350 0.8370 0.8370 0.8380
3.873000 0.8380 0.8400 0.8400 0.8420 0.8420
3.907136 0.8430 0.8430 0.8450 0.8450 0.8470
3.942000 0.8470 0.8490 0.8490 0.8500 0.8500
3.976136 0.8500 0.8520 0.8520 0.8540 0.8550
4.010000 0.8570 0.8590 0.8590 0.8590 0.8590
4.044136 0.8610 0.8620 0.8620 0.8640 0.8660
4.078000 0.8660 0.8670 0.8670 0.8690 0.8710
4.112136 0.8710 0.8730 0.8730 0.8730 0.8740
4.146000 0.8760 0.8780 0.8790 0.8790 0.8790
4.180136 0.8810 0.8810 0.8830 0.8850 0.8860
4.215000 0.8880 0.8880 0.8880 0.8900 0.8900
4.249136 0.8910 0.8930 0.8930 0.8950 0.8970
4.283000 0.8970 0.8980 0.8980 0.8980 0.9000
4.317136 0.9020 0.9020 0.9020 0.9030 0.9030
4.351000 0.9050 0.9070 0.9070 0.9090 0.9090
4.385136 0.9100 0.9100 0.9120 0.9140 0.9140
4.419000 0.9140 0.9150 0.9170 0.9170 0.9170
4.453136 0.9170 0.9190 0.9190 0.9210 0.9220
4.488000 0.9220 0.9220 0.9240 0.9240 0.9240
4.522136 0.9240 0.9260 0.9270 0.9270 0.9270
4.556000 0.9290 0.9290 0.9290 0.9290 0.9310
4.590136 0.9310 0.9330 0.9330 0.9340 0.9340
4.624000 0.9360 0.9360 0.9360 0.9360 0.9380
4.658136 0.9380 0.9390 0.9390 0.9390 0.9390
4.692000 0.9390 0.9390 0.9410 0.9410 0.9430
4.726136 0.9430 0.9430 0.9430 0.9430 0.9450
4.761000 0.9450 0.9450 0.9450 0.9460 0.9460
4.795136 0.9460 0.9460 0.9460 0.9460 0.9460
4.829000 0.9460 0.9480 0.9480 0.9460 0.9460
4.863136 0.9460 0.9460 0.9480 0.9480 0.9460
4.897000 0.9460 0.9460 0.9460 0.9460 0.9460
4.931136 0.9460 0.9480 0.9480 0.9480 0.9480
4.965000 0.9480 0.9480 0.9480 0.9480 0.9460
4.999136 0.9460 0.9460 0.9450 0.9430 0.9430
5.033000 0.9430 0.9410 0.9410 0.9410 0.9410
5.067136 0.9390 0.9390 0.9380 0.9380 0.9380
5.102000 0.9360 0.9360 0.9340 0.9330 0.9310
5.136136 0.9310 0.9290 0.9290 0.9290 0.9290
5.170000 0.9270 0.9260 0.9240 0.9240 0.9240
5.204136 0.9240 0.9220 0.9210 0.9210 0.9190
5.238000 0.9190 0.9170 0.9150 0.9150 0.9140
5.272136 0.9140 0.9120 0.9120 0.9100 0.9100
5.306000 0.9100 0.9090 0.9090 0.9050 0.9070
5.340136 0.9070 0.9070 0.9070 0.9050 0.9050
5.375000 0.9030 0.9030 0.9030 0.9030 0.9020
5.409136 0.9020 0.9000 0.9020 0.9020 0.9020
5.443000 0.9020 0.9020 0.9020 0.9000 0.9000
5.477136 0.9000 0.9000 0.9000 0.9000 0.9000
5.511000 0.9000 0.9000 0.9000 0.9000 0.9000
5.545136 0.9000 0.9000 0.9000 0.9000 0.8980
5.579000 0.8980 0.8980 0.8980 0.8980 0.8970
5.613136 0.8980 0.8980 0.9000 0.8980 0.8980
5.648000 0.9000 0.9000 0.9000 0.9000 0.9000
5.682136 0.9000 0.9000 0.9020 0.9020 0.9020
5.716000 0.9020 0.9020 0.9030 0.9030 0.9030
5.750136 0.9030 0.9030 0.9030 0.9070 0.9070
5.784000 0.9070 0.9070 0.9090 0.9070 0.9090
5.818136 0.9120 0.9120 0.9120 0.9140 0.9140
5.852000 0.9140 0.9150 0.9150 0.9170 0.9170
5.886136 0.9170 0.9170 0.9170 0.9170 0.9170
5.921000 0.9170 0.9170 0.9170 0.9170 0.9170
5.955136 0.9150 0.9150 0.9150 0.9150 0.9140
5.989000 0.9140 0.9120 0.9120 0.9100 0.9090
6.023136 0.9090 0.9090 0.9090 0.9090 0.9070
6.057000 0.9050 0.9030 0.9030 0.9020 0.9000
6.091136 0.8980 0.8950 0.8930 0.8930 0.8900
6.125000 0.8900 0.8900 0.8880 0.8880 0.8880
6.159136 0.8880 0.8880 0.8860 0.8860 0.8860
6.194000 0.8860 0.8850 0.8860 0.8860 0.8860
6.228136 0.8850 0.8850 0.8850 0.8860 0.8860
6.262000 0.8860 0.8860 0.8860 0.8860 0.8880
6.296136 0.8880 0.8880 0.8880 0.8880 0.8880
6.330000 0.8900 0.8880 0.8880 0.8880 0.8900
6.364136 0.8900 0.8900 0.8900 0.8900 0.8910
6.398000 0.8900 0.8930 0.8930 0.8930 0.8930
6.432136 0.8950 0.8980 0.8980 0.8980 0.8980
6.467000 0.9000 0.9000 0.9000 0.9000 0.9020
6.501136 0.9020 0.9020 0.9020 0.9030 0.9030
6.535000 0.9030 0.9030 0.9030 0.9030 0.9050
6.569136 0.9090 0.9090 0.9100 0.9100 0.9100
6.603000 0.9140 0.9140 0.9140 0.9140 0.9140
6.637136 0.9140 0.9170 0.9170 0.9170 0.9170
6.671000 0.9170 0.9190 0.9190 0.9170 0.9170
6.705136 0.9150 0.9140 0.9120 0.9100 0.9030
6.739000 0.9020 0.8950 0.8860 0.8690 0.8450
6.773136 0.8310 0.8010 0.7730 0.7400 0.7060
6.808000 0.6820 0.6620 0.6390 0.6290 0.6240
6.842136 0.6220 0.6200 0.6190 0.6190 0.6170
6.876000 0.6170 0.6200 0.6240 0.6260 0.6360
6.910136 0.6410 0.6680 0.6940 0.7080 0.7270
6.944000 0.7400 0.7770 0.7990 0.8110 0.8180
6.978136 0.8330 0.8420 0.8500 0.8550 0.8620
7.012000 0.8690 0.8690 0.8710 0.8730 0.8760
7.046136 0.8810 0.8880 0.8910 0.9020 0.9090
7.081000 0.9150 0.9220 0.9260 0.9290 0.9330
7.115136 0.9340 0.9340 0.9360 0.9360 0.9380
7.149000 0.9360 0.9360 0.9330 0.9310 0.9240
7.183136 0.9170 0.9020 0.8900 0.8760 0.8280
7.217000 0.7890 0.7680 0.7660 0.7630 0.7650
7.251136 0.7660 0.7660 0.7710 0.7750 0.7800
7.285000 0.7850 0.7900 0.7990 0.8010 0.8040
7.319136 0.8130 0.8180 0.8280 0.8400 0.8520
7.354000 0.8550 0.8610 0.8640 0.8710 0.8760
7.388136 0.8810 0.8860 0.8880 0.8910 0.8930
7.422000 0.8950 0.8950 0.8980 0.9000 0.9000
7.456136 0.9020 0.9020 0.9030 0.9030 0.9090
7.490000 0.9100 0.9120 0.9140 0.9170 0.9190
7.524136 0.9190 0.9210 0.9210 0.9220 0.9240
7.558000 0.9240 0.9240 0.9240 0.9240 0.9260
7.592136 0.9260 0.9260 0.9260 0.9260 0.9260
7.627000 0.9260 0.9260 0.9260 0.9260 0.9260
7.661136 0.9270 0.9260 0.9260 0.9260 0.9260
7.695000 0.9260 0.9260 0.9260 0.9260 0.9260
7.729136 0.9260 0.9260 0.9260 0.9260 0.9260
7.763000 0.9260 0.9260 0.9260 0.9260 0.9260
7.797136 0.9260 0.9260 0.9260 0.9260 0.9260
7.831000 0.9260 0.9270 0.9270 0.9270 0.9270
7.865136 0.9290 0.9290 0.9290 0.9290 0.9290
7.900000 0.9290 0.9290 0.9290 0.9290 0.9290
7.934136 0.9290 0.9290 0.9290 0.9290 0.9290
7.968000 0.9290 0.9290 0.9290 0.9290 0.9270
8.002136 0.9270 0.9260 0.9260 0.9260 0.9240
8.036000 0.9240 0.9240 0.9220 0.9220 0.9220
8.070136 0.9220 0.9210 0.9190 0.9170 0.9150
8.104000 0.9150 0.9140 0.9120 0.9100 0.9050
8.138136 0.9050 0.9030 0.9000 0.8970 0.8950
8.172000 0.8900 0.8860 0.8790 0.8730 0.8660
8.206136 0.8490 0.8450 0.8380 0.8330 0.8250
8.241000 0.8190 0.8090 0.8040 0.8010 0.7870
8.275136 0.7700 0.7540 0.7470 0.7390 0.7150
8.309000 0.7100 0.6910 0.6680 0.6530 0.6430
8.343136 0.6240 0.6070 0.5960 0.5790 0.5670
8.377000 0.5570 0.5470 0.5360 0.5330 0.5280
8.411136 0.5230 0.5230 0.5230 0.5210 0.5190
8.445000 0.5190 0.5210 0.5210 0.5240 0.5240
8.479136 0.5260 0.5300 0.5310 0.5330 0.5350
8.514000 0.5350 0.5380 0.5400 0.5430 0.5450
8.548136 0.5500 0.5520 0.5540 0.5540 0.5550
8.582000 0.5570 0.5570 0.5600 0.5620 0.5620
8.616136 0.5620 0.5620 0.5620 0.5620 0.5620
8.650000 0.5600 0.5590 0.5550 0.5540 0.5540
8.684136 0.5520 0.5500 0.5480 0.5430 0.5420
8.718000 0.5360 0.5360 0.5330 0.5310 0.5300
8.752136 0.5280 0.5260 0.5230 0.5180 0.5160
8.787000 0.5120 0.5090 0.5040 0.5040 0.5000
8.821136 0.5000 0.4990 0.4970 0.4920 0.4900
8.855000 0.4870 0.4810 0.4800 0.4760 0.4730
8.889136 0.4730 0.4710 0.4680 0.4660 0.4630
8.923000 0.4590 0.4560 0.4520 0.4520 0.4510
8.957136 0.4490 0.4470 0.4450 0.4470 0.4450
8.991000 0.4420 0.4400 0.4370 0.4350 0.4350
9.025136 0.4330 0.4330 0.4330 0.4330 0.4330
9.060000 0.4330 0.4330 0.4320 0.4320 0.4320
9.094136 0.4300 0.4320 0.4320 0.4320 0.4320
9.128000 0.4320 0.4320 0.4300 0.4300 0.4300
9.162136 0.4300 0.4300 0.4300 0.4300 0.4280
9.196000 0.4300 0.4300 0.4300 0.4300 0.4300
9.230136 0.4300 0.4300 0.4300 0.4300 0.4300
9.264000 0.4300 0.4300 0.4300 0.4320 0.4320
9.298136 0.4320 0.4330 0.4330 0.4330 0.4350
9.333000 0.4350 0.4350 0.4370 0.4390 0.4400
9.367136 0.4420 0.4420 0.4440 0.4440 0.4470
9.401000 0.4490 0.4490 0.4490 0.4490 0.4490
9.435136 0.4510 0.4510 0.4510 0.4510 0.4510
9.469000 0.4520 0.4520 0.4520 0.4520 0.4540
9.503136 0.4540 0.4540 0.4540 0.4540 0.4540
9.537000 0.4540 0.4540 0.4540 0.4560 0.4560
9.571136 0.4570 0.4560 0.4570 0.4610 0.4660
9.605000 0.4690 0.4750 0.4780 0.4810 0.4850
9.639136 0.4930 0.4990 0.5110 0.5190 0.5300
9.674000 0.5400 0.5520 0.5570 0.5640 0.5720
9.708136 0.5810 0.5910 0.5960 0.6050 0.6100
9.742000 0.6200 0.6270 0.6380 0.6410 0.6510
9.776136 0.6620 0.6670 0.6700 0.6740 0.6790
9.810000 0.6820 0.6920 0.6960 0.6980 0.6990
9.844136 0.7010 0.7030 0.7060 0.7110 0.7150
9.878000 0.7160 0.7220 0.7230 0.7230 0.7250
9.912136 0.7280 0.7320 0.7320 0.7350 0.7370
9.947000 0.7400 0.7420 0.7420 0.7440 0.7440
9.981136 0.7460 0.7470 0.7490 0.7530 0.7530
10.015000 0.7530 0.7540 0.7540 0.7540 0.7540
10.049136 0.7540 0.7540 0.7540 0.7540 0.7540
10.083000 0.7540 0.7540 0.7540 0.7530 0.7530
10.117136 0.7510 0.7510 0.7510 0.7490 0.7440
10.151000 0.7420 0.7400 0.7370 0.7320 0.7280
10.185136 0.7250 0.7220 0.7110 0.7060 0.6980
10.220000 0.6910 0.6800 0.6720 0.6620 0.6580
10.254136 0.6500 0.6390 0.6260 0.6120 0.5950
10.288000 0.5790 0.5640 0.5480 0.5400 0.5210
10.322136 0.5110 0.5020 0.4920 0.4750 0.4560
10.356000 0.4440 0.4320 0.4200 0.4040 0.3940
10.390136 0.3790 0.3610 0.3490 0.3390 0.3240
10.424000 0.3130 0.3070 0.2980 0.2890 0.2840
10.458136 0.2720 0.2620 0.2590 0.2550 0.2520
10.493000 0.2480 0.2450 0.2410 0.2340 0.2280
10.527136 0.2240 0.2220 0.2210 0.2160 0.2140
10.561000 0.2100 0.2090 0.2090 0.2090 0.2070
10.595136 0.2070 0.2050 0.2050 0.2050 0.2050
10.629000 0.2040 0.2040 0.2040 0.2040 0.2040
10.663136 0.2040 0.2040 0.2040 0.2040 0.2040
10.697000 0.2040 0.2040 0.2040 0.2050 0.2070
10.731136 0.2070 0.2090 0.2100 0.2100 0.2100
10.766000 0.2120 0.2120 0.2140 0.2140 0.2160
10.800136 0.2160 0.2160 0.2170 0.2190 0.2210
10.834000 0.2210 0.2210 0.2210 0.2220 0.2220
10.868136 0.2220 0.2220 0.2220 0.2220 0.2210
10.902000 0.2210 0.2210 0.2210 0.2190 0.2190
10.936136 0.2190 0.2160 0.2160 0.2140 0.2140
10.970000 0.2120 0.2100 0.2070 0.2040 0.2040
11.004136 0.2000 0.2000 0.1980 0.1950 0.1950
11.038000 0.1930 0.1900 0.1880 0.1860 0.1850
11.072136 0.1830 0.1810 0.1810 0.1800 0.1780
11.107000 0.1780 0.1760 0.1740 0.1740 0.1730
11.141136 0.1710 0.1690 0.1690 0.1690 0.1680
11.175000 0.1680 0.1660 0.1640 0.1620 0.1610
11.209136 0.1590 0.1590 0.1570 0.1560 0.1560
11.243000 0.1540 0.1520 0.1500 0.1520 0.1500
11.277136 0.1500 0.1490 0.1490 0.1470 0.1470
11.311000 0.1470 0.1450 0.1450 0.1450 0.1440
11.345136 0.1440 0.1440 0.1420 0.1420 0.1420
11.380000 0.1420 0.1400 0.1400 0.1380 0.1400
11.414136 0.1400 0.1400 0.1400 0.1400 0.1400
11.448000 0.1400 0.1400 0.1400 0.1400 0.1420
11.482136 0.1420 0.1440 0.1470 0.1520 0.1560
11.516000 0.1610 0.1660 0.1710 0.1760 0.1810
11.550136 0.1880 0.1970 0.2000 0.2090 0.2170
11.584000 0.2290 0.2360 0.2450 0.2590 0.2670
11.618136 0.2760 0.2830 0.2890 0.2980 0.3030
11.653000 0.3100 0.3150 0.3200 0.3270 0.3340
11.687136 0.3390 0.3440 0.3510 0.3560 0.3600
11.721000 0.3650 0.3680 0.3730 0.3790 0.3820
11.755136 0.3840 0.3870 0.3910 0.3940 0.3960
11.789000 0.3970 0.3970 0.4010 0.4030 0.4040
11.823136 0.4080 0.4090 0.4090 0.4090 0.4110
11.857000 0.4110 0.4110 0.4110 0.4090 0.4090
11.891136 0.4090 0.4090 0.4090 0.4080 0.4060
11.926000 0.4040 0.4030 0.4030 0.4010 0.3990
11.960136 0.3940 0.3920 0.3910 0.3870 0.3840
11.994000 0.3800 0.3750 0.3670 0.3630 0.3600
12.028136 0.3530 0.3490 0.3460 0.3430 0.3370
12.062000 0.3340 0.3310 0.3270 0.3220 0.3190
12.096136 0.3150 0.3100 0.3050 0.3030 0.2980
12.130000 0.2960 0.2890 0.2810 0.2760 0.2720
12.164136 0.2690 0.2650 0.2620 0.2590 0.2550
12.199000 0.2500 0.2480 0.2460 0.2410 0.2400
12.233136 0.2330 0.2290 0.2280 0.2220 0.2190
12.267000 0.2140 0.2120 0.2090 0.2040 0.2000
12.301136 0.2000 0.1980 0.1970 0.1920 0.1900
12.335000 0.1900 0.1900 0.1880 0.1880 0.1860
12.369136 0.1860 0.1850 0.1850 0.1830 0.1830
12.403000 0.1810 0.1800 0.1780 0.1800 0.1780
12.437136 0.1780 0.1780 0.1760 0.1740 0.1740
12.471000 0.1740 0.1730 0.1730 0.1730 0.1730
12.505136 0.1730 0.1730 0.1730 0.1730 0.1730
12.540000 0.1730 0.1730 0.1730 0.1730 0.1730
12.574136 0.1730 0.1730 0.1730 0.1730 0.1730
12.608000 0.1730 0.1730 0.1740 0.1740 0.1740
12.642136 0.1730 0.1730 0.1740 0.1760 0.1780
12.676000 0.1780 0.1800 0.1800 0.1810 0.1810
12.710136 0.1810 0.1830 0.1860 0.1880 0.1900
12.744000 0.1920 0.1920 0.1930 0.1970 0.2000
12.778136 0.2000 0.2020 0.2040 0.2040 0.2050
12.813000 0.2090 0.2120 0.2140 0.2160 0.2170
12.847136 0.2210 0.2220 0.2260 0.2290 0.2330
12.881000 0.2360 0.2430 0.2450 0.2480 0.2530
12.915136 0.2550 0.2590 0.2640 0.2670 0.2690
12.949000 0.2710 0.2760 0.2770 0.2810 0.2860
12.983136 0.2890 0.2980 0.3000 0.3030 0.3050
13.017000 0.3100 0.3130 0.3170 0.3220 0.3240
13.051136 0.3270 0.3310 0.3340 0.3410 0.3430
13.086000 0.3480 0.3490 0.3550 0.3580 0.3610
13.120136 0.3650 0.3720 0.3750 0.3790 0.3840
13.154000 0.3870 0.3910 0.3940 0.3990 0.4010
13.188136 0.4030 0.4060 0.4090 0.4130 0.4150
13.222000 0.4180 0.4210 0.4230 0.4250 0.4270
13.256136 0.4300 0.4320 0.4330 0.4330 0.4350
13.290000 0.4370 0.4400 0.4420 0.4440 0.4450
13.324136 0.4450 0.4490 0.4520 0.4520 0.4540
13.359000 0.4540 0.4560 0.4560 0.4560 0.4570
13.393136 0.4570 0.4590 0.4590 0.4610 0.4630
13.427000 0.4640 0.4660 0.4660 0.4660 0.4680
13.461136 0.4690 0.4690 0.4690 0.4690 0.4690
13.495000 0.4710 0.4710 0.4710 0.4710 0.4730
13.529136 0.4730 0.4730 0.4750 0.4750 0.4750
13.563000 0.4750 0.4750 0.4750 0.4750 0.4750
13.597136 0.4760 0.4780 0.4780 0.4800 0.4800
13.632000 0.4800 0.4800 0.4800 0.4800 0.4800
13.666136 0.4800 0.4800 0.4810 0.4810 0.4810
13.700000 0.4810 0.4810 0.4810 0.4810 0.4810
13.734136 0.4810 0.4810 0.4810 0.4810 0.4800
13.768000 0.4800 0.4800 0.4800 0.4780 0.4780
13.802136 0.4760 0.4780 0.4780 0.4780 0.4760
13.836000 0.4760 0.4750 0.4750 0.4730 0.4730
13.870136 0.4710 0.4710 0.4710 0.4710 0.4690
13.904000 0.4690 0.4690 0.4690 0.4690 0.4690
13.938136 0.4680 0.4680 0.4680 0.4680 0.4690
13.973000 0.4690 0.4690 0.4710 0.4730 0.4730
14.007136 0.4750 0.4750 0.4750 0.4750 0.4750
14.041000 0.4760 0.4760 0.4760 0.4760 0.4800
14.075136 0.4800 0.4800 0.4810 0.4830 0.4830
14.109000 0.4850 0.4850 0.4850 0.4870 0.4880
14.143136 0.4900 0.4930 0.4930 0.4950 0.4950
14.177000 0.4970 0.4970 0.4990 0.4990 0.5040
14.211136 0.5060 0.5070 0.5110 0.5110 0.5120
14.246000 0.5140 0.5160 0.5180 0.5190 0.5230
14.280136 0.5230 0.5240 0.5280 0.5300 0.5330
14.314000 0.5350 0.5380 0.5400 0.5420 0.5430
14.348136 0.5450 0.5480 0.5500 0.5520 0.5540
14.382000 0.5550 0.5570 0.5590 0.5620 0.5640
14.416136 0.5670 0.5690 0.5720 0.5740 0.5740
14.450000 0.5760 0.5790 0.5810 0.5830 0.5830
14.484136 0.5840 0.5860 0.5880 0.5900 0.5910
14.519000 0.5930 0.5930 0.5950 0.5950 0.5960
14.553136 0.5980 0.6000 0.6000 0.6020 0.6030
14.587000 0.6030 0.6030 0.6030 0.6030 0.6050
14.621136 0.6070 0.6080 0.6080 0.6100 0.6100
14.655000 0.6120 0.6140 0.6140 0.6140 0.6140
14.689136 0.6140 0.6140 0.6140 0.6140 0.6140
14.723000 0.6140 0.6140 0.6140 0.6140 0.6140
14.757136 0.6150 0.6140 0.6140 0.6140 0.6140
14.792000 0.6140 0.6140 0.6140 0.6140 0.6140
14.826136 0.6140 0.6140 0.6140 0.6140 0.6140
14.860000 0.6140 0.6140 0.6120 0.6140 0.6140
14.894136 0.6140 0.6120 0.6120 0.6120 0.6120
14.928000 0.6120 0.6120 0.6120 0.6120 0.6120
14.962136 0.6120 0.6100 0.6120 0.6120 0.6120
14.996000 0.6140 0.6140 0.6120 0.6120 0.6120
15.030136 0.6140 0.6120 0.6120 0.6140 0.6120
15.065000 0.6120 0.6120 0.6120 0.6120 0.6120
15.099136 0.6140 0.6120 0.6120 0.6120 0.6120
15.133000 0.6100 0.6100 0.6100 0.6080 0.6080
15.167136 0.6080 0.6080 0.6070 0.6070 0.6070
15.201000 0.6050 0.6070 0.6070 0.6050 0.6050
15.235136 0.6030 0.6030 0.6020 0.6020 0.6020
15.269000 0.6000 0.6000 0.6000 0.6000 0.5980
15.303136 0.5980 0.5960 0.5950 0.5930 0.5930
15.337000 0.5910 0.5910 0.5910 0.5900 0.5900
15.371136 0.5880 0.5880 0.5860 0.5840 0.5840
15.406000 0.5840 0.5810 0.5830 0.5810 0.5810
15.440136 0.5790 0.5780 0.5780 0.5780 0.5760
15.474000 0.5760 0.5740 0.5740 0.5740 0.5720
15.508136 0.5720 0.5710 0.5710 0.5690 0.5690
15.542000 0.5670 0.5670 0.5670 0.5660 0.5660
15.576136 0.5660 0.5640 0.5640 0.5640 0.5620
15.610000 0.5620 0.5600 0.5600 0.5600 0.5590
15.644136 0.5570 0.5550 0.5550 0.5550 0.5540
15.679000 0.5540 0.5520 0.5520 0.5500 0.5500
15.713136 0.5480 0.5470 0.5470 0.5450 0.5450
15.747000 0.5430 0.5430 0.5430 0.5430 0.5420
15.781136 0.5400 0.5400 0.5400 0.5380 0.5360
15.815000 0.5360 0.5360 0.5360 0.5360 0.5350
15.849136 0.5350 0.5350 0.5330 0.5330 0.5330
15.883000 0.5330 0.5310 0.5310 0.5310 0.5300
15.917136 0.5300 0.5300 0.5300 0.5300 0.5300
15.952000 0.5300 0.5300 0.5300 0.5300 0.5280
15.986136 0.5300 0.5300
##END=
