##TITLE=SECOANDROST-5-ENE-16-PEROXYACETIC ACID, 16,17-,17-CARBOXY-3-Beta-HYDROXY-, OO-tert-BUTYL O-METHYL ESTER,
##JCAMP-DX=4.24
##DATA TYPE=INFRARED SPECTRUM
##CLASS=COBLENTZ
##ORIGIN=ABBOTT LABORATORIES
##OWNER=Copyright (C) 1987 by the Coblentz Society
Collection (C) 2018 copyright by the U.S. Secretary of Commerce
on behalf of the United States of America. All rights reserved.
##DATE=1965/03/18
##NAMES=methyl 7-(acetyloxy)-1-[2-(tert-butylperoxy)-2-oxoethyl]-2,4b-dimethyl-1,2,3,4,4a,4b,5,6,7,8,10,10a-dodecahydro-2-phenanthrenecarboxylate
##MOLFORM=C26 H40 O7
##SOURCE REFERENCE=COBLENTZ NO. 5264
##$NIST ID=B6005264
##$NIST SOURCE=COBLENTZ
##$NIST IMAGE=cob5264
##SPECTROMETER/DATA SYSTEM=PERKIN-ELMER 421 (GRATING)
$$ INACTIVE (CHCl3) AROUND 650-800 AND 1200-1250 CM^-^
##INSTRUMENT PARAMETERS=GRATING CHANGE AT 1999 CM^-^
##STATE=SOLUTION 7% (CHCl3 FOR 2.5-15 microns)
##PATH LENGTH=0.01 CM
##RESOLUTION=2
##XUNITS=1/CM
##YUNITS=TRANSMITTANCE
##XFACTOR=1.0
##YFACTOR=1
##FIRSTX=719
##LASTX=4000
##FIRSTY=0.8053
##MAXX=4000
##MINX=719
##MAXY=0.9012
##MINY=0.0854
##NPOINTS=3282
##XYDATA=(X++(Y..Y))
719.000000 0.8053 0.8056 0.8057 0.8058 0.8058
724.000000 0.8059 0.8060 0.8061 0.8062 0.8063
729.000000 0.8064 0.8064 0.8065 0.8066 0.8067
734.000000 0.8068 0.8068 0.8068 0.8069 0.8069
739.000000 0.8069 0.8070 0.8070 0.8070 0.8071
744.000000 0.8071 0.8071 0.8072 0.8072 0.8072
749.000000 0.8072 0.8073 0.8074 0.8075 0.8077
754.000000 0.8078 0.8079 0.8081 0.8082 0.8084
759.000000 0.8085 0.8087 0.8088 0.8089 0.8091
764.000000 0.8092 0.8094 0.8095 0.8096 0.8098
769.000000 0.8099 0.8099 0.8099 0.8098 0.8098
774.000000 0.8097 0.8096 0.8096 0.8095 0.8095
779.000000 0.8094 0.8094 0.8093 0.8092 0.8092
784.000000 0.8091 0.8091 0.8090 0.8089 0.8088
789.000000 0.8087 0.8085 0.8084 0.8083 0.8082
794.000000 0.8081 0.8080 0.8079 0.8078 0.8077
799.000000 0.8075 0.8074 0.8072 0.8071 0.8069
804.000000 0.8068 0.8066 0.8065 0.8064 0.8063
809.000000 0.8062 0.8061 0.8059 0.8058 0.8057
814.000000 0.8057 0.8057 0.8079 0.8131 0.8181
819.000000 0.8201 0.8220 0.8225 0.8227 0.8234
824.000000 0.8230 0.8226 0.8222 0.8217 0.8121
829.000000 0.8019 0.7918 0.7817 0.7716 0.7615
834.000000 0.7514 0.7413 0.7312 0.7217 0.7211
839.000000 0.7204 0.7222 0.7256 0.7331 0.7407
844.000000 0.7482 0.7558 0.7633 0.7709 0.7784
849.000000 0.7860 0.7935 0.7949 0.7952 0.7955
854.000000 0.7954 0.7951 0.7949 0.7947 0.7945
859.000000 0.7943 0.7943 0.7948 0.7953 0.7961
864.000000 0.7972 0.7983 0.7996 0.8021 0.8046
869.000000 0.8071 0.8117 0.8163 0.8209 0.8254
874.000000 0.8285 0.8300 0.8300 0.8276 0.8261
879.000000 0.8237 0.8205 0.8172 0.8156 0.8143
884.000000 0.8135 0.8128 0.8121 0.8127 0.8067
889.000000 0.7802 0.7538 0.7479 0.7461 0.7461
894.000000 0.7464 0.7454 0.7515 0.7592 0.7669
899.000000 0.7746 0.7823 0.7900 0.7977 0.8055
904.000000 0.8121 0.8169 0.8202 0.8225 0.8249
909.000000 0.8270 0.8271 0.8296 0.8273 0.8273
914.000000 0.8265 0.8257 0.8243 0.8228 0.8213
919.000000 0.8194 0.8174 0.8155 0.8135 0.8117
924.000000 0.8098 0.8079 0.8060 0.8044 0.8031
929.000000 0.8018 0.8009 0.7984 0.8012 0.8044
934.000000 0.8084 0.8125 0.8165 0.8197 0.8190
939.000000 0.8177 0.8153 0.8126 0.8099 0.8072
944.000000 0.8045 0.8018 0.8025 0.8021 0.8087
949.000000 0.8155 0.8222 0.8251 0.8244 0.8249
954.000000 0.8208 0.8170 0.8135 0.8099 0.8063
959.000000 0.8026 0.7990 0.7951 0.7908 0.7861
964.000000 0.7806 0.7623 0.7303 0.7075 0.6968
969.000000 0.6872 0.6829 0.6815 0.6789 0.6825
974.000000 0.6900 0.7000 0.7101 0.7201 0.7302
979.000000 0.7402 0.7472 0.7483 0.7483 0.7482
984.000000 0.7505 0.7469 0.7442 0.7400 0.7353
989.000000 0.7301 0.7243 0.7191 0.7143 0.7059
994.000000 0.6928 0.6796 0.6664 0.6533 0.6401
999.000000 0.6270 0.6138 0.6007 0.5875 0.5796
1004.000000 0.5709 0.5631 0.5556 0.5493 0.5432
1009.000000 0.5325 0.5177 0.4943 0.4500 0.4149
1014.000000 0.3808 0.3696 0.3647 0.3613 0.3594
1019.000000 0.3602 0.3598 0.3704 0.3740 0.3764
1024.000000 0.3779 0.3795 0.3811 0.3949 0.4188
1029.000000 0.4427 0.4666 0.4905 0.5144 0.5383
1034.000000 0.5622 0.5837 0.5913 0.5951 0.5965
1039.000000 0.5980 0.5986 0.5993 0.5999 0.6005
1044.000000 0.6012 0.6018 0.6025 0.6031 0.6038
1049.000000 0.6045 0.6030 0.5991 0.5935 0.5881
1054.000000 0.5778 0.5693 0.5608 0.5527 0.5457
1059.000000 0.5386 0.5313 0.5242 0.5222 0.5215
1064.000000 0.5208 0.5203 0.5201 0.5200 0.5200
1069.000000 0.5200 0.5200 0.5200 0.5194 0.5187
1074.000000 0.5173 0.5106 0.5010 0.4914 0.4818
1079.000000 0.4722 0.4626 0.4530 0.4435 0.4339
1084.000000 0.4243 0.4147 0.4051 0.3955 0.3859
1089.000000 0.3764 0.3701 0.3659 0.3620 0.3592
1094.000000 0.3570 0.3547 0.3522 0.3498 0.3473
1099.000000 0.3438 0.3400 0.3363 0.3305 0.3276
1104.000000 0.3263 0.3251 0.3249 0.3251 0.3255
1109.000000 0.3274 0.3300 0.3422 0.3686 0.3950
1114.000000 0.4214 0.4478 0.4742 0.5006 0.5270
1119.000000 0.5534 0.5799 0.6063 0.6146 0.6165
1124.000000 0.6174 0.6177 0.6180 0.6184 0.6190
1129.000000 0.6195 0.6207 0.6223 0.6257 0.6316
1134.000000 0.6329 0.6334 0.6332 0.6330 0.6320
1139.000000 0.6311 0.6274 0.6230 0.6212 0.6194
1144.000000 0.6194 0.6198 0.6201 0.6137 0.6227
1149.000000 0.6283 0.6329 0.6371 0.6400 0.6424
1154.000000 0.6434 0.6429 0.6424 0.6430 0.6253
1159.000000 0.6151 0.6049 0.5947 0.5845 0.5743
1164.000000 0.5642 0.5540 0.5438 0.5336 0.5234
1169.000000 0.5133 0.5031 0.4929 0.4846 0.4772
1174.000000 0.4698 0.4514 0.4306 0.4249 0.4192
1179.000000 0.4135 0.4078 0.4021 0.3964 0.3907
1184.000000 0.3850 0.3793 0.3736 0.3679 0.3622
1189.000000 0.3564 0.3507 0.3450 0.3393 0.3336
1194.000000 0.3279 0.3222 0.3165 0.3108 0.3051
1199.000000 0.2994 0.2937 0.2880 0.2823 0.2766
1204.000000 0.2708 0.2651 0.2594 0.2537 0.2480
1209.000000 0.2423 0.2366 0.2309 0.2252 0.2195
1214.000000 0.2138 0.2081 0.2024 0.1967 0.1910
1219.000000 0.1853 0.1795 0.1738 0.1681 0.1624
1224.000000 0.1567 0.1510 0.1453 0.1396 0.1339
1229.000000 0.1282 0.1225 0.1168 0.1138 0.1107
1234.000000 0.1074 0.1039 0.1012 0.1000 0.0990
1239.000000 0.0997 0.0997 0.1003 0.1010 0.1021
1244.000000 0.1057 0.1098 0.1142 0.1210 0.1287
1249.000000 0.1586 0.1749 0.1911 0.2074 0.2237
1254.000000 0.2399 0.2562 0.2725 0.2887 0.3050
1259.000000 0.3212 0.3375 0.3538 0.3700 0.3863
1264.000000 0.4026 0.4188 0.4351 0.4514 0.4676
1269.000000 0.4839 0.5001 0.5164 0.5327 0.5489
1274.000000 0.5652 0.5815 0.5977 0.6140 0.6303
1279.000000 0.6465 0.6516 0.6517 0.6517 0.6496
1284.000000 0.6446 0.6396 0.6347 0.6297 0.6247
1289.000000 0.6237 0.6241 0.6283 0.6434 0.6586
1294.000000 0.6738 0.6890 0.7042 0.7168 0.7169
1299.000000 0.7165 0.7153 0.7088 0.6983 0.6877
1304.000000 0.6772 0.6771 0.6771 0.6879 0.7119
1309.000000 0.7358 0.7560 0.7632 0.7679 0.7718
1314.000000 0.7747 0.7775 0.7804 0.7823 0.7832
1319.000000 0.7841 0.7844 0.7846 0.7847 0.7849
1324.000000 0.7852 0.7856 0.7862 0.7886 0.7911
1329.000000 0.7939 0.7951 0.7935 0.7952 0.7944
1334.000000 0.7936 0.7919 0.7898 0.7848 0.7778
1339.000000 0.7609 0.7423 0.7239 0.7073 0.6930
1344.000000 0.6717 0.6391 0.6066 0.5741 0.5416
1349.000000 0.5090 0.4765 0.4440 0.4114 0.3789
1354.000000 0.3464 0.3138 0.2813 0.2488 0.2268
1359.000000 0.2273 0.2285 0.2283 0.2722 0.3327
1364.000000 0.3932 0.4538 0.4870 0.4873 0.4875
1369.000000 0.5215 0.5489 0.5491 0.5435 0.5311
1374.000000 0.5188 0.5064 0.5043 0.5051 0.5367
1379.000000 0.5684 0.6000 0.6316 0.6632 0.6948
1384.000000 0.7264 0.7579 0.7682 0.7734 0.7821
1389.000000 0.7867 0.7892 0.7895 0.7918 0.7900
1394.000000 0.7897 0.7891 0.7886 0.7875 0.7858
1399.000000 0.7812 0.7757 0.7692 0.7623 0.7525
1404.000000 0.7431 0.7343 0.7256 0.7192 0.7145
1409.000000 0.7125 0.7106 0.7086 0.7066 0.7045
1414.000000 0.7025 0.6999 0.6965 0.6758 0.6532
1419.000000 0.6307 0.6081 0.5855 0.5629 0.5403
1424.000000 0.5234 0.5236 0.5239 0.5245 0.5421
1429.000000 0.5550 0.5679 0.5808 0.5937 0.6066
1434.000000 0.6195 0.6323 0.6378 0.6327 0.6294
1439.000000 0.6240 0.6140 0.6070 0.6037 0.6019
1444.000000 0.6005 0.6000 0.6000 0.6000 0.6001
1449.000000 0.6003 0.6005 0.5983 0.6025 0.6056
1454.000000 0.6090 0.6123 0.6187 0.6276 0.6365
1459.000000 0.6454 0.6543 0.6631 0.6720 0.6809
1464.000000 0.6898 0.6987 0.7076 0.7165 0.7254
1469.000000 0.7342 0.7431 0.7914 0.8243 0.8326
1474.000000 0.8409 0.8456 0.8500 0.8543 0.8578
1479.000000 0.8602 0.8625 0.8638 0.8651 0.8664
1484.000000 0.8677 0.8690 0.8703 0.8715 0.8728
1489.000000 0.8738 0.8748 0.8757 0.8767 0.8776
1494.000000 0.8786 0.8792 0.8798 0.8805 0.8811
1499.000000 0.8817 0.8824 0.8830 0.8840 0.8853
1504.000000 0.8866 0.8878 0.8890 0.8902 0.8913
1509.000000 0.8918 0.8922 0.8926 0.8931 0.8935
1514.000000 0.8939 0.8942 0.8946 0.8950 0.8953
1519.000000 0.8957 0.8960 0.8964 0.8966 0.8967
1524.000000 0.8968 0.8969 0.8970 0.8971 0.8972
1529.000000 0.8980 0.8975 0.8976 0.8976 0.8976
1534.000000 0.8975 0.8974 0.8973 0.8973 0.8972
1539.000000 0.8971 0.8971 0.8970 0.8969 0.8968
1544.000000 0.8967 0.8965 0.8964 0.8963 0.8960
1549.000000 0.8958 0.8955 0.8953 0.8950 0.8948
1554.000000 0.8945 0.8943 0.8940 0.8938 0.8935
1559.000000 0.8933 0.8930 0.8928 0.8925 0.8922
1564.000000 0.8918 0.8915 0.8911 0.8908 0.8904
1569.000000 0.8901 0.8897 0.8894 0.8891 0.8887
1574.000000 0.8884 0.8880 0.8877 0.8873 0.8870
1579.000000 0.8866 0.8862 0.8858 0.8854 0.8850
1584.000000 0.8846 0.8842 0.8838 0.8833 0.8828
1589.000000 0.8822 0.8816 0.8810 0.8804 0.8798
1594.000000 0.8792 0.8786 0.8780 0.8774 0.8768
1599.000000 0.8762 0.8756 0.8750 0.8744 0.8737
1604.000000 0.8729 0.8722 0.8715 0.8708 0.8700
1609.000000 0.8693 0.8686 0.8679 0.8672 0.8664
1614.000000 0.8657 0.8650 0.8642 0.8633 0.8624
1619.000000 0.8614 0.8605 0.8596 0.8587 0.8578
1624.000000 0.8569 0.8559 0.8550 0.8541 0.8532
1629.000000 0.8523 0.8513 0.8504 0.8495 0.8483
1634.000000 0.8468 0.8453 0.8438 0.8423 0.8408
1639.000000 0.8393 0.8378 0.8363 0.8348 0.8333
1644.000000 0.8316 0.8298 0.8281 0.8263 0.8245
1649.000000 0.8228 0.8210 0.8192 0.8174 0.8156
1654.000000 0.8118 0.8079 0.8041 0.7997 0.7942
1659.000000 0.7887 0.7832 0.7781 0.7735 0.7709
1664.000000 0.7682 0.7656 0.7635 0.7614 0.7594
1669.000000 0.7573 0.7552 0.7531 0.7509 0.7486
1674.000000 0.7462 0.7438 0.7406 0.7359 0.7312
1679.000000 0.7265 0.7201 0.7024 0.6774 0.6524
1684.000000 0.6275 0.6025 0.5775 0.5526 0.5424
1689.000000 0.5353 0.5265 0.5137 0.5070 0.4633
1694.000000 0.4172 0.3711 0.3251 0.2790 0.2329
1699.000000 0.2013 0.1898 0.1721 0.1598 0.1451
1704.000000 0.1303 0.0946 0.0907 0.0873 0.0864
1709.000000 0.0861 0.0854 0.0864 0.0870 0.0887
1714.000000 0.0907 0.0948 0.1020 0.1085 0.1154
1719.000000 0.1271 0.1513 0.1754 0.1995 0.2236
1724.000000 0.2478 0.2719 0.2960 0.3201 0.3442
1729.000000 0.3684 0.3925 0.4166 0.4374 0.4454
1734.000000 0.4500 0.4521 0.4535 0.4513 0.4503
1739.000000 0.4492 0.4475 0.4452 0.4384 0.4230
1744.000000 0.4077 0.3924 0.3770 0.3617 0.3464
1749.000000 0.3311 0.3157 0.3004 0.2851 0.2735
1754.000000 0.2694 0.2691 0.2694 0.2702 0.2690
1759.000000 0.2741 0.2772 0.2819 0.2862 0.2904
1764.000000 0.2967 0.3072 0.3336 0.3704 0.3922
1769.000000 0.4270 0.4618 0.4967 0.5315 0.6010
1774.000000 0.6224 0.6379 0.6578 0.6843 0.6992
1779.000000 0.7120 0.7187 0.7254 0.7332 0.7471
1784.000000 0.7593 0.7701 0.7808 0.7911 0.7981
1789.000000 0.8048 0.8089 0.8126 0.8164 0.8201
1794.000000 0.8237 0.8269 0.8302 0.8336 0.8373
1799.000000 0.8409 0.8441 0.8462 0.8483 0.8505
1804.000000 0.8526 0.8548 0.8569 0.8589 0.8603
1809.000000 0.8617 0.8631 0.8645 0.8659 0.8673
1814.000000 0.8687 0.8701 0.8715 0.8736 0.8756
1819.000000 0.8776 0.8791 0.8803 0.8816 0.8829
1824.000000 0.8844 0.8858 0.8872 0.8883 0.8885
1829.000000 0.8888 0.8890 0.8893 0.8895 0.8897
1834.000000 0.8899 0.8901 0.8903 0.8905 0.8920
1839.000000 0.8906 0.8907 0.8908 0.8908 0.8909
1844.000000 0.8910 0.8911 0.8913 0.8914 0.8916
1849.000000 0.8917 0.8919 0.8920 0.8922 0.8923
1854.000000 0.8925 0.8926 0.8927 0.8929 0.8931
1859.000000 0.8932 0.8934 0.8935 0.8937 0.8938
1864.000000 0.8940 0.8941 0.8943 0.8944 0.8946
1869.000000 0.8947 0.8950 0.8953 0.8955 0.8958
1874.000000 0.8961 0.8964 0.8966 0.8969 0.8972
1879.000000 0.8975 0.8978 0.8980 0.8983 0.8986
1884.000000 0.8988 0.8990 0.8992 0.8991 0.8990
1889.000000 0.8989 0.8988 0.8987 0.8987 0.8986
1894.000000 0.8982 0.8978 0.8974 0.8971 0.8967
1899.000000 0.8963 0.8961 0.8961 0.8961 0.8961
1904.000000 0.8961 0.8961 0.8962 0.8962 0.8962
1909.000000 0.8962 0.8962 0.8962 0.8962 0.8963
1914.000000 0.8963 0.8964 0.8965 0.8965 0.8966
1919.000000 0.8967 0.8967 0.8968 0.8968 0.8969
1924.000000 0.8970 0.8970 0.8969 0.8968 0.8966
1929.000000 0.8965 0.8964 0.8960 0.8956 0.8951
1934.000000 0.8947 0.8942 0.8936 0.8930 0.8925
1939.000000 0.8919 0.8913 0.8907 0.8908 0.8909
1944.000000 0.8909 0.8910 0.8914 0.8921 0.8927
1949.000000 0.8934 0.8941 0.8948 0.8955 0.8962
1954.000000 0.8965 0.8969 0.8972 0.8974 0.8975
1959.000000 0.8977 0.8978 0.8979 0.8981 0.8979
1964.000000 0.8978 0.8976 0.8975 0.8973 0.8972
1969.000000 0.8970 0.8968 0.8966 0.8964 0.8963
1974.000000 0.8961 0.8959 0.8957 0.8955 0.8953
1979.000000 0.8952 0.8951 0.8949 0.8948 0.8947
1984.000000 0.8946 0.8945 0.8943 0.8942 0.8941
1989.000000 0.8940 0.8940 0.8939 0.8939 0.8939
1994.000000 0.8939 0.8938 0.8938 0.8938 0.8938
1999.000000 0.8938 0.8937 0.8937 0.8937 0.8936
2004.000000 0.8936 0.8936 0.8935 0.8935 0.8935
2009.000000 0.8934 0.8934 0.8933 0.8932 0.8931
2014.000000 0.8930 0.8929 0.8928 0.8927 0.8926
2019.000000 0.8925 0.8924 0.8923 0.8922 0.8921
2024.000000 0.8923 0.8924 0.8926 0.8928 0.8930
2029.000000 0.8931 0.8933 0.8935 0.8938 0.8943
2034.000000 0.8949 0.8954 0.8960 0.8965 0.8968
2039.000000 0.8971 0.8974 0.8977 0.8980 0.8983
2044.000000 0.8987 0.8990 0.8994 0.8998 0.9001
2049.000000 0.9005 0.9007 0.9007 0.9008 0.9008
2054.000000 0.9009 0.9009 0.9009 0.9010 0.9010
2059.000000 0.9010 0.9010 0.9009 0.9008 0.9008
2064.000000 0.9007 0.9006 0.9006 0.9005 0.9004
2069.000000 0.9003 0.9002 0.9001 0.9000 0.9000
2074.000000 0.8999 0.8998 0.8997 0.8995 0.8994
2079.000000 0.8992 0.8991 0.8989 0.8988 0.8986
2084.000000 0.8984 0.8982 0.8981 0.8979 0.8977
2089.000000 0.8975 0.8974 0.8972 0.8970 0.8968
2094.000000 0.8967 0.8965 0.8963 0.8963 0.8963
2099.000000 0.8963 0.8962 0.8962 0.8962 0.8962
2104.000000 0.8961 0.8961 0.8961 0.8961 0.8961
2109.000000 0.8962 0.8962 0.8962 0.8963 0.8963
2114.000000 0.8963 0.8964 0.8964 0.8965 0.8965
2119.000000 0.8965 0.8965 0.8965 0.8966 0.8966
2124.000000 0.8966 0.8966 0.8966 0.8966 0.8966
2129.000000 0.8966 0.8966 0.8966 0.8966 0.8966
2134.000000 0.8966 0.8966 0.8965 0.8965 0.8965
2139.000000 0.8965 0.8965 0.8965 0.8965 0.8965
2144.000000 0.8964 0.8964 0.8964 0.8964 0.8964
2149.000000 0.8964 0.8964 0.8964 0.8963 0.8963
2154.000000 0.8963 0.8963 0.8963 0.8963 0.8963
2159.000000 0.8962 0.8962 0.8962 0.8962 0.8962
2164.000000 0.8962 0.8962 0.8962 0.8962 0.8962
2169.000000 0.8962 0.8962 0.8962 0.8963 0.8963
2174.000000 0.8963 0.8963 0.8963 0.8963 0.8963
2179.000000 0.8963 0.8963 0.8963 0.8963 0.8964
2184.000000 0.8964 0.8964 0.8964 0.8964 0.8964
2189.000000 0.8964 0.8965 0.8965 0.8965 0.8965
2194.000000 0.8965 0.8966 0.8966 0.8966 0.8966
2199.000000 0.8967 0.8967 0.8967 0.8967 0.8967
2204.000000 0.8968 0.8968 0.8968 0.8968 0.8968
2209.000000 0.8969 0.8969 0.8969 0.8969 0.8970
2214.000000 0.8970 0.8969 0.8969 0.8968 0.8968
2219.000000 0.8968 0.8967 0.8967 0.8966 0.8966
2224.000000 0.8965 0.8965 0.8965 0.8964 0.8964
2229.000000 0.8963 0.8963 0.8962 0.8962 0.8961
2234.000000 0.8961 0.8961 0.8960 0.8960 0.8959
2239.000000 0.8959 0.8958 0.8958 0.8958 0.8958
2244.000000 0.8958 0.8958 0.8958 0.8958 0.8958
2249.000000 0.8958 0.8958 0.8958 0.8959 0.8958
2254.000000 0.8958 0.8958 0.8958 0.8958 0.8958
2259.000000 0.8957 0.8957 0.8957 0.8957 0.8957
2264.000000 0.8956 0.8956 0.8956 0.8956 0.8956
2269.000000 0.8956 0.8955 0.8955 0.8955 0.8955
2274.000000 0.8955 0.8955 0.8954 0.8954 0.8954
2279.000000 0.8954 0.8954 0.8956 0.8957 0.8959
2284.000000 0.8960 0.8962 0.8964 0.8965 0.8967
2289.000000 0.8968 0.8970 0.8971 0.8973 0.8974
2294.000000 0.8976 0.8977 0.8979 0.8980 0.8982
2299.000000 0.8984 0.8985 0.8985 0.8986 0.8987
2304.000000 0.8987 0.8988 0.8989 0.8990 0.8990
2309.000000 0.8991 0.8992 0.8992 0.8993 0.8994
2314.000000 0.8994 0.8995 0.8996 0.8996 0.8997
2319.000000 0.8998 0.8999 0.9000 0.9001 0.9002
2324.000000 0.9002 0.9003 0.9004 0.9005 0.9006
2329.000000 0.9007 0.9007 0.9008 0.9009 0.9010
2334.000000 0.9011 0.9012 0.9012 0.9011 0.9008
2339.000000 0.9006 0.9003 0.9000 0.8998 0.8995
2344.000000 0.8993 0.8990 0.8987 0.8983 0.8980
2349.000000 0.8976 0.8972 0.8969 0.8965 0.8961
2354.000000 0.8957 0.8954 0.8950 0.8949 0.8948
2359.000000 0.8947 0.8946 0.8945 0.8944 0.8944
2364.000000 0.8942 0.8937 0.8932 0.8926 0.8921
2369.000000 0.8916 0.8910 0.8905 0.8900 0.8894
2374.000000 0.8888 0.8885 0.8882 0.8879 0.8876
2379.000000 0.8874 0.8871 0.8868 0.8865 0.8860
2384.000000 0.8856 0.8851 0.8847 0.8842 0.8838
2389.000000 0.8833 0.8829 0.8825 0.8822 0.8818
2394.000000 0.8815 0.8812 0.8809 0.8805 0.8802
2399.000000 0.8799 0.8796 0.8792 0.8789 0.8785
2404.000000 0.8782 0.8778 0.8775 0.8771 0.8768
2409.000000 0.8764 0.8762 0.8760 0.8759 0.8757
2414.000000 0.8756 0.8754 0.8752 0.8750 0.8748
2419.000000 0.8746 0.8744 0.8742 0.8740 0.8740
2424.000000 0.8741 0.8742 0.8744 0.8745 0.8746
2429.000000 0.8748 0.8749 0.8751 0.8752 0.8753
2434.000000 0.8755 0.8757 0.8759 0.8762 0.8764
2439.000000 0.8766 0.8768 0.8770 0.8773 0.8775
2444.000000 0.8777 0.8780 0.8782 0.8784 0.8786
2449.000000 0.8789 0.8791 0.8793 0.8795 0.8798
2454.000000 0.8800 0.8802 0.8804 0.8805 0.8806
2459.000000 0.8808 0.8809 0.8810 0.8812 0.8813
2464.000000 0.8814 0.8816 0.8818 0.8821 0.8823
2469.000000 0.8825 0.8828 0.8830 0.8832 0.8834
2474.000000 0.8837 0.8839 0.8843 0.8851 0.8859
2479.000000 0.8867 0.8876 0.8884 0.8891 0.8898
2484.000000 0.8905 0.8912 0.8917 0.8919 0.8920
2489.000000 0.8921 0.8922 0.8923 0.8924 0.8925
2494.000000 0.8926 0.8928 0.8929 0.8929 0.8929
2499.000000 0.8929 0.8929 0.8929 0.8929 0.8930
2504.000000 0.8930 0.8930 0.8930 0.8930 0.8930
2509.000000 0.8931 0.8932 0.8932 0.8933 0.8934
2514.000000 0.8935 0.8936 0.8937 0.8938 0.8939
2519.000000 0.8939 0.8940 0.8941 0.8942 0.8942
2524.000000 0.8942 0.8942 0.8942 0.8942 0.8943
2529.000000 0.8943 0.8943 0.8943 0.8943 0.8943
2534.000000 0.8943 0.8943 0.8943 0.8943 0.8943
2539.000000 0.8943 0.8944 0.8943 0.8943 0.8942
2544.000000 0.8941 0.8941 0.8940 0.8940 0.8939
2549.000000 0.8938 0.8938 0.8937 0.8937 0.8936
2554.000000 0.8936 0.8935 0.8934 0.8934 0.8933
2559.000000 0.8932 0.8931 0.8931 0.8930 0.8929
2564.000000 0.8929 0.8928 0.8927 0.8926 0.8926
2569.000000 0.8925 0.8924 0.8923 0.8923 0.8922
2574.000000 0.8921 0.8920 0.8919 0.8917 0.8916
2579.000000 0.8915 0.8914 0.8913 0.8912 0.8910
2584.000000 0.8909 0.8908 0.8907 0.8906 0.8904
2589.000000 0.8903 0.8902 0.8901 0.8900 0.8899
2594.000000 0.8897 0.8896 0.8895 0.8894 0.8893
2599.000000 0.8891 0.8890 0.8889 0.8888 0.8886
2604.000000 0.8885 0.8884 0.8882 0.8881 0.8880
2609.000000 0.8879 0.8877 0.8876 0.8875 0.8873
2614.000000 0.8872 0.8871 0.8870 0.8868 0.8867
2619.000000 0.8866 0.8864 0.8863 0.8863 0.8862
2624.000000 0.8861 0.8861 0.8860 0.8859 0.8859
2629.000000 0.8858 0.8857 0.8857 0.8856 0.8855
2634.000000 0.8855 0.8854 0.8853 0.8853 0.8852
2639.000000 0.8851 0.8851 0.8850 0.8850 0.8849
2644.000000 0.8849 0.8849 0.8848 0.8848 0.8847
2649.000000 0.8847 0.8847 0.8846 0.8846 0.8845
2654.000000 0.8845 0.8844 0.8842 0.8841 0.8839
2659.000000 0.8838 0.8836 0.8835 0.8833 0.8832
2664.000000 0.8830 0.8829 0.8828 0.8826 0.8825
2669.000000 0.8823 0.8822 0.8820 0.8819 0.8817
2674.000000 0.8816 0.8814 0.8815 0.8816 0.8817
2679.000000 0.8817 0.8818 0.8819 0.8820 0.8820
2684.000000 0.8821 0.8822 0.8823 0.8824 0.8824
2689.000000 0.8825 0.8826 0.8826 0.8825 0.8823
2694.000000 0.8822 0.8820 0.8819 0.8817 0.8816
2699.000000 0.8814 0.8812 0.8811 0.8809 0.8808
2704.000000 0.8806 0.8805 0.8803 0.8802 0.8800
2709.000000 0.8799 0.8798 0.8797 0.8796 0.8795
2714.000000 0.8793 0.8792 0.8791 0.8790 0.8789
2719.000000 0.8788 0.8787 0.8786 0.8787 0.8789
2724.000000 0.8791 0.8793 0.8795 0.8797 0.8798
2729.000000 0.8798 0.8799 0.8799 0.8800 0.8801
2734.000000 0.8801 0.8801 0.8799 0.8798 0.8797
2739.000000 0.8795 0.8794 0.8792 0.8791 0.8787
2744.000000 0.8784 0.8781 0.8778 0.8775 0.8772
2749.000000 0.8769 0.8766 0.8762 0.8758 0.8753
2754.000000 0.8749 0.8744 0.8739 0.8735 0.8730
2759.000000 0.8725 0.8719 0.8713 0.8708 0.8702
2764.000000 0.8696 0.8690 0.8685 0.8679 0.8672
2769.000000 0.8666 0.8659 0.8652 0.8645 0.8637
2774.000000 0.8628 0.8620 0.8611 0.8603 0.8594
2779.000000 0.8586 0.8578 0.8569 0.8560 0.8551
2784.000000 0.8543 0.8534 0.8525 0.8513 0.8501
2789.000000 0.8489 0.8477 0.8465 0.8453 0.8440
2794.000000 0.8428 0.8415 0.8402 0.8388 0.8375
2799.000000 0.8362 0.8349 0.8335 0.8322 0.8304
2804.000000 0.8286 0.8267 0.8247 0.8219 0.8191
2809.000000 0.8163 0.8132 0.8101 0.8070 0.8039
2814.000000 0.8008 0.7977 0.7946 0.7915 0.7871
2819.000000 0.7828 0.7753 0.7684 0.7614 0.7545
2824.000000 0.7476 0.7407 0.7337 0.7268 0.7199
2829.000000 0.7129 0.7060 0.6991 0.6940 0.6897
2834.000000 0.6854 0.6809 0.6764 0.6719 0.6670
2839.000000 0.6607 0.6544 0.6516 0.6494 0.6472
2844.000000 0.6460 0.6456 0.6451 0.6446 0.6440
2849.000000 0.6429 0.6392 0.6355 0.6301 0.6236
2854.000000 0.6197 0.6178 0.6160 0.6152 0.6143
2859.000000 0.6134 0.6129 0.6126 0.6122 0.6118
2864.000000 0.6115 0.6111 0.6108 0.6103 0.6099
2869.000000 0.6094 0.6090 0.6082 0.6073 0.6065
2874.000000 0.6056 0.6048 0.6034 0.6015 0.5996
2879.000000 0.5968 0.5932 0.5896 0.5858 0.5821
2884.000000 0.5783 0.5745 0.5707 0.5665 0.5623
2889.000000 0.5580 0.5535 0.5489 0.5444 0.5399
2894.000000 0.5330 0.5260 0.5200 0.5178 0.5157
2899.000000 0.5136 0.5116 0.5107 0.5097 0.5087
2904.000000 0.5077 0.5068 0.5060 0.5052 0.5044
2909.000000 0.5029 0.5005 0.4970 0.4929 0.4881
2914.000000 0.4825 0.4768 0.4721 0.4678 0.4635
2919.000000 0.4591 0.4542 0.4472 0.4402 0.4329
2924.000000 0.4235 0.4140 0.4045 0.3897 0.3762
2929.000000 0.3650 0.3558 0.3505 0.3465 0.3440
2934.000000 0.3420 0.3415 0.3417 0.3411 0.3423
2939.000000 0.3430 0.3450 0.3488 0.3534 0.3580
2944.000000 0.3625 0.3684 0.3744 0.3810 0.3903
2949.000000 0.3980 0.4043 0.4068 0.4073 0.4069
2954.000000 0.4105 0.4042 0.4001 0.3937 0.3873
2959.000000 0.3810 0.3752 0.3699 0.3646 0.3593
2964.000000 0.3540 0.3488 0.3437 0.3407 0.3411
2969.000000 0.3378 0.3420 0.3426 0.3447 0.3522
2974.000000 0.3665 0.3808 0.3951 0.4094 0.4237
2979.000000 0.4380 0.4523 0.4666 0.4809 0.4952
2984.000000 0.5095 0.5232 0.5295 0.5323 0.5338
2989.000000 0.5353 0.5359 0.5358 0.5356 0.5355
2994.000000 0.5352 0.5346 0.5339 0.5322 0.5303
2999.000000 0.5281 0.5258 0.5246 0.5242 0.5237
3004.000000 0.5236 0.5238 0.5242 0.5247 0.5252
3009.000000 0.5257 0.5262 0.5269 0.5279 0.5288
3014.000000 0.5298 0.5307 0.5318 0.5331 0.5344
3019.000000 0.5356 0.5371 0.5396 0.5694 0.5893
3024.000000 0.6090 0.6344 0.6430 0.6516 0.6602
3029.000000 0.6686 0.6769 0.6852 0.6935 0.7012
3034.000000 0.7088 0.7164 0.7238 0.7292 0.7345
3039.000000 0.7398 0.7452 0.7494 0.7536 0.7578
3044.000000 0.7621 0.7663 0.7700 0.7735 0.7770
3049.000000 0.7801 0.7818 0.7835 0.7852 0.7869
3054.000000 0.7877 0.7886 0.7894 0.7903 0.7912
3059.000000 0.7920 0.7928 0.7933 0.7938 0.7942
3064.000000 0.7947 0.7952 0.7957 0.7961 0.7966
3069.000000 0.7971 0.7975 0.7978 0.7981 0.7984
3074.000000 0.7987 0.7990 0.7993 0.7996 0.7999
3079.000000 0.8003 0.8007 0.8011 0.8015 0.8029
3084.000000 0.8046 0.8061 0.8074 0.8087 0.8096
3089.000000 0.8104 0.8113 0.8122 0.8131 0.8138
3094.000000 0.8141 0.8145 0.8148 0.8149 0.8151
3099.000000 0.8151 0.8151 0.8151 0.8151 0.8151
3104.000000 0.8151 0.8151 0.8151 0.8151 0.8152
3109.000000 0.8154 0.8157 0.8160 0.8163 0.8166
3114.000000 0.8169 0.8173 0.8176 0.8179 0.8182
3119.000000 0.8186 0.8190 0.8195 0.8202 0.8211
3124.000000 0.8220 0.8228 0.8235 0.8243 0.8265
3129.000000 0.8284 0.8297 0.8304 0.8311 0.8317
3134.000000 0.8324 0.8329 0.8334 0.8338 0.8343
3139.000000 0.8348 0.8353 0.8357 0.8360 0.8363
3144.000000 0.8366 0.8369 0.8372 0.8375 0.8378
3149.000000 0.8381 0.8384 0.8387 0.8390 0.8395
3154.000000 0.8399 0.8404 0.8408 0.8413 0.8417
3159.000000 0.8422 0.8427 0.8431 0.8436 0.8440
3164.000000 0.8445 0.8449 0.8454 0.8458 0.8463
3169.000000 0.8467 0.8472 0.8476 0.8480 0.8485
3174.000000 0.8489 0.8494 0.8497 0.8499 0.8502
3179.000000 0.8504 0.8506 0.8508 0.8510 0.8512
3184.000000 0.8515 0.8517 0.8519 0.8521 0.8523
3189.000000 0.8525 0.8528 0.8530 0.8532 0.8534
3194.000000 0.8536 0.8537 0.8539 0.8540 0.8542
3199.000000 0.8543 0.8545 0.8546 0.8548 0.8550
3204.000000 0.8551 0.8553 0.8554 0.8556 0.8557
3209.000000 0.8559 0.8560 0.8562 0.8563 0.8565
3214.000000 0.8566 0.8568 0.8569 0.8571 0.8572
3219.000000 0.8574 0.8575 0.8576 0.8577 0.8578
3224.000000 0.8579 0.8580 0.8581 0.8623 0.8583
3229.000000 0.8584 0.8585 0.8586 0.8587 0.8587
3234.000000 0.8585 0.8583 0.8581 0.8579 0.8577
3239.000000 0.8575 0.8573 0.8570 0.8568 0.8568
3244.000000 0.8570 0.8573 0.8575 0.8577 0.8580
3249.000000 0.8582 0.8584 0.8587 0.8591 0.8595
3254.000000 0.8599 0.8603 0.8605 0.8605 0.8606
3259.000000 0.8606 0.8606 0.8607 0.8607 0.8608
3264.000000 0.8608 0.8608 0.8608 0.8607 0.8607
3269.000000 0.8606 0.8606 0.8605 0.8605 0.8604
3274.000000 0.8603 0.8603 0.8602 0.8602 0.8601
3279.000000 0.8601 0.8600 0.8600 0.8599 0.8599
3284.000000 0.8598 0.8597 0.8596 0.8596 0.8595
3289.000000 0.8594 0.8593 0.8593 0.8592 0.8591
3294.000000 0.8591 0.8590 0.8589 0.8588 0.8588
3299.000000 0.8587 0.8586 0.8586 0.8585 0.8584
3304.000000 0.8583 0.8582 0.8580 0.8578 0.8576
3309.000000 0.8574 0.8572 0.8570 0.8568 0.8566
3314.000000 0.8564 0.8562 0.8560 0.8558 0.8556
3319.000000 0.8554 0.8552 0.8550 0.8548 0.8546
3324.000000 0.8544 0.8542 0.8540 0.8538 0.8538
3329.000000 0.8538 0.8537 0.8537 0.8537 0.8537
3334.000000 0.8536 0.8536 0.8536 0.8535 0.8535
3339.000000 0.8535 0.8535 0.8534 0.8534 0.8534
3344.000000 0.8533 0.8533 0.8533 0.8533 0.8531
3349.000000 0.8528 0.8526 0.8524 0.8522 0.8520
3354.000000 0.8518 0.8516 0.8513 0.8511 0.8509
3359.000000 0.8507 0.8505 0.8503 0.8501 0.8499
3364.000000 0.8496 0.8494 0.8492 0.8490 0.8488
3369.000000 0.8487 0.8485 0.8483 0.8481 0.8479
3374.000000 0.8478 0.8476 0.8474 0.8472 0.8470
3379.000000 0.8469 0.8467 0.8465 0.8463 0.8461
3384.000000 0.8460 0.8458 0.8456 0.8454 0.8452
3389.000000 0.8450 0.8448 0.8446 0.8444 0.8442
3394.000000 0.8440 0.8438 0.8436 0.8435 0.8433
3399.000000 0.8431 0.8429 0.8427 0.8425 0.8423
3404.000000 0.8422 0.8422 0.8422 0.8421 0.8421
3409.000000 0.8421 0.8421 0.8421 0.8421 0.8421
3414.000000 0.8420 0.8420 0.8420 0.8420 0.8420
3419.000000 0.8421 0.8425 0.8428 0.8432 0.8435
3424.000000 0.8439 0.8442 0.8446 0.8449 0.8453
3429.000000 0.8456 0.8460 0.8463 0.8467 0.8470
3434.000000 0.8474 0.8477 0.8480 0.8484 0.8487
3439.000000 0.8490 0.8492 0.8494 0.8495 0.8497
3444.000000 0.8499 0.8500 0.8502 0.8503 0.8504
3449.000000 0.8505 0.8507 0.8508 0.8509 0.8510
3454.000000 0.8511 0.8513 0.8514 0.8515 0.8516
3459.000000 0.8517 0.8519 0.8520 0.8521 0.8520
3464.000000 0.8519 0.8518 0.8517 0.8516 0.8515
3469.000000 0.8514 0.8513 0.8512 0.8511 0.8510
3474.000000 0.8509 0.8508 0.8507 0.8506 0.8505
3479.000000 0.8504 0.8503 0.8502 0.8501 0.8500
3484.000000 0.8499 0.8498 0.8497 0.8495 0.8494
3489.000000 0.8490 0.8486 0.8481 0.8477 0.8472
3494.000000 0.8468 0.8463 0.8459 0.8454 0.8450
3499.000000 0.8445 0.8441 0.8436 0.8432 0.8427
3504.000000 0.8423 0.8418 0.8414 0.8409 0.8405
3509.000000 0.8400 0.8396 0.8392 0.8388 0.8384
3514.000000 0.8380 0.8375 0.8371 0.8367 0.8363
3519.000000 0.8359 0.8354 0.8355 0.8358 0.8362
3524.000000 0.8366 0.8369 0.8375 0.8384 0.8392
3529.000000 0.8400 0.8416 0.8432 0.8447 0.8461
3534.000000 0.8476 0.8491 0.8505 0.8515 0.8520
3539.000000 0.8524 0.8529 0.8534 0.8540 0.8547
3544.000000 0.8553 0.8560 0.8566 0.8570 0.8573
3549.000000 0.8575 0.8578 0.8581 0.8583 0.8586
3554.000000 0.8588 0.8590 0.8591 0.8593 0.8595
3559.000000 0.8597 0.8599 0.8601 0.8604 0.8606
3564.000000 0.8608 0.8610 0.8612 0.8614 0.8616
3569.000000 0.8618 0.8619 0.8621 0.8622 0.8624
3574.000000 0.8625 0.8627 0.8628 0.8630 0.8632
3579.000000 0.8633 0.8635 0.8637 0.8639 0.8640
3584.000000 0.8642 0.8644 0.8645 0.8647 0.8649
3589.000000 0.8651 0.8653 0.8655 0.8657 0.8660
3594.000000 0.8662 0.8664 0.8667 0.8670 0.8673
3599.000000 0.8676 0.8678 0.8680 0.8681 0.8683
3604.000000 0.8685 0.8686 0.8688 0.8687 0.8685
3609.000000 0.8684 0.8683 0.8681 0.8680 0.8678
3614.000000 0.8677 0.8675 0.8674 0.8673 0.8671
3619.000000 0.8671 0.8671 0.8671 0.8666 0.8659
3624.000000 0.8652 0.8645 0.8638 0.8635 0.8635
3629.000000 0.8634 0.8634 0.8633 0.8631 0.8629
3634.000000 0.8627 0.8624 0.8622 0.8620 0.8617
3639.000000 0.8615 0.8613 0.8611 0.8609 0.8607
3644.000000 0.8605 0.8604 0.8602 0.8600 0.8598
3649.000000 0.8597 0.8595 0.8593 0.8591 0.8590
3654.000000 0.8588 0.8586 0.8584 0.8583 0.8581
3659.000000 0.8579 0.8577 0.8576 0.8574 0.8573
3664.000000 0.8571 0.8570 0.8568 0.8568 0.8569
3669.000000 0.8571 0.8573 0.8576 0.8580 0.8585
3674.000000 0.8589 0.8593 0.8597 0.8600 0.8602
3679.000000 0.8605 0.8607 0.8610 0.8612 0.8615
3684.000000 0.8617 0.8620 0.8622 0.8625 0.8627
3689.000000 0.8629 0.8631 0.8633 0.8634 0.8636
3694.000000 0.8638 0.8638 0.8639 0.8639 0.8640
3699.000000 0.8640 0.8640 0.8641 0.8641 0.8642
3704.000000 0.8642 0.8642 0.8641 0.8639 0.8638
3709.000000 0.8636 0.8634 0.8632 0.8630 0.8628
3714.000000 0.8627 0.8626 0.8624 0.8623 0.8622
3719.000000 0.8620 0.8619 0.8618 0.8617 0.8616
3724.000000 0.8615 0.8614 0.8613 0.8612 0.8611
3729.000000 0.8610 0.8609 0.8608 0.8607 0.8605
3734.000000 0.8604 0.8603 0.8602 0.8602 0.8602
3739.000000 0.8601 0.8601 0.8601 0.8600 0.8600
3744.000000 0.8600 0.8600 0.8599 0.8599 0.8599
3749.000000 0.8599 0.8598 0.8598 0.8598 0.8597
3754.000000 0.8597 0.8597 0.8597 0.8597 0.8597
3759.000000 0.8597 0.8597 0.8597 0.8597 0.8597
3764.000000 0.8597 0.8597 0.8597 0.8597 0.8597
3769.000000 0.8598 0.8598 0.8598 0.8598 0.8598
3774.000000 0.8598 0.8598 0.8598 0.8597 0.8596
3779.000000 0.8595 0.8594 0.8594 0.8593 0.8592
3784.000000 0.8591 0.8590 0.8590 0.8589 0.8588
3789.000000 0.8587 0.8586 0.8586 0.8585 0.8584
3794.000000 0.8583 0.8582 0.8581 0.8579 0.8578
3799.000000 0.8576 0.8574 0.8573 0.8571 0.8569
3804.000000 0.8567 0.8566 0.8564 0.8562 0.8560
3809.000000 0.8559 0.8557 0.8555 0.8554 0.8552
3814.000000 0.8550 0.8548 0.8547 0.8545 0.8543
3819.000000 0.8542 0.8540 0.8538 0.8536 0.8535
3824.000000 0.8533 0.8531 0.8530 0.8529 0.8529
3829.000000 0.8528 0.8527 0.8527 0.8526 0.8525
3834.000000 0.8525 0.8524 0.8523 0.8522 0.8522
3839.000000 0.8521 0.8520 0.8520 0.8519 0.8518
3844.000000 0.8518 0.8517 0.8516 0.8514 0.8513
3849.000000 0.8512 0.8511 0.8510 0.8508 0.8507
3854.000000 0.8506 0.8505 0.8504 0.8503 0.8501
3859.000000 0.8500 0.8499 0.8498 0.8497 0.8495
3864.000000 0.8494 0.8493 0.8492 0.8491 0.8491
3869.000000 0.8491 0.8491 0.8491 0.8492 0.8492
3874.000000 0.8492 0.8492 0.8493 0.8493 0.8493
3879.000000 0.8493 0.8494 0.8494 0.8494 0.8494
3884.000000 0.8495 0.8495 0.8495 0.8495 0.8496
3889.000000 0.8496 0.8496 0.8498 0.8500 0.8502
3894.000000 0.8504 0.8506 0.8508 0.8510 0.8512
3899.000000 0.8514 0.8516 0.8518 0.8518 0.8518
3904.000000 0.8518 0.8518 0.8518 0.8517 0.8517
3909.000000 0.8517 0.8517 0.8516 0.8516 0.8515
3914.000000 0.8513 0.8511 0.8509 0.8507 0.8504
3919.000000 0.8502 0.8500 0.8498 0.8496 0.8493
3924.000000 0.8491 0.8489 0.8488 0.8487 0.8486
3929.000000 0.8486 0.8485 0.8484 0.8483 0.8483
3934.000000 0.8482 0.8481 0.8480 0.8480 0.8479
3939.000000 0.8478 0.8478 0.8477 0.8476 0.8475
3944.000000 0.8475 0.8474 0.8474 0.8473 0.8473
3949.000000 0.8472 0.8472 0.8471 0.8470 0.8470
3954.000000 0.8469 0.8469 0.8468 0.8468 0.8467
3959.000000 0.8467 0.8466 0.8465 0.8465 0.8464
3964.000000 0.8463 0.8462 0.8462 0.8461 0.8460
3969.000000 0.8459 0.8459 0.8458 0.8457 0.8456
3974.000000 0.8456 0.8455 0.8455 0.8454 0.8454
3979.000000 0.8453 0.8453 0.8452 0.8452 0.8451
3984.000000 0.8451 0.8450 0.8450 0.8450 0.8450
3989.000000 0.8449 0.8449 0.8449 0.8449 0.8449
3994.000000 0.8449 0.8448 0.8448 0.8448 0.8448
3999.000000 0.8448 0.8448
##END=
