##TITLE=BENZOYL FERROCENE OXIME
##JCAMP-DX=4.24
##DATA TYPE=INFRARED SPECTRUM
##CLASS=COBLENTZ
##ORIGIN=WYANDOTTE CHEMICALS CORP., WYANDOTTE, MICHIGAN, USA
##OWNER=COBLENTZ SOCIETY
Collection (C) 2018 copyright by the U.S. Secretary of Commerce
on behalf of the United States of America. All rights reserved.
##DATE=Not specified, most likely prior to 1970
##MOLFORM=C17 H15 Fe N O
##MP=161-162.5 C
##SOURCE REFERENCE=COBLENTZ NO. 3008
##$NIST ID=B6003008
##$NIST SOURCE=COBLENTZ
##$NIST IMAGE=cob3008
##SPECTROMETER/DATA SYSTEM=Not specified, most likely a prism, grating, or hybrid spectrometer.
##STATE=SOLID (MINERAL OIL MULL)
##PATH LENGTH=
$$SPECTRAL CONTAMINATION DUE TO OIL AROUND 2900 CM^-^1
##SAMPLING PROCEDURE=TRANSMISSION
##RESOLUTION=4
##DATA PROCESSING=DIGITIZED BY NIST FROM HARD COPY
##XUNITS=MICROMETERS
##YUNITS=TRANSMITTANCE
##XFACTOR=1.000000
##YFACTOR=1
##DELTAX=000.006793
##FIRSTX=2.02
##LASTX=16.0004
##FIRSTY=0.282
##MAXX=16.0004
##MINX=2.02
##MAXY=0.977
##MINY=0.051
##NPOINTS=2059
##XYDATA=(X++(Y..Y))
2.020000 0.2820 0.2820 0.2820 0.2820 0.2840
2.053981 0.2840 0.2840 0.2860 0.2860 0.2890
2.088000 0.2890 0.2930 0.2960 0.2980 0.2990
2.121981 0.2990 0.3010 0.3030 0.3060 0.3130
2.156000 0.3150 0.3150 0.3130 0.3010 0.3010
2.189981 0.3040 0.3110 0.3150 0.3200 0.3210
2.224000 0.3230 0.3300 0.3320 0.3320 0.3330
2.257981 0.3350 0.3350 0.3390 0.3400 0.3400
2.292000 0.3400 0.3420 0.3420 0.3440 0.3440
2.325981 0.3440 0.3440 0.3440 0.3440 0.3470
2.360000 0.3560 0.3620 0.3690 0.3690 0.3730
2.393981 0.3740 0.3760 0.3780 0.3780 0.3790
2.428000 0.3810 0.3810 0.3810 0.3830 0.3850
2.461981 0.3860 0.3900 0.3910 0.3980 0.4020
2.496000 0.4030 0.4050 0.4070 0.4080 0.4100
2.529981 0.4130 0.4190 0.4250 0.4310 0.4340
2.564000 0.4360 0.4390 0.4410 0.4420 0.4440
2.597981 0.4460 0.4480 0.4480 0.4490 0.4490
2.632000 0.4530 0.4560 0.4610 0.4630 0.4700
2.665981 0.4730 0.4730 0.4750 0.4800 0.4850
2.700000 0.4880 0.4880 0.4880 0.4880 0.4880
2.733981 0.4880 0.4880 0.4880 0.4880 0.4880
2.768000 0.4880 0.4880 0.4880 0.4880 0.4880
2.801981 0.4820 0.4820 0.4830 0.4830 0.4850
2.836000 0.4830 0.4820 0.4820 0.4770 0.4660
2.869981 0.4610 0.4590 0.4560 0.4490 0.4420
2.903000 0.4340 0.4240 0.4080 0.4020 0.3960
2.936981 0.3860 0.3740 0.3620 0.3490 0.3350
2.971000 0.3210 0.3060 0.2890 0.2690 0.2480
3.004981 0.2240 0.1970 0.1660 0.1530 0.1410
3.039000 0.1340 0.1290 0.1240 0.1170 0.1070
3.072981 0.1020 0.0970 0.0910 0.0880 0.0850
3.107000 0.0830 0.0850 0.0900 0.0970 0.1000
3.140981 0.1000 0.1000 0.1000 0.0950 0.0930
3.175000 0.0900 0.0900 0.0850 0.0810 0.0800
3.208981 0.0780 0.0760 0.0740 0.0730 0.0730
3.243000 0.0710 0.0710 0.0710 0.0710 0.0730
3.276981 0.0800 0.0800 0.0800 0.0730 0.0630
3.311000 0.0540 0.0520 0.0520 0.0520 0.0510
3.344981 0.0510 0.0510 0.0510 0.0510 0.0510
3.379000 0.0520 0.0520 0.0540 0.0570 0.0570
3.412981 0.0570 0.0560 0.0560 0.0560 0.0540
3.447000 0.0540 0.0560 0.0570 0.0570 0.0610
3.480981 0.0640 0.0690 0.0970 0.1270 0.1660
3.515000 0.2060 0.2360 0.2700 0.2990 0.3270
3.548981 0.3520 0.3740 0.3910 0.4080 0.4200
3.583000 0.4290 0.4410 0.4490 0.4610 0.4730
3.616981 0.4780 0.4820 0.4830 0.4850 0.4880
3.651000 0.4920 0.4970 0.5050 0.5160 0.5190
3.684981 0.5210 0.5260 0.5330 0.5380 0.5400
3.719000 0.5410 0.5430 0.5500 0.5600 0.5650
3.752981 0.5750 0.5820 0.5890 0.5910 0.5920
3.787000 0.5970 0.6010 0.6040 0.6130 0.6140
3.820981 0.6180 0.6180 0.6180 0.6200 0.6230
3.854000 0.6320 0.6330 0.6370 0.6380 0.6400
3.887981 0.6450 0.6490 0.6500 0.6550 0.6600
3.922000 0.6620 0.6690 0.6760 0.6840 0.6890
3.955981 0.6910 0.6930 0.6930 0.6950 0.6960
3.990000 0.6980 0.7010 0.7030 0.7050 0.7100
4.023981 0.7120 0.7180 0.7200 0.7200 0.7200
4.058000 0.7200 0.7180 0.7200 0.7200 0.7220
4.091981 0.7250 0.7290 0.7290 0.7290 0.7290
4.126000 0.7290 0.7290 0.7290 0.7300 0.7320
4.159981 0.7350 0.7390 0.7390 0.7410 0.7440
4.194000 0.7510 0.7510 0.7490 0.7390 0.7370
4.227981 0.7320 0.7320 0.7300 0.7300 0.7320
4.262000 0.7410 0.7460 0.7540 0.7590 0.7590
4.295981 0.7590 0.7610 0.7680 0.7760 0.7830
4.330000 0.7950 0.8040 0.8160 0.8210 0.8290
4.363981 0.8310 0.8310 0.8290 0.8290 0.8240
4.398000 0.8220 0.8190 0.8160 0.8120 0.8170
4.431981 0.8220 0.8270 0.8270 0.8210 0.8160
4.466000 0.8120 0.8120 0.8120 0.8160 0.8190
4.499981 0.8190 0.8190 0.8210 0.8220 0.8240
4.534000 0.8240 0.8260 0.8270 0.8310 0.8340
4.567981 0.8380 0.8410 0.8430 0.8430 0.8440
4.602000 0.8440 0.8460 0.8460 0.8480 0.8510
4.635981 0.8550 0.8580 0.8630 0.8680 0.8680
4.670000 0.8700 0.8700 0.8720 0.8750 0.8820
4.703981 0.8820 0.8820 0.8820 0.8850 0.8890
4.738000 0.8920 0.8920 0.8870 0.8870 0.8870
4.771981 0.8900 0.8900 0.8920 0.8970 0.9010
4.805000 0.9060 0.9080 0.9080 0.9080 0.9010
4.838981 0.9010 0.9010 0.9010 0.9010 0.9080
4.873000 0.9090 0.9090 0.9110 0.9110 0.9110
4.906981 0.9130 0.9130 0.9140 0.9140 0.9160
4.941000 0.9160 0.9160 0.9160 0.9180 0.9190
4.974981 0.9190 0.9210 0.9230 0.9250 0.9280
5.009000 0.9310 0.9360 0.9380 0.9350 0.9330
5.042981 0.9330 0.9330 0.9330 0.9350 0.9350
5.077000 0.9330 0.9300 0.9250 0.9190 0.9180
5.110981 0.9180 0.9210 0.9230 0.9250 0.9230
5.145000 0.9210 0.9180 0.9180 0.9210 0.9250
5.178981 0.9300 0.9310 0.9330 0.9350 0.9360
5.213000 0.9380 0.9380 0.9380 0.9380 0.9380
5.246981 0.9380 0.9380 0.9380 0.9380 0.9330
5.281000 0.9310 0.9300 0.9250 0.9210 0.9110
5.314981 0.9090 0.9090 0.9110 0.9190 0.9210
5.349000 0.9250 0.9350 0.9450 0.9550 0.9620
5.382981 0.9690 0.9710 0.9720 0.9720 0.9720
5.417000 0.9710 0.9710 0.9710 0.9720 0.9740
5.450981 0.9770 0.9770 0.9690 0.9570 0.9520
5.485000 0.9590 0.9550 0.9540 0.9500 0.9430
5.518981 0.9360 0.9330 0.9330 0.9330 0.9330
5.553000 0.9310 0.9310 0.9300 0.9250 0.9230
5.586981 0.9210 0.9140 0.9020 0.8990 0.8960
5.621000 0.8940 0.8920 0.8790 0.8720 0.8650
5.654981 0.8500 0.8410 0.8360 0.8360 0.8390
5.689000 0.8550 0.8670 0.8720 0.8730 0.8730
5.722981 0.8720 0.8680 0.8670 0.8670 0.8730
5.756000 0.8720 0.8620 0.8510 0.8480 0.8480
5.789981 0.8500 0.8530 0.8530 0.8510 0.8440
5.824000 0.8360 0.8290 0.8260 0.8220 0.8190
5.857981 0.8160 0.8120 0.8090 0.8070 0.8000
5.892000 0.8000 0.8000 0.8000 0.8100 0.8240
5.925981 0.8240 0.8210 0.8190 0.8170 0.8140
5.960000 0.8100 0.8050 0.8000 0.7900 0.7780
5.993981 0.7610 0.7420 0.7220 0.6980 0.6670
6.028000 0.6280 0.5740 0.5160 0.5040 0.4900
6.061981 0.4660 0.4200 0.4000 0.4000 0.4200
6.096000 0.4800 0.5840 0.6200 0.6550 0.6910
6.129981 0.7440 0.7750 0.7950 0.8050 0.8170
6.164000 0.8210 0.8210 0.8190 0.8100 0.8160
6.197981 0.8220 0.8360 0.8500 0.8550 0.8650
6.232000 0.8680 0.8680 0.8630 0.8430 0.8260
6.265981 0.8070 0.8000 0.8000 0.8090 0.8260
6.300000 0.8480 0.8650 0.8750 0.8770 0.8770
6.333981 0.8750 0.8750 0.8720 0.8720 0.8750
6.368000 0.8790 0.8790 0.8750 0.8730 0.8720
6.401981 0.8670 0.8510 0.8500 0.8480 0.8480
6.436000 0.8480 0.8500 0.8550 0.8580 0.8580
6.469981 0.8580 0.8580 0.8580 0.8530 0.8500
6.504000 0.8460 0.8440 0.8430 0.8410 0.8430
6.537981 0.8410 0.8410 0.8390 0.8340 0.8310
6.572000 0.8220 0.8160 0.8070 0.7880 0.7640
6.605981 0.7370 0.7100 0.6840 0.6500 0.6320
6.639000 0.6280 0.6280 0.6260 0.6280 0.6230
6.672981 0.6140 0.5800 0.5380 0.5170 0.4950
6.707000 0.4580 0.4220 0.3930 0.3690 0.3370
6.740981 0.2600 0.1800 0.1370 0.1140 0.1030
6.775000 0.0970 0.0930 0.0910 0.0830 0.0780
6.808981 0.0780 0.0780 0.0780 0.0780 0.0780
6.843000 0.0760 0.0760 0.0760 0.0780 0.0900
6.876981 0.1030 0.1150 0.1260 0.1460 0.1700
6.911000 0.2010 0.2240 0.2520 0.2700 0.2860
6.944981 0.2960 0.3150 0.3400 0.3640 0.3860
6.979000 0.4050 0.4100 0.4190 0.4250 0.4340
7.012981 0.4440 0.4480 0.4410 0.4320 0.4270
7.047000 0.4200 0.4200 0.4220 0.4290 0.4410
7.080981 0.4580 0.4660 0.4750 0.4780 0.4780
7.115000 0.4700 0.4590 0.4580 0.4610 0.4710
7.148981 0.4750 0.4750 0.4710 0.4510 0.4150
7.183000 0.3690 0.2690 0.2060 0.1580 0.1390
7.216981 0.1260 0.1270 0.1310 0.1480 0.1850
7.251000 0.2550 0.3100 0.3490 0.3780 0.3950
7.284981 0.4080 0.4150 0.4270 0.4510 0.5500
7.319000 0.5890 0.5990 0.5990 0.5990 0.5910
7.352981 0.5750 0.5480 0.5290 0.5260 0.5280
7.387000 0.5480 0.5530 0.5530 0.5120 0.4710
7.420981 0.4480 0.4240 0.3860 0.3570 0.3590
7.455000 0.3710 0.4200 0.4770 0.5800 0.5990
7.488981 0.6140 0.6260 0.6400 0.6540 0.6620
7.523000 0.6670 0.6620 0.6450 0.6180 0.5800
7.556981 0.5530 0.5190 0.5070 0.5070 0.5220
7.590000 0.5210 0.5020 0.4920 0.4800 0.4510
7.623981 0.4100 0.3490 0.2940 0.2690 0.2670
7.658000 0.2690 0.2790 0.2910 0.3040 0.3200
7.691981 0.3590 0.4000 0.4290 0.4540 0.4830
7.726000 0.5190 0.5340 0.5500 0.5620 0.5680
7.759981 0.5700 0.5750 0.5800 0.5910 0.6030
7.794000 0.6250 0.6600 0.6880 0.7130 0.7340
7.827981 0.7460 0.7560 0.7640 0.7750 0.7880
7.862000 0.7970 0.8040 0.8140 0.8270 0.8290
7.895981 0.8290 0.8310 0.8380 0.8390 0.8410
7.930000 0.8390 0.8330 0.8290 0.8260 0.8240
7.963981 0.8270 0.8310 0.8360 0.8430 0.8440
7.998000 0.8510 0.8580 0.8600 0.8620 0.8630
8.031981 0.8670 0.8700 0.8720 0.8750 0.8790
8.066000 0.8800 0.8840 0.8820 0.8870 0.8890
8.099981 0.8940 0.8990 0.8990 0.9010 0.9020
8.134000 0.9020 0.9020 0.9040 0.9060 0.9040
8.167981 0.9010 0.8990 0.8960 0.8820 0.8680
8.202000 0.8500 0.8390 0.8360 0.8340 0.8360
8.235981 0.8380 0.8410 0.8500 0.8630 0.8720
8.270000 0.8790 0.8820 0.8840 0.8840 0.8870
8.303981 0.8890 0.8890 0.8870 0.8670 0.8480
8.338000 0.8340 0.8090 0.7920 0.7750 0.7590
8.371981 0.7580 0.7510 0.7580 0.7420 0.7200
8.406000 0.7000 0.6690 0.6670 0.6670 0.6790
8.439981 0.7080 0.7250 0.7440 0.7510 0.7580
8.474000 0.7630 0.7700 0.7780 0.7870 0.7950
8.507981 0.8050 0.8140 0.8220 0.8310 0.8330
8.541000 0.8340 0.8380 0.8380 0.8340 0.8270
8.574981 0.8270 0.8290 0.8340 0.8440 0.8560
8.609000 0.8600 0.8620 0.8680 0.8680 0.8680
8.642981 0.8680 0.8680 0.8730 0.8790 0.8870
8.677000 0.8870 0.8870 0.8870 0.8890 0.8920
8.710981 0.8970 0.9010 0.9040 0.9090 0.9140
8.745000 0.9180 0.9210 0.9210 0.9190 0.9190
8.778981 0.9180 0.9180 0.9180 0.9160 0.9180
8.813000 0.9180 0.9180 0.9180 0.9140 0.9130
8.846981 0.9110 0.9040 0.8990 0.8920 0.8890
8.881000 0.8850 0.8840 0.8840 0.8820 0.8800
8.914981 0.8790 0.8720 0.8650 0.8600 0.8510
8.949000 0.8460 0.8390 0.8240 0.8040 0.7590
8.982981 0.6540 0.5670 0.5260 0.4940 0.4590
9.017000 0.3490 0.3490 0.4410 0.6010 0.6660
9.050981 0.7010 0.7250 0.7350 0.7470 0.7610
9.085000 0.7810 0.8040 0.8120 0.8210 0.8290
9.118981 0.8310 0.8340 0.8360 0.8380 0.8390
9.153000 0.8390 0.8410 0.8440 0.8500 0.8500
9.186981 0.8500 0.8440 0.8360 0.8220 0.8090
9.221000 0.7900 0.7610 0.7350 0.7010 0.6660
9.254981 0.6370 0.6300 0.6300 0.6400 0.6710
9.289000 0.6910 0.7120 0.7410 0.7560 0.7660
9.322981 0.7730 0.7780 0.7780 0.7730 0.7580
9.357000 0.7170 0.6710 0.6060 0.5260 0.4870
9.390981 0.4480 0.3660 0.3110 0.2870 0.2640
9.425000 0.2770 0.3110 0.3470 0.3850 0.4190
9.458981 0.4510 0.4770 0.5240 0.5360 0.5530
9.492000 0.5750 0.6090 0.6400 0.6600 0.6930
9.525981 0.7240 0.7510 0.7710 0.7780 0.7780
9.560000 0.7750 0.7580 0.7270 0.7060 0.6890
9.593981 0.6780 0.6660 0.6590 0.6520 0.6400
9.628000 0.6060 0.5670 0.5220 0.5070 0.4920
9.661981 0.4590 0.4050 0.3570 0.3110 0.2620
9.696000 0.2530 0.2620 0.3080 0.3660 0.4150
9.729981 0.4660 0.4970 0.6200 0.6490 0.6760
9.764000 0.6980 0.7150 0.7300 0.7440 0.7540
9.797981 0.7630 0.7700 0.7760 0.7800 0.7810
9.832000 0.7830 0.7830 0.7810 0.7750 0.7660
9.865981 0.7540 0.7340 0.7050 0.6720 0.6370
9.900000 0.5920 0.5410 0.5090 0.4770 0.4200
9.933981 0.3730 0.3370 0.3010 0.2750 0.2500
9.968000 0.2400 0.2330 0.2210 0.2090 0.1940
10.001981 0.1770 0.1560 0.1410 0.1340 0.1190
10.036000 0.1120 0.1120 0.1120 0.1120 0.1120
10.069981 0.1320 0.1530 0.1730 0.1970 0.2230
10.104000 0.2480 0.2750 0.3040 0.3350 0.3660
10.137981 0.3960 0.4270 0.4560 0.4870 0.5460
10.172000 0.5740 0.6010 0.6250 0.6350 0.6660
10.205981 0.6840 0.6950 0.7050 0.7120 0.7220
10.240000 0.7320 0.7390 0.7440 0.7490 0.7510
10.273981 0.7520 0.7580 0.7580 0.7580 0.7580
10.308000 0.7580 0.7580 0.7580 0.7590 0.7680
10.341981 0.7710 0.7760 0.7810 0.7850 0.7920
10.376000 0.7980 0.8020 0.8090 0.8090 0.8100
10.409981 0.8100 0.8100 0.8100 0.8090 0.8040
10.443000 0.7980 0.7920 0.7880 0.7780 0.7660
10.476981 0.7540 0.7350 0.7180 0.7030 0.6880
10.511000 0.6670 0.6400 0.6060 0.5600 0.5000
10.544981 0.4750 0.4490 0.3760 0.3110 0.2520
10.579000 0.1950 0.1770 0.1490 0.1170 0.1120
10.612981 0.1170 0.1340 0.1560 0.1920 0.2350
10.647000 0.2860 0.3400 0.4000 0.4560 0.5600
10.680981 0.5990 0.6260 0.6550 0.6840 0.7010
10.715000 0.7150 0.7300 0.7410 0.7440 0.7470
10.748981 0.7470 0.7470 0.7390 0.7050 0.6710
10.783000 0.6450 0.5770 0.5340 0.5000 0.4660
10.816981 0.4310 0.3930 0.3670 0.3610 0.3610
10.851000 0.3690 0.3880 0.4030 0.4170 0.4240
10.884981 0.4290 0.4290 0.4290 0.4120 0.3950
10.919000 0.3760 0.3660 0.3620 0.3620 0.3620
10.952981 0.3690 0.3910 0.4050 0.4270 0.4510
10.987000 0.4710 0.5670 0.5960 0.6260 0.6620
11.020981 0.7050 0.7220 0.7460 0.7560 0.7750
11.055000 0.7900 0.7980 0.8050 0.8120 0.8160
11.088981 0.8210 0.8310 0.8360 0.8410 0.8440
11.123000 0.8480 0.8500 0.8500 0.8480 0.8440
11.156981 0.8430 0.8410 0.8380 0.8330 0.8290
11.191000 0.8290 0.8220 0.8170 0.8160 0.8100
11.224981 0.8050 0.7930 0.7800 0.7640 0.7390
11.259000 0.7010 0.6430 0.5960 0.5340 0.5110
11.292981 0.4870 0.4530 0.4290 0.4270 0.4310
11.327000 0.4650 0.5400 0.5770 0.6200 0.6540
11.360981 0.6830 0.7060 0.7300 0.7510 0.7640
11.394000 0.7710 0.7870 0.7950 0.7980 0.7980
11.427981 0.7980 0.7920 0.7880 0.7810 0.7760
11.462000 0.7710 0.7700 0.7640 0.7490 0.7320
11.495981 0.7170 0.7080 0.7010 0.6910 0.6810
11.530000 0.6810 0.6890 0.7030 0.7170 0.7300
11.563981 0.7470 0.7630 0.7760 0.7850 0.7950
11.598000 0.8000 0.8050 0.8140 0.8170 0.8190
11.631981 0.8190 0.8120 0.8090 0.8000 0.7900
11.666000 0.7660 0.7510 0.7420 0.7220 0.7050
11.699981 0.6910 0.6760 0.6590 0.6350 0.6140
11.734000 0.5870 0.5530 0.5170 0.4990 0.4800
11.767981 0.4440 0.4080 0.3760 0.3490 0.3100
11.802000 0.2750 0.2530 0.2310 0.2210 0.2060
11.835981 0.1970 0.1900 0.1800 0.1730 0.1730
11.870000 0.1800 0.2060 0.2280 0.2580 0.2910
11.903981 0.3280 0.3660 0.4000 0.4320 0.4580
11.938000 0.4730 0.4880 0.4990 0.4990 0.4990
11.971981 0.4920 0.4750 0.4590 0.4340 0.4050
12.006000 0.3710 0.3390 0.3060 0.2910 0.2650
12.039981 0.2550 0.2470 0.2410 0.2290 0.2190
12.074000 0.2110 0.2020 0.2010 0.1970 0.1940
12.107981 0.1920 0.1890 0.1830 0.1820 0.1800
12.142000 0.1780 0.1660 0.1560 0.1490 0.1430
12.175981 0.1360 0.1260 0.1220 0.1190 0.1220
12.210000 0.1270 0.1340 0.1370 0.1390 0.1410
12.243981 0.1430 0.1440 0.1430 0.1360 0.1290
12.278000 0.1190 0.1100 0.1020 0.0980 0.0970
12.311981 0.0910 0.0910 0.0860 0.0860 0.0900
12.345000 0.1000 0.1030 0.1120 0.1220 0.1340
12.378981 0.1480 0.1680 0.1890 0.2140 0.2410
12.413000 0.2570 0.2750 0.2940 0.3160 0.3370
12.446981 0.3560 0.3740 0.3900 0.4000 0.4150
12.481000 0.4250 0.4360 0.4460 0.4540 0.4580
12.514981 0.4590 0.4610 0.4680 0.4680 0.4680
12.549000 0.4630 0.4540 0.4490 0.4480 0.4420
12.582981 0.4360 0.4310 0.4190 0.4030 0.3980
12.617000 0.3960 0.3880 0.3850 0.3780 0.3730
12.650981 0.3710 0.3690 0.3620 0.3560 0.3490
12.685000 0.3470 0.3440 0.3440 0.3420 0.3420
12.718981 0.3400 0.3400 0.3400 0.3390 0.3390
12.753000 0.3390 0.3390 0.3390 0.3370 0.3350
12.786981 0.3350 0.3350 0.3330 0.3330 0.3330
12.821000 0.3320 0.3300 0.3300 0.3280 0.3280
12.854981 0.3230 0.3210 0.3130 0.3040 0.2940
12.889000 0.2820 0.2720 0.2600 0.2520 0.2400
12.922981 0.2160 0.2010 0.1970 0.1850 0.1750
12.957000 0.1600 0.1510 0.1460 0.1320 0.1260
12.990981 0.1220 0.1170 0.1120 0.1030 0.0970
13.025000 0.0970 0.0970 0.0980 0.1020 0.1100
13.058981 0.1220 0.1310 0.1480 0.1630 0.1800
13.093000 0.1950 0.2160 0.2360 0.2600 0.2810
13.126981 0.3040 0.3230 0.3440 0.3590 0.3830
13.161000 0.4000 0.4150 0.4310 0.4420 0.4560
13.194981 0.4730 0.4900 0.5240 0.5400 0.5480
13.229000 0.5600 0.5670 0.5740 0.5820 0.5940
13.262981 0.6010 0.6110 0.6200 0.6230 0.6300
13.296000 0.6370 0.6400 0.6420 0.6490 0.6520
13.329981 0.6570 0.6620 0.6690 0.6720 0.6740
13.364000 0.6740 0.6780 0.6810 0.6830 0.6890
13.397981 0.6890 0.6910 0.6910 0.6910 0.6910
13.432000 0.6890 0.6880 0.6880 0.6860 0.6840
13.465981 0.6810 0.6790 0.6780 0.6720 0.6670
13.500000 0.6590 0.6500 0.6470 0.6400 0.6370
13.533981 0.6300 0.6260 0.6200 0.6160 0.6130
13.568000 0.6130 0.6130 0.6110 0.6110 0.6110
13.601981 0.6110 0.6110 0.6110 0.6110 0.6080
13.636000 0.6040 0.6030 0.6010 0.5970 0.5910
13.669981 0.5750 0.5500 0.5240 0.5040 0.4920
13.704000 0.4800 0.4540 0.4200 0.3960 0.3740
13.737981 0.3540 0.3400 0.3250 0.3150 0.3100
13.772000 0.3100 0.3150 0.3210 0.3300 0.3440
13.805981 0.3640 0.3830 0.4020 0.4150 0.4310
13.840000 0.4460 0.4610 0.4710 0.4800 0.4940
13.873981 0.5170 0.5290 0.5360 0.5450 0.5570
13.908000 0.5600 0.5620 0.5680 0.5700 0.5770
13.941981 0.5770 0.5770 0.5740 0.5720 0.5650
13.976000 0.5530 0.5450 0.5290 0.5090 0.5000
14.009981 0.4920 0.4700 0.4560 0.4490 0.4410
14.044000 0.4370 0.4370 0.4390 0.4460 0.4540
14.077981 0.4650 0.4800 0.4900 0.5160 0.5240
14.112000 0.5330 0.5410 0.5500 0.5530 0.5530
14.145981 0.5510 0.5430 0.5330 0.5290 0.5170
14.180000 0.5050 0.5000 0.4940 0.4730 0.4490
14.213981 0.4290 0.3950 0.3740 0.3540 0.3330
14.247000 0.3100 0.2810 0.2550 0.2400 0.2240
14.280981 0.2040 0.1920 0.1730 0.1550 0.1480
14.315000 0.1390 0.1320 0.1260 0.1200 0.1190
14.348981 0.1120 0.1120 0.1120 0.1150 0.1270
14.383000 0.1360 0.1480 0.1600 0.1770 0.1970
14.416981 0.2190 0.2410 0.2640 0.2870 0.3100
14.451000 0.3330 0.3570 0.3810 0.4030 0.4250
14.484981 0.4460 0.4650 0.4830 0.4990 0.5240
14.519000 0.5450 0.5510 0.5530 0.5580 0.5600
14.552981 0.5620 0.5630 0.5630 0.5670 0.5670
14.587000 0.5680 0.5750 0.5800 0.5890 0.5960
14.620981 0.6010 0.6090 0.6210 0.6330 0.6470
14.655000 0.6570 0.6690 0.6780 0.6880 0.6960
14.688981 0.7010 0.7080 0.7130 0.7250 0.7350
14.723000 0.7410 0.7490 0.7580 0.7610 0.7700
14.756981 0.7760 0.7760 0.7780 0.7800 0.7800
14.791000 0.7830 0.7870 0.7870 0.7880 0.7870
14.824981 0.7870 0.7870 0.7880 0.7900 0.7900
14.859000 0.7870 0.7870 0.7880 0.7870 0.7830
14.892981 0.7800 0.7760 0.7710 0.7700 0.7590
14.927000 0.7520 0.7490 0.7470 0.7410 0.7300
14.960981 0.7240 0.7130 0.7030 0.6930 0.6790
14.995000 0.6690 0.6590 0.6490 0.6400 0.6330
15.028981 0.6300 0.6250 0.6230 0.6230 0.6250
15.063000 0.6250 0.6260 0.6330 0.6400 0.6500
15.096981 0.6600 0.6670 0.6740 0.6810 0.6910
15.131000 0.6980 0.7050 0.7130 0.7240 0.7290
15.164981 0.7350 0.7390 0.7420 0.7470 0.7470
15.198000 0.7540 0.7630 0.7700 0.7730 0.7760
15.231981 0.7760 0.7760 0.7780 0.7800 0.7810
15.266000 0.7810 0.7810 0.7800 0.7800 0.7780
15.299981 0.7780 0.7780 0.7760 0.7760 0.7760
15.334000 0.7730 0.7700 0.7680 0.7680 0.7660
15.367981 0.7610 0.7580 0.7560 0.7560 0.7560
15.402000 0.7540 0.7540 0.7560 0.7560 0.7560
15.435981 0.7560 0.7520 0.7520 0.7520 0.7510
15.470000 0.7490 0.7470 0.7410 0.7370 0.7340
15.503981 0.7350 0.7370 0.7390 0.7390 0.7370
15.538000 0.7370 0.7350 0.7350 0.7370 0.7370
15.571981 0.7370 0.7370 0.7370 0.7340 0.7300
15.606000 0.7290 0.7270 0.7270 0.7220 0.7180
15.639981 0.7170 0.7170 0.7150 0.7120 0.7100
15.674000 0.7100 0.7060 0.7030 0.7000 0.6980
15.707981 0.6960 0.6910 0.6890 0.6880 0.6880
15.742000 0.6860 0.6860 0.6810 0.6790 0.6780
15.775981 0.6780 0.6780 0.6720 0.6640 0.6600
15.810000 0.6590 0.6590 0.6590 0.6590 0.6570
15.843981 0.6570 0.6570 0.6500 0.6500 0.6490
15.878000 0.6470 0.6430 0.6400 0.6380 0.6370
15.911981 0.6370 0.6300 0.6260 0.6210 0.6180
15.946000 0.6160 0.6160 0.6130 0.6110 0.6060
15.979981 0.6040 0.6030 0.5890 0.6030
##END=
