##TITLE=2-tert-Butyl-5-methylisoxazolium perchlorate
##JCAMP-DX=4.24
##DATA TYPE=INFRARED SPECTRUM
##CLASS=COBLENTZ III
##ORIGIN=DOW CHEMICAL COMPANY
##OWNER=COBLENTZ SOC.
Collection (C) 2018 copyright by the U.S. Secretary of Commerce
on behalf of the United States of America. All rights reserved.
##DATE=1965/03/09
##NAMES=perchloric acid compound with 2-tert-butyl-5-methyl-2.lambda.<5>-isoxazole (1:1)
##MOLFORM=C8 H14 Cl N O5
##SOURCE REFERENCE=COBLENTZ NO. 08608
##$NIST ID=B6008608
##$NIST SOURCE=COBLENTZ
##$NIST IMAGE=cob8608
##SPECTROMETER/DATA SYSTEM=DOW KBr FOREPRISM-GRATING
##INSTRUMENT PARAMETERS=BLAZED AT 3.5, 12.0, 20.0 MICRON AND CHANGED AT 5.0, 7.5, 14.9 MICRON
##STATE=SOLID (SPLIT MULL), FLUOROLUBE FOR 3800-1330 CM^-^1, NUJOL FOR 1330-400 CM^-^1
$$ SPECTRUM CONFIRMED WITH COMPOUND FROM SAME COMPANY
$$SPECTRAL CONTAMINATION DUE TO OIL AROUND 720 CM^-^1
$$ SPECTRAL FEATURE AT 2020 CM^-^1 IS AFFECTED BY GRATING CHANGE
##SAMPLING PROCEDURE=TRANSMISSION
##RESOLUTION=2
##DATA PROCESSING=DIGITIZED BY COBLENTZ SOCIETY (BATCH I) FROM HARD COPY
##XUNITS=1/CM
##YUNITS=TRANSMITTANCE
##XLABEL=Wavenumbers (cm-1)
##YLABEL=% Transmission
##XFACTOR=1
##YFACTOR=1
##DELTAX=1
##FIRSTX=383
##LASTX=3788
##FIRSTY=0.7235
##MAXX=3788
##MINX=383
##MAXY=0.8646
##MINY=0.0081
##NPOINTS=3406
##XYDATA=(X++(Y..Y))
383.000000 0.7235 0.7241 0.7245 0.7250 0.7254
388.000000 0.7258 0.7262 0.7267 0.7269 0.7274
393.000000 0.7278 0.7282 0.7287 0.7291 0.7295
398.000000 0.7299 0.7303 0.7308 0.7312 0.7317
403.000000 0.7321 0.7326 0.7331 0.7336 0.7341
408.000000 0.7345 0.7350 0.7354 0.7358 0.7362
413.000000 0.7368 0.7371 0.7376 0.7382 0.7387
418.000000 0.7392 0.7398 0.7387 0.7408 0.7415
423.000000 0.7421 0.7425 0.7432 0.7438 0.7443
428.000000 0.7449 0.7455 0.7460 0.7465 0.7471
433.000000 0.7478 0.7483 0.7488 0.7493 0.7498
438.000000 0.7503 0.7508 0.7514 0.7518 0.7524
443.000000 0.7528 0.7534 0.7540 0.7547 0.7553
448.000000 0.7560 0.7565 0.7571 0.7578 0.7585
453.000000 0.7592 0.7598 0.7604 0.7611 0.7615
458.000000 0.7619 0.7624 0.7628 0.7633 0.7637
463.000000 0.7641 0.7645 0.7649 0.7653 0.7657
468.000000 0.7660 0.7662 0.7665 0.7668 0.7671
473.000000 0.7675 0.7678 0.7682 0.7686 0.7690
478.000000 0.7693 0.7697 0.7701 0.7699 0.7697
483.000000 0.7695 0.7690 0.7684 0.7678 0.7668
488.000000 0.7658 0.7650 0.7641 0.7631 0.7621
493.000000 0.7611 0.7614 0.7630 0.7651 0.7675
498.000000 0.7715 0.7761 0.7806 0.7836 0.7862
503.000000 0.7878 0.7886 0.7894 0.7897 0.7899
508.000000 0.7901 0.7905 0.7905 0.7905 0.7904
513.000000 0.7904 0.7903 0.7903 0.7904 0.7905
518.000000 0.7906 0.7908 0.7908 0.7910 0.7911
523.000000 0.7912 0.7914 0.7915 0.7918 0.7921
528.000000 0.7922 0.7925 0.7928 0.7931 0.7932
533.000000 0.7934 0.7935 0.7937 0.7938 0.7940
538.000000 0.7941 0.7943 0.7944 0.7946 0.7946
543.000000 0.7946 0.7947 0.7947 0.7947 0.7947
548.000000 0.7947 0.7947 0.7947 0.7947 0.7945
553.000000 0.7943 0.7941 0.7939 0.7937 0.7936
558.000000 0.7933 0.7921 0.7911 0.7899 0.7888
563.000000 0.7868 0.7848 0.7825 0.7793 0.7761
568.000000 0.7735 0.7730 0.7730 0.7746 0.7765
573.000000 0.7811 0.7857 0.7914 0.7961 0.8004
578.000000 0.8032 0.8044 0.8056 0.8068 0.8072
583.000000 0.8075 0.8075 0.8075 0.8074 0.8072
588.000000 0.8068 0.8065 0.8061 0.8057 0.8049
593.000000 0.8048 0.8025 0.8011 0.7996 0.7980
598.000000 0.7965 0.7949 0.7931 0.7910 0.7889
603.000000 0.7861 0.7830 0.7797 0.7764 0.7721
608.000000 0.7661 0.7560 0.7325 0.7108 0.6955
613.000000 0.6803 0.6649 0.6434 0.5694 0.4786
618.000000 0.3878 0.3836 0.4212 0.4790 0.4802
623.000000 0.4526 0.4115 0.3704 0.3293 0.2882
628.000000 0.2705 0.2700 0.4216 0.5714 0.6776
633.000000 0.6915 0.7036 0.7165 0.7304 0.7454
638.000000 0.7601 0.7675 0.7748 0.7822 0.7898
643.000000 0.7961 0.8010 0.8055 0.8082 0.8108
648.000000 0.8135 0.8158 0.8169 0.8182 0.8194
653.000000 0.8205 0.8216 0.8227 0.8238 0.8249
658.000000 0.8261 0.8278 0.8292 0.8305 0.8318
663.000000 0.8330 0.8342 0.8353 0.8361 0.8368
668.000000 0.8375 0.8381 0.8386 0.8391 0.8395
673.000000 0.8397 0.8399 0.8402 0.8404 0.8404
678.000000 0.8404 0.8403 0.8403 0.8402 0.8401
683.000000 0.8400 0.8399 0.8396 0.8393 0.8390
688.000000 0.8386 0.8383 0.8380 0.8375 0.8373
693.000000 0.8370 0.8366 0.8362 0.8355 0.8349
698.000000 0.8342 0.8335 0.8328 0.8321 0.8316
703.000000 0.8309 0.8299 0.8287 0.8275 0.8264
708.000000 0.8252 0.8241 0.8228 0.8208 0.8186
713.000000 0.8164 0.8141 0.8118 0.8089 0.8057
718.000000 0.8025 0.7995 0.7965 0.7934 0.7917
723.000000 0.7921 0.7925 0.7932 0.7946 0.7960
728.000000 0.7981 0.8004 0.8028 0.8054 0.8078
733.000000 0.8101 0.8119 0.8137 0.8141 0.8146
738.000000 0.8151 0.8155 0.8158 0.8161 0.8162
743.000000 0.8164 0.8165 0.8165 0.8169 0.8178
748.000000 0.8186 0.8195 0.8204 0.8212 0.8217
753.000000 0.8221 0.8225 0.8231 0.8234 0.8236
758.000000 0.8237 0.8239 0.8240 0.8240 0.8240
763.000000 0.8238 0.8236 0.8235 0.8233 0.8231
768.000000 0.8230 0.8227 0.8223 0.8218 0.8215
773.000000 0.8211 0.8206 0.8202 0.8198 0.8195
778.000000 0.8192 0.8188 0.8185 0.8182 0.8178
783.000000 0.8171 0.8167 0.8161 0.8156 0.8149
788.000000 0.8142 0.8135 0.8128 0.8121 0.8111
793.000000 0.8100 0.8088 0.8075 0.8062 0.8046
798.000000 0.8022 0.8001 0.7978 0.7954 0.7922
803.000000 0.7893 0.7861 0.7825 0.7780 0.7733
808.000000 0.7684 0.7628 0.7574 0.7517 0.7445
813.000000 0.7372 0.7145 0.6817 0.6418 0.6406
818.000000 0.6395 0.6385 0.6374 0.6203 0.5953
823.000000 0.5815 0.5722 0.5698 0.5699 0.5700
828.000000 0.5705 0.5797 0.6019 0.6241 0.6462
833.000000 0.6685 0.6907 0.7024 0.7101 0.7287
838.000000 0.7357 0.7421 0.7487 0.7548 0.7601
843.000000 0.7651 0.7683 0.7714 0.7744 0.7769
848.000000 0.7795 0.7811 0.7826 0.7841 0.7853
853.000000 0.7861 0.7868 0.7876 0.7885 0.7889
858.000000 0.7893 0.7897 0.7899 0.7900 0.7900
863.000000 0.7901 0.7901 0.7901 0.7903 0.7903
868.000000 0.7903 0.7903 0.7901 0.7901 0.7900
873.000000 0.7899 0.7897 0.7896 0.7893 0.7890
878.000000 0.7888 0.7885 0.7882 0.7880 0.7876
883.000000 0.7871 0.7864 0.7856 0.7848 0.7838
888.000000 0.7828 0.7817 0.7807 0.7796 0.7785
893.000000 0.7775 0.7764 0.7753 0.7742 0.7732
898.000000 0.7721 0.7710 0.7697 0.7681 0.7665
903.000000 0.7648 0.7631 0.7605 0.7578 0.7540
908.000000 0.7496 0.7451 0.7404 0.7357 0.7301
913.000000 0.7241 0.7181 0.7074 0.6972 0.6878
918.000000 0.6757 0.6654 0.6660 0.6669 0.6694
923.000000 0.6753 0.6861 0.6968 0.7040 0.7106
928.000000 0.7157 0.7186 0.7125 0.7033 0.7049
933.000000 0.7148 0.7247 0.7269 0.7269 0.7267
938.000000 0.7275 0.7257 0.7242 0.7225 0.7169
943.000000 0.7125 0.7125 0.7125 0.7139 0.7151
948.000000 0.7155 0.7158 0.7147 0.7085 0.6845
953.000000 0.6708 0.6708 0.6900 0.7093 0.7286
958.000000 0.7454 0.7482 0.7497 0.7500 0.7500
963.000000 0.7495 0.7504 0.7475 0.7464 0.7448
968.000000 0.7431 0.7405 0.7378 0.7344 0.7301
973.000000 0.7249 0.7176 0.7093 0.6996 0.6753
978.000000 0.6467 0.6230 0.6227 0.6408 0.6690
983.000000 0.6978 0.7042 0.7097 0.7143 0.7189
988.000000 0.7240 0.7292 0.7318 0.7334 0.7347
993.000000 0.7340 0.7340 0.7325 0.7311 0.7293
998.000000 0.7268 0.7232 0.7161 0.7065 0.6944
1003.000000 0.6781 0.6550 0.6109 0.5668 0.5226
1008.000000 0.4979 0.4984 0.4949 0.7033 0.7136
1013.000000 0.7190 0.7207 0.7214 0.7226 0.7211
1018.000000 0.7196 0.7171 0.7141 0.7112 0.7086
1023.000000 0.7051 0.7014 0.6981 0.6949 0.6915
1028.000000 0.6871 0.6808 0.6734 0.6604 0.6407
1033.000000 0.6250 0.6094 0.5937 0.5781 0.5624
1038.000000 0.5459 0.5445 0.5451 0.5419 0.5505
1043.000000 0.5569 0.5615 0.5645 0.5657 0.5655
1048.000000 0.5650 0.5635 0.5610 0.5552 0.5473
1053.000000 0.5397 0.5319 0.5242 0.5170 0.5100
1058.000000 0.5036 0.4565 0.4420 0.4233 0.4029
1063.000000 0.3844 0.3241 0.3046 0.2811 0.2634
1068.000000 0.2445 0.2231 0.2078 0.1913 0.1729
1073.000000 0.1604 0.1482 0.1315 0.1124 0.0925
1078.000000 0.0782 0.0646 0.0539 0.0421 0.0298
1083.000000 0.0214 0.0172 0.0135 0.0113 0.0098
1088.000000 0.0091 0.0084 0.0083 0.0081 0.0082
1093.000000 0.0083 0.0084 0.0085 0.0087 0.0090
1098.000000 0.0093 0.0102 0.0110 0.0118 0.0133
1103.000000 0.0150 0.0177 0.0209 0.0255 0.0335
1108.000000 0.0435 0.0540 0.0712 0.0939 0.1169
1113.000000 0.1398 0.1627 0.1856 0.2084 0.2314
1118.000000 0.2543 0.2667 0.2666 0.2665 0.2664
1123.000000 0.2533 0.2403 0.2273 0.2142 0.2072
1128.000000 0.2074 0.2065 0.2879 0.3300 0.3674
1133.000000 0.3876 0.4156 0.4312 0.4470 0.4629
1138.000000 0.4743 0.4882 0.5087 0.5269 0.5494
1143.000000 0.5772 0.5942 0.6046 0.6151 0.6255
1148.000000 0.6339 0.6395 0.6451 0.6508 0.6569
1153.000000 0.6641 0.6711 0.6769 0.6808 0.6848
1158.000000 0.6887 0.6915 0.6942 0.6968 0.6993
1163.000000 0.7018 0.7010 0.7015 0.7001 0.6981
1168.000000 0.6961 0.6943 0.6934 0.6928 0.6915
1173.000000 0.6944 0.6961 0.6975 0.6986 0.6993
1178.000000 0.6992 0.6991 0.6990 0.6983 0.6976
1183.000000 0.6965 0.6953 0.6939 0.6919 0.6892
1188.000000 0.6861 0.6828 0.6786 0.6737 0.6685
1193.000000 0.6619 0.6555 0.6471 0.6388 0.6296
1198.000000 0.6201 0.5999 0.5797 0.5595 0.5393
1203.000000 0.5191 0.4989 0.4787 0.4603 0.4497
1208.000000 0.4362 0.4230 0.4084 0.3564 0.3141
1213.000000 0.3131 0.3114 0.3139 0.3304 0.3553
1218.000000 0.3803 0.4052 0.4302 0.4552 0.4801
1223.000000 0.5051 0.5300 0.5549 0.5768 0.5890
1228.000000 0.5915 0.5915 0.5915 0.5901 0.5877
1233.000000 0.5827 0.5734 0.5578 0.5423 0.5325
1238.000000 0.5323 0.5377 0.5430 0.5484 0.5489
1243.000000 0.5476 0.5449 0.5412 0.5333 0.5262
1248.000000 0.5191 0.5098 0.4828 0.4371 0.4296
1253.000000 0.4297 0.4300 0.4310 0.4315 0.4339
1258.000000 0.4362 0.4393 0.4631 0.4987 0.5344
1263.000000 0.5503 0.5660 0.5808 0.5964 0.6127
1268.000000 0.6292 0.6503 0.6658 0.6828 0.6942
1273.000000 0.6975 0.7010 0.7044 0.7078 0.7108
1278.000000 0.7139 0.7169 0.7200 0.7219 0.7239
1283.000000 0.7258 0.7269 0.7276 0.7285 0.7289
1288.000000 0.7289 0.7289 0.7289 0.7289 0.7289
1293.000000 0.7290 0.7290 0.7290 0.7291 0.7292
1298.000000 0.7293 0.7294 0.7296 0.7301 0.7308
1303.000000 0.7314 0.7319 0.7328 0.7336 0.7344
1308.000000 0.7353 0.7357 0.7369 0.7375 0.7381
1313.000000 0.7385 0.7390 0.7394 0.7394 0.7393
1318.000000 0.7393 0.7392 0.7392 0.7389 0.7384
1323.000000 0.7378 0.7374 0.7369 0.7362 0.7353
1328.000000 0.7344 0.7328 0.7312 0.7297 0.7280
1333.000000 0.7265 0.7253 0.7240 0.7228 0.7215
1338.000000 0.7204 0.7192 0.7180 0.7175 0.7175
1343.000000 0.7174 0.7171 0.7189 0.7201 0.7218
1348.000000 0.7278 0.7364 0.7474 0.7548 0.7599
1353.000000 0.7628 0.7657 0.7681 0.7700 0.7718
1358.000000 0.7728 0.7740 0.7750 0.7761 0.7761
1363.000000 0.7768 0.7768 0.7765 0.7757 0.7737
1368.000000 0.7708 0.7678 0.7635 0.7569 0.7493
1373.000000 0.7375 0.7187 0.7021 0.6808 0.6471
1378.000000 0.5725 0.4790 0.3856 0.2922 0.2813
1383.000000 0.3773 0.6341 0.6715 0.6991 0.7140
1388.000000 0.7210 0.7239 0.7238 0.7230 0.7221
1393.000000 0.7175 0.7107 0.7046 0.6987 0.6900
1398.000000 0.6736 0.6550 0.5902 0.5692 0.5692
1403.000000 0.5723 0.5851 0.6162 0.6474 0.6785
1408.000000 0.6857 0.6835 0.6744 0.6533 0.6322
1413.000000 0.6175 0.6173 0.6155 0.6801 0.7328
1418.000000 0.7388 0.7417 0.7430 0.7441 0.7448
1423.000000 0.7453 0.7424 0.7444 0.7435 0.7422
1428.000000 0.7407 0.7392 0.7365 0.7337 0.7294
1433.000000 0.7219 0.7151 0.7084 0.6998 0.6910
1438.000000 0.6826 0.6730 0.6611 0.5956 0.5864
1443.000000 0.5787 0.5747 0.5708 0.5687 0.5666
1448.000000 0.5648 0.5628 0.5606 0.5550 0.5236
1453.000000 0.4906 0.4618 0.4568 0.4550 0.4546
1458.000000 0.4560 0.4630 0.4955 0.5291 0.5628
1463.000000 0.5849 0.6184 0.6252 0.6285 0.6298
1468.000000 0.6310 0.6310 0.6310 0.6306 0.6304
1473.000000 0.6294 0.6287 0.6279 0.6270 0.6254
1478.000000 0.6143 0.5860 0.5577 0.5295 0.4982
1483.000000 0.4933 0.4925 0.4903 0.5245 0.5525
1488.000000 0.5805 0.6085 0.6260 0.6267 0.6250
1493.000000 0.6205 0.6131 0.6050 0.5990 0.5884
1498.000000 0.5577 0.5268 0.4959 0.4748 0.4644
1503.000000 0.4552 0.4427 0.4299 0.3958 0.3705
1508.000000 0.2720 0.1346 0.1021 0.0809 0.0749
1513.000000 0.0717 0.0695 0.0695 0.0692 0.0714
1518.000000 0.0750 0.1167 0.1966 0.2764 0.3562
1523.000000 0.4360 0.4876 0.5258 0.5486 0.6216
1528.000000 0.7118 0.7328 0.7432 0.7537 0.7647
1533.000000 0.7748 0.7844 0.7899 0.7953 0.7987
1538.000000 0.8004 0.8021 0.8030 0.8037 0.8043
1543.000000 0.8049 0.8051 0.8051 0.8051 0.8051
1548.000000 0.8053 0.8053 0.8054 0.8054 0.8055
1553.000000 0.8056 0.8058 0.8061 0.8065 0.8069
1558.000000 0.8075 0.8083 0.8091 0.8100 0.8108
1563.000000 0.8114 0.8115 0.8115 0.8111 0.8103
1568.000000 0.8094 0.8075 0.8055 0.8032 0.8001
1573.000000 0.7968 0.7932 0.7893 0.7851 0.7811
1578.000000 0.7771 0.7696 0.7608 0.7514 0.7417
1583.000000 0.7318 0.7228 0.7144 0.7058 0.6925
1588.000000 0.6734 0.6382 0.5365 0.4209 0.2612
1593.000000 0.2581 0.2577 0.2568 0.2776 0.2927
1598.000000 0.3078 0.4448 0.6851 0.7925 0.8028
1603.000000 0.8232 0.8375 0.8436 0.8474 0.8495
1608.000000 0.8516 0.8527 0.8539 0.8547 0.8549
1613.000000 0.8552 0.8551 0.8551 0.8550 0.8547
1618.000000 0.8544 0.8541 0.8541 0.8541 0.8542
1623.000000 0.8543 0.8544 0.8546 0.8547 0.8549
1628.000000 0.8550 0.8552 0.8555 0.8556 0.8558
1633.000000 0.8560 0.8563 0.8566 0.8568 0.8571
1638.000000 0.8575 0.8578 0.8581 0.8583 0.8585
1643.000000 0.8587 0.8589 0.8590 0.8592 0.8594
1648.000000 0.8595 0.8597 0.8599 0.8603 0.8606
1653.000000 0.8610 0.8610 0.8610 0.8610 0.8610
1658.000000 0.8610 0.8610 0.8611 0.8611 0.8610
1663.000000 0.8610 0.8610 0.8609 0.8609 0.8608
1668.000000 0.8608 0.8607 0.8607 0.8607 0.8606
1673.000000 0.8606 0.8605 0.8604 0.8601 0.8599
1678.000000 0.8597 0.8594 0.8592 0.8589 0.8587
1683.000000 0.8585 0.8581 0.8578 0.8575 0.8571
1688.000000 0.8568 0.8564 0.8561 0.8559 0.8556
1693.000000 0.8554 0.8552 0.8550 0.8548 0.8545
1698.000000 0.8543 0.8541 0.8539 0.8537 0.8536
1703.000000 0.8535 0.8535 0.8534 0.8534 0.8533
1708.000000 0.8533 0.8532 0.8532 0.8531 0.8531
1713.000000 0.8531 0.8531 0.8531 0.8532 0.8533
1718.000000 0.8533 0.8534 0.8534 0.8535 0.8535
1723.000000 0.8536 0.8536 0.8537 0.8537 0.8538
1728.000000 0.8538 0.8539 0.8539 0.8539 0.8540
1733.000000 0.8541 0.8542 0.8543 0.8544 0.8545
1738.000000 0.8546 0.8548 0.8549 0.8550 0.8551
1743.000000 0.8552 0.8554 0.8556 0.8559 0.8561
1748.000000 0.8563 0.8566 0.8568 0.8571 0.8574
1753.000000 0.8577 0.8580 0.8583 0.8585 0.8588
1758.000000 0.8591 0.8594 0.8597 0.8600 0.8603
1763.000000 0.8606 0.8609 0.8611 0.8614 0.8615
1768.000000 0.8616 0.8617 0.8618 0.8618 0.8620
1773.000000 0.8621 0.8621 0.8621 0.8623 0.8623
1778.000000 0.8623 0.8623 0.8623 0.8625 0.8625
1783.000000 0.8627 0.8628 0.8628 0.8630 0.8631
1788.000000 0.8633 0.8634 0.8635 0.8636 0.8636
1793.000000 0.8636 0.8637 0.8637 0.8637 0.8638
1798.000000 0.8638 0.8639 0.8639 0.8639 0.8640
1803.000000 0.8640 0.8640 0.8641 0.8641 0.8640
1808.000000 0.8638 0.8636 0.8634 0.8631 0.8628
1813.000000 0.8627 0.8625 0.8623 0.8621 0.8621
1818.000000 0.8621 0.8621 0.8621 0.8621 0.8621
1823.000000 0.8621 0.8621 0.8621 0.8621 0.8621
1828.000000 0.8621 0.8621 0.8623 0.8623 0.8623
1833.000000 0.8623 0.8623 0.8623 0.8623 0.8623
1838.000000 0.8623 0.8621 0.8621 0.8621 0.8621
1843.000000 0.8621 0.8621 0.8621 0.8621 0.8621
1848.000000 0.8621 0.8621 0.8621 0.8621 0.8621
1853.000000 0.8621 0.8621 0.8621 0.8621 0.8623
1858.000000 0.8623 0.8623 0.8623 0.8621 0.8621
1863.000000 0.8621 0.8620 0.8620 0.8618 0.8618
1868.000000 0.8618 0.8617 0.8617 0.8616 0.8616
1873.000000 0.8615 0.8615 0.8614 0.8614 0.8613
1878.000000 0.8613 0.8612 0.8612 0.8611 0.8614
1883.000000 0.8617 0.8620 0.8623 0.8625 0.8628
1888.000000 0.8632 0.8635 0.8638 0.8640 0.8643
1893.000000 0.8645 0.8646 0.8646 0.8646 0.8644
1898.000000 0.8642 0.8639 0.8636 0.8634 0.8631
1903.000000 0.8628 0.8625 0.8623 0.8621 0.8618
1908.000000 0.8616 0.8615 0.8615 0.8615 0.8615
1913.000000 0.8615 0.8615 0.8614 0.8613 0.8613
1918.000000 0.8611 0.8610 0.8608 0.8607 0.8605
1923.000000 0.8604 0.8602 0.8601 0.8600 0.8598
1928.000000 0.8597 0.8596 0.8594 0.8593 0.8592
1933.000000 0.8590 0.8589 0.8588 0.8587 0.8586
1938.000000 0.8584 0.8583 0.8581 0.8578 0.8575
1943.000000 0.8574 0.8571 0.8568 0.8567 0.8564
1948.000000 0.8562 0.8559 0.8557 0.8554 0.8552
1953.000000 0.8551 0.8551 0.8551 0.8551 0.8550
1958.000000 0.8550 0.8550 0.8550 0.8549 0.8549
1963.000000 0.8545 0.8542 0.8539 0.8536 0.8532
1968.000000 0.8528 0.8525 0.8523 0.8518 0.8513
1973.000000 0.8507 0.8502 0.8496 0.8491 0.8485
1978.000000 0.8475 0.8467 0.8458 0.8449 0.8436
1983.000000 0.8424 0.8411 0.8397 0.8384 0.8374
1988.000000 0.8363 0.8353 0.8350 0.8351 0.8353
1993.000000 0.8356 0.8298 0.8223 0.8149 0.8074
1998.000000 0.8000 0.7925 0.7851 0.7775 0.7701
2003.000000 0.7692 0.7682 0.7671 0.7660 0.7653
2008.000000 0.7646 0.7640 0.7634 0.7628 0.7622
2013.000000 0.7611 0.7601 0.7591 0.7582 0.7572
2018.000000 0.7564 0.7560 0.7556 0.7553 0.7551
2023.000000 0.7553 0.7553 0.7555 0.7557 0.7560
2028.000000 0.7562 0.7565 0.7569 0.7575 0.7582
2033.000000 0.7588 0.7594 0.7600 0.7607 0.7617
2038.000000 0.7628 0.7642 0.7656 0.7674 0.7693
2043.000000 0.7712 0.7734 0.7756 0.7778 0.7797
2048.000000 0.7815 0.7835 0.7854 0.7867 0.7880
2053.000000 0.7892 0.7905 0.7915 0.7928 0.7932
2058.000000 0.7936 0.7940 0.7944 0.7947 0.7951
2063.000000 0.7951 0.7951 0.7953 0.7954 0.7954
2068.000000 0.7955 0.7955 0.7956 0.7956 0.7957
2073.000000 0.7957 0.7958 0.7958 0.7958 0.7958
2078.000000 0.7958 0.7958 0.7958 0.7958 0.7958
2083.000000 0.7958 0.7958 0.7958 0.7958 0.7958
2088.000000 0.7958 0.7957 0.7957 0.7956 0.7956
2093.000000 0.7955 0.7955 0.7954 0.7954 0.7953
2098.000000 0.7953 0.7953 0.7953 0.7951 0.7951
2103.000000 0.7950 0.7950 0.7949 0.7949 0.7948
2108.000000 0.7948 0.7947 0.7947 0.7946 0.7946
2113.000000 0.7945 0.7944 0.7943 0.7943 0.7942
2118.000000 0.7941 0.7940 0.7940 0.7939 0.7939
2123.000000 0.7938 0.7937 0.7936 0.7936 0.7935
2128.000000 0.7934 0.7933 0.7933 0.7931 0.7928
2133.000000 0.7925 0.7924 0.7921 0.7919 0.7918
2138.000000 0.7915 0.7914 0.7911 0.7910 0.7908
2143.000000 0.7906 0.7904 0.7901 0.7900 0.7897
2148.000000 0.7895 0.7892 0.7889 0.7886 0.7884
2153.000000 0.7881 0.7878 0.7875 0.7871 0.7868
2158.000000 0.7865 0.7862 0.7860 0.7857 0.7855
2163.000000 0.7851 0.7849 0.7846 0.7843 0.7840
2168.000000 0.7837 0.7834 0.7832 0.7828 0.7825
2173.000000 0.7822 0.7819 0.7817 0.7815 0.7812
2178.000000 0.7811 0.7808 0.7806 0.7803 0.7801
2183.000000 0.7799 0.7797 0.7794 0.7792 0.7790
2188.000000 0.7788 0.7785 0.7783 0.7780 0.7778
2193.000000 0.7775 0.7774 0.7771 0.7768 0.7764
2198.000000 0.7761 0.7758 0.7758 0.7758 0.7761
2203.000000 0.7764 0.7767 0.7769 0.7772 0.7775
2208.000000 0.7778 0.7784 0.7790 0.7796 0.7801
2213.000000 0.7801 0.7801 0.7801 0.7801 0.7801
2218.000000 0.7801 0.7801 0.7801 0.7800 0.7799
2223.000000 0.7798 0.7797 0.7796 0.7795 0.7794
2228.000000 0.7793 0.7791 0.7790 0.7789 0.7788
2233.000000 0.7787 0.7786 0.7785 0.7784 0.7783
2238.000000 0.7782 0.7780 0.7778 0.7776 0.7775
2243.000000 0.7774 0.7772 0.7771 0.7769 0.7768
2248.000000 0.7767 0.7765 0.7764 0.7761 0.7761
2253.000000 0.7758 0.7758 0.7756 0.7755 0.7753
2258.000000 0.7751 0.7749 0.7747 0.7745 0.7744
2263.000000 0.7742 0.7740 0.7738 0.7736 0.7734
2268.000000 0.7732 0.7730 0.7728 0.7725 0.7725
2273.000000 0.7724 0.7724 0.7724 0.7724 0.7724
2278.000000 0.7724 0.7724 0.7724 0.7724 0.7725
2283.000000 0.7725 0.7725 0.7725 0.7725 0.7724
2288.000000 0.7722 0.7721 0.7719 0.7718 0.7718
2293.000000 0.7717 0.7715 0.7715 0.7714 0.7712
2298.000000 0.7711 0.7711 0.7710 0.7708 0.7708
2303.000000 0.7707 0.7706 0.7704 0.7703 0.7701
2308.000000 0.7701 0.7701 0.7701 0.7701 0.7701
2313.000000 0.7701 0.7701 0.7701 0.7701 0.7701
2318.000000 0.7701 0.7703 0.7705 0.7711 0.7717
2323.000000 0.7721 0.7728 0.7734 0.7740 0.7746
2328.000000 0.7753 0.7758 0.7765 0.7771 0.7776
2333.000000 0.7781 0.7785 0.7788 0.7792 0.7796
2338.000000 0.7800 0.7801 0.7804 0.7806 0.7808
2343.000000 0.7811 0.7812 0.7815 0.7817 0.7818
2348.000000 0.7821 0.7821 0.7824 0.7824 0.7825
2353.000000 0.7825 0.7825 0.7825 0.7825 0.7825
2358.000000 0.7825 0.7825 0.7826 0.7826 0.7826
2363.000000 0.7826 0.7828 0.7828 0.7828 0.7828
2368.000000 0.7828 0.7830 0.7831 0.7831 0.7832
2373.000000 0.7833 0.7834 0.7835 0.7836 0.7836
2378.000000 0.7837 0.7838 0.7839 0.7839 0.7840
2383.000000 0.7836 0.7833 0.7830 0.7826 0.7824
2388.000000 0.7821 0.7818 0.7815 0.7811 0.7810
2393.000000 0.7808 0.7807 0.7805 0.7803 0.7801
2398.000000 0.7800 0.7798 0.7797 0.7796 0.7795
2403.000000 0.7794 0.7794 0.7793 0.7792 0.7791
2408.000000 0.7790 0.7789 0.7788 0.7787 0.7787
2413.000000 0.7786 0.7785 0.7785 0.7786 0.7787
2418.000000 0.7788 0.7788 0.7789 0.7790 0.7791
2423.000000 0.7792 0.7793 0.7794 0.7795 0.7796
2428.000000 0.7797 0.7798 0.7799 0.7800 0.7801
2433.000000 0.7801 0.7801 0.7803 0.7804 0.7805
2438.000000 0.7806 0.7807 0.7808 0.7808 0.7808
2443.000000 0.7808 0.7808 0.7808 0.7808 0.7808
2448.000000 0.7808 0.7808 0.7808 0.7808 0.7808
2453.000000 0.7808 0.7808 0.7808 0.7808 0.7808
2458.000000 0.7808 0.7807 0.7807 0.7807 0.7807
2463.000000 0.7806 0.7806 0.7805 0.7805 0.7804
2468.000000 0.7804 0.7804 0.7804 0.7804 0.7804
2473.000000 0.7806 0.7808 0.7811 0.7814 0.7815
2478.000000 0.7815 0.7815 0.7817 0.7817 0.7818
2483.000000 0.7818 0.7819 0.7819 0.7821 0.7821
2488.000000 0.7822 0.7824 0.7825 0.7825 0.7828
2493.000000 0.7828 0.7830 0.7831 0.7833 0.7834
2498.000000 0.7835 0.7836 0.7837 0.7838 0.7839
2503.000000 0.7840 0.7841 0.7842 0.7843 0.7844
2508.000000 0.7845 0.7846 0.7847 0.7848 0.7849
2513.000000 0.7850 0.7851 0.7851 0.7851 0.7851
2518.000000 0.7853 0.7854 0.7855 0.7855 0.7856
2523.000000 0.7857 0.7858 0.7858 0.7858 0.7860
2528.000000 0.7861 0.7861 0.7861 0.7861 0.7862
2533.000000 0.7862 0.7864 0.7864 0.7865 0.7865
2538.000000 0.7865 0.7865 0.7867 0.7867 0.7868
2543.000000 0.7868 0.7868 0.7868 0.7869 0.7871
2548.000000 0.7871 0.7872 0.7874 0.7874 0.7875
2553.000000 0.7875 0.7875 0.7875 0.7875 0.7871
2558.000000 0.7869 0.7867 0.7865 0.7861 0.7860
2563.000000 0.7858 0.7856 0.7853 0.7851 0.7848
2568.000000 0.7846 0.7843 0.7840 0.7836 0.7832
2573.000000 0.7828 0.7825 0.7821 0.7818 0.7814
2578.000000 0.7811 0.7807 0.7804 0.7800 0.7797
2583.000000 0.7794 0.7791 0.7790 0.7789 0.7788
2588.000000 0.7787 0.7785 0.7784 0.7783 0.7782
2593.000000 0.7780 0.7778 0.7778 0.7776 0.7775
2598.000000 0.7775 0.7775 0.7775 0.7775 0.7775
2603.000000 0.7775 0.7776 0.7776 0.7778 0.7778
2608.000000 0.7778 0.7778 0.7778 0.7778 0.7780
2613.000000 0.7782 0.7784 0.7786 0.7788 0.7789
2618.000000 0.7791 0.7793 0.7795 0.7796 0.7798
2623.000000 0.7800 0.7801 0.7801 0.7803 0.7803
2628.000000 0.7803 0.7803 0.7804 0.7804 0.7804
2633.000000 0.7804 0.7805 0.7805 0.7805 0.7805
2638.000000 0.7806 0.7806 0.7806 0.7806 0.7806
2643.000000 0.7806 0.7806 0.7805 0.7805 0.7804
2648.000000 0.7804 0.7804 0.7804 0.7803 0.7803
2653.000000 0.7801 0.7801 0.7801 0.7801 0.7800
2658.000000 0.7800 0.7799 0.7799 0.7798 0.7798
2663.000000 0.7797 0.7797 0.7796 0.7796 0.7795
2668.000000 0.7795 0.7795 0.7795 0.7793 0.7792
2673.000000 0.7790 0.7789 0.7787 0.7786 0.7785
2678.000000 0.7784 0.7782 0.7781 0.7778 0.7778
2683.000000 0.7775 0.7775 0.7772 0.7771 0.7769
2688.000000 0.7768 0.7767 0.7765 0.7764 0.7762
2693.000000 0.7761 0.7761 0.7758 0.7758 0.7756
2698.000000 0.7755 0.7754 0.7753 0.7751 0.7750
2703.000000 0.7749 0.7748 0.7746 0.7745 0.7744
2708.000000 0.7743 0.7742 0.7741 0.7739 0.7738
2713.000000 0.7737 0.7736 0.7735 0.7734 0.7732
2718.000000 0.7731 0.7730 0.7728 0.7726 0.7725
2723.000000 0.7725 0.7724 0.7722 0.7721 0.7719
2728.000000 0.7718 0.7718 0.7717 0.7715 0.7714
2733.000000 0.7712 0.7711 0.7710 0.7708 0.7708
2738.000000 0.7707 0.7705 0.7704 0.7703 0.7701
2743.000000 0.7700 0.7699 0.7698 0.7697 0.7695
2748.000000 0.7694 0.7693 0.7692 0.7690 0.7689
2753.000000 0.7688 0.7687 0.7685 0.7684 0.7682
2758.000000 0.7681 0.7678 0.7676 0.7674 0.7671
2763.000000 0.7669 0.7668 0.7665 0.7664 0.7661
2768.000000 0.7660 0.7658 0.7656 0.7654 0.7651
2773.000000 0.7650 0.7648 0.7646 0.7644 0.7641
2778.000000 0.7639 0.7637 0.7635 0.7633 0.7631
2783.000000 0.7628 0.7626 0.7625 0.7622 0.7621
2788.000000 0.7618 0.7615 0.7614 0.7611 0.7608
2793.000000 0.7606 0.7604 0.7601 0.7599 0.7596
2798.000000 0.7594 0.7591 0.7589 0.7586 0.7584
2803.000000 0.7581 0.7578 0.7575 0.7574 0.7571
2808.000000 0.7568 0.7565 0.7564 0.7561 0.7558
2813.000000 0.7556 0.7554 0.7551 0.7549 0.7546
2818.000000 0.7543 0.7539 0.7535 0.7531 0.7528
2823.000000 0.7524 0.7521 0.7517 0.7514 0.7510
2828.000000 0.7507 0.7503 0.7499 0.7495 0.7492
2833.000000 0.7488 0.7485 0.7480 0.7475 0.7468
2838.000000 0.7461 0.7455 0.7449 0.7442 0.7436
2843.000000 0.7428 0.7422 0.7418 0.7415 0.7412
2848.000000 0.7411 0.7408 0.7408 0.7406 0.7404
2853.000000 0.7401 0.7401 0.7399 0.7397 0.7395
2858.000000 0.7394 0.7392 0.7390 0.7388 0.7387
2863.000000 0.7385 0.7384 0.7378 0.7371 0.7358
2868.000000 0.7345 0.7331 0.7318 0.7301 0.7286
2873.000000 0.7269 0.7255 0.7239 0.7222 0.7205
2878.000000 0.7188 0.7169 0.7153 0.7136 0.7118
2883.000000 0.7112 0.7108 0.7104 0.7101 0.7099
2888.000000 0.7098 0.7096 0.7095 0.7094 0.7093
2893.000000 0.7091 0.7090 0.7089 0.7088 0.7087
2898.000000 0.7087 0.7086 0.7085 0.7084 0.7083
2903.000000 0.7082 0.7081 0.7080 0.7078 0.7071
2908.000000 0.7065 0.7054 0.7043 0.7031 0.7019
2913.000000 0.7008 0.6997 0.6986 0.6975 0.6948
2918.000000 0.6921 0.6891 0.6861 0.6835 0.6808
2923.000000 0.6796 0.6785 0.6772 0.6761 0.6754
2928.000000 0.6746 0.6744 0.6743 0.6740 0.6738
2933.000000 0.6733 0.6728 0.6724 0.6719 0.6712
2938.000000 0.6706 0.6688 0.6669 0.6655 0.6641
2943.000000 0.6628 0.6617 0.6612 0.6608 0.6608
2948.000000 0.6607 0.6606 0.6605 0.6604 0.6604
2953.000000 0.6604 0.6605 0.6605 0.6606 0.6606
2958.000000 0.6607 0.6607 0.6608 0.6608 0.6610
2963.000000 0.6611 0.6611 0.6608 0.6607 0.6604
2968.000000 0.6601 0.6598 0.6595 0.6591 0.6587
2973.000000 0.6575 0.6564 0.6551 0.6541 0.6521
2978.000000 0.6501 0.6475 0.6449 0.6415 0.6381
2983.000000 0.6326 0.6271 0.6162 0.6056 0.5928
2988.000000 0.5801 0.5759 0.5718 0.5676 0.5635
2993.000000 0.5612 0.5590 0.5587 0.5588 0.5589
2998.000000 0.5590 0.5598 0.5603 0.5609 0.5615
3003.000000 0.5623 0.5631 0.5641 0.5652 0.5822
3008.000000 0.5992 0.6193 0.6395 0.6541 0.6688
3013.000000 0.6722 0.6758 0.6786 0.6814 0.6832
3018.000000 0.6851 0.6868 0.6886 0.6901 0.6918
3023.000000 0.6933 0.6948 0.6961 0.6975 0.6984
3028.000000 0.6993 0.7001 0.7008 0.7014 0.7018
3033.000000 0.7019 0.7021 0.7021 0.7021 0.7022
3038.000000 0.7022 0.7021 0.7021 0.7019 0.7018
3043.000000 0.7018 0.7017 0.7014 0.7011 0.7008
3048.000000 0.7007 0.7004 0.7001 0.6998 0.6994
3053.000000 0.6989 0.6984 0.6976 0.6969 0.6958
3058.000000 0.6947 0.6932 0.6918 0.6898 0.6878
3063.000000 0.6858 0.6839 0.6817 0.6796 0.6771
3068.000000 0.6749 0.6721 0.6693 0.6665 0.6637
3073.000000 0.6608 0.6581 0.6554 0.6526 0.6499
3078.000000 0.6471 0.6446 0.6419 0.6396 0.6373
3083.000000 0.6354 0.6336 0.6336 0.6336 0.6336
3088.000000 0.6337 0.6338 0.6340 0.6341 0.6342
3093.000000 0.6342 0.6342 0.6341 0.6340 0.6339
3098.000000 0.6338 0.6332 0.6326 0.6317 0.6309
3103.000000 0.6294 0.6280 0.6250 0.6221 0.6138
3108.000000 0.6055 0.5972 0.5889 0.5806 0.5723
3113.000000 0.5640 0.5557 0.5474 0.5391 0.5308
3118.000000 0.5225 0.5142 0.5060 0.4977 0.4894
3123.000000 0.4810 0.4728 0.4645 0.4562 0.4479
3128.000000 0.4396 0.4312 0.4230 0.4147 0.4064
3133.000000 0.3980 0.3899 0.3816 0.3732 0.3650
3138.000000 0.3566 0.3484 0.3400 0.3373 0.3345
3143.000000 0.3344 0.3343 0.3346 0.3349 0.3356
3148.000000 0.3338 0.3418 0.3475 0.3642 0.3809
3153.000000 0.3976 0.4144 0.4310 0.4479 0.4646
3158.000000 0.4814 0.4981 0.5149 0.5316 0.5484
3163.000000 0.5651 0.5819 0.5986 0.6154 0.6321
3168.000000 0.6488 0.6544 0.6600 0.6600 0.6615
3173.000000 0.6597 0.6595 0.6584 0.6572 0.6541
3178.000000 0.6510 0.6478 0.6448 0.6417 0.6386
3183.000000 0.6355 0.6324 0.6304 0.6284 0.6287
3188.000000 0.6273 0.6388 0.6487 0.6607 0.6726
3193.000000 0.6846 0.6965 0.7085 0.7204 0.7239
3198.000000 0.7275 0.7303 0.7331 0.7340 0.7350
3203.000000 0.7357 0.7364 0.7368 0.7371 0.7371
3208.000000 0.7371 0.7381 0.7383 0.7385 0.7387
3213.000000 0.7388 0.7390 0.7391 0.7393 0.7394
3218.000000 0.7396 0.7397 0.7399 0.7400 0.7401
3223.000000 0.7401 0.7403 0.7403 0.7404 0.7405
3228.000000 0.7406 0.7406 0.7406 0.7406 0.7407
3233.000000 0.7407 0.7408 0.7408 0.7408 0.7408
3238.000000 0.7408 0.7408 0.7410 0.7410 0.7410
3243.000000 0.7410 0.7410 0.7410 0.7411 0.7411
3248.000000 0.7411 0.7411 0.7411 0.7411 0.7411
3253.000000 0.7411 0.7411 0.7411 0.7411 0.7411
3258.000000 0.7411 0.7411 0.7411 0.7410 0.7410
3263.000000 0.7408 0.7408 0.7407 0.7407 0.7406
3268.000000 0.7406 0.7405 0.7404 0.7403 0.7403
3273.000000 0.7401 0.7401 0.7400 0.7400 0.7399
3278.000000 0.7399 0.7398 0.7397 0.7396 0.7395
3283.000000 0.7394 0.7394 0.7393 0.7392 0.7391
3288.000000 0.7391 0.7390 0.7389 0.7388 0.7388
3293.000000 0.7387 0.7386 0.7385 0.7385 0.7384
3298.000000 0.7383 0.7382 0.7382 0.7381 0.7380
3303.000000 0.7378 0.7378 0.7376 0.7375 0.7375
3308.000000 0.7374 0.7372 0.7371 0.7371 0.7369
3313.000000 0.7368 0.7368 0.7367 0.7365 0.7364
3318.000000 0.7362 0.7358 0.7355 0.7351 0.7348
3323.000000 0.7344 0.7340 0.7336 0.7333 0.7330
3328.000000 0.7326 0.7322 0.7319 0.7317 0.7314
3333.000000 0.7311 0.7308 0.7306 0.7304 0.7304
3338.000000 0.7304 0.7304 0.7304 0.7304 0.7304
3343.000000 0.7304 0.7304 0.7304 0.7304 0.7303
3348.000000 0.7303 0.7303 0.7303 0.7301 0.7301
3353.000000 0.7301 0.7301 0.7300 0.7300 0.7299
3358.000000 0.7299 0.7299 0.7299 0.7298 0.7298
3363.000000 0.7297 0.7297 0.7297 0.7297 0.7296
3368.000000 0.7296 0.7296 0.7296 0.7295 0.7295
3373.000000 0.7295 0.7295 0.7294 0.7294 0.7294
3378.000000 0.7294 0.7293 0.7293 0.7292 0.7292
3383.000000 0.7291 0.7291 0.7290 0.7290 0.7289
3388.000000 0.7289 0.7288 0.7287 0.7286 0.7286
3393.000000 0.7285 0.7284 0.7283 0.7283 0.7282
3398.000000 0.7282 0.7281 0.7280 0.7278 0.7278
3403.000000 0.7278 0.7276 0.7275 0.7275 0.7274
3408.000000 0.7272 0.7271 0.7268 0.7267 0.7265
3413.000000 0.7264 0.7261 0.7260 0.7258 0.7256
3418.000000 0.7255 0.7253 0.7251 0.7249 0.7248
3423.000000 0.7245 0.7242 0.7239 0.7237 0.7234
3428.000000 0.7231 0.7228 0.7225 0.7225 0.7224
3433.000000 0.7222 0.7221 0.7221 0.7219 0.7218
3438.000000 0.7218 0.7217 0.7215 0.7215 0.7215
3443.000000 0.7214 0.7214 0.7212 0.7212 0.7211
3448.000000 0.7211 0.7210 0.7210 0.7208 0.7208
3453.000000 0.7208 0.7208 0.7207 0.7207 0.7206
3458.000000 0.7206 0.7206 0.7206 0.7205 0.7205
3463.000000 0.7205 0.7205 0.7205 0.7205 0.7204
3468.000000 0.7204 0.7204 0.7204 0.7204 0.7204
3473.000000 0.7203 0.7203 0.7203 0.7203 0.7203
3478.000000 0.7203 0.7201 0.7201 0.7201 0.7201
3483.000000 0.7201 0.7201 0.7201 0.7201 0.7201
3488.000000 0.7201 0.7200 0.7200 0.7199 0.7199
3493.000000 0.7198 0.7198 0.7197 0.7197 0.7196
3498.000000 0.7196 0.7195 0.7195 0.7194 0.7194
3503.000000 0.7194 0.7194 0.7193 0.7193 0.7192
3508.000000 0.7192 0.7191 0.7191 0.7190 0.7190
3513.000000 0.7189 0.7189 0.7188 0.7188 0.7187
3518.000000 0.7187 0.7186 0.7186 0.7185 0.7185
3523.000000 0.7185 0.7185 0.7184 0.7184 0.7183
3528.000000 0.7183 0.7182 0.7182 0.7181 0.7181
3533.000000 0.7180 0.7180 0.7178 0.7178 0.7178
3538.000000 0.7178 0.7176 0.7176 0.7175 0.7175
3543.000000 0.7175 0.7175 0.7174 0.7174 0.7172
3548.000000 0.7172 0.7171 0.7171 0.7171 0.7171
3553.000000 0.7169 0.7169 0.7168 0.7168 0.7168
3558.000000 0.7168 0.7167 0.7167 0.7165 0.7165
3563.000000 0.7165 0.7165 0.7165 0.7165 0.7165
3568.000000 0.7165 0.7165 0.7165 0.7165 0.7165
3573.000000 0.7165 0.7165 0.7164 0.7164 0.7164
3578.000000 0.7164 0.7164 0.7164 0.7164 0.7164
3583.000000 0.7164 0.7164 0.7165 0.7168 0.7171
3588.000000 0.7172 0.7175 0.7178 0.7180 0.7182
3593.000000 0.7182 0.7183 0.7183 0.7183 0.7183
3598.000000 0.7183 0.7183 0.7183 0.7183 0.7183
3603.000000 0.7183 0.7183 0.7183 0.7183 0.7182
3608.000000 0.7182 0.7182 0.7182 0.7181 0.7181
3613.000000 0.7181 0.7181 0.7180 0.7180 0.7178
3618.000000 0.7178 0.7178 0.7178 0.7178 0.7178
3623.000000 0.7176 0.7176 0.7176 0.7176 0.7175
3628.000000 0.7175 0.7175 0.7175 0.7175 0.7175
3633.000000 0.7174 0.7174 0.7174 0.7174 0.7174
3638.000000 0.7174 0.7174 0.7174 0.7174 0.7174
3643.000000 0.7172 0.7172 0.7172 0.7172 0.7172
3648.000000 0.7172 0.7172 0.7172 0.7172 0.7172
3653.000000 0.7171 0.7171 0.7171 0.7171 0.7171
3658.000000 0.7171 0.7171 0.7171 0.7169 0.7169
3663.000000 0.7168 0.7168 0.7168 0.7168 0.7168
3668.000000 0.7168 0.7167 0.7167 0.7165 0.7165
3673.000000 0.7165 0.7164 0.7162 0.7161 0.7160
3678.000000 0.7158 0.7157 0.7156 0.7154 0.7153
3683.000000 0.7151 0.7151 0.7149 0.7147 0.7144
3688.000000 0.7142 0.7140 0.7138 0.7135 0.7133
3693.000000 0.7130 0.7128 0.7125 0.7122 0.7119
3698.000000 0.7118 0.7115 0.7112 0.7110 0.7107
3703.000000 0.7104 0.7101 0.7099 0.7096 0.7096
3708.000000 0.7096 0.7096 0.7096 0.7096 0.7096
3713.000000 0.7096 0.7096 0.7096 0.7096 0.7096
3718.000000 0.7096 0.7096 0.7097 0.7097 0.7097
3723.000000 0.7097 0.7098 0.7098 0.7099 0.7099
3728.000000 0.7099 0.7099 0.7100 0.7100 0.7100
3733.000000 0.7100 0.7100 0.7098 0.7097 0.7095
3738.000000 0.7094 0.7092 0.7091 0.7089 0.7088
3743.000000 0.7086 0.7085 0.7083 0.7082 0.7078
3748.000000 0.7076 0.7074 0.7071 0.7068 0.7065
3753.000000 0.7062 0.7061 0.7058 0.7056 0.7055
3758.000000 0.7054 0.7053 0.7053 0.7051 0.7051
3763.000000 0.7051 0.7051 0.7050 0.7050 0.7049
3768.000000 0.7049 0.7049 0.7049 0.7048 0.7048
3773.000000 0.7048 0.7048 0.7048 0.7048 0.7047
3778.000000 0.7047 0.7047 0.7047 0.7047 0.7047
3783.000000 0.7047 0.7047 0.7046 0.7046 0.7046
3788.000000 0.7046
##END=
