##TITLE=5',5''-DIBROMO-O-CRESOL SULFONE PHTHALEIN SODIUM SALT
$$ E.K. (W.L.) NO. 6266
##JCAMP-DX=4.24
##DATA TYPE=INFRARED SPECTRUM
##CLASS=COBLENTZ
##ORIGIN=WYANDOTTE CHEMICALS CORP., WYANDOTTE, MICHIGAN, USA
##OWNER=COBLENTZ SOCIETY
Collection (C) 2018 copyright by the U.S. Secretary of Commerce
on behalf of the United States of America. All rights reserved.
##DATE=Not specified, most likely prior to 1970
##MOLFORM=C21 H15 Br2 O5 S Na
##SOURCE REFERENCE=COBLENTZ NO. 231
##$NIST ID=B6000231
##$NIST SOURCE=COBLENTZ
##$NIST IMAGE=cob231
##SPECTROMETER/DATA SYSTEM=Not specified, most likely a prism, grating, or hybrid spectrometer.
##SAMPLING PROCEDURE=TRANSMISSION
##RESOLUTION=4
##DATA PROCESSING=DIGITIZED BY NIST FROM HARD COPY
##XUNITS=MICROMETERS
##YUNITS=TRANSMITTANCE
##XFACTOR=1.000000
##YFACTOR=1
##DELTAX=000.006477
##FIRSTX=2.028
##LASTX=15.9984
##FIRSTY=0.629
##MAXX=15.9984
##MINX=2.028
##MAXY=0.934
##MINY=0.024
##NPOINTS=2158
##XYDATA=(X++(Y..Y))
2.028000 0.6290 0.6290 0.6300 0.6320 0.6340
2.060398 0.6350 0.6370 0.6370 0.6390 0.6390
2.093000 0.6390 0.6400 0.6430 0.6450 0.6470
2.125398 0.6480 0.6480 0.6480 0.6480 0.6470
2.158000 0.6470 0.6430 0.6420 0.6420 0.6400
2.190398 0.6370 0.6370 0.6350 0.6340 0.6340
2.223000 0.6340 0.6340 0.6340 0.6370 0.6390
2.255398 0.6390 0.6400 0.6400 0.6430 0.6480
2.288000 0.6520 0.6550 0.6560 0.6580 0.6600
2.320398 0.6600 0.6610 0.6630 0.6650 0.6650
2.352000 0.6660 0.6660 0.6660 0.6660 0.6660
2.384398 0.6660 0.6690 0.6690 0.6730 0.6740
2.417000 0.6740 0.6760 0.6780 0.6790 0.6810
2.449398 0.6820 0.6840 0.6840 0.6860 0.6870
2.482000 0.6910 0.6970 0.6990 0.7000 0.7000
2.514398 0.7020 0.7040 0.7040 0.7040 0.7040
2.547000 0.7040 0.7050 0.7080 0.7100 0.7130
2.579398 0.7150 0.7200 0.7200 0.7260 0.7310
2.611000 0.7380 0.7390 0.7410 0.7430 0.7440
2.643398 0.7440 0.7430 0.7390 0.7380 0.7360
2.676000 0.7360 0.7360 0.7340 0.7300 0.7260
2.708398 0.7210 0.7180 0.7120 0.7050 0.7000
2.741000 0.6940 0.6840 0.6730 0.6630 0.6550
2.773398 0.6520 0.6450 0.6400 0.6390 0.6370
2.806000 0.6300 0.6260 0.6210 0.6140 0.6030
2.838398 0.5980 0.5900 0.5850 0.5800 0.5780
2.870000 0.5750 0.5730 0.5720 0.5670 0.5640
2.902398 0.5600 0.5590 0.5590 0.5570 0.5560
2.935000 0.5540 0.5520 0.5510 0.5510 0.5510
2.967398 0.5510 0.5510 0.5510 0.5510 0.5520
3.000000 0.5540 0.5540 0.5570 0.5590 0.5600
3.032398 0.5600 0.5600 0.5600 0.5640 0.5650
3.065000 0.5690 0.5720 0.5730 0.5750 0.5750
3.097398 0.5730 0.5730 0.5720 0.5720 0.5720
3.130000 0.5720 0.5720 0.5700 0.5700 0.5700
3.162398 0.5700 0.5700 0.5700 0.5700 0.5700
3.194000 0.5720 0.5720 0.5750 0.5750 0.5770
3.226398 0.5730 0.5650 0.5470 0.5200 0.4910
3.259000 0.4600 0.4420 0.4290 0.4290 0.4470
3.291398 0.4470 0.4760 0.4760 0.4560 0.4040
3.324000 0.3620 0.2610 0.2090 0.0990 0.0430
3.356398 0.0260 0.0240 0.0260 0.0270 0.0320
3.389000 0.0320 0.0320 0.0300 0.0290 0.0300
3.421398 0.0300 0.0320 0.0340 0.0340 0.0350
3.453000 0.0370 0.0350 0.0350 0.0350 0.0350
3.485398 0.0370 0.0370 0.0390 0.0420 0.0450
3.518000 0.0520 0.0690 0.1210 0.1730 0.2300
3.550398 0.3100 0.3730 0.4420 0.4890 0.5470
3.583000 0.5560 0.5640 0.5690 0.5750 0.5880
3.615398 0.6080 0.6270 0.6340 0.6430 0.6470
3.648000 0.6480 0.6560 0.6630 0.6680 0.6690
3.680398 0.6730 0.6740 0.6810 0.6910 0.6990
3.712000 0.7100 0.7200 0.7280 0.7330 0.7360
3.744398 0.7380 0.7410 0.7430 0.7460 0.7490
3.777000 0.7520 0.7540 0.7540 0.7540 0.7520
3.809398 0.7520 0.7520 0.7520 0.7540 0.7560
3.842000 0.7600 0.7620 0.7650 0.7650 0.7670
3.874398 0.7690 0.7720 0.7750 0.7780 0.7830
3.907000 0.7860 0.7910 0.7930 0.7950 0.7960
3.939398 0.7980 0.8010 0.8030 0.8080 0.8080
3.972000 0.8090 0.8130 0.8140 0.8140 0.8140
4.004398 0.8160 0.8160 0.8170 0.8190 0.8240
4.036000 0.8260 0.8270 0.8270 0.8270 0.8270
4.068398 0.8270 0.8270 0.8290 0.8320 0.8340
4.101000 0.8340 0.8350 0.8350 0.8350 0.8350
4.133398 0.8350 0.8340 0.8340 0.8340 0.8320
4.166000 0.8320 0.8320 0.8320 0.8320 0.8320
4.198398 0.8340 0.8340 0.8340 0.8340 0.8340
4.231000 0.8340 0.8340 0.8320 0.8320 0.8340
4.263398 0.8350 0.8350 0.8350 0.8350 0.8350
4.295000 0.8350 0.8320 0.8260 0.8190 0.8110
4.327398 0.8030 0.8000 0.7950 0.7930 0.7950
4.360000 0.8010 0.8080 0.8190 0.8220 0.8260
4.392398 0.8370 0.8420 0.8450 0.8480 0.8530
4.425000 0.8530 0.8500 0.8500 0.8480 0.8500
4.457398 0.8520 0.8550 0.8560 0.8600 0.8600
4.490000 0.8580 0.8580 0.8580 0.8580 0.8580
4.522398 0.8580 0.8600 0.8610 0.8630 0.8650
4.554000 0.8650 0.8680 0.8680 0.8660 0.8660
4.586398 0.8650 0.8650 0.8610 0.8630 0.8650
4.619000 0.8690 0.8680 0.8680 0.8680 0.8680
4.651398 0.8660 0.8660 0.8660 0.8660 0.8680
4.684000 0.8680 0.8680 0.8680 0.8680 0.8730
4.716398 0.8760 0.8840 0.8870 0.8890 0.8940
4.749000 0.8940 0.8920 0.8920 0.8920 0.8920
4.781398 0.8920 0.8970 0.8970 0.8950 0.8950
4.813000 0.8940 0.8920 0.8920 0.8920 0.8920
4.845398 0.8920 0.8940 0.8940 0.8950 0.8950
4.878000 0.8950 0.8990 0.8990 0.9000 0.9000
4.910398 0.9000 0.9020 0.9020 0.9040 0.9040
4.943000 0.9050 0.9050 0.9070 0.9050 0.9050
4.975398 0.9050 0.9050 0.9040 0.9020 0.9000
5.008000 0.8970 0.8950 0.8940 0.8920 0.8920
5.040398 0.8950 0.8990 0.8990 0.8990 0.9000
5.073000 0.9000 0.8970 0.8970 0.8950 0.8950
5.105398 0.8940 0.8910 0.8870 0.8840 0.8810
5.137000 0.8810 0.8820 0.8820 0.8820 0.8810
5.169398 0.8810 0.8810 0.8810 0.8820 0.8840
5.202000 0.8840 0.8860 0.8860 0.8860 0.8860
5.234398 0.8860 0.8860 0.8910 0.8940 0.8970
5.267000 0.9000 0.9020 0.9050 0.9050 0.9050
5.299398 0.9080 0.9100 0.9120 0.9120 0.9120
5.332000 0.9120 0.9130 0.9130 0.9130 0.9130
5.364398 0.9130 0.9130 0.9150 0.9150 0.9170
5.396000 0.9180 0.9200 0.9210 0.9210 0.9230
5.428398 0.9250 0.9250 0.9260 0.9260 0.9260
5.461000 0.9260 0.9250 0.9250 0.9250 0.9260
5.493398 0.9280 0.9300 0.9300 0.9300 0.9300
5.526000 0.9300 0.9300 0.9300 0.9300 0.9280
5.558398 0.9280 0.9280 0.9280 0.9280 0.9300
5.591000 0.9330 0.9330 0.9330 0.9340 0.9300
5.623398 0.9280 0.9260 0.9250 0.9210 0.9200
5.655000 0.9200 0.9200 0.9200 0.9200 0.9180
5.687398 0.9150 0.9150 0.9130 0.9100 0.9080
5.720000 0.9070 0.9040 0.8990 0.8940 0.8890
5.752398 0.8860 0.8820 0.8740 0.8680 0.8600
5.785000 0.8400 0.8290 0.8140 0.8010 0.7880
5.817398 0.7770 0.7620 0.7510 0.7510 0.7620
5.850000 0.7620 0.7690 0.7730 0.7800 0.8000
5.882398 0.8090 0.8270 0.8390 0.8390 0.8390
5.915000 0.8390 0.8390 0.8400 0.8400 0.8390
5.947398 0.8370 0.8350 0.8340 0.8340 0.8320
5.979000 0.8320 0.8350 0.8320 0.8290 0.8210
6.011398 0.8170 0.8140 0.8040 0.8010 0.7910
6.044000 0.7820 0.7700 0.7570 0.7510 0.7430
6.076398 0.7310 0.7020 0.6630 0.6300 0.6090
6.109000 0.6000 0.5670 0.5510 0.5180 0.5100
6.141398 0.5020 0.5050 0.5050 0.5130 0.5130
6.174000 0.5050 0.5000 0.4970 0.4920 0.4910
6.206398 0.4910 0.4920 0.4920 0.4910 0.4870
6.238000 0.4860 0.4780 0.4820 0.4890 0.5310
6.270398 0.5650 0.6010 0.6290 0.6500 0.6820
6.303000 0.7130 0.7250 0.7390 0.7440 0.7470
6.335398 0.7510 0.7510 0.7510 0.7490 0.7430
6.368000 0.7340 0.7200 0.7100 0.6910 0.6870
6.400398 0.6860 0.6870 0.6870 0.6910 0.6920
6.433000 0.6940 0.6970 0.6990 0.7120 0.7210
6.465398 0.7340 0.7390 0.7430 0.7470 0.7430
6.497000 0.7330 0.7180 0.7070 0.6860 0.6680
6.529398 0.6560 0.6390 0.6240 0.6030 0.5950
6.562000 0.5900 0.5860 0.5880 0.5900 0.5900
6.594398 0.5880 0.5860 0.5850 0.5850 0.5860
6.627000 0.5910 0.5930 0.5960 0.6010 0.6010
6.659398 0.6040 0.6040 0.5800 0.5330 0.5050
6.692000 0.4760 0.4170 0.4000 0.3750 0.3670
6.724398 0.3590 0.3560 0.3560 0.3540 0.3380
6.756000 0.3200 0.3020 0.2840 0.2660 0.2480
6.788398 0.2300 0.2110 0.2010 0.1910 0.1910
6.821000 0.1950 0.1950 0.2000 0.2000 0.1950
6.853398 0.1960 0.1960 0.1980 0.2000 0.2000
6.886000 0.2000 0.1930 0.1930 0.2010 0.2160
6.918398 0.2260 0.2370 0.2500 0.2760 0.2990
6.951000 0.3170 0.3360 0.3470 0.3570 0.3700
6.983398 0.3910 0.4390 0.4730 0.5340 0.5460
7.016000 0.5540 0.5590 0.5650 0.5720 0.5700
7.048398 0.5700 0.5620 0.5560 0.5330 0.5170
7.080000 0.5100 0.5000 0.4910 0.4810 0.4650
7.112398 0.4600 0.4520 0.4520 0.4560 0.4600
7.145000 0.4690 0.4780 0.4870 0.4910 0.4940
7.177398 0.4940 0.4860 0.4530 0.4350 0.4030
7.210000 0.3700 0.3510 0.3280 0.3000 0.2840
7.242398 0.2680 0.2400 0.2140 0.2010 0.1830
7.275000 0.1590 0.1360 0.1360 0.1430 0.1540
7.307398 0.1690 0.2000 0.2210 0.2210 0.2010
7.339000 0.1700 0.1410 0.1120 0.0950 0.0950
7.371398 0.1120 0.1150 0.1310 0.1470 0.1620
7.404000 0.1880 0.2130 0.2450 0.2630 0.2730
7.436398 0.2810 0.2890 0.2950 0.3000 0.3070
7.469000 0.3250 0.3460 0.3640 0.3770 0.3930
7.501398 0.3930 0.3880 0.3860 0.3770 0.3560
7.534000 0.3300 0.3180 0.3040 0.3020 0.3000
7.566398 0.2950 0.3000 0.3020 0.3230 0.3590
7.598000 0.3950 0.4080 0.4210 0.4350 0.4500
7.630398 0.4560 0.4610 0.4730 0.4760 0.4810
7.663000 0.4780 0.4740 0.4630 0.4430 0.4390
7.695398 0.4350 0.4300 0.4270 0.4270 0.4270
7.728000 0.4300 0.4370 0.4610 0.4740 0.4820
7.760398 0.4940 0.5150 0.5150 0.5180 0.5130
7.793000 0.5070 0.5020 0.4990 0.4940 0.4870
7.825398 0.4870 0.4860 0.4860 0.4860 0.4890
7.858000 0.4890 0.4860 0.4840 0.4820 0.4820
7.890398 0.4860 0.4950 0.4950 0.4950 0.4920
7.922000 0.4920 0.4920 0.4920 0.4920 0.4920
7.954398 0.4910 0.4920 0.4920 0.4920 0.4940
7.987000 0.4950 0.4990 0.4990 0.5020 0.5020
8.019398 0.5020 0.4990 0.4940 0.4910 0.4820
8.052000 0.4780 0.4630 0.4480 0.4430 0.4400
8.084398 0.4370 0.4340 0.4290 0.4270 0.4240
8.117000 0.4170 0.4110 0.4040 0.4030 0.4010
8.149398 0.4000 0.3960 0.3930 0.3900 0.3880
8.181000 0.3860 0.3850 0.3830 0.3800 0.3770
8.213398 0.3730 0.3690 0.3620 0.3540 0.3470
8.246000 0.3410 0.3300 0.3180 0.3050 0.2990
8.278398 0.2890 0.2730 0.2580 0.2390 0.2170
8.311000 0.2130 0.2030 0.2010 0.1930 0.1820
8.343398 0.1780 0.1720 0.1690 0.1650 0.1620
8.376000 0.1620 0.1640 0.1730 0.1910 0.2040
8.408398 0.2160 0.2170 0.2240 0.2340 0.2400
8.440000 0.2480 0.2520 0.2520 0.2520 0.2500
8.472398 0.2450 0.2350 0.2300 0.2240 0.2160
8.505000 0.2010 0.1930 0.1900 0.1860 0.1830
8.537398 0.1820 0.1800 0.1750 0.1730 0.1720
8.570000 0.1700 0.1700 0.1690 0.1690 0.1690
8.602398 0.1690 0.1700 0.1720 0.1730 0.1770
8.635000 0.1780 0.1800 0.1830 0.1900 0.1950
8.667398 0.1960 0.1950 0.1930 0.1930 0.1930
8.699000 0.1930 0.1950 0.1930 0.1910 0.1860
8.731398 0.1830 0.1800 0.1770 0.1700 0.1540
8.764000 0.1490 0.1440 0.1430 0.1340 0.1210
8.796398 0.1070 0.0990 0.0860 0.0780 0.0710
8.829000 0.0610 0.0500 0.0450 0.0430 0.0420
8.861398 0.0400 0.0390 0.0390 0.0390 0.0390
8.894000 0.0390 0.0390 0.0400 0.0400 0.0400
8.926398 0.0400 0.0400 0.0430 0.0470 0.0480
8.959000 0.0480 0.0500 0.0560 0.0600 0.0650
8.991398 0.0690 0.0780 0.0790 0.0780 0.0780
9.023000 0.0790 0.0810 0.0810 0.0710 0.0630
9.055398 0.0580 0.0530 0.0520 0.0470 0.0430
9.088000 0.0420 0.0400 0.0390 0.0390 0.0370
9.120398 0.0350 0.0350 0.0350 0.0340 0.0340
9.153000 0.0340 0.0340 0.0340 0.0340 0.0340
9.185398 0.0340 0.0340 0.0340 0.0340 0.0340
9.218000 0.0340 0.0340 0.0350 0.0370 0.0370
9.250398 0.0390 0.0390 0.0430 0.0430 0.0450
9.282000 0.0450 0.0480 0.0530 0.0600 0.0610
9.314398 0.0660 0.0740 0.0810 0.0990 0.1100
9.347000 0.1210 0.1300 0.1380 0.1520 0.1700
9.379398 0.1770 0.1930 0.2010 0.2240 0.2340
9.412000 0.2430 0.2580 0.2650 0.2710 0.2760
9.444398 0.2990 0.3050 0.3180 0.3230 0.3280
9.477000 0.3330 0.3390 0.3470 0.3540 0.3600
9.509398 0.3640 0.3670 0.3700 0.3750 0.3800
9.541000 0.3850 0.3860 0.3910 0.3960 0.4000
9.573398 0.4010 0.4010 0.4010 0.4000 0.4000
9.606000 0.3960 0.3950 0.3930 0.3900 0.3880
9.638398 0.3850 0.3780 0.3720 0.3690 0.3620
9.671000 0.3540 0.3460 0.3440 0.3430 0.3390
9.703398 0.3340 0.3330 0.3230 0.3130 0.3070
9.736000 0.3000 0.2840 0.2760 0.2710 0.2600
9.768398 0.2500 0.2480 0.2450 0.2420 0.2420
9.801000 0.2430 0.2450 0.2450 0.2450 0.2450
9.833398 0.2450 0.2450 0.2470 0.2500 0.2530
9.865000 0.2530 0.2530 0.2560 0.2650 0.2730
9.897398 0.2820 0.2920 0.3020 0.3120 0.3180
9.930000 0.3300 0.3390 0.3470 0.3540 0.3690
9.962398 0.3800 0.3900 0.4000 0.4040 0.4140
9.995000 0.4260 0.4350 0.4450 0.4470 0.4560
10.027398 0.4580 0.4580 0.4600 0.4600 0.4630
10.060000 0.4690 0.4740 0.4760 0.4760 0.4740
10.092398 0.4690 0.4660 0.4650 0.4650 0.4630
10.124000 0.4630 0.4610 0.4600 0.4600 0.4610
10.156398 0.4610 0.4650 0.4660 0.4690 0.4710
10.189000 0.4760 0.4790 0.4910 0.5020 0.5080
10.221398 0.5150 0.5170 0.5230 0.5310 0.5440
10.254000 0.5520 0.5650 0.5700 0.5780 0.5860
10.286398 0.5910 0.5930 0.5980 0.5980 0.5980
10.319000 0.5980 0.5980 0.5980 0.5960 0.5950
10.351398 0.5910 0.5850 0.5820 0.5720 0.5620
10.383000 0.5590 0.5560 0.5540 0.5540 0.5560
10.415398 0.5560 0.5600 0.5640 0.5650 0.5690
10.448000 0.5750 0.5800 0.5850 0.5880 0.6000
10.480398 0.6030 0.6040 0.6040 0.6060 0.6090
10.513000 0.6160 0.6170 0.6220 0.6260 0.6270
10.545398 0.6300 0.6340 0.6340 0.6340 0.6350
10.578000 0.6370 0.6370 0.6350 0.6340 0.6320
10.610398 0.6270 0.6220 0.6130 0.6040 0.6040
10.642000 0.6030 0.6030 0.6040 0.6040 0.6040
10.674398 0.6060 0.6090 0.6090 0.6110 0.6140
10.707000 0.6140 0.6160 0.6210 0.6260 0.6300
10.739398 0.6320 0.6340 0.6340 0.6340 0.6320
10.772000 0.6290 0.6220 0.6130 0.6030 0.5880
10.804398 0.5850 0.5820 0.5800 0.5750 0.5750
10.837000 0.5800 0.5830 0.5930 0.6010 0.6040
10.869398 0.6060 0.6060 0.6080 0.6110 0.6110
10.902000 0.6110 0.6110 0.6130 0.6170 0.6210
10.934398 0.6300 0.6370 0.6400 0.6400 0.6420
10.966000 0.6420 0.6420 0.6420 0.6420 0.6420
10.998398 0.6400 0.6400 0.6390 0.6350 0.6340
11.031000 0.6300 0.6290 0.6290 0.6290 0.6270
11.063398 0.6260 0.6240 0.6220 0.6210 0.6170
11.096000 0.6140 0.6080 0.6030 0.5980 0.5930
11.128398 0.5910 0.5900 0.5860 0.5850 0.5830
11.161000 0.5830 0.5830 0.5830 0.5850 0.5860
11.193398 0.5910 0.5950 0.6010 0.6030 0.6030
11.225000 0.6030 0.6030 0.6010 0.6000 0.5880
11.257398 0.5750 0.5600 0.5520 0.5310 0.5170
11.290000 0.5070 0.5020 0.4950 0.4890 0.4740
11.322398 0.4740 0.4870 0.4890 0.4950 0.5130
11.355000 0.5260 0.5510 0.5650 0.5730 0.5850
11.387398 0.6030 0.6080 0.6260 0.6260 0.6390
11.420000 0.6550 0.6600 0.6710 0.6780 0.6870
11.452398 0.7000 0.7050 0.7080 0.7150 0.7250
11.484000 0.7340 0.7440 0.7470 0.7540 0.7600
11.516398 0.7640 0.7650 0.7690 0.7700 0.7730
11.549000 0.7780 0.7820 0.7820 0.7820 0.7820
11.581398 0.7820 0.7850 0.7850 0.7830 0.7820
11.614000 0.7780 0.7750 0.7730 0.7700 0.7670
11.646398 0.7650 0.7640 0.7640 0.7640 0.7640
11.679000 0.7620 0.7570 0.7540 0.7490 0.7460
11.711398 0.7430 0.7390 0.7360 0.7310 0.7260
11.744000 0.7230 0.7170 0.7100 0.7040 0.7000
11.776398 0.6970 0.6950 0.6910 0.6890 0.6860
11.808000 0.6810 0.6710 0.6690 0.6680 0.6660
11.840398 0.6650 0.6650 0.6630 0.6610 0.6600
11.873000 0.6560 0.6530 0.6530 0.6530 0.6530
11.905398 0.6550 0.6610 0.6630 0.6650 0.6660
11.938000 0.6690 0.6710 0.6760 0.6820 0.6870
11.970398 0.6990 0.7040 0.7080 0.7180 0.7260
12.003000 0.7340 0.7430 0.7460 0.7520 0.7560
12.035398 0.7570 0.7570 0.7620 0.7670 0.7750
12.067000 0.7750 0.7750 0.7750 0.7750 0.7750
12.099398 0.7770 0.7780 0.7780 0.7800 0.7800
12.132000 0.7780 0.7770 0.7750 0.7720 0.7670
12.164398 0.7650 0.7650 0.7650 0.7620 0.7590
12.197000 0.7560 0.7540 0.7490 0.7470 0.7490
12.229398 0.7490 0.7520 0.7520 0.7520 0.7520
12.262000 0.7520 0.7510 0.7460 0.7410 0.7390
12.294398 0.7380 0.7360 0.7360 0.7330 0.7300
12.326000 0.7210 0.7170 0.7080 0.7050 0.7050
12.358398 0.7020 0.7020 0.7020 0.7000 0.6990
12.391000 0.6950 0.6950 0.6950 0.6950 0.6950
12.423398 0.6950 0.6950 0.6970 0.7000 0.7000
12.456000 0.7000 0.7000 0.6970 0.6950 0.6940
12.488398 0.6920 0.6890 0.6860 0.6820 0.6760
12.521000 0.6730 0.6660 0.6630 0.6580 0.6550
12.553398 0.6430 0.6390 0.6320 0.6260 0.6160
12.585000 0.6040 0.6010 0.5980 0.5880 0.5750
12.617398 0.5650 0.5590 0.5460 0.5360 0.5300
12.650000 0.5130 0.5040 0.5020 0.4990 0.4940
12.682398 0.4870 0.4840 0.4820 0.4730 0.4710
12.715000 0.4690 0.4680 0.4660 0.4650 0.4630
12.747398 0.4560 0.4550 0.4530 0.4480 0.4420
12.780000 0.4350 0.4290 0.4240 0.4130 0.4030
12.812398 0.3850 0.3780 0.3750 0.3730 0.3620
12.845000 0.3540 0.3460 0.3430 0.3410 0.3380
12.877398 0.3340 0.3330 0.3310 0.3280 0.3330
12.909000 0.3340 0.3490 0.3570 0.3650 0.3700
12.941398 0.3720 0.3780 0.3830 0.3880 0.3930
12.974000 0.3950 0.3960 0.4000 0.4030 0.4030
13.006398 0.4030 0.4040 0.4080 0.4080 0.4090
13.039000 0.4110 0.4110 0.4130 0.4130 0.4110
13.071398 0.4110 0.4110 0.4110 0.4110 0.4110
13.104000 0.4130 0.4090 0.4060 0.4030 0.4030
13.136398 0.4030 0.4010 0.4000 0.4000 0.3910
13.168000 0.3900 0.3880 0.3850 0.3830 0.3770
13.200398 0.3730 0.3700 0.3690 0.3670 0.3620
13.233000 0.3560 0.3490 0.3390 0.3310 0.3280
13.265398 0.3230 0.3180 0.3100 0.3020 0.3000
13.298000 0.2970 0.2940 0.2870 0.2820 0.2790
13.330398 0.2740 0.2690 0.2680 0.2650 0.2550
13.363000 0.2520 0.2500 0.2500 0.2480 0.2470
13.395398 0.2420 0.2420 0.2390 0.2370 0.2300
13.427000 0.2220 0.2160 0.2140 0.2140 0.2130
13.459398 0.2130 0.2110 0.2110 0.2110 0.2110
13.492000 0.2110 0.2140 0.2160 0.2190 0.2290
13.524398 0.2350 0.2480 0.2550 0.2780 0.2860
13.557000 0.2990 0.3070 0.3130 0.3230 0.3310
13.589398 0.3410 0.3510 0.3600 0.3690 0.3800
13.622000 0.3930 0.4000 0.4010 0.4030 0.4030
13.654398 0.4040 0.4110 0.4170 0.4220 0.4260
13.687000 0.4270 0.4290 0.4270 0.4260 0.4220
13.719398 0.4190 0.4160 0.4140 0.4130 0.4030
13.751000 0.4000 0.3980 0.3910 0.3850 0.3800
13.783398 0.3750 0.3700 0.3670 0.3620 0.3560
13.816000 0.3540 0.3490 0.3440 0.3430 0.3430
13.848398 0.3390 0.3380 0.3340 0.3280 0.3250
13.881000 0.3230 0.3200 0.3150 0.3130 0.3120
13.913398 0.3100 0.3040 0.3020 0.3020 0.3000
13.946000 0.3000 0.3000 0.3000 0.3000 0.3000
13.978398 0.3000 0.3000 0.3020 0.3040 0.3040
14.010000 0.3050 0.3070 0.3100 0.3120 0.3150
14.042398 0.3210 0.3260 0.3300 0.3330 0.3380
14.075000 0.3410 0.3430 0.3440 0.3490 0.3570
14.107398 0.3620 0.3650 0.3690 0.3720 0.3770
14.140000 0.3830 0.3850 0.3880 0.3900 0.3930
14.172398 0.3950 0.3960 0.3960 0.4000 0.4010
14.205000 0.4030 0.4030 0.4040 0.4030 0.4010
14.237398 0.4010 0.4010 0.4040 0.4060 0.4060
14.269000 0.4000 0.3980 0.3950 0.3950 0.3950
14.301398 0.3960 0.3960 0.3960 0.3960 0.3950
14.334000 0.3930 0.3910 0.3880 0.3860 0.3830
14.366398 0.3820 0.3800 0.3800 0.3780 0.3780
14.399000 0.3780 0.3800 0.3800 0.3800 0.3800
14.431398 0.3800 0.3800 0.3820 0.3830 0.3860
14.464000 0.3880 0.3900 0.3900 0.3930 0.3930
14.496398 0.3980 0.4000 0.4010 0.4010 0.4080
14.528000 0.4170 0.4220 0.4260 0.4290 0.4370
14.560398 0.4430 0.4530 0.4630 0.4710 0.4790
14.593000 0.4840 0.4890 0.4910 0.4970 0.5070
14.625398 0.5130 0.5210 0.5340 0.5430 0.5470
14.658000 0.5520 0.5590 0.5650 0.5720 0.5770
14.690398 0.5800 0.5850 0.5910 0.6030 0.6060
14.723000 0.6140 0.6170 0.6220 0.6270 0.6290
14.755398 0.6320 0.6340 0.6350 0.6390 0.6400
14.788000 0.6400 0.6430 0.6450 0.6480 0.6530
14.820398 0.6560 0.6600 0.6610 0.6610 0.6610
14.852000 0.6650 0.6680 0.6690 0.6710 0.6730
14.884398 0.6740 0.6730 0.6730 0.6710 0.6710
14.917000 0.6710 0.6710 0.6710 0.6710 0.6730
14.949398 0.6730 0.6730 0.6740 0.6740 0.6730
14.982000 0.6710 0.6690 0.6680 0.6650 0.6650
15.014398 0.6610 0.6600 0.6520 0.6480 0.6470
15.047000 0.6450 0.6430 0.6370 0.6340 0.6320
15.079398 0.6270 0.6240 0.6210 0.6160 0.6130
15.111000 0.6110 0.6110 0.6140 0.6140 0.6140
15.143398 0.6140 0.6160 0.6160 0.6160 0.6140
15.176000 0.6130 0.6110 0.6110 0.6140 0.6290
15.208398 0.6290 0.6290 0.6290 0.6270 0.6270
15.241000 0.6290 0.6290 0.6300 0.6300 0.6300
15.273398 0.6300 0.6300 0.6270 0.6260 0.6240
15.306000 0.6190 0.6170 0.6140 0.6130 0.6130
15.338398 0.6110 0.6110 0.6090 0.6080 0.6060
15.370000 0.6040 0.6040 0.6040 0.6030 0.6010
15.402398 0.6010 0.6000 0.5950 0.5930 0.5900
15.435000 0.5860 0.5860 0.5850 0.5850 0.5830
15.467398 0.5820 0.5820 0.5800 0.5800 0.5780
15.500000 0.5770 0.5770 0.5750 0.5730 0.5730
15.532398 0.5730 0.5720 0.5700 0.5700 0.5700
15.565000 0.5690 0.5690 0.5690 0.5690 0.5700
15.597398 0.5700 0.5700 0.5700 0.5720 0.5730
15.630000 0.5770 0.5820 0.5820 0.5820 0.5820
15.662398 0.5820 0.5830 0.5850 0.5860 0.5850
15.694000 0.5850 0.5830 0.5820 0.5820 0.5820
15.726398 0.5820 0.5820 0.5800 0.5800 0.5780
15.759000 0.5780 0.5780 0.5770 0.5750 0.5750
15.791398 0.5730 0.5730 0.5720 0.5720 0.5700
15.824000 0.5690 0.5700 0.5700 0.5720 0.5720
15.856398 0.5720 0.5720 0.5720 0.5730 0.5730
15.889000 0.5730 0.5730 0.5690 0.5670 0.5640
15.921398 0.5640 0.5640 0.5640 0.5650 0.5650
15.953000 0.5650 0.5650 0.5650 0.5640 0.5640
15.985398 0.5620 0.5600 0.5620
##END=
