##TITLE=Benzamidine, p-(3-isobutyl-3-methyltriazeno)-, hydrochloride
##JCAMP-DX=4.24
##DATA TYPE=INFRARED SPECTRUM
##CLASS=COBLENTZ III
##ORIGIN=SOUTHERN RESEARCH INSTITUTE, W.C. Coburn, Jr.
##OWNER=Copyright (C) 1987 by the Coblentz Society
Collection (C) 2018 copyright by the U.S. Secretary of Commerce
on behalf of the United States of America. All rights reserved.
##DATE=1966/12/08
##NAMES=4-[(1E)-3-isobutyl-3-methyl-1-triazenyl]benzenecarboximidamide hydrochloride
##MOLFORM=C12 H20 Cl N5
##SOURCE REFERENCE=COBLENTZ NO. 9227
##$NIST ID=B6009227
##$NIST SOURCE=COBLENTZ
##$NIST IMAGE=cob9227
##SPECTROMETER/DATA SYSTEM=PERKIN-ELMER 521 (GRATING)
##INSTRUMENT PARAMETERS=FILTERS AT 3130, 2475, 2000, 1150, 700, 410. GRATING CHANGES: 2000, 620 CM^-^1
##STATE=SOLID (1 mg / 650 mg KBr DISC)
$$ PURITY - ANALYTICAL
##SAMPLING PROCEDURE=TRANSMISSION
##RESOLUTION=2
##DATA PROCESSING=DIGITIZED BY COBLENTZ SOCIETY (BATCH II) FROM HARD COPY
##XUNITS=1/CM
##YUNITS=TRANSMITTANCE
##XFACTOR=1.0
##YFACTOR=1
##FIRSTX=248
##LASTX=4000
##FIRSTY=0.4534
##MAXX=4000
##MINX=248
##MAXY=1.0163
##MINY=0.1102
##NPOINTS=3753
##XYDATA=(X++(Y..Y))
248.000000 0.4534 0.4539 0.4555 0.4590 0.4625
253.000000 0.4659 0.4688 0.4717 0.4746 0.4776
258.000000 0.4805 0.4844 0.4883 0.4922 0.4961
263.000000 0.5001 0.5040 0.5080 0.5124 0.5168
268.000000 0.5212 0.5257 0.5301 0.5345 0.5418
273.000000 0.5508 0.5598 0.5688 0.5778 0.5870
278.000000 0.5966 0.6061 0.6157 0.6251 0.6335
283.000000 0.6419 0.6503 0.6587 0.6679 0.6776
288.000000 0.6860 0.6903 0.6946 0.6990 0.7033
293.000000 0.7072 0.7107 0.7143 0.7179 0.7201
298.000000 0.7223 0.7245 0.7267 0.7289 0.7311
303.000000 0.7333 0.7354 0.7376 0.7397 0.7418
308.000000 0.7438 0.7459 0.7477 0.7494 0.7511
313.000000 0.7527 0.7544 0.7561 0.7578 0.7595
318.000000 0.7613 0.7631 0.7649 0.7668 0.7686
323.000000 0.7704 0.7723 0.7748 0.7773 0.7797
328.000000 0.7822 0.7847 0.7872 0.7910 0.7950
333.000000 0.7990 0.8037 0.8111 0.8185 0.8256
338.000000 0.8313 0.8371 0.8428 0.8456 0.8482
343.000000 0.8508 0.8534 0.8560 0.8586 0.8609
348.000000 0.8627 0.8646 0.8664 0.8682 0.8700
353.000000 0.8719 0.8738 0.8757 0.8776 0.8793
358.000000 0.8810 0.8827 0.8840 0.8850 0.8860
363.000000 0.8870 0.8880 0.8886 0.8889 0.8893
368.000000 0.8896 0.8900 0.8903 0.8903 0.8903
373.000000 0.8903 0.8903 0.8903 0.8903 0.8903
378.000000 0.8903 0.8900 0.8896 0.8893 0.8889
383.000000 0.8886 0.8856 0.8815 0.8761 0.8712
388.000000 0.8693 0.8674 0.8654 0.8638 0.8630
393.000000 0.8622 0.8615 0.8616 0.8619 0.8622
398.000000 0.8625 0.8634 0.8644 0.8653 0.8666
403.000000 0.8688 0.8711 0.8734 0.8764 0.8801
408.000000 0.8838 0.8875 0.8912 0.8928 0.8938
413.000000 0.8946 0.8946 0.8946 0.8943 0.8938
418.000000 0.8932 0.8926 0.8921 0.8913 0.8905
423.000000 0.8898 0.8890 0.8889 0.8888 0.8887
428.000000 0.8886 0.8884 0.8886 0.8891 0.8897
433.000000 0.8902 0.8908 0.8914 0.8919 0.8925
438.000000 0.8930 0.8938 0.8950 0.8963 0.8975
443.000000 0.8987 0.8999 0.9014 0.9035 0.9056
448.000000 0.9076 0.9094 0.9104 0.9114 0.9125
453.000000 0.9135 0.9145 0.9146 0.9146 0.9147
458.000000 0.9147 0.9148 0.9148 0.9149 0.9149
463.000000 0.9150 0.9147 0.9143 0.9135 0.9135
468.000000 0.9131 0.9127 0.9124 0.9120 0.9116
473.000000 0.9112 0.9108 0.9107 0.9108 0.9110
478.000000 0.9111 0.9112 0.9114 0.9115 0.9117
483.000000 0.9119 0.9139 0.9158 0.9176 0.9178
488.000000 0.9181 0.9183 0.9180 0.9173 0.9167
493.000000 0.9161 0.9148 0.9128 0.9108 0.9087
498.000000 0.9064 0.9038 0.9012 0.8986 0.8952
503.000000 0.8914 0.8875 0.8836 0.8787 0.8731
508.000000 0.8675 0.8565 0.8391 0.8323 0.8316
513.000000 0.8326 0.8373 0.8500 0.8565 0.8596
518.000000 0.8622 0.8626 0.8656 0.8628 0.8627
523.000000 0.8621 0.8605 0.8586 0.8541 0.8453
528.000000 0.8350 0.8247 0.8143 0.8040 0.8000
533.000000 0.7995 0.8022 0.8149 0.8276 0.8402
538.000000 0.8529 0.8615 0.8649 0.8662 0.8672
543.000000 0.8676 0.8680 0.8680 0.8677 0.8675
548.000000 0.8671 0.8667 0.8663 0.8659 0.8652
553.000000 0.8640 0.8625 0.8605 0.8586 0.8562
558.000000 0.8530 0.8499 0.8467 0.8427 0.8373
563.000000 0.8315 0.8251 0.8186 0.8115 0.8035
568.000000 0.7935 0.7792 0.7649 0.7506 0.7362
573.000000 0.7219 0.7076 0.6794 0.6789 0.6788
578.000000 0.6809 0.7090 0.7372 0.7654 0.7936
583.000000 0.8216 0.8219 0.8219 0.8218 0.8216
588.000000 0.8206 0.8198 0.8188 0.8178 0.8167
593.000000 0.8156 0.8146 0.8136 0.8127 0.8112
598.000000 0.8098 0.8084 0.8069 0.8055 0.8041
603.000000 0.8026 0.8010 0.7995 0.7979 0.7964
608.000000 0.7948 0.7933 0.7918 0.7902 0.7887
613.000000 0.7872 0.7853 0.7833 0.7814 0.7781
618.000000 0.7745 0.7709 0.7673 0.7606 0.7513
623.000000 0.7402 0.7291 0.7181 0.7070 0.6960
628.000000 0.6900 0.6899 0.6999 0.7116 0.7234
633.000000 0.7351 0.7391 0.7364 0.7301 0.7197
638.000000 0.7094 0.6991 0.6887 0.6784 0.6681
643.000000 0.6577 0.6474 0.6371 0.6374 0.6412
648.000000 0.6514 0.6616 0.6718 0.6820 0.6922
653.000000 0.6955 0.6958 0.6960 0.6958 0.6956
658.000000 0.6949 0.6995 0.6934 0.6918 0.6901
663.000000 0.6871 0.6841 0.6805 0.6768 0.6716
668.000000 0.6640 0.6581 0.6522 0.6425 0.6290
673.000000 0.6205 0.6127 0.6055 0.5998 0.5953
678.000000 0.5940 0.5927 0.5914 0.5903 0.5892
683.000000 0.5884 0.5880 0.5877 0.5876 0.5874
688.000000 0.5872 0.5870 0.5852 0.5867 0.5866
693.000000 0.5866 0.5865 0.5865 0.5868 0.5871
698.000000 0.5874 0.5877 0.5880 0.5890 0.5900
703.000000 0.5910 0.5935 0.5968 0.5999 0.6030
708.000000 0.6069 0.6118 0.6215 0.6312 0.6408
713.000000 0.6505 0.6602 0.6699 0.6796 0.6892
718.000000 0.6989 0.7086 0.7183 0.7280 0.7376
723.000000 0.7473 0.7570 0.7667 0.7763 0.7860
728.000000 0.7957 0.8081 0.8176 0.8261 0.8319
733.000000 0.8370 0.8408 0.8416 0.8424 0.8428
738.000000 0.8452 0.8415 0.8406 0.8384 0.8269
743.000000 0.8114 0.7960 0.7805 0.7651 0.7496
748.000000 0.7342 0.7187 0.7128 0.8344 0.8402
753.000000 0.8433 0.8465 0.8496 0.8528 0.8565
758.000000 0.8606 0.8648 0.8691 0.8732 0.8768
763.000000 0.8795 0.8815 0.8834 0.8843 0.8843
768.000000 0.8839 0.8834 0.8829 0.8824 0.8817
773.000000 0.8807 0.8798 0.8789 0.8780 0.8771
778.000000 0.8765 0.8763 0.8761 0.8759 0.8758
783.000000 0.8756 0.8757 0.8768 0.8779 0.8792
788.000000 0.8809 0.8826 0.8843 0.8856 0.8868
793.000000 0.8871 0.8864 0.8853 0.8835 0.8812
798.000000 0.8780 0.8740 0.8699 0.8647 0.8597
803.000000 0.8562 0.8543 0.8537 0.8538 0.8596
808.000000 0.8729 0.8863 0.8996 0.9129 0.9187
813.000000 0.9201 0.9126 0.9020 0.8915 0.8810
818.000000 0.8704 0.8599 0.8494 0.8388 0.8283
823.000000 0.8177 0.8072 0.7967 0.7861 0.7814
828.000000 0.7814 0.7999 0.8185 0.8371 0.8557
833.000000 0.8744 0.8781 0.8784 0.8769 0.8659
838.000000 0.8336 0.8012 0.7688 0.7364 0.7041
843.000000 0.6717 0.6393 0.6070 0.5746 0.5422
848.000000 0.5098 0.4984 0.4980 0.5183 0.5819
853.000000 0.6456 0.7093 0.7729 0.8366 0.9003
858.000000 0.9454 0.9521 0.9553 0.9573 0.9592
863.000000 0.9599 0.9603 0.9607 0.9581 0.9611
868.000000 0.9608 0.9606 0.9601 0.9594 0.9588
873.000000 0.9581 0.9574 0.9566 0.9558 0.9549
878.000000 0.9540 0.9528 0.9515 0.9502 0.9489
883.000000 0.9476 0.9462 0.9449 0.9431 0.9414
888.000000 0.9397 0.9382 0.9367 0.9357 0.9358
893.000000 0.9359 0.9359 0.9360 0.9361 0.9364
898.000000 0.9367 0.9370 0.9371 0.9363 0.9354
903.000000 0.9343 0.9312 0.9276 0.9236 0.9196
908.000000 0.9155 0.9110 0.9064 0.9018 0.8972
913.000000 0.8893 0.8812 0.8730 0.8648 0.8567
918.000000 0.8485 0.8404 0.8322 0.8240 0.8169
923.000000 0.8172 0.8138 0.8503 0.8886 0.9153
928.000000 0.9152 0.9150 0.9111 0.8978 0.8844
933.000000 0.8840 0.8844 0.8923 0.9001 0.9080
938.000000 0.9158 0.9237 0.9286 0.9299 0.9309
943.000000 0.9308 0.9318 0.9303 0.9301 0.9298
948.000000 0.9294 0.9288 0.9281 0.9275 0.9265
953.000000 0.9253 0.9246 0.9239 0.9233 0.9226
958.000000 0.9220 0.9213 0.9210 0.9207 0.9203
963.000000 0.9200 0.9196 0.9192 0.9188 0.9183
968.000000 0.9179 0.9174 0.9169 0.9164 0.9157
973.000000 0.9150 0.9143 0.9136 0.9129 0.9122
978.000000 0.9115 0.9107 0.9100 0.9093 0.9085
983.000000 0.9076 0.9068 0.9060 0.9052 0.9043
988.000000 0.9035 0.9023 0.9009 0.8994 0.8980
993.000000 0.8965 0.8951 0.8934 0.8913 0.8892
998.000000 0.8871 0.8850 0.8829 0.8808 0.8787
1003.000000 0.8766 0.8745 0.8714 0.8682 0.8665
1008.000000 0.8659 0.8652 0.8646 0.8639 0.8633
1013.000000 0.8627 0.8621 0.8615 0.8609 0.8589
1018.000000 0.8568 0.8548 0.8525 0.8498 0.8472
1023.000000 0.8444 0.8411 0.8379 0.8347 0.8314
1028.000000 0.8282 0.8249 0.8213 0.8160 0.8107
1033.000000 0.8054 0.8000 0.7937 0.7874 0.7811
1038.000000 0.7748 0.7684 0.7604 0.7517 0.7430
1043.000000 0.7302 0.7089 0.6875 0.6662 0.6448
1048.000000 0.6235 0.6054 0.6038 0.6020 0.6033
1053.000000 0.6053 0.6097 0.6238 0.6379 0.6519
1058.000000 0.6660 0.6801 0.6941 0.7082 0.7222
1063.000000 0.7343 0.7340 0.7336 0.7344 0.7322
1068.000000 0.7310 0.7290 0.7256 0.7208 0.7160
1073.000000 0.7114 0.7051 0.6975 0.6898 0.6755
1078.000000 0.6610 0.6466 0.6321 0.6177 0.6033
1083.000000 0.5888 0.5744 0.5599 0.5455 0.5329
1088.000000 0.5312 0.5308 0.5296 0.5321 0.5337
1093.000000 0.5425 0.5521 0.5617 0.5713 0.5809
1098.000000 0.5904 0.6000 0.6096 0.6192 0.6287
1103.000000 0.6327 0.6343 0.6350 0.6347 0.6343
1108.000000 0.6325 0.6176 0.5979 0.5782 0.5586
1113.000000 0.5389 0.5193 0.4996 0.4799 0.4603
1118.000000 0.4406 0.4209 0.4013 0.3816 0.3620
1123.000000 0.3423 0.3276 0.3261 0.3269 0.3204
1128.000000 0.3927 0.4389 0.4850 0.5312 0.5773
1133.000000 0.6234 0.6624 0.6710 0.7068 0.7099
1138.000000 0.7123 0.7133 0.7132 0.7128 0.7123
1143.000000 0.7101 0.7057 0.7002 0.6814 0.6612
1148.000000 0.6409 0.6207 0.6004 0.5801 0.5599
1153.000000 0.5396 0.5194 0.4991 0.4788 0.4586
1158.000000 0.4383 0.4181 0.3978 0.3775 0.3573
1163.000000 0.3370 0.3256 0.3243 0.3198 0.3259
1168.000000 0.3551 0.3942 0.4332 0.4723 0.5114
1173.000000 0.5504 0.5895 0.6286 0.6676 0.7067
1178.000000 0.7458 0.7725 0.7825 0.7878 0.7889
1183.000000 0.7893 0.7896 0.7887 0.7890 0.7884
1188.000000 0.7879 0.7863 0.7840 0.7816 0.7792
1193.000000 0.7768 0.7744 0.7720 0.7680 0.7639
1198.000000 0.7598 0.7541 0.7477 0.7412 0.7347
1203.000000 0.7275 0.7196 0.7117 0.7027 0.6880
1208.000000 0.6733 0.6586 0.6440 0.6293 0.6146
1213.000000 0.5999 0.5852 0.5705 0.5558 0.5411
1218.000000 0.5264 0.5117 0.4971 0.4916 0.4924
1223.000000 0.4888 0.5202 0.5398 0.5595 0.5791
1228.000000 0.5988 0.6185 0.6381 0.6578 0.6774
1233.000000 0.6934 0.7015 0.7071 0.7105 0.7125
1238.000000 0.7129 0.7134 0.7139 0.7141 0.7138
1243.000000 0.7135 0.7128 0.7122 0.7115 0.7109
1248.000000 0.7092 0.7060 0.7022 0.6984 0.6946
1253.000000 0.6905 0.6850 0.6801 0.6757 0.6712
1258.000000 0.6668 0.6617 0.6566 0.6515 0.6463
1263.000000 0.6412 0.6366 0.6323 0.6279 0.6236
1268.000000 0.6193 0.6150 0.6106 0.6044 0.5977
1273.000000 0.5910 0.5843 0.5775 0.5708 0.5638
1278.000000 0.5549 0.5460 0.5371 0.5282 0.5205
1283.000000 0.5130 0.5055 0.4981 0.4897 0.4782
1288.000000 0.4667 0.4512 0.4324 0.4135 0.3947
1293.000000 0.3761 0.3757 0.3756 0.3754 0.3785
1298.000000 0.3818 0.3851 0.3884 0.3917 0.3914
1303.000000 0.3904 0.3894 0.3756 0.3577 0.3399
1308.000000 0.3220 0.3042 0.2863 0.2684 0.2506
1313.000000 0.2327 0.2149 0.2040 0.2032 0.2061
1318.000000 0.2204 0.2348 0.2491 0.2634 0.2644
1323.000000 0.2589 0.2520 0.2452 0.2387 0.2387
1328.000000 0.2483 0.2587 0.2691 0.2794 0.2898
1333.000000 0.3001 0.3048 0.3060 0.3045 0.2865
1338.000000 0.2664 0.2462 0.2261 0.2059 0.1858
1343.000000 0.1656 0.1455 0.1264 0.1178 0.1147
1348.000000 0.1126 0.1102 0.1132 0.1143 0.1161
1353.000000 0.1314 0.1542 0.1771 0.1999 0.2228
1358.000000 0.2436 0.2516 0.2577 0.2618 0.2660
1363.000000 0.2728 0.2802 0.2891 0.3259 0.3626
1368.000000 0.3993 0.4360 0.4728 0.5095 0.5462
1373.000000 0.5616 0.5645 0.5684 0.5738 0.5782
1378.000000 0.5801 0.5820 0.5840 0.5859 0.5886
1383.000000 0.5924 0.6052 0.6186 0.6301 0.6422
1388.000000 0.6545 0.6668 0.7039 0.7133 0.7204
1393.000000 0.7235 0.7241 0.7244 0.7249 0.7240
1398.000000 0.7203 0.6956 0.6698 0.6439 0.6181
1403.000000 0.5922 0.5664 0.5405 0.5147 0.4888
1408.000000 0.4630 0.4372 0.4113 0.3855 0.3596
1413.000000 0.3338 0.3079 0.2821 0.2562 0.2304
1418.000000 0.2045 0.1890 0.1856 0.1895 0.1917
1423.000000 0.2458 0.2999 0.3541 0.4082 0.4624
1428.000000 0.5165 0.5592 0.5684 0.5750 0.5788
1433.000000 0.5768 0.5771 0.5773 0.5762 0.5736
1438.000000 0.5559 0.5338 0.5116 0.4894 0.4672
1443.000000 0.4451 0.4229 0.4007 0.3786 0.3564
1448.000000 0.3342 0.3121 0.2899 0.2708 0.2586
1453.000000 0.2495 0.2421 0.2349 0.2294 0.2287
1458.000000 0.2244 0.2291 0.2299 0.2307 0.2315
1463.000000 0.2338 0.2389 0.2534 0.2789 0.3044
1468.000000 0.3300 0.3555 0.3772 0.3819 0.3847
1473.000000 0.3851 0.3849 0.3842 0.3835 0.3817
1478.000000 0.3789 0.3746 0.3725 0.3706 0.3712
1483.000000 0.3735 0.3762 0.3811 0.3892 0.4044
1488.000000 0.4411 0.4669 0.4958 0.5247 0.5536
1493.000000 0.5825 0.6114 0.6403 0.6692 0.6980
1498.000000 0.7269 0.7558 0.7847 0.8077 0.8181
1503.000000 0.8311 0.8395 0.8411 0.8448 0.8424
1508.000000 0.8416 0.8407 0.8394 0.8374 0.8340
1513.000000 0.8282 0.8127 0.7911 0.7695 0.7478
1518.000000 0.7262 0.7046 0.6830 0.6613 0.6397
1523.000000 0.6181 0.5964 0.5748 0.5532 0.5316
1528.000000 0.5151 0.5151 0.5159 0.5140 0.5404
1533.000000 0.5595 0.5786 0.5977 0.6168 0.6359
1538.000000 0.6550 0.6741 0.6933 0.7124 0.7315
1543.000000 0.7506 0.7697 0.7888 0.8079 0.8155
1548.000000 0.8230 0.8313 0.8389 0.8430 0.8471
1553.000000 0.8504 0.8517 0.8530 0.8543 0.8554
1558.000000 0.8553 0.8552 0.8558 0.8548 0.8541
1563.000000 0.8534 0.8514 0.8487 0.8430 0.8347
1568.000000 0.8290 0.8233 0.8151 0.8069 0.7987
1573.000000 0.7840 0.7753 0.7706 0.7685 0.7665
1578.000000 0.7645 0.7622 0.7598 0.7575 0.7552
1583.000000 0.7526 0.7486 0.7400 0.7117 0.6733
1588.000000 0.6349 0.5965 0.5581 0.5196 0.4812
1593.000000 0.4428 0.4044 0.3660 0.3276 0.2892
1598.000000 0.2507 0.2145 0.2146 0.2126 0.2157
1603.000000 0.2599 0.3239 0.3879 0.4518 0.5158
1608.000000 0.5797 0.6437 0.7077 0.7660 0.7752
1613.000000 0.7791 0.7801 0.7800 0.7798 0.7813
1618.000000 0.7776 0.7743 0.7704 0.7664 0.7625
1623.000000 0.7579 0.7528 0.7475 0.7423 0.7335
1628.000000 0.7123 0.6911 0.6698 0.6486 0.6273
1633.000000 0.6061 0.5848 0.5636 0.5423 0.5211
1638.000000 0.4998 0.4786 0.4573 0.4361 0.4149
1643.000000 0.3936 0.3724 0.3511 0.3299 0.3248
1648.000000 0.3215 0.3181 0.3151 0.3128 0.3105
1653.000000 0.3013 0.2572 0.2131 0.1875 0.1820
1658.000000 0.1794 0.1788 0.1795 0.1757 0.1825
1663.000000 0.2083 0.2360 0.2636 0.2913 0.3190
1668.000000 0.3466 0.3743 0.4019 0.4296 0.4573
1673.000000 0.4849 0.5126 0.5402 0.5679 0.5955
1678.000000 0.6232 0.6509 0.6785 0.6914 0.6986
1683.000000 0.7058 0.7545 0.7843 0.7966 0.8089
1688.000000 0.8274 0.8456 0.8539 0.8622 0.8704
1693.000000 0.8796 0.8906 0.9003 0.9069 0.9135
1698.000000 0.9202 0.9262 0.9315 0.9368 0.9418
1703.000000 0.9457 0.9496 0.9534 0.9570 0.9606
1708.000000 0.9641 0.9666 0.9686 0.9706 0.9725
1713.000000 0.9745 0.9765 0.9785 0.9805 0.9824
1718.000000 0.9843 0.9852 0.9861 0.9870 0.9878
1723.000000 0.9887 0.9896 0.9904 0.9913 0.9922
1728.000000 0.9931 0.9939 0.9948 0.9955 0.9960
1733.000000 0.9966 0.9971 0.9977 0.9983 0.9989
1738.000000 0.9995 1.0001 1.0007 1.0014 1.0020
1743.000000 1.0026 1.0030 1.0035 1.0039 1.0044
1748.000000 1.0048 1.0052 1.0057 1.0061 1.0065
1753.000000 1.0067 1.0069 1.0071 1.0073 1.0075
1758.000000 1.0077 1.0079 1.0081 1.0083 1.0083
1763.000000 1.0082 1.0081 1.0080 1.0079 1.0078
1768.000000 1.0077 1.0075 1.0072 1.0070 1.0068
1773.000000 1.0066 1.0063 1.0062 1.0060 1.0059
1778.000000 1.0058 1.0056 1.0055 1.0054 1.0052
1783.000000 1.0053 1.0055 1.0030 1.0065 1.0069
1788.000000 1.0074 1.0078 1.0081 1.0085 1.0089
1793.000000 1.0093 1.0097 1.0102 1.0107 1.0112
1798.000000 1.0117 1.0122 1.0127 1.0133 1.0139
1803.000000 1.0145 1.0152 1.0158 1.0159 1.0159
1808.000000 1.0160 1.0160 1.0161 1.0161 1.0162
1813.000000 1.0163 1.0162 1.0160 1.0158 1.0156
1818.000000 1.0154 1.0153 1.0151 1.0149 1.0147
1823.000000 1.0146 1.0144 1.0141 1.0139 1.0137
1828.000000 1.0135 1.0133 1.0131 1.0129 1.0127
1833.000000 1.0125 1.0123 1.0121 1.0118 1.0116
1838.000000 1.0114 1.0112 1.0109 1.0107 1.0105
1843.000000 1.0102 1.0100 1.0098 1.0095 1.0093
1848.000000 1.0090 1.0088 1.0086 1.0083 1.0079
1853.000000 1.0076 1.0072 1.0069 1.0065 1.0062
1858.000000 1.0058 1.0055 1.0051 1.0047 1.0044
1863.000000 1.0040 1.0037 1.0032 1.0027 1.0021
1868.000000 1.0016 1.0011 1.0006 1.0001 0.9995
1873.000000 0.9990 0.9985 0.9980 0.9974 0.9969
1878.000000 0.9964 0.9959 0.9954 0.9948 0.9943
1883.000000 0.9938 0.9933 0.9928 0.9924 0.9920
1888.000000 0.9916 0.9913 0.9909 0.9905 0.9901
1893.000000 0.9897 0.9893 0.9890 0.9886 0.9882
1898.000000 0.9878 0.9874 0.9869 0.9865 0.9860
1903.000000 0.9856 0.9851 0.9847 0.9842 0.9838
1908.000000 0.9833 0.9829 0.9827 0.9824 0.9822
1913.000000 0.9819 0.9817 0.9814 0.9812 0.9810
1918.000000 0.9807 0.9805 0.9802 0.9801 0.9804
1923.000000 0.9806 0.9809 0.9811 0.9813 0.9816
1928.000000 0.9818 0.9820 0.9823 0.9825 0.9828
1933.000000 0.9830 0.9833 0.9835 0.9837 0.9840
1938.000000 0.9842 0.9845 0.9847 0.9850 0.9852
1943.000000 0.9853 0.9853 0.9853 0.9853 0.9853
1948.000000 0.9853 0.9854 0.9854 0.9854 0.9853
1953.000000 0.9851 0.9850 0.9849 0.9847 0.9846
1958.000000 0.9845 0.9843 0.9842 0.9841 0.9839
1963.000000 0.9838 0.9837 0.9835 0.9834 0.9833
1968.000000 0.9831 0.9830 0.9828 0.9825 0.9823
1973.000000 0.9820 0.9817 0.9815 0.9812 0.9809
1978.000000 0.9807 0.9804 0.9802 0.9799 0.9796
1983.000000 0.9794 0.9791 0.9788 0.9786 0.9783
1988.000000 0.9779 0.9775 0.9770 0.9766 0.9762
1993.000000 0.9757 0.9753 0.9748 0.9744 0.9739
1998.000000 0.9735 0.9731 0.9726 0.9723 0.9722
2003.000000 0.9722 0.9721 0.9720 0.9719 0.9719
2008.000000 0.9718 0.9717 0.9716 0.9716 0.9715
2013.000000 0.9714 0.9714 0.9713 0.9713 0.9713
2018.000000 0.9713 0.9712 0.9712 0.9712 0.9712
2023.000000 0.9711 0.9711 0.9711 0.9711 0.9711
2028.000000 0.9710 0.9710 0.9710 0.9710 0.9709
2033.000000 0.9709 0.9709 0.9709 0.9708 0.9708
2038.000000 0.9708 0.9708 0.9708 0.9707 0.9707
2043.000000 0.9707 0.9707 0.9707 0.9705 0.9702
2048.000000 0.9699 0.9696 0.9693 0.9690 0.9687
2053.000000 0.9684 0.9681 0.9679 0.9676 0.9672
2058.000000 0.9666 0.9661 0.9656 0.9651 0.9645
2063.000000 0.9640 0.9635 0.9629 0.9624 0.9619
2068.000000 0.9614 0.9608 0.9603 0.9598 0.9593
2073.000000 0.9587 0.9582 0.9580 0.9578 0.9576
2078.000000 0.9574 0.9573 0.9571 0.9569 0.9567
2083.000000 0.9564 0.9561 0.9558 0.9554 0.9551
2088.000000 0.9548 0.9545 0.9541 0.9538 0.9535
2093.000000 0.9531 0.9528 0.9525 0.9522 0.9518
2098.000000 0.9515 0.9512 0.9509 0.9505 0.9502
2103.000000 0.9499 0.9496 0.9492 0.9489 0.9486
2108.000000 0.9482 0.9479 0.9476 0.9473 0.9469
2113.000000 0.9466 0.9463 0.9460 0.9457 0.9453
2118.000000 0.9450 0.9447 0.9444 0.9441 0.9437
2123.000000 0.9434 0.9431 0.9429 0.9427 0.9425
2128.000000 0.9422 0.9420 0.9418 0.9416 0.9414
2133.000000 0.9411 0.9409 0.9407 0.9405 0.9403
2138.000000 0.9401 0.9398 0.9396 0.9394 0.9392
2143.000000 0.9390 0.9388 0.9386 0.9384 0.9382
2148.000000 0.9380 0.9378 0.9376 0.9374 0.9373
2153.000000 0.9371 0.9369 0.9367 0.9365 0.9363
2158.000000 0.9361 0.9359 0.9357 0.9355 0.9353
2163.000000 0.9351 0.9349 0.9348 0.9346 0.9344
2168.000000 0.9342 0.9341 0.9339 0.9338 0.9337
2173.000000 0.9336 0.9334 0.9333 0.9332 0.9331
2178.000000 0.9329 0.9328 0.9327 0.9326 0.9324
2183.000000 0.9323 0.9322 0.9321 0.9321 0.9320
2188.000000 0.9320 0.9320 0.9319 0.9319 0.9318
2193.000000 0.9318 0.9317 0.9317 0.9317 0.9316
2198.000000 0.9316 0.9315 0.9315 0.9314 0.9314
2203.000000 0.9314 0.9313 0.9313 0.9312 0.9312
2208.000000 0.9311 0.9311 0.9310 0.9310 0.9309
2213.000000 0.9308 0.9307 0.9305 0.9304 0.9303
2218.000000 0.9302 0.9301 0.9299 0.9298 0.9297
2223.000000 0.9296 0.9295 0.9294 0.9292 0.9289
2228.000000 0.9286 0.9283 0.9280 0.9276 0.9272
2233.000000 0.9267 0.9263 0.9258 0.9252 0.9244
2238.000000 0.9235 0.9227 0.9219 0.9210 0.9202
2243.000000 0.9194 0.9185 0.9177 0.9169 0.9163
2248.000000 0.9159 0.9154 0.9150 0.9145 0.9141
2253.000000 0.9137 0.9132 0.9128 0.9125 0.9123
2258.000000 0.9121 0.9119 0.9117 0.9115 0.9114
2263.000000 0.9112 0.9110 0.9108 0.9106 0.9104
2268.000000 0.9102 0.9101 0.9100 0.9100 0.9099
2273.000000 0.9099 0.9099 0.9098 0.9098 0.9097
2278.000000 0.9097 0.9096 0.9096 0.9096 0.9095
2283.000000 0.9094 0.9093 0.9092 0.9091 0.9090
2288.000000 0.9089 0.9088 0.9087 0.9086 0.9085
2293.000000 0.9084 0.9083 0.9082 0.9081 0.9080
2298.000000 0.9079 0.9078 0.9077 0.9076 0.9075
2303.000000 0.9073 0.9072 0.9070 0.9069 0.9067
2308.000000 0.9066 0.9064 0.9063 0.9062 0.9060
2313.000000 0.9059 0.9057 0.9056 0.9054 0.9053
2318.000000 0.9051 0.9050 0.9048 0.9047 0.9046
2323.000000 0.9044 0.9043 0.9041 0.9040 0.9040
2328.000000 0.9039 0.9039 0.9039 0.9039 0.9039
2333.000000 0.9038 0.9038 0.9038 0.9038 0.9037
2338.000000 0.9037 0.9037 0.9037 0.9037 0.9036
2343.000000 0.9036 0.9036 0.9036 0.9035 0.9035
2348.000000 0.9035 0.9034 0.9033 0.9033 0.9032
2353.000000 0.9031 0.9031 0.9030 0.9029 0.9028
2358.000000 0.9028 0.9027 0.9026 0.9026 0.9025
2363.000000 0.9024 0.9024 0.9023 0.9022 0.9021
2368.000000 0.9019 0.9018 0.9017 0.9016 0.9014
2373.000000 0.9013 0.9012 0.9010 0.9009 0.9008
2378.000000 0.9006 0.9005 0.9004 0.9003 0.9001
2383.000000 0.9000 0.8999 0.8997 0.8996 0.8995
2388.000000 0.8993 0.8990 0.8988 0.8986 0.8983
2393.000000 0.8981 0.8979 0.8976 0.8974 0.8972
2398.000000 0.8969 0.8967 0.8965 0.8963 0.8960
2403.000000 0.8958 0.8956 0.8953 0.8951 0.8949
2408.000000 0.8946 0.8944 0.8942 0.8939 0.8935
2413.000000 0.8932 0.8929 0.8925 0.8922 0.8918
2418.000000 0.8915 0.8912 0.8908 0.8905 0.8901
2423.000000 0.8897 0.8893 0.8889 0.8885 0.8880
2428.000000 0.8876 0.8872 0.8868 0.8863 0.8859
2433.000000 0.8855 0.8850 0.8846 0.8842 0.8838
2438.000000 0.8833 0.8829 0.8826 0.8822 0.8818
2443.000000 0.8814 0.8811 0.8807 0.8803 0.8800
2448.000000 0.8796 0.8792 0.8789 0.8785 0.8781
2453.000000 0.8777 0.8774 0.8770 0.8766 0.8763
2458.000000 0.8759 0.8755 0.8751 0.8748 0.8744
2463.000000 0.8740 0.8737 0.8733 0.8730 0.8727
2468.000000 0.8725 0.8722 0.8720 0.8717 0.8715
2473.000000 0.8712 0.8710 0.8708 0.8705 0.8703
2478.000000 0.8700 0.8698 0.8695 0.8693 0.8690
2483.000000 0.8688 0.8685 0.8683 0.8680 0.8678
2488.000000 0.8675 0.8673 0.8672 0.8670 0.8669
2493.000000 0.8667 0.8666 0.8664 0.8663 0.8662
2498.000000 0.8660 0.8659 0.8657 0.8656 0.8654
2503.000000 0.8653 0.8652 0.8650 0.8649 0.8647
2508.000000 0.8646 0.8643 0.8639 0.8636 0.8632
2513.000000 0.8629 0.8626 0.8622 0.8619 0.8615
2518.000000 0.8612 0.8609 0.8606 0.8603 0.8600
2523.000000 0.8597 0.8594 0.8591 0.8588 0.8586
2528.000000 0.8583 0.8580 0.8577 0.8574 0.8571
2533.000000 0.8568 0.8565 0.8563 0.8560 0.8557
2538.000000 0.8554 0.8551 0.8550 0.8550 0.8549
2543.000000 0.8548 0.8547 0.8547 0.8546 0.8545
2548.000000 0.8545 0.8544 0.8543 0.8543 0.8542
2553.000000 0.8541 0.8539 0.8537 0.8534 0.8532
2558.000000 0.8529 0.8527 0.8524 0.8522 0.8519
2563.000000 0.8517 0.8514 0.8512 0.8509 0.8501
2568.000000 0.8493 0.8484 0.8476 0.8467 0.8458
2573.000000 0.8450 0.8441 0.8433 0.8424 0.8413
2578.000000 0.8401 0.8390 0.8378 0.8367 0.8355
2583.000000 0.8345 0.8336 0.8327 0.8318 0.8308
2588.000000 0.8299 0.8290 0.8286 0.8283 0.8281
2593.000000 0.8278 0.8276 0.8273 0.8274 0.8275
2598.000000 0.8275 0.8276 0.8277 0.8277 0.8278
2603.000000 0.8279 0.8280 0.8280 0.8281 0.8282
2608.000000 0.8283 0.8286 0.8289 0.8292 0.8295
2613.000000 0.8298 0.8302 0.8305 0.8307 0.8309
2618.000000 0.8310 0.8312 0.8314 0.8315 0.8315
2623.000000 0.8316 0.8317 0.8317 0.8318 0.8319
2628.000000 0.8318 0.8317 0.8315 0.8314 0.8313
2633.000000 0.8311 0.8310 0.8309 0.8307 0.8306
2638.000000 0.8302 0.8295 0.8288 0.8282 0.8275
2643.000000 0.8268 0.8261 0.8254 0.8248 0.8243
2648.000000 0.8233 0.8224 0.8214 0.8204 0.8184
2653.000000 0.8170 0.8162 0.8153 0.8145 0.8136
2658.000000 0.8128 0.8121 0.8119 0.8117 0.8115
2663.000000 0.8115 0.8115 0.8115 0.8115 0.8115
2668.000000 0.8114 0.8113 0.8111 0.8106 0.8101
2673.000000 0.8097 0.8092 0.8088 0.8083 0.8079
2678.000000 0.8070 0.8062 0.8053 0.8045 0.8037
2683.000000 0.8028 0.8020 0.8011 0.8000 0.7986
2688.000000 0.7972 0.7958 0.7944 0.7930 0.7916
2693.000000 0.7902 0.7888 0.7874 0.7860 0.7846
2698.000000 0.7832 0.7818 0.7804 0.7789 0.7772
2703.000000 0.7755 0.7739 0.7722 0.7705 0.7688
2708.000000 0.7671 0.7655 0.7638 0.7621 0.7603
2713.000000 0.7585 0.7566 0.7548 0.7530 0.7512
2718.000000 0.7494 0.7476 0.7456 0.7431 0.7406
2723.000000 0.7381 0.7356 0.7331 0.7306 0.7281
2728.000000 0.7255 0.7230 0.7205 0.7189 0.7187
2733.000000 0.7186 0.7187 0.7159 0.7189 0.7190
2738.000000 0.7190 0.7190 0.7190 0.7193 0.7195
2743.000000 0.7198 0.7201 0.7204 0.7209 0.7214
2748.000000 0.7220 0.7233 0.7254 0.7274 0.7302
2753.000000 0.7331 0.7360 0.7373 0.7386 0.7400
2758.000000 0.7413 0.7425 0.7431 0.7437 0.7443
2763.000000 0.7449 0.7455 0.7458 0.7461 0.7464
2768.000000 0.7467 0.7470 0.7473 0.7475 0.7475
2773.000000 0.7475 0.7475 0.7475 0.7475 0.7474
2778.000000 0.7474 0.7474 0.7474 0.7474 0.7473
2783.000000 0.7473 0.7462 0.7462 0.7455 0.7448
2788.000000 0.7440 0.7433 0.7426 0.7418 0.7410
2793.000000 0.7400 0.7391 0.7382 0.7373 0.7363
2798.000000 0.7354 0.7344 0.7333 0.7322 0.7311
2803.000000 0.7300 0.7289 0.7277 0.7261 0.7245
2808.000000 0.7230 0.7214 0.7198 0.7182 0.7166
2813.000000 0.7150 0.7135 0.7120 0.7106 0.7091
2818.000000 0.7076 0.7062 0.7047 0.7033 0.7018
2823.000000 0.7004 0.6988 0.6972 0.6955 0.6939
2828.000000 0.6923 0.6906 0.6890 0.6874 0.6858
2833.000000 0.6846 0.6834 0.6822 0.6810 0.6797
2838.000000 0.6785 0.6773 0.6761 0.6749 0.6738
2843.000000 0.6728 0.6717 0.6706 0.6692 0.6667
2848.000000 0.6643 0.6618 0.6594 0.6555 0.6516
2853.000000 0.6477 0.6437 0.6398 0.6358 0.6319
2858.000000 0.6273 0.6225 0.6178 0.6130 0.6059
2863.000000 0.5978 0.5876 0.5774 0.5769 0.5771
2868.000000 0.5778 0.5784 0.5803 0.5835 0.5947
2873.000000 0.6033 0.6074 0.6103 0.6113 0.6117
2878.000000 0.6114 0.6111 0.6107 0.6102 0.6093
2883.000000 0.6082 0.6055 0.6020 0.5987 0.5954
2888.000000 0.5918 0.5867 0.5817 0.5764 0.5712
2893.000000 0.5660 0.5613 0.5567 0.5521 0.5475
2898.000000 0.5432 0.5393 0.5364 0.5346 0.5328
2903.000000 0.5310 0.5292 0.5275 0.5258 0.5241
2908.000000 0.5225 0.5205 0.5174 0.5143 0.5102
2913.000000 0.5045 0.4999 0.4978 0.4957 0.4936
2918.000000 0.4919 0.4908 0.4897 0.4887 0.4879
2923.000000 0.4886 0.4892 0.4898 0.4904 0.4911
2928.000000 0.4920 0.4928 0.4937 0.4946 0.4955
2933.000000 0.4966 0.4975 0.4978 0.4980 0.4982
2938.000000 0.4977 0.4972 0.4903 0.4817 0.4731
2943.000000 0.4645 0.4560 0.4474 0.4388 0.4302
2948.000000 0.4216 0.4130 0.4045 0.3959 0.3873
2953.000000 0.3787 0.3692 0.3629 0.3671 0.3673
2958.000000 0.3679 0.3689 0.3734 0.3830 0.3926
2963.000000 0.4022 0.4118 0.4215 0.4311 0.4407
2968.000000 0.4503 0.4599 0.4695 0.4735 0.4777
2973.000000 0.4820 0.4864 0.4906 0.4907 0.4896
2978.000000 0.4899 0.4890 0.4879 0.4867 0.4855
2983.000000 0.4828 0.4795 0.4765 0.4735 0.4704
2988.000000 0.4671 0.4641 0.4611 0.4581 0.4554
2993.000000 0.4530 0.4506 0.4481 0.4457 0.4433
2998.000000 0.4408 0.4385 0.4362 0.4338 0.4315
3003.000000 0.4290 0.4260 0.4229 0.4199 0.4168
3008.000000 0.4138 0.4107 0.4077 0.4046 0.4015
3013.000000 0.3984 0.3952 0.3919 0.3886 0.3854
3018.000000 0.3821 0.3788 0.3756 0.3715 0.3672
3023.000000 0.3628 0.3585 0.3541 0.3498 0.3452
3028.000000 0.3402 0.3352 0.3301 0.3251 0.3201
3033.000000 0.3160 0.3119 0.3078 0.3037 0.2996
3038.000000 0.2955 0.2915 0.2877 0.2839 0.2801
3043.000000 0.2763 0.2725 0.2687 0.2649 0.2611
3048.000000 0.2569 0.2527 0.2485 0.2443 0.2401
3053.000000 0.2372 0.2344 0.2316 0.2288 0.2260
3058.000000 0.2239 0.2219 0.2199 0.2179 0.2159
3063.000000 0.2146 0.2132 0.2118 0.2104 0.2095
3068.000000 0.2088 0.2082 0.2076 0.2072 0.2072
3073.000000 0.2049 0.2072 0.2072 0.2072 0.2072
3078.000000 0.2073 0.2077 0.2082 0.2087 0.2094
3083.000000 0.2102 0.2109 0.2118 0.2128 0.2138
3088.000000 0.2149 0.2159 0.2169 0.2183 0.2199
3093.000000 0.2214 0.2230 0.2246 0.2262 0.2274
3098.000000 0.2283 0.2296 0.2309 0.2321 0.2334
3103.000000 0.2347 0.2359 0.2372 0.2384 0.2397
3108.000000 0.2410 0.2424 0.2440 0.2457 0.2474
3113.000000 0.2490 0.2507 0.2524 0.2541 0.2557
3118.000000 0.2573 0.2588 0.2603 0.2618 0.2633
3123.000000 0.2647 0.2662 0.2677 0.2692 0.2707
3128.000000 0.2733 0.2759 0.2785 0.2809 0.2831
3133.000000 0.2852 0.2874 0.2895 0.2917 0.2938
3138.000000 0.2959 0.2981 0.3003 0.3030 0.3057
3143.000000 0.3084 0.3111 0.3138 0.3165 0.3192
3148.000000 0.3216 0.3240 0.3263 0.3286 0.3310
3153.000000 0.3333 0.3357 0.3395 0.3438 0.3481
3158.000000 0.3524 0.3567 0.3610 0.3631 0.3651
3163.000000 0.3672 0.3692 0.3713 0.3738 0.3768
3168.000000 0.3798 0.3826 0.3839 0.3852 0.3865
3173.000000 0.3877 0.3882 0.3886 0.3890 0.3894
3178.000000 0.3898 0.3902 0.3905 0.3909 0.3912
3183.000000 0.3915 0.3918 0.3921 0.3924 0.3927
3188.000000 0.3930 0.3932 0.3935 0.3938 0.3941
3193.000000 0.3944 0.3947 0.3949 0.3952 0.3955
3198.000000 0.3958 0.3961 0.3964 0.3967 0.3970
3203.000000 0.3972 0.3973 0.3974 0.3975 0.3976
3208.000000 0.3977 0.4000 0.3979 0.3980 0.3981
3213.000000 0.3980 0.3978 0.3975 0.3973 0.3971
3218.000000 0.3966 0.3959 0.3952 0.3946 0.3939
3223.000000 0.3925 0.3908 0.3891 0.3874 0.3858
3228.000000 0.3841 0.3822 0.3801 0.3781 0.3760
3233.000000 0.3739 0.3718 0.3697 0.3675 0.3653
3238.000000 0.3631 0.3610 0.3588 0.3566 0.3545
3243.000000 0.3524 0.3502 0.3481 0.3458 0.3432
3248.000000 0.3406 0.3380 0.3354 0.3328 0.3301
3253.000000 0.3275 0.3246 0.3218 0.3189 0.3162
3258.000000 0.3136 0.3109 0.3083 0.3063 0.3056
3263.000000 0.3050 0.3043 0.3043 0.3045 0.3046
3268.000000 0.3047 0.3048 0.3047 0.3053 0.3060
3273.000000 0.3067 0.3074 0.3081 0.3088 0.3095
3278.000000 0.3102 0.3110 0.3121 0.3132 0.3143
3283.000000 0.3157 0.3174 0.3191 0.3208 0.3225
3288.000000 0.3242 0.3256 0.3268 0.3280 0.3292
3293.000000 0.3304 0.3317 0.3336 0.3358 0.3379
3298.000000 0.3401 0.3429 0.3460 0.3492 0.3520
3303.000000 0.3548 0.3576 0.3602 0.3625 0.3649
3308.000000 0.3673 0.3697 0.3720 0.3744 0.3767
3313.000000 0.3789 0.3812 0.3835 0.3858 0.3887
3318.000000 0.3919 0.3951 0.3984 0.4013 0.4042
3323.000000 0.4071 0.4100 0.4129 0.4168 0.4208
3328.000000 0.4249 0.4289 0.4330 0.4359 0.4385
3333.000000 0.4416 0.4449 0.4483 0.4516 0.4550
3338.000000 0.4588 0.4632 0.4676 0.4718 0.4761
3343.000000 0.4803 0.4845 0.4888 0.4928 0.4967
3348.000000 0.5007 0.5046 0.5085 0.5142 0.5217
3353.000000 0.5291 0.5365 0.5439 0.5500 0.5553
3358.000000 0.5607 0.5661 0.5720 0.5787 0.5855
3363.000000 0.5922 0.5983 0.6043 0.6104 0.6158
3368.000000 0.6200 0.6242 0.6284 0.6327 0.6369
3373.000000 0.6411 0.6452 0.6493 0.6535 0.6574
3378.000000 0.6609 0.6644 0.6679 0.6714 0.6749
3383.000000 0.6782 0.6816 0.6850 0.6883 0.6917
3388.000000 0.6949 0.6978 0.7008 0.7037 0.7066
3393.000000 0.7095 0.7125 0.7154 0.7179 0.7193
3398.000000 0.7207 0.7221 0.7235 0.7248 0.7262
3403.000000 0.7276 0.7290 0.7301 0.7311 0.7321
3408.000000 0.7331 0.7341 0.7351 0.7361 0.7371
3413.000000 0.7381 0.7391 0.7401 0.7411 0.7421
3418.000000 0.7431 0.7441 0.7450 0.7458 0.7466
3423.000000 0.7474 0.7482 0.7490 0.7499 0.7507
3428.000000 0.7515 0.7523 0.7531 0.7539 0.7547
3433.000000 0.7555 0.7563 0.7570 0.7577 0.7584
3438.000000 0.7591 0.7598 0.7605 0.7612 0.7619
3443.000000 0.7626 0.7633 0.7640 0.7647 0.7654
3448.000000 0.7661 0.7668 0.7675 0.7680 0.7684
3453.000000 0.7688 0.7692 0.7696 0.7700 0.7704
3458.000000 0.7708 0.7712 0.7716 0.7720 0.7724
3463.000000 0.7728 0.7732 0.7736 0.7740 0.7743
3468.000000 0.7746 0.7749 0.7753 0.7756 0.7759
3473.000000 0.7762 0.7765 0.7768 0.7771 0.7777
3478.000000 0.7783 0.7789 0.7795 0.7802 0.7808
3483.000000 0.7814 0.7820 0.7826 0.7832 0.7838
3488.000000 0.7844 0.7850 0.7856 0.7862 0.7868
3493.000000 0.7875 0.7881 0.7887 0.7893 0.7899
3498.000000 0.7905 0.7911 0.7917 0.7923 0.7929
3503.000000 0.7935 0.7941 0.7946 0.7952 0.7958
3508.000000 0.7963 0.7969 0.7974 0.7980 0.7985
3513.000000 0.7991 0.7996 0.8002 0.8008 0.8013
3518.000000 0.8019 0.8024 0.8030 0.8035 0.8041
3523.000000 0.8046 0.8052 0.8058 0.8063 0.8069
3528.000000 0.8074 0.8079 0.8085 0.8090 0.8096
3533.000000 0.8101 0.8106 0.8112 0.8117 0.8123
3538.000000 0.8128 0.8134 0.8139 0.8144 0.8150
3543.000000 0.8157 0.8164 0.8171 0.8178 0.8184
3548.000000 0.8191 0.8198 0.8205 0.8212 0.8219
3553.000000 0.8226 0.8235 0.8244 0.8254 0.8263
3558.000000 0.8273 0.8282 0.8291 0.8300 0.8309
3563.000000 0.8318 0.8327 0.8336 0.8345 0.8353
3568.000000 0.8357 0.8362 0.8366 0.8370 0.8375
3573.000000 0.8379 0.8384 0.8388 0.8392 0.8397
3578.000000 0.8401 0.8405 0.8410 0.8414 0.8418
3583.000000 0.8423 0.8427 0.8431 0.8434 0.8438
3588.000000 0.8442 0.8445 0.8449 0.8452 0.8453
3593.000000 0.8455 0.8457 0.8459 0.8461 0.8463
3598.000000 0.8465 0.8466 0.8468 0.8470 0.8472
3603.000000 0.8474 0.8476 0.8478 0.8479 0.8481
3608.000000 0.8483 0.8485 0.8487 0.8489 0.8491
3613.000000 0.8492 0.8493 0.8495 0.8496 0.8497
3618.000000 0.8499 0.8500 0.8501 0.8503 0.8504
3623.000000 0.8505 0.8507 0.8508 0.8509 0.8511
3628.000000 0.8512 0.8512 0.8512 0.8513 0.8513
3633.000000 0.8513 0.8513 0.8513 0.8513 0.8513
3638.000000 0.8513 0.8514 0.8514 0.8514 0.8514
3643.000000 0.8514 0.8514 0.8514 0.8514 0.8515
3648.000000 0.8515 0.8515 0.8515 0.8515 0.8515
3653.000000 0.8514 0.8512 0.8511 0.8510 0.8509
3658.000000 0.8508 0.8507 0.8506 0.8505 0.8504
3663.000000 0.8503 0.8502 0.8501 0.8521 0.8499
3668.000000 0.8497 0.8496 0.8495 0.8494 0.8493
3673.000000 0.8492 0.8492 0.8492 0.8492 0.8492
3678.000000 0.8492 0.8492 0.8492 0.8492 0.8493
3683.000000 0.8493 0.8493 0.8493 0.8493 0.8494
3688.000000 0.8496 0.8498 0.8500 0.8502 0.8504
3693.000000 0.8506 0.8508 0.8510 0.8512 0.8514
3698.000000 0.8516 0.8517 0.8517 0.8516 0.8516
3703.000000 0.8515 0.8515 0.8514 0.8513 0.8513
3708.000000 0.8512 0.8512 0.8510 0.8508 0.8505
3713.000000 0.8503 0.8500 0.8498 0.8495 0.8492
3718.000000 0.8490 0.8487 0.8485 0.8482 0.8480
3723.000000 0.8477 0.8475 0.8472 0.8469 0.8467
3728.000000 0.8464 0.8462 0.8459 0.8457 0.8454
3733.000000 0.8452 0.8449 0.8447 0.8445 0.8443
3738.000000 0.8441 0.8438 0.8436 0.8434 0.8432
3743.000000 0.8430 0.8428 0.8425 0.8423 0.8421
3748.000000 0.8419 0.8417 0.8415 0.8413 0.8410
3753.000000 0.8408 0.8406 0.8404 0.8402 0.8400
3758.000000 0.8398 0.8395 0.8393 0.8391 0.8389
3763.000000 0.8387 0.8385 0.8382 0.8381 0.8379
3768.000000 0.8377 0.8376 0.8374 0.8372 0.8371
3773.000000 0.8369 0.8367 0.8366 0.8364 0.8362
3778.000000 0.8360 0.8359 0.8357 0.8355 0.8354
3783.000000 0.8352 0.8350 0.8349 0.8347 0.8345
3788.000000 0.8344 0.8342 0.8340 0.8339 0.8337
3793.000000 0.8335 0.8334 0.8332 0.8330 0.8329
3798.000000 0.8327 0.8325 0.8324 0.8322 0.8321
3803.000000 0.8319 0.8318 0.8317 0.8316 0.8315
3808.000000 0.8313 0.8312 0.8311 0.8310 0.8308
3813.000000 0.8307 0.8306 0.8305 0.8304 0.8302
3818.000000 0.8301 0.8300 0.8299 0.8297 0.8296
3823.000000 0.8295 0.8294 0.8292 0.8291 0.8290
3828.000000 0.8289 0.8288 0.8286 0.8285 0.8284
3833.000000 0.8282 0.8281 0.8279 0.8277 0.8276
3838.000000 0.8274 0.8272 0.8270 0.8269 0.8267
3843.000000 0.8265 0.8264 0.8262 0.8260 0.8259
3848.000000 0.8257 0.8255 0.8254 0.8252 0.8250
3853.000000 0.8249 0.8247 0.8245 0.8244 0.8242
3858.000000 0.8240 0.8239 0.8237 0.8235 0.8233
3863.000000 0.8232 0.8230 0.8228 0.8227 0.8225
3868.000000 0.8223 0.8221 0.8219 0.8217 0.8216
3873.000000 0.8214 0.8212 0.8210 0.8208 0.8206
3878.000000 0.8205 0.8203 0.8201 0.8199 0.8197
3883.000000 0.8195 0.8194 0.8192 0.8190 0.8188
3888.000000 0.8186 0.8184 0.8183 0.8181 0.8179
3893.000000 0.8177 0.8175 0.8173 0.8171 0.8170
3898.000000 0.8169 0.8168 0.8166 0.8165 0.8164
3903.000000 0.8163 0.8162 0.8160 0.8159 0.8158
3908.000000 0.8157 0.8156 0.8154 0.8153 0.8152
3913.000000 0.8151 0.8150 0.8148 0.8147 0.8146
3918.000000 0.8145 0.8144 0.8142 0.8141 0.8140
3923.000000 0.8139 0.8138 0.8136 0.8136 0.8135
3928.000000 0.8134 0.8133 0.8132 0.8131 0.8131
3933.000000 0.8130 0.8129 0.8128 0.8127 0.8127
3938.000000 0.8126 0.8125 0.8124 0.8123 0.8122
3943.000000 0.8122 0.8121 0.8120 0.8119 0.8118
3948.000000 0.8117 0.8117 0.8116 0.8116 0.8116
3953.000000 0.8116 0.8116 0.8115 0.8115 0.8115
3958.000000 0.8115 0.8115 0.8115 0.8114 0.8114
3963.000000 0.8114 0.8114 0.8114 0.8113 0.8113
3968.000000 0.8113 0.8113 0.8113 0.8112 0.8089
3973.000000 0.8111 0.8108 0.8105 0.8102 0.8099
3978.000000 0.8097 0.8094 0.8091 0.8088 0.8085
3983.000000 0.8082 0.8079 0.8077 0.8074 0.8071
3988.000000 0.8068 0.8065 0.8062 0.8059 0.8057
3993.000000 0.8054 0.8051 0.8048 0.8045 0.8042
3998.000000 0.8039 0.8037 0.8036
##END=
