##TITLE=O-NITRO CARBANILIC ACID, CITRONELLOL ESTER
##JCAMP-DX=4.24
##DATA TYPE=INFRARED SPECTRUM
##CLASS=COBLENTZ
##ORIGIN=CITRUS EXPERIMENT STATION, UNIVERSITY OF FLORIDA (G. EDWARDS)
##OWNER=COBLENTZ SOCIETY
Collection (C) 2018 copyright by the U.S. Secretary of Commerce
on behalf of the United States of America. All rights reserved.
##DATE=Not specified, most likely prior to 1970
##MOLFORM=C17 H24 N2 O4
##SOURCE REFERENCE=COBLENTZ NO. 2479
##$NIST ID=B6002479
##$NIST SOURCE=COBLENTZ
##$NIST IMAGE=cob2479
##SPECTROMETER/DATA SYSTEM=Not specified, most likely a grating spectrometer.
##PATH LENGTH=CAPILLARY
##SAMPLING PROCEDURE=TRANSMISSION
##RESOLUTION=4
##DATA PROCESSING=DIGITIZED BY NIST FROM HARD COPY
##XUNITS=MICROMETERS
##YUNITS=TRANSMITTANCE
##XFACTOR=1.000000
##YFACTOR=1
##DELTAX=000.006626
##FIRSTX=2.033
##LASTX=15.0256
##FIRSTY=0.909
##MAXX=15.0256
##MINX=2.033
##MAXY=0.92
##MINY=0.259
##NPOINTS=1962
##XYDATA=(X++(Y..Y))
2.033000 0.9090 0.9090 0.9090 0.9090 0.9090
2.066145 0.9100 0.9120 0.9130 0.9130 0.9140
2.099000 0.9140 0.9160 0.9160 0.9170 0.9170
2.132145 0.9170 0.9170 0.9170 0.9170 0.9170
2.166000 0.9170 0.9160 0.9160 0.9140 0.9140
2.199145 0.9130 0.9130 0.9120 0.9100 0.9100
2.232000 0.9100 0.9100 0.9100 0.9100 0.9100
2.265145 0.9100 0.9100 0.9100 0.9100 0.9100
2.298000 0.9100 0.9100 0.9100 0.9100 0.9100
2.331145 0.9100 0.9100 0.9100 0.9090 0.9090
2.364000 0.9090 0.9080 0.9080 0.9080 0.9080
2.397145 0.9060 0.9060 0.9060 0.9060 0.9050
2.431000 0.9040 0.9040 0.9040 0.9040 0.9040
2.464145 0.9020 0.9020 0.9020 0.9020 0.9010
2.497000 0.9010 0.9010 0.9010 0.9010 0.9010
2.530145 0.9000 0.9000 0.9000 0.9000 0.9000
2.563000 0.9000 0.8980 0.8980 0.8980 0.8980
2.596145 0.8980 0.8980 0.8980 0.8980 0.8980
2.629000 0.8980 0.8980 0.8980 0.8980 0.8980
2.662145 0.8980 0.8980 0.8980 0.8980 0.8980
2.696000 0.8980 0.8980 0.8980 0.8980 0.8980
2.729145 0.8970 0.8970 0.8970 0.8970 0.8970
2.762000 0.8970 0.8970 0.8940 0.8930 0.8930
2.795145 0.8920 0.8900 0.8890 0.8880 0.8860
2.828000 0.8800 0.8780 0.8720 0.8690 0.8670
2.861145 0.8610 0.8570 0.8520 0.8480 0.8410
2.894000 0.8350 0.8230 0.8120 0.7960 0.7840
2.927145 0.7720 0.7640 0.7610 0.7640 0.7830
2.961000 0.8010 0.8170 0.8360 0.8570 0.8680
2.994145 0.8780 0.8850 0.8900 0.8930 0.8940
3.027000 0.8960 0.8960 0.8960 0.8940 0.8940
3.060145 0.8940 0.8930 0.8920 0.8900 0.8900
3.093000 0.8900 0.8890 0.8880 0.8840 0.8820
3.126145 0.8820 0.8810 0.8780 0.8720 0.8690
3.159000 0.8680 0.8630 0.8590 0.8570 0.8560
3.192145 0.8560 0.8550 0.8550 0.8530 0.8530
3.226000 0.8520 0.8490 0.8430 0.8350 0.8290
3.259145 0.8210 0.8130 0.8080 0.7990 0.7850
3.292000 0.7760 0.7530 0.7230 0.7100 0.6800
3.325145 0.6220 0.6110 0.5810 0.5790 0.5810
3.358000 0.5870 0.5980 0.6010 0.6020 0.6070
3.391145 0.6140 0.6270 0.6460 0.6660 0.6840
3.425000 0.7000 0.7150 0.7240 0.7310 0.7380
3.458145 0.7460 0.7640 0.7840 0.7990 0.8110
3.491000 0.8330 0.8550 0.8690 0.8810 0.8880
3.524145 0.8920 0.8940 0.8970 0.8980 0.9000
3.557000 0.9000 0.9010 0.9020 0.9020 0.9020
3.590145 0.9020 0.9040 0.9040 0.9040 0.9040
3.623000 0.9040 0.9050 0.9060 0.9080 0.9080
3.656145 0.9080 0.9090 0.9100 0.9100 0.9090
3.690000 0.9090 0.9090 0.9100 0.9100 0.9090
3.723145 0.9090 0.9060 0.9060 0.9050 0.9040
3.756000 0.9040 0.9040 0.9050 0.9050 0.9050
3.789145 0.9050 0.9060 0.9080 0.9090 0.9090
3.822000 0.9090 0.9090 0.9090 0.9090 0.9090
3.855145 0.9100 0.9100 0.9100 0.9100 0.9100
3.888000 0.9100 0.9100 0.9090 0.9090 0.9090
3.921145 0.9090 0.9090 0.9090 0.9090 0.9090
3.955000 0.9090 0.9090 0.9090 0.9090 0.9090
3.988145 0.9090 0.9100 0.9100 0.9090 0.9090
4.021000 0.9080 0.9080 0.9060 0.9060 0.9060
4.054145 0.9060 0.9090 0.9090 0.9090 0.9090
4.087000 0.9090 0.9090 0.9090 0.9090 0.9090
4.120145 0.9090 0.9090 0.9090 0.9090 0.9050
4.153000 0.9050 0.9050 0.9050 0.9050 0.9050
4.186145 0.9050 0.9050 0.9050 0.9060 0.9090
4.220000 0.9090 0.9100 0.9100 0.9100 0.9100
4.253145 0.9100 0.9100 0.9120 0.9120 0.9120
4.286000 0.9120 0.9120 0.9120 0.9120 0.9120
4.319145 0.9120 0.9120 0.9100 0.9100 0.9100
4.352000 0.9100 0.9100 0.9120 0.9120 0.9140
4.385145 0.9140 0.9140 0.9120 0.9120 0.9120
4.418000 0.9120 0.9120 0.9130 0.9130 0.9130
4.451145 0.9130 0.9130 0.9130 0.9130 0.9130
4.485000 0.9130 0.9130 0.9130 0.9130 0.9140
4.518145 0.9140 0.9140 0.9140 0.9140 0.9140
4.551000 0.9140 0.9140 0.9160 0.9160 0.9160
4.584145 0.9160 0.9160 0.9160 0.9160 0.9140
4.617000 0.9140 0.9140 0.9140 0.9140 0.9140
4.650145 0.9160 0.9160 0.9160 0.9180 0.9180
4.683000 0.9180 0.9180 0.9160 0.9160 0.9160
4.716145 0.9160 0.9160 0.9160 0.9160 0.9160
4.750000 0.9160 0.9160 0.9160 0.9160 0.9160
4.783145 0.9160 0.9160 0.9160 0.9170 0.9180
4.816000 0.9180 0.9180 0.9200 0.9200 0.9200
4.849145 0.9200 0.9200 0.9200 0.9200 0.9200
4.882000 0.9200 0.9200 0.9200 0.9200 0.9200
4.915145 0.9200 0.9200 0.9200 0.9200 0.9200
4.948000 0.9200 0.9200 0.9180 0.9180 0.9180
4.981145 0.9180 0.9180 0.9170 0.9170 0.9160
5.015000 0.9160 0.9130 0.9130 0.9100 0.9090
5.048145 0.9060 0.9060 0.9050 0.9050 0.9050
5.081000 0.9050 0.9050 0.9060 0.9060 0.9050
5.114145 0.9050 0.9050 0.9050 0.9050 0.9060
5.147000 0.9060 0.9050 0.9050 0.9050 0.9050
5.180145 0.9050 0.9050 0.9040 0.9040 0.9040
5.213000 0.9040 0.9040 0.9020 0.9020 0.9020
5.246145 0.9020 0.9020 0.9020 0.9020 0.9020
5.280000 0.9020 0.9020 0.9010 0.9010 0.9000
5.313145 0.9000 0.8960 0.8930 0.8890 0.8890
5.346000 0.8860 0.8840 0.8800 0.8780 0.8760
5.379145 0.8750 0.8730 0.8720 0.8720 0.8720
5.412000 0.8710 0.8710 0.8710 0.8690 0.8650
5.445145 0.8630 0.8610 0.8600 0.8600 0.8560
5.478000 0.8560 0.8560 0.8550 0.8530 0.8510
5.511145 0.8470 0.8430 0.8410 0.8360 0.8240
5.545000 0.8200 0.8130 0.8040 0.8010 0.8000
5.578145 0.7960 0.7840 0.7650 0.7560 0.7230
5.611000 0.7070 0.6910 0.6740 0.6680 0.6560
5.644145 0.6350 0.5930 0.5570 0.5370 0.4980
5.677000 0.4890 0.4890 0.4940 0.5020 0.5130
5.710145 0.5290 0.5510 0.5770 0.6060 0.6360
5.743000 0.6720 0.7070 0.7240 0.7310 0.7460
5.776145 0.7640 0.7800 0.8010 0.8120 0.8170
5.810000 0.8190 0.8190 0.8200 0.8200 0.8200
5.843145 0.8200 0.8200 0.8200 0.8200 0.8200
5.876000 0.8200 0.8190 0.8170 0.8170 0.8130
5.909145 0.8110 0.8110 0.8090 0.8090 0.8090
5.942000 0.8080 0.8050 0.8030 0.8000 0.8000
5.975145 0.7960 0.7930 0.7890 0.7830 0.7760
6.009000 0.7690 0.7630 0.7560 0.7510 0.7440
6.042145 0.7440 0.7430 0.7420 0.7400 0.7390
6.075000 0.7350 0.7260 0.7070 0.6900 0.6800
6.108145 0.6760 0.6720 0.6560 0.6220 0.5970
6.141000 0.5700 0.5420 0.5260 0.5070 0.4880
6.174145 0.4820 0.4880 0.5020 0.5350 0.5670
6.207000 0.5970 0.6210 0.6210 0.6210 0.6130
6.240145 0.5980 0.5710 0.5450 0.5100 0.4650
6.274000 0.4570 0.4560 0.4580 0.5000 0.5460
6.307145 0.5940 0.6400 0.6670 0.6910 0.6920
6.340000 0.6910 0.6900 0.6800 0.6740 0.6710
6.373145 0.6510 0.6310 0.6130 0.6020 0.5940
6.406000 0.5900 0.5850 0.5780 0.5660 0.5470
6.439145 0.5330 0.5060 0.4900 0.4860 0.4860
6.472000 0.4860 0.4850 0.4810 0.4610 0.4490
6.505145 0.4290 0.4060 0.3730 0.3550 0.3440
6.539000 0.3390 0.3370 0.3370 0.3370 0.3370
6.572145 0.3410 0.3450 0.3610 0.3760 0.3820
6.605000 0.3850 0.3850 0.3880 0.4000 0.4100
6.638145 0.4610 0.5090 0.5390 0.5530 0.5670
6.671000 0.5830 0.6020 0.6190 0.6260 0.6310
6.704145 0.6320 0.6310 0.6280 0.6170 0.6020
6.737000 0.5870 0.5630 0.5420 0.5270 0.5170
6.770145 0.5110 0.5100 0.5060 0.4860 0.4650
6.804000 0.4500 0.4420 0.4420 0.4420 0.4440
6.837145 0.4440 0.4450 0.4460 0.4500 0.4530
6.870000 0.4560 0.4570 0.4570 0.4500 0.4440
6.903145 0.4360 0.4180 0.4170 0.4180 0.4330
6.936000 0.4520 0.4620 0.4700 0.4800 0.5050
6.969145 0.5260 0.5470 0.5580 0.5770 0.5970
7.002000 0.6140 0.6340 0.6480 0.6580 0.6710
7.035145 0.6820 0.6840 0.6870 0.6910 0.6910
7.069000 0.6940 0.6950 0.6960 0.6960 0.6960
7.102145 0.6960 0.6960 0.6960 0.6940 0.6840
7.135000 0.6760 0.6740 0.6720 0.6700 0.6630
7.168145 0.6620 0.6560 0.6470 0.6420 0.6400
7.201000 0.6400 0.6400 0.6400 0.6430 0.6440
7.234145 0.6510 0.6560 0.6620 0.6660 0.6680
7.267000 0.6670 0.6660 0.6620 0.6520 0.6470
7.300145 0.6360 0.6220 0.6070 0.6020 0.6010
7.334000 0.5940 0.5770 0.5570 0.5300 0.5020
7.367145 0.4760 0.4450 0.4090 0.3730 0.3280
7.400000 0.3190 0.3170 0.3170 0.3200 0.3430
7.433145 0.3730 0.4060 0.4320 0.4560 0.4800
7.466000 0.5060 0.5350 0.5610 0.5750 0.6020
7.499145 0.6110 0.6110 0.6110 0.6110 0.6050
7.532000 0.5910 0.5780 0.5630 0.5590 0.5590
7.565145 0.5610 0.5670 0.5750 0.5870 0.5910
7.599000 0.5950 0.6010 0.6020 0.6020 0.6020
7.632145 0.6020 0.6020 0.6020 0.6010 0.5990
7.665000 0.5980 0.5950 0.5910 0.5850 0.5780
7.698145 0.5770 0.5650 0.5570 0.5510 0.5380
7.731000 0.5300 0.5180 0.5110 0.5000 0.4880
7.764145 0.4760 0.4700 0.4600 0.4580 0.4580
7.797000 0.4580 0.4580 0.4610 0.4680 0.4730
7.830145 0.4820 0.4930 0.5020 0.5070 0.5140
7.864000 0.5300 0.5350 0.5410 0.5450 0.5510
7.897145 0.5540 0.5540 0.5510 0.5470 0.5420
7.930000 0.5290 0.5180 0.5020 0.4850 0.4700
7.963145 0.4460 0.4170 0.4010 0.3720 0.3550
7.996000 0.3310 0.3190 0.3050 0.2970 0.2950
8.029145 0.2950 0.2970 0.3080 0.3210 0.3250
8.062000 0.3520 0.3770 0.3980 0.4210 0.4450
8.095145 0.4720 0.4970 0.5220 0.5430 0.5630
8.129000 0.5780 0.5850 0.5870 0.5890 0.5870
8.162145 0.5860 0.5820 0.5750 0.5670 0.5550
8.195000 0.5390 0.5210 0.5010 0.4800 0.4610
8.228145 0.4440 0.4280 0.4090 0.3810 0.3570
8.261000 0.3290 0.3080 0.2880 0.2750 0.2610
8.294145 0.2590 0.2590 0.2610 0.2640 0.2760
8.327000 0.2910 0.3080 0.3290 0.3530 0.3800
8.360145 0.4080 0.4370 0.4680 0.5020 0.5250
8.394000 0.5580 0.5890 0.6140 0.6420 0.6520
8.427145 0.6620 0.6710 0.6840 0.6940 0.7020
8.460000 0.7060 0.7120 0.7140 0.7140 0.7140
8.493145 0.7140 0.7140 0.7120 0.7100 0.7040
8.526000 0.6990 0.6910 0.6820 0.6680 0.6550
8.559145 0.6430 0.6310 0.6250 0.6190 0.6180
8.593000 0.6180 0.6190 0.6320 0.6440 0.6480
8.626145 0.6560 0.6660 0.6720 0.6740 0.6720
8.659000 0.6700 0.6600 0.6540 0.6460 0.6420
8.692145 0.6400 0.6420 0.6540 0.6710 0.6870
8.725000 0.7020 0.7240 0.7470 0.7560 0.7680
8.758145 0.7790 0.7910 0.7950 0.7960 0.7970
8.791000 0.8010 0.8040 0.8070 0.8080 0.8080
8.824145 0.8080 0.8080 0.8070 0.8050 0.8040
8.858000 0.8040 0.8040 0.8040 0.8030 0.8030
8.891145 0.8030 0.8010 0.8000 0.8000 0.7970
8.924000 0.7960 0.7950 0.7920 0.7920 0.7910
8.957145 0.7880 0.7840 0.7830 0.7810 0.7810
8.990000 0.7810 0.7800 0.7790 0.7760 0.7760
9.023145 0.7750 0.7750 0.7730 0.7720 0.7690
9.056000 0.7640 0.7610 0.7550 0.7510 0.7430
9.089145 0.7360 0.7320 0.7240 0.7150 0.6990
9.123000 0.6940 0.6840 0.6700 0.6560 0.6430
9.156145 0.6270 0.6110 0.6020 0.5890 0.5780
9.189000 0.5770 0.5790 0.5850 0.5940 0.6030
9.222145 0.6180 0.6360 0.6520 0.6640 0.6760
9.255000 0.6840 0.6920 0.6980 0.6990 0.6960
9.288145 0.6950 0.6920 0.6870 0.6710 0.6670
9.321000 0.6560 0.6470 0.6360 0.6180 0.6030
9.354145 0.5900 0.5820 0.5730 0.5650 0.5590
9.388000 0.5570 0.5570 0.5570 0.5580 0.5610
9.421145 0.5620 0.5650 0.5670 0.5730 0.5820
9.454000 0.5900 0.6060 0.6170 0.6250 0.6310
9.487145 0.6340 0.6390 0.6430 0.6460 0.6480
9.520000 0.6510 0.6510 0.6510 0.6480 0.6460
9.553145 0.6430 0.6400 0.6390 0.6390 0.6390
9.586000 0.6420 0.6460 0.6540 0.6660 0.6760
9.619145 0.6880 0.6980 0.7040 0.7150 0.7230
9.653000 0.7320 0.7400 0.7500 0.7560 0.7640
9.686145 0.7690 0.7730 0.7790 0.7830 0.7880
9.719000 0.7920 0.7990 0.8040 0.8110 0.8120
9.752145 0.8190 0.8230 0.8250 0.8290 0.8330
9.785000 0.8360 0.8390 0.8400 0.8430 0.8450
9.818145 0.8490 0.8510 0.8520 0.8530 0.8550
9.851000 0.8530 0.8560 0.8560 0.8560 0.8570
9.884145 0.8570 0.8570 0.8570 0.8560 0.8560
9.918000 0.8560 0.8560 0.8550 0.8550 0.8550
9.951145 0.8530 0.8530 0.8520 0.8520 0.8520
9.984000 0.8510 0.8510 0.8510 0.8510 0.8490
10.017145 0.8490 0.8480 0.8480 0.8470 0.8470
10.050000 0.8440 0.8430 0.8410 0.8400 0.8400
10.083145 0.8390 0.8360 0.8360 0.8330 0.8310
10.116000 0.8310 0.8290 0.8290 0.8280 0.8280
10.149145 0.8270 0.8270 0.8270 0.8270 0.8250
10.183000 0.8240 0.8240 0.8240 0.8230 0.8210
10.216145 0.8210 0.8210 0.8210 0.8210 0.8200
10.249000 0.8200 0.8200 0.8200 0.8200 0.8190
10.282145 0.8190 0.8190 0.8190 0.8190 0.8190
10.315000 0.8190 0.8190 0.8170 0.8170 0.8170
10.348145 0.8150 0.8150 0.8130 0.8130 0.8120
10.381000 0.8120 0.8120 0.8120 0.8120 0.8120
10.414145 0.8120 0.8120 0.8130 0.8130 0.8160
10.448000 0.8190 0.8200 0.8210 0.8230 0.8250
10.481145 0.8280 0.8310 0.8310 0.8320 0.8350
10.514000 0.8370 0.8400 0.8440 0.8450 0.8470
10.547145 0.8480 0.8490 0.8510 0.8510 0.8510
10.580000 0.8510 0.8520 0.8520 0.8520 0.8530
10.613145 0.8530 0.8530 0.8570 0.8600 0.8630
10.646000 0.8640 0.8650 0.8670 0.8680 0.8710
10.679145 0.8720 0.8750 0.8770 0.8800 0.8800
10.713000 0.8810 0.8810 0.8820 0.8850 0.8860
10.746145 0.8880 0.8880 0.8890 0.8900 0.8900
10.779000 0.8900 0.8920 0.8930 0.8930 0.8930
10.812145 0.8930 0.8940 0.8940 0.8940 0.8940
10.845000 0.8940 0.8940 0.8940 0.8940 0.8940
10.878145 0.8940 0.8930 0.8930 0.8930 0.8930
10.911000 0.8930 0.8920 0.8920 0.8920 0.8920
10.944145 0.8930 0.8960 0.8980 0.8980 0.9000
10.978000 0.9000 0.9000 0.9000 0.9000 0.9000
11.011145 0.9010 0.9010 0.9010 0.9010 0.9010
11.044000 0.9010 0.9000 0.9000 0.9000 0.9000
11.077145 0.9000 0.9000 0.9000 0.9000 0.9000
11.110000 0.8980 0.8980 0.8980 0.8970 0.8970
11.143145 0.8960 0.8960 0.8960 0.8940 0.8940
11.177000 0.8940 0.8940 0.8940 0.8940 0.8940
11.210145 0.8940 0.8930 0.8930 0.8930 0.8920
11.243000 0.8920 0.8900 0.8900 0.8890 0.8890
11.276145 0.8880 0.8860 0.8850 0.8840 0.8800
11.309000 0.8770 0.8770 0.8750 0.8750 0.8730
11.342145 0.8720 0.8720 0.8680 0.8670 0.8650
11.375000 0.8640 0.8610 0.8600 0.8560 0.8510
11.408145 0.8450 0.8430 0.8360 0.8320 0.8270
11.442000 0.8210 0.8160 0.8120 0.8040 0.8010
11.475145 0.7920 0.7880 0.7810 0.7710 0.7590
11.508000 0.7470 0.7350 0.7160 0.7110 0.7000
11.541145 0.6990 0.6990 0.7000 0.7000 0.7040
11.574000 0.7070 0.7120 0.7190 0.7300 0.7420
11.607145 0.7550 0.7670 0.7760 0.7840 0.7920
11.640000 0.7990 0.8080 0.8160 0.8210 0.8210
11.673145 0.8240 0.8250 0.8270 0.8310 0.8330
11.707000 0.8350 0.8350 0.8350 0.8330 0.8330
11.740145 0.8330 0.8330 0.8330 0.8330 0.8330
11.773000 0.8320 0.8320 0.8320 0.8310 0.8290
11.806145 0.8270 0.8240 0.8230 0.8230 0.8210
11.839000 0.8170 0.8150 0.8130 0.8120 0.8110
11.872145 0.8090 0.8090 0.8080 0.8080 0.8080
11.905000 0.8080 0.8080 0.8080 0.8080 0.8080
11.938145 0.8080 0.8090 0.8090 0.8090 0.8090
11.972000 0.8090 0.8090 0.8090 0.8120 0.8120
12.005145 0.8130 0.8130 0.8130 0.8130 0.8130
12.038000 0.8130 0.8150 0.8160 0.8160 0.8160
12.071145 0.8170 0.8170 0.8170 0.8190 0.8190
12.104000 0.8190 0.8190 0.8200 0.8200 0.8200
12.137145 0.8200 0.8210 0.8210 0.8210 0.8210
12.170000 0.8240 0.8240 0.8240 0.8280 0.8290
12.203145 0.8320 0.8330 0.8350 0.8360 0.8370
12.237000 0.8370 0.8390 0.8390 0.8410 0.8410
12.270145 0.8410 0.8410 0.8410 0.8410 0.8410
12.303000 0.8410 0.8410 0.8390 0.8370 0.8370
12.336145 0.8370 0.8360 0.8360 0.8350 0.8350
12.369000 0.8350 0.8350 0.8330 0.8330 0.8330
12.402145 0.8330 0.8320 0.8310 0.8290 0.8240
12.435000 0.8230 0.8200 0.8190 0.8170 0.8130
12.468145 0.8120 0.8110 0.8080 0.8030 0.7970
12.502000 0.7840 0.7730 0.7690 0.7650 0.7590
12.535145 0.7550 0.7520 0.7480 0.7440 0.7420
12.568000 0.7420 0.7380 0.7350 0.7350 0.7320
12.601145 0.7300 0.7280 0.7270 0.7260 0.7240
12.634000 0.7240 0.7230 0.7220 0.7220 0.7200
12.667145 0.7150 0.7120 0.7110 0.7070 0.7000
12.700000 0.6920 0.6820 0.6750 0.6710 0.6630
12.733145 0.6600 0.6600 0.6600 0.6600 0.6600
12.767000 0.6600 0.6620 0.6620 0.6640 0.6740
12.800145 0.6800 0.6910 0.7020 0.7070 0.7140
12.833000 0.7220 0.7300 0.7390 0.7440 0.7460
12.866145 0.7500 0.7500 0.7500 0.7480 0.7480
12.899000 0.7470 0.7430 0.7420 0.7400 0.7360
12.932145 0.7320 0.7260 0.7220 0.7200 0.7110
12.965000 0.7040 0.7020 0.7000 0.6950 0.6870
12.998145 0.6830 0.6790 0.6780 0.6780 0.6780
13.032000 0.6780 0.6800 0.6800 0.6820 0.6840
13.065145 0.6870 0.6880 0.6910 0.6940 0.7020
13.098000 0.7100 0.7150 0.7200 0.7240 0.7280
13.131145 0.7320 0.7350 0.7360 0.7390 0.7400
13.164000 0.7420 0.7430 0.7430 0.7440 0.7440
13.197145 0.7440 0.7430 0.7430 0.7430 0.7420
13.230000 0.7420 0.7420 0.7390 0.7380 0.7340
13.263145 0.7270 0.7240 0.7220 0.7180 0.7070
13.297000 0.6980 0.6910 0.6830 0.6760 0.6670
13.330145 0.6550 0.6360 0.6260 0.6130 0.5980
13.363000 0.5830 0.5690 0.5530 0.5380 0.5250
13.396145 0.5100 0.4960 0.4810 0.4680 0.4610
13.429000 0.4540 0.4500 0.4440 0.4410 0.4380
13.462145 0.4370 0.4370 0.4380 0.4420 0.4460
13.496000 0.4540 0.4610 0.4740 0.4860 0.4970
13.529145 0.5090 0.5210 0.5310 0.5430 0.5550
13.562000 0.5670 0.5790 0.5950 0.6100 0.6220
13.595145 0.6340 0.6430 0.6520 0.6620 0.6680
13.628000 0.6760 0.6830 0.6880 0.6920 0.6980
13.661145 0.7030 0.7070 0.7120 0.7180 0.7220
13.694000 0.7230 0.7280 0.7310 0.7320 0.7340
13.727145 0.7360 0.7380 0.7400 0.7430 0.7470
13.761000 0.7480 0.7510 0.7520 0.7520 0.7530
13.794145 0.7550 0.7550 0.7570 0.7570 0.7600
13.827000 0.7610 0.7610 0.7610 0.7630 0.7630
13.860145 0.7630 0.7610 0.7610 0.7610 0.7610
13.893000 0.7610 0.7600 0.7600 0.7600 0.7600
13.926145 0.7600 0.7590 0.7590 0.7590 0.7590
13.959000 0.7590 0.7570 0.7570 0.7560 0.7560
13.992145 0.7550 0.7550 0.7530 0.7530 0.7530
14.026000 0.7520 0.7520 0.7510 0.7510 0.7510
14.059145 0.7500 0.7500 0.7480 0.7480 0.7470
14.092000 0.7440 0.7440 0.7430 0.7420 0.7420
14.125145 0.7400 0.7380 0.7360 0.7340 0.7320
14.158000 0.7320 0.7310 0.7310 0.7300 0.7280
14.191145 0.7270 0.7260 0.7260 0.7240 0.7230
14.224000 0.7230 0.7220 0.7200 0.7190 0.7180
14.257145 0.7160 0.7150 0.7140 0.7120 0.7100
14.291000 0.7080 0.7070 0.7040 0.7020 0.7000
14.324145 0.6980 0.6960 0.6950 0.6920 0.6910
14.357000 0.6900 0.6840 0.6830 0.6800 0.6790
14.390145 0.6750 0.6750 0.6700 0.6620 0.6600
14.423000 0.6560 0.6540 0.6520 0.6470 0.6400
14.456145 0.6340 0.6300 0.6260 0.6230 0.6190
14.489000 0.6190 0.6180 0.6180 0.6180 0.6180
14.522145 0.6190 0.6190 0.6190 0.6210 0.6210
14.556000 0.6220 0.6220 0.6220 0.6220 0.6220
14.589145 0.6220 0.6220 0.6210 0.6190 0.6180
14.622000 0.6170 0.6150 0.6110 0.6110 0.6090
14.655145 0.6060 0.6030 0.6020 0.6010 0.6010
14.688000 0.5980 0.5970 0.5930 0.5910 0.5910
14.721145 0.5900 0.5870 0.5860 0.5860 0.5830
14.754000 0.5830 0.5820 0.5820 0.5820 0.5820
14.787145 0.5830 0.5830 0.5830 0.5830 0.5860
14.821000 0.5860 0.5870 0.5870 0.5890 0.5900
14.854145 0.5900 0.5900 0.5900 0.5910 0.5910
14.887000 0.5930 0.5930 0.5930 0.5910 0.5910
14.920145 0.5900 0.5900 0.5870 0.5850 0.5820
14.953000 0.5810 0.5810 0.5810 0.5790 0.5790
14.986145 0.5790 0.5790 0.5780 0.5770 0.5750
15.019000 0.5710 0.5620
##END=
