##TITLE=PRASEODYMIUM OXALATE
##JCAMP-DX=4.24
##DATA TYPE=INFRARED SPECTRUM
##CLASS=COBLENTZ
##OWNER=COBLENTZ SOCIETY
Collection (C) 2018 copyright by the U.S. Secretary of Commerce
on behalf of the United States of America. All rights reserved.
##DATE=Not specified, most likely prior to 1970
##MOLFORM=Pr2 ( C2 O4)3  * 10 H2 O
##SOURCE REFERENCE=COBLENTZ NO. 77
##$NIST ID=B6000077
##$NIST SOURCE=COBLENTZ
##$NIST IMAGE=cob77
##SPECTROMETER/DATA SYSTEM=Not specified, most likely a prism, grating, or hybrid spectrometer.
##STATE=SOLID (KBr DISC)
##SAMPLING PROCEDURE=TRANSMISSION
##RESOLUTION=4
##DATA PROCESSING=DIGITIZED BY NIST FROM HARD COPY
##XUNITS=MICROMETERS
##YUNITS=TRANSMITTANCE
##XFACTOR=1.000000
##YFACTOR=1
##DELTAX=000.007666
##FIRSTX=1.976
##LASTX=14.978
##FIRSTY=0.943
##MAXX=14.978
##MINX=1.976
##MAXY=0.977
##MINY=0.206
##NPOINTS=1697
##XYDATA=(X++(Y..Y))
1.976000 0.9430 0.9410 0.9430 0.9410 0.9410
2.014353 0.9410 0.9410 0.9410 0.9410 0.9410
2.053000 0.9410 0.9410 0.9410 0.9410 0.9430
2.091353 0.9430 0.9440 0.9440 0.9460 0.9470
2.129000 0.9490 0.9490 0.9490 0.9500 0.9520
2.167353 0.9520 0.9520 0.9520 0.9520 0.9520
2.206000 0.9520 0.9520 0.9500 0.9490 0.9490
2.244353 0.9490 0.9500 0.9500 0.9500 0.9520
2.283000 0.9520 0.9530 0.9530 0.9550 0.9560
2.321353 0.9580 0.9580 0.9580 0.9590 0.9590
2.359000 0.9590 0.9610 0.9610 0.9610 0.9610
2.397353 0.9610 0.9610 0.9610 0.9610 0.9620
2.436000 0.9620 0.9620 0.9620 0.9620 0.9620
2.474353 0.9620 0.9620 0.9620 0.9620 0.9620
2.513000 0.9620 0.9620 0.9620 0.9620 0.9620
2.551353 0.9620 0.9620 0.9620 0.9620 0.9620
2.589000 0.9620 0.9620 0.9620 0.9620 0.9620
2.627353 0.9640 0.9640 0.9640 0.9640 0.9640
2.666000 0.9640 0.9640 0.9640 0.9640 0.9640
2.704353 0.9640 0.9650 0.9640 0.9640 0.9640
2.743000 0.9640 0.9620 0.9560 0.9500 0.9410
2.781353 0.9350 0.9190 0.9040 0.8930 0.8690
2.819000 0.8500 0.8080 0.7840 0.7560 0.7320
2.857353 0.6870 0.6500 0.6330 0.6200 0.6080
2.896000 0.5900 0.5730 0.5600 0.5510 0.5450
2.934353 0.5360 0.5270 0.5180 0.5150 0.5120
2.973000 0.5120 0.5110 0.5110 0.5110 0.5110
3.011353 0.5120 0.5230 0.5300 0.5350 0.5410
3.049000 0.5500 0.5560 0.5590 0.5660 0.5750
3.087353 0.5850 0.5930 0.6000 0.6060 0.6140
3.126000 0.6170 0.6240 0.6330 0.6410 0.6470
3.164353 0.6530 0.6600 0.6650 0.6680 0.6740
3.203000 0.6800 0.6870 0.6920 0.6990 0.7050
3.241353 0.7180 0.7270 0.7360 0.7440 0.7480
3.279000 0.7590 0.7650 0.7710 0.7770 0.7810
3.317353 0.7870 0.7960 0.8020 0.8100 0.8140
3.356000 0.8230 0.8340 0.8350 0.8380 0.8410
3.394353 0.8470 0.8490 0.8520 0.8530 0.8550
3.433000 0.8570 0.8590 0.8630 0.8690 0.8720
3.471353 0.8770 0.8780 0.8830 0.8870 0.8920
3.509000 0.8920 0.8950 0.8960 0.8980 0.9010
3.547353 0.9040 0.9080 0.9110 0.9130 0.9170
3.586000 0.9190 0.9220 0.9260 0.9290 0.9320
3.624353 0.9320 0.9340 0.9350 0.9350 0.9370
3.663000 0.9370 0.9370 0.9400 0.9400 0.9410
3.701353 0.9430 0.9440 0.9440 0.9470 0.9470
3.739000 0.9490 0.9490 0.9500 0.9520 0.9530
3.777353 0.9550 0.9580 0.9580 0.9590 0.9590
3.816000 0.9590 0.9590 0.9610 0.9610 0.9610
3.854353 0.9610 0.9610 0.9610 0.9620 0.9620
3.893000 0.9620 0.9620 0.9640 0.9640 0.9650
3.931353 0.9650 0.9670 0.9670 0.9680 0.9680
3.969000 0.9680 0.9680 0.9680 0.9680 0.9680
4.007353 0.9680 0.9670 0.9670 0.9680 0.9680
4.046000 0.9680 0.9700 0.9700 0.9710 0.9710
4.084353 0.9730 0.9730 0.9730 0.9730 0.9730
4.123000 0.9730 0.9730 0.9740 0.9740 0.9740
4.161353 0.9740 0.9740 0.9740 0.9740 0.9740
4.199000 0.9740 0.9760 0.9760 0.9760 0.9740
4.237353 0.9740 0.9740 0.9740 0.9740 0.9760
4.276000 0.9760 0.9760 0.9760 0.9760 0.9760
4.314353 0.9760 0.9760 0.9760 0.9760 0.9760
4.353000 0.9760 0.9760 0.9760 0.9760 0.9760
4.391353 0.9760 0.9760 0.9760 0.9760 0.9760
4.429000 0.9760 0.9760 0.9740 0.9740 0.9740
4.467353 0.9740 0.9740 0.9740 0.9740 0.9740
4.506000 0.9740 0.9760 0.9760 0.9760 0.9760
4.544353 0.9760 0.9760 0.9760 0.9760 0.9760
4.583000 0.9760 0.9760 0.9760 0.9760 0.9760
4.621353 0.9760 0.9760 0.9760 0.9760 0.9760
4.659000 0.9760 0.9760 0.9760 0.9760 0.9760
4.697353 0.9760 0.9760 0.9760 0.9760 0.9760
4.736000 0.9760 0.9760 0.9760 0.9760 0.9760
4.774353 0.9760 0.9760 0.9760 0.9760 0.9760
4.813000 0.9760 0.9760 0.9760 0.9760 0.9760
4.851353 0.9760 0.9760 0.9760 0.9760 0.9760
4.889000 0.9760 0.9760 0.9760 0.9760 0.9760
4.927353 0.9760 0.9760 0.9760 0.9760 0.9770
4.966000 0.9760 0.9760 0.9760 0.9760 0.9760
5.004353 0.9770 0.9770 0.9760 0.9760 0.9770
5.043000 0.9770 0.9770 0.9770 0.9770 0.9770
5.081353 0.9770 0.9770 0.9770 0.9770 0.9770
5.119000 0.9770 0.9770 0.9760 0.9760 0.9760
5.157353 0.9760 0.9770 0.9770 0.9770 0.9770
5.196000 0.9770 0.9770 0.9770 0.9770 0.9770
5.234353 0.9770 0.9760 0.9760 0.9760 0.9740
5.273000 0.9740 0.9740 0.9740 0.9740 0.9730
5.311353 0.9730 0.9730 0.9730 0.9730 0.9730
5.349000 0.9730 0.9730 0.9730 0.9730 0.9730
5.387353 0.9730 0.9730 0.9730 0.9730 0.9730
5.426000 0.9730 0.9730 0.9730 0.9730 0.9710
5.464353 0.9710 0.9700 0.9700 0.9680 0.9670
5.503000 0.9650 0.9620 0.9610 0.9590 0.9580
5.541353 0.9560 0.9560 0.9560 0.9550 0.9550
5.579000 0.9550 0.9530 0.9520 0.9490 0.9460
5.617353 0.9430 0.9410 0.9400 0.9380 0.9380
5.656000 0.9370 0.9350 0.9340 0.9280 0.9260
5.694353 0.9230 0.9220 0.9190 0.9160 0.9100
5.733000 0.9070 0.9040 0.9020 0.8960 0.8920
5.771353 0.8830 0.8680 0.8590 0.8340 0.8080
5.809000 0.7920 0.7690 0.7560 0.7350 0.7130
5.847353 0.6390 0.6170 0.6020 0.5930 0.5790
5.886000 0.5630 0.5350 0.5090 0.4900 0.4750
5.924353 0.4660 0.4520 0.4420 0.4210 0.4060
5.963000 0.3940 0.3820 0.3600 0.3540 0.3030
6.001353 0.2940 0.2860 0.2840 0.2810 0.2750
6.039000 0.2670 0.2580 0.2430 0.2330 0.2270
6.077353 0.2250 0.2240 0.2220 0.2190 0.2150
6.116000 0.2100 0.2090 0.2070 0.2060 0.2060
6.154353 0.2060 0.2060 0.2060 0.2070 0.2130
6.193000 0.2160 0.2270 0.2370 0.2460 0.2570
6.231353 0.2760 0.2840 0.2970 0.3280 0.3370
6.269000 0.3460 0.3690 0.3940 0.4030 0.4210
6.307353 0.4400 0.4610 0.4780 0.5000 0.5200
6.346000 0.5330 0.5500 0.5650 0.5790 0.5910
6.384353 0.6020 0.6110 0.6180 0.6260 0.6330
6.422000 0.6530 0.6600 0.6660 0.6770 0.6890
6.460353 0.7010 0.7050 0.7100 0.7130 0.7140
6.499000 0.7150 0.7230 0.7350 0.7500 0.7660
6.537353 0.7720 0.7770 0.7800 0.7810 0.7830
6.576000 0.7840 0.7860 0.7870 0.7900 0.7960
6.614353 0.8040 0.8050 0.8070 0.8080 0.8110
6.652000 0.8170 0.8250 0.8290 0.8310 0.8320
6.690353 0.8340 0.8340 0.8340 0.8340 0.8340
6.729000 0.8340 0.8340 0.8340 0.8340 0.8310
6.767353 0.8280 0.8250 0.8230 0.8230 0.8230
6.806000 0.8220 0.8190 0.8170 0.8170 0.8170
6.844353 0.8170 0.8170 0.8190 0.8200 0.8250
6.882000 0.8320 0.8320 0.8340 0.8370 0.8380
6.920353 0.8400 0.8470 0.8490 0.8520 0.8520
6.959000 0.8530 0.8530 0.8550 0.8590 0.8630
6.997353 0.8660 0.8690 0.8750 0.8780 0.8780
7.036000 0.8800 0.8800 0.8800 0.8830 0.8840
7.074353 0.8870 0.8890 0.8920 0.8930 0.8930
7.112000 0.8960 0.8980 0.8980 0.8990 0.8990
7.150353 0.9010 0.9010 0.9020 0.9020 0.9040
7.189000 0.9040 0.9050 0.9050 0.9050 0.9050
7.227353 0.9050 0.9050 0.9050 0.9050 0.9040
7.266000 0.9040 0.9010 0.8990 0.8950 0.8890
7.304353 0.8830 0.8770 0.8710 0.8660 0.8620
7.342000 0.8560 0.8520 0.8460 0.8410 0.8380
7.380353 0.8350 0.8320 0.8310 0.8280 0.8250
7.419000 0.8200 0.8190 0.8160 0.8130 0.8100
7.457353 0.8050 0.8040 0.8010 0.7980 0.7930
7.496000 0.7890 0.7770 0.7680 0.7590 0.7470
7.534353 0.7350 0.7200 0.7010 0.6750 0.6330
7.572000 0.6060 0.5940 0.5820 0.5690 0.5630
7.610353 0.5570 0.5560 0.5540 0.5540 0.5560
7.649000 0.5590 0.5630 0.5750 0.5880 0.6060
7.687353 0.6170 0.6380 0.6510 0.6600 0.6680
7.726000 0.6860 0.6980 0.7130 0.7260 0.7330
7.764353 0.7440 0.7510 0.7680 0.7750 0.7870
7.802000 0.8010 0.8170 0.8220 0.8260 0.8310
7.840353 0.8380 0.8460 0.8500 0.8530 0.8570
7.879000 0.8590 0.8600 0.8630 0.8680 0.8720
7.917353 0.8740 0.8770 0.8810 0.8830 0.8840
7.956000 0.8860 0.8870 0.8890 0.8900 0.8920
7.994353 0.8950 0.8960 0.8990 0.9010 0.9010
8.032000 0.9020 0.9020 0.9040 0.9040 0.9040
8.070353 0.9050 0.9050 0.9050 0.9070 0.9080
8.109000 0.9100 0.9110 0.9110 0.9130 0.9130
8.147353 0.9130 0.9130 0.9140 0.9160 0.9160
8.186000 0.9170 0.9170 0.9170 0.9170 0.9170
8.224353 0.9170 0.9170 0.9190 0.9190 0.9190
8.262000 0.9190 0.9200 0.9200 0.9200 0.9220
8.300353 0.9220 0.9230 0.9230 0.9230 0.9250
8.339000 0.9250 0.9260 0.9260 0.9260 0.9260
8.377353 0.9280 0.9280 0.9280 0.9280 0.9280
8.416000 0.9290 0.9290 0.9290 0.9290 0.9290
8.454353 0.9290 0.9290 0.9310 0.9310 0.9310
8.492000 0.9310 0.9310 0.9310 0.9320 0.9320
8.530353 0.9320 0.9320 0.9320 0.9320 0.9320
8.569000 0.9340 0.9340 0.9340 0.9340 0.9340
8.607353 0.9340 0.9340 0.9340 0.9350 0.9350
8.646000 0.9350 0.9350 0.9350 0.9350 0.9350
8.684353 0.9370 0.9370 0.9350 0.9350 0.9370
8.722000 0.9370 0.9370 0.9370 0.9370 0.9370
8.760353 0.9380 0.9380 0.9380 0.9400 0.9400
8.799000 0.9400 0.9400 0.9410 0.9410 0.9410
8.837353 0.9410 0.9410 0.9430 0.9430 0.9430
8.876000 0.9430 0.9430 0.9430 0.9430 0.9440
8.914353 0.9440 0.9440 0.9440 0.9440 0.9440
8.952000 0.9440 0.9440 0.9440 0.9440 0.9440
8.990353 0.9440 0.9460 0.9460 0.9460 0.9460
9.029000 0.9460 0.9460 0.9460 0.9470 0.9470
9.067353 0.9470 0.9470 0.9470 0.9470 0.9470
9.106000 0.9470 0.9470 0.9470 0.9470 0.9470
9.144353 0.9470 0.9470 0.9470 0.9470 0.9470
9.182000 0.9470 0.9470 0.9470 0.9470 0.9490
9.220353 0.9490 0.9490 0.9490 0.9490 0.9490
9.259000 0.9490 0.9470 0.9470 0.9470 0.9490
9.297353 0.9490 0.9490 0.9490 0.9490 0.9490
9.336000 0.9490 0.9490 0.9490 0.9490 0.9490
9.374353 0.9490 0.9490 0.9490 0.9490 0.9490
9.412000 0.9490 0.9470 0.9470 0.9470 0.9470
9.450353 0.9470 0.9470 0.9470 0.9470 0.9470
9.489000 0.9470 0.9470 0.9470 0.9470 0.9470
9.527353 0.9470 0.9470 0.9470 0.9470 0.9470
9.566000 0.9470 0.9470 0.9490 0.9490 0.9490
9.604353 0.9490 0.9490 0.9490 0.9490 0.9490
9.642000 0.9490 0.9490 0.9490 0.9490 0.9490
9.680353 0.9490 0.9490 0.9490 0.9500 0.9500
9.719000 0.9500 0.9500 0.9500 0.9500 0.9500
9.757353 0.9500 0.9500 0.9500 0.9500 0.9500
9.796000 0.9500 0.9500 0.9500 0.9520 0.9520
9.834353 0.9520 0.9520 0.9520 0.9520 0.9530
9.872000 0.9530 0.9530 0.9530 0.9550 0.9550
9.910353 0.9550 0.9550 0.9550 0.9550 0.9550
9.949000 0.9550 0.9560 0.9550 0.9550 0.9550
9.987353 0.9560 0.9560 0.9560 0.9560 0.9560
10.026000 0.9560 0.9560 0.9560 0.9580 0.9580
10.064353 0.9580 0.9580 0.9580 0.9580 0.9580
10.102000 0.9580 0.9580 0.9590 0.9590 0.9590
10.140353 0.9590 0.9590 0.9590 0.9590 0.9590
10.179000 0.9610 0.9610 0.9610 0.9610 0.9610
10.217353 0.9610 0.9610 0.9610 0.9610 0.9610
10.256000 0.9610 0.9610 0.9610 0.9620 0.9620
10.294353 0.9620 0.9620 0.9620 0.9620 0.9620
10.332000 0.9620 0.9620 0.9620 0.9620 0.9620
10.370353 0.9620 0.9620 0.9620 0.9620 0.9620
10.409000 0.9620 0.9620 0.9620 0.9610 0.9610
10.447353 0.9610 0.9620 0.9620 0.9620 0.9610
10.486000 0.9610 0.9610 0.9620 0.9620 0.9620
10.524353 0.9620 0.9620 0.9620 0.9620 0.9620
10.562000 0.9620 0.9620 0.9620 0.9620 0.9620
10.600353 0.9620 0.9620 0.9620 0.9620 0.9620
10.639000 0.9620 0.9620 0.9620 0.9620 0.9620
10.677353 0.9620 0.9620 0.9620 0.9620 0.9620
10.716000 0.9620 0.9620 0.9620 0.9620 0.9620
10.754353 0.9620 0.9620 0.9620 0.9620 0.9620
10.792000 0.9620 0.9620 0.9620 0.9620 0.9610
10.830353 0.9610 0.9610 0.9610 0.9610 0.9610
10.869000 0.9590 0.9590 0.9590 0.9590 0.9590
10.907353 0.9590 0.9580 0.9580 0.9580 0.9580
10.945000 0.9560 0.9550 0.9550 0.9550 0.9550
10.983353 0.9550 0.9550 0.9550 0.9550 0.9550
11.022000 0.9550 0.9530 0.9530 0.9530 0.9550
11.060353 0.9530 0.9530 0.9530 0.9530 0.9530
11.099000 0.9530 0.9530 0.9530 0.9530 0.9530
11.137353 0.9530 0.9530 0.9530 0.9550 0.9550
11.175000 0.9550 0.9550 0.9550 0.9550 0.9550
11.213353 0.9550 0.9530 0.9530 0.9530 0.9530
11.252000 0.9530 0.9530 0.9530 0.9530 0.9530
11.290353 0.9530 0.9530 0.9530 0.9530 0.9530
11.329000 0.9530 0.9530 0.9530 0.9530 0.9550
11.367353 0.9550 0.9550 0.9550 0.9550 0.9550
11.405000 0.9550 0.9550 0.9550 0.9550 0.9550
11.443353 0.9550 0.9550 0.9550 0.9530 0.9530
11.482000 0.9530 0.9530 0.9530 0.9530 0.9530
11.520353 0.9530 0.9550 0.9530 0.9530 0.9530
11.559000 0.9520 0.9520 0.9520 0.9520 0.9500
11.597353 0.9500 0.9500 0.9490 0.9490 0.9470
11.635000 0.9470 0.9460 0.9460 0.9440 0.9440
11.673353 0.9430 0.9430 0.9430 0.9430 0.9430
11.712000 0.9430 0.9410 0.9410 0.9410 0.9410
11.750353 0.9400 0.9400 0.9400 0.9400 0.9400
11.789000 0.9400 0.9400 0.9400 0.9400 0.9400
11.827353 0.9400 0.9400 0.9400 0.9400 0.9400
11.865000 0.9400 0.9400 0.9380 0.9380 0.9380
11.903353 0.9370 0.9370 0.9350 0.9350 0.9350
11.942000 0.9350 0.9340 0.9320 0.9320 0.9310
11.980353 0.9290 0.9290 0.9290 0.9290 0.9290
12.019000 0.9280 0.9280 0.9280 0.9280 0.9280
12.057353 0.9250 0.9230 0.9220 0.9200 0.9200
12.095000 0.9190 0.9190 0.9170 0.9160 0.9160
12.133353 0.9160 0.9140 0.9140 0.9130 0.9110
12.172000 0.9110 0.9100 0.9080 0.9080 0.9070
12.210353 0.9050 0.9040 0.9020 0.8980 0.8950
12.249000 0.8930 0.8920 0.8900 0.8890 0.8860
12.287353 0.8830 0.8810 0.8810 0.8800 0.8780
12.325000 0.8720 0.8680 0.8630 0.8600 0.8530
12.363353 0.8470 0.8440 0.8380 0.8320 0.8250
12.402000 0.8200 0.8130 0.8070 0.7990 0.7930
12.440353 0.7870 0.7750 0.7690 0.7630 0.7590
12.479000 0.7540 0.7500 0.7450 0.7410 0.7350
12.517353 0.7290 0.7170 0.7110 0.7040 0.6980
12.555000 0.6950 0.6930 0.6900 0.6890 0.6890
12.593353 0.6870 0.6870 0.6870 0.6870 0.6870
12.632000 0.6870 0.6870 0.6870 0.6900 0.6920
12.670353 0.6950 0.6990 0.7020 0.7080 0.7100
12.709000 0.7130 0.7170 0.7200 0.7230 0.7260
12.747353 0.7300 0.7330 0.7380 0.7410 0.7440
12.785000 0.7480 0.7510 0.7540 0.7590 0.7650
12.823353 0.7680 0.7710 0.7750 0.7770 0.7800
12.862000 0.7810 0.7840 0.7870 0.7920 0.7950
12.900353 0.7990 0.8040 0.8070 0.8080 0.8100
12.939000 0.8110 0.8140 0.8170 0.8200 0.8220
12.977353 0.8230 0.8250 0.8260 0.8260 0.8280
13.015000 0.8310 0.8320 0.8340 0.8350 0.8370
13.053353 0.8380 0.8400 0.8410 0.8410 0.8430
13.092000 0.8440 0.8460 0.8470 0.8470 0.8490
13.130353 0.8490 0.8490 0.8500 0.8520 0.8520
13.169000 0.8520 0.8520 0.8530 0.8530 0.8550
13.207353 0.8550 0.8550 0.8550 0.8550 0.8550
13.245000 0.8550 0.8550 0.8550 0.8550 0.8550
13.283353 0.8550 0.8550 0.8550 0.8560 0.8560
13.322000 0.8560 0.8560 0.8560 0.8560 0.8560
13.360353 0.8570 0.8560 0.8560 0.8560 0.8560
13.399000 0.8560 0.8560 0.8560 0.8560 0.8560
13.437353 0.8560 0.8560 0.8560 0.8560 0.8560
13.475000 0.8560 0.8560 0.8560 0.8560 0.8560
13.513353 0.8560 0.8560 0.8560 0.8560 0.8560
13.552000 0.8560 0.8560 0.8560 0.8560 0.8560
13.590353 0.8560 0.8560 0.8560 0.8560 0.8560
13.629000 0.8560 0.8560 0.8560 0.8560 0.8560
13.667353 0.8560 0.8560 0.8560 0.8560 0.8560
13.705000 0.8560 0.8560 0.8560 0.8560 0.8560
13.743353 0.8560 0.8560 0.8560 0.8560 0.8560
13.782000 0.8550 0.8550 0.8550 0.8550 0.8550
13.820353 0.8550 0.8550 0.8550 0.8550 0.8550
13.859000 0.8550 0.8550 0.8550 0.8550 0.8550
13.897353 0.8550 0.8550 0.8550 0.8550 0.8550
13.935000 0.8550 0.8550 0.8550 0.8550 0.8550
13.973353 0.8550 0.8550 0.8550 0.8550 0.8550
14.012000 0.8550 0.8550 0.8550 0.8550 0.8550
14.050353 0.8550 0.8550 0.8550 0.8550 0.8550
14.089000 0.8550 0.8550 0.8550 0.8550 0.8550
14.127353 0.8550 0.8550 0.8550 0.8550 0.8550
14.165000 0.8550 0.8550 0.8550 0.8550 0.8550
14.203353 0.8530 0.8530 0.8530 0.8530 0.8530
14.242000 0.8530 0.8530 0.8530 0.8550 0.8550
14.280353 0.8550 0.8550 0.8550 0.8550 0.8550
14.319000 0.8550 0.8550 0.8550 0.8550 0.8550
14.357353 0.8550 0.8550 0.8550 0.8550 0.8550
14.395000 0.8550 0.8550 0.8550 0.8550 0.8550
14.433353 0.8550 0.8550 0.8550 0.8550 0.8550
14.472000 0.8550 0.8550 0.8550 0.8550 0.8550
14.510353 0.8550 0.8550 0.8550 0.8550 0.8550
14.549000 0.8550 0.8550 0.8550 0.8550 0.8550
14.587353 0.8550 0.8550 0.8550 0.8550 0.8550
14.625000 0.8550 0.8550 0.8550 0.8550 0.8550
14.663353 0.8550 0.8550 0.8550 0.8550 0.8550
14.702000 0.8550 0.8550 0.8550 0.8550 0.8550
14.740353 0.8550 0.8550 0.8550 0.8550 0.8550
14.779000 0.8550 0.8550 0.8550 0.8550 0.8550
14.817353 0.8530 0.8530 0.8550 0.8550 0.8550
14.855000 0.8550 0.8550 0.8550 0.8550 0.8550
14.893353 0.8550 0.8550 0.8530 0.8530 0.8530
14.932000 0.8550 0.8550 0.8550 0.8550 0.8550
14.970353 0.8560 0.8560
##END=
