##TITLE=9-Undecenoic acid, zinc salt
##JCAMP-DX=4.24
##DATA TYPE=INFRARED SPECTRUM
##CLASS=COBLENTZ III
##ORIGIN=WYANDOTTE CHEMICALS CORP.
##OWNER=Copyright (C) 1987 by the Coblentz Society
Collection (C) 2018 copyright by the U.S. Secretary of Commerce
on behalf of the United States of America. All rights reserved.
##DATE=Not specified, most likely prior to 1970
##NAMES=ZINC 9-UNDECENOATE
##MOLFORM=C22 H38 O4 Zn
##SOURCE REFERENCE=COBLENTZ NO. 5948
##$NIST ID=B6005948
##$NIST SOURCE=COBLENTZ
##$NIST IMAGE=cob5948
##SPECTROMETER/DATA SYSTEM=BAIRD (GRATING)
##INSTRUMENT PARAMETERS=NaCl PRISM
##STATE=SOLID (OIL MULL)
##PATH LENGTH=CAPILLARY
##RESOLUTION=2
##XUNITS=1/CM
##YUNITS=TRANSMITTANCE
##XFACTOR=1.0
##YFACTOR=1
##FIRSTX=626
##LASTX=4000
##FIRSTY=0.6721
##MAXX=4000
##MINX=626
##MAXY=0.9745
##MINY=0.0225
##NPOINTS=3375
##XYDATA=(X++(Y..Y))
626.000000 0.6721 0.6720 0.6726 0.6739 0.6758
631.000000 0.6780 0.6804 0.6830 0.6858 0.6886
636.000000 0.6919 0.6954 0.6989 0.7031 0.7077
641.000000 0.7140 0.7219 0.7298 0.7354 0.7398
646.000000 0.7438 0.7475 0.7509 0.7541 0.7573
651.000000 0.7604 0.7636 0.7669 0.7701 0.7734
656.000000 0.7767 0.7799 0.7827 0.7852 0.7889
661.000000 0.7835 0.7795 0.7747 0.7734 0.7796
666.000000 0.7854 0.7928 0.8021 0.8098 0.8130
671.000000 0.8137 0.8139 0.8138 0.8138 0.8137
676.000000 0.8132 0.8125 0.8120 0.8134 0.8106
681.000000 0.8099 0.8092 0.8084 0.8075 0.8068
686.000000 0.8057 0.8044 0.8030 0.8017 0.8000
691.000000 0.7975 0.7949 0.7923 0.7896 0.7862
696.000000 0.7829 0.7790 0.7741 0.7693 0.7642
701.000000 0.7588 0.7534 0.7476 0.7396 0.7309
706.000000 0.7191 0.7025 0.6798 0.6566 0.6301
711.000000 0.5987 0.5651 0.5129 0.4761 0.4183
716.000000 0.3572 0.2962 0.2354 0.1677 0.1514
721.000000 0.1492 0.1852 0.2188 0.2522 0.2849
726.000000 0.3096 0.3174 0.3195 0.3191 0.3051
731.000000 0.2946 0.2732 0.2504 0.2292 0.2082
736.000000 0.1826 0.1571 0.1388 0.1208 0.1082
741.000000 0.0998 0.0935 0.0920 0.0909 0.0915
746.000000 0.0934 0.0940 0.0959 0.0989 0.1035
751.000000 0.1108 0.1230 0.1514 0.1963 0.2360
756.000000 0.2801 0.3240 0.3619 0.3935 0.4552
761.000000 0.4959 0.5325 0.5555 0.5797 0.6024
766.000000 0.6245 0.6470 0.6684 0.6912 0.7058
771.000000 0.7173 0.7258 0.7337 0.7411 0.7473
776.000000 0.7529 0.7587 0.7646 0.7700 0.7751
781.000000 0.7774 0.7790 0.7743 0.7701 0.7641
786.000000 0.7384 0.7111 0.6840 0.6594 0.6523
791.000000 0.6505 0.6669 0.6892 0.7112 0.7332
796.000000 0.7554 0.7722 0.7857 0.7953 0.8030
801.000000 0.8098 0.8161 0.8222 0.8263 0.8299
806.000000 0.8322 0.8336 0.8342 0.8353 0.8366
811.000000 0.8396 0.8428 0.8459 0.8481 0.8497
816.000000 0.8511 0.8521 0.8527 0.8534 0.8536
821.000000 0.8537 0.8542 0.8539 0.8539 0.8539
826.000000 0.8539 0.8538 0.8537 0.8533 0.8520
831.000000 0.8506 0.8480 0.8451 0.8410 0.8364
836.000000 0.8317 0.8250 0.8180 0.8092 0.7991
841.000000 0.7875 0.7751 0.7454 0.7152 0.6851
846.000000 0.6588 0.6551 0.6543 0.6789 0.6989
851.000000 0.7189 0.7388 0.7587 0.7785 0.7967
856.000000 0.8100 0.8163 0.8201 0.8223 0.8226
861.000000 0.8224 0.8218 0.8211 0.8205 0.8214
866.000000 0.8181 0.8173 0.8165 0.8157 0.8150
871.000000 0.8143 0.8148 0.8151 0.8151 0.8139
876.000000 0.8119 0.8087 0.8040 0.7990 0.7937
881.000000 0.7883 0.7821 0.7752 0.7675 0.7578
886.000000 0.7484 0.7393 0.7290 0.7181 0.7060
891.000000 0.6920 0.6778 0.6627 0.6462 0.6268
896.000000 0.6002 0.5597 0.5150 0.4537 0.3925
901.000000 0.3315 0.2706 0.2099 0.1469 0.1137
906.000000 0.0988 0.0818 0.0748 0.0731 0.0702
911.000000 0.0779 0.0909 0.1331 0.1765 0.2200
916.000000 0.2633 0.3065 0.3496 0.3926 0.4724
921.000000 0.5158 0.5627 0.5842 0.6027 0.6212
926.000000 0.6402 0.6591 0.6702 0.6805 0.6897
931.000000 0.6966 0.7016 0.7043 0.7062 0.7061
936.000000 0.7053 0.7030 0.6990 0.6932 0.6840
941.000000 0.6713 0.6582 0.6380 0.6201 0.6026
946.000000 0.5867 0.5807 0.5783 0.5841 0.5966
951.000000 0.6103 0.6277 0.6422 0.6568 0.6621
956.000000 0.6617 0.6625 0.6556 0.6453 0.6280
961.000000 0.6238 0.6206 0.6297 0.6369 0.6453
966.000000 0.6539 0.6634 0.6701 0.6723 0.6720
971.000000 0.6696 0.6688 0.6656 0.6618 0.6563
976.000000 0.6461 0.6311 0.6198 0.6059 0.5757
981.000000 0.5408 0.5059 0.4711 0.4311 0.3865
986.000000 0.3839 0.3844 0.3847 0.3844 0.3815
991.000000 0.3689 0.3526 0.3400 0.3317 0.3284
996.000000 0.3280 0.3268 0.3530 0.3761 0.3993
1001.000000 0.4223 0.4433 0.4787 0.4990 0.5239
1006.000000 0.5449 0.5637 0.5800 0.5961 0.6118
1011.000000 0.6247 0.6359 0.6468 0.6573 0.6660
1016.000000 0.6732 0.6772 0.6800 0.6808 0.6816
1021.000000 0.6822 0.6825 0.6795 0.6816 0.6804
1026.000000 0.6791 0.6779 0.6748 0.6713 0.6666
1031.000000 0.6614 0.6552 0.6484 0.6396 0.6308
1036.000000 0.6226 0.6151 0.6110 0.6101 0.6121
1041.000000 0.6184 0.6280 0.6385 0.6474 0.6558
1046.000000 0.6638 0.6685 0.6710 0.6719 0.6717
1051.000000 0.6694 0.6669 0.6633 0.6586 0.6508
1056.000000 0.6423 0.6342 0.6206 0.6091 0.6005
1061.000000 0.5959 0.5936 0.5913 0.5893 0.5887
1066.000000 0.5862 0.5912 0.5957 0.6077 0.6182
1071.000000 0.6288 0.6385 0.6426 0.6427 0.6447
1076.000000 0.6413 0.6371 0.6297 0.6212 0.6116
1081.000000 0.6027 0.5940 0.5817 0.5709 0.5689
1086.000000 0.5695 0.5683 0.5790 0.5855 0.5922
1091.000000 0.6006 0.6113 0.6170 0.6181 0.6166
1096.000000 0.6154 0.6106 0.6048 0.5989 0.5904
1101.000000 0.5818 0.5736 0.5664 0.5612 0.5577
1106.000000 0.5658 0.5703 0.5762 0.5838 0.5918
1111.000000 0.5995 0.6103 0.6143 0.6172 0.6132
1116.000000 0.6087 0.6041 0.5986 0.5919 0.5873
1121.000000 0.5862 0.5858 0.5951 0.6052 0.6174
1126.000000 0.6268 0.6346 0.6425 0.6509 0.6586
1131.000000 0.6659 0.6723 0.6752 0.6771 0.6777
1136.000000 0.6776 0.6780 0.6761 0.6741 0.6710
1141.000000 0.6675 0.6620 0.6573 0.6551 0.6539
1146.000000 0.6524 0.6506 0.6478 0.6430 0.6360
1151.000000 0.6301 0.6284 0.6311 0.6298 0.6315
1156.000000 0.6336 0.6357 0.6382 0.6409 0.6431
1161.000000 0.6453 0.6475 0.6494 0.6512 0.6529
1166.000000 0.6541 0.6550 0.6560 0.6561 0.6552
1171.000000 0.6542 0.6551 0.6596 0.6652 0.6688
1176.000000 0.6705 0.6715 0.6716 0.6710 0.6705
1181.000000 0.6696 0.6680 0.6663 0.6643 0.6622
1186.000000 0.6599 0.6567 0.6534 0.6500 0.6457
1191.000000 0.6413 0.6359 0.6300 0.6236 0.6139
1196.000000 0.6040 0.5919 0.5795 0.5672 0.5241
1201.000000 0.4557 0.4285 0.4292 0.4392 0.4287
1206.000000 0.4642 0.4766 0.4891 0.5015 0.5139
1211.000000 0.5263 0.5386 0.5509 0.5632 0.5755
1216.000000 0.5884 0.6080 0.6277 0.6387 0.6441
1221.000000 0.6475 0.6496 0.6507 0.6519 0.6529
1226.000000 0.6532 0.6536 0.6538 0.6539 0.6540
1231.000000 0.6536 0.6529 0.6518 0.6495 0.6442
1236.000000 0.6258 0.6055 0.5851 0.5649 0.5521
1241.000000 0.5505 0.5662 0.5829 0.5997 0.6164
1246.000000 0.6331 0.6499 0.6613 0.6667 0.6715
1251.000000 0.6759 0.6804 0.6845 0.6884 0.6918
1256.000000 0.6945 0.6958 0.6963 0.6971 0.6957
1261.000000 0.6939 0.6908 0.6872 0.6835 0.6788
1266.000000 0.6737 0.6684 0.6630 0.6572 0.6487
1271.000000 0.6198 0.5826 0.5454 0.5119 0.5055
1276.000000 0.5180 0.5387 0.5595 0.5801 0.6007
1281.000000 0.6116 0.6178 0.6237 0.6295 0.6358
1286.000000 0.6433 0.6477 0.6511 0.6522 0.6517
1291.000000 0.6513 0.6499 0.6477 0.6446 0.6395
1296.000000 0.6338 0.6278 0.6210 0.6142 0.6075
1301.000000 0.6008 0.5938 0.5857 0.5777 0.5705
1306.000000 0.5633 0.5528 0.5379 0.5230 0.5080
1311.000000 0.4931 0.4783 0.4635 0.4563 0.4551
1316.000000 0.4598 0.4720 0.4854 0.4987 0.5120
1321.000000 0.5253 0.5386 0.5518 0.5650 0.5783
1326.000000 0.5914 0.6043 0.6055 0.6057 0.6078
1331.000000 0.6034 0.5980 0.5816 0.5636 0.5458
1336.000000 0.5279 0.5100 0.4922 0.4745 0.4567
1341.000000 0.4390 0.4223 0.4196 0.4184 0.4340
1346.000000 0.4467 0.4594 0.4720 0.4823 0.4866
1351.000000 0.4834 0.4818 0.4741 0.4643 0.4545
1356.000000 0.4447 0.4349 0.4251 0.4154 0.4056
1361.000000 0.3959 0.3862 0.3765 0.3673 0.3603
1366.000000 0.3516 0.3433 0.3350 0.3265 0.3171
1371.000000 0.3071 0.2972 0.2874 0.2755 0.2604
1376.000000 0.2454 0.2303 0.2153 0.2003 0.1865
1381.000000 0.1807 0.1777 0.1807 0.1850 0.1915
1386.000000 0.1980 0.2046 0.2111 0.2173 0.2198
1391.000000 0.2195 0.2188 0.2049 0.1888 0.1727
1396.000000 0.1566 0.1405 0.1245 0.1084 0.0925
1401.000000 0.0765 0.0605 0.0389 0.0304 0.0282
1406.000000 0.0270 0.0262 0.0260 0.0260 0.0260
1411.000000 0.0293 0.0263 0.0266 0.0269 0.0273
1416.000000 0.0278 0.0284 0.0295 0.0334 0.0494
1421.000000 0.0756 0.1018 0.1279 0.1540 0.1801
1426.000000 0.2061 0.2257 0.2327 0.2340 0.2338
1431.000000 0.2336 0.2288 0.2155 0.2055 0.1955
1436.000000 0.1855 0.1756 0.1657 0.1558 0.1459
1441.000000 0.1350 0.1203 0.0987 0.0740 0.0637
1446.000000 0.0583 0.0547 0.0515 0.0483 0.0451
1451.000000 0.0419 0.0386 0.0353 0.0326 0.0311
1456.000000 0.0300 0.0289 0.0283 0.0279 0.0273
1461.000000 0.0268 0.0272 0.0276 0.0282 0.0287
1466.000000 0.0291 0.0295 0.0295 0.0292 0.0290
1471.000000 0.0288 0.0281 0.0239 0.0263 0.0255
1476.000000 0.0249 0.0284 0.0370 0.0479 0.0611
1481.000000 0.0745 0.0875 0.1006 0.1136 0.1266
1486.000000 0.1411 0.1536 0.1627 0.1680 0.1725
1491.000000 0.1749 0.1764 0.1769 0.1772 0.1767
1496.000000 0.1759 0.1774 0.1681 0.1595 0.1505
1501.000000 0.1406 0.1300 0.1193 0.1090 0.0994
1506.000000 0.0911 0.0855 0.0797 0.0743 0.0705
1511.000000 0.0669 0.0645 0.0626 0.0608 0.0589
1516.000000 0.0571 0.0559 0.0550 0.0540 0.0530
1521.000000 0.0523 0.0519 0.0515 0.0515 0.0513
1526.000000 0.0509 0.0505 0.0502 0.0498 0.0493
1531.000000 0.0488 0.0483 0.0479 0.0475 0.0471
1536.000000 0.0467 0.0464 0.0461 0.0461 0.0450
1541.000000 0.0471 0.0479 0.0490 0.0507 0.0525
1546.000000 0.0541 0.0556 0.0563 0.0542 0.0507
1551.000000 0.0471 0.0440 0.0410 0.0377 0.0343
1556.000000 0.0312 0.0283 0.0262 0.0252 0.0245
1561.000000 0.0243 0.0243 0.0244 0.0249 0.0271
1566.000000 0.0307 0.0348 0.0393 0.0434 0.0458
1571.000000 0.0473 0.0487 0.0500 0.0512 0.0523
1576.000000 0.0534 0.0546 0.0567 0.0596 0.0642
1581.000000 0.0712 0.0861 0.1036 0.1210 0.1384
1586.000000 0.1559 0.1733 0.1891 0.1982 0.2015
1591.000000 0.2032 0.2042 0.2048 0.2051 0.2035
1596.000000 0.2045 0.1850 0.1741 0.1631 0.1523
1601.000000 0.1414 0.1305 0.1196 0.1131 0.1131
1606.000000 0.1146 0.1140 0.1454 0.1669 0.1884
1611.000000 0.2099 0.2314 0.2528 0.2741 0.2955
1616.000000 0.3169 0.3382 0.3595 0.3808 0.4021
1621.000000 0.4233 0.4399 0.4532 0.4654 0.4775
1626.000000 0.4899 0.5004 0.5084 0.5179 0.5295
1631.000000 0.5381 0.5442 0.5494 0.5537 0.5580
1636.000000 0.5628 0.5677 0.5725 0.5771 0.5823
1641.000000 0.5880 0.5914 0.5922 0.5911 0.5801
1646.000000 0.5296 0.4763 0.4231 0.3699 0.3167
1651.000000 0.2825 0.2748 0.2749 0.2897 0.2744
1656.000000 0.3747 0.4231 0.4714 0.5196 0.5678
1661.000000 0.5971 0.6164 0.6317 0.6421 0.6490
1666.000000 0.6546 0.6593 0.6624 0.6649 0.6674
1671.000000 0.6694 0.6709 0.6724 0.6739 0.6749
1676.000000 0.6756 0.6763 0.6770 0.6777 0.6783
1681.000000 0.6787 0.6790 0.6794 0.6798 0.6802
1686.000000 0.6805 0.6809 0.6811 0.6815 0.6818
1691.000000 0.6822 0.6825 0.6828 0.6833 0.6841
1696.000000 0.6849 0.6858 0.6866 0.6874 0.6883
1701.000000 0.6894 0.6913 0.6938 0.6963 0.6988
1706.000000 0.7018 0.7053 0.7091 0.7128 0.7166
1711.000000 0.7202 0.7235 0.7268 0.7301 0.7333
1716.000000 0.7366 0.7398 0.7430 0.7461 0.7492
1721.000000 0.7523 0.7554 0.7584 0.7616 0.7654
1726.000000 0.7692 0.7731 0.7770 0.7808 0.7846
1731.000000 0.7883 0.7917 0.7946 0.7970 0.7987
1736.000000 0.7992 0.7997 0.8001 0.8005 0.8008
1741.000000 0.8012 0.8015 0.8018 0.8024 0.8034
1746.000000 0.8051 0.8087 0.8189 0.8310 0.8411
1751.000000 0.8487 0.8557 0.8621 0.8685 0.8753
1756.000000 0.8826 0.8901 0.8965 0.9009 0.9051
1761.000000 0.9092 0.9132 0.9163 0.9193 0.9223
1766.000000 0.9250 0.9272 0.9286 0.9300 0.9315
1771.000000 0.9329 0.9342 0.9352 0.9360 0.9367
1776.000000 0.9375 0.9382 0.9389 0.9393 0.9397
1781.000000 0.9401 0.9405 0.9409 0.9413 0.9416
1786.000000 0.9420 0.9417 0.9417 0.9415 0.9414
1791.000000 0.9413 0.9411 0.9406 0.9400 0.9394
1796.000000 0.9388 0.9382 0.9374 0.9364 0.9353
1801.000000 0.9342 0.9321 0.9297 0.9272 0.9248
1806.000000 0.9217 0.9186 0.9155 0.9125 0.9092
1811.000000 0.9058 0.9025 0.8992 0.8969 0.8948
1816.000000 0.8929 0.8910 0.8891 0.8885 0.8888
1821.000000 0.8860 0.8905 0.8913 0.8923 0.8935
1826.000000 0.8947 0.8968 0.8992 0.9016 0.9040
1831.000000 0.9064 0.9087 0.9111 0.9135 0.9159
1836.000000 0.9184 0.9207 0.9231 0.9255 0.9278
1841.000000 0.9302 0.9325 0.9349 0.9374 0.9403
1846.000000 0.9423 0.9443 0.9461 0.9475 0.9488
1851.000000 0.9501 0.9514 0.9523 0.9528 0.9532
1856.000000 0.9537 0.9537 0.9534 0.9531 0.9528
1861.000000 0.9524 0.9520 0.9516 0.9512 0.9508
1866.000000 0.9504 0.9500 0.9495 0.9491 0.9487
1871.000000 0.9480 0.9474 0.9467 0.9461 0.9454
1876.000000 0.9448 0.9444 0.9439 0.9434 0.9430
1881.000000 0.9426 0.9422 0.9423 0.9428 0.9433
1886.000000 0.9438 0.9445 0.9452 0.9459 0.9466
1891.000000 0.9473 0.9481 0.9488 0.9496 0.9504
1896.000000 0.9511 0.9519 0.9527 0.9534 0.9541
1901.000000 0.9548 0.9554 0.9561 0.9568 0.9574
1906.000000 0.9578 0.9580 0.9582 0.9583 0.9583
1911.000000 0.9580 0.9578 0.9576 0.9574 0.9572
1916.000000 0.9570 0.9568 0.9566 0.9565 0.9567
1921.000000 0.9573 0.9580 0.9587 0.9594 0.9601
1926.000000 0.9608 0.9615 0.9622 0.9628 0.9635
1931.000000 0.9642 0.9649 0.9650 0.9651 0.9651
1936.000000 0.9651 0.9651 0.9651 0.9651 0.9648
1941.000000 0.9643 0.9637 0.9632 0.9626 0.9621
1946.000000 0.9616 0.9612 0.9607 0.9602 0.9598
1951.000000 0.9594 0.9591 0.9589 0.9586 0.9584
1956.000000 0.9581 0.9580 0.9580 0.9581 0.9582
1961.000000 0.9583 0.9586 0.9588 0.9591 0.9593
1966.000000 0.9596 0.9599 0.9601 0.9603 0.9605
1971.000000 0.9609 0.9612 0.9614 0.9617 0.9619
1976.000000 0.9622 0.9624 0.9627 0.9630 0.9633
1981.000000 0.9637 0.9640 0.9643 0.9646 0.9649
1986.000000 0.9652 0.9655 0.9656 0.9655 0.9655
1991.000000 0.9654 0.9654 0.9653 0.9652 0.9651
1996.000000 0.9649 0.9646 0.9644 0.9642 0.9641
2001.000000 0.9639 0.9637 0.9637 0.9639 0.9642
2006.000000 0.9645 0.9648 0.9650 0.9653 0.9657
2011.000000 0.9660 0.9663 0.9666 0.9671 0.9676
2016.000000 0.9680 0.9685 0.9690 0.9694 0.9698
2021.000000 0.9701 0.9706 0.9710 0.9713 0.9717
2026.000000 0.9720 0.9721 0.9723 0.9724 0.9725
2031.000000 0.9727 0.9729 0.9730 0.9731 0.9733
2036.000000 0.9735 0.9736 0.9737 0.9738 0.9740
2041.000000 0.9742 0.9742 0.9742 0.9742 0.9743
2046.000000 0.9743 0.9743 0.9744 0.9744 0.9744
2051.000000 0.9745 0.9745 0.9745 0.9745 0.9745
2056.000000 0.9744 0.9743 0.9742 0.9742 0.9741
2061.000000 0.9741 0.9740 0.9743 0.9738 0.9737
2066.000000 0.9737 0.9736 0.9735 0.9735 0.9734
2071.000000 0.9733 0.9732 0.9731 0.9731 0.9730
2076.000000 0.9730 0.9729 0.9728 0.9726 0.9724
2081.000000 0.9723 0.9722 0.9720 0.9718 0.9717
2086.000000 0.9715 0.9714 0.9712 0.9711 0.9709
2091.000000 0.9707 0.9706 0.9704 0.9703 0.9701
2096.000000 0.9700 0.9698 0.9697 0.9696 0.9694
2101.000000 0.9692 0.9691 0.9689 0.9688 0.9687
2106.000000 0.9687 0.9686 0.9684 0.9683 0.9682
2111.000000 0.9681 0.9680 0.9680 0.9679 0.9678
2116.000000 0.9676 0.9675 0.9674 0.9673 0.9672
2121.000000 0.9671 0.9671 0.9670 0.9669 0.9667
2126.000000 0.9666 0.9665 0.9664 0.9664 0.9663
2131.000000 0.9662 0.9661 0.9660 0.9659 0.9658
2136.000000 0.9658 0.9657 0.9656 0.9655 0.9655
2141.000000 0.9654 0.9654 0.9653 0.9652 0.9651
2146.000000 0.9650 0.9649 0.9648 0.9648 0.9648
2151.000000 0.9648 0.9648 0.9648 0.9649 0.9649
2156.000000 0.9650 0.9650 0.9650 0.9651 0.9651
2161.000000 0.9651 0.9651 0.9652 0.9652 0.9653
2166.000000 0.9653 0.9653 0.9653 0.9654 0.9654
2171.000000 0.9655 0.9655 0.9654 0.9653 0.9652
2176.000000 0.9650 0.9648 0.9646 0.9644 0.9643
2181.000000 0.9641 0.9639 0.9637 0.9635 0.9632
2186.000000 0.9629 0.9626 0.9623 0.9620 0.9616
2191.000000 0.9613 0.9609 0.9605 0.9600 0.9594
2196.000000 0.9589 0.9584 0.9578 0.9572 0.9567
2201.000000 0.9562 0.9556 0.9551 0.9546 0.9540
2206.000000 0.9535 0.9530 0.9525 0.9520 0.9515
2211.000000 0.9510 0.9504 0.9499 0.9494 0.9489
2216.000000 0.9484 0.9479 0.9475 0.9470 0.9466
2221.000000 0.9461 0.9457 0.9452 0.9447 0.9442
2226.000000 0.9437 0.9433 0.9428 0.9424 0.9419
2231.000000 0.9415 0.9410 0.9406 0.9401 0.9397
2236.000000 0.9393 0.9389 0.9385 0.9381 0.9377
2241.000000 0.9373 0.9369 0.9365 0.9361 0.9357
2246.000000 0.9352 0.9348 0.9344 0.9340 0.9336
2251.000000 0.9333 0.9329 0.9326 0.9322 0.9318
2256.000000 0.9314 0.9310 0.9306 0.9302 0.9299
2261.000000 0.9295 0.9291 0.9287 0.9283 0.9280
2266.000000 0.9276 0.9273 0.9269 0.9265 0.9261
2271.000000 0.9257 0.9254 0.9251 0.9247 0.9244
2276.000000 0.9242 0.9239 0.9236 0.9233 0.9230
2281.000000 0.9228 0.9225 0.9223 0.9220 0.9217
2286.000000 0.9214 0.9211 0.9209 0.9206 0.9204
2291.000000 0.9201 0.9198 0.9195 0.9192 0.9189
2296.000000 0.9187 0.9184 0.9182 0.9180 0.9178
2301.000000 0.9177 0.9176 0.9175 0.9174 0.9172
2306.000000 0.9171 0.9169 0.9168 0.9167 0.9165
2311.000000 0.9164 0.9162 0.9161 0.9160 0.9159
2316.000000 0.9158 0.9156 0.9155 0.9154 0.9153
2321.000000 0.9153 0.9153 0.9153 0.9154 0.9154
2326.000000 0.9154 0.9154 0.9155 0.9155 0.9155
2331.000000 0.9155 0.9155 0.9156 0.9156 0.9155
2336.000000 0.9153 0.9151 0.9149 0.9146 0.9144
2341.000000 0.9141 0.9139 0.9137 0.9134 0.9132
2346.000000 0.9128 0.9123 0.9115 0.9105 0.9095
2351.000000 0.9084 0.9074 0.9063 0.9052 0.9046
2356.000000 0.9041 0.9036 0.9030 0.9025 0.9019
2361.000000 0.9013 0.9008 0.9002 0.9002 0.9002
2366.000000 0.9004 0.9007 0.9010 0.9013 0.9017
2371.000000 0.9020 0.9023 0.9027 0.9031 0.9036
2376.000000 0.9042 0.9048 0.9054 0.9060 0.9067
2381.000000 0.9073 0.9079 0.9085 0.9091 0.9097
2386.000000 0.9104 0.9110 0.9116 0.9122 0.9128
2391.000000 0.9134 0.9140 0.9145 0.9149 0.9152
2396.000000 0.9155 0.9158 0.9160 0.9163 0.9165
2401.000000 0.9167 0.9168 0.9166 0.9164 0.9163
2406.000000 0.9161 0.9159 0.9157 0.9156 0.9154
2411.000000 0.9152 0.9147 0.9143 0.9138 0.9133
2416.000000 0.9128 0.9123 0.9118 0.9113 0.9108
2421.000000 0.9103 0.9098 0.9093 0.9088 0.9083
2426.000000 0.9078 0.9072 0.9063 0.9054 0.9045
2431.000000 0.9036 0.9027 0.9018 0.9009 0.9000
2436.000000 0.8991 0.8982 0.8973 0.8964 0.8955
2441.000000 0.8946 0.8937 0.8926 0.8916 0.8906
2446.000000 0.8896 0.8886 0.8876 0.8865 0.8855
2451.000000 0.8844 0.8834 0.8824 0.8814 0.8804
2456.000000 0.8793 0.8783 0.8772 0.8767 0.8764
2461.000000 0.8763 0.8764 0.8764 0.8766 0.8767
2466.000000 0.8768 0.8769 0.8770 0.8771 0.8772
2471.000000 0.8773 0.8774 0.8775 0.8777 0.8779
2476.000000 0.8782 0.8785 0.8787 0.8790 0.8793
2481.000000 0.8796 0.8799 0.8803 0.8805 0.8808
2486.000000 0.8809 0.8810 0.8810 0.8809 0.8808
2491.000000 0.8799 0.8790 0.8779 0.8766 0.8753
2496.000000 0.8736 0.8720 0.8705 0.8692 0.8680
2501.000000 0.8668 0.8657 0.8647 0.8637 0.8627
2506.000000 0.8624 0.8621 0.8618 0.8616 0.8614
2511.000000 0.8611 0.8608 0.8605 0.8603 0.8600
2516.000000 0.8597 0.8594 0.8592 0.8589 0.8587
2521.000000 0.8584 0.8581 0.8579 0.8576 0.8573
2526.000000 0.8571 0.8570 0.8568 0.8566 0.8564
2531.000000 0.8562 0.8560 0.8558 0.8556 0.8554
2536.000000 0.8552 0.8549 0.8546 0.8543 0.8540
2541.000000 0.8536 0.8533 0.8530 0.8527 0.8524
2546.000000 0.8521 0.8517 0.8514 0.8511 0.8508
2551.000000 0.8505 0.8500 0.8496 0.8492 0.8487
2556.000000 0.8482 0.8477 0.8472 0.8468 0.8463
2561.000000 0.8458 0.8453 0.8448 0.8443 0.8438
2566.000000 0.8434 0.8429 0.8424 0.8418 0.8411
2571.000000 0.8403 0.8395 0.8387 0.8379 0.8371
2576.000000 0.8362 0.8354 0.8346 0.8338 0.8330
2581.000000 0.8322 0.8314 0.8305 0.8296 0.8287
2586.000000 0.8277 0.8266 0.8255 0.8245 0.8235
2591.000000 0.8224 0.8213 0.8202 0.8192 0.8181
2596.000000 0.8170 0.8159 0.8149 0.8138 0.8127
2601.000000 0.8116 0.8106 0.8095 0.8084 0.8074
2606.000000 0.8063 0.8052 0.8042 0.8031 0.8020
2611.000000 0.8010 0.8000 0.7989 0.7979 0.7968
2616.000000 0.7958 0.7948 0.7938 0.7928 0.7919
2621.000000 0.7909 0.7900 0.7890 0.7881 0.7871
2626.000000 0.7862 0.7853 0.7843 0.7834 0.7824
2631.000000 0.7815 0.7806 0.7797 0.7788 0.7779
2636.000000 0.7771 0.7764 0.7756 0.7748 0.7740
2641.000000 0.7732 0.7725 0.7717 0.7709 0.7701
2646.000000 0.7694 0.7686 0.7679 0.7672 0.7666
2651.000000 0.7659 0.7654 0.7650 0.7645 0.7641
2656.000000 0.7637 0.7632 0.7628 0.7624 0.7620
2661.000000 0.7615 0.7610 0.7606 0.7602 0.7598
2666.000000 0.7594 0.7592 0.7589 0.7587 0.7584
2671.000000 0.7582 0.7581 0.7579 0.7577 0.7575
2676.000000 0.7574 0.7572 0.7570 0.7568 0.7566
2681.000000 0.7563 0.7561 0.7555 0.7547 0.7539
2686.000000 0.7531 0.7523 0.7516 0.7508 0.7500
2691.000000 0.7492 0.7484 0.7477 0.7469 0.7462
2696.000000 0.7454 0.7446 0.7439 0.7431 0.7423
2701.000000 0.7415 0.7408 0.7400 0.7392 0.7384
2706.000000 0.7377 0.7371 0.7364 0.7357 0.7351
2711.000000 0.7344 0.7337 0.7331 0.7324 0.7318
2716.000000 0.7312 0.7306 0.7301 0.7297 0.7293
2721.000000 0.7292 0.7292 0.7292 0.7292 0.7293
2726.000000 0.7294 0.7295 0.7297 0.7298 0.7299
2731.000000 0.7301 0.7302 0.7304 0.7305 0.7306
2736.000000 0.7307 0.7308 0.7308 0.7309 0.7310
2741.000000 0.7310 0.7311 0.7312 0.7313 0.7314
2746.000000 0.7314 0.7314 0.7311 0.7307 0.7303
2751.000000 0.7291 0.7276 0.7261 0.7244 0.7226
2756.000000 0.7208 0.7189 0.7169 0.7150 0.7130
2761.000000 0.7110 0.7089 0.7068 0.7047 0.7025
2766.000000 0.7003 0.6982 0.6960 0.6935 0.6906
2771.000000 0.6877 0.6848 0.6817 0.6787 0.6756
2776.000000 0.6724 0.6692 0.6652 0.6580 0.6508
2781.000000 0.6439 0.6387 0.6336 0.6278 0.6028
2786.000000 0.5779 0.5529 0.5464 0.5412 0.5360
2791.000000 0.5312 0.5265 0.5217 0.5172 0.5127
2796.000000 0.5082 0.5039 0.4997 0.4956 0.4896
2801.000000 0.4815 0.4734 0.4633 0.4488 0.4343
2806.000000 0.4198 0.4053 0.3909 0.3765 0.3621
2811.000000 0.3476 0.3332 0.3188 0.3044 0.2900
2816.000000 0.2756 0.2612 0.2469 0.2325 0.2182
2821.000000 0.2039 0.1896 0.1753 0.1610 0.1467
2826.000000 0.1325 0.1182 0.1039 0.0946 0.0855
2831.000000 0.0765 0.0679 0.0595 0.0511 0.0443
2836.000000 0.0389 0.0335 0.0292 0.0275 0.0259
2841.000000 0.0243 0.0242 0.0242 0.0241 0.0239
2846.000000 0.0238 0.0237 0.0236 0.0235 0.0234
2851.000000 0.0233 0.0233 0.0232 0.0231 0.0230
2856.000000 0.0230 0.0229 0.0228 0.0227 0.0227
2861.000000 0.0227 0.0227 0.0227 0.0227 0.0227
2866.000000 0.0227 0.0227 0.0227 0.0227 0.0227
2871.000000 0.0227 0.0227 0.0227 0.0227 0.0227
2876.000000 0.0227 0.0227 0.0227 0.0227 0.0227
2881.000000 0.0228 0.0228 0.0228 0.0228 0.0228
2886.000000 0.0228 0.0228 0.0228 0.0228 0.0228
2891.000000 0.0228 0.0228 0.0228 0.0228 0.0228
2896.000000 0.0228 0.0228 0.0228 0.0228 0.0228
2901.000000 0.0228 0.0228 0.0228 0.0228 0.0228
2906.000000 0.0228 0.0228 0.0228 0.0228 0.0228
2911.000000 0.0228 0.0228 0.0228 0.0228 0.0228
2916.000000 0.0228 0.0228 0.0228 0.0228 0.0228
2921.000000 0.0228 0.0228 0.0228 0.0228 0.0228
2926.000000 0.0228 0.0228 0.0225 0.0228 0.0228
2931.000000 0.0228 0.0228 0.0228 0.0228 0.0229
2936.000000 0.0229 0.0229 0.0229 0.0229 0.0229
2941.000000 0.0229 0.0229 0.0229 0.0229 0.0229
2946.000000 0.0229 0.0229 0.0229 0.0229 0.0229
2951.000000 0.0229 0.0229 0.0229 0.0229 0.0229
2956.000000 0.0231 0.0235 0.0238 0.0243 0.0250
2961.000000 0.0257 0.0265 0.0276 0.0288 0.0300
2966.000000 0.0315 0.0338 0.0360 0.0382 0.0435
2971.000000 0.0492 0.0549 0.0601 0.0642 0.0683
2976.000000 0.0725 0.0794 0.0870 0.0946 0.1022
2981.000000 0.1098 0.1174 0.1250 0.1326 0.1402
2986.000000 0.1478 0.1554 0.1630 0.1705 0.1781
2991.000000 0.1856 0.1932 0.2007 0.2083 0.2158
2996.000000 0.2234 0.2309 0.2384 0.2459 0.2534
3001.000000 0.2609 0.2684 0.2759 0.2834 0.2909
3006.000000 0.2984 0.3058 0.3133 0.3208 0.3282
3011.000000 0.3357 0.3432 0.3506 0.3581 0.3655
3016.000000 0.3729 0.3803 0.3877 0.3952 0.4026
3021.000000 0.4099 0.4173 0.4247 0.4321 0.4395
3026.000000 0.4470 0.4543 0.4617 0.4691 0.4764
3031.000000 0.4838 0.4911 0.4985 0.5058 0.5131
3036.000000 0.5204 0.5278 0.5351 0.5424 0.5498
3041.000000 0.5571 0.5644 0.5717 0.5790 0.5863
3046.000000 0.5912 0.5959 0.6007 0.6044 0.6045
3051.000000 0.6046 0.6047 0.6048 0.6031 0.6019
3056.000000 0.6008 0.5956 0.5891 0.5827 0.5762
3061.000000 0.5697 0.5632 0.5568 0.5503 0.5438
3066.000000 0.5374 0.5310 0.5245 0.5181 0.5117
3071.000000 0.5053 0.5016 0.4987 0.4959 0.4931
3076.000000 0.4943 0.4957 0.4970 0.4939 0.5098
3081.000000 0.5198 0.5297 0.5397 0.5496 0.5595
3086.000000 0.5694 0.5793 0.5892 0.5990 0.6089
3091.000000 0.6188 0.6287 0.6385 0.6484 0.6582
3096.000000 0.6680 0.6779 0.6877 0.6975 0.7073
3101.000000 0.7171 0.7269 0.7367 0.7465 0.7563
3106.000000 0.7649 0.7720 0.7791 0.7862 0.7906
3111.000000 0.7927 0.7949 0.7971 0.7984 0.7992
3116.000000 0.8000 0.8008 0.8016 0.8024 0.8032
3121.000000 0.8040 0.8045 0.8050 0.8055 0.8061
3126.000000 0.8065 0.8070 0.8075 0.8080 0.8085
3131.000000 0.8090 0.8094 0.8099 0.8104 0.8108
3136.000000 0.8113 0.8118 0.8122 0.8126 0.8130
3141.000000 0.8135 0.8139 0.8144 0.8149 0.8153
3146.000000 0.8158 0.8162 0.8167 0.8171 0.8176
3151.000000 0.8180 0.8185 0.8189 0.8194 0.8199
3156.000000 0.8204 0.8208 0.8213 0.8217 0.8222
3161.000000 0.8227 0.8231 0.8236 0.8241 0.8245
3166.000000 0.8250 0.8254 0.8258 0.8262 0.8267
3171.000000 0.8271 0.8276 0.8280 0.8284 0.8289
3176.000000 0.8293 0.8297 0.8302 0.8306 0.8311
3181.000000 0.8315 0.8319 0.8323 0.8328 0.8331
3186.000000 0.8335 0.8338 0.8342 0.8345 0.8349
3191.000000 0.8352 0.8356 0.8359 0.8362 0.8365
3196.000000 0.8369 0.8372 0.8375 0.8379 0.8382
3201.000000 0.8385 0.8389 0.8392 0.8395 0.8398
3206.000000 0.8401 0.8405 0.8408 0.8412 0.8415
3211.000000 0.8418 0.8421 0.8423 0.8426 0.8428
3216.000000 0.8431 0.8433 0.8436 0.8438 0.8441
3221.000000 0.8443 0.8445 0.8448 0.8450 0.8453
3226.000000 0.8455 0.8457 0.8460 0.8462 0.8465
3231.000000 0.8466 0.8468 0.8470 0.8471 0.8473
3236.000000 0.8474 0.8476 0.8477 0.8478 0.8479
3241.000000 0.8481 0.8482 0.8483 0.8485 0.8486
3246.000000 0.8487 0.8489 0.8489 0.8490 0.8490
3251.000000 0.8491 0.8491 0.8491 0.8491 0.8491
3256.000000 0.8492 0.8492 0.8492 0.8492 0.8493
3261.000000 0.8493 0.8493 0.8493 0.8494 0.8494
3266.000000 0.8494 0.8494 0.8495 0.8495 0.8495
3271.000000 0.8495 0.8495 0.8496 0.8496 0.8496
3276.000000 0.8496 0.8497 0.8497 0.8497 0.8497
3281.000000 0.8497 0.8497 0.8497 0.8497 0.8497
3286.000000 0.8497 0.8497 0.8497 0.8497 0.8498
3291.000000 0.8498 0.8498 0.8498 0.8498 0.8498
3296.000000 0.8498 0.8498 0.8498 0.8497 0.8497
3301.000000 0.8496 0.8496 0.8495 0.8494 0.8494
3306.000000 0.8493 0.8492 0.8492 0.8491 0.8490
3311.000000 0.8490 0.8489 0.8488 0.8488 0.8487
3316.000000 0.8487 0.8487 0.8488 0.8488 0.8488
3321.000000 0.8489 0.8489 0.8489 0.8489 0.8490
3326.000000 0.8490 0.8491 0.8491 0.8492 0.8492
3331.000000 0.8492 0.8493 0.8493 0.8494 0.8495
3336.000000 0.8496 0.8497 0.8498 0.8499 0.8500
3341.000000 0.8501 0.8502 0.8504 0.8505 0.8506
3346.000000 0.8508 0.8509 0.8510 0.8511 0.8512
3351.000000 0.8513 0.8515 0.8517 0.8518 0.8520
3356.000000 0.8522 0.8524 0.8527 0.8529 0.8531
3361.000000 0.8533 0.8535 0.8537 0.8539 0.8541
3366.000000 0.8543 0.8545 0.8547 0.8549 0.8551
3371.000000 0.8553 0.8555 0.8558 0.8560 0.8563
3376.000000 0.8565 0.8568 0.8571 0.8573 0.8576
3381.000000 0.8578 0.8581 0.8584 0.8586 0.8588
3386.000000 0.8591 0.8593 0.8596 0.8598 0.8601
3391.000000 0.8604 0.8606 0.8609 0.8613 0.8616
3396.000000 0.8619 0.8622 0.8626 0.8630 0.8633
3401.000000 0.8637 0.8641 0.8644 0.8648 0.8651
3406.000000 0.8655 0.8658 0.8662 0.8665 0.8669
3411.000000 0.8673 0.8677 0.8681 0.8685 0.8689
3416.000000 0.8694 0.8698 0.8703 0.8707 0.8712
3421.000000 0.8716 0.8720 0.8724 0.8729 0.8733
3426.000000 0.8737 0.8741 0.8746 0.8750 0.8754
3431.000000 0.8759 0.8763 0.8768 0.8772 0.8776
3436.000000 0.8781 0.8785 0.8789 0.8793 0.8798
3441.000000 0.8802 0.8807 0.8811 0.8815 0.8820
3446.000000 0.8824 0.8828 0.8832 0.8837 0.8841
3451.000000 0.8845 0.8849 0.8853 0.8857 0.8861
3456.000000 0.8865 0.8868 0.8872 0.8875 0.8877
3461.000000 0.8880 0.8883 0.8886 0.8889 0.8891
3466.000000 0.8894 0.8897 0.8900 0.8903 0.8906
3471.000000 0.8908 0.8911 0.8914 0.8916 0.8919
3476.000000 0.8922 0.8924 0.8925 0.8926 0.8926
3481.000000 0.8927 0.8928 0.8928 0.8929 0.8930
3486.000000 0.8931 0.8932 0.8933 0.8933 0.8934
3491.000000 0.8935 0.8936 0.8936 0.8937 0.8938
3496.000000 0.8938 0.8939 0.8940 0.8941 0.8941
3501.000000 0.8942 0.8944 0.8946 0.8948 0.8951
3506.000000 0.8953 0.8955 0.8957 0.8959 0.8961
3511.000000 0.8963 0.8966 0.8970 0.8974 0.8978
3516.000000 0.8982 0.8986 0.8990 0.8993 0.8997
3521.000000 0.9001 0.9005 0.9009 0.9012 0.9016
3526.000000 0.9020 0.9024 0.9028 0.9032 0.9036
3531.000000 0.9040 0.9044 0.9048 0.9052 0.9056
3536.000000 0.9060 0.9064 0.9068 0.9072 0.9076
3541.000000 0.9080 0.9084 0.9089 0.9093 0.9097
3546.000000 0.9101 0.9105 0.9108 0.9112 0.9115
3551.000000 0.9119 0.9123 0.9126 0.9130 0.9133
3556.000000 0.9137 0.9140 0.9144 0.9147 0.9150
3561.000000 0.9154 0.9157 0.9161 0.9164 0.9168
3566.000000 0.9171 0.9174 0.9177 0.9179 0.9182
3571.000000 0.9184 0.9187 0.9189 0.9192 0.9194
3576.000000 0.9196 0.9199 0.9201 0.9203 0.9206
3581.000000 0.9208 0.9210 0.9213 0.9215 0.9218
3586.000000 0.9220 0.9223 0.9225 0.9228 0.9230
3591.000000 0.9232 0.9235 0.9236 0.9238 0.9239
3596.000000 0.9241 0.9242 0.9244 0.9245 0.9246
3601.000000 0.9248 0.9249 0.9251 0.9252 0.9254
3606.000000 0.9255 0.9257 0.9258 0.9260 0.9261
3611.000000 0.9262 0.9264 0.9265 0.9266 0.9268
3616.000000 0.9269 0.9270 0.9272 0.9273 0.9274
3621.000000 0.9276 0.9277 0.9278 0.9279 0.9280
3626.000000 0.9281 0.9282 0.9283 0.9284 0.9285
3631.000000 0.9286 0.9287 0.9288 0.9289 0.9289
3636.000000 0.9290 0.9291 0.9292 0.9292 0.9293
3641.000000 0.9294 0.9295 0.9296 0.9297 0.9298
3646.000000 0.9299 0.9300 0.9300 0.9301 0.9302
3651.000000 0.9303 0.9304 0.9305 0.9306 0.9307
3656.000000 0.9308 0.9309 0.9310 0.9311 0.9312
3661.000000 0.9313 0.9314 0.9315 0.9317 0.9318
3666.000000 0.9319 0.9320 0.9321 0.9322 0.9323
3671.000000 0.9324 0.9326 0.9327 0.9328 0.9329
3676.000000 0.9330 0.9331 0.9332 0.9333 0.9334
3681.000000 0.9336 0.9337 0.9337 0.9338 0.9339
3686.000000 0.9340 0.9340 0.9341 0.9341 0.9342
3691.000000 0.9343 0.9343 0.9344 0.9344 0.9345
3696.000000 0.9346 0.9347 0.9347 0.9348 0.9348
3701.000000 0.9349 0.9350 0.9350 0.9351 0.9351
3706.000000 0.9351 0.9351 0.9351 0.9351 0.9351
3711.000000 0.9351 0.9351 0.9351 0.9351 0.9352
3716.000000 0.9352 0.9352 0.9352 0.9352 0.9352
3721.000000 0.9353 0.9353 0.9353 0.9353 0.9353
3726.000000 0.9353 0.9353 0.9353 0.9353 0.9353
3731.000000 0.9353 0.9333 0.9354 0.9354 0.9354
3736.000000 0.9354 0.9354 0.9354 0.9354 0.9354
3741.000000 0.9354 0.9354 0.9353 0.9352 0.9351
3746.000000 0.9350 0.9350 0.9349 0.9348 0.9347
3751.000000 0.9346 0.9345 0.9344 0.9343 0.9342
3756.000000 0.9342 0.9341 0.9340 0.9339 0.9338
3761.000000 0.9337 0.9337 0.9336 0.9335 0.9335
3766.000000 0.9334 0.9333 0.9332 0.9331 0.9330
3771.000000 0.9329 0.9328 0.9328 0.9327 0.9326
3776.000000 0.9325 0.9324 0.9323 0.9322 0.9321
3781.000000 0.9321 0.9320 0.9318 0.9316 0.9315
3786.000000 0.9313 0.9311 0.9309 0.9308 0.9306
3791.000000 0.9304 0.9302 0.9301 0.9299 0.9297
3796.000000 0.9295 0.9293 0.9291 0.9289 0.9287
3801.000000 0.9286 0.9284 0.9282 0.9281 0.9279
3806.000000 0.9277 0.9275 0.9274 0.9272 0.9270
3811.000000 0.9268 0.9267 0.9265 0.9263 0.9261
3816.000000 0.9259 0.9257 0.9255 0.9254 0.9252
3821.000000 0.9250 0.9249 0.9247 0.9245 0.9243
3826.000000 0.9242 0.9240 0.9238 0.9236 0.9234
3831.000000 0.9231 0.9229 0.9226 0.9223 0.9221
3836.000000 0.9218 0.9215 0.9213 0.9210 0.9207
3841.000000 0.9205 0.9202 0.9200 0.9197 0.9194
3846.000000 0.9192 0.9189 0.9187 0.9184 0.9181
3851.000000 0.9178 0.9176 0.9173 0.9171 0.9168
3856.000000 0.9166 0.9163 0.9161 0.9158 0.9156
3861.000000 0.9153 0.9150 0.9148 0.9145 0.9143
3866.000000 0.9141 0.9138 0.9136 0.9134 0.9131
3871.000000 0.9129 0.9127 0.9124 0.9122 0.9120
3876.000000 0.9117 0.9115 0.9113 0.9110 0.9108
3881.000000 0.9106 0.9103 0.9101 0.9098 0.9096
3886.000000 0.9094 0.9091 0.9089 0.9087 0.9085
3891.000000 0.9083 0.9081 0.9079 0.9078 0.9076
3896.000000 0.9074 0.9073 0.9071 0.9069 0.9068
3901.000000 0.9066 0.9064 0.9063 0.9061 0.9060
3906.000000 0.9058 0.9057 0.9055 0.9054 0.9053
3911.000000 0.9052 0.9051 0.9050 0.9050 0.9050
3916.000000 0.9049 0.9049 0.9049 0.9048 0.9048
3921.000000 0.9048 0.9047 0.9047 0.9047 0.9046
3926.000000 0.9046 0.9046 0.9045 0.9045 0.9045
3931.000000 0.9044 0.9044 0.9044 0.9043 0.9043
3936.000000 0.9043 0.9043 0.9042 0.9042 0.9041
3941.000000 0.9041 0.9040 0.9040 0.9039 0.9039
3946.000000 0.9039 0.9038 0.9038 0.9038 0.9037
3951.000000 0.9037 0.9037 0.9037 0.9037 0.9037
3956.000000 0.9036 0.9036 0.9036 0.9035 0.9035
3961.000000 0.9035 0.9034 0.9034 0.9034 0.9034
3966.000000 0.9034 0.9034 0.9034 0.9033 0.9033
3971.000000 0.9033 0.9033 0.9033 0.9033 0.9032
3976.000000 0.9032 0.9032 0.9031 0.9031 0.9031
3981.000000 0.9030 0.9030 0.9030 0.9030 0.9030
3986.000000 0.9030 0.9030 0.9029 0.9029 0.9029
3991.000000 0.9029 0.9029 0.9029 0.9028 0.9028
3996.000000 0.9027 0.9027 0.9026 0.9026 0.9026
##END=
