##TITLE=Selenium, chlorotriphenyl-, hydrate
##JCAMP-DX=4.24
##DATA TYPE=INFRARED SPECTRUM
##CLASS=COBLENTZ III
##ORIGIN=DOW CHEMICAL COMPANY
##OWNER=Copyright (C) 1987 by the Coblentz Society
Collection (C) 2018 copyright by the U.S. Secretary of Commerce
on behalf of the United States of America. All rights reserved.
##DATE=1968/10/24
##MOLFORM=C18 H15 Cl Se
##SOURCE REFERENCE=COBLENTZ NO. 8134
##$NIST ID=B6008134
##$NIST SOURCE=COBLENTZ
##$NIST IMAGE=cob8134
##SPECTROMETER/DATA SYSTEM=DOW KBr FOREPRISM-GRATING
##INSTRUMENT PARAMETERS=BLAZED AT 3.5, 12.0, 20.0 MICRON AND CHANGED AT 5.0, 7.5, 14.9 MICRON
##STATE=SOLID (SPLIT MULL), FLUOROLUBE FOR 3800-1330 CM^-^1, NUJOL FOR 1330-470 CM^-^1
$$SPECTRAL CONTAMINATION DUE TO H2O AROUND 3400 CM^-^1
##SAMPLING PROCEDURE=TRANSMISSION
##RESOLUTION=2
##DATA PROCESSING=DIGITIZED BY COBLENTZ SOCIETY (BATCH II) FROM HARD COPY
##XUNITS=1/CM
##YUNITS=TRANSMITTANCE
##XFACTOR=1.0
##YFACTOR=1
##FIRSTX=481
##LASTX=3800
##FIRSTY=0.5703
##MAXX=3800
##MINX=481
##MAXY=0.8816
##MINY=0.0287
##NPOINTS=3320
##XYDATA=(X++(Y..Y))
481.000000 0.5703 0.5711 0.5637 0.5601 0.5560
486.000000 0.5519 0.5478 0.5448 0.5418 0.5388
491.000000 0.5357 0.5329 0.5301 0.5272 0.5248
496.000000 0.5235 0.5223 0.5211 0.5207 0.5204
501.000000 0.5200 0.5215 0.5200 0.5206 0.5215
506.000000 0.5224 0.5242 0.5260 0.5279 0.5303
511.000000 0.5336 0.5369 0.5400 0.5428 0.5455
516.000000 0.5482 0.5508 0.5531 0.5554 0.5577
521.000000 0.5600 0.5623 0.5646 0.5667 0.5685
526.000000 0.5703 0.5721 0.5739 0.5757 0.5772
531.000000 0.5783 0.5795 0.5806 0.5818 0.5830
536.000000 0.5841 0.5852 0.5860 0.5868 0.5875
541.000000 0.5883 0.5890 0.5898 0.5906 0.5918
546.000000 0.5929 0.5941 0.5952 0.5964 0.5975
551.000000 0.5987 0.6004 0.6021 0.6038 0.6056
556.000000 0.6073 0.6090 0.6108 0.6127 0.6145
561.000000 0.6163 0.6182 0.6200 0.6219 0.6236
566.000000 0.6254 0.6272 0.6290 0.6308 0.6326
571.000000 0.6344 0.6361 0.6377 0.6389 0.6402
576.000000 0.6414 0.6426 0.6439 0.6451 0.6464
581.000000 0.6476 0.6488 0.6501 0.6511 0.6517
586.000000 0.6524 0.6530 0.6536 0.6543 0.6549
591.000000 0.6555 0.6586 0.6560 0.6559 0.6558
596.000000 0.6553 0.6546 0.6538 0.6530 0.6513
601.000000 0.6494 0.6475 0.6456 0.6436 0.6413
606.000000 0.6384 0.6355 0.6326 0.6297 0.6251
611.000000 0.6212 0.6188 0.6193 0.6248 0.6398
616.000000 0.6527 0.6645 0.6679 0.6699 0.6714
621.000000 0.6729 0.6744 0.6760 0.6777 0.6793
626.000000 0.6804 0.6814 0.6825 0.6835 0.6844
631.000000 0.6852 0.6860 0.6868 0.6876 0.6883
636.000000 0.6891 0.6899 0.6907 0.6915 0.6923
641.000000 0.6931 0.6939 0.6948 0.6956 0.6963
646.000000 0.6989 0.6967 0.6969 0.6965 0.6950
651.000000 0.6931 0.6901 0.6869 0.6831 0.6789
656.000000 0.6727 0.6661 0.6593 0.6524 0.6454
661.000000 0.6383 0.6336 0.6334 0.6336 0.6337
666.000000 0.6333 0.6311 0.6269 0.6225 0.6167
671.000000 0.6175 0.6187 0.6212 0.6226 0.6215
676.000000 0.6189 0.6137 0.5982 0.5675 0.5369
681.000000 0.5063 0.4757 0.4451 0.4144 0.3838
686.000000 0.3532 0.3226 0.2975 0.2971 0.3001
691.000000 0.3975 0.4948 0.5921 0.6545 0.6715
696.000000 0.6775 0.6799 0.6805 0.6812 0.6816
701.000000 0.6823 0.6814 0.6808 0.6801 0.6791
706.000000 0.6778 0.6759 0.6737 0.6696 0.6657
711.000000 0.6625 0.6592 0.6547 0.6474 0.6426
716.000000 0.6379 0.6333 0.6281 0.6227 0.6159
721.000000 0.6079 0.6009 0.5955 0.5925 0.5925
726.000000 0.5922 0.5920 0.5918 0.5915 0.5905
731.000000 0.5889 0.5871 0.5849 0.5823 0.5793
736.000000 0.5759 0.5722 0.5681 0.5629 0.5556
741.000000 0.5474 0.5383 0.5283 0.5160 0.5019
746.000000 0.4035 0.3608 0.3328 0.2577 0.1825
751.000000 0.0943 0.0952 0.1484 0.2016 0.2548
756.000000 0.3061 0.3035 0.2728 0.2420 0.2113
761.000000 0.1781 0.1736 0.2114 0.2966 0.3817
766.000000 0.4668 0.5519 0.6370 0.6672 0.6866
771.000000 0.6986 0.7059 0.7110 0.7144 0.7174
776.000000 0.7193 0.7207 0.7221 0.7235 0.7241
781.000000 0.7272 0.7248 0.7242 0.7236 0.7220
786.000000 0.7204 0.7191 0.7177 0.7167 0.7158
791.000000 0.7157 0.7160 0.7129 0.7175 0.7186
796.000000 0.7207 0.7228 0.7255 0.7281 0.7314
801.000000 0.7348 0.7382 0.7418 0.7455 0.7492
806.000000 0.7529 0.7566 0.7603 0.7638 0.7674
811.000000 0.7709 0.7745 0.7773 0.7793 0.7814
816.000000 0.7833 0.7841 0.7849 0.7857 0.7865
821.000000 0.7873 0.7877 0.7879 0.7880 0.7882
826.000000 0.7884 0.7882 0.7878 0.7895 0.7869
831.000000 0.7865 0.7861 0.7857 0.7845 0.7830
836.000000 0.7814 0.7798 0.7765 0.7716 0.7654
841.000000 0.7592 0.7531 0.7381 0.7300 0.7223
846.000000 0.7146 0.7129 0.7168 0.7364 0.7560
851.000000 0.7703 0.7729 0.7737 0.7737 0.7735
856.000000 0.7735 0.7735 0.7748 0.7760 0.7782
861.000000 0.7804 0.7829 0.7853 0.7869 0.7882
866.000000 0.7894 0.7907 0.7917 0.7917 0.7917
871.000000 0.7917 0.7932 0.7912 0.7909 0.7905
876.000000 0.7902 0.7899 0.7893 0.7887 0.7881
881.000000 0.7874 0.7868 0.7862 0.7856 0.7850
886.000000 0.7845 0.7839 0.7833 0.7828 0.7822
891.000000 0.7816 0.7814 0.7813 0.7812 0.7811
896.000000 0.7810 0.7808 0.7806 0.7803 0.7800
901.000000 0.7797 0.7794 0.7791 0.7786 0.7779
906.000000 0.7772 0.7765 0.7759 0.7747 0.7724
911.000000 0.7702 0.7675 0.7642 0.7609 0.7576
916.000000 0.7540 0.7503 0.7485 0.7466 0.7463
921.000000 0.7491 0.7546 0.7586 0.7592 0.7589
926.000000 0.7584 0.7578 0.7573 0.7568 0.7563
931.000000 0.7558 0.7553 0.7573 0.7590 0.7614
936.000000 0.7635 0.7646 0.7653 0.7655 0.7657
941.000000 0.7657 0.7657 0.7657 0.7657 0.7656
946.000000 0.7652 0.7648 0.7645 0.7641 0.7637
951.000000 0.7633 0.7627 0.7619 0.7611 0.7603
956.000000 0.7594 0.7586 0.7578 0.7570 0.7562
961.000000 0.7554 0.7545 0.7531 0.7517 0.7503
966.000000 0.7490 0.7476 0.7461 0.7438 0.7416
971.000000 0.7393 0.7370 0.7347 0.7323 0.7299
976.000000 0.7280 0.7279 0.7315 0.7365 0.7392
981.000000 0.7406 0.7403 0.7385 0.7363 0.7322
986.000000 0.7278 0.7229 0.7180 0.7128 0.7079
991.000000 0.7033 0.6650 0.6202 0.5754 0.5306
996.000000 0.4857 0.4409 0.4031 0.4000 0.4357
1001.000000 0.5777 0.7196 0.7403 0.7403 0.7348
1006.000000 0.7291 0.7240 0.7203 0.7169 0.7164
1011.000000 0.7165 0.7221 0.7291 0.7360 0.7404
1016.000000 0.7384 0.7376 0.7242 0.6979 0.6716
1021.000000 0.6453 0.6198 0.6183 0.6646 0.7009
1026.000000 0.7300 0.7330 0.7661 0.7689 0.7696
1031.000000 0.7693 0.7700 0.7681 0.7675 0.7668
1036.000000 0.7660 0.7653 0.7645 0.7637 0.7630
1041.000000 0.7622 0.7611 0.7598 0.7586 0.7573
1046.000000 0.7559 0.7545 0.7531 0.7502 0.7463
1051.000000 0.7399 0.7183 0.6966 0.6780 0.6754
1056.000000 0.6736 0.6701 0.6602 0.6585 0.6592
1061.000000 0.6998 0.7363 0.7341 0.7337 0.7242
1066.000000 0.7148 0.7054 0.6959 0.6865 0.6798
1071.000000 0.6792 0.7011 0.7226 0.7439 0.7586
1076.000000 0.7619 0.7639 0.7644 0.7649 0.7652
1081.000000 0.7652 0.7652 0.7652 0.7653 0.7653
1086.000000 0.7653 0.7653 0.7653 0.7650 0.7646
1091.000000 0.7642 0.7638 0.7635 0.7631 0.7627
1096.000000 0.7626 0.7624 0.7639 0.7659 0.7679
1101.000000 0.7705 0.7730 0.7753 0.7767 0.7780
1106.000000 0.7781 0.7782 0.7784 0.7785 0.7798
1111.000000 0.7787 0.7785 0.7782 0.7780 0.7777
1116.000000 0.7775 0.7773 0.7772 0.7771 0.7770
1121.000000 0.7769 0.7767 0.7766 0.7765 0.7763
1126.000000 0.7762 0.7760 0.7758 0.7757 0.7755
1131.000000 0.7754 0.7752 0.7749 0.7746 0.7742
1136.000000 0.7739 0.7736 0.7733 0.7728 0.7711
1141.000000 0.7694 0.7678 0.7658 0.7635 0.7612
1146.000000 0.7589 0.7562 0.7527 0.7492 0.7457
1151.000000 0.7421 0.7386 0.7347 0.7301 0.7255
1156.000000 0.7207 0.7157 0.7104 0.7047 0.7042
1161.000000 0.7059 0.7161 0.7237 0.7318 0.7393
1166.000000 0.7419 0.7422 0.7423 0.7423 0.7423
1171.000000 0.7449 0.7423 0.7419 0.7414 0.7408
1176.000000 0.7394 0.7357 0.7313 0.7256 0.7090
1181.000000 0.6442 0.6044 0.6013 0.6086 0.6399
1186.000000 0.6712 0.7024 0.7119 0.7077 0.6971
1191.000000 0.6865 0.6794 0.6971 0.7453 0.7509
1196.000000 0.7529 0.7547 0.7560 0.7565 0.7562
1201.000000 0.7559 0.7557 0.7554 0.7551 0.7547
1206.000000 0.7544 0.7541 0.7537 0.7532 0.7528
1211.000000 0.7523 0.7519 0.7514 0.7510 0.7505
1216.000000 0.7501 0.7497 0.7492 0.7488 0.7483
1221.000000 0.7477 0.7472 0.7467 0.7461 0.7456
1226.000000 0.7450 0.7442 0.7434 0.7426 0.7418
1231.000000 0.7410 0.7402 0.7396 0.7391 0.7385
1236.000000 0.7379 0.7374 0.7368 0.7363 0.7357
1241.000000 0.7352 0.7346 0.7341 0.7335 0.7330
1246.000000 0.7324 0.7318 0.7313 0.7307 0.7302
1251.000000 0.7295 0.7288 0.7281 0.7274 0.7266
1256.000000 0.7259 0.7249 0.7237 0.7225 0.7213
1261.000000 0.7201 0.7188 0.7174 0.7161 0.7148
1266.000000 0.7135 0.7122 0.7097 0.7065 0.7033
1271.000000 0.6999 0.6948 0.6897 0.6838 0.6779
1276.000000 0.6720 0.6672 0.6625 0.6578 0.6518
1281.000000 0.6468 0.6457 0.6460 0.6428 0.6516
1286.000000 0.6585 0.6693 0.6860 0.6937 0.6968
1291.000000 0.6987 0.6978 0.6976 0.6956 0.6927
1296.000000 0.6890 0.6853 0.6817 0.6780 0.6733
1301.000000 0.6680 0.6641 0.6605 0.6569 0.6533
1306.000000 0.6497 0.6461 0.6426 0.6390 0.6352
1311.000000 0.6311 0.6270 0.6241 0.6212 0.6217
1316.000000 0.6226 0.6249 0.6279 0.6312 0.6352
1321.000000 0.6399 0.6459 0.6524 0.6594 0.6663
1326.000000 0.6710 0.6726 0.6756 0.6739 0.6741
1331.000000 0.6719 0.6694 0.6668 0.6604 0.6565
1336.000000 0.6542 0.6539 0.6542 0.6552 0.6562
1341.000000 0.6590 0.6625 0.6688 0.6780 0.6889
1346.000000 0.7060 0.7202 0.7304 0.7393 0.7479
1351.000000 0.7542 0.7571 0.7589 0.7607 0.7615
1356.000000 0.7618 0.7620 0.7620 0.7625 0.7612
1361.000000 0.7608 0.7604 0.7600 0.7596 0.7590
1366.000000 0.7584 0.7578 0.7572 0.7566 0.7560
1371.000000 0.7549 0.7538 0.7526 0.7515 0.7504
1376.000000 0.7493 0.7481 0.7473 0.7469 0.7466
1381.000000 0.7484 0.7511 0.7544 0.7575 0.7593
1386.000000 0.7580 0.7568 0.7553 0.7525 0.7498
1391.000000 0.7459 0.7417 0.7373 0.7329 0.7285
1396.000000 0.7241 0.7201 0.7162 0.7122 0.7083
1401.000000 0.7041 0.6999 0.6956 0.6913 0.6868
1406.000000 0.6821 0.6773 0.6714 0.6726 0.6735
1411.000000 0.6752 0.6781 0.6809 0.6841 0.6872
1416.000000 0.6901 0.6929 0.6958 0.6984 0.7007
1421.000000 0.7036 0.7022 0.7011 0.6999 0.6987
1426.000000 0.6970 0.6945 0.6918 0.6880 0.6840
1431.000000 0.6790 0.6727 0.6663 0.6511 0.6349
1436.000000 0.6179 0.5979 0.5488 0.5239 0.4559
1441.000000 0.3283 0.1117 0.0714 0.0733 0.1905
1446.000000 0.3138 0.3824 0.3256 0.1995 0.4379
1451.000000 0.5643 0.6907 0.7916 0.7993 0.8005
1456.000000 0.7979 0.7939 0.7833 0.7760 0.7654
1461.000000 0.7398 0.7102 0.6806 0.6510 0.6214
1466.000000 0.5918 0.5488 0.4869 0.4249 0.3630
1471.000000 0.3020 0.2858 0.2727 0.2601 0.2386
1476.000000 0.2269 0.2182 0.2170 0.2204 0.2431
1481.000000 0.2778 0.3125 0.3303 0.3443 0.3640
1486.000000 0.3747 0.3854 0.4094 0.5163 0.6104
1491.000000 0.7046 0.8169 0.8514 0.8667 0.8748
1496.000000 0.8794 0.8816 0.8800 0.8798 0.8792
1501.000000 0.8780 0.8766 0.8749 0.8727 0.8705
1506.000000 0.8683 0.8661 0.8640 0.8621 0.8603
1511.000000 0.8585 0.8566 0.8549 0.8535 0.8520
1516.000000 0.8505 0.8491 0.8476 0.8462 0.8447
1521.000000 0.8433 0.8418 0.8401 0.8383 0.8366
1526.000000 0.8349 0.8331 0.8314 0.8297 0.8281
1531.000000 0.8264 0.8248 0.8231 0.8219 0.8208
1536.000000 0.8198 0.8188 0.8177 0.8167 0.8157
1541.000000 0.8146 0.8136 0.8128 0.8119 0.8111
1546.000000 0.8103 0.8094 0.8086 0.8078 0.8068
1551.000000 0.8057 0.8047 0.8037 0.8026 0.8016
1556.000000 0.8005 0.7982 0.7960 0.7924 0.7880
1561.000000 0.7835 0.7786 0.7729 0.7672 0.7608
1566.000000 0.7538 0.7469 0.7392 0.7303 0.7190
1571.000000 0.7045 0.6248 0.5452 0.4956 0.4959
1576.000000 0.5250 0.5609 0.5967 0.6326 0.6684
1581.000000 0.7042 0.7332 0.7394 0.7430 0.7452
1586.000000 0.7458 0.7446 0.7411 0.7458 0.7247
1591.000000 0.7164 0.7082 0.7000 0.6918 0.6836
1596.000000 0.6754 0.6672 0.6590 0.6508 0.6426
1601.000000 0.6344 0.6262 0.6169 0.6068 0.5965
1606.000000 0.5862 0.5762 0.5658 0.5536 0.5415
1611.000000 0.5296 0.5198 0.5100 0.4980 0.4863
1616.000000 0.4767 0.4734 0.4734 0.4737 0.4744
1621.000000 0.4775 0.4825 0.4865 0.4907 0.4947
1626.000000 0.4978 0.5025 0.5073 0.5116 0.5158
1631.000000 0.5209 0.5268 0.5327 0.5386 0.5452
1636.000000 0.5517 0.5587 0.5662 0.5736 0.5833
1641.000000 0.6036 0.6218 0.6299 0.6358 0.6394
1646.000000 0.6412 0.6414 0.6412 0.6405 0.6437
1651.000000 0.6383 0.6357 0.6327 0.6298 0.6268
1656.000000 0.6238 0.6201 0.6161 0.6120 0.6079
1661.000000 0.6018 0.5954 0.5902 0.5856 0.5809
1666.000000 0.5763 0.5740 0.5745 0.5754 0.5768
1671.000000 0.5831 0.5907 0.6034 0.6144 0.6233
1676.000000 0.6360 0.6496 0.6601 0.6696 0.6793
1681.000000 0.6899 0.7004 0.7112 0.7220 0.7291
1686.000000 0.7341 0.7386 0.7418 0.7449 0.7481
1691.000000 0.7513 0.7545 0.7577 0.7611 0.7645
1696.000000 0.7659 0.7672 0.7686 0.7699 0.7713
1701.000000 0.7726 0.7735 0.7744 0.7754 0.7762
1706.000000 0.7767 0.7772 0.7777 0.7778 0.7778
1711.000000 0.7779 0.7780 0.7781 0.7781 0.7810
1716.000000 0.7781 0.7780 0.7778 0.7777 0.7776
1721.000000 0.7776 0.7775 0.7774 0.7773 0.7771
1726.000000 0.7765 0.7760 0.7754 0.7749 0.7746
1731.000000 0.7744 0.7742 0.7744 0.7749 0.7757
1736.000000 0.7764 0.7772 0.7778 0.7784 0.7789
1741.000000 0.7793 0.7790 0.7787 0.7784 0.7781
1746.000000 0.7775 0.7768 0.7762 0.7755 0.7748
1751.000000 0.7738 0.7722 0.7706 0.7690 0.7673
1756.000000 0.7655 0.7635 0.7616 0.7597 0.7577
1761.000000 0.7555 0.7533 0.7511 0.7489 0.7467
1766.000000 0.7445 0.7422 0.7400 0.7382 0.7370
1771.000000 0.7359 0.7347 0.7351 0.7356 0.7361
1776.000000 0.7354 0.7392 0.7415 0.7439 0.7465
1781.000000 0.7491 0.7514 0.7536 0.7558 0.7580
1786.000000 0.7595 0.7605 0.7614 0.7624 0.7626
1791.000000 0.7624 0.7621 0.7619 0.7615 0.7606
1796.000000 0.7598 0.7610 0.7581 0.7573 0.7564
1801.000000 0.7553 0.7543 0.7532 0.7521 0.7510
1806.000000 0.7499 0.7481 0.7462 0.7444 0.7418
1811.000000 0.7390 0.7363 0.7337 0.7312 0.7287
1816.000000 0.7262 0.7237 0.7212 0.7185 0.7158
1821.000000 0.7138 0.7133 0.7128 0.7123 0.7119
1826.000000 0.7123 0.7129 0.7118 0.7150 0.7165
1831.000000 0.7180 0.7195 0.7209 0.7223 0.7237
1836.000000 0.7251 0.7275 0.7298 0.7314 0.7329
1841.000000 0.7337 0.7344 0.7350 0.7355 0.7350
1846.000000 0.7345 0.7339 0.7331 0.7322 0.7314
1851.000000 0.7305 0.7292 0.7278 0.7264 0.7254
1856.000000 0.7246 0.7237 0.7231 0.7234 0.7237
1861.000000 0.7268 0.7251 0.7259 0.7266 0.7274
1866.000000 0.7285 0.7297 0.7309 0.7316 0.7321
1871.000000 0.7326 0.7331 0.7332 0.7332 0.7332
1876.000000 0.7332 0.7323 0.7312 0.7300 0.7288
1881.000000 0.7275 0.7262 0.7249 0.7236 0.7223
1886.000000 0.7204 0.7184 0.7165 0.7146 0.7118
1891.000000 0.7090 0.7061 0.7030 0.6996 0.6962
1896.000000 0.6926 0.6883 0.6841 0.6801 0.6767
1901.000000 0.6734 0.6704 0.6699 0.6707 0.6713
1906.000000 0.6723 0.6734 0.6749 0.6769 0.6789
1911.000000 0.6826 0.6866 0.6905 0.6941 0.6965
1916.000000 0.6990 0.7010 0.7020 0.7028 0.7025
1921.000000 0.7029 0.7008 0.6996 0.6984 0.6971
1926.000000 0.6958 0.6945 0.6933 0.6920 0.6908
1931.000000 0.6896 0.6885 0.6875 0.6878 0.6881
1936.000000 0.6885 0.6891 0.6897 0.6903 0.6911
1941.000000 0.6918 0.6926 0.6929 0.6932 0.6934
1946.000000 0.6936 0.6938 0.6932 0.6925 0.6919
1951.000000 0.6954 0.6904 0.6894 0.6884 0.6888
1956.000000 0.6900 0.6916 0.6935 0.6954 0.6973
1961.000000 0.6967 0.6961 0.6953 0.6942 0.6931
1966.000000 0.6915 0.6893 0.6872 0.6850 0.6825
1971.000000 0.6800 0.6774 0.6749 0.6718 0.6687
1976.000000 0.6657 0.6628 0.6602 0.6576 0.6550
1981.000000 0.6524 0.6498 0.6462 0.6433 0.6423
1986.000000 0.6413 0.6409 0.6396 0.6425 0.6436
1991.000000 0.6452 0.6470 0.6489 0.6520 0.6551
1996.000000 0.6577 0.6587 0.6591 0.6586 0.6582
2001.000000 0.6576 0.6571 0.6565 0.6560 0.6555
2006.000000 0.6550 0.6544 0.6538 0.6526 0.6515
2011.000000 0.6504 0.6493 0.6481 0.6470 0.6442
2016.000000 0.6414 0.6387 0.6360 0.6338 0.6317
2021.000000 0.6310 0.6303 0.6304 0.6287 0.6321
2026.000000 0.6337 0.6373 0.6409 0.6458 0.6507
2031.000000 0.6546 0.6585 0.6600 0.6597 0.6615
2036.000000 0.6615 0.6611 0.6607 0.6603 0.6599
2041.000000 0.6595 0.6592 0.6588 0.6584 0.6579
2046.000000 0.6574 0.6568 0.6563 0.6557 0.6552
2051.000000 0.6546 0.6540 0.6534 0.6529 0.6523
2056.000000 0.6517 0.6509 0.6501 0.6493 0.6485
2061.000000 0.6477 0.6469 0.6460 0.6452 0.6443
2066.000000 0.6434 0.6425 0.6416 0.6407 0.6398
2071.000000 0.6388 0.6379 0.6370 0.6361 0.6352
2076.000000 0.6343 0.6335 0.6328 0.6320 0.6313
2081.000000 0.6305 0.6298 0.6290 0.6283 0.6275
2086.000000 0.6267 0.6259 0.6252 0.6244 0.6237
2091.000000 0.6230 0.6223 0.6215 0.6208 0.6200
2096.000000 0.6193 0.6185 0.6178 0.6170 0.6163
2101.000000 0.6156 0.6149 0.6142 0.6135 0.6128
2106.000000 0.6122 0.6115 0.6108 0.6102 0.6096
2111.000000 0.6091 0.6086 0.6081 0.6077 0.6072
2116.000000 0.6068 0.6063 0.6059 0.6054 0.6050
2121.000000 0.6046 0.6043 0.6040 0.6037 0.6034
2126.000000 0.6031 0.6028 0.6025 0.6022 0.6020
2131.000000 0.6017 0.6014 0.6011 0.6008 0.6005
2136.000000 0.6002 0.5999 0.5996 0.5994 0.5992
2141.000000 0.5990 0.5988 0.5986 0.5984 0.5982
2146.000000 0.5980 0.5978 0.5976 0.5974 0.5972
2151.000000 0.5970 0.5968 0.5966 0.5964 0.5961
2156.000000 0.5958 0.5955 0.5952 0.5949 0.5946
2161.000000 0.5943 0.5940 0.5937 0.5935 0.5928
2166.000000 0.5922 0.5915 0.5909 0.5902 0.5896
2171.000000 0.5889 0.5883 0.5876 0.5870 0.5863
2176.000000 0.5856 0.5849 0.5843 0.5836 0.5829
2181.000000 0.5822 0.5815 0.5807 0.5799 0.5791
2186.000000 0.5783 0.5775 0.5768 0.5761 0.5754
2191.000000 0.5749 0.5744 0.5739 0.5734 0.5728
2196.000000 0.5723 0.5718 0.5713 0.5708 0.5703
2201.000000 0.5698 0.5693 0.5687 0.5682 0.5676
2206.000000 0.5670 0.5664 0.5658 0.5652 0.5646
2211.000000 0.5640 0.5634 0.5628 0.5622 0.5616
2216.000000 0.5610 0.5604 0.5598 0.5592 0.5586
2221.000000 0.5580 0.5574 0.5568 0.5562 0.5556
2226.000000 0.5550 0.5543 0.5537 0.5531 0.5525
2231.000000 0.5518 0.5512 0.5505 0.5499 0.5492
2236.000000 0.5485 0.5478 0.5472 0.5465 0.5459
2241.000000 0.5452 0.5445 0.5438 0.5432 0.5425
2246.000000 0.5419 0.5413 0.5407 0.5400 0.5394
2251.000000 0.5388 0.5382 0.5376 0.5370 0.5364
2256.000000 0.5358 0.5352 0.5346 0.5340 0.5334
2261.000000 0.5327 0.5321 0.5315 0.5309 0.5304
2266.000000 0.5300 0.5296 0.5292 0.5288 0.5284
2271.000000 0.5280 0.5276 0.5272 0.5268 0.5264
2276.000000 0.5260 0.5256 0.5252 0.5248 0.5244
2281.000000 0.5240 0.5236 0.5232 0.5228 0.5224
2286.000000 0.5220 0.5216 0.5212 0.5208 0.5204
2291.000000 0.5199 0.5195 0.5190 0.5185 0.5180
2296.000000 0.5176 0.5171 0.5166 0.5161 0.5156
2301.000000 0.5151 0.5147 0.5142 0.5137 0.5132
2306.000000 0.5128 0.5123 0.5118 0.5113 0.5109
2311.000000 0.5103 0.5097 0.5091 0.5085 0.5078
2316.000000 0.5072 0.5066 0.5060 0.5054 0.5048
2321.000000 0.5041 0.5035 0.5029 0.5023 0.5016
2326.000000 0.5010 0.5005 0.5001 0.4998 0.4995
2331.000000 0.4992 0.4989 0.4986 0.4984 0.4981
2336.000000 0.4978 0.4975 0.4973 0.4970 0.4967
2341.000000 0.4964 0.4961 0.4958 0.4956 0.4953
2346.000000 0.4950 0.4947 0.4944 0.4941 0.4939
2351.000000 0.4936 0.4933 0.4930 0.4927 0.4926
2356.000000 0.4926 0.4925 0.4925 0.4924 0.4924
2361.000000 0.4923 0.4923 0.4922 0.4922 0.4921
2366.000000 0.4921 0.4920 0.4920 0.4919 0.4919
2371.000000 0.4918 0.4918 0.4917 0.4917 0.4916
2376.000000 0.4916 0.4915 0.4915 0.4914 0.4914
2381.000000 0.4913 0.4913 0.4912 0.4911 0.4910
2386.000000 0.4910 0.4909 0.4908 0.4907 0.4907
2391.000000 0.4906 0.4906 0.4905 0.4904 0.4903
2396.000000 0.4903 0.4902 0.4901 0.4900 0.4900
2401.000000 0.4899 0.4898 0.4895 0.4893 0.4890
2406.000000 0.4888 0.4885 0.4883 0.4880 0.4878
2411.000000 0.4876 0.4874 0.4871 0.4869 0.4866
2416.000000 0.4864 0.4861 0.4859 0.4855 0.4852
2421.000000 0.4849 0.4846 0.4842 0.4839 0.4836
2426.000000 0.4833 0.4830 0.4827 0.4823 0.4820
2431.000000 0.4817 0.4814 0.4810 0.4807 0.4804
2436.000000 0.4801 0.4797 0.4794 0.4791 0.4788
2441.000000 0.4784 0.4781 0.4778 0.4775 0.4771
2446.000000 0.4768 0.4765 0.4762 0.4758 0.4755
2451.000000 0.4752 0.4749 0.4745 0.4742 0.4739
2456.000000 0.4736 0.4732 0.4729 0.4726 0.4723
2461.000000 0.4720 0.4717 0.4713 0.4710 0.4707
2466.000000 0.4704 0.4700 0.4697 0.4694 0.4691
2471.000000 0.4687 0.4684 0.4681 0.4678 0.4674
2476.000000 0.4671 0.4668 0.4665 0.4661 0.4658
2481.000000 0.4655 0.4652 0.4649 0.4646 0.4642
2486.000000 0.4639 0.4636 0.4633 0.4629 0.4626
2491.000000 0.4622 0.4619 0.4615 0.4611 0.4607
2496.000000 0.4603 0.4599 0.4595 0.4591 0.4587
2501.000000 0.4582 0.4578 0.4574 0.4570 0.4566
2506.000000 0.4562 0.4558 0.4554 0.4550 0.4546
2511.000000 0.4542 0.4538 0.4534 0.4530 0.4526
2516.000000 0.4522 0.4517 0.4513 0.4509 0.4505
2521.000000 0.4501 0.4497 0.4493 0.4489 0.4485
2526.000000 0.4481 0.4477 0.4473 0.4469 0.4465
2531.000000 0.4461 0.4457 0.4453 0.4449 0.4445
2536.000000 0.4441 0.4437 0.4433 0.4429 0.4425
2541.000000 0.4421 0.4418 0.4414 0.4410 0.4406
2546.000000 0.4402 0.4398 0.4394 0.4390 0.4386
2551.000000 0.4382 0.4378 0.4374 0.4370 0.4366
2556.000000 0.4363 0.4359 0.4355 0.4351 0.4347
2561.000000 0.4343 0.4339 0.4335 0.4331 0.4327
2566.000000 0.4323 0.4320 0.4317 0.4313 0.4310
2571.000000 0.4307 0.4304 0.4301 0.4298 0.4294
2576.000000 0.4291 0.4288 0.4285 0.4282 0.4279
2581.000000 0.4275 0.4272 0.4269 0.4266 0.4262
2586.000000 0.4259 0.4256 0.4253 0.4250 0.4247
2591.000000 0.4243 0.4240 0.4237 0.4234 0.4231
2596.000000 0.4228 0.4224 0.4221 0.4217 0.4214
2601.000000 0.4210 0.4207 0.4203 0.4200 0.4196
2606.000000 0.4193 0.4189 0.4186 0.4183 0.4180
2611.000000 0.4176 0.4173 0.4169 0.4166 0.4162
2616.000000 0.4158 0.4154 0.4150 0.4146 0.4142
2621.000000 0.4137 0.4133 0.4129 0.4125 0.4121
2626.000000 0.4117 0.4112 0.4108 0.4104 0.4100
2631.000000 0.4096 0.4092 0.4087 0.4083 0.4079
2636.000000 0.4075 0.4071 0.4067 0.4066 0.4065
2641.000000 0.4064 0.4064 0.4062 0.4061 0.4060
2646.000000 0.4059 0.4057 0.4056 0.4055 0.4054
2651.000000 0.4051 0.4049 0.4044 0.4039 0.4034
2656.000000 0.4030 0.4025 0.4020 0.4015 0.4010
2661.000000 0.4005 0.4000 0.3995 0.3991 0.3988
2666.000000 0.3985 0.3982 0.3979 0.3976 0.3974
2671.000000 0.3971 0.3968 0.3965 0.3962 0.3959
2676.000000 0.3957 0.3953 0.3950 0.3946 0.3943
2681.000000 0.3939 0.3936 0.3932 0.3929 0.3925
2686.000000 0.3922 0.3919 0.3916 0.3912 0.3909
2691.000000 0.3905 0.3902 0.3898 0.3895 0.3891
2696.000000 0.3888 0.3884 0.3881 0.3877 0.3873
2701.000000 0.3869 0.3865 0.3861 0.3858 0.3854
2706.000000 0.3850 0.3846 0.3842 0.3838 0.3834
2711.000000 0.3830 0.3826 0.3822 0.3818 0.3814
2716.000000 0.3810 0.3806 0.3802 0.3798 0.3794
2721.000000 0.3790 0.3787 0.3782 0.3778 0.3774
2726.000000 0.3770 0.3765 0.3761 0.3756 0.3752
2731.000000 0.3748 0.3744 0.3739 0.3735 0.3731
2736.000000 0.3727 0.3722 0.3718 0.3713 0.3709
2741.000000 0.3705 0.3701 0.3696 0.3692 0.3687
2746.000000 0.3683 0.3679 0.3675 0.3670 0.3666
2751.000000 0.3662 0.3658 0.3653 0.3649 0.3645
2756.000000 0.3641 0.3637 0.3634 0.3630 0.3627
2761.000000 0.3623 0.3619 0.3615 0.3612 0.3608
2766.000000 0.3605 0.3601 0.3597 0.3593 0.3590
2771.000000 0.3586 0.3583 0.3579 0.3575 0.3571
2776.000000 0.3568 0.3564 0.3560 0.3556 0.3553
2781.000000 0.3549 0.3545 0.3541 0.3537 0.3533
2786.000000 0.3530 0.3526 0.3522 0.3518 0.3515
2791.000000 0.3511 0.3507 0.3503 0.3499 0.3495
2796.000000 0.3492 0.3488 0.3484 0.3480 0.3476
2801.000000 0.3472 0.3468 0.3463 0.3459 0.3454
2806.000000 0.3450 0.3445 0.3441 0.3436 0.3432
2811.000000 0.3427 0.3423 0.3418 0.3414 0.3409
2816.000000 0.3405 0.3400 0.3396 0.3391 0.3387
2821.000000 0.3382 0.3378 0.3373 0.3369 0.3364
2826.000000 0.3360 0.3355 0.3351 0.3346 0.3341
2831.000000 0.3334 0.3328 0.3322 0.3316 0.3310
2836.000000 0.3304 0.3297 0.3291 0.3285 0.3279
2841.000000 0.3273 0.3267 0.3260 0.3254 0.3248
2846.000000 0.3242 0.3236 0.3230 0.3223 0.3217
2851.000000 0.3211 0.3205 0.3199 0.3193 0.3187
2856.000000 0.3181 0.3174 0.3168 0.3161 0.3155
2861.000000 0.3148 0.3141 0.3133 0.3126 0.3119
2866.000000 0.3112 0.3104 0.3097 0.3090 0.3083
2871.000000 0.3075 0.3068 0.3060 0.3053 0.3046
2876.000000 0.3039 0.3031 0.3024 0.3017 0.3010
2881.000000 0.3002 0.2995 0.2987 0.2980 0.2972
2886.000000 0.2965 0.2957 0.2950 0.2942 0.2935
2891.000000 0.2927 0.2920 0.2912 0.2905 0.2897
2896.000000 0.2890 0.2882 0.2875 0.2868 0.2861
2901.000000 0.2853 0.2846 0.2839 0.2832 0.2824
2906.000000 0.2817 0.2810 0.2803 0.2795 0.2788
2911.000000 0.2780 0.2773 0.2766 0.2759 0.2751
2916.000000 0.2744 0.2736 0.2729 0.2721 0.2714
2921.000000 0.2706 0.2699 0.2691 0.2684 0.2676
2926.000000 0.2669 0.2661 0.2653 0.2645 0.2638
2931.000000 0.2630 0.2623 0.2614 0.2606 0.2597
2936.000000 0.2589 0.2580 0.2572 0.2567 0.2562
2941.000000 0.2559 0.2556 0.2553 0.2550 0.2547
2946.000000 0.2544 0.2541 0.2538 0.2535 0.2532
2951.000000 0.2530 0.2528 0.2526 0.2525 0.2524
2956.000000 0.2523 0.2521 0.2520 0.2518 0.2516
2961.000000 0.2512 0.2508 0.2504 0.2500 0.2495
2966.000000 0.2491 0.2487 0.2483 0.2479 0.2475
2971.000000 0.2471 0.2467 0.2461 0.2455 0.2448
2976.000000 0.2441 0.2434 0.2427 0.2420 0.2414
2981.000000 0.2401 0.2389 0.2375 0.2362 0.2349
2986.000000 0.2336 0.2322 0.2309 0.2291 0.2273
2991.000000 0.2251 0.2230 0.2206 0.2182 0.2157
2996.000000 0.2133 0.2086 0.2039 0.1965 0.1892
3001.000000 0.1824 0.1756 0.1753 0.1751 0.1756
3006.000000 0.1786 0.1792 0.1822 0.1851 0.1880
3011.000000 0.1893 0.1906 0.1915 0.1924 0.1932
3016.000000 0.1940 0.1947 0.1954 0.1961 0.1968
3021.000000 0.1976 0.1984 0.1994 0.2004 0.2012
3026.000000 0.2020 0.2025 0.2031 0.2035 0.2039
3031.000000 0.2041 0.2030 0.2044 0.2045 0.2038
3036.000000 0.2032 0.2011 0.1990 0.1958 0.1927
3041.000000 0.1809 0.1691 0.1659 0.1627 0.1612
3046.000000 0.1597 0.1593 0.1596 0.1589 0.1589
3051.000000 0.1591 0.1594 0.1600 0.1607 0.1614
3056.000000 0.1621 0.1639 0.1657 0.1691 0.1726
3061.000000 0.1757 0.1789 0.1820 0.1852 0.1883
3066.000000 0.1915 0.1940 0.1966 0.1989 0.2013
3071.000000 0.2025 0.2038 0.2041 0.2039 0.2035
3076.000000 0.2026 0.2015 0.2004 0.1989 0.1974
3081.000000 0.1963 0.1952 0.1945 0.1939 0.1939
3086.000000 0.1922 0.1946 0.1952 0.1958 0.1964
3091.000000 0.1975 0.1987 0.2003 0.2019 0.2044
3096.000000 0.2069 0.2093 0.2118 0.2136 0.2154
3101.000000 0.2167 0.2181 0.2185 0.2158 0.2191
3106.000000 0.2192 0.2191 0.2191 0.2189 0.2188
3111.000000 0.2186 0.2184 0.2182 0.2180 0.2177
3116.000000 0.2175 0.2173 0.2171 0.2164 0.2158
3121.000000 0.2151 0.2145 0.2138 0.2131 0.2123
3126.000000 0.2115 0.2107 0.2099 0.2091 0.2083
3131.000000 0.2075 0.2068 0.2061 0.2055 0.2048
3136.000000 0.2041 0.2034 0.2027 0.2018 0.2010
3141.000000 0.2001 0.1992 0.1982 0.1973 0.1964
3146.000000 0.1955 0.1945 0.1936 0.1926 0.1917
3151.000000 0.1907 0.1898 0.1888 0.1879 0.1869
3156.000000 0.1860 0.1850 0.1841 0.1832 0.1823
3161.000000 0.1813 0.1804 0.1795 0.1786 0.1776
3166.000000 0.1767 0.1758 0.1749 0.1739 0.1730
3171.000000 0.1720 0.1711 0.1702 0.1693 0.1683
3176.000000 0.1674 0.1665 0.1656 0.1646 0.1637
3181.000000 0.1628 0.1619 0.1610 0.1602 0.1593
3186.000000 0.1584 0.1575 0.1566 0.1557 0.1548
3191.000000 0.1539 0.1531 0.1525 0.1519 0.1513
3196.000000 0.1508 0.1502 0.1496 0.1490 0.1484
3201.000000 0.1478 0.1473 0.1467 0.1461 0.1455
3206.000000 0.1450 0.1444 0.1438 0.1432 0.1426
3211.000000 0.1420 0.1414 0.1408 0.1402 0.1396
3216.000000 0.1391 0.1381 0.1372 0.1361 0.1351
3221.000000 0.1341 0.1331 0.1320 0.1310 0.1300
3226.000000 0.1290 0.1279 0.1269 0.1258 0.1248
3231.000000 0.1238 0.1228 0.1218 0.1208 0.1199
3236.000000 0.1191 0.1182 0.1174 0.1165 0.1157
3241.000000 0.1148 0.1140 0.1131 0.1123 0.1114
3246.000000 0.1106 0.1098 0.1090 0.1081 0.1073
3251.000000 0.1064 0.1056 0.1047 0.1039 0.1030
3256.000000 0.1022 0.1013 0.1005 0.0996 0.0988
3261.000000 0.0979 0.0970 0.0961 0.0953 0.0944
3266.000000 0.0936 0.0927 0.0918 0.0909 0.0901
3271.000000 0.0892 0.0883 0.0874 0.0866 0.0857
3276.000000 0.0849 0.0840 0.0831 0.0822 0.0814
3281.000000 0.0805 0.0797 0.0788 0.0779 0.0770
3286.000000 0.0762 0.0753 0.0745 0.0736 0.0727
3291.000000 0.0718 0.0710 0.0701 0.0692 0.0683
3296.000000 0.0675 0.0666 0.0657 0.0649 0.0641
3301.000000 0.0634 0.0627 0.0620 0.0614 0.0607
3306.000000 0.0600 0.0593 0.0587 0.0580 0.0574
3311.000000 0.0567 0.0560 0.0553 0.0547 0.0540
3316.000000 0.0533 0.0526 0.0520 0.0514 0.0508
3321.000000 0.0502 0.0496 0.0490 0.0484 0.0478
3326.000000 0.0473 0.0467 0.0461 0.0455 0.0449
3331.000000 0.0443 0.0438 0.0432 0.0427 0.0421
3336.000000 0.0415 0.0409 0.0404 0.0398 0.0393
3341.000000 0.0387 0.0382 0.0376 0.0371 0.0367
3346.000000 0.0363 0.0359 0.0355 0.0351 0.0347
3351.000000 0.0343 0.0339 0.0335 0.0331 0.0327
3356.000000 0.0324 0.0321 0.0318 0.0315 0.0312
3361.000000 0.0308 0.0305 0.0303 0.0302 0.0300
3366.000000 0.0298 0.0296 0.0294 0.0292 0.0291
3371.000000 0.0289 0.0287 0.0288 0.0289 0.0290
3376.000000 0.0291 0.0291 0.0292 0.0293 0.0294
3381.000000 0.0295 0.0296 0.0297 0.0298 0.0300
3386.000000 0.0302 0.0304 0.0306 0.0308 0.0310
3391.000000 0.0312 0.0314 0.0318 0.0322 0.0329
3396.000000 0.0336 0.0343 0.0350 0.0357 0.0364
3401.000000 0.0372 0.0380 0.0390 0.0400 0.0409
3406.000000 0.0419 0.0428 0.0438 0.0448 0.0458
3411.000000 0.0469 0.0481 0.0492 0.0503 0.0514
3416.000000 0.0526 0.0537 0.0548 0.0558 0.0569
3421.000000 0.0579 0.0590 0.0602 0.0614 0.0627
3426.000000 0.0640 0.0653 0.0666 0.0679 0.0692
3431.000000 0.0705 0.0719 0.0732 0.0746 0.0756
3436.000000 0.0767 0.0775 0.0784 0.0792 0.0801
3441.000000 0.0810 0.0819 0.0824 0.0829 0.0833
3446.000000 0.0838 0.0843 0.0848 0.0848 0.0849
3451.000000 0.0848 0.0847 0.0846 0.0845 0.0843
3456.000000 0.0842 0.0840 0.0838 0.0836 0.0835
3461.000000 0.0833 0.0831 0.0829 0.0828 0.0826
3466.000000 0.0825 0.0823 0.0822 0.0821 0.0821
3471.000000 0.0820 0.0820 0.0820 0.0820 0.0819
3476.000000 0.0819 0.0819 0.0819 0.0820 0.0822
3481.000000 0.0823 0.0825 0.0828 0.0832 0.0837
3486.000000 0.0843 0.0847 0.0852 0.0858 0.0865
3491.000000 0.0875 0.0885 0.0895 0.0905 0.0915
3496.000000 0.0926 0.0937 0.0949 0.0961 0.0973
3501.000000 0.0985 0.0997 0.1009 0.1021 0.1033
3506.000000 0.1046 0.1058 0.1071 0.1084 0.1097
3511.000000 0.1109 0.1122 0.1138 0.1154 0.1170
3516.000000 0.1187 0.1203 0.1220 0.1238 0.1257
3521.000000 0.1277 0.1298 0.1318 0.1338 0.1358
3526.000000 0.1379 0.1398 0.1417 0.1434 0.1451
3531.000000 0.1468 0.1485 0.1502 0.1519 0.1536
3536.000000 0.1553 0.1569 0.1586 0.1603 0.1620
3541.000000 0.1641 0.1662 0.1683 0.1704 0.1725
3546.000000 0.1747 0.1767 0.1788 0.1808 0.1829
3551.000000 0.1849 0.1869 0.1889 0.1910 0.1928
3556.000000 0.1946 0.1962 0.1978 0.1994 0.2010
3561.000000 0.2026 0.2042 0.2058 0.2074 0.2090
3566.000000 0.2106 0.2122 0.2138 0.2152 0.2167
3571.000000 0.2180 0.2194 0.2208 0.2222 0.2235
3576.000000 0.2249 0.2260 0.2271 0.2280 0.2290
3581.000000 0.2299 0.2309 0.2318 0.2327 0.2336
3586.000000 0.2346 0.2355 0.2364 0.2373 0.2383
3591.000000 0.2391 0.2400 0.2406 0.2412 0.2417
3596.000000 0.2423 0.2429 0.2435 0.2440 0.2446
3601.000000 0.2452 0.2458 0.2462 0.2467 0.2470
3606.000000 0.2474 0.2477 0.2481 0.2484 0.2488
3611.000000 0.2491 0.2494 0.2497 0.2501 0.2503
3616.000000 0.2506 0.2507 0.2508 0.2508 0.2509
3621.000000 0.2509 0.2510 0.2511 0.2512 0.2512
3626.000000 0.2513 0.2512 0.2512 0.2511 0.2510
3631.000000 0.2508 0.2507 0.2505 0.2504 0.2502
3636.000000 0.2501 0.2499 0.2498 0.2497 0.2496
3641.000000 0.2494 0.2493 0.2491 0.2490 0.2489
3646.000000 0.2488 0.2486 0.2485 0.2483 0.2482
3651.000000 0.2481 0.2480 0.2478 0.2477 0.2476
3656.000000 0.2475 0.2473 0.2472 0.2471 0.2470
3661.000000 0.2468 0.2467 0.2465 0.2463 0.2460
3666.000000 0.2458 0.2456 0.2454 0.2451 0.2449
3671.000000 0.2447 0.2445 0.2442 0.2440 0.2438
3676.000000 0.2436 0.2434 0.2432 0.2429 0.2427
3681.000000 0.2425 0.2423 0.2420 0.2418 0.2416
3686.000000 0.2414 0.2411 0.2409 0.2406 0.2404
3691.000000 0.2401 0.2398 0.2394 0.2391 0.2387
3696.000000 0.2384 0.2380 0.2377 0.2374 0.2371
3701.000000 0.2367 0.2364 0.2360 0.2357 0.2354
3706.000000 0.2351 0.2347 0.2344 0.2340 0.2337
3711.000000 0.2333 0.2330 0.2327 0.2324 0.2320
3716.000000 0.2317 0.2314 0.2311 0.2308 0.2305
3721.000000 0.2302 0.2300 0.2297 0.2294 0.2291
3726.000000 0.2288 0.2285 0.2282 0.2279 0.2276
3731.000000 0.2273 0.2270 0.2267 0.2265 0.2262
3736.000000 0.2259 0.2256 0.2253 0.2250 0.2247
3741.000000 0.2244 0.2241 0.2238 0.2236 0.2233
3746.000000 0.2230 0.2227 0.2225 0.2222 0.2219
3751.000000 0.2216 0.2214 0.2211 0.2208 0.2205
3756.000000 0.2202 0.2199 0.2197 0.2194 0.2191
3761.000000 0.2188 0.2186 0.2183 0.2180 0.2177
3766.000000 0.2174 0.2171 0.2169 0.2166 0.2164
3771.000000 0.2161 0.2159 0.2156 0.2154 0.2151
3776.000000 0.2149 0.2146 0.2144 0.2141 0.2139
3781.000000 0.2137 0.2135 0.2132 0.2130 0.2127
3786.000000 0.2125 0.2122 0.2120 0.2118 0.2116
3791.000000 0.2114 0.2112 0.2110 0.2108 0.2106
3796.000000 0.2114 0.2101 0.2099 0.2097 0.2096
##END=
