##TITLE=Pluronic F-68
##JCAMP-DX=4.24
$$ By DXEDIT 1.05 (RS McDonald)
##DATA TYPE=INFRARED SPECTRUM
##CLASS=COBLENTZ
##ORIGIN=DOW CHEMICAL COMPANY
##OWNER=COPYRIGHT (C) 1988 by COBLENTZ SOCIETY INC.
Collection (C) 2018 copyright by the U.S. Secretary of Commerce
on behalf of the United States of America. All rights reserved.
##DATE=1970/01/26
##NAMES=ethylene glycol
POLYGLYCOL E-4000
##MOLFORM=C2 H6 O2
##SOURCE REFERENCE=COBLENTZ NO. 09514
##$NIST ID=B6009514
##$NIST SOURCE=COBLENTZ
##$NIST IMAGE=cob9514
##SPECTROMETER/DATA SYSTEM=DOW KBr FOREPRISM-GRATING
##INSTRUMENT PARAMETERS=BLAZED AT 3.5, 12.0, 20.0 MICRON AND CHANGED AT 5.0, 7.5, 14.9 MICRON
##STATE=SOLID (SPLIT MULL), FLUOROLUBE FOR 3800-1330 CM^-^1, NUJOL FOR 1330-400 CM^-^1
##SAMPLING PROCEDURE=TRANSMISSION
##RESOLUTION=2
##DATA PROCESSING=DIGITIZED BY COBLENTZ SOCIETY (BATCH I) FROM HARD COPY
##XUNITS=1/CM
##YUNITS=TRANSMITTANCE
##XFACTOR=1
##YFACTOR=1
##DELTAX=1
##FIRSTX=3792
##LASTX=392
##FIRSTY=0.7475
##MAXX=3792
##MINX=392
##MAXY=0.8775
##MINY=0.0079
##NPOINTS=3401
##XYDATA=(X++(Y..Y))
3792.000000 0.7475 0.7475 0.7475 0.7476 0.7478
3787.000000 0.7478 0.7480 0.7481 0.7483 0.7484
3782.000000 0.7485 0.7486 0.7487 0.7488 0.7490
3777.000000 0.7491 0.7492 0.7493 0.7494 0.7495
3772.000000 0.7497 0.7498 0.7499 0.7500 0.7501
3767.000000 0.7501 0.7504 0.7505 0.7506 0.7507
3762.000000 0.7508 0.7510 0.7511 0.7511 0.7512
3757.000000 0.7514 0.7515 0.7517 0.7518 0.7518
3752.000000 0.7519 0.7521 0.7522 0.7524 0.7525
3747.000000 0.7525 0.7525 0.7525 0.7525 0.7525
3742.000000 0.7525 0.7525 0.7525 0.7525 0.7525
3737.000000 0.7525 0.7525 0.7525 0.7526 0.7526
3732.000000 0.7526 0.7526 0.7526 0.7526 0.7526
3727.000000 0.7526 0.7528 0.7528 0.7528 0.7528
3722.000000 0.7528 0.7528 0.7528 0.7528 0.7528
3717.000000 0.7528 0.7528 0.7528 0.7528 0.7530
3712.000000 0.7531 0.7531 0.7532 0.7532 0.7533
3707.000000 0.7533 0.7534 0.7535 0.7536 0.7536
3702.000000 0.7537 0.7537 0.7538 0.7538 0.7539
3697.000000 0.7540 0.7541 0.7541 0.7542 0.7542
3692.000000 0.7543 0.7544 0.7545 0.7545 0.7546
3687.000000 0.7546 0.7547 0.7547 0.7548 0.7549
3682.000000 0.7550 0.7550 0.7551 0.7551 0.7551
3677.000000 0.7551 0.7553 0.7554 0.7555 0.7556
3672.000000 0.7557 0.7558 0.7560 0.7561 0.7562
3667.000000 0.7564 0.7565 0.7565 0.7568 0.7568
3662.000000 0.7571 0.7571 0.7572 0.7574 0.7575
3657.000000 0.7576 0.7578 0.7580 0.7581 0.7582
3652.000000 0.7584 0.7585 0.7587 0.7588 0.7589
3647.000000 0.7590 0.7592 0.7593 0.7595 0.7596
3642.000000 0.7597 0.7598 0.7600 0.7601 0.7603
3637.000000 0.7604 0.7605 0.7606 0.7608 0.7608
3632.000000 0.7608 0.7608 0.7610 0.7610 0.7610
3627.000000 0.7610 0.7611 0.7611 0.7611 0.7611
3622.000000 0.7611 0.7611 0.7612 0.7612 0.7612
3617.000000 0.7612 0.7614 0.7614 0.7615 0.7615
3612.000000 0.7615 0.7615 0.7615 0.7615 0.7617
3607.000000 0.7617 0.7617 0.7617 0.7617 0.7617
3602.000000 0.7617 0.7617 0.7617 0.7617 0.7617
3597.000000 0.7615 0.7615 0.7615 0.7615 0.7615
3592.000000 0.7615 0.7615 0.7615 0.7615 0.7615
3587.000000 0.7615 0.7615 0.7615 0.7615 0.7615
3582.000000 0.7615 0.7614 0.7614 0.7614 0.7614
3577.000000 0.7614 0.7614 0.7612 0.7612 0.7612
3572.000000 0.7612 0.7611 0.7611 0.7611 0.7611
3567.000000 0.7611 0.7611 0.7611 0.7611 0.7610
3562.000000 0.7610 0.7608 0.7608 0.7608 0.7608
3557.000000 0.7607 0.7607 0.7606 0.7606 0.7605
3552.000000 0.7605 0.7604 0.7604 0.7603 0.7603
3547.000000 0.7601 0.7601 0.7599 0.7597 0.7593
3542.000000 0.7590 0.7586 0.7583 0.7580 0.7576
3537.000000 0.7572 0.7569 0.7565 0.7562 0.7558
3532.000000 0.7556 0.7551 0.7549 0.7546 0.7543
3527.000000 0.7539 0.7536 0.7532 0.7528 0.7525
3522.000000 0.7524 0.7521 0.7518 0.7515 0.7512
3517.000000 0.7510 0.7508 0.7505 0.7501 0.7499
3512.000000 0.7497 0.7494 0.7492 0.7489 0.7486
3507.000000 0.7483 0.7481 0.7478 0.7475 0.7472
3502.000000 0.7469 0.7467 0.7465 0.7461 0.7460
3497.000000 0.7460 0.7460 0.7458 0.7458 0.7458
3492.000000 0.7458 0.7458 0.7458 0.7458 0.7458
3487.000000 0.7458 0.7458 0.7458 0.7458 0.7458
3482.000000 0.7458 0.7458 0.7458 0.7458 0.7458
3477.000000 0.7458 0.7458 0.7458 0.7458 0.7458
3472.000000 0.7458 0.7458 0.7458 0.7458 0.7460
3467.000000 0.7461 0.7464 0.7465 0.7467 0.7468
3462.000000 0.7471 0.7472 0.7475 0.7475 0.7478
3457.000000 0.7480 0.7482 0.7484 0.7486 0.7487
3452.000000 0.7489 0.7491 0.7493 0.7495 0.7497
3447.000000 0.7499 0.7501 0.7501 0.7504 0.7506
3442.000000 0.7508 0.7510 0.7511 0.7514 0.7515
3437.000000 0.7518 0.7521 0.7522 0.7525 0.7528
3432.000000 0.7531 0.7533 0.7535 0.7537 0.7540
3427.000000 0.7542 0.7545 0.7547 0.7550 0.7551
3422.000000 0.7554 0.7556 0.7558 0.7561 0.7564
3417.000000 0.7565 0.7568 0.7571 0.7574 0.7575
3412.000000 0.7578 0.7580 0.7583 0.7585 0.7588
3407.000000 0.7590 0.7593 0.7595 0.7598 0.7600
3402.000000 0.7603 0.7606 0.7608 0.7611 0.7615
3397.000000 0.7617 0.7619 0.7622 0.7625 0.7628
3392.000000 0.7632 0.7635 0.7638 0.7640 0.7643
3387.000000 0.7646 0.7649 0.7651 0.7655 0.7658
3382.000000 0.7661 0.7662 0.7665 0.7668 0.7671
3377.000000 0.7675 0.7678 0.7681 0.7684 0.7687
3372.000000 0.7690 0.7693 0.7696 0.7699 0.7703
3367.000000 0.7706 0.7710 0.7712 0.7717 0.7719
3362.000000 0.7722 0.7725 0.7730 0.7733 0.7737
3357.000000 0.7740 0.7744 0.7747 0.7750 0.7753
3352.000000 0.7757 0.7758 0.7761 0.7764 0.7765
3347.000000 0.7768 0.7769 0.7771 0.7772 0.7774
3342.000000 0.7775 0.7776 0.7778 0.7778 0.7781
3337.000000 0.7782 0.7784 0.7785 0.7786 0.7787
3332.000000 0.7789 0.7790 0.7791 0.7792 0.7794
3327.000000 0.7795 0.7796 0.7797 0.7799 0.7800
3322.000000 0.7801 0.7807 0.7814 0.7821 0.7828
3317.000000 0.7837 0.7845 0.7851 0.7858 0.7861
3312.000000 0.7862 0.7865 0.7867 0.7868 0.7871
3307.000000 0.7872 0.7875 0.7876 0.7878 0.7881
3302.000000 0.7883 0.7885 0.7887 0.7887 0.7888
3297.000000 0.7889 0.7890 0.7891 0.7892 0.7893
3292.000000 0.7894 0.7895 0.7896 0.7896 0.7897
3287.000000 0.7898 0.7899 0.7900 0.7901 0.7901
3282.000000 0.7903 0.7904 0.7905 0.7905 0.7906
3277.000000 0.7907 0.7908 0.7908 0.7910 0.7911
3272.000000 0.7911 0.7912 0.7914 0.7914 0.7915
3267.000000 0.7915 0.7917 0.7918 0.7918 0.7919
3262.000000 0.7921 0.7921 0.7922 0.7924 0.7925
3257.000000 0.7925 0.7926 0.7928 0.7928 0.7928
3252.000000 0.7930 0.7931 0.7932 0.7933 0.7934
3247.000000 0.7935 0.7937 0.7939 0.7942 0.7944
3242.000000 0.7946 0.7948 0.7950 0.7951 0.7954
3237.000000 0.7956 0.7958 0.7960 0.7961 0.7964
3232.000000 0.7965 0.7968 0.7969 0.7971 0.7974
3227.000000 0.7975 0.7978 0.7980 0.7982 0.7983
3222.000000 0.7984 0.7985 0.7986 0.7987 0.7988
3217.000000 0.7989 0.7990 0.7990 0.7991 0.7992
3212.000000 0.7993 0.7994 0.7995 0.7996 0.7997
3207.000000 0.7998 0.7999 0.7999 0.8000 0.8001
3202.000000 0.8001 0.8003 0.8004 0.8004 0.8005
3197.000000 0.8006 0.8007 0.8007 0.8008 0.8008
3192.000000 0.8008 0.8010 0.8011 0.8011 0.8011
3187.000000 0.8012 0.8014 0.8014 0.8015 0.8015
3182.000000 0.8017 0.8017 0.8018 0.8018 0.8019
3177.000000 0.8019 0.8021 0.8021 0.8021 0.8022
3172.000000 0.8024 0.8024 0.8025 0.8025 0.8025
3167.000000 0.8025 0.8026 0.8026 0.8028 0.8028
3162.000000 0.8028 0.8030 0.8031 0.8031 0.8032
3157.000000 0.8032 0.8033 0.8033 0.8033 0.8033
3152.000000 0.8032 0.8030 0.8028 0.8025 0.8024
3147.000000 0.8021 0.8019 0.8018 0.8015 0.8014
3142.000000 0.8011 0.8011 0.8010 0.8008 0.8008
3137.000000 0.8007 0.8006 0.8005 0.8004 0.8003
3132.000000 0.8001 0.8001 0.8000 0.7999 0.7998
3127.000000 0.7997 0.7996 0.7995 0.7994 0.7993
3122.000000 0.7992 0.7991 0.7990 0.7990 0.7990
3117.000000 0.7990 0.7991 0.7991 0.7992 0.7992
3112.000000 0.7993 0.7993 0.7994 0.7994 0.7995
3107.000000 0.7995 0.7996 0.7996 0.7997 0.7997
3102.000000 0.7998 0.7998 0.7999 0.7999 0.8000
3097.000000 0.8000 0.8001 0.8001 0.8001 0.8001
3092.000000 0.8003 0.8003 0.8004 0.8004 0.8005
3087.000000 0.8005 0.8006 0.8006 0.8007 0.8007
3082.000000 0.8008 0.8008 0.8008 0.8008 0.8010
3077.000000 0.8010 0.8010 0.8010 0.8011 0.8011
3072.000000 0.8011 0.8011 0.8012 0.8012 0.8014
3067.000000 0.8014 0.8015 0.8015 0.8015 0.8015
3062.000000 0.8015 0.8015 0.8017 0.8017 0.8018
3057.000000 0.8018 0.8018 0.8018 0.8018 0.8018
3052.000000 0.8018 0.8018 0.8017 0.8015 0.8015
3047.000000 0.8014 0.8012 0.8011 0.8011 0.8010
3042.000000 0.8008 0.8008 0.8007 0.8006 0.8005
3037.000000 0.8003 0.8001 0.8000 0.7998 0.7996
3032.000000 0.7995 0.7993 0.7992 0.7990 0.7988
3027.000000 0.7986 0.7985 0.7983 0.7982 0.7980
3022.000000 0.7978 0.7975 0.7975 0.7971 0.7968
3017.000000 0.7964 0.7961 0.7957 0.7953 0.7949
3012.000000 0.7946 0.7942 0.7938 0.7934 0.7931
3007.000000 0.7921 0.7914 0.7901 0.7888 0.7871
3002.000000 0.7857 0.7833 0.7808 0.7785 0.7761
2997.000000 0.7734 0.7708 0.7651 0.7597 0.7540
2992.000000 0.7484 0.7421 0.7360 0.7306 0.7251
2987.000000 0.7215 0.7178 0.7136 0.7095 0.7008
2982.000000 0.6924 0.6778 0.6635 0.6490 0.6346
2977.000000 0.6201 0.6057 0.5912 0.5769 0.5625
2972.000000 0.5482 0.5472 0.5462 0.5454 0.5446
2967.000000 0.5440 0.5434 0.5443 0.5453 0.5473
2962.000000 0.5494 0.5514 0.5534 0.5544 0.5554
2957.000000 0.5519 0.5485 0.5418 0.5351 0.5284
2952.000000 0.5218 0.5151 0.5085 0.5018 0.4951
2947.000000 0.4884 0.4818 0.4751 0.4685 0.4618
2942.000000 0.4551 0.4509 0.4467 0.4460 0.4453
2937.000000 0.4446 0.4439 0.4425 0.4410 0.4382
2932.000000 0.4353 0.4298 0.4243 0.4188 0.4133
2927.000000 0.4078 0.4024 0.3968 0.3912 0.3854
2922.000000 0.3797 0.3739 0.3680 0.3518 0.3357
2917.000000 0.3280 0.3205 0.3156 0.3107 0.2999
2912.000000 0.2892 0.2778 0.2664 0.2549 0.2434
2907.000000 0.2320 0.2206 0.2092 0.1978 0.1863
2902.000000 0.1749 0.1634 0.1520 0.1405 0.1291
2897.000000 0.1245 0.1200 0.1164 0.1128 0.1088
2892.000000 0.1048 0.1006 0.0964 0.0935 0.0907
2887.000000 0.0892 0.0876 0.0872 0.0867 0.0865
2882.000000 0.0864 0.0863 0.0863 0.0864 0.0866
2877.000000 0.0875 0.0884 0.0904 0.0925 0.0952
2872.000000 0.0979 0.1008 0.1037 0.1068 0.1099
2867.000000 0.1130 0.1161 0.1199 0.1237 0.1279
2862.000000 0.1322 0.1378 0.1434 0.1511 0.1588
2857.000000 0.1648 0.1708 0.1770 0.1833 0.1898
2852.000000 0.1963 0.2043 0.2124 0.2220 0.2317
2847.000000 0.2454 0.2591 0.2649 0.2708 0.2766
2842.000000 0.2825 0.2882 0.2939 0.2991 0.3043
2837.000000 0.3095 0.3147 0.3310 0.3476 0.3514
2832.000000 0.3555 0.3594 0.3634 0.3668 0.3705
2827.000000 0.3736 0.3768 0.3799 0.3830 0.3860
2822.000000 0.3892 0.3925 0.3958 0.3992 0.4026
2817.000000 0.4057 0.4089 0.4116 0.4143 0.4170
2812.000000 0.4198 0.4217 0.4236 0.4254 0.4272
2807.000000 0.4290 0.4309 0.4328 0.4347 0.4366
2802.000000 0.4385 0.4412 0.4441 0.4490 0.4540
2797.000000 0.4603 0.4666 0.4787 0.4908 0.5010
2792.000000 0.5112 0.5185 0.5258 0.5317 0.5377
2787.000000 0.5429 0.5482 0.5525 0.5568 0.5610
2782.000000 0.5654 0.5696 0.5739 0.5779 0.5819
2777.000000 0.5859 0.5899 0.5939 0.5979 0.6014
2772.000000 0.6049 0.6080 0.6110 0.6142 0.6173
2767.000000 0.6203 0.6234 0.6264 0.6295 0.6325
2762.000000 0.6356 0.6384 0.6411 0.6435 0.6458
2757.000000 0.6482 0.6505 0.6528 0.6551 0.6571
2752.000000 0.6591 0.6611 0.6631 0.6650 0.6668
2747.000000 0.6684 0.6700 0.6711 0.6725 0.6734
2742.000000 0.6743 0.6751 0.6758 0.6758 0.6758
2737.000000 0.6758 0.6758 0.6758 0.6760 0.6760
2732.000000 0.6761 0.6761 0.6761 0.6786 0.6810
2727.000000 0.6847 0.6885 0.6911 0.6940 0.6964
2722.000000 0.6988 0.7008 0.7028 0.7047 0.7067
2717.000000 0.7081 0.7096 0.7108 0.7121 0.7128
2712.000000 0.7138 0.7146 0.7154 0.7158 0.7164
2707.000000 0.7168 0.7172 0.7176 0.7181 0.7183
2702.000000 0.7186 0.7185 0.7184 0.7180 0.7175
2697.000000 0.7161 0.7148 0.7121 0.7096 0.7092
2692.000000 0.7088 0.7084 0.7080 0.7080 0.7081
2687.000000 0.7082 0.7084 0.7092 0.7101 0.7117
2682.000000 0.7133 0.7195 0.7258 0.7345 0.7433
2677.000000 0.7483 0.7533 0.7582 0.7631 0.7658
2672.000000 0.7688 0.7700 0.7712 0.7722 0.7733
2667.000000 0.7740 0.7748 0.7756 0.7764 0.7771
2662.000000 0.7778 0.7786 0.7794 0.7801 0.7810
2657.000000 0.7815 0.7822 0.7828 0.7835 0.7841
2652.000000 0.7847 0.7853 0.7858 0.7865 0.7871
2647.000000 0.7876 0.7883 0.7889 0.7895 0.7899
2642.000000 0.7904 0.7908 0.7912 0.7917 0.7921
2637.000000 0.7925 0.7930 0.7934 0.7939 0.7943
2632.000000 0.7947 0.7951 0.7955 0.7958 0.7961
2627.000000 0.7965 0.7968 0.7972 0.7976 0.7980
2622.000000 0.7984 0.7988 0.7992 0.7995 0.7999
2617.000000 0.8001 0.8005 0.8005 0.8005 0.8005
2612.000000 0.8006 0.8006 0.8007 0.8007 0.8007
2607.000000 0.8006 0.8006 0.8005 0.8005 0.8004
2602.000000 0.8003 0.8001 0.8001 0.8000 0.8000
2597.000000 0.8000 0.8001 0.8001 0.8001 0.8001
2592.000000 0.8001 0.8001 0.8003 0.8004 0.8006
2587.000000 0.8008 0.8010 0.8011 0.8014 0.8015
2582.000000 0.8018 0.8019 0.8021 0.8024 0.8025
2577.000000 0.8028 0.8030 0.8032 0.8035 0.8037
2572.000000 0.8039 0.8041 0.8044 0.8047 0.8050
2567.000000 0.8051 0.8055 0.8058 0.8061 0.8064
2562.000000 0.8068 0.8072 0.8078 0.8084 0.8089
2557.000000 0.8094 0.8100 0.8103 0.8106 0.8108
2552.000000 0.8111 0.8115 0.8118 0.8121 0.8124
2547.000000 0.8125 0.8128 0.8128 0.8128 0.8128
2542.000000 0.8128 0.8128 0.8128 0.8128 0.8130
2537.000000 0.8130 0.8130 0.8130 0.8131 0.8131
2532.000000 0.8132 0.8132 0.8132 0.8132 0.8133
2527.000000 0.8133 0.8133 0.8133 0.8133 0.8133
2522.000000 0.8133 0.8133 0.8134 0.8134 0.8134
2517.000000 0.8134 0.8134 0.8134 0.8134 0.8134
2512.000000 0.8134 0.8134 0.8134 0.8134 0.8134
2507.000000 0.8134 0.8134 0.8134 0.8135 0.8135
2502.000000 0.8135 0.8135 0.8136 0.8136 0.8136
2497.000000 0.8137 0.8138 0.8138 0.8139 0.8139
2492.000000 0.8140 0.8141 0.8142 0.8142 0.8143
2487.000000 0.8143 0.8144 0.8144 0.8145 0.8145
2482.000000 0.8146 0.8147 0.8148 0.8148 0.8149
2477.000000 0.8149 0.8150 0.8150 0.8151 0.8151
2472.000000 0.8151 0.8153 0.8154 0.8154 0.8154
2467.000000 0.8154 0.8155 0.8155 0.8155 0.8155
2462.000000 0.8155 0.8155 0.8156 0.8156 0.8156
2457.000000 0.8156 0.8157 0.8157 0.8157 0.8157
2452.000000 0.8157 0.8157 0.8158 0.8158 0.8158
2447.000000 0.8158 0.8158 0.8158 0.8158 0.8158
2442.000000 0.8160 0.8160 0.8160 0.8160 0.8161
2437.000000 0.8161 0.8161 0.8161 0.8161 0.8161
2432.000000 0.8162 0.8162 0.8164 0.8164 0.8164
2427.000000 0.8164 0.8165 0.8165 0.8165 0.8165
2422.000000 0.8167 0.8167 0.8167 0.8167 0.8168
2417.000000 0.8168 0.8168 0.8168 0.8168 0.8168
2412.000000 0.8169 0.8169 0.8169 0.8169 0.8171
2407.000000 0.8171 0.8171 0.8171 0.8172 0.8172
2402.000000 0.8172 0.8169 0.8168 0.8162 0.8158
2397.000000 0.8155 0.8151 0.8146 0.8142 0.8140
2392.000000 0.8138 0.8136 0.8135 0.8133 0.8131
2387.000000 0.8128 0.8128 0.8126 0.8125 0.8125
2382.000000 0.8126 0.8126 0.8126 0.8126 0.8128
2377.000000 0.8128 0.8128 0.8128 0.8128 0.8128
2372.000000 0.8130 0.8130 0.8131 0.8131 0.8131
2367.000000 0.8131 0.8132 0.8132 0.8132 0.8132
2362.000000 0.8132 0.8132 0.8132 0.8132 0.8133
2357.000000 0.8133 0.8133 0.8133 0.8133 0.8133
2352.000000 0.8133 0.8133 0.8134 0.8134 0.8134
2347.000000 0.8134 0.8135 0.8135 0.8136 0.8136
2342.000000 0.8137 0.8137 0.8138 0.8138 0.8139
2337.000000 0.8139 0.8138 0.8138 0.8136 0.8133
2332.000000 0.8130 0.8126 0.8124 0.8118 0.8114
2327.000000 0.8107 0.8101 0.8094 0.8088 0.8076
2322.000000 0.8067 0.8055 0.8043 0.8031 0.8019
2317.000000 0.8010 0.8000 0.7994 0.7989 0.7983
2312.000000 0.7978 0.7971 0.7967 0.7965 0.7965
2307.000000 0.7964 0.7962 0.7961 0.7961 0.7960
2302.000000 0.7958 0.7958 0.7957 0.7956 0.7955
2297.000000 0.7954 0.7953 0.7951 0.7951 0.7950
2292.000000 0.7949 0.7948 0.7948 0.7948 0.7949
2287.000000 0.7949 0.7949 0.7949 0.7949 0.7949
2282.000000 0.7949 0.7949 0.7950 0.7950 0.7950
2277.000000 0.7950 0.7950 0.7950 0.7950 0.7951
2272.000000 0.7953 0.7955 0.7957 0.7958 0.7960
2267.000000 0.7961 0.7964 0.7965 0.7968 0.7969
2262.000000 0.7971 0.7972 0.7975 0.7975 0.7978
2257.000000 0.7978 0.7980 0.7981 0.7982 0.7983
2252.000000 0.7985 0.7986 0.7987 0.7988 0.7989
2247.000000 0.7991 0.7993 0.7997 0.8001 0.8006
2242.000000 0.8011 0.8015 0.8021 0.8028 0.8035
2237.000000 0.8046 0.8057 0.8068 0.8078 0.8090
2232.000000 0.8101 0.8114 0.8126 0.8140 0.8154
2227.000000 0.8161 0.8168 0.8172 0.8178 0.8185
2222.000000 0.8191 0.8197 0.8203 0.8207 0.8211
2217.000000 0.8215 0.8218 0.8221 0.8225 0.8228
2212.000000 0.8233 0.8236 0.8240 0.8243 0.8247
2207.000000 0.8250 0.8254 0.8257 0.8260 0.8263
2202.000000 0.8267 0.8270 0.8274 0.8277 0.8281
2197.000000 0.8285 0.8289 0.8292 0.8296 0.8301
2192.000000 0.8306 0.8311 0.8317 0.8324 0.8332
2187.000000 0.8340 0.8349 0.8358 0.8367 0.8375
2182.000000 0.8384 0.8391 0.8398 0.8394 0.8391
2177.000000 0.8387 0.8384 0.8380 0.8375 0.8371
2172.000000 0.8366 0.8360 0.8355 0.8352 0.8353
2167.000000 0.8353 0.8356 0.8359 0.8363 0.8366
2162.000000 0.8368 0.8371 0.8375 0.8378 0.8381
2157.000000 0.8384 0.8388 0.8391 0.8394 0.8396
2152.000000 0.8399 0.8401 0.8404 0.8407 0.8410
2147.000000 0.8412 0.8415 0.8417 0.8420 0.8421
2142.000000 0.8425 0.8428 0.8431 0.8433 0.8436
2137.000000 0.8438 0.8441 0.8444 0.8447 0.8449
2132.000000 0.8452 0.8454 0.8457 0.8459 0.8462
2127.000000 0.8464 0.8466 0.8468 0.8471 0.8473
2122.000000 0.8475 0.8477 0.8478 0.8481 0.8483
2117.000000 0.8485 0.8487 0.8489 0.8492 0.8494
2112.000000 0.8496 0.8498 0.8500 0.8502 0.8504
2107.000000 0.8506 0.8508 0.8510 0.8513 0.8514
2102.000000 0.8515 0.8515 0.8516 0.8517 0.8518
2097.000000 0.8518 0.8518 0.8518 0.8520 0.8521
2092.000000 0.8521 0.8521 0.8523 0.8524 0.8525
2087.000000 0.8525 0.8525 0.8527 0.8528 0.8528
2082.000000 0.8528 0.8530 0.8531 0.8531 0.8532
2077.000000 0.8532 0.8533 0.8534 0.8535 0.8535
2072.000000 0.8536 0.8537 0.8538 0.8538 0.8539
2067.000000 0.8539 0.8540 0.8540 0.8540 0.8540
2062.000000 0.8540 0.8540 0.8541 0.8541 0.8541
2057.000000 0.8541 0.8541 0.8541 0.8542 0.8542
2052.000000 0.8542 0.8542 0.8542 0.8542 0.8543
2047.000000 0.8543 0.8543 0.8543 0.8543 0.8543
2042.000000 0.8544 0.8544 0.8544 0.8544 0.8544
2037.000000 0.8544 0.8544 0.8544 0.8544 0.8544
2032.000000 0.8544 0.8544 0.8544 0.8543 0.8543
2027.000000 0.8543 0.8543 0.8543 0.8543 0.8543
2022.000000 0.8543 0.8542 0.8541 0.8538 0.8536
2017.000000 0.8533 0.8531 0.8528 0.8527 0.8524
2012.000000 0.8521 0.8520 0.8518 0.8515 0.8513
2007.000000 0.8510 0.8507 0.8503 0.8500 0.8496
2002.000000 0.8492 0.8484 0.8477 0.8466 0.8450
1997.000000 0.8435 0.8420 0.8396 0.8371 0.8348
1992.000000 0.8321 0.8292 0.8263 0.8235 0.8235
1987.000000 0.8236 0.8237 0.8237 0.8238 0.8237
1982.000000 0.8233 0.8228 0.8225 0.8221 0.8218
1977.000000 0.8214 0.8210 0.8206 0.8202 0.8198
1972.000000 0.8194 0.8190 0.8186 0.8182 0.8178
1967.000000 0.8174 0.8169 0.8165 0.8161 0.8158
1962.000000 0.8194 0.8161 0.8162 0.8164 0.8165
1957.000000 0.8167 0.8168 0.8174 0.8180 0.8186
1952.000000 0.8192 0.8198 0.8204 0.8210 0.8216
1947.000000 0.8221 0.8228 0.8234 0.8239 0.8245
1942.000000 0.8251 0.8258 0.8267 0.8275 0.8284
1937.000000 0.8292 0.8307 0.8330 0.8352 0.8371
1932.000000 0.8391 0.8410 0.8428 0.8448 0.8467
1927.000000 0.8485 0.8502 0.8512 0.8521 0.8533
1922.000000 0.8543 0.8549 0.8555 0.8560 0.8566
1917.000000 0.8571 0.8577 0.8583 0.8589 0.8594
1912.000000 0.8600 0.8606 0.8611 0.8617 0.8620
1907.000000 0.8623 0.8625 0.8628 0.8632 0.8636
1902.000000 0.8639 0.8642 0.8645 0.8648 0.8651
1897.000000 0.8655 0.8658 0.8661 0.8664 0.8667
1892.000000 0.8670 0.8673 0.8675 0.8678 0.8681
1887.000000 0.8684 0.8686 0.8689 0.8692 0.8695
1882.000000 0.8697 0.8700 0.8703 0.8705 0.8708
1877.000000 0.8711 0.8714 0.8716 0.8718 0.8721
1872.000000 0.8724 0.8727 0.8728 0.8732 0.8735
1867.000000 0.8737 0.8740 0.8742 0.8745 0.8748
1862.000000 0.8750 0.8753 0.8755 0.8758 0.8760
1857.000000 0.8762 0.8763 0.8764 0.8764 0.8765
1852.000000 0.8766 0.8767 0.8767 0.8768 0.8768
1847.000000 0.8770 0.8770 0.8771 0.8771 0.8773
1842.000000 0.8774 0.8774 0.8775 0.8775 0.8775
1837.000000 0.8775 0.8774 0.8774 0.8773 0.8771
1832.000000 0.8771 0.8770 0.8768 0.8768 0.8768
1827.000000 0.8767 0.8766 0.8765 0.8764 0.8764
1822.000000 0.8762 0.8760 0.8757 0.8755 0.8753
1817.000000 0.8751 0.8749 0.8747 0.8744 0.8742
1812.000000 0.8740 0.8738 0.8737 0.8735 0.8733
1807.000000 0.8731 0.8730 0.8728 0.8725 0.8725
1802.000000 0.8723 0.8721 0.8718 0.8718 0.8718
1797.000000 0.8718 0.8718 0.8718 0.8718 0.8718
1792.000000 0.8718 0.8718 0.8718 0.8720 0.8720
1787.000000 0.8720 0.8721 0.8721 0.8721 0.8721
1782.000000 0.8721 0.8721 0.8723 0.8723 0.8724
1777.000000 0.8724 0.8725 0.8725 0.8725 0.8727
1772.000000 0.8728 0.8728 0.8728 0.8728 0.8730
1767.000000 0.8731 0.8734 0.8736 0.8738 0.8740
1762.000000 0.8743 0.8745 0.8747 0.8750 0.8752
1757.000000 0.8754 0.8754 0.8755 0.8755 0.8756
1752.000000 0.8756 0.8757 0.8757 0.8758 0.8758
1747.000000 0.8759 0.8759 0.8760 0.8761 0.8761
1742.000000 0.8762 0.8762 0.8761 0.8761 0.8760
1737.000000 0.8760 0.8760 0.8759 0.8759 0.8758
1732.000000 0.8758 0.8758 0.8757 0.8757 0.8756
1727.000000 0.8756 0.8756 0.8756 0.8756 0.8756
1722.000000 0.8755 0.8755 0.8755 0.8755 0.8754
1717.000000 0.8753 0.8752 0.8751 0.8750 0.8749
1712.000000 0.8748 0.8747 0.8745 0.8744 0.8743
1707.000000 0.8742 0.8740 0.8738 0.8736 0.8734
1702.000000 0.8733 0.8731 0.8728 0.8727 0.8725
1697.000000 0.8723 0.8721 0.8718 0.8717 0.8715
1692.000000 0.8713 0.8711 0.8709 0.8707 0.8705
1687.000000 0.8703 0.8701 0.8699 0.8697 0.8695
1682.000000 0.8693 0.8690 0.8688 0.8686 0.8684
1677.000000 0.8682 0.8678 0.8675 0.8673 0.8668
1672.000000 0.8666 0.8663 0.8660 0.8656 0.8653
1667.000000 0.8650 0.8646 0.8643 0.8640 0.8636
1662.000000 0.8633 0.8628 0.8625 0.8621 0.8617
1657.000000 0.8613 0.8609 0.8606 0.8602 0.8598
1652.000000 0.8594 0.8591 0.8590 0.8588 0.8586
1647.000000 0.8585 0.8583 0.8582 0.8580 0.8578
1642.000000 0.8577 0.8575 0.8574 0.8571 0.8571
1637.000000 0.8570 0.8568 0.8568 0.8567 0.8566
1632.000000 0.8565 0.8564 0.8563 0.8561 0.8560
1627.000000 0.8560 0.8561 0.8563 0.8564 0.8565
1622.000000 0.8566 0.8567 0.8568 0.8568 0.8571
1617.000000 0.8571 0.8573 0.8574 0.8575 0.8578
1612.000000 0.8580 0.8583 0.8585 0.8588 0.8590
1607.000000 0.8593 0.8595 0.8596 0.8597 0.8598
1602.000000 0.8599 0.8600 0.8601 0.8601 0.8601
1597.000000 0.8601 0.8601 0.8601 0.8601 0.8598
1592.000000 0.8593 0.8588 0.8581 0.8571 0.8563
1587.000000 0.8555 0.8550 0.8551 0.8552 0.8552
1582.000000 0.8553 0.8555 0.8556 0.8558 0.8560
1577.000000 0.8562 0.8564 0.8566 0.8568 0.8570
1572.000000 0.8571 0.8573 0.8575 0.8577 0.8578
1567.000000 0.8581 0.8582 0.8584 0.8585 0.8578
1562.000000 0.8573 0.8567 0.8561 0.8555 0.8549
1557.000000 0.8545 0.8542 0.8539 0.8535 0.8532
1552.000000 0.8528 0.8525 0.8521 0.8518 0.8515
1547.000000 0.8513 0.8511 0.8509 0.8508 0.8506
1542.000000 0.8504 0.8502 0.8500 0.8498 0.8496
1537.000000 0.8495 0.8493 0.8489 0.8485 0.8481
1532.000000 0.8477 0.8473 0.8468 0.8465 0.8461
1527.000000 0.8457 0.8454 0.8450 0.8444 0.8438
1522.000000 0.8432 0.8425 0.8420 0.8414 0.8408
1517.000000 0.8402 0.8396 0.8389 0.8384 0.8380
1512.000000 0.8375 0.8373 0.8368 0.8365 0.8361
1507.000000 0.8357 0.8352 0.8341 0.8330 0.8318
1502.000000 0.8308 0.8295 0.8275 0.8257 0.8238
1497.000000 0.8218 0.8201 0.8182 0.8162 0.8140
1492.000000 0.8111 0.8082 0.8051 0.8022 0.7991
1487.000000 0.7942 0.7893 0.7844 0.7787 0.7697
1482.000000 0.7608 0.7490 0.7351 0.7219 0.5751
1477.000000 0.4576 0.4562 0.4548 0.4522 0.4044
1472.000000 0.3478 0.2913 0.2865 0.2842 0.3165
1467.000000 0.3509 0.3853 0.4197 0.4541 0.4885
1462.000000 0.5229 0.5572 0.5637 0.5637 0.5576
1457.000000 0.5515 0.5496 0.5505 0.5592 0.5699
1452.000000 0.5805 0.5910 0.6018 0.6124 0.6230
1447.000000 0.6337 0.6443 0.6549 0.6656 0.6761
1442.000000 0.6868 0.6975 0.7081 0.7172 0.7246
1437.000000 0.7318 0.7394 0.7460 0.7510 0.7560
1432.000000 0.7599 0.7624 0.7649 0.7656 0.7662
1427.000000 0.7669 0.7678 0.7678 0.7678 0.7671
1422.000000 0.7661 0.7650 0.7619 0.7590 0.7549
1417.000000 0.7485 0.7421 0.7339 0.7278 0.7234
1412.000000 0.7215 0.7208 0.7217 0.7218 0.7235
1407.000000 0.7255 0.7280 0.7304 0.7318 0.7321
1402.000000 0.7362 0.7311 0.7307 0.7301 0.7289
1397.000000 0.7274 0.7258 0.7244 0.7228 0.7215
1392.000000 0.7200 0.7186 0.7171 0.7158 0.7133
1387.000000 0.7107 0.7082 0.7045 0.6997 0.6944
1382.000000 0.6808 0.6542 0.6255 0.5967 0.5680
1377.000000 0.5465 0.5444 0.5437 0.5435 0.5445
1372.000000 0.5510 0.5580 0.5649 0.5708 0.5708
1367.000000 0.5700 0.5296 0.4210 0.3126 0.2858
1362.000000 0.2834 0.3080 0.3438 0.3797 0.4155
1357.000000 0.4514 0.5396 0.5231 0.5381 0.5374
1352.000000 0.4332 0.3034 0.1735 0.1244 0.1242
1347.000000 0.1231 0.2054 0.2673 0.3292 0.3909
1342.000000 0.4529 0.5147 0.5766 0.5888 0.5971
1337.000000 0.6053 0.6132 0.6210 0.6288 0.6382
1332.000000 0.6478 0.6574 0.6643 0.6707 0.6768
1327.000000 0.6818 0.6865 0.6883 0.6900 0.6918
1322.000000 0.6928 0.6937 0.6945 0.6965 0.6953
1317.000000 0.6956 0.6956 0.6947 0.6937 0.6922
1312.000000 0.6890 0.6856 0.6821 0.6775 0.6721
1307.000000 0.6668 0.6615 0.6562 0.6499 0.6434
1302.000000 0.6370 0.6310 0.6256 0.6202 0.6148
1297.000000 0.6094 0.6047 0.6000 0.5953 0.5896
1292.000000 0.5836 0.5623 0.5216 0.4809 0.4402
1287.000000 0.3995 0.3589 0.3209 0.3016 0.2887
1282.000000 0.2758 0.2629 0.2465 0.2458 0.2456
1277.000000 0.2590 0.3034 0.3478 0.3921 0.4365
1272.000000 0.4809 0.5253 0.5540 0.5722 0.5862
1267.000000 0.5985 0.6077 0.6160 0.6210 0.6259
1262.000000 0.6298 0.6326 0.6355 0.6384 0.6403
1257.000000 0.6419 0.6432 0.6441 0.6418 0.6401
1252.000000 0.6383 0.6365 0.6331 0.6279 0.6227
1247.000000 0.6127 0.6028 0.5929 0.5817 0.5180
1242.000000 0.4241 0.4260 0.4484 0.4762 0.5040
1237.000000 0.5257 0.5269 0.5282 0.5304 0.5377
1232.000000 0.5645 0.5926 0.6207 0.6488 0.6768
1227.000000 0.7071 0.7164 0.7230 0.7264 0.7298
1222.000000 0.7326 0.7344 0.7361 0.7380 0.7397
1217.000000 0.7404 0.7410 0.7415 0.7421 0.7425
1212.000000 0.7425 0.7425 0.7422 0.7419 0.7417
1207.000000 0.7414 0.7411 0.7408 0.7397 0.7384
1202.000000 0.7371 0.7358 0.7346 0.7321 0.7296
1197.000000 0.7271 0.7246 0.7221 0.7180 0.7135
1192.000000 0.7089 0.7044 0.6999 0.6950 0.6898
1187.000000 0.6846 0.6794 0.6743 0.6661 0.6568
1182.000000 0.6472 0.6379 0.6212 0.6032 0.5879
1177.000000 0.5775 0.5670 0.5566 0.5466 0.5371
1172.000000 0.5275 0.5179 0.5066 0.4952 0.4855
1167.000000 0.4767 0.4679 0.4591 0.4501 0.4397
1162.000000 0.4294 0.4124 0.3732 0.3516 0.3300
1157.000000 0.3084 0.2869 0.2652 0.2435 0.2220
1152.000000 0.2004 0.1787 0.1571 0.1355 0.1215
1147.000000 0.1251 0.1262 0.1281 0.1335 0.1398
1142.000000 0.1485 0.1575 0.1668 0.1753 0.1834
1137.000000 0.1915 0.1994 0.2014 0.2014 0.2013
1132.000000 0.1973 0.1922 0.1846 0.1737 0.1580
1127.000000 0.1423 0.1266 0.1108 0.0951 0.0794
1122.000000 0.0637 0.0479 0.0327 0.0291 0.0255
1117.000000 0.0218 0.0184 0.0153 0.0131 0.0115
1112.000000 0.0100 0.0088 0.0085 0.0103 0.0079
1107.000000 0.0085 0.0094 0.0103 0.0117 0.0133
1102.000000 0.0169 0.0221 0.0295 0.0378 0.0488
1097.000000 0.0615 0.0717 0.0895 0.1055 0.1214
1092.000000 0.1374 0.1533 0.1692 0.1852 0.2011
1087.000000 0.2170 0.2330 0.2489 0.2648 0.2808
1082.000000 0.2967 0.3126 0.3286 0.3445 0.3605
1077.000000 0.3766 0.3900 0.3974 0.4022 0.4058
1072.000000 0.4076 0.4092 0.4093 0.4094 0.4101
1067.000000 0.4087 0.3894 0.3559 0.3227 0.2893
1062.000000 0.2559 0.2226 0.2156 0.2172 0.2620
1057.000000 0.3246 0.3873 0.4420 0.4617 0.4741
1052.000000 0.4865 0.5112 0.5279 0.5406 0.5493
1047.000000 0.5568 0.5633 0.5691 0.5750 0.5809
1042.000000 0.5867 0.5926 0.5982 0.6029 0.6075
1037.000000 0.6121 0.6168 0.6214 0.6260 0.6304
1032.000000 0.6348 0.6392 0.6436 0.6481 0.6521
1027.000000 0.6558 0.6598 0.6637 0.6674 0.6708
1022.000000 0.6741 0.6774 0.6801 0.6812 0.6825
1017.000000 0.6839 0.6848 0.6856 0.6864 0.6871
1012.000000 0.6881 0.6894 0.6907 0.6919 0.6933
1007.000000 0.6946 0.6968 0.6997 0.7025 0.7053
1002.000000 0.7081 0.7114 0.7146 0.7178 0.7208
997.000000 0.7234 0.7258 0.7283 0.7303 0.7322
992.000000 0.7342 0.7361 0.7375 0.7390 0.7404
987.000000 0.7406 0.7414 0.7411 0.7411 0.7405
982.000000 0.7399 0.7392 0.7374 0.7356 0.7336
977.000000 0.7308 0.7278 0.7208 0.7134 0.7048
972.000000 0.6961 0.6858 0.6419 0.5853 0.5287
967.000000 0.4721 0.4154 0.3588 0.3022 0.2979
962.000000 0.3038 0.3395 0.3752 0.4109 0.4301
957.000000 0.4373 0.4450 0.4528 0.4636 0.4827
952.000000 0.4803 0.4818 0.4762 0.4640 0.4517
947.000000 0.4393 0.4314 0.4307 0.4320 0.4351
942.000000 0.4404 0.4820 0.5282 0.5571 0.5629
937.000000 0.5686 0.5740 0.5794 0.5849 0.5912
932.000000 0.5978 0.6044 0.6112 0.6180 0.6249
927.000000 0.6318 0.6389 0.6458 0.6530 0.6610
922.000000 0.6691 0.6772 0.6836 0.6894 0.6951
917.000000 0.7010 0.7061 0.7110 0.7158 0.7207
912.000000 0.7256 0.7291 0.7326 0.7361 0.7398
907.000000 0.7433 0.7468 0.7501 0.7533 0.7564
902.000000 0.7596 0.7618 0.7637 0.7655 0.7674
897.000000 0.7693 0.7711 0.7731 0.7743 0.7755
892.000000 0.7767 0.7778 0.7791 0.7803 0.7815
887.000000 0.7821 0.7826 0.7832 0.7838 0.7850
882.000000 0.7848 0.7853 0.7853 0.7853 0.7853
877.000000 0.7851 0.7851 0.7844 0.7824 0.7804
872.000000 0.7783 0.7761 0.7740 0.7718 0.7697
867.000000 0.7668 0.7630 0.7591 0.7544 0.7458
862.000000 0.7371 0.7258 0.7135 0.7015 0.6895
857.000000 0.6804 0.6721 0.6637 0.6532 0.6403
852.000000 0.5929 0.5454 0.4980 0.4506 0.4030
847.000000 0.3557 0.3083 0.2609 0.2424 0.2422
842.000000 0.2442 0.5112 0.5382 0.5555 0.5717
837.000000 0.5880 0.6288 0.6399 0.6503 0.6607
832.000000 0.6711 0.6841 0.6976 0.7111 0.7232
827.000000 0.7342 0.7453 0.7530 0.7581 0.7633
822.000000 0.7685 0.7736 0.7785 0.7830 0.7874
817.000000 0.7918 0.7964 0.7994 0.8024 0.8054
812.000000 0.8084 0.8114 0.8143 0.8164 0.8184
807.000000 0.8203 0.8223 0.8243 0.8263 0.8282
802.000000 0.8298 0.8313 0.8328 0.8345 0.8360
797.000000 0.8375 0.8392 0.8408 0.8423 0.8438
792.000000 0.8445 0.8453 0.8460 0.8467 0.8475
787.000000 0.8482 0.8487 0.8491 0.8496 0.8500
782.000000 0.8505 0.8509 0.8513 0.8518 0.8521
777.000000 0.8527 0.8528 0.8528 0.8528 0.8530
772.000000 0.8530 0.8531 0.8532 0.8532 0.8532
767.000000 0.8532 0.8531 0.8531 0.8530 0.8528
762.000000 0.8528 0.8527 0.8525 0.8525 0.8525
757.000000 0.8521 0.8518 0.8514 0.8510 0.8507
752.000000 0.8503 0.8499 0.8494 0.8483 0.8473
747.000000 0.8462 0.8451 0.8441 0.8430 0.8411
742.000000 0.8393 0.8374 0.8355 0.8342 0.8328
737.000000 0.8315 0.8302 0.8289 0.8278 0.8267
732.000000 0.8256 0.8245 0.8234 0.8214 0.8192
727.000000 0.8169 0.8146 0.8117 0.8096 0.8078
722.000000 0.8060 0.8049 0.8056 0.8078 0.8118
717.000000 0.8158 0.8204 0.8251 0.8298 0.8345
712.000000 0.8390 0.8435 0.8465 0.8477 0.8488
707.000000 0.8500 0.8511 0.8523 0.8534 0.8546
702.000000 0.8556 0.8567 0.8578 0.8589 0.8600
697.000000 0.8611 0.8621 0.8632 0.8643 0.8652
692.000000 0.8659 0.8665 0.8671 0.8675 0.8678
687.000000 0.8681 0.8683 0.8686 0.8688 0.8691
682.000000 0.8705 0.8693 0.8691 0.8689 0.8687
677.000000 0.8685 0.8683 0.8681 0.8678 0.8677
672.000000 0.8675 0.8674 0.8671 0.8662 0.8645
667.000000 0.8621 0.8597 0.8573 0.8548 0.8524
662.000000 0.8514 0.8504 0.8494 0.8485 0.8475
657.000000 0.8465 0.8455 0.8446 0.8441 0.8438
652.000000 0.8434 0.8431 0.8427 0.8423 0.8420
647.000000 0.8412 0.8403 0.8394 0.8385 0.8375
642.000000 0.8367 0.8358 0.8349 0.8340 0.8331
637.000000 0.8320 0.8307 0.8294 0.8281 0.8268
632.000000 0.8255 0.8242 0.8228 0.8216 0.8203
627.000000 0.8190 0.8178 0.8167 0.8155 0.8143
622.000000 0.8132 0.8121 0.8111 0.8103 0.8093
617.000000 0.8084 0.8078 0.8075 0.8071 0.8068
612.000000 0.8064 0.8061 0.8058 0.8054 0.8051
607.000000 0.8047 0.8043 0.8039 0.8036 0.8032
602.000000 0.8028 0.8024 0.8021 0.8015 0.8010
597.000000 0.8005 0.7999 0.7993 0.7983 0.7972
592.000000 0.7961 0.7951 0.7940 0.7928 0.7918
587.000000 0.7907 0.7899 0.7894 0.7890 0.7885
582.000000 0.7881 0.7876 0.7871 0.7868 0.7862
577.000000 0.7858 0.7856 0.7854 0.7853 0.7851
572.000000 0.7849 0.7848 0.7846 0.7845 0.7844
567.000000 0.7843 0.7842 0.7841 0.7841 0.7840
562.000000 0.7839 0.7838 0.7837 0.7836 0.7833
557.000000 0.7830 0.7828 0.7825 0.7821 0.7818
552.000000 0.7817 0.7814 0.7808 0.7801 0.7796
547.000000 0.7790 0.7784 0.7778 0.7771 0.7758
542.000000 0.7741 0.7724 0.7706 0.7684 0.7651
537.000000 0.7621 0.7589 0.7553 0.7515 0.7480
532.000000 0.7440 0.7397 0.7357 0.7340 0.7315
527.000000 0.7332 0.7330 0.7337 0.7346 0.7355
522.000000 0.7365 0.7375 0.7385 0.7394 0.7404
517.000000 0.7414 0.7424 0.7433 0.7443 0.7453
512.000000 0.7464 0.7475 0.7486 0.7497 0.7508
507.000000 0.7518 0.7530 0.7541 0.7551 0.7562
502.000000 0.7574 0.7585 0.7597 0.7608 0.7619
497.000000 0.7632 0.7644 0.7655 0.7665 0.7669
492.000000 0.7675 0.7680 0.7685 0.7690 0.7688
487.000000 0.7685 0.7682 0.7678 0.7675 0.7672
482.000000 0.7667 0.7661 0.7656 0.7650 0.7644
477.000000 0.7638 0.7632 0.7626 0.7622 0.7619
472.000000 0.7617 0.7615 0.7611 0.7608 0.7607
467.000000 0.7604 0.7601 0.7598 0.7596 0.7593
462.000000 0.7591 0.7590 0.7590 0.7589 0.7588
457.000000 0.7588 0.7587 0.7587 0.7586 0.7585
452.000000 0.7585 0.7584 0.7584 0.7583 0.7583
447.000000 0.7582 0.7581 0.7580 0.7578 0.7578
442.000000 0.7576 0.7575 0.7574 0.7572 0.7571
437.000000 0.7569 0.7568 0.7568 0.7567 0.7565
432.000000 0.7564 0.7562 0.7561 0.7560 0.7558
427.000000 0.7558 0.7557 0.7556 0.7556 0.7555
422.000000 0.7554 0.7554 0.7553 0.7553 0.7551
417.000000 0.7551 0.7551 0.7550 0.7550 0.7549
412.000000 0.7549 0.7549 0.7548 0.7548 0.7549
407.000000 0.7550 0.7551 0.7553 0.7554 0.7555
402.000000 0.7556 0.7557 0.7558 0.7560 0.7561
397.000000 0.7561 0.7564 0.7565 0.7565 0.7565
392.000000 0.7565
##END=
