##TITLE=Alanine, 3-[(p-nitrobenzyl)thio]-, methyl ester, hydrochloride, L-
##JCAMP-DX=4.24
##DATA TYPE=INFRARED SPECTRUM
##CLASS=COBLENTZ III
##ORIGIN=SOUTHERN RESEARCH INSTITUTE
##OWNER=Copyright (C) 1987 by the Coblentz Society
Collection (C) 2018 copyright by the U.S. Secretary of Commerce
on behalf of the United States of America. All rights reserved.
##DATE=1959/09/03
##NAMES=methyl 2-amino-3-[(4-nitrobenzyl)sulfanyl]propanoate hydrochloride
##MOLFORM=C11 H15 Cl N2 O4 S
##SOURCE REFERENCE=COBLENTZ NO. 7867
##$NIST ID=B6007867
##$NIST SOURCE=COBLENTZ
##$NIST IMAGE=cob7867
##SPECTROMETER/DATA SYSTEM=PERKIN-ELMER 21 (GRATING)
##INSTRUMENT PARAMETERS=FILTER CHANGE ABOUT 1020 CM^-^1
##STATE=SOLID (0.9 mg / 650 mg KBr DISC)
##SAMPLING PROCEDURE=TRANSMISSION
##RESOLUTION=2
##DATA PROCESSING=DIGITIZED BY COBLENTZ SOCIETY (BATCH II) FROM HARD COPY (ADJUSTED \addcm-1\5-5-0\)
##XUNITS=1/CM
##YUNITS=TRANSMITTANCE
##XFACTOR=1.0
##YFACTOR=1
##DELTAX=1.004584
##FIRSTX=598
##LASTX=4015.6
##FIRSTY=0.9101
##MAXX=4015.6
##MINX=598
##MAXY=0.911224
##MINY=0.144007
##NPOINTS=3403
##XYDATA=(X++(Y..Y))
598.000000 0.9101 0.9100 0.9101 0.9103 0.9104
603.022921 0.9104 0.9105 0.9106 0.9107 0.9107
608.045842 0.9108 0.9108 0.9107 0.9106 0.9105
613.068763 0.9104 0.9102 0.9101 0.9100 0.9099
618.091684 0.9099 0.9100 0.9100 0.9101 0.9102
623.114605 0.9102 0.9103 0.9104 0.9104 0.9105
628.137526 0.9106 0.9107 0.9109 0.9112 0.9108
633.160447 0.9107 0.9106 0.9105 0.9104 0.9103
638.183368 0.9100 0.9097 0.9093 0.9090 0.9087
643.206289 0.9083 0.9080 0.9077 0.9070 0.9062
648.229210 0.9055 0.9047 0.9039 0.9028 0.9014
653.252130 0.9001 0.8987 0.8974 0.8961 0.8946
658.275051 0.8927 0.8904 0.8881 0.8858 0.8835
663.297972 0.8811 0.8781 0.8745 0.8712 0.8688
668.320893 0.8673 0.8666 0.8660 0.8654 0.8645
673.343814 0.8616 0.8561 0.8520 0.8482 0.8441
678.366735 0.8397 0.8355 0.8314 0.8272 0.8230
683.389656 0.8185 0.8134 0.8082 0.8033 0.7992
688.412577 0.7957 0.7923 0.7894 0.7870 0.7859
693.435498 0.7865 0.7870 0.7880 0.7890 0.7892
698.458419 0.7888 0.7870 0.7827 0.7649 0.7342
703.481340 0.7044 0.6746 0.6447 0.6149 0.5865
708.504261 0.5629 0.5486 0.5453 0.5449 0.5443
713.527182 0.5548 0.5982 0.6634 0.7286 0.7786
718.550103 0.8034 0.8163 0.8259 0.8337 0.8410
723.573024 0.8458 0.8488 0.8515 0.8534 0.8549
728.595945 0.8562 0.8568 0.8577 0.8579 0.8577
733.618866 0.8577 0.8574 0.8568 0.8561 0.8549
738.641787 0.8531 0.8510 0.8489 0.8465 0.8439
743.664708 0.8414 0.8377 0.8324 0.8261 0.8200
748.687629 0.8149 0.8101 0.8051 0.8007 0.7990
753.710550 0.7989 0.7994 0.8000 0.8010 0.8023
758.733470 0.8034 0.8042 0.8047 0.8047 0.8036
763.756391 0.8022 0.7996 0.7955 0.7879 0.7726
768.779312 0.7554 0.7382 0.7209 0.7043 0.7015
773.802233 0.7013 0.7020 0.7436 0.8035 0.8274
778.825154 0.8330 0.8357 0.8377 0.8387 0.8391
783.848075 0.8376 0.8383 0.8381 0.8366 0.8349
788.870996 0.8332 0.8314 0.8296 0.8277 0.8259
793.893917 0.8232 0.8202 0.8166 0.8129 0.8090
798.916838 0.7945 0.7711 0.7471 0.7231 0.6991
803.939759 0.6932 0.7011 0.7339 0.7689 0.8038
808.962680 0.8121 0.8136 0.8141 0.8138 0.8138
813.985601 0.8131 0.8121 0.8112 0.8101 0.8087
819.008522 0.8065 0.8034 0.7994 0.7960 0.7931
824.031443 0.7920 0.7911 0.7908 0.7906 0.7903
829.054364 0.7884 0.7863 0.7846 0.7830 0.7815
834.077285 0.7809 0.7803 0.7797 0.7787 0.7765
839.100206 0.7720 0.7648 0.7522 0.7374 0.7208
844.123127 0.7147 0.7099 0.7044 0.6978 0.6812
849.146048 0.6688 0.6512 0.6262 0.5593 0.5475
854.168969 0.5443 0.5431 0.5428 0.5391 0.5716
859.191890 0.5845 0.5906 0.5963 0.6034 0.6113
864.214810 0.6175 0.6209 0.6239 0.6272 0.6327
869.237731 0.6431 0.6749 0.7167 0.7560 0.7684
874.260652 0.7750 0.7809 0.7868 0.7926 0.7981
879.283573 0.8016 0.8048 0.8078 0.8097 0.8115
884.306494 0.8123 0.8104 0.8117 0.8108 0.8092
889.329415 0.8062 0.8011 0.7960 0.7910 0.7835
894.352336 0.7737 0.7629 0.7520 0.7411 0.7301
899.375257 0.7212 0.7202 0.7312 0.7665 0.8048
904.398178 0.8176 0.8207 0.8227 0.8233 0.8235
909.421099 0.8248 0.8237 0.8228 0.8220 0.8208
914.444020 0.8196 0.8177 0.8153 0.8130 0.8077
919.466941 0.8007 0.7952 0.7889 0.7806 0.7677
924.489862 0.7535 0.7392 0.7248 0.7105 0.7005
929.512783 0.7003 0.6995 0.7159 0.7420 0.7693
934.535704 0.7966 0.8251 0.8370 0.8411 0.8432
939.558625 0.8441 0.8448 0.8455 0.8456 0.8463
944.581546 0.8457 0.8454 0.8453 0.8452 0.8451
949.604467 0.8450 0.8443 0.8434 0.8426 0.8415
954.627388 0.8400 0.8384 0.8368 0.8353 0.8336
959.650309 0.8320 0.8305 0.8302 0.8301 0.8299
964.673230 0.8298 0.8297 0.8297 0.8297 0.8297
969.696150 0.8294 0.8280 0.8262 0.8242 0.8222
974.719071 0.8202 0.8180 0.8159 0.8138 0.8116
979.741992 0.8094 0.8063 0.8035 0.8013 0.7993
984.764913 0.7965 0.7933 0.7900 0.7857 0.7782
989.787834 0.7380 0.7230 0.7193 0.7212 0.7223
994.810755 0.7237 0.7274 0.7320 0.7383 0.7708
999.833676 0.8094 0.8164 0.8168 0.8168 0.8168
1004.856597 0.8168 0.8169 0.8177 0.8191 0.8203
1009.879518 0.8211 0.8218 0.8217 0.8211 0.8206
1014.902439 0.8201 0.8220 0.8197 0.8185 0.8180
1019.925360 0.8174 0.8169 0.8164 0.8158 0.8152
1024.948281 0.8145 0.8138 0.8130 0.8121 0.8111
1029.971202 0.8101 0.8088 0.8074 0.8060 0.8047
1034.994123 0.8033 0.8020 0.8005 0.7987 0.7969
1040.017044 0.7948 0.7924 0.7900 0.7872 0.7826
1045.039965 0.7772 0.7706 0.7618 0.7502 0.7363
1050.062886 0.7219 0.7095 0.6996 0.6800 0.6440
1055.085807 0.5792 0.5458 0.5423 0.5434 0.5502
1060.108728 0.5602 0.5691 0.5762 0.5821 0.5943
1065.131649 0.6180 0.6462 0.6745 0.7028 0.7310
1070.154569 0.7583 0.7721 0.7744 0.7753 0.7748
1075.177490 0.7738 0.7733 0.7726 0.7717 0.7700
1080.200411 0.7670 0.7630 0.7582 0.7523 0.7437
1085.223332 0.7324 0.7237 0.7181 0.7123 0.7063
1090.246253 0.6998 0.6924 0.6863 0.6830 0.6812
1095.269174 0.6800 0.6743 0.6649 0.6576 0.6509
1100.292095 0.6431 0.6365 0.6337 0.6325 0.6320
1105.315016 0.6318 0.6321 0.6323 0.6333 0.6361
1110.337937 0.6456 0.6651 0.6876 0.7102 0.7328
1115.360858 0.7536 0.7655 0.7678 0.7693 0.7694
1120.383779 0.7676 0.7670 0.7659 0.7646 0.7629
1125.406700 0.7610 0.7591 0.7572 0.7552 0.7528
1130.429621 0.7500 0.7465 0.7419 0.7373 0.7335
1135.452542 0.7299 0.7263 0.7226 0.7185 0.7137
1140.475463 0.7032 0.6865 0.6819 0.6771 0.6722
1145.498384 0.6688 0.6681 0.6697 0.6711 0.6739
1150.521305 0.6779 0.6845 0.6920 0.6980 0.7050
1155.544226 0.7166 0.7221 0.7221 0.7215 0.7204
1160.567147 0.7199 0.7167 0.7141 0.7122 0.7114
1165.590068 0.7109 0.7107 0.7107 0.7105 0.7101
1170.612989 0.7095 0.7076 0.7040 0.7004 0.6967
1175.635909 0.6928 0.6886 0.6844 0.6804 0.6764
1180.658830 0.6726 0.6699 0.6681 0.6676 0.6670
1185.681751 0.6667 0.6668 0.6664 0.6632 0.6591
1190.704672 0.6546 0.6500 0.6452 0.6402 0.6351
1195.727593 0.6303 0.6255 0.6102 0.5623 0.5327
1200.750514 0.5286 0.5263 0.5257 0.5255 0.5252
1205.773435 0.5277 0.5306 0.5359 0.5450 0.5541
1210.796356 0.5633 0.5724 0.5816 0.5908 0.5999
1215.819277 0.6091 0.6183 0.6274 0.6359 0.6370
1220.842198 0.6356 0.6344 0.6320 0.6272 0.6187
1225.865119 0.6139 0.6097 0.6057 0.5953 0.5804
1230.888040 0.5628 0.5399 0.5224 0.5084 0.4969
1235.910961 0.4857 0.4761 0.4665 0.4568 0.4471
1240.933882 0.4368 0.4248 0.4121 0.3973 0.3821
1245.956803 0.3577 0.3339 0.3114 0.2875 0.2349
1250.979724 0.2229 0.2238 0.2222 0.2234 0.2254
1256.002645 0.2277 0.2299 0.2401 0.2645 0.2905
1261.025566 0.3166 0.3426 0.3686 0.3947 0.4207
1266.048487 0.4467 0.4728 0.4988 0.5222 0.5292
1271.071408 0.5360 0.5435 0.5490 0.5527 0.5568
1276.094329 0.5690 0.6057 0.6227 0.6336 0.6441
1281.117249 0.6586 0.6698 0.6773 0.6835 0.6891
1286.140170 0.6941 0.6988 0.7027 0.7057 0.7079
1291.163091 0.7089 0.7095 0.7118 0.7104 0.7095
1296.186012 0.7086 0.7075 0.7056 0.6993 0.6864
1301.208933 0.6781 0.6722 0.6668 0.6616 0.6565
1306.231854 0.6525 0.6491 0.6457 0.6424 0.6390
1311.254775 0.6356 0.6321 0.6286 0.6252 0.6219
1316.277696 0.6180 0.6097 0.6012 0.5937 0.5818
1321.300617 0.5655 0.5442 0.5284 0.5167 0.5050
1326.323538 0.4945 0.4895 0.4880 0.4905 0.4959
1331.346459 0.5017 0.5076 0.5135 0.5194 0.5252
1336.369380 0.5290 0.5298 0.5288 0.5112 0.4762
1341.392301 0.4368 0.3973 0.3579 0.3184 0.2790
1346.415222 0.2394 0.2000 0.1661 0.1487 0.1456
1351.438143 0.1463 0.1667 0.2114 0.2628 0.3143
1356.461064 0.3657 0.4172 0.4920 0.5452 0.5563
1361.483985 0.5667 0.5776 0.5892 0.6192 0.6505
1366.506906 0.6640 0.6775 0.6913 0.7059 0.7179
1371.529827 0.7260 0.7319 0.7351 0.7369 0.7373
1376.552748 0.7385 0.7386 0.7360 0.7319 0.7249
1381.575669 0.7175 0.7119 0.7061 0.7001 0.6932
1386.598589 0.6839 0.6748 0.6690 0.6636 0.6599
1391.621510 0.6590 0.6592 0.6598 0.6610 0.6651
1396.644431 0.6714 0.6772 0.6814 0.6813 0.6779
1401.667352 0.6745 0.6704 0.6664 0.6621 0.6570
1406.690273 0.6514 0.6452 0.6367 0.6278 0.6273
1411.713194 0.6308 0.6429 0.6495 0.6562 0.6631
1416.736115 0.6704 0.6781 0.6841 0.6882 0.6912
1421.759036 0.6921 0.6924 0.6922 0.6881 0.6833
1426.781957 0.6777 0.6706 0.6629 0.6489 0.6132
1431.804878 0.5634 0.5137 0.4665 0.4358 0.4314
1436.827799 0.4311 0.4317 0.4356 0.4517 0.4701
1441.850720 0.4886 0.5071 0.5255 0.5440 0.5625
1446.873641 0.5810 0.5994 0.6177 0.6349 0.6483
1451.896562 0.6508 0.6516 0.6524 0.6531 0.6538
1456.919483 0.6547 0.6564 0.6582 0.6613 0.6650
1461.942404 0.6670 0.6677 0.6657 0.6635 0.6605
1466.965325 0.6566 0.6515 0.6446 0.6381 0.6316
1471.988246 0.6240 0.6161 0.6083 0.6004 0.5926
1477.011167 0.5854 0.5815 0.5787 0.5758 0.5727
1482.034088 0.5692 0.5656 0.5590 0.5427 0.5182
1487.057009 0.4978 0.3472 0.3307 0.3259 0.3212
1492.079929 0.3195 0.3179 0.3170 0.3168 0.3166
1497.102850 0.3163 0.3161 0.3161 0.3161 0.3161
1502.125771 0.3162 0.3161 0.3159 0.2769 0.2690
1507.148692 0.2531 0.2330 0.2163 0.2041 0.1958
1512.171613 0.1816 0.1625 0.1511 0.1458 0.1442
1517.194534 0.1440 0.1447 0.1851 0.2098 0.2328
1522.217455 0.2558 0.2789 0.3019 0.3250 0.3480
1527.240376 0.3710 0.3941 0.4171 0.4401 0.4631
1532.263297 0.4862 0.5093 0.5323 0.5553 0.5783
1537.286218 0.5953 0.6091 0.6300 0.6476 0.6610
1542.309139 0.6705 0.6757 0.6795 0.6816 0.6834
1547.332060 0.6847 0.6857 0.6867 0.6874 0.6878
1552.354981 0.6882 0.6885 0.6885 0.6885 0.6870
1557.377902 0.6876 0.6875 0.6870 0.6865 0.6853
1562.400823 0.6836 0.6819 0.6798 0.6759 0.6708
1567.423744 0.6656 0.6582 0.6496 0.6404 0.6310
1572.446665 0.6225 0.6191 0.6173 0.6154 0.6123
1577.469586 0.6075 0.5936 0.5789 0.5592 0.5471
1582.492507 0.5481 0.5499 0.5519 0.5578 0.5644
1587.515428 0.5703 0.5742 0.5752 0.5757 0.5751
1592.538349 0.5743 0.5734 0.5720 0.5692 0.5662
1597.561269 0.5616 0.5469 0.5083 0.4708 0.4587
1602.584190 0.4578 0.4575 0.4571 0.4625 0.4838
1607.607111 0.5131 0.5424 0.5716 0.5965 0.6129
1612.630032 0.6251 0.6369 0.6475 0.6550 0.6664
1617.652953 0.6769 0.6847 0.6911 0.6967 0.7023
1622.675874 0.7080 0.7133 0.7184 0.7235 0.7287
1627.698795 0.7341 0.7397 0.7454 0.7508 0.7558
1632.721716 0.7607 0.7648 0.7679 0.7708 0.7734
1637.744637 0.7758 0.7774 0.7786 0.7791 0.7789
1642.767558 0.7785 0.7781 0.7777 0.7783 0.7800
1647.790479 0.7821 0.7844 0.7874 0.7896 0.7912
1652.813400 0.7928 0.7943 0.7954 0.7965 0.7975
1657.836321 0.7985 0.7993 0.8000 0.8006 0.8013
1662.859242 0.8017 0.8020 0.8023 0.8026 0.8028
1667.882163 0.8028 0.8028 0.8027 0.8023 0.8025
1672.905084 0.8026 0.8025 0.8021 0.8016 0.8011
1677.928005 0.8005 0.7997 0.7988 0.7974 0.7958
1682.950926 0.7940 0.7923 0.7903 0.7877 0.7841
1687.973847 0.7798 0.7747 0.7691 0.7620 0.7552
1692.996768 0.7518 0.7507 0.7498 0.7490 0.7484
1698.019689 0.7478 0.7471 0.7462 0.7454 0.7447
1703.042609 0.7440 0.7431 0.7422 0.7412 0.7395
1708.065530 0.7356 0.7211 0.7066 0.6922 0.6715
1713.088451 0.6531 0.6390 0.6307 0.6250 0.6193
1718.111372 0.6127 0.6050 0.5971 0.5784 0.5531
1723.134293 0.5325 0.5088 0.4925 0.4815 0.4696
1728.157214 0.4559 0.4140 0.2758 0.2006 0.1858
1733.180135 0.1805 0.1789 0.1785 0.1792 0.1803
1738.203056 0.1897 0.2123 0.2395 0.2667 0.2939
1743.225977 0.3210 0.3482 0.3753 0.4470 0.4841
1748.248898 0.4949 0.5111 0.5320 0.5482 0.5599
1753.271819 0.5709 0.5905 0.6168 0.6346 0.6578
1758.294740 0.6845 0.7049 0.7167 0.7257 0.7346
1763.317661 0.7433 0.7526 0.7612 0.7681 0.7766
1768.340582 0.7853 0.7913 0.7955 0.7977 0.7994
1773.363503 0.8008 0.8020 0.8032 0.8044 0.8056
1778.386424 0.8070 0.8085 0.8100 0.8114 0.8129
1783.409345 0.8144 0.8159 0.8174 0.8190 0.8205
1788.432266 0.8220 0.8234 0.8248 0.8262 0.8279
1793.455187 0.8298 0.8317 0.8336 0.8347 0.8352
1798.478108 0.8354 0.8355 0.8355 0.8355 0.8355
1803.501029 0.8356 0.8356 0.8359 0.8366 0.8375
1808.523949 0.8384 0.8392 0.8396 0.8396 0.8395
1813.546870 0.8393 0.8391 0.8388 0.8387 0.8391
1818.569791 0.8396 0.8404 0.8414 0.8423 0.8432
1823.592712 0.8443 0.8452 0.8457 0.8461 0.8465
1828.615633 0.8468 0.8472 0.8476 0.8479 0.8482
1833.638554 0.8485 0.8488 0.8490 0.8493 0.8495
1838.661475 0.8498 0.8500 0.8503 0.8505 0.8508
1843.684396 0.8511 0.8513 0.8516 0.8519 0.8520
1848.707317 0.8520 0.8521 0.8521 0.8521 0.8521
1853.730238 0.8521 0.8520 0.8519 0.8519 0.8518
1858.753159 0.8517 0.8516 0.8515 0.8514 0.8513
1863.776080 0.8520 0.8514 0.8510 0.8509 0.8510
1868.799001 0.8511 0.8513 0.8515 0.8518 0.8520
1873.821922 0.8523 0.8527 0.8532 0.8537 0.8542
1878.844843 0.8546 0.8549 0.8552 0.8555 0.8558
1883.867764 0.8561 0.8563 0.8566 0.8569 0.8571
1888.890685 0.8571 0.8571 0.8572 0.8569 0.8560
1893.913606 0.8551 0.8541 0.8531 0.8521 0.8511
1898.936527 0.8502 0.8492 0.8482 0.8472 0.8462
1903.959448 0.8452 0.8442 0.8432 0.8422 0.8412
1908.982368 0.8401 0.8390 0.8380 0.8369 0.8358
1914.005289 0.8347 0.8342 0.8344 0.8349 0.8353
1919.028210 0.8358 0.8363 0.8373 0.8384 0.8396
1924.051131 0.8402 0.8403 0.8401 0.8397 0.8393
1929.074052 0.8383 0.8369 0.8354 0.8339 0.8330
1934.096973 0.8322 0.8315 0.8308 0.8304 0.8301
1939.119894 0.8299 0.8297 0.8295 0.8293 0.8292
1944.142815 0.8291 0.8289 0.8288 0.8290 0.8294
1949.165736 0.8299 0.8304 0.8307 0.8305 0.8304
1954.188657 0.8301 0.8294 0.8287 0.8279 0.8272
1959.211578 0.8264 0.8257 0.8249 0.8241 0.8237
1964.234499 0.8239 0.8244 0.8249 0.8255 0.8260
1969.257420 0.8264 0.8268 0.8273 0.8275 0.8269
1974.280341 0.8263 0.8257 0.8248 0.8237 0.8226
1979.303262 0.8215 0.8204 0.8194 0.8183 0.8175
1984.326183 0.8168 0.8160 0.8153 0.8146 0.8141
1989.349104 0.8136 0.8130 0.8125 0.8119 0.8115
1994.372025 0.8110 0.8106 0.8101 0.8097 0.8092
1999.394946 0.8085 0.8077 0.8069 0.8061 0.8053
2004.417867 0.8048 0.8043 0.8038 0.8033 0.8028
2009.440788 0.8023 0.8018 0.8010 0.8001 0.7991
2014.463708 0.7981 0.7967 0.7951 0.7935 0.7919
2019.486629 0.7902 0.7886 0.7869 0.7852 0.7835
2024.509550 0.7819 0.7802 0.7786 0.7771 0.7756
2029.532471 0.7740 0.7730 0.7724 0.7719 0.7717
2034.555392 0.7694 0.7713 0.7719 0.7721 0.7723
2039.578313 0.7725 0.7728 0.7732 0.7735 0.7738
2044.601234 0.7742 0.7746 0.7751 0.7756 0.7760
2049.624155 0.7765 0.7771 0.7777 0.7782 0.7788
2054.647076 0.7794 0.7800 0.7810 0.7821 0.7833
2059.669997 0.7845 0.7856 0.7868 0.7883 0.7900
2064.692918 0.7918 0.7935 0.7950 0.7962 0.7974
2069.715839 0.7987 0.8000 0.8017 0.8033 0.8045
2074.738760 0.8054 0.8059 0.8064 0.8070 0.8075
2079.761681 0.8080 0.8086 0.8091 0.8096 0.8103
2084.784602 0.8109 0.8116 0.8123 0.8129 0.8136
2089.807523 0.8142 0.8149 0.8155 0.8160 0.8165
2094.830444 0.8170 0.8174 0.8179 0.8183 0.8189
2099.853365 0.8195 0.8208 0.8220 0.8230 0.8243
2104.876286 0.8260 0.8277 0.8289 0.8295 0.8300
2109.899207 0.8305 0.8310 0.8315 0.8318 0.8319
2114.922128 0.8321 0.8322 0.8324 0.8325 0.8325
2119.945048 0.8326 0.8326 0.8326 0.8326 0.8326
2124.967969 0.8327 0.8327 0.8328 0.8330 0.8332
2129.990890 0.8334 0.8336 0.8338 0.8340 0.8342
2135.013811 0.8344 0.8350 0.8358 0.8366 0.8373
2140.036732 0.8381 0.8387 0.8389 0.8380 0.8370
2145.059653 0.8365 0.8364 0.8364 0.8363 0.8363
2150.082574 0.8363 0.8348 0.8362 0.8362 0.8361
2155.105495 0.8361 0.8361 0.8363 0.8366 0.8368
2160.128416 0.8371 0.8373 0.8376 0.8379 0.8384
2165.151337 0.8389 0.8393 0.8398 0.8401 0.8404
2170.174258 0.8408 0.8409 0.8406 0.8403 0.8400
2175.197179 0.8395 0.8390 0.8386 0.8381 0.8376
2180.220100 0.8371 0.8368 0.8364 0.8360 0.8356
2185.243021 0.8351 0.8345 0.8339 0.8333 0.8327
2190.265942 0.8321 0.8316 0.8311 0.8306 0.8301
2195.288863 0.8296 0.8291 0.8287 0.8285 0.8283
2200.311784 0.8281 0.8279 0.8277 0.8275 0.8273
2205.334705 0.8272 0.8270 0.8268 0.8267 0.8266
2210.357626 0.8265 0.8263 0.8262 0.8261 0.8260
2215.380547 0.8258 0.8256 0.8256 0.8256 0.8256
2220.403468 0.8257 0.8258 0.8260 0.8261 0.8262
2225.426388 0.8263 0.8264 0.8265 0.8267 0.8268
2230.449309 0.8269 0.8270 0.8271 0.8273 0.8274
2235.472230 0.8275 0.8279 0.8283 0.8287 0.8291
2240.495151 0.8295 0.8299 0.8301 0.8302 0.8304
2245.518072 0.8305 0.8306 0.8306 0.8307 0.8308
2250.540993 0.8309 0.8309 0.8308 0.8308 0.8307
2255.563914 0.8306 0.8301 0.8296 0.8291 0.8286
2260.586835 0.8281 0.8276 0.8268 0.8260 0.8252
2265.609756 0.8244 0.8236 0.8228 0.8220 0.8212
2270.632677 0.8204 0.8196 0.8188 0.8179 0.8169
2275.655598 0.8159 0.8149 0.8139 0.8129 0.8118
2280.678519 0.8108 0.8099 0.8092 0.8085 0.8077
2285.701440 0.8070 0.8063 0.8056 0.8049 0.8041
2290.724361 0.8034 0.8029 0.8025 0.8020 0.8015
2295.747282 0.8011 0.8006 0.8002 0.7997 0.7992
2300.770203 0.7988 0.7984 0.7980 0.7976 0.7973
2305.793124 0.7969 0.7966 0.7962 0.7958 0.7955
2310.816045 0.7953 0.7951 0.7950 0.7948 0.7946
2315.838966 0.7945 0.7945 0.7945 0.7945 0.7945
2320.861887 0.7946 0.7946 0.7946 0.7945 0.7944
2325.884808 0.7943 0.7942 0.7942 0.7941 0.7940
2330.907728 0.7939 0.7938 0.7937 0.7937 0.7938
2335.930649 0.7939 0.7940 0.7942 0.7943 0.7944
2340.953570 0.7946 0.7947 0.7949 0.7950 0.7952
2345.976491 0.7954 0.7955 0.7957 0.7958 0.7960
2350.999412 0.7961 0.7963 0.7964 0.7966 0.7968
2356.022333 0.7970 0.7972 0.7975 0.7977 0.7980
2361.045254 0.7983 0.7985 0.7988 0.7990 0.7993
2366.068175 0.7995 0.7998 0.8000 0.8003 0.8005
2371.091096 0.8009 0.8013 0.8018 0.8022 0.8027
2376.114017 0.8031 0.8035 0.8034 0.8033 0.8033
2381.136938 0.8032 0.8026 0.8020 0.8013 0.8007
2386.159859 0.8000 0.7993 0.7984 0.7974 0.7963
2391.182780 0.7953 0.7943 0.7933 0.7923 0.7912
2396.205701 0.7902 0.7892 0.7882 0.7872 0.7862
2401.228622 0.7852 0.7842 0.7831 0.7819 0.7807
2406.251543 0.7795 0.7783 0.7771 0.7759 0.7747
2411.274464 0.7735 0.7723 0.7712 0.7701 0.7689
2416.297385 0.7678 0.7667 0.7656 0.7645 0.7633
2421.320306 0.7622 0.7610 0.7598 0.7587 0.7575
2426.343227 0.7564 0.7552 0.7545 0.7540 0.7540
2431.366148 0.7541 0.7542 0.7543 0.7544 0.7544
2436.389068 0.7544 0.7543 0.7542 0.7540 0.7539
2441.411989 0.7538 0.7531 0.7525 0.7518 0.7512
2446.434910 0.7504 0.7497 0.7490 0.7483 0.7476
2451.457831 0.7469 0.7460 0.7452 0.7443 0.7435
2456.480752 0.7426 0.7418 0.7406 0.7393 0.7379
2461.503673 0.7366 0.7353 0.7338 0.7323 0.7307
2466.526594 0.7292 0.7277 0.7261 0.7246 0.7230
2471.549515 0.7215 0.7199 0.7184 0.7159 0.7132
2476.572436 0.7099 0.7068 0.7055 0.7041 0.7028
2481.595357 0.7015 0.7003 0.7000 0.6998 0.6996
2486.618278 0.6994 0.6994 0.6995 0.6995 0.6995
2491.641199 0.6996 0.6997 0.6998 0.7000 0.7002
2496.664120 0.7004 0.7006 0.7008 0.7011 0.7014
2501.687041 0.7016 0.7019 0.7019 0.7014 0.7008
2506.709962 0.6987 0.6968 0.6958 0.6956 0.6954
2511.732883 0.6950 0.6946 0.6943 0.6941 0.6942
2516.755804 0.6942 0.6941 0.6940 0.6939 0.6936
2521.778725 0.6932 0.6928 0.6920 0.6912 0.6903
2526.801646 0.6892 0.6878 0.6863 0.6848 0.6834
2531.824567 0.6819 0.6804 0.6789 0.6773 0.6758
2536.847488 0.6742 0.6727 0.6711 0.6694 0.6674
2541.870408 0.6654 0.6634 0.6614 0.6594 0.6574
2546.893329 0.6554 0.6537 0.6520 0.6502 0.6484
2551.916250 0.6467 0.6450 0.6433 0.6416 0.6398
2556.939171 0.6381 0.6363 0.6346 0.6329 0.6312
2561.962092 0.6296 0.6281 0.6266 0.6250 0.6235
2566.985013 0.6220 0.6204 0.6188 0.6167 0.6144
2572.007934 0.6121 0.6098 0.6076 0.6053 0.6030
2577.030855 0.6007 0.5984 0.5961 0.5938 0.5915
2582.053776 0.5892 0.5869 0.5847 0.5829 0.5811
2587.076697 0.5793 0.5775 0.5757 0.5739 0.5725
2592.099618 0.5712 0.5698 0.5685 0.5672 0.5659
2597.122539 0.5646 0.5633 0.5620 0.5608 0.5595
2602.145460 0.5582 0.5570 0.5557 0.5549 0.5543
2607.168381 0.5536 0.5530 0.5523 0.5517 0.5510
2612.191302 0.5504 0.5500 0.5496 0.5492 0.5487
2617.214223 0.5479 0.5448 0.5391 0.5293 0.5231
2622.237144 0.5200 0.5182 0.5164 0.5146 0.5130
2627.260065 0.5120 0.5109 0.5099 0.5088 0.5078
2632.282986 0.5069 0.5059 0.5050 0.5043 0.5042
2637.305907 0.5033 0.5055 0.5063 0.5071 0.5079
2642.328828 0.5089 0.5103 0.5117 0.5132 0.5151
2647.351748 0.5171 0.5192 0.5212 0.5234 0.5257
2652.374669 0.5279 0.5298 0.5316 0.5335 0.5354
2657.397590 0.5378 0.5412 0.5442 0.5466 0.5479
2662.420511 0.5489 0.5494 0.5496 0.5498 0.5500
2667.443432 0.5499 0.5498 0.5499 0.5492 0.5489
2672.466353 0.5485 0.5482 0.5479 0.5476 0.5473
2677.489274 0.5470 0.5465 0.5454 0.5443 0.5432
2682.512195 0.5420 0.5406 0.5391 0.5376 0.5360
2687.535116 0.5343 0.5326 0.5308 0.5291 0.5272
2692.558037 0.5251 0.5230 0.5209 0.5187 0.5165
2697.580958 0.5140 0.5111 0.5084 0.5056 0.5029
2702.603879 0.5003 0.4976 0.4950 0.4924 0.4901
2707.626800 0.4878 0.4855 0.4832 0.4809 0.4787
2712.649721 0.4768 0.4751 0.4733 0.4715 0.4698
2717.672642 0.4681 0.4664 0.4648 0.4632 0.4616
2722.695563 0.4600 0.4585 0.4573 0.4563 0.4552
2727.718484 0.4541 0.4530 0.4519 0.4510 0.4503
2732.741405 0.4496 0.4489 0.4483 0.4476 0.4469
2737.764326 0.4462 0.4455 0.4450 0.4444 0.4438
2742.787247 0.4433 0.4427 0.4421 0.4416 0.4411
2747.810167 0.4406 0.4405 0.4403 0.4401 0.4396
2752.833088 0.4391 0.4385 0.4375 0.4360 0.4345
2757.856009 0.4328 0.4306 0.4284 0.4262 0.4240
2762.878930 0.4214 0.4183 0.4151 0.4120 0.4089
2767.901851 0.4061 0.4034 0.4008 0.3981 0.3954
2772.924772 0.3927 0.3900 0.3872 0.3844 0.3815
2777.947693 0.3787 0.3758 0.3729 0.3701 0.3672
2782.970614 0.3645 0.3619 0.3594 0.3569 0.3544
2787.993535 0.3519 0.3493 0.3468 0.3442 0.3415
2793.016456 0.3387 0.3359 0.3331 0.3303 0.3274
2798.039377 0.3241 0.3208 0.3174 0.3141 0.3108
2803.062298 0.3077 0.3046 0.3015 0.2984 0.2953
2808.085219 0.2922 0.2888 0.2852 0.2816 0.2780
2813.108140 0.2744 0.2712 0.2681 0.2650 0.2619
2818.131061 0.2588 0.2563 0.2551 0.2543 0.2536
2823.153982 0.2529 0.2521 0.2514 0.2508 0.2502
2828.176903 0.2495 0.2488 0.2482 0.2472 0.2460
2833.199824 0.2448 0.2437 0.2426 0.2417 0.2407
2838.222745 0.2399 0.2393 0.2391 0.2390 0.2389
2843.245666 0.2391 0.2394 0.2397 0.2405 0.2413
2848.268587 0.2421 0.2430 0.2438 0.2446 0.2455
2853.291507 0.2466 0.2479 0.2491 0.2504 0.2516
2858.314428 0.2528 0.2540 0.2552 0.2566 0.2580
2863.337349 0.2595 0.2609 0.2624 0.2638 0.2652
2868.360270 0.2665 0.2684 0.2717 0.2756 0.2790
2873.383191 0.2813 0.2831 0.2846 0.2858 0.2869
2878.406112 0.2880 0.2892 0.2903 0.2914 0.2925
2883.429033 0.2937 0.2950 0.2964 0.2979 0.2993
2888.451954 0.3008 0.3023 0.3037 0.3052 0.3066
2893.474875 0.3081 0.3096 0.3111 0.3126 0.3141
2898.497796 0.3156 0.3169 0.3181 0.3193 0.3205
2903.520717 0.3217 0.3229 0.3241 0.3251 0.3258
2908.543638 0.3265 0.3273 0.3280 0.3287 0.3295
2913.566559 0.3302 0.3310 0.3317 0.3324 0.3332
2918.589480 0.3339 0.3347 0.3354 0.3362 0.3370
2923.612401 0.3377 0.3384 0.3392 0.3399 0.3407
2928.635322 0.3414 0.3422 0.3429 0.3436 0.3443
2933.658243 0.3448 0.3454 0.3460 0.3465 0.3471
2938.681164 0.3476 0.3482 0.3493 0.3515 0.3530
2943.704085 0.3534 0.3539 0.3541 0.3543 0.3544
2948.727006 0.3546 0.3547 0.3548 0.3549 0.3550
2953.749927 0.3551 0.3552 0.3553 0.3553 0.3554
2958.772847 0.3555 0.3556 0.3557 0.3558 0.3559
2963.795768 0.3560 0.3561 0.3562 0.3563 0.3564
2968.818689 0.3565 0.3565 0.3566 0.3567 0.3568
2973.841610 0.3569 0.3570 0.3572 0.3576 0.3582
2978.864531 0.3590 0.3598 0.3604 0.3610 0.3613
2983.887452 0.3616 0.3617 0.3619 0.3620 0.3621
2988.910373 0.3623 0.3624 0.3625 0.3627 0.3628
2993.933294 0.3629 0.3630 0.3631 0.3632 0.3634
2998.956215 0.3635 0.3636 0.3637 0.3638 0.3638
3003.979136 0.3639 0.3640 0.3640 0.3641 0.3642
3009.002057 0.3643 0.3645 0.3648 0.3655 0.3671
3014.024978 0.3692 0.3711 0.3731 0.3752 0.3772
3019.047899 0.3790 0.3804 0.3817 0.3826 0.3827
3024.070820 0.3826 0.3825 0.3824 0.3823 0.3825
3029.093741 0.3829 0.3838 0.3855 0.3874 0.3896
3034.116662 0.3920 0.3946 0.3970 0.3991 0.4013
3039.139583 0.4034 0.4053 0.4069 0.4083 0.4097
3044.162504 0.4111 0.4125 0.4140 0.4157 0.4176
3049.185425 0.4196 0.4215 0.4233 0.4249 0.4264
3054.208346 0.4279 0.4294 0.4309 0.4324 0.4338
3059.231267 0.4352 0.4366 0.4380 0.4392 0.4403
3064.254187 0.4414 0.4425 0.4437 0.4448 0.4460
3069.277108 0.4475 0.4489 0.4503 0.4517 0.4531
3074.300029 0.4546 0.4560 0.4574 0.4590 0.4609
3079.322950 0.4630 0.4650 0.4669 0.4687 0.4704
3084.345871 0.4722 0.4743 0.4765 0.4787 0.4808
3089.368792 0.4830 0.4852 0.4873 0.4894 0.4915
3094.391713 0.4938 0.4961 0.4988 0.5017 0.5040
3099.414634 0.5063 0.5086 0.5108 0.5128 0.5147
3104.437555 0.5166 0.5186 0.5208 0.5232 0.5262
3109.460476 0.5306 0.5360 0.5416 0.5463 0.5490
3114.483397 0.5510 0.5530 0.5550 0.5569 0.5588
3119.506318 0.5607 0.5627 0.5649 0.5670 0.5691
3124.529239 0.5716 0.5745 0.5774 0.5803 0.5827
3129.552160 0.5845 0.5862 0.5880 0.5897 0.5915
3134.575081 0.5933 0.5953 0.5974 0.5996 0.6019
3139.598002 0.6044 0.6068 0.6093 0.6130 0.6197
3144.620923 0.6277 0.6349 0.6404 0.6445 0.6487
3149.643844 0.6527 0.6563 0.6597 0.6631 0.6664
3154.666765 0.6689 0.6708 0.6727 0.6746 0.6764
3159.689686 0.6780 0.6795 0.6811 0.6824 0.6832
3164.712607 0.6836 0.6841 0.6846 0.6851 0.6855
3169.735527 0.6860 0.6866 0.6875 0.6883 0.6892
3174.758448 0.6901 0.6911 0.6921 0.6927 0.6927
3179.781369 0.6927 0.6927 0.6936 0.6965 0.6998
3184.804290 0.7019 0.7036 0.7048 0.7055 0.7062
3189.827211 0.7069 0.7075 0.7083 0.7094 0.7105
3194.850132 0.7116 0.7128 0.7139 0.7151 0.7163
3199.873053 0.7175 0.7186 0.7198 0.7210 0.7221
3204.895974 0.7232 0.7243 0.7254 0.7265 0.7276
3209.918895 0.7287 0.7298 0.7309 0.7320 0.7331
3214.941816 0.7342 0.7353 0.7366 0.7378 0.7391
3219.964737 0.7404 0.7416 0.7429 0.7440 0.7449
3224.987658 0.7456 0.7464 0.7471 0.7478 0.7486
3230.010579 0.7493 0.7501 0.7511 0.7521 0.7531
3235.033500 0.7541 0.7551 0.7561 0.7571 0.7589
3240.056421 0.7614 0.7641 0.7672 0.7701 0.7719
3245.079342 0.7728 0.7732 0.7735 0.7739 0.7744
3250.102263 0.7749 0.7755 0.7759 0.7762 0.7764
3255.125184 0.7767 0.7770 0.7773 0.7776 0.7780
3260.148105 0.7783 0.7787 0.7790 0.7792 0.7794
3265.171026 0.7797 0.7799 0.7801 0.7803 0.7805
3270.193947 0.7807 0.7809 0.7811 0.7813 0.7815
3275.216867 0.7817 0.7820 0.7822 0.7826 0.7831
3280.239788 0.7837 0.7842 0.7847 0.7851 0.7851
3285.262709 0.7851 0.7851 0.7852 0.7852 0.7852
3290.285630 0.7851 0.7850 0.7849 0.7848 0.7847
3295.308551 0.7846 0.7845 0.7844 0.7842 0.7840
3300.331472 0.7838 0.7836 0.7835 0.7833 0.7831
3305.354393 0.7828 0.7825 0.7823 0.7820 0.7818
3310.377314 0.7815 0.7812 0.7810 0.7807 0.7804
3315.400235 0.7802 0.7799 0.7795 0.7791 0.7787
3320.423156 0.7783 0.7778 0.7774 0.7770 0.7765
3325.446077 0.7761 0.7757 0.7753 0.7748 0.7742
3330.468998 0.7736 0.7730 0.7724 0.7718 0.7712
3335.491919 0.7706 0.7699 0.7690 0.7681 0.7672
3340.514840 0.7663 0.7654 0.7645 0.7636 0.7630
3345.537761 0.7625 0.7621 0.7616 0.7612 0.7607
3350.560682 0.7603 0.7599 0.7597 0.7595 0.7593
3355.583603 0.7591 0.7589 0.7588 0.7587 0.7586
3360.606524 0.7581 0.7576 0.7571 0.7564 0.7555
3365.629445 0.7545 0.7535 0.7523 0.7510 0.7497
3370.652366 0.7484 0.7470 0.7457 0.7443 0.7429
3375.675287 0.7415 0.7401 0.7387 0.7373 0.7358
3380.698207 0.7344 0.7329 0.7314 0.7301 0.7288
3385.721128 0.7276 0.7264 0.7252 0.7239 0.7223
3390.744049 0.7206 0.7189 0.7171 0.7155 0.7141
3395.766970 0.7127 0.7112 0.7098 0.7084 0.7070
3400.789891 0.7056 0.7043 0.7031 0.7019 0.7007
3405.812812 0.6994 0.6982 0.6970 0.6959 0.6949
3410.835733 0.6940 0.6931 0.6922 0.6912 0.6903
3415.858654 0.6894 0.6885 0.6875 0.6866 0.6858
3420.881575 0.6850 0.6843 0.6835 0.6827 0.6819
3425.904496 0.6811 0.6803 0.6797 0.6793 0.6790
3430.927417 0.6787 0.6783 0.6780 0.6777 0.6773
3435.950338 0.6770 0.6767 0.6763 0.6760 0.6757
3440.973259 0.6754 0.6752 0.6750 0.6748 0.6746
3445.996180 0.6744 0.6742 0.6740 0.6738 0.6736
3451.019101 0.6734 0.6732 0.6730 0.6728 0.6726
3456.042022 0.6724 0.6722 0.6720 0.6717 0.6715
3461.064943 0.6713 0.6711 0.6709 0.6708 0.6708
3466.087864 0.6709 0.6709 0.6710 0.6710 0.6711
3471.110785 0.6711 0.6712 0.6712 0.6713 0.6713
3476.133706 0.6714 0.6714 0.6715 0.6716 0.6717
3481.156627 0.6718 0.6719 0.6720 0.6721 0.6722
3486.179547 0.6723 0.6725 0.6729 0.6733 0.6736
3491.202468 0.6740 0.6744 0.6747 0.6751 0.6755
3496.225389 0.6758 0.6762 0.6767 0.6773 0.6778
3501.248310 0.6783 0.6788 0.6794 0.6801 0.6807
3506.271231 0.6814 0.6820 0.6827 0.6834 0.6840
3511.294152 0.6847 0.6853 0.6860 0.6866 0.6871
3516.317073 0.6876 0.6881 0.6886 0.6891 0.6896
3521.339994 0.6901 0.6907 0.6912 0.6918 0.6923
3526.362915 0.6929 0.6935 0.6943 0.6950 0.6957
3531.385836 0.6964 0.6970 0.6972 0.6975 0.6977
3536.408757 0.6979 0.6981 0.6981 0.6977 0.6973
3541.431678 0.6972 0.6978 0.6987 0.6996 0.7003
3546.454599 0.7012 0.7027 0.7044 0.7060 0.7077
3551.477520 0.7093 0.7109 0.7124 0.7140 0.7152
3556.500441 0.7163 0.7174 0.7185 0.7196 0.7206
3561.523362 0.7217 0.7230 0.7243 0.7257 0.7271
3566.546283 0.7285 0.7299 0.7313 0.7327 0.7341
3571.569204 0.7355 0.7369 0.7383 0.7395 0.7402
3576.592125 0.7407 0.7412 0.7418 0.7422 0.7420
3581.615046 0.7416 0.7412 0.7408 0.7404 0.7407
3586.637967 0.7415 0.7424 0.7434 0.7444 0.7453
3591.660887 0.7462 0.7470 0.7478 0.7486 0.7494
3596.683808 0.7501 0.7511 0.7521 0.7532 0.7542
3601.706729 0.7553 0.7563 0.7573 0.7584 0.7595
3606.729650 0.7606 0.7617 0.7628 0.7639 0.7652
3611.752571 0.7665 0.7678 0.7691 0.7704 0.7712
3616.775492 0.7718 0.7725 0.7729 0.7731 0.7733
3621.798413 0.7735 0.7736 0.7735 0.7734 0.7733
3626.821334 0.7733 0.7733 0.7733 0.7736 0.7742
3631.844255 0.7749 0.7755 0.7761 0.7768 0.7774
3636.867176 0.7780 0.7787 0.7799 0.7810 0.7819
3641.890097 0.7829 0.7839 0.7850 0.7862 0.7877
3646.913018 0.7892 0.7906 0.7918 0.7931 0.7943
3651.935939 0.7955 0.7962 0.7968 0.7973 0.7978
3656.958860 0.7982 0.7987 0.7991 0.7996 0.8000
3661.981781 0.8004 0.8008 0.8012 0.8016 0.8019
3667.004702 0.8023 0.8027 0.8031 0.8037 0.8044
3672.027623 0.8053 0.8061 0.8070 0.8079 0.8087
3677.050544 0.8096 0.8104 0.8111 0.8117 0.8122
3682.073465 0.8126 0.8129 0.8131 0.8133 0.8135
3687.096386 0.8138 0.8139 0.8140 0.8141 0.8143
3692.119306 0.8144 0.8145 0.8146 0.8147 0.8148
3697.142227 0.8149 0.8149 0.8150 0.8150 0.8151
3702.165148 0.8152 0.8152 0.8153 0.8153 0.8156
3707.188069 0.8160 0.8165 0.8169 0.8174 0.8178
3712.210990 0.8182 0.8186 0.8189 0.8193 0.8197
3717.233911 0.8198 0.8197 0.8196 0.8195 0.8195
3722.256832 0.8194 0.8193 0.8192 0.8190 0.8187
3727.279753 0.8185 0.8183 0.8180 0.8178 0.8177
3732.302674 0.8176 0.8175 0.8176 0.8178 0.8182
3737.325595 0.8184 0.8186 0.8190 0.8193 0.8196
3742.348516 0.8198 0.8200 0.8201 0.8203 0.8206
3747.371437 0.8208 0.8211 0.8214 0.8217 0.8220
3752.394358 0.8223 0.8225 0.8228 0.8231 0.8234
3757.417279 0.8238 0.8241 0.8245 0.8248 0.8252
3762.440200 0.8255 0.8258 0.8261 0.8264 0.8266
3767.463121 0.8263 0.8255 0.8247 0.8239 0.8231
3772.486042 0.8224 0.8216 0.8204 0.8192 0.8179
3777.508963 0.8167 0.8154 0.8141 0.8125 0.8107
3782.531884 0.8090 0.8090 0.8092 0.8095 0.8097
3787.554805 0.8100 0.8102 0.8105 0.8107 0.8110
3792.577726 0.8114 0.8118 0.8122 0.8126 0.8130
3797.600646 0.8134 0.8138 0.8142 0.8146 0.8150
3802.623567 0.8154 0.8158 0.8162 0.8166 0.8171
3807.646488 0.8176 0.8179 0.8184 0.8188 0.8192
3812.669409 0.8196 0.8202 0.8207 0.8213 0.8218
3817.692330 0.8224 0.8230 0.8235 0.8241 0.8247
3822.715251 0.8252 0.8258 0.8263 0.8269 0.8274
3827.738172 0.8280 0.8285 0.8291 0.8296 0.8302
3832.761093 0.8307 0.8311 0.8316 0.8320 0.8324
3837.784014 0.8329 0.8331 0.8329 0.8327 0.8325
3842.806935 0.8323 0.8319 0.8312 0.8305 0.8297
3847.829856 0.8290 0.8282 0.8274 0.8267 0.8257
3852.852777 0.8246 0.8236 0.8225 0.8214 0.8204
3857.875698 0.8193 0.8182 0.8171 0.8160 0.8149
3862.898619 0.8138 0.8128 0.8125 0.8123 0.8121
3867.921540 0.8119 0.8117 0.8117 0.8118 0.8119
3872.944461 0.8120 0.8121 0.8123 0.8127 0.8130
3877.967382 0.8133 0.8137 0.8140 0.8144 0.8147
3882.990303 0.8151 0.8156 0.8160 0.8164 0.8168
3888.013224 0.8172 0.8177 0.8181 0.8186 0.8191
3893.036145 0.8196 0.8214 0.8205 0.8205 0.8207
3898.059066 0.8207 0.8203 0.8200 0.8196 0.8193
3903.081986 0.8189 0.8184 0.8179 0.8173 0.8168
3908.104907 0.8163 0.8164 0.8164 0.8165 0.8166
3913.127828 0.8166 0.8167 0.8168 0.8169 0.8174
3918.150749 0.8179 0.8184 0.8188 0.8193 0.8198
3923.173670 0.8202 0.8204 0.8207 0.8209 0.8212
3928.196591 0.8212 0.8206 0.8201 0.8195 0.8189
3933.219512 0.8181 0.8173 0.8166 0.8158 0.8151
3938.242433 0.8149 0.8148 0.8148 0.8147 0.8147
3943.265354 0.8147 0.8148 0.8149 0.8150 0.8151
3948.288275 0.8152 0.8153 0.8154 0.8155 0.8157
3953.311196 0.8160 0.8164 0.8167 0.8171 0.8174
3958.334117 0.8178 0.8182 0.8185 0.8189 0.8193
3963.357038 0.8197 0.8201 0.8205 0.8209 0.8213
3968.379959 0.8214 0.8213 0.8213 0.8213 0.8212
3973.402880 0.8212 0.8212 0.8211 0.8209 0.8208
3978.425801 0.8206 0.8205 0.8203 0.8201 0.8200
3983.448722 0.8198 0.8197 0.8195 0.8193 0.8191
3988.471643 0.8190 0.8188 0.8186 0.8184 0.8182
3993.494564 0.8180 0.8178 0.8177 0.8175 0.8173
3998.517485 0.8173 0.8172 0.8172 0.8171 0.8171
4003.540406 0.8170 0.8168 0.8166 0.8164 0.8162
4008.563326 0.8160 0.8157 0.8155 0.8153 0.8151
4013.586247 0.8149 0.8146 0.8145
##END=
