##TITLE=1,4-Diazabicyclo[2.2.2]octane, compd. with BH3
##JCAMP-DX=4.24
##DATA TYPE=INFRARED SPECTRUM
##CLASS=COBLENTZ III
##ORIGIN=DOW CORNING CORP.
##OWNER=Copyright (C) 1987 by the Coblentz Society
Collection (C) 2018 copyright by the U.S. Secretary of Commerce
on behalf of the United States of America. All rights reserved.
##DATE=1967/04/10
##NAMES=borane compound with 1,4-diazabicyclo[2.2.2]octane (1:1)
##MOLFORM=C6 H15 N2 B
##SOURCE REFERENCE=COBLENTZ NO. 5516
##$NIST ID=B6005516
##$NIST SOURCE=COBLENTZ
##$NIST IMAGE=cob5516
##SPECTROMETER/DATA SYSTEM=PERKIN-ELMER 521 (GRATING)
##INSTRUMENT PARAMETERS=FILTERS AT 3150, 2500, 2000, 1150, 700, 410. GRATING CHANGES: 2000, 630
$$ SPECTRAL FEATURE AT 616 CM^-^1 IS AN ARTIFACT CAUSED BY A CHANGE IN RECORDING PARAMETER
##STATE=SOLID (SPLIT MULL)
##RESOLUTION=2
##XUNITS=1/CM
##YUNITS=TRANSMITTANCE
##XFACTOR=1.0
##YFACTOR=1
##FIRSTX=245
##LASTX=3824
##FIRSTY=0.719
##MAXX=3824
##MINX=245
##MAXY=0.9203
##MINY=0.0915
##NPOINTS=3580
##XYDATA=(X++(Y..Y))
245.000000 0.7190 0.7190 0.7186 0.7180 0.7173
250.000000 0.7168 0.7163 0.7163 0.7166 0.7169
255.000000 0.7172 0.7171 0.7165 0.7158 0.7152
260.000000 0.7146 0.7140 0.7134 0.7133 0.7133
265.000000 0.7132 0.7132 0.7142 0.7140 0.7172
270.000000 0.7221 0.7283 0.7371 0.7479 0.7618
275.000000 0.7756 0.7894 0.8011 0.8115 0.8218
280.000000 0.8347 0.8482 0.8593 0.8653 0.8707
285.000000 0.8743 0.8779 0.8805 0.8824 0.8842
290.000000 0.8859 0.8872 0.8884 0.8896 0.8908
295.000000 0.8920 0.8930 0.8937 0.8944 0.8951
300.000000 0.8958 0.8966 0.8971 0.8976 0.8981
305.000000 0.8987 0.8992 0.8997 0.8999 0.9014
310.000000 0.9002 0.9004 0.9005 0.9006 0.9007
315.000000 0.9000 0.8994 0.8988 0.8981 0.8975
320.000000 0.8970 0.8969 0.8968 0.9000 0.9028
325.000000 0.9035 0.9043 0.9051 0.9052 0.9051
330.000000 0.9047 0.9025 0.9003 0.8982 0.8952
335.000000 0.8917 0.8882 0.8822 0.8761 0.8675
340.000000 0.8568 0.8461 0.8364 0.8276 0.8187
345.000000 0.8097 0.7959 0.7820 0.7577 0.7473
350.000000 0.7444 0.7447 0.7456 0.7422 0.7774
355.000000 0.7938 0.8103 0.8267 0.8432 0.8596
360.000000 0.8761 0.8862 0.8890 0.8917 0.8947
365.000000 0.8978 0.8993 0.9007 0.9021 0.9033
370.000000 0.9045 0.9056 0.9068 0.9079 0.9089
375.000000 0.9098 0.9108 0.9117 0.9126 0.9136
380.000000 0.9139 0.9138 0.9129 0.9136 0.9135
385.000000 0.9135 0.9135 0.9144 0.9153 0.9172
390.000000 0.9188 0.9203 0.9202 0.9191 0.9180
395.000000 0.9165 0.9143 0.9124 0.9118 0.9111
400.000000 0.9104 0.9097 0.9091 0.9084 0.9077
405.000000 0.9072 0.9069 0.9066 0.9062 0.9059
410.000000 0.9056 0.9053 0.9053 0.9053 0.9053
415.000000 0.9054 0.9054 0.9054 0.9055 0.9055
420.000000 0.9055 0.9055 0.9056 0.9056 0.9056
425.000000 0.9058 0.9059 0.9060 0.9061 0.9062
430.000000 0.9063 0.9065 0.9066 0.9067 0.9068
435.000000 0.9069 0.9070 0.9071 0.9072 0.9073
440.000000 0.9074 0.9075 0.9076 0.9077 0.9078
445.000000 0.9079 0.9080 0.9081 0.9082 0.9083
450.000000 0.9084 0.9085 0.9086 0.9087 0.9087
455.000000 0.9087 0.9088 0.9088 0.9088 0.9088
460.000000 0.9089 0.9089 0.9089 0.9090 0.9090
465.000000 0.9090 0.9090 0.9091 0.9091 0.9091
470.000000 0.9091 0.9092 0.9092 0.9091 0.9090
475.000000 0.9089 0.9088 0.9087 0.9086 0.9085
480.000000 0.9084 0.9084 0.9083 0.9082 0.9081
485.000000 0.9080 0.9079 0.9078 0.9077 0.9076
490.000000 0.9075 0.9074 0.9072 0.9070 0.9068
495.000000 0.9065 0.9063 0.9061 0.9058 0.9056
500.000000 0.9053 0.9051 0.9049 0.9046 0.9044
505.000000 0.9042 0.9039 0.9037 0.9035 0.9032
510.000000 0.9030 0.9028 0.9025 0.9023 0.9020
515.000000 0.9018 0.9016 0.9013 0.9011 0.9008
520.000000 0.9006 0.9003 0.9001 0.8998 0.8996
525.000000 0.8993 0.8991 0.8988 0.8986 0.8983
530.000000 0.8981 0.8978 0.8976 0.8973 0.8971
535.000000 0.8968 0.8966 0.8963 0.8961 0.8958
540.000000 0.8956 0.8953 0.8951 0.8949 0.8948
545.000000 0.8946 0.8945 0.8944 0.8943 0.8942
550.000000 0.8940 0.8939 0.8938 0.8937 0.8935
555.000000 0.8934 0.8933 0.8932 0.8931 0.8929
560.000000 0.8928 0.8927 0.8926 0.8925 0.8926
565.000000 0.8926 0.8927 0.8928 0.8929 0.8929
570.000000 0.8930 0.8931 0.8931 0.8932 0.8933
575.000000 0.8934 0.8934 0.8935 0.8936 0.8937
580.000000 0.8938 0.8939 0.8940 0.8941 0.8943
585.000000 0.8944 0.8945 0.8947 0.8948 0.8949
590.000000 0.8950 0.8951 0.8950 0.8948 0.8947
595.000000 0.8945 0.8943 0.8942 0.8940 0.8939
600.000000 0.8937 0.8936 0.8934 0.8931 0.8928
605.000000 0.8925 0.8922 0.8920 0.8906 0.8863
610.000000 0.8820 0.8777 0.8735 0.8692 0.8649
615.000000 0.8606 0.8574 0.8577 0.8579 0.8581
620.000000 0.8583 0.8585 0.8587 0.8589 0.8591
625.000000 0.8592 0.8593 0.8592 0.8592 0.8592
630.000000 0.8591 0.8591 0.8589 0.8587 0.8586
635.000000 0.8584 0.8582 0.8580 0.8579 0.8577
640.000000 0.8576 0.8575 0.8574 0.8573 0.8573
645.000000 0.8572 0.8567 0.8562 0.8558 0.8553
650.000000 0.8549 0.8544 0.8539 0.8519 0.8498
655.000000 0.8477 0.8448 0.8418 0.8387 0.8357
660.000000 0.8307 0.8245 0.8152 0.8048 0.7937
665.000000 0.7747 0.7005 0.6263 0.5520 0.4778
670.000000 0.4728 0.4716 0.4836 0.5505 0.6175
675.000000 0.6844 0.7513 0.8182 0.8261 0.8343
680.000000 0.8424 0.8442 0.8459 0.8472 0.8483
685.000000 0.8495 0.8506 0.8517 0.8528 0.8538
690.000000 0.8541 0.8543 0.8546 0.8549 0.8548
695.000000 0.8546 0.8544 0.8541 0.8536 0.8526
700.000000 0.8517 0.8508 0.8498 0.8489 0.8469
705.000000 0.8437 0.8406 0.8373 0.8335 0.8297
710.000000 0.8260 0.8222 0.8183 0.8140 0.8096
715.000000 0.8052 0.8006 0.7954 0.7903 0.7841
720.000000 0.7777 0.7779 0.7742 0.7788 0.7809
725.000000 0.7836 0.7863 0.7888 0.7911 0.7934
730.000000 0.7959 0.7986 0.8013 0.8039 0.8066
735.000000 0.8093 0.8117 0.8136 0.8155 0.8174
740.000000 0.8192 0.8211 0.8228 0.8238 0.8248
745.000000 0.8258 0.8268 0.8278 0.8288 0.8298
750.000000 0.8307 0.8316 0.8324 0.8333 0.8342
755.000000 0.8347 0.8351 0.8353 0.8359 0.8357
760.000000 0.8351 0.8344 0.8338 0.8331 0.8325
765.000000 0.8318 0.8312 0.8307 0.8301 0.8296
770.000000 0.8286 0.8274 0.8262 0.8250 0.8238
775.000000 0.8226 0.8205 0.8180 0.8155 0.8118
780.000000 0.8071 0.8024 0.7928 0.7792 0.7656
785.000000 0.7519 0.7383 0.7247 0.7111 0.7079
790.000000 0.7127 0.7262 0.7397 0.7532 0.7666
795.000000 0.7801 0.7888 0.7904 0.7883 0.7820
800.000000 0.7704 0.7588 0.7472 0.7356 0.7336
805.000000 0.7332 0.7459 0.7672 0.7884 0.8096
810.000000 0.8231 0.8250 0.8272 0.8285 0.8289
815.000000 0.8291 0.8287 0.8307 0.8280 0.8277
820.000000 0.8272 0.8260 0.8247 0.8229 0.8208
825.000000 0.8180 0.8108 0.8019 0.7922 0.7780
830.000000 0.7632 0.7483 0.7297 0.6916 0.6253
835.000000 0.5591 0.4928 0.4266 0.3603 0.3418
840.000000 0.3425 0.4196 0.5803 0.7257 0.7367
845.000000 0.7464 0.7580 0.7687 0.7737 0.7767
850.000000 0.7784 0.7782 0.7771 0.7760 0.7722
855.000000 0.7685 0.7649 0.7612 0.7557 0.7496
860.000000 0.7430 0.7241 0.6805 0.6370 0.5935
865.000000 0.5499 0.5064 0.4629 0.4193 0.3758
870.000000 0.3483 0.3487 0.3488 0.4270 0.4966
875.000000 0.5663 0.6359 0.7055 0.7721 0.7798
880.000000 0.7875 0.7934 0.7988 0.8012 0.8036
885.000000 0.8051 0.8058 0.8066 0.8072 0.8077
890.000000 0.8081 0.8086 0.8090 0.8095 0.8099
895.000000 0.8104 0.8108 0.8112 0.8115 0.8119
900.000000 0.8123 0.8126 0.8129 0.8130 0.8132
905.000000 0.8178 0.8136 0.8138 0.8140 0.8140
910.000000 0.8140 0.8140 0.8139 0.8139 0.8139
915.000000 0.8139 0.8136 0.8133 0.8130 0.8127
920.000000 0.8124 0.8121 0.8118 0.8116 0.8113
925.000000 0.8109 0.8105 0.8101 0.8097 0.8093
930.000000 0.8089 0.8085 0.8081 0.8077 0.8074
935.000000 0.8072 0.8071 0.8069 0.8068 0.8067
940.000000 0.8065 0.8064 0.8062 0.8053 0.8036
945.000000 0.8018 0.7994 0.7968 0.7942 0.7916
950.000000 0.7889 0.7863 0.7837 0.7814 0.7791
955.000000 0.7769 0.7603 0.7373 0.7142 0.7005
960.000000 0.6995 0.7106 0.7347 0.7588 0.7820
965.000000 0.7885 0.7920 0.7952 0.7970 0.7988
970.000000 0.7992 0.7993 0.7999 0.7996 0.7988
975.000000 0.7981 0.7967 0.7932 0.7898 0.7858
980.000000 0.7805 0.7664 0.7493 0.7323 0.7152
985.000000 0.6981 0.6811 0.6703 0.6907 0.7510
990.000000 0.7925 0.7987 0.8000 0.8013 0.8024
995.000000 0.8034 0.8044 0.8048 0.8051 0.8054
1000.000000 0.8084 0.8060 0.8059 0.8054 0.8048
1005.000000 0.8043 0.8034 0.8023 0.8013 0.7998
1010.000000 0.7977 0.7956 0.7935 0.7913 0.7888
1015.000000 0.7846 0.7804 0.7754 0.7696 0.7648
1020.000000 0.7612 0.7577 0.7552 0.7560 0.7569
1025.000000 0.7578 0.7569 0.7543 0.7498 0.7432
1030.000000 0.7307 0.7035 0.6660 0.6285 0.5911
1035.000000 0.5624 0.5675 0.5762 0.5927 0.6092
1040.000000 0.6131 0.6151 0.5528 0.5041 0.4554
1045.000000 0.4066 0.3579 0.3397 0.3613 0.4668
1050.000000 0.5724 0.6340 0.6330 0.5684 0.5183
1055.000000 0.4683 0.4182 0.3682 0.3181 0.2680
1060.000000 0.2180 0.1820 0.1820 0.2662 0.4044
1065.000000 0.5426 0.6762 0.7272 0.7491 0.7634
1070.000000 0.7718 0.7779 0.7835 0.7875 0.7916
1075.000000 0.7966 0.7988 0.8003 0.8015 0.8018
1080.000000 0.8021 0.8025 0.8034 0.8028 0.8029
1085.000000 0.8031 0.8029 0.8028 0.8027 0.8025
1090.000000 0.8023 0.8022 0.8022 0.8025 0.8027
1095.000000 0.8029 0.8029 0.8029 0.8028 0.8028
1100.000000 0.8028 0.8027 0.8027 0.8026 0.8026
1105.000000 0.8025 0.8025 0.8021 0.8017 0.8007
1110.000000 0.7997 0.7987 0.7978 0.7970 0.7963
1115.000000 0.7956 0.7949 0.7939 0.7929 0.7918
1120.000000 0.7908 0.7894 0.7880 0.7865 0.7850
1125.000000 0.7835 0.7816 0.7798 0.7780 0.7762
1130.000000 0.7744 0.7722 0.7700 0.7677 0.7652
1135.000000 0.7614 0.7577 0.7539 0.7506 0.7479
1140.000000 0.7451 0.7424 0.7397 0.7370 0.7331
1145.000000 0.7282 0.7222 0.7150 0.7090 0.7041
1150.000000 0.6991 0.6941 0.6890 0.6836 0.6781
1155.000000 0.6726 0.6679 0.6631 0.6177 0.5916
1160.000000 0.5579 0.5424 0.5271 0.4930 0.4342
1165.000000 0.3754 0.3167 0.2579 0.1991 0.1404
1170.000000 0.0922 0.0923 0.0923 0.0915 0.1917
1175.000000 0.2430 0.2943 0.3457 0.3970 0.4483
1180.000000 0.4996 0.5509 0.6023 0.6311 0.6310
1185.000000 0.6104 0.5898 0.5692 0.5818 0.5612
1190.000000 0.7104 0.7604 0.7640 0.7667 0.7692
1195.000000 0.7717 0.7739 0.7762 0.7783 0.7799
1200.000000 0.7815 0.7831 0.7846 0.7861 0.7874
1205.000000 0.7886 0.7898 0.7918 0.7910 0.7911
1210.000000 0.7911 0.7910 0.7909 0.7908 0.7907
1215.000000 0.7906 0.7905 0.7904 0.7904 0.7903
1220.000000 0.7901 0.7899 0.7897 0.7895 0.7897
1225.000000 0.7898 0.7899 0.7900 0.7902 0.7903
1230.000000 0.7904 0.7906 0.7909 0.7912 0.7914
1235.000000 0.7917 0.7919 0.7921 0.7923 0.7924
1240.000000 0.7926 0.7928 0.7930 0.7932 0.7933
1245.000000 0.7934 0.7935 0.7936 0.7934 0.7930
1250.000000 0.7925 0.7920 0.7915 0.7910 0.7906
1255.000000 0.7901 0.7896 0.7889 0.7877 0.7865
1260.000000 0.7854 0.7842 0.7830 0.7817 0.7803
1265.000000 0.7788 0.7773 0.7749 0.7725 0.7701
1270.000000 0.7663 0.7625 0.7564 0.7487 0.7410
1275.000000 0.7335 0.7250 0.7125 0.7029 0.7029
1280.000000 0.7030 0.7058 0.7166 0.7240 0.7300
1285.000000 0.7344 0.7377 0.7403 0.7419 0.7422
1290.000000 0.7427 0.7426 0.7425 0.7417 0.7404
1295.000000 0.7251 0.7070 0.6889 0.6708 0.6528
1300.000000 0.6347 0.6167 0.6139 0.6106 0.6078
1305.000000 0.6021 0.5922 0.5666 0.5438 0.5210
1310.000000 0.4982 0.4754 0.4526 0.4298 0.4070
1315.000000 0.3842 0.3615 0.3457 0.3447 0.3461
1320.000000 0.3473 0.4130 0.4465 0.4799 0.5134
1325.000000 0.5269 0.5351 0.5419 0.5483 0.5541
1330.000000 0.5600 0.5661 0.5725 0.5789 0.5883
1335.000000 0.5994 0.6301 0.7620 0.7666 0.7694
1340.000000 0.7710 0.7725 0.7737 0.7748 0.7750
1345.000000 0.7743 0.7752 0.7698 0.7676 0.7671
1350.000000 0.7672 0.7747 0.7762 0.7778 0.7782
1355.000000 0.7784 0.7785 0.7774 0.7758 0.7742
1360.000000 0.7726 0.7703 0.7671 0.7640 0.7613
1365.000000 0.7585 0.7611 0.7623 0.7649 0.7675
1370.000000 0.7702 0.7734 0.7758 0.7778 0.7793
1375.000000 0.7800 0.7806 0.7808 0.7810 0.7811
1380.000000 0.7811 0.7811 0.7811 0.7812 0.7812
1385.000000 0.7812 0.7812 0.7812 0.7812 0.7812
1390.000000 0.7811 0.7811 0.7811 0.7809 0.7806
1395.000000 0.7802 0.7799 0.7795 0.7792 0.7788
1400.000000 0.7785 0.7782 0.7779 0.7776 0.7773
1405.000000 0.7770 0.7767 0.7764 0.7761 0.7763
1410.000000 0.7764 0.7766 0.7768 0.7770 0.7800
1415.000000 0.7817 0.7824 0.7832 0.7832 0.7833
1420.000000 0.7833 0.7822 0.7799 0.7773 0.7745
1425.000000 0.7734 0.7729 0.7727 0.7726 0.7725
1430.000000 0.7719 0.7711 0.7703 0.7695 0.7640
1435.000000 0.7573 0.7511 0.7451 0.7378 0.7299
1440.000000 0.7215 0.7127 0.7047 0.6967 0.6900
1445.000000 0.6814 0.6600 0.6193 0.5841 0.5418
1450.000000 0.4994 0.4570 0.4147 0.3723 0.3692
1455.000000 0.3685 0.4645 0.5404 0.6164 0.6924
1460.000000 0.6966 0.6925 0.6831 0.6721 0.6718
1465.000000 0.6712 0.6942 0.6954 0.6973 0.6491
1470.000000 0.6003 0.5581 0.5585 0.5585 0.5578
1475.000000 0.8039 0.8124 0.8181 0.8216 0.8217
1480.000000 0.8221 0.8226 0.8230 0.8234 0.8237
1485.000000 0.8240 0.8243 0.8246 0.8247 0.8249
1490.000000 0.8250 0.8252 0.8254 0.8252 0.8249
1495.000000 0.8246 0.8243 0.8225 0.8205 0.8186
1500.000000 0.8168 0.8155 0.8142 0.8138 0.8137
1505.000000 0.8136 0.8136 0.8136 0.8136 0.8137
1510.000000 0.8137 0.8138 0.8139 0.8140 0.8141
1515.000000 0.8149 0.8157 0.8165 0.8174 0.8189
1520.000000 0.8204 0.8220 0.8229 0.8237 0.8245
1525.000000 0.8251 0.8250 0.8248 0.8244 0.8241
1530.000000 0.8238 0.8234 0.8242 0.8249 0.8255
1535.000000 0.8261 0.8267 0.8273 0.8280 0.8287
1540.000000 0.8294 0.8296 0.8298 0.8301 0.8303
1545.000000 0.8304 0.8305 0.8306 0.8307 0.8308
1550.000000 0.8308 0.8309 0.8310 0.8310 0.8311
1555.000000 0.8312 0.8313 0.8313 0.8314 0.8316
1560.000000 0.8317 0.8318 0.8320 0.8321 0.8323
1565.000000 0.8322 0.8320 0.8318 0.8316 0.8314
1570.000000 0.8312 0.8310 0.8308 0.8306 0.8304
1575.000000 0.8302 0.8300 0.8297 0.8294 0.8291
1580.000000 0.8288 0.8285 0.8281 0.8278 0.8275
1585.000000 0.8272 0.8269 0.8266 0.8263 0.8259
1590.000000 0.8257 0.8255 0.8254 0.8252 0.8251
1595.000000 0.8249 0.8248 0.8246 0.8244 0.8243
1600.000000 0.8241 0.8240 0.8238 0.8238 0.8237
1605.000000 0.8237 0.8237 0.8237 0.8237 0.8237
1610.000000 0.8237 0.8236 0.8236 0.8234 0.8232
1615.000000 0.8230 0.8228 0.8226 0.8224 0.8222
1620.000000 0.8220 0.8218 0.8216 0.8214 0.8212
1625.000000 0.8210 0.8208 0.8207 0.8206 0.8205
1630.000000 0.8204 0.8203 0.8202 0.8201 0.8200
1635.000000 0.8199 0.8198 0.8197 0.8197 0.8196
1640.000000 0.8196 0.8196 0.8196 0.8195 0.8195
1645.000000 0.8194 0.8193 0.8192 0.8191 0.8190
1650.000000 0.8189 0.8188 0.8187 0.8186 0.8185
1655.000000 0.8184 0.8183 0.8183 0.8182 0.8182
1660.000000 0.8181 0.8181 0.8180 0.8180 0.8179
1665.000000 0.8179 0.8178 0.8178 0.8177 0.8177
1670.000000 0.8176 0.8175 0.8175 0.8174 0.8173
1675.000000 0.8173 0.8172 0.8171 0.8171 0.8170
1680.000000 0.8169 0.8168 0.8167 0.8166 0.8165
1685.000000 0.8164 0.8163 0.8162 0.8161 0.8160
1690.000000 0.8159 0.8157 0.8156 0.8155 0.8153
1695.000000 0.8152 0.8150 0.8149 0.8147 0.8146
1700.000000 0.8144 0.8143 0.8142 0.8140 0.8139
1705.000000 0.8139 0.8139 0.8139 0.8140 0.8140
1710.000000 0.8140 0.8140 0.8141 0.8142 0.8145
1715.000000 0.8147 0.8150 0.8153 0.8156 0.8157
1720.000000 0.8156 0.8155 0.8153 0.8152 0.8146
1725.000000 0.8136 0.8126 0.8116 0.8106 0.8098
1730.000000 0.8096 0.8094 0.8092 0.8090 0.8087
1735.000000 0.8080 0.8073 0.8065 0.8058 0.8051
1740.000000 0.8043 0.8034 0.8026 0.8017 0.8010
1745.000000 0.8006 0.8002 0.8004 0.8010 0.8017
1750.000000 0.8030 0.8042 0.8056 0.8074 0.8092
1755.000000 0.8107 0.8123 0.8137 0.8136 0.8135
1760.000000 0.8133 0.8128 0.8122 0.8117 0.8113
1765.000000 0.8110 0.8107 0.8104 0.8102 0.8100
1770.000000 0.8099 0.8097 0.8095 0.8093 0.8091
1775.000000 0.8089 0.8087 0.8085 0.8083 0.8082
1780.000000 0.8083 0.8084 0.8084 0.8085 0.8086
1785.000000 0.8086 0.8087 0.8088 0.8087 0.8085
1790.000000 0.8083 0.8081 0.8079 0.8077 0.8074
1795.000000 0.8072 0.8070 0.8067 0.8064 0.8061
1800.000000 0.8058 0.8055 0.8052 0.8050 0.8049
1805.000000 0.8048 0.8047 0.8046 0.8045 0.8044
1810.000000 0.8043 0.8042 0.8040 0.8036 0.8031
1815.000000 0.8026 0.8022 0.8017 0.8012 0.8011
1820.000000 0.8010 0.8010 0.8009 0.8008 0.8007
1825.000000 0.8007 0.8005 0.8002 0.8000 0.7997
1830.000000 0.7994 0.7992 0.7989 0.7990 0.7991
1835.000000 0.7992 0.7992 0.7993 0.7994 0.7995
1840.000000 0.7997 0.7998 0.8000 0.8001 0.8003
1845.000000 0.8004 0.8006 0.8007 0.8008 0.8011
1850.000000 0.8013 0.8015 0.8017 0.8019 0.8022
1855.000000 0.8024 0.8026 0.8027 0.8028 0.8029
1860.000000 0.8030 0.8031 0.8032 0.8033 0.8034
1865.000000 0.8035 0.8036 0.8037 0.8038 0.8038
1870.000000 0.8039 0.8040 0.8040 0.8041 0.8042
1875.000000 0.8042 0.8042 0.8042 0.8041 0.8041
1880.000000 0.8040 0.8040 0.8039 0.8038 0.8038
1885.000000 0.8037 0.8036 0.8035 0.8035 0.8034
1890.000000 0.8033 0.8032 0.8031 0.8030 0.8029
1895.000000 0.8028 0.8025 0.8022 0.8019 0.8016
1900.000000 0.8014 0.8011 0.8008 0.8005 0.8002
1905.000000 0.7999 0.7996 0.7992 0.7989 0.7986
1910.000000 0.7982 0.7979 0.7976 0.7975 0.7974
1915.000000 0.7973 0.7972 0.7971 0.7971 0.7972
1920.000000 0.7977 0.7983 0.7988 0.7993 0.7999
1925.000000 0.8011 0.8022 0.8034 0.8042 0.8049
1930.000000 0.8055 0.8058 0.8061 0.8059 0.8055
1935.000000 0.8052 0.8048 0.8044 0.8040 0.8037
1940.000000 0.8033 0.8029 0.8025 0.8018 0.8011
1945.000000 0.8004 0.7997 0.7990 0.7984 0.7977
1950.000000 0.7970 0.7963 0.7957 0.7949 0.7941
1955.000000 0.7933 0.7925 0.7917 0.7909 0.7902
1960.000000 0.7895 0.7889 0.7883 0.7876 0.7870
1965.000000 0.7864 0.7857 0.7851 0.7845 0.7838
1970.000000 0.7832 0.7829 0.7827 0.7824 0.7822
1975.000000 0.7820 0.7818 0.7816 0.7813 0.7811
1980.000000 0.7810 0.7808 0.7807 0.7806 0.7805
1985.000000 0.7804 0.7803 0.7802 0.7800 0.7799
1990.000000 0.7798 0.7797 0.7796 0.7795 0.7794
1995.000000 0.7830 0.7790 0.7783 0.7754 0.7725
2000.000000 0.7699 0.7677 0.7656 0.7648 0.7640
2005.000000 0.7632 0.7624 0.7616 0.7609 0.7602
2010.000000 0.7595 0.7588 0.7582 0.7576 0.7571
2015.000000 0.7565 0.7560 0.7554 0.7549 0.7540
2020.000000 0.7532 0.7522 0.7513 0.7502 0.7491
2025.000000 0.7472 0.7454 0.7435 0.7417 0.7385
2030.000000 0.7353 0.7318 0.7283 0.7248 0.7213
2035.000000 0.7178 0.7143 0.7107 0.7072 0.7037
2040.000000 0.7002 0.6987 0.7002 0.6987 0.7002
2045.000000 0.7067 0.7133 0.7199 0.7265 0.7324
2050.000000 0.7384 0.7400 0.7416 0.7425 0.7435
2055.000000 0.7444 0.7453 0.7458 0.7463 0.7467
2060.000000 0.7472 0.7474 0.7476 0.7476 0.7468
2065.000000 0.7476 0.7476 0.7475 0.7474 0.7471
2070.000000 0.7469 0.7467 0.7465 0.7462 0.7460
2075.000000 0.7457 0.7455 0.7451 0.7448 0.7445
2080.000000 0.7442 0.7436 0.7431 0.7425 0.7419
2085.000000 0.7412 0.7406 0.7400 0.7394 0.7388
2090.000000 0.7382 0.7375 0.7368 0.7361 0.7355
2095.000000 0.7348 0.7342 0.7335 0.7329 0.7322
2100.000000 0.7316 0.7305 0.7295 0.7284 0.7274
2105.000000 0.7263 0.7253 0.7241 0.7230 0.7217
2110.000000 0.7204 0.7191 0.7178 0.7151 0.7124
2115.000000 0.7068 0.7013 0.6957 0.6902 0.6846
2120.000000 0.6791 0.6736 0.6681 0.6625 0.6570
2125.000000 0.6569 0.6554 0.6573 0.6579 0.6641
2130.000000 0.6703 0.6765 0.6827 0.6889 0.6952
2135.000000 0.7014 0.7076 0.7115 0.7154 0.7173
2140.000000 0.7192 0.7206 0.7222 0.7220 0.7221
2145.000000 0.7217 0.7213 0.7205 0.7198 0.7191
2150.000000 0.7184 0.7177 0.7170 0.7164 0.7159
2155.000000 0.7153 0.7147 0.7140 0.7134 0.7123
2160.000000 0.7113 0.7102 0.7092 0.7075 0.7059
2165.000000 0.7040 0.7021 0.7001 0.6982 0.6962
2170.000000 0.6942 0.6921 0.6900 0.6876 0.6853
2175.000000 0.6828 0.6803 0.6774 0.6745 0.6720
2180.000000 0.6695 0.6676 0.6657 0.6642 0.6627
2185.000000 0.6614 0.6602 0.6589 0.6577 0.6564
2190.000000 0.6552 0.6539 0.6526 0.6482 0.6439
2195.000000 0.6346 0.6254 0.6161 0.6068 0.5975
2200.000000 0.5883 0.5841 0.5799 0.5799 0.5799
2205.000000 0.5803 0.5803 0.5828 0.5849 0.5885
2210.000000 0.5922 0.5958 0.5994 0.6030 0.6067
2215.000000 0.6065 0.6064 0.6057 0.6061 0.6041
2220.000000 0.6032 0.6005 0.5978 0.5941 0.5905
2225.000000 0.5866 0.5827 0.5789 0.5751 0.5719
2230.000000 0.5688 0.5668 0.5648 0.5632 0.5617
2235.000000 0.5609 0.5602 0.5598 0.5595 0.5592
2240.000000 0.5590 0.5567 0.5545 0.5524 0.5503
2245.000000 0.5477 0.5452 0.5426 0.5401 0.5375
2250.000000 0.5349 0.5303 0.5258 0.5188 0.5119
2255.000000 0.4939 0.4759 0.4644 0.4530 0.4411
2260.000000 0.4293 0.4165 0.4037 0.3821 0.3606
2265.000000 0.3281 0.2957 0.2632 0.2308 0.1983
2270.000000 0.1658 0.1487 0.1317 0.1316 0.1315
2275.000000 0.1434 0.1553 0.2076 0.2600 0.3123
2280.000000 0.3647 0.4170 0.4694 0.4827 0.4961
2285.000000 0.4962 0.4964 0.4959 0.4964 0.4887
2290.000000 0.4821 0.4750 0.4679 0.4608 0.4537
2295.000000 0.4466 0.4396 0.4325 0.4254 0.4037
2300.000000 0.3820 0.3602 0.3385 0.3167 0.2950
2305.000000 0.2732 0.2514 0.2296 0.2079 0.1861
2310.000000 0.1644 0.1426 0.1209 0.1103 0.0983
2315.000000 0.1001 0.1006 0.1029 0.1053 0.1211
2320.000000 0.1370 0.1529 0.1688 0.1846 0.2005
2325.000000 0.2164 0.2323 0.2481 0.2640 0.2798
2330.000000 0.2957 0.3116 0.3275 0.3433 0.3592
2335.000000 0.3751 0.3910 0.4065 0.4221 0.4222
2340.000000 0.4224 0.4215 0.4207 0.4068 0.4225
2345.000000 0.3789 0.3650 0.3510 0.3371 0.3232
2350.000000 0.3093 0.2953 0.2814 0.2674 0.2535
2355.000000 0.2396 0.2257 0.2117 0.1978 0.1838
2360.000000 0.1699 0.1663 0.1627 0.1634 0.1629
2365.000000 0.1669 0.1698 0.1761 0.1824 0.1886
2370.000000 0.1949 0.1994 0.2040 0.2103 0.2167
2375.000000 0.2234 0.2302 0.2614 0.2927 0.3245
2380.000000 0.3564 0.3882 0.4200 0.4518 0.4837
2385.000000 0.5046 0.5255 0.5317 0.5379 0.5431
2390.000000 0.5484 0.5535 0.5587 0.5638 0.5690
2395.000000 0.5923 0.6157 0.6281 0.6406 0.6521
2400.000000 0.6637 0.6719 0.6802 0.6869 0.6937
2405.000000 0.6990 0.7044 0.7097 0.7151 0.7194
2410.000000 0.7238 0.7277 0.7316 0.7354 0.7393
2415.000000 0.7431 0.7469 0.7507 0.7545 0.7567
2420.000000 0.7590 0.7610 0.7630 0.7648 0.7667
2425.000000 0.7678 0.7689 0.7700 0.7711 0.7722
2430.000000 0.7733 0.7741 0.7749 0.7756 0.7793
2435.000000 0.7770 0.7778 0.7785 0.7792 0.7794
2440.000000 0.7797 0.7798 0.7800 0.7801 0.7803
2445.000000 0.7804 0.7806 0.7805 0.7804 0.7803
2450.000000 0.7802 0.7800 0.7799 0.7798 0.7797
2455.000000 0.7796 0.7795 0.7794 0.7794 0.7793
2460.000000 0.7792 0.7791 0.7791 0.7790 0.7790
2465.000000 0.7789 0.7788 0.7787 0.7787 0.7786
2470.000000 0.7785 0.7783 0.7782 0.7780 0.7779
2475.000000 0.7778 0.7777 0.7775 0.7774 0.7772
2480.000000 0.7771 0.7769 0.7768 0.7766 0.7764
2485.000000 0.7762 0.7760 0.7758 0.7756 0.7753
2490.000000 0.7751 0.7749 0.7747 0.7745 0.7743
2495.000000 0.7741 0.7739 0.7737 0.7735 0.7733
2500.000000 0.7731 0.7728 0.7726 0.7724 0.7722
2505.000000 0.7720 0.7718 0.7716 0.7714 0.7711
2510.000000 0.7709 0.7706 0.7703 0.7699 0.7696
2515.000000 0.7693 0.7690 0.7686 0.7683 0.7680
2520.000000 0.7677 0.7673 0.7670 0.7666 0.7663
2525.000000 0.7659 0.7656 0.7652 0.7648 0.7644
2530.000000 0.7641 0.7637 0.7634 0.7631 0.7629
2535.000000 0.7626 0.7623 0.7620 0.7617 0.7614
2540.000000 0.7612 0.7609 0.7606 0.7603 0.7600
2545.000000 0.7597 0.7595 0.7592 0.7589 0.7586
2550.000000 0.7584 0.7581 0.7578 0.7575 0.7572
2555.000000 0.7566 0.7560 0.7554 0.7548 0.7541
2560.000000 0.7535 0.7529 0.7523 0.7516 0.7510
2565.000000 0.7503 0.7496 0.7485 0.7475 0.7464
2570.000000 0.7453 0.7445 0.7437 0.7428 0.7420
2575.000000 0.7411 0.7403 0.7395 0.7387 0.7381
2580.000000 0.7375 0.7370 0.7366 0.7362 0.7358
2585.000000 0.7353 0.7349 0.7344 0.7340 0.7335
2590.000000 0.7331 0.7327 0.7324 0.7320 0.7317
2595.000000 0.7314 0.7311 0.7307 0.7304 0.7300
2600.000000 0.7297 0.7293 0.7290 0.7287 0.7284
2605.000000 0.7280 0.7277 0.7274 0.7272 0.7270
2610.000000 0.7269 0.7267 0.7266 0.7264 0.7263
2615.000000 0.7262 0.7261 0.7259 0.7258 0.7256
2620.000000 0.7255 0.7253 0.7252 0.7250 0.7249
2625.000000 0.7249 0.7249 0.7249 0.7250 0.7250
2630.000000 0.7251 0.7252 0.7253 0.7253 0.7254
2635.000000 0.7254 0.7255 0.7255 0.7256 0.7256
2640.000000 0.7257 0.7257 0.7258 0.7258 0.7259
2645.000000 0.7259 0.7260 0.7260 0.7261 0.7261
2650.000000 0.7261 0.7261 0.7262 0.7262 0.7263
2655.000000 0.7263 0.7264 0.7265 0.7266 0.7267
2660.000000 0.7268 0.7269 0.7270 0.7271 0.7272
2665.000000 0.7273 0.7275 0.7277 0.7279 0.7281
2670.000000 0.7283 0.7284 0.7286 0.7288 0.7290
2675.000000 0.7292 0.7294 0.7296 0.7298 0.7300
2680.000000 0.7302 0.7303 0.7305 0.7305 0.7305
2685.000000 0.7305 0.7305 0.7304 0.7304 0.7303
2690.000000 0.7303 0.7302 0.7302 0.7301 0.7301
2695.000000 0.7300 0.7300 0.7299 0.7298 0.7296
2700.000000 0.7295 0.7293 0.7292 0.7290 0.7289
2705.000000 0.7287 0.7286 0.7284 0.7283 0.7281
2710.000000 0.7280 0.7278 0.7277 0.7275 0.7274
2715.000000 0.7272 0.7270 0.7268 0.7267 0.7265
2720.000000 0.7264 0.7262 0.7260 0.7258 0.7257
2725.000000 0.7255 0.7254 0.7252 0.7250 0.7248
2730.000000 0.7247 0.7245 0.7243 0.7240 0.7237
2735.000000 0.7234 0.7231 0.7228 0.7225 0.7222
2740.000000 0.7219 0.7215 0.7212 0.7209 0.7206
2745.000000 0.7201 0.7197 0.7190 0.7183 0.7176
2750.000000 0.7170 0.7163 0.7157 0.7150 0.7144
2755.000000 0.7137 0.7131 0.7127 0.7123 0.7119
2760.000000 0.7116 0.7112 0.7108 0.7104 0.7101
2765.000000 0.7097 0.7094 0.7090 0.7087 0.7084
2770.000000 0.7082 0.7079 0.7077 0.7075 0.7073
2775.000000 0.7070 0.7068 0.7066 0.7064 0.7061
2780.000000 0.7059 0.7058 0.7057 0.7056 0.7055
2785.000000 0.7054 0.7053 0.7052 0.7051 0.7050
2790.000000 0.7050 0.7046 0.7043 0.7038 0.7033
2795.000000 0.7028 0.7024 0.7019 0.7014 0.7009
2800.000000 0.7004 0.6999 0.6994 0.6989 0.6984
2805.000000 0.6979 0.6975 0.6970 0.6965 0.6960
2810.000000 0.6955 0.6951 0.6947 0.6944 0.6942
2815.000000 0.6939 0.6937 0.6928 0.6919 0.6910
2820.000000 0.6902 0.6893 0.6884 0.6875 0.6867
2825.000000 0.6858 0.6849 0.6836 0.6824 0.6811
2830.000000 0.6798 0.6785 0.6772 0.6759 0.6746
2835.000000 0.6731 0.6717 0.6702 0.6688 0.6673
2840.000000 0.6658 0.6643 0.6628 0.6612 0.6597
2845.000000 0.6579 0.6561 0.6542 0.6524 0.6506
2850.000000 0.6488 0.6469 0.6450 0.6430 0.6410
2855.000000 0.6389 0.6369 0.6348 0.6328 0.6308
2860.000000 0.6288 0.6265 0.6243 0.6217 0.6192
2865.000000 0.6167 0.6142 0.6117 0.6092 0.6066
2870.000000 0.6041 0.6003 0.5965 0.5919 0.5873
2875.000000 0.5805 0.5738 0.5574 0.5411 0.5188
2880.000000 0.4965 0.4742 0.4520 0.4297 0.4075
2885.000000 0.3852 0.3630 0.3436 0.3242 0.3242
2890.000000 0.3246 0.3304 0.3366 0.3739 0.4113
2895.000000 0.4486 0.4860 0.5218 0.5577 0.5597
2900.000000 0.5618 0.5626 0.5634 0.5636 0.5639
2905.000000 0.5639 0.5655 0.5639 0.5638 0.5636
2910.000000 0.5634 0.5624 0.5614 0.5600 0.5586
2915.000000 0.5570 0.5554 0.5494 0.5435 0.5375
2920.000000 0.5316 0.5256 0.5197 0.5137 0.5078
2925.000000 0.5018 0.4959 0.4899 0.4839 0.4790
2930.000000 0.4742 0.4725 0.4709 0.4704 0.4699
2935.000000 0.4690 0.4681 0.4672 0.4664 0.4648
2940.000000 0.4633 0.4531 0.4429 0.4302 0.4176
2945.000000 0.4049 0.3923 0.3826 0.3730 0.3731
2950.000000 0.3732 0.3779 0.3729 0.3883 0.3940
2955.000000 0.3997 0.4054 0.4073 0.4093 0.4044
2960.000000 0.4078 0.3827 0.3659 0.3511 0.3363
2965.000000 0.3363 0.3363 0.3725 0.3352 0.4593
2970.000000 0.5099 0.5605 0.6111 0.6302 0.6494
2975.000000 0.6493 0.6492 0.6485 0.6507 0.6255
2980.000000 0.6032 0.5754 0.5476 0.5198 0.4921
2985.000000 0.4643 0.4366 0.4088 0.3811 0.3604
2990.000000 0.3397 0.3395 0.3393 0.3392 0.3391
2995.000000 0.4371 0.3378 0.6188 0.7025 0.7065
3000.000000 0.7106 0.7130 0.7154 0.7171 0.7196
3005.000000 0.7196 0.7203 0.7207 0.7212 0.7213
3010.000000 0.7214 0.7215 0.7216 0.7215 0.7215
3015.000000 0.7214 0.7213 0.7211 0.7210 0.7207
3020.000000 0.7205 0.7200 0.7196 0.7191 0.7187
3025.000000 0.7182 0.7178 0.7173 0.7169 0.7165
3030.000000 0.7162 0.7158 0.7155 0.7151 0.7148
3035.000000 0.7144 0.7141 0.7137 0.7133 0.7129
3040.000000 0.7126 0.7122 0.7119 0.7116 0.7113
3045.000000 0.7109 0.7106 0.7102 0.7099 0.7096
3050.000000 0.7093 0.7089 0.7086 0.7082 0.7079
3055.000000 0.7075 0.7072 0.7069 0.7067 0.7065
3060.000000 0.7063 0.7061 0.7059 0.7057 0.7055
3065.000000 0.7053 0.7051 0.7049 0.7047 0.7045
3070.000000 0.7043 0.7041 0.7039 0.7037 0.7036
3075.000000 0.7034 0.7032 0.7030 0.7028 0.7026
3080.000000 0.7024 0.7022 0.7020 0.7018 0.7017
3085.000000 0.7015 0.7014 0.7012 0.7011 0.7009
3090.000000 0.7007 0.7005 0.7004 0.7002 0.7001
3095.000000 0.6999 0.6998 0.6996 0.6995 0.6993
3100.000000 0.6991 0.6991 0.6992 0.6993 0.6994
3105.000000 0.6994 0.6995 0.6996 0.6997 0.6998
3110.000000 0.6999 0.7004 0.7010 0.7017 0.7024
3115.000000 0.7031 0.7038 0.7046 0.7054 0.7062
3120.000000 0.7070 0.7078 0.7087 0.7095 0.7104
3125.000000 0.7112 0.7121 0.7130 0.7139 0.7147
3130.000000 0.7156 0.7165 0.7174 0.7174 0.7175
3135.000000 0.7173 0.7171 0.7169 0.7167 0.7163
3140.000000 0.7160 0.7154 0.7148 0.7142 0.7137
3145.000000 0.7131 0.7125 0.7119 0.7114 0.7109
3150.000000 0.7104 0.7100 0.7097 0.7093 0.7090
3155.000000 0.7086 0.7083 0.7079 0.7076 0.7072
3160.000000 0.7069 0.7067 0.7065 0.7063 0.7061
3165.000000 0.7059 0.7058 0.7056 0.7055 0.7053
3170.000000 0.7052 0.7050 0.7048 0.7046 0.7045
3175.000000 0.7043 0.7042 0.7041 0.7040 0.7039
3180.000000 0.7038 0.7037 0.7036 0.7035 0.7034
3185.000000 0.7033 0.7032 0.7031 0.7030 0.7029
3190.000000 0.7028 0.7027 0.7026 0.7025 0.7024
3195.000000 0.7023 0.7022 0.7021 0.7020 0.7019
3200.000000 0.7018 0.7016 0.7015 0.7013 0.7012
3205.000000 0.7010 0.7009 0.7007 0.7006 0.7004
3210.000000 0.7003 0.7001 0.7000 0.6998 0.6996
3215.000000 0.6994 0.6993 0.6991 0.6990 0.6988
3220.000000 0.6987 0.6985 0.6984 0.6982 0.6981
3225.000000 0.6979 0.6978 0.6976 0.6975 0.6973
3230.000000 0.6971 0.6969 0.6968 0.6966 0.6965
3235.000000 0.6963 0.6961 0.6959 0.6958 0.6956
3240.000000 0.6955 0.6953 0.6951 0.6949 0.6948
3245.000000 0.6946 0.6945 0.6943 0.6941 0.6939
3250.000000 0.6938 0.6936 0.6935 0.6933 0.6931
3255.000000 0.6929 0.6928 0.6926 0.6925 0.6923
3260.000000 0.6921 0.6919 0.6918 0.6916 0.6915
3265.000000 0.6913 0.6911 0.6909 0.6908 0.6906
3270.000000 0.6905 0.6903 0.6901 0.6899 0.6898
3275.000000 0.6896 0.6894 0.6892 0.6891 0.6889
3280.000000 0.6887 0.6885 0.6883 0.6881 0.6880
3285.000000 0.6878 0.6876 0.6874 0.6873 0.6871
3290.000000 0.6869 0.6867 0.6866 0.6864 0.6862
3295.000000 0.6860 0.6858 0.6856 0.6855 0.6853
3300.000000 0.6851 0.6849 0.6848 0.6846 0.6844
3305.000000 0.6841 0.6839 0.6835 0.6832 0.6828
3310.000000 0.6825 0.6821 0.6818 0.6814 0.6811
3315.000000 0.6807 0.6804 0.6800 0.6796 0.6792
3320.000000 0.6789 0.6785 0.6782 0.6778 0.6775
3325.000000 0.6771 0.6768 0.6764 0.6761 0.6758
3330.000000 0.6756 0.6755 0.6755 0.6757 0.6760
3335.000000 0.6762 0.6764 0.6766 0.6769 0.6771
3340.000000 0.6774 0.6776 0.6778 0.6780 0.6783
3345.000000 0.6785 0.6788 0.6788 0.6788 0.6786
3350.000000 0.6785 0.6783 0.6782 0.6780 0.6778
3355.000000 0.6776 0.6775 0.6773 0.6771 0.6768
3360.000000 0.6765 0.6762 0.6759 0.6756 0.6753
3365.000000 0.6750 0.6747 0.6744 0.6741 0.6738
3370.000000 0.6735 0.6732 0.6729 0.6726 0.6723
3375.000000 0.6720 0.6717 0.6713 0.6710 0.6706
3380.000000 0.6702 0.6698 0.6694 0.6690 0.6687
3385.000000 0.6683 0.6679 0.6675 0.6671 0.6667
3390.000000 0.6664 0.6660 0.6656 0.6652 0.6648
3395.000000 0.6644 0.6640 0.6636 0.6633 0.6628
3400.000000 0.6623 0.6617 0.6611 0.6605 0.6599
3405.000000 0.6593 0.6587 0.6581 0.6575 0.6569
3410.000000 0.6563 0.6557 0.6552 0.6549 0.6546
3415.000000 0.6543 0.6541 0.6539 0.6537 0.6537
3420.000000 0.6538 0.6539 0.6541 0.6542 0.6544
3425.000000 0.6545 0.6547 0.6549 0.6551 0.6554
3430.000000 0.6558 0.6561 0.6564 0.6567 0.6570
3435.000000 0.6573 0.6576 0.6579 0.6582 0.6585
3440.000000 0.6588 0.6590 0.6593 0.6596 0.6599
3445.000000 0.6602 0.6605 0.6608 0.6611 0.6613
3450.000000 0.6616 0.6617 0.6618 0.6618 0.6619
3455.000000 0.6620 0.6621 0.6621 0.6622 0.6623
3460.000000 0.6624 0.6624 0.6625 0.6626 0.6627
3465.000000 0.6627 0.6628 0.6629 0.6630 0.6629
3470.000000 0.6629 0.6628 0.6627 0.6626 0.6625
3475.000000 0.6624 0.6624 0.6623 0.6622 0.6621
3480.000000 0.6620 0.6619 0.6619 0.6618 0.6617
3485.000000 0.6616 0.6615 0.6614 0.6614 0.6613
3490.000000 0.6612 0.6611 0.6611 0.6610 0.6609
3495.000000 0.6608 0.6607 0.6606 0.6606 0.6605
3500.000000 0.6604 0.6603 0.6602 0.6601 0.6601
3505.000000 0.6600 0.6599 0.6598 0.6597 0.6596
3510.000000 0.6596 0.6595 0.6594 0.6593 0.6592
3515.000000 0.6591 0.6591 0.6590 0.6589 0.6588
3520.000000 0.6588 0.6587 0.6586 0.6585 0.6584
3525.000000 0.6583 0.6583 0.6582 0.6581 0.6580
3530.000000 0.6579 0.6578 0.6578 0.6577 0.6576
3535.000000 0.6575 0.6574 0.6572 0.6571 0.6570
3540.000000 0.6569 0.6568 0.6567 0.6566 0.6565
3545.000000 0.6564 0.6563 0.6562 0.6561 0.6560
3550.000000 0.6559 0.6558 0.6557 0.6555 0.6554
3555.000000 0.6553 0.6552 0.6551 0.6550 0.6549
3560.000000 0.6548 0.6547 0.6546 0.6545 0.6544
3565.000000 0.6543 0.6542 0.6541 0.6540 0.6538
3570.000000 0.6537 0.6536 0.6535 0.6534 0.6533
3575.000000 0.6532 0.6531 0.6530 0.6529 0.6527
3580.000000 0.6526 0.6525 0.6524 0.6523 0.6522
3585.000000 0.6521 0.6520 0.6519 0.6518 0.6517
3590.000000 0.6516 0.6514 0.6513 0.6512 0.6511
3595.000000 0.6510 0.6509 0.6508 0.6507 0.6506
3600.000000 0.6505 0.6503 0.6502 0.6501 0.6500
3605.000000 0.6499 0.6498 0.6497 0.6496 0.6495
3610.000000 0.6494 0.6493 0.6492 0.6490 0.6489
3615.000000 0.6488 0.6487 0.6486 0.6485 0.6484
3620.000000 0.6483 0.6482 0.6481 0.6480 0.6479
3625.000000 0.6478 0.6477 0.6476 0.6475 0.6474
3630.000000 0.6473 0.6472 0.6471 0.6470 0.6470
3635.000000 0.6469 0.6468 0.6467 0.6466 0.6465
3640.000000 0.6464 0.6463 0.6462 0.6461 0.6460
3645.000000 0.6459 0.6458 0.6457 0.6456 0.6455
3650.000000 0.6454 0.6453 0.6453 0.6452 0.6451
3655.000000 0.6450 0.6449 0.6448 0.6447 0.6446
3660.000000 0.6445 0.6444 0.6443 0.6442 0.6441
3665.000000 0.6440 0.6439 0.6438 0.6438 0.6437
3670.000000 0.6436 0.6435 0.6435 0.6434 0.6433
3675.000000 0.6432 0.6432 0.6431 0.6430 0.6429
3680.000000 0.6429 0.6428 0.6427 0.6426 0.6426
3685.000000 0.6425 0.6424 0.6423 0.6422 0.6421
3690.000000 0.6421 0.6420 0.6419 0.6418 0.6418
3695.000000 0.6417 0.6416 0.6415 0.6415 0.6414
3700.000000 0.6413 0.6412 0.6411 0.6410 0.6409
3705.000000 0.6407 0.6406 0.6404 0.6403 0.6401
3710.000000 0.6400 0.6399 0.6398 0.6396 0.6395
3715.000000 0.6393 0.6392 0.6390 0.6389 0.6388
3720.000000 0.6387 0.6385 0.6384 0.6382 0.6381
3725.000000 0.6379 0.6378 0.6375 0.6372 0.6368
3730.000000 0.6364 0.6360 0.6356 0.6352 0.6348
3735.000000 0.6344 0.6340 0.6336 0.6332 0.6328
3740.000000 0.6324 0.6320 0.6316 0.6312 0.6308
3745.000000 0.6304 0.6300 0.6297 0.6295 0.6292
3750.000000 0.6290 0.6287 0.6285 0.6282 0.6280
3755.000000 0.6278 0.6276 0.6273 0.6271 0.6268
3760.000000 0.6266 0.6263 0.6261 0.6258 0.6256
3765.000000 0.6255 0.6255 0.6254 0.6253 0.6252
3770.000000 0.6252 0.6251 0.6250 0.6251 0.6252
3775.000000 0.6253 0.6255 0.6256 0.6258 0.6260
3780.000000 0.6262 0.6263 0.6265 0.6266 0.6268
3785.000000 0.6269 0.6271 0.6272 0.6274 0.6274
3790.000000 0.6274 0.6273 0.6273 0.6272 0.6272
3795.000000 0.6271 0.6271 0.6270 0.6270 0.6269
3800.000000 0.6269 0.6268 0.6267 0.6266 0.6266
3805.000000 0.6265 0.6264 0.6263 0.6262 0.6260
3810.000000 0.6259 0.6257 0.6256 0.6254 0.6252
3815.000000 0.6250 0.6249 0.6247 0.6245 0.6243
3820.000000 0.6242 0.6240 0.6238 0.6237 0.6237
##END=
