##TITLE=POTASSIUM SULFITE
$$ C.P.
##JCAMP-DX=4.24
##DATA TYPE=INFRARED SPECTRUM
##CLASS=COBLENTZ
##ORIGIN=MELLON INSTITUTE
##OWNER=COBLENTZ SOCIETY
Collection (C) 2018 copyright by the U.S. Secretary of Commerce
on behalf of the United States of America. All rights reserved.
##DATE=Not specified, most likely prior to 1970
##MOLFORM=K2 S O3  * 2 H2 O
##SOURCE REFERENCE=COBLENTZ NO. 565
##$NIST ID=B6000565
##$NIST SOURCE=COBLENTZ
##$NIST IMAGE=cob565
##SPECTROMETER/DATA SYSTEM=Not specified, most likely a prism, grating, or hybrid spectrometer.
##STATE=SOLID (NUJOL MULL)
##PATH LENGTH=
$$SPECTRAL CONTAMINATION DUE TO OIL AROUND 2900, 1450, 1380 CM^-^1
##SAMPLING PROCEDURE=TRANSMISSION
##RESOLUTION=4
##DATA PROCESSING=DIGITIZED BY NIST FROM HARD COPY
##XUNITS=MICROMETERS
##YUNITS=TRANSMITTANCE
##XFACTOR=1.000000
##YFACTOR=1
##DELTAX=000.006659
##FIRSTX=2.041
##LASTX=15.9846
##FIRSTY=0.929
##MAXX=15.9846
##MINX=2.041
##MAXY=0.968
##MINY=0.051
##NPOINTS=2095
##XYDATA=(X++(Y..Y))
2.041000 0.9290 0.9290 0.9290 0.9280 0.9290
2.074309 0.9290 0.9310 0.9310 0.9310 0.9290
2.108000 0.9280 0.9280 0.9280 0.9280 0.9280
2.141309 0.9280 0.9280 0.9280 0.9280 0.9280
2.174000 0.9280 0.9280 0.9280 0.9280 0.9280
2.207309 0.9280 0.9260 0.9260 0.9260 0.9260
2.241000 0.9240 0.9240 0.9230 0.9210 0.9180
2.274309 0.9140 0.9110 0.9080 0.9040 0.9030
2.308000 0.9030 0.9030 0.9030 0.9030 0.9030
2.341309 0.9030 0.9030 0.9030 0.9030 0.9030
2.374000 0.9030 0.9030 0.9030 0.9040 0.9040
2.407309 0.9060 0.9060 0.9060 0.9060 0.9060
2.441000 0.9040 0.9090 0.9110 0.9130 0.9140
2.474309 0.9160 0.9160 0.9160 0.9140 0.9110
2.507000 0.9110 0.9130 0.9130 0.9130 0.9130
2.540309 0.9130 0.9130 0.9130 0.9130 0.9130
2.574000 0.9110 0.9110 0.9140 0.9140 0.9180
2.607309 0.9190 0.9210 0.9240 0.9240 0.9190
2.640000 0.9110 0.9090 0.9090 0.9110 0.9130
2.673309 0.9140 0.9140 0.9160 0.9180 0.9130
2.707000 0.9090 0.9040 0.9030 0.8970 0.8920
2.740309 0.8890 0.8820 0.8790 0.8720 0.8670
2.774000 0.8590 0.8540 0.8490 0.8410 0.8320
2.807309 0.8220 0.8110 0.8020 0.7990 0.7870
2.840000 0.7790 0.7700 0.7650 0.7590 0.7540
2.873309 0.7500 0.7490 0.7470 0.7440 0.7420
2.907000 0.7400 0.7390 0.7350 0.7340 0.7340
2.940309 0.7340 0.7350 0.7350 0.7390 0.7390
2.973000 0.7400 0.7420 0.7450 0.7490 0.7520
3.006309 0.7570 0.7600 0.7640 0.7670 0.7690
3.040000 0.7700 0.7740 0.7750 0.7790 0.7820
3.073309 0.7850 0.7890 0.7900 0.7940 0.7950
3.107000 0.8010 0.8020 0.8040 0.8060 0.8090
3.140309 0.8110 0.8140 0.8160 0.8190 0.8220
3.173000 0.8240 0.8240 0.8260 0.8290 0.8310
3.206309 0.8320 0.8340 0.8360 0.8360 0.8360
3.240000 0.8340 0.8340 0.8310 0.8270 0.8240
3.273309 0.8210 0.8090 0.8020 0.7920 0.7640
3.306000 0.6870 0.6080 0.5430 0.4760 0.3440
3.339309 0.2890 0.2320 0.1600 0.1500 0.1280
3.373000 0.0900 0.0900 0.1100 0.1300 0.1550
3.406309 0.1900 0.2340 0.2700 0.2700 0.2500
3.439000 0.2470 0.2440 0.2290 0.2250 0.2270
3.472309 0.3170 0.4130 0.4610 0.5550 0.6580
3.506000 0.6870 0.7090 0.7440 0.7920 0.8010
3.539309 0.8170 0.8310 0.8420 0.8510 0.8590
3.573000 0.8640 0.8710 0.8740 0.8810 0.8840
3.606309 0.8870 0.8910 0.8920 0.8920 0.8920
3.639000 0.8920 0.8920 0.8920 0.8940 0.8940
3.672309 0.8940 0.8940 0.8960 0.8960 0.8970
3.706000 0.8990 0.8970 0.8990 0.8990 0.8990
3.739309 0.8990 0.8990 0.8990 0.8990 0.9010
3.772000 0.9010 0.9010 0.9010 0.9010 0.9010
3.805309 0.9030 0.9040 0.9040 0.9040 0.9060
3.839000 0.9080 0.9090 0.9090 0.9110 0.9130
3.872309 0.9130 0.9130 0.9140 0.9140 0.9140
3.906000 0.9160 0.9160 0.9180 0.9190 0.9190
3.939309 0.9210 0.9210 0.9210 0.9230 0.9230
3.972000 0.9240 0.9240 0.9240 0.9260 0.9260
4.005309 0.9260 0.9260 0.9280 0.9260 0.9260
4.039000 0.9260 0.9260 0.9260 0.9260 0.9260
4.072309 0.9260 0.9260 0.9280 0.9280 0.9280
4.105000 0.9280 0.9260 0.9260 0.9260 0.9260
4.138309 0.9260 0.9260 0.9260 0.9260 0.9240
4.172000 0.9240 0.9230 0.9190 0.9180 0.9130
4.205309 0.9090 0.9040 0.9010 0.8990 0.8960
4.238000 0.8920 0.8920 0.8920 0.8920 0.8910
4.271309 0.8910 0.8910 0.8890 0.8890 0.8890
4.305000 0.8870 0.8870 0.8890 0.8890 0.8890
4.338309 0.8910 0.8940 0.8940 0.8970 0.8990
4.372000 0.9010 0.9040 0.9060 0.9060 0.9090
4.405309 0.9110 0.9130 0.9130 0.9130 0.9130
4.438000 0.9130 0.9130 0.9130 0.9130 0.9110
4.471309 0.9110 0.9110 0.9110 0.9110 0.9110
4.505000 0.9110 0.9110 0.9110 0.9110 0.9110
4.538309 0.9110 0.9110 0.9110 0.9110 0.9110
4.571000 0.9110 0.9110 0.9130 0.9110 0.9110
4.604309 0.9090 0.9090 0.9080 0.9060 0.9080
4.638000 0.9080 0.9040 0.9040 0.9040 0.9040
4.671309 0.9040 0.9040 0.9030 0.9030 0.9030
4.705000 0.9030 0.9030 0.9040 0.9030 0.9030
4.738309 0.9030 0.9030 0.9030 0.9030 0.9030
4.771000 0.9030 0.9030 0.9010 0.9010 0.9010
4.804309 0.9010 0.9010 0.9010 0.9010 0.9010
4.838000 0.9030 0.9030 0.9030 0.9040 0.9040
4.871309 0.9040 0.9040 0.9060 0.9110 0.9110
4.904000 0.9130 0.9130 0.9140 0.9140 0.9140
4.937309 0.9140 0.9160 0.9160 0.9180 0.9180
4.971000 0.9190 0.9190 0.9210 0.9210 0.9230
5.004309 0.9240 0.9240 0.9260 0.9260 0.9260
5.038000 0.9280 0.9260 0.9260 0.9260 0.9260
5.071309 0.9260 0.9260 0.9260 0.9260 0.9260
5.104000 0.9240 0.9240 0.9230 0.9230 0.9210
5.137309 0.9210 0.9190 0.9190 0.9180 0.9160
5.171000 0.9160 0.9140 0.9130 0.9130 0.9110
5.204309 0.9110 0.9090 0.9080 0.9060 0.9040
5.237000 0.9040 0.9040 0.9040 0.9040 0.9030
5.270309 0.9030 0.9010 0.9010 0.9010 0.9010
5.304000 0.9010 0.9010 0.9010 0.9010 0.9010
5.337309 0.9010 0.9030 0.9040 0.9060 0.9090
5.370000 0.9130 0.9140 0.9140 0.9160 0.9180
5.403309 0.9180 0.9180 0.9190 0.9190 0.9210
5.437000 0.9230 0.9230 0.9240 0.9260 0.9260
5.470309 0.9280 0.9280 0.9290 0.9310 0.9310
5.504000 0.9330 0.9330 0.9340 0.9340 0.9340
5.537309 0.9340 0.9340 0.9340 0.9360 0.9380
5.570000 0.9380 0.9390 0.9390 0.9410 0.9440
5.603309 0.9440 0.9430 0.9430 0.9430 0.9440
5.637000 0.9440 0.9440 0.9460 0.9460 0.9460
5.670309 0.9460 0.9460 0.9460 0.9460 0.9460
5.703000 0.9480 0.9490 0.9490 0.9490 0.9490
5.736309 0.9510 0.9510 0.9460 0.9480 0.9490
5.770000 0.9490 0.9490 0.9490 0.9490 0.9490
5.803309 0.9510 0.9510 0.9530 0.9530 0.9510
5.837000 0.9510 0.9490 0.9460 0.9490 0.9510
5.870309 0.9510 0.9510 0.9490 0.9480 0.9430
5.903000 0.9430 0.9440 0.9440 0.9460 0.9460
5.936309 0.9480 0.9440 0.9430 0.9430 0.9410
5.970000 0.9410 0.9390 0.9390 0.9390 0.9380
6.003309 0.9360 0.9340 0.9330 0.9330 0.9330
6.036000 0.9310 0.9310 0.9290 0.9290 0.9280
6.069309 0.9280 0.9280 0.9280 0.9290 0.9290
6.103000 0.9310 0.9330 0.9340 0.9340 0.9360
6.136309 0.9380 0.9390 0.9390 0.9390 0.9390
6.169000 0.9430 0.9440 0.9460 0.9490 0.9530
6.202309 0.9540 0.9540 0.9540 0.9540 0.9560
6.236000 0.9590 0.9610 0.9630 0.9640 0.9660
6.269309 0.9660 0.9660 0.9660 0.9640 0.9640
6.303000 0.9640 0.9640 0.9640 0.9640 0.9630
6.336309 0.9610 0.9560 0.9560 0.9560 0.9560
6.369000 0.9560 0.9560 0.9590 0.9560 0.9540
6.402309 0.9530 0.9490 0.9480 0.9490 0.9510
6.436000 0.9530 0.9540 0.9540 0.9560 0.9590
6.469309 0.9610 0.9610 0.9630 0.9630 0.9610
6.502000 0.9610 0.9610 0.9610 0.9590 0.9580
6.535309 0.9580 0.9560 0.9560 0.9580 0.9590
6.569000 0.9610 0.9640 0.9680 0.9640 0.9640
6.602309 0.9610 0.9610 0.9590 0.9560 0.9560
6.636000 0.9590 0.9630 0.9640 0.9640 0.9660
6.669309 0.9660 0.9640 0.9640 0.9610 0.9560
6.702000 0.9530 0.9530 0.9510 0.9490 0.9440
6.735309 0.9380 0.9140 0.8990 0.8720 0.8710
6.769000 0.8440 0.8270 0.8020 0.7650 0.7270
6.802309 0.6880 0.6750 0.6400 0.6200 0.6050
6.835000 0.6000 0.5950 0.5930 0.5950 0.5980
6.868309 0.6000 0.6070 0.6130 0.6200 0.6330
6.902000 0.6480 0.6630 0.6820 0.6920 0.7100
6.935309 0.7200 0.7340 0.7490 0.7720 0.7890
6.969000 0.7940 0.8140 0.8310 0.8420 0.8540
7.002309 0.8640 0.8660 0.8710 0.8720 0.8720
7.035000 0.8760 0.8770 0.8810 0.8920 0.8990
7.068309 0.9030 0.9060 0.9090 0.9140 0.9190
7.102000 0.9210 0.9240 0.9240 0.9240 0.9260
7.135309 0.9260 0.9260 0.9260 0.9240 0.9190
7.168000 0.9090 0.9010 0.8890 0.8660 0.8510
7.201309 0.8290 0.8110 0.7900 0.7700 0.7650
7.235000 0.7570 0.7550 0.7570 0.7600 0.7650
7.268309 0.7720 0.7820 0.7870 0.7920 0.7990
7.301000 0.8010 0.8110 0.8190 0.8310 0.8360
7.334309 0.8420 0.8490 0.8520 0.8560 0.8610
7.368000 0.8660 0.8670 0.8710 0.8760 0.8810
7.401309 0.8840 0.8890 0.8910 0.8910 0.8920
7.435000 0.8940 0.8960 0.8990 0.9030 0.9040
7.468309 0.9080 0.9090 0.9130 0.9140 0.9180
7.501000 0.9190 0.9190 0.9210 0.9230 0.9240
7.534309 0.9240 0.9260 0.9260 0.9260 0.9260
7.568000 0.9280 0.9260 0.9260 0.9260 0.9280
7.601309 0.9260 0.9260 0.9260 0.9240 0.9240
7.634000 0.9240 0.9240 0.9240 0.9240 0.9240
7.667309 0.9240 0.9240 0.9240 0.9240 0.9240
7.701000 0.9240 0.9240 0.9240 0.9240 0.9240
7.734309 0.9240 0.9240 0.9240 0.9240 0.9240
7.768000 0.9230 0.9230 0.9210 0.9190 0.9190
7.801309 0.9190 0.9180 0.9180 0.9180 0.9160
7.834000 0.9140 0.9140 0.9130 0.9130 0.9130
7.867309 0.9110 0.9090 0.9080 0.9060 0.9040
7.901000 0.9040 0.9030 0.8990 0.8990 0.8960
7.934309 0.8920 0.8890 0.8890 0.8870 0.8860
7.967000 0.8820 0.8820 0.8790 0.8740 0.8690
8.000309 0.8670 0.8660 0.8610 0.8590 0.8560
8.034000 0.8510 0.8490 0.8410 0.8370 0.8320
8.067309 0.8290 0.8270 0.8240 0.8190 0.8120
8.100000 0.8060 0.8010 0.7990 0.7890 0.7770
8.133309 0.7640 0.7570 0.7490 0.7440 0.7300
8.167000 0.7150 0.7070 0.6980 0.6800 0.6580
8.200309 0.6400 0.6150 0.5900 0.5700 0.5500
8.234000 0.5260 0.5080 0.4890 0.4740 0.4490
8.267309 0.4410 0.4280 0.4090 0.3920 0.3670
8.300000 0.3520 0.3290 0.2990 0.2870 0.2770
8.333309 0.2640 0.2570 0.2520 0.2470 0.2420
8.367000 0.2320 0.2250 0.2220 0.2220 0.2140
8.400309 0.2100 0.2040 0.1980 0.1820 0.1800
8.433000 0.1770 0.1770 0.1730 0.1720 0.1700
8.466309 0.1700 0.1680 0.1680 0.1670 0.1650
8.500000 0.1650 0.1650 0.1650 0.1650 0.1650
8.533309 0.1670 0.1670 0.1700 0.1720 0.1750
8.567000 0.1780 0.1830 0.1880 0.1920 0.1980
8.600309 0.1980 0.2000 0.2000 0.2020 0.2020
8.633000 0.2020 0.2020 0.2020 0.2000 0.2000
8.666309 0.1980 0.1980 0.1970 0.1930 0.1900
8.700000 0.1850 0.1820 0.1780 0.1720 0.1670
8.733309 0.1620 0.1570 0.1530 0.1500 0.1450
8.766000 0.1380 0.1370 0.1350 0.1300 0.1270
8.799309 0.1220 0.1180 0.1170 0.1150 0.1120
8.833000 0.1080 0.1030 0.1020 0.1000 0.0960
8.866309 0.0930 0.0910 0.0880 0.0860 0.0850
8.900000 0.0830 0.0810 0.0800 0.0780 0.0760
8.933309 0.0760 0.0750 0.0730 0.0730 0.0710
8.966000 0.0710 0.0700 0.0700 0.0680 0.0680
8.999309 0.0660 0.0650 0.0650 0.0630 0.0630
9.033000 0.0630 0.0610 0.0600 0.0600 0.0580
9.066309 0.0580 0.0580 0.0580 0.0580 0.0580
9.099000 0.0580 0.0600 0.0610 0.0610 0.0630
9.132309 0.0650 0.0660 0.0660 0.0700 0.0710
9.166000 0.0730 0.0760 0.0830 0.0950 0.1030
9.199309 0.1120 0.1230 0.1400 0.1520 0.1720
9.232000 0.1820 0.2020 0.2120 0.2290 0.2470
9.265309 0.2740 0.3020 0.3240 0.3360 0.3470
9.299000 0.3590 0.3760 0.3970 0.4060 0.4240
9.332309 0.4390 0.4580 0.4790 0.5100 0.5260
9.366000 0.5330 0.5410 0.5550 0.5660 0.5730
9.399309 0.5810 0.5880 0.5980 0.6000 0.6080
9.432000 0.6120 0.6170 0.6220 0.6250 0.6300
9.465309 0.6330 0.6380 0.6430 0.6480 0.6500
9.499000 0.6530 0.6580 0.6600 0.6630 0.6650
9.532309 0.6680 0.6700 0.6720 0.6730 0.6750
9.565000 0.6770 0.6780 0.6800 0.6800 0.6800
9.598309 0.6800 0.6800 0.6800 0.6780 0.6780
9.632000 0.6770 0.6730 0.6720 0.6680 0.6630
9.665309 0.6570 0.6520 0.6480 0.6470 0.6400
9.699000 0.6330 0.6270 0.6150 0.6070 0.6000
9.732309 0.5980 0.5810 0.5710 0.5600 0.5480
9.765000 0.5310 0.5200 0.5100 0.5030 0.4960
9.798309 0.4790 0.4590 0.4460 0.4310 0.4130
9.832000 0.3970 0.3810 0.3640 0.3470 0.3320
9.865309 0.3160 0.3090 0.3010 0.2870 0.2770
9.898000 0.2690 0.2590 0.2520 0.2440 0.2320
9.931309 0.2220 0.2120 0.2000 0.1970 0.1850
9.965000 0.1800 0.1780 0.1770 0.1700 0.1620
9.998309 0.1530 0.1480 0.1470 0.1430 0.1400
10.031000 0.1370 0.1330 0.1320 0.1280 0.1270
10.064309 0.1230 0.1200 0.1180 0.1150 0.1130
10.098000 0.1120 0.1080 0.1070 0.1030 0.1020
10.131309 0.1020 0.1000 0.0980 0.0960 0.0930
10.165000 0.0910 0.0910 0.0900 0.0880 0.0860
10.198309 0.0850 0.0850 0.0830 0.0810 0.0800
10.231000 0.0800 0.0800 0.0780 0.0780 0.0760
10.264309 0.0760 0.0750 0.0730 0.0730 0.0710
10.298000 0.0710 0.0710 0.0700 0.0700 0.0680
10.331309 0.0680 0.0660 0.0660 0.0650 0.0650
10.364000 0.0630 0.0630 0.0610 0.0610 0.0610
10.397309 0.0610 0.0610 0.0610 0.0600 0.0600
10.431000 0.0580 0.0580 0.0580 0.0580 0.0580
10.464309 0.0560 0.0560 0.0580 0.0560 0.0560
10.498000 0.0560 0.0560 0.0560 0.0550 0.0550
10.531309 0.0550 0.0530 0.0530 0.0530 0.0530
10.564000 0.0510 0.0510 0.0510 0.0510 0.0530
10.597309 0.0530 0.0530 0.0530 0.0530 0.0550
10.631000 0.0560 0.0580 0.0610 0.0650 0.0680
10.664309 0.0700 0.0750 0.0800 0.0860 0.0980
10.697000 0.1070 0.1130 0.1220 0.1320 0.1400
10.730309 0.1500 0.1620 0.1700 0.1870 0.2020
10.764000 0.2170 0.2370 0.2690 0.2790 0.2990
10.797309 0.3160 0.3370 0.3540 0.3590 0.3770
10.831000 0.3970 0.4090 0.4330 0.4490 0.4580
10.864309 0.4680 0.4810 0.4960 0.5210 0.5350
10.897000 0.5460 0.5530 0.5580 0.5680 0.5810
10.930309 0.5950 0.5980 0.6030 0.6130 0.6200
10.964000 0.6270 0.6350 0.6420 0.6500 0.6570
10.997309 0.6620 0.6770 0.6830 0.6900 0.6980
11.030000 0.7000 0.7070 0.7140 0.7250 0.7290
11.063309 0.7350 0.7420 0.7420 0.7490 0.7590
11.097000 0.7600 0.7640 0.7690 0.7720 0.7740
11.130309 0.7770 0.7790 0.7800 0.7820 0.7840
11.163000 0.7870 0.7920 0.7970 0.7990 0.8010
11.196309 0.8040 0.8060 0.8060 0.8070 0.8090
11.230000 0.8090 0.8120 0.8140 0.8140 0.8160
11.263309 0.8170 0.8170 0.8190 0.8190 0.8210
11.297000 0.8220 0.8240 0.8260 0.8290 0.8340
11.330309 0.8360 0.8390 0.8410 0.8420 0.8440
11.363000 0.8470 0.8470 0.8510 0.8510 0.8520
11.396309 0.8520 0.8540 0.8540 0.8560 0.8570
11.430000 0.8590 0.8610 0.8620 0.8620 0.8640
11.463309 0.8640 0.8640 0.8670 0.8690 0.8690
11.496000 0.8710 0.8720 0.8720 0.8740 0.8760
11.529309 0.8770 0.8770 0.8790 0.8810 0.8810
11.563000 0.8820 0.8840 0.8840 0.8860 0.8870
11.596309 0.8890 0.8890 0.8890 0.8870 0.8890
11.630000 0.8890 0.8890 0.8890 0.8890 0.8890
11.663309 0.8910 0.8910 0.8920 0.8920 0.8920
11.696000 0.8940 0.8960 0.8970 0.8970 0.8990
11.729309 0.8990 0.9010 0.9010 0.9030 0.9030
11.763000 0.9040 0.9040 0.9040 0.9060 0.9080
11.796309 0.9090 0.9110 0.9110 0.9130 0.9130
11.829000 0.9140 0.9140 0.9160 0.9160 0.9180
11.862309 0.9180 0.9190 0.9190 0.9210 0.9210
11.896000 0.9210 0.9230 0.9230 0.9230 0.9230
11.929309 0.9240 0.9240 0.9240 0.9240 0.9260
11.962000 0.9280 0.9260 0.9280 0.9280 0.9290
11.995309 0.9290 0.9280 0.9290 0.9290 0.9290
12.029000 0.9290 0.9310 0.9310 0.9310 0.9310
12.062309 0.9330 0.9330 0.9330 0.9330 0.9340
12.096000 0.9340 0.9360 0.9360 0.9360 0.9360
12.129309 0.9360 0.9380 0.9380 0.9380 0.9380
12.162000 0.9380 0.9380 0.9390 0.9390 0.9390
12.195309 0.9390 0.9390 0.9380 0.9380 0.9390
12.229000 0.9390 0.9390 0.9390 0.9390 0.9390
12.262309 0.9390 0.9410 0.9410 0.9430 0.9430
12.295000 0.9430 0.9430 0.9430 0.9440 0.9440
12.328309 0.9440 0.9440 0.9440 0.9460 0.9480
12.362000 0.9480 0.9480 0.9480 0.9480 0.9480
12.395309 0.9480 0.9490 0.9490 0.9490 0.9490
12.429000 0.9490 0.9490 0.9490 0.9490 0.9490
12.462309 0.9490 0.9510 0.9510 0.9510 0.9530
12.495000 0.9530 0.9530 0.9530 0.9530 0.9530
12.528309 0.9530 0.9530 0.9530 0.9530 0.9530
12.562000 0.9530 0.9530 0.9530 0.9530 0.9530
12.595309 0.9530 0.9530 0.9530 0.9530 0.9510
12.628000 0.9510 0.9530 0.9530 0.9510 0.9510
12.661309 0.9530 0.9530 0.9530 0.9530 0.9530
12.695000 0.9530 0.9530 0.9530 0.9530 0.9530
12.728309 0.9530 0.9530 0.9530 0.9530 0.9530
12.762000 0.9530 0.9530 0.9510 0.9510 0.9510
12.795309 0.9510 0.9510 0.9510 0.9510 0.9510
12.828000 0.9510 0.9510 0.9510 0.9510 0.9530
12.861309 0.9530 0.9530 0.9530 0.9530 0.9530
12.895000 0.9530 0.9530 0.9530 0.9530 0.9530
12.928309 0.9510 0.9510 0.9530 0.9530 0.9530
12.961000 0.9530 0.9530 0.9530 0.9530 0.9530
12.994309 0.9530 0.9530 0.9530 0.9530 0.9530
13.028000 0.9530 0.9530 0.9530 0.9540 0.9530
13.061309 0.9540 0.9540 0.9540 0.9540 0.9540
13.094000 0.9540 0.9540 0.9540 0.9540 0.9540
13.127309 0.9540 0.9540 0.9530 0.9530 0.9530
13.161000 0.9510 0.9510 0.9510 0.9510 0.9510
13.194309 0.9490 0.9490 0.9510 0.9510 0.9510
13.228000 0.9490 0.9490 0.9490 0.9490 0.9490
13.261309 0.9490 0.9490 0.9480 0.9490 0.9490
13.294000 0.9490 0.9510 0.9530 0.9530 0.9530
13.327309 0.9530 0.9530 0.9530 0.9510 0.9510
13.361000 0.9510 0.9490 0.9490 0.9480 0.9480
13.394309 0.9480 0.9480 0.9460 0.9460 0.9440
13.427000 0.9440 0.9440 0.9410 0.9410 0.9410
13.460309 0.9390 0.9390 0.9390 0.9390 0.9390
13.494000 0.9380 0.9380 0.9390 0.9380 0.9380
13.527309 0.9380 0.9380 0.9360 0.9360 0.9340
13.561000 0.9340 0.9340 0.9330 0.9330 0.9330
13.594309 0.9330 0.9310 0.9290 0.9290 0.9290
13.627000 0.9290 0.9290 0.9290 0.9280 0.9280
13.660309 0.9280 0.9280 0.9280 0.9260 0.9260
13.694000 0.9260 0.9260 0.9260 0.9260 0.9260
13.727309 0.9260 0.9240 0.9240 0.9230 0.9230
13.760000 0.9240 0.9240 0.9240 0.9230 0.9230
13.793309 0.9230 0.9230 0.9210 0.9210 0.9210
13.827000 0.9190 0.9190 0.9180 0.9180 0.9160
13.860309 0.9140 0.9140 0.9140 0.9140 0.9140
13.893000 0.9140 0.9130 0.9130 0.9130 0.9130
13.926309 0.9130 0.9140 0.9130 0.9130 0.9130
13.960000 0.9130 0.9130 0.9140 0.9160 0.9160
13.993309 0.9180 0.9180 0.9180 0.9180 0.9180
14.027000 0.9190 0.9190 0.9210 0.9210 0.9210
14.060309 0.9210 0.9210 0.9210 0.9210 0.9210
14.093000 0.9230 0.9210 0.9210 0.9210 0.9210
14.126309 0.9210 0.9210 0.9190 0.9190 0.9190
14.160000 0.9180 0.9180 0.9160 0.9140 0.9140
14.193309 0.9130 0.9130 0.9130 0.9130 0.9130
14.226000 0.9130 0.9130 0.9110 0.9110 0.9130
14.259309 0.9130 0.9130 0.9130 0.9130 0.9130
14.293000 0.9130 0.9130 0.9110 0.9110 0.9090
14.326309 0.9090 0.9090 0.9080 0.9080 0.9080
14.360000 0.9060 0.9060 0.9060 0.9040 0.9040
14.393309 0.9030 0.9030 0.9030 0.9010 0.8990
14.426000 0.8990 0.8970 0.8970 0.8960 0.8960
14.459309 0.8940 0.8940 0.8920 0.8910 0.8910
14.493000 0.8910 0.8890 0.8890 0.8890 0.8890
14.526309 0.8870 0.8870 0.8870 0.8860 0.8860
14.559000 0.8860 0.8840 0.8840 0.8820 0.8820
14.592309 0.8820 0.8820 0.8810 0.8790 0.8790
14.626000 0.8770 0.8770 0.8760 0.8760 0.8740
14.659309 0.8740 0.8720 0.8710 0.8710 0.8690
14.692000 0.8690 0.8670 0.8670 0.8660 0.8660
14.725309 0.8640 0.8640 0.8620 0.8610 0.8610
14.759000 0.8610 0.8590 0.8590 0.8570 0.8560
14.792309 0.8560 0.8540 0.8540 0.8520 0.8510
14.826000 0.8490 0.8470 0.8460 0.8440 0.8440
14.859309 0.8420 0.8410 0.8410 0.8390 0.8370
14.892000 0.8370 0.8370 0.8360 0.8340 0.8340
14.925309 0.8340 0.8320 0.8320 0.8320 0.8310
14.959000 0.8310 0.8310 0.8290 0.8290 0.8270
14.992309 0.8270 0.8270 0.8260 0.8240 0.8220
15.025000 0.8210 0.8210 0.8190 0.8190 0.8170
15.058309 0.8170 0.8160 0.8160 0.8140 0.8140
15.092000 0.8120 0.8110 0.8090 0.8090 0.8090
15.125309 0.8070 0.8060 0.8060 0.8040 0.8040
15.159000 0.8020 0.8010 0.8010 0.7990 0.7990
15.192309 0.7970 0.7950 0.7950 0.7940 0.7940
15.225000 0.7920 0.7900 0.7890 0.7890 0.7850
15.258309 0.7820 0.7800 0.7770 0.7750 0.7750
15.292000 0.7740 0.7720 0.7720 0.7700 0.7670
15.325309 0.7650 0.7640 0.7600 0.7590 0.7570
15.358000 0.7540 0.7520 0.7500 0.7500 0.7500
15.391309 0.7490 0.7450 0.7440 0.7400 0.7370
15.425000 0.7350 0.7340 0.7300 0.7270 0.7250
15.458309 0.7220 0.7200 0.7190 0.7150 0.7140
15.492000 0.7120 0.7090 0.7070 0.7040 0.7020
15.525309 0.7000 0.6970 0.6970 0.6900 0.6870
15.558000 0.6830 0.6800 0.6770 0.6730 0.6720
15.591309 0.6680 0.6650 0.6620 0.6600 0.6570
15.625000 0.6530 0.6520 0.6500 0.6470 0.6430
15.658309 0.6400 0.6370 0.6330 0.6300 0.6280
15.691000 0.6270 0.6230 0.6200 0.6180 0.6170
15.724309 0.6150 0.6130 0.6120 0.6120 0.6100
15.758000 0.6080 0.6080 0.6050 0.6030 0.6020
15.791309 0.6020 0.6000 0.6000 0.5980 0.5960
15.824000 0.5960 0.5950 0.5950 0.5930 0.5930
15.857309 0.5910 0.5900 0.5900 0.5900 0.5900
15.891000 0.5900 0.5900 0.5900 0.5900 0.5910
15.924309 0.5910 0.5950 0.5960 0.5960 0.5980
15.958000 0.5980 0.6000 0.6000 0.5980 0.6000
##END=
