##TITLE=ANTIMONY PENTOXIDE
$$ C.P.
##JCAMP-DX=4.24
##DATA TYPE=INFRARED SPECTRUM
##CLASS=COBLENTZ
##ORIGIN=MELLON INSTITUTE
##OWNER=COBLENTZ SOCIETY
Collection (C) 2018 copyright by the U.S. Secretary of Commerce
on behalf of the United States of America. All rights reserved.
##DATE=Not specified, most likely prior to 1970
##MOLFORM=Sb2 O5
##SOURCE REFERENCE=COBLENTZ NO. 486
##$NIST ID=B6000486
##$NIST SOURCE=COBLENTZ
##$NIST IMAGE=cob486
##SPECTROMETER/DATA SYSTEM=Not specified, most likely a prism, grating, or hybrid spectrometer.
##STATE=SOLID (NUJOL MULL)
##PATH LENGTH=
$$SPECTRAL CONTAMINATION DUE TO OIL AROUND 2900, 1450, 1380 CM^-^1
##SAMPLING PROCEDURE=TRANSMISSION
##RESOLUTION=4
##DATA PROCESSING=DIGITIZED BY NIST FROM HARD COPY
##XUNITS=MICROMETERS
##YUNITS=TRANSMITTANCE
##XFACTOR=1.000000
##YFACTOR=1
##DELTAX=000.006824
##FIRSTX=2.011
##LASTX=15.9856
##FIRSTY=0.471
##MAXX=15.9856
##MINX=2.011
##MAXY=0.938
##MINY=0.123
##NPOINTS=2049
##XYDATA=(X++(Y..Y))
2.011000 0.4710 0.4710 0.4730 0.4730 0.4750
2.045136 0.4750 0.4760 0.4780 0.4800 0.4800
2.079000 0.4810 0.4830 0.4830 0.4850 0.4870
2.113136 0.4870 0.4880 0.4900 0.4920 0.4920
2.147000 0.4950 0.4970 0.4970 0.4990 0.5000
2.181136 0.5000 0.5000 0.5040 0.5060 0.5070
2.215000 0.5090 0.5110 0.5110 0.5120 0.5140
2.249136 0.5140 0.5160 0.5180 0.5190 0.5190
2.283000 0.5210 0.5230 0.5230 0.5240 0.5260
2.317136 0.5260 0.5280 0.5300 0.5310 0.5310
2.352000 0.5350 0.5350 0.5370 0.5380 0.5400
2.386136 0.5420 0.5420 0.5450 0.5470 0.5500
2.420000 0.5520 0.5520 0.5540 0.5550 0.5590
2.454136 0.5590 0.5610 0.5620 0.5640 0.5670
2.488000 0.5690 0.5710 0.5730 0.5740 0.5760
2.522136 0.5780 0.5800 0.5810 0.5830 0.5850
2.556000 0.5860 0.5880 0.5900 0.5920 0.5930
2.590136 0.5970 0.5970 0.5980 0.6000 0.6000
2.625000 0.6000 0.6000 0.6000 0.6020 0.6020
2.659136 0.6050 0.6070 0.6070 0.6090 0.6110
2.693000 0.6110 0.6120 0.6120 0.6140 0.6140
2.727136 0.6140 0.6160 0.6170 0.6170 0.6170
2.761000 0.6190 0.6190 0.6210 0.6230 0.6230
2.795136 0.6230 0.6230 0.6230 0.6210 0.6210
2.829000 0.6190 0.6190 0.6190 0.6190 0.6190
2.863136 0.6190 0.6190 0.6190 0.6170 0.6170
2.898000 0.6170 0.6160 0.6140 0.6140 0.6140
2.932136 0.6140 0.6140 0.6140 0.6120 0.6120
2.966000 0.6110 0.6110 0.6110 0.6110 0.6110
3.000136 0.6070 0.6070 0.6070 0.6070 0.6070
3.034000 0.6070 0.6070 0.6070 0.6070 0.6070
3.068136 0.6070 0.6070 0.6070 0.6070 0.6070
3.102000 0.6070 0.6070 0.6070 0.6070 0.6070
3.136136 0.6070 0.6090 0.6090 0.6090 0.6110
3.171000 0.6110 0.6110 0.6120 0.6120 0.6120
3.205136 0.6120 0.6120 0.6120 0.6120 0.6120
3.239000 0.6120 0.6120 0.6110 0.6090 0.6020
3.273136 0.6000 0.5950 0.5760 0.5450 0.5070
3.307000 0.4710 0.4440 0.3970 0.3040 0.2770
3.341136 0.2440 0.2340 0.1790 0.1390 0.1270
3.375000 0.1230 0.1250 0.1320 0.1370 0.1420
3.409136 0.1410 0.1410 0.1250 0.1230 0.1250
3.444000 0.1300 0.1480 0.1580 0.1800 0.2350
3.478136 0.2660 0.3010 0.3230 0.3900 0.4950
3.512000 0.5980 0.6210 0.6360 0.6470 0.6640
3.546136 0.6810 0.6930 0.7030 0.7120 0.7170
3.580000 0.7220 0.7240 0.7260 0.7290 0.7330
3.614136 0.7360 0.7400 0.7400 0.7430 0.7450
3.648000 0.7480 0.7500 0.7520 0.7530 0.7530
3.682136 0.7570 0.7590 0.7600 0.7620 0.7620
3.717000 0.7650 0.7670 0.7690 0.7710 0.7720
3.751136 0.7740 0.7760 0.7770 0.7790 0.7810
3.785000 0.7810 0.7830 0.7830 0.7880 0.7880
3.819136 0.7900 0.7910 0.7930 0.7960 0.7960
3.853000 0.7980 0.8000 0.8000 0.8020 0.8020
3.887136 0.8020 0.8020 0.8020 0.8030 0.8070
3.921000 0.8080 0.8100 0.8100 0.8120 0.8140
3.955136 0.8140 0.8150 0.8150 0.8170 0.8170
3.989000 0.8190 0.8200 0.8220 0.8220 0.8220
4.023136 0.8220 0.8220 0.8220 0.8240 0.8240
4.058000 0.8260 0.8260 0.8270 0.8270 0.8290
4.092136 0.8290 0.8290 0.8290 0.8310 0.8330
4.126000 0.8330 0.8330 0.8340 0.8340 0.8340
4.160136 0.8360 0.8380 0.8380 0.8380 0.8380
4.194000 0.8380 0.8380 0.8390 0.8390 0.8390
4.228136 0.8390 0.8390 0.8390 0.8410 0.8410
4.262000 0.8410 0.8410 0.8410 0.8410 0.8430
4.296136 0.8430 0.8430 0.8430 0.8450 0.8450
4.331000 0.8460 0.8480 0.8480 0.8480 0.8500
4.365136 0.8500 0.8500 0.8500 0.8510 0.8510
4.399000 0.8530 0.8530 0.8530 0.8530 0.8530
4.433136 0.8550 0.8550 0.8550 0.8550 0.8550
4.467000 0.8550 0.8570 0.8580 0.8580 0.8600
4.501136 0.8600 0.8600 0.8600 0.8600 0.8620
4.535000 0.8620 0.8620 0.8640 0.8640 0.8640
4.569136 0.8650 0.8650 0.8650 0.8650 0.8650
4.604000 0.8650 0.8670 0.8690 0.8690 0.8690
4.638136 0.8690 0.8690 0.8700 0.8700 0.8700
4.672000 0.8700 0.8700 0.8700 0.8720 0.8740
4.706136 0.8740 0.8740 0.8740 0.8740 0.8760
4.740000 0.8760 0.8760 0.8760 0.8770 0.8770
4.774136 0.8770 0.8770 0.8770 0.8790 0.8810
4.808000 0.8790 0.8790 0.8790 0.8810 0.8810
4.842136 0.8810 0.8820 0.8820 0.8820 0.8820
4.877000 0.8820 0.8840 0.8840 0.8840 0.8860
4.911136 0.8860 0.8860 0.8860 0.8860 0.8880
4.945000 0.8880 0.8880 0.8890 0.8890 0.8890
4.979136 0.8890 0.8910 0.8930 0.8930 0.8930
5.013000 0.8930 0.8930 0.8930 0.8930 0.8930
5.047136 0.8950 0.8950 0.8950 0.8950 0.8950
5.081000 0.8950 0.8960 0.8960 0.8960 0.8960
5.115136 0.8960 0.8980 0.9000 0.9000 0.9000
5.150000 0.9000 0.9000 0.9000 0.9010 0.9010
5.184136 0.9010 0.9010 0.9030 0.9010 0.9000
5.218000 0.9000 0.9010 0.9010 0.9010 0.9030
5.252136 0.9030 0.9030 0.9030 0.9030 0.9030
5.286000 0.9050 0.9050 0.9050 0.9030 0.9030
5.320136 0.9050 0.9070 0.9070 0.9070 0.9080
5.354000 0.9080 0.9080 0.9100 0.9100 0.9100
5.388136 0.9100 0.9100 0.9100 0.9100 0.9100
5.422000 0.9120 0.9120 0.9120 0.9130 0.9130
5.456136 0.9130 0.9130 0.9150 0.9150 0.9150
5.491000 0.9150 0.9170 0.9170 0.9170 0.9170
5.525136 0.9170 0.9190 0.9190 0.9190 0.9190
5.559000 0.9190 0.9200 0.9200 0.9200 0.9200
5.593136 0.9220 0.9220 0.9220 0.9220 0.9220
5.627000 0.9220 0.9220 0.9220 0.9220 0.9240
5.661136 0.9240 0.9240 0.9240 0.9240 0.9250
5.695000 0.9250 0.9250 0.9250 0.9270 0.9270
5.729136 0.9270 0.9270 0.9270 0.9270 0.9270
5.764000 0.9270 0.9290 0.9290 0.9290 0.9290
5.798136 0.9290 0.9290 0.9290 0.9290 0.9290
5.832000 0.9290 0.9290 0.9290 0.9290 0.9290
5.866136 0.9270 0.9270 0.9270 0.9270 0.9270
5.900000 0.9270 0.9270 0.9270 0.9270 0.9270
5.934136 0.9250 0.9250 0.9250 0.9250 0.9250
5.968000 0.9240 0.9240 0.9240 0.9240 0.9240
6.002136 0.9220 0.9200 0.9190 0.9190 0.9190
6.037000 0.9170 0.9170 0.9150 0.9130 0.9120
6.071136 0.9120 0.9120 0.9120 0.9120 0.9100
6.105000 0.9120 0.9100 0.9100 0.9100 0.9120
6.139136 0.9130 0.9130 0.9150 0.9150 0.9170
6.173000 0.9190 0.9190 0.9200 0.9200 0.9220
6.207136 0.9220 0.9220 0.9220 0.9240 0.9240
6.241000 0.9250 0.9250 0.9250 0.9250 0.9270
6.275136 0.9270 0.9270 0.9270 0.9270 0.9290
6.310000 0.9290 0.9290 0.9290 0.9270 0.9270
6.344136 0.9270 0.9290 0.9290 0.9270 0.9270
6.378000 0.9270 0.9270 0.9270 0.9270 0.9270
6.412136 0.9270 0.9270 0.9270 0.9270 0.9270
6.446000 0.9270 0.9270 0.9270 0.9270 0.9270
6.480136 0.9270 0.9250 0.9250 0.9250 0.9250
6.514000 0.9250 0.9240 0.9240 0.9240 0.9240
6.548136 0.9240 0.9240 0.9240 0.9220 0.9220
6.583000 0.9240 0.9220 0.9220 0.9200 0.9190
6.617136 0.9170 0.9170 0.9170 0.9150 0.9130
6.651000 0.9130 0.9080 0.9050 0.9010 0.9000
6.685136 0.8930 0.8880 0.8810 0.8700 0.8580
6.719000 0.8480 0.8330 0.8100 0.7770 0.7450
6.753136 0.7140 0.6830 0.6450 0.6160 0.5780
6.787000 0.5610 0.5470 0.5350 0.5190 0.5160
6.821136 0.5160 0.5180 0.5190 0.5230 0.5330
6.855000 0.5490 0.5590 0.5810 0.5980 0.6160
6.889136 0.6280 0.6470 0.6620 0.6810 0.7020
6.924000 0.7220 0.7430 0.7620 0.7830 0.7960
6.958136 0.8030 0.8120 0.8150 0.8200 0.8270
6.992000 0.8340 0.8410 0.8510 0.8570 0.8640
7.026136 0.8670 0.8720 0.8770 0.8840 0.8880
7.060000 0.8910 0.8930 0.8930 0.8950 0.8950
7.094136 0.8930 0.8930 0.8930 0.8930 0.8890
7.128000 0.8840 0.8790 0.8550 0.8360 0.8120
7.162136 0.7980 0.7570 0.7330 0.7030 0.6850
7.197000 0.6790 0.6740 0.6780 0.6830 0.6850
7.231136 0.6980 0.7120 0.7330 0.7410 0.7520
7.265000 0.7640 0.7740 0.7810 0.7950 0.8070
7.299136 0.8220 0.8330 0.8390 0.8460 0.8500
7.333000 0.8550 0.8620 0.8670 0.8700 0.8720
7.367136 0.8740 0.8760 0.8760 0.8760 0.8770
7.401000 0.8790 0.8810 0.8820 0.8840 0.8860
7.435136 0.8880 0.8880 0.8890 0.8910 0.8910
7.470000 0.8930 0.8930 0.8930 0.8930 0.8930
7.504136 0.8930 0.8950 0.8950 0.8950 0.8950
7.538000 0.8950 0.8960 0.8960 0.8960 0.8960
7.572136 0.8960 0.8960 0.9000 0.9000 0.8980
7.606000 0.9000 0.9000 0.9000 0.9000 0.9000
7.640136 0.9000 0.9000 0.9010 0.9010 0.9010
7.674000 0.9010 0.9010 0.9010 0.9030 0.9010
7.708136 0.9010 0.9010 0.9010 0.9010 0.9010
7.743000 0.9010 0.9030 0.9030 0.9030 0.9030
7.777136 0.9030 0.9030 0.9030 0.9030 0.9050
7.811000 0.9050 0.9050 0.9050 0.9050 0.9050
7.845136 0.9050 0.9050 0.9050 0.9070 0.9070
7.879000 0.9070 0.9050 0.9050 0.9050 0.9050
7.913136 0.9050 0.9050 0.9050 0.9050 0.9050
7.947000 0.9050 0.9050 0.9050 0.9050 0.9050
7.981136 0.9050 0.9050 0.9050 0.9080 0.9100
8.016000 0.9100 0.9100 0.9100 0.9100 0.9100
8.050136 0.9100 0.9120 0.9120 0.9120 0.9120
8.084000 0.9120 0.9120 0.9120 0.9120 0.9120
8.118136 0.9120 0.9130 0.9130 0.9130 0.9120
8.152000 0.9120 0.9120 0.9120 0.9120 0.9120
8.186136 0.9130 0.9130 0.9130 0.9130 0.9130
8.220000 0.9120 0.9120 0.9120 0.9120 0.9120
8.254136 0.9120 0.9120 0.9130 0.9130 0.9120
8.288000 0.9120 0.9130 0.9130 0.9130 0.9150
8.322136 0.9150 0.9150 0.9150 0.9150 0.9150
8.357000 0.9150 0.9150 0.9150 0.9150 0.9150
8.391136 0.9150 0.9150 0.9150 0.9150 0.9150
8.425000 0.9150 0.9150 0.9150 0.9150 0.9130
8.459136 0.9130 0.9130 0.9150 0.9150 0.9150
8.493000 0.9130 0.9130 0.9130 0.9130 0.9130
8.527136 0.9130 0.9130 0.9130 0.9130 0.9120
8.561000 0.9120 0.9120 0.9120 0.9100 0.9100
8.595136 0.9080 0.9100 0.9100 0.9100 0.9100
8.630000 0.9100 0.9100 0.9100 0.9080 0.9070
8.664136 0.9070 0.9070 0.9070 0.9070 0.9070
8.698000 0.9070 0.9070 0.9070 0.9070 0.9070
8.732136 0.9070 0.9080 0.9100 0.9100 0.9100
8.766000 0.9100 0.9100 0.9120 0.9120 0.9120
8.800136 0.9120 0.9120 0.9120 0.9120 0.9080
8.834000 0.9070 0.9070 0.9070 0.9070 0.9070
8.868136 0.9070 0.9070 0.9080 0.9080 0.9080
8.903000 0.9080 0.9080 0.9070 0.9070 0.9070
8.937136 0.9070 0.9070 0.9070 0.9070 0.9070
8.971000 0.9070 0.9070 0.9070 0.9070 0.9070
9.005136 0.9070 0.9070 0.9070 0.9070 0.9070
9.039000 0.9070 0.9070 0.9070 0.9070 0.9070
9.073136 0.9070 0.9070 0.9070 0.9070 0.9070
9.107000 0.9070 0.9070 0.9070 0.9070 0.9070
9.141136 0.9070 0.9070 0.9070 0.9070 0.9070
9.176000 0.9070 0.9070 0.9050 0.9050 0.9070
9.210136 0.9070 0.9070 0.9070 0.9070 0.9070
9.244000 0.9070 0.9070 0.9070 0.9070 0.9070
9.278136 0.9070 0.9070 0.9070 0.9070 0.9070
9.312000 0.9070 0.9070 0.9070 0.9080 0.9070
9.346136 0.9080 0.9080 0.9100 0.9120 0.9120
9.380000 0.9120 0.9130 0.9120 0.9130 0.9130
9.414136 0.9130 0.9130 0.9130 0.9130 0.9130
9.449000 0.9130 0.9130 0.9150 0.9150 0.9150
9.483136 0.9150 0.9150 0.9150 0.9150 0.9150
9.517000 0.9170 0.9170 0.9170 0.9170 0.9170
9.551136 0.9170 0.9170 0.9170 0.9190 0.9190
9.585000 0.9190 0.9190 0.9190 0.9170 0.9190
9.619136 0.9190 0.9190 0.9190 0.9190 0.9190
9.653000 0.9190 0.9190 0.9200 0.9200 0.9200
9.687136 0.9200 0.9200 0.9200 0.9220 0.9220
9.721000 0.9200 0.9200 0.9220 0.9220 0.9220
9.755136 0.9220 0.9220 0.9220 0.9220 0.9220
9.790000 0.9220 0.9240 0.9240 0.9240 0.9240
9.824136 0.9240 0.9240 0.9240 0.9240 0.9240
9.858000 0.9250 0.9250 0.9250 0.9250 0.9250
9.892136 0.9250 0.9250 0.9270 0.9270 0.9270
9.926000 0.9270 0.9270 0.9270 0.9290 0.9290
9.960136 0.9290 0.9310 0.9310 0.9310 0.9310
9.994000 0.9310 0.9290 0.9310 0.9320 0.9320
10.028136 0.9320 0.9320 0.9320 0.9320 0.9340
10.063000 0.9340 0.9320 0.9320 0.9320 0.9320
10.097136 0.9320 0.9340 0.9340 0.9320 0.9340
10.131000 0.9340 0.9320 0.9320 0.9340 0.9340
10.165136 0.9340 0.9340 0.9340 0.9340 0.9360
10.199000 0.9360 0.9360 0.9360 0.9360 0.9360
10.233136 0.9360 0.9380 0.9380 0.9380 0.9380
10.267000 0.9380 0.9380 0.9380 0.9380 0.9380
10.301136 0.9380 0.9380 0.9380 0.9380 0.9380
10.336000 0.9380 0.9380 0.9380 0.9380 0.9380
10.370136 0.9380 0.9380 0.9380 0.9380 0.9380
10.404000 0.9380 0.9380 0.9380 0.9380 0.9380
10.438136 0.9380 0.9380 0.9380 0.9380 0.9380
10.472000 0.9380 0.9380 0.9380 0.9380 0.9380
10.506136 0.9380 0.9380 0.9380 0.9380 0.9380
10.540000 0.9380 0.9380 0.9380 0.9360 0.9360
10.574136 0.9360 0.9360 0.9360 0.9340 0.9340
10.609000 0.9340 0.9340 0.9340 0.9340 0.9340
10.643136 0.9340 0.9340 0.9340 0.9340 0.9340
10.677000 0.9320 0.9320 0.9320 0.9320 0.9320
10.711136 0.9310 0.9310 0.9310 0.9310 0.9310
10.745000 0.9290 0.9290 0.9290 0.9290 0.9270
10.779136 0.9270 0.9270 0.9270 0.9270 0.9270
10.813000 0.9270 0.9270 0.9270 0.9270 0.9270
10.847136 0.9270 0.9270 0.9250 0.9250 0.9250
10.882000 0.9250 0.9250 0.9240 0.9240 0.9240
10.916136 0.9240 0.9240 0.9240 0.9240 0.9240
10.950000 0.9220 0.9220 0.9220 0.9220 0.9220
10.984136 0.9200 0.9200 0.9190 0.9190 0.9200
11.018000 0.9190 0.9190 0.9170 0.9170 0.9150
11.052136 0.9150 0.9130 0.9130 0.9130 0.9120
11.086000 0.9100 0.9080 0.9080 0.9070 0.9050
11.120136 0.9050 0.9050 0.9030 0.9010 0.9000
11.154000 0.8980 0.8980 0.8980 0.8980 0.8980
11.188136 0.8980 0.8960 0.8960 0.8950 0.8950
11.223000 0.8950 0.8950 0.8930 0.8930 0.8910
11.257136 0.8910 0.8890 0.8890 0.8880 0.8880
11.291000 0.8860 0.8860 0.8840 0.8840 0.8840
11.325136 0.8820 0.8820 0.8810 0.8810 0.8790
11.359000 0.8790 0.8770 0.8760 0.8740 0.8720
11.393136 0.8720 0.8700 0.8700 0.8670 0.8650
11.427000 0.8640 0.8620 0.8600 0.8580 0.8570
11.461136 0.8550 0.8510 0.8500 0.8500 0.8480
11.496000 0.8460 0.8450 0.8430 0.8410 0.8390
11.530136 0.8390 0.8380 0.8360 0.8340 0.8330
11.564000 0.8310 0.8290 0.8270 0.8260 0.8240
11.598136 0.8220 0.8200 0.8190 0.8170 0.8150
11.632000 0.8140 0.8120 0.8100 0.8080 0.8050
11.666136 0.8030 0.8020 0.7980 0.7980 0.7950
11.700000 0.7930 0.7900 0.7860 0.7840 0.7810
11.734136 0.7810 0.7790 0.7790 0.7770 0.7740
11.769000 0.7720 0.7690 0.7670 0.7650 0.7600
11.803136 0.7570 0.7550 0.7530 0.7520 0.7500
11.837000 0.7460 0.7450 0.7430 0.7430 0.7410
11.871136 0.7400 0.7380 0.7360 0.7340 0.7330
11.905000 0.7310 0.7280 0.7260 0.7220 0.7210
11.939136 0.7170 0.7140 0.7120 0.7120 0.7120
11.973000 0.7100 0.7090 0.7070 0.7050 0.7030
12.007136 0.7000 0.6980 0.6950 0.6910 0.6880
12.042000 0.6850 0.6830 0.6830 0.6810 0.6810
12.076136 0.6780 0.6740 0.6720 0.6710 0.6670
12.110000 0.6660 0.6640 0.6600 0.6570 0.6550
12.144136 0.6550 0.6520 0.6480 0.6470 0.6450
12.178000 0.6430 0.6400 0.6360 0.6350 0.6310
12.212136 0.6280 0.6240 0.6240 0.6210 0.6190
12.246000 0.6160 0.6120 0.6090 0.6050 0.6040
12.280136 0.6020 0.6020 0.6000 0.6000 0.5950
12.315000 0.5920 0.5900 0.5850 0.5830 0.5810
12.349136 0.5800 0.5760 0.5730 0.5690 0.5660
12.383000 0.5620 0.5610 0.5550 0.5540 0.5500
12.417136 0.5470 0.5470 0.5430 0.5400 0.5370
12.451000 0.5350 0.5310 0.5300 0.5260 0.5240
12.485136 0.5210 0.5160 0.5160 0.5110 0.5070
12.519000 0.5040 0.5020 0.5000 0.4970 0.4950
12.553136 0.4920 0.4870 0.4850 0.4830 0.4800
12.587000 0.4780 0.4750 0.4710 0.4680 0.4660
12.621136 0.4640 0.4620 0.4610 0.4560 0.4540
12.656000 0.4520 0.4500 0.4490 0.4450 0.4440
12.690136 0.4420 0.4380 0.4370 0.4330 0.4320
12.724000 0.4280 0.4250 0.4230 0.4210 0.4190
12.758136 0.4160 0.4160 0.4130 0.4110 0.4070
12.792000 0.4060 0.4020 0.4010 0.4010 0.4010
12.826136 0.3990 0.3940 0.3920 0.3900 0.3900
12.860000 0.3870 0.3850 0.3850 0.3820 0.3800
12.894136 0.3780 0.3760 0.3750 0.3750 0.3730
12.929000 0.3710 0.3710 0.3700 0.3680 0.3640
12.963136 0.3640 0.3630 0.3630 0.3610 0.3610
12.997000 0.3590 0.3580 0.3540 0.3540 0.3520
13.031136 0.3520 0.3510 0.3510 0.3490 0.3470
13.065000 0.3450 0.3450 0.3440 0.3440 0.3440
13.099136 0.3420 0.3420 0.3400 0.3390 0.3390
13.133000 0.3390 0.3370 0.3370 0.3350 0.3350
13.167136 0.3330 0.3330 0.3320 0.3320 0.3320
13.202000 0.3320 0.3300 0.3300 0.3280 0.3280
13.236136 0.3270 0.3270 0.3250 0.3250 0.3250
13.270000 0.3230 0.3230 0.3230 0.3210 0.3210
13.304136 0.3210 0.3210 0.3210 0.3210 0.3200
13.338000 0.3200 0.3210 0.3210 0.3210 0.3210
13.372136 0.3210 0.3210 0.3210 0.3210 0.3210
13.406000 0.3210 0.3210 0.3200 0.3200 0.3180
13.440136 0.3180 0.3180 0.3180 0.3160 0.3160
13.475000 0.3160 0.3160 0.3160 0.3160 0.3160
13.509136 0.3160 0.3160 0.3160 0.3160 0.3160
13.543000 0.3160 0.3160 0.3160 0.3160 0.3160
13.577136 0.3160 0.3160 0.3180 0.3180 0.3180
13.611000 0.3180 0.3200 0.3200 0.3210 0.3210
13.645136 0.3210 0.3210 0.3230 0.3230 0.3250
13.679000 0.3250 0.3270 0.3270 0.3270 0.3300
13.713136 0.3320 0.3320 0.3330 0.3350 0.3350
13.748000 0.3370 0.3370 0.3420 0.3440 0.3440
13.782136 0.3450 0.3450 0.3470 0.3490 0.3520
13.816000 0.3520 0.3520 0.3540 0.3540 0.3560
13.850136 0.3560 0.3560 0.3560 0.3560 0.3590
13.884000 0.3610 0.3630 0.3630 0.3640 0.3640
13.918136 0.3660 0.3680 0.3680 0.3680 0.3700
13.952000 0.3710 0.3730 0.3730 0.3750 0.3750
13.986136 0.3760 0.3760 0.3760 0.3780 0.3800
14.020000 0.3800 0.3820 0.3830 0.3830 0.3830
14.054136 0.3830 0.3850 0.3850 0.3870 0.3870
14.089000 0.3870 0.3880 0.3880 0.3880 0.3880
14.123136 0.3880 0.3880 0.3880 0.3880 0.3880
14.157000 0.3880 0.3900 0.3900 0.3900 0.3880
14.191136 0.3880 0.3880 0.3880 0.3880 0.3880
14.225000 0.3870 0.3880 0.3880 0.3880 0.3880
14.259136 0.3880 0.3880 0.3880 0.3880 0.3870
14.293000 0.3870 0.3870 0.3870 0.3870 0.3870
14.327136 0.3870 0.3850 0.3850 0.3850 0.3850
14.362000 0.3850 0.3850 0.3830 0.3830 0.3830
14.396136 0.3830 0.3820 0.3830 0.3830 0.3830
14.430000 0.3830 0.3820 0.3820 0.3820 0.3820
14.464136 0.3820 0.3820 0.3820 0.3820 0.3820
14.498000 0.3800 0.3800 0.3800 0.3800 0.3800
14.532136 0.3800 0.3800 0.3800 0.3780 0.3780
14.566000 0.3780 0.3760 0.3760 0.3760 0.3780
14.600136 0.3760 0.3760 0.3780 0.3780 0.3780
14.635000 0.3780 0.3780 0.3780 0.3780 0.3760
14.669136 0.3760 0.3780 0.3780 0.3780 0.3780
14.703000 0.3780 0.3780 0.3780 0.3780 0.3780
14.737136 0.3780 0.3800 0.3800 0.3820 0.3820
14.771000 0.3820 0.3820 0.3820 0.3820 0.3820
14.805136 0.3820 0.3830 0.3830 0.3830 0.3830
14.839000 0.3850 0.3850 0.3850 0.3870 0.3870
14.873136 0.3870 0.3880 0.3880 0.3880 0.3880
14.908000 0.3900 0.3900 0.3900 0.3900 0.3920
14.942136 0.3920 0.3920 0.3940 0.3940 0.3940
14.976000 0.3950 0.3950 0.3970 0.3990 0.3990
15.010136 0.3990 0.4010 0.4010 0.4010 0.4010
15.044000 0.4020 0.4020 0.4020 0.4020 0.4020
15.078136 0.4040 0.4020 0.4040 0.4040 0.4060
15.112000 0.4070 0.4090 0.4110 0.4110 0.4130
15.146136 0.4130 0.4130 0.4130 0.4130 0.4140
15.181000 0.4140 0.4140 0.4140 0.4140 0.4160
15.215136 0.4160 0.4160 0.4180 0.4180 0.4180
15.249000 0.4180 0.4190 0.4190 0.4190 0.4190
15.283136 0.4190 0.4190 0.4190 0.4190 0.4190
15.317000 0.4210 0.4210 0.4210 0.4230 0.4230
15.351136 0.4250 0.4250 0.4260 0.4260 0.4280
15.385000 0.4280 0.4300 0.4300 0.4320 0.4320
15.419136 0.4320 0.4320 0.4330 0.4330 0.4330
15.453000 0.4330 0.4330 0.4350 0.4350 0.4350
15.487136 0.4370 0.4370 0.4380 0.4380 0.4400
15.522000 0.4400 0.4420 0.4420 0.4440 0.4440
15.556136 0.4440 0.4450 0.4470 0.4490 0.4490
15.590000 0.4500 0.4500 0.4520 0.4540 0.4540
15.624136 0.4560 0.4560 0.4560 0.4570 0.4590
15.658000 0.4610 0.4620 0.4620 0.4640 0.4660
15.692136 0.4680 0.4690 0.4690 0.4710 0.4710
15.726000 0.4710 0.4710 0.4730 0.4750 0.4760
15.760136 0.4760 0.4760 0.4780 0.4780 0.4780
15.795000 0.4800 0.4810 0.4830 0.4830 0.4850
15.829136 0.4850 0.4850 0.4850 0.4870 0.4880
15.863000 0.4880 0.4880 0.4900 0.4900 0.4920
15.897136 0.4930 0.4930 0.4950 0.4950 0.4950
15.931000 0.4970 0.4970 0.4970 0.5000 0.5000
15.965136 0.5020 0.5020 0.5020 0.5020
##END=
