##TITLE=6-MERCAPTOMETHYL-2-PHENYL-3,4,5,6-TETRAHYDROPYRIMIDINE HYDROCHLORIDE
##JCAMP-DX=4.24
##DATA TYPE=INFRARED SPECTRUM
##CLASS=COBLENTZ
##ORIGIN=ARTHUR D. LITTLE, INC.
##OWNER=COBLENTZ SOCIETY
Collection (C) 2018 copyright by the U.S. Secretary of Commerce
on behalf of the United States of America. All rights reserved.
##DATE=Not specified, most likely prior to 1970
##NAMES=(2-phenyl-1,4,5,6-tetrahydro-4-pyrimidinyl)methanethiol hydrochloride
##MOLFORM=C11 H14 N2 S  * H Cl
##MP=196-199 C
##SOURCE REFERENCE=COBLENTZ NO. 4571
##$NIST ID=B6004571
##$NIST SOURCE=COBLENTZ
##$NIST IMAGE=cob4571
##SPECTROMETER/DATA SYSTEM=Not specified, most likely a prism, grating, or hybrid spectrometer.
##STATE=SOLID(MINERAL OIL MULL-HALOCARBON)
##PATH LENGTH=
$$SPECTRAL CONTAMINATIN DUE TO OIL AROUND 2920, 1465, 1375 CM^-^1
$$ 84% PURE
##SAMPLING PROCEDURE=TRANSMISSION
##RESOLUTION=4
##DATA PROCESSING=DIGITIZED BY NIST FROM HARD COPY
##XUNITS=1/CM
##YUNITS=TRANSMITTANCE
##XFACTOR=1.000000
##YFACTOR=1
##DELTAX=001.324503
##FIRSTX=647.02
##LASTX=3396.69
##FIRSTY=0.701
##MAXX=3396.69
##MINX=647.02
##MAXY=0.905
##MINY=0.001
##NPOINTS=2077
##XYDATA=(X++(Y..Y))
647.020000 0.7010 0.7050 0.7090 0.7090 0.7130
653.645708 0.7140 0.7140 0.7150 0.7170 0.7170
660.265000 0.7150 0.7140 0.7100 0.7090 0.7090
666.890708 0.7100 0.7110 0.7150 0.7190 0.7260
673.510000 0.7340 0.7350 0.7350 0.7300 0.7070
680.135708 0.7010 0.6900 0.6740 0.6570 0.6410
686.755000 0.6240 0.6040 0.5450 0.5320 0.4870
693.380708 0.4360 0.3870 0.3370 0.3370 0.4130
700.000000 0.4900 0.5400 0.6060 0.6570 0.6860
706.625708 0.7100 0.7370 0.7560 0.7700 0.7720
713.245000 0.7740 0.7740 0.7750 0.7760 0.7780
719.870708 0.7800 0.7860 0.7910 0.7950 0.7960
726.490000 0.7980 0.7980 0.7980 0.7990 0.7990
733.115708 0.8000 0.8060 0.8160 0.8240 0.8260
739.735000 0.8270 0.8270 0.8280 0.8280 0.8300
746.360708 0.8320 0.8370 0.8450 0.8510 0.8520
752.980000 0.8550 0.8550 0.8550 0.8550 0.8530
759.605708 0.8510 0.8510 0.8490 0.8450 0.8400
766.225000 0.8390 0.8350 0.8300 0.8230 0.8180
772.850708 0.8060 0.7910 0.7600 0.7310 0.6930
779.470000 0.6380 0.5940 0.5940 0.6120 0.6280
786.095708 0.6450 0.6940 0.7450 0.7660 0.7780
792.715000 0.7790 0.7760 0.7710 0.7630 0.7460
799.340708 0.7330 0.7230 0.7150 0.7100 0.7030
805.960000 0.7010 0.6990 0.6990 0.7010 0.7030
812.585708 0.7110 0.7180 0.7270 0.7340 0.7450
819.205000 0.7510 0.7620 0.7680 0.7740 0.7800
825.830708 0.7880 0.7940 0.7990 0.8040 0.8100
832.450000 0.8160 0.8230 0.8270 0.8280 0.8320
839.075708 0.8390 0.8430 0.8450 0.8470 0.8480
845.695000 0.8490 0.8510 0.8510 0.8520 0.8530
852.320708 0.8560 0.8600 0.8680 0.8710 0.8750
858.940000 0.8770 0.8770 0.8790 0.8810 0.8870
865.565708 0.8930 0.9000 0.9010 0.9030 0.9040
872.185000 0.9040 0.9040 0.9050 0.9050 0.9050
878.810708 0.9040 0.9040 0.9030 0.9010 0.9000
885.430000 0.9000 0.9010 0.9010 0.9030 0.9030
892.055708 0.9030 0.9030 0.9040 0.9040 0.9040
898.675000 0.9050 0.9050 0.9050 0.9050 0.9040
905.300708 0.9030 0.9000 0.8990 0.8960 0.8930
911.921000 0.8920 0.8910 0.8880 0.8850 0.8830
918.546708 0.8810 0.8800 0.8800 0.8800 0.8800
925.166000 0.8800 0.8800 0.8800 0.8790 0.8760
931.791708 0.8750 0.8750 0.8730 0.8720 0.8720
938.411000 0.8720 0.8720 0.8710 0.8710 0.8710
945.036708 0.8690 0.8670 0.8650 0.8640 0.8630
951.656000 0.8610 0.8600 0.8590 0.8570 0.8550
958.281708 0.8550 0.8530 0.8530 0.8520 0.8520
964.901000 0.8490 0.8480 0.8440 0.8410 0.8400
971.526708 0.8360 0.8330 0.8330 0.8350 0.8400
978.146000 0.8410 0.8440 0.8490 0.8510 0.8550
984.771708 0.8610 0.8650 0.8690 0.8670 0.8560
991.391000 0.8510 0.8470 0.8440 0.8430 0.8410
998.016708 0.8430 0.8470 0.8490 0.8490 0.8490
1004.636000 0.8480 0.8470 0.8450 0.8440 0.8430
1011.261708 0.8390 0.8120 0.8020 0.8020 0.8080
1017.881000 0.8220 0.8280 0.8360 0.8400 0.8390
1024.506708 0.8370 0.8330 0.8310 0.8280 0.8190
1031.126000 0.7980 0.7550 0.7430 0.7430 0.7670
1037.751708 0.7720 0.8030 0.8310 0.8430 0.8470
1044.371000 0.8510 0.8520 0.8520 0.8490 0.8470
1050.996708 0.8440 0.8430 0.8410 0.8400 0.8390
1057.616000 0.8360 0.8320 0.8280 0.8270 0.8230
1064.241708 0.8180 0.8140 0.8110 0.8080 0.8070
1070.861000 0.8060 0.8040 0.8040 0.8030 0.8030
1077.486708 0.8030 0.8030 0.8030 0.8030 0.8020
1084.106000 0.8020 0.8000 0.7980 0.7940 0.7870
1090.731708 0.7840 0.7870 0.7940 0.8000 0.8070
1097.351000 0.8110 0.8160 0.8200 0.8260 0.8280
1103.976708 0.8310 0.8330 0.8350 0.8350 0.8350
1110.596000 0.8350 0.8330 0.8330 0.8330 0.8320
1117.221708 0.8320 0.8320 0.8310 0.8300 0.8300
1123.841000 0.8300 0.8300 0.8310 0.8330 0.8370
1130.466708 0.8390 0.8400 0.8400 0.8400 0.8390
1137.086000 0.8350 0.8330 0.8330 0.8330 0.8320
1143.711708 0.8320 0.8310 0.8230 0.8190 0.8180
1150.331000 0.8120 0.8060 0.7920 0.7740 0.7580
1156.956708 0.7520 0.7520 0.7600 0.7680 0.7790
1163.576000 0.7840 0.7840 0.7820 0.7750 0.7680
1170.201708 0.7640 0.7630 0.7640 0.7660 0.7680
1176.821000 0.7700 0.7710 0.7750 0.7840 0.7870
1183.446708 0.7910 0.7960 0.8020 0.8030 0.8110
1190.066000 0.8180 0.8220 0.8270 0.8280 0.8300
1196.691708 0.8300 0.8280 0.8270 0.8260 0.8240
1203.311000 0.8240 0.8230 0.8220 0.8150 0.8060
1209.936708 0.8020 0.7990 0.7910 0.7860 0.7760
1216.556000 0.7630 0.7540 0.7470 0.7390 0.7390
1223.181708 0.7410 0.7420 0.7450 0.7470 0.7680
1229.801000 0.7800 0.7910 0.8020 0.8040 0.8040
1236.426708 0.8020 0.7980 0.7900 0.7840 0.7820
1243.046000 0.7780 0.7820 0.7860 0.7900 0.7940
1249.671708 0.7960 0.7960 0.7950 0.7940 0.7920
1256.291000 0.7880 0.7860 0.7830 0.7800 0.7760
1262.916708 0.7700 0.7660 0.7600 0.7540 0.7500
1269.536000 0.7430 0.7380 0.7370 0.7380 0.7410
1276.161708 0.7430 0.7500 0.7520 0.7540 0.7540
1282.781000 0.7540 0.7520 0.7490 0.7420 0.7350
1289.406708 0.7270 0.7190 0.7110 0.7020 0.6990
1296.026000 0.6850 0.6710 0.6560 0.6280 0.5860
1302.651708 0.5630 0.5270 0.4870 0.4870 0.5230
1309.271000 0.5610 0.5800 0.6240 0.6250 0.6260
1315.896708 0.6260 0.6280 0.6300 0.6520 0.6780
1322.517000 0.6980 0.7140 0.7230 0.7290 0.7380
1329.142708 0.7410 0.7420 0.7410 0.7370 0.7260
1335.762000 0.7050 0.6980 0.6870 0.6770 0.6600
1342.387708 0.6520 0.6440 0.6280 0.6220 0.6140
1349.007000 0.6140 0.6220 0.6330 0.6380 0.6420
1355.632708 0.6530 0.6580 0.6580 0.6540 0.6460
1362.252000 0.6300 0.6100 0.5860 0.5570 0.5310
1368.877708 0.5130 0.4980 0.4700 0.4420 0.4390
1375.497000 0.4380 0.4380 0.4390 0.4520 0.4700
1382.122708 0.4980 0.5320 0.5560 0.5940 0.6290
1388.742000 0.6620 0.6900 0.7140 0.7290 0.7420
1395.367708 0.7450 0.7470 0.7490 0.7500 0.7510
1401.987000 0.7510 0.7510 0.7500 0.7470 0.7460
1408.612708 0.7430 0.7380 0.7330 0.7290 0.7250
1415.232000 0.7210 0.7130 0.7060 0.7010 0.6940
1421.857708 0.6830 0.6750 0.6640 0.6440 0.6060
1428.477000 0.6040 0.6010 0.6000 0.5770 0.5570
1435.102708 0.5450 0.5280 0.5050 0.4720 0.4510
1441.722000 0.4500 0.4430 0.4230 0.3860 0.3710
1448.347708 0.3700 0.3610 0.3500 0.3240 0.3020
1454.967000 0.2860 0.2600 0.2430 0.2330 0.2320
1461.592708 0.2320 0.2320 0.2320 0.2330 0.2350
1468.212000 0.2400 0.2490 0.2700 0.3140 0.3750
1474.837708 0.3900 0.3990 0.4390 0.4620 0.4800
1481.457000 0.4840 0.5000 0.5520 0.5750 0.6000
1488.082708 0.6210 0.6250 0.6240 0.6100 0.6040
1494.702000 0.6040 0.6240 0.6360 0.6500 0.6940
1501.327708 0.7390 0.7410 0.7410 0.7390 0.7380
1507.947000 0.7370 0.7350 0.7350 0.7340 0.7340
1514.572708 0.7340 0.7330 0.7300 0.7230 0.7210
1521.192000 0.7180 0.7170 0.7140 0.7110 0.7100
1527.817708 0.7090 0.7060 0.7030 0.7020 0.6990
1534.437000 0.6970 0.6930 0.6820 0.6790 0.6730
1541.062708 0.6670 0.6650 0.6640 0.6650 0.6660
1547.682000 0.6660 0.6660 0.6650 0.6620 0.6580
1554.307708 0.6570 0.6540 0.6530 0.6460 0.6370
1560.927000 0.6260 0.6210 0.6180 0.6180 0.6170
1567.552708 0.6120 0.6000 0.5900 0.5810 0.5610
1574.172000 0.5480 0.5470 0.5480 0.5650 0.6050
1580.797708 0.6370 0.6560 0.6830 0.6870 0.6870
1587.417000 0.6850 0.6820 0.6670 0.6480 0.6120
1594.042708 0.5790 0.5760 0.5770 0.5810 0.5840
1600.662000 0.5860 0.5850 0.5830 0.5760 0.5640
1607.287708 0.4800 0.4660 0.4470 0.4320 0.4140
1613.907000 0.4010 0.4010 0.4160 0.5000 0.5040
1620.532708 0.5070 0.5110 0.5210 0.5370 0.5390
1627.152000 0.5370 0.5320 0.5280 0.5240 0.5200
1633.777708 0.5030 0.4750 0.4300 0.4270 0.4020
1640.397000 0.3670 0.3540 0.3490 0.3470 0.3490
1647.022708 0.3730 0.3870 0.4560 0.5280 0.5900
1653.642000 0.6320 0.6810 0.7390 0.7720 0.7830
1660.267708 0.8000 0.8220 0.8470 0.8550 0.8610
1666.887000 0.8650 0.8680 0.8690 0.8710 0.8720
1673.512708 0.8730 0.8760 0.8790 0.8810 0.8850
1680.132000 0.8870 0.8880 0.8880 0.8890 0.8890
1686.757708 0.8890 0.8890 0.8910 0.8920 0.8950
1693.377000 0.8960 0.8990 0.9000 0.9000 0.8990
1700.002708 0.8970 0.8960 0.8920 0.8910 0.8890
1706.623000 0.8890 0.8890 0.8890 0.8880 0.8880
1713.248708 0.8870 0.8850 0.8840 0.8840 0.8830
1719.868000 0.8830 0.8810 0.8810 0.8810 0.8830
1726.493708 0.8840 0.8850 0.8850 0.8840 0.8830
1733.113000 0.8810 0.8800 0.8800 0.8800 0.8790
1739.738708 0.8790 0.8760 0.8760 0.8750 0.8730
1746.358000 0.8730 0.8720 0.8710 0.8690 0.8690
1752.983708 0.8710 0.8710 0.8710 0.8720 0.8730
1759.603000 0.8750 0.8750 0.8760 0.8760 0.8760
1766.228708 0.8760 0.8760 0.8750 0.8730 0.8730
1772.848000 0.8730 0.8730 0.8710 0.8710 0.8710
1779.473708 0.8720 0.8720 0.8720 0.8730 0.8730
1786.093000 0.8730 0.8720 0.8720 0.8710 0.8710
1792.718708 0.8710 0.8710 0.8710 0.8710 0.8690
1799.338000 0.8690 0.8690 0.8690 0.8690 0.8690
1805.963708 0.8710 0.8710 0.8690 0.8690 0.8690
1812.583000 0.8680 0.8680 0.8670 0.8650 0.8650
1819.208708 0.8650 0.8650 0.8640 0.8640 0.8640
1825.828000 0.8640 0.8640 0.8640 0.8640 0.8630
1832.453708 0.8630 0.8630 0.8640 0.8640 0.8650
1839.073000 0.8650 0.8670 0.8670 0.8670 0.8680
1845.698708 0.8680 0.8690 0.8690 0.8680 0.8650
1852.318000 0.8650 0.8640 0.8640 0.8630 0.8610
1858.943708 0.8610 0.8610 0.8610 0.8610 0.8610
1865.563000 0.8610 0.8610 0.8610 0.8610 0.8610
1872.188708 0.8610 0.8610 0.8610 0.8610 0.8610
1878.808000 0.8590 0.8590 0.8590 0.8570 0.8570
1885.433708 0.8560 0.8560 0.8560 0.8560 0.8550
1892.053000 0.8550 0.8530 0.8530 0.8530 0.8530
1898.678708 0.8530 0.8530 0.8530 0.8530 0.8530
1905.298000 0.8530 0.8530 0.8520 0.8520 0.8520
1911.923708 0.8520 0.8520 0.8510 0.8510 0.8510
1918.543000 0.8510 0.8490 0.8490 0.8490 0.8490
1925.168708 0.8490 0.8490 0.8490 0.8490 0.8490
1931.788000 0.8490 0.8480 0.8480 0.8480 0.8470
1938.413708 0.8470 0.8470 0.8450 0.8450 0.8450
1945.033000 0.8450 0.8450 0.8450 0.8450 0.8470
1951.658708 0.8470 0.8470 0.8470 0.8470 0.8480
1958.278000 0.8480 0.8480 0.8480 0.8480 0.8480
1964.903708 0.8480 0.8470 0.8470 0.8450 0.8450
1971.523000 0.8440 0.8430 0.8430 0.8410 0.8400
1978.148708 0.8400 0.8390 0.8390 0.8370 0.8360
1984.768000 0.8360 0.8360 0.8360 0.8370 0.8370
1991.393708 0.8370 0.8370 0.8390 0.8390 0.8390
1998.013000 0.8400 0.8400 0.8400 0.8390 0.8390
2004.638708 0.8390 0.8370 0.8370 0.8370 0.8360
2011.258000 0.8360 0.8360 0.8360 0.8350 0.8350
2017.883708 0.8350 0.8350 0.8350 0.8350 0.8350
2024.503000 0.8350 0.8350 0.8330 0.8330 0.8330
2031.128708 0.8330 0.8330 0.8320 0.8320 0.8310
2037.748000 0.8310 0.8300 0.8300 0.8280 0.8280
2044.373708 0.8280 0.8270 0.8270 0.8260 0.8260
2050.993000 0.8260 0.8260 0.8260 0.8260 0.8260
2057.618708 0.8260 0.8240 0.8240 0.8240 0.8240
2064.238000 0.8240 0.8240 0.8230 0.8230 0.8230
2070.863708 0.8230 0.8230 0.8230 0.8230 0.8230
2077.483000 0.8230 0.8230 0.8230 0.8230 0.8230
2084.108708 0.8230 0.8230 0.8230 0.8220 0.8220
2090.729000 0.8220 0.8220 0.8220 0.8220 0.8220
2097.354708 0.8220 0.8220 0.8220 0.8220 0.8200
2103.973000 0.8200 0.8200 0.8190 0.8190 0.8190
2110.598708 0.8190 0.8190 0.8180 0.8160 0.8160
2117.219000 0.8160 0.8160 0.8160 0.8150 0.8150
2123.844708 0.8150 0.8150 0.8150 0.8160 0.8160
2130.464000 0.8160 0.8150 0.8150 0.8150 0.8150
2137.089708 0.8140 0.8140 0.8140 0.8140 0.8120
2143.708000 0.8120 0.8120 0.8120 0.8110 0.8110
2150.333708 0.8110 0.8100 0.8100 0.8100 0.8080
2156.954000 0.8070 0.8070 0.8070 0.8070 0.8070
2163.579708 0.8070 0.8060 0.8060 0.8060 0.8040
2170.199000 0.8040 0.8040 0.8040 0.8040 0.8040
2176.824708 0.8030 0.8030 0.8030 0.8020 0.8020
2183.444000 0.8020 0.8000 0.8000 0.8000 0.8000
2190.069708 0.8000 0.8000 0.7990 0.7990 0.7990
2196.689000 0.7990 0.7990 0.7990 0.7990 0.7980
2203.314708 0.7980 0.7960 0.7960 0.7960 0.7950
2209.934000 0.7950 0.7950 0.7940 0.7940 0.7940
2216.559708 0.7940 0.7920 0.7920 0.7920 0.7920
2223.179000 0.7920 0.7920 0.7920 0.7920 0.7910
2229.804708 0.7910 0.7910 0.7900 0.7900 0.7900
2236.424000 0.7880 0.7880 0.7880 0.7870 0.7870
2243.049708 0.7860 0.7860 0.7860 0.7840 0.7840
2249.669000 0.7840 0.7830 0.7830 0.7820 0.7820
2256.294708 0.7820 0.7800 0.7800 0.7800 0.7790
2262.914000 0.7790 0.7790 0.7780 0.7780 0.7760
2269.539708 0.7750 0.7750 0.7750 0.7750 0.7740
2276.159000 0.7740 0.7740 0.7720 0.7720 0.7720
2282.784708 0.7710 0.7710 0.7710 0.7700 0.7670
2289.404000 0.7640 0.7640 0.7640 0.7630 0.7630
2296.029708 0.7620 0.7620 0.7620 0.7620 0.7620
2302.649000 0.7600 0.7600 0.7590 0.7590 0.7580
2309.274708 0.7560 0.7550 0.7540 0.7520 0.7500
2315.894000 0.7420 0.7410 0.7380 0.7340 0.7310
2322.519708 0.7290 0.7290 0.7260 0.7220 0.7210
2329.139000 0.7190 0.7190 0.7180 0.7180 0.7170
2335.764708 0.7170 0.7150 0.7150 0.7140 0.7130
2342.384000 0.7130 0.7130 0.7130 0.7140 0.7150
2349.009708 0.7150 0.7150 0.7170 0.7190 0.7190
2355.629000 0.7180 0.7170 0.7140 0.7110 0.7110
2362.254708 0.7100 0.7100 0.7100 0.7100 0.7100
2368.874000 0.7110 0.7110 0.7130 0.7140 0.7150
2375.499708 0.7170 0.7170 0.7170 0.7170 0.7170
2382.119000 0.7170 0.7180 0.7180 0.7180 0.7180
2388.744708 0.7180 0.7180 0.7180 0.7170 0.7150
2395.364000 0.7100 0.7090 0.7090 0.7070 0.7060
2401.989708 0.7050 0.7020 0.7010 0.6980 0.6950
2408.609000 0.6930 0.6900 0.6860 0.6810 0.6780
2415.234708 0.6740 0.6700 0.6640 0.6610 0.6570
2421.854000 0.6490 0.6460 0.6410 0.6360 0.6320
2428.479708 0.6290 0.6280 0.6260 0.6250 0.6250
2435.099000 0.6260 0.6300 0.6360 0.6380 0.6400
2441.724708 0.6440 0.6480 0.6490 0.6500 0.6520
2448.344000 0.6540 0.6600 0.6670 0.6710 0.6730
2454.969708 0.6740 0.6820 0.6860 0.6870 0.6900
2461.589000 0.6910 0.6930 0.6940 0.6950 0.6950
2468.214708 0.6950 0.6970 0.6980 0.6990 0.6990
2474.834000 0.7010 0.7010 0.7010 0.7020 0.7020
2481.459708 0.7020 0.7030 0.7030 0.7030 0.7030
2488.079000 0.7050 0.7050 0.7050 0.7050 0.7030
2494.704708 0.7030 0.7050 0.7050 0.7050 0.7050
2501.324000 0.7050 0.7050 0.7050 0.7030 0.7030
2507.949708 0.7030 0.7030 0.7030 0.7030 0.7030
2514.570000 0.7030 0.7030 0.7030 0.7030 0.7030
2521.195708 0.7030 0.7020 0.7020 0.7020 0.7010
2527.814000 0.7010 0.7010 0.6990 0.6990 0.6990
2534.439708 0.6980 0.6980 0.6970 0.6970 0.6950
2541.060000 0.6950 0.6950 0.6940 0.6940 0.6940
2547.685708 0.6930 0.6930 0.6910 0.6910 0.6900
2554.305000 0.6900 0.6900 0.6900 0.6890 0.6890
2560.930708 0.6870 0.6870 0.6860 0.6860 0.6850
2567.550000 0.6850 0.6830 0.6830 0.6830 0.6830
2574.175708 0.6820 0.6820 0.6790 0.6780 0.6780
2580.795000 0.6750 0.6740 0.6740 0.6730 0.6730
2587.420708 0.6730 0.6710 0.6710 0.6700 0.6700
2594.040000 0.6690 0.6690 0.6690 0.6670 0.6670
2600.665708 0.6670 0.6670 0.6660 0.6660 0.6650
2607.285000 0.6650 0.6640 0.6640 0.6620 0.6610
2613.910708 0.6600 0.6580 0.6570 0.6570 0.6560
2620.530000 0.6540 0.6530 0.6530 0.6520 0.6500
2627.155708 0.6500 0.6490 0.6460 0.6450 0.6420
2633.775000 0.6410 0.6380 0.6320 0.6320 0.6300
2640.400708 0.6290 0.6280 0.6260 0.6240 0.6210
2647.020000 0.6160 0.6140 0.6140 0.6130 0.6130
2653.645708 0.6120 0.6100 0.6090 0.6090 0.6080
2660.265000 0.6080 0.6060 0.6060 0.6050 0.6050
2666.890708 0.6040 0.6020 0.6020 0.6020 0.6010
2673.510000 0.6010 0.6010 0.6000 0.6000 0.6000
2680.135708 0.6000 0.5980 0.5970 0.5960 0.5940
2686.755000 0.5930 0.5920 0.5920 0.5920 0.5900
2693.380708 0.5900 0.5890 0.5880 0.5860 0.5850
2700.000000 0.5840 0.5800 0.5790 0.5770 0.5730
2706.625708 0.5720 0.5710 0.5650 0.5610 0.5590
2713.245000 0.5560 0.5550 0.5520 0.5510 0.5490
2719.870708 0.5480 0.5410 0.5390 0.5350 0.5330
2726.490000 0.5330 0.5320 0.5310 0.5290 0.5250
2733.115708 0.5240 0.5230 0.5210 0.5200 0.5190
2739.735000 0.5160 0.5150 0.5150 0.5130 0.5110
2746.360708 0.5090 0.5080 0.5050 0.5040 0.5030
2752.980000 0.5000 0.4960 0.4940 0.4910 0.4870
2759.605708 0.4760 0.4740 0.4700 0.4680 0.4670
2766.225000 0.4620 0.4580 0.4540 0.4420 0.4360
2772.850708 0.4310 0.4280 0.4220 0.4160 0.4150
2779.470000 0.4150 0.4140 0.4140 0.4140 0.4150
2786.095708 0.4150 0.4180 0.4200 0.4220 0.4230
2792.715000 0.4240 0.4260 0.4260 0.4270 0.4270
2799.340708 0.4280 0.4280 0.4270 0.4220 0.4160
2805.960000 0.4150 0.4100 0.4090 0.4070 0.4060
2812.585708 0.4030 0.4020 0.4010 0.4010 0.3990
2819.205000 0.3990 0.3980 0.3940 0.3850 0.3810
2825.830708 0.3750 0.3710 0.3570 0.3390 0.3320
2832.450000 0.3090 0.2900 0.2730 0.2580 0.2290
2839.075708 0.2010 0.1810 0.1520 0.1350 0.1060
2845.695000 0.0840 0.0630 0.0530 0.0420 0.0310
2852.320708 0.0290 0.0250 0.0230 0.0230 0.0230
2858.940000 0.0250 0.0260 0.0260 0.0260 0.0260
2865.565708 0.0270 0.0270 0.0270 0.0290 0.0300
2872.185000 0.0300 0.0310 0.0330 0.0330 0.0350
2878.810708 0.0380 0.0410 0.0420 0.0420 0.0420
2885.430000 0.0410 0.0390 0.0330 0.0310 0.0300
2892.055708 0.0290 0.0270 0.0260 0.0250 0.0230
2898.676000 0.0180 0.0150 0.0130 0.0100 0.0090
2905.301708 0.0070 0.0060 0.0060 0.0050 0.0030
2911.920000 0.0030 0.0020 0.0010 0.0010 0.0010
2918.545708 0.0010 0.0020 0.0020 0.0020 0.0050
2925.166000 0.0050 0.0060 0.0060 0.0070 0.0090
2931.791708 0.0090 0.0100 0.0110 0.0130 0.0140
2938.411000 0.0150 0.0150 0.0150 0.0150 0.0140
2945.036708 0.0140 0.0140 0.0130 0.0130 0.0130
2951.656000 0.0130 0.0140 0.0140 0.0140 0.0140
2958.281708 0.0150 0.0170 0.0180 0.0180 0.0190
2964.901000 0.0210 0.0230 0.0300 0.0350 0.0390
2971.526708 0.0410 0.0430 0.0510 0.0820 0.0960
2978.146000 0.1190 0.1260 0.1280 0.1460 0.1560
2984.771708 0.1730 0.1850 0.1930 0.2010 0.2090
2991.391000 0.2210 0.2320 0.2450 0.2520 0.2560
2998.016708 0.2650 0.2780 0.2900 0.2930 0.3020
3004.636000 0.3160 0.3240 0.3320 0.3430 0.3500
3011.261708 0.3590 0.3620 0.3740 0.3860 0.3900
3017.881000 0.3940 0.4050 0.4090 0.4190 0.4260
3024.506708 0.4300 0.4320 0.4350 0.4440 0.4520
3031.126000 0.4580 0.4620 0.4640 0.4720 0.4780
3037.751708 0.4800 0.4840 0.4870 0.4910 0.4960
3044.371000 0.4990 0.5000 0.5040 0.5050 0.5080
3050.996708 0.5110 0.5120 0.5130 0.5130 0.5130
3057.616000 0.5130 0.5130 0.5120 0.5120 0.5120
3064.241708 0.5120 0.5120 0.5110 0.5090 0.5080
3070.861000 0.5080 0.5070 0.5070 0.5050 0.5050
3077.486708 0.5030 0.5010 0.5000 0.4960 0.4940
3084.106000 0.4940 0.4920 0.4910 0.4870 0.4840
3090.731708 0.4820 0.4800 0.4790 0.4760 0.4740
3097.351000 0.4710 0.4670 0.4630 0.4590 0.4550
3103.976708 0.4520 0.4520 0.4510 0.4510 0.4500
3110.596000 0.4480 0.4480 0.4480 0.4480 0.4500
3117.221708 0.4500 0.4510 0.4520 0.4550 0.4560
3123.841000 0.4580 0.4600 0.4620 0.4620 0.4630
3130.466708 0.4660 0.4680 0.4740 0.4830 0.4870
3137.086000 0.4900 0.4920 0.4950 0.5000 0.5010
3143.711708 0.5110 0.5150 0.5170 0.5310 0.5370
3150.331000 0.5430 0.5480 0.5520 0.5590 0.5630
3156.956708 0.5680 0.5750 0.5800 0.5830 0.5840
3163.576000 0.5920 0.5940 0.5980 0.6000 0.6000
3170.201708 0.6010 0.6020 0.6090 0.6100 0.6120
3176.821000 0.6120 0.6170 0.6210 0.6220 0.6240
3183.446708 0.6250 0.6260 0.6280 0.6280 0.6290
3190.066000 0.6320 0.6340 0.6380 0.6420 0.6420
3196.691708 0.6450 0.6480 0.6520 0.6560 0.6580
3203.311000 0.6600 0.6600 0.6610 0.6610 0.6620
3209.936708 0.6640 0.6640 0.6650 0.6650 0.6650
3216.556000 0.6650 0.6650 0.6650 0.6650 0.6640
3223.181708 0.6640 0.6640 0.6640 0.6640 0.6640
3229.801000 0.6640 0.6650 0.6660 0.6660 0.6670
3236.426708 0.6690 0.6700 0.6700 0.6710 0.6710
3243.046000 0.6710 0.6710 0.6730 0.6730 0.6740
3249.671708 0.6740 0.6740 0.6740 0.6740 0.6750
3256.291000 0.6750 0.6770 0.6790 0.6810 0.6820
3262.916708 0.6850 0.6860 0.6870 0.6870 0.6890
3269.536000 0.6890 0.6890 0.6890 0.6900 0.6910
3276.161708 0.6910 0.6930 0.6930 0.6930 0.6940
3282.781000 0.6940 0.6940 0.6970 0.6970 0.6970
3289.406708 0.6980 0.6980 0.6980 0.6980 0.6990
3296.026000 0.6990 0.6990 0.7010 0.7010 0.7010
3302.651708 0.7010 0.7010 0.7010 0.7010 0.7010
3309.271000 0.7010 0.7010 0.7010 0.7010 0.7010
3315.896708 0.7010 0.7010 0.7010 0.7010 0.6990
3322.517000 0.6990 0.6990 0.6990 0.6990 0.6980
3329.142708 0.6980 0.6980 0.6980 0.6980 0.6970
3335.761000 0.6970 0.6970 0.6950 0.6950 0.6950
3342.386708 0.6950 0.6940 0.6940 0.6940 0.6940
3349.007000 0.6930 0.6930 0.6930 0.6930 0.6910
3355.632708 0.6910 0.6910 0.6910 0.6910 0.6910
3362.252000 0.6900 0.6900 0.6900 0.6900 0.6900
3368.877708 0.6890 0.6890 0.6890 0.6890 0.6870
3375.497000 0.6870 0.6870 0.6870 0.6870 0.6870
3382.122708 0.6870 0.6870 0.6870 0.6870 0.6860
3388.742000 0.6860 0.6860 0.6860 0.6860 0.6870
3395.367708 0.6870 0.6890
##END=
