##TITLE=ETHANOL, 2-[(6-AMINO-9H-PURIN-2-YL)THIO]-
##JCAMP-DX=4.24
##DATA TYPE=INFRARED SPECTRUM
##CLASS=COBLENTZ III
##ORIGIN=SOUTHERN RESEARCH INSTITUTE
##OWNER=Copyright (C) 1987 by the Coblentz Society
Collection (C) 2018 copyright by the U.S. Secretary of Commerce
on behalf of the United States of America. All rights reserved.
##DATE=1960/03/09
##NAMES=2-[(6-amino-9H-purin-2-yl)sulfanyl]ethanol
Adenine, 2-((2-hydroxyethyl)thio)-
##MOLFORM=C7 H9 N5 O S
##SOURCE REFERENCE=COBLENTZ NO. 8733
##$NIST ID=B6008733
##$NIST SOURCE=COBLENTZ
##$NIST IMAGE=cob8733
##SPECTROMETER/DATA SYSTEM=PERKIN-ELMER 21 (GRATING)
##INSTRUMENT PARAMETERS=FILTER CHANGE ABOUT 1020 CM^-^1
##STATE=SOLID (0.9 mg / 650 mg KBr DISC)
##SAMPLING PROCEDURE=TRANSMISSION
##RESOLUTION=2
##DATA PROCESSING=DIGITIZED BY COBLENTZ SOCIETY (BATCH II) FROM HARD COPY (ADJUSTED \addcm-1\10-5-2\)
##XUNITS=1/CM
##YUNITS=TRANSMITTANCE
##XFACTOR=1.0
##YFACTOR=1
##DELTAX=1.006023
##FIRSTX=603.54
##LASTX=4019.99
##FIRSTY=0.5208
##MAXX=4019.99
##MINX=603.54
##MAXY=0.813574
##MINY=0.0992042
##NPOINTS=3397
##XYDATA=(X++(Y..Y))
603.540000 0.5208 0.5214 0.5220 0.5226 0.5233
608.570115 0.5240 0.5249 0.5258 0.5266 0.5275
613.600230 0.5283 0.5292 0.5302 0.5311 0.5320
618.630344 0.5328 0.5334 0.5339 0.5343 0.5348
623.660459 0.5352 0.5355 0.5359 0.5364 0.5371
628.690574 0.5378 0.5385 0.5393 0.5402 0.5411
633.720689 0.5419 0.5416 0.5435 0.5446 0.5458
638.750804 0.5472 0.5485 0.5499 0.5512 0.5526
643.780918 0.5539 0.5553 0.5570 0.5589 0.5608
648.811033 0.5617 0.5618 0.5618 0.5618 0.5616
653.841148 0.5610 0.5603 0.5596 0.5589 0.5581
658.871263 0.5575 0.5561 0.5545 0.5530 0.5514
663.901378 0.5495 0.5472 0.5447 0.5420 0.5381
668.931492 0.5337 0.5283 0.5152 0.5018 0.4941
673.961607 0.4917 0.4907 0.4896 0.4891 0.4880
678.991722 0.4897 0.4916 0.5002 0.5120 0.5239
684.021837 0.5357 0.5475 0.5594 0.5693 0.5778
689.051952 0.5835 0.5871 0.5895 0.5915 0.5935
694.082067 0.5956 0.5974 0.5988 0.6001 0.6014
699.112181 0.6026 0.6037 0.6048 0.6059 0.6068
704.142296 0.6075 0.6080 0.6086 0.6091 0.6095
709.172411 0.6100 0.6104 0.6108 0.6113 0.6117
714.202526 0.6121 0.6126 0.6130 0.6134 0.6138
719.232641 0.6142 0.6146 0.6150 0.6153 0.6157
724.262755 0.6160 0.6164 0.6168 0.6171 0.6175
729.292870 0.6180 0.6186 0.6192 0.6198 0.6205
734.322985 0.6217 0.6233 0.6248 0.6262 0.6275
739.353100 0.6288 0.6301 0.6314 0.6327 0.6338
744.383215 0.6346 0.6352 0.6357 0.6363 0.6360
749.413329 0.6356 0.6356 0.6348 0.6340 0.6332
754.443444 0.6324 0.6317 0.6307 0.6294 0.6279
759.473559 0.6262 0.6239 0.6210 0.6181 0.6151
764.503674 0.6119 0.6073 0.6012 0.5949 0.5876
769.533789 0.5787 0.5696 0.5591 0.5458 0.5345
774.563903 0.5304 0.5278 0.5256 0.5248 0.5286
779.594018 0.5315 0.5351 0.5404 0.5466 0.5529
784.624133 0.5595 0.5667 0.5744 0.5816 0.6158
789.654248 0.6949 0.7010 0.7014 0.7014 0.7013
794.684363 0.7010 0.7009 0.7006 0.6995 0.6981
799.714477 0.6966 0.6950 0.6933 0.6917 0.6900
804.744592 0.6882 0.6864 0.6846 0.6828 0.6809
809.774707 0.6790 0.6771 0.6752 0.6734 0.6713
814.804822 0.6686 0.6660 0.6634 0.6607 0.6581
819.834937 0.6554 0.6528 0.6501 0.6475 0.6450
824.865052 0.6425 0.6400 0.6375 0.6348 0.6314
829.895166 0.6277 0.6241 0.6203 0.6153 0.6056
834.925281 0.5978 0.5911 0.5843 0.5765 0.5685
839.955396 0.5605 0.5543 0.5480 0.5418 0.5361
844.985511 0.5303 0.5257 0.5220 0.5192 0.5143
850.015626 0.5183 0.5191 0.5213 0.5253 0.5308
855.045740 0.5379 0.5420 0.5457 0.5491 0.5526
860.075855 0.5562 0.5601 0.5639 0.5670 0.5699
865.105970 0.5728 0.5760 0.5802 0.5841 0.5879
870.136085 0.5916 0.5953 0.5991 0.6029 0.6067
875.166200 0.6104 0.6133 0.6160 0.6187 0.6213
880.196314 0.6239 0.6266 0.6293 0.6320 0.6342
885.226429 0.6357 0.6371 0.6383 0.6387 0.6392
890.256544 0.6403 0.6393 0.6392 0.6391 0.6389
895.286659 0.6385 0.6380 0.6375 0.6371 0.6365
900.316774 0.6352 0.6340 0.6327 0.6310 0.6293
905.346888 0.6276 0.6258 0.6240 0.6213 0.6181
910.377003 0.6142 0.6102 0.6054 0.5972 0.5884
915.407118 0.5792 0.5676 0.5498 0.5373 0.5223
920.437233 0.5115 0.4974 0.4737 0.4602 0.4479
925.467348 0.4347 0.4189 0.3998 0.3834 0.3745
930.497462 0.3712 0.3694 0.3693 0.3694 0.3742
935.527577 0.3795 0.3879 0.3970 0.4059 0.4151
940.557692 0.4430 0.5024 0.5050 0.5068 0.5068
945.587807 0.5068 0.5066 0.5062 0.5058 0.5054
950.617922 0.5050 0.5053 0.5076 0.5111 0.5168
955.648037 0.5252 0.5430 0.5706 0.6006 0.6308
960.678151 0.6715 0.6899 0.7008 0.7101 0.7160
965.708266 0.7178 0.7191 0.7194 0.7194 0.7201
970.738381 0.7207 0.7193 0.7188 0.7182 0.7177
975.768496 0.7171 0.7164 0.7158 0.7149 0.7136
980.798611 0.7124 0.7111 0.7098 0.7084 0.7067
985.828725 0.7047 0.7027 0.7001 0.6959 0.6911
990.858840 0.6860 0.6804 0.6746 0.6687 0.6628
995.888955 0.6564 0.6486 0.6402 0.6319 0.6239
1000.919070 0.6165 0.6090 0.6015 0.5923 0.5810
1005.949185 0.5696 0.5592 0.5503 0.5416 0.5329
1010.979299 0.5225 0.5099 0.5013 0.4988 0.4986
1016.009414 0.4978 0.4984 0.5015 0.5042 0.5075
1021.039529 0.5110 0.5150 0.5205 0.5273 0.5357
1026.069644 0.5470 0.5677 0.5887 0.6004 0.6066
1031.099759 0.6072 0.6069 0.6070 0.6061 0.6045
1036.129873 0.6026 0.5999 0.5959 0.5906 0.5853
1041.159988 0.5793 0.5726 0.5659 0.5601 0.5551
1046.190103 0.5501 0.5452 0.5410 0.5374 0.5337
1051.220218 0.5301 0.5265 0.5230 0.5195 0.5160
1056.250333 0.5120 0.5073 0.5024 0.4975 0.4923
1061.280447 0.4860 0.4790 0.4709 0.4618 0.4545
1066.310562 0.4483 0.4428 0.4390 0.4380 0.4371
1071.340677 0.4386 0.4413 0.4447 0.4501 0.4578
1076.370792 0.4685 0.4814 0.4956 0.5101 0.5244
1081.400907 0.5387 0.5530 0.5673 0.5817 0.5960
1086.431021 0.6103 0.6255 0.6358 0.6409 0.6401
1091.461136 0.6386 0.6379 0.6369 0.6360 0.6350
1096.491251 0.6335 0.6318 0.6301 0.6282 0.6261
1101.521366 0.6239 0.6218 0.6197 0.6178 0.6159
1106.551481 0.6141 0.6122 0.6104 0.6085 0.6066
1111.581596 0.6048 0.6036 0.6036 0.6016 0.6036
1116.611710 0.6058 0.6082 0.6109 0.6150 0.6206
1121.641825 0.6258 0.6301 0.6341 0.6382 0.6397
1126.671940 0.6402 0.6405 0.6402 0.6397 0.6391
1131.702055 0.6407 0.6378 0.6351 0.6323 0.6294
1136.732170 0.6259 0.6219 0.6179 0.6137 0.6094
1141.762284 0.6051 0.6008 0.5934 0.5845 0.5751
1146.792399 0.5649 0.5546 0.5267 0.5179 0.5171
1151.822514 0.5173 0.5154 0.5263 0.5383 0.5457
1156.852629 0.5521 0.5587 0.5655 0.5726 0.5813
1161.882744 0.5904 0.6144 0.6235 0.6277 0.6315
1166.912858 0.6350 0.6386 0.6424 0.6463 0.6501
1171.942973 0.6530 0.6553 0.6574 0.6592 0.6620
1176.973088 0.6620 0.6614 0.6611 0.6605 0.6597
1182.003203 0.6590 0.6580 0.6566 0.6551 0.6535
1187.033318 0.6518 0.6497 0.6474 0.6451 0.6428
1192.063432 0.6405 0.6381 0.6356 0.6332 0.6307
1197.093547 0.6283 0.6258 0.6227 0.6190 0.6153
1202.123662 0.6115 0.6077 0.6034 0.5988 0.5941
1207.153777 0.5896 0.5848 0.5797 0.5744 0.5692
1212.183892 0.5639 0.5565 0.5474 0.5383 0.5296
1217.214006 0.5211 0.5127 0.5041 0.4953 0.4864
1222.244121 0.4776 0.4693 0.4615 0.4542 0.4484
1227.274236 0.4435 0.4387 0.4347 0.4311 0.4280
1232.304351 0.4256 0.4234 0.4212 0.4179 0.4081
1237.334466 0.3764 0.3474 0.3408 0.3379 0.3367
1242.364581 0.3367 0.3366 0.3374 0.3389 0.3420
1247.394695 0.3479 0.3548 0.3680 0.3828 0.3904
1252.424810 0.3954 0.3987 0.4005 0.4019 0.4031
1257.454925 0.4045 0.4066 0.4092 0.4118 0.4162
1262.485040 0.4229 0.4343 0.4543 0.4780 0.5149
1267.515155 0.5608 0.5815 0.5873 0.5894 0.5902
1272.545269 0.5910 0.5916 0.5917 0.5929 0.5937
1277.575384 0.5904 0.5891 0.5862 0.5820 0.5719
1282.605499 0.5568 0.5479 0.5403 0.5335 0.5284
1287.635614 0.5240 0.5203 0.5171 0.5131 0.5067
1292.665729 0.4989 0.4912 0.4835 0.4758 0.4681
1297.695843 0.4604 0.4527 0.4449 0.4326 0.4092
1302.725958 0.3944 0.3802 0.3666 0.3537 0.3421
1307.756073 0.3294 0.3124 0.2948 0.2832 0.2716
1312.786188 0.2598 0.2453 0.2182 0.1877 0.1718
1317.816303 0.1633 0.1600 0.1594 0.1599 0.1603
1322.846417 0.1616 0.1655 0.1734 0.1862 0.1978
1327.876532 0.2065 0.2260 0.2712 0.2903 0.3197
1332.906647 0.3361 0.3476 0.3842 0.4298 0.4748
1337.936762 0.5015 0.5125 0.5281 0.5502 0.5632
1342.966877 0.5711 0.5775 0.5835 0.5861 0.5888
1347.996991 0.5914 0.5939 0.5954 0.5968 0.5982
1353.027106 0.5996 0.6010 0.6024 0.6041 0.6058
1358.057221 0.6074 0.6091 0.6108 0.6124 0.6138
1363.087336 0.6152 0.6159 0.6162 0.6165 0.6167
1368.117451 0.6170 0.6172 0.6174 0.6188 0.6209
1373.147565 0.6230 0.6272 0.6329 0.6482 0.6560
1378.177680 0.6595 0.6612 0.6629 0.6646 0.6681
1383.207795 0.6645 0.6639 0.6632 0.6617 0.6602
1388.237910 0.6584 0.6562 0.6540 0.6518 0.6492
1393.268025 0.6465 0.6438 0.6410 0.6383 0.6350
1398.298140 0.6316 0.6283 0.6249 0.6215 0.6184
1403.328254 0.6154 0.6123 0.6092 0.6062 0.6032
1408.358369 0.6001 0.5971 0.5931 0.5874 0.5805
1413.388484 0.5689 0.5558 0.5393 0.5270 0.5161
1418.418599 0.5051 0.4941 0.4831 0.4721 0.4611
1423.448714 0.4501 0.4391 0.4281 0.4020 0.3887
1428.478828 0.3823 0.3766 0.3744 0.3734 0.3705
1433.508943 0.3724 0.3801 0.3921 0.4052 0.4183
1438.539058 0.4313 0.4444 0.4575 0.4706 0.4836
1443.569173 0.4967 0.5098 0.5229 0.5359 0.5471
1448.599288 0.5558 0.5625 0.5651 0.5671 0.5657
1453.629402 0.5637 0.5624 0.5568 0.5508 0.5459
1458.659517 0.5406 0.5349 0.5290 0.5234 0.5184
1463.689632 0.5135 0.5086 0.5026 0.4958 0.4888
1468.719747 0.4839 0.4821 0.4811 0.4792 0.4795
1473.749862 0.4810 0.4816 0.4829 0.4844 0.4867
1478.779976 0.4896 0.4926 0.4963 0.5011 0.5066
1483.810091 0.5121 0.5194 0.5286 0.5381 0.5481
1488.840206 0.5735 0.6065 0.6162 0.6210 0.6233
1493.870321 0.6250 0.6258 0.6266 0.6269 0.6266
1498.900436 0.6266 0.6264 0.6261 0.6258 0.6254
1503.930550 0.6248 0.6241 0.6234 0.6227 0.6220
1508.960665 0.6213 0.6205 0.6196 0.6184 0.6171
1513.990780 0.6151 0.6125 0.6100 0.6075 0.6049
1519.020895 0.6022 0.5988 0.5949 0.5911 0.5873
1524.051010 0.5835 0.5796 0.5756 0.5718 0.5679
1529.081125 0.5640 0.5601 0.5557 0.5508 0.5460
1534.111239 0.5412 0.5363 0.5315 0.5268 0.5222
1539.141354 0.5177 0.5131 0.5085 0.5040 0.4994
1544.171469 0.4940 0.4872 0.4804 0.4737 0.4614
1549.201584 0.4465 0.4330 0.4128 0.3738 0.3634
1554.231699 0.3544 0.3454 0.3369 0.3302 0.3236
1559.261813 0.3170 0.3105 0.3030 0.2951 0.2870
1564.291928 0.2775 0.2632 0.2482 0.2337 0.2192
1569.322043 0.1970 0.1732 0.1552 0.1396 0.1271
1574.352158 0.1180 0.1097 0.1031 0.1006 0.0992
1579.382273 0.1003 0.1024 0.1075 0.1180 0.1300
1584.412387 0.1371 0.1433 0.1572 0.1622 0.1622
1589.442502 0.1615 0.1596 0.1565 0.1532 0.1487
1594.472617 0.1427 0.1373 0.1335 0.1312 0.1305
1599.502732 0.1308 0.1314 0.1327 0.1345 0.1411
1604.532847 0.1506 0.1624 0.1758 0.1985 0.2173
1609.562961 0.2250 0.2302 0.2347 0.2386 0.2413
1614.593076 0.2436 0.2458 0.2480 0.2691 0.2951
1619.623191 0.3102 0.3199 0.3254 0.3286 0.3302
1624.653306 0.3308 0.3327 0.3325 0.3313 0.3308
1629.683421 0.3289 0.3245 0.3167 0.3069 0.2968
1634.713535 0.2868 0.2553 0.2209 0.1855 0.1609
1639.743650 0.1499 0.1382 0.1271 0.1206 0.1176
1644.773765 0.1165 0.1161 0.1158 0.1159 0.1161
1649.803880 0.1150 0.1156 0.1168 0.1174 0.1187
1654.833995 0.1207 0.1229 0.1260 0.1304 0.1367
1659.864110 0.1435 0.1559 0.1720 0.1880 0.2041
1664.894224 0.2201 0.2361 0.2521 0.2681 0.2841
1669.924339 0.3317 0.3688 0.3922 0.4136 0.4281
1674.954454 0.4502 0.4703 0.4828 0.4937 0.5358
1679.984569 0.5721 0.6091 0.6338 0.6414 0.6455
1685.014684 0.6489 0.6521 0.6556 0.6603 0.6658
1690.044798 0.6717 0.6767 0.6809 0.6848 0.6878
1695.074913 0.6900 0.6922 0.6943 0.6960 0.6976
1700.105028 0.6991 0.7006 0.7022 0.7038 0.7054
1705.135143 0.7070 0.7086 0.7117 0.7159 0.7212
1710.165258 0.7271 0.7331 0.7383 0.7419 0.7443
1715.195372 0.7459 0.7470 0.7481 0.7497 0.7519
1720.225487 0.7545 0.7574 0.7613 0.7662 0.7713
1725.255602 0.7749 0.7777 0.7804 0.7830 0.7852
1730.285717 0.7872 0.7890 0.7903 0.7915 0.7927
1735.315832 0.7937 0.7945 0.7953 0.7960 0.7967
1740.345946 0.7975 0.7982 0.7989 0.7997 0.8004
1745.376061 0.8011 0.8019 0.8026 0.8033 0.8041
1750.406176 0.8047 0.8052 0.8056 0.8060 0.8064
1755.436291 0.8068 0.8072 0.8076 0.8080 0.8084
1760.466406 0.8086 0.8089 0.8092 0.8095 0.8097
1765.496520 0.8100 0.8103 0.8105 0.8107 0.8109
1770.526635 0.8110 0.8111 0.8112 0.8113 0.8115
1775.556750 0.8116 0.8117 0.8118 0.8120 0.8121
1780.586865 0.8122 0.8123 0.8125 0.8126 0.8127
1785.616980 0.8127 0.8128 0.8129 0.8130 0.8131
1790.647094 0.8132 0.8131 0.8132 0.8134 0.8135
1795.677209 0.8136 0.8135 0.8135 0.8135 0.8134
1800.707324 0.8134 0.8133 0.8133 0.8133 0.8132
1805.737439 0.8132 0.8131 0.8131 0.8130 0.8129
1810.767554 0.8127 0.8126 0.8124 0.8123 0.8121
1815.797669 0.8119 0.8118 0.8116 0.8115 0.8113
1820.827783 0.8112 0.8111 0.8109 0.8108 0.8107
1825.857898 0.8106 0.8104 0.8103 0.8102 0.8101
1830.888013 0.8099 0.8098 0.8097 0.8095 0.8094
1835.918128 0.8093 0.8092 0.8090 0.8089 0.8088
1840.948243 0.8087 0.8085 0.8084 0.8082 0.8080
1845.978357 0.8077 0.8075 0.8073 0.8073 0.8073
1851.008472 0.8072 0.8072 0.8072 0.8072 0.8072
1856.038587 0.8071 0.8071 0.8072 0.8074 0.8076
1861.068702 0.8078 0.8080 0.8076 0.8071 0.8066
1866.098817 0.8061 0.8055 0.8048 0.8040 0.8032
1871.128931 0.8024 0.8016 0.8008 0.8002 0.7995
1876.159046 0.7988 0.7982 0.7977 0.7974 0.7972
1881.189161 0.7970 0.7967 0.7965 0.7963 0.7960
1886.219276 0.7958 0.7956 0.7954 0.7953 0.7951
1891.249391 0.7949 0.7947 0.7946 0.7944 0.7942
1896.279505 0.7940 0.7938 0.7936 0.7934 0.7932
1901.309620 0.7930 0.7928 0.7926 0.7925 0.7923
1906.339735 0.7921 0.7919 0.7917 0.7915 0.7913
1911.369850 0.7911 0.7909 0.7907 0.7904 0.7901
1916.399965 0.7898 0.7895 0.7892 0.7889 0.7887
1921.430079 0.7885 0.7882 0.7880 0.7877 0.7875
1926.460194 0.7873 0.7870 0.7868 0.7865 0.7863
1931.490309 0.7861 0.7858 0.7856 0.7853 0.7852
1936.520424 0.7850 0.7848 0.7846 0.7845 0.7845
1941.550539 0.7844 0.7843 0.7842 0.7841 0.7840
1946.580654 0.7836 0.7830 0.7825 0.7819 0.7813
1951.610768 0.7808 0.7802 0.7797 0.7790 0.7783
1956.640883 0.7776 0.7769 0.7762 0.7754 0.7747
1961.670998 0.7742 0.7737 0.7732 0.7728 0.7723
1966.701113 0.7719 0.7714 0.7710 0.7705 0.7700
1971.731228 0.7696 0.7691 0.7688 0.7686 0.7683
1976.761342 0.7681 0.7679 0.7676 0.7674 0.7672
1981.791457 0.7669 0.7667 0.7665 0.7663 0.7660
1986.821572 0.7658 0.7656 0.7653 0.7651 0.7649
1991.851687 0.7647 0.7646 0.7645 0.7644 0.7643
1996.881802 0.7638 0.7634 0.7629 0.7624 0.7620
2001.911916 0.7615 0.7611 0.7606 0.7602 0.7596
2006.942031 0.7591 0.7586 0.7580 0.7575 0.7570
2011.972146 0.7564 0.7559 0.7554 0.7548 0.7543
2017.002261 0.7538 0.7532 0.7527 0.7522 0.7516
2022.032376 0.7511 0.7505 0.7500 0.7494 0.7489
2027.062490 0.7483 0.7478 0.7473 0.7467 0.7462
2032.092605 0.7456 0.7451 0.7445 0.7440 0.7434
2037.122720 0.7429 0.7423 0.7418 0.7412 0.7407
2042.152835 0.7401 0.7397 0.7392 0.7387 0.7383
2047.182950 0.7378 0.7373 0.7368 0.7364 0.7359
2052.213064 0.7354 0.7349 0.7345 0.7340 0.7335
2057.243179 0.7331 0.7326 0.7321 0.7316 0.7312
2062.273294 0.7306 0.7301 0.7295 0.7290 0.7284
2067.303409 0.7278 0.7273 0.7267 0.7262 0.7256
2072.333524 0.7251 0.7245 0.7239 0.7234 0.7228
2077.363639 0.7223 0.7217 0.7213 0.7208 0.7203
2082.393753 0.7198 0.7192 0.7187 0.7181 0.7176
2087.423868 0.7170 0.7165 0.7159 0.7154 0.7148
2092.453983 0.7143 0.7137 0.7132 0.7126 0.7121
2097.484098 0.7115 0.7110 0.7104 0.7098 0.7092
2102.514213 0.7086 0.7080 0.7074 0.7068 0.7062
2107.544327 0.7056 0.7050 0.7044 0.7038 0.7032
2112.574442 0.7026 0.7020 0.7014 0.7010 0.7005
2117.604557 0.7001 0.6996 0.6992 0.6988 0.6983
2122.634672 0.6979 0.6974 0.6970 0.6965 0.6961
2127.664787 0.6956 0.6952 0.6948 0.6943 0.6939
2132.694901 0.6934 0.6930 0.6924 0.6919 0.6913
2137.725016 0.6908 0.6902 0.6896 0.6891 0.6885
2142.755131 0.6879 0.6874 0.6868 0.6862 0.6857
2147.785246 0.6851 0.6845 0.6838 0.6831 0.6823
2152.815361 0.6815 0.6807 0.6800 0.6792 0.6784
2157.845475 0.6776 0.6769 0.6761 0.6753 0.6745
2162.875590 0.6734 0.6724 0.6713 0.6702 0.6692
2167.905705 0.6681 0.6671 0.6660 0.6649 0.6639
2172.935820 0.6629 0.6623 0.6616 0.6610 0.6604
2177.965935 0.6597 0.6591 0.6584 0.6578 0.6571
2182.996049 0.6565 0.6558 0.6552 0.6545 0.6538
2188.026164 0.6531 0.6525 0.6518 0.6511 0.6504
2193.056279 0.6498 0.6491 0.6484 0.6477 0.6470
2198.086394 0.6464 0.6457 0.6450 0.6443 0.6436
2203.116509 0.6429 0.6421 0.6413 0.6405 0.6398
2208.146623 0.6390 0.6382 0.6374 0.6366 0.6358
2213.176738 0.6350 0.6342 0.6334 0.6326 0.6318
2218.206853 0.6310 0.6302 0.6294 0.6286 0.6278
2223.236968 0.6270 0.6262 0.6255 0.6247 0.6239
2228.267083 0.6231 0.6224 0.6216 0.6208 0.6201
2233.297198 0.6193 0.6185 0.6177 0.6169 0.6161
2238.327312 0.6153 0.6146 0.6138 0.6130 0.6123
2243.357427 0.6115 0.6107 0.6099 0.6092 0.6084
2248.387542 0.6076 0.6068 0.6061 0.6053 0.6045
2253.417657 0.6038 0.6030 0.6023 0.6016 0.6009
2258.447772 0.6002 0.5995 0.5988 0.5981 0.5974
2263.477886 0.5967 0.5960 0.5953 0.5946 0.5939
2268.508001 0.5930 0.5917 0.5904 0.5892 0.5880
2273.538116 0.5870 0.5866 0.5861 0.5857 0.5854
2278.568231 0.5853 0.5853 0.5853 0.5854 0.5854
2283.598346 0.5854 0.5854 0.5855 0.5854 0.5851
2288.628460 0.5844 0.5836 0.5826 0.5808 0.5789
2293.658575 0.5770 0.5752 0.5734 0.5715 0.5696
2298.688690 0.5678 0.5659 0.5642 0.5628 0.5616
2303.718805 0.5604 0.5592 0.5579 0.5567 0.5555
2308.748920 0.5543 0.5530 0.5518 0.5506 0.5494
2313.779034 0.5481 0.5469 0.5458 0.5449 0.5440
2318.809149 0.5431 0.5422 0.5413 0.5404 0.5395
2323.839264 0.5385 0.5376 0.5367 0.5358 0.5349
2328.869379 0.5341 0.5334 0.5326 0.5318 0.5311
2333.899494 0.5303 0.5295 0.5288 0.5280 0.5273
2338.929608 0.5265 0.5257 0.5250 0.5242 0.5234
2343.959723 0.5227 0.5219 0.5212 0.5204 0.5196
2348.989838 0.5189 0.5182 0.5174 0.5167 0.5160
2354.019953 0.5152 0.5145 0.5138 0.5131 0.5124
2359.050068 0.5117 0.5110 0.5104 0.5097 0.5090
2364.080183 0.5083 0.5076 0.5070 0.5063 0.5056
2369.110297 0.5049 0.5043 0.5036 0.5030 0.5027
2374.140412 0.5024 0.5021 0.5018 0.5015 0.5012
2379.170527 0.5009 0.5006 0.5003 0.5000 0.4997
2384.200642 0.4994 0.4989 0.4981 0.4971 0.4961
2389.230757 0.4950 0.4940 0.4930 0.4923 0.4916
2394.260871 0.4909 0.4902 0.4895 0.4888 0.4881
2399.290986 0.4873 0.4867 0.4863 0.4862 0.4860
2404.321101 0.4858 0.4856 0.4855 0.4854 0.4852
2409.351216 0.4851 0.4849 0.4848 0.4847 0.4845
2414.381331 0.4844 0.4842 0.4841 0.4840 0.4838
2419.411445 0.4836 0.4835 0.4833 0.4831 0.4830
2424.441560 0.4828 0.4826 0.4825 0.4823 0.4821
2429.471675 0.4820 0.4818 0.4816 0.4815 0.4811
2434.501790 0.4804 0.4797 0.4789 0.4782 0.4775
2439.531905 0.4767 0.4756 0.4743 0.4731 0.4719
2444.562019 0.4707 0.4695 0.4683 0.4669 0.4655
2449.592134 0.4641 0.4627 0.4613 0.4599 0.4585
2454.622249 0.4571 0.4557 0.4543 0.4528 0.4511
2459.652364 0.4493 0.4476 0.4458 0.4440 0.4423
2464.682479 0.4405 0.4387 0.4369 0.4350 0.4331
2469.712593 0.4313 0.4294 0.4275 0.4257 0.4238
2474.742708 0.4220 0.4202 0.4184 0.4167 0.4150
2479.772823 0.4133 0.4116 0.4098 0.4081 0.4064
2484.802938 0.4047 0.4029 0.4012 0.3995 0.3979
2489.833053 0.3963 0.3948 0.3932 0.3916 0.3901
2494.863168 0.3885 0.3870 0.3855 0.3841 0.3828
2499.893282 0.3815 0.3805 0.3799 0.3794 0.3789
2504.923397 0.3784 0.3779 0.3773 0.3768 0.3763
2509.953512 0.3758 0.3752 0.3747 0.3744 0.3741
2514.983627 0.3739 0.3736 0.3733 0.3731 0.3728
2520.013742 0.3725 0.3722 0.3720 0.3717 0.3715
2525.043856 0.3712 0.3709 0.3707 0.3704 0.3701
2530.073971 0.3699 0.3696 0.3694 0.3691 0.3688
2535.104086 0.3686 0.3684 0.3682 0.3681 0.3679
2540.134201 0.3678 0.3676 0.3675 0.3674 0.3672
2545.164316 0.3670 0.3669 0.3668 0.3666 0.3664
2550.194430 0.3663 0.3662 0.3660 0.3659 0.3657
2555.224545 0.3656 0.3654 0.3654 0.3655 0.3656
2560.254660 0.3656 0.3657 0.3657 0.3658 0.3659
2565.284775 0.3659 0.3660 0.3660 0.3661 0.3662
2570.314890 0.3662 0.3663 0.3663 0.3664 0.3665
2575.345004 0.3665 0.3666 0.3666 0.3668 0.3671
2580.375119 0.3675 0.3679 0.3682 0.3686 0.3689
2585.405234 0.3689 0.3686 0.3681 0.3677 0.3673
2590.435349 0.3669 0.3664 0.3660 0.3656 0.3652
2595.465464 0.3647 0.3643 0.3639 0.3635 0.3631
2600.495578 0.3627 0.3624 0.3620 0.3616 0.3612
2605.525693 0.3608 0.3605 0.3601 0.3597 0.3593
2610.555808 0.3589 0.3586 0.3582 0.3578 0.3575
2615.585923 0.3573 0.3571 0.3569 0.3567 0.3565
2620.616038 0.3563 0.3562 0.3560 0.3558 0.3556
2625.646152 0.3554 0.3550 0.3543 0.3534 0.3526
2630.676267 0.3518 0.3509 0.3501 0.3496 0.3492
2635.706382 0.3488 0.3484 0.3480 0.3476 0.3472
2640.736497 0.3468 0.3465 0.3461 0.3457 0.3453
2645.766612 0.3449 0.3445 0.3441 0.3437 0.3433
2650.796727 0.3429 0.3425 0.3421 0.3417 0.3413
2655.826841 0.3409 0.3405 0.3401 0.3397 0.3393
2660.856956 0.3389 0.3386 0.3383 0.3379 0.3376
2665.887071 0.3373 0.3370 0.3366 0.3363 0.3359
2670.917186 0.3356 0.3353 0.3349 0.3346 0.3343
2675.947301 0.3340 0.3336 0.3333 0.3330 0.3326
2680.977415 0.3323 0.3320 0.3316 0.3313 0.3311
2686.007530 0.3309 0.3309 0.3308 0.3307 0.3307
2691.037645 0.3306 0.3306 0.3305 0.3304 0.3304
2696.067760 0.3303 0.3302 0.3302 0.3303 0.3304
2701.097875 0.3305 0.3306 0.3308 0.3309 0.3311
2706.127989 0.3312 0.3313 0.3315 0.3316 0.3318
2711.158104 0.3319 0.3320 0.3322 0.3323 0.3324
2716.188219 0.3326 0.3347 0.3338 0.3330 0.3330
2721.218334 0.3331 0.3332 0.3332 0.3333 0.3333
2726.248449 0.3334 0.3334 0.3335 0.3336 0.3336
2731.278563 0.3336 0.3336 0.3336 0.3336 0.3336
2736.308678 0.3336 0.3336 0.3336 0.3335 0.3335
2741.338793 0.3335 0.3335 0.3335 0.3335 0.3335
2746.368908 0.3335 0.3335 0.3335 0.3335 0.3335
2751.399023 0.3334 0.3334 0.3334 0.3334 0.3334
2756.429137 0.3335 0.3336 0.3337 0.3338 0.3339
2761.459252 0.3340 0.3341 0.3342 0.3343 0.3345
2766.489367 0.3346 0.3347 0.3348 0.3349 0.3350
2771.519482 0.3351 0.3353 0.3354 0.3361 0.3368
2776.549597 0.3376 0.3383 0.3391 0.3398 0.3406
2781.579712 0.3413 0.3421 0.3429 0.3437 0.3445
2786.609826 0.3453 0.3461 0.3469 0.3477 0.3485
2791.639941 0.3493 0.3501 0.3511 0.3522 0.3533
2796.670056 0.3544 0.3555 0.3566 0.3576 0.3582
2801.700171 0.3588 0.3593 0.3599 0.3604 0.3610
2806.730286 0.3615 0.3621 0.3626 0.3628 0.3628
2811.760400 0.3627 0.3627 0.3627 0.3627 0.3626
2816.790515 0.3626 0.3626 0.3625 0.3625 0.3625
2821.820630 0.3625 0.3624 0.3624 0.3623 0.3621
2826.850745 0.3619 0.3617 0.3615 0.3613 0.3611
2831.880860 0.3608 0.3606 0.3604 0.3602 0.3600
2836.910974 0.3597 0.3595 0.3592 0.3590 0.3588
2841.941089 0.3585 0.3583 0.3581 0.3578 0.3577
2846.971204 0.3576 0.3575 0.3574 0.3573 0.3572
2852.001319 0.3571 0.3574 0.3577 0.3581 0.3584
2857.031434 0.3587 0.3591 0.3595 0.3598 0.3602
2862.061548 0.3606 0.3611 0.3616 0.3622 0.3627
2867.091663 0.3631 0.3635 0.3640 0.3644 0.3648
2872.121778 0.3653 0.3654 0.3655 0.3655 0.3655
2877.151893 0.3655 0.3655 0.3656 0.3639 0.3651
2882.182008 0.3651 0.3647 0.3644 0.3641 0.3638
2887.212122 0.3635 0.3631 0.3628 0.3625 0.3622
2892.242237 0.3617 0.3612 0.3607 0.3602 0.3597
2897.272352 0.3592 0.3587 0.3582 0.3577 0.3572
2902.302467 0.3570 0.3570 0.3569 0.3569 0.3568
2907.332582 0.3568 0.3569 0.3569 0.3570 0.3570
2912.362696 0.3571 0.3572 0.3572 0.3573 0.3573
2917.392811 0.3574 0.3575 0.3577 0.3578 0.3580
2922.422926 0.3581 0.3583 0.3584 0.3586 0.3587
2927.453041 0.3588 0.3590 0.3591 0.3592 0.3593
2932.483156 0.3594 0.3595 0.3597 0.3598 0.3599
2937.513271 0.3600 0.3601 0.3602 0.3603 0.3603
2942.543385 0.3603 0.3603 0.3604 0.3604 0.3604
2947.573500 0.3604 0.3605 0.3605 0.3605 0.3605
2952.603615 0.3605 0.3606 0.3606 0.3606 0.3606
2957.633730 0.3607 0.3607 0.3608 0.3609 0.3610
2962.663845 0.3611 0.3613 0.3614 0.3615 0.3617
2967.693959 0.3618 0.3619 0.3621 0.3623 0.3626
2972.724074 0.3630 0.3633 0.3637 0.3640 0.3644
2977.754189 0.3647 0.3651 0.3654 0.3658 0.3666
2982.784304 0.3678 0.3691 0.3704 0.3718 0.3732
2987.814419 0.3747 0.3751 0.3751 0.3751 0.3751
2992.844533 0.3751 0.3748 0.3744 0.3740 0.3737
2997.874648 0.3733 0.3724 0.3714 0.3704 0.3695
3002.904763 0.3685 0.3676 0.3666 0.3657 0.3648
3007.934878 0.3639 0.3630 0.3621 0.3612 0.3603
3012.964993 0.3593 0.3583 0.3573 0.3563 0.3553
3017.995107 0.3543 0.3533 0.3523 0.3513 0.3504
3023.025222 0.3495 0.3486 0.3477 0.3469 0.3460
3028.055337 0.3451 0.3442 0.3433 0.3425 0.3420
3033.085452 0.3416 0.3412 0.3408 0.3405 0.3401
3038.115567 0.3397 0.3393 0.3389 0.3386 0.3382
3043.145681 0.3379 0.3376 0.3373 0.3370 0.3367
3048.175796 0.3364 0.3361 0.3358 0.3354 0.3349
3053.205911 0.3343 0.3338 0.3332 0.3327 0.3322
3058.236026 0.3316 0.3309 0.3293 0.3276 0.3260
3063.266141 0.3244 0.3228 0.3212 0.3197 0.3181
3068.296256 0.3166 0.3150 0.3135 0.3120 0.3107
3073.326370 0.3096 0.3085 0.3074 0.3063 0.3052
3078.356485 0.3040 0.3029 0.3018 0.3007 0.2995
3083.386600 0.2984 0.2974 0.2965 0.2956 0.2946
3088.416715 0.2937 0.2927 0.2918 0.2909 0.2899
3093.446830 0.2889 0.2880 0.2871 0.2862 0.2852
3098.476944 0.2844 0.2835 0.2826 0.2818 0.2809
3103.507059 0.2801 0.2792 0.2784 0.2775 0.2766
3108.537174 0.2758 0.2748 0.2736 0.2724 0.2712
3113.567289 0.2700 0.2688 0.2676 0.2664 0.2652
3118.597404 0.2640 0.2628 0.2616 0.2604 0.2591
3123.627518 0.2578 0.2566 0.2553 0.2540 0.2527
3128.657633 0.2514 0.2501 0.2488 0.2475 0.2463
3133.687748 0.2450 0.2437 0.2424 0.2411 0.2398
3138.717863 0.2385 0.2372 0.2359 0.2345 0.2332
3143.747978 0.2319 0.2305 0.2291 0.2278 0.2264
3148.778092 0.2251 0.2238 0.2224 0.2211 0.2197
3153.808207 0.2183 0.2170 0.2156 0.2143 0.2130
3158.838322 0.2117 0.2104 0.2091 0.2078 0.2065
3163.868437 0.2053 0.2040 0.2027 0.2014 0.2001
3168.898552 0.1989 0.1976 0.1963 0.1952 0.1943
3173.928666 0.1933 0.1924 0.1915 0.1906 0.1897
3178.958781 0.1888 0.1879 0.1873 0.1867 0.1861
3183.988896 0.1855 0.1844 0.1815 0.1855 0.1860
3189.019011 0.1866 0.1877 0.1889 0.1900 0.1911
3194.049126 0.1924 0.1938 0.1953 0.1967 0.1981
3199.079241 0.1997 0.2012 0.2028 0.2045 0.2063
3204.109355 0.2082 0.2100 0.2116 0.2132 0.2147
3209.139470 0.2163 0.2179 0.2195 0.2210 0.2226
3214.169585 0.2242 0.2261 0.2280 0.2299 0.2318
3219.199700 0.2337 0.2356 0.2380 0.2408 0.2436
3224.229815 0.2464 0.2492 0.2520 0.2545 0.2569
3229.259929 0.2593 0.2617 0.2641 0.2664 0.2687
3234.290044 0.2707 0.2726 0.2744 0.2763 0.2782
3239.320159 0.2800 0.2813 0.2822 0.2831 0.2840
3244.350274 0.2848 0.2855 0.2862 0.2868 0.2874
3249.380389 0.2881 0.2887 0.2894 0.2901 0.2908
3254.410503 0.2917 0.2925 0.2934 0.2942 0.2951
3259.440618 0.2959 0.2966 0.2972 0.2977 0.2982
3264.470733 0.2987 0.2993 0.2998 0.2997 0.2995
3269.500848 0.2994 0.2993 0.2992 0.2990 0.2989
3274.530963 0.2987 0.2981 0.2975 0.2969 0.2963
3279.561077 0.2957 0.2951 0.2945 0.2937 0.2926
3284.591192 0.2913 0.2899 0.2885 0.2870 0.2848
3289.621307 0.2826 0.2803 0.2778 0.2753 0.2727
3294.651422 0.2702 0.2677 0.2655 0.2633 0.2611
3299.681537 0.2590 0.2570 0.2557 0.2547 0.2537
3304.711651 0.2527 0.2517 0.2507 0.2497 0.2487
3309.741766 0.2480 0.2474 0.2468 0.2462 0.2456
3314.771881 0.2451 0.2448 0.2448 0.2448 0.2448
3319.801996 0.2448 0.2448 0.2447 0.2447 0.2447
3324.832111 0.2445 0.2441 0.2448 0.2449 0.2451
3329.862225 0.2453 0.2455 0.2459 0.2468 0.2480
3334.892340 0.2493 0.2511 0.2528 0.2547 0.2568
3339.922455 0.2589 0.2611 0.2633 0.2656 0.2679
3344.952570 0.2703 0.2727 0.2752 0.2776 0.2801
3349.982685 0.2825 0.2852 0.2881 0.2910 0.2938
3355.012800 0.2961 0.2983 0.3004 0.3025 0.3046
3360.042914 0.3065 0.3078 0.3091 0.3104 0.3118
3365.073029 0.3131 0.3144 0.3157 0.3167 0.3176
3370.103144 0.3185 0.3194 0.3202 0.3209 0.3213
3375.133259 0.3217 0.3222 0.3226 0.3230 0.3235
3380.163374 0.3239 0.3243 0.3245 0.3246 0.3247
3385.193488 0.3249 0.3250 0.3252 0.3253 0.3255
3390.223603 0.3256 0.3258 0.3260 0.3262 0.3264
3395.253718 0.3266 0.3267 0.3269 0.3271 0.3273
3400.283833 0.3276 0.3281 0.3287 0.3293 0.3299
3405.313948 0.3306 0.3313 0.3321 0.3329 0.3337
3410.344062 0.3345 0.3353 0.3361 0.3369 0.3378
3415.374177 0.3388 0.3398 0.3408 0.3417 0.3427
3420.404292 0.3437 0.3447 0.3457 0.3466 0.3476
3425.434407 0.3486 0.3495 0.3504 0.3513 0.3522
3430.464522 0.3530 0.3539 0.3547 0.3556 0.3564
3435.494636 0.3573 0.3582 0.3592 0.3603 0.3614
3440.524751 0.3625 0.3636 0.3648 0.3659 0.3670
3445.554866 0.3680 0.3689 0.3699 0.3709 0.3719
3450.584981 0.3729 0.3740 0.3752 0.3764 0.3776
3455.615096 0.3788 0.3803 0.3821 0.3840 0.3858
3460.645210 0.3877 0.3896 0.3915 0.3939 0.3973
3465.675325 0.4009 0.4044 0.4080 0.4117 0.4155
3470.705440 0.4192 0.4229 0.4265 0.4301 0.4337
3475.735555 0.4370 0.4396 0.4418 0.4439 0.4461
3480.765670 0.4482 0.4504 0.4525 0.4547 0.4569
3485.795785 0.4591 0.4612 0.4635 0.4659 0.4683
3490.825899 0.4707 0.4730 0.4754 0.4778 0.4802
3495.856014 0.4823 0.4842 0.4861 0.4880 0.4899
3500.886129 0.4918 0.4937 0.4956 0.4975 0.4994
3505.916244 0.5013 0.5032 0.5051 0.5071 0.5090
3510.946359 0.5109 0.5128 0.5147 0.5166 0.5185
3515.976473 0.5205 0.5225 0.5245 0.5266 0.5287
3521.006588 0.5308 0.5329 0.5349 0.5370 0.5391
3526.036703 0.5412 0.5430 0.5448 0.5465 0.5483
3531.066818 0.5501 0.5519 0.5536 0.5554 0.5571
3536.096933 0.5588 0.5605 0.5621 0.5638 0.5654
3541.127047 0.5668 0.5680 0.5692 0.5704 0.5716
3546.157162 0.5728 0.5738 0.5748 0.5758 0.5768
3551.187277 0.5778 0.5788 0.5798 0.5808 0.5818
3556.217392 0.5829 0.5839 0.5850 0.5860 0.5872
3561.247507 0.5885 0.5899 0.5913 0.5927 0.5941
3566.277621 0.5955 0.5969 0.5984 0.5996 0.6007
3571.307736 0.6016 0.6026 0.6035 0.6045 0.6054
3576.337851 0.6063 0.6073 0.6081 0.6090 0.6098
3581.367966 0.6107 0.6116 0.6124 0.6133 0.6141
3586.398081 0.6150 0.6159 0.6167 0.6176 0.6186
3591.428195 0.6197 0.6208 0.6219 0.6230 0.6241
3596.458310 0.6252 0.6263 0.6276 0.6290 0.6304
3601.488425 0.6318 0.6332 0.6346 0.6359 0.6373
3606.518540 0.6387 0.6401 0.6415 0.6428 0.6442
3611.548655 0.6455 0.6469 0.6482 0.6496 0.6507
3616.578770 0.6517 0.6526 0.6535 0.6543 0.6552
3621.608884 0.6561 0.6570 0.6578 0.6583 0.6589
3626.638999 0.6594 0.6600 0.6605 0.6611 0.6602
3631.669114 0.6612 0.6626 0.6629 0.6631 0.6633
3636.699229 0.6634 0.6636 0.6638 0.6640 0.6642
3641.729344 0.6644 0.6646 0.6648 0.6650 0.6652
3646.759458 0.6654 0.6653 0.6653 0.6652 0.6652
3651.789573 0.6651 0.6651 0.6650 0.6650 0.6649
3656.819688 0.6649 0.6648 0.6648 0.6647 0.6647
3661.849803 0.6647 0.6646 0.6645 0.6644 0.6643
3666.879918 0.6642 0.6641 0.6640 0.6639 0.6638
3671.910032 0.6637 0.6636 0.6635 0.6634 0.6633
3676.940147 0.6632 0.6631 0.6630 0.6629 0.6628
3681.970262 0.6627 0.6626 0.6625 0.6625 0.6624
3687.000377 0.6624 0.6623 0.6623 0.6622 0.6621
3692.030492 0.6621 0.6620 0.6620 0.6619 0.6618
3697.060606 0.6618 0.6617 0.6617 0.6616 0.6615
3702.090721 0.6615 0.6614 0.6613 0.6612 0.6612
3707.120836 0.6611 0.6610 0.6609 0.6609 0.6608
3712.150951 0.6607 0.6606 0.6605 0.6605 0.6604
3717.181066 0.6603 0.6602 0.6602 0.6601 0.6600
3722.211180 0.6598 0.6595 0.6591 0.6588 0.6585
3727.241295 0.6581 0.6578 0.6575 0.6571 0.6568
3732.271410 0.6565 0.6562 0.6559 0.6556 0.6553
3737.301525 0.6551 0.6548 0.6546 0.6543 0.6540
3742.331640 0.6538 0.6535 0.6533 0.6531 0.6531
3747.361754 0.6531 0.6532 0.6532 0.6532 0.6532
3752.391869 0.6532 0.6533 0.6533 0.6533 0.6533
3757.421984 0.6534 0.6534 0.6534 0.6535 0.6537
3762.452099 0.6539 0.6541 0.6543 0.6545 0.6547
3767.482214 0.6549 0.6551 0.6553 0.6555 0.6555
3772.512329 0.6553 0.6551 0.6550 0.6548 0.6545
3777.542443 0.6543 0.6542 0.6540 0.6538 0.6536
3782.572558 0.6534 0.6532 0.6530 0.6528 0.6526
3787.602673 0.6525 0.6523 0.6520 0.6517 0.6514
3792.632788 0.6511 0.6508 0.6506 0.6503 0.6500
3797.662903 0.6497 0.6494 0.6491 0.6489 0.6486
3802.693017 0.6483 0.6480 0.6477 0.6475 0.6472
3807.723132 0.6469 0.6466 0.6463 0.6460 0.6457
3812.753247 0.6454 0.6451 0.6448 0.6445 0.6442
3817.783362 0.6439 0.6436 0.6433 0.6430 0.6427
3822.813477 0.6424 0.6420 0.6416 0.6412 0.6408
3827.843591 0.6403 0.6399 0.6395 0.6391 0.6387
3832.873706 0.6383 0.6379 0.6376 0.6373 0.6370
3837.903821 0.6367 0.6363 0.6360 0.6357 0.6354
3842.933936 0.6351 0.6347 0.6344 0.6341 0.6338
3847.964051 0.6335 0.6331 0.6327 0.6323 0.6320
3852.994165 0.6316 0.6312 0.6308 0.6305 0.6301
3858.024280 0.6297 0.6293 0.6289 0.6285 0.6281
3863.054395 0.6277 0.6272 0.6268 0.6264 0.6260
3868.084510 0.6255 0.6251 0.6247 0.6243 0.6238
3873.114625 0.6234 0.6231 0.6228 0.6225 0.6222
3878.144739 0.6219 0.6216 0.6213 0.6210 0.6207
3883.174854 0.6205 0.6205 0.6206 0.6206 0.6206
3888.204969 0.6206 0.6206 0.6207 0.6207 0.6207
3893.235084 0.6207 0.6208 0.6207 0.6207 0.6207
3898.265199 0.6207 0.6207 0.6207 0.6207 0.6207
3903.295314 0.6207 0.6207 0.6207 0.6207 0.6207
3908.325428 0.6205 0.6204 0.6203 0.6201 0.6200
3913.355543 0.6199 0.6197 0.6196 0.6195 0.6193
3918.385658 0.6192 0.6191 0.6189 0.6188 0.6187
3923.415773 0.6185 0.6184 0.6183 0.6181 0.6180
3928.445888 0.6177 0.6175 0.6172 0.6169 0.6166
3933.476002 0.6164 0.6161 0.6158 0.6156 0.6153
3938.506117 0.6150 0.6147 0.6145 0.6142 0.6139
3943.536232 0.6137 0.6134 0.6131 0.6128 0.6125
3948.566347 0.6122 0.6119 0.6116 0.6113 0.6110
3953.596462 0.6108 0.6105 0.6102 0.6099 0.6096
3958.626576 0.6093 0.6090 0.6087 0.6084 0.6081
3963.656691 0.6079 0.6076 0.6073 0.6070 0.6067
3968.686806 0.6063 0.6062 0.6059 0.6056 0.6053
3973.716921 0.6051 0.6048 0.6045 0.6042 0.6039
3978.747036 0.6037 0.6034 0.6031 0.6028 0.6025
3983.777150 0.6022 0.6019 0.6016 0.6013 0.6010
3988.807265 0.6007 0.6003 0.6000 0.5997 0.5994
3993.837380 0.5991 0.5988 0.5984 0.5981 0.5978
3998.867495 0.5975 0.5971 0.5965 0.5959 0.5953
4003.897610 0.5947 0.5941 0.5935 0.5929 0.5923
4008.927724 0.5917 0.5911 0.5905 0.5899 0.5893
4013.957839 0.5886 0.5880 0.5874 0.5868 0.5862
4018.987954 0.5856 0.5855
##END=
