##TITLE=2,2-DIPHENYL-5-(N-METHYL-N'-PIPERAZINO)-3-PENTANONE DIHYDROCHLORIDE
##JCAMP-DX=4.24
##DATA TYPE=INFRARED SPECTRUM
##CLASS=COBLENTZ
##ORIGIN=ABBOTT LABORATORIES - WASHBURN
##OWNER=COBLENTZ SOCIETY
Collection (C) 2018 copyright by the U.S. Secretary of Commerce
on behalf of the United States of America. All rights reserved.
##DATE=Not specified, most likely prior to 1970
##MOLFORM=C22 H28 N2 O  * 2 H Cl
##SOURCE REFERENCE=COBLENTZ NO. 3526
##$NIST ID=B6003526
##$NIST SOURCE=COBLENTZ
##$NIST IMAGE=cob3526
##SPECTROMETER/DATA SYSTEM=PERKIN-ELMER
##STATE=SOLID (NUJOL MULL)
##SAMPLING PROCEDURE=TRANSMISSION
##RESOLUTION=4
##DATA PROCESSING=DIGITIZED BY NIST FROM HARD COPY (FROM TWO SEGMENTS)
##XUNITS=MICROMETERS
##YUNITS=TRANSMITTANCE
##XFACTOR=1.000000
##YFACTOR=1
##DELTAX=0.006702
##FIRSTX=2.031
##LASTX=15.4082
##FIRSTY=0.663
##MAXX=15.4082
##MINX=2.031
##MAXY=0.861
##MINY=0.03
##NPOINTS=1997
##XYDATA=(X++(Y..Y))
2.031000 0.6630 0.6630 0.6650 0.6650 0.6680
2.064510 0.6720 0.6750 0.6750 0.6779 0.6800
2.098020 0.6800 0.6820 0.6830 0.6830 0.6870
2.131530 0.6880 0.6880 0.6880 0.6880 0.6880
2.165040 0.6880 0.6900 0.6900 0.6900 0.6920
2.198550 0.6930 0.6950 0.6950 0.6950 0.6950
2.232060 0.6950 0.6950 0.6930 0.6920 0.6870
2.265570 0.6830 0.6820 0.6780 0.6780 0.6770
2.299080 0.6770 0.6750 0.6730 0.6730 0.6730
2.332590 0.6730 0.6750 0.6750 0.6750 0.6770
2.366100 0.6770 0.6800 0.6820 0.6830 0.6830
2.399610 0.6850 0.6870 0.6870 0.6880 0.6920
2.433120 0.6930 0.6930 0.6950 0.6950 0.6950
2.466630 0.6970 0.6970 0.7000 0.7020 0.7070
2.500140 0.7101 0.7141 0.7200 0.7200 0.7221
2.533650 0.7270 0.7270 0.7270 0.7270 0.7290
2.567160 0.7290 0.7290 0.7290 0.7301 0.7340
2.600670 0.7370 0.7390 0.7390 0.7400 0.7400
2.634180 0.7421 0.7440 0.7450 0.7470 0.7490
2.667690 0.7490 0.7490 0.7490 0.7490 0.7500
2.701200 0.7521 0.7540 0.7550 0.7550 0.7550
2.734710 0.7550 0.7550 0.7550 0.7550 0.7550
2.768220 0.7540 0.7539 0.7521 0.7539 0.7499
2.801730 0.7470 0.7469 0.7420 0.7389 0.7350
2.835240 0.7338 0.7268 0.7219 0.7187 0.7098
2.868750 0.7019 0.6978 0.6869 0.6798 0.6699
2.902260 0.6617 0.6549 0.6519 0.6480 0.6469
2.935770 0.6430 0.6434 0.6583 0.6722 0.6821
2.969280 0.6903 0.6981 0.7001 0.7022 0.7072
3.002790 0.7121 0.7171 0.7190 0.7200 0.7221
3.036300 0.7252 0.7290 0.7301 0.7321 0.7340
3.069810 0.7340 0.7351 0.7370 0.7371 0.7390
3.103320 0.7390 0.7390 0.7390 0.7390 0.7390
3.136830 0.7390 0.7390 0.7390 0.7389 0.7369
3.170340 0.7349 0.7339 0.7319 0.7297 0.7238
3.203850 0.7186 0.7096 0.6998 0.6926 0.6816
3.237360 0.6692 0.6536 0.6262 0.6095 0.5998
3.270870 0.5947 0.5877 0.5793 0.5606 0.5491
3.304380 0.5208 0.4815 0.4340 0.3586 0.3103
3.337890 0.2753 0.2365 0.1563 0.1156 0.0796
3.371400 0.0672 0.0546 0.0475 0.0376 0.0300
3.404910 0.0300 0.0300 0.0310 0.0312 0.0364
3.438420 0.0459 0.0614 0.0834 0.0903 0.0958
3.471930 0.0929 0.0911 0.0934 0.1023 0.1082
3.505440 0.1187 0.2052 0.2873 0.3737 0.4533
3.538950 0.5285 0.5917 0.6228 0.6387 0.6525
3.572460 0.6627 0.6724 0.6786 0.6876 0.6972
3.605970 0.7001 0.7021 0.7040 0.7039 0.7020
3.639480 0.7017 0.6977 0.6928 0.6899 0.6878
3.672990 0.6848 0.6819 0.6799 0.6778 0.6747
3.706500 0.6698 0.6667 0.6627 0.6578 0.6545
3.740010 0.6476 0.6417 0.6362 0.6226 0.6145
3.773520 0.6046 0.5997 0.5952 0.5845 0.5777
3.807030 0.5728 0.5700 0.5699 0.5680 0.5681
3.840540 0.5700 0.5700 0.5698 0.5675 0.5604
3.874050 0.5527 0.5475 0.5403 0.5291 0.5142
3.907560 0.5009 0.4851 0.4766 0.4686 0.4615
3.941070 0.4564 0.4514 0.4482 0.4416 0.4337
3.974580 0.4283 0.4233 0.4193 0.4181 0.4161
4.008090 0.4141 0.4131 0.4139 0.4140 0.4158
4.041600 0.4179 0.4189 0.4190 0.4162 0.4113
4.075110 0.4082 0.3978 0.3822 0.3727 0.3444
4.108620 0.3232 0.3164 0.3113 0.3063 0.2995
4.142130 0.2897 0.2751 0.2629 0.2500 0.2425
4.175640 0.2373 0.2323 0.2292 0.2205 0.2153
4.209150 0.2122 0.2120 0.2101 0.2072 0.2070
4.242660 0.2042 0.2002 0.1981 0.1980 0.1971
4.276170 0.1923 0.1855 0.1803 0.1679 0.1540
4.309680 0.1482 0.1385 0.1333 0.1321 0.1301
4.343190 0.1272 0.1270 0.1270 0.1279 0.1299
4.376700 0.1319 0.1349 0.1379 0.1418 0.1467
4.410210 0.1498 0.1519 0.1567 0.1617 0.1648
4.443720 0.1746 0.1817 0.1877 0.1975 0.1999
4.477230 0.2085 0.2166 0.2245 0.2335 0.2415
4.510740 0.2497 0.2567 0.2618 0.2715 0.2768
4.544250 0.2836 0.2887 0.2985 0.3018 0.3058
4.577760 0.3108 0.3206 0.3287 0.3386 0.3505
4.611270 0.3805 0.3963 0.4008 0.4123 0.4253
4.644780 0.4357 0.4485 0.4606 0.4783 0.4876
4.678290 0.4976 0.5028 0.5106 0.5148 0.5254
4.711800 0.5347 0.5456 0.5499 0.5577 0.5647
4.745310 0.5708 0.5777 0.5847 0.5898 0.5976
4.778820 0.5999 0.6019 0.6078 0.6119 0.6168
4.812330 0.6247 0.6317 0.6349 0.6379 0.6428
4.845840 0.6479 0.6548 0.6579 0.6648 0.6679
4.879350 0.6767 0.6799 0.6829 0.6878 0.6918
4.912860 0.6979 0.7000 0.7039 0.7069 0.7138
4.946370 0.7169 0.7199 0.7239 0.7288 0.7300
4.979880 0.7339 0.7369 0.7390 0.7420 0.7470
5.013390 0.7490 0.7500 0.7500 0.7519 0.7539
5.046900 0.7540 0.7540 0.7540 0.7520 0.7520
5.080410 0.7520 0.7500 0.7500 0.7500 0.7519
5.113920 0.7520 0.7539 0.7549 0.7585 0.7641
5.147430 0.7684 0.7740 0.7783 0.7815 0.7836
5.180940 0.7840 0.7840 0.7840 0.7840 0.7840
5.214450 0.7823 0.7820 0.7820 0.7820 0.7820
5.247960 0.7820 0.7804 0.7800 0.7800 0.7800
5.281470 0.7793 0.7790 0.7797 0.7814 0.7820
5.314980 0.7833 0.7847 0.7863 0.7884 0.7911
5.348490 0.7955 0.7984 0.8004 0.8017 0.8033
5.382000 0.8040 0.8040 0.8053 0.8066 0.8070
5.415510 0.8070 0.8065 0.8060 0.8060 0.8060
5.449020 0.8060 0.8034 0.8000 0.7968 0.7944
5.482530 0.7940 0.7946 0.7961 0.7970 0.7970
5.516040 0.7980 0.7990 0.8000 0.8024 0.8053
5.549550 0.8078 0.8098 0.8114 0.8128 0.8148
5.583060 0.8160 0.8153 0.8140 0.8121 0.8069
5.616570 0.8032 0.8016 0.8010 0.8010 0.8014
5.650080 0.8020 0.8020 0.8020 0.8020 0.8020
5.683590 0.8017 0.8010 0.8010 0.8005 0.7968
5.717100 0.7893 0.7859 0.7809 0.7758 0.7712
5.750610 0.7676 0.7613 0.7522 0.7427 0.7251
5.784120 0.7076 0.6926 0.6617 0.6240 0.5490
5.817630 0.4636 0.3893 0.3497 0.2970 0.2628
5.851140 0.2520 0.2539 0.2790 0.3421 0.4156
5.884650 0.4997 0.5505 0.6080 0.6469 0.6639
5.918160 0.6807 0.6874 0.6927 0.7001 0.7020
5.951670 0.7089 0.7119 0.7149 0.7189 0.7190
5.985180 0.7200 0.7200 0.7200 0.7200 0.7220
6.018690 0.7250 0.7250 0.7250 0.7269 0.7289
6.052200 0.7300 0.7319 0.7339 0.7387 0.7399
6.085710 0.7434 0.7490 0.7533 0.7565 0.7594
6.119220 0.7616 0.7620 0.7620 0.7636 0.7648
6.152730 0.7650 0.7650 0.7650 0.7650 0.7650
6.186240 0.7650 0.7650 0.7650 0.7642 0.7623
6.219750 0.7552 0.7422 0.7233 0.6968 0.6805
6.253260 0.6650 0.6547 0.6642 0.6813 0.6960
6.286770 0.7064 0.7167 0.7228 0.7240 0.7159
6.320280 0.7120 0.7140 0.7196 0.7265 0.7311
6.353790 0.7377 0.7463 0.7511 0.7554 0.7584
6.387300 0.7597 0.7613 0.7633 0.7640 0.7628
6.420810 0.7609 0.7600 0.7600 0.7600 0.7595
6.454320 0.7553 0.7520 0.7510 0.7500 0.7495
6.487830 0.7490 0.7490 0.7490 0.7463 0.7440
6.521340 0.7445 0.7460 0.7470 0.7470 0.7479
6.554850 0.7490 0.7490 0.7494 0.7500 0.7500
6.588360 0.7496 0.7490 0.7483 0.7463 0.7408
6.621870 0.7310 0.7241 0.7159 0.6911 0.6472
6.655380 0.6180 0.6073 0.6004 0.5923 0.5760
6.688890 0.5459 0.5173 0.5081 0.5030 0.5075
6.722400 0.5210 0.5196 0.5095 0.4804 0.4310
6.755910 0.3763 0.3340 0.3197 0.3150 0.3112
6.789420 0.3028 0.2728 0.2319 0.2110 0.1940
6.822930 0.1799 0.1661 0.1598 0.1579 0.1570
6.856440 0.1573 0.1602 0.1623 0.1656 0.1724
6.889950 0.1771 0.1779 0.1765 0.1718 0.1630
6.923460 0.1642 0.1762 0.1901 0.2250 0.2610
6.956970 0.2869 0.3038 0.3207 0.3356 0.3515
6.990480 0.3731 0.3854 0.4030 0.4218 0.4304
7.023990 0.4310 0.4280 0.4241 0.4240 0.4279
7.057500 0.4309 0.4386 0.4437 0.4506 0.4631
7.091010 0.4813 0.4984 0.5069 0.5246 0.5387
7.124520 0.5492 0.5542 0.5590 0.5608 0.5626
7.158030 0.5613 0.5432 0.5240 0.5102 0.4939
7.191540 0.4681 0.4533 0.4446 0.4374 0.4360
7.225050 0.4382 0.4383 0.4262 0.3872 0.3597
7.258560 0.3385 0.3210 0.3147 0.3381 0.3658
7.292070 0.3940 0.4193 0.4491 0.4798 0.5075
7.325580 0.5241 0.5360 0.5466 0.5585 0.5773
7.359090 0.5940 0.5989 0.5880 0.5745 0.5597
7.392600 0.5467 0.5420 0.5410 0.5558 0.5831
7.426110 0.5998 0.6041 0.6078 0.6100 0.5888
7.459620 0.5667 0.5472 0.5210 0.4915 0.4634
7.493130 0.4368 0.4230 0.4320 0.4473 0.4644
7.526640 0.4811 0.4970 0.5118 0.5190 0.5205
7.560150 0.5196 0.5104 0.4929 0.4728 0.4532
7.593660 0.4440 0.4410 0.4448 0.4536 0.4598
7.627170 0.4642 0.4711 0.4834 0.4959 0.5103
7.660680 0.5305 0.5508 0.5657 0.5810 0.6016
7.694190 0.6240 0.6320 0.6309 0.6232 0.6069
7.727700 0.5975 0.5970 0.6028 0.6138 0.6211
7.761210 0.6266 0.6329 0.6358 0.6391 0.6441
7.794720 0.6500 0.6505 0.6510 0.6422 0.6194
7.828230 0.6052 0.5973 0.5927 0.5912 0.5940
7.861740 0.6029 0.6112 0.6229 0.6336 0.6508
7.895250 0.6612 0.6761 0.6853 0.7018 0.7146
7.928760 0.7191 0.7200 0.7200 0.7202 0.7222
7.962270 0.7242 0.7270 0.7300 0.7320 0.7320
7.995780 0.7320 0.7320 0.7320 0.7339 0.7340
8.029290 0.7321 0.7300 0.7201 0.7190 0.7122
8.062800 0.7072 0.7041 0.7021 0.7020 0.7048
8.096310 0.7069 0.7113 0.7222 0.7282 0.7315
8.129820 0.7320 0.7320 0.7320 0.7320 0.7320
8.163330 0.7304 0.7300 0.7300 0.7292 0.7290
8.196840 0.7298 0.7300 0.7357 0.7410 0.7436
8.230350 0.7464 0.7470 0.7456 0.7443 0.7426
8.263860 0.7386 0.7336 0.7307 0.7267 0.7217
8.297370 0.7181 0.7149 0.7105 0.7055 0.7012
8.330880 0.6986 0.6980 0.6980 0.6980 0.6993
8.364390 0.7013 0.7032 0.7040 0.7046 0.7050
8.397900 0.7061 0.7059 0.7034 0.6947 0.6722
8.431410 0.6449 0.6169 0.5917 0.5679 0.5433
8.464920 0.5319 0.5412 0.5558 0.5709 0.5877
8.498430 0.6036 0.6167 0.6346 0.6627 0.6857
8.531940 0.6990 0.7020 0.7031 0.7076 0.7138
8.565450 0.7188 0.7239 0.7283 0.7308 0.7328
8.598960 0.7352 0.7382 0.7408 0.7431 0.7450
8.632470 0.7450 0.7446 0.7423 0.7387 0.7337
8.665980 0.7282 0.7262 0.7250 0.7250 0.7250
8.699490 0.7257 0.7263 0.7242 0.7215 0.7200
8.733000 0.7200 0.7205 0.7225 0.7240 0.7254
8.766510 0.7311 0.7366 0.7443 0.7511 0.7553
8.800020 0.7598 0.7625 0.7647 0.7687 0.7740
8.833530 0.7740 0.7742 0.7750 0.7750 0.7750
8.867040 0.7749 0.7738 0.7720 0.7718 0.7700
8.900550 0.7699 0.7679 0.7536 0.7435 0.7329
8.934060 0.7243 0.7182 0.7118 0.7095 0.7049
8.967570 0.7038 0.7019 0.7000 0.7000 0.6971
9.001080 0.6931 0.6930 0.7016 0.7115 0.7167
9.034590 0.7198 0.7265 0.7340 0.7419 0.7450
9.068100 0.7470 0.7470 0.7451 0.7421 0.7354
9.101610 0.7294 0.7159 0.6874 0.6703 0.6630
9.135120 0.6537 0.6438 0.6346 0.6306 0.6244
9.168630 0.6206 0.6121 0.6100 0.6125 0.6189
9.202140 0.6225 0.6329 0.6473 0.6646 0.6720
9.235650 0.6786 0.6895 0.7015 0.7085 0.7100
9.269160 0.7059 0.7013 0.6777 0.6490 0.6202
9.302670 0.5904 0.5593 0.5466 0.5000 0.4796
9.336180 0.4527 0.4293 0.4240 0.4341 0.4490
9.369690 0.4671 0.4928 0.5150 0.5331 0.5521
9.403200 0.5714 0.5978 0.6311 0.6512 0.6560
9.436710 0.6570 0.6560 0.6539 0.6468 0.6353
9.470220 0.6217 0.6085 0.5907 0.5726 0.5634
9.503730 0.5569 0.5672 0.5889 0.6039 0.6161
9.537240 0.6252 0.6320 0.6370 0.6446 0.6558
9.570750 0.6650 0.6711 0.6726 0.6703 0.6659
9.604260 0.6626 0.6620 0.6699 0.6870 0.6977
9.637770 0.7020 0.7020 0.7013 0.6944 0.6778
9.671280 0.6696 0.6610 0.6525 0.6421 0.6323
9.704790 0.6243 0.5986 0.5703 0.5468 0.5319
9.738300 0.5197 0.5152 0.5125 0.5090 0.5025
9.771810 0.5015 0.5074 0.5300 0.5615 0.5877
9.805320 0.6143 0.6582 0.6781 0.6947 0.7017
9.838830 0.7093 0.7186 0.7246 0.7280 0.7347
9.872340 0.7394 0.7422 0.7440 0.7440 0.7440
9.905850 0.7440 0.7436 0.7387 0.7343 0.7299
9.939360 0.7285 0.7249 0.7236 0.7190 0.7088
9.972870 0.6957 0.6713 0.6521 0.6400 0.6331
10.006380 0.6301 0.6300 0.6281 0.6270 0.6156
10.039890 0.6103 0.6034 0.6021 0.5980 0.6020
10.073400 0.6168 0.6229 0.6366 0.6514 0.6549
10.106910 0.6664 0.6811 0.6960 0.7013 0.7037
10.140420 0.7090 0.7158 0.7195 0.7274 0.7339
10.173930 0.7406 0.7436 0.7479 0.7498 0.7500
10.207440 0.7500 0.7517 0.7503 0.7500 0.7492
10.240950 0.7458 0.7442 0.7424 0.7398 0.7320
10.274460 0.7185 0.7043 0.6809 0.6605 0.6383
10.307970 0.6115 0.5785 0.5415 0.5225 0.5136
10.341480 0.5103 0.5107 0.5172 0.5275 0.5437
10.374990 0.5533 0.5589 0.5610 0.5610 0.5621
10.408500 0.5669 0.5782 0.5877 0.5964 0.6088
10.442010 0.6254 0.6442 0.6626 0.6817 0.6979
10.475520 0.7101 0.7205 0.7277 0.7354 0.7437
10.509030 0.7507 0.7571 0.7646 0.7727 0.7770
10.542540 0.7782 0.7808 0.7832 0.7866 0.7894
10.576050 0.7908 0.7920 0.7927 0.7944 0.7958
10.609560 0.7978 0.7998 0.8014 0.8020 0.8020
10.643070 0.8028 0.8051 0.8077 0.8090 0.8090
10.676580 0.8090 0.8090 0.8090 0.8090 0.8090
10.710090 0.8090 0.8083 0.8060 0.8060 0.8054
10.743600 0.8032 0.7999 0.7957 0.7902 0.7826
10.777110 0.7736 0.7658 0.7539 0.7488 0.7428
10.810620 0.7346 0.7324 0.7364 0.7473 0.7504
10.844130 0.7545 0.7599 0.7708 0.7807 0.7891
10.877640 0.7905 0.7944 0.7975 0.8011 0.8024
10.911150 0.8061 0.8070 0.8068 0.8039 0.8020
10.944660 0.8010 0.7941 0.7823 0.7743 0.7558
10.978170 0.7427 0.7326 0.7226 0.7192 0.7150
11.011680 0.7150 0.7219 0.7347 0.7447 0.7536
11.045190 0.7616 0.7781 0.7884 0.8002 0.8040
11.078700 0.8109 0.8120 0.8159 0.8170 0.8189
11.112210 0.8209 0.8257 0.8288 0.8290 0.8290
11.145720 0.8290 0.8307 0.8310 0.8318 0.8336
11.179230 0.8356 0.8368 0.8370 0.8370 0.8370
11.212740 0.8370 0.8362 0.8368 0.8370 0.8370
11.246250 0.8370 0.8362 0.8328 0.8320 0.8349
11.279760 0.8360 0.8367 0.8370 0.8384 0.8390
11.313270 0.8390 0.8390 0.8390 0.8390 0.8390
11.346780 0.8390 0.8390 0.8390 0.8390 0.8376
11.380290 0.8370 0.8363 0.8347 0.8327 0.8320
11.413800 0.8314 0.8288 0.8265 0.8238 0.8215
11.447310 0.8189 0.8165 0.8150 0.8125 0.8062
11.480820 0.8014 0.7988 0.7931 0.7895 0.7879
11.514330 0.7859 0.7850 0.7876 0.7925 0.7959
11.547840 0.7987 0.8010 0.8022 0.8052 0.8086
11.581350 0.8129 0.8164 0.8170 0.8177 0.8198
11.614860 0.8214 0.8237 0.8260 0.8252 0.8240
11.648370 0.8232 0.8216 0.8203 0.8183 0.8160
11.681880 0.8132 0.8105 0.8085 0.8067 0.8055
11.715390 0.8040 0.8035 0.8020 0.8024 0.8040
11.748900 0.8046 0.8068 0.8095 0.8118 0.8160
11.782410 0.8225 0.8240 0.8247 0.8279 0.8316
11.815920 0.8340 0.8337 0.8320 0.8319 0.8310
11.849430 0.8308 0.8287 0.8260 0.8257 0.8219
11.882940 0.8204 0.8169 0.8155 0.8119 0.8102
11.916450 0.8037 0.8008 0.7990 0.7992 0.8011
11.949960 0.8020 0.8059 0.8119 0.8159 0.8189
11.983470 0.8238 0.8259 0.8269 0.8289 0.8318
12.016980 0.8360 0.8370 0.8390 0.8390 0.8409
12.050490 0.8410 0.8410 0.8410 0.8419 0.8439
12.084000 0.8440 0.8457 0.8460 0.8460 0.8460
12.117510 0.8468 0.8470 0.8486 0.8506 0.8510
12.151020 0.8535 0.8540 0.8565 0.8587 0.8590
12.184530 0.8590 0.8590 0.8590 0.8590 0.8590
12.218040 0.8590 0.8590 0.8590 0.8590 0.8573
12.251550 0.8570 0.8529 0.8520 0.8560 0.8570
12.285060 0.8570 0.8570 0.8584 0.8590 0.8590
12.318570 0.8590 0.8577 0.8596 0.8610 0.8610
12.352080 0.8610 0.8610 0.8596 0.8576 0.8536
12.385590 0.8513 0.8510 0.8530 0.8540 0.8540
12.419100 0.8540 0.8529 0.8514 0.8499 0.8490
12.452610 0.8479 0.8454 0.8440 0.8430 0.8370
12.486120 0.8320 0.8348 0.8392 0.8416 0.8431
12.519630 0.8451 0.8465 0.8470 0.8470 0.8465
12.553140 0.8451 0.8440 0.8428 0.8410 0.8402
12.586650 0.8390 0.8390 0.8390 0.8390 0.8390
12.620160 0.8390 0.8390 0.8390 0.8398 0.8410
12.653670 0.8410 0.8410 0.8402 0.8390 0.8390
12.687180 0.8390 0.8390 0.8390 0.8390 0.8395
12.720690 0.8412 0.8430 0.8462 0.8475 0.8490
12.754200 0.8490 0.8490 0.8485 0.8467 0.8455
12.787710 0.8435 0.8420 0.8420 0.8429 0.8462
12.821220 0.8470 0.8469 0.8457 0.8438 0.8420
12.854730 0.8420 0.8419 0.8408 0.8388 0.8369
12.888240 0.8358 0.8337 0.8316 0.8287 0.8269
12.921750 0.8258 0.8237 0.8205 0.8156 0.8108
12.955260 0.8087 0.8040 0.8020 0.8010 0.7991
12.988770 0.7951 0.7873 0.7775 0.7629 0.7508
13.022280 0.7398 0.7290 0.7221 0.7191 0.7102
13.055790 0.6984 0.6903 0.6757 0.6532 0.6248
13.089300 0.6016 0.5784 0.5623 0.5474 0.5367
13.122810 0.5317 0.5302 0.5324 0.5474 0.5550
13.156320 0.5615 0.5689 0.5827 0.5892 0.5925
13.189830 0.5947 0.5950 0.5958 0.5976 0.6012
13.223340 0.6044 0.6065 0.6077 0.6115 0.6130
13.256850 0.6076 0.5868 0.5527 0.5235 0.5026
13.290360 0.4844 0.4766 0.4760 0.4781 0.4935
13.323870 0.5075 0.5205 0.5350 0.5506 0.5671
13.357380 0.5859 0.6068 0.6286 0.6525 0.6773
13.390890 0.7022 0.7127 0.7160 0.7217 0.7279
13.424400 0.7358 0.7420 0.7446 0.7461 0.7470
13.457910 0.7470 0.7481 0.7490 0.7495 0.7500
13.491420 0.7495 0.7490 0.7479 0.7459 0.7433
13.524930 0.7404 0.7369 0.7334 0.7294 0.7234
13.558440 0.7170 0.7098 0.7008 0.6896 0.6771
13.591950 0.6652 0.6490 0.6254 0.6028 0.5814
13.625460 0.5599 0.5448 0.5312 0.5239 0.5169
13.658970 0.5066 0.4992 0.4988 0.5030 0.5106
13.692480 0.5187 0.5277 0.5372 0.5515 0.5636
13.725990 0.5733 0.5837 0.5969 0.6063 0.6206
13.759500 0.6350 0.6450 0.6570 0.6634 0.6678
13.793010 0.6708 0.6740 0.6777 0.6812 0.6862
13.826520 0.6911 0.6956 0.6983 0.7005 0.7044
13.860030 0.7070 0.7073 0.7100 0.7100 0.7102
13.893540 0.7122 0.7145 0.7206 0.7244 0.7270
13.927050 0.7272 0.7290 0.7290 0.7290 0.7290
13.960560 0.7290 0.7292 0.7320 0.7320 0.7320
13.994070 0.7301 0.7290 0.7242 0.7192 0.7105
14.027580 0.7025 0.6909 0.6800 0.6632 0.6522
14.061090 0.6305 0.6223 0.6153 0.6102 0.6081
14.094600 0.6099 0.6100 0.6083 0.6029 0.5986
14.128110 0.5963 0.5878 0.5672 0.5525 0.5388
14.161620 0.5082 0.4868 0.4585 0.4175 0.3900
14.195130 0.3427 0.3076 0.2856 0.2739 0.2680
14.228640 0.2606 0.2590 0.2612 0.2711 0.2820
14.262150 0.2912 0.2960 0.3031 0.3067 0.3070
14.295660 0.2992 0.2821 0.2716 0.2644 0.2585
14.329170 0.2570 0.2584 0.2631 0.2784 0.3029
14.362680 0.3231 0.3504 0.3823 0.4128 0.4354
14.396190 0.4638 0.4999 0.5240 0.5389 0.5512
14.429700 0.5672 0.5890 0.6091 0.6215 0.6345
14.463210 0.6475 0.6563 0.6616 0.6656 0.6701
14.496720 0.6751 0.6790 0.6816 0.6858 0.6930
14.530230 0.6987 0.7011 0.7020 0.7020 0.7036
14.563740 0.7050 0.7050 0.7059 0.7078 0.7090
14.597250 0.7090 0.7090 0.7094 0.7096 0.7090
14.630760 0.7090 0.7090 0.7090 0.7090 0.7090
14.664270 0.7090 0.7090 0.7090 0.7090 0.7090
14.697780 0.7090 0.7094 0.7100 0.7106 0.7125
14.731290 0.7140 0.7143 0.7155 0.7170 0.7170
14.764800 0.7170 0.7170 0.7165 0.7150 0.7150
14.798310 0.7150 0.7150 0.7147 0.7140 0.7135
14.831820 0.7120 0.7120 0.7116 0.7099 0.7087
14.865330 0.7066 0.7040 0.7043 0.7070 0.7070
14.898840 0.7068 0.7050 0.7050 0.7053 0.7073
14.932350 0.7091 0.7100 0.7100 0.7097 0.7068
14.965860 0.7050 0.7052 0.7071 0.7090 0.7100
14.999370 0.7120 0.7120 0.7120 0.7101 0.7052
15.032880 0.7050 0.7041 0.7040 0.7020 0.7020
15.066390 0.7000 0.7000 0.7000 0.6981 0.6980
15.099900 0.6980 0.6980 0.6980 0.6980 0.6980
15.133410 0.6997 0.7000 0.6984 0.6980 0.6980
15.166920 0.6972 0.6970 0.6954 0.6950 0.6950
15.200430 0.6950 0.6950 0.6967 0.6978 0.6980
15.233940 0.6972 0.6970 0.6970 0.6970 0.6956
15.267450 0.6950 0.6936 0.6923 0.6907 0.6900
15.300960 0.6887 0.6880 0.6861 0.6836 0.6809
15.334470 0.6779 0.6756 0.6750 0.6750 0.6750
15.367980 0.6750 0.6750 0.6737 0.6730 0.6730
15.401490 0.6730 0.6730
##END=
