##TITLE=POTASSIUM PERIODATE
$$ C.P.
##JCAMP-DX=4.24
##DATA TYPE=INFRARED SPECTRUM
##CLASS=COBLENTZ
##ORIGIN=MELLON INSTITUTE
##OWNER=COBLENTZ SOCIETY
Collection (C) 2018 copyright by the U.S. Secretary of Commerce
on behalf of the United States of America. All rights reserved.
##DATE=Not specified, most likely prior to 1970
##MOLFORM=K I O4
##SOURCE REFERENCE=COBLENTZ NO. 520
##$NIST ID=B6000520
##$NIST SOURCE=COBLENTZ
##$NIST IMAGE=cob520
##SPECTROMETER/DATA SYSTEM=Not specified, most likely a prism, grating, or hybrid spectrometer.
##STATE=SOLID (NUJOL MULL)
##PATH LENGTH=
$$SPECTRAL CONTAMINATION DUE TO OIL AROUND 2900, 1450, 1380 CM^-^1
##SAMPLING PROCEDURE=TRANSMISSION
##RESOLUTION=4
##DATA PROCESSING=DIGITIZED BY NIST FROM HARD COPY
##XUNITS=MICROMETERS
##YUNITS=TRANSMITTANCE
##XFACTOR=1.000000
##YFACTOR=1
##DELTAX=000.006841
##FIRSTX=2.076
##LASTX=16.0177
##FIRSTY=0.815
##MAXX=16.0177
##MINX=2.076
##MAXY=0.924
##MINY=0.054
##NPOINTS=2039
##XYDATA=(X++(Y..Y))
2.076000 0.8150 0.8150 0.8150 0.8150 0.8150
2.110221 0.8160 0.8160 0.8160 0.8150 0.8150
2.145000 0.8150 0.8150 0.8150 0.8150 0.8130
2.179221 0.8130 0.8130 0.8130 0.8130 0.8130
2.213000 0.8150 0.8150 0.8150 0.8150 0.8160
2.247221 0.8160 0.8160 0.8180 0.8200 0.8200
2.282000 0.8210 0.8210 0.8210 0.8210 0.8210
2.316221 0.8230 0.8230 0.8250 0.8250 0.8250
2.350000 0.8270 0.8270 0.8280 0.8300 0.8300
2.384221 0.8320 0.8320 0.8330 0.8330 0.8330
2.419000 0.8330 0.8350 0.8350 0.8370 0.8370
2.453221 0.8390 0.8390 0.8400 0.8400 0.8400
2.487000 0.8420 0.8420 0.8420 0.8420 0.8440
2.521221 0.8440 0.8440 0.8440 0.8440 0.8440
2.555000 0.8450 0.8450 0.8470 0.8470 0.8470
2.589221 0.8490 0.8490 0.8490 0.8490 0.8490
2.624000 0.8510 0.8510 0.8510 0.8510 0.8520
2.658221 0.8520 0.8520 0.8520 0.8540 0.8540
2.692000 0.8540 0.8540 0.8540 0.8560 0.8560
2.726221 0.8560 0.8560 0.8560 0.8560 0.8560
2.761000 0.8560 0.8560 0.8560 0.8560 0.8560
2.795221 0.8560 0.8560 0.8560 0.8560 0.8560
2.829000 0.8560 0.8560 0.8560 0.8560 0.8560
2.863221 0.8560 0.8560 0.8560 0.8560 0.8560
2.897000 0.8560 0.8560 0.8560 0.8560 0.8560
2.931221 0.8560 0.8560 0.8560 0.8560 0.8570
2.966000 0.8570 0.8570 0.8570 0.8570 0.8570
3.000221 0.8570 0.8570 0.8570 0.8570 0.8570
3.034000 0.8570 0.8570 0.8570 0.8570 0.8570
3.068221 0.8570 0.8570 0.8570 0.8570 0.8590
3.103000 0.8590 0.8590 0.8590 0.8590 0.8590
3.137221 0.8590 0.8610 0.8610 0.8610 0.8610
3.171000 0.8610 0.8630 0.8630 0.8630 0.8630
3.205221 0.8610 0.8610 0.8590 0.8590 0.8570
3.239000 0.8570 0.8540 0.8510 0.8490 0.8470
3.273221 0.8400 0.8150 0.7650 0.7200 0.6760
3.308000 0.6160 0.5540 0.5110 0.4690 0.4090
3.342221 0.3520 0.2960 0.2650 0.2610 0.2610
3.376000 0.2630 0.2670 0.3080 0.3450 0.4040
3.410221 0.4290 0.4410 0.4450 0.4410 0.4310
3.445000 0.4240 0.4220 0.4260 0.4580 0.5950
3.479221 0.6860 0.7310 0.7840 0.8010 0.8180
3.513000 0.8370 0.8470 0.8570 0.8640 0.8660
3.547221 0.8710 0.8730 0.8780 0.8810 0.8830
3.581000 0.8850 0.8850 0.8860 0.8880 0.8880
3.615221 0.8900 0.8900 0.8920 0.8930 0.8930
3.650000 0.8930 0.8930 0.8930 0.8930 0.8930
3.684221 0.8930 0.8930 0.8930 0.8930 0.8930
3.718000 0.8930 0.8950 0.8950 0.8950 0.8950
3.752221 0.8970 0.8970 0.8970 0.8970 0.8970
3.787000 0.8970 0.8970 0.8970 0.8970 0.8970
3.821221 0.8970 0.8970 0.8970 0.8970 0.8970
3.855000 0.8970 0.8970 0.8980 0.8980 0.8980
3.889221 0.8980 0.8980 0.8980 0.8980 0.8980
3.924000 0.8980 0.8980 0.8980 0.8980 0.8980
3.958221 0.8980 0.8980 0.8980 0.8980 0.8980
3.992000 0.8980 0.8970 0.8980 0.8980 0.8980
4.026221 0.8980 0.8980 0.8980 0.9000 0.9000
4.060000 0.9000 0.8980 0.8980 0.8980 0.8980
4.094221 0.8980 0.8980 0.8980 0.8980 0.8980
4.129000 0.8980 0.8980 0.8980 0.8980 0.8980
4.163221 0.8980 0.8980 0.8980 0.8980 0.8980
4.197000 0.8980 0.8980 0.8980 0.8980 0.8980
4.231221 0.8980 0.8980 0.8980 0.8980 0.8980
4.266000 0.8980 0.8980 0.8980 0.8980 0.8980
4.300221 0.8980 0.8980 0.8980 0.8980 0.9000
4.334000 0.9000 0.9000 0.9000 0.9000 0.9000
4.368221 0.9000 0.9000 0.9000 0.9000 0.9000
4.402000 0.9000 0.9000 0.8980 0.8980 0.8980
4.436221 0.8980 0.8980 0.8980 0.8980 0.8980
4.471000 0.8980 0.8980 0.8980 0.8980 0.8980
4.505221 0.8970 0.8970 0.8970 0.8970 0.8970
4.539000 0.8970 0.8970 0.8970 0.8970 0.8970
4.573221 0.8970 0.8970 0.8970 0.8970 0.8970
4.608000 0.8970 0.8970 0.8970 0.8970 0.8970
4.642221 0.8970 0.8970 0.8970 0.8970 0.8970
4.676000 0.8970 0.8970 0.8970 0.8950 0.8950
4.710221 0.8950 0.8950 0.8950 0.8950 0.8950
4.744000 0.8950 0.8930 0.8930 0.8930 0.8930
4.778221 0.8930 0.8930 0.8930 0.8930 0.8930
4.813000 0.8930 0.8930 0.8930 0.8930 0.8930
4.847221 0.8930 0.8930 0.8930 0.8930 0.8930
4.881000 0.8930 0.8930 0.8930 0.8930 0.8930
4.915221 0.8930 0.8930 0.8930 0.8930 0.8930
4.950000 0.8930 0.8930 0.8930 0.8930 0.8930
4.984221 0.8930 0.8930 0.8930 0.8930 0.8950
5.018000 0.8950 0.8950 0.8950 0.8950 0.8950
5.052221 0.8950 0.8950 0.8950 0.8950 0.8950
5.086000 0.8950 0.8950 0.8950 0.8950 0.8970
5.120221 0.8970 0.8970 0.8970 0.8970 0.8970
5.155000 0.8970 0.8970 0.8970 0.8970 0.8970
5.189221 0.8970 0.8970 0.8970 0.8970 0.8970
5.223000 0.8970 0.8970 0.8970 0.8970 0.8970
5.257221 0.8970 0.8970 0.8980 0.8980 0.8980
5.292000 0.8980 0.8980 0.8980 0.8980 0.8980
5.326221 0.8980 0.8980 0.8980 0.8980 0.8980
5.360000 0.8980 0.8980 0.8980 0.9000 0.9000
5.394221 0.9000 0.9000 0.9000 0.9000 0.9000
5.428000 0.9000 0.9000 0.9000 0.9000 0.9000
5.462221 0.9000 0.9000 0.9000 0.9000 0.9000
5.497000 0.9000 0.9000 0.9000 0.9000 0.9000
5.531221 0.9020 0.9020 0.9020 0.9040 0.9020
5.565000 0.9020 0.9020 0.9020 0.9020 0.9020
5.599221 0.9040 0.9040 0.9040 0.9040 0.9040
5.634000 0.9050 0.9050 0.9050 0.9050 0.9050
5.668221 0.9050 0.9050 0.9050 0.9050 0.9050
5.702000 0.9070 0.9070 0.9070 0.9070 0.9070
5.736221 0.9070 0.9070 0.9070 0.9070 0.9070
5.771000 0.9070 0.9070 0.9070 0.9070 0.9070
5.805221 0.9070 0.9070 0.9070 0.9070 0.9070
5.839000 0.9070 0.9070 0.9070 0.9050 0.9050
5.873221 0.9050 0.9050 0.9050 0.9050 0.9050
5.907000 0.9040 0.9050 0.9040 0.9040 0.9040
5.941221 0.9020 0.9000 0.9000 0.9000 0.9000
5.976000 0.8980 0.8980 0.8970 0.8970 0.8950
6.010221 0.8950 0.8950 0.8930 0.8920 0.8900
6.044000 0.8880 0.8850 0.8830 0.8800 0.8760
6.078221 0.8760 0.8750 0.8750 0.8810 0.8850
6.113000 0.8880 0.8900 0.8930 0.8930 0.8980
6.147221 0.8980 0.8980 0.9000 0.9000 0.9020
6.181000 0.9040 0.9050 0.9050 0.9050 0.9070
6.215221 0.9070 0.9090 0.9090 0.9100 0.9090
6.249000 0.9100 0.9100 0.9100 0.9090 0.9090
6.283221 0.9090 0.9040 0.9020 0.9020 0.9000
6.318000 0.9000 0.9000 0.9000 0.9000 0.9000
6.352221 0.8980 0.8980 0.8980 0.8980 0.8980
6.386000 0.9000 0.9000 0.9000 0.9020 0.9020
6.420221 0.9040 0.9040 0.9050 0.9040 0.9040
6.455000 0.9050 0.9050 0.9050 0.9050 0.9050
6.489221 0.9050 0.9050 0.9050 0.9070 0.9070
6.523000 0.9070 0.9050 0.9040 0.9040 0.9040
6.557221 0.9040 0.9050 0.9040 0.9040 0.9050
6.591000 0.9020 0.9020 0.9020 0.9020 0.9020
6.625221 0.9020 0.9020 0.9000 0.8980 0.8980
6.660000 0.8980 0.8980 0.8980 0.8930 0.8900
6.694221 0.8850 0.8810 0.8800 0.8780 0.8750
6.728000 0.8710 0.8590 0.8450 0.8230 0.7990
6.762221 0.7580 0.7150 0.7140 0.6950 0.6930
6.797000 0.6840 0.6830 0.6810 0.6790 0.6790
6.831221 0.6840 0.6900 0.6960 0.7050 0.7120
6.865000 0.7200 0.7290 0.7390 0.7460 0.7650
6.899221 0.7730 0.7820 0.7910 0.8010 0.8130
6.933000 0.8280 0.8370 0.8420 0.8470 0.8490
6.967221 0.8520 0.8590 0.8660 0.8710 0.8730
7.002000 0.8810 0.8850 0.8880 0.8900 0.8920
7.036221 0.8920 0.8950 0.8950 0.8950 0.8950
7.070000 0.8950 0.8970 0.8970 0.8970 0.8970
7.104221 0.8970 0.8970 0.8970 0.8950 0.8950
7.139000 0.8920 0.8880 0.8850 0.8800 0.8760
7.173221 0.8730 0.8630 0.8490 0.8370 0.8150
7.207000 0.8040 0.7940 0.7910 0.7910 0.7920
7.241221 0.7970 0.8090 0.8250 0.8350 0.8420
7.275000 0.8470 0.8520 0.8590 0.8640 0.8680
7.309221 0.8690 0.8730 0.8750 0.8800 0.8810
7.344000 0.8830 0.8860 0.8880 0.8920 0.8920
7.378221 0.8930 0.8930 0.8930 0.8950 0.8950
7.412000 0.8950 0.8950 0.8950 0.8970 0.8970
7.446221 0.8980 0.8980 0.8980 0.9000 0.9000
7.481000 0.9000 0.9020 0.9020 0.9020 0.9020
7.515221 0.9020 0.9020 0.9020 0.9020 0.9020
7.549000 0.9020 0.9040 0.9040 0.9040 0.9040
7.583221 0.9040 0.9040 0.9040 0.9040 0.9040
7.618000 0.9040 0.9040 0.9040 0.9040 0.9040
7.652221 0.9040 0.9040 0.9040 0.9040 0.9040
7.686000 0.9050 0.9050 0.9050 0.9050 0.9050
7.720221 0.9050 0.9050 0.9050 0.9050 0.9050
7.754000 0.9050 0.9070 0.9070 0.9090 0.9090
7.788221 0.9090 0.9090 0.9090 0.9090 0.9090
7.823000 0.9090 0.9090 0.9090 0.9090 0.9090
7.857221 0.9090 0.9090 0.9090 0.9100 0.9100
7.891000 0.9100 0.9100 0.9100 0.9100 0.9100
7.925221 0.9100 0.9100 0.9100 0.9100 0.9100
7.960000 0.9120 0.9120 0.9120 0.9120 0.9120
7.994221 0.9120 0.9120 0.9120 0.9120 0.9120
8.028000 0.9120 0.9120 0.9140 0.9140 0.9140
8.062221 0.9140 0.9140 0.9140 0.9140 0.9140
8.096000 0.9140 0.9140 0.9140 0.9140 0.9140
8.130221 0.9140 0.9140 0.9140 0.9140 0.9140
8.165000 0.9140 0.9140 0.9140 0.9140 0.9140
8.199221 0.9140 0.9140 0.9140 0.9140 0.9140
8.233000 0.9140 0.9140 0.9140 0.9140 0.9120
8.267221 0.9140 0.9140 0.9120 0.9120 0.9120
8.302000 0.9120 0.9120 0.9120 0.9120 0.9120
8.336221 0.9120 0.9120 0.9120 0.9120 0.9120
8.370000 0.9120 0.9120 0.9120 0.9120 0.9120
8.404221 0.9120 0.9120 0.9120 0.9120 0.9120
8.438000 0.9120 0.9120 0.9140 0.9140 0.9140
8.472221 0.9140 0.9160 0.9160 0.9160 0.9140
8.507000 0.9140 0.9140 0.9140 0.9140 0.9140
8.541221 0.9140 0.9140 0.9140 0.9140 0.9140
8.575000 0.9140 0.9140 0.9140 0.9140 0.9140
8.609221 0.9140 0.9140 0.9140 0.9140 0.9140
8.644000 0.9140 0.9140 0.9140 0.9140 0.9140
8.678221 0.9120 0.9120 0.9120 0.9120 0.9120
8.712000 0.9120 0.9120 0.9120 0.9140 0.9140
8.746221 0.9140 0.9140 0.9140 0.9120 0.9120
8.780000 0.9120 0.9120 0.9120 0.9120 0.9120
8.814221 0.9120 0.9100 0.9100 0.9100 0.9100
8.849000 0.9090 0.9100 0.9100 0.9100 0.9090
8.883221 0.9090 0.9090 0.9070 0.9070 0.9070
8.917000 0.9050 0.9050 0.9050 0.9040 0.9040
8.951221 0.9040 0.9040 0.9040 0.9040 0.9050
8.986000 0.9050 0.9070 0.9070 0.9090 0.9090
9.020221 0.9090 0.9090 0.9090 0.9100 0.9100
9.054000 0.9100 0.9120 0.9120 0.9120 0.9120
9.088221 0.9120 0.9120 0.9120 0.9120 0.9120
9.123000 0.9120 0.9120 0.9160 0.9160 0.9160
9.157221 0.9160 0.9160 0.9170 0.9160 0.9160
9.191000 0.9160 0.9160 0.9160 0.9160 0.9160
9.225221 0.9160 0.9160 0.9160 0.9160 0.9160
9.259000 0.9140 0.9160 0.9140 0.9140 0.9140
9.293221 0.9140 0.9140 0.9120 0.9140 0.9140
9.328000 0.9140 0.9140 0.9120 0.9120 0.9120
9.362221 0.9120 0.9120 0.9120 0.9120 0.9120
9.396000 0.9120 0.9120 0.9120 0.9120 0.9120
9.430221 0.9120 0.9120 0.9120 0.9120 0.9140
9.465000 0.9140 0.9140 0.9140 0.9140 0.9140
9.499221 0.9140 0.9140 0.9140 0.9160 0.9160
9.533000 0.9160 0.9160 0.9140 0.9160 0.9160
9.567221 0.9160 0.9160 0.9160 0.9160 0.9170
9.601000 0.9190 0.9190 0.9190 0.9190 0.9190
9.635221 0.9210 0.9210 0.9210 0.9210 0.9210
9.670000 0.9210 0.9210 0.9210 0.9210 0.9210
9.704221 0.9210 0.9210 0.9210 0.9210 0.9220
9.738000 0.9220 0.9220 0.9220 0.9220 0.9220
9.772221 0.9220 0.9220 0.9220 0.9220 0.9240
9.807000 0.9220 0.9220 0.9220 0.9240 0.9240
9.841221 0.9240 0.9240 0.9240 0.9240 0.9240
9.875000 0.9240 0.9240 0.9240 0.9240 0.9240
9.909221 0.9240 0.9240 0.9240 0.9240 0.9240
9.943000 0.9240 0.9240 0.9240 0.9240 0.9240
9.977221 0.9240 0.9240 0.9220 0.9220 0.9220
10.012000 0.9220 0.9220 0.9220 0.9220 0.9220
10.046221 0.9220 0.9210 0.9210 0.9210 0.9210
10.080000 0.9210 0.9210 0.9210 0.9210 0.9210
10.114221 0.9210 0.9210 0.9210 0.9210 0.9210
10.149000 0.9210 0.9210 0.9210 0.9210 0.9210
10.183221 0.9210 0.9210 0.9210 0.9210 0.9210
10.217000 0.9210 0.9210 0.9210 0.9210 0.9210
10.251221 0.9210 0.9210 0.9210 0.9210 0.9210
10.285000 0.9210 0.9210 0.9210 0.9210 0.9190
10.319221 0.9190 0.9190 0.9190 0.9190 0.9190
10.354000 0.9190 0.9190 0.9190 0.9190 0.9190
10.388221 0.9190 0.9170 0.9170 0.9170 0.9170
10.422000 0.9170 0.9170 0.9170 0.9170 0.9170
10.456221 0.9170 0.9170 0.9170 0.9170 0.9170
10.491000 0.9170 0.9170 0.9170 0.9190 0.9190
10.525221 0.9190 0.9190 0.9190 0.9190 0.9190
10.559000 0.9190 0.9190 0.9190 0.9190 0.9190
10.593221 0.9210 0.9210 0.9190 0.9190 0.9190
10.627000 0.9190 0.9190 0.9190 0.9190 0.9190
10.661221 0.9190 0.9170 0.9160 0.9160 0.9160
10.696000 0.9140 0.9140 0.9140 0.9140 0.9140
10.730221 0.9120 0.9120 0.9120 0.9120 0.9140
10.764000 0.9140 0.9140 0.9120 0.9120 0.9120
10.798221 0.9120 0.9120 0.9120 0.9120 0.9100
10.833000 0.9100 0.9100 0.9100 0.9100 0.9100
10.867221 0.9100 0.9090 0.9090 0.9090 0.9090
10.901000 0.9070 0.9070 0.9070 0.9070 0.9070
10.935221 0.9050 0.9050 0.9050 0.9050 0.9050
10.970000 0.9050 0.9040 0.9050 0.9050 0.9050
11.004221 0.9050 0.9050 0.9050 0.9050 0.9050
11.038000 0.9050 0.9070 0.9070 0.9090 0.9090
11.072221 0.9100 0.9100 0.9100 0.9120 0.9120
11.106000 0.9120 0.9140 0.9140 0.9170 0.9170
11.140221 0.9170 0.9190 0.9190 0.9190 0.9190
11.175000 0.9190 0.9190 0.9190 0.9190 0.9210
11.209221 0.9210 0.9210 0.9210 0.9210 0.9190
11.243000 0.9190 0.9190 0.9190 0.9170 0.9160
11.277221 0.9120 0.9100 0.9070 0.9020 0.8980
11.312000 0.8970 0.8950 0.8860 0.8800 0.8760
11.346221 0.8680 0.8570 0.8450 0.8160 0.7920
11.380000 0.7820 0.7320 0.6810 0.6350 0.6040
11.414221 0.5730 0.5660 0.5320 0.4980 0.4500
11.448000 0.3930 0.3560 0.3180 0.2790 0.2530
11.482221 0.2440 0.2360 0.2200 0.2080 0.1950
11.517000 0.1840 0.1720 0.1600 0.1520 0.1470
11.551221 0.1380 0.1310 0.1280 0.1250 0.1180
11.585000 0.1140 0.1090 0.1020 0.1010 0.0990
11.619221 0.0970 0.0950 0.0940 0.0920 0.0900
11.654000 0.0870 0.0850 0.0830 0.0820 0.0800
11.688221 0.0780 0.0750 0.0750 0.0730 0.0710
11.722000 0.0710 0.0700 0.0680 0.0660 0.0650
11.756221 0.0630 0.0610 0.0590 0.0580 0.0560
11.790000 0.0560 0.0540 0.0540 0.0540 0.0540
11.824221 0.0540 0.0540 0.0540 0.0630 0.0750
11.859000 0.0950 0.1140 0.1590 0.1950 0.2320
11.893221 0.2500 0.2850 0.3230 0.3540 0.4040
11.927000 0.4240 0.4430 0.4580 0.4760 0.4910
11.961221 0.5200 0.5290 0.5490 0.5590 0.5780
11.996000 0.5990 0.6040 0.6090 0.6130 0.6470
12.030221 0.6590 0.6710 0.6810 0.6930 0.7000
12.064000 0.7120 0.7200 0.7270 0.7340 0.7460
12.098221 0.7630 0.7680 0.7770 0.7800 0.7890
12.132000 0.7970 0.7990 0.8010 0.8030 0.8040
12.166221 0.8060 0.8110 0.8150 0.8180 0.8250
12.201000 0.8250 0.8300 0.8320 0.8350 0.8390
12.235221 0.8390 0.8440 0.8450 0.8470 0.8490
12.269000 0.8510 0.8520 0.8520 0.8540 0.8540
12.303221 0.8570 0.8590 0.8590 0.8610 0.8630
12.338000 0.8630 0.8640 0.8660 0.8680 0.8680
12.372221 0.8690 0.8710 0.8710 0.8730 0.8750
12.406000 0.8750 0.8760 0.8760 0.8780 0.8780
12.440221 0.8780 0.8800 0.8800 0.8810 0.8810
12.475000 0.8830 0.8830 0.8850 0.8850 0.8860
12.509221 0.8860 0.8880 0.8880 0.8880 0.8880
12.543000 0.8920 0.8920 0.8920 0.8930 0.8930
12.577221 0.8970 0.8970 0.8970 0.8970 0.8980
12.611000 0.8970 0.8980 0.8980 0.8980 0.9000
12.645221 0.9000 0.9000 0.9000 0.9000 0.8980
12.680000 0.9000 0.8980 0.8980 0.8980 0.8980
12.714221 0.8980 0.8980 0.9000 0.8980 0.8980
12.748000 0.8980 0.8980 0.8980 0.8980 0.8980
12.782221 0.8980 0.8980 0.8980 0.8980 0.8980
12.817000 0.8980 0.8980 0.8980 0.8980 0.8970
12.851221 0.8970 0.8970 0.8970 0.8970 0.8970
12.885000 0.8970 0.8970 0.8980 0.8980 0.8980
12.919221 0.8980 0.8980 0.8980 0.8980 0.8980
12.953000 0.8980 0.8980 0.8980 0.8980 0.8980
12.987221 0.8980 0.8980 0.9000 0.9000 0.9000
13.022000 0.9000 0.9000 0.9000 0.9000 0.9000
13.056221 0.9000 0.9000 0.9000 0.9000 0.9000
13.090000 0.9000 0.9000 0.9000 0.9000 0.9000
13.124221 0.9000 0.9000 0.9000 0.9000 0.9000
13.159000 0.9000 0.9000 0.9000 0.9000 0.9000
13.193221 0.9000 0.9000 0.8980 0.8980 0.8980
13.227000 0.8980 0.8980 0.8980 0.8980 0.8980
13.261221 0.9000 0.9000 0.9000 0.9000 0.9000
13.295000 0.8980 0.8980 0.8980 0.8980 0.8980
13.329221 0.8980 0.8980 0.8980 0.8980 0.8980
13.364000 0.8980 0.8980 0.8980 0.8980 0.8980
13.398221 0.8980 0.8980 0.8980 0.8980 0.8980
13.432000 0.8980 0.8980 0.8980 0.8970 0.8970
13.466221 0.8970 0.8950 0.8950 0.8950 0.8930
13.501000 0.8930 0.8930 0.8920 0.8920 0.8920
13.535221 0.8920 0.8920 0.8900 0.8900 0.8900
13.569000 0.8880 0.8880 0.8860 0.8860 0.8850
13.603221 0.8850 0.8830 0.8830 0.8830 0.8830
13.637000 0.8810 0.8810 0.8810 0.8810 0.8800
13.671221 0.8800 0.8800 0.8800 0.8780 0.8760
13.706000 0.8760 0.8760 0.8760 0.8750 0.8730
13.740221 0.8730 0.8730 0.8730 0.8730 0.8710
13.774000 0.8730 0.8710 0.8710 0.8710 0.8710
13.808221 0.8690 0.8710 0.8690 0.8690 0.8680
13.843000 0.8680 0.8680 0.8680 0.8680 0.8680
13.877221 0.8680 0.8680 0.8680 0.8680 0.8680
13.911000 0.8680 0.8680 0.8680 0.8660 0.8660
13.945221 0.8660 0.8660 0.8680 0.8680 0.8680
13.979000 0.8680 0.8680 0.8680 0.8680 0.8680
14.013221 0.8680 0.8660 0.8660 0.8640 0.8640
14.048000 0.8630 0.8630 0.8630 0.8630 0.8630
14.082221 0.8610 0.8610 0.8610 0.8590 0.8590
14.116000 0.8590 0.8590 0.8570 0.8570 0.8570
14.150221 0.8570 0.8570 0.8570 0.8560 0.8560
14.185000 0.8540 0.8540 0.8520 0.8520 0.8510
14.219221 0.8510 0.8510 0.8510 0.8510 0.8510
14.253000 0.8510 0.8510 0.8490 0.8510 0.8510
14.287221 0.8510 0.8490 0.8490 0.8490 0.8490
14.322000 0.8470 0.8450 0.8440 0.8440 0.8440
14.356221 0.8420 0.8420 0.8420 0.8420 0.8400
14.390000 0.8400 0.8390 0.8400 0.8390 0.8390
14.424221 0.8370 0.8370 0.8370 0.8370 0.8370
14.458000 0.8350 0.8330 0.8330 0.8330 0.8320
14.492221 0.8320 0.8320 0.8320 0.8300 0.8280
14.527000 0.8280 0.8280 0.8280 0.8270 0.8250
14.561221 0.8250 0.8230 0.8230 0.8230 0.8230
14.595000 0.8230 0.8210 0.8210 0.8230 0.8210
14.629221 0.8210 0.8210 0.8210 0.8210 0.8210
14.664000 0.8200 0.8200 0.8200 0.8180 0.8180
14.698221 0.8180 0.8180 0.8160 0.8160 0.8160
14.732000 0.8150 0.8150 0.8150 0.8130 0.8130
14.766221 0.8130 0.8110 0.8110 0.8090 0.8090
14.800000 0.8080 0.8080 0.8060 0.8060 0.8040
14.834221 0.8040 0.8030 0.8030 0.8010 0.8010
14.869000 0.8010 0.8010 0.8010 0.7990 0.7990
14.903221 0.7990 0.7990 0.7990 0.7970 0.7970
14.937000 0.7970 0.7970 0.7960 0.7960 0.7960
14.971221 0.7940 0.7920 0.7920 0.7920 0.7910
15.006000 0.7910 0.7890 0.7910 0.7910 0.7890
15.040221 0.7890 0.7890 0.7890 0.7870 0.7870
15.074000 0.7870 0.7850 0.7850 0.7850 0.7840
15.108221 0.7820 0.7820 0.7820 0.7820 0.7800
15.142000 0.7820 0.7800 0.7800 0.7800 0.7790
15.176221 0.7790 0.7770 0.7770 0.7750 0.7730
15.211000 0.7730 0.7730 0.7730 0.7730 0.7730
15.245221 0.7720 0.7720 0.7720 0.7720 0.7720
15.279000 0.7720 0.7700 0.7720 0.7700 0.7680
15.313221 0.7680 0.7680 0.7680 0.7680 0.7680
15.348000 0.7680 0.7680 0.7680 0.7680 0.7680
15.382221 0.7680 0.7670 0.7650 0.7650 0.7650
15.416000 0.7650 0.7650 0.7650 0.7630 0.7630
15.450221 0.7630 0.7630 0.7610 0.7610 0.7610
15.484000 0.7630 0.7610 0.7610 0.7610 0.7600
15.518221 0.7600 0.7600 0.7600 0.7600 0.7600
15.553000 0.7600 0.7580 0.7580 0.7580 0.7580
15.587221 0.7580 0.7580 0.7560 0.7560 0.7560
15.621000 0.7560 0.7560 0.7560 0.7560 0.7560
15.655221 0.7560 0.7560 0.7560 0.7560 0.7560
15.690000 0.7560 0.7560 0.7560 0.7560 0.7550
15.724221 0.7550 0.7550 0.7550 0.7550 0.7550
15.758000 0.7550 0.7550 0.7550 0.7550 0.7550
15.792221 0.7560 0.7560 0.7560 0.7560 0.7560
15.826000 0.7560 0.7560 0.7560 0.7560 0.7560
15.860221 0.7560 0.7560 0.7560 0.7580 0.7580
15.895000 0.7600 0.7580 0.7600 0.7600 0.7600
15.929221 0.7600 0.7600 0.7600 0.7600 0.7610
15.963000 0.7610 0.7610 0.7610 0.8200 0.7600
15.997221 0.7600 0.7610 0.7610 0.7610
##END=
