##TITLE=[1,2,5]-Thiadiazolo[3,4-d]pyrimidine, 5,7-dipyrrolidin-1-yl-
##JCAMP-DX=4.24
##DATA TYPE=INFRARED SPECTRUM
##CLASS=COBLENTZ III
##ORIGIN=SOUTHERN RESEARCH INSTITUTE
##OWNER=Copyright (C) 1987 by the Coblentz Society
Collection (C) 2018 copyright by the U.S. Secretary of Commerce
on behalf of the United States of America. All rights reserved.
##DATE=1962/03/13
##NAMES=5,7-di(1-pyrrolidinyl)[1,2,5]thiadiazolo[3,4-d]pyrimidine
##MOLFORM=C12 H16 N6 S
##SOURCE REFERENCE=COBLENTZ NO. 8331
##$NIST ID=B6008331
##$NIST SOURCE=COBLENTZ
##$NIST IMAGE=cob8331
##SPECTROMETER/DATA SYSTEM=PERKIN-ELMER 221 (GRATING)
##INSTRUMENT PARAMETERS=FILTER AT 2490, 980 CM^-^1. GRATING 4000-1428 CM^-^1, NaCl PRISM 1428-650 CM^-^1
##STATE=SOLID (1 mg / 650 mg KBr DISC)
$$ PURITY - ANALYTICAL
$$SPECTRAL CONTAMINATION DUE TO H2O AROUND 3450 CM^-^1
$$ SPECTRAL FEATURE AT 984 CM^-^1 IS AN ARTIFACT CAUSED BY FILTER CHANGE
##SAMPLING PROCEDURE=TRANSMISSION
##RESOLUTION=2
##DATA PROCESSING=DIGITIZED BY COBLENTZ SOCIETY (BATCH II) FROM HARD COPY
##XUNITS=1/CM
##YUNITS=TRANSMITTANCE
##XFACTOR=1.0
##YFACTOR=1
##FIRSTX=661
##LASTX=4000
##FIRSTY=0.926
##MAXX=4000
##MINX=661
##MAXY=0.9588
##MINY=0.1003
##NPOINTS=3340
##XYDATA=(X++(Y..Y))
661.000000 0.9260 0.9251 0.9242 0.9233 0.9219
666.000000 0.9202 0.8928 0.8844 0.8837 0.8844
671.000000 0.8849 0.9021 0.9145 0.9182 0.9219
676.000000 0.9255 0.9285 0.9308 0.9320 0.9331
681.000000 0.9343 0.9354 0.9366 0.9377 0.9388
686.000000 0.9398 0.9409 0.9419 0.9428 0.9432
691.000000 0.9436 0.9439 0.9443 0.9446 0.9449
696.000000 0.9450 0.9452 0.9453 0.9455 0.9456
701.000000 0.9453 0.9447 0.9441 0.9436 0.9430
706.000000 0.9425 0.9420 0.9469 0.9411 0.9409
711.000000 0.9409 0.9410 0.9410 0.9411 0.9412
716.000000 0.9412 0.9413 0.9413 0.9414 0.9415
721.000000 0.9415 0.9416 0.9417 0.9418 0.9416
726.000000 0.9405 0.9394 0.9383 0.9365 0.9345
731.000000 0.9325 0.9305 0.9270 0.9232 0.9186
736.000000 0.9125 0.9026 0.8397 0.7642 0.7194
741.000000 0.7171 0.7416 0.7861 0.8306 0.8750
746.000000 0.9195 0.9423 0.9437 0.9446 0.9455
751.000000 0.9465 0.9471 0.9478 0.9480 0.9479
756.000000 0.9479 0.9478 0.9478 0.9478 0.9477
761.000000 0.9474 0.9471 0.9467 0.9464 0.9463
766.000000 0.9457 0.9453 0.9450 0.9446 0.9441
771.000000 0.9436 0.9431 0.9427 0.9422 0.9417
776.000000 0.9412 0.9407 0.9402 0.9393 0.9380
781.000000 0.9366 0.9352 0.9338 0.9315 0.9289
786.000000 0.9263 0.9238 0.9212 0.9177 0.9136
791.000000 0.9092 0.9016 0.8887 0.7219 0.6038
796.000000 0.6059 0.6060 0.6074 0.6394 0.6987
801.000000 0.7580 0.8173 0.8766 0.8917 0.8905
806.000000 0.8927 0.8874 0.8853 0.8825 0.8762
811.000000 0.8675 0.7667 0.6257 0.5874 0.5903
816.000000 0.5886 0.6360 0.7032 0.7703 0.8374
821.000000 0.9046 0.9323 0.9359 0.9362 0.9364
826.000000 0.9369 0.9355 0.9351 0.9341 0.9330
831.000000 0.9316 0.9288 0.9259 0.9226 0.9191
836.000000 0.9156 0.9110 0.9064 0.9010 0.8955
841.000000 0.8900 0.8832 0.8709 0.8454 0.8286
846.000000 0.8296 0.8319 0.8341 0.8364 0.8387
851.000000 0.8389 0.8384 0.7926 0.7406 0.6886
856.000000 0.6425 0.6437 0.6429 0.6457 0.6752
861.000000 0.7048 0.7343 0.7639 0.7934 0.8230
866.000000 0.8375 0.8370 0.8362 0.8354 0.8349
871.000000 0.8355 0.8382 0.8642 0.8902 0.9153
876.000000 0.9228 0.9330 0.9358 0.9383 0.9393
881.000000 0.9404 0.9412 0.9418 0.9419 0.9419
886.000000 0.9432 0.9417 0.9414 0.9408 0.9402
891.000000 0.9394 0.9383 0.9373 0.9362 0.9352
896.000000 0.9341 0.9329 0.9317 0.9304 0.9292
901.000000 0.9274 0.9253 0.9204 0.9124 0.8652
906.000000 0.8458 0.8422 0.8416 0.8415 0.8422
911.000000 0.8496 0.8615 0.8733 0.8852 0.8970
916.000000 0.9089 0.9143 0.9154 0.9161 0.9166
921.000000 0.9171 0.9176 0.9190 0.9219 0.9245
926.000000 0.9270 0.9296 0.9310 0.9319 0.9322
931.000000 0.9317 0.9320 0.9307 0.9303 0.9292
936.000000 0.9280 0.9268 0.9256 0.9244 0.9224
941.000000 0.9202 0.9180 0.9129 0.8963 0.8797
946.000000 0.8630 0.8574 0.8540 0.8619 0.8724
951.000000 0.8830 0.8935 0.9040 0.9159 0.9097
956.000000 0.9093 0.9089 0.8981 0.8870 0.8773
961.000000 0.8682 0.8617 0.8582 0.8551 0.8561
966.000000 0.8512 0.8712 0.8797 0.8868 0.8952
971.000000 0.9034 0.9112 0.9174 0.9217 0.9252
976.000000 0.9251 0.9301 0.9336 0.9365 0.9221
981.000000 0.8389 0.7557 0.7117 0.7119 0.7301
986.000000 0.8169 0.9037 0.9107 0.9103 0.9099
991.000000 0.9095 0.9092 0.9089 0.9088 0.9087
996.000000 0.9086 0.9084 0.9083 0.9078 0.9074
1001.000000 0.9066 0.9058 0.9051 0.9044 0.9037
1006.000000 0.9025 0.9008 0.8997 0.8986 0.8975
1011.000000 0.8963 0.8951 0.8939 0.8931 0.8924
1016.000000 0.8916 0.8909 0.8903 0.8897 0.8891
1021.000000 0.8885 0.8882 0.8880 0.8878 0.8876
1026.000000 0.8874 0.8872 0.8871 0.8869 0.8867
1031.000000 0.8865 0.8864 0.8862 0.8860 0.8858
1036.000000 0.8857 0.8855 0.8853 0.8851 0.8850
1041.000000 0.8848 0.8847 0.8845 0.8845 0.8846
1046.000000 0.8847 0.8847 0.8848 0.8848 0.8849
1051.000000 0.8850 0.8850 0.8851 0.8852 0.8852
1056.000000 0.8853 0.8853 0.8854 0.8854 0.8855
1061.000000 0.8853 0.8852 0.8850 0.8848 0.8847
1066.000000 0.8845 0.8843 0.8842 0.8840 0.8839
1071.000000 0.8835 0.8829 0.8823 0.8817 0.8811
1076.000000 0.8805 0.8798 0.8792 0.8782 0.8773
1081.000000 0.8763 0.8753 0.8743 0.8734 0.8724
1086.000000 0.8714 0.8705 0.8695 0.8685 0.8675
1091.000000 0.8664 0.8653 0.8642 0.8631 0.8620
1096.000000 0.8609 0.8598 0.8587 0.8575 0.8553
1101.000000 0.8531 0.8510 0.8488 0.8459 0.8420
1106.000000 0.8382 0.8349 0.8339 0.8329 0.8331
1111.000000 0.8334 0.8339 0.8356 0.8372 0.8388
1116.000000 0.8405 0.8421 0.8435 0.8449 0.8454
1121.000000 0.8460 0.8466 0.8469 0.8471 0.8472
1126.000000 0.8474 0.8476 0.8478 0.8479 0.8481
1131.000000 0.8482 0.8484 0.8484 0.8483 0.8492
1136.000000 0.8481 0.8477 0.8470 0.8464 0.8457
1141.000000 0.8451 0.8444 0.8443 0.8442 0.8442
1146.000000 0.8441 0.8442 0.8445 0.8448 0.8450
1151.000000 0.8448 0.8416 0.8397 0.8379 0.8360
1156.000000 0.8341 0.8323 0.8307 0.8291 0.8275
1161.000000 0.8255 0.8234 0.8212 0.8190 0.8169
1166.000000 0.8147 0.8125 0.8104 0.8088 0.8072
1171.000000 0.8057 0.8042 0.8027 0.8012 0.7994
1176.000000 0.7973 0.7953 0.7932 0.7911 0.7891
1181.000000 0.7870 0.7850 0.7829 0.7806 0.7779
1186.000000 0.7752 0.7725 0.7698 0.7671 0.7643
1191.000000 0.7607 0.7571 0.7535 0.7499 0.7481
1196.000000 0.7470 0.7463 0.7463 0.7462 0.7454
1201.000000 0.7446 0.7421 0.7375 0.7344 0.7318
1206.000000 0.7293 0.7291 0.7290 0.7292 0.7303
1211.000000 0.7313 0.7311 0.7266 0.7207 0.7152
1216.000000 0.7122 0.7110 0.7097 0.7097 0.7111
1221.000000 0.7108 0.7154 0.7231 0.7337 0.7423
1226.000000 0.7515 0.7659 0.7821 0.8028 0.8083
1231.000000 0.8139 0.8154 0.8152 0.8140 0.8131
1236.000000 0.8116 0.8093 0.8070 0.8043 0.8013
1241.000000 0.7983 0.7952 0.7886 0.7819 0.7656
1246.000000 0.7585 0.7547 0.7541 0.7545 0.7552
1251.000000 0.7583 0.7619 0.7753 0.7885 0.7966
1256.000000 0.8000 0.8016 0.8015 0.8011 0.8003
1261.000000 0.7999 0.7988 0.7977 0.7957 0.7935
1266.000000 0.7911 0.7885 0.7858 0.7832 0.7798
1271.000000 0.7761 0.7724 0.7689 0.7654 0.7619
1276.000000 0.7583 0.7542 0.7496 0.7450 0.7404
1281.000000 0.7358 0.7302 0.7246 0.7191 0.7135
1286.000000 0.7078 0.7021 0.6991 0.6971 0.6950
1291.000000 0.6711 0.6598 0.6522 0.6449 0.6376
1296.000000 0.6274 0.6207 0.6173 0.6192 0.6255
1301.000000 0.6318 0.6381 0.6444 0.6484 0.6477
1306.000000 0.6468 0.6446 0.6399 0.6109 0.5820
1311.000000 0.5531 0.5242 0.4953 0.4663 0.4374
1316.000000 0.4085 0.3796 0.3506 0.3223 0.3148
1321.000000 0.3110 0.3090 0.3108 0.3129 0.3165
1326.000000 0.3249 0.3353 0.3466 0.3580 0.3662
1331.000000 0.3723 0.3784 0.3847 0.4033 0.4385
1336.000000 0.4737 0.5088 0.5440 0.5792 0.6144
1341.000000 0.6496 0.6848 0.7199 0.7543 0.7520
1346.000000 0.7539 0.7536 0.7371 0.7196 0.7021
1351.000000 0.6846 0.6671 0.6497 0.6322 0.6147
1356.000000 0.5972 0.5797 0.5622 0.5447 0.5272
1361.000000 0.5098 0.4923 0.4748 0.4573 0.4427
1366.000000 0.4403 0.4392 0.4392 0.4485 0.4609
1371.000000 0.4733 0.4857 0.4981 0.5105 0.5226
1376.000000 0.5245 0.5223 0.5218 0.5206 0.5105
1381.000000 0.4982 0.4859 0.4737 0.4614 0.4491
1386.000000 0.4393 0.4391 0.4559 0.4808 0.5058
1391.000000 0.5307 0.5556 0.5805 0.6054 0.6303
1396.000000 0.6553 0.6802 0.7051 0.7300 0.7549
1401.000000 0.7552 0.7533 0.7545 0.7540 0.7526
1406.000000 0.7451 0.7392 0.7319 0.7271 0.7222
1411.000000 0.6823 0.6412 0.6334 0.6285 0.6243
1416.000000 0.6212 0.6182 0.6155 0.6129 0.6104
1421.000000 0.6078 0.6044 0.6006 0.5954 0.5859
1426.000000 0.5777 0.5697 0.5617 0.5537 0.5457
1431.000000 0.5369 0.5277 0.5183 0.4863 0.4603
1436.000000 0.4489 0.4423 0.4357 0.4291 0.4203
1441.000000 0.4105 0.4007 0.3894 0.3471 0.3201
1446.000000 0.2930 0.2659 0.2389 0.2118 0.2063
1451.000000 0.2067 0.2594 0.3176 0.3757 0.3871
1456.000000 0.3916 0.3938 0.3959 0.3974 0.3990
1461.000000 0.3846 0.3623 0.3400 0.3178 0.2962
1466.000000 0.2942 0.2926 0.2911 0.2918 0.2888
1471.000000 0.3160 0.3443 0.3725 0.3955 0.3981
1476.000000 0.4004 0.4023 0.4036 0.4048 0.4061
1481.000000 0.4302 0.4557 0.4761 0.4761 0.4754
1486.000000 0.4761 0.4750 0.4511 0.4271 0.4031
1491.000000 0.3791 0.3551 0.3311 0.3071 0.2831
1496.000000 0.2591 0.2351 0.2111 0.1871 0.1632
1501.000000 0.1392 0.1152 0.1078 0.1046 0.1025
1506.000000 0.1009 0.1005 0.1007 0.1003 0.1008
1511.000000 0.1061 0.1200 0.1339 0.1477 0.1616
1516.000000 0.1755 0.1894 0.2033 0.2172 0.2311
1521.000000 0.2449 0.2449 0.2422 0.2426 0.2370
1526.000000 0.2315 0.2260 0.2204 0.2149 0.2094
1531.000000 0.2038 0.1983 0.1928 0.1872 0.1817
1536.000000 0.1762 0.1706 0.1651 0.1596 0.1543
1541.000000 0.1542 0.1512 0.1541 0.1544 0.1549
1546.000000 0.1566 0.1587 0.1749 0.1930 0.2111
1551.000000 0.2292 0.2473 0.2654 0.2835 0.3016
1556.000000 0.3197 0.3378 0.3559 0.3740 0.3921
1561.000000 0.4102 0.4282 0.4463 0.4613 0.4613
1566.000000 0.4621 0.4613 0.4614 0.4551 0.4276
1571.000000 0.4002 0.3727 0.3452 0.3177 0.2902
1576.000000 0.2627 0.2353 0.2078 0.1803 0.1528
1581.000000 0.1366 0.1356 0.1358 0.1377 0.1475
1586.000000 0.1827 0.2179 0.2532 0.2884 0.3237
1591.000000 0.3589 0.3942 0.4294 0.4647 0.4999
1596.000000 0.5351 0.5704 0.6174 0.6492 0.6705
1601.000000 0.6970 0.7061 0.7153 0.7275 0.7471
1606.000000 0.7583 0.7679 0.7749 0.7796 0.7843
1611.000000 0.7890 0.7929 0.7963 0.7996 0.8029
1616.000000 0.8063 0.8089 0.8115 0.8141 0.8167
1621.000000 0.8193 0.8218 0.8242 0.8264 0.8286
1626.000000 0.8310 0.8339 0.8367 0.8400 0.8434
1631.000000 0.8468 0.8501 0.8533 0.8564 0.8596
1636.000000 0.8628 0.8656 0.8678 0.8701 0.8724
1641.000000 0.8747 0.8770 0.8793 0.8816 0.8828
1646.000000 0.8837 0.8840 0.8843 0.8844 0.8845
1651.000000 0.8846 0.8847 0.8847 0.8850 0.8856
1656.000000 0.8872 0.8887 0.8903 0.8918 0.8934
1661.000000 0.8948 0.8961 0.8975 0.8989 0.9004
1666.000000 0.9021 0.9039 0.9056 0.9073 0.9091
1671.000000 0.9108 0.9125 0.9143 0.9161 0.9179
1676.000000 0.9197 0.9215 0.9233 0.9251 0.9267
1681.000000 0.9282 0.9296 0.9310 0.9325 0.9338
1686.000000 0.9351 0.9364 0.9377 0.9388 0.9395
1691.000000 0.9401 0.9407 0.9414 0.9418 0.9419
1696.000000 0.9419 0.9420 0.9420 0.9421 0.9421
1701.000000 0.9421 0.9422 0.9422 0.9423 0.9423
1706.000000 0.9424 0.9424 0.9423 0.9423 0.9422
1711.000000 0.9421 0.9421 0.9421 0.9421 0.9427
1716.000000 0.9434 0.9442 0.9449 0.9455 0.9459
1721.000000 0.9463 0.9464 0.9464 0.9463 0.9462
1726.000000 0.9461 0.9449 0.9436 0.9415 0.9397
1731.000000 0.9390 0.9390 0.9390 0.9392 0.9396
1736.000000 0.9399 0.9404 0.9417 0.9429 0.9443
1741.000000 0.9457 0.9472 0.9486 0.9501 0.9515
1746.000000 0.9530 0.9541 0.9549 0.9557 0.9563
1751.000000 0.9567 0.9571 0.9576 0.9580 0.9584
1756.000000 0.9588 0.9585 0.9587 0.9586 0.9586
1761.000000 0.9583 0.9578 0.9573 0.9568 0.9564
1766.000000 0.9559 0.9554 0.9547 0.9541 0.9535
1771.000000 0.9529 0.9523 0.9517 0.9511 0.9506
1776.000000 0.9502 0.9498 0.9493 0.9489 0.9485
1781.000000 0.9480 0.9478 0.9478 0.9478 0.9478
1786.000000 0.9478 0.9478 0.9479 0.9479 0.9479
1791.000000 0.9479 0.9479 0.9479 0.9480 0.9480
1796.000000 0.9480 0.9480 0.9480 0.9480 0.9481
1801.000000 0.9481 0.9482 0.9482 0.9483 0.9484
1806.000000 0.9484 0.9485 0.9486 0.9491 0.9496
1811.000000 0.9501 0.9507 0.9513 0.9520 0.9527
1816.000000 0.9534 0.9541 0.9548 0.9555 0.9561
1821.000000 0.9566 0.9570 0.9574 0.9579 0.9579
1826.000000 0.9579 0.9578 0.9578 0.9578 0.9577
1831.000000 0.9576 0.9575 0.9573 0.9572 0.9570
1836.000000 0.9569 0.9567 0.9566 0.9565 0.9563
1841.000000 0.9562 0.9560 0.9559 0.9557 0.9556
1846.000000 0.9556 0.9555 0.9555 0.9555 0.9554
1851.000000 0.9554 0.9554 0.9553 0.9553 0.9552
1856.000000 0.9552 0.9551 0.9551 0.9550 0.9550
1861.000000 0.9549 0.9549 0.9548 0.9548 0.9548
1866.000000 0.9547 0.9547 0.9547 0.9546 0.9546
1871.000000 0.9546 0.9545 0.9545 0.9545 0.9544
1876.000000 0.9544 0.9544 0.9543 0.9543 0.9543
1881.000000 0.9543 0.9545 0.9546 0.9548 0.9550
1886.000000 0.9551 0.9553 0.9555 0.9556 0.9558
1891.000000 0.9560 0.9561 0.9563 0.9565 0.9567
1896.000000 0.9568 0.9570 0.9572 0.9572 0.9572
1901.000000 0.9572 0.9571 0.9570 0.9568 0.9567
1906.000000 0.9566 0.9565 0.9564 0.9562 0.9562
1911.000000 0.9561 0.9560 0.9559 0.9558 0.9557
1916.000000 0.9556 0.9555 0.9554 0.9554 0.9553
1921.000000 0.9547 0.9540 0.9533 0.9526 0.9519
1926.000000 0.9512 0.9505 0.9500 0.9494 0.9488
1931.000000 0.9483 0.9477 0.9472 0.9466 0.9462
1936.000000 0.9459 0.9457 0.9454 0.9452 0.9450
1941.000000 0.9447 0.9445 0.9442 0.9441 0.9440
1946.000000 0.9438 0.9437 0.9436 0.9435 0.9434
1951.000000 0.9433 0.9432 0.9430 0.9427 0.9424
1956.000000 0.9421 0.9418 0.9415 0.9412 0.9409
1961.000000 0.9406 0.9403 0.9401 0.9398 0.9395
1966.000000 0.9393 0.9390 0.9388 0.9385 0.9384
1971.000000 0.9383 0.9382 0.9381 0.9379 0.9378
1976.000000 0.9377 0.9376 0.9375 0.9374 0.9373
1981.000000 0.9372 0.9371 0.9370 0.9368 0.9366
1986.000000 0.9364 0.9362 0.9360 0.9358 0.9356
1991.000000 0.9354 0.9353 0.9351 0.9349 0.9347
1996.000000 0.9344 0.9341 0.9337 0.9334 0.9331
2001.000000 0.9328 0.9324 0.9321 0.9318 0.9315
2006.000000 0.9311 0.9308 0.9304 0.9300 0.9295
2011.000000 0.9291 0.9286 0.9282 0.9277 0.9273
2016.000000 0.9269 0.9264 0.9260 0.9255 0.9249
2021.000000 0.9244 0.9239 0.9234 0.9229 0.9224
2026.000000 0.9218 0.9213 0.9208 0.9203 0.9202
2031.000000 0.9201 0.9201 0.9200 0.9200 0.9199
2036.000000 0.9198 0.9198 0.9197 0.9197 0.9197
2041.000000 0.9198 0.9198 0.9199 0.9200 0.9200
2046.000000 0.9201 0.9202 0.9202 0.9203 0.9204
2051.000000 0.9204 0.9205 0.9206 0.9206 0.9206
2056.000000 0.9206 0.9206 0.9206 0.9206 0.9206
2061.000000 0.9206 0.9206 0.9206 0.9206 0.9206
2066.000000 0.9206 0.9206 0.9206 0.9206 0.9206
2071.000000 0.9206 0.9205 0.9205 0.9203 0.9201
2076.000000 0.9199 0.9198 0.9196 0.9194 0.9192
2081.000000 0.9190 0.9188 0.9185 0.9181 0.9177
2086.000000 0.9174 0.9170 0.9167 0.9163 0.9159
2091.000000 0.9156 0.9152 0.9149 0.9145 0.9143
2096.000000 0.9142 0.9141 0.9139 0.9138 0.9137
2101.000000 0.9136 0.9134 0.9133 0.9132 0.9131
2106.000000 0.9130 0.9128 0.9127 0.9126 0.9125
2111.000000 0.9124 0.9122 0.9121 0.9119 0.9115
2116.000000 0.9112 0.9108 0.9104 0.9100 0.9096
2121.000000 0.9092 0.9088 0.9084 0.9080 0.9077
2126.000000 0.9073 0.9072 0.9071 0.9070 0.9070
2131.000000 0.9069 0.9069 0.9068 0.9067 0.9067
2136.000000 0.9066 0.9067 0.9067 0.9067 0.9068
2141.000000 0.9068 0.9068 0.9069 0.9069 0.9069
2146.000000 0.9070 0.9070 0.9070 0.9071 0.9071
2151.000000 0.9071 0.9072 0.9072 0.9072 0.9073
2156.000000 0.9073 0.9070 0.9067 0.9063 0.9059
2161.000000 0.9056 0.9051 0.9046 0.9041 0.9036
2166.000000 0.9032 0.9027 0.9022 0.9017 0.9012
2171.000000 0.9008 0.9006 0.9004 0.9003 0.9001
2176.000000 0.9000 0.8999 0.8997 0.8995 0.8994
2181.000000 0.8992 0.8991 0.8989 0.8988 0.8986
2186.000000 0.8984 0.8982 0.8980 0.8979 0.8978
2191.000000 0.8977 0.8976 0.8975 0.8974 0.8972
2196.000000 0.8971 0.8970 0.8969 0.8968 0.8967
2201.000000 0.8966 0.8964 0.8963 0.8962 0.8961
2206.000000 0.8960 0.8959 0.8959 0.8959 0.8958
2211.000000 0.8958 0.8958 0.8958 0.8958 0.8958
2216.000000 0.8958 0.8958 0.8958 0.8958 0.8958
2221.000000 0.8958 0.8958 0.8958 0.8958 0.8957
2226.000000 0.8957 0.8957 0.8956 0.8956 0.8956
2231.000000 0.8955 0.8955 0.8955 0.8954 0.8954
2236.000000 0.8953 0.8953 0.8953 0.8952 0.8951
2241.000000 0.8949 0.8947 0.8945 0.8943 0.8941
2246.000000 0.8939 0.8937 0.8935 0.8933 0.8931
2251.000000 0.8928 0.8926 0.8924 0.8922 0.8920
2256.000000 0.8918 0.8916 0.8913 0.8911 0.8908
2261.000000 0.8906 0.8903 0.8901 0.8898 0.8896
2266.000000 0.8893 0.8891 0.8888 0.8886 0.8883
2271.000000 0.8881 0.8878 0.8875 0.8872 0.8868
2276.000000 0.8865 0.8862 0.8858 0.8855 0.8851
2281.000000 0.8848 0.8845 0.8841 0.8838 0.8836
2286.000000 0.8834 0.8832 0.8830 0.8828 0.8826
2291.000000 0.8824 0.8822 0.8820 0.8817 0.8813
2296.000000 0.8809 0.8805 0.8801 0.8797 0.8793
2301.000000 0.8789 0.8785 0.8781 0.8776 0.8772
2306.000000 0.8768 0.8764 0.8760 0.8756 0.8752
2311.000000 0.8748 0.8744 0.8740 0.8736 0.8732
2316.000000 0.8728 0.8723 0.8719 0.8715 0.8711
2321.000000 0.8707 0.8703 0.8700 0.8697 0.8693
2326.000000 0.8690 0.8687 0.8684 0.8680 0.8677
2331.000000 0.8674 0.8671 0.8667 0.8664 0.8661
2336.000000 0.8659 0.8657 0.8655 0.8653 0.8651
2341.000000 0.8649 0.8647 0.8645 0.8643 0.8641
2346.000000 0.8639 0.8637 0.8636 0.8636 0.8635
2351.000000 0.8634 0.8634 0.8633 0.8633 0.8632
2356.000000 0.8632 0.8631 0.8630 0.8630 0.8630
2361.000000 0.8630 0.8630 0.8630 0.8630 0.8630
2366.000000 0.8629 0.8629 0.8629 0.8629 0.8629
2371.000000 0.8629 0.8631 0.8634 0.8637 0.8640
2376.000000 0.8643 0.8645 0.8648 0.8650 0.8652
2381.000000 0.8654 0.8656 0.8659 0.8661 0.8663
2386.000000 0.8665 0.8668 0.8669 0.8668 0.8667
2391.000000 0.8666 0.8665 0.8663 0.8662 0.8661
2396.000000 0.8660 0.8659 0.8658 0.8656 0.8655
2401.000000 0.8654 0.8653 0.8651 0.8650 0.8648
2406.000000 0.8646 0.8645 0.8643 0.8641 0.8640
2411.000000 0.8638 0.8636 0.8635 0.8633 0.8631
2416.000000 0.8630 0.8628 0.8626 0.8625 0.8623
2421.000000 0.8621 0.8619 0.8618 0.8616 0.8614
2426.000000 0.8613 0.8611 0.8609 0.8608 0.8606
2431.000000 0.8604 0.8602 0.8601 0.8599 0.8597
2436.000000 0.8596 0.8594 0.8591 0.8587 0.8584
2441.000000 0.8580 0.8576 0.8572 0.8569 0.8565
2446.000000 0.8561 0.8557 0.8554 0.8549 0.8544
2451.000000 0.8539 0.8534 0.8529 0.8524 0.8519
2456.000000 0.8514 0.8509 0.8506 0.8503 0.8500
2461.000000 0.8497 0.8495 0.8492 0.8489 0.8487
2466.000000 0.8484 0.8482 0.8479 0.8477 0.8475
2471.000000 0.8472 0.8470 0.8467 0.8465 0.8465
2476.000000 0.8464 0.8463 0.8461 0.8460 0.8459
2481.000000 0.8457 0.8456 0.8455 0.8453 0.8452
2486.000000 0.8450 0.8448 0.8445 0.8443 0.8441
2491.000000 0.8438 0.8436 0.8434 0.8431 0.8429
2496.000000 0.8427 0.8424 0.8420 0.8417 0.8414
2501.000000 0.8411 0.8408 0.8405 0.8402 0.8399
2506.000000 0.8396 0.8393 0.8391 0.8388 0.8385
2511.000000 0.8382 0.8379 0.8376 0.8375 0.8374
2516.000000 0.8373 0.8372 0.8371 0.8370 0.8369
2521.000000 0.8367 0.8366 0.8365 0.8364 0.8362
2526.000000 0.8361 0.8360 0.8359 0.8358 0.8356
2531.000000 0.8355 0.8354 0.8353 0.8351 0.8350
2536.000000 0.8349 0.8347 0.8345 0.8343 0.8341
2541.000000 0.8339 0.8337 0.8335 0.8332 0.8330
2546.000000 0.8328 0.8326 0.8324 0.8322 0.8320
2551.000000 0.8318 0.8316 0.8314 0.8312 0.8310
2556.000000 0.8308 0.8306 0.8304 0.8303 0.8302
2561.000000 0.8300 0.8299 0.8298 0.8296 0.8295
2566.000000 0.8293 0.8292 0.8291 0.8289 0.8286
2571.000000 0.8281 0.8276 0.8271 0.8266 0.8260
2576.000000 0.8255 0.8250 0.8245 0.8240 0.8235
2581.000000 0.8230 0.8224 0.8215 0.8206 0.8197
2586.000000 0.8188 0.8180 0.8178 0.8175 0.8172
2591.000000 0.8170 0.8167 0.8164 0.8162 0.8162
2596.000000 0.8162 0.8162 0.8161 0.8161 0.8161
2601.000000 0.8160 0.8160 0.8160 0.8159 0.8159
2606.000000 0.8159 0.8158 0.8158 0.8158 0.8158
2611.000000 0.8156 0.8155 0.8153 0.8152 0.8151
2616.000000 0.8149 0.8148 0.8147 0.8145 0.8144
2621.000000 0.8142 0.8141 0.8140 0.8138 0.8137
2626.000000 0.8136 0.8135 0.8134 0.8132 0.8131
2631.000000 0.8130 0.8129 0.8128 0.8127 0.8126
2636.000000 0.8125 0.8124 0.8123 0.8121 0.8120
2641.000000 0.8115 0.8109 0.8102 0.8096 0.8089
2646.000000 0.8083 0.8076 0.8066 0.8055 0.8044
2651.000000 0.8033 0.8022 0.8014 0.8010 0.8006
2656.000000 0.8002 0.7999 0.7995 0.7991 0.7987
2661.000000 0.7984 0.7982 0.7981 0.7981 0.7980
2666.000000 0.7980 0.7979 0.7978 0.7976 0.7974
2671.000000 0.7972 0.7970 0.7967 0.7965 0.7963
2676.000000 0.7961 0.7959 0.7957 0.7955 0.7952
2681.000000 0.7950 0.7948 0.7946 0.7943 0.7940
2686.000000 0.7937 0.7935 0.7932 0.7929 0.7926
2691.000000 0.7924 0.7921 0.7918 0.7915 0.7913
2696.000000 0.7910 0.7907 0.7904 0.7902 0.7899
2701.000000 0.7896 0.7893 0.7891 0.7888 0.7885
2706.000000 0.7882 0.7880 0.7878 0.7877 0.7875
2711.000000 0.7873 0.7871 0.7869 0.7867 0.7865
2716.000000 0.7863 0.7861 0.7859 0.7857 0.7855
2721.000000 0.7853 0.7852 0.7850 0.7848 0.7845
2726.000000 0.7841 0.7837 0.7833 0.7829 0.7825
2731.000000 0.7821 0.7817 0.7813 0.7809 0.7805
2736.000000 0.7801 0.7797 0.7793 0.7788 0.7782
2741.000000 0.7777 0.7771 0.7766 0.7760 0.7755
2746.000000 0.7749 0.7744 0.7738 0.7733 0.7728
2751.000000 0.7722 0.7717 0.7711 0.7705 0.7699
2756.000000 0.7693 0.7687 0.7681 0.7675 0.7669
2761.000000 0.7664 0.7658 0.7652 0.7646 0.7640
2766.000000 0.7634 0.7628 0.7622 0.7616 0.7610
2771.000000 0.7604 0.7599 0.7593 0.7586 0.7579
2776.000000 0.7572 0.7565 0.7558 0.7552 0.7545
2781.000000 0.7538 0.7531 0.7524 0.7517 0.7510
2786.000000 0.7503 0.7496 0.7489 0.7482 0.7476
2791.000000 0.7469 0.7462 0.7455 0.7448 0.7441
2796.000000 0.7434 0.7427 0.7420 0.7412 0.7402
2801.000000 0.7391 0.7380 0.7370 0.7359 0.7349
2806.000000 0.7338 0.7327 0.7317 0.7306 0.7295
2811.000000 0.7283 0.7265 0.7247 0.7229 0.7211
2816.000000 0.7193 0.7175 0.7157 0.7138 0.7121
2821.000000 0.7106 0.7090 0.7075 0.7060 0.7045
2826.000000 0.7030 0.7014 0.6999 0.6984 0.6968
2831.000000 0.6950 0.6924 0.6898 0.6872 0.6846
2836.000000 0.6819 0.6793 0.6767 0.6728 0.6685
2841.000000 0.6641 0.6598 0.6555 0.6511 0.6468
2846.000000 0.6387 0.6297 0.6208 0.6121 0.6040
2851.000000 0.5960 0.5879 0.5798 0.5719 0.5639
2856.000000 0.5560 0.5480 0.5400 0.5323 0.5248
2861.000000 0.5172 0.5096 0.5015 0.4933 0.4886
2866.000000 0.4857 0.4848 0.4848 0.4806 0.4852
2871.000000 0.4859 0.4872 0.4895 0.4960 0.5065
2876.000000 0.5137 0.5204 0.5272 0.5363 0.5487
2881.000000 0.5611 0.5864 0.6115 0.6343 0.6442
2886.000000 0.6541 0.6640 0.6727 0.6801 0.6875
2891.000000 0.7021 0.6985 0.6981 0.6978 0.6974
2896.000000 0.6967 0.6961 0.6955 0.6948 0.6933
2901.000000 0.6918 0.6900 0.6876 0.6851 0.6827
2906.000000 0.6802 0.6761 0.6719 0.6677 0.6634
2911.000000 0.6592 0.6549 0.6507 0.6464 0.6422
2916.000000 0.6383 0.6345 0.6306 0.6268 0.6229
2921.000000 0.6195 0.6163 0.6131 0.6099 0.6065
2926.000000 0.6031 0.5997 0.5963 0.5921 0.5874
2931.000000 0.5828 0.5779 0.5729 0.5679 0.5618
2936.000000 0.5555 0.5493 0.5408 0.5323 0.5243
2941.000000 0.5173 0.5102 0.5041 0.4995 0.4950
2946.000000 0.4905 0.4860 0.4818 0.4776 0.4753
2951.000000 0.4733 0.4715 0.4710 0.4706 0.4705
2956.000000 0.4706 0.4711 0.4815 0.4952 0.5089
2961.000000 0.5226 0.5362 0.5499 0.5576 0.5573
2966.000000 0.5566 0.5557 0.5547 0.5532 0.5517
2971.000000 0.5502 0.5495 0.5627 0.5874 0.6120
2976.000000 0.6367 0.6774 0.6906 0.7017 0.7099
2981.000000 0.7182 0.7271 0.7369 0.7467 0.7528
2986.000000 0.7574 0.7621 0.7656 0.7681 0.7706
2991.000000 0.7732 0.7747 0.7760 0.7773 0.7786
2996.000000 0.7794 0.7802 0.7810 0.7814 0.7816
3001.000000 0.7819 0.7863 0.7822 0.7823 0.7824
3006.000000 0.7825 0.7824 0.7823 0.7821 0.7819
3011.000000 0.7817 0.7816 0.7814 0.7812 0.7811
3016.000000 0.7811 0.7810 0.7810 0.7810 0.7810
3021.000000 0.7809 0.7809 0.7809 0.7809 0.7808
3026.000000 0.7807 0.7806 0.7805 0.7804 0.7803
3031.000000 0.7802 0.7801 0.7800 0.7799 0.7797
3036.000000 0.7795 0.7793 0.7791 0.7789 0.7787
3041.000000 0.7785 0.7782 0.7780 0.7778 0.7775
3046.000000 0.7772 0.7768 0.7764 0.7760 0.7757
3051.000000 0.7753 0.7749 0.7746 0.7742 0.7738
3056.000000 0.7734 0.7731 0.7727 0.7722 0.7716
3061.000000 0.7711 0.7706 0.7700 0.7695 0.7689
3066.000000 0.7684 0.7678 0.7674 0.7669 0.7665
3071.000000 0.7660 0.7656 0.7651 0.7647 0.7642
3076.000000 0.7638 0.7633 0.7629 0.7625 0.7622
3081.000000 0.7620 0.7617 0.7614 0.7612 0.7609
3086.000000 0.7607 0.7604 0.7601 0.7599 0.7596
3091.000000 0.7593 0.7591 0.7588 0.7586 0.7583
3096.000000 0.7580 0.7578 0.7575 0.7572 0.7570
3101.000000 0.7567 0.7565 0.7564 0.7563 0.7562
3106.000000 0.7561 0.7561 0.7560 0.7559 0.7558
3111.000000 0.7557 0.7556 0.7556 0.7555 0.7554
3116.000000 0.7553 0.7552 0.7551 0.7551 0.7550
3121.000000 0.7549 0.7547 0.7545 0.7542 0.7540
3126.000000 0.7537 0.7535 0.7532 0.7530 0.7527
3131.000000 0.7525 0.7522 0.7520 0.7517 0.7514
3136.000000 0.7512 0.7509 0.7507 0.7504 0.7502
3141.000000 0.7499 0.7497 0.7494 0.7492 0.7489
3146.000000 0.7487 0.7484 0.7482 0.7479 0.7477
3151.000000 0.7474 0.7471 0.7469 0.7465 0.7461
3156.000000 0.7457 0.7453 0.7449 0.7446 0.7442
3161.000000 0.7438 0.7434 0.7430 0.7426 0.7423
3166.000000 0.7419 0.7414 0.7410 0.7405 0.7400
3171.000000 0.7396 0.7391 0.7387 0.7382 0.7377
3176.000000 0.7373 0.7368 0.7364 0.7359 0.7354
3181.000000 0.7350 0.7345 0.7341 0.7336 0.7331
3186.000000 0.7324 0.7318 0.7311 0.7304 0.7298
3191.000000 0.7291 0.7285 0.7278 0.7272 0.7265
3196.000000 0.7259 0.7252 0.7246 0.7239 0.7233
3201.000000 0.7228 0.7223 0.7218 0.7213 0.7208
3206.000000 0.7204 0.7199 0.7194 0.7189 0.7184
3211.000000 0.7179 0.7175 0.7170 0.7165 0.7160
3216.000000 0.7155 0.7151 0.7146 0.7141 0.7136
3221.000000 0.7131 0.7126 0.7122 0.7117 0.7111
3226.000000 0.7106 0.7100 0.7095 0.7090 0.7084
3231.000000 0.7079 0.7073 0.7068 0.7062 0.7057
3236.000000 0.7052 0.7046 0.7041 0.7035 0.7030
3241.000000 0.7025 0.7019 0.7014 0.7008 0.7003
3246.000000 0.6998 0.6992 0.6987 0.6981 0.6977
3251.000000 0.6973 0.6969 0.6964 0.6960 0.6956
3256.000000 0.6952 0.6948 0.6944 0.6940 0.6936
3261.000000 0.6932 0.6927 0.6923 0.6919 0.6915
3266.000000 0.6911 0.6907 0.6903 0.6899 0.6895
3271.000000 0.6890 0.6886 0.6882 0.6878 0.6873
3276.000000 0.6869 0.6864 0.6860 0.6855 0.6851
3281.000000 0.6846 0.6842 0.6837 0.6833 0.6829
3286.000000 0.6824 0.6820 0.6815 0.6811 0.6806
3291.000000 0.6802 0.6797 0.6793 0.6788 0.6784
3296.000000 0.6779 0.6775 0.6772 0.6769 0.6765
3301.000000 0.6762 0.6758 0.6755 0.6752 0.6748
3306.000000 0.6745 0.6741 0.6738 0.6734 0.6730
3311.000000 0.6726 0.6722 0.6718 0.6714 0.6710
3316.000000 0.6706 0.6702 0.6697 0.6691 0.6685
3321.000000 0.6679 0.6673 0.6667 0.6661 0.6655
3326.000000 0.6649 0.6643 0.6637 0.6631 0.6624
3331.000000 0.6614 0.6605 0.6595 0.6585 0.6575
3336.000000 0.6566 0.6556 0.6546 0.6536 0.6527
3341.000000 0.6516 0.6505 0.6494 0.6483 0.6471
3346.000000 0.6460 0.6449 0.6438 0.6427 0.6415
3351.000000 0.6404 0.6393 0.6382 0.6372 0.6362
3356.000000 0.6352 0.6342 0.6332 0.6322 0.6312
3361.000000 0.6302 0.6291 0.6281 0.6271 0.6261
3366.000000 0.6252 0.6247 0.6241 0.6236 0.6230
3371.000000 0.6224 0.6219 0.6213 0.6203 0.6192
3376.000000 0.6181 0.6170 0.6159 0.6148 0.6130
3381.000000 0.6108 0.6086 0.6063 0.6050 0.6039
3386.000000 0.6028 0.6017 0.6006 0.5995 0.5986
3391.000000 0.5980 0.5974 0.5968 0.5961 0.5956
3396.000000 0.5953 0.5950 0.5947 0.5944 0.5941
3401.000000 0.5938 0.5935 0.5932 0.5929 0.5927
3406.000000 0.5925 0.5924 0.5922 0.5920 0.5919
3411.000000 0.5917 0.5916 0.5914 0.5913 0.5911
3416.000000 0.5909 0.5907 0.5904 0.5902 0.5900
3421.000000 0.5897 0.5895 0.5892 0.5892 0.5892
3426.000000 0.5892 0.5892 0.5892 0.5893 0.5893
3431.000000 0.5893 0.5893 0.5894 0.5894 0.5895
3436.000000 0.5896 0.5897 0.5897 0.5898 0.5899
3441.000000 0.5900 0.5900 0.5901 0.5902 0.5903
3446.000000 0.5904 0.5906 0.5908 0.5909 0.5911
3451.000000 0.5913 0.5914 0.5916 0.5918 0.5920
3456.000000 0.5921 0.5923 0.5925 0.5927 0.5928
3461.000000 0.5930 0.5932 0.5934 0.5935 0.5937
3466.000000 0.5939 0.5941 0.5943 0.5946 0.5949
3471.000000 0.5952 0.5955 0.5957 0.5960 0.5963
3476.000000 0.5966 0.5969 0.5971 0.5974 0.5977
3481.000000 0.5980 0.5983 0.5985 0.5988 0.5991
3486.000000 0.5994 0.5997 0.5999 0.6003 0.6008
3491.000000 0.6013 0.6018 0.6023 0.6028 0.6032
3496.000000 0.6037 0.6042 0.6047 0.6052 0.6057
3501.000000 0.6062 0.6066 0.6071 0.6076 0.6081
3506.000000 0.6087 0.6095 0.6103 0.6111 0.6119
3511.000000 0.6127 0.6134 0.6142 0.6151 0.6160
3516.000000 0.6169 0.6179 0.6188 0.6197 0.6206
3521.000000 0.6215 0.6222 0.6229 0.6235 0.6234
3526.000000 0.6233 0.6232 0.6231 0.6230 0.6228
3531.000000 0.6227 0.6226 0.6227 0.6230 0.6233
3536.000000 0.6236 0.6239 0.6242 0.6245 0.6248
3541.000000 0.6255 0.6263 0.6271 0.6280 0.6288
3546.000000 0.6297 0.6305 0.6313 0.6323 0.6334
3551.000000 0.6345 0.6356 0.6367 0.6378 0.6389
3556.000000 0.6397 0.6404 0.6412 0.6420 0.6427
3561.000000 0.6435 0.6443 0.6450 0.6458 0.6465
3566.000000 0.6471 0.6475 0.6479 0.6484 0.6488
3571.000000 0.6492 0.6496 0.6501 0.6505 0.6509
3576.000000 0.6514 0.6518 0.6522 0.6527 0.6532
3581.000000 0.6537 0.6542 0.6547 0.6552 0.6557
3586.000000 0.6563 0.6568 0.6573 0.6578 0.6583
3591.000000 0.6588 0.6594 0.6600 0.6605 0.6611
3596.000000 0.6616 0.6622 0.6627 0.6633 0.6638
3601.000000 0.6642 0.6645 0.6649 0.6653 0.6656
3606.000000 0.6660 0.6664 0.6667 0.6671 0.6675
3611.000000 0.6678 0.6682 0.6686 0.6689 0.6693
3616.000000 0.6697 0.6700 0.6704 0.6706 0.6707
3621.000000 0.6708 0.6710 0.6711 0.6712 0.6714
3626.000000 0.6715 0.6716 0.6718 0.6719 0.6720
3631.000000 0.6722 0.6723 0.6724 0.6726 0.6727
3636.000000 0.6728 0.6730 0.6731 0.6733 0.6734
3641.000000 0.6735 0.6735 0.6734 0.6734 0.6734
3646.000000 0.6734 0.6734 0.6733 0.6733 0.6733
3651.000000 0.6733 0.6733 0.6733 0.6732 0.6732
3656.000000 0.6732 0.6732 0.6732 0.6731 0.6731
3661.000000 0.6731 0.6731 0.6731 0.6731 0.6730
3666.000000 0.6730 0.6730 0.6730 0.6730 0.6730
3671.000000 0.6730 0.6730 0.6730 0.6730 0.6730
3676.000000 0.6729 0.6729 0.6729 0.6729 0.6731
3681.000000 0.6732 0.6733 0.6735 0.6736 0.6737
3686.000000 0.6739 0.6740 0.6741 0.6742 0.6744
3691.000000 0.6745 0.6746 0.6747 0.6748 0.6749
3696.000000 0.6749 0.6750 0.6751 0.6750 0.6748
3701.000000 0.6745 0.6743 0.6740 0.6738 0.6735
3706.000000 0.6733 0.6731 0.6728 0.6726 0.6723
3711.000000 0.6721 0.6718 0.6716 0.6713 0.6711
3716.000000 0.6710 0.6709 0.6708 0.6707 0.6706
3721.000000 0.6705 0.6704 0.6703 0.6702 0.6701
3726.000000 0.6700 0.6699 0.6698 0.6697 0.6696
3731.000000 0.6695 0.6694 0.6693 0.6692 0.6691
3736.000000 0.6690 0.6689 0.6689 0.6688 0.6687
3741.000000 0.6686 0.6685 0.6685 0.6684 0.6683
3746.000000 0.6682 0.6681 0.6681 0.6680 0.6679
3751.000000 0.6678 0.6677 0.6676 0.6676 0.6675
3756.000000 0.6674 0.6673 0.6673 0.6675 0.6677
3761.000000 0.6679 0.6681 0.6684 0.6686 0.6688
3766.000000 0.6690 0.6692 0.6694 0.6696 0.6698
3771.000000 0.6700 0.6703 0.6705 0.6705 0.6705
3776.000000 0.6705 0.6704 0.6704 0.6704 0.6703
3781.000000 0.6703 0.6695 0.6687 0.6678 0.6670
3786.000000 0.6661 0.6648 0.6636 0.6623 0.6611
3791.000000 0.6598 0.6591 0.6584 0.6578 0.6571
3796.000000 0.6564 0.6557 0.6550 0.6545 0.6542
3801.000000 0.6539 0.6537 0.6534 0.6531 0.6529
3806.000000 0.6526 0.6523 0.6521 0.6518 0.6515
3811.000000 0.6513 0.6512 0.6511 0.6510 0.6510
3816.000000 0.6509 0.6508 0.6507 0.6506 0.6506
3821.000000 0.6505 0.6504 0.6503 0.6502 0.6502
3826.000000 0.6501 0.6500 0.6499 0.6499 0.6498
3831.000000 0.6497 0.6496 0.6495 0.6495 0.6494
3836.000000 0.6493 0.6492 0.6491 0.6491 0.6490
3841.000000 0.6489 0.6488 0.6488 0.6487 0.6486
3846.000000 0.6485 0.6484 0.6484 0.6483 0.6482
3851.000000 0.6481 0.6481 0.6480 0.6479 0.6478
3856.000000 0.6477 0.6477 0.6476 0.6475 0.6474
3861.000000 0.6474 0.6474 0.6474 0.6474 0.6473
3866.000000 0.6473 0.6473 0.6473 0.6473 0.6472
3871.000000 0.6472 0.6472 0.6472 0.6472 0.6472
3876.000000 0.6471 0.6471 0.6471 0.6471 0.6471
3881.000000 0.6470 0.6470 0.6470 0.6470 0.6470
3886.000000 0.6469 0.6469 0.6469 0.6469 0.6469
3891.000000 0.6468 0.6468 0.6468 0.6468 0.6468
3896.000000 0.6468 0.6468 0.6468 0.6468 0.6468
3901.000000 0.6468 0.6467 0.6467 0.6467 0.6467
3906.000000 0.6467 0.6467 0.6467 0.6467 0.6467
3911.000000 0.6467 0.6467 0.6467 0.6467 0.6467
3916.000000 0.6467 0.6467 0.6467 0.6466 0.6466
3921.000000 0.6466 0.6466 0.6466 0.6466 0.6466
3926.000000 0.6466 0.6466 0.6466 0.6466 0.6466
3931.000000 0.6466 0.6466 0.6467 0.6467 0.6467
3936.000000 0.6467 0.6467 0.6467 0.6467 0.6468
3941.000000 0.6468 0.6468 0.6468 0.6468 0.6468
3946.000000 0.6469 0.6469 0.6469 0.6469 0.6469
3951.000000 0.6469 0.6469 0.6470 0.6470 0.6470
3956.000000 0.6470 0.6470 0.6470 0.6470 0.6471
3961.000000 0.6471 0.6471 0.6471 0.6470 0.6470
3966.000000 0.6470 0.6470 0.6460 0.6469 0.6469
3971.000000 0.6469 0.6468 0.6468 0.6468 0.6468
3976.000000 0.6467 0.6467 0.6467 0.6467 0.6466
3981.000000 0.6466 0.6466 0.6466 0.6465 0.6465
3986.000000 0.6465 0.6465 0.6464 0.6464 0.6464
3991.000000 0.6464 0.6463 0.6463 0.6463 0.6463
3996.000000 0.6462 0.6462 0.6462 0.6462 0.6461
##END=
