##TITLE=t-BUTYLAMINE, COMPOUND WITH BORON TRIHYDRIDE
##JCAMP-DX=4.24
##DATA TYPE=INFRARED SPECTRUM
##CLASS=COBLENTZ III
##ORIGIN=DOW CHEMICAL COMPANY
##OWNER=COBLENTZ SOC.
Collection (C) 2018 copyright by the U.S. Secretary of Commerce
on behalf of the United States of America. All rights reserved.
##DATE=1965/03/18
##NAMES=tert-butylamine compound with borane (1:1)
##MOLFORM=C4 H14 B N
##SOURCE REFERENCE=COBLENTZ NO. 07185
##$NIST ID=B6007185
##$NIST SOURCE=COBLENTZ
##$NIST IMAGE=cob7185
##SPECTROMETER/DATA SYSTEM=DOW KBr FOREPRISM-GRATING
##INSTRUMENT PARAMETERS=BLAZED AT 3.5, 12.0, 20.0 MICRON AND CHANGED AT 5.0, 7.5, 14.9 MICRON
##STATE=SOLID (SPLIT MULL), FLUOROLUBE FOR 3800-1330 CM^-^1, NUJOL FOR 1330-450 CM^-^1
##SAMPLING PROCEDURE=TRANSMISSION
##RESOLUTION=2
##DATA PROCESSING=DIGITIZED BY COBLENTZ SOCIETY (BATCH I) FROM HARD COPY
##XUNITS=1/CM
##YUNITS=TRANSMITTANCE
##XLABEL=Wavenumbers (cm-1)
##YLABEL=% Transmission
##XFACTOR=1
##YFACTOR=1
##DELTAX=1
##FIRSTX=459
##LASTX=3800
##FIRSTY=0.7089
##MAXX=3800
##MINX=459
##MAXY=0.8901
##MINY=0.0123
##NPOINTS=3342
##XYDATA=(X++(Y..Y))
459.000000 0.7089 0.7106 0.7118 0.7133 0.7151
464.000000 0.7168 0.7186 0.7206 0.7226 0.7248
469.000000 0.7275 0.7305 0.7341 0.7378 0.7411
474.000000 0.7442 0.7472 0.7506 0.7542 0.7576
479.000000 0.7611 0.7646 0.7678 0.7711 0.7745
484.000000 0.7774 0.7793 0.7811 0.7830 0.7848
489.000000 0.7865 0.7881 0.7897 0.7912 0.7926
494.000000 0.7936 0.7946 0.7955 0.7964 0.7971
499.000000 0.7975 0.7978 0.7983 0.7987 0.7991
504.000000 0.7994 0.7995 0.7996 0.7997 0.8000
509.000000 0.8021 0.8049 0.8088 0.8122 0.8156
514.000000 0.8189 0.8203 0.8217 0.8230 0.8244
519.000000 0.8254 0.8262 0.8271 0.8280 0.8289
524.000000 0.8298 0.8307 0.8317 0.8325 0.8336
529.000000 0.8346 0.8356 0.8365 0.8375 0.8385
534.000000 0.8390 0.8394 0.8398 0.8403 0.8407
539.000000 0.8412 0.8412 0.8413 0.8409 0.8405
544.000000 0.8401 0.8397 0.8393 0.8389 0.8383
549.000000 0.8371 0.8359 0.8347 0.8335 0.8328
554.000000 0.8328 0.8334 0.8357 0.8384 0.8418
559.000000 0.8451 0.8497 0.8533 0.8555 0.8577
564.000000 0.8598 0.8613 0.8627 0.8640 0.8654
569.000000 0.8665 0.8674 0.8683 0.8692 0.8701
574.000000 0.8710 0.8718 0.8728 0.8737 0.8747
579.000000 0.8756 0.8765 0.8774 0.8783 0.8789
584.000000 0.8796 0.8802 0.8808 0.8815 0.8821
589.000000 0.8825 0.8830 0.8834 0.8837 0.8841
594.000000 0.8845 0.8848 0.8851 0.8852 0.8852
599.000000 0.8852 0.8852 0.8852 0.8853 0.8853
604.000000 0.8853 0.8845 0.8828 0.8821 0.8816
609.000000 0.8810 0.8810 0.8809 0.8816 0.8844
614.000000 0.8885 0.8890 0.8892 0.8895 0.8897
619.000000 0.8899 0.8901 0.8901 0.8899 0.8892
624.000000 0.8886 0.8880 0.8874 0.8868 0.8863
629.000000 0.8858 0.8854 0.8849 0.8841 0.8815
634.000000 0.8795 0.8781 0.8768 0.8766 0.8775
639.000000 0.8786 0.8795 0.8805 0.8815 0.8823
644.000000 0.8828 0.8828 0.8825 0.8824 0.8821
649.000000 0.8814 0.8808 0.8801 0.8794 0.8787
654.000000 0.8778 0.8770 0.8762 0.8754 0.8746
659.000000 0.8737 0.8728 0.8721 0.8712 0.8703
664.000000 0.8695 0.8686 0.8677 0.8668 0.8657
669.000000 0.8659 0.8664 0.8670 0.8699 0.8737
674.000000 0.8768 0.8781 0.8778 0.8774 0.8771
679.000000 0.8765 0.8742 0.8717 0.8685 0.8642
684.000000 0.8597 0.8544 0.8471 0.8377 0.8176
689.000000 0.7965 0.7628 0.7541 0.7546 0.7574
694.000000 0.7719 0.7828 0.7921 0.8008 0.8068
699.000000 0.8106 0.8130 0.8141 0.8141 0.8141
704.000000 0.8140 0.8140 0.8160 0.8125 0.8119
709.000000 0.8112 0.8106 0.8100 0.8093 0.8046
714.000000 0.8001 0.7944 0.7891 0.7843 0.7761
719.000000 0.7539 0.7391 0.7307 0.7289 0.7254
724.000000 0.7358 0.7411 0.7461 0.7511 0.7561
729.000000 0.7610 0.7650 0.7690 0.7731 0.7774
734.000000 0.7817 0.7858 0.7897 0.7937 0.7961
739.000000 0.7983 0.8003 0.8001 0.8001 0.8000
744.000000 0.7993 0.7983 0.7972 0.7961 0.7961
749.000000 0.8028 0.8104 0.8176 0.8239 0.8280
754.000000 0.8300 0.8314 0.8320 0.8327 0.8330
759.000000 0.8330 0.8331 0.8331 0.8331 0.8331
764.000000 0.8332 0.8335 0.8338 0.8342 0.8345
769.000000 0.8353 0.8363 0.8374 0.8384 0.8393
774.000000 0.8401 0.8425 0.8416 0.8417 0.8416
779.000000 0.8416 0.8411 0.8402 0.8393 0.8384
784.000000 0.8371 0.8354 0.8337 0.8312 0.8282
789.000000 0.8224 0.8153 0.8083 0.8008 0.7947
794.000000 0.7821 0.7628 0.7500 0.7550 0.7548
799.000000 0.7698 0.7986 0.8149 0.8252 0.8317
804.000000 0.8363 0.8402 0.8441 0.8477 0.8501
809.000000 0.8521 0.8528 0.8535 0.8535 0.8534
814.000000 0.8525 0.8515 0.8505 0.8485 0.8455
819.000000 0.8406 0.8364 0.8332 0.8300 0.8268
824.000000 0.8235 0.8230 0.8225 0.8234 0.8245
829.000000 0.8247 0.8247 0.8211 0.8165 0.8118
834.000000 0.8035 0.7933 0.7937 0.7961 0.8015
839.000000 0.8056 0.8083 0.8111 0.8131 0.8151
844.000000 0.8155 0.8154 0.8143 0.8128 0.8111
849.000000 0.8092 0.8072 0.8054 0.8035 0.8015
854.000000 0.7994 0.7972 0.7951 0.7928 0.7906
859.000000 0.7871 0.7831 0.7788 0.7728 0.7668
864.000000 0.7601 0.7534 0.7437 0.7333 0.7228
869.000000 0.7149 0.7072 0.6997 0.6864 0.6731
874.000000 0.6611 0.6468 0.6251 0.6041 0.5820
879.000000 0.5586 0.5292 0.4910 0.4658 0.4399
884.000000 0.4139 0.3880 0.3620 0.3330 0.3305
889.000000 0.3506 0.4400 0.5294 0.5788 0.5965
894.000000 0.6982 0.7165 0.7275 0.7378 0.7482
899.000000 0.7590 0.7680 0.7750 0.7819 0.7864
904.000000 0.7901 0.7938 0.7951 0.7964 0.7976
909.000000 0.7983 0.7987 0.7989 0.8001 0.7980
914.000000 0.7975 0.7971 0.7962 0.7956 0.7944
919.000000 0.7919 0.7862 0.7796 0.7718 0.7632
924.000000 0.7541 0.7421 0.7157 0.6875 0.6594
929.000000 0.6521 0.6528 0.6912 0.7335 0.7428
934.000000 0.7437 0.7447 0.7472 0.7533 0.7599
939.000000 0.7656 0.7694 0.7718 0.7718 0.7715
944.000000 0.7708 0.7694 0.7669 0.7624 0.7565
949.000000 0.7490 0.7428 0.7369 0.7317 0.7258
954.000000 0.7096 0.6935 0.6774 0.6611 0.6451
959.000000 0.6290 0.6128 0.6098 0.6088 0.6084
964.000000 0.6081 0.6072 0.6054 0.6026 0.5970
969.000000 0.5912 0.5852 0.5717 0.5570 0.5455
974.000000 0.5370 0.5266 0.5019 0.4717 0.4459
979.000000 0.4482 0.4523 0.5132 0.5741 0.6202
984.000000 0.6329 0.6434 0.6548 0.6658 0.6761
989.000000 0.6825 0.6872 0.6919 0.6967 0.7007
994.000000 0.7043 0.7075 0.7095 0.7108 0.7114
999.000000 0.7117 0.7115 0.7111 0.7101 0.7089
1004.000000 0.7071 0.7053 0.7036 0.7018 0.6955
1009.000000 0.6899 0.6842 0.6804 0.6768 0.6754
1014.000000 0.6749 0.6743 0.6737 0.6728 0.6721
1019.000000 0.6703 0.6675 0.6646 0.6617 0.6588
1024.000000 0.6558 0.6508 0.6471 0.6448 0.6431
1029.000000 0.6433 0.6435 0.6437 0.6440 0.6444
1034.000000 0.6447 0.6441 0.6434 0.6383 0.6259
1039.000000 0.6173 0.6029 0.5790 0.5551 0.5312
1044.000000 0.5074 0.4835 0.4593 0.4485 0.4474
1049.000000 0.4467 0.4465 0.4238 0.3899 0.3898
1054.000000 0.3897 0.4476 0.5054 0.5632 0.6075
1059.000000 0.6203 0.6297 0.6360 0.6398 0.6432
1064.000000 0.6451 0.6469 0.6489 0.6501 0.6512
1069.000000 0.6525 0.6531 0.6534 0.6537 0.6539
1074.000000 0.6540 0.6542 0.6544 0.6547 0.6554
1079.000000 0.6560 0.6565 0.6574 0.6585 0.6597
1084.000000 0.6608 0.6619 0.6633 0.6646 0.6658
1089.000000 0.6671 0.6686 0.6701 0.6717 0.6733
1094.000000 0.6748 0.6764 0.6778 0.6793 0.6807
1099.000000 0.6821 0.6836 0.6851 0.6865 0.6878
1104.000000 0.6891 0.6900 0.6908 0.6918 0.6926
1109.000000 0.6937 0.6941 0.6945 0.6953 0.6953
1114.000000 0.6953 0.6953 0.6949 0.6936 0.6908
1119.000000 0.6867 0.6811 0.6764 0.6712 0.6686
1124.000000 0.6686 0.6697 0.6708 0.6721 0.6731
1129.000000 0.6726 0.6711 0.6687 0.6650 0.6607
1134.000000 0.6558 0.6490 0.6408 0.6322 0.6234
1139.000000 0.6143 0.5990 0.5768 0.5560 0.5393
1144.000000 0.5266 0.5125 0.4660 0.4350 0.4106
1149.000000 0.3786 0.3466 0.3146 0.2826 0.2506
1154.000000 0.2187 0.1867 0.1546 0.1227 0.0907
1159.000000 0.0587 0.0455 0.0437 0.0504 0.0525
1164.000000 0.0529 0.0544 0.0511 0.0467 0.0402
1169.000000 0.0316 0.0248 0.0247 0.0214 0.0339
1174.000000 0.0421 0.0560 0.0734 0.0837 0.0911
1179.000000 0.0863 0.0858 0.0821 0.0755 0.0689
1184.000000 0.0628 0.0565 0.0486 0.0467 0.0439
1189.000000 0.0475 0.0605 0.0819 0.1032 0.1196
1194.000000 0.1246 0.1318 0.1237 0.1223 0.1152
1199.000000 0.1030 0.0939 0.0924 0.0876 0.1042
1204.000000 0.1280 0.1518 0.1756 0.1994 0.2232
1209.000000 0.2470 0.2709 0.2947 0.3162 0.3257
1214.000000 0.3273 0.3272 0.3258 0.3230 0.3041
1219.000000 0.2845 0.2649 0.2452 0.2256 0.2060
1224.000000 0.1863 0.1667 0.1471 0.1313 0.1300
1229.000000 0.1300 0.1410 0.1914 0.2417 0.2920
1234.000000 0.3254 0.3389 0.4322 0.4605 0.5565
1239.000000 0.5906 0.6060 0.6162 0.6256 0.6312
1244.000000 0.6355 0.6369 0.6382 0.6396 0.6404
1249.000000 0.6382 0.6407 0.6408 0.6399 0.6385
1254.000000 0.6309 0.6224 0.6140 0.5997 0.5842
1259.000000 0.5721 0.5617 0.5546 0.5480 0.5414
1264.000000 0.5354 0.5303 0.5252 0.5222 0.5193
1269.000000 0.5189 0.5186 0.5182 0.5172 0.5175
1274.000000 0.5176 0.5184 0.5192 0.5201 0.5209
1279.000000 0.5217 0.5221 0.5220 0.5220 0.5221
1284.000000 0.5228 0.5235 0.5242 0.5250 0.5292
1289.000000 0.5367 0.5451 0.5515 0.5576 0.5579
1294.000000 0.5592 0.5570 0.5562 0.5494 0.5405
1299.000000 0.5218 0.5038 0.4727 0.4712 0.4697
1304.000000 0.4698 0.4699 0.4704 0.4727 0.4754
1309.000000 0.4782 0.4810 0.4840 0.4870 0.4960
1314.000000 0.4925 0.4949 0.4899 0.4841 0.4775
1319.000000 0.4710 0.4637 0.4536 0.4424 0.4300
1324.000000 0.4154 0.3984 0.3847 0.3700 0.3454
1329.000000 0.3249 0.3074 0.2883 0.2452 0.1762
1334.000000 0.1491 0.1003 0.0775 0.0653 0.0630
1339.000000 0.0642 0.0634 0.0664 0.0730 0.0895
1344.000000 0.1115 0.1521 0.1934 0.2218 0.2461
1349.000000 0.2668 0.2837 0.2977 0.3110 0.3308
1354.000000 0.3468 0.3664 0.3886 0.4068 0.4258
1359.000000 0.4456 0.5045 0.5232 0.5290 0.5341
1364.000000 0.5364 0.5369 0.5360 0.5346 0.5317
1369.000000 0.5260 0.4522 0.3666 0.2810 0.1954
1374.000000 0.1098 0.0243 0.0240 0.0465 0.1584
1379.000000 0.2704 0.3823 0.4705 0.4889 0.5037
1384.000000 0.5170 0.5262 0.5345 0.5407 0.5455
1389.000000 0.5503 0.5556 0.5608 0.5662 0.5728
1394.000000 0.5791 0.5837 0.5865 0.5865 0.5865
1399.000000 0.5854 0.5699 0.5358 0.5016 0.4674
1404.000000 0.4333 0.3991 0.3750 0.3759 0.3777
1409.000000 0.4812 0.5880 0.6044 0.6371 0.6626
1414.000000 0.6756 0.6855 0.6921 0.6988 0.7046
1419.000000 0.7086 0.7125 0.7162 0.7189 0.7215
1424.000000 0.7241 0.7265 0.7278 0.7292 0.7305
1429.000000 0.7317 0.7324 0.7331 0.7335 0.7337
1434.000000 0.7340 0.7360 0.7344 0.7344 0.7333
1439.000000 0.7314 0.7294 0.7275 0.7258 0.7247
1444.000000 0.7256 0.7283 0.7289 0.7293 0.7293
1449.000000 0.7287 0.7278 0.7258 0.7234 0.7203
1454.000000 0.7174 0.7148 0.7121 0.7099 0.7076
1459.000000 0.7060 0.7045 0.7021 0.6982 0.6918
1464.000000 0.6821 0.6697 0.6515 0.6336 0.6210
1469.000000 0.6084 0.5797 0.5365 0.4941 0.4827
1474.000000 0.4803 0.4806 0.4800 0.4858 0.4986
1479.000000 0.5267 0.5549 0.5830 0.6112 0.6653
1484.000000 0.6824 0.6911 0.7037 0.7249 0.7396
1489.000000 0.7512 0.7578 0.7625 0.7671 0.7718
1494.000000 0.7756 0.7783 0.7810 0.7837 0.7864
1499.000000 0.7891 0.7911 0.7931 0.7950 0.7968
1504.000000 0.7989 0.8005 0.8017 0.8028 0.8041
1509.000000 0.8053 0.8062 0.8071 0.8078 0.8085
1514.000000 0.8092 0.8100 0.8104 0.8108 0.8111
1519.000000 0.8146 0.8119 0.8119 0.8118 0.8118
1524.000000 0.8115 0.8110 0.8104 0.8105 0.8106
1529.000000 0.8107 0.8108 0.8110 0.8115 0.8104
1534.000000 0.8093 0.8083 0.8071 0.8053 0.8035
1539.000000 0.8011 0.7984 0.7957 0.7924 0.7882
1544.000000 0.7858 0.7862 0.7868 0.7876 0.7889
1549.000000 0.7901 0.7932 0.7968 0.7990 0.8008
1554.000000 0.8010 0.7998 0.7986 0.7975 0.7957
1559.000000 0.7936 0.7894 0.7830 0.7746 0.7650
1564.000000 0.7568 0.7487 0.7456 0.7447 0.7449
1569.000000 0.7455 0.7460 0.7461 0.7461 0.7431
1574.000000 0.7381 0.7311 0.7234 0.7134 0.7028
1579.000000 0.6918 0.6807 0.6668 0.6503 0.6048
1584.000000 0.4185 0.3441 0.2697 0.1953 0.1209
1589.000000 0.0465 0.0214 0.0218 0.0538 0.1469
1594.000000 0.2400 0.3330 0.4260 0.5192 0.6123
1599.000000 0.7115 0.7333 0.7511 0.7624 0.8150
1604.000000 0.8186 0.8215 0.8243 0.8271 0.8298
1609.000000 0.8323 0.8346 0.8365 0.8384 0.8403
1614.000000 0.8418 0.8427 0.8434 0.8441 0.8448
1619.000000 0.8418 0.8455 0.8458 0.8462 0.8465
1624.000000 0.8464 0.8464 0.8462 0.8459 0.8457
1629.000000 0.8454 0.8452 0.8451 0.8451 0.8451
1634.000000 0.8452 0.8455 0.8471 0.8489 0.8503
1639.000000 0.8515 0.8527 0.8527 0.8527 0.8531
1644.000000 0.8531 0.8528 0.8525 0.8521 0.8513
1649.000000 0.8493 0.8471 0.8447 0.8417 0.8382
1654.000000 0.8402 0.8416 0.8427 0.8437 0.8448
1659.000000 0.8460 0.8475 0.8489 0.8503 0.8516
1664.000000 0.8530 0.8543 0.8558 0.8578 0.8599
1669.000000 0.8621 0.8667 0.8705 0.8732 0.8737
1674.000000 0.8741 0.8746 0.8751 0.8755 0.8759
1679.000000 0.8763 0.8767 0.8771 0.8775 0.8775
1684.000000 0.8778 0.8778 0.8778 0.8778 0.8778
1689.000000 0.8780 0.8782 0.8790 0.8808 0.8825
1694.000000 0.8835 0.8843 0.8842 0.8841 0.8840
1699.000000 0.8838 0.8837 0.8836 0.8835 0.8834
1704.000000 0.8832 0.8831 0.8830 0.8828 0.8828
1709.000000 0.8825 0.8825 0.8823 0.8821 0.8818
1714.000000 0.8816 0.8814 0.8811 0.8809 0.8806
1719.000000 0.8804 0.8800 0.8796 0.8793 0.8789
1724.000000 0.8785 0.8781 0.8778 0.8775 0.8775
1729.000000 0.8773 0.8771 0.8770 0.8768 0.8768
1734.000000 0.8766 0.8765 0.8764 0.8762 0.8761
1739.000000 0.8760 0.8759 0.8758 0.8757 0.8756
1744.000000 0.8755 0.8754 0.8753 0.8752 0.8751
1749.000000 0.8750 0.8749 0.8748 0.8747 0.8745
1754.000000 0.8744 0.8743 0.8742 0.8741 0.8740
1759.000000 0.8738 0.8738 0.8738 0.8738 0.8739
1764.000000 0.8740 0.8740 0.8741 0.8742 0.8742
1769.000000 0.8744 0.8747 0.8751 0.8754 0.8758
1774.000000 0.8761 0.8765 0.8768 0.8774 0.8778
1779.000000 0.8784 0.8788 0.8793 0.8798 0.8803
1784.000000 0.8809 0.8815 0.8820 0.8825 0.8831
1789.000000 0.8833 0.8835 0.8836 0.8838 0.8839
1794.000000 0.8839 0.8839 0.8839 0.8838 0.8838
1799.000000 0.8837 0.8834 0.8830 0.8827 0.8824
1804.000000 0.8820 0.8817 0.8813 0.8809 0.8805
1809.000000 0.8801 0.8797 0.8793 0.8792 0.8793
1814.000000 0.8794 0.8796 0.8799 0.8801 0.8803
1819.000000 0.8806 0.8810 0.8815 0.8818 0.8818
1824.000000 0.8820 0.8820 0.8818 0.8818 0.8817
1829.000000 0.8815 0.8812 0.8810 0.8808 0.8805
1834.000000 0.8803 0.8800 0.8796 0.8792 0.8789
1839.000000 0.8785 0.8782 0.8778 0.8775 0.8771
1844.000000 0.8767 0.8764 0.8762 0.8761 0.8760
1849.000000 0.8758 0.8757 0.8756 0.8754 0.8753
1854.000000 0.8752 0.8750 0.8749 0.8748 0.8746
1859.000000 0.8745 0.8744 0.8742 0.8741 0.8740
1864.000000 0.8738 0.8737 0.8736 0.8734 0.8733
1869.000000 0.8731 0.8728 0.8728 0.8725 0.8724
1874.000000 0.8721 0.8720 0.8718 0.8716 0.8714
1879.000000 0.8712 0.8710 0.8708 0.8707 0.8704
1884.000000 0.8701 0.8698 0.8695 0.8692 0.8689
1889.000000 0.8687 0.8684 0.8681 0.8678 0.8675
1894.000000 0.8671 0.8668 0.8666 0.8663 0.8660
1899.000000 0.8657 0.8653 0.8650 0.8647 0.8644
1904.000000 0.8641 0.8637 0.8634 0.8631 0.8628
1909.000000 0.8625 0.8621 0.8618 0.8615 0.8611
1914.000000 0.8606 0.8602 0.8598 0.8594 0.8590
1919.000000 0.8586 0.8578 0.8568 0.8560 0.8552
1924.000000 0.8547 0.8549 0.8551 0.8554 0.8558
1929.000000 0.8566 0.8574 0.8581 0.8589 0.8599
1934.000000 0.8609 0.8618 0.8628 0.8639 0.8647
1939.000000 0.8664 0.8662 0.8668 0.8675 0.8674
1944.000000 0.8671 0.8670 0.8667 0.8651 0.8636
1949.000000 0.8621 0.8607 0.8601 0.8595 0.8590
1954.000000 0.8592 0.8593 0.8595 0.8597 0.8600
1959.000000 0.8610 0.8620 0.8630 0.8640 0.8648
1964.000000 0.8656 0.8664 0.8671 0.8677 0.8675
1969.000000 0.8675 0.8675 0.8671 0.8668 0.8665
1974.000000 0.8661 0.8657 0.8654 0.8650 0.8646
1979.000000 0.8642 0.8633 0.8625 0.8617 0.8610
1984.000000 0.8603 0.8595 0.8593 0.8591 0.8590
1989.000000 0.8589 0.8588 0.8581 0.8571 0.8565
1994.000000 0.8559 0.8552 0.8544 0.8536 0.8457
1999.000000 0.8216 0.7975 0.7811 0.7648 0.7640
2004.000000 0.7633 0.7622 0.7614 0.7599 0.7585
2009.000000 0.7562 0.7542 0.7433 0.7325 0.7299
2014.000000 0.7274 0.7267 0.7260 0.7254 0.7248
2019.000000 0.7248 0.7248 0.7248 0.7249 0.7253
2024.000000 0.7257 0.7261 0.7265 0.7275 0.7285
2029.000000 0.7293 0.7301 0.7306 0.7311 0.7311
2034.000000 0.7310 0.7308 0.7294 0.7293 0.7292
2039.000000 0.7275 0.7260 0.7249 0.7238 0.7235
2044.000000 0.7232 0.7228 0.7228 0.7228 0.7231
2049.000000 0.7234 0.7238 0.7245 0.7253 0.7260
2054.000000 0.7268 0.7275 0.7282 0.7286 0.7290
2059.000000 0.7289 0.7289 0.7285 0.7281 0.7276
2064.000000 0.7272 0.7268 0.7265 0.7260 0.7256
2069.000000 0.7251 0.7246 0.7239 0.7233 0.7225
2074.000000 0.7217 0.7208 0.7200 0.7189 0.7178
2079.000000 0.7165 0.7155 0.7144 0.7133 0.7121
2084.000000 0.7110 0.7091 0.7071 0.7050 0.7028
2089.000000 0.7008 0.6991 0.6972 0.6955 0.6936
2094.000000 0.6918 0.6900 0.6882 0.6862 0.6845
2099.000000 0.6826 0.6808 0.6790 0.6771 0.6751
2104.000000 0.6733 0.6711 0.6692 0.6664 0.6637
2109.000000 0.6608 0.6578 0.6544 0.6508 0.6468
2114.000000 0.6430 0.6385 0.6341 0.6293 0.6246
2119.000000 0.6225 0.6204 0.6196 0.6188 0.6179
2124.000000 0.6171 0.6159 0.6147 0.6126 0.6105
2129.000000 0.6084 0.6062 0.6031 0.6000 0.5986
2134.000000 0.5972 0.5971 0.5971 0.5972 0.5974
2139.000000 0.5977 0.5980 0.5983 0.5986 0.5999
2144.000000 0.6012 0.6032 0.6053 0.6060 0.6069
2149.000000 0.6073 0.6077 0.6070 0.6062 0.6045
2154.000000 0.6027 0.6010 0.5994 0.5979 0.5964
2159.000000 0.5949 0.5935 0.5922 0.5909 0.5900
2164.000000 0.5892 0.5883 0.5875 0.5869 0.5862
2169.000000 0.5855 0.5847 0.5772 0.5698 0.5691
2174.000000 0.5684 0.5685 0.5687 0.5688 0.5690
2179.000000 0.5691 0.5693 0.5696 0.5700 0.5707
2184.000000 0.5714 0.5721 0.5729 0.5736 0.5743
2189.000000 0.5749 0.5756 0.5762 0.5769 0.5775
2194.000000 0.5782 0.5787 0.5793 0.5795 0.5797
2199.000000 0.5792 0.5787 0.5780 0.5774 0.5756
2204.000000 0.5738 0.5714 0.5691 0.5651 0.5612
2209.000000 0.5560 0.5508 0.5455 0.5403 0.5350
2214.000000 0.5297 0.5243 0.5190 0.5141 0.5093
2219.000000 0.5044 0.4996 0.4962 0.4929 0.4900
2224.000000 0.4871 0.4840 0.4810 0.4774 0.4738
2229.000000 0.4702 0.4667 0.4635 0.4604 0.4575
2234.000000 0.4546 0.4514 0.4483 0.4427 0.4371
2239.000000 0.4334 0.4298 0.4260 0.4225 0.4133
2244.000000 0.4041 0.3914 0.3787 0.3672 0.3557
2249.000000 0.3445 0.3334 0.3220 0.3106 0.2987
2254.000000 0.2868 0.2776 0.2684 0.2638 0.2592
2259.000000 0.2546 0.2500 0.2397 0.2295 0.1970
2264.000000 0.1644 0.1445 0.1246 0.1161 0.1076
2269.000000 0.0982 0.0889 0.0745 0.0601 0.0565
2274.000000 0.0530 0.0530 0.0530 0.0539 0.0549
2279.000000 0.0576 0.0516 0.0638 0.0673 0.0708
2284.000000 0.0743 0.0777 0.0812 0.0846 0.0882
2289.000000 0.0917 0.0952 0.0986 0.1021 0.1053
2294.000000 0.1094 0.1080 0.1074 0.0959 0.0845
2299.000000 0.0730 0.0616 0.0501 0.0387 0.0351
2304.000000 0.0316 0.0311 0.0311 0.0310 0.0310
2309.000000 0.0321 0.0328 0.0337 0.0346 0.0356
2314.000000 0.0366 0.0378 0.0390 0.0403 0.0417
2319.000000 0.0433 0.0449 0.0469 0.0489 0.0512
2324.000000 0.0536 0.0556 0.0577 0.0596 0.0615
2329.000000 0.0634 0.0654 0.0672 0.0691 0.0709
2334.000000 0.0728 0.0746 0.0765 0.0782 0.0799
2339.000000 0.0815 0.0831 0.0846 0.0863 0.0879
2344.000000 0.0895 0.0911 0.0928 0.0943 0.0960
2349.000000 0.0976 0.0992 0.1006 0.1021 0.1032
2354.000000 0.1042 0.1054 0.1065 0.1075 0.1086
2359.000000 0.1096 0.1108 0.1116 0.1125 0.1131
2364.000000 0.1138 0.1144 0.1151 0.1158 0.1165
2369.000000 0.1171 0.1177 0.1180 0.1181 0.1182
2374.000000 0.1182 0.1181 0.1199 0.1179 0.1177
2379.000000 0.1173 0.1170 0.1166 0.1163 0.1154
2384.000000 0.1146 0.1136 0.1127 0.1108 0.1089
2389.000000 0.1070 0.1051 0.1018 0.0985 0.0953
2394.000000 0.0922 0.0901 0.0880 0.0865 0.0851
2399.000000 0.0842 0.0834 0.0834 0.0834 0.0834
2404.000000 0.0835 0.0849 0.0863 0.0893 0.0820
2409.000000 0.0978 0.1031 0.1068 0.1106 0.1196
2414.000000 0.1286 0.1376 0.1466 0.1556 0.1645
2419.000000 0.1735 0.1826 0.1916 0.2006 0.2095
2424.000000 0.2184 0.2239 0.2293 0.2359 0.2425
2429.000000 0.2544 0.2663 0.2739 0.2816 0.2930
2434.000000 0.3045 0.3230 0.3414 0.3688 0.3962
2439.000000 0.4095 0.4229 0.4350 0.4472 0.4594
2444.000000 0.4717 0.5035 0.5353 0.5471 0.5589
2449.000000 0.5668 0.5748 0.5821 0.5894 0.5981
2454.000000 0.6068 0.6132 0.6196 0.6249 0.6303
2459.000000 0.6335 0.6368 0.6400 0.6433 0.6465
2464.000000 0.6498 0.6528 0.6558 0.6589 0.6619
2469.000000 0.6649 0.6678 0.6705 0.6732 0.6758
2474.000000 0.6786 0.6811 0.6837 0.6858 0.6880
2479.000000 0.6901 0.6921 0.6943 0.6964 0.6982
2484.000000 0.7000 0.7018 0.7037 0.7054 0.7071
2489.000000 0.7085 0.7099 0.7111 0.7125 0.7132
2494.000000 0.7138 0.7143 0.7148 0.7148 0.7148
2499.000000 0.7154 0.7156 0.7157 0.7158 0.7153
2504.000000 0.7147 0.7135 0.7122 0.7108 0.7096
2509.000000 0.7080 0.7065 0.7045 0.7025 0.7006
2514.000000 0.6987 0.6962 0.6940 0.6915 0.6893
2519.000000 0.6868 0.6846 0.6824 0.6801 0.6798
2524.000000 0.6795 0.6801 0.6814 0.6815 0.6822
2529.000000 0.6831 0.6839 0.6850 0.6861 0.6875
2534.000000 0.6890 0.6904 0.6918 0.6936 0.6954
2539.000000 0.6974 0.6994 0.7008 0.7021 0.7030
2544.000000 0.7038 0.7043 0.7043 0.7044 0.7040
2549.000000 0.7040 0.7040 0.7000 0.6981 0.6961
2554.000000 0.6944 0.6941 0.6938 0.6938 0.6939
2559.000000 0.6939 0.6939 0.6944 0.6946 0.6971
2564.000000 0.6996 0.7025 0.7055 0.7085 0.7115
2569.000000 0.7145 0.7175 0.7205 0.7235 0.7261
2574.000000 0.7287 0.7318 0.7350 0.7380 0.7410
2579.000000 0.7436 0.7461 0.7472 0.7484 0.7491
2584.000000 0.7499 0.7506 0.7512 0.7515 0.7519
2589.000000 0.7521 0.7522 0.7524 0.7525 0.7528
2594.000000 0.7530 0.7531 0.7533 0.7534 0.7536
2599.000000 0.7537 0.7593 0.7540 0.7542 0.7542
2604.000000 0.7542 0.7542 0.7542 0.7542 0.7542
2609.000000 0.7541 0.7540 0.7538 0.7536 0.7534
2614.000000 0.7532 0.7528 0.7525 0.7521 0.7517
2619.000000 0.7512 0.7508 0.7505 0.7501 0.7498
2624.000000 0.7494 0.7492 0.7490 0.7488 0.7487
2629.000000 0.7485 0.7484 0.7489 0.7495 0.7507
2634.000000 0.7483 0.7525 0.7534 0.7542 0.7550
2639.000000 0.7557 0.7565 0.7571 0.7580 0.7587
2644.000000 0.7594 0.7598 0.7631 0.7594 0.7586
2649.000000 0.7575 0.7567 0.7556 0.7545 0.7533
2654.000000 0.7521 0.7508 0.7497 0.7481 0.7465
2659.000000 0.7446 0.7426 0.7401 0.7375 0.7349
2664.000000 0.7322 0.7304 0.7285 0.7283 0.7289
2669.000000 0.7280 0.7281 0.7281 0.7283 0.7286
2674.000000 0.7290 0.7301 0.7314 0.7328 0.7344
2679.000000 0.7358 0.7375 0.7391 0.7408 0.7424
2684.000000 0.7441 0.7457 0.7472 0.7489 0.7506
2689.000000 0.7521 0.7539 0.7558 0.7578 0.7607
2694.000000 0.7637 0.7660 0.7683 0.7698 0.7714
2699.000000 0.7717 0.7721 0.7719 0.7719 0.7718
2704.000000 0.7718 0.7717 0.7715 0.7715 0.7714
2709.000000 0.7711 0.7710 0.7708 0.7708 0.7708
2714.000000 0.7711 0.7714 0.7768 0.7734 0.7750
2719.000000 0.7756 0.7762 0.7768 0.7775 0.7776
2724.000000 0.7778 0.7771 0.7764 0.7735 0.7706
2729.000000 0.7681 0.7656 0.7619 0.7585 0.7581
2734.000000 0.7581 0.7581 0.7584 0.7588 0.7592
2739.000000 0.7601 0.7610 0.7628 0.7648 0.7665
2744.000000 0.7682 0.7694 0.7707 0.7718 0.7732
2749.000000 0.7741 0.7751 0.7757 0.7731 0.7765
2754.000000 0.7768 0.7761 0.7757 0.7746 0.7736
2759.000000 0.7725 0.7715 0.7708 0.7701 0.7698
2764.000000 0.7695 0.7692 0.7689 0.7696 0.7703
2769.000000 0.7711 0.7719 0.7725 0.7731 0.7735
2774.000000 0.7739 0.7741 0.7742 0.7741 0.7741
2779.000000 0.7739 0.7737 0.7733 0.7728 0.7725
2784.000000 0.7721 0.7714 0.7707 0.7697 0.7688
2789.000000 0.7678 0.7668 0.7658 0.7650 0.7640
2794.000000 0.7631 0.7621 0.7611 0.7601 0.7592
2799.000000 0.7582 0.7572 0.7561 0.7551 0.7540
2804.000000 0.7528 0.7517 0.7506 0.7495 0.7484
2809.000000 0.7472 0.7461 0.7450 0.7438 0.7425
2814.000000 0.7411 0.7399 0.7387 0.7374 0.7361
2819.000000 0.7348 0.7335 0.7321 0.7310 0.7297
2824.000000 0.7284 0.7269 0.7256 0.7242 0.7228
2829.000000 0.7214 0.7200 0.7186 0.7171 0.7158
2834.000000 0.7144 0.7130 0.7115 0.7101 0.7087
2839.000000 0.7072 0.7058 0.7043 0.7028 0.7011
2844.000000 0.6996 0.6980 0.6965 0.6949 0.6933
2849.000000 0.6917 0.6901 0.6886 0.6869 0.6854
2854.000000 0.6839 0.6822 0.6807 0.6791 0.6775
2859.000000 0.6758 0.6744 0.6728 0.6711 0.6688
2864.000000 0.6665 0.6640 0.6615 0.6460 0.6304
2869.000000 0.6080 0.5857 0.5633 0.5410 0.5331
2874.000000 0.5252 0.5326 0.5205 0.5444 0.5487
2879.000000 0.5523 0.5560 0.5598 0.5637 0.5670
2884.000000 0.5703 0.5729 0.5756 0.5772 0.5788
2889.000000 0.5800 0.5878 0.5824 0.5837 0.5819
2894.000000 0.5802 0.5770 0.5738 0.5702 0.5667
2899.000000 0.5607 0.5548 0.5389 0.5230 0.5160
2904.000000 0.5092 0.5017 0.4942 0.4938 0.4934
2909.000000 0.4930 0.4926 0.4926 0.4941 0.4928
2914.000000 0.4930 0.4932 0.4935 0.4945 0.4956
2919.000000 0.4960 0.4965 0.4922 0.4880 0.4867
2924.000000 0.4854 0.4849 0.4845 0.4841 0.4837
2929.000000 0.4828 0.4819 0.4801 0.4783 0.4703
2934.000000 0.4623 0.4473 0.4323 0.4273 0.4224
2939.000000 0.4193 0.4162 0.4155 0.4148 0.4141
2944.000000 0.4135 0.4128 0.4122 0.4117 0.4112
2949.000000 0.4106 0.4101 0.4096 0.4091 0.4086
2954.000000 0.4080 0.4060 0.4041 0.3984 0.3928
2959.000000 0.3829 0.3730 0.3058 0.2387 0.2374
2964.000000 0.2352 0.2397 0.2433 0.2468 0.2504
2969.000000 0.2346 0.2507 0.1854 0.1521 0.1217
2974.000000 0.0914 0.0916 0.0903 0.1134 0.1350
2979.000000 0.1760 0.2171 0.2581 0.2991 0.3227
2984.000000 0.3464 0.3464 0.3462 0.3353 0.3237
2989.000000 0.3037 0.2838 0.2638 0.2439 0.2268
2994.000000 0.2098 0.2098 0.2098 0.3594 0.5091
2999.000000 0.5693 0.2128 0.6432 0.6568 0.6645
3004.000000 0.6721 0.6765 0.6811 0.6833 0.6856
3009.000000 0.6874 0.6892 0.6901 0.6910 0.6918
3014.000000 0.6928 0.6936 0.6944 0.6949 0.6954
3019.000000 0.6958 0.6964 0.6968 0.6974 0.6978
3024.000000 0.6984 0.6989 0.6994 0.6998 0.7001
3029.000000 0.7005 0.7008 0.7010 0.7012 0.7015
3034.000000 0.7018 0.7021 0.7022 0.7024 0.7025
3039.000000 0.7025 0.7025 0.7026 0.7028 0.7028
3044.000000 0.7030 0.7030 0.7030 0.7028 0.7028
3049.000000 0.7028 0.7028 0.7028 0.7028 0.7028
3054.000000 0.7028 0.7028 0.7028 0.7028 0.7028
3059.000000 0.7032 0.7036 0.7042 0.7048 0.7053
3064.000000 0.7058 0.7064 0.7068 0.7072 0.7078
3069.000000 0.7078 0.7078 0.7075 0.7075 0.7072
3074.000000 0.7071 0.7068 0.7064 0.7058 0.7053
3079.000000 0.7047 0.7042 0.7034 0.7026 0.7018
3084.000000 0.7008 0.6999 0.6990 0.6981 0.6971
3089.000000 0.6961 0.6950 0.6938 0.6926 0.6915
3094.000000 0.6903 0.6889 0.6875 0.6861 0.6848
3099.000000 0.6834 0.6821 0.6807 0.6793 0.6776
3104.000000 0.6761 0.6742 0.6722 0.6701 0.6680
3109.000000 0.6656 0.6632 0.6608 0.6585 0.6561
3114.000000 0.6538 0.6514 0.6490 0.6461 0.6433
3119.000000 0.6400 0.6368 0.6335 0.6303 0.6270
3124.000000 0.6238 0.6198 0.6158 0.6099 0.6040
3129.000000 0.5980 0.5921 0.5843 0.5765 0.5284
3134.000000 0.4803 0.4397 0.3992 0.3586 0.3181
3139.000000 0.2775 0.2370 0.1964 0.1559 0.1376
3144.000000 0.1192 0.1199 0.1205 0.2012 0.1154
3149.000000 0.3650 0.4482 0.5016 0.5550 0.5650
3154.000000 0.5750 0.5830 0.5910 0.5938 0.5967
3159.000000 0.5988 0.6010 0.6012 0.6012 0.6012
3164.000000 0.6010 0.6008 0.6016 0.5999 0.5994
3169.000000 0.5980 0.5967 0.5939 0.5912 0.5872
3174.000000 0.5832 0.5805 0.5779 0.5748 0.5717
3179.000000 0.5681 0.5645 0.5606 0.5567 0.5526
3184.000000 0.5485 0.5439 0.5393 0.5345 0.5298
3189.000000 0.5244 0.5191 0.5106 0.5022 0.4924
3194.000000 0.4827 0.4745 0.4662 0.4581 0.4500
3199.000000 0.4339 0.4178 0.4016 0.3855 0.3656
3204.000000 0.3457 0.3165 0.2873 0.2478 0.2084
3209.000000 0.1689 0.1294 0.0899 0.0505 0.0389
3214.000000 0.0273 0.0227 0.0181 0.0159 0.0138
3219.000000 0.0142 0.0123 0.0164 0.0183 0.0214
3224.000000 0.0247 0.0278 0.0310 0.0576 0.0842
3229.000000 0.1130 0.1418 0.1683 0.1949 0.1950
3234.000000 0.1990 0.1954 0.1957 0.1846 0.1737
3239.000000 0.1501 0.1265 0.1028 0.0792 0.0555
3244.000000 0.0318 0.0290 0.0262 0.0263 0.0265
3249.000000 0.0277 0.0229 0.0305 0.0321 0.0446
3254.000000 0.0571 0.0967 0.1363 0.1759 0.2155
3259.000000 0.2551 0.2947 0.3343 0.3740 0.4348
3264.000000 0.4956 0.5516 0.6077 0.6250 0.6424
3269.000000 0.6501 0.6581 0.6657 0.6733 0.6804
3274.000000 0.6875 0.6928 0.6983 0.7047 0.7111
3279.000000 0.7181 0.7251 0.7311 0.7374 0.7422
3284.000000 0.7471 0.7511 0.7553 0.7591 0.7628
3289.000000 0.7657 0.7685 0.7712 0.7741 0.7762
3294.000000 0.7785 0.7800 0.7815 0.7826 0.7839
3299.000000 0.7849 0.7858 0.7868 0.7878 0.7889
3304.000000 0.7899 0.7908 0.7918 0.7924 0.7931
3309.000000 0.7936 0.7941 0.7946 0.7951 0.7956
3314.000000 0.7961 0.7965 0.7968 0.7969 0.7971
3319.000000 0.7971 0.7972 0.7974 0.7975 0.7975
3324.000000 0.7987 0.7978 0.7978 0.7978 0.7978
3329.000000 0.7978 0.7978 0.7976 0.7976 0.7975
3334.000000 0.7975 0.7975 0.7974 0.7972 0.7972
3339.000000 0.7971 0.7969 0.7968 0.7968 0.7965
3344.000000 0.7965 0.7964 0.7962 0.7961 0.7960
3349.000000 0.7958 0.7958 0.7955 0.7953 0.7950
3354.000000 0.7947 0.7944 0.7941 0.7938 0.7935
3359.000000 0.7932 0.7928 0.7925 0.7921 0.7918
3364.000000 0.7917 0.7915 0.7914 0.7911 0.7911
3369.000000 0.7908 0.7907 0.7905 0.7904 0.7901
3374.000000 0.7901 0.7894 0.7887 0.7880 0.7874
3379.000000 0.7867 0.7860 0.7853 0.7847 0.7841
3384.000000 0.7835 0.7828 0.7822 0.7819 0.7818
3389.000000 0.7817 0.7817 0.7817 0.7817 0.7815
3394.000000 0.7815 0.7815 0.7815 0.7815 0.7815
3399.000000 0.7815 0.7815 0.7815 0.7815 0.7815
3404.000000 0.7815 0.7815 0.7817 0.7817 0.7817
3409.000000 0.7817 0.7817 0.7817 0.7818 0.7818
3414.000000 0.7818 0.7819 0.7821 0.7821 0.7821
3419.000000 0.7821 0.7822 0.7824 0.7825 0.7825
3424.000000 0.7825 0.7826 0.7828 0.7828 0.7828
3429.000000 0.7828 0.7830 0.7831 0.7832 0.7832
3434.000000 0.7833 0.7834 0.7835 0.7838 0.7841
3439.000000 0.7843 0.7846 0.7849 0.7851 0.7854
3444.000000 0.7857 0.7860 0.7862 0.7867 0.7871
3449.000000 0.7875 0.7880 0.7884 0.7889 0.7894
3454.000000 0.7899 0.7901 0.7901 0.7901 0.7899
3459.000000 0.7895 0.7892 0.7883 0.7874 0.7865
3464.000000 0.7857 0.7847 0.7837 0.7824 0.7811
3469.000000 0.7798 0.7785 0.7762 0.7742 0.7722
3474.000000 0.7705 0.7707 0.7710 0.7712 0.7678
3479.000000 0.7733 0.7751 0.7772 0.7796 0.7819
3484.000000 0.7844 0.7865 0.7887 0.7907 0.7926
3489.000000 0.7944 0.7961 0.7976 0.7993 0.8001
3494.000000 0.8011 0.8018 0.8026 0.8035 0.8043
3499.000000 0.8048 0.8053 0.8057 0.8061 0.8065
3504.000000 0.8069 0.8074 0.8078 0.8082 0.8087
3509.000000 0.8090 0.8094 0.8097 0.8100 0.8103
3514.000000 0.8106 0.8108 0.8112 0.8115 0.8118
3519.000000 0.8121 0.8125 0.8128 0.8131 0.8134
3524.000000 0.8137 0.8139 0.8142 0.8145 0.8148
3529.000000 0.8151 0.8154 0.8156 0.8158 0.8161
3534.000000 0.8165 0.8168 0.8171 0.8172 0.8175
3539.000000 0.8176 0.8178 0.8181 0.8183 0.8185
3544.000000 0.8187 0.8189 0.8191 0.8193 0.8195
3549.000000 0.8197 0.8199 0.8200 0.8202 0.8204
3554.000000 0.8206 0.8208 0.8210 0.8212 0.8214
3559.000000 0.8216 0.8218 0.8220 0.8221 0.8224
3564.000000 0.8225 0.8228 0.8230 0.8232 0.8234
3569.000000 0.8235 0.8237 0.8238 0.8239 0.8240
3574.000000 0.8242 0.8243 0.8245 0.8246 0.8247
3579.000000 0.8248 0.8250 0.8251 0.8252 0.8253
3584.000000 0.8255 0.8256 0.8258 0.8259 0.8260
3589.000000 0.8261 0.8263 0.8264 0.8265 0.8266
3594.000000 0.8267 0.8268 0.8268 0.8270 0.8271
3599.000000 0.8271 0.8273 0.8274 0.8275 0.8275
3604.000000 0.8277 0.8278 0.8278 0.8280 0.8281
3609.000000 0.8282 0.8283 0.8284 0.8285 0.8286
3614.000000 0.8287 0.8288 0.8289 0.8290 0.8291
3619.000000 0.8291 0.8292 0.8292 0.8292 0.8292
3624.000000 0.8293 0.8293 0.8293 0.8293 0.8293
3629.000000 0.8293 0.8293 0.8293 0.8294 0.8294
3634.000000 0.8294 0.8294 0.8294 0.8294 0.8295
3639.000000 0.8295 0.8296 0.8296 0.8297 0.8297
3644.000000 0.8298 0.8298 0.8298 0.8298 0.8299
3649.000000 0.8299 0.8300 0.8300 0.8301 0.8301
3654.000000 0.8302 0.8302 0.8303 0.8303 0.8303
3659.000000 0.8303 0.8303 0.8302 0.8302 0.8302
3664.000000 0.8302 0.8301 0.8301 0.8301 0.8301
3669.000000 0.8300 0.8300 0.8299 0.8299 0.8299
3674.000000 0.8299 0.8299 0.8300 0.8300 0.8301
3679.000000 0.8302 0.8303 0.8304 0.8305 0.8306
3684.000000 0.8307 0.8307 0.8308 0.8309 0.8310
3689.000000 0.8311 0.8312 0.8313 0.8314 0.8314
3694.000000 0.8315 0.8317 0.8318 0.8321 0.8323
3699.000000 0.8325 0.8327 0.8328 0.8331 0.8333
3704.000000 0.8335 0.8337 0.8339 0.8340 0.8342
3709.000000 0.8343 0.8344 0.8345 0.8347 0.8348
3714.000000 0.8349 0.8350 0.8352 0.8353 0.8355
3719.000000 0.8355 0.8355 0.8355 0.8356 0.8356
3724.000000 0.8357 0.8357 0.8358 0.8358 0.8359
3729.000000 0.8359 0.8359 0.8359 0.8360 0.8361
3734.000000 0.8362 0.8363 0.8364 0.8364 0.8365
3739.000000 0.8366 0.8367 0.8368 0.8368 0.8370
3744.000000 0.8371 0.8371 0.8373 0.8373 0.8374
3749.000000 0.8375 0.8375 0.8375 0.8377 0.8378
3754.000000 0.8378 0.8378 0.8380 0.8380 0.8380
3759.000000 0.8380 0.8380 0.8378 0.8378 0.8378
3764.000000 0.8378 0.8377 0.8375 0.8375 0.8375
3769.000000 0.8374 0.8374 0.8373 0.8373 0.8371
3774.000000 0.8371 0.8371 0.8371 0.8370 0.8370
3779.000000 0.8370 0.8370 0.8370 0.8370 0.8370
3784.000000 0.8371 0.8371 0.8373 0.8373 0.8374
3789.000000 0.8375 0.8375 0.8375 0.8377 0.8377
3794.000000 0.8378 0.8378 0.8380 0.8380 0.8381
3799.000000 0.8381 0.8382
##END=
