##TITLE=SODIUM DICHLOROISOCYANURATE
$$ WESTVACO CHEMICALS (COMM.)
##JCAMP-DX=4.24
##DATA TYPE=INFRARED SPECTRUM
##CLASS=COBLENTZ
##ORIGIN=WYANDOTTE CHEMICALS CORP., WYANDOTTE, MICHIGAN, USA
##OWNER=COBLENTZ SOCIETY
Collection (C) 2018 copyright by the U.S. Secretary of Commerce
on behalf of the United States of America. All rights reserved.
##DATE=Not specified, most likely prior to 1970
##MOLFORM=C3 Cl2 N3 O3 Na
##SOURCE REFERENCE=COBLENTZ NO. 2903
##$NIST ID=B6002903
##$NIST SOURCE=COBLENTZ
##$NIST IMAGE=cob2903
##SPECTROMETER/DATA SYSTEM=Not specified, most likely a prism, grating, or hybrid spectrometer.
##STATE=SOLID (MINERAL OIL MULL)
##PATH LENGTH=
$$SPECTRAL CONTAMINATION DUE TO OIL AROUND 2900, 1450, 1380 CM^-^1
##SAMPLING PROCEDURE=TRANSMISSION
##RESOLUTION=4
##DATA PROCESSING=DIGITIZED BY NIST FROM HARD COPY
##XUNITS=MICROMETERS
##YUNITS=TRANSMITTANCE
##XFACTOR=1.000000
##YFACTOR=1
##DELTAX=000.006632
##FIRSTX=2.046
##LASTX=16.0062
##FIRSTY=0.482
##MAXX=16.0062
##MINX=2.046
##MAXY=0.955
##MINY=0.044
##NPOINTS=2106
##XYDATA=(X++(Y..Y))
2.046000 0.4820 0.4820 0.4850 0.4890 0.4900
2.079175 0.4900 0.4920 0.4920 0.4940 0.4950
2.113000 0.4950 0.4970 0.4970 0.4970 0.4970
2.146175 0.4990 0.4990 0.4990 0.4970 0.4970
2.179000 0.4970 0.4970 0.4970 0.4970 0.4950
2.212175 0.4950 0.4950 0.4970 0.4990 0.5000
2.245000 0.5020 0.5020 0.5040 0.5050 0.5070
2.278175 0.5090 0.5100 0.5100 0.5120 0.5120
2.312000 0.5120 0.5120 0.5140 0.5150 0.5150
2.345175 0.5170 0.5170 0.5190 0.5220 0.5240
2.378000 0.5250 0.5270 0.5270 0.5290 0.5300
2.411175 0.5350 0.5380 0.5380 0.5400 0.5400
2.444000 0.5420 0.5420 0.5420 0.5430 0.5430
2.477175 0.5450 0.5450 0.5470 0.5480 0.5480
2.511000 0.5500 0.5500 0.5520 0.5520 0.5530
2.544175 0.5550 0.5570 0.5570 0.5580 0.5620
2.577000 0.5600 0.5620 0.5630 0.5650 0.5670
2.610175 0.5680 0.5700 0.5700 0.5720 0.5720
2.643000 0.5730 0.5750 0.5780 0.5800 0.5800
2.676175 0.5820 0.5820 0.5800 0.5750 0.5670
2.710000 0.5570 0.5420 0.5200 0.5050 0.4950
2.743175 0.4900 0.4890 0.4900 0.4990 0.5040
2.776000 0.5070 0.5120 0.5150 0.5140 0.5120
2.809175 0.5090 0.5000 0.4990 0.5000 0.5070
2.842000 0.5100 0.5150 0.5200 0.5270 0.5300
2.875175 0.5320 0.5330 0.5380 0.5400 0.5400
2.909000 0.5420 0.5420 0.5420 0.5400 0.5400
2.942175 0.5400 0.5400 0.5400 0.5420 0.5420
2.975000 0.5430 0.5450 0.5470 0.5480 0.5480
3.008175 0.5480 0.5500 0.5500 0.5500 0.5500
3.041000 0.5470 0.5430 0.5400 0.5370 0.5330
3.074175 0.5330 0.5370 0.5370 0.5370 0.5350
3.108000 0.5290 0.5190 0.5140 0.5120 0.5120
3.141175 0.5140 0.5150 0.5170 0.5170 0.5190
3.174000 0.5190 0.5200 0.5220 0.5220 0.5220
3.207175 0.5220 0.5200 0.5190 0.5150 0.5100
3.240000 0.5090 0.5040 0.5020 0.4970 0.4950
3.273175 0.4890 0.4820 0.4790 0.4740 0.4640
3.306000 0.4540 0.4390 0.4090 0.3810 0.3490
3.339175 0.3180 0.2230 0.1490 0.0920 0.0630
3.373000 0.0510 0.0480 0.0460 0.0440 0.0440
3.406175 0.0440 0.0440 0.0480 0.0490 0.0530
3.439000 0.0560 0.0590 0.0670 0.0820 0.0890
3.472175 0.0890 0.0890 0.0870 0.0810 0.0790
3.505000 0.0810 0.0990 0.1220 0.1600 0.2100
3.538175 0.2630 0.3250 0.4590 0.5100 0.5550
3.572000 0.5750 0.5880 0.5900 0.5850 0.5750
3.605175 0.5600 0.5480 0.5480 0.5500 0.5680
3.638000 0.5900 0.6030 0.6110 0.6160 0.6210
3.671175 0.6210 0.6210 0.6230 0.6230 0.6260
3.704000 0.6300 0.6360 0.6450 0.6480 0.6500
3.737175 0.6530 0.6560 0.6610 0.6650 0.6730
3.771000 0.6760 0.6810 0.6840 0.6880 0.6910
3.804175 0.6930 0.6940 0.6980 0.6990 0.6990
3.837000 0.6990 0.7010 0.7010 0.7040 0.7090
3.870175 0.7110 0.7130 0.7180 0.7190 0.7210
3.903000 0.7210 0.7230 0.7280 0.7310 0.7340
3.936175 0.7370 0.7370 0.7390 0.7390 0.7410
3.970000 0.7410 0.7410 0.7390 0.7390 0.7390
4.003175 0.7390 0.7390 0.7410 0.7410 0.7410
4.036000 0.7410 0.7410 0.7420 0.7420 0.7440
4.069175 0.7440 0.7460 0.7470 0.7490 0.7510
4.102000 0.7540 0.7570 0.7620 0.7640 0.7660
4.135175 0.7670 0.7670 0.7670 0.7620 0.7610
4.169000 0.7590 0.7610 0.7660 0.7710 0.7740
4.202175 0.7760 0.7770 0.7770 0.7790 0.7790
4.235000 0.7790 0.7790 0.7790 0.7770 0.7770
4.268175 0.7740 0.7720 0.7710 0.7690 0.7670
4.301000 0.7670 0.7670 0.7670 0.7670 0.7670
4.334175 0.7690 0.7710 0.7710 0.7720 0.7760
4.368000 0.7790 0.7810 0.7860 0.7890 0.7960
4.401175 0.8020 0.8100 0.8190 0.8200 0.8220
4.434000 0.8240 0.8270 0.8290 0.8300 0.8320
4.467175 0.8320 0.8290 0.8150 0.8090 0.8070
4.500000 0.8090 0.8150 0.8240 0.8300 0.8390
4.533175 0.8470 0.8520 0.8540 0.8550 0.8570
4.567000 0.8570 0.8570 0.8540 0.8540 0.8540
4.600175 0.8550 0.8600 0.8640 0.8640 0.8650
4.633000 0.8670 0.8670 0.8680 0.8700 0.8730
4.666175 0.8730 0.8750 0.8750 0.8770 0.8800
4.699000 0.8820 0.8830 0.8850 0.8870 0.8880
4.732175 0.8920 0.8930 0.8930 0.8950 0.8950
4.766000 0.8970 0.8970 0.9000 0.9020 0.9030
4.799175 0.9050 0.9100 0.9120 0.9130 0.9130
4.832000 0.9130 0.9130 0.9170 0.9200 0.9220
4.865175 0.9270 0.9280 0.9300 0.9300 0.9300
4.898000 0.9320 0.9320 0.9300 0.9300 0.9280
4.931175 0.9280 0.9270 0.9270 0.9280 0.9300
4.964000 0.9320 0.9320 0.9320 0.9320 0.9320
4.997175 0.9330 0.9350 0.9360 0.9400 0.9400
5.031000 0.9410 0.9410 0.9400 0.9400 0.9360
5.064175 0.9330 0.9300 0.9280 0.9300 0.9360
5.097000 0.9400 0.9410 0.9460 0.9500 0.9510
5.130175 0.9510 0.9530 0.9530 0.9530 0.9550
5.163000 0.9550 0.9550 0.9530 0.9530 0.9530
5.196175 0.9510 0.9510 0.9510 0.9510 0.9500
5.230000 0.9500 0.9480 0.9410 0.9380 0.9380
5.263175 0.9380 0.9400 0.9400 0.9410 0.9430
5.296000 0.9430 0.9410 0.9400 0.9380 0.9330
5.329175 0.9320 0.9300 0.9280 0.9250 0.9220
5.362000 0.9170 0.9100 0.9030 0.9020 0.9000
5.395175 0.8970 0.8950 0.8950 0.8950 0.8930
5.429000 0.8920 0.8870 0.8770 0.8720 0.8670
5.462175 0.8640 0.8620 0.8570 0.8500 0.8450
5.495000 0.8350 0.8250 0.8220 0.8170 0.8070
5.528175 0.7810 0.7570 0.7390 0.7240 0.7110
5.561000 0.6960 0.6830 0.6740 0.6650 0.6430
5.594175 0.6130 0.5850 0.5570 0.5270 0.4990
5.628000 0.4700 0.4420 0.4140 0.3840 0.3610
5.661175 0.3460 0.3380 0.3300 0.3030 0.2780
5.694000 0.2580 0.2400 0.2270 0.2150 0.2000
5.727175 0.1970 0.1970 0.1940 0.1940 0.1920
5.760000 0.1900 0.1890 0.1800 0.1720 0.1700
5.793175 0.1690 0.1640 0.1640 0.1620 0.1550
5.827000 0.1470 0.1340 0.1170 0.1090 0.1070
5.860175 0.1070 0.1090 0.1110 0.1120 0.1120
5.893000 0.1160 0.1160 0.1160 0.1170 0.1170
5.926175 0.1170 0.1190 0.1190 0.1190 0.1190
5.959000 0.1210 0.1220 0.1270 0.1320 0.1350
5.992175 0.1390 0.1390 0.1390 0.1390 0.1370
6.026000 0.1350 0.1340 0.1320 0.1310 0.1290
6.059175 0.1270 0.1220 0.1170 0.1160 0.1120
6.092000 0.1110 0.1090 0.1060 0.1020 0.1010
6.125175 0.0990 0.0940 0.0920 0.0910 0.0860
6.158000 0.0810 0.0770 0.0770 0.0790 0.0810
6.191175 0.0820 0.0860 0.0910 0.0910 0.0920
6.225000 0.0960 0.0990 0.1020 0.1070 0.1110
6.258175 0.1120 0.1170 0.1190 0.1190 0.1220
6.291000 0.1290 0.1350 0.1450 0.1490 0.1500
6.324175 0.1540 0.1620 0.1720 0.1770 0.1790
6.357000 0.1800 0.1820 0.1850 0.1900 0.2000
6.390175 0.2130 0.2220 0.2230 0.2300 0.2300
6.423000 0.2370 0.2420 0.2450 0.2520 0.2570
6.456175 0.2630 0.2700 0.2750 0.2860 0.2930
6.490000 0.2960 0.3000 0.3010 0.3050 0.3100
6.523175 0.3180 0.3250 0.3280 0.3330 0.3530
6.556000 0.3590 0.3630 0.3640 0.3630 0.3540
6.589175 0.3480 0.3380 0.3360 0.3330 0.3260
6.622000 0.3100 0.3080 0.3080 0.3100 0.3130
6.655175 0.3210 0.3330 0.3440 0.3480 0.3490
6.689000 0.3510 0.3510 0.3510 0.3480 0.3430
6.722175 0.3410 0.3380 0.3340 0.3310 0.3280
6.755000 0.3210 0.3000 0.2760 0.2530 0.2300
6.788175 0.2080 0.1890 0.1690 0.1540 0.1490
6.821000 0.1450 0.1450 0.1470 0.1490 0.1500
6.854175 0.1520 0.1500 0.1440 0.1420 0.1440
6.888000 0.1450 0.1500 0.1540 0.1590 0.1690
6.921175 0.1770 0.1820 0.1840 0.1940 0.2030
6.954000 0.2130 0.2200 0.2220 0.2230 0.2250
6.987175 0.2250 0.2230 0.2230 0.2220 0.2200
7.020000 0.2150 0.2130 0.2030 0.1990 0.1890
7.053175 0.1770 0.1690 0.1670 0.1670 0.1700
7.087000 0.1740 0.1800 0.1870 0.2000 0.2080
7.120175 0.2170 0.2220 0.2280 0.2320 0.2380
7.153000 0.2450 0.2530 0.2580 0.2620 0.2630
7.186175 0.2620 0.2570 0.2480 0.2400 0.2320
7.219000 0.2220 0.2130 0.2030 0.2020 0.1920
7.252175 0.1850 0.1840 0.1820 0.1840 0.2100
7.286000 0.2230 0.2330 0.2380 0.2400 0.2420
7.319175 0.2430 0.2450 0.2480 0.2480 0.2480
7.352000 0.2480 0.2430 0.2420 0.2330 0.2280
7.385175 0.2200 0.2120 0.2000 0.1900 0.1800
7.418000 0.1690 0.1600 0.1520 0.1440 0.1370
7.451175 0.1310 0.1240 0.1210 0.1160 0.1140
7.485000 0.1120 0.1110 0.1110 0.1110 0.1170
7.518175 0.1170 0.1170 0.1170 0.1160 0.1090
7.551000 0.1070 0.1060 0.1060 0.1020 0.1020
7.584175 0.1010 0.1010 0.1020 0.1010 0.0990
7.617000 0.0920 0.0910 0.0910 0.0890 0.0870
7.650175 0.0840 0.0820 0.0820 0.0790 0.0790
7.684000 0.0790 0.0790 0.0810 0.0820 0.0820
7.717175 0.0840 0.0870 0.0890 0.0940 0.0960
7.750000 0.0970 0.0970 0.0990 0.1020 0.1120
7.783175 0.1160 0.1210 0.1290 0.1390 0.1420
7.816000 0.1470 0.1550 0.1640 0.1720 0.1790
7.849175 0.1850 0.1950 0.2050 0.2100 0.2180
7.883000 0.2320 0.2430 0.2570 0.2650 0.2710
7.916175 0.2800 0.2850 0.2900 0.2960 0.3100
7.949000 0.3210 0.3230 0.3260 0.3300 0.3360
7.982175 0.3430 0.3510 0.3580 0.3630 0.3680
8.015000 0.3710 0.3710 0.3710 0.3660 0.3640
8.048175 0.3640 0.3660 0.3830 0.3940 0.4040
8.081000 0.4110 0.4170 0.4220 0.4310 0.4360
8.114175 0.4440 0.4490 0.4490 0.4520 0.4540
8.148000 0.4560 0.4570 0.4590 0.4590 0.4590
8.181175 0.4560 0.4520 0.4510 0.4490 0.4460
8.214000 0.4460 0.4470 0.4560 0.4690 0.4770
8.247175 0.4790 0.4820 0.4870 0.4940 0.4970
8.280000 0.4990 0.5000 0.5090 0.5100 0.5120
8.313175 0.5120 0.5140 0.5190 0.5200 0.5240
8.347000 0.5320 0.5330 0.5380 0.5420 0.5470
8.380175 0.5480 0.5480 0.5520 0.5530 0.5530
8.413000 0.5550 0.5550 0.5550 0.5550 0.5550
8.446175 0.5550 0.5550 0.5550 0.5570 0.5570
8.479000 0.5580 0.5600 0.5670 0.5720 0.5720
8.512175 0.5730 0.5770 0.5780 0.5780 0.5780
8.546000 0.5780 0.5770 0.5770 0.5770 0.5770
8.579175 0.5730 0.5650 0.5570 0.5470 0.5350
8.612000 0.5330 0.5330 0.5370 0.5420 0.5470
8.645175 0.5470 0.5450 0.5430 0.5400 0.5380
8.678000 0.5380 0.5400 0.5570 0.5620 0.5730
8.711175 0.5850 0.5950 0.6030 0.6150 0.6210
8.745000 0.6280 0.6280 0.6300 0.6330 0.6380
8.778175 0.6430 0.6450 0.6460 0.6500 0.6510
8.811000 0.6510 0.6510 0.6530 0.6550 0.6560
8.844175 0.6560 0.6580 0.6600 0.6610 0.6610
8.877000 0.6630 0.6630 0.6630 0.6630 0.6630
8.910175 0.6630 0.6610 0.6600 0.6580 0.6580
8.944000 0.6580 0.6600 0.6630 0.6650 0.6650
8.977175 0.6660 0.6710 0.6730 0.6740 0.6740
9.010000 0.6740 0.6740 0.6740 0.6780 0.6780
9.043175 0.6830 0.6840 0.6860 0.6860 0.6880
9.076000 0.6880 0.6880 0.6880 0.6880 0.6880
9.109175 0.6880 0.6880 0.6860 0.6840 0.6840
9.143000 0.6830 0.6810 0.6790 0.6780 0.6780
9.176175 0.6780 0.6780 0.6780 0.6780 0.6780
9.209000 0.6790 0.6790 0.6790 0.6780 0.6760
9.242175 0.6740 0.6710 0.6680 0.6650 0.6610
9.275000 0.6580 0.6550 0.6500 0.6450 0.6350
9.308175 0.6250 0.6150 0.6030 0.5850 0.5680
9.342000 0.5580 0.5450 0.5300 0.5190 0.5090
9.375175 0.5090 0.5100 0.5240 0.5350 0.5520
9.408000 0.5580 0.5650 0.5730 0.5800 0.5830
9.441175 0.5870 0.5850 0.5780 0.5720 0.5670
9.474000 0.5650 0.5580 0.5500 0.5450 0.5370
9.507175 0.5320 0.5300 0.5290 0.5300 0.5500
9.541000 0.5720 0.5900 0.6050 0.6200 0.6310
9.574175 0.6400 0.6480 0.6550 0.6600 0.6690
9.607000 0.6730 0.6740 0.6740 0.6760 0.6760
9.640175 0.6790 0.6810 0.6810 0.6830 0.6860
9.673000 0.6880 0.6890 0.6910 0.6910 0.6910
9.706175 0.6910 0.6910 0.6910 0.6930 0.6930
9.739000 0.6940 0.6940 0.6940 0.6960 0.6960
9.772175 0.6960 0.6980 0.6980 0.6980 0.6980
9.806000 0.6990 0.6990 0.6990 0.7010 0.7030
9.839175 0.7080 0.7080 0.7080 0.7080 0.7080
9.872000 0.7090 0.7090 0.7110 0.7110 0.7130
9.905175 0.7140 0.7140 0.7140 0.7140 0.7140
9.938000 0.7140 0.7140 0.7160 0.7160 0.7160
9.971175 0.7160 0.7180 0.7180 0.7180 0.7180
10.005000 0.7180 0.7180 0.7190 0.7190 0.7190
10.038175 0.7190 0.7180 0.7180 0.7180 0.7180
10.071000 0.7180 0.7180 0.7180 0.7180 0.7180
10.104175 0.7180 0.7180 0.7180 0.7180 0.7180
10.137000 0.7180 0.7180 0.7180 0.7180 0.7180
10.170175 0.7180 0.7180 0.7180 0.7180 0.7180
10.204000 0.7180 0.7180 0.7160 0.7160 0.7160
10.237175 0.7160 0.7140 0.7140 0.7130 0.7110
10.270000 0.7090 0.7090 0.7080 0.7080 0.7080
10.303175 0.7080 0.7080 0.7090 0.7130 0.7160
10.336000 0.7160 0.7180 0.7180 0.7180 0.7180
10.369175 0.7180 0.7180 0.7190 0.7210 0.7210
10.403000 0.7230 0.7230 0.7230 0.7230 0.7230
10.436175 0.7240 0.7240 0.7260 0.7260 0.7280
10.469000 0.7280 0.7280 0.7280 0.7280 0.7280
10.502175 0.7290 0.7290 0.7310 0.7310 0.7330
10.535000 0.7340 0.7340 0.7360 0.7360 0.7370
10.568175 0.7370 0.7370 0.7370 0.7390 0.7390
10.602000 0.7390 0.7390 0.7410 0.7410 0.7410
10.635175 0.7410 0.7410 0.7410 0.7410 0.7410
10.668000 0.7410 0.7410 0.7410 0.7420 0.7420
10.701175 0.7420 0.7420 0.7420 0.7420 0.7420
10.734000 0.7440 0.7440 0.7460 0.7460 0.7460
10.767175 0.7460 0.7460 0.7470 0.7490 0.7510
10.801000 0.7510 0.7510 0.7520 0.7520 0.7520
10.834175 0.7540 0.7540 0.7540 0.7560 0.7560
10.867000 0.7570 0.7570 0.7570 0.7570 0.7590
10.900175 0.7590 0.7590 0.7570 0.7570 0.7570
10.933000 0.7570 0.7590 0.7590 0.7610 0.7620
10.966175 0.7640 0.7660 0.7670 0.7670 0.7690
11.000000 0.7690 0.7690 0.7690 0.7690 0.7710
11.033175 0.7710 0.7720 0.7720 0.7720 0.7720
11.066000 0.7720 0.7740 0.7760 0.7760 0.7760
11.099175 0.7760 0.7760 0.7760 0.7760 0.7760
11.132000 0.7760 0.7760 0.7760 0.7760 0.7760
11.165175 0.7770 0.7770 0.7770 0.7770 0.7770
11.198000 0.7790 0.7790 0.7790 0.7790 0.7790
11.231175 0.7790 0.7790 0.7790 0.7790 0.7790
11.265000 0.7790 0.7790 0.7810 0.7810 0.7810
11.298175 0.7820 0.7820 0.7820 0.7840 0.7840
11.331000 0.7840 0.7860 0.7860 0.7860 0.7860
11.364175 0.7870 0.7870 0.7870 0.7870 0.7890
11.397000 0.7890 0.7910 0.7910 0.7910 0.7910
11.430175 0.7910 0.7910 0.7910 0.7920 0.7910
11.464000 0.7910 0.7910 0.7910 0.7910 0.7910
11.497175 0.7910 0.7910 0.7910 0.7910 0.7920
11.530000 0.7920 0.7920 0.7920 0.7920 0.7920
11.563175 0.7920 0.7920 0.7920 0.7920 0.7910
11.596000 0.7910 0.7890 0.7890 0.7890 0.7910
11.629175 0.7910 0.7910 0.7910 0.7920 0.7920
11.663000 0.7920 0.7920 0.7940 0.7940 0.7960
11.696175 0.7960 0.7960 0.7940 0.7920 0.7910
11.729000 0.7890 0.7870 0.7870 0.7870 0.7870
11.762175 0.7870 0.7890 0.7910 0.7910 0.7910
11.795000 0.7910 0.7910 0.7910 0.7890 0.7870
11.828175 0.7870 0.7840 0.7840 0.7820 0.7820
11.862000 0.7840 0.7870 0.7870 0.7890 0.7910
11.895175 0.7920 0.7920 0.7920 0.7920 0.7920
11.928000 0.7940 0.7940 0.7940 0.7940 0.7940
11.961175 0.7940 0.7940 0.7940 0.7940 0.7920
11.994000 0.7910 0.7910 0.7910 0.7910 0.7910
12.027175 0.7870 0.7870 0.7870 0.7870 0.7860
12.061000 0.7840 0.7840 0.7840 0.7860 0.7860
12.094175 0.7840 0.7810 0.7790 0.7790 0.7810
12.127000 0.7820 0.7820 0.7790 0.7720 0.7720
12.160175 0.7710 0.7710 0.7690 0.7670 0.7640
12.193000 0.7620 0.7570 0.7570 0.7560 0.7540
12.226175 0.7470 0.7420 0.7410 0.7390 0.7390
12.260000 0.7370 0.7340 0.7340 0.7330 0.7310
12.293175 0.7290 0.7290 0.7290 0.7290 0.7290
12.326000 0.7310 0.7340 0.7370 0.7370 0.7390
12.359175 0.7390 0.7390 0.7410 0.7410 0.7410
12.392000 0.7390 0.7390 0.7370 0.7360 0.7290
12.425175 0.7190 0.7090 0.6840 0.6680 0.6510
12.459000 0.6150 0.5820 0.5530 0.5240 0.5020
12.492175 0.4870 0.4770 0.4690 0.4670 0.4690
12.525000 0.4920 0.5070 0.5200 0.5370 0.5600
12.558175 0.5780 0.6000 0.6100 0.6210 0.6310
12.591000 0.6400 0.6450 0.6580 0.6600 0.6600
12.624175 0.6600 0.6580 0.6450 0.6380 0.6160
12.658000 0.5850 0.5450 0.5020 0.4590 0.4190
12.691175 0.3860 0.3640 0.3410 0.3340 0.3280
12.724000 0.3260 0.3280 0.3540 0.3760 0.4010
12.757175 0.4240 0.4490 0.4640 0.4840 0.5040
12.790000 0.5190 0.5330 0.5450 0.5570 0.5630
12.823175 0.5750 0.5870 0.5970 0.6000 0.6060
12.856000 0.6080 0.6080 0.6060 0.6060 0.6060
12.889175 0.6010 0.5980 0.5950 0.5880 0.5870
12.923000 0.5870 0.5900 0.5980 0.6030 0.6180
12.956175 0.6280 0.6310 0.6360 0.6400 0.6450
12.989000 0.6480 0.6510 0.6550 0.6600 0.6650
13.022175 0.6730 0.6760 0.6760 0.6760 0.6760
13.055000 0.6760 0.6760 0.6730 0.6690 0.6680
13.088175 0.6660 0.6650 0.6610 0.6560 0.6500
13.122000 0.6450 0.6380 0.6260 0.6130 0.5980
13.155175 0.5780 0.5550 0.5290 0.4990 0.4620
13.188000 0.4260 0.3910 0.3580 0.3390 0.3210
13.221175 0.3080 0.2900 0.2710 0.2580 0.2530
13.254000 0.2520 0.2520 0.2530 0.2600 0.2650
13.287175 0.2700 0.2710 0.2710 0.2620 0.2430
13.321000 0.2170 0.1950 0.1750 0.1540 0.1390
13.354175 0.1290 0.1210 0.1170 0.1120 0.1120
13.387000 0.1120 0.1170 0.1240 0.1340 0.1450
13.420175 0.1550 0.1770 0.1950 0.2120 0.2350
13.453000 0.2550 0.2700 0.2850 0.2980 0.3110
13.486175 0.3210 0.3480 0.3610 0.3740 0.3890
13.520000 0.4020 0.4170 0.4320 0.4510 0.4700
13.553175 0.4840 0.4970 0.5090 0.5190 0.5290
13.586000 0.5330 0.5380 0.5470 0.5550 0.5630
13.619175 0.5670 0.5750 0.5820 0.5880 0.5920
13.652000 0.5950 0.5970 0.5970 0.5920 0.5870
13.685175 0.5770 0.5650 0.5530 0.5320 0.5170
13.719000 0.4990 0.4890 0.4770 0.4660 0.4510
13.752175 0.4460 0.4460 0.4520 0.4590 0.4620
13.785000 0.4670 0.4750 0.4840 0.4920 0.5190
13.818175 0.5300 0.5330 0.5330 0.5300 0.5270
13.851000 0.5100 0.4950 0.4750 0.4520 0.4090
13.884175 0.3760 0.3590 0.3410 0.3330 0.3230
13.918000 0.3100 0.3010 0.2980 0.2930 0.2900
13.951175 0.2880 0.2860 0.2800 0.2760 0.2680
13.984000 0.2630 0.2520 0.2400 0.2300 0.2220
14.017175 0.2180 0.2180 0.2200 0.2450 0.2630
14.050000 0.2830 0.3080 0.3640 0.3940 0.4140
14.083175 0.4340 0.4560 0.4820 0.5020 0.5200
14.117000 0.5330 0.5480 0.5630 0.5770 0.5880
14.150175 0.5930 0.5980 0.6000 0.6010 0.6080
14.183000 0.6110 0.6180 0.6230 0.6250 0.6280
14.216175 0.6300 0.6300 0.6330 0.6380 0.6460
14.249000 0.6510 0.6560 0.6600 0.6650 0.6730
14.282175 0.6740 0.6790 0.6840 0.6880 0.6930
14.315000 0.6940 0.6960 0.6960 0.6980 0.6980
14.348175 0.6990 0.6990 0.7010 0.7010 0.7030
14.382000 0.7030 0.7010 0.6990 0.6980 0.6980
14.415175 0.6990 0.7010 0.7030 0.7060 0.7060
14.448000 0.7080 0.7110 0.7130 0.7140 0.7180
14.481175 0.7180 0.7180 0.7180 0.7190 0.7190
14.514000 0.7210 0.7210 0.7210 0.7230 0.7240
14.547175 0.7240 0.7240 0.7210 0.7210 0.7190
14.581000 0.7180 0.7180 0.7190 0.7210 0.7210
14.614175 0.7210 0.7210 0.7190 0.7190 0.7190
14.647000 0.7190 0.7190 0.7210 0.7240 0.7240
14.680175 0.7230 0.7210 0.7190 0.7180 0.7180
14.713000 0.7180 0.7160 0.7160 0.7160 0.7160
14.746175 0.7160 0.7160 0.7160 0.7160 0.7180
14.780000 0.7180 0.7180 0.7180 0.7180 0.7180
14.813175 0.7180 0.7180 0.7160 0.7160 0.7160
14.846000 0.7160 0.7160 0.7160 0.7160 0.7160
14.879175 0.7160 0.7160 0.7180 0.7180 0.7180
14.912000 0.7180 0.7180 0.7180 0.7190 0.7190
14.945175 0.7190 0.7180 0.7180 0.7160 0.7140
14.979000 0.7110 0.7080 0.7030 0.6980 0.6940
15.012175 0.6880 0.6830 0.6740 0.6680 0.6650
15.045000 0.6600 0.6510 0.6460 0.6400 0.6360
15.078175 0.6360 0.6350 0.6350 0.6380 0.6410
15.111000 0.6500 0.6550 0.6610 0.6740 0.6780
15.144175 0.6810 0.6830 0.6880 0.6880 0.6890
15.178000 0.6890 0.6890 0.6880 0.6880 0.6840
15.211175 0.6810 0.6790 0.6780 0.6730 0.6710
15.244000 0.6710 0.6690 0.6680 0.6680 0.6660
15.277175 0.6650 0.6630 0.6610 0.6580 0.6530
15.310000 0.6510 0.6510 0.6510 0.6500 0.6480
15.343175 0.6480 0.6450 0.6410 0.6410 0.6410
15.377000 0.6410 0.6410 0.6400 0.6400 0.6380
15.410175 0.6360 0.6360 0.6330 0.6310 0.6300
15.443000 0.6280 0.6280 0.6280 0.6230 0.6230
15.476175 0.6230 0.6210 0.6200 0.6180 0.6160
15.509000 0.6130 0.6130 0.6130 0.6130 0.6130
15.542175 0.6110 0.6100 0.6100 0.6060 0.6060
15.576000 0.6050 0.6030 0.6010 0.6010 0.6010
15.609175 0.6010 0.6000 0.6000 0.5980 0.5970
15.642000 0.5970 0.5970 0.5950 0.5950 0.5930
15.675175 0.5930 0.5930 0.5900 0.5880 0.5870
15.708000 0.5870 0.5870 0.5850 0.5830 0.5820
15.741175 0.5800 0.5800 0.5800 0.5800 0.5800
15.775000 0.5800 0.5780 0.5770 0.5750 0.5720
15.808175 0.5700 0.5680 0.5670 0.5670 0.5620
15.841000 0.5580 0.5570 0.5550 0.5550 0.5550
15.874175 0.5550 0.5570 0.5570 0.5570 0.5550
15.907000 0.5520 0.5500 0.5480 0.5480 0.5480
15.940175 0.5470 0.5470 0.5470 0.5450 0.5430
15.973000 0.5420 0.5400 0.5400 0.5380 0.5350
16.006175 0.5380
##END=
