##TITLE=d-Sodium tartrate
##JCAMP-DX=4.24
$$ By DXEDIT 1.05 (RS McDonald)
##DATA TYPE=INFRARED SPECTRUM
##CLASS=COBLENTZ II
##ORIGIN=DOW CHEMICAL COMPANY
##OWNER=COPYRIGHT (C) 1988 by COBLENTZ SOCIETY INC.
Collection (C) 2018 copyright by the U.S. Secretary of Commerce
on behalf of the United States of America. All rights reserved.
##DATE=1967/08/07
##MOLFORM=C4 H4 Na2 O6  * 2 H2 O
##SOURCE REFERENCE=COBLENTZ NO. 06315
##$NIST ID=B6006315
##$NIST SOURCE=COBLENTZ
##$NIST IMAGE=cob6315
##SPECTROMETER/DATA SYSTEM=DOW KBr FOREPRISM-GRATING
##INSTRUMENT PARAMETERS=BLAZED AT 3.5, 12.0, 20.0 MICRON AND CHANGED AT 5.0, 7.5, 14.9 MICRON
##STATE=SOLID (SPLIT MULL)
##SAMPLING PROCEDURE=TRANSMISSION
##RESOLUTION=2
##DATA PROCESSING=DIGITIZED BY COBLENTZ SOCIETY (BATCH I) FROM HARD COPY
##XUNITS=1/CM
##YUNITS=TRANSMITTANCE
##XFACTOR=1
##YFACTOR=1
##DELTAX=1
##FIRSTX=3820
##LASTX=385
##FIRSTY=0.819
##MAXX=3820
##MINX=385
##MAXY=0.8839
##MINY=0.0737
##NPOINTS=3436
##XYDATA=(X++(Y..Y))
3820.000000 0.8190 0.8190 0.8191 0.8191 0.8192
3815.000000 0.8193 0.8194 0.8194 0.8195 0.8196
3810.000000 0.8197 0.8197 0.8198 0.8198 0.8199
3805.000000 0.8200 0.8201 0.8201 0.8202 0.8203
3800.000000 0.8204 0.8204 0.8205 0.8206 0.8207
3795.000000 0.8207 0.8208 0.8208 0.8209 0.8209
3790.000000 0.8210 0.8210 0.8211 0.8212 0.8213
3785.000000 0.8213 0.8214 0.8214 0.8215 0.8215
3780.000000 0.8216 0.8216 0.8216 0.8216 0.8217
3775.000000 0.8217 0.8217 0.8217 0.8218 0.8218
3770.000000 0.8218 0.8218 0.8218 0.8218 0.8218
3765.000000 0.8218 0.8218 0.8218 0.8218 0.8217
3760.000000 0.8217 0.8216 0.8216 0.8215 0.8215
3755.000000 0.8214 0.8214 0.8213 0.8213 0.8211
3750.000000 0.8210 0.8209 0.8208 0.8207 0.8206
3745.000000 0.8204 0.8203 0.8201 0.8199 0.8197
3740.000000 0.8195 0.8192 0.8190 0.8189 0.8189
3735.000000 0.8188 0.8188 0.8188 0.8188 0.8189
3730.000000 0.8191 0.8195 0.8199 0.8203 0.8207
3725.000000 0.8210 0.8214 0.8216 0.8218 0.8221
3720.000000 0.8221 0.8221 0.8221 0.8218 0.8217
3715.000000 0.8214 0.8212 0.8210 0.8208 0.8205
3710.000000 0.8203 0.8200 0.8198 0.8196 0.8194
3705.000000 0.8189 0.8185 0.8180 0.8175 0.8169
3700.000000 0.8165 0.8160 0.8156 0.8151 0.8146
3695.000000 0.8141 0.8136 0.8131 0.8126 0.8121
3690.000000 0.8115 0.8110 0.8104 0.8098 0.8092
3685.000000 0.8086 0.8080 0.8072 0.8065 0.8058
3680.000000 0.8050 0.8042 0.8034 0.8025 0.8018
3675.000000 0.8010 0.8001 0.7993 0.7985 0.7976
3670.000000 0.7968 0.7961 0.7953 0.7943 0.7933
3665.000000 0.7921 0.7911 0.7900 0.7889 0.7878
3660.000000 0.7867 0.7856 0.7846 0.7835 0.7824
3655.000000 0.7812 0.7801 0.7791 0.7781 0.7769
3650.000000 0.7758 0.7748 0.7738 0.7726 0.7717
3645.000000 0.7706 0.7695 0.7684 0.7674 0.7662
3640.000000 0.7651 0.7640 0.7628 0.7612 0.7598
3635.000000 0.7583 0.7568 0.7553 0.7538 0.7522
3630.000000 0.7508 0.7494 0.7478 0.7462 0.7448
3625.000000 0.7426 0.7406 0.7384 0.7362 0.7342
3620.000000 0.7321 0.7299 0.7278 0.7253 0.7228
3615.000000 0.7195 0.7161 0.7125 0.7092 0.7046
3610.000000 0.7000 0.6928 0.6857 0.6772 0.6689
3605.000000 0.6575 0.6464 0.6316 0.6169 0.6078
3600.000000 0.5988 0.5902 0.5817 0.5743 0.5669
3595.000000 0.5622 0.5576 0.5529 0.5483 0.5433
3590.000000 0.5384 0.5322 0.5260 0.5196 0.5132
3585.000000 0.5050 0.4969 0.4834 0.4700 0.4639
3580.000000 0.4579 0.4558 0.4538 0.4521 0.4504
3575.000000 0.4499 0.4499 0.4493 0.4493 0.4493
3570.000000 0.4494 0.4515 0.4537 0.4566 0.4596
3565.000000 0.4632 0.4669 0.4712 0.4757 0.4819
3560.000000 0.4881 0.4934 0.4988 0.5035 0.5083
3555.000000 0.5131 0.5180 0.5230 0.5280 0.5329
3550.000000 0.5378 0.5421 0.5465 0.5500 0.5535
3545.000000 0.5562 0.5589 0.5616 0.5643 0.5667
3540.000000 0.5692 0.5714 0.5736 0.5749 0.5762
3535.000000 0.5768 0.5782 0.5775 0.5775 0.5773
3530.000000 0.5772 0.5769 0.5767 0.5756 0.5745
3525.000000 0.5733 0.5721 0.5701 0.5682 0.5660
3520.000000 0.5641 0.5621 0.5601 0.5580 0.5560
3515.000000 0.5534 0.5508 0.5479 0.5450 0.5421
3510.000000 0.5392 0.5362 0.5334 0.5298 0.5262
3505.000000 0.5204 0.5146 0.5088 0.5030 0.4971
3500.000000 0.4912 0.4852 0.4793 0.4743 0.4693
3495.000000 0.4656 0.4620 0.4583 0.4547 0.4512
3490.000000 0.4480 0.4455 0.4430 0.4405 0.4380
3485.000000 0.4355 0.4330 0.4302 0.4275 0.4239
3480.000000 0.4204 0.4168 0.4133 0.4105 0.4077
3475.000000 0.4050 0.4025 0.3998 0.3971 0.3927
3470.000000 0.3884 0.3825 0.3766 0.3743 0.3720
3465.000000 0.3709 0.3700 0.3691 0.3682 0.3674
3460.000000 0.3666 0.3659 0.3655 0.3649 0.3644
3455.000000 0.3638 0.3632 0.3627 0.3622 0.3616
3450.000000 0.3612 0.3609 0.3605 0.3600 0.3597
3445.000000 0.3591 0.3586 0.3576 0.3566 0.3556
3440.000000 0.3546 0.3521 0.3496 0.3453 0.3409
3435.000000 0.3360 0.3312 0.3256 0.3200 0.3137
3430.000000 0.3074 0.3032 0.2991 0.2958 0.2926
3425.000000 0.2894 0.2862 0.2834 0.2806 0.2771
3420.000000 0.2737 0.2703 0.2670 0.2658 0.2646
3415.000000 0.2641 0.2574 0.2634 0.2633 0.2632
3410.000000 0.2633 0.2652 0.2671 0.2690 0.2709
3405.000000 0.2728 0.2748 0.2768 0.2789 0.2809
3400.000000 0.2830 0.2851 0.2872 0.2895 0.2919
3395.000000 0.2950 0.2982 0.3013 0.3045 0.3075
3390.000000 0.3106 0.3134 0.3165 0.3194 0.3224
3385.000000 0.3254 0.3284 0.3312 0.3342 0.3371
3380.000000 0.3400 0.3430 0.3459 0.3487 0.3514
3375.000000 0.3539 0.3564 0.3590 0.3616 0.3641
3370.000000 0.3666 0.3691 0.3716 0.3736 0.3757
3365.000000 0.3778 0.3799 0.3818 0.3840 0.3860
3360.000000 0.3882 0.3900 0.3918 0.3934 0.3952
3355.000000 0.3968 0.3984 0.4000 0.4018 0.4034
3350.000000 0.4050 0.4066 0.4084 0.4096 0.4108
3345.000000 0.4117 0.4127 0.4136 0.4146 0.4155
3340.000000 0.4165 0.4174 0.4184 0.4193 0.4203
3335.000000 0.4212 0.4223 0.4231 0.4239 0.4246
3330.000000 0.4253 0.4260 0.4267 0.4274 0.4281
3325.000000 0.4288 0.4295 0.4302 0.4309 0.4316
3320.000000 0.4323 0.4327 0.4331 0.4334 0.4337
3315.000000 0.4340 0.4343 0.4346 0.4349 0.4352
3310.000000 0.4355 0.4358 0.4360 0.4362 0.4362
3305.000000 0.4359 0.4355 0.4348 0.4342 0.4335
3300.000000 0.4328 0.4322 0.4316 0.4310 0.4306
3295.000000 0.4301 0.4296 0.4294 0.4292 0.4290
3290.000000 0.4289 0.4288 0.4287 0.4286 0.4286
3285.000000 0.4287 0.4289 0.4291 0.4293 0.4295
3280.000000 0.4297 0.4300 0.4304 0.4307 0.4310
3275.000000 0.4312 0.4316 0.4319 0.4323 0.4326
3270.000000 0.4330 0.4333 0.4337 0.4340 0.4343
3265.000000 0.4346 0.4350 0.4353 0.4356 0.4357
3260.000000 0.4359 0.4360 0.4360 0.4362 0.4362
3255.000000 0.4364 0.4365 0.4366 0.4367 0.4367
3250.000000 0.4367 0.4362 0.4359 0.4344 0.4330
3245.000000 0.4316 0.4302 0.4287 0.4273 0.4253
3240.000000 0.4233 0.4210 0.4189 0.4167 0.4146
3235.000000 0.4126 0.4107 0.4087 0.4068 0.4044
3230.000000 0.4021 0.3993 0.3966 0.3938 0.3910
3225.000000 0.3877 0.3844 0.3808 0.3772 0.3721
3220.000000 0.3670 0.3643 0.3616 0.3608 0.3599
3215.000000 0.3598 0.3598 0.3598 0.3559 0.3604
3210.000000 0.3608 0.3618 0.3629 0.3646 0.3664
3205.000000 0.3680 0.3699 0.3716 0.3736 0.3755
3200.000000 0.3775 0.3794 0.3814 0.3834 0.3854
3195.000000 0.3874 0.3895 0.3914 0.3936 0.3956
3190.000000 0.3976 0.4002 0.4028 0.4054 0.4080
3185.000000 0.4107 0.4134 0.4160 0.4187 0.4215
3180.000000 0.4244 0.4277 0.4310 0.4344 0.4378
3175.000000 0.4410 0.4445 0.4481 0.4517 0.4556
3170.000000 0.4595 0.4634 0.4674 0.4712 0.4753
3165.000000 0.4791 0.4829 0.4856 0.4884 0.4912
3160.000000 0.4940 0.4967 0.4995 0.5022 0.5050
3155.000000 0.5078 0.5106 0.5133 0.5160 0.5179
3150.000000 0.5198 0.5216 0.5235 0.5253 0.5272
3145.000000 0.5290 0.5309 0.5327 0.5345 0.5362
3140.000000 0.5382 0.5400 0.5419 0.5437 0.5456
3135.000000 0.5471 0.5487 0.5502 0.5518 0.5533
3130.000000 0.5548 0.5562 0.5579 0.5594 0.5609
3125.000000 0.5624 0.5640 0.5655 0.5671 0.5686
3120.000000 0.5701 0.5716 0.5732 0.5748 0.5764
3115.000000 0.5779 0.5795 0.5810 0.5826 0.5842
3110.000000 0.5858 0.5873 0.5889 0.5904 0.5920
3105.000000 0.5936 0.5952 0.5966 0.5980 0.5994
3100.000000 0.6009 0.6023 0.6037 0.6051 0.6065
3095.000000 0.6079 0.6093 0.6107 0.6121 0.6135
3090.000000 0.6149 0.6162 0.6176 0.6185 0.6194
3085.000000 0.6203 0.6212 0.6221 0.6230 0.6239
3080.000000 0.6248 0.6257 0.6267 0.6276 0.6285
3075.000000 0.6294 0.6303 0.6312 0.6321 0.6330
3070.000000 0.6340 0.6349 0.6358 0.6367 0.6376
3065.000000 0.6384 0.6392 0.6399 0.6406 0.6412
3060.000000 0.6419 0.6426 0.6434 0.6441 0.6449
3055.000000 0.6456 0.6462 0.6469 0.6476 0.6484
3050.000000 0.6491 0.6498 0.6505 0.6511 0.6518
3045.000000 0.6525 0.6534 0.6542 0.6550 0.6557
3040.000000 0.6565 0.6572 0.6581 0.6588 0.6596
3035.000000 0.6603 0.6611 0.6618 0.6626 0.6634
3030.000000 0.6642 0.6649 0.6657 0.6665 0.6672
3025.000000 0.6680 0.6688 0.6695 0.6703 0.6711
3020.000000 0.6719 0.6728 0.6738 0.6747 0.6756
3015.000000 0.6765 0.6774 0.6783 0.6792 0.6801
3010.000000 0.6810 0.6818 0.6828 0.6839 0.6850
3005.000000 0.6861 0.6872 0.6884 0.6895 0.6906
3000.000000 0.6918 0.6931 0.6945 0.6958 0.6971
2995.000000 0.6986 0.7000 0.7014 0.7028 0.7043
2990.000000 0.7058 0.7075 0.7092 0.7107 0.7132
2985.000000 0.7132 0.7131 0.7125 0.7119 0.6153
2980.000000 0.5197 0.5194 0.5202 0.5210 0.5219
2975.000000 0.5415 0.5612 0.5838 0.6064 0.6290
2970.000000 0.6517 0.6625 0.6735 0.6765 0.6798
2965.000000 0.6825 0.6853 0.6880 0.6908 0.6935
2960.000000 0.6961 0.6985 0.7008 0.7025 0.7044
2955.000000 0.7061 0.7078 0.7091 0.7104 0.7117
2950.000000 0.7130 0.7138 0.7146 0.7153 0.7160
2945.000000 0.7164 0.7168 0.7168 0.7168 0.7168
2940.000000 0.7168 0.7165 0.7161 0.7136 0.7111
2935.000000 0.7053 0.6995 0.6943 0.6891 0.6889
2930.000000 0.6888 0.6892 0.6897 0.6937 0.6976
2925.000000 0.7017 0.7057 0.7097 0.7137 0.7176
2920.000000 0.7217 0.7236 0.7255 0.7265 0.7275
2915.000000 0.7285 0.7295 0.7304 0.7314 0.7321
2910.000000 0.7331 0.7339 0.7348 0.7356 0.7365
2905.000000 0.7372 0.7382 0.7390 0.7399 0.7407
2900.000000 0.7415 0.7421 0.7428 0.7435 0.7442
2895.000000 0.7448 0.7454 0.7460 0.7465 0.7471
2890.000000 0.7478 0.7483 0.7488 0.7493 0.7498
2885.000000 0.7501 0.7507 0.7511 0.7517 0.7521
2880.000000 0.7526 0.7528 0.7528 0.7528 0.7530
2875.000000 0.7531 0.7532 0.7532 0.7533 0.7534
2870.000000 0.7535 0.7535 0.7536 0.7537 0.7538
2865.000000 0.7539 0.7541 0.7544 0.7548 0.7551
2860.000000 0.7554 0.7557 0.7560 0.7562 0.7565
2855.000000 0.7568 0.7571 0.7575 0.7578 0.7581
2850.000000 0.7585 0.7588 0.7592 0.7595 0.7599
2845.000000 0.7601 0.7606 0.7608 0.7611 0.7615
2840.000000 0.7618 0.7621 0.7625 0.7628 0.7633
2835.000000 0.7636 0.7640 0.7643 0.7646 0.7648
2830.000000 0.7650 0.7651 0.7653 0.7654 0.7656
2825.000000 0.7657 0.7658 0.7660 0.7661 0.7662
2820.000000 0.7665 0.7665 0.7668 0.7668 0.7671
2815.000000 0.7671 0.7674 0.7675 0.7676 0.7678
2810.000000 0.7680 0.7681 0.7683 0.7684 0.7686
2805.000000 0.7687 0.7689 0.7690 0.7692 0.7693
2800.000000 0.7695 0.7696 0.7698 0.7699 0.7701
2795.000000 0.7701 0.7704 0.7705 0.7706 0.7707
2790.000000 0.7708 0.7710 0.7711 0.7712 0.7715
2785.000000 0.7715 0.7718 0.7718 0.7721 0.7721
2780.000000 0.7724 0.7725 0.7726 0.7728 0.7730
2775.000000 0.7731 0.7733 0.7734 0.7735 0.7736
2770.000000 0.7737 0.7738 0.7740 0.7741 0.7742
2765.000000 0.7743 0.7744 0.7745 0.7746 0.7747
2760.000000 0.7748 0.7749 0.7750 0.7751 0.7753
2755.000000 0.7754 0.7755 0.7756 0.7757 0.7758
2750.000000 0.7758 0.7760 0.7761 0.7762 0.7765
2745.000000 0.7765 0.7768 0.7768 0.7771 0.7771
2740.000000 0.7774 0.7775 0.7776 0.7778 0.7780
2735.000000 0.7781 0.7783 0.7784 0.7786 0.7787
2730.000000 0.7789 0.7790 0.7792 0.7793 0.7795
2725.000000 0.7796 0.7798 0.7799 0.7801 0.7804
2720.000000 0.7807 0.7810 0.7812 0.7815 0.7819
2715.000000 0.7822 0.7825 0.7828 0.7832 0.7835
2710.000000 0.7838 0.7841 0.7844 0.7847 0.7850
2705.000000 0.7853 0.7856 0.7858 0.7861 0.7862
2700.000000 0.7865 0.7867 0.7868 0.7871 0.7872
2695.000000 0.7875 0.7876 0.7878 0.7881 0.7883
2690.000000 0.7885 0.7887 0.7889 0.7891 0.7893
2685.000000 0.7895 0.7898 0.7899 0.7901 0.7903
2680.000000 0.7905 0.7906 0.7908 0.7910 0.7911
2675.000000 0.7912 0.7915 0.7917 0.7918 0.7919
2670.000000 0.7921 0.7924 0.7925 0.7926 0.7928
2665.000000 0.7931 0.7933 0.7933 0.7933 0.7932
2660.000000 0.7932 0.7931 0.7931 0.7930 0.7930
2655.000000 0.7930 0.7930 0.7928 0.7928 0.7928
2650.000000 0.7928 0.7926 0.7926 0.7926 0.7926
2645.000000 0.7925 0.7925 0.7924 0.7924 0.7922
2640.000000 0.7921 0.7921 0.7921 0.7919 0.7918
2635.000000 0.7918 0.7918 0.7918 0.7919 0.7921
2630.000000 0.7925 0.7928 0.7931 0.7934 0.7937
2625.000000 0.7940 0.7943 0.7945 0.7948 0.7951
2620.000000 0.7954 0.7957 0.7960 0.7962 0.7965
2615.000000 0.7968 0.7971 0.7974 0.7976 0.7980
2610.000000 0.7983 0.7986 0.7989 0.7993 0.7997
2605.000000 0.8001 0.8005 0.8008 0.8011 0.8015
2600.000000 0.8019 0.8024 0.8028 0.8032 0.8036
2595.000000 0.8039 0.8043 0.8047 0.8051 0.8055
2590.000000 0.8058 0.8061 0.8064 0.8065 0.8068
2585.000000 0.8071 0.8074 0.8075 0.8078 0.8081
2580.000000 0.8083 0.8085 0.8088 0.8090 0.8093
2575.000000 0.8095 0.8098 0.8100 0.8100 0.8100
2570.000000 0.8099 0.8098 0.8097 0.8095 0.8094
2565.000000 0.8091 0.8089 0.8086 0.8084 0.8081
2560.000000 0.8078 0.8075 0.8072 0.8071 0.8068
2555.000000 0.8067 0.8065 0.8061 0.8060 0.8058
2550.000000 0.8056 0.8054 0.8053 0.8051 0.8049
2545.000000 0.8047 0.8046 0.8044 0.8042 0.8040
2540.000000 0.8038 0.8037 0.8037 0.8037 0.8040
2535.000000 0.8043 0.8046 0.8048 0.8051 0.8054
2530.000000 0.8057 0.8060 0.8062 0.8065 0.8068
2525.000000 0.8071 0.8074 0.8076 0.8080 0.8083
2520.000000 0.8086 0.8088 0.8091 0.8094 0.8097
2515.000000 0.8099 0.8101 0.8105 0.8108 0.8110
2510.000000 0.8112 0.8115 0.8118 0.8119 0.8121
2505.000000 0.8121 0.8121 0.8121 0.8121 0.8119
2500.000000 0.8119 0.8119 0.8119 0.8119 0.8119
2495.000000 0.8121 0.8121 0.8121 0.8122 0.8124
2490.000000 0.8125 0.8125 0.8126 0.8128 0.8128
2485.000000 0.8130 0.8131 0.8131 0.8131 0.8131
2480.000000 0.8131 0.8130 0.8130 0.8128 0.8128
2475.000000 0.8128 0.8128 0.8128 0.8128 0.8128
2470.000000 0.8128 0.8126 0.8126 0.8126 0.8126
2465.000000 0.8125 0.8125 0.8125 0.8125 0.8125
2460.000000 0.8125 0.8124 0.8124 0.8124 0.8124
2455.000000 0.8122 0.8122 0.8122 0.8122 0.8121
2450.000000 0.8121 0.8121 0.8121 0.8121 0.8121
2445.000000 0.8121 0.8121 0.8119 0.8119 0.8118
2440.000000 0.8118 0.8118 0.8118 0.8118 0.8118
2435.000000 0.8117 0.8117 0.8115 0.8115 0.8115
2430.000000 0.8115 0.8114 0.8114 0.8112 0.8112
2425.000000 0.8112 0.8112 0.8111 0.8111 0.8111
2420.000000 0.8111 0.8110 0.8110 0.8108 0.8108
2415.000000 0.8108 0.8108 0.8108 0.8108 0.8107
2410.000000 0.8107 0.8106 0.8106 0.8106 0.8106
2405.000000 0.8105 0.8105 0.8105 0.8105 0.8104
2400.000000 0.8104 0.8104 0.8104 0.8104 0.8104
2395.000000 0.8103 0.8103 0.8103 0.8104 0.8105
2390.000000 0.8106 0.8106 0.8107 0.8108 0.8108
2385.000000 0.8108 0.8110 0.8111 0.8111 0.8111
2380.000000 0.8112 0.8114 0.8115 0.8115 0.8115
2375.000000 0.8117 0.8118 0.8118 0.8118 0.8119
2370.000000 0.8121 0.8121 0.8121 0.8122 0.8124
2365.000000 0.8124 0.8125 0.8125 0.8126 0.8126
2360.000000 0.8128 0.8128 0.8128 0.8130 0.8131
2355.000000 0.8131 0.8132 0.8132 0.8133 0.8134
2350.000000 0.8135 0.8135 0.8136 0.8136 0.8137
2345.000000 0.8138 0.8139 0.8139 0.8140 0.8141
2340.000000 0.8142 0.8142 0.8143 0.8143 0.8144
2335.000000 0.8145 0.8146 0.8146 0.8146 0.8146
2330.000000 0.8146 0.8140 0.8134 0.8126 0.8121
2325.000000 0.8114 0.8108 0.8101 0.8096 0.8089
2320.000000 0.8083 0.8075 0.8069 0.8062 0.8057
2315.000000 0.8053 0.8049 0.8045 0.8041 0.8037
2310.000000 0.8033 0.8028 0.8025 0.8021 0.8018
2305.000000 0.8014 0.8010 0.8006 0.8001 0.7998
2300.000000 0.7995 0.7991 0.7987 0.7983 0.7978
2295.000000 0.7978 0.7976 0.7976 0.7976 0.7976
2290.000000 0.7978 0.7978 0.7978 0.7978 0.7978
2285.000000 0.7978 0.7978 0.7978 0.7980 0.7980
2280.000000 0.7980 0.7981 0.7983 0.7986 0.7990
2275.000000 0.7994 0.7998 0.8001 0.8005 0.8008
2270.000000 0.8011 0.8015 0.8018 0.8021 0.8025
2265.000000 0.8028 0.8033 0.8036 0.8039 0.8042
2260.000000 0.8045 0.8048 0.8051 0.8054 0.8057
2255.000000 0.8060 0.8062 0.8065 0.8068 0.8071
2250.000000 0.8075 0.8078 0.8081 0.8083 0.8086
2245.000000 0.8089 0.8092 0.8095 0.8098 0.8101
2240.000000 0.8104 0.8107 0.8110 0.8112 0.8115
2235.000000 0.8118 0.8121 0.8125 0.8128 0.8131
2230.000000 0.8135 0.8138 0.8142 0.8145 0.8149
2225.000000 0.8151 0.8156 0.8160 0.8164 0.8167
2220.000000 0.8171 0.8174 0.8178 0.8181 0.8185
2215.000000 0.8188 0.8192 0.8196 0.8200 0.8203
2210.000000 0.8207 0.8210 0.8214 0.8217 0.8221
2205.000000 0.8224 0.8228 0.8232 0.8236 0.8239
2200.000000 0.8243 0.8246 0.8250 0.8253 0.8257
2195.000000 0.8260 0.8264 0.8267 0.8271 0.8275
2190.000000 0.8278 0.8282 0.8285 0.8287 0.8290
2185.000000 0.8293 0.8296 0.8298 0.8301 0.8303
2180.000000 0.8306 0.8309 0.8312 0.8314 0.8317
2175.000000 0.8318 0.8321 0.8325 0.8328 0.8330
2170.000000 0.8333 0.8335 0.8338 0.8341 0.8344
2165.000000 0.8346 0.8349 0.8351 0.8354 0.8357
2160.000000 0.8360 0.8362 0.8364 0.8366 0.8368
2155.000000 0.8370 0.8371 0.8374 0.8375 0.8378
2150.000000 0.8381 0.8383 0.8385 0.8387 0.8389
2145.000000 0.8391 0.8393 0.8395 0.8398 0.8400
2140.000000 0.8403 0.8405 0.8408 0.8410 0.8413
2135.000000 0.8415 0.8418 0.8420 0.8421 0.8424
2130.000000 0.8427 0.8428 0.8432 0.8434 0.8437
2125.000000 0.8439 0.8442 0.8444 0.8447 0.8449
2120.000000 0.8451 0.8453 0.8456 0.8458 0.8461
2115.000000 0.8463 0.8466 0.8468 0.8471 0.8473
2110.000000 0.8475 0.8477 0.8480 0.8482 0.8485
2105.000000 0.8487 0.8490 0.8492 0.8495 0.8497
2100.000000 0.8500 0.8502 0.8504 0.8506 0.8509
2095.000000 0.8511 0.8514 0.8516 0.8518 0.8521
2090.000000 0.8524 0.8525 0.8528 0.8531 0.8534
2085.000000 0.8536 0.8539 0.8542 0.8545 0.8548
2080.000000 0.8552 0.8555 0.8559 0.8563 0.8567
2075.000000 0.8570 0.8574 0.8577 0.8581 0.8585
2070.000000 0.8589 0.8592 0.8596 0.8599 0.8603
2065.000000 0.8606 0.8609 0.8612 0.8615 0.8618
2060.000000 0.8621 0.8624 0.8627 0.8630 0.8634
2055.000000 0.8637 0.8640 0.8643 0.8646 0.8649
2050.000000 0.8652 0.8655 0.8658 0.8661 0.8664
2045.000000 0.8667 0.8670 0.8673 0.8675 0.8678
2040.000000 0.8681 0.8683 0.8685 0.8687 0.8690
2035.000000 0.8692 0.8694 0.8696 0.8699 0.8701
2030.000000 0.8704 0.8706 0.8708 0.8710 0.8713
2025.000000 0.8715 0.8717 0.8718 0.8721 0.8723
2020.000000 0.8725 0.8727 0.8728 0.8731 0.8733
2015.000000 0.8735 0.8737 0.8739 0.8741 0.8742
2010.000000 0.8743 0.8743 0.8744 0.8744 0.8745
2005.000000 0.8745 0.8746 0.8746 0.8747 0.8748
2000.000000 0.8749 0.8750 0.8742 0.8733 0.8724
1995.000000 0.8725 0.8728 0.8730 0.8733 0.8737
1990.000000 0.8741 0.8744 0.8748 0.8750 0.8753
1985.000000 0.8756 0.8759 0.8762 0.8765 0.8767
1980.000000 0.8770 0.8773 0.8775 0.8778 0.8780
1975.000000 0.8783 0.8785 0.8788 0.8790 0.8793
1970.000000 0.8795 0.8798 0.8800 0.8800 0.8801
1965.000000 0.8801 0.8802 0.8802 0.8803 0.8803
1960.000000 0.8804 0.8804 0.8805 0.8805 0.8806
1955.000000 0.8806 0.8807 0.8807 0.8808 0.8809
1950.000000 0.8809 0.8810 0.8810 0.8811 0.8812
1945.000000 0.8812 0.8814 0.8815 0.8817 0.8818
1940.000000 0.8820 0.8821 0.8823 0.8824 0.8825
1935.000000 0.8827 0.8828 0.8830 0.8832 0.8833
1930.000000 0.8835 0.8836 0.8838 0.8838 0.8839
1925.000000 0.8839 0.8839 0.8838 0.8838 0.8837
1920.000000 0.8836 0.8835 0.8834 0.8833 0.8832
1915.000000 0.8831 0.8830 0.8828 0.8828 0.8827
1910.000000 0.8825 0.8825 0.8824 0.8823 0.8821
1905.000000 0.8821 0.8821 0.8820 0.8818 0.8818
1900.000000 0.8817 0.8816 0.8815 0.8814 0.8813
1895.000000 0.8813 0.8812 0.8811 0.8810 0.8810
1890.000000 0.8809 0.8808 0.8808 0.8806 0.8805
1885.000000 0.8804 0.8803 0.8802 0.8801 0.8799
1880.000000 0.8798 0.8797 0.8796 0.8795 0.8793
1875.000000 0.8792 0.8791 0.8790 0.8789 0.8788
1870.000000 0.8786 0.8785 0.8784 0.8814 0.8782
1865.000000 0.8781 0.8780 0.8778 0.8778 0.8777
1860.000000 0.8775 0.8775 0.8774 0.8773 0.8771
1855.000000 0.8770 0.8768 0.8768 0.8767 0.8766
1850.000000 0.8766 0.8765 0.8764 0.8763 0.8762
1845.000000 0.8761 0.8760 0.8759 0.8758 0.8757
1840.000000 0.8756 0.8755 0.8754 0.8752 0.8751
1835.000000 0.8750 0.8749 0.8747 0.8746 0.8745
1830.000000 0.8744 0.8742 0.8741 0.8740 0.8739
1825.000000 0.8737 0.8736 0.8735 0.8734 0.8732
1820.000000 0.8731 0.8730 0.8728 0.8727 0.8725
1815.000000 0.8725 0.8724 0.8723 0.8721 0.8720
1810.000000 0.8718 0.8718 0.8717 0.8715 0.8714
1805.000000 0.8713 0.8712 0.8710 0.8710 0.8709
1800.000000 0.8709 0.8709 0.8709 0.8709 0.8709
1795.000000 0.8708 0.8708 0.8708 0.8708 0.8708
1790.000000 0.8708 0.8708 0.8707 0.8707 0.8706
1785.000000 0.8705 0.8704 0.8703 0.8702 0.8701
1780.000000 0.8700 0.8699 0.8698 0.8697 0.8696
1775.000000 0.8695 0.8694 0.8693 0.8692 0.8690
1770.000000 0.8689 0.8688 0.8686 0.8685 0.8684
1765.000000 0.8682 0.8681 0.8678 0.8677 0.8674
1760.000000 0.8671 0.8668 0.8665 0.8661 0.8653
1755.000000 0.8645 0.8637 0.8623 0.8608 0.8593
1750.000000 0.8577 0.8560 0.8557 0.8554 0.8552
1745.000000 0.8549 0.8546 0.8544 0.8541 0.8538
1740.000000 0.8537 0.8535 0.8534 0.8532 0.8531
1735.000000 0.8528 0.8527 0.8524 0.8521 0.8518
1730.000000 0.8516 0.8514 0.8511 0.8508 0.8506
1725.000000 0.8502 0.8497 0.8491 0.8478 0.8460
1720.000000 0.8440 0.8420 0.8401 0.8381 0.8362
1715.000000 0.8342 0.8316 0.8288 0.8260 0.8228
1710.000000 0.8195 0.8161 0.8124 0.8078 0.8032
1705.000000 0.7984 0.7921 0.7858 0.7795 0.7732
1700.000000 0.7665 0.7599 0.7532 0.7438 0.7344
1695.000000 0.7250 0.7124 0.6989 0.6880 0.6769
1690.000000 0.6656 0.6537 0.6411 0.6214 0.5942
1685.000000 0.5798 0.5627 0.5530 0.5486 0.5460
1680.000000 0.5437 0.5420 0.5403 0.5385 0.5366
1675.000000 0.5349 0.5334 0.5318 0.5303 0.5284
1670.000000 0.5085 0.4830 0.4575 0.4321 0.4066
1665.000000 0.3979 0.3968 0.3970 0.3975 0.3979
1660.000000 0.3982 0.3986 0.3990 0.3995 0.4000
1655.000000 0.4006 0.4009 0.4000 0.3992 0.3962
1650.000000 0.3922 0.3873 0.3847 0.3834 0.3822
1645.000000 0.3809 0.3394 0.3264 0.3126 0.2982
1640.000000 0.2784 0.2562 0.2314 0.2190 0.2066
1635.000000 0.1923 0.1754 0.1598 0.1498 0.1388
1630.000000 0.1261 0.1117 0.1027 0.0962 0.0911
1625.000000 0.0855 0.0814 0.0792 0.0781 0.0775
1620.000000 0.0737 0.0770 0.0819 0.0868 0.0926
1615.000000 0.0986 0.1085 0.1238 0.1340 0.1437
1610.000000 0.1534 0.1676 0.1803 0.1919 0.2010
1605.000000 0.2098 0.2142 0.2165 0.2193 0.2226
1600.000000 0.2260 0.2293 0.2328 0.2384 0.2439
1595.000000 0.2494 0.2557 0.2640 0.2722 0.2809
1590.000000 0.2920 0.3031 0.3142 0.3253 0.3364
1585.000000 0.3489 0.3628 0.3766 0.3908 0.4059
1580.000000 0.4212 0.4398 0.4555 0.4651 0.4747
1575.000000 0.4843 0.4928 0.5010 0.5082 0.5132
1570.000000 0.5182 0.5232 0.5282 0.5353 0.5424
1565.000000 0.5495 0.5585 0.5666 0.5715 0.5744
1560.000000 0.5762 0.5784 0.5829 0.5901 0.5967
1555.000000 0.6027 0.6088 0.6143 0.6191 0.6238
1550.000000 0.6285 0.6332 0.6379 0.6422 0.6464
1545.000000 0.6506 0.6547 0.6588 0.6622 0.6651
1540.000000 0.6680 0.6708 0.6736 0.6764 0.6792
1535.000000 0.6819 0.6848 0.6875 0.6904 0.6928
1530.000000 0.6954 0.6978 0.7004 0.7025 0.7047
1525.000000 0.7068 0.7089 0.7110 0.7135 0.7161
1520.000000 0.7187 0.7212 0.7240 0.7265 0.7293
1515.000000 0.7318 0.7345 0.7361 0.7380 0.7397
1510.000000 0.7411 0.7425 0.7439 0.7451 0.7461
1505.000000 0.7461 0.7462 0.7458 0.7450 0.7441
1500.000000 0.7433 0.7424 0.7415 0.7405 0.7394
1495.000000 0.7384 0.7372 0.7362 0.7357 0.7354
1490.000000 0.7354 0.7353 0.7356 0.7358 0.7365
1485.000000 0.7381 0.7395 0.7407 0.7418 0.7428
1480.000000 0.7440 0.7451 0.7462 0.7474 0.7485
1475.000000 0.7496 0.7503 0.7507 0.7511 0.7514
1470.000000 0.7510 0.7506 0.7501 0.7498 0.7494
1465.000000 0.7488 0.7480 0.7472 0.7465 0.7456
1460.000000 0.7437 0.7418 0.7401 0.7380 0.7341
1455.000000 0.7301 0.7262 0.7221 0.7180 0.7138
1450.000000 0.7092 0.7044 0.6998 0.6951 0.6851
1445.000000 0.6280 0.6142 0.6039 0.5947 0.5786
1440.000000 0.5491 0.5495 0.5488 0.5500 0.5581
1435.000000 0.5662 0.5743 0.5825 0.5906 0.5930
1430.000000 0.5936 0.5943 0.5912 0.5743 0.5470
1425.000000 0.5197 0.4923 0.4650 0.4377 0.4264
1420.000000 0.4242 0.4218 0.3725 0.3232 0.2716
1415.000000 0.2581 0.2515 0.2434 0.2468 0.2467
1410.000000 0.2472 0.2645 0.2840 0.3034 0.3230
1405.000000 0.3425 0.3643 0.3722 0.3754 0.3771
1400.000000 0.3777 0.3775 0.3780 0.3768 0.3737
1395.000000 0.3662 0.3388 0.3218 0.3152 0.3089
1390.000000 0.3027 0.2977 0.2929 0.2884 0.2850
1385.000000 0.2820 0.2803 0.2799 0.2797 0.2796
1380.000000 0.2795 0.2792 0.2797 0.2805 0.2825
1375.000000 0.2845 0.2870 0.2924 0.2993 0.3074
1370.000000 0.3144 0.3196 0.3253 0.3309 0.3366
1365.000000 0.3422 0.3479 0.3534 0.3592 0.3648
1360.000000 0.3706 0.3739 0.3749 0.3748 0.3742
1355.000000 0.3714 0.3659 0.3514 0.3362 0.3212
1350.000000 0.3061 0.2910 0.2759 0.2608 0.2457
1345.000000 0.2306 0.2203 0.2191 0.2182 0.2198
1340.000000 0.2210 0.2245 0.2366 0.2532 0.2699
1335.000000 0.2865 0.3032 0.3198 0.3270 0.3287
1330.000000 0.3297 0.3398 0.3749 0.4099 0.4450
1325.000000 0.4633 0.4747 0.4852 0.5004 0.5060
1320.000000 0.5103 0.5145 0.5206 0.5268 0.5335
1315.000000 0.5405 0.5475 0.5565 0.5662 0.5759
1310.000000 0.5853 0.5944 0.6025 0.6098 0.6166
1305.000000 0.6235 0.6292 0.6347 0.6403 0.6458
1300.000000 0.6515 0.6572 0.6631 0.6691 0.6751
1295.000000 0.6814 0.6876 0.6934 0.6971 0.7010
1290.000000 0.7040 0.7068 0.7101 0.7138 0.7164
1285.000000 0.7181 0.7195 0.7205 0.7205 0.7201
1280.000000 0.7197 0.7171 0.7092 0.6554 0.6469
1275.000000 0.6425 0.6403 0.6390 0.6390 0.6390
1270.000000 0.6434 0.6488 0.6565 0.6651 0.6722
1265.000000 0.6794 0.6843 0.6893 0.6942 0.6994
1260.000000 0.7047 0.7099 0.7143 0.7183 0.7218
1255.000000 0.7250 0.7283 0.7308 0.7325 0.7338
1250.000000 0.7350 0.7386 0.7371 0.7368 0.7361
1245.000000 0.7351 0.7325 0.7300 0.7258 0.7197
1240.000000 0.7092 0.6965 0.6849 0.6793 0.6818
1235.000000 0.6817 0.6903 0.7030 0.7192 0.7286
1230.000000 0.7378 0.7475 0.7571 0.7668 0.7737
1225.000000 0.7806 0.7875 0.7949 0.8025 0.8068
1220.000000 0.8108 0.8132 0.8145 0.8151 0.8137
1215.000000 0.8146 0.8132 0.8083 0.8011 0.7869
1210.000000 0.7537 0.7403 0.7251 0.7228 0.7201
1205.000000 0.7211 0.7211 0.7212 0.7301 0.7376
1200.000000 0.7450 0.7519 0.7589 0.7631 0.7668
1195.000000 0.7708 0.7746 0.7785 0.7828 0.7883
1190.000000 0.7937 0.7974 0.8003 0.8032 0.8061
1185.000000 0.8089 0.8112 0.8138 0.8161 0.8186
1180.000000 0.8197 0.8206 0.8215 0.8223 0.8225
1175.000000 0.8228 0.8232 0.8235 0.8238 0.8240
1170.000000 0.8243 0.8246 0.8249 0.8252 0.8254
1165.000000 0.8254 0.8254 0.8254 0.8254 0.8255
1160.000000 0.8255 0.8255 0.8254 0.8253 0.8253
1155.000000 0.8252 0.8251 0.8250 0.8250 0.8249
1150.000000 0.8248 0.8248 0.8247 0.8245 0.8242
1145.000000 0.8239 0.8236 0.8233 0.8230 0.8221
1140.000000 0.8215 0.8207 0.8199 0.8192 0.8184
1135.000000 0.8171 0.8155 0.8140 0.8124 0.8093
1130.000000 0.8046 0.7994 0.7942 0.7890 0.7826
1125.000000 0.7751 0.7678 0.7592 0.7482 0.7371
1120.000000 0.7225 0.6551 0.5917 0.5284 0.4650
1115.000000 0.4016 0.3382 0.2877 0.2853 0.2852
1110.000000 0.2852 0.2921 0.3290 0.3659 0.4028
1105.000000 0.4374 0.4510 0.4604 0.4833 0.5247
1100.000000 0.5660 0.6074 0.6487 0.6718 0.6818
1095.000000 0.6911 0.6997 0.7080 0.7151 0.7224
1090.000000 0.7308 0.7369 0.7425 0.7480 0.7510
1085.000000 0.7536 0.7555 0.7572 0.7584 0.7594
1080.000000 0.7625 0.7608 0.7606 0.7591 0.7571
1075.000000 0.7525 0.7440 0.7260 0.6618 0.5820
1070.000000 0.5023 0.4226 0.3428 0.2631 0.2526
1065.000000 0.2508 0.2533 0.2856 0.3268 0.3679
1060.000000 0.4090 0.4501 0.4912 0.5323 0.5734
1055.000000 0.5876 0.6101 0.6269 0.6415 0.6564
1050.000000 0.6711 0.6874 0.7041 0.7243 0.7375
1045.000000 0.7431 0.7486 0.7545 0.7605 0.7665
1040.000000 0.7719 0.7768 0.7817 0.7861 0.7895
1035.000000 0.7928 0.7961 0.7992 0.8018 0.8046
1030.000000 0.8072 0.8100 0.8126 0.8154 0.8175
1025.000000 0.8198 0.8218 0.8241 0.8260 0.8275
1020.000000 0.8293 0.8310 0.8327 0.8338 0.8348
1015.000000 0.8358 0.8368 0.8378 0.8390 0.8401
1010.000000 0.8410 0.8418 0.8428 0.8436 0.8443
1005.000000 0.8447 0.8446 0.8445 0.8446 0.8446
1000.000000 0.8437 0.8418 0.8387 0.8306 0.7961
995.000000 0.7391 0.6819 0.6467 0.6464 0.6447
990.000000 0.6450 0.6454 0.6649 0.7008 0.7367
985.000000 0.7525 0.7596 0.7665 0.7726 0.7785
980.000000 0.7843 0.7888 0.7933 0.7968 0.8000
975.000000 0.8015 0.8018 0.8022 0.8026 0.8033
970.000000 0.8039 0.8045 0.8051 0.8058 0.8072
965.000000 0.8090 0.8107 0.8122 0.8137 0.8151
960.000000 0.8165 0.8178 0.8191 0.8202 0.8213
955.000000 0.8224 0.8235 0.8246 0.8255 0.8262
950.000000 0.8268 0.8275 0.8282 0.8288 0.8292
945.000000 0.8295 0.8299 0.8302 0.8296 0.8306
940.000000 0.8304 0.8296 0.8289 0.8280 0.8265
935.000000 0.8251 0.8236 0.8217 0.8198 0.8171
930.000000 0.8134 0.8092 0.8026 0.7885 0.7390
925.000000 0.6700 0.6010 0.5320 0.4876 0.4869
920.000000 0.4862 0.4862 0.5179 0.5575 0.5972
915.000000 0.6369 0.6765 0.7028 0.7167 0.7433
910.000000 0.7545 0.7665 0.7795 0.7871 0.7928
905.000000 0.7976 0.8021 0.8055 0.8083 0.8099
900.000000 0.8112 0.8121 0.8125 0.8125 0.8125
895.000000 0.8125 0.8119 0.8114 0.8099 0.8075
890.000000 0.8045 0.8003 0.7956 0.7900 0.7775
885.000000 0.7278 0.6842 0.6833 0.6822 0.6822
880.000000 0.6869 0.7208 0.7548 0.7887 0.7975
875.000000 0.8019 0.8065 0.8101 0.8137 0.8172
870.000000 0.8193 0.8213 0.8230 0.8238 0.8247
865.000000 0.8250 0.8253 0.8255 0.8256 0.8257
860.000000 0.8257 0.8253 0.8245 0.8237 0.8224
855.000000 0.8208 0.8181 0.8147 0.8101 0.8048
850.000000 0.7950 0.7861 0.7776 0.7732 0.7767
845.000000 0.7795 0.7872 0.7949 0.7985 0.8017
840.000000 0.8036 0.8049 0.8058 0.8065 0.8072
835.000000 0.8075 0.8078 0.8099 0.8082 0.8084
830.000000 0.8075 0.8065 0.8056 0.8046 0.8037
825.000000 0.8022 0.8001 0.7978 0.7956 0.7925
820.000000 0.7895 0.7865 0.7834 0.7797 0.7755
815.000000 0.7710 0.7661 0.7615 0.7569 0.7518
810.000000 0.7418 0.7322 0.7285 0.7271 0.7283
805.000000 0.7335 0.7434 0.7511 0.7571 0.7586
800.000000 0.7608 0.7589 0.7584 0.7560 0.7533
795.000000 0.7505 0.7468 0.7431 0.7395 0.7351
790.000000 0.7291 0.7231 0.7157 0.7071 0.6983
785.000000 0.6880 0.6688 0.6521 0.6446 0.6369
780.000000 0.6293 0.6216 0.6140 0.6082 0.6028
775.000000 0.5983 0.5945 0.5912 0.5902 0.5891
770.000000 0.5858 0.5877 0.5878 0.5899 0.5940
765.000000 0.5980 0.6021 0.6066 0.6110 0.6156
760.000000 0.6198 0.6238 0.6278 0.6318 0.6357
755.000000 0.6392 0.6410 0.6428 0.6446 0.6482
750.000000 0.6482 0.6482 0.6484 0.6469 0.6457
745.000000 0.6435 0.6392 0.6350 0.6307 0.6239
740.000000 0.6160 0.6082 0.5986 0.5892 0.5810
735.000000 0.5737 0.5669 0.5602 0.5524 0.5408
730.000000 0.5288 0.5169 0.5049 0.4929 0.4810
725.000000 0.4690 0.4571 0.4542 0.4516 0.4555
720.000000 0.4569 0.4764 0.5069 0.5256 0.5330
715.000000 0.5404 0.5497 0.5595 0.5687 0.5752
710.000000 0.5817 0.5881 0.5946 0.6012 0.6078
705.000000 0.6143 0.6190 0.6236 0.6283 0.6330
700.000000 0.6375 0.6410 0.6445 0.6480 0.6515
695.000000 0.6550 0.6585 0.6619 0.6654 0.6691
690.000000 0.6728 0.6767 0.6804 0.6835 0.6867
685.000000 0.6899 0.6931 0.6961 0.6994 0.7025
680.000000 0.7057 0.7088 0.7118 0.7151 0.7182
675.000000 0.7208 0.7231 0.7253 0.7274 0.7295
670.000000 0.7308 0.7322 0.7337 0.7351 0.7360
665.000000 0.7365 0.7371 0.7376 0.7378 0.7378
660.000000 0.7397 0.7382 0.7383 0.7385 0.7387
655.000000 0.7387 0.7378 0.7369 0.7341 0.7294
650.000000 0.7225 0.7080 0.6928 0.6782 0.6565
645.000000 0.6358 0.6150 0.5941 0.5733 0.5525
640.000000 0.5317 0.5109 0.4918 0.4836 0.4818
635.000000 0.4823 0.4827 0.4838 0.4856 0.4882
630.000000 0.5065 0.5174 0.5273 0.5360 0.5444
625.000000 0.5530 0.5592 0.5652 0.5703 0.5751
620.000000 0.5785 0.5803 0.5831 0.5821 0.5799
615.000000 0.5760 0.4916 0.4694 0.4494 0.4295
610.000000 0.4096 0.3948 0.3959 0.3955 0.3968
605.000000 0.4272 0.4600 0.4927 0.5254 0.5581
600.000000 0.5908 0.6103 0.6250 0.6362 0.6448
595.000000 0.6511 0.6575 0.6631 0.6684 0.6724
590.000000 0.6762 0.6782 0.6798 0.6814 0.6825
585.000000 0.6834 0.6842 0.6849 0.6857 0.6861
580.000000 0.6864 0.6867 0.6871 0.6874 0.6876
575.000000 0.6878 0.6880 0.6881 0.6883 0.6884
570.000000 0.6886 0.6887 0.6889 0.6890 0.6893
565.000000 0.6898 0.6904 0.6910 0.6915 0.6921
560.000000 0.6926 0.6934 0.6943 0.6951 0.6961
555.000000 0.6976 0.6993 0.7008 0.7025 0.7048
550.000000 0.7075 0.7101 0.7131 0.7164 0.7198
545.000000 0.7232 0.7265 0.7296 0.7324 0.7344
540.000000 0.7365 0.7383 0.7385 0.7392 0.7395
535.000000 0.7397 0.7355 0.7197 0.6715 0.6687
530.000000 0.6694 0.6696 0.6703 0.6717 0.6762
525.000000 0.6822 0.6926 0.7001 0.7064 0.7095
520.000000 0.7126 0.7158 0.7188 0.7215 0.7242
515.000000 0.7267 0.7287 0.7308 0.7328 0.7350
510.000000 0.7367 0.7384 0.7400 0.7411 0.7421
505.000000 0.7433 0.7439 0.7444 0.7454 0.7448
500.000000 0.7446 0.7431 0.7404 0.7365 0.7317
495.000000 0.7243 0.7010 0.6796 0.6572 0.6350
490.000000 0.6128 0.5905 0.5682 0.5460 0.5362
485.000000 0.5367 0.5369 0.5377 0.5443 0.5546
480.000000 0.5622 0.5698 0.5780 0.5864 0.5962
475.000000 0.6131 0.6294 0.6428 0.6528 0.6630
470.000000 0.6704 0.6774 0.6844 0.6903 0.6958
465.000000 0.7015 0.7060 0.7097 0.7134 0.7155
460.000000 0.7174 0.7192 0.7210 0.7228 0.7242
455.000000 0.7256 0.7269 0.7284 0.7292 0.7297
450.000000 0.7303 0.7308 0.7314 0.7315 0.7331
445.000000 0.7319 0.7321 0.7321 0.7321 0.7318
440.000000 0.7317 0.7315 0.7312 0.7311 0.7308
435.000000 0.7301 0.7296 0.7289 0.7282 0.7275
430.000000 0.7267 0.7258 0.7250 0.7242 0.7233
425.000000 0.7222 0.7212 0.7201 0.7192 0.7181
420.000000 0.7169 0.7156 0.7141 0.7126 0.7112
415.000000 0.7099 0.7085 0.7068 0.7051 0.7035
410.000000 0.7018 0.7001 0.6989 0.6978 0.6965
405.000000 0.6955 0.6947 0.6942 0.6936 0.6931
400.000000 0.6925 0.6921 0.6919 0.6918 0.6917
395.000000 0.6915 0.6914 0.6914 0.6914 0.6914
390.000000 0.6915 0.6917 0.6919 0.6921 0.6922
385.000000 0.6925
##END=
