##TITLE=OXALIC ACID, DIHYDRATE
##JCAMP-DX=4.24
##DATA TYPE=INFRARED SPECTRUM
##CLASS=COBLENTZ
##ORIGIN=WYANDOTTE CHEMICALS CORP., WYANDOTTE, MICHIGAN, USA
##OWNER=COBLENTZ SOCIETY
Collection (C) 2018 copyright by the U.S. Secretary of Commerce
on behalf of the United States of America. All rights reserved.
##DATE=Not specified, most likely prior to 1970
##MOLFORM=C2 H2 O4  * 2 H2 O
##SOURCE REFERENCE=COBLENTZ NO. 1277
##$NIST ID=B6001277
##$NIST SOURCE=COBLENTZ
##$NIST IMAGE=cob1277
##SPECTROMETER/DATA SYSTEM=Not specified, most likely a prism, grating, or hybrid spectrometer.
##STATE=SOLID (MINERAL OIL MULL)
##PATH LENGTH=
$$ CHANGE IN RECORDING PARAMETERS AT 2500 CM^-^1
##SAMPLING PROCEDURE=TRANSMISSION
##RESOLUTION=4
##DATA PROCESSING=DIGITIZED BY NIST FROM HARD COPY
##XUNITS=MICROMETERS
##YUNITS=TRANSMITTANCE
##XFACTOR=1.000000
##YFACTOR=1
##DELTAX=000.006806
##FIRSTX=2.014
##LASTX=16.0069
##FIRSTY=1.015
##MAXX=16.0069
##MINX=2.014
##MAXY=1.018
##MINY=0.119
##NPOINTS=2057
##XYDATA=(X++(Y..Y))
2.014000 1.0150 1.0170 1.0170 1.0170 1.0180
2.048047 1.0180 1.0180 1.0180 1.0180 1.0180
2.082000 1.0180 1.0180 1.0170 1.0150 1.0110
2.116047 1.0100 1.0110 1.0130 1.0150 1.0150
2.150000 1.0130 1.0130 1.0130 1.0130 1.0130
2.184047 1.0130 1.0110 1.0100 1.0080 1.0060
2.218000 1.0050 1.0030 1.0030 1.0030 1.0010
2.252047 1.0000 0.9980 0.9940 0.9910 0.9890
2.286000 0.9880 0.9840 0.9820 0.9810 0.9760
2.320047 0.9740 0.9670 0.9570 0.9520 0.9500
2.354000 0.9470 0.9450 0.9450 0.9420 0.9400
2.388047 0.9330 0.9260 0.9190 0.9180 0.9110
2.422000 0.9040 0.8970 0.8900 0.8840 0.8790
2.456047 0.8730 0.8670 0.8580 0.8530 0.8480
2.490000 0.8360 0.8270 0.8210 0.8190 0.8140
2.524047 0.8100 0.8090 0.8040 0.8000 0.7970
2.558000 0.7900 0.7810 0.7750 0.7660 0.7580
2.592047 0.7470 0.7300 0.7120 0.7050 0.6910
2.626000 0.6810 0.6710 0.6570 0.6470 0.6370
2.660047 0.6200 0.6010 0.5800 0.5600 0.5380
2.694000 0.5160 0.5050 0.4950 0.4770 0.4660
2.728047 0.4510 0.4410 0.4270 0.4150 0.4020
2.762000 0.3950 0.3810 0.3730 0.3670 0.3590
2.796047 0.3440 0.3300 0.3200 0.3150 0.3100
2.830000 0.3030 0.2930 0.2820 0.2720 0.2640
2.864047 0.2570 0.2480 0.2410 0.2350 0.2290
2.898000 0.2230 0.2210 0.2230 0.2230 0.2240
2.932047 0.2240 0.2260 0.2260 0.2290 0.2290
2.966000 0.2310 0.2360 0.2410 0.2520 0.2550
3.000047 0.2580 0.2720 0.2860 0.2980 0.3100
3.035000 0.3200 0.3320 0.3450 0.3560 0.3660
3.069047 0.3760 0.3860 0.3960 0.4080 0.4200
3.103000 0.4340 0.4460 0.4490 0.4510 0.4530
3.137047 0.4580 0.4590 0.4610 0.4680 0.4770
3.171000 0.4800 0.4830 0.4870 0.4940 0.5020
3.205047 0.5020 0.5040 0.5050 0.5070 0.5090
3.239000 0.5090 0.5050 0.5040 0.5000 0.4990
3.273047 0.4970 0.4920 0.4820 0.4610 0.4480
3.307000 0.4360 0.4200 0.4020 0.3790 0.3520
3.341047 0.3210 0.2910 0.2600 0.2330 0.2120
3.375000 0.1970 0.1900 0.1820 0.1680 0.1550
3.409047 0.1510 0.1480 0.1440 0.1440 0.1410
3.443000 0.1390 0.1340 0.1320 0.1310 0.1270
3.477047 0.1240 0.1200 0.1190 0.1200 0.1200
3.511000 0.1220 0.1290 0.1390 0.1560 0.1770
3.545047 0.2020 0.2290 0.2520 0.2740 0.2940
3.579000 0.3060 0.3280 0.3490 0.3670 0.3790
3.613047 0.3910 0.3960 0.4050 0.4130 0.4200
3.647000 0.4250 0.4310 0.4390 0.4390 0.4390
3.681047 0.4390 0.4390 0.4390 0.4390 0.4390
3.715000 0.4390 0.4390 0.4320 0.4310 0.4240
3.749047 0.4190 0.4170 0.4170 0.4170 0.4170
3.783000 0.4170 0.4170 0.4190 0.4190 0.4190
3.817047 0.4200 0.4220 0.4220 0.4240 0.4240
3.851000 0.4250 0.4250 0.4270 0.4270 0.4290
3.885047 0.4310 0.4310 0.4320 0.4320 0.4340
3.919000 0.4340 0.4360 0.4360 0.4360 0.4360
3.953047 0.4360 0.4360 0.4360 0.4360 0.4360
3.987000 0.4360 0.4370 0.4370 0.4410 0.8330
4.021047 0.8330 0.8330 0.8330 0.8330 0.8340
4.055000 0.8340 0.8340 0.8340 0.8340 0.8340
4.089047 0.8340 0.8340 0.8340 0.8380 0.8380
4.123000 0.8380 0.8390 0.8390 0.8410 0.8410
4.157047 0.8430 0.8430 0.8440 0.8480 0.8500
4.192000 0.8510 0.8530 0.8530 0.8530 0.8530
4.226047 0.8530 0.8550 0.8560 0.8600 0.8620
4.260000 0.8620 0.8620 0.8630 0.8630 0.8700
4.294047 0.8790 0.8900 0.8970 0.9020 0.9040
4.328000 0.9090 0.9140 0.9230 0.9300 0.9330
4.362047 0.9400 0.9430 0.9480 0.9520 0.9550
4.396000 0.9590 0.9600 0.9620 0.9650 0.9670
4.430047 0.9670 0.9640 0.9620 0.9570 0.9540
4.464000 0.9500 0.9450 0.9430 0.9400 0.9380
4.498047 0.9380 0.9380 0.9360 0.9360 0.9360
4.532000 0.9360 0.9360 0.9360 0.9350 0.9350
4.566047 0.9330 0.9330 0.9330 0.9310 0.9310
4.600000 0.9310 0.9300 0.9300 0.9300 0.9300
4.634047 0.9300 0.9300 0.9280 0.9250 0.9210
4.668000 0.9190 0.9110 0.9040 0.9010 0.9010
4.702047 0.8990 0.8940 0.8890 0.8850 0.8800
4.736000 0.8800 0.8730 0.8700 0.8650 0.8630
4.770047 0.8600 0.8560 0.8550 0.8460 0.8360
4.804000 0.8270 0.8220 0.8170 0.8120 0.8050
4.838047 0.8020 0.8000 0.7970 0.7880 0.7850
4.872000 0.7810 0.7780 0.7760 0.7750 0.7730
4.906047 0.7710 0.7700 0.7630 0.7610 0.7590
4.940000 0.7540 0.7490 0.7420 0.7390 0.7340
4.974047 0.7300 0.7270 0.7220 0.7180 0.7130
5.008000 0.7080 0.7030 0.7000 0.6950 0.6910
5.042047 0.6840 0.6810 0.6790 0.6710 0.6660
5.076000 0.6590 0.6540 0.6470 0.6420 0.6350
5.110047 0.6330 0.6300 0.6180 0.6110 0.6060
5.144000 0.6010 0.5960 0.5910 0.5840 0.5800
5.178047 0.5750 0.5700 0.5650 0.5620 0.5570
5.212000 0.5510 0.5480 0.5430 0.5380 0.5330
5.246047 0.5280 0.5210 0.5140 0.5120 0.5110
5.281000 0.5110 0.5050 0.5020 0.5000 0.5000
5.315047 0.5000 0.4990 0.4940 0.4880 0.4830
5.349000 0.4820 0.4770 0.4710 0.4660 0.4650
5.383047 0.4630 0.4590 0.4560 0.4540 0.4540
5.417000 0.4530 0.4510 0.4510 0.4490 0.4490
5.451047 0.4420 0.4410 0.4390 0.4370 0.4360
5.485000 0.4360 0.4320 0.4320 0.4310 0.4310
5.519047 0.4310 0.4270 0.4270 0.4250 0.4240
5.553000 0.4220 0.4190 0.4190 0.4170 0.4170
5.587047 0.4150 0.4150 0.4150 0.4150 0.4130
5.621000 0.4120 0.4100 0.4100 0.4080 0.4030
5.655047 0.4020 0.4000 0.3980 0.3950 0.3930
5.689000 0.3900 0.3880 0.3830 0.3790 0.3740
5.723047 0.3710 0.3670 0.3620 0.3570 0.3520
5.757000 0.3500 0.3490 0.3440 0.3400 0.3330
5.791047 0.3250 0.3200 0.3080 0.3080 0.3040
5.825000 0.3030 0.3010 0.2990 0.2980 0.2940
5.859047 0.2910 0.2870 0.2870 0.2860 0.2860
5.893000 0.2840 0.2820 0.2790 0.2750 0.2700
5.927047 0.2670 0.2650 0.2650 0.2640 0.2640
5.961000 0.2600 0.2580 0.2570 0.2580 0.2580
5.995047 0.2640 0.2640 0.2620 0.2620 0.2620
6.029000 0.2620 0.2620 0.2640 0.2640 0.2650
6.063047 0.2700 0.2740 0.2750 0.2770 0.2790
6.097000 0.2810 0.2810 0.2840 0.2840 0.2870
6.131047 0.2910 0.2910 0.2910 0.2940 0.2960
6.165000 0.2980 0.2980 0.3010 0.3030 0.3040
6.199047 0.3060 0.3060 0.3080 0.3130 0.3210
6.233000 0.3250 0.3300 0.3370 0.3420 0.3450
6.267047 0.3520 0.3570 0.3670 0.3760 0.3810
6.301000 0.3850 0.3900 0.3960 0.4000 0.4020
6.335047 0.4100 0.4120 0.4170 0.4270 0.4310
6.369000 0.4340 0.4360 0.4360 0.4410 0.4480
6.403047 0.4540 0.4560 0.4610 0.4610 0.4630
6.438000 0.4630 0.4630 0.4630 0.4650 0.4710
6.472047 0.4750 0.4820 0.4850 0.4900 0.4900
6.506000 0.4900 0.4900 0.4920 0.4990 0.5020
6.540047 0.5070 0.5110 0.5140 0.5140 0.5190
6.574000 0.5220 0.5240 0.5260 0.5290 0.5330
6.608047 0.5340 0.5400 0.5410 0.5480 0.5510
6.642000 0.5550 0.5600 0.5620 0.5670 0.5670
6.676047 0.5670 0.5670 0.5670 0.5650 0.5650
6.710000 0.5630 0.5620 0.5570 0.5430 0.5330
6.744047 0.5240 0.5170 0.5090 0.5020 0.4950
6.778000 0.4780 0.4540 0.4220 0.3960 0.3730
6.812047 0.3490 0.3320 0.3230 0.3180 0.3110
6.846000 0.3080 0.3080 0.3060 0.3080 0.3080
6.880047 0.3100 0.3110 0.3130 0.3160 0.3230
6.914000 0.3250 0.3280 0.3370 0.3420 0.3520
6.948047 0.3660 0.3760 0.3850 0.3930 0.4020
6.982000 0.4120 0.4250 0.4420 0.4540 0.4680
7.016047 0.4770 0.4850 0.4920 0.5090 0.5190
7.050000 0.5260 0.5290 0.5330 0.5380 0.5430
7.084047 0.5450 0.5460 0.5480 0.5510 0.5530
7.118000 0.5600 0.5600 0.5630 0.5650 0.5680
7.152047 0.5700 0.5700 0.5720 0.5750 0.5750
7.186000 0.5740 0.5720 0.5670 0.5600 0.5510
7.220047 0.5430 0.5310 0.5170 0.5040 0.4970
7.254000 0.4880 0.4710 0.4580 0.4490 0.4480
7.288047 0.4490 0.4560 0.4630 0.4710 0.4850
7.322000 0.4950 0.5120 0.5240 0.5360 0.5480
7.356047 0.5570 0.5680 0.5750 0.5800 0.5840
7.390000 0.5870 0.5910 0.5940 0.5960 0.5970
7.424047 0.5990 0.6010 0.6010 0.6030 0.6060
7.458000 0.6130 0.6160 0.6210 0.6250 0.6300
7.492047 0.6320 0.6330 0.6400 0.6430 0.6470
7.526000 0.6520 0.6590 0.6660 0.6720 0.6810
7.560047 0.6860 0.6910 0.7000 0.7030 0.7060
7.595000 0.7080 0.7100 0.7100 0.7100 0.7120
7.629047 0.7120 0.7130 0.7130 0.7130 0.7130
7.663000 0.7130 0.7130 0.7130 0.7120 0.7120
7.697047 0.7120 0.7120 0.7120 0.7100 0.7100
7.731000 0.7080 0.7080 0.7080 0.7030 0.7010
7.765047 0.6980 0.6960 0.6930 0.6910 0.6840
7.799000 0.6810 0.6690 0.6600 0.6550 0.6470
7.833047 0.6400 0.6350 0.6180 0.5990 0.5840
7.867000 0.5670 0.5550 0.5400 0.5220 0.5050
7.901047 0.4990 0.4900 0.4730 0.4580 0.4390
7.935000 0.4200 0.3980 0.3850 0.3740 0.3610
7.969047 0.3500 0.3450 0.3370 0.3300 0.3250
8.003000 0.3180 0.3110 0.3030 0.3010 0.3010
8.037047 0.2980 0.2940 0.2930 0.2910 0.2910
8.071000 0.2860 0.2840 0.2820 0.2820 0.2820
8.105047 0.2820 0.2820 0.2810 0.2790 0.2790
8.139000 0.2790 0.2790 0.2790 0.2790 0.2790
8.173047 0.2810 0.2810 0.2820 0.2840 0.2890
8.207000 0.2940 0.2990 0.3040 0.3110 0.3180
8.241047 0.3250 0.3300 0.3320 0.3350 0.3400
8.275000 0.3450 0.3500 0.3500 0.3520 0.3540
8.309047 0.3570 0.3610 0.3640 0.3660 0.3710
8.343000 0.3730 0.3730 0.3740 0.3760 0.3780
8.377047 0.3810 0.3830 0.3850 0.3910 0.3950
8.411000 0.3980 0.4000 0.4020 0.4050 0.4070
8.445047 0.4100 0.4100 0.4120 0.4130 0.4130
8.479000 0.4150 0.4170 0.4200 0.4240 0.4240
8.513047 0.4250 0.4290 0.4310 0.4310 0.4310
8.547000 0.4320 0.4320 0.4320 0.4320 0.4320
8.581047 0.4320 0.4320 0.4320 0.4320 0.4320
8.615000 0.4310 0.4310 0.4310 0.4310 0.4310
8.649047 0.4290 0.4310 0.4290 0.4290 0.4290
8.684000 0.4250 0.4240 0.4220 0.4220 0.4200
8.718047 0.4220 0.4220 0.4240 0.4220 0.4220
8.752000 0.4200 0.4190 0.4150 0.4130 0.4130
8.786047 0.4130 0.4130 0.4120 0.4080 0.4080
8.820000 0.4070 0.4070 0.4050 0.4050 0.4030
8.854047 0.4030 0.4030 0.4030 0.4030 0.4030
8.888000 0.4030 0.4030 0.4020 0.4020 0.4020
8.922047 0.4020 0.4020 0.4020 0.4000 0.4000
8.956000 0.4000 0.4000 0.4000 0.4000 0.4020
8.990047 0.4020 0.4020 0.4020 0.4020 0.4030
9.024000 0.4030 0.4050 0.4050 0.4070 0.4080
9.058047 0.4080 0.4100 0.4100 0.4100 0.4120
9.092000 0.4150 0.4190 0.4200 0.4240 0.4290
9.126047 0.4310 0.4320 0.4340 0.4340 0.4360
9.160000 0.4370 0.4410 0.4420 0.4490 0.4490
9.194047 0.4510 0.4510 0.4530 0.4560 0.4590
9.228000 0.4590 0.4610 0.4630 0.4650 0.4660
9.262047 0.4660 0.4680 0.4700 0.4710 0.4750
9.296000 0.4800 0.4820 0.4870 0.4900 0.4900
9.330047 0.4920 0.4940 0.4990 0.5040 0.5040
9.364000 0.5070 0.5090 0.5120 0.5160 0.5190
9.398047 0.5240 0.5280 0.5330 0.5380 0.5430
9.432000 0.5460 0.5500 0.5550 0.5600 0.5650
9.466047 0.5680 0.5680 0.5700 0.5720 0.5750
9.500000 0.5790 0.5790 0.5800 0.5840 0.5840
9.534047 0.5870 0.5910 0.5920 0.5970 0.5970
9.568000 0.5990 0.5990 0.6030 0.6040 0.6060
9.602047 0.6090 0.6140 0.6200 0.6200 0.6260
9.636000 0.6300 0.6330 0.6400 0.6420 0.6490
9.670047 0.6500 0.6520 0.6540 0.6590 0.6620
9.704000 0.6640 0.6660 0.6690 0.6740 0.6790
9.738047 0.6790 0.6810 0.6830 0.6840 0.6890
9.772000 0.6930 0.6980 0.7010 0.7060 0.7080
9.806047 0.7130 0.7200 0.7220 0.7220 0.7240
9.841000 0.7300 0.7340 0.7390 0.7410 0.7420
9.875047 0.7490 0.7490 0.7510 0.7520 0.7580
9.909000 0.7610 0.7630 0.7660 0.7700 0.7730
9.943047 0.7780 0.7800 0.7810 0.7870 0.7880
9.977000 0.7900 0.7950 0.8040 0.8100 0.8160
10.011047 0.8210 0.8270 0.8330 0.8380 0.8410
10.045000 0.8440 0.8500 0.8530 0.8600 0.8620
10.079047 0.8650 0.8680 0.8700 0.8720 0.8730
10.113000 0.8770 0.8800 0.8840 0.8890 0.8920
10.147047 0.8940 0.8940 0.8960 0.8990 0.9010
10.181000 0.9010 0.9010 0.9020 0.9020 0.9040
10.215047 0.9060 0.9060 0.9080 0.9080 0.9110
10.249000 0.9130 0.9160 0.9210 0.9230 0.9250
10.283047 0.9300 0.9310 0.9310 0.9330 0.9330
10.317000 0.9330 0.9330 0.9350 0.9350 0.9360
10.351047 0.9380 0.9380 0.9400 0.9400 0.9400
10.385000 0.9400 0.9400 0.9420 0.9420 0.9430
10.419047 0.9450 0.9450 0.9430 0.9450 0.9470
10.453000 0.9500 0.9520 0.9520 0.9540 0.9550
10.487047 0.9550 0.9570 0.9550 0.9590 0.9570
10.521000 0.9550 0.9540 0.9540 0.9540 0.9540
10.555047 0.9540 0.9540 0.9540 0.9540 0.9550
10.589000 0.9550 0.9570 0.9570 0.9570 0.9590
10.623047 0.9590 0.9590 0.9590 0.9590 0.9600
10.657000 0.9600 0.9600 0.9600 0.9600 0.9600
10.691047 0.9620 0.9600 0.9650 0.9650 0.9650
10.725000 0.9650 0.9670 0.9670 0.9670 0.9670
10.759047 0.9690 0.9690 0.9690 0.9710 0.9710
10.793000 0.9710 0.9710 0.9710 0.9710 0.9690
10.827047 0.9670 0.9650 0.9650 0.9650 0.9640
10.861000 0.9640 0.9640 0.9640 0.9640 0.9640
10.895047 0.9640 0.9650 0.9650 0.9650 0.9650
10.930000 0.9650 0.9670 0.9670 0.9690 0.9690
10.964047 0.9690 0.9710 0.9710 0.9710 0.9720
10.998000 0.9720 0.9740 0.9760 0.9770 0.9790
11.032047 0.9810 0.9810 0.9790 0.9760 0.9720
11.066000 0.9710 0.9690 0.9650 0.9640 0.9640
11.100047 0.9600 0.9600 0.9590 0.9590 0.9550
11.134000 0.9550 0.9550 0.9550 0.9550 0.9550
11.168047 0.9550 0.9550 0.9570 0.9570 0.9570
11.202000 0.9570 0.9570 0.9570 0.9590 0.9590
11.236047 0.9640 0.9640 0.9600 0.9600 0.9600
11.270000 0.9600 0.9620 0.9620 0.9620 0.9620
11.304047 0.9620 0.9640 0.9620 0.9620 0.9620
11.338000 0.9620 0.9620 0.9600 0.9600 0.9600
11.372047 0.9600 0.9600 0.9590 0.9590 0.9600
11.406000 0.9620 0.9620 0.9620 0.9620 0.9620
11.440047 0.9600 0.9600 0.9600 0.9600 0.9600
11.474000 0.9600 0.9600 0.9600 0.9600 0.9600
11.508047 0.9600 0.9620 0.9670 0.9690 0.9720
11.542000 0.9760 0.9790 0.9810 0.9810 0.9820
11.576047 0.9860 0.9910 1.0010 1.0000 0.9980
11.610000 0.9930 0.9880 0.9810 0.9770 0.9740
11.644047 0.9720 0.9710 0.9710 0.9690 0.9690
11.678000 0.9670 0.9670 0.9670 0.9650 0.9650
11.712047 0.9650 0.9650 0.9640 0.9640 0.9640
11.746000 0.9650 0.9650 0.9650 0.9650 0.9650
11.780047 0.9650 0.9650 0.9670 0.9670 0.9690
11.814000 0.9690 0.9690 0.9710 0.9710 0.9720
11.848047 0.9720 0.9720 0.9740 0.9740 0.9740
11.882000 0.9760 0.9770 0.9770 0.9790 0.9810
11.916047 0.9810 0.9820 0.9840 0.9880 0.9880
11.950000 0.9890 0.9890 0.9910 0.9910 0.9930
11.984047 0.9930 0.9960 0.9940 0.9960 0.9960
12.018000 0.9980 0.9980 0.9940 0.9930 0.9930
12.052047 0.9930 0.9910 0.9910 0.9910 0.9910
12.087000 0.9930 0.9930 0.9890 0.9890 0.9860
12.121047 0.9860 0.9840 0.9820 0.9810 0.9810
12.155000 0.9810 0.9810 0.9810 0.9790 0.9790
12.189047 0.9770 0.9770 0.9760 0.9760 0.9760
12.223000 0.9760 0.9770 0.9770 0.9820 0.9820
12.257047 0.9810 0.9810 0.9790 0.9790 0.9770
12.291000 0.9790 0.9790 0.9790 0.9770 0.9770
12.325047 0.9770 0.9790 0.9790 0.9790 0.9790
12.359000 0.9790 0.9790 0.9810 0.9810 0.9810
12.393047 0.9810 0.9810 0.9820 0.9820 0.9840
12.427000 0.9860 0.9880 0.9890 0.9890 0.9910
12.461047 0.9890 0.9890 0.9840 0.9820 0.9820
12.495000 0.9810 0.9810 0.9790 0.9790 0.9790
12.529047 0.9790 0.9790 0.9790 0.9810 0.9820
12.563000 0.9860 0.9890 0.9890 0.9890 0.9890
12.597047 0.9890 0.9890 0.9890 0.9880 0.9880
12.631000 0.9880 0.9880 0.9860 0.9860 0.9860
12.665047 0.9840 0.9840 0.9840 0.9840 0.9840
12.699000 0.9840 0.9840 0.9840 0.9840 0.9840
12.733047 0.9860 0.9860 0.9860 0.9860 0.9880
12.767000 0.9880 0.9880 0.9880 0.9880 0.9880
12.801047 0.9880 0.9880 0.9880 0.9880 0.9880
12.835000 0.9880 0.9880 0.9860 0.9860 0.9860
12.869047 0.9860 0.9860 0.9860 0.9860 0.9840
12.903000 0.9840 0.9840 0.9840 0.9840 0.9840
12.937047 0.9840 0.9840 0.9840 0.9860 0.9860
12.971000 0.9860 0.9860 0.9860 0.9860 0.9860
13.005047 0.9860 0.9880 0.9880 0.9860 0.9840
13.039000 0.9820 0.9840 0.9820 0.9820 0.9820
13.073047 0.9820 0.9810 0.9810 0.9810 0.9810
13.107000 0.9810 0.9810 0.9810 0.9810 0.9810
13.141047 0.9810 0.9820 0.9810 0.9810 0.9810
13.175000 0.9810 0.9810 0.9810 0.9810 0.9810
13.209047 0.9810 0.9810 0.9810 0.9810 0.9790
13.244000 0.9790 0.9790 0.9770 0.9770 0.9760
13.278047 0.9760 0.9740 0.9720 0.9710 0.9710
13.312000 0.9710 0.9690 0.9690 0.9670 0.9650
13.346047 0.9640 0.9620 0.9620 0.9620 0.9600
13.380000 0.9590 0.9500 0.9500 0.9430 0.9360
13.414047 0.9310 0.9280 0.9250 0.9190 0.9140
13.448000 0.9110 0.9090 0.9060 0.8990 0.8920
13.482047 0.8890 0.8820 0.8750 0.8670 0.8600
13.516000 0.8460 0.8380 0.8310 0.8240 0.8160
13.550047 0.8040 0.7970 0.7870 0.7780 0.7700
13.584000 0.7630 0.7540 0.7470 0.7370 0.7240
13.618047 0.7100 0.6960 0.6860 0.6780 0.6690
13.652000 0.6600 0.6540 0.6470 0.6370 0.6260
13.686047 0.6140 0.6040 0.5960 0.5860 0.5740
13.720000 0.5580 0.5500 0.5360 0.5260 0.5160
13.754047 0.5020 0.5000 0.4970 0.4900 0.4770
13.788000 0.4660 0.4650 0.4530 0.4410 0.4270
13.822047 0.4170 0.4100 0.4020 0.3980 0.3950
13.856000 0.3880 0.3880 0.3830 0.3760 0.3710
13.890047 0.3670 0.3670 0.3660 0.3660 0.3660
13.924000 0.3640 0.3640 0.3620 0.3620 0.3640
13.958047 0.3640 0.3640 0.3660 0.3670 0.3660
13.992000 0.3670 0.3690 0.3730 0.3740 0.3760
14.026047 0.3790 0.3830 0.3880 0.3910 0.4000
14.060000 0.4020 0.4100 0.4120 0.4130 0.4200
14.094047 0.4240 0.4310 0.4320 0.4360 0.4420
14.128000 0.4510 0.4540 0.4610 0.4660 0.4700
14.162047 0.4730 0.4750 0.4820 0.4830 0.4850
14.196000 0.4870 0.4880 0.4900 0.4920 0.4920
14.230047 0.4920 0.4940 0.4950 0.5000 0.5020
14.264000 0.5040 0.5050 0.5090 0.5110 0.5140
14.298047 0.5170 0.5210 0.5240 0.5290 0.5310
14.333000 0.5310 0.5330 0.5330 0.5330 0.5340
14.367047 0.5360 0.5360 0.5360 0.5380 0.5380
14.401000 0.5380 0.5400 0.5380 0.5400 0.5400
14.435047 0.5400 0.5400 0.5400 0.5410 0.5410
14.469000 0.5410 0.5430 0.5450 0.5450 0.5450
14.503047 0.5430 0.5430 0.5430 0.5430 0.5430
14.537000 0.5450 0.5460 0.5460 0.5500 0.5500
14.571047 0.5500 0.5450 0.5450 0.5460 0.5450
14.605000 0.5450 0.5460 0.5450 0.5450 0.5450
14.639047 0.5450 0.5450 0.5450 0.5450 0.5450
14.673000 0.5450 0.5450 0.5450 0.5450 0.5430
14.707047 0.5430 0.5410 0.5410 0.5410 0.5410
14.741000 0.5410 0.5430 0.5430 0.5430 0.5430
14.775047 0.5430 0.5430 0.5430 0.5430 0.5410
14.809000 0.5430 0.5430 0.5430 0.5410 0.5410
14.843047 0.5410 0.5410 0.5400 0.5360 0.5340
14.877000 0.5330 0.5330 0.5360 0.5360 0.5340
14.911047 0.5340 0.5330 0.5330 0.5310 0.5310
14.945000 0.5310 0.5310 0.5310 0.5290 0.5290
14.979047 0.5280 0.5280 0.5280 0.5280 0.5290
15.013000 0.5290 0.5280 0.5260 0.5260 0.5260
15.047047 0.5280 0.5280 0.5280 0.5280 0.5280
15.081000 0.5280 0.5260 0.5260 0.5240 0.5240
15.115047 0.5220 0.5220 0.5240 0.5240 0.5220
15.149000 0.5220 0.5210 0.5210 0.5170 0.5160
15.183047 0.5140 0.5140 0.5120 0.5140 0.5140
15.217000 0.5120 0.5120 0.5120 0.5120 0.5120
15.251047 0.5120 0.5110 0.5120 0.5120 0.5120
15.285000 0.5120 0.5110 0.5110 0.5110 0.5110
15.319047 0.5110 0.5110 0.5110 0.5110 0.5110
15.353000 0.5110 0.5110 0.5110 0.5110 0.5110
15.387047 0.5090 0.5090 0.5090 0.5090 0.5090
15.421000 0.5090 0.5090 0.5090 0.5090 0.5090
15.455047 0.5090 0.5110 0.5120 0.5140 0.5120
15.490000 0.5120 0.5120 0.5120 0.5120 0.5120
15.524047 0.5120 0.5120 0.5110 0.5110 0.5110
15.558000 0.5120 0.5120 0.5120 0.5120 0.5120
15.592047 0.5140 0.5140 0.5140 0.5140 0.5140
15.626000 0.5140 0.5120 0.5140 0.5160 0.5170
15.660047 0.5190 0.5190 0.5210 0.5220 0.5220
15.694000 0.5240 0.5280 0.5280 0.5280 0.5280
15.728047 0.5290 0.5310 0.5290 0.5310 0.5330
15.762000 0.5330 0.5330 0.5330 0.5330 0.5330
15.796047 0.5310 0.5330 0.5310 0.5310 0.5310
15.830000 0.5310 0.5330 0.5310 0.5310 0.5310
15.864047 0.5290 0.5290 0.5290 0.5310 0.5310
15.898000 0.5290 0.5290 0.5310 0.5310 0.5290
15.932047 0.5290 0.5310 0.5360 0.5380 0.5380
15.966000 0.5400 0.5400 0.5410 0.5430 0.5460
16.000047 0.5480 0.5460
##END=
