##TITLE=Urea, 1-(2',4'-di-tert-butylphenyl)-3,3-dimethyl-
##JCAMP-DX=4.24
##DATA TYPE=INFRARED SPECTRUM
##CLASS=COBLENTZ III
##ORIGIN=MONSANTO (J. FREEMAN)
##OWNER=Copyright (C) 1987 by the Coblentz Society
Collection (C) 2018 copyright by the U.S. Secretary of Commerce
on behalf of the United States of America. All rights reserved.
##DATE=1959/03/31
##NAMES=N'-(2,4-ditert-butylphenyl)-N,N-dimethylurea
Urea, 3-(2,4-di-tert-butylphenyl)-1,1-dimethyl-
##MOLFORM=C17 H28 N2 O
##MP=172 C
##SOURCE REFERENCE=COBLENTZ NO. 9301
##$NIST ID=B6009301
##$NIST SOURCE=COBLENTZ
##$NIST IMAGE=cob9301
##SPECTROMETER/DATA SYSTEM=BECKMAN IR-4 (HYBRID PRISM-GRATING)
##INSTRUMENT PARAMETERS=NaCl PRISM
##STATE=SOLID (NUJOL MULL)
$$SPECTRAL CONTAMINATION DUE TO OIL AROUND 2900, 1450, 720 CM^-^1
##SAMPLING PROCEDURE=TRANSMISSION
##RESOLUTION=2
##DATA PROCESSING=DIGITIZED BY COBLENTZ SOCIETY (BATCH II) FROM HARD COPY
##XUNITS=1/CM
##YUNITS=TRANSMITTANCE
##XFACTOR=1.0
##YFACTOR=1
##FIRSTX=626
##LASTX=4000
##FIRSTY=0.8888
##MAXX=4000
##MINX=626
##MAXY=0.9659
##MINY=0.0065
##NPOINTS=3375
##XYDATA=(X++(Y..Y))
626.000000 0.8888 0.8873 0.8889 0.8909 0.8913
631.000000 0.8910 0.8907 0.8911 0.8933 0.8927
636.000000 0.8949 0.8981 0.8991 0.8995 0.8997
641.000000 0.8995 0.8991 0.8983 0.8968 0.8952
646.000000 0.8931 0.8909 0.8867 0.8751 0.8620
651.000000 0.8493 0.8480 0.8532 0.8573 0.8635
656.000000 0.8727 0.8802 0.8904 0.9007 0.9094
661.000000 0.9172 0.9246 0.9292 0.9345 0.9425
666.000000 0.9496 0.9536 0.9552 0.9568 0.9581
671.000000 0.9614 0.9607 0.9619 0.9632 0.9644
676.000000 0.9646 0.9627 0.9583 0.9531 0.9472
681.000000 0.9415 0.9443 0.9474 0.9509 0.9540
686.000000 0.9563 0.9585 0.9607 0.9622 0.9632
691.000000 0.9637 0.9641 0.9645 0.9648 0.9651
696.000000 0.9654 0.9657 0.9659 0.9657 0.9647
701.000000 0.9638 0.9627 0.9602 0.9578 0.9554
706.000000 0.9518 0.9482 0.9444 0.9388 0.9332
711.000000 0.9273 0.9211 0.9149 0.9087 0.8995
716.000000 0.8902 0.8787 0.8672 0.8531 0.8386
721.000000 0.8330 0.8339 0.8360 0.8386 0.8442
726.000000 0.8520 0.8598 0.8647 0.8689 0.8717
731.000000 0.8724 0.8718 0.8697 0.8636 0.8558
736.000000 0.8485 0.8484 0.8473 0.8570 0.8704
741.000000 0.8831 0.8923 0.9004 0.9055 0.9098
746.000000 0.9107 0.9130 0.9022 0.8902 0.8762
751.000000 0.8641 0.8626 0.8782 0.8938 0.9058
756.000000 0.9120 0.9120 0.9102 0.9066 0.8925
761.000000 0.8762 0.8401 0.7837 0.7275 0.6715
766.000000 0.6291 0.6203 0.6471 0.7097 0.7781
771.000000 0.8311 0.8490 0.8663 0.8837 0.8983
776.000000 0.9104 0.9192 0.9238 0.9277 0.9303
781.000000 0.9334 0.9368 0.9402 0.9430 0.9459
786.000000 0.9486 0.9508 0.9525 0.9542 0.9557
791.000000 0.9568 0.9579 0.9587 0.9595 0.9609
796.000000 0.9604 0.9608 0.9608 0.9606 0.9605
801.000000 0.9599 0.9593 0.9585 0.9572 0.9556
806.000000 0.9537 0.9512 0.9482 0.9406 0.9235
811.000000 0.8963 0.8529 0.8211 0.7338 0.6456
816.000000 0.5576 0.4699 0.3823 0.3668 0.5605
821.000000 0.7155 0.8476 0.8723 0.8955 0.9108
826.000000 0.9171 0.9194 0.9206 0.9207 0.9201
831.000000 0.9186 0.9164 0.9193 0.9258 0.9312
836.000000 0.9354 0.9392 0.9414 0.9429 0.9437
841.000000 0.9443 0.9448 0.9453 0.9456 0.9459
846.000000 0.9461 0.9465 0.9469 0.9474 0.9475
851.000000 0.9456 0.9478 0.9479 0.9479 0.9480
856.000000 0.9480 0.9480 0.9480 0.9481 0.9481
861.000000 0.9480 0.9480 0.9479 0.9478 0.9474
866.000000 0.9469 0.9466 0.9460 0.9447 0.9434
871.000000 0.9421 0.9408 0.9393 0.9377 0.9359
876.000000 0.9333 0.9307 0.9269 0.9223 0.9138
881.000000 0.8968 0.8403 0.7910 0.7418 0.6927
886.000000 0.6769 0.7216 0.7793 0.8370 0.8789
891.000000 0.8984 0.9057 0.9112 0.9137 0.9152
896.000000 0.9161 0.9168 0.9172 0.9188 0.9168
901.000000 0.9165 0.9160 0.9155 0.9140 0.9117
906.000000 0.9086 0.9053 0.9015 0.8971 0.8901
911.000000 0.8817 0.8669 0.8332 0.7991 0.7649
916.000000 0.7320 0.7187 0.7172 0.7159 0.7404
921.000000 0.7609 0.7815 0.8036 0.8072 0.8078
926.000000 0.8067 0.8040 0.8037 0.8064 0.8140
931.000000 0.8239 0.8343 0.8459 0.8592 0.8690
936.000000 0.8765 0.8820 0.8862 0.8884 0.8896
941.000000 0.8903 0.8910 0.8914 0.8916 0.8918
946.000000 0.8920 0.8918 0.8913 0.8907 0.8899
951.000000 0.8892 0.8884 0.8874 0.8864 0.8863
956.000000 0.8881 0.8898 0.8911 0.8925 0.8933
961.000000 0.8940 0.8942 0.8941 0.8938 0.8935
966.000000 0.8926 0.8918 0.8909 0.8901 0.8892
971.000000 0.8885 0.8888 0.8892 0.8896 0.8901
976.000000 0.8912 0.8922 0.8935 0.8953 0.8971
981.000000 0.8987 0.9003 0.9018 0.9034 0.9048
986.000000 0.9061 0.9073 0.9086 0.9093 0.9099
991.000000 0.9104 0.9109 0.9106 0.9117 0.9118
996.000000 0.9118 0.9119 0.9120 0.9121 0.9122
1001.000000 0.9121 0.9120 0.9120 0.9118 0.9110
1006.000000 0.9102 0.9094 0.9087 0.9070 0.9047
1011.000000 0.9024 0.9002 0.8966 0.8929 0.8892
1016.000000 0.8840 0.8721 0.8597 0.8473 0.8347
1021.000000 0.8224 0.8100 0.7976 0.7866 0.7800
1026.000000 0.7707 0.7625 0.7562 0.7542 0.7535
1031.000000 0.7565 0.7608 0.7666 0.7739 0.7846
1036.000000 0.7990 0.8137 0.8240 0.8347 0.8492
1041.000000 0.8554 0.8595 0.8619 0.8642 0.8656
1046.000000 0.8671 0.8678 0.8681 0.8648 0.8679
1051.000000 0.8675 0.8664 0.8649 0.8620 0.8590
1056.000000 0.8553 0.8507 0.8462 0.8372 0.8279
1061.000000 0.8187 0.8076 0.7962 0.7857 0.7776
1066.000000 0.7716 0.7668 0.7637 0.7627 0.7626
1071.000000 0.7637 0.7650 0.7728 0.7830 0.7927
1076.000000 0.8013 0.8087 0.8151 0.8208 0.8242
1081.000000 0.8274 0.8303 0.8319 0.8331 0.8333
1086.000000 0.8319 0.8288 0.8228 0.8043 0.7857
1091.000000 0.7671 0.7487 0.7303 0.7269 0.7485
1096.000000 0.7753 0.8019 0.8255 0.8378 0.8439
1101.000000 0.8475 0.8494 0.8503 0.8509 0.8509
1106.000000 0.8506 0.8505 0.8502 0.8491 0.8478
1111.000000 0.8457 0.8425 0.8386 0.8344 0.8300
1116.000000 0.8230 0.8157 0.8070 0.7822 0.7451
1121.000000 0.7081 0.6711 0.6342 0.6071 0.6016
1126.000000 0.6019 0.6366 0.6780 0.7193 0.7605
1131.000000 0.7958 0.8181 0.8285 0.8307 0.8314
1136.000000 0.8314 0.8307 0.8302 0.8288 0.8273
1141.000000 0.8245 0.8217 0.8185 0.8155 0.8123
1146.000000 0.8095 0.8068 0.8042 0.8016 0.7986
1151.000000 0.7953 0.7921 0.7888 0.7856 0.7826
1156.000000 0.7804 0.7834 0.7843 0.7863 0.7888
1161.000000 0.7908 0.7929 0.7948 0.7954 0.7946
1166.000000 0.7954 0.7941 0.7917 0.7887 0.7857
1171.000000 0.7826 0.7793 0.7761 0.7727 0.7694
1176.000000 0.7660 0.7623 0.7586 0.7546 0.7500
1181.000000 0.7452 0.7404 0.7353 0.7299 0.7245
1186.000000 0.7184 0.7107 0.7030 0.6934 0.6804
1191.000000 0.5901 0.5410 0.4953 0.4756 0.4682
1196.000000 0.4651 0.4650 0.4654 0.4684 0.4804
1201.000000 0.4938 0.5138 0.5288 0.5384 0.5443
1206.000000 0.5466 0.5479 0.5491 0.5562 0.5992
1211.000000 0.6219 0.6525 0.6730 0.6974 0.7192
1216.000000 0.7322 0.7445 0.7555 0.7641 0.7699
1221.000000 0.7738 0.7761 0.7778 0.7780 0.7759
1226.000000 0.7766 0.7750 0.7731 0.7712 0.7673
1231.000000 0.7632 0.7563 0.7497 0.7426 0.7317
1236.000000 0.7205 0.7106 0.7023 0.6931 0.6767
1241.000000 0.6521 0.6197 0.5867 0.5538 0.5210
1246.000000 0.4882 0.4554 0.4227 0.4081 0.4039
1251.000000 0.4086 0.4186 0.4285 0.4385 0.4484
1256.000000 0.4543 0.4536 0.4392 0.4236 0.4080
1261.000000 0.3924 0.3505 0.3613 0.3485 0.3489
1266.000000 0.3724 0.4055 0.4385 0.4716 0.5045
1271.000000 0.5376 0.5674 0.5713 0.5735 0.5748
1276.000000 0.5759 0.5764 0.5769 0.5773 0.5775
1281.000000 0.5776 0.5776 0.5770 0.5759 0.5669
1286.000000 0.5530 0.5391 0.5252 0.5114 0.5074
1291.000000 0.5089 0.5250 0.5455 0.5661 0.5867
1296.000000 0.6073 0.6278 0.6482 0.6687 0.6802
1301.000000 0.6846 0.6878 0.6905 0.6931 0.6957
1306.000000 0.6982 0.7017 0.7059 0.7108 0.7167
1311.000000 0.7222 0.7271 0.7319 0.7366 0.7410
1316.000000 0.7454 0.7499 0.7546 0.7591 0.7633
1321.000000 0.7664 0.7683 0.7691 0.7691 0.7691
1326.000000 0.7690 0.7689 0.7688 0.7688 0.7687
1331.000000 0.7686 0.7717 0.7683 0.7678 0.7671
1336.000000 0.7664 0.7653 0.7633 0.7613 0.7578
1341.000000 0.7543 0.7506 0.7469 0.7433 0.7394
1346.000000 0.7343 0.7291 0.7237 0.7181 0.7124
1351.000000 0.7067 0.7010 0.6942 0.6860 0.6779
1356.000000 0.6699 0.6623 0.6551 0.6480 0.6408
1361.000000 0.6291 0.6159 0.5880 0.5402 0.4909
1366.000000 0.4416 0.3923 0.3431 0.2940 0.2555
1371.000000 0.2555 0.2582 0.2636 0.2691 0.2743
1376.000000 0.2755 0.2711 0.2547 0.2372 0.2197
1381.000000 0.2022 0.1847 0.1673 0.1536 0.1499
1386.000000 0.1489 0.1491 0.1499 0.1498 0.1729
1391.000000 0.2080 0.2429 0.2778 0.3126 0.3474
1396.000000 0.3822 0.4169 0.4508 0.4651 0.4743
1401.000000 0.4842 0.4950 0.5112 0.5355 0.5392
1406.000000 0.5430 0.5440 0.5436 0.5428 0.5420
1411.000000 0.5412 0.5408 0.5421 0.5496 0.5717
1416.000000 0.6215 0.6463 0.6615 0.6723 0.6834
1421.000000 0.6952 0.7151 0.7245 0.7270 0.7290
1426.000000 0.7298 0.7299 0.7304 0.7300 0.7296
1431.000000 0.7290 0.7254 0.7182 0.7108 0.6989
1436.000000 0.6803 0.6611 0.6420 0.6229 0.6037
1441.000000 0.5847 0.5656 0.5466 0.5276 0.5086
1446.000000 0.4897 0.4707 0.4519 0.4330 0.4141
1451.000000 0.3953 0.3765 0.3577 0.3390 0.3203
1456.000000 0.3034 0.2871 0.2714 0.2580 0.2450
1461.000000 0.2324 0.2211 0.2087 0.1835 0.1694
1466.000000 0.1614 0.1539 0.1468 0.1407 0.1354
1471.000000 0.1303 0.1254 0.1229 0.1215 0.1212
1476.000000 0.1217 0.1236 0.1261 0.1289 0.1333
1481.000000 0.1396 0.1503 0.1617 0.1779 0.2006
1486.000000 0.2233 0.2459 0.2685 0.2909 0.3030
1491.000000 0.3035 0.3035 0.3034 0.3033 0.3033
1496.000000 0.3038 0.3064 0.3105 0.3153 0.3185
1501.000000 0.3203 0.3216 0.3225 0.3214 0.3146
1506.000000 0.3065 0.2985 0.2904 0.2824 0.2743
1511.000000 0.2662 0.2583 0.2502 0.2422 0.2343
1516.000000 0.2263 0.2183 0.2148 0.2134 0.2120
1521.000000 0.2098 0.2072 0.2039 0.2001 0.1964
1526.000000 0.1917 0.1863 0.1807 0.1753 0.1699
1531.000000 0.1632 0.1564 0.1497 0.1433 0.1378
1536.000000 0.1338 0.1311 0.1293 0.1279 0.1272
1541.000000 0.1293 0.1274 0.1286 0.1316 0.1492
1546.000000 0.1695 0.1898 0.2099 0.2301 0.2503
1551.000000 0.2705 0.2906 0.3107 0.3308 0.3508
1556.000000 0.3709 0.3908 0.4108 0.4308 0.4507
1561.000000 0.4694 0.4825 0.4899 0.4963 0.5015
1566.000000 0.5059 0.5103 0.5148 0.5194 0.5240
1571.000000 0.5803 0.6221 0.6357 0.6430 0.6490
1576.000000 0.6536 0.6576 0.6616 0.6656 0.6692
1581.000000 0.6724 0.6755 0.6786 0.6810 0.6830
1586.000000 0.6850 0.6867 0.6880 0.6891 0.6897
1591.000000 0.6897 0.6892 0.6886 0.6880 0.6871
1596.000000 0.6950 0.6845 0.6826 0.6806 0.6781
1601.000000 0.6744 0.6677 0.6555 0.6394 0.6232
1606.000000 0.6070 0.5910 0.5749 0.5588 0.5427
1611.000000 0.5267 0.5108 0.4948 0.4789 0.4629
1616.000000 0.4528 0.4515 0.4501 0.4502 0.4576
1621.000000 0.4665 0.4754 0.4833 0.4862 0.4864
1626.000000 0.4694 0.4346 0.3977 0.3609 0.3242
1631.000000 0.2874 0.2508 0.2141 0.1776 0.1410
1636.000000 0.1045 0.0806 0.0721 0.0677 0.0645
1641.000000 0.0627 0.0616 0.0608 0.0606 0.0606
1646.000000 0.0607 0.0608 0.0610 0.0617 0.0626
1651.000000 0.0644 0.0674 0.0751 0.0973 0.1226
1656.000000 0.1412 0.1621 0.1871 0.2121 0.2371
1661.000000 0.2620 0.2869 0.3118 0.3366 0.3615
1666.000000 0.3862 0.4110 0.4357 0.4604 0.4851
1671.000000 0.5097 0.5344 0.5590 0.5836 0.6081
1676.000000 0.6326 0.6580 0.6832 0.6933 0.7062
1681.000000 0.7256 0.7428 0.7523 0.7580 0.7636
1686.000000 0.7692 0.7748 0.7804 0.7852 0.7898
1691.000000 0.7944 0.7990 0.8036 0.8079 0.8118
1696.000000 0.8154 0.8191 0.8227 0.8263 0.8300
1701.000000 0.8336 0.8374 0.8411 0.8447 0.8484
1706.000000 0.8542 0.8611 0.8675 0.8727 0.8767
1711.000000 0.8807 0.8847 0.8883 0.8915 0.8945
1716.000000 0.8976 0.9006 0.9033 0.9054 0.9073
1721.000000 0.9092 0.9111 0.9130 0.9150 0.9166
1726.000000 0.9180 0.9193 0.9205 0.9219 0.9232
1731.000000 0.9245 0.9258 0.9271 0.9283 0.9291
1736.000000 0.9296 0.9301 0.9306 0.9311 0.9316
1741.000000 0.9321 0.9326 0.9331 0.9336 0.9341
1746.000000 0.9345 0.9349 0.9351 0.9353 0.9354
1751.000000 0.9356 0.9358 0.9359 0.9361 0.9362
1756.000000 0.9363 0.9361 0.9359 0.9356 0.9354
1761.000000 0.9351 0.9349 0.9347 0.9401 0.9343
1766.000000 0.9340 0.9338 0.9334 0.9327 0.9320
1771.000000 0.9314 0.9307 0.9300 0.9293 0.9286
1776.000000 0.9279 0.9272 0.9265 0.9257 0.9248
1781.000000 0.9240 0.9234 0.9236 0.9238 0.9241
1786.000000 0.9244 0.9248 0.9252 0.9256 0.9261
1791.000000 0.9265 0.9270 0.9275 0.9281 0.9286
1796.000000 0.9292 0.9299 0.9310 0.9322 0.9333
1801.000000 0.9345 0.9357 0.9369 0.9380 0.9385
1806.000000 0.9386 0.9386 0.9386 0.9386 0.9386
1811.000000 0.9387 0.9387 0.9387 0.9387 0.9387
1816.000000 0.9386 0.9386 0.9386 0.9386 0.9386
1821.000000 0.9385 0.9385 0.9385 0.9385 0.9385
1826.000000 0.9385 0.9384 0.9384 0.9383 0.9383
1831.000000 0.9383 0.9382 0.9381 0.9381 0.9380
1836.000000 0.9380 0.9379 0.9379 0.9378 0.9377
1841.000000 0.9377 0.9377 0.9376 0.9375 0.9375
1846.000000 0.9375 0.9374 0.9374 0.9374 0.9373
1851.000000 0.9373 0.9372 0.9372 0.9372 0.9371
1856.000000 0.9371 0.9371 0.9370 0.9370 0.9370
1861.000000 0.9369 0.9369 0.9368 0.9368 0.9368
1866.000000 0.9368 0.9368 0.9367 0.9367 0.9366
1871.000000 0.9366 0.9366 0.9365 0.9365 0.9365
1876.000000 0.9365 0.9364 0.9364 0.9364 0.9364
1881.000000 0.9364 0.9363 0.9363 0.9363 0.9363
1886.000000 0.9362 0.9362 0.9362 0.9361 0.9361
1891.000000 0.9361 0.9361 0.9360 0.9360 0.9360
1896.000000 0.9360 0.9361 0.9361 0.9361 0.9362
1901.000000 0.9362 0.9362 0.9363 0.9363 0.9363
1906.000000 0.9364 0.9363 0.9361 0.9357 0.9353
1911.000000 0.9349 0.9345 0.9341 0.9336 0.9332
1916.000000 0.9328 0.9323 0.9319 0.9315 0.9311
1921.000000 0.9307 0.9303 0.9299 0.9294 0.9292
1926.000000 0.9293 0.9298 0.9303 0.9308 0.9314
1931.000000 0.9320 0.9326 0.9332 0.9338 0.9344
1936.000000 0.9349 0.9355 0.9361 0.9366 0.9371
1941.000000 0.9377 0.9382 0.9385 0.9385 0.9385
1946.000000 0.9386 0.9386 0.9386 0.9386 0.9386
1951.000000 0.9387 0.9387 0.9387 0.9387 0.9388
1956.000000 0.9388 0.9388 0.9388 0.9388 0.9389
1961.000000 0.9389 0.9389 0.9390 0.9390 0.9390
1966.000000 0.9390 0.9390 0.9390 0.9390 0.9390
1971.000000 0.9390 0.9390 0.9390 0.9390 0.9390
1976.000000 0.9390 0.9391 0.9391 0.9391 0.9391
1981.000000 0.9391 0.9391 0.9390 0.9390 0.9390
1986.000000 0.9390 0.9390 0.9390 0.9389 0.9389
1991.000000 0.9389 0.9389 0.9389 0.9388 0.9388
1996.000000 0.9388 0.9388 0.9388 0.9388 0.9388
2001.000000 0.9387 0.9387 0.9387 0.9387 0.9387
2006.000000 0.9387 0.9386 0.9386 0.9386 0.9386
2011.000000 0.9386 0.9385 0.9385 0.9385 0.9384
2016.000000 0.9384 0.9383 0.9383 0.9383 0.9382
2021.000000 0.9382 0.9382 0.9381 0.9381 0.9380
2026.000000 0.9380 0.9380 0.9379 0.9379 0.9378
2031.000000 0.9378 0.9378 0.9377 0.9377 0.9377
2036.000000 0.9376 0.9376 0.9375 0.9375 0.9375
2041.000000 0.9374 0.9374 0.9373 0.9373 0.9373
2046.000000 0.9372 0.9372 0.9371 0.9371 0.9371
2051.000000 0.9370 0.9370 0.9369 0.9369 0.9368
2056.000000 0.9366 0.9365 0.9364 0.9364 0.9363
2061.000000 0.9362 0.9360 0.9359 0.9359 0.9358
2066.000000 0.9357 0.9355 0.9354 0.9354 0.9353
2071.000000 0.9352 0.9351 0.9349 0.9348 0.9347
2076.000000 0.9347 0.9346 0.9345 0.9344 0.9342
2081.000000 0.9341 0.9340 0.9340 0.9339 0.9338
2086.000000 0.9336 0.9335 0.9335 0.9334 0.9333
2091.000000 0.9332 0.9331 0.9329 0.9328 0.9328
2096.000000 0.9327 0.9326 0.9325 0.9325 0.9324
2101.000000 0.9323 0.9322 0.9321 0.9321 0.9320
2106.000000 0.9319 0.9318 0.9317 0.9316 0.9315
2111.000000 0.9315 0.9314 0.9313 0.9312 0.9312
2116.000000 0.9310 0.9309 0.9309 0.9308 0.9307
2121.000000 0.9306 0.9306 0.9305 0.9304 0.9303
2126.000000 0.9302 0.9301 0.9300 0.9300 0.9299
2131.000000 0.9299 0.9298 0.9297 0.9296 0.9295
2136.000000 0.9294 0.9293 0.9293 0.9292 0.9291
2141.000000 0.9290 0.9290 0.9289 0.9288 0.9286
2146.000000 0.9284 0.9283 0.9281 0.9279 0.9278
2151.000000 0.9277 0.9276 0.9274 0.9272 0.9271
2156.000000 0.9269 0.9268 0.9266 0.9264 0.9263
2161.000000 0.9262 0.9261 0.9259 0.9257 0.9256
2166.000000 0.9254 0.9253 0.9252 0.9250 0.9249
2171.000000 0.9247 0.9246 0.9244 0.9242 0.9241
2176.000000 0.9239 0.9238 0.9237 0.9235 0.9234
2181.000000 0.9232 0.9231 0.9229 0.9228 0.9226
2186.000000 0.9225 0.9224 0.9222 0.9221 0.9219
2191.000000 0.9218 0.9216 0.9214 0.9213 0.9212
2196.000000 0.9211 0.9210 0.9209 0.9207 0.9206
2201.000000 0.9205 0.9203 0.9202 0.9201 0.9200
2206.000000 0.9198 0.9197 0.9196 0.9195 0.9194
2211.000000 0.9193 0.9191 0.9190 0.9189 0.9188
2216.000000 0.9186 0.9185 0.9184 0.9183 0.9182
2221.000000 0.9180 0.9179 0.9178 0.9177 0.9175
2226.000000 0.9174 0.9173 0.9172 0.9171 0.9170
2231.000000 0.9168 0.9167 0.9166 0.9165 0.9164
2236.000000 0.9163 0.9162 0.9161 0.9160 0.9159
2241.000000 0.9158 0.9157 0.9156 0.9156 0.9155
2246.000000 0.9154 0.9153 0.9152 0.9151 0.9150
2251.000000 0.9149 0.9148 0.9147 0.9146 0.9145
2256.000000 0.9145 0.9144 0.9143 0.9142 0.9141
2261.000000 0.9140 0.9139 0.9138 0.9137 0.9136
2266.000000 0.9135 0.9134 0.9134 0.9133 0.9132
2271.000000 0.9131 0.9130 0.9129 0.9128 0.9127
2276.000000 0.9126 0.9125 0.9125 0.9124 0.9124
2281.000000 0.9124 0.9123 0.9123 0.9122 0.9122
2286.000000 0.9121 0.9120 0.9119 0.9119 0.9118
2291.000000 0.9118 0.9117 0.9117 0.9116 0.9116
2296.000000 0.9115 0.9114 0.9113 0.9113 0.9112
2301.000000 0.9112 0.9112 0.9111 0.9111 0.9110
2306.000000 0.9109 0.9108 0.9108 0.9107 0.9107
2311.000000 0.9106 0.9106 0.9105 0.9105 0.9104
2316.000000 0.9103 0.9103 0.9103 0.9103 0.9104
2321.000000 0.9104 0.9105 0.9105 0.9105 0.9105
2326.000000 0.9106 0.9106 0.9107 0.9107 0.9107
2331.000000 0.9107 0.9107 0.9108 0.9108 0.9109
2336.000000 0.9109 0.9110 0.9110 0.9110 0.9110
2341.000000 0.9111 0.9111 0.9111 0.9112 0.9112
2346.000000 0.9113 0.9113 0.9114 0.9115 0.9116
2351.000000 0.9116 0.9117 0.9118 0.9118 0.9119
2356.000000 0.9119 0.9120 0.9120 0.9121 0.9122
2361.000000 0.9123 0.9123 0.9123 0.9123 0.9123
2366.000000 0.9122 0.9122 0.9122 0.9122 0.9122
2371.000000 0.9122 0.9122 0.9122 0.9122 0.9121
2376.000000 0.9121 0.9121 0.9121 0.9121 0.9121
2381.000000 0.9120 0.9120 0.9120 0.9119 0.9119
2386.000000 0.9118 0.9118 0.9118 0.9118 0.9118
2391.000000 0.9117 0.9117 0.9116 0.9116 0.9115
2396.000000 0.9115 0.9114 0.9114 0.9114 0.9111
2401.000000 0.9107 0.9104 0.9100 0.9097 0.9093
2406.000000 0.9089 0.9086 0.9082 0.9078 0.9073
2411.000000 0.9068 0.9061 0.9054 0.9048 0.9041
2416.000000 0.9034 0.9027 0.9020 0.9015 0.9009
2421.000000 0.9005 0.9001 0.8997 0.8993 0.8989
2426.000000 0.8985 0.8980 0.8979 0.8978 0.8977
2431.000000 0.8976 0.8975 0.8975 0.8975 0.8974
2436.000000 0.8973 0.8972 0.8972 0.8972 0.8971
2441.000000 0.8970 0.8969 0.8969 0.8969 0.8969
2446.000000 0.8969 0.8969 0.8969 0.8970 0.8970
2451.000000 0.8971 0.8971 0.8971 0.8971 0.8971
2456.000000 0.8972 0.8972 0.8972 0.8973 0.8973
2461.000000 0.8973 0.8973 0.8973 0.8974 0.8974
2466.000000 0.8975 0.8975 0.8975 0.8975 0.8975
2471.000000 0.8976 0.8976 0.8977 0.8977 0.8977
2476.000000 0.8977 0.8978 0.8979 0.8980 0.8980
2481.000000 0.8981 0.8981 0.8982 0.8983 0.8983
2486.000000 0.8984 0.8985 0.8986 0.8986 0.8986
2491.000000 0.8987 0.8988 0.8989 0.8990 0.8990
2496.000000 0.8991 0.8992 0.8993 0.8993 0.8994
2501.000000 0.8994 0.8995 0.8996 0.8996 0.8996
2506.000000 0.8996 0.8996 0.8996 0.8996 0.8996
2511.000000 0.8996 0.8996 0.8997 0.8997 0.8997
2516.000000 0.8996 0.8996 0.8995 0.8994 0.8993
2521.000000 0.8992 0.8991 0.8990 0.8989 0.8988
2526.000000 0.8987 0.8985 0.8984 0.8982 0.8979
2531.000000 0.8977 0.8975 0.8973 0.8971 0.8969
2536.000000 0.8966 0.8964 0.8962 0.8960 0.8958
2541.000000 0.8956 0.8953 0.8951 0.8949 0.8946
2546.000000 0.8944 0.8941 0.8938 0.8935 0.8932
2551.000000 0.8929 0.8925 0.8922 0.8919 0.8916
2556.000000 0.8913 0.8910 0.8907 0.8904 0.8901
2561.000000 0.8898 0.8895 0.8892 0.8889 0.8885
2566.000000 0.8882 0.8879 0.8876 0.8873 0.8869
2571.000000 0.8866 0.8863 0.8859 0.8856 0.8852
2576.000000 0.8848 0.8845 0.8841 0.8837 0.8833
2581.000000 0.8830 0.8827 0.8823 0.8819 0.8816
2586.000000 0.8812 0.8808 0.8804 0.8801 0.8798
2591.000000 0.8794 0.8791 0.8787 0.8783 0.8779
2596.000000 0.8775 0.8770 0.8766 0.8761 0.8757
2601.000000 0.8753 0.8748 0.8744 0.8739 0.8735
2606.000000 0.8731 0.8727 0.8723 0.8718 0.8714
2611.000000 0.8709 0.8705 0.8701 0.8696 0.8692
2616.000000 0.8687 0.8683 0.8679 0.8675 0.8671
2621.000000 0.8667 0.8662 0.8658 0.8653 0.8649
2626.000000 0.8645 0.8640 0.8636 0.8632 0.8627
2631.000000 0.8623 0.8619 0.8614 0.8610 0.8605
2636.000000 0.8601 0.8596 0.8592 0.8587 0.8583
2641.000000 0.8578 0.8574 0.8569 0.8565 0.8561
2646.000000 0.8556 0.8552 0.8547 0.8543 0.8538
2651.000000 0.8534 0.8529 0.8525 0.8520 0.8516
2656.000000 0.8512 0.8507 0.8502 0.8497 0.8492
2661.000000 0.8487 0.8483 0.8477 0.8472 0.8467
2666.000000 0.8462 0.8457 0.8452 0.8447 0.8442
2671.000000 0.8437 0.8432 0.8427 0.8422 0.8417
2676.000000 0.8412 0.8407 0.8402 0.8397 0.8392
2681.000000 0.8387 0.8382 0.8377 0.8372 0.8367
2686.000000 0.8362 0.8357 0.8352 0.8347 0.8341
2691.000000 0.8336 0.8330 0.8324 0.8318 0.8312
2696.000000 0.8307 0.8301 0.8295 0.8288 0.8282
2701.000000 0.8276 0.8271 0.8265 0.8259 0.8253
2706.000000 0.8247 0.8241 0.8235 0.8229 0.8223
2711.000000 0.8217 0.8212 0.8206 0.8200 0.8194
2716.000000 0.8188 0.8182 0.8176 0.8170 0.8165
2721.000000 0.8159 0.8153 0.8147 0.8142 0.8136
2726.000000 0.8130 0.8124 0.8119 0.8113 0.8107
2731.000000 0.8102 0.8096 0.8090 0.8084 0.8079
2736.000000 0.8073 0.8068 0.8063 0.8057 0.8051
2741.000000 0.8046 0.8040 0.8034 0.8029 0.8023
2746.000000 0.8018 0.8012 0.8006 0.8001 0.7995
2751.000000 0.7990 0.7985 0.7980 0.7976 0.7971
2756.000000 0.7967 0.7963 0.7959 0.7955 0.7951
2761.000000 0.7947 0.7943 0.7939 0.7935 0.7931
2766.000000 0.7926 0.7923 0.7919 0.7915 0.7911
2771.000000 0.7907 0.7903 0.7899 0.7894 0.7890
2776.000000 0.7886 0.7883 0.7879 0.7875 0.7871
2781.000000 0.7867 0.7863 0.7859 0.7855 0.7853
2786.000000 0.7850 0.7848 0.7846 0.7845 0.7844
2791.000000 0.7842 0.7841 0.7840 0.7840 0.7840
2796.000000 0.7840 0.7841 0.7841 0.7841 0.7842
2801.000000 0.7842 0.7842 0.7843 0.7843 0.7843
2806.000000 0.7844 0.7844 0.7844 0.7843 0.7840
2811.000000 0.7836 0.7832 0.7817 0.7799 0.7782
2816.000000 0.7756 0.7726 0.7695 0.7671 0.7652
2821.000000 0.7633 0.7615 0.7598 0.7580 0.7562
2826.000000 0.7541 0.7519 0.7498 0.7465 0.7431
2831.000000 0.7398 0.7365 0.7332 0.7300 0.7267
2836.000000 0.7235 0.7203 0.7170 0.7135 0.7099
2841.000000 0.7063 0.7023 0.6982 0.6942 0.6894
2846.000000 0.6845 0.6796 0.6738 0.6675 0.6611
2851.000000 0.6555 0.6511 0.6466 0.6423 0.6389
2856.000000 0.6354 0.6319 0.6289 0.6259 0.6230
2861.000000 0.6202 0.6176 0.6150 0.6126 0.6104
2866.000000 0.6083 0.6061 0.6044 0.6028 0.6011
2871.000000 0.5994 0.5978 0.5961 0.5944 0.5927
2876.000000 0.5910 0.5828 0.5306 0.4785 0.4264
2881.000000 0.3253 0.2131 0.1009 0.0433 0.0416
2886.000000 0.0400 0.0385 0.0379 0.0374 0.0368
2891.000000 0.0368 0.0369 0.0369 0.0370 0.0371
2896.000000 0.0372 0.0373 0.0374 0.0375 0.0376
2901.000000 0.0378 0.0380 0.0381 0.0383 0.0385
2906.000000 0.0387 0.0389 0.0390 0.0392 0.0394
2911.000000 0.0396 0.0397 0.0399 0.0401 0.0403
2916.000000 0.0405 0.0407 0.0409 0.0411 0.0413
2921.000000 0.0415 0.0416 0.0417 0.0419 0.0419
2926.000000 0.0419 0.0419 0.0419 0.0419 0.0419
2931.000000 0.0418 0.0417 0.0417 0.0416 0.0413
2936.000000 0.0410 0.0407 0.0404 0.0401 0.0398
2941.000000 0.0395 0.0378 0.0357 0.0337 0.0319
2946.000000 0.0307 0.0294 0.0282 0.0266 0.0251
2951.000000 0.0235 0.0221 0.0211 0.0200 0.0189
2956.000000 0.0179 0.0168 0.0158 0.0147 0.0136
2961.000000 0.0125 0.0113 0.0110 0.0107 0.0104
2966.000000 0.0101 0.0099 0.0096 0.0093 0.0090
2971.000000 0.0087 0.0084 0.0082 0.0079 0.0077
2976.000000 0.0074 0.0073 0.0071 0.0070 0.0069
2981.000000 0.0068 0.0066 0.0065 0.0065 0.0065
2986.000000 0.0065 0.0065 0.0065 0.0065 0.0065
2991.000000 0.0065 0.0065 0.0065 0.0065 0.0092
2996.000000 0.0120 0.0147 0.0192 0.0262 0.0333
3001.000000 0.0403 0.0474 0.0544 0.0615 0.0685
3006.000000 0.0755 0.0826 0.0896 0.0966 0.1036
3011.000000 0.1107 0.1177 0.1247 0.1317 0.1387
3016.000000 0.1457 0.1526 0.1596 0.1666 0.1736
3021.000000 0.1805 0.1875 0.1944 0.2014 0.2083
3026.000000 0.2152 0.2222 0.2291 0.2361 0.2430
3031.000000 0.2500 0.2569 0.2638 0.2707 0.2776
3036.000000 0.2845 0.2914 0.2982 0.3051 0.3120
3041.000000 0.3189 0.3257 0.3326 0.3394 0.3463
3046.000000 0.3532 0.3600 0.3669 0.3737 0.3806
3051.000000 0.3874 0.3942 0.4010 0.4078 0.4146
3056.000000 0.4215 0.4282 0.4350 0.4418 0.4486
3061.000000 0.4554 0.4622 0.4689 0.4757 0.4825
3066.000000 0.4893 0.4961 0.5028 0.5096 0.5163
3071.000000 0.5230 0.5349 0.5485 0.5621 0.5757
3076.000000 0.5830 0.5900 0.5970 0.6034 0.6069
3081.000000 0.6103 0.6138 0.6168 0.6190 0.6212
3086.000000 0.6233 0.6251 0.6264 0.6278 0.6292
3091.000000 0.6304 0.6315 0.6326 0.6337 0.6348
3096.000000 0.6359 0.6370 0.6381 0.6392 0.6403
3101.000000 0.6413 0.6424 0.6434 0.6444 0.6455
3106.000000 0.6464 0.6473 0.6482 0.6491 0.6499
3111.000000 0.6508 0.6517 0.6526 0.6534 0.6542
3116.000000 0.6550 0.6558 0.6565 0.6571 0.6578
3121.000000 0.6585 0.6592 0.6598 0.6605 0.6612
3126.000000 0.6615 0.6619 0.6623 0.6627 0.6630
3131.000000 0.6633 0.6636 0.6639 0.6642 0.6645
3136.000000 0.6647 0.6650 0.6651 0.6653 0.6654
3141.000000 0.6656 0.6656 0.6657 0.6658 0.6659
3146.000000 0.6660 0.6660 0.6661 0.6662 0.6663
3151.000000 0.6663 0.6664 0.6665 0.6665 0.6665
3156.000000 0.6665 0.6655 0.6665 0.6665 0.6665
3161.000000 0.6664 0.6664 0.6663 0.6663 0.6662
3166.000000 0.6661 0.6660 0.6659 0.6658 0.6657
3171.000000 0.6656 0.6655 0.6653 0.6648 0.6644
3176.000000 0.6639 0.6632 0.6620 0.6608 0.6596
3181.000000 0.6584 0.6572 0.6560 0.6549 0.6537
3186.000000 0.6527 0.6516 0.6505 0.6494 0.6484
3191.000000 0.6473 0.6462 0.6452 0.6441 0.6430
3196.000000 0.6420 0.6409 0.6395 0.6382 0.6368
3201.000000 0.6355 0.6305 0.6255 0.6204 0.6154
3206.000000 0.6112 0.6071 0.6030 0.5989 0.5958
3211.000000 0.5929 0.5901 0.5872 0.5848 0.5826
3216.000000 0.5804 0.5782 0.5765 0.5751 0.5737
3221.000000 0.5723 0.5698 0.5652 0.5605 0.5559
3226.000000 0.5507 0.5431 0.5355 0.5279 0.5204
3231.000000 0.5128 0.5052 0.4976 0.4900 0.4824
3236.000000 0.4749 0.4673 0.4597 0.4522 0.4447
3241.000000 0.4372 0.4296 0.4221 0.4146 0.4070
3246.000000 0.3995 0.3920 0.3845 0.3770 0.3695
3251.000000 0.3621 0.3546 0.3471 0.3396 0.3321
3256.000000 0.3247 0.3172 0.3098 0.3023 0.2972
3261.000000 0.2940 0.2907 0.2875 0.2853 0.2853
3266.000000 0.2853 0.2853 0.2853 0.2853 0.2853
3271.000000 0.2853 0.2853 0.2846 0.2854 0.2855
3276.000000 0.2856 0.2870 0.2899 0.2929 0.2958
3281.000000 0.2990 0.3037 0.3084 0.3131 0.3177
3286.000000 0.3224 0.3271 0.3318 0.3365 0.3412
3291.000000 0.3459 0.3506 0.3553 0.3599 0.3646
3296.000000 0.3693 0.3740 0.3786 0.3833 0.3879
3301.000000 0.3926 0.3972 0.4018 0.4065 0.4111
3306.000000 0.4158 0.4204 0.4250 0.4297 0.4343
3311.000000 0.4390 0.4436 0.4482 0.4528 0.4574
3316.000000 0.4621 0.4666 0.4712 0.4758 0.4804
3321.000000 0.4850 0.4896 0.4942 0.4988 0.5034
3326.000000 0.5080 0.5126 0.5171 0.5217 0.5263
3331.000000 0.5308 0.5354 0.5399 0.5445 0.5491
3336.000000 0.5536 0.5582 0.5627 0.5673 0.5718
3341.000000 0.5764 0.5809 0.5913 0.6037 0.6160
3346.000000 0.6283 0.6379 0.6407 0.6435 0.6463
3351.000000 0.6491 0.6514 0.6537 0.6559 0.6582
3356.000000 0.6603 0.6621 0.6640 0.6658 0.6677
3361.000000 0.6693 0.6710 0.6726 0.6742 0.6759
3366.000000 0.6776 0.6794 0.6811 0.6829 0.6847
3371.000000 0.6865 0.6883 0.6902 0.6920 0.6936
3376.000000 0.6953 0.6970 0.6987 0.7003 0.7019
3381.000000 0.7034 0.7050 0.7065 0.7081 0.7096
3386.000000 0.7112 0.7127 0.7147 0.7172 0.7197
3391.000000 0.7222 0.7247 0.7286 0.7327 0.7368
3396.000000 0.7408 0.7444 0.7464 0.7485 0.7506
3401.000000 0.7526 0.7543 0.7557 0.7572 0.7586
3406.000000 0.7601 0.7613 0.7626 0.7639 0.7652
3411.000000 0.7664 0.7674 0.7684 0.7694 0.7704
3416.000000 0.7715 0.7725 0.7735 0.7746 0.7756
3421.000000 0.7766 0.7776 0.7786 0.7796 0.7805
3426.000000 0.7811 0.7818 0.7825 0.7831 0.7837
3431.000000 0.7844 0.7850 0.7856 0.7862 0.7868
3436.000000 0.7875 0.7881 0.7887 0.7894 0.7900
3441.000000 0.7907 0.7913 0.7919 0.7925 0.7930
3446.000000 0.7934 0.7939 0.7944 0.7948 0.7952
3451.000000 0.7956 0.7960 0.7963 0.7967 0.7971
3456.000000 0.7975 0.7978 0.7982 0.7986 0.7990
3461.000000 0.7993 0.7997 0.8001 0.8005 0.8008
3466.000000 0.8012 0.8016 0.8020 0.8023 0.8027
3471.000000 0.8031 0.8035 0.8038 0.8042 0.8046
3476.000000 0.8050 0.8053 0.8057 0.8062 0.8066
3481.000000 0.8070 0.8074 0.8078 0.8082 0.8086
3486.000000 0.8090 0.8094 0.8098 0.8101 0.8104
3491.000000 0.8107 0.8110 0.8111 0.8113 0.8114
3496.000000 0.8116 0.8117 0.8119 0.8120 0.8121
3501.000000 0.8123 0.8124 0.8126 0.8127 0.8129
3506.000000 0.8130 0.8131 0.8133 0.8134 0.8136
3511.000000 0.8137 0.8138 0.8140 0.8141 0.8142
3516.000000 0.8143 0.8145 0.8146 0.8147 0.8149
3521.000000 0.8150 0.8152 0.8153 0.8155 0.8156
3526.000000 0.8157 0.8159 0.8160 0.8162 0.8163
3531.000000 0.8164 0.8166 0.8167 0.8169 0.8170
3536.000000 0.8171 0.8172 0.8173 0.8174 0.8175
3541.000000 0.8176 0.8177 0.8178 0.8179 0.8180
3546.000000 0.8181 0.8182 0.8183 0.8184 0.8185
3551.000000 0.8186 0.8187 0.8188 0.8189 0.8190
3556.000000 0.8191 0.8192 0.8193 0.8194 0.8195
3561.000000 0.8195 0.8196 0.8197 0.8198 0.8199
3566.000000 0.8200 0.8201 0.8202 0.8203 0.8204
3571.000000 0.8205 0.8206 0.8207 0.8208 0.8209
3576.000000 0.8210 0.8211 0.8212 0.8212 0.8213
3581.000000 0.8214 0.8215 0.8216 0.8217 0.8218
3586.000000 0.8219 0.8220 0.8220 0.8221 0.8221
3591.000000 0.8222 0.8223 0.8223 0.8224 0.8224
3596.000000 0.8225 0.8225 0.8226 0.8227 0.8227
3601.000000 0.8228 0.8228 0.8229 0.8229 0.8230
3606.000000 0.8231 0.8231 0.8232 0.8232 0.8232
3611.000000 0.8233 0.8233 0.8234 0.8234 0.8235
3616.000000 0.8235 0.8236 0.8237 0.8237 0.8238
3621.000000 0.8238 0.8239 0.8239 0.8240 0.8240
3626.000000 0.8241 0.8241 0.8241 0.8242 0.8242
3631.000000 0.8243 0.8244 0.8244 0.8245 0.8245
3636.000000 0.8246 0.8246 0.8247 0.8247 0.8248
3641.000000 0.8249 0.8249 0.8250 0.8250 0.8251
3646.000000 0.8251 0.8251 0.8251 0.8251 0.8252
3651.000000 0.8252 0.8252 0.8252 0.8252 0.8252
3656.000000 0.8252 0.8252 0.8252 0.8252 0.8252
3661.000000 0.8253 0.8253 0.8253 0.8253 0.8253
3666.000000 0.8254 0.8254 0.8254 0.8254 0.8254
3671.000000 0.8254 0.8255 0.8255 0.8255 0.8255
3676.000000 0.8255 0.8256 0.8256 0.8256 0.8256
3681.000000 0.8256 0.8256 0.8256 0.8256 0.8256
3686.000000 0.8256 0.8256 0.8257 0.8257 0.8257
3691.000000 0.8257 0.8257 0.8258 0.8258 0.8258
3696.000000 0.8258 0.8258 0.8258 0.8259 0.8259
3701.000000 0.8259 0.8259 0.8259 0.8260 0.8260
3706.000000 0.8260 0.8260 0.8260 0.8260 0.8260
3711.000000 0.8260 0.8260 0.8260 0.8260 0.8281
3716.000000 0.8261 0.8261 0.8261 0.8261 0.8261
3721.000000 0.8262 0.8262 0.8262 0.8262 0.8262
3726.000000 0.8263 0.8263 0.8263 0.8263 0.8263
3731.000000 0.8263 0.8262 0.8262 0.8262 0.8262
3736.000000 0.8262 0.8261 0.8261 0.8261 0.8261
3741.000000 0.8261 0.8261 0.8260 0.8260 0.8260
3746.000000 0.8260 0.8260 0.8260 0.8259 0.8259
3751.000000 0.8258 0.8258 0.8258 0.8257 0.8257
3756.000000 0.8257 0.8257 0.8257 0.8257 0.8256
3761.000000 0.8256 0.8256 0.8256 0.8256 0.8256
3766.000000 0.8255 0.8255 0.8255 0.8255 0.8255
3771.000000 0.8254 0.8254 0.8254 0.8254 0.8254
3776.000000 0.8254 0.8253 0.8253 0.8253 0.8253
3781.000000 0.8253 0.8253 0.8252 0.8252 0.8252
3786.000000 0.8252 0.8252 0.8251 0.8251 0.8251
3791.000000 0.8251 0.8251 0.8251 0.8250 0.8250
3796.000000 0.8250 0.8250 0.8250 0.8250 0.8249
3801.000000 0.8249 0.8249 0.8249 0.8249 0.8249
3806.000000 0.8248 0.8248 0.8248 0.8248 0.8248
3811.000000 0.8247 0.8247 0.8247 0.8247 0.8247
3816.000000 0.8247 0.8246 0.8246 0.8246 0.8245
3821.000000 0.8245 0.8245 0.8244 0.8244 0.8244
3826.000000 0.8243 0.8243 0.8243 0.8242 0.8242
3831.000000 0.8242 0.8241 0.8241 0.8241 0.8240
3836.000000 0.8240 0.8240 0.8239 0.8239 0.8239
3841.000000 0.8238 0.8238 0.8238 0.8237 0.8237
3846.000000 0.8237 0.8236 0.8236 0.8236 0.8235
3851.000000 0.8235 0.8235 0.8234 0.8234 0.8234
3856.000000 0.8233 0.8233 0.8233 0.8232 0.8232
3861.000000 0.8232 0.8231 0.8231 0.8230 0.8230
3866.000000 0.8230 0.8229 0.8229 0.8229 0.8228
3871.000000 0.8228 0.8228 0.8227 0.8227 0.8227
3876.000000 0.8226 0.8226 0.8226 0.8225 0.8225
3881.000000 0.8225 0.8224 0.8224 0.8223 0.8223
3886.000000 0.8222 0.8221 0.8221 0.8220 0.8219
3891.000000 0.8218 0.8217 0.8216 0.8216 0.8215
3896.000000 0.8214 0.8214 0.8213 0.8212 0.8212
3901.000000 0.8211 0.8210 0.8210 0.8209 0.8208
3906.000000 0.8208 0.8207 0.8206 0.8206 0.8205
3911.000000 0.8204 0.8204 0.8203 0.8202 0.8202
3916.000000 0.8201 0.8200 0.8200 0.8199 0.8198
3921.000000 0.8197 0.8197 0.8196 0.8195 0.8194
3926.000000 0.8194 0.8193 0.8192 0.8192 0.8191
3931.000000 0.8190 0.8190 0.8189 0.8188 0.8187
3936.000000 0.8186 0.8186 0.8184 0.8183 0.8182
3941.000000 0.8181 0.8180 0.8179 0.8178 0.8176
3946.000000 0.8175 0.8174 0.8173 0.8172 0.8171
3951.000000 0.8170 0.8169 0.8168 0.8166 0.8165
3956.000000 0.8164 0.8163 0.8162 0.8161 0.8160
3961.000000 0.8159 0.8157 0.8156 0.8155 0.8154
3966.000000 0.8153 0.8152 0.8151 0.8150 0.8149
3971.000000 0.8147 0.8146 0.8145 0.8144 0.8143
3976.000000 0.8142 0.8141 0.8140 0.8139 0.8137
3981.000000 0.8136 0.8135 0.8134 0.8133 0.8132
3986.000000 0.8131 0.8130 0.8129 0.8128 0.8126
3991.000000 0.8125 0.8124 0.8123 0.8122 0.8121
3996.000000 0.8120 0.8119 0.8118 0.8117 0.8116
##END=
