##TITLE=Calcium acetate, monohydrate
##JCAMP-DX=4.24
##DATA TYPE=INFRARED SPECTRUM
##CLASS=COBLENTZ III
##ORIGIN=SOUTHERN RESEARCH INSTITUTE
##OWNER=Copyright (C) 1987 by the Coblentz Society
Collection (C) 2018 copyright by the U.S. Secretary of Commerce
on behalf of the United States of America. All rights reserved.
##DATE=1965/09/10
##MOLFORM=C4 H6 Ca O4  * H2 O
##SOURCE REFERENCE=COBLENTZ NO. 7911
##$NIST ID=B6007911
##$NIST SOURCE=COBLENTZ
##$NIST IMAGE=cob7911
##SPECTROMETER/DATA SYSTEM=PERKIN-ELMER 521 (GRATING)
##INSTRUMENT PARAMETERS=FILTERS AT 3150, 2500, 2000, 1150, 700, 410. GRATING CHANGES: 2000, 630
##STATE=SOLID (1 mg / 650 mg KBr DISC)
##SAMPLING PROCEDURE=TRANSMISSION
##RESOLUTION=2
##DATA PROCESSING=DIGITIZED BY COBLENTZ SOCIETY (BATCH II) FROM HARD COPY (ADJUSTED \addcm-1\20-10-2\)
##XUNITS=1/CM
##YUNITS=TRANSMITTANCE
##XFACTOR=1.0
##YFACTOR=1
##DELTAX=1.004245
##FIRSTX=253.105
##LASTX=4012
##FIRSTY=0.1688
##MAXX=4012
##MINX=253.105
##MAXY=0.9894
##MINY=0.0892739
##NPOINTS=3744
##XYDATA=(X++(Y..Y))
253.105000 0.1688 0.1706 0.1723 0.1739 0.1756
258.126227 0.1774 0.1790 0.1807 0.1824 0.1839
263.147455 0.1856 0.1872 0.1889 0.1906 0.1920
268.168682 0.1935 0.1949 0.1964 0.1979 0.1994
273.189909 0.2009 0.2023 0.2037 0.2052 0.2067
278.211136 0.2082 0.2098 0.2115 0.2132 0.2149
283.232364 0.2166 0.2182 0.2199 0.2216 0.2233
288.253591 0.2250 0.2269 0.2292 0.2315 0.2338
293.274818 0.2362 0.2386 0.2409 0.2433 0.2457
298.296046 0.2481 0.2506 0.2533 0.2559 0.2586
303.317273 0.2613 0.2639 0.2674 0.2726 0.2788
308.338500 0.2851 0.2914 0.2977 0.3040 0.3103
313.359728 0.3165 0.3228 0.3291 0.3354 0.3417
318.380955 0.3480 0.3542 0.3605 0.3668 0.3731
323.402182 0.3787 0.3835 0.3919 0.3996 0.4072
328.423409 0.4147 0.4222 0.4300 0.4382 0.4463
333.444637 0.4545 0.4627 0.4710 0.4793 0.4876
338.465864 0.4960 0.5053 0.5209 0.5365 0.5517
343.487091 0.5627 0.5731 0.5833 0.5922 0.5991
348.508319 0.6061 0.6130 0.6199 0.6264 0.6325
353.529546 0.6385 0.6446 0.6506 0.6566 0.6622
358.550773 0.6669 0.6714 0.6760 0.6805 0.6851
363.572001 0.6896 0.6942 0.6987 0.7032 0.7078
368.593228 0.7125 0.7171 0.7218 0.7264 0.7311
373.614455 0.7357 0.7393 0.7423 0.7451 0.7480
378.635682 0.7509 0.7537 0.7566 0.7595 0.7623
383.656910 0.7651 0.7679 0.7707 0.7735 0.7763
388.678137 0.7791 0.7819 0.7846 0.7874 0.7898
393.699364 0.7920 0.7942 0.7964 0.7987 0.8009
398.720592 0.8032 0.8054 0.8076 0.8098 0.8119
403.741819 0.8139 0.8159 0.8180 0.8200 0.8220
408.763046 0.8241 0.8261 0.8281 0.8302 0.8319
413.784274 0.8332 0.8345 0.8357 0.8369 0.8381
418.805501 0.8394 0.8407 0.8419 0.8432 0.8444
423.826728 0.8456 0.8466 0.8472 0.8479 0.8486
428.847955 0.8492 0.8499 0.8506 0.8512 0.8519
433.869183 0.8526 0.8531 0.8533 0.8534 0.8535
438.890410 0.8536 0.8538 0.8539 0.8540 0.8545
443.911637 0.8537 0.8534 0.8531 0.8522 0.8511
448.932865 0.8499 0.8487 0.8475 0.8455 0.8426
453.954092 0.8397 0.8337 0.8253 0.8146 0.8034
458.975319 0.7923 0.7812 0.7702 0.7591 0.7479
463.996546 0.7368 0.7257 0.7147 0.7035 0.6924
469.017774 0.6823 0.6804 0.6811 0.6921 0.7090
474.039001 0.7265 0.7440 0.7615 0.7708 0.7688
479.060228 0.7654 0.7610 0.7554 0.7512 0.7483
484.081456 0.7464 0.7458 0.7446 0.7508 0.7624
489.102683 0.7724 0.7942 0.8152 0.8218 0.8264
494.123910 0.8307 0.8347 0.8386 0.8423 0.8459
499.145138 0.8490 0.8513 0.8536 0.8560 0.8581
504.166365 0.8598 0.8615 0.8633 0.8650 0.8667
509.187592 0.8680 0.8689 0.8698 0.8708 0.8717
514.208819 0.8726 0.8735 0.8744 0.8750 0.8754
519.230047 0.8759 0.8763 0.8768 0.8772 0.8777
524.251274 0.8781 0.8786 0.8790 0.8795 0.8799
529.272501 0.8802 0.8802 0.8802 0.8802 0.8802
534.293729 0.8802 0.8802 0.8802 0.8802 0.8802
539.314956 0.8802 0.8802 0.8802 0.8802 0.8798
544.336183 0.8798 0.8795 0.8793 0.8790 0.8787
549.357411 0.8784 0.8781 0.8778 0.8775 0.8772
554.378638 0.8770 0.8766 0.8760 0.8755 0.8750
559.399865 0.8744 0.8739 0.8734 0.8729 0.8723
564.421092 0.8718 0.8711 0.8704 0.8697 0.8689
569.442320 0.8682 0.8674 0.8667 0.8658 0.8648
574.463547 0.8638 0.8628 0.8618 0.8609 0.8599
579.484774 0.8589 0.8580 0.8570 0.8561 0.8555
584.506002 0.8550 0.8546 0.8542 0.8537 0.8532
589.527229 0.8527 0.8523 0.8518 0.8513 0.8508
594.548456 0.8503 0.8498 0.8492 0.8487 0.8482
599.569683 0.8471 0.8445 0.8402 0.8352 0.8292
604.590911 0.8230 0.8167 0.8102 0.8032 0.7962
609.612138 0.7864 0.7642 0.7314 0.6984 0.6656
614.633365 0.6327 0.6020 0.5844 0.5868 0.6007
619.654593 0.6258 0.6449 0.6507 0.6578 0.6681
624.675820 0.6938 0.7117 0.7297 0.7476 0.7655
629.697047 0.7834 0.8013 0.8191 0.8217 0.8219
634.718275 0.8191 0.7887 0.7575 0.7264 0.6953
639.739502 0.6641 0.6329 0.6018 0.5706 0.5395
644.760729 0.5259 0.5241 0.5639 0.6282 0.6958
649.781956 0.7453 0.7534 0.7531 0.7345 0.7110
654.803184 0.6875 0.6640 0.6405 0.6170 0.5935
659.824411 0.5699 0.5557 0.5520 0.5801 0.6206
664.845638 0.6291 0.6307 0.5831 0.5319 0.4979
669.866866 0.4859 0.4897 0.4966 0.5032 0.5054
674.888093 0.4971 0.4860 0.4930 0.4918 0.5733
679.909320 0.6940 0.7313 0.7421 0.7547 0.7680
684.930548 0.7876 0.8109 0.8255 0.8343 0.8405
689.951775 0.8457 0.8505 0.8541 0.8570 0.8597
694.973002 0.8616 0.8631 0.8647 0.8663 0.8678
699.994229 0.8692 0.8703 0.8714 0.8725 0.8736
705.015457 0.8747 0.8757 0.8768 0.8777 0.8784
710.036684 0.8791 0.8799 0.8806 0.8813 0.8820
715.057911 0.8828 0.8835 0.8843 0.8850 0.8858
720.079139 0.8865 0.8872 0.8879 0.8887 0.8894
725.100366 0.8902 0.8910 0.8918 0.8926 0.8934
730.121593 0.8942 0.8950 0.8957 0.8964 0.8972
735.142821 0.8980 0.8988 0.8996 0.9003 0.9011
740.164048 0.9018 0.9026 0.9033 0.9041 0.9048
745.185275 0.9055 0.9063 0.9070 0.9077 0.9085
750.206502 0.9092 0.9100 0.9107 0.9114 0.9122
755.227730 0.9129 0.9136 0.9143 0.9150 0.9157
760.248957 0.9165 0.9171 0.9178 0.9185 0.9193
765.270184 0.9200 0.9207 0.9214 0.9221 0.9228
770.291412 0.9236 0.9243 0.9250 0.9257 0.9264
775.312639 0.9271 0.9278 0.9285 0.9292 0.9300
780.333866 0.9307 0.9314 0.9321 0.9328 0.9335
785.355093 0.9340 0.9343 0.9347 0.9351 0.9355
790.376321 0.9359 0.9363 0.9367 0.9371 0.9375
795.397548 0.9379 0.9383 0.9387 0.9391 0.9395
800.418775 0.9399 0.9403 0.9406 0.9409 0.9411
805.440003 0.9413 0.9415 0.9417 0.9420 0.9422
810.461230 0.9424 0.9427 0.9427 0.9427 0.9426
815.482457 0.9426 0.9425 0.9425 0.9425 0.9424
820.503685 0.9424 0.9423 0.9423 0.9422 0.9422
825.524912 0.9421 0.9421 0.9421 0.9420 0.9420
830.546139 0.9419 0.9419 0.9419 0.9418 0.9418
835.567366 0.9418 0.9418 0.9418 0.9419 0.9419
840.588594 0.9420 0.9420 0.9421 0.9422 0.9422
845.609821 0.9423 0.9423 0.9424 0.9424 0.9425
850.631048 0.9426 0.9430 0.9434 0.9438 0.9441
855.652276 0.9445 0.9449 0.9452 0.9456 0.9460
860.673503 0.9464 0.9471 0.9479 0.9488 0.9497
865.694730 0.9506 0.9515 0.9524 0.9534 0.9542
870.715958 0.9551 0.9559 0.9568 0.9576 0.9585
875.737185 0.9593 0.9601 0.9609 0.9617 0.9626
880.758412 0.9634 0.9642 0.9650 0.9658 0.9666
885.779639 0.9674 0.9681 0.9688 0.9695 0.9702
890.800867 0.9709 0.9716 0.9722 0.9728 0.9733
895.822094 0.9735 0.9738 0.9740 0.9743 0.9745
900.843321 0.9747 0.9749 0.9752 0.9754 0.9757
905.864549 0.9755 0.9754 0.9753 0.9750 0.9749
910.885776 0.9738 0.9726 0.9716 0.9704 0.9687
915.907003 0.9670 0.9653 0.9634 0.9610 0.9586
920.928231 0.9533 0.9493 0.9470 0.9495 0.9519
925.949458 0.9560 0.9601 0.9637 0.9660 0.9658
930.970685 0.9657 0.9618 0.9580 0.9551 0.9539
935.991912 0.9529 0.9518 0.9486 0.9395 0.9257
941.013140 0.9109 0.8961 0.8813 0.8665 0.8544
946.034367 0.8488 0.8468 0.8460 0.8472 0.8477
951.055594 0.8535 0.8637 0.8743 0.8850 0.8957
956.076822 0.9045 0.9076 0.9073 0.9182 0.9366
961.098049 0.9481 0.9544 0.9597 0.9637 0.9671
966.119276 0.9696 0.9713 0.9730 0.9738 0.9735
971.140503 0.9731 0.9727 0.9720 0.9712 0.9703
976.161731 0.9692 0.9681 0.9670 0.9659 0.9647
981.182958 0.9632 0.9615 0.9597 0.9577 0.9557
986.204185 0.9537 0.9515 0.9491 0.9467 0.9440
991.225413 0.9400 0.9360 0.9320 0.9279 0.9236
996.246640 0.9187 0.9138 0.9088 0.9032 0.8966
1001.267867 0.8900 0.8834 0.8770 0.8707 0.8645
1006.289095 0.8582 0.8512 0.8415 0.8318 0.8241
1011.310322 0.8173 0.8105 0.8054 0.8005 0.7957
1016.331549 0.7910 0.7857 0.7781 0.7703 0.7424
1021.352776 0.7289 0.7173 0.7005 0.6793 0.6575
1026.374004 0.6356 0.6137 0.5919 0.5758 0.5732
1031.395231 0.5730 0.5879 0.6143 0.6429 0.6714
1036.416458 0.6999 0.7284 0.7570 0.7855 0.8140
1041.437686 0.8282 0.8298 0.8295 0.8290 0.8275
1046.458913 0.8239 0.8169 0.8086 0.8002 0.7918
1051.480140 0.7834 0.7750 0.7667 0.7609 0.7581
1056.501368 0.7564 0.7555 0.7549 0.7552 0.7563
1061.522595 0.7717 0.8055 0.8430 0.8716 0.8868
1066.543822 0.8978 0.9072 0.9149 0.9215 0.9265
1071.565049 0.9308 0.9348 0.9379 0.9404 0.9429
1076.586277 0.9454 0.9478 0.9497 0.9511 0.9525
1081.607504 0.9539 0.9553 0.9566 0.9577 0.9587
1086.628731 0.9597 0.9607 0.9617 0.9628 0.9638
1091.649959 0.9648 0.9658 0.9666 0.9672 0.9678
1096.671186 0.9684 0.9690 0.9697 0.9703 0.9709
1101.692413 0.9715 0.9721 0.9726 0.9731 0.9736
1106.713640 0.9741 0.9747 0.9756 0.9770 0.9785
1111.734868 0.9799 0.9811 0.9819 0.9827 0.9833
1116.756095 0.9833 0.9831 0.9828 0.9825 0.9819
1121.777322 0.9809 0.9799 0.9788 0.9781 0.9786
1126.798550 0.9792 0.9796 0.9802 0.9807 0.9811
1131.819777 0.9816 0.9821 0.9825 0.9830 0.9834
1136.841004 0.9838 0.9842 0.9846 0.9850 0.9854
1141.862232 0.9856 0.9859 0.9861 0.9864 0.9866
1146.883459 0.9867 0.9869 0.9870 0.9872 0.9873
1151.904686 0.9874 0.9876 0.9877 0.9879 0.9880
1156.925913 0.9882 0.9883 0.9884 0.9886 0.9887
1161.947141 0.9888 0.9890 0.9891 0.9893 0.9894
1166.968368 0.9894 0.9894 0.9894 0.9894 0.9893
1171.989595 0.9889 0.9872 0.9893 0.9893 0.9893
1177.010823 0.9893 0.9893 0.9893 0.9892 0.9892
1182.032050 0.9891 0.9891 0.9890 0.9889 0.9889
1187.053277 0.9888 0.9888 0.9887 0.9887 0.9886
1192.074505 0.9886 0.9885 0.9885 0.9884 0.9884
1197.095732 0.9883 0.9883 0.9882 0.9881 0.9879
1202.116959 0.9877 0.9874 0.9872 0.9870 0.9868
1207.138186 0.9865 0.9863 0.9861 0.9859 0.9855
1212.159414 0.9849 0.9843 0.9837 0.9831 0.9826
1217.180641 0.9820 0.9814 0.9808 0.9800 0.9788
1222.201868 0.9776 0.9764 0.9752 0.9740 0.9728
1227.223096 0.9716 0.9701 0.9682 0.9662 0.9648
1232.244323 0.9649 0.9651 0.9653 0.9658 0.9664
1237.265550 0.9670 0.9676 0.9681 0.9683 0.9686
1242.286778 0.9688 0.9688 0.9686 0.9684 0.9681
1247.308005 0.9679 0.9677 0.9675 0.9673 0.9671
1252.329232 0.9669 0.9667 0.9665 0.9663 0.9661
1257.350459 0.9655 0.9649 0.9642 0.9635 0.9629
1262.371687 0.9618 0.9607 0.9596 0.9585 0.9574
1267.392914 0.9563 0.9552 0.9541 0.9531 0.9520
1272.414141 0.9509 0.9499 0.9488 0.9477 0.9466
1277.435369 0.9453 0.9440 0.9427 0.9414 0.9401
1282.456596 0.9388 0.9375 0.9362 0.9349 0.9336
1287.477823 0.9323 0.9308 0.9292 0.9277 0.9261
1292.499050 0.9245 0.9229 0.9213 0.9198 0.9182
1297.520278 0.9166 0.9147 0.9124 0.9100 0.9076
1302.541505 0.9053 0.9029 0.9006 0.8982 0.8958
1307.562732 0.8934 0.8911 0.8887 0.8861 0.8833
1312.583960 0.8804 0.8776 0.8748 0.8719 0.8691
1317.605187 0.8663 0.8635 0.8604 0.8572 0.8540
1322.626414 0.8508 0.8476 0.8444 0.8410 0.8371
1327.647642 0.8330 0.8288 0.8246 0.8204 0.8162
1332.668869 0.8121 0.8077 0.8024 0.7966 0.7908
1337.690096 0.7850 0.7792 0.7692 0.7565 0.7456
1342.711323 0.7356 0.7257 0.7158 0.7058 0.6959
1347.732551 0.6863 0.6832 0.6810 0.6846 0.6910
1352.753778 0.6960 0.7002 0.7032 0.7055 0.7074
1357.775005 0.7089 0.7093 0.7105 0.7094 0.7076
1362.796233 0.7066 0.7055 0.7042 0.7013 0.6969
1367.817460 0.6890 0.6820 0.6771 0.6711 0.6644
1372.838687 0.6578 0.6511 0.6445 0.6378 0.6311
1377.859915 0.6244 0.6177 0.6111 0.6044 0.5977
1382.881142 0.5910 0.5843 0.5777 0.5664 0.5553
1387.902369 0.5475 0.5356 0.5211 0.5090 0.4984
1392.923596 0.4876 0.4765 0.4646 0.4506 0.4351
1397.944824 0.4200 0.4037 0.3822 0.3513 0.3228
1402.966051 0.3088 0.3005 0.2922 0.2829 0.2717
1407.987278 0.2597 0.2476 0.2354 0.2233 0.2115
1413.008506 0.2003 0.1924 0.1879 0.1835 0.1790
1418.029733 0.1753 0.1725 0.1699 0.1674 0.1658
1423.050960 0.1654 0.1650 0.1648 0.1650 0.1654
1428.072188 0.1658 0.1662 0.1667 0.1671 0.1673
1433.093415 0.1674 0.1669 0.1651 0.1628 0.1600
1438.114642 0.1568 0.1532 0.1492 0.1451 0.1402
1443.135869 0.1343 0.1289 0.1243 0.1207 0.1194
1448.157097 0.1187 0.1172 0.1166 0.1201 0.1229
1453.178324 0.1276 0.1336 0.1427 0.1565 0.1741
1458.199551 0.1918 0.2039 0.2035 0.2028 0.2022
1463.220779 0.2024 0.2031 0.2082 0.2217 0.2372
1468.242006 0.2527 0.2682 0.2837 0.2992 0.3148
1473.263233 0.3302 0.3458 0.3613 0.3768 0.3923
1478.284460 0.4079 0.4230 0.4351 0.4396 0.4413
1483.305688 0.4421 0.4423 0.4420 0.4416 0.4409
1488.326915 0.4385 0.4299 0.4214 0.4129 0.4044
1493.348142 0.3959 0.3874 0.3789 0.3704 0.3620
1498.369370 0.3535 0.3450 0.3364 0.3280 0.3195
1503.390597 0.3110 0.3025 0.2940 0.2855 0.2770
1508.411824 0.2685 0.2597 0.2491 0.2354 0.2232
1513.433052 0.2128 0.2025 0.1936 0.1864 0.1792
1518.454279 0.1721 0.1644 0.1532 0.1412 0.1329
1523.475506 0.1268 0.1206 0.1145 0.1087 0.1043
1528.496733 0.1000 0.0958 0.0935 0.0921 0.0908
1533.517961 0.0907 0.0908 0.0909 0.0893 0.0914
1538.539188 0.0917 0.0921 0.0924 0.0928 0.0932
1543.560415 0.0937 0.0941 0.0946 0.0950 0.0956
1548.581643 0.0962 0.0968 0.0974 0.0979 0.0985
1553.602870 0.0991 0.0998 0.1006 0.1013 0.1021
1558.624097 0.1029 0.1036 0.1044 0.1051 0.1063
1563.645325 0.1076 0.1090 0.1103 0.1116 0.1130
1568.666552 0.1156 0.1182 0.1208 0.1247 0.1289
1573.687779 0.1331 0.1374 0.1431 0.1500 0.1570
1578.709006 0.1648 0.1763 0.1865 0.1940 0.2010
1583.730234 0.2072 0.2094 0.2114 0.2127 0.2130
1588.751461 0.2153 0.2120 0.2103 0.2087 0.2058
1593.772688 0.2009 0.1935 0.1859 0.1782 0.1705
1598.793916 0.1629 0.1552 0.1476 0.1399 0.1322
1603.815143 0.1246 0.1170 0.1104 0.1079 0.1065
1608.836370 0.1062 0.1053 0.1064 0.1070 0.1087
1613.857597 0.1120 0.1207 0.1377 0.1559 0.1742
1618.878825 0.1892 0.2126 0.2281 0.2376 0.2465
1623.900052 0.2557 0.2651 0.2754 0.2981 0.3192
1628.921279 0.3377 0.3536 0.3681 0.3813 0.3936
1633.942507 0.4054 0.4154 0.4253 0.4352 0.4490
1638.963734 0.4631 0.4732 0.4807 0.4881 0.5164
1643.984961 0.5227 0.5286 0.5346 0.5404 0.5463
1649.006189 0.5522 0.5581 0.5640 0.5699 0.5757
1654.027416 0.5810 0.5854 0.5900 0.5944 0.5985
1659.048643 0.6025 0.6065 0.6097 0.6125 0.6153
1664.069870 0.6181 0.6210 0.6238 0.6266 0.6294
1669.091098 0.6323 0.6351 0.6379 0.6407 0.6436
1674.112325 0.6462 0.6487 0.6513 0.6539 0.6565
1679.133552 0.6591 0.6618 0.6644 0.6670 0.6696
1684.154780 0.6722 0.6748 0.6774 0.6798 0.6823
1689.176007 0.6847 0.6871 0.6895 0.6920 0.6944
1694.197234 0.6968 0.6992 0.7016 0.7040 0.7064
1699.218462 0.7088 0.7112 0.7136 0.7160 0.7183
1704.239689 0.7207 0.7231 0.7254 0.7277 0.7301
1709.260916 0.7324 0.7348 0.7371 0.7392 0.7414
1714.282143 0.7435 0.7456 0.7477 0.7499 0.7520
1719.303371 0.7542 0.7563 0.7585 0.7606 0.7627
1724.324598 0.7646 0.7662 0.7678 0.7695 0.7711
1729.345825 0.7728 0.7744 0.7760 0.7776 0.7792
1734.367053 0.7808 0.7825 0.7841 0.7856 0.7869
1739.388280 0.7881 0.7893 0.7906 0.7918 0.7930
1744.409507 0.7942 0.7954 0.7966 0.7978 0.7990
1749.430735 0.8002 0.8015 0.8027 0.8039 0.8051
1754.451962 0.8063 0.8075 0.8088 0.8100 0.8112
1759.473189 0.8124 0.8135 0.8144 0.8152 0.8160
1764.494416 0.8168 0.8177 0.8185 0.8193 0.8201
1769.515644 0.8209 0.8218 0.8226 0.8234 0.8242
1774.536871 0.8250 0.8259 0.8267 0.8275 0.8283
1779.558098 0.8290 0.8298 0.8306 0.8313 0.8321
1784.579326 0.8328 0.8336 0.8344 0.8351 0.8359
1789.600553 0.8366 0.8374 0.8381 0.8389 0.8396
1794.621780 0.8404 0.8411 0.8419 0.8426 0.8434
1799.643007 0.8442 0.8450 0.8457 0.8463 0.8470
1804.664235 0.8476 0.8483 0.8489 0.8495 0.8502
1809.685462 0.8508 0.8515 0.8521 0.8528 0.8534
1814.706689 0.8541 0.8547 0.8554 0.8561 0.8567
1819.727917 0.8574 0.8581 0.8588 0.8594 0.8601
1824.749144 0.8608 0.8614 0.8618 0.8622 0.8625
1829.770371 0.8628 0.8631 0.8634 0.8638 0.8641
1834.791599 0.8644 0.8647 0.8651 0.8654 0.8657
1839.812826 0.8660 0.8663 0.8667 0.8670 0.8673
1844.834053 0.8677 0.8680 0.8684 0.8687 0.8690
1849.855280 0.8693 0.8696 0.8698 0.8701 0.8703
1854.876508 0.8705 0.8708 0.8710 0.8713 0.8715
1859.897735 0.8718 0.8720 0.8722 0.8725 0.8727
1864.918962 0.8730 0.8732 0.8735 0.8737 0.8739
1869.940190 0.8742 0.8744 0.8747 0.8749 0.8752
1874.961417 0.8754 0.8756 0.8759 0.8761 0.8764
1879.982644 0.8766 0.8767 0.8768 0.8769 0.8771
1885.003872 0.8772 0.8773 0.8774 0.8775 0.8777
1890.025099 0.8778 0.8779 0.8780 0.8781 0.8782
1895.046326 0.8783 0.8785 0.8786 0.8787 0.8788
1900.067553 0.8789 0.8790 0.8792 0.8793 0.8794
1905.088781 0.8795 0.8796 0.8797 0.8799 0.8800
1910.110008 0.8801 0.8802 0.8803 0.8804 0.8805
1915.131235 0.8806 0.8807 0.8808 0.8808 0.8809
1920.152463 0.8810 0.8811 0.8812 0.8812 0.8813
1925.173690 0.8814 0.8815 0.8815 0.8816 0.8817
1930.194917 0.8818 0.8819 0.8819 0.8820 0.8821
1935.216144 0.8822 0.8823 0.8824 0.8824 0.8825
1940.237372 0.8826 0.8827 0.8828 0.8829 0.8829
1945.258599 0.8830 0.8831 0.8832 0.8833 0.8834
1950.279826 0.8835 0.8835 0.8836 0.8837 0.8838
1955.301054 0.8839 0.8840 0.8840 0.8841 0.8842
1960.322281 0.8843 0.8844 0.8845 0.8846 0.8846
1965.343508 0.8847 0.8848 0.8847 0.8846 0.8845
1970.364736 0.8845 0.8844 0.8843 0.8842 0.8844
1975.385963 0.8847 0.8849 0.8852 0.8854 0.8857
1980.407190 0.8859 0.8862 0.8865 0.8871 0.8876
1985.428417 0.8882 0.8888 0.8894 0.8900 0.8907
1990.449645 0.8914 0.8921 0.8930 0.8942 0.8954
1995.470872 0.8956 0.8948 0.8940 0.8932 0.8924
2000.492099 0.8916 0.8908 0.8904 0.8904 0.8906
2005.513327 0.8907 0.8908 0.8908 0.8909 0.8910
2010.534554 0.8911 0.8912 0.8912 0.8913 0.8914
2015.555781 0.8915 0.8916 0.8917 0.8918 0.8918
2020.577009 0.8919 0.8920 0.8921 0.8922 0.8923
2025.598236 0.8924 0.8925 0.8926 0.8927 0.8928
2030.619463 0.8928 0.8929 0.8930 0.8931 0.8932
2035.640690 0.8933 0.8934 0.8935 0.8936 0.8937
2040.661918 0.8938 0.8939 0.8940 0.8941 0.8942
2045.683145 0.8943 0.8945 0.8946 0.8947 0.8948
2050.704372 0.8949 0.8950 0.8951 0.8952 0.8953
2055.725600 0.8954 0.8955 0.8956 0.8958 0.8959
2060.746827 0.8960 0.8960 0.8961 0.8962 0.8962
2065.768054 0.8963 0.8964 0.8964 0.8965 0.8966
2070.789282 0.8967 0.8967 0.8968 0.8969 0.8969
2075.810509 0.8970 0.8971 0.8971 0.8972 0.8973
2080.831736 0.8973 0.8974 0.8974 0.8975 0.8975
2085.852963 0.8976 0.8977 0.8977 0.8978 0.8978
2090.874191 0.8979 0.8980 0.8980 0.8981 0.8981
2095.895418 0.8982 0.8982 0.8983 0.8984 0.8984
2100.916645 0.8985 0.8985 0.8986 0.8986 0.8987
2105.937873 0.8988 0.8988 0.8989 0.8989 0.8990
2110.959100 0.8991 0.8992 0.8992 0.8993 0.8994
2115.980327 0.8995 0.8996 0.8996 0.8997 0.8998
2121.001554 0.8999 0.9000 0.9001 0.9001 0.9002
2126.022782 0.9003 0.9004 0.9005 0.9005 0.9006
2131.044009 0.9006 0.9006 0.9006 0.9006 0.9005
2136.065236 0.9005 0.9005 0.9005 0.9004 0.9004
2141.086464 0.9004 0.9004 0.9003 0.9003 0.9003
2146.107691 0.9003 0.9002 0.9002 0.9002 0.9002
2151.128918 0.9001 0.9001 0.9001 0.9001 0.9000
2156.150146 0.9000 0.9000 0.8999 0.8999 0.8999
2161.171373 0.8998 0.8998 0.8998 0.8997 0.8997
2166.192600 0.8997 0.8996 0.8996 0.8996 0.8995
2171.213827 0.8995 0.8995 0.8994 0.8994 0.8994
2176.235055 0.8993 0.8993 0.8993 0.8992 0.8992
2181.256282 0.8992 0.8991 0.8991 0.8991 0.8990
2186.277509 0.8990 0.8989 0.8989 0.8989 0.8988
2191.298737 0.8988 0.8988 0.8987 0.8987 0.8986
2196.319964 0.8986 0.8985 0.8985 0.8985 0.8984
2201.341191 0.8984 0.8983 0.8983 0.8982 0.8982
2206.362419 0.8982 0.8981 0.8981 0.8980 0.8980
2211.383646 0.8979 0.8979 0.8979 0.8978 0.8978
2216.404873 0.8977 0.8977 0.8976 0.8976 0.8976
2221.426100 0.8975 0.8975 0.8974 0.8974 0.8973
2226.447328 0.8973 0.8973 0.8972 0.8972 0.8971
2231.468555 0.8971 0.8972 0.8973 0.8974 0.8975
2236.489782 0.8976 0.8977 0.8978 0.8979 0.8980
2241.511010 0.8981 0.8982 0.8983 0.8983 0.8984
2246.532237 0.8985 0.8986 0.8987 0.8989 0.8991
2251.553464 0.8994 0.8996 0.8999 0.9002 0.9004
2256.574692 0.9007 0.9009 0.9012 0.9014 0.9016
2261.595919 0.9018 0.9020 0.9021 0.9023 0.9030
2266.617146 0.9030 0.9029 0.9031 0.9033 0.9035
2271.638373 0.9037 0.9039 0.9041 0.9042 0.9044
2276.659601 0.9046 0.9048 0.9050 0.9052 0.9054
2281.680828 0.9056 0.9058 0.9060 0.9062 0.9064
2286.702055 0.9066 0.9068 0.9070 0.9072 0.9074
2291.723283 0.9075 0.9077 0.9078 0.9080 0.9081
2296.744510 0.9083 0.9084 0.9087 0.9089 0.9092
2301.765737 0.9094 0.9097 0.9099 0.9102 0.9104
2306.786964 0.9104 0.9102 0.9099 0.9097 0.9095
2311.808192 0.9092 0.9090 0.9087 0.9085 0.9082
2316.829419 0.9080 0.9077 0.9074 0.9071 0.9068
2321.850646 0.9065 0.9064 0.9062 0.9061 0.9060
2326.871874 0.9058 0.9057 0.9055 0.9054 0.9052
2331.893101 0.9051 0.9050 0.9050 0.9051 0.9052
2336.914328 0.9053 0.9055 0.9056 0.9057 0.9058
2341.935556 0.9059 0.9062 0.9065 0.9068 0.9070
2346.956783 0.9073 0.9076 0.9072 0.9068 0.9064
2351.978010 0.9060 0.9056 0.9052 0.9048 0.9045
2356.999237 0.9042 0.9039 0.9036 0.9034 0.9031
2362.020465 0.9028 0.9026 0.9024 0.9022 0.9019
2367.041692 0.9018 0.9018 0.9019 0.9019 0.9019
2372.062919 0.9020 0.9020 0.9020 0.9021 0.9021
2377.084147 0.9021 0.9022 0.9022 0.9023 0.9023
2382.105374 0.9023 0.9024 0.9024 0.9024 0.9025
2387.126601 0.9025 0.9025 0.9026 0.9026 0.9026
2392.147829 0.9027 0.9027 0.9028 0.9028 0.9028
2397.169056 0.9029 0.9029 0.9029 0.9029 0.9029
2402.190283 0.9029 0.9029 0.9029 0.9029 0.9029
2407.211510 0.9030 0.9030 0.9030 0.9030 0.9030
2412.232738 0.9030 0.9030 0.9030 0.9030 0.9030
2417.253965 0.9030 0.9030 0.9031 0.9031 0.9031
2422.275192 0.9031 0.9031 0.9031 0.9031 0.9032
2427.296420 0.9032 0.9033 0.9033 0.9033 0.9034
2432.317647 0.9034 0.9035 0.9035 0.9036 0.9036
2437.338874 0.9037 0.9037 0.9038 0.9038 0.9038
2442.360101 0.9037 0.9032 0.9027 0.9021 0.9015
2447.381329 0.9009 0.9003 0.8997 0.8991 0.8985
2452.402556 0.8979 0.8973 0.8967 0.8962 0.8959
2457.423783 0.8955 0.8952 0.8949 0.8946 0.8942
2462.445011 0.8939 0.8937 0.8935 0.8933 0.8932
2467.466238 0.8930 0.8928 0.8926 0.8925 0.8925
2472.487465 0.8926 0.8926 0.8927 0.8928 0.8929
2477.508693 0.8929 0.8930 0.8931 0.8932 0.8934
2482.529920 0.8936 0.8938 0.8941 0.8943 0.8945
2487.551147 0.8947 0.8950 0.8952 0.8954 0.8956
2492.572374 0.8959 0.8961 0.8963 0.8965 0.8968
2497.593602 0.8970 0.8972 0.8974 0.8977 0.8979
2502.614829 0.8981 0.8983 0.8986 0.8988 0.8990
2507.636056 0.8992 0.8994 0.8996 0.8998 0.9000
2512.657284 0.9003 0.9005 0.9007 0.9009 0.9011
2517.678511 0.9013 0.9015 0.9017 0.9019 0.9021
2522.699738 0.9023 0.9025 0.9027 0.9029 0.9031
2527.720966 0.9034 0.9036 0.9038 0.9040 0.9042
2532.742193 0.9044 0.9046 0.9049 0.9051 0.9053
2537.763420 0.9054 0.9054 0.9055 0.9055 0.9056
2542.784647 0.9057 0.9057 0.9058 0.9058 0.9059
2547.805875 0.9060 0.9060 0.9061 0.9062 0.9062
2552.827102 0.9063 0.9063 0.9064 0.9065 0.9065
2557.848329 0.9066 0.9067 0.9067 0.9068 0.9068
2562.869557 0.9069 0.9070 0.9070 0.9071 0.9072
2567.890784 0.9072 0.9073 0.9073 0.9074 0.9075
2572.912011 0.9075 0.9076 0.9076 0.9077 0.9077
2577.933239 0.9077 0.9077 0.9076 0.9076 0.9075
2582.954466 0.9075 0.9075 0.9074 0.9074 0.9073
2587.975693 0.9073 0.9073 0.9072 0.9072 0.9072
2592.996920 0.9071 0.9071 0.9070 0.9070 0.9070
2598.018148 0.9069 0.9069 0.9068 0.9068 0.9068
2603.039375 0.9067 0.9067 0.9066 0.9066 0.9066
2608.060602 0.9065 0.9065 0.9065 0.9064 0.9064
2613.081830 0.9063 0.9063 0.9063 0.9062 0.9062
2618.103057 0.9061 0.9061 0.9061 0.9060 0.9060
2623.124284 0.9060 0.9059 0.9059 0.9058 0.9058
2628.145511 0.9057 0.9056 0.9055 0.9054 0.9052
2633.166739 0.9051 0.9050 0.9049 0.9048 0.9047
2638.187966 0.9046 0.9044 0.9043 0.9042 0.9041
2643.209193 0.9040 0.9039 0.9038 0.9037 0.9035
2648.230421 0.9034 0.9033 0.9032 0.9031 0.9030
2653.251648 0.9029 0.9027 0.9026 0.9025 0.9024
2658.272875 0.9023 0.9022 0.9020 0.9019 0.9018
2663.294103 0.9017 0.9016 0.9015 0.9014 0.9013
2668.315330 0.9011 0.9010 0.9009 0.9008 0.9007
2673.336557 0.9006 0.9005 0.9003 0.9002 0.9001
2678.357784 0.9000 0.8999 0.8998 0.8997 0.8996
2683.379012 0.8994 0.8993 0.8991 0.8988 0.8986
2688.400239 0.8984 0.8982 0.8980 0.8978 0.8976
2693.421466 0.8974 0.8972 0.8970 0.8967 0.8965
2698.442694 0.8963 0.8961 0.8959 0.8957 0.8955
2703.463921 0.8953 0.8951 0.8949 0.8947 0.8944
2708.485148 0.8942 0.8940 0.8938 0.8936 0.8934
2713.506376 0.8932 0.8930 0.8928 0.8925 0.8923
2718.527603 0.8921 0.8919 0.8917 0.8915 0.8913
2723.548830 0.8910 0.8907 0.8904 0.8901 0.8898
2728.570057 0.8895 0.8892 0.8889 0.8886 0.8883
2733.591285 0.8880 0.8877 0.8874 0.8871 0.8868
2738.612512 0.8865 0.8862 0.8859 0.8857 0.8855
2743.633739 0.8853 0.8851 0.8849 0.8847 0.8845
2748.654967 0.8843 0.8840 0.8838 0.8836 0.8834
2753.676194 0.8832 0.8830 0.8828 0.8826 0.8824
2758.697421 0.8822 0.8820 0.8818 0.8816 0.8813
2763.718649 0.8811 0.8809 0.8807 0.8805 0.8804
2768.739876 0.8802 0.8801 0.8800 0.8798 0.8797
2773.761103 0.8796 0.8795 0.8793 0.8792 0.8791
2778.782330 0.8790 0.8788 0.8787 0.8786 0.8785
2783.803558 0.8783 0.8782 0.8781 0.8780 0.8778
2788.824785 0.8777 0.8776 0.8775 0.8773 0.8772
2793.846012 0.8771 0.8770 0.8768 0.8765 0.8761
2798.867240 0.8757 0.8752 0.8748 0.8743 0.8739
2803.888467 0.8735 0.8731 0.8727 0.8723 0.8719
2808.909694 0.8715 0.8711 0.8707 0.8703 0.8699
2813.930921 0.8695 0.8690 0.8682 0.8674 0.8664
2818.952149 0.8655 0.8646 0.8638 0.8629 0.8620
2823.973376 0.8611 0.8602 0.8593 0.8585 0.8576
2828.994603 0.8567 0.8561 0.8555 0.8549 0.8543
2834.015831 0.8537 0.8531 0.8525 0.8520 0.8514
2839.037058 0.8508 0.8502 0.8496 0.8490 0.8486
2844.058285 0.8484 0.8482 0.8480 0.8478 0.8476
2849.079513 0.8473 0.8471 0.8469 0.8467 0.8464
2854.100740 0.8460 0.8455 0.8450 0.8444 0.8439
2859.121967 0.8434 0.8428 0.8423 0.8418 0.8412
2864.143194 0.8407 0.8402 0.8396 0.8391 0.8384
2869.164422 0.8376 0.8369 0.8361 0.8354 0.8346
2874.185649 0.8338 0.8330 0.8323 0.8315 0.8308
2879.206876 0.8300 0.8292 0.8281 0.8270 0.8259
2884.228104 0.8247 0.8235 0.8224 0.8213 0.8202
2889.249331 0.8190 0.8179 0.8168 0.8157 0.8145
2894.270558 0.8132 0.8114 0.8096 0.8078 0.8060
2899.291786 0.8042 0.8024 0.8006 0.7988 0.7969
2904.313013 0.7951 0.7933 0.7911 0.7879 0.7843
2909.334240 0.7809 0.7774 0.7732 0.7673 0.7606
2914.355467 0.7532 0.7461 0.7413 0.7386 0.7381
2919.376695 0.7367 0.7361 0.7386 0.7391 0.7396
2924.397922 0.7405 0.7414 0.7424 0.7438 0.7455
2929.419149 0.7470 0.7483 0.7496 0.7508 0.7520
2934.440377 0.7528 0.7531 0.7532 0.7528 0.7518
2939.461604 0.7512 0.7504 0.7494 0.7484 0.7475
2944.482831 0.7465 0.7455 0.7442 0.7427 0.7413
2949.504058 0.7398 0.7384 0.7370 0.7355 0.7341
2954.525286 0.7327 0.7313 0.7299 0.7286 0.7273
2959.546513 0.7260 0.7247 0.7234 0.7221 0.7208
2964.567740 0.7195 0.7182 0.7169 0.7155 0.7143
2969.588968 0.7131 0.7118 0.7106 0.7094 0.7081
2974.610195 0.7069 0.7057 0.7044 0.7032 0.7019
2979.631422 0.7007 0.6994 0.6982 0.6972 0.6962
2984.652650 0.6951 0.6941 0.6931 0.6921 0.6911
2989.673877 0.6901 0.6891 0.6881 0.6871 0.6860
2994.695104 0.6850 0.6840 0.6830 0.6820 0.6811
2999.716331 0.6801 0.6791 0.6781 0.6772 0.6765
3004.737559 0.6763 0.6761 0.6760 0.6757 0.6755
3009.758786 0.6754 0.6754 0.6753 0.6753 0.6752
3014.780013 0.6751 0.6751 0.6750 0.6749 0.6749
3019.801241 0.6750 0.6751 0.6751 0.6752 0.6752
3024.822468 0.6753 0.6753 0.6754 0.6754 0.6755
3029.843695 0.6756 0.6756 0.6757 0.6758 0.6758
3034.864923 0.6759 0.6760 0.6760 0.6761 0.6761
3039.886150 0.6757 0.6754 0.6751 0.6748 0.6745
3044.907377 0.6741 0.6738 0.6735 0.6732 0.6728
3049.928604 0.6725 0.6721 0.6718 0.6714 0.6710
3054.949832 0.6706 0.6703 0.6699 0.6695 0.6691
3059.971059 0.6688 0.6685 0.6683 0.6680 0.6678
3064.992286 0.6675 0.6672 0.6670 0.6667 0.6665
3070.013514 0.6662 0.6660 0.6657 0.6655 0.6652
3075.034741 0.6649 0.6647 0.6644 0.6642 0.6639
3080.055968 0.6635 0.6630 0.6625 0.6620 0.6615
3085.077196 0.6610 0.6605 0.6600 0.6595 0.6591
3090.098423 0.6586 0.6582 0.6577 0.6573 0.6569
3095.119650 0.6564 0.6560 0.6555 0.6551 0.6546
3100.140877 0.6542 0.6538 0.6534 0.6529 0.6524
3105.162105 0.6519 0.6515 0.6510 0.6505 0.6500
3110.183332 0.6497 0.6496 0.6501 0.6505 0.6510
3115.204559 0.6515 0.6519 0.6520 0.6512 0.6505
3120.225787 0.6498 0.6490 0.6474 0.6459 0.6450
3125.247014 0.6445 0.6440 0.6435 0.6430 0.6424
3130.268241 0.6419 0.6414 0.6409 0.6404 0.6399
3135.289468 0.6395 0.6390 0.6386 0.6381 0.6377
3140.310696 0.6373 0.6368 0.6364 0.6360 0.6357
3145.331923 0.6356 0.6355 0.6354 0.6353 0.6352
3150.353150 0.6351 0.6350 0.6349 0.6348 0.6347
3155.374378 0.6357 0.6364 0.6345 0.6344 0.6343
3160.395605 0.6342 0.6342 0.6345 0.6347 0.6350
3165.416832 0.6352 0.6355 0.6357 0.6360 0.6363
3170.438060 0.6365 0.6368 0.6370 0.6373 0.6375
3175.459287 0.6378 0.6381 0.6383 0.6386 0.6388
3180.480514 0.6391 0.6394 0.6396 0.6399 0.6401
3185.501741 0.6404 0.6407 0.6410 0.6412 0.6415
3190.522969 0.6417 0.6420 0.6423 0.6425 0.6428
3195.544196 0.6430 0.6433 0.6435 0.6438 0.6442
3200.565423 0.6447 0.6452 0.6457 0.6462 0.6467
3205.586651 0.6472 0.6477 0.6482 0.6487 0.6492
3210.607878 0.6497 0.6502 0.6507 0.6512 0.6518
3215.629105 0.6523 0.6528 0.6533 0.6538 0.6543
3220.650333 0.6548 0.6553 0.6558 0.6564 0.6570
3225.671560 0.6576 0.6581 0.6587 0.6593 0.6599
3230.692787 0.6604 0.6610 0.6616 0.6622 0.6627
3235.714014 0.6633 0.6639 0.6645 0.6650 0.6656
3240.735242 0.6662 0.6668 0.6673 0.6679 0.6686
3245.756469 0.6691 0.6697 0.6703 0.6709 0.6714
3250.777696 0.6720 0.6725 0.6729 0.6734 0.6739
3255.798924 0.6743 0.6748 0.6753 0.6758 0.6762
3260.820151 0.6767 0.6772 0.6776 0.6781 0.6786
3265.841378 0.6790 0.6795 0.6800 0.6805 0.6809
3270.862606 0.6814 0.6819 0.6823 0.6828 0.6833
3275.883833 0.6838 0.6842 0.6847 0.6851 0.6856
3280.905060 0.6861 0.6865 0.6870 0.6874 0.6879
3285.926287 0.6884 0.6887 0.6891 0.6882 0.6897
3290.947515 0.6900 0.6897 0.6893 0.6889 0.6885
3295.968742 0.6881 0.6878 0.6874 0.6870 0.6866
3300.989969 0.6862 0.6858 0.6855 0.6849 0.6842
3306.011197 0.6836 0.6829 0.6823 0.6816 0.6810
3311.032424 0.6805 0.6799 0.6793 0.6787 0.6781
3316.053651 0.6775 0.6769 0.6763 0.6758 0.6752
3321.074878 0.6746 0.6740 0.6734 0.6727 0.6721
3326.096106 0.6714 0.6708 0.6701 0.6695 0.6688
3331.117333 0.6682 0.6675 0.6669 0.6662 0.6656
3336.138560 0.6649 0.6643 0.6636 0.6631 0.6625
3341.159788 0.6620 0.6614 0.6609 0.6603 0.6598
3346.181015 0.6593 0.6587 0.6582 0.6576 0.6571
3351.202242 0.6565 0.6560 0.6554 0.6549 0.6544
3356.223470 0.6538 0.6533 0.6528 0.6524 0.6520
3361.244697 0.6516 0.6512 0.6508 0.6505 0.6501
3366.265924 0.6497 0.6493 0.6489 0.6485 0.6481
3371.287151 0.6477 0.6474 0.6470 0.6466 0.6462
3376.308379 0.6458 0.6454 0.6451 0.6449 0.6447
3381.329606 0.6444 0.6442 0.6440 0.6438 0.6435
3386.350833 0.6433 0.6431 0.6429 0.6427 0.6424
3391.372061 0.6422 0.6420 0.6418 0.6415 0.6413
3396.393288 0.6412 0.6411 0.6412 0.6414 0.6415
3401.414515 0.6416 0.6417 0.6418 0.6419 0.6421
3406.435743 0.6422 0.6423 0.6424 0.6425 0.6426
3411.456970 0.6428 0.6429 0.6430 0.6431 0.6432
3416.478197 0.6434 0.6435 0.6436 0.6437 0.6439
3421.499424 0.6440 0.6442 0.6444 0.6447 0.6449
3426.520652 0.6451 0.6453 0.6455 0.6457 0.6459
3431.541879 0.6462 0.6464 0.6466 0.6468 0.6470
3436.563106 0.6472 0.6475 0.6477 0.6479 0.6482
3441.584334 0.6484 0.6487 0.6489 0.6491 0.6494
3446.605561 0.6496 0.6499 0.6501 0.6504 0.6506
3451.626788 0.6509 0.6511 0.6514 0.6516 0.6519
3456.648015 0.6521 0.6524 0.6526 0.6529 0.6531
3461.669243 0.6531 0.6531 0.6531 0.6532 0.6532
3466.690470 0.6532 0.6532 0.6532 0.6533 0.6533
3471.711697 0.6536 0.6534 0.6534 0.6534 0.6533
3476.732925 0.6530 0.6528 0.6525 0.6522 0.6519
3481.754152 0.6516 0.6513 0.6510 0.6507 0.6504
3486.775379 0.6501 0.6499 0.6494 0.6490 0.6485
3491.796607 0.6481 0.6476 0.6472 0.6467 0.6463
3496.817834 0.6459 0.6454 0.6450 0.6445 0.6441
3501.839061 0.6438 0.6436 0.6435 0.6434 0.6433
3506.860288 0.6432 0.6431 0.6430 0.6428 0.6427
3511.881516 0.6426 0.6427 0.6430 0.6432 0.6435
3516.902743 0.6438 0.6441 0.6443 0.6446 0.6449
3521.923970 0.6452 0.6454 0.6457 0.6460 0.6466
3526.945198 0.6472 0.6478 0.6484 0.6490 0.6496
3531.966425 0.6502 0.6508 0.6514 0.6520 0.6526
3536.987652 0.6532 0.6538 0.6544 0.6550 0.6556
3542.008880 0.6562 0.6569 0.6575 0.6581 0.6587
3547.030107 0.6593 0.6599 0.6605 0.6611 0.6617
3552.051334 0.6624 0.6630 0.6636 0.6643 0.6651
3557.072561 0.6659 0.6667 0.6674 0.6682 0.6689
3562.093789 0.6697 0.6704 0.6712 0.6719 0.6727
3567.115016 0.6734 0.6746 0.6762 0.6777 0.6793
3572.136243 0.6809 0.6828 0.6847 0.6866 0.6885
3577.157471 0.6904 0.6923 0.6945 0.6973 0.7001
3582.178698 0.7030 0.7058 0.7085 0.7111 0.7138
3587.199925 0.7164 0.7190 0.7216 0.7238 0.7260
3592.221153 0.7280 0.7301 0.7322 0.7343 0.7363
3597.242380 0.7384 0.7404 0.7425 0.7446 0.7466
3602.263607 0.7485 0.7503 0.7521 0.7539 0.7557
3607.284834 0.7574 0.7592 0.7610 0.7628 0.7646
3612.306062 0.7664 0.7682 0.7699 0.7714 0.7729
3617.327289 0.7743 0.7758 0.7772 0.7786 0.7800
3622.348516 0.7815 0.7829 0.7843 0.7858 0.7872
3627.369744 0.7886 0.7899 0.7911 0.7921 0.7932
3632.390971 0.7942 0.7953 0.7963 0.7974 0.7984
3637.412198 0.7996 0.8006 0.8017 0.8027 0.8038
3642.433425 0.8048 0.8059 0.8069 0.8076 0.8084
3647.454653 0.8091 0.8099 0.8106 0.8114 0.8121
3652.475880 0.8129 0.8136 0.8143 0.8151 0.8157
3657.497107 0.8161 0.8166 0.8170 0.8174 0.8179
3662.518335 0.8183 0.8187 0.8192 0.8196 0.8200
3667.539562 0.8204 0.8206 0.8208 0.8209 0.8211
3672.560789 0.8213 0.8214 0.8216 0.8218 0.8219
3677.582017 0.8221 0.8223 0.8224 0.8226 0.8231
3682.603244 0.8237 0.8243 0.8249 0.8256 0.8262
3687.624471 0.8268 0.8274 0.8281 0.8287 0.8293
3692.645698 0.8300 0.8306 0.8312 0.8318 0.8324
3697.666926 0.8331 0.8337 0.8343 0.8349 0.8356
3702.688153 0.8362 0.8368 0.8374 0.8381 0.8387
3707.709380 0.8393 0.8399 0.8401 0.8401 0.8402
3712.730608 0.8402 0.8402 0.8402 0.8403 0.8403
3717.751835 0.8403 0.8403 0.8403 0.8404 0.8404
3722.773062 0.8404 0.8404 0.8405 0.8405 0.8405
3727.794290 0.8405 0.8405 0.8406 0.8406 0.8406
3732.815517 0.8406 0.8407 0.8407 0.8407 0.8407
3737.836744 0.8408 0.8408 0.8408 0.8408 0.8408
3742.857971 0.8408 0.8408 0.8408 0.8409 0.8409
3747.879199 0.8409 0.8409 0.8409 0.8409 0.8409
3752.900426 0.8409 0.8410 0.8410 0.8410 0.8410
3757.921653 0.8410 0.8410 0.8410 0.8411 0.8411
3762.942881 0.8411 0.8411 0.8411 0.8411 0.8411
3767.964108 0.8411 0.8412 0.8412 0.8412 0.8412
3772.985335 0.8412 0.8412 0.8412 0.8412 0.8413
3778.006563 0.8413 0.8413 0.8414 0.8414 0.8414
3783.027790 0.8415 0.8415 0.8416 0.8416 0.8417
3788.049017 0.8417 0.8417 0.8418 0.8418 0.8419
3793.070244 0.8419 0.8419 0.8420 0.8420 0.8421
3798.091472 0.8421 0.8422 0.8422 0.8422 0.8423
3803.112699 0.8423 0.8424 0.8424 0.8425 0.8425
3808.133926 0.8425 0.8426 0.8426 0.8427 0.8427
3813.155154 0.8427 0.8428 0.8428 0.8429 0.8429
3818.176381 0.8430 0.8430 0.8430 0.8430 0.8429
3823.197608 0.8429 0.8429 0.8428 0.8428 0.8428
3828.218835 0.8428 0.8427 0.8427 0.8427 0.8426
3833.240063 0.8426 0.8430 0.8437 0.8425 0.8425
3838.261290 0.8425 0.8424 0.8424 0.8424 0.8423
3843.282517 0.8423 0.8423 0.8422 0.8422 0.8422
3848.303745 0.8422 0.8421 0.8421 0.8421 0.8420
3853.324972 0.8420 0.8420 0.8419 0.8419 0.8419
3858.346199 0.8418 0.8418 0.8418 0.8418 0.8417
3863.367427 0.8417 0.8417 0.8417 0.8417 0.8417
3868.388654 0.8417 0.8417 0.8417 0.8417 0.8417
3873.409881 0.8417 0.8417 0.8417 0.8417 0.8418
3878.431108 0.8418 0.8418 0.8418 0.8418 0.8418
3883.452336 0.8418 0.8418 0.8418 0.8418 0.8418
3888.473563 0.8418 0.8418 0.8418 0.8418 0.8418
3893.494790 0.8418 0.8418 0.8418 0.8419 0.8419
3898.516018 0.8419 0.8419 0.8419 0.8419 0.8419
3903.537245 0.8419 0.8419 0.8419 0.8419 0.8419
3908.558472 0.8419 0.8419 0.8419 0.8420 0.8420
3913.579700 0.8420 0.8420 0.8420 0.8420 0.8420
3918.600927 0.8420 0.8421 0.8421 0.8421 0.8421
3923.622154 0.8421 0.8421 0.8421 0.8421 0.8422
3928.643381 0.8422 0.8422 0.8422 0.8422 0.8422
3933.664609 0.8422 0.8422 0.8422 0.8423 0.8423
3938.685836 0.8423 0.8423 0.8423 0.8423 0.8423
3943.707063 0.8423 0.8423 0.8422 0.8422 0.8422
3948.728291 0.8422 0.8422 0.8421 0.8421 0.8421
3953.749518 0.8421 0.8420 0.8420 0.8420 0.8420
3958.770745 0.8419 0.8419 0.8419 0.8419 0.8419
3963.791972 0.8418 0.8418 0.8418 0.8418 0.8417
3968.813200 0.8418 0.8418 0.8418 0.8418 0.8418
3973.834427 0.8419 0.8419 0.8419 0.8419 0.8420
3978.855654 0.8420 0.8420 0.8420 0.8420 0.8421
3983.876882 0.8421 0.8421 0.8420 0.8420 0.8419
3988.898109 0.8418 0.8417 0.8416 0.8416 0.8415
3993.919336 0.8414 0.8413 0.8412 0.8412 0.8411
3998.940564 0.8410 0.8409 0.8409 0.8408 0.8407
4003.961791 0.8406 0.8405 0.8405 0.8404 0.8403
4008.983018 0.8402 0.8401 0.8401 0.8400
##END=
