##TITLE=CyclohexaneCarboxylic acid, 3,4-dihydroxy-cis-3, cis-4, methyl ester
##JCAMP-DX=4.24
##DATA TYPE=INFRARED SPECTRUM
##CLASS=COBLENTZ III
##ORIGIN=SOUTHERN RESEARCH INSTITUTE
##OWNER=Copyright (C) 1987 by the Coblentz Society
Collection (C) 2018 copyright by the U.S. Secretary of Commerce
on behalf of the United States of America. All rights reserved.
##DATE=1959/08/28
##NAMES=methyl 3,4-dihydroxycyclohexanecarboxylate
##MOLFORM=C8 H14 O4
##SOURCE REFERENCE=COBLENTZ NO. 8355
##$NIST ID=B6008355
##$NIST SOURCE=COBLENTZ
##$NIST IMAGE=cob8355
##SPECTROMETER/DATA SYSTEM=PERKIN-ELMER 21 (GRATING)
##INSTRUMENT PARAMETERS=FILTER CHANGE ABOUT 1025 CM^-^1
##STATE=LIQUID (NEAT)
##PATH LENGTH=CAPILLARY
##SAMPLING PROCEDURE=TRANSMISSION
##RESOLUTION=2
##DATA PROCESSING=DIGITIZED BY COBLENTZ SOCIETY (BATCH II) FROM HARD COPY
##XUNITS=1/CM
##YUNITS=TRANSMITTANCE
##XFACTOR=1.0
##YFACTOR=1
##FIRSTX=607
##LASTX=4000
##FIRSTY=0.6612
##MAXX=4000
##MINX=607
##MAXY=0.9035
##MINY=0.0512
##NPOINTS=3394
##XYDATA=(X++(Y..Y))
607.000000 0.6612 0.6613 0.6613 0.6613 0.6614
612.000000 0.6614 0.6617 0.6620 0.6623 0.6626
617.000000 0.6630 0.6635 0.6643 0.6663 0.6658
622.000000 0.6665 0.6673 0.6682 0.6691 0.6701
627.000000 0.6710 0.6719 0.6729 0.6737 0.6746
632.000000 0.6755 0.6764 0.6775 0.6786 0.6796
637.000000 0.6807 0.6818 0.6828 0.6839 0.6850
642.000000 0.6860 0.6871 0.6879 0.6888 0.6896
647.000000 0.6905 0.6913 0.6923 0.6933 0.6942
652.000000 0.6949 0.6957 0.6964 0.6979 0.6994
657.000000 0.7011 0.7029 0.7047 0.7064 0.7082
662.000000 0.7100 0.7115 0.7130 0.7145 0.7163
667.000000 0.7192 0.7222 0.7258 0.7365 0.7478
672.000000 0.7528 0.7544 0.7560 0.7576 0.7589
677.000000 0.7598 0.7608 0.7620 0.7643 0.7666
682.000000 0.7707 0.7758 0.7812 0.7858 0.7886
687.000000 0.7910 0.7923 0.7936 0.7948 0.7961
692.000000 0.7969 0.7978 0.7987 0.7995 0.8004
697.000000 0.8013 0.8021 0.8030 0.8039 0.8047
702.000000 0.8062 0.8077 0.8097 0.8126 0.8152
707.000000 0.8164 0.8176 0.8187 0.8199 0.8207
712.000000 0.8215 0.8223 0.8232 0.8239 0.8245
717.000000 0.8251 0.8256 0.8262 0.8268 0.8273
722.000000 0.8279 0.8280 0.8281 0.8281 0.8282
727.000000 0.8283 0.8283 0.8281 0.8285 0.8285
732.000000 0.8286 0.8286 0.8281 0.8276 0.8271
737.000000 0.8266 0.8261 0.8256 0.8247 0.8235
742.000000 0.8222 0.8210 0.8187 0.8163 0.8138
747.000000 0.8102 0.8055 0.8010 0.7967 0.7925
752.000000 0.7891 0.7862 0.7823 0.7856 0.7869
757.000000 0.7880 0.7891 0.7905 0.7916 0.7927
762.000000 0.7937 0.7948 0.7959 0.7972 0.7985
767.000000 0.8000 0.8014 0.8029 0.8045 0.8061
772.000000 0.8078 0.8101 0.8149 0.8199 0.8258
777.000000 0.8322 0.8420 0.8473 0.8513 0.8512
782.000000 0.8511 0.8495 0.8506 0.8503 0.8499
787.000000 0.8492 0.8485 0.8478 0.8466 0.8458
792.000000 0.8456 0.8454 0.8452 0.8459 0.8468
797.000000 0.8485 0.8511 0.8547 0.8579 0.8602
802.000000 0.8608 0.8607 0.8600 0.8590 0.8581
807.000000 0.8571 0.8557 0.8543 0.8529 0.8507
812.000000 0.8484 0.8461 0.8436 0.8412 0.8388
817.000000 0.8361 0.8335 0.8308 0.8296 0.8292
822.000000 0.8287 0.8282 0.8281 0.8280 0.8279
827.000000 0.8279 0.8282 0.8286 0.8277 0.8259
832.000000 0.8242 0.8225 0.8210 0.8206 0.8202
837.000000 0.8198 0.8194 0.8190 0.8186 0.8180
842.000000 0.8173 0.8167 0.8159 0.8147 0.8135
847.000000 0.8125 0.8120 0.8116 0.8112 0.8108
852.000000 0.8104 0.8101 0.8098 0.8095 0.8092
857.000000 0.8089 0.8086 0.8074 0.8060 0.8046
862.000000 0.8031 0.8016 0.7997 0.7976 0.7955
867.000000 0.7933 0.7907 0.7881 0.7856 0.7825
872.000000 0.7791 0.7757 0.7723 0.7690 0.7659
877.000000 0.7629 0.7599 0.7568 0.7538 0.7508
882.000000 0.7477 0.7447 0.7408 0.7358 0.7308
887.000000 0.7258 0.7213 0.7179 0.7145 0.7111
892.000000 0.7077 0.6954 0.6992 0.6957 0.6956
897.000000 0.6956 0.6958 0.6965 0.6973 0.6986
902.000000 0.7001 0.7026 0.7051 0.7075 0.7101
907.000000 0.7129 0.7157 0.7181 0.7204 0.7227
912.000000 0.7246 0.7264 0.7274 0.7278 0.7282
917.000000 0.7281 0.7278 0.7272 0.7266 0.7260
922.000000 0.7253 0.7240 0.7227 0.7213 0.7200
927.000000 0.7191 0.7182 0.7188 0.7203 0.7227
932.000000 0.7265 0.7306 0.7346 0.7376 0.7402
937.000000 0.7423 0.7434 0.7436 0.7435 0.7434
942.000000 0.7469 0.7431 0.7419 0.7411 0.7403
947.000000 0.7378 0.7334 0.6836 0.6698 0.6626
952.000000 0.6557 0.6498 0.6477 0.6473 0.6468
957.000000 0.6490 0.6523 0.6562 0.6601 0.6639
962.000000 0.6678 0.6717 0.6756 0.6794 0.6833
967.000000 0.6859 0.6887 0.6812 0.6690 0.6567
972.000000 0.6445 0.6322 0.6256 0.6208 0.6143
977.000000 0.6104 0.6073 0.6047 0.6024 0.6007
982.000000 0.5993 0.5979 0.5968 0.5961 0.5955
987.000000 0.5939 0.5920 0.5902 0.5874 0.5845
992.000000 0.5814 0.5781 0.5740 0.5697 0.5648
997.000000 0.5592 0.5534 0.5462 0.5309 0.5216
1002.000000 0.5137 0.5085 0.5038 0.4991 0.4893
1007.000000 0.4779 0.4666 0.4552 0.4438 0.4324
1012.000000 0.4211 0.4097 0.3983 0.3870 0.3756
1017.000000 0.3642 0.3528 0.3145 0.3301 0.3228
1022.000000 0.3224 0.3232 0.3243 0.3268 0.3310
1027.000000 0.3349 0.3380 0.3406 0.3423 0.3428
1032.000000 0.3421 0.3475 0.3358 0.3297 0.3234
1037.000000 0.3152 0.3052 0.2975 0.2886 0.2757
1042.000000 0.2701 0.2673 0.2658 0.2692 0.2820
1047.000000 0.2637 0.3013 0.3070 0.3128 0.3183
1052.000000 0.3231 0.3313 0.3406 0.3500 0.3594
1057.000000 0.3688 0.3781 0.3823 0.3828 0.3828
1062.000000 0.3821 0.3813 0.3806 0.3800 0.3794
1067.000000 0.3790 0.3787 0.3784 0.3784 0.3791
1072.000000 0.3808 0.3836 0.3871 0.3914 0.3973
1077.000000 0.4049 0.4166 0.4304 0.4437 0.4530
1082.000000 0.4615 0.4868 0.4965 0.5154 0.5246
1087.000000 0.5407 0.5501 0.5573 0.5594 0.5602
1092.000000 0.5609 0.5615 0.5620 0.5624 0.5627
1097.000000 0.5630 0.5633 0.5636 0.5640 0.5645
1102.000000 0.5650 0.5656 0.5662 0.5669 0.5679
1107.000000 0.5693 0.5707 0.5721 0.5738 0.5755
1112.000000 0.5762 0.5754 0.5734 0.5708 0.5650
1117.000000 0.5622 0.5610 0.5608 0.5615 0.5629
1122.000000 0.5646 0.5680 0.5722 0.5760 0.5794
1127.000000 0.5821 0.5849 0.5880 0.5919 0.5975
1132.000000 0.6063 0.6164 0.6324 0.6440 0.6470
1137.000000 0.6472 0.6472 0.6470 0.6457 0.6440
1142.000000 0.6419 0.6271 0.6120 0.5970 0.5820
1147.000000 0.5670 0.5519 0.5369 0.5219 0.5069
1152.000000 0.4918 0.4768 0.4618 0.4468 0.4317
1157.000000 0.4167 0.4017 0.3867 0.3716 0.3566
1162.000000 0.3440 0.3350 0.3267 0.3162 0.3053
1167.000000 0.2791 0.2833 0.2834 0.2840 0.2849
1172.000000 0.2860 0.2880 0.2904 0.2925 0.2973
1177.000000 0.3103 0.3232 0.3322 0.3320 0.3317
1182.000000 0.3310 0.3355 0.3272 0.3217 0.3170
1187.000000 0.3078 0.3012 0.2952 0.2904 0.2868
1192.000000 0.2833 0.2801 0.2770 0.2759 0.2752
1197.000000 0.2744 0.2741 0.2740 0.2739 0.2737
1202.000000 0.2736 0.2736 0.2736 0.2732 0.2718
1207.000000 0.2685 0.2645 0.2606 0.2566 0.2525
1212.000000 0.2480 0.2435 0.2391 0.2350 0.2308
1217.000000 0.2267 0.2226 0.2178 0.2130 0.2082
1222.000000 0.2034 0.1978 0.1912 0.1845 0.1762
1227.000000 0.1663 0.1544 0.1392 0.1280 0.1167
1232.000000 0.1050 0.0975 0.0928 0.0882 0.0840
1237.000000 0.0803 0.0792 0.0782 0.0778 0.0776
1242.000000 0.0772 0.0780 0.0786 0.0793 0.0800
1247.000000 0.0807 0.0820 0.0838 0.0859 0.0888
1252.000000 0.0918 0.0951 0.0990 0.1030 0.1072
1257.000000 0.1114 0.1165 0.1218 0.1264 0.1302
1262.000000 0.1340 0.1379 0.1412 0.1445 0.1483
1267.000000 0.1542 0.1620 0.1725 0.1831 0.1937
1272.000000 0.2042 0.2148 0.2254 0.2359 0.2465
1277.000000 0.2570 0.2676 0.2782 0.2887 0.2993
1282.000000 0.3099 0.3204 0.3310 0.3416 0.3521
1287.000000 0.3627 0.3732 0.3838 0.3944 0.4049
1292.000000 0.4155 0.4250 0.4314 0.4379 0.4451
1297.000000 0.4531 0.4560 0.4565 0.4569 0.4573
1302.000000 0.4573 0.4573 0.4575 0.4579 0.4593
1307.000000 0.4607 0.4620 0.4632 0.4647 0.4669
1312.000000 0.4690 0.4714 0.4741 0.4769 0.4798
1317.000000 0.4829 0.4860 0.4891 0.4948 0.5007
1322.000000 0.5104 0.5214 0.5315 0.5383 0.5451
1327.000000 0.5518 0.5584 0.5648 0.5712 0.5758
1332.000000 0.5783 0.5809 0.5835 0.5852 0.5860
1337.000000 0.5860 0.5852 0.5848 0.5839 0.5828
1342.000000 0.5811 0.5788 0.5761 0.5729 0.5678
1347.000000 0.5621 0.5489 0.5428 0.5368 0.5276
1352.000000 0.5153 0.4985 0.4816 0.4648 0.4480
1357.000000 0.4311 0.4143 0.3975 0.3806 0.3582
1362.000000 0.3415 0.3137 0.3001 0.2963 0.2938
1367.000000 0.2945 0.2911 0.3052 0.3123 0.3176
1372.000000 0.3235 0.3297 0.3338 0.3379 0.3540
1377.000000 0.3714 0.3888 0.4062 0.4236 0.4410
1382.000000 0.4583 0.4757 0.4931 0.5105 0.5279
1387.000000 0.5453 0.5627 0.5917 0.5982 0.6047
1392.000000 0.6114 0.6162 0.6210 0.6253 0.6285
1397.000000 0.6317 0.6348 0.6367 0.6387 0.6406
1402.000000 0.6421 0.6428 0.6436 0.6443 0.6444
1407.000000 0.6441 0.6437 0.6431 0.6425 0.6418
1412.000000 0.6405 0.6391 0.6366 0.6315 0.6253
1417.000000 0.6139 0.6072 0.6047 0.6026 0.6012
1422.000000 0.5998 0.5980 0.5961 0.5914 0.5870
1427.000000 0.5819 0.5679 0.5258 0.4838 0.4418
1432.000000 0.3839 0.3776 0.3725 0.3713 0.3707
1437.000000 0.3700 0.3741 0.3778 0.3831 0.3899
1442.000000 0.3972 0.4045 0.4123 0.4218 0.4288
1447.000000 0.4349 0.4416 0.4485 0.4573 0.4638
1452.000000 0.4686 0.4741 0.4805 0.4891 0.5127
1457.000000 0.5259 0.5298 0.5327 0.5355 0.5383
1462.000000 0.5410 0.5448 0.5734 0.6033 0.6332
1467.000000 0.6631 0.6930 0.7173 0.7344 0.7496
1472.000000 0.7574 0.7653 0.7722 0.7791 0.7845
1477.000000 0.7893 0.7942 0.7976 0.8003 0.8031
1482.000000 0.8058 0.8086 0.8113 0.8137 0.8160
1487.000000 0.8183 0.8207 0.8229 0.8249 0.8268
1492.000000 0.8287 0.8305 0.8315 0.8325 0.8335
1497.000000 0.8346 0.8356 0.8366 0.8376 0.8386
1502.000000 0.8394 0.8403 0.8411 0.8420 0.8428
1507.000000 0.8434 0.8439 0.8444 0.8449 0.8454
1512.000000 0.8458 0.8461 0.8465 0.8468 0.8471
1517.000000 0.8474 0.8478 0.8484 0.8489 0.8494
1522.000000 0.8500 0.8505 0.8511 0.8517 0.8523
1527.000000 0.8529 0.8535 0.8540 0.8546 0.8551
1532.000000 0.8555 0.8558 0.8562 0.8565 0.8568
1537.000000 0.8572 0.8575 0.8578 0.8582 0.8585
1542.000000 0.8588 0.8591 0.8594 0.8597 0.8600
1547.000000 0.8603 0.8606 0.8609 0.8612 0.8614
1552.000000 0.8615 0.8615 0.8615 0.8616 0.8616
1557.000000 0.8616 0.8616 0.8617 0.8617 0.8617
1562.000000 0.8618 0.8633 0.8619 0.8619 0.8620
1567.000000 0.8621 0.8622 0.8622 0.8623 0.8624
1572.000000 0.8624 0.8623 0.8621 0.8620 0.8618
1577.000000 0.8617 0.8615 0.8611 0.8604 0.8598
1582.000000 0.8592 0.8586 0.8578 0.8571 0.8563
1587.000000 0.8555 0.8548 0.8540 0.8533 0.8525
1592.000000 0.8518 0.8511 0.8504 0.8496 0.8489
1597.000000 0.8482 0.8475 0.8468 0.8460 0.8452
1602.000000 0.8440 0.8427 0.8414 0.8401 0.8388
1607.000000 0.8375 0.8363 0.8351 0.8340 0.8328
1612.000000 0.8316 0.8305 0.8293 0.8281 0.8270
1617.000000 0.8257 0.8242 0.8228 0.8213 0.8199
1622.000000 0.8185 0.8170 0.8156 0.8139 0.8122
1627.000000 0.8104 0.8087 0.8069 0.8053 0.8036
1632.000000 0.8019 0.8003 0.7986 0.7969 0.7953
1637.000000 0.7936 0.7919 0.7903 0.7886 0.7869
1642.000000 0.7851 0.7831 0.7810 0.7790 0.7770
1647.000000 0.7749 0.7729 0.7709 0.7688 0.7663
1652.000000 0.7632 0.7601 0.7569 0.7536 0.7501
1657.000000 0.7466 0.7432 0.7397 0.7362 0.7325
1662.000000 0.7279 0.7232 0.7186 0.7139 0.7093
1667.000000 0.7047 0.7001 0.6955 0.6909 0.6862
1672.000000 0.6813 0.6760 0.6707 0.6653 0.6598
1677.000000 0.6543 0.6487 0.6432 0.6362 0.6261
1682.000000 0.6160 0.6070 0.5987 0.5888 0.5537
1687.000000 0.4898 0.4825 0.4765 0.4706 0.4645
1692.000000 0.4584 0.4434 0.4099 0.3824 0.3549
1697.000000 0.3274 0.2999 0.2724 0.2449 0.2175
1702.000000 0.1900 0.1625 0.1350 0.1129 0.0948
1707.000000 0.0819 0.0705 0.0670 0.0630 0.0585
1712.000000 0.0538 0.0523 0.0512 0.0514 0.0516
1717.000000 0.0539 0.0520 0.0533 0.0553 0.0581
1722.000000 0.0621 0.0663 0.0700 0.0726 0.0756
1727.000000 0.0770 0.0779 0.0786 0.0792 0.0804
1732.000000 0.0816 0.0835 0.0874 0.0936 0.1084
1737.000000 0.1352 0.1637 0.1922 0.2207 0.2492
1742.000000 0.2777 0.3062 0.3347 0.3632 0.3917
1747.000000 0.4202 0.4487 0.4772 0.5057 0.5342
1752.000000 0.5566 0.5620 0.5675 0.5737 0.5799
1757.000000 0.5863 0.5889 0.5915 0.5940 0.5964
1762.000000 0.5988 0.6012 0.6023 0.6034 0.6045
1767.000000 0.6055 0.6058 0.6060 0.6061 0.6066
1772.000000 0.6072 0.6083 0.6096 0.6116 0.6141
1777.000000 0.6166 0.6191 0.6227 0.6261 0.6289
1782.000000 0.6325 0.6590 0.6913 0.7237 0.7414
1787.000000 0.7515 0.7603 0.7668 0.7720 0.7766
1792.000000 0.7806 0.7857 0.7928 0.8019 0.8067
1797.000000 0.8107 0.8147 0.8186 0.8213 0.8240
1802.000000 0.8267 0.8294 0.8319 0.8342 0.8366
1807.000000 0.8386 0.8403 0.8420 0.8438 0.8455
1812.000000 0.8472 0.8489 0.8507 0.8524 0.8541
1817.000000 0.8558 0.8573 0.8589 0.8604 0.8620
1822.000000 0.8635 0.8651 0.8666 0.8678 0.8689
1827.000000 0.8698 0.8707 0.8715 0.8724 0.8733
1832.000000 0.8740 0.8748 0.8754 0.8759 0.8764
1837.000000 0.8769 0.8774 0.8779 0.8784 0.8789
1842.000000 0.8792 0.8796 0.8800 0.8803 0.8807
1847.000000 0.8810 0.8813 0.8815 0.8818 0.8821
1852.000000 0.8824 0.8826 0.8829 0.8832 0.8835
1857.000000 0.8837 0.8840 0.8843 0.8845 0.8848
1862.000000 0.8851 0.8854 0.8856 0.8859 0.8861
1867.000000 0.8863 0.8864 0.8866 0.8868 0.8869
1872.000000 0.8868 0.8867 0.8866 0.8864 0.8863
1877.000000 0.8862 0.8860 0.8859 0.8858 0.8857
1882.000000 0.8858 0.8860 0.8861 0.8863 0.8864
1887.000000 0.8866 0.8867 0.8867 0.8867 0.8868
1892.000000 0.8869 0.8869 0.8870 0.8871 0.8872
1897.000000 0.8872 0.8873 0.8874 0.8875 0.8876
1902.000000 0.8876 0.8877 0.8878 0.8879 0.8880
1907.000000 0.8881 0.8882 0.8883 0.8884 0.8884
1912.000000 0.8886 0.8887 0.8889 0.8890 0.8892
1917.000000 0.8893 0.8894 0.8894 0.8894 0.8894
1922.000000 0.8894 0.8894 0.8893 0.8893 0.8893
1927.000000 0.8893 0.8893 0.8892 0.8892 0.8892
1932.000000 0.8892 0.8892 0.8892 0.8892 0.8892
1937.000000 0.8893 0.8894 0.8894 0.8895 0.8895
1942.000000 0.8896 0.8896 0.8897 0.8898 0.8898
1947.000000 0.8899 0.8899 0.8900 0.8900 0.8901
1952.000000 0.8901 0.8902 0.8903 0.8903 0.8904
1957.000000 0.8904 0.8905 0.8905 0.8906 0.8907
1962.000000 0.8907 0.8907 0.8907 0.8908 0.8908
1967.000000 0.8908 0.8908 0.8908 0.8908 0.8908
1972.000000 0.8908 0.8909 0.8909 0.8909 0.8909
1977.000000 0.8909 0.8909 0.8909 0.8909 0.8910
1982.000000 0.8910 0.8910 0.8910 0.8910 0.8910
1987.000000 0.8910 0.8909 0.8908 0.8908 0.8907
1992.000000 0.8906 0.8906 0.8905 0.8904 0.8904
1997.000000 0.8903 0.8902 0.8902 0.8901 0.8900
2002.000000 0.8900 0.8899 0.8898 0.8898 0.8897
2007.000000 0.8896 0.8896 0.8895 0.8894 0.8894
2012.000000 0.8893 0.8893 0.8893 0.8893 0.8892
2017.000000 0.8892 0.8892 0.8891 0.8891 0.8891
2022.000000 0.8890 0.8890 0.8890 0.8890 0.8889
2027.000000 0.8889 0.8889 0.8888 0.8888 0.8888
2032.000000 0.8887 0.8887 0.8887 0.8886 0.8886
2037.000000 0.8886 0.8885 0.8906 0.8884 0.8883
2042.000000 0.8882 0.8882 0.8881 0.8880 0.8880
2047.000000 0.8879 0.8878 0.8878 0.8877 0.8876
2052.000000 0.8875 0.8875 0.8874 0.8873 0.8873
2057.000000 0.8872 0.8871 0.8871 0.8870 0.8869
2062.000000 0.8869 0.8868 0.8867 0.8867 0.8866
2067.000000 0.8866 0.8866 0.8865 0.8865 0.8865
2072.000000 0.8865 0.8864 0.8864 0.8864 0.8863
2077.000000 0.8863 0.8863 0.8862 0.8862 0.8862
2082.000000 0.8861 0.8861 0.8861 0.8861 0.8862
2087.000000 0.8862 0.8863 0.8863 0.8864 0.8865
2092.000000 0.8865 0.8866 0.8866 0.8867 0.8867
2097.000000 0.8868 0.8869 0.8869 0.8870 0.8870
2102.000000 0.8871 0.8872 0.8872 0.8873 0.8873
2107.000000 0.8874 0.8874 0.8875 0.8876 0.8876
2112.000000 0.8876 0.8877 0.8877 0.8877 0.8878
2117.000000 0.8878 0.8878 0.8878 0.8879 0.8879
2122.000000 0.8879 0.8880 0.8880 0.8880 0.8881
2127.000000 0.8882 0.8883 0.8884 0.8885 0.8886
2132.000000 0.8887 0.8888 0.8889 0.8890 0.8892
2137.000000 0.8893 0.8894 0.8896 0.8897 0.8899
2142.000000 0.8900 0.8902 0.8903 0.8905 0.8907
2147.000000 0.8909 0.8912 0.8914 0.8918 0.8923
2152.000000 0.8927 0.8932 0.8940 0.8949 0.8957
2157.000000 0.8969 0.8980 0.8978 0.8969 0.8959
2162.000000 0.8950 0.8940 0.8931 0.8918 0.8905
2167.000000 0.8901 0.8898 0.8895 0.8893 0.8893
2172.000000 0.8894 0.8896 0.8900 0.8904 0.8907
2177.000000 0.8910 0.8913 0.8916 0.8919 0.8922
2182.000000 0.8925 0.8928 0.8931 0.8933 0.8936
2187.000000 0.8938 0.8940 0.8942 0.8944 0.8946
2192.000000 0.8948 0.8950 0.8951 0.8952 0.8952
2197.000000 0.8953 0.8954 0.8954 0.8955 0.8956
2202.000000 0.8956 0.8957 0.8957 0.8957 0.8957
2207.000000 0.8957 0.8957 0.8957 0.8957 0.8957
2212.000000 0.8957 0.8957 0.8957 0.8957 0.8957
2217.000000 0.8957 0.8957 0.8958 0.8958 0.8958
2222.000000 0.8959 0.8959 0.8959 0.8958 0.8957
2227.000000 0.8957 0.8956 0.8955 0.8955 0.8954
2232.000000 0.8953 0.8952 0.8952 0.8951 0.8950
2237.000000 0.8950 0.8949 0.8948 0.8948 0.8947
2242.000000 0.8946 0.8945 0.8945 0.8944 0.8944
2247.000000 0.8943 0.8943 0.8942 0.8942 0.8941
2252.000000 0.8941 0.8940 0.8940 0.8940 0.8939
2257.000000 0.8939 0.8938 0.8938 0.8937 0.8937
2262.000000 0.8936 0.8936 0.8935 0.8935 0.8935
2267.000000 0.8935 0.8935 0.8934 0.8934 0.8934
2272.000000 0.8934 0.8934 0.8933 0.8933 0.8933
2277.000000 0.8933 0.8933 0.8932 0.8932 0.8931
2282.000000 0.8930 0.8928 0.8927 0.8926 0.8925
2287.000000 0.8924 0.8925 0.8931 0.8937 0.8943
2292.000000 0.8949 0.8955 0.8961 0.8967 0.8972
2297.000000 0.8977 0.8983 0.8988 0.8992 0.8992
2302.000000 0.8992 0.8992 0.8991 0.8991 0.8991
2307.000000 0.8991 0.8991 0.8991 0.8992 0.8992
2312.000000 0.8994 0.9002 0.9010 0.9018 0.9026
2317.000000 0.9029 0.9031 0.9032 0.9033 0.9034
2322.000000 0.9034 0.9034 0.9034 0.9035 0.9035
2327.000000 0.9033 0.9032 0.9030 0.9029 0.9028
2332.000000 0.9026 0.9025 0.9024 0.9023 0.9023
2337.000000 0.9022 0.9021 0.9020 0.9019 0.9018
2342.000000 0.9017 0.9015 0.9014 0.9012 0.9011
2347.000000 0.9009 0.9008 0.9007 0.9005 0.9004
2352.000000 0.9002 0.9001 0.8999 0.8998 0.8996
2357.000000 0.8994 0.8992 0.8991 0.8989 0.8987
2362.000000 0.8986 0.8984 0.8982 0.8980 0.8979
2367.000000 0.8977 0.8975 0.8972 0.8970 0.8967
2372.000000 0.8965 0.8962 0.8960 0.8957 0.8955
2377.000000 0.8952 0.8950 0.8947 0.8945 0.8943
2382.000000 0.8940 0.8938 0.8935 0.8933 0.8930
2387.000000 0.8928 0.8928 0.8928 0.8928 0.8928
2392.000000 0.8928 0.8927 0.8927 0.8927 0.8927
2397.000000 0.8928 0.8929 0.8930 0.8931 0.8931
2402.000000 0.8932 0.8933 0.8933 0.8934 0.8934
2407.000000 0.8934 0.8934 0.8935 0.8935 0.8935
2412.000000 0.8936 0.8936 0.8936 0.8936 0.8936
2417.000000 0.8936 0.8935 0.8935 0.8935 0.8935
2422.000000 0.8935 0.8935 0.8935 0.8935 0.8935
2427.000000 0.8935 0.8935 0.8935 0.8935 0.8935
2432.000000 0.8934 0.8934 0.8934 0.8934 0.8933
2437.000000 0.8932 0.8931 0.8929 0.8928 0.8926
2442.000000 0.8923 0.8920 0.8917 0.8915 0.8912
2447.000000 0.8909 0.8906 0.8903 0.8901 0.8898
2452.000000 0.8895 0.8892 0.8889 0.8887 0.8884
2457.000000 0.8881 0.8879 0.8877 0.8874 0.8872
2462.000000 0.8870 0.8867 0.8865 0.8863 0.8861
2467.000000 0.8859 0.8858 0.8856 0.8855 0.8854
2472.000000 0.8852 0.8851 0.8849 0.8848 0.8848
2477.000000 0.8848 0.8848 0.8847 0.8847 0.8847
2482.000000 0.8849 0.8851 0.8853 0.8855 0.8858
2487.000000 0.8862 0.8865 0.8869 0.8872 0.8875
2492.000000 0.8877 0.8880 0.8881 0.8878 0.8876
2497.000000 0.8874 0.8872 0.8870 0.8868 0.8867
2502.000000 0.8866 0.8865 0.8864 0.8863 0.8862
2507.000000 0.8861 0.8859 0.8857 0.8856 0.8854
2512.000000 0.8852 0.8853 0.8854 0.8855 0.8856
2517.000000 0.8859 0.8863 0.8867 0.8872 0.8878
2522.000000 0.8884 0.8890 0.8895 0.8899 0.8903
2527.000000 0.8905 0.8899 0.8894 0.8888 0.8883
2532.000000 0.8881 0.8878 0.8876 0.8873 0.8871
2537.000000 0.8869 0.8867 0.8865 0.8864 0.8862
2542.000000 0.8860 0.8862 0.8864 0.8866 0.8867
2547.000000 0.8869 0.8870 0.8870 0.8870 0.8869
2552.000000 0.8865 0.8860 0.8856 0.8851 0.8846
2557.000000 0.8842 0.8838 0.8834 0.8830 0.8826
2562.000000 0.8822 0.8819 0.8816 0.8812 0.8809
2567.000000 0.8806 0.8803 0.8799 0.8796 0.8793
2572.000000 0.8790 0.8788 0.8785 0.8783 0.8781
2577.000000 0.8778 0.8776 0.8774 0.8771 0.8769
2582.000000 0.8767 0.8764 0.8762 0.8759 0.8757
2587.000000 0.8754 0.8752 0.8750 0.8747 0.8745
2592.000000 0.8743 0.8741 0.8739 0.8737 0.8735
2597.000000 0.8732 0.8730 0.8728 0.8726 0.8724
2602.000000 0.8722 0.8720 0.8719 0.8717 0.8715
2607.000000 0.8714 0.8712 0.8710 0.8709 0.8707
2612.000000 0.8705 0.8704 0.8702 0.8700 0.8698
2617.000000 0.8696 0.8693 0.8691 0.8688 0.8686
2622.000000 0.8683 0.8681 0.8678 0.8676 0.8673
2627.000000 0.8671 0.8668 0.8667 0.8665 0.8664
2632.000000 0.8663 0.8661 0.8660 0.8659 0.8658
2637.000000 0.8656 0.8655 0.8654 0.8652 0.8651
2642.000000 0.8650 0.8649 0.8648 0.8647 0.8646
2647.000000 0.8646 0.8645 0.8644 0.8643 0.8643
2652.000000 0.8642 0.8641 0.8640 0.8637 0.8634
2657.000000 0.8630 0.8627 0.8624 0.8620 0.8617
2662.000000 0.8613 0.8610 0.8606 0.8601 0.8596
2667.000000 0.8592 0.8589 0.8588 0.8587 0.8586
2672.000000 0.8585 0.8584 0.8585 0.8588 0.8591
2677.000000 0.8594 0.8597 0.8602 0.8606 0.8610
2682.000000 0.8615 0.8619 0.8621 0.8620 0.8620
2687.000000 0.8619 0.8614 0.8607 0.8599 0.8592
2692.000000 0.8585 0.8579 0.8573 0.8570 0.8570
2697.000000 0.8569 0.8569 0.8569 0.8568 0.8569
2702.000000 0.8570 0.8571 0.8572 0.8573 0.8574
2707.000000 0.8576 0.8578 0.8581 0.8584 0.8587
2712.000000 0.8589 0.8592 0.8595 0.8598 0.8601
2717.000000 0.8605 0.8610 0.8614 0.8619 0.8623
2722.000000 0.8627 0.8630 0.8634 0.8637 0.8640
2727.000000 0.8644 0.8647 0.8650 0.8653 0.8656
2732.000000 0.8659 0.8659 0.8659 0.8660 0.8660
2737.000000 0.8660 0.8658 0.8657 0.8656 0.8655
2742.000000 0.8653 0.8652 0.8651 0.8650 0.8648
2747.000000 0.8647 0.8642 0.8637 0.8633 0.8628
2752.000000 0.8623 0.8619 0.8614 0.8609 0.8604
2757.000000 0.8597 0.8591 0.8585 0.8578 0.8570
2762.000000 0.8561 0.8552 0.8543 0.8535 0.8526
2767.000000 0.8520 0.8515 0.8510 0.8504 0.8499
2772.000000 0.8494 0.8490 0.8487 0.8484 0.8481
2777.000000 0.8478 0.8476 0.8475 0.8473 0.8472
2782.000000 0.8471 0.8469 0.8468 0.8466 0.8463
2787.000000 0.8461 0.8459 0.8456 0.8454 0.8452
2792.000000 0.8448 0.8443 0.8438 0.8434 0.8426
2797.000000 0.8417 0.8408 0.8399 0.8390 0.8381
2802.000000 0.8372 0.8363 0.8352 0.8342 0.8332
2807.000000 0.8322 0.8312 0.8301 0.8291 0.8281
2812.000000 0.8271 0.8260 0.8249 0.8238 0.8227
2817.000000 0.8216 0.8205 0.8194 0.8183 0.8166
2822.000000 0.8150 0.8133 0.8117 0.8098 0.8069
2827.000000 0.8041 0.8012 0.7963 0.7909 0.7856
2832.000000 0.7804 0.7753 0.7701 0.7649 0.7598
2837.000000 0.7546 0.7494 0.7443 0.7391 0.7339
2842.000000 0.7288 0.7236 0.7184 0.7133 0.7081
2847.000000 0.7029 0.6978 0.6926 0.6874 0.6823
2852.000000 0.6771 0.6719 0.6667 0.6617 0.6571
2857.000000 0.6528 0.6491 0.6447 0.6371 0.6326
2862.000000 0.6296 0.6265 0.6241 0.6232 0.6225
2867.000000 0.6220 0.6214 0.6213 0.6212 0.6210
2872.000000 0.6209 0.6208 0.6207 0.6205 0.6204
2877.000000 0.6202 0.6200 0.6197 0.6192 0.6187
2882.000000 0.6182 0.6175 0.6169 0.6162 0.6156
2887.000000 0.6148 0.6140 0.6132 0.6124 0.6116
2892.000000 0.6107 0.6098 0.6088 0.6076 0.6058
2897.000000 0.6041 0.6023 0.5996 0.5969 0.5943
2902.000000 0.5915 0.5884 0.5853 0.5820 0.5786
2907.000000 0.5752 0.5718 0.5683 0.5640 0.5597
2912.000000 0.5554 0.5511 0.5468 0.5427 0.5385
2917.000000 0.5343 0.5308 0.5277 0.5245 0.5213
2922.000000 0.5181 0.5129 0.5067 0.5007 0.4953
2927.000000 0.4899 0.4845 0.4781 0.4712 0.4642
2932.000000 0.4569 0.4496 0.4432 0.4371 0.4337
2937.000000 0.4305 0.4278 0.4258 0.4238 0.4223
2942.000000 0.4212 0.4201 0.4197 0.4196 0.4196
2947.000000 0.4196 0.4168 0.4199 0.4203 0.4209
2952.000000 0.4216 0.4232 0.4250 0.4280 0.4315
2957.000000 0.4353 0.4401 0.4455 0.4537 0.4609
2962.000000 0.4675 0.4827 0.4947 0.5061 0.5174
2967.000000 0.5287 0.5443 0.5590 0.5690 0.5797
2972.000000 0.5934 0.6065 0.6177 0.6260 0.6340
2977.000000 0.6419 0.6504 0.6588 0.6672 0.6834
2982.000000 0.6903 0.6980 0.7109 0.7166 0.7200
2987.000000 0.7225 0.7245 0.7264 0.7283 0.7297
2992.000000 0.7311 0.7325 0.7338 0.7356 0.7374
2997.000000 0.7392 0.7410 0.7428 0.7444 0.7459
3002.000000 0.7475 0.7491 0.7506 0.7522 0.7537
3007.000000 0.7553 0.7569 0.7586 0.7602 0.7619
3012.000000 0.7636 0.7653 0.7670 0.7687 0.7703
3017.000000 0.7719 0.7734 0.7750 0.7766 0.7782
3022.000000 0.7797 0.7811 0.7825 0.7838 0.7852
3027.000000 0.7866 0.7880 0.7894 0.7909 0.7924
3032.000000 0.7940 0.7956 0.7971 0.7987 0.8002
3037.000000 0.8017 0.8031 0.8045 0.8058 0.8072
3042.000000 0.8086 0.8099 0.8113 0.8128 0.8145
3047.000000 0.8162 0.8178 0.8195 0.8212 0.8228
3052.000000 0.8244 0.8260 0.8277 0.8291 0.8306
3057.000000 0.8320 0.8335 0.8346 0.8357 0.8367
3062.000000 0.8374 0.8379 0.8384 0.8390 0.8391
3067.000000 0.8393 0.8395 0.8397 0.8399 0.8402
3072.000000 0.8405 0.8408 0.8411 0.8414 0.8416
3077.000000 0.8416 0.8417 0.8417 0.8417 0.8417
3082.000000 0.8418 0.8418 0.8418 0.8418 0.8417
3087.000000 0.8416 0.8416 0.8415 0.8415 0.8414
3092.000000 0.8414 0.8413 0.8413 0.8412 0.8412
3097.000000 0.8411 0.8411 0.8411 0.8411 0.8412
3102.000000 0.8414 0.8417 0.8420 0.8423 0.8426
3107.000000 0.8428 0.8441 0.8432 0.8433 0.8435
3112.000000 0.8437 0.8439 0.8442 0.8444 0.8446
3117.000000 0.8447 0.8448 0.8449 0.8450 0.8451
3122.000000 0.8452 0.8453 0.8452 0.8452 0.8452
3127.000000 0.8451 0.8451 0.8449 0.8446 0.8442
3132.000000 0.8439 0.8436 0.8433 0.8429 0.8422
3137.000000 0.8414 0.8406 0.8399 0.8391 0.8382
3142.000000 0.8373 0.8364 0.8355 0.8347 0.8343
3147.000000 0.8339 0.8336 0.8332 0.8332 0.8333
3152.000000 0.8333 0.8333 0.8334 0.8334 0.8335
3157.000000 0.8337 0.8338 0.8339 0.8337 0.8335
3162.000000 0.8332 0.8329 0.8321 0.8312 0.8302
3167.000000 0.8292 0.8281 0.8270 0.8261 0.8253
3172.000000 0.8246 0.8238 0.8230 0.8227 0.8223
3177.000000 0.8220 0.8219 0.8218 0.8216 0.8215
3182.000000 0.8214 0.8213 0.8212 0.8211 0.8210
3187.000000 0.8209 0.8208 0.8207 0.8206 0.8205
3192.000000 0.8200 0.8193 0.8186 0.8179 0.8172
3197.000000 0.8162 0.8151 0.8141 0.8131 0.8120
3202.000000 0.8110 0.8100 0.8090 0.8080 0.8069
3207.000000 0.8059 0.8049 0.8039 0.8029 0.8019
3212.000000 0.8008 0.7997 0.7987 0.7976 0.7966
3217.000000 0.7955 0.7944 0.7933 0.7922 0.7911
3222.000000 0.7900 0.7889 0.7878 0.7866 0.7855
3227.000000 0.7844 0.7833 0.7822 0.7811 0.7801
3232.000000 0.7791 0.7781 0.7771 0.7761 0.7751
3237.000000 0.7741 0.7733 0.7725 0.7716 0.7708
3242.000000 0.7699 0.7691 0.7683 0.7674 0.7666
3247.000000 0.7657 0.7649 0.7640 0.7631 0.7623
3252.000000 0.7614 0.7606 0.7598 0.7592 0.7588
3257.000000 0.7583 0.7579 0.7575 0.7568 0.7559
3262.000000 0.7549 0.7540 0.7530 0.7516 0.7498
3267.000000 0.7481 0.7457 0.7432 0.7406 0.7381
3272.000000 0.7356 0.7331 0.7312 0.7297 0.7281
3277.000000 0.7266 0.7251 0.7236 0.7221 0.7206
3282.000000 0.7194 0.7185 0.7176 0.7167 0.7159
3287.000000 0.7150 0.7141 0.7132 0.7124 0.7115
3292.000000 0.7106 0.7101 0.7096 0.7092 0.7088
3297.000000 0.7083 0.7079 0.7074 0.7069 0.7056
3302.000000 0.7012 0.6968 0.6937 0.6906 0.6884
3307.000000 0.6864 0.6845 0.6826 0.6807 0.6785
3312.000000 0.6758 0.6733 0.6712 0.6692 0.6671
3317.000000 0.6651 0.6630 0.6609 0.6592 0.6576
3322.000000 0.6559 0.6543 0.6526 0.6510 0.6493
3327.000000 0.6475 0.6458 0.6440 0.6423 0.6405
3332.000000 0.6388 0.6370 0.6353 0.6335 0.6314
3337.000000 0.6293 0.6272 0.6251 0.6229 0.6208
3342.000000 0.6187 0.6165 0.6138 0.6112 0.6086
3347.000000 0.6059 0.6033 0.6007 0.5988 0.5968
3352.000000 0.5949 0.5930 0.5911 0.5892 0.5873
3357.000000 0.5854 0.5835 0.5816 0.5795 0.5773
3362.000000 0.5751 0.5730 0.5708 0.5686 0.5664
3367.000000 0.5644 0.5627 0.5610 0.5593 0.5576
3372.000000 0.5559 0.5542 0.5525 0.5508 0.5491
3377.000000 0.5474 0.5458 0.5443 0.5428 0.5414
3382.000000 0.5399 0.5384 0.5370 0.5355 0.5340
3387.000000 0.5326 0.5311 0.5296 0.5282 0.5267
3392.000000 0.5252 0.5238 0.5221 0.5204 0.5188
3397.000000 0.5171 0.5155 0.5138 0.5121 0.5105
3402.000000 0.5088 0.5072 0.5057 0.5042 0.5027
3407.000000 0.5013 0.4998 0.4983 0.4969 0.4954
3412.000000 0.4939 0.4925 0.4910 0.4895 0.4880
3417.000000 0.4866 0.4851 0.4836 0.4822 0.4808
3422.000000 0.4795 0.4782 0.4770 0.4757 0.4744
3427.000000 0.4731 0.4718 0.4706 0.4693 0.4680
3432.000000 0.4667 0.4654 0.4641 0.4629 0.4617
3437.000000 0.4604 0.4592 0.4579 0.4567 0.4554
3442.000000 0.4542 0.4529 0.4517 0.4505 0.4492
3447.000000 0.4480 0.4471 0.4461 0.4452 0.4442
3452.000000 0.4433 0.4423 0.4414 0.4404 0.4395
3457.000000 0.4387 0.4380 0.4373 0.4365 0.4358
3462.000000 0.4351 0.4344 0.4339 0.4334 0.4328
3467.000000 0.4323 0.4318 0.4313 0.4308 0.4303
3472.000000 0.4299 0.4298 0.4297 0.4296 0.4295
3477.000000 0.4294 0.4294 0.4294 0.4295 0.4296
3482.000000 0.4297 0.4297 0.4291 0.4299 0.4300
3487.000000 0.4301 0.4303 0.4306 0.4310 0.4315
3492.000000 0.4319 0.4323 0.4328 0.4332 0.4336
3497.000000 0.4340 0.4344 0.4348 0.4352 0.4356
3502.000000 0.4360 0.4363 0.4368 0.4374 0.4381
3507.000000 0.4390 0.4399 0.4408 0.4417 0.4426
3512.000000 0.4435 0.4443 0.4452 0.4461 0.4470
3517.000000 0.4479 0.4488 0.4498 0.4507 0.4513
3522.000000 0.4520 0.4524 0.4529 0.4536 0.4546
3527.000000 0.4557 0.4568 0.4577 0.4584 0.4592
3532.000000 0.4599 0.4607 0.4613 0.4616 0.4623
3537.000000 0.4630 0.4638 0.4646 0.4658 0.4672
3542.000000 0.4687 0.4705 0.4722 0.4737 0.4749
3547.000000 0.4761 0.4770 0.4777 0.4783 0.4794
3552.000000 0.4806 0.4838 0.4886 0.4958 0.5087
3557.000000 0.5154 0.5209 0.5237 0.5265 0.5293
3562.000000 0.5318 0.5342 0.5366 0.5391 0.5409
3567.000000 0.5423 0.5437 0.5451 0.5463 0.5475
3572.000000 0.5487 0.5525 0.5637 0.5715 0.5766
3577.000000 0.5810 0.5831 0.5842 0.5853 0.5874
3582.000000 0.5913 0.5953 0.6010 0.6088 0.6161
3587.000000 0.6262 0.6347 0.6395 0.6443 0.6492
3592.000000 0.6533 0.6572 0.6611 0.6642 0.6672
3597.000000 0.6702 0.6732 0.6763 0.6793 0.6824
3602.000000 0.6856 0.6887 0.6915 0.6942 0.6969
3607.000000 0.6996 0.7022 0.7047 0.7071 0.7093
3612.000000 0.7107 0.7122 0.7138 0.7153 0.7168
3617.000000 0.7198 0.7237 0.7277 0.7317 0.7361
3622.000000 0.7412 0.7474 0.7517 0.7580 0.7614
3627.000000 0.7656 0.7701 0.7747 0.7789 0.7819
3632.000000 0.7857 0.7900 0.7934 0.7965 0.7994
3637.000000 0.8017 0.8039 0.8062 0.8080 0.8096
3642.000000 0.8112 0.8128 0.8145 0.8161 0.8178
3647.000000 0.8194 0.8209 0.8219 0.8229 0.8239
3652.000000 0.8249 0.8259 0.8267 0.8276 0.8284
3657.000000 0.8293 0.8301 0.8310 0.8318 0.8326
3662.000000 0.8335 0.8343 0.8352 0.8360 0.8368
3667.000000 0.8377 0.8384 0.8391 0.8398 0.8404
3672.000000 0.8411 0.8418 0.8425 0.8431 0.8438
3677.000000 0.8445 0.8451 0.8457 0.8463 0.8468
3682.000000 0.8474 0.8480 0.8484 0.8487 0.8490
3687.000000 0.8493 0.8496 0.8499 0.8502 0.8506
3692.000000 0.8509 0.8512 0.8515 0.8519 0.8522
3697.000000 0.8526 0.8533 0.8539 0.8546 0.8553
3702.000000 0.8559 0.8567 0.8574 0.8581 0.8589
3707.000000 0.8596 0.8602 0.8605 0.8608 0.8611
3712.000000 0.8613 0.8614 0.8615 0.8615 0.8615
3717.000000 0.8616 0.8616 0.8616 0.8616 0.8617
3722.000000 0.8617 0.8621 0.8625 0.8628 0.8632
3727.000000 0.8636 0.8641 0.8647 0.8652 0.8657
3732.000000 0.8662 0.8667 0.8672 0.8677 0.8680
3737.000000 0.8684 0.8688 0.8691 0.8695 0.8699
3742.000000 0.8703 0.8707 0.8711 0.8714 0.8718
3747.000000 0.8722 0.8726 0.8730 0.8734 0.8738
3752.000000 0.8742 0.8745 0.8749 0.8752 0.8756
3757.000000 0.8759 0.8763 0.8764 0.8766 0.8767
3762.000000 0.8768 0.8766 0.8764 0.8761 0.8759
3767.000000 0.8757 0.8756 0.8755 0.8754 0.8753
3772.000000 0.8751 0.8750 0.8749 0.8748 0.8747
3777.000000 0.8746 0.8746 0.8747 0.8749 0.8755
3782.000000 0.8769 0.8783 0.8793 0.8802 0.8807
3787.000000 0.8809 0.8812 0.8814 0.8815 0.8815
3792.000000 0.8816 0.8816 0.8816 0.8816 0.8816
3797.000000 0.8816 0.8816 0.8816 0.8816 0.8816
3802.000000 0.8816 0.8816 0.8816 0.8816 0.8815
3807.000000 0.8814 0.8813 0.8811 0.8810 0.8808
3812.000000 0.8805 0.8802 0.8798 0.8795 0.8792
3817.000000 0.8789 0.8781 0.8771 0.8762 0.8752
3822.000000 0.8745 0.8738 0.8731 0.8724 0.8717
3827.000000 0.8710 0.8709 0.8708 0.8707 0.8707
3832.000000 0.8708 0.8710 0.8712 0.8713 0.8715
3837.000000 0.8717 0.8718 0.8720 0.8722 0.8723
3842.000000 0.8725 0.8727 0.8729 0.8730 0.8733
3847.000000 0.8736 0.8739 0.8742 0.8745 0.8748
3852.000000 0.8751 0.8754 0.8756 0.8759 0.8761
3857.000000 0.8763 0.8765 0.8766 0.8767 0.8768
3862.000000 0.8769 0.8769 0.8770 0.8771 0.8772
3867.000000 0.8773 0.8773 0.8774 0.8775 0.8775
3872.000000 0.8776 0.8777 0.8777 0.8777 0.8776
3877.000000 0.8776 0.8776 0.8776 0.8776 0.8776
3882.000000 0.8776 0.8776 0.8775 0.8774 0.8773
3887.000000 0.8772 0.8771 0.8770 0.8768 0.8764
3892.000000 0.8761 0.8757 0.8754 0.8747 0.8736
3897.000000 0.8725 0.8718 0.8713 0.8707 0.8703
3902.000000 0.8699 0.8696 0.8694 0.8693 0.8693
3907.000000 0.8693 0.8694 0.8694 0.8694 0.8695
3912.000000 0.8695 0.8695 0.8695 0.8696 0.8696
3917.000000 0.8697 0.8698 0.8699 0.8701 0.8702
3922.000000 0.8704 0.8705 0.8706 0.8706 0.8707
3927.000000 0.8707 0.8727 0.8708 0.8708 0.8708
3932.000000 0.8708 0.8709 0.8710 0.8711 0.8712
3937.000000 0.8713 0.8714 0.8715 0.8716 0.8717
3942.000000 0.8718 0.8719 0.8720 0.8720 0.8720
3947.000000 0.8720 0.8721 0.8721 0.8721 0.8722
3952.000000 0.8721 0.8720 0.8719 0.8719 0.8718
3957.000000 0.8717 0.8716 0.8715 0.8714 0.8713
3962.000000 0.8711 0.8708 0.8705 0.8702 0.8699
3967.000000 0.8695 0.8692 0.8689 0.8686 0.8682
3972.000000 0.8678 0.8673 0.8669 0.8664 0.8660
3977.000000 0.8655 0.8651 0.8646 0.8642 0.8637
3982.000000 0.8633 0.8629 0.8624 0.8620 0.8615
3987.000000 0.8611 0.8609 0.8606 0.8603 0.8601
3992.000000 0.8601 0.8602 0.8605 0.8612 0.8621
3997.000000 0.8635 0.8663 0.8689 0.8708
##END=
