##TITLE=BORANE, COMPOUND WITH MORPHOLINE
##JCAMP-DX=4.24
$$ By DXEDIT 1.05 (RS McDonald)
##DATA TYPE=INFRARED SPECTRUM
##CLASS=COBLENTZ III
##ORIGIN=DOW CHEMICAL COMPANY
##OWNER=COBLENTZ SOC.
Collection (C) 2018 copyright by the U.S. Secretary of Commerce
on behalf of the United States of America. All rights reserved.
##DATE=1966/04/20
##NAMES=borane compound with morpholine (1:1)
##MOLFORM=C4 H12 B N O
##SOURCE REFERENCE=COBLENTZ NO. 06565
##$NIST ID=B6006565
##$NIST SOURCE=COBLENTZ
##$NIST IMAGE=cob6565
##SPECTROMETER/DATA SYSTEM=BECKMAN IR-9 (GRATING)
##INSTRUMENT PARAMETERS=ORDER CHANGES: 670, 1200, 2000 CM^-^1
##STATE=SOLID (SPLIT MULL)
$$SPECTRAL CONTAMINATION DUE TO OIL AROUND 730, AND AN UNKNOWN AROUND 400 CM^-^1
##SAMPLING PROCEDURE=TRANSMISSION
##RESOLUTION=2
##DATA PROCESSING=DIGITIZED BY COBLENTZ SOCIETY (BATCH I) FROM HARD COPY
##XUNITS=1/CM
##YUNITS=TRANSMITTANCE
##XLABEL=Wavenumbers (cm-1)
##YLABEL=Transmittance
##XFACTOR=1
##YFACTOR=1
##DELTAX=1
##FIRSTX=3800
##LASTX=403
##FIRSTY=0.5981
##MAXX=3800
##MINX=403
##MAXY=0.8903
##MINY=0.0235
##NPOINTS=3398
##XYDATA=(X++(Y..Y))
3800.000000 0.5981 0.5983 0.5985 0.5988 0.5992
3795.000000 0.5995 0.5999 0.6002 0.6006 0.6009
3790.000000 0.6012 0.6016 0.6020 0.6023 0.6027
3785.000000 0.6029 0.6031 0.6032 0.6034 0.6036
3780.000000 0.6038 0.6039 0.6041 0.6043 0.6045
3775.000000 0.6047 0.6049 0.6050 0.6052 0.6054
3770.000000 0.6056 0.6058 0.6060 0.6064 0.6067
3765.000000 0.6069 0.6072 0.6074 0.6077 0.6079
3760.000000 0.6082 0.6084 0.6087 0.6090 0.6093
3755.000000 0.6095 0.6098 0.6100 0.6103 0.6105
3750.000000 0.6108 0.6110 0.6112 0.6115 0.6117
3745.000000 0.6119 0.6121 0.6123 0.6126 0.6128
3740.000000 0.6130 0.6132 0.6134 0.6136 0.6139
3735.000000 0.6141 0.6143 0.6145 0.6148 0.6150
3730.000000 0.6152 0.6154 0.6156 0.6157 0.6159
3725.000000 0.6160 0.6160 0.6162 0.6164 0.6165
3720.000000 0.6157 0.6168 0.6170 0.6171 0.6173
3715.000000 0.6174 0.6175 0.6176 0.6178 0.6179
3710.000000 0.6181 0.6182 0.6184 0.6185 0.6187
3705.000000 0.6188 0.6189 0.6190 0.6191 0.6191
3700.000000 0.6192 0.6193 0.6194 0.6195 0.6196
3695.000000 0.6197 0.6198 0.6199 0.6200 0.6201
3690.000000 0.6202 0.6202 0.6202 0.6201 0.6201
3685.000000 0.6200 0.6199 0.6198 0.6198 0.6197
3680.000000 0.6197 0.6196 0.6195 0.6194 0.6194
3675.000000 0.6193 0.6193 0.6190 0.6188 0.6185
3670.000000 0.6183 0.6180 0.6178 0.6175 0.6173
3665.000000 0.6166 0.6160 0.6144 0.6129 0.6114
3660.000000 0.6099 0.6086 0.6073 0.6060 0.6048
3655.000000 0.6036 0.6024 0.6017 0.6010 0.6009
3650.000000 0.6008 0.6006 0.6004 0.6001 0.5999
3645.000000 0.5996 0.5993 0.5990 0.5987 0.5984
3640.000000 0.5983 0.5982 0.5983 0.5987 0.5991
3635.000000 0.5995 0.6000 0.6005 0.6010 0.6015
3630.000000 0.6020 0.6024 0.6029 0.6035 0.6042
3625.000000 0.6049 0.6057 0.6064 0.6071 0.6078
3620.000000 0.6086 0.6093 0.6100 0.6107 0.6115
3615.000000 0.6118 0.6121 0.6124 0.6127 0.6130
3610.000000 0.6133 0.6135 0.6138 0.6141 0.6144
3605.000000 0.6147 0.6150 0.6153 0.6156 0.6158
3600.000000 0.6160 0.6162 0.6166 0.6169 0.6172
3595.000000 0.6174 0.6177 0.6179 0.6182 0.6185
3590.000000 0.6188 0.6190 0.6193 0.6195 0.6198
3585.000000 0.6201 0.6204 0.6206 0.6209 0.6212
3580.000000 0.6217 0.6222 0.6228 0.6234 0.6240
3575.000000 0.6245 0.6251 0.6256 0.6262 0.6268
3570.000000 0.6274 0.6279 0.6285 0.6290 0.6296
3565.000000 0.6302 0.6308 0.6312 0.6319 0.6325
3560.000000 0.6331 0.6336 0.6342 0.6345 0.6349
3555.000000 0.6352 0.6356 0.6359 0.6362 0.6365
3550.000000 0.6369 0.6372 0.6375 0.6378 0.6382
3545.000000 0.6385 0.6388 0.6391 0.6395 0.6398
3540.000000 0.6401 0.6404 0.6408 0.6411 0.6414
3535.000000 0.6415 0.6418 0.6421 0.6424 0.6426
3530.000000 0.6430 0.6432 0.6435 0.6438 0.6441
3525.000000 0.6443 0.6446 0.6448 0.6451 0.6454
3520.000000 0.6457 0.6458 0.6461 0.6465 0.6468
3515.000000 0.6469 0.6472 0.6475 0.6478 0.6480
3510.000000 0.6483 0.6485 0.6488 0.6490 0.6493
3505.000000 0.6495 0.6498 0.6500 0.6501 0.6504
3500.000000 0.6507 0.6508 0.6511 0.6514 0.6517
3495.000000 0.6518 0.6521 0.6524 0.6526 0.6528
3490.000000 0.6531 0.6532 0.6534 0.6535 0.6537
3485.000000 0.6538 0.6540 0.6541 0.6543 0.6544
3480.000000 0.6546 0.6547 0.6549 0.6550 0.6551
3475.000000 0.6554 0.6556 0.6557 0.6558 0.6560
3470.000000 0.6561 0.6562 0.6565 0.6565 0.6568
3465.000000 0.6568 0.6569 0.6571 0.6571 0.6571
3460.000000 0.6572 0.6574 0.6575 0.6575 0.6575
3455.000000 0.6576 0.6578 0.6578 0.6578 0.6580
3450.000000 0.6581 0.6582 0.6583 0.6583 0.6584
3445.000000 0.6585 0.6586 0.6586 0.6587 0.6588
3440.000000 0.6589 0.6589 0.6590 0.6591 0.6592
3435.000000 0.6593 0.6594 0.6595 0.6597 0.6598
3430.000000 0.6599 0.6600 0.6601 0.6603 0.6604
3425.000000 0.6605 0.6606 0.6607 0.6608 0.6610
3420.000000 0.6611 0.6611 0.6614 0.6615 0.6615
3415.000000 0.6617 0.6618 0.6618 0.6621 0.6622
3410.000000 0.6625 0.6628 0.6631 0.6633 0.6636
3405.000000 0.6639 0.6642 0.6644 0.6647 0.6649
3400.000000 0.6651 0.6655 0.6658 0.6660 0.6662
3395.000000 0.6665 0.6668 0.6671 0.6676 0.6682
3390.000000 0.6687 0.6691 0.6696 0.6701 0.6706
3385.000000 0.6711 0.6715 0.6719 0.6725 0.6730
3380.000000 0.6735 0.6739 0.6744 0.6749 0.6754
3375.000000 0.6758 0.6762 0.6768 0.6772 0.6778
3370.000000 0.6783 0.6787 0.6792 0.6796 0.6801
3365.000000 0.6805 0.6810 0.6814 0.6818 0.6821
3360.000000 0.6825 0.6830 0.6834 0.6838 0.6842
3355.000000 0.6846 0.6850 0.6854 0.6858 0.6862
3350.000000 0.6867 0.6871 0.6875 0.6878 0.6883
3345.000000 0.6887 0.6891 0.6895 0.6899 0.6903
3340.000000 0.6908 0.6911 0.6915 0.6919 0.6924
3335.000000 0.6928 0.6932 0.6936 0.6940 0.6944
3330.000000 0.6948 0.6951 0.6957 0.6961 0.6965
3325.000000 0.6968 0.6972 0.6976 0.6982 0.6986
3320.000000 0.6991 0.6995 0.7000 0.7004 0.7008
3315.000000 0.7012 0.7018 0.7021 0.7026 0.7031
3310.000000 0.7035 0.7039 0.7043 0.7047 0.7051
3305.000000 0.7054 0.7058 0.7061 0.7065 0.7068
3300.000000 0.7072 0.7076 0.7081 0.7085 0.7089
3295.000000 0.7092 0.7096 0.7099 0.7103 0.7107
3290.000000 0.7111 0.7114 0.7118 0.7121 0.7125
3285.000000 0.7128 0.7132 0.7136 0.7140 0.7143
3280.000000 0.7147 0.7150 0.7153 0.7154 0.7156
3275.000000 0.7158 0.7160 0.7161 0.7164 0.7165
3270.000000 0.7168 0.7169 0.7171 0.7172 0.7174
3265.000000 0.7174 0.7174 0.7172 0.7172 0.7172
3260.000000 0.7172 0.7172 0.7172 0.7172 0.7172
3255.000000 0.7172 0.7172 0.7172 0.7174 0.7174
3250.000000 0.7174 0.7171 0.7171 0.7167 0.7164
3245.000000 0.7157 0.7151 0.7138 0.7125 0.7110
3240.000000 0.7095 0.7072 0.7051 0.7026 0.7003
3235.000000 0.6975 0.6949 0.6921 0.6894 0.6858
3230.000000 0.6821 0.6778 0.6736 0.6693 0.6650
3225.000000 0.6606 0.6561 0.6515 0.6471 0.6425
3220.000000 0.6380 0.6334 0.6289 0.6217 0.6145
3215.000000 0.6052 0.5960 0.5793 0.5626 0.5495
3210.000000 0.5364 0.4712 0.4062 0.3618 0.3173
3205.000000 0.2727 0.2282 0.1836 0.1392 0.0946
3200.000000 0.0502 0.0377 0.0235 0.0255 0.0257
3195.000000 0.0266 0.0276 0.0292 0.0309 0.0330
3190.000000 0.0352 0.0379 0.0406 0.0495 0.0585
3185.000000 0.0811 0.1038 0.1265 0.1492 0.1718
3180.000000 0.1944 0.2172 0.2399 0.2625 0.2852
3175.000000 0.3001 0.3151 0.3227 0.3303 0.3362
3170.000000 0.3424 0.3484 0.3545 0.3649 0.3753
3165.000000 0.3866 0.3980 0.4059 0.4140 0.4219
3160.000000 0.4299 0.4365 0.4431 0.4496 0.4562
3155.000000 0.4627 0.4693 0.4746 0.4800 0.4851
3150.000000 0.4902 0.4953 0.5005 0.5051 0.5098
3145.000000 0.5131 0.5165 0.5198 0.5232 0.5265
3140.000000 0.5299 0.5332 0.5366 0.5396 0.5427
3135.000000 0.5454 0.5481 0.5508 0.5535 0.5562
3130.000000 0.5589 0.5616 0.5643 0.5670 0.5697
3125.000000 0.5723 0.5750 0.5776 0.5802 0.5828
3120.000000 0.5855 0.5881 0.5907 0.5933 0.5959
3115.000000 0.5984 0.6010 0.6033 0.6057 0.6080
3110.000000 0.6103 0.6126 0.6149 0.6172 0.6196
3105.000000 0.6212 0.6230 0.6245 0.6260 0.6275
3100.000000 0.6290 0.6305 0.6320 0.6335 0.6350
3095.000000 0.6365 0.6380 0.6395 0.6410 0.6425
3090.000000 0.6441 0.6456 0.6471 0.6486 0.6501
3085.000000 0.6515 0.6532 0.6547 0.6561 0.6575
3080.000000 0.6590 0.6601 0.6614 0.6625 0.6638
3075.000000 0.6650 0.6661 0.6674 0.6686 0.6698
3070.000000 0.6710 0.6721 0.6734 0.6746 0.6758
3065.000000 0.6769 0.6782 0.6794 0.6806 0.6818
3060.000000 0.6831 0.6843 0.6856 0.6868 0.6881
3055.000000 0.6893 0.6906 0.6918 0.6932 0.6944
3050.000000 0.6957 0.6968 0.6982 0.6992 0.7001
3045.000000 0.7011 0.7021 0.7030 0.7040 0.7049
3040.000000 0.7058 0.7068 0.7078 0.7088 0.7098
3035.000000 0.7108 0.7118 0.7128 0.7139 0.7150
3030.000000 0.7161 0.7171 0.7182 0.7193 0.7204
3025.000000 0.7215 0.7226 0.7238 0.7250 0.7258
3020.000000 0.7265 0.7272 0.7280 0.7287 0.7294
3015.000000 0.7301 0.7308 0.7315 0.7322 0.7325
3010.000000 0.7328 0.7328 0.7328 0.7328 0.7326
3005.000000 0.7280 0.7234 0.7072 0.6911 0.6751
3000.000000 0.6590 0.6428 0.6268 0.6106 0.5945
2995.000000 0.5784 0.5318 0.5476 0.5329 0.5328
2990.000000 0.5328 0.5474 0.5620 0.5809 0.5999
2985.000000 0.6188 0.6377 0.6565 0.6755 0.6915
2980.000000 0.7078 0.7082 0.7110 0.7088 0.7091
2975.000000 0.6943 0.6796 0.6145 0.5495 0.4844
2970.000000 0.4193 0.3542 0.2649 0.2649 0.2649
2965.000000 0.2651 0.2653 0.2655 0.2658 0.3230
2960.000000 0.3805 0.4435 0.5065 0.5537 0.6041
2955.000000 0.6007 0.6004 0.5767 0.5530 0.4952
2950.000000 0.4374 0.4328 0.4297 0.4282 0.4282
2945.000000 0.4347 0.4412 0.4612 0.4812 0.5012
2940.000000 0.5212 0.5412 0.5614 0.5814 0.6015
2935.000000 0.6215 0.6489 0.6444 0.6471 0.6475
2930.000000 0.6480 0.6347 0.6214 0.6081 0.5948
2925.000000 0.5867 0.5789 0.5786 0.5786 0.5839
2920.000000 0.5893 0.5992 0.6091 0.6144 0.6197
2915.000000 0.6194 0.6232 0.6141 0.6090 0.5951
2910.000000 0.5812 0.5672 0.5372 0.5457 0.5382
2905.000000 0.5384 0.5386 0.5420 0.5455 0.5560
2900.000000 0.5665 0.5770 0.5875 0.5980 0.6085
2895.000000 0.6190 0.6295 0.6400 0.6505 0.6610
2890.000000 0.6715 0.6746 0.6778 0.6776 0.6776
2885.000000 0.6776 0.6776 0.6735 0.6693 0.6649
2880.000000 0.6605 0.6561 0.6517 0.6472 0.6428
2875.000000 0.6385 0.6341 0.6297 0.6253 0.6209
2870.000000 0.6165 0.6121 0.6077 0.5838 0.5599
2865.000000 0.5323 0.5048 0.4591 0.4134 0.3677
2860.000000 0.3220 0.2762 0.1810 0.2052 0.1799
2855.000000 0.1800 0.1802 0.1802 0.1802 0.1994
2850.000000 0.2189 0.2431 0.2673 0.2915 0.3157
2845.000000 0.3399 0.3641 0.3882 0.4125 0.4367
2840.000000 0.4609 0.5026 0.5443 0.5556 0.5670
2835.000000 0.5747 0.5825 0.5879 0.5934 0.5984
2830.000000 0.6034 0.6074 0.6115 0.6149 0.6184
2825.000000 0.6218 0.6252 0.6282 0.6312 0.6341
2820.000000 0.6371 0.6400 0.6430 0.6458 0.6489
2815.000000 0.6508 0.6526 0.6546 0.6565 0.6586
2810.000000 0.6607 0.6624 0.6641 0.6658 0.6675
2805.000000 0.6691 0.6708 0.6725 0.6742 0.6769
2800.000000 0.6798 0.6825 0.6854 0.6884 0.6915
2795.000000 0.6948 0.6981 0.7007 0.7033 0.7046
2790.000000 0.7058 0.7067 0.7075 0.7078 0.7083
2785.000000 0.7084 0.7086 0.7081 0.7076 0.7021
2780.000000 0.6967 0.6911 0.6858 0.6846 0.6835
2775.000000 0.6858 0.6882 0.6905 0.6928 0.6951
2770.000000 0.6974 0.6997 0.7019 0.7038 0.7057
2765.000000 0.7064 0.7071 0.7075 0.7078 0.7060
2760.000000 0.7042 0.6985 0.6928 0.6872 0.6817
2755.000000 0.6803 0.6804 0.6804 0.6819 0.6901
2750.000000 0.6984 0.7065 0.7149 0.7231 0.7314
2745.000000 0.7336 0.7358 0.7358 0.7360 0.7361
2740.000000 0.7362 0.7364 0.7365 0.7365 0.7368
2735.000000 0.7371 0.7374 0.7376 0.7380 0.7383
2730.000000 0.7386 0.7389 0.7393 0.7398 0.7404
2725.000000 0.7408 0.7414 0.7418 0.7421 0.7424
2720.000000 0.7426 0.7428 0.7432 0.7432 0.7432
2715.000000 0.7428 0.7426 0.7419 0.7414 0.7407
2710.000000 0.7400 0.7387 0.7374 0.7325 0.7278
2705.000000 0.7261 0.7245 0.7242 0.7239 0.7238
2700.000000 0.7238 0.7254 0.7271 0.7314 0.7358
2695.000000 0.7383 0.7408 0.7425 0.7444 0.7461
2690.000000 0.7481 0.7499 0.7517 0.7526 0.7537
2685.000000 0.7547 0.7557 0.7567 0.7576 0.7587
2680.000000 0.7597 0.7607 0.7617 0.7626 0.7637
2675.000000 0.7647 0.7657 0.7667 0.7676 0.7687
2670.000000 0.7697 0.7707 0.7717 0.7726 0.7737
2665.000000 0.7747 0.7757 0.7767 0.7778 0.7788
2660.000000 0.7798 0.7808 0.7818 0.7828 0.7840
2655.000000 0.7850 0.7861 0.7871 0.7881 0.7890
2650.000000 0.7900 0.7907 0.7914 0.7910 0.7907
2645.000000 0.7903 0.7900 0.7896 0.7893 0.7890
2640.000000 0.7888 0.7887 0.7886 0.7885 0.7885
2635.000000 0.7885 0.7886 0.7888 0.7891 0.7893
2630.000000 0.7915 0.7897 0.7900 0.7901 0.7903
2625.000000 0.7905 0.7907 0.7908 0.7908 0.7908
2620.000000 0.7908 0.7907 0.7906 0.7905 0.7905
2615.000000 0.7892 0.7878 0.7864 0.7849 0.7834
2610.000000 0.7818 0.7804 0.7790 0.7775 0.7760
2605.000000 0.7745 0.7730 0.7715 0.7700 0.7686
2600.000000 0.7672 0.7658 0.7645 0.7631 0.7617
2595.000000 0.7603 0.7590 0.7574 0.7558 0.7536
2590.000000 0.7512 0.7490 0.7467 0.7451 0.7436
2585.000000 0.7436 0.7437 0.7437 0.7439 0.7441
2580.000000 0.7443 0.7445 0.7447 0.7458 0.7469
2575.000000 0.7504 0.7538 0.7568 0.7601 0.7632
2570.000000 0.7662 0.7694 0.7725 0.7755 0.7786
2565.000000 0.7812 0.7840 0.7858 0.7875 0.7894
2560.000000 0.7911 0.7922 0.7934 0.7943 0.7951
2555.000000 0.7960 0.7968 0.7974 0.7980 0.7986
2550.000000 0.7993 0.7999 0.8005 0.8011 0.8018
2545.000000 0.8024 0.8030 0.8036 0.8042 0.8047
2540.000000 0.8051 0.8057 0.8062 0.8068 0.8074
2535.000000 0.8078 0.8125 0.8088 0.8093 0.8097
2530.000000 0.8101 0.8104 0.8107 0.8101 0.8095
2525.000000 0.8089 0.8084 0.8064 0.8044 0.8015
2520.000000 0.7988 0.7968 0.7948 0.7928 0.7908
2515.000000 0.7892 0.7875 0.7858 0.7844 0.7838
2510.000000 0.7832 0.7832 0.7833 0.7833 0.7834
2505.000000 0.7842 0.7851 0.7861 0.7872 0.7888
2500.000000 0.7903 0.7915 0.7930 0.7939 0.7949
2495.000000 0.7958 0.7968 0.7978 0.7990 0.7999
2490.000000 0.8008 0.8015 0.8022 0.8028 0.8036
2485.000000 0.8034 0.8032 0.8030 0.8028 0.8018
2480.000000 0.8007 0.7992 0.7976 0.7968 0.7960
2475.000000 0.7951 0.7945 0.7937 0.7928 0.7911
2470.000000 0.7893 0.7872 0.7854 0.7838 0.7821
2465.000000 0.7807 0.7793 0.7778 0.7765 0.7748
2460.000000 0.7732 0.7712 0.7694 0.7675 0.7656
2455.000000 0.7637 0.7618 0.7600 0.7581 0.7557
2450.000000 0.7534 0.7510 0.7487 0.7462 0.7440
2445.000000 0.7417 0.7394 0.7369 0.7347 0.7307
2440.000000 0.7268 0.7221 0.7176 0.7122 0.7069
2435.000000 0.7012 0.6956 0.6880 0.6805 0.6718
2430.000000 0.6633 0.6451 0.6271 0.6227 0.6184
2425.000000 0.6162 0.6143 0.6117 0.6092 0.6065
2420.000000 0.6039 0.6012 0.5987 0.5958 0.5930
2415.000000 0.5897 0.5865 0.5815 0.5765 0.5715
2410.000000 0.5665 0.5615 0.5565 0.5416 0.5268
2405.000000 0.5176 0.5085 0.4953 0.4822 0.4456
2400.000000 0.4091 0.3734 0.3378 0.2853 0.2328
2395.000000 0.2274 0.2220 0.2091 0.1962 0.1895
2390.000000 0.1829 0.1685 0.1542 0.1390 0.1239
2385.000000 0.1087 0.0936 0.0784 0.0632 0.0480
2380.000000 0.0329 0.0290 0.0246 0.0252 0.0253
2375.000000 0.0256 0.0259 0.0299 0.0340 0.0467
2370.000000 0.0597 0.0725 0.0854 0.0982 0.1111
2365.000000 0.1149 0.1187 0.1186 0.1186 0.1187
2360.000000 0.1188 0.1190 0.1192 0.1196 0.1203
2355.000000 0.1212 0.1221 0.1244 0.1267 0.1296
2350.000000 0.1326 0.1337 0.1389 0.1353 0.1359
2345.000000 0.1364 0.1370 0.1372 0.1375 0.1362
2340.000000 0.1350 0.1325 0.1301 0.1276 0.1251
2335.000000 0.1226 0.1202 0.1177 0.1152 0.1127
2330.000000 0.1102 0.1077 0.1053 0.1028 0.1003
2325.000000 0.0978 0.0970 0.0952 0.0951 0.0958
2320.000000 0.0966 0.0976 0.0987 0.1006 0.1026
2315.000000 0.1080 0.1134 0.1192 0.1250 0.1308
2310.000000 0.1367 0.1425 0.1483 0.1541 0.1599
2305.000000 0.1619 0.1639 0.1646 0.1722 0.1662
2300.000000 0.1670 0.1674 0.1679 0.1682 0.1685
2295.000000 0.1687 0.1689 0.1690 0.1689 0.1664
2290.000000 0.1640 0.1615 0.1590 0.1565 0.1541
2285.000000 0.1516 0.1492 0.1419 0.1346 0.1233
2280.000000 0.1094 0.1114 0.1108 0.1108 0.1108
2275.000000 0.1110 0.1112 0.1130 0.1148 0.1204
2270.000000 0.1260 0.1333 0.1406 0.1475 0.1544
2265.000000 0.1588 0.1632 0.1676 0.1720 0.1766
2260.000000 0.1812 0.1882 0.1952 0.2022 0.2092
2255.000000 0.2166 0.2241 0.2318 0.2396 0.2474
2250.000000 0.2552 0.2656 0.2761 0.2867 0.2973
2245.000000 0.3051 0.3130 0.3200 0.3270 0.3339
2240.000000 0.3409 0.3525 0.3642 0.4173 0.4705
2235.000000 0.4784 0.4864 0.4940 0.5016 0.5062
2230.000000 0.5110 0.5152 0.5194 0.5219 0.5245
2225.000000 0.5270 0.5295 0.5310 0.5325 0.5339
2220.000000 0.5353 0.5367 0.5381 0.5395 0.5409
2215.000000 0.5442 0.5475 0.5507 0.5540 0.5573
2210.000000 0.5606 0.5639 0.5672 0.5705 0.5738
2205.000000 0.5770 0.5803 0.5836 0.5869 0.5898
2200.000000 0.5928 0.5947 0.5966 0.5985 0.6004
2195.000000 0.6023 0.6042 0.6060 0.6080 0.6099
2190.000000 0.6118 0.6137 0.6156 0.6176 0.6197
2185.000000 0.6218 0.6239 0.6259 0.6280 0.6300
2180.000000 0.6321 0.6342 0.6362 0.6382 0.6401
2175.000000 0.6418 0.6435 0.6451 0.6468 0.6484
2170.000000 0.6501 0.6517 0.6534 0.6550 0.6567
2165.000000 0.6582 0.6597 0.6611 0.6626 0.6642
2160.000000 0.6657 0.6671 0.6687 0.6698 0.6710
2155.000000 0.6719 0.6731 0.6741 0.6751 0.6758
2150.000000 0.6765 0.6771 0.6776 0.6783 0.6789
2145.000000 0.6795 0.6801 0.6807 0.6811 0.6817
2140.000000 0.6821 0.6825 0.6851 0.6833 0.6835
2135.000000 0.6830 0.6825 0.6821 0.6817 0.6811
2130.000000 0.6808 0.6801 0.6794 0.6782 0.6771
2125.000000 0.6761 0.6751 0.6743 0.6735 0.6728
2120.000000 0.6724 0.6724 0.6725 0.6725 0.6725
2115.000000 0.6725 0.6725 0.6726 0.6728 0.6730
2110.000000 0.6731 0.6731 0.6732 0.6732 0.6732
2105.000000 0.6732 0.6732 0.6733 0.6734 0.6735
2100.000000 0.6736 0.6739 0.6742 0.6753 0.6762
2095.000000 0.6771 0.6782 0.6789 0.6797 0.6804
2090.000000 0.6811 0.6818 0.6825 0.6838 0.6851
2085.000000 0.6864 0.6876 0.6899 0.6921 0.6948
2080.000000 0.6975 0.6997 0.7018 0.7044 0.7069
2075.000000 0.7087 0.7105 0.7110 0.7115 0.7121
2070.000000 0.7126 0.7133 0.7139 0.7145 0.7151
2065.000000 0.7158 0.7168 0.7178 0.7188 0.7197
2060.000000 0.7207 0.7217 0.7226 0.7236 0.7246
2055.000000 0.7256 0.7265 0.7274 0.7283 0.7291
2050.000000 0.7299 0.7306 0.7314 0.7321 0.7328
2045.000000 0.7339 0.7349 0.7360 0.7371 0.7383
2040.000000 0.7394 0.7405 0.7417 0.7430 0.7443
2035.000000 0.7456 0.7468 0.7482 0.7495 0.7508
2030.000000 0.7521 0.7534 0.7547 0.7558 0.7571
2025.000000 0.7584 0.7597 0.7610 0.7622 0.7634
2020.000000 0.7646 0.7656 0.7667 0.7676 0.7688
2015.000000 0.7698 0.7708 0.7718 0.7728 0.7735
2010.000000 0.7742 0.7747 0.7753 0.7758 0.7762
2005.000000 0.7762 0.7764 0.7764 0.7765 0.7765
2000.000000 0.7767 0.7768 0.7764 0.7774 0.7794
1995.000000 0.7814 0.7833 0.7851 0.7871 0.7887
1990.000000 0.7897 0.7907 0.7917 0.7926 0.7937
1985.000000 0.7945 0.7953 0.7961 0.7969 0.7972
1980.000000 0.7975 0.7976 0.7978 0.7981 0.7984
1975.000000 0.7974 0.7958 0.7934 0.7907 0.7892
1970.000000 0.7878 0.7874 0.7871 0.7868 0.7868
1965.000000 0.7882 0.7894 0.7906 0.7935 0.7969
1960.000000 0.7996 0.8011 0.8026 0.8042 0.8056
1955.000000 0.8065 0.8068 0.8069 0.8065 0.8056
1950.000000 0.8045 0.8011 0.7968 0.7937 0.7915
1945.000000 0.7906 0.7897 0.7885 0.7882 0.7900
1940.000000 0.7918 0.7937 0.7954 0.7971 0.7990
1935.000000 0.8005 0.8019 0.8034 0.8048 0.8058
1930.000000 0.8065 0.8071 0.8076 0.8083 0.8089
1925.000000 0.8095 0.8101 0.8101 0.8103 0.8104
1920.000000 0.8105 0.8106 0.8108 0.8108 0.8108
1915.000000 0.8108 0.8108 0.8108 0.8108 0.8108
1910.000000 0.8108 0.8108 0.8108 0.8108 0.8108
1905.000000 0.8108 0.8110 0.8110 0.8110 0.8110
1900.000000 0.8110 0.8110 0.8111 0.8111 0.8112
1895.000000 0.8114 0.8115 0.8115 0.8117 0.8118
1890.000000 0.8128 0.8143 0.8156 0.8168 0.8181
1885.000000 0.8192 0.8204 0.8215 0.8223 0.8231
1880.000000 0.8239 0.8247 0.8252 0.8250 0.8248
1875.000000 0.8245 0.8243 0.8239 0.8235 0.8231
1870.000000 0.8227 0.8223 0.8218 0.8215 0.8212
1865.000000 0.8211 0.8210 0.8209 0.8208 0.8207
1860.000000 0.8206 0.8206 0.8206 0.8208 0.8211
1855.000000 0.8213 0.8216 0.8218 0.8220 0.8223
1850.000000 0.8225 0.8228 0.8232 0.8236 0.8240
1845.000000 0.8243 0.8247 0.8252 0.8262 0.8271
1840.000000 0.8281 0.8291 0.8301 0.8311 0.8321
1835.000000 0.8331 0.8341 0.8351 0.8357 0.8358
1830.000000 0.8359 0.8360 0.8361 0.8361 0.8361
1825.000000 0.8360 0.8359 0.8358 0.8356 0.8355
1820.000000 0.8354 0.8353 0.8353 0.8359 0.8366
1815.000000 0.8373 0.8378 0.8386 0.8392 0.8399
1810.000000 0.8405 0.8411 0.8417 0.8423 0.8428
1805.000000 0.8436 0.8442 0.8448 0.8454 0.8460
1800.000000 0.8462 0.8464 0.8467 0.8468 0.8471
1795.000000 0.8474 0.8475 0.8478 0.8481 0.8483
1790.000000 0.8485 0.8486 0.8488 0.8489 0.8490
1785.000000 0.8493 0.8496 0.8499 0.8502 0.8505
1780.000000 0.8508 0.8511 0.8514 0.8517 0.8521
1775.000000 0.8525 0.8528 0.8533 0.8538 0.8542
1770.000000 0.8546 0.8550 0.8552 0.8555 0.8557
1765.000000 0.8560 0.8562 0.8564 0.8567 0.8570
1760.000000 0.8573 0.8575 0.8578 0.8571 0.8583
1755.000000 0.8583 0.8583 0.8580 0.8577 0.8575
1750.000000 0.8571 0.8568 0.8564 0.8558 0.8553
1745.000000 0.8547 0.8541 0.8536 0.8530 0.8524
1740.000000 0.8518 0.8514 0.8509 0.8504 0.8496
1735.000000 0.8486 0.8475 0.8466 0.8456 0.8443
1730.000000 0.8428 0.8414 0.8392 0.8364 0.8324
1725.000000 0.8311 0.8298 0.8241 0.8169 0.8076
1720.000000 0.8086 0.8094 0.8104 0.8135 0.8183
1715.000000 0.8218 0.8252 0.8285 0.8318 0.8351
1710.000000 0.8384 0.8416 0.8440 0.8463 0.8487
1705.000000 0.8507 0.8520 0.8533 0.8546 0.8558
1700.000000 0.8571 0.8584 0.8592 0.8597 0.8601
1695.000000 0.8606 0.8610 0.8615 0.8618 0.8624
1690.000000 0.8628 0.8633 0.8637 0.8642 0.8646
1685.000000 0.8651 0.8655 0.8658 0.8659 0.8659
1680.000000 0.8660 0.8661 0.8661 0.8662 0.8663
1675.000000 0.8663 0.8664 0.8665 0.8665 0.8664
1670.000000 0.8664 0.8663 0.8663 0.8663 0.8661
1665.000000 0.8659 0.8665 0.8671 0.8677 0.8683
1660.000000 0.8689 0.8696 0.8702 0.8708 0.8714
1655.000000 0.8720 0.8721 0.8721 0.8721 0.8721
1650.000000 0.8723 0.8723 0.8724 0.8724 0.8725
1645.000000 0.8725 0.8725 0.8725 0.8727 0.8728
1640.000000 0.8734 0.8739 0.8744 0.8749 0.8754
1635.000000 0.8759 0.8764 0.8768 0.8774 0.8778
1630.000000 0.8784 0.8789 0.8794 0.8799 0.8804
1625.000000 0.8809 0.8814 0.8818 0.8824 0.8828
1620.000000 0.8834 0.8839 0.8844 0.8850 0.8855
1615.000000 0.8860 0.8865 0.8870 0.8875 0.8878
1610.000000 0.8880 0.8881 0.8883 0.8884 0.8886
1605.000000 0.8887 0.8889 0.8891 0.8892 0.8894
1600.000000 0.8895 0.8897 0.8898 0.8900 0.8902
1595.000000 0.8903 0.8903 0.8903 0.8902 0.8902
1590.000000 0.8901 0.8901 0.8900 0.8899 0.8899
1585.000000 0.8898 0.8898 0.8897 0.8896 0.8896
1580.000000 0.8895 0.8895 0.8895 0.8896 0.8896
1575.000000 0.8896 0.8897 0.8897 0.8897 0.8897
1570.000000 0.8898 0.8898 0.8898 0.8899 0.8899
1565.000000 0.8900 0.8900 0.8900 0.8900 0.8900
1560.000000 0.8900 0.8899 0.8899 0.8899 0.8899
1555.000000 0.8899 0.8899 0.8899 0.8899 0.8899
1550.000000 0.8898 0.8898 0.8897 0.8896 0.8896
1545.000000 0.8895 0.8894 0.8894 0.8893 0.8892
1540.000000 0.8891 0.8891 0.8889 0.8887 0.8886
1535.000000 0.8884 0.8882 0.8881 0.8878 0.8878
1530.000000 0.8875 0.8874 0.8873 0.8868 0.8863
1525.000000 0.8857 0.8851 0.8845 0.8839 0.8833
1520.000000 0.8827 0.8821 0.8814 0.8806 0.8799
1515.000000 0.8791 0.8784 0.8775 0.8766 0.8759
1510.000000 0.8760 0.8760 0.8761 0.8761 0.8765
1505.000000 0.8768 0.8771 0.8771 0.8770 0.8764
1500.000000 0.8758 0.8752 0.8745 0.8739 0.8725
1495.000000 0.8713 0.8700 0.8687 0.8674 0.8661
1490.000000 0.8649 0.8638 0.8625 0.8615 0.8603
1485.000000 0.8600 0.8598 0.8595 0.8592 0.8591
1480.000000 0.8591 0.8591 0.8598 0.8604 0.8611
1475.000000 0.8612 0.8608 0.8604 0.8592 0.8575
1470.000000 0.8558 0.8518 0.8480 0.8437 0.8377
1465.000000 0.8262 0.7485 0.6783 0.6800 0.6812
1460.000000 0.7148 0.7482 0.7751 0.7741 0.7468
1455.000000 0.6696 0.5923 0.5149 0.4376 0.3782
1450.000000 0.3793 0.4292 0.4820 0.5349 0.5877
1445.000000 0.6262 0.6279 0.6065 0.5778 0.5390
1440.000000 0.5394 0.5399 0.5849 0.6741 0.7138
1435.000000 0.7165 0.7167 0.7168 0.7155 0.7119
1430.000000 0.7084 0.7041 0.6978 0.6918 0.6811
1425.000000 0.6686 0.6553 0.6419 0.5348 0.4812
1420.000000 0.4278 0.3743 0.3208 0.2673 0.2151
1415.000000 0.2157 0.2157 0.2157 0.2399 0.2676
1410.000000 0.2952 0.3228 0.3505 0.3780 0.4058
1405.000000 0.4334 0.4610 0.4887 0.5164 0.5440
1400.000000 0.5717 0.5993 0.6449 0.6439 0.6441
1395.000000 0.6443 0.6325 0.6166 0.6029 0.6050
1390.000000 0.6088 0.6199 0.6310 0.6421 0.6532
1385.000000 0.6643 0.6754 0.6784 0.6800 0.6814
1380.000000 0.6796 0.6747 0.6512 0.6278 0.6044
1375.000000 0.6010 0.6003 0.5885 0.5680 0.5475
1370.000000 0.5341 0.5334 0.5538 0.5805 0.6071
1365.000000 0.6338 0.6605 0.6751 0.6781 0.6768
1360.000000 0.6680 0.6565 0.6449 0.6447 0.6475
1355.000000 0.6550 0.6625 0.6675 0.6671 0.6625
1350.000000 0.6438 0.6251 0.6062 0.5876 0.5688
1345.000000 0.5500 0.5312 0.5125 0.4937 0.4750
1340.000000 0.4562 0.4375 0.4187 0.3999 0.3812
1335.000000 0.3624 0.3522 0.3548 0.4249 0.5190
1330.000000 0.6130 0.6468 0.6556 0.6685 0.6912
1325.000000 0.7032 0.7169 0.7257 0.7318 0.7372
1320.000000 0.7424 0.7449 0.7465 0.7508 0.7471
1315.000000 0.7474 0.7472 0.7465 0.7453 0.7438
1310.000000 0.7422 0.7393 0.7348 0.7331 0.7337
1305.000000 0.7347 0.7393 0.7446 0.7512 0.7584
1300.000000 0.7601 0.7608 0.7626 0.7604 0.7603
1295.000000 0.7601 0.7592 0.7582 0.7571 0.7561
1290.000000 0.7551 0.7542 0.7532 0.7512 0.7489
1285.000000 0.7465 0.7441 0.7417 0.7388 0.7351
1280.000000 0.7315 0.7274 0.7206 0.7139 0.7071
1275.000000 0.6988 0.6895 0.6731 0.6564 0.6377
1270.000000 0.6084 0.5565 0.4891 0.4218 0.3544
1265.000000 0.2870 0.2196 0.2062 0.2049 0.2008
1260.000000 0.1539 0.1517 0.1542 0.1542 0.2044
1255.000000 0.2752 0.3459 0.4167 0.4874 0.5581
1250.000000 0.6289 0.6626 0.6749 0.6844 0.6911
1245.000000 0.6958 0.7008 0.7056 0.7094 0.7124
1240.000000 0.7154 0.7169 0.7181 0.7193 0.7204
1235.000000 0.7211 0.7221 0.7228 0.7268 0.7239
1230.000000 0.7239 0.7236 0.7231 0.7226 0.7222
1225.000000 0.7218 0.7211 0.7197 0.7183 0.7168
1220.000000 0.7153 0.7139 0.7117 0.7089 0.7061
1215.000000 0.7034 0.7006 0.6976 0.6935 0.6893
1210.000000 0.6850 0.6808 0.6750 0.6684 0.6618
1205.000000 0.6521 0.6405 0.6264 0.6054 0.5894
1200.000000 0.5749 0.5604 0.5468 0.5337 0.5206
1195.000000 0.4968 0.4527 0.4345 0.3841 0.3128
1190.000000 0.2414 0.1700 0.1174 0.1126 0.1091
1185.000000 0.0979 0.1007 0.1003 0.1002 0.1012
1180.000000 0.1031 0.1513 0.1490 0.1492 0.1440
1175.000000 0.1316 0.1191 0.1121 0.1121 0.1121
1170.000000 0.1459 0.1875 0.2290 0.2705 0.3120
1165.000000 0.3534 0.3950 0.4366 0.4781 0.5196
1160.000000 0.5610 0.5854 0.5976 0.6046 0.6097
1155.000000 0.6133 0.6150 0.6201 0.6179 0.6174
1150.000000 0.6162 0.6133 0.6098 0.6039 0.5972
1145.000000 0.5852 0.5689 0.5295 0.4395 0.3495
1140.000000 0.2595 0.2144 0.2150 0.2289 0.2511
1135.000000 0.2732 0.2954 0.3176 0.3397 0.3618
1130.000000 0.3720 0.3780 0.3832 0.4117 0.4438
1125.000000 0.4758 0.5078 0.5381 0.5403 0.5410
1120.000000 0.5420 0.5378 0.5322 0.5253 0.5171
1115.000000 0.5053 0.4937 0.4818 0.4679 0.4485
1110.000000 0.3794 0.3103 0.2413 0.1722 0.1032
1105.000000 0.0281 0.0287 0.0292 0.0568 0.1096
1100.000000 0.1624 0.2152 0.2681 0.3209 0.3737
1095.000000 0.4916 0.5049 0.5166 0.5274 0.5332
1090.000000 0.5390 0.5448 0.5500 0.5552 0.5604
1085.000000 0.5655 0.5703 0.5752 0.5800 0.5852
1080.000000 0.5908 0.5962 0.6019 0.6069 0.6118
1075.000000 0.6168 0.6220 0.6275 0.6304 0.6317
1070.000000 0.6323 0.6324 0.6331 0.6299 0.6282
1065.000000 0.6266 0.6247 0.6214 0.6181 0.6130
1060.000000 0.6073 0.6016 0.5916 0.5809 0.5698
1055.000000 0.5580 0.5233 0.4573 0.3912 0.3254
1050.000000 0.2594 0.2459 0.2471 0.2585 0.2842
1045.000000 0.3097 0.3353 0.3609 0.3864 0.4048
1040.000000 0.4093 0.4156 0.4656 0.5156 0.5655
1035.000000 0.6155 0.6480 0.6486 0.6494 0.6501
1030.000000 0.6140 0.5956 0.5831 0.5848 0.6039
1025.000000 0.6356 0.6674 0.6926 0.7036 0.7117
1020.000000 0.7183 0.7250 0.7304 0.7335 0.7367
1015.000000 0.7398 0.7424 0.7450 0.7476 0.7503
1010.000000 0.7514 0.7522 0.7533 0.7542 0.7550
1005.000000 0.7558 0.7567 0.7575 0.7584 0.7594
1000.000000 0.7606 0.7618 0.7633 0.7657 0.7681
995.000000 0.7707 0.7735 0.7764 0.7787 0.7807
990.000000 0.7825 0.7834 0.7844 0.7844 0.7844
985.000000 0.7839 0.7840 0.7842 0.7844 0.7854
980.000000 0.7865 0.7878 0.7890 0.7901 0.7912
975.000000 0.7921 0.7932 0.7925 0.7925 0.7925
970.000000 0.7908 0.7892 0.7875 0.7851 0.7815
965.000000 0.7778 0.7736 0.7684 0.7631 0.7538
960.000000 0.7318 0.7200 0.7082 0.6964 0.6846
955.000000 0.6728 0.6611 0.6457 0.6461 0.6465
950.000000 0.6549 0.6685 0.6821 0.6957 0.7093
945.000000 0.7308 0.7298 0.7301 0.7291 0.7269
940.000000 0.7008 0.6637 0.6265 0.5894 0.5523
935.000000 0.5152 0.4781 0.4685 0.4762 0.4695
930.000000 0.5673 0.6129 0.6585 0.7041 0.7362
925.000000 0.7419 0.7462 0.7445 0.7442 0.7434
920.000000 0.7408 0.7343 0.7268 0.7093 0.6882
915.000000 0.6775 0.6645 0.5979 0.5314 0.4649
910.000000 0.3984 0.3318 0.2653 0.1987 0.1323
905.000000 0.0657 0.0373 0.0390 0.0364 0.0718
900.000000 0.1212 0.1707 0.2202 0.2696 0.3191
895.000000 0.3686 0.4180 0.4675 0.5169 0.5664
890.000000 0.6159 0.6521 0.6831 0.7087 0.7238
885.000000 0.7355 0.7442 0.7528 0.7601 0.7664
880.000000 0.7728 0.7762 0.7796 0.7825 0.7851
875.000000 0.7869 0.7885 0.7900 0.7908 0.7914
870.000000 0.7919 0.7925 0.7978 0.7921 0.7915
865.000000 0.7906 0.7897 0.7887 0.7878 0.7860
860.000000 0.7833 0.7806 0.7751 0.7695 0.7621
855.000000 0.7546 0.7471 0.7397 0.6418 0.5105
850.000000 0.4210 0.4239 0.4215 0.4535 0.5005
845.000000 0.5475 0.5946 0.6415 0.6886 0.7356
840.000000 0.7614 0.7761 0.7871 0.7953 0.8011
835.000000 0.8032 0.8038 0.8044 0.8050 0.8056
830.000000 0.8060 0.8061 0.8062 0.8064 0.8065
825.000000 0.8065 0.8067 0.8068 0.8068 0.8069
820.000000 0.8071 0.8075 0.8078 0.8081 0.8084
815.000000 0.8086 0.8089 0.8092 0.8095 0.8098
810.000000 0.8101 0.8103 0.8106 0.8108 0.8111
805.000000 0.8115 0.8118 0.8119 0.8121 0.8122
800.000000 0.8124 0.8125 0.8126 0.8128 0.8128
795.000000 0.8131 0.8132 0.8133 0.8135 0.8136
790.000000 0.8137 0.8139 0.8140 0.8143 0.8146
785.000000 0.8148 0.8151 0.8154 0.8157 0.8158
780.000000 0.8161 0.8165 0.8167 0.8168 0.8168
775.000000 0.8169 0.8169 0.8169 0.8171 0.8171
770.000000 0.8171 0.8171 0.8171 0.8171 0.8168
765.000000 0.8165 0.8162 0.8160 0.8158 0.8151
760.000000 0.8133 0.8114 0.8094 0.8074 0.8051
755.000000 0.8030 0.8008 0.7985 0.7961 0.7919
750.000000 0.7864 0.7755 0.7692 0.7632 0.7558
745.000000 0.7553 0.7565 0.7624 0.7665 0.7701
740.000000 0.7735 0.7757 0.7751 0.7739 0.7711
735.000000 0.7669 0.7635 0.7600 0.7568 0.7557
730.000000 0.7546 0.7551 0.7565 0.7584 0.7734
725.000000 0.7797 0.7857 0.7917 0.7975 0.8024
720.000000 0.8071 0.8105 0.8134 0.8162 0.8192
715.000000 0.8221 0.8250 0.8274 0.8295 0.8316
710.000000 0.8337 0.8359 0.8377 0.8394 0.8411
705.000000 0.8428 0.8446 0.8460 0.8467 0.8474
700.000000 0.8482 0.8489 0.8496 0.8504 0.8510
695.000000 0.8516 0.8521 0.8528 0.8534 0.8539
690.000000 0.8545 0.8551 0.8555 0.8558 0.8561
685.000000 0.8563 0.8566 0.8568 0.8571 0.8575
680.000000 0.8581 0.8571 0.8562 0.8553 0.8543
675.000000 0.8535 0.8535 0.8536 0.8536 0.8536
670.000000 0.8538 0.8541 0.8544 0.8548 0.8551
665.000000 0.8554 0.8557 0.8560 0.8564 0.8567
660.000000 0.8570 0.8573 0.8577 0.8580 0.8581
655.000000 0.8582 0.8584 0.8585 0.8587 0.8588
650.000000 0.8589 0.8591 0.8592 0.8593 0.8595
645.000000 0.8596 0.8596 0.8595 0.8593 0.8592
640.000000 0.8591 0.8589 0.8588 0.8586 0.8585
635.000000 0.8584 0.8582 0.8581 0.8578 0.8575
630.000000 0.8574 0.8571 0.8570 0.8568 0.8566
625.000000 0.8564 0.8561 0.8559 0.8557 0.8555
620.000000 0.8552 0.8550 0.8548 0.8545 0.8539
615.000000 0.8533 0.8527 0.8521 0.8537 0.8512
610.000000 0.8507 0.8503 0.8499 0.8486 0.8473
605.000000 0.8459 0.8438 0.8416 0.8375 0.8303
600.000000 0.8026 0.7662 0.7300 0.6937 0.6574
595.000000 0.5822 0.5855 0.5859 0.5858 0.5858
590.000000 0.6041 0.6605 0.7168 0.7732 0.8293
585.000000 0.8338 0.8371 0.8394 0.8417 0.8436
580.000000 0.8443 0.8450 0.8457 0.8464 0.8471
575.000000 0.8475 0.8477 0.8477 0.8478 0.8478
570.000000 0.8478 0.8480 0.8481 0.8482 0.8482
565.000000 0.8482 0.8482 0.8481 0.8480 0.8478
560.000000 0.8477 0.8475 0.8475 0.8474 0.8473
555.000000 0.8471 0.8470 0.8468 0.8468 0.8467
550.000000 0.8466 0.8464 0.8463 0.8461 0.8460
545.000000 0.8459 0.8457 0.8456 0.8454 0.8453
540.000000 0.8452 0.8450 0.8449 0.8447 0.8446
535.000000 0.8444 0.8443 0.8441 0.8438 0.8435
530.000000 0.8431 0.8428 0.8425 0.8421 0.8418
525.000000 0.8414 0.8411 0.8408 0.8404 0.8401
520.000000 0.8398 0.8393 0.8388 0.8383 0.8378
515.000000 0.8373 0.8368 0.8359 0.8345 0.8331
510.000000 0.8317 0.8303 0.8289 0.8270 0.8249
505.000000 0.8228 0.8207 0.8186 0.8165 0.8143
500.000000 0.8115 0.8087 0.8058 0.8030 0.8001
495.000000 0.7975 0.7947 0.7918 0.7903 0.7888
490.000000 0.7872 0.7858 0.7844 0.7828 0.7812
485.000000 0.7797 0.7780 0.7764 0.7748 0.7732
480.000000 0.7715 0.7700 0.7684 0.7668 0.7651
475.000000 0.7636 0.7619 0.7604 0.7588 0.7571
470.000000 0.7555 0.7537 0.7518 0.7501 0.7483
465.000000 0.7464 0.7446 0.7425 0.7405 0.7383
460.000000 0.7337 0.7221 0.7095 0.6968 0.6882
455.000000 0.6868 0.6865 0.6865 0.6867 0.6886
450.000000 0.6932 0.7008 0.7038 0.7036 0.7034
445.000000 0.7031 0.7028 0.7025 0.7003 0.6968
440.000000 0.6928 0.6882 0.6836 0.6790 0.6744
435.000000 0.6698 0.6630 0.6557 0.6485 0.6411
430.000000 0.6351 0.6291 0.6232 0.6191 0.6153
425.000000 0.6115 0.6077 0.6039 0.6012 0.5987
420.000000 0.5962 0.5939 0.5928 0.5917 0.5906
415.000000 0.5895 0.5886 0.5882 0.5878 0.5874
410.000000 0.5870 0.5869 0.5873 0.5878 0.5883
405.000000 0.5887 0.5895 0.5903
##END=
