##TITLE=Coumarin-d6
##JCAMP-DX=4.24
##DATA TYPE=INFRARED SPECTRUM
##CLASS=COBLENTZ III
##ORIGIN=WESTERN REGIONAL RES. USDA
##OWNER=Copyright (C) 1987 by the Coblentz Society
Collection (C) 2018 copyright by the U.S. Secretary of Commerce
on behalf of the United States of America. All rights reserved.
##DATE=1967/03/08
##NAMES=2H-chromen-2-one
##MOLFORM=C9 D6 O2
##SOURCE REFERENCE=COBLENTZ NO. 7279
##$NIST ID=B6007279
##$NIST SOURCE=COBLENTZ
##$NIST IMAGE=cob7279
##SPECTROMETER/DATA SYSTEM=CARY 90 (GRATING)
##INSTRUMENT PARAMETERS=GRATING CHANGES: 3000, 2000, 1200 CM^-^1
##STATE=SOLUTION (10% CCl4 FOR 4000-1300, 10% CS2 FOR 1300-450 CM^-^1) VS SOLVENT
##PATH LENGTH=0.010 CM, 0.010 CM
##SAMPLING PROCEDURE=TRANSMISSION
##RESOLUTION=2
##DATA PROCESSING=DIGITIZED BY COBLENTZ SOCIETY (BATCH II) FROM HARD COPY
##XUNITS=1/CM
##YUNITS=TRANSMITTANCE
##XFACTOR=1.0
##YFACTOR=1
##FIRSTX=474
##LASTX=3796
##FIRSTY=0.4471
##MAXX=3796
##MINX=474
##MAXY=0.9206
##MINY=0.0001
##NPOINTS=3323
##XYDATA=(X++(Y..Y))
474.000000 0.4471 0.4477 0.4616 0.5183 0.5750
479.000000 0.6317 0.6787 0.6876 0.6965 0.7044
484.000000 0.7109 0.7135 0.7154 0.7174 0.7193
489.000000 0.7206 0.7212 0.7219 0.7225 0.7232
494.000000 0.7165 0.7232 0.7230 0.7219 0.7200
499.000000 0.7180 0.7161 0.6843 0.6431 0.6019
504.000000 0.5607 0.5194 0.4782 0.4370 0.4345
509.000000 0.4592 0.6339 0.6986 0.7085 0.7182
514.000000 0.7270 0.7359 0.7414 0.7455 0.7495
519.000000 0.7536 0.7577 0.7607 0.7632 0.7657
524.000000 0.7683 0.7692 0.7699 0.7706 0.7713
529.000000 0.7720 0.7726 0.7733 0.7740 0.7742
534.000000 0.7745 0.7748 0.7750 0.7753 0.7755
539.000000 0.7723 0.7761 0.7760 0.7757 0.7753
544.000000 0.7750 0.7746 0.7743 0.7739 0.7722
549.000000 0.7702 0.7681 0.7661 0.7641 0.7604
554.000000 0.7447 0.6875 0.6303 0.5732 0.5207
559.000000 0.5211 0.5225 0.6113 0.7271 0.7513
564.000000 0.7640 0.7714 0.7744 0.7773 0.7797
569.000000 0.7804 0.7812 0.7819 0.7827 0.7834
574.000000 0.7832 0.7829 0.7845 0.7822 0.7817
579.000000 0.7812 0.7808 0.7801 0.7787 0.7773
584.000000 0.7759 0.7739 0.7712 0.7686 0.6946
589.000000 0.5812 0.4678 0.3544 0.2623 0.2605
594.000000 0.2614 0.3090 0.3795 0.4499 0.5204
599.000000 0.5909 0.6760 0.6725 0.6586 0.5752
604.000000 0.4919 0.4085 0.3252 0.2418 0.1585
609.000000 0.0751 0.0486 0.0500 0.0490 0.1158
614.000000 0.1902 0.2645 0.3388 0.4131 0.4875
619.000000 0.5618 0.6361 0.7104 0.7503 0.7505
624.000000 0.7507 0.7509 0.7509 0.7510 0.7510
629.000000 0.7510 0.7475 0.7510 0.7510 0.7511
634.000000 0.7426 0.7255 0.7084 0.6913 0.6742
639.000000 0.6571 0.6610 0.6801 0.7008 0.7216
644.000000 0.7424 0.7527 0.7548 0.7543 0.7366
649.000000 0.7078 0.6944 0.6946 0.6901 0.7096
654.000000 0.7200 0.7271 0.7302 0.7333 0.7448
659.000000 0.7608 0.7769 0.7901 0.7962 0.8000
664.000000 0.8035 0.8064 0.8084 0.8105 0.8125
669.000000 0.8145 0.8165 0.8184 0.8197 0.8210
674.000000 0.8210 0.8202 0.8194 0.8188 0.8184
679.000000 0.8181 0.8178 0.8187 0.8180 0.8187
684.000000 0.8191 0.8190 0.8189 0.8184 0.8165
689.000000 0.8142 0.8109 0.8075 0.7918 0.7700
694.000000 0.7481 0.7262 0.7044 0.6825 0.6606
699.000000 0.6604 0.6806 0.7178 0.7550 0.7923
704.000000 0.7997 0.8009 0.8007 0.8005 0.8004
709.000000 0.7921 0.7788 0.7654 0.7521 0.7539
714.000000 0.7546 0.7635 0.7724 0.7813 0.7902
719.000000 0.7990 0.8079 0.8077 0.8074 0.8070
724.000000 0.8063 0.8053 0.8039 0.8007 0.7969
729.000000 0.7920 0.7865 0.7807 0.7749 0.7654
734.000000 0.7555 0.7393 0.7206 0.6499 0.5102
739.000000 0.3705 0.3635 0.3680 0.4525 0.5634
744.000000 0.6743 0.7470 0.7493 0.7328 0.7123
749.000000 0.6919 0.6714 0.6510 0.6509 0.6503
754.000000 0.6598 0.6815 0.7033 0.7250 0.7349
759.000000 0.7267 0.6917 0.6567 0.6217 0.5527
764.000000 0.5327 0.4342 0.3701 0.3059 0.2418
769.000000 0.1777 0.1135 0.0928 0.0919 0.1953
774.000000 0.2750 0.3546 0.4343 0.5140 0.6272
779.000000 0.6498 0.6624 0.6750 0.6876 0.7025
784.000000 0.7185 0.7345 0.7505 0.7665 0.7821
789.000000 0.7786 0.7812 0.7804 0.7747 0.7677
794.000000 0.7598 0.7535 0.7474 0.7413 0.7336
799.000000 0.7258 0.7043 0.6131 0.5212 0.4294
804.000000 0.3375 0.2926 0.2979 0.3420 0.3861
809.000000 0.4301 0.4742 0.5183 0.5623 0.6064
814.000000 0.6505 0.6946 0.7258 0.7228 0.7225
819.000000 0.7221 0.6286 0.5335 0.4384 0.3433
824.000000 0.1872 0.1865 0.1865 0.2509 0.3182
829.000000 0.3855 0.4528 0.5201 0.5873 0.6546
834.000000 0.7219 0.7341 0.7335 0.7329 0.6795
839.000000 0.6260 0.5726 0.5192 0.4658 0.4123
844.000000 0.3589 0.3459 0.3877 0.4578 0.5279
849.000000 0.5980 0.6681 0.7109 0.7114 0.6894
854.000000 0.6675 0.6461 0.6461 0.6677 0.6916
859.000000 0.7155 0.7394 0.7633 0.7872 0.7990
864.000000 0.8006 0.8020 0.8032 0.8044 0.8056
869.000000 0.8070 0.8090 0.8110 0.8137 0.8179
874.000000 0.8221 0.8258 0.8295 0.8323 0.8336
879.000000 0.8341 0.8346 0.8366 0.8332 0.8320
884.000000 0.8300 0.8262 0.8231 0.8202 0.8175
889.000000 0.8148 0.8121 0.8094 0.8068 0.8042
894.000000 0.8017 0.8018 0.8023 0.8032 0.8041
899.000000 0.8052 0.8048 0.7976 0.7858 0.7700
904.000000 0.7536 0.7313 0.7088 0.6874 0.6687
909.000000 0.6482 0.5337 0.3703 0.2069 0.1797
914.000000 0.2226 0.3150 0.4073 0.4997 0.5920
919.000000 0.6844 0.7768 0.7824 0.7856 0.7879
924.000000 0.7896 0.7914 0.7938 0.7980 0.8020
929.000000 0.8059 0.8084 0.8107 0.8077 0.8069
934.000000 0.8016 0.7863 0.7736 0.7705 0.7736
939.000000 0.7715 0.7922 0.7967 0.8011 0.8055
944.000000 0.8098 0.8140 0.8182 0.8220 0.8257
949.000000 0.8293 0.8327 0.8357 0.8387 0.8417
954.000000 0.8442 0.8461 0.8481 0.8501 0.8520
959.000000 0.8540 0.8548 0.8554 0.8559 0.8564
964.000000 0.8570 0.8575 0.8576 0.8575 0.8573
969.000000 0.8572 0.8571 0.8570 0.8568 0.8567
974.000000 0.8566 0.8565 0.8578 0.8562 0.8561
979.000000 0.8560 0.8559 0.8555 0.8550 0.8545
984.000000 0.8540 0.8535 0.8530 0.8526 0.8521
989.000000 0.8516 0.8511 0.8506 0.8501 0.8496
994.000000 0.8484 0.8469 0.8455 0.8440 0.8425
999.000000 0.8411 0.8396 0.8354 0.8297 0.8240
1004.000000 0.8162 0.8084 0.7897 0.7619 0.7397
1009.000000 0.7236 0.7116 0.7008 0.6900 0.6819
1014.000000 0.6756 0.6694 0.6631 0.6569 0.6440
1019.000000 0.4293 0.3653 0.3017 0.2381 0.1746
1024.000000 0.1110 0.0474 0.0280 0.0285 0.0295
1029.000000 0.0269 0.0355 0.0786 0.0939 0.1032
1034.000000 0.1751 0.2775 0.3800 0.4825 0.5849
1039.000000 0.6874 0.7862 0.7945 0.7998 0.8037
1044.000000 0.8061 0.8084 0.8107 0.8129 0.8149
1049.000000 0.8169 0.8188 0.8208 0.8247 0.8291
1054.000000 0.8335 0.8392 0.8458 0.8494 0.8505
1059.000000 0.8515 0.8521 0.8523 0.8525 0.8527
1064.000000 0.8528 0.8526 0.8524 0.8522 0.8520
1069.000000 0.8517 0.8515 0.8513 0.8511 0.8519
1074.000000 0.8509 0.8507 0.8506 0.8505 0.8503
1079.000000 0.8502 0.8501 0.8500 0.8499 0.8498
1084.000000 0.8497 0.8496 0.8495 0.8494 0.8469
1089.000000 0.8432 0.8395 0.8358 0.8244 0.8114
1094.000000 0.7984 0.7855 0.7725 0.7595 0.7547
1099.000000 0.7548 0.7525 0.7601 0.7661 0.7722
1104.000000 0.7783 0.7844 0.7905 0.7965 0.7991
1109.000000 0.7976 0.7985 0.7982 0.7851 0.7483
1114.000000 0.7115 0.6747 0.6379 0.6011 0.5643
1119.000000 0.5295 0.5207 0.5133 0.4957 0.4564
1124.000000 0.4172 0.3779 0.3387 0.2994 0.2602
1129.000000 0.2209 0.1850 0.1651 0.1385 0.1183
1134.000000 0.0866 0.0733 0.0657 0.0582 0.0507
1139.000000 0.0451 0.0398 0.0357 0.0346 0.0365
1144.000000 0.0693 0.1146 0.1598 0.2051 0.2503
1149.000000 0.2956 0.3408 0.3861 0.4313 0.4766
1154.000000 0.5218 0.5671 0.6123 0.6576 0.6905
1159.000000 0.6902 0.6871 0.6687 0.6528 0.6368
1164.000000 0.6208 0.6048 0.6037 0.6182 0.6397
1169.000000 0.6612 0.6828 0.6883 0.6873 0.6856
1174.000000 0.6839 0.6813 0.6983 0.7153 0.7322
1179.000000 0.7492 0.7662 0.7750 0.7770 0.7770
1184.000000 0.7771 0.7773 0.7777 0.7788 0.7806
1189.000000 0.7820 0.7847 0.7870 0.7837 0.7766
1194.000000 0.7698 0.7610 0.7468 0.7271 0.6988
1199.000000 0.6377 0.5923 0.5470 0.5016 0.4562
1204.000000 0.4109 0.3655 0.3202 0.2748 0.2672
1209.000000 0.2677 0.2679 0.4351 0.5599 0.6117
1214.000000 0.6137 0.6142 0.6071 0.5999 0.5928
1219.000000 0.5856 0.5829 0.5831 0.6200 0.6593
1224.000000 0.6965 0.7050 0.7163 0.7271 0.7326
1229.000000 0.7410 0.7520 0.7573 0.7588 0.7584
1234.000000 0.7598 0.7424 0.7238 0.7053 0.6867
1239.000000 0.6681 0.6600 0.6601 0.6860 0.7136
1244.000000 0.7412 0.7648 0.7639 0.7626 0.7591
1249.000000 0.7044 0.6497 0.5950 0.5404 0.4857
1254.000000 0.4310 0.3763 0.3216 0.2669 0.2122
1259.000000 0.1576 0.1029 0.0559 0.0548 0.0955
1264.000000 0.2853 0.4716 0.5184 0.5651 0.6118
1269.000000 0.6586 0.7053 0.7494 0.7498 0.7501
1274.000000 0.7501 0.7501 0.7505 0.7502 0.7502
1279.000000 0.7502 0.7502 0.7330 0.7136 0.6941
1284.000000 0.6747 0.6553 0.6359 0.6165 0.5971
1289.000000 0.5901 0.5906 0.5910 0.6160 0.6448
1294.000000 0.6735 0.7033 0.7046 0.7054 0.7062
1299.000000 0.7071 0.7086 0.7121 0.7204 0.7348
1304.000000 0.7383 0.7385 0.7388 0.7389 0.7386
1309.000000 0.7191 0.6880 0.6570 0.6259 0.5948
1314.000000 0.5638 0.5327 0.5088 0.5083 0.5121
1319.000000 0.5713 0.6104 0.6372 0.6518 0.6618
1324.000000 0.6763 0.6929 0.7053 0.7177 0.7264
1329.000000 0.7351 0.7438 0.7516 0.7590 0.7665
1334.000000 0.7739 0.7817 0.7896 0.7947 0.7951
1339.000000 0.7952 0.7945 0.7915 0.7867 0.7815
1344.000000 0.7639 0.7467 0.7289 0.7110 0.6938
1349.000000 0.6783 0.6650 0.6525 0.6414 0.6317
1354.000000 0.5963 0.5603 0.4772 0.4027 0.3282
1359.000000 0.2537 0.1792 0.1047 0.0528 0.0519
1364.000000 0.0866 0.1819 0.2772 0.3725 0.4677
1369.000000 0.5359 0.6176 0.6427 0.6777 0.7061
1374.000000 0.7048 0.7007 0.6948 0.6901 0.6885
1379.000000 0.6900 0.6963 0.7029 0.7113 0.7241
1384.000000 0.7333 0.7420 0.7530 0.7674 0.7718
1389.000000 0.7738 0.7738 0.7790 0.7642 0.7579
1394.000000 0.7515 0.7451 0.7386 0.7321 0.7274
1399.000000 0.7314 0.7378 0.7400 0.7420 0.7423
1404.000000 0.7211 0.6912 0.6613 0.6315 0.6016
1409.000000 0.5717 0.5418 0.5119 0.5013 0.5100
1414.000000 0.5454 0.5038 0.5470 0.5515 0.5360
1419.000000 0.5332 0.5337 0.5359 0.6192 0.6307
1424.000000 0.6389 0.6574 0.6829 0.7120 0.7250
1429.000000 0.7328 0.7402 0.7473 0.7510 0.7545
1434.000000 0.7575 0.7587 0.7599 0.7611 0.7623
1439.000000 0.7640 0.7657 0.7674 0.7719 0.7784
1444.000000 0.7939 0.8000 0.8029 0.8025 0.8022
1449.000000 0.8005 0.7972 0.7944 0.7947 0.7952
1454.000000 0.7959 0.7983 0.8065 0.8100 0.8116
1459.000000 0.8123 0.8127 0.8128 0.8129 0.8130
1464.000000 0.8132 0.8136 0.8152 0.8143 0.8147
1469.000000 0.8151 0.8146 0.8137 0.8128 0.8119
1474.000000 0.8103 0.8079 0.8069 0.8064 0.8060
1479.000000 0.8055 0.8032 0.8120 0.8159 0.8180
1484.000000 0.8200 0.8213 0.8220 0.8217 0.8213
1489.000000 0.8208 0.8201 0.8195 0.8185 0.8171
1494.000000 0.8158 0.8134 0.8105 0.8075 0.8018
1499.000000 0.7937 0.7873 0.7808 0.7761 0.7731
1504.000000 0.7734 0.7713 0.7743 0.7753 0.7805
1509.000000 0.7876 0.7944 0.8015 0.8078 0.8120
1514.000000 0.8130 0.8134 0.8133 0.8120 0.8109
1519.000000 0.8093 0.8065 0.8027 0.7971 0.7876
1524.000000 0.7758 0.7596 0.7428 0.7000 0.6629
1529.000000 0.6125 0.5573 0.5021 0.4469 0.4022
1534.000000 0.4020 0.4012 0.4727 0.5184 0.5207
1539.000000 0.5230 0.5260 0.5293 0.5325 0.5396
1544.000000 0.5527 0.6374 0.6697 0.6908 0.7158
1549.000000 0.7309 0.7426 0.7598 0.7630 0.7655
1554.000000 0.7670 0.7628 0.7679 0.7681 0.7665
1559.000000 0.7641 0.7605 0.7550 0.7445 0.7343
1564.000000 0.7248 0.7155 0.6980 0.6768 0.6548
1569.000000 0.6387 0.6005 0.5605 0.5204 0.4804
1574.000000 0.4403 0.4003 0.3676 0.2981 0.2399
1579.000000 0.1816 0.1234 0.0651 0.0170 0.0174
1584.000000 0.0196 0.0309 0.0640 0.0970 0.1175
1589.000000 0.1175 0.1182 0.0604 0.0204 0.0145
1594.000000 0.0153 0.0168 0.0128 0.0263 0.0430
1599.000000 0.0517 0.1682 0.2653 0.3011 0.3011
1604.000000 0.3012 0.3012 0.3043 0.2858 0.2769
1609.000000 0.2680 0.2591 0.2545 0.2548 0.2702
1614.000000 0.2533 0.3297 0.3594 0.3891 0.4199
1619.000000 0.4297 0.4480 0.5004 0.5317 0.5446
1624.000000 0.5533 0.5584 0.5634 0.5698 0.5764
1629.000000 0.6629 0.6850 0.6966 0.7108 0.7298
1634.000000 0.7370 0.7386 0.7399 0.7399 0.7431
1639.000000 0.7397 0.7388 0.7357 0.7329 0.7302
1644.000000 0.7289 0.7286 0.7297 0.7321 0.7354
1649.000000 0.7398 0.7451 0.7502 0.7533 0.7555
1654.000000 0.7577 0.7599 0.7611 0.7622 0.7632
1659.000000 0.7643 0.7654 0.7658 0.7663 0.7667
1664.000000 0.7672 0.7671 0.7673 0.7669 0.7667
1669.000000 0.7620 0.7485 0.7349 0.7213 0.7077
1674.000000 0.6941 0.6805 0.6669 0.6533 0.6408
1679.000000 0.6408 0.6408 0.6409 0.6409 0.6409
1684.000000 0.6299 0.6160 0.6021 0.5882 0.5743
1689.000000 0.5605 0.5466 0.5327 0.5188 0.5049
1694.000000 0.4911 0.4772 0.4633 0.4494 0.4355
1699.000000 0.4217 0.4078 0.3939 0.3800 0.3783
1704.000000 0.3782 0.3780 0.3778 0.3512 0.3237
1709.000000 0.2963 0.2688 0.2414 0.2139 0.1865
1714.000000 0.1590 0.1315 0.1099 0.0970 0.0739
1719.000000 0.0233 0.0104 0.0054 0.0012 0.0003
1724.000000 0.0012 0.0013 0.0014 0.0015 0.0017
1729.000000 0.0017 0.0017 0.0017 0.0017 0.0016
1734.000000 0.0016 0.0016 0.0016 0.0002 0.0013
1739.000000 0.0011 0.0009 0.0008 0.0006 0.0004
1744.000000 0.0002 0.0001 0.0001 0.0005 0.0008
1749.000000 0.0012 0.0015 0.0024 0.0037 0.0050
1754.000000 0.0073 0.0199 0.0461 0.0722 0.0983
1759.000000 0.1245 0.1506 0.1786 0.1959 0.2224
1764.000000 0.2445 0.2638 0.3091 0.3679 0.3972
1769.000000 0.4553 0.4816 0.5187 0.5345 0.5504
1774.000000 0.5662 0.5820 0.5979 0.6137 0.6296
1779.000000 0.6454 0.6612 0.6771 0.6929 0.7088
1784.000000 0.7206 0.7236 0.7260 0.7278 0.7295
1789.000000 0.7313 0.7330 0.7386 0.7356 0.7359
1794.000000 0.7342 0.7315 0.7276 0.7241 0.7207
1799.000000 0.7183 0.7189 0.7165 0.7263 0.7369
1804.000000 0.7487 0.7581 0.7733 0.7792 0.7820
1809.000000 0.7833 0.7839 0.7843 0.7847 0.7851
1814.000000 0.7854 0.7857 0.7860 0.7863 0.7870
1819.000000 0.7878 0.7885 0.7903 0.7883 0.7880
1824.000000 0.7843 0.7811 0.7779 0.7743 0.7703
1829.000000 0.7664 0.7625 0.7586 0.7546 0.7507
1834.000000 0.7462 0.7416 0.7338 0.7379 0.7377
1839.000000 0.7402 0.7482 0.7535 0.7583 0.7620
1844.000000 0.7657 0.7687 0.7706 0.7717 0.7768
1849.000000 0.7720 0.7605 0.7483 0.7362 0.7241
1854.000000 0.7209 0.7160 0.7228 0.7262 0.7333
1859.000000 0.7505 0.7612 0.7683 0.7762 0.7878
1864.000000 0.7966 0.8041 0.8129 0.8203 0.8270
1869.000000 0.8311 0.8346 0.8382 0.8463 0.8490
1874.000000 0.8493 0.8498 0.8504 0.8510 0.8516
1879.000000 0.8522 0.8523 0.8525 0.8526 0.8526
1884.000000 0.8525 0.8524 0.8524 0.8521 0.8518
1889.000000 0.8515 0.8512 0.8509 0.8506 0.8504
1894.000000 0.8504 0.8504 0.8505 0.8507 0.8509
1899.000000 0.8512 0.8514 0.8516 0.8517 0.8518
1904.000000 0.8519 0.8519 0.8520 0.8521 0.8522
1909.000000 0.8522 0.8523 0.8524 0.8524 0.8525
1914.000000 0.8526 0.8528 0.8529 0.8531 0.8532
1919.000000 0.8533 0.8535 0.8536 0.8538 0.8539
1924.000000 0.8540 0.8541 0.8541 0.8541 0.8542
1929.000000 0.8542 0.8542 0.8542 0.8542 0.8542
1934.000000 0.8543 0.8544 0.8545 0.8546 0.8547
1939.000000 0.8548 0.8549 0.8550 0.8551 0.8544
1944.000000 0.8538 0.8532 0.8526 0.8519 0.8513
1949.000000 0.8501 0.8496 0.8502 0.8508 0.8514
1954.000000 0.8517 0.8519 0.8522 0.8526 0.8531
1959.000000 0.8535 0.8540 0.8543 0.8546 0.8548
1964.000000 0.8551 0.8554 0.8556 0.8558 0.8561
1969.000000 0.8563 0.8568 0.8573 0.8578 0.8583
1974.000000 0.8588 0.8593 0.8597 0.8602 0.8608
1979.000000 0.8614 0.8620 0.8626 0.8632 0.8638
1984.000000 0.8644 0.8650 0.8656 0.8662 0.8668
1989.000000 0.8674 0.8680 0.8686 0.8692 0.8698
1994.000000 0.8704 0.8710 0.8749 0.8720 0.8725
1999.000000 0.8729 0.8734 0.8738 0.8742 0.8742
2004.000000 0.8743 0.8743 0.8744 0.8744 0.8745
2009.000000 0.8745 0.8746 0.8746 0.8746 0.8746
2014.000000 0.8747 0.8747 0.8747 0.8746 0.8745
2019.000000 0.8744 0.8744 0.8743 0.8742 0.8741
2024.000000 0.8741 0.8740 0.8739 0.8737 0.8736
2029.000000 0.8732 0.8728 0.8724 0.8720 0.8713
2034.000000 0.8707 0.8700 0.8694 0.8687 0.8680
2039.000000 0.8673 0.8667 0.8660 0.8654 0.8647
2044.000000 0.8640 0.8631 0.8623 0.8614 0.8606
2049.000000 0.8597 0.8589 0.8581 0.8573 0.8564
2054.000000 0.8556 0.8547 0.8539 0.8530 0.8522
2059.000000 0.8519 0.8517 0.8516 0.8516 0.8515
2064.000000 0.8515 0.8520 0.8525 0.8534 0.8543
2069.000000 0.8555 0.8568 0.8581 0.8595 0.8609
2074.000000 0.8624 0.8644 0.8665 0.8685 0.8706
2079.000000 0.8718 0.8731 0.8743 0.8755 0.8762
2084.000000 0.8770 0.8772 0.8775 0.8778 0.8781
2089.000000 0.8781 0.8782 0.8781 0.8781 0.8781
2094.000000 0.8781 0.8781 0.8781 0.8781 0.8781
2099.000000 0.8780 0.8780 0.8780 0.8780 0.8779
2104.000000 0.8779 0.8778 0.8778 0.8777 0.8776
2109.000000 0.8775 0.8775 0.8774 0.8773 0.8772
2114.000000 0.8772 0.8771 0.8770 0.8768 0.8767
2119.000000 0.8765 0.8763 0.8761 0.8760 0.8758
2124.000000 0.8756 0.8754 0.8753 0.8751 0.8749
2129.000000 0.8747 0.8745 0.8743 0.8742 0.8738
2134.000000 0.8735 0.8731 0.8727 0.8723 0.8720
2139.000000 0.8716 0.8712 0.8708 0.8704 0.8699
2144.000000 0.8695 0.8684 0.8674 0.8663 0.8652
2149.000000 0.8641 0.8631 0.8620 0.8609 0.8598
2154.000000 0.8588 0.8579 0.8571 0.8563 0.8556
2159.000000 0.8548 0.8540 0.8533 0.8526 0.8523
2164.000000 0.8520 0.8517 0.8514 0.8514 0.8515
2169.000000 0.8520 0.8525 0.8530 0.8535 0.8541
2174.000000 0.8548 0.8554 0.8561 0.8572 0.8583
2179.000000 0.8599 0.8616 0.8630 0.8645 0.8656
2184.000000 0.8667 0.8678 0.8689 0.8700 0.8711
2189.000000 0.8722 0.8733 0.8738 0.8743 0.8746
2194.000000 0.8749 0.8752 0.8755 0.8757 0.8760
2199.000000 0.8760 0.8760 0.8759 0.8759 0.8759
2204.000000 0.8759 0.8758 0.8758 0.8757 0.8757
2209.000000 0.8755 0.8754 0.8753 0.8752 0.8751
2214.000000 0.8750 0.8748 0.8747 0.8745 0.8744
2219.000000 0.8737 0.8731 0.8724 0.8718 0.8711
2224.000000 0.8705 0.8698 0.8692 0.8683 0.8674
2229.000000 0.8657 0.8641 0.8624 0.8608 0.8591
2234.000000 0.8575 0.8563 0.8552 0.8541 0.8531
2239.000000 0.8520 0.8509 0.8498 0.8488 0.8477
2244.000000 0.8467 0.8456 0.8446 0.8435 0.8424
2249.000000 0.8413 0.8403 0.8392 0.8381 0.8370
2254.000000 0.8359 0.8348 0.8338 0.8252 0.8167
2259.000000 0.8045 0.7923 0.7801 0.7679 0.7557
2264.000000 0.7435 0.7313 0.7191 0.7068 0.6946
2269.000000 0.6931 0.6916 0.6927 0.6939 0.6964
2274.000000 0.6961 0.7005 0.7021 0.7033 0.7045
2279.000000 0.7056 0.7068 0.7087 0.7106 0.7155
2284.000000 0.7204 0.7307 0.7411 0.7483 0.7555
2289.000000 0.7601 0.7648 0.7680 0.7713 0.7727
2294.000000 0.7742 0.7756 0.7771 0.7784 0.7797
2299.000000 0.7807 0.7818 0.7832 0.7847 0.7877
2304.000000 0.7908 0.7945 0.7983 0.8020 0.8058
2309.000000 0.8089 0.8120 0.8146 0.8173 0.8184
2314.000000 0.8195 0.8206 0.8217 0.8228 0.8239
2319.000000 0.8266 0.8293 0.8328 0.8363 0.8402
2324.000000 0.8442 0.8448 0.8454 0.8453 0.8504
2329.000000 0.8451 0.8450 0.8449 0.8449 0.8412
2334.000000 0.8375 0.8343 0.8312 0.8278 0.8244
2339.000000 0.8198 0.8153 0.8099 0.8046 0.8034
2344.000000 0.7959 0.8020 0.8019 0.8019 0.8019
2349.000000 0.8021 0.8023 0.8026 0.8030 0.8066
2354.000000 0.8102 0.8160 0.8219 0.8259 0.8300
2359.000000 0.8338 0.8376 0.8405 0.8434 0.8462
2364.000000 0.8490 0.8506 0.8522 0.8538 0.8554
2369.000000 0.8570 0.8586 0.8598 0.8610 0.8619
2374.000000 0.8628 0.8636 0.8645 0.8653 0.8662
2379.000000 0.8663 0.8664 0.8665 0.8666 0.8667
2384.000000 0.8668 0.8669 0.8670 0.8671 0.8672
2389.000000 0.8671 0.8671 0.8669 0.8667 0.8665
2394.000000 0.8663 0.8660 0.8658 0.8656 0.8654
2399.000000 0.8652 0.8650 0.8648 0.8646 0.8643
2404.000000 0.8641 0.8642 0.8644 0.8647 0.8650
2409.000000 0.8652 0.8655 0.8658 0.8661 0.8664
2414.000000 0.8667 0.8670 0.8674 0.8677 0.8681
2419.000000 0.8684 0.8687 0.8689 0.8691 0.8693
2424.000000 0.8695 0.8696 0.8698 0.8700 0.8702
2429.000000 0.8703 0.8705 0.8707 0.8709 0.8710
2434.000000 0.8711 0.8711 0.8712 0.8713 0.8714
2439.000000 0.8715 0.8716 0.8717 0.8718 0.8719
2444.000000 0.8720 0.8720 0.8721 0.8722 0.8723
2449.000000 0.8724 0.8726 0.8728 0.8731 0.8735
2454.000000 0.8740 0.8745 0.8750 0.8755 0.8760
2459.000000 0.8765 0.8770 0.8775 0.8780 0.8784
2464.000000 0.8788 0.8792 0.8796 0.8800 0.8804
2469.000000 0.8808 0.8812 0.8816 0.8820 0.8823
2474.000000 0.8827 0.8831 0.8835 0.8839 0.8843
2479.000000 0.8847 0.8851 0.8855 0.8859 0.8860
2484.000000 0.8861 0.8861 0.8862 0.8863 0.8864
2489.000000 0.8865 0.8866 0.8866 0.8867 0.8867
2494.000000 0.8868 0.8868 0.8869 0.8869 0.8869
2499.000000 0.8869 0.8870 0.8870 0.8871 0.8871
2504.000000 0.8872 0.8873 0.8874 0.8876 0.8878
2509.000000 0.8879 0.8881 0.8882 0.8884 0.8886
2514.000000 0.8888 0.8889 0.8890 0.8890 0.8890
2519.000000 0.8889 0.8889 0.8889 0.8905 0.8889
2524.000000 0.8889 0.8888 0.8888 0.8888 0.8888
2529.000000 0.8885 0.8883 0.8880 0.8878 0.8875
2534.000000 0.8872 0.8869 0.8867 0.8864 0.8862
2539.000000 0.8859 0.8856 0.8853 0.8850 0.8846
2544.000000 0.8843 0.8840 0.8837 0.8834 0.8831
2549.000000 0.8828 0.8825 0.8821 0.8818 0.8815
2554.000000 0.8812 0.8809 0.8807 0.8807 0.8807
2559.000000 0.8807 0.8807 0.8809 0.8811 0.8813
2564.000000 0.8815 0.8817 0.8819 0.8821 0.8823
2569.000000 0.8826 0.8830 0.8835 0.8840 0.8845
2574.000000 0.8851 0.8856 0.8861 0.8866 0.8872
2579.000000 0.8878 0.8885 0.8891 0.8898 0.8904
2584.000000 0.8910 0.8912 0.8914 0.8915 0.8917
2589.000000 0.8918 0.8920 0.8922 0.8924 0.8925
2594.000000 0.8927 0.8928 0.8930 0.8931 0.8933
2599.000000 0.8933 0.8933 0.8933 0.8934 0.8934
2604.000000 0.8934 0.8934 0.8935 0.8935 0.8936
2609.000000 0.8936 0.8936 0.8936 0.8937 0.8937
2614.000000 0.8937 0.8937 0.8938 0.8938 0.8938
2619.000000 0.8938 0.8938 0.8938 0.8938 0.8938
2624.000000 0.8938 0.8938 0.8938 0.8938 0.8939
2629.000000 0.8939 0.8939 0.8939 0.8939 0.8937
2634.000000 0.8936 0.8934 0.8932 0.8930 0.8928
2639.000000 0.8926 0.8924 0.8922 0.8920 0.8918
2644.000000 0.8916 0.8914 0.8912 0.8910 0.8908
2649.000000 0.8906 0.8904 0.8902 0.8900 0.8895
2654.000000 0.8890 0.8884 0.8879 0.8873 0.8868
2659.000000 0.8862 0.8857 0.8851 0.8846 0.8840
2664.000000 0.8834 0.8828 0.8823 0.8818 0.8814
2669.000000 0.8810 0.8806 0.8802 0.8799 0.8795
2674.000000 0.8791 0.8787 0.8784 0.8784 0.8790
2679.000000 0.8793 0.8801 0.8813 0.8826 0.8838
2684.000000 0.8851 0.8863 0.8876 0.8886 0.8896
2689.000000 0.8903 0.8911 0.8918 0.8926 0.8932
2694.000000 0.8938 0.8939 0.8940 0.8941 0.8942
2699.000000 0.8943 0.8944 0.8945 0.8984 0.8947
2704.000000 0.8948 0.8942 0.8937 0.8928 0.8919
2709.000000 0.8910 0.8901 0.8891 0.8882 0.8869
2714.000000 0.8856 0.8841 0.8827 0.8812 0.8797
2719.000000 0.8782 0.8768 0.8751 0.8735 0.8716
2724.000000 0.8698 0.8679 0.8660 0.8641 0.8622
2729.000000 0.8611 0.8601 0.8591 0.8582 0.8592
2734.000000 0.8602 0.8614 0.8597 0.8640 0.8653
2739.000000 0.8666 0.8679 0.8692 0.8706 0.8719
2744.000000 0.8733 0.8746 0.8760 0.8772 0.8785
2749.000000 0.8795 0.8806 0.8816 0.8826 0.8836
2754.000000 0.8846 0.8850 0.8854 0.8858 0.8863
2759.000000 0.8867 0.8871 0.8875 0.8880 0.8884
2764.000000 0.8888 0.8891 0.8895 0.8898 0.8902
2769.000000 0.8905 0.8908 0.8911 0.8915 0.8918
2774.000000 0.8921 0.8924 0.8928 0.8931 0.8934
2779.000000 0.8936 0.8938 0.8937 0.8937 0.8936
2784.000000 0.8936 0.8936 0.8936 0.8935 0.8935
2789.000000 0.8934 0.8934 0.8933 0.8933 0.8933
2794.000000 0.8934 0.8935 0.8937 0.8938 0.8940
2799.000000 0.8941 0.8943 0.8944 0.8946 0.8948
2804.000000 0.8951 0.8956 0.8961 0.8965 0.8970
2809.000000 0.8975 0.8980 0.8985 0.8990 0.8994
2814.000000 0.9015 0.8999 0.9000 0.9000 0.9000
2819.000000 0.8999 0.8999 0.8999 0.8999 0.8998
2824.000000 0.8998 0.8995 0.8993 0.8989 0.8986
2829.000000 0.8983 0.8980 0.8977 0.8974 0.8970
2834.000000 0.8967 0.8964 0.8961 0.8957 0.8954
2839.000000 0.8951 0.8948 0.8945 0.8942 0.8937
2844.000000 0.8932 0.8924 0.8917 0.8909 0.8902
2849.000000 0.8894 0.8887 0.8879 0.8872 0.8864
2854.000000 0.8857 0.8849 0.8842 0.8834 0.8827
2859.000000 0.8820 0.8813 0.8808 0.8804 0.8799
2864.000000 0.8795 0.8790 0.8786 0.8781 0.8777
2869.000000 0.8772 0.8768 0.8763 0.8759 0.8754
2874.000000 0.8750 0.8745 0.8741 0.8738 0.8735
2879.000000 0.8735 0.8686 0.8739 0.8743 0.8748
2884.000000 0.8754 0.8759 0.8764 0.8769 0.8775
2889.000000 0.8780 0.8786 0.8792 0.8798 0.8804
2894.000000 0.8810 0.8816 0.8822 0.8828 0.8835
2899.000000 0.8841 0.8847 0.8853 0.8859 0.8864
2904.000000 0.8869 0.8872 0.8876 0.8879 0.8883
2909.000000 0.8886 0.8890 0.8886 0.8883 0.8877
2914.000000 0.8872 0.8867 0.8862 0.8858 0.8855
2919.000000 0.8852 0.8850 0.8848 0.8846 0.8844
2924.000000 0.8842 0.8839 0.8837 0.8835 0.8833
2929.000000 0.8833 0.8833 0.8837 0.8841 0.8845
2934.000000 0.8849 0.8853 0.8857 0.8861 0.8865
2939.000000 0.8869 0.8873 0.8877 0.8882 0.8886
2944.000000 0.8890 0.8894 0.8899 0.8903 0.8907
2949.000000 0.8911 0.8915 0.8919 0.8924 0.8927
2954.000000 0.8930 0.8932 0.8935 0.8938 0.8941
2959.000000 0.8943 0.8946 0.8948 0.8951 0.8954
2964.000000 0.8957 0.8958 0.8959 0.8959 0.8960
2969.000000 0.8960 0.8961 0.8961 0.8961 0.8961
2974.000000 0.8962 0.8962 0.8963 0.8962 0.8961
2979.000000 0.8958 0.8956 0.8953 0.8951 0.8948
2984.000000 0.8946 0.8944 0.8942 0.8939 0.8937
2989.000000 0.8934 0.8932 0.8930 0.8929 0.8928
2994.000000 0.8927 0.8926 0.8925 0.8924 0.8923
2999.000000 0.8921 0.8920 0.8919 0.8918 0.8917
3004.000000 0.8916 0.8915 0.8914 0.8914 0.8915
3009.000000 0.8916 0.8918 0.8919 0.8920 0.8921
3014.000000 0.8923 0.8924 0.8925 0.8926 0.8928
3019.000000 0.8929 0.8930 0.8930 0.8931 0.8931
3024.000000 0.8932 0.8933 0.8934 0.8934 0.8935
3029.000000 0.8936 0.8937 0.8937 0.8938 0.8939
3034.000000 0.8940 0.8940 0.8941 0.8941 0.8942
3039.000000 0.8942 0.8943 0.8943 0.8944 0.8945
3044.000000 0.8946 0.8946 0.8947 0.8947 0.8948
3049.000000 0.8948 0.8949 0.8949 0.8950 0.8951
3054.000000 0.8952 0.8952 0.8974 0.8953 0.8954
3059.000000 0.8954 0.8955 0.8955 0.8956 0.8956
3064.000000 0.8957 0.8956 0.8955 0.8954 0.8954
3069.000000 0.8953 0.8953 0.8952 0.8952 0.8951
3074.000000 0.8951 0.8951 0.8951 0.8951 0.8951
3079.000000 0.8951 0.8951 0.8950 0.8950 0.8950
3084.000000 0.8950 0.8950 0.8950 0.8950 0.8950
3089.000000 0.8950 0.8950 0.8950 0.8950 0.8949
3094.000000 0.8949 0.8951 0.8953 0.8955 0.8958
3099.000000 0.8960 0.8963 0.8965 0.8968 0.8970
3104.000000 0.8973 0.8975 0.8978 0.8980 0.8982
3109.000000 0.8984 0.8986 0.8988 0.8990 0.8992
3114.000000 0.8994 0.8996 0.8998 0.9000 0.9002
3119.000000 0.9004 0.9006 0.9008 0.9010 0.9012
3124.000000 0.9014 0.9016 0.9018 0.9021 0.9024
3129.000000 0.9027 0.9030 0.9033 0.9036 0.9039
3134.000000 0.9042 0.9045 0.9048 0.9051 0.9054
3139.000000 0.9057 0.9060 0.9061 0.9062 0.9062
3144.000000 0.9062 0.9062 0.9062 0.9062 0.9062
3149.000000 0.9062 0.9062 0.9062 0.9062 0.9060
3154.000000 0.9058 0.9056 0.9054 0.9051 0.9049
3159.000000 0.9047 0.9045 0.9043 0.9041 0.9039
3164.000000 0.9037 0.9035 0.9033 0.9031 0.9029
3169.000000 0.9025 0.9021 0.9017 0.9014 0.9010
3174.000000 0.9007 0.9003 0.9000 0.8996 0.8992
3179.000000 0.8990 0.8988 0.8987 0.8987 0.8986
3184.000000 0.8985 0.8984 0.8984 0.8983 0.8983
3189.000000 0.8982 0.8982 0.8981 0.8981 0.8980
3194.000000 0.8979 0.8983 0.8987 0.8993 0.9000
3199.000000 0.9006 0.9012 0.9018 0.9024 0.9030
3204.000000 0.9037 0.9043 0.9049 0.9055 0.9061
3209.000000 0.9065 0.9069 0.9073 0.9077 0.9081
3214.000000 0.9085 0.9089 0.9093 0.9097 0.9101
3219.000000 0.9104 0.9107 0.9108 0.9110 0.9111
3224.000000 0.9112 0.9113 0.9114 0.9115 0.9116
3229.000000 0.9117 0.9118 0.9119 0.9120 0.9121
3234.000000 0.9122 0.9119 0.9117 0.9115 0.9113
3239.000000 0.9110 0.9108 0.9105 0.9103 0.9100
3244.000000 0.9098 0.9096 0.9094 0.9091 0.9089
3249.000000 0.9087 0.9085 0.9083 0.9081 0.9079
3254.000000 0.9078 0.9076 0.9074 0.9072 0.9071
3259.000000 0.9069 0.9068 0.9066 0.9064 0.9062
3264.000000 0.9061 0.9060 0.9060 0.9062 0.9064
3269.000000 0.9066 0.9068 0.9070 0.9072 0.9073
3274.000000 0.9075 0.9077 0.9079 0.9081 0.9083
3279.000000 0.9085 0.9087 0.9087 0.9087 0.9086
3284.000000 0.9086 0.9085 0.9085 0.9084 0.9084
3289.000000 0.9083 0.9082 0.9081 0.9081 0.9080
3294.000000 0.9080 0.9079 0.9079 0.9078 0.9077
3299.000000 0.9076 0.9076 0.9075 0.9074 0.9073
3304.000000 0.9072 0.9071 0.9070 0.9069 0.9068
3309.000000 0.9067 0.9066 0.9065 0.9064 0.9063
3314.000000 0.9062 0.9061 0.9060 0.9063 0.9066
3319.000000 0.9068 0.9071 0.9074 0.9077 0.9079
3324.000000 0.9082 0.9085 0.9088 0.9090 0.9093
3329.000000 0.9096 0.9099 0.9103 0.9107 0.9111
3334.000000 0.9115 0.9119 0.9123 0.9127 0.9132
3339.000000 0.9136 0.9140 0.9144 0.9149 0.9153
3344.000000 0.9157 0.9160 0.9163 0.9165 0.9168
3349.000000 0.9170 0.9172 0.9174 0.9177 0.9179
3354.000000 0.9182 0.9184 0.9186 0.9188 0.9191
3359.000000 0.9193 0.9195 0.9197 0.9200 0.9202
3364.000000 0.9204 0.9205 0.9206 0.9206 0.9206
3369.000000 0.9204 0.9203 0.9201 0.9200 0.9199
3374.000000 0.9198 0.9196 0.9195 0.9194 0.9193
3379.000000 0.9191 0.9190 0.9188 0.9187 0.9186
3384.000000 0.9185 0.9183 0.9182 0.9180 0.9179
3389.000000 0.9177 0.9175 0.9172 0.9169 0.9166
3394.000000 0.9163 0.9160 0.9157 0.9154 0.9151
3399.000000 0.9148 0.9145 0.9142 0.9139 0.9136
3404.000000 0.9133 0.9130 0.9127 0.9120 0.9113
3409.000000 0.9105 0.9098 0.9090 0.9083 0.9076
3414.000000 0.9069 0.9061 0.9054 0.9046 0.9039
3419.000000 0.9030 0.9022 0.9006 0.8991 0.8975
3424.000000 0.8960 0.8944 0.8929 0.8913 0.8898
3429.000000 0.8882 0.8867 0.8851 0.8836 0.8817
3434.000000 0.8799 0.8781 0.8763 0.8744 0.8726
3439.000000 0.8708 0.8690 0.8672 0.8655 0.8638
3444.000000 0.8621 0.8604 0.8588 0.8571 0.8554
3449.000000 0.8538 0.8523 0.8512 0.8502 0.8491
3454.000000 0.8480 0.8478 0.8476 0.8475 0.8474
3459.000000 0.8473 0.8472 0.8472 0.8461 0.8478
3464.000000 0.8484 0.8489 0.8494 0.8503 0.8513
3469.000000 0.8527 0.8542 0.8560 0.8578 0.8602
3474.000000 0.8626 0.8650 0.8675 0.8692 0.8710
3479.000000 0.8726 0.8743 0.8760 0.8777 0.8794
3484.000000 0.8811 0.8827 0.8844 0.8861 0.8878
3489.000000 0.8894 0.8911 0.8927 0.8944 0.8961
3494.000000 0.8979 0.8996 0.9014 0.9023 0.9033
3499.000000 0.9034 0.9036 0.9037 0.9039 0.9041
3504.000000 0.9043 0.9044 0.9046 0.9047 0.9049
3509.000000 0.9049 0.9049 0.9048 0.9048 0.9047
3514.000000 0.9047 0.9046 0.9046 0.9045 0.9045
3519.000000 0.9044 0.9044 0.9043 0.9043 0.9042
3524.000000 0.9041 0.9040 0.9039 0.9038 0.9038
3529.000000 0.9037 0.9036 0.9035 0.9034 0.9033
3534.000000 0.9032 0.9031 0.9031 0.9030 0.9029
3539.000000 0.9028 0.9028 0.9027 0.9027 0.9027
3544.000000 0.9027 0.9026 0.9026 0.9026 0.9026
3549.000000 0.9025 0.9025 0.9025 0.9025 0.9025
3554.000000 0.9025 0.9024 0.9024 0.9024 0.9024
3559.000000 0.9023 0.9023 0.9024 0.9025 0.9026
3564.000000 0.9028 0.9030 0.9032 0.9033 0.9035
3569.000000 0.9037 0.9039 0.9040 0.9042 0.9044
3574.000000 0.9046 0.9047 0.9049 0.9051 0.9053
3579.000000 0.9054 0.9056 0.9058 0.9060 0.9062
3584.000000 0.9064 0.9069 0.9074 0.9078 0.9083
3589.000000 0.9087 0.9092 0.9097 0.9116 0.9106
3594.000000 0.9111 0.9116 0.9121 0.9125 0.9130
3599.000000 0.9135 0.9140 0.9141 0.9143 0.9144
3604.000000 0.9146 0.9147 0.9149 0.9150 0.9152
3609.000000 0.9153 0.9154 0.9154 0.9155 0.9153
3614.000000 0.9152 0.9150 0.9148 0.9146 0.9144
3619.000000 0.9142 0.9141 0.9139 0.9137 0.9135
3624.000000 0.9134 0.9132 0.9130 0.9128 0.9127
3629.000000 0.9125 0.9123 0.9121 0.9120 0.9118
3634.000000 0.9117 0.9115 0.9114 0.9112 0.9111
3639.000000 0.9109 0.9107 0.9105 0.9104 0.9102
3644.000000 0.9101 0.9099 0.9098 0.9096 0.9095
3649.000000 0.9093 0.9092 0.9090 0.9089 0.9087
3654.000000 0.9085 0.9083 0.9081 0.9079 0.9077
3659.000000 0.9075 0.9073 0.9071 0.9069 0.9067
3664.000000 0.9065 0.9063 0.9061 0.9059 0.9057
3669.000000 0.9055 0.9053 0.9050 0.9048 0.9045
3674.000000 0.9043 0.9040 0.9038 0.9036 0.9034
3679.000000 0.9031 0.9029 0.9026 0.9024 0.9022
3684.000000 0.9020 0.9020 0.9020 0.9024 0.9028
3689.000000 0.9032 0.9037 0.9041 0.9046 0.9053
3694.000000 0.9061 0.9069 0.9077 0.9083 0.9090
3699.000000 0.9094 0.9099 0.9104 0.9109 0.9113
3704.000000 0.9118 0.9122 0.9127 0.9131 0.9136
3709.000000 0.9140 0.9145 0.9146 0.9148 0.9148
3714.000000 0.9148 0.9148 0.9148 0.9148 0.9148
3719.000000 0.9148 0.9149 0.9149 0.9149 0.9149
3724.000000 0.9149 0.9149 0.9149 0.9148 0.9148
3729.000000 0.9146 0.9145 0.9144 0.9143 0.9142
3734.000000 0.9141 0.9140 0.9139 0.9137 0.9136
3739.000000 0.9135 0.9134 0.9133 0.9132 0.9131
3744.000000 0.9130 0.9130 0.9131 0.9131 0.9132
3749.000000 0.9132 0.9133 0.9133 0.9134 0.9134
3754.000000 0.9134 0.9134 0.9135 0.9135 0.9136
3759.000000 0.9136 0.9137 0.9137 0.9138 0.9138
3764.000000 0.9139 0.9139 0.9140 0.9141 0.9142
3769.000000 0.9143 0.9144 0.9144 0.9145 0.9146
3774.000000 0.9147 0.9147 0.9148 0.9149 0.9150
3779.000000 0.9150 0.9151 0.9152 0.9153 0.9153
3784.000000 0.9154 0.9155 0.9156 0.9156 0.9157
3789.000000 0.9158 0.9159 0.9159 0.9160 0.9161
3794.000000 0.9162 0.9162 0.9162
##END=
