##TITLE=1,1'-BIS-[3-(X,X-DICHLOROPHENYL)-1,1,3,3 TETRAMETHYL DISILOXANYL] FERROCENE
##JCAMP-DX=4.24
##DATA TYPE=INFRARED SPECTRUM
##CLASS=COBLENTZ
##ORIGIN=WYANDOTTE CHEMICALS CORP., WYANDOTTE, MICHIGAN, USA
##OWNER=COBLENTZ SOCIETY
Collection (C) 2018 copyright by the U.S. Secretary of Commerce
on behalf of the United States of America. All rights reserved.
##DATE=Not specified, most likely prior to 1970
##MOLFORM=C30 H38 Cl4 Fe O2 Si4
##SOURCE REFERENCE=COBLENTZ NO. 2802
##$NIST ID=B6002802
##$NIST SOURCE=COBLENTZ
##$NIST IMAGE=cob2802
##SPECTROMETER/DATA SYSTEM=Not specified, most likely a prism, grating, or hybrid spectrometer.
##STATE=LIQUID
##PATH LENGTH=CAPILLARY
##SAMPLING PROCEDURE=TRANSMISSION
##RESOLUTION=4
##DATA PROCESSING=DIGITIZED BY NIST FROM HARD COPY
##XUNITS=MICROMETERS
##YUNITS=TRANSMITTANCE
##XFACTOR=1.000000
##YFACTOR=1
##DELTAX=000.006619
##FIRSTX=2.046
##LASTX=16
##FIRSTY=0.928
##MAXX=16
##MINX=2.046
##MAXY=0.955
##MINY=0.031
##NPOINTS=2109
##XYDATA=(X++(Y..Y))
2.046000 0.9280 0.9280 0.9280 0.9270 0.9250
2.079113 0.9250 0.9230 0.9230 0.9230 0.9270
2.113000 0.9320 0.9350 0.9350 0.9350 0.9330
2.146113 0.9320 0.9280 0.9250 0.9230 0.9220
2.179000 0.9200 0.9180 0.9180 0.9170 0.9170
2.212113 0.9150 0.9150 0.9150 0.9130 0.9120
2.245000 0.9120 0.9120 0.9130 0.9130 0.9150
2.278113 0.9150 0.9150 0.9130 0.9130 0.9120
2.311000 0.9100 0.9100 0.9080 0.9080 0.9080
2.344113 0.9080 0.9100 0.9100 0.9100 0.9120
2.377000 0.9120 0.9130 0.9150 0.9180 0.9180
2.410113 0.9200 0.9200 0.9220 0.9220 0.9220
2.443000 0.9220 0.9200 0.9180 0.9170 0.9120
2.476113 0.9070 0.9070 0.9030 0.9020 0.8970
2.510000 0.8930 0.8930 0.8930 0.8970 0.9020
2.543113 0.9070 0.9100 0.9150 0.9220 0.9270
2.576000 0.9330 0.9350 0.9360 0.9330 0.9270
2.609113 0.9170 0.9070 0.9000 0.8980 0.9000
2.642000 0.9050 0.9080 0.9080 0.9070 0.9070
2.675113 0.9030 0.8980 0.8950 0.8930 0.8930
2.708000 0.8930 0.8970 0.9050 0.9050 0.9080
2.741113 0.9100 0.9100 0.9100 0.9100 0.9100
2.774000 0.9120 0.9120 0.9120 0.9120 0.9120
2.807113 0.9130 0.9150 0.9180 0.9230 0.9230
2.841000 0.9250 0.9250 0.9270 0.9270 0.9270
2.874113 0.9270 0.9270 0.9250 0.9250 0.9230
2.907000 0.9220 0.9200 0.9200 0.9180 0.9180
2.940113 0.9150 0.9120 0.9120 0.9100 0.9100
2.973000 0.9100 0.9100 0.9080 0.9080 0.9070
3.006113 0.9050 0.9020 0.9000 0.8970 0.8930
3.039000 0.8920 0.8880 0.8830 0.8820 0.8820
3.072113 0.8820 0.8820 0.8830 0.8830 0.8870
3.105000 0.8870 0.8870 0.8850 0.8770 0.8730
3.138113 0.8730 0.8730 0.8700 0.8680 0.8650
3.172000 0.8600 0.8570 0.8540 0.8490 0.8370
3.205113 0.8290 0.8220 0.8070 0.7790 0.7280
3.238000 0.6080 0.5580 0.5570 0.5580 0.5730
3.271113 0.5900 0.6060 0.6260 0.7240 0.7540
3.304000 0.7920 0.7940 0.7940 0.7920 0.7180
3.337113 0.6460 0.5700 0.5300 0.4900 0.4110
3.370000 0.3310 0.2520 0.2500 0.2520 0.3280
3.403113 0.4070 0.4870 0.6410 0.6600 0.6630
3.436000 0.6600 0.5920 0.5830 0.5820 0.5830
3.469113 0.6350 0.6860 0.7260 0.7560 0.7770
3.503000 0.7920 0.8020 0.8090 0.8120 0.8170
3.536113 0.8220 0.8290 0.8400 0.8440 0.8450
3.569000 0.8450 0.8450 0.8450 0.8450 0.8390
3.602113 0.8390 0.8400 0.8570 0.8680 0.8800
3.635000 0.8880 0.8970 0.9030 0.9080 0.9120
3.668113 0.9130 0.9150 0.9150 0.9150 0.9150
3.701000 0.9170 0.9180 0.9180 0.9200 0.9220
3.734113 0.9230 0.9230 0.9250 0.9250 0.9270
3.767000 0.9270 0.9270 0.9270 0.9270 0.9270
3.800113 0.9280 0.9300 0.9300 0.9330 0.9360
3.834000 0.9400 0.9410 0.9400 0.9400 0.9360
3.867113 0.9220 0.9200 0.9200 0.9200 0.9250
3.900000 0.9320 0.9360 0.9360 0.9380 0.9400
3.933113 0.9430 0.9480 0.9500 0.9500 0.9500
3.966000 0.9500 0.9500 0.9480 0.9460 0.9450
3.999113 0.9430 0.9410 0.9400 0.9380 0.9360
4.032000 0.9330 0.9300 0.9280 0.9270 0.9230
4.065113 0.9200 0.9180 0.9170 0.9180 0.9220
4.098000 0.9280 0.9320 0.9350 0.9350 0.9380
4.131113 0.9380 0.9380 0.9380 0.9380 0.9380
4.165000 0.9380 0.9380 0.9380 0.9380 0.9380
4.198113 0.9380 0.9380 0.9380 0.9380 0.9380
4.231000 0.9380 0.9360 0.9360 0.9330 0.9330
4.264113 0.9320 0.9320 0.9350 0.9350 0.9410
4.297000 0.9450 0.9480 0.9480 0.9480 0.9480
4.330113 0.9480 0.9460 0.9460 0.9480 0.9480
4.363000 0.9510 0.9530 0.9550 0.9550 0.9550
4.396113 0.9550 0.9530 0.9530 0.9510 0.9500
4.429000 0.9480 0.9460 0.9460 0.9450 0.9430
4.462113 0.9410 0.9410 0.9400 0.9400 0.9380
4.496000 0.9360 0.9360 0.9360 0.9380 0.9400
4.529113 0.9400 0.9400 0.9400 0.9400 0.9400
4.562000 0.9400 0.9380 0.9380 0.9380 0.9380
4.595113 0.9360 0.9360 0.9360 0.9350 0.9350
4.628000 0.9350 0.9350 0.9360 0.9380 0.9400
4.661113 0.9430 0.9460 0.9460 0.9460 0.9500
4.694000 0.9500 0.9510 0.9510 0.9510 0.9510
4.727113 0.9510 0.9510 0.9510 0.9500 0.9480
4.760000 0.9480 0.9480 0.9480 0.9480 0.9460
4.793113 0.9450 0.9450 0.9430 0.9410 0.9410
4.826000 0.9400 0.9400 0.9360 0.9350 0.9300
4.859113 0.9280 0.9270 0.9270 0.9250 0.9250
4.893000 0.9250 0.9250 0.9230 0.9220 0.9220
4.926113 0.9220 0.9200 0.9200 0.9200 0.9200
4.959000 0.9220 0.9220 0.9220 0.9230 0.9230
4.992113 0.9250 0.9270 0.9300 0.9360 0.9400
5.025000 0.9410 0.9430 0.9450 0.9460 0.9460
5.058113 0.9460 0.9460 0.9460 0.9460 0.9460
5.091000 0.9460 0.9460 0.9450 0.9450 0.9410
5.124113 0.9380 0.9360 0.9360 0.9350 0.9330
5.157000 0.9320 0.9280 0.9170 0.9050 0.9020
5.190113 0.8930 0.8850 0.8780 0.8730 0.8720
5.224000 0.8700 0.8720 0.8770 0.8820 0.8870
5.257113 0.8870 0.8900 0.8920 0.8900 0.8850
5.290000 0.8820 0.8780 0.8770 0.8730 0.8730
5.323113 0.8670 0.8620 0.8600 0.8590 0.8570
5.356000 0.8570 0.8590 0.8720 0.8850 0.9020
5.389113 0.9120 0.9180 0.9230 0.9270 0.9300
5.422000 0.9320 0.9330 0.9330 0.9350 0.9350
5.455113 0.9350 0.9350 0.9330 0.9320 0.9300
5.488000 0.9270 0.9250 0.9220 0.9200 0.9200
5.521113 0.9170 0.9150 0.9130 0.9120 0.9100
5.555000 0.9050 0.9030 0.9000 0.9000 0.8980
5.588113 0.8980 0.8950 0.8920 0.8850 0.8780
5.621000 0.8750 0.8680 0.8670 0.8570 0.8500
5.654113 0.8440 0.8400 0.8390 0.8370 0.8370
5.687000 0.8340 0.8320 0.8220 0.8140 0.8100
5.720113 0.8040 0.8020 0.8020 0.8040 0.8100
5.753000 0.8120 0.8140 0.8170 0.8240 0.8320
5.786113 0.8320 0.8250 0.8200 0.8140 0.8090
5.819000 0.8090 0.8100 0.8320 0.8340 0.8300
5.852113 0.8100 0.8000 0.7960 0.7940 0.7920
5.886000 0.7910 0.7910 0.7890 0.7890 0.7890
5.919113 0.7890 0.7910 0.7910 0.7910 0.7920
5.952000 0.7920 0.7940 0.7940 0.7940 0.7940
5.985113 0.7940 0.7940 0.7920 0.7910 0.7890
6.018000 0.7840 0.7790 0.7710 0.7660 0.7590
6.051113 0.7490 0.7410 0.7310 0.7240 0.7180
6.084000 0.7130 0.7110 0.7090 0.7080 0.7060
6.117113 0.7060 0.7080 0.7090 0.7140 0.7230
6.150000 0.7260 0.7310 0.7340 0.7370 0.7410
6.183113 0.7420 0.7460 0.7470 0.7470 0.7490
6.217000 0.7520 0.7560 0.7620 0.7660 0.7690
6.250113 0.7690 0.7710 0.7720 0.7760 0.7760
6.283000 0.7740 0.7520 0.7340 0.7210 0.7080
6.316113 0.6600 0.6580 0.6600 0.6810 0.7060
6.349000 0.7190 0.7340 0.7410 0.7540 0.7560
6.382113 0.7540 0.7360 0.7030 0.6680 0.6180
6.415000 0.6100 0.6080 0.6080 0.6100 0.6400
6.448113 0.6660 0.6930 0.7210 0.7540 0.7940
6.481000 0.8050 0.8120 0.8200 0.8270 0.8290
6.514113 0.8300 0.8300 0.8320 0.8320 0.8320
6.548000 0.8320 0.8320 0.8320 0.8320 0.8320
6.581113 0.8320 0.8300 0.8300 0.8290 0.8290
6.614000 0.8270 0.8250 0.8240 0.8220 0.8190
6.647113 0.8170 0.8120 0.8050 0.8000 0.7990
6.680000 0.7960 0.7860 0.7790 0.7690 0.7590
6.713113 0.7490 0.7370 0.7330 0.7280 0.7210
6.746000 0.7190 0.7160 0.7130 0.7090 0.7040
6.779113 0.6930 0.6790 0.6710 0.6630 0.6580
6.812000 0.6550 0.6510 0.6480 0.6350 0.5670
6.845113 0.5240 0.4800 0.3960 0.3340 0.2680
6.878000 0.2020 0.2000 0.2020 0.2180 0.2370
6.911113 0.2530 0.2700 0.2800 0.2910 0.3050
6.945000 0.3180 0.3330 0.3380 0.3380 0.3310
6.978113 0.3180 0.3080 0.2760 0.2660 0.2570
7.011000 0.2550 0.2580 0.2760 0.2880 0.3050
7.044113 0.3340 0.3380 0.3340 0.3300 0.3210
7.077000 0.3160 0.3150 0.3160 0.3330 0.3460
7.110113 0.3590 0.3710 0.3840 0.3960 0.4060
7.143000 0.4090 0.4310 0.4460 0.4820 0.4890
7.176113 0.4890 0.4890 0.4560 0.4140 0.3490
7.209000 0.2800 0.1600 0.1590 0.1600 0.2400
7.242113 0.2910 0.3490 0.3940 0.4290 0.4920
7.276000 0.4990 0.4990 0.4990 0.4820 0.3910
7.309113 0.3410 0.3060 0.2270 0.1790 0.1770
7.342000 0.1790 0.2120 0.2520 0.2960 0.3440
7.375113 0.3960 0.4470 0.4970 0.5800 0.6110
7.408000 0.6250 0.6380 0.6530 0.6660 0.6810
7.441113 0.6960 0.7090 0.7240 0.7370 0.7510
7.474000 0.7540 0.7620 0.7660 0.7690 0.7720
7.507113 0.7720 0.7740 0.7760 0.7770 0.7810
7.540000 0.7820 0.7820 0.7820 0.7820 0.7810
7.573113 0.7790 0.7790 0.7770 0.7760 0.7740
7.607000 0.7690 0.7620 0.7570 0.7540 0.7490
7.640113 0.7420 0.7340 0.7190 0.6990 0.6690
7.673000 0.6530 0.6450 0.6430 0.6450 0.6500
7.706113 0.6580 0.6810 0.6910 0.6930 0.6940
7.739000 0.6980 0.6980 0.6980 0.6930 0.6880
7.772113 0.6810 0.6740 0.6680 0.6600 0.6500
7.805000 0.6360 0.6230 0.6080 0.5880 0.5670
7.838113 0.5430 0.5150 0.4990 0.4820 0.4470
7.871000 0.4070 0.3630 0.3130 0.2580 0.1970
7.904113 0.1310 0.0990 0.0740 0.0580 0.0440
7.938000 0.0390 0.0360 0.0340 0.0330 0.0330
7.971113 0.0330 0.0340 0.0390 0.0480 0.0590
8.004000 0.0770 0.0990 0.1140 0.1340 0.1600
8.037113 0.1900 0.2230 0.2600 0.2980 0.3380
8.070000 0.3760 0.4140 0.4510 0.4840 0.5380
8.103113 0.5600 0.5820 0.5980 0.6130 0.6230
8.136000 0.6310 0.6360 0.6410 0.6460 0.6550
8.169113 0.6650 0.6690 0.6710 0.6730 0.6740
8.202000 0.6760 0.6760 0.6760 0.6780 0.6780
8.235113 0.6780 0.6780 0.6780 0.6780 0.6760
8.269000 0.6740 0.6730 0.6690 0.6680 0.6650
8.302113 0.6560 0.6510 0.6380 0.6360 0.6380
8.335000 0.6410 0.6500 0.6560 0.6580 0.6600
8.368113 0.6600 0.6600 0.6600 0.6450 0.6030
8.401000 0.5750 0.5550 0.5300 0.5120 0.4920
8.434113 0.4270 0.3980 0.3660 0.3380 0.3230
8.467000 0.3210 0.3210 0.3250 0.3360 0.3440
8.500113 0.3440 0.2710 0.2470 0.2220 0.1970
8.533000 0.1570 0.1160 0.0770 0.0560 0.0540
8.566113 0.0560 0.0760 0.0920 0.1160 0.1470
8.600000 0.1820 0.2180 0.2500 0.2730 0.2800
8.633113 0.2800 0.2800 0.2750 0.2620 0.2580
8.666000 0.2550 0.2550 0.2570 0.2710 0.2750
8.699113 0.2750 0.2630 0.2480 0.2150 0.1800
8.732000 0.1550 0.1350 0.1140 0.1010 0.0910
8.765113 0.0770 0.0760 0.0770 0.1140 0.1500
8.798000 0.1890 0.2180 0.2480 0.2750 0.3050
8.831113 0.3380 0.3560 0.3580 0.3580 0.3580
8.864000 0.3580 0.3580 0.3530 0.3510 0.3460
8.897113 0.3380 0.3310 0.3230 0.3160 0.3080
8.930000 0.3010 0.2950 0.2860 0.2800 0.2710
8.963113 0.2550 0.2370 0.2280 0.2030 0.1820
8.997000 0.1590 0.1370 0.1170 0.1060 0.1010
9.030113 0.0960 0.0860 0.0810 0.0710 0.0610
9.063000 0.0530 0.0490 0.0480 0.0460 0.0440
9.096113 0.0440 0.0440 0.0440 0.0440 0.0440
9.129000 0.0440 0.0440 0.0440 0.0430 0.0430
9.162113 0.0430 0.0430 0.0430 0.0410 0.0410
9.195000 0.0410 0.0410 0.0390 0.0390 0.0390
9.228113 0.0390 0.0390 0.0390 0.0390 0.0390
9.261000 0.0380 0.0380 0.0380 0.0380 0.0380
9.294113 0.0380 0.0360 0.0360 0.0360 0.0360
9.328000 0.0360 0.0340 0.0340 0.0340 0.0340
9.361113 0.0340 0.0340 0.0340 0.0340 0.0340
9.394000 0.0340 0.0340 0.0340 0.0340 0.0340
9.427113 0.0340 0.0340 0.0340 0.0340 0.0340
9.460000 0.0340 0.0340 0.0330 0.0330 0.0330
9.493113 0.0330 0.0330 0.0330 0.0330 0.0330
9.526000 0.0310 0.0310 0.0310 0.0310 0.0310
9.559113 0.0310 0.0310 0.0310 0.0310 0.0310
9.592000 0.0310 0.0310 0.0310 0.0310 0.0310
9.625113 0.0310 0.0310 0.0310 0.0330 0.0330
9.659000 0.0330 0.0330 0.0330 0.0330 0.0330
9.692113 0.0330 0.0340 0.0340 0.0360 0.0360
9.725000 0.0380 0.0380 0.0380 0.0390 0.0380
9.758113 0.0410 0.0430 0.0440 0.0430 0.0440
9.791000 0.0480 0.0490 0.0530 0.0540 0.0580
9.824113 0.0590 0.0660 0.0720 0.0840 0.0910
9.857000 0.0960 0.1010 0.1040 0.1090 0.1170
9.890113 0.1290 0.1440 0.1470 0.1540 0.1640
9.923000 0.1750 0.1890 0.2000 0.2120 0.2180
9.956113 0.2270 0.2350 0.2450 0.2550 0.2650
9.990000 0.2760 0.2880 0.3010 0.3130 0.3260
10.023113 0.3380 0.3490 0.3610 0.3730 0.3830
10.056000 0.3910 0.3990 0.4070 0.4160 0.4240
10.089113 0.4340 0.4440 0.4540 0.4620 0.4700
10.122000 0.4790 0.4850 0.4920 0.4990 0.5140
10.155113 0.5220 0.5300 0.5350 0.5400 0.5430
10.188000 0.5480 0.5530 0.5600 0.5650 0.5700
10.221113 0.5730 0.5780 0.5780 0.5820 0.5870
10.254000 0.5950 0.6010 0.6050 0.6060 0.6100
10.287113 0.6100 0.6110 0.6130 0.6200 0.6280
10.321000 0.6300 0.6330 0.6360 0.6360 0.6400
10.354113 0.6450 0.6460 0.6480 0.6480 0.6500
10.387000 0.6530 0.6560 0.6600 0.6610 0.6650
10.420113 0.6660 0.6680 0.6680 0.6690 0.6690
10.453000 0.6710 0.6710 0.6730 0.6740 0.6740
10.486113 0.6740 0.6760 0.6760 0.6760 0.6760
10.519000 0.6760 0.6760 0.6760 0.6760 0.6760
10.552113 0.6760 0.6760 0.6740 0.6740 0.6740
10.585000 0.6730 0.6730 0.6730 0.6730 0.6730
10.618113 0.6740 0.6740 0.6760 0.6760 0.6780
10.652000 0.6790 0.6830 0.6910 0.6940 0.6960
10.685113 0.6960 0.6980 0.6980 0.6990 0.7010
10.718000 0.7010 0.7030 0.7030 0.7030 0.7030
10.751113 0.7030 0.7030 0.7030 0.7010 0.7010
10.784000 0.6990 0.6990 0.6980 0.6960 0.6940
10.817113 0.6930 0.6910 0.6880 0.6860 0.6830
10.850000 0.6790 0.6780 0.6760 0.6740 0.6730
10.883113 0.6650 0.6610 0.6600 0.6580 0.6560
10.916000 0.6510 0.6500 0.6410 0.6380 0.6310
10.949113 0.6260 0.6200 0.6130 0.6050 0.5970
10.983000 0.5880 0.5780 0.5670 0.5550 0.5420
11.016113 0.5290 0.5120 0.5040 0.4950 0.4770
11.049000 0.4590 0.4370 0.4140 0.3890 0.3630
11.082113 0.3460 0.3330 0.3210 0.3110 0.3000
11.115000 0.2900 0.2760 0.2700 0.2630 0.2550
11.148113 0.2520 0.2480 0.2450 0.2430 0.2450
11.181000 0.2500 0.2580 0.2630 0.2750 0.2930
11.214113 0.3110 0.3330 0.3510 0.3640 0.3740
11.247000 0.3840 0.3930 0.4010 0.4110 0.4190
11.280113 0.4270 0.4340 0.4360 0.4410 0.4490
11.313000 0.4560 0.4640 0.4670 0.4720 0.4770
11.346113 0.4800 0.4840 0.4850 0.4870 0.4870
11.380000 0.4870 0.4870 0.4850 0.4800 0.4750
11.413113 0.4690 0.4640 0.4570 0.4490 0.4420
11.446000 0.4360 0.4270 0.4210 0.4120 0.4020
11.479113 0.3890 0.3740 0.3630 0.3490 0.3340
11.512000 0.3160 0.3000 0.2880 0.2730 0.2580
11.545113 0.2430 0.2330 0.2270 0.2180 0.2120
11.578000 0.2100 0.2100 0.2120 0.2120 0.2130
11.611113 0.2130 0.2130 0.2120 0.2100 0.2100
11.644000 0.2080 0.2070 0.2030 0.2030 0.2020
11.677113 0.1970 0.1890 0.1750 0.1740 0.1720
11.711000 0.1690 0.1650 0.1570 0.1520 0.1500
11.744113 0.1450 0.1390 0.1340 0.1310 0.1270
11.777000 0.1240 0.1190 0.1120 0.1070 0.1020
11.810113 0.0960 0.0910 0.0840 0.0770 0.0720
11.843000 0.0670 0.0640 0.0610 0.0580 0.0540
11.876113 0.0490 0.0480 0.0480 0.0460 0.0460
11.909000 0.0440 0.0440 0.0430 0.0430 0.0430
11.942113 0.0430 0.0430 0.0430 0.0440 0.0440
11.975000 0.0440 0.0440 0.0440 0.0440 0.0460
12.008113 0.0460 0.0490 0.0490 0.0530 0.0540
12.042000 0.0540 0.0540 0.0560 0.0580 0.0610
12.075113 0.0610 0.0630 0.0630 0.0630 0.0630
12.108000 0.0630 0.0610 0.0590 0.0580 0.0580
12.141113 0.0560 0.0540 0.0530 0.0530 0.0510
12.174000 0.0510 0.0510 0.0490 0.0490 0.0480
12.207113 0.0460 0.0460 0.0440 0.0430 0.0430
12.240000 0.0410 0.0390 0.0390 0.0390 0.0390
12.273113 0.0390 0.0390 0.0390 0.0390 0.0410
12.306000 0.0410 0.0430 0.0430 0.0430 0.0440
12.339113 0.0440 0.0460 0.0480 0.0480 0.0490
12.373000 0.0490 0.0510 0.0530 0.0530 0.0540
12.406113 0.0540 0.0540 0.0540 0.0540 0.0530
12.439000 0.0530 0.0510 0.0490 0.0460 0.0460
12.472113 0.0440 0.0440 0.0430 0.0410 0.0410
12.505000 0.0390 0.0390 0.0390 0.0380 0.0380
12.538113 0.0360 0.0360 0.0340 0.0340 0.0340
12.571000 0.0340 0.0340 0.0340 0.0330 0.0330
12.604113 0.0330 0.0330 0.0330 0.0330 0.0310
12.637000 0.0310 0.0310 0.0310 0.0310 0.0310
12.670113 0.0310 0.0310 0.0310 0.0330 0.0330
12.704000 0.0330 0.0330 0.0330 0.0340 0.0340
12.737113 0.0340 0.0340 0.0340 0.0360 0.0360
12.770000 0.0360 0.0360 0.0360 0.0380 0.0380
12.803113 0.0380 0.0380 0.0380 0.0380 0.0390
12.836000 0.0390 0.0410 0.0430 0.0440 0.0440
12.869113 0.0460 0.0460 0.0480 0.0480 0.0490
12.902000 0.0510 0.0530 0.0530 0.0580 0.0630
12.935113 0.0720 0.0860 0.0920 0.0960 0.0990
12.968000 0.1070 0.1210 0.1340 0.1450 0.1550
13.001113 0.1640 0.1720 0.1800 0.1870 0.1940
13.035000 0.2000 0.2050 0.2080 0.2100 0.2130
13.068113 0.2130 0.2150 0.2150 0.2170 0.2170
13.101000 0.2170 0.2170 0.2170 0.2170 0.2170
13.134113 0.2170 0.2170 0.2180 0.2250 0.2350
13.167000 0.2430 0.2530 0.2600 0.2660 0.2750
13.200113 0.2830 0.2910 0.3030 0.3150 0.3260
13.233000 0.3430 0.3530 0.3610 0.3680 0.3780
13.266113 0.3930 0.4020 0.4090 0.4140 0.4210
13.299000 0.4290 0.4370 0.4460 0.4510 0.4520
13.332113 0.4540 0.4610 0.4640 0.4690 0.4700
13.365000 0.4740 0.4790 0.4800 0.4800 0.4820
13.398113 0.4840 0.4850 0.4890 0.4900 0.4920
13.432000 0.4920 0.4920 0.4940 0.4940 0.4950
13.465113 0.4950 0.4970 0.4990 0.4990 0.5000
13.498000 0.5020 0.5040 0.5040 0.5040 0.5050
13.531113 0.5050 0.5050 0.5050 0.5050 0.5050
13.564000 0.5050 0.5050 0.5040 0.5020 0.5000
13.597113 0.5000 0.4990 0.4950 0.4900 0.4840
13.630000 0.4770 0.4660 0.4560 0.4460 0.4370
13.663113 0.4310 0.4220 0.4160 0.4090 0.4010
13.696000 0.3980 0.3960 0.3940 0.3960 0.4020
13.729113 0.4090 0.4190 0.4360 0.4470 0.4590
13.763000 0.4700 0.4840 0.4950 0.5190 0.5290
13.796113 0.5400 0.5480 0.5580 0.5670 0.5730
13.829000 0.5770 0.5830 0.5900 0.5970 0.6000
13.862113 0.6010 0.6050 0.6060 0.6080 0.6080
13.895000 0.6100 0.6100 0.6110 0.6110 0.6110
13.928113 0.6110 0.6110 0.6110 0.6100 0.6100
13.961000 0.6080 0.6080 0.6030 0.6010 0.5980
13.994113 0.5970 0.5930 0.5880 0.5850 0.5780
14.027000 0.5680 0.5600 0.5520 0.5430 0.5330
14.060113 0.5250 0.5150 0.5070 0.5020 0.4970
14.094000 0.4890 0.4800 0.4720 0.4640 0.4560
14.127113 0.4470 0.4390 0.4340 0.4340 0.4290
14.160000 0.4220 0.4190 0.4120 0.4120 0.4110
14.193113 0.4110 0.4110 0.4090 0.4090 0.4070
14.226000 0.4070 0.4070 0.4060 0.4040 0.4040
14.259113 0.4020 0.4010 0.3980 0.3960 0.3940
14.292000 0.3910 0.3890 0.3860 0.3810 0.3760
14.325113 0.3730 0.3690 0.3640 0.3560 0.3510
14.358000 0.3490 0.3460 0.3430 0.3410 0.3380
14.391113 0.3360 0.3340 0.3310 0.3280 0.3230
14.425000 0.3210 0.3210 0.3210 0.3210 0.3210
14.458113 0.3210 0.3230 0.3230 0.3250 0.3250
14.491000 0.3260 0.3260 0.3260 0.3280 0.3310
14.524113 0.3330 0.3360 0.3360 0.3380 0.3410
14.557000 0.3480 0.3510 0.3530 0.3560 0.3590
14.590113 0.3660 0.3730 0.3740 0.3760 0.3760
14.623000 0.3760 0.3780 0.3790 0.3910 0.4020
14.656113 0.4020 0.4090 0.4120 0.4140 0.4170
14.689000 0.4240 0.4310 0.4370 0.4460 0.4520
14.722113 0.4570 0.4590 0.4660 0.4690 0.4700
14.756000 0.4720 0.4740 0.4770 0.4800 0.4820
14.789113 0.4820 0.4820 0.4820 0.4820 0.4820
14.822000 0.4820 0.4800 0.4790 0.4740 0.4660
14.855113 0.4610 0.4560 0.4490 0.4460 0.4360
14.888000 0.4310 0.4270 0.4240 0.4210 0.4160
14.921113 0.4140 0.4120 0.4120 0.4140 0.4170
14.954000 0.4190 0.4210 0.4240 0.4290 0.4340
14.987113 0.4410 0.4470 0.4540 0.4620 0.4690
15.020000 0.4740 0.4770 0.4790 0.4820 0.4870
15.053113 0.4900 0.4900 0.4940 0.4950 0.4950
15.087000 0.4970 0.4970 0.4970 0.4970 0.4970
15.120113 0.4970 0.4950 0.4940 0.4900 0.4850
15.153000 0.4820 0.4800 0.4770 0.4750 0.4740
15.186113 0.4740 0.4720 0.4720 0.4720 0.4720
15.219000 0.4740 0.4740 0.4750 0.4750 0.4750
15.252113 0.4770 0.4770 0.4770 0.4770 0.4770
15.285000 0.4770 0.4770 0.4770 0.4790 0.4790
15.318113 0.4790 0.4820 0.4850 0.4870 0.4920
15.351000 0.4970 0.5050 0.5120 0.5190 0.5250
15.384113 0.5330 0.5430 0.5550 0.5670 0.5800
15.417000 0.5920 0.6030 0.6110 0.6180 0.6280
15.450113 0.6360 0.6410 0.6480 0.6550 0.6630
15.484000 0.6680 0.6730 0.6790 0.6830 0.6860
15.517113 0.6880 0.6880 0.6910 0.6940 0.6990
15.550000 0.7030 0.7080 0.7110 0.7140 0.7160
15.583113 0.7160 0.7180 0.7180 0.7190 0.7190
15.616000 0.7210 0.7230 0.7240 0.7260 0.7280
15.649113 0.7290 0.7290 0.7290 0.7280 0.7280
15.682000 0.7260 0.7260 0.7240 0.7240 0.7230
15.715113 0.7230 0.7210 0.7210 0.7190 0.7180
15.748000 0.7180 0.7160 0.7160 0.7140 0.7130
15.781113 0.7130 0.7130 0.7110 0.7090 0.7080
15.815000 0.7040 0.7030 0.7030 0.7010 0.6960
15.848113 0.6910 0.6890 0.6880 0.6840 0.6840
15.881000 0.6830 0.6810 0.6810 0.6810 0.6790
15.914113 0.6760 0.6740 0.6740 0.6710 0.6690
15.947000 0.6680 0.6660 0.6660 0.6660 0.6650
15.980113 0.6630 0.6630 0.6630 0.6630
##END=
