##TITLE=SODIUM PERCHLORATE
$$ C.P.
##JCAMP-DX=4.24
##DATA TYPE=INFRARED SPECTRUM
##CLASS=COBLENTZ
##ORIGIN=MELLON INSTITUTE
##OWNER=COBLENTZ SOCIETY
Collection (C) 2018 copyright by the U.S. Secretary of Commerce
on behalf of the United States of America. All rights reserved.
##DATE=Not specified, most likely prior to 1970
##MOLFORM=Na Cl O4  * H2 O
##SOURCE REFERENCE=COBLENTZ NO. 524
##$NIST ID=B6000524
##$NIST SOURCE=COBLENTZ
##$NIST IMAGE=cob524
##SPECTROMETER/DATA SYSTEM=Not specified, most likely a prism, grating, or hybrid spectrometer.
##STATE=SOLID (NUJOL MULL)
##PATH LENGTH=
$$SPECTRAL CONTAMINATION DUE TO OIL AROUND 2900, 1450, 1380 CM^-^1
##SAMPLING PROCEDURE=TRANSMISSION
##RESOLUTION=4
##DATA PROCESSING=DIGITIZED BY NIST FROM HARD COPY
##XUNITS=MICROMETERS
##YUNITS=TRANSMITTANCE
##XFACTOR=1.000000
##YFACTOR=1
##DELTAX=000.006655
##FIRSTX=2.048
##LASTX=15.9959
##FIRSTY=0.864
##MAXX=15.9959
##MINX=2.048
##MAXY=0.998
##MINY=0.144
##NPOINTS=2097
##XYDATA=(X++(Y..Y))
2.048000 0.8640 0.8640 0.8670 0.8640 0.8650
2.081289 0.8650 0.8670 0.8690 0.8690 0.8670
2.115000 0.8650 0.8670 0.8670 0.8650 0.8640
2.148289 0.8640 0.8640 0.8640 0.8620 0.8620
2.181000 0.8640 0.8650 0.8670 0.8670 0.8650
2.214289 0.8650 0.8670 0.8670 0.8670 0.8690
2.248000 0.8710 0.8710 0.8710 0.8710 0.8710
2.281289 0.8690 0.8650 0.8650 0.8620 0.8590
2.315000 0.8590 0.8590 0.8590 0.8590 0.8590
2.348289 0.8570 0.8570 0.8570 0.8550 0.8550
2.381000 0.8570 0.8550 0.8540 0.8540 0.8520
2.414289 0.8520 0.8500 0.8490 0.8490 0.8490
2.448000 0.8490 0.8490 0.8500 0.8500 0.8500
2.481289 0.8500 0.8500 0.8490 0.8470 0.8450
2.514000 0.8420 0.8400 0.8390 0.8370 0.8390
2.547289 0.8400 0.8440 0.8450 0.8490 0.8490
2.581000 0.8470 0.8470 0.8470 0.8450 0.8440
2.614289 0.8420 0.8400 0.8390 0.8390 0.8370
2.647000 0.8350 0.8340 0.8320 0.8300 0.8290
2.680289 0.8220 0.8170 0.8140 0.8090 0.8050
2.714000 0.7980 0.7920 0.7820 0.7670 0.7520
2.747289 0.7400 0.7260 0.7000 0.6430 0.6080
2.780000 0.5360 0.5040 0.4700 0.4170 0.4130
2.813289 0.4150 0.4330 0.4570 0.4720 0.4890
2.847000 0.5360 0.5740 0.6290 0.6750 0.7050
2.880289 0.7280 0.7430 0.7770 0.7930 0.8000
2.913000 0.8040 0.8100 0.8170 0.8200 0.8240
2.946289 0.8300 0.8340 0.8370 0.8390 0.8440
2.980000 0.8520 0.8540 0.8570 0.8620 0.8640
3.013289 0.8670 0.8690 0.8710 0.8710 0.8710
3.047000 0.8710 0.8710 0.8720 0.8740 0.8740
3.080289 0.8740 0.8720 0.8720 0.8720 0.8720
3.113000 0.8720 0.8740 0.8770 0.8790 0.8810
3.146289 0.8790 0.8820 0.8820 0.8840 0.8840
3.180000 0.8860 0.8860 0.8870 0.8870 0.8890
3.213289 0.8910 0.8920 0.8920 0.8920 0.8920
3.246000 0.8920 0.8920 0.8920 0.8920 0.8920
3.279289 0.8910 0.8890 0.8870 0.8810 0.8760
3.313000 0.8690 0.8520 0.8370 0.8020 0.7630
3.346289 0.7250 0.6210 0.5410 0.4990 0.4570
3.379000 0.4100 0.3630 0.3160 0.3040 0.3060
3.412289 0.3180 0.3400 0.3650 0.4020 0.4270
3.446000 0.4570 0.4800 0.4940 0.4970 0.4940
3.479289 0.4770 0.4620 0.4530 0.4530 0.4700
3.512000 0.5840 0.6380 0.6810 0.7180 0.7470
3.545289 0.7880 0.8040 0.8140 0.8200 0.8250
3.579000 0.8300 0.8350 0.8390 0.8450 0.8520
3.612289 0.8570 0.8590 0.8600 0.8600 0.8620
3.645000 0.8620 0.8640 0.8640 0.8640 0.8650
3.678289 0.8670 0.8670 0.8690 0.8690 0.8710
3.712000 0.8710 0.8720 0.8720 0.8740 0.8740
3.745289 0.8760 0.8760 0.8760 0.8770 0.8770
3.779000 0.8790 0.8790 0.8810 0.8810 0.8820
3.812289 0.8820 0.8820 0.8840 0.8840 0.8840
3.845000 0.8860 0.8860 0.8860 0.8860 0.8860
3.878289 0.8870 0.8870 0.8890 0.8910 0.8910
3.912000 0.8910 0.8910 0.8920 0.8920 0.8920
3.945289 0.8940 0.8940 0.8940 0.8940 0.8960
3.978000 0.8960 0.8960 0.8960 0.8970 0.8970
4.011289 0.8970 0.8970 0.8970 0.8970 0.8970
4.045000 0.8970 0.8970 0.8970 0.8970 0.8970
4.078289 0.8970 0.8970 0.8970 0.8970 0.8970
4.111000 0.8960 0.8960 0.8960 0.8960 0.8960
4.144289 0.8960 0.8960 0.8960 0.8960 0.8960
4.178000 0.8960 0.8960 0.8960 0.8960 0.8940
4.211289 0.8940 0.8920 0.8910 0.8890 0.8870
4.244000 0.8840 0.8840 0.8820 0.8790 0.8770
4.277289 0.8770 0.8760 0.8740 0.8720 0.8710
4.311000 0.8690 0.8670 0.8650 0.8650 0.8640
4.344289 0.8620 0.8620 0.8620 0.8640 0.8670
4.377000 0.8710 0.8710 0.8740 0.8760 0.8770
4.410289 0.8790 0.8810 0.8820 0.8820 0.8840
4.444000 0.8840 0.8840 0.8820 0.8840 0.8840
4.477289 0.8860 0.8860 0.8870 0.8870 0.8870
4.511000 0.8870 0.8870 0.8860 0.8860 0.8860
4.544289 0.8860 0.8860 0.8860 0.8860 0.8840
4.577000 0.8840 0.8860 0.8840 0.8840 0.8840
4.610289 0.8840 0.8840 0.8840 0.8840 0.8840
4.644000 0.8840 0.8860 0.8860 0.8860 0.8870
4.677289 0.8870 0.8870 0.8870 0.8870 0.8870
4.710000 0.8870 0.8870 0.8870 0.8870 0.8870
4.743289 0.8870 0.8870 0.8870 0.8870 0.8860
4.777000 0.8860 0.8840 0.8840 0.8840 0.8820
4.810289 0.8840 0.8820 0.8820 0.8820 0.8810
4.843000 0.8810 0.8790 0.8770 0.8770 0.8760
4.876289 0.8740 0.8720 0.8710 0.8710 0.8670
4.910000 0.8650 0.8640 0.8640 0.8620 0.8620
4.943289 0.8620 0.8620 0.8640 0.8650 0.8690
4.976000 0.8710 0.8720 0.8740 0.8760 0.8770
5.009289 0.8790 0.8810 0.8820 0.8820 0.8840
5.043000 0.8840 0.8860 0.8870 0.8870 0.8890
5.076289 0.8890 0.8910 0.8910 0.8910 0.8920
5.109000 0.8920 0.8920 0.8920 0.8920 0.8940
5.142289 0.8940 0.8960 0.8960 0.8990 0.9010
5.176000 0.9010 0.9010 0.9010 0.9010 0.9010
5.209289 0.9010 0.9010 0.9010 0.9020 0.9020
5.243000 0.9020 0.9020 0.9020 0.9020 0.9020
5.276289 0.9020 0.9020 0.9020 0.9020 0.9020
5.309000 0.9020 0.9020 0.9020 0.9020 0.9020
5.342289 0.9020 0.9020 0.9020 0.9020 0.9020
5.376000 0.9060 0.9040 0.9040 0.9040 0.9040
5.409289 0.9040 0.9040 0.9040 0.9060 0.9060
5.442000 0.9060 0.9060 0.9060 0.9060 0.9060
5.475289 0.9060 0.9060 0.9060 0.9060 0.9060
5.509000 0.9060 0.9060 0.9040 0.9040 0.9040
5.542289 0.9040 0.9040 0.9040 0.9040 0.9040
5.575000 0.9040 0.9020 0.9020 0.9020 0.9020
5.608289 0.9020 0.9020 0.9020 0.9020 0.9020
5.642000 0.9020 0.9020 0.9060 0.9070 0.9110
5.675289 0.9110 0.9090 0.9070 0.9040 0.9020
5.708000 0.9020 0.9070 0.9120 0.9120 0.9110
5.741289 0.9110 0.9110 0.9090 0.9070 0.9070
5.775000 0.9060 0.9070 0.9070 0.9070 0.9070
5.808289 0.9070 0.9070 0.9090 0.9090 0.9120
5.842000 0.9120 0.9110 0.9040 0.9010 0.9010
5.875289 0.9020 0.9070 0.9090 0.9090 0.9060
5.908000 0.9040 0.9020 0.8990 0.8970 0.8970
5.941289 0.8970 0.9010 0.9010 0.8960 0.8920
5.975000 0.8920 0.8910 0.8890 0.8860 0.8820
6.008289 0.8740 0.8690 0.8650 0.8590 0.8520
6.041000 0.8470 0.8400 0.8340 0.8220 0.8100
6.074289 0.7930 0.7730 0.7470 0.7200 0.6760
6.108000 0.6540 0.6010 0.5360 0.5000 0.4990
6.141289 0.4970 0.4990 0.5660 0.5960 0.6480
6.174000 0.6930 0.7330 0.7880 0.8090 0.8250
6.207289 0.8390 0.8500 0.8620 0.8760 0.8890
6.241000 0.8960 0.9010 0.9020 0.9060 0.9090
6.274289 0.9110 0.9120 0.9120 0.9140 0.9140
6.307000 0.9160 0.9160 0.9170 0.9190 0.9210
6.340289 0.9170 0.9120 0.9110 0.9120 0.9160
6.374000 0.9190 0.9220 0.9220 0.9240 0.9240
6.407289 0.9220 0.9210 0.9210 0.9190 0.9210
6.440000 0.9240 0.9240 0.9260 0.9260 0.9270
6.473289 0.9290 0.9290 0.9310 0.9310 0.9320
6.507000 0.9310 0.9310 0.9310 0.9310 0.9310
6.540289 0.9310 0.9310 0.9310 0.9310 0.9310
6.574000 0.9310 0.9320 0.9360 0.9390 0.9390
6.607289 0.9380 0.9320 0.9290 0.9260 0.9240
6.640000 0.9260 0.9290 0.9310 0.9320 0.9320
6.673289 0.9320 0.9310 0.9320 0.9320 0.9380
6.707000 0.9380 0.9360 0.9360 0.9320 0.9320
6.740289 0.9310 0.9270 0.9260 0.9220 0.9170
6.773000 0.9120 0.9110 0.8970 0.8810 0.8570
6.806289 0.8340 0.8120 0.7920 0.7780 0.7720
6.840000 0.7670 0.7580 0.7530 0.7520 0.7520
6.873289 0.7520 0.7520 0.7520 0.7520 0.7500
6.906000 0.7530 0.7620 0.7720 0.7800 0.7870
6.939289 0.7900 0.7950 0.8000 0.8050 0.8120
6.973000 0.8200 0.8300 0.8370 0.8440 0.8490
7.006289 0.8540 0.8600 0.8640 0.8650 0.8670
7.039000 0.8690 0.8710 0.8710 0.8740 0.8790
7.072289 0.8820 0.8870 0.8890 0.8920 0.8960
7.106000 0.8960 0.9010 0.9020 0.9020 0.9020
7.139289 0.9020 0.9020 0.9020 0.9020 0.9020
7.172000 0.9020 0.9010 0.8990 0.8920 0.8870
7.205289 0.8790 0.8740 0.8620 0.8540 0.8440
7.239000 0.8300 0.8240 0.8190 0.8150 0.8140
7.272289 0.8150 0.8170 0.8200 0.8220 0.8200
7.306000 0.8220 0.8240 0.8270 0.8320 0.8370
7.339289 0.8440 0.8490 0.8520 0.8550 0.8570
7.372000 0.8570 0.8590 0.8590 0.8600 0.8620
7.405289 0.8650 0.8650 0.8650 0.8650 0.8640
7.439000 0.8600 0.8600 0.8620 0.8620 0.8640
7.472289 0.8650 0.8670 0.8710 0.8710 0.8720
7.505000 0.8720 0.8740 0.8760 0.8740 0.8740
7.538289 0.8740 0.8720 0.8720 0.8740 0.8740
7.572000 0.8740 0.8740 0.8740 0.8740 0.8720
7.605289 0.8710 0.8710 0.8710 0.8690 0.8650
7.638000 0.8640 0.8620 0.8600 0.8590 0.8590
7.671289 0.8590 0.8570 0.8570 0.8570 0.8550
7.705000 0.8550 0.8550 0.8540 0.8540 0.8540
7.738289 0.8520 0.8520 0.8500 0.8490 0.8470
7.771000 0.8470 0.8450 0.8440 0.8420 0.8420
7.804289 0.8400 0.8390 0.8370 0.8370 0.8350
7.838000 0.8350 0.8340 0.8320 0.8320 0.8300
7.871289 0.8290 0.8290 0.8270 0.8250 0.8250
7.904000 0.8240 0.8220 0.8220 0.8200 0.8190
7.937289 0.8190 0.8170 0.8150 0.8150 0.8140
7.971000 0.8120 0.8100 0.8090 0.8070 0.8070
8.004289 0.8050 0.8040 0.8020 0.8000 0.7980
8.038000 0.7950 0.7920 0.7900 0.7880 0.7870
8.071289 0.7830 0.7820 0.7800 0.7770 0.7720
8.104000 0.7700 0.7670 0.7620 0.7580 0.7550
8.137289 0.7520 0.7500 0.7480 0.7470 0.7430
8.171000 0.7400 0.7370 0.7330 0.7300 0.7260
8.204289 0.7230 0.7180 0.7150 0.7110 0.7060
8.237000 0.7030 0.6980 0.6950 0.6900 0.6860
8.270289 0.6810 0.6780 0.6730 0.6680 0.6630
8.304000 0.6580 0.6540 0.6490 0.6430 0.6380
8.337289 0.6330 0.6280 0.6230 0.6160 0.6110
8.370000 0.6040 0.5990 0.5920 0.5860 0.5790
8.403289 0.5720 0.5640 0.5560 0.5490 0.5390
8.437000 0.5300 0.5200 0.5140 0.5070 0.5040
8.470289 0.4990 0.4890 0.4800 0.4720 0.4650
8.503000 0.4570 0.4500 0.4400 0.4300 0.4220
8.536289 0.4120 0.4050 0.3960 0.3900 0.3810
8.570000 0.3750 0.3660 0.3600 0.3500 0.3350
8.603289 0.3240 0.3210 0.3160 0.3110 0.2990
8.636000 0.2890 0.2860 0.2810 0.2760 0.2710
8.669289 0.2660 0.2610 0.2560 0.2510 0.2490
8.703000 0.2460 0.2410 0.2370 0.2340 0.2290
8.736289 0.2240 0.2190 0.2160 0.2110 0.2070
8.770000 0.2040 0.2020 0.1990 0.1970 0.1950
8.803289 0.1920 0.1900 0.1890 0.1870 0.1840
8.836000 0.1800 0.1790 0.1770 0.1720 0.1690
8.869289 0.1670 0.1640 0.1620 0.1600 0.1590
8.903000 0.1590 0.1570 0.1570 0.1550 0.1550
8.936289 0.1540 0.1540 0.1520 0.1520 0.1520
8.969000 0.1500 0.1500 0.1500 0.1500 0.1490
9.002289 0.1490 0.1490 0.1490 0.1490 0.1490
9.036000 0.1490 0.1490 0.1490 0.1490 0.1490
9.069289 0.1470 0.1470 0.1470 0.1470 0.1470
9.102000 0.1470 0.1470 0.1450 0.1440 0.1440
9.135289 0.1440 0.1440 0.1440 0.1440 0.1440
9.169000 0.1440 0.1440 0.1440 0.1440 0.1450
9.202289 0.1470 0.1470 0.1490 0.1490 0.1500
9.235000 0.1500 0.1520 0.1540 0.1590 0.1600
9.268289 0.1620 0.1640 0.1690 0.1720 0.1770
9.302000 0.1840 0.1890 0.1950 0.2010 0.2070
9.335289 0.2140 0.2190 0.2260 0.2320 0.2390
9.368000 0.2460 0.2590 0.2660 0.2740 0.2810
9.401289 0.2880 0.2960 0.3030 0.3110 0.3180
9.435000 0.3260 0.3350 0.3430 0.3530 0.3630
9.468289 0.3730 0.3810 0.3900 0.3980 0.4030
9.502000 0.4070 0.4200 0.4230 0.4330 0.4400
9.535289 0.4470 0.4530 0.4600 0.4650 0.4720
9.568000 0.4770 0.4850 0.4920 0.4990 0.5170
9.601289 0.5250 0.5300 0.5370 0.5420 0.5470
9.635000 0.5510 0.5570 0.5620 0.5690 0.5760
9.668289 0.5820 0.5890 0.5960 0.6030 0.6110
9.701000 0.6180 0.6240 0.6290 0.6360 0.6430
9.734289 0.6490 0.6540 0.6560 0.6630 0.6660
9.768000 0.6700 0.6750 0.6800 0.6850 0.6880
9.801289 0.6960 0.6980 0.7000 0.7010 0.7030
9.834000 0.7060 0.7110 0.7150 0.7210 0.7250
9.867289 0.7280 0.7310 0.7350 0.7370 0.7400
9.901000 0.7430 0.7470 0.7520 0.7530 0.7550
9.934289 0.7570 0.7600 0.7620 0.7630 0.7630
9.967000 0.7670 0.7670 0.7700 0.7730 0.7750
10.000289 0.7770 0.7780 0.7800 0.7820 0.7830
10.034000 0.7850 0.7870 0.7880 0.7900 0.7920
10.067289 0.7930 0.7950 0.7970 0.7970 0.7980
10.100000 0.7980 0.8000 0.8000 0.8020 0.8040
10.133289 0.8050 0.8070 0.8090 0.8090 0.8100
10.167000 0.8120 0.8150 0.8150 0.8170 0.8170
10.200289 0.8190 0.8200 0.8220 0.8240 0.8270
10.234000 0.8270 0.8290 0.8290 0.8300 0.8320
10.267289 0.8320 0.8320 0.8320 0.8340 0.8340
10.300000 0.8320 0.8350 0.8370 0.8390 0.8390
10.333289 0.8400 0.8420 0.8440 0.8450 0.8470
10.367000 0.8470 0.8490 0.8490 0.8500 0.8520
10.400289 0.8550 0.8590 0.8620 0.8640 0.8650
10.433000 0.8670 0.8710 0.8720 0.8720 0.8740
10.466289 0.8740 0.8760 0.8770 0.8770 0.8790
10.500000 0.8790 0.8820 0.8840 0.8840 0.8860
10.533289 0.8870 0.8890 0.8890 0.8910 0.8920
10.566000 0.8940 0.8940 0.8970 0.8990 0.8990
10.599289 0.9010 0.9020 0.9040 0.9040 0.9060
10.633000 0.9060 0.9060 0.9070 0.9090 0.9110
10.666289 0.9110 0.9120 0.9120 0.9140 0.9160
10.699000 0.9170 0.9190 0.9190 0.9210 0.9190
10.732289 0.9210 0.9210 0.9220 0.9240 0.9260
10.766000 0.9260 0.9270 0.9270 0.9290 0.9310
10.799289 0.9320 0.9340 0.9360 0.9380 0.9380
10.832000 0.9380 0.9390 0.9410 0.9410 0.9410
10.865289 0.9430 0.9440 0.9460 0.9440 0.9460
10.899000 0.9480 0.9480 0.9490 0.9510 0.9490
10.932289 0.9510 0.9510 0.9510 0.9530 0.9530
10.966000 0.9540 0.9560 0.9560 0.9590 0.9590
10.999289 0.9610 0.9610 0.9630 0.9630 0.9640
11.032000 0.9640 0.9640 0.9660 0.9690 0.9690
11.065289 0.9690 0.9690 0.9710 0.9710 0.9710
11.099000 0.9710 0.9710 0.9710 0.9710 0.9710
11.132289 0.9730 0.9730 0.9730 0.9730 0.9740
11.165000 0.9740 0.9740 0.9730 0.9740 0.9740
11.198289 0.9740 0.9760 0.9740 0.9760 0.9780
11.232000 0.9780 0.9780 0.9780 0.9780 0.9780
11.265289 0.9760 0.9780 0.9790 0.9790 0.9790
11.298000 0.9790 0.9810 0.9810 0.9790 0.9810
11.331289 0.9810 0.9810 0.9810 0.9810 0.9830
11.365000 0.9830 0.9830 0.9810 0.9830 0.9830
11.398289 0.9830 0.9840 0.9840 0.9860 0.9860
11.431000 0.9860 0.9860 0.9880 0.9880 0.9890
11.464289 0.9890 0.9890 0.9890 0.9890 0.9910
11.498000 0.9910 0.9890 0.9890 0.9890 0.9910
11.531289 0.9910 0.9910 0.9890 0.9890 0.9890
11.564000 0.9890 0.9890 0.9890 0.9890 0.9890
11.597289 0.9890 0.9890 0.9890 0.9890 0.9890
11.631000 0.9890 0.9890 0.9890 0.9890 0.9910
11.664289 0.9910 0.9910 0.9910 0.9910 0.9910
11.698000 0.9910 0.9910 0.9910 0.9910 0.9910
11.731289 0.9910 0.9910 0.9910 0.9910 0.9910
11.764000 0.9910 0.9910 0.9910 0.9910 0.9910
11.797289 0.9910 0.9910 0.9910 0.9910 0.9910
11.831000 0.9890 0.9890 0.9880 0.9840 0.9830
11.864289 0.9830 0.9830 0.9830 0.9840 0.9860
11.897000 0.9880 0.9890 0.9890 0.9910 0.9910
11.930289 0.9910 0.9910 0.9910 0.9930 0.9930
11.964000 0.9910 0.9880 0.9880 0.9880 0.9880
11.997289 0.9910 0.9910 0.9910 0.9910 0.9910
12.030000 0.9910 0.9910 0.9910 0.9910 0.9910
12.063289 0.9910 0.9910 0.9910 0.9910 0.9880
12.097000 0.9890 0.9890 0.9890 0.9890 0.9890
12.130289 0.9890 0.9910 0.9930 0.9930 0.9940
12.163000 0.9940 0.9940 0.9940 0.9940 0.9940
12.196289 0.9940 0.9940 0.9940 0.9960 0.9960
12.230000 0.9960 0.9940 0.9940 0.9940 0.9930
12.263289 0.9930 0.9910 0.9910 0.9910 0.9930
12.296000 0.9930 0.9930 0.9930 0.9910 0.9910
12.329289 0.9910 0.9910 0.9910 0.9930 0.9930
12.363000 0.9930 0.9910 0.9930 0.9940 0.9960
12.396289 0.9960 0.9980 0.9980 0.9980 0.9980
12.430000 0.9930 0.9910 0.9930 0.9940 0.9960
12.463289 0.9960 0.9960 0.9940 0.9940 0.9940
12.496000 0.9940 0.9930 0.9910 0.9910 0.9910
12.529289 0.9910 0.9910 0.9930 0.9930 0.9930
12.563000 0.9930 0.9930 0.9930 0.9930 0.9930
12.596289 0.9930 0.9910 0.9910 0.9910 0.9890
12.629000 0.9890 0.9890 0.9890 0.9890 0.9890
12.662289 0.9890 0.9890 0.9910 0.9910 0.9930
12.696000 0.9930 0.9930 0.9930 0.9910 0.9890
12.729289 0.9880 0.9890 0.9910 0.9910 0.9890
12.762000 0.9890 0.9910 0.9910 0.9910 0.9910
12.795289 0.9910 0.9910 0.9910 0.9910 0.9910
12.829000 0.9890 0.9890 0.9880 0.9890 0.9890
12.862289 0.9890 0.9890 0.9890 0.9890 0.9890
12.895000 0.9880 0.9880 0.9860 0.9840 0.9830
12.928289 0.9830 0.9830 0.9810 0.9810 0.9810
12.962000 0.9810 0.9810 0.9810 0.9810 0.9810
12.995289 0.9810 0.9810 0.9830 0.9810 0.9780
13.028000 0.9780 0.9760 0.9760 0.9760 0.9780
13.061289 0.9780 0.9780 0.9790 0.9790 0.9740
13.095000 0.9760 0.9780 0.9780 0.9780 0.9780
13.128289 0.9790 0.9790 0.9780 0.9760 0.9760
13.162000 0.9740 0.9740 0.9740 0.9740 0.9740
13.195289 0.9730 0.9740 0.9780 0.9780 0.9780
13.228000 0.9760 0.9730 0.9730 0.9730 0.9730
13.261289 0.9730 0.9730 0.9740 0.9740 0.9760
13.295000 0.9760 0.9760 0.9760 0.9780 0.9760
13.328289 0.9740 0.9740 0.9760 0.9780 0.9780
13.361000 0.9760 0.9760 0.9760 0.9760 0.9760
13.394289 0.9740 0.9780 0.9780 0.9760 0.9760
13.428000 0.9740 0.9740 0.9740 0.9740 0.9760
13.461289 0.9760 0.9760 0.9740 0.9730 0.9730
13.494000 0.9710 0.9710 0.9680 0.9660 0.9640
13.527289 0.9640 0.9640 0.9640 0.9640 0.9640
13.561000 0.9640 0.9630 0.9630 0.9630 0.9630
13.594289 0.9630 0.9640 0.9640 0.9630 0.9630
13.627000 0.9630 0.9630 0.9630 0.9630 0.9630
13.660289 0.9630 0.9630 0.9630 0.9630 0.9610
13.694000 0.9610 0.9590 0.9610 0.9590 0.9590
13.727289 0.9580 0.9580 0.9580 0.9580 0.9580
13.760000 0.9590 0.9590 0.9580 0.9560 0.9580
13.793289 0.9560 0.9560 0.9540 0.9540 0.9530
13.827000 0.9510 0.9480 0.9460 0.9440 0.9440
13.860289 0.9440 0.9430 0.9430 0.9430 0.9430
13.894000 0.9430 0.9430 0.9410 0.9410 0.9410
13.927289 0.9410 0.9430 0.9430 0.9410 0.9390
13.960000 0.9390 0.9390 0.9410 0.9410 0.9410
13.993289 0.9410 0.9390 0.9390 0.9390 0.9410
14.027000 0.9390 0.9380 0.9390 0.9390 0.9390
14.060289 0.9360 0.9340 0.9340 0.9340 0.9340
14.093000 0.9360 0.9360 0.9360 0.9340 0.9340
14.126289 0.9360 0.9380 0.9390 0.9380 0.9340
14.160000 0.9320 0.9310 0.9310 0.9290 0.9310
14.193289 0.9310 0.9310 0.9290 0.9270 0.9260
14.226000 0.9260 0.9240 0.9240 0.9240 0.9240
14.259289 0.9260 0.9260 0.9220 0.9220 0.9220
14.293000 0.9210 0.9170 0.9190 0.9190 0.9190
14.326289 0.9190 0.9170 0.9160 0.9140 0.9120
14.359000 0.9120 0.9120 0.9110 0.9110 0.9070
14.392289 0.9090 0.9070 0.9060 0.9020 0.9020
14.426000 0.9010 0.9010 0.9010 0.9010 0.9010
14.459289 0.9010 0.9010 0.8990 0.8990 0.8970
14.492000 0.8960 0.8940 0.8910 0.8890 0.8870
14.525289 0.8860 0.8870 0.8870 0.8840 0.8860
14.559000 0.8840 0.8820 0.8790 0.8760 0.8760
14.592289 0.8740 0.8760 0.8740 0.8720 0.8710
14.626000 0.8710 0.8710 0.8710 0.8690 0.8690
14.659289 0.8710 0.8710 0.8710 0.8690 0.8690
14.692000 0.8650 0.8640 0.8650 0.8650 0.8640
14.725289 0.8620 0.8600 0.8590 0.8590 0.8590
14.759000 0.8590 0.8550 0.8540 0.8520 0.8500
14.792289 0.8490 0.8500 0.8490 0.8450 0.8450
14.825000 0.8450 0.8440 0.8450 0.8450 0.8450
14.858289 0.8450 0.8440 0.8420 0.8400 0.8390
14.892000 0.8350 0.8350 0.8340 0.8320 0.8340
14.925289 0.8320 0.8320 0.8290 0.8290 0.8270
14.958000 0.8250 0.8240 0.8220 0.8220 0.8200
14.991289 0.8200 0.8190 0.8170 0.8150 0.8140
15.025000 0.8120 0.8100 0.8090 0.8070 0.8050
15.058289 0.8050 0.8040 0.8040 0.8020 0.8000
15.091000 0.8000 0.7980 0.7970 0.7970 0.7950
15.124289 0.7930 0.7930 0.7920 0.7920 0.7900
15.158000 0.7850 0.7850 0.7830 0.7830 0.7820
15.191289 0.7800 0.7780 0.7770 0.7750 0.7720
15.224000 0.7680 0.7670 0.7670 0.7650 0.7630
15.257289 0.7600 0.7580 0.7570 0.7530 0.7520
15.291000 0.7500 0.7480 0.7470 0.7450 0.7450
15.324289 0.7430 0.7420 0.7400 0.7350 0.7350
15.358000 0.7280 0.7260 0.7230 0.7210 0.7200
15.391289 0.7180 0.7180 0.7180 0.7150 0.7110
15.424000 0.7100 0.7060 0.7050 0.7030 0.7030
15.457289 0.7010 0.7010 0.7010 0.7000 0.7000
15.491000 0.6980 0.6960 0.6950 0.6930 0.6910
15.524289 0.6900 0.6880 0.6860 0.6860 0.6850
15.557000 0.6830 0.6830 0.6810 0.6810 0.6800
15.590289 0.6800 0.6760 0.6730 0.6700 0.6700
15.624000 0.6700 0.6700 0.6680 0.6680 0.6680
15.657289 0.6660 0.6660 0.6660 0.6640 0.6640
15.690000 0.6640 0.6630 0.6630 0.6630 0.6630
15.723289 0.6630 0.6630 0.6610 0.6630 0.6630
15.757000 0.6630 0.6630 0.6630 0.6630 0.6630
15.790289 0.6630 0.6610 0.6610 0.6610 0.6630
15.823000 0.6640 0.6640 0.6640 0.6640 0.6640
15.856289 0.6640 0.6640 0.6640 0.6640 0.6640
15.890000 0.6630 0.6630 0.6630 0.6630 0.6630
15.923289 0.6610 0.6610 0.6610 0.6630 0.6630
15.956000 0.6630 0.6630 0.6630 0.6630 0.6630
15.989289 0.6630 0.6630
##END=
