##TITLE=o-HYDROXYBENZOYL FERROCENE
##JCAMP-DX=4.24
##DATA TYPE=INFRARED SPECTRUM
##CLASS=COBLENTZ
##ORIGIN=WYANDOTTE CHEMICALS CORP., WYANDOTTE, MICHIGAN, USA
##OWNER=COBLENTZ SOCIETY
Collection (C) 2018 copyright by the U.S. Secretary of Commerce
on behalf of the United States of America. All rights reserved.
##DATE=Not specified, most likely prior to 1970
##MOLFORM=C17 H14 Fe O2
##MP=87-89 C
##SOURCE REFERENCE=COBLENTZ NO. 3006
##$NIST ID=B6003006
##$NIST SOURCE=COBLENTZ
##$NIST IMAGE=cob3006
##SPECTROMETER/DATA SYSTEM=Not specified, most likely a prism, grating, or hybrid spectrometer.
##STATE=SOLID (MINERAL OIL MULL)
##PATH LENGTH=
$$SPECTRAL CONTAMINATION DUE TO OIL AROUND 2900 CM^-^1
##SAMPLING PROCEDURE=TRANSMISSION
##RESOLUTION=4
##DATA PROCESSING=DIGITIZED BY NIST FROM HARD COPY
##XUNITS=MICROMETERS
##YUNITS=TRANSMITTANCE
##XFACTOR=1.000000
##YFACTOR=1
##DELTAX=000.006803
##FIRSTX=2.007
##LASTX=15.9996
##FIRSTY=0.312
##MAXX=15.9996
##MINX=2.007
##MAXY=0.935
##MINY=0.032
##NPOINTS=2058
##XYDATA=(X++(Y..Y))
2.007000 0.3120 0.3120 0.3130 0.3130 0.3130
2.041030 0.3150 0.3150 0.3170 0.3190 0.3200
2.075000 0.3200 0.3220 0.3240 0.3220 0.3220
2.109030 0.3220 0.3220 0.3220 0.3240 0.3240
2.143000 0.3240 0.3240 0.3240 0.3240 0.3250
2.177030 0.3270 0.3270 0.3270 0.3310 0.3310
2.211000 0.3320 0.3320 0.3340 0.3340 0.3360
2.245030 0.3360 0.3370 0.3410 0.3430 0.3460
2.279000 0.3480 0.3530 0.3580 0.3580 0.3600
2.313030 0.3610 0.3610 0.3610 0.3610 0.3630
2.347000 0.3630 0.3650 0.3650 0.3660 0.3660
2.381030 0.3680 0.3700 0.3720 0.3720 0.3730
2.415000 0.3770 0.3780 0.3780 0.3800 0.3800
2.449030 0.3820 0.3800 0.3780 0.3780 0.3750
2.483000 0.3730 0.3730 0.3730 0.3750 0.3770
2.517030 0.3800 0.3820 0.3830 0.3850 0.3890
2.551000 0.3920 0.3970 0.4040 0.4090 0.4110
2.585030 0.4110 0.4120 0.4140 0.4140 0.4140
2.619000 0.4160 0.4180 0.4190 0.4190 0.4210
2.653030 0.4210 0.4230 0.4230 0.4240 0.4240
2.687000 0.4280 0.4300 0.4310 0.4310 0.4350
2.721030 0.4360 0.4360 0.4380 0.4400 0.4410
2.755000 0.4450 0.4470 0.4470 0.4470 0.4500
2.789030 0.4500 0.4500 0.4480 0.4480 0.4470
2.823000 0.4450 0.4450 0.4430 0.4410 0.4410
2.857030 0.4400 0.4400 0.4400 0.4400 0.4380
2.891000 0.4360 0.4360 0.4360 0.4360 0.4360
2.925030 0.4360 0.4350 0.4350 0.4350 0.4350
2.959000 0.4350 0.4360 0.4360 0.4360 0.4360
2.993030 0.4400 0.4400 0.4380 0.4380 0.4350
3.027000 0.4330 0.4310 0.4300 0.4300 0.4280
3.061030 0.4280 0.4240 0.4210 0.4160 0.4120
3.095000 0.4090 0.4060 0.4020 0.4020 0.3990
3.129030 0.3970 0.3900 0.3890 0.3890 0.3830
3.163000 0.3800 0.3780 0.3770 0.3780 0.3750
3.197030 0.3720 0.3650 0.3540 0.3410 0.3250
3.231000 0.3080 0.3020 0.3020 0.3100 0.3100
3.265030 0.3100 0.3080 0.3030 0.2960 0.2910
3.299000 0.2830 0.2670 0.2470 0.2210 0.1940
3.333030 0.1650 0.1380 0.1090 0.0850 0.0610
3.367000 0.0490 0.0420 0.0400 0.0370 0.0320
3.401030 0.0320 0.0320 0.0340 0.0350 0.0400
3.435000 0.0520 0.0640 0.0780 0.0900 0.1000
3.469030 0.1070 0.1070 0.1040 0.1040 0.1040
3.503000 0.1070 0.1460 0.1970 0.2670 0.3530
3.537030 0.4260 0.4810 0.5100 0.5270 0.5370
3.571000 0.5460 0.5520 0.5580 0.5610 0.5660
3.605030 0.5710 0.5780 0.5810 0.5830 0.5850
3.639000 0.5830 0.5800 0.5750 0.5710 0.5710
3.673030 0.5710 0.5710 0.5730 0.5760 0.5800
3.707000 0.5830 0.5850 0.5880 0.5900 0.5900
3.741030 0.5900 0.5880 0.5870 0.5870 0.5870
3.776000 0.5880 0.5920 0.5970 0.5980 0.6000
3.810030 0.6000 0.6020 0.6020 0.6050 0.6100
3.844000 0.6160 0.6210 0.6240 0.6220 0.6260
3.878030 0.6270 0.6290 0.6330 0.6330 0.6340
3.912000 0.6360 0.6360 0.6380 0.6390 0.6380
3.946030 0.6360 0.6380 0.6390 0.6410 0.6450
3.980000 0.6480 0.6510 0.6550 0.6560 0.6580
4.014030 0.6580 0.6600 0.6580 0.6580 0.6600
4.048000 0.6600 0.6600 0.6600 0.6620 0.6620
4.082030 0.6620 0.6620 0.6630 0.6630 0.6630
4.116000 0.6650 0.6650 0.6680 0.6700 0.6700
4.150030 0.6720 0.6740 0.6790 0.6790 0.6790
4.184000 0.6790 0.6800 0.6800 0.6800 0.6800
4.218030 0.6800 0.6790 0.6740 0.6720 0.6720
4.252000 0.6720 0.6720 0.6720 0.6720 0.6720
4.286030 0.6720 0.6720 0.6720 0.6720 0.6720
4.320000 0.6770 0.6820 0.6840 0.6870 0.6910
4.354030 0.6940 0.6970 0.7010 0.7060 0.7110
4.388000 0.7210 0.7300 0.7320 0.7320 0.7320
4.422030 0.7320 0.7320 0.7300 0.7300 0.7280
4.456000 0.7260 0.7250 0.7210 0.7230 0.7210
4.490030 0.7200 0.7180 0.7180 0.7210 0.7230
4.524000 0.7250 0.7280 0.7320 0.7350 0.7400
4.558030 0.7440 0.7450 0.7450 0.7470 0.7490
4.592000 0.7490 0.7520 0.7520 0.7540 0.7540
4.626030 0.7550 0.7550 0.7570 0.7570 0.7610
4.660000 0.7620 0.7620 0.7640 0.7660 0.7670
4.694030 0.7670 0.7690 0.7710 0.7710 0.7730
4.728000 0.7760 0.7760 0.7760 0.7760 0.7780
4.762030 0.7780 0.7780 0.7780 0.7780 0.7780
4.796000 0.7790 0.7790 0.7810 0.7830 0.7830
4.830030 0.7880 0.7900 0.7910 0.7910 0.7910
4.864000 0.7930 0.7930 0.7930 0.7950 0.7980
4.898030 0.7980 0.7980 0.7980 0.7980 0.7950
4.932000 0.7950 0.7950 0.7980 0.8000 0.8020
4.966030 0.8020 0.8030 0.8030 0.8050 0.8050
5.000000 0.8080 0.8100 0.8120 0.8130 0.8150
5.034030 0.8150 0.8120 0.8130 0.8130 0.8170
5.068000 0.8190 0.8200 0.8220 0.8240 0.8240
5.102030 0.8220 0.8220 0.8170 0.8120 0.8120
5.136000 0.8130 0.8170 0.8200 0.8240 0.8240
5.170030 0.8220 0.8190 0.8120 0.8080 0.8070
5.204000 0.8020 0.8020 0.8170 0.8220 0.8240
5.238030 0.8290 0.8310 0.8320 0.8340 0.8360
5.272000 0.8410 0.8490 0.8510 0.8530 0.8530
5.306030 0.8530 0.8560 0.8580 0.8600 0.8600
5.340000 0.8580 0.8540 0.8490 0.8490 0.8510
5.374030 0.8600 0.8580 0.8560 0.8530 0.8490
5.408000 0.8480 0.8440 0.8390 0.8370 0.8370
5.442030 0.8410 0.8540 0.8600 0.8560 0.8530
5.476000 0.8490 0.8460 0.8410 0.8390 0.8370
5.510030 0.8360 0.8370 0.8370 0.8370 0.8370
5.544000 0.8340 0.8290 0.8200 0.8170 0.8170
5.578030 0.8170 0.8200 0.8250 0.8270 0.8270
5.612000 0.8270 0.8250 0.8240 0.8220 0.8220
5.646030 0.8240 0.8290 0.8310 0.8320 0.8310
5.680000 0.8290 0.8250 0.8220 0.8200 0.8190
5.714030 0.8170 0.8150 0.8120 0.8080 0.8100
5.748000 0.8120 0.8130 0.8130 0.7980 0.7960
5.782030 0.7950 0.7880 0.7780 0.7780 0.7830
5.816000 0.7830 0.7790 0.7730 0.7690 0.7670
5.850030 0.7670 0.7670 0.7690 0.7760 0.7830
5.884000 0.7860 0.7880 0.7860 0.7880 0.7880
5.918030 0.7900 0.7900 0.7900 0.7860 0.7840
5.952000 0.7830 0.7860 0.7880 0.7880 0.7900
5.986030 0.7900 0.7860 0.7790 0.7670 0.7550
6.020000 0.7470 0.7370 0.7200 0.7030 0.6790
6.054030 0.6560 0.6330 0.6090 0.5780 0.5370
6.088000 0.4880 0.4210 0.3370 0.2660 0.1620
6.122030 0.1330 0.1330 0.1380 0.1620 0.1970
6.156000 0.2370 0.2710 0.2790 0.2790 0.2200
6.190030 0.1910 0.1600 0.1290 0.1020 0.0870
6.224000 0.0800 0.0730 0.0690 0.0680 0.0690
6.258030 0.0870 0.0980 0.1260 0.1630 0.2150
6.293000 0.2670 0.3240 0.3720 0.4110 0.4450
6.327030 0.4700 0.4890 0.5050 0.5150 0.5220
6.361000 0.5350 0.5520 0.5710 0.5830 0.6100
6.395030 0.6360 0.6460 0.6560 0.6550 0.6530
6.429000 0.6550 0.6560 0.6620 0.6670 0.6770
6.463030 0.6870 0.6970 0.7010 0.7040 0.7060
6.497000 0.7060 0.7030 0.7030 0.6990 0.6920
6.531030 0.6840 0.6820 0.6800 0.6750 0.6720
6.565000 0.6700 0.6670 0.6630 0.6560 0.6510
6.599030 0.6430 0.6290 0.6140 0.5950 0.5710
6.633000 0.5440 0.5110 0.4720 0.4330 0.4010
6.667030 0.3600 0.3150 0.2300 0.1990 0.1990
6.701000 0.2080 0.2250 0.2400 0.2550 0.2760
6.735030 0.2980 0.3000 0.3000 0.3000 0.2930
6.769000 0.2740 0.2610 0.2540 0.2380 0.2300
6.803030 0.2090 0.1910 0.1890 0.1800 0.1550
6.837000 0.1210 0.0970 0.0760 0.0640 0.0540
6.871030 0.0510 0.0490 0.0460 0.0470 0.0560
6.905000 0.0730 0.0850 0.1090 0.1430 0.1860
6.939030 0.2350 0.2860 0.3360 0.3830 0.4230
6.973000 0.4500 0.4690 0.4880 0.5080 0.5250
7.007030 0.5400 0.5510 0.5590 0.5630 0.5640
7.041000 0.5610 0.5400 0.5110 0.4890 0.4670
7.075030 0.4590 0.4590 0.4700 0.5200 0.5580
7.109000 0.5780 0.5810 0.5810 0.5760 0.5560
7.143030 0.5350 0.5250 0.5220 0.5250 0.5230
7.177000 0.5220 0.5150 0.4890 0.4530 0.3940
7.211030 0.3340 0.2830 0.2090 0.1700 0.1680
7.245000 0.1700 0.1870 0.2090 0.2620 0.3070
7.279030 0.3460 0.3780 0.4060 0.4300 0.4480
7.313000 0.4650 0.4810 0.5030 0.5080 0.5100
7.347030 0.5000 0.4620 0.4240 0.3900 0.3610
7.381000 0.3460 0.3390 0.3370 0.3310 0.3340
7.415030 0.3360 0.3340 0.3320 0.3270 0.3190
7.449000 0.3050 0.2930 0.2570 0.2160 0.1960
7.483030 0.1910 0.1910 0.1990 0.2200 0.2450
7.517000 0.2660 0.3020 0.3220 0.3340 0.3390
7.551030 0.3460 0.3510 0.3560 0.3680 0.3890
7.585000 0.4010 0.3970 0.3820 0.3480 0.3000
7.619030 0.2420 0.1860 0.1650 0.1620 0.1620
7.653000 0.1550 0.1500 0.1360 0.1240 0.1140
7.687030 0.1100 0.1090 0.1120 0.1260 0.1410
7.721000 0.1620 0.1920 0.2260 0.2660 0.3070
7.755030 0.3440 0.3750 0.3990 0.4110 0.4330
7.789000 0.4530 0.4760 0.4980 0.5150 0.5270
7.823030 0.5390 0.5540 0.5710 0.5880 0.6040
7.857000 0.6190 0.6290 0.6360 0.6460 0.6500
7.891030 0.6510 0.6500 0.6390 0.6240 0.5980
7.925000 0.5630 0.5200 0.4640 0.3990 0.3190
7.959030 0.2160 0.1450 0.0930 0.0510 0.0420
7.993000 0.0400 0.0440 0.0780 0.0850 0.0930
8.027030 0.1100 0.1500 0.1870 0.2210 0.2500
8.061000 0.2710 0.2740 0.2760 0.2710 0.2500
8.095030 0.2210 0.2040 0.1860 0.1820 0.1870
8.129000 0.2080 0.2400 0.2710 0.3070 0.3460
8.163030 0.3800 0.4010 0.4190 0.4240 0.4240
8.197000 0.4210 0.3890 0.3650 0.3430 0.3390
8.231030 0.3390 0.3510 0.4040 0.4470 0.4820
8.265000 0.5100 0.5340 0.5510 0.5680 0.5810
8.299030 0.5930 0.5980 0.6050 0.6160 0.6270
8.333000 0.6410 0.6550 0.6650 0.6720 0.6790
8.367030 0.6790 0.6790 0.6700 0.6480 0.6340
8.401000 0.6160 0.6120 0.6120 0.6120 0.6120
8.435030 0.6120 0.6120 0.6120 0.6120 0.6140
8.469000 0.6220 0.6290 0.6380 0.6460 0.6970
8.503030 0.7150 0.7280 0.7400 0.7470 0.7540
8.537000 0.7610 0.7690 0.7760 0.7830 0.7910
8.571030 0.8000 0.8000 0.8000 0.7910 0.7760
8.605000 0.7590 0.7320 0.6940 0.6480 0.5900
8.639030 0.5180 0.4360 0.3410 0.2300 0.1560
8.673000 0.1140 0.1120 0.1210 0.1550 0.2010
8.707030 0.2550 0.3170 0.3820 0.4480 0.5110
8.741000 0.5690 0.6210 0.6600 0.6840 0.7010
8.775030 0.7160 0.7320 0.7440 0.7550 0.7660
8.810000 0.7760 0.7810 0.7880 0.7910 0.7950
8.844030 0.7960 0.7960 0.7980 0.8000 0.8000
8.878000 0.8000 0.7930 0.7860 0.7740 0.7500
8.912030 0.7110 0.6650 0.6210 0.5950 0.5920
8.946000 0.5920 0.6000 0.6390 0.6800 0.6890
8.980030 0.6890 0.6460 0.5870 0.5350 0.4480
9.014000 0.3890 0.3900 0.4310 0.5250 0.6120
9.048030 0.6720 0.7040 0.7160 0.7280 0.7370
9.082000 0.7470 0.7570 0.7760 0.7860 0.7930
9.116030 0.8000 0.8020 0.8050 0.8080 0.8100
9.150000 0.8120 0.8120 0.8130 0.8130 0.8190
9.184030 0.8190 0.8200 0.8200 0.8190 0.8190
9.218000 0.8190 0.8190 0.8200 0.8220 0.8240
9.252030 0.8250 0.8270 0.8290 0.8270 0.8270
9.286000 0.8250 0.8220 0.8200 0.8120 0.8050
9.320030 0.8000 0.7910 0.7840 0.7780 0.7740
9.354000 0.7730 0.7740 0.7830 0.7880 0.7930
9.388030 0.8000 0.8000 0.8020 0.8000 0.7840
9.422000 0.7710 0.7440 0.7010 0.6500 0.5970
9.456030 0.5490 0.4910 0.4330 0.3820 0.3490
9.490000 0.3430 0.3430 0.3510 0.3920 0.4280
9.524030 0.4720 0.5100 0.5580 0.6070 0.6460
9.558000 0.6820 0.7110 0.7350 0.7540 0.7620
9.592030 0.7730 0.7840 0.7950 0.8000 0.7930
9.626000 0.7860 0.7740 0.7540 0.7300 0.7060
9.660030 0.6820 0.6510 0.6140 0.5750 0.5400
9.694000 0.4650 0.4040 0.3290 0.3150 0.3130
9.728030 0.3310 0.3920 0.4670 0.5300 0.5870
9.762000 0.6310 0.6700 0.6990 0.7230 0.7420
9.796030 0.7520 0.7670 0.7740 0.7810 0.7860
9.830000 0.7880 0.7900 0.8000 0.8000 0.8000
9.864030 0.8000 0.8000 0.7930 0.7900 0.7880
9.898000 0.7810 0.7670 0.7550 0.7380 0.7210
9.932030 0.6960 0.6650 0.6360 0.5930 0.5610
9.966000 0.5340 0.5170 0.5010 0.5010 0.5110
10.000030 0.5220 0.5440 0.5750 0.6070 0.6460
10.034000 0.6720 0.7010 0.7300 0.7470 0.7670
10.068030 0.7910 0.8020 0.8050 0.8120 0.8170
10.102000 0.8190 0.8120 0.8100 0.8050 0.8020
10.136030 0.8000 0.8000 0.8020 0.8130 0.8240
10.170000 0.8310 0.8390 0.8480 0.8580 0.8650
10.204030 0.8660 0.8680 0.8680 0.8700 0.8700
10.238000 0.8720 0.8730 0.8770 0.8780 0.8800
10.272030 0.8800 0.8820 0.8830 0.8870 0.8870
10.306000 0.8890 0.8890 0.8890 0.8870 0.8870
10.340030 0.8870 0.8890 0.8890 0.8900 0.8890
10.374000 0.8890 0.8830 0.8770 0.8630 0.8440
10.408030 0.8200 0.7910 0.7590 0.7260 0.6970
10.442000 0.6700 0.6480 0.6330 0.6070 0.5930
10.476030 0.5880 0.5880 0.5920 0.6070 0.6380
10.510000 0.6790 0.7130 0.7440 0.7670 0.7880
10.544030 0.8070 0.8200 0.8340 0.8460 0.8560
10.578000 0.8630 0.8660 0.8720 0.8770 0.8830
10.612030 0.8870 0.8900 0.8940 0.8970 0.9010
10.646000 0.9020 0.9060 0.9070 0.9090 0.9090
10.680030 0.9090 0.9090 0.9110 0.9110 0.9110
10.714000 0.9110 0.9120 0.9120 0.9140 0.9180
10.748030 0.9210 0.9240 0.9240 0.9230 0.9230
10.782000 0.9210 0.9230 0.9240 0.9260 0.9280
10.816030 0.9280 0.9280 0.9300 0.9300 0.9280
10.850000 0.9300 0.9310 0.9310 0.9330 0.9330
10.884030 0.9330 0.9310 0.9310 0.9310 0.9310
10.918000 0.9310 0.9310 0.9310 0.9310 0.9310
10.952030 0.9300 0.9300 0.9300 0.9300 0.9280
10.986000 0.9260 0.9190 0.9140 0.9020 0.8890
11.020030 0.8720 0.8580 0.8480 0.8360 0.8250
11.054000 0.8190 0.8120 0.8100 0.8120 0.8200
11.088030 0.8250 0.8360 0.8490 0.8630 0.8700
11.122000 0.8770 0.8830 0.8900 0.8940 0.8990
11.156030 0.9020 0.9040 0.9060 0.9090 0.9090
11.190000 0.9110 0.9120 0.9140 0.9160 0.9160
11.224030 0.9180 0.9190 0.9230 0.9260 0.9300
11.259000 0.9310 0.9330 0.9330 0.9350 0.9350
11.293030 0.9330 0.9300 0.9230 0.9190 0.9110
11.327000 0.9040 0.8950 0.8770 0.8560 0.8360
11.361030 0.8030 0.7640 0.7210 0.6790 0.6380
11.395000 0.6050 0.5800 0.5680 0.5630 0.5610
11.429030 0.5610 0.5580 0.5520 0.5440 0.5300
11.463000 0.5200 0.5170 0.5170 0.5220 0.5390
11.497030 0.5590 0.5900 0.6090 0.6310 0.6430
11.531000 0.6480 0.6480 0.6480 0.6270 0.6170
11.565030 0.6090 0.6000 0.5870 0.5850 0.5880
11.599000 0.6160 0.6290 0.6430 0.6550 0.6920
11.633030 0.7260 0.7540 0.7780 0.7960 0.8050
11.667000 0.8190 0.8200 0.8220 0.8240 0.8270
11.701030 0.8270 0.8290 0.8290 0.8290 0.8270
11.735000 0.8130 0.8020 0.7880 0.7660 0.7440
11.769030 0.7160 0.6910 0.6630 0.6430 0.6120
11.803000 0.6100 0.6120 0.6170 0.6290 0.6450
11.837030 0.6650 0.6750 0.6960 0.7110 0.7200
11.871000 0.7300 0.7370 0.7450 0.7520 0.7590
11.905030 0.7640 0.7670 0.7690 0.7760 0.7830
11.939000 0.7840 0.7840 0.7830 0.7790 0.7710
11.973030 0.7590 0.7490 0.7210 0.6920 0.6630
12.007000 0.6330 0.6040 0.5710 0.5390 0.5050
12.041030 0.4700 0.4350 0.3990 0.3600 0.3240
12.075000 0.2910 0.2670 0.2450 0.2280 0.2130
12.109030 0.2030 0.1990 0.1920 0.1890 0.1820
12.143000 0.1800 0.1820 0.1870 0.1920 0.1990
12.177030 0.2080 0.2160 0.2260 0.2350 0.2470
12.211000 0.2570 0.2670 0.2810 0.3000 0.3250
12.245030 0.3600 0.3850 0.4040 0.4240 0.4430
12.279000 0.4550 0.4690 0.4700 0.4690 0.4550
12.313030 0.4410 0.4160 0.3850 0.3440 0.3000
12.347000 0.2610 0.2260 0.2180 0.2160 0.2160
12.381030 0.2210 0.2330 0.2450 0.2610 0.2810
12.415000 0.3030 0.3310 0.3580 0.3830 0.4040
12.449030 0.4260 0.4520 0.4720 0.4890 0.4980
12.483000 0.5010 0.5050 0.5060 0.5080 0.5100
12.517030 0.5130 0.5200 0.5250 0.5320 0.5420
12.551000 0.5560 0.5730 0.5920 0.6090 0.6220
12.585030 0.6340 0.6410 0.6550 0.6680 0.6790
12.619000 0.6870 0.6960 0.7040 0.7160 0.7260
12.653030 0.7380 0.7490 0.7590 0.7670 0.7780
12.687000 0.7860 0.7950 0.8000 0.8050 0.8150
12.721030 0.8220 0.8290 0.8390 0.8440 0.8490
12.755000 0.8530 0.8560 0.8600 0.8610 0.8610
12.789030 0.8610 0.8610 0.8610 0.8600 0.8580
12.823000 0.8530 0.8410 0.8320 0.8250 0.8070
12.857030 0.7960 0.7830 0.7610 0.7320 0.6990
12.891000 0.6550 0.6190 0.5730 0.5220 0.4670
12.925030 0.4110 0.3530 0.2950 0.2400 0.1890
12.959000 0.1650 0.1500 0.1460 0.1460 0.1500
12.993030 0.1580 0.1680 0.1800 0.1920 0.1990
13.027000 0.2040 0.2160 0.2300 0.2400 0.2540
13.061030 0.2670 0.2810 0.2910 0.3050 0.3150
13.095000 0.3240 0.3320 0.3370 0.3390 0.3410
13.129030 0.3430 0.3440 0.3460 0.3480 0.3480
13.163000 0.3440 0.3390 0.3340 0.3310 0.3290
13.197030 0.3240 0.3200 0.3130 0.3080 0.3000
13.231000 0.2930 0.2840 0.2790 0.2710 0.2660
13.265030 0.2590 0.2470 0.2380 0.2300 0.2200
13.299000 0.2090 0.2080 0.2030 0.1990 0.1890
13.333030 0.1800 0.1770 0.1740 0.1720 0.1720
13.367000 0.1720 0.1720 0.1720 0.1720 0.1740
13.401030 0.1740 0.1770 0.1800 0.1840 0.1860
13.435000 0.1920 0.1970 0.1990 0.2040 0.2130
13.469030 0.2180 0.2230 0.2300 0.2330 0.2380
13.503000 0.2450 0.2520 0.2570 0.2610 0.2690
13.537030 0.2810 0.2900 0.2980 0.3050 0.3190
13.571000 0.3290 0.3410 0.3480 0.3540 0.3610
13.605030 0.3700 0.3830 0.3950 0.4020 0.4120
13.639000 0.4230 0.4350 0.4470 0.4590 0.4690
13.673030 0.4790 0.4880 0.4960 0.5050 0.5150
13.707000 0.5250 0.5340 0.5390 0.5510 0.5560
13.741030 0.5660 0.5730 0.5800 0.5870 0.5930
13.776000 0.6000 0.6070 0.6140 0.6210 0.6270
13.810030 0.6340 0.6390 0.6460 0.6510 0.6560
13.844000 0.6620 0.6650 0.6680 0.6700 0.6720
13.878030 0.6750 0.6790 0.6820 0.6870 0.6910
13.912000 0.6960 0.6990 0.7010 0.7040 0.7110
13.946030 0.7150 0.7180 0.7200 0.7210 0.7210
13.980000 0.7200 0.7150 0.6990 0.6870 0.6530
14.014030 0.6220 0.5930 0.5660 0.5400 0.5130
14.048000 0.4820 0.4520 0.4160 0.3970 0.3770
14.082030 0.3680 0.3680 0.3730 0.3820 0.4010
14.116000 0.4280 0.4550 0.4810 0.5000 0.5230
14.150030 0.5440 0.5610 0.5760 0.5920 0.6040
14.184000 0.6170 0.6270 0.6390 0.6500 0.6580
14.218030 0.6740 0.6770 0.6820 0.6890 0.6920
14.252000 0.7010 0.7040 0.7110 0.7150 0.7180
14.286030 0.7210 0.7260 0.7300 0.7320 0.7330
14.320000 0.7350 0.7370 0.7400 0.7440 0.7440
14.354030 0.7450 0.7470 0.7470 0.7490 0.7500
14.388000 0.7520 0.7540 0.7550 0.7570 0.7590
14.422030 0.7590 0.7590 0.7610 0.7620 0.7620
14.456000 0.7640 0.7640 0.7660 0.7690 0.7730
14.490030 0.7790 0.7790 0.7790 0.7790 0.7790
14.524000 0.7780 0.7780 0.7780 0.7790 0.7790
14.558030 0.7790 0.7790 0.7790 0.7790 0.7780
14.592000 0.7760 0.7760 0.7760 0.7780 0.7780
14.626030 0.7790 0.7790 0.7830 0.7880 0.7880
14.660000 0.7860 0.7840 0.7840 0.7830 0.7830
14.694030 0.7810 0.7810 0.7790 0.7740 0.7710
14.728000 0.7640 0.7590 0.7540 0.7490 0.7400
14.762030 0.7350 0.7260 0.7160 0.7060 0.6960
14.796000 0.6820 0.6580 0.6380 0.6190 0.6020
14.830030 0.5880 0.5730 0.5590 0.5420 0.5250
14.864000 0.5050 0.4940 0.4810 0.4700 0.4570
14.898030 0.4500 0.4410 0.4330 0.4240 0.4210
14.932000 0.4120 0.4060 0.4020 0.4020 0.4010
14.966030 0.4010 0.4010 0.4010 0.4010 0.4010
15.000000 0.4020 0.4040 0.4040 0.4070 0.4090
15.034030 0.4110 0.4190 0.4280 0.4410 0.4550
15.068000 0.4740 0.4910 0.5100 0.5290 0.5470
15.102030 0.5610 0.5760 0.5870 0.5970 0.6050
15.136000 0.6160 0.6240 0.6330 0.6380 0.6390
15.170030 0.6410 0.6450 0.6500 0.6510 0.6510
15.204000 0.6530 0.6550 0.6550 0.6560 0.6560
15.238030 0.6580 0.6600 0.6620 0.6630 0.6650
15.272000 0.6670 0.6670 0.6680 0.6680 0.6670
15.306030 0.6670 0.6650 0.6630 0.6630 0.6630
15.340000 0.6630 0.6630 0.6620 0.6620 0.6620
15.374030 0.6600 0.6600 0.6580 0.6550 0.6550
15.408000 0.6530 0.6510 0.6500 0.6480 0.6480
15.442030 0.6450 0.6450 0.6430 0.6410 0.6390
15.476000 0.6380 0.6340 0.6330 0.6330 0.6330
15.510030 0.6330 0.6330 0.6310 0.6310 0.6310
15.544000 0.6310 0.6290 0.6290 0.6240 0.6240
15.578030 0.6220 0.6210 0.6190 0.6170 0.6170
15.612000 0.6140 0.6140 0.6140 0.6120 0.6120
15.646030 0.6100 0.6090 0.6040 0.6000 0.5970
15.680000 0.5920 0.5900 0.5880 0.5830 0.5800
15.714030 0.5730 0.5710 0.5690 0.5680 0.5630
15.748000 0.5590 0.5520 0.5510 0.5470 0.5420
15.782030 0.5400 0.5400 0.5400 0.5390 0.5390
15.816000 0.5370 0.5350 0.5340 0.5320 0.5320
15.850030 0.5320 0.5340 0.5350 0.5350 0.5340
15.884000 0.5320 0.5320 0.5320 0.5300 0.5290
15.918030 0.5270 0.5230 0.5220 0.5200 0.5200
15.952000 0.5200 0.5180 0.5180 0.5170 0.5170
15.986030 0.5170 0.5170 0.5150
##END=
