##TITLE=L-9(3-DIMETHYLAMINOPROPYL) 10-METHYL-2-TRIFLUOROMETHYL-9,10-DIHYDROANTHRACENE, HYDROCHLORIDE
##JCAMP-DX=4.24
##DATA TYPE=INFRARED SPECTRUM
##CLASS=COBLENTZ III
##ORIGIN=SMITH KLINE & FRENCH LABS.
##OWNER=COBLENTZ SOCIETY
Collection (C) 2018 copyright by the U.S. Secretary of Commerce
on behalf of the United States of America. All rights reserved.
##DATE=1969/05/26
##NAMES=N,N-dimethyl-3-[10-methyl-2-(trifluoromethyl)-9,10-dihydro-9-anthracenyl]-1-propanamine hydrochloride
##MOLFORM=C21 H25 Cl F3 N
##SOURCE REFERENCE=COBLENTZ NO. 9143
##$NIST ID=B6009143
##$NIST SOURCE=COBLENTZ
##$NIST IMAGE=cob9143
##SPECTROMETER/DATA SYSTEM=Not specified, most likely a prism spectrometer.
##INSTRUMENT PARAMETERS=NaCl PRISM
##STATE=SOLID (OIL MULL)
$$SPECTRAL CONTAMINATION DUE TO OIL AROUND 2900, 1450, 1380 CM^-^1
##SAMPLING PROCEDURE=TRANSMISSION
##RESOLUTION=2
##DATA PROCESSING=DIGITIZED BY NIST FROM HARD COPY
##XUNITS=MICROMETERS
##YUNITS=TRANSMITTANCE
##XFACTOR=1.000000
##YFACTOR=1
##DELTAX=000.004827
##FIRSTX=2.165
##LASTX=15.0965
##FIRSTY=0.692
##MAXX=15.0965
##MINX=2.165
##MAXY=0.923
##MINY=0.076
##NPOINTS=2680
##XYDATA=(X++(Y..Y))
2.165000 0.6920 0.6920 0.6920 0.6920 0.6920
2.189144 0.6920 0.6920 0.6920 0.6930 0.6930
2.213000 0.6930 0.6930 0.6930 0.6930 0.6930
2.237144 0.6930 0.6930 0.6930 0.6930 0.6930
2.261000 0.6930 0.6930 0.6930 0.6930 0.6930
2.285144 0.6930 0.6930 0.6920 0.6930 0.6930
2.310000 0.6930 0.6930 0.6910 0.6910 0.6910
2.334144 0.6910 0.6920 0.6930 0.6940 0.6950
2.358000 0.6970 0.6980 0.6990 0.6990 0.7000
2.382144 0.7010 0.7010 0.7010 0.7030 0.7030
2.406000 0.7050 0.7050 0.7070 0.7090 0.7100
2.430144 0.7100 0.7110 0.7110 0.7100 0.7100
2.455000 0.7110 0.7120 0.7130 0.7130 0.7160
2.479144 0.7160 0.7170 0.7180 0.7210 0.7240
2.503000 0.7250 0.7270 0.7280 0.7290 0.7310
2.527144 0.7350 0.7400 0.7430 0.7450 0.7450
2.551000 0.7450 0.7450 0.7450 0.7450 0.7450
2.575144 0.7430 0.7430 0.7430 0.7430 0.7450
2.599000 0.7460 0.7460 0.7470 0.7470 0.7470
2.623144 0.7500 0.7510 0.7520 0.7530 0.7540
2.648000 0.7560 0.7560 0.7570 0.7590 0.7590
2.672144 0.7590 0.7590 0.7590 0.7590 0.7590
2.696000 0.7590 0.7600 0.7600 0.7620 0.7620
2.720144 0.7630 0.7640 0.7650 0.7650 0.7660
2.744000 0.7680 0.7680 0.7690 0.7690 0.7700
2.768144 0.7700 0.7700 0.7700 0.7700 0.7700
2.792000 0.7700 0.7700 0.7700 0.7700 0.7700
2.816144 0.7700 0.7700 0.7690 0.7690 0.7680
2.841000 0.7650 0.7630 0.7620 0.7620 0.7590
2.865144 0.7580 0.7540 0.7520 0.7500 0.7480
2.889000 0.7450 0.7410 0.7370 0.7360 0.7340
2.913144 0.7340 0.7340 0.7340 0.7340 0.7340
2.937000 0.7330 0.7330 0.7310 0.7300 0.7290
2.961144 0.7270 0.7270 0.7250 0.7250 0.7250
2.986000 0.7250 0.7240 0.7240 0.7240 0.7240
3.010144 0.7240 0.7230 0.7230 0.7230 0.7230
3.034000 0.7230 0.7230 0.7230 0.7230 0.7230
3.058144 0.7230 0.7230 0.7230 0.7250 0.7250
3.082000 0.7270 0.7270 0.7270 0.7270 0.7280
3.106144 0.7280 0.7290 0.7300 0.7310 0.7330
3.130000 0.7330 0.7330 0.7340 0.7340 0.7330
3.154144 0.7330 0.7330 0.7330 0.7330 0.7330
3.179000 0.7300 0.7290 0.7270 0.7270 0.7250
3.203144 0.7250 0.7240 0.7240 0.7230 0.7230
3.227000 0.7210 0.7190 0.7160 0.7120 0.7090
3.251144 0.7030 0.6950 0.6870 0.6770 0.6650
3.275000 0.6590 0.6530 0.6500 0.6460 0.6440
3.299144 0.6400 0.6370 0.6310 0.6230 0.6140
3.323000 0.6020 0.5740 0.5620 0.5490 0.5330
3.347144 0.5180 0.5010 0.4840 0.4660 0.4480
3.372000 0.4300 0.4120 0.3760 0.3580 0.3410
3.396144 0.3240 0.3100 0.2940 0.2810 0.2690
3.420000 0.2580 0.2480 0.2410 0.2350 0.2240
3.444144 0.2170 0.2110 0.2060 0.2040 0.2030
3.468000 0.2000 0.1910 0.1890 0.1870 0.1830
3.492144 0.1810 0.1800 0.1800 0.1790 0.1800
3.516000 0.1830 0.1910 0.1990 0.2010 0.2040
3.540144 0.2130 0.2270 0.2450 0.2650 0.2880
3.565000 0.3130 0.3410 0.3680 0.3960 0.4110
3.589144 0.4240 0.4470 0.4550 0.4660 0.4790
3.613000 0.4870 0.4910 0.4970 0.5060 0.5140
3.637144 0.5240 0.5330 0.5420 0.5500 0.5550
3.661000 0.5570 0.5580 0.5610 0.5670 0.5700
3.685144 0.5730 0.5730 0.5730 0.5730 0.5730
3.710000 0.5720 0.5700 0.5690 0.5660 0.5640
3.734144 0.5630 0.5610 0.5570 0.5570 0.5560
3.758000 0.5540 0.5510 0.5490 0.5400 0.5360
3.782144 0.5320 0.5270 0.5250 0.5210 0.5180
3.806000 0.5150 0.5100 0.5060 0.5000 0.4930
3.830144 0.4870 0.4830 0.4780 0.4730 0.4680
3.854000 0.4620 0.4570 0.4510 0.4450 0.4380
3.878144 0.4300 0.4210 0.4120 0.4000 0.4000
3.903000 0.3900 0.3850 0.3830 0.3820 0.3810
3.927144 0.3810 0.3790 0.3790 0.3790 0.3780
3.951000 0.3770 0.3750 0.3720 0.3700 0.3670
3.975144 0.3640 0.3610 0.3590 0.3550 0.3530
3.999000 0.3500 0.3470 0.3440 0.3420 0.3400
4.023144 0.3380 0.3360 0.3340 0.3300 0.3250
4.047000 0.3180 0.3120 0.3060 0.3000 0.2960
4.071144 0.2930 0.2920 0.2900 0.2900 0.2880
4.096000 0.2870 0.2860 0.2860 0.2860 0.2860
4.120144 0.2840 0.2840 0.2840 0.2840 0.2860
4.144000 0.2870 0.2870 0.2880 0.2890 0.2890
4.168144 0.2920 0.2940 0.2990 0.3060 0.3110
4.192000 0.3110 0.3120 0.3130 0.3130 0.3140
4.216144 0.3170 0.3190 0.3230 0.3250 0.3300
4.241000 0.3340 0.3370 0.3400 0.3410 0.3420
4.265144 0.3440 0.3470 0.3520 0.3560 0.3620
4.289000 0.3700 0.3780 0.3870 0.3950 0.4000
4.313144 0.4050 0.4150 0.4250 0.4370 0.4480
4.337000 0.4600 0.4720 0.4840 0.4960 0.5090
4.361144 0.5220 0.5340 0.5480 0.5610 0.5730
4.385000 0.5860 0.5980 0.6040 0.6100 0.6220
4.409144 0.6330 0.6440 0.6490 0.6510 0.6530
4.434000 0.6560 0.6610 0.6670 0.6750 0.6800
4.458144 0.6860 0.6930 0.7000 0.7090 0.7150
4.482000 0.7180 0.7210 0.7230 0.7240 0.7250
4.506144 0.7270 0.7290 0.7310 0.7340 0.7390
4.530000 0.7430 0.7500 0.7540 0.7570 0.7580
4.554144 0.7590 0.7640 0.7650 0.7650 0.7650
4.578000 0.7640 0.7650 0.7660 0.7690 0.7740
4.602144 0.7770 0.7800 0.7860 0.7920 0.7940
4.627000 0.7960 0.7980 0.7990 0.8000 0.8060
4.651144 0.8110 0.8130 0.8140 0.8140 0.8160
4.675000 0.8160 0.8160 0.8170 0.8170 0.8190
4.699144 0.8220 0.8230 0.8240 0.8250 0.8250
4.723000 0.8260 0.8280 0.8300 0.8310 0.8340
4.747144 0.8350 0.8350 0.8360 0.8370 0.8400
4.772000 0.8410 0.8430 0.8460 0.8480 0.8500
4.796144 0.8540 0.8560 0.8590 0.8610 0.8620
4.820000 0.8640 0.8650 0.8660 0.8660 0.8670
4.844144 0.8670 0.8670 0.8670 0.8670 0.8670
4.868000 0.8670 0.8670 0.8670 0.8680 0.8700
4.892144 0.8710 0.8720 0.8720 0.8730 0.8750
4.916000 0.8760 0.8760 0.8760 0.8760 0.8750
4.940144 0.8760 0.8760 0.8750 0.8750 0.8750
4.965000 0.8770 0.8770 0.8780 0.8810 0.8810
4.989144 0.8810 0.8810 0.8820 0.8830 0.8840
5.013000 0.8850 0.8870 0.8880 0.8900 0.8910
5.037144 0.8930 0.8910 0.8910 0.8930 0.8910
5.061000 0.8910 0.8910 0.8910 0.8910 0.8910
5.085144 0.8940 0.8940 0.8950 0.8970 0.8990
5.109000 0.8990 0.9000 0.9000 0.9000 0.9000
5.133144 0.9000 0.9000 0.9000 0.8990 0.8950
5.158000 0.8940 0.8940 0.8940 0.8950 0.8940
5.182144 0.8940 0.8940 0.8930 0.8910 0.8890
5.206000 0.8880 0.8870 0.8870 0.8870 0.8870
5.230144 0.8870 0.8890 0.8890 0.8900 0.8900
5.254000 0.8900 0.8900 0.8900 0.8900 0.8900
5.278144 0.8900 0.8900 0.8910 0.8910 0.8910
5.302000 0.8910 0.8910 0.8910 0.8910 0.8940
5.326144 0.8950 0.8950 0.8970 0.9000 0.9000
5.351000 0.9000 0.9010 0.9010 0.9010 0.9010
5.375144 0.9020 0.9020 0.9020 0.9020 0.9030
5.399000 0.9030 0.9030 0.9030 0.9050 0.9050
5.423144 0.9050 0.9050 0.9050 0.9050 0.9050
5.447000 0.9050 0.9050 0.9050 0.9050 0.9050
5.471144 0.9050 0.9050 0.9050 0.9060 0.9070
5.496000 0.9070 0.9070 0.9080 0.9080 0.9080
5.520144 0.9090 0.9090 0.9090 0.9110 0.9120
5.544000 0.9120 0.9120 0.9120 0.9130 0.9130
5.568144 0.9130 0.9130 0.9130 0.9130 0.9130
5.592000 0.9130 0.9130 0.9130 0.9130 0.9130
5.616144 0.9130 0.9130 0.9130 0.9130 0.9130
5.640000 0.9130 0.9140 0.9150 0.9170 0.9170
5.664144 0.9170 0.9180 0.9180 0.9180 0.9180
5.689000 0.9170 0.9170 0.9170 0.9170 0.9170
5.713144 0.9170 0.9170 0.9170 0.9170 0.9170
5.737000 0.9170 0.9170 0.9170 0.9150 0.9150
5.761144 0.9140 0.9140 0.9140 0.9130 0.9130
5.785000 0.9120 0.9120 0.9110 0.9110 0.9090
5.809144 0.9070 0.9070 0.9060 0.9060 0.9050
5.833000 0.9050 0.9050 0.9030 0.9030 0.9020
5.857144 0.9020 0.9020 0.9020 0.9010 0.9020
5.882000 0.9020 0.9030 0.9050 0.9060 0.9060
5.906144 0.9060 0.9060 0.9060 0.9020 0.8990
5.930000 0.8970 0.8950 0.8950 0.8940 0.8930
5.954144 0.8930 0.8910 0.8900 0.8900 0.8890
5.978000 0.8880 0.8880 0.8880 0.8880 0.8880
6.002144 0.8880 0.8870 0.8880 0.8880 0.8870
6.027000 0.8870 0.8870 0.8850 0.8850 0.8850
6.051144 0.8850 0.8850 0.8850 0.8840 0.8840
6.075000 0.8840 0.8830 0.8820 0.8820 0.8790
6.099144 0.8780 0.8760 0.8730 0.8700 0.8670
6.123000 0.8640 0.8600 0.8540 0.8480 0.8410
6.147144 0.8310 0.8280 0.8240 0.8200 0.8170
6.171000 0.8140 0.8130 0.8130 0.8130 0.8130
6.195144 0.8130 0.8130 0.8130 0.8160 0.8180
6.220000 0.8200 0.8220 0.8230 0.8250 0.8260
6.244144 0.8290 0.8300 0.8300 0.8310 0.8310
6.268000 0.8340 0.8350 0.8360 0.8370 0.8400
6.292144 0.8410 0.8430 0.8470 0.8470 0.8440
6.316000 0.8420 0.8410 0.8380 0.8360 0.8320
6.340144 0.8300 0.8280 0.8240 0.8240 0.8240
6.364000 0.8260 0.8280 0.8320 0.8350 0.8370
6.388144 0.8410 0.8420 0.8410 0.8380 0.8370
6.413000 0.8400 0.8420 0.8430 0.8430 0.8460
6.437144 0.8470 0.8480 0.8490 0.8500 0.8520
6.461000 0.8530 0.8530 0.8550 0.8580 0.8610
6.485144 0.8620 0.8640 0.8650 0.8660 0.8660
6.509000 0.8660 0.8660 0.8650 0.8650 0.8650
6.533144 0.8650 0.8650 0.8650 0.8650 0.8650
6.558000 0.8650 0.8640 0.8640 0.8620 0.8610
6.582144 0.8610 0.8600 0.8590 0.8590 0.8580
6.606000 0.8560 0.8550 0.8540 0.8520 0.8500
6.630144 0.8470 0.8420 0.8370 0.8300 0.8200
6.654000 0.8160 0.8070 0.7810 0.7650 0.7480
6.678144 0.7170 0.6860 0.6550 0.6330 0.6110
6.702000 0.5740 0.5570 0.5370 0.5160 0.4960
6.726144 0.4750 0.4560 0.4540 0.4350 0.4240
6.751000 0.4130 0.4120 0.4070 0.4060 0.3930
6.775144 0.3900 0.3790 0.3660 0.3520 0.3340
6.799000 0.3140 0.2930 0.2780 0.2680 0.2620
6.823144 0.2560 0.2510 0.2430 0.2410 0.2360
6.847000 0.2310 0.2270 0.2250 0.2230 0.2210
6.871144 0.2180 0.2160 0.2160 0.2090 0.2060
6.895000 0.2040 0.2060 0.2210 0.2390 0.2470
6.919144 0.2520 0.2570 0.2650 0.2690 0.2720
6.944000 0.2750 0.2760 0.2830 0.2960 0.3070
6.968144 0.3170 0.3260 0.3340 0.3340 0.3320
6.992000 0.3220 0.3170 0.3130 0.3100 0.3060
7.016144 0.3060 0.3080 0.3300 0.3370 0.3520
7.040000 0.3730 0.3990 0.4140 0.4290 0.4610
7.064144 0.4930 0.5240 0.5520 0.5760 0.5940
7.088000 0.5990 0.6040 0.6050 0.6170 0.6310
7.112144 0.6400 0.6490 0.6570 0.6690 0.6770
7.137000 0.6820 0.6830 0.6830 0.6820 0.6760
7.161144 0.6750 0.6740 0.6710 0.6700 0.6680
7.185000 0.6650 0.6580 0.6460 0.6380 0.6370
7.209144 0.6180 0.5980 0.5480 0.5240 0.5060
7.233000 0.4870 0.4690 0.4500 0.4090 0.4050
7.257144 0.4000 0.3940 0.3930 0.3940 0.3950
7.282000 0.3990 0.4010 0.4020 0.4070 0.4110
7.306144 0.4510 0.4610 0.4710 0.4800 0.4900
7.330000 0.5000 0.5090 0.5150 0.5580 0.5620
7.354144 0.5630 0.5640 0.5670 0.5670 0.5640
7.378000 0.5630 0.5620 0.5610 0.5570 0.5540
7.402144 0.5480 0.5390 0.5270 0.5140 0.5000
7.426000 0.4810 0.4620 0.4420 0.4200 0.3710
7.450144 0.3600 0.3460 0.3280 0.3080 0.2870
7.475000 0.2630 0.2400 0.2160 0.1700 0.1510
7.499144 0.1330 0.1180 0.1080 0.1000 0.0860
7.523000 0.0800 0.0760 0.0780 0.0810 0.0880
7.547144 0.0960 0.1040 0.1110 0.1160 0.1490
7.571000 0.1740 0.1980 0.2100 0.2210 0.2430
7.595144 0.2640 0.2830 0.3010 0.3170 0.3300
7.619000 0.3420 0.3520 0.3580 0.3610 0.3640
7.643144 0.3650 0.3660 0.3670 0.3700 0.3730
7.668000 0.3790 0.3870 0.3940 0.4010 0.4150
7.692144 0.4300 0.4430 0.4570 0.4720 0.4850
7.716000 0.4980 0.5130 0.5250 0.5380 0.5500
7.740144 0.5550 0.5630 0.5670 0.5690 0.5700
7.764000 0.5690 0.5680 0.5680 0.5660 0.5510
7.788144 0.5360 0.5130 0.5060 0.5020 0.4970
7.813000 0.4970 0.4970 0.4980 0.5130 0.5280
7.837144 0.5460 0.5700 0.5860 0.6020 0.6400
7.861000 0.6880 0.7050 0.7120 0.7170 0.7170
7.885144 0.7190 0.7220 0.7220 0.7230 0.7230
7.909000 0.7220 0.7220 0.7190 0.7170 0.7120
7.933144 0.7060 0.6990 0.6930 0.6880 0.6850
7.957000 0.6770 0.6760 0.6790 0.7010 0.7090
7.981144 0.7130 0.7180 0.7230 0.7310 0.7450
8.006000 0.7650 0.7680 0.7690 0.7720 0.7740
8.030144 0.7770 0.7810 0.7820 0.7820 0.7830
8.054000 0.7840 0.7840 0.7840 0.7830 0.7810
8.078144 0.7780 0.7770 0.7760 0.7750 0.7740
8.102000 0.7710 0.7690 0.7630 0.7620 0.7600
8.126144 0.7580 0.7580 0.7580 0.7580 0.7570
8.150000 0.7590 0.7630 0.7680 0.7700 0.7740
8.174144 0.7760 0.7780 0.7800 0.7800 0.7810
8.199000 0.7800 0.7780 0.7750 0.7710 0.7700
8.223144 0.7680 0.7640 0.7620 0.7570 0.7530
8.247000 0.7480 0.7430 0.7390 0.7330 0.7280
8.271144 0.7210 0.7150 0.7070 0.7000 0.6980
8.295000 0.6970 0.6890 0.6870 0.6850 0.6820
8.319144 0.6770 0.6770 0.6740 0.6700 0.6680
8.344000 0.6670 0.6650 0.6640 0.6640 0.6640
8.368144 0.6630 0.6620 0.6610 0.6610 0.6590
8.392000 0.6590 0.6560 0.6500 0.6430 0.6340
8.416144 0.6230 0.6110 0.5840 0.5670 0.5630
8.440000 0.5550 0.5420 0.5250 0.5070 0.4850
8.464144 0.4630 0.4410 0.4200 0.4000 0.3680
8.488000 0.3610 0.3520 0.3400 0.3250 0.3110
8.512144 0.2950 0.2780 0.2620 0.2460 0.2300
8.537000 0.2150 0.2000 0.1860 0.1770 0.1730
8.561144 0.1700 0.1690 0.1670 0.1650 0.1640
8.585000 0.1640 0.1630 0.1640 0.1650 0.1650
8.609144 0.1670 0.1670 0.1690 0.1730 0.1740
8.633000 0.1760 0.1820 0.1920 0.1970 0.1990
8.657144 0.2000 0.2030 0.2050 0.2090 0.2150
8.681000 0.2230 0.2350 0.2510 0.2710 0.2940
8.705144 0.3070 0.3160 0.3190 0.3220 0.3240
8.730000 0.3230 0.3200 0.3180 0.3140 0.3120
8.754144 0.2990 0.2870 0.2800 0.2750 0.2600
8.778000 0.2460 0.2360 0.2280 0.2190 0.2130
8.802144 0.2070 0.2030 0.1940 0.1910 0.1880
8.826000 0.1860 0.1830 0.1800 0.1760 0.1740
8.850144 0.1700 0.1650 0.1620 0.1570 0.1510
8.874000 0.1450 0.1380 0.1310 0.1210 0.1150
8.898144 0.1080 0.1030 0.1000 0.1000 0.0990
8.923000 0.0980 0.0970 0.0970 0.0970 0.0970
8.947144 0.0960 0.0960 0.0960 0.0960 0.0960
8.971000 0.0960 0.0960 0.0960 0.0970 0.0990
8.995144 0.1040 0.1100 0.1180 0.1310 0.1450
9.019000 0.1620 0.1770 0.1920 0.2000 0.2070
9.043144 0.2220 0.2370 0.2530 0.2690 0.2860
9.068000 0.3040 0.3220 0.3410 0.3610 0.3830
9.092144 0.3940 0.4050 0.4290 0.4540 0.4800
9.116000 0.5000 0.5150 0.5270 0.5390 0.5490
9.140144 0.5570 0.5660 0.5740 0.5810 0.5840
9.164000 0.5870 0.5880 0.5880 0.5910 0.5900
9.188144 0.5900 0.5880 0.5730 0.5630 0.5630
9.212000 0.5210 0.5010 0.4790 0.4590 0.4570
9.236144 0.4290 0.4140 0.3420 0.3170 0.3010
9.261000 0.2760 0.2540 0.2360 0.2280 0.2250
9.285144 0.2240 0.2240 0.2240 0.2240 0.2270
9.309000 0.2420 0.2560 0.2650 0.3820 0.4020
9.333144 0.4210 0.4490 0.4750 0.5000 0.5210
9.357000 0.5420 0.5610 0.5780 0.5930 0.6000
9.381144 0.6080 0.6180 0.6290 0.6380 0.6450
9.405000 0.6500 0.6520 0.6550 0.6560 0.6560
9.429144 0.6560 0.6560 0.6560 0.6560 0.6560
9.454000 0.6550 0.6470 0.6460 0.6460 0.6500
9.478144 0.6630 0.6690 0.6700 0.6730 0.6770
9.502000 0.6830 0.6910 0.6950 0.7060 0.7090
9.526144 0.7130 0.7150 0.7180 0.7190 0.7210
9.550000 0.7220 0.7240 0.7240 0.7230 0.7220
9.574144 0.7180 0.7150 0.7090 0.7030 0.6980
9.599000 0.6940 0.6910 0.6880 0.6860 0.6820
9.623144 0.6760 0.6700 0.6620 0.6510 0.6370
9.647000 0.6220 0.6120 0.5800 0.5690 0.5670
9.671144 0.5690 0.5780 0.5900 0.5960 0.6020
9.695000 0.6150 0.6310 0.6460 0.6640 0.6810
9.719144 0.6980 0.7130 0.7280 0.7400 0.7500
9.743000 0.7560 0.7620 0.7660 0.7710 0.7770
9.767144 0.7860 0.7940 0.8010 0.8020 0.8050
9.792000 0.8070 0.8100 0.8110 0.8120 0.8130
9.816144 0.8120 0.8110 0.8110 0.8110 0.7820
9.840000 0.7700 0.7570 0.7460 0.7360 0.7230
9.864144 0.7150 0.7030 0.6880 0.6800 0.6750
9.888000 0.6730 0.6730 0.6710 0.6690 0.6700
9.912144 0.6710 0.6710 0.6730 0.6800 0.6870
9.936000 0.6970 0.7070 0.7180 0.7290 0.7400
9.960144 0.7510 0.7600 0.7700 0.7770 0.7840
9.985000 0.7880 0.7930 0.7960 0.7990 0.8010
10.009144 0.8050 0.8070 0.8110 0.8130 0.8160
10.033000 0.8180 0.8190 0.8220 0.8220 0.8220
10.057144 0.8220 0.8220 0.8230 0.8230 0.8240
10.081000 0.8240 0.8250 0.8250 0.8260 0.8260
10.105144 0.8260 0.8190 0.8170 0.8110 0.8020
10.130000 0.7900 0.7780 0.7750 0.7660 0.7580
10.154144 0.7540 0.7520 0.7500 0.7500 0.7510
10.178000 0.7510 0.7560 0.7570 0.7570 0.7570
10.202144 0.7560 0.7540 0.7530 0.7510 0.7470
10.226000 0.7400 0.7280 0.7070 0.6940 0.6810
10.250144 0.6690 0.6580 0.6500 0.6430 0.6280
10.274000 0.6100 0.5860 0.5840 0.5850 0.5870
10.298144 0.5940 0.6000 0.6090 0.6180 0.6380
10.323000 0.6510 0.6640 0.6770 0.6920 0.7090
10.347144 0.7150 0.7210 0.7230 0.7360 0.7430
10.371000 0.7500 0.7540 0.7590 0.7600 0.7620
10.395144 0.7620 0.7620 0.7630 0.7630 0.7640
10.419000 0.7640 0.7640 0.7650 0.7660 0.7660
10.443144 0.7680 0.7690 0.7690 0.7700 0.7700
10.467000 0.7710 0.7720 0.7750 0.7780 0.7830
10.491144 0.7870 0.7920 0.7960 0.7990 0.8000
10.516000 0.8040 0.8050 0.8060 0.8060 0.8060
10.540144 0.8060 0.8060 0.8050 0.8050 0.8020
10.564000 0.8020 0.8010 0.8000 0.8000 0.7960
10.588144 0.7940 0.7930 0.7900 0.7890 0.7870
10.612000 0.7860 0.7840 0.7840 0.7840 0.7870
10.636144 0.7880 0.7890 0.7900 0.7920 0.7940
10.660000 0.7960 0.7980 0.7990 0.8000 0.8010
10.684144 0.8020 0.8020 0.8020 0.8040 0.8040
10.709000 0.8020 0.7960 0.7940 0.7930 0.7920
10.733144 0.7900 0.7880 0.7840 0.7800 0.7720
10.757000 0.7640 0.7510 0.7480 0.7470 0.7470
10.781144 0.7450 0.7420 0.7400 0.7400 0.7390
10.805000 0.7360 0.7330 0.7280 0.7220 0.7160
10.829144 0.7100 0.7040 0.6980 0.6920 0.6880
10.854000 0.6870 0.6880 0.6980 0.7060 0.7150
10.878144 0.7240 0.7340 0.7420 0.7510 0.7590
10.902000 0.7650 0.7690 0.7710 0.7720 0.7740
10.926144 0.7720 0.7700 0.7680 0.7650 0.7600
10.950000 0.7590 0.7590 0.7580 0.7580 0.7570
10.974144 0.7570 0.7560 0.7560 0.7520 0.7500
10.998000 0.7480 0.7430 0.7410 0.7370 0.7330
11.022144 0.7280 0.7250 0.7220 0.7180 0.7150
11.047000 0.7120 0.7100 0.7090 0.7060 0.7070
11.071144 0.7100 0.7120 0.7160 0.7210 0.7270
11.095000 0.7340 0.7420 0.7510 0.7600 0.7710
11.119144 0.7830 0.7950 0.7990 0.8020 0.8100
11.143000 0.8170 0.8240 0.8310 0.8370 0.8430
11.167144 0.8480 0.8520 0.8560 0.8610 0.8650
11.191000 0.8700 0.8720 0.8760 0.8780 0.8810
11.215144 0.8820 0.8830 0.8830 0.8840 0.8840
11.240000 0.8850 0.8850 0.8850 0.8850 0.8840
11.264144 0.8830 0.8820 0.8810 0.8790 0.8780
11.288000 0.8770 0.8760 0.8750 0.8730 0.8720
11.312144 0.8710 0.8680 0.8600 0.8550 0.8520
11.336000 0.8490 0.8470 0.8460 0.8420 0.8410
11.360144 0.8400 0.8370 0.8380 0.8400 0.8420
11.385000 0.8440 0.8480 0.8520 0.8550 0.8600
11.409144 0.8620 0.8660 0.8670 0.8680 0.8720
11.433000 0.8760 0.8810 0.8840 0.8870 0.8870
11.457144 0.8880 0.8900 0.8900 0.8910 0.8930
11.481000 0.8940 0.8940 0.8950 0.8960 0.8990
11.505144 0.9010 0.9030 0.9030 0.9050 0.9060
11.529000 0.9070 0.9070 0.9080 0.9090 0.9090
11.553144 0.9110 0.9120 0.9130 0.9140 0.9170
11.578000 0.9180 0.9180 0.9180 0.9180 0.9170
11.602144 0.9130 0.9120 0.9110 0.9090 0.9080
11.626000 0.9070 0.9060 0.9050 0.9030 0.9020
11.650144 0.9020 0.9010 0.9010 0.9000 0.8990
11.674000 0.8970 0.8970 0.8960 0.8960 0.8960
11.698144 0.8960 0.8960 0.8960 0.8960 0.8960
11.722000 0.8960 0.8970 0.8990 0.9000 0.9010
11.746144 0.9020 0.9020 0.9020 0.9020 0.9020
11.771000 0.9020 0.9010 0.9010 0.9000 0.8970
11.795144 0.8950 0.8910 0.8890 0.8870 0.8850
11.819000 0.8850 0.8840 0.8830 0.8810 0.8780
11.843144 0.8750 0.8720 0.8700 0.8660 0.8620
11.867000 0.8580 0.8520 0.8460 0.8370 0.8290
11.891144 0.8180 0.8050 0.7710 0.7530 0.7330
11.916000 0.7130 0.6920 0.6700 0.6460 0.6230
11.940144 0.5740 0.5480 0.5360 0.5160 0.5100
11.964000 0.5020 0.4930 0.4870 0.4810 0.4770
11.988144 0.4720 0.4680 0.4660 0.4630 0.4610
12.012000 0.4590 0.4560 0.4570 0.4610 0.4650
12.036144 0.4670 0.4710 0.4740 0.5000 0.5220
12.060000 0.5430 0.5640 0.5870 0.5990 0.6110
12.084144 0.6400 0.6740 0.7130 0.7340 0.7530
12.109000 0.7700 0.7860 0.7930 0.8000 0.8120
12.133144 0.8230 0.8340 0.8420 0.8500 0.8580
12.157000 0.8640 0.8700 0.8730 0.8780 0.8820
12.181144 0.8840 0.8880 0.8900 0.8930 0.8940
12.205000 0.8960 0.8960 0.8960 0.8960 0.8970
12.229144 0.9030 0.9030 0.9030 0.9030 0.9000
12.253000 0.8990 0.8970 0.8970 0.8960 0.8960
12.277144 0.8960 0.8960 0.8960 0.8960 0.8960
12.302000 0.8960 0.8960 0.8960 0.8960 0.8970
12.326144 0.8970 0.8990 0.9000 0.9010 0.9020
12.350000 0.9030 0.9030 0.9050 0.9050 0.9080
12.374144 0.9120 0.9140 0.9170 0.9170 0.9180
12.398000 0.9190 0.9190 0.9200 0.9210 0.9210
12.422144 0.9230 0.9230 0.9230 0.9230 0.9230
12.447000 0.9210 0.9200 0.9190 0.9180 0.9170
12.471144 0.9150 0.9140 0.9130 0.9130 0.9120
12.495000 0.9110 0.9090 0.9080 0.9060 0.9050
12.519144 0.9030 0.9020 0.9010 0.9000 0.8970
12.543000 0.8950 0.8940 0.8930 0.8900 0.8850
12.567144 0.8840 0.8830 0.8820 0.8820 0.8790
12.591000 0.8780 0.8770 0.8760 0.8750 0.8730
12.615144 0.8720 0.8710 0.8710 0.8710 0.8710
12.640000 0.8720 0.8710 0.8720 0.8750 0.8750
12.664144 0.8810 0.8820 0.8870 0.8910 0.8910
12.688000 0.8910 0.8910 0.8910 0.8910 0.8910
12.712144 0.8910 0.8880 0.8870 0.8870 0.8850
12.736000 0.8840 0.8830 0.8820 0.8820 0.8790
12.760144 0.8810 0.8810 0.8810 0.8810 0.8790
12.784000 0.8780 0.8780 0.8780 0.8770 0.8760
12.808144 0.8760 0.8750 0.8750 0.8730 0.8730
12.833000 0.8720 0.8710 0.8700 0.8680 0.8670
12.857144 0.8660 0.8650 0.8620 0.8640 0.8620
12.881000 0.8610 0.8590 0.8550 0.8520 0.8470
12.905144 0.8420 0.8370 0.8310 0.8240 0.8170
12.929000 0.8080 0.7890 0.7800 0.7680 0.7570
12.953144 0.7430 0.7300 0.7160 0.7000 0.6850
12.977000 0.6670 0.6560 0.6380 0.6200 0.6020
13.001144 0.5670 0.5490 0.5310 0.5130 0.4950
13.026000 0.4770 0.4770 0.4600 0.4500 0.4390
13.050144 0.4370 0.4360 0.4330 0.4320 0.4330
13.074000 0.4370 0.4390 0.4430 0.4600 0.4740
13.098144 0.4890 0.5030 0.5090 0.5190 0.5250
13.122000 0.5260 0.5270 0.5280 0.5280 0.5280
13.146144 0.5280 0.5280 0.5270 0.5100 0.5020
13.171000 0.4920 0.4840 0.4620 0.4500 0.4380
13.195144 0.4260 0.4150 0.4130 0.3870 0.3830
13.219000 0.3820 0.3830 0.3830 0.3850 0.3940
13.243144 0.4010 0.4210 0.4420 0.4650 0.4870
13.267000 0.5120 0.5360 0.5610 0.5840 0.5960
13.291144 0.6080 0.6290 0.6510 0.6700 0.6870
13.315000 0.7010 0.7150 0.7230 0.7290 0.7310
13.339144 0.7310 0.7330 0.7360 0.7410 0.7470
13.364000 0.7540 0.7600 0.7680 0.7720 0.7760
13.388144 0.7810 0.7830 0.7870 0.7880 0.7890
13.412000 0.7890 0.7890 0.7900 0.7890 0.7880
13.436144 0.7870 0.7860 0.7840 0.7830 0.7800
13.460000 0.7780 0.7780 0.7780 0.7780 0.7800
13.484144 0.7840 0.7890 0.7930 0.7950 0.7980
13.508000 0.7990 0.8000 0.8020 0.8040 0.8050
13.532144 0.8060 0.8070 0.8080 0.8100 0.8110
13.557000 0.8120 0.8140 0.8160 0.8160 0.8170
13.581144 0.8170 0.8170 0.8180 0.8170 0.8170
13.605000 0.8170 0.8180 0.8170 0.8170 0.8170
13.629144 0.8170 0.8160 0.8140 0.8130 0.8130
13.653000 0.8110 0.8070 0.8020 0.8010 0.8000
13.677144 0.7980 0.7960 0.7960 0.7960 0.7980
13.702000 0.7980 0.7980 0.7990 0.7990 0.7990
13.726144 0.8000 0.8000 0.8000 0.8000 0.8010
13.750000 0.8010 0.8010 0.8010 0.8010 0.8010
13.774144 0.8010 0.8010 0.8010 0.8010 0.8020
13.798000 0.8020 0.8020 0.8020 0.8020 0.8020
13.822144 0.8020 0.8020 0.8020 0.8020 0.8020
13.846000 0.8020 0.8020 0.8020 0.8020 0.8020
13.870144 0.8020 0.8020 0.8020 0.8020 0.8020
13.895000 0.8020 0.8020 0.8020 0.8040 0.8040
13.919144 0.8050 0.8050 0.8050 0.8050 0.8010
13.943000 0.8010 0.8010 0.8010 0.8010 0.8010
13.967144 0.8040 0.8070 0.8100 0.8100 0.8110
13.991000 0.8120 0.8120 0.8120 0.8110 0.8100
14.015144 0.8100 0.8070 0.8050 0.8040 0.8040
14.039000 0.8010 0.7920 0.7870 0.7830 0.7820
14.063144 0.7800 0.7780 0.7780 0.7780 0.7780
14.088000 0.7800 0.7810 0.7810 0.7820 0.7820
14.112144 0.7830 0.7860 0.7890 0.7890 0.7890
14.136000 0.7890 0.7890 0.7890 0.7890 0.7880
14.160144 0.7880 0.7880 0.7880 0.7890 0.7920
14.184000 0.7950 0.7990 0.8010 0.8070 0.8110
14.208144 0.8160 0.8190 0.8230 0.8260 0.8290
14.233000 0.8320 0.8360 0.8380 0.8410 0.8420
14.257144 0.8420 0.8420 0.8430 0.8430 0.8430
14.281000 0.8440 0.8440 0.8440 0.8440 0.8470
14.305144 0.8540 0.8560 0.8580 0.8580 0.8590
14.329000 0.8590 0.8600 0.8600 0.8610 0.8610
14.353144 0.8610 0.8610 0.8610 0.8600 0.8580
14.377000 0.8580 0.8560 0.8560 0.8550 0.8550
14.401144 0.8550 0.8540 0.8530 0.8520 0.8490
14.426000 0.8480 0.8470 0.8440 0.8420 0.8400
14.450144 0.8380 0.8370 0.8360 0.8340 0.8280
14.474000 0.8240 0.8230 0.8220 0.8200 0.8170
14.498144 0.8080 0.8070 0.8000 0.7780 0.7650
14.522000 0.7500 0.7390 0.7270 0.7160 0.7040
14.546144 0.6930 0.6820 0.6700 0.6580 0.6460
14.570000 0.6330 0.6180 0.6020 0.5880 0.5870
14.594144 0.5900 0.5910 0.5970 0.6020 0.6100
14.619000 0.6160 0.6220 0.6290 0.6400 0.6550
14.643144 0.6740 0.6850 0.6950 0.7040 0.7110
14.667000 0.7180 0.7240 0.7300 0.7340 0.7390
14.691144 0.7420 0.7450 0.7480 0.7510 0.7520
14.715000 0.7540 0.7570 0.7580 0.7600 0.7620
14.739144 0.7640 0.7650 0.7680 0.7700 0.7710
14.763000 0.7740 0.7760 0.7770 0.7800 0.7810
14.787144 0.7830 0.7860 0.7870 0.7890 0.7900
14.812000 0.7900 0.7930 0.7930 0.7940 0.7940
14.836144 0.7940 0.7940 0.7940 0.7950 0.7940
14.860000 0.7960 0.7980 0.8000 0.8010 0.8040
14.884144 0.8070 0.8080 0.8080 0.8100 0.8100
14.908000 0.8100 0.8100 0.8110 0.8120 0.8120
14.932144 0.8120 0.8130 0.8130 0.8130 0.8130
14.957000 0.8120 0.8100 0.8070 0.8060 0.8020
14.981144 0.8010 0.7950 0.7900 0.7860 0.7810
15.005000 0.7760 0.7710 0.7680 0.7630 0.7590
15.029144 0.7580 0.7590 0.7590 0.7590 0.7600
15.053000 0.7600 0.7620 0.7630 0.7640 0.7640
15.077144 0.7640 0.7650 0.7660 0.7650 0.7620
##END=
