##TITLE=Alpha,Alpha'-BIS(2-tert-BUTYL-ANILINO)-p-XYLENE
##JCAMP-DX=4.24
##DATA TYPE=INFRARED SPECTRUM
##CLASS=COBLENTZ III
##ORIGIN=MONSANTO (J. FREEMAN)
##OWNER=Copyright (C) 1987 by the Coblentz Society
Collection (C) 2018 copyright by the U.S. Secretary of Commerce
on behalf of the United States of America. All rights reserved.
##DATE=1959/09/30
##NAMES=2-tert-butyl-N-(4-[(2-tert-butylanilino)methyl]benzyl)aniline
N-(4-[(2-tert-butylanilino)methyl]benzyl)-N-(2-tert-butylphenyl)amine
p-Xylene-a,a'-diamine, N,N'-bis-(o-tert-butylpheynl)-
##MOLFORM=C28 H36 N2
##SOURCE REFERENCE=COBLENTZ NO. 8508
##$NIST ID=B6008508
##$NIST SOURCE=COBLENTZ
##$NIST IMAGE=cob8508
##SPECTROMETER/DATA SYSTEM=BECKMAN IR-4 (HYBRID PRISM-GRATING)
##INSTRUMENT PARAMETERS=NaCl PRISM
##STATE=SOLID (OIL MULL)
$$SPECTRAL CONTAMINATION DUE TO OIL AROUND 2900, 1450, 720 CM^-^1
##SAMPLING PROCEDURE=TRANSMISSION
##RESOLUTION=2
##DATA PROCESSING=DIGITIZED BY COBLENTZ SOCIETY (BATCH II) FROM HARD COPY
##XUNITS=1/CM
##YUNITS=TRANSMITTANCE
##XFACTOR=1.0
##YFACTOR=1
##FIRSTX=626
##LASTX=4000
##FIRSTY=0.8054
##MAXX=4000
##MINX=626
##MAXY=0.9563
##MINY=0.0135
##NPOINTS=3375
##XYDATA=(X++(Y..Y))
626.000000 0.8054 0.8025 0.8002 0.7977 0.7954
631.000000 0.7933 0.7908 0.7876 0.7842 0.7785
636.000000 0.7728 0.7670 0.7633 0.7603 0.7581
641.000000 0.7568 0.7569 0.7533 0.7508 0.7575
646.000000 0.7574 0.7601 0.7617 0.7618 0.7622
651.000000 0.7643 0.7663 0.7727 0.7785 0.7833
656.000000 0.7879 0.7894 0.7909 0.7911 0.7911
661.000000 0.7898 0.7856 0.7736 0.7547 0.7356
666.000000 0.7168 0.6977 0.6839 0.6804 0.7039
671.000000 0.7300 0.7560 0.7831 0.8027 0.8204
676.000000 0.8340 0.8456 0.8547 0.8625 0.8681
681.000000 0.8717 0.8749 0.8771 0.8794 0.8816
686.000000 0.8839 0.8860 0.8871 0.8910 0.8892
691.000000 0.8899 0.8903 0.8908 0.8911 0.8914
696.000000 0.8916 0.8907 0.8898 0.8887 0.8873
701.000000 0.8858 0.8844 0.8831 0.8818 0.8806
706.000000 0.8793 0.8780 0.8766 0.8748 0.8730
711.000000 0.8691 0.8649 0.8607 0.8549 0.8492
716.000000 0.8429 0.8364 0.8300 0.8229 0.8149
721.000000 0.8068 0.8000 0.7936 0.7882 0.7854
726.000000 0.7837 0.7835 0.7834 0.7832 0.7805
731.000000 0.7758 0.7666 0.7556 0.7453 0.7280
736.000000 0.7020 0.6699 0.6384 0.5953 0.5061
741.000000 0.4306 0.3553 0.2801 0.2052 0.1256
746.000000 0.0838 0.0632 0.0590 0.0598 0.0988
751.000000 0.1471 0.1989 0.2395 0.3093 0.3882
756.000000 0.4666 0.5302 0.5639 0.6298 0.6669
761.000000 0.7136 0.7568 0.7801 0.8010 0.8149
766.000000 0.8259 0.8334 0.8402 0.8447 0.8490
771.000000 0.8527 0.8561 0.8575 0.8601 0.8582
776.000000 0.8574 0.8551 0.8507 0.8430 0.8328
781.000000 0.8180 0.8016 0.7883 0.7915 0.7992
786.000000 0.8189 0.8355 0.8497 0.8604 0.8671
791.000000 0.8705 0.8724 0.8726 0.8746 0.8712
796.000000 0.8690 0.8667 0.8639 0.8608 0.8564
801.000000 0.8499 0.8413 0.8297 0.8176 0.8044
806.000000 0.7862 0.7669 0.7368 0.7006 0.6622
811.000000 0.6239 0.5857 0.5476 0.5203 0.5128
816.000000 0.5121 0.5573 0.6023 0.6473 0.6928
821.000000 0.7416 0.7683 0.7895 0.8076 0.8257
826.000000 0.8374 0.8468 0.8559 0.8636 0.8710
831.000000 0.8734 0.8757 0.8771 0.8738 0.8688
836.000000 0.8630 0.8544 0.8279 0.7955 0.7631
841.000000 0.7308 0.7160 0.7166 0.7405 0.7732
846.000000 0.8058 0.8338 0.8507 0.8613 0.8697
851.000000 0.8773 0.8812 0.8841 0.8838 0.8840
856.000000 0.8834 0.8823 0.8801 0.8770 0.8754
861.000000 0.8758 0.8775 0.8783 0.8784 0.8776
866.000000 0.8761 0.8732 0.8671 0.8590 0.8503
871.000000 0.8404 0.8305 0.8185 0.8045 0.7822
876.000000 0.7614 0.7410 0.7166 0.6910 0.6656
881.000000 0.6403 0.6149 0.5903 0.5882 0.5895
886.000000 0.6240 0.6565 0.6889 0.7212 0.7535
891.000000 0.7857 0.8178 0.8437 0.8581 0.8708
896.000000 0.8819 0.8909 0.8991 0.9071 0.9139
901.000000 0.9193 0.9238 0.9266 0.9292 0.9316
906.000000 0.9338 0.9349 0.9359 0.9373 0.9358
911.000000 0.9350 0.9337 0.9320 0.9292 0.9263
916.000000 0.9206 0.9133 0.9021 0.8885 0.8658
921.000000 0.8560 0.8518 0.8484 0.8344 0.8179
926.000000 0.8014 0.7850 0.7687 0.7653 0.7670
931.000000 0.7955 0.8174 0.8392 0.8610 0.8834
936.000000 0.8968 0.9017 0.9041 0.9058 0.9069
941.000000 0.9080 0.9095 0.9114 0.9145 0.9174
946.000000 0.9202 0.9213 0.9221 0.9229 0.9227
951.000000 0.9220 0.9204 0.9188 0.9161 0.9133
956.000000 0.9107 0.9084 0.9068 0.9055 0.9043
961.000000 0.9038 0.9033 0.9032 0.9033 0.9040
966.000000 0.9050 0.9057 0.9063 0.9057 0.9042
971.000000 0.9021 0.8997 0.8964 0.8953 0.8956
976.000000 0.8971 0.8986 0.9001 0.9006 0.9000
981.000000 0.8977 0.8951 0.8927 0.8907 0.8893
986.000000 0.8903 0.8920 0.8938 0.8964 0.8991
991.000000 0.9018 0.9046 0.9074 0.9101 0.9127
996.000000 0.9152 0.9178 0.9195 0.9208 0.9222
1001.000000 0.9232 0.9252 0.9235 0.9234 0.9230
1006.000000 0.9225 0.9220 0.9214 0.9202 0.9190
1011.000000 0.9176 0.9151 0.9123 0.9063 0.8973
1016.000000 0.8823 0.8568 0.8256 0.7979 0.7704
1021.000000 0.7429 0.7154 0.6881 0.6607 0.6436
1026.000000 0.6492 0.7178 0.8013 0.8462 0.8743
1031.000000 0.8974 0.9055 0.9098 0.9121 0.9138
1036.000000 0.9151 0.9162 0.9151 0.9147 0.9133
1041.000000 0.9089 0.9038 0.8986 0.8906 0.8824
1046.000000 0.8745 0.8648 0.8542 0.8429 0.8300
1051.000000 0.8174 0.8039 0.7663 0.6692 0.6023
1056.000000 0.5434 0.4846 0.4259 0.3674 0.3385
1061.000000 0.3397 0.4077 0.4862 0.5646 0.6427
1066.000000 0.7023 0.7048 0.7029 0.6901 0.6773
1071.000000 0.6645 0.6518 0.6395 0.6378 0.6447
1076.000000 0.6758 0.7082 0.7405 0.7728 0.8050
1081.000000 0.8390 0.8599 0.8648 0.8676 0.8685
1086.000000 0.8682 0.8666 0.8652 0.8628 0.8600
1091.000000 0.8567 0.8517 0.8440 0.8337 0.8211
1096.000000 0.8080 0.7789 0.7365 0.6898 0.6432
1101.000000 0.5967 0.5502 0.5046 0.4951 0.5083
1106.000000 0.5431 0.5779 0.6125 0.6472 0.6818
1111.000000 0.7163 0.7508 0.7578 0.7572 0.7556
1116.000000 0.7488 0.7407 0.7326 0.7261 0.7288
1121.000000 0.7563 0.7854 0.8144 0.8434 0.8597
1126.000000 0.8635 0.8658 0.8662 0.8661 0.8653
1131.000000 0.8675 0.8593 0.8530 0.8447 0.8351
1136.000000 0.8250 0.8070 0.7641 0.7205 0.6768
1141.000000 0.6334 0.5900 0.5467 0.5035 0.4900
1146.000000 0.4941 0.5232 0.5634 0.6035 0.6436
1151.000000 0.6836 0.7235 0.7443 0.7653 0.7770
1156.000000 0.7893 0.8027 0.8113 0.8197 0.8274
1161.000000 0.8330 0.8372 0.8391 0.8408 0.8423
1166.000000 0.8398 0.8380 0.8342 0.8289 0.8227
1171.000000 0.8162 0.8091 0.8040 0.8015 0.8007
1176.000000 0.8002 0.7997 0.7876 0.7707 0.7623
1181.000000 0.7618 0.7605 0.7684 0.7765 0.7845
1186.000000 0.7883 0.7884 0.7877 0.7917 0.7622
1191.000000 0.7405 0.7188 0.6972 0.6755 0.6540
1196.000000 0.6325 0.6110 0.5902 0.5827 0.5827
1201.000000 0.5842 0.6024 0.6147 0.6269 0.6392
1206.000000 0.6514 0.6636 0.6711 0.6709 0.6703
1211.000000 0.6695 0.6582 0.6484 0.6386 0.6289
1216.000000 0.6192 0.6095 0.5998 0.5901 0.5804
1221.000000 0.5767 0.5803 0.5942 0.6081 0.6221
1226.000000 0.6361 0.6500 0.6640 0.6724 0.6722
1231.000000 0.6719 0.6487 0.6207 0.5927 0.5648
1236.000000 0.5370 0.5092 0.4813 0.4536 0.4259
1241.000000 0.4085 0.4064 0.4093 0.4199 0.4349
1246.000000 0.4497 0.4646 0.4794 0.4940 0.4980
1251.000000 0.4957 0.4630 0.4456 0.4282 0.4108
1256.000000 0.3935 0.3761 0.3588 0.3416 0.3243
1261.000000 0.3109 0.3062 0.3111 0.3303 0.3544
1266.000000 0.3785 0.4026 0.4267 0.4507 0.4746
1271.000000 0.4985 0.5224 0.5462 0.5701 0.5939
1276.000000 0.6176 0.6393 0.6453 0.6446 0.6463
1281.000000 0.6369 0.6146 0.5902 0.5659 0.5417
1286.000000 0.5174 0.4932 0.4690 0.4450 0.4208
1291.000000 0.3968 0.3873 0.3953 0.4261 0.4577
1296.000000 0.4892 0.5207 0.5522 0.5836 0.6104
1301.000000 0.6113 0.6026 0.6144 0.5403 0.5084
1306.000000 0.4766 0.4449 0.4132 0.3815 0.3499
1311.000000 0.3184 0.2868 0.2553 0.2257 0.1819
1316.000000 0.1660 0.1637 0.1629 0.1635 0.1870
1321.000000 0.2188 0.2505 0.2821 0.3137 0.3453
1326.000000 0.3768 0.4084 0.4458 0.4876 0.5252
1331.000000 0.5629 0.6005 0.6380 0.6756 0.7076
1336.000000 0.7230 0.7370 0.7485 0.7549 0.7603
1341.000000 0.7640 0.7662 0.7679 0.7681 0.7676
1346.000000 0.7676 0.7672 0.7668 0.7660 0.7646
1351.000000 0.7630 0.7613 0.7596 0.7578 0.7562
1356.000000 0.7543 0.7519 0.7496 0.7472 0.7448
1361.000000 0.7422 0.7396 0.7362 0.7309 0.7235
1366.000000 0.7143 0.7065 0.6993 0.6864 0.6683
1371.000000 0.6428 0.5947 0.5428 0.4911 0.4395
1376.000000 0.4165 0.4156 0.4159 0.4207 0.4164
1381.000000 0.4433 0.4547 0.4659 0.4772 0.4885
1386.000000 0.4939 0.4976 0.5026 0.5174 0.5339
1391.000000 0.5503 0.5667 0.5831 0.5995 0.6158
1396.000000 0.6251 0.6251 0.6161 0.6017 0.5875
1401.000000 0.5733 0.5590 0.5449 0.5362 0.5379
1406.000000 0.5553 0.5840 0.6128 0.6417 0.6644
1411.000000 0.6651 0.6647 0.6661 0.6480 0.6287
1416.000000 0.6094 0.5902 0.5710 0.5518 0.5326
1421.000000 0.5135 0.4944 0.4754 0.4563 0.4373
1426.000000 0.4183 0.3993 0.3803 0.3615 0.3426
1431.000000 0.3279 0.3231 0.3190 0.3154 0.3119
1436.000000 0.3078 0.2908 0.2816 0.2748 0.2690
1441.000000 0.2631 0.2577 0.2543 0.2512 0.2475
1446.000000 0.2304 0.1927 0.1548 0.1169 0.0791
1451.000000 0.0643 0.0631 0.0630 0.0633 0.0648
1456.000000 0.0813 0.1009 0.1204 0.1399 0.1585
1461.000000 0.1708 0.1774 0.1826 0.1877 0.1928
1466.000000 0.1979 0.2031 0.2082 0.2129 0.2150
1471.000000 0.2148 0.2104 0.2034 0.1963 0.1893
1476.000000 0.1822 0.1752 0.1682 0.1629 0.1620
1481.000000 0.1629 0.1810 0.2065 0.2319 0.2573
1486.000000 0.2826 0.3079 0.3332 0.3585 0.3837
1491.000000 0.4089 0.4326 0.4445 0.4456 0.4462
1496.000000 0.4460 0.4497 0.4366 0.4150 0.3934
1501.000000 0.3718 0.3503 0.3288 0.3073 0.2859
1506.000000 0.2645 0.2431 0.2218 0.2004 0.1791
1511.000000 0.1578 0.1366 0.1154 0.0942 0.0768
1516.000000 0.0739 0.0746 0.0765 0.0908 0.1108
1521.000000 0.1308 0.1507 0.1707 0.1906 0.2105
1526.000000 0.2304 0.2501 0.2699 0.2897 0.3095
1531.000000 0.3292 0.3490 0.3705 0.3971 0.4141
1536.000000 0.4288 0.4515 0.4758 0.5001 0.5244
1541.000000 0.5486 0.5728 0.5971 0.6212 0.6453
1546.000000 0.6694 0.6909 0.6939 0.6963 0.6995
1551.000000 0.7054 0.7295 0.7537 0.7781 0.8024
1556.000000 0.8242 0.8368 0.8414 0.8443 0.8459
1561.000000 0.8465 0.8470 0.8469 0.8468 0.8464
1566.000000 0.8456 0.8446 0.8432 0.8418 0.8394
1571.000000 0.8353 0.8300 0.8234 0.8151 0.8055
1576.000000 0.7959 0.7870 0.7540 0.7117 0.6696
1581.000000 0.6276 0.5856 0.5436 0.5017 0.4599
1586.000000 0.4158 0.4171 0.4252 0.4468 0.4728
1591.000000 0.4987 0.5246 0.5505 0.5740 0.5826
1596.000000 0.5826 0.5826 0.5274 0.4875 0.4477
1601.000000 0.4079 0.3682 0.3284 0.2888 0.2493
1606.000000 0.2157 0.2006 0.2006 0.2010 0.2631
1611.000000 0.3308 0.3986 0.4662 0.5338 0.6012
1616.000000 0.6687 0.7359 0.7574 0.7637 0.7672
1621.000000 0.7706 0.7736 0.7763 0.7789 0.7811
1626.000000 0.7829 0.7846 0.7862 0.7879 0.7900
1631.000000 0.7924 0.7949 0.7983 0.8061 0.8276
1636.000000 0.8389 0.8485 0.8571 0.8643 0.8706
1641.000000 0.8765 0.8815 0.8853 0.8889 0.8921
1646.000000 0.8944 0.8960 0.8977 0.8992 0.9003
1651.000000 0.9011 0.9019 0.9024 0.9026 0.9027
1656.000000 0.9029 0.9030 0.9030 0.9027 0.9025
1661.000000 0.9023 0.9020 0.9017 0.9013 0.9009
1666.000000 0.9006 0.9004 0.9002 0.9001 0.9001
1671.000000 0.9001 0.9001 0.9004 0.9010 0.9017
1676.000000 0.9025 0.9035 0.9046 0.9058 0.9075
1681.000000 0.9095 0.9114 0.9131 0.9147 0.9164
1686.000000 0.9180 0.9197 0.9219 0.9242 0.9265
1691.000000 0.9287 0.9308 0.9328 0.9346 0.9358
1696.000000 0.9366 0.9367 0.9368 0.9368 0.9368
1701.000000 0.9367 0.9367 0.9366 0.9366 0.9366
1706.000000 0.9366 0.9366 0.9367 0.9367 0.9367
1711.000000 0.9367 0.9370 0.9373 0.9376 0.9380
1716.000000 0.9383 0.9389 0.9397 0.9404 0.9414
1721.000000 0.9426 0.9439 0.9450 0.9461 0.9472
1726.000000 0.9483 0.9495 0.9508 0.9522 0.9534
1731.000000 0.9538 0.9541 0.9543 0.9543 0.9542
1736.000000 0.9542 0.9541 0.9540 0.9563 0.9538
1741.000000 0.9536 0.9536 0.9534 0.9532 0.9529
1746.000000 0.9527 0.9525 0.9522 0.9520 0.9518
1751.000000 0.9515 0.9511 0.9505 0.9499 0.9493
1756.000000 0.9487 0.9481 0.9475 0.9468 0.9458
1761.000000 0.9448 0.9437 0.9426 0.9416 0.9406
1766.000000 0.9396 0.9388 0.9382 0.9378 0.9375
1771.000000 0.9372 0.9369 0.9366 0.9364 0.9362
1776.000000 0.9361 0.9360 0.9362 0.9365 0.9368
1781.000000 0.9373 0.9381 0.9389 0.9402 0.9415
1786.000000 0.9428 0.9441 0.9452 0.9462 0.9471
1791.000000 0.9476 0.9480 0.9481 0.9480 0.9475
1796.000000 0.9466 0.9455 0.9444 0.9432 0.9418
1801.000000 0.9398 0.9377 0.9362 0.9354 0.9350
1806.000000 0.9346 0.9345 0.9345 0.9346 0.9346
1811.000000 0.9347 0.9347 0.9348 0.9348 0.9349
1816.000000 0.9351 0.9353 0.9355 0.9357 0.9360
1821.000000 0.9362 0.9364 0.9366 0.9369 0.9371
1826.000000 0.9373 0.9375 0.9377 0.9379 0.9381
1831.000000 0.9383 0.9384 0.9386 0.9387 0.9389
1836.000000 0.9389 0.9387 0.9386 0.9384 0.9383
1841.000000 0.9381 0.9380 0.9378 0.9375 0.9369
1846.000000 0.9361 0.9352 0.9343 0.9335 0.9325
1851.000000 0.9315 0.9305 0.9294 0.9284 0.9275
1856.000000 0.9268 0.9266 0.9264 0.9262 0.9262
1861.000000 0.9266 0.9271 0.9277 0.9282 0.9289
1866.000000 0.9298 0.9312 0.9325 0.9337 0.9347
1871.000000 0.9358 0.9365 0.9370 0.9372 0.9375
1876.000000 0.9374 0.9372 0.9371 0.9369 0.9367
1881.000000 0.9364 0.9352 0.9333 0.9309 0.9285
1886.000000 0.9260 0.9237 0.9213 0.9189 0.9165
1891.000000 0.9140 0.9117 0.9093 0.9070 0.9054
1896.000000 0.9049 0.9053 0.9064 0.9082 0.9103
1901.000000 0.9123 0.9143 0.9164 0.9184 0.9204
1906.000000 0.9224 0.9245 0.9265 0.9285 0.9305
1911.000000 0.9325 0.9337 0.9342 0.9341 0.9340
1916.000000 0.9338 0.9333 0.9329 0.9321 0.9306
1921.000000 0.9265 0.9220 0.9175 0.9129 0.9083
1926.000000 0.9038 0.8993 0.8947 0.8901 0.8856
1931.000000 0.8811 0.8765 0.8747 0.8738 0.8738
1936.000000 0.8754 0.8724 0.8854 0.8914 0.8974
1941.000000 0.9035 0.9095 0.9155 0.9215 0.9263
1946.000000 0.9293 0.9304 0.9318 0.9332 0.9345
1951.000000 0.9358 0.9370 0.9382 0.9393 0.9403
1956.000000 0.9409 0.9416 0.9424 0.9431 0.9438
1961.000000 0.9445 0.9450 0.9454 0.9458 0.9462
1966.000000 0.9466 0.9470 0.9472 0.9474 0.9474
1971.000000 0.9476 0.9477 0.9477 0.9474 0.9479
1976.000000 0.9479 0.9480 0.9481 0.9481 0.9482
1981.000000 0.9483 0.9483 0.9484 0.9484 0.9485
1986.000000 0.9486 0.9486 0.9487 0.9488 0.9488
1991.000000 0.9488 0.9488 0.9489 0.9489 0.9489
1996.000000 0.9490 0.9491 0.9491 0.9491 0.9492
2001.000000 0.9492 0.9493 0.9493 0.9493 0.9494
2006.000000 0.9494 0.9494 0.9494 0.9494 0.9493
2011.000000 0.9493 0.9493 0.9493 0.9493 0.9493
2016.000000 0.9493 0.9493 0.9493 0.9493 0.9493
2021.000000 0.9493 0.9493 0.9492 0.9491 0.9490
2026.000000 0.9489 0.9489 0.9488 0.9488 0.9487
2031.000000 0.9486 0.9486 0.9485 0.9485 0.9484
2036.000000 0.9483 0.9483 0.9482 0.9481 0.9480
2041.000000 0.9479 0.9479 0.9478 0.9478 0.9477
2046.000000 0.9476 0.9476 0.9475 0.9474 0.9473
2051.000000 0.9472 0.9471 0.9470 0.9470 0.9469
2056.000000 0.9467 0.9466 0.9465 0.9465 0.9464
2061.000000 0.9463 0.9462 0.9461 0.9460 0.9459
2066.000000 0.9458 0.9457 0.9456 0.9455 0.9454
2071.000000 0.9454 0.9453 0.9451 0.9450 0.9449
2076.000000 0.9449 0.9448 0.9447 0.9446 0.9444
2081.000000 0.9444 0.9443 0.9442 0.9441 0.9440
2086.000000 0.9438 0.9437 0.9436 0.9435 0.9434
2091.000000 0.9433 0.9433 0.9431 0.9430 0.9429
2096.000000 0.9428 0.9427 0.9426 0.9425 0.9423
2101.000000 0.9422 0.9422 0.9421 0.9420 0.9419
2106.000000 0.9418 0.9417 0.9415 0.9414 0.9413
2111.000000 0.9412 0.9411 0.9410 0.9409 0.9408
2116.000000 0.9406 0.9405 0.9404 0.9403 0.9402
2121.000000 0.9401 0.9400 0.9399 0.9398 0.9396
2126.000000 0.9395 0.9394 0.9393 0.9392 0.9391
2131.000000 0.9390 0.9389 0.9388 0.9387 0.9385
2136.000000 0.9384 0.9383 0.9382 0.9381 0.9380
2141.000000 0.9379 0.9378 0.9377 0.9376 0.9375
2146.000000 0.9373 0.9372 0.9371 0.9370 0.9369
2151.000000 0.9368 0.9367 0.9366 0.9365 0.9364
2156.000000 0.9363 0.9362 0.9360 0.9358 0.9357
2161.000000 0.9356 0.9355 0.9354 0.9353 0.9352
2166.000000 0.9351 0.9350 0.9349 0.9347 0.9346
2171.000000 0.9345 0.9344 0.9342 0.9341 0.9340
2176.000000 0.9339 0.9338 0.9337 0.9335 0.9334
2181.000000 0.9334 0.9333 0.9332 0.9331 0.9330
2186.000000 0.9329 0.9328 0.9327 0.9326 0.9325
2191.000000 0.9325 0.9324 0.9322 0.9321 0.9320
2196.000000 0.9319 0.9318 0.9318 0.9317 0.9316
2201.000000 0.9316 0.9317 0.9318 0.9319 0.9320
2206.000000 0.9321 0.9322 0.9324 0.9326 0.9329
2211.000000 0.9332 0.9335 0.9337 0.9340 0.9342
2216.000000 0.9345 0.9348 0.9351 0.9353 0.9356
2221.000000 0.9358 0.9361 0.9364 0.9367 0.9373
2226.000000 0.9379 0.9384 0.9388 0.9389 0.9389
2231.000000 0.9389 0.9389 0.9388 0.9388 0.9386
2236.000000 0.9385 0.9384 0.9383 0.9381 0.9380
2241.000000 0.9379 0.9378 0.9376 0.9375 0.9374
2246.000000 0.9373 0.9371 0.9370 0.9368 0.9366
2251.000000 0.9364 0.9361 0.9359 0.9356 0.9354
2256.000000 0.9351 0.9349 0.9346 0.9344 0.9341
2261.000000 0.9339 0.9337 0.9334 0.9332 0.9329
2266.000000 0.9327 0.9324 0.9321 0.9318 0.9315
2271.000000 0.9313 0.9310 0.9308 0.9305 0.9302
2276.000000 0.9299 0.9296 0.9293 0.9290 0.9288
2281.000000 0.9286 0.9283 0.9280 0.9277 0.9274
2286.000000 0.9271 0.9268 0.9265 0.9263 0.9259
2291.000000 0.9255 0.9251 0.9247 0.9243 0.9238
2296.000000 0.9234 0.9230 0.9226 0.9222 0.9218
2301.000000 0.9214 0.9210 0.9205 0.9201 0.9197
2306.000000 0.9193 0.9188 0.9184 0.9180 0.9176
2311.000000 0.9172 0.9168 0.9164 0.9160 0.9156
2316.000000 0.9152 0.9147 0.9143 0.9139 0.9135
2321.000000 0.9131 0.9127 0.9123 0.9119 0.9115
2326.000000 0.9111 0.9107 0.9103 0.9099 0.9095
2331.000000 0.9091 0.9087 0.9083 0.9079 0.9074
2336.000000 0.9070 0.9066 0.9063 0.9059 0.9056
2341.000000 0.9052 0.9049 0.9046 0.9042 0.9038
2346.000000 0.9035 0.9031 0.9028 0.9024 0.9021
2351.000000 0.9018 0.9014 0.9011 0.9008 0.9004
2356.000000 0.9000 0.8997 0.8993 0.8990 0.8987
2361.000000 0.8983 0.8980 0.8976 0.8973 0.8969
2366.000000 0.8966 0.8963 0.8960 0.8957 0.8955
2371.000000 0.8952 0.8949 0.8947 0.8944 0.8941
2376.000000 0.8939 0.8936 0.8935 0.8945 0.8934
2381.000000 0.8935 0.8935 0.8935 0.8936 0.8937
2386.000000 0.8939 0.8943 0.8947 0.8952 0.8957
2391.000000 0.8963 0.8969 0.8975 0.8982 0.8989
2396.000000 0.8996 0.9003 0.9010 0.9018 0.9025
2401.000000 0.9032 0.9038 0.9044 0.9049 0.9055
2406.000000 0.9061 0.9067 0.9073 0.9077 0.9079
2411.000000 0.9081 0.9083 0.9085 0.9087 0.9089
2416.000000 0.9090 0.9091 0.9093 0.9095 0.9096
2421.000000 0.9098 0.9099 0.9100 0.9101 0.9103
2426.000000 0.9103 0.9103 0.9102 0.9102 0.9102
2431.000000 0.9102 0.9102 0.9102 0.9102 0.9102
2436.000000 0.9102 0.9102 0.9102 0.9102 0.9101
2441.000000 0.9101 0.9134 0.9101 0.9102 0.9102
2446.000000 0.9102 0.9103 0.9104 0.9105 0.9105
2451.000000 0.9105 0.9104 0.9103 0.9101 0.9100
2456.000000 0.9098 0.9097 0.9095 0.9093 0.9092
2461.000000 0.9090 0.9088 0.9087 0.9085 0.9082
2466.000000 0.9080 0.9077 0.9073 0.9070 0.9067
2471.000000 0.9063 0.9059 0.9055 0.9051 0.9047
2476.000000 0.9042 0.9038 0.9035 0.9031 0.9028
2481.000000 0.9025 0.9023 0.9021 0.9019 0.9017
2486.000000 0.9015 0.9013 0.9011 0.9009 0.9007
2491.000000 0.9005 0.9003 0.9002 0.9001 0.9001
2496.000000 0.9000 0.8999 0.8995 0.8989 0.8983
2501.000000 0.8975 0.8967 0.8959 0.8951 0.8943
2506.000000 0.8933 0.8923 0.8915 0.8906 0.8898
2511.000000 0.8892 0.8886 0.8880 0.8875 0.8869
2516.000000 0.8863 0.8857 0.8852 0.8846 0.8841
2521.000000 0.8838 0.8834 0.8830 0.8826 0.8822
2526.000000 0.8819 0.8815 0.8812 0.8809 0.8806
2531.000000 0.8803 0.8800 0.8797 0.8794 0.8791
2536.000000 0.8788 0.8785 0.8783 0.8780 0.8777
2541.000000 0.8773 0.8770 0.8767 0.8764 0.8761
2546.000000 0.8758 0.8755 0.8752 0.8748 0.8745
2551.000000 0.8742 0.8738 0.8735 0.8732 0.8729
2556.000000 0.8725 0.8722 0.8719 0.8716 0.8713
2561.000000 0.8710 0.8707 0.8703 0.8700 0.8697
2566.000000 0.8694 0.8691 0.8688 0.8685 0.8681
2571.000000 0.8678 0.8675 0.8672 0.8669 0.8665
2576.000000 0.8662 0.8659 0.8656 0.8653 0.8649
2581.000000 0.8646 0.8643 0.8640 0.8637 0.8634
2586.000000 0.8630 0.8627 0.8624 0.8621 0.8618
2591.000000 0.8615 0.8612 0.8609 0.8605 0.8601
2596.000000 0.8597 0.8592 0.8588 0.8583 0.8579
2601.000000 0.8575 0.8570 0.8565 0.8559 0.8554
2606.000000 0.8548 0.8543 0.8538 0.8533 0.8528
2611.000000 0.8523 0.8518 0.8515 0.8513 0.8512
2616.000000 0.8510 0.8508 0.8506 0.8504 0.8502
2621.000000 0.8501 0.8499 0.8497 0.8495 0.8493
2626.000000 0.8492 0.8490 0.8489 0.8487 0.8486
2631.000000 0.8485 0.8484 0.8482 0.8481 0.8480
2636.000000 0.8479 0.8478 0.8476 0.8475 0.8473
2641.000000 0.8472 0.8471 0.8470 0.8469 0.8467
2646.000000 0.8466 0.8465 0.8464 0.8463 0.8462
2651.000000 0.8461 0.8459 0.8458 0.8456 0.8454
2656.000000 0.8452 0.8450 0.8448 0.8446 0.8443
2661.000000 0.8441 0.8439 0.8436 0.8434 0.8431
2666.000000 0.8429 0.8427 0.8425 0.8421 0.8417
2671.000000 0.8413 0.8408 0.8403 0.8398 0.8393
2676.000000 0.8388 0.8383 0.8378 0.8373 0.8367
2681.000000 0.8360 0.8352 0.8345 0.8338 0.8331
2686.000000 0.8323 0.8316 0.8309 0.8301 0.8294
2691.000000 0.8287 0.8280 0.8273 0.8266 0.8259
2696.000000 0.8252 0.8245 0.8237 0.8229 0.8222
2701.000000 0.8214 0.8206 0.8198 0.8191 0.8183
2706.000000 0.8176 0.8171 0.8166 0.8162 0.8160
2711.000000 0.8158 0.8155 0.8153 0.8151 0.8149
2716.000000 0.8147 0.8145 0.8143 0.8141 0.8138
2721.000000 0.8136 0.8134 0.8132 0.8130 0.8129
2726.000000 0.8127 0.8126 0.8126 0.8126 0.8125
2731.000000 0.8125 0.8125 0.8124 0.8124 0.8124
2736.000000 0.8123 0.8122 0.8122 0.8121 0.8121
2741.000000 0.8121 0.8120 0.8120 0.8120 0.8119
2746.000000 0.8119 0.8119 0.8118 0.8117 0.8117
2751.000000 0.8116 0.8116 0.8116 0.8115 0.8114
2756.000000 0.8114 0.8113 0.8113 0.8113 0.8111
2761.000000 0.8109 0.8106 0.8104 0.8101 0.8098
2766.000000 0.8095 0.8092 0.8088 0.8084 0.8079
2771.000000 0.8074 0.8066 0.8054 0.8042 0.8029
2776.000000 0.8013 0.7998 0.7981 0.7961 0.7942
2781.000000 0.7922 0.7901 0.7881 0.7861 0.7841
2786.000000 0.7822 0.7803 0.7786 0.7769 0.7752
2791.000000 0.7736 0.7720 0.7703 0.7677 0.7647
2796.000000 0.7617 0.7574 0.7521 0.7468 0.7409
2801.000000 0.7343 0.7278 0.7212 0.7147 0.7081
2806.000000 0.7016 0.6950 0.6885 0.6820 0.6755
2811.000000 0.6689 0.6624 0.6559 0.6495 0.6430
2816.000000 0.6365 0.6300 0.6235 0.6170 0.6106
2821.000000 0.6041 0.5976 0.5912 0.5847 0.5782
2826.000000 0.5718 0.5653 0.5589 0.5525 0.5460
2831.000000 0.5396 0.5330 0.5263 0.5196 0.5111
2836.000000 0.5011 0.4910 0.4804 0.4684 0.4564
2841.000000 0.4445 0.4325 0.4206 0.4086 0.3967
2846.000000 0.3848 0.3729 0.3610 0.3491 0.3372
2851.000000 0.3253 0.3135 0.3016 0.2897 0.2779
2856.000000 0.2661 0.2542 0.2424 0.2306 0.2188
2861.000000 0.2070 0.1952 0.1835 0.1717 0.1599
2866.000000 0.1482 0.1364 0.1247 0.1130 0.1013
2871.000000 0.0969 0.0950 0.0932 0.0920 0.0917
2876.000000 0.0914 0.0911 0.0908 0.0905 0.0902
2881.000000 0.0899 0.0896 0.0893 0.0890 0.0887
2886.000000 0.0885 0.0882 0.0879 0.0877 0.0874
2891.000000 0.0872 0.0869 0.0867 0.0864 0.0862
2896.000000 0.0859 0.0856 0.0854 0.0851 0.0849
2901.000000 0.0846 0.0843 0.0840 0.0837 0.0832
2906.000000 0.0828 0.0823 0.0819 0.0815 0.0811
2911.000000 0.0803 0.0793 0.0782 0.0770 0.0754
2916.000000 0.0737 0.0721 0.0697 0.0672 0.0647
2921.000000 0.0620 0.0593 0.0565 0.0538 0.0518
2926.000000 0.0499 0.0479 0.0460 0.0440 0.0420
2931.000000 0.0400 0.0381 0.0361 0.0342 0.0322
2936.000000 0.0303 0.0283 0.0264 0.0245 0.0225
2941.000000 0.0206 0.0186 0.0167 0.0147 0.0135
2946.000000 0.0135 0.0135 0.0135 0.0135 0.0136
2951.000000 0.0136 0.0137 0.0139 0.0140 0.0141
2956.000000 0.0145 0.0150 0.0154 0.0158 0.0162
2961.000000 0.0165 0.0169 0.0173 0.0177 0.0180
2966.000000 0.0185 0.0190 0.0195 0.0200 0.0284
2971.000000 0.0379 0.0475 0.0573 0.0677 0.0781
2976.000000 0.0885 0.0988 0.1092 0.1196 0.1300
2981.000000 0.1403 0.1507 0.1610 0.1713 0.1816
2986.000000 0.1919 0.2022 0.2125 0.2228 0.2331
2991.000000 0.2434 0.2537 0.2640 0.2742 0.2845
2996.000000 0.2947 0.3050 0.3152 0.3254 0.3357
3001.000000 0.3459 0.3561 0.3663 0.3765 0.3867
3006.000000 0.3969 0.4071 0.4172 0.4274 0.4376
3011.000000 0.4477 0.4579 0.4680 0.4781 0.4882
3016.000000 0.4984 0.5085 0.5186 0.5287 0.5385
3021.000000 0.5482 0.5579 0.5674 0.5695 0.5715
3026.000000 0.5736 0.5757 0.5781 0.5804 0.5827
3031.000000 0.5854 0.5882 0.5909 0.5937 0.5956
3036.000000 0.5976 0.5995 0.6013 0.6025 0.6038
3041.000000 0.6050 0.6057 0.6062 0.6067 0.6071
3046.000000 0.6073 0.6075 0.6076 0.6078 0.6079
3051.000000 0.6080 0.6082 0.6083 0.6085 0.6087
3056.000000 0.6088 0.6089 0.6090 0.6091 0.6093
3061.000000 0.6093 0.6094 0.6095 0.6096 0.6097
3066.000000 0.6097 0.6098 0.6099 0.6100 0.6101
3071.000000 0.6101 0.6102 0.6103 0.6104 0.6105
3076.000000 0.6241 0.6381 0.6521 0.6642 0.6675
3081.000000 0.6708 0.6741 0.6774 0.6805 0.6836
3086.000000 0.6867 0.6895 0.6919 0.6943 0.6968
3091.000000 0.6989 0.7009 0.7029 0.7049 0.7073
3096.000000 0.7096 0.7120 0.7144 0.7179 0.7214
3101.000000 0.7249 0.7280 0.7300 0.7320 0.7341
3106.000000 0.7359 0.7374 0.7390 0.7405 0.7422
3111.000000 0.7440 0.7458 0.7476 0.7495 0.7514
3116.000000 0.7533 0.7553 0.7571 0.7589 0.7607
3121.000000 0.7626 0.7637 0.7647 0.7658 0.7669
3126.000000 0.7679 0.7690 0.7701 0.7711 0.7722
3131.000000 0.7732 0.7743 0.7753 0.7762 0.7770
3136.000000 0.7779 0.7787 0.7795 0.7802 0.7809
3141.000000 0.7817 0.7824 0.7831 0.7838 0.7845
3146.000000 0.7852 0.7860 0.7867 0.7874 0.7881
3151.000000 0.7888 0.7895 0.7900 0.7905 0.7909
3156.000000 0.7913 0.7917 0.7922 0.7926 0.7930
3161.000000 0.7934 0.7938 0.7942 0.7946 0.7950
3166.000000 0.7955 0.7959 0.7963 0.7967 0.7972
3171.000000 0.7976 0.7980 0.7984 0.7988 0.7992
3176.000000 0.7996 0.8000 0.8004 0.8008 0.8012
3181.000000 0.8015 0.8017 0.8020 0.8022 0.8024
3186.000000 0.8027 0.8029 0.8032 0.8034 0.8037
3191.000000 0.8039 0.8041 0.8044 0.8046 0.8048
3196.000000 0.8050 0.8053 0.8055 0.8058 0.8060
3201.000000 0.8062 0.8065 0.8067 0.8069 0.8071
3206.000000 0.8073 0.8074 0.8076 0.8077 0.8079
3211.000000 0.8080 0.8082 0.8083 0.8084 0.8086
3216.000000 0.8087 0.8089 0.8090 0.8091 0.8093
3221.000000 0.8094 0.8095 0.8096 0.8098 0.8099
3226.000000 0.8101 0.8102 0.8104 0.8105 0.8107
3231.000000 0.8107 0.8108 0.8109 0.8110 0.8111
3236.000000 0.8111 0.8112 0.8112 0.8113 0.8113
3241.000000 0.8113 0.8113 0.8114 0.8114 0.8115
3246.000000 0.8115 0.8116 0.8116 0.8116 0.8116
3251.000000 0.8117 0.8117 0.8117 0.8117 0.8117
3256.000000 0.8118 0.8118 0.8119 0.8119 0.8109
3261.000000 0.8118 0.8118 0.8117 0.8116 0.8116
3266.000000 0.8115 0.8114 0.8113 0.8113 0.8112
3271.000000 0.8111 0.8111 0.8110 0.8109 0.8108
3276.000000 0.8107 0.8106 0.8105 0.8105 0.8104
3281.000000 0.8103 0.8102 0.8101 0.8101 0.8100
3286.000000 0.8099 0.8098 0.8098 0.8097 0.8096
3291.000000 0.8095 0.8094 0.8093 0.8092 0.8092
3296.000000 0.8091 0.8090 0.8090 0.8088 0.8087
3301.000000 0.8085 0.8083 0.8082 0.8080 0.8079
3306.000000 0.8077 0.8075 0.8073 0.8072 0.8070
3311.000000 0.8068 0.8066 0.8065 0.8063 0.8062
3316.000000 0.8060 0.8058 0.8057 0.8055 0.8054
3321.000000 0.8052 0.8050 0.8048 0.8046 0.8045
3326.000000 0.8043 0.8041 0.8040 0.8038 0.8037
3331.000000 0.8035 0.8034 0.8032 0.8030 0.8028
3336.000000 0.8026 0.8024 0.8022 0.8020 0.8017
3341.000000 0.8015 0.8012 0.8010 0.8007 0.8005
3346.000000 0.8002 0.8000 0.7997 0.7994 0.7992
3351.000000 0.7989 0.7987 0.7984 0.7982 0.7979
3356.000000 0.7977 0.7974 0.7972 0.7969 0.7967
3361.000000 0.7965 0.7962 0.7960 0.7957 0.7955
3366.000000 0.7952 0.7950 0.7947 0.7944 0.7942
3371.000000 0.7939 0.7937 0.7934 0.7932 0.7928
3376.000000 0.7925 0.7921 0.7918 0.7914 0.7911
3381.000000 0.7907 0.7904 0.7900 0.7897 0.7893
3386.000000 0.7890 0.7886 0.7883 0.7879 0.7876
3391.000000 0.7872 0.7869 0.7865 0.7861 0.7857
3396.000000 0.7853 0.7849 0.7841 0.7833 0.7826
3401.000000 0.7818 0.7811 0.7803 0.7796 0.7789
3406.000000 0.7781 0.7769 0.7757 0.7745 0.7733
3411.000000 0.7719 0.7700 0.7680 0.7661 0.7642
3416.000000 0.7617 0.7588 0.7560 0.7532 0.7504
3421.000000 0.7489 0.7473 0.7458 0.7443 0.7428
3426.000000 0.7414 0.7400 0.7386 0.7372 0.7321
3431.000000 0.7248 0.7176 0.7104 0.7031 0.6956
3436.000000 0.6881 0.6806 0.6731 0.6656 0.6581
3441.000000 0.6506 0.6431 0.6356 0.6281 0.6206
3446.000000 0.6132 0.6057 0.5982 0.5932 0.5892
3451.000000 0.5851 0.5811 0.5770 0.5768 0.5768
3456.000000 0.5768 0.5768 0.5768 0.5772 0.5777
3461.000000 0.5781 0.5785 0.5801 0.5834 0.5868
3466.000000 0.5901 0.5935 0.5752 0.6001 0.6035
3471.000000 0.6068 0.6101 0.6134 0.6167 0.6201
3476.000000 0.6234 0.6267 0.6300 0.6333 0.6366
3481.000000 0.6399 0.6432 0.6465 0.6498 0.6531
3486.000000 0.6564 0.6597 0.6630 0.6662 0.6695
3491.000000 0.6728 0.6761 0.6794 0.6827 0.6860
3496.000000 0.6893 0.6926 0.6958 0.6991 0.7024
3501.000000 0.7056 0.7089 0.7122 0.7154 0.7187
3506.000000 0.7219 0.7252 0.7284 0.7317 0.7349
3511.000000 0.7382 0.7414 0.7447 0.7479 0.7511
3516.000000 0.7544 0.7562 0.7578 0.7593 0.7609
3521.000000 0.7625 0.7631 0.7636 0.7642 0.7647
3526.000000 0.7652 0.7658 0.7663 0.7669 0.7674
3531.000000 0.7680 0.7683 0.7686 0.7689 0.7692
3536.000000 0.7695 0.7698 0.7700 0.7702 0.7704
3541.000000 0.7706 0.7709 0.7711 0.7713 0.7715
3546.000000 0.7717 0.7719 0.7720 0.7721 0.7722
3551.000000 0.7723 0.7725 0.7726 0.7727 0.7728
3556.000000 0.7729 0.7730 0.7732 0.7733 0.7734
3561.000000 0.7735 0.7736 0.7737 0.7738 0.7738
3566.000000 0.7739 0.7740 0.7740 0.7741 0.7742
3571.000000 0.7742 0.7743 0.7744 0.7745 0.7745
3576.000000 0.7746 0.7747 0.7748 0.7748 0.7749
3581.000000 0.7750 0.7751 0.7751 0.7752 0.7752
3586.000000 0.7753 0.7754 0.7755 0.7756 0.7757
3591.000000 0.7758 0.7759 0.7760 0.7761 0.7763
3596.000000 0.7764 0.7765 0.7767 0.7768 0.7769
3601.000000 0.7770 0.7771 0.7772 0.7773 0.7775
3606.000000 0.7776 0.7777 0.7778 0.7779 0.7780
3611.000000 0.7781 0.7782 0.7783 0.7784 0.7785
3616.000000 0.7786 0.7787 0.7789 0.7790 0.7790
3621.000000 0.7791 0.7792 0.7793 0.7794 0.7795
3626.000000 0.7796 0.7797 0.7798 0.7799 0.7800
3631.000000 0.7800 0.7801 0.7802 0.7803 0.7803
3636.000000 0.7803 0.7804 0.7804 0.7804 0.7805
3641.000000 0.7805 0.7806 0.7806 0.7806 0.7807
3646.000000 0.7807 0.7808 0.7809 0.7809 0.7809
3651.000000 0.7809 0.7809 0.7809 0.7809 0.7818
3656.000000 0.7808 0.7808 0.7807 0.7807 0.7807
3661.000000 0.7806 0.7806 0.7806 0.7805 0.7805
3666.000000 0.7804 0.7804 0.7804 0.7803 0.7803
3671.000000 0.7803 0.7802 0.7802 0.7801 0.7801
3676.000000 0.7801 0.7800 0.7800 0.7800 0.7799
3681.000000 0.7799 0.7798 0.7798 0.7798 0.7797
3686.000000 0.7797 0.7797 0.7796 0.7796 0.7796
3691.000000 0.7796 0.7796 0.7795 0.7795 0.7794
3696.000000 0.7794 0.7793 0.7793 0.7792 0.7792
3701.000000 0.7791 0.7790 0.7790 0.7789 0.7789
3706.000000 0.7788 0.7787 0.7786 0.7786 0.7785
3711.000000 0.7784 0.7783 0.7783 0.7782 0.7781
3716.000000 0.7781 0.7780 0.7780 0.7779 0.7779
3721.000000 0.7778 0.7777 0.7777 0.7776 0.7775
3726.000000 0.7774 0.7774 0.7773 0.7772 0.7771
3731.000000 0.7771 0.7770 0.7770 0.7769 0.7769
3736.000000 0.7768 0.7767 0.7767 0.7766 0.7765
3741.000000 0.7765 0.7764 0.7763 0.7763 0.7762
3746.000000 0.7762 0.7761 0.7761 0.7760 0.7759
3751.000000 0.7758 0.7758 0.7757 0.7756 0.7756
3756.000000 0.7755 0.7754 0.7753 0.7753 0.7752
3761.000000 0.7751 0.7751 0.7750 0.7749 0.7749
3766.000000 0.7748 0.7747 0.7746 0.7746 0.7745
3771.000000 0.7744 0.7743 0.7743 0.7742 0.7741
3776.000000 0.7740 0.7739 0.7738 0.7737 0.7736
3781.000000 0.7736 0.7735 0.7734 0.7733 0.7732
3786.000000 0.7731 0.7730 0.7729 0.7729 0.7728
3791.000000 0.7727 0.7727 0.7726 0.7725 0.7724
3796.000000 0.7723 0.7723 0.7722 0.7721 0.7720
3801.000000 0.7719 0.7718 0.7717 0.7717 0.7716
3806.000000 0.7715 0.7714 0.7713 0.7712 0.7711
3811.000000 0.7710 0.7710 0.7709 0.7708 0.7707
3816.000000 0.7706 0.7705 0.7705 0.7704 0.7703
3821.000000 0.7703 0.7702 0.7701 0.7700 0.7699
3826.000000 0.7699 0.7698 0.7697 0.7696 0.7695
3831.000000 0.7694 0.7694 0.7693 0.7692 0.7691
3836.000000 0.7690 0.7689 0.7688 0.7688 0.7687
3841.000000 0.7686 0.7685 0.7684 0.7683 0.7682
3846.000000 0.7681 0.7680 0.7679 0.7678 0.7677
3851.000000 0.7676 0.7676 0.7675 0.7674 0.7673
3856.000000 0.7672 0.7671 0.7670 0.7669 0.7668
3861.000000 0.7667 0.7666 0.7665 0.7664 0.7663
3866.000000 0.7662 0.7661 0.7660 0.7659 0.7658
3871.000000 0.7658 0.7657 0.7656 0.7655 0.7654
3876.000000 0.7653 0.7652 0.7651 0.7650 0.7649
3881.000000 0.7648 0.7647 0.7647 0.7646 0.7645
3886.000000 0.7644 0.7643 0.7643 0.7642 0.7641
3891.000000 0.7640 0.7639 0.7638 0.7638 0.7637
3896.000000 0.7636 0.7635 0.7634 0.7633 0.7632
3901.000000 0.7631 0.7630 0.7629 0.7628 0.7628
3906.000000 0.7627 0.7626 0.7625 0.7624 0.7623
3911.000000 0.7622 0.7621 0.7620 0.7619 0.7618
3916.000000 0.7618 0.7617 0.7616 0.7615 0.7614
3921.000000 0.7613 0.7613 0.7612 0.7611 0.7610
3926.000000 0.7609 0.7609 0.7608 0.7607 0.7606
3931.000000 0.7605 0.7605 0.7604 0.7603 0.7602
3936.000000 0.7601 0.7601 0.7600 0.7599 0.7598
3941.000000 0.7597 0.7596 0.7596 0.7595 0.7594
3946.000000 0.7593 0.7592 0.7592 0.7591 0.7590
3951.000000 0.7589 0.7588 0.7588 0.7587 0.7586
3956.000000 0.7585 0.7584 0.7584 0.7583 0.7582
3961.000000 0.7581 0.7580 0.7580 0.7579 0.7578
3966.000000 0.7577 0.7576 0.7576 0.7575 0.7574
3971.000000 0.7573 0.7573 0.7572 0.7571 0.7570
3976.000000 0.7569 0.7567 0.7566 0.7565 0.7564
3981.000000 0.7562 0.7561 0.7560 0.7559 0.7557
3986.000000 0.7556 0.7555 0.7553 0.7552 0.7551
3991.000000 0.7549 0.7548 0.7546 0.7545 0.7544
3996.000000 0.7542 0.7541 0.7539 0.7538 0.7537
##END=
