##TITLE=ACETIC ACID, POTASSIUM SALT
##JCAMP-DX=4.24
##DATA TYPE=INFRARED SPECTRUM
##CLASS=COBLENTZ
##ORIGIN=BELL TELEPHONE LABORATORIES- F. VRATNY
##OWNER=COBLENTZ SOCIETY
Collection (C) 2018 copyright by the U.S. Secretary of Commerce
on behalf of the United States of America. All rights reserved.
##DATE=Not specified, most likely prior to 1970
##MOLFORM=C2 H3 O2 K
##SOURCE REFERENCE=COBLENTZ NO. 2038
##$NIST ID=B6002038
##$NIST SOURCE=COBLENTZ
##$NIST IMAGE=cob2038
##SPECTROMETER/DATA SYSTEM=Not specified, most likely a prism, grating, or hybrid spectrometer.
##STATE=SOLID (KCl PELLET)
##SAMPLING PROCEDURE=TRANSMISSION
##RESOLUTION=4
##DATA PROCESSING=DIGITIZED BY NIST FROM HARD COPY
##XUNITS=MICROMETERS
##YUNITS=TRANSMITTANCE
##XFACTOR=1.000000
##YFACTOR=1
##DELTAX=000.006650
##FIRSTX=2.033
##LASTX=15.5049
##FIRSTY=0.209
##MAXX=15.5049
##MINX=2.033
##MAXY=0.674
##MINY=0
##NPOINTS=2027
##XYDATA=(X++(Y..Y))
2.033000 0.2090 0.2090 0.2090 0.2090 0.2100
2.066264 0.2120 0.2130 0.2140 0.2140 0.2160
2.100000 0.2170 0.2180 0.2200 0.2200 0.2200
2.133264 0.2200 0.2210 0.2210 0.2210 0.2210
2.166000 0.2220 0.2220 0.2220 0.2220 0.2220
2.199264 0.2240 0.2240 0.2260 0.2280 0.2290
2.233000 0.2300 0.2300 0.2320 0.2320 0.2330
2.266264 0.2330 0.2340 0.2340 0.2340 0.2360
2.299000 0.2360 0.2370 0.2380 0.2400 0.2400
2.332264 0.2400 0.2410 0.2410 0.2420 0.2420
2.366000 0.2440 0.2450 0.2450 0.2450 0.2450
2.399264 0.2480 0.2510 0.2520 0.2560 0.2600
2.432000 0.2610 0.2610 0.2630 0.2630 0.2640
2.465264 0.2640 0.2640 0.2640 0.2640 0.2640
2.499000 0.2630 0.2630 0.2630 0.2630 0.2640
2.532264 0.2640 0.2650 0.2650 0.2670 0.2670
2.565000 0.2690 0.2710 0.2730 0.2770 0.2800
2.598264 0.2810 0.2830 0.2840 0.2840 0.2840
2.632000 0.2850 0.2850 0.2850 0.2850 0.2850
2.665264 0.2850 0.2850 0.2870 0.2880 0.2890
2.698000 0.2910 0.2910 0.2920 0.2920 0.2920
2.731264 0.2920 0.2920 0.2920 0.2910 0.2840
2.765000 0.2810 0.2800 0.2790 0.2720 0.2680
2.798264 0.2670 0.2640 0.2560 0.2510 0.2340
2.831000 0.2160 0.2000 0.1850 0.1730 0.1690
2.864264 0.1620 0.1610 0.1580 0.1490 0.1410
2.898000 0.1340 0.1220 0.1090 0.1050 0.1020
2.931264 0.1010 0.1000 0.0920 0.0800 0.0730
2.964000 0.0730 0.0700 0.0700 0.0690 0.0680
2.997264 0.0680 0.0680 0.0690 0.0690 0.0700
3.031000 0.0700 0.0700 0.0700 0.0720 0.0730
3.064264 0.0760 0.0770 0.0780 0.0780 0.0800
3.097000 0.0800 0.0810 0.0820 0.0820 0.0850
3.130264 0.0900 0.0930 0.1000 0.1020 0.1060
3.164000 0.1090 0.1100 0.1120 0.1140 0.1250
3.197264 0.1320 0.1360 0.1370 0.1380 0.1400
3.230000 0.1410 0.1440 0.1500 0.1580 0.1640
3.263264 0.1660 0.1690 0.1760 0.1800 0.1810
3.297000 0.1850 0.1890 0.1900 0.1900 0.1900
3.330264 0.1900 0.1900 0.1890 0.1860 0.1820
3.363000 0.1810 0.1800 0.1770 0.1770 0.1760
3.396264 0.1760 0.1780 0.1880 0.2010 0.2010
3.430000 0.2020 0.2040 0.2100 0.2180 0.2330
3.463264 0.2450 0.2530 0.2610 0.2680 0.2790
3.496000 0.2880 0.2950 0.2990 0.3010 0.3010
3.529264 0.3030 0.3030 0.3040 0.3090 0.3200
3.563000 0.3290 0.3310 0.3310 0.3320 0.3390
3.596264 0.3440 0.3470 0.3510 0.3510 0.3600
3.629000 0.3610 0.3610 0.3610 0.3630 0.3630
3.662264 0.3630 0.3630 0.3630 0.3630 0.3630
3.696000 0.3640 0.3680 0.3710 0.3720 0.3750
3.729264 0.3770 0.3810 0.3830 0.3870 0.3910
3.762000 0.3930 0.3950 0.3960 0.4000 0.4010
3.795264 0.4010 0.4010 0.4010 0.4010 0.4030
3.829000 0.4050 0.4080 0.4110 0.4120 0.4130
3.862264 0.4130 0.4130 0.4130 0.4150 0.4150
3.895000 0.4150 0.4160 0.4160 0.4170 0.4200
3.928264 0.4200 0.4200 0.4200 0.4210 0.4210
3.962000 0.4230 0.4230 0.4230 0.4240 0.4240
3.995264 0.4240 0.4240 0.4240 0.4240 0.4230
4.028000 0.4230 0.4230 0.4230 0.4230 0.4230
4.061264 0.4250 0.4270 0.4290 0.4290 0.4310
4.095000 0.4310 0.4310 0.4310 0.4310 0.4310
4.128264 0.4310 0.4320 0.4320 0.4330 0.4330
4.161000 0.4350 0.4350 0.4350 0.4360 0.4370
4.194264 0.4410 0.4430 0.4440 0.4440 0.4450
4.228000 0.4450 0.4470 0.4490 0.4510 0.4520
4.261264 0.4520 0.4530 0.4530 0.4530 0.4530
4.294000 0.4550 0.4550 0.4530 0.4530 0.4530
4.327264 0.4520 0.4520 0.4490 0.4470 0.4470
4.361000 0.4470 0.4470 0.4470 0.4470 0.4520
4.394264 0.4550 0.4560 0.4550 0.4530 0.4520
4.427000 0.4520 0.4520 0.4520 0.4520 0.4560
4.460264 0.4570 0.4570 0.4570 0.4590 0.4600
4.494000 0.4610 0.4610 0.4630 0.4630 0.4630
4.527264 0.4630 0.4630 0.4640 0.4640 0.4640
4.560000 0.4630 0.4630 0.4640 0.4650 0.4650
4.593264 0.4670 0.4670 0.4670 0.4670 0.4670
4.627000 0.4680 0.4680 0.4680 0.4680 0.4690
4.660264 0.4680 0.4690 0.4710 0.4710 0.4730
4.693000 0.4760 0.4770 0.4790 0.4800 0.4800
4.726264 0.4800 0.4800 0.4810 0.4810 0.4810
4.760000 0.4810 0.4810 0.4810 0.4810 0.4810
4.793264 0.4830 0.4830 0.4850 0.4910 0.4920
4.826000 0.4920 0.4930 0.4930 0.4930 0.4930
4.859264 0.4950 0.4950 0.4950 0.4950 0.4950
4.893000 0.4950 0.4950 0.4950 0.4950 0.4960
4.926264 0.4960 0.4960 0.4960 0.4960 0.4960
4.959000 0.4960 0.4970 0.4990 0.4990 0.4990
4.992264 0.5000 0.5020 0.5020 0.5030 0.5060
5.026000 0.5060 0.5080 0.5080 0.5070 0.5060
5.059264 0.5040 0.5040 0.5070 0.5140 0.5200
5.092000 0.5220 0.5240 0.5240 0.5240 0.5260
5.125264 0.5270 0.5300 0.5300 0.5310 0.5310
5.159000 0.5270 0.5270 0.5270 0.5270 0.5260
5.192264 0.5230 0.5220 0.5230 0.5230 0.5240
5.225000 0.5320 0.5350 0.5360 0.5380 0.5380
5.258264 0.5380 0.5390 0.5390 0.5380 0.5380
5.292000 0.5380 0.5380 0.5390 0.5400 0.5500
5.325264 0.5510 0.5510 0.5510 0.5480 0.5480
5.358000 0.5500 0.5500 0.5500 0.5510 0.5510
5.391264 0.5510 0.5520 0.5520 0.5510 0.5510
5.425000 0.5510 0.5510 0.5500 0.5500 0.5500
5.458264 0.5500 0.5500 0.5500 0.5500 0.5500
5.491000 0.5510 0.5510 0.5510 0.5510 0.5520
5.524264 0.5520 0.5540 0.5550 0.5540 0.5510
5.558000 0.5510 0.5500 0.5480 0.5480 0.5480
5.591264 0.5480 0.5500 0.5500 0.5510 0.5510
5.624000 0.5470 0.5470 0.5470 0.5440 0.5400
5.657264 0.5360 0.5360 0.5350 0.5340 0.5310
5.691000 0.5280 0.5260 0.5200 0.5120 0.5120
5.724264 0.5110 0.5110 0.5020 0.4920 0.4810
5.757000 0.4800 0.4750 0.4730 0.4720 0.4710
5.790264 0.4610 0.4520 0.4510 0.4470 0.4430
5.824000 0.4430 0.4410 0.4410 0.4360 0.4310
5.857264 0.4150 0.4010 0.3920 0.3830 0.3810
5.890000 0.3770 0.3630 0.3570 0.3520 0.3470
5.923264 0.3400 0.3350 0.3280 0.3280 0.3230
5.957000 0.3080 0.3030 0.3030 0.3010 0.3000
5.990264 0.3000 0.3010 0.3030 0.3030 0.3010
6.023000 0.2970 0.2950 0.2890 0.2840 0.2760
6.056264 0.2720 0.2680 0.2640 0.2550 0.2360
6.090000 0.2240 0.2180 0.2120 0.1850 0.1570
6.123264 0.1440 0.1240 0.1080 0.0860 0.0680
6.156000 0.0500 0.0100 0.0050 0.0020 0.0010
6.189264 0.0010 0.0010 0.0010 0.0010 0.0010
6.223000 0.0010 0.0010 0.0010 0.0010 0.0010
6.256264 0.0010 0.0010 0.0020 0.0020 0.0020
6.289000 0.0040 0.0040 0.0040 0.0040 0.0020
6.322264 0.0020 0.0010 0.0010 0.0000 0.0000
6.355000 0.0000 0.0000 0.0000 0.0000 0.0000
6.388264 0.0020 0.0020 0.0040 0.0050 0.0060
6.422000 0.0060 0.0090 0.0120 0.0120 0.0160
6.455264 0.0240 0.0330 0.0380 0.0500 0.0560
6.488000 0.0650 0.0760 0.0880 0.0980 0.1060
6.521264 0.1140 0.1240 0.1360 0.1400 0.1450
6.555000 0.1560 0.1640 0.1700 0.1720 0.1810
6.588264 0.1900 0.1900 0.1960 0.1980 0.2000
6.621000 0.2010 0.2050 0.2120 0.2170 0.2240
6.654264 0.2250 0.2260 0.2260 0.2300 0.2300
6.688000 0.2320 0.2320 0.2330 0.2330 0.2330
6.721264 0.2330 0.2330 0.2330 0.2330 0.2340
6.754000 0.2360 0.2360 0.2360 0.2340 0.2300
6.787264 0.2300 0.2220 0.2170 0.2160 0.2160
6.821000 0.2160 0.2140 0.2140 0.2130 0.1920
6.854264 0.1700 0.1620 0.1530 0.1410 0.1330
6.887000 0.1320 0.1280 0.1220 0.1100 0.1000
6.920264 0.0900 0.0890 0.0800 0.0700 0.0620
6.954000 0.0420 0.0220 0.0140 0.0010 0.0010
6.987264 0.0000 0.0000 0.0000 0.0000 0.0000
7.020000 0.0000 0.0000 0.0000 0.0000 0.0000
7.053264 0.0000 0.0000 0.0000 0.0000 0.0000
7.087000 0.0000 0.0000 0.0000 0.0000 0.0000
7.120264 0.0000 0.0000 0.0000 0.0040 0.0060
7.153000 0.0120 0.0210 0.0260 0.0420 0.0600
7.186264 0.0760 0.0890 0.1020 0.1220 0.1370
7.220000 0.1500 0.1600 0.1690 0.1770 0.1890
7.253264 0.2020 0.2170 0.2380 0.2420 0.2510
7.286000 0.2610 0.2720 0.2910 0.3010 0.3070
7.319264 0.3110 0.3160 0.3250 0.3310 0.3400
7.353000 0.3410 0.3410 0.3430 0.3410 0.3400
7.386264 0.3360 0.3330 0.3290 0.3210 0.3200
7.419000 0.3150 0.3070 0.2930 0.2760 0.2490
7.452264 0.2320 0.2320 0.2420 0.2910 0.3170
7.486000 0.3320 0.3830 0.4050 0.4210 0.4360
7.519264 0.4400 0.4450 0.4550 0.4570 0.4600
7.552000 0.4640 0.4710 0.4710 0.4720 0.4720
7.585264 0.4730 0.4790 0.4800 0.4810 0.4810
7.619000 0.4840 0.4890 0.4910 0.4920 0.4920
7.652264 0.4930 0.4930 0.4950 0.4960 0.4960
7.685000 0.4990 0.5000 0.5020 0.5020 0.5020
7.718264 0.5030 0.5030 0.5030 0.5040 0.5060
7.752000 0.5100 0.5100 0.5100 0.5110 0.5190
7.785264 0.5220 0.5280 0.5340 0.5380 0.5420
7.818000 0.5420 0.5430 0.5460 0.5480 0.5520
7.851264 0.5550 0.5560 0.5560 0.5560 0.5560
7.885000 0.5560 0.5560 0.5550 0.5510 0.5510
7.918264 0.5510 0.5510 0.5510 0.5510 0.5510
7.951000 0.5520 0.5520 0.5520 0.5520 0.5520
7.984264 0.5520 0.5510 0.5500 0.5500 0.5500
8.018000 0.5500 0.5500 0.5480 0.5480 0.5480
8.051264 0.5480 0.5480 0.5480 0.5480 0.5500
8.084000 0.5500 0.5510 0.5520 0.5560 0.5600
8.117264 0.5620 0.5620 0.5630 0.5680 0.5720
8.151000 0.5750 0.5780 0.5790 0.5790 0.5790
8.184264 0.5790 0.5790 0.5790 0.5800 0.5800
8.217000 0.5860 0.5870 0.5900 0.5910 0.5910
8.250264 0.5910 0.5910 0.5910 0.5910 0.5910
8.284000 0.5910 0.5910 0.5910 0.5900 0.5900
8.317264 0.5900 0.5910 0.5910 0.5910 0.5920
8.350000 0.5920 0.5920 0.5920 0.5940 0.5950
8.383264 0.5960 0.5960 0.5960 0.5960 0.5960
8.417000 0.5960 0.5960 0.5950 0.5940 0.5940
8.450264 0.5940 0.5940 0.5950 0.5950 0.5950
8.483000 0.5950 0.5940 0.5940 0.5940 0.5940
8.516264 0.5940 0.5940 0.5940 0.5940 0.5940
8.550000 0.5940 0.5940 0.5940 0.5940 0.5940
8.583264 0.5940 0.5940 0.5940 0.5940 0.5920
8.616000 0.5910 0.5910 0.5920 0.5920 0.5940
8.649264 0.5940 0.5950 0.5950 0.5950 0.5950
8.683000 0.5960 0.5960 0.5960 0.5960 0.5960
8.716264 0.5980 0.5980 0.5980 0.5980 0.5990
8.749000 0.5990 0.5990 0.5990 0.5990 0.5990
8.782264 0.5990 0.5990 0.5990 0.5990 0.5990
8.816000 0.5990 0.5990 0.5990 0.5960 0.5950
8.849264 0.5950 0.5940 0.5920 0.5910 0.5910
8.882000 0.5910 0.5910 0.5910 0.5910 0.5910
8.915264 0.5910 0.5910 0.5910 0.5910 0.5910
8.949000 0.5910 0.5910 0.5910 0.5910 0.5910
8.982264 0.5910 0.5910 0.5910 0.5910 0.5910
9.015000 0.5910 0.5920 0.5910 0.5910 0.5910
9.048264 0.5910 0.5910 0.5910 0.5910 0.5910
9.082000 0.5910 0.5910 0.5910 0.5910 0.5910
9.115264 0.5910 0.5920 0.5920 0.5910 0.5910
9.148000 0.5910 0.5910 0.5910 0.5910 0.5910
9.181264 0.5910 0.5910 0.5900 0.5900 0.5900
9.215000 0.5900 0.5900 0.5900 0.5900 0.5900
9.248264 0.5880 0.5860 0.5830 0.5820 0.5800
9.281000 0.5790 0.5790 0.5790 0.5790 0.5790
9.314264 0.5790 0.5790 0.5780 0.5760 0.5750
9.348000 0.5720 0.5710 0.5700 0.5700 0.5640
9.381264 0.5600 0.5540 0.5510 0.5440 0.5400
9.414000 0.5360 0.5260 0.5140 0.5060 0.4970
9.447264 0.4850 0.4710 0.4600 0.4510 0.4490
9.481000 0.4480 0.4410 0.4330 0.4270 0.4210
9.514264 0.4200 0.4200 0.4200 0.4200 0.4200
9.547000 0.4240 0.4270 0.4310 0.4410 0.4430
9.580264 0.4470 0.4550 0.4630 0.4670 0.4690
9.614000 0.4710 0.4760 0.4790 0.4790 0.4800
9.647264 0.4800 0.4800 0.4800 0.4800 0.4800
9.680000 0.4760 0.4730 0.4690 0.4610 0.4560
9.713264 0.4510 0.4470 0.4450 0.4440 0.4390
9.747000 0.4310 0.4230 0.4130 0.4040 0.4000
9.780264 0.3920 0.3920 0.3890 0.3770 0.3630
9.813000 0.3600 0.3570 0.3520 0.3490 0.3430
9.846264 0.3360 0.3330 0.3310 0.3250 0.3230
9.880000 0.3130 0.3110 0.3080 0.3050 0.3000
9.913264 0.2960 0.2960 0.2960 0.2970 0.3000
9.946000 0.3070 0.3200 0.3320 0.3510 0.3630
9.979264 0.3720 0.3880 0.4080 0.4240 0.4370
10.013000 0.4510 0.4600 0.4650 0.4710 0.4790
10.046264 0.4830 0.4870 0.4890 0.4990 0.5030
10.079000 0.5120 0.5230 0.5300 0.5390 0.5460
10.112264 0.5550 0.5600 0.5620 0.5640 0.5680
10.146000 0.5710 0.5760 0.5790 0.5830 0.5870
10.179264 0.5900 0.5910 0.5920 0.5950 0.5980
10.212000 0.6000 0.6030 0.6040 0.6060 0.6060
10.245264 0.6070 0.6110 0.6150 0.6190 0.6190
10.279000 0.6190 0.6200 0.6200 0.6200 0.6200
10.312264 0.6230 0.6230 0.6240 0.6260 0.6260
10.345000 0.6270 0.6270 0.6280 0.6280 0.6300
10.378264 0.6310 0.6340 0.6360 0.6400 0.6420
10.412000 0.6420 0.6440 0.6500 0.6520 0.6520
10.445264 0.6540 0.6540 0.6540 0.6540 0.6540
10.478000 0.6540 0.6550 0.6560 0.6590 0.6620
10.511264 0.6620 0.6620 0.6630 0.6630 0.6630
10.545000 0.6640 0.6640 0.6630 0.6620 0.6600
10.578264 0.6600 0.6590 0.6590 0.6590 0.6590
10.611000 0.6590 0.6590 0.6590 0.6590 0.6590
10.644264 0.6590 0.6590 0.6580 0.6580 0.6580
10.678000 0.6550 0.6550 0.6510 0.6470 0.6390
10.711264 0.6300 0.6280 0.6220 0.6100 0.6040
10.744000 0.6000 0.5860 0.5750 0.5640 0.5580
10.777264 0.5480 0.5400 0.5260 0.5040 0.4850
10.811000 0.4640 0.4570 0.4390 0.4310 0.4110
10.844264 0.3850 0.3350 0.3090 0.2830 0.2520
10.877000 0.2100 0.1880 0.1860 0.1890 0.2330
10.910264 0.2650 0.3170 0.4080 0.4470 0.4690
10.944000 0.4880 0.5080 0.5300 0.5360 0.5590
10.977264 0.5760 0.5910 0.6000 0.6100 0.6150
11.010000 0.6200 0.6220 0.6230 0.6300 0.6340
11.043264 0.6350 0.6420 0.6480 0.6480 0.6480
11.077000 0.6480 0.6480 0.6510 0.6510 0.6510
11.110264 0.6510 0.6510 0.6510 0.6520 0.6540
11.143000 0.6550 0.6580 0.6590 0.6590 0.6600
11.176264 0.6600 0.6600 0.6600 0.6630 0.6660
11.210000 0.6680 0.6700 0.6700 0.6700 0.6710
11.243264 0.6710 0.6710 0.6710 0.6720 0.6740
11.276000 0.6740 0.6740 0.6740 0.6740 0.6740
11.309264 0.6740 0.6740 0.6740 0.6720 0.6720
11.343000 0.6720 0.6720 0.6720 0.6720 0.6720
11.376264 0.6720 0.6720 0.6720 0.6720 0.6720
11.409000 0.6720 0.6720 0.6720 0.6720 0.6720
11.442264 0.6740 0.6740 0.6740 0.6740 0.6740
11.476000 0.6740 0.6740 0.6740 0.6740 0.6740
11.509264 0.6740 0.6740 0.6740 0.6740 0.6740
11.542000 0.6740 0.6740 0.6720 0.6720 0.6720
11.575264 0.6720 0.6720 0.6720 0.6710 0.6700
11.609000 0.6700 0.6680 0.6680 0.6680 0.6680
11.642264 0.6680 0.6670 0.6670 0.6670 0.6670
11.675000 0.6660 0.6660 0.6660 0.6620 0.6600
11.708264 0.6600 0.6600 0.6590 0.6590 0.6580
11.742000 0.6560 0.6540 0.6540 0.6540 0.6540
11.775264 0.6520 0.6500 0.6460 0.6460 0.6460
11.808000 0.6460 0.6480 0.6480 0.6480 0.6480
11.841264 0.6480 0.6480 0.6460 0.6460 0.6460
11.875000 0.6460 0.6440 0.6440 0.6420 0.6420
11.908264 0.6420 0.6420 0.6420 0.6420 0.6420
11.941000 0.6420 0.6400 0.6400 0.6400 0.6390
11.974264 0.6390 0.6380 0.6380 0.6360 0.6360
12.008000 0.6360 0.6360 0.6350 0.6340 0.6310
12.041264 0.6310 0.6300 0.6280 0.6260 0.6260
12.074000 0.6240 0.6240 0.6240 0.6220 0.6200
12.107264 0.6200 0.6200 0.6200 0.6200 0.6200
12.141000 0.6200 0.6200 0.6190 0.6190 0.6190
12.174264 0.6190 0.6190 0.6190 0.6190 0.6190
12.207000 0.6190 0.6190 0.6190 0.6200 0.6190
12.240264 0.6190 0.6190 0.6190 0.6190 0.6190
12.274000 0.6190 0.6190 0.6190 0.6190 0.6190
12.307264 0.6180 0.6180 0.6160 0.6140 0.6140
12.340000 0.6120 0.6100 0.6060 0.6060 0.6060
12.373264 0.6040 0.6040 0.6040 0.6040 0.6040
12.407000 0.6030 0.6030 0.6020 0.6020 0.6000
12.440264 0.6000 0.6000 0.5990 0.5990 0.5980
12.473000 0.5980 0.5980 0.5980 0.5980 0.5980
12.506264 0.5980 0.5980 0.5980 0.5980 0.5980
12.540000 0.5980 0.5980 0.5980 0.5960 0.5960
12.573264 0.5960 0.5960 0.5960 0.5950 0.5940
12.606000 0.5940 0.5920 0.5910 0.5910 0.5910
12.639264 0.5910 0.5910 0.5940 0.5940 0.5940
12.673000 0.5920 0.5920 0.5910 0.5910 0.5900
12.706264 0.5880 0.5880 0.5880 0.5880 0.5880
12.739000 0.5880 0.5900 0.5900 0.5880 0.5860
12.772264 0.5830 0.5830 0.5820 0.5820 0.5820
12.806000 0.5820 0.5820 0.5830 0.5840 0.5840
12.839264 0.5840 0.5830 0.5830 0.5830 0.5830
12.872000 0.5820 0.5820 0.5820 0.5820 0.5830
12.905264 0.5840 0.5840 0.5840 0.5840 0.5830
12.939000 0.5800 0.5800 0.5800 0.5800 0.5800
12.972264 0.5800 0.5880 0.5880 0.5880 0.5880
13.005000 0.5880 0.5880 0.5880 0.5880 0.5880
13.038264 0.5880 0.5880 0.5880 0.5880 0.5870
13.072000 0.5830 0.5820 0.5820 0.5820 0.5820
13.105264 0.5820 0.5800 0.5790 0.5780 0.5780
13.138000 0.5780 0.5780 0.5790 0.5790 0.5790
13.171264 0.5790 0.5790 0.5790 0.5790 0.5790
13.205000 0.5790 0.5790 0.5790 0.5790 0.5790
13.238264 0.5790 0.5820 0.5820 0.5800 0.5800
13.271000 0.5790 0.5790 0.5790 0.5800 0.5800
13.304264 0.5800 0.5790 0.5750 0.5750 0.5750
13.338000 0.5750 0.5750 0.5750 0.5750 0.5790
13.371264 0.5790 0.5790 0.5790 0.5790 0.5790
13.404000 0.5790 0.5790 0.5790 0.5790 0.5790
13.437264 0.5790 0.5790 0.5790 0.5780 0.5780
13.471000 0.5780 0.5780 0.5780 0.5780 0.5780
13.504264 0.5780 0.5780 0.5790 0.5790 0.5790
13.537000 0.5780 0.5780 0.5780 0.5780 0.5780
13.570264 0.5780 0.5790 0.5790 0.5790 0.5780
13.604000 0.5780 0.5780 0.5780 0.5780 0.5780
13.637264 0.5780 0.5780 0.5780 0.5780 0.5780
13.670000 0.5780 0.5780 0.5780 0.5780 0.5780
13.703264 0.5780 0.5780 0.5780 0.5780 0.5780
13.737000 0.5790 0.5790 0.5790 0.5790 0.5790
13.770264 0.5790 0.5790 0.5790 0.5790 0.5790
13.803000 0.5780 0.5790 0.5790 0.5790 0.5790
13.836264 0.5790 0.5800 0.5800 0.5800 0.5800
13.870000 0.5790 0.5790 0.5790 0.5790 0.5790
13.903264 0.5790 0.5790 0.5800 0.5800 0.5800
13.936000 0.5800 0.5790 0.5760 0.5760 0.5780
13.969264 0.5780 0.5790 0.5790 0.5790 0.5790
14.003000 0.5790 0.5790 0.5790 0.5790 0.5800
14.036264 0.5800 0.5800 0.5800 0.5800 0.5800
14.069000 0.5800 0.5800 0.5800 0.5800 0.5800
14.102264 0.5800 0.5800 0.5800 0.5800 0.5800
14.136000 0.5800 0.5800 0.5800 0.5800 0.5800
14.169264 0.5790 0.5790 0.5790 0.5790 0.5820
14.202000 0.5820 0.5800 0.5800 0.5800 0.5800
14.235264 0.5800 0.5800 0.5800 0.5800 0.5800
14.269000 0.5800 0.5800 0.5800 0.5800 0.5800
14.302264 0.5800 0.5800 0.5800 0.5800 0.5800
14.335000 0.5800 0.5800 0.5800 0.5800 0.5790
14.368264 0.5790 0.5800 0.5800 0.5800 0.5800
14.402000 0.5800 0.5800 0.5800 0.5800 0.5800
14.435264 0.5800 0.5800 0.5790 0.5790 0.5790
14.468000 0.5800 0.5800 0.5800 0.5830 0.5830
14.501264 0.5830 0.5820 0.5820 0.5820 0.5800
14.535000 0.5800 0.5800 0.5800 0.5800 0.5800
14.568264 0.5800 0.5800 0.5800 0.5800 0.5790
14.601000 0.5790 0.5790 0.5790 0.5790 0.5790
14.634264 0.5790 0.5790 0.5790 0.5790 0.5790
14.668000 0.5790 0.5790 0.5790 0.5790 0.5790
14.701264 0.5790 0.5780 0.5760 0.5750 0.5750
14.734000 0.5750 0.5760 0.5760 0.5780 0.5790
14.767264 0.5790 0.5790 0.5790 0.5760 0.5740
14.801000 0.5710 0.5710 0.5710 0.5710 0.5710
14.834264 0.5710 0.5710 0.5710 0.5710 0.5710
14.867000 0.5710 0.5710 0.5710 0.5750 0.5760
14.900264 0.5780 0.5790 0.5790 0.5790 0.5790
14.934000 0.5710 0.5620 0.5520 0.5430 0.5400
14.967264 0.5350 0.5350 0.5390 0.5390 0.5400
15.000000 0.5430 0.5470 0.5480 0.5480 0.5480
15.033264 0.5460 0.5400 0.5380 0.5380 0.5380
15.066000 0.5380 0.5320 0.5300 0.5280 0.5280
15.099264 0.5220 0.5190 0.5180 0.5160 0.5150
15.133000 0.5120 0.5060 0.4960 0.4890 0.4810
15.166264 0.4770 0.4680 0.4600 0.4560 0.4510
15.199000 0.4490 0.4480 0.4440 0.4390 0.4390
15.232264 0.4310 0.4250 0.4190 0.4150 0.4110
15.266000 0.4000 0.3950 0.3910 0.3790 0.3680
15.299264 0.3550 0.3360 0.3330 0.3290 0.3230
15.332000 0.3170 0.3120 0.3090 0.2950 0.2750
15.365264 0.2570 0.2400 0.2300 0.2210 0.2170
15.399000 0.2130 0.2080 0.2020 0.1940 0.1920
15.432264 0.1920 0.1920 0.1920 0.1940 0.1960
15.465000 0.1970 0.2000 0.2020 0.2100 0.2120
15.498264 0.2180 0.2180
##END=
