##TITLE=1,2-CYCLOBUTANE, BIS(METHYLAMINE)-
##JCAMP-DX=4.24
##DATA TYPE=INFRARED SPECTRUM
##CLASS=COBLENTZ III
##ORIGIN=DOW CHEMICAL COMPANY
##OWNER=COBLENTZ SOC.
Collection (C) 2018 copyright by the U.S. Secretary of Commerce
on behalf of the United States of America. All rights reserved.
##DATE=1966/02/04
##NAMES=[2-(aminomethyl)cyclobutyl]methylamine
##MOLFORM=C6 H14 N2
##SOURCE REFERENCE=COBLENTZ NO. 06703
##$NIST ID=B6006703
##$NIST SOURCE=COBLENTZ
##$NIST IMAGE=cob6703
##SPECTROMETER/DATA SYSTEM=DOW KBr FOREPRISM-GRATING
##INSTRUMENT PARAMETERS=BLAZED AT 3.5, 12.0, 20.0 MICRON AND CHANGED AT 5.0, 7.5, 14.9 MICRON
##STATE=LIQUID (NEAT)
##PATH LENGTH=CAPILLARY
$$ SPECTRAL FEATURE AT 1985 CM^-^1 IS AN ARTIFACT CAUSED BY GRATING CHANGE
##SAMPLING PROCEDURE=TRANSMISSION
##RESOLUTION=2
##DATA PROCESSING=DIGITIZED BY COBLENTZ SOCIETY (BATCH I) FROM HARD COPY
##XUNITS=1/CM
##YUNITS=TRANSMITTANCE
##XLABEL=Wavenumbers (cm-1)
##YLABEL=% Transmission
##XFACTOR=1
##YFACTOR=1
##DELTAX=1
##FIRSTX=454
##LASTX=3800
##FIRSTY=0.7193
##MAXX=3800
##MINX=454
##MAXY=1.0449
##MINY=0.0504
##NPOINTS=3347
##XYDATA=(X++(Y..Y))
454.000000 0.7193 0.7214 0.7225 0.7239 0.7249
459.000000 0.7258 0.7268 0.7276 0.7287 0.7294
464.000000 0.7300 0.7307 0.7312 0.7319 0.7325
469.000000 0.7332 0.7339 0.7345 0.7351 0.7357
474.000000 0.7362 0.7364 0.7365 0.7365 0.7365
479.000000 0.7367 0.7368 0.7368 0.7369 0.7369
484.000000 0.7371 0.7371 0.7371 0.7371 0.7371
489.000000 0.7372 0.7382 0.7391 0.7400 0.7408
494.000000 0.7418 0.7426 0.7437 0.7449 0.7460
499.000000 0.7471 0.7483 0.7495 0.7507 0.7518
504.000000 0.7533 0.7547 0.7561 0.7574 0.7588
509.000000 0.7601 0.7615 0.7630 0.7643 0.7656
514.000000 0.7669 0.7683 0.7696 0.7710 0.7722
519.000000 0.7735 0.7748 0.7760 0.7771 0.7785
524.000000 0.7797 0.7810 0.7821 0.7834 0.7845
529.000000 0.7855 0.7865 0.7875 0.7886 0.7896
534.000000 0.7905 0.7911 0.7919 0.7926 0.7935
539.000000 0.7938 0.7938 0.7938 0.7937 0.7937
544.000000 0.7934 0.7926 0.7921 0.7914 0.7908
549.000000 0.7901 0.7895 0.7889 0.7882 0.7872
554.000000 0.7864 0.7855 0.7845 0.7836 0.7826
559.000000 0.7817 0.7806 0.7796 0.7785 0.7775
564.000000 0.7764 0.7753 0.7743 0.7732 0.7721
569.000000 0.7710 0.7699 0.7687 0.7686 0.7686
574.000000 0.7686 0.7685 0.7685 0.7685 0.7685
579.000000 0.7685 0.7688 0.7694 0.7699 0.7705
584.000000 0.7715 0.7726 0.7737 0.7748 0.7748
589.000000 0.7748 0.7744 0.7736 0.7728 0.7719
594.000000 0.7708 0.7697 0.7685 0.7674 0.7661
599.000000 0.7650 0.7638 0.7625 0.7611 0.7597
604.000000 0.7583 0.7568 0.7551 0.7533 0.7514
609.000000 0.7491 0.7458 0.7425 0.7392 0.7356
614.000000 0.7321 0.7296 0.7297 0.7298 0.7304
619.000000 0.7331 0.7361 0.7388 0.7405 0.7411
624.000000 0.7418 0.7421 0.7424 0.7430 0.7451
629.000000 0.7474 0.7496 0.7525 0.7557 0.7603
634.000000 0.7650 0.7693 0.7732 0.7771 0.7807
639.000000 0.7838 0.7869 0.7886 0.7897 0.7900
644.000000 0.7904 0.7908 0.7911 0.7915 0.7918
649.000000 0.7922 0.7925 0.7930 0.7933 0.7937
654.000000 0.7935 0.7935 0.7934 0.7928 0.7925
659.000000 0.7924 0.7921 0.7918 0.7915 0.7911
664.000000 0.7908 0.7905 0.7901 0.7899 0.7895
669.000000 0.7891 0.7887 0.7882 0.7876 0.7871
674.000000 0.7865 0.7857 0.7848 0.7840 0.7832
679.000000 0.7822 0.7814 0.7804 0.7795 0.7780
684.000000 0.7765 0.7750 0.7735 0.7719 0.7705
689.000000 0.7692 0.7678 0.7665 0.7651 0.7638
694.000000 0.7624 0.7611 0.7597 0.7584 0.7571
699.000000 0.7558 0.7545 0.7532 0.7518 0.7505
704.000000 0.7492 0.7478 0.7465 0.7451 0.7438
709.000000 0.7424 0.7403 0.7382 0.7360 0.7339
714.000000 0.7318 0.7296 0.7275 0.7254 0.7233
719.000000 0.7211 0.7190 0.7158 0.7115 0.7072
724.000000 0.7030 0.6987 0.6944 0.6895 0.6846
729.000000 0.6801 0.6760 0.6717 0.6674 0.6631
734.000000 0.6588 0.6546 0.6500 0.6442 0.6383
739.000000 0.6325 0.6267 0.6208 0.6152 0.6096
744.000000 0.6041 0.5985 0.5930 0.5874 0.5818
749.000000 0.5759 0.5698 0.5637 0.5576 0.5515
754.000000 0.5454 0.5390 0.5317 0.5244 0.5171
759.000000 0.5098 0.5025 0.4951 0.4873 0.4795
764.000000 0.4717 0.4639 0.4560 0.4483 0.4436
769.000000 0.4388 0.4340 0.4293 0.4245 0.4197
774.000000 0.4150 0.4093 0.4029 0.3964 0.3900
779.000000 0.3843 0.3792 0.3741 0.3690 0.3639
784.000000 0.3589 0.3539 0.3495 0.3450 0.3407
789.000000 0.3362 0.3318 0.3276 0.3232 0.3188
794.000000 0.3144 0.3100 0.3057 0.3016 0.2974
799.000000 0.2932 0.2891 0.2849 0.2808 0.2766
804.000000 0.2724 0.2685 0.2648 0.2610 0.2572
809.000000 0.2534 0.2495 0.2457 0.2419 0.2381
814.000000 0.2343 0.2305 0.2266 0.2226 0.2185
819.000000 0.2145 0.2105 0.2065 0.2024 0.1984
824.000000 0.1944 0.1904 0.1868 0.1837 0.1808
829.000000 0.1777 0.1746 0.1717 0.1690 0.1669
834.000000 0.1649 0.1628 0.1607 0.1591 0.1581
839.000000 0.1570 0.1559 0.1552 0.1546 0.1545
844.000000 0.1546 0.1546 0.1496 0.1552 0.1556
849.000000 0.1566 0.1576 0.1592 0.1609 0.1625
854.000000 0.1642 0.1661 0.1679 0.1699 0.1721
859.000000 0.1744 0.1768 0.1791 0.1815 0.1839
864.000000 0.1863 0.1886 0.1912 0.1936 0.1962
869.000000 0.1985 0.2011 0.2035 0.2061 0.2089
874.000000 0.2119 0.2150 0.2181 0.2192 0.2202
879.000000 0.2212 0.2221 0.2231 0.2240 0.2249
884.000000 0.2259 0.2268 0.2278 0.2287 0.2300
889.000000 0.2313 0.2326 0.2339 0.2353 0.2370
894.000000 0.2387 0.2404 0.2422 0.2439 0.2456
899.000000 0.2473 0.2491 0.2508 0.2527 0.2549
904.000000 0.2573 0.2597 0.2621 0.2646 0.2670
909.000000 0.2694 0.2719 0.2743 0.2767 0.2795
914.000000 0.2824 0.2854 0.2883 0.2912 0.2942
919.000000 0.2971 0.3001 0.3032 0.3064 0.3096
924.000000 0.3127 0.3159 0.3173 0.3183 0.3193
929.000000 0.3204 0.3214 0.3228 0.3241 0.3264
934.000000 0.3291 0.3318 0.3344 0.3371 0.3398
939.000000 0.3425 0.3457 0.3490 0.3522 0.3566
944.000000 0.3618 0.3670 0.3721 0.3773 0.3825
949.000000 0.3884 0.3966 0.4050 0.4132 0.4215
954.000000 0.4315 0.4414 0.4512 0.4612 0.4714
959.000000 0.4815 0.4917 0.5019 0.5118 0.5204
964.000000 0.5290 0.5375 0.5460 0.5544 0.5627
969.000000 0.5710 0.5793 0.5880 0.5981 0.6083
974.000000 0.6184 0.6292 0.6405 0.6518 0.6591
979.000000 0.6658 0.6725 0.6789 0.6843 0.6898
984.000000 0.6948 0.6974 0.7001 0.7026 0.7053
989.000000 0.7064 0.7071 0.7078 0.7086 0.7086
994.000000 0.7080 0.7118 0.7068 0.7062 0.7053
999.000000 0.7042 0.7031 0.7010 0.6988 0.6965
1004.000000 0.6943 0.6912 0.6875 0.6837 0.6799
1009.000000 0.6768 0.6737 0.6707 0.6675 0.6651
1014.000000 0.6631 0.6611 0.6590 0.6568 0.6548
1019.000000 0.6528 0.6512 0.6496 0.6484 0.6472
1024.000000 0.6458 0.6443 0.6426 0.6410 0.6411
1029.000000 0.6412 0.6357 0.6425 0.6445 0.6475
1034.000000 0.6511 0.6551 0.6605 0.6660 0.6715
1039.000000 0.6769 0.6839 0.6931 0.7026 0.7151
1044.000000 0.7171 0.7194 0.7221 0.7225 0.7225
1049.000000 0.7224 0.7214 0.7204 0.7196 0.7187
1054.000000 0.7167 0.7146 0.7125 0.7105 0.7086
1059.000000 0.7065 0.7047 0.7031 0.7015 0.7012
1064.000000 0.7008 0.6985 0.6957 0.6925 0.6889
1069.000000 0.6853 0.6815 0.6786 0.6755 0.6725
1074.000000 0.6695 0.6671 0.6651 0.6631 0.6625
1079.000000 0.6612 0.6628 0.6645 0.6661 0.6678
1084.000000 0.6696 0.6712 0.6731 0.6749 0.6772
1089.000000 0.6796 0.6818 0.6842 0.6865 0.6887
1094.000000 0.6907 0.6928 0.6949 0.7005 0.6961
1099.000000 0.6961 0.6960 0.6958 0.6956 0.6954
1104.000000 0.6951 0.6953 0.6954 0.6925 0.6962
1109.000000 0.6968 0.6980 0.6994 0.7008 0.7028
1114.000000 0.7061 0.7097 0.7131 0.7168 0.7207
1119.000000 0.7245 0.7283 0.7321 0.7365 0.7408
1124.000000 0.7453 0.7503 0.7555 0.7608 0.7675
1129.000000 0.7775 0.7874 0.8028 0.8061 0.8096
1134.000000 0.8110 0.8124 0.8134 0.8144 0.8155
1139.000000 0.8165 0.8176 0.8203 0.8228 0.8249
1144.000000 0.8267 0.8285 0.8293 0.8300 0.8306
1149.000000 0.8313 0.8316 0.8318 0.8321 0.8325
1154.000000 0.8332 0.8338 0.8344 0.8366 0.8389
1159.000000 0.8407 0.8420 0.8434 0.8436 0.8439
1164.000000 0.8441 0.8444 0.8448 0.8451 0.8455
1169.000000 0.8468 0.8482 0.8492 0.8494 0.8493
1174.000000 0.8493 0.8488 0.8482 0.8484 0.8497
1179.000000 0.8509 0.8521 0.8554 0.8586 0.8616
1184.000000 0.8642 0.8663 0.8678 0.8693 0.8709
1189.000000 0.8717 0.8721 0.8725 0.8728 0.8728
1194.000000 0.8731 0.8774 0.8734 0.8734 0.8725
1199.000000 0.8715 0.8705 0.8694 0.8684 0.8665
1204.000000 0.8646 0.8625 0.8603 0.8580 0.8558
1209.000000 0.8538 0.8518 0.8499 0.8478 0.8460
1214.000000 0.8440 0.8425 0.8409 0.8393 0.8377
1219.000000 0.8362 0.8347 0.8335 0.8328 0.8321
1224.000000 0.8314 0.8307 0.8303 0.8300 0.8297
1229.000000 0.8294 0.8291 0.8289 0.8288 0.8287
1234.000000 0.8285 0.8285 0.8285 0.8285 0.8286
1239.000000 0.8285 0.8285 0.8281 0.8278 0.8274
1244.000000 0.8270 0.8266 0.8259 0.8254 0.8249
1249.000000 0.8242 0.8227 0.8230 0.8236 0.8245
1254.000000 0.8267 0.8294 0.8318 0.8344 0.8389
1259.000000 0.8441 0.8518 0.8562 0.8593 0.8606
1264.000000 0.8613 0.8598 0.8609 0.8602 0.8591
1269.000000 0.8581 0.8567 0.8551 0.8534 0.8512
1274.000000 0.8485 0.8458 0.8427 0.8391 0.8355
1279.000000 0.8318 0.8281 0.8244 0.8206 0.8161
1284.000000 0.8115 0.8068 0.8021 0.7974 0.7930
1289.000000 0.7907 0.7885 0.7862 0.7843 0.7830
1294.000000 0.7817 0.7804 0.7793 0.7789 0.7785
1299.000000 0.7781 0.7776 0.7772 0.7771 0.7771
1304.000000 0.7771 0.7771 0.7769 0.7769 0.7769
1309.000000 0.7769 0.7771 0.7774 0.7775 0.7778
1314.000000 0.7780 0.7782 0.7784 0.7786 0.7788
1319.000000 0.7790 0.7792 0.7795 0.7798 0.7801
1324.000000 0.7804 0.7795 0.7780 0.7765 0.7745
1329.000000 0.7718 0.7691 0.7656 0.7608 0.7574
1334.000000 0.7550 0.7531 0.7512 0.7494 0.7484
1339.000000 0.7472 0.7465 0.7458 0.7454 0.7448
1344.000000 0.7446 0.7444 0.7442 0.7432 0.7389
1349.000000 0.7339 0.7289 0.7238 0.7186 0.7133
1354.000000 0.7082 0.7037 0.7031 0.7025 0.7037
1359.000000 0.7049 0.7060 0.7081 0.7108 0.7135
1364.000000 0.7161 0.7184 0.7207 0.7211 0.7192
1369.000000 0.7171 0.7134 0.7093 0.6986 0.6894
1374.000000 0.6806 0.6704 0.6595 0.6489 0.6273
1379.000000 0.6020 0.5912 0.5952 0.5965 0.5986
1384.000000 0.6030 0.6074 0.6121 0.6196 0.6296
1389.000000 0.6428 0.6557 0.6690 0.6830 0.6968
1394.000000 0.7072 0.7205 0.7512 0.7848 0.8301
1399.000000 0.8510 0.8649 0.8698 0.8747 0.8795
1404.000000 0.8828 0.8851 0.8874 0.8897 0.8906
1409.000000 0.8912 0.8918 0.8916 0.8910 0.8905
1414.000000 0.8896 0.8888 0.8877 0.8865 0.8851
1419.000000 0.8837 0.8824 0.8807 0.8788 0.8768
1424.000000 0.8742 0.8711 0.8668 0.8598 0.8512
1429.000000 0.8388 0.8256 0.8089 0.7914 0.7749
1434.000000 0.7584 0.7014 0.7015 0.6986 0.7144
1439.000000 0.7278 0.7360 0.7358 0.7381 0.7269
1444.000000 0.7208 0.7146 0.7048 0.6939 0.6808
1449.000000 0.6765 0.6724 0.6690 0.6665 0.6641
1454.000000 0.6630 0.6578 0.6639 0.6658 0.6678
1459.000000 0.6698 0.6722 0.6754 0.6790 0.6825
1464.000000 0.6891 0.6974 0.7071 0.7215 0.7408
1469.000000 0.7592 0.7756 0.7894 0.8021 0.8168
1474.000000 0.8306 0.8383 0.8460 0.8534 0.8607
1479.000000 0.8637 0.8668 0.8699 0.8720 0.8731
1484.000000 0.8741 0.8752 0.8763 0.8771 0.8773
1489.000000 0.8775 0.8778 0.8780 0.8782 0.8784
1494.000000 0.8786 0.8786 0.8787 0.8787 0.8787
1499.000000 0.8788 0.8781 0.8773 0.8765 0.8758
1504.000000 0.8750 0.8741 0.8728 0.8717 0.8705
1509.000000 0.8693 0.8681 0.8667 0.8652 0.8637
1514.000000 0.8621 0.8607 0.8582 0.8557 0.8532
1519.000000 0.8507 0.8484 0.8462 0.8440 0.8418
1524.000000 0.8396 0.8374 0.8343 0.8312 0.8280
1529.000000 0.8248 0.8217 0.8185 0.8153 0.8117
1534.000000 0.8074 0.8030 0.7987 0.7944 0.7900
1539.000000 0.7858 0.7817 0.7775 0.7734 0.7692
1544.000000 0.7651 0.7608 0.7567 0.7511 0.7455
1549.000000 0.7400 0.7344 0.7288 0.7228 0.7169
1554.000000 0.7111 0.7051 0.6969 0.6881 0.6793
1559.000000 0.6704 0.6607 0.6507 0.6408 0.6318
1564.000000 0.6249 0.6179 0.6110 0.6041 0.5971
1569.000000 0.5901 0.5831 0.5760 0.5690 0.5620
1574.000000 0.5549 0.5477 0.5405 0.5333 0.5260
1579.000000 0.5189 0.5115 0.5041 0.4966 0.4892
1584.000000 0.4803 0.4712 0.4621 0.4530 0.4454
1589.000000 0.4382 0.4310 0.4240 0.4172 0.4128
1594.000000 0.4094 0.4080 0.4064 0.4057 0.4057
1599.000000 0.4058 0.4059 0.4052 0.4072 0.4084
1604.000000 0.4103 0.4123 0.4146 0.4171 0.4204
1609.000000 0.4248 0.4304 0.4371 0.4443 0.4515
1614.000000 0.4599 0.4685 0.4778 0.4878 0.4978
1619.000000 0.5088 0.5199 0.5303 0.5406 0.5509
1624.000000 0.5609 0.5705 0.5800 0.5893 0.5974
1629.000000 0.6056 0.6138 0.6228 0.6324 0.6418
1634.000000 0.6507 0.6586 0.6665 0.6744 0.6818
1639.000000 0.6875 0.6931 0.6988 0.7045 0.7104
1644.000000 0.7168 0.7234 0.7299 0.7364 0.7435
1649.000000 0.7506 0.7578 0.7649 0.7719 0.7776
1654.000000 0.7828 0.7881 0.7933 0.7985 0.8026
1659.000000 0.8064 0.8100 0.8137 0.8172 0.8210
1664.000000 0.8247 0.8271 0.8294 0.8317 0.8340
1669.000000 0.8363 0.8385 0.8408 0.8431 0.8461
1674.000000 0.8490 0.8520 0.8549 0.8578 0.8609
1679.000000 0.8638 0.8665 0.8692 0.8720 0.8747
1684.000000 0.8774 0.8794 0.8814 0.8834 0.8854
1689.000000 0.8874 0.8894 0.8914 0.8934 0.8955
1694.000000 0.8977 0.8999 0.9021 0.9043 0.9066
1699.000000 0.9088 0.9111 0.9133 0.9155 0.9177
1704.000000 0.9197 0.9217 0.9237 0.9256 0.9275
1709.000000 0.9291 0.9308 0.9321 0.9334 0.9346
1714.000000 0.9359 0.9371 0.9383 0.9395 0.9407
1719.000000 0.9418 0.9431 0.9441 0.9449 0.9457
1724.000000 0.9465 0.9474 0.9482 0.9490 0.9498
1729.000000 0.9506 0.9514 0.9521 0.9528 0.9535
1734.000000 0.9542 0.9549 0.9555 0.9562 0.9568
1739.000000 0.9575 0.9582 0.9589 0.9594 0.9600
1744.000000 0.9605 0.9610 0.9615 0.9620 0.9625
1749.000000 0.9631 0.9636 0.9641 0.9645 0.9649
1754.000000 0.9652 0.9655 0.9661 0.9668 0.9677
1759.000000 0.9685 0.9692 0.9696 0.9701 0.9716
1764.000000 0.9731 0.9747 0.9756 0.9757 0.9757
1769.000000 0.9757 0.9756 0.9755 0.9754 0.9753
1774.000000 0.9752 0.9751 0.9750 0.9748 0.9748
1779.000000 0.9747 0.9746 0.9745 0.9744 0.9743
1784.000000 0.9742 0.9741 0.9740 0.9739 0.9739
1789.000000 0.9738 0.9737 0.9735 0.9734 0.9733
1794.000000 0.9731 0.9730 0.9728 0.9727 0.9725
1799.000000 0.9724 0.9723 0.9721 0.9720 0.9718
1804.000000 0.9717 0.9715 0.9714 0.9712 0.9710
1809.000000 0.9708 0.9706 0.9704 0.9702 0.9700
1814.000000 0.9698 0.9696 0.9694 0.9692 0.9690
1819.000000 0.9688 0.9686 0.9684 0.9682 0.9680
1824.000000 0.9678 0.9675 0.9674 0.9671 0.9670
1829.000000 0.9668 0.9667 0.9666 0.9665 0.9664
1834.000000 0.9663 0.9662 0.9661 0.9660 0.9659
1839.000000 0.9658 0.9657 0.9656 0.9655 0.9654
1844.000000 0.9653 0.9652 0.9651 0.9650 0.9648
1849.000000 0.9647 0.9646 0.9645 0.9644 0.9643
1854.000000 0.9642 0.9641 0.9640 0.9639 0.9638
1859.000000 0.9637 0.9636 0.9636 0.9636 0.9636
1864.000000 0.9633 0.9632 0.9631 0.9630 0.9628
1869.000000 0.9628 0.9627 0.9625 0.9625 0.9625
1874.000000 0.9625 0.9625 0.9624 0.9624 0.9624
1879.000000 0.9623 0.9623 0.9621 0.9621 0.9621
1884.000000 0.9621 0.9621 0.9620 0.9620 0.9620
1889.000000 0.9618 0.9618 0.9618 0.9618 0.9618
1894.000000 0.9618 0.9618 0.9618 0.9618 0.9618
1899.000000 0.9618 0.9618 0.9618 0.9618 0.9618
1904.000000 0.9618 0.9618 0.9618 0.9618 0.9618
1909.000000 0.9618 0.9618 0.9618 0.9618 0.9618
1914.000000 0.9618 0.9618 0.9618 0.9618 0.9618
1919.000000 0.9617 0.9617 0.9616 0.9616 0.9615
1924.000000 0.9615 0.9614 0.9614 0.9613 0.9613
1929.000000 0.9612 0.9612 0.9611 0.9611 0.9610
1934.000000 0.9610 0.9609 0.9609 0.9608 0.9608
1939.000000 0.9608 0.9608 0.9609 0.9610 0.9611
1944.000000 0.9611 0.9612 0.9613 0.9614 0.9616
1949.000000 0.9620 0.9624 0.9627 0.9631 0.9634
1954.000000 0.9638 0.9640 0.9642 0.9644 0.9643
1959.000000 0.9642 0.9631 0.9620 0.9614 0.9611
1964.000000 0.9607 0.9604 0.9604 0.9604 0.9606
1969.000000 0.9609 0.9612 0.9615 0.9618 0.9621
1974.000000 0.9624 0.9627 0.9630 0.9633 0.9636
1979.000000 0.9639 0.9644 0.9650 0.9656 0.9662
1984.000000 0.9668 0.9673 0.9678 0.9685 0.9721
1989.000000 0.9790 0.9857 0.9925 0.9993 1.0060
1994.000000 1.0128 1.0196 1.0257 1.0273 1.0283
1999.000000 1.0289 1.0294 1.0296 1.0299 1.0300
2004.000000 1.0302 1.0304 1.0306 1.0307 1.0309
2009.000000 1.0309 1.0310 1.0310 1.0311 1.0312
2014.000000 1.0313 1.0314 1.0315 1.0316 1.0318
2019.000000 1.0318 1.0321 1.0321 1.0323 1.0324
2024.000000 1.0325 1.0325 1.0325 1.0325 1.0325
2029.000000 1.0324 1.0324 1.0323 1.0321 1.0321
2034.000000 1.0320 1.0318 1.0318 1.0317 1.0316
2039.000000 1.0315 1.0314 1.0314 1.0314 1.0314
2044.000000 1.0314 1.0314 1.0314 1.0314 1.0314
2049.000000 1.0313 1.0313 1.0313 1.0313 1.0313
2054.000000 1.0313 1.0313 1.0313 1.0313 1.0313
2059.000000 1.0313 1.0313 1.0313 1.0313 1.0313
2064.000000 1.0313 1.0313 1.0313 1.0313 1.0313
2069.000000 1.0313 1.0313 1.0313 1.0313 1.0313
2074.000000 1.0313 1.0313 1.0313 1.0313 1.0313
2079.000000 1.0313 1.0313 1.0312 1.0312 1.0312
2084.000000 1.0312 1.0311 1.0311 1.0311 1.0311
2089.000000 1.0310 1.0310 1.0310 1.0310 1.0309
2094.000000 1.0309 1.0308 1.0308 1.0307 1.0306
2099.000000 1.0305 1.0304 1.0302 1.0301 1.0300
2104.000000 1.0299 1.0298 1.0297 1.0295 1.0294
2109.000000 1.0293 1.0292 1.0290 1.0289 1.0288
2114.000000 1.0287 1.0285 1.0284 1.0283 1.0282
2119.000000 1.0280 1.0278 1.0278 1.0277 1.0275
2124.000000 1.0274 1.0273 1.0271 1.0270 1.0268
2129.000000 1.0266 1.0265 1.0263 1.0261 1.0259
2134.000000 1.0258 1.0256 1.0254 1.0252 1.0251
2139.000000 1.0249 1.0247 1.0245 1.0244 1.0242
2144.000000 1.0240 1.0239 1.0239 1.0239 1.0239
2149.000000 1.0238 1.0238 1.0238 1.0238 1.0238
2154.000000 1.0238 1.0238 1.0238 1.0238 1.0238
2159.000000 1.0238 1.0238 1.0241 1.0245 1.0249
2164.000000 1.0253 1.0257 1.0261 1.0264 1.0268
2169.000000 1.0270 1.0273 1.0275 1.0278 1.0280
2174.000000 1.0283 1.0285 1.0288 1.0290 1.0274
2179.000000 1.0294 1.0297 1.0298 1.0299 1.0299
2184.000000 1.0299 1.0298 1.0298 1.0297 1.0297
2189.000000 1.0297 1.0297 1.0296 1.0296 1.0295
2194.000000 1.0295 1.0294 1.0294 1.0293 1.0293
2199.000000 1.0292 1.0292 1.0291 1.0291 1.0290
2204.000000 1.0290 1.0289 1.0289 1.0288 1.0288
2209.000000 1.0287 1.0287 1.0286 1.0286 1.0285
2214.000000 1.0285 1.0284 1.0284 1.0283 1.0283
2219.000000 1.0282 1.0282 1.0281 1.0281 1.0280
2224.000000 1.0280 1.0278 1.0278 1.0278 1.0278
2229.000000 1.0277 1.0277 1.0275 1.0275 1.0275
2234.000000 1.0275 1.0274 1.0274 1.0273 1.0273
2239.000000 1.0273 1.0273 1.0273 1.0273 1.0273
2244.000000 1.0273 1.0273 1.0273 1.0273 1.0273
2249.000000 1.0273 1.0273 1.0273 1.0273 1.0273
2254.000000 1.0273 1.0273 1.0273 1.0273 1.0273
2259.000000 1.0273 1.0274 1.0274 1.0275 1.0275
2264.000000 1.0275 1.0275 1.0277 1.0277 1.0278
2269.000000 1.0278 1.0280 1.0280 1.0281 1.0281
2274.000000 1.0282 1.0282 1.0283 1.0283 1.0284
2279.000000 1.0284 1.0285 1.0285 1.0286 1.0289
2284.000000 1.0292 1.0295 1.0298 1.0301 1.0304
2289.000000 1.0306 1.0309 1.0312 1.0315 1.0318
2294.000000 1.0321 1.0324 1.0327 1.0331 1.0336
2299.000000 1.0343 1.0350 1.0357 1.0365 1.0371
2304.000000 1.0378 1.0386 1.0393 1.0400 1.0407
2309.000000 1.0413 1.0418 1.0425 1.0431 1.0436
2314.000000 1.0442 1.0445 1.0449 1.0447 1.0446
2319.000000 1.0445 1.0444 1.0442 1.0441 1.0440
2324.000000 1.0439 1.0437 1.0436 1.0435 1.0434
2329.000000 1.0432 1.0431 1.0428 1.0425 1.0421
2334.000000 1.0418 1.0416 1.0413 1.0410 1.0407
2339.000000 1.0404 1.0401 1.0397 1.0394 1.0390
2344.000000 1.0386 1.0382 1.0378 1.0374 1.0370
2349.000000 1.0366 1.0362 1.0358 1.0354 1.0349
2354.000000 1.0345 1.0341 1.0337 1.0333 1.0328
2359.000000 1.0325 1.0321 1.0317 1.0313 1.0309
2364.000000 1.0305 1.0301 1.0298 1.0294 1.0291
2369.000000 1.0287 1.0283 1.0278 1.0275 1.0271
2374.000000 1.0268 1.0265 1.0262 1.0261 1.0261
2379.000000 1.0260 1.0260 1.0259 1.0258 1.0257
2384.000000 1.0257 1.0256 1.0256 1.0255 1.0254
2389.000000 1.0253 1.0253 1.0252 1.0252 1.0252
2394.000000 1.0252 1.0251 1.0251 1.0250 1.0250
2399.000000 1.0250 1.0250 1.0249 1.0249 1.0248
2404.000000 1.0248 1.0248 1.0248 1.0247 1.0247
2409.000000 1.0247 1.0247 1.0246 1.0246 1.0245
2414.000000 1.0245 1.0245 1.0245 1.0244 1.0244
2419.000000 1.0243 1.0243 1.0243 1.0243 1.0242
2424.000000 1.0241 1.0240 1.0239 1.0237 1.0236
2429.000000 1.0235 1.0234 1.0232 1.0231 1.0230
2434.000000 1.0228 1.0228 1.0227 1.0225 1.0224
2439.000000 1.0223 1.0221 1.0220 1.0218 1.0218
2444.000000 1.0217 1.0215 1.0214 1.0213 1.0212
2449.000000 1.0211 1.0210 1.0208 1.0207 1.0206
2454.000000 1.0205 1.0203 1.0202 1.0200 1.0199
2459.000000 1.0197 1.0196 1.0194 1.0193 1.0192
2464.000000 1.0191 1.0189 1.0188 1.0186 1.0185
2469.000000 1.0183 1.0182 1.0180 1.0178 1.0178
2474.000000 1.0177 1.0175 1.0174 1.0171 1.0171
2479.000000 1.0168 1.0167 1.0165 1.0163 1.0161
2484.000000 1.0160 1.0158 1.0156 1.0154 1.0152
2489.000000 1.0150 1.0148 1.0146 1.0144 1.0142
2494.000000 1.0140 1.0138 1.0136 1.0134 1.0133
2499.000000 1.0131 1.0128 1.0127 1.0125 1.0123
2504.000000 1.0121 1.0118 1.0117 1.0115 1.0113
2509.000000 1.0109 1.0106 1.0103 1.0100 1.0096
2514.000000 1.0093 1.0089 1.0086 1.0083 1.0080
2519.000000 1.0075 1.0073 1.0068 1.0066 1.0063
2524.000000 1.0060 1.0056 1.0053 1.0050 1.0047
2529.000000 1.0043 1.0040 1.0036 1.0033 1.0030
2534.000000 1.0027 1.0023 1.0020 1.0016 1.0013
2539.000000 1.0010 1.0007 1.0003 1.0000 0.9997
2544.000000 0.9994 0.9990 0.9987 0.9983 0.9978
2549.000000 0.9975 0.9971 0.9966 0.9962 0.9958
2554.000000 0.9954 0.9949 0.9945 0.9941 0.9937
2559.000000 0.9932 0.9928 0.9924 0.9920 0.9915
2564.000000 0.9911 0.9907 0.9903 0.9898 0.9894
2569.000000 0.9890 0.9886 0.9881 0.9877 0.9873
2574.000000 0.9868 0.9864 0.9860 0.9853 0.9847
2579.000000 0.9840 0.9834 0.9828 0.9821 0.9815
2584.000000 0.9809 0.9803 0.9797 0.9790 0.9784
2589.000000 0.9778 0.9771 0.9765 0.9759 0.9753
2594.000000 0.9747 0.9740 0.9734 0.9728 0.9721
2599.000000 0.9715 0.9708 0.9700 0.9693 0.9685
2604.000000 0.9678 0.9670 0.9663 0.9656 0.9649
2609.000000 0.9641 0.9634 0.9621 0.9611 0.9599
2614.000000 0.9587 0.9575 0.9564 0.9552 0.9540
2619.000000 0.9528 0.9516 0.9504 0.9493 0.9481
2624.000000 0.9468 0.9457 0.9445 0.9433 0.9421
2629.000000 0.9403 0.9386 0.9368 0.9352 0.9334
2634.000000 0.9317 0.9300 0.9283 0.9265 0.9248
2639.000000 0.9230 0.9213 0.9194 0.9175 0.9156
2644.000000 0.9136 0.9116 0.9097 0.9077 0.9058
2649.000000 0.9038 0.9018 0.8996 0.8974 0.8951
2654.000000 0.8928 0.8924 0.8920 0.8917 0.8915
2659.000000 0.8913 0.8912 0.8912 0.8913 0.8913
2664.000000 0.8914 0.8914 0.8915 0.8915 0.8916
2669.000000 0.8916 0.8917 0.8917 0.8918 0.8918
2674.000000 0.8918 0.8918 0.8918 0.8918 0.8920
2679.000000 0.8920 0.8920 0.8920 0.8921 0.8921
2684.000000 0.8921 0.8921 0.8921 0.8921 0.8921
2689.000000 0.8921 0.8921 0.8918 0.8917 0.8914
2694.000000 0.8911 0.8906 0.8901 0.8890 0.8878
2699.000000 0.8861 0.8844 0.8821 0.8801 0.8780
2704.000000 0.8759 0.8737 0.8716 0.8693 0.8670
2709.000000 0.8643 0.8616 0.8589 0.8562 0.8535
2714.000000 0.8509 0.8482 0.8455 0.8420 0.8386
2719.000000 0.8342 0.8299 0.8256 0.8213 0.8168
2724.000000 0.8125 0.8084 0.8042 0.7999 0.7957
2729.000000 0.7915 0.7872 0.7831 0.7789 0.7745
2734.000000 0.7701 0.7650 0.7599 0.7548 0.7498
2739.000000 0.7447 0.7397 0.7330 0.7264 0.7228
2744.000000 0.7195 0.7193 0.7192 0.7190 0.7189
2749.000000 0.7193 0.7198 0.7201 0.7181 0.7221
2754.000000 0.7237 0.7255 0.7274 0.7351 0.7431
2759.000000 0.7489 0.7548 0.7560 0.7571 0.7578
2764.000000 0.7586 0.7589 0.7589 0.7590 0.7561
2769.000000 0.7587 0.7586 0.7582 0.7578 0.7571
2774.000000 0.7565 0.7554 0.7542 0.7522 0.7504
2779.000000 0.7476 0.7450 0.7400 0.7351 0.7267
2784.000000 0.7184 0.7075 0.6965 0.6808 0.6650
2789.000000 0.6492 0.6334 0.6176 0.6018 0.5860
2794.000000 0.5702 0.5544 0.5386 0.5228 0.5070
2799.000000 0.4912 0.4754 0.4596 0.4439 0.4281
2804.000000 0.4123 0.3964 0.3807 0.3620 0.3432
2809.000000 0.3377 0.3322 0.3268 0.3214 0.3167
2814.000000 0.3119 0.3070 0.3022 0.2973 0.2925
2819.000000 0.2876 0.2828 0.2626 0.2424 0.2276
2824.000000 0.2129 0.2092 0.2055 0.2018 0.1982
2829.000000 0.1945 0.1910 0.1884 0.1860 0.1845
2834.000000 0.1832 0.1820 0.1808 0.1792 0.1777
2839.000000 0.1758 0.1739 0.1720 0.1701 0.1674
2844.000000 0.1646 0.1594 0.1541 0.1219 0.0897
2849.000000 0.0866 0.0834 0.0833 0.0833 0.0832
2854.000000 0.0832 0.0837 0.0842 0.0866 0.0807
2859.000000 0.0983 0.1077 0.1195 0.1314 0.1374
2864.000000 0.1435 0.1454 0.1473 0.1478 0.1478
2869.000000 0.1479 0.1509 0.1461 0.1446 0.1428
2874.000000 0.1409 0.1385 0.1361 0.1331 0.1302
2879.000000 0.1260 0.1219 0.1174 0.1130 0.1090
2884.000000 0.1050 0.1017 0.0985 0.0952 0.0920
2889.000000 0.0889 0.0860 0.0817 0.0775 0.0705
2894.000000 0.0635 0.0600 0.0565 0.0550 0.0504
2899.000000 0.0531 0.0532 0.0533 0.0539 0.0548
2904.000000 0.0557 0.0566 0.0575 0.0583 0.0592
2909.000000 0.0596 0.0601 0.0604 0.0607 0.0609
2914.000000 0.0612 0.0612 0.0612 0.0612 0.0611
2919.000000 0.0610 0.0609 0.0609 0.0609 0.0611
2924.000000 0.0613 0.0615 0.0617 0.0619 0.0621
2929.000000 0.0636 0.0651 0.0675 0.0699 0.0736
2934.000000 0.0774 0.0816 0.0858 0.0875 0.0892
2939.000000 0.0893 0.0934 0.0896 0.0897 0.0892
2944.000000 0.0889 0.0883 0.0878 0.0868 0.0859
2949.000000 0.0846 0.0833 0.0820 0.0807 0.0793
2954.000000 0.0779 0.0774 0.0770 0.0769 0.0769
2959.000000 0.0772 0.0752 0.0785 0.0794 0.0808
2964.000000 0.0822 0.0839 0.0857 0.0881 0.0905
2969.000000 0.0957 0.1010 0.1220 0.1430 0.2301
2974.000000 0.3172 0.3592 0.4012 0.4453 0.4895
2979.000000 0.5007 0.5120 0.5386 0.5652 0.5799
2984.000000 0.5947 0.6053 0.6160 0.6259 0.6358
2989.000000 0.6458 0.6558 0.6658 0.6760 0.6887
2994.000000 0.7015 0.7126 0.7240 0.7330 0.7419
2999.000000 0.7469 0.7521 0.7571 0.7621 0.7665
3004.000000 0.7711 0.7751 0.7791 0.7821 0.7854
3009.000000 0.7882 0.7911 0.7934 0.7958 0.7968
3014.000000 0.7980 0.7991 0.8001 0.8012 0.8024
3019.000000 0.8031 0.8039 0.8042 0.8045 0.8048
3024.000000 0.8051 0.8055 0.8056 0.8056 0.8046
3029.000000 0.8053 0.8051 0.8050 0.8049 0.8047
3034.000000 0.8046 0.8043 0.8041 0.8037 0.8033
3039.000000 0.8028 0.8025 0.8021 0.8018 0.8014
3044.000000 0.8010 0.8006 0.8001 0.7998 0.7994
3049.000000 0.7989 0.7984 0.7976 0.7971 0.7964
3054.000000 0.7957 0.7950 0.7944 0.7937 0.7930
3059.000000 0.7922 0.7917 0.7906 0.7896 0.7885
3064.000000 0.7874 0.7862 0.7851 0.7841 0.7830
3069.000000 0.7818 0.7808 0.7797 0.7786 0.7774
3074.000000 0.7762 0.7747 0.7732 0.7715 0.7700
3079.000000 0.7684 0.7668 0.7653 0.7637 0.7621
3084.000000 0.7606 0.7590 0.7574 0.7553 0.7533
3089.000000 0.7511 0.7492 0.7471 0.7451 0.7430
3094.000000 0.7410 0.7389 0.7368 0.7347 0.7326
3099.000000 0.7306 0.7286 0.7260 0.7235 0.7208
3104.000000 0.7184 0.7158 0.7132 0.7106 0.7080
3109.000000 0.7054 0.7028 0.7001 0.6975 0.6951
3114.000000 0.6925 0.6900 0.6875 0.6849 0.6824
3119.000000 0.6798 0.6772 0.6747 0.6721 0.6697
3124.000000 0.6671 0.6646 0.6621 0.6595 0.6569
3129.000000 0.6544 0.6518 0.6493 0.6468 0.6435
3134.000000 0.6401 0.6367 0.6332 0.6297 0.6262
3139.000000 0.6227 0.6192 0.6157 0.6122 0.6087
3144.000000 0.6053 0.6018 0.5983 0.5947 0.5912
3149.000000 0.5875 0.5839 0.5802 0.5766 0.5729
3154.000000 0.5693 0.5656 0.5620 0.5583 0.5547
3159.000000 0.5514 0.5482 0.5449 0.5416 0.5383
3164.000000 0.5351 0.5318 0.5286 0.5253 0.5220
3169.000000 0.5182 0.5144 0.5104 0.5064 0.5023
3174.000000 0.4983 0.4953 0.4924 0.4909 0.4894
3179.000000 0.4892 0.4890 0.4889 0.4889 0.4890
3184.000000 0.4892 0.4895 0.4899 0.4902 0.4906
3189.000000 0.4909 0.4912 0.4916 0.4920 0.4923
3194.000000 0.4927 0.4930 0.4933 0.4936 0.4940
3199.000000 0.4941 0.4942 0.4942 0.4942 0.4942
3204.000000 0.4941 0.4940 0.4938 0.4930 0.4923
3209.000000 0.4915 0.4908 0.4899 0.4891 0.4867
3214.000000 0.4844 0.4820 0.4797 0.4773 0.4749
3219.000000 0.4722 0.4695 0.4668 0.4641 0.4612
3224.000000 0.4586 0.4555 0.4525 0.4493 0.4462
3229.000000 0.4430 0.4399 0.4369 0.4340 0.4310
3234.000000 0.4283 0.4254 0.4225 0.4196 0.4168
3239.000000 0.4139 0.4110 0.4082 0.4055 0.4027
3244.000000 0.3999 0.3971 0.3943 0.3914 0.3887
3249.000000 0.3855 0.3824 0.3792 0.3760 0.3729
3254.000000 0.3697 0.3664 0.3632 0.3604 0.3576
3259.000000 0.3550 0.3527 0.3502 0.3478 0.3453
3264.000000 0.3428 0.3409 0.3391 0.3380 0.3368
3269.000000 0.3358 0.3348 0.3337 0.3326 0.3324
3274.000000 0.3324 0.3324 0.3326 0.3330 0.3334
3279.000000 0.3339 0.3344 0.3355 0.3366 0.3384
3284.000000 0.3404 0.3425 0.3446 0.3470 0.3495
3289.000000 0.3524 0.3553 0.3599 0.3646 0.3691
3294.000000 0.3737 0.3779 0.3821 0.3862 0.3906
3299.000000 0.3948 0.3990 0.4032 0.4074 0.4116
3304.000000 0.4159 0.4200 0.4241 0.4271 0.4302
3309.000000 0.4332 0.4362 0.4393 0.4424 0.4448
3314.000000 0.4472 0.4487 0.4502 0.4499 0.4497
3319.000000 0.4493 0.4512 0.4483 0.4476 0.4467
3324.000000 0.4459 0.4451 0.4443 0.4425 0.4407
3329.000000 0.4380 0.4354 0.4314 0.4275 0.4222
3334.000000 0.4170 0.4122 0.4074 0.4028 0.3982
3339.000000 0.3938 0.3895 0.3854 0.3812 0.3772
3344.000000 0.3732 0.3688 0.3645 0.3586 0.3528
3349.000000 0.3479 0.3430 0.3393 0.3355 0.3345
3354.000000 0.3336 0.3340 0.3289 0.3358 0.3372
3359.000000 0.3409 0.3446 0.3484 0.3522 0.3566
3364.000000 0.3612 0.3694 0.3776 0.3859 0.3943
3369.000000 0.3986 0.4029 0.4133 0.4237 0.4341
3374.000000 0.4445 0.4548 0.4652 0.4756 0.4860
3379.000000 0.4962 0.5067 0.5164 0.5260 0.5335
3384.000000 0.5409 0.5603 0.5798 0.5923 0.6049
3389.000000 0.6109 0.6170 0.6236 0.6303 0.6360
3394.000000 0.6417 0.6474 0.6532 0.6585 0.6639
3399.000000 0.6688 0.6738 0.6772 0.6808 0.6843
3404.000000 0.6878 0.6901 0.6924 0.6944 0.6965
3409.000000 0.6985 0.7006 0.7018 0.7033 0.7045
3414.000000 0.7058 0.7068 0.7080 0.7090 0.7100
3419.000000 0.7110 0.7121 0.7131 0.7142 0.7153
3424.000000 0.7165 0.7178 0.7191 0.7203 0.7215
3429.000000 0.7228 0.7241 0.7253 0.7265 0.7282
3434.000000 0.7298 0.7314 0.7331 0.7347 0.7362
3439.000000 0.7378 0.7396 0.7411 0.7428 0.7445
3444.000000 0.7461 0.7478 0.7497 0.7514 0.7532
3449.000000 0.7549 0.7567 0.7584 0.7601 0.7618
3454.000000 0.7636 0.7655 0.7675 0.7695 0.7715
3459.000000 0.7735 0.7756 0.7775 0.7797 0.7817
3464.000000 0.7838 0.7857 0.7876 0.7894 0.7911
3469.000000 0.7928 0.7946 0.7962 0.7981 0.7998
3474.000000 0.8015 0.8033 0.8050 0.8067 0.8085
3479.000000 0.8101 0.8117 0.8132 0.8148 0.8162
3484.000000 0.8178 0.8194 0.8210 0.8225 0.8241
3489.000000 0.8257 0.8273 0.8288 0.8304 0.8318
3494.000000 0.8335 0.8350 0.8366 0.8381 0.8397
3499.000000 0.8412 0.8427 0.8442 0.8458 0.8473
3504.000000 0.8489 0.8504 0.8520 0.8535 0.8551
3509.000000 0.8566 0.8581 0.8596 0.8612 0.8627
3514.000000 0.8643 0.8658 0.8674 0.8689 0.8705
3519.000000 0.8720 0.8736 0.8751 0.8767 0.8782
3524.000000 0.8798 0.8812 0.8827 0.8841 0.8855
3529.000000 0.8868 0.8883 0.8897 0.8911 0.8925
3534.000000 0.8939 0.8952 0.8966 0.8980 0.8994
3539.000000 0.9008 0.9021 0.9036 0.9050 0.9064
3544.000000 0.9078 0.9091 0.9104 0.9114 0.9124
3549.000000 0.9134 0.9144 0.9154 0.9164 0.9174
3554.000000 0.9184 0.9194 0.9205 0.9215 0.9225
3559.000000 0.9235 0.9245 0.9255 0.9265 0.9275
3564.000000 0.9285 0.9294 0.9304 0.9313 0.9321
3569.000000 0.9331 0.9341 0.9350 0.9360 0.9368
3574.000000 0.9378 0.9387 0.9397 0.9406 0.9415
3579.000000 0.9424 0.9434 0.9444 0.9455 0.9465
3584.000000 0.9475 0.9485 0.9495 0.9505 0.9516
3589.000000 0.9525 0.9536 0.9546 0.9556 0.9566
3594.000000 0.9575 0.9586 0.9597 0.9606 0.9616
3599.000000 0.9624 0.9632 0.9640 0.9648 0.9656
3604.000000 0.9665 0.9673 0.9681 0.9689 0.9698
3609.000000 0.9705 0.9712 0.9717 0.9723 0.9728
3614.000000 0.9734 0.9739 0.9745 0.9748 0.9752
3619.000000 0.9753 0.9754 0.9755 0.9756 0.9757
3624.000000 0.9758 0.9759 0.9761 0.9768 0.9777
3629.000000 0.9786 0.9796 0.9806 0.9816 0.9823
3634.000000 0.9831 0.9828 0.9827 0.9824 0.9821
3639.000000 0.9818 0.9814 0.9809 0.9805 0.9801
3644.000000 0.9797 0.9796 0.9796 0.9795 0.9795
3649.000000 0.9794 0.9794 0.9796 0.9798 0.9800
3654.000000 0.9802 0.9807 0.9813 0.9821 0.9830
3659.000000 0.9839 0.9848 0.9856 0.9865 0.9873
3664.000000 0.9882 0.9890 0.9898 0.9903 0.9909
3669.000000 0.9915 0.9921 0.9925 0.9932 0.9937
3674.000000 0.9943 0.9947 0.9952 0.9952 0.9952
3679.000000 0.9951 0.9951 0.9951 0.9951 0.9950
3684.000000 0.9950 0.9953 0.9956 0.9960 0.9964
3689.000000 0.9968 0.9973 0.9977 0.9981 0.9984
3694.000000 0.9988 0.9991 0.9995 0.9998 1.0002
3699.000000 1.0005 1.0008 1.0011 1.0015 1.0018
3704.000000 1.0021 1.0025 1.0028 1.0032 1.0036
3709.000000 1.0040 1.0044 1.0047 1.0051 1.0054
3714.000000 1.0058 1.0062 1.0066 1.0070 1.0074
3719.000000 1.0078 1.0083 1.0087 1.0091 1.0094
3724.000000 1.0098 1.0098 1.0098 1.0097 1.0097
3729.000000 1.0097 1.0097 1.0096 1.0096 1.0095
3734.000000 1.0094 1.0092 1.0091 1.0090 1.0089
3739.000000 1.0084 1.0078 1.0073 1.0068 1.0063
3744.000000 1.0058 1.0052 1.0047 1.0040 1.0034
3749.000000 1.0033 1.0033 1.0033 1.0033 1.0033
3754.000000 1.0034 1.0034 1.0034 1.0034 1.0034
3759.000000 1.0034 1.0035 1.0035 1.0035 1.0035
3764.000000 1.0036 1.0037 1.0039 1.0041 1.0043
3769.000000 1.0045 1.0047 1.0049 1.0051 1.0052
3774.000000 1.0054 1.0056 1.0058 1.0060 1.0062
3779.000000 1.0064 1.0066 1.0068 1.0071 1.0073
3784.000000 1.0075 1.0077 1.0078 1.0081 1.0083
3789.000000 1.0084 1.0086 1.0087 1.0089 1.0090
3794.000000 1.0092 1.0094 1.0096 1.0097 1.0099
3799.000000 1.0099 1.0100
##END=
