##TITLE=ANILINE, 3-METHYL-, HYDROCHLORIDE
##JCAMP-DX=4.24
##DATA TYPE=INFRARED SPECTRUM
##CLASS=COBLENTZ III
##ORIGIN=DOW CHEMICAL COMPANY
##OWNER=COBLENTZ SOCIETY
Collection (C) 2018 copyright by the U.S. Secretary of Commerce
on behalf of the United States of America. All rights reserved.
##DATE=1964/05/01
##NAMES=3-methylaniline hydrochloride
m-TOLUIDINE HYDROCHLORIDE
##MOLFORM=C7 H10 Cl N
##SOURCE REFERENCE=COBLENTZ NO. 9684
##$NIST ID=B6009684
##$NIST SOURCE=COBLENTZ
##$NIST IMAGE=cob9684
##SPECTROMETER/DATA SYSTEM=DOW KBr FOREPRISM-GRATING
##INSTRUMENT PARAMETERS=BLAZED AT 3.5, 12.0, 20.0 MICRON AND CHANGED AT 5.0, 7.5, 14.9 MICRON
##STATE=SOLID (SPLIT MULL), FLUOROLUBE FOR 3800-1330 CM^-^1, NUJOL FOR 1330-450 CM^-^1
$$ SEE SPECTRUM NO. 9336 FOR "KBr DISC" RUN
##SAMPLING PROCEDURE=TRANSMISSION
##RESOLUTION=2
##DATA PROCESSING=DIGITIZED BY NIST FROM HARD COPY (FROM TWO SEGMENTS)
##XUNITS=1/CM
##YUNITS=TRANSMITTANCE
##XFACTOR=1.000000
##YFACTOR=1
##DELTAX=0.933129
##FIRSTX=452.877
##LASTX=3803.74
##FIRSTY=0.852
##MAXX=3803.74
##MINX=452.877
##MAXY=1.00097
##MINY=0.25
##NPOINTS=3592
##XYDATA=(X++(Y..Y))
452.877000 0.8520 0.8540 0.8540 0.8540 0.8550
457.542644 0.8570 0.8570 0.8580 0.8580 0.8600
462.208288 0.8610 0.8610 0.8620 0.8640 0.8640
466.873932 0.8640 0.8650 0.8650 0.8670 0.8670
471.539576 0.8680 0.8680 0.8700 0.8700 0.8710
476.205219 0.8710 0.8710 0.8730 0.8730 0.8730
480.870863 0.8740 0.8740 0.8740 0.8760 0.8760
485.536507 0.8760 0.8770 0.8770 0.8770 0.8790
490.202151 0.8790 0.8800 0.8800 0.8810 0.8810
494.867795 0.8830 0.8830 0.8840 0.8840 0.8860
499.533439 0.8860 0.8860 0.8860 0.8860 0.8860
504.199083 0.8860 0.8860 0.8860 0.8860 0.8860
508.864727 0.8860 0.8860 0.8860 0.8860 0.8860
513.530371 0.8860 0.8830 0.8810 0.8800 0.8770
518.196014 0.8730 0.8710 0.8670 0.8221 0.8170
522.861658 0.8220 0.8320 0.8420 0.8420 0.8360
527.527302 0.8290 0.8290 0.8350 0.8520 0.8610
532.192946 0.8730 0.8770 0.8770 0.8770 0.8740
536.858590 0.8710 0.8680 0.8650 0.8570 0.8480
541.524234 0.8410 0.8330 0.8320 0.8330 0.8579
546.189878 0.8640 0.8710 0.8760 0.8810 0.8860
550.855522 0.8900 0.8950 0.8990 0.9030 0.9050
555.521166 0.9060 0.9060 0.9080 0.9090 0.9090
560.186809 0.9120 0.9130 0.9130 0.9150 0.9150
564.852453 0.9150 0.9150 0.9150 0.9160 0.9160
569.518097 0.9180 0.9180 0.9190 0.9190 0.9190
574.183741 0.9210 0.9210 0.9220 0.9220 0.9220
578.849385 0.9240 0.9220 0.9220 0.9220 0.9220
583.515029 0.9220 0.9220 0.9220 0.9210 0.9210
588.180673 0.9190 0.9190 0.9210 0.9220 0.9240
592.846317 0.9250 0.9250 0.9250 0.9250 0.9270
597.511960 0.9270 0.9270 0.9280 0.9280 0.9280
602.177604 0.9280 0.9280 0.9300 0.9300 0.9300
606.843248 0.9300 0.9300 0.9300 0.9310 0.9310
611.508892 0.9310 0.9310 0.9310 0.9310 0.9320
616.174536 0.9320 0.9320 0.9320 0.9320 0.9320
620.840180 0.9320 0.9320 0.9320 0.9320 0.9320
625.505824 0.9320 0.9320 0.9320 0.9320 0.9320
630.171468 0.9320 0.9320 0.9320 0.9320 0.9320
634.837112 0.9320 0.9320 0.9320 0.9320 0.9320
639.502755 0.9320 0.9320 0.9320 0.9320 0.9320
644.168399 0.9320 0.9320 0.9320 0.9320 0.9320
648.834043 0.9310 0.9310 0.9310 0.9310 0.9310
653.499687 0.9310 0.9310 0.9300 0.9300 0.9300
658.165331 0.9300 0.9280 0.9280 0.9280 0.9270
662.830975 0.9270 0.9270 0.9270 0.9250 0.9250
667.496619 0.9240 0.9220 0.9210 0.9190 0.9160
672.162263 0.9080 0.8970 0.8870 0.8014 0.7154
676.827907 0.6279 0.5399 0.3640 0.3610 0.6716
681.493550 0.7748 0.8289 0.8599 0.8710 0.8839
686.159194 0.8900 0.8920 0.8950 0.8970 0.9000
690.824838 0.9020 0.9030 0.9030 0.9050 0.9050
695.490482 0.9050 0.9050 0.9050 0.9050 0.9050
700.156126 0.9030 0.9030 0.9020 0.9020 0.9000
704.821770 0.8990 0.8960 0.8930 0.8900 0.8890
709.487414 0.8860 0.8830 0.8790 0.8730 0.8700
714.153058 0.8670 0.8600 0.8550 0.8450 0.8290
718.818702 0.8170 0.8110 0.8100 0.8130 0.8190
723.484345 0.8260 0.8260 0.8260 0.8260 0.8250
728.149989 0.8220 0.8190 0.8200 0.8220 0.8568
732.815633 0.8600 0.8610 0.8640 0.8650 0.8680
737.481277 0.8680 0.8730 0.8740 0.8760 0.8770
742.146921 0.8800 0.8810 0.8830 0.8840 0.8860
746.812565 0.8870 0.8870 0.8870 0.8860 0.8840
751.478209 0.8830 0.8810 0.8800 0.8760 0.8710
756.143853 0.8680 0.8670 0.8620 0.8540 0.7823
760.809497 0.7530 0.7240 0.6311 0.5371 0.3464
765.475140 0.3440 0.3460 0.3759 0.4059 0.6150
770.140784 0.7061 0.8350 0.8390 0.8410 0.8440
774.806428 0.8450 0.8480 0.8490 0.8550 0.8620
779.472072 0.8790 0.8830 0.8840 0.8890 0.8900
784.137716 0.8900 0.8920 0.8930 0.8950 0.8960
788.803360 0.8970 0.8990 0.8990 0.8990 0.9000
793.469004 0.9000 0.9000 0.9020 0.9020 0.9020
798.134648 0.9030 0.9030 0.9030 0.9030 0.9030
802.800292 0.9030 0.9030 0.9030 0.9030 0.9030
807.465935 0.9030 0.9030 0.9030 0.9030 0.9030
812.131579 0.9030 0.9030 0.9050 0.9050 0.9030
816.797223 0.9030 0.9030 0.9030 0.9030 0.9030
821.462867 0.9030 0.9030 0.9030 0.9030 0.9030
826.128511 0.9030 0.9030 0.9030 0.9030 0.9030
830.794155 0.9050 0.9050 0.9030 0.9030 0.9030
835.459799 0.9030 0.9030 0.9030 0.9030 0.9030
840.125443 0.9020 0.8990 0.8990 0.8990 0.8990
844.791087 0.8990 0.8990 0.9000 0.9020 0.9030
849.456730 0.9030 0.9030 0.9030 0.9020 0.9020
854.122374 0.9020 0.9020 0.9020 0.9020 0.9000
858.788018 0.9000 0.8950 0.8930 0.8840 0.8671
863.453662 0.8460 0.8130 0.8130 0.8160 0.8410
868.119306 0.8600 0.8670 0.8810 0.8890 0.8930
872.784950 0.8970 0.8970 0.8970 0.8970 0.8970
877.450594 0.8970 0.8970 0.8970 0.8960 0.8930
882.116238 0.8840 0.8760 0.8700 0.8610 0.8600
886.781881 0.8620 0.8700 0.8760 0.8840 0.8870
891.447525 0.8920 0.8930 0.8930 0.8960 0.8970
896.113169 0.8970 0.8970 0.8970 0.8970 0.8970
900.778813 0.8970 0.8960 0.8960 0.8950 0.8930
905.444457 0.8930 0.8920 0.8930 0.8930 0.8900
910.110101 0.8870 0.8770 0.8580 0.8570 0.8570
914.775745 0.8650 0.8790 0.8870 0.8900 0.8930
919.441389 0.8930 0.8950 0.8950 0.8950 0.8950
924.107033 0.8950 0.8950 0.8950 0.8950 0.8930
928.772676 0.8930 0.8930 0.8920 0.8900 0.8900
933.438320 0.8890 0.8890 0.8900 0.8920 0.8900
938.103964 0.8900 0.8900 0.8900 0.8900 0.8900
942.769608 0.8890 0.8890 0.8890 0.8890 0.8890
947.435252 0.8870 0.8870 0.8870 0.8870 0.8870
952.100896 0.8870 0.8860 0.8860 0.8840 0.8830
956.766540 0.8800 0.8800 0.8790 0.8790 0.8790
961.432184 0.8790 0.8790 0.8790 0.8790 0.8790
966.097828 0.8790 0.8790 0.8790 0.8790 0.8800
970.763471 0.8800 0.8810 0.8810 0.8810 0.8810
975.429115 0.8810 0.8810 0.8830 0.8810 0.8810
980.094759 0.8810 0.8810 0.8810 0.8810 0.8810
984.760403 0.8810 0.8810 0.8810 0.8810 0.8810
989.426047 0.8810 0.8810 0.8810 0.8800 0.8800
994.091691 0.8790 0.8770 0.8770 0.8770 0.8760
998.757335 0.8760 0.8760 0.8760 0.8760 0.8760
1003.422979 0.8760 0.8760 0.8760 0.8760 0.8740
1008.088623 0.8740 0.8730 0.8730 0.8730 0.8730
1012.754266 0.8710 0.8710 0.8710 0.8710 0.8710
1017.419910 0.8710 0.8710 0.8710 0.8710 0.8710
1022.085554 0.8710 0.8700 0.8700 0.8700 0.8680
1026.751198 0.8680 0.8680 0.8680 0.8680 0.8670
1031.416842 0.8670 0.8670 0.8650 0.8610 0.8610
1036.082486 0.8600 0.8570 0.8540 0.8520 0.8490
1040.748130 0.8460 0.8420 0.8410 0.8390 0.8390
1045.413774 0.8390 0.8390 0.8410 0.8440 0.8480
1050.079418 0.8490 0.8510 0.8570 0.8580 0.8600
1054.745061 0.8600 0.8610 0.8610 0.8610 0.8600
1059.410705 0.8600 0.8580 0.8570 0.8570 0.8550
1064.076349 0.8550 0.8550 0.8550 0.8540 0.8540
1068.741993 0.8520 0.8520 0.8490 0.8480 0.8480
1073.407637 0.8480 0.8480 0.8480 0.8480 0.8490
1078.073281 0.8510 0.8540 0.8540 0.8550 0.8570
1082.738925 0.8570 0.8570 0.8570 0.8570 0.8570
1087.404569 0.8570 0.8570 0.8570 0.8550 0.8540
1092.070213 0.8510 0.8490 0.8480 0.8450 0.8440
1096.735856 0.8420 0.8390 0.8380 0.8350 0.8320
1101.401500 0.8330 0.8360 0.8390 0.8410 0.8440
1106.067144 0.8450 0.8480 0.8480 0.8480 0.8490
1110.732788 0.8490 0.8490 0.8490 0.8490 0.8490
1115.398432 0.8440 0.8410 0.8390 0.8380 0.8380
1120.064076 0.8350 0.8320 0.8270 0.8220 0.8170
1124.729720 0.8140 0.8110 0.8060 0.8040 0.8060
1129.395364 0.8060 0.8090 0.8170 0.8250 0.8270
1134.061007 0.8300 0.8320 0.8330 0.8360 0.8390
1138.726651 0.8410 0.8450 0.8480 0.8490 0.8510
1143.392295 0.8510 0.8520 0.8520 0.8540 0.8540
1148.057939 0.8550 0.8550 0.8490 0.8410 0.8141
1152.723583 0.8110 0.8130 0.8300 0.8460 0.8510
1157.389227 0.8520 0.8570 0.8580 0.8600 0.8620
1162.054871 0.8640 0.8640 0.8640 0.8620 0.8620
1166.720515 0.8600 0.8580 0.8580 0.8570 0.8570
1171.386159 0.8610 0.8680 0.8710 0.8710 0.8710
1176.051802 0.8700 0.8680 0.8670 0.8670 0.8680
1180.717446 0.8700 0.8730 0.8740 0.8790 0.8790
1185.383090 0.8800 0.8810 0.8830 0.8830 0.8830
1190.048734 0.8840 0.8830 0.8860 0.8870 0.8870
1194.714378 0.8900 0.8900 0.8900 0.8900 0.8900
1199.380022 0.8900 0.8920 0.8920 0.8920 0.8920
1204.045666 0.8900 0.8870 0.8860 0.8840 0.8840
1208.711310 0.8870 0.8870 0.8900 0.8900 0.8870
1213.376954 0.8840 0.8840 0.8840 0.8860 0.8870
1218.042597 0.8870 0.8870 0.8870 0.8870 0.8870
1222.708241 0.8890 0.8900 0.8900 0.8900 0.8900
1227.373885 0.8900 0.8900 0.8900 0.8900 0.8890
1232.039529 0.8890 0.8870 0.8860 0.8860 0.8840
1236.705173 0.8800 0.8770 0.8760 0.8760 0.8760
1241.370817 0.8730 0.8710 0.8700 0.8680 0.8680
1246.036461 0.8600 0.8550 0.8510 0.8450 0.8200
1250.702105 0.8160 0.7970 0.7950 0.8000 0.8070
1255.367749 0.8220 0.8300 0.8330 0.8440 0.8490
1260.033392 0.8510 0.8510 0.8510 0.8510 0.8490
1264.699036 0.8480 0.8460 0.8460 0.8450 0.8450
1269.364680 0.8450 0.8460 0.8490 0.8510 0.8510
1274.030324 0.8510 0.8510 0.8510 0.8510 0.8510
1278.695968 0.8510 0.8510 0.8490 0.8510 0.8490
1283.361612 0.8480 0.8450 0.8410 0.8330 0.8320
1288.027256 0.8260 0.8250 0.8250 0.8250 0.8290
1292.692900 0.8300 0.8300 0.8300 0.8300 0.8300
1297.358544 0.8250 0.8250 0.8250 0.8230 0.8250
1302.024187 0.8230 0.8230 0.8230 0.8230 0.8230
1306.689831 0.8230 0.8230 0.8230 0.8230 0.8230
1311.355475 0.8220 0.8230 0.8250 0.8260 0.8270
1316.021119 0.8300 0.8320 0.8330 0.8360 0.8380
1320.686763 0.8390 0.8380 0.8360 0.8350 0.8330
1325.352407 0.8330 0.8330 0.8320 0.8320 0.8320
1330.018051 0.8320 0.8270 0.8230 0.8200 0.8170
1334.683695 0.8170 0.8160 0.8130 0.8110 0.8100
1339.349339 0.8090 0.8060 0.8010 0.7980 0.7970
1344.014982 0.7970 0.7970 0.8000 0.8000 0.8030
1348.680626 0.8100 0.8170 0.8250 0.8320 0.8390
1353.346270 0.8440 0.8620 0.8640 0.8700 0.8710
1358.011914 0.8770 0.8860 0.8890 0.8900 0.8930
1362.677558 0.8930 0.8950 0.8950 0.8950 0.8950
1367.343202 0.8950 0.8950 0.8950 0.8950 0.8950
1372.008846 0.8950 0.8950 0.8930 0.8920 0.8900
1376.674490 0.8890 0.8860 0.8830 0.8810 0.8790
1381.340134 0.8700 0.8650 0.8580 0.8520 0.8510
1386.005777 0.8540 0.8550 0.8620 0.8650 0.8680
1390.671421 0.8700 0.8770 0.8900 0.8900 0.8900
1395.337065 0.8900 0.8900 0.8900 0.8900 0.8900
1400.002709 0.8900 0.8900 0.8900 0.8900 0.8900
1404.668353 0.8900 0.8900 0.8900 0.8890 0.8890
1409.333997 0.8890 0.8870 0.8870 0.8870 0.8860
1413.999641 0.8840 0.8830 0.8810 0.8800 0.8790
1418.665285 0.8790 0.8790 0.8790 0.8790 0.8790
1423.330928 0.8770 0.8770 0.8770 0.8760 0.8760
1427.996572 0.8730 0.8710 0.8710 0.8710 0.8710
1432.662216 0.8710 0.8710 0.8710 0.8710 0.8710
1437.327860 0.8710 0.8730 0.8730 0.8730 0.8740
1441.993504 0.8740 0.8790 0.8790 0.8790 0.8790
1446.659148 0.8770 0.8760 0.8740 0.8730 0.8730
1451.324792 0.8710 0.8700 0.8680 0.8640 0.8620
1455.990436 0.8610 0.8610 0.8610 0.8610 0.8600
1460.656080 0.8580 0.8570 0.8550 0.8540 0.8520
1465.321723 0.8510 0.8510 0.8510 0.8550 0.8580
1469.987367 0.8610 0.8700 0.8710 0.8710 0.8700
1474.653011 0.8680 0.8670 0.8640 0.8620 0.8610
1479.318655 0.8600 0.8570 0.8520 0.8330 0.8290
1483.984299 0.8200 0.8110 0.8030 0.7980 0.7601
1488.649943 0.7230 0.7110 0.7080 0.7090 0.7230
1493.315587 0.7230 0.7230 0.7250 0.7300 0.7370
1497.981231 0.7440 0.7550 0.7590 0.7780 0.7930
1502.646875 0.8070 0.8130 0.8170 0.8190 0.8190
1507.312518 0.8190 0.8200 0.8200 0.8200 0.8220
1511.978162 0.8200 0.8160 0.8130 0.8090 0.8030
1516.643806 0.7980 0.7930 0.7880 0.7820 0.7760
1521.309450 0.7740 0.7710 0.7630 0.7550 0.7460
1525.975094 0.7390 0.7310 0.7240 0.7210 0.7080
1530.640738 0.6920 0.6600 0.6350 0.6130 0.5960
1535.306382 0.5799 0.5620 0.5520 0.5399 0.4879
1539.972026 0.4460 0.3740 0.3450 0.3140 0.2521
1544.637670 0.2500 0.2500 0.2680 0.2850 0.3010
1549.303313 0.3360 0.3510 0.4279 0.4629 0.4999
1553.968957 0.5721 0.6031 0.6320 0.6550 0.6770
1558.634601 0.6920 0.7040 0.7120 0.7230 0.7310
1563.300245 0.7390 0.7400 0.7400 0.7400 0.7400
1567.965889 0.7400 0.7400 0.7400 0.7370 0.7330
1572.631533 0.7250 0.7240 0.7240 0.7250 0.7330
1577.297177 0.7390 0.7410 0.7500 0.7560 0.7820
1581.962821 0.7970 0.8130 0.8270 0.8320 0.8360
1586.628465 0.8700 0.8710 0.8760 0.8900 0.9000
1591.294108 0.9000 0.9000 0.9000 0.8960 0.8930
1595.959752 0.8900 0.8870 0.8800 0.8770 0.8540
1600.625396 0.8319 0.8069 0.7839 0.7600 0.7580
1605.291040 0.7580 0.7590 0.8090 0.8729 0.9109
1609.956684 0.9211 0.9350 0.9470 0.9560 0.9620
1614.622328 0.9650 0.9650 0.9650 0.9650 0.9650
1619.287972 0.9650 0.9650 0.9650 0.9590 0.9540
1623.953616 0.9540 0.9540 0.9540 0.9540 0.9540
1628.619260 0.9540 0.9540 0.9560 0.9570 0.9630
1633.284903 0.9670 0.9700 0.9750 0.9760 0.9780
1637.950547 0.9790 0.9810 0.9820 0.9820 0.9820
1642.616191 0.9820 0.9820 0.9820 0.9820 0.9830
1647.281835 0.9830 0.9830 0.9830 0.9850 0.9850
1651.947479 0.9850 0.9850 0.9850 0.9850 0.9850
1656.613123 0.9850 0.9850 0.9850 0.9850 0.9850
1661.278767 0.9860 0.9860 0.9860 0.9880 0.9880
1665.944411 0.9880 0.9880 0.9880 0.9880 0.9910
1670.610055 0.9940 0.9940 0.9950 0.9970 0.9980
1675.275698 0.9980 0.9980 0.9980 0.9980 0.9980
1679.941342 0.9980 0.9970 0.9970 0.9970 0.9970
1684.606986 0.9950 0.9950 0.9950 0.9950 0.9950
1689.272630 0.9950 0.9950 0.9970 0.9970 0.9980
1693.938274 0.9980 0.9980 0.9980 0.9980 0.9980
1698.603918 0.9980 0.9980 0.9980 0.9980 0.9980
1703.269562 0.9980 0.9980 0.9980 0.9980 0.9980
1707.935206 0.9980 0.9970 0.9970 0.9950 0.9940
1712.600849 0.9940 0.9940 0.9920 0.9920 0.9880
1717.266493 0.9830 0.9810 0.9760 0.9760 0.9760
1721.932137 0.9810 0.9820 0.9820 0.9820 0.9820
1726.597781 0.9810 0.9810 0.9810 0.9790 0.9790
1731.263425 0.9760 0.9750 0.9750 0.9750 0.9760
1735.929069 0.9760 0.9780 0.9780 0.9780 0.9780
1740.594713 0.9780 0.9780 0.9780 0.9780 0.9780
1745.260357 0.9780 0.9780 0.9760 0.9760 0.9780
1749.926001 0.9760 0.9760 0.9730 0.9720 0.9690
1754.591644 0.9670 0.9650 0.9620 0.9600 0.9570
1759.257288 0.9600 0.9600 0.9620 0.9650 0.9670
1763.922932 0.9690 0.9690 0.9690 0.9690 0.9690
1768.588576 0.9690 0.9670 0.9670 0.9670 0.9670
1773.254220 0.9660 0.9650 0.9650 0.9630 0.9620
1777.919864 0.9570 0.9560 0.9540 0.9560 0.9590
1782.585508 0.9600 0.9620 0.9620 0.9620 0.9620
1787.251152 0.9620 0.9600 0.9600 0.9600 0.9590
1791.916796 0.9570 0.9590 0.9600 0.9600 0.9600
1796.582439 0.9620 0.9600 0.9620 0.9620 0.9620
1801.248083 0.9630 0.9630 0.9630 0.9630 0.9630
1805.913727 0.9630 0.9630 0.9630 0.9630 0.9630
1810.579371 0.9630 0.9630 0.9630 0.9620 0.9620
1815.245015 0.9620 0.9630 0.9630 0.9630 0.9630
1819.910659 0.9630 0.9630 0.9630 0.9650 0.9630
1824.576303 0.9630 0.9630 0.9630 0.9630 0.9630
1829.241947 0.9630 0.9630 0.9630 0.9630 0.9630
1833.907591 0.9630 0.9630 0.9630 0.9630 0.9630
1838.573234 0.9620 0.9620 0.9620 0.9630 0.9630
1843.238878 0.9630 0.9630 0.9630 0.9630 0.9630
1847.904522 0.9630 0.9620 0.9620 0.9600 0.9570
1852.570166 0.9560 0.9540 0.9540 0.9540 0.9540
1857.235810 0.9540 0.9560 0.9560 0.9560 0.9570
1861.901454 0.9570 0.9590 0.9600 0.9600 0.9620
1866.567098 0.9630 0.9630 0.9630 0.9650 0.9650
1871.232742 0.9650 0.9660 0.9660 0.9660 0.9660
1875.898386 0.9660 0.9660 0.9660 0.9660 0.9660
1880.564029 0.9660 0.9650 0.9630 0.9630 0.9630
1885.229673 0.9630 0.9630 0.9630 0.9650 0.9660
1889.895317 0.9660 0.9670 0.9660 0.9660 0.9660
1894.560961 0.9660 0.9660 0.9650 0.9630 0.9630
1899.226605 0.9620 0.9620 0.9600 0.9600 0.9600
1903.892249 0.9600 0.9630 0.9650 0.9650 0.9650
1908.557893 0.9650 0.9650 0.9650 0.9650 0.9660
1913.223537 0.9650 0.9650 0.9650 0.9650 0.9650
1917.889181 0.9650 0.9660 0.9660 0.9660 0.9660
1922.554824 0.9660 0.9650 0.9630 0.9630 0.9630
1927.220468 0.9630 0.9630 0.9620 0.9620 0.9600
1931.886112 0.9600 0.9570 0.9590 0.9590 0.9590
1936.551756 0.9600 0.9620 0.9630 0.9660 0.9690
1941.217400 0.9700 0.9730 0.9750 0.9750 0.9750
1945.883044 0.9750 0.9750 0.9750 0.9750 0.9750
1950.548688 0.9750 0.9750 0.9750 0.9750 0.9750
1955.214332 0.9750 0.9730 0.9730 0.9730 0.9720
1959.879975 0.9690 0.9670 0.9660 0.9670 0.9670
1964.545619 0.9660 0.9650 0.9630 0.9630 0.9630
1969.211263 0.9630 0.9630 0.9660 0.9690 0.9690
1973.876907 0.9660 0.9670 0.9670 0.9660 0.9650
1978.542551 0.9650 0.9650 0.9650 0.9670 0.9690
1983.208195 0.9700 0.9700 0.9690 0.9670 0.9660
1987.873839 0.9660 0.9660 0.9670 0.9690 0.9700
1992.539483 0.9690 0.9660 0.9539 0.9380 0.9350
1997.205127 0.9380 0.9440 0.9670 0.9690 0.9705
2001.870770 0.9720 0.9735 0.9750 0.9770 0.9790
2006.536414 0.9805 0.9820 0.9840 0.9860 0.9875
2011.202058 0.9891 0.9916 0.9940 0.9955 0.9970
2015.867702 0.9985 1.0000 1.0000 1.0000 1.0000
2020.533346 1.0000 1.0000 1.0000 1.0005 1.0010
2025.198990 1.0005 1.0000 1.0000 1.0000 1.0000
2029.864634 1.0000 1.0000 1.0000 1.0000 1.0000
2034.530278 1.0000 1.0000 1.0000 0.9999 0.9989
2039.195922 0.9979 0.9974 0.9969 0.9959 0.9949
2043.861565 0.9944 0.9938 0.9923 0.9909 0.9899
2048.527209 0.9889 0.9884 0.9879 0.9869 0.9859
2053.192853 0.9854 0.9850 0.9850 0.9850 0.9850
2057.858497 0.9848 0.9833 0.9820 0.9820 0.9820
2062.524141 0.9820 0.9820 0.9820 0.9819 0.9814
2067.189785 0.9810 0.9810 0.9811 0.9816 0.9821
2071.855429 0.9826 0.9832 0.9842 0.9851 0.9856
2076.521073 0.9860 0.9860 0.9862 0.9872 0.9880
2081.186717 0.9880 0.9880 0.9880 0.9880 0.9880
2085.852360 0.9878 0.9868 0.9860 0.9860 0.9860
2090.518004 0.9860 0.9860 0.9860 0.9859 0.9854
2095.183648 0.9850 0.9850 0.9850 0.9850 0.9847
2099.849292 0.9837 0.9830 0.9830 0.9830 0.9830
2104.514936 0.9829 0.9824 0.9820 0.9820 0.9819
2109.180580 0.9814 0.9810 0.9810 0.9810 0.9810
2113.846224 0.9807 0.9797 0.9790 0.9790 0.9788
2118.511868 0.9783 0.9780 0.9780 0.9777 0.9767
2123.177512 0.9760 0.9760 0.9758 0.9753 0.9750
2127.843155 0.9750 0.9747 0.9737 0.9730 0.9730
2132.508799 0.9728 0.9723 0.9716 0.9706 0.9700
2137.174443 0.9700 0.9698 0.9693 0.9686 0.9676
2141.840087 0.9666 0.9656 0.9645 0.9629 0.9620
2146.505731 0.9620 0.9620 0.9620 0.9620 0.9620
2151.171375 0.9616 0.9606 0.9600 0.9600 0.9600
2155.837019 0.9600 0.9598 0.9593 0.9590 0.9590
2160.502663 0.9586 0.9576 0.9570 0.9570 0.9570
2165.168307 0.9570 0.9570 0.9570 0.9570 0.9570
2169.833950 0.9570 0.9570 0.9570 0.9570 0.9570
2174.499594 0.9570 0.9568 0.9563 0.9560 0.9560
2179.165238 0.9555 0.9545 0.9540 0.9540 0.9538
2183.830882 0.9533 0.9530 0.9530 0.9525 0.9515
2188.496526 0.9510 0.9510 0.9507 0.9502 0.9500
2193.162170 0.9500 0.9495 0.9485 0.9480 0.9480
2197.827814 0.9477 0.9472 0.9470 0.9470 0.9470
2202.493458 0.9470 0.9467 0.9462 0.9460 0.9460
2207.159102 0.9455 0.9445 0.9437 0.9432 0.9430
2211.824745 0.9430 0.9424 0.9414 0.9410 0.9410
2216.490389 0.9407 0.9402 0.9400 0.9400 0.9394
2221.156033 0.9384 0.9377 0.9372 0.9370 0.9370
2225.821677 0.9364 0.9354 0.9350 0.9350 0.9347
2230.487321 0.9342 0.9340 0.9340 0.9334 0.9324
2235.152965 0.9317 0.9312 0.9292 0.9262 0.9247
2239.818609 0.9242 0.9234 0.9224 0.9217 0.9212
2244.484253 0.9204 0.9194 0.9187 0.9182 0.9174
2249.149896 0.9163 0.9160 0.9160 0.9157 0.9152
2253.815540 0.9143 0.9133 0.9127 0.9122 0.9117
2258.481184 0.9112 0.9103 0.9093 0.9087 0.9082
2263.146828 0.9070 0.9055 0.9050 0.9050 0.9043
2267.812472 0.9033 0.9030 0.9030 0.9026 0.9021
2272.478116 0.9020 0.9020 0.9020 0.9020 0.9020
2277.143760 0.9020 0.9020 0.9020 0.9020 0.9020
2281.809404 0.9020 0.9020 0.9013 0.9003 0.9000
2286.475048 0.9000 0.9000 0.9000 0.8996 0.8991
2291.140691 0.8990 0.8990 0.8982 0.8972 0.8966
2295.806335 0.8961 0.8956 0.8951 0.8950 0.8950
2300.471979 0.8942 0.8932 0.8926 0.8921 0.8920
2305.137623 0.8920 0.8920 0.8920 0.8920 0.8920
2309.803267 0.8920 0.8920 0.8920 0.8920 0.8912
2314.468911 0.8902 0.8900 0.8900 0.8896 0.8891
2319.134555 0.8890 0.8890 0.8882 0.8872 0.8870
2323.800199 0.8870 0.8866 0.8861 0.8860 0.8860
2328.465843 0.8851 0.8841 0.8840 0.8840 0.8827
2333.131486 0.8812 0.8810 0.8810 0.8810 0.8810
2337.797130 0.8806 0.8801 0.8800 0.8800 0.8796
2342.462774 0.8791 0.8790 0.8790 0.8781 0.8771
2347.128418 0.8770 0.8770 0.8770 0.8770 0.8765
2351.794062 0.8760 0.8760 0.8760 0.8751 0.8741
2356.459706 0.8735 0.8730 0.8730 0.8730 0.8730
2361.125350 0.8730 0.8721 0.8711 0.8710 0.8710
2365.790994 0.8710 0.8710 0.8705 0.8700 0.8700
2370.456638 0.8700 0.8700 0.8700 0.8690 0.8680
2375.122281 0.8680 0.8680 0.8680 0.8680 0.8675
2379.787925 0.8670 0.8670 0.8670 0.8660 0.8650
2384.453569 0.8645 0.8640 0.8630 0.8620 0.8615
2389.119213 0.8610 0.8610 0.8610 0.8610 0.8610
2393.784857 0.8605 0.8599 0.8584 0.8570 0.8560
2398.450501 0.8550 0.8545 0.8540 0.8530 0.8520
2403.116145 0.8515 0.8510 0.8510 0.8509 0.8499
2407.781789 0.8490 0.8490 0.8490 0.8485 0.8480
2412.447433 0.8480 0.8479 0.8469 0.8460 0.8455
2417.113076 0.8450 0.8450 0.8450 0.8445 0.8439
2421.778720 0.8424 0.8410 0.8410 0.8409 0.8399
2426.444364 0.8388 0.8373 0.8360 0.8360 0.8359
2431.110008 0.8354 0.8350 0.8350 0.8349 0.8339
2435.775652 0.8330 0.8330 0.8329 0.8324 0.8320
2440.441296 0.8320 0.8320 0.8320 0.8318 0.8308
2445.106940 0.8302 0.8312 0.8317 0.8302 0.8288
2449.772584 0.8278 0.8269 0.8264 0.8257 0.8242
2454.438228 0.8227 0.8212 0.8199 0.8194 0.8188
2459.103871 0.8178 0.8167 0.8152 0.8139 0.8134
2463.769515 0.8128 0.8118 0.8110 0.8110 0.8109
2468.435159 0.8104 0.8100 0.8100 0.8099 0.8094
2473.100803 0.8086 0.8071 0.8058 0.8048 0.8040
2477.766447 0.8040 0.8039 0.8034 0.8023 0.7993
2482.432091 0.7967 0.7957 0.7949 0.7944 0.7940
2487.097735 0.7940 0.7936 0.7921 0.7906 0.7891
2491.763379 0.7874 0.7854 0.7836 0.7821 0.7807
2496.429022 0.7797 0.7790 0.7790 0.7789 0.7783
2501.094666 0.7775 0.7760 0.7745 0.7730 0.7715
2505.760310 0.7700 0.7683 0.7663 0.7645 0.7630
2510.425954 0.7617 0.7607 0.7600 0.7600 0.7597
2515.091598 0.7587 0.7566 0.7526 0.7498 0.7493
2519.757242 0.7486 0.7476 0.7464 0.7449 0.7433
2524.422886 0.7412 0.7387 0.7352 0.7326 0.7316
2529.088530 0.7308 0.7303 0.7300 0.7300 0.7288
2533.754174 0.7258 0.7226 0.7191 0.7154 0.7114
2538.419817 0.7088 0.7083 0.7061 0.7016 0.6982
2543.085461 0.6962 0.6939 0.6914 0.6885 0.6850
2547.751105 0.6821 0.6801 0.6783 0.6768 0.6738
2552.416749 0.6688 0.6636 0.6581 0.6534 0.6499
2557.082393 0.6473 0.6458 0.6448 0.6443 0.6433
2561.748037 0.6418 0.6389 0.6344 0.6298 0.6253
2566.413681 0.6220 0.6200 0.6190 0.6190 0.6158
2571.079325 0.6093 0.6031 0.5971 0.5920 0.5880
2575.744969 0.5832 0.5777 0.5729 0.5689 0.5639
2580.410612 0.5579 0.5542 0.5527 0.5509 0.5489
2585.076256 0.5459 0.5419 0.5379 0.5339 0.5299
2589.741900 0.5259 0.5213 0.5163 0.5137 0.5132
2594.407544 0.5133 0.5138 0.5151 0.5171 0.5194
2599.073188 0.5219 0.5241 0.5261 0.5284 0.5309
2603.738832 0.5332 0.5352 0.5404 0.5479 0.5513
2608.404476 0.5518 0.5520 0.5520 0.5517 0.5512
2613.070120 0.5510 0.5510 0.5510 0.5510 0.5504
2617.735764 0.5494 0.5487 0.5482 0.5480 0.5480
2622.401407 0.5474 0.5464 0.5457 0.5452 0.5450
2627.067051 0.5450 0.5434 0.5409 0.5378 0.5343
2631.732695 0.5317 0.5297 0.5290 0.5290 0.5293
2636.398339 0.5298 0.5307 0.5317 0.5327 0.5337
2641.063983 0.5441 0.5592 0.5722 0.5842 0.5945
2645.729627 0.6040 0.6125 0.6205 0.6251 0.6281
2650.395271 0.6335 0.6401 0.6495 0.6600 0.6669
2655.060915 0.6725 0.6758 0.6783 0.6804 0.6824
2659.726559 0.6837 0.6847 0.6850 0.6850 0.6861
2664.392202 0.6876 0.6887 0.6897 0.6911 0.6926
2669.057846 0.6941 0.6956 0.6968 0.6978 0.6972
2673.723490 0.6962 0.6956 0.6951 0.6950 0.6950
2678.389134 0.6942 0.6932 0.6918 0.6903 0.6892
2683.054778 0.6882 0.6868 0.6853 0.6838 0.6823
2687.720422 0.6800 0.6775 0.6754 0.6734 0.6714
2692.386066 0.6694 0.6670 0.6645 0.6624 0.6604
2697.051710 0.6588 0.6573 0.6553 0.6533 0.6518
2701.717354 0.6503 0.6492 0.6482 0.6467 0.6452
2706.382997 0.6437 0.6422 0.6407 0.6392 0.6381
2711.048641 0.6371 0.6357 0.6342 0.6318 0.6293
2715.714285 0.6277 0.6262 0.6242 0.6222 0.6207
2720.379929 0.6192 0.6172 0.6152 0.6137 0.6122
2725.045573 0.6107 0.6091 0.6076 0.6061 0.6046
2729.711217 0.6031 0.6025 0.6020 0.6006 0.5991
2734.376861 0.5967 0.5942 0.5926 0.5911 0.5873
2739.042505 0.5833 0.5793 0.5753 0.5750 0.5750
2743.708149 0.5736 0.5721 0.5715 0.5710 0.5696
2748.373792 0.5681 0.5675 0.5670 0.5655 0.5640
2753.039436 0.5611 0.5581 0.5551 0.5521 0.5505
2757.705080 0.5490 0.5490 0.5490 0.5485 0.5480
2762.370724 0.5455 0.5430 0.5400 0.5370 0.5350
2767.036368 0.5330 0.5300 0.5270 0.5255 0.5240
2771.702012 0.5235 0.5229 0.5194 0.5159 0.5134
2776.367656 0.5109 0.5079 0.5050 0.5035 0.5019
2781.033300 0.4999 0.4977 0.4927 0.4877 0.4827
2785.698943 0.4779 0.4764 0.4749 0.4734 0.4719
2790.364587 0.4709 0.4699 0.4684 0.4669 0.4649
2795.030231 0.4629 0.4608 0.4588 0.4558 0.4528
2799.695875 0.4503 0.4477 0.4452 0.4427 0.4402
2804.361519 0.4376 0.4341 0.4307 0.4277 0.4246
2809.027163 0.4211 0.4176 0.4146 0.4120 0.4120
2813.692807 0.4118 0.4097 0.4077 0.4052 0.4028
2818.358451 0.4013 0.3994 0.3954 0.3918 0.3903
2823.024095 0.3888 0.3873 0.3858 0.3843 0.3828
2827.689738 0.3813 0.3797 0.3782 0.3769 0.3764
2832.355382 0.3757 0.3742 0.3727 0.3712 0.3697
2837.021026 0.3682 0.3667 0.3652 0.3638 0.3628
2841.686670 0.3618 0.3608 0.3597 0.3582 0.3565
2846.352314 0.3540 0.3517 0.3502 0.3489 0.3484
2851.017958 0.3478 0.3468 0.3459 0.3454 0.3450
2855.683602 0.3450 0.3449 0.3444 0.3440 0.3440
2860.349246 0.3440 0.3440 0.3441 0.3446 0.3450
2865.014890 0.3450 0.3451 0.3456 0.3460 0.3460
2869.680533 0.3463 0.3473 0.3480 0.3480 0.3481
2874.346177 0.3486 0.3493 0.3503 0.3512 0.3517
2879.011821 0.3520 0.3520 0.3523 0.3533 0.3542
2883.677465 0.3547 0.3550 0.3550 0.3553 0.3563
2888.343109 0.3570 0.3570 0.3572 0.3577 0.3583
2893.008753 0.3593 0.3602 0.3607 0.3612 0.3617
2897.674397 0.3624 0.3634 0.3642 0.3647 0.3654
2902.340041 0.3664 0.3672 0.3677 0.3684 0.3694
2907.005685 0.3702 0.3707 0.3714 0.3724 0.3732
2911.671328 0.3737 0.3744 0.3754 0.3762 0.3767
2916.336972 0.3774 0.3784 0.3794 0.3804 0.3816
2921.002616 0.3831 0.3846 0.3861 0.3882 0.3912
2925.668260 0.3936 0.3951 0.3973 0.4003 0.4020
2930.333904 0.4020 0.4029 0.4049 0.4067 0.4082
2934.999548 0.4097 0.4112 0.4127 0.4142 0.4159
2939.665192 0.4179 0.4197 0.4212 0.4227 0.4242
2944.330836 0.4257 0.4272 0.4289 0.4309 0.4327
2948.996480 0.4342 0.4357 0.4372 0.4387 0.4402
2953.662123 0.4415 0.4425 0.4440 0.4460 0.4478
2958.327767 0.4493 0.4510 0.4530 0.4545 0.4555
2962.993411 0.4583 0.4628 0.4668 0.4703 0.4728
2967.659055 0.4743 0.4753 0.4758 0.4793 0.4853
2972.324699 0.4880 0.4880 0.4891 0.4911 0.4934
2976.990343 0.4959 0.4981 0.5001 0.5027 0.5057
2981.655987 0.5073 0.5078 0.5097 0.5127 0.5157
2986.321631 0.5188 0.5218 0.5248 0.5290 0.5340
2990.987275 0.5363 0.5368 0.5388 0.5418 0.5457
2995.652918 0.5502 0.5538 0.5568 0.5592 0.5612
3000.318562 0.5648 0.5693 0.5710 0.5710 0.5729
3004.984206 0.5759 0.5783 0.5803 0.5826 0.5851
3009.649850 0.5873 0.5893 0.5913 0.5933 0.5969
3014.315494 0.6014 0.6030 0.6030 0.6050 0.6080
3018.981138 0.6110 0.6140 0.6163 0.6183 0.6210
3023.646782 0.6241 0.6264 0.6284 0.6311 0.6341
3028.312426 0.6360 0.6375 0.6432 0.6508 0.6534
3032.978069 0.6539 0.6551 0.6566 0.6584 0.6604
3037.643713 0.6617 0.6627 0.6641 0.6656 0.6671
3042.309357 0.6686 0.6709 0.6734 0.6807 0.6897
3046.975001 0.6924 0.6929 0.6941 0.6956 0.6971
3051.640645 0.6986 0.7001 0.7016 0.7028 0.7038
3056.306289 0.7059 0.7084 0.7113 0.7143 0.7158
3060.971933 0.7168 0.7170 0.7170 0.7170 0.7170
3065.637577 0.7170 0.7170 0.7170 0.7170 0.7150
3070.303221 0.7125 0.7116 0.7111 0.7110 0.7110
3074.968864 0.7110 0.7110 0.7102 0.7092 0.7090
3079.634508 0.7090 0.7090 0.7090 0.7098 0.7108
3084.300152 0.7114 0.7119 0.7128 0.7138 0.7144
3088.965796 0.7149 0.7184 0.7224 0.7251 0.7276
3093.631440 0.7327 0.7382 0.7407 0.7427 0.7461
3098.297084 0.7496 0.7544 0.7594 0.7693 0.7799
3102.962728 0.7850 0.7895 0.7922 0.7947 0.7959
3107.628372 0.7969 0.8002 0.8037 0.8081 0.8126
3112.294016 0.8162 0.8197 0.8227 0.8257 0.8288
3116.959659 0.8318 0.8334 0.8349 0.8364 0.8379
3121.625303 0.8413 0.8448 0.8483 0.8518 0.8529
3126.290947 0.8539 0.8545 0.8550 0.8574 0.8599
3130.956591 0.8638 0.8678 0.8709 0.8739 0.8764
3135.622235 0.8790 0.8810 0.8830 0.8845 0.8860
3140.287879 0.8865 0.8870 0.8885 0.8900 0.8910
3144.953523 0.8920 0.8920 0.8920 0.8920 0.8920
3149.619167 0.8925 0.8930 0.8945 0.8960 0.8980
3154.284811 0.9000 0.9015 0.9031 0.9046 0.9061
3158.950454 0.9086 0.9110 0.9115 0.9120 0.9125
3163.616098 0.9131 0.9146 0.9160 0.9170 0.9181
3168.281742 0.9196 0.9210 0.9215 0.9221 0.9236
3172.947386 0.9252 0.9277 0.9301 0.9311 0.9321
3177.613030 0.9331 0.9341 0.9356 0.9371 0.9386
3182.278674 0.9400 0.9405 0.9411 0.9426 0.9441
3186.944318 0.9451 0.9460 0.9460 0.9461 0.9471
3191.609962 0.9482 0.9497 0.9510 0.9510 0.9511
3196.275606 0.9521 0.9532 0.9547 0.9561 0.9566
3200.941249 0.9572 0.9587 0.9601 0.9611 0.9620
3205.606893 0.9620 0.9621 0.9626 0.9630 0.9630
3210.272537 0.9630 0.9630 0.9632 0.9642 0.9650
3214.938181 0.9650 0.9650 0.9650 0.9650 0.9650
3219.603825 0.9650 0.9650 0.9650 0.9650 0.9650
3224.269469 0.9650 0.9650 0.9650 0.9651 0.9656
3228.935113 0.9660 0.9660 0.9660 0.9660 0.9660
3233.600757 0.9660 0.9660 0.9660 0.9660 0.9660
3238.266401 0.9660 0.9660 0.9660 0.9660 0.9660
3242.932044 0.9660 0.9660 0.9660 0.9660 0.9660
3247.597688 0.9660 0.9660 0.9660 0.9660 0.9660
3252.263332 0.9660 0.9660 0.9660 0.9660 0.9660
3256.928976 0.9660 0.9660 0.9660 0.9660 0.9660
3261.594620 0.9660 0.9660 0.9660 0.9660 0.9660
3266.260264 0.9658 0.9653 0.9650 0.9650 0.9650
3270.925908 0.9650 0.9650 0.9650 0.9650 0.9650
3275.591552 0.9650 0.9650 0.9647 0.9637 0.9630
3280.257196 0.9630 0.9630 0.9630 0.9628 0.9623
3284.922839 0.9620 0.9620 0.9620 0.9620 0.9616
3289.588483 0.9606 0.9600 0.9600 0.9600 0.9600
3294.254127 0.9598 0.9593 0.9586 0.9576 0.9570
3298.919771 0.9570 0.9570 0.9570 0.9570 0.9570
3303.585415 0.9570 0.9570 0.9568 0.9563 0.9560
3308.251059 0.9560 0.9560 0.9560 0.9560 0.9560
3312.916703 0.9556 0.9546 0.9540 0.9540 0.9540
3317.582347 0.9540 0.9538 0.9533 0.9530 0.9530
3322.247990 0.9525 0.9515 0.9508 0.9503 0.9500
3326.913634 0.9500 0.9495 0.9485 0.9478 0.9473
3331.579278 0.9470 0.9470 0.9468 0.9463 0.9455
3336.244922 0.9445 0.9440 0.9440 0.9437 0.9432
3340.910566 0.9425 0.9415 0.9410 0.9410 0.9410
3345.576210 0.9410 0.9410 0.9410 0.9410 0.9410
3350.241854 0.9410 0.9410 0.9407 0.9402 0.9400
3354.907498 0.9400 0.9400 0.9400 0.9400 0.9400
3359.573142 0.9394 0.9384 0.9380 0.9380 0.9380
3364.238785 0.9380 0.9380 0.9380 0.9380 0.9380
3368.904429 0.9380 0.9380 0.9377 0.9372 0.9370
3373.570073 0.9370 0.9370 0.9370 0.9370 0.9370
3378.235717 0.9364 0.9354 0.9350 0.9350 0.9350
3382.901361 0.9350 0.9350 0.9350 0.9347 0.9342
3387.567005 0.9340 0.9340 0.9340 0.9340 0.9340
3392.232649 0.9340 0.9334 0.9324 0.9327 0.9337
3396.898293 0.9333 0.9323 0.9320 0.9320 0.9320
3401.563937 0.9320 0.9320 0.9320 0.9320 0.9320
3406.229580 0.9317 0.9312 0.9310 0.9310 0.9310
3410.895224 0.9310 0.9307 0.9302 0.9300 0.9300
3415.560868 0.9300 0.9300 0.9293 0.9283 0.9280
3420.226512 0.9280 0.9280 0.9280 0.9276 0.9271
3424.892156 0.9270 0.9270 0.9263 0.9253 0.9250
3429.557800 0.9250 0.9250 0.9250 0.9250 0.9250
3434.223444 0.9246 0.9241 0.9240 0.9240 0.9240
3438.889088 0.9240 0.9232 0.9222 0.9220 0.9220
3443.554732 0.9220 0.9220 0.9216 0.9211 0.9202
3448.220375 0.9192 0.9190 0.9190 0.9190 0.9190
3452.886019 0.9190 0.9190 0.9190 0.9190 0.9190
3457.551663 0.9190 0.9190 0.9190 0.9190 0.9190
3462.217307 0.9190 0.9190 0.9190 0.9190 0.9190
3466.882951 0.9190 0.9190 0.9190 0.9186 0.9181
3471.548595 0.9180 0.9180 0.9180 0.9180 0.9180
3476.214239 0.9180 0.9180 0.9180 0.9180 0.9180
3480.879883 0.9180 0.9180 0.9180 0.9180 0.9180
3485.545527 0.9180 0.9180 0.9180 0.9180 0.9180
3490.211170 0.9180 0.9180 0.9180 0.9180 0.9180
3494.876814 0.9180 0.9180 0.9180 0.9180 0.9180
3499.542458 0.9180 0.9180 0.9180 0.9180 0.9180
3504.208102 0.9180 0.9180 0.9180 0.9180 0.9180
3508.873746 0.9180 0.9180 0.9180 0.9180 0.9180
3513.539390 0.9180 0.9180 0.9180 0.9170 0.9160
3518.205034 0.9160 0.9160 0.9160 0.9160 0.9160
3522.870678 0.9160 0.9160 0.9160 0.9160 0.9160
3527.536322 0.9160 0.9160 0.9155 0.9150 0.9150
3532.201965 0.9150 0.9150 0.9150 0.9150 0.9150
3536.867609 0.9150 0.9150 0.9150 0.9150 0.9140
3541.533253 0.9130 0.9130 0.9130 0.9130 0.9130
3546.198897 0.9130 0.9130 0.9130 0.9130 0.9130
3550.864541 0.9130 0.9125 0.9120 0.9120 0.9120
3555.530185 0.9120 0.9120 0.9120 0.9120 0.9120
3560.195829 0.9120 0.9115 0.9110 0.9110 0.9110
3564.861473 0.9110 0.9110 0.9110 0.9110 0.9110
3569.527117 0.9110 0.9110 0.9110 0.9110 0.9110
3574.192760 0.9110 0.9110 0.9110 0.9109 0.9099
3578.858404 0.9090 0.9090 0.9090 0.9090 0.9090
3583.524048 0.9090 0.9090 0.9090 0.9090 0.9090
3588.189692 0.9090 0.9090 0.9089 0.9084 0.9080
3592.855336 0.9080 0.9080 0.9080 0.9080 0.9080
3597.520980 0.9080 0.9080 0.9078 0.9068 0.9060
3602.186624 0.9060 0.9060 0.9060 0.9060 0.9060
3606.852268 0.9059 0.9054 0.9050 0.9050 0.9050
3611.517911 0.9050 0.9050 0.9050 0.9048 0.9038
3616.183555 0.9030 0.9030 0.9030 0.9030 0.9029
3620.849199 0.9024 0.9020 0.9020 0.9020 0.9020
3625.514843 0.9020 0.9020 0.9020 0.9020 0.9017
3630.180487 0.9007 0.9000 0.9000 0.9000 0.9000
3634.846131 0.9000 0.9000 0.9000 0.9000 0.8998
3639.511775 0.8993 0.8990 0.8990 0.8990 0.8990
3644.177419 0.8987 0.8977 0.8970 0.8970 0.8970
3648.843063 0.8970 0.8970 0.8970 0.8968 0.8963
3653.508706 0.8960 0.8960 0.8960 0.8960 0.8958
3658.174350 0.8953 0.8950 0.8950 0.8950 0.8950
3662.839994 0.8946 0.8936 0.8930 0.8930 0.8930
3667.505638 0.8930 0.8928 0.8923 0.8920 0.8920
3672.171282 0.8920 0.8920 0.8916 0.8906 0.8900
3676.836926 0.8900 0.8898 0.8893 0.8890 0.8890
3681.502570 0.8890 0.8890 0.8890 0.8890 0.8890
3686.168214 0.8890 0.8890 0.8890 0.8890 0.8890
3690.833858 0.8890 0.8890 0.8890 0.8890 0.8890
3695.499501 0.8890 0.8890 0.8890 0.8890 0.8890
3700.165145 0.8890 0.8890 0.8890 0.8890 0.8890
3704.830789 0.8890 0.8890 0.8890 0.8885 0.8875
3709.496433 0.8870 0.8870 0.8870 0.8870 0.8868
3714.162077 0.8863 0.8860 0.8860 0.8855 0.8845
3718.827721 0.8840 0.8840 0.8840 0.8840 0.8840
3723.493365 0.8840 0.8837 0.8832 0.8830 0.8830
3728.159009 0.8830 0.8830 0.8830 0.8830 0.8825
3732.824653 0.8815 0.8810 0.8810 0.8810 0.8810
3737.490296 0.8807 0.8802 0.8800 0.8800 0.8800
3742.155940 0.8800 0.8800 0.8800 0.8797 0.8792
3746.821584 0.8790 0.8790 0.8790 0.8790 0.8784
3751.487228 0.8774 0.8770 0.8770 0.8770 0.8770
3756.152872 0.8770 0.8770 0.8767 0.8762 0.8760
3760.818516 0.8760 0.8760 0.8760 0.8754 0.8744
3765.484160 0.8740 0.8740 0.8737 0.8732 0.8730
3770.149804 0.8730 0.8730 0.8730 0.8730 0.8730
3774.815448 0.8730 0.8730 0.8723 0.8713 0.8710
3779.481091 0.8710 0.8710 0.8710 0.8710 0.8710
3784.146735 0.8707 0.8702 0.8700 0.8700 0.8700
3788.812379 0.8700 0.8693 0.8683 0.8680 0.8680
3793.478023 0.8680 0.8680 0.8680 0.8680 0.8680
3798.143667 0.8680 0.8680 0.8680 0.8680 0.8680
3802.809311 0.8680 0.8680
##END=
