##TITLE=2,8-DIMETHYLAMINO-DIBENZO[b,e]PYRIDINE HYDROCHLORIDE
##JCAMP-DX=4.24
##DATA TYPE=INFRARED SPECTRUM
##CLASS=COBLENTZ
##ORIGIN=WYANDOTTE CHEMICALS CORP., WYANDOTTE, MICHIGAN, USA
##OWNER=COBLENTZ SOCIETY
Collection (C) 2018 copyright by the U.S. Secretary of Commerce
on behalf of the United States of America. All rights reserved.
##DATE=Not specified, most likely prior to 1970
##NAMES=N<3>,N<3>,N<6>,N<6>-tetramethyl-3,6-acridinediamine hydrochloride
2,8-DIMETHYL AMINO ACRIDINE HYDROCHLORIDE
##MOLFORM=C17 H19 N3  * H Cl
##SOURCE REFERENCE=COBLENTZ NO. 3791
##$NIST ID=B6003791
##$NIST SOURCE=COBLENTZ
##$NIST IMAGE=cob3791
##SPECTROMETER/DATA SYSTEM=Not specified, most likely a prism, grating, or hybrid spectrometer.
##STATE=SOLID (MINERAL OIL MULL)
##PATH LENGTH=
$$SPECTRAL CONTAMINATION DUE TO OIL AROUND 2900 CM^-^1
##SAMPLING PROCEDURE=TRANSMISSION
##RESOLUTION=4
##DATA PROCESSING=DIGITIZED BY NIST FROM HARD COPY
##XUNITS=MICROMETERS
##YUNITS=TRANSMITTANCE
##XFACTOR=1.000000
##YFACTOR=1
##DELTAX=000.006189
##FIRSTX=2.019
##LASTX=16.006
##FIRSTY=0.134
##MAXX=16.006
##MINX=2.019
##MAXY=0.964
##MINY=0.018
##NPOINTS=2261
##XYDATA=(X++(Y..Y))
2.019000 0.1340 0.1340 0.1340 0.1340 0.1340
2.049960 0.1340 0.1360 0.1360 0.1400 0.1420
2.080000 0.1430 0.1450 0.1470 0.1480 0.1510
2.110960 0.1540 0.1560 0.1570 0.1570 0.1590
2.142000 0.1590 0.1590 0.1590 0.1590 0.1590
2.172960 0.1590 0.1570 0.1560 0.1560 0.1540
2.204000 0.1500 0.1470 0.1450 0.1470 0.1480
2.234960 0.1510 0.1540 0.1540 0.1530 0.1530
2.266000 0.1500 0.1470 0.1450 0.1430 0.1430
2.296960 0.1430 0.1430 0.1450 0.1450 0.1450
2.328000 0.1450 0.1450 0.1470 0.1470 0.1480
2.358960 0.1500 0.1500 0.1500 0.1500 0.1510
2.390000 0.1530 0.1530 0.1540 0.1540 0.1540
2.420960 0.1540 0.1540 0.1540 0.1560 0.1560
2.452000 0.1560 0.1560 0.1560 0.1560 0.1560
2.482960 0.1570 0.1590 0.1590 0.1600 0.1600
2.514000 0.1620 0.1640 0.1650 0.1670 0.1680
2.544960 0.1680 0.1700 0.1710 0.1760 0.1820
2.576000 0.1840 0.1850 0.1870 0.1880 0.1900
2.606960 0.1930 0.1950 0.1950 0.1980 0.2010
2.637000 0.2020 0.2040 0.2040 0.2010 0.1980
2.667960 0.1950 0.1930 0.1930 0.1960 0.1980
2.699000 0.2020 0.2020 0.2010 0.1950 0.1910
2.729960 0.1900 0.1900 0.1930 0.1960 0.1980
2.761000 0.1980 0.1980 0.1960 0.1910 0.1870
2.791960 0.1820 0.1780 0.1740 0.1700 0.1650
2.823000 0.1560 0.1530 0.1530 0.1510 0.1510
2.853960 0.1500 0.1470 0.1450 0.1430 0.1420
2.885000 0.1420 0.1390 0.1340 0.1280 0.1250
2.915960 0.1250 0.1220 0.1220 0.1220 0.1230
2.947000 0.1250 0.1280 0.1310 0.1370 0.1370
2.977960 0.1390 0.1370 0.1340 0.1330 0.1300
3.009000 0.1280 0.1280 0.1260 0.1260 0.1250
3.039960 0.1250 0.1250 0.1250 0.1250 0.1250
3.071000 0.1230 0.1230 0.1220 0.1220 0.1200
3.101960 0.1190 0.1190 0.1190 0.1200 0.1220
3.133000 0.1200 0.1200 0.1200 0.1200 0.1190
3.163960 0.1190 0.1190 0.1190 0.1170 0.1140
3.195000 0.1110 0.1080 0.1050 0.1020 0.0990
3.225960 0.0950 0.0920 0.0910 0.0890 0.0890
3.256000 0.0880 0.0860 0.0830 0.0820 0.0820
3.286960 0.0800 0.0780 0.0740 0.0710 0.0690
3.318000 0.0660 0.0610 0.0550 0.0470 0.0410
3.348960 0.0350 0.0290 0.0260 0.0230 0.0210
3.380000 0.0210 0.0210 0.0210 0.0210 0.0210
3.410960 0.0210 0.0200 0.0180 0.0180 0.0180
3.442000 0.0200 0.0210 0.0230 0.0240 0.0240
3.472960 0.0260 0.0260 0.0260 0.0270 0.0290
3.504000 0.0290 0.0300 0.0340 0.0340 0.0400
3.534960 0.0460 0.0600 0.0710 0.0820 0.0890
3.566000 0.0990 0.1060 0.1130 0.1200 0.1280
3.596960 0.1370 0.1450 0.1530 0.1600 0.1700
3.628000 0.1790 0.1880 0.1930 0.1930 0.1960
3.658960 0.1980 0.1980 0.1960 0.1930 0.1910
3.690000 0.1880 0.1840 0.1810 0.1780 0.1730
3.720960 0.1680 0.1620 0.1560 0.1470 0.1430
3.752000 0.1400 0.1400 0.1400 0.1420 0.1450
3.782960 0.1510 0.1530 0.1540 0.1570 0.1620
3.813000 0.1670 0.1710 0.1780 0.1820 0.1870
3.843960 0.1900 0.1950 0.1980 0.1990 0.2010
3.875000 0.2020 0.2050 0.2100 0.2150 0.2190
3.905960 0.2210 0.2240 0.2270 0.2300 0.2330
3.937000 0.2380 0.2440 0.2460 0.2470 0.2490
3.967960 0.2610 0.2630 0.2640 0.2690 0.2700
3.999000 0.2730 0.2770 0.2840 0.2870 0.2910
4.029960 0.2910 0.2910 0.2910 0.2920 0.2940
4.061000 0.2940 0.2950 0.2980 0.3010 0.3040
4.091960 0.3040 0.3060 0.3060 0.3040 0.3040
4.123000 0.3030 0.2980 0.2950 0.2940 0.2940
4.153960 0.2950 0.3000 0.3090 0.3140 0.3200
4.185000 0.3230 0.3290 0.3340 0.3370 0.3400
4.215960 0.3480 0.3480 0.3490 0.3490 0.3490
4.247000 0.3480 0.3340 0.3280 0.3230 0.3230
4.277960 0.3280 0.3370 0.3420 0.3460 0.3510
4.309000 0.3590 0.3630 0.3660 0.3680 0.3680
4.339960 0.3690 0.3740 0.3820 0.3940 0.3940
4.370000 0.4040 0.4100 0.4140 0.4220 0.4280
4.400960 0.4330 0.4360 0.4360 0.4340 0.4340
4.432000 0.4330 0.4310 0.4280 0.4280 0.4270
4.462960 0.4270 0.4280 0.4280 0.4280 0.4300
4.494000 0.4310 0.4340 0.4380 0.4410 0.4420
4.524960 0.4440 0.4440 0.4440 0.4450 0.4450
4.556000 0.4480 0.4480 0.4530 0.4530 0.4550
4.586960 0.4560 0.4580 0.4580 0.4590 0.4620
4.618000 0.4640 0.4640 0.4650 0.4670 0.4670
4.648960 0.4700 0.4720 0.4730 0.4750 0.4780
4.680000 0.4790 0.4820 0.4860 0.4870 0.4890
4.710960 0.4900 0.4930 0.4950 0.4980 0.5000
4.742000 0.5010 0.5030 0.5030 0.5060 0.5090
4.772960 0.5130 0.5180 0.5240 0.5270 0.5300
4.804000 0.5300 0.5300 0.5290 0.5290 0.5300
4.834960 0.5300 0.5320 0.5340 0.5370 0.5380
4.866000 0.5380 0.5400 0.5430 0.5430 0.5460
4.896960 0.5460 0.5470 0.5510 0.5510 0.5520
4.927000 0.5520 0.5550 0.5570 0.5580 0.5610
4.957960 0.5650 0.5680 0.5710 0.5710 0.5720
4.989000 0.5720 0.5720 0.5710 0.5690 0.5710
5.019960 0.5720 0.5770 0.5780 0.5820 0.5850
5.051000 0.5890 0.5950 0.5970 0.5990 0.6000
5.081960 0.6020 0.6030 0.6050 0.6060 0.6090
5.113000 0.6090 0.6130 0.6140 0.6140 0.6140
5.143960 0.6140 0.6160 0.6160 0.6160 0.6160
5.175000 0.6160 0.6190 0.6190 0.6190 0.6200
5.205960 0.6230 0.6250 0.6260 0.6280 0.6300
5.237000 0.6300 0.6310 0.6360 0.6400 0.6470
5.267960 0.6530 0.6560 0.6570 0.6590 0.6590
5.299000 0.6600 0.6600 0.6600 0.6600 0.6600
5.329960 0.6620 0.6650 0.6680 0.6710 0.6710
5.361000 0.6730 0.6730 0.6730 0.6740 0.6760
5.391960 0.6810 0.6880 0.6990 0.7020 0.7040
5.423000 0.7080 0.7100 0.7120 0.7120 0.7130
5.453960 0.7160 0.7210 0.7290 0.7350 0.7410
5.485000 0.7440 0.7440 0.7390 0.7390 0.7410
5.515960 0.7470 0.7690 0.7720 0.7730 0.7770
5.546000 0.7780 0.7800 0.7800 0.7810 0.7840
5.576960 0.7890 0.7950 0.7950 0.7980 0.8060
5.608000 0.8120 0.8200 0.8250 0.8250 0.8280
5.638960 0.8280 0.8280 0.8180 0.8180 0.8200
5.670000 0.8400 0.8590 0.8690 0.8710 0.8730
5.700960 0.8730 0.8600 0.8230 0.8230 0.8310
5.732000 0.8600 0.8760 0.8880 0.8900 0.8910
5.762960 0.8960 0.9040 0.9240 0.9390 0.9420
5.794000 0.9380 0.9170 0.9110 0.9110 0.9210
5.824960 0.9420 0.9620 0.9640 0.9610 0.9440
5.856000 0.9360 0.9310 0.9250 0.9240 0.9240
5.886960 0.9270 0.9310 0.9390 0.9380 0.8930
5.918000 0.8600 0.8450 0.8260 0.8090 0.7910
5.948960 0.7670 0.7440 0.6950 0.6680 0.5970
5.980000 0.5830 0.5710 0.5300 0.4890 0.3740
6.010960 0.2580 0.2190 0.1790 0.1680 0.1430
6.042000 0.1190 0.0990 0.0780 0.0570 0.0440
6.072960 0.0440 0.0490 0.0550 0.0600 0.0630
6.103000 0.0660 0.0710 0.0780 0.0890 0.1030
6.133960 0.1170 0.1330 0.1480 0.1680 0.1880
6.165000 0.1980 0.1980 0.1510 0.1190 0.1080
6.195960 0.0950 0.0800 0.0720 0.0680 0.0650
6.227000 0.0630 0.0630 0.0630 0.0650 0.0680
6.257960 0.0710 0.0820 0.0950 0.1060 0.1170
6.289000 0.1280 0.1390 0.1510 0.1670 0.1730
6.319960 0.1780 0.1780 0.1760 0.1740 0.1730
6.351000 0.1670 0.1560 0.1480 0.1500 0.1510
6.381960 0.1700 0.1730 0.1780 0.1780 0.1740
6.413000 0.1700 0.1680 0.1560 0.1530 0.1480
6.443960 0.1470 0.1430 0.1430 0.1430 0.1420
6.475000 0.1400 0.1390 0.1360 0.1330 0.1310
6.505960 0.1300 0.1250 0.1220 0.1220 0.1200
6.537000 0.1200 0.1300 0.1310 0.1330 0.1330
6.567960 0.1310 0.1300 0.1250 0.1160 0.1130
6.599000 0.1090 0.1050 0.1050 0.1020 0.1000
6.629960 0.0990 0.0990 0.1000 0.1030 0.1050
6.660000 0.1080 0.1130 0.1170 0.1190 0.1200
6.690960 0.1280 0.1300 0.1300 0.1300 0.1300
6.722000 0.1280 0.1250 0.1140 0.1030 0.0970
6.752960 0.0910 0.0880 0.0770 0.0650 0.0540
6.784000 0.0460 0.0410 0.0370 0.0350 0.0350
6.814960 0.0370 0.0370 0.0380 0.0400 0.0410
6.846000 0.0430 0.0430 0.0440 0.0440 0.0470
6.876960 0.0490 0.0570 0.0650 0.0710 0.0780
6.908000 0.0850 0.0910 0.0990 0.1060 0.1130
6.938960 0.1360 0.1530 0.1640 0.1730 0.1790
6.970000 0.1840 0.1900 0.1980 0.2070 0.2180
7.000960 0.2260 0.2410 0.2630 0.2640 0.2670
7.032000 0.2700 0.2730 0.2730 0.2700 0.2640
7.062960 0.2600 0.2530 0.2470 0.2390 0.2380
7.094000 0.2350 0.2380 0.2490 0.2750 0.2940
7.124960 0.3000 0.3030 0.3110 0.3120 0.3170
7.156000 0.3180 0.3210 0.3210 0.3120 0.2640
7.186960 0.2410 0.2180 0.1710 0.1330 0.0920
7.218000 0.0550 0.0380 0.0340 0.0340 0.0350
7.248960 0.0400 0.0460 0.0510 0.0570 0.0650
7.279000 0.0780 0.0990 0.1090 0.1130 0.1190
7.309960 0.1190 0.1170 0.1160 0.1130 0.1090
7.341000 0.1030 0.0940 0.0830 0.0770 0.0720
7.371960 0.0710 0.0690 0.0680 0.0680 0.0710
7.403000 0.0860 0.0910 0.0990 0.1060 0.1140
7.433960 0.1200 0.1280 0.1360 0.1430 0.1530
7.465000 0.1620 0.1710 0.1790 0.1870 0.1950
7.495960 0.1990 0.2070 0.2080 0.2100 0.2100
7.527000 0.2100 0.2120 0.2190 0.2290 0.2430
7.557960 0.2560 0.2610 0.2630 0.2640 0.2660
7.589000 0.2630 0.2550 0.2520 0.2470 0.2390
7.619960 0.2390 0.2690 0.2750 0.2810 0.2870
7.651000 0.2890 0.2920 0.2980 0.3010 0.3010
7.681960 0.3080 0.3090 0.3110 0.3110 0.3110
7.713000 0.3110 0.3110 0.3120 0.3120 0.3120
7.743960 0.3140 0.3180 0.3230 0.3310 0.3400
7.775000 0.3480 0.3540 0.3590 0.3630 0.3740
7.805960 0.3800 0.3800 0.3790 0.3600 0.3450
7.836000 0.3290 0.3090 0.2890 0.2840 0.2840
7.866960 0.2910 0.3090 0.3230 0.3430 0.3620
7.898000 0.3710 0.3760 0.3830 0.3900 0.3910
7.928960 0.3910 0.3900 0.3690 0.3450 0.3230
7.960000 0.3030 0.2950 0.2870 0.2840 0.2860
7.990960 0.3090 0.3200 0.3260 0.3370 0.3420
8.022000 0.3520 0.3690 0.3790 0.3820 0.3860
8.052960 0.3940 0.3940 0.3910 0.3900 0.3900
8.084000 0.3880 0.3860 0.3800 0.3730 0.3660
8.114960 0.3600 0.3590 0.3600 0.3660 0.3680
8.146000 0.3690 0.3710 0.3790 0.3940 0.4050
8.176960 0.4140 0.4240 0.4300 0.4380 0.4440
8.208000 0.4530 0.4620 0.4670 0.4700 0.4750
8.238960 0.4810 0.4890 0.4950 0.5090 0.5170
8.270000 0.5230 0.5290 0.5350 0.5410 0.5470
8.300960 0.5510 0.5540 0.5540 0.5580 0.5600
8.332000 0.5610 0.5630 0.5630 0.5580 0.5400
8.362960 0.5260 0.5150 0.5060 0.5010 0.4950
8.393000 0.4860 0.4730 0.4610 0.4420 0.4210
8.423960 0.3900 0.3520 0.2980 0.2730 0.2470
8.455000 0.2080 0.1790 0.1480 0.1200 0.0990
8.485960 0.0850 0.0750 0.0690 0.0610 0.0580
8.517000 0.0550 0.0520 0.0510 0.0510 0.0510
8.547960 0.0520 0.0540 0.0580 0.0610 0.0650
8.579000 0.0740 0.0740 0.0800 0.0860 0.0910
8.609960 0.0920 0.0940 0.0970 0.0990 0.1020
8.641000 0.1050 0.1110 0.1200 0.1280 0.1370
8.671960 0.1480 0.1620 0.1730 0.1840 0.1950
8.703000 0.2040 0.2050 0.2190 0.2300 0.2430
8.733960 0.2490 0.2580 0.2610 0.2610 0.2600
8.765000 0.2530 0.2490 0.2440 0.2350 0.2180
8.795960 0.2160 0.2160 0.2190 0.2190 0.2240
8.827000 0.2290 0.2300 0.2350 0.2360 0.2440
8.857960 0.2490 0.2500 0.2500 0.2500 0.2500
8.889000 0.2500 0.2520 0.2520 0.2520 0.2440
8.919960 0.2350 0.2240 0.2180 0.2080 0.1990
8.950000 0.1870 0.1870 0.1950 0.2040 0.2120
8.980960 0.2220 0.2350 0.2670 0.2810 0.2920
9.012000 0.3010 0.3040 0.3120 0.3170 0.3210
9.042960 0.3250 0.3290 0.3320 0.3390 0.3450
9.074000 0.3510 0.3520 0.3560 0.3590 0.3620
9.104960 0.3650 0.3680 0.3690 0.3730 0.3710
9.136000 0.3740 0.3760 0.3770 0.3790 0.3800
9.166960 0.3830 0.3850 0.3880 0.3910 0.3910
9.198000 0.3930 0.3940 0.3960 0.3960 0.3970
9.228960 0.3990 0.4000 0.4000 0.4000 0.4000
9.260000 0.4020 0.4020 0.4020 0.4020 0.4020
9.290960 0.4000 0.3970 0.3960 0.3910 0.3880
9.322000 0.3850 0.3740 0.3650 0.3560 0.3510
9.352960 0.3460 0.3400 0.3350 0.3280 0.3210
9.384000 0.3210 0.3250 0.3320 0.3400 0.3460
9.414960 0.3490 0.3520 0.3570 0.3650 0.3740
9.446000 0.3820 0.3830 0.3880 0.3970 0.4040
9.476960 0.4140 0.4220 0.4270 0.4270 0.4280
9.508000 0.4330 0.4450 0.4520 0.4610 0.4690
9.538960 0.4730 0.4760 0.4780 0.4820 0.4890
9.569000 0.4890 0.4920 0.4920 0.4930 0.4950
9.599960 0.4960 0.5000 0.5070 0.5090 0.5100
9.631000 0.5100 0.5100 0.5100 0.5100 0.5120
9.661960 0.5130 0.5170 0.5210 0.5240 0.5270
9.693000 0.5300 0.5300 0.5300 0.5300 0.5300
9.723960 0.5320 0.5350 0.5370 0.5370 0.5370
9.755000 0.5380 0.5400 0.5440 0.5490 0.5550
9.785960 0.5570 0.5600 0.5610 0.5650 0.5710
9.817000 0.5720 0.5720 0.5720 0.5750 0.5750
9.847960 0.5750 0.5770 0.5770 0.5780 0.5800
9.879000 0.5820 0.5850 0.5880 0.5890 0.5880
9.909960 0.5880 0.5830 0.5780 0.5770 0.5710
9.941000 0.5680 0.5650 0.5540 0.5490 0.5430
9.971960 0.5350 0.5290 0.5270 0.5270 0.5290
10.003000 0.5350 0.5430 0.5520 0.5600 0.5680
10.033960 0.5740 0.5780 0.5800 0.5820 0.5830
10.065000 0.5860 0.5910 0.5970 0.5970 0.5990
10.095960 0.5990 0.6000 0.6020 0.6030 0.6050
10.126000 0.6060 0.6050 0.6020 0.6000 0.5990
10.156960 0.5970 0.5940 0.5880 0.5800 0.5720
10.188000 0.5650 0.5580 0.5510 0.5380 0.5340
10.218960 0.5240 0.5200 0.5180 0.5170 0.5180
10.250000 0.5210 0.5270 0.5340 0.5380 0.5400
10.280960 0.5430 0.5470 0.5470 0.5470 0.5460
10.312000 0.5440 0.5430 0.5380 0.5290 0.5240
10.342960 0.5130 0.5090 0.5040 0.5030 0.5040
10.374000 0.5070 0.5120 0.5200 0.5380 0.5460
10.404960 0.5510 0.5520 0.5580 0.5690 0.5770
10.436000 0.5780 0.5820 0.5820 0.5830 0.5830
10.466960 0.5830 0.5830 0.5830 0.5820 0.5780
10.498000 0.5750 0.5710 0.5680 0.5630 0.5610
10.528960 0.5580 0.5570 0.5540 0.5520 0.5490
10.560000 0.5470 0.5490 0.5510 0.5550 0.5630
10.590960 0.5720 0.5800 0.5850 0.5880 0.5880
10.622000 0.5880 0.5850 0.5820 0.5820 0.5770
10.652960 0.5710 0.5610 0.5460 0.5320 0.5230
10.683000 0.5090 0.5040 0.5000 0.4950 0.4960
10.713960 0.5100 0.5270 0.5400 0.5460 0.5570
10.745000 0.5680 0.5740 0.5770 0.5780 0.5780
10.775960 0.5720 0.5660 0.5550 0.5440 0.5180
10.807000 0.5060 0.4920 0.4700 0.4450 0.4210
10.837960 0.4000 0.3660 0.3540 0.3460 0.3400
10.869000 0.3390 0.3400 0.3460 0.3520 0.3680
10.899960 0.3800 0.3940 0.4070 0.4170 0.4280
10.931000 0.4390 0.4500 0.4590 0.4640 0.4690
10.961960 0.4700 0.4700 0.4690 0.4500 0.4420
10.993000 0.4330 0.4280 0.4170 0.4160 0.4190
11.023960 0.4280 0.4380 0.4530 0.4610 0.4720
11.055000 0.4860 0.5200 0.5350 0.5490 0.5580
11.085960 0.5610 0.5710 0.5800 0.5820 0.5850
11.117000 0.5890 0.5950 0.5970 0.5990 0.5990
11.147960 0.6000 0.6000 0.5990 0.5990 0.5970
11.179000 0.5940 0.5910 0.5850 0.5780 0.5720
11.209960 0.5660 0.5650 0.5650 0.5660 0.5710
11.240000 0.5740 0.5780 0.5800 0.5860 0.5940
11.270960 0.5990 0.6030 0.6140 0.6200 0.6300
11.302000 0.6400 0.6470 0.6500 0.6570 0.6590
11.332960 0.6620 0.6620 0.6640 0.6650 0.6680
11.364000 0.6780 0.6790 0.6820 0.6870 0.6870
11.394960 0.6880 0.6880 0.6880 0.6880 0.6850
11.426000 0.6840 0.6840 0.6810 0.6780 0.6730
11.456960 0.6700 0.6670 0.6600 0.6540 0.6480
11.488000 0.6420 0.6370 0.6340 0.6300 0.6130
11.518960 0.5970 0.5830 0.5690 0.5540 0.5470
11.550000 0.5340 0.5200 0.5170 0.5120 0.5090
11.580960 0.5070 0.5060 0.5090 0.5180 0.5320
11.612000 0.5440 0.5550 0.5780 0.5890 0.6020
11.642960 0.6140 0.6250 0.6370 0.6480 0.6620
11.674000 0.6740 0.6810 0.6850 0.6900 0.6950
11.704960 0.6980 0.7010 0.7020 0.7020 0.6990
11.736000 0.6980 0.6980 0.6960 0.6960 0.6960
11.766960 0.6960 0.6960 0.6960 0.6960 0.6900
11.798000 0.6780 0.6600 0.6510 0.6430 0.6420
11.828960 0.6390 0.6330 0.6260 0.6200 0.6130
11.859000 0.6050 0.5950 0.5890 0.5830 0.5770
11.889960 0.5710 0.5600 0.5490 0.5350 0.5240
11.921000 0.5060 0.4960 0.4870 0.4750 0.4550
11.951960 0.4410 0.4140 0.4000 0.3850 0.3740
11.983000 0.3690 0.3560 0.3430 0.3310 0.3210
12.013960 0.3110 0.3090 0.3080 0.3080 0.3090
12.045000 0.3090 0.3110 0.3120 0.3120 0.3140
12.075960 0.3140 0.3140 0.3140 0.3150 0.3150
12.107000 0.3170 0.3180 0.3200 0.3250 0.3310
12.137960 0.3350 0.3420 0.3430 0.3480 0.3510
12.169000 0.3570 0.3620 0.3680 0.3740 0.3830
12.199960 0.3930 0.4020 0.4050 0.4110 0.4130
12.231000 0.4190 0.4250 0.4300 0.4330 0.4330
12.261960 0.4330 0.4330 0.4330 0.4300 0.4280
12.293000 0.4280 0.4270 0.4250 0.4210 0.4190
12.323960 0.4140 0.4130 0.4080 0.4020 0.3990
12.355000 0.3960 0.3910 0.3800 0.3740 0.3630
12.385960 0.3560 0.3460 0.3450 0.3450 0.3460
12.416000 0.3510 0.3570 0.3730 0.3960 0.4210
12.446960 0.4450 0.4640 0.4810 0.5200 0.5350
12.478000 0.5540 0.5710 0.5860 0.5970 0.6050
12.508960 0.6160 0.6300 0.6360 0.6450 0.6510
12.540000 0.6530 0.6560 0.6590 0.6620 0.6640
12.570960 0.6650 0.6650 0.6620 0.6620 0.6590
12.602000 0.6540 0.6530 0.6500 0.6480 0.6480
12.632960 0.6500 0.6510 0.6530 0.6530 0.6480
12.664000 0.6260 0.6000 0.5880 0.5650 0.5440
12.694960 0.5200 0.5060 0.4900 0.4650 0.4550
12.726000 0.4390 0.4380 0.4380 0.4410 0.4560
12.756960 0.4750 0.4960 0.5430 0.5660 0.5890
12.788000 0.6110 0.6280 0.6470 0.6570 0.6670
12.818960 0.6730 0.6810 0.6880 0.6930 0.6960
12.850000 0.6980 0.6990 0.7010 0.7040 0.7100
12.880960 0.7190 0.7270 0.7290 0.7300 0.7300
12.912000 0.7300 0.7300 0.7320 0.7330 0.7360
12.942960 0.7380 0.7390 0.7410 0.7430 0.7430
12.973000 0.7410 0.7410 0.7430 0.7460 0.7460
13.003960 0.7460 0.7470 0.7470 0.7470 0.7470
13.035000 0.7470 0.7470 0.7490 0.7560 0.7580
13.065960 0.7580 0.7600 0.7610 0.7630 0.7630
13.097000 0.7630 0.7640 0.7640 0.7660 0.7670
13.127960 0.7700 0.7730 0.7730 0.7730 0.7720
13.159000 0.7720 0.7700 0.7670 0.7690 0.7660
13.189960 0.7630 0.7550 0.7520 0.7470 0.7380
13.221000 0.7300 0.7210 0.7160 0.7120 0.7040
13.251960 0.6990 0.6960 0.6910 0.6870 0.6840
13.283000 0.6810 0.6760 0.6730 0.6680 0.6620
13.313960 0.6600 0.6590 0.6570 0.6570 0.6540
13.345000 0.6530 0.6510 0.6500 0.6470 0.6470
13.375960 0.6470 0.6480 0.6540 0.6600 0.6670
13.407000 0.6700 0.6710 0.6730 0.6760 0.6780
13.437960 0.6840 0.6880 0.6910 0.6910 0.6930
13.469000 0.6950 0.6950 0.6960 0.6960 0.6960
13.499960 0.6960 0.6960 0.6960 0.6980 0.6980
13.531000 0.6980 0.6960 0.6980 0.6980 0.6990
13.561960 0.7010 0.7010 0.7020 0.7010 0.7010
13.592000 0.7010 0.7010 0.7010 0.7010 0.7010
13.622960 0.7010 0.7020 0.7020 0.7020 0.7040
13.654000 0.7050 0.7040 0.7020 0.7010 0.6990
13.684960 0.6960 0.6930 0.6930 0.6910 0.6910
13.716000 0.6900 0.6880 0.6870 0.6880 0.6930
13.746960 0.6930 0.6900 0.6870 0.6870 0.6870
13.778000 0.6880 0.6900 0.6910 0.6930 0.6930
13.808960 0.6930 0.6910 0.6910 0.6900 0.6870
13.840000 0.6850 0.6840 0.6820 0.6810 0.6810
13.870960 0.6810 0.6810 0.6820 0.6820 0.6840
13.902000 0.6840 0.6850 0.6850 0.6850 0.6880
13.932960 0.6880 0.6910 0.6980 0.7010 0.7050
13.964000 0.7080 0.7120 0.7150 0.7180 0.7210
13.994960 0.7240 0.7270 0.7300 0.7330 0.7380
14.026000 0.7410 0.7460 0.7470 0.7560 0.7610
14.056960 0.7660 0.7690 0.7720 0.7730 0.7750
14.088000 0.7770 0.7770 0.7770 0.7750 0.7770
14.118960 0.7770 0.7780 0.7800 0.7800 0.7800
14.149000 0.7780 0.7730 0.7640 0.7600 0.7580
14.179960 0.7550 0.7520 0.7490 0.7380 0.7260
14.211000 0.7100 0.6930 0.6760 0.6600 0.6470
14.241960 0.6340 0.6170 0.6000 0.5830 0.5680
14.273000 0.5510 0.5370 0.5210 0.5070 0.5010
14.303960 0.4930 0.4820 0.4650 0.4550 0.4440
14.335000 0.4340 0.4250 0.4210 0.4170 0.4160
14.365960 0.4160 0.4170 0.4210 0.4280 0.4360
14.397000 0.4440 0.4550 0.4670 0.4810 0.4950
14.427960 0.5260 0.5370 0.5520 0.5660 0.5800
14.459000 0.5940 0.6080 0.6190 0.6260 0.6280
14.489960 0.6330 0.6430 0.6530 0.6600 0.6680
14.521000 0.6710 0.6760 0.6810 0.6850 0.6880
14.551960 0.6900 0.6930 0.6990 0.7050 0.7100
14.583000 0.7160 0.7190 0.7190 0.7210 0.7210
14.613960 0.7220 0.7220 0.7220 0.7220 0.7220
14.645000 0.7240 0.7240 0.7260 0.7270 0.7290
14.675960 0.7300 0.7320 0.7320 0.7320 0.7350
14.706000 0.7360 0.7380 0.7390 0.7390 0.7410
14.736960 0.7430 0.7430 0.7430 0.7410 0.7390
14.768000 0.7390 0.7380 0.7360 0.7360 0.7350
14.798960 0.7350 0.7330 0.7330 0.7330 0.7350
14.830000 0.7360 0.7380 0.7380 0.7380 0.7380
14.860960 0.7360 0.7360 0.7380 0.7380 0.7380
14.892000 0.7390 0.7390 0.7390 0.7390 0.7390
14.922960 0.7380 0.7380 0.7350 0.7330 0.7320
14.954000 0.7270 0.7210 0.7150 0.7080 0.7020
14.984960 0.6930 0.6840 0.6730 0.6620 0.6470
15.016000 0.6450 0.6390 0.6370 0.6330 0.6300
15.046960 0.6280 0.6280 0.6300 0.6370 0.6420
15.078000 0.6470 0.6510 0.6590 0.6650 0.6710
15.108960 0.6780 0.6810 0.6850 0.6880 0.6900
15.140000 0.6910 0.6950 0.6950 0.6910 0.6910
15.170960 0.6900 0.6880 0.6870 0.6850 0.6840
15.202000 0.6840 0.6780 0.6740 0.6700 0.6650
15.232960 0.6590 0.6510 0.6500 0.6450 0.6450
15.263000 0.6470 0.6470 0.6450 0.6430 0.6370
15.293960 0.6310 0.6280 0.6220 0.6160 0.6030
15.325000 0.6000 0.5950 0.5910 0.5860 0.5820
15.355960 0.5800 0.5740 0.5710 0.5680 0.5660
15.387000 0.5630 0.5600 0.5510 0.5400 0.5340
15.417960 0.5240 0.5210 0.5210 0.5210 0.5210
15.449000 0.5230 0.5230 0.5230 0.5210 0.5200
15.479960 0.5180 0.5170 0.5170 0.5170 0.5180
15.511000 0.5200 0.5200 0.5210 0.5210 0.5210
15.541960 0.5200 0.5200 0.5180 0.5170 0.5170
15.573000 0.5170 0.5170 0.5150 0.5130 0.5070
15.603960 0.5030 0.5010 0.4980 0.4950 0.4930
15.635000 0.4930 0.4920 0.4900 0.4890 0.4860
15.665960 0.4810 0.4790 0.4760 0.4760 0.4730
15.697000 0.4730 0.4720 0.4700 0.4700 0.4690
15.727960 0.4690 0.4690 0.4670 0.4670 0.4670
15.759000 0.4640 0.4610 0.4580 0.4560 0.4550
15.789960 0.4550 0.4520 0.4450 0.4450 0.4470
15.821000 0.4470 0.4450 0.4420 0.4410 0.4360
15.851960 0.4300 0.4270 0.4250 0.4220 0.4190
15.882000 0.4110 0.4080 0.4070 0.4050 0.4050
15.912960 0.4050 0.4040 0.4040 0.4020 0.4020
15.944000 0.4000 0.4000 0.4000 0.3990 0.3970
15.974960 0.3960 0.3960 0.3930 0.3930 0.3900
16.006000 0.3930
##END=
