##TITLE=CARBOXYMETHYL CELLULOSE, SODIUM SALT
##JCAMP-DX=4.24
##DATA TYPE=INFRARED SPECTRUM
##CLASS=COBLENTZ III
##ORIGIN=DOW CHEMICAL COMPANY
##OWNER=COBLENTZ SOCIETY
Collection (C) 2018 copyright by the U.S. Secretary of Commerce
on behalf of the United States of America. All rights reserved.
##DATE=1960/05/17
##MOLFORM=C99 H99 O99 Na99
##SOURCE REFERENCE=COBLENTZ NO. 4329
##$NIST ID=B6004329
##$NIST SOURCE=COBLENTZ
##$NIST IMAGE=cob4329
##SPECTROMETER/DATA SYSTEM=DOW KBr FOREPRISM-GRATING
##INSTRUMENT PARAMETERS=BLAZED AT 3.5, 12.0, 20.0 MICRON; GRATING CHANGES AT 5.0, 7.5, 14.9 MICRON
##STATE=SOLUTION (IN H2O)
##PATH LENGTH=AgCl PLATES
##SAMPLING PROCEDURE=TRANSMISSION
##RESOLUTION=4
##DATA PROCESSING=DIGITIZED BY NIST FROM HARD COPY (FROM TWO SEGMENTS)
##XUNITS=1/CM
##YUNITS=TRANSMITTANCE
##XFACTOR=1.000000
##YFACTOR=1
##DELTAX=1.184311
##FIRSTX=408.29
##LASTX=3793.05
##FIRSTY=0.603
##MAXX=3793.05
##MINX=408.29
##MAXY=0.974
##MINY=0.053
##NPOINTS=2859
##XYDATA=(X++(Y..Y))
408.290000 0.6030 0.6030 0.6030 0.6030 0.6030
414.211554 0.6030 0.6030 0.6030 0.6030 0.6030
420.133108 0.6030 0.6030 0.6030 0.6030 0.6030
426.054662 0.6030 0.6030 0.6030 0.6030 0.6030
431.976217 0.6030 0.6050 0.6050 0.6050 0.6050
437.897771 0.6050 0.6050 0.6050 0.6050 0.6050
443.819325 0.6050 0.6050 0.6050 0.6050 0.6050
449.740879 0.6050 0.6050 0.6050 0.6050 0.6050
455.662433 0.6050 0.6050 0.6050 0.6030 0.6030
461.583987 0.6030 0.6030 0.6030 0.6030 0.6030
467.505542 0.6030 0.6010 0.6010 0.5990 0.5990
473.427096 0.5990 0.5970 0.5950 0.5950 0.5940
479.348650 0.5920 0.5900 0.5880 0.5830 0.5810
485.270204 0.5790 0.5770 0.5770 0.5770 0.5750
491.191758 0.5750 0.5750 0.5710 0.5710 0.5700
497.113312 0.5700 0.5680 0.5680 0.5660 0.5640
503.034867 0.5640 0.5640 0.5640 0.5620 0.5620
508.956421 0.5620 0.5620 0.5620 0.5600 0.5600
514.877975 0.5590 0.5590 0.5590 0.5590 0.5570
520.799529 0.5550 0.5550 0.5550 0.5550 0.5530
526.721083 0.5530 0.5530 0.5510 0.5510 0.5470
532.642637 0.5470 0.5470 0.5460 0.5460 0.5460
538.564192 0.5460 0.5440 0.5440 0.5440 0.5420
544.485746 0.5400 0.5400 0.5380 0.5380 0.5360
550.407300 0.5330 0.5310 0.5290 0.5270 0.5250
556.328854 0.5230 0.5200 0.5180 0.5160 0.5120
562.250408 0.5110 0.5070 0.5070 0.5030 0.5000
568.171962 0.4980 0.4960 0.4940 0.4880 0.4870
574.093517 0.4850 0.4830 0.4830 0.4810 0.4810
580.015071 0.4770 0.4770 0.4760 0.4760 0.4740
585.936625 0.4720 0.4720 0.4700 0.4700 0.4700
591.858179 0.4680 0.4680 0.4660 0.4660 0.4640
597.779733 0.4640 0.4640 0.4640 0.4640 0.4640
603.701287 0.4660 0.4660 0.4660 0.4680 0.4700
609.622842 0.4720 0.4740 0.4760 0.4770 0.4790
615.544396 0.4810 0.4850 0.4880 0.4920 0.4960
621.465950 0.4980 0.5010 0.5010 0.5030 0.5050
627.387504 0.5050 0.5070 0.5110 0.5120 0.5120
633.309058 0.5140 0.5180 0.5180 0.5200 0.5200
639.230612 0.5200 0.5220 0.5220 0.5220 0.5220
645.152167 0.5200 0.5200 0.5200 0.5200 0.5180
651.073721 0.5180 0.5180 0.5180 0.5180 0.5180
656.995275 0.5200 0.5200 0.5220 0.5220 0.5230
662.916829 0.5230 0.5250 0.5250 0.5270 0.5270
668.838383 0.5290 0.5290 0.5310 0.5310 0.5330
674.759937 0.5350 0.5360 0.5360 0.5360 0.5380
680.681491 0.5380 0.5380 0.5400 0.5400 0.5400
686.603046 0.5420 0.5420 0.5420 0.5420 0.5440
692.524600 0.5460 0.5460 0.5460 0.5460 0.5460
698.446154 0.5470 0.5470 0.5470 0.5470 0.5470
704.367708 0.5470 0.5470 0.5470 0.5490 0.5490
710.289262 0.5490 0.5490 0.5490 0.5510 0.5510
716.210816 0.5530 0.5530 0.5550 0.5550 0.5570
722.132371 0.5590 0.5600 0.5620 0.5660 0.5680
728.053925 0.5710 0.5750 0.5810 0.5840 0.5880
733.975479 0.5900 0.5950 0.6030 0.6050 0.6100
739.897033 0.6180 0.6250 0.6300 0.6320 0.6360
745.818587 0.6470 0.6510 0.6580 0.6600 0.6670
751.740141 0.6670 0.6750 0.6750 0.6780 0.6820
757.661696 0.6900 0.6930 0.6950 0.6950 0.6970
763.583250 0.7010 0.7040 0.7060 0.7060 0.7080
769.504804 0.7080 0.7120 0.7140 0.7170 0.7190
775.426358 0.7190 0.7230 0.7250 0.7260 0.7280
781.347912 0.7300 0.7340 0.7360 0.7380 0.7390
787.269466 0.7390 0.7410 0.7430 0.7450 0.7470
793.191021 0.7490 0.7500 0.7520 0.7540 0.7560
799.112575 0.7580 0.7600 0.7610 0.7610 0.7630
805.034129 0.7650 0.7650 0.7670 0.7690 0.7710
810.955683 0.7740 0.7760 0.7780 0.7780 0.7800
816.877237 0.7820 0.7840 0.7850 0.7870 0.7890
822.798791 0.7910 0.7930 0.7950 0.7970 0.7980
828.720346 0.7980 0.8020 0.8040 0.8060 0.8080
834.641900 0.8080 0.8110 0.8110 0.8130 0.8130
840.563454 0.8150 0.8170 0.8170 0.8190 0.8210
846.485008 0.8220 0.8240 0.8260 0.8280 0.8300
852.406562 0.8320 0.8320 0.8330 0.8330 0.8330
858.328116 0.8350 0.8370 0.8370 0.8390 0.8410
864.249671 0.8410 0.8410 0.8390 0.8390 0.8390
870.171225 0.8350 0.8350 0.8330 0.8320 0.8240
876.092779 0.8210 0.8210 0.8150 0.8080 0.8040
882.014333 0.8000 0.7970 0.7850 0.7780 0.7740
887.935887 0.7690 0.7580 0.7490 0.7430 0.7410
893.857441 0.7390 0.7390 0.7390 0.7390 0.7390
899.778996 0.7390 0.7390 0.7390 0.7390 0.7410
905.700550 0.7410 0.7410 0.7410 0.7410 0.7390
911.622104 0.7390 0.7410 0.7430 0.7450 0.7450
917.543658 0.7450 0.7470 0.7470 0.7470 0.7450
923.465212 0.7450 0.7430 0.7410 0.7390 0.7380
929.386766 0.7340 0.7320 0.7300 0.7280 0.7260
935.308321 0.7260 0.7260 0.7260 0.7250 0.7230
941.229875 0.7230 0.7230 0.7210 0.7210 0.7190
947.151429 0.7170 0.7120 0.7060 0.7010 0.6970
953.072983 0.6950 0.6910 0.6910 0.6840 0.6800
958.994537 0.6780 0.6770 0.6750 0.6750 0.6670
964.916091 0.6640 0.6600 0.6600 0.6510 0.6450
970.837645 0.6320 0.6230 0.6180 0.6120 0.6031
976.759200 0.5920 0.5880 0.5680 0.5550 0.5380
982.680754 0.5310 0.5141 0.4901 0.4681 0.4481
988.602308 0.4350 0.4000 0.3800 0.3590 0.3390
994.523862 0.3320 0.3151 0.3001 0.2970 0.2781
1000.445416 0.2650 0.2580 0.2490 0.2450 0.2380
1006.366970 0.2360 0.2280 0.2230 0.2061 0.1931
1012.288525 0.1820 0.1750 0.1600 0.1490 0.1320
1018.210079 0.1290 0.1230 0.1160 0.1120 0.1070
1024.131633 0.1050 0.1030 0.1030 0.1010 0.1010
1030.053187 0.1010 0.0990 0.0990 0.0950 0.0950
1035.974741 0.0950 0.0940 0.0940 0.0920 0.0900
1041.896295 0.0860 0.0840 0.0830 0.0810 0.0770
1047.817850 0.0750 0.0700 0.0640 0.0600 0.0570
1053.739404 0.0550 0.0530 0.0530 0.0530 0.0530
1059.660958 0.0530 0.0550 0.0550 0.0550 0.0550
1065.582512 0.0570 0.0570 0.0570 0.0590 0.0590
1071.504066 0.0600 0.0620 0.0640 0.0660 0.0680
1077.425620 0.0700 0.0730 0.0770 0.0830 0.0919
1083.347175 0.0940 0.1010 0.1010 0.1030 0.1030
1089.268729 0.1030 0.1050 0.1050 0.1050 0.1050
1095.190283 0.1050 0.1050 0.1050 0.1050 0.1050
1101.111837 0.1050 0.1050 0.1050 0.1050 0.1050
1107.033391 0.1050 0.1050 0.1050 0.1070 0.1080
1112.954945 0.1080 0.1100 0.1140 0.1140 0.1190
1118.876500 0.1210 0.1230 0.1300 0.1380 0.1450
1124.798054 0.1470 0.1540 0.1580 0.1660 0.1710
1130.719608 0.1840 0.1990 0.2040 0.2080 0.2190
1136.641162 0.2260 0.2340 0.2410 0.2470 0.2500
1142.562716 0.2580 0.2610 0.2650 0.2670 0.2670
1148.484270 0.2670 0.2670 0.2690 0.2710 0.2710
1154.405825 0.2730 0.2760 0.2780 0.2820 0.2850
1160.327379 0.2970 0.3169 0.3300 0.3410 0.3569
1166.248933 0.3810 0.4040 0.4200 0.4500 0.4760
1172.170487 0.5159 0.5290 0.5400 0.5659 0.5789
1178.092041 0.6030 0.6320 0.6490 0.6840 0.6910
1184.013595 0.7010 0.7140 0.7260 0.7340 0.7410
1189.935150 0.7430 0.7430 0.7410 0.7410 0.7390
1195.856704 0.7390 0.7390 0.7380 0.7380 0.7380
1201.778258 0.7380 0.7390 0.7430 0.7470 0.7500
1207.699812 0.7650 0.7690 0.7730 0.7760 0.7780
1213.621366 0.7820 0.7840 0.7840 0.7850 0.7850
1219.542920 0.7840 0.7820 0.7800 0.7780 0.7730
1225.464474 0.7710 0.7690 0.7650 0.7610 0.7580
1231.386029 0.7540 0.7490 0.7410 0.7360 0.7320
1237.307583 0.7300 0.7280 0.7260 0.7210 0.7190
1243.229137 0.7150 0.7140 0.7100 0.7100 0.7080
1249.150691 0.7040 0.7010 0.6990 0.6910 0.6840
1255.072245 0.6770 0.6670 0.6620 0.6620 0.6530
1260.993799 0.6490 0.6450 0.6430 0.6420 0.6420
1266.915354 0.6420 0.6420 0.6420 0.6430 0.6430
1272.836908 0.6450 0.6450 0.6470 0.6470 0.6470
1278.758462 0.6450 0.6430 0.6400 0.6400 0.6360
1284.680016 0.6320 0.6320 0.6230 0.6210 0.6180
1290.601570 0.6070 0.6010 0.5940 0.5900 0.5840
1296.523124 0.5790 0.5770 0.5750 0.5660 0.5530
1302.444679 0.5490 0.5400 0.5270 0.5141 0.5050
1308.366233 0.5000 0.4880 0.4640 0.4500 0.4390
1314.287787 0.4280 0.4110 0.3911 0.3850 0.3780
1320.209341 0.3720 0.3630 0.3590 0.3560 0.3520
1326.130895 0.3500 0.3500 0.3520 0.3570 0.3610
1332.052449 0.3700 0.3780 0.3870 0.3920 0.4070
1337.974004 0.4180 0.4280 0.4390 0.4500 0.4659
1343.895558 0.4700 0.4810 0.4920 0.5030 0.5090
1349.817112 0.5140 0.5290 0.5330 0.5380 0.5400
1355.738666 0.5400 0.5400 0.5380 0.5380 0.5360
1361.660220 0.5310 0.5270 0.5250 0.5140 0.5110
1367.581774 0.5070 0.5070 0.5050 0.5030 0.5010
1373.503329 0.5000 0.4960 0.4940 0.4920 0.4900
1379.424883 0.4880 0.4880 0.4870 0.4850 0.4830
1385.346437 0.4790 0.4740 0.4720 0.4700 0.4680
1391.267991 0.4590 0.4530 0.4400 0.4280 0.4130
1397.189545 0.4090 0.4050 0.3910 0.3721 0.3591
1403.111099 0.3410 0.3320 0.3040 0.2950 0.2820
1409.032654 0.2690 0.2560 0.2500 0.2410 0.2380
1414.954208 0.2340 0.2320 0.2320 0.2320 0.2340
1420.875762 0.2360 0.2390 0.2470 0.2500 0.2580
1426.797316 0.2610 0.2670 0.2730 0.2820 0.2930
1432.718870 0.3150 0.3240 0.3330 0.3459 0.3669
1438.640424 0.3830 0.3980 0.4020 0.4260 0.4390
1444.561979 0.4480 0.4570 0.4610 0.4680 0.4740
1450.483533 0.4810 0.4900 0.4960 0.4980 0.5030
1456.405087 0.5090 0.5200 0.5310 0.5400 0.5490
1462.326641 0.5550 0.5620 0.5640 0.5770 0.5830
1468.248195 0.5920 0.5990 0.6050 0.6180 0.6290
1474.169749 0.6380 0.6450 0.6510 0.6620 0.6670
1480.091304 0.6770 0.6820 0.6930 0.6950 0.6970
1486.012858 0.7020 0.7080 0.7120 0.7140 0.7190
1491.934412 0.7210 0.7230 0.7250 0.7250 0.7260
1497.855966 0.7280 0.7300 0.7340 0.7360 0.7380
1503.777520 0.7390 0.7390 0.7410 0.7410 0.7410
1509.699074 0.7390 0.7390 0.7360 0.7360 0.7340
1515.620628 0.7320 0.7300 0.7300 0.7280 0.7230
1521.542183 0.7190 0.7190 0.7170 0.7170 0.7150
1527.463737 0.7150 0.7120 0.7100 0.7080 0.7010
1533.385291 0.6910 0.6840 0.6800 0.6780 0.6770
1539.306845 0.6540 0.6301 0.6190 0.6180 0.6160
1545.228399 0.6070 0.6030 0.5970 0.5940 0.5810
1551.149953 0.5640 0.5550 0.5510 0.5381 0.5161
1557.071508 0.5120 0.5030 0.4760 0.4370 0.4350
1562.993062 0.4310 0.4280 0.3911 0.3800 0.3700
1568.914616 0.3429 0.3150 0.2930 0.2890 0.2580
1574.836170 0.2340 0.2081 0.1751 0.1670 0.1620
1580.757724 0.1340 0.1140 0.1030 0.0900 0.0790
1586.679278 0.0730 0.0700 0.0680 0.0660 0.0620
1592.600833 0.0600 0.0600 0.0590 0.0570 0.0570
1598.522387 0.0570 0.0550 0.0570 0.0570 0.0570
1604.443941 0.0570 0.0590 0.0590 0.0590 0.0600
1610.365495 0.0600 0.0620 0.0640 0.0660 0.0700
1616.287049 0.0830 0.0920 0.0950 0.1010 0.1100
1622.208603 0.1140 0.1250 0.1400 0.1450 0.1530
1628.130158 0.1670 0.1730 0.1840 0.1950 0.2170
1634.051712 0.2300 0.2580 0.2730 0.2820 0.2890
1639.973266 0.2981 0.3190 0.3430 0.3480 0.3570
1645.894820 0.3810 0.4090 0.4130 0.4200 0.4290
1651.816374 0.4611 0.4870 0.4900 0.4920 0.4960
1657.737928 0.5070 0.5160 0.5290 0.5469 0.5590
1663.659483 0.5660 0.5710 0.5810 0.5900 0.5950
1669.581037 0.6210 0.6380 0.6490 0.6510 0.6620
1675.502591 0.6770 0.6820 0.6970 0.6990 0.7100
1681.424145 0.7140 0.7250 0.7390 0.7470 0.7520
1687.345699 0.7560 0.7730 0.7760 0.7780 0.7840
1693.267253 0.7950 0.7950 0.7980 0.8129 0.8170
1699.188808 0.8210 0.8260 0.8370 0.8410 0.8450
1705.110362 0.8460 0.8520 0.8590 0.8650 0.8700
1711.031916 0.8720 0.8740 0.8760 0.8760 0.8780
1716.953470 0.8810 0.8910 0.8960 0.9040 0.9050
1722.875024 0.9070 0.9110 0.9130 0.9150 0.9150
1728.796578 0.9130 0.9130 0.9130 0.9150 0.9160
1734.718133 0.9200 0.9220 0.9220 0.9260 0.9260
1740.639687 0.9290 0.9290 0.9290 0.9310 0.9330
1746.561241 0.9330 0.9330 0.9330 0.9350 0.9370
1752.482795 0.9390 0.9420 0.9440 0.9440 0.9460
1758.404349 0.9480 0.9500 0.9500 0.9500 0.9520
1764.325903 0.9520 0.9520 0.9520 0.9520 0.9530
1770.247457 0.9530 0.9550 0.9550 0.9550 0.9570
1776.169012 0.9570 0.9570 0.9550 0.9550 0.9550
1782.090566 0.9550 0.9570 0.9570 0.9570 0.9570
1788.012120 0.9570 0.9570 0.9550 0.9570 0.9570
1793.933674 0.9570 0.9590 0.9590 0.9590 0.9590
1799.855228 0.9590 0.9610 0.9610 0.9630 0.9630
1805.776782 0.9630 0.9630 0.9630 0.9630 0.9630
1811.698337 0.9630 0.9640 0.9640 0.9630 0.9630
1817.619891 0.9630 0.9630 0.9610 0.9610 0.9610
1823.541445 0.9590 0.9590 0.9590 0.9570 0.9570
1829.462999 0.9570 0.9570 0.9590 0.9630 0.9640
1835.384553 0.9660 0.9660 0.9640 0.9640 0.9640
1841.306107 0.9630 0.9630 0.9630 0.9630 0.9630
1847.227662 0.9630 0.9640 0.9680 0.9680 0.9680
1853.149216 0.9660 0.9660 0.9660 0.9660 0.9660
1859.070770 0.9660 0.9660 0.9680 0.9700 0.9700
1864.992324 0.9700 0.9700 0.9700 0.9700 0.9700
1870.913878 0.9700 0.9700 0.9700 0.9700 0.9700
1876.835432 0.9700 0.9700 0.9720 0.9720 0.9720
1882.756987 0.9720 0.9740 0.9740 0.9720 0.9720
1888.678541 0.9720 0.9720 0.9720 0.9720 0.9700
1894.600095 0.9700 0.9700 0.9700 0.9700 0.9700
1900.521649 0.9680 0.9660 0.9660 0.9660 0.9680
1906.443203 0.9680 0.9680 0.9680 0.9680 0.9680
1912.364757 0.9680 0.9680 0.9660 0.9640 0.9640
1918.286312 0.9630 0.9630 0.9640 0.9660 0.9680
1924.207866 0.9700 0.9700 0.9700 0.9700 0.9700
1930.129420 0.9680 0.9660 0.9660 0.9660 0.9660
1936.050974 0.9640 0.9640 0.9630 0.9630 0.9630
1941.972528 0.9630 0.9610 0.9610 0.9610 0.9610
1947.894082 0.9630 0.9630 0.9630 0.9630 0.9610
1953.815637 0.9610 0.9610 0.9610 0.9630 0.9610
1959.737191 0.9610 0.9590 0.9590 0.9570 0.9570
1965.658745 0.9570 0.9570 0.9570 0.9570 0.9550
1971.580299 0.9550 0.9570 0.9570 0.9570 0.9570
1977.501853 0.9570 0.9570 0.9550 0.9550 0.9570
1983.423407 0.9570 0.9550 0.9550 0.9550 0.9550
1989.344962 0.9550 0.9550 0.9520 0.9500 0.9460
1995.266516 0.9460 0.9440 0.9420 0.9420 0.9420
2001.188070 0.9420 0.9420 0.9410 0.9400 0.9400
2007.109624 0.9400 0.9400 0.9400 0.9400 0.9400
2013.031178 0.9395 0.9390 0.9390 0.9390 0.9390
2018.952732 0.9390 0.9380 0.9370 0.9370 0.9370
2024.874286 0.9370 0.9370 0.9360 0.9350 0.9350
2030.795841 0.9350 0.9340 0.9330 0.9330 0.9330
2036.717395 0.9320 0.9310 0.9310 0.9310 0.9300
2042.638949 0.9290 0.9290 0.9290 0.9290 0.9290
2048.560503 0.9285 0.9280 0.9280 0.9280 0.9270
2054.482057 0.9260 0.9260 0.9260 0.9250 0.9240
2060.403611 0.9240 0.9240 0.9240 0.9240 0.9240
2066.325166 0.9240 0.9230 0.9220 0.9220 0.9220
2072.246720 0.9220 0.9220 0.9220 0.9220 0.9220
2078.168274 0.9220 0.9220 0.9220 0.9210 0.9200
2084.089828 0.9200 0.9200 0.9200 0.9200 0.9190
2090.011382 0.9180 0.9180 0.9180 0.9180 0.9179
2095.932936 0.9169 0.9160 0.9160 0.9160 0.9155
2101.854491 0.9150 0.9150 0.9150 0.9150 0.9150
2107.776045 0.9150 0.9150 0.9150 0.9149 0.9139
2113.697599 0.9130 0.9130 0.9130 0.9130 0.9130
2119.619153 0.9130 0.9129 0.9119 0.9110 0.9110
2125.540707 0.9110 0.9110 0.9110 0.9110 0.9110
2131.462261 0.9110 0.9110 0.9110 0.9110 0.9110
2137.383816 0.9110 0.9110 0.9110 0.9110 0.9109
2143.305370 0.9099 0.9089 0.9079 0.9070 0.9070
2149.226924 0.9070 0.9070 0.9070 0.9070 0.9070
2155.148478 0.9070 0.9070 0.9070 0.9070 0.9070
2161.070032 0.9070 0.9070 0.9070 0.9070 0.9070
2166.991586 0.9070 0.9070 0.9070 0.9070 0.9070
2172.913141 0.9070 0.9070 0.9070 0.9070 0.9070
2178.834695 0.9070 0.9071 0.9081 0.9090 0.9090
2184.756249 0.9090 0.9090 0.9091 0.9101 0.9110
2190.677803 0.9110 0.9110 0.9110 0.9110 0.9110
2196.599357 0.9110 0.9110 0.9110 0.9110 0.9110
2202.520911 0.9110 0.9110 0.9110 0.9110 0.9110
2208.442466 0.9110 0.9110 0.9110 0.9110 0.9110
2214.364020 0.9110 0.9110 0.9110 0.9110 0.9110
2220.285574 0.9110 0.9110 0.9110 0.9110 0.9110
2226.207128 0.9110 0.9110 0.9110 0.9110 0.9110
2232.128682 0.9111 0.9121 0.9131 0.9141 0.9150
2238.050236 0.9150 0.9150 0.9150 0.9150 0.9150
2243.971791 0.9150 0.9150 0.9150 0.9150 0.9150
2249.893345 0.9150 0.9151 0.9156 0.9159 0.9154
2255.814899 0.9151 0.9156 0.9160 0.9160 0.9160
2261.736453 0.9160 0.9160 0.9160 0.9160 0.9160
2267.658007 0.9162 0.9172 0.9180 0.9180 0.9180
2273.579561 0.9180 0.9180 0.9180 0.9178 0.9168
2279.501116 0.9160 0.9160 0.9159 0.9154 0.9150
2285.422670 0.9150 0.9151 0.9156 0.9160 0.9160
2291.344224 0.9160 0.9160 0.9162 0.9172 0.9180
2297.265778 0.9180 0.9180 0.9180 0.9180 0.9180
2303.187332 0.9180 0.9180 0.9180 0.9180 0.9180
2309.108886 0.9180 0.9180 0.9180 0.9178 0.9168
2315.030440 0.9160 0.9160 0.9160 0.9160 0.9160
2320.951995 0.9160 0.9159 0.9154 0.9150 0.9150
2326.873549 0.9150 0.9150 0.9148 0.9138 0.9128
2332.795103 0.9118 0.9110 0.9110 0.9110 0.9110
2338.716657 0.9108 0.9098 0.9090 0.9090 0.9090
2344.638211 0.9090 0.9090 0.9090 0.9090 0.9090
2350.559765 0.9090 0.9090 0.9088 0.9078 0.9070
2356.481320 0.9070 0.9072 0.9082 0.9090 0.9090
2362.402874 0.9090 0.9090 0.9090 0.9090 0.9092
2368.324428 0.9102 0.9110 0.9110 0.9110 0.9110
2374.245982 0.9110 0.9110 0.9112 0.9122 0.9130
2380.167536 0.9130 0.9130 0.9130 0.9130 0.9130
2386.089090 0.9132 0.9142 0.9150 0.9150 0.9148
2392.010645 0.9138 0.9130 0.9130 0.9130 0.9130
2397.932199 0.9130 0.9130 0.9132 0.9142 0.9147
2403.853753 0.9137 0.9130 0.9130 0.9130 0.9130
2409.775307 0.9127 0.9117 0.9110 0.9110 0.9110
2415.696861 0.9110 0.9108 0.9098 0.9088 0.9078
2421.618415 0.9070 0.9070 0.9070 0.9070 0.9067
2427.539970 0.9057 0.9049 0.9044 0.9040 0.9040
2433.461524 0.9040 0.9040 0.9040 0.9040 0.9037
2439.383078 0.9027 0.9020 0.9020 0.9020 0.9020
2445.304632 0.9020 0.9020 0.9017 0.9007 0.9000
2451.226186 0.9000 0.8997 0.8987 0.8980 0.8980
2457.147740 0.8977 0.8967 0.8960 0.8960 0.8957
2463.069295 0.8947 0.8937 0.8927 0.8919 0.8914
2468.990849 0.8910 0.8910 0.8907 0.8897 0.8887
2474.912403 0.8877 0.8870 0.8870 0.8867 0.8857
2480.833957 0.8844 0.8824 0.8810 0.8810 0.8810
2486.755511 0.8810 0.8809 0.8804 0.8797 0.8787
2492.677065 0.8777 0.8767 0.8760 0.8760 0.8760
2498.598620 0.8760 0.8757 0.8747 0.8737 0.8727
2504.520174 0.8720 0.8720 0.8717 0.8707 0.8700
2510.441728 0.8700 0.8700 0.8700 0.8700 0.8700
2516.363282 0.8698 0.8693 0.8690 0.8690 0.8687
2522.284836 0.8677 0.8670 0.8670 0.8667 0.8657
2528.206390 0.8650 0.8650 0.8650 0.8650 0.8650
2534.127945 0.8650 0.8650 0.8650 0.8647 0.8637
2540.049499 0.8630 0.8630 0.8627 0.8617 0.8610
2545.971053 0.8610 0.8607 0.8597 0.8585 0.8570
2551.892607 0.8560 0.8560 0.8557 0.8547 0.8537
2557.814161 0.8527 0.8520 0.8520 0.8517 0.8507
2563.735715 0.8500 0.8500 0.8500 0.8500 0.8496
2569.657269 0.8486 0.8480 0.8480 0.8476 0.8466
2575.578824 0.8455 0.8440 0.8430 0.8430 0.8426
2581.500378 0.8416 0.8410 0.8410 0.8406 0.8396
2587.421932 0.8387 0.8377 0.8370 0.8370 0.8366
2593.343486 0.8356 0.8346 0.8336 0.8330 0.8330
2599.265040 0.8328 0.8323 0.8320 0.8320 0.8313
2605.186594 0.8293 0.8280 0.8280 0.8276 0.8266
2611.108149 0.8260 0.8260 0.8253 0.8232 0.8218
2617.029703 0.8213 0.8210 0.8210 0.8206 0.8196
2622.951257 0.8186 0.8176 0.8166 0.8156 0.8146
2628.872811 0.8136 0.8126 0.8116 0.8106 0.8096
2634.794365 0.8088 0.8083 0.8076 0.8066 0.8056
2640.715919 0.8046 0.8036 0.8026 0.8016 0.8006
2646.637474 0.8000 0.8000 0.7996 0.7986 0.7974
2652.559028 0.7959 0.7946 0.7936 0.7926 0.7916
2658.480582 0.7906 0.7896 0.7882 0.7862 0.7850
2664.402136 0.7850 0.7844 0.7829 0.7812 0.7792
2670.323690 0.7770 0.7745 0.7730 0.7730 0.7726
2676.245244 0.7716 0.7702 0.7682 0.7662 0.7642
2682.166799 0.7624 0.7609 0.7600 0.7600 0.7596
2688.088353 0.7586 0.7576 0.7566 0.7551 0.7531
2694.009907 0.7516 0.7506 0.7498 0.7493 0.7481
2699.931461 0.7461 0.7450 0.7450 0.7446 0.7436
2705.853015 0.7426 0.7416 0.7406 0.7396 0.7390
2711.774569 0.7390 0.7388 0.7383 0.7376 0.7366
2717.696124 0.7356 0.7346 0.7340 0.7340 0.7336
2723.617678 0.7326 0.7316 0.7306 0.7291 0.7271
2729.539232 0.7253 0.7238 0.7226 0.7215 0.7205
2735.460786 0.7195 0.7185 0.7175 0.7163 0.7148
2741.382340 0.7135 0.7125 0.7115 0.7105 0.7100
2747.303894 0.7100 0.7095 0.7085 0.7066 0.7036
2753.225449 0.7018 0.7013 0.7010 0.7010 0.7000
2759.147003 0.6980 0.6965 0.6955 0.6945 0.6935
2765.068557 0.6925 0.6915 0.6903 0.6888 0.6875
2770.990111 0.6865 0.6851 0.6831 0.6811 0.6791
2776.911665 0.6778 0.6773 0.6761 0.6740 0.6720
2782.833219 0.6700 0.6683 0.6668 0.6645 0.6615
2788.754774 0.6590 0.6570 0.6553 0.6538 0.6520
2794.676328 0.6500 0.6480 0.6460 0.6443 0.6428
2800.597882 0.6410 0.6390 0.6370 0.6350 0.6330
2806.519436 0.6310 0.6292 0.6277 0.6260 0.6240
2812.440990 0.6220 0.6200 0.6187 0.6182 0.6175
2818.362544 0.6165 0.6137 0.6093 0.6055 0.6025
2824.284099 0.6000 0.5980 0.5962 0.5947 0.5901
2830.205653 0.5826 0.5767 0.5722 0.5690 0.5670
2836.127207 0.5650 0.5630 0.5602 0.5567 0.5534
2842.048761 0.5505 0.5472 0.5437 0.5405 0.5375
2847.970315 0.5337 0.5292 0.5257 0.5232 0.5204
2853.891869 0.5174 0.5141 0.5106 0.5066 0.5021
2859.813423 0.4968 0.4908 0.4872 0.4857 0.4829
2865.734978 0.4789 0.4762 0.4747 0.4729 0.4709
2871.656532 0.4689 0.4669 0.4647 0.4621 0.4599
2877.578086 0.4579 0.4564 0.4555 0.4550 0.4550
2883.499640 0.4550 0.4550 0.4550 0.4550 0.4550
2889.421194 0.4550 0.4545 0.4535 0.4530 0.4530
2895.342748 0.4527 0.4522 0.4509 0.4489 0.4480
2901.264303 0.4480 0.4469 0.4449 0.4429 0.4409
2907.185857 0.4397 0.4392 0.4390 0.4390 0.4390
2913.107411 0.4390 0.4390 0.4390 0.4393 0.4398
2919.028965 0.4406 0.4416 0.4431 0.4452 0.4466
2924.950519 0.4476 0.4495 0.4520 0.4542 0.4562
2930.872073 0.4576 0.4586 0.4616 0.4661 0.4686
2936.793628 0.4696 0.4720 0.4755 0.4781 0.4801
2942.715182 0.4836 0.4881 0.4906 0.4916 0.4947
2948.636736 0.4992 0.5028 0.5058 0.5085 0.5110
2954.558290 0.5138 0.5168 0.5195 0.5220 0.5242
2960.479844 0.5262 0.5302 0.5357 0.5386 0.5396
2966.401398 0.5412 0.5432 0.5449 0.5464 0.5476
2972.322953 0.5486 0.5496 0.5506 0.5510 0.5510
2978.244507 0.5516 0.5526 0.5530 0.5530 0.5536
2984.166061 0.5546 0.5550 0.5550 0.5544 0.5534
2990.087615 0.5524 0.5514 0.5498 0.5478 0.5467
2996.009169 0.5462 0.5454 0.5444 0.5428 0.5408
3001.930723 0.5388 0.5368 0.5344 0.5319 0.5298
3007.852278 0.5278 0.5258 0.5238 0.5215 0.5190
3013.773832 0.5180 0.5180 0.5174 0.5164 0.5154
3019.695386 0.5144 0.5124 0.5099 0.5064 0.5024
3025.616940 0.4994 0.4969 0.4947 0.4927 0.4907
3031.538494 0.4887 0.4870 0.4855 0.4837 0.4817
3037.460048 0.4794 0.4769 0.4734 0.4694 0.4667
3043.381603 0.4647 0.4630 0.4615 0.4603 0.4593
3049.303157 0.4567 0.4532 0.4507 0.4487 0.4444
3055.224711 0.4389 0.4357 0.4337 0.4324 0.4314
3061.146265 0.4304 0.4294 0.4287 0.4282 0.4273
3067.067819 0.4263 0.4227 0.4177 0.4137 0.4102
3072.989373 0.4073 0.4048 0.4033 0.4023 0.4007
3078.910928 0.3987 0.3957 0.3922 0.3897 0.3877
3084.832482 0.3857 0.3837 0.3820 0.3805 0.3773
3090.754036 0.3733 0.3713 0.3703 0.3700 0.3700
3096.675590 0.3683 0.3658 0.3623 0.3583 0.3560
3102.597144 0.3545 0.3520 0.3490 0.3470 0.3455
3108.518698 0.3423 0.3383 0.3370 0.3370 0.3356
3114.440252 0.3336 0.3327 0.3322 0.3292 0.3252
3120.361807 0.3233 0.3223 0.3210 0.3195 0.3176
3126.283361 0.3156 0.3129 0.3099 0.3073 0.3048
3132.204915 0.3026 0.3006 0.2990 0.2974 0.2970
3138.126469 0.2970 0.2941 0.2901 0.2883 0.2873
3144.048023 0.2852 0.2827 0.2806 0.2786 0.2766
3149.969577 0.2746 0.2722 0.2697 0.2676 0.2656
3155.891132 0.2636 0.2616 0.2599 0.2584 0.2573
3161.812686 0.2563 0.2545 0.2525 0.2513 0.2503
3167.734240 0.2496 0.2491 0.2461 0.2421 0.2403
3173.655794 0.2393 0.2386 0.2381 0.2366 0.2346
3179.577348 0.2311 0.2271 0.2256 0.2251 0.2243
3185.498902 0.2233 0.2223 0.2213 0.2203 0.2193
3191.420457 0.2175 0.2155 0.2139 0.2124 0.2105
3197.342011 0.2085 0.2065 0.2045 0.2029 0.2014
3203.263565 0.2003 0.1993 0.1983 0.1972 0.1955
3209.185119 0.1935 0.1922 0.1912 0.1910 0.1910
3215.106673 0.1906 0.1901 0.1892 0.1882 0.1880
3221.028227 0.1880 0.1872 0.1862 0.1852 0.1842
3226.949782 0.1833 0.1823 0.1805 0.1785 0.1768
3232.871336 0.1753 0.1742 0.1732 0.1722 0.1712
3238.792890 0.1710 0.1710 0.1702 0.1692 0.1682
3244.714444 0.1672 0.1666 0.1661 0.1652 0.1642
3250.635998 0.1625 0.1605 0.1592 0.1582 0.1572
3256.557552 0.1562 0.1552 0.1542 0.1540 0.1540
3262.479107 0.1536 0.1531 0.1530 0.1530 0.1522
3268.400661 0.1512 0.1510 0.1510 0.1494 0.1474
3274.322215 0.1470 0.1470 0.1462 0.1452 0.1442
3280.243769 0.1432 0.1430 0.1430 0.1426 0.1421
3286.165323 0.1412 0.1402 0.1400 0.1400 0.1392
3292.086877 0.1382 0.1372 0.1362 0.1352 0.1342
3298.008432 0.1332 0.1322 0.1312 0.1302 0.1300
3303.929986 0.1300 0.1296 0.1291 0.1282 0.1272
3309.851540 0.1262 0.1252 0.1250 0.1250 0.1242
3315.773094 0.1232 0.1222 0.1212 0.1210 0.1210
3321.694648 0.1202 0.1192 0.1186 0.1181 0.1172
3327.616202 0.1162 0.1160 0.1160 0.1152 0.1142
3333.537757 0.1140 0.1140 0.1132 0.1122 0.1120
3339.459311 0.1120 0.1120 0.1120 0.1120 0.1120
3345.380865 0.1112 0.1102 0.1100 0.1100 0.1100
3351.302419 0.1100 0.1100 0.1100 0.1092 0.1082
3357.223973 0.1080 0.1080 0.1080 0.1080 0.1080
3363.145527 0.1080 0.1080 0.1080 0.1088 0.1098
3369.067081 0.1100 0.1100 0.1100 0.1100 0.1109
3374.988636 0.1119 0.1120 0.1120 0.1120 0.1120
3380.910190 0.1120 0.1120 0.1120 0.1120 0.1120
3386.831744 0.1120 0.1120 0.1120 0.1129 0.1139
3392.753298 0.1140 0.1140 0.1140 0.1140 0.1140
3398.674852 0.1140 0.1140 0.1140 0.1149 0.1159
3404.596406 0.1160 0.1160 0.1169 0.1179 0.1180
3410.517961 0.1180 0.1184 0.1189 0.1190 0.1190
3416.439515 0.1199 0.1209 0.1210 0.1210 0.1219
3422.361069 0.1229 0.1230 0.1230 0.1239 0.1249
3428.282623 0.1259 0.1269 0.1279 0.1289 0.1290
3434.204177 0.1290 0.1294 0.1299 0.1327 0.1357
3440.125731 0.1369 0.1379 0.1398 0.1418 0.1434
3446.047286 0.1449 0.1450 0.1450 0.1468 0.1488
3451.968840 0.1508 0.1528 0.1535 0.1540 0.1558
3457.890394 0.1578 0.1580 0.1580 0.1607 0.1637
3463.811948 0.1649 0.1659 0.1665 0.1670 0.1688
3469.733502 0.1708 0.1742 0.1777 0.1798 0.1818
3475.655056 0.1848 0.1878 0.1889 0.1899 0.1914
3481.576611 0.1929 0.1957 0.1987 0.2004 0.2019
3487.498165 0.2038 0.2058 0.2097 0.2138 0.2163
3493.419719 0.2188 0.2209 0.2229 0.2244 0.2259
3499.341273 0.2279 0.2299 0.2342 0.2387 0.2427
3505.262827 0.2467 0.2503 0.2538 0.2573 0.2608
3511.184381 0.2647 0.2687 0.2709 0.2729 0.2754
3517.105936 0.2779 0.2809 0.2839 0.2873 0.2908
3523.027490 0.2943 0.2978 0.2980 0.2980 0.3032
3528.949044 0.3087 0.3128 0.3168 0.3203 0.3238
3534.870598 0.3259 0.3279 0.3280 0.3280 0.3304
3540.792152 0.3329 0.3369 0.3409 0.3434 0.3459
3546.713706 0.3532 0.3607 0.3653 0.3698 0.3753
3552.635261 0.3808 0.3863 0.3918 0.3930 0.3940
3558.556815 0.4021 0.4106 0.4183 0.4259 0.4275
3564.478369 0.4290 0.4300 0.4310 0.4384 0.4458
3570.399923 0.4524 0.4589 0.4634 0.4679 0.4709
3576.321477 0.4739 0.4808 0.4878 0.4890 0.4900
3582.243031 0.4992 0.5087 0.5124 0.5160 0.5205
3588.164586 0.5250 0.5325 0.5400 0.5435 0.5470
3594.086140 0.5520 0.5570 0.5639 0.5709 0.5794
3600.007694 0.5879 0.5979 0.6079 0.6164 0.6249
3605.929248 0.6270 0.6290 0.6380 0.6471 0.6591
3611.850802 0.6710 0.6740 0.6770 0.6785 0.6800
3617.772356 0.6855 0.6911 0.6986 0.7061 0.7145
3623.693911 0.7230 0.7255 0.7280 0.7355 0.7430
3629.615465 0.7460 0.7490 0.7561 0.7631 0.7661
3635.537019 0.7691 0.7746 0.7802 0.7877 0.7952
3641.458573 0.8032 0.8111 0.8141 0.8171 0.8236
3647.380127 0.8301 0.8326 0.8351 0.8416 0.8481
3653.301681 0.8526 0.8570 0.8580 0.8592 0.8647
3659.223235 0.8701 0.8731 0.8763 0.8828 0.8890
3665.144790 0.8900 0.8910 0.8910 0.8911 0.8936
3671.066344 0.8961 0.8981 0.9001 0.9021 0.9040
3676.987898 0.9055 0.9071 0.9091 0.9111 0.9121
3682.909452 0.9131 0.9141 0.9152 0.9187 0.9221
3688.831006 0.9241 0.9261 0.9271 0.9280 0.9285
3694.752560 0.9290 0.9300 0.9310 0.9310 0.9310
3700.674115 0.9320 0.9330 0.9341 0.9350 0.9350
3706.595669 0.9351 0.9361 0.9370 0.9370 0.9370
3712.517223 0.9370 0.9370 0.9370 0.9370 0.9370
3718.438777 0.9370 0.9370 0.9370 0.9370 0.9370
3724.360331 0.9370 0.9370 0.9370 0.9370 0.9370
3730.281885 0.9370 0.9370 0.9370 0.9370 0.9370
3736.203440 0.9370 0.9371 0.9381 0.9390 0.9395
3742.124994 0.9401 0.9411 0.9420 0.9420 0.9420
3748.046548 0.9420 0.9420 0.9420 0.9420 0.9420
3753.968102 0.9421 0.9431 0.9440 0.9440 0.9440
3759.889656 0.9440 0.9441 0.9451 0.9460 0.9460
3765.811210 0.9460 0.9460 0.9460 0.9460 0.9460
3771.732765 0.9460 0.9460 0.9460 0.9460 0.9460
3777.654319 0.9460 0.9460 0.9460 0.9460 0.9460
3783.575873 0.9460 0.9460 0.9460 0.9461 0.9471
3789.497427 0.9480 0.9480 0.9480 0.9480
##END=
