##TITLE=CALCIUM PHOSPHATE, TRIBASIC
$$ C.P.
##JCAMP-DX=4.24
##DATA TYPE=INFRARED SPECTRUM
##CLASS=COBLENTZ
##ORIGIN=MELLON INSTITUTE
##OWNER=COBLENTZ SOCIETY
Collection (C) 2018 copyright by the U.S. Secretary of Commerce
on behalf of the United States of America. All rights reserved.
##DATE=Not specified, most likely prior to 1970
##MOLFORM=Ca3 ( P O4)2
##SOURCE REFERENCE=COBLENTZ NO. 575
##$NIST ID=B6000575
##$NIST SOURCE=COBLENTZ
##$NIST IMAGE=cob575
##SPECTROMETER/DATA SYSTEM=Not specified, most likely a prism, grating, or hybrid spectrometer.
##STATE=SOLID (NUJOL MULL)
##PATH LENGTH=
$$SPECTRAL CONTAMINATION DUE TO OIL AROUND 2900, 1450, 1380, 720 CM^-^1
##SAMPLING PROCEDURE=TRANSMISSION
##RESOLUTION=4
##DATA PROCESSING=DIGITIZED BY NIST FROM HARD COPY
##XUNITS=MICROMETERS
##YUNITS=TRANSMITTANCE
##XFACTOR=1.000000
##YFACTOR=1
##DELTAX=000.006643
##FIRSTX=2.024
##LASTX=15.9796
##FIRSTY=0.889
##MAXX=15.9796
##MINX=2.024
##MAXY=0.896
##MINY=0.04
##NPOINTS=2102
##XYDATA=(X++(Y..Y))
2.024000 0.8890 0.8890 0.8890 0.8890 0.8890
2.057228 0.8910 0.8910 0.8920 0.8940 0.8940
2.090000 0.8940 0.8920 0.8920 0.8920 0.8910
2.123228 0.8910 0.8920 0.8920 0.8920 0.8920
2.156000 0.8920 0.8920 0.8920 0.8910 0.8910
2.189228 0.8920 0.8920 0.8920 0.8920 0.8920
2.223000 0.8920 0.8920 0.8920 0.8910 0.8910
2.256228 0.8910 0.8890 0.8890 0.8890 0.8870
2.289000 0.8860 0.8860 0.8860 0.8860 0.8860
2.322228 0.8860 0.8860 0.8840 0.8810 0.8790
2.356000 0.8790 0.8810 0.8810 0.8810 0.8810
2.389228 0.8810 0.8790 0.8770 0.8770 0.8790
2.422000 0.8790 0.8790 0.8810 0.8810 0.8820
2.455228 0.8820 0.8820 0.8820 0.8820 0.8820
2.489000 0.8840 0.8840 0.8860 0.8870 0.8890
2.522228 0.8910 0.8920 0.8920 0.8920 0.8920
2.555000 0.8920 0.8920 0.8920 0.8940 0.8940
2.588228 0.8940 0.8940 0.8940 0.8940 0.8940
2.621000 0.8940 0.8940 0.8940 0.8940 0.8940
2.654228 0.8940 0.8940 0.8940 0.8920 0.8940
2.688000 0.8920 0.8920 0.8910 0.8910 0.8910
2.721228 0.8890 0.8870 0.8840 0.8820 0.8770
2.754000 0.8740 0.8710 0.8690 0.8620 0.8570
2.787228 0.8490 0.8470 0.8410 0.8370 0.8320
2.821000 0.8260 0.8240 0.8190 0.8070 0.8010
2.854228 0.7950 0.7820 0.7790 0.7740 0.7700
2.887000 0.7690 0.7650 0.7640 0.7620 0.7600
2.920228 0.7590 0.7550 0.7540 0.7500 0.7500
2.954000 0.7470 0.7450 0.7440 0.7420 0.7400
2.987228 0.7370 0.7370 0.7350 0.7320 0.7300
3.020000 0.7300 0.7290 0.7290 0.7290 0.7270
3.053228 0.7270 0.7270 0.7250 0.7250 0.7250
3.086000 0.7250 0.7250 0.7250 0.7240 0.7240
3.119228 0.7250 0.7250 0.7270 0.7270 0.7300
3.153000 0.7320 0.7350 0.7370 0.7390 0.7390
3.186228 0.7390 0.7390 0.7390 0.7390 0.7400
3.219000 0.7400 0.7400 0.7420 0.7400 0.7400
3.252228 0.7400 0.7400 0.7400 0.7390 0.7370
3.286000 0.7290 0.6600 0.6150 0.5680 0.5350
3.319228 0.5000 0.3890 0.2700 0.2270 0.2090
3.352000 0.1880 0.1580 0.1530 0.1520 0.1500
3.385228 0.1500 0.1520 0.1630 0.1970 0.2190
3.418000 0.2270 0.2270 0.2250 0.2250 0.2220
3.451228 0.2200 0.2190 0.2200 0.2270 0.3270
3.485000 0.4390 0.4560 0.5750 0.6220 0.6420
3.518228 0.6930 0.7240 0.7390 0.7570 0.7650
3.551000 0.7720 0.7820 0.7890 0.7970 0.7990
3.584228 0.8020 0.8090 0.8120 0.8160 0.8170
3.618000 0.8190 0.8210 0.8220 0.8220 0.8260
3.651228 0.8290 0.8320 0.8360 0.8370 0.8390
3.684000 0.8390 0.8410 0.8410 0.8410 0.8420
3.717228 0.8420 0.8440 0.8460 0.8470 0.8490
3.751000 0.8490 0.8490 0.8510 0.8510 0.8520
3.784228 0.8520 0.8540 0.8560 0.8570 0.8610
3.817000 0.8620 0.8620 0.8640 0.8660 0.8660
3.850228 0.8670 0.8670 0.8670 0.8690 0.8710
3.883000 0.8720 0.8740 0.8770 0.8790 0.8790
3.916228 0.8790 0.8810 0.8810 0.8810 0.8810
3.950000 0.8820 0.8820 0.8820 0.8820 0.8840
3.983228 0.8840 0.8860 0.8860 0.8860 0.8860
4.016000 0.8860 0.8870 0.8870 0.8870 0.8870
4.049228 0.8870 0.8870 0.8870 0.8870 0.8870
4.083000 0.8870 0.8870 0.8870 0.8890 0.8890
4.116228 0.8890 0.8890 0.8870 0.8870 0.8860
4.149000 0.8840 0.8820 0.8820 0.8820 0.8820
4.182228 0.8840 0.8860 0.8870 0.8870 0.8890
4.216000 0.8910 0.8910 0.8910 0.8910 0.8910
4.249228 0.8910 0.8890 0.8890 0.8890 0.8890
4.282000 0.8890 0.8890 0.8890 0.8890 0.8890
4.315228 0.8910 0.8910 0.8910 0.8910 0.8910
4.348000 0.8910 0.8910 0.8910 0.8890 0.8890
4.381228 0.8870 0.8870 0.8870 0.8860 0.8870
4.415000 0.8870 0.8870 0.8870 0.8870 0.8890
4.448228 0.8890 0.8870 0.8870 0.8860 0.8860
4.481000 0.8870 0.8870 0.8870 0.8870 0.8860
4.514228 0.8860 0.8840 0.8860 0.8860 0.8860
4.548000 0.8860 0.8860 0.8860 0.8870 0.8870
4.581228 0.8870 0.8870 0.8870 0.8870 0.8870
4.614000 0.8870 0.8860 0.8860 0.8860 0.8860
4.647228 0.8860 0.8860 0.8860 0.8840 0.8840
4.681000 0.8840 0.8840 0.8840 0.8840 0.8840
4.714228 0.8840 0.8840 0.8860 0.8860 0.8860
4.747000 0.8860 0.8870 0.8870 0.8870 0.8860
4.780228 0.8860 0.8860 0.8860 0.8840 0.8840
4.813000 0.8860 0.8860 0.8860 0.8870 0.8870
4.846228 0.8870 0.8870 0.8870 0.8870 0.8870
4.880000 0.8870 0.8870 0.8870 0.8870 0.8870
4.913228 0.8870 0.8870 0.8860 0.8860 0.8860
4.946000 0.8840 0.8840 0.8840 0.8820 0.8820
4.979228 0.8810 0.8810 0.8810 0.8790 0.8810
5.013000 0.8810 0.8810 0.8810 0.8810 0.8810
5.046228 0.8820 0.8820 0.8820 0.8820 0.8820
5.079000 0.8820 0.8820 0.8820 0.8810 0.8810
5.112228 0.8810 0.8810 0.8810 0.8820 0.8820
5.146000 0.8820 0.8820 0.8820 0.8840 0.8840
5.179228 0.8860 0.8860 0.8870 0.8870 0.8870
5.212000 0.8890 0.8890 0.8890 0.8890 0.8890
5.245228 0.8890 0.8890 0.8890 0.8890 0.8890
5.278000 0.8890 0.8890 0.8890 0.8890 0.8890
5.311228 0.8890 0.8890 0.8870 0.8870 0.8860
5.345000 0.8860 0.8840 0.8840 0.8820 0.8820
5.378228 0.8820 0.8820 0.8820 0.8820 0.8820
5.411000 0.8840 0.8860 0.8870 0.8870 0.8890
5.444228 0.8890 0.8910 0.8910 0.8920 0.8920
5.478000 0.8920 0.8920 0.8910 0.8910 0.8910
5.511228 0.8890 0.8890 0.8890 0.8870 0.8870
5.544000 0.8870 0.8870 0.8870 0.8870 0.8860
5.577228 0.8860 0.8860 0.8840 0.8860 0.8860
5.611000 0.8890 0.8890 0.8910 0.8910 0.8910
5.644228 0.8920 0.8940 0.8940 0.8960 0.8940
5.677000 0.8940 0.8940 0.8940 0.8940 0.8920
5.710228 0.8920 0.8920 0.8910 0.8890 0.8890
5.743000 0.8890 0.8910 0.8910 0.8920 0.8920
5.776228 0.8920 0.8940 0.8960 0.8940 0.8940
5.810000 0.8940 0.8940 0.8920 0.8920 0.8910
5.843228 0.8890 0.8890 0.8890 0.8870 0.8860
5.876000 0.8860 0.8840 0.8840 0.8840 0.8860
5.909228 0.8860 0.8840 0.8840 0.8840 0.8820
5.943000 0.8820 0.8810 0.8790 0.8790 0.8770
5.976228 0.8770 0.8760 0.8740 0.8720 0.8710
6.009000 0.8690 0.8670 0.8640 0.8640 0.8610
6.042228 0.8590 0.8570 0.8560 0.8540 0.8540
6.075000 0.8540 0.8540 0.8520 0.8520 0.8520
6.108228 0.8520 0.8520 0.8510 0.8510 0.8510
6.142000 0.8510 0.8520 0.8520 0.8520 0.8520
6.175228 0.8520 0.8520 0.8540 0.8560 0.8570
6.208000 0.8590 0.8610 0.8620 0.8620 0.8640
6.241228 0.8640 0.8660 0.8670 0.8690 0.8710
6.275000 0.8710 0.8720 0.8720 0.8720 0.8720
6.308228 0.8720 0.8720 0.8720 0.8720 0.8720
6.341000 0.8720 0.8720 0.8720 0.8710 0.8710
6.374228 0.8710 0.8710 0.8710 0.8690 0.8690
6.408000 0.8690 0.8670 0.8660 0.8670 0.8670
6.441228 0.8670 0.8690 0.8690 0.8710 0.8720
6.474000 0.8720 0.8740 0.8760 0.8770 0.8770
6.507228 0.8790 0.8770 0.8770 0.8760 0.8740
6.540000 0.8740 0.8720 0.8720 0.8720 0.8720
6.573228 0.8720 0.8720 0.8710 0.8690 0.8660
6.607000 0.8660 0.8640 0.8620 0.8610 0.8590
6.640228 0.8560 0.8540 0.8520 0.8510 0.8460
6.673000 0.8420 0.8390 0.8360 0.8320 0.8270
6.706228 0.8220 0.8190 0.8060 0.8010 0.7850
6.740000 0.7540 0.7190 0.7000 0.6330 0.6200
6.773228 0.5750 0.5550 0.5360 0.5300 0.5280
6.806000 0.5280 0.5280 0.5280 0.5300 0.5310
6.839228 0.5330 0.5380 0.5480 0.5600 0.5750
6.873000 0.5900 0.6030 0.6170 0.6280 0.6530
6.906228 0.6630 0.6780 0.6930 0.7020 0.7150
6.939000 0.7240 0.7300 0.7350 0.7440 0.7700
6.972228 0.7750 0.7790 0.7800 0.7820 0.7850
7.005000 0.7890 0.7920 0.7940 0.7970 0.7970
7.038228 0.7990 0.7990 0.8010 0.8020 0.8040
7.072000 0.8090 0.8120 0.8160 0.8210 0.8220
7.105228 0.8240 0.8240 0.8240 0.8220 0.8190
7.138000 0.8160 0.8070 0.8010 0.7940 0.7800
7.171228 0.7700 0.7550 0.7390 0.7290 0.7040
7.205000 0.6800 0.6800 0.6850 0.6920 0.6970
7.238228 0.7050 0.7140 0.7200 0.7270 0.7320
7.271000 0.7390 0.7440 0.7470 0.7520 0.7540
7.304228 0.7590 0.7720 0.7840 0.7890 0.7990
7.338000 0.8010 0.8040 0.8110 0.8140 0.8160
7.371228 0.8170 0.8170 0.8170 0.8190 0.8170
7.404000 0.8190 0.8190 0.8210 0.8220 0.8220
7.437228 0.8240 0.8260 0.8290 0.8310 0.8340
7.470000 0.8340 0.8360 0.8370 0.8390 0.8410
7.503228 0.8420 0.8440 0.8460 0.8470 0.8490
7.537000 0.8490 0.8470 0.8470 0.8460 0.8460
7.570228 0.8440 0.8420 0.8420 0.8420 0.8410
7.603000 0.8420 0.8420 0.8420 0.8410 0.8410
7.636228 0.8410 0.8410 0.8390 0.8390 0.8410
7.670000 0.8410 0.8420 0.8420 0.8420 0.8420
7.703228 0.8440 0.8460 0.8460 0.8460 0.8470
7.736000 0.8460 0.8470 0.8470 0.8470 0.8490
7.769228 0.8470 0.8470 0.8470 0.8470 0.8470
7.803000 0.8470 0.8470 0.8460 0.8470 0.8470
7.836228 0.8470 0.8470 0.8470 0.8470 0.8470
7.869000 0.8470 0.8470 0.8470 0.8470 0.8470
7.902228 0.8490 0.8490 0.8490 0.8490 0.8490
7.935000 0.8490 0.8490 0.8490 0.8490 0.8470
7.968228 0.8470 0.8490 0.8470 0.8470 0.8470
8.002000 0.8470 0.8470 0.8460 0.8460 0.8460
8.035228 0.8440 0.8440 0.8440 0.8420 0.8420
8.068000 0.8420 0.8410 0.8410 0.8390 0.8370
8.101228 0.8370 0.8370 0.8370 0.8370 0.8370
8.135000 0.8370 0.8370 0.8370 0.8360 0.8340
8.168228 0.8320 0.8310 0.8310 0.8290 0.8270
8.201000 0.8240 0.8240 0.8240 0.8240 0.8240
8.234228 0.8240 0.8240 0.8240 0.8220 0.8220
8.268000 0.8220 0.8220 0.8210 0.8210 0.8210
8.301228 0.8210 0.8190 0.8190 0.8190 0.8190
8.334000 0.8190 0.8190 0.8190 0.8170 0.8160
8.367228 0.8140 0.8120 0.8110 0.8070 0.8040
8.400000 0.8040 0.8020 0.8020 0.8020 0.8020
8.433228 0.8020 0.8010 0.8010 0.8010 0.7990
8.467000 0.7970 0.7900 0.7900 0.7870 0.7840
8.500228 0.7800 0.7790 0.7750 0.7740 0.7740
8.533000 0.7720 0.7690 0.7670 0.7650 0.7640
8.566228 0.7600 0.7570 0.7550 0.7520 0.7450
8.600000 0.7420 0.7370 0.7320 0.7290 0.7250
8.633228 0.7200 0.7170 0.7140 0.7100 0.7000
8.666000 0.6930 0.6850 0.6820 0.6770 0.6670
8.699228 0.6620 0.6580 0.6530 0.6500 0.6480
8.732000 0.6450 0.6400 0.6370 0.6330 0.6300
8.765228 0.6250 0.6180 0.6180 0.6130 0.6050
8.799000 0.5980 0.5930 0.5830 0.5710 0.5630
8.832228 0.5560 0.5500 0.5360 0.5300 0.5160
8.865000 0.5030 0.4880 0.4780 0.4460 0.4310
8.898228 0.4060 0.3790 0.3690 0.3660 0.3560
8.932000 0.3340 0.3170 0.3060 0.2870 0.2800
8.965228 0.2600 0.2550 0.2440 0.2320 0.2200
8.998000 0.2070 0.2020 0.1920 0.1830 0.1800
9.031228 0.1750 0.1700 0.1620 0.1570 0.1530
9.065000 0.1500 0.1450 0.1370 0.1330 0.1280
9.098228 0.1230 0.1200 0.1150 0.1130 0.1100
9.131000 0.1080 0.1080 0.1070 0.1050 0.1050
9.164228 0.1030 0.1030 0.1030 0.1030 0.1030
9.197000 0.1030 0.1030 0.1030 0.1030 0.1030
9.230228 0.1020 0.1020 0.1030 0.1030 0.1030
9.264000 0.1030 0.1020 0.1020 0.1000 0.1000
9.297228 0.0980 0.0980 0.0980 0.0910 0.0900
9.330000 0.0880 0.0830 0.0810 0.0800 0.0800
9.363228 0.0780 0.0760 0.0760 0.0750 0.0750
9.397000 0.0730 0.0730 0.0730 0.0710 0.0710
9.430228 0.0700 0.0680 0.0680 0.0660 0.0650
9.463000 0.0630 0.0610 0.0600 0.0600 0.0580
9.496228 0.0560 0.0550 0.0530 0.0530 0.0510
9.530000 0.0510 0.0500 0.0500 0.0500 0.0500
9.563228 0.0500 0.0500 0.0480 0.0480 0.0500
9.596000 0.0500 0.0500 0.0500 0.0500 0.0500
9.629228 0.0480 0.0450 0.0450 0.0430 0.0430
9.662000 0.0430 0.0430 0.0410 0.0400 0.0400
9.695228 0.0400 0.0400 0.0400 0.0410 0.0410
9.729000 0.0430 0.0460 0.0510 0.0580 0.0680
9.762228 0.0760 0.0850 0.0980 0.1070 0.1180
9.795000 0.1300 0.1380 0.1480 0.1580 0.1670
9.828228 0.1800 0.1900 0.2000 0.2150 0.2300
9.862000 0.2390 0.2540 0.2590 0.2650 0.2720
9.895228 0.3010 0.3140 0.3310 0.3510 0.3870
9.928000 0.3970 0.4030 0.4130 0.4190 0.4260
9.961228 0.4310 0.4580 0.4680 0.4810 0.4860
9.995000 0.4960 0.5130 0.5180 0.5310 0.5310
10.028228 0.5360 0.5400 0.5480 0.5530 0.5580
10.061000 0.5630 0.5680 0.5710 0.5780 0.5830
10.094228 0.5900 0.5960 0.6000 0.6030 0.6080
10.127000 0.6130 0.6180 0.6230 0.6280 0.6330
10.160228 0.6420 0.6420 0.6450 0.6480 0.6520
10.194000 0.6570 0.6600 0.6630 0.6650 0.6680
10.227228 0.6720 0.6730 0.6750 0.6750 0.6780
10.260000 0.6780 0.6770 0.6770 0.6770 0.6750
10.293228 0.6750 0.6730 0.6730 0.6720 0.6700
10.327000 0.6680 0.6650 0.6620 0.6600 0.6570
10.360228 0.6530 0.6520 0.6520 0.6520 0.6520
10.393000 0.6530 0.6570 0.6600 0.6620 0.6620
10.426228 0.6630 0.6630 0.6670 0.6670 0.6680
10.460000 0.6720 0.6750 0.6830 0.6870 0.6920
10.493228 0.6920 0.6980 0.6980 0.7020 0.7020
10.526000 0.7040 0.7050 0.7090 0.7100 0.7140
10.559228 0.7150 0.7170 0.7200 0.7220 0.7240
10.592000 0.7270 0.7290 0.7320 0.7340 0.7370
10.625228 0.7390 0.7390 0.7400 0.7420 0.7420
10.659000 0.7440 0.7440 0.7440 0.7440 0.7450
10.692228 0.7490 0.7500 0.7520 0.7520 0.7540
10.725000 0.7540 0.7540 0.7550 0.7570 0.7590
10.758228 0.7590 0.7600 0.7620 0.7620 0.7620
10.792000 0.7620 0.7620 0.7650 0.7670 0.7670
10.825228 0.7650 0.7650 0.7670 0.7670 0.7670
10.858000 0.7690 0.7700 0.7740 0.7740 0.7740
10.891228 0.7750 0.7750 0.7770 0.7770 0.7770
10.925000 0.7770 0.7770 0.7790 0.7800 0.7800
10.958228 0.7800 0.7800 0.7800 0.7800 0.7800
10.991000 0.7820 0.7820 0.7800 0.7800 0.7790
11.024228 0.7770 0.7770 0.7750 0.7750 0.7770
11.057000 0.7790 0.7790 0.7800 0.7820 0.7840
11.090228 0.7840 0.7840 0.7840 0.7840 0.7820
11.124000 0.7840 0.7840 0.7850 0.7890 0.7900
11.157228 0.7900 0.7900 0.7920 0.7900 0.7900
11.190000 0.7900 0.7900 0.7900 0.7890 0.7890
11.223228 0.7870 0.7850 0.7840 0.7820 0.7820
11.257000 0.7820 0.7820 0.7840 0.7840 0.7840
11.290228 0.7850 0.7870 0.7870 0.7890 0.7890
11.323000 0.7890 0.7890 0.7870 0.7870 0.7870
11.356228 0.7870 0.7850 0.7850 0.7840 0.7840
11.389000 0.7840 0.7820 0.7820 0.7840 0.7840
11.422228 0.7850 0.7840 0.7850 0.7850 0.7870
11.456000 0.7870 0.7870 0.7870 0.7890 0.7890
11.489228 0.7890 0.7890 0.7900 0.7900 0.7900
11.522000 0.7900 0.7900 0.7920 0.7920 0.7940
11.555228 0.7940 0.7940 0.7950 0.7970 0.7990
11.589000 0.7990 0.7970 0.7990 0.7990 0.7990
11.622228 0.7990 0.7990 0.7990 0.8010 0.8010
11.655000 0.8020 0.8020 0.8020 0.8040 0.8040
11.688228 0.8040 0.8040 0.8040 0.8040 0.8040
11.722000 0.8040 0.8040 0.8040 0.8040 0.8040
11.755228 0.8040 0.8040 0.8040 0.8060 0.8070
11.788000 0.8070 0.8090 0.8090 0.8110 0.8110
11.821228 0.8110 0.8120 0.8120 0.8140 0.8140
11.854000 0.8160 0.8160 0.8170 0.8170 0.8170
11.887228 0.8170 0.8170 0.8170 0.8170 0.8170
11.921000 0.8190 0.8190 0.8190 0.8190 0.8190
11.954228 0.8190 0.8190 0.8210 0.8210 0.8210
11.987000 0.8220 0.8220 0.8220 0.8220 0.8220
12.020228 0.8220 0.8240 0.8240 0.8260 0.8260
12.054000 0.8260 0.8260 0.8260 0.8260 0.8260
12.087228 0.8260 0.8270 0.8270 0.8270 0.8270
12.120000 0.8270 0.8260 0.8260 0.8260 0.8270
12.153228 0.8270 0.8260 0.8260 0.8260 0.8260
12.187000 0.8260 0.8240 0.8260 0.8270 0.8290
12.220228 0.8290 0.8310 0.8320 0.8320 0.8310
12.253000 0.8320 0.8320 0.8320 0.8320 0.8340
12.286228 0.8340 0.8340 0.8340 0.8340 0.8340
12.319000 0.8340 0.8340 0.8340 0.8360 0.8360
12.352228 0.8360 0.8360 0.8340 0.8340 0.8340
12.386000 0.8320 0.8320 0.8310 0.8340 0.8360
12.419228 0.8370 0.8390 0.8390 0.8390 0.8390
12.452000 0.8370 0.8370 0.8370 0.8360 0.8370
12.485228 0.8390 0.8410 0.8410 0.8410 0.8420
12.519000 0.8420 0.8420 0.8420 0.8420 0.8420
12.552228 0.8410 0.8410 0.8410 0.8390 0.8390
12.585000 0.8360 0.8340 0.8340 0.8340 0.8340
12.618228 0.8320 0.8320 0.8310 0.8310 0.8310
12.652000 0.8310 0.8290 0.8290 0.8270 0.8290
12.685228 0.8290 0.8290 0.8290 0.8310 0.8310
12.718000 0.8320 0.8340 0.8340 0.8340 0.8340
12.751228 0.8320 0.8320 0.8320 0.8320 0.8310
12.784000 0.8310 0.8290 0.8290 0.8290 0.8310
12.817228 0.8310 0.8310 0.8320 0.8320 0.8320
12.851000 0.8320 0.8320 0.8320 0.8310 0.8310
12.884228 0.8310 0.8290 0.8310 0.8320 0.8320
12.917000 0.8310 0.8310 0.8310 0.8290 0.8270
12.950228 0.8260 0.8260 0.8240 0.8240 0.8240
12.984000 0.8220 0.8220 0.8210 0.8210 0.8210
13.017228 0.8210 0.8190 0.8190 0.8190 0.8190
13.050000 0.8190 0.8190 0.8190 0.8190 0.8190
13.083228 0.8190 0.8190 0.8170 0.8170 0.8160
13.117000 0.8140 0.8140 0.8160 0.8140 0.8120
13.150228 0.8120 0.8110 0.8110 0.8090 0.8090
13.183000 0.8090 0.8090 0.8090 0.8090 0.8090
13.216228 0.8090 0.8070 0.8070 0.8070 0.8060
13.249000 0.8040 0.8020 0.8040 0.8020 0.8020
13.282228 0.8020 0.8020 0.8020 0.8020 0.8020
13.316000 0.8020 0.8020 0.8020 0.8020 0.8020
13.349228 0.8020 0.8020 0.8010 0.8010 0.8010
13.382000 0.7990 0.7990 0.7990 0.7990 0.7970
13.415228 0.7970 0.7970 0.7970 0.7970 0.7950
13.449000 0.7940 0.7940 0.7920 0.7920 0.7920
13.482228 0.7900 0.7890 0.7870 0.7850 0.7850
13.515000 0.7850 0.7850 0.7840 0.7820 0.7800
13.548228 0.7800 0.7790 0.7770 0.7750 0.7750
13.582000 0.7740 0.7720 0.7720 0.7720 0.7720
13.615228 0.7740 0.7720 0.7720 0.7720 0.7700
13.648000 0.7670 0.7650 0.7640 0.7640 0.7620
13.681228 0.7620 0.7600 0.7590 0.7570 0.7570
13.714000 0.7540 0.7520 0.7500 0.7500 0.7500
13.747228 0.7500 0.7500 0.7500 0.7500 0.7500
13.781000 0.7490 0.7490 0.7490 0.7490 0.7490
13.814228 0.7490 0.7490 0.7490 0.7490 0.7490
13.847000 0.7490 0.7490 0.7490 0.7490 0.7490
13.880228 0.7490 0.7500 0.7500 0.7500 0.7520
13.914000 0.7520 0.7540 0.7540 0.7540 0.7550
13.947228 0.7550 0.7590 0.7590 0.7590 0.7600
13.980000 0.7640 0.7670 0.7650 0.7670 0.7670
14.013228 0.7670 0.7650 0.7650 0.7640 0.7620
14.046000 0.7600 0.7590 0.7590 0.7570 0.7540
14.079228 0.7520 0.7520 0.7500 0.7500 0.7500
14.113000 0.7500 0.7490 0.7490 0.7470 0.7470
14.146228 0.7470 0.7470 0.7470 0.7470 0.7470
14.179000 0.7470 0.7470 0.7470 0.7450 0.7450
14.212228 0.7440 0.7440 0.7420 0.7400 0.7400
14.246000 0.7390 0.7390 0.7370 0.7370 0.7350
14.279228 0.7350 0.7340 0.7320 0.7320 0.7300
14.312000 0.7300 0.7300 0.7300 0.7300 0.7300
14.345228 0.7300 0.7320 0.7320 0.7320 0.7300
14.379000 0.7300 0.7300 0.7290 0.7290 0.7290
14.412228 0.7290 0.7270 0.7270 0.7250 0.7250
14.445000 0.7250 0.7240 0.7220 0.7220 0.7200
14.478228 0.7200 0.7190 0.7170 0.7140 0.7140
14.511000 0.7120 0.7120 0.7120 0.7120 0.7120
14.544228 0.7120 0.7120 0.7100 0.7100 0.7100
14.578000 0.7100 0.7100 0.7100 0.7090 0.7090
14.611228 0.7070 0.7050 0.7020 0.7000 0.7000
14.644000 0.6980 0.6980 0.6970 0.6970 0.6980
14.677228 0.6980 0.6980 0.6970 0.6980 0.6970
14.711000 0.6970 0.6970 0.6950 0.6930 0.6920
14.744228 0.6900 0.6900 0.6900 0.6880 0.6880
14.777000 0.6880 0.6870 0.6870 0.6870 0.6880
14.810228 0.6920 0.6920 0.6920 0.6920 0.6920
14.844000 0.6920 0.6920 0.6920 0.6900 0.6880
14.877228 0.6870 0.6830 0.6820 0.6800 0.6780
14.910000 0.6770 0.6770 0.6750 0.6730 0.6730
14.943228 0.6730 0.6720 0.6720 0.6720 0.6720
14.976000 0.6720 0.6720 0.6720 0.6720 0.6730
15.009228 0.6730 0.6720 0.6700 0.6700 0.6680
15.043000 0.6680 0.6650 0.6630 0.6630 0.6630
15.076228 0.6620 0.6620 0.6600 0.6580 0.6580
15.109000 0.6570 0.6570 0.6550 0.6530 0.6520
15.142228 0.6520 0.6520 0.6520 0.6520 0.6520
15.176000 0.6500 0.6500 0.6500 0.6500 0.6500
15.209228 0.6500 0.6500 0.6480 0.6480 0.6480
15.242000 0.6470 0.6470 0.6470 0.6470 0.6470
15.275228 0.6450 0.6430 0.6420 0.6400 0.6380
15.309000 0.6370 0.6370 0.6370 0.6350 0.6330
15.342228 0.6330 0.6320 0.6320 0.6320 0.6320
15.375000 0.6320 0.6300 0.6300 0.6300 0.6280
15.408228 0.6280 0.6270 0.6270 0.6270 0.6270
15.441000 0.6270 0.6250 0.6250 0.6250 0.6250
15.474228 0.6230 0.6230 0.6230 0.6220 0.6220
15.508000 0.6220 0.6220 0.6200 0.6200 0.6200
15.541228 0.6180 0.6180 0.6180 0.6170 0.6170
15.574000 0.6150 0.6130 0.6130 0.6150 0.6170
15.607228 0.6180 0.6220 0.6230 0.6250 0.6250
15.641000 0.6250 0.6270 0.6270 0.6250 0.6270
15.674228 0.6270 0.6280 0.6280 0.6280 0.6280
15.707000 0.6300 0.6300 0.6320 0.6320 0.6330
15.740228 0.6350 0.6370 0.6370 0.6380 0.6400
15.774000 0.6430 0.6450 0.6450 0.6470 0.6470
15.807228 0.6480 0.6480 0.6480 0.6500 0.6500
15.840000 0.6500 0.6500 0.6520 0.6520 0.6530
15.873228 0.6530 0.6550 0.6570 0.6580 0.6600
15.906000 0.6620 0.6620 0.6630 0.6650 0.6680
15.939228 0.6720 0.6770 0.6780 0.6800 0.6800
15.973000 0.6800 0.6800
##END=
