##TITLE=4,6-ETHANO-1H,8H-PYRANO[3,4-c]PYRAN-1,8-DIONE, HEXAHYDRO-3,3,6-TRIMETHYL-8a-[2-(DIMETHYLAMINO)ETHYL]-
##JCAMP-DX=4.24
##DATA TYPE=INFRARED SPECTRUM
##CLASS=COBLENTZ
##ORIGIN=ABBOTT LABORATORIES
##OWNER=Copyright (C) 1987 by the Coblentz Society
Collection (C) 2018 copyright by the U.S. Secretary of Commerce
on behalf of the United States of America. All rights reserved.
##DATE=1962/08/29
##MOLFORM=C17 H27 N O4
##SOURCE REFERENCE=COBLENTZ NO. 5242
##$NIST ID=B6005242
##$NIST SOURCE=COBLENTZ
##$NIST IMAGE=cob5242
##SPECTROMETER/DATA SYSTEM=PERKIN-ELMER 21 (GRATING)
$$ INACTIVE (CHCl3) AROUND 1200-1250 CM^_^1
##INSTRUMENT PARAMETERS=FILTER AT ABOUT 10 MICRONS
##STATE=SOLUTION 7% (CHCl3 FOR 2.5-12.5 microns)
##PATH LENGTH=0.01 CM
##RESOLUTION=2
##XUNITS=1/CM
##YUNITS=TRANSMITTANCE
##XFACTOR=1.0
##YFACTOR=1
##FIRSTX=801
##LASTX=4000
##FIRSTY=1.0124
##MAXX=4000
##MINX=801
##MAXY=1.0124
##MINY=0.0558
##NPOINTS=3200
##XYDATA=(X++(Y..Y))
801.000000 1.0124 1.0108 1.0100 1.0007 0.9928
806.000000 0.9846 0.9758 0.9700 0.9646 0.9614
811.000000 0.9588 0.9560 0.9513 0.9462 0.9406
816.000000 0.9348 0.9291 0.9235 0.9178 0.9129
821.000000 0.9100 0.9097 0.9094 0.9043 0.8967
826.000000 0.8885 0.8799 0.8710 0.8607 0.8522
831.000000 0.8451 0.8387 0.8347 0.8333 0.8346
836.000000 0.8376 0.8416 0.8458 0.8487 0.8494
841.000000 0.8491 0.8481 0.8473 0.8467 0.8459
846.000000 0.8454 0.8476 0.8496 0.8511 0.8525
851.000000 0.8531 0.8531 0.8523 0.8516 0.8513
856.000000 0.8531 0.8558 0.8588 0.8620 0.8651
861.000000 0.8662 0.8674 0.8686 0.8687 0.8685
866.000000 0.8710 0.8712 0.8676 0.8624 0.8570
871.000000 0.8515 0.8460 0.8403 0.8346 0.8278
876.000000 0.8198 0.8117 0.8036 0.7954 0.7865
881.000000 0.7753 0.7630 0.7346 0.7068 0.6972
886.000000 0.6945 0.6924 0.7319 0.7642 0.7764
891.000000 0.7813 0.7827 0.7812 0.7754 0.7749
896.000000 0.7793 0.7888 0.8019 0.8155 0.8283
901.000000 0.8385 0.8474 0.8518 0.8524 0.8522
906.000000 0.8529 0.8493 0.8464 0.8426 0.8383
911.000000 0.8334 0.8278 0.8210 0.8143 0.8067
916.000000 0.7986 0.7906 0.7811 0.7658 0.7464
921.000000 0.7376 0.7317 0.7239 0.7118 0.6878
926.000000 0.6513 0.6135 0.5758 0.5396 0.5215
931.000000 0.5164 0.5056 0.4897 0.4757 0.4650
936.000000 0.4629 0.4633 0.4948 0.5164 0.5363
941.000000 0.5425 0.5407 0.5350 0.5303 0.5322
946.000000 0.5443 0.5581 0.5703 0.5838 0.5990
951.000000 0.6188 0.6389 0.6580 0.6736 0.6936
956.000000 0.7358 0.7551 0.7720 0.7950 0.8043
961.000000 0.8092 0.8123 0.8117 0.8097 0.8052
966.000000 0.7984 0.7895 0.7801 0.7706 0.7593
971.000000 0.7486 0.7360 0.7215 0.7078 0.6934
976.000000 0.6773 0.6555 0.6360 0.6304 0.6320
981.000000 0.6333 0.6389 0.6719 0.6876 0.6844
986.000000 0.6796 0.6738 0.6654 0.6466 0.6241
991.000000 0.6206 0.6202 0.6190 0.6659 0.6797
996.000000 0.6901 0.6989 0.7086 0.7168 0.7248
1001.000000 0.7385 0.7531 0.7636 0.7671 0.7674
1006.000000 0.7698 0.7615 0.7461 0.7294 0.7126
1011.000000 0.6959 0.6794 0.6677 0.6655 0.6638
1016.000000 0.6703 0.6744 0.6772 0.6789 0.6716
1021.000000 0.6560 0.6394 0.6321 0.6317 0.6293
1026.000000 0.6453 0.6591 0.6702 0.6756 0.6781
1031.000000 0.6699 0.6554 0.6447 0.6361 0.6281
1036.000000 0.6267 0.6256 0.6319 0.6365 0.6412
1041.000000 0.6459 0.6529 0.6617 0.6824 0.7112
1046.000000 0.7179 0.7190 0.7174 0.7161 0.6973
1051.000000 0.6781 0.6589 0.6397 0.6205 0.6014
1056.000000 0.5860 0.5876 0.5923 0.6098 0.6208
1061.000000 0.6244 0.6237 0.6222 0.6196 0.6157
1066.000000 0.6120 0.6102 0.6108 0.6139 0.6218
1071.000000 0.6326 0.6397 0.6463 0.6502 0.6499
1076.000000 0.6499 0.6446 0.6282 0.6057 0.5832
1081.000000 0.5608 0.5385 0.5162 0.4939 0.4716
1086.000000 0.4494 0.4346 0.4198 0.4144 0.4135
1091.000000 0.4270 0.4498 0.4726 0.4953 0.5180
1096.000000 0.5406 0.5629 0.5674 0.5676 0.5627
1101.000000 0.5508 0.5357 0.5206 0.5056 0.4911
1106.000000 0.4845 0.4809 0.4795 0.4795 0.4883
1111.000000 0.5043 0.5207 0.5372 0.5535 0.5646
1116.000000 0.5665 0.5634 0.5618 0.5590 0.5545
1121.000000 0.5417 0.5235 0.5025 0.4633 0.4243
1126.000000 0.3853 0.3465 0.3077 0.2689 0.2303
1131.000000 0.1917 0.1531 0.1182 0.1050 0.1009
1136.000000 0.0986 0.1032 0.1235 0.1493 0.1749
1141.000000 0.2005 0.2261 0.2511 0.2653 0.2714
1146.000000 0.2695 0.2650 0.2482 0.2396 0.2339
1151.000000 0.2311 0.2305 0.2308 0.2389 0.2623
1156.000000 0.2783 0.2820 0.2825 0.2785 0.2717
1161.000000 0.2654 0.2640 0.2642 0.2642 0.2775
1166.000000 0.3313 0.3851 0.4383 0.4560 0.4650
1171.000000 0.4714 0.4779 0.4774 0.4767 0.4754
1176.000000 0.4752 0.4753 0.4756 0.4774 0.4852
1181.000000 0.5040 0.5118 0.5106 0.5049 0.4957
1186.000000 0.4870 0.4789 0.4751 0.4750 0.4762
1191.000000 0.4795 0.4842 0.4936 0.5058 0.5361
1196.000000 0.5542 0.5633 0.5641 0.5641 0.5629
1201.000000 0.5613 0.5582 0.5552 0.5510 0.5457
1206.000000 0.5403 0.5348 0.5290 0.5233 0.5179
1211.000000 0.5128 0.5077 0.5029 0.4990 0.4952
1216.000000 0.4915 0.4879 0.4846 0.4824 0.4804
1221.000000 0.4795 0.4788 0.4792 0.4801 0.4811
1226.000000 0.4832 0.4859 0.4884 0.4911 0.4943
1231.000000 0.4976 0.5005 0.5025 0.5034 0.5035
1236.000000 0.5040 0.5020 0.5003 0.4975 0.4860
1241.000000 0.4692 0.4525 0.4358 0.4191 0.4024
1246.000000 0.3858 0.3691 0.3526 0.3378 0.3344
1251.000000 0.3344 0.3336 0.3352 0.3365 0.3377
1256.000000 0.3393 0.3413 0.3433 0.3456 0.3492
1261.000000 0.3569 0.3747 0.3925 0.4104 0.4286
1266.000000 0.4351 0.4385 0.4405 0.4417 0.4378
1271.000000 0.4278 0.4169 0.4060 0.3951 0.3843
1276.000000 0.3735 0.3626 0.3554 0.3541 0.3562
1281.000000 0.3577 0.3601 0.3631 0.3668 0.3725
1286.000000 0.3799 0.3871 0.4034 0.4247 0.4460
1291.000000 0.4672 0.4885 0.5096 0.5307 0.5519
1296.000000 0.5729 0.5939 0.6150 0.6256 0.6281
1301.000000 0.6261 0.6255 0.6238 0.6173 0.6089
1306.000000 0.6005 0.5922 0.5838 0.5778 0.5771
1311.000000 0.5826 0.5900 0.5974 0.6048 0.6108
1316.000000 0.6125 0.6138 0.6145 0.6151 0.6159
1321.000000 0.6239 0.6364 0.6488 0.6591 0.6608
1326.000000 0.6612 0.6617 0.6621 0.6625 0.6594
1331.000000 0.6431 0.6266 0.6100 0.5936 0.5772
1336.000000 0.5676 0.5634 0.5708 0.5854 0.6024
1341.000000 0.6195 0.6366 0.6536 0.6706 0.6850
1346.000000 0.6876 0.6884 0.6882 0.6849 0.6792
1351.000000 0.6735 0.6676 0.6665 0.6668 0.6692
1356.000000 0.6818 0.6945 0.7072 0.7188 0.7237
1361.000000 0.7232 0.7229 0.7071 0.6819 0.6568
1366.000000 0.6318 0.6068 0.5818 0.5569 0.5425
1371.000000 0.5381 0.5292 0.5159 0.5024 0.4888
1376.000000 0.4752 0.4618 0.4512 0.4505 0.4503
1381.000000 0.4616 0.4867 0.5134 0.5400 0.5665
1386.000000 0.5730 0.5730 0.5914 0.6237 0.6565
1391.000000 0.6892 0.7218 0.7545 0.7870 0.8076
1396.000000 0.8167 0.8219 0.8246 0.8267 0.8272
1401.000000 0.8276 0.8281 0.8286 0.8286 0.8284
1406.000000 0.8282 0.8280 0.8287 0.8266 0.8259
1411.000000 0.8245 0.8224 0.8184 0.8125 0.8063
1416.000000 0.8004 0.7950 0.7896 0.7844 0.7757
1421.000000 0.7611 0.7516 0.7436 0.7357 0.7275
1426.000000 0.7192 0.7107 0.7004 0.6975 0.6948
1431.000000 0.6925 0.6903 0.6877 0.6789 0.6626
1436.000000 0.6450 0.6275 0.6100 0.5926 0.5751
1441.000000 0.5577 0.5403 0.5229 0.5056 0.4883
1446.000000 0.4794 0.4765 0.4755 0.4802 0.4758
1451.000000 0.4771 0.4808 0.4819 0.4825 0.4830
1456.000000 0.4833 0.4838 0.4841 0.4848 0.4859
1461.000000 0.4869 0.4881 0.4903 0.4990 0.5321
1466.000000 0.5791 0.6261 0.6730 0.7162 0.7340
1471.000000 0.7412 0.7483 0.7552 0.7625 0.7700
1476.000000 0.7774 0.7846 0.7916 0.7985 0.8055
1481.000000 0.8112 0.8153 0.8192 0.8233 0.8296
1486.000000 0.8385 0.8471 0.8556 0.8612 0.8651
1491.000000 0.8685 0.8709 0.8732 0.8755 0.8771
1496.000000 0.8781 0.8790 0.8800 0.8816 0.8855
1501.000000 0.8895 0.8950 0.9016 0.9053 0.9076
1506.000000 0.9097 0.9099 0.9100 0.9102 0.9106
1511.000000 0.9112 0.9117 0.9123 0.9128 0.9134
1516.000000 0.9140 0.9148 0.9155 0.9163 0.9158
1521.000000 0.9169 0.9164 0.9158 0.9150 0.9142
1526.000000 0.9134 0.9127 0.9119 0.9111 0.9103
1531.000000 0.9095 0.9088 0.9082 0.9076 0.9070
1536.000000 0.9064 0.9058 0.9054 0.9052 0.9051
1541.000000 0.9049 0.9048 0.9047 0.9045 0.9044
1546.000000 0.9043 0.9041 0.9039 0.9037 0.9034
1551.000000 0.9031 0.9028 0.9025 0.9021 0.9014
1556.000000 0.9006 0.8999 0.8991 0.8984 0.8976
1561.000000 0.8969 0.8962 0.8958 0.8956 0.8954
1566.000000 0.8954 0.8956 0.8958 0.8960 0.8962
1571.000000 0.8965 0.8967 0.8968 0.8970 0.8971
1576.000000 0.8973 0.8974 0.8976 0.8976 0.8972
1581.000000 0.8967 0.8962 0.8956 0.8951 0.8945
1586.000000 0.8937 0.8927 0.8918 0.8909 0.8899
1591.000000 0.8890 0.8880 0.8871 0.8861 0.8851
1596.000000 0.8842 0.8833 0.8825 0.8816 0.8807
1601.000000 0.8798 0.8788 0.8780 0.8771 0.8764
1606.000000 0.8759 0.8754 0.8750 0.8745 0.8740
1611.000000 0.8736 0.8732 0.8728 0.8726 0.8724
1616.000000 0.8723 0.8722 0.8720 0.8718 0.8716
1621.000000 0.8713 0.8709 0.8705 0.8701 0.8696
1626.000000 0.8692 0.8687 0.8683 0.8677 0.8669
1631.000000 0.8661 0.8653 0.8645 0.8636 0.8628
1636.000000 0.8620 0.8612 0.8604 0.8595 0.8585
1641.000000 0.8576 0.8566 0.8557 0.8547 0.8537
1646.000000 0.8528 0.8519 0.8508 0.8495 0.8482
1651.000000 0.8469 0.8455 0.8442 0.8429 0.8416
1656.000000 0.8402 0.8389 0.8373 0.8356 0.8338
1661.000000 0.8321 0.8303 0.8285 0.8266 0.8242
1666.000000 0.8212 0.8183 0.8154 0.8125 0.8094
1671.000000 0.8049 0.8004 0.7960 0.7915 0.7870
1676.000000 0.7824 0.7775 0.7725 0.7675 0.7626
1681.000000 0.7576 0.7519 0.7449 0.7374 0.7281
1686.000000 0.7148 0.6980 0.6806 0.6632 0.6458
1691.000000 0.6285 0.6112 0.5911 0.5695 0.5577
1696.000000 0.5495 0.5412 0.5339 0.5285 0.5241
1701.000000 0.5197 0.5153 0.5109 0.5070 0.5041
1706.000000 0.5014 0.4988 0.4961 0.4935 0.4908
1711.000000 0.4882 0.4859 0.4841 0.4825 0.4810
1716.000000 0.4794 0.4778 0.4749 0.4713 0.4455
1721.000000 0.4146 0.3954 0.3732 0.3512 0.3292
1726.000000 0.3072 0.2852 0.2632 0.2413 0.2193
1731.000000 0.1974 0.1756 0.1538 0.1320 0.1102
1736.000000 0.0885 0.0685 0.0600 0.0573 0.0558
1741.000000 0.0558 0.0558 0.0560 0.0583 0.0581
1746.000000 0.0598 0.0620 0.0671 0.0738 0.0820
1751.000000 0.0909 0.0998 0.1149 0.1427 0.1728
1756.000000 0.2028 0.2329 0.2628 0.2928 0.3227
1761.000000 0.3526 0.3824 0.4122 0.4420 0.4717
1766.000000 0.5014 0.5311 0.5607 0.5903 0.6199
1771.000000 0.6453 0.6646 0.6792 0.6978 0.7084
1776.000000 0.7151 0.7216 0.7280 0.7357 0.7439
1781.000000 0.7523 0.7605 0.7666 0.7719 0.7770
1786.000000 0.7821 0.7872 0.7923 0.8002 0.8092
1791.000000 0.8185 0.8281 0.8387 0.8487 0.8562
1796.000000 0.8594 0.8627 0.8659 0.8690 0.8720
1801.000000 0.8736 0.8748 0.8759 0.8770 0.8782
1806.000000 0.8793 0.8805 0.8815 0.8822 0.8829
1811.000000 0.8836 0.8844 0.8851 0.8858 0.8865
1816.000000 0.8873 0.8880 0.8887 0.8894 0.8901
1821.000000 0.8908 0.8914 0.8920 0.8925 0.8931
1826.000000 0.8937 0.8942 0.8948 0.8954 0.8960
1831.000000 0.8965 0.8970 0.8976 0.8982 0.8987
1836.000000 0.8993 0.8998 0.9002 0.9006 0.9010
1841.000000 0.9014 0.9017 0.9022 0.9026 0.9029
1846.000000 0.9033 0.9037 0.9040 0.9044 0.9048
1851.000000 0.9052 0.9056 0.9060 0.9063 0.9067
1856.000000 0.9071 0.9074 0.9078 0.9081 0.9085
1861.000000 0.9088 0.9091 0.9095 0.9098 0.9102
1866.000000 0.9105 0.9108 0.9111 0.9114 0.9118
1871.000000 0.9121 0.9124 0.9128 0.9131 0.9134
1876.000000 0.9137 0.9141 0.9144 0.9147 0.9150
1881.000000 0.9153 0.9157 0.9160 0.9164 0.9166
1886.000000 0.9168 0.9170 0.9170 0.9172 0.9173
1891.000000 0.9174 0.9175 0.9176 0.9178 0.9179
1896.000000 0.9180 0.9181 0.9182 0.9183 0.9184
1901.000000 0.9185 0.9187 0.9188 0.9188 0.9190
1906.000000 0.9191 0.9193 0.9193 0.9194 0.9196
1911.000000 0.9197 0.9198 0.9199 0.9200 0.9201
1916.000000 0.9202 0.9203 0.9204 0.9204 0.9204
1921.000000 0.9205 0.9206 0.9206 0.9206 0.9207
1926.000000 0.9207 0.9207 0.9208 0.9208 0.9209
1931.000000 0.9209 0.9210 0.9210 0.9210 0.9211
1936.000000 0.9211 0.9212 0.9212 0.9212 0.9213
1941.000000 0.9213 0.9213 0.9214 0.9214 0.9215
1946.000000 0.9215 0.9215 0.9216 0.9216 0.9216
1951.000000 0.9217 0.9218 0.9218 0.9218 0.9218
1956.000000 0.9218 0.9218 0.9218 0.9218 0.9217
1961.000000 0.9217 0.9217 0.9217 0.9217 0.9217
1966.000000 0.9217 0.9217 0.9217 0.9217 0.9217
1971.000000 0.9217 0.9217 0.9217 0.9217 0.9217
1976.000000 0.9217 0.9217 0.9217 0.9217 0.9217
1981.000000 0.9217 0.9217 0.9217 0.9217 0.9217
1986.000000 0.9217 0.9217 0.9217 0.9217 0.9217
1991.000000 0.9217 0.9217 0.9217 0.9217 0.9217
1996.000000 0.9217 0.9217 0.9217 0.9217 0.9217
2001.000000 0.9217 0.9218 0.9218 0.9218 0.9218
2006.000000 0.9218 0.9219 0.9219 0.9219 0.9219
2011.000000 0.9219 0.9220 0.9220 0.9220 0.9220
2016.000000 0.9220 0.9221 0.9221 0.9221 0.9221
2021.000000 0.9221 0.9222 0.9222 0.9222 0.9222
2026.000000 0.9223 0.9223 0.9223 0.9223 0.9223
2031.000000 0.9224 0.9224 0.9224 0.9224 0.9225
2036.000000 0.9225 0.9225 0.9225 0.9225 0.9226
2041.000000 0.9226 0.9226 0.9226 0.9226 0.9227
2046.000000 0.9227 0.9227 0.9227 0.9227 0.9228
2051.000000 0.9228 0.9228 0.9228 0.9228 0.9229
2056.000000 0.9229 0.9229 0.9230 0.9230 0.9230
2061.000000 0.9230 0.9231 0.9231 0.9231 0.9231
2066.000000 0.9231 0.9232 0.9232 0.9232 0.9233
2071.000000 0.9233 0.9233 0.9234 0.9234 0.9234
2076.000000 0.9234 0.9234 0.9234 0.9235 0.9235
2081.000000 0.9235 0.9236 0.9236 0.9236 0.9236
2086.000000 0.9237 0.9237 0.9237 0.9237 0.9237
2091.000000 0.9238 0.9238 0.9238 0.9239 0.9239
2096.000000 0.9239 0.9239 0.9240 0.9240 0.9240
2101.000000 0.9240 0.9240 0.9241 0.9241 0.9241
2106.000000 0.9241 0.9242 0.9242 0.9242 0.9243
2111.000000 0.9243 0.9243 0.9243 0.9244 0.9244
2116.000000 0.9244 0.9244 0.9244 0.9244 0.9244
2121.000000 0.9244 0.9244 0.9244 0.9244 0.9243
2126.000000 0.9243 0.9243 0.9243 0.9243 0.9242
2131.000000 0.9242 0.9242 0.9242 0.9242 0.9241
2136.000000 0.9241 0.9241 0.9241 0.9241 0.9241
2141.000000 0.9242 0.9242 0.9242 0.9242 0.9242
2146.000000 0.9243 0.9243 0.9243 0.9243 0.9244
2151.000000 0.9244 0.9244 0.9244 0.9243 0.9243
2156.000000 0.9242 0.9241 0.9239 0.9238 0.9237
2161.000000 0.9236 0.9235 0.9234 0.9233 0.9232
2166.000000 0.9232 0.9231 0.9230 0.9229 0.9228
2171.000000 0.9227 0.9226 0.9224 0.9223 0.9222
2176.000000 0.9221 0.9220 0.9219 0.9218 0.9217
2181.000000 0.9216 0.9216 0.9216 0.9216 0.9216
2186.000000 0.9216 0.9216 0.9216 0.9216 0.9217
2191.000000 0.9217 0.9217 0.9217 0.9217 0.9217
2196.000000 0.9217 0.9218 0.9218 0.9218 0.9218
2201.000000 0.9218 0.9218 0.9219 0.9219 0.9219
2206.000000 0.9219 0.9219 0.9219 0.9219 0.9219
2211.000000 0.9220 0.9220 0.9220 0.9220 0.9220
2216.000000 0.9220 0.9220 0.9220 0.9221 0.9221
2221.000000 0.9221 0.9221 0.9221 0.9221 0.9222
2226.000000 0.9222 0.9222 0.9222 0.9222 0.9222
2231.000000 0.9222 0.9222 0.9222 0.9222 0.9222
2236.000000 0.9222 0.9222 0.9222 0.9222 0.9222
2241.000000 0.9222 0.9222 0.9222 0.9222 0.9222
2246.000000 0.9222 0.9222 0.9222 0.9222 0.9222
2251.000000 0.9222 0.9222 0.9222 0.9222 0.9222
2256.000000 0.9222 0.9222 0.9222 0.9222 0.9222
2261.000000 0.9222 0.9222 0.9222 0.9222 0.9223
2266.000000 0.9223 0.9224 0.9224 0.9225 0.9225
2271.000000 0.9226 0.9226 0.9227 0.9227 0.9228
2276.000000 0.9228 0.9229 0.9229 0.9230 0.9230
2281.000000 0.9230 0.9231 0.9231 0.9232 0.9232
2286.000000 0.9233 0.9234 0.9236 0.9237 0.9238
2291.000000 0.9239 0.9240 0.9241 0.9242 0.9244
2296.000000 0.9245 0.9246 0.9247 0.9248 0.9250
2301.000000 0.9252 0.9253 0.9257 0.9260 0.9263
2306.000000 0.9267 0.9270 0.9273 0.9280 0.9289
2311.000000 0.9299 0.9310 0.9318 0.9325 0.9330
2316.000000 0.9330 0.9331 0.9331 0.9331 0.9332
2321.000000 0.9332 0.9332 0.9332 0.9333 0.9333
2326.000000 0.9334 0.9334 0.9334 0.9334 0.9335
2331.000000 0.9335 0.9335 0.9335 0.9335 0.9336
2336.000000 0.9336 0.9337 0.9337 0.9337 0.9337
2341.000000 0.9337 0.9337 0.9337 0.9338 0.9338
2346.000000 0.9338 0.9338 0.9339 0.9339 0.9339
2351.000000 0.9339 0.9340 0.9340 0.9340 0.9340
2356.000000 0.9340 0.9341 0.9341 0.9341 0.9341
2361.000000 0.9342 0.9342 0.9342 0.9342 0.9342
2366.000000 0.9343 0.9343 0.9343 0.9343 0.9342
2371.000000 0.9342 0.9341 0.9341 0.9340 0.9339
2376.000000 0.9339 0.9338 0.9337 0.9336 0.9336
2381.000000 0.9335 0.9335 0.9334 0.9332 0.9331
2386.000000 0.9327 0.9321 0.9314 0.9308 0.9302
2391.000000 0.9296 0.9290 0.9282 0.9273 0.9264
2396.000000 0.9256 0.9247 0.9235 0.9223 0.9207
2401.000000 0.9190 0.9173 0.9157 0.9142 0.9129
2406.000000 0.9116 0.9103 0.9090 0.9077 0.9064
2411.000000 0.9052 0.9043 0.9034 0.9027 0.9020
2416.000000 0.9013 0.9007 0.9000 0.8994 0.8987
2421.000000 0.8981 0.8974 0.8970 0.8968 0.8966
2426.000000 0.8966 0.8965 0.8964 0.8963 0.8962
2431.000000 0.8961 0.8959 0.8959 0.8958 0.8957
2436.000000 0.8956 0.8955 0.8954 0.8954 0.8953
2441.000000 0.8953 0.8952 0.8951 0.8950 0.8950
2446.000000 0.8950 0.8949 0.8948 0.8947 0.8947
2451.000000 0.8955 0.8946 0.8945 0.8944 0.8943
2456.000000 0.8942 0.8940 0.8937 0.8935 0.8932
2461.000000 0.8930 0.8927 0.8925 0.8922 0.8919
2466.000000 0.8916 0.8914 0.8911 0.8909 0.8906
2471.000000 0.8904 0.8901 0.8899 0.8897 0.8894
2476.000000 0.8892 0.8891 0.8889 0.8889 0.8889
2481.000000 0.8888 0.8888 0.8887 0.8887 0.8887
2486.000000 0.8888 0.8890 0.8892 0.8894 0.8896
2491.000000 0.8899 0.8901 0.8904 0.8906 0.8908
2496.000000 0.8911 0.8913 0.8915 0.8917 0.8920
2501.000000 0.8922 0.8924 0.8927 0.8929 0.8931
2506.000000 0.8936 0.8941 0.8946 0.8952 0.8957
2511.000000 0.8962 0.8968 0.8973 0.8978 0.8984
2516.000000 0.8989 0.8994 0.8999 0.9005 0.9010
2521.000000 0.9015 0.9021 0.9027 0.9033 0.9039
2526.000000 0.9045 0.9051 0.9057 0.9063 0.9068
2531.000000 0.9074 0.9080 0.9086 0.9092 0.9098
2536.000000 0.9103 0.9109 0.9115 0.9121 0.9127
2541.000000 0.9132 0.9135 0.9138 0.9141 0.9145
2546.000000 0.9148 0.9151 0.9154 0.9158 0.9161
2551.000000 0.9164 0.9168 0.9171 0.9173 0.9174
2556.000000 0.9174 0.9175 0.9175 0.9176 0.9176
2561.000000 0.9176 0.9176 0.9174 0.9173 0.9171
2566.000000 0.9169 0.9167 0.9165 0.9163 0.9163
2571.000000 0.9159 0.9158 0.9156 0.9154 0.9152
2576.000000 0.9150 0.9148 0.9146 0.9144 0.9142
2581.000000 0.9141 0.9139 0.9137 0.9135 0.9133
2586.000000 0.9131 0.9129 0.9126 0.9125 0.9123
2591.000000 0.9121 0.9119 0.9117 0.9115 0.9113
2596.000000 0.9112 0.9109 0.9107 0.9105 0.9103
2601.000000 0.9101 0.9098 0.9096 0.9094 0.9092
2606.000000 0.9089 0.9087 0.9085 0.9083 0.9081
2611.000000 0.9078 0.9076 0.9074 0.9072 0.9070
2616.000000 0.9067 0.9065 0.9062 0.9060 0.9058
2621.000000 0.9055 0.9053 0.9050 0.9047 0.9045
2626.000000 0.9042 0.9039 0.9037 0.9034 0.9031
2631.000000 0.9029 0.9026 0.9024 0.9021 0.9019
2636.000000 0.9016 0.9014 0.9011 0.9009 0.9006
2641.000000 0.9004 0.9001 0.8999 0.8996 0.8994
2646.000000 0.8991 0.8988 0.8984 0.8981 0.8977
2651.000000 0.8974 0.8970 0.8967 0.8963 0.8960
2656.000000 0.8956 0.8953 0.8949 0.8946 0.8942
2661.000000 0.8938 0.8935 0.8931 0.8928 0.8924
2666.000000 0.8919 0.8912 0.8906 0.8900 0.8893
2671.000000 0.8887 0.8881 0.8875 0.8868 0.8862
2676.000000 0.8855 0.8848 0.8842 0.8836 0.8829
2681.000000 0.8821 0.8814 0.8804 0.8792 0.8781
2686.000000 0.8769 0.8758 0.8746 0.8735 0.8723
2691.000000 0.8711 0.8697 0.8682 0.8668 0.8654
2696.000000 0.8639 0.8625 0.8610 0.8596 0.8581
2701.000000 0.8567 0.8553 0.8538 0.8523 0.8509
2706.000000 0.8493 0.8475 0.8457 0.8440 0.8421
2711.000000 0.8403 0.8380 0.8352 0.8324 0.8290
2716.000000 0.8253 0.8215 0.8186 0.8162 0.8138
2721.000000 0.8114 0.8090 0.8066 0.8042 0.8018
2726.000000 0.7993 0.7968 0.7943 0.7918 0.7886
2731.000000 0.7852 0.7818 0.7784 0.7749 0.7715
2736.000000 0.7688 0.7663 0.7637 0.7616 0.7595
2741.000000 0.7574 0.7554 0.7533 0.7512 0.7492
2746.000000 0.7472 0.7452 0.7431 0.7411 0.7391
2751.000000 0.7372 0.7353 0.7334 0.7315 0.7296
2756.000000 0.7277 0.7228 0.7163 0.7098 0.7027
2761.000000 0.6952 0.6877 0.6802 0.6727 0.6653
2766.000000 0.6578 0.6503 0.6429 0.6354 0.6280
2771.000000 0.6205 0.6131 0.6057 0.5982 0.5927
2776.000000 0.5917 0.5907 0.5899 0.5899 0.5899
2781.000000 0.5921 0.5905 0.5912 0.5918 0.5938
2786.000000 0.5958 0.5977 0.5996 0.6016 0.6035
2791.000000 0.6054 0.6074 0.6093 0.6112 0.6131
2796.000000 0.6150 0.6170 0.6189 0.6208 0.6226
2801.000000 0.6243 0.6261 0.6273 0.6275 0.6276
2806.000000 0.6276 0.6266 0.6257 0.6247 0.6232
2811.000000 0.6216 0.6201 0.6185 0.6170 0.6154
2816.000000 0.6139 0.6123 0.6108 0.6098 0.6094
2821.000000 0.6089 0.6087 0.6087 0.6088 0.6092
2826.000000 0.6117 0.6142 0.6167 0.6194 0.6222
2831.000000 0.6249 0.6277 0.6305 0.6333 0.6360
2836.000000 0.6388 0.6416 0.6443 0.6471 0.6498
2841.000000 0.6524 0.6532 0.6539 0.6546 0.6517
2846.000000 0.6550 0.6552 0.6534 0.6505 0.6476
2851.000000 0.6446 0.6415 0.6385 0.6354 0.6323
2856.000000 0.6292 0.6261 0.6230 0.6200 0.6169
2861.000000 0.6138 0.6108 0.6077 0.6046 0.6016
2866.000000 0.5985 0.5955 0.5935 0.5914 0.5894
2871.000000 0.5883 0.5875 0.5867 0.5859 0.5851
2876.000000 0.5843 0.5835 0.5828 0.5820 0.5812
2881.000000 0.5805 0.5797 0.5790 0.5783 0.5775
2886.000000 0.5768 0.5760 0.5753 0.5746 0.5739
2891.000000 0.5731 0.5724 0.5716 0.5709 0.5702
2896.000000 0.5695 0.5689 0.5682 0.5675 0.5668
2901.000000 0.5661 0.5654 0.5648 0.5639 0.5629
2906.000000 0.5619 0.5609 0.5598 0.5586 0.5575
2911.000000 0.5563 0.5552 0.5540 0.5525 0.5497
2916.000000 0.5469 0.5442 0.5397 0.5349 0.5301
2921.000000 0.5254 0.5206 0.5159 0.5111 0.5064
2926.000000 0.5016 0.4969 0.4921 0.4874 0.4827
2931.000000 0.4780 0.4733 0.4685 0.4638 0.4591
2936.000000 0.4544 0.4497 0.4449 0.4403 0.4356
2941.000000 0.4309 0.4288 0.4273 0.4258 0.4249
2946.000000 0.4250 0.4251 0.4252 0.4242 0.4257
2951.000000 0.4260 0.4263 0.4268 0.4272 0.4276
2956.000000 0.4288 0.4301 0.4314 0.4336 0.4371
2961.000000 0.4406 0.4441 0.4457 0.4471 0.4485
2966.000000 0.4498 0.4508 0.4519 0.4529 0.4537
2971.000000 0.4545 0.4553 0.4560 0.4566 0.4572
2976.000000 0.4578 0.4584 0.4589 0.4594 0.4599
2981.000000 0.4604 0.4610 0.4615 0.4640 0.4673
2986.000000 0.4707 0.4748 0.4835 0.4922 0.5009
2991.000000 0.5096 0.5182 0.5269 0.5355 0.5442
2996.000000 0.5529 0.5615 0.5702 0.5788 0.5875
3001.000000 0.5961 0.6047 0.6133 0.6219 0.6305
3006.000000 0.6391 0.6477 0.6563 0.6649 0.6734
3011.000000 0.6820 0.6905 0.6991 0.7077 0.7162
3016.000000 0.7248 0.7333 0.7418 0.7503 0.7551
3021.000000 0.7581 0.7610 0.7640 0.7656 0.7673
3026.000000 0.7689 0.7707 0.7727 0.7747 0.7767
3031.000000 0.7788 0.7808 0.7829 0.7849 0.7869
3036.000000 0.7889 0.7909 0.7929 0.7950 0.7971
3041.000000 0.7992 0.8013 0.8034 0.8054 0.8075
3046.000000 0.8091 0.8107 0.8123 0.8138 0.8149
3051.000000 0.8159 0.8170 0.8181 0.8191 0.8202
3056.000000 0.8212 0.8223 0.8233 0.8244 0.8255
3061.000000 0.8265 0.8276 0.8286 0.8296 0.8307
3066.000000 0.8318 0.8328 0.8339 0.8349 0.8360
3071.000000 0.8370 0.8384 0.8400 0.8415 0.8431
3076.000000 0.8451 0.8471 0.8491 0.8511 0.8531
3081.000000 0.8551 0.8571 0.8589 0.8604 0.8618
3086.000000 0.8632 0.8645 0.8655 0.8666 0.8676
3091.000000 0.8687 0.8697 0.8707 0.8718 0.8724
3096.000000 0.8731 0.8737 0.8743 0.8749 0.8756
3101.000000 0.8762 0.8768 0.8772 0.8777 0.8782
3106.000000 0.8786 0.8788 0.8791 0.8793 0.8796
3111.000000 0.8798 0.8801 0.8804 0.8806 0.8809
3116.000000 0.8812 0.8815 0.8818 0.8820 0.8823
3121.000000 0.8825 0.8828 0.8831 0.8834 0.8837
3126.000000 0.8839 0.8841 0.8843 0.8846 0.8848
3131.000000 0.8850 0.8852 0.8854 0.8856 0.8857
3136.000000 0.8859 0.8861 0.8863 0.8865 0.8867
3141.000000 0.8869 0.8871 0.8873 0.8874 0.8876
3146.000000 0.8877 0.8878 0.8880 0.8881 0.8882
3151.000000 0.8884 0.8885 0.8886 0.8887 0.8888
3156.000000 0.8889 0.8890 0.8891 0.8893 0.8894
3161.000000 0.8895 0.8896 0.8898 0.8899 0.8900
3166.000000 0.8901 0.8903 0.8904 0.8905 0.8906
3171.000000 0.8907 0.8908 0.8909 0.8910 0.8911
3176.000000 0.8913 0.8914 0.8915 0.8916 0.8918
3181.000000 0.8937 0.8919 0.8920 0.8920 0.8921
3186.000000 0.8921 0.8922 0.8923 0.8924 0.8924
3191.000000 0.8925 0.8925 0.8926 0.8926 0.8927
3196.000000 0.8927 0.8928 0.8928 0.8929 0.8929
3201.000000 0.8929 0.8930 0.8931 0.8932 0.8932
3206.000000 0.8933 0.8933 0.8934 0.8934 0.8935
3211.000000 0.8935 0.8936 0.8936 0.8937 0.8938
3216.000000 0.8938 0.8939 0.8940 0.8940 0.8941
3221.000000 0.8941 0.8942 0.8942 0.8943 0.8943
3226.000000 0.8944 0.8944 0.8944 0.8944 0.8943
3231.000000 0.8943 0.8943 0.8943 0.8943 0.8943
3236.000000 0.8943 0.8943 0.8943 0.8942 0.8942
3241.000000 0.8942 0.8942 0.8942 0.8942 0.8942
3246.000000 0.8942 0.8941 0.8941 0.8941 0.8941
3251.000000 0.8941 0.8941 0.8941 0.8941 0.8941
3256.000000 0.8940 0.8940 0.8940 0.8940 0.8940
3261.000000 0.8940 0.8940 0.8940 0.8939 0.8939
3266.000000 0.8939 0.8939 0.8939 0.8939 0.8939
3271.000000 0.8939 0.8939 0.8938 0.8938 0.8938
3276.000000 0.8938 0.8938 0.8938 0.8938 0.8938
3281.000000 0.8937 0.8937 0.8937 0.8937 0.8937
3286.000000 0.8936 0.8936 0.8936 0.8936 0.8935
3291.000000 0.8934 0.8933 0.8931 0.8930 0.8929
3296.000000 0.8928 0.8928 0.8927 0.8926 0.8924
3301.000000 0.8923 0.8922 0.8921 0.8920 0.8919
3306.000000 0.8918 0.8917 0.8916 0.8915 0.8914
3311.000000 0.8913 0.8912 0.8911 0.8909 0.8908
3316.000000 0.8907 0.8906 0.8905 0.8904 0.8904
3321.000000 0.8902 0.8901 0.8900 0.8899 0.8898
3326.000000 0.8896 0.8895 0.8894 0.8892 0.8891
3331.000000 0.8889 0.8888 0.8886 0.8884 0.8883
3336.000000 0.8881 0.8880 0.8878 0.8877 0.8875
3341.000000 0.8873 0.8872 0.8870 0.8869 0.8867
3346.000000 0.8866 0.8864 0.8863 0.8861 0.8859
3351.000000 0.8858 0.8856 0.8854 0.8853 0.8851
3356.000000 0.8849 0.8847 0.8846 0.8844 0.8843
3361.000000 0.8841 0.8840 0.8838 0.8837 0.8835
3366.000000 0.8834 0.8834 0.8833 0.8832 0.8832
3371.000000 0.8832 0.8832 0.8832 0.8832 0.8832
3376.000000 0.8832 0.8832 0.8832 0.8832 0.8832
3381.000000 0.8832 0.8832 0.8832 0.8832 0.8832
3386.000000 0.8832 0.8832 0.8832 0.8832 0.8832
3391.000000 0.8832 0.8832 0.8832 0.8832 0.8832
3396.000000 0.8832 0.8832 0.8832 0.8832 0.8832
3401.000000 0.8832 0.8833 0.8834 0.8834 0.8835
3406.000000 0.8836 0.8836 0.8836 0.8837 0.8837
3411.000000 0.8838 0.8838 0.8839 0.8839 0.8839
3416.000000 0.8840 0.8840 0.8841 0.8841 0.8842
3421.000000 0.8842 0.8842 0.8843 0.8843 0.8844
3426.000000 0.8844 0.8844 0.8845 0.8845 0.8846
3431.000000 0.8846 0.8847 0.8847 0.8847 0.8848
3436.000000 0.8849 0.8849 0.8850 0.8851 0.8851
3441.000000 0.8851 0.8852 0.8852 0.8853 0.8853
3446.000000 0.8854 0.8854 0.8854 0.8855 0.8855
3451.000000 0.8856 0.8856 0.8856 0.8858 0.8859
3456.000000 0.8860 0.8861 0.8863 0.8864 0.8866
3461.000000 0.8867 0.8869 0.8870 0.8871 0.8872
3466.000000 0.8874 0.8875 0.8876 0.8877 0.8879
3471.000000 0.8880 0.8881 0.8883 0.8884 0.8886
3476.000000 0.8887 0.8888 0.8890 0.8891 0.8892
3481.000000 0.8893 0.8895 0.8896 0.8897 0.8898
3486.000000 0.8900 0.8901 0.8902 0.8904 0.8905
3491.000000 0.8907 0.8908 0.8909 0.8910 0.8912
3496.000000 0.8913 0.8915 0.8917 0.8920 0.8922
3501.000000 0.8925 0.8927 0.8929 0.8932 0.8934
3506.000000 0.8937 0.8939 0.8942 0.8944 0.8946
3511.000000 0.8949 0.8952 0.8954 0.8957 0.8959
3516.000000 0.8962 0.8964 0.8966 0.8968 0.8970
3521.000000 0.8972 0.8974 0.8976 0.8978 0.8980
3526.000000 0.8981 0.8983 0.8985 0.8986 0.8988
3531.000000 0.8989 0.8991 0.8993 0.8994 0.8996
3536.000000 0.8997 0.8999 0.9001 0.9003 0.9005
3541.000000 0.9006 0.9008 0.9010 0.9011 0.9013
3546.000000 0.9014 0.9016 0.9018 0.9020 0.9021
3551.000000 0.9023 0.9025 0.9026 0.9028 0.9030
3556.000000 0.9031 0.9032 0.9033 0.9034 0.9035
3561.000000 0.9035 0.9036 0.9037 0.9038 0.9038
3566.000000 0.9039 0.9040 0.9040 0.9041 0.9042
3571.000000 0.9042 0.9043 0.9044 0.9045 0.9045
3576.000000 0.9046 0.9047 0.9047 0.9048 0.9049
3581.000000 0.9049 0.9050 0.9051 0.9051 0.9052
3586.000000 0.9053 0.9054 0.9054 0.9055 0.9055
3591.000000 0.9056 0.9057 0.9057 0.9058 0.9059
3596.000000 0.9060 0.9060 0.9061 0.9062 0.9063
3601.000000 0.9063 0.9064 0.9065 0.9065 0.9066
3606.000000 0.9066 0.9066 0.9067 0.9067 0.9067
3611.000000 0.9068 0.9068 0.9069 0.9069 0.9070
3616.000000 0.9070 0.9071 0.9072 0.9072 0.9072
3621.000000 0.9073 0.9073 0.9073 0.9074 0.9074
3626.000000 0.9075 0.9075 0.9075 0.9076 0.9076
3631.000000 0.9076 0.9077 0.9077 0.9078 0.9078
3636.000000 0.9079 0.9079 0.9080 0.9080 0.9081
3641.000000 0.9081 0.9082 0.9082 0.9082 0.9083
3646.000000 0.9083 0.9084 0.9084 0.9084 0.9085
3651.000000 0.9085 0.9085 0.9086 0.9086 0.9087
3656.000000 0.9087 0.9087 0.9087 0.9087 0.9087
3661.000000 0.9087 0.9087 0.9087 0.9087 0.9087
3666.000000 0.9087 0.9087 0.9087 0.9087 0.9087
3671.000000 0.9087 0.9087 0.9087 0.9087 0.9087
3676.000000 0.9087 0.9087 0.9087 0.9087 0.9087
3681.000000 0.9087 0.9088 0.9088 0.9088 0.9088
3686.000000 0.9088 0.9088 0.9088 0.9088 0.9088
3691.000000 0.9088 0.9088 0.9088 0.9088 0.9088
3696.000000 0.9088 0.9088 0.9088 0.9088 0.9088
3701.000000 0.9088 0.9088 0.9088 0.9088 0.9088
3706.000000 0.9088 0.9088 0.9088 0.9088 0.9089
3711.000000 0.9089 0.9089 0.9089 0.9089 0.9089
3716.000000 0.9089 0.9089 0.9089 0.9089 0.9089
3721.000000 0.9089 0.9089 0.9089 0.9089 0.9089
3726.000000 0.9089 0.9089 0.9089 0.9089 0.9089
3731.000000 0.9089 0.9089 0.9089 0.9089 0.9089
3736.000000 0.9089 0.9089 0.9089 0.9089 0.9089
3741.000000 0.9089 0.9089 0.9088 0.9088 0.9088
3746.000000 0.9088 0.9088 0.9088 0.9087 0.9087
3751.000000 0.9086 0.9086 0.9086 0.9085 0.9085
3756.000000 0.9085 0.9085 0.9085 0.9085 0.9084
3761.000000 0.9084 0.9084 0.9084 0.9084 0.9084
3766.000000 0.9083 0.9083 0.9082 0.9082 0.9082
3771.000000 0.9081 0.9081 0.9081 0.9081 0.9081
3776.000000 0.9081 0.9080 0.9080 0.9080 0.9080
3781.000000 0.9080 0.9080 0.9079 0.9079 0.9079
3786.000000 0.9079 0.9079 0.9078 0.9078 0.9078
3791.000000 0.9077 0.9077 0.9077 0.9076 0.9076
3796.000000 0.9076 0.9076 0.9076 0.9076 0.9075
3801.000000 0.9075 0.9075 0.9075 0.9075 0.9075
3806.000000 0.9074 0.9074 0.9074 0.9073 0.9073
3811.000000 0.9072 0.9072 0.9072 0.9072 0.9072
3816.000000 0.9072 0.9071 0.9071 0.9071 0.9071
3821.000000 0.9071 0.9071 0.9070 0.9070 0.9070
3826.000000 0.9069 0.9069 0.9069 0.9068 0.9068
3831.000000 0.9068 0.9068 0.9068 0.9068 0.9067
3836.000000 0.9067 0.9067 0.9066 0.9066 0.9066
3841.000000 0.9065 0.9065 0.9065 0.9065 0.9065
3846.000000 0.9065 0.9064 0.9064 0.9064 0.9064
3851.000000 0.9064 0.9064 0.9063 0.9063 0.9063
3856.000000 0.9062 0.9062 0.9062 0.9061 0.9061
3861.000000 0.9061 0.9061 0.9061 0.9060 0.9060
3866.000000 0.9060 0.9060 0.9060 0.9060 0.9059
3871.000000 0.9059 0.9059 0.9058 0.9058 0.9058
3876.000000 0.9057 0.9057 0.9057 0.9057 0.9057
3881.000000 0.9057 0.9056 0.9056 0.9056 0.9056
3886.000000 0.9056 0.9056 0.9056 0.9055 0.9055
3891.000000 0.9055 0.9054 0.9054 0.9054 0.9053
3896.000000 0.9053 0.9053 0.9053 0.9053 0.9053
3901.000000 0.9052 0.9052 0.9052 0.9051 0.9051
3906.000000 0.9051 0.9050 0.9050 0.9050 0.9049
3911.000000 0.9049 0.9049 0.9048 0.9048 0.9048
3916.000000 0.9047 0.9047 0.9047 0.9046 0.9046
3921.000000 0.9046 0.9045 0.9045 0.9045 0.9044
3926.000000 0.9044 0.9044 0.9044 0.9044 0.9044
3931.000000 0.9043 0.9043 0.9043 0.9042 0.9042
3936.000000 0.9042 0.9042 0.9041 0.9041 0.9041
3941.000000 0.9040 0.9040 0.9040 0.9039 0.9039
3946.000000 0.9039 0.9038 0.9038 0.9038 0.9037
3951.000000 0.9037 0.9037 0.9036 0.9036 0.9036
3956.000000 0.9036 0.9036 0.9036 0.9036 0.9036
3961.000000 0.9036 0.9036 0.9036 0.9036 0.9036
3966.000000 0.9037 0.9037 0.9037 0.9038 0.9038
3971.000000 0.9038 0.9039 0.9039 0.9039 0.9040
3976.000000 0.9040 0.9040 0.9041 0.9041 0.9041
3981.000000 0.9042 0.9042 0.9042 0.9042 0.9042
3986.000000 0.9042 0.9042 0.9043 0.9043 0.9043
3991.000000 0.9044 0.9044 0.9044 0.9045 0.9045
3996.000000 0.9045 0.9045 0.9045 0.9045 0.9046
##END=
