##TITLE=Aniline, 2-methyl-4-tert-butyl-N-ethyl-
##JCAMP-DX=4.24
##DATA TYPE=INFRARED SPECTRUM
##CLASS=COBLENTZ III
##ORIGIN=MONSANTO (J. FREEMAN)
##OWNER=Copyright (C) 1987 by the Coblentz Society
Collection (C) 2018 copyright by the U.S. Secretary of Commerce
on behalf of the United States of America. All rights reserved.
##DATE=1959/12/07
##NAMES=4-tert-butyl-N-ethyl-2-methylaniline
N-(4-tert-butyl-2-methylphenyl)-N-ethylamine
##MOLFORM=C13 H21 N
##SOURCE REFERENCE=COBLENTZ NO. 9274
##$NIST ID=B6009274
##$NIST SOURCE=COBLENTZ
##$NIST IMAGE=cob9274
##SPECTROMETER/DATA SYSTEM=BECKMAN IR-4 (HYBRID PRISM-GRATING)
##INSTRUMENT PARAMETERS=NaCl PRISM
##STATE=LIQUID (NEAT)
##PATH LENGTH=CAPILLARY
##SAMPLING PROCEDURE=TRANSMISSION
##RESOLUTION=2
##DATA PROCESSING=DIGITIZED BY COBLENTZ SOCIETY (BATCH II) FROM HARD COPY
##XUNITS=1/CM
##YUNITS=TRANSMITTANCE
##XFACTOR=1.0
##YFACTOR=1
##FIRSTX=627
##LASTX=4000
##FIRSTY=0.8912
##MAXX=4000
##MINX=627
##MAXY=1.0069
##MINY=0.002
##NPOINTS=3374
##XYDATA=(X++(Y..Y))
627.000000 0.8912 0.8905 0.8901 0.8896 0.8892
632.000000 0.8888 0.8887 0.8885 0.8906 0.8896
637.000000 0.8860 0.8808 0.8803 0.8869 0.8936
642.000000 0.8972 0.9005 0.9037 0.9076 0.9121
647.000000 0.9154 0.9185 0.9218 0.9260 0.9277
652.000000 0.9264 0.9277 0.9334 0.9406 0.9445
657.000000 0.9474 0.9489 0.9504 0.9514 0.9520
662.000000 0.9528 0.9539 0.9554 0.9569 0.9585
667.000000 0.9602 0.9619 0.9632 0.9645 0.9657
672.000000 0.9669 0.9675 0.9679 0.9684 0.9704
677.000000 0.9729 0.9760 0.9751 0.9738 0.9726
682.000000 0.9755 0.9704 0.9696 0.9680 0.9661
687.000000 0.9651 0.9641 0.9639 0.9638 0.9637
692.000000 0.9637 0.9638 0.9639 0.9640 0.9642
697.000000 0.9643 0.9643 0.9644 0.9646 0.9648
702.000000 0.9650 0.9652 0.9654 0.9656 0.9658
707.000000 0.9661 0.9664 0.9667 0.9670 0.9674
712.000000 0.9669 0.9661 0.9653 0.9640 0.9614
717.000000 0.9584 0.9554 0.9523 0.9473 0.9414
722.000000 0.9329 0.9225 0.9107 0.8967 0.8807
727.000000 0.8419 0.7844 0.7271 0.6700 0.6395
732.000000 0.6212 0.6181 0.6844 0.7368 0.7890
737.000000 0.8380 0.8632 0.8815 0.8903 0.8972
742.000000 0.9012 0.9039 0.9056 0.9063 0.9067
747.000000 0.9074 0.9083 0.9134 0.9197 0.9265
752.000000 0.9381 0.9507 0.9612 0.9672 0.9711
757.000000 0.9719 0.9723 0.9727 0.9725 0.9723
762.000000 0.9739 0.9714 0.9709 0.9703 0.9691
767.000000 0.9678 0.9665 0.9650 0.9634 0.9618
772.000000 0.9601 0.9584 0.9568 0.9552 0.9534
777.000000 0.9517 0.9498 0.9467 0.9437 0.9407
782.000000 0.9358 0.9301 0.9219 0.9136 0.9036
787.000000 0.8917 0.8790 0.8653 0.8500 0.8261
792.000000 0.8027 0.7771 0.7391 0.7031 0.6485
797.000000 0.5961 0.4911 0.4216 0.3522 0.2830
802.000000 0.2140 0.1632 0.1455 0.1418 0.1446
807.000000 0.1696 0.2145 0.2592 0.3039 0.3485
812.000000 0.3929 0.4373 0.4815 0.5256 0.6040
817.000000 0.6472 0.6698 0.6830 0.6950 0.7048
822.000000 0.7146 0.7274 0.7416 0.7555 0.7684
827.000000 0.7815 0.7971 0.8141 0.8324 0.8488
832.000000 0.8640 0.8765 0.8871 0.8954 0.9034
837.000000 0.9099 0.9164 0.9220 0.9265 0.9311
842.000000 0.9351 0.9388 0.9424 0.9459 0.9484
847.000000 0.9507 0.9531 0.9551 0.9567 0.9583
852.000000 0.9598 0.9609 0.9619 0.9629 0.9637
857.000000 0.9643 0.9650 0.9668 0.9653 0.9649
862.000000 0.9644 0.9636 0.9627 0.9611 0.9597
867.000000 0.9569 0.9536 0.9496 0.9445 0.9355
872.000000 0.9204 0.9030 0.8849 0.8604 0.8281
877.000000 0.7385 0.6489 0.5597 0.4706 0.4307
882.000000 0.4305 0.4558 0.4974 0.5389 0.5803
887.000000 0.6217 0.6630 0.7041 0.7451 0.7861
892.000000 0.8270 0.8678 0.8978 0.9100 0.9207
897.000000 0.9283 0.9341 0.9390 0.9419 0.9457
902.000000 0.9406 0.9357 0.9271 0.9160 0.9023
907.000000 0.8888 0.8779 0.8678 0.8554 0.8468
912.000000 0.8450 0.8523 0.8638 0.8711 0.8738
917.000000 0.8737 0.8734 0.8716 0.8696 0.8687
922.000000 0.8701 0.8731 0.8790 0.8858 0.8932
927.000000 0.8950 0.8964 0.8970 0.8977 0.8991
932.000000 0.9006 0.9030 0.9060 0.9107 0.9185
937.000000 0.9258 0.9310 0.9351 0.9388 0.9423
942.000000 0.9454 0.9484 0.9512 0.9540 0.9567
947.000000 0.9592 0.9618 0.9641 0.9659 0.9677
952.000000 0.9693 0.9705 0.9716 0.9728 0.9734
957.000000 0.9741 0.9746 0.9752 0.9756 0.9760
962.000000 0.9764 0.9765 0.9766 0.9759 0.9756
967.000000 0.9754 0.9751 0.9747 0.9744 0.9740
972.000000 0.9731 0.9719 0.9707 0.9682 0.9655
977.000000 0.9629 0.9601 0.9564 0.9518 0.9455
982.000000 0.9382 0.9275 0.9148 0.9009 0.8638
987.000000 0.8144 0.7710 0.7276 0.6843 0.6411
992.000000 0.6046 0.6032 0.6223 0.6607 0.6990
997.000000 0.7372 0.7754 0.8134 0.8515 0.8864
1002.000000 0.9024 0.9133 0.9199 0.9251 0.9293
1007.000000 0.9325 0.9357 0.9375 0.9392 0.9409
1012.000000 0.9422 0.9439 0.9429 0.9416 0.9393
1017.000000 0.9334 0.9268 0.9198 0.9107 0.9015
1022.000000 0.8923 0.8820 0.8713 0.8626 0.8547
1027.000000 0.8470 0.8395 0.8323 0.8255 0.8209
1032.000000 0.8177 0.8172 0.8149 0.8329 0.8465
1037.000000 0.8601 0.8737 0.8873 0.9008 0.9089
1042.000000 0.9113 0.9123 0.9133 0.9096 0.9051
1047.000000 0.8975 0.8896 0.8815 0.8736 0.8648
1052.000000 0.8556 0.8470 0.8389 0.8297 0.8189
1057.000000 0.8085 0.8015 0.7976 0.7971 0.7944
1062.000000 0.8007 0.8069 0.8169 0.8272 0.8379
1067.000000 0.8498 0.8616 0.8729 0.8830 0.8921
1072.000000 0.8984 0.9036 0.9068 0.9093 0.9106
1077.000000 0.9110 0.9120 0.9088 0.9062 0.9024
1082.000000 0.8983 0.8945 0.8897 0.8819 0.8742
1087.000000 0.8680 0.8618 0.8552 0.8483 0.8438
1092.000000 0.8426 0.8439 0.8467 0.8496 0.8508
1097.000000 0.8509 0.8502 0.8483 0.8321 0.8026
1102.000000 0.7731 0.7523 0.7427 0.7387 0.7377
1107.000000 0.7472 0.7772 0.8071 0.8369 0.8460
1112.000000 0.8463 0.8458 0.8472 0.8416 0.8363
1117.000000 0.8326 0.8289 0.8247 0.8208 0.8170
1122.000000 0.8131 0.8087 0.8044 0.7940 0.7974
1127.000000 0.8010 0.8090 0.8168 0.8219 0.8266
1132.000000 0.8302 0.8322 0.8335 0.8338 0.8336
1137.000000 0.8331 0.8355 0.8386 0.8404 0.8414
1142.000000 0.8409 0.8380 0.8392 0.8358 0.8312
1147.000000 0.8237 0.8107 0.7939 0.7664 0.7306
1152.000000 0.6949 0.6591 0.6235 0.5879 0.5524
1157.000000 0.4983 0.4331 0.3679 0.3028 0.2378
1162.000000 0.1730 0.1169 0.1006 0.0965 0.0951
1167.000000 0.0940 0.0978 0.1094 0.1446 0.1807
1172.000000 0.2166 0.2524 0.2883 0.3240 0.3596
1177.000000 0.3953 0.4308 0.4663 0.5018 0.5368
1182.000000 0.5630 0.5907 0.6259 0.6630 0.6830
1187.000000 0.6874 0.6898 0.6908 0.6887 0.6837
1192.000000 0.6681 0.6524 0.6367 0.6211 0.6055
1197.000000 0.5899 0.5744 0.5588 0.5511 0.5509
1202.000000 0.5498 0.5515 0.5522 0.5574 0.5776
1207.000000 0.6001 0.6225 0.6449 0.6673 0.6897
1212.000000 0.7120 0.7343 0.7525 0.7709 0.7834
1217.000000 0.8029 0.8145 0.8186 0.8226 0.8250
1222.000000 0.8268 0.8286 0.8301 0.8310 0.8317
1227.000000 0.8278 0.8318 0.8315 0.8307 0.8298
1232.000000 0.8290 0.8273 0.8253 0.8231 0.8208
1237.000000 0.8179 0.8148 0.8117 0.8081 0.8041
1242.000000 0.7998 0.7914 0.7828 0.7728 0.7609
1247.000000 0.7486 0.7362 0.7204 0.7025 0.6844
1252.000000 0.6665 0.6486 0.6307 0.6128 0.5950
1257.000000 0.5772 0.5594 0.5416 0.5239 0.5015
1262.000000 0.4861 0.4705 0.4454 0.3581 0.2855
1267.000000 0.2131 0.1408 0.0944 0.0825 0.0729
1272.000000 0.0660 0.0592 0.0535 0.0499 0.0485
1277.000000 0.0486 0.0473 0.0764 0.1043 0.1321
1282.000000 0.1599 0.1877 0.2154 0.2431 0.2707
1287.000000 0.2984 0.3259 0.3534 0.3809 0.4083
1292.000000 0.4357 0.4562 0.4617 0.4514 0.4433
1297.000000 0.4353 0.4273 0.4193 0.4114 0.4034
1302.000000 0.3991 0.3964 0.4099 0.4226 0.4352
1307.000000 0.4478 0.4587 0.4653 0.4392 0.4103
1312.000000 0.3815 0.3526 0.3237 0.2950 0.2663
1317.000000 0.2376 0.2090 0.1804 0.1518 0.1295
1322.000000 0.1262 0.1269 0.1382 0.1653 0.1940
1327.000000 0.2224 0.2573 0.2988 0.3420 0.3865
1332.000000 0.4310 0.4754 0.5198 0.5641 0.6045
1337.000000 0.6227 0.6353 0.6472 0.6563 0.6644
1342.000000 0.6722 0.6785 0.6846 0.6894 0.6945
1347.000000 0.7019 0.7216 0.7249 0.7280 0.7290
1352.000000 0.7293 0.7267 0.7273 0.7245 0.6945
1357.000000 0.6524 0.6102 0.5681 0.5261 0.4841
1362.000000 0.4422 0.4003 0.3585 0.3169 0.2752
1367.000000 0.2537 0.2512 0.2707 0.3071 0.3447
1372.000000 0.3823 0.4197 0.4572 0.4936 0.5008
1377.000000 0.4982 0.4901 0.4743 0.4582 0.4420
1382.000000 0.4260 0.4099 0.3909 0.3922 0.3967
1387.000000 0.4137 0.4315 0.4492 0.4669 0.4845
1392.000000 0.5022 0.5165 0.5188 0.5152 0.5097
1397.000000 0.5069 0.5148 0.5310 0.5478 0.5646
1402.000000 0.5814 0.5959 0.5936 0.5929 0.5827
1407.000000 0.5687 0.5547 0.5407 0.5268 0.5129
1412.000000 0.5010 0.4976 0.4965 0.5227 0.5459
1417.000000 0.5690 0.5921 0.6152 0.6383 0.6612
1422.000000 0.6789 0.6805 0.6788 0.6657 0.6426
1427.000000 0.6195 0.5964 0.5734 0.5504 0.5274
1432.000000 0.5045 0.4817 0.4588 0.4303 0.4211
1437.000000 0.4153 0.4095 0.4018 0.3907 0.3793
1442.000000 0.3690 0.3599 0.3526 0.3457 0.3389
1447.000000 0.3326 0.3268 0.3210 0.3151 0.3089
1452.000000 0.3024 0.2959 0.2894 0.2838 0.2813
1457.000000 0.2809 0.2808 0.2808 0.2808 0.2805
1462.000000 0.2793 0.2768 0.2756 0.2754 0.2747
1467.000000 0.2804 0.2885 0.2966 0.3046 0.3127
1472.000000 0.3207 0.3287 0.3368 0.3443 0.3461
1477.000000 0.3456 0.3480 0.3197 0.2964 0.2731
1482.000000 0.2498 0.2266 0.2033 0.1806 0.1705
1487.000000 0.1699 0.1692 0.1681 0.1717 0.1890
1492.000000 0.2136 0.2382 0.2628 0.2873 0.3118
1497.000000 0.3363 0.3601 0.3745 0.3750 0.3753
1502.000000 0.3745 0.3699 0.3518 0.3293 0.3068
1507.000000 0.2844 0.2620 0.2397 0.2173 0.1950
1512.000000 0.1727 0.1505 0.1283 0.1061 0.0839
1517.000000 0.0615 0.0182 0.0124 0.0085 0.0064
1522.000000 0.0050 0.0020 0.0043 0.0049 0.0072
1527.000000 0.0243 0.0463 0.0681 0.0900 0.1118
1532.000000 0.1336 0.1554 0.1771 0.1988 0.2164
1537.000000 0.2299 0.2463 0.2640 0.2865 0.3002
1542.000000 0.3078 0.3209 0.3439 0.3689 0.3939
1547.000000 0.4189 0.4439 0.4688 0.4937 0.5185
1552.000000 0.5433 0.5681 0.5929 0.6176 0.6423
1557.000000 0.6670 0.6916 0.7152 0.7436 0.7653
1562.000000 0.7680 0.7706 0.7731 0.7758 0.7789
1567.000000 0.7826 0.7869 0.7933 0.7978 0.8004
1572.000000 0.8019 0.8023 0.8021 0.8017 0.8042
1577.000000 0.8003 0.7990 0.7969 0.7918 0.7857
1582.000000 0.7778 0.7416 0.7021 0.6657 0.6292
1587.000000 0.5986 0.5902 0.5909 0.5917 0.6010
1592.000000 0.6139 0.6269 0.6399 0.6528 0.6658
1597.000000 0.6786 0.6915 0.7002 0.7033 0.7041
1602.000000 0.7049 0.7039 0.6934 0.6659 0.6338
1607.000000 0.6017 0.5697 0.5377 0.5058 0.4739
1612.000000 0.4420 0.4102 0.3784 0.3466 0.3149
1617.000000 0.2833 0.2516 0.2358 0.2336 0.2505
1622.000000 0.2326 0.3082 0.3381 0.3680 0.3978
1627.000000 0.4276 0.4574 0.4871 0.5168 0.5465
1632.000000 0.5761 0.6056 0.6363 0.7431 0.7569
1637.000000 0.7652 0.7734 0.7809 0.7880 0.7952
1642.000000 0.8032 0.8128 0.8239 0.8352 0.8443
1647.000000 0.8526 0.8578 0.8611 0.8644 0.8677
1652.000000 0.8709 0.8741 0.8773 0.8797 0.8810
1657.000000 0.8823 0.8835 0.8846 0.8858 0.8870
1662.000000 0.8883 0.8895 0.8908 0.8922 0.8935
1667.000000 0.8949 0.8970 0.9016 0.9066 0.9112
1672.000000 0.9143 0.9171 0.9199 0.9225 0.9249
1677.000000 0.9266 0.9277 0.9289 0.9299 0.9310
1682.000000 0.9321 0.9331 0.9339 0.9346 0.9353
1687.000000 0.9360 0.9367 0.9373 0.9377 0.9381
1692.000000 0.9385 0.9389 0.9393 0.9397 0.9400
1697.000000 0.9405 0.9408 0.9411 0.9414 0.9417
1702.000000 0.9420 0.9423 0.9426 0.9429 0.9427
1707.000000 0.9422 0.9417 0.9412 0.9406 0.9400
1712.000000 0.9395 0.9390 0.9385 0.9380 0.9375
1717.000000 0.9370 0.9364 0.9356 0.9347 0.9338
1722.000000 0.9328 0.9316 0.9305 0.9293 0.9282
1727.000000 0.9269 0.9261 0.9272 0.9283 0.9296
1732.000000 0.9310 0.9323 0.9336 0.9350 0.9362
1737.000000 0.9366 0.9366 0.9363 0.9361 0.9358
1742.000000 0.9352 0.9345 0.9339 0.9332 0.9325
1747.000000 0.9317 0.9308 0.9299 0.9291 0.9283
1752.000000 0.9273 0.9263 0.9253 0.9240 0.9223
1757.000000 0.9203 0.9183 0.9162 0.9138 0.9113
1762.000000 0.9088 0.9063 0.9053 0.9045 0.9038
1767.000000 0.9034 0.9038 0.9042 0.9047 0.9052
1772.000000 0.9058 0.9065 0.9080 0.9095 0.9111
1777.000000 0.9129 0.9159 0.9187 0.9212 0.9237
1782.000000 0.9261 0.9285 0.9316 0.9346 0.9370
1787.000000 0.9385 0.9397 0.9406 0.9414 0.9422
1792.000000 0.9433 0.9451 0.9474 0.9500 0.9527
1797.000000 0.9552 0.9565 0.9571 0.9573 0.9566
1802.000000 0.9555 0.9544 0.9533 0.9521 0.9513
1807.000000 0.9504 0.9495 0.9486 0.9483 0.9479
1812.000000 0.9475 0.9471 0.9467 0.9464 0.9460
1817.000000 0.9456 0.9456 0.9456 0.9457 0.9459
1822.000000 0.9465 0.9472 0.9479 0.9489 0.9509
1827.000000 0.9527 0.9541 0.9550 0.9556 0.9563
1832.000000 0.9569 0.9574 0.9573 0.9572 0.9568
1837.000000 0.9560 0.9543 0.9526 0.9508 0.9488
1842.000000 0.9467 0.9449 0.9434 0.9425 0.9423
1847.000000 0.9422 0.9420 0.9418 0.9412 0.9406
1852.000000 0.9401 0.9395 0.9379 0.9355 0.9324
1857.000000 0.9288 0.9201 0.9110 0.9085 0.9075
1862.000000 0.9068 0.9065 0.9065 0.9067 0.9068
1867.000000 0.9070 0.9072 0.9074 0.9077 0.9081
1872.000000 0.9086 0.9090 0.9095 0.9104 0.9113
1877.000000 0.9123 0.9147 0.9173 0.9204 0.9244
1882.000000 0.9268 0.9289 0.9311 0.9331 0.9350
1887.000000 0.9369 0.9384 0.9398 0.9411 0.9424
1892.000000 0.9436 0.9447 0.9456 0.9465 0.9474
1897.000000 0.9484 0.9502 0.9513 0.9520 0.9526
1902.000000 0.9531 0.9536 0.9540 0.9542 0.9545
1907.000000 0.9548 0.9550 0.9551 0.9553 0.9554
1912.000000 0.9555 0.9557 0.9558 0.9560 0.9561
1917.000000 0.9562 0.9564 0.9565 0.9566 0.9568
1922.000000 0.9569 0.9571 0.9573 0.9574 0.9575
1927.000000 0.9577 0.9578 0.9579 0.9580 0.9580
1932.000000 0.9580 0.9580 0.9580 0.9580 0.9580
1937.000000 0.9580 0.9580 0.9580 0.9580 0.9581
1942.000000 0.9582 0.9583 0.9585 0.9587 0.9588
1947.000000 0.9589 0.9591 0.9593 0.9594 0.9596
1952.000000 0.9598 0.9599 0.9601 0.9603 0.9604
1957.000000 0.9606 0.9607 0.9607 0.9608 0.9610
1962.000000 0.9611 0.9612 0.9613 0.9614 0.9615
1967.000000 0.9616 0.9617 0.9618 0.9618 0.9620
1972.000000 0.9621 0.9621 0.9623 0.9624 0.9624
1977.000000 0.9625 0.9626 0.9626 0.9627 0.9628
1982.000000 0.9628 0.9629 0.9630 0.9631 0.9632
1987.000000 0.9632 0.9633 0.9634 0.9634 0.9635
1992.000000 0.9635 0.9636 0.9637 0.9637 0.9638
1997.000000 0.9639 0.9640 0.9641 0.9642 0.9642
2002.000000 0.9643 0.9644 0.9645 0.9646 0.9647
2007.000000 0.9648 0.9648 0.9649 0.9650 0.9651
2012.000000 0.9652 0.9653 0.9653 0.9654 0.9655
2017.000000 0.9656 0.9657 0.9658 0.9659 0.9659
2022.000000 0.9660 0.9661 0.9662 0.9663 0.9664
2027.000000 0.9665 0.9666 0.9667 0.9668 0.9669
2032.000000 0.9670 0.9671 0.9671 0.9672 0.9674
2037.000000 0.9674 0.9675 0.9676 0.9678 0.9679
2042.000000 0.9679 0.9680 0.9681 0.9682 0.9683
2047.000000 0.9684 0.9685 0.9685 0.9686 0.9688
2052.000000 0.9689 0.9690 0.9690 0.9691 0.9691
2057.000000 0.9691 0.9692 0.9692 0.9692 0.9692
2062.000000 0.9692 0.9693 0.9693 0.9693 0.9693
2067.000000 0.9693 0.9694 0.9694 0.9694 0.9694
2072.000000 0.9694 0.9695 0.9695 0.9695 0.9695
2077.000000 0.9696 0.9696 0.9696 0.9697 0.9697
2082.000000 0.9697 0.9697 0.9699 0.9698 0.9698
2087.000000 0.9699 0.9699 0.9699 0.9699 0.9700
2092.000000 0.9700 0.9700 0.9700 0.9700 0.9701
2097.000000 0.9701 0.9701 0.9701 0.9702 0.9702
2102.000000 0.9702 0.9703 0.9703 0.9703 0.9703
2107.000000 0.9703 0.9704 0.9704 0.9704 0.9704
2112.000000 0.9705 0.9705 0.9705 0.9705 0.9706
2117.000000 0.9706 0.9706 0.9707 0.9708 0.9709
2122.000000 0.9710 0.9711 0.9712 0.9714 0.9715
2127.000000 0.9716 0.9717 0.9719 0.9720 0.9722
2132.000000 0.9724 0.9726 0.9728 0.9730 0.9732
2137.000000 0.9735 0.9738 0.9741 0.9743 0.9746
2142.000000 0.9750 0.9753 0.9755 0.9758 0.9761
2147.000000 0.9761 0.9761 0.9761 0.9760 0.9760
2152.000000 0.9759 0.9757 0.9756 0.9755 0.9753
2157.000000 0.9752 0.9750 0.9748 0.9747 0.9745
2162.000000 0.9744 0.9742 0.9740 0.9739 0.9737
2167.000000 0.9736 0.9734 0.9732 0.9731 0.9729
2172.000000 0.9728 0.9726 0.9724 0.9723 0.9722
2177.000000 0.9721 0.9720 0.9718 0.9717 0.9716
2182.000000 0.9715 0.9713 0.9711 0.9709 0.9708
2187.000000 0.9707 0.9706 0.9706 0.9705 0.9705
2192.000000 0.9704 0.9704 0.9704 0.9703 0.9703
2197.000000 0.9702 0.9702 0.9701 0.9701 0.9700
2202.000000 0.9700 0.9700 0.9700 0.9699 0.9699
2207.000000 0.9698 0.9698 0.9697 0.9697 0.9697
2212.000000 0.9697 0.9697 0.9697 0.9697 0.9697
2217.000000 0.9697 0.9697 0.9697 0.9697 0.9697
2222.000000 0.9697 0.9697 0.9697 0.9699 0.9700
2227.000000 0.9701 0.9702 0.9703 0.9704 0.9705
2232.000000 0.9706 0.9708 0.9709 0.9711 0.9712
2237.000000 0.9716 0.9719 0.9722 0.9725 0.9728
2242.000000 0.9731 0.9734 0.9737 0.9739 0.9741
2247.000000 0.9743 0.9745 0.9747 0.9749 0.9751
2252.000000 0.9753 0.9755 0.9757 0.9759 0.9761
2257.000000 0.9762 0.9762 0.9761 0.9761 0.9760
2262.000000 0.9760 0.9759 0.9759 0.9758 0.9758
2267.000000 0.9756 0.9754 0.9752 0.9749 0.9747
2272.000000 0.9745 0.9743 0.9740 0.9738 0.9736
2277.000000 0.9733 0.9730 0.9727 0.9724 0.9722
2282.000000 0.9720 0.9718 0.9716 0.9714 0.9712
2287.000000 0.9710 0.9708 0.9707 0.9706 0.9704
2292.000000 0.9704 0.9704 0.9703 0.9703 0.9702
2297.000000 0.9702 0.9702 0.9703 0.9705 0.9708
2302.000000 0.9711 0.9716 0.9720 0.9727 0.9734
2307.000000 0.9741 0.9748 0.9755 0.9762 0.9770
2312.000000 0.9777 0.9784 0.9791 0.9798 0.9805
2317.000000 0.9812 0.9819 0.9826 0.9833 0.9840
2322.000000 0.9846 0.9852 0.9858 0.9863 0.9869
2327.000000 0.9874 0.9879 0.9884 0.9890 0.9895
2332.000000 0.9901 0.9907 0.9912 0.9917 0.9922
2337.000000 0.9928 0.9933 0.9939 0.9944 0.9949
2342.000000 0.9954 0.9958 0.9963 0.9968 0.9973
2347.000000 0.9978 0.9982 0.9987 0.9992 0.9997
2352.000000 1.0001 1.0006 1.0011 1.0016 1.0020
2357.000000 1.0024 1.0028 1.0031 1.0034 1.0037
2362.000000 1.0041 1.0044 1.0047 1.0050 1.0053
2367.000000 1.0056 1.0059 1.0062 1.0065 1.0068
2372.000000 1.0069 1.0050 1.0031 1.0009 0.9987
2377.000000 0.9965 0.9943 0.9921 0.9899 0.9876
2382.000000 0.9854 0.9832 0.9810 0.9788 0.9766
2387.000000 0.9744 0.9723 0.9701 0.9679 0.9657
2392.000000 0.9635 0.9613 0.9591 0.9570 0.9548
2397.000000 0.9526 0.9504 0.9483 0.9465 0.9448
2402.000000 0.9439 0.9438 0.9438 0.9438 0.9438
2407.000000 0.9440 0.9442 0.9445 0.9448 0.9451
2412.000000 0.9454 0.9457 0.9461 0.9466 0.9470
2417.000000 0.9474 0.9478 0.9483 0.9487 0.9491
2422.000000 0.9495 0.9500 0.9505 0.9509 0.9514
2427.000000 0.9519 0.9523 0.9527 0.9531 0.9536
2432.000000 0.9540 0.9543 0.9547 0.9550 0.9553
2437.000000 0.9557 0.9560 0.9563 0.9567 0.9570
2442.000000 0.9573 0.9577 0.9580 0.9584 0.9587
2447.000000 0.9590 0.9594 0.9597 0.9600 0.9603
2452.000000 0.9605 0.9607 0.9609 0.9612 0.9614
2457.000000 0.9616 0.9618 0.9620 0.9623 0.9625
2462.000000 0.9627 0.9629 0.9631 0.9634 0.9635
2467.000000 0.9636 0.9638 0.9639 0.9640 0.9641
2472.000000 0.9642 0.9643 0.9644 0.9645 0.9646
2477.000000 0.9648 0.9649 0.9650 0.9651 0.9653
2482.000000 0.9654 0.9655 0.9656 0.9656 0.9658
2487.000000 0.9659 0.9660 0.9661 0.9661 0.9662
2492.000000 0.9663 0.9664 0.9665 0.9665 0.9666
2497.000000 0.9667 0.9668 0.9669 0.9671 0.9671
2502.000000 0.9672 0.9673 0.9674 0.9674 0.9675
2507.000000 0.9676 0.9677 0.9677 0.9677 0.9678
2512.000000 0.9678 0.9679 0.9679 0.9679 0.9679
2517.000000 0.9679 0.9680 0.9680 0.9680 0.9680
2522.000000 0.9680 0.9680 0.9680 0.9680 0.9681
2527.000000 0.9681 0.9681 0.9681 0.9681 0.9680
2532.000000 0.9678 0.9676 0.9674 0.9671 0.9668
2537.000000 0.9666 0.9664 0.9661 0.9658 0.9656
2542.000000 0.9653 0.9651 0.9648 0.9646 0.9643
2547.000000 0.9641 0.9638 0.9636 0.9633 0.9631
2552.000000 0.9625 0.9619 0.9613 0.9607 0.9601
2557.000000 0.9595 0.9589 0.9582 0.9576 0.9569
2562.000000 0.9562 0.9554 0.9547 0.9540 0.9533
2567.000000 0.9525 0.9518 0.9510 0.9502 0.9494
2572.000000 0.9486 0.9477 0.9468 0.9458 0.9449
2577.000000 0.9440 0.9430 0.9421 0.9412 0.9403
2582.000000 0.9394 0.9385 0.9376 0.9366 0.9357
2587.000000 0.9347 0.9337 0.9328 0.9319 0.9309
2592.000000 0.9300 0.9290 0.9281 0.9271 0.9262
2597.000000 0.9255 0.9248 0.9242 0.9239 0.9236
2602.000000 0.9233 0.9229 0.9226 0.9223 0.9219
2607.000000 0.9216 0.9213 0.9210 0.9209 0.9210
2612.000000 0.9210 0.9211 0.9213 0.9214 0.9220
2617.000000 0.9226 0.9232 0.9237 0.9243 0.9249
2622.000000 0.9255 0.9262 0.9268 0.9275 0.9282
2627.000000 0.9289 0.9297 0.9305 0.9318 0.9330
2632.000000 0.9343 0.9355 0.9368 0.9379 0.9390
2637.000000 0.9400 0.9411 0.9421 0.9431 0.9441
2642.000000 0.9450 0.9459 0.9467 0.9475 0.9479
2647.000000 0.9479 0.9479 0.9478 0.9478 0.9478
2652.000000 0.9477 0.9477 0.9476 0.9476 0.9476
2657.000000 0.9475 0.9473 0.9471 0.9469 0.9466
2662.000000 0.9464 0.9462 0.9460 0.9457 0.9455
2667.000000 0.9453 0.9451 0.9448 0.9444 0.9441
2672.000000 0.9437 0.9432 0.9428 0.9423 0.9418
2677.000000 0.9414 0.9409 0.9404 0.9399 0.9394
2682.000000 0.9389 0.9383 0.9378 0.9373 0.9368
2687.000000 0.9363 0.9357 0.9351 0.9345 0.9339
2692.000000 0.9332 0.9324 0.9317 0.9310 0.9303
2697.000000 0.9295 0.9288 0.9280 0.9272 0.9263
2702.000000 0.9255 0.9246 0.9237 0.9229 0.9219
2707.000000 0.9209 0.9198 0.9186 0.9172 0.9159
2712.000000 0.9146 0.9134 0.9121 0.9109 0.9097
2717.000000 0.9085 0.9073 0.9061 0.9049 0.9037
2722.000000 0.9025 0.9013 0.9002 0.8991 0.8980
2727.000000 0.8969 0.8957 0.8946 0.8936 0.8925
2732.000000 0.8914 0.8903 0.8892 0.8881 0.8872
2737.000000 0.8863 0.8854 0.8845 0.8837 0.8828
2742.000000 0.8820 0.8812 0.8804 0.8796 0.8788
2747.000000 0.8780 0.8771 0.8763 0.8755 0.8747
2752.000000 0.8740 0.8733 0.8728 0.8723 0.8719
2757.000000 0.8715 0.8710 0.8706 0.8702 0.8698
2762.000000 0.8693 0.8691 0.8689 0.8688 0.8688
2767.000000 0.8689 0.8690 0.8691 0.8692 0.8694
2772.000000 0.8695 0.8697 0.8699 0.8702 0.8706
2777.000000 0.8711 0.8715 0.8720 0.8724 0.8728
2782.000000 0.8732 0.8736 0.8740 0.8743 0.8747
2787.000000 0.8750 0.8753 0.8755 0.8757 0.8757
2792.000000 0.8756 0.8756 0.8753 0.8749 0.8745
2797.000000 0.8729 0.8704 0.8679 0.8652 0.8621
2802.000000 0.8590 0.8559 0.8529 0.8498 0.8467
2807.000000 0.8434 0.8400 0.8367 0.8340 0.8313
2812.000000 0.8286 0.8261 0.8236 0.8211 0.8187
2817.000000 0.8162 0.8138 0.8112 0.8085 0.8058
2822.000000 0.8030 0.7999 0.7969 0.7939 0.7910
2827.000000 0.7880 0.7850 0.7820 0.7791 0.7761
2832.000000 0.7729 0.7696 0.7664 0.7630 0.7596
2837.000000 0.7561 0.7527 0.7493 0.7459 0.7420
2842.000000 0.7341 0.7263 0.7184 0.7107 0.7031
2847.000000 0.6955 0.6883 0.6813 0.6743 0.6672
2852.000000 0.6600 0.6527 0.6422 0.6074 0.5727
2857.000000 0.5379 0.5180 0.5005 0.4830 0.4655
2862.000000 0.4480 0.4306 0.4131 0.3957 0.3783
2867.000000 0.3609 0.3435 0.3262 0.3088 0.2915
2872.000000 0.2741 0.2568 0.2395 0.2222 0.2049
2877.000000 0.1883 0.1768 0.1652 0.1536 0.1511
2882.000000 0.1507 0.1503 0.1499 0.1496 0.1494
2887.000000 0.1491 0.1488 0.1486 0.1483 0.1480
2892.000000 0.1478 0.1475 0.1473 0.1471 0.1469
2897.000000 0.1467 0.1465 0.1464 0.1462 0.1460
2902.000000 0.1459 0.1457 0.1456 0.1454 0.1452
2907.000000 0.1449 0.1446 0.1442 0.1439 0.1430
2912.000000 0.1419 0.1408 0.1397 0.1389 0.1381
2917.000000 0.1373 0.1368 0.1363 0.1359 0.1356
2922.000000 0.1354 0.1353 0.1351 0.1351 0.1351
2927.000000 0.1351 0.1350 0.1350 0.1350 0.1349
2932.000000 0.1348 0.1348 0.1347 0.1341 0.1333
2937.000000 0.1326 0.1310 0.1273 0.1237 0.1200
2942.000000 0.1162 0.1123 0.1084 0.1046 0.1007
2947.000000 0.0969 0.0931 0.0893 0.0854 0.0816
2952.000000 0.0778 0.0740 0.0702 0.0664 0.0626
2957.000000 0.0588 0.0550 0.0512 0.0474 0.0436
2962.000000 0.0398 0.0382 0.0368 0.0354 0.0352
2967.000000 0.0348 0.0350 0.0351 0.0387 0.0427
2972.000000 0.0467 0.0532 0.0643 0.0754 0.0864
2977.000000 0.0975 0.1085 0.1195 0.1305 0.1415
2982.000000 0.1525 0.1635 0.1745 0.1855 0.1964
2987.000000 0.2074 0.2184 0.2294 0.2403 0.2513
2992.000000 0.2622 0.2731 0.2840 0.2949 0.3058
2997.000000 0.3167 0.3276 0.3384 0.3493 0.3602
3002.000000 0.3710 0.3819 0.3927 0.4035 0.4144
3007.000000 0.4252 0.4361 0.4469 0.4577 0.4684
3012.000000 0.4792 0.4900 0.5008 0.5115 0.5223
3017.000000 0.5330 0.5437 0.5545 0.5604 0.5639
3022.000000 0.5675 0.5710 0.5718 0.5727 0.5735
3027.000000 0.5744 0.5752 0.5760 0.5769 0.5777
3032.000000 0.5786 0.5794 0.5803 0.5815 0.5827
3037.000000 0.5839 0.5851 0.5864 0.5877 0.5891
3042.000000 0.5901 0.5910 0.5918 0.5927 0.5935
3047.000000 0.5943 0.5951 0.5959 0.5966 0.5974
3052.000000 0.5981 0.5988 0.5995 0.6002 0.6009
3057.000000 0.6016 0.6024 0.6032 0.6040 0.6049
3062.000000 0.6058 0.6067 0.6077 0.6089 0.6101
3067.000000 0.6113 0.6126 0.6140 0.6154 0.6168
3072.000000 0.6189 0.6213 0.6236 0.6260 0.6363
3077.000000 0.6468 0.6573 0.6669 0.6721 0.6772
3082.000000 0.6824 0.6883 0.6953 0.7024 0.7094
3087.000000 0.7159 0.7219 0.7280 0.7340 0.7379
3092.000000 0.7411 0.7443 0.7476 0.7507 0.7539
3097.000000 0.7571 0.7602 0.7628 0.7653 0.7679
3102.000000 0.7703 0.7724 0.7745 0.7766 0.7787
3107.000000 0.7808 0.7828 0.7849 0.7874 0.7902
3112.000000 0.7930 0.7957 0.7995 0.8038 0.8080
3117.000000 0.8123 0.8237 0.8370 0.8503 0.8636
3122.000000 0.8671 0.8694 0.8718 0.8742 0.8760
3127.000000 0.8779 0.8797 0.8816 0.8833 0.8849
3132.000000 0.8866 0.8882 0.8900 0.8917 0.8934
3137.000000 0.8952 0.8971 0.8990 0.9008 0.9025
3142.000000 0.9038 0.9051 0.9064 0.9075 0.9081
3147.000000 0.9088 0.9094 0.9100 0.9105 0.9111
3152.000000 0.9116 0.9120 0.9125 0.9130 0.9135
3157.000000 0.9140 0.9144 0.9149 0.9154 0.9159
3162.000000 0.9163 0.9168 0.9173 0.9177 0.9182
3167.000000 0.9186 0.9190 0.9193 0.9196 0.9198
3172.000000 0.9200 0.9202 0.9205 0.9207 0.9209
3177.000000 0.9211 0.9214 0.9216 0.9219 0.9221
3182.000000 0.9223 0.9226 0.9228 0.9230 0.9232
3187.000000 0.9235 0.9237 0.9239 0.9241 0.9242
3192.000000 0.9244 0.9246 0.9248 0.9250 0.9252
3197.000000 0.9254 0.9255 0.9257 0.9259 0.9260
3202.000000 0.9262 0.9264 0.9266 0.9267 0.9269
3207.000000 0.9271 0.9272 0.9274 0.9275 0.9277
3212.000000 0.9278 0.9279 0.9280 0.9281 0.9283
3217.000000 0.9284 0.9285 0.9286 0.9288 0.9289
3222.000000 0.9290 0.9291 0.9292 0.9294 0.9295
3227.000000 0.9296 0.9297 0.9298 0.9300 0.9300
3232.000000 0.9301 0.9302 0.9302 0.9303 0.9304
3237.000000 0.9305 0.9305 0.9308 0.9311 0.9314
3242.000000 0.9318 0.9321 0.9325 0.9329 0.9333
3247.000000 0.9338 0.9346 0.9354 0.9362 0.9371
3252.000000 0.9377 0.9382 0.9388 0.9394 0.9399
3257.000000 0.9404 0.9409 0.9414 0.9419 0.9425
3262.000000 0.9430 0.9435 0.9439 0.9443 0.9446
3267.000000 0.9449 0.9453 0.9455 0.9457 0.9459
3272.000000 0.9461 0.9463 0.9465 0.9467 0.9468
3277.000000 0.9470 0.9473 0.9475 0.9477 0.9479
3282.000000 0.9481 0.9483 0.9485 0.9487 0.9488
3287.000000 0.9489 0.9490 0.9491 0.9492 0.9492
3292.000000 0.9493 0.9493 0.9494 0.9494 0.9494
3297.000000 0.9494 0.9494 0.9495 0.9495 0.9495
3302.000000 0.9495 0.9496 0.9496 0.9497 0.9497
3307.000000 0.9498 0.9498 0.9498 0.9498 0.9498
3312.000000 0.9498 0.9497 0.9496 0.9495 0.9494
3317.000000 0.9494 0.9493 0.9492 0.9492 0.9517
3322.000000 0.9490 0.9489 0.9489 0.9488 0.9487
3327.000000 0.9487 0.9486 0.9485 0.9484 0.9483
3332.000000 0.9481 0.9480 0.9478 0.9476 0.9474
3337.000000 0.9472 0.9470 0.9468 0.9466 0.9464
3342.000000 0.9462 0.9460 0.9458 0.9457 0.9455
3347.000000 0.9453 0.9449 0.9445 0.9442 0.9438
3352.000000 0.9433 0.9426 0.9420 0.9414 0.9407
3357.000000 0.9400 0.9393 0.9386 0.9379 0.9371
3362.000000 0.9363 0.9354 0.9346 0.9337 0.9328
3367.000000 0.9319 0.9310 0.9301 0.9290 0.9278
3372.000000 0.9266 0.9253 0.9241 0.9229 0.9217
3377.000000 0.9205 0.9193 0.9172 0.9145 0.9119
3382.000000 0.9092 0.9064 0.9014 0.8964 0.8913
3387.000000 0.8863 0.8813 0.8763 0.8714 0.8664
3392.000000 0.8614 0.8564 0.8514 0.8464 0.8414
3397.000000 0.8365 0.8315 0.8265 0.8215 0.8165
3402.000000 0.8116 0.8066 0.8017 0.7968 0.7918
3407.000000 0.7869 0.7819 0.7770 0.7720 0.7671
3412.000000 0.7621 0.7572 0.7523 0.7473 0.7424
3417.000000 0.7375 0.7326 0.7276 0.7227 0.7178
3422.000000 0.7129 0.7081 0.7032 0.6989 0.6957
3427.000000 0.6925 0.6893 0.6862 0.6851 0.6852
3432.000000 0.6853 0.6854 0.6854 0.6858 0.6863
3437.000000 0.6867 0.6871 0.6848 0.6940 0.6994
3442.000000 0.7047 0.7101 0.7155 0.7209 0.7262
3447.000000 0.7316 0.7370 0.7423 0.7477 0.7531
3452.000000 0.7585 0.7638 0.7692 0.7745 0.7799
3457.000000 0.7852 0.7905 0.7959 0.8012 0.8065
3462.000000 0.8118 0.8172 0.8225 0.8278 0.8331
3467.000000 0.8384 0.8437 0.8490 0.8543 0.8596
3472.000000 0.8649 0.8702 0.8754 0.8807 0.8860
3477.000000 0.8913 0.8945 0.8975 0.9006 0.9037
3482.000000 0.9066 0.9080 0.9095 0.9109 0.9124
3487.000000 0.9138 0.9151 0.9164 0.9177 0.9189
3492.000000 0.9202 0.9212 0.9223 0.9233 0.9244
3497.000000 0.9254 0.9263 0.9271 0.9280 0.9289
3502.000000 0.9298 0.9307 0.9315 0.9324 0.9333
3507.000000 0.9341 0.9349 0.9356 0.9364 0.9372
3512.000000 0.9379 0.9387 0.9395 0.9402 0.9410
3517.000000 0.9417 0.9424 0.9431 0.9438 0.9445
3522.000000 0.9449 0.9454 0.9458 0.9463 0.9467
3527.000000 0.9472 0.9476 0.9481 0.9486 0.9490
3532.000000 0.9495 0.9499 0.9503 0.9508 0.9512
3537.000000 0.9516 0.9521 0.9525 0.9529 0.9533
3542.000000 0.9536 0.9539 0.9542 0.9545 0.9548
3547.000000 0.9551 0.9554 0.9557 0.9559 0.9562
3552.000000 0.9565 0.9568 0.9570 0.9573 0.9576
3557.000000 0.9579 0.9582 0.9585 0.9588 0.9591
3562.000000 0.9595 0.9600 0.9606 0.9611 0.9616
3567.000000 0.9622 0.9628 0.9634 0.9640 0.9646
3572.000000 0.9651 0.9654 0.9658 0.9661 0.9665
3577.000000 0.9668 0.9670 0.9673 0.9675 0.9678
3582.000000 0.9680 0.9683 0.9685 0.9688 0.9690
3587.000000 0.9693 0.9696 0.9698 0.9701 0.9703
3592.000000 0.9706 0.9708 0.9709 0.9711 0.9713
3597.000000 0.9715 0.9717 0.9718 0.9720 0.9721
3602.000000 0.9723 0.9725 0.9726 0.9728 0.9729
3607.000000 0.9731 0.9732 0.9734 0.9736 0.9738
3612.000000 0.9739 0.9741 0.9743 0.9744 0.9746
3617.000000 0.9748 0.9750 0.9751 0.9753 0.9755
3622.000000 0.9756 0.9758 0.9760 0.9761 0.9763
3627.000000 0.9764 0.9766 0.9767 0.9769 0.9770
3632.000000 0.9771 0.9773 0.9774 0.9775 0.9777
3637.000000 0.9778 0.9779 0.9780 0.9782 0.9783
3642.000000 0.9784 0.9785 0.9786 0.9786 0.9786
3647.000000 0.9786 0.9786 0.9786 0.9785 0.9785
3652.000000 0.9785 0.9784 0.9784 0.9784 0.9784
3657.000000 0.9784 0.9784 0.9784 0.9784 0.9784
3662.000000 0.9784 0.9784 0.9784 0.9784 0.9784
3667.000000 0.9784 0.9784 0.9784 0.9784 0.9784
3672.000000 0.9784 0.9784 0.9784 0.9784 0.9784
3677.000000 0.9784 0.9784 0.9784 0.9784 0.9784
3682.000000 0.9784 0.9784 0.9784 0.9784 0.9784
3687.000000 0.9784 0.9780 0.9785 0.9785 0.9786
3692.000000 0.9786 0.9787 0.9787 0.9787 0.9787
3697.000000 0.9787 0.9787 0.9788 0.9788 0.9789
3702.000000 0.9789 0.9789 0.9790 0.9790 0.9790
3707.000000 0.9791 0.9791 0.9791 0.9792 0.9792
3712.000000 0.9793 0.9793 0.9793 0.9794 0.9794
3717.000000 0.9794 0.9795 0.9795 0.9795 0.9796
3722.000000 0.9797 0.9798 0.9799 0.9800 0.9801
3727.000000 0.9802 0.9802 0.9803 0.9804 0.9805
3732.000000 0.9806 0.9807 0.9808 0.9809 0.9810
3737.000000 0.9811 0.9811 0.9812 0.9813 0.9813
3742.000000 0.9814 0.9813 0.9809 0.9806 0.9803
3747.000000 0.9799 0.9796 0.9790 0.9783 0.9777
3752.000000 0.9770 0.9763 0.9757 0.9751 0.9745
3757.000000 0.9739 0.9733 0.9727 0.9721 0.9715
3762.000000 0.9709 0.9703 0.9697 0.9691 0.9682
3767.000000 0.9673 0.9664 0.9655 0.9646 0.9638
3772.000000 0.9633 0.9628 0.9622 0.9617 0.9612
3777.000000 0.9606 0.9601 0.9596 0.9590 0.9585
3782.000000 0.9579 0.9575 0.9570 0.9566 0.9561
3787.000000 0.9556 0.9552 0.9549 0.9545 0.9542
3792.000000 0.9539 0.9536 0.9532 0.9529 0.9526
3797.000000 0.9523 0.9520 0.9517 0.9516 0.9516
3802.000000 0.9516 0.9516 0.9516 0.9516 0.9517
3807.000000 0.9518 0.9519 0.9521 0.9522 0.9524
3812.000000 0.9525 0.9526 0.9528 0.9529 0.9530
3817.000000 0.9532 0.9534 0.9536 0.9538 0.9539
3822.000000 0.9541 0.9544 0.9546 0.9549 0.9552
3827.000000 0.9554 0.9557 0.9560 0.9564 0.9567
3832.000000 0.9570 0.9574 0.9577 0.9581 0.9584
3837.000000 0.9587 0.9590 0.9593 0.9597 0.9599
3842.000000 0.9602 0.9604 0.9607 0.9610 0.9612
3847.000000 0.9615 0.9617 0.9620 0.9622 0.9625
3852.000000 0.9627 0.9629 0.9630 0.9631 0.9633
3857.000000 0.9634 0.9635 0.9636 0.9636 0.9636
3862.000000 0.9636 0.9636 0.9636 0.9636 0.9636
3867.000000 0.9636 0.9636 0.9636 0.9635 0.9635
3872.000000 0.9635 0.9635 0.9635 0.9635 0.9634
3877.000000 0.9634 0.9633 0.9632 0.9631 0.9630
3882.000000 0.9629 0.9629 0.9628 0.9627 0.9626
3887.000000 0.9625 0.9625 0.9622 0.9620 0.9618
3892.000000 0.9616 0.9614 0.9612 0.9609 0.9607
3897.000000 0.9604 0.9602 0.9599 0.9597 0.9595
3902.000000 0.9592 0.9590 0.9588 0.9585 0.9583
3907.000000 0.9581 0.9578 0.9576 0.9573 0.9571
3912.000000 0.9568 0.9566 0.9563 0.9561 0.9559
3917.000000 0.9556 0.9554 0.9551 0.9549 0.9547
3922.000000 0.9545 0.9542 0.9540 0.9537 0.9534
3927.000000 0.9530 0.9527 0.9523 0.9519 0.9516
3932.000000 0.9513 0.9509 0.9506 0.9503 0.9500
3937.000000 0.9497 0.9495 0.9493 0.9491 0.9489
3942.000000 0.9487 0.9485 0.9483 0.9482 0.9480
3947.000000 0.9479 0.9478 0.9476 0.9476 0.9476
3952.000000 0.9476 0.9476 0.9476 0.9476 0.9476
3957.000000 0.9476 0.9476 0.9476 0.9476 0.9476
3962.000000 0.9476 0.9476 0.9476 0.9476 0.9477
3967.000000 0.9477 0.9477 0.9478 0.9478 0.9478
3972.000000 0.9478 0.9478 0.9478 0.9479 0.9479
3977.000000 0.9479 0.9480 0.9480 0.9480 0.9481
3982.000000 0.9481 0.9481 0.9482 0.9482 0.9483
3987.000000 0.9483 0.9484 0.9484 0.9485 0.9485
3992.000000 0.9486 0.9486 0.9487 0.9487 0.9488
3997.000000 0.9488 0.9489 0.9489 0.9490
##END=
