##TITLE=2-PROPANESULFONIC ACID, 2-HYDROXY-,SODIUM SALT
##JCAMP-DX=4.24
$$ By DXEDIT 1.05 (RS McDonald)
##DATA TYPE=INFRARED SPECTRUM
##CLASS=COBLENTZ III
##ORIGIN=DOW CHEMICAL COMPANY
##OWNER=COBLENTZ SOC.
Collection (C) 2018 copyright by the U.S. Secretary of Commerce
on behalf of the United States of America. All rights reserved.
##DATE=1963/03/14
##MOLFORM=C3 H7 Na O4 S
##SOURCE REFERENCE=COBLENTZ NO. 05728
##$NIST ID=B6005728
##$NIST SOURCE=COBLENTZ
##$NIST IMAGE=cob5728
##SPECTROMETER/DATA SYSTEM=DOW KBr FOREPRISM-GRATING
##INSTRUMENT PARAMETERS=BLAZED AT 3.5, 12.0, 20.0 MICRON AND CHANGED AT 5.0, 7.5, 14.9 MICRON
##STATE=SOLID (SPLIT MULL)
##SAMPLING PROCEDURE=TRANSMISSION
##RESOLUTION=2
##DATA PROCESSING=DIGITIZED BY COBLENTZ SOCIETY (BATCH I) FROM HARD COPY
##XUNITS=1/CM
##YUNITS=TRANSMITTANCE
##XLABEL=Wavenumbers (cm-1)
##YLABEL=% Transmission
##XFACTOR=1
##YFACTOR=1
##DELTAX=1
##FIRSTX=3800
##LASTX=380
##FIRSTY=0.8744
##MAXX=3800
##MINX=380
##MAXY=0.9313
##MINY=0.0183
##NPOINTS=3421
##XYDATA=(X++(Y..Y))
3800.000000 0.8744 0.8744 0.8744 0.8744 0.8744
3795.000000 0.8744 0.8744 0.8744 0.8744 0.8744
3790.000000 0.8744 0.8744 0.8744 0.8744 0.8744
3785.000000 0.8744 0.8744 0.8744 0.8744 0.8744
3780.000000 0.8744 0.8744 0.8744 0.8744 0.8744
3775.000000 0.8743 0.8743 0.8743 0.8743 0.8743
3770.000000 0.8743 0.8743 0.8743 0.8743 0.8743
3765.000000 0.8743 0.8743 0.8743 0.8743 0.8743
3760.000000 0.8743 0.8743 0.8743 0.8743 0.8743
3755.000000 0.8743 0.8743 0.8743 0.8743 0.8743
3750.000000 0.8743 0.8742 0.8742 0.8742 0.8742
3745.000000 0.8742 0.8742 0.8742 0.8742 0.8741
3740.000000 0.8741 0.8742 0.8743 0.8743 0.8744
3735.000000 0.8745 0.8746 0.8746 0.8747 0.8747
3730.000000 0.8748 0.8749 0.8750 0.8750 0.8751
3725.000000 0.8752 0.8754 0.8755 0.8757 0.8758
3720.000000 0.8760 0.8762 0.8764 0.8765 0.8767
3715.000000 0.8768 0.8771 0.8773 0.8775 0.8777
3710.000000 0.8778 0.8781 0.8783 0.8785 0.8787
3705.000000 0.8789 0.8791 0.8793 0.8796 0.8798
3700.000000 0.8800 0.8800 0.8800 0.8797 0.8795
3695.000000 0.8792 0.8790 0.8787 0.8784 0.8781
3690.000000 0.8778 0.8775 0.8771 0.8768 0.8765
3685.000000 0.8761 0.8758 0.8755 0.8752 0.8748
3680.000000 0.8745 0.8741 0.8738 0.8735 0.8732
3675.000000 0.8728 0.8727 0.8724 0.8721 0.8718
3670.000000 0.8717 0.8714 0.8712 0.8711 0.8711
3665.000000 0.8710 0.8709 0.8708 0.8708 0.8707
3660.000000 0.8706 0.8705 0.8705 0.8704 0.8703
3655.000000 0.8702 0.8702 0.8701 0.8700 0.8699
3650.000000 0.8699 0.8698 0.8698 0.8697 0.8697
3645.000000 0.8696 0.8696 0.8695 0.8695 0.8694
3640.000000 0.8694 0.8693 0.8693 0.8693 0.8693
3635.000000 0.8692 0.8692 0.8691 0.8691 0.8690
3630.000000 0.8690 0.8689 0.8689 0.8688 0.8688
3625.000000 0.8687 0.8687 0.8686 0.8686 0.8685
3620.000000 0.8685 0.8684 0.8684 0.8683 0.8683
3615.000000 0.8682 0.8682 0.8680 0.8678 0.8677
3610.000000 0.8675 0.8674 0.8671 0.8670 0.8668
3605.000000 0.8667 0.8665 0.8663 0.8661 0.8659
3600.000000 0.8658 0.8656 0.8654 0.8651 0.8649
3595.000000 0.8646 0.8644 0.8641 0.8638 0.8635
3590.000000 0.8633 0.8630 0.8627 0.8621 0.8616
3585.000000 0.8610 0.8605 0.8599 0.8594 0.8589
3580.000000 0.8584 0.8578 0.8573 0.8567 0.8561
3575.000000 0.8554 0.8548 0.8542 0.8536 0.8528
3570.000000 0.8523 0.8520 0.8517 0.8516 0.8515
3565.000000 0.8514 0.8514 0.8513 0.8513 0.8513
3560.000000 0.8513 0.8513 0.8513 0.8513 0.8514
3555.000000 0.8514 0.8514 0.8514 0.8514 0.8514
3550.000000 0.8514 0.8514 0.8515 0.8515 0.8515
3545.000000 0.8513 0.8512 0.8511 0.8510 0.8509
3540.000000 0.8508 0.8507 0.8506 0.8505 0.8504
3535.000000 0.8502 0.8501 0.8500 0.8499 0.8498
3530.000000 0.8497 0.8495 0.8494 0.8490 0.8487
3525.000000 0.8484 0.8481 0.8477 0.8474 0.8471
3520.000000 0.8468 0.8464 0.8461 0.8458 0.8455
3515.000000 0.8451 0.8448 0.8445 0.8442 0.8438
3510.000000 0.8435 0.8431 0.8428 0.8424 0.8421
3505.000000 0.8416 0.8411 0.8406 0.8401 0.8396
3500.000000 0.8392 0.8387 0.8382 0.8377 0.8371
3495.000000 0.8367 0.8362 0.8357 0.8352 0.8347
3490.000000 0.8342 0.8337 0.8332 0.8327 0.8321
3485.000000 0.8317 0.8312 0.8307 0.8302 0.8297
3480.000000 0.8292 0.8286 0.8281 0.8273 0.8266
3475.000000 0.8257 0.8249 0.8241 0.8233 0.8224
3470.000000 0.8216 0.8208 0.8200 0.8191 0.8183
3465.000000 0.8175 0.8167 0.8158 0.8150 0.8141
3460.000000 0.8132 0.8122 0.8114 0.8104 0.8095
3455.000000 0.8085 0.8075 0.8065 0.8057 0.8048
3450.000000 0.8039 0.8028 0.8019 0.8008 0.7999
3445.000000 0.7985 0.7971 0.7957 0.7943 0.7928
3440.000000 0.7914 0.7900 0.7886 0.7871 0.7858
3435.000000 0.7843 0.7828 0.7815 0.7801 0.7785
3430.000000 0.7768 0.7753 0.7737 0.7721 0.7705
3425.000000 0.7689 0.7672 0.7656 0.7640 0.7621
3420.000000 0.7603 0.7576 0.7551 0.7526 0.7501
3415.000000 0.7475 0.7451 0.7424 0.7397 0.7365
3410.000000 0.7336 0.7305 0.7275 0.7244 0.7214
3405.000000 0.7178 0.7143 0.7101 0.7060 0.7018
3400.000000 0.6975 0.6932 0.6889 0.6822 0.6758
3395.000000 0.6701 0.6644 0.6611 0.6580 0.6547
3390.000000 0.6515 0.6483 0.6451 0.6421 0.6392
3385.000000 0.6360 0.6331 0.6301 0.6271 0.6241
3380.000000 0.6210 0.6195 0.6179 0.6165 0.6151
3375.000000 0.6136 0.6122 0.6107 0.6093 0.6078
3370.000000 0.6064 0.6047 0.6030 0.6010 0.5992
3365.000000 0.5973 0.5954 0.5935 0.5916 0.5896
3360.000000 0.5877 0.5847 0.5818 0.5788 0.5758
3355.000000 0.5728 0.5699 0.5664 0.5629 0.5593
3350.000000 0.5558 0.5522 0.5487 0.5445 0.5404
3345.000000 0.5344 0.5285 0.5225 0.5166 0.4916
3340.000000 0.4667 0.4594 0.4521 0.4477 0.4433
3335.000000 0.4362 0.4293 0.4183 0.4074 0.3972
3330.000000 0.3871 0.3678 0.3486 0.3294 0.3102
3325.000000 0.2910 0.2718 0.2525 0.2333 0.2141
3320.000000 0.1949 0.1844 0.1723 0.1735 0.1732
3315.000000 0.1734 0.1735 0.1744 0.1753 0.1765
3310.000000 0.1777 0.1917 0.2058 0.2237 0.2417
3305.000000 0.2597 0.2777 0.2957 0.3137 0.3316
3300.000000 0.3497 0.3656 0.3816 0.3894 0.3973
3295.000000 0.4049 0.4126 0.4202 0.4278 0.4351
3290.000000 0.4424 0.4478 0.4533 0.4587 0.4642
3285.000000 0.4696 0.4750 0.4792 0.4834 0.4866
3280.000000 0.4899 0.4931 0.4964 0.4996 0.5029
3275.000000 0.5060 0.5094 0.5126 0.5159 0.5192
3270.000000 0.5225 0.5258 0.5291 0.5324 0.5358
3265.000000 0.5391 0.5424 0.5457 0.5491 0.5524
3260.000000 0.5558 0.5591 0.5624 0.5657 0.5690
3255.000000 0.5723 0.5756 0.5789 0.5823 0.5856
3250.000000 0.5889 0.5918 0.5947 0.5973 0.6000
3245.000000 0.6027 0.6054 0.6081 0.6108 0.6134
3240.000000 0.6160 0.6187 0.6212 0.6239 0.6265
3235.000000 0.6291 0.6317 0.6344 0.6371 0.6398
3230.000000 0.6425 0.6478 0.6532 0.6585 0.6639
3225.000000 0.6692 0.6745 0.6798 0.6851 0.6897
3220.000000 0.6943 0.6965 0.6987 0.7008 0.7031
3215.000000 0.7053 0.7075 0.7097 0.7118 0.7139
3210.000000 0.7160 0.7178 0.7199 0.7218 0.7238
3205.000000 0.7257 0.7275 0.7295 0.7315 0.7333
3200.000000 0.7351 0.7368 0.7387 0.7405 0.7422
3195.000000 0.7441 0.7458 0.7476 0.7495 0.7512
3190.000000 0.7531 0.7549 0.7567 0.7584 0.7601
3185.000000 0.7618 0.7635 0.7651 0.7668 0.7684
3180.000000 0.7700 0.7715 0.7733 0.7749 0.7765
3175.000000 0.7782 0.7799 0.7815 0.7831 0.7845
3170.000000 0.7858 0.7871 0.7885 0.7898 0.7911
3165.000000 0.7925 0.7938 0.7951 0.7964 0.7976
3160.000000 0.7990 0.8003 0.8017 0.8028 0.8041
3155.000000 0.8051 0.8062 0.8074 0.8086 0.8097
3150.000000 0.8108 0.8118 0.8131 0.8142 0.8153
3145.000000 0.8164 0.8175 0.8187 0.8198 0.8209
3140.000000 0.8220 0.8228 0.8238 0.8247 0.8256
3135.000000 0.8265 0.8274 0.8283 0.8292 0.8301
3130.000000 0.8310 0.8318 0.8328 0.8336 0.8345
3125.000000 0.8351 0.8358 0.8364 0.8370 0.8375
3120.000000 0.8383 0.8389 0.8396 0.8402 0.8409
3115.000000 0.8415 0.8421 0.8425 0.8428 0.8431
3110.000000 0.8435 0.8438 0.8441 0.8444 0.8447
3105.000000 0.8450 0.8453 0.8456 0.8459 0.8462
3100.000000 0.8465 0.8468 0.8471 0.8475 0.8478
3095.000000 0.8481 0.8485 0.8488 0.8491 0.8494
3090.000000 0.8498 0.8501 0.8504 0.8507 0.8510
3085.000000 0.8514 0.8518 0.8521 0.8525 0.8530
3080.000000 0.8534 0.8538 0.8542 0.8545 0.8549
3075.000000 0.8553 0.8557 0.8560 0.8564 0.8567
3070.000000 0.8570 0.8573 0.8575 0.8578 0.8581
3065.000000 0.8584 0.8587 0.8590 0.8593 0.8596
3060.000000 0.8599 0.8601 0.8604 0.8605 0.8607
3055.000000 0.8609 0.8611 0.8612 0.8614 0.8616
3050.000000 0.8618 0.8620 0.8621 0.8621 0.8621
3045.000000 0.8621 0.8623 0.8623 0.8623 0.8623
3040.000000 0.8624 0.8624 0.8624 0.8624 0.8625
3035.000000 0.8627 0.8617 0.8633 0.8636 0.8638
3030.000000 0.8641 0.8643 0.8645 0.8646 0.8647
3025.000000 0.8647 0.8647 0.8644 0.8642 0.8567
3020.000000 0.8492 0.8395 0.8298 0.8217 0.8130
3015.000000 0.8136 0.8135 0.8151 0.8169 0.8221
3010.000000 0.8273 0.8324 0.8375 0.8425 0.8477
3005.000000 0.8528 0.8580 0.8584 0.8599 0.8589
3000.000000 0.8589 0.8589 0.8587 0.8471 0.8358
2995.000000 0.7961 0.7567 0.7171 0.6775 0.6379
2990.000000 0.5806 0.5898 0.5812 0.5812 0.5812
2985.000000 0.6101 0.6389 0.6694 0.7000 0.7305
2980.000000 0.7610 0.7900 0.8190 0.8317 0.8444
2975.000000 0.8461 0.8478 0.8483 0.8488 0.8492
2970.000000 0.8523 0.8497 0.8498 0.8498 0.8498
2965.000000 0.8486 0.8475 0.8459 0.8444 0.8424
2960.000000 0.8405 0.8385 0.8366 0.8347 0.8328
2955.000000 0.8312 0.8296 0.8294 0.8294 0.8294
2950.000000 0.8296 0.8297 0.8299 0.8300 0.8302
2945.000000 0.8297 0.8293 0.8275 0.8257 0.8241
2940.000000 0.8225 0.8218 0.8213 0.8214 0.8216
2935.000000 0.8217 0.8205 0.8239 0.8260 0.8303
2930.000000 0.8347 0.8378 0.8409 0.8430 0.8452
2925.000000 0.8473 0.8495 0.8515 0.8535 0.8554
2920.000000 0.8573 0.8591 0.8610 0.8618 0.8625
2915.000000 0.8625 0.8625 0.8625 0.8625 0.8625
2910.000000 0.8625 0.8624 0.8621 0.8620 0.8618
2905.000000 0.8616 0.8614 0.8612 0.8610 0.8608
2900.000000 0.8607 0.8604 0.8603 0.8602 0.8601
2895.000000 0.8600 0.8600 0.8599 0.8599 0.8598
2890.000000 0.8598 0.8597 0.8596 0.8595 0.8595
2885.000000 0.8594 0.8594 0.8594 0.8594 0.8594
2880.000000 0.8594 0.8594 0.8594 0.8593 0.8593
2875.000000 0.8593 0.8593 0.8593 0.8593 0.8593
2870.000000 0.8594 0.8594 0.8595 0.8595 0.8595
2865.000000 0.8598 0.8602 0.8609 0.8616 0.8621
2860.000000 0.8628 0.8636 0.8643 0.8649 0.8656
2855.000000 0.8660 0.8664 0.8665 0.8666 0.8667
2850.000000 0.8668 0.8668 0.8670 0.8664 0.8658
2845.000000 0.8652 0.8647 0.8640 0.8633 0.8625
2840.000000 0.8618 0.8610 0.8602 0.8597 0.8592
2835.000000 0.8589 0.8586 0.8582 0.8578 0.8577
2830.000000 0.8575 0.8575 0.8577 0.8578 0.8578
2825.000000 0.8580 0.8581 0.8583 0.8586 0.8588
2820.000000 0.8590 0.8592 0.8595 0.8597 0.8600
2815.000000 0.8602 0.8604 0.8606 0.8609 0.8611
2810.000000 0.8613 0.8614 0.8616 0.8616 0.8616
2805.000000 0.8616 0.8617 0.8617 0.8618 0.8618
2800.000000 0.8618 0.8618 0.8618 0.8618 0.8618
2795.000000 0.8620 0.8620 0.8620 0.8618 0.8618
2790.000000 0.8618 0.8617 0.8616 0.8615 0.8614
2785.000000 0.8613 0.8612 0.8611 0.8610 0.8609
2780.000000 0.8609 0.8608 0.8607 0.8606 0.8605
2775.000000 0.8603 0.8602 0.8600 0.8599 0.8598
2770.000000 0.8597 0.8595 0.8594 0.8592 0.8591
2765.000000 0.8590 0.8589 0.8588 0.8588 0.8587
2760.000000 0.8587 0.8586 0.8586 0.8585 0.8585
2755.000000 0.8584 0.8584 0.8583 0.8583 0.8582
2750.000000 0.8582 0.8582 0.8582 0.8581 0.8581
2745.000000 0.8580 0.8580 0.8578 0.8578 0.8577
2740.000000 0.8575 0.8571 0.8570 0.8567 0.8565
2735.000000 0.8562 0.8559 0.8556 0.8554 0.8550
2730.000000 0.8547 0.8543 0.8540 0.8536 0.8533
2725.000000 0.8523 0.8514 0.8499 0.8484 0.8468
2720.000000 0.8452 0.8436 0.8420 0.8405 0.8391
2715.000000 0.8378 0.8365 0.8358 0.8351 0.8348
2710.000000 0.8346 0.8343 0.8333 0.8339 0.8337
2705.000000 0.8348 0.8360 0.8375 0.8390 0.8406
2700.000000 0.8423 0.8439 0.8456 0.8468 0.8482
2695.000000 0.8494 0.8506 0.8518 0.8530 0.8542
2690.000000 0.8554 0.8566 0.8578 0.8586 0.8594
2685.000000 0.8601 0.8608 0.8614 0.8621 0.8628
2680.000000 0.8635 0.8641 0.8648 0.8650 0.8652
2675.000000 0.8654 0.8656 0.8658 0.8660 0.8661
2670.000000 0.8663 0.8665 0.8667 0.8668 0.8671
2665.000000 0.8673 0.8675 0.8675 0.8678 0.8680
2660.000000 0.8682 0.8684 0.8686 0.8688 0.8690
2655.000000 0.8691 0.8693 0.8695 0.8697 0.8697
2650.000000 0.8698 0.8698 0.8699 0.8700 0.8701
2645.000000 0.8701 0.8702 0.8702 0.8703 0.8703
2640.000000 0.8704 0.8704 0.8705 0.8706 0.8707
2635.000000 0.8707 0.8708 0.8708 0.8709 0.8709
2630.000000 0.8710 0.8711 0.8711 0.8711 0.8711
2625.000000 0.8710 0.8709 0.8708 0.8707 0.8706
2620.000000 0.8705 0.8704 0.8703 0.8701 0.8700
2615.000000 0.8699 0.8698 0.8697 0.8696 0.8695
2610.000000 0.8695 0.8694 0.8693 0.8692 0.8692
2605.000000 0.8691 0.8690 0.8689 0.8689 0.8688
2600.000000 0.8687 0.8686 0.8686 0.8685 0.8685
2595.000000 0.8684 0.8683 0.8682 0.8682 0.8681
2590.000000 0.8680 0.8678 0.8678 0.8678 0.8677
2585.000000 0.8675 0.8675 0.8675 0.8675 0.8674
2580.000000 0.8674 0.8674 0.8674 0.8673 0.8673
2575.000000 0.8673 0.8673 0.8673 0.8673 0.8671
2570.000000 0.8671 0.8671 0.8671 0.8671 0.8671
2565.000000 0.8671 0.8671 0.8670 0.8670 0.8670
2560.000000 0.8670 0.8668 0.8668 0.8668 0.8668
2555.000000 0.8668 0.8668 0.8667 0.8667 0.8666
2550.000000 0.8666 0.8665 0.8664 0.8663 0.8663
2545.000000 0.8662 0.8661 0.8660 0.8660 0.8659
2540.000000 0.8659 0.8658 0.8657 0.8656 0.8656
2535.000000 0.8654 0.8652 0.8650 0.8649 0.8647
2530.000000 0.8646 0.8644 0.8642 0.8640 0.8639
2525.000000 0.8636 0.8633 0.8624 0.8615 0.8606
2520.000000 0.8598 0.8589 0.8581 0.8571 0.8562
2515.000000 0.8552 0.8542 0.8532 0.8521 0.8512
2510.000000 0.8503 0.8494 0.8486 0.8478 0.8471
2505.000000 0.8464 0.8457 0.8450 0.8420 0.8439
2500.000000 0.8435 0.8431 0.8427 0.8428 0.8432
2495.000000 0.8440 0.8448 0.8456 0.8464 0.8473
2490.000000 0.8482 0.8491 0.8501 0.8510 0.8518
2485.000000 0.8525 0.8534 0.8541 0.8548 0.8555
2480.000000 0.8563 0.8570 0.8577 0.8582 0.8587
2475.000000 0.8590 0.8594 0.8597 0.8600 0.8603
2470.000000 0.8606 0.8609 0.8612 0.8613 0.8614
2465.000000 0.8615 0.8616 0.8616 0.8617 0.8618
2460.000000 0.8618 0.8620 0.8621 0.8621 0.8621
2455.000000 0.8623 0.8624 0.8624 0.8625 0.8625
2450.000000 0.8627 0.8628 0.8628 0.8628 0.8630
2445.000000 0.8631 0.8631 0.8631 0.8631 0.8631
2440.000000 0.8631 0.8631 0.8631 0.8631 0.8631
2435.000000 0.8631 0.8631 0.8630 0.8630 0.8630
2430.000000 0.8630 0.8630 0.8630 0.8628 0.8628
2425.000000 0.8628 0.8628 0.8627 0.8627 0.8625
2420.000000 0.8625 0.8625 0.8625 0.8624 0.8624
2415.000000 0.8623 0.8623 0.8621 0.8621 0.8621
2410.000000 0.8621 0.8620 0.8620 0.8618 0.8618
2405.000000 0.8618 0.8618 0.8618 0.8618 0.8617
2400.000000 0.8617 0.8616 0.8615 0.8613 0.8611
2395.000000 0.8609 0.8607 0.8605 0.8603 0.8601
2390.000000 0.8599 0.8597 0.8595 0.8593 0.8591
2385.000000 0.8589 0.8587 0.8585 0.8583 0.8581
2380.000000 0.8580 0.8578 0.8575 0.8574 0.8571
2375.000000 0.8570 0.8568 0.8566 0.8564 0.8562
2370.000000 0.8560 0.8558 0.8556 0.8554 0.8552
2365.000000 0.8549 0.8546 0.8542 0.8539 0.8535
2360.000000 0.8531 0.8527 0.8524 0.8520 0.8516
2355.000000 0.8512 0.8509 0.8505 0.8502 0.8498
2350.000000 0.8494 0.8490 0.8487 0.8483 0.8478
2345.000000 0.8471 0.8463 0.8455 0.8447 0.8441
2340.000000 0.8436 0.8432 0.8428 0.8425 0.8421
2335.000000 0.8421 0.8421 0.8421 0.8421 0.8420
2330.000000 0.8420 0.8420 0.8420 0.8420 0.8420
2325.000000 0.8420 0.8420 0.8420 0.8420 0.8418
2320.000000 0.8418 0.8420 0.8421 0.8423 0.8424
2315.000000 0.8425 0.8427 0.8428 0.8430 0.8431
2310.000000 0.8432 0.8432 0.8433 0.8433 0.8433
2305.000000 0.8433 0.8433 0.8433 0.8433 0.8433
2300.000000 0.8433 0.8433 0.8434 0.8434 0.8434
2295.000000 0.8434 0.8434 0.8434 0.8434 0.8434
2290.000000 0.8434 0.8435 0.8436 0.8438 0.8440
2285.000000 0.8442 0.8444 0.8446 0.8448 0.8450
2280.000000 0.8452 0.8454 0.8456 0.8458 0.8460
2275.000000 0.8462 0.8464 0.8466 0.8468 0.8468
2270.000000 0.8468 0.8468 0.8470 0.8470 0.8471
2265.000000 0.8471 0.8471 0.8471 0.8473 0.8473
2260.000000 0.8473 0.8473 0.8474 0.8475 0.8475
2255.000000 0.8477 0.8478 0.8480 0.8482 0.8483
2250.000000 0.8484 0.8485 0.8487 0.8488 0.8490
2245.000000 0.8491 0.8492 0.8492 0.8493 0.8493
2240.000000 0.8494 0.8495 0.8496 0.8497 0.8499
2235.000000 0.8500 0.8501 0.8502 0.8503 0.8513
2230.000000 0.8523 0.8538 0.8553 0.8568 0.8583
2225.000000 0.8591 0.8599 0.8602 0.8606 0.8609
2220.000000 0.8613 0.8616 0.8620 0.8621 0.8621
2215.000000 0.8621 0.8621 0.8621 0.8621 0.8620
2210.000000 0.8620 0.8618 0.8618 0.8618 0.8618
2205.000000 0.8618 0.8618 0.8617 0.8617 0.8617
2200.000000 0.8618 0.8618 0.8621 0.8621 0.8623
2195.000000 0.8624 0.8625 0.8627 0.8628 0.8628
2190.000000 0.8630 0.8631 0.8633 0.8634 0.8635
2185.000000 0.8636 0.8638 0.8639 0.8640 0.8641
2180.000000 0.8642 0.8643 0.8645 0.8646 0.8647
2175.000000 0.8648 0.8649 0.8650 0.8651 0.8652
2170.000000 0.8653 0.8654 0.8655 0.8656 0.8658
2165.000000 0.8659 0.8660 0.8661 0.8662 0.8663
2160.000000 0.8664 0.8665 0.8666 0.8667 0.8668
2155.000000 0.8668 0.8670 0.8671 0.8671 0.8673
2150.000000 0.8674 0.8675 0.8675 0.8677 0.8678
2145.000000 0.8680 0.8681 0.8682 0.8683 0.8684
2140.000000 0.8685 0.8686 0.8687 0.8688 0.8689
2135.000000 0.8690 0.8691 0.8692 0.8693 0.8694
2130.000000 0.8695 0.8696 0.8697 0.8698 0.8699
2125.000000 0.8699 0.8700 0.8701 0.8702 0.8703
2120.000000 0.8704 0.8704 0.8705 0.8706 0.8707
2115.000000 0.8708 0.8709 0.8709 0.8710 0.8711
2110.000000 0.8712 0.8713 0.8714 0.8714 0.8715
2105.000000 0.8716 0.8717 0.8718 0.8720 0.8721
2100.000000 0.8721 0.8723 0.8725 0.8725 0.8727
2095.000000 0.8728 0.8728 0.8730 0.8732 0.8733
2090.000000 0.8734 0.8735 0.8737 0.8739 0.8741
2085.000000 0.8743 0.8745 0.8747 0.8750 0.8752
2080.000000 0.8754 0.8756 0.8758 0.8760 0.8763
2075.000000 0.8765 0.8768 0.8770 0.8773 0.8775
2070.000000 0.8777 0.8778 0.8781 0.8782 0.8784
2065.000000 0.8786 0.8788 0.8790 0.8792 0.8793
2060.000000 0.8795 0.8797 0.8799 0.8800 0.8802
2055.000000 0.8803 0.8805 0.8806 0.8808 0.8809
2050.000000 0.8811 0.8812 0.8813 0.8815 0.8818
2045.000000 0.8821 0.8824 0.8828 0.8833 0.8886
2040.000000 0.8939 0.9009 0.9080 0.9150 0.9221
2035.000000 0.9267 0.9313 0.9310 0.9307 0.9249
2030.000000 0.9192 0.9141 0.9090 0.9039 0.8988
2025.000000 0.8937 0.8886 0.8865 0.8845 0.8845
2020.000000 0.8845 0.8845 0.8846 0.8846 0.8846
2015.000000 0.8846 0.8847 0.8847 0.8847 0.8846
2010.000000 0.8846 0.8845 0.8845 0.8844 0.8843
2005.000000 0.8838 0.8833 0.8823 0.8813 0.8797
2000.000000 0.8782 0.8758 0.8753 0.8763 0.8773
1995.000000 0.8783 0.8793 0.8801 0.8807 0.8813
1990.000000 0.8818 0.8825 0.8832 0.8838 0.8843
1985.000000 0.8845 0.8847 0.8849 0.8851 0.8853
1980.000000 0.8855 0.8857 0.8859 0.8861 0.8862
1975.000000 0.8863 0.8863 0.8864 0.8864 0.8864
1970.000000 0.8864 0.8862 0.8862 0.8871 0.8880
1965.000000 0.8889 0.8889 0.8889 0.8883 0.8877
1960.000000 0.8870 0.8863 0.8857 0.8875 0.8902
1955.000000 0.8928 0.8960 0.8960 0.8961 0.8933
1950.000000 0.8910 0.8887 0.8868 0.8864 0.8858
1945.000000 0.8853 0.8847 0.8842 0.8836 0.8831
1940.000000 0.8827 0.8825 0.8821 0.8818 0.8816
1935.000000 0.8813 0.8811 0.8810 0.8810 0.8809
1930.000000 0.8809 0.8809 0.8809 0.8809 0.8809
1925.000000 0.8809 0.8809 0.8809 0.8809 0.8809
1920.000000 0.8809 0.8809 0.8809 0.8810 0.8810
1915.000000 0.8810 0.8810 0.8810 0.8810 0.8810
1910.000000 0.8810 0.8811 0.8811 0.8811 0.8811
1905.000000 0.8811 0.8811 0.8811 0.8811 0.8811
1900.000000 0.8811 0.8811 0.8812 0.8812 0.8812
1895.000000 0.8812 0.8812 0.8812 0.8812 0.8812
1890.000000 0.8812 0.8811 0.8811 0.8810 0.8810
1885.000000 0.8809 0.8809 0.8808 0.8808 0.8807
1880.000000 0.8807 0.8806 0.8806 0.8805 0.8805
1875.000000 0.8805 0.8805 0.8805 0.8804 0.8804
1870.000000 0.8804 0.8804 0.8804 0.8803 0.8803
1865.000000 0.8803 0.8803 0.8803 0.8802 0.8802
1860.000000 0.8801 0.8800 0.8800 0.8799 0.8798
1855.000000 0.8797 0.8796 0.8795 0.8794 0.8793
1850.000000 0.8792 0.8792 0.8791 0.8790 0.8789
1845.000000 0.8788 0.8788 0.8787 0.8787 0.8786
1840.000000 0.8786 0.8785 0.8785 0.8784 0.8784
1835.000000 0.8784 0.8783 0.8783 0.8782 0.8782
1830.000000 0.8781 0.8781 0.8782 0.8782 0.8783
1825.000000 0.8784 0.8785 0.8785 0.8786 0.8786
1820.000000 0.8785 0.8784 0.8782 0.8781 0.8780
1815.000000 0.8778 0.8775 0.8771 0.8766 0.8761
1810.000000 0.8756 0.8751 0.8748 0.8745 0.8741
1805.000000 0.8738 0.8735 0.8732 0.8732 0.8731
1800.000000 0.8734 0.8736 0.8739 0.8742 0.8744
1795.000000 0.8747 0.8749 0.8750 0.8751 0.8752
1790.000000 0.8754 0.8755 0.8756 0.8757 0.8759
1785.000000 0.8760 0.8761 0.8763 0.8764 0.8765
1780.000000 0.8766 0.8767 0.8767 0.8766 0.8766
1775.000000 0.8766 0.8764 0.8762 0.8761 0.8759
1770.000000 0.8758 0.8756 0.8755 0.8753 0.8752
1765.000000 0.8750 0.8749 0.8747 0.8746 0.8744
1760.000000 0.8744 0.8743 0.8744 0.8748 0.8752
1755.000000 0.8755 0.8759 0.8763 0.8766 0.8770
1750.000000 0.8773 0.8775 0.8778 0.8781 0.8784
1745.000000 0.8786 0.8789 0.8792 0.8794 0.8797
1740.000000 0.8800 0.8802 0.8805 0.8806 0.8807
1735.000000 0.8805 0.8802 0.8800 0.8797 0.8795
1730.000000 0.8792 0.8790 0.8787 0.8785 0.8782
1725.000000 0.8780 0.8778 0.8775 0.8775 0.8773
1720.000000 0.8771 0.8768 0.8767 0.8765 0.8764
1715.000000 0.8763 0.8761 0.8760 0.8759 0.8757
1710.000000 0.8756 0.8755 0.8755 0.8754 0.8753
1705.000000 0.8753 0.8752 0.8751 0.8751 0.8750
1700.000000 0.8749 0.8748 0.8748 0.8747 0.8746
1695.000000 0.8746 0.8744 0.8743 0.8742 0.8741
1690.000000 0.8739 0.8738 0.8737 0.8736 0.8734
1685.000000 0.8733 0.8732 0.8731 0.8728 0.8728
1680.000000 0.8728 0.8727 0.8725 0.8725 0.8725
1675.000000 0.8724 0.8723 0.8723 0.8721 0.8721
1670.000000 0.8720 0.8720 0.8718 0.8718 0.8718
1665.000000 0.8721 0.8723 0.8725 0.8725 0.8728
1660.000000 0.8730 0.8731 0.8733 0.8735 0.8736
1655.000000 0.8738 0.8740 0.8741 0.8741 0.8741
1650.000000 0.8741 0.8741 0.8742 0.8742 0.8742
1645.000000 0.8742 0.8742 0.8742 0.8742 0.8742
1640.000000 0.8741 0.8741 0.8741 0.8741 0.8741
1635.000000 0.8740 0.8740 0.8740 0.8740 0.8740
1630.000000 0.8739 0.8739 0.8740 0.8740 0.8741
1625.000000 0.8741 0.8742 0.8742 0.8742 0.8743
1620.000000 0.8743 0.8744 0.8744 0.8745 0.8745
1615.000000 0.8746 0.8746 0.8746 0.8747 0.8748
1610.000000 0.8749 0.8749 0.8750 0.8751 0.8751
1605.000000 0.8752 0.8753 0.8753 0.8754 0.8755
1600.000000 0.8756 0.8756 0.8757 0.8758 0.8758
1595.000000 0.8759 0.8760 0.8760 0.8760 0.8759
1590.000000 0.8758 0.8757 0.8756 0.8755 0.8754
1585.000000 0.8753 0.8752 0.8751 0.8750 0.8750
1580.000000 0.8749 0.8748 0.8747 0.8746 0.8745
1575.000000 0.8745 0.8744 0.8743 0.8743 0.8742
1570.000000 0.8741 0.8741 0.8740 0.8739 0.8738
1565.000000 0.8738 0.8737 0.8736 0.8736 0.8736
1560.000000 0.8737 0.8737 0.8737 0.8737 0.8737
1555.000000 0.8737 0.8737 0.8737 0.8736 0.8734
1550.000000 0.8732 0.8730 0.8728 0.8725 0.8725
1545.000000 0.8724 0.8721 0.8721 0.8720 0.8718
1540.000000 0.8718 0.8717 0.8716 0.8715 0.8715
1535.000000 0.8714 0.8714 0.8713 0.8712 0.8712
1530.000000 0.8709 0.8707 0.8705 0.8702 0.8700
1525.000000 0.8697 0.8695 0.8692 0.8690 0.8687
1520.000000 0.8684 0.8682 0.8678 0.8675 0.8674
1515.000000 0.8671 0.8668 0.8665 0.8663 0.8660
1510.000000 0.8657 0.8654 0.8652 0.8649 0.8646
1505.000000 0.8643 0.8641 0.8636 0.8632 0.8628
1500.000000 0.8623 0.8618 0.8613 0.8621 0.8601
1495.000000 0.8594 0.8582 0.8570 0.8558 0.8539
1490.000000 0.8521 0.8492 0.8450 0.8405 0.8358
1485.000000 0.7932 0.7388 0.6844 0.5982 0.6006
1480.000000 0.5998 0.5996 0.6392 0.6847 0.7303
1475.000000 0.7758 0.7901 0.7956 0.8011 0.8094
1470.000000 0.8176 0.8228 0.8275 0.8314 0.8371
1465.000000 0.8355 0.8357 0.8328 0.8273 0.8199
1460.000000 0.7994 0.7738 0.7483 0.7226 0.6971
1455.000000 0.6743 0.6744 0.6735 0.7003 0.7271
1450.000000 0.7539 0.7807 0.7932 0.7968 0.7995
1445.000000 0.8017 0.8038 0.8058 0.8080 0.8096
1440.000000 0.8111 0.8128 0.8134 0.8143 0.8141
1435.000000 0.8131 0.8115 0.8093 0.8071 0.8011
1430.000000 0.7969 0.7957 0.7953 0.7954 0.7954
1425.000000 0.7964 0.7986 0.8011 0.8051 0.8086
1420.000000 0.8115 0.8145 0.8175 0.8205 0.8235
1415.000000 0.8253 0.8270 0.8287 0.8304 0.8316
1410.000000 0.8325 0.8334 0.8343 0.8350 0.8353
1405.000000 0.8374 0.8360 0.8363 0.8362 0.8362
1400.000000 0.8359 0.8356 0.8352 0.8347 0.8341
1395.000000 0.8334 0.8327 0.8315 0.8299 0.8255
1390.000000 0.7968 0.7668 0.7671 0.7696 0.7811
1385.000000 0.7928 0.8045 0.8151 0.8155 0.8169
1380.000000 0.8148 0.8124 0.7968 0.7865 0.7744
1375.000000 0.6740 0.5400 0.4717 0.4728 0.5337
1370.000000 0.6389 0.6386 0.6380 0.6260 0.5874
1365.000000 0.5855 0.5862 0.6034 0.6224 0.6415
1360.000000 0.6605 0.6796 0.6986 0.7176 0.7367
1355.000000 0.7398 0.7421 0.7431 0.7439 0.7447
1350.000000 0.7451 0.7453 0.7455 0.7457 0.7458
1345.000000 0.7461 0.7465 0.7486 0.7506 0.7525
1340.000000 0.7555 0.7585 0.7614 0.7643 0.7664
1335.000000 0.7686 0.7706 0.7718 0.7728 0.7741
1330.000000 0.7751 0.7756 0.7761 0.7760 0.7769
1325.000000 0.7771 0.7765 0.7758 0.7753 0.7746
1320.000000 0.7740 0.7732 0.7724 0.7715 0.7708
1315.000000 0.7701 0.7693 0.7685 0.7676 0.7668
1310.000000 0.7661 0.7651 0.7644 0.7636 0.7626
1305.000000 0.7618 0.7611 0.7601 0.7590 0.7578
1300.000000 0.7568 0.7558 0.7547 0.7536 0.7525
1295.000000 0.7511 0.7497 0.7482 0.7465 0.7441
1290.000000 0.7415 0.7390 0.7358 0.7325 0.7292
1285.000000 0.7244 0.7168 0.7064 0.6917 0.6736
1280.000000 0.6568 0.6415 0.6284 0.6160 0.6044
1275.000000 0.5940 0.5825 0.5689 0.5488 0.5248
1270.000000 0.5101 0.5112 0.5122 0.5215 0.5309
1265.000000 0.5403 0.5497 0.5578 0.5581 0.5599
1260.000000 0.5583 0.5407 0.5232 0.5056 0.4881
1255.000000 0.4705 0.4530 0.4354 0.4179 0.4003
1250.000000 0.3828 0.3652 0.3477 0.3300 0.3126
1245.000000 0.2950 0.2775 0.2599 0.2424 0.2249
1240.000000 0.2073 0.1898 0.1722 0.1546 0.1371
1235.000000 0.1196 0.1042 0.1041 0.1016 0.1038
1230.000000 0.1067 0.1127 0.1187 0.1246 0.1308
1225.000000 0.1368 0.1428 0.1488 0.1548 0.1608
1220.000000 0.1669 0.1727 0.1727 0.1728 0.1719
1215.000000 0.1679 0.1503 0.1326 0.1149 0.0972
1210.000000 0.0892 0.0892 0.0892 0.0889 0.0828
1205.000000 0.0669 0.0510 0.0351 0.0208 0.0192
1200.000000 0.0183 0.0201 0.0221 0.0254 0.0382
1195.000000 0.0709 0.1042 0.1375 0.1709 0.2042
1190.000000 0.2375 0.2708 0.2933 0.3010 0.3045
1185.000000 0.3027 0.3026 0.3010 0.2990 0.2969
1180.000000 0.2947 0.2904 0.2847 0.2776 0.2693
1175.000000 0.2610 0.2527 0.2444 0.2361 0.2278
1170.000000 0.2194 0.2111 0.2028 0.1944 0.1862
1165.000000 0.1779 0.1695 0.1613 0.1530 0.1446
1160.000000 0.1364 0.1281 0.1198 0.1115 0.1032
1155.000000 0.0949 0.0866 0.0836 0.0814 0.0816
1150.000000 0.0826 0.0869 0.1161 0.1415 0.1669
1145.000000 0.1923 0.2177 0.2431 0.2615 0.2687
1140.000000 0.2773 0.2855 0.2934 0.3014 0.3101
1135.000000 0.3216 0.3306 0.3321 0.3325 0.3359
1130.000000 0.3307 0.3268 0.3230 0.3194 0.3156
1125.000000 0.3118 0.3080 0.3042 0.3032 0.3034
1120.000000 0.3054 0.3171 0.3336 0.3500 0.3666
1115.000000 0.3830 0.3995 0.4160 0.4325 0.4490
1110.000000 0.4654 0.4819 0.4984 0.5149 0.5297
1105.000000 0.5476 0.5629 0.5723 0.5817 0.5910
1100.000000 0.6157 0.6271 0.6374 0.6458 0.6544
1095.000000 0.6617 0.6686 0.6756 0.6824 0.6891
1090.000000 0.6957 0.7018 0.7078 0.7136 0.7172
1085.000000 0.7210 0.7247 0.7284 0.7317 0.7351
1080.000000 0.7382 0.7407 0.7432 0.7451 0.7468
1075.000000 0.7475 0.7486 0.7486 0.7487 0.7471
1070.000000 0.7433 0.7367 0.7280 0.7155 0.7051
1065.000000 0.6937 0.6309 0.5793 0.5792 0.5935
1060.000000 0.6176 0.6415 0.6808 0.6804 0.6799
1055.000000 0.6572 0.5884 0.5196 0.4507 0.3818
1050.000000 0.3131 0.2442 0.2126 0.2061 0.1956
1045.000000 0.1433 0.0889 0.0672 0.0650 0.0657
1040.000000 0.0676 0.1029 0.1725 0.2420 0.3115
1035.000000 0.3810 0.4429 0.4914 0.5472 0.6030
1030.000000 0.6587 0.7025 0.7051 0.7062 0.7071
1025.000000 0.7392 0.7488 0.7562 0.7619 0.7655
1020.000000 0.7688 0.7708 0.7725 0.7733 0.7740
1015.000000 0.7756 0.7749 0.7745 0.7731 0.7693
1010.000000 0.7630 0.7511 0.7428 0.7355 0.7280
1005.000000 0.7205 0.7128 0.7054 0.6978 0.6904
1000.000000 0.6828 0.6753 0.6732 0.6750 0.6886
995.000000 0.7041 0.7188 0.7212 0.7236 0.7251
990.000000 0.7268 0.7268 0.7268 0.7265 0.7248
985.000000 0.7219 0.7192 0.7161 0.7126 0.7094
980.000000 0.7061 0.7035 0.7007 0.6978 0.6954
975.000000 0.6932 0.6910 0.6890 0.6494 0.6218
970.000000 0.5942 0.5666 0.5562 0.5548 0.5557
965.000000 0.5600 0.6158 0.6740 0.7025 0.7184
960.000000 0.7293 0.7457 0.7591 0.7703 0.7801
955.000000 0.7891 0.7980 0.8034 0.8088 0.8141
950.000000 0.8195 0.8239 0.8277 0.8314 0.8352
945.000000 0.8389 0.8424 0.8453 0.8483 0.8512
940.000000 0.8542 0.8571 0.8600 0.8623 0.8645
935.000000 0.8666 0.8684 0.8702 0.8721 0.8739
930.000000 0.8757 0.8775 0.8794 0.8811 0.8825
925.000000 0.8840 0.8855 0.8870 0.8883 0.8890
920.000000 0.8897 0.8904 0.8911 0.8918 0.8921
915.000000 0.8921 0.8924 0.8925 0.8925 0.8928
910.000000 0.8928 0.8928 0.8927 0.8925 0.8925
905.000000 0.8924 0.8923 0.8921 0.8921 0.8920
900.000000 0.8920 0.8920 0.8920 0.8918 0.8918
895.000000 0.8918 0.8918 0.8918 0.8920 0.8923
890.000000 0.8925 0.8927 0.8930 0.8932 0.8935
885.000000 0.8937 0.8939 0.8942 0.8944 0.8946
880.000000 0.8948 0.8950 0.8952 0.8954 0.8957
875.000000 0.8958 0.8958 0.8958 0.8958 0.8957
870.000000 0.8957 0.8957 0.8957 0.8957 0.8955
865.000000 0.8954 0.8952 0.8951 0.8950 0.8948
860.000000 0.8915 0.8938 0.8932 0.8925 0.8921
855.000000 0.8915 0.8898 0.8878 0.8858 0.8816
850.000000 0.8774 0.8731 0.8659 0.8588 0.8520
845.000000 0.8452 0.8344 0.7318 0.6174 0.6185
840.000000 0.6565 0.7030 0.7495 0.7961 0.8293
835.000000 0.8384 0.8453 0.8518 0.8578 0.8636
830.000000 0.8682 0.8716 0.8738 0.8759 0.8775
825.000000 0.8778 0.8783 0.8786 0.8790 0.8794
820.000000 0.8797 0.8797 0.8797 0.8796 0.8795
815.000000 0.8795 0.8794 0.8794 0.8793 0.8791
810.000000 0.8787 0.8784 0.8780 0.8777 0.8773
805.000000 0.8770 0.8766 0.8763 0.8759 0.8756
800.000000 0.8751 0.8746 0.8740 0.8735 0.8730
795.000000 0.8725 0.8720 0.8715 0.8709 0.8704
790.000000 0.8699 0.8694 0.8689 0.8685 0.8680
785.000000 0.8675 0.8671 0.8667 0.8662 0.8658
780.000000 0.8653 0.8649 0.8644 0.8639 0.8634
775.000000 0.8628 0.8624 0.8618 0.8614 0.8609
770.000000 0.8603 0.8598 0.8593 0.8585 0.8577
765.000000 0.8568 0.8559 0.8550 0.8541 0.8533
760.000000 0.8524 0.8512 0.8499 0.8486 0.8473
755.000000 0.8460 0.8444 0.8421 0.8400 0.8378
750.000000 0.8356 0.8337 0.8318 0.8301 0.8283
745.000000 0.8265 0.8247 0.8227 0.8204 0.8182
740.000000 0.8158 0.8137 0.8114 0.8090 0.8065
735.000000 0.8043 0.8018 0.7993 0.7958 0.7924
730.000000 0.7889 0.7850 0.7803 0.7756 0.7710
725.000000 0.7668 0.7625 0.7625 0.7625 0.7631
720.000000 0.7636 0.7642 0.7642 0.7642 0.7625
715.000000 0.7595 0.7518 0.7411 0.6774 0.6152
710.000000 0.5531 0.4910 0.4288 0.3666 0.3046
705.000000 0.2513 0.2512 0.2512 0.2516 0.3282
700.000000 0.4333 0.5383 0.6433 0.6993 0.7162
695.000000 0.7296 0.7407 0.7535 0.7657 0.7711
690.000000 0.7743 0.7772 0.7793 0.7806 0.7814
685.000000 0.7818 0.7818 0.7817 0.7817 0.7812
680.000000 0.7810 0.7808 0.7808 0.7808 0.7808
675.000000 0.7807 0.7807 0.7807 0.7815 0.7891
670.000000 0.7992 0.8031 0.8048 0.8049 0.8049
665.000000 0.8049 0.8048 0.8038 0.8018 0.7999
660.000000 0.7976 0.7951 0.7926 0.7901 0.7868
655.000000 0.7834 0.7800 0.7736 0.7658 0.7517
650.000000 0.7115 0.7058 0.7001 0.6944 0.6861
645.000000 0.6411 0.6096 0.5780 0.5462 0.5147
640.000000 0.4831 0.4681 0.4647 0.4610 0.4560
635.000000 0.4479 0.4171 0.4266 0.4216 0.4199
630.000000 0.4199 0.4199 0.4200 0.4200 0.4200
625.000000 0.4199 0.4180 0.4145 0.4082 0.4042
620.000000 0.4039 0.4045 0.4077 0.4147 0.4540
615.000000 0.4789 0.5038 0.5287 0.5536 0.5785
610.000000 0.6034 0.6283 0.6421 0.6525 0.6621
605.000000 0.6692 0.6746 0.6799 0.6849 0.6899
600.000000 0.6931 0.6958 0.6987 0.7015 0.7043
595.000000 0.7068 0.7093 0.7118 0.7167 0.7258
590.000000 0.7457 0.7436 0.7437 0.7434 0.7265
585.000000 0.7097 0.6928 0.6751 0.6562 0.6237
580.000000 0.5562 0.4888 0.4214 0.3540 0.2877
575.000000 0.2851 0.2805 0.2842 0.2861 0.3710
570.000000 0.5140 0.6326 0.6575 0.6688 0.6740
565.000000 0.6793 0.6851 0.6910 0.6972 0.7051
560.000000 0.7142 0.7194 0.7261 0.7244 0.7248
555.000000 0.7218 0.7138 0.6128 0.4978 0.3828
550.000000 0.3134 0.3129 0.3128 0.4047 0.5204
545.000000 0.6362 0.6953 0.7071 0.7194 0.7354
540.000000 0.7461 0.7521 0.7565 0.7598 0.7619
535.000000 0.7638 0.7647 0.7634 0.7638 0.7614
530.000000 0.7588 0.7528 0.7425 0.7321 0.7231
525.000000 0.7208 0.7336 0.7435 0.7533 0.7607
520.000000 0.7619 0.7586 0.7461 0.7336 0.7211
515.000000 0.7169 0.7194 0.7543 0.7588 0.7618
510.000000 0.7651 0.7671 0.7691 0.7708 0.7697
505.000000 0.7700 0.7691 0.7678 0.7665 0.7645
500.000000 0.7624 0.7603 0.7581 0.7561 0.7553
495.000000 0.7548 0.7557 0.7567 0.7578 0.7589
490.000000 0.7585 0.7580 0.7568 0.7549 0.7528
485.000000 0.7499 0.7450 0.7400 0.7341 0.7282
480.000000 0.7221 0.6933 0.6607 0.6431 0.6467
475.000000 0.6468 0.6653 0.6838 0.7018 0.7104
470.000000 0.7191 0.7257 0.7310 0.7334 0.7358
465.000000 0.7383 0.7407 0.7421 0.7438 0.7453
460.000000 0.7461 0.7462 0.7465 0.7467 0.7468
455.000000 0.7469 0.7471 0.7471 0.7471 0.7468
450.000000 0.7461 0.7453 0.7445 0.7435 0.7411
445.000000 0.7351 0.7268 0.7114 0.6934 0.6754
440.000000 0.6597 0.6578 0.6600 0.6605 0.6614
435.000000 0.6724 0.6842 0.6958 0.7076 0.7194
430.000000 0.7276 0.7326 0.7375 0.7410 0.7428
425.000000 0.7445 0.7462 0.7480 0.7491 0.7501
420.000000 0.7511 0.7521 0.7533 0.7543 0.7554
415.000000 0.7557 0.7558 0.7561 0.7562 0.7565
410.000000 0.7567 0.7554 0.7568 0.7569 0.7571
405.000000 0.7571 0.7571 0.7572 0.7574 0.7574
400.000000 0.7572 0.7571 0.7571 0.7571 0.7569
395.000000 0.7569 0.7568 0.7568 0.7568 0.7569
390.000000 0.7571 0.7571 0.7571 0.7571 0.7572
385.000000 0.7572 0.7574 0.7569 0.7565 0.7561
380.000000 0.7557
##END=
