##TITLE=Phenol, 2,4,6-tris(dimethylaminomethyl)-, trihydrochloride
##JCAMP-DX=4.24
##DATA TYPE=INFRARED SPECTRUM
##CLASS=COBLENTZ III
##ORIGIN=BRITISH PETROLEUM CO. LTD., ENGLAND
##OWNER=Copyright (C) 1987 by the Coblentz Society
Collection (C) 2018 copyright by the U.S. Secretary of Commerce
on behalf of the United States of America. All rights reserved.
##DATE=1972/07/10
##NAMES=Mesitol, a,a',a''-tris(dimethylamino)-, trihydrochloride
##MOLFORM=C15 H30 Cl3 N3 O
##SOURCE REFERENCE=COBLENTZ NO. 9327
##$NIST ID=B6009327
##$NIST SOURCE=COBLENTZ
##$NIST IMAGE=cob9327
##SPECTROMETER/DATA SYSTEM=PERKIN-ELMER 157
##STATE=SOLID (KBr DISC, 0.8% WT.)
$$ HCl RUN IN KBr MAY CONTAIN SOME HBr
$$ REF. Can. J. Spec., 18,4,101, '73 C. S. DOUSE and P. B. TOOKE
##SAMPLING PROCEDURE=TRANSMISSION
##RESOLUTION=2
##DATA PROCESSING=DIGITIZED BY COBLENTZ SOCIETY (BATCH II) FROM HARD COPY
##XUNITS=1/CM
##YUNITS=TRANSMITTANCE
##XFACTOR=1.0
##YFACTOR=1
##FIRSTX=668
##LASTX=4000
##FIRSTY=0.8236
##MAXX=4000
##MINX=668
##MAXY=0.8182
##MINY=0.033
##NPOINTS=3333
##XYDATA=(X++(Y..Y))
668.000000 0.8236 0.8227 0.8157 0.8118 0.8081
673.000000 0.8037 0.7993 0.7949 0.7904 0.7861
678.000000 0.7819 0.7786 0.7767 0.7760 0.7831
683.000000 0.7907 0.7997 0.8069 0.8132 0.8166
688.000000 0.8175 0.8182 0.8179 0.8157 0.8135
693.000000 0.8116 0.8104 0.8094 0.8086 0.8079
698.000000 0.8070 0.8061 0.8053 0.8051 0.8048
703.000000 0.8045 0.8043 0.8040 0.8038 0.8046
708.000000 0.8034 0.8032 0.8030 0.8028 0.8025
713.000000 0.8013 0.7988 0.7962 0.7941 0.7928
718.000000 0.7919 0.7912 0.7907 0.7903 0.7899
723.000000 0.7894 0.7890 0.7884 0.7879 0.7874
728.000000 0.7869 0.7865 0.7861 0.7858 0.7855
733.000000 0.7840 0.7794 0.7778 0.7777 0.7770
738.000000 0.7750 0.7717 0.7691 0.7666 0.7635
743.000000 0.7579 0.7536 0.7508 0.7467 0.7424
748.000000 0.7409 0.7399 0.7396 0.7395 0.7383
753.000000 0.7365 0.7321 0.7272 0.7219 0.7160
758.000000 0.7096 0.7026 0.6944 0.6862 0.6753
763.000000 0.6627 0.6485 0.6336 0.6179 0.5859
768.000000 0.5450 0.4686 0.3927 0.3592 0.3576
773.000000 0.3622 0.4357 0.4902 0.5445 0.5988
778.000000 0.6249 0.6272 0.6270 0.6220 0.6047
783.000000 0.5740 0.5434 0.5128 0.4853 0.4713
788.000000 0.4670 0.4674 0.4659 0.4823 0.5173
793.000000 0.5814 0.6454 0.6782 0.6977 0.7042
798.000000 0.7089 0.7106 0.7105 0.7106 0.7058
803.000000 0.7024 0.6992 0.6954 0.6911 0.6858
808.000000 0.6801 0.6726 0.6619 0.6468 0.6287
813.000000 0.6099 0.5876 0.5424 0.5046 0.4735
818.000000 0.4315 0.3586 0.2848 0.2317 0.2218
823.000000 0.2229 0.2768 0.3267 0.3764 0.4261
828.000000 0.4505 0.4758 0.5023 0.5294 0.5408
833.000000 0.5430 0.5440 0.5331 0.5108 0.4863
838.000000 0.4857 0.4950 0.5161 0.5546 0.5947
843.000000 0.6346 0.6716 0.6911 0.6977 0.6993
848.000000 0.7004 0.7010 0.7013 0.7012 0.7012
853.000000 0.7012 0.7002 0.6996 0.6990 0.6980
858.000000 0.6968 0.6946 0.6921 0.6890 0.6858
863.000000 0.6833 0.6809 0.6782 0.6754 0.6725
868.000000 0.6695 0.6660 0.6625 0.6588 0.6552
873.000000 0.6515 0.6478 0.6439 0.6399 0.6373
878.000000 0.6340 0.6282 0.6203 0.6138 0.6118
883.000000 0.6079 0.5859 0.5789 0.5709 0.5619
888.000000 0.5515 0.5348 0.5194 0.5083 0.4875
893.000000 0.4725 0.4450 0.3985 0.3759 0.3609
898.000000 0.3442 0.3059 0.2363 0.2145 0.1618
903.000000 0.1609 0.1608 0.1927 0.2144 0.2361
908.000000 0.2578 0.2913 0.3296 0.3678 0.4060
913.000000 0.4441 0.4724 0.4765 0.4771 0.4757
918.000000 0.4670 0.4506 0.4338 0.4172 0.4005
923.000000 0.3838 0.3688 0.3570 0.3455 0.3277
928.000000 0.3051 0.2826 0.2600 0.2376 0.2184
933.000000 0.2103 0.2091 0.2084 0.1977 0.1763
938.000000 0.1463 0.1082 0.0828 0.0548 0.0441
943.000000 0.0387 0.0372 0.0368 0.0356 0.0423
948.000000 0.0563 0.0748 0.0856 0.1038 0.1894
953.000000 0.2427 0.2960 0.3492 0.4022 0.4552
958.000000 0.5070 0.5196 0.5184 0.5129 0.4838
963.000000 0.4440 0.4044 0.3646 0.3270 0.3226
968.000000 0.3225 0.3567 0.3943 0.4319 0.4692
973.000000 0.5066 0.5438 0.5710 0.5810 0.5894
978.000000 0.5960 0.5991 0.6007 0.6016 0.6014
983.000000 0.6011 0.6000 0.5979 0.5955 0.5931
988.000000 0.5895 0.5842 0.5761 0.5646 0.5557
993.000000 0.5402 0.5209 0.5017 0.4826 0.4634
998.000000 0.4443 0.4270 0.4199 0.4118 0.3951
1003.000000 0.3804 0.3742 0.3723 0.3709 0.3520
1008.000000 0.3248 0.2977 0.2705 0.2434 0.2165
1013.000000 0.1916 0.1701 0.1681 0.1696 0.1723
1018.000000 0.1820 0.1941 0.2098 0.2248 0.2400
1023.000000 0.2911 0.3352 0.3791 0.4230 0.4668
1028.000000 0.5105 0.5542 0.6047 0.6204 0.6318
1033.000000 0.6382 0.6409 0.6426 0.6427 0.6424
1038.000000 0.6420 0.6426 0.6409 0.6401 0.6385
1043.000000 0.6365 0.6326 0.6281 0.6213 0.6118
1048.000000 0.6037 0.5961 0.5882 0.5803 0.5724
1053.000000 0.5626 0.5524 0.5476 0.5465 0.5483
1058.000000 0.5446 0.5631 0.5694 0.5774 0.5866
1063.000000 0.5972 0.6007 0.6017 0.6025 0.6030
1068.000000 0.6034 0.6037 0.6040 0.6040 0.6027
1073.000000 0.6037 0.6032 0.6025 0.6017 0.6009
1078.000000 0.6002 0.5994 0.5987 0.5981 0.5975
1083.000000 0.5967 0.5951 0.5933 0.5914 0.5893
1088.000000 0.5871 0.5849 0.5823 0.5796 0.5768
1093.000000 0.5741 0.5715 0.5688 0.5661 0.5634
1098.000000 0.5607 0.5579 0.5545 0.5511 0.5476
1103.000000 0.5434 0.5391 0.5344 0.5294 0.5276
1108.000000 0.5258 0.5229 0.5186 0.5127 0.5066
1113.000000 0.5003 0.4930 0.4853 0.4775 0.4689
1118.000000 0.4600 0.4514 0.4429 0.4338 0.4247
1123.000000 0.3860 0.3663 0.3491 0.3319 0.3148
1128.000000 0.3093 0.3069 0.2933 0.2670 0.2432
1133.000000 0.2390 0.2388 0.2509 0.2718 0.2928
1138.000000 0.3137 0.3345 0.3553 0.3696 0.3728
1143.000000 0.3736 0.3735 0.3729 0.3727 0.3609
1148.000000 0.3414 0.3220 0.3026 0.2832 0.2639
1153.000000 0.2446 0.2253 0.2059 0.1935 0.1813
1158.000000 0.1677 0.1601 0.1525 0.1445 0.1365
1163.000000 0.1279 0.1193 0.1156 0.1127 0.1077
1168.000000 0.0998 0.0813 0.0691 0.0626 0.0602
1173.000000 0.0602 0.0599 0.0983 0.1413 0.1842
1178.000000 0.2270 0.2772 0.3287 0.3752 0.4217
1183.000000 0.4532 0.4775 0.4856 0.4876 0.4879
1188.000000 0.4878 0.4871 0.4854 0.4777 0.4704
1193.000000 0.4633 0.4562 0.4492 0.4420 0.4349
1198.000000 0.4279 0.4208 0.4137 0.4067 0.3997
1203.000000 0.3927 0.3856 0.3787 0.3718 0.3607
1208.000000 0.3486 0.3366 0.3195 0.3096 0.3055
1213.000000 0.3010 0.2953 0.2812 0.2694 0.2547
1218.000000 0.2272 0.2006 0.1759 0.1536 0.1426
1223.000000 0.1322 0.1238 0.1155 0.1076 0.1000
1228.000000 0.0925 0.0806 0.0658 0.0616 0.0612
1233.000000 0.0618 0.0621 0.0666 0.0706 0.0739
1238.000000 0.0859 0.1103 0.1348 0.1592 0.1836
1243.000000 0.2080 0.2323 0.2566 0.2808 0.2901
1248.000000 0.2885 0.2780 0.2664 0.2548 0.2433
1253.000000 0.2323 0.2322 0.2505 0.2845 0.3185
1258.000000 0.3524 0.3856 0.4065 0.4261 0.4490
1263.000000 0.4682 0.4828 0.4863 0.4873 0.4876
1268.000000 0.4861 0.4773 0.4700 0.4626 0.4602
1273.000000 0.4588 0.4217 0.3888 0.3689 0.3491
1278.000000 0.3292 0.3094 0.2896 0.2699 0.2501
1283.000000 0.2304 0.2108 0.1911 0.1715 0.1638
1288.000000 0.1623 0.1621 0.1614 0.1631 0.1769
1293.000000 0.1999 0.2229 0.2458 0.2688 0.2917
1298.000000 0.3144 0.3373 0.3601 0.3827 0.4055
1303.000000 0.4176 0.4212 0.4232 0.4242 0.4243
1308.000000 0.4231 0.4247 0.4116 0.4012 0.3895
1313.000000 0.3777 0.3661 0.3545 0.3428 0.3312
1318.000000 0.3196 0.3081 0.3025 0.3029 0.3005
1323.000000 0.3103 0.3162 0.3222 0.3282 0.3341
1328.000000 0.3389 0.3399 0.3397 0.3396 0.3394
1333.000000 0.3392 0.3390 0.3387 0.3409 0.3385
1338.000000 0.3383 0.3380 0.3375 0.3364 0.3345
1343.000000 0.3299 0.3243 0.3189 0.3158 0.3127
1348.000000 0.3102 0.3078 0.3051 0.3023 0.2995
1353.000000 0.2968 0.2942 0.2901 0.2803 0.2692
1358.000000 0.2580 0.2468 0.2357 0.2246 0.2134
1363.000000 0.1963 0.1892 0.1885 0.1885 0.1891
1368.000000 0.1876 0.1944 0.1993 0.2031 0.2059
1373.000000 0.2078 0.2095 0.2112 0.2123 0.2132
1378.000000 0.2137 0.2132 0.2133 0.2127 0.2117
1383.000000 0.2106 0.2093 0.2074 0.2045 0.2010
1388.000000 0.1960 0.1688 0.1555 0.1493 0.1468
1393.000000 0.1424 0.1323 0.1233 0.1157 0.1091
1398.000000 0.1037 0.0991 0.0976 0.0975 0.0973
1403.000000 0.0971 0.0970 0.0969 0.0968 0.0967
1408.000000 0.0966 0.0965 0.0965 0.0963 0.0963
1413.000000 0.0963 0.0963 0.0963 0.0963 0.0963
1418.000000 0.0963 0.0963 0.0963 0.0964 0.0964
1423.000000 0.0965 0.0965 0.0965 0.0959 0.0952
1428.000000 0.0944 0.0928 0.0904 0.0862 0.0812
1433.000000 0.0768 0.0725 0.0697 0.0685 0.0683
1438.000000 0.0682 0.0678 0.0675 0.0670 0.0655
1443.000000 0.0597 0.0511 0.0432 0.0397 0.0380
1448.000000 0.0372 0.0363 0.0357 0.0354 0.0351
1453.000000 0.0349 0.0346 0.0346 0.0347 0.0341
1458.000000 0.0363 0.0373 0.0384 0.0396 0.0408
1463.000000 0.0412 0.0417 0.0420 0.0418 0.0414
1468.000000 0.0409 0.0432 0.0392 0.0384 0.0376
1473.000000 0.0369 0.0362 0.0357 0.0352 0.0352
1478.000000 0.0359 0.0350 0.0387 0.0405 0.0429
1483.000000 0.0464 0.0522 0.0609 0.0699 0.0808
1488.000000 0.0949 0.1047 0.1363 0.1451 0.1586
1493.000000 0.2238 0.2825 0.2983 0.3142 0.3300
1498.000000 0.3458 0.3616 0.3774 0.3912 0.4154
1503.000000 0.4405 0.4671 0.4878 0.4959 0.5026
1508.000000 0.5087 0.5143 0.5206 0.5284 0.5355
1513.000000 0.5406 0.5450 0.5495 0.5538 0.5580
1518.000000 0.5620 0.5659 0.5687 0.5710 0.5726
1523.000000 0.5732 0.5738 0.5744 0.5749 0.5755
1528.000000 0.5760 0.5790 0.5834 0.5882 0.5926
1533.000000 0.5968 0.6003 0.6025 0.6047 0.6064
1538.000000 0.6071 0.6074 0.6076 0.6078 0.6079
1543.000000 0.6081 0.6083 0.6086 0.6092 0.6098
1548.000000 0.6106 0.6130 0.6150 0.6156 0.6163
1553.000000 0.6154 0.6158 0.6153 0.6149 0.6145
1558.000000 0.6140 0.6134 0.6127 0.6121 0.6114
1563.000000 0.6107 0.6100 0.6093 0.6085 0.6077
1568.000000 0.6068 0.6059 0.6050 0.6040 0.6030
1573.000000 0.6020 0.6010 0.5999 0.5986 0.5970
1578.000000 0.5953 0.5935 0.5918 0.5895 0.5869
1583.000000 0.5842 0.5814 0.5784 0.5755 0.5725
1588.000000 0.5669 0.5590 0.5505 0.5420 0.5335
1593.000000 0.5251 0.5166 0.5082 0.4997 0.4913
1598.000000 0.4847 0.4812 0.4792 0.4773 0.4755
1603.000000 0.4738 0.4717 0.4691 0.4657 0.4605
1608.000000 0.4540 0.4452 0.4346 0.4240 0.4137
1613.000000 0.4059 0.4027 0.4022 0.4021 0.4034
1618.000000 0.4140 0.4421 0.4724 0.5026 0.5327
1623.000000 0.5629 0.5825 0.5917 0.5963 0.5991
1628.000000 0.6020 0.6052 0.6110 0.6201 0.6239
1633.000000 0.6278 0.6316 0.6361 0.6406 0.6449
1638.000000 0.6475 0.6493 0.6509 0.6526 0.6543
1643.000000 0.6561 0.6581 0.6603 0.6624 0.6635
1648.000000 0.6643 0.6651 0.6658 0.6666 0.6674
1653.000000 0.6681 0.6689 0.6696 0.6703 0.6710
1658.000000 0.6718 0.6735 0.6751 0.6759 0.6767
1663.000000 0.6771 0.6774 0.6775 0.6778 0.6780
1668.000000 0.6782 0.6785 0.6786 0.6788 0.6789
1673.000000 0.6790 0.6792 0.6793 0.6794 0.6794
1678.000000 0.6791 0.6787 0.6783 0.6779 0.6776
1683.000000 0.6773 0.6774 0.6779 0.6787 0.6795
1688.000000 0.6797 0.6798 0.6800 0.6801 0.6801
1693.000000 0.6800 0.6799 0.6798 0.6798 0.6797
1698.000000 0.6795 0.6793 0.6791 0.6789 0.6786
1703.000000 0.6784 0.6782 0.6779 0.6776 0.6773
1708.000000 0.6769 0.6766 0.6762 0.6754 0.6745
1713.000000 0.6739 0.6736 0.6735 0.6735 0.6735
1718.000000 0.6736 0.6748 0.6764 0.6784 0.6806
1723.000000 0.6822 0.6837 0.6850 0.6857 0.6860
1728.000000 0.6862 0.6865 0.6867 0.6870 0.6872
1733.000000 0.6874 0.6876 0.6877 0.6877 0.6877
1738.000000 0.6878 0.6879 0.6880 0.6881 0.6881
1743.000000 0.6880 0.6879 0.6879 0.6878 0.6878
1748.000000 0.6878 0.6882 0.6876 0.6876 0.6875
1753.000000 0.6875 0.6874 0.6874 0.6873 0.6872
1758.000000 0.6872 0.6872 0.6871 0.6871 0.6870
1763.000000 0.6870 0.6869 0.6869 0.6868 0.6868
1768.000000 0.6868 0.6867 0.6867 0.6867 0.6867
1773.000000 0.6867 0.6866 0.6866 0.6866 0.6865
1778.000000 0.6865 0.6863 0.6859 0.6853 0.6847
1783.000000 0.6841 0.6822 0.6800 0.6779 0.6761
1788.000000 0.6744 0.6726 0.6709 0.6693 0.6677
1793.000000 0.6662 0.6646 0.6632 0.6619 0.6613
1798.000000 0.6610 0.6609 0.6607 0.6606 0.6604
1803.000000 0.6604 0.6605 0.6609 0.6614 0.6618
1808.000000 0.6623 0.6629 0.6639 0.6650 0.6660
1813.000000 0.6669 0.6679 0.6689 0.6696 0.6698
1818.000000 0.6700 0.6702 0.6704 0.6706 0.6707
1823.000000 0.6708 0.6709 0.6711 0.6711 0.6713
1828.000000 0.6714 0.6715 0.6716 0.6716 0.6715
1833.000000 0.6715 0.6715 0.6714 0.6714 0.6713
1838.000000 0.6713 0.6713 0.6712 0.6711 0.6711
1843.000000 0.6710 0.6709 0.6709 0.6708 0.6707
1848.000000 0.6705 0.6705 0.6704 0.6703 0.6701
1853.000000 0.6701 0.6700 0.6699 0.6697 0.6696
1858.000000 0.6691 0.6684 0.6676 0.6669 0.6661
1863.000000 0.6654 0.6647 0.6644 0.6643 0.6642
1868.000000 0.6640 0.6639 0.6639 0.6639 0.6640
1873.000000 0.6640 0.6640 0.6640 0.6640 0.6640
1878.000000 0.6640 0.6640 0.6639 0.6638 0.6636
1883.000000 0.6635 0.6634 0.6633 0.6632 0.6630
1888.000000 0.6629 0.6625 0.6621 0.6616 0.6610
1893.000000 0.6605 0.6600 0.6594 0.6585 0.6573
1898.000000 0.6562 0.6551 0.6540 0.6528 0.6520
1903.000000 0.6514 0.6509 0.6503 0.6498 0.6493
1908.000000 0.6488 0.6483 0.6478 0.6473 0.6468
1913.000000 0.6463 0.6459 0.6458 0.6457 0.6457
1918.000000 0.6457 0.6456 0.6456 0.6456 0.6456
1923.000000 0.6456 0.6455 0.6455 0.6455 0.6455
1928.000000 0.6456 0.6456 0.6447 0.6435 0.6422
1933.000000 0.6408 0.6394 0.6380 0.6366 0.6352
1938.000000 0.6338 0.6333 0.6329 0.6326 0.6324
1943.000000 0.6321 0.6319 0.6316 0.6313 0.6311
1948.000000 0.6308 0.6305 0.6303 0.6301 0.6299
1953.000000 0.6297 0.6295 0.6293 0.6291 0.6289
1958.000000 0.6287 0.6285 0.6282 0.6278 0.6273
1963.000000 0.6268 0.6263 0.6258 0.6253 0.6246
1968.000000 0.6238 0.6230 0.6222 0.6214 0.6205
1973.000000 0.6198 0.6190 0.6181 0.6174 0.6166
1978.000000 0.6158 0.6151 0.6143 0.6135 0.6128
1983.000000 0.6121 0.6113 0.6106 0.6098 0.6091
1988.000000 0.6084 0.6076 0.6069 0.6062 0.6055
1993.000000 0.6045 0.6035 0.6025 0.6015 0.6005
1998.000000 0.5995 0.5984 0.5974 0.5964 0.5954
2003.000000 0.5944 0.5933 0.5923 0.5914 0.5907
2008.000000 0.5901 0.5895 0.5888 0.5882 0.5876
2013.000000 0.5870 0.5864 0.5857 0.5851 0.5845
2018.000000 0.5839 0.5833 0.5829 0.5827 0.5825
2023.000000 0.5824 0.5823 0.5821 0.5819 0.5818
2028.000000 0.5817 0.5815 0.5811 0.5806 0.5801
2033.000000 0.5796 0.5791 0.5787 0.5781 0.5773
2038.000000 0.5766 0.5758 0.5749 0.5741 0.5733
2043.000000 0.5724 0.5716 0.5706 0.5696 0.5682
2048.000000 0.5669 0.5656 0.5642 0.5629 0.5616
2053.000000 0.5602 0.5589 0.5579 0.5571 0.5563
2058.000000 0.5556 0.5548 0.5541 0.5534 0.5529
2063.000000 0.5524 0.5519 0.5515 0.5511 0.5506
2068.000000 0.5502 0.5497 0.5493 0.5489 0.5484
2073.000000 0.5479 0.5475 0.5470 0.5466 0.5463
2078.000000 0.5461 0.5459 0.5457 0.5456 0.5454
2083.000000 0.5452 0.5450 0.5449 0.5447 0.5445
2088.000000 0.5442 0.5432 0.5413 0.5395 0.5377
2093.000000 0.5360 0.5342 0.5324 0.5307 0.5290
2098.000000 0.5273 0.5257 0.5240 0.5223 0.5206
2103.000000 0.5193 0.5185 0.5177 0.5170 0.5162
2108.000000 0.5155 0.5148 0.5141 0.5134 0.5127
2113.000000 0.5121 0.5117 0.5115 0.5113 0.5112
2118.000000 0.5111 0.5110 0.5110 0.5109 0.5108
2123.000000 0.5106 0.5105 0.5102 0.5100 0.5099
2128.000000 0.5097 0.5095 0.5093 0.5091 0.5089
2133.000000 0.5087 0.5085 0.5083 0.5077 0.5071
2138.000000 0.5065 0.5059 0.5053 0.5047 0.5040
2143.000000 0.5032 0.5022 0.5009 0.4994 0.4980
2148.000000 0.4965 0.4951 0.4937 0.4922 0.4907
2153.000000 0.4891 0.4872 0.4853 0.4833 0.4814
2158.000000 0.4797 0.4781 0.4771 0.4760 0.4749
2163.000000 0.4739 0.4729 0.4718 0.4708 0.4697
2168.000000 0.4686 0.4676 0.4666 0.4655 0.4645
2173.000000 0.4635 0.4625 0.4614 0.4602 0.4586
2178.000000 0.4566 0.4538 0.4509 0.4481 0.4433
2183.000000 0.4366 0.4328 0.4311 0.4293 0.4276
2188.000000 0.4258 0.4241 0.4224 0.4207 0.4189
2193.000000 0.4171 0.4154 0.4137 0.4121 0.4106
2198.000000 0.4094 0.4083 0.4072 0.4060 0.4049
2203.000000 0.4038 0.4027 0.4016 0.4005 0.3993
2208.000000 0.3982 0.3971 0.3959 0.3948 0.3938
2213.000000 0.3927 0.3915 0.3904 0.3893 0.3882
2218.000000 0.3871 0.3860 0.3849 0.3837 0.3825
2223.000000 0.3813 0.3802 0.3790 0.3778 0.3766
2228.000000 0.3754 0.3742 0.3730 0.3719 0.3707
2233.000000 0.3695 0.3683 0.3672 0.3660 0.3649
2238.000000 0.3637 0.3626 0.3615 0.3605 0.3595
2243.000000 0.3585 0.3575 0.3566 0.3556 0.3546
2248.000000 0.3536 0.3527 0.3517 0.3507 0.3498
2253.000000 0.3488 0.3478 0.3469 0.3459 0.3450
2258.000000 0.3440 0.3430 0.3420 0.3409 0.3397
2263.000000 0.3386 0.3375 0.3364 0.3353 0.3341
2268.000000 0.3330 0.3318 0.3307 0.3296 0.3285
2273.000000 0.3273 0.3259 0.3244 0.3222 0.3201
2278.000000 0.3179 0.3157 0.3136 0.3114 0.3089
2283.000000 0.3063 0.3030 0.2996 0.2962 0.2927
2288.000000 0.2893 0.2859 0.2828 0.2797 0.2767
2293.000000 0.2737 0.2707 0.2677 0.2647 0.2618
2298.000000 0.2591 0.2571 0.2552 0.2532 0.2513
2303.000000 0.2494 0.2474 0.2455 0.2435 0.2416
2308.000000 0.2396 0.2377 0.2357 0.2335 0.2311
2313.000000 0.2287 0.2263 0.2239 0.2215 0.2191
2318.000000 0.2167 0.2143 0.2119 0.2095 0.2065
2323.000000 0.2034 0.1991 0.1941 0.1892 0.1846
2328.000000 0.1803 0.1770 0.1737 0.1704 0.1670
2333.000000 0.1637 0.1604 0.1570 0.1536 0.1502
2338.000000 0.1467 0.1433 0.1398 0.1367 0.1350
2343.000000 0.1334 0.1318 0.1303 0.1287 0.1271
2348.000000 0.1255 0.1239 0.1224 0.1208 0.1192
2353.000000 0.1176 0.1160 0.1149 0.1138 0.1127
2358.000000 0.1117 0.1106 0.1096 0.1086 0.1075
2363.000000 0.1065 0.1055 0.1044 0.1034 0.1024
2368.000000 0.1013 0.1003 0.0992 0.0981 0.0971
2373.000000 0.0960 0.0949 0.0939 0.0928 0.0917
2378.000000 0.0907 0.0896 0.0886 0.0875 0.0864
2383.000000 0.0854 0.0844 0.0834 0.0824 0.0814
2388.000000 0.0804 0.0794 0.0784 0.0774 0.0765
2393.000000 0.0755 0.0746 0.0736 0.0726 0.0717
2398.000000 0.0707 0.0697 0.0687 0.0678 0.0668
2403.000000 0.0659 0.0649 0.0640 0.0630 0.0621
2408.000000 0.0612 0.0603 0.0593 0.0584 0.0574
2413.000000 0.0565 0.0556 0.0547 0.0537 0.0527
2418.000000 0.0517 0.0507 0.0497 0.0486 0.0476
2423.000000 0.0466 0.0458 0.0451 0.0449 0.0446
2428.000000 0.0443 0.0440 0.0437 0.0435 0.0432
2433.000000 0.0430 0.0427 0.0425 0.0422 0.0420
2438.000000 0.0417 0.0415 0.0413 0.0412 0.0411
2443.000000 0.0411 0.0410 0.0410 0.0410 0.0409
2448.000000 0.0408 0.0407 0.0407 0.0406 0.0406
2453.000000 0.0405 0.0404 0.0404 0.0403 0.0403
2458.000000 0.0402 0.0401 0.0401 0.0400 0.0399
2463.000000 0.0399 0.0399 0.0399 0.0399 0.0399
2468.000000 0.0399 0.0399 0.0399 0.0400 0.0400
2473.000000 0.0400 0.0400 0.0400 0.0400 0.0400
2478.000000 0.0400 0.0400 0.0400 0.0400 0.0400
2483.000000 0.0400 0.0400 0.0400 0.0400 0.0400
2488.000000 0.0401 0.0401 0.0401 0.0401 0.0401
2493.000000 0.0400 0.0400 0.0400 0.0400 0.0400
2498.000000 0.0400 0.0400 0.0400 0.0400 0.0400
2503.000000 0.0399 0.0399 0.0399 0.0399 0.0399
2508.000000 0.0399 0.0399 0.0399 0.0398 0.0398
2513.000000 0.0398 0.0398 0.0398 0.0397 0.0397
2518.000000 0.0396 0.0394 0.0393 0.0391 0.0390
2523.000000 0.0388 0.0386 0.0385 0.0383 0.0382
2528.000000 0.0380 0.0379 0.0377 0.0376 0.0374
2533.000000 0.0372 0.0370 0.0368 0.0365 0.0362
2538.000000 0.0360 0.0357 0.0354 0.0352 0.0349
2543.000000 0.0346 0.0344 0.0341 0.0339 0.0338
2548.000000 0.0336 0.0335 0.0334 0.0333 0.0331
2553.000000 0.0330 0.0330 0.0331 0.0332 0.0330
2558.000000 0.0335 0.0336 0.0337 0.0339 0.0340
2563.000000 0.0342 0.0343 0.0345 0.0346 0.0348
2568.000000 0.0350 0.0352 0.0354 0.0357 0.0359
2573.000000 0.0362 0.0365 0.0367 0.0370 0.0373
2578.000000 0.0375 0.0376 0.0378 0.0379 0.0381
2583.000000 0.0382 0.0384 0.0385 0.0386 0.0386
2588.000000 0.0387 0.0387 0.0387 0.0388 0.0388
2593.000000 0.0388 0.0389 0.0389 0.0389 0.0389
2598.000000 0.0389 0.0390 0.0390 0.0390 0.0391
2603.000000 0.0391 0.0391 0.0392 0.0392 0.0393
2608.000000 0.0393 0.0393 0.0394 0.0394 0.0394
2613.000000 0.0395 0.0395 0.0395 0.0396 0.0396
2618.000000 0.0397 0.0397 0.0397 0.0398 0.0398
2623.000000 0.0398 0.0399 0.0399 0.0399 0.0400
2628.000000 0.0400 0.0401 0.0401 0.0401 0.0402
2633.000000 0.0402 0.0402 0.0402 0.0402 0.0402
2638.000000 0.0403 0.0403 0.0404 0.0404 0.0404
2643.000000 0.0405 0.0405 0.0405 0.0406 0.0406
2648.000000 0.0406 0.0407 0.0407 0.0407 0.0408
2653.000000 0.0408 0.0409 0.0409 0.0409 0.0410
2658.000000 0.0410 0.0410 0.0411 0.0412 0.0413
2663.000000 0.0414 0.0415 0.0415 0.0416 0.0417
2668.000000 0.0418 0.0419 0.0420 0.0421 0.0422
2673.000000 0.0423 0.0424 0.0429 0.0434 0.0439
2678.000000 0.0445 0.0452 0.0459 0.0466 0.0473
2683.000000 0.0481 0.0490 0.0500 0.0509 0.0519
2688.000000 0.0528 0.0540 0.0552 0.0564 0.0577
2693.000000 0.0591 0.0604 0.0620 0.0636 0.0653
2698.000000 0.0677 0.0701 0.0725 0.0749 0.0773
2703.000000 0.0800 0.0831 0.0863 0.0891 0.0913
2708.000000 0.0935 0.0955 0.0971 0.0987 0.1003
2713.000000 0.1019 0.1034 0.1052 0.1070 0.1087
2718.000000 0.1109 0.1132 0.1155 0.1182 0.1210
2723.000000 0.1238 0.1271 0.1306 0.1342 0.1367
2728.000000 0.1388 0.1410 0.1427 0.1444 0.1460
2733.000000 0.1476 0.1492 0.1508 0.1519 0.1528
2738.000000 0.1537 0.1547 0.1556 0.1565 0.1575
2743.000000 0.1584 0.1593 0.1600 0.1605 0.1611
2748.000000 0.1615 0.1619 0.1622 0.1626 0.1630
2753.000000 0.1634 0.1638 0.1642 0.1645 0.1649
2758.000000 0.1653 0.1657 0.1660 0.1661 0.1663
2763.000000 0.1664 0.1666 0.1667 0.1668 0.1669
2768.000000 0.1671 0.1672 0.1673 0.1675 0.1676
2773.000000 0.1676 0.1676 0.1677 0.1677 0.1677
2778.000000 0.1677 0.1677 0.1677 0.1677 0.1677
2783.000000 0.1677 0.1678 0.1678 0.1678 0.1678
2788.000000 0.1696 0.1676 0.1676 0.1675 0.1675
2793.000000 0.1675 0.1674 0.1673 0.1673 0.1672
2798.000000 0.1672 0.1672 0.1670 0.1668 0.1665
2803.000000 0.1662 0.1656 0.1651 0.1645 0.1636
2808.000000 0.1627 0.1618 0.1609 0.1600 0.1591
2813.000000 0.1582 0.1573 0.1564 0.1555 0.1547
2818.000000 0.1538 0.1529 0.1521 0.1512 0.1504
2823.000000 0.1495 0.1486 0.1477 0.1469 0.1460
2828.000000 0.1452 0.1443 0.1433 0.1424 0.1414
2833.000000 0.1404 0.1393 0.1383 0.1373 0.1363
2838.000000 0.1352 0.1342 0.1333 0.1323 0.1312
2843.000000 0.1302 0.1292 0.1282 0.1272 0.1261
2848.000000 0.1251 0.1240 0.1229 0.1218 0.1207
2853.000000 0.1196 0.1184 0.1173 0.1162 0.1151
2858.000000 0.1140 0.1128 0.1117 0.1106 0.1095
2863.000000 0.1084 0.1073 0.1061 0.1050 0.1038
2868.000000 0.1027 0.1016 0.1004 0.0993 0.0982
2873.000000 0.0970 0.0958 0.0947 0.0935 0.0923
2878.000000 0.0904 0.0885 0.0866 0.0846 0.0825
2883.000000 0.0805 0.0785 0.0766 0.0747 0.0728
2888.000000 0.0716 0.0703 0.0690 0.0683 0.0677
2893.000000 0.0671 0.0664 0.0658 0.0652 0.0646
2898.000000 0.0640 0.0634 0.0628 0.0622 0.0617
2903.000000 0.0612 0.0608 0.0606 0.0604 0.0602
2908.000000 0.0600 0.0598 0.0596 0.0594 0.0592
2913.000000 0.0590 0.0588 0.0586 0.0585 0.0583
2918.000000 0.0581 0.0579 0.0577 0.0575 0.0574
2923.000000 0.0573 0.0571 0.0571 0.0570 0.0570
2928.000000 0.0569 0.0569 0.0569 0.0568 0.0568
2933.000000 0.0567 0.0567 0.0567 0.0567 0.0567
2938.000000 0.0568 0.0568 0.0569 0.0569 0.0564
2943.000000 0.0571 0.0571 0.0572 0.0573 0.0574
2948.000000 0.0574 0.0575 0.0576 0.0577 0.0578
2953.000000 0.0579 0.0580 0.0581 0.0583 0.0584
2958.000000 0.0586 0.0587 0.0588 0.0589 0.0590
2963.000000 0.0592 0.0593 0.0594 0.0595 0.0596
2968.000000 0.0597 0.0598 0.0600 0.0601 0.0603
2973.000000 0.0604 0.0605 0.0607 0.0608 0.0610
2978.000000 0.0612 0.0613 0.0615 0.0617 0.0619
2983.000000 0.0621 0.0623 0.0625 0.0627 0.0629
2988.000000 0.0630 0.0632 0.0634 0.0636 0.0638
2993.000000 0.0640 0.0641 0.0644 0.0646 0.0648
2998.000000 0.0650 0.0652 0.0654 0.0656 0.0658
3003.000000 0.0660 0.0663 0.0665 0.0667 0.0669
3008.000000 0.0672 0.0674 0.0676 0.0677 0.0679
3013.000000 0.0682 0.0684 0.0686 0.0688 0.0691
3018.000000 0.0695 0.0698 0.0700 0.0703 0.0706
3023.000000 0.0709 0.0712 0.0715 0.0718 0.0720
3028.000000 0.0723 0.0726 0.0729 0.0732 0.0735
3033.000000 0.0738 0.0741 0.0743 0.0746 0.0749
3038.000000 0.0751 0.0754 0.0757 0.0760 0.0763
3043.000000 0.0766 0.0769 0.0771 0.0774 0.0776
3048.000000 0.0778 0.0780 0.0783 0.0785 0.0788
3053.000000 0.0792 0.0797 0.0802 0.0807 0.0814
3058.000000 0.0821 0.0828 0.0835 0.0847 0.0858
3063.000000 0.0870 0.0881 0.0889 0.0897 0.0906
3068.000000 0.0912 0.0918 0.0923 0.0928 0.0930
3073.000000 0.0932 0.0933 0.0934 0.0936 0.0937
3078.000000 0.0938 0.0939 0.0941 0.0943 0.0944
3083.000000 0.0946 0.0948 0.0949 0.0951 0.0952
3088.000000 0.0954 0.0956 0.0957 0.0960 0.0964
3093.000000 0.0967 0.0970 0.0974 0.0979 0.0983
3098.000000 0.0990 0.1022 0.1054 0.1086 0.1115
3103.000000 0.1134 0.1154 0.1173 0.1189 0.1200
3108.000000 0.1211 0.1222 0.1232 0.1243 0.1253
3113.000000 0.1264 0.1275 0.1285 0.1296 0.1306
3118.000000 0.1317 0.1327 0.1338 0.1348 0.1359
3123.000000 0.1369 0.1380 0.1391 0.1401 0.1412
3128.000000 0.1423 0.1433 0.1444 0.1454 0.1465
3133.000000 0.1475 0.1486 0.1496 0.1507 0.1517
3138.000000 0.1527 0.1538 0.1548 0.1559 0.1569
3143.000000 0.1580 0.1591 0.1601 0.1611 0.1622
3148.000000 0.1632 0.1645 0.1661 0.1678 0.1694
3153.000000 0.1709 0.1723 0.1737 0.1752 0.1764
3158.000000 0.1773 0.1782 0.1791 0.1801 0.1810
3163.000000 0.1820 0.1829 0.1842 0.1859 0.1877
3168.000000 0.1894 0.1912 0.1933 0.1954 0.1974
3173.000000 0.1993 0.2009 0.2025 0.2042 0.2056
3178.000000 0.2067 0.2078 0.2089 0.2099 0.2105
3183.000000 0.2112 0.2118 0.2124 0.2131 0.2137
3188.000000 0.2144 0.2150 0.2156 0.2163 0.2169
3193.000000 0.2175 0.2182 0.2188 0.2194 0.2200
3198.000000 0.2206 0.2212 0.2217 0.2223 0.2229
3203.000000 0.2234 0.2239 0.2245 0.2250 0.2255
3208.000000 0.2260 0.2265 0.2271 0.2276 0.2281
3213.000000 0.2287 0.2291 0.2296 0.2301 0.2305
3218.000000 0.2309 0.2313 0.2317 0.2320 0.2324
3223.000000 0.2327 0.2331 0.2335 0.2338 0.2342
3228.000000 0.2345 0.2349 0.2353 0.2356 0.2360
3233.000000 0.2363 0.2367 0.2373 0.2379 0.2384
3238.000000 0.2390 0.2397 0.2404 0.2411 0.2418
3243.000000 0.2425 0.2432 0.2438 0.2445 0.2452
3248.000000 0.2460 0.2468 0.2476 0.2484 0.2491
3253.000000 0.2499 0.2507 0.2515 0.2520 0.2525
3258.000000 0.2530 0.2535 0.2540 0.2545 0.2550
3263.000000 0.2555 0.2559 0.2563 0.2566 0.2569
3268.000000 0.2573 0.2575 0.2578 0.2580 0.2583
3273.000000 0.2585 0.2588 0.2591 0.2593 0.2596
3278.000000 0.2598 0.2601 0.2603 0.2606 0.2608
3283.000000 0.2611 0.2614 0.2616 0.2618 0.2619
3288.000000 0.2620 0.2622 0.2623 0.2624 0.2625
3293.000000 0.2626 0.2627 0.2628 0.2629 0.2629
3298.000000 0.2630 0.2631 0.2633 0.2634 0.2635
3303.000000 0.2636 0.2637 0.2638 0.2639 0.2640
3308.000000 0.2641 0.2642 0.2643 0.2644 0.2645
3313.000000 0.2646 0.2647 0.2648 0.2649 0.2650
3318.000000 0.2651 0.2652 0.2652 0.2653 0.2653
3323.000000 0.2654 0.2654 0.2655 0.2656 0.2656
3328.000000 0.2657 0.2658 0.2658 0.2659 0.2660
3333.000000 0.2660 0.2661 0.2662 0.2662 0.2663
3338.000000 0.2664 0.2664 0.2664 0.2665 0.2665
3343.000000 0.2666 0.2667 0.2667 0.2668 0.2669
3348.000000 0.2669 0.2670 0.2671 0.2671 0.2672
3353.000000 0.2673 0.2674 0.2675 0.2676 0.2676
3358.000000 0.2677 0.2678 0.2678 0.2679 0.2680
3363.000000 0.2681 0.2682 0.2683 0.2684 0.2684
3368.000000 0.2685 0.2686 0.2687 0.2688 0.2689
3373.000000 0.2690 0.2691 0.2692 0.2692 0.2693
3378.000000 0.2694 0.2695 0.2696 0.2696 0.2697
3383.000000 0.2698 0.2698 0.2699 0.2700 0.2701
3388.000000 0.2702 0.2704 0.2706 0.2708 0.2709
3393.000000 0.2712 0.2714 0.2717 0.2720 0.2722
3398.000000 0.2725 0.2727 0.2730 0.2733 0.2736
3403.000000 0.2740 0.2743 0.2747 0.2751 0.2757
3408.000000 0.2764 0.2771 0.2778 0.2785 0.2792
3413.000000 0.2798 0.2805 0.2812 0.2818 0.2824
3418.000000 0.2831 0.2837 0.2844 0.2849 0.2855
3423.000000 0.2861 0.2867 0.2872 0.2878 0.2884
3428.000000 0.2890 0.2895 0.2901 0.2907 0.2913
3433.000000 0.2918 0.2924 0.2930 0.2936 0.2941
3438.000000 0.2947 0.2953 0.2958 0.2963 0.2968
3443.000000 0.2974 0.2979 0.2984 0.2989 0.2994
3448.000000 0.2999 0.3004 0.3009 0.3014 0.3019
3453.000000 0.3024 0.3031 0.3037 0.3043 0.3049
3458.000000 0.3057 0.3071 0.3085 0.3098 0.3112
3463.000000 0.3126 0.3140 0.3153 0.3167 0.3181
3468.000000 0.3203 0.3231 0.3259 0.3286 0.3314
3473.000000 0.3347 0.3381 0.3414 0.3448 0.3482
3478.000000 0.3500 0.3516 0.3533 0.3550 0.3568
3483.000000 0.3587 0.3607 0.3627 0.3647 0.3667
3488.000000 0.3689 0.3711 0.3734 0.3756 0.3773
3493.000000 0.3782 0.3791 0.3800 0.3809 0.3817
3498.000000 0.3825 0.3833 0.3841 0.3848 0.3856
3503.000000 0.3864 0.3872 0.3880 0.3888 0.3896
3508.000000 0.3904 0.3911 0.3919 0.3927 0.3938
3513.000000 0.3951 0.3963 0.3976 0.3988 0.4003
3518.000000 0.4017 0.4032 0.4046 0.4061 0.4075
3523.000000 0.4090 0.4105 0.4119 0.4134 0.4150
3528.000000 0.4165 0.4181 0.4197 0.4212 0.4228
3533.000000 0.4243 0.4259 0.4274 0.4289 0.4304
3538.000000 0.4318 0.4331 0.4345 0.4359 0.4373
3543.000000 0.4387 0.4401 0.4414 0.4428 0.4448
3548.000000 0.4468 0.4488 0.4508 0.4529 0.4558
3553.000000 0.4588 0.4618 0.4649 0.4679 0.4698
3558.000000 0.4715 0.4731 0.4748 0.4764 0.4780
3563.000000 0.4796 0.4811 0.4827 0.4842 0.4857
3568.000000 0.4872 0.4886 0.4901 0.4915 0.4929
3573.000000 0.4941 0.4954 0.4967 0.4980 0.4990
3578.000000 0.4998 0.5006 0.5014 0.5022 0.5030
3583.000000 0.5038 0.5046 0.5053 0.5061 0.5069
3588.000000 0.5077 0.5084 0.5092 0.5099 0.5107
3593.000000 0.5113 0.5119 0.5125 0.5131 0.5137
3598.000000 0.5143 0.5148 0.5154 0.5160 0.5166
3603.000000 0.5172 0.5179 0.5185 0.5192 0.5198
3608.000000 0.5206 0.5216 0.5225 0.5234 0.5244
3613.000000 0.5253 0.5263 0.5272 0.5281 0.5291
3618.000000 0.5301 0.5321 0.5342 0.5362 0.5383
3623.000000 0.5404 0.5420 0.5436 0.5451 0.5467
3628.000000 0.5483 0.5494 0.5502 0.5511 0.5519
3633.000000 0.5527 0.5535 0.5539 0.5543 0.5547
3638.000000 0.5550 0.5554 0.5556 0.5558 0.5560
3643.000000 0.5562 0.5564 0.5565 0.5566 0.5567
3648.000000 0.5568 0.5569 0.5570 0.5571 0.5571
3653.000000 0.5572 0.5573 0.5574 0.5574 0.5574
3658.000000 0.5574 0.5574 0.5574 0.5575 0.5575
3663.000000 0.5575 0.5575 0.5575 0.5581 0.5576
3668.000000 0.5576 0.5576 0.5576 0.5576 0.5576
3673.000000 0.5576 0.5576 0.5576 0.5576 0.5577
3678.000000 0.5577 0.5577 0.5577 0.5577 0.5577
3683.000000 0.5577 0.5577 0.5577 0.5577 0.5577
3688.000000 0.5577 0.5577 0.5577 0.5577 0.5577
3693.000000 0.5577 0.5577 0.5577 0.5577 0.5577
3698.000000 0.5577 0.5577 0.5577 0.5576 0.5575
3703.000000 0.5575 0.5574 0.5572 0.5570 0.5568
3708.000000 0.5566 0.5564 0.5561 0.5559 0.5556
3713.000000 0.5554 0.5551 0.5549 0.5546 0.5543
3718.000000 0.5540 0.5537 0.5534 0.5530 0.5525
3723.000000 0.5520 0.5515 0.5509 0.5505 0.5501
3728.000000 0.5497 0.5493 0.5490 0.5486 0.5483
3733.000000 0.5482 0.5480 0.5479 0.5477 0.5475
3738.000000 0.5474 0.5472 0.5470 0.5468 0.5466
3743.000000 0.5465 0.5464 0.5462 0.5461 0.5460
3748.000000 0.5459 0.5458 0.5457 0.5456 0.5456
3753.000000 0.5455 0.5454 0.5454 0.5453 0.5452
3758.000000 0.5451 0.5451 0.5450 0.5449 0.5449
3763.000000 0.5448 0.5447 0.5447 0.5446 0.5445
3768.000000 0.5444 0.5444 0.5443 0.5442 0.5442
3773.000000 0.5441 0.5440 0.5440 0.5439 0.5438
3778.000000 0.5438 0.5437 0.5437 0.5436 0.5436
3783.000000 0.5435 0.5434 0.5434 0.5433 0.5432
3788.000000 0.5431 0.5431 0.5430 0.5430 0.5429
3793.000000 0.5429 0.5425 0.5415 0.5406 0.5396
3798.000000 0.5387 0.5377 0.5369 0.5362 0.5355
3803.000000 0.5348 0.5341 0.5334 0.5330 0.5326
3808.000000 0.5322 0.5319 0.5315 0.5311 0.5308
3813.000000 0.5305 0.5301 0.5298 0.5294 0.5291
3818.000000 0.5289 0.5287 0.5285 0.5283 0.5281
3823.000000 0.5279 0.5278 0.5277 0.5276 0.5275
3828.000000 0.5274 0.5273 0.5272 0.5271 0.5271
3833.000000 0.5270 0.5269 0.5268 0.5268 0.5268
3838.000000 0.5267 0.5267 0.5267 0.5266 0.5266
3843.000000 0.5266 0.5266 0.5266 0.5266 0.5265
3848.000000 0.5265 0.5265 0.5264 0.5264 0.5264
3853.000000 0.5263 0.5263 0.5263 0.5263 0.5263
3858.000000 0.5263 0.5262 0.5262 0.5262 0.5261
3863.000000 0.5261 0.5260 0.5260 0.5260 0.5260
3868.000000 0.5260 0.5260 0.5259 0.5257 0.5255
3873.000000 0.5252 0.5250 0.5248 0.5245 0.5243
3878.000000 0.5240 0.5237 0.5235 0.5232 0.5229
3883.000000 0.5224 0.5219 0.5214 0.5209 0.5204
3888.000000 0.5199 0.5194 0.5188 0.5183 0.5178
3893.000000 0.5173 0.5168 0.5163 0.5158 0.5153
3898.000000 0.5148 0.5143 0.5138 0.5134 0.5131
3903.000000 0.5127 0.5123 0.5119 0.5115 0.5112
3908.000000 0.5109 0.5106 0.5103 0.5101 0.5098
3913.000000 0.5096 0.5095 0.5093 0.5092 0.5091
3918.000000 0.5090 0.5089 0.5089 0.5089 0.5088
3923.000000 0.5088 0.5088 0.5087 0.5087 0.5087
3928.000000 0.5086 0.5086 0.5086 0.5085 0.5085
3933.000000 0.5085 0.5084 0.5084 0.5084 0.5084
3938.000000 0.5083 0.5083 0.5083 0.5083 0.5083
3943.000000 0.5083 0.5082 0.5082 0.5082 0.5081
3948.000000 0.5081 0.5081 0.5080 0.5080 0.5080
3953.000000 0.5079 0.5079 0.5079 0.5078 0.5078
3958.000000 0.5078 0.5077 0.5077 0.5077 0.5076
3963.000000 0.5076 0.5076 0.5076 0.5076 0.5076
3968.000000 0.5076 0.5075 0.5075 0.5075 0.5074
3973.000000 0.5074 0.5074 0.5073 0.5073 0.5073
3978.000000 0.5072 0.5072 0.5072 0.5071 0.5071
3983.000000 0.5071 0.5071 0.5070 0.5070 0.5070
3988.000000 0.5069 0.5069 0.5069 0.5068 0.5068
3993.000000 0.5068 0.5068 0.5068 0.5068 0.5068
3998.000000 0.5068 0.5068 0.5068
##END=
