##TITLE=UREA, 1-METHYL-1-NITROSO-3-[2-(PURIN-8-YLTHIO)ETHYL]-
##JCAMP-DX=4.24
##DATA TYPE=INFRARED SPECTRUM
##CLASS=COBLENTZ III
##ORIGIN=SOUTHERN RESEARCH INSTITUTE
##OWNER=COBLENTZ SOCIETY
Collection (C) 2018 copyright by the U.S. Secretary of Commerce
on behalf of the United States of America. All rights reserved.
##DATE=1966/09/20
##NAMES=2-([(1-methyl-2-oxohydrazino)carbonyl]amino)ethyl 7H-purin-8-yl sulfide
8-[(2-([(1-methyl-2-oxohydrazino)carbonyl]amino)ethyl)sulfanyl]-7H-purine
##MOLFORM=C9 H11 N7 O2 S
##SOURCE REFERENCE=COBLENTZ NO. 8016
##$NIST ID=B6008016
##$NIST SOURCE=COBLENTZ
##$NIST IMAGE=cob8016
##SPECTROMETER/DATA SYSTEM=PERKIN-ELMER 521 (GRATING)
##INSTRUMENT PARAMETERS=FILTERS AT 3130, 2475, 2000, 620. GRATING CHANGES: 2000, 630
##STATE=SOLID (1 mg / 650 mg KBr DISC)
$$SPECTRAL CONTAMINATION DUE TO H2O AROUND 3400 CM^-^1
##SAMPLING PROCEDURE=TRANSMISSION
##RESOLUTION=2
##DATA PROCESSING=DIGITIZED BY NIST FROM HARD COPY (FROM TWO SEGMENTS)
##XUNITS=1/CM
##YUNITS=TRANSMITTANCE
##XFACTOR=1.000000
##YFACTOR=1
##DELTAX=1.265823
##FIRSTX=251.269
##LASTX=4003.17
##FIRSTY=0.259
##MAXX=4003.17
##MINX=251.269
##MAXY=0.938
##MINY=0.163062
##NPOINTS=2965
##XYDATA=(X++(Y..Y))
251.269000 0.2590 0.2749 0.2790 0.2830 0.2909
257.598115 0.3107 0.3198 0.3366 0.3516 0.3569
263.927230 0.3687 0.3807 0.3936 0.4027 0.4165
270.256345 0.4247 0.4393 0.4638 0.4716 0.4758
276.585460 0.4788 0.4856 0.4907 0.4985 0.5009
282.914575 0.5047 0.5143 0.5233 0.5295 0.5364
289.243690 0.5435 0.5486 0.5573 0.5617 0.5666
295.572805 0.5724 0.5857 0.6050 0.6151 0.6258
301.901920 0.6279 0.6298 0.6309 0.6319 0.6320
308.231035 0.6320 0.6320 0.6320 0.6320 0.6320
314.560150 0.6320 0.6320 0.6320 0.6450 0.6539
320.889265 0.6627 0.6691 0.6751 0.6887 0.7037
327.218380 0.7077 0.7088 0.7098 0.7184 0.7275
333.547495 0.7340 0.7375 0.7413 0.7478 0.7564
339.876610 0.7588 0.7623 0.7654 0.7701 0.7726
346.205725 0.7738 0.7764 0.7770 0.7770 0.7762
352.534840 0.7760 0.7744 0.7732 0.7730 0.7699
358.863955 0.7651 0.7593 0.7541 0.7484 0.7455
365.193070 0.7450 0.7465 0.7478 0.7526 0.7578
371.522185 0.7681 0.7861 0.7962 0.8040 0.8105
377.851300 0.8239 0.8369 0.8452 0.8499 0.8532
384.180415 0.8547 0.8550 0.8550 0.8557 0.8560
390.509530 0.8567 0.8570 0.8570 0.8563 0.8560
396.838645 0.8553 0.8529 0.8485 0.8449 0.8398
403.167760 0.8338 0.8237 0.8165 0.8116 0.8114
409.496875 0.8195 0.8379 0.8544 0.8657 0.8703
415.825990 0.8717 0.8720 0.8720 0.8720 0.8713
422.155105 0.8710 0.8703 0.8694 0.8690 0.8677
428.484220 0.8683 0.8690 0.8696 0.8713 0.8733
434.813335 0.8740 0.8740 0.8746 0.8750 0.8756
441.142450 0.8766 0.8770 0.8782 0.8790 0.8796
447.471565 0.8806 0.8810 0.8810 0.8810 0.8810
453.800680 0.8822 0.8830 0.8830 0.8830 0.8830
460.129795 0.8830 0.8830 0.8830 0.8830 0.8830
466.458910 0.8830 0.8830 0.8830 0.8819 0.8810
472.788025 0.8804 0.8800 0.8795 0.8779 0.8770
479.117140 0.8759 0.8745 0.8729 0.8709 0.8673
485.446255 0.8624 0.8579 0.8539 0.8504 0.8480
491.775370 0.8465 0.8460 0.8501 0.8550 0.8585
498.104485 0.8625 0.8650 0.8660 0.8655 0.8650
504.433600 0.8645 0.8630 0.8610 0.8595 0.8571
510.762715 0.8526 0.8481 0.8451 0.8398 0.8327
517.091830 0.8263 0.8187 0.8113 0.8006 0.7857
523.420945 0.7711 0.7640 0.7653 0.7692 0.7786
529.750060 0.8019 0.8219 0.8226 0.8211 0.8187
536.079175 0.8140 0.8007 0.7821 0.7648 0.7512
542.408290 0.7512 0.7547 0.7636 0.7934 0.8303
548.737405 0.8414 0.8428 0.8440 0.8440 0.8440
555.066520 0.8432 0.8416 0.8406 0.8392 0.8376
561.395635 0.8370 0.8366 0.8360 0.8360 0.8360
567.724750 0.8356 0.8343 0.8330 0.8326 0.8316
574.053865 0.8306 0.8293 0.8277 0.8267 0.8260
580.382980 0.8257 0.8243 0.8220 0.8193 0.8177
586.712095 0.8163 0.8144 0.8124 0.8107 0.8094
593.041210 0.8061 0.8014 0.7994 0.7974 0.7905
599.370325 0.7732 0.7569 0.7406 0.7256 0.7110
605.699440 0.6967 0.6814 0.6629 0.6427 0.6345
612.028555 0.6217 0.5963 0.5636 0.5359 0.5297
618.357670 0.5293 0.5442 0.6077 0.6873 0.7339
624.686785 0.7693 0.7820 0.7917 0.7945 0.7960
631.015900 0.7955 0.7940 0.7940 0.7938 0.7928
637.345015 0.7913 0.7886 0.7861 0.7821 0.7786
643.674130 0.7764 0.7734 0.7693 0.7620 0.7574
650.003245 0.7548 0.7536 0.7514 0.7488 0.7474
656.332360 0.7450 0.7450 0.7448 0.7440 0.7438
662.661475 0.7423 0.7378 0.7296 0.7168 0.7107
668.990590 0.7080 0.7014 0.6897 0.6701 0.6592
675.319705 0.6549 0.6541 0.6556 0.6626 0.6888
681.648820 0.7151 0.7305 0.7416 0.7529 0.7599
687.977935 0.7664 0.7695 0.7734 0.7761 0.7772
694.307050 0.7790 0.7792 0.7810 0.7810 0.7808
700.636165 0.7789 0.7781 0.7790 0.7790 0.7792
706.965280 0.7811 0.7821 0.7832 0.7860 0.7860
713.294395 0.7861 0.7870 0.7870 0.7870 0.7869
719.623510 0.7860 0.7858 0.7827 0.7779 0.7758
725.952625 0.7730 0.7730 0.7741 0.7760 0.7770
732.281740 0.7770 0.7780 0.7791 0.7810 0.7820
738.610855 0.7820 0.7820 0.7830 0.7820 0.7820
744.939970 0.7790 0.7770 0.7770 0.7780 0.7790
751.269085 0.7810 0.7820 0.7840 0.7860 0.7880
757.598200 0.7909 0.7920 0.7930 0.7930 0.7930
763.927315 0.7920 0.7920 0.7881 0.7842 0.7782
770.256430 0.7742 0.7682 0.7613 0.7553 0.7455
776.585545 0.7384 0.7295 0.7224 0.7098 0.6941
782.914660 0.6716 0.6420 0.6214 0.5996 0.5518
789.243775 0.5112 0.5034 0.5003 0.5009 0.5364
795.572890 0.6323 0.6883 0.7374 0.7835 0.8033
801.902005 0.8184 0.8245 0.8250 0.8259 0.8269
808.231120 0.8270 0.8261 0.8251 0.8224 0.8203
814.560235 0.8174 0.8109 0.7988 0.7936 0.7913
820.889350 0.7833 0.7786 0.7703 0.7571 0.7491
827.218465 0.7446 0.7440 0.7507 0.7804 0.8018
833.547580 0.8224 0.8293 0.8317 0.8320 0.8312
839.876695 0.8310 0.8310 0.8302 0.8276 0.8238
846.205810 0.8190 0.8140 0.8082 0.7982 0.7920
852.534925 0.7846 0.7759 0.7677 0.7597 0.7557
858.864040 0.7550 0.7581 0.7707 0.7849 0.7973
865.193155 0.8169 0.8289 0.8379 0.8430 0.8455
871.522270 0.8483 0.8505 0.8518 0.8520 0.8520
877.851385 0.8535 0.8540 0.8540 0.8525 0.8520
884.180500 0.8520 0.8513 0.8495 0.8476 0.8463
890.509615 0.8453 0.8443 0.8419 0.8382 0.8335
896.838730 0.8292 0.8224 0.8172 0.8132 0.8078
903.167845 0.8018 0.7952 0.7889 0.7808 0.7712
909.496960 0.7605 0.7455 0.7319 0.7192 0.6976
915.826075 0.6730 0.6510 0.6288 0.5993 0.5821
922.155190 0.5783 0.5800 0.5888 0.6462 0.6847
928.484305 0.6926 0.6953 0.6954 0.6937 0.6905
934.813420 0.6802 0.6668 0.6507 0.6396 0.6327
941.142535 0.6176 0.5996 0.5826 0.5705 0.5561
947.471650 0.5346 0.5087 0.4793 0.4574 0.4403
953.800765 0.4141 0.3822 0.3520 0.3383 0.3370
960.129880 0.3462 0.3842 0.4220 0.4536 0.4827
966.458995 0.5168 0.5581 0.6158 0.6632 0.6887
972.788110 0.7056 0.7182 0.7323 0.7434 0.7530
979.117225 0.7623 0.7665 0.7675 0.7685 0.7690
985.446340 0.7690 0.7690 0.7690 0.7690 0.7690
991.775455 0.7680 0.7670 0.7665 0.7645 0.7610
998.104570 0.7540 0.7385 0.7195 0.7035 0.6901
1004.433685 0.6776 0.6637 0.6516 0.6427 0.6275
1010.762800 0.6018 0.5637 0.5171 0.4892 0.4845
1017.091915 0.4845 0.4989 0.5274 0.5557 0.5725
1023.421030 0.5712 0.5677 0.5628 0.5523 0.5431
1029.750145 0.5424 0.5557 0.5841 0.6194 0.6531
1036.079260 0.6771 0.7107 0.7363 0.7424 0.7430
1042.408375 0.7426 0.7420 0.7367 0.7209 0.7010
1048.737490 0.6774 0.6588 0.6566 0.6572 0.6598
1055.066605 0.6680 0.6875 0.7110 0.7331 0.7468
1061.395720 0.7560 0.7617 0.7641 0.7664 0.7677
1067.724835 0.7697 0.7714 0.7727 0.7740 0.7747
1074.053950 0.7767 0.7794 0.7841 0.7901 0.7940
1080.383065 0.7940 0.7940 0.7940 0.7940 0.7940
1086.712180 0.7940 0.7940 0.7940 0.7914 0.7831
1093.041295 0.7739 0.7627 0.7481 0.7300 0.7062
1099.370410 0.6773 0.6461 0.6257 0.6078 0.5991
1105.699525 0.5979 0.6186 0.6746 0.7071 0.7324
1112.028640 0.7478 0.7661 0.7880 0.7880 0.7877
1118.357755 0.7870 0.7867 0.7855 0.7827 0.7787
1124.686870 0.7775 0.7748 0.7693 0.7635 0.7613
1131.015985 0.7578 0.7517 0.7428 0.7374 0.7304
1137.345100 0.7230 0.7138 0.7038 0.6936 0.6828
1143.674215 0.6729 0.6631 0.6531 0.6392 0.6246
1150.003330 0.6043 0.5721 0.5486 0.5325 0.5199
1156.332445 0.5091 0.4977 0.4797 0.4639 0.4576
1162.661560 0.4484 0.4336 0.4191 0.4038 0.3968
1168.990675 0.3874 0.3671 0.3550 0.3419 0.3284
1175.319790 0.3170 0.3040 0.2970 0.2909 0.2901
1181.648905 0.2913 0.2946 0.3070 0.3229 0.3473
1187.978020 0.3903 0.4841 0.5212 0.5710 0.6085
1194.307135 0.6123 0.6145 0.6096 0.6056 0.5995
1200.636250 0.5741 0.5449 0.5226 0.5077 0.4949
1206.965365 0.4939 0.4931 0.4949 0.5061 0.5213
1213.294480 0.5397 0.5639 0.5778 0.6020 0.6012
1219.623595 0.5883 0.5768 0.5562 0.5423 0.5285
1225.952710 0.5174 0.5046 0.4946 0.4855 0.4737
1232.281825 0.4657 0.4563 0.4364 0.4154 0.3914
1238.610940 0.3659 0.3630 0.3620 0.3610 0.3621
1244.940055 0.3683 0.3941 0.4031 0.4180 0.4788
1251.269170 0.5138 0.5467 0.5689 0.5958 0.6168
1257.598285 0.6515 0.6658 0.6768 0.6858 0.6928
1263.927400 0.6978 0.7048 0.7098 0.7148 0.7160
1270.256515 0.7179 0.7190 0.7190 0.7180 0.7161
1276.585630 0.7103 0.7034 0.6898 0.6777 0.6667
1282.914745 0.6548 0.6410 0.6307 0.6208 0.6016
1289.243860 0.5706 0.5424 0.4821 0.4440 0.4081
1295.572975 0.3395 0.3276 0.3243 0.3285 0.3416
1301.902090 0.3939 0.4294 0.4491 0.4635 0.4739
1308.231205 0.4936 0.5066 0.5352 0.5460 0.5487
1314.560320 0.5490 0.5455 0.5190 0.4942 0.4772
1320.889435 0.4613 0.4316 0.4236 0.4230 0.4247
1327.218550 0.4258 0.4780 0.5217 0.5608 0.5955
1333.547665 0.6477 0.6728 0.6876 0.6941 0.6991
1339.876780 0.7008 0.7010 0.7010 0.6994 0.6966
1346.205895 0.6903 0.6810 0.6686 0.6572 0.6463
1352.535010 0.6408 0.6361 0.6310 0.6276 0.6176
1358.864125 0.6056 0.5960 0.5886 0.5831 0.5782
1365.193240 0.5732 0.5674 0.5660 0.5645 0.5655
1371.522355 0.5660 0.5743 0.5838 0.5875 0.5887
1377.851470 0.5883 0.5865 0.5764 0.5678 0.5447
1384.180585 0.5128 0.4887 0.4779 0.4746 0.4740
1390.509700 0.4740 0.4740 0.4740 0.4740 0.4740
1396.838815 0.4740 0.4726 0.4713 0.4696 0.4669
1403.167930 0.4646 0.4619 0.4603 0.4600 0.4593
1409.497045 0.4542 0.4500 0.4443 0.4386 0.4357
1415.826160 0.4337 0.4330 0.4350 0.4373 0.4591
1422.155275 0.4825 0.4923 0.4946 0.4911 0.4813
1428.484390 0.4706 0.4606 0.4506 0.4406 0.4268
1434.813505 0.4115 0.3752 0.3401 0.3114 0.2988
1441.142620 0.2968 0.2978 0.3064 0.3245 0.3403
1447.471735 0.3547 0.3670 0.3722 0.3748 0.3742
1453.800850 0.3718 0.3581 0.3308 0.3063 0.2857
1460.129965 0.2567 0.2166 0.1951 0.1924 0.1926
1466.459080 0.1936 0.1962 0.2008 0.2058 0.2158
1472.788195 0.2270 0.2387 0.2472 0.2545 0.2720
1479.117310 0.2895 0.3004 0.3104 0.3214 0.3329
1485.446425 0.3444 0.3568 0.3714 0.3884 0.4068
1491.775540 0.4273 0.4416 0.4598 0.4837 0.5021
1498.104655 0.5216 0.5400 0.5530 0.5629 0.5709
1504.433770 0.5750 0.5760 0.5750 0.5735 0.5720
1510.762885 0.5686 0.5627 0.5538 0.5438 0.5301
1517.092000 0.5112 0.4927 0.4743 0.4599 0.4509
1523.421115 0.4374 0.4193 0.4019 0.3840 0.3665
1529.750230 0.3496 0.3331 0.3162 0.2990 0.2852
1536.079345 0.2739 0.2657 0.2632 0.2628 0.2644
1542.408460 0.2757 0.2963 0.3175 0.3501 0.3820
1548.737575 0.4252 0.4722 0.4993 0.5256 0.5506
1555.066690 0.5725 0.5937 0.6125 0.6334 0.6534
1561.395805 0.6616 0.6679 0.6729 0.6764 0.6781
1567.724920 0.6800 0.6796 0.6783 0.6770 0.6749
1574.054035 0.6696 0.6625 0.6498 0.6382 0.6222
1580.383150 0.5952 0.5667 0.5397 0.5043 0.4564
1586.712265 0.4239 0.3685 0.2955 0.2840 0.2853
1593.041380 0.2899 0.3079 0.3789 0.4752 0.4896
1599.370495 0.4901 0.4868 0.4784 0.4594 0.4379
1605.699610 0.4063 0.3762 0.3746 0.4052 0.5000
1612.028725 0.5648 0.6102 0.6622 0.6835 0.7000
1618.357840 0.7144 0.7263 0.7348 0.7418 0.7483
1624.686955 0.7525 0.7547 0.7575 0.7597 0.7634
1631.016070 0.7689 0.7729 0.7765 0.7787 0.7815
1637.345185 0.7837 0.7864 0.7882 0.7896 0.7920
1643.674300 0.7922 0.7932 0.7940 0.7946 0.7970
1650.003415 0.7972 0.7984 0.8002 0.8010 0.8012
1656.332530 0.8020 0.8020 0.8018 0.8010 0.8008
1662.661645 0.8000 0.7997 0.7973 0.7932 0.7882
1668.990760 0.7829 0.7756 0.7665 0.7564 0.7463
1675.319875 0.7352 0.7232 0.7091 0.6826 0.6591
1681.648990 0.6398 0.6307 0.6199 0.6040 0.5891
1687.978105 0.5739 0.5572 0.5417 0.5228 0.5034
1694.307220 0.4817 0.4697 0.4576 0.4442 0.4366
1700.636335 0.4323 0.4246 0.4101 0.3990 0.3764
1706.965450 0.3484 0.3410 0.3272 0.2914 0.2595
1713.294565 0.2279 0.1995 0.1668 0.1639 0.1631
1719.623680 0.1641 0.1668 0.1819 0.1990 0.2170
1725.952795 0.2359 0.2560 0.2989 0.3210 0.3460
1732.281910 0.3740 0.4039 0.4671 0.5071 0.5439
1738.611025 0.5777 0.6091 0.6644 0.6883 0.7102
1744.940140 0.7301 0.7491 0.7660 0.7811 0.7940
1751.269255 0.8070 0.8269 0.8369 0.8449 0.8519
1757.598370 0.8599 0.8659 0.8719 0.8808 0.8878
1763.927485 0.8929 0.8949 0.8979 0.8990 0.9048
1770.256600 0.9079 0.9109 0.9129 0.9149 0.9160
1776.585715 0.9188 0.9190 0.9199 0.9219 0.9229
1782.914830 0.9239 0.9249 0.9269 0.9279 0.9289
1789.243945 0.9290 0.9299 0.9300 0.9300 0.9318
1795.573060 0.9320 0.9320 0.9329 0.9330 0.9330
1801.902175 0.9330 0.9330 0.9330 0.9330 0.9330
1808.231290 0.9330 0.9330 0.9330 0.9330 0.9330
1814.560405 0.9330 0.9330 0.9330 0.9330 0.9330
1820.889520 0.9330 0.9330 0.9330 0.9330 0.9330
1827.218635 0.9330 0.9330 0.9330 0.9330 0.9330
1833.547750 0.9330 0.9330 0.9330 0.9322 0.9320
1839.876865 0.9320 0.9304 0.9300 0.9300 0.9300
1846.205980 0.9316 0.9328 0.9338 0.9340 0.9340
1852.535095 0.9348 0.9350 0.9350 0.9366 0.9378
1858.864210 0.9380 0.9380 0.9380 0.9380 0.9380
1865.193325 0.9380 0.9380 0.9380 0.9380 0.9372
1871.522440 0.9370 0.9355 0.9350 0.9343 0.9340
1877.851555 0.9333 0.9330 0.9308 0.9300 0.9300
1884.180670 0.9300 0.9293 0.9297 0.9300 0.9300
1890.509785 0.9300 0.9300 0.9300 0.9314 0.9327
1896.838900 0.9330 0.9330 0.9330 0.9337 0.9340
1903.168015 0.9347 0.9350 0.9350 0.9350 0.9350
1909.497130 0.9350 0.9350 0.9350 0.9350 0.9350
1915.826245 0.9350 0.9350 0.9350 0.9350 0.9350
1922.155360 0.9350 0.9350 0.9350 0.9350 0.9350
1928.484475 0.9350 0.9350 0.9350 0.9350 0.9350
1934.813590 0.9350 0.9350 0.9350 0.9350 0.9350
1941.142705 0.9362 0.9370 0.9370 0.9370 0.9376
1947.471820 0.9380 0.9380 0.9380 0.9380 0.9380
1953.800935 0.9380 0.9380 0.9380 0.9380 0.9380
1960.130050 0.9380 0.9380 0.9380 0.9380 0.9380
1966.459165 0.9380 0.9380 0.9380 0.9374 0.9359
1972.788280 0.9350 0.9350 0.9350 0.9350 0.9350
1979.117395 0.9350 0.9350 0.9350 0.9350 0.9350
1985.446510 0.9345 0.9340 0.9340 0.9340 0.9340
1991.775625 0.9340 0.9335 0.9330 0.9330 0.9330
1998.104740 0.9330 0.9325 0.9320 0.9320 0.9310
2004.433855 0.9300 0.9300 0.9300 0.9300 0.9300
2010.762970 0.9295 0.9290 0.9290 0.9285 0.9280
2017.092085 0.9280 0.9280 0.9280 0.9275 0.9270
2023.421200 0.9270 0.9270 0.9260 0.9250 0.9250
2029.750315 0.9250 0.9250 0.9250 0.9250 0.9250
2036.079430 0.9250 0.9250 0.9250 0.9250 0.9250
2042.408545 0.9250 0.9260 0.9270 0.9270 0.9270
2048.737660 0.9270 0.9270 0.9260 0.9250 0.9250
2055.066775 0.9245 0.9240 0.9235 0.9230 0.9230
2061.395890 0.9230 0.9230 0.9230 0.9230 0.9225
2067.725005 0.9220 0.9220 0.9220 0.9220 0.9210
2074.054120 0.9200 0.9200 0.9195 0.9190 0.9190
2080.383235 0.9190 0.9190 0.9185 0.9180 0.9180
2086.712350 0.9180 0.9180 0.9170 0.9160 0.9160
2093.041465 0.9155 0.9150 0.9150 0.9150 0.9150
2099.370580 0.9150 0.9150 0.9150 0.9145 0.9140
2105.699695 0.9140 0.9140 0.9140 0.9140 0.9140
2112.028810 0.9140 0.9140 0.9135 0.9130 0.9130
2118.357925 0.9130 0.9130 0.9130 0.9130 0.9130
2124.687040 0.9130 0.9130 0.9130 0.9130 0.9130
2131.016155 0.9120 0.9110 0.9110 0.9110 0.9110
2137.345270 0.9110 0.9110 0.9110 0.9110 0.9110
2143.674385 0.9110 0.9105 0.9100 0.9100 0.9100
2150.003500 0.9100 0.9100 0.9100 0.9100 0.9100
2156.332615 0.9100 0.9095 0.9090 0.9090 0.9090
2162.661730 0.9090 0.9090 0.9090 0.9090 0.9085
2168.990845 0.9080 0.9080 0.9080 0.9080 0.9080
2175.319960 0.9080 0.9080 0.9080 0.9080 0.9080
2181.649075 0.9080 0.9080 0.9080 0.9080 0.9065
2187.978190 0.9050 0.9045 0.9040 0.9035 0.9030
2194.307305 0.9020 0.9005 0.9000 0.8995 0.8990
2200.636420 0.8985 0.8970 0.8960 0.8960 0.8955
2206.965535 0.8950 0.8945 0.8940 0.8940 0.8935
2213.294650 0.8930 0.8930 0.8930 0.8930 0.8930
2219.623765 0.8920 0.8910 0.8910 0.8905 0.8900
2225.952880 0.8900 0.8900 0.8900 0.8900 0.8900
2232.281995 0.8900 0.8900 0.8900 0.8900 0.8890
2238.611110 0.8880 0.8870 0.8860 0.8855 0.8850
2244.940225 0.8845 0.8835 0.8830 0.8820 0.8810
2251.269340 0.8805 0.8800 0.8795 0.8790 0.8790
2257.598455 0.8780 0.8770 0.8770 0.8765 0.8760
2263.927570 0.8760 0.8755 0.8750 0.8750 0.8745
2270.256685 0.8740 0.8740 0.8740 0.8740 0.8730
2276.585800 0.8730 0.8740 0.8740 0.8740 0.8740
2282.914915 0.8740 0.8740 0.8740 0.8740 0.8740
2289.244030 0.8740 0.8730 0.8720 0.8720 0.8720
2295.573145 0.8715 0.8710 0.8710 0.8705 0.8700
2301.902260 0.8695 0.8690 0.8680 0.8670 0.8665
2308.231375 0.8660 0.8655 0.8650 0.8645 0.8630
2314.560490 0.8620 0.8615 0.8605 0.8600 0.8595
2320.889605 0.8580 0.8570 0.8560 0.8550 0.8545
2327.218720 0.8530 0.8515 0.8510 0.8510 0.8505
2333.547835 0.8500 0.8495 0.8480 0.8470 0.8470
2339.876950 0.8470 0.8465 0.8460 0.8460 0.8455
2346.206065 0.8450 0.8450 0.8450 0.8450 0.8450
2352.535180 0.8450 0.8445 0.8440 0.8440 0.8440
2358.864295 0.8440 0.8430 0.8420 0.8420 0.8420
2365.193410 0.8420 0.8420 0.8420 0.8420 0.8420
2371.522525 0.8420 0.8420 0.8420 0.8415 0.8410
2377.851640 0.8410 0.8405 0.8400 0.8400 0.8390
2384.180755 0.8380 0.8380 0.8375 0.8365 0.8355
2390.509870 0.8350 0.8340 0.8330 0.8330 0.8325
2396.838985 0.8320 0.8315 0.8310 0.8305 0.8300
2403.168100 0.8290 0.8280 0.8275 0.8265 0.8260
2409.497215 0.8260 0.8260 0.8255 0.8250 0.8250
2415.826330 0.8250 0.8240 0.8230 0.8230 0.8225
2422.155445 0.8220 0.8220 0.8220 0.8215 0.8210
2428.484560 0.8210 0.8205 0.8200 0.8200 0.8200
2434.813675 0.8200 0.8190 0.8180 0.8175 0.8170
2441.142790 0.8170 0.8170 0.8170 0.8165 0.8160
2447.471905 0.8160 0.8160 0.8155 0.8150 0.8150
2453.801020 0.8140 0.8130 0.8130 0.8130 0.8125
2460.130135 0.8120 0.8120 0.8115 0.8110 0.8110
2466.459250 0.8110 0.8105 0.8100 0.8100 0.8100
2472.788365 0.8090 0.8080 0.8075 0.8070 0.8070
2479.117480 0.8065 0.8060 0.8060 0.8055 0.8050
2485.446595 0.8050 0.8035 0.8020 0.8020 0.8015
2491.775710 0.8010 0.8005 0.8000 0.7990 0.7990
2498.104825 0.7990 0.7980 0.7975 0.7965 0.7960
2504.433940 0.7950 0.7940 0.7935 0.7930 0.7920
2510.763055 0.7910 0.7900 0.7885 0.7880 0.7875
2517.092170 0.7865 0.7850 0.7840 0.7835 0.7820
2523.421285 0.7800 0.7785 0.7775 0.7770 0.7770
2529.750400 0.7765 0.7760 0.7750 0.7735 0.7725
2536.079515 0.7715 0.7710 0.7700 0.7685 0.7670
2542.408630 0.7650 0.7635 0.7625 0.7615 0.7600
2548.737745 0.7585 0.7575 0.7560 0.7550 0.7535
2555.066860 0.7505 0.7490 0.7485 0.7465 0.7445
2561.395975 0.7435 0.7430 0.7430 0.7425 0.7420
2567.725090 0.7420 0.7410 0.7395 0.7390 0.7390
2574.054205 0.7385 0.7380 0.7375 0.7370 0.7370
2580.383320 0.7370 0.7370 0.7370 0.7370 0.7370
2586.712435 0.7370 0.7355 0.7335 0.7325 0.7310
2593.041550 0.7290 0.7280 0.7280 0.7275 0.7270
2599.370665 0.7270 0.7260 0.7250 0.7250 0.7245
2605.699780 0.7240 0.7240 0.7235 0.7215 0.7175
2612.028895 0.7150 0.7145 0.7135 0.7130 0.7120
2618.358010 0.7110 0.7105 0.7100 0.7100 0.7100
2624.687125 0.7100 0.7100 0.7100 0.7100 0.7095
2631.016240 0.7095 0.7095 0.7090 0.7090 0.7090
2637.345355 0.7085 0.7065 0.7045 0.7040 0.7035
2643.674470 0.7020 0.7010 0.7005 0.7005 0.7005
2650.003585 0.7000 0.7000 0.6995 0.6990 0.6985
2656.332700 0.6970 0.6960 0.6960 0.6955 0.6950
2662.661815 0.6950 0.6950 0.6950 0.6950 0.6950
2668.990930 0.6950 0.6950 0.6950 0.6950 0.6950
2675.320045 0.6950 0.6955 0.6970 0.6970 0.6960
2681.649160 0.6970 0.6970 0.6960 0.6960 0.6960
2687.978275 0.6955 0.6950 0.6950 0.6945 0.6940
2694.307390 0.6940 0.6935 0.6930 0.6920 0.6910
2700.636505 0.6910 0.6905 0.6895 0.6890 0.6890
2706.965620 0.6885 0.6880 0.6870 0.6860 0.6860
2713.294735 0.6855 0.6850 0.6845 0.6835 0.6830
2719.623850 0.6820 0.6805 0.6795 0.6780 0.6765
2725.952965 0.6760 0.6755 0.6735 0.6720 0.6715
2732.282080 0.6705 0.6700 0.6695 0.6680 0.6670
2738.611195 0.6665 0.6640 0.6610 0.6585 0.6560
2744.940310 0.6535 0.6510 0.6485 0.6470 0.6460
2751.269425 0.6435 0.6415 0.6395 0.6365 0.6335
2757.598540 0.6310 0.6275 0.6240 0.6225 0.6215
2763.927655 0.6210 0.6210 0.6210 0.6215 0.6225
2770.256770 0.6245 0.6265 0.6275 0.6280 0.6290
2776.585885 0.6290 0.6295 0.6310 0.6315 0.6320
2782.915000 0.6320 0.6320 0.6320 0.6315 0.6305
2789.244115 0.6290 0.6275 0.6270 0.6265 0.6260
2795.573230 0.6255 0.6250 0.6250 0.6250 0.6250
2801.902345 0.6250 0.6240 0.6230 0.6225 0.6220
2808.231460 0.6220 0.6215 0.6210 0.6210 0.6210
2814.560575 0.6210 0.6210 0.6210 0.6210 0.6210
2820.889690 0.6210 0.6210 0.6210 0.6210 0.6210
2827.218805 0.6210 0.6210 0.6210 0.6210 0.6210
2833.547920 0.6205 0.6200 0.6190 0.6170 0.6155
2839.877035 0.6135 0.6120 0.6110 0.6090 0.6080
2846.206150 0.6080 0.6080 0.6090 0.6100 0.6100
2852.535265 0.6100 0.6100 0.6105 0.6110 0.6105
2858.864380 0.6100 0.6100 0.6100 0.6100 0.6090
2865.193495 0.6080 0.6080 0.6075 0.6070 0.6070
2871.522610 0.6070 0.6070 0.6070 0.6065 0.6060
2877.851725 0.6060 0.6060 0.6060 0.6060 0.6060
2884.180840 0.6060 0.6060 0.6060 0.6055 0.6050
2890.509955 0.6050 0.6040 0.6030 0.6020 0.6005
2896.839070 0.5990 0.5970 0.5945 0.5925 0.5915
2903.168185 0.5910 0.5900 0.5885 0.5880 0.5875
2909.497300 0.5870 0.5865 0.5850 0.5835 0.5825
2915.826415 0.5800 0.5760 0.5735 0.5725 0.5720
2922.155530 0.5705 0.5690 0.5685 0.5675 0.5665
2928.484645 0.5650 0.5635 0.5625 0.5605 0.5580
2934.813760 0.5560 0.5545 0.5535 0.5525 0.5505
2941.142875 0.5490 0.5490 0.5485 0.5480 0.5480
2947.471990 0.5480 0.5480 0.5480 0.5480 0.5485
2953.801105 0.5490 0.5485 0.5480 0.5480 0.5480
2960.130220 0.5480 0.5480 0.5475 0.5470 0.5470
2966.459335 0.5470 0.5460 0.5450 0.5450 0.5460
2972.788450 0.5470 0.5475 0.5480 0.5485 0.5490
2979.117565 0.5495 0.5510 0.5520 0.5520 0.5525
2985.446680 0.5525 0.5520 0.5510 0.5490 0.5475
2991.775795 0.5460 0.5440 0.5430 0.5425 0.5405
2998.104910 0.5370 0.5335 0.5305 0.5285 0.5275
3004.434025 0.5260 0.5245 0.5235 0.5215 0.5190
3010.763140 0.5165 0.5145 0.5135 0.5115 0.5100
3017.092255 0.5095 0.5085 0.5070 0.5060 0.5060
3023.421370 0.5060 0.5070 0.5080 0.5085 0.5090
3029.750485 0.5100 0.5120 0.5135 0.5140 0.5145
3036.079600 0.5155 0.5170 0.5185 0.5195 0.5210
3042.408715 0.5220 0.5225 0.5230 0.5235 0.5240
3048.737830 0.5245 0.5265 0.5280 0.5300 0.5330
3055.066945 0.5355 0.5375 0.5380 0.5385 0.5395
3061.396060 0.5410 0.5430 0.5440 0.5445 0.5460
3067.725175 0.5475 0.5480 0.5480 0.5480 0.5480
3074.054290 0.5485 0.5485 0.5480 0.5480 0.5480
3080.383405 0.5475 0.5460 0.5450 0.5445 0.5435
3086.712520 0.5415 0.5400 0.5390 0.5380 0.5375
3093.041635 0.5360 0.5345 0.5340 0.5340 0.5335
3099.370750 0.5330 0.5325 0.5320 0.5310 0.5295
3105.699865 0.5290 0.5290 0.5290 0.5290 0.5290
3112.028980 0.5290 0.5290 0.5290 0.5290 0.5290
3118.358095 0.5295 0.5300 0.5300 0.5300 0.5310
3124.687210 0.5320 0.5325 0.5340 0.5365 0.5390
3131.016325 0.5410 0.5425 0.5435 0.5440 0.5440
3137.345440 0.5445 0.5450 0.5445 0.5440 0.5435
3143.674555 0.5430 0.5425 0.5410 0.5395 0.5385
3150.003670 0.5380 0.5375 0.5375 0.5380 0.5380
3156.332785 0.5380 0.5380 0.5380 0.5380 0.5380
3162.661900 0.5375 0.5360 0.5340 0.5310 0.5290
3168.991015 0.5285 0.5275 0.5260 0.5250 0.5245
3175.320130 0.5235 0.5225 0.5210 0.5195 0.5185
3181.649245 0.5155 0.5110 0.5085 0.5070 0.5055
3187.978360 0.5045 0.5035 0.5015 0.5000 0.4995
3194.307475 0.4985 0.4965 0.4945 0.4915 0.4865
3200.636590 0.4835 0.4820 0.4810 0.4810 0.4810
3206.965705 0.4810 0.4810 0.4820 0.4830 0.4830
3213.294820 0.4835 0.4840 0.4845 0.4865 0.4905
3219.623935 0.4940 0.4955 0.4975 0.4990 0.5000
3225.953050 0.5020 0.5040 0.5070 0.5115 0.5165
3232.282165 0.5205 0.5225 0.5235 0.5255 0.5280
3238.611280 0.5315 0.5365 0.5410 0.5430 0.5450
3244.940395 0.5485 0.5515 0.5540 0.5565 0.5595
3251.269510 0.5660 0.5745 0.5800 0.5840 0.5875
3257.598625 0.5905 0.5930 0.5950 0.5970 0.5995
3263.927740 0.6020 0.6040 0.6060 0.6090 0.6130
3270.256855 0.6160 0.6185 0.6200 0.6205 0.6215
3276.585970 0.6235 0.6265 0.6295 0.6315 0.6325
3282.915085 0.6345 0.6365 0.6375 0.6395 0.6425
3289.244200 0.6445 0.6450 0.6455 0.6465 0.6480
3295.573315 0.6495 0.6505 0.6515 0.6530 0.6540
3301.902430 0.6545 0.6550 0.6555 0.6560 0.6560
3308.231545 0.6560 0.6560 0.6560 0.6560 0.6560
3314.560660 0.6560 0.6560 0.6560 0.6560 0.6560
3320.889775 0.6560 0.6560 0.6560 0.6560 0.6560
3327.218890 0.6560 0.6560 0.6560 0.6560 0.6560
3333.548005 0.6560 0.6560 0.6560 0.6560 0.6560
3339.877120 0.6560 0.6560 0.6560 0.6560 0.6560
3346.206235 0.6560 0.6560 0.6560 0.6560 0.6560
3352.535350 0.6560 0.6560 0.6565 0.6565 0.6560
3358.864465 0.6565 0.6565 0.6560 0.6555 0.6555
3365.193580 0.6560 0.6555 0.6550 0.6550 0.6545
3371.522695 0.6530 0.6520 0.6520 0.6520 0.6520
3377.851810 0.6520 0.6520 0.6520 0.6520 0.6520
3384.180925 0.6520 0.6520 0.6520 0.6520 0.6520
3390.510040 0.6520 0.6520 0.6520 0.6530 0.6540
3396.839155 0.6540 0.6545 0.6550 0.6550 0.6550
3403.168270 0.6550 0.6550 0.6545 0.6545 0.6555
3409.497385 0.6555 0.6550 0.6555 0.6555 0.6555
3415.826500 0.6560 0.6565 0.6570 0.6580 0.6595
3422.155615 0.6600 0.6605 0.6625 0.6645 0.6650
3428.484730 0.6650 0.6655 0.6660 0.6660 0.6665
3434.813845 0.6680 0.6690 0.6695 0.6705 0.6710
3441.142960 0.6715 0.6735 0.6755 0.6780 0.6805
3447.472075 0.6820 0.6835 0.6845 0.6855 0.6860
3453.801190 0.6870 0.6885 0.6895 0.6900 0.6905
3460.130305 0.6920 0.6930 0.6935 0.6945 0.6950
3466.459420 0.6955 0.6960 0.6970 0.6985 0.6990
3472.788535 0.6995 0.7005 0.7010 0.7020 0.7030
3479.117650 0.7035 0.7040 0.7040 0.7045 0.7050
3485.446765 0.7050 0.7055 0.7060 0.7070 0.7080
3491.775880 0.7085 0.7095 0.7105 0.7120 0.7135
3498.104995 0.7145 0.7150 0.7155 0.7175 0.7205
3504.434110 0.7220 0.7225 0.7230 0.7235 0.7245
3510.763225 0.7250 0.7260 0.7275 0.7285 0.7290
3517.092340 0.7305 0.7325 0.7335 0.7345 0.7360
3523.421455 0.7375 0.7385 0.7395 0.7410 0.7425
3529.750570 0.7435 0.7445 0.7460 0.7475 0.7485
3536.079685 0.7495 0.7510 0.7525 0.7535 0.7545
3542.408800 0.7565 0.7585 0.7590 0.7600 0.7610
3548.737915 0.7615 0.7620 0.7625 0.7635 0.7650
3555.067030 0.7665 0.7675 0.7685 0.7700 0.7715
3561.396145 0.7725 0.7735 0.7750 0.7765 0.7775
3567.725260 0.7795 0.7810 0.7820 0.7845 0.7865
3574.054375 0.7880 0.7900 0.7915 0.7925 0.7930
3580.383490 0.7935 0.7940 0.7940 0.7950 0.7960
3586.712605 0.7960 0.7965 0.7975 0.8000 0.8025
3593.041720 0.8040 0.8055 0.8070 0.8095 0.8120
3599.370835 0.8150 0.8170 0.8175 0.8190 0.8205
3605.699950 0.8215 0.8225 0.8240 0.8255 0.8260
3612.029065 0.8265 0.8270 0.8285 0.8305 0.8315
3618.358180 0.8320 0.8325 0.8345 0.8370 0.8395
3624.687295 0.8425 0.8445 0.8455 0.8465 0.8480
3631.016410 0.8490 0.8495 0.8505 0.8515 0.8530
3637.345525 0.8540 0.8545 0.8550 0.8550 0.8550
3643.674640 0.8550 0.8550 0.8545 0.8540 0.8540
3650.003755 0.8540 0.8545 0.8555 0.8575 0.8590
3656.332870 0.8595 0.8605 0.8610 0.8610 0.8610
3662.661985 0.8610 0.8610 0.8610 0.8605 0.8600
3668.991100 0.8595 0.8575 0.8555 0.8545 0.8545
3675.320215 0.8550 0.8550 0.8555 0.8560 0.8565
3681.649330 0.8570 0.8580 0.8590 0.8595 0.8600
3687.978445 0.8600 0.8605 0.8610 0.8630 0.8655
3694.307560 0.8660 0.8665 0.8670 0.8680 0.8690
3700.636675 0.8690 0.8690 0.8690 0.8690 0.8690
3706.965790 0.8690 0.8690 0.8690 0.8690 0.8690
3713.294905 0.8690 0.8690 0.8690 0.8690 0.8690
3719.624020 0.8690 0.8690 0.8690 0.8690 0.8690
3725.953135 0.8680 0.8670 0.8670 0.8670 0.8670
3732.282250 0.8670 0.8665 0.8660 0.8660 0.8660
3738.611365 0.8655 0.8655 0.8660 0.8660 0.8660
3744.940480 0.8660 0.8660 0.8660 0.8660 0.8660
3751.269595 0.8660 0.8660 0.8660 0.8660 0.8660
3757.598710 0.8660 0.8660 0.8660 0.8660 0.8665
3763.927825 0.8670 0.8680 0.8690 0.8690 0.8690
3770.256940 0.8690 0.8690 0.8690 0.8690 0.8690
3776.586055 0.8690 0.8690 0.8690 0.8690 0.8690
3782.915170 0.8690 0.8690 0.8690 0.8690 0.8690
3789.244285 0.8690 0.8690 0.8680 0.8665 0.8660
3795.573400 0.8660 0.8660 0.8660 0.8660 0.8665
3801.902515 0.8670 0.8670 0.8670 0.8670 0.8670
3808.231630 0.8665 0.8660 0.8660 0.8660 0.8660
3814.560745 0.8660 0.8660 0.8655 0.8650 0.8650
3820.889860 0.8650 0.8645 0.8640 0.8640 0.8630
3827.218975 0.8615 0.8615 0.8615 0.8610 0.8605
3833.548090 0.8600 0.8600 0.8600 0.8600 0.8600
3839.877205 0.8605 0.8610 0.8610 0.8610 0.8610
3846.206320 0.8610 0.8610 0.8605 0.8595 0.8580
3852.535435 0.8570 0.8570 0.8570 0.8570 0.8570
3858.864550 0.8570 0.8565 0.8565 0.8570 0.8570
3865.193665 0.8570 0.8570 0.8570 0.8565 0.8560
3871.522780 0.8560 0.8560 0.8560 0.8560 0.8560
3877.851895 0.8560 0.8555 0.8550 0.8550 0.8550
3884.181010 0.8550 0.8550 0.8550 0.8545 0.8540
3890.510125 0.8545 0.8550 0.8550 0.8545 0.8540
3896.839240 0.8540 0.8540 0.8540 0.8540 0.8540
3903.168355 0.8540 0.8540 0.8540 0.8540 0.8540
3909.497470 0.8540 0.8540 0.8540 0.8540 0.8540
3915.826585 0.8540 0.8540 0.8540 0.8540 0.8530
3922.155700 0.8515 0.8510 0.8510 0.8510 0.8510
3928.484815 0.8510 0.8510 0.8510 0.8510 0.8510
3934.813930 0.8510 0.8510 0.8510 0.8510 0.8510
3941.143045 0.8510 0.8510 0.8510 0.8510 0.8510
3947.472160 0.8510 0.8510 0.8510 0.8510 0.8505
3953.801275 0.8500 0.8500 0.8500 0.8500 0.8500
3960.130390 0.8495 0.8490 0.8495 0.8500 0.8500
3966.459505 0.8500 0.8500 0.8495 0.8490 0.8490
3972.788620 0.8490 0.8490 0.8490 0.8490 0.8490
3979.117735 0.8490 0.8495 0.8500 0.8500 0.8500
3985.446850 0.8495 0.8490 0.8490 0.8490 0.8490
3991.775965 0.8490 0.8490 0.8490 0.8490 0.8490
3998.105080 0.8490 0.8490 0.8490 0.8490 0.8490
##END=
