##TITLE=Phenindamine tartrate
##JCAMP-DX=4.24
$$ By DXEDIT 1.05 (RS McDonald)
##DATA TYPE=INFRARED SPECTRUM
##CLASS=COBLENTZ III
##ORIGIN=DOW CHEMICAL COMPANY
##OWNER=COPYRIGHT (C) 1988 by COBLENTZ SOCIETY INC.
Collection (C) 2018 copyright by the U.S. Secretary of Commerce
on behalf of the United States of America. All rights reserved.
##DATE=1966/03/17
##CAS NAME=1H-Indeno(2,1-c)pyridine, 2-methyl-9-phenyl-2,3,4,9-tetrahydro-, hydrogen tartrate
##MOLFORM=C23 H25 N O6
##SOURCE REFERENCE=COBLENTZ NO. 08602
##$NIST ID=B6008602
##$NIST SOURCE=COBLENTZ
##$NIST IMAGE=cob8602
##SPECTROMETER/DATA SYSTEM=DOW KBr FOREPRISM-GRATING
##INSTRUMENT PARAMETERS=BLAZED AT 3.5, 12.0, 20.0 MICRON AND CHANGED AT 5.0, 7.5, 14.9 MICRON
##STATE=SOLID (SPLIT MULL), FLUOROLUBE FOR 3800-1330 CM^-^1, NUJOL FOR 1330-400 CM^-^1
##SAMPLING PROCEDURE=TRANSMISSION
##RESOLUTION=2
##DATA PROCESSING=DIGITIZED BY COBLENTZ SOCIETY (BATCH I) FROM HARD COPY
##XUNITS=1/CM
##YUNITS=TRANSMITTANCE
##XFACTOR=1
##YFACTOR=1
##DELTAX=1
##FIRSTX=3776
##LASTX=382
##FIRSTY=0.8866
##MAXX=3776
##MINX=382
##MAXY=0.8995
##MINY=0.1004
##NPOINTS=3395
##XYDATA=(X++(Y..Y))
3776.000000 0.8866 0.8866 0.8867 0.8867 0.8868
3771.000000 0.8868 0.8868 0.8868 0.8868 0.8868
3766.000000 0.8870 0.8870 0.8871 0.8871 0.8871
3761.000000 0.8874 0.8875 0.8878 0.8883 0.8886
3756.000000 0.8890 0.8894 0.8898 0.8902 0.8906
3751.000000 0.8909 0.8913 0.8916 0.8920 0.8921
3746.000000 0.8924 0.8925 0.8928 0.8930 0.8933
3741.000000 0.8935 0.8937 0.8939 0.8941 0.8942
3736.000000 0.8944 0.8945 0.8947 0.8948 0.8949
3731.000000 0.8950 0.8942 0.8953 0.8954 0.8955
3726.000000 0.8956 0.8957 0.8959 0.8960 0.8961
3721.000000 0.8962 0.8964 0.8965 0.8966 0.8967
3716.000000 0.8968 0.8968 0.8971 0.8971 0.8973
3711.000000 0.8974 0.8975 0.8975 0.8978 0.8978
3706.000000 0.8980 0.8981 0.8982 0.8983 0.8985
3701.000000 0.8986 0.8987 0.8987 0.8988 0.8988
3696.000000 0.8988 0.8988 0.8989 0.8989 0.8990
3691.000000 0.8990 0.8991 0.8991 0.8991 0.8991
3686.000000 0.8992 0.8992 0.8993 0.8993 0.8993
3681.000000 0.8993 0.8994 0.8994 0.8995 0.8995
3676.000000 0.8995 0.8995 0.8995 0.8995 0.8995
3671.000000 0.8995 0.8995 0.8995 0.8995 0.8995
3666.000000 0.8995 0.8995 0.8995 0.8994 0.8994
3661.000000 0.8994 0.8994 0.8994 0.8994 0.8994
3656.000000 0.8994 0.8994 0.8994 0.8994 0.8994
3651.000000 0.8993 0.8992 0.8989 0.8987 0.8984
3646.000000 0.8981 0.8978 0.8975 0.8973 0.8970
3641.000000 0.8967 0.8965 0.8962 0.8959 0.8956
3636.000000 0.8954 0.8951 0.8948 0.8945 0.8943
3631.000000 0.8940 0.8937 0.8934 0.8932 0.8928
3626.000000 0.8925 0.8921 0.8918 0.8914 0.8911
3621.000000 0.8907 0.8904 0.8900 0.8897 0.8893
3616.000000 0.8889 0.8885 0.8882 0.8878 0.8875
3611.000000 0.8871 0.8868 0.8864 0.8861 0.8857
3606.000000 0.8853 0.8849 0.8845 0.8841 0.8838
3601.000000 0.8834 0.8830 0.8825 0.8821 0.8814
3596.000000 0.8808 0.8801 0.8794 0.8787 0.8781
3591.000000 0.8768 0.8758 0.8744 0.8730 0.8716
3586.000000 0.8703 0.8696 0.8689 0.8682 0.8675
3581.000000 0.8671 0.8668 0.8667 0.8666 0.8665
3576.000000 0.8664 0.8662 0.8661 0.8659 0.8658
3571.000000 0.8654 0.8650 0.8646 0.8642 0.8638
3566.000000 0.8635 0.8631 0.8627 0.8621 0.8618
3561.000000 0.8609 0.8600 0.8591 0.8582 0.8573
3556.000000 0.8564 0.8555 0.8547 0.8538 0.8528
3551.000000 0.8515 0.8501 0.8485 0.8470 0.8455
3546.000000 0.8440 0.8425 0.8410 0.8395 0.8380
3541.000000 0.8362 0.8344 0.8324 0.8304 0.8284
3536.000000 0.8264 0.8243 0.8223 0.8203 0.8183
3531.000000 0.8160 0.8137 0.8114 0.8091 0.8068
3526.000000 0.8045 0.8021 0.8000 0.7976 0.7954
3521.000000 0.7926 0.7901 0.7869 0.7840 0.7808
3516.000000 0.7778 0.7748 0.7718 0.7675 0.7635
3511.000000 0.7590 0.7545 0.7500 0.7455 0.7400
3506.000000 0.7345 0.7288 0.7232 0.7172 0.7115
3501.000000 0.7051 0.6988 0.6919 0.6851 0.6761
3496.000000 0.6671 0.6597 0.6524 0.6461 0.6399
3491.000000 0.6341 0.6284 0.6229 0.6174 0.6102
3486.000000 0.6031 0.5927 0.5823 0.5418 0.5012
3481.000000 0.4912 0.4814 0.4559 0.4304 0.4049
3476.000000 0.3307 0.3549 0.3303 0.3300 0.3299
3471.000000 0.3362 0.3428 0.3514 0.3603 0.3691
3466.000000 0.3779 0.3866 0.3954 0.4042 0.4130
3461.000000 0.4578 0.5026 0.5179 0.5333 0.5400
3456.000000 0.5468 0.5535 0.5603 0.5668 0.5734
3451.000000 0.5792 0.5851 0.5909 0.5968 0.6022
3446.000000 0.6077 0.6124 0.6171 0.6218 0.6265
3441.000000 0.6310 0.6356 0.6393 0.6431 0.6468
3436.000000 0.6506 0.6537 0.6568 0.6590 0.6611
3431.000000 0.6632 0.6653 0.6671 0.6689 0.6701
3426.000000 0.6715 0.6728 0.6742 0.6755 0.6768
3421.000000 0.6775 0.6785 0.6791 0.6798 0.6804
3416.000000 0.6810 0.6815 0.6822 0.6826 0.6831
3411.000000 0.6835 0.6839 0.6842 0.6846 0.6849
3406.000000 0.6853 0.6855 0.6857 0.6858 0.6860
3401.000000 0.6861 0.6864 0.6865 0.6865 0.6865
3396.000000 0.6867 0.6867 0.6867 0.6867 0.6868
3391.000000 0.6868 0.6868 0.6867 0.6865 0.6864
3386.000000 0.6862 0.6861 0.6860 0.6858 0.6856
3381.000000 0.6854 0.6853 0.6848 0.6843 0.6837
3376.000000 0.6832 0.6826 0.6821 0.6815 0.6810
3371.000000 0.6799 0.6788 0.6776 0.6765 0.6755
3366.000000 0.6744 0.6733 0.6722 0.6708 0.6695
3361.000000 0.6680 0.6665 0.6650 0.6636 0.6621
3356.000000 0.6606 0.6591 0.6576 0.6561 0.6547
3351.000000 0.6532 0.6518 0.6503 0.6489 0.6474
3346.000000 0.6458 0.6444 0.6430 0.6415 0.6400
3341.000000 0.6385 0.6371 0.6356 0.6342 0.6326
3336.000000 0.6310 0.6295 0.6280 0.6264 0.6249
3331.000000 0.6233 0.6218 0.6203 0.6188 0.6172
3326.000000 0.6157 0.6141 0.6126 0.6110 0.6095
3321.000000 0.6079 0.6064 0.6048 0.6033 0.6017
3316.000000 0.6001 0.5985 0.5970 0.5954 0.5939
3311.000000 0.5923 0.5908 0.5894 0.5880 0.5866
3306.000000 0.5852 0.5837 0.5823 0.5809 0.5795
3301.000000 0.5781 0.5767 0.5752 0.5738 0.5724
3296.000000 0.5710 0.5696 0.5683 0.5670 0.5657
3291.000000 0.5643 0.5630 0.5616 0.5603 0.5589
3286.000000 0.5576 0.5564 0.5552 0.5541 0.5530
3281.000000 0.5519 0.5508 0.5497 0.5486 0.5478
3276.000000 0.5470 0.5462 0.5455 0.5447 0.5440
3271.000000 0.5432 0.5425 0.5417 0.5410 0.5405
3266.000000 0.5401 0.5397 0.5394 0.5391 0.5388
3261.000000 0.5385 0.5382 0.5379 0.5376 0.5374
3256.000000 0.5373 0.5371 0.5370 0.5368 0.5367
3251.000000 0.5366 0.5365 0.5362 0.5355 0.5360
3246.000000 0.5360 0.5360 0.5360 0.5360 0.5362
3241.000000 0.5362 0.5364 0.5365 0.5366 0.5367
3236.000000 0.5368 0.5370 0.5373 0.5376 0.5380
3231.000000 0.5384 0.5388 0.5391 0.5395 0.5399
3226.000000 0.5403 0.5407 0.5410 0.5417 0.5424
3221.000000 0.5430 0.5437 0.5444 0.5451 0.5457
3216.000000 0.5464 0.5470 0.5477 0.5483 0.5490
3211.000000 0.5499 0.5509 0.5519 0.5529 0.5539
3206.000000 0.5549 0.5558 0.5568 0.5578 0.5588
3201.000000 0.5598 0.5608 0.5619 0.5630 0.5642
3196.000000 0.5654 0.5666 0.5678 0.5690 0.5702
3191.000000 0.5714 0.5726 0.5738 0.5750 0.5762
3186.000000 0.5774 0.5788 0.5802 0.5817 0.5833
3181.000000 0.5848 0.5864 0.5879 0.5895 0.5910
3176.000000 0.5926 0.5941 0.5957 0.5972 0.5987
3171.000000 0.6002 0.6018 0.6033 0.6048 0.6062
3166.000000 0.6079 0.6094 0.6110 0.6125 0.6140
3161.000000 0.6156 0.6172 0.6187 0.6203 0.6219
3156.000000 0.6235 0.6250 0.6266 0.6282 0.6298
3151.000000 0.6312 0.6329 0.6345 0.6360 0.6376
3146.000000 0.6392 0.6408 0.6424 0.6439 0.6455
3141.000000 0.6471 0.6487 0.6501 0.6518 0.6533
3136.000000 0.6549 0.6564 0.6580 0.6595 0.6611
3131.000000 0.6625 0.6640 0.6651 0.6661 0.6672
3126.000000 0.6685 0.6696 0.6707 0.6714 0.6721
3121.000000 0.6726 0.6734 0.6741 0.6748 0.6751
3116.000000 0.6755 0.6758 0.6761 0.6765 0.6768
3111.000000 0.6771 0.6774 0.6775 0.6778 0.6780
3106.000000 0.6782 0.6783 0.6783 0.6784 0.6784
3101.000000 0.6783 0.6783 0.6782 0.6782 0.6781
3096.000000 0.6781 0.6778 0.6776 0.6775 0.6772
3091.000000 0.6771 0.6768 0.6767 0.6765 0.6764
3086.000000 0.6762 0.6755 0.6747 0.6718 0.6690
3081.000000 0.6628 0.6568 0.6554 0.6539 0.6531
3076.000000 0.6522 0.6518 0.6514 0.6497 0.6480
3071.000000 0.6442 0.6404 0.6345 0.6287 0.6233
3066.000000 0.6179 0.6125 0.6071 0.6016 0.5962
3061.000000 0.5907 0.5853 0.5846 0.5819 0.5854
3056.000000 0.5868 0.5896 0.5924 0.5952 0.5981
3051.000000 0.6009 0.6038 0.6066 0.6094 0.6122
3046.000000 0.6151 0.6154 0.6155 0.6155 0.6149
3041.000000 0.6149 0.6148 0.6143 0.6138 0.6130
3036.000000 0.6122 0.6112 0.6102 0.6049 0.5996
3031.000000 0.5885 0.5775 0.5665 0.5555 0.5536
3026.000000 0.5518 0.5517 0.5516 0.5576 0.5636
3021.000000 0.5717 0.5798 0.5879 0.5960 0.5999
3016.000000 0.6037 0.6054 0.6072 0.6091 0.6110
3011.000000 0.6132 0.6153 0.6175 0.6197 0.6219
3006.000000 0.6242 0.6264 0.6287 0.6318 0.6349
3001.000000 0.6381 0.6412 0.6451 0.6492 0.6533
2996.000000 0.6575 0.6615 0.6655 0.6697 0.6740
2991.000000 0.6775 0.6812 0.6842 0.6871 0.6896
2986.000000 0.6921 0.6931 0.6982 0.6943 0.6946
2981.000000 0.6946 0.6947 0.6947 0.6948 0.6948
2976.000000 0.6948 0.6947 0.6946 0.6944 0.6943
2971.000000 0.6942 0.6941 0.6940 0.6939 0.6938
2966.000000 0.6937 0.6936 0.6935 0.6934 0.6933
2961.000000 0.6932 0.6931 0.6930 0.6928 0.6926
2956.000000 0.6925 0.6924 0.6922 0.6919 0.6918
2951.000000 0.6915 0.6912 0.6910 0.6908 0.6905
2946.000000 0.6903 0.6896 0.6889 0.6865 0.6844
2941.000000 0.6772 0.6703 0.6681 0.6658 0.6648
2936.000000 0.6638 0.6636 0.6634 0.6631 0.6628
2931.000000 0.6628 0.6628 0.6630 0.6631 0.6632
2926.000000 0.6634 0.6635 0.6636 0.6637 0.6638
2921.000000 0.6639 0.6640 0.6641 0.6642 0.6643
2916.000000 0.6644 0.6644 0.6645 0.6646 0.6647
2911.000000 0.6650 0.6653 0.6661 0.6669 0.6695
2906.000000 0.6721 0.6760 0.6800 0.6830 0.6861
2901.000000 0.6889 0.6918 0.6939 0.6960 0.6981
2896.000000 0.7003 0.7024 0.7045 0.7060 0.7075
2891.000000 0.7091 0.7107 0.7121 0.7137 0.7151
2886.000000 0.7168 0.7178 0.7188 0.7198 0.7208
2881.000000 0.7218 0.7228 0.7238 0.7248 0.7254
2876.000000 0.7260 0.7265 0.7271 0.7278 0.7284
2871.000000 0.7288 0.7293 0.7294 0.7296 0.7297
2866.000000 0.7299 0.7300 0.7300 0.7300 0.7299
2861.000000 0.7297 0.7295 0.7293 0.7291 0.7289
2856.000000 0.7287 0.7285 0.7283 0.7280 0.7278
2851.000000 0.7275 0.7274 0.7271 0.7271 0.7268
2846.000000 0.7268 0.7267 0.7265 0.7265 0.7264
2841.000000 0.7264 0.7264 0.7267 0.7271 0.7275
2836.000000 0.7278 0.7286 0.7294 0.7301 0.7308
2831.000000 0.7315 0.7322 0.7330 0.7337 0.7343
2826.000000 0.7350 0.7356 0.7361 0.7368 0.7375
2821.000000 0.7381 0.7387 0.7393 0.7399 0.7405
2816.000000 0.7411 0.7415 0.7421 0.7428 0.7434
2811.000000 0.7440 0.7446 0.7451 0.7456 0.7461
2806.000000 0.7465 0.7471 0.7475 0.7480 0.7484
2801.000000 0.7488 0.7492 0.7496 0.7501 0.7501
2796.000000 0.7504 0.7504 0.7504 0.7504 0.7503
2791.000000 0.7503 0.7501 0.7500 0.7499 0.7498
2786.000000 0.7497 0.7494 0.7492 0.7490 0.7488
2781.000000 0.7485 0.7483 0.7478 0.7475 0.7471
2776.000000 0.7468 0.7464 0.7460 0.7455 0.7450
2771.000000 0.7445 0.7441 0.7434 0.7428 0.7419
2766.000000 0.7411 0.7404 0.7397 0.7391 0.7385
2761.000000 0.7378 0.7372 0.7367 0.7361 0.7351
2756.000000 0.7342 0.7332 0.7321 0.7312 0.7304
2751.000000 0.7295 0.7286 0.7276 0.7268 0.7260
2746.000000 0.7251 0.7242 0.7233 0.7224 0.7215
2741.000000 0.7206 0.7197 0.7189 0.7181 0.7174
2736.000000 0.7168 0.7161 0.7155 0.7148 0.7142
2731.000000 0.7136 0.7130 0.7124 0.7118 0.7112
2726.000000 0.7108 0.7104 0.7101 0.7100 0.7099
2721.000000 0.7098 0.7097 0.7096 0.7095 0.7094
2716.000000 0.7093 0.7092 0.7091 0.7090 0.7089
2711.000000 0.7089 0.7089 0.7089 0.7089 0.7089
2706.000000 0.7090 0.7090 0.7090 0.7090 0.7090
2701.000000 0.7090 0.7090 0.7090 0.7091 0.7091
2696.000000 0.7091 0.7091 0.7091 0.7091 0.7091
2691.000000 0.7091 0.7091 0.7091 0.7091 0.7091
2686.000000 0.7091 0.7091 0.7092 0.7092 0.7092
2681.000000 0.7092 0.7092 0.7092 0.7092 0.7092
2676.000000 0.7092 0.7092 0.7092 0.7092 0.7092
2671.000000 0.7092 0.7093 0.7093 0.7093 0.7093
2666.000000 0.7094 0.7094 0.7094 0.7094 0.7095
2661.000000 0.7095 0.7095 0.7095 0.7096 0.7096
2656.000000 0.7096 0.7096 0.7097 0.7097 0.7098
2651.000000 0.7098 0.7098 0.7098 0.7098 0.7098
2646.000000 0.7098 0.7097 0.7097 0.7097 0.7097
2641.000000 0.7097 0.7097 0.7097 0.7097 0.7097
2636.000000 0.7097 0.7096 0.7096 0.7095 0.7095
2631.000000 0.7094 0.7093 0.7092 0.7092 0.7091
2626.000000 0.7091 0.7090 0.7089 0.7088 0.7088
2621.000000 0.7086 0.7085 0.7083 0.7082 0.7080
2616.000000 0.7078 0.7075 0.7071 0.7065 0.7060
2611.000000 0.7054 0.7048 0.7041 0.7035 0.7026
2606.000000 0.7019 0.7011 0.7004 0.6996 0.6989
2601.000000 0.6980 0.6971 0.6962 0.6955 0.6946
2596.000000 0.6938 0.6928 0.6921 0.6915 0.6908
2591.000000 0.6903 0.6898 0.6893 0.6889 0.6886
2586.000000 0.6883 0.6878 0.6875 0.6872 0.6869
2581.000000 0.6867 0.6864 0.6860 0.6857 0.6854
2576.000000 0.6851 0.6849 0.6847 0.6845 0.6844
2571.000000 0.6842 0.6840 0.6838 0.6837 0.6835
2566.000000 0.6833 0.6831 0.6830 0.6828 0.6825
2561.000000 0.6824 0.6822 0.6821 0.6819 0.6818
2556.000000 0.6817 0.6815 0.6814 0.6811 0.6811
2551.000000 0.6808 0.6808 0.6806 0.6805 0.6803
2546.000000 0.6801 0.6800 0.6799 0.6797 0.6796
2541.000000 0.6794 0.6793 0.6791 0.6790 0.6789
2536.000000 0.6788 0.6786 0.6784 0.6781 0.6778
2531.000000 0.6776 0.6775 0.6771 0.6769 0.6767
2526.000000 0.6765 0.6762 0.6761 0.6758 0.6757
2521.000000 0.6755 0.6753 0.6751 0.6749 0.6747
2516.000000 0.6745 0.6743 0.6741 0.6739 0.6737
2511.000000 0.6734 0.6731 0.6728 0.6725 0.6722
2506.000000 0.6721 0.6718 0.6717 0.6714 0.6711
2501.000000 0.6708 0.6707 0.6705 0.6703 0.6700
2496.000000 0.6698 0.6695 0.6693 0.6690 0.6688
2491.000000 0.6686 0.6685 0.6684 0.6683 0.6682
2486.000000 0.6681 0.6680 0.6678 0.6678 0.6678
2481.000000 0.6678 0.6678 0.6678 0.6678 0.6678
2476.000000 0.6678 0.6678 0.6678 0.6676 0.6676
2471.000000 0.6675 0.6675 0.6675 0.6675 0.6674
2466.000000 0.6674 0.6671 0.6671 0.6668 0.6668
2461.000000 0.6665 0.6664 0.6661 0.6661 0.6658
2456.000000 0.6657 0.6655 0.6654 0.6651 0.6650
2451.000000 0.6649 0.6648 0.6647 0.6646 0.6644
2446.000000 0.6643 0.6642 0.6641 0.6640 0.6639
2441.000000 0.6637 0.6636 0.6634 0.6633 0.6630
2436.000000 0.6628 0.6625 0.6622 0.6619 0.6618
2431.000000 0.6615 0.6614 0.6611 0.6610 0.6608
2426.000000 0.6607 0.6605 0.6604 0.6601 0.6601
2421.000000 0.6599 0.6598 0.6596 0.6595 0.6593
2416.000000 0.6592 0.6590 0.6589 0.6587 0.6586
2411.000000 0.6585 0.6584 0.6582 0.6581 0.6578
2406.000000 0.6575 0.6572 0.6571 0.6568 0.6567
2401.000000 0.6564 0.6561 0.6560 0.6558 0.6557
2396.000000 0.6556 0.6555 0.6555 0.6554 0.6553
2391.000000 0.6551 0.6551 0.6550 0.6550 0.6550
2386.000000 0.6550 0.6550 0.6550 0.6550 0.6550
2381.000000 0.6551 0.6551 0.6554 0.6556 0.6558
2376.000000 0.6560 0.6561 0.6564 0.6565 0.6567
2371.000000 0.6568 0.6568 0.6568 0.6569 0.6571
2366.000000 0.6571 0.6571 0.6572 0.6572 0.6572
2361.000000 0.6572 0.6572 0.6572 0.6572 0.6572
2356.000000 0.6572 0.6571 0.6571 0.6569 0.6568
2351.000000 0.6568 0.6567 0.6565 0.6565 0.6561
2346.000000 0.6560 0.6557 0.6555 0.6553 0.6551
2341.000000 0.6548 0.6546 0.6543 0.6540 0.6536
2336.000000 0.6533 0.6530 0.6526 0.6524 0.6521
2331.000000 0.6514 0.6507 0.6498 0.6490 0.6478
2326.000000 0.6468 0.6457 0.6447 0.6437 0.6426
2321.000000 0.6418 0.6411 0.6422 0.6438 0.6448
2316.000000 0.6461 0.6472 0.6486 0.6495 0.6505
2311.000000 0.6508 0.6514 0.6514 0.6515 0.6515
2306.000000 0.6515 0.6515 0.6515 0.6515 0.6517
2301.000000 0.6517 0.6518 0.6518 0.6518 0.6518
2296.000000 0.6518 0.6518 0.6518 0.6518 0.6519
2291.000000 0.6519 0.6521 0.6521 0.6521 0.6521
2286.000000 0.6521 0.6521 0.6521 0.6521 0.6521
2281.000000 0.6521 0.6521 0.6521 0.6521 0.6521
2276.000000 0.6521 0.6521 0.6521 0.6521 0.6521
2271.000000 0.6521 0.6521 0.6521 0.6522 0.6524
2266.000000 0.6525 0.6530 0.6534 0.6542 0.6550
2261.000000 0.6575 0.6600 0.6618 0.6638 0.6642
2256.000000 0.6646 0.6649 0.6651 0.6653 0.6654
2251.000000 0.6655 0.6656 0.6657 0.6658 0.6660
2246.000000 0.6661 0.6662 0.6665 0.6668 0.6671
2241.000000 0.6674 0.6676 0.6680 0.6684 0.6687
2236.000000 0.6691 0.6695 0.6699 0.6704 0.6710
2231.000000 0.6715 0.6722 0.6728 0.6735 0.6741
2226.000000 0.6748 0.6755 0.6761 0.6768 0.6775
2221.000000 0.6782 0.6789 0.6796 0.6803 0.6810
2216.000000 0.6818 0.6825 0.6832 0.6839 0.6847
2211.000000 0.6856 0.6865 0.6875 0.6885 0.6894
2206.000000 0.6904 0.6912 0.6921 0.6931 0.6940
2201.000000 0.6949 0.6958 0.6968 0.6980 0.6989
2196.000000 0.6999 0.7007 0.7015 0.7018 0.7022
2191.000000 0.7025 0.7030 0.7030 0.7031 0.7031
2186.000000 0.7031 0.7032 0.7033 0.7035 0.7038
2181.000000 0.7045 0.7051 0.7058 0.7067 0.7075
2176.000000 0.7083 0.7090 0.7098 0.7105 0.7111
2171.000000 0.7118 0.7124 0.7130 0.7136 0.7142
2166.000000 0.7148 0.7154 0.7160 0.7165 0.7172
2161.000000 0.7178 0.7185 0.7191 0.7197 0.7203
2156.000000 0.7208 0.7215 0.7221 0.7226 0.7234
2151.000000 0.7240 0.7246 0.7251 0.7258 0.7262
2146.000000 0.7268 0.7274 0.7280 0.7286 0.7292
2141.000000 0.7297 0.7303 0.7308 0.7314 0.7318
2136.000000 0.7325 0.7330 0.7336 0.7341 0.7347
2131.000000 0.7351 0.7358 0.7362 0.7368 0.7375
2126.000000 0.7381 0.7386 0.7392 0.7397 0.7403
2121.000000 0.7408 0.7414 0.7418 0.7425 0.7430
2116.000000 0.7436 0.7441 0.7447 0.7453 0.7460
2111.000000 0.7467 0.7474 0.7481 0.7489 0.7496
2106.000000 0.7504 0.7511 0.7518 0.7525 0.7533
2101.000000 0.7540 0.7547 0.7554 0.7561 0.7568
2096.000000 0.7576 0.7584 0.7591 0.7598 0.7606
2091.000000 0.7612 0.7619 0.7626 0.7634 0.7640
2086.000000 0.7647 0.7654 0.7661 0.7667 0.7674
2081.000000 0.7681 0.7688 0.7695 0.7701 0.7708
2076.000000 0.7715 0.7721 0.7728 0.7735 0.7741
2071.000000 0.7747 0.7754 0.7760 0.7767 0.7772
2066.000000 0.7778 0.7785 0.7792 0.7798 0.7804
2061.000000 0.7810 0.7817 0.7822 0.7828 0.7835
2056.000000 0.7842 0.7848 0.7854 0.7860 0.7867
2051.000000 0.7872 0.7878 0.7885 0.7892 0.7898
2046.000000 0.7904 0.7910 0.7917 0.7922 0.7928
2041.000000 0.7935 0.7942 0.7948 0.7955 0.7961
2036.000000 0.7968 0.7974 0.7980 0.7986 0.7993
2031.000000 0.7997 0.8001 0.8006 0.8011 0.8015
2026.000000 0.8019 0.8025 0.8030 0.8034 0.8039
2021.000000 0.8043 0.8048 0.8051 0.8057 0.8058
2016.000000 0.8061 0.8064 0.8067 0.8068 0.8071
2011.000000 0.8072 0.8075 0.8078 0.8081 0.8082
2006.000000 0.8084 0.8084 0.8085 0.8086 0.8087
2001.000000 0.8089 0.8092 0.8095 0.8099 0.8105
1996.000000 0.8118 0.8134 0.8148 0.8154 0.8157
1991.000000 0.8158 0.8161 0.8162 0.8165 0.8167
1986.000000 0.8168 0.8180 0.8197 0.8209 0.8218
1981.000000 0.8220 0.8223 0.8225 0.8227 0.8228
1976.000000 0.8231 0.8231 0.8232 0.8233 0.8233
1971.000000 0.8234 0.8234 0.8235 0.8235 0.8236
1966.000000 0.8237 0.8239 0.8241 0.8243 0.8252
1961.000000 0.8262 0.8273 0.8284 0.8283 0.8270
1956.000000 0.8254 0.8239 0.8231 0.8224 0.8216
1951.000000 0.8209 0.8202 0.8195 0.8188 0.8181
1946.000000 0.8175 0.8175 0.8188 0.8202 0.8218
1941.000000 0.8237 0.8255 0.8271 0.8285 0.8296
1936.000000 0.8305 0.8315 0.8325 0.8334 0.8344
1931.000000 0.8351 0.8359 0.8366 0.8374 0.8378
1926.000000 0.8380 0.8381 0.8382 0.8382 0.8382
1921.000000 0.8381 0.8377 0.8373 0.8368 0.8364
1916.000000 0.8356 0.8348 0.8340 0.8332 0.8321
1911.000000 0.8311 0.8300 0.8292 0.8287 0.8284
1906.000000 0.8282 0.8280 0.8278 0.8275 0.8275
1901.000000 0.8275 0.8275 0.8275 0.8275 0.8275
1896.000000 0.8275 0.8278 0.8280 0.8283 0.8286
1891.000000 0.8288 0.8291 0.8294 0.8296 0.8299
1886.000000 0.8302 0.8304 0.8308 0.8313 0.8316
1881.000000 0.8318 0.8321 0.8324 0.8327 0.8330
1876.000000 0.8333 0.8337 0.8340 0.8344 0.8347
1871.000000 0.8351 0.8355 0.8358 0.8362 0.8365
1866.000000 0.8370 0.8375 0.8381 0.8386 0.8392
1861.000000 0.8398 0.8403 0.8408 0.8414 0.8418
1856.000000 0.8424 0.8428 0.8434 0.8435 0.8436
1851.000000 0.8437 0.8437 0.8438 0.8439 0.8439
1846.000000 0.8440 0.8441 0.8442 0.8443 0.8444
1841.000000 0.8444 0.8444 0.8445 0.8445 0.8444
1836.000000 0.8443 0.8442 0.8441 0.8440 0.8438
1831.000000 0.8438 0.8440 0.8474 0.8444 0.8446
1826.000000 0.8448 0.8450 0.8451 0.8451 0.8451
1821.000000 0.8450 0.8450 0.8445 0.8441 0.8436
1816.000000 0.8432 0.8428 0.8423 0.8418 0.8415
1811.000000 0.8410 0.8406 0.8402 0.8398 0.8393
1806.000000 0.8389 0.8385 0.8381 0.8375 0.8371
1801.000000 0.8367 0.8362 0.8353 0.8345 0.8336
1796.000000 0.8328 0.8316 0.8304 0.8283 0.8258
1791.000000 0.8234 0.8212 0.8191 0.8169 0.8149
1786.000000 0.8128 0.8108 0.8088 0.8068 0.8043
1781.000000 0.8018 0.7996 0.7978 0.7960 0.7943
1776.000000 0.7922 0.7903 0.7876 0.7846 0.7811
1771.000000 0.7774 0.7732 0.7684 0.7607 0.7530
1766.000000 0.7431 0.7308 0.7255 0.7214 0.7172
1761.000000 0.7133 0.7019 0.6051 0.5447 0.4580
1756.000000 0.3729 0.2879 0.2028 0.1004 0.1037
1751.000000 0.1041 0.1632 0.2227 0.2822 0.3416
1746.000000 0.3847 0.4141 0.4345 0.4501 0.4668
1741.000000 0.4809 0.5029 0.5114 0.5154 0.5175
1736.000000 0.5168 0.5168 0.5168 0.5152 0.5134
1731.000000 0.5104 0.5070 0.5044 0.5019 0.5000
1726.000000 0.4989 0.4990 0.4991 0.4993 0.5043
1721.000000 0.5117 0.5200 0.5282 0.5336 0.5389
1716.000000 0.5442 0.5497 0.5553 0.5605 0.5642
1711.000000 0.5679 0.5700 0.5715 0.5739 0.5768
1706.000000 0.5807 0.5846 0.5889 0.5933 0.5976
1701.000000 0.6009 0.6036 0.6062 0.6089 0.6109
1696.000000 0.6129 0.6145 0.6148 0.6151 0.6154
1691.000000 0.6157 0.6157 0.6157 0.6157 0.6156
1686.000000 0.6155 0.6155 0.6154 0.6154 0.6153
1681.000000 0.6152 0.6151 0.6150 0.6149 0.6148
1676.000000 0.6151 0.6154 0.6173 0.6160 0.6162
1671.000000 0.6167 0.6170 0.6174 0.6177 0.6181
1666.000000 0.6184 0.6185 0.6186 0.6187 0.6189
1661.000000 0.6189 0.6188 0.6186 0.6185 0.6178
1656.000000 0.6170 0.6160 0.6152 0.6139 0.6127
1651.000000 0.6114 0.6101 0.6092 0.6086 0.6080
1646.000000 0.6072 0.6062 0.6052 0.6042 0.6032
1641.000000 0.6021 0.6010 0.5995 0.5962 0.5930
1636.000000 0.5894 0.5851 0.5807 0.5762 0.5703
1631.000000 0.5642 0.5581 0.5519 0.5456 0.5393
1626.000000 0.5329 0.5260 0.5192 0.5123 0.5050
1621.000000 0.4978 0.4905 0.4804 0.4665 0.4529
1616.000000 0.4420 0.4310 0.4201 0.4092 0.4021
1611.000000 0.3957 0.3893 0.3838 0.3788 0.3738
1606.000000 0.3680 0.3584 0.3488 0.3453 0.3418
1601.000000 0.3382 0.3350 0.3325 0.3300 0.3276
1596.000000 0.3258 0.3241 0.3223 0.3209 0.3199
1591.000000 0.3187 0.3180 0.3172 0.3165 0.3131
1586.000000 0.3193 0.3232 0.3280 0.3334 0.3400
1581.000000 0.3455 0.3538 0.3630 0.3721 0.3812
1576.000000 0.3903 0.3994 0.4084 0.4177 0.4268
1571.000000 0.4359 0.4450 0.4541 0.4624 0.4699
1566.000000 0.4775 0.4865 0.4970 0.5046 0.5112
1561.000000 0.5179 0.5242 0.5301 0.5360 0.5420
1556.000000 0.5479 0.5533 0.5587 0.5641 0.5693
1551.000000 0.5738 0.5782 0.5827 0.5870 0.5904
1546.000000 0.5937 0.5971 0.6002 0.6027 0.6053
1541.000000 0.6078 0.6104 0.6127 0.6149 0.6160
1536.000000 0.6166 0.6172 0.6177 0.6183 0.6188
1531.000000 0.6189 0.6190 0.6191 0.6192 0.6193
1526.000000 0.6180 0.6180 0.6181 0.6174 0.6167
1521.000000 0.6160 0.6154 0.6148 0.6141 0.6137
1516.000000 0.6132 0.6127 0.6127 0.6127 0.6127
1511.000000 0.6128 0.6130 0.6132 0.6134 0.6135
1506.000000 0.6136 0.6136 0.6127 0.6108 0.6081
1501.000000 0.5842 0.5367 0.4892 0.4417 0.3814
1496.000000 0.3814 0.3884 0.4251 0.4618 0.4985
1491.000000 0.5352 0.5560 0.5591 0.5612 0.5624
1486.000000 0.5635 0.5645 0.5651 0.5647 0.5635
1481.000000 0.5624 0.5582 0.5502 0.5384 0.5216
1476.000000 0.5075 0.4934 0.4792 0.4651 0.4510
1471.000000 0.4369 0.4228 0.4166 0.4177 0.4212
1466.000000 0.4248 0.4271 0.4274 0.4277 0.4195
1461.000000 0.4010 0.3827 0.3643 0.3459 0.3170
1456.000000 0.3165 0.3391 0.3650 0.3910 0.4171
1451.000000 0.4431 0.4615 0.4640 0.4658 0.4676
1446.000000 0.4662 0.4660 0.4653 0.4641 0.4627
1441.000000 0.4610 0.4595 0.4574 0.4530 0.4450
1436.000000 0.4353 0.4155 0.3957 0.3759 0.3664
1431.000000 0.3604 0.3530 0.3459 0.3450 0.3449
1426.000000 0.3454 0.3468 0.3486 0.3497 0.3502
1421.000000 0.3505 0.3497 0.3409 0.3189 0.2984
1416.000000 0.2900 0.2861 0.2860 0.2834 0.2845
1411.000000 0.3015 0.3099 0.3155 0.3210 0.3266
1406.000000 0.3322 0.3373 0.3427 0.3482 0.3526
1401.000000 0.3550 0.3564 0.3577 0.3588 0.3618
1396.000000 0.3596 0.3596 0.3595 0.3570 0.3442
1391.000000 0.3034 0.2930 0.2813 0.2695 0.2578
1386.000000 0.2460 0.2181 0.2246 0.2210 0.2192
1381.000000 0.2184 0.2200 0.2268 0.2456 0.2733
1376.000000 0.3011 0.3250 0.3241 0.3245 0.3244
1371.000000 0.2746 0.2135 0.1803 0.1783 0.1794
1366.000000 0.1836 0.1942 0.2095 0.2275 0.2422
1361.000000 0.2561 0.2663 0.2717 0.2765 0.2796
1356.000000 0.2806 0.2857 0.2827 0.2833 0.2837
1351.000000 0.2738 0.2433 0.2270 0.2162 0.2099
1346.000000 0.2036 0.1962 0.1861 0.1700 0.1736
1341.000000 0.1722 0.1751 0.1834 0.2018 0.2140
1336.000000 0.2228 0.2317 0.2409 0.2492 0.2574
1331.000000 0.2671 0.2768 0.2845 0.2914 0.2977
1326.000000 0.3040 0.3056 0.3059 0.3062 0.3095
1321.000000 0.3066 0.3070 0.3073 0.3076 0.3076
1316.000000 0.3075 0.3072 0.3066 0.3034 0.2989
1311.000000 0.2925 0.2851 0.2787 0.2734 0.2691
1306.000000 0.2654 0.2624 0.2560 0.2559 0.2558
1301.000000 0.2568 0.2696 0.2964 0.3070 0.3148
1296.000000 0.3212 0.3278 0.3366 0.3427 0.3484
1291.000000 0.3532 0.3562 0.3582 0.3597 0.3612
1286.000000 0.3623 0.3646 0.3637 0.3637 0.3584
1281.000000 0.3446 0.3368 0.3321 0.3284 0.3314
1276.000000 0.3330 0.3447 0.3534 0.3620 0.3729
1271.000000 0.3822 0.3898 0.3950 0.4014 0.4149
1266.000000 0.4222 0.4310 0.4350 0.4385 0.4400
1261.000000 0.4464 0.4428 0.4432 0.4436 0.4437
1256.000000 0.4430 0.4424 0.4410 0.4390 0.4375
1251.000000 0.4362 0.4353 0.4353 0.4353 0.4353
1246.000000 0.4356 0.4360 0.4374 0.4388 0.4408
1241.000000 0.4457 0.4490 0.4522 0.4555 0.4587
1236.000000 0.4617 0.4646 0.4675 0.4704 0.4734
1231.000000 0.4762 0.4791 0.4815 0.4833 0.4881
1226.000000 0.4855 0.4855 0.4856 0.4849 0.4837
1221.000000 0.4823 0.4812 0.4809 0.4821 0.4807
1216.000000 0.4815 0.4830 0.4849 0.4871 0.4897
1211.000000 0.4921 0.4941 0.4957 0.4964 0.4970
1206.000000 0.4997 0.4972 0.4965 0.4937 0.4905
1201.000000 0.4862 0.4819 0.4783 0.4748 0.4716
1196.000000 0.4703 0.4701 0.4699 0.4696 0.4691
1191.000000 0.4686 0.4681 0.4677 0.4672 0.4666
1186.000000 0.4660 0.4644 0.4652 0.4673 0.4694
1181.000000 0.4731 0.4776 0.4821 0.4860 0.4900
1176.000000 0.4939 0.4981 0.5028 0.5076 0.5123
1171.000000 0.5162 0.5196 0.5241 0.5296 0.5360
1166.000000 0.5423 0.5481 0.5512 0.5536 0.5547
1161.000000 0.5542 0.5543 0.5537 0.5531 0.5526
1156.000000 0.5520 0.5512 0.5506 0.5500 0.5491
1151.000000 0.5481 0.5472 0.5458 0.5442 0.5423
1146.000000 0.5396 0.5368 0.5339 0.5308 0.5260
1141.000000 0.5062 0.4560 0.4297 0.4300 0.4334
1136.000000 0.4384 0.4435 0.4482 0.4522 0.4571
1131.000000 0.4600 0.4627 0.4617 0.4605 0.4570
1126.000000 0.4502 0.4408 0.4264 0.4048 0.3782
1121.000000 0.3532 0.3438 0.3375 0.3332 0.3293
1116.000000 0.3258 0.3223 0.3191 0.3164 0.3134
1111.000000 0.3134 0.3134 0.3162 0.3264 0.3545
1106.000000 0.3826 0.4106 0.4387 0.4667 0.4948
1101.000000 0.5226 0.5226 0.5227 0.5210 0.5167
1096.000000 0.5160 0.5153 0.5250 0.5347 0.5364
1091.000000 0.5388 0.5355 0.5312 0.5203 0.5079
1086.000000 0.4897 0.4727 0.4371 0.4078 0.3784
1081.000000 0.3490 0.3196 0.2956 0.2812 0.2666
1076.000000 0.2535 0.2503 0.2501 0.2511 0.2574
1071.000000 0.2672 0.3154 0.3606 0.3797 0.4201
1066.000000 0.4345 0.4526 0.4719 0.4881 0.5016
1061.000000 0.5122 0.5233 0.5352 0.5455 0.5558
1056.000000 0.5658 0.5759 0.5865 0.5966 0.6051
1051.000000 0.6131 0.6195 0.6252 0.6290 0.6319
1046.000000 0.6347 0.6371 0.6387 0.6403 0.6405
1041.000000 0.6405 0.6403 0.6372 0.6310 0.6171
1036.000000 0.5869 0.5844 0.5819 0.5792 0.5766
1031.000000 0.5706 0.5718 0.5714 0.5715 0.5759
1026.000000 0.6034 0.6309 0.6521 0.6545 0.6556
1021.000000 0.6571 0.6569 0.6517 0.6445 0.6415
1016.000000 0.6367 0.6207 0.5990 0.5950 0.5965
1011.000000 0.6057 0.6269 0.6480 0.6662 0.6744
1006.000000 0.6839 0.6961 0.7028 0.7037 0.7037
1001.000000 0.7037 0.7037 0.7040 0.7086 0.7121
996.000000 0.7156 0.7188 0.7215 0.7243 0.7250
991.000000 0.7238 0.7204 0.7154 0.7085 0.6968
986.000000 0.6793 0.6555 0.6093 0.5873 0.5654
981.000000 0.5435 0.5215 0.5052 0.5033 0.5033
976.000000 0.5074 0.5172 0.5253 0.5334 0.5445
971.000000 0.5618 0.5744 0.5859 0.6005 0.6148
966.000000 0.6276 0.6386 0.6418 0.6422 0.6428
961.000000 0.6432 0.6451 0.6487 0.6550 0.6621
956.000000 0.6698 0.6767 0.6839 0.6818 0.6825
951.000000 0.6655 0.6095 0.6094 0.6125 0.6228
946.000000 0.6320 0.6375 0.6387 0.6418 0.6481
941.000000 0.6564 0.6634 0.6640 0.6646 0.6654
936.000000 0.6664 0.6812 0.7003 0.7171 0.7303
931.000000 0.7351 0.7401 0.7442 0.7478 0.7499
926.000000 0.7514 0.7525 0.7536 0.7565 0.7539
921.000000 0.7524 0.7475 0.7275 0.7158 0.7053
916.000000 0.6953 0.6967 0.6967 0.6981 0.7081
911.000000 0.7185 0.7243 0.7269 0.7293 0.7305
906.000000 0.7317 0.7328 0.7336 0.7332 0.7308
901.000000 0.7264 0.7201 0.7139 0.7038 0.6894
896.000000 0.6678 0.6501 0.6393 0.6399 0.6387
891.000000 0.6422 0.6518 0.6615 0.6737 0.6857
886.000000 0.6950 0.7036 0.7105 0.7171 0.7236
881.000000 0.7275 0.7297 0.7301 0.7305 0.7305
876.000000 0.7297 0.7258 0.7218 0.7191 0.7168
871.000000 0.7156 0.7191 0.7289 0.7408 0.7490
866.000000 0.7517 0.7544 0.7548 0.7551 0.7536
861.000000 0.7518 0.7503 0.7488 0.7475 0.7461
856.000000 0.7448 0.7437 0.7428 0.7419 0.7411
851.000000 0.7401 0.7394 0.7386 0.7378 0.7381
846.000000 0.7408 0.7458 0.7508 0.7546 0.7582
841.000000 0.7595 0.7601 0.7606 0.7611 0.7617
836.000000 0.7622 0.7628 0.7636 0.7642 0.7648
831.000000 0.7653 0.7655 0.7656 0.7657 0.7656
826.000000 0.7637 0.7618 0.7601 0.7598 0.7618
821.000000 0.7678 0.7745 0.7801 0.7837 0.7874
816.000000 0.7910 0.7951 0.7937 0.7940 0.7939
811.000000 0.7925 0.7892 0.7857 0.7814 0.7771
806.000000 0.7734 0.7704 0.7674 0.7642 0.7628
801.000000 0.7631 0.7633 0.7635 0.7638 0.7642
796.000000 0.7645 0.7648 0.7651 0.7655 0.7658
791.000000 0.7599 0.7541 0.7491 0.7450 0.7415
786.000000 0.7391 0.7365 0.7345 0.7325 0.7308
781.000000 0.7291 0.7274 0.7234 0.6765 0.6362
776.000000 0.6023 0.5976 0.5947 0.5923 0.5896
771.000000 0.5682 0.5599 0.5543 0.5527 0.5521
766.000000 0.5516 0.5510 0.5505 0.5496 0.5446
761.000000 0.4960 0.4388 0.3816 0.3243 0.2671
756.000000 0.1799 0.1787 0.1787 0.3364 0.5121
751.000000 0.5539 0.5551 0.5326 0.5100 0.4874
746.000000 0.4609 0.4637 0.5012 0.5390 0.5766
741.000000 0.6143 0.6518 0.6824 0.6848 0.6846
736.000000 0.6846 0.6824 0.6753 0.6600 0.6432
731.000000 0.6293 0.6153 0.5948 0.5493 0.5099
726.000000 0.4706 0.3916 0.3932 0.3928 0.4385
721.000000 0.5346 0.6183 0.6451 0.6601 0.6703
716.000000 0.6788 0.6857 0.6943 0.6958 0.6960
711.000000 0.6961 0.6915 0.6415 0.5867 0.5707
706.000000 0.5665 0.5619 0.5571 0.5512 0.5451
701.000000 0.5024 0.4501 0.3978 0.3455 0.3037
696.000000 0.3060 0.3823 0.4704 0.5584 0.6465
691.000000 0.6676 0.6808 0.6878 0.6931 0.6954
686.000000 0.6978 0.6993 0.7006 0.7006 0.7028
681.000000 0.7001 0.6987 0.6971 0.6928 0.6885
676.000000 0.6833 0.6776 0.6721 0.6655 0.6581
671.000000 0.6453 0.6399 0.6401 0.6401 0.6501
666.000000 0.6674 0.6891 0.7108 0.7318 0.7368
661.000000 0.7421 0.7484 0.7555 0.7639 0.7726
656.000000 0.7815 0.7904 0.7992 0.8043 0.8058
651.000000 0.8075 0.8088 0.8100 0.8096 0.8011
646.000000 0.7612 0.7215 0.6818 0.6421 0.6048
641.000000 0.6043 0.6352 0.6778 0.7207 0.7635
636.000000 0.7876 0.7869 0.7858 0.7857 0.7862
631.000000 0.7945 0.8007 0.8055 0.8095 0.8126
626.000000 0.8165 0.8156 0.8157 0.8142 0.8006
621.000000 0.7851 0.7689 0.7525 0.7361 0.7231
616.000000 0.7274 0.7375 0.7465 0.7471 0.7368
611.000000 0.7015 0.6774 0.6774 0.6903 0.7074
606.000000 0.7200 0.7195 0.7145 0.7078 0.7014
601.000000 0.6949 0.6883 0.6818 0.6801 0.6796
596.000000 0.6822 0.6861 0.6901 0.6932 0.6934
591.000000 0.6780 0.6608 0.6438 0.6377 0.6389
586.000000 0.6442 0.6775 0.7108 0.7430 0.7608
581.000000 0.7698 0.7794 0.7891 0.7962 0.8034
576.000000 0.8094 0.8146 0.8191 0.8225 0.8231
571.000000 0.8237 0.8243 0.8250 0.8257 0.8265
566.000000 0.8274 0.8290 0.8308 0.8336 0.8363
561.000000 0.8386 0.8401 0.8402 0.8403 0.8411
556.000000 0.8398 0.8393 0.8375 0.8357 0.8318
551.000000 0.8306 0.8295 0.8288 0.8280 0.8267
546.000000 0.8257 0.8227 0.8172 0.8089 0.7997
541.000000 0.7930 0.7884 0.7861 0.7843 0.7843
536.000000 0.7844 0.7874 0.7904 0.7918 0.7926
531.000000 0.7928 0.7893 0.7737 0.7608 0.7608
526.000000 0.7608 0.7668 0.7776 0.7861 0.7872
521.000000 0.7875 0.7875 0.7872 0.7847 0.7801
516.000000 0.7755 0.7710 0.7633 0.7526 0.7374
511.000000 0.7203 0.7058 0.6987 0.6914 0.6840
506.000000 0.6765 0.6692 0.6618 0.6544 0.6439
501.000000 0.6275 0.6205 0.6188 0.6150 0.6174
496.000000 0.6171 0.6257 0.6398 0.6539 0.6680
491.000000 0.6838 0.6937 0.7007 0.7085 0.7171
486.000000 0.7258 0.7348 0.7431 0.7478 0.7521
481.000000 0.7542 0.7564 0.7575 0.7607 0.7584
476.000000 0.7584 0.7581 0.7561 0.7501 0.7426
471.000000 0.7361 0.7285 0.7301 0.7303 0.7367
466.000000 0.7476 0.7617 0.7797 0.7911 0.7972
461.000000 0.7984 0.7984 0.7982 0.7980 0.7978
456.000000 0.7978 0.7978 0.7978 0.7978 0.7978
451.000000 0.7978 0.7980 0.7981 0.7987 0.7993
446.000000 0.8001 0.8017 0.8033 0.8049 0.8065
441.000000 0.8082 0.8091 0.8095 0.8099 0.8099
436.000000 0.8099 0.8100 0.8101 0.8104 0.8114
431.000000 0.8132 0.8150 0.8168 0.8187 0.8210
426.000000 0.8233 0.8256 0.8271 0.8287 0.8302
421.000000 0.8307 0.8296 0.8292 0.8288 0.8285
416.000000 0.8281 0.8278 0.8274 0.8275 0.8278
411.000000 0.8281 0.8284 0.8287 0.8290 0.8293
406.000000 0.8295 0.8297 0.8299 0.8301 0.8303
401.000000 0.8305 0.8307 0.8309 0.8310 0.8313
396.000000 0.8315 0.8317 0.8318 0.8321 0.8323
391.000000 0.8325 0.8328 0.8328 0.8331 0.8332
386.000000 0.8334 0.8336 0.8338 0.8340 0.8345
##END=
