##TITLE=Phenothiazine, 2-chloro-10-(3-dimethylaminopropyl)-, cmpd with o-(p-hydroxybenzoyl)benzoic acid (1 to 1)
##JCAMP-DX=4.24
##DATA TYPE=INFRARED SPECTRUM
##CLASS=COBLENTZ III
##ORIGIN=SMITH KLINE & FRENCH LABS.
##OWNER=Copyright (C) 1987 by the Coblentz Society
Collection (C) 2018 copyright by the U.S. Secretary of Commerce
on behalf of the United States of America. All rights reserved.
##DATE=1965/09/29
##MOLFORM=C31 H29 Cl N2 O4 S
##SOURCE REFERENCE=COBLENTZ NO. 9114
##$NIST ID=B6009114
##$NIST SOURCE=COBLENTZ
##$NIST IMAGE=cob9114
##SPECTROMETER/DATA SYSTEM=PERKIN-ELMER 21 (GRATING)
##INSTRUMENT PARAMETERS=NaCl PRISM
##STATE=SOLID (OIL MULL)
$$SPECTRAL CONTAMINATION DUE TO OIL AROUND 2900, 1465, 1381 CM^-^1
##SAMPLING PROCEDURE=TRANSMISSION
##RESOLUTION=2
##DATA PROCESSING=DIGITIZED BY COBLENTZ SOCIETY (BATCH II) FROM HARD COPY
##XUNITS=1/CM
##YUNITS=TRANSMITTANCE
##XFACTOR=1.0
##YFACTOR=1
##FIRSTX=664
##LASTX=4000
##FIRSTY=0.7001
##MAXX=4000
##MINX=664
##MAXY=0.9395
##MINY=0.0791
##NPOINTS=3337
##XYDATA=(X++(Y..Y))
664.000000 0.7001 0.7009 0.7026 0.7066 0.7200
669.000000 0.7370 0.7511 0.7590 0.7590 0.7614
674.000000 0.7611 0.7603 0.7593 0.7544 0.7476
679.000000 0.7419 0.7402 0.7427 0.7500 0.7558
684.000000 0.7544 0.7507 0.7400 0.7274 0.7228
689.000000 0.7234 0.7291 0.7363 0.7488 0.7609
694.000000 0.7682 0.7705 0.7710 0.7651 0.7557
699.000000 0.7439 0.7232 0.7034 0.6992 0.7123
704.000000 0.7375 0.7576 0.7598 0.7573 0.7386
709.000000 0.6897 0.6409 0.5922 0.5437 0.4952
714.000000 0.4502 0.4480 0.5098 0.5725 0.6350
719.000000 0.6974 0.7270 0.7543 0.7675 0.7775
724.000000 0.7852 0.7908 0.7931 0.7951 0.7947
729.000000 0.7961 0.7925 0.7900 0.7856 0.7801
734.000000 0.7736 0.7668 0.7608 0.7553 0.7567
739.000000 0.7660 0.7705 0.7692 0.7656 0.7594
744.000000 0.7455 0.7222 0.6962 0.6593 0.5992
749.000000 0.5155 0.4332 0.3510 0.3002 0.2791
754.000000 0.2757 0.2744 0.3322 0.4312 0.5298
759.000000 0.6272 0.6871 0.7338 0.7936 0.8327
764.000000 0.8470 0.8521 0.8492 0.8433 0.8341
769.000000 0.8232 0.8108 0.7954 0.7760 0.7500
774.000000 0.7123 0.6469 0.5777 0.5207 0.5152
779.000000 0.5520 0.6359 0.7197 0.8031 0.8566
784.000000 0.8954 0.9198 0.9276 0.9303 0.9297
789.000000 0.9295 0.9275 0.9230 0.9184 0.9128
794.000000 0.9068 0.8984 0.8881 0.8755 0.8566
799.000000 0.8320 0.8123 0.7941 0.7809 0.7747
804.000000 0.7727 0.7801 0.7979 0.8011 0.7986
809.000000 0.7895 0.7758 0.7616 0.7239 0.6673
814.000000 0.6202 0.6484 0.7615 0.8352 0.8389
819.000000 0.8138 0.7985 0.7909 0.8142 0.8260
824.000000 0.8263 0.8133 0.7767 0.7516 0.7235
829.000000 0.7056 0.7177 0.7367 0.7559 0.7743
834.000000 0.7886 0.7954 0.7979 0.7915 0.7862
839.000000 0.7857 0.7852 0.7826 0.7779 0.7702
844.000000 0.7281 0.6736 0.6194 0.5772 0.5772
849.000000 0.6533 0.7236 0.7773 0.7831 0.7875
854.000000 0.7765 0.7426 0.6787 0.6150 0.5680
859.000000 0.5985 0.6649 0.7313 0.7974 0.8391
864.000000 0.8822 0.8913 0.8927 0.8939 0.8914
869.000000 0.8891 0.8861 0.8806 0.8744 0.8677
874.000000 0.8597 0.8495 0.8376 0.8225 0.7935
879.000000 0.7765 0.7730 0.7813 0.7906 0.8058
884.000000 0.8271 0.8621 0.8884 0.8992 0.9049
889.000000 0.9085 0.9114 0.9127 0.9136 0.9143
894.000000 0.9146 0.9148 0.9165 0.9148 0.9145
899.000000 0.9142 0.9134 0.9127 0.9119 0.9111
904.000000 0.9101 0.9083 0.9066 0.9049 0.9025
909.000000 0.8992 0.8958 0.8916 0.8866 0.8817
914.000000 0.8756 0.8668 0.8557 0.8403 0.8195
919.000000 0.7796 0.7292 0.6789 0.6504 0.6419
924.000000 0.6419 0.6732 0.7119 0.7491 0.7516
929.000000 0.7471 0.7350 0.7003 0.6747 0.5855
934.000000 0.4956 0.4760 0.4834 0.5695 0.6554
939.000000 0.7411 0.8017 0.8570 0.8833 0.9032
944.000000 0.9106 0.9130 0.9149 0.9137 0.9119
949.000000 0.9089 0.9056 0.9026 0.8995 0.8960
954.000000 0.8918 0.8848 0.8761 0.8673 0.8575
959.000000 0.8545 0.8543 0.8610 0.8728 0.8774
964.000000 0.8767 0.8739 0.8675 0.8601 0.8527
969.000000 0.8453 0.8379 0.8310 0.8256 0.8195
974.000000 0.8111 0.8024 0.7914 0.7862 0.7975
979.000000 0.8107 0.8238 0.8331 0.8315 0.8255
984.000000 0.8136 0.8017 0.7898 0.7780 0.7655
989.000000 0.7519 0.7554 0.7595 0.7849 0.8365
994.000000 0.8684 0.8795 0.8871 0.8926 0.8964
999.000000 0.8967 0.8978 0.8969 0.8939 0.8898
1004.000000 0.8866 0.8856 0.8853 0.8854 0.8850
1009.000000 0.8815 0.8728 0.8623 0.8507 0.8383
1014.000000 0.8257 0.8130 0.7978 0.7719 0.7470
1019.000000 0.7409 0.7544 0.7879 0.8212 0.8593
1024.000000 0.8683 0.8714 0.8734 0.8743 0.8754
1029.000000 0.8736 0.8724 0.8701 0.8667 0.8628
1034.000000 0.8567 0.8501 0.8425 0.8283 0.8079
1039.000000 0.7920 0.7810 0.7795 0.7819 0.7900
1044.000000 0.8068 0.8232 0.8357 0.8493 0.8553
1049.000000 0.8564 0.8580 0.8532 0.8478 0.8398
1054.000000 0.8294 0.8176 0.8122 0.8113 0.8167
1059.000000 0.8290 0.8356 0.8370 0.8369 0.8382
1064.000000 0.8334 0.8310 0.8233 0.8145 0.8058
1069.000000 0.7989 0.7937 0.7898 0.7878 0.7864
1074.000000 0.7858 0.7817 0.7705 0.7593 0.7521
1079.000000 0.7483 0.7486 0.7478 0.7504 0.7565
1084.000000 0.7619 0.7625 0.7617 0.7593 0.7574
1089.000000 0.7569 0.7573 0.7597 0.7797 0.7802
1094.000000 0.7802 0.7785 0.7756 0.7679 0.7508
1099.000000 0.7280 0.7184 0.7114 0.7081 0.7056
1104.000000 0.7034 0.6977 0.6892 0.6803 0.6702
1109.000000 0.6599 0.6562 0.6552 0.6564 0.6781
1114.000000 0.7018 0.7255 0.7491 0.7687 0.7729
1119.000000 0.7749 0.7773 0.7761 0.7752 0.7722
1124.000000 0.7681 0.7599 0.7499 0.7359 0.7027
1129.000000 0.6709 0.6392 0.6102 0.6074 0.6163
1134.000000 0.6329 0.6495 0.6621 0.6601 0.6376
1139.000000 0.6071 0.5765 0.5509 0.5227 0.5115
1144.000000 0.4900 0.4490 0.4080 0.3891 0.3895
1149.000000 0.4303 0.4776 0.5249 0.5512 0.5707
1154.000000 0.5902 0.6096 0.6290 0.6483 0.6651
1159.000000 0.6661 0.6455 0.6247 0.6039 0.5934
1164.000000 0.6011 0.6204 0.6371 0.6375 0.6263
1169.000000 0.6104 0.5945 0.5786 0.5628 0.5522
1174.000000 0.5556 0.5981 0.6337 0.6693 0.7048
1179.000000 0.7403 0.7739 0.7855 0.7889 0.7869
1184.000000 0.7865 0.7859 0.7850 0.7828 0.7808
1189.000000 0.7788 0.7766 0.7743 0.7720 0.7694
1194.000000 0.7668 0.7640 0.7610 0.7577 0.7542
1199.000000 0.7501 0.7460 0.7415 0.7362 0.7311
1204.000000 0.7255 0.7197 0.7138 0.7076 0.7008
1209.000000 0.6941 0.6876 0.6816 0.6751 0.6648
1214.000000 0.6532 0.6418 0.6303 0.6189 0.6075
1219.000000 0.5960 0.5848 0.5751 0.5661 0.5569
1224.000000 0.5454 0.5360 0.5278 0.5205 0.5137
1229.000000 0.5073 0.5006 0.4932 0.4789 0.4599
1234.000000 0.4410 0.4220 0.4031 0.3843 0.3654
1239.000000 0.3504 0.3408 0.3310 0.3221 0.3167
1244.000000 0.3112 0.3035 0.2974 0.2932 0.2913
1249.000000 0.2905 0.2905 0.2932 0.3010 0.3111
1254.000000 0.3161 0.3192 0.3206 0.3213 0.3241
1259.000000 0.3197 0.3169 0.3076 0.2999 0.3026
1264.000000 0.3006 0.3057 0.3269 0.3292 0.3282
1269.000000 0.3290 0.3271 0.3182 0.3018 0.2854
1274.000000 0.2691 0.2528 0.2365 0.2205 0.2078
1279.000000 0.2038 0.2023 0.2048 0.2193 0.2461
1284.000000 0.2732 0.3002 0.3271 0.3540 0.3741
1289.000000 0.3846 0.4001 0.4113 0.4198 0.4394
1294.000000 0.4688 0.4981 0.5273 0.5522 0.5602
1299.000000 0.5606 0.5618 0.5582 0.5357 0.5053
1304.000000 0.4748 0.4444 0.4142 0.3838 0.3536
1309.000000 0.2894 0.2972 0.2922 0.2941 0.2997
1314.000000 0.3100 0.3400 0.4128 0.4884 0.5744
1319.000000 0.6048 0.6228 0.6330 0.6390 0.6424
1324.000000 0.6451 0.6485 0.6533 0.6586 0.6650
1329.000000 0.6715 0.6806 0.6882 0.6929 0.6966
1334.000000 0.7027 0.6984 0.6989 0.6989 0.6986
1339.000000 0.6982 0.6972 0.6954 0.6925 0.6884
1344.000000 0.6816 0.6742 0.6663 0.6583 0.6501
1349.000000 0.6400 0.6270 0.6135 0.6001 0.5866
1354.000000 0.5731 0.5597 0.5464 0.5330 0.5196
1359.000000 0.5068 0.4943 0.4809 0.4677 0.4480
1364.000000 0.4277 0.4073 0.3871 0.3668 0.3466
1369.000000 0.3276 0.2939 0.2819 0.2673 0.2533
1374.000000 0.2398 0.2212 0.2072 0.1970 0.1889
1379.000000 0.1825 0.1798 0.1791 0.1791 0.1794
1384.000000 0.1808 0.1835 0.1926 0.2025 0.2119
1389.000000 0.2379 0.2658 0.2938 0.3216 0.3495
1394.000000 0.3773 0.4051 0.4328 0.4605 0.4881
1399.000000 0.5158 0.5433 0.5709 0.5975 0.6045
1404.000000 0.6071 0.6085 0.6087 0.6083 0.6088
1409.000000 0.6049 0.5998 0.5910 0.5822 0.5733
1414.000000 0.5644 0.5555 0.5479 0.5460 0.5448
1419.000000 0.5672 0.5900 0.6128 0.6346 0.6396
1424.000000 0.6415 0.6424 0.6429 0.6434 0.6435
1429.000000 0.6431 0.6415 0.6379 0.6304 0.6153
1434.000000 0.6003 0.5917 0.5844 0.5786 0.5744
1439.000000 0.5460 0.4877 0.4257 0.3705 0.3326
1444.000000 0.3068 0.2943 0.2826 0.2642 0.2519
1449.000000 0.2420 0.2329 0.2252 0.2193 0.2136
1454.000000 0.2083 0.2035 0.1989 0.1938 0.1881
1459.000000 0.1832 0.1813 0.1807 0.1803 0.1801
1464.000000 0.1800 0.1800 0.1802 0.1803 0.1806
1469.000000 0.1808 0.1810 0.1813 0.1820 0.1829
1474.000000 0.1840 0.2898 0.3012 0.3134 0.3272
1479.000000 0.3407 0.3517 0.3623 0.3741 0.3898
1484.000000 0.4143 0.4247 0.4327 0.4391 0.4445
1489.000000 0.4479 0.4512 0.4537 0.4557 0.4576
1494.000000 0.4590 0.4596 0.4602 0.4597 0.4587
1499.000000 0.4569 0.4597 0.4475 0.4410 0.4346
1504.000000 0.4289 0.4224 0.4166 0.4132 0.4117
1509.000000 0.4121 0.4121 0.4136 0.4155 0.4193
1514.000000 0.4305 0.4444 0.4585 0.4725 0.4871
1519.000000 0.5104 0.5416 0.5746 0.6075 0.6361
1524.000000 0.6476 0.6483 0.6490 0.6474 0.6410
1529.000000 0.6282 0.6149 0.6014 0.5880 0.5747
1534.000000 0.5613 0.5479 0.5346 0.5213 0.5080
1539.000000 0.4947 0.4855 0.4792 0.4710 0.4619
1544.000000 0.4523 0.4424 0.4247 0.3870 0.3760
1549.000000 0.3725 0.3696 0.3669 0.3659 0.3652
1554.000000 0.3646 0.3641 0.3641 0.3644 0.3649
1559.000000 0.3648 0.3706 0.3787 0.3880 0.3974
1564.000000 0.4067 0.4160 0.4210 0.4215 0.4213
1569.000000 0.4211 0.4206 0.4217 0.4194 0.4183
1574.000000 0.4170 0.4147 0.4087 0.4008 0.3929
1579.000000 0.3850 0.3771 0.3691 0.3612 0.3534
1584.000000 0.3455 0.3401 0.3371 0.3355 0.3354
1589.000000 0.3356 0.3359 0.3364 0.3374 0.3378
1594.000000 0.3388 0.3401 0.3417 0.3506 0.3706
1599.000000 0.3952 0.4197 0.4442 0.4687 0.4931
1604.000000 0.5176 0.5420 0.5605 0.5658 0.5661
1609.000000 0.5657 0.5623 0.5555 0.5486 0.5418
1614.000000 0.5353 0.5338 0.5343 0.5377 0.5534
1619.000000 0.5700 0.5867 0.6033 0.6198 0.6364
1624.000000 0.6529 0.6694 0.6859 0.7024 0.7189
1629.000000 0.7354 0.7517 0.7681 0.7845 0.8001
1634.000000 0.8067 0.8105 0.8134 0.8193 0.8146
1639.000000 0.8140 0.8131 0.8123 0.8114 0.8100
1644.000000 0.8081 0.8054 0.8024 0.7996 0.7968
1649.000000 0.7940 0.7903 0.7794 0.7444 0.7016
1654.000000 0.6590 0.6164 0.5738 0.5312 0.4887
1659.000000 0.4464 0.4040 0.3684 0.3631 0.3627
1664.000000 0.3624 0.3637 0.3892 0.4511 0.5240
1669.000000 0.5967 0.6695 0.7421 0.8146 0.8490
1674.000000 0.8666 0.8833 0.8990 0.9104 0.9201
1679.000000 0.9283 0.9348 0.9375 0.9385 0.9387
1684.000000 0.9387 0.9387 0.9387 0.9395 0.9388
1689.000000 0.9388 0.9388 0.9388 0.9388 0.9388
1694.000000 0.9388 0.9387 0.9387 0.9386 0.9384
1699.000000 0.9382 0.9381 0.9380 0.9378 0.9376
1704.000000 0.9375 0.9372 0.9370 0.9368 0.9366
1709.000000 0.9363 0.9361 0.9359 0.9357 0.9355
1714.000000 0.9353 0.9351 0.9348 0.9345 0.9341
1719.000000 0.9338 0.9334 0.9331 0.9328 0.9324
1724.000000 0.9322 0.9316 0.9310 0.9304 0.9298
1729.000000 0.9292 0.9285 0.9279 0.9273 0.9267
1734.000000 0.9261 0.9254 0.9244 0.9233 0.9222
1739.000000 0.9211 0.9201 0.9191 0.9180 0.9170
1744.000000 0.9159 0.9148 0.9138 0.9128 0.9118
1749.000000 0.9108 0.9097 0.9087 0.9077 0.9067
1754.000000 0.9061 0.9055 0.9048 0.9043 0.9037
1759.000000 0.9031 0.9025 0.9020 0.9018 0.9017
1764.000000 0.9015 0.9013 0.9012 0.9010 0.9009
1769.000000 0.9006 0.9003 0.8999 0.8996 0.8992
1774.000000 0.8983 0.8965 0.8939 0.8910 0.8886
1779.000000 0.8873 0.8861 0.8849 0.8838 0.8826
1784.000000 0.8818 0.8811 0.8803 0.8796 0.8789
1789.000000 0.8782 0.8776 0.8770 0.8764 0.8759
1794.000000 0.8754 0.8749 0.8743 0.8739 0.8735
1799.000000 0.8731 0.8729 0.8726 0.8724 0.8721
1804.000000 0.8718 0.8716 0.8713 0.8710 0.8707
1809.000000 0.8704 0.8702 0.8700 0.8698 0.8695
1814.000000 0.8692 0.8690 0.8687 0.8685 0.8683
1819.000000 0.8681 0.8678 0.8675 0.8673 0.8671
1824.000000 0.8668 0.8666 0.8663 0.8659 0.8656
1829.000000 0.8652 0.8648 0.8644 0.8638 0.8630
1834.000000 0.8622 0.8614 0.8607 0.8599 0.8590
1839.000000 0.8582 0.8574 0.8566 0.8556 0.8547
1844.000000 0.8538 0.8530 0.8520 0.8511 0.8502
1849.000000 0.8493 0.8484 0.8475 0.8466 0.8457
1854.000000 0.8449 0.8442 0.8435 0.8429 0.8422
1859.000000 0.8416 0.8409 0.8403 0.8397 0.8391
1864.000000 0.8384 0.8378 0.8371 0.8365 0.8359
1869.000000 0.8353 0.8348 0.8344 0.8341 0.8337
1874.000000 0.8334 0.8330 0.8326 0.8322 0.8319
1879.000000 0.8316 0.8314 0.8314 0.8313 0.8313
1884.000000 0.8312 0.8312 0.8310 0.8307 0.8302
1889.000000 0.8298 0.8294 0.8290 0.8286 0.8279
1894.000000 0.8270 0.8259 0.8248 0.8236 0.8225
1899.000000 0.8213 0.8199 0.8185 0.8172 0.8158
1904.000000 0.8143 0.8129 0.8118 0.8109 0.8101
1909.000000 0.8093 0.8085 0.8077 0.8069 0.8061
1914.000000 0.8053 0.8045 0.8037 0.8030 0.8023
1919.000000 0.8017 0.8014 0.8012 0.8011 0.8010
1924.000000 0.8008 0.8007 0.8006 0.8005 0.8004
1929.000000 0.8003 0.8001 0.8000 0.7998 0.7997
1934.000000 0.7997 0.7996 0.7996 0.7995 0.7994
1939.000000 0.7994 0.7992 0.7988 0.7986 0.7983
1944.000000 0.7980 0.7976 0.7973 0.7971 0.7967
1949.000000 0.7964 0.7961 0.7958 0.7955 0.7952
1954.000000 0.7949 0.7944 0.7935 0.7927 0.7918
1959.000000 0.7906 0.7890 0.7874 0.7858 0.7841
1964.000000 0.7826 0.7819 0.7814 0.7810 0.7807
1969.000000 0.7804 0.7800 0.7796 0.7793 0.7789
1974.000000 0.7786 0.7782 0.7779 0.7775 0.7772
1979.000000 0.7769 0.7766 0.7763 0.7760 0.7757
1984.000000 0.7755 0.7752 0.7750 0.7747 0.7744
1989.000000 0.7741 0.7739 0.7736 0.7734 0.7730
1994.000000 0.7728 0.7725 0.7723 0.7720 0.7718
1999.000000 0.7715 0.7713 0.7711 0.7709 0.7706
2004.000000 0.7704 0.7702 0.7700 0.7697 0.7696
2009.000000 0.7693 0.7691 0.7689 0.7687 0.7685
2014.000000 0.7683 0.7681 0.7679 0.7676 0.7674
2019.000000 0.7672 0.7670 0.7668 0.7666 0.7664
2024.000000 0.7663 0.7663 0.7663 0.7663 0.7663
2029.000000 0.7663 0.7662 0.7662 0.7662 0.7662
2034.000000 0.7662 0.7662 0.7662 0.7662 0.7661
2039.000000 0.7661 0.7661 0.7661 0.7661 0.7661
2044.000000 0.7661 0.7660 0.7659 0.7659 0.7659
2049.000000 0.7659 0.7658 0.7657 0.7657 0.7657
2054.000000 0.7657 0.7656 0.7655 0.7655 0.7655
2059.000000 0.7655 0.7653 0.7652 0.7647 0.7643
2064.000000 0.7638 0.7634 0.7629 0.7623 0.7616
2069.000000 0.7608 0.7600 0.7592 0.7583 0.7575
2074.000000 0.7567 0.7560 0.7553 0.7548 0.7544
2079.000000 0.7540 0.7536 0.7532 0.7528 0.7524
2084.000000 0.7520 0.7516 0.7512 0.7508 0.7504
2089.000000 0.7501 0.7499 0.7499 0.7499 0.7499
2094.000000 0.7499 0.7499 0.7499 0.7499 0.7500
2099.000000 0.7500 0.7500 0.7500 0.7500 0.7500
2104.000000 0.7500 0.7500 0.7500 0.7500 0.7500
2109.000000 0.7500 0.7500 0.7500 0.7500 0.7500
2114.000000 0.7501 0.7501 0.7502 0.7502 0.7502
2119.000000 0.7503 0.7503 0.7503 0.7503 0.7504
2124.000000 0.7504 0.7501 0.7499 0.7497 0.7495
2129.000000 0.7493 0.7490 0.7488 0.7486 0.7485
2134.000000 0.7483 0.7480 0.7478 0.7476 0.7474
2139.000000 0.7471 0.7469 0.7466 0.7462 0.7459
2144.000000 0.7456 0.7453 0.7449 0.7446 0.7443
2149.000000 0.7439 0.7436 0.7432 0.7429 0.7426
2154.000000 0.7421 0.7416 0.7411 0.7407 0.7401
2159.000000 0.7396 0.7391 0.7386 0.7381 0.7376
2164.000000 0.7371 0.7366 0.7361 0.7356 0.7351
2169.000000 0.7346 0.7341 0.7336 0.7332 0.7327
2174.000000 0.7322 0.7317 0.7313 0.7308 0.7303
2179.000000 0.7298 0.7294 0.7289 0.7284 0.7279
2184.000000 0.7275 0.7270 0.7265 0.7261 0.7257
2189.000000 0.7254 0.7251 0.7248 0.7244 0.7240
2194.000000 0.7237 0.7234 0.7231 0.7228 0.7225
2199.000000 0.7222 0.7219 0.7215 0.7212 0.7209
2204.000000 0.7207 0.7205 0.7203 0.7202 0.7199
2209.000000 0.7198 0.7196 0.7194 0.7192 0.7191
2214.000000 0.7189 0.7187 0.7185 0.7183 0.7182
2219.000000 0.7179 0.7176 0.7173 0.7169 0.7166
2224.000000 0.7162 0.7159 0.7155 0.7152 0.7148
2229.000000 0.7143 0.7137 0.7131 0.7124 0.7116
2234.000000 0.7109 0.7103 0.7096 0.7090 0.7084
2239.000000 0.7079 0.7073 0.7068 0.7062 0.7057
2244.000000 0.7051 0.7046 0.7040 0.7034 0.7029
2249.000000 0.7023 0.7018 0.7012 0.7007 0.7001
2254.000000 0.6996 0.6990 0.6984 0.6979 0.6973
2259.000000 0.6968 0.6963 0.6957 0.6951 0.6945
2264.000000 0.6939 0.6934 0.6928 0.6922 0.6916
2269.000000 0.6910 0.6904 0.6899 0.6893 0.6887
2274.000000 0.6881 0.6875 0.6869 0.6863 0.6857
2279.000000 0.6851 0.6845 0.6840 0.6834 0.6828
2284.000000 0.6822 0.6817 0.6811 0.6805 0.6800
2289.000000 0.6795 0.6791 0.6786 0.6781 0.6777
2294.000000 0.6772 0.6768 0.6763 0.6758 0.6754
2299.000000 0.6749 0.6744 0.6740 0.6736 0.6731
2304.000000 0.6726 0.6721 0.6717 0.6712 0.6707
2309.000000 0.6703 0.6699 0.6694 0.6690 0.6685
2314.000000 0.6680 0.6676 0.6670 0.6665 0.6660
2319.000000 0.6654 0.6649 0.6644 0.6638 0.6633
2324.000000 0.6628 0.6622 0.6617 0.6612 0.6606
2329.000000 0.6601 0.6595 0.6590 0.6585 0.6579
2334.000000 0.6572 0.6566 0.6559 0.6553 0.6546
2339.000000 0.6539 0.6532 0.6526 0.6521 0.6516
2344.000000 0.6510 0.6505 0.6500 0.6495 0.6489
2349.000000 0.6484 0.6479 0.6474 0.6469 0.6463
2354.000000 0.6458 0.6452 0.6447 0.6442 0.6437
2359.000000 0.6431 0.6424 0.6416 0.6409 0.6402
2364.000000 0.6395 0.6387 0.6380 0.6373 0.6366
2369.000000 0.6360 0.6355 0.6349 0.6343 0.6337
2374.000000 0.6331 0.6326 0.6321 0.6315 0.6309
2379.000000 0.6304 0.6297 0.6291 0.6285 0.6280
2384.000000 0.6274 0.6269 0.6265 0.6261 0.6258
2389.000000 0.6254 0.6251 0.6247 0.6244 0.6240
2394.000000 0.6236 0.6232 0.6229 0.6225 0.6222
2399.000000 0.6218 0.6215 0.6212 0.6209 0.6205
2404.000000 0.6202 0.6199 0.6196 0.6193 0.6190
2409.000000 0.6187 0.6184 0.6181 0.6178 0.6175
2414.000000 0.6172 0.6168 0.6165 0.6162 0.6159
2419.000000 0.6156 0.6153 0.6150 0.6147 0.6144
2424.000000 0.6142 0.6139 0.6136 0.6133 0.6130
2429.000000 0.6127 0.6124 0.6122 0.6119 0.6116
2434.000000 0.6113 0.6110 0.6107 0.6105 0.6102
2439.000000 0.6100 0.6097 0.6094 0.6091 0.6088
2444.000000 0.6086 0.6083 0.6080 0.6077 0.6075
2449.000000 0.6072 0.6069 0.6066 0.6064 0.6061
2454.000000 0.6059 0.6056 0.6053 0.6050 0.6046
2459.000000 0.6041 0.6036 0.6031 0.6025 0.6020
2464.000000 0.6015 0.6010 0.6005 0.5999 0.5994
2469.000000 0.5989 0.5983 0.5978 0.5973 0.5969
2474.000000 0.5965 0.5961 0.5956 0.5952 0.5948
2479.000000 0.5945 0.5941 0.5939 0.5937 0.5935
2484.000000 0.5934 0.5933 0.5932 0.5931 0.5930
2489.000000 0.5929 0.5928 0.5928 0.5928 0.5929
2494.000000 0.5930 0.5930 0.5931 0.5932 0.5933
2499.000000 0.5934 0.5935 0.5935 0.5936 0.5937
2504.000000 0.5937 0.5937 0.5938 0.5939 0.5940
2509.000000 0.5941 0.5941 0.5942 0.5943 0.5944
2514.000000 0.5945 0.5945 0.5946 0.5946 0.5947
2519.000000 0.5948 0.5948 0.5949 0.5949 0.5950
2524.000000 0.5951 0.5951 0.5952 0.5952 0.5953
2529.000000 0.5953 0.5953 0.5952 0.5952 0.5951
2534.000000 0.5951 0.5950 0.5949 0.5949 0.5949
2539.000000 0.5948 0.5947 0.5946 0.5944 0.5942
2544.000000 0.5940 0.5937 0.5935 0.5933 0.5931
2549.000000 0.5929 0.5927 0.5925 0.5923 0.5921
2554.000000 0.5918 0.5914 0.5909 0.5905 0.5900
2559.000000 0.5895 0.5889 0.5883 0.5874 0.5862
2564.000000 0.5850 0.5839 0.5828 0.5818 0.5808
2569.000000 0.5797 0.5789 0.5781 0.5773 0.5765
2574.000000 0.5758 0.5751 0.5747 0.5743 0.5741
2579.000000 0.5740 0.5719 0.5737 0.5736 0.5735
2584.000000 0.5734 0.5734 0.5734 0.5734 0.5735
2589.000000 0.5735 0.5736 0.5737 0.5737 0.5738
2594.000000 0.5739 0.5741 0.5742 0.5744 0.5746
2599.000000 0.5748 0.5749 0.5751 0.5752 0.5754
2604.000000 0.5755 0.5757 0.5760 0.5762 0.5765
2609.000000 0.5768 0.5771 0.5774 0.5777 0.5781
2614.000000 0.5785 0.5788 0.5792 0.5796 0.5799
2619.000000 0.5803 0.5807 0.5810 0.5814 0.5817
2624.000000 0.5821 0.5825 0.5828 0.5835 0.5843
2629.000000 0.5850 0.5857 0.5864 0.5872 0.5881
2634.000000 0.5889 0.5898 0.5907 0.5915 0.5923
2639.000000 0.5930 0.5937 0.5941 0.5945 0.5976
2644.000000 0.5948 0.5949 0.5950 0.5950 0.5950
2649.000000 0.5947 0.5942 0.5938 0.5930 0.5921
2654.000000 0.5912 0.5900 0.5888 0.5875 0.5860
2659.000000 0.5845 0.5831 0.5817 0.5803 0.5790
2664.000000 0.5776 0.5763 0.5751 0.5740 0.5729
2669.000000 0.5721 0.5713 0.5689 0.5704 0.5701
2674.000000 0.5700 0.5700 0.5700 0.5700 0.5701
2679.000000 0.5702 0.5705 0.5711 0.5717 0.5727
2684.000000 0.5741 0.5754 0.5773 0.5795 0.5817
2689.000000 0.5841 0.5865 0.5889 0.5909 0.5929
2694.000000 0.5949 0.5966 0.5982 0.5999 0.6015
2699.000000 0.6031 0.6047 0.6061 0.6076 0.6090
2704.000000 0.6102 0.6113 0.6124 0.6132 0.6140
2709.000000 0.6146 0.6150 0.6154 0.6158 0.6162
2714.000000 0.6166 0.6169 0.6171 0.6173 0.6175
2719.000000 0.6177 0.6180 0.6182 0.6184 0.6186
2724.000000 0.6188 0.6190 0.6192 0.6193 0.6194
2729.000000 0.6194 0.6195 0.6196 0.6196 0.6197
2734.000000 0.6198 0.6198 0.6199 0.6200 0.6200
2739.000000 0.6201 0.6201 0.6201 0.6202 0.6202
2744.000000 0.6202 0.6203 0.6203 0.6203 0.6204
2749.000000 0.6204 0.6204 0.6203 0.6203 0.6203
2754.000000 0.6202 0.6202 0.6202 0.6201 0.6201
2759.000000 0.6201 0.6200 0.6199 0.6199 0.6198
2764.000000 0.6197 0.6196 0.6195 0.6195 0.6194
2769.000000 0.6193 0.6192 0.6190 0.6186 0.6178
2774.000000 0.6170 0.6161 0.6151 0.6141 0.6131
2779.000000 0.6123 0.6115 0.6107 0.6093 0.6080
2784.000000 0.6066 0.6049 0.6032 0.6016 0.6000
2789.000000 0.5985 0.5970 0.5956 0.5941 0.5927
2794.000000 0.5912 0.5898 0.5884 0.5869 0.5854
2799.000000 0.5839 0.5824 0.5809 0.5795 0.5780
2804.000000 0.5764 0.5749 0.5733 0.5717 0.5700
2809.000000 0.5684 0.5670 0.5655 0.5641 0.5622
2814.000000 0.5602 0.5582 0.5539 0.5485 0.5431
2819.000000 0.5383 0.5342 0.5300 0.5263 0.5234
2824.000000 0.5205 0.5173 0.5119 0.5066 0.5012
2829.000000 0.4903 0.4790 0.4677 0.4564 0.4451
2834.000000 0.4339 0.4227 0.4114 0.4001 0.3889
2839.000000 0.3777 0.3665 0.3553 0.3441 0.3329
2844.000000 0.3217 0.3106 0.2994 0.2883 0.2771
2849.000000 0.2660 0.2548 0.2437 0.2326 0.2215
2854.000000 0.2103 0.1993 0.1882 0.1771 0.1661
2859.000000 0.1550 0.1439 0.1374 0.1340 0.1306
2864.000000 0.1282 0.1281 0.1279 0.1277 0.1276
2869.000000 0.1274 0.1272 0.1270 0.1267 0.1265
2874.000000 0.1263 0.1261 0.1259 0.1257 0.1253
2879.000000 0.1250 0.1246 0.1242 0.1238 0.1234
2884.000000 0.1228 0.1219 0.1211 0.1202 0.1191
2889.000000 0.1181 0.1170 0.1157 0.1143 0.1129
2894.000000 0.1116 0.1103 0.1091 0.1079 0.1066
2899.000000 0.1053 0.1040 0.1026 0.1011 0.0997
2904.000000 0.0984 0.0973 0.0962 0.0951 0.0940
2909.000000 0.0929 0.0918 0.0909 0.0901 0.0893
2914.000000 0.0886 0.0879 0.0872 0.0865 0.0858
2919.000000 0.0851 0.0844 0.0838 0.0831 0.0825
2924.000000 0.0818 0.0813 0.0808 0.0803 0.0800
2929.000000 0.0796 0.0793 0.0791 0.0791 0.0791
2934.000000 0.0791 0.0791 0.0792 0.0793 0.0794
2939.000000 0.0795 0.0796 0.0797 0.0799 0.0801
2944.000000 0.0802 0.0804 0.0807 0.0810 0.0812
2949.000000 0.0816 0.0820 0.0823 0.0829 0.0836
2954.000000 0.0843 0.0851 0.0875 0.0901 0.0927
2959.000000 0.0955 0.0984 0.1013 0.1042 0.1074
2964.000000 0.1106 0.1137 0.1172 0.1212 0.1251
2969.000000 0.1291 0.1370 0.1454 0.1539 0.1599
2974.000000 0.1615 0.1631 0.1646 0.1692 0.1744
2979.000000 0.1797 0.1856 0.1932 0.2009 0.2085
2984.000000 0.2161 0.2238 0.2314 0.2390 0.2466
2989.000000 0.2543 0.2619 0.2695 0.2771 0.2847
2994.000000 0.2923 0.2998 0.3074 0.3150 0.3225
2999.000000 0.3298 0.3372 0.3446 0.3480 0.3505
3004.000000 0.3530 0.3560 0.3615 0.3670 0.3724
3009.000000 0.3790 0.3864 0.3938 0.4012 0.4051
3014.000000 0.4089 0.4127 0.4163 0.4195 0.4227
3019.000000 0.4259 0.4289 0.4317 0.4345 0.4373
3024.000000 0.4392 0.4411 0.4430 0.4448 0.4465
3029.000000 0.4482 0.4499 0.4516 0.4532 0.4549
3034.000000 0.4565 0.4576 0.4588 0.4599 0.4610
3039.000000 0.4621 0.4632 0.4643 0.4655 0.4666
3044.000000 0.4677 0.4689 0.4701 0.4713 0.4726
3049.000000 0.4738 0.4751 0.4764 0.4777 0.4790
3054.000000 0.4804 0.4817 0.4830 0.4845 0.4859
3059.000000 0.4873 0.4888 0.4902 0.4916 0.4929
3064.000000 0.4943 0.4956 0.4969 0.4982 0.4995
3069.000000 0.5008 0.5021 0.5033 0.5045 0.5056
3074.000000 0.5068 0.5079 0.5090 0.5101 0.5112
3079.000000 0.5124 0.5135 0.5146 0.5157 0.5168
3084.000000 0.5179 0.5190 0.5201 0.5212 0.5224
3089.000000 0.5235 0.5247 0.5259 0.5271 0.5283
3094.000000 0.5296 0.5308 0.5321 0.5333 0.5346
3099.000000 0.5358 0.5370 0.5382 0.5395 0.5407
3104.000000 0.5420 0.5432 0.5444 0.5455 0.5466
3109.000000 0.5477 0.5487 0.5496 0.5506 0.5515
3114.000000 0.5524 0.5533 0.5542 0.5551 0.5560
3119.000000 0.5569 0.5578 0.5587 0.5596 0.5605
3124.000000 0.5614 0.5623 0.5631 0.5640 0.5649
3129.000000 0.5658 0.5667 0.5677 0.5686 0.5695
3134.000000 0.5704 0.5713 0.5722 0.5731 0.5739
3139.000000 0.5748 0.5757 0.5766 0.5774 0.5782
3144.000000 0.5790 0.5798 0.5806 0.5814 0.5822
3149.000000 0.5830 0.5838 0.5846 0.5854 0.5862
3154.000000 0.5870 0.5877 0.5885 0.5892 0.5899
3159.000000 0.5906 0.5913 0.5919 0.5924 0.5930
3164.000000 0.5935 0.5941 0.5947 0.5953 0.5958
3169.000000 0.5964 0.5969 0.5975 0.5980 0.5986
3174.000000 0.5992 0.5997 0.6003 0.6008 0.6013
3179.000000 0.6018 0.6023 0.6028 0.6032 0.6037
3184.000000 0.6041 0.6046 0.6051 0.6055 0.6060
3189.000000 0.6064 0.6069 0.6073 0.6078 0.6082
3194.000000 0.6087 0.6091 0.6095 0.6100 0.6104
3199.000000 0.6109 0.6114 0.6118 0.6123 0.6127
3204.000000 0.6132 0.6136 0.6141 0.6145 0.6150
3209.000000 0.6154 0.6158 0.6161 0.6164 0.6167
3214.000000 0.6170 0.6173 0.6176 0.6179 0.6182
3219.000000 0.6185 0.6188 0.6191 0.6195 0.6198
3224.000000 0.6201 0.6204 0.6207 0.6210 0.6213
3229.000000 0.6216 0.6219 0.6221 0.6224 0.6227
3234.000000 0.6230 0.6232 0.6233 0.6234 0.6235
3239.000000 0.6236 0.6237 0.6239 0.6240 0.6241
3244.000000 0.6242 0.6243 0.6244 0.6245 0.6246
3249.000000 0.6247 0.6248 0.6250 0.6251 0.6252
3254.000000 0.6253 0.6254 0.6255 0.6255 0.6255
3259.000000 0.6255 0.6255 0.6255 0.6255 0.6255
3264.000000 0.6255 0.6255 0.6255 0.6255 0.6254
3269.000000 0.6254 0.6254 0.6254 0.6254 0.6253
3274.000000 0.6253 0.6252 0.6252 0.6251 0.6250
3279.000000 0.6249 0.6248 0.6247 0.6246 0.6245
3284.000000 0.6245 0.6244 0.6243 0.6242 0.6241
3289.000000 0.6240 0.6239 0.6238 0.6237 0.6236
3294.000000 0.6221 0.6235 0.6234 0.6233 0.6233
3299.000000 0.6232 0.6231 0.6230 0.6229 0.6228
3304.000000 0.6227 0.6226 0.6225 0.6224 0.6223
3309.000000 0.6222 0.6221 0.6220 0.6219 0.6218
3314.000000 0.6216 0.6215 0.6214 0.6213 0.6211
3319.000000 0.6210 0.6209 0.6207 0.6206 0.6205
3324.000000 0.6204 0.6203 0.6201 0.6200 0.6199
3329.000000 0.6197 0.6196 0.6195 0.6194 0.6193
3334.000000 0.6192 0.6190 0.6189 0.6188 0.6186
3339.000000 0.6185 0.6184 0.6182 0.6181 0.6179
3344.000000 0.6178 0.6177 0.6175 0.6174 0.6173
3349.000000 0.6171 0.6170 0.6169 0.6167 0.6166
3354.000000 0.6164 0.6163 0.6161 0.6159 0.6158
3359.000000 0.6156 0.6155 0.6153 0.6152 0.6151
3364.000000 0.6149 0.6148 0.6147 0.6145 0.6143
3369.000000 0.6142 0.6140 0.6139 0.6137 0.6136
3374.000000 0.6134 0.6133 0.6131 0.6130 0.6128
3379.000000 0.6127 0.6125 0.6123 0.6122 0.6120
3384.000000 0.6119 0.6117 0.6115 0.6113 0.6112
3389.000000 0.6110 0.6109 0.6107 0.6106 0.6104
3394.000000 0.6103 0.6101 0.6100 0.6098 0.6097
3399.000000 0.6095 0.6094 0.6092 0.6091 0.6089
3404.000000 0.6088 0.6086 0.6084 0.6083 0.6081
3409.000000 0.6080 0.6078 0.6077 0.6075 0.6074
3414.000000 0.6072 0.6071 0.6070 0.6069 0.6069
3419.000000 0.6068 0.6067 0.6067 0.6066 0.6066
3424.000000 0.6065 0.6064 0.6064 0.6063 0.6062
3429.000000 0.6062 0.6061 0.6061 0.6060 0.6060
3434.000000 0.6060 0.6060 0.6060 0.6060 0.6060
3439.000000 0.6061 0.6061 0.6061 0.6061 0.6061
3444.000000 0.6062 0.6062 0.6062 0.6062 0.6062
3449.000000 0.6063 0.6063 0.6064 0.6064 0.6064
3454.000000 0.6065 0.6066 0.6067 0.6068 0.6068
3459.000000 0.6068 0.6068 0.6068 0.6068 0.6067
3464.000000 0.6065 0.6064 0.6062 0.6060 0.6058
3469.000000 0.6055 0.6052 0.6049 0.6046 0.6043
3474.000000 0.6040 0.6037 0.6035 0.6032 0.6029
3479.000000 0.6026 0.6024 0.6021 0.6018 0.6015
3484.000000 0.6012 0.6008 0.6005 0.6002 0.5998
3489.000000 0.5994 0.5990 0.5987 0.5983 0.5980
3494.000000 0.5976 0.5973 0.5969 0.5966 0.5962
3499.000000 0.5958 0.5955 0.5951 0.5948 0.5945
3504.000000 0.5942 0.5939 0.5935 0.5933 0.5930
3509.000000 0.5927 0.5924 0.5921 0.5918 0.5915
3514.000000 0.5913 0.5910 0.5907 0.5904 0.5901
3519.000000 0.5898 0.5895 0.5892 0.5889 0.5886
3524.000000 0.5883 0.5881 0.5878 0.5875 0.5872
3529.000000 0.5869 0.5866 0.5863 0.5860 0.5857
3534.000000 0.5854 0.5851 0.5849 0.5846 0.5843
3539.000000 0.5840 0.5838 0.5835 0.5832 0.5829
3544.000000 0.5826 0.5824 0.5821 0.5818 0.5816
3549.000000 0.5814 0.5811 0.5809 0.5807 0.5806
3554.000000 0.5805 0.5804 0.5803 0.5802 0.5800
3559.000000 0.5799 0.5798 0.5797 0.5796 0.5794
3564.000000 0.5793 0.5792 0.5791 0.5790 0.5789
3569.000000 0.5788 0.5787 0.5786 0.5785 0.5784
3574.000000 0.5783 0.5782 0.5781 0.5780 0.5779
3579.000000 0.5778 0.5777 0.5776 0.5775 0.5774
3584.000000 0.5773 0.5772 0.5771 0.5770 0.5769
3589.000000 0.5768 0.5767 0.5766 0.5765 0.5765
3594.000000 0.5764 0.5763 0.5762 0.5762 0.5761
3599.000000 0.5760 0.5759 0.5758 0.5757 0.5756
3604.000000 0.5754 0.5753 0.5752 0.5750 0.5749
3609.000000 0.5747 0.5746 0.5745 0.5743 0.5742
3614.000000 0.5741 0.5739 0.5738 0.5737 0.5735
3619.000000 0.5734 0.5733 0.5731 0.5730 0.5729
3624.000000 0.5726 0.5723 0.5720 0.5717 0.5714
3629.000000 0.5711 0.5707 0.5704 0.5701 0.5698
3634.000000 0.5694 0.5690 0.5685 0.5681 0.5676
3639.000000 0.5672 0.5664 0.5656 0.5648 0.5641
3644.000000 0.5633 0.5627 0.5621 0.5616 0.5610
3649.000000 0.5605 0.5601 0.5600 0.5599 0.5598
3654.000000 0.5597 0.5596 0.5596 0.5595 0.5594
3659.000000 0.5593 0.5593 0.5592 0.5591 0.5590
3664.000000 0.5589 0.5588 0.5587 0.5587 0.5587
3669.000000 0.5586 0.5586 0.5586 0.5585 0.5585
3674.000000 0.5585 0.5585 0.5585 0.5585 0.5585
3679.000000 0.5585 0.5585 0.5585 0.5584 0.5584
3684.000000 0.5584 0.5584 0.5584 0.5584 0.5584
3689.000000 0.5584 0.5584 0.5584 0.5584 0.5583
3694.000000 0.5583 0.5583 0.5582 0.5582 0.5582
3699.000000 0.5581 0.5580 0.5579 0.5578 0.5577
3704.000000 0.5576 0.5575 0.5574 0.5574 0.5573
3709.000000 0.5572 0.5570 0.5568 0.5566 0.5564
3714.000000 0.5562 0.5560 0.5557 0.5555 0.5553
3719.000000 0.5550 0.5548 0.5545 0.5542 0.5539
3724.000000 0.5535 0.5532 0.5529 0.5526 0.5522
3729.000000 0.5519 0.5516 0.5513 0.5509 0.5504
3734.000000 0.5500 0.5496 0.5491 0.5487 0.5483
3739.000000 0.5478 0.5474 0.5469 0.5465 0.5461
3744.000000 0.5457 0.5453 0.5449 0.5446 0.5442
3749.000000 0.5439 0.5437 0.5435 0.5433 0.5430
3754.000000 0.5428 0.5426 0.5423 0.5421 0.5419
3759.000000 0.5416 0.5414 0.5412 0.5410 0.5407
3764.000000 0.5405 0.5403 0.5401 0.5399 0.5398
3769.000000 0.5396 0.5395 0.5393 0.5392 0.5390
3774.000000 0.5389 0.5388 0.5386 0.5385 0.5383
3779.000000 0.5382 0.5381 0.5379 0.5378 0.5376
3784.000000 0.5375 0.5374 0.5372 0.5371 0.5369
3789.000000 0.5368 0.5367 0.5365 0.5364 0.5362
3794.000000 0.5361 0.5359 0.5358 0.5356 0.5355
3799.000000 0.5353 0.5352 0.5350 0.5349 0.5348
3804.000000 0.5346 0.5345 0.5343 0.5342 0.5340
3809.000000 0.5339 0.5337 0.5335 0.5334 0.5332
3814.000000 0.5331 0.5329 0.5328 0.5326 0.5325
3819.000000 0.5323 0.5322 0.5320 0.5318 0.5317
3824.000000 0.5315 0.5314 0.5312 0.5311 0.5309
3829.000000 0.5308 0.5306 0.5305 0.5304 0.5302
3834.000000 0.5301 0.5300 0.5298 0.5296 0.5295
3839.000000 0.5293 0.5292 0.5290 0.5289 0.5287
3844.000000 0.5286 0.5284 0.5283 0.5281 0.5280
3849.000000 0.5278 0.5277 0.5275 0.5274 0.5272
3854.000000 0.5271 0.5269 0.5268 0.5266 0.5265
3859.000000 0.5263 0.5261 0.5260 0.5258 0.5256
3864.000000 0.5254 0.5253 0.5251 0.5250 0.5248
3869.000000 0.5247 0.5245 0.5244 0.5242 0.5240
3874.000000 0.5239 0.5237 0.5235 0.5234 0.5232
3879.000000 0.5231 0.5229 0.5228 0.5226 0.5225
3884.000000 0.5223 0.5222 0.5221 0.5219 0.5218
3889.000000 0.5216 0.5214 0.5213 0.5211 0.5209
3894.000000 0.5208 0.5206 0.5205 0.5203 0.5202
3899.000000 0.5200 0.5199 0.5197 0.5196 0.5194
3904.000000 0.5193 0.5191 0.5190 0.5189 0.5187
3909.000000 0.5186 0.5185 0.5183 0.5182 0.5181
3914.000000 0.5179 0.5178 0.5177 0.5175 0.5174
3919.000000 0.5173 0.5172 0.5170 0.5169 0.5168
3924.000000 0.5166 0.5165 0.5164 0.5163 0.5162
3929.000000 0.5161 0.5159 0.5158 0.5158 0.5158
3934.000000 0.5157 0.5157 0.5157 0.5157 0.5156
3939.000000 0.5156 0.5155 0.5155 0.5154 0.5154
3944.000000 0.5153 0.5153 0.5153 0.5152 0.5152
3949.000000 0.5152 0.5151 0.5151 0.5150 0.5150
3954.000000 0.5149 0.5149 0.5148 0.5148 0.5148
3959.000000 0.5148 0.5148 0.5148 0.5147 0.5147
3964.000000 0.5147 0.5147 0.5147 0.5147 0.5147
3969.000000 0.5146 0.5146 0.5146 0.5145 0.5145
3974.000000 0.5145 0.5144 0.5143 0.5143 0.5142
3979.000000 0.5141 0.5140 0.5139 0.5137 0.5134
3984.000000 0.5131 0.5128 0.5126 0.5123 0.5119
3989.000000 0.5115 0.5111 0.5107 0.5103 0.5099
3994.000000 0.5095 0.5090 0.5086 0.5081 0.5077
3999.000000 0.5072 0.5068
##END=
