##TITLE=Acetic acid, (ethylenedinitrilo)tetra-, indium complex
##JCAMP-DX=4.24
$$ By DXEDIT 1.05 (RS McDonald)
##DATA TYPE=INFRARED SPECTRUM
##CLASS=COBLENTZ III
##ORIGIN=DOW CHEMICAL COMPANY
##OWNER=COPYRIGHT (C) 1988 by COBLENTZ SOCIETY INC.
Collection (C) 2018 copyright by the U.S. Secretary of Commerce
on behalf of the United States of America. All rights reserved.
##DATE=1965/12/16
##MOLFORM=C10 H13 N2 O8 In
##SOURCE REFERENCE=COBLENTZ NO. 09209
##$NIST ID=B6009209
##$NIST SOURCE=COBLENTZ
##$NIST IMAGE=cob9209
##SPECTROMETER/DATA SYSTEM=DOW KBr FOREPRISM-GRATING
##INSTRUMENT PARAMETERS=BLAZED AT 3.5, 12.0, 20.0 MICRON AND CHANGED AT 5.0, 7.5, 14.9 MICRON
##STATE=SOLID (SPLIT MULL), FLUOROLUBE FOR 3800-1330 CM^-^1, NUJOL FOR 1330-460 CM^-^1
$$SPECTRAL CONTAMINATION DUE TO H2O AROUND 3400 CM^-^1
$$ SPECTRAL FEATURE AT 1997 CM^-^1 IS AN ARTIFACT CAUSED BY GRATING CHANGE
##SAMPLING PROCEDURE=TRANSMISSION
##RESOLUTION=2
##DATA PROCESSING=DIGITIZED BY COBLENTZ SOCIETY (BATCH I) FROM HARD COPY
##XUNITS=1/CM
##YUNITS=TRANSMITTANCE
##XFACTOR=1
##YFACTOR=1
##DELTAX=1
##FIRSTX=3792
##LASTX=458
##FIRSTY=0.8103
##MAXX=3792
##MINX=458
##MAXY=0.9084
##MINY=0.0398
##NPOINTS=3335
##XYDATA=(X++(Y..Y))
3792.000000 0.8103 0.8101 0.8101 0.8101 0.8101
3787.000000 0.8101 0.8101 0.8100 0.8100 0.8099
3782.000000 0.8099 0.8098 0.8098 0.8097 0.8096
3777.000000 0.8095 0.8095 0.8094 0.8094 0.8094
3772.000000 0.8094 0.8094 0.8095 0.8095 0.8095
3767.000000 0.8095 0.8096 0.8096 0.8096 0.8096
3762.000000 0.8121 0.8098 0.8100 0.8101 0.8104
3757.000000 0.8106 0.8108 0.8110 0.8111 0.8114
3752.000000 0.8117 0.8119 0.8122 0.8125 0.8128
3747.000000 0.8131 0.8134 0.8141 0.8148 0.8158
3742.000000 0.8168 0.8185 0.8202 0.8214 0.8227
3737.000000 0.8227 0.8228 0.8228 0.8228 0.8228
3732.000000 0.8228 0.8228 0.8228 0.8227 0.8227
3727.000000 0.8225 0.8225 0.8224 0.8224 0.8223
3722.000000 0.8223 0.8221 0.8221 0.8221 0.8220
3717.000000 0.8218 0.8217 0.8216 0.8215 0.8214
3712.000000 0.8213 0.8211 0.8210 0.8209 0.8208
3707.000000 0.8206 0.8205 0.8204 0.8204 0.8203
3702.000000 0.8203 0.8202 0.8202 0.8201 0.8201
3697.000000 0.8200 0.8200 0.8199 0.8198 0.8193
3692.000000 0.8189 0.8178 0.8167 0.8158 0.8151
3687.000000 0.8151 0.8151 0.8156 0.8161 0.8178
3682.000000 0.8196 0.8208 0.8221 0.8223 0.8225
3677.000000 0.8227 0.8228 0.8230 0.8232 0.8234
3672.000000 0.8236 0.8237 0.8238 0.8238 0.8238
3667.000000 0.8238 0.8238 0.8236 0.8235 0.8230
3662.000000 0.8225 0.8215 0.8205 0.8197 0.8189
3657.000000 0.8183 0.8178 0.8172 0.8168 0.8167
3652.000000 0.8165 0.8164 0.8162 0.8161 0.8160
3647.000000 0.8157 0.8154 0.8150 0.8147 0.8141
3642.000000 0.8136 0.8128 0.8121 0.8114 0.8107
3637.000000 0.8100 0.8093 0.8085 0.8076 0.8068
3632.000000 0.8060 0.8051 0.8044 0.8035 0.8026
3627.000000 0.8018 0.8011 0.8001 0.7994 0.7985
3622.000000 0.7976 0.7967 0.7957 0.7946 0.7936
3617.000000 0.7925 0.7915 0.7904 0.7894 0.7884
3612.000000 0.7874 0.7865 0.7856 0.7848 0.7840
3607.000000 0.7832 0.7824 0.7815 0.7808 0.7800
3602.000000 0.7792 0.7785 0.7778 0.7771 0.7764
3597.000000 0.7757 0.7751 0.7744 0.7737 0.7730
3592.000000 0.7722 0.7715 0.7708 0.7701 0.7696
3587.000000 0.7689 0.7683 0.7675 0.7669 0.7654
3582.000000 0.7638 0.7612 0.7589 0.7553 0.7517
3577.000000 0.7505 0.7493 0.7492 0.7491 0.7490
3572.000000 0.7489 0.7488 0.7487 0.7487 0.7487
3567.000000 0.7487 0.7488 0.7488 0.7489 0.7489
3562.000000 0.7489 0.7483 0.7476 0.7471 0.7467
3557.000000 0.7461 0.7457 0.7451 0.7447 0.7442
3552.000000 0.7437 0.7432 0.7426 0.7421 0.7417
3547.000000 0.7411 0.7407 0.7401 0.7396 0.7391
3542.000000 0.7386 0.7380 0.7375 0.7369 0.7365
3537.000000 0.7358 0.7354 0.7348 0.7343 0.7337
3532.000000 0.7332 0.7325 0.7321 0.7315 0.7310
3527.000000 0.7304 0.7299 0.7293 0.7288 0.7283
3522.000000 0.7278 0.7274 0.7268 0.7264 0.7258
3517.000000 0.7254 0.7249 0.7244 0.7240 0.7235
3512.000000 0.7230 0.7225 0.7219 0.7215 0.7210
3507.000000 0.7205 0.7201 0.7196 0.7191 0.7185
3502.000000 0.7180 0.7174 0.7168 0.7161 0.7156
3497.000000 0.7150 0.7144 0.7138 0.7132 0.7125
3492.000000 0.7121 0.7115 0.7108 0.7103 0.7097
3487.000000 0.7091 0.7085 0.7078 0.7072 0.7067
3482.000000 0.7061 0.7056 0.7050 0.7044 0.7038
3477.000000 0.7032 0.7025 0.7019 0.7014 0.7008
3472.000000 0.7004 0.6998 0.6993 0.6988 0.6983
3467.000000 0.6976 0.6971 0.6965 0.6961 0.6955
3462.000000 0.6949 0.6943 0.6937 0.6931 0.6925
3457.000000 0.6921 0.6917 0.6912 0.6908 0.6905
3452.000000 0.6901 0.6897 0.6893 0.6889 0.6885
3447.000000 0.6880 0.6875 0.6871 0.6867 0.6861
3442.000000 0.6858 0.6853 0.6849 0.6844 0.6840
3437.000000 0.6838 0.6837 0.6835 0.6834 0.6833
3432.000000 0.6832 0.6830 0.6828 0.6828 0.6826
3427.000000 0.6825 0.6824 0.6822 0.6821 0.6819
3422.000000 0.6818 0.6817 0.6815 0.6814 0.6811
3417.000000 0.6810 0.6808 0.6807 0.6806 0.6804
3412.000000 0.6801 0.6800 0.6799 0.6797 0.6796
3407.000000 0.6794 0.6792 0.6790 0.6789 0.6787
3402.000000 0.6786 0.6784 0.6782 0.6780 0.6778
3397.000000 0.6776 0.6775 0.6775 0.6775 0.6775
3392.000000 0.6775 0.6775 0.6775 0.6775 0.6775
3387.000000 0.6775 0.6775 0.6774 0.6774 0.6772
3382.000000 0.6772 0.6771 0.6771 0.6771 0.6769
3377.000000 0.6768 0.6768 0.6768 0.6768 0.6767
3372.000000 0.6767 0.6765 0.6765 0.6765 0.6767
3367.000000 0.6767 0.6768 0.6768 0.6768 0.6768
3362.000000 0.6769 0.6769 0.6771 0.6771 0.6771
3357.000000 0.6771 0.6771 0.6771 0.6771 0.6771
3352.000000 0.6771 0.6771 0.6771 0.6771 0.6771
3347.000000 0.6771 0.6771 0.6769 0.6769 0.6769
3342.000000 0.6769 0.6769 0.6769 0.6769 0.6769
3337.000000 0.6769 0.6769 0.6768 0.6768 0.6768
3332.000000 0.6768 0.6768 0.6768 0.6768 0.6768
3327.000000 0.6768 0.6768 0.6768 0.6768 0.6768
3322.000000 0.6768 0.6768 0.6768 0.6768 0.6768
3317.000000 0.6768 0.6769 0.6769 0.6769 0.6769
3312.000000 0.6771 0.6774 0.6776 0.6780 0.6783
3307.000000 0.6786 0.6790 0.6793 0.6797 0.6798
3302.000000 0.6800 0.6801 0.6801 0.6801 0.6803
3297.000000 0.6804 0.6805 0.6805 0.6805 0.6805
3292.000000 0.6804 0.6803 0.6803 0.6801 0.6801
3287.000000 0.6801 0.6801 0.6800 0.6800 0.6799
3282.000000 0.6799 0.6798 0.6798 0.6797 0.6797
3277.000000 0.6797 0.6797 0.6796 0.6796 0.6796
3272.000000 0.6796 0.6796 0.6796 0.6796 0.6796
3267.000000 0.6796 0.6796 0.6795 0.6795 0.6795
3262.000000 0.6795 0.6795 0.6795 0.6795 0.6795
3257.000000 0.6794 0.6794 0.6793 0.6793 0.6792
3252.000000 0.6792 0.6791 0.6791 0.6790 0.6790
3247.000000 0.6789 0.6789 0.6788 0.6787 0.6786
3242.000000 0.6786 0.6785 0.6785 0.6784 0.6784
3237.000000 0.6783 0.6783 0.6782 0.6782 0.6781
3232.000000 0.6780 0.6778 0.6778 0.6778 0.6778
3227.000000 0.6776 0.6776 0.6775 0.6775 0.6775
3222.000000 0.6775 0.6775 0.6775 0.6774 0.6774
3217.000000 0.6772 0.6772 0.6772 0.6772 0.6771
3212.000000 0.6771 0.6771 0.6771 0.6769 0.6769
3207.000000 0.6769 0.6769 0.6768 0.6768 0.6768
3202.000000 0.6768 0.6768 0.6768 0.6767 0.6767
3197.000000 0.6765 0.6765 0.6765 0.6765 0.6764
3192.000000 0.6764 0.6762 0.6762 0.6761 0.6761
3187.000000 0.6761 0.6761 0.6761 0.6761 0.6760
3182.000000 0.6760 0.6758 0.6758 0.6758 0.6758
3177.000000 0.6757 0.6757 0.6756 0.6755 0.6753
3172.000000 0.6751 0.6749 0.6748 0.6746 0.6745
3167.000000 0.6743 0.6742 0.6740 0.6739 0.6737
3162.000000 0.6736 0.6734 0.6732 0.6730 0.6728
3157.000000 0.6726 0.6725 0.6722 0.6721 0.6718
3152.000000 0.6715 0.6712 0.6711 0.6708 0.6705
3147.000000 0.6701 0.6700 0.6697 0.6694 0.6691
3142.000000 0.6689 0.6686 0.6684 0.6681 0.6678
3137.000000 0.6675 0.6672 0.6669 0.6667 0.6664
3132.000000 0.6661 0.6658 0.6656 0.6653 0.6650
3127.000000 0.6647 0.6644 0.6641 0.6638 0.6635
3122.000000 0.6632 0.6628 0.6625 0.6622 0.6619
3117.000000 0.6617 0.6614 0.6611 0.6608 0.6605
3112.000000 0.6601 0.6599 0.6596 0.6593 0.6590
3107.000000 0.6587 0.6584 0.6581 0.6578 0.6575
3102.000000 0.6574 0.6571 0.6569 0.6568 0.6565
3097.000000 0.6564 0.6561 0.6558 0.6557 0.6555
3092.000000 0.6553 0.6550 0.6547 0.6544 0.6542
3087.000000 0.6539 0.6536 0.6533 0.6530 0.6526
3082.000000 0.6524 0.6518 0.6514 0.6508 0.6505
3077.000000 0.6500 0.6496 0.6491 0.6486 0.6481
3072.000000 0.6476 0.6471 0.6465 0.6458 0.6451
3067.000000 0.6444 0.6437 0.6432 0.6426 0.6421
3062.000000 0.6415 0.6411 0.6406 0.6400 0.6395
3057.000000 0.6390 0.6385 0.6379 0.6374 0.6370
3052.000000 0.6367 0.6362 0.6359 0.6355 0.6351
3047.000000 0.6347 0.6343 0.6339 0.6336 0.6332
3042.000000 0.6328 0.6324 0.6320 0.6317 0.6314
3037.000000 0.6310 0.6308 0.6304 0.6301 0.6298
3032.000000 0.6295 0.6292 0.6289 0.6285 0.6282
3027.000000 0.6279 0.6277 0.6275 0.6273 0.6271
3022.000000 0.6269 0.6266 0.6264 0.6262 0.6260
3017.000000 0.6258 0.6257 0.6255 0.6253 0.6251
3012.000000 0.6250 0.6248 0.6246 0.6244 0.6243
3007.000000 0.6239 0.6236 0.6232 0.6229 0.6225
3002.000000 0.6222 0.6218 0.6214 0.6209 0.6204
2997.000000 0.6198 0.6193 0.6188 0.6183 0.6177
2992.000000 0.6172 0.6166 0.6160 0.6154 0.6148
2987.000000 0.6141 0.6135 0.6125 0.6115 0.6104
2982.000000 0.6094 0.6056 0.6018 0.5965 0.5912
2977.000000 0.5887 0.5862 0.5840 0.5819 0.5805
2972.000000 0.5792 0.5779 0.5767 0.5762 0.5757
2967.000000 0.5758 0.5769 0.5760 0.5762 0.5764
2962.000000 0.5766 0.5767 0.5768 0.5771 0.5774
2957.000000 0.5779 0.5785 0.5801 0.5817 0.5835
2952.000000 0.5853 0.5871 0.5889 0.5902 0.5915
2947.000000 0.5923 0.5932 0.5941 0.5950 0.5958
2942.000000 0.5967 0.5972 0.5978 0.5983 0.5989
2937.000000 0.5994 0.6000 0.6005 0.6010 0.6016
2932.000000 0.6021 0.6029 0.6038 0.6046 0.6055
2927.000000 0.6064 0.6073 0.6082 0.6091 0.6100
2922.000000 0.6109 0.6119 0.6129 0.6139 0.6149
2917.000000 0.6159 0.6170 0.6180 0.6190 0.6200
2912.000000 0.6210 0.6221 0.6232 0.6240 0.6248
2907.000000 0.6255 0.6262 0.6271 0.6279 0.6287
2902.000000 0.6295 0.6303 0.6310 0.6319 0.6327
2897.000000 0.6335 0.6343 0.6351 0.6359 0.6367
2892.000000 0.6375 0.6380 0.6386 0.6390 0.6395
2887.000000 0.6399 0.6404 0.6408 0.6412 0.6417
2882.000000 0.6421 0.6425 0.6431 0.6435 0.6440
2877.000000 0.6444 0.6449 0.6453 0.6458 0.6461
2872.000000 0.6465 0.6469 0.6475 0.6478 0.6483
2867.000000 0.6486 0.6489 0.6492 0.6495 0.6498
2862.000000 0.6501 0.6504 0.6508 0.6511 0.6514
2857.000000 0.6517 0.6519 0.6522 0.6525 0.6528
2852.000000 0.6532 0.6535 0.6539 0.6542 0.6545
2847.000000 0.6548 0.6551 0.6555 0.6558 0.6561
2842.000000 0.6565 0.6568 0.6572 0.6575 0.6580
2837.000000 0.6583 0.6587 0.6590 0.6594 0.6597
2832.000000 0.6601 0.6604 0.6608 0.6611 0.6615
2827.000000 0.6618 0.6622 0.6625 0.6630 0.6633
2822.000000 0.6637 0.6640 0.6644 0.6647 0.6651
2817.000000 0.6654 0.6658 0.6661 0.6667 0.6671
2812.000000 0.6676 0.6681 0.6686 0.6690 0.6695
2807.000000 0.6699 0.6704 0.6708 0.6712 0.6718
2802.000000 0.6722 0.6726 0.6732 0.6736 0.6741
2797.000000 0.6745 0.6750 0.6755 0.6760 0.6765
2792.000000 0.6769 0.6775 0.6783 0.6790 0.6797
2787.000000 0.6803 0.6810 0.6815 0.6822 0.6828
2782.000000 0.6836 0.6843 0.6850 0.6856 0.6862
2777.000000 0.6868 0.6875 0.6882 0.6889 0.6896
2772.000000 0.6903 0.6908 0.6915 0.6921 0.6928
2767.000000 0.6933 0.6939 0.6944 0.6950 0.6955
2762.000000 0.6961 0.6965 0.6971 0.6978 0.6984
2757.000000 0.6988 0.6993 0.6998 0.7003 0.7007
2752.000000 0.7011 0.7017 0.7021 0.7025 0.7031
2747.000000 0.7035 0.7040 0.7045 0.7050 0.7054
2742.000000 0.7058 0.7064 0.7068 0.7072 0.7078
2737.000000 0.7083 0.7088 0.7093 0.7098 0.7101
2732.000000 0.7107 0.7111 0.7117 0.7121 0.7126
2727.000000 0.7132 0.7137 0.7142 0.7147 0.7151
2722.000000 0.7157 0.7161 0.7165 0.7171 0.7175
2717.000000 0.7181 0.7186 0.7191 0.7197 0.7201
2712.000000 0.7207 0.7211 0.7218 0.7222 0.7228
2707.000000 0.7233 0.7238 0.7243 0.7249 0.7254
2702.000000 0.7258 0.7264 0.7269 0.7275 0.7280
2697.000000 0.7285 0.7291 0.7295 0.7300 0.7304
2692.000000 0.7308 0.7312 0.7318 0.7322 0.7328
2687.000000 0.7332 0.7337 0.7341 0.7346 0.7350
2682.000000 0.7355 0.7358 0.7364 0.7368 0.7374
2677.000000 0.7378 0.7383 0.7387 0.7392 0.7395
2672.000000 0.7399 0.7403 0.7407 0.7410 0.7414
2667.000000 0.7417 0.7421 0.7425 0.7428 0.7432
2662.000000 0.7436 0.7439 0.7443 0.7447 0.7451
2657.000000 0.7454 0.7458 0.7461 0.7464 0.7467
2652.000000 0.7471 0.7474 0.7476 0.7480 0.7484
2647.000000 0.7487 0.7490 0.7493 0.7497 0.7500
2642.000000 0.7504 0.7507 0.7510 0.7512 0.7517
2637.000000 0.7519 0.7522 0.7525 0.7530 0.7533
2632.000000 0.7536 0.7539 0.7543 0.7546 0.7549
2627.000000 0.7551 0.7556 0.7558 0.7561 0.7565
2622.000000 0.7568 0.7569 0.7572 0.7575 0.7578
2617.000000 0.7580 0.7583 0.7585 0.7588 0.7590
2612.000000 0.7593 0.7595 0.7598 0.7600 0.7603
2607.000000 0.7605 0.7608 0.7610 0.7612 0.7615
2602.000000 0.7617 0.7618 0.7621 0.7622 0.7625
2597.000000 0.7626 0.7628 0.7631 0.7633 0.7635
2592.000000 0.7637 0.7639 0.7641 0.7643 0.7645
2587.000000 0.7646 0.7648 0.7649 0.7651 0.7653
2582.000000 0.7655 0.7656 0.7658 0.7660 0.7661
2577.000000 0.7662 0.7665 0.7665 0.7668 0.7671
2572.000000 0.7674 0.7675 0.7678 0.7681 0.7684
2567.000000 0.7687 0.7690 0.7691 0.7730 0.7694
2562.000000 0.7695 0.7696 0.7698 0.7699 0.7701
2557.000000 0.7701 0.7704 0.7705 0.7707 0.7708
2552.000000 0.7708 0.7710 0.7711 0.7712 0.7715
2547.000000 0.7717 0.7718 0.7719 0.7721 0.7722
2542.000000 0.7725 0.7725 0.7728 0.7728 0.7731
2537.000000 0.7732 0.7733 0.7734 0.7735 0.7736
2532.000000 0.7737 0.7738 0.7739 0.7740 0.7741
2527.000000 0.7742 0.7743 0.7744 0.7745 0.7745
2522.000000 0.7745 0.7744 0.7744 0.7744 0.7744
2517.000000 0.7743 0.7743 0.7742 0.7741 0.7740
2512.000000 0.7740 0.7740 0.7740 0.7739 0.7739
2507.000000 0.7739 0.7739 0.7739 0.7739 0.7739
2502.000000 0.7739 0.7739 0.7739 0.7739 0.7740
2497.000000 0.7740 0.7741 0.7741 0.7741 0.7740
2492.000000 0.7739 0.7736 0.7734 0.7731 0.7728
2487.000000 0.7725 0.7721 0.7718 0.7714 0.7708
2482.000000 0.7705 0.7701 0.7697 0.7693 0.7690
2477.000000 0.7686 0.7683 0.7678 0.7675 0.7672
2472.000000 0.7671 0.7671 0.7671 0.7669 0.7668
2467.000000 0.7668 0.7668 0.7667 0.7667 0.7665
2462.000000 0.7665 0.7662 0.7661 0.7653 0.7644
2457.000000 0.7635 0.7626 0.7619 0.7614 0.7608
2452.000000 0.7601 0.7596 0.7591 0.7585 0.7580
2447.000000 0.7575 0.7571 0.7567 0.7564 0.7560
2442.000000 0.7556 0.7551 0.7546 0.7541 0.7537
2437.000000 0.7532 0.7528 0.7522 0.7518 0.7512
2432.000000 0.7508 0.7506 0.7503 0.7501 0.7499
2427.000000 0.7497 0.7495 0.7494 0.7494 0.7493
2422.000000 0.7493 0.7492 0.7492 0.7494 0.7496
2417.000000 0.7508 0.7522 0.7537 0.7551 0.7565
2412.000000 0.7580 0.7590 0.7601 0.7608 0.7617
2407.000000 0.7625 0.7634 0.7641 0.7649 0.7653
2402.000000 0.7657 0.7660 0.7664 0.7668 0.7671
2397.000000 0.7675 0.7678 0.7682 0.7686 0.7688
2392.000000 0.7691 0.7693 0.7696 0.7698 0.7701
2387.000000 0.7703 0.7705 0.7707 0.7708 0.7710
2382.000000 0.7711 0.7714 0.7715 0.7717 0.7718
2377.000000 0.7721 0.7722 0.7724 0.7725 0.7730
2372.000000 0.7734 0.7738 0.7742 0.7745 0.7749
2367.000000 0.7751 0.7756 0.7758 0.7761 0.7765
2362.000000 0.7768 0.7771 0.7774 0.7776 0.7780
2357.000000 0.7783 0.7786 0.7789 0.7792 0.7795
2352.000000 0.7798 0.7801 0.7806 0.7810 0.7814
2347.000000 0.7817 0.7821 0.7825 0.7828 0.7832
2342.000000 0.7836 0.7839 0.7843 0.7846 0.7850
2337.000000 0.7853 0.7857 0.7860 0.7864 0.7865
2332.000000 0.7868 0.7871 0.7874 0.7876 0.7880
2327.000000 0.7883 0.7886 0.7887 0.7889 0.7890
2322.000000 0.7892 0.7893 0.7893 0.7893 0.7893
2317.000000 0.7893 0.7893 0.7893 0.7893 0.7893
2312.000000 0.7894 0.7894 0.7895 0.7896 0.7897
2307.000000 0.7897 0.7898 0.7900 0.7901 0.7906
2302.000000 0.7910 0.7914 0.7918 0.7921 0.7925
2297.000000 0.7930 0.7935 0.7939 0.7943 0.7946
2292.000000 0.7950 0.7954 0.7958 0.7961 0.7965
2287.000000 0.7968 0.7972 0.7975 0.7980 0.7984
2282.000000 0.7988 0.7991 0.7995 0.7999 0.8003
2277.000000 0.8006 0.8010 0.8014 0.8018 0.8021
2272.000000 0.8025 0.8028 0.8033 0.8036 0.8040
2267.000000 0.8044 0.8048 0.8051 0.8055 0.8058
2262.000000 0.8061 0.8067 0.8072 0.8078 0.8084
2257.000000 0.8090 0.8096 0.8101 0.8108 0.8114
2252.000000 0.8121 0.8128 0.8135 0.8141 0.8148
2247.000000 0.8155 0.8161 0.8168 0.8175 0.8182
2242.000000 0.8189 0.8196 0.8203 0.8209 0.8216
2237.000000 0.8223 0.8230 0.8238 0.8246 0.8254
2232.000000 0.8262 0.8270 0.8278 0.8286 0.8294
2227.000000 0.8302 0.8310 0.8318 0.8325 0.8334
2222.000000 0.8342 0.8350 0.8358 0.8366 0.8374
2217.000000 0.8381 0.8389 0.8395 0.8402 0.8405
2212.000000 0.8409 0.8412 0.8416 0.8418 0.8423
2207.000000 0.8425 0.8430 0.8433 0.8437 0.8439
2202.000000 0.8442 0.8445 0.8448 0.8450 0.8453
2197.000000 0.8456 0.8459 0.8460 0.8461 0.8462
2192.000000 0.8463 0.8464 0.8465 0.8466 0.8467
2187.000000 0.8468 0.8468 0.8473 0.8478 0.8483
2182.000000 0.8488 0.8492 0.8497 0.8501 0.8506
2177.000000 0.8510 0.8515 0.8518 0.8524 0.8528
2172.000000 0.8533 0.8537 0.8542 0.8546 0.8550
2167.000000 0.8554 0.8559 0.8563 0.8568 0.8571
2162.000000 0.8577 0.8581 0.8586 0.8590 0.8594
2157.000000 0.8598 0.8603 0.8607 0.8612 0.8616
2152.000000 0.8621 0.8625 0.8630 0.8634 0.8638
2147.000000 0.8642 0.8647 0.8649 0.8652 0.8654
2142.000000 0.8657 0.8660 0.8663 0.8665 0.8668
2137.000000 0.8670 0.8673 0.8675 0.8678 0.8678
2132.000000 0.8681 0.8682 0.8684 0.8685 0.8687
2127.000000 0.8688 0.8690 0.8691 0.8693 0.8694
2122.000000 0.8696 0.8697 0.8698 0.8699 0.8701
2117.000000 0.8701 0.8702 0.8703 0.8704 0.8705
2112.000000 0.8706 0.8707 0.8708 0.8709 0.8711
2107.000000 0.8712 0.8714 0.8715 0.8717 0.8718
2102.000000 0.8720 0.8721 0.8723 0.8723 0.8724
2097.000000 0.8724 0.8724 0.8724 0.8725 0.8725
2092.000000 0.8725 0.8725 0.8727 0.8727 0.8728
2087.000000 0.8728 0.8728 0.8731 0.8734 0.8737
2082.000000 0.8740 0.8743 0.8746 0.8746 0.8746
2077.000000 0.8748 0.8750 0.8753 0.8756 0.8759
2072.000000 0.8763 0.8765 0.8767 0.8767 0.8767
2067.000000 0.8766 0.8762 0.8757 0.8753 0.8749
2062.000000 0.8745 0.8744 0.8744 0.8750 0.8757
2057.000000 0.8764 0.8771 0.8777 0.8784 0.8788
2052.000000 0.8793 0.8796 0.8800 0.8802 0.8805
2047.000000 0.8807 0.8809 0.8811 0.8814 0.8816
2042.000000 0.8818 0.8818 0.8821 0.8821 0.8824
2037.000000 0.8825 0.8828 0.8831 0.8833 0.8833
2032.000000 0.8834 0.8836 0.8839 0.8849 0.8860
2027.000000 0.8866 0.8871 0.8874 0.8877 0.8877
2022.000000 0.8877 0.8871 0.8867 0.8852 0.8838
2017.000000 0.8828 0.8821 0.8817 0.8813 0.8809
2012.000000 0.8805 0.8804 0.8803 0.8809 0.8816
2007.000000 0.8820 0.8825 0.8828 0.8833 0.8835
2002.000000 0.8838 0.8813 0.8788 0.8612 0.8437
1997.000000 0.8395 0.8498 0.8602 0.8706 0.8810
1992.000000 0.8825 0.8825 0.8825 0.8825 0.8827
1987.000000 0.8828 0.8828 0.8830 0.8831 0.8832
1982.000000 0.8833 0.8835 0.8836 0.8837 0.8839
1977.000000 0.8840 0.8842 0.8844 0.8846 0.8848
1972.000000 0.8850 0.8853 0.8856 0.8858 0.8858
1967.000000 0.8859 0.8860 0.8864 0.8867 0.8874
1962.000000 0.8884 0.8939 0.9067 0.9084 0.8952
1957.000000 0.8860 0.8866 0.8873 0.8880 0.8881
1952.000000 0.8883 0.8883 0.8883 0.8883 0.8882
1947.000000 0.8878 0.8875 0.8871 0.8870 0.8868
1942.000000 0.8868 0.8867 0.8866 0.8866 0.8866
1937.000000 0.8867 0.8867 0.8867 0.8868 0.8868
1932.000000 0.8868 0.8867 0.8867 0.8866 0.8866
1927.000000 0.8865 0.8864 0.8864 0.8863 0.8863
1922.000000 0.8862 0.8860 0.8858 0.8856 0.8854
1917.000000 0.8852 0.8850 0.8848 0.8846 0.8844
1912.000000 0.8842 0.8841 0.8840 0.8839 0.8838
1907.000000 0.8837 0.8836 0.8835 0.8835 0.8834
1902.000000 0.8833 0.8833 0.8834 0.8835 0.8836
1897.000000 0.8837 0.8838 0.8839 0.8840 0.8841
1892.000000 0.8842 0.8843 0.8844 0.8845 0.8846
1887.000000 0.8847 0.8847 0.8848 0.8849 0.8850
1882.000000 0.8850 0.8850 0.8849 0.8848 0.8847
1877.000000 0.8846 0.8846 0.8844 0.8841 0.8839
1872.000000 0.8837 0.8835 0.8835 0.8835 0.8836
1867.000000 0.8837 0.8838 0.8840 0.8842 0.8845
1862.000000 0.8847 0.8849 0.8854 0.8860 0.8865
1857.000000 0.8870 0.8875 0.8881 0.8886 0.8889
1852.000000 0.8889 0.8889 0.8890 0.8890 0.8891
1847.000000 0.8891 0.8891 0.8891 0.8896 0.8903
1842.000000 0.8910 0.8917 0.8921 0.8925 0.8931
1837.000000 0.8934 0.8936 0.8937 0.8939 0.8940
1832.000000 0.8940 0.8940 0.8939 0.8939 0.8939
1827.000000 0.8937 0.8935 0.8934 0.8933 0.8931
1822.000000 0.8930 0.8930 0.8938 0.8956 0.8968
1817.000000 0.8974 0.8975 0.8977 0.8977 0.8978
1812.000000 0.8978 0.8978 0.8978 0.8978 0.8978
1807.000000 0.8975 0.8975 0.8974 0.8971 0.8968
1802.000000 0.8967 0.8962 0.8957 0.8952 0.8946
1797.000000 0.8938 0.8930 0.8920 0.8909 0.8892
1792.000000 0.8868 0.8841 0.8430 0.8421 0.8492
1787.000000 0.8595 0.8698 0.8748 0.8777 0.8802
1782.000000 0.8823 0.8835 0.8842 0.8850 0.8873
1777.000000 0.8862 0.8861 0.8860 0.8859 0.8855
1772.000000 0.8841 0.8825 0.8811 0.8792 0.8774
1767.000000 0.8753 0.8730 0.8706 0.8682 0.8647
1762.000000 0.8611 0.8571 0.8528 0.8484 0.8444
1757.000000 0.8407 0.8370 0.8333 0.8297 0.8262
1752.000000 0.8228 0.8194 0.8161 0.8130 0.8101
1747.000000 0.8071 0.8048 0.8022 0.7998 0.7975
1742.000000 0.7956 0.7941 0.7935 0.7931 0.7921
1737.000000 0.7926 0.7931 0.7935 0.7939 0.7943
1732.000000 0.7947 0.7951 0.7960 0.7967 0.7975
1727.000000 0.7982 0.7989 0.7996 0.8003 0.8008
1722.000000 0.8015 0.8021 0.8026 0.8031 0.8035
1717.000000 0.8037 0.8040 0.8042 0.8044 0.8047
1712.000000 0.8050 0.8050 0.8049 0.8044 0.8040
1707.000000 0.8032 0.8021 0.8008 0.7995 0.7982
1702.000000 0.7971 0.7961 0.7947 0.7919 0.7887
1697.000000 0.7844 0.7799 0.7753 0.7708 0.7661
1692.000000 0.7615 0.7575 0.7540 0.7503 0.7467
1687.000000 0.7422 0.7371 0.7321 0.7271 0.7188
1682.000000 0.7098 0.6995 0.6892 0.6734 0.6571
1677.000000 0.6436 0.6323 0.6259 0.6196 0.6132
1672.000000 0.6066 0.5996 0.5925 0.5816 0.5714
1667.000000 0.5655 0.5597 0.5538 0.5471 0.5380
1662.000000 0.5289 0.5210 0.5140 0.5069 0.5000
1657.000000 0.4937 0.4875 0.4812 0.4742 0.4673
1652.000000 0.4603 0.4533 0.4462 0.4391 0.4327
1647.000000 0.4280 0.4234 0.4187 0.4140 0.4093
1642.000000 0.4021 0.3941 0.3860 0.3746 0.3625
1637.000000 0.3504 0.3384 0.3262 0.3133 0.3009
1632.000000 0.2898 0.2759 0.2607 0.2462 0.2316
1627.000000 0.2171 0.2026 0.1881 0.1735 0.1590
1622.000000 0.1445 0.1300 0.1155 0.1009 0.0920
1617.000000 0.0856 0.0784 0.0715 0.0668 0.0626
1612.000000 0.0591 0.0556 0.0528 0.0501 0.0473
1607.000000 0.0450 0.0434 0.0421 0.0414 0.0406
1602.000000 0.0408 0.0398 0.0403 0.0409 0.0425
1597.000000 0.0443 0.0469 0.0499 0.0550 0.0608
1592.000000 0.0689 0.0764 0.0822 0.0883 0.0945
1587.000000 0.1000 0.1051 0.1096 0.1140 0.1184
1582.000000 0.1221 0.1256 0.1286 0.1314 0.1339
1577.000000 0.1363 0.1376 0.1385 0.1399 0.1410
1572.000000 0.1420 0.1430 0.1455 0.1514 0.1626
1567.000000 0.1806 0.1928 0.2062 0.2245 0.2384
1562.000000 0.2489 0.2596 0.2718 0.2901 0.3214
1557.000000 0.3372 0.3466 0.3560 0.3908 0.4004
1552.000000 0.4100 0.4154 0.4205 0.4255 0.4394
1547.000000 0.4645 0.4760 0.4864 0.4952 0.5079
1542.000000 0.5253 0.5328 0.5403 0.5479 0.5554
1537.000000 0.5598 0.5642 0.5687 0.5731 0.5776
1532.000000 0.5822 0.5871 0.5920 0.5969 0.6023
1527.000000 0.6082 0.6140 0.6183 0.6221 0.6258
1522.000000 0.6295 0.6329 0.6360 0.6393 0.6425
1517.000000 0.6451 0.6475 0.6501 0.6521 0.6537
1512.000000 0.6551 0.6565 0.6578 0.6594 0.6603
1507.000000 0.6612 0.6621 0.6631 0.6641 0.6644
1502.000000 0.6646 0.6648 0.6650 0.6651 0.6653
1497.000000 0.6654 0.6655 0.6655 0.6654 0.6651
1492.000000 0.6647 0.6630 0.6611 0.6588 0.6558
1487.000000 0.6530 0.6478 0.6421 0.6323 0.6200
1482.000000 0.6045 0.5891 0.5736 0.5581 0.5475
1477.000000 0.5464 0.5460 0.5460 0.5562 0.5667
1472.000000 0.5676 0.5670 0.5641 0.5522 0.5451
1467.000000 0.5365 0.5207 0.5151 0.5107 0.5047
1462.000000 0.4814 0.4580 0.4347 0.4138 0.4020
1457.000000 0.3898 0.3764 0.3646 0.3616 0.3605
1452.000000 0.3593 0.3494 0.3336 0.3178 0.3164
1447.000000 0.3161 0.3227 0.3491 0.3747 0.3857
1442.000000 0.3949 0.4018 0.4084 0.4124 0.4123
1437.000000 0.4122 0.4068 0.3977 0.3538 0.3245
1432.000000 0.2952 0.2695 0.2397 0.2292 0.2267
1427.000000 0.2267 0.2266 0.2302 0.2355 0.2415
1422.000000 0.2441 0.2456 0.2458 0.2444 0.2016
1417.000000 0.1909 0.1849 0.1795 0.1768 0.1740
1412.000000 0.1716 0.1701 0.1693 0.1687 0.1685
1407.000000 0.1682 0.1677 0.1671 0.1663 0.1649
1402.000000 0.1608 0.1561 0.1492 0.1445 0.1412
1397.000000 0.1383 0.1342 0.1299 0.1261 0.1228
1392.000000 0.1195 0.1165 0.1142 0.1120 0.1098
1387.000000 0.1080 0.1062 0.1044 0.1025 0.1007
1382.000000 0.0991 0.0974 0.0957 0.0942 0.0929
1377.000000 0.0915 0.0882 0.0909 0.0908 0.0907
1372.000000 0.0912 0.0989 0.1054 0.1098 0.1114
1367.000000 0.1131 0.1149 0.1163 0.1215 0.1292
1362.000000 0.1362 0.1423 0.1478 0.1532 0.1580
1357.000000 0.1616 0.1644 0.1672 0.1706 0.1783
1352.000000 0.1844 0.1890 0.1972 0.2059 0.2138
1347.000000 0.2180 0.2190 0.2198 0.2202 0.2131
1342.000000 0.2039 0.1945 0.1854 0.1809 0.1823
1337.000000 0.1866 0.1925 0.1989 0.2052 0.2113
1332.000000 0.2161 0.2175 0.2174 0.2174 0.2164
1327.000000 0.2154 0.2144 0.2134 0.2124 0.2121
1322.000000 0.2118 0.2117 0.2139 0.2177 0.2225
1317.000000 0.2253 0.2279 0.2287 0.2290 0.2301
1312.000000 0.2316 0.2334 0.2367 0.2400 0.2449
1307.000000 0.2502 0.2560 0.2622 0.2692 0.2777
1302.000000 0.2939 0.3089 0.3250 0.3412 0.3541
1297.000000 0.3703 0.3809 0.3918 0.4025 0.4133
1292.000000 0.4240 0.4348 0.4455 0.4562 0.4670
1287.000000 0.4778 0.4885 0.4954 0.4977 0.4991
1282.000000 0.4996 0.5001 0.5107 0.5160 0.5188
1277.000000 0.5198 0.5201 0.5187 0.5066 0.4945
1272.000000 0.4858 0.4858 0.4857 0.4967 0.5080
1267.000000 0.5134 0.5148 0.5144 0.5075 0.5001
1262.000000 0.4927 0.4880 0.4865 0.4870 0.4856
1257.000000 0.4860 0.4873 0.4901 0.4960 0.5543
1252.000000 0.5955 0.6090 0.6176 0.6236 0.6297
1247.000000 0.6338 0.6375 0.6411 0.6450 0.6488
1242.000000 0.6525 0.6578 0.6625 0.6664 0.6705
1237.000000 0.6736 0.6782 0.6749 0.6747 0.6732
1232.000000 0.6701 0.6354 0.6299 0.6272 0.6287
1227.000000 0.6302 0.6406 0.6521 0.6637 0.6751
1222.000000 0.6867 0.6983 0.7098 0.7212 0.7328
1217.000000 0.7444 0.7515 0.7543 0.7571 0.7600
1212.000000 0.7621 0.7644 0.7665 0.7687 0.7703
1207.000000 0.7719 0.7739 0.7761 0.7785 0.7808
1202.000000 0.7837 0.7865 0.7895 0.7921 0.7943
1197.000000 0.7965 0.7989 0.8012 0.8037 0.8058
1192.000000 0.8078 0.8100 0.8121 0.8141 0.8161
1187.000000 0.8184 0.8209 0.8228 0.8246 0.8260
1182.000000 0.8268 0.8278 0.8250 0.8169 0.8115
1177.000000 0.8100 0.8098 0.8126 0.8178 0.8227
1172.000000 0.8258 0.8282 0.8306 0.8321 0.8346
1167.000000 0.8382 0.8467 0.8524 0.8571 0.8617
1162.000000 0.8633 0.8636 0.8640 0.8616 0.8575
1157.000000 0.8539 0.8535 0.8536 0.8536 0.8539
1152.000000 0.8542 0.8552 0.8563 0.8575 0.8586
1147.000000 0.8598 0.8610 0.8621 0.8630 0.8637
1142.000000 0.8627 0.8618 0.8611 0.8607 0.8621
1137.000000 0.8648 0.8691 0.8733 0.8752 0.8767
1132.000000 0.8777 0.8787 0.8798 0.8811 0.8832
1127.000000 0.8808 0.8801 0.8782 0.8757 0.8725
1122.000000 0.8691 0.8627 0.8530 0.8153 0.8025
1117.000000 0.7945 0.7922 0.7918 0.7937 0.7983
1112.000000 0.8033 0.8087 0.8128 0.8134 0.8135
1107.000000 0.8101 0.8042 0.7971 0.7888 0.7775
1102.000000 0.7600 0.7422 0.7345 0.7295 0.7236
1097.000000 0.7192 0.7151 0.7081 0.6733 0.6098
1092.000000 0.6002 0.6018 0.6045 0.6465 0.6771
1087.000000 0.7078 0.7384 0.7690 0.8084 0.8169
1082.000000 0.8245 0.8308 0.8366 0.8408 0.8445
1077.000000 0.8475 0.8484 0.8491 0.8498 0.8513
1072.000000 0.8563 0.8621 0.8652 0.8681 0.8706
1067.000000 0.8728 0.8741 0.8745 0.8745 0.8727
1062.000000 0.8742 0.8734 0.8716 0.8689 0.8656
1057.000000 0.8603 0.8549 0.8487 0.8421 0.8354
1052.000000 0.8281 0.8216 0.8153 0.8081 0.8053
1047.000000 0.8053 0.8053 0.8053 0.8054 0.8054
1042.000000 0.7978 0.7655 0.7331 0.7008 0.6831
1037.000000 0.6834 0.6824 0.6867 0.7450 0.7594
1032.000000 0.7682 0.7765 0.7858 0.7931 0.7971
1027.000000 0.8012 0.8053 0.8096 0.8140 0.8180
1022.000000 0.8218 0.8250 0.8280 0.8306 0.8321
1017.000000 0.8345 0.8325 0.8321 0.8292 0.8068
1012.000000 0.7835 0.7601 0.7368 0.7130 0.7138
1007.000000 0.7196 0.7400 0.7585 0.7718 0.7776
1002.000000 0.7826 0.7861 0.7897 0.7930 0.7939
997.000000 0.7939 0.7940 0.7941 0.7951 0.8000
992.000000 0.8081 0.8150 0.8192 0.8218 0.8228
987.000000 0.8227 0.8225 0.8185 0.8007 0.7661
982.000000 0.7308 0.7099 0.7088 0.7078 0.7080
977.000000 0.7104 0.7208 0.7280 0.7348 0.7411
972.000000 0.7476 0.7512 0.7528 0.7534 0.7542
967.000000 0.7550 0.7561 0.7601 0.7811 0.7922
962.000000 0.7995 0.8058 0.8111 0.8143 0.8171
957.000000 0.8194 0.8212 0.8228 0.8262 0.8236
952.000000 0.8236 0.8227 0.8171 0.8047 0.7861
947.000000 0.7630 0.7398 0.7165 0.6933 0.6701
942.000000 0.6468 0.6236 0.6004 0.5772 0.5578
937.000000 0.5605 0.5643 0.5766 0.5889 0.6012
932.000000 0.6135 0.6193 0.6198 0.6038 0.5850
927.000000 0.5701 0.5702 0.5702 0.5914 0.6149
922.000000 0.6384 0.6618 0.6845 0.7004 0.7135
917.000000 0.7258 0.7390 0.7511 0.7590 0.7667
912.000000 0.7732 0.7765 0.7799 0.7822 0.7846
907.000000 0.7868 0.7888 0.7906 0.7924 0.7941
902.000000 0.7954 0.7965 0.7975 0.7986 0.7993
897.000000 0.8004 0.8000 0.7995 0.7971 0.7921
892.000000 0.7786 0.7597 0.7408 0.7221 0.7045
887.000000 0.7008 0.6983 0.6950 0.6965 0.6987
882.000000 0.7093 0.7328 0.7505 0.7603 0.7712
877.000000 0.7794 0.7838 0.7876 0.7914 0.7944
872.000000 0.7964 0.7984 0.8003 0.8018 0.8035
867.000000 0.8058 0.8080 0.8107 0.8140 0.8174
862.000000 0.8212 0.8254 0.8294 0.8328 0.8364
857.000000 0.8395 0.8418 0.8443 0.8462 0.8477
852.000000 0.8491 0.8503 0.8512 0.8521 0.8515
847.000000 0.8515 0.8515 0.8511 0.8506 0.8491
842.000000 0.8471 0.8445 0.8409 0.8343 0.8225
837.000000 0.7001 0.5612 0.6131 0.6848 0.7190
832.000000 0.7212 0.7236 0.7255 0.7267 0.7276
827.000000 0.7295 0.7324 0.7558 0.8006 0.8141
822.000000 0.8238 0.8314 0.8390 0.8438 0.8482
817.000000 0.8524 0.8543 0.8562 0.8581 0.8594
812.000000 0.8607 0.8618 0.8632 0.8644 0.8656
807.000000 0.8666 0.8674 0.8682 0.8691 0.8699
802.000000 0.8703 0.8706 0.8709 0.8712 0.8714
797.000000 0.8716 0.8718 0.8721 0.8723 0.8723
792.000000 0.8723 0.8725 0.8725 0.8724 0.8721
787.000000 0.8718 0.8716 0.8710 0.8699 0.8689
782.000000 0.8678 0.8668 0.8658 0.8645 0.8631
777.000000 0.8617 0.8603 0.8590 0.8575 0.8558
772.000000 0.8538 0.8518 0.8498 0.8478 0.8453
767.000000 0.8425 0.8399 0.8373 0.8346 0.8320
762.000000 0.8293 0.8267 0.8221 0.8171 0.8117
757.000000 0.7991 0.7871 0.7760 0.7644 0.7528
752.000000 0.7387 0.7211 0.7040 0.6935 0.6687
747.000000 0.6400 0.6112 0.5826 0.5539 0.5252
742.000000 0.5143 0.5123 0.5125 0.5106 0.5110
737.000000 0.5217 0.5346 0.5462 0.5577 0.5701
732.000000 0.5770 0.5832 0.5891 0.5943 0.5996
727.000000 0.6055 0.6110 0.6156 0.6201 0.6265
722.000000 0.6369 0.6507 0.6628 0.6767 0.6881
717.000000 0.6971 0.7071 0.7181 0.7301 0.7435
712.000000 0.7547 0.7655 0.7767 0.7897 0.7980
707.000000 0.8038 0.8086 0.8121 0.8158 0.8194
702.000000 0.8224 0.8254 0.8283 0.8303 0.8323
697.000000 0.8344 0.8359 0.8374 0.8388 0.8400
692.000000 0.8407 0.8413 0.8417 0.8418 0.8421
687.000000 0.8421 0.8425 0.8425 0.8425 0.8424
682.000000 0.8421 0.8418 0.8414 0.8406 0.8396
677.000000 0.8368 0.8296 0.8224 0.8151 0.8078
672.000000 0.8007 0.7935 0.7861 0.7818 0.7771
667.000000 0.7707 0.7611 0.7546 0.7492 0.7448
662.000000 0.7406 0.7439 0.7471 0.7507 0.7562
657.000000 0.7618 0.7671 0.7710 0.7747 0.7784
652.000000 0.7821 0.7855 0.7888 0.7921 0.7954
647.000000 0.7988 0.8022 0.8046 0.8068 0.8083
642.000000 0.8095 0.8104 0.8117 0.8118 0.8118
637.000000 0.8117 0.8101 0.8068 0.8008 0.7925
632.000000 0.7847 0.7769 0.7692 0.7614 0.7537
627.000000 0.7458 0.7415 0.7387 0.7441 0.7540
622.000000 0.7639 0.7738 0.7837 0.7935 0.8032
617.000000 0.8061 0.8086 0.8104 0.8111 0.8121
612.000000 0.8122 0.8128 0.8131 0.8124 0.8115
607.000000 0.8096 0.8075 0.8035 0.7989 0.7890
602.000000 0.7747 0.7594 0.7549 0.7531 0.7521
597.000000 0.7518 0.7526 0.7556 0.7611 0.7651
592.000000 0.7684 0.7711 0.7738 0.7758 0.7765
587.000000 0.7765 0.7760 0.7701 0.7608 0.7514
582.000000 0.7419 0.7325 0.7232 0.7138 0.7045
577.000000 0.6951 0.6857 0.6762 0.6715 0.6693
572.000000 0.6694 0.6694 0.6760 0.6831 0.6885
567.000000 0.6905 0.6915 0.6914 0.6724 0.6433
562.000000 0.6386 0.6394 0.6403 0.6457 0.6572
557.000000 0.6734 0.6912 0.7051 0.7160 0.7278
552.000000 0.7358 0.7426 0.7478 0.7503 0.7526
547.000000 0.7551 0.7572 0.7594 0.7608 0.7619
542.000000 0.7631 0.7638 0.7643 0.7650 0.7649
537.000000 0.7647 0.7646 0.7625 0.7592 0.7539
532.000000 0.7486 0.7415 0.7346 0.7294 0.7269
527.000000 0.7246 0.7224 0.7210 0.7199 0.7194
522.000000 0.7193 0.7192 0.7215 0.7248 0.7294
517.000000 0.7345 0.7397 0.7447 0.7482 0.7515
512.000000 0.7546 0.7574 0.7597 0.7610 0.7619
507.000000 0.7640 0.7630 0.7626 0.7615 0.7605
502.000000 0.7593 0.7561 0.7530 0.7498 0.7465
497.000000 0.7430 0.7391 0.7353 0.7315 0.7268
492.000000 0.7218 0.7167 0.7128 0.7092 0.7075
487.000000 0.7064 0.7051 0.7042 0.7031 0.7021
482.000000 0.7004 0.6987 0.6968 0.6951 0.6935
477.000000 0.6924 0.6911 0.6900 0.6899 0.6899
472.000000 0.6899 0.6906 0.6914 0.6921 0.6930
467.000000 0.6938 0.6946 0.6954 0.6965 0.6980
462.000000 0.6993 0.7007 0.7019 0.7039 0.7061
##END=
