##TITLE=CYCLIZINE HYDROCHLORIDE
##JCAMP-DX=4.24
$$ By DXEDIT 1.05 (RS McDonald)
##DATA TYPE=INFRARED SPECTRUM
##CLASS=COBLENTZ III
##OWNER=COBLENTZ SOC.
Collection (C) 2018 copyright by the U.S. Secretary of Commerce
on behalf of the United States of America. All rights reserved.
##DATE=1961/05/22
##NAMES=1-benzhydryl-4-methylpiperazine hydrochloride
1-DIPHENYLMETHYL-4-METHYLPIPERAZINE HYDROCHLORIDE
##MOLFORM=C18 H23 Cl N2
##SOURCE REFERENCE=COBLENTZ NO. 05112
##$NIST ID=B6005112
##$NIST SOURCE=COBLENTZ
##$NIST IMAGE=cob5112
##SPECTROMETER/DATA SYSTEM=PERKIN-ELMER 21 (GRATING)
##INSTRUMENT PARAMETERS=FILTER AT ABOUT 10 MICRONS
##STATE=SOLID (1 mg / 200 mg KCl DISC) VS KCl
##PATH LENGTH=0.055 CM (THICKNESS)
$$ SPECTRAL FEATURE AT 1002 CM^-^1 IS AN ARTIFACT CAUSED BY FILTER CHANGE
##SAMPLING PROCEDURE=TRANSMISSION
##RESOLUTION=2
##DATA PROCESSING=DIGITIZED BY COBLENTZ SOCIETY (BATCH I) FROM HARD COPY
##XUNITS=1/CM
##YUNITS=TRANSMITTANCE
##XLABEL=Wavenumbers (cm-1)
##YLABEL=Transmittance
##XFACTOR=1
##YFACTOR=1
##DELTAX=1
##FIRSTX=4000
##LASTX=652
##FIRSTY=0.6173
##MAXX=4000
##MINX=652
##MAXY=0.9568
##MINY=0.0739
##NPOINTS=3349
##XYDATA=(X++(Y..Y))
4000.000000 0.6173 0.6173 0.6174 0.6174 0.6175
3995.000000 0.6176 0.6176 0.6177 0.6179 0.6181
3990.000000 0.6182 0.6184 0.6185 0.6187 0.6189
3985.000000 0.6190 0.6192 0.6194 0.6196 0.6197
3980.000000 0.6199 0.6200 0.6202 0.6204 0.6205
3975.000000 0.6207 0.6208 0.6210 0.6212 0.6214
3970.000000 0.6215 0.6217 0.6219 0.6221 0.6222
3965.000000 0.6224 0.6226 0.6228 0.6229 0.6232
3960.000000 0.6234 0.6237 0.6239 0.6241 0.6244
3955.000000 0.6247 0.6250 0.6254 0.6257 0.6260
3950.000000 0.6264 0.6267 0.6270 0.6274 0.6277
3945.000000 0.6280 0.6284 0.6287 0.6290 0.6294
3940.000000 0.6297 0.6300 0.6303 0.6307 0.6310
3935.000000 0.6312 0.6317 0.6320 0.6323 0.6327
3930.000000 0.6330 0.6334 0.6337 0.6340 0.6344
3925.000000 0.6347 0.6351 0.6354 0.6358 0.6360
3920.000000 0.6364 0.6368 0.6371 0.6374 0.6378
3915.000000 0.6381 0.6384 0.6387 0.6390 0.6393
3910.000000 0.6395 0.6398 0.6400 0.6403 0.6405
3905.000000 0.6407 0.6408 0.6411 0.6414 0.6415
3900.000000 0.6418 0.6419 0.6421 0.6424 0.6425
3895.000000 0.6428 0.6430 0.6432 0.6434 0.6436
3890.000000 0.6438 0.6440 0.6443 0.6445 0.6447
3885.000000 0.6449 0.6450 0.6451 0.6454 0.6457
3880.000000 0.6458 0.6461 0.6462 0.6465 0.6467
3875.000000 0.6469 0.6471 0.6474 0.6475 0.6478
3870.000000 0.6480 0.6482 0.6484 0.6486 0.6488
3865.000000 0.6490 0.6492 0.6495 0.6497 0.6499
3860.000000 0.6501 0.6503 0.6506 0.6508 0.6510
3855.000000 0.6511 0.6514 0.6515 0.6518 0.6521
3850.000000 0.6521 0.6524 0.6525 0.6528 0.6530
3845.000000 0.6531 0.6533 0.6535 0.6537 0.6538
3840.000000 0.6540 0.6542 0.6544 0.6546 0.6547
3835.000000 0.6549 0.6551 0.6553 0.6555 0.6556
3830.000000 0.6558 0.6560 0.6561 0.6562 0.6565
3825.000000 0.6565 0.6568 0.6569 0.6571 0.6574
3820.000000 0.6575 0.6576 0.6578 0.6581 0.6583
3815.000000 0.6585 0.6586 0.6588 0.6590 0.6591
3810.000000 0.6593 0.6595 0.6597 0.6599 0.6601
3805.000000 0.6603 0.6605 0.6606 0.6608 0.6610
3800.000000 0.6611 0.6612 0.6615 0.6617 0.6618
3795.000000 0.6621 0.6622 0.6625 0.6625 0.6628
3790.000000 0.6630 0.6632 0.6633 0.6635 0.6637
3785.000000 0.6639 0.6640 0.6642 0.6644 0.6645
3780.000000 0.6647 0.6648 0.6650 0.6651 0.6653
3775.000000 0.6654 0.6655 0.6657 0.6658 0.6658
3770.000000 0.6661 0.6661 0.6662 0.6665 0.6665
3765.000000 0.6668 0.6668 0.6669 0.6671 0.6672
3760.000000 0.6675 0.6675 0.6676 0.6678 0.6680
3755.000000 0.6681 0.6682 0.6684 0.6685 0.6686
3750.000000 0.6688 0.6689 0.6691 0.6692 0.6694
3745.000000 0.6695 0.6696 0.6698 0.6699 0.6701
3740.000000 0.6701 0.6704 0.6705 0.6706 0.6708
3735.000000 0.6708 0.6710 0.6711 0.6712 0.6714
3730.000000 0.6715 0.6717 0.6718 0.6719 0.6721
3725.000000 0.6722 0.6724 0.6725 0.6726 0.6728
3720.000000 0.6730 0.6731 0.6733 0.6734 0.6736
3715.000000 0.6737 0.6739 0.6740 0.6741 0.6743
3710.000000 0.6744 0.6746 0.6747 0.6749 0.6750
3705.000000 0.6751 0.6753 0.6755 0.6756 0.6758
3700.000000 0.6760 0.6761 0.6762 0.6764 0.6765
3695.000000 0.6767 0.6768 0.6769 0.6771 0.6772
3690.000000 0.6775 0.6775 0.6776 0.6778 0.6780
3685.000000 0.6782 0.6783 0.6785 0.6786 0.6788
3680.000000 0.6789 0.6790 0.6792 0.6793 0.6794
3675.000000 0.6795 0.6796 0.6797 0.6798 0.6799
3670.000000 0.6799 0.6800 0.6801 0.6801 0.6801
3665.000000 0.6803 0.6804 0.6805 0.6806 0.6807
3660.000000 0.6808 0.6808 0.6810 0.6811 0.6811
3655.000000 0.6811 0.6812 0.6814 0.6815 0.6815
3650.000000 0.6817 0.6818 0.6819 0.6821 0.6821
3645.000000 0.6824 0.6825 0.6826 0.6828 0.6830
3640.000000 0.6832 0.6834 0.6835 0.6837 0.6838
3635.000000 0.6840 0.6841 0.6843 0.6844 0.6846
3630.000000 0.6848 0.6850 0.6851 0.6853 0.6854
3625.000000 0.6856 0.6857 0.6858 0.6861 0.6861
3620.000000 0.6864 0.6865 0.6867 0.6868 0.6869
3615.000000 0.6871 0.6874 0.6875 0.6876 0.6878
3610.000000 0.6880 0.6882 0.6884 0.6885 0.6887
3605.000000 0.6888 0.6890 0.6891 0.6893 0.6895
3600.000000 0.6897 0.6898 0.6900 0.6901 0.6903
3595.000000 0.6905 0.6906 0.6908 0.6908 0.6911
3590.000000 0.6912 0.6915 0.6915 0.6918 0.6919
3585.000000 0.6921 0.6922 0.6925 0.6926 0.6928
3580.000000 0.6928 0.6931 0.6932 0.6933 0.6934
3575.000000 0.6935 0.6935 0.6936 0.6937 0.6938
3570.000000 0.6939 0.6939 0.6940 0.6941 0.6942
3565.000000 0.6943 0.6943 0.6944 0.6945 0.6946
3560.000000 0.6947 0.6948 0.6949 0.6950 0.6951
3555.000000 0.6951 0.6951 0.6953 0.6954 0.6955
3550.000000 0.6955 0.6956 0.6956 0.6957 0.6958
3545.000000 0.6958 0.6958 0.6958 0.6958 0.6958
3540.000000 0.6958 0.6958 0.6958 0.6958 0.6958
3535.000000 0.6958 0.6958 0.6958 0.6958 0.6958
3530.000000 0.6958 0.6958 0.6958 0.6958 0.6958
3525.000000 0.6958 0.6958 0.6958 0.6958 0.6958
3520.000000 0.6958 0.6958 0.6958 0.6958 0.6958
3515.000000 0.6958 0.6958 0.6958 0.6958 0.6960
3510.000000 0.6960 0.6960 0.6960 0.6960 0.6960
3505.000000 0.6960 0.6960 0.6960 0.6960 0.6960
3500.000000 0.6960 0.6960 0.6960 0.6960 0.6961
3495.000000 0.6961 0.6961 0.6961 0.6961 0.6961
3490.000000 0.6961 0.6961 0.6961 0.6961 0.6961
3485.000000 0.6961 0.6961 0.6961 0.6961 0.6962
3480.000000 0.6962 0.6962 0.6962 0.6964 0.6964
3475.000000 0.6964 0.6964 0.6964 0.6964 0.6964
3470.000000 0.6964 0.6964 0.6964 0.6965 0.6965
3465.000000 0.6965 0.6965 0.6965 0.6965 0.6965
3460.000000 0.6965 0.6965 0.6965 0.6967 0.6967
3455.000000 0.6967 0.6967 0.6967 0.6967 0.6967
3450.000000 0.6967 0.6967 0.6968 0.6968 0.6968
3445.000000 0.6968 0.6968 0.6968 0.6968 0.6968
3440.000000 0.6968 0.6968 0.6968 0.6968 0.6968
3435.000000 0.6968 0.6968 0.6968 0.6968 0.6968
3430.000000 0.6968 0.6968 0.6968 0.6968 0.6968
3425.000000 0.6968 0.6968 0.6968 0.6968 0.6968
3420.000000 0.6968 0.6967 0.6967 0.6967 0.6967
3415.000000 0.6967 0.6967 0.6967 0.6967 0.6967
3410.000000 0.6968 0.6968 0.6968 0.6968 0.6968
3405.000000 0.6968 0.6968 0.6968 0.6968 0.6968
3400.000000 0.6968 0.6968 0.6968 0.6968 0.6968
3395.000000 0.6968 0.6968 0.6968 0.6969 0.6971
3390.000000 0.6974 0.6975 0.6978 0.6980 0.6982
3385.000000 0.6984 0.6986 0.6988 0.6991 0.6993
3380.000000 0.6995 0.6997 0.6999 0.7001 0.7004
3375.000000 0.7006 0.7008 0.7010 0.7012 0.7015
3370.000000 0.7018 0.7019 0.7021 0.7025 0.7026
3365.000000 0.7028 0.7031 0.7033 0.7036 0.7038
3360.000000 0.7040 0.7042 0.7044 0.7047 0.7049
3355.000000 0.7051 0.7053 0.7056 0.7058 0.7060
3350.000000 0.7061 0.7065 0.7067 0.7069 0.7071
3345.000000 0.7074 0.7076 0.7078 0.7081 0.7084
3340.000000 0.7087 0.7090 0.7093 0.7096 0.7099
3335.000000 0.7101 0.7105 0.7108 0.7111 0.7115
3330.000000 0.7118 0.7121 0.7124 0.7126 0.7131
3325.000000 0.7134 0.7137 0.7140 0.7144 0.7147
3320.000000 0.7151 0.7154 0.7157 0.7160 0.7162
3315.000000 0.7167 0.7169 0.7172 0.7175 0.7178
3310.000000 0.7183 0.7186 0.7189 0.7192 0.7195
3305.000000 0.7199 0.7201 0.7205 0.7208 0.7211
3300.000000 0.7214 0.7217 0.7219 0.7222 0.7225
3295.000000 0.7228 0.7232 0.7235 0.7238 0.7241
3290.000000 0.7244 0.7247 0.7250 0.7253 0.7256
3285.000000 0.7258 0.7261 0.7265 0.7268 0.7271
3280.000000 0.7274 0.7276 0.7280 0.7283 0.7286
3275.000000 0.7289 0.7292 0.7295 0.7298 0.7301
3270.000000 0.7304 0.7307 0.7310 0.7312 0.7317
3265.000000 0.7319 0.7322 0.7325 0.7328 0.7332
3260.000000 0.7335 0.7338 0.7341 0.7343 0.7346
3255.000000 0.7349 0.7351 0.7355 0.7358 0.7360
3250.000000 0.7362 0.7365 0.7368 0.7371 0.7375
3245.000000 0.7376 0.7380 0.7383 0.7386 0.7389
3240.000000 0.7391 0.7394 0.7396 0.7399 0.7401
3235.000000 0.7405 0.7408 0.7411 0.7414 0.7417
3230.000000 0.7418 0.7421 0.7425 0.7428 0.7431
3225.000000 0.7434 0.7436 0.7439 0.7442 0.7444
3220.000000 0.7447 0.7450 0.7453 0.7456 0.7458
3215.000000 0.7461 0.7465 0.7468 0.7469 0.7472
3210.000000 0.7475 0.7478 0.7482 0.7485 0.7488
3205.000000 0.7491 0.7494 0.7497 0.7500 0.7503
3200.000000 0.7506 0.7508 0.7511 0.7514 0.7517
3195.000000 0.7518 0.7521 0.7524 0.7525 0.7528
3190.000000 0.7530 0.7532 0.7534 0.7536 0.7539
3185.000000 0.7541 0.7543 0.7545 0.7548 0.7550
3180.000000 0.7551 0.7554 0.7556 0.7558 0.7561
3175.000000 0.7564 0.7565 0.7568 0.7571 0.7572
3170.000000 0.7575 0.7578 0.7580 0.7582 0.7584
3165.000000 0.7586 0.7587 0.7589 0.7590 0.7592
3160.000000 0.7593 0.7595 0.7596 0.7598 0.7599
3155.000000 0.7599 0.7600 0.7600 0.7601 0.7601
3150.000000 0.7601 0.7601 0.7601 0.7601 0.7601
3145.000000 0.7601 0.7603 0.7603 0.7603 0.7603
3140.000000 0.7603 0.7603 0.7603 0.7603 0.7603
3135.000000 0.7603 0.7603 0.7601 0.7601 0.7601
3130.000000 0.7600 0.7600 0.7598 0.7596 0.7594
3125.000000 0.7592 0.7590 0.7588 0.7586 0.7584
3120.000000 0.7581 0.7578 0.7575 0.7572 0.7569
3115.000000 0.7567 0.7564 0.7560 0.7557 0.7554
3110.000000 0.7551 0.7548 0.7545 0.7542 0.7539
3105.000000 0.7534 0.7528 0.7521 0.7515 0.7508
3100.000000 0.7501 0.7496 0.7489 0.7482 0.7475
3095.000000 0.7468 0.7461 0.7453 0.7444 0.7435
3090.000000 0.7425 0.7415 0.7406 0.7396 0.7386
3085.000000 0.7374 0.7362 0.7351 0.7336 0.7317
3080.000000 0.7298 0.7278 0.7247 0.7211 0.7176
3075.000000 0.7142 0.7103 0.7064 0.7025 0.6987
3070.000000 0.6948 0.6908 0.6869 0.6831 0.6792
3065.000000 0.6753 0.6714 0.6681 0.6650 0.6618
3060.000000 0.6558 0.6587 0.6587 0.6587 0.6586
3055.000000 0.6586 0.6586 0.6586 0.6586 0.6586
3050.000000 0.6586 0.6586 0.6594 0.6604 0.6615
3045.000000 0.6625 0.6641 0.6656 0.6671 0.6686
3040.000000 0.6701 0.6715 0.6731 0.6747 0.6761
3035.000000 0.6776 0.6792 0.6807 0.6822 0.6838
3030.000000 0.6853 0.6868 0.6884 0.6900 0.6915
3025.000000 0.6931 0.6946 0.6961 0.6975 0.6992
3020.000000 0.7007 0.7021 0.7038 0.7053 0.7068
3015.000000 0.7081 0.7092 0.7101 0.7112 0.7115
3010.000000 0.7115 0.7118 0.7119 0.7121 0.7121
3005.000000 0.7121 0.7121 0.7121 0.7121 0.7118
3000.000000 0.7098 0.7078 0.7058 0.7030 0.6995
2995.000000 0.6960 0.6925 0.6890 0.6855 0.6819
2990.000000 0.6785 0.6750 0.6715 0.6680 0.6645
2985.000000 0.6610 0.6575 0.6540 0.6505 0.6469
2980.000000 0.6435 0.6404 0.6375 0.6345 0.6321
2975.000000 0.6321 0.6321 0.6310 0.6325 0.6331
2970.000000 0.6337 0.6344 0.6359 0.6374 0.6389
2965.000000 0.6403 0.6418 0.6433 0.6448 0.6462
2960.000000 0.6478 0.6493 0.6508 0.6522 0.6538
2955.000000 0.6551 0.6558 0.6565 0.6571 0.6575
2950.000000 0.6576 0.6578 0.6582 0.6584 0.6586
2945.000000 0.6589 0.6591 0.6593 0.6596 0.6598
2940.000000 0.6599 0.6600 0.6601 0.6601 0.6601
2935.000000 0.6601 0.6603 0.6603 0.6603 0.6603
2930.000000 0.6604 0.6606 0.6607 0.6608 0.6610
2925.000000 0.6611 0.6611 0.6614 0.6615 0.6615
2920.000000 0.6618 0.6622 0.6628 0.6632 0.6637
2915.000000 0.6642 0.6646 0.6653 0.6660 0.6667
2910.000000 0.6674 0.6682 0.6690 0.6698 0.6706
2905.000000 0.6714 0.6721 0.6731 0.6740 0.6749
2900.000000 0.6758 0.6768 0.6778 0.6789 0.6800
2895.000000 0.6811 0.6821 0.6834 0.6847 0.6858
2890.000000 0.6871 0.6885 0.6898 0.6910 0.6925
2885.000000 0.6942 0.6958 0.6971 0.6982 0.6992
2880.000000 0.7001 0.7008 0.7015 0.7021 0.7025
2875.000000 0.7031 0.7036 0.7040 0.7044 0.7048
2870.000000 0.7050 0.7050 0.7050 0.7050 0.7033
2865.000000 0.7015 0.7064 0.6953 0.6894 0.6834
2860.000000 0.6774 0.6714 0.6654 0.6594 0.6534
2855.000000 0.6474 0.6414 0.6353 0.6293 0.6233
2850.000000 0.6173 0.6112 0.6052 0.5991 0.5931
2845.000000 0.5870 0.5810 0.5749 0.5688 0.5627
2840.000000 0.5566 0.5505 0.5445 0.5384 0.5323
2835.000000 0.5262 0.5212 0.5176 0.5099 0.5110
2830.000000 0.5110 0.5110 0.5110 0.5131 0.5151
2825.000000 0.5172 0.5223 0.5279 0.5336 0.5392
2820.000000 0.5448 0.5505 0.5560 0.5618 0.5675
2815.000000 0.5731 0.5788 0.5844 0.5901 0.5958
2810.000000 0.6015 0.6072 0.6101 0.6130 0.6159
2805.000000 0.6173 0.6183 0.6194 0.6203 0.6210
2800.000000 0.6217 0.6225 0.6234 0.6243 0.6253
2795.000000 0.6262 0.6273 0.6283 0.6297 0.6310
2790.000000 0.6323 0.6340 0.6357 0.6374 0.6391
2785.000000 0.6408 0.6425 0.6446 0.6465 0.6487
2780.000000 0.6507 0.6528 0.6548 0.6567 0.6585
2775.000000 0.6604 0.6621 0.6640 0.6658 0.6675
2770.000000 0.6694 0.6711 0.6728 0.6744 0.6760
2765.000000 0.6775 0.6788 0.6801 0.6818 0.6837
2760.000000 0.6857 0.6876 0.6900 0.6922 0.6945
2755.000000 0.6965 0.6987 0.7007 0.7022 0.7040
2750.000000 0.7058 0.7075 0.7094 0.7111 0.7130
2745.000000 0.7149 0.7165 0.7181 0.7196 0.7208
2740.000000 0.7215 0.7221 0.7225 0.7231 0.7235
2735.000000 0.7239 0.7244 0.7248 0.7251 0.7256
2730.000000 0.7261 0.7265 0.7268 0.7272 0.7278
2725.000000 0.7282 0.7286 0.7291 0.7300 0.7308
2720.000000 0.7317 0.7325 0.7336 0.7345 0.7355
2715.000000 0.7365 0.7375 0.7386 0.7397 0.7411
2710.000000 0.7426 0.7443 0.7455 0.7461 0.7468
2705.000000 0.7474 0.7478 0.7481 0.7484 0.7486
2700.000000 0.7488 0.7490 0.7492 0.7514 0.7494
2695.000000 0.7495 0.7495 0.7496 0.7497 0.7498
2690.000000 0.7498 0.7498 0.7498 0.7493 0.7487
2685.000000 0.7480 0.7471 0.7462 0.7455 0.7445
2680.000000 0.7435 0.7425 0.7417 0.7408 0.7401
2675.000000 0.7396 0.7391 0.7387 0.7382 0.7378
2670.000000 0.7374 0.7371 0.7367 0.7365 0.7361
2665.000000 0.7360 0.7358 0.7324 0.7356 0.7356
2660.000000 0.7355 0.7355 0.7355 0.7355 0.7358
2655.000000 0.7361 0.7365 0.7371 0.7378 0.7385
2650.000000 0.7391 0.7397 0.7403 0.7408 0.7415
2645.000000 0.7419 0.7425 0.7431 0.7436 0.7442
2640.000000 0.7447 0.7451 0.7456 0.7460 0.7464
2635.000000 0.7468 0.7472 0.7478 0.7483 0.7487
2630.000000 0.7491 0.7495 0.7499 0.7503 0.7507
2625.000000 0.7510 0.7485 0.7515 0.7514 0.7511
2620.000000 0.7511 0.7508 0.7507 0.7501 0.7495
2615.000000 0.7489 0.7480 0.7471 0.7462 0.7454
2610.000000 0.7446 0.7435 0.7422 0.7411 0.7398
2605.000000 0.7385 0.7371 0.7358 0.7344 0.7330
2600.000000 0.7317 0.7304 0.7288 0.7271 0.7253
2595.000000 0.7232 0.7210 0.7188 0.7165 0.7144
2590.000000 0.7118 0.7094 0.7068 0.7043 0.7018
2585.000000 0.6984 0.6930 0.6876 0.6775 0.6646
2580.000000 0.6517 0.6480 0.6444 0.6410 0.6379
2575.000000 0.6348 0.6317 0.6285 0.6254 0.6221
2570.000000 0.6189 0.6157 0.6126 0.6095 0.6068
2565.000000 0.6044 0.6019 0.5994 0.5969 0.5944
2560.000000 0.5918 0.5891 0.5867 0.5844 0.5821
2555.000000 0.5802 0.5783 0.5769 0.5759 0.5748
2550.000000 0.5744 0.5725 0.5737 0.5736 0.5736
2545.000000 0.5734 0.5734 0.5734 0.5747 0.5759
2540.000000 0.5772 0.5785 0.5798 0.5812 0.5826
2535.000000 0.5841 0.5858 0.5874 0.5899 0.5924
2530.000000 0.5950 0.5977 0.6005 0.6026 0.6045
2525.000000 0.6062 0.6079 0.6094 0.6100 0.6101
2520.000000 0.6103 0.6104 0.6105 0.6106 0.6107
2515.000000 0.6109 0.6110 0.6112 0.6115 0.6117
2510.000000 0.6119 0.6124 0.6130 0.6139 0.6150
2505.000000 0.6162 0.6182 0.6202 0.6228 0.6260
2500.000000 0.6292 0.6330 0.6368 0.6395 0.6411
2495.000000 0.6426 0.6442 0.6456 0.6472 0.6490
2490.000000 0.6507 0.6525 0.6543 0.6560 0.6575
2485.000000 0.6592 0.6604 0.6661 0.6628 0.6637
2480.000000 0.6645 0.6645 0.6644 0.6643 0.6641
2475.000000 0.6640 0.6636 0.6633 0.6626 0.6621
2470.000000 0.6614 0.6608 0.6601 0.6594 0.6588
2465.000000 0.6578 0.6567 0.6556 0.6541 0.6526
2460.000000 0.6511 0.6498 0.6483 0.6468 0.6454
2455.000000 0.6438 0.6422 0.6407 0.6392 0.6376
2450.000000 0.6352 0.6328 0.6303 0.6279 0.6255
2445.000000 0.6233 0.6210 0.6192 0.6173 0.6154
2440.000000 0.6135 0.6116 0.6097 0.6078 0.6055
2435.000000 0.6028 0.6002 0.5976 0.5949 0.5922
2430.000000 0.5896 0.5866 0.5832 0.5799 0.5764
2425.000000 0.5729 0.5696 0.5662 0.5629 0.5595
2420.000000 0.5562 0.5530 0.5498 0.5469 0.5441
2415.000000 0.5412 0.5385 0.5346 0.5236 0.5126
2410.000000 0.5060 0.5007 0.4953 0.4899 0.4845
2405.000000 0.4791 0.4737 0.4683 0.4629 0.4575
2400.000000 0.4521 0.4467 0.4412 0.4358 0.4304
2395.000000 0.4249 0.4195 0.4140 0.4086 0.4030
2390.000000 0.3976 0.3922 0.3866 0.3807 0.3745
2385.000000 0.3702 0.3678 0.3655 0.3634 0.3612
2380.000000 0.3598 0.3584 0.3571 0.3557 0.3544
2375.000000 0.3530 0.3516 0.3505 0.3493 0.3480
2370.000000 0.3468 0.3458 0.3446 0.3432 0.3412
2365.000000 0.3392 0.3358 0.3323 0.3181 0.3033
2360.000000 0.2949 0.2890 0.2838 0.2793 0.2750
2355.000000 0.2714 0.2678 0.2643 0.2608 0.2580
2350.000000 0.2553 0.2526 0.2501 0.2478 0.2460
2345.000000 0.2442 0.2424 0.2406 0.2387 0.2369
2340.000000 0.2348 0.2326 0.2305 0.2283 0.2251
2335.000000 0.2206 0.2152 0.2071 0.1985 0.1867
2330.000000 0.1748 0.1709 0.1677 0.1650 0.1592
2325.000000 0.1608 0.1598 0.1591 0.1588 0.1587
2320.000000 0.1587 0.1587 0.1587 0.1587 0.1588
2315.000000 0.1588 0.1590 0.1592 0.1594 0.1596
2310.000000 0.1600 0.1602 0.1604 0.1607 0.1609
2305.000000 0.1611 0.1614 0.1621 0.1627 0.1635
2300.000000 0.1644 0.1661 0.1677 0.1695 0.1715
2295.000000 0.1734 0.1756 0.1779 0.1808 0.1835
2290.000000 0.1863 0.1891 0.1919 0.1945 0.1974
2285.000000 0.2009 0.2074 0.2139 0.2212 0.2284
2280.000000 0.2351 0.2417 0.2482 0.2547 0.2594
2275.000000 0.2638 0.2669 0.2697 0.2725 0.2753
2270.000000 0.2781 0.2809 0.2835 0.2865 0.2893
2265.000000 0.2923 0.2958 0.2999 0.3040 0.3081
2260.000000 0.3123 0.3164 0.3214 0.3278 0.3345
2255.000000 0.3416 0.3482 0.3536 0.3589 0.3640
2250.000000 0.3691 0.3746 0.3804 0.3871 0.3938
2245.000000 0.4004 0.4070 0.4135 0.4197 0.4242
2240.000000 0.4285 0.4319 0.4352 0.4386 0.4419
2235.000000 0.4453 0.4486 0.4518 0.4550 0.4581
2230.000000 0.4610 0.4642 0.4674 0.4705 0.4736
2225.000000 0.4765 0.4794 0.4819 0.4845 0.4871
2220.000000 0.4897 0.4923 0.4949 0.4974 0.5000
2215.000000 0.5026 0.5052 0.5080 0.5108 0.5137
2210.000000 0.5166 0.5195 0.5225 0.5254 0.5283
2205.000000 0.5312 0.5342 0.5371 0.5395 0.5415
2200.000000 0.5436 0.5457 0.5477 0.5498 0.5519
2195.000000 0.5540 0.5560 0.5581 0.5602 0.5623
2190.000000 0.5643 0.5662 0.5679 0.5695 0.5710
2185.000000 0.5728 0.5745 0.5760 0.5777 0.5794
2180.000000 0.5810 0.5827 0.5843 0.5860 0.5876
2175.000000 0.5893 0.5910 0.5927 0.5945 0.5962
2170.000000 0.5979 0.5996 0.6012 0.6031 0.6048
2165.000000 0.6065 0.6082 0.6099 0.6116 0.6133
2160.000000 0.6151 0.6169 0.6184 0.6200 0.6212
2155.000000 0.6227 0.6240 0.6254 0.6267 0.6281
2150.000000 0.6295 0.6309 0.6322 0.6336 0.6349
2145.000000 0.6362 0.6377 0.6391 0.6405 0.6418
2140.000000 0.6432 0.6446 0.6458 0.6472 0.6487
2135.000000 0.6501 0.6515 0.6528 0.6543 0.6556
2130.000000 0.6569 0.6583 0.6597 0.6611 0.6624
2125.000000 0.6638 0.6651 0.6665 0.6680 0.6694
2120.000000 0.6708 0.6721 0.6736 0.6750 0.6764
2115.000000 0.6778 0.6793 0.6807 0.6821 0.6836
2110.000000 0.6850 0.6865 0.6878 0.6894 0.6908
2105.000000 0.6921 0.6936 0.6950 0.6964 0.6978
2100.000000 0.6992 0.7007 0.7021 0.7035 0.7049
2095.000000 0.7062 0.7078 0.7093 0.7108 0.7124
2090.000000 0.7139 0.7155 0.7169 0.7186 0.7201
2085.000000 0.7215 0.7230 0.7244 0.7257 0.7269
2080.000000 0.7283 0.7296 0.7308 0.7321 0.7335
2075.000000 0.7348 0.7360 0.7372 0.7385 0.7397
2070.000000 0.7408 0.7421 0.7432 0.7444 0.7456
2065.000000 0.7468 0.7480 0.7492 0.7503 0.7512
2060.000000 0.7521 0.7531 0.7541 0.7550 0.7560
2055.000000 0.7568 0.7578 0.7587 0.7597 0.7606
2050.000000 0.7615 0.7625 0.7634 0.7643 0.7653
2045.000000 0.7661 0.7671 0.7681 0.7690 0.7700
2040.000000 0.7708 0.7718 0.7728 0.7737 0.7747
2035.000000 0.7756 0.7764 0.7771 0.7780 0.7788
2030.000000 0.7797 0.7805 0.7814 0.7822 0.7832
2025.000000 0.7842 0.7851 0.7860 0.7868 0.7878
2020.000000 0.7887 0.7896 0.7904 0.7911 0.7917
2015.000000 0.7924 0.7930 0.7934 0.7937 0.7940
2010.000000 0.7943 0.7943 0.7943 0.7943 0.7942
2005.000000 0.7942 0.7940 0.7938 0.7935 0.7933
2000.000000 0.7932 0.7928 0.7925 0.7924 0.7918
1995.000000 0.7912 0.7907 0.7893 0.7874 0.7855
1990.000000 0.7841 0.7832 0.7828 0.7825 0.7825
1985.000000 0.7825 0.7825 0.7825 0.7826 0.7828
1980.000000 0.7830 0.7833 0.7838 0.7845 0.7853
1975.000000 0.7860 0.7875 0.7893 0.7911 0.7930
1970.000000 0.7948 0.7962 0.7978 0.7992 0.8007
1965.000000 0.8021 0.8036 0.8048 0.8060 0.8069
1960.000000 0.8081 0.8091 0.8101 0.8111 0.8119
1955.000000 0.8128 0.8137 0.8145 0.8151 0.8157
1950.000000 0.8164 0.8165 0.8168 0.8169 0.8171
1945.000000 0.8171 0.8169 0.8164 0.8154 0.8140
1940.000000 0.8124 0.8108 0.8095 0.8078 0.8064
1935.000000 0.8050 0.8044 0.8038 0.8033 0.8026
1930.000000 0.8022 0.8019 0.8018 0.8018 0.8018
1925.000000 0.8018 0.8021 0.8025 0.8026 0.8031
1920.000000 0.8034 0.8037 0.8040 0.8044 0.8055
1915.000000 0.8065 0.8076 0.8088 0.8100 0.8111
1910.000000 0.8122 0.8136 0.8148 0.8161 0.8174
1905.000000 0.8187 0.8200 0.8213 0.8225 0.8235
1900.000000 0.8245 0.8256 0.8266 0.8277 0.8288
1895.000000 0.8298 0.8309 0.8318 0.8328 0.8337
1890.000000 0.8346 0.8355 0.8363 0.8368 0.8371
1885.000000 0.8374 0.8375 0.8378 0.8381 0.8383
1880.000000 0.8385 0.8386 0.8387 0.8387 0.8387
1875.000000 0.8388 0.8388 0.8388 0.8388 0.8387
1870.000000 0.8385 0.8382 0.8380 0.8377 0.8374
1865.000000 0.8371 0.8368 0.8359 0.8348 0.8337
1860.000000 0.8327 0.8315 0.8301 0.8288 0.8274
1855.000000 0.8259 0.8246 0.8235 0.8230 0.8225
1850.000000 0.8221 0.8217 0.8213 0.8210 0.8206
1845.000000 0.8202 0.8200 0.8199 0.8199 0.8203
1840.000000 0.8216 0.8228 0.8243 0.8258 0.8288
1835.000000 0.8318 0.8345 0.8359 0.8373 0.8388
1830.000000 0.8402 0.8415 0.8427 0.8439 0.8450
1825.000000 0.8460 0.8466 0.8471 0.8475 0.8482
1820.000000 0.8487 0.8490 0.8491 0.8491 0.8492
1815.000000 0.8488 0.8480 0.8471 0.8463 0.8454
1810.000000 0.8443 0.8433 0.8430 0.8428 0.8425
1805.000000 0.8423 0.8423 0.8425 0.8431 0.8435
1800.000000 0.8439 0.8443 0.8448 0.8453 0.8457
1795.000000 0.8461 0.8466 0.8470 0.8475 0.8478
1790.000000 0.8483 0.8485 0.8487 0.8489 0.8494
1785.000000 0.8499 0.8504 0.8509 0.8514 0.8518
1780.000000 0.8528 0.8539 0.8550 0.8557 0.8564
1775.000000 0.8570 0.8575 0.8582 0.8587 0.8591
1770.000000 0.8593 0.8595 0.8598 0.8599 0.8601
1765.000000 0.8602 0.8604 0.8606 0.8607 0.8609
1760.000000 0.8610 0.8612 0.8612 0.8611 0.8608
1755.000000 0.8606 0.8604 0.8603 0.8603 0.8602
1750.000000 0.8602 0.8603 0.8605 0.8606 0.8607
1745.000000 0.8608 0.8609 0.8611 0.8612 0.8613
1740.000000 0.8614 0.8615 0.8616 0.8617 0.8618
1735.000000 0.8618 0.8618 0.8620 0.8621 0.8621
1730.000000 0.8623 0.8623 0.8621 0.8620 0.8618
1725.000000 0.8617 0.8616 0.8615 0.8614 0.8612
1720.000000 0.8610 0.8607 0.8604 0.8599 0.8595
1715.000000 0.8593 0.8591 0.8590 0.8589 0.8587
1710.000000 0.8587 0.8586 0.8584 0.8583 0.8582
1705.000000 0.8582 0.8584 0.8585 0.8587 0.8589
1700.000000 0.8590 0.8591 0.8593 0.8595 0.8597
1695.000000 0.8601 0.8610 0.8621 0.8632 0.8643
1690.000000 0.8655 0.8666 0.8675 0.8678 0.8680
1685.000000 0.8674 0.8667 0.8661 0.8655 0.8649
1680.000000 0.8644 0.8639 0.8640 0.8646 0.8651
1675.000000 0.8657 0.8663 0.8668 0.8674 0.8678
1670.000000 0.8684 0.8689 0.8694 0.8694 0.8695
1665.000000 0.8693 0.8692 0.8691 0.8688 0.8683
1660.000000 0.8675 0.8670 0.8664 0.8658 0.8653
1655.000000 0.8650 0.8647 0.8643 0.8641 0.8638
1650.000000 0.8634 0.8630 0.8627 0.8623 0.8618
1645.000000 0.8615 0.8610 0.8603 0.8595 0.8588
1640.000000 0.8581 0.8574 0.8567 0.8560 0.8555
1635.000000 0.8549 0.8544 0.8537 0.8531 0.8525
1630.000000 0.8518 0.8512 0.8504 0.8496 0.8488
1625.000000 0.8480 0.8471 0.8464 0.8454 0.8441
1620.000000 0.8425 0.8411 0.8391 0.8371 0.8351
1615.000000 0.8332 0.8278 0.8126 0.7968 0.7811
1610.000000 0.7654 0.7497 0.7389 0.7389 0.7389
1605.000000 0.7498 0.7654 0.7810 0.7965 0.8111
1600.000000 0.8209 0.8250 0.8275 0.8301 0.8325
1595.000000 0.8345 0.8365 0.8384 0.8402 0.8417
1590.000000 0.8428 0.8439 0.8450 0.8462 0.8473
1585.000000 0.8483 0.8493 0.8502 0.8512 0.8521
1580.000000 0.8532 0.8545 0.8558 0.8573 0.8588
1575.000000 0.8602 0.8617 0.8632 0.8660 0.8660
1570.000000 0.8668 0.8670 0.8670 0.8647 0.8628
1565.000000 0.8616 0.8608 0.8604 0.8601 0.8598
1560.000000 0.8595 0.8592 0.8590 0.8587 0.8585
1555.000000 0.8580 0.8574 0.8568 0.8561 0.8554
1550.000000 0.8545 0.8534 0.8523 0.8511 0.8499
1545.000000 0.8485 0.8471 0.8462 0.8455 0.8448
1540.000000 0.8442 0.8437 0.8432 0.8428 0.8428
1535.000000 0.8430 0.8436 0.8442 0.8449 0.8456
1530.000000 0.8461 0.8467 0.8473 0.8478 0.8482
1525.000000 0.8486 0.8489 0.8489 0.8486 0.8483
1520.000000 0.8475 0.8465 0.8453 0.8441 0.8418
1515.000000 0.8386 0.8318 0.8227 0.8098 0.7965
1510.000000 0.7651 0.7078 0.6438 0.5798 0.5157
1505.000000 0.4540 0.4195 0.4215 0.4186 0.4323
1500.000000 0.4628 0.4953 0.5278 0.5602 0.5928
1495.000000 0.6255 0.6582 0.6908 0.7237 0.7412
1490.000000 0.7471 0.7446 0.7274 0.7075 0.6878
1485.000000 0.6681 0.6482 0.6284 0.6085 0.5701
1480.000000 0.5720 0.5738 0.5841 0.5974 0.6107
1475.000000 0.6242 0.6335 0.6347 0.6343 0.6341
1470.000000 0.6335 0.6310 0.6072 0.5799 0.5526
1465.000000 0.5253 0.4979 0.4704 0.4430 0.4155
1460.000000 0.3879 0.3603 0.3327 0.3051 0.2820
1455.000000 0.2821 0.2821 0.2947 0.3462 0.4121
1450.000000 0.4781 0.5392 0.5673 0.5693 0.5706
1445.000000 0.5732 0.5814 0.5985 0.6155 0.6327
1440.000000 0.6498 0.6669 0.6841 0.7014 0.7186
1435.000000 0.7358 0.7530 0.7655 0.7728 0.7797
1430.000000 0.7847 0.7885 0.7915 0.7938 0.7956
1425.000000 0.7962 0.7976 0.7969 0.7943 0.7737
1420.000000 0.7530 0.7322 0.7119 0.7021 0.7031
1415.000000 0.7067 0.7141 0.7215 0.7291 0.7365
1410.000000 0.7425 0.7441 0.7435 0.7396 0.7339
1405.000000 0.7282 0.7226 0.7171 0.7195 0.7215
1400.000000 0.7254 0.7318 0.7385 0.7451 0.7518
1395.000000 0.7593 0.7672 0.7740 0.7787 0.7815
1390.000000 0.7837 0.7846 0.7847 0.7848 0.7834
1385.000000 0.7818 0.7801 0.7784 0.7785 0.7785
1380.000000 0.7804 0.7822 0.7883 0.7960 0.8033
1375.000000 0.8082 0.8128 0.8165 0.8196 0.8223
1370.000000 0.8250 0.8274 0.8305 0.8259 0.8233
1365.000000 0.8171 0.8051 0.7930 0.7808 0.7688
1360.000000 0.7565 0.7445 0.7321 0.7171 0.7153
1355.000000 0.7157 0.7245 0.7505 0.7760 0.7899
1350.000000 0.7915 0.7928 0.7935 0.7935 0.7943
1345.000000 0.7972 0.8012 0.8056 0.8105 0.8158
1340.000000 0.8210 0.8263 0.8323 0.8382 0.8428
1335.000000 0.8467 0.8501 0.8535 0.8568 0.8582
1330.000000 0.8584 0.8557 0.8495 0.8290 0.8078
1325.000000 0.7869 0.7661 0.7451 0.7242 0.7051
1320.000000 0.6988 0.6982 0.6981 0.6985 0.7001
1315.000000 0.7021 0.7068 0.7122 0.7228 0.7335
1310.000000 0.7443 0.7551 0.7658 0.7767 0.7874
1305.000000 0.7983 0.8092 0.8182 0.8228 0.8285
1300.000000 0.8266 0.8268 0.8262 0.8248 0.8218
1295.000000 0.8175 0.8128 0.8049 0.7674 0.7339
1290.000000 0.7005 0.6450 0.6447 0.6560 0.6735
1285.000000 0.6910 0.7086 0.7156 0.7153 0.6867
1280.000000 0.6441 0.6100 0.6054 0.6124 0.6362
1275.000000 0.6614 0.6867 0.7119 0.7692 0.7825
1270.000000 0.7944 0.8031 0.8111 0.8187 0.8257
1265.000000 0.8323 0.8366 0.8406 0.8448 0.8487
1260.000000 0.8520 0.8554 0.8583 0.8610 0.8636
1255.000000 0.8660 0.8683 0.8705 0.8713 0.8713
1250.000000 0.8712 0.8710 0.8708 0.8705 0.8704
1245.000000 0.8704 0.8704 0.8723 0.8744 0.8765
1240.000000 0.8785 0.8806 0.8821 0.8836 0.8850
1235.000000 0.8864 0.8877 0.8887 0.8898 0.8909
1230.000000 0.8918 0.8925 0.8925 0.8924 0.8924
1225.000000 0.8927 0.8933 0.8945 0.8955 0.8964
1220.000000 0.8970 0.8974 0.8974 0.8973 0.8964
1215.000000 0.8955 0.8946 0.8936 0.8932 0.8932
1210.000000 0.8932 0.8932 0.8932 0.8933 0.8934
1205.000000 0.8936 0.8936 0.8936 0.8933 0.8905
1200.000000 0.8840 0.8745 0.8647 0.8511 0.8337
1195.000000 0.8236 0.8099 0.7817 0.7538 0.7181
1190.000000 0.6822 0.6464 0.6105 0.5746 0.5466
1185.000000 0.5456 0.5498 0.5709 0.5944 0.6180
1180.000000 0.6316 0.6331 0.6349 0.6536 0.6815
1175.000000 0.7097 0.7378 0.7658 0.7941 0.8213
1170.000000 0.8316 0.8421 0.8384 0.8397 0.8395
1165.000000 0.8392 0.8373 0.8309 0.8216 0.8125
1160.000000 0.8153 0.8176 0.8304 0.8463 0.8587
1155.000000 0.8675 0.8728 0.8774 0.8760 0.8759
1150.000000 0.8725 0.8647 0.8539 0.8408 0.8017
1145.000000 0.7401 0.6786 0.5630 0.5632 0.5638
1140.000000 0.5992 0.6411 0.6835 0.6896 0.6892
1135.000000 0.6845 0.6719 0.6471 0.6167 0.5860
1130.000000 0.5556 0.5249 0.4650 0.4674 0.4682
1125.000000 0.5001 0.5445 0.5889 0.6334 0.6778
1120.000000 0.7228 0.7640 0.7730 0.7774 0.7797
1115.000000 0.7803 0.7678 0.7601 0.7575 0.7561
1110.000000 0.7565 0.7597 0.7669 0.7822 0.7955
1105.000000 0.8075 0.8192 0.8292 0.8385 0.8463
1100.000000 0.8521 0.8567 0.8602 0.8625 0.8643
1095.000000 0.8656 0.8649 0.8596 0.8493 0.8289
1090.000000 0.7804 0.7354 0.6904 0.6451 0.6000
1085.000000 0.5602 0.5632 0.5962 0.6330 0.6697
1080.000000 0.7067 0.7436 0.7815 0.7899 0.7945
1075.000000 0.7981 0.8025 0.8212 0.8374 0.8494
1070.000000 0.8578 0.8641 0.8692 0.8728 0.8753
1065.000000 0.8768 0.8778 0.8797 0.8670 0.8508
1060.000000 0.8345 0.8182 0.7858 0.7875 0.7874
1055.000000 0.7986 0.8134 0.8283 0.8432 0.8574
1050.000000 0.8639 0.8684 0.8717 0.8750 0.8784
1045.000000 0.8812 0.8834 0.8835 0.8835 0.8693
1040.000000 0.8298 0.7867 0.7433 0.6999 0.6807
1035.000000 0.6778 0.6761 0.6725 0.6626 0.6480
1030.000000 0.6434 0.6544 0.6948 0.7351 0.7758
1025.000000 0.8134 0.8340 0.8449 0.8498 0.8520
1020.000000 0.8524 0.8500 0.8430 0.8371 0.8344
1015.000000 0.8356 0.8494 0.8640 0.8785 0.8909
1010.000000 0.8962 0.9010 0.9057 0.9115 0.9113
1005.000000 0.9127 0.9130 0.8835 0.8968 0.8865
1000.000000 0.9237 0.9221 0.9180 0.9066 0.8853
995.000000 0.8584 0.8258 0.7990 0.7665 0.7015
990.000000 0.6122 0.5231 0.4339 0.3121 0.3112
985.000000 0.3242 0.3462 0.3543 0.3691 0.4492
980.000000 0.5326 0.6160 0.6968 0.7465 0.7761
975.000000 0.7960 0.8125 0.8278 0.8431 0.8555
970.000000 0.8646 0.8721 0.8781 0.8835 0.8875
965.000000 0.8917 0.8952 0.8983 0.9015 0.9036
960.000000 0.9054 0.9071 0.9078 0.9085 0.9085
955.000000 0.9084 0.9075 0.9065 0.9054 0.9036
950.000000 0.9014 0.8981 0.8940 0.8875 0.8727
945.000000 0.8327 0.7888 0.7457 0.7337 0.7344
940.000000 0.7356 0.7415 0.7524 0.7688 0.7861
935.000000 0.7921 0.7946 0.8022 0.8233 0.8445
930.000000 0.8631 0.8696 0.8723 0.8714 0.8696
925.000000 0.8637 0.8421 0.7964 0.7507 0.7204
920.000000 0.7194 0.7508 0.7847 0.8188 0.8488
915.000000 0.8666 0.8790 0.8875 0.8928 0.8981
910.000000 0.9025 0.9066 0.9099 0.9123 0.9149
905.000000 0.9171 0.9187 0.9202 0.9217 0.9232
900.000000 0.9246 0.9260 0.9274 0.9286 0.9296
895.000000 0.9305 0.9315 0.9325 0.9336 0.9346
890.000000 0.9347 0.9343 0.9334 0.9321 0.9300
885.000000 0.9278 0.9270 0.9294 0.9318 0.9327
880.000000 0.9321 0.9287 0.9268 0.9254 0.9261
875.000000 0.9281 0.9292 0.9303 0.9303 0.9303
870.000000 0.9293 0.9274 0.9221 0.9133 0.9078
865.000000 0.9037 0.9045 0.9065 0.9074 0.9028
860.000000 0.8856 0.8639 0.8324 0.7551 0.6785
855.000000 0.6053 0.6049 0.6171 0.6521 0.6940
850.000000 0.7358 0.7778 0.8199 0.8620 0.8914
845.000000 0.9010 0.9084 0.9106 0.9110 0.9052
840.000000 0.8812 0.8640 0.8564 0.8531 0.8528
835.000000 0.8600 0.8724 0.8868 0.8981 0.9082
830.000000 0.9175 0.9249 0.9271 0.9253 0.9233
825.000000 0.9239 0.9254 0.9298 0.9321 0.9338
820.000000 0.9337 0.9337 0.9332 0.9395 0.9443
815.000000 0.9440 0.9400 0.9375 0.9387 0.9410
810.000000 0.9434 0.9454 0.9464 0.9467 0.9444
805.000000 0.9455 0.9497 0.9516 0.9517 0.9518
800.000000 0.9516 0.9514 0.9478 0.9442 0.9402
795.000000 0.9307 0.8909 0.8459 0.8104 0.8108
790.000000 0.8368 0.8667 0.8968 0.9204 0.9292
785.000000 0.9318 0.9401 0.9475 0.9511 0.9533
780.000000 0.9544 0.9550 0.9554 0.9568 0.9560
775.000000 0.9558 0.9531 0.9466 0.9435 0.9410
770.000000 0.9384 0.9325 0.9235 0.9102 0.8888
765.000000 0.8564 0.7598 0.6789 0.5591 0.4371
760.000000 0.2972 0.2439 0.2230 0.1981 0.1744
755.000000 0.1746 0.2003 0.2767 0.3730 0.4697
750.000000 0.5631 0.6596 0.7290 0.7832 0.8028
745.000000 0.8210 0.8397 0.8589 0.8768 0.8867
740.000000 0.8910 0.8949 0.9000 0.9051 0.9089
735.000000 0.9121 0.9150 0.9168 0.9197 0.9188
730.000000 0.9189 0.9189 0.9182 0.9147 0.9106
725.000000 0.9024 0.8878 0.8595 0.8296 0.7828
720.000000 0.6685 0.5119 0.3708 0.2295 0.1112
715.000000 0.0739 0.0742 0.1353 0.2244 0.2764
710.000000 0.3616 0.4478 0.5342 0.6134 0.6549
705.000000 0.6557 0.6415 0.5540 0.4662 0.4244
700.000000 0.4373 0.5228 0.6146 0.7262 0.7662
695.000000 0.7953 0.8142 0.8325 0.8498 0.8603
690.000000 0.8690 0.8766 0.8836 0.8900 0.8955
685.000000 0.8996 0.9018 0.9018 0.9018 0.9028
680.000000 0.9052 0.9075 0.9093 0.9110 0.9124
675.000000 0.9138 0.9149 0.9152 0.9134 0.9111
670.000000 0.9086 0.9060 0.9053 0.9148 0.9143
665.000000 0.9125 0.9100 0.9073 0.9047 0.8999
660.000000 0.8868 0.8654 0.8438 0.8344 0.8388
655.000000 0.8511 0.8655 0.8791 0.8930
##END=
