##TITLE=SODIUM TRIPOLYPHOSPHATE, FORM II
##JCAMP-DX=4.24
##DATA TYPE=INFRARED SPECTRUM
##CLASS=COBLENTZ III
##ORIGIN=PROCTER AND GAMBLE CO.
##OWNER=COBLENTZ SOCIETY
Collection (C) 2018 copyright by the U.S. Secretary of Commerce
on behalf of the United States of America. All rights reserved.
##DATE=Not specified, most likely prior to 1970
##MOLFORM=O10 P3 Na5
##SOURCE REFERENCE=COBLENTZ NO. 2082
##$NIST ID=B6002082
##$NIST SOURCE=COBLENTZ
##$NIST IMAGE=cob2082
##SPECTROMETER/DATA SYSTEM=PERKIN-ELMER 421 (GRATING)
##INSTRUMENT PARAMETERS=GRATING CHANGE AT 1999 CM^-^1
##STATE=SOLID (MULL IN COCONITRILE OIL)
##SAMPLING PROCEDURE=TRANSMISSION
##RESOLUTION=4
##DATA PROCESSING=DIGITIZED BY NIST FROM HARD COPY (FROM TWO SEGMENTS)
##XUNITS=1/CM
##YUNITS=TRANSMITTANCE
##XFACTOR=1.000000
##YFACTOR=1
##DELTAX=1.128669
##FIRSTX=554.176
##LASTX=3994.36
##FIRSTY=0.642
##MAXX=3994.36
##MINX=554.176
##MAXY=0.915
##MINY=0.144
##NPOINTS=3049
##XYDATA=(X++(Y..Y))
554.176000 0.6420 0.6300 0.6220 0.6160 0.6130
559.819343 0.6080 0.5961 0.5721 0.5541 0.5351
565.462687 0.5180 0.5060 0.4810 0.4621 0.4590
571.106030 0.4590 0.4590 0.4590 0.4610 0.4640
576.749373 0.4670 0.4810 0.4910 0.5050 0.5160
582.392716 0.5300 0.5589 0.5739 0.5829 0.5830
588.036060 0.5860 0.5860 0.5860 0.5860 0.5840
593.679403 0.5830 0.5810 0.5740 0.5670 0.5551
599.322746 0.5420 0.5110 0.4551 0.4520 0.4520
604.966090 0.4500 0.4490 0.4490 0.4500 0.4520
610.609433 0.4620 0.4720 0.4830 0.4880 0.5079
616.252776 0.5499 0.5719 0.5939 0.6198 0.6448
621.896119 0.6720 0.7000 0.7230 0.7450 0.7619
627.539463 0.7720 0.7740 0.7839 0.7929 0.8029
633.182806 0.8130 0.8150 0.8160 0.8180 0.8200
638.826149 0.8200 0.8200 0.8200 0.8200 0.8200
644.469493 0.8200 0.8160 0.8130 0.8080 0.8010
650.112836 0.7910 0.7771 0.7591 0.7381 0.7112
655.756179 0.6790 0.6420 0.5981 0.5721 0.5471
661.399522 0.4892 0.4452 0.4420 0.4380 0.4380
667.042866 0.4400 0.4450 0.4550 0.4710 0.4840
672.686209 0.4960 0.5129 0.5279 0.5618 0.5809
678.329552 0.6000 0.6160 0.6350 0.6539 0.6709
683.972896 0.6879 0.7029 0.7179 0.7329 0.7449
689.616239 0.7570 0.7660 0.7740 0.7790 0.7840
695.259582 0.7930 0.7960 0.8010 0.8060 0.8080
700.902925 0.8130 0.8150 0.8150 0.8150 0.8150
706.546269 0.8160 0.8160 0.8160 0.8160 0.8160
712.189612 0.8160 0.8160 0.8160 0.8150 0.8150
717.832955 0.8150 0.8130 0.8130 0.8130 0.8080
723.476299 0.8060 0.8000 0.7910 0.7890 0.7691
729.119642 0.7252 0.7001 0.6761 0.6521 0.6282
734.762985 0.6050 0.5790 0.5770 0.5790 0.5810
740.406328 0.6029 0.6617 0.6889 0.7278 0.7439
746.049672 0.7640 0.7790 0.7960 0.8050 0.8150
751.693015 0.8250 0.8330 0.8380 0.8440 0.8450
757.336358 0.8520 0.8540 0.8540 0.8550 0.8550
762.979702 0.8570 0.8590 0.8610 0.8620 0.8620
768.623045 0.8620 0.8640 0.8640 0.8640 0.8640
774.266388 0.8640 0.8660 0.8660 0.8660 0.8660
779.909731 0.8660 0.8660 0.8660 0.8660 0.8660
785.553075 0.8660 0.8670 0.8660 0.8660 0.8660
791.196418 0.8660 0.8660 0.8660 0.8660 0.8660
796.839761 0.8660 0.8640 0.8640 0.8620 0.8620
802.483105 0.8620 0.8620 0.8610 0.8610 0.8610
808.126448 0.8610 0.8590 0.8590 0.8590 0.8570
813.769791 0.8570 0.8570 0.8550 0.8550 0.8550
819.413134 0.8540 0.8520 0.8520 0.8500 0.8500
825.056478 0.8470 0.8470 0.8450 0.8450 0.8450
830.699821 0.8450 0.8440 0.8440 0.8420 0.8420
836.343164 0.8420 0.8400 0.8400 0.8400 0.8380
841.986508 0.8380 0.8370 0.8320 0.8300 0.8270
847.629851 0.8230 0.8220 0.8200 0.8160 0.8160
853.273194 0.8080 0.8010 0.7980 0.7960 0.7940
858.916537 0.7930 0.7890 0.7840 0.7760 0.7620
864.559881 0.7550 0.7451 0.7351 0.7231 0.7111
870.203224 0.6980 0.6830 0.6660 0.6490 0.6301
875.846567 0.6111 0.5891 0.5621 0.5471 0.5301
881.489911 0.4940 0.4540 0.4280 0.4001 0.3741
887.133254 0.3252 0.3180 0.3081 0.3001 0.2891
892.776597 0.2790 0.2670 0.2620 0.2590 0.2550
898.419940 0.2550 0.2550 0.2550 0.2570 0.2590
904.063284 0.2610 0.2640 0.2670 0.2710 0.2720
909.706627 0.2770 0.2840 0.2890 0.2930 0.3000
915.349970 0.3130 0.3180 0.3250 0.3400 0.3500
920.993314 0.3610 0.3789 0.3939 0.4049 0.4149
926.636657 0.4280 0.4400 0.4540 0.4620 0.4720
932.280000 0.4859 0.4979 0.5099 0.5219 0.5329
937.923343 0.5540 0.5640 0.5740 0.5840 0.5910
943.566687 0.5930 0.5930 0.5940 0.5960 0.5960
949.210030 0.5980 0.5980 0.5980 0.6030 0.6080
954.853373 0.6150 0.6230 0.6349 0.6499 0.6639
960.496717 0.6760 0.6980 0.7110 0.7230 0.7320
966.140060 0.7420 0.7470 0.7540 0.7590 0.7689
971.783403 0.7740 0.7790 0.7840 0.7880 0.7930
977.426746 0.7940 0.7960 0.7980 0.8010 0.8030
983.070090 0.8060 0.8080 0.8100 0.8110 0.8130
988.713433 0.8130 0.8150 0.8160 0.8180 0.8200
994.356776 0.8200 0.8220 0.8220 0.8230 0.8230
1000.000120 0.8230 0.8230 0.8230 0.8220 0.8200
1005.643463 0.8180 0.8160 0.8050 0.7840 0.7690
1011.286806 0.7541 0.7321 0.6504 0.6470 0.6490
1016.930149 0.6840 0.7180 0.7520 0.7859 0.8199
1022.573493 0.8220 0.8220 0.8220 0.8220 0.8220
1028.216836 0.8230 0.8280 0.8300 0.8300 0.8300
1033.860179 0.8300 0.8320 0.8320 0.8320 0.8320
1039.503523 0.8320 0.8320 0.8320 0.8320 0.8320
1045.146866 0.8300 0.8300 0.8280 0.8250 0.8250
1050.790209 0.8250 0.8230 0.8220 0.8180 0.8130
1056.433552 0.8110 0.8100 0.8100 0.8080 0.8060
1062.076896 0.8030 0.8030 0.8000 0.7980 0.7980
1067.720239 0.7940 0.7910 0.7860 0.7860 0.7791
1073.363582 0.7720 0.7710 0.7640 0.7610 0.7520
1079.006926 0.7440 0.7320 0.7201 0.7031 0.6881
1084.650269 0.6720 0.6130 0.5770 0.5590 0.5381
1090.293612 0.5001 0.4492 0.4112 0.3772 0.3422
1095.936955 0.3380 0.3400 0.3520 0.3640 0.3760
1101.580299 0.4059 0.5274 0.5936 0.6367 0.6489
1107.223642 0.6500 0.6500 0.6500 0.6450 0.6420
1112.866985 0.6320 0.6270 0.6151 0.6061 0.5941
1118.510329 0.5810 0.5670 0.5520 0.5450 0.5380
1124.153672 0.5221 0.5061 0.4891 0.4691 0.4491
1129.797015 0.4280 0.4050 0.3770 0.3501 0.3201
1135.440358 0.2861 0.2502 0.2112 0.1712 0.1670
1141.083702 0.1670 0.1690 0.1710 0.1720 0.1760
1146.727045 0.1830 0.1880 0.1940 0.2000 0.2000
1152.370388 0.2000 0.1910 0.1840 0.1670 0.1620
1158.013732 0.1540 0.1450 0.1440 0.1440 0.1440
1163.657075 0.1450 0.1470 0.1490 0.1520 0.1540
1169.300418 0.1550 0.1610 0.1620 0.1660 0.1710
1174.943761 0.1760 0.1840 0.1910 0.1960 0.1960
1180.587105 0.1960 0.1960 0.1960 0.1980 0.2030
1186.230448 0.2110 0.2330 0.2590 0.2790 0.3079
1191.873791 0.3299 0.3449 0.3619 0.3829 0.4009
1197.517135 0.4100 0.4250 0.4250 0.4200 0.3911
1203.160478 0.3571 0.3331 0.3081 0.2623 0.2521
1208.803821 0.2330 0.2300 0.2300 0.2300 0.2320
1214.447164 0.2380 0.2450 0.2520 0.2570 0.2759
1220.090508 0.2940 0.3130 0.3300 0.3490 0.3670
1225.733851 0.3859 0.4059 0.4219 0.4349 0.4489
1231.377194 0.4690 0.4890 0.5060 0.5250 0.5589
1237.020538 0.5759 0.5929 0.6079 0.6229 0.6369
1242.663881 0.6550 0.6670 0.6790 0.6910 0.7010
1248.307224 0.7100 0.7200 0.7280 0.7350 0.7420
1253.950567 0.7490 0.7570 0.7640 0.7710 0.7760
1259.593911 0.7770 0.7810 0.7840 0.7890 0.7960
1265.237254 0.7980 0.8030 0.8060 0.8110 0.8130
1270.880597 0.8130 0.8150 0.8180 0.8200 0.8220
1276.523941 0.8230 0.8250 0.8270 0.8280 0.8300
1282.167284 0.8300 0.8320 0.8330 0.8330 0.8350
1287.810627 0.8350 0.8350 0.8370 0.8370 0.8370
1293.453970 0.8380 0.8380 0.8380 0.8380 0.8380
1299.097314 0.8400 0.8420 0.8420 0.8420 0.8440
1304.740657 0.8470 0.8470 0.8490 0.8500 0.8500
1310.384000 0.8500 0.8500 0.8500 0.8500 0.8500
1316.027344 0.8520 0.8520 0.8540 0.8540 0.8550
1321.670687 0.8550 0.8550 0.8570 0.8590 0.8570
1327.314030 0.8570 0.8570 0.8570 0.8570 0.8570
1332.957374 0.8570 0.8570 0.8570 0.8570 0.8570
1338.600717 0.8570 0.8570 0.8570 0.8570 0.8570
1344.244060 0.8570 0.8570 0.8570 0.8570 0.8570
1349.887403 0.8570 0.8590 0.8590 0.8590 0.8610
1355.530747 0.8610 0.8620 0.8620 0.8620 0.8620
1361.174090 0.8620 0.8640 0.8640 0.8640 0.8640
1366.817433 0.8640 0.8640 0.8640 0.8640 0.8640
1372.460777 0.8640 0.8640 0.8640 0.8660 0.8660
1378.104120 0.8660 0.8660 0.8660 0.8660 0.8660
1383.747463 0.8660 0.8660 0.8660 0.8660 0.8660
1389.390806 0.8660 0.8640 0.8640 0.8620 0.8610
1395.034150 0.8610 0.8590 0.8590 0.8590 0.8590
1400.677493 0.8570 0.8570 0.8570 0.8570 0.8590
1406.320836 0.8610 0.8610 0.8620 0.8620 0.8620
1411.964180 0.8640 0.8640 0.8640 0.8640 0.8640
1417.607523 0.8660 0.8660 0.8660 0.8660 0.8660
1423.250866 0.8660 0.8670 0.8670 0.8670 0.8670
1428.894209 0.8670 0.8670 0.8670 0.8670 0.8670
1434.537553 0.8670 0.8670 0.8660 0.8660 0.8660
1440.180896 0.8660 0.8640 0.8640 0.8640 0.8640
1445.824239 0.8620 0.8620 0.8620 0.8620 0.8620
1451.467583 0.8610 0.8590 0.8570 0.8570 0.8570
1457.110926 0.8570 0.8570 0.8570 0.8570 0.8570
1462.754269 0.8550 0.8550 0.8550 0.8550 0.8550
1468.397612 0.8550 0.8590 0.8590 0.8610 0.8590
1474.040956 0.8590 0.8590 0.8570 0.8570 0.8570
1479.684299 0.8590 0.8610 0.8610 0.8610 0.8610
1485.327642 0.8610 0.8590 0.8570 0.8570 0.8570
1490.970986 0.8570 0.8570 0.8570 0.8570 0.8610
1496.614329 0.8610 0.8620 0.8640 0.8640 0.8640
1502.257672 0.8640 0.8640 0.8640 0.8620 0.8640
1507.901015 0.8640 0.8620 0.8620 0.8620 0.8620
1513.544359 0.8610 0.8590 0.8590 0.8590 0.8590
1519.187702 0.8590 0.8590 0.8610 0.8610 0.8590
1524.831045 0.8590 0.8590 0.8570 0.8570 0.8570
1530.474389 0.8570 0.8570 0.8570 0.8570 0.8570
1536.117732 0.8570 0.8570 0.8570 0.8570 0.8570
1541.761075 0.8570 0.8590 0.8610 0.8620 0.8620
1547.404418 0.8620 0.8620 0.8640 0.8640 0.8640
1553.047762 0.8640 0.8640 0.8640 0.8640 0.8640
1558.691105 0.8640 0.8640 0.8640 0.8620 0.8610
1564.334448 0.8610 0.8610 0.8610 0.8610 0.8610
1569.977792 0.8610 0.8610 0.8610 0.8610 0.8590
1575.621135 0.8590 0.8590 0.8590 0.8590 0.8590
1581.264478 0.8590 0.8590 0.8570 0.8570 0.8570
1586.907821 0.8570 0.8570 0.8590 0.8590 0.8590
1592.551165 0.8610 0.8610 0.8610 0.8610 0.8620
1598.194508 0.8620 0.8620 0.8620 0.8620 0.8620
1603.837851 0.8620 0.8620 0.8620 0.8620 0.8620
1609.481195 0.8640 0.8640 0.8640 0.8620 0.8610
1615.124538 0.8610 0.8620 0.8620 0.8620 0.8620
1620.767881 0.8620 0.8620 0.8620 0.8620 0.8620
1626.411224 0.8620 0.8640 0.8640 0.8640 0.8640
1632.054568 0.8620 0.8620 0.8640 0.8640 0.8660
1637.697911 0.8640 0.8640 0.8640 0.8640 0.8620
1643.341254 0.8620 0.8620 0.8620 0.8620 0.8610
1648.984598 0.8610 0.8620 0.8620 0.8610 0.8610
1654.627941 0.8610 0.8610 0.8610 0.8610 0.8610
1660.271284 0.8620 0.8620 0.8640 0.8640 0.8660
1665.914627 0.8670 0.8670 0.8670 0.8670 0.8670
1671.557971 0.8690 0.8690 0.8690 0.8690 0.8690
1677.201314 0.8690 0.8710 0.8690 0.8690 0.8690
1682.844657 0.8690 0.8690 0.8690 0.8690 0.8690
1688.488001 0.8690 0.8690 0.8690 0.8690 0.8690
1694.131344 0.8690 0.8690 0.8690 0.8690 0.8690
1699.774687 0.8690 0.8690 0.8690 0.8690 0.8690
1705.418030 0.8690 0.8690 0.8690 0.8690 0.8690
1711.061374 0.8690 0.8690 0.8690 0.8690 0.8690
1716.704717 0.8690 0.8690 0.8690 0.8690 0.8690
1722.348060 0.8690 0.8690 0.8710 0.8720 0.8760
1727.991404 0.8770 0.8770 0.8790 0.8790 0.8790
1733.634747 0.8810 0.8810 0.8810 0.8810 0.8810
1739.278090 0.8810 0.8810 0.8810 0.8810 0.8790
1744.921433 0.8790 0.8790 0.8810 0.8810 0.8810
1750.564777 0.8810 0.8810 0.8810 0.8810 0.8810
1756.208120 0.8810 0.8810 0.8790 0.8790 0.8810
1761.851463 0.8810 0.8830 0.8830 0.8830 0.8830
1767.494807 0.8830 0.8830 0.8830 0.8830 0.8830
1773.138150 0.8840 0.8840 0.8840 0.8840 0.8840
1778.781493 0.8840 0.8840 0.8840 0.8840 0.8830
1784.424836 0.8830 0.8840 0.8840 0.8840 0.8840
1790.068180 0.8840 0.8840 0.8830 0.8840 0.8840
1795.711523 0.8840 0.8840 0.8840 0.8840 0.8840
1801.354866 0.8860 0.8860 0.8860 0.8860 0.8860
1806.998210 0.8860 0.8860 0.8860 0.8860 0.8860
1812.641553 0.8860 0.8860 0.8860 0.8840 0.8840
1818.284896 0.8840 0.8840 0.8840 0.8840 0.8840
1823.928239 0.8860 0.8860 0.8860 0.8880 0.8880
1829.571583 0.8880 0.8890 0.8890 0.8890 0.8890
1835.214926 0.8890 0.8890 0.8890 0.8890 0.8890
1840.858269 0.8890 0.8890 0.8890 0.8890 0.8890
1846.501613 0.8890 0.8890 0.8890 0.8910 0.8910
1852.144956 0.8910 0.8910 0.8910 0.8910 0.8910
1857.788299 0.8910 0.8910 0.8910 0.8910 0.8910
1863.431642 0.8910 0.8910 0.8910 0.8910 0.8890
1869.074986 0.8890 0.8890 0.8910 0.8910 0.8910
1874.718329 0.8910 0.8910 0.8910 0.8910 0.8910
1880.361672 0.8910 0.8910 0.8910 0.8910 0.8910
1886.005016 0.8910 0.8910 0.8910 0.8910 0.8910
1891.648359 0.8910 0.8910 0.8910 0.8910 0.8910
1897.291702 0.8910 0.8910 0.8910 0.8910 0.8930
1902.935045 0.8930 0.8930 0.8930 0.8930 0.8930
1908.578389 0.8930 0.8930 0.8930 0.8930 0.8930
1914.221732 0.8930 0.8930 0.8930 0.8930 0.8930
1919.865075 0.8930 0.8930 0.8930 0.8930 0.8930
1925.508419 0.8930 0.8930 0.8930 0.8930 0.8930
1931.151762 0.8930 0.8930 0.8910 0.8910 0.8910
1936.795105 0.8910 0.8930 0.8930 0.8930 0.8930
1942.438448 0.8930 0.8930 0.8930 0.8930 0.8930
1948.081792 0.8930 0.8930 0.8930 0.8930 0.8940
1953.725135 0.8940 0.8940 0.8940 0.8940 0.8940
1959.368478 0.8940 0.8940 0.8940 0.8940 0.8940
1965.011822 0.8940 0.8940 0.8940 0.8940 0.8940
1970.655165 0.8940 0.8940 0.8940 0.8940 0.8930
1976.298508 0.8930 0.8930 0.8930 0.8930 0.8930
1981.941851 0.8930 0.8930 0.8930 0.8930 0.8930
1987.585195 0.8930 0.8930 0.8930 0.8930 0.8930
1993.228538 0.8930 0.8910 0.8910 0.8910 0.8910
1998.871881 0.8910 0.8910 0.8910 0.8910 0.8906
2004.515225 0.8898 0.8890 0.8890 0.8890 0.8890
2010.158568 0.8890 0.8890 0.8890 0.8890 0.8890
2015.801911 0.8890 0.8890 0.8890 0.8890 0.8890
2021.445254 0.8890 0.8890 0.8890 0.8890 0.8890
2027.088598 0.8890 0.8890 0.8890 0.8890 0.8890
2032.731941 0.8890 0.8890 0.8890 0.8890 0.8890
2038.375284 0.8890 0.8890 0.8890 0.8890 0.8890
2044.018628 0.8890 0.8890 0.8890 0.8890 0.8890
2049.661971 0.8890 0.8890 0.8890 0.8890 0.8890
2055.305314 0.8890 0.8890 0.8890 0.8890 0.8888
2060.948657 0.8884 0.8880 0.8880 0.8880 0.8880
2066.592001 0.8880 0.8880 0.8880 0.8880 0.8880
2072.235344 0.8880 0.8880 0.8880 0.8880 0.8880
2077.878687 0.8880 0.8880 0.8880 0.8880 0.8880
2083.522031 0.8880 0.8880 0.8880 0.8880 0.8880
2089.165374 0.8880 0.8880 0.8880 0.8880 0.8880
2094.808717 0.8880 0.8879 0.8871 0.8863 0.8860
2100.452060 0.8860 0.8860 0.8860 0.8860 0.8860
2106.095404 0.8860 0.8860 0.8860 0.8860 0.8855
2111.738747 0.8847 0.8840 0.8840 0.8840 0.8840
2117.382090 0.8840 0.8840 0.8840 0.8840 0.8840
2123.025434 0.8840 0.8840 0.8840 0.8840 0.8840
2128.668777 0.8840 0.8840 0.8840 0.8840 0.8840
2134.312120 0.8840 0.8840 0.8840 0.8840 0.8845
2139.955463 0.8854 0.8860 0.8860 0.8860 0.8860
2145.598807 0.8860 0.8860 0.8860 0.8860 0.8860
2151.242150 0.8860 0.8860 0.8860 0.8860 0.8866
2156.885493 0.8874 0.8880 0.8880 0.8880 0.8880
2162.528837 0.8880 0.8880 0.8880 0.8880 0.8880
2168.172180 0.8880 0.8880 0.8880 0.8880 0.8880
2173.815523 0.8880 0.8881 0.8885 0.8889 0.8890
2179.458866 0.8890 0.8890 0.8890 0.8890 0.8890
2185.102210 0.8890 0.8890 0.8890 0.8890 0.8890
2190.745553 0.8890 0.8890 0.8890 0.8890 0.8896
2196.388896 0.8904 0.8910 0.8910 0.8910 0.8920
2202.032240 0.8932 0.8940 0.8940 0.8940 0.8940
2207.675583 0.8940 0.8940 0.8940 0.8940 0.8940
2213.318926 0.8940 0.8940 0.8940 0.8940 0.8940
2218.962269 0.8940 0.8940 0.8940 0.8940 0.8947
2224.605613 0.8955 0.8960 0.8960 0.8960 0.8960
2230.248956 0.8960 0.8960 0.8960 0.8960 0.8960
2235.892299 0.8960 0.8960 0.8960 0.8960 0.8960
2241.535643 0.8960 0.8960 0.8960 0.8960 0.8960
2247.178986 0.8960 0.8960 0.8960 0.8960 0.8960
2252.822329 0.8960 0.8960 0.8960 0.8960 0.8960
2258.465672 0.8960 0.8957 0.8949 0.8941 0.8936
2264.109016 0.8932 0.8930 0.8930 0.8930 0.8930
2269.752359 0.8930 0.8930 0.8930 0.8930 0.8930
2275.395702 0.8930 0.8930 0.8930 0.8930 0.8930
2281.039046 0.8930 0.8930 0.8930 0.8930 0.8930
2286.682389 0.8930 0.8930 0.8930 0.8930 0.8930
2292.325732 0.8930 0.8932 0.8936 0.8940 0.8940
2297.969075 0.8940 0.8940 0.8940 0.8940 0.8940
2303.612419 0.8940 0.8940 0.8940 0.8940 0.8940
2309.255762 0.8940 0.8940 0.8940 0.8940 0.8940
2314.899105 0.8940 0.8938 0.8934 0.8930 0.8930
2320.542449 0.8930 0.8930 0.8930 0.8930 0.8930
2326.185792 0.8930 0.8930 0.8930 0.8930 0.8930
2331.829135 0.8930 0.8930 0.8930 0.8930 0.8934
2337.472478 0.8938 0.8940 0.8940 0.8940 0.8940
2343.115822 0.8940 0.8940 0.8940 0.8940 0.8948
2348.759165 0.8956 0.8960 0.8960 0.8960 0.8960
2354.402508 0.8960 0.8960 0.8960 0.8960 0.8960
2360.045852 0.8960 0.8960 0.8960 0.8960 0.8960
2365.689195 0.8960 0.8960 0.8960 0.8960 0.8960
2371.332538 0.8960 0.8960 0.8960 0.8960 0.8960
2376.975881 0.8960 0.8960 0.8960 0.8960 0.8960
2382.619225 0.8960 0.8960 0.8960 0.8960 0.8960
2388.262568 0.8960 0.8960 0.8960 0.8960 0.8960
2393.905911 0.8960 0.8960 0.8960 0.8960 0.8960
2399.549255 0.8960 0.8960 0.8960 0.8960 0.8960
2405.192598 0.8960 0.8960 0.8960 0.8960 0.8960
2410.835941 0.8960 0.8960 0.8960 0.8960 0.8960
2416.479284 0.8960 0.8965 0.8973 0.8980 0.8980
2422.122628 0.8980 0.8980 0.8980 0.8980 0.8980
2427.765971 0.8980 0.8980 0.8980 0.8980 0.8980
2433.409314 0.8980 0.8985 0.8993 0.9000 0.9000
2439.052658 0.9000 0.9000 0.9000 0.9000 0.9000
2444.696001 0.9000 0.9000 0.9000 0.9000 0.9000
2450.339344 0.9000 0.9000 0.9000 0.9000 0.9000
2455.982687 0.9000 0.9000 0.9000 0.9000 0.9000
2461.626031 0.9000 0.9000 0.9000 0.9000 0.9000
2467.269374 0.9000 0.9000 0.9000 0.9000 0.9000
2472.912717 0.9000 0.9000 0.9000 0.9001 0.9005
2478.556061 0.9009 0.9010 0.9010 0.9010 0.9010
2484.199404 0.9010 0.9010 0.9010 0.9010 0.9010
2489.842747 0.9010 0.9016 0.9024 0.9030 0.9030
2495.486090 0.9030 0.9030 0.9030 0.9030 0.9030
2501.129434 0.9030 0.9030 0.9030 0.9030 0.9030
2506.772777 0.9030 0.9030 0.9030 0.9028 0.9020
2512.416120 0.9012 0.9016 0.9024 0.9030 0.9030
2518.059464 0.9030 0.9030 0.9030 0.9030 0.9030
2523.702807 0.9030 0.9024 0.9016 0.9010 0.9010
2529.346150 0.9010 0.9010 0.9010 0.9010 0.9010
2534.989493 0.9010 0.9016 0.9024 0.9030 0.9030
2540.632837 0.9030 0.9030 0.9030 0.9030 0.9030
2546.276180 0.9030 0.9030 0.9030 0.9028 0.9020
2551.919523 0.9012 0.9010 0.9010 0.9010 0.9010
2557.562867 0.9010 0.9016 0.9024 0.9033 0.9041
2563.206210 0.9049 0.9050 0.9050 0.9050 0.9050
2568.849553 0.9050 0.9050 0.9050 0.9050 0.9050
2574.492896 0.9050 0.9050 0.9050 0.9050 0.9050
2580.136240 0.9050 0.9050 0.9050 0.9050 0.9050
2585.779583 0.9050 0.9050 0.9050 0.9047 0.9039
2591.422926 0.9031 0.9030 0.9030 0.9030 0.9030
2597.066270 0.9030 0.9030 0.9030 0.9030 0.9030
2602.709613 0.9030 0.9037 0.9045 0.9050 0.9050
2608.352956 0.9050 0.9050 0.9050 0.9050 0.9050
2613.996299 0.9050 0.9050 0.9050 0.9050 0.9050
2619.639643 0.9050 0.9050 0.9050 0.9047 0.9039
2625.282986 0.9031 0.9030 0.9030 0.9030 0.9030
2630.926329 0.9030 0.9030 0.9030 0.9030 0.9030
2636.569673 0.9030 0.9030 0.9030 0.9030 0.9030
2642.213016 0.9030 0.9030 0.9030 0.9030 0.9030
2647.856359 0.9030 0.9030 0.9030 0.9030 0.9030
2653.499702 0.9030 0.9030 0.9030 0.9030 0.9030
2659.143046 0.9030 0.9030 0.9030 0.9034 0.9042
2664.786389 0.9050 0.9050 0.9050 0.9050 0.9050
2670.429732 0.9050 0.9050 0.9050 0.9050 0.9050
2676.073076 0.9050 0.9050 0.9050 0.9046 0.9038
2681.716419 0.9030 0.9030 0.9030 0.9030 0.9030
2687.359762 0.9030 0.9030 0.9030 0.9030 0.9030
2693.003105 0.9030 0.9030 0.9030 0.9030 0.9030
2698.646449 0.9030 0.9030 0.9030 0.9030 0.9030
2704.289792 0.9030 0.9030 0.9030 0.9030 0.9030
2709.933135 0.9030 0.9030 0.9030 0.9030 0.9030
2715.576479 0.9030 0.9030 0.9030 0.9030 0.9030
2721.219822 0.9030 0.9030 0.9030 0.9030 0.9030
2726.863165 0.9030 0.9030 0.9030 0.9030 0.9030
2732.506508 0.9030 0.9030 0.9030 0.9030 0.9030
2738.149852 0.9030 0.9030 0.9030 0.9025 0.9017
2743.793195 0.9010 0.9010 0.9010 0.9010 0.9010
2749.436538 0.9010 0.9006 0.9002 0.9000 0.9000
2755.079882 0.9000 0.9000 0.9000 0.9000 0.9000
2760.723225 0.8999 0.8991 0.8983 0.8980 0.8980
2766.366568 0.8980 0.8980 0.8980 0.8980 0.8980
2772.009911 0.8979 0.8971 0.8963 0.8960 0.8960
2777.653255 0.8960 0.8960 0.8960 0.8960 0.8960
2783.296598 0.8959 0.8951 0.8943 0.8940 0.8940
2788.939941 0.8940 0.8940 0.8940 0.8940 0.8940
2794.583285 0.8940 0.8940 0.8940 0.8937 0.8933
2800.226628 0.8930 0.8930 0.8930 0.8930 0.8930
2805.869971 0.8930 0.8930 0.8930 0.8930 0.8930
2811.513314 0.8930 0.8930 0.8930 0.8930 0.8930
2817.156658 0.8930 0.8930 0.8930 0.8924 0.8916
2822.800001 0.8910 0.8910 0.8910 0.8904 0.8896
2828.443344 0.8887 0.8875 0.8863 0.8845 0.8825
2834.086688 0.8806 0.8790 0.8774 0.8755 0.8735
2839.730031 0.8717 0.8705 0.8693 0.8550 0.8359
2845.373374 0.8171 0.7986 0.7802 0.7748 0.7732
2851.016717 0.7722 0.7730 0.7738 0.7777 0.7825
2856.660061 0.7884 0.7972 0.8060 0.8086 0.8094
2862.303404 0.8125 0.8217 0.8309 0.8398 0.8486
2867.946747 0.8550 0.8550 0.8550 0.8563 0.8579
2873.590091 0.8594 0.8606 0.8618 0.8626 0.8634
2879.233434 0.8640 0.8640 0.8640 0.8640 0.8640
2884.876777 0.8640 0.8640 0.8640 0.8630 0.8618
2890.520121 0.8605 0.8589 0.8573 0.8544 0.8512
2896.163464 0.8484 0.8464 0.8444 0.8420 0.8396
2901.806807 0.8364 0.8320 0.8276 0.8222 0.8166
2907.450150 0.8103 0.8027 0.7951 0.7872 0.7792
2913.093494 0.7702 0.7594 0.7485 0.7312 0.7128
2918.736837 0.7010 0.7010 0.7010 0.7007 0.7003
2924.380180 0.7001 0.7005 0.7009 0.7198 0.7418
2930.023524 0.7583 0.7667 0.7751 0.7832 0.7912
2935.666867 0.7990 0.8066 0.8142 0.8204 0.8264
2941.310210 0.8330 0.8406 0.8482 0.8537 0.8589
2946.953553 0.8631 0.8659 0.8687 0.8708 0.8728
2952.596897 0.8745 0.8757 0.8769 0.8796 0.8824
2958.240240 0.8847 0.8863 0.8879 0.8891 0.8903
2963.883583 0.8914 0.8922 0.8930 0.8930 0.8930
2969.526927 0.8932 0.8936 0.8940 0.8940 0.8940
2975.170270 0.8940 0.8940 0.8940 0.8940 0.8940
2980.813613 0.8940 0.8940 0.8940 0.8940 0.8940
2986.456956 0.8940 0.8940 0.8940 0.8940 0.8940
2992.100300 0.8940 0.8940 0.8940 0.8940 0.8940
2997.743643 0.8940 0.8940 0.8940 0.8940 0.8940
3003.386986 0.8940 0.8940 0.8940 0.8940 0.8940
3009.030330 0.8940 0.8940 0.8940 0.8940 0.8940
3014.673673 0.8940 0.8940 0.8940 0.8940 0.8940
3020.317016 0.8940 0.8940 0.8940 0.8940 0.8940
3025.960359 0.8940 0.8940 0.8940 0.8940 0.8940
3031.603703 0.8940 0.8940 0.8940 0.8936 0.8932
3037.247046 0.8930 0.8930 0.8930 0.8930 0.8930
3042.890389 0.8930 0.8930 0.8930 0.8930 0.8930
3048.533733 0.8925 0.8917 0.8910 0.8910 0.8910
3054.177076 0.8910 0.8910 0.8910 0.8910 0.8910
3059.820419 0.8910 0.8910 0.8910 0.8910 0.8910
3065.463762 0.8910 0.8910 0.8910 0.8910 0.8910
3071.107106 0.8910 0.8910 0.8910 0.8910 0.8910
3076.750449 0.8910 0.8910 0.8909 0.8901 0.8893
3082.393792 0.8890 0.8890 0.8890 0.8890 0.8890
3088.037136 0.8890 0.8890 0.8890 0.8886 0.8882
3093.680479 0.8875 0.8867 0.8860 0.8860 0.8860
3099.323822 0.8855 0.8847 0.8840 0.8840 0.8840
3104.967165 0.8837 0.8833 0.8830 0.8830 0.8830
3110.610509 0.8825 0.8817 0.8810 0.8810 0.8810
3116.253852 0.8810 0.8810 0.8810 0.8810 0.8810
3121.897195 0.8810 0.8810 0.8809 0.8801 0.8792
3127.540539 0.8784 0.8776 0.8770 0.8770 0.8770
3133.183882 0.8770 0.8770 0.8770 0.8770 0.8770
3138.827225 0.8770 0.8770 0.8770 0.8770 0.8770
3144.470568 0.8776 0.8784 0.8790 0.8790 0.8790
3150.113912 0.8790 0.8790 0.8790 0.8790 0.8790
3155.757255 0.8790 0.8790 0.8788 0.8780 0.8772
3161.400598 0.8770 0.8770 0.8770 0.8770 0.8770
3167.043942 0.8767 0.8763 0.8760 0.8760 0.8760
3172.687285 0.8754 0.8746 0.8740 0.8740 0.8740
3178.330628 0.8734 0.8726 0.8719 0.8715 0.8711
3183.973971 0.8710 0.8710 0.8710 0.8710 0.8710
3189.617315 0.8710 0.8710 0.8710 0.8710 0.8710
3195.260658 0.8710 0.8710 0.8710 0.8710 0.8710
3200.904001 0.8710 0.8710 0.8710 0.8710 0.8710
3206.547345 0.8710 0.8710 0.8710 0.8710 0.8710
3212.190688 0.8710 0.8710 0.8710 0.8710 0.8710
3217.834031 0.8710 0.8710 0.8710 0.8710 0.8710
3223.477374 0.8710 0.8710 0.8710 0.8710 0.8710
3229.120718 0.8710 0.8710 0.8710 0.8710 0.8710
3234.764061 0.8710 0.8710 0.8710 0.8710 0.8710
3240.407404 0.8710 0.8710 0.8710 0.8710 0.8710
3246.050748 0.8710 0.8710 0.8710 0.8710 0.8710
3251.694091 0.8710 0.8710 0.8710 0.8710 0.8710
3257.337434 0.8710 0.8710 0.8710 0.8710 0.8710
3262.980777 0.8703 0.8695 0.8690 0.8690 0.8690
3268.624121 0.8690 0.8690 0.8690 0.8690 0.8690
3274.267464 0.8690 0.8690 0.8687 0.8679 0.8671
3279.910807 0.8677 0.8685 0.8690 0.8690 0.8690
3285.554151 0.8690 0.8690 0.8690 0.8690 0.8690
3291.197494 0.8690 0.8690 0.8693 0.8701 0.8710
3296.840837 0.8710 0.8710 0.8710 0.8710 0.8710
3302.484180 0.8710 0.8710 0.8710 0.8710 0.8710
3308.127524 0.8710 0.8710 0.8710 0.8710 0.8710
3313.770867 0.8710 0.8710 0.8710 0.8710 0.8710
3319.414210 0.8710 0.8710 0.8710 0.8710 0.8710
3325.057554 0.8710 0.8710 0.8710 0.8710 0.8710
3330.700897 0.8710 0.8710 0.8710 0.8710 0.8710
3336.344240 0.8710 0.8710 0.8710 0.8710 0.8710
3341.987583 0.8710 0.8710 0.8710 0.8710 0.8710
3347.630927 0.8710 0.8710 0.8710 0.8710 0.8710
3353.274270 0.8710 0.8710 0.8710 0.8710 0.8710
3358.917613 0.8710 0.8710 0.8710 0.8710 0.8710
3364.560957 0.8710 0.8710 0.8710 0.8710 0.8710
3370.204300 0.8710 0.8710 0.8710 0.8710 0.8710
3375.847643 0.8710 0.8710 0.8710 0.8710 0.8710
3381.490986 0.8710 0.8710 0.8710 0.8710 0.8710
3387.134330 0.8710 0.8710 0.8710 0.8710 0.8710
3392.777673 0.8710 0.8710 0.8710 0.8710 0.8710
3398.421016 0.8710 0.8710 0.8712 0.8716 0.8721
3404.064360 0.8729 0.8737 0.8740 0.8740 0.8741
3409.707703 0.8749 0.8757 0.8760 0.8760 0.8760
3415.351046 0.8764 0.8768 0.8770 0.8770 0.8770
3420.994389 0.8770 0.8770 0.8770 0.8770 0.8770
3426.637733 0.8770 0.8770 0.8770 0.8770 0.8771
3432.281076 0.8779 0.8787 0.8790 0.8790 0.8790
3437.924419 0.8790 0.8790 0.8790 0.8790 0.8791
3443.567763 0.8799 0.8807 0.8810 0.8810 0.8810
3449.211106 0.8810 0.8810 0.8815 0.8823 0.8830
3454.854449 0.8830 0.8830 0.8830 0.8830 0.8830
3460.497792 0.8830 0.8830 0.8830 0.8830 0.8830
3466.141136 0.8830 0.8830 0.8830 0.8830 0.8830
3471.784479 0.8830 0.8830 0.8830 0.8830 0.8830
3477.427822 0.8830 0.8830 0.8830 0.8830 0.8831
3483.071166 0.8835 0.8839 0.8840 0.8840 0.8840
3488.714509 0.8840 0.8840 0.8840 0.8840 0.8840
3494.357852 0.8840 0.8840 0.8846 0.8854 0.8860
3500.001195 0.8860 0.8860 0.8860 0.8860 0.8860
3505.644539 0.8860 0.8860 0.8860 0.8860 0.8862
3511.287882 0.8870 0.8878 0.8880 0.8880 0.8880
3516.931225 0.8880 0.8880 0.8880 0.8880 0.8880
3522.574569 0.8880 0.8880 0.8880 0.8880 0.8880
3528.217912 0.8880 0.8880 0.8880 0.8880 0.8880
3533.861255 0.8880 0.8880 0.8880 0.8880 0.8880
3539.504598 0.8880 0.8880 0.8880 0.8880 0.8880
3545.147942 0.8880 0.8880 0.8880 0.8880 0.8880
3550.791285 0.8880 0.8880 0.8880 0.8880 0.8880
3556.434628 0.8880 0.8880 0.8880 0.8880 0.8880
3562.077972 0.8880 0.8880 0.8883 0.8887 0.8890
3567.721315 0.8890 0.8890 0.8890 0.8890 0.8889
3573.364658 0.8885 0.8881 0.8880 0.8880 0.8880
3579.008001 0.8880 0.8880 0.8883 0.8887 0.8897
3584.651345 0.8917 0.8937 0.8947 0.8955 0.8963
3590.294688 0.8971 0.8979 0.8980 0.8980 0.8983
3595.938031 0.8991 0.8999 0.9000 0.9000 0.9001
3601.581375 0.9005 0.9009 0.9010 0.9010 0.9010
3607.224718 0.9010 0.9010 0.9010 0.9010 0.9013
3612.868061 0.9021 0.9029 0.9030 0.9030 0.9030
3618.511404 0.9030 0.9030 0.9030 0.9030 0.9030
3624.154748 0.9030 0.9030 0.9030 0.9030 0.9030
3629.798091 0.9030 0.9030 0.9030 0.9030 0.9030
3635.441434 0.9030 0.9030 0.9038 0.9046 0.9050
3641.084778 0.9050 0.9050 0.9050 0.9050 0.9052
3646.728121 0.9056 0.9060 0.9060 0.9060 0.9060
3652.371464 0.9060 0.9060 0.9075 0.9091 0.9100
3658.014807 0.9100 0.9100 0.9104 0.9108 0.9110
3663.658151 0.9110 0.9110 0.9110 0.9110 0.9110
3669.301494 0.9110 0.9110 0.9110 0.9110 0.9110
3674.944837 0.9110 0.9110 0.9110 0.9110 0.9110
3680.588181 0.9110 0.9110 0.9110 0.9110 0.9110
3686.231524 0.9110 0.9110 0.9110 0.9110 0.9110
3691.874867 0.9110 0.9110 0.9110 0.9110 0.9110
3697.518210 0.9110 0.9110 0.9110 0.9110 0.9110
3703.161554 0.9110 0.9110 0.9110 0.9110 0.9110
3708.804897 0.9110 0.9110 0.9110 0.9110 0.9110
3714.448240 0.9110 0.9110 0.9110 0.9110 0.9110
3720.091584 0.9110 0.9110 0.9110 0.9110 0.9110
3725.734927 0.9110 0.9110 0.9110 0.9110 0.9110
3731.378270 0.9110 0.9110 0.9110 0.9110 0.9110
3737.021613 0.9110 0.9110 0.9110 0.9110 0.9110
3742.664957 0.9110 0.9110 0.9110 0.9110 0.9110
3748.308300 0.9110 0.9110 0.9110 0.9110 0.9110
3753.951643 0.9110 0.9110 0.9110 0.9110 0.9110
3759.594987 0.9110 0.9110 0.9110 0.9110 0.9110
3765.238330 0.9110 0.9110 0.9110 0.9110 0.9110
3770.881673 0.9110 0.9111 0.9119 0.9127 0.9130
3776.525016 0.9130 0.9130 0.9130 0.9130 0.9130
3782.168360 0.9130 0.9130 0.9130 0.9130 0.9130
3787.811703 0.9130 0.9130 0.9130 0.9130 0.9130
3793.455046 0.9130 0.9130 0.9130 0.9130 0.9130
3799.098390 0.9130 0.9130 0.9130 0.9130 0.9130
3804.741733 0.9130 0.9130 0.9130 0.9130 0.9130
3810.385076 0.9130 0.9130 0.9130 0.9130 0.9130
3816.028419 0.9130 0.9130 0.9130 0.9130 0.9130
3821.671763 0.9130 0.9130 0.9130 0.9130 0.9130
3827.315106 0.9130 0.9130 0.9130 0.9130 0.9130
3832.958449 0.9130 0.9130 0.9130 0.9130 0.9130
3838.601793 0.9130 0.9130 0.9130 0.9130 0.9130
3844.245136 0.9130 0.9130 0.9130 0.9130 0.9130
3849.888479 0.9130 0.9130 0.9130 0.9130 0.9130
3855.531822 0.9130 0.9130 0.9130 0.9130 0.9130
3861.175166 0.9130 0.9130 0.9130 0.9130 0.9130
3866.818509 0.9130 0.9130 0.9130 0.9130 0.9130
3872.461852 0.9130 0.9130 0.9130 0.9130 0.9130
3878.105196 0.9130 0.9130 0.9130 0.9130 0.9130
3883.748539 0.9130 0.9130 0.9130 0.9130 0.9130
3889.391882 0.9130 0.9130 0.9130 0.9130 0.9130
3895.035225 0.9130 0.9130 0.9130 0.9130 0.9130
3900.678569 0.9130 0.9130 0.9130 0.9130 0.9130
3906.321912 0.9130 0.9130 0.9130 0.9130 0.9130
3911.965255 0.9130 0.9130 0.9130 0.9130 0.9130
3917.608599 0.9130 0.9130 0.9130 0.9130 0.9130
3923.251942 0.9130 0.9130 0.9130 0.9130 0.9130
3928.895285 0.9130 0.9130 0.9130 0.9130 0.9137
3934.538628 0.9145 0.9150 0.9150 0.9150 0.9150
3940.181972 0.9150 0.9150 0.9150 0.9150 0.9150
3945.825315 0.9150 0.9150 0.9150 0.9150 0.9150
3951.468658 0.9150 0.9150 0.9150 0.9150 0.9150
3957.112002 0.9150 0.9150 0.9150 0.9150 0.9150
3962.755345 0.9150 0.9150 0.9150 0.9150 0.9150
3968.398688 0.9150 0.9150 0.9150 0.9150 0.9150
3974.042031 0.9150 0.9150 0.9150 0.9150 0.9150
3979.685375 0.9150 0.9150 0.9150 0.9150 0.9150
3985.328718 0.9150 0.9150 0.9150 0.9150 0.9150
3990.972061 0.9150 0.9150 0.9150 0.9150
##END=
