##TITLE=MOLYBDENUM OXALATE
##JCAMP-DX=4.24
##DATA TYPE=INFRARED SPECTRUM
##CLASS=COBLENTZ
##OWNER=COBLENTZ SOCIETY
Collection (C) 2018 copyright by the U.S. Secretary of Commerce
on behalf of the United States of America. All rights reserved.
##DATE=Not specified, most likely prior to 1970
##MOLFORM=Mo C2 O4  * 3 H2 O
##SOURCE REFERENCE=COBLENTZ NO. 72
##$NIST ID=B6000072
##$NIST SOURCE=COBLENTZ
##$NIST IMAGE=cob72
##SPECTROMETER/DATA SYSTEM=Not specified, most likely a prism, grating, or hybrid spectrometer.
##STATE=SOLID (KBr DISC)
##SAMPLING PROCEDURE=TRANSMISSION
##RESOLUTION=4
##DATA PROCESSING=DIGITIZED BY NIST FROM HARD COPY
##XUNITS=MICROMETERS
##YUNITS=TRANSMITTANCE
##XFACTOR=1.000000
##YFACTOR=1
##DELTAX=000.007634
##FIRSTX=2.069
##LASTX=15.0225
##FIRSTY=0.88
##MAXX=15.0225
##MINX=2.069
##MAXY=0.926
##MINY=0.339
##NPOINTS=1698
##XYDATA=(X++(Y..Y))
2.069000 0.8800 0.8830 0.8850 0.8860 0.8860
2.107190 0.8860 0.8880 0.8880 0.8890 0.8890
2.145000 0.8910 0.8910 0.8920 0.8920 0.8920
2.183190 0.8940 0.8940 0.8950 0.8970 0.8970
2.221000 0.8970 0.8980 0.8980 0.8980 0.9000
2.259190 0.9000 0.9000 0.9000 0.9000 0.9010
2.298000 0.9010 0.9010 0.9030 0.9030 0.9040
2.336190 0.9040 0.9040 0.9040 0.9040 0.9060
2.374000 0.9070 0.9070 0.9070 0.9090 0.9090
2.412190 0.9090 0.9090 0.9090 0.9090 0.9090
2.450000 0.9090 0.9090 0.9090 0.9100 0.9100
2.488190 0.9100 0.9100 0.9120 0.9100 0.9100
2.527000 0.9100 0.9100 0.9100 0.9100 0.9100
2.565190 0.9120 0.9100 0.9100 0.9100 0.9120
2.603000 0.9120 0.9120 0.9130 0.9150 0.9180
2.641190 0.9180 0.9180 0.9180 0.9180 0.9180
2.679000 0.9190 0.9190 0.9190 0.9190 0.9190
2.717190 0.9210 0.9210 0.9190 0.9180 0.9120
2.756000 0.8940 0.8730 0.8590 0.8280 0.7970
2.794190 0.7570 0.7280 0.7160 0.7040 0.6900
2.832000 0.6450 0.6140 0.5940 0.5760 0.5660
2.870190 0.5540 0.5360 0.5180 0.5050 0.4730
2.908000 0.4570 0.4380 0.4320 0.4240 0.4090
2.946190 0.3990 0.3930 0.3910 0.3910 0.3910
2.985000 0.3910 0.3930 0.4020 0.4180 0.4630
3.023190 0.4840 0.4990 0.5080 0.5150 0.5290
3.061000 0.5390 0.5510 0.5570 0.5670 0.5820
3.099190 0.5900 0.6000 0.6080 0.6250 0.6310
3.137000 0.6370 0.6450 0.6540 0.6610 0.6690
3.175190 0.6730 0.6790 0.6820 0.6870 0.6950
3.214000 0.7000 0.7030 0.7120 0.7250 0.7300
3.252190 0.7390 0.7450 0.7510 0.7520 0.7550
3.290000 0.7570 0.7600 0.7610 0.7630 0.7640
3.328190 0.7660 0.7660 0.7660 0.7660 0.7660
3.366000 0.7660 0.7670 0.7670 0.7670 0.7670
3.404190 0.7670 0.7670 0.7670 0.7670 0.7670
3.443000 0.7670 0.7690 0.7690 0.7690 0.7690
3.481190 0.7690 0.7690 0.7690 0.7690 0.7690
3.519000 0.7690 0.7690 0.7670 0.7670 0.7670
3.557190 0.7690 0.7690 0.7690 0.7690 0.7690
3.595000 0.7690 0.7700 0.7700 0.7710 0.7730
3.633190 0.7740 0.7760 0.7770 0.7800 0.7850
3.672000 0.7860 0.7890 0.7920 0.8000 0.8040
3.710190 0.8060 0.8100 0.8160 0.8190 0.8240
3.748000 0.8270 0.8300 0.8330 0.8360 0.8370
3.786190 0.8400 0.8420 0.8430 0.8450 0.8450
3.824000 0.8450 0.8450 0.8450 0.8450 0.8430
3.862190 0.8430 0.8400 0.8390 0.8390 0.8370
3.901000 0.8370 0.8360 0.8360 0.8360 0.8360
3.939190 0.8360 0.8370 0.8370 0.8400 0.8430
3.977000 0.8450 0.8460 0.8460 0.8470 0.8490
4.015190 0.8490 0.8500 0.8530 0.8550 0.8560
4.053000 0.8580 0.8580 0.8580 0.8580 0.8580
4.091190 0.8580 0.8590 0.8590 0.8590 0.8610
4.130000 0.8620 0.8640 0.8650 0.8670 0.8680
4.168190 0.8710 0.8730 0.8790 0.8790 0.8800
4.206000 0.8800 0.8800 0.8800 0.8820 0.8820
4.244190 0.8820 0.8820 0.8820 0.8830 0.8830
4.282000 0.8830 0.8830 0.8830 0.8830 0.8850
4.320190 0.8860 0.8880 0.8910 0.8940 0.8950
4.359000 0.8980 0.9010 0.9070 0.9090 0.9100
4.397190 0.9100 0.9100 0.9100 0.9100 0.9100
4.435000 0.9120 0.9120 0.9130 0.9150 0.9150
4.473190 0.9150 0.9160 0.9160 0.9180 0.9190
4.511000 0.9190 0.9180 0.9180 0.9190 0.9190
4.549190 0.9190 0.9190 0.9190 0.9190 0.9210
4.588000 0.9210 0.9210 0.9210 0.9210 0.9210
4.626190 0.9210 0.9210 0.9230 0.9230 0.9230
4.664000 0.9230 0.9230 0.9230 0.9230 0.9250
4.702190 0.9250 0.9250 0.9250 0.9250 0.9230
4.740000 0.9230 0.9230 0.9230 0.9230 0.9230
4.778190 0.9230 0.9250 0.9250 0.9230 0.9230
4.817000 0.9250 0.9250 0.9250 0.9250 0.9250
4.855190 0.9250 0.9250 0.9260 0.9260 0.9250
4.893000 0.9260 0.9260 0.9250 0.9250 0.9250
4.931190 0.9260 0.9260 0.9260 0.9250 0.9250
4.969000 0.9250 0.9250 0.9250 0.9250 0.9250
5.007190 0.9250 0.9250 0.9250 0.9250 0.9250
5.046000 0.9250 0.9250 0.9250 0.9250 0.9250
5.084190 0.9230 0.9230 0.9230 0.9220 0.9220
5.122000 0.9210 0.9210 0.9210 0.9210 0.9220
5.160190 0.9210 0.9210 0.9210 0.9210 0.9210
5.198000 0.9210 0.9210 0.9220 0.9220 0.9220
5.236190 0.9220 0.9220 0.9220 0.9220 0.9220
5.275000 0.9220 0.9220 0.9220 0.9220 0.9230
5.313190 0.9230 0.9220 0.9220 0.9230 0.9230
5.351000 0.9250 0.9250 0.9250 0.9250 0.9250
5.389190 0.9250 0.9250 0.9250 0.9250 0.9250
5.427000 0.9250 0.9230 0.9220 0.9220 0.9210
5.465190 0.9190 0.9180 0.9150 0.9120 0.9100
5.504000 0.9070 0.9060 0.9030 0.9000 0.8950
5.542190 0.8890 0.8820 0.8740 0.8680 0.8610
5.580000 0.8560 0.8500 0.8370 0.8190 0.7830
5.618190 0.7700 0.7610 0.7510 0.7400 0.7300
5.656000 0.7160 0.7070 0.6980 0.6790 0.6640
5.694190 0.6400 0.6310 0.6190 0.6080 0.5940
5.733000 0.5820 0.5750 0.5700 0.5640 0.5380
5.771190 0.5110 0.4570 0.4380 0.4360 0.4330
5.809000 0.4320 0.4300 0.4300 0.4290 0.4300
5.847190 0.4320 0.4350 0.4350 0.4300 0.4270
5.885000 0.4230 0.4110 0.3850 0.3690 0.3660
5.923190 0.3620 0.3480 0.3410 0.3390 0.3390
5.962000 0.3410 0.3440 0.3450 0.3480 0.3540
6.000190 0.3620 0.3650 0.3690 0.3740 0.3810
6.038000 0.3880 0.3990 0.4140 0.4350 0.4420
6.076190 0.4510 0.4630 0.4730 0.4820 0.4880
6.115000 0.4970 0.5030 0.5110 0.5150 0.5230
6.153190 0.5270 0.5320 0.5400 0.5430 0.5460
6.191000 0.5490 0.5520 0.5570 0.5660 0.5900
6.229190 0.5970 0.6120 0.6250 0.6420 0.6520
6.267000 0.6670 0.6790 0.6920 0.7090 0.7310
6.305190 0.7390 0.7450 0.7540 0.7630 0.7690
6.344000 0.7740 0.7790 0.7850 0.7940 0.7970
6.382190 0.7980 0.8000 0.8010 0.8010 0.8060
6.420000 0.8120 0.8190 0.8240 0.8280 0.8310
6.458190 0.8360 0.8370 0.8390 0.8390 0.8430
6.496000 0.8470 0.8500 0.8640 0.8640 0.8640
6.534190 0.8650 0.8650 0.8650 0.8650 0.8650
6.573000 0.8670 0.8700 0.8730 0.8730 0.8730
6.611190 0.8740 0.8760 0.8770 0.8800 0.8820
6.649000 0.8820 0.8820 0.8820 0.8820 0.8800
6.687190 0.8800 0.8800 0.8820 0.8820 0.8830
6.725000 0.8820 0.8820 0.8820 0.8820 0.8820
6.763190 0.8820 0.8820 0.8820 0.8820 0.8790
6.802000 0.8770 0.8770 0.8760 0.8740 0.8710
6.840190 0.8700 0.8680 0.8680 0.8680 0.8680
6.878000 0.8670 0.8650 0.8640 0.8620 0.8620
6.916190 0.8620 0.8580 0.8580 0.8560 0.8560
6.954000 0.8560 0.8560 0.8550 0.8530 0.8530
6.992190 0.8530 0.8500 0.8470 0.8460 0.8460
7.031000 0.8430 0.8420 0.8400 0.8390 0.8340
7.069190 0.8270 0.8190 0.8070 0.7910 0.7880
7.107000 0.7830 0.7760 0.7700 0.7610 0.7610
7.145190 0.7600 0.7600 0.7580 0.7580 0.7580
7.183000 0.7580 0.7580 0.7580 0.7580 0.7600
7.221190 0.7600 0.7610 0.7630 0.7670 0.7710
7.260000 0.7740 0.7770 0.7820 0.7860 0.7890
7.298190 0.7970 0.7980 0.7980 0.7980 0.7970
7.336000 0.7820 0.7760 0.7710 0.7580 0.7570
7.374190 0.7580 0.7600 0.7630 0.7690 0.7740
7.412000 0.7800 0.7890 0.7980 0.8040 0.8120
7.450190 0.8190 0.8210 0.8220 0.8280 0.8370
7.489000 0.8450 0.8450 0.8460 0.8460 0.8470
7.527190 0.8470 0.8470 0.8470 0.8470 0.8460
7.565000 0.8460 0.8450 0.8450 0.8430 0.8400
7.603190 0.8390 0.8370 0.8340 0.8310 0.8280
7.641000 0.8240 0.8220 0.8210 0.8190 0.8190
7.679190 0.8190 0.8190 0.8190 0.8210 0.8210
7.718000 0.8220 0.8220 0.8220 0.8220 0.8240
7.756190 0.8240 0.8240 0.8250 0.8250 0.8240
7.794000 0.8240 0.8240 0.8240 0.8240 0.8240
7.832190 0.8220 0.8220 0.8210 0.8190 0.8180
7.870000 0.8160 0.8150 0.8150 0.8120 0.8090
7.908190 0.8040 0.8030 0.8010 0.8000 0.7970
7.947000 0.7950 0.7910 0.7890 0.7860 0.7830
7.985190 0.7820 0.7800 0.7790 0.7770 0.7760
8.023000 0.7760 0.7740 0.7730 0.7700 0.7700
8.061190 0.7670 0.7660 0.7660 0.7640 0.7640
8.099000 0.7630 0.7630 0.7630 0.7610 0.7600
8.137190 0.7580 0.7570 0.7550 0.7540 0.7510
8.176000 0.7480 0.7450 0.7420 0.7390 0.7360
8.214190 0.7340 0.7300 0.7280 0.7250 0.7210
8.252000 0.7160 0.7150 0.7130 0.7060 0.7040
8.290190 0.7030 0.7010 0.7010 0.7000 0.7000
8.328000 0.7000 0.7000 0.7000 0.7010 0.7030
8.366190 0.7060 0.7130 0.7250 0.7360 0.7400
8.405000 0.7460 0.7510 0.7600 0.7660 0.7710
8.443190 0.7830 0.7880 0.7910 0.7950 0.8010
8.481000 0.8060 0.8100 0.8160 0.8220 0.8280
8.519190 0.8330 0.8400 0.8450 0.8470 0.8520
8.557000 0.8550 0.8610 0.8640 0.8650 0.8680
8.595190 0.8710 0.8730 0.8740 0.8760 0.8770
8.634000 0.8800 0.8820 0.8820 0.8830 0.8830
8.672190 0.8830 0.8860 0.8860 0.8860 0.8880
8.710000 0.8890 0.8890 0.8910 0.8920 0.8920
8.748190 0.8940 0.8940 0.8950 0.8950 0.8970
8.786000 0.8970 0.9000 0.9000 0.9000 0.9000
8.824190 0.9000 0.9010 0.9010 0.9010 0.9010
8.863000 0.9010 0.9030 0.9040 0.9040 0.9040
8.901190 0.9060 0.9060 0.9070 0.9070 0.9070
8.939000 0.9070 0.9070 0.9070 0.9070 0.9070
8.977190 0.9090 0.9090 0.9090 0.9100 0.9120
9.015000 0.9120 0.9130 0.9130 0.9150 0.9160
9.053190 0.9180 0.9190 0.9190 0.9190 0.9210
9.092000 0.9210 0.9220 0.9230 0.9230 0.9230
9.130190 0.9230 0.9230 0.9230 0.9250 0.9230
9.168000 0.9230 0.9250 0.9250 0.9230 0.9250
9.206190 0.9230 0.9230 0.9250 0.9250 0.9250
9.244000 0.9250 0.9250 0.9250 0.9250 0.9260
9.282190 0.9260 0.9260 0.9260 0.9260 0.9260
9.321000 0.9250 0.9250 0.9250 0.9260 0.9260
9.359190 0.9250 0.9250 0.9250 0.9260 0.9260
9.397000 0.9250 0.9250 0.9250 0.9250 0.9250
9.435190 0.9230 0.9230 0.9230 0.9220 0.9220
9.473000 0.9220 0.9220 0.9230 0.9230 0.9220
9.511190 0.9220 0.9220 0.9220 0.9220 0.9220
9.550000 0.9210 0.9210 0.9210 0.9210 0.9210
9.588190 0.9210 0.9190 0.9190 0.9190 0.9190
9.626000 0.9180 0.9180 0.9180 0.9180 0.9180
9.664190 0.9180 0.9180 0.9180 0.9180 0.9180
9.702000 0.9160 0.9160 0.9160 0.9150 0.9150
9.740190 0.9130 0.9130 0.9120 0.9120 0.9120
9.779000 0.9100 0.9100 0.9090 0.9090 0.9070
9.817190 0.9070 0.9070 0.9070 0.9070 0.9070
9.855000 0.9060 0.9060 0.9040 0.9040 0.9030
9.893190 0.9030 0.9030 0.9030 0.9030 0.9030
9.931000 0.9010 0.9010 0.9010 0.9010 0.9000
9.969190 0.8980 0.8980 0.8980 0.8970 0.8970
10.008000 0.8950 0.8950 0.8950 0.8950 0.8950
10.046190 0.8940 0.8920 0.8910 0.8890 0.8890
10.084000 0.8890 0.8880 0.8860 0.8830 0.8820
10.122190 0.8790 0.8790 0.8770 0.8710 0.8710
10.160000 0.8650 0.8590 0.8580 0.8560 0.8530
10.198190 0.8470 0.8400 0.8370 0.8310 0.8130
10.237000 0.7970 0.7800 0.7610 0.7400 0.7150
10.275190 0.6750 0.6330 0.6090 0.5940 0.5810
10.313000 0.5660 0.5520 0.5490 0.5490 0.5490
10.351190 0.5600 0.5670 0.5960 0.6190 0.6370
10.389000 0.6460 0.6520 0.6570 0.6630 0.6640
10.427190 0.6640 0.6640 0.6600 0.6540 0.6400
10.466000 0.6310 0.6210 0.6120 0.6020 0.5900
10.504190 0.5780 0.5730 0.5690 0.5610 0.5570
10.542000 0.5550 0.5550 0.5540 0.5540 0.5580
10.580190 0.5660 0.5880 0.5960 0.6000 0.6080
10.618000 0.6140 0.6210 0.6250 0.6300 0.6300
10.656190 0.6300 0.6300 0.6300 0.6250 0.6190
10.695000 0.6150 0.6090 0.6000 0.5940 0.5910
10.733190 0.5900 0.5880 0.5870 0.5850 0.5850
10.771000 0.5850 0.5850 0.5850 0.5850 0.5850
10.809190 0.5850 0.5870 0.5870 0.5880 0.5910
10.847000 0.5910 0.5930 0.5930 0.5940 0.5940
10.885190 0.5970 0.5990 0.5990 0.5990 0.6000
10.924000 0.6000 0.6020 0.6020 0.6020 0.6030
10.962190 0.6030 0.6030 0.6050 0.6050 0.6060
11.000000 0.6080 0.6080 0.6090 0.6110 0.6140
11.038190 0.6140 0.6150 0.6160 0.6180 0.6190
11.076000 0.6220 0.6250 0.6340 0.6370 0.6430
11.114190 0.6510 0.6540 0.6600 0.6630 0.6660
11.153000 0.6700 0.6780 0.6820 0.6880 0.6900
11.191190 0.6940 0.6980 0.7040 0.7100 0.7220
11.229000 0.7270 0.7310 0.7360 0.7400 0.7450
11.267190 0.7460 0.7510 0.7550 0.7570 0.7600
11.305000 0.7630 0.7640 0.7660 0.7690 0.7700
11.343190 0.7700 0.7700 0.7710 0.7730 0.7730
11.382000 0.7730 0.7740 0.7740 0.7760 0.7770
11.420190 0.7770 0.7770 0.7790 0.7790 0.7790
11.458000 0.7790 0.7790 0.7790 0.7790 0.7790
11.496190 0.7800 0.7800 0.7800 0.7800 0.7800
11.534000 0.7820 0.7800 0.7800 0.7800 0.7800
11.572190 0.7820 0.7820 0.7820 0.7820 0.7820
11.611000 0.7820 0.7820 0.7800 0.7800 0.7790
11.649190 0.7770 0.7770 0.7760 0.7740 0.7740
11.687000 0.7730 0.7700 0.7700 0.7690 0.7670
11.725190 0.7660 0.7640 0.7630 0.7610 0.7600
11.763000 0.7580 0.7570 0.7550 0.7540 0.7520
11.801190 0.7490 0.7460 0.7450 0.7420 0.7390
11.840000 0.7360 0.7330 0.7300 0.7270 0.7240
11.878190 0.7210 0.7150 0.7130 0.7120 0.7090
11.916000 0.7060 0.7010 0.6970 0.6910 0.6820
11.954190 0.6790 0.6780 0.6720 0.6670 0.6660
11.992000 0.6610 0.6570 0.6510 0.6420 0.6390
12.030190 0.6330 0.6300 0.6240 0.6190 0.6140
12.069000 0.6090 0.6030 0.6000 0.5960 0.5910
12.107190 0.5870 0.5850 0.5780 0.5720 0.5700
12.145000 0.5670 0.5630 0.5550 0.5540 0.5510
12.183190 0.5480 0.5460 0.5460 0.5460 0.5480
12.221000 0.5480 0.5480 0.5480 0.5480 0.5480
12.259190 0.5480 0.5490 0.5490 0.5520 0.5550
12.298000 0.5550 0.5570 0.5580 0.5580 0.5580
12.336190 0.5570 0.5520 0.5490 0.5430 0.5390
12.374000 0.5360 0.5300 0.5260 0.5200 0.5120
12.412190 0.5050 0.5020 0.4990 0.4960 0.4870
12.450000 0.4820 0.4810 0.4760 0.4700 0.4660
12.488190 0.4600 0.4570 0.4510 0.4480 0.4450
12.527000 0.4440 0.4440 0.4420 0.4420 0.4420
12.565190 0.4410 0.4410 0.4410 0.4410 0.4410
12.603000 0.4410 0.4420 0.4420 0.4440 0.4470
12.641190 0.4510 0.4560 0.4600 0.4670 0.4700
12.679000 0.4780 0.4810 0.4850 0.4900 0.4960
12.717190 0.4990 0.5060 0.5090 0.5140 0.5150
12.756000 0.5200 0.5230 0.5270 0.5300 0.5320
12.794190 0.5350 0.5360 0.5380 0.5420 0.5450
12.832000 0.5460 0.5510 0.5520 0.5550 0.5570
12.870190 0.5600 0.5630 0.5640 0.5670 0.5690
12.908000 0.5720 0.5750 0.5760 0.5760 0.5760
12.946190 0.5810 0.5840 0.5870 0.5900 0.5910
12.985000 0.5910 0.5910 0.5910 0.5930 0.5930
13.023190 0.5940 0.5940 0.5960 0.5960 0.5960
13.061000 0.5960 0.5970 0.5970 0.5970 0.5990
13.099190 0.6000 0.6000 0.6000 0.6020 0.6020
13.137000 0.6020 0.6020 0.6020 0.6020 0.6020
13.175190 0.6020 0.6020 0.6030 0.6030 0.6050
13.214000 0.6050 0.6050 0.6050 0.6050 0.6060
13.252190 0.6060 0.6060 0.6060 0.6060 0.6060
13.290000 0.6080 0.6090 0.6090 0.6110 0.6120
13.328190 0.6140 0.6150 0.6150 0.6160 0.6180
13.366000 0.6180 0.6180 0.6180 0.6180 0.6180
13.404190 0.6190 0.6220 0.6240 0.6250 0.6250
13.443000 0.6270 0.6270 0.6280 0.6300 0.6300
13.481190 0.6280 0.6300 0.6300 0.6310 0.6310
13.519000 0.6310 0.6310 0.6330 0.6330 0.6340
13.557190 0.6360 0.6370 0.6370 0.6390 0.6390
13.595000 0.6400 0.6400 0.6400 0.6420 0.6420
13.633190 0.6420 0.6420 0.6430 0.6450 0.6460
13.672000 0.6460 0.6460 0.6460 0.6480 0.6480
13.710190 0.6480 0.6480 0.6480 0.6480 0.6490
13.748000 0.6490 0.6510 0.6510 0.6510 0.6520
13.786190 0.6520 0.6520 0.6520 0.6520 0.6540
13.824000 0.6540 0.6540 0.6540 0.6540 0.6540
13.862190 0.6540 0.6550 0.6550 0.6570 0.6570
13.901000 0.6570 0.6580 0.6580 0.6580 0.6580
13.939190 0.6600 0.6600 0.6610 0.6610 0.6610
13.977000 0.6610 0.6610 0.6610 0.6610 0.6610
14.015190 0.6610 0.6610 0.6610 0.6610 0.6610
14.053000 0.6610 0.6610 0.6610 0.6610 0.6610
14.091190 0.6630 0.6630 0.6630 0.6630 0.6630
14.130000 0.6630 0.6630 0.6630 0.6630 0.6630
14.168190 0.6630 0.6640 0.6630 0.6630 0.6630
14.206000 0.6640 0.6630 0.6630 0.6630 0.6630
14.244190 0.6630 0.6630 0.6630 0.6610 0.6610
14.282000 0.6600 0.6600 0.6580 0.6580 0.6570
14.320190 0.6570 0.6570 0.6550 0.6550 0.6570
14.359000 0.6550 0.6550 0.6550 0.6550 0.6550
14.397190 0.6550 0.6550 0.6540 0.6540 0.6540
14.435000 0.6520 0.6520 0.6510 0.6490 0.6480
14.473190 0.6480 0.6480 0.6480 0.6480 0.6480
14.511000 0.6480 0.6480 0.6480 0.6480 0.6480
14.549190 0.6460 0.6480 0.6480 0.6480 0.6480
14.588000 0.6460 0.6480 0.6480 0.6460 0.6460
14.626190 0.6460 0.6460 0.6460 0.6460 0.6460
14.664000 0.6460 0.6460 0.6460 0.6480 0.6490
14.702190 0.6490 0.6520 0.6520 0.6540 0.6540
14.740000 0.6540 0.6540 0.6550 0.6550 0.6580
14.778190 0.6580 0.6600 0.6600 0.6600 0.6610
14.817000 0.6610 0.6610 0.6630 0.6630 0.6640
14.855190 0.6660 0.6670 0.6690 0.6700 0.6720
14.893000 0.6730 0.6750 0.6780 0.6790 0.6790
14.931190 0.6790 0.6810 0.6820 0.6840 0.6870
14.969000 0.6910 0.6940 0.7060 0.7100 0.6870
15.007190 0.6910 0.6940 0.7060
##END=
