##TITLE=CHLOROFORM, DEUTERO-
##JCAMP-DX=4.24
##DATA TYPE=INFRARED SPECTRUM
##CLASS=COBLENTZ III
##ORIGIN=DOW CHEMICAL COMPANY
##OWNER=COBLENTZ SOC.
Collection (C) 2018 copyright by the U.S. Secretary of Commerce
on behalf of the United States of America. All rights reserved.
##DATE=1968/08/23
##MOLFORM=C Cl3 D
##SOURCE REFERENCE=COBLENTZ NO. 07500
##$NIST ID=B6007500
##$NIST SOURCE=COBLENTZ
##$NIST IMAGE=cob7500
##SPECTROMETER/DATA SYSTEM=DOW KBr FOREPRISM-GRATING
##INSTRUMENT PARAMETERS=BLAZED AT 3.5, 12.0, 20.0 MICRON AND CHANGED AT 5.0, 7.5, 14.9 MICRON
##STATE=LIQUID (NEAT)
##PATH LENGTH=0.0099 CM
##SAMPLING PROCEDURE=TRANSMISSION
##RESOLUTION=2
##DATA PROCESSING=DIGITIZED BY COBLENTZ SOCIETY (BATCH I) FROM HARD COPY
##XUNITS=1/CM
##YUNITS=TRANSMITTANCE
##XLABEL=Wavenumbers (cm-1)
##YLABEL=% Transmission
##XFACTOR=1
##YFACTOR=1
##DELTAX=1
##FIRSTX=730
##LASTX=3796
##FIRSTY=0.0001
##MAXX=3796
##MINX=730
##MAXY=0.8977
##MINY=0.0001
##NPOINTS=3067
##XYDATA=(X++(Y..Y))
730.000000 0.0001 0.0002 0.0003 0.0004 0.0005
735.000000 0.0006 0.0007 0.0008 0.0009 0.0010
740.000000 0.0011 0.0013 0.0014 0.0015 0.0016
745.000000 0.0017 0.0018 0.0019 0.0020 0.0021
750.000000 0.0022 0.0023 0.0024 0.0025 0.0027
755.000000 0.0028 0.0029 0.0030 0.0031 0.0032
760.000000 0.0037 0.0043 0.0048 0.0054 0.0059
765.000000 0.0068 0.0076 0.0085 0.0092 0.0096
770.000000 0.0102 0.0108 0.0114 0.0120 0.0128
775.000000 0.0135 0.0144 0.0154 0.0168 0.0183
780.000000 0.0197 0.0208 0.0217 0.0228 0.0237
785.000000 0.0248 0.0261 0.0278 0.0294 0.0310
790.000000 0.0327 0.0346 0.0366 0.0386 0.0406
795.000000 0.0425 0.0447 0.0467 0.0488 0.0509
800.000000 0.0530 0.0554 0.0580 0.0606 0.0631
805.000000 0.0657 0.0683 0.0709 0.0734 0.0761
810.000000 0.0787 0.0813 0.0839 0.0866 0.0892
815.000000 0.0919 0.0947 0.0978 0.1007 0.1037
820.000000 0.1067 0.1096 0.1125 0.1154 0.1183
825.000000 0.1212 0.1241 0.1291 0.1342 0.1392
830.000000 0.1429 0.1465 0.1501 0.1535 0.1564
835.000000 0.1592 0.1622 0.1651 0.1679 0.1699
840.000000 0.1718 0.1737 0.1753 0.1764 0.1775
845.000000 0.1782 0.1781 0.1772 0.1772 0.1772
850.000000 0.1768 0.1761 0.1752 0.1742 0.1733
855.000000 0.1723 0.1712 0.1699 0.1686 0.1669
860.000000 0.1644 0.1622 0.1599 0.1570 0.1536
865.000000 0.1499 0.1460 0.1420 0.1369 0.1314
870.000000 0.1253 0.1184 0.1063 0.0920 0.0775
875.000000 0.0691 0.0620 0.0546 0.0471 0.0398
880.000000 0.0316 0.0224 0.0181 0.0138 0.0114
885.000000 0.0095 0.0077 0.0060 0.0051 0.0044
890.000000 0.0028 0.0010 0.0005 0.0005 0.0005
895.000000 0.0004 0.0004 0.0004 0.0004 0.0004
900.000000 0.0004 0.0003 0.0003 0.0003 0.0003
905.000000 0.0003 0.0003 0.0003 0.0002 0.0002
910.000000 0.0002 0.0002 0.0007 0.0013 0.0020
915.000000 0.0029 0.0043 0.0058 0.0084 0.0129
920.000000 0.0184 0.0231 0.0270 0.0388 0.0507
925.000000 0.0625 0.0784 0.0853 0.0947 0.1069
930.000000 0.1229 0.1380 0.1526 0.1671 0.1769
935.000000 0.1858 0.1945 0.2074 0.2255 0.2449
940.000000 0.2643 0.2835 0.3030 0.3207 0.3330
945.000000 0.3476 0.3656 0.3914 0.4116 0.4210
950.000000 0.4299 0.4366 0.4434 0.4501 0.4569
955.000000 0.4636 0.4709 0.4803 0.4897 0.4987
960.000000 0.5077 0.5158 0.5231 0.5304 0.5372
965.000000 0.5436 0.5501 0.5547 0.5584 0.5620
970.000000 0.5657 0.5689 0.5716 0.5744 0.5772
975.000000 0.5788 0.5796 0.5805 0.5814 0.5819
980.000000 0.5824 0.5829 0.5833 0.5840 0.5851
985.000000 0.5862 0.5882 0.5926 0.5993 0.6073
990.000000 0.6165 0.6242 0.6309 0.6375 0.6434
995.000000 0.6488 0.6542 0.6587 0.6630 0.6672
1000.000000 0.6715 0.6756 0.6782 0.6808 0.6834
1005.000000 0.6853 0.6871 0.6887 0.6898 0.6911
1010.000000 0.6934 0.6958 0.6990 0.7046 0.7101
1015.000000 0.7185 0.7268 0.7371 0.7489 0.7568
1020.000000 0.7628 0.7681 0.7721 0.7754 0.7775
1025.000000 0.7795 0.7815 0.7836 0.7857 0.7867
1030.000000 0.7875 0.7884 0.7892 0.7901 0.7908
1035.000000 0.7918 0.7925 0.7930 0.7935 0.7940
1040.000000 0.7946 0.7951 0.7956 0.7960 0.7961
1045.000000 0.7962 0.7975 0.7965 0.7968 0.7968
1050.000000 0.7971 0.7971 0.7968 0.7967 0.7965
1055.000000 0.7962 0.7961 0.7958 0.7956 0.7951
1060.000000 0.7946 0.7941 0.7936 0.7932 0.7918
1065.000000 0.7901 0.7886 0.7868 0.7840 0.7810
1070.000000 0.7768 0.7725 0.7684 0.7580 0.7471
1075.000000 0.7391 0.7311 0.7230 0.7141 0.7051
1080.000000 0.6962 0.6828 0.6664 0.6488 0.6306
1085.000000 0.6210 0.6118 0.5997 0.5877 0.5832
1090.000000 0.5826 0.5828 0.5796 0.5866 0.5942
1095.000000 0.6012 0.6110 0.6225 0.6340 0.6455
1100.000000 0.6569 0.6685 0.6800 0.6915 0.7030
1105.000000 0.7146 0.7261 0.7375 0.7491 0.7632
1110.000000 0.7862 0.7961 0.8022 0.8069 0.8117
1115.000000 0.8162 0.8203 0.8243 0.8283 0.8325
1120.000000 0.8368 0.8399 0.8418 0.8439 0.8458
1125.000000 0.8468 0.8481 0.8493 0.8505 0.8511
1130.000000 0.8515 0.8518 0.8521 0.8525 0.8525
1135.000000 0.8525 0.8525 0.8525 0.8525 0.8521
1140.000000 0.8515 0.8508 0.8501 0.8494 0.8482
1145.000000 0.8465 0.8448 0.8430 0.8411 0.8391
1150.000000 0.8371 0.8351 0.8325 0.8287 0.8249
1155.000000 0.8210 0.8171 0.8132 0.8093 0.8054
1160.000000 0.7990 0.7925 0.7881 0.7874 0.7876
1165.000000 0.7893 0.7915 0.7936 0.7958 0.7993
1170.000000 0.8028 0.8107 0.8181 0.8250 0.8316
1175.000000 0.8378 0.8440 0.8489 0.8538 0.8571
1180.000000 0.8592 0.8612 0.8628 0.8636 0.8645
1185.000000 0.8647 0.8647 0.8648 0.8648 0.8648
1190.000000 0.8648 0.8648 0.8647 0.8646 0.8646
1195.000000 0.8644 0.8641 0.8638 0.8635 0.8631
1200.000000 0.8628 0.8616 0.8603 0.8591 0.8558
1205.000000 0.8514 0.8466 0.8415 0.8356 0.7843
1210.000000 0.7465 0.7180 0.7172 0.7174 0.7174
1215.000000 0.7450 0.7667 0.7884 0.8101 0.8318
1220.000000 0.8536 0.8646 0.8703 0.8742 0.8754
1225.000000 0.8762 0.8766 0.8793 0.8771 0.8770
1230.000000 0.8768 0.8767 0.8759 0.8750 0.8742
1235.000000 0.8733 0.8698 0.8658 0.8615 0.8530
1240.000000 0.8445 0.8362 0.8263 0.8246 0.8241
1245.000000 0.8240 0.8240 0.8288 0.8314 0.8351
1250.000000 0.8396 0.8457 0.8540 0.8677 0.8715
1255.000000 0.8733 0.8737 0.8741 0.8741 0.8741
1260.000000 0.8741 0.8740 0.8740 0.8757 0.8738
1265.000000 0.8740 0.8741 0.8742 0.8743 0.8743
1270.000000 0.8743 0.8744 0.8744 0.8744 0.8744
1275.000000 0.8742 0.8741 0.8740 0.8739 0.8737
1280.000000 0.8728 0.8718 0.8709 0.8700 0.8683
1285.000000 0.8663 0.8643 0.8625 0.8610 0.8594
1290.000000 0.8578 0.8564 0.8556 0.8518 0.8552
1295.000000 0.8575 0.8634 0.8694 0.8723 0.8752
1300.000000 0.8780 0.8803 0.8823 0.8843 0.8863
1305.000000 0.8877 0.8890 0.8903 0.8909 0.8915
1310.000000 0.8918 0.8921 0.8921 0.8931 0.8924
1315.000000 0.8925 0.8927 0.8927 0.8927 0.8927
1320.000000 0.8925 0.8925 0.8925 0.8918 0.8912
1325.000000 0.8904 0.8895 0.8886 0.8877 0.8867
1330.000000 0.8858 0.8846 0.8830 0.8813 0.8745
1335.000000 0.8668 0.8591 0.8514 0.8437 0.8361
1340.000000 0.8294 0.8263 0.8244 0.8224 0.8212
1345.000000 0.8201 0.8188 0.8175 0.8162 0.8149
1350.000000 0.8134 0.8118 0.8103 0.8087 0.8068
1355.000000 0.8051 0.8032 0.8010 0.7972 0.7922
1360.000000 0.7865 0.7801 0.7732 0.7669 0.7607
1365.000000 0.7510 0.7364 0.7221 0.7115 0.7010
1370.000000 0.6907 0.6804 0.6625 0.6497 0.6228
1375.000000 0.6132 0.6005 0.5694 0.5675 0.5653
1380.000000 0.5681 0.5694 0.5729 0.5790 0.5862
1385.000000 0.5927 0.5988 0.6052 0.6125 0.6207
1390.000000 0.6322 0.6422 0.6512 0.6615 0.6737
1395.000000 0.6845 0.6946 0.7047 0.7236 0.7464
1400.000000 0.7645 0.7817 0.7996 0.8115 0.8187
1405.000000 0.8246 0.8268 0.8291 0.8314 0.8328
1410.000000 0.8340 0.8346 0.8346 0.8361 0.8342
1415.000000 0.8339 0.8336 0.8328 0.8318 0.8310
1420.000000 0.8301 0.8287 0.8274 0.8260 0.8246
1425.000000 0.8224 0.8206 0.8188 0.8169 0.8148
1430.000000 0.8122 0.8098 0.8072 0.8046 0.8014
1435.000000 0.7982 0.7951 0.7918 0.7867 0.7814
1440.000000 0.7760 0.7707 0.7654 0.7601 0.7548
1445.000000 0.7493 0.7431 0.7369 0.7308 0.7248
1450.000000 0.7168 0.7089 0.7010 0.6915 0.6801
1455.000000 0.6694 0.6596 0.6498 0.6399 0.6278
1460.000000 0.6158 0.6072 0.5990 0.5919 0.5858
1465.000000 0.5800 0.5756 0.5744 0.5740 0.5740
1470.000000 0.5744 0.5749 0.5760 0.5794 0.5844
1475.000000 0.5895 0.5952 0.6010 0.6085 0.6165
1480.000000 0.6246 0.6325 0.6401 0.6478 0.6583
1485.000000 0.6694 0.6836 0.7021 0.7175 0.7276
1490.000000 0.7375 0.7461 0.7532 0.7604 0.7682
1495.000000 0.7764 0.7835 0.7885 0.7935 0.7985
1500.000000 0.8033 0.8082 0.8132 0.8187 0.8240
1505.000000 0.8270 0.8296 0.8321 0.8348 0.8381
1510.000000 0.8400 0.8417 0.8435 0.8452 0.8468
1515.000000 0.8480 0.8490 0.8500 0.8510 0.8520
1520.000000 0.8530 0.8540 0.8545 0.8550 0.8556
1525.000000 0.8561 0.8566 0.8571 0.8553 0.8577
1530.000000 0.8578 0.8580 0.8582 0.8584 0.8586
1535.000000 0.8587 0.8589 0.8591 0.8591 0.8588
1540.000000 0.8585 0.8581 0.8567 0.8552 0.8535
1545.000000 0.8515 0.8494 0.8474 0.8453 0.8432
1550.000000 0.8408 0.8385 0.8361 0.8337 0.8312
1555.000000 0.8284 0.8257 0.8228 0.8202 0.8171
1560.000000 0.8144 0.8118 0.8154 0.8158 0.8180
1565.000000 0.8203 0.8225 0.8262 0.8303 0.8333
1570.000000 0.8374 0.8477 0.8540 0.8589 0.8625
1575.000000 0.8637 0.8637 0.8638 0.8638 0.8637
1580.000000 0.8633 0.8628 0.8624 0.8620 0.8617
1585.000000 0.8615 0.8612 0.8609 0.8607 0.8604
1590.000000 0.8595 0.8583 0.8564 0.8540 0.8515
1595.000000 0.8485 0.8448 0.8412 0.8380 0.8354
1600.000000 0.8327 0.8323 0.8330 0.8334 0.8338
1605.000000 0.8349 0.8364 0.8391 0.8427 0.8465
1610.000000 0.8504 0.8514 0.8523 0.8525 0.8525
1615.000000 0.8525 0.8525 0.8524 0.8518 0.8511
1620.000000 0.8504 0.8495 0.8484 0.8471 0.8461
1625.000000 0.8450 0.8432 0.8412 0.8393 0.8374
1630.000000 0.8359 0.8343 0.8328 0.8312 0.8297
1635.000000 0.8281 0.8266 0.8242 0.8218 0.8193
1640.000000 0.8168 0.8149 0.8148 0.8147 0.8151
1645.000000 0.8164 0.8176 0.8191 0.8204 0.8225
1650.000000 0.8246 0.8268 0.8289 0.8311 0.8332
1655.000000 0.8354 0.8375 0.8396 0.8416 0.8437
1660.000000 0.8458 0.8478 0.8501 0.8523 0.8544
1665.000000 0.8566 0.8587 0.8606 0.8624 0.8642
1670.000000 0.8659 0.8668 0.8678 0.8688 0.8698
1675.000000 0.8708 0.8716 0.8718 0.8721 0.8725
1680.000000 0.8725 0.8725 0.8724 0.8723 0.8721
1685.000000 0.8721 0.8718 0.8718 0.8716 0.8714
1690.000000 0.8712 0.8707 0.8703 0.8697 0.8692
1695.000000 0.8686 0.8680 0.8675 0.8668 0.8663
1700.000000 0.8658 0.8653 0.8647 0.8642 0.8637
1705.000000 0.8631 0.8658 0.8621 0.8620 0.8618
1710.000000 0.8618 0.8618 0.8617 0.8616 0.8615
1715.000000 0.8615 0.8614 0.8613 0.8612 0.8612
1720.000000 0.8612 0.8611 0.8611 0.8610 0.8610
1725.000000 0.8610 0.8610 0.8611 0.8612 0.8612
1730.000000 0.8613 0.8614 0.8614 0.8615 0.8615
1735.000000 0.8616 0.8616 0.8616 0.8616 0.8616
1740.000000 0.8617 0.8617 0.8615 0.8613 0.8611
1745.000000 0.8609 0.8607 0.8606 0.8604 0.8602
1750.000000 0.8599 0.8595 0.8592 0.8588 0.8584
1755.000000 0.8580 0.8575 0.8573 0.8568 0.8563
1760.000000 0.8558 0.8553 0.8547 0.8542 0.8536
1765.000000 0.8531 0.8523 0.8514 0.8505 0.8497
1770.000000 0.8488 0.8478 0.8470 0.8454 0.8435
1775.000000 0.8416 0.8397 0.8378 0.8346 0.8301
1780.000000 0.8256 0.8212 0.8149 0.8083 0.8017
1785.000000 0.7951 0.7774 0.7612 0.7500 0.7382
1790.000000 0.7043 0.6965 0.6971 0.6974 0.7014
1795.000000 0.7087 0.7204 0.7319 0.7436 0.7549
1800.000000 0.7584 0.7621 0.7651 0.7708 0.7692
1805.000000 0.7692 0.7687 0.7675 0.7662 0.7645
1810.000000 0.7626 0.7615 0.7605 0.7594 0.7584
1815.000000 0.7583 0.7581 0.7580 0.7578 0.7587
1820.000000 0.7595 0.7608 0.7639 0.7692 0.7744
1825.000000 0.7795 0.7843 0.7891 0.7935 0.7971
1830.000000 0.8008 0.8044 0.8083 0.8124 0.8164
1835.000000 0.8204 0.8236 0.8264 0.8292 0.8320
1840.000000 0.8349 0.8378 0.8409 0.8439 0.8464
1845.000000 0.8486 0.8508 0.8528 0.8542 0.8557
1850.000000 0.8570 0.8580 0.8590 0.8600 0.8610
1855.000000 0.8620 0.8628 0.8636 0.8644 0.8652
1860.000000 0.8660 0.8668 0.8675 0.8684 0.8688
1865.000000 0.8687 0.8687 0.8686 0.8686 0.8685
1870.000000 0.8685 0.8686 0.8687 0.8688 0.8689
1875.000000 0.8690 0.8691 0.8692 0.8693 0.8694
1880.000000 0.8695 0.8697 0.8699 0.8701 0.8703
1885.000000 0.8705 0.8706 0.8708 0.8710 0.8712
1890.000000 0.8712 0.8713 0.8713 0.8714 0.8715
1895.000000 0.8715 0.8716 0.8717 0.8717 0.8721
1900.000000 0.8724 0.8728 0.8731 0.8735 0.8739
1905.000000 0.8742 0.8746 0.8750 0.8755 0.8761
1910.000000 0.8767 0.8771 0.8778 0.8783 0.8789
1915.000000 0.8795 0.8800 0.8806 0.8812 0.8816
1920.000000 0.8820 0.8824 0.8828 0.8832 0.8836
1925.000000 0.8840 0.8844 0.8848 0.8848 0.8848
1930.000000 0.8847 0.8846 0.8844 0.8844 0.8844
1935.000000 0.8845 0.8845 0.8846 0.8847 0.8847
1940.000000 0.8848 0.8849 0.8849 0.8853 0.8856
1945.000000 0.8859 0.8891 0.8865 0.8868 0.8871
1950.000000 0.8877 0.8884 0.8890 0.8899 0.8915
1955.000000 0.8932 0.8949 0.8963 0.8977 0.8957
1960.000000 0.8932 0.8907 0.8882 0.8858 0.8849
1965.000000 0.8848 0.8846 0.8844 0.8842 0.8840
1970.000000 0.8838 0.8837 0.8835 0.8833 0.8831
1975.000000 0.8828 0.8827 0.8825 0.8824 0.8821
1980.000000 0.8820 0.8818 0.8816 0.8815 0.8813
1985.000000 0.8811 0.8810 0.8810 0.8810 0.8810
1990.000000 0.8809 0.8809 0.8809 0.8809 0.8809
1995.000000 0.8809 0.8806 0.8802 0.8798 0.8791
2000.000000 0.8783 0.8775 0.8768 0.8764 0.8761
2005.000000 0.8758 0.8755 0.8752 0.8749 0.8745
2010.000000 0.8742 0.8739 0.8736 0.8733 0.8730
2015.000000 0.8728 0.8728 0.8727 0.8727 0.8725
2020.000000 0.8725 0.8725 0.8725 0.8724 0.8724
2025.000000 0.8723 0.8723 0.8721 0.8721 0.8721
2030.000000 0.8721 0.8720 0.8720 0.8718 0.8718
2035.000000 0.8717 0.8716 0.8715 0.8714 0.8712
2040.000000 0.8710 0.8708 0.8706 0.8703 0.8701
2045.000000 0.8699 0.8697 0.8694 0.8692 0.8689
2050.000000 0.8687 0.8685 0.8683 0.8681 0.8680
2055.000000 0.8678 0.8677 0.8675 0.8674 0.8671
2060.000000 0.8671 0.8668 0.8668 0.8666 0.8665
2065.000000 0.8663 0.8662 0.8660 0.8659 0.8657
2070.000000 0.8656 0.8654 0.8653 0.8651 0.8650
2075.000000 0.8648 0.8647 0.8645 0.8644 0.8642
2080.000000 0.8640 0.8638 0.8637 0.8635 0.8634
2085.000000 0.8632 0.8631 0.8628 0.8628 0.8625
2090.000000 0.8624 0.8621 0.8621 0.8618 0.8618
2095.000000 0.8616 0.8615 0.8613 0.8611 0.8609
2100.000000 0.8608 0.8606 0.8605 0.8603 0.8602
2105.000000 0.8600 0.8598 0.8596 0.8595 0.8593
2110.000000 0.8592 0.8590 0.8589 0.8587 0.8585
2115.000000 0.8583 0.8582 0.8580 0.8578 0.8577
2120.000000 0.8575 0.8574 0.8571 0.8570 0.8568
2125.000000 0.8567 0.8565 0.8562 0.8559 0.8555
2130.000000 0.8552 0.8549 0.8546 0.8543 0.8540
2135.000000 0.8537 0.8534 0.8530 0.8527 0.8524
2140.000000 0.8521 0.8518 0.8515 0.8512 0.8509
2145.000000 0.8505 0.8502 0.8499 0.8496 0.8492
2150.000000 0.8489 0.8486 0.8483 0.8478 0.8475
2155.000000 0.8473 0.8470 0.8465 0.8461 0.8456
2160.000000 0.8451 0.8446 0.8441 0.8436 0.8432
2165.000000 0.8427 0.8421 0.8417 0.8413 0.8408
2170.000000 0.8403 0.8398 0.8394 0.8389 0.8384
2175.000000 0.8378 0.8373 0.8367 0.8362 0.8357
2180.000000 0.8352 0.8346 0.8341 0.8336 0.8331
2185.000000 0.8325 0.8320 0.8314 0.8309 0.8304
2190.000000 0.8300 0.8295 0.8290 0.8285 0.8281
2195.000000 0.8275 0.8271 0.8266 0.8261 0.8255
2200.000000 0.8249 0.8240 0.8231 0.8221 0.8213
2205.000000 0.8204 0.8195 0.8186 0.8176 0.8165
2210.000000 0.8155 0.8141 0.8128 0.8114 0.8101
2215.000000 0.8088 0.8075 0.8061 0.8048 0.8034
2220.000000 0.8021 0.8007 0.7994 0.7980 0.7967
2225.000000 0.7954 0.7941 0.7925 0.7911 0.7887
2230.000000 0.7862 0.7838 0.7814 0.7790 0.7765
2235.000000 0.7739 0.7711 0.7672 0.7634 0.7594
2240.000000 0.7555 0.7503 0.7451 0.7386 0.7321
2245.000000 0.7262 0.7205 0.7150 0.7095 0.6139
2250.000000 0.5184 0.3133 0.1082 0.1082 0.1082
2255.000000 0.1082 0.1075 0.1128 0.1174 0.1634
2260.000000 0.2094 0.2554 0.3015 0.3475 0.3934
2265.000000 0.4395 0.4856 0.5231 0.5607 0.5781
2270.000000 0.5956 0.6023 0.6091 0.6149 0.6208
2275.000000 0.6265 0.6322 0.6385 0.6448 0.6511
2280.000000 0.6574 0.6644 0.6714 0.6786 0.6858
2285.000000 0.6897 0.6936 0.6974 0.7011 0.7049
2290.000000 0.7087 0.7118 0.7150 0.7175 0.7201
2295.000000 0.7226 0.7253 0.7278 0.7303 0.7328
2300.000000 0.7353 0.7376 0.7401 0.7426 0.7451
2305.000000 0.7476 0.7501 0.7526 0.7553 0.7578
2310.000000 0.7604 0.7628 0.7655 0.7680 0.7706
2315.000000 0.7731 0.7757 0.7784 0.7811 0.7839
2320.000000 0.7865 0.7892 0.7918 0.7937 0.7956
2325.000000 0.7974 0.7993 0.8011 0.8031 0.8049
2330.000000 0.8068 0.8082 0.8096 0.8105 0.8114
2335.000000 0.8122 0.8132 0.8141 0.8151 0.8160
2340.000000 0.8168 0.8178 0.8187 0.8194 0.8201
2345.000000 0.8207 0.8214 0.8220 0.8225 0.8232
2350.000000 0.8238 0.8248 0.8259 0.8271 0.8283
2355.000000 0.8295 0.8307 0.8309 0.8311 0.8312
2360.000000 0.8313 0.8314 0.8315 0.8316 0.8318
2365.000000 0.8320 0.8321 0.8324 0.8325 0.8328
2370.000000 0.8331 0.8333 0.8335 0.8336 0.8337
2375.000000 0.8338 0.8339 0.8339 0.8340 0.8341
2380.000000 0.8342 0.8342 0.8343 0.8343 0.8344
2385.000000 0.8345 0.8346 0.8348 0.8350 0.8351
2390.000000 0.8353 0.8354 0.8356 0.8357 0.8359
2395.000000 0.8360 0.8362 0.8364 0.8366 0.8368
2400.000000 0.8373 0.8375 0.8380 0.8383 0.8386
2405.000000 0.8391 0.8396 0.8401 0.8406 0.8411
2410.000000 0.8417 0.8421 0.8427 0.8432 0.8437
2415.000000 0.8442 0.8448 0.8448 0.8449 0.8449
2420.000000 0.8450 0.8450 0.8450 0.8450 0.8450
2425.000000 0.8450 0.8450 0.8450 0.8450 0.8450
2430.000000 0.8450 0.8450 0.8450 0.8450 0.8450
2435.000000 0.8450 0.8451 0.8451 0.8451 0.8451
2440.000000 0.8451 0.8451 0.8451 0.8451 0.8451
2445.000000 0.8451 0.8451 0.8451 0.8451 0.8451
2450.000000 0.8452 0.8452 0.8452 0.8452 0.8452
2455.000000 0.8452 0.8452 0.8452 0.8452 0.8452
2460.000000 0.8452 0.8452 0.8452 0.8452 0.8452
2465.000000 0.8452 0.8453 0.8453 0.8453 0.8453
2470.000000 0.8453 0.8453 0.8453 0.8453 0.8453
2475.000000 0.8453 0.8453 0.8453 0.8453 0.8453
2480.000000 0.8454 0.8454 0.8454 0.8454 0.8454
2485.000000 0.8454 0.8454 0.8454 0.8454 0.8454
2490.000000 0.8454 0.8454 0.8454 0.8454 0.8455
2495.000000 0.8455 0.8455 0.8455 0.8455 0.8455
2500.000000 0.8455 0.8455 0.8455 0.8455 0.8455
2505.000000 0.8455 0.8455 0.8455 0.8455 0.8455
2510.000000 0.8456 0.8456 0.8456 0.8456 0.8456
2515.000000 0.8456 0.8456 0.8456 0.8456 0.8456
2520.000000 0.8456 0.8456 0.8456 0.8456 0.8457
2525.000000 0.8457 0.8457 0.8457 0.8457 0.8457
2530.000000 0.8457 0.8457 0.8457 0.8457 0.8457
2535.000000 0.8457 0.8457 0.8457 0.8457 0.8457
2540.000000 0.8457 0.8458 0.8458 0.8458 0.8458
2545.000000 0.8458 0.8458 0.8458 0.8458 0.8458
2550.000000 0.8458 0.8458 0.8458 0.8458 0.8459
2555.000000 0.8459 0.8459 0.8459 0.8459 0.8459
2560.000000 0.8459 0.8459 0.8459 0.8459 0.8459
2565.000000 0.8459 0.8459 0.8459 0.8459 0.8459
2570.000000 0.8460 0.8460 0.8460 0.8460 0.8460
2575.000000 0.8460 0.8460 0.8460 0.8460 0.8460
2580.000000 0.8460 0.8460 0.8460 0.8460 0.8461
2585.000000 0.8461 0.8461 0.8461 0.8461 0.8461
2590.000000 0.8461 0.8461 0.8461 0.8461 0.8461
2595.000000 0.8461 0.8461 0.8461 0.8461 0.8461
2600.000000 0.8462 0.8462 0.8462 0.8462 0.8462
2605.000000 0.8462 0.8462 0.8462 0.8462 0.8462
2610.000000 0.8462 0.8462 0.8462 0.8462 0.8463
2615.000000 0.8463 0.8463 0.8463 0.8463 0.8463
2620.000000 0.8463 0.8463 0.8463 0.8463 0.8463
2625.000000 0.8463 0.8463 0.8463 0.8463 0.8463
2630.000000 0.8464 0.8464 0.8464 0.8464 0.8464
2635.000000 0.8464 0.8464 0.8464 0.8464 0.8464
2640.000000 0.8464 0.8464 0.8464 0.8464 0.8465
2645.000000 0.8465 0.8465 0.8465 0.8465 0.8465
2650.000000 0.8465 0.8465 0.8465 0.8465 0.8465
2655.000000 0.8465 0.8465 0.8465 0.8466 0.8466
2660.000000 0.8466 0.8466 0.8466 0.8466 0.8466
2665.000000 0.8466 0.8466 0.8466 0.8466 0.8466
2670.000000 0.8466 0.8466 0.8466 0.8466 0.8467
2675.000000 0.8467 0.8467 0.8467 0.8467 0.8467
2680.000000 0.8467 0.8467 0.8467 0.8467 0.8467
2685.000000 0.8467 0.8467 0.8467 0.8468 0.8468
2690.000000 0.8468 0.8468 0.8468 0.8468 0.8468
2695.000000 0.8468 0.8468 0.8468 0.8468 0.8468
2700.000000 0.8468 0.8468 0.8468 0.8468 0.8468
2705.000000 0.8468 0.8468 0.8468 0.8468 0.8468
2710.000000 0.8468 0.8468 0.8468 0.8468 0.8468
2715.000000 0.8468 0.8468 0.8468 0.8470 0.8470
2720.000000 0.8470 0.8470 0.8470 0.8470 0.8470
2725.000000 0.8470 0.8470 0.8470 0.8470 0.8470
2730.000000 0.8470 0.8470 0.8470 0.8470 0.8471
2735.000000 0.8471 0.8471 0.8471 0.8471 0.8471
2740.000000 0.8471 0.8471 0.8471 0.8471 0.8471
2745.000000 0.8471 0.8471 0.8471 0.8471 0.8471
2750.000000 0.8471 0.8471 0.8471 0.8471 0.8471
2755.000000 0.8471 0.8471 0.8471 0.8471 0.8471
2760.000000 0.8471 0.8471 0.8473 0.8473 0.8473
2765.000000 0.8473 0.8473 0.8473 0.8473 0.8473
2770.000000 0.8473 0.8473 0.8473 0.8473 0.8473
2775.000000 0.8473 0.8473 0.8473 0.8474 0.8474
2780.000000 0.8474 0.8474 0.8474 0.8474 0.8474
2785.000000 0.8474 0.8474 0.8474 0.8474 0.8474
2790.000000 0.8474 0.8474 0.8475 0.8475 0.8475
2795.000000 0.8475 0.8475 0.8475 0.8475 0.8475
2800.000000 0.8475 0.8475 0.8475 0.8475 0.8475
2805.000000 0.8475 0.8475 0.8475 0.8475 0.8475
2810.000000 0.8475 0.8475 0.8475 0.8475 0.8475
2815.000000 0.8474 0.8473 0.8471 0.8471 0.8471
2820.000000 0.8471 0.8470 0.8468 0.8468 0.8468
2825.000000 0.8467 0.8466 0.8465 0.8465 0.8464
2830.000000 0.8463 0.8461 0.8459 0.8456 0.8454
2835.000000 0.8451 0.8449 0.8446 0.8443 0.8440
2840.000000 0.8437 0.8434 0.8432 0.8428 0.8427
2845.000000 0.8425 0.8424 0.8421 0.8421 0.8418
2850.000000 0.8417 0.8415 0.8414 0.8412 0.8410
2855.000000 0.8407 0.8404 0.8401 0.8398 0.8395
2860.000000 0.8392 0.8389 0.8386 0.8383 0.8380
2865.000000 0.8377 0.8374 0.8367 0.8361 0.8351
2870.000000 0.8342 0.8333 0.8324 0.8308 0.8292
2875.000000 0.8274 0.8257 0.8239 0.8221 0.8206
2880.000000 0.8190 0.8174 0.8158 0.8144 0.8128
2885.000000 0.8092 0.8055 0.8025 0.7998 0.7978
2890.000000 0.7960 0.7951 0.7945 0.7940 0.7935
2895.000000 0.7934 0.7934 0.7934 0.7950 0.7940
2900.000000 0.7946 0.7955 0.7965 0.7988 0.8011
2905.000000 0.8041 0.8069 0.8101 0.8133 0.8149
2910.000000 0.8165 0.8165 0.8167 0.8167 0.8167
2915.000000 0.8167 0.8168 0.8168 0.8168 0.8168
2920.000000 0.8168 0.8168 0.8168 0.8168 0.8168
2925.000000 0.8168 0.8168 0.8168 0.8168 0.8168
2930.000000 0.8168 0.8168 0.8168 0.8165 0.8164
2935.000000 0.8158 0.8151 0.8146 0.8140 0.8128
2940.000000 0.8115 0.8104 0.8092 0.8082 0.8071
2945.000000 0.8061 0.8051 0.8040 0.8030 0.8021
2950.000000 0.8015 0.8008 0.8001 0.7995 0.7988
2955.000000 0.7985 0.7985 0.7985 0.7985 0.7985
2960.000000 0.7985 0.7985 0.7984 0.7983 0.7983
2965.000000 0.7982 0.7981 0.7974 0.7967 0.7950
2970.000000 0.7934 0.7918 0.7901 0.7884 0.7865
2975.000000 0.7848 0.7831 0.7806 0.7781 0.7775
2980.000000 0.7769 0.7771 0.7772 0.7774 0.7785
2985.000000 0.7776 0.7778 0.7782 0.7785 0.7793
2990.000000 0.7801 0.7828 0.7857 0.7884 0.7911
2995.000000 0.7935 0.7958 0.7983 0.8008 0.8041
3000.000000 0.8075 0.8099 0.8124 0.8144 0.8164
3005.000000 0.8184 0.8205 0.8225 0.8245 0.8263
3010.000000 0.8282 0.8283 0.8284 0.8285 0.8287
3015.000000 0.8288 0.8289 0.8290 0.8292 0.8293
3020.000000 0.8294 0.8298 0.8303 0.8307 0.8312
3025.000000 0.8316 0.8320 0.8325 0.8330 0.8341
3030.000000 0.8353 0.8362 0.8371 0.8374 0.8378
3035.000000 0.8381 0.8384 0.8387 0.8391 0.8394
3040.000000 0.8397 0.8400 0.8404 0.8409 0.8414
3045.000000 0.8418 0.8425 0.8428 0.8432 0.8434
3050.000000 0.8437 0.8439 0.8442 0.8444 0.8447
3055.000000 0.8449 0.8451 0.8453 0.8456 0.8458
3060.000000 0.8461 0.8463 0.8465 0.8467 0.8470
3065.000000 0.8471 0.8475 0.8475 0.8478 0.8478
3070.000000 0.8478 0.8478 0.8480 0.8480 0.8481
3075.000000 0.8481 0.8482 0.8482 0.8482 0.8482
3080.000000 0.8482 0.8482 0.8483 0.8483 0.8483
3085.000000 0.8483 0.8483 0.8482 0.8481 0.8478
3090.000000 0.8478 0.8477 0.8475 0.8474 0.8473
3095.000000 0.8471 0.8470 0.8468 0.8467 0.8465
3100.000000 0.8464 0.8462 0.8460 0.8456 0.8453
3105.000000 0.8449 0.8446 0.8441 0.8437 0.8427
3110.000000 0.8417 0.8407 0.8397 0.8387 0.8377
3115.000000 0.8365 0.8353 0.8336 0.8320 0.8303
3120.000000 0.8287 0.8270 0.8253 0.8236 0.8218
3125.000000 0.8199 0.8180 0.8160 0.8140 0.8097
3130.000000 0.8055 0.7998 0.7941 0.7882 0.7822
3135.000000 0.7775 0.7730 0.7672 0.7617 0.7537
3140.000000 0.7457 0.7375 0.7294 0.7255 0.7215
3145.000000 0.7195 0.7175 0.7165 0.7157 0.7153
3150.000000 0.7150 0.7151 0.7151 0.7157 0.7125
3155.000000 0.7171 0.7182 0.7196 0.7211 0.7236
3160.000000 0.7261 0.7408 0.7557 0.7686 0.7815
3165.000000 0.7911 0.8008 0.8092 0.8175 0.8235
3170.000000 0.8295 0.8338 0.8382 0.8400 0.8418
3175.000000 0.8430 0.8443 0.8452 0.8462 0.8468
3180.000000 0.8477 0.8483 0.8490 0.8494 0.8498
3185.000000 0.8502 0.8506 0.8509 0.8513 0.8517
3190.000000 0.8521 0.8523 0.8525 0.8528 0.8530
3195.000000 0.8532 0.8534 0.8535 0.8537 0.8539
3200.000000 0.8541 0.8543 0.8545 0.8547 0.8549
3205.000000 0.8551 0.8554 0.8556 0.8558 0.8560
3210.000000 0.8562 0.8564 0.8566 0.8568 0.8570
3215.000000 0.8571 0.8574 0.8575 0.8578 0.8578
3220.000000 0.8581 0.8583 0.8585 0.8587 0.8589
3225.000000 0.8591 0.8593 0.8594 0.8596 0.8597
3230.000000 0.8599 0.8600 0.8601 0.8602 0.8604
3235.000000 0.8605 0.8607 0.8608 0.8610 0.8611
3240.000000 0.8612 0.8613 0.8615 0.8616 0.8618
3245.000000 0.8618 0.8621 0.8621 0.8624 0.8625
3250.000000 0.8627 0.8628 0.8630 0.8631 0.8632
3255.000000 0.8633 0.8635 0.8636 0.8637 0.8637
3260.000000 0.8638 0.8639 0.8640 0.8641 0.8642
3265.000000 0.8642 0.8643 0.8644 0.8645 0.8646
3270.000000 0.8647 0.8648 0.8649 0.8650 0.8651
3275.000000 0.8651 0.8652 0.8653 0.8654 0.8655
3280.000000 0.8656 0.8657 0.8658 0.8659 0.8660
3285.000000 0.8661 0.8662 0.8663 0.8664 0.8665
3290.000000 0.8666 0.8667 0.8668 0.8668 0.8670
3295.000000 0.8671 0.8671 0.8671 0.8673 0.8674
3300.000000 0.8675 0.8675 0.8677 0.8678 0.8678
3305.000000 0.8678 0.8680 0.8681 0.8682 0.8683
3310.000000 0.8684 0.8685 0.8686 0.8687 0.8688
3315.000000 0.8688 0.8689 0.8690 0.8691 0.8692
3320.000000 0.8693 0.8694 0.8695 0.8695 0.8696
3325.000000 0.8697 0.8698 0.8699 0.8700 0.8700
3330.000000 0.8701 0.8702 0.8703 0.8704 0.8705
3335.000000 0.8705 0.8706 0.8707 0.8708 0.8708
3340.000000 0.8709 0.8710 0.8711 0.8712 0.8713
3345.000000 0.8713 0.8714 0.8715 0.8716 0.8716
3350.000000 0.8717 0.8718 0.8718 0.8720 0.8721
3355.000000 0.8721 0.8721 0.8723 0.8724 0.8724
3360.000000 0.8724 0.8724 0.8724 0.8724 0.8725
3365.000000 0.8725 0.8725 0.8725 0.8725 0.8725
3370.000000 0.8725 0.8725 0.8725 0.8725 0.8725
3375.000000 0.8725 0.8725 0.8725 0.8725 0.8725
3380.000000 0.8725 0.8725 0.8725 0.8725 0.8727
3385.000000 0.8727 0.8727 0.8727 0.8727 0.8727
3390.000000 0.8727 0.8727 0.8727 0.8727 0.8728
3395.000000 0.8728 0.8728 0.8728 0.8728 0.8728
3400.000000 0.8728 0.8728 0.8728 0.8728 0.8728
3405.000000 0.8728 0.8728 0.8728 0.8728 0.8728
3410.000000 0.8728 0.8728 0.8730 0.8730 0.8730
3415.000000 0.8730 0.8730 0.8730 0.8730 0.8730
3420.000000 0.8730 0.8730 0.8731 0.8731 0.8731
3425.000000 0.8731 0.8731 0.8731 0.8731 0.8731
3430.000000 0.8732 0.8732 0.8732 0.8732 0.8732
3435.000000 0.8732 0.8732 0.8732 0.8732 0.8732
3440.000000 0.8733 0.8733 0.8733 0.8733 0.8734
3445.000000 0.8734 0.8735 0.8735 0.8736 0.8736
3450.000000 0.8737 0.8738 0.8739 0.8739 0.8740
3455.000000 0.8740 0.8741 0.8741 0.8742 0.8742
3460.000000 0.8743 0.8744 0.8745 0.8745 0.8746
3465.000000 0.8746 0.8747 0.8747 0.8747 0.8747
3470.000000 0.8748 0.8748 0.8749 0.8749 0.8749
3475.000000 0.8749 0.8750 0.8750 0.8750 0.8750
3480.000000 0.8751 0.8751 0.8752 0.8752 0.8752
3485.000000 0.8752 0.8753 0.8753 0.8754 0.8754
3490.000000 0.8754 0.8754 0.8755 0.8755 0.8755
3495.000000 0.8755 0.8756 0.8756 0.8757 0.8757
3500.000000 0.8757 0.8758 0.8759 0.8759 0.8760
3505.000000 0.8761 0.8762 0.8762 0.8763 0.8764
3510.000000 0.8765 0.8765 0.8766 0.8767 0.8768
3515.000000 0.8768 0.8768 0.8770 0.8771 0.8771
3520.000000 0.8771 0.8773 0.8774 0.8774 0.8775
3525.000000 0.8775 0.8777 0.8777 0.8778 0.8778
3530.000000 0.8780 0.8780 0.8781 0.8782 0.8783
3535.000000 0.8783 0.8784 0.8785 0.8786 0.8787
3540.000000 0.8788 0.8789 0.8790 0.8791 0.8792
3545.000000 0.8792 0.8793 0.8794 0.8795 0.8796
3550.000000 0.8797 0.8798 0.8799 0.8800 0.8801
3555.000000 0.8802 0.8803 0.8803 0.8804 0.8804
3560.000000 0.8804 0.8804 0.8804 0.8803 0.8803
3565.000000 0.8803 0.8803 0.8802 0.8802 0.8799
3570.000000 0.8797 0.8793 0.8790 0.8786 0.8783
3575.000000 0.8778 0.8775 0.8770 0.8765 0.8759
3580.000000 0.8753 0.8746 0.8740 0.8733 0.8727
3585.000000 0.8721 0.8715 0.8714 0.8714 0.8713
3590.000000 0.8713 0.8712 0.8712 0.8713 0.8715
3595.000000 0.8717 0.8718 0.8721 0.8723 0.8725
3600.000000 0.8727 0.8732 0.8737 0.8743 0.8749
3605.000000 0.8755 0.8762 0.8768 0.8775 0.8781
3610.000000 0.8788 0.8791 0.8795 0.8798 0.8801
3615.000000 0.8803 0.8805 0.8806 0.8808 0.8809
3620.000000 0.8810 0.8811 0.8813 0.8814 0.8816
3625.000000 0.8817 0.8818 0.8818 0.8818 0.8818
3630.000000 0.8818 0.8818 0.8818 0.8818 0.8818
3635.000000 0.8817 0.8817 0.8817 0.8817 0.8815
3640.000000 0.8814 0.8812 0.8810 0.8808 0.8807
3645.000000 0.8805 0.8803 0.8801 0.8800 0.8794
3650.000000 0.8789 0.8783 0.8777 0.8771 0.8765
3655.000000 0.8759 0.8753 0.8747 0.8741 0.8731
3660.000000 0.8721 0.8710 0.8700 0.8689 0.8678
3665.000000 0.8668 0.8660 0.8652 0.8644 0.8635
3670.000000 0.8627 0.8618 0.8611 0.8601 0.8592
3675.000000 0.8587 0.8583 0.8582 0.8582 0.8581
3680.000000 0.8581 0.8581 0.8581 0.8583 0.8591
3685.000000 0.8596 0.8608 0.8621 0.8634 0.8653
3690.000000 0.8671 0.8691 0.8710 0.8728 0.8746
3695.000000 0.8756 0.8766 0.8775 0.8786 0.8795
3700.000000 0.8804 0.8810 0.8816 0.8821 0.8828
3705.000000 0.8835 0.8842 0.8848 0.8855 0.8861
3710.000000 0.8867 0.8873 0.8878 0.8885 0.8891
3715.000000 0.8897 0.8903 0.8909 0.8915 0.8917
3720.000000 0.8920 0.8921 0.8921 0.8923 0.8924
3725.000000 0.8925 0.8925 0.8927 0.8928 0.8928
3730.000000 0.8928 0.8928 0.8928 0.8927 0.8925
3735.000000 0.8925 0.8924 0.8921 0.8921 0.8918
3740.000000 0.8917 0.8914 0.8912 0.8909 0.8907
3745.000000 0.8904 0.8902 0.8899 0.8896 0.8893
3750.000000 0.8891 0.8889 0.8887 0.8886 0.8885
3755.000000 0.8883 0.8882 0.8881 0.8880 0.8878
3760.000000 0.8877 0.8875 0.8874 0.8873 0.8871
3765.000000 0.8871 0.8870 0.8868 0.8868 0.8868
3770.000000 0.8870 0.8871 0.8890 0.8874 0.8875
3775.000000 0.8877 0.8878 0.8880 0.8882 0.8883
3780.000000 0.8885 0.8886 0.8888 0.8889 0.8891
3785.000000 0.8892 0.8894 0.8895 0.8897 0.8898
3790.000000 0.8900 0.8901 0.8903 0.8904 0.8906
3795.000000 0.8907 0.8908
##END=
