##TITLE=Benzenesulfonic acid, trimethylphenylammonium salt
##JCAMP-DX=4.24
##DATA TYPE=INFRARED SPECTRUM
##CLASS=COBLENTZ III
##ORIGIN=UNIVERSITY OF FLORIDA
##OWNER=Copyright (C) 1987 by the Coblentz Society
Collection (C) 2018 copyright by the U.S. Secretary of Commerce
on behalf of the United States of America. All rights reserved.
##DATE=1967/03/07
##MOLFORM=C15 H19 N O3 S
##SOURCE REFERENCE=COBLENTZ NO. 9957
##$NIST ID=B6009957
##$NIST SOURCE=COBLENTZ
##$NIST IMAGE=cob9957
##SPECTROMETER/DATA SYSTEM=BECKMAN IR-4 (HYBRID PRISM-GRATING)
##STATE=SOLID (KBr DISC)
##SAMPLING PROCEDURE=TRANSMISSION
##RESOLUTION=2
##DATA PROCESSING=DIGITIZED BY COBLENTZ SOCIETY (BATCH II) FROM HARD COPY
##XUNITS=1/CM
##YUNITS=TRANSMITTANCE
##XFACTOR=1.0
##YFACTOR=1
##FIRSTX=669
##LASTX=4000
##FIRSTY=0.7019
##MAXX=4000
##MINX=669
##MAXY=0.8445
##MINY=0.1695
##NPOINTS=3332
##XYDATA=(X++(Y..Y))
669.000000 0.7019 0.7025 0.7021 0.7021 0.7007
674.000000 0.6998 0.6953 0.6881 0.6760 0.6584
679.000000 0.6335 0.6013 0.5685 0.5358 0.5031
684.000000 0.4705 0.4380 0.4038 0.3714 0.3432
689.000000 0.3272 0.3228 0.3231 0.3420 0.3772
694.000000 0.4146 0.4519 0.4890 0.5261 0.5630
699.000000 0.5949 0.6113 0.6488 0.6855 0.7044
704.000000 0.7179 0.7296 0.7400 0.7466 0.7518
709.000000 0.7548 0.7560 0.7568 0.7527 0.7473
714.000000 0.7395 0.7314 0.7231 0.7138 0.7026
719.000000 0.6841 0.6608 0.6309 0.5931 0.5555
724.000000 0.5179 0.4804 0.4403 0.4003 0.3861
729.000000 0.3842 0.4291 0.5060 0.5826 0.6398
734.000000 0.6984 0.7293 0.7560 0.7745 0.7861
739.000000 0.7923 0.7967 0.7971 0.7990 0.7866
744.000000 0.7715 0.7166 0.6433 0.5703 0.4974
749.000000 0.4223 0.4114 0.4101 0.5101 0.5946
754.000000 0.6545 0.6795 0.6940 0.6990 0.6997
759.000000 0.6844 0.6699 0.6333 0.5616 0.4898
764.000000 0.4208 0.4142 0.4807 0.5314 0.5759
769.000000 0.6608 0.7164 0.7451 0.7628 0.7795
774.000000 0.7928 0.8032 0.8102 0.8173 0.8227
779.000000 0.8276 0.8324 0.8361 0.8381 0.8400
784.000000 0.8410 0.8419 0.8428 0.8436 0.8438
789.000000 0.8441 0.8443 0.8445 0.8439 0.8431
794.000000 0.8423 0.8415 0.8407 0.8400 0.8407
799.000000 0.8388 0.8396 0.8404 0.8412 0.8420
804.000000 0.8429 0.8436 0.8444 0.8442 0.8441
809.000000 0.8438 0.8432 0.8422 0.8412 0.8403
814.000000 0.8392 0.8383 0.8374 0.8364 0.8356
819.000000 0.8347 0.8337 0.8327 0.8317 0.8307
824.000000 0.8296 0.8293 0.8291 0.8289 0.8288
829.000000 0.8286 0.8285 0.8282 0.8279 0.8277
834.000000 0.8256 0.8228 0.8200 0.8154 0.8102
839.000000 0.8044 0.7956 0.7847 0.7721 0.7608
844.000000 0.7509 0.7408 0.7244 0.7054 0.6848
849.000000 0.6688 0.6539 0.6425 0.6382 0.6385
854.000000 0.6895 0.7375 0.7750 0.7958 0.8037
859.000000 0.8103 0.8136 0.8163 0.8185 0.8196
864.000000 0.8208 0.8221 0.8229 0.8238 0.8246
869.000000 0.8251 0.8290 0.8253 0.8253 0.8254
874.000000 0.8254 0.8254 0.8254 0.8255 0.8255
879.000000 0.8253 0.8246 0.8240 0.8234 0.8228
884.000000 0.8222 0.8215 0.8207 0.8191 0.8176
889.000000 0.8163 0.8153 0.8144 0.8135 0.8127
894.000000 0.8118 0.8110 0.8103 0.8095 0.8087
899.000000 0.8079 0.8069 0.8055 0.8041 0.8027
904.000000 0.8013 0.8000 0.7983 0.7959 0.7936
909.000000 0.7912 0.7888 0.7848 0.7807 0.7767
914.000000 0.7727 0.7670 0.7602 0.7532 0.7456
919.000000 0.7385 0.7327 0.7307 0.7286 0.7306
924.000000 0.7305 0.7356 0.7438 0.7506 0.7567
929.000000 0.7611 0.7628 0.7608 0.7619 0.7605
934.000000 0.7574 0.7515 0.7444 0.7365 0.7288
939.000000 0.7212 0.7133 0.7048 0.6963 0.6875
944.000000 0.6787 0.6677 0.6491 0.6303 0.6023
949.000000 0.5247 0.5060 0.5025 0.5021 0.5430
954.000000 0.5663 0.5816 0.5964 0.6005 0.5874
959.000000 0.5774 0.5770 0.5745 0.5820 0.5987
964.000000 0.6239 0.6577 0.6798 0.6934 0.7043
969.000000 0.7116 0.7189 0.7254 0.7319 0.7368
974.000000 0.7400 0.7431 0.7455 0.7469 0.7460
979.000000 0.7461 0.7441 0.7415 0.7390 0.7345
984.000000 0.7293 0.7234 0.7174 0.7114 0.7049
989.000000 0.6982 0.6916 0.6850 0.6765 0.6664
994.000000 0.6564 0.6423 0.6265 0.5927 0.5628
999.000000 0.5635 0.5836 0.6160 0.6407 0.6485
1004.000000 0.6649 0.6700 0.6747 0.6778 0.6722
1009.000000 0.6625 0.6507 0.6386 0.6236 0.5939
1014.000000 0.5761 0.5389 0.5001 0.4614 0.4229
1019.000000 0.3871 0.3795 0.4114 0.4989 0.5829
1024.000000 0.6163 0.6604 0.6762 0.6868 0.6835
1029.000000 0.6732 0.6364 0.5988 0.5615 0.5242
1034.000000 0.4870 0.4498 0.4127 0.3818 0.3811
1039.000000 0.4483 0.5234 0.5973 0.6580 0.6807
1044.000000 0.6978 0.7146 0.7289 0.7389 0.7448
1049.000000 0.7506 0.7543 0.7570 0.7587 0.7592
1054.000000 0.7610 0.7602 0.7594 0.7585 0.7575
1059.000000 0.7553 0.7523 0.7474 0.7426 0.7355
1064.000000 0.7283 0.7195 0.7018 0.6728 0.6431
1069.000000 0.6134 0.6053 0.6311 0.6645 0.6801
1074.000000 0.6876 0.6928 0.7028 0.7171 0.7231
1079.000000 0.7259 0.7283 0.7296 0.7310 0.7314
1084.000000 0.7334 0.7310 0.7292 0.7256 0.7205
1089.000000 0.7150 0.7094 0.7037 0.6981 0.6913
1094.000000 0.6827 0.6742 0.6670 0.6604 0.6559
1099.000000 0.6526 0.6503 0.6490 0.6476 0.6452
1104.000000 0.6424 0.6387 0.6344 0.6301 0.6249
1109.000000 0.6185 0.6122 0.6051 0.5974 0.5897
1114.000000 0.5775 0.5628 0.5427 0.5209 0.5034
1119.000000 0.4861 0.4686 0.4510 0.4043 0.3667
1124.000000 0.3515 0.3391 0.3337 0.3327 0.3341
1129.000000 0.3528 0.3899 0.4251 0.4599 0.4742
1134.000000 0.4903 0.4993 0.5079 0.5265 0.5343
1139.000000 0.5374 0.5382 0.5390 0.5422 0.5488
1144.000000 0.5489 0.5484 0.5475 0.5474 0.5484
1149.000000 0.5517 0.5585 0.5638 0.5674 0.5688
1154.000000 0.5685 0.5697 0.5593 0.5489 0.5386
1159.000000 0.5283 0.5180 0.5077 0.4974 0.4872
1164.000000 0.4769 0.4667 0.4565 0.4453 0.4241
1169.000000 0.4102 0.3991 0.3874 0.3753 0.3664
1174.000000 0.3584 0.3502 0.3419 0.3296 0.3165
1179.000000 0.3038 0.2932 0.2830 0.2728 0.2626
1184.000000 0.2529 0.2434 0.2339 0.2244 0.2154
1189.000000 0.2066 0.1976 0.1882 0.1785 0.1727
1194.000000 0.1701 0.1695 0.1711 0.1756 0.1825
1199.000000 0.1910 0.2008 0.2120 0.2233 0.2362
1204.000000 0.2491 0.2625 0.2756 0.2810 0.2821
1209.000000 0.2827 0.2842 0.2814 0.2794 0.2774
1214.000000 0.2722 0.2662 0.2599 0.2478 0.2368
1219.000000 0.2294 0.2220 0.2144 0.2098 0.2085
1224.000000 0.2089 0.2108 0.2142 0.2244 0.2366
1229.000000 0.2488 0.2609 0.2730 0.2850 0.2965
1234.000000 0.3037 0.3098 0.3177 0.3260 0.3400
1239.000000 0.3544 0.3679 0.3748 0.3831 0.4037
1244.000000 0.4126 0.4226 0.4413 0.4552 0.4650
1249.000000 0.4748 0.4835 0.4905 0.4975 0.5046
1254.000000 0.5140 0.5237 0.5336 0.5437 0.5539
1259.000000 0.5624 0.5700 0.5777 0.5853 0.5936
1264.000000 0.6022 0.6107 0.6179 0.6243 0.6293
1269.000000 0.6335 0.6377 0.6420 0.6461 0.6499
1274.000000 0.6533 0.6567 0.6601 0.6636 0.6670
1279.000000 0.6703 0.6737 0.6771 0.6810 0.6848
1284.000000 0.6879 0.6904 0.6932 0.6962 0.6990
1289.000000 0.7009 0.7023 0.7029 0.7037 0.7043
1294.000000 0.7051 0.7056 0.7059 0.7060 0.7060
1299.000000 0.7060 0.7061 0.7061 0.7061 0.7060
1304.000000 0.7055 0.7050 0.7045 0.7042 0.7044
1309.000000 0.7047 0.7049 0.7064 0.7096 0.7129
1314.000000 0.7168 0.7209 0.7248 0.7284 0.7320
1319.000000 0.7356 0.7390 0.7420 0.7451 0.7481
1324.000000 0.7499 0.7510 0.7522 0.7533 0.7541
1329.000000 0.7543 0.7544 0.7545 0.7547 0.7549
1334.000000 0.7553 0.7558 0.7561 0.7566 0.7577
1339.000000 0.7589 0.7600 0.7612 0.7623 0.7636
1344.000000 0.7652 0.7667 0.7683 0.7698 0.7713
1349.000000 0.7728 0.7747 0.7769 0.7787 0.7795
1354.000000 0.7802 0.7808 0.7815 0.7822 0.7829
1359.000000 0.7839 0.7850 0.7859 0.7870 0.7880
1364.000000 0.7891 0.7905 0.7920 0.7923 0.7924
1369.000000 0.7924 0.7928 0.7937 0.7945 0.7953
1374.000000 0.7961 0.7970 0.7979 0.7980 0.7979
1379.000000 0.7999 0.7973 0.7969 0.7965 0.7957
1384.000000 0.7947 0.7937 0.7928 0.7918 0.7912
1389.000000 0.7906 0.7902 0.7903 0.7904 0.7904
1394.000000 0.7905 0.7905 0.7907 0.7907 0.7908
1399.000000 0.7908 0.7908 0.7909 0.7909 0.7909
1404.000000 0.7909 0.7910 0.7908 0.7904 0.7902
1409.000000 0.7899 0.7897 0.7894 0.7890 0.7880
1414.000000 0.7868 0.7854 0.7825 0.7784 0.7742
1419.000000 0.7693 0.7636 0.7570 0.7496 0.7353
1424.000000 0.7162 0.6971 0.6781 0.6619 0.6583
1429.000000 0.6572 0.6572 0.6577 0.6570 0.6606
1434.000000 0.6661 0.6737 0.6814 0.6890 0.6966
1439.000000 0.7042 0.7119 0.7149 0.7137 0.6995
1444.000000 0.6679 0.6364 0.6049 0.5735 0.5420
1449.000000 0.5128 0.5122 0.5140 0.5206 0.5272
1454.000000 0.5337 0.5403 0.5469 0.5535 0.5603
1459.000000 0.5661 0.5688 0.5707 0.5717 0.5716
1464.000000 0.5714 0.5708 0.5700 0.5682 0.5654
1469.000000 0.5624 0.5613 0.5610 0.5612 0.5624
1474.000000 0.5655 0.5702 0.5759 0.5778 0.5787
1479.000000 0.5790 0.5766 0.5806 0.5623 0.5547
1484.000000 0.5472 0.5398 0.5323 0.5236 0.5189
1489.000000 0.5180 0.5178 0.5178 0.5184 0.5237
1494.000000 0.5279 0.5321 0.5363 0.5405 0.5447
1499.000000 0.5489 0.5526 0.5515 0.5445 0.5555
1504.000000 0.5306 0.5237 0.5167 0.5098 0.5028
1509.000000 0.4960 0.4900 0.4864 0.4843 0.4834
1514.000000 0.4847 0.4951 0.5097 0.5243 0.5388
1519.000000 0.5517 0.5560 0.5612 0.5698 0.5795
1524.000000 0.5876 0.5946 0.5994 0.6032 0.6071
1529.000000 0.6110 0.6154 0.6199 0.6244 0.6293
1534.000000 0.6353 0.6520 0.6786 0.6821 0.6855
1539.000000 0.6890 0.6929 0.6971 0.7013 0.7055
1544.000000 0.7078 0.7097 0.7116 0.7135 0.7149
1549.000000 0.7161 0.7175 0.7187 0.7201 0.7215
1554.000000 0.7230 0.7244 0.7259 0.7274 0.7293
1559.000000 0.7319 0.7344 0.7372 0.7402 0.7432
1564.000000 0.7462 0.7491 0.7514 0.7534 0.7553
1569.000000 0.7573 0.7593 0.7612 0.7627 0.7636
1574.000000 0.7644 0.7651 0.7659 0.7667 0.7673
1579.000000 0.7672 0.7672 0.7668 0.7666 0.7660
1584.000000 0.7651 0.7642 0.7625 0.7603 0.7581
1589.000000 0.7530 0.7472 0.7422 0.7377 0.7331
1594.000000 0.7232 0.7119 0.7041 0.6998 0.6982
1599.000000 0.6979 0.6976 0.6972 0.6966 0.6985
1604.000000 0.7000 0.7018 0.7040 0.7066 0.7093
1609.000000 0.7123 0.7156 0.7204 0.7255 0.7283
1614.000000 0.7306 0.7329 0.7351 0.7365 0.7381
1619.000000 0.7396 0.7410 0.7425 0.7446 0.7470
1624.000000 0.7494 0.7518 0.7542 0.7565 0.7589
1629.000000 0.7611 0.7630 0.7642 0.7653 0.7664
1634.000000 0.7677 0.7688 0.7699 0.7706 0.7713
1639.000000 0.7720 0.7727 0.7733 0.7740 0.7746
1644.000000 0.7753 0.7759 0.7763 0.7767 0.7772
1649.000000 0.7775 0.7780 0.7783 0.7784 0.7784
1654.000000 0.7784 0.7785 0.7787 0.7789 0.7790
1659.000000 0.7792 0.7792 0.7794 0.7795 0.7797
1664.000000 0.7799 0.7800 0.7802 0.7804 0.7806
1669.000000 0.7808 0.7809 0.7811 0.7813 0.7816
1674.000000 0.7818 0.7819 0.7822 0.7824 0.7826
1679.000000 0.7828 0.7830 0.7831 0.7831 0.7831
1684.000000 0.7831 0.7831 0.7831 0.7832 0.7832
1689.000000 0.7832 0.7832 0.7832 0.7831 0.7830
1694.000000 0.7829 0.7828 0.7827 0.7826 0.7825
1699.000000 0.7824 0.7823 0.7821 0.7820 0.7819
1704.000000 0.7819 0.7817 0.7815 0.7814 0.7812
1709.000000 0.7810 0.7809 0.7808 0.7806 0.7804
1714.000000 0.7803 0.7801 0.7799 0.7798 0.7796
1719.000000 0.7792 0.7786 0.7782 0.7777 0.7772
1724.000000 0.7767 0.7762 0.7757 0.7752 0.7747
1729.000000 0.7743 0.7738 0.7735 0.7731 0.7727
1734.000000 0.7723 0.7719 0.7716 0.7712 0.7709
1739.000000 0.7708 0.7707 0.7705 0.7705 0.7704
1744.000000 0.7703 0.7702 0.7700 0.7699 0.7695
1749.000000 0.7693 0.7690 0.7688 0.7685 0.7682
1754.000000 0.7679 0.7677 0.7673 0.7668 0.7661
1759.000000 0.7655 0.7649 0.7641 0.7633 0.7625
1764.000000 0.7618 0.7610 0.7602 0.7594 0.7586
1769.000000 0.7578 0.7567 0.7556 0.7546 0.7537
1774.000000 0.7529 0.7520 0.7514 0.7512 0.7512
1779.000000 0.7512 0.7512 0.7511 0.7511 0.7511
1784.000000 0.7500 0.7511 0.7512 0.7513 0.7514
1789.000000 0.7517 0.7522 0.7528 0.7534 0.7540
1794.000000 0.7546 0.7552 0.7559 0.7566 0.7572
1799.000000 0.7578 0.7584 0.7586 0.7588 0.7589
1804.000000 0.7591 0.7592 0.7593 0.7594 0.7596
1809.000000 0.7598 0.7599 0.7600 0.7601 0.7601
1814.000000 0.7601 0.7601 0.7600 0.7600 0.7600
1819.000000 0.7599 0.7599 0.7598 0.7598 0.7598
1824.000000 0.7598 0.7597 0.7597 0.7597 0.7597
1829.000000 0.7597 0.7597 0.7597 0.7597 0.7597
1834.000000 0.7597 0.7596 0.7596 0.7596 0.7596
1839.000000 0.7596 0.7596 0.7596 0.7596 0.7598
1844.000000 0.7599 0.7600 0.7602 0.7603 0.7604
1849.000000 0.7605 0.7607 0.7608 0.7610 0.7611
1854.000000 0.7613 0.7614 0.7615 0.7616 0.7617
1859.000000 0.7619 0.7620 0.7622 0.7623 0.7624
1864.000000 0.7625 0.7627 0.7628 0.7629 0.7630
1869.000000 0.7631 0.7631 0.7631 0.7631 0.7630
1874.000000 0.7630 0.7630 0.7630 0.7630 0.7630
1879.000000 0.7630 0.7629 0.7627 0.7625 0.7623
1884.000000 0.7620 0.7618 0.7616 0.7613 0.7608
1889.000000 0.7603 0.7597 0.7591 0.7585 0.7578
1894.000000 0.7571 0.7563 0.7556 0.7548 0.7540
1899.000000 0.7533 0.7525 0.7518 0.7511 0.7504
1904.000000 0.7497 0.7489 0.7482 0.7475 0.7468
1909.000000 0.7463 0.7460 0.7457 0.7453 0.7450
1914.000000 0.7448 0.7447 0.7446 0.7446 0.7428
1919.000000 0.7446 0.7448 0.7450 0.7453 0.7455
1924.000000 0.7462 0.7470 0.7478 0.7486 0.7495
1929.000000 0.7503 0.7514 0.7525 0.7537 0.7547
1934.000000 0.7558 0.7569 0.7574 0.7577 0.7578
1939.000000 0.7579 0.7580 0.7582 0.7582 0.7583
1944.000000 0.7584 0.7585 0.7586 0.7586 0.7582
1949.000000 0.7578 0.7575 0.7571 0.7567 0.7564
1954.000000 0.7560 0.7555 0.7547 0.7539 0.7530
1959.000000 0.7522 0.7514 0.7506 0.7499 0.7492
1964.000000 0.7486 0.7479 0.7472 0.7465 0.7459
1969.000000 0.7452 0.7446 0.7439 0.7433 0.7428
1974.000000 0.7424 0.7421 0.7417 0.7414 0.7410
1979.000000 0.7406 0.7402 0.7399 0.7399 0.7400
1984.000000 0.7400 0.7401 0.7382 0.7403 0.7406
1989.000000 0.7409 0.7412 0.7417 0.7422 0.7429
1994.000000 0.7435 0.7441 0.7447 0.7453 0.7458
1999.000000 0.7464 0.7470 0.7475 0.7480 0.7485
2004.000000 0.7489 0.7493 0.7498 0.7502 0.7505
2009.000000 0.7510 0.7514 0.7518 0.7523 0.7527
2014.000000 0.7531 0.7534 0.7538 0.7541 0.7543
2019.000000 0.7544 0.7545 0.7545 0.7547 0.7548
2024.000000 0.7549 0.7550 0.7552 0.7553 0.7553
2029.000000 0.7553 0.7553 0.7553 0.7553 0.7552
2034.000000 0.7552 0.7552 0.7551 0.7551 0.7551
2039.000000 0.7551 0.7551 0.7550 0.7550 0.7550
2044.000000 0.7550 0.7549 0.7549 0.7549 0.7549
2049.000000 0.7549 0.7549 0.7549 0.7549 0.7548
2054.000000 0.7548 0.7548 0.7548 0.7548 0.7548
2059.000000 0.7548 0.7548 0.7548 0.7547 0.7546
2064.000000 0.7546 0.7545 0.7545 0.7544 0.7544
2069.000000 0.7544 0.7543 0.7543 0.7542 0.7541
2074.000000 0.7541 0.7540 0.7540 0.7539 0.7539
2079.000000 0.7538 0.7537 0.7537 0.7536 0.7535
2084.000000 0.7533 0.7532 0.7530 0.7528 0.7526
2089.000000 0.7525 0.7523 0.7521 0.7520 0.7518
2094.000000 0.7516 0.7514 0.7513 0.7511 0.7509
2099.000000 0.7508 0.7506 0.7504 0.7503 0.7502
2104.000000 0.7502 0.7501 0.7500 0.7499 0.7498
2109.000000 0.7497 0.7496 0.7496 0.7495 0.7495
2114.000000 0.7494 0.7493 0.7492 0.7491 0.7490
2119.000000 0.7489 0.7489 0.7488 0.7488 0.7487
2124.000000 0.7486 0.7485 0.7484 0.7483 0.7482
2129.000000 0.7482 0.7481 0.7481 0.7480 0.7479
2134.000000 0.7478 0.7476 0.7475 0.7474 0.7474
2139.000000 0.7473 0.7472 0.7471 0.7470 0.7469
2144.000000 0.7469 0.7468 0.7466 0.7465 0.7464
2149.000000 0.7464 0.7463 0.7462 0.7461 0.7460
2154.000000 0.7459 0.7458 0.7456 0.7455 0.7452
2159.000000 0.7450 0.7448 0.7446 0.7445 0.7443
2164.000000 0.7441 0.7439 0.7437 0.7435 0.7433
2169.000000 0.7431 0.7429 0.7427 0.7426 0.7423
2174.000000 0.7421 0.7420 0.7418 0.7416 0.7414
2179.000000 0.7412 0.7410 0.7408 0.7406 0.7403
2184.000000 0.7400 0.7396 0.7393 0.7390 0.7387
2189.000000 0.7383 0.7380 0.7377 0.7374 0.7370
2194.000000 0.7367 0.7364 0.7361 0.7357 0.7354
2199.000000 0.7351 0.7348 0.7345 0.7341 0.7338
2204.000000 0.7335 0.7331 0.7328 0.7325 0.7322
2209.000000 0.7319 0.7316 0.7313 0.7310 0.7307
2214.000000 0.7304 0.7300 0.7297 0.7293 0.7290
2219.000000 0.7287 0.7284 0.7281 0.7278 0.7276
2224.000000 0.7273 0.7270 0.7268 0.7265 0.7263
2229.000000 0.7260 0.7258 0.7255 0.7253 0.7250
2234.000000 0.7248 0.7245 0.7243 0.7240 0.7238
2239.000000 0.7235 0.7233 0.7230 0.7228 0.7227
2244.000000 0.7226 0.7225 0.7224 0.7223 0.7223
2249.000000 0.7222 0.7221 0.7220 0.7219 0.7218
2254.000000 0.7218 0.7217 0.7216 0.7215 0.7215
2259.000000 0.7214 0.7213 0.7212 0.7212 0.7211
2264.000000 0.7210 0.7209 0.7209 0.7208 0.7207
2269.000000 0.7206 0.7205 0.7204 0.7204 0.7203
2274.000000 0.7202 0.7201 0.7201 0.7200 0.7200
2279.000000 0.7200 0.7200 0.7200 0.7199 0.7199
2284.000000 0.7199 0.7199 0.7199 0.7199 0.7199
2289.000000 0.7199 0.7199 0.7199 0.7199 0.7199
2294.000000 0.7199 0.7199 0.7199 0.7199 0.7199
2299.000000 0.7199 0.7199 0.7199 0.7199 0.7199
2304.000000 0.7199 0.7199 0.7199 0.7199 0.7199
2309.000000 0.7199 0.7199 0.7199 0.7199 0.7199
2314.000000 0.7199 0.7198 0.7198 0.7198 0.7198
2319.000000 0.7198 0.7198 0.7198 0.7198 0.7198
2324.000000 0.7198 0.7198 0.7198 0.7198 0.7197
2329.000000 0.7197 0.7197 0.7197 0.7197 0.7197
2334.000000 0.7197 0.7197 0.7197 0.7197 0.7197
2339.000000 0.7197 0.7197 0.7197 0.7197 0.7197
2344.000000 0.7196 0.7196 0.7196 0.7196 0.7195
2349.000000 0.7195 0.7194 0.7194 0.7193 0.7192
2354.000000 0.7192 0.7191 0.7191 0.7190 0.7189
2359.000000 0.7188 0.7188 0.7187 0.7187 0.7186
2364.000000 0.7186 0.7185 0.7184 0.7184 0.7183
2369.000000 0.7182 0.7181 0.7181 0.7180 0.7180
2374.000000 0.7179 0.7178 0.7178 0.7177 0.7177
2379.000000 0.7176 0.7175 0.7174 0.7173 0.7172
2384.000000 0.7170 0.7169 0.7168 0.7166 0.7164
2389.000000 0.7163 0.7162 0.7160 0.7158 0.7157
2394.000000 0.7155 0.7154 0.7153 0.7151 0.7150
2399.000000 0.7148 0.7147 0.7145 0.7144 0.7143
2404.000000 0.7141 0.7140 0.7138 0.7136 0.7135
2409.000000 0.7134 0.7132 0.7130 0.7129 0.7128
2414.000000 0.7126 0.7125 0.7124 0.7122 0.7120
2419.000000 0.7118 0.7117 0.7115 0.7113 0.7111
2424.000000 0.7109 0.7107 0.7106 0.7104 0.7102
2429.000000 0.7100 0.7099 0.7097 0.7095 0.7093
2434.000000 0.7091 0.7089 0.7088 0.7086 0.7084
2439.000000 0.7083 0.7081 0.7079 0.7078 0.7076
2444.000000 0.7074 0.7072 0.7070 0.7068 0.7066
2449.000000 0.7065 0.7063 0.7061 0.7060 0.7058
2454.000000 0.7056 0.7054 0.7052 0.7051 0.7049
2459.000000 0.7048 0.7046 0.7045 0.7043 0.7042
2464.000000 0.7040 0.7039 0.7038 0.7036 0.7034
2469.000000 0.7033 0.7031 0.7030 0.7028 0.7027
2474.000000 0.7026 0.7024 0.7023 0.7021 0.7020
2479.000000 0.7018 0.7017 0.7015 0.7014 0.7012
2484.000000 0.7011 0.7010 0.7008 0.7006 0.7005
2489.000000 0.7003 0.7002 0.7000 0.6999 0.6998
2494.000000 0.6996 0.6995 0.6993 0.6992 0.6991
2499.000000 0.6989 0.6988 0.6986 0.6984 0.6982
2504.000000 0.6980 0.6979 0.6977 0.6975 0.6974
2509.000000 0.6972 0.6970 0.6968 0.6966 0.6965
2514.000000 0.6963 0.6962 0.6960 0.6958 0.6956
2519.000000 0.6954 0.6953 0.6951 0.6950 0.6948
2524.000000 0.6946 0.6944 0.6943 0.6942 0.6942
2529.000000 0.6942 0.6942 0.6941 0.6941 0.6940
2534.000000 0.6940 0.6940 0.6939 0.6939 0.6939
2539.000000 0.6938 0.6938 0.6938 0.6938 0.6938
2544.000000 0.6938 0.6938 0.6938 0.6938 0.6938
2549.000000 0.6938 0.6938 0.6938 0.6937 0.6937
2554.000000 0.6937 0.6937 0.6937 0.6937 0.6937
2559.000000 0.6936 0.6936 0.6936 0.6936 0.6936
2564.000000 0.6936 0.6934 0.6933 0.6932 0.6929
2569.000000 0.6926 0.6924 0.6922 0.6920 0.6917
2574.000000 0.6914 0.6911 0.6908 0.6905 0.6901
2579.000000 0.6898 0.6895 0.6892 0.6889 0.6886
2584.000000 0.6883 0.6880 0.6877 0.6874 0.6872
2589.000000 0.6872 0.6873 0.6874 0.6874 0.6875
2594.000000 0.6876 0.6877 0.6877 0.6878 0.6879
2599.000000 0.6880 0.6880 0.6880 0.6880 0.6880
2604.000000 0.6880 0.6880 0.6880 0.6880 0.6880
2609.000000 0.6880 0.6881 0.6881 0.6881 0.6881
2614.000000 0.6881 0.6881 0.6881 0.6881 0.6881
2619.000000 0.6881 0.6881 0.6882 0.6882 0.6882
2624.000000 0.6882 0.6882 0.6882 0.6882 0.6882
2629.000000 0.6882 0.6882 0.6882 0.6882 0.6882
2634.000000 0.6882 0.6883 0.6883 0.6883 0.6882
2639.000000 0.6881 0.6880 0.6879 0.6878 0.6877
2644.000000 0.6877 0.6876 0.6875 0.6874 0.6874
2649.000000 0.6873 0.6872 0.6871 0.6870 0.6869
2654.000000 0.6868 0.6867 0.6866 0.6865 0.6865
2659.000000 0.6864 0.6863 0.6862 0.6861 0.6860
2664.000000 0.6859 0.6859 0.6858 0.6857 0.6857
2669.000000 0.6856 0.6854 0.6853 0.6853 0.6852
2674.000000 0.6851 0.6850 0.6848 0.6847 0.6846
2679.000000 0.6844 0.6843 0.6841 0.6839 0.6838
2684.000000 0.6836 0.6835 0.6833 0.6832 0.6830
2689.000000 0.6828 0.6827 0.6826 0.6824 0.6823
2694.000000 0.6821 0.6820 0.6818 0.6816 0.6815
2699.000000 0.6814 0.6812 0.6811 0.6809 0.6808
2704.000000 0.6806 0.6805 0.6803 0.6802 0.6800
2709.000000 0.6799 0.6798 0.6796 0.6795 0.6793
2714.000000 0.6792 0.6791 0.6789 0.6787 0.6786
2719.000000 0.6784 0.6783 0.6782 0.6780 0.6779
2724.000000 0.6777 0.6776 0.6774 0.6773 0.6771
2729.000000 0.6770 0.6769 0.6767 0.6766 0.6764
2734.000000 0.6763 0.6762 0.6760 0.6759 0.6757
2739.000000 0.6755 0.6754 0.6753 0.6751 0.6750
2744.000000 0.6748 0.6746 0.6745 0.6744 0.6742
2749.000000 0.6741 0.6739 0.6738 0.6736 0.6735
2754.000000 0.6733 0.6732 0.6730 0.6728 0.6727
2759.000000 0.6725 0.6724 0.6722 0.6721 0.6720
2764.000000 0.6718 0.6716 0.6715 0.6713 0.6711
2769.000000 0.6710 0.6709 0.6707 0.6706 0.6704
2774.000000 0.6703 0.6701 0.6700 0.6699 0.6697
2779.000000 0.6696 0.6694 0.6692 0.6691 0.6689
2784.000000 0.6687 0.6686 0.6685 0.6684 0.6682
2789.000000 0.6680 0.6679 0.6677 0.6676 0.6674
2794.000000 0.6673 0.6671 0.6670 0.6669 0.6667
2799.000000 0.6665 0.6664 0.6663 0.6661 0.6660
2804.000000 0.6659 0.6658 0.6656 0.6655 0.6654
2809.000000 0.6652 0.6651 0.6650 0.6649 0.6647
2814.000000 0.6646 0.6645 0.6644 0.6643 0.6642
2819.000000 0.6641 0.6640 0.6638 0.6637 0.6636
2824.000000 0.6635 0.6633 0.6632 0.6631 0.6630
2829.000000 0.6628 0.6627 0.6626 0.6625 0.6623
2834.000000 0.6622 0.6621 0.6620 0.6618 0.6617
2839.000000 0.6615 0.6613 0.6611 0.6606 0.6601
2844.000000 0.6595 0.6590 0.6584 0.6579 0.6573
2849.000000 0.6568 0.6563 0.6558 0.6553 0.6548
2854.000000 0.6543 0.6538 0.6533 0.6528 0.6523
2859.000000 0.6518 0.6514 0.6509 0.6504 0.6499
2864.000000 0.6494 0.6490 0.6485 0.6480 0.6477
2869.000000 0.6474 0.6470 0.6467 0.6463 0.6460
2874.000000 0.6456 0.6452 0.6449 0.6445 0.6442
2879.000000 0.6438 0.6435 0.6432 0.6428 0.6424
2884.000000 0.6421 0.6418 0.6415 0.6412 0.6409
2889.000000 0.6406 0.6403 0.6400 0.6398 0.6395
2894.000000 0.6392 0.6389 0.6386 0.6383 0.6380
2899.000000 0.6377 0.6374 0.6371 0.6369 0.6366
2904.000000 0.6363 0.6360 0.6357 0.6354 0.6350
2909.000000 0.6346 0.6341 0.6336 0.6331 0.6325
2914.000000 0.6320 0.6315 0.6310 0.6305 0.6300
2919.000000 0.6295 0.6289 0.6283 0.6276 0.6269
2924.000000 0.6262 0.6255 0.6248 0.6241 0.6234
2929.000000 0.6227 0.6220 0.6213 0.6207 0.6200
2934.000000 0.6193 0.6186 0.6179 0.6173 0.6166
2939.000000 0.6159 0.6152 0.6145 0.6135 0.6125
2944.000000 0.6114 0.6104 0.6095 0.6085 0.6076
2949.000000 0.6075 0.6075 0.6075 0.6074 0.6074
2954.000000 0.6074 0.6074 0.6073 0.6073 0.6073
2959.000000 0.6073 0.6073 0.6073 0.6073 0.6074
2964.000000 0.6075 0.6075 0.6076 0.6076 0.6076
2969.000000 0.6076 0.6077 0.6078 0.6078 0.6079
2974.000000 0.6079 0.6080 0.6080 0.6081 0.6082
2979.000000 0.6082 0.6083 0.6083 0.6084 0.6084
2984.000000 0.6085 0.6085 0.6086 0.6087 0.6087
2989.000000 0.6088 0.6088 0.6089 0.6089 0.6090
2994.000000 0.6090 0.6091 0.6091 0.6091 0.6090
2999.000000 0.6086 0.6082 0.6078 0.6065 0.6049
3004.000000 0.6033 0.6017 0.6000 0.5984 0.5967
3009.000000 0.5944 0.5916 0.5889 0.5862 0.5834
3014.000000 0.5806 0.5778 0.5748 0.5715 0.5682
3019.000000 0.5649 0.5616 0.5583 0.5551 0.5518
3024.000000 0.5485 0.5452 0.5419 0.5387 0.5354
3029.000000 0.5321 0.5288 0.5262 0.5239 0.5216
3034.000000 0.5193 0.5172 0.5152 0.5131 0.5111
3039.000000 0.5090 0.5070 0.5050 0.5025 0.4997
3044.000000 0.4970 0.4942 0.4922 0.4902 0.4883
3049.000000 0.4865 0.4855 0.4845 0.4835 0.4824
3054.000000 0.4814 0.4804 0.4794 0.4786 0.4779
3059.000000 0.4772 0.4765 0.4761 0.4757 0.4753
3064.000000 0.4750 0.4749 0.4748 0.4747 0.4747
3069.000000 0.4747 0.4747 0.4747 0.4747 0.4747
3074.000000 0.4747 0.4747 0.4768 0.4747 0.4747
3079.000000 0.4749 0.4760 0.4772 0.4783 0.4798
3084.000000 0.4817 0.4836 0.4855 0.4875 0.4894
3089.000000 0.4913 0.4932 0.4951 0.4970 0.4989
3094.000000 0.5008 0.5027 0.5046 0.5065 0.5084
3099.000000 0.5103 0.5121 0.5140 0.5157 0.5171
3104.000000 0.5185 0.5198 0.5210 0.5219 0.5227
3109.000000 0.5236 0.5249 0.5265 0.5282 0.5298
3114.000000 0.5313 0.5328 0.5342 0.5357 0.5365
3119.000000 0.5371 0.5377 0.5384 0.5390 0.5397
3124.000000 0.5403 0.5410 0.5415 0.5420 0.5426
3129.000000 0.5431 0.5435 0.5438 0.5442 0.5446
3134.000000 0.5450 0.5453 0.5457 0.5473 0.5530
3139.000000 0.5587 0.5644 0.5701 0.5756 0.5811
3144.000000 0.5866 0.5909 0.5932 0.5954 0.5977
3149.000000 0.5995 0.6006 0.6016 0.6027 0.6035
3154.000000 0.6039 0.6043 0.6047 0.6051 0.6055
3159.000000 0.6059 0.6063 0.6067 0.6071 0.6075
3164.000000 0.6079 0.6083 0.6087 0.6091 0.6095
3169.000000 0.6099 0.6104 0.6108 0.6112 0.6116
3174.000000 0.6120 0.6124 0.6128 0.6132 0.6136
3179.000000 0.6140 0.6144 0.6147 0.6150 0.6153
3184.000000 0.6156 0.6158 0.6161 0.6163 0.6166
3189.000000 0.6168 0.6170 0.6172 0.6175 0.6177
3194.000000 0.6179 0.6182 0.6184 0.6187 0.6189
3199.000000 0.6192 0.6194 0.6196 0.6199 0.6201
3204.000000 0.6203 0.6205 0.6208 0.6210 0.6212
3209.000000 0.6215 0.6217 0.6220 0.6222 0.6225
3214.000000 0.6227 0.6229 0.6231 0.6233 0.6234
3219.000000 0.6236 0.6237 0.6239 0.6240 0.6242
3224.000000 0.6243 0.6245 0.6247 0.6248 0.6250
3229.000000 0.6251 0.6253 0.6254 0.6255 0.6257
3234.000000 0.6258 0.6260 0.6261 0.6263 0.6264
3239.000000 0.6265 0.6267 0.6268 0.6270 0.6271
3244.000000 0.6273 0.6274 0.6275 0.6277 0.6278
3249.000000 0.6280 0.6281 0.6283 0.6284 0.6285
3254.000000 0.6287 0.6288 0.6289 0.6290 0.6290
3259.000000 0.6291 0.6292 0.6293 0.6293 0.6294
3264.000000 0.6295 0.6295 0.6296 0.6297 0.6298
3269.000000 0.6298 0.6298 0.6299 0.6299 0.6300
3274.000000 0.6301 0.6301 0.6302 0.6303 0.6304
3279.000000 0.6304 0.6305 0.6306 0.6306 0.6307
3284.000000 0.6307 0.6307 0.6329 0.6309 0.6309
3289.000000 0.6310 0.6311 0.6312 0.6312 0.6313
3294.000000 0.6314 0.6314 0.6315 0.6315 0.6315
3299.000000 0.6316 0.6317 0.6317 0.6318 0.6319
3304.000000 0.6319 0.6319 0.6319 0.6320 0.6320
3309.000000 0.6320 0.6320 0.6320 0.6321 0.6321
3314.000000 0.6321 0.6321 0.6322 0.6322 0.6322
3319.000000 0.6322 0.6322 0.6323 0.6323 0.6323
3324.000000 0.6323 0.6323 0.6323 0.6323 0.6323
3329.000000 0.6324 0.6324 0.6324 0.6324 0.6324
3334.000000 0.6325 0.6325 0.6325 0.6325 0.6326
3339.000000 0.6326 0.6326 0.6326 0.6326 0.6327
3344.000000 0.6327 0.6327 0.6327 0.6327 0.6327
3349.000000 0.6327 0.6327 0.6327 0.6328 0.6328
3354.000000 0.6328 0.6328 0.6327 0.6326 0.6325
3359.000000 0.6325 0.6324 0.6323 0.6322 0.6320
3364.000000 0.6319 0.6318 0.6317 0.6316 0.6315
3369.000000 0.6314 0.6313 0.6312 0.6311 0.6309
3374.000000 0.6308 0.6307 0.6307 0.6306 0.6305
3379.000000 0.6304 0.6303 0.6302 0.6301 0.6299
3384.000000 0.6298 0.6297 0.6296 0.6295 0.6294
3389.000000 0.6293 0.6292 0.6291 0.6290 0.6289
3394.000000 0.6287 0.6286 0.6285 0.6284 0.6283
3399.000000 0.6282 0.6280 0.6279 0.6277 0.6275
3404.000000 0.6273 0.6271 0.6269 0.6268 0.6266
3409.000000 0.6264 0.6263 0.6261 0.6259 0.6257
3414.000000 0.6255 0.6253 0.6251 0.6249 0.6247
3419.000000 0.6245 0.6243 0.6242 0.6240 0.6238
3424.000000 0.6237 0.6235 0.6233 0.6231 0.6229
3429.000000 0.6227 0.6225 0.6223 0.6221 0.6220
3434.000000 0.6218 0.6216 0.6214 0.6213 0.6211
3439.000000 0.6209 0.6207 0.6205 0.6203 0.6201
3444.000000 0.6200 0.6198 0.6196 0.6195 0.6193
3449.000000 0.6191 0.6189 0.6187 0.6185 0.6184
3454.000000 0.6182 0.6181 0.6179 0.6178 0.6176
3459.000000 0.6176 0.6175 0.6174 0.6173 0.6172
3464.000000 0.6171 0.6170 0.6169 0.6168 0.6167
3469.000000 0.6166 0.6165 0.6165 0.6164 0.6163
3474.000000 0.6162 0.6161 0.6160 0.6160 0.6159
3479.000000 0.6158 0.6157 0.6156 0.6155 0.6154
3484.000000 0.6153 0.6152 0.6151 0.6150 0.6149
3489.000000 0.6149 0.6148 0.6147 0.6146 0.6145
3494.000000 0.6145 0.6144 0.6143 0.6142 0.6141
3499.000000 0.6140 0.6140 0.6139 0.6138 0.6137
3504.000000 0.6136 0.6135 0.6134 0.6133 0.6132
3509.000000 0.6131 0.6131 0.6130 0.6129 0.6128
3514.000000 0.6127 0.6126 0.6126 0.6125 0.6124
3519.000000 0.6123 0.6122 0.6122 0.6121 0.6121
3524.000000 0.6121 0.6121 0.6121 0.6121 0.6121
3529.000000 0.6121 0.6121 0.6121 0.6120 0.6120
3534.000000 0.6120 0.6120 0.6120 0.6119 0.6119
3539.000000 0.6119 0.6119 0.6119 0.6118 0.6118
3544.000000 0.6118 0.6118 0.6118 0.6117 0.6117
3549.000000 0.6117 0.6117 0.6117 0.6116 0.6116
3554.000000 0.6116 0.6116 0.6116 0.6115 0.6115
3559.000000 0.6115 0.6115 0.6115 0.6115 0.6115
3564.000000 0.6115 0.6115 0.6115 0.6114 0.6114
3569.000000 0.6114 0.6114 0.6114 0.6113 0.6113
3574.000000 0.6113 0.6113 0.6113 0.6112 0.6112
3579.000000 0.6112 0.6112 0.6112 0.6111 0.6111
3584.000000 0.6111 0.6111 0.6111 0.6111 0.6111
3589.000000 0.6111 0.6111 0.6111 0.6112 0.6112
3594.000000 0.6112 0.6112 0.6112 0.6112 0.6113
3599.000000 0.6113 0.6113 0.6113 0.6113 0.6113
3604.000000 0.6113 0.6113 0.6113 0.6113 0.6114
3609.000000 0.6114 0.6114 0.6114 0.6114 0.6115
3614.000000 0.6115 0.6115 0.6115 0.6115 0.6115
3619.000000 0.6115 0.6115 0.6115 0.6115 0.6115
3624.000000 0.6116 0.6116 0.6116 0.6116 0.6116
3629.000000 0.6117 0.6117 0.6117 0.6117 0.6117
3634.000000 0.6117 0.6117 0.6117 0.6117 0.6117
3639.000000 0.6117 0.6118 0.6118 0.6118 0.6118
3644.000000 0.6118 0.6119 0.6119 0.6119 0.6119
3649.000000 0.6119 0.6119 0.6119 0.6119 0.6119
3654.000000 0.6119 0.6120 0.6120 0.6120 0.6120
3659.000000 0.6120 0.6120 0.6121 0.6121 0.6121
3664.000000 0.6121 0.6121 0.6121 0.6121 0.6121
3669.000000 0.6121 0.6121 0.6121 0.6121 0.6121
3674.000000 0.6121 0.6121 0.6121 0.6121 0.6121
3679.000000 0.6121 0.6121 0.6121 0.6121 0.6121
3684.000000 0.6121 0.6121 0.6121 0.6121 0.6121
3689.000000 0.6121 0.6121 0.6121 0.6121 0.6121
3694.000000 0.6121 0.6121 0.6121 0.6121 0.6121
3699.000000 0.6121 0.6121 0.6121 0.6121 0.6121
3704.000000 0.6121 0.6121 0.6121 0.6121 0.6121
3709.000000 0.6121 0.6121 0.6121 0.6121 0.6121
3714.000000 0.6121 0.6120 0.6120 0.6120 0.6120
3719.000000 0.6120 0.6120 0.6120 0.6120 0.6120
3724.000000 0.6120 0.6120 0.6120 0.6120 0.6120
3729.000000 0.6120 0.6120 0.6120 0.6120 0.6120
3734.000000 0.6120 0.6120 0.6120 0.6120 0.6120
3739.000000 0.6120 0.6120 0.6120 0.6120 0.6120
3744.000000 0.6120 0.6120 0.6120 0.6120 0.6120
3749.000000 0.6120 0.6120 0.6120 0.6120 0.6120
3754.000000 0.6120 0.6120 0.6120 0.6120 0.6120
3759.000000 0.6120 0.6120 0.6120 0.6120 0.6120
3764.000000 0.6120 0.6120 0.6120 0.6120 0.6120
3769.000000 0.6120 0.6120 0.6119 0.6119 0.6119
3774.000000 0.6119 0.6119 0.6119 0.6119 0.6119
3779.000000 0.6119 0.6119 0.6119 0.6119 0.6119
3784.000000 0.6119 0.6119 0.6119 0.6119 0.6118
3789.000000 0.6118 0.6118 0.6117 0.6117 0.6117
3794.000000 0.6116 0.6116 0.6116 0.6115 0.6115
3799.000000 0.6115 0.6114 0.6114 0.6114 0.6113
3804.000000 0.6113 0.6113 0.6112 0.6112 0.6112
3809.000000 0.6111 0.6111 0.6110 0.6110 0.6109
3814.000000 0.6109 0.6108 0.6108 0.6107 0.6107
3819.000000 0.6107 0.6106 0.6106 0.6106 0.6105
3824.000000 0.6105 0.6105 0.6104 0.6104 0.6104
3829.000000 0.6103 0.6103 0.6103 0.6102 0.6102
3834.000000 0.6102 0.6101 0.6101 0.6101 0.6100
3839.000000 0.6100 0.6100 0.6099 0.6099 0.6099
3844.000000 0.6098 0.6098 0.6098 0.6097 0.6097
3849.000000 0.6097 0.6096 0.6096 0.6096 0.6095
3854.000000 0.6095 0.6095 0.6094 0.6094 0.6094
3859.000000 0.6093 0.6093 0.6093 0.6092 0.6092
3864.000000 0.6091 0.6091 0.6091 0.6090 0.6090
3869.000000 0.6090 0.6089 0.6089 0.6089 0.6088
3874.000000 0.6088 0.6088 0.6087 0.6087 0.6087
3879.000000 0.6086 0.6086 0.6086 0.6085 0.6085
3884.000000 0.6085 0.6085 0.6084 0.6084 0.6084
3889.000000 0.6083 0.6083 0.6083 0.6082 0.6082
3894.000000 0.6082 0.6081 0.6080 0.6080 0.6079
3899.000000 0.6078 0.6078 0.6077 0.6076 0.6076
3904.000000 0.6075 0.6074 0.6074 0.6073 0.6072
3909.000000 0.6071 0.6070 0.6070 0.6069 0.6068
3914.000000 0.6067 0.6067 0.6066 0.6065 0.6065
3919.000000 0.6064 0.6064 0.6063 0.6062 0.6062
3924.000000 0.6061 0.6060 0.6060 0.6059 0.6058
3929.000000 0.6058 0.6057 0.6056 0.6056 0.6055
3934.000000 0.6054 0.6053 0.6052 0.6052 0.6051
3939.000000 0.6050 0.6050 0.6049 0.6048 0.6048
3944.000000 0.6047 0.6046 0.6046 0.6045 0.6044
3949.000000 0.6044 0.6043 0.6042 0.6041 0.6041
3954.000000 0.6040 0.6039 0.6038 0.6038 0.6037
3959.000000 0.6036 0.6036 0.6035 0.6034 0.6034
3964.000000 0.6033 0.6033 0.6032 0.6031 0.6031
3969.000000 0.6030 0.6029 0.6029 0.6028 0.6027
3974.000000 0.6027 0.6026 0.6025 0.6025 0.6024
3979.000000 0.6023 0.6022 0.6021 0.6021 0.6020
3984.000000 0.6020 0.6019 0.6018 0.6018 0.6017
3989.000000 0.6016 0.6016 0.6015 0.6015 0.6014
3994.000000 0.6013 0.6013 0.6012 0.6011 0.6011
3999.000000 0.6010 0.6010
##END=
