##TITLE=VINYL CYCLOHEXENE DIOXIDE
##JCAMP-DX=4.24
##DATA TYPE=INFRARED SPECTRUM
##CLASS=COBLENTZ
##ORIGIN=WYANDOTTE CHEMICALS CORP., WYANDOTTE, MICHIGAN, USA
##OWNER=COBLENTZ SOCIETY
Collection (C) 2018 copyright by the U.S. Secretary of Commerce
on behalf of the United States of America. All rights reserved.
##DATE=Not specified, most likely prior to 1970
##MOLFORM=C8 H12 O2
##SOURCE REFERENCE=COBLENTZ NO. 1290
##$NIST ID=B6001290
##$NIST SOURCE=COBLENTZ
##$NIST IMAGE=cob1290
##SPECTROMETER/DATA SYSTEM=Not specified, most likely a prism, grating, or hybrid spectrometer.
##STATE=LIQUID
##PATH LENGTH=0.005 CM
##SAMPLING PROCEDURE=TRANSMISSION
##RESOLUTION=4
##DATA PROCESSING=DIGITIZED BY NIST FROM HARD COPY
##XUNITS=MICROMETERS
##YUNITS=TRANSMITTANCE
##XFACTOR=1.000000
##YFACTOR=1
##DELTAX=000.006816
##FIRSTX=2.014
##LASTX=16.0064
##FIRSTY=0.979
##MAXX=16.0064
##MINX=2.014
##MAXY=0.979
##MINY=0.061
##NPOINTS=2054
##XYDATA=(X++(Y..Y))
2.014000 0.9790 0.9790 0.9790 0.9790 0.9790
2.048096 0.9790 0.9790 0.9790 0.9790 0.9790
2.082000 0.9790 0.9790 0.9760 0.9720 0.9710
2.116096 0.9690 0.9650 0.9640 0.9620 0.9620
2.150000 0.9620 0.9620 0.9620 0.9620 0.9620
2.184096 0.9600 0.9590 0.9570 0.9570 0.9550
2.218000 0.9520 0.9500 0.9480 0.9470 0.9450
2.252096 0.9420 0.9380 0.9380 0.9380 0.9360
2.286000 0.9360 0.9360 0.9330 0.9330 0.9330
2.320096 0.9330 0.9310 0.9310 0.9330 0.9330
2.354000 0.9330 0.9330 0.9330 0.9330 0.9330
2.388096 0.9330 0.9350 0.9350 0.9360 0.9360
2.423000 0.9360 0.9360 0.9360 0.9360 0.9350
2.457096 0.9310 0.9300 0.9300 0.9300 0.9300
2.491000 0.9300 0.9300 0.9300 0.9300 0.9300
2.525096 0.9300 0.9300 0.9300 0.9310 0.9310
2.559000 0.9310 0.9310 0.9310 0.9300 0.9300
2.593096 0.9300 0.9280 0.9260 0.9260 0.9260
2.627000 0.9260 0.9260 0.9280 0.9280 0.9280
2.661096 0.9280 0.9280 0.9310 0.9380 0.9420
2.695000 0.9450 0.9470 0.9480 0.9480 0.9480
2.729096 0.9480 0.9480 0.9480 0.9470 0.9470
2.763000 0.9470 0.9470 0.9470 0.9430 0.9400
2.797096 0.9360 0.9360 0.9300 0.9280 0.9230
2.832000 0.9210 0.9190 0.9180 0.9180 0.9160
2.866096 0.9130 0.9110 0.9090 0.9080 0.9080
2.900000 0.9080 0.9080 0.9080 0.9080 0.9080
2.934096 0.9090 0.9090 0.9090 0.9110 0.9110
2.968000 0.9110 0.9130 0.9130 0.9130 0.9130
3.002096 0.9130 0.9130 0.9130 0.9130 0.9130
3.036000 0.9130 0.9130 0.9130 0.9130 0.9130
3.070096 0.9130 0.9110 0.9110 0.9090 0.9090
3.104000 0.9080 0.9080 0.9060 0.9060 0.9040
3.138096 0.9040 0.9020 0.9010 0.9010 0.8990
3.172000 0.8970 0.8960 0.8940 0.8890 0.8850
3.206096 0.8770 0.8670 0.8630 0.8600 0.8510
3.241000 0.8430 0.8270 0.8020 0.7560 0.7080
3.275096 0.6490 0.5670 0.5260 0.5120 0.5040
3.309000 0.4750 0.4020 0.2960 0.1890 0.1100
3.343096 0.0950 0.0950 0.1000 0.1190 0.1290
3.377000 0.1290 0.1260 0.1090 0.0860 0.0780
3.411096 0.0690 0.0680 0.0710 0.0950 0.1240
3.445000 0.1610 0.2010 0.2350 0.2700 0.3060
3.479096 0.3270 0.3330 0.3370 0.3370 0.3370
3.513000 0.3390 0.3420 0.3450 0.3910 0.4460
3.547096 0.5120 0.5890 0.6520 0.7100 0.7560
3.581000 0.7800 0.7950 0.8000 0.8090 0.8140
3.615096 0.8220 0.8240 0.8290 0.8310 0.8340
3.649000 0.8390 0.8480 0.8500 0.8560 0.8580
3.683096 0.8600 0.8600 0.8620 0.8620 0.8620
3.718000 0.8620 0.8620 0.8620 0.8620 0.8620
3.752096 0.8620 0.8620 0.8620 0.8680 0.8680
3.786000 0.8720 0.8750 0.8790 0.8800 0.8800
3.820096 0.8800 0.8820 0.8820 0.8820 0.8840
3.854000 0.8840 0.8840 0.8850 0.8850 0.8890
3.888096 0.8890 0.8890 0.8890 0.8890 0.8900
3.922000 0.8900 0.8940 0.8990 0.8990 0.8990
3.956096 0.8990 0.8990 0.9010 0.9010 0.9010
3.990000 0.9010 0.9010 0.9010 0.9010 0.9010
4.024096 0.8990 0.8990 0.8990 0.8970 0.8970
4.058000 0.8960 0.8960 0.8960 0.8960 0.8940
4.092096 0.8960 0.8940 0.8940 0.8940 0.8940
4.127000 0.8940 0.8940 0.8920 0.8920 0.8920
4.161096 0.8920 0.8920 0.8920 0.8920 0.8900
4.195000 0.8890 0.8870 0.8840 0.8840 0.8820
4.229096 0.8820 0.8820 0.8820 0.8820 0.8820
4.263000 0.8820 0.8840 0.8890 0.8890 0.8900
4.297096 0.8940 0.8990 0.8990 0.8990 0.8990
4.331000 0.9010 0.9010 0.9020 0.9020 0.9080
4.365096 0.9080 0.9090 0.9090 0.9090 0.9090
4.399000 0.9060 0.8970 0.8890 0.8820 0.8750
4.433096 0.8720 0.8700 0.8680 0.8650 0.8630
4.467000 0.8630 0.8620 0.8620 0.8620 0.8630
4.501096 0.8630 0.8630 0.8650 0.8670 0.8680
4.536000 0.8680 0.8680 0.8680 0.8680 0.8680
4.570096 0.8680 0.8700 0.8680 0.8680 0.8680
4.604000 0.8680 0.8700 0.8700 0.8700 0.8700
4.638096 0.8700 0.8720 0.8720 0.8730 0.8750
4.672000 0.8750 0.8770 0.8770 0.8770 0.8790
4.706096 0.8790 0.8800 0.8820 0.8840 0.8840
4.740000 0.8850 0.8890 0.8890 0.8900 0.8920
4.774096 0.8920 0.8920 0.8920 0.8920 0.8920
4.808000 0.8920 0.8920 0.8920 0.8920 0.8900
4.842096 0.8900 0.8900 0.8900 0.8890 0.8890
4.876000 0.8890 0.8890 0.8870 0.8870 0.8870
4.910096 0.8870 0.8870 0.8890 0.8890 0.8870
4.944000 0.8870 0.8870 0.8870 0.8850 0.8850
4.978096 0.8850 0.8850 0.8850 0.8850 0.8850
5.013000 0.8840 0.8850 0.8850 0.8850 0.8850
5.047096 0.8850 0.8850 0.8850 0.8840 0.8840
5.081000 0.8840 0.8820 0.8820 0.8820 0.8820
5.115096 0.8820 0.8820 0.8800 0.8800 0.8800
5.149000 0.8800 0.8800 0.8800 0.8800 0.8800
5.183096 0.8800 0.8800 0.8800 0.8800 0.8820
5.217000 0.8820 0.8820 0.8820 0.8820 0.8820
5.251096 0.8820 0.8820 0.8820 0.8820 0.8820
5.285000 0.8820 0.8820 0.8820 0.8820 0.8820
5.319096 0.8820 0.8840 0.8850 0.8850 0.8850
5.353000 0.8850 0.8850 0.8850 0.8850 0.8850
5.387096 0.8870 0.8850 0.8850 0.8850 0.8850
5.422000 0.8840 0.8840 0.8840 0.8840 0.8820
5.456096 0.8800 0.8790 0.8790 0.8790 0.8790
5.490000 0.8790 0.8790 0.8790 0.8790 0.8750
5.524096 0.8750 0.8750 0.8730 0.8730 0.8730
5.558000 0.8720 0.8720 0.8700 0.8700 0.8680
5.592096 0.8680 0.8680 0.8680 0.8680 0.8680
5.626000 0.8680 0.8700 0.8700 0.8700 0.8680
5.660096 0.8680 0.8680 0.8680 0.8700 0.8680
5.694000 0.8680 0.8680 0.8680 0.8680 0.8680
5.728096 0.8680 0.8680 0.8650 0.8560 0.8460
5.762000 0.8360 0.8260 0.8140 0.8120 0.8120
5.796096 0.8140 0.8170 0.8240 0.8260 0.8270
5.831000 0.8290 0.8330 0.8340 0.8390 0.8410
5.865096 0.8480 0.8500 0.8510 0.8530 0.8510
5.899000 0.8510 0.8500 0.8480 0.8430 0.8390
5.933096 0.8340 0.8310 0.8290 0.8260 0.8240
5.967000 0.8240 0.8240 0.8240 0.8270 0.8310
6.001096 0.8330 0.8340 0.8340 0.8380 0.8390
6.035000 0.8460 0.8480 0.8480 0.8430 0.8410
6.069096 0.8390 0.8380 0.8380 0.8360 0.8360
6.103000 0.8360 0.8360 0.8360 0.8360 0.8360
6.137096 0.8360 0.8340 0.8330 0.8310 0.8290
6.171000 0.8290 0.8240 0.8220 0.8220 0.8210
6.205096 0.8190 0.8190 0.8170 0.8170 0.8170
6.240000 0.8170 0.8170 0.8170 0.8160 0.8160
6.274096 0.8160 0.8160 0.8160 0.8160 0.8160
6.308000 0.8190 0.8190 0.8210 0.8220 0.8240
6.342096 0.8240 0.8240 0.8260 0.8290 0.8290
6.376000 0.8290 0.8290 0.8290 0.8290 0.8270
6.410096 0.8260 0.8260 0.8260 0.8260 0.8260
6.444000 0.8260 0.8260 0.8260 0.8240 0.8240
6.478096 0.8220 0.8220 0.8220 0.8210 0.8210
6.512000 0.8190 0.8190 0.8190 0.8190 0.8170
6.546096 0.8160 0.8120 0.8100 0.8100 0.8090
6.580000 0.8040 0.8020 0.7980 0.7950 0.7850
6.614096 0.7730 0.7680 0.7610 0.7520 0.7470
6.648000 0.7340 0.7240 0.7050 0.6860 0.6620
6.682096 0.6370 0.6060 0.5670 0.5160 0.4730
6.717000 0.4440 0.4410 0.4440 0.4680 0.4970
6.751096 0.5310 0.5600 0.5910 0.6060 0.6210
6.785000 0.6330 0.6370 0.6370 0.6250 0.5890
6.819096 0.5510 0.5220 0.4880 0.4510 0.4120
6.853000 0.3760 0.3500 0.3420 0.3420 0.3350
6.887096 0.3280 0.3130 0.2940 0.2640 0.2380
6.921000 0.2190 0.2060 0.1970 0.1820 0.1700
6.955096 0.1650 0.1650 0.1730 0.2180 0.2450
6.989000 0.2810 0.3130 0.3160 0.3200 0.3490
7.023096 0.3760 0.3980 0.4070 0.4250 0.4420
7.057000 0.4590 0.4800 0.4920 0.5050 0.5110
7.091096 0.5120 0.5110 0.4990 0.4940 0.4940
7.126000 0.4940 0.5020 0.5330 0.5620 0.6010
7.160096 0.6230 0.6520 0.6760 0.6950 0.7050
7.194000 0.7130 0.7220 0.7270 0.7300 0.7340
7.228096 0.7340 0.7340 0.7340 0.7340 0.7320
7.262000 0.7290 0.7240 0.7130 0.6980 0.6810
7.296096 0.6690 0.6570 0.6520 0.6500 0.6490
7.330000 0.6450 0.6380 0.6250 0.6060 0.5860
7.364096 0.5680 0.5630 0.5630 0.5670 0.5770
7.398000 0.5820 0.5960 0.6010 0.6010 0.5800
7.432096 0.5670 0.5600 0.5580 0.5600 0.5670
7.466000 0.5770 0.5970 0.6180 0.6450 0.6720
7.500096 0.6960 0.7170 0.7290 0.7370 0.7420
7.535000 0.7470 0.7510 0.7560 0.7700 0.7750
7.569096 0.7800 0.7800 0.7810 0.7810 0.7810
7.603000 0.7800 0.7750 0.7730 0.7700 0.7610
7.637096 0.7520 0.7470 0.7370 0.7180 0.7060
7.671000 0.6860 0.6660 0.6470 0.6320 0.6280
7.705096 0.6300 0.6380 0.6500 0.6620 0.6740
7.739000 0.6810 0.6860 0.6910 0.6930 0.7010
7.773096 0.7010 0.7010 0.7010 0.7010 0.7010
7.807000 0.6830 0.6660 0.6600 0.6520 0.6430
7.841096 0.6320 0.6180 0.5990 0.5890 0.5770
7.875000 0.5630 0.5430 0.5160 0.4770 0.4370
7.909096 0.3950 0.3620 0.3300 0.3160 0.3150
7.944000 0.3160 0.3180 0.3210 0.3230 0.3250
7.978096 0.3280 0.3330 0.3370 0.3400 0.3450
8.012000 0.3490 0.3540 0.3590 0.3760 0.3960
8.046096 0.4290 0.4630 0.4950 0.5380 0.5700
8.080000 0.5970 0.6180 0.6380 0.6570 0.6710
8.114096 0.6790 0.6840 0.6910 0.6910 0.6930
8.148000 0.6910 0.6840 0.6740 0.6590 0.6470
8.182096 0.6330 0.6230 0.6160 0.6160 0.6200
8.216000 0.6320 0.6500 0.6660 0.6830 0.6980
8.250096 0.7130 0.7270 0.7320 0.7350 0.7410
8.284000 0.7440 0.7460 0.7490 0.7510 0.7510
8.318096 0.7520 0.7560 0.7610 0.7610 0.7640
8.352000 0.7700 0.7710 0.7730 0.7750 0.7760
8.386096 0.7800 0.7800 0.7780 0.7760 0.7760
8.421000 0.7750 0.7710 0.7640 0.7580 0.7470
8.455096 0.7340 0.7170 0.6980 0.6830 0.6670
8.489000 0.6590 0.6570 0.6570 0.6590 0.6640
8.523096 0.6660 0.6660 0.6620 0.6590 0.6590
8.557000 0.6600 0.6620 0.6640 0.6660 0.6690
8.591096 0.6690 0.6710 0.6740 0.6760 0.6810
8.625000 0.6830 0.6880 0.6910 0.6910 0.6830
8.659096 0.6810 0.6720 0.6620 0.6540 0.6420
8.693000 0.6300 0.6130 0.6090 0.6090 0.6080
8.727096 0.6060 0.6090 0.6110 0.6110 0.6080
8.761000 0.6040 0.6010 0.5920 0.5870 0.5790
8.795096 0.5750 0.5700 0.5680 0.5670 0.5680
8.830000 0.5720 0.5800 0.5910 0.6010 0.6080
8.864096 0.6160 0.6230 0.6260 0.6320 0.6330
8.898000 0.6370 0.6420 0.6470 0.6520 0.6590
8.932096 0.6690 0.6780 0.6840 0.6890 0.6930
8.966000 0.6960 0.7000 0.7010 0.7010 0.7030
9.000096 0.7050 0.7080 0.7130 0.7200 0.7270
9.034000 0.7350 0.7420 0.7440 0.7470 0.7510
9.068096 0.7560 0.7610 0.7640 0.7640 0.7640
9.102000 0.7640 0.7630 0.7630 0.7610 0.7610
9.136096 0.7610 0.7580 0.7580 0.7560 0.7540
9.170000 0.7540 0.7520 0.7470 0.7410 0.7350
9.204096 0.7300 0.7270 0.7250 0.7250 0.7250
9.239000 0.7240 0.7220 0.7170 0.7130 0.7120
9.273096 0.7050 0.7010 0.6930 0.6840 0.6830
9.307000 0.6810 0.6790 0.6790 0.6790 0.6810
9.341096 0.6860 0.6910 0.6980 0.7030 0.7050
9.375000 0.7120 0.7150 0.7170 0.7240 0.7270
9.409096 0.7270 0.7250 0.7240 0.7220 0.7170
9.443000 0.7080 0.6980 0.6830 0.6720 0.6500
9.477096 0.6300 0.6180 0.6040 0.5990 0.5920
9.511000 0.5890 0.5890 0.5890 0.5910 0.5940
9.545096 0.5970 0.5990 0.5990 0.5960 0.5940
9.579000 0.5940 0.5940 0.5940 0.5940 0.5940
9.613096 0.6010 0.6060 0.6130 0.6160 0.6250
9.648000 0.6320 0.6370 0.6430 0.6500 0.6570
9.682096 0.6620 0.6660 0.6710 0.6710 0.6740
9.716000 0.6760 0.6780 0.6810 0.6830 0.6840
9.750096 0.6910 0.6930 0.6950 0.7010 0.7030
9.784000 0.7050 0.7050 0.7060 0.7050 0.7010
9.818096 0.7010 0.6910 0.6840 0.6760 0.6720
9.852000 0.6660 0.6570 0.6520 0.6520 0.6450
9.886096 0.6420 0.6350 0.6260 0.6230 0.6210
9.920000 0.6180 0.6180 0.6200 0.6210 0.6260
9.954096 0.6300 0.6330 0.6370 0.6370 0.6330
9.988000 0.6230 0.6040 0.5820 0.5400 0.5110
10.022096 0.4780 0.4370 0.3980 0.3740 0.3500
10.056000 0.3350 0.3320 0.3320 0.3330 0.3500
10.090096 0.3710 0.3900 0.4030 0.4190 0.4320
10.125000 0.4390 0.4440 0.4460 0.4460 0.4460
10.159096 0.4420 0.4360 0.4290 0.4200 0.4130
10.193000 0.4080 0.3980 0.3850 0.3710 0.3560
10.227096 0.3400 0.3250 0.3100 0.2940 0.2810
10.261000 0.2690 0.2650 0.2650 0.2650 0.2740
10.295096 0.2930 0.3160 0.3450 0.3760 0.4070
10.329000 0.4360 0.4540 0.4750 0.4900 0.5050
10.363096 0.5190 0.5340 0.5450 0.5500 0.5630
10.397000 0.5740 0.5800 0.5860 0.5870 0.5910
10.431096 0.5910 0.5920 0.5920 0.5870 0.5800
10.465000 0.5770 0.5740 0.5700 0.5630 0.5570
10.499096 0.5530 0.5510 0.5450 0.5430 0.5430
10.534000 0.5360 0.5290 0.5220 0.5140 0.5090
10.568096 0.4990 0.4940 0.4880 0.4870 0.4800
10.602000 0.4730 0.4730 0.4730 0.4750 0.4830
10.636096 0.4870 0.4940 0.4970 0.4990 0.5000
10.670000 0.5000 0.5000 0.4970 0.4940 0.4830
10.704096 0.4700 0.4560 0.4490 0.4340 0.4200
10.738000 0.4050 0.3950 0.3790 0.3690 0.3560
10.772096 0.3400 0.3320 0.3300 0.3180 0.3040
10.806000 0.2870 0.2690 0.2580 0.2480 0.2310
10.840096 0.2190 0.2040 0.2010 0.2010 0.2020
10.874000 0.2090 0.2190 0.2310 0.2500 0.2690
10.908096 0.2840 0.2940 0.3030 0.3080 0.3110
10.943000 0.3130 0.3130 0.3080 0.3030 0.3010
10.977096 0.3030 0.3130 0.3230 0.3370 0.3540
11.011000 0.3810 0.4020 0.4170 0.4320 0.4420
11.045096 0.4480 0.4490 0.4510 0.4510 0.4460
11.079000 0.4410 0.4310 0.4190 0.4070 0.4000
11.113096 0.3930 0.3910 0.3900 0.3900 0.3950
11.147000 0.4050 0.4120 0.4190 0.4270 0.4360
11.181096 0.4480 0.4580 0.4710 0.4820 0.4920
11.215000 0.4990 0.5040 0.5050 0.5050 0.5040
11.249096 0.5040 0.5020 0.4920 0.4800 0.4660
11.283000 0.4540 0.4410 0.4240 0.4080 0.3950
11.317096 0.3790 0.3660 0.3500 0.3320 0.3080
11.352000 0.2810 0.2570 0.2430 0.2140 0.2020
11.386096 0.1890 0.1530 0.1410 0.1320 0.1240
11.420000 0.1220 0.1240 0.1240 0.1270 0.1320
11.454096 0.1360 0.1370 0.1390 0.1430 0.1430
11.488000 0.1370 0.1370 0.1340 0.1320 0.1270
11.522096 0.1240 0.1220 0.1170 0.1140 0.1090
11.556000 0.1050 0.1030 0.0980 0.0970 0.0970
11.590096 0.0970 0.0930 0.0900 0.0860 0.0830
11.624000 0.0810 0.0760 0.0730 0.0660 0.0630
11.658096 0.0630 0.0610 0.0610 0.0630 0.0630
11.692000 0.0630 0.0640 0.0640 0.0660 0.0660
11.726096 0.0680 0.0690 0.0730 0.0730 0.0740
11.760000 0.0800 0.0830 0.0850 0.0880 0.0950
11.794096 0.1020 0.1120 0.1260 0.1390 0.1460
11.829000 0.1580 0.1770 0.1850 0.2010 0.2180
11.863096 0.2470 0.2640 0.2810 0.3040 0.3230
11.897000 0.3420 0.3610 0.3780 0.3950 0.4070
11.931096 0.4320 0.4440 0.4580 0.4710 0.4820
11.965000 0.4990 0.5070 0.5140 0.5210 0.5310
11.999096 0.5380 0.5430 0.5460 0.5510 0.5550
12.033000 0.5580 0.5600 0.5620 0.5630 0.5630
12.067096 0.5650 0.5630 0.5580 0.5530 0.5460
12.101000 0.5360 0.5330 0.5190 0.5090 0.4990
12.135096 0.4870 0.4710 0.4560 0.4370 0.4170
12.169000 0.3930 0.3640 0.3400 0.3160 0.2770
12.203096 0.2450 0.2140 0.1990 0.1870 0.1610
12.238000 0.1480 0.1290 0.1190 0.1050 0.1000
12.272096 0.0930 0.0910 0.0880 0.0860 0.0860
12.306000 0.0860 0.0880 0.0950 0.1030 0.1150
12.340096 0.1270 0.1410 0.1600 0.1830 0.2040
12.374000 0.2350 0.2570 0.2670 0.3060 0.3350
12.408096 0.3500 0.3690 0.3790 0.3900 0.4000
12.442000 0.4030 0.4050 0.4070 0.4030 0.3980
12.476096 0.3850 0.3690 0.3570 0.3390 0.3230
12.510000 0.2990 0.2750 0.2530 0.2350 0.2190
12.544096 0.2020 0.1870 0.1680 0.1510 0.1410
12.578000 0.1340 0.1310 0.1270 0.1190 0.1140
12.612096 0.1100 0.1100 0.1090 0.1050 0.1030
12.647000 0.1020 0.0950 0.0910 0.0850 0.0810
12.681096 0.0760 0.0740 0.0740 0.0730 0.0740
12.715000 0.0810 0.0900 0.1030 0.1220 0.1440
12.749096 0.1700 0.1940 0.2160 0.2450 0.2580
12.783000 0.2790 0.3040 0.3270 0.3450 0.3540
12.817096 0.3590 0.3660 0.3760 0.3850 0.3950
12.851000 0.4050 0.4190 0.4240 0.4410 0.4530
12.885096 0.4650 0.4780 0.4990 0.5170 0.5340
12.919000 0.5480 0.5530 0.5620 0.5720 0.5770
12.953096 0.5820 0.5920 0.5940 0.5960 0.5970
12.987000 0.6010 0.6010 0.5990 0.5970 0.5940
13.021096 0.5910 0.5870 0.5840 0.5800 0.5790
13.056000 0.5770 0.5740 0.5720 0.5700 0.5700
13.090096 0.5720 0.5720 0.5750 0.5770 0.5800
13.124000 0.5800 0.5800 0.5800 0.5800 0.5800
13.158096 0.5800 0.5820 0.5820 0.5820 0.5820
13.192000 0.5790 0.5750 0.5700 0.5630 0.5600
13.226096 0.5550 0.5460 0.5450 0.5380 0.5310
13.260000 0.5220 0.5210 0.5160 0.5110 0.5020
13.294096 0.4950 0.4870 0.4830 0.4800 0.4730
13.328000 0.4660 0.4580 0.4490 0.4390 0.4310
13.362096 0.4240 0.4150 0.4080 0.4020 0.4000
13.396000 0.3950 0.3950 0.3950 0.3950 0.3950
13.430096 0.3960 0.4030 0.4120 0.4170 0.4250
13.464000 0.4360 0.4480 0.4580 0.4700 0.4800
13.498096 0.4900 0.5000 0.5140 0.5280 0.5410
13.533000 0.5580 0.5670 0.5770 0.5870 0.5990
13.567096 0.6040 0.6140 0.6230 0.6260 0.6320
13.601000 0.6350 0.6500 0.6670 0.6710 0.6740
13.635096 0.6810 0.6830 0.6880 0.6950 0.7010
13.669000 0.7030 0.7100 0.7120 0.7150 0.7220
13.703096 0.7240 0.7250 0.7300 0.7340 0.7370
13.737000 0.7390 0.7410 0.7410 0.7410 0.7420
13.771096 0.7420 0.7460 0.7470 0.7490 0.7510
13.805000 0.7520 0.7540 0.7560 0.7580 0.7590
13.839096 0.7590 0.7610 0.7610 0.7610 0.7610
13.873000 0.7630 0.7630 0.7630 0.7640 0.7660
13.907096 0.7710 0.7710 0.7730 0.7730 0.7710
13.942000 0.7700 0.7700 0.7700 0.7700 0.7700
13.976096 0.7700 0.7710 0.7710 0.7730 0.7750
14.010000 0.7760 0.7750 0.7760 0.7760 0.7760
14.044096 0.7760 0.7760 0.7780 0.7780 0.7780
14.078000 0.7780 0.7780 0.7780 0.7780 0.7780
14.112096 0.7780 0.7780 0.7780 0.7780 0.7780
14.146000 0.7800 0.7780 0.7780 0.7780 0.7780
14.180096 0.7780 0.7780 0.7780 0.7760 0.7760
14.214000 0.7760 0.7760 0.7750 0.7730 0.7730
14.248096 0.7710 0.7710 0.7700 0.7680 0.7660
14.282000 0.7640 0.7630 0.7630 0.7610 0.7590
14.316096 0.7590 0.7590 0.7590 0.7590 0.7590
14.351000 0.7590 0.7590 0.7580 0.7580 0.7580
14.385096 0.7580 0.7580 0.7580 0.7580 0.7590
14.419000 0.7590 0.7610 0.7610 0.7630 0.7630
14.453096 0.7610 0.7610 0.7610 0.7610 0.7610
14.487000 0.7610 0.7610 0.7630 0.7640 0.7640
14.521096 0.7640 0.7660 0.7660 0.7660 0.7660
14.555000 0.7660 0.7660 0.7660 0.7660 0.7660
14.589096 0.7660 0.7660 0.7660 0.7660 0.7660
14.623000 0.7660 0.7660 0.7660 0.7660 0.7660
14.657096 0.7660 0.7660 0.7660 0.7660 0.7660
14.691000 0.7660 0.7660 0.7660 0.7660 0.7660
14.725096 0.7660 0.7660 0.7660 0.7640 0.7640
14.759000 0.7610 0.7610 0.7590 0.7590 0.7590
14.793096 0.7590 0.7590 0.7580 0.7580 0.7540
14.828000 0.7560 0.7540 0.7540 0.7520 0.7520
14.862096 0.7520 0.7520 0.7510 0.7510 0.7510
14.896000 0.7510 0.7490 0.7460 0.7460 0.7440
14.930096 0.7440 0.7420 0.7410 0.7410 0.7410
14.964000 0.7390 0.7370 0.7350 0.7340 0.7320
14.998096 0.7290 0.7250 0.7220 0.7180 0.7180
15.032000 0.7170 0.7120 0.7080 0.7030 0.7010
15.066096 0.7010 0.6980 0.6960 0.6950 0.6950
15.100000 0.6950 0.6950 0.6960 0.6960 0.6960
15.134096 0.6960 0.6980 0.6980 0.7000 0.7010
15.168000 0.7030 0.7060 0.7080 0.7100 0.7100
15.202096 0.7130 0.7170 0.7180 0.7180 0.7180
15.237000 0.7180 0.7200 0.7200 0.7200 0.7220
15.271096 0.7220 0.7200 0.7200 0.7200 0.7200
15.305000 0.7200 0.7180 0.7150 0.7150 0.7120
15.339096 0.7100 0.7100 0.7100 0.7080 0.7060
15.373000 0.7050 0.7010 0.7010 0.7010 0.7010
15.407096 0.7010 0.7010 0.7010 0.7010 0.7010
15.441000 0.7010 0.7010 0.7010 0.7010 0.7010
15.475096 0.7010 0.7010 0.7010 0.7010 0.7030
15.509000 0.7050 0.7050 0.7050 0.7060 0.7080
15.543096 0.7100 0.7100 0.7100 0.7100 0.7100
15.577000 0.7100 0.7100 0.7100 0.7120 0.7120
15.611096 0.7130 0.7130 0.7130 0.7130 0.7150
15.646000 0.7150 0.7150 0.7150 0.7150 0.7150
15.680096 0.7150 0.7150 0.7170 0.7170 0.7170
15.714000 0.7170 0.7150 0.7150 0.7130 0.7130
15.748096 0.7130 0.7130 0.7130 0.7130 0.7120
15.782000 0.7120 0.7120 0.7120 0.7120 0.7120
15.816096 0.7120 0.7120 0.7120 0.7120 0.7100
15.850000 0.7100 0.7100 0.7100 0.7100 0.7080
15.884096 0.7080 0.7060 0.7050 0.7030 0.7010
15.918000 0.7010 0.7000 0.7000 0.6980 0.6980
15.952096 0.6980 0.6980 0.6980 0.6980 0.6980
15.986000 0.6980 0.6960 0.6960 0.6960
##END=
