##TITLE=Propane, 1,3-bis(2-tert-butyl-4-MethylAnilino)-
##JCAMP-DX=4.24
##DATA TYPE=INFRARED SPECTRUM
##CLASS=COBLENTZ III
##ORIGIN=MONSANTO (J. FREEMAN)
##OWNER=Copyright (C) 1987 by the Coblentz Society
Collection (C) 2018 copyright by the U.S. Secretary of Commerce
on behalf of the United States of America. All rights reserved.
##DATE=1959/09/24
##NAMES=N<1>,N<3>-bis(2-tert-butyl-4-methylphenyl)-1,3-propanediamine
1,3-Propanediamine, N,N'-bis(2-tert-butyl-p-tolyl)-
##MOLFORM=C25 H38 N2
##SOURCE REFERENCE=COBLENTZ NO. 8505
##$NIST ID=B6008505
##$NIST SOURCE=COBLENTZ
##$NIST IMAGE=cob8505
##SPECTROMETER/DATA SYSTEM=BECKMAN IR-4 (HYBRID PRISM-GRATING)
##INSTRUMENT PARAMETERS=NaCl PRISM
##STATE=SOLUTION (CCl4 FOR 1-7.5, CS2 FOR 7.5-16 MICRON)
##PATH LENGTH=0.010 CM, 0.005 CM
##SAMPLING PROCEDURE=TRANSMISSION
##RESOLUTION=2
##DATA PROCESSING=DIGITIZED BY COBLENTZ SOCIETY (BATCH II) FROM HARD COPY (ADJUSTED \addmicron\0.06um\)
##XUNITS=1/CM
##YUNITS=TRANSMITTANCE
##XFACTOR=1.0
##YFACTOR=1
##DELTAX=0.977335
##FIRSTX=625.04
##LASTX=3921.59
##FIRSTY=0.6717
##MAXX=3921.59
##MINX=625.04
##MAXY=0.9623
##MINY=0
##NPOINTS=3374
##XYDATA=(X++(Y..Y))
625.040498 0.6717 0.6712 0.6706 0.6680 0.6629
629.927173 0.6581 0.6541 0.6502 0.6472 0.6442
634.813848 0.6412 0.6385 0.6414 0.6373 0.6360
639.700522 0.6363 0.6371 0.6385 0.6400 0.6407
644.587197 0.6410 0.6409 0.6405 0.6402 0.6404
649.473872 0.6413 0.6426 0.6441 0.6463 0.6491
654.360547 0.6531 0.6585 0.6652 0.6740 0.6841
659.247221 0.6948 0.7052 0.7141 0.7204 0.7236
664.133896 0.7247 0.7248 0.7245 0.7254 0.7279
669.020571 0.7316 0.7354 0.7390 0.7426 0.7460
673.907246 0.7493 0.7531 0.7575 0.7621 0.7670
678.793920 0.7719 0.7763 0.7804 0.7830 0.7843
683.680595 0.7849 0.7844 0.7836 0.7827 0.7840
688.567270 0.7862 0.7900 0.7928 0.7954 0.7979
693.453945 0.8004 0.8026 0.8048 0.8064 0.8075
698.340619 0.8085 0.8095 0.8101 0.8104 0.8108
703.227294 0.8112 0.8116 0.8119 0.8122 0.8125
708.113969 0.8127 0.8130 0.8132 0.8132 0.8133
713.000644 0.8133 0.8133 0.8132 0.8129 0.8126
717.887319 0.8119 0.8109 0.8097 0.8085 0.8073
722.773993 0.8061 0.8048 0.8035 0.8026 0.8025
727.660668 0.8026 0.8029 0.8036 0.8044 0.8056
732.547343 0.8070 0.8082 0.8085 0.8090 0.8095
737.434018 0.8098 0.8101 0.8106 0.8119 0.8134
742.320692 0.8148 0.8165 0.8188 0.8215 0.8252
747.207367 0.8283 0.8309 0.8334 0.8352 0.8370
752.094042 0.8383 0.8407 0.8393 0.8393 0.8393
756.980717 0.8387 0.8379 0.8363 0.8343 0.8316
761.867391 0.8274 0.8230 0.8184 0.8151 0.8124
766.754066 0.8102 0.8084 0.8070 0.8055 0.8042
771.640741 0.8030 0.8017 0.8000 0.7980 0.7957
776.527416 0.7930 0.7901 0.7868 0.7822 0.7758
781.414090 0.7688 0.7619 0.7541 0.7449 0.7346
786.300765 0.7235 0.7109 0.6961 0.6749 0.6429
791.187440 0.6041 0.5518 0.4898 0.4336 0.3776
796.074115 0.3217 0.2660 0.2102 0.1610 0.1377
800.960789 0.1260 0.1192 0.1187 0.1277 0.1498
805.847464 0.1976 0.2454 0.2932 0.3407 0.3883
810.734139 0.4405 0.5363 0.5772 0.6277 0.6538
815.620814 0.6707 0.6851 0.6995 0.7139 0.7292
820.507489 0.7460 0.7606 0.7721 0.7816 0.7897
825.394163 0.7976 0.8045 0.8109 0.8159 0.8205
830.280838 0.8244 0.8277 0.8307 0.8335 0.8358
835.167513 0.8380 0.8403 0.8418 0.8428 0.8438
840.054188 0.8447 0.8450 0.8448 0.8448 0.8443
844.940862 0.8432 0.8418 0.8404 0.8390 0.8376
849.827537 0.8361 0.8347 0.8333 0.8319 0.8305
854.714212 0.8292 0.8279 0.8265 0.8255 0.8251
859.600887 0.8247 0.8243 0.8240 0.8237 0.8235
864.487561 0.8231 0.8218 0.8195 0.8147 0.8075
869.374236 0.7963 0.7775 0.7443 0.6970 0.6498
874.260911 0.6026 0.5556 0.5116 0.5057 0.5510
879.147586 0.6096 0.6682 0.7266 0.7818 0.8000
884.034260 0.8315 0.8496 0.8578 0.8633 0.8677
888.920935 0.8712 0.8734 0.8754 0.8774 0.8795
893.807610 0.8804 0.8809 0.8814 0.8823 0.8814
898.694285 0.8803 0.8790 0.8765 0.8730 0.8683
903.580959 0.8629 0.8569 0.8499 0.8411 0.8318
908.467634 0.8234 0.8186 0.8172 0.8185 0.8236
913.354309 0.8305 0.8374 0.8443 0.8512 0.8570
918.240984 0.8608 0.8637 0.8645 0.8631 0.8608
923.127659 0.8560 0.8468 0.8322 0.8175 0.8092
928.014333 0.8076 0.8129 0.8314 0.8429 0.8537
932.901008 0.8623 0.8686 0.8734 0.8770 0.8801
937.787683 0.8826 0.8851 0.8871 0.8884 0.8896
942.674358 0.8904 0.8909 0.8906 0.8920 0.8916
947.561032 0.8913 0.8910 0.8908 0.8906 0.8905
952.447707 0.8904 0.8902 0.8900 0.8895 0.8889
957.334382 0.8885 0.8880 0.8876 0.8872 0.8868
962.221057 0.8865 0.8862 0.8858 0.8853 0.8849
967.107731 0.8844 0.8839 0.8834 0.8830 0.8824
971.994406 0.8819 0.8813 0.8805 0.8796 0.8788
976.881081 0.8780 0.8771 0.8763 0.8755 0.8746
981.767756 0.8735 0.8717 0.8696 0.8673 0.8640
986.654430 0.8603 0.8564 0.8514 0.8455 0.8400
991.541105 0.8353 0.8311 0.8283 0.8267 0.8269
996.427780 0.8294 0.8324 0.8357 0.8389 0.8420
1001.314455 0.8446 0.8470 0.8489 0.8500 0.8504
1006.201129 0.8490 0.8460 0.8417 0.8347 0.8204
1011.087804 0.7942 0.7609 0.7317 0.7027 0.6762
1015.974479 0.6643 0.6627 0.6671 0.6931 0.7119
1020.861154 0.7306 0.7486 0.7592 0.7654 0.7695
1025.747829 0.7732 0.7757 0.7782 0.7792 0.7802
1030.634503 0.7804 0.7800 0.7790 0.7767 0.7753
1035.521178 0.7748 0.7767 0.7800 0.7840 0.7884
1040.407853 0.7933 0.7987 0.8071 0.8148 0.8212
1045.294528 0.8255 0.8290 0.8322 0.8347 0.8362
1050.181202 0.8372 0.8379 0.8415 0.8400 0.8383
1055.067877 0.8376 0.8369 0.8362 0.8355 0.8348
1059.954552 0.8341 0.8334 0.8327 0.8319 0.8312
1064.841227 0.8305 0.8298 0.8291 0.8283 0.8277
1069.727901 0.8271 0.8268 0.8267 0.8269 0.8275
1074.614576 0.8281 0.8286 0.8291 0.8293 0.8295
1079.501251 0.8296 0.8297 0.8296 0.8293 0.8290
1084.387926 0.8288 0.8284 0.8275 0.8259 0.8243
1089.274600 0.8219 0.8176 0.8127 0.8068 0.8000
1094.161275 0.7926 0.7849 0.7770 0.7690 0.7600
1099.047950 0.7508 0.7415 0.7325 0.7236 0.7149
1103.934625 0.7057 0.6944 0.6828 0.6713 0.6596
1108.821299 0.6476 0.6353 0.6239 0.6131 0.6021
1113.707974 0.5907 0.5838 0.5780 0.5738 0.5700
1118.594649 0.5677 0.5668 0.5668 0.5642 0.5734
1123.481324 0.5838 0.6031 0.6255 0.6482 0.6708
1128.367999 0.6934 0.7160 0.7385 0.7610 0.7831
1133.254673 0.7976 0.8076 0.8163 0.8237 0.8289
1138.141348 0.8319 0.8333 0.8332 0.8335 0.8316
1143.028023 0.8284 0.8219 0.8094 0.7976 0.7879
1147.914698 0.7737 0.7499 0.7184 0.6852 0.6520
1152.801372 0.6190 0.5860 0.5542 0.5310 0.5181
1157.688047 0.5103 0.5079 0.5081 0.5167 0.5417
1162.574722 0.5749 0.6080 0.6409 0.6739 0.7056
1167.461397 0.7297 0.7410 0.7483 0.7541 0.7580
1172.348071 0.7614 0.7637 0.7657 0.7672 0.7679
1177.234746 0.7688 0.7672 0.7659 0.7618 0.7559
1182.121421 0.7454 0.7287 0.7106 0.6926 0.6746
1187.008096 0.6567 0.6388 0.6208 0.6030 0.5851
1191.894770 0.5673 0.5495 0.5317 0.5168 0.5155
1196.781445 0.5148 0.5158 0.5172 0.5172 0.5172
1201.668120 0.5165 0.5150 0.4979 0.4636 0.4278
1206.554795 0.3919 0.3562 0.3205 0.2849 0.2492
1211.441469 0.2155 0.2051 0.2061 0.2114 0.2448
1216.328144 0.2854 0.3259 0.3663 0.4067 0.4470
1221.214819 0.4873 0.5274 0.5632 0.5735 0.5746
1226.101494 0.5728 0.5649 0.5527 0.5397 0.5267
1230.988169 0.5137 0.5007 0.4877 0.4747 0.4618
1235.874843 0.4489 0.4360 0.4231 0.4102 0.3974
1240.761518 0.3846 0.3718 0.3590 0.3463 0.3344
1245.648193 0.3279 0.3269 0.3269 0.3263 0.3293
1250.534868 0.3402 0.3531 0.3658 0.3773 0.3830
1255.421542 0.3827 0.3821 0.3781 0.3636 0.3416
1260.308217 0.3196 0.2976 0.2757 0.2537 0.2323
1265.194892 0.2169 0.2166 0.2204 0.2304 0.2455
1270.081567 0.2604 0.2752 0.2901 0.3049 0.3198
1274.968241 0.3343 0.3454 0.3456 0.3440 0.3383
1279.854916 0.3313 0.3243 0.3174 0.3106 0.3068
1284.741591 0.3074 0.3118 0.3247 0.3373 0.3502
1289.628266 0.3630 0.3757 0.3885 0.4012 0.4139
1294.514940 0.4208 0.4214 0.4216 0.4213 0.4205
1299.401615 0.4084 0.3841 0.3584 0.3329 0.3073
1304.288290 0.2819 0.2563 0.2309 0.2056 0.1802
1309.174965 0.1657 0.1649 0.1914 0.2314 0.2733
1314.061639 0.3152 0.3569 0.3987 0.4404 0.4820
1318.948314 0.5235 0.5632 0.5879 0.6049 0.6220
1323.834989 0.6431 0.6636 0.6783 0.6904 0.7036
1328.721664 0.7164 0.7264 0.7344 0.7421 0.7486
1333.608339 0.7539 0.7591 0.7643 0.7694 0.7743
1338.495013 0.7789 0.7834 0.7878 0.7915 0.7947
1343.381688 0.7979 0.8008 0.8033 0.8055 0.8077
1348.268363 0.8099 0.8118 0.8131 0.8144 0.8174
1353.155038 0.8194 0.8168 0.8167 0.8153 0.8122
1358.041712 0.8074 0.8021 0.7969 0.7919 0.7867
1362.928387 0.7810 0.7750 0.7685 0.7598 0.7492
1367.815062 0.7385 0.7207 0.6840 0.6651 0.6231
1372.701737 0.5493 0.4705 0.3918 0.3246 0.3183
1377.588411 0.3186 0.3171 0.3288 0.3539 0.3791
1382.475086 0.4042 0.4292 0.4543 0.4793 0.5045
1387.361761 0.5314 0.5533 0.5656 0.5771 0.5885
1392.248436 0.5999 0.6068 0.6079 0.6068 0.5909
1397.135110 0.5694 0.5478 0.5262 0.5046 0.4830
1402.021785 0.4614 0.4399 0.4184 0.3970 0.3755
1406.908460 0.3588 0.3520 0.3475 0.3426 0.3371
1411.795135 0.3311 0.3196 0.3096 0.3060 0.3039
1416.681809 0.3044 0.3090 0.3241 0.3418 0.3595
1421.568484 0.3772 0.3948 0.4125 0.4300 0.4476
1426.455159 0.4651 0.4827 0.5003 0.5177 0.5352
1431.341834 0.5526 0.5700 0.5829 0.5870 0.5869
1436.228509 0.5864 0.5852 0.5834 0.5768 0.5637
1441.115183 0.5480 0.5321 0.5163 0.5004 0.4846
1446.001858 0.4694 0.4596 0.4551 0.4512 0.4465
1450.888533 0.4408 0.4344 0.4280 0.4217 0.4156
1455.775208 0.4099 0.4049 0.4004 0.3962 0.3920
1460.661882 0.3880 0.3843 0.3807 0.3737 0.3592
1465.548557 0.3431 0.3240 0.2949 0.2740 0.2640
1470.435232 0.2542 0.2445 0.2342 0.2223 0.2096
1475.321907 0.1987 0.1891 0.1800 0.1710 0.1621
1480.208581 0.1531 0.1442 0.1352 0.1263 0.1174
1485.095256 0.1101 0.1091 0.1097 0.1136 0.1253
1489.981931 0.1387 0.1521 0.1655 0.1790 0.1924
1494.868606 0.2057 0.2191 0.2322 0.2428 0.2463
1499.755280 0.2464 0.2429 0.2465 0.2001 0.1772
1504.641955 0.1544 0.1315 0.1087 0.0859 0.0653
1509.528630 0.0522 0.0442 0.0390 0.0348 0.0305
1514.415305 0.0276 0.0253 0.0230 0.0208 0.0184
1519.301979 0.0175 0.0166 0.0159 0.0152 0.0148
1524.188654 0.0147 0.0147 0.0151 0.0109 0.0157
1529.075329 0.0174 0.0189 0.0209 0.0338 0.0572
1533.962004 0.0834 0.1098 0.1361 0.1624 0.1886
1538.848679 0.2147 0.2409 0.2670 0.2932 0.3163
1543.735353 0.3290 0.3349 0.3400 0.3452 0.3501
1548.622028 0.3545 0.3588 0.3633 0.3682 0.3735
1553.508703 0.3788 0.3838 0.3884 0.3927 0.3970
1558.395378 0.4012 0.4050 0.4082 0.4112 0.4142
1563.282052 0.4173 0.4202 0.4231 0.4260 0.4289
1568.168727 0.4346 0.4449 0.4573 0.4701 0.4829
1573.055402 0.4957 0.5085 0.5213 0.5340 0.5439
1577.942077 0.5490 0.5515 0.5533 0.5548 0.5560
1582.828751 0.5569 0.5567 0.5538 0.5483 0.5418
1587.715426 0.5354 0.5289 0.5225 0.5170 0.5162
1592.602101 0.5225 0.5328 0.5431 0.5534 0.5637
1597.488776 0.5740 0.5842 0.5944 0.6046 0.6148
1602.375450 0.6251 0.6353 0.6427 0.6435 0.6442
1607.262125 0.6449 0.6428 0.6377 0.6192 0.5942
1612.148800 0.5685 0.5428 0.5171 0.4916 0.4660
1617.035475 0.4403 0.4148 0.3894 0.3639 0.3433
1621.922149 0.3417 0.3416 0.3479 0.3804 0.4040
1626.808824 0.4278 0.4513 0.4749 0.4985 0.5220
1631.695499 0.5456 0.5690 0.5926 0.6160 0.6394
1636.582174 0.6628 0.6861 0.7094 0.7323 0.7493
1641.468849 0.7619 0.7741 0.7848 0.7943 0.8117
1646.355523 0.8215 0.8295 0.8378 0.8460 0.8539
1651.242198 0.8606 0.8669 0.8725 0.8765 0.8797
1656.128873 0.8828 0.8859 0.8891 0.8916 0.8934
1661.015548 0.8951 0.8968 0.8985 0.9001 0.9018
1665.902222 0.9035 0.9051 0.9067 0.9082 0.9095
1670.788897 0.9108 0.9122 0.9135 0.9148 0.9160
1675.675572 0.9173 0.9182 0.9189 0.9195 0.9202
1680.562247 0.9208 0.9214 0.9221 0.9225 0.9228
1685.448921 0.9229 0.9231 0.9233 0.9235 0.9235
1690.335596 0.9236 0.9238 0.9240 0.9242 0.9245
1695.222271 0.9249 0.9252 0.9255 0.9259 0.9262
1700.108946 0.9266 0.9273 0.9281 0.9289 0.9297
1704.995620 0.9304 0.9312 0.9320 0.9327 0.9335
1709.882295 0.9342 0.9349 0.9355 0.9361 0.9367
1714.768970 0.9372 0.9378 0.9384 0.9389 0.9394
1719.655645 0.9400 0.9406 0.9411 0.9414 0.9416
1724.542319 0.9416 0.9419 0.9423 0.9425 0.9427
1729.428994 0.9427 0.9427 0.9427 0.9427 0.9425
1734.315669 0.9421 0.9416 0.9411 0.9406 0.9401
1739.202344 0.9396 0.9392 0.9387 0.9381 0.9375
1744.089019 0.9369 0.9362 0.9354 0.9347 0.9339
1748.975693 0.9332 0.9324 0.9317 0.9308 0.9298
1753.862368 0.9287 0.9276 0.9264 0.9252 0.9238
1758.749043 0.9222 0.9205 0.9189 0.9172 0.9154
1763.635718 0.9134 0.9115 0.9096 0.9083 0.9081
1768.522392 0.9081 0.9081 0.9081 0.9092 0.9103
1773.409067 0.9116 0.9131 0.9149 0.9171 0.9192
1778.295742 0.9211 0.9229 0.9245 0.9260 0.9275
1783.182417 0.9290 0.9304 0.9317 0.9328 0.9339
1788.069091 0.9348 0.9353 0.9359 0.9364 0.9369
1792.955766 0.9375 0.9377 0.9379 0.9380 0.9381
1797.842441 0.9382 0.9383 0.9382 0.9380 0.9379
1802.729116 0.9377 0.9374 0.9372 0.9370 0.9367
1807.615790 0.9362 0.9356 0.9348 0.9339 0.9325
1812.502465 0.9306 0.9286 0.9267 0.9249 0.9231
1817.389140 0.9212 0.9184 0.9153 0.9121 0.9095
1822.275815 0.9079 0.9065 0.9054 0.9054 0.9050
1827.162489 0.9056 0.9058 0.9061 0.9067 0.9075
1832.049164 0.9087 0.9104 0.9124 0.9147 0.9182
1836.935839 0.9206 0.9225 0.9244 0.9263 0.9280
1841.822514 0.9296 0.9307 0.9319 0.9327 0.9334
1846.709189 0.9334 0.9334 0.9334 0.9334 0.9329
1851.595863 0.9324 0.9318 0.9312 0.9306 0.9299
1856.482538 0.9290 0.9274 0.9256 0.9239 0.9222
1861.369213 0.9205 0.9189 0.9173 0.9157 0.9141
1866.255888 0.9125 0.9108 0.9090 0.9069 0.9042
1871.142562 0.9016 0.8996 0.8988 0.8982 0.8975
1876.029237 0.8969 0.8966 0.8966 0.8968 0.8971
1880.915912 0.8968 0.8979 0.8988 0.8997 0.9007
1885.802587 0.9017 0.9028 0.9041 0.9054 0.9071
1890.689261 0.9093 0.9122 0.9152 0.9180 0.9205
1895.575936 0.9230 0.9253 0.9275 0.9296 0.9316
1900.462611 0.9336 0.9354 0.9372 0.9385 0.9391
1905.349286 0.9396 0.9401 0.9405 0.9409 0.9414
1910.235960 0.9418 0.9422 0.9427 0.9432 0.9436
1915.122635 0.9439 0.9443 0.9445 0.9447 0.9449
1920.009310 0.9449 0.9450 0.9451 0.9452 0.9453
1924.895985 0.9453 0.9454 0.9455 0.9455 0.9456
1929.782659 0.9457 0.9457 0.9458 0.9459 0.9459
1934.669334 0.9460 0.9461 0.9461 0.9462 0.9464
1939.556009 0.9465 0.9466 0.9468 0.9470 0.9471
1944.442684 0.9473 0.9475 0.9476 0.9478 0.9480
1949.329359 0.9481 0.9482 0.9483 0.9485 0.9486
1954.216033 0.9487 0.9488 0.9489 0.9489 0.9489
1959.102708 0.9490 0.9490 0.9490 0.9491 0.9491
1963.989383 0.9491 0.9491 0.9492 0.9492 0.9492
1968.876058 0.9493 0.9493 0.9493 0.9494 0.9494
1973.762732 0.9494 0.9495 0.9495 0.9495 0.9496
1978.649407 0.9497 0.9498 0.9499 0.9499 0.9500
1983.536082 0.9500 0.9501 0.9502 0.9502 0.9503
1988.422757 0.9503 0.9504 0.9505 0.9505 0.9507
1993.309431 0.9508 0.9508 0.9509 0.9509 0.9510
1998.196106 0.9510 0.9510 0.9511 0.9511 0.9511
2003.082781 0.9511 0.9511 0.9512 0.9512 0.9512
2007.969456 0.9512 0.9512 0.9513 0.9513 0.9513
2012.856130 0.9513 0.9513 0.9514 0.9514 0.9514
2017.742805 0.9514 0.9514 0.9514 0.9514 0.9514
2022.629480 0.9514 0.9514 0.9514 0.9514 0.9514
2027.516155 0.9514 0.9514 0.9514 0.9514 0.9514
2032.402830 0.9514 0.9514 0.9514 0.9514 0.9514
2037.289504 0.9514 0.9514 0.9514 0.9514 0.9514
2042.176179 0.9514 0.9514 0.9515 0.9515 0.9516
2047.062854 0.9517 0.9517 0.9518 0.9518 0.9519
2051.949529 0.9520 0.9520 0.9521 0.9521 0.9522
2056.836203 0.9523 0.9524 0.9525 0.9525 0.9526
2061.722878 0.9526 0.9527 0.9527 0.9528 0.9529
2066.609553 0.9530 0.9531 0.9532 0.9533 0.9534
2071.496228 0.9535 0.9536 0.9537 0.9538 0.9539
2076.382902 0.9540 0.9541 0.9543 0.9544 0.9545
2081.269577 0.9546 0.9547 0.9548 0.9549 0.9551
2086.156252 0.9553 0.9555 0.9557 0.9559 0.9562
2091.042927 0.9564 0.9566 0.9567 0.9570 0.9572
2095.929601 0.9574 0.9576 0.9578 0.9580 0.9582
2100.816276 0.9584 0.9586 0.9588 0.9590 0.9592
2105.702951 0.9594 0.9596 0.9598 0.9599 0.9600
2110.589626 0.9600 0.9601 0.9602 0.9602 0.9603
2115.476300 0.9604 0.9605 0.9605 0.9605 0.9603
2120.362975 0.9601 0.9600 0.9598 0.9595 0.9594
2125.249650 0.9592 0.9590 0.9588 0.9586 0.9583
2130.136325 0.9581 0.9579 0.9577 0.9574 0.9572
2135.023000 0.9569 0.9567 0.9565 0.9564 0.9564
2139.909674 0.9565 0.9567 0.9568 0.9570 0.9571
2144.796349 0.9573 0.9575 0.9578 0.9581 0.9583
2149.683024 0.9586 0.9589 0.9591 0.9594 0.9597
2154.569699 0.9599 0.9603 0.9606 0.9608 0.9611
2159.456373 0.9614 0.9617 0.9620 0.9622 0.9623
2164.343048 0.9623 0.9622 0.9621 0.9621 0.9620
2169.229723 0.9618 0.9617 0.9615 0.9612 0.9609
2174.116398 0.9606 0.9604 0.9601 0.9598 0.9594
2179.003072 0.9591 0.9588 0.9585 0.9583 0.9580
2183.889747 0.9578 0.9575 0.9573 0.9572 0.9570
2188.776422 0.9568 0.9566 0.9565 0.9563 0.9561
2193.663097 0.9559 0.9557 0.9556 0.9554 0.9552
2198.549771 0.9551 0.9551 0.9551 0.9551 0.9550
2203.436446 0.9550 0.9549 0.9549 0.9548 0.9548
2208.323121 0.9547 0.9547 0.9546 0.9546 0.9545
2213.209796 0.9545 0.9545 0.9546 0.9547 0.9548
2218.096470 0.9549 0.9550 0.9552 0.9553 0.9554
2222.983145 0.9555 0.9557 0.9558 0.9559 0.9560
2227.869820 0.9561 0.9562 0.9563 0.9563 0.9564
2232.756495 0.9564 0.9565 0.9565 0.9566 0.9566
2237.643170 0.9567 0.9567 0.9568 0.9568 0.9569
2242.529844 0.9569 0.9569 0.9569 0.9570 0.9570
2247.416519 0.9570 0.9569 0.9567 0.9566 0.9565
2252.303194 0.9564 0.9562 0.9561 0.9561 0.9560
2257.189869 0.9559 0.9557 0.9556 0.9553 0.9550
2262.076543 0.9548 0.9545 0.9543 0.9541 0.9538
2266.963218 0.9536 0.9533 0.9530 0.9528 0.9525
2271.849893 0.9523 0.9521 0.9518 0.9515 0.9513
2276.736568 0.9510 0.9508 0.9505 0.9503 0.9500
2281.623242 0.9498 0.9495 0.9493 0.9490 0.9488
2286.509917 0.9486 0.9483 0.9480 0.9478 0.9475
2291.396592 0.9472 0.9469 0.9466 0.9462 0.9459
2296.283267 0.9455 0.9451 0.9448 0.9444 0.9440
2301.169941 0.9437 0.9433 0.9429 0.9426 0.9422
2306.056616 0.9418 0.9414 0.9411 0.9408 0.9404
2310.943291 0.9401 0.9397 0.9394 0.9390 0.9386
2315.829966 0.9383 0.9379 0.9375 0.9372 0.9368
2320.716640 0.9364 0.9361 0.9357 0.9354 0.9351
2325.603315 0.9347 0.9344 0.9340 0.9337 0.9334
2330.489990 0.9331 0.9328 0.9324 0.9321 0.9317
2335.376665 0.9314 0.9311 0.9307 0.9304 0.9301
2340.263340 0.9298 0.9295 0.9291 0.9288 0.9284
2345.150014 0.9281 0.9278 0.9275 0.9271 0.9268
2350.036689 0.9265 0.9262 0.9258 0.9255 0.9252
2354.923364 0.9248 0.9245 0.9242 0.9239 0.9235
2359.810039 0.9232 0.9229 0.9226 0.9222 0.9219
2364.696713 0.9215 0.9212 0.9209 0.9206 0.9202
2369.583388 0.9199 0.9196 0.9193 0.9189 0.9186
2374.470063 0.9183 0.9180 0.9177 0.9173 0.9170
2379.356738 0.9167 0.9164 0.9162 0.9159 0.9156
2384.243412 0.9153 0.9153 0.9153 0.9143 0.9158
2389.130087 0.9161 0.9164 0.9166 0.9172 0.9179
2394.016762 0.9186 0.9194 0.9203 0.9214 0.9226
2398.903437 0.9241 0.9256 0.9275 0.9294 0.9315
2403.790111 0.9344 0.9374 0.9395 0.9414 0.9429
2408.676786 0.9438 0.9447 0.9454 0.9460 0.9465
2413.563461 0.9469 0.9473 0.9478 0.9483 0.9486
2418.450136 0.9488 0.9490 0.9492 0.9495 0.9497
2423.336810 0.9499 0.9501 0.9503 0.9505 0.9507
2428.223485 0.9509 0.9511 0.9513 0.9515 0.9518
2433.110160 0.9520 0.9523 0.9525 0.9528 0.9530
2437.996835 0.9532 0.9534 0.9537 0.9539 0.9542
2442.883510 0.9544 0.9545 0.9547 0.9548 0.9548
2447.770184 0.9549 0.9550 0.9550 0.9551 0.9552
2452.656859 0.9553 0.9554 0.9554 0.9555 0.9555
2457.543534 0.9556 0.9557 0.9558 0.9561 0.9557
2462.430209 0.9556 0.9555 0.9555 0.9554 0.9554
2467.316883 0.9553 0.9552 0.9552 0.9551 0.9551
2472.203558 0.9550 0.9549 0.9549 0.9548 0.9548
2477.090233 0.9547 0.9545 0.9544 0.9541 0.9539
2481.976908 0.9536 0.9534 0.9531 0.9529 0.9527
2486.863582 0.9524 0.9522 0.9520 0.9517 0.9515
2491.750257 0.9512 0.9510 0.9508 0.9505 0.9503
2496.636932 0.9500 0.9497 0.9495 0.9492 0.9489
2501.523607 0.9487 0.9484 0.9481 0.9478 0.9476
2506.410281 0.9473 0.9470 0.9468 0.9465 0.9462
2511.296956 0.9459 0.9457 0.9454 0.9451 0.9449
2516.183631 0.9446 0.9443 0.9440 0.9437 0.9434
2521.070306 0.9431 0.9428 0.9426 0.9423 0.9420
2525.956980 0.9418 0.9415 0.9412 0.9410 0.9407
2530.843655 0.9404 0.9401 0.9397 0.9394 0.9391
2535.730330 0.9387 0.9384 0.9381 0.9378 0.9375
2540.617005 0.9371 0.9368 0.9364 0.9361 0.9358
2545.503680 0.9354 0.9351 0.9347 0.9344 0.9341
2550.390354 0.9337 0.9334 0.9331 0.9327 0.9324
2555.277029 0.9320 0.9317 0.9314 0.9310 0.9307
2560.163704 0.9304 0.9300 0.9297 0.9294 0.9290
2565.050379 0.9287 0.9284 0.9282 0.9280 0.9278
2569.937053 0.9277 0.9275 0.9274 0.9272 0.9270
2574.823728 0.9269 0.9267 0.9265 0.9264 0.9263
2579.710403 0.9263 0.9263 0.9263 0.9264 0.9266
2584.597078 0.9268 0.9270 0.9271 0.9273 0.9275
2589.483752 0.9277 0.9279 0.9281 0.9283 0.9286
2594.370427 0.9288 0.9290 0.9293 0.9295 0.9297
2599.257102 0.9300 0.9302 0.9304 0.9306 0.9308
2604.143777 0.9311 0.9313 0.9315 0.9317 0.9319
2609.030451 0.9322 0.9324 0.9327 0.9329 0.9331
2613.917126 0.9333 0.9335 0.9337 0.9339 0.9342
2618.803801 0.9344 0.9346 0.9348 0.9350 0.9353
2623.690476 0.9355 0.9357 0.9360 0.9362 0.9364
2628.577150 0.9365 0.9367 0.9368 0.9369 0.9369
2633.463825 0.9370 0.9371 0.9373 0.9374 0.9375
2638.350500 0.9376 0.9376 0.9377 0.9378 0.9379
2643.237175 0.9380 0.9381 0.9382 0.9382 0.9383
2648.123850 0.9384 0.9385 0.9386 0.9387 0.9387
2653.010524 0.9387 0.9386 0.9385 0.9384 0.9382
2657.897199 0.9380 0.9378 0.9377 0.9376 0.9374
2662.783874 0.9373 0.9372 0.9370 0.9368 0.9366
2667.670549 0.9364 0.9362 0.9360 0.9357 0.9355
2672.557223 0.9352 0.9350 0.9348 0.9346 0.9343
2677.443898 0.9341 0.9339 0.9336 0.9332 0.9328
2682.330573 0.9325 0.9321 0.9317 0.9313 0.9310
2687.217248 0.9306 0.9302 0.9298 0.9293 0.9289
2692.103922 0.9285 0.9280 0.9276 0.9272 0.9267
2696.990597 0.9263 0.9258 0.9253 0.9248 0.9243
2701.877272 0.9236 0.9228 0.9221 0.9214 0.9207
2706.763947 0.9199 0.9189 0.9178 0.9166 0.9152
2711.650621 0.9137 0.9122 0.9106 0.9091 0.9076
2716.537296 0.9061 0.9046 0.9031 0.9016 0.9000
2721.423971 0.8985 0.8969 0.8954 0.8939 0.8924
2726.310646 0.8909 0.8894 0.8879 0.8864 0.8849
2731.197320 0.8834 0.8819 0.8804 0.8789 0.8774
2736.083995 0.8758 0.8743 0.8728 0.8713 0.8698
2740.970670 0.8683 0.8668 0.8654 0.8639 0.8624
2745.857345 0.8609 0.8594 0.8579 0.8565 0.8549
2750.744020 0.8534 0.8520 0.8511 0.8503 0.8497
2755.630694 0.8496 0.8498 0.8502 0.8515 0.8534
2760.517369 0.8553 0.8572 0.8591 0.8610 0.8630
2765.404044 0.8649 0.8669 0.8689 0.8708 0.8727
2770.290719 0.8743 0.8748 0.8754 0.8759 0.8758
2775.177393 0.8757 0.8755 0.8753 0.8751 0.8749
2780.064068 0.8746 0.8744 0.8742 0.8740 0.8737
2784.950743 0.8735 0.8732 0.8729 0.8726 0.8723
2789.837418 0.8720 0.8717 0.8713 0.8705 0.8696
2794.724092 0.8685 0.8666 0.8643 0.8619 0.8596
2799.610767 0.8573 0.8550 0.8527 0.8504 0.8481
2804.497442 0.8459 0.8437 0.8416 0.8394 0.8373
2809.384117 0.8351 0.8324 0.8277 0.8216 0.8153
2814.270791 0.8081 0.7997 0.7913 0.7829 0.7746
2819.157466 0.7663 0.7580 0.7497 0.7413 0.7330
2824.044141 0.7247 0.7164 0.7081 0.6998 0.6916
2828.930816 0.6833 0.6752 0.6675 0.6598 0.6531
2833.817490 0.6481 0.6440 0.6397 0.6341 0.6275
2838.704165 0.6210 0.6145 0.6083 0.6021 0.5964
2843.590840 0.5916 0.5872 0.5816 0.5694 0.5535
2848.477515 0.5376 0.5203 0.5019 0.4834 0.4648
2853.364190 0.4463 0.4278 0.4093 0.3908 0.3724
2858.250864 0.3539 0.3354 0.3170 0.2986 0.2801
2863.137539 0.2617 0.2433 0.2251 0.2160 0.2101
2868.024214 0.2042 0.2010 0.2002 0.1998 0.1995
2872.910889 0.1991 0.1988 0.1985 0.1982 0.1978
2877.797563 0.1974 0.1971 0.1967 0.1964 0.1960
2882.684238 0.1956 0.1953 0.1949 0.1945 0.1941
2887.570913 0.1937 0.1929 0.1902 0.1872 0.1842
2892.457588 0.1806 0.1768 0.1730 0.1692 0.1654
2897.344262 0.1615 0.1576 0.1538 0.1501 0.1463
2902.230937 0.1424 0.1386 0.1348 0.1311 0.1274
2907.117612 0.1238 0.1202 0.1179 0.1175 0.1172
2912.004287 0.1168 0.1164 0.1160 0.1157 0.1153
2916.890961 0.1149 0.1146 0.1142 0.1138 0.1134
2921.777636 0.1131 0.1127 0.1124 0.1120 0.1117
2926.664311 0.1112 0.1107 0.1101 0.1088 0.1062
2931.550986 0.1036 0.1010 0.0985 0.0959 0.0933
2936.437660 0.0908 0.0882 0.0857 0.0831 0.0805
2941.324335 0.0779 0.0754 0.0729 0.0703 0.0677
2946.211010 0.0655 0.0644 0.0639 0.0634 0.0631
2951.097685 0.0630 0.0629 0.0637 0.0647 0.0629
2955.984360 0.0629 0.0633 0.0646 0.0661 0.0681
2960.871034 0.0730 0.0814 0.0899 0.0983 0.1067
2965.757709 0.1151 0.1236 0.1320 0.1404 0.1488
2970.644384 0.1572 0.1656 0.1739 0.1823 0.1907
2975.531059 0.1991 0.2074 0.2158 0.2241 0.2324
2980.417733 0.2408 0.2491 0.2575 0.2658 0.2741
2985.304408 0.2824 0.2907 0.2990 0.3073 0.3156
2990.191083 0.3238 0.3321 0.3403 0.3486 0.3569
2995.077758 0.3651 0.3734 0.3816 0.3898 0.3981
2999.964432 0.4063 0.4145 0.4227 0.4309 0.4392
3004.851107 0.4474 0.4556 0.4638 0.4719 0.4801
3009.737782 0.4883 0.4964 0.5046 0.5127 0.5209
3014.624457 0.5287 0.5366 0.5444 0.5506 0.5527
3019.511131 0.5537 0.5548 0.5556 0.5562 0.5568
3024.397806 0.5573 0.5579 0.5584 0.5590 0.5595
3029.284481 0.5601 0.5607 0.5614 0.5620 0.5626
3034.171156 0.5631 0.5638 0.5644 0.5653 0.5662
3039.057830 0.5673 0.5683 0.5695 0.5706 0.5718
3043.944505 0.5731 0.5745 0.5759 0.5773 0.5800
3048.831180 0.5827 0.5854 0.5885 0.5933 0.5982
3053.717855 0.6031 0.6080 0.6128 0.6176 0.6225
3058.604530 0.6273 0.6321 0.6370 0.6418 0.6466
3063.491204 0.6514 0.6562 0.6611 0.6659 0.6707
3068.377879 0.6755 0.6803 0.6851 0.6899 0.6946
3073.264554 0.6995 0.7042 0.7090 0.7138 0.7186
3078.151229 0.7234 0.7281 0.7329 0.7377 0.7424
3083.037903 0.7471 0.7519 0.7566 0.7614 0.7662
3087.924578 0.7709 0.7757 0.7804 0.7851 0.7898
3092.811253 0.7945 0.7993 0.8040 0.8087 0.8134
3097.697928 0.8181 0.8229 0.8271 0.8299 0.8318
3102.584602 0.8337 0.8358 0.8383 0.8410 0.8438
3107.471277 0.8466 0.8493 0.8520 0.8548 0.8574
3112.357952 0.8600 0.8625 0.8650 0.8675 0.8699
3117.244627 0.8722 0.8745 0.8768 0.8788 0.8807
3122.131301 0.8826 0.8845 0.8865 0.8884 0.8904
3127.017976 0.8922 0.8940 0.8958 0.8975 0.8991
3131.904651 0.9003 0.9013 0.9024 0.9035 0.9045
3136.791326 0.9056 0.9066 0.9077 0.9087 0.9098
3141.678000 0.9109 0.9119 0.9129 0.9140 0.9151
3146.564675 0.9161 0.9172 0.9182 0.9193 0.9203
3151.451350 0.9212 0.9221 0.9230 0.9238 0.9247
3156.338025 0.9256 0.9264 0.9272 0.9281 0.9289
3161.224700 0.9297 0.9305 0.9314 0.9322 0.9330
3166.111374 0.9337 0.9344 0.9350 0.9355 0.9361
3170.998049 0.9366 0.9373 0.9379 0.9384 0.9390
3175.884724 0.9395 0.9401 0.9406 0.9412 0.9417
3180.771399 0.9423 0.9428 0.9433 0.9435 0.9437
3185.658073 0.9438 0.9440 0.9441 0.9443 0.9445
3190.544748 0.9446 0.9448 0.9449 0.9450 0.9452
3195.431423 0.9453 0.9455 0.9456 0.9458 0.9459
3200.318098 0.9460 0.9462 0.9463 0.9465 0.9466
3205.204772 0.9467 0.9469 0.9470 0.9471 0.9472
3210.091447 0.9473 0.9474 0.9475 0.9475 0.9476
3214.978122 0.9477 0.9478 0.9479 0.9480 0.9481
3219.864797 0.9482 0.9483 0.9483 0.9484 0.9485
3224.751471 0.9486 0.9487 0.9488 0.9489 0.9489
3229.638146 0.9490 0.9491 0.9491 0.9492 0.9493
3234.524821 0.9494 0.9495 0.9496 0.9497 0.9499
3239.411496 0.9500 0.9502 0.9503 0.9505 0.9507
3244.298170 0.9508 0.9510 0.9512 0.9514 0.9516
3249.184845 0.9517 0.9519 0.9520 0.9522 0.9524
3254.071520 0.9526 0.9527 0.9529 0.9531 0.9533
3258.958195 0.9534 0.9536 0.9537 0.9539 0.9541
3263.844870 0.9543 0.9545 0.9546 0.9548 0.9550
3268.731544 0.9553 0.9555 0.9557 0.9560 0.9563
3273.618219 0.9566 0.9569 0.9571 0.9574 0.9577
3278.504894 0.9580 0.9582 0.9585 0.9589 0.9592
3283.391569 0.9594 0.9596 0.9598 0.9600 0.9601
3288.278243 0.9600 0.9605 0.9607 0.9608 0.9609
3293.164918 0.9609 0.9610 0.9611 0.9611 0.9611
3298.051593 0.9609 0.9608 0.9607 0.9606 0.9605
3302.938268 0.9604 0.9603 0.9601 0.9600 0.9599
3307.824942 0.9597 0.9596 0.9595 0.9593 0.9591
3312.711617 0.9589 0.9588 0.9586 0.9585 0.9583
3317.598292 0.9582 0.9580 0.9578 0.9576 0.9573
3322.484967 0.9571 0.9568 0.9566 0.9563 0.9560
3327.371641 0.9558 0.9556 0.9553 0.9551 0.9548
3332.258316 0.9546 0.9544 0.9541 0.9538 0.9535
3337.144991 0.9532 0.9529 0.9525 0.9522 0.9518
3342.031666 0.9514 0.9510 0.9507 0.9503 0.9499
3346.918340 0.9494 0.9490 0.9486 0.9483 0.9479
3351.805015 0.9475 0.9471 0.9467 0.9461 0.9456
3356.691690 0.9450 0.9445 0.9440 0.9434 0.9428
3361.578365 0.9423 0.9417 0.9412 0.9406 0.9400
3366.465040 0.9394 0.9388 0.9381 0.9374 0.9367
3371.351714 0.9360 0.9353 0.9345 0.9337 0.9329
3376.238389 0.9321 0.9313 0.9304 0.9296 0.9287
3381.125064 0.9278 0.9268 0.9258 0.9249 0.9239
3386.011739 0.9230 0.9220 0.9210 0.9199 0.9188
3390.898413 0.9174 0.9159 0.9144 0.9129 0.9113
3395.785088 0.9095 0.9077 0.9060 0.9042 0.9020
3400.671763 0.8994 0.8968 0.8943 0.8919 0.8901
3405.558438 0.8886 0.8871 0.8855 0.8840 0.8825
3410.445112 0.8810 0.8795 0.8780 0.8766 0.8754
3415.331787 0.8743 0.8731 0.8719 0.8708 0.8697
3420.218462 0.8686 0.8675 0.8664 0.8652 0.8639
3425.105137 0.8627 0.8614 0.8597 0.8568 0.8535
3429.991811 0.8503 0.8470 0.8437 0.8405 0.8373
3434.878486 0.8341 0.8309 0.8276 0.8244 0.8212
3439.765161 0.8179 0.8147 0.8115 0.8083 0.8051
3444.651836 0.8018 0.7986 0.7955 0.7922 0.7890
3449.538510 0.7858 0.7826 0.7794 0.7762 0.7730
3454.425185 0.7699 0.7666 0.7634 0.7602 0.7570
3459.311860 0.7539 0.7506 0.7475 0.7443 0.7411
3464.198535 0.7380 0.7348 0.7316 0.7285 0.7252
3469.085210 0.7221 0.7199 0.7195 0.7194 0.7192
3473.971884 0.7191 0.7190 0.7190 0.7190 0.7191
3478.858559 0.7191 0.7191 0.7192 0.7193 0.7194
3483.745234 0.7195 0.7199 0.7207 0.7215 0.7223
3488.631909 0.7232 0.7249 0.7277 0.7305 0.7333
3493.518583 0.7361 0.7389 0.7417 0.7445 0.7473
3498.405258 0.7501 0.7529 0.7557 0.7585 0.7613
3503.291933 0.7640 0.7668 0.7696 0.7724 0.7752
3508.178608 0.7780 0.7807 0.7835 0.7863 0.7891
3513.065282 0.7920 0.7947 0.7974 0.8003 0.8030
3517.951957 0.8057 0.8086 0.8113 0.8140 0.8168
3522.838632 0.8196 0.8223 0.8251 0.8278 0.8306
3527.725307 0.8334 0.8361 0.8388 0.8416 0.8443
3532.611981 0.8471 0.8498 0.8525 0.8553 0.8580
3537.498656 0.8607 0.8635 0.8662 0.8690 0.8718
3542.385331 0.8745 0.8772 0.8800 0.8827 0.8854
3547.272006 0.8881 0.8908 0.8935 0.8963 0.8990
3552.158680 0.9016 0.9044 0.9071 0.9098 0.9125
3557.045355 0.9152 0.9179 0.9204 0.9226 0.9248
3561.932030 0.9269 0.9290 0.9305 0.9311 0.9312
3566.818705 0.9313 0.9314 0.9315 0.9316 0.9317
3571.705380 0.9319 0.9320 0.9321 0.9322 0.9324
3576.592054 0.9325 0.9326 0.9327 0.9328 0.9329
3581.478729 0.9331 0.9332 0.9333 0.9334 0.9335
3586.365404 0.9337 0.9338 0.9339 0.9341 0.9342
3591.252079 0.9343 0.9344 0.9345 0.9346 0.9347
3596.138753 0.9348 0.9348 0.9349 0.9350 0.9351
3601.025428 0.9352 0.9353 0.9354 0.9355 0.9355
3605.912103 0.9356 0.9357 0.9358 0.9359 0.9360
3610.798778 0.9361 0.9362 0.9362 0.9363 0.9364
3615.685452 0.9365 0.9366 0.9366 0.9367 0.9368
3620.572127 0.9369 0.9370 0.9371 0.9373 0.9374
3625.458802 0.9375 0.9376 0.9377 0.9378 0.9379
3630.345477 0.9380 0.9381 0.9382 0.9384 0.9386
3635.232151 0.9387 0.9388 0.9389 0.9390 0.9391
3640.118826 0.9392 0.9393 0.9394 0.9396 0.9397
3645.005501 0.9399 0.9400 0.9401 0.9403 0.9405
3649.892176 0.9406 0.9408 0.9410 0.9412 0.9413
3654.778850 0.9415 0.9417 0.9418 0.9420 0.9421
3659.665525 0.9423 0.9425 0.9426 0.9428 0.9430
3664.552200 0.9431 0.9433 0.9434 0.9436 0.9438
3669.438875 0.9439 0.9441 0.9442 0.9444 0.9446
3674.325550 0.9447 0.9449 0.9450 0.9452 0.9454
3679.212224 0.9455 0.9457 0.9459 0.9461 0.9462
3684.098899 0.9464 0.9466 0.9468 0.9470 0.9471
3688.985574 0.9473 0.9474 0.9476 0.9478 0.9479
3693.872249 0.9481 0.9482 0.9483 0.9484 0.9485
3698.758923 0.9486 0.9486 0.9487 0.9488 0.9489
3703.645598 0.9489 0.9490 0.9490 0.9491 0.9492
3708.532273 0.9492 0.9493 0.9494 0.9494 0.9495
3713.418948 0.9496 0.9496 0.9497 0.9498 0.9499
3718.305622 0.9499 0.9500 0.9501 0.9501 0.9502
3723.192297 0.9503 0.9503 0.9504 0.9504 0.9505
3728.078972 0.9505 0.9506 0.9507 0.9507 0.9508
3732.965647 0.9509 0.9509 0.9510 0.9510 0.9511
3737.852321 0.9511 0.9512 0.9513 0.9513 0.9513
3742.738996 0.9513 0.9513 0.9516 0.9532 0.9514
3747.625671 0.9514 0.9514 0.9514 0.9514 0.9515
3752.512346 0.9515 0.9515 0.9515 0.9515 0.9515
3757.399020 0.9516 0.9516 0.9516 0.9516 0.9516
3762.285695 0.9516 0.9517 0.9517 0.9517 0.9517
3767.172370 0.9517 0.9518 0.9518 0.9518 0.9518
3772.059045 0.9518 0.9518 0.9519 0.9519 0.9519
3776.945720 0.9519 0.9519 0.9519 0.9520 0.9520
3781.832394 0.9520 0.9520 0.9520 0.9520 0.9521
3786.719069 0.9521 0.9521 0.9521 0.9521 0.9522
3791.605744 0.9522 0.9522 0.9522 0.9522 0.9522
3796.492419 0.9523 0.9523 0.9523 0.9523 0.9523
3801.379093 0.9523 0.9524 0.9524 0.9524 0.9524
3806.265768 0.9524 0.9524 0.9524 0.9524 0.9524
3811.152443 0.9524 0.9524 0.9524 0.9524 0.9523
3816.039118 0.9523 0.9523 0.9523 0.9523 0.9523
3820.925792 0.9523 0.9523 0.9523 0.9523 0.9523
3825.812467 0.9523 0.9523 0.9523 0.9523 0.9523
3830.699142 0.9523 0.9523 0.9523 0.9523 0.9523
3835.585817 0.9523 0.9523 0.9522 0.9522 0.9522
3840.472491 0.9522 0.9522 0.9522 0.9522 0.9522
3845.359166 0.9522 0.9522 0.9522 0.9522 0.9522
3850.245841 0.9522 0.9522 0.9522 0.9522 0.9522
3855.132516 0.9521 0.9521 0.9521 0.9521 0.9521
3860.019190 0.9521 0.9521 0.9521 0.9521 0.9521
3864.905865 0.9521 0.9521 0.9521 0.9520 0.9520
3869.792540 0.9520 0.9519 0.9519 0.9519 0.9518
3874.679215 0.9518 0.9518 0.9517 0.9517 0.9517
3879.565890 0.9516 0.9516 0.9516 0.9515 0.9515
3884.452564 0.9515 0.9514 0.9514 0.9514 0.9513
3889.339239 0.9513 0.9512 0.9511 0.9511 0.9511
3894.225914 0.9510 0.9510 0.9510 0.9509 0.9509
3899.112589 0.9509 0.9508 0.9508 0.9508 0.9507
3903.999263 0.9507 0.9507 0.9506 0.9506 0.9505
3908.885938 0.9505 0.9504 0.9504 0.9504 0.9503
3913.772613 0.9503 0.9503 0.9502 0.9502 0.9502
3918.659288 0.9501 0.9501 0.9501 0.0000
##END=
