##TITLE=1-NITRO OCTANE
##JCAMP-DX=4.24
##DATA TYPE=INFRARED SPECTRUM
##CLASS=COBLENTZ
##OWNER=COBLENTZ SOCIETY
Collection (C) 2018 copyright by the U.S. Secretary of Commerce
on behalf of the United States of America. All rights reserved.
##DATE=1960
##MOLFORM=C8 H12 N O2
##SOURCE REFERENCE=COBLENTZ NO. 995
##$NIST ID=B6000995
##$NIST SOURCE=COBLENTZ
##$NIST IMAGE=cob995
##SPECTROMETER/DATA SYSTEM=Not specified, most likely a prism, grating, or hybrid spectrometer.
##STATE=SOLID (KBr DISC)
##SAMPLING PROCEDURE=TRANSMISSION
##RESOLUTION=4
##DATA PROCESSING=DIGITIZED BY NIST FROM HARD COPY
##XUNITS=MICROMETERS
##YUNITS=TRANSMITTANCE
##XFACTOR=1.000000
##YFACTOR=1
##DELTAX=000.006646
##FIRSTX=2.1
##LASTX=15.9838
##FIRSTY=0.803
##MAXX=15.9838
##MINX=2.1
##MAXY=0.833
##MINY=0.041
##NPOINTS=2090
##XYDATA=(X++(Y..Y))
2.100000 0.8030 0.8030 0.8030 0.8050 0.8050
2.133247 0.8050 0.8050 0.8060 0.8060 0.8060
2.166000 0.8060 0.8060 0.8100 0.8080 0.8080
2.199247 0.8080 0.8080 0.8080 0.8060 0.8060
2.233000 0.8050 0.8030 0.8030 0.8010 0.8010
2.266247 0.8000 0.7980 0.7950 0.7930 0.7920
2.299000 0.7870 0.7870 0.7850 0.7850 0.7850
2.332247 0.7850 0.7870 0.7870 0.7870 0.7870
2.366000 0.7880 0.7900 0.7900 0.7900 0.7920
2.399247 0.7920 0.7930 0.7930 0.7930 0.7930
2.432000 0.7930 0.7930 0.7930 0.7930 0.7930
2.465247 0.7970 0.7970 0.7980 0.7980 0.8000
2.498000 0.8010 0.8010 0.8010 0.8030 0.8030
2.531247 0.8030 0.8050 0.8050 0.8060 0.8050
2.565000 0.8050 0.8050 0.8060 0.8060 0.8080
2.598247 0.8080 0.8100 0.8100 0.8100 0.8100
2.631000 0.8080 0.8080 0.8080 0.8030 0.8030
2.664247 0.8080 0.8080 0.8110 0.8110 0.8130
2.698000 0.8150 0.8130 0.8150 0.8150 0.8130
2.731247 0.8110 0.8100 0.8080 0.8030 0.8030
2.764000 0.8030 0.8030 0.8030 0.8030 0.8030
2.797247 0.8030 0.8030 0.8030 0.8030 0.8030
2.831000 0.8030 0.8030 0.8030 0.8030 0.8030
2.864247 0.8030 0.8030 0.8030 0.8030 0.8030
2.897000 0.8030 0.8030 0.8030 0.8030 0.8030
2.930247 0.8030 0.8050 0.8050 0.8050 0.8050
2.964000 0.8050 0.8050 0.8050 0.8060 0.8060
2.997247 0.8060 0.8060 0.8060 0.8060 0.8060
3.030000 0.8060 0.8060 0.8060 0.8060 0.8060
3.063247 0.8060 0.8050 0.8050 0.8050 0.8050
3.097000 0.8050 0.8050 0.8050 0.8050 0.8050
3.130247 0.8030 0.8030 0.8030 0.8010 0.8010
3.163000 0.8000 0.8000 0.8000 0.7980 0.7980
3.196247 0.7970 0.7970 0.7970 0.7950 0.7950
3.230000 0.7930 0.7930 0.7920 0.7900 0.7900
3.263247 0.7880 0.7850 0.7830 0.7780 0.7720
3.296000 0.7680 0.7630 0.7530 0.7430 0.7370
3.329247 0.7220 0.7120 0.6630 0.5970 0.5500
3.362000 0.5070 0.4620 0.4070 0.3040 0.2040
3.395247 0.1690 0.1310 0.1140 0.0910 0.0790
3.429000 0.0760 0.0790 0.1130 0.1610 0.2440
3.462247 0.2490 0.2790 0.3120 0.3290 0.3290
3.495000 0.2890 0.2740 0.2040 0.2040 0.2890
3.528247 0.3220 0.3740 0.4590 0.5800 0.6100
3.562000 0.6520 0.6750 0.6970 0.7130 0.7300
3.595247 0.7380 0.7500 0.7550 0.7580 0.7630
3.628000 0.7650 0.7680 0.7700 0.7700 0.7700
3.661247 0.7720 0.7700 0.7720 0.7720 0.7730
3.695000 0.7770 0.7780 0.7820 0.7830 0.7850
3.728247 0.7850 0.7850 0.7870 0.7870 0.7870
3.761000 0.7870 0.7870 0.7870 0.7870 0.7900
3.794247 0.7900 0.7950 0.7950 0.7980 0.8000
3.828000 0.8010 0.8010 0.8010 0.8030 0.8050
3.861247 0.8050 0.8050 0.8060 0.8060 0.8060
3.894000 0.8060 0.8060 0.8060 0.8060 0.8060
3.927247 0.8080 0.8080 0.8100 0.8110 0.8110
3.961000 0.8110 0.8110 0.8100 0.8100 0.8100
3.994247 0.8100 0.8150 0.8150 0.8160 0.8160
4.027000 0.8160 0.8160 0.8160 0.8160 0.8150
4.060247 0.8150 0.8130 0.8110 0.8110 0.8100
4.094000 0.8100 0.8100 0.8100 0.8100 0.8100
4.127247 0.8100 0.8100 0.8110 0.8110 0.8110
4.160000 0.8110 0.8130 0.8130 0.8130 0.8150
4.193247 0.8150 0.8150 0.8160 0.8160 0.8180
4.226000 0.8180 0.8200 0.8200 0.8210 0.8210
4.259247 0.8210 0.8230 0.8230 0.8250 0.8250
4.293000 0.8250 0.8250 0.8250 0.8250 0.8250
4.326247 0.8250 0.8250 0.8250 0.8230 0.8230
4.359000 0.8230 0.8200 0.8200 0.8200 0.8200
4.392247 0.8200 0.8180 0.8180 0.8200 0.8180
4.426000 0.8180 0.8180 0.8180 0.8180 0.8180
4.459247 0.8180 0.8180 0.8180 0.8180 0.8180
4.492000 0.8180 0.8180 0.8180 0.8180 0.8180
4.525247 0.8180 0.8200 0.8200 0.8210 0.8210
4.559000 0.8200 0.8200 0.8200 0.8200 0.8210
4.592247 0.8210 0.8210 0.8210 0.8210 0.8210
4.625000 0.8210 0.8210 0.8210 0.8230 0.8230
4.658247 0.8230 0.8230 0.8230 0.8230 0.8230
4.692000 0.8230 0.8230 0.8230 0.8230 0.8230
4.725247 0.8230 0.8230 0.8230 0.8250 0.8250
4.758000 0.8250 0.8250 0.8250 0.8250 0.8250
4.791247 0.8260 0.8260 0.8260 0.8260 0.8260
4.825000 0.8260 0.8260 0.8260 0.8260 0.8260
4.858247 0.8260 0.8260 0.8260 0.8260 0.8260
4.891000 0.8260 0.8260 0.8260 0.8260 0.8260
4.924247 0.8260 0.8260 0.8260 0.8260 0.8260
4.958000 0.8260 0.8260 0.8280 0.8280 0.8280
4.991247 0.8280 0.8280 0.8280 0.8280 0.8280
5.024000 0.8280 0.8300 0.8300 0.8300 0.8300
5.057247 0.8300 0.8300 0.8300 0.8300 0.8300
5.090000 0.8300 0.8300 0.8300 0.8300 0.8300
5.123247 0.8300 0.8300 0.8300 0.8300 0.8300
5.157000 0.8300 0.8300 0.8300 0.8300 0.8300
5.190247 0.8300 0.8300 0.8310 0.8310 0.8310
5.223000 0.8310 0.8310 0.8310 0.8310 0.8310
5.256247 0.8330 0.8330 0.8330 0.8330 0.8330
5.290000 0.8330 0.8330 0.8330 0.8330 0.8330
5.323247 0.8330 0.8330 0.8330 0.8330 0.8330
5.356000 0.8330 0.8330 0.8330 0.8330 0.8330
5.389247 0.8330 0.8330 0.8330 0.8330 0.8330
5.423000 0.8330 0.8330 0.8330 0.8330 0.8330
5.456247 0.8330 0.8330 0.8330 0.8330 0.8330
5.489000 0.8330 0.8330 0.8310 0.8330 0.8330
5.522247 0.8330 0.8330 0.8330 0.8330 0.8330
5.556000 0.8330 0.8330 0.8310 0.8330 0.8330
5.589247 0.8330 0.8330 0.8330 0.8330 0.8330
5.622000 0.8330 0.8330 0.8330 0.8310 0.8310
5.655247 0.8310 0.8300 0.8300 0.8300 0.8280
5.689000 0.8280 0.8280 0.8260 0.8260 0.8260
5.722247 0.8260 0.8260 0.8260 0.8260 0.8260
5.755000 0.8260 0.8260 0.8260 0.8250 0.8250
5.788247 0.8250 0.8230 0.8230 0.8230 0.8210
5.822000 0.8210 0.8200 0.8210 0.8210 0.8250
5.855247 0.8260 0.8280 0.8280 0.8300 0.8300
5.888000 0.8300 0.8300 0.8300 0.8300 0.8300
5.921247 0.8300 0.8280 0.8280 0.8280 0.8260
5.954000 0.8260 0.8250 0.8250 0.8250 0.8250
5.987247 0.8250 0.8230 0.8230 0.8210 0.8180
6.021000 0.8180 0.8160 0.8130 0.8110 0.8100
6.054247 0.8080 0.8080 0.8050 0.8000 0.7930
6.087000 0.7900 0.7850 0.7780 0.7680 0.7600
6.120247 0.7550 0.7480 0.7400 0.7120 0.7030
6.154000 0.6980 0.6980 0.7030 0.7050 0.7100
6.187247 0.7130 0.7170 0.7170 0.7180 0.7180
6.220000 0.7180 0.7150 0.7100 0.7030 0.7020
6.253247 0.6900 0.6850 0.6820 0.6750 0.6670
6.287000 0.6500 0.6380 0.6270 0.6080 0.5990
6.320247 0.5870 0.5670 0.5420 0.5320 0.5190
6.353000 0.5040 0.4890 0.4020 0.3590 0.3060
6.386247 0.2920 0.2560 0.2370 0.1610 0.1230
6.420000 0.0990 0.0880 0.0790 0.0730 0.0610
6.453247 0.0440 0.0430 0.0410 0.0410 0.0410
6.486000 0.0440 0.0530 0.1030 0.1610 0.1860
6.519247 0.2590 0.3220 0.3540 0.3790 0.4190
6.553000 0.4370 0.4690 0.4800 0.4990 0.5200
6.586247 0.5270 0.5450 0.5640 0.5790 0.5890
6.619000 0.6000 0.6130 0.6250 0.6320 0.6380
6.652247 0.6420 0.6480 0.6520 0.6620 0.6680
6.686000 0.6720 0.6780 0.6830 0.6880 0.6880
6.719247 0.6900 0.6920 0.6920 0.6900 0.6880
6.752000 0.6850 0.6800 0.6780 0.6730 0.6680
6.785247 0.6500 0.6400 0.5970 0.5220 0.4650
6.819000 0.4090 0.3710 0.3510 0.3420 0.3420
6.852247 0.3440 0.3510 0.3520 0.3610 0.3720
6.885000 0.3870 0.4100 0.4270 0.4450 0.4600
6.918247 0.4670 0.4770 0.4770 0.4690 0.4540
6.951000 0.4490 0.4220 0.3920 0.3620 0.3610
6.984247 0.3620 0.3640 0.3820 0.4190 0.4620
7.018000 0.4950 0.5500 0.5690 0.5890 0.6080
7.051247 0.6200 0.6300 0.6400 0.6500 0.6620
7.084000 0.6680 0.6730 0.6800 0.6850 0.6820
7.117247 0.6780 0.6750 0.6730 0.6700 0.6600
7.151000 0.6480 0.6380 0.6280 0.6100 0.5900
7.184247 0.5300 0.4850 0.4400 0.4170 0.3670
7.217000 0.3460 0.3010 0.2690 0.2420 0.2240
7.250247 0.2190 0.2190 0.2340 0.2510 0.2640
7.284000 0.2890 0.3110 0.3340 0.3660 0.3810
7.317247 0.3990 0.4290 0.4490 0.4690 0.4820
7.350000 0.4990 0.5320 0.5420 0.5490 0.5490
7.383247 0.5520 0.5540 0.5550 0.5570 0.5590
7.417000 0.5640 0.5720 0.5800 0.5870 0.5990
7.450247 0.6020 0.6050 0.6100 0.6100 0.6170
7.483000 0.6200 0.6300 0.6430 0.6570 0.6680
7.516247 0.6800 0.6900 0.7000 0.7080 0.7150
7.550000 0.7220 0.7220 0.7250 0.7270 0.7270
7.583247 0.7280 0.7280 0.7280 0.7280 0.7270
7.616000 0.7250 0.7250 0.7250 0.7250 0.7230
7.649247 0.7230 0.7220 0.7200 0.7200 0.7180
7.683000 0.7170 0.7150 0.7150 0.7130 0.7150
7.716247 0.7170 0.7170 0.7170 0.7180 0.7170
7.749000 0.7170 0.7170 0.7170 0.7170 0.7150
7.782247 0.7080 0.7020 0.6980 0.6900 0.6870
7.815000 0.6780 0.6720 0.6680 0.6680 0.6730
7.848247 0.6770 0.6800 0.6850 0.6920 0.6980
7.882000 0.7030 0.7080 0.7100 0.7130 0.7180
7.915247 0.7220 0.7230 0.7250 0.7280 0.7300
7.948000 0.7320 0.7330 0.7330 0.7370 0.7380
7.981247 0.7380 0.7380 0.7380 0.7370 0.7370
8.015000 0.7370 0.7350 0.7350 0.7350 0.7350
8.048247 0.7350 0.7330 0.7330 0.7330 0.7320
8.081000 0.7320 0.7300 0.7280 0.7280 0.7250
8.114247 0.7230 0.7220 0.7220 0.7200 0.7200
8.148000 0.7200 0.7200 0.7180 0.7180 0.7180
8.181247 0.7200 0.7220 0.7230 0.7250 0.7270
8.214000 0.7280 0.7280 0.7300 0.7300 0.7330
8.247247 0.7330 0.7230 0.7180 0.7170 0.7130
8.281000 0.7130 0.7130 0.7170 0.7180 0.7200
8.314247 0.7220 0.7230 0.7230 0.7270 0.7270
8.347000 0.7270 0.7270 0.7270 0.7270 0.7270
8.380247 0.7270 0.7250 0.7250 0.7230 0.7220
8.414000 0.7220 0.7220 0.7200 0.7170 0.7170
8.447247 0.7150 0.7130 0.7130 0.7130 0.7130
8.480000 0.7130 0.7130 0.7130 0.7120 0.7120
8.513247 0.7130 0.7150 0.7200 0.7230 0.7230
8.547000 0.7230 0.7280 0.7300 0.7330 0.7400
8.580247 0.7420 0.7480 0.7520 0.7530 0.7550
8.613000 0.7570 0.7580 0.7620 0.7670 0.7680
8.646247 0.7680 0.7700 0.7700 0.7700 0.7700
8.679000 0.7720 0.7700 0.7680 0.7670 0.7650
8.712247 0.7580 0.7550 0.7530 0.7500 0.7420
8.746000 0.7370 0.7300 0.7270 0.7230 0.7170
8.779247 0.7100 0.7050 0.6980 0.6970 0.6930
8.812000 0.6930 0.6930 0.6930 0.6950 0.6970
8.845247 0.6970 0.6980 0.6980 0.6980 0.7000
8.879000 0.7000 0.7020 0.7030 0.7030 0.7080
8.912247 0.7120 0.7130 0.7220 0.7270 0.7320
8.945000 0.7420 0.7480 0.7500 0.7520 0.7550
8.978247 0.7580 0.7630 0.7680 0.7720 0.7750
9.012000 0.7730 0.7770 0.7780 0.7800 0.7830
9.045247 0.7830 0.7850 0.7850 0.7870 0.7870
9.078000 0.7870 0.7850 0.7870 0.7870 0.7870
9.111247 0.7880 0.7850 0.7850 0.7850 0.7850
9.145000 0.7870 0.7850 0.7850 0.7850 0.7850
9.178247 0.7850 0.7850 0.7830 0.7820 0.7820
9.211000 0.7820 0.7820 0.7820 0.7820 0.7820
9.244247 0.7820 0.7800 0.7800 0.7780 0.7750
9.278000 0.7770 0.7750 0.7750 0.7750 0.7730
9.311247 0.7720 0.7700 0.7700 0.7700 0.7680
9.344000 0.7680 0.7680 0.7680 0.7680 0.7680
9.377247 0.7680 0.7680 0.7680 0.7680 0.7680
9.411000 0.7680 0.7680 0.7700 0.7700 0.7700
9.444247 0.7700 0.7720 0.7730 0.7730 0.7750
9.477000 0.7750 0.7770 0.7770 0.7770 0.7770
9.510247 0.7770 0.7780 0.7780 0.7800 0.7800
9.543000 0.7820 0.7820 0.7830 0.7830 0.7830
9.576247 0.7830 0.7820 0.7830 0.7830 0.7830
9.610000 0.7830 0.7850 0.7850 0.7850 0.7850
9.643247 0.7850 0.7850 0.7850 0.7850 0.7850
9.676000 0.7850 0.7850 0.7850 0.7850 0.7850
9.709247 0.7850 0.7850 0.7850 0.7850 0.7850
9.743000 0.7870 0.7870 0.7870 0.7870 0.7870
9.776247 0.7870 0.7870 0.7880 0.7880 0.7880
9.809000 0.7880 0.7880 0.7880 0.7880 0.7880
9.842247 0.7880 0.7900 0.7900 0.7920 0.7920
9.876000 0.7920 0.7920 0.7930 0.7930 0.7930
9.909247 0.7950 0.7950 0.7950 0.7950 0.7970
9.942000 0.7980 0.7980 0.7970 0.8000 0.8000
9.975247 0.8000 0.8000 0.8000 0.8010 0.8010
10.009000 0.8010 0.8030 0.8030 0.8030 0.8050
10.042247 0.8050 0.8050 0.8050 0.8050 0.8050
10.075000 0.8050 0.8050 0.8050 0.8050 0.8050
10.108247 0.8050 0.8050 0.8050 0.8050 0.8050
10.142000 0.8050 0.8050 0.8050 0.8050 0.8050
10.175247 0.8050 0.8050 0.8050 0.8050 0.8050
10.208000 0.8050 0.8050 0.8030 0.8050 0.8050
10.241247 0.8050 0.8030 0.8030 0.8030 0.8030
10.275000 0.8030 0.8030 0.8030 0.8030 0.8050
10.308247 0.8050 0.8050 0.8030 0.8030 0.8030
10.341000 0.8030 0.8010 0.8010 0.8010 0.8010
10.374247 0.8010 0.8000 0.8000 0.8000 0.8000
10.407000 0.7980 0.7980 0.7980 0.7980 0.7980
10.440247 0.7980 0.7980 0.7980 0.7980 0.7980
10.474000 0.7980 0.7980 0.8000 0.8000 0.8000
10.507247 0.8000 0.8000 0.8000 0.8000 0.8000
10.540000 0.8000 0.8000 0.8010 0.8010 0.8010
10.573247 0.8010 0.8010 0.8010 0.8030 0.8030
10.607000 0.8030 0.8030 0.8030 0.8030 0.8030
10.640247 0.8030 0.8050 0.8050 0.8050 0.8050
10.673000 0.8050 0.8050 0.8050 0.8050 0.8050
10.706247 0.8050 0.8050 0.8050 0.8050 0.8050
10.740000 0.8050 0.8050 0.8050 0.8050 0.8050
10.773247 0.8050 0.8050 0.8050 0.8050 0.8050
10.806000 0.8050 0.8050 0.8050 0.8050 0.8050
10.839247 0.8050 0.8050 0.8030 0.8050 0.8050
10.873000 0.8050 0.8050 0.8030 0.8030 0.8010
10.906247 0.8010 0.8000 0.8000 0.7970 0.7950
10.939000 0.7930 0.7930 0.7920 0.7920 0.7900
10.972247 0.7880 0.7870 0.7850 0.7830 0.7820
11.006000 0.7820 0.7820 0.7800 0.7770 0.7750
11.039247 0.7750 0.7750 0.7750 0.7750 0.7770
11.072000 0.7770 0.7780 0.7800 0.7800 0.7800
11.105247 0.7800 0.7800 0.7800 0.7800 0.7780
11.139000 0.7800 0.7800 0.7800 0.7820 0.7820
11.172247 0.7820 0.7800 0.7780 0.7780 0.7780
11.205000 0.7780 0.7770 0.7770 0.7750 0.7750
11.238247 0.7750 0.7730 0.7730 0.7720 0.7700
11.271000 0.7650 0.7650 0.7630 0.7630 0.7580
11.304247 0.7550 0.7520 0.7500 0.7420 0.7400
11.338000 0.7400 0.7330 0.7300 0.7280 0.7250
11.371247 0.7250 0.7250 0.7250 0.7250 0.7250
11.404000 0.7270 0.7270 0.7300 0.7320 0.7330
11.437247 0.7350 0.7350 0.7370 0.7370 0.7380
11.471000 0.7380 0.7380 0.7400 0.7420 0.7430
11.504247 0.7450 0.7470 0.7480 0.7480 0.7520
11.537000 0.7530 0.7530 0.7530 0.7530 0.7550
11.570247 0.7550 0.7570 0.7570 0.7580 0.7600
11.604000 0.7620 0.7630 0.7650 0.7650 0.7650
11.637247 0.7670 0.7680 0.7700 0.7700 0.7720
11.670000 0.7730 0.7730 0.7730 0.7750 0.7750
11.703247 0.7770 0.7780 0.7780 0.7800 0.7820
11.737000 0.7830 0.7830 0.7850 0.7870 0.7900
11.770247 0.7900 0.7900 0.7920 0.7920 0.7920
11.803000 0.7920 0.7930 0.7930 0.7930 0.7950
11.836247 0.7950 0.7950 0.7970 0.7970 0.7970
11.870000 0.7980 0.7980 0.7980 0.7980 0.8000
11.903247 0.7980 0.7980 0.7980 0.7980 0.7980
11.936000 0.7980 0.7980 0.7980 0.7980 0.7980
11.969247 0.7980 0.7980 0.7980 0.7980 0.7980
12.003000 0.7970 0.7930 0.7930 0.7930 0.7930
12.036247 0.7930 0.7930 0.7930 0.7920 0.7920
12.069000 0.7900 0.7880 0.7850 0.7850 0.7830
12.102247 0.7830 0.7830 0.7830 0.7830 0.7830
12.135000 0.7830 0.7830 0.7830 0.7820 0.7820
12.168247 0.7820 0.7820 0.7820 0.7820 0.7820
12.202000 0.7820 0.7820 0.7820 0.7820 0.7820
12.235247 0.7820 0.7830 0.7850 0.7870 0.7870
12.268000 0.7870 0.7880 0.7880 0.7880 0.7900
12.301247 0.7900 0.7900 0.7900 0.7900 0.7920
12.335000 0.7920 0.7920 0.7920 0.7920 0.7920
12.368247 0.7920 0.7930 0.7930 0.7930 0.7950
12.401000 0.7970 0.7980 0.7980 0.7980 0.7980
12.434247 0.7980 0.7980 0.7980 0.7930 0.7930
12.468000 0.7920 0.7930 0.7930 0.7950 0.7950
12.501247 0.7970 0.7970 0.7980 0.7980 0.7980
12.534000 0.7980 0.7980 0.7970 0.7970 0.7970
12.567247 0.7950 0.7930 0.7930 0.7930 0.7930
12.601000 0.7920 0.7920 0.7920 0.7900 0.7900
12.634247 0.7900 0.7880 0.7880 0.7870 0.7870
12.667000 0.7850 0.7850 0.7830 0.7820 0.7800
12.700247 0.7780 0.7780 0.7780 0.7770 0.7750
12.734000 0.7730 0.7720 0.7720 0.7680 0.7670
12.767247 0.7630 0.7620 0.7620 0.7600 0.7600
12.800000 0.7580 0.7570 0.7530 0.7530 0.7520
12.833247 0.7500 0.7470 0.7450 0.7450 0.7430
12.867000 0.7400 0.7380 0.7380 0.7350 0.7350
12.900247 0.7320 0.7320 0.7320 0.7320 0.7320
12.933000 0.7320 0.7320 0.7320 0.7320 0.7320
12.966247 0.7320 0.7330 0.7330 0.7330 0.7350
12.999000 0.7350 0.7400 0.7400 0.7400 0.7420
13.032247 0.7430 0.7470 0.7480 0.7500 0.7500
13.066000 0.7520 0.7520 0.7520 0.7520 0.7520
13.099247 0.7530 0.7530 0.7530 0.7530 0.7530
13.132000 0.7530 0.7530 0.7530 0.7530 0.7530
13.165247 0.7530 0.7530 0.7530 0.7530 0.7530
13.199000 0.7530 0.7530 0.7530 0.7530 0.7530
13.232247 0.7530 0.7530 0.7530 0.7530 0.7520
13.265000 0.7520 0.7500 0.7500 0.7500 0.7480
13.298247 0.7450 0.7450 0.7430 0.7430 0.7430
13.332000 0.7430 0.7430 0.7420 0.7420 0.7420
13.365247 0.7400 0.7400 0.7350 0.7330 0.7320
13.398000 0.7300 0.7300 0.7280 0.7270 0.7270
13.431247 0.7250 0.7230 0.7220 0.7200 0.7150
13.465000 0.7150 0.7150 0.7150 0.7150 0.7150
13.498247 0.7150 0.7130 0.7130 0.7120 0.7120
13.531000 0.7100 0.7100 0.7100 0.7100 0.7080
13.564247 0.7080 0.7080 0.7080 0.7070 0.7050
13.598000 0.7030 0.7020 0.7020 0.7020 0.6980
13.631247 0.6970 0.6930 0.6920 0.6920 0.6920
13.664000 0.6900 0.6870 0.6850 0.6850 0.6830
13.697247 0.6800 0.6730 0.6700 0.6650 0.6620
13.731000 0.6600 0.6530 0.6520 0.6480 0.6430
13.764247 0.6380 0.6330 0.6280 0.6230 0.6180
13.797000 0.6130 0.6120 0.6050 0.6030 0.6020
13.830247 0.6020 0.6020 0.6000 0.6000 0.6020
13.863000 0.6020 0.6030 0.6030 0.6030 0.6050
13.896247 0.6120 0.6170 0.6230 0.6320 0.6350
13.930000 0.6400 0.6420 0.6430 0.6450 0.6500
13.963247 0.6500 0.6520 0.6570 0.6580 0.6600
13.996000 0.6620 0.6630 0.6650 0.6670 0.6720
14.029247 0.6730 0.6770 0.6780 0.6780 0.6800
14.063000 0.6800 0.6800 0.6820 0.6820 0.6850
14.096247 0.6870 0.6880 0.6900 0.6900 0.6920
14.129000 0.6920 0.6920 0.6920 0.6920 0.6920
14.162247 0.6920 0.6920 0.6930 0.6930 0.6950
14.196000 0.6950 0.6950 0.6950 0.6950 0.6980
14.229247 0.6950 0.6980 0.6980 0.7000 0.7000
14.262000 0.7000 0.7020 0.7020 0.7030 0.7030
14.295247 0.7030 0.7030 0.7030 0.7030 0.7030
14.329000 0.7030 0.7030 0.7030 0.7050 0.7100
14.362247 0.7100 0.7100 0.7120 0.7120 0.7120
14.395000 0.7130 0.7130 0.7130 0.7130 0.7130
14.428247 0.7130 0.7150 0.7150 0.7150 0.7130
14.462000 0.7150 0.7150 0.7150 0.7170 0.7170
14.495247 0.7170 0.7170 0.7180 0.7180 0.7180
14.528000 0.7180 0.7200 0.7200 0.7200 0.7200
14.561247 0.7200 0.7200 0.7220 0.7220 0.7200
14.595000 0.7180 0.7180 0.7180 0.7170 0.7170
14.628247 0.7170 0.7180 0.7180 0.7180 0.7180
14.661000 0.7180 0.7180 0.7180 0.7180 0.7180
14.694247 0.7180 0.7180 0.7180 0.7170 0.7170
14.728000 0.7170 0.7170 0.7170 0.7170 0.7170
14.761247 0.7150 0.7150 0.7130 0.7130 0.7120
14.794000 0.7100 0.7100 0.7100 0.7080 0.7080
14.827247 0.7080 0.7080 0.7080 0.7100 0.7080
14.860000 0.7080 0.7080 0.7080 0.7050 0.7020
14.893247 0.7020 0.7020 0.7020 0.7020 0.7000
14.927000 0.7000 0.7000 0.6980 0.6980 0.6980
14.960247 0.6980 0.6980 0.6980 0.7000 0.7000
14.993000 0.7030 0.7030 0.7030 0.7030 0.7030
15.026247 0.7030 0.7030 0.7030 0.7030 0.7020
15.060000 0.7020 0.7020 0.7020 0.6970 0.6950
15.093247 0.6920 0.6900 0.6900 0.6900 0.6900
15.126000 0.6900 0.6900 0.6870 0.6850 0.6830
15.159247 0.6800 0.6750 0.6730 0.6730 0.6750
15.193000 0.6750 0.6750 0.6750 0.6730 0.6730
15.226247 0.6720 0.6670 0.6670 0.6670 0.6670
15.259000 0.6650 0.6650 0.6650 0.6650 0.6630
15.292247 0.6630 0.6620 0.6600 0.6600 0.6550
15.326000 0.6550 0.6550 0.6550 0.6550 0.6550
15.359247 0.6530 0.6520 0.6500 0.6470 0.6450
15.392000 0.6430 0.6420 0.6420 0.6420 0.6420
15.425247 0.6420 0.6420 0.6420 0.6420 0.6420
15.459000 0.6420 0.6400 0.6400 0.6370 0.6350
15.492247 0.6350 0.6350 0.6330 0.6330 0.6320
15.525000 0.6320 0.6280 0.6250 0.6250 0.6250
15.558247 0.6230 0.6230 0.6230 0.6230 0.6230
15.592000 0.6220 0.6220 0.6220 0.6220 0.6220
15.625247 0.6220 0.6220 0.6180 0.6180 0.6180
15.658000 0.6170 0.6150 0.6130 0.6120 0.6120
15.691247 0.6130 0.6130 0.6130 0.6130 0.6130
15.724000 0.6130 0.6130 0.6130 0.6130 0.6130
15.757247 0.6130 0.6130 0.6130 0.6130 0.6130
15.791000 0.6130 0.6120 0.6100 0.6070 0.6030
15.824247 0.6030 0.6030 0.6030 0.6050 0.6050
15.857000 0.6050 0.6030 0.6030 0.6030 0.6030
15.890247 0.6020 0.6020 0.6020 0.6020 0.6020
15.924000 0.6020 0.6020 0.6020 0.6020 0.6020
15.957247 0.6020 0.6020 0.6020 0.6000 0.6020
##END=
