##TITLE=BIS-(4-t-OCTYLPHENYL) PHTHALATE
##JCAMP-DX=4.24
##DATA TYPE=INFRARED SPECTRUM
##CLASS=COBLENTZ
##ORIGIN=DOW CHEMICAL COMPANY
##OWNER=COBLENTZ SOCIETY
Collection (C) 2018 copyright by the U.S. Secretary of Commerce
on behalf of the United States of America. All rights reserved.
##DATE=Not specified, most likely prior to 1970
##NAMES=bis[4-(1,1-dimethylhexyl)phenyl] phthalate
##MOLFORM=C36 H46 O4
##SOURCE REFERENCE=COBLENTZ NO. 4175
##$NIST ID=B6004175
##$NIST SOURCE=COBLENTZ
##$NIST IMAGE=cob4175
##SPECTROMETER/DATA SYSTEM=Not specified, most likely a prism, grating, or hybrid spectrometer.
##STATE=SOLUTION (10% IN CCl4 FOR 5000-1350 CM^-^1, 10% IN CS2 FOR 1350-625 CM^-^1)
##PATH LENGTH=0.01 CM, 0.01 CM
$$SPECTRAL CONTAMINATION DUE TO CCl4 AROUND 1550 CM^-^1
##SAMPLING PROCEDURE=TRANSMISSION
##RESOLUTION=4
##DATA PROCESSING=DIGITIZED BY NIST FROM HARD COPY
##XUNITS=MICROMETERS
##YUNITS=TRANSMITTANCE
##XFACTOR=1.000000
##YFACTOR=1
##DELTAX=000.006533
##FIRSTX=2.033
##LASTX=15.9016
##FIRSTY=0.811
##MAXX=15.9016
##MINX=2.033
##MAXY=0.928
##MINY=0.017
##NPOINTS=2124
##XYDATA=(X++(Y..Y))
2.033000 0.8110 0.8110 0.8110 0.8130 0.8130
2.065679 0.8130 0.8130 0.8130 0.8130 0.8140
2.098000 0.8140 0.8160 0.8160 0.8160 0.8160
2.130679 0.8180 0.8180 0.8180 0.8190 0.8210
2.164000 0.8210 0.8230 0.8230 0.8230 0.8230
2.196679 0.8210 0.8210 0.8210 0.8190 0.8180
2.229000 0.8160 0.8160 0.8140 0.8130 0.8130
2.261679 0.8110 0.8100 0.8100 0.8080 0.8080
2.294000 0.8080 0.8100 0.8130 0.8160 0.8190
2.326679 0.8230 0.8240 0.8240 0.8260 0.8260
2.360000 0.8230 0.8210 0.8210 0.8210 0.8230
2.392679 0.8240 0.8240 0.8260 0.8270 0.8270
2.425000 0.8270 0.8270 0.8290 0.8310 0.8320
2.457679 0.8320 0.8340 0.8360 0.8390 0.8400
2.490000 0.8420 0.8420 0.8440 0.8440 0.8450
2.522679 0.8450 0.8450 0.8450 0.8450 0.8450
2.556000 0.8450 0.8470 0.8470 0.8470 0.8470
2.588679 0.8490 0.8490 0.8490 0.8490 0.8490
2.621000 0.8520 0.8520 0.8520 0.8520 0.8530
2.653679 0.8530 0.8530 0.8530 0.8550 0.8550
2.686000 0.8550 0.8550 0.8550 0.8550 0.8550
2.718679 0.8530 0.8530 0.8530 0.8530 0.8530
2.752000 0.8530 0.8530 0.8500 0.8450 0.8440
2.784679 0.8420 0.8400 0.8360 0.8340 0.8310
2.817000 0.8290 0.8270 0.8260 0.8230 0.8210
2.849679 0.8160 0.8130 0.8110 0.8100 0.8100
2.882000 0.8080 0.8080 0.8080 0.8100 0.8100
2.914679 0.8110 0.8110 0.8140 0.8140 0.8160
2.948000 0.8180 0.8180 0.8180 0.8160 0.8140
2.980679 0.8140 0.8140 0.8140 0.8160 0.8180
3.013000 0.8180 0.8190 0.8190 0.8190 0.8190
3.045679 0.8190 0.8180 0.8180 0.8160 0.8160
3.078000 0.8160 0.8140 0.8140 0.8140 0.8140
3.110679 0.8160 0.8160 0.8190 0.8190 0.8210
3.144000 0.8230 0.8230 0.8240 0.8240 0.8240
3.176679 0.8240 0.8240 0.8240 0.8230 0.8210
3.209000 0.8160 0.8080 0.8050 0.8010 0.7950
3.241679 0.7880 0.7790 0.7690 0.7540 0.7450
3.274000 0.7400 0.7380 0.7330 0.7300 0.7280
3.306679 0.7240 0.7040 0.6730 0.6360 0.5870
3.340000 0.5300 0.4640 0.3730 0.2880 0.2250
3.372679 0.1990 0.1680 0.1280 0.1280 0.1730
3.405000 0.2280 0.2590 0.2710 0.2790 0.2850
3.437679 0.2880 0.2950 0.3060 0.3230 0.3450
3.470000 0.3790 0.4250 0.4830 0.5380 0.5940
3.502679 0.6390 0.6800 0.7240 0.7590 0.7750
3.536000 0.7880 0.7980 0.8100 0.8240 0.8320
3.568679 0.8370 0.8420 0.8470 0.8530 0.8620
3.601000 0.8630 0.8650 0.8650 0.8650 0.8660
3.633679 0.8660 0.8660 0.8660 0.8680 0.8680
3.666000 0.8680 0.8700 0.8710 0.8710 0.8730
3.698679 0.8730 0.8750 0.8750 0.8760 0.8760
3.732000 0.8780 0.8780 0.8810 0.8830 0.8840
3.764679 0.8860 0.8870 0.8870 0.8890 0.8910
3.797000 0.8920 0.8920 0.8940 0.8940 0.8960
3.829679 0.8960 0.8970 0.8970 0.8990 0.8990
3.862000 0.9000 0.9000 0.9020 0.9020 0.9040
3.894679 0.9040 0.9050 0.9070 0.9090 0.9100
3.928000 0.9120 0.9130 0.9150 0.9170 0.9180
3.960679 0.9180 0.9200 0.9200 0.9200 0.9220
3.993000 0.9220 0.9220 0.9220 0.9220 0.9220
4.025679 0.9230 0.9230 0.9230 0.9230 0.9230
4.058000 0.9230 0.9230 0.9230 0.9230 0.9230
4.090679 0.9230 0.9220 0.9220 0.9220 0.9220
4.124000 0.9220 0.9220 0.9200 0.9180 0.9180
4.156679 0.9170 0.9170 0.9150 0.9130 0.9100
4.189000 0.9090 0.9070 0.9040 0.9020 0.9000
4.221679 0.8970 0.8940 0.8890 0.8870 0.8840
4.254000 0.8810 0.8790 0.8780 0.8760 0.8760
4.286679 0.8760 0.8780 0.8790 0.8830 0.8840
4.320000 0.8870 0.8890 0.8910 0.8920 0.8920
4.352679 0.8960 0.8960 0.8990 0.9020 0.9040
4.385000 0.9070 0.9100 0.9130 0.9170 0.9200
4.417679 0.9220 0.9230 0.9250 0.9250 0.9260
4.450000 0.9280 0.9280 0.9280 0.9280 0.9280
4.482679 0.9280 0.9280 0.9280 0.9280 0.9280
4.516000 0.9280 0.9280 0.9280 0.9280 0.9280
4.548679 0.9280 0.9280 0.9280 0.9280 0.9280
4.581000 0.9280 0.9280 0.9280 0.9280 0.9280
4.613679 0.9280 0.9280 0.9280 0.9280 0.9280
4.646000 0.9280 0.9280 0.9280 0.9260 0.9260
4.678679 0.9260 0.9260 0.9260 0.9260 0.9260
4.712000 0.9260 0.9260 0.9260 0.9250 0.9250
4.744679 0.9250 0.9250 0.9250 0.9250 0.9250
4.777000 0.9250 0.9250 0.9250 0.9230 0.9230
4.809679 0.9230 0.9230 0.9230 0.9230 0.9230
4.842000 0.9230 0.9230 0.9230 0.9220 0.9220
4.874679 0.9220 0.9220 0.9220 0.9220 0.9220
4.908000 0.9220 0.9220 0.9220 0.9220 0.9200
4.940679 0.9200 0.9180 0.9180 0.9180 0.9180
4.973000 0.9170 0.9170 0.9170 0.9170 0.9150
5.005679 0.9150 0.9130 0.9130 0.9130 0.9130
5.038000 0.9130 0.9150 0.9150 0.9150 0.9170
5.070679 0.9170 0.9170 0.9180 0.9180 0.9180
5.104000 0.9200 0.9200 0.9200 0.9220 0.9220
5.136679 0.9220 0.9220 0.9220 0.9220 0.9220
5.169000 0.9220 0.9220 0.9220 0.9200 0.9200
5.201679 0.9170 0.9170 0.9150 0.9130 0.9120
5.234000 0.9040 0.8940 0.8790 0.8710 0.8660
5.266679 0.8650 0.8680 0.8750 0.8810 0.8890
5.299000 0.8960 0.8990 0.8990 0.9000 0.9000
5.331679 0.9000 0.9000 0.9000 0.9000 0.9000
5.365000 0.9000 0.9000 0.8990 0.8990 0.8960
5.397679 0.8920 0.8860 0.8840 0.8860 0.8870
5.430000 0.8890 0.8890 0.8890 0.8890 0.8890
5.462679 0.8870 0.8860 0.8860 0.8830 0.8810
5.495000 0.8780 0.8780 0.8760 0.8730 0.8700
5.527679 0.8650 0.8600 0.8550 0.8490 0.8440
5.561000 0.8310 0.8210 0.8060 0.7920 0.7720
5.593679 0.7500 0.7240 0.6940 0.6600 0.6200
5.626000 0.5990 0.5500 0.5160 0.4590 0.3870
5.658679 0.2900 0.2330 0.1890 0.1490 0.1200
5.691000 0.0970 0.0790 0.0740 0.0710 0.0690
5.723679 0.0690 0.0710 0.0820 0.1050 0.1460
5.757000 0.2040 0.2920 0.3700 0.4390 0.5030
5.789679 0.5600 0.6070 0.6490 0.6830 0.7110
5.822000 0.7250 0.7430 0.7540 0.7670 0.7770
5.854679 0.7840 0.7900 0.7950 0.8000 0.8060
5.887000 0.8130 0.8210 0.8310 0.8390 0.8440
5.919679 0.8490 0.8520 0.8570 0.8600 0.8620
5.953000 0.8630 0.8630 0.8650 0.8650 0.8660
5.985679 0.8680 0.8680 0.8700 0.8700 0.8680
6.018000 0.8680 0.8680 0.8660 0.8630 0.8620
6.050679 0.8600 0.8580 0.8580 0.8580 0.8570
6.083000 0.8550 0.8530 0.8520 0.8500 0.8450
6.115679 0.8400 0.8390 0.8340 0.8310 0.8290
6.149000 0.8210 0.8190 0.8110 0.8010 0.7870
6.181679 0.7750 0.7640 0.7380 0.7090 0.6700
6.214000 0.6290 0.6200 0.6030 0.5940 0.5890
6.246679 0.5860 0.5860 0.5840 0.5820 0.5770
6.279000 0.5730 0.5680 0.5630 0.5560 0.5480
6.311679 0.5470 0.5480 0.5500 0.5580 0.5660
6.345000 0.5710 0.5730 0.5760 0.5760 0.5690
6.377679 0.5660 0.5610 0.5580 0.5550 0.5480
6.410000 0.5380 0.5240 0.5000 0.4930 0.4880
6.442679 0.4830 0.4820 0.4800 0.4830 0.4880
6.475000 0.4950 0.5030 0.5120 0.5240 0.5300
6.507679 0.5340 0.5380 0.5450 0.5470 0.5530
6.541000 0.5550 0.5550 0.5530 0.5470 0.5270
6.573679 0.5080 0.4900 0.4780 0.4360 0.4070
6.606000 0.3910 0.3630 0.3310 0.3140 0.2970
6.638679 0.2900 0.2900 0.2980 0.3390 0.3600
6.671000 0.4000 0.4330 0.4520 0.4670 0.4690
6.703679 0.4670 0.4520 0.4430 0.4300 0.4230
6.737000 0.4200 0.4180 0.4170 0.4150 0.4130
6.769679 0.4120 0.4120 0.4100 0.4100 0.4130
6.802000 0.4200 0.4280 0.4380 0.4490 0.4640
6.834679 0.4820 0.5010 0.5220 0.5430 0.5660
6.867000 0.5820 0.5940 0.6030 0.6180 0.6390
6.899679 0.6630 0.6890 0.7120 0.7330 0.7480
6.933000 0.7530 0.7620 0.7690 0.7750 0.7790
6.965679 0.7850 0.7900 0.7980 0.7980 0.8010
6.998000 0.8010 0.7980 0.7870 0.7840 0.7720
7.030679 0.7590 0.7450 0.7330 0.7240 0.7170
7.063000 0.7090 0.6990 0.6960 0.6940 0.6940
7.095679 0.6940 0.6940 0.6940 0.6930 0.6860
7.129000 0.6730 0.6590 0.6520 0.6390 0.6370
7.161679 0.6360 0.6370 0.6460 0.6570 0.6650
7.194000 0.6880 0.7110 0.7320 0.7460 0.7690
7.226679 0.7740 0.7740 0.7690 0.7480 0.7240
7.259000 0.6940 0.6540 0.6130 0.5580 0.5120
7.291679 0.4690 0.4170 0.4070 0.4070 0.4390
7.325000 0.5190 0.6230 0.7200 0.8030 0.8110
7.357679 0.8100 0.8000 0.7880 0.7740 0.7710
7.390000 0.7660 0.7610 0.7580 0.7540 0.7530
7.422679 0.7530 0.7540 0.7580 0.7660 0.7770
7.455000 0.7790 0.7790 0.7770 0.7640 0.7530
7.487679 0.7450 0.7380 0.7330 0.7300 0.7280
7.521000 0.7270 0.7280 0.7320 0.7370 0.7380
7.553679 0.7400 0.7400 0.7370 0.7220 0.7040
7.586000 0.6940 0.6720 0.6600 0.6410 0.6210
7.618679 0.6000 0.5840 0.5740 0.5600 0.5530
7.651000 0.5430 0.5320 0.5170 0.5000 0.4780
7.683679 0.4560 0.4310 0.4040 0.3730 0.3450
7.717000 0.3140 0.2900 0.2530 0.2190 0.1910
7.749679 0.1670 0.1500 0.1390 0.1310 0.1290
7.782000 0.1280 0.1280 0.1260 0.1250 0.1210
7.814679 0.1180 0.1130 0.1050 0.0950 0.0840
7.847000 0.0660 0.0500 0.0350 0.0270 0.0210
7.879679 0.0190 0.0170 0.0190 0.0210 0.0270
7.913000 0.0320 0.0400 0.0470 0.0500 0.0530
7.945679 0.0560 0.0600 0.0630 0.0660 0.0690
7.978000 0.0710 0.0770 0.0810 0.0840 0.0890
8.010679 0.1080 0.1290 0.1460 0.1620 0.1750
8.043000 0.1890 0.2010 0.2150 0.2220 0.2320
8.075679 0.2380 0.2480 0.2510 0.2580 0.2610
8.109000 0.2640 0.2690 0.2770 0.2820 0.2950
8.141679 0.2980 0.3010 0.3030 0.3030 0.3000
8.174000 0.2840 0.2610 0.2350 0.2150 0.1750
8.206679 0.1340 0.1130 0.0860 0.0660 0.0500
8.239000 0.0370 0.0250 0.0220 0.0190 0.0190
8.271679 0.0210 0.0270 0.0350 0.0480 0.0640
8.305000 0.0900 0.1290 0.1700 0.2200 0.2740
8.337679 0.3360 0.3970 0.4360 0.4780 0.5040
8.370000 0.5290 0.5530 0.5690 0.5770 0.5810
8.402679 0.5820 0.5810 0.5770 0.5630 0.5430
8.435000 0.5190 0.4900 0.4560 0.4130 0.3630
8.467679 0.3050 0.2480 0.2010 0.1550 0.1210
8.501000 0.0940 0.0680 0.0500 0.0480 0.0500
8.533679 0.0610 0.0860 0.1130 0.1470 0.1910
8.566000 0.2380 0.2880 0.3390 0.3910 0.4380
8.598679 0.4800 0.5290 0.5600 0.6080 0.6390
8.631000 0.6540 0.6730 0.6860 0.7040 0.7320
8.663679 0.7450 0.7580 0.7620 0.7670 0.7690
8.696000 0.7710 0.7720 0.7740 0.7770 0.7770
8.728679 0.7740 0.7660 0.7580 0.7500 0.7410
8.762000 0.7300 0.7140 0.6960 0.6720 0.6410
8.794679 0.6070 0.5740 0.5430 0.5140 0.5040
8.827000 0.4950 0.4780 0.4750 0.4720 0.4770
8.859679 0.4930 0.5040 0.5220 0.5400 0.5600
8.892000 0.5790 0.5950 0.6130 0.6210 0.6280
8.924679 0.6310 0.6340 0.6370 0.6340 0.6280
8.958000 0.6180 0.6070 0.5940 0.5810 0.5630
8.990679 0.5430 0.5190 0.4900 0.4560 0.4350
9.023000 0.4180 0.3890 0.3650 0.3450 0.3290
9.055679 0.3130 0.3010 0.3000 0.3010 0.3110
9.088000 0.3210 0.3320 0.3420 0.3530 0.3780
9.120679 0.3810 0.3840 0.3830 0.3710 0.3530
9.154000 0.3310 0.3050 0.2750 0.2480 0.2220
9.186679 0.1980 0.1780 0.1550 0.1390 0.1310
9.219000 0.1310 0.1370 0.1600 0.2010 0.2540
9.251679 0.3050 0.3550 0.4050 0.4520 0.5000
9.284000 0.5470 0.5920 0.6340 0.6550 0.6830
9.316679 0.6990 0.7190 0.7320 0.7400 0.7450
9.350000 0.7480 0.7500 0.7500 0.7480 0.7450
9.382679 0.7430 0.7320 0.7190 0.6980 0.6830
9.415000 0.6630 0.6410 0.6150 0.5860 0.5530
9.447679 0.5190 0.4800 0.4390 0.3890 0.3400
9.480000 0.2950 0.2500 0.2190 0.1780 0.1540
9.512679 0.1340 0.1200 0.1150 0.1150 0.1200
9.546000 0.1390 0.1620 0.1850 0.2090 0.2380
9.578679 0.2620 0.2740 0.2880 0.3030 0.3180
9.611000 0.3260 0.3320 0.3370 0.3440 0.3530
9.643679 0.3700 0.3840 0.4040 0.4280 0.4520
9.676000 0.4880 0.5080 0.5430 0.5640 0.5920
9.708679 0.6070 0.6230 0.6420 0.6520 0.6670
9.742000 0.6680 0.6680 0.6670 0.6520 0.6330
9.774679 0.6070 0.5820 0.5300 0.4820 0.3870
9.807000 0.3780 0.3620 0.3440 0.3440 0.3660
9.839679 0.4360 0.5290 0.6080 0.6620 0.7120
9.872000 0.7530 0.7750 0.7950 0.8030 0.8140
9.904679 0.8240 0.8310 0.8390 0.8470 0.8500
9.938000 0.8580 0.8660 0.8680 0.8700 0.8710
9.970679 0.8760 0.8780 0.8780 0.8810 0.8840
10.003000 0.8860 0.8870 0.8890 0.8890 0.8890
10.035679 0.8920 0.8920 0.8940 0.8940 0.8940
10.068000 0.8940 0.8940 0.8940 0.8940 0.8910
10.100679 0.8870 0.8870 0.8860 0.8840 0.8790
10.134000 0.8780 0.8760 0.8730 0.8700 0.8680
10.166679 0.8600 0.8530 0.8490 0.8440 0.8340
10.199000 0.8260 0.8190 0.8160 0.8160 0.8180
10.231679 0.8210 0.8290 0.8420 0.8490 0.8580
10.264000 0.8680 0.8710 0.8760 0.8760 0.8790
10.296679 0.8810 0.8830 0.8840 0.8860 0.8870
10.330000 0.8870 0.8890 0.8890 0.8890 0.8870
10.362679 0.8810 0.8780 0.8680 0.8650 0.8600
10.395000 0.8520 0.8490 0.8440 0.8400 0.8400
10.427679 0.8390 0.8390 0.8400 0.8490 0.8600
10.460000 0.8750 0.8790 0.8860 0.8870 0.8870
10.492679 0.8910 0.8940 0.8960 0.8970 0.8970
10.526000 0.8970 0.8890 0.8840 0.8790 0.8780
10.558679 0.8710 0.8650 0.8580 0.8580 0.8570
10.591000 0.8530 0.8470 0.8390 0.8360 0.8310
10.623679 0.8290 0.8310 0.8370 0.8440 0.8490
10.656000 0.8580 0.8620 0.8660 0.8660 0.8680
10.688679 0.8680 0.8680 0.8680 0.8680 0.8680
10.722000 0.8680 0.8680 0.8680 0.8660 0.8620
10.754679 0.8580 0.8570 0.8500 0.8490 0.8440
10.787000 0.8320 0.8230 0.8130 0.8080 0.8030
10.819679 0.8000 0.7980 0.7970 0.7970 0.8010
10.852000 0.8080 0.8130 0.8160 0.8210 0.8270
10.884679 0.8320 0.8360 0.8370 0.8370 0.8370
10.918000 0.8370 0.8390 0.8390 0.8390 0.8390
10.950679 0.8400 0.8440 0.8450 0.8450 0.8490
10.983000 0.8500 0.8520 0.8550 0.8570 0.8600
11.015679 0.8620 0.8630 0.8650 0.8650 0.8630
11.048000 0.8600 0.8580 0.8570 0.8570 0.8520
11.080679 0.8520 0.8500 0.8490 0.8440 0.8400
11.114000 0.8370 0.8290 0.8270 0.8190 0.8180
11.146679 0.8130 0.8100 0.8080 0.8000 0.7970
11.179000 0.7920 0.7800 0.7690 0.7530 0.7480
11.211679 0.7400 0.7330 0.7150 0.7010 0.6880
11.244000 0.6720 0.6520 0.6420 0.6230 0.6070
11.276679 0.5940 0.5730 0.5530 0.5420 0.5220
11.310000 0.5120 0.4980 0.4880 0.4770 0.4670
11.342679 0.4570 0.4490 0.4430 0.4380 0.4350
11.375000 0.4300 0.4280 0.4280 0.4260 0.4260
11.407679 0.4260 0.4280 0.4300 0.4380 0.4430
11.440000 0.4490 0.4570 0.4640 0.4720 0.4800
11.472679 0.4900 0.4960 0.5030 0.5160 0.5240
11.506000 0.5370 0.5470 0.5560 0.5660 0.5730
11.538679 0.5790 0.5870 0.5940 0.5970 0.5990
11.571000 0.6020 0.6080 0.6130 0.6150 0.6160
11.603679 0.6200 0.6230 0.6260 0.6280 0.6310
11.636000 0.6340 0.6360 0.6360 0.6370 0.6370
11.668679 0.6370 0.6410 0.6420 0.6420 0.6440
11.702000 0.6470 0.6470 0.6490 0.6490 0.6490
11.734679 0.6500 0.6520 0.6520 0.6540 0.6540
11.767000 0.6550 0.6570 0.6570 0.6590 0.6600
11.799679 0.6630 0.6670 0.6680 0.6700 0.6720
11.832000 0.6760 0.6780 0.6830 0.6880 0.6930
11.864679 0.6960 0.6980 0.6990 0.6990 0.7010
11.897000 0.7020 0.7020 0.7020 0.7020 0.7010
11.929679 0.6990 0.6980 0.6940 0.6890 0.6830
11.963000 0.6780 0.6730 0.6630 0.6540 0.6440
11.995679 0.6340 0.6230 0.6130 0.6050 0.5970
12.028000 0.5870 0.5810 0.5730 0.5640 0.5580
12.060679 0.5530 0.5500 0.5480 0.5470 0.5450
12.093000 0.5450 0.5430 0.5430 0.5430 0.5430
12.125679 0.5450 0.5450 0.5470 0.5470 0.5450
12.159000 0.5430 0.5420 0.5380 0.5350 0.5320
12.191679 0.5220 0.5140 0.5010 0.4950 0.4870
12.224000 0.4780 0.4700 0.4610 0.4490 0.4410
12.256679 0.4310 0.4230 0.4130 0.4070 0.3990
12.289000 0.3960 0.3890 0.3840 0.3830 0.3830
12.321679 0.3840 0.3910 0.4020 0.4170 0.4330
12.355000 0.4520 0.4750 0.4980 0.5220 0.5450
12.387679 0.5690 0.5900 0.6100 0.6280 0.6440
12.420000 0.6540 0.6680 0.6780 0.6930 0.7020
12.452679 0.7110 0.7190 0.7220 0.7270 0.7280
12.485000 0.7300 0.7320 0.7370 0.7370 0.7380
12.517679 0.7380 0.7380 0.7370 0.7350 0.7330
12.551000 0.7320 0.7280 0.7270 0.7200 0.7190
12.583679 0.7140 0.7110 0.7040 0.7010 0.6960
12.616000 0.6940 0.6890 0.6880 0.6860 0.6810
12.648679 0.6800 0.6800 0.6780 0.6760 0.6760
12.681000 0.6720 0.6700 0.6680 0.6670 0.6650
12.713679 0.6620 0.6620 0.6600 0.6600 0.6600
12.747000 0.6600 0.6630 0.6650 0.6650 0.6670
12.779679 0.6680 0.6680 0.6700 0.6720 0.6750
12.812000 0.6760 0.6760 0.6780 0.6800 0.6830
12.844679 0.6850 0.6850 0.6850 0.6850 0.6850
12.877000 0.6850 0.6850 0.6850 0.6850 0.6850
12.909679 0.6850 0.6860 0.6860 0.6860 0.6860
12.943000 0.6860 0.6850 0.6850 0.6850 0.6850
12.975679 0.6850 0.6850 0.6830 0.6830 0.6830
13.008000 0.6830 0.6830 0.6830 0.6830 0.6830
13.040679 0.6830 0.6850 0.6860 0.6860 0.6880
13.073000 0.6880 0.6880 0.6880 0.6880 0.6880
13.105679 0.6890 0.6890 0.6910 0.6930 0.6940
13.139000 0.6940 0.6940 0.6940 0.6940 0.6930
13.171679 0.6910 0.6910 0.6890 0.6880 0.6860
13.204000 0.6810 0.6780 0.6760 0.6750 0.6700
13.236679 0.6670 0.6630 0.6570 0.6500 0.6470
13.269000 0.6420 0.6370 0.6340 0.6280 0.6260
13.301679 0.6200 0.6160 0.6150 0.6080 0.6070
13.335000 0.5990 0.5990 0.5950 0.5890 0.5860
13.367679 0.5770 0.5760 0.5730 0.5660 0.5580
13.400000 0.5430 0.5350 0.5290 0.5220 0.5170
13.432679 0.5090 0.5060 0.4980 0.4960 0.4900
13.465000 0.4870 0.4850 0.4800 0.4780 0.4770
13.497679 0.4750 0.4740 0.4720 0.4700 0.4690
13.531000 0.4670 0.4650 0.4610 0.4570 0.4520
13.563679 0.4480 0.4430 0.4380 0.4360 0.4300
13.596000 0.4200 0.4170 0.4120 0.4070 0.4050
13.628679 0.4040 0.4020 0.4020 0.4040 0.4070
13.661000 0.4100 0.4180 0.4250 0.4330 0.4390
13.693679 0.4490 0.4590 0.4690 0.4780 0.4880
13.727000 0.4960 0.5030 0.5170 0.5290 0.5380
13.759679 0.5470 0.5530 0.5630 0.5690 0.5760
13.792000 0.5820 0.5900 0.6000 0.6020 0.6030
13.824679 0.6070 0.6100 0.6120 0.6160 0.6180
13.857000 0.6210 0.6250 0.6260 0.6260 0.6280
13.889679 0.6290 0.6290 0.6310 0.6330 0.6340
13.923000 0.6330 0.6310 0.6280 0.6260 0.6210
13.955679 0.6200 0.6160 0.6160 0.6120 0.6070
13.988000 0.6050 0.6020 0.5950 0.5870 0.5790
14.020679 0.5760 0.5690 0.5660 0.5610 0.5580
14.053000 0.5530 0.5500 0.5470 0.5420 0.5380
14.085679 0.5370 0.5370 0.5370 0.5370 0.5370
14.119000 0.5370 0.5380 0.5380 0.5380 0.5380
14.151679 0.5400 0.5400 0.5380 0.5370 0.5370
14.184000 0.5350 0.5320 0.5290 0.5270 0.5250
14.216679 0.5250 0.5240 0.5220 0.5220 0.5210
14.249000 0.5210 0.5220 0.5220 0.5240 0.5270
14.281679 0.5290 0.5350 0.5400 0.5450 0.5480
14.315000 0.5510 0.5560 0.5600 0.5660 0.5690
14.347679 0.5730 0.5770 0.5810 0.5860 0.5870
14.380000 0.5940 0.5950 0.5970 0.5990 0.6000
14.412679 0.6020 0.6030 0.6050 0.6070 0.6080
14.445000 0.6080 0.6100 0.6100 0.6100 0.6120
14.477679 0.6120 0.6120 0.6130 0.6130 0.6150
14.511000 0.6160 0.6160 0.6160 0.6160 0.6150
14.543679 0.6130 0.6130 0.6120 0.6120 0.6120
14.576000 0.6100 0.6100 0.6100 0.6080 0.6080
14.608679 0.6070 0.6070 0.6050 0.6050 0.6030
14.641000 0.6020 0.6000 0.5990 0.5970 0.5970
14.673679 0.5950 0.5940 0.5920 0.5900 0.5900
14.707000 0.5900 0.5890 0.5890 0.5890 0.5890
14.739679 0.5870 0.5870 0.5870 0.5870 0.5870
14.772000 0.5870 0.5860 0.5860 0.5840 0.5840
14.804679 0.5840 0.5810 0.5810 0.5790 0.5770
14.837000 0.5770 0.5760 0.5730 0.5690 0.5680
14.869679 0.5680 0.5660 0.5610 0.5580 0.5580
14.903000 0.5560 0.5510 0.5500 0.5480 0.5480
14.935679 0.5480 0.5480 0.5480 0.5480 0.5480
14.968000 0.5470 0.5450 0.5430 0.5400 0.5400
15.000679 0.5380 0.5350 0.5320 0.5300 0.5270
15.033000 0.5270 0.5220 0.5190 0.5170 0.5160
15.065679 0.5120 0.5090 0.5080 0.5060 0.5040
15.098000 0.5040 0.5010 0.5010 0.5000 0.5000
15.130679 0.4960 0.4950 0.4910 0.4880 0.4880
15.164000 0.4830 0.4820 0.4800 0.4770 0.4720
15.196679 0.4690 0.4690 0.4670 0.4640 0.4620
15.229000 0.4610 0.4590 0.4590 0.4570 0.4570
15.261679 0.4520 0.4520 0.4510 0.4510 0.4490
15.294000 0.4490 0.4480 0.4480 0.4460 0.4440
15.326679 0.4410 0.4390 0.4380 0.4380 0.4350
15.360000 0.4330 0.4310 0.4300 0.4280 0.4250
15.392679 0.4230 0.4230 0.4200 0.4180 0.4150
15.425000 0.4130 0.4120 0.4100 0.4090 0.4070
15.457679 0.4050 0.4050 0.4040 0.4040 0.4020
15.490000 0.4020 0.4020 0.4000 0.4000 0.4000
15.522679 0.4000 0.4000 0.4020 0.4020 0.4040
15.556000 0.4040 0.4050 0.4070 0.4070 0.4090
15.588679 0.4090 0.4100 0.4100 0.4100 0.4100
15.621000 0.4100 0.4100 0.4100 0.4100 0.4100
15.653679 0.4100 0.4100 0.4100 0.4100 0.4100
15.686000 0.4100 0.4100 0.4120 0.4120 0.4120
15.718679 0.4100 0.4100 0.4100 0.4100 0.4100
15.752000 0.4090 0.4090 0.4090 0.4050 0.4050
15.784679 0.4050 0.4040 0.4040 0.4040 0.4020
15.817000 0.4020 0.4020 0.4020 0.4020 0.4020
15.849679 0.4020 0.4020 0.4020 0.4020 0.4020
15.882000 0.4020 0.4020 0.4020 0.4020
##END=
