##TITLE=1,1'-BIS(3-PHENYL-1,1,3,3-TETRAMETHYL DISILOXANYL) FERROCENE
##JCAMP-DX=4.24
##DATA TYPE=INFRARED SPECTRUM
##CLASS=COBLENTZ
##ORIGIN=WYANDOTTE CHEMICALS CORP., WYANDOTTE, MICHIGAN, USA
##OWNER=COBLENTZ SOCIETY
Collection (C) 2018 copyright by the U.S. Secretary of Commerce
on behalf of the United States of America. All rights reserved.
##DATE=Not specified, most likely prior to 1970
##NAMES=bis[2-(1,1,3,3-tetramethyl-3-phenyldisiloxanyl)-1,4-cyclopentadien-1-yl]iron
##MOLFORM=C30 H42 Si4 O2 Fe
##SOURCE REFERENCE=COBLENTZ NO. 2798
##$NIST ID=B6002798
##$NIST SOURCE=COBLENTZ
##$NIST IMAGE=cob2798
##SPECTROMETER/DATA SYSTEM=Not specified, most likely a prism, grating, or hybrid spectrometer.
##STATE=LIQUID
##PATH LENGTH=0.003 CM
##SAMPLING PROCEDURE=TRANSMISSION
##RESOLUTION=4
##DATA PROCESSING=DIGITIZED BY NIST FROM HARD COPY
##XUNITS=MICROMETERS
##YUNITS=TRANSMITTANCE
##XFACTOR=1.000000
##YFACTOR=1
##DELTAX=000.006626
##FIRSTX=2.053
##LASTX=16.0068
##FIRSTY=0.947
##MAXX=16.0068
##MINX=2.053
##MAXY=0.986
##MINY=0.026
##NPOINTS=2107
##XYDATA=(X++(Y..Y))
2.053000 0.9470 0.9470 0.9470 0.9470 0.9480
2.086144 0.9480 0.9500 0.9500 0.9500 0.9500
2.119000 0.9500 0.9500 0.9500 0.9480 0.9480
2.152144 0.9480 0.9480 0.9480 0.9480 0.9480
2.186000 0.9450 0.9420 0.9330 0.9250 0.9250
2.219144 0.9230 0.9250 0.9300 0.9350 0.9380
2.252000 0.9400 0.9430 0.9450 0.9470 0.9470
2.285144 0.9470 0.9470 0.9450 0.9450 0.9450
2.318000 0.9470 0.9470 0.9470 0.9470 0.9470
2.351144 0.9480 0.9500 0.9500 0.9500 0.9500
2.384000 0.9480 0.9430 0.9420 0.9350 0.9300
2.417144 0.9280 0.9280 0.9320 0.9350 0.9400
2.451000 0.9400 0.9420 0.9430 0.9430 0.9430
2.484144 0.9420 0.9400 0.9370 0.9350 0.9350
2.517000 0.9400 0.9500 0.9600 0.9630 0.9630
2.550144 0.9650 0.9650 0.9630 0.9630 0.9610
2.583000 0.9600 0.9570 0.9530 0.9500 0.9480
2.616144 0.9480 0.9480 0.9480 0.9480 0.9470
2.649000 0.9430 0.9380 0.9300 0.9280 0.9280
2.682144 0.9300 0.9300 0.9320 0.9320 0.9330
2.716000 0.9370 0.9400 0.9470 0.9500 0.9520
2.749144 0.9530 0.9530 0.9530 0.9530 0.9530
2.782000 0.9550 0.9570 0.9600 0.9610 0.9630
2.815144 0.9630 0.9650 0.9650 0.9650 0.9660
2.848000 0.9660 0.9700 0.9710 0.9710 0.9700
2.881144 0.9700 0.9700 0.9700 0.9680 0.9680
2.914000 0.9660 0.9660 0.9680 0.9710 0.9710
2.947144 0.9710 0.9700 0.9680 0.9660 0.9660
2.981000 0.9660 0.9660 0.9680 0.9680 0.9660
3.014144 0.9660 0.9660 0.9650 0.9650 0.9630
3.047000 0.9610 0.9610 0.9610 0.9630 0.9630
3.080144 0.9630 0.9630 0.9610 0.9610 0.9610
3.113000 0.9610 0.9610 0.9580 0.9520 0.9500
3.146144 0.9480 0.9470 0.9450 0.9450 0.9430
3.179000 0.9350 0.9250 0.9150 0.9020 0.8870
3.212144 0.8660 0.7950 0.7220 0.7020 0.6490
3.246000 0.5800 0.5380 0.5370 0.5380 0.5700
3.279144 0.6160 0.6690 0.6920 0.6940 0.6940
3.312000 0.6440 0.6420 0.6460 0.6590 0.6760
3.345144 0.6760 0.5500 0.4230 0.2970 0.2620
3.378000 0.2280 0.2260 0.2280 0.3630 0.5760
3.411144 0.6920 0.7420 0.7610 0.7610 0.7150
3.444000 0.6690 0.6670 0.6670 0.6690 0.7090
3.477144 0.8090 0.8380 0.8540 0.8590 0.8670
3.511000 0.8740 0.8790 0.8850 0.8900 0.8940
3.544144 0.8990 0.9020 0.9040 0.9050 0.9050
3.577000 0.9050 0.9090 0.9090 0.9100 0.9190
3.610144 0.9250 0.9330 0.9400 0.9480 0.9570
3.643000 0.9600 0.9610 0.9650 0.9650 0.9630
3.676144 0.9630 0.9630 0.9630 0.9630 0.9630
3.709000 0.9650 0.9650 0.9660 0.9680 0.9680
3.742144 0.9680 0.9680 0.9680 0.9680 0.9680
3.776000 0.9660 0.9660 0.9680 0.9710 0.9780
3.809144 0.9780 0.9780 0.9750 0.9730 0.9730
3.842000 0.9730 0.9710 0.9700 0.9700 0.9680
3.875144 0.9680 0.9680 0.9680 0.9700 0.9730
3.908000 0.9780 0.9780 0.9800 0.9800 0.9800
3.941144 0.9800 0.9810 0.9810 0.9830 0.9830
3.974000 0.9830 0.9830 0.9810 0.9800 0.9760
4.007144 0.9750 0.9730 0.9730 0.9730 0.9730
4.041000 0.9730 0.9680 0.9660 0.9650 0.9630
4.074144 0.9630 0.9630 0.9660 0.9750 0.9780
4.107000 0.9800 0.9800 0.9800 0.9780 0.9730
4.140144 0.9700 0.9700 0.9700 0.9710 0.9780
4.173000 0.9780 0.9780 0.9780 0.9780 0.9800
4.206144 0.9800 0.9780 0.9760 0.9760 0.9760
4.239000 0.9760 0.9760 0.9760 0.9780 0.9810
4.272144 0.9860 0.9860 0.9860 0.9850 0.9830
4.306000 0.9800 0.9780 0.9760 0.9760 0.9780
4.339144 0.9800 0.9810 0.9830 0.9850 0.9830
4.372000 0.9800 0.9760 0.9710 0.9700 0.9700
4.405144 0.9750 0.9750 0.9780 0.9800 0.9800
4.438000 0.9780 0.9730 0.9710 0.9710 0.9730
4.471144 0.9750 0.9760 0.9750 0.9730 0.9700
4.504000 0.9700 0.9700 0.9710 0.9710 0.9730
4.537144 0.9750 0.9750 0.9750 0.9750 0.9750
4.571000 0.9750 0.9750 0.9730 0.9730 0.9710
4.604144 0.9710 0.9730 0.9730 0.9750 0.9760
4.637000 0.9760 0.9750 0.9750 0.9730 0.9730
4.670144 0.9730 0.9750 0.9750 0.9780 0.9800
4.703000 0.9810 0.9810 0.9810 0.9810 0.9800
4.736144 0.9800 0.9810 0.9810 0.9810 0.9810
4.770000 0.9810 0.9810 0.9810 0.9810 0.9830
4.803144 0.9830 0.9830 0.9830 0.9810 0.9780
4.836000 0.9750 0.9700 0.9700 0.9660 0.9660
4.869144 0.9660 0.9680 0.9680 0.9680 0.9660
4.902000 0.9660 0.9660 0.9660 0.9660 0.9680
4.935144 0.9680 0.9700 0.9700 0.9700 0.9700
4.968000 0.9680 0.9680 0.9680 0.9680 0.9700
5.001144 0.9710 0.9750 0.9760 0.9850 0.9860
5.035000 0.9850 0.9830 0.9800 0.9760 0.9730
5.068144 0.9680 0.9660 0.9650 0.9660 0.9680
5.101000 0.9680 0.9660 0.9630 0.9610 0.9580
5.134144 0.9530 0.9500 0.9480 0.9450 0.9380
5.167000 0.9270 0.9120 0.9070 0.9070 0.9090
5.200144 0.9280 0.9300 0.9320 0.9350 0.9370
5.233000 0.9400 0.9430 0.9500 0.9550 0.9580
5.266144 0.9600 0.9600 0.9530 0.9370 0.9280
5.300000 0.9220 0.9200 0.9190 0.9190 0.9200
5.333144 0.9230 0.9230 0.9200 0.9190 0.9170
5.366000 0.9190 0.9300 0.9450 0.9500 0.9610
5.399144 0.9710 0.9760 0.9760 0.9750 0.9750
5.432000 0.9750 0.9750 0.9730 0.9730 0.9710
5.465144 0.9710 0.9700 0.9680 0.9650 0.9630
5.498000 0.9600 0.9570 0.9520 0.9420 0.9250
5.531144 0.9150 0.9140 0.9150 0.9280 0.9380
5.565000 0.9500 0.9550 0.9600 0.9630 0.9660
5.598144 0.9700 0.9700 0.9680 0.9630 0.9580
5.631000 0.9520 0.9480 0.9470 0.9420 0.9370
5.664144 0.9280 0.9200 0.9120 0.9070 0.9050
5.697000 0.9050 0.9070 0.9070 0.9090 0.9090
5.730144 0.9090 0.9090 0.9040 0.9020 0.9020
5.763000 0.9040 0.9120 0.9120 0.9120 0.9070
5.796144 0.8990 0.8990 0.9000 0.9000 0.9040
5.830000 0.9040 0.9020 0.9020 0.9000 0.8990
5.863144 0.8990 0.8950 0.8890 0.8840 0.8840
5.896000 0.8840 0.8890 0.8900 0.8950 0.9020
5.929144 0.9040 0.9040 0.8950 0.8920 0.8900
5.962000 0.8900 0.8900 0.8900 0.8900 0.8890
5.995144 0.8870 0.8850 0.8820 0.8790 0.8720
6.028000 0.8720 0.8670 0.8660 0.8520 0.8510
6.061144 0.8490 0.8490 0.8510 0.8520 0.8520
6.095000 0.8520 0.8510 0.8490 0.8470 0.8420
6.128144 0.8380 0.8340 0.8330 0.8290 0.8210
6.161000 0.8190 0.8210 0.8210 0.8260 0.8280
6.194144 0.8290 0.8330 0.8340 0.8340 0.8330
6.227000 0.8140 0.7850 0.7570 0.7550 0.7570
6.260144 0.7880 0.8180 0.8380 0.8510 0.8660
6.293000 0.8770 0.8800 0.8890 0.8900 0.8920
6.326144 0.8920 0.8920 0.8940 0.8940 0.8950
6.360000 0.8990 0.9000 0.9000 0.9000 0.9000
6.393144 0.9000 0.8990 0.8990 0.9000 0.9020
6.426000 0.9070 0.9090 0.9100 0.9100 0.9120
6.459144 0.9150 0.9170 0.9170 0.9190 0.9190
6.492000 0.9190 0.9200 0.9220 0.9220 0.9220
6.525144 0.9220 0.9200 0.9190 0.9190 0.9170
6.558000 0.9170 0.9170 0.9170 0.9170 0.9170
6.591144 0.9150 0.9150 0.9140 0.9120 0.9120
6.625000 0.9100 0.9100 0.9100 0.9090 0.9090
6.658144 0.9050 0.9000 0.8890 0.8720 0.8330
6.691000 0.8160 0.8040 0.8030 0.8040 0.8280
6.724144 0.8520 0.8540 0.8570 0.8660 0.8670
6.757000 0.8670 0.8640 0.8590 0.8590 0.8570
6.790144 0.8560 0.8520 0.8490 0.8460 0.8420
6.823000 0.8380 0.8310 0.8260 0.8240 0.8160
6.856144 0.8000 0.7980 0.7960 0.7930 0.7800
6.890000 0.7660 0.7520 0.7470 0.7420 0.7280
6.923144 0.7250 0.7190 0.7100 0.6950 0.6720
6.956000 0.6360 0.5600 0.5120 0.4620 0.3810
6.989144 0.2990 0.2570 0.2140 0.2140 0.2180
7.022000 0.4080 0.4420 0.4710 0.5230 0.5350
7.055144 0.5370 0.5370 0.5250 0.5090 0.5040
7.088000 0.4970 0.4950 0.4970 0.5190 0.5320
7.121144 0.5470 0.5630 0.5780 0.5910 0.6080
7.155000 0.6230 0.6390 0.6560 0.6740 0.6920
7.188144 0.7020 0.7250 0.7270 0.7270 0.7190
7.221000 0.7050 0.6940 0.6920 0.6950 0.7200
7.254144 0.7430 0.7610 0.7630 0.7660 0.7660
7.287000 0.7570 0.7470 0.6800 0.6420 0.5880
7.320144 0.5600 0.5580 0.5610 0.6000 0.6190
7.354000 0.6380 0.6990 0.7700 0.7880 0.8080
7.387144 0.8240 0.8340 0.8410 0.8410 0.8410
7.420000 0.8420 0.8420 0.8410 0.8380 0.8360
7.453144 0.8340 0.8340 0.8290 0.8230 0.8210
7.486000 0.8190 0.8280 0.8380 0.8410 0.8410
7.519144 0.8420 0.8420 0.8410 0.8360 0.8330
7.552000 0.8290 0.8210 0.8060 0.7930 0.7860
7.585144 0.7830 0.7810 0.7810 0.7860 0.7880
7.619000 0.7910 0.7910 0.7910 0.7860 0.7750
7.652144 0.7550 0.7430 0.7300 0.7090 0.6970
7.685000 0.6840 0.6820 0.6840 0.7090 0.7280
7.718144 0.7450 0.7730 0.7830 0.7900 0.7910
7.751000 0.7960 0.7960 0.7960 0.7960 0.7950
7.784144 0.7930 0.7860 0.7750 0.7650 0.7530
7.817000 0.7480 0.7430 0.7300 0.7170 0.6990
7.850144 0.6770 0.6510 0.6190 0.5800 0.5330
7.884000 0.5050 0.4770 0.4010 0.3170 0.2770
7.917144 0.2360 0.1630 0.1090 0.0760 0.0490
7.950000 0.0310 0.0290 0.0290 0.0280 0.0260
7.983144 0.0260 0.0260 0.0280 0.0340 0.0420
8.016000 0.0520 0.0610 0.0920 0.1350 0.1960
8.049144 0.3140 0.3700 0.4230 0.4760 0.5680
8.082000 0.6080 0.6340 0.6570 0.6800 0.6950
8.115144 0.7120 0.7300 0.7600 0.7660 0.7710
8.149000 0.7800 0.7930 0.7960 0.8000 0.8040
8.182144 0.8110 0.8190 0.8240 0.8260 0.8280
8.215000 0.8280 0.8290 0.8310 0.8360 0.8360
8.248144 0.8380 0.8390 0.8390 0.8410 0.8410
8.281000 0.8410 0.8390 0.8390 0.8390 0.8380
8.314144 0.8380 0.8380 0.8360 0.8330 0.8290
8.347000 0.8240 0.8180 0.8080 0.7980 0.7860
8.380144 0.7730 0.7550 0.7470 0.7370 0.7140
8.414000 0.6890 0.6670 0.6290 0.5880 0.5450
8.447144 0.5070 0.4850 0.4640 0.4570 0.4560
8.480000 0.4590 0.4720 0.4890 0.4950 0.4950
8.513144 0.3860 0.3300 0.2740 0.2520 0.2310
8.546000 0.2210 0.1420 0.0710 0.0510 0.0490
8.579144 0.0510 0.0660 0.1020 0.1480 0.1980
8.612000 0.2470 0.3500 0.4000 0.4470 0.4890
8.645144 0.5580 0.5830 0.5980 0.6210 0.6380
8.679000 0.6520 0.6610 0.6640 0.6670 0.6710
8.712144 0.6760 0.6770 0.6790 0.6800 0.6820
8.745000 0.6820 0.6800 0.6740 0.6640 0.6560
8.778144 0.6470 0.6380 0.6260 0.6140 0.5980
8.811000 0.5780 0.5520 0.5280 0.5040 0.4920
8.844144 0.4790 0.4410 0.3960 0.3370 0.2820
8.877000 0.2540 0.2240 0.1760 0.1250 0.0850
8.910144 0.0610 0.0460 0.0380 0.0310 0.0290
8.944000 0.0310 0.0460 0.0590 0.0840 0.1120
8.977144 0.1350 0.1610 0.1880 0.2090 0.2260
9.010000 0.2640 0.2660 0.2660 0.2660 0.2640
9.043144 0.2570 0.2490 0.2340 0.2260 0.2160
9.076000 0.2030 0.1910 0.1780 0.1630 0.1520
9.109144 0.1400 0.1280 0.1200 0.1170 0.1120
9.142000 0.0900 0.0890 0.0840 0.0790 0.0640
9.175144 0.0560 0.0510 0.0470 0.0420 0.0380
9.209000 0.0360 0.0340 0.0340 0.0330 0.0330
9.242144 0.0330 0.0310 0.0310 0.0310 0.0310
9.275000 0.0290 0.0290 0.0290 0.0290 0.0280
9.308144 0.0280 0.0280 0.0280 0.0280 0.0280
9.341000 0.0280 0.0280 0.0280 0.0280 0.0280
9.374144 0.0280 0.0280 0.0280 0.0260 0.0260
9.407000 0.0260 0.0260 0.0260 0.0260 0.0260
9.440144 0.0260 0.0260 0.0260 0.0260 0.0260
9.474000 0.0260 0.0260 0.0260 0.0260 0.0260
9.507144 0.0260 0.0260 0.0260 0.0260 0.0260
9.540000 0.0260 0.0260 0.0260 0.0260 0.0260
9.573144 0.0260 0.0260 0.0260 0.0260 0.0260
9.606000 0.0260 0.0260 0.0260 0.0260 0.0260
9.639144 0.0260 0.0260 0.0260 0.0260 0.0260
9.673000 0.0260 0.0260 0.0260 0.0260 0.0260
9.706144 0.0260 0.0280 0.0280 0.0280 0.0280
9.739000 0.0280 0.0280 0.0280 0.0290 0.0290
9.772144 0.0310 0.0310 0.0330 0.0330 0.0330
9.805000 0.0360 0.0380 0.0390 0.0420 0.0460
9.838144 0.0520 0.0610 0.0690 0.0740 0.0820
9.871000 0.0900 0.1000 0.1120 0.1250 0.1400
9.904144 0.1570 0.1710 0.1900 0.2060 0.2230
9.938000 0.2410 0.2760 0.2900 0.3070 0.3200
9.971144 0.3400 0.3500 0.3530 0.3530 0.3270
10.004000 0.2990 0.2720 0.2590 0.2460 0.2440
10.037144 0.2470 0.3630 0.4030 0.4360 0.4610
10.070000 0.4820 0.5150 0.5270 0.5370 0.5450
10.103144 0.5500 0.5600 0.5700 0.5780 0.5850
10.136000 0.5900 0.5950 0.5980 0.6030 0.6090
10.169144 0.6180 0.6280 0.6410 0.6470 0.6520
10.203000 0.6570 0.6610 0.6660 0.6690 0.6740
10.236144 0.6770 0.6820 0.6870 0.6920 0.6940
10.269000 0.6950 0.6990 0.7050 0.7070 0.7090
10.302144 0.7120 0.7140 0.7190 0.7200 0.7220
10.335000 0.7230 0.7250 0.7280 0.7350 0.7370
10.368144 0.7420 0.7480 0.7580 0.7600 0.7610
10.401000 0.7610 0.7630 0.7660 0.7710 0.7730
10.434144 0.7750 0.7760 0.7760 0.7760 0.7760
10.468000 0.7760 0.7780 0.7800 0.7810 0.7850
10.501144 0.7880 0.7900 0.7900 0.7900 0.7900
10.534000 0.7910 0.7930 0.7980 0.8000 0.8010
10.567144 0.8060 0.8080 0.8090 0.8110 0.8110
10.600000 0.8130 0.8130 0.8140 0.8140 0.8160
10.633144 0.8160 0.8180 0.8190 0.8210 0.8230
10.666000 0.8230 0.8230 0.8230 0.8230 0.8230
10.699144 0.8230 0.8230 0.8240 0.8240 0.8260
10.733000 0.8260 0.8260 0.8240 0.8240 0.8230
10.766144 0.8230 0.8210 0.8210 0.8210 0.8210
10.799000 0.8210 0.8210 0.8210 0.8210 0.8190
10.832144 0.8190 0.8190 0.8180 0.8160 0.8130
10.865000 0.8110 0.8090 0.8080 0.8060 0.8000
10.898144 0.7960 0.7950 0.7930 0.7910 0.7880
10.931000 0.7810 0.7780 0.7710 0.7660 0.7600
10.964144 0.7570 0.7550 0.7520 0.7500 0.7480
10.998000 0.7450 0.7380 0.7320 0.7250 0.7150
11.031144 0.7100 0.7000 0.6820 0.6570 0.6390
11.064000 0.6140 0.5880 0.5610 0.5350 0.5100
11.097144 0.5020 0.4920 0.4790 0.4720 0.4610
11.130000 0.4440 0.4310 0.4230 0.4210 0.4140
11.163144 0.4030 0.3960 0.3950 0.3960 0.4030
11.196000 0.4230 0.4460 0.4570 0.4770 0.5280
11.229144 0.5450 0.5570 0.5710 0.5880 0.6010
11.263000 0.6160 0.6190 0.6260 0.6290 0.6330
11.296144 0.6340 0.6380 0.6420 0.6470 0.6490
11.329000 0.6510 0.6510 0.6520 0.6540 0.6540
11.362144 0.6520 0.6460 0.6420 0.6390 0.6360
11.395000 0.6360 0.6340 0.6280 0.6260 0.6210
11.428144 0.6140 0.6110 0.6030 0.5950 0.5860
11.461000 0.5760 0.5680 0.5580 0.5470 0.5320
11.494144 0.5170 0.5070 0.4970 0.4790 0.4660
11.528000 0.4510 0.4290 0.4090 0.3900 0.3750
11.561144 0.3630 0.3500 0.3420 0.3330 0.3270
11.594000 0.3220 0.3200 0.3190 0.3190 0.3190
11.627144 0.3190 0.3200 0.3220 0.3220 0.3200
11.660000 0.3200 0.3190 0.3140 0.3100 0.3070
11.693144 0.3020 0.3000 0.2970 0.2940 0.2870
11.726000 0.2770 0.2720 0.2660 0.2590 0.2510
11.759144 0.2490 0.2460 0.2410 0.2380 0.2340
11.793000 0.2310 0.2280 0.2210 0.2130 0.2060
11.826144 0.2010 0.2000 0.1960 0.1960 0.1930
11.859000 0.1900 0.1830 0.1760 0.1710 0.1650
11.892144 0.1580 0.1520 0.1450 0.1350 0.1300
11.925000 0.1270 0.1220 0.1150 0.1050 0.0970
11.958144 0.0900 0.0840 0.0770 0.0670 0.0620
11.991000 0.0590 0.0520 0.0490 0.0420 0.0380
12.024144 0.0360 0.0360 0.0340 0.0330 0.0330
12.058000 0.0330 0.0330 0.0330 0.0330 0.0330
12.091144 0.0330 0.0330 0.0330 0.0330 0.0330
12.124000 0.0330 0.0330 0.0330 0.0330 0.0330
12.157144 0.0330 0.0340 0.0340 0.0340 0.0340
12.190000 0.0340 0.0340 0.0340 0.0340 0.0340
12.223144 0.0340 0.0340 0.0340 0.0340 0.0340
12.257000 0.0360 0.0360 0.0360 0.0380 0.0380
12.290144 0.0390 0.0390 0.0410 0.0420 0.0420
12.323000 0.0440 0.0440 0.0440 0.0460 0.0470
12.356144 0.0510 0.0560 0.0590 0.0610 0.0660
12.389000 0.0670 0.0710 0.0720 0.0760 0.0760
12.422144 0.0770 0.0800 0.0800 0.0800 0.0800
12.455000 0.0800 0.0800 0.0770 0.0710 0.0710
12.488144 0.0690 0.0660 0.0610 0.0560 0.0510
12.522000 0.0470 0.0460 0.0440 0.0390 0.0390
12.555144 0.0380 0.0380 0.0380 0.0360 0.0360
12.588000 0.0360 0.0360 0.0360 0.0360 0.0360
12.621144 0.0360 0.0360 0.0360 0.0360 0.0360
12.654000 0.0360 0.0360 0.0360 0.0360 0.0360
12.687144 0.0360 0.0360 0.0360 0.0360 0.0360
12.720000 0.0360 0.0360 0.0360 0.0360 0.0360
12.753144 0.0360 0.0360 0.0360 0.0380 0.0380
12.787000 0.0380 0.0380 0.0380 0.0380 0.0380
12.820144 0.0380 0.0380 0.0390 0.0410 0.0410
12.853000 0.0420 0.0420 0.0440 0.0460 0.0510
12.886144 0.0520 0.0560 0.0590 0.0620 0.0660
12.919000 0.0720 0.0790 0.0870 0.0970 0.1090
12.952144 0.1200 0.1330 0.1480 0.1630 0.1780
12.985000 0.1950 0.2110 0.2280 0.2440 0.2770
13.018144 0.2940 0.3100 0.3270 0.3420 0.3550
13.052000 0.3700 0.3810 0.3930 0.4030 0.4160
13.085144 0.4240 0.4380 0.4510 0.4590 0.4670
13.118000 0.4740 0.4820 0.4920 0.4990 0.5120
13.151144 0.5170 0.5230 0.5280 0.5300 0.5350
13.184000 0.5370 0.5380 0.5430 0.5480 0.5500
13.217144 0.5520 0.5550 0.5570 0.5570 0.5580
13.250000 0.5580 0.5570 0.5520 0.5500 0.5470
13.283144 0.5430 0.5350 0.5280 0.5220 0.5170
13.317000 0.5050 0.4970 0.4890 0.4770 0.4690
13.350144 0.4510 0.4330 0.4140 0.3980 0.3810
13.383000 0.3650 0.3470 0.3280 0.3090 0.2940
13.416144 0.2800 0.2710 0.2640 0.2520 0.2490
13.449000 0.2440 0.2380 0.2330 0.2310 0.2290
13.482144 0.2280 0.2280 0.2260 0.2240 0.2240
13.515000 0.2240 0.2240 0.2240 0.2240 0.2260
13.548144 0.2280 0.2280 0.2290 0.2330 0.2360
13.582000 0.2380 0.2390 0.2410 0.2410 0.2420
13.615144 0.2490 0.2560 0.2590 0.2610 0.2620
13.648000 0.2640 0.2670 0.2670 0.2690 0.2690
13.681144 0.2690 0.2690 0.2690 0.2670 0.2660
13.714000 0.2620 0.2590 0.2560 0.2510 0.2510
13.747144 0.2490 0.2420 0.2330 0.2230 0.2160
13.780000 0.2130 0.2090 0.2060 0.2030 0.2000
13.813144 0.1980 0.1980 0.1980 0.2000 0.2010
13.847000 0.2040 0.2060 0.2080 0.2130 0.2190
13.880144 0.2280 0.2390 0.2660 0.2800 0.2950
13.913000 0.3120 0.3270 0.3430 0.3570 0.3700
13.946144 0.3880 0.4010 0.4080 0.4140 0.4230
13.979000 0.4290 0.4330 0.4380 0.4460 0.4470
14.012144 0.4510 0.4560 0.4590 0.4590 0.4590
14.045000 0.4560 0.4510 0.4470 0.4420 0.4380
14.078144 0.4290 0.4210 0.4110 0.4000 0.3900
14.112000 0.3760 0.3650 0.3520 0.3380 0.3230
14.145144 0.3100 0.2970 0.2820 0.2690 0.2560
14.178000 0.2490 0.2420 0.2290 0.2180 0.2060
14.211144 0.1950 0.1860 0.1780 0.1730 0.1660
14.244000 0.1610 0.1550 0.1520 0.1470 0.1420
14.277144 0.1400 0.1380 0.1350 0.1350 0.1330
14.310000 0.1330 0.1330 0.1330 0.1320 0.1300
14.343144 0.1300 0.1300 0.1320 0.1330 0.1330
14.377000 0.1350 0.1350 0.1370 0.1380 0.1420
14.410144 0.1470 0.1550 0.1650 0.1730 0.1850
14.443000 0.2010 0.2180 0.2330 0.2420 0.2670
14.476144 0.2800 0.2940 0.3070 0.3200 0.3350
14.509000 0.3480 0.3600 0.3660 0.3730 0.3850
14.542144 0.3910 0.3980 0.4010 0.4060 0.4130
14.575000 0.4160 0.4160 0.4160 0.4160 0.4180
14.608144 0.4190 0.4190 0.4210 0.4210 0.4230
14.642000 0.4240 0.4240 0.4240 0.4240 0.4240
14.675144 0.4260 0.4280 0.4310 0.4340 0.4380
14.708000 0.4410 0.4440 0.4470 0.4490 0.4520
14.741144 0.4560 0.4590 0.4640 0.4690 0.4760
14.774000 0.4800 0.4870 0.4940 0.5100 0.5170
14.807144 0.5270 0.5320 0.5370 0.5420 0.5500
14.841000 0.5580 0.5660 0.5750 0.5810 0.5880
14.874144 0.5960 0.6010 0.6080 0.6140 0.6190
14.907000 0.6240 0.6310 0.6360 0.6390 0.6440
14.940144 0.6470 0.6520 0.6610 0.6660 0.6690
14.973000 0.6710 0.6760 0.6760 0.6770 0.6770
15.006144 0.6790 0.6790 0.6790 0.6790 0.6790
15.039000 0.6800 0.6820 0.6840 0.6850 0.6850
15.072144 0.6870 0.6890 0.6890 0.6890 0.6890
15.106000 0.6870 0.6870 0.6840 0.6840 0.6840
15.139144 0.6840 0.6800 0.6790 0.6760 0.6720
15.172000 0.6640 0.6560 0.6440 0.6390 0.6340
15.205144 0.6230 0.6130 0.6030 0.5950 0.5860
15.238000 0.5780 0.5700 0.5600 0.5480 0.5420
15.271144 0.5330 0.5280 0.5230 0.5190 0.5100
15.304000 0.5050 0.5020 0.4990 0.4950 0.4940
15.337144 0.4940 0.4950 0.4970 0.5050 0.5100
15.371000 0.5150 0.5220 0.5280 0.5330 0.5450
15.404144 0.5550 0.5660 0.5780 0.5900 0.6000
15.437000 0.6060 0.6240 0.6390 0.6460 0.6490
15.470144 0.6540 0.6590 0.6660 0.6740 0.6840
15.503000 0.6940 0.7000 0.7070 0.7120 0.7170
15.536144 0.7220 0.7280 0.7330 0.7380 0.7380
15.569000 0.7400 0.7400 0.7400 0.7400 0.7420
15.602144 0.7450 0.7520 0.7530 0.7530 0.7530
15.636000 0.7530 0.7530 0.7530 0.7550 0.7550
15.669144 0.7550 0.7550 0.7570 0.7570 0.7570
15.702000 0.7580 0.7600 0.7610 0.7630 0.7630
15.735144 0.7610 0.7600 0.7580 0.7580 0.7580
15.768000 0.7600 0.7600 0.7600 0.7580 0.7580
15.801144 0.7550 0.7530 0.7520 0.7480 0.7470
15.834000 0.7470 0.7470 0.7470 0.7450 0.7450
15.867144 0.7450 0.7470 0.7470 0.7470 0.7450
15.901000 0.7430 0.7380 0.7370 0.7350 0.7330
15.934144 0.7320 0.7320 0.7300 0.7300 0.7300
15.967000 0.7280 0.7280 0.7300 0.7300 0.7300
16.000144 0.7300 0.7300
##END=
