##TITLE=Tricarbonylcycloheptatrienylmolybdenum
##JCAMP-DX=4.24
$$ By DXEDIT 1.05 (RS McDonald)
##DATA TYPE=INFRARED SPECTRUM
##CLASS=COBLENTZ III
##ORIGIN=DOW CHEMICAL COMPANY
##OWNER=COPYRIGHT (C) 1988 by COBLENTZ SOCIETY INC.
Collection (C) 2018 copyright by the U.S. Secretary of Commerce
on behalf of the United States of America. All rights reserved.
##DATE=1966/01/31
##MOLFORM=C10 H7 Mo O3
##SOURCE REFERENCE=COBLENTZ NO. 06699
##$NIST ID=B6006699
##$NIST SOURCE=COBLENTZ
##$NIST IMAGE=cob6699
##SPECTROMETER/DATA SYSTEM=DOW KBr FOREPRISM-GRATING
##INSTRUMENT PARAMETERS=BLAZED AT 3.5, 12.0, 20.0 MICRON AND CHANGED AT 5.0, 7.5, 14.9 MICRON
##STATE=SOLID (SPLIT MULL)
##SAMPLING PROCEDURE=TRANSMISSION
##RESOLUTION=2
##DATA PROCESSING=DIGITIZED BY COBLENTZ SOCIETY (BATCH I) FROM HARD COPY
##XUNITS=1/CM
##YUNITS=TRANSMITTANCE
##XFACTOR=1
##YFACTOR=1
##DELTAX=1
##FIRSTX=3800
##LASTX=380
##FIRSTY=0.9013
##MAXX=3800
##MINX=380
##MAXY=1.0841
##MINY=0.0735
##NPOINTS=3421
##XYDATA=(X++(Y..Y))
3800.000000 0.9013 0.9013 0.9014 0.9016 0.9018
3795.000000 0.9018 0.9021 0.9023 0.9025 0.9027
3790.000000 0.9028 0.9031 0.9033 0.9035 0.9037
3785.000000 0.9039 0.9041 0.9043 0.9045 0.9047
3780.000000 0.9049 0.9051 0.9053 0.9055 0.9057
3775.000000 0.9059 0.9061 0.9062 0.9063 0.9063
3770.000000 0.9064 0.9065 0.9066 0.9066 0.9067
3765.000000 0.9067 0.9068 0.9068 0.9070 0.9071
3760.000000 0.9073 0.9074 0.9075 0.9077 0.9078
3755.000000 0.9080 0.9082 0.9083 0.9085 0.9087
3750.000000 0.9090 0.9092 0.9095 0.9097 0.9100
3745.000000 0.9102 0.9105 0.9107 0.9110 0.9113
3740.000000 0.9116 0.9118 0.9121 0.9124 0.9127
3735.000000 0.9128 0.9130 0.9130 0.9131 0.9132
3730.000000 0.9133 0.9133 0.9133 0.9132 0.9132
3725.000000 0.9125 0.9120 0.9113 0.9106 0.9099
3720.000000 0.9092 0.9083 0.9075 0.9065 0.9056
3715.000000 0.9046 0.9037 0.9027 0.9017 0.9008
3710.000000 0.8999 0.9001 0.9004 0.9007 0.9011
3705.000000 0.9014 0.9018 0.9020 0.9023 0.9025
3700.000000 0.9028 0.9030 0.9033 0.9035 0.9038
3695.000000 0.9040 0.9043 0.9046 0.9050 0.9053
3690.000000 0.9057 0.9061 0.9065 0.9068 0.9071
3685.000000 0.9074 0.9078 0.9081 0.9084 0.9087
3680.000000 0.9090 0.9093 0.9096 0.9097 0.9098
3675.000000 0.9099 0.9101 0.9102 0.9103 0.9104
3670.000000 0.9105 0.9106 0.9108 0.9109 0.9110
3665.000000 0.9110 0.9111 0.9112 0.9113 0.9113
3660.000000 0.9114 0.9114 0.9115 0.9115 0.9116
3655.000000 0.9116 0.9117 0.9118 0.9118 0.9118
3650.000000 0.9120 0.9120 0.9120 0.9120 0.9121
3645.000000 0.9121 0.9121 0.9121 0.9121 0.9121
3640.000000 0.9123 0.9123 0.9124 0.9124 0.9124
3635.000000 0.9124 0.9125 0.9125 0.9125 0.9125
3630.000000 0.9127 0.9127 0.9128 0.9128 0.9128
3625.000000 0.9128 0.9130 0.9130 0.9131 0.9131
3620.000000 0.9132 0.9132 0.9133 0.9134 0.9135
3615.000000 0.9135 0.9136 0.9136 0.9137 0.9137
3610.000000 0.9138 0.9138 0.9138 0.9138 0.9139
3605.000000 0.9139 0.9139 0.9139 0.9139 0.9139
3600.000000 0.9140 0.9140 0.9141 0.9141 0.9141
3595.000000 0.9141 0.9142 0.9142 0.9142 0.9141
3590.000000 0.9141 0.9140 0.9139 0.9133 0.9128
3585.000000 0.9110 0.9092 0.9077 0.9062 0.9048
3580.000000 0.9034 0.9023 0.9013 0.9007 0.9002
3575.000000 0.9000 0.8999 0.9005 0.9011 0.9017
3570.000000 0.9023 0.9028 0.9034 0.9040 0.9046
3565.000000 0.9049 0.9052 0.9052 0.9053 0.9053
3560.000000 0.9054 0.9054 0.9054 0.9054 0.9055
3555.000000 0.9055 0.9055 0.9055 0.9056 0.9056
3550.000000 0.9056 0.9056 0.9057 0.9057 0.9057
3545.000000 0.9056 0.9056 0.9056 0.9056 0.9056
3540.000000 0.9056 0.9055 0.9055 0.9055 0.9055
3535.000000 0.9055 0.9055 0.9054 0.9054 0.9054
3530.000000 0.9055 0.9055 0.9055 0.9055 0.9055
3525.000000 0.9055 0.9055 0.9055 0.9055 0.9055
3520.000000 0.9055 0.9055 0.9055 0.9055 0.9055
3515.000000 0.9055 0.9055 0.9055 0.9055 0.9055
3510.000000 0.9055 0.9055 0.9056 0.9056 0.9057
3505.000000 0.9057 0.9058 0.9058 0.9058 0.9058
3500.000000 0.9059 0.9059 0.9060 0.9060 0.9061
3495.000000 0.9061 0.9061 0.9061 0.9062 0.9062
3490.000000 0.9063 0.9063 0.9064 0.9064 0.9064
3485.000000 0.9064 0.9065 0.9065 0.9066 0.9066
3480.000000 0.9066 0.9066 0.9067 0.9067 0.9067
3475.000000 0.9067 0.9068 0.9068 0.9068 0.9068
3470.000000 0.9068 0.9068 0.9070 0.9070 0.9070
3465.000000 0.9070 0.9071 0.9071 0.9071 0.9071
3460.000000 0.9071 0.9071 0.9073 0.9073 0.9074
3455.000000 0.9074 0.9075 0.9075 0.9075 0.9075
3450.000000 0.9077 0.9077 0.9078 0.9078 0.9078
3445.000000 0.9078 0.9078 0.9078 0.9080 0.9080
3440.000000 0.9081 0.9081 0.9082 0.9082 0.9083
3435.000000 0.9083 0.9084 0.9084 0.9085 0.9085
3430.000000 0.9085 0.9085 0.9086 0.9086 0.9087
3425.000000 0.9087 0.9088 0.9088 0.9089 0.9089
3420.000000 0.9090 0.9091 0.9092 0.9092 0.9093
3415.000000 0.9093 0.9094 0.9095 0.9096 0.9096
3410.000000 0.9097 0.9098 0.9099 0.9099 0.9100
3405.000000 0.9100 0.9101 0.9102 0.9103 0.9103
3400.000000 0.9104 0.9104 0.9105 0.9106 0.9107
3395.000000 0.9107 0.9108 0.9109 0.9110 0.9111
3390.000000 0.9113 0.9114 0.9115 0.9116 0.9118
3385.000000 0.9118 0.9120 0.9121 0.9123 0.9124
3380.000000 0.9125 0.9127 0.9128 0.9128 0.9131
3375.000000 0.9132 0.9133 0.9134 0.9136 0.9137
3370.000000 0.9138 0.9139 0.9141 0.9142 0.9143
3365.000000 0.9143 0.9144 0.9145 0.9146 0.9146
3360.000000 0.9147 0.9148 0.9149 0.9150 0.9151
3355.000000 0.9151 0.9152 0.9153 0.9154 0.9154
3350.000000 0.9155 0.9156 0.9157 0.9158 0.9159
3345.000000 0.9159 0.9160 0.9161 0.9162 0.9162
3340.000000 0.9163 0.9164 0.9165 0.9166 0.9167
3335.000000 0.9167 0.9168 0.9168 0.9168 0.9170
3330.000000 0.9171 0.9171 0.9171 0.9171 0.9173
3325.000000 0.9173 0.9174 0.9174 0.9175 0.9175
3320.000000 0.9175 0.9175 0.9177 0.9177 0.9178
3315.000000 0.9178 0.9178 0.9178 0.9180 0.9180
3310.000000 0.9181 0.9181 0.9182 0.9183 0.9184
3305.000000 0.9184 0.9185 0.9186 0.9187 0.9188
3300.000000 0.9189 0.9190 0.9191 0.9192 0.9193
3295.000000 0.9194 0.9195 0.9196 0.9197 0.9198
3290.000000 0.9200 0.9201 0.9202 0.9203 0.9204
3285.000000 0.9205 0.9206 0.9207 0.9208 0.9209
3280.000000 0.9210 0.9211 0.9212 0.9213 0.9214
3275.000000 0.9215 0.9216 0.9217 0.9218 0.9218
3270.000000 0.9220 0.9221 0.9221 0.9223 0.9224
3265.000000 0.9225 0.9225 0.9227 0.9228 0.9228
3260.000000 0.9230 0.9231 0.9232 0.9233 0.9234
3255.000000 0.9235 0.9236 0.9237 0.9238 0.9239
3250.000000 0.9240 0.9241 0.9242 0.9243 0.9244
3245.000000 0.9245 0.9246 0.9247 0.9248 0.9248
3240.000000 0.9249 0.9250 0.9251 0.9251 0.9252
3235.000000 0.9253 0.9254 0.9255 0.9256 0.9256
3230.000000 0.9257 0.9258 0.9259 0.9260 0.9261
3225.000000 0.9261 0.9262 0.9263 0.9264 0.9265
3220.000000 0.9266 0.9266 0.9267 0.9268 0.9268
3215.000000 0.9268 0.9270 0.9271 0.9271 0.9273
3210.000000 0.9274 0.9274 0.9275 0.9275 0.9277
3205.000000 0.9278 0.9278 0.9278 0.9280 0.9281
3200.000000 0.9282 0.9282 0.9283 0.9284 0.9285
3195.000000 0.9285 0.9286 0.9287 0.9288 0.9288
3190.000000 0.9289 0.9290 0.9291 0.9291 0.9292
3185.000000 0.9293 0.9294 0.9294 0.9295 0.9296
3180.000000 0.9297 0.9297 0.9298 0.9299 0.9301
3175.000000 0.9302 0.9304 0.9305 0.9307 0.9308
3170.000000 0.9310 0.9311 0.9312 0.9313 0.9315
3165.000000 0.9316 0.9318 0.9318 0.9321 0.9321
3160.000000 0.9323 0.9324 0.9325 0.9327 0.9328
3155.000000 0.9330 0.9332 0.9333 0.9335 0.9336
3150.000000 0.9337 0.9339 0.9341 0.9342 0.9344
3145.000000 0.9346 0.9348 0.9350 0.9352 0.9354
3140.000000 0.9356 0.9358 0.9360 0.9361 0.9363
3135.000000 0.9365 0.9367 0.9368 0.9371 0.9373
3130.000000 0.9375 0.9377 0.9378 0.9381 0.9383
3125.000000 0.9384 0.9386 0.9387 0.9389 0.9390
3120.000000 0.9391 0.9392 0.9394 0.9395 0.9397
3115.000000 0.9398 0.9400 0.9401 0.9402 0.9403
3110.000000 0.9405 0.9406 0.9408 0.9409 0.9410
3105.000000 0.9411 0.9412 0.9413 0.9414 0.9415
3100.000000 0.9416 0.9417 0.9418 0.9418 0.9418
3095.000000 0.9420 0.9421 0.9421 0.9423 0.9424
3090.000000 0.9425 0.9425 0.9425 0.9427 0.9428
3085.000000 0.9428 0.9428 0.9428 0.9428 0.9428
3080.000000 0.9428 0.9428 0.9427 0.9425 0.9425
3075.000000 0.9424 0.9423 0.9418 0.9416 0.9412
3070.000000 0.9408 0.9404 0.9401 0.9397 0.9394
3065.000000 0.9389 0.9385 0.9380 0.9375 0.9371
3060.000000 0.9368 0.9365 0.9362 0.9360 0.9359
3055.000000 0.9357 0.9355 0.9353 0.9352 0.9350
3050.000000 0.9348 0.9345 0.9343 0.9340 0.9338
3045.000000 0.9336 0.9334 0.9334 0.9335 0.9336
3040.000000 0.9337 0.9341 0.9345 0.9350 0.9355
3035.000000 0.9363 0.9371 0.9378 0.9388 0.9396
3030.000000 0.9404 0.9412 0.9421 0.9428 0.9437
3025.000000 0.9440 0.9443 0.9445 0.9448 0.9450
3020.000000 0.9453 0.9455 0.9458 0.9459 0.9461
3015.000000 0.9462 0.9463 0.9464 0.9465 0.9466
3010.000000 0.9467 0.9468 0.9468 0.9470 0.9471
3005.000000 0.9471 0.9473 0.9474 0.9475 0.9475
3000.000000 0.9478 0.9478 0.9480 0.9481 0.9483
2995.000000 0.9485 0.9488 0.9490 0.9493 0.9495
2990.000000 0.9498 0.9500 0.9503 0.9505 0.9507
2985.000000 0.9508 0.9510 0.9512 0.9514 0.9515
2980.000000 0.9532 0.9518 0.9520 0.9520 0.9521
2975.000000 0.9521 0.9521 0.9521 0.9521 0.9521
2970.000000 0.9520 0.9515 0.9511 0.9506 0.9502
2965.000000 0.9497 0.9493 0.9490 0.9487 0.9483
2960.000000 0.9480 0.9477 0.9475 0.9475 0.9475
2955.000000 0.9474 0.9474 0.9474 0.9474 0.9474
2950.000000 0.9474 0.9474 0.9475 0.9475 0.9475
2945.000000 0.9475 0.9477 0.9477 0.9477 0.9475
2940.000000 0.9475 0.9475 0.9475 0.9475 0.9475
2935.000000 0.9475 0.9475 0.9475 0.9475 0.9471
2930.000000 0.9470 0.9466 0.9463 0.9460 0.9457
2925.000000 0.9454 0.9451 0.9448 0.9445 0.9441
2920.000000 0.9438 0.9435 0.9433 0.9431 0.9428
2915.000000 0.9427 0.9425 0.9423 0.9421 0.9421
2910.000000 0.9421 0.9421 0.9421 0.9423 0.9424
2905.000000 0.9424 0.9425 0.9425 0.9427 0.9427
2900.000000 0.9427 0.9425 0.9424 0.9421 0.9418
2895.000000 0.9415 0.9411 0.9407 0.9404 0.9374
2890.000000 0.9344 0.9303 0.9085 0.9221 0.9181
2885.000000 0.9140 0.9099 0.9134 0.9170 0.9201
2880.000000 0.9232 0.9262 0.9292 0.9318 0.9347
2875.000000 0.9371 0.9395 0.9412 0.9428 0.9440
2870.000000 0.9451 0.9459 0.9467 0.9474 0.9482
2865.000000 0.9486 0.9490 0.9494 0.9498 0.9501
2860.000000 0.9504 0.9505 0.9506 0.9507 0.9509
2855.000000 0.9509 0.9510 0.9509 0.9508 0.9506
2850.000000 0.9504 0.9502 0.9500 0.9495 0.9490
2845.000000 0.9480 0.9470 0.9456 0.9443 0.9431
2840.000000 0.9418 0.9405 0.9392 0.9384 0.9377
2835.000000 0.9371 0.9368 0.9368 0.9368 0.9370
2830.000000 0.9371 0.9375 0.9378 0.9383 0.9387
2825.000000 0.9406 0.9425 0.9448 0.9471 0.9491
2820.000000 0.9511 0.9527 0.9543 0.9557 0.9571
2815.000000 0.9575 0.9578 0.9583 0.9587 0.9591
2810.000000 0.9595 0.9599 0.9603 0.9607 0.9611
2805.000000 0.9615 0.9618 0.9621 0.9625 0.9627
2800.000000 0.9628 0.9631 0.9633 0.9635 0.9637
2795.000000 0.9639 0.9641 0.9643 0.9645 0.9647
2790.000000 0.9650 0.9652 0.9654 0.9656 0.9658
2785.000000 0.9660 0.9662 0.9663 0.9665 0.9666
2780.000000 0.9667 0.9668 0.9668 0.9670 0.9671
2775.000000 0.9671 0.9673 0.9674 0.9675 0.9675
2770.000000 0.9677 0.9677 0.9678 0.9678 0.9680
2765.000000 0.9681 0.9682 0.9683 0.9684 0.9685
2760.000000 0.9686 0.9687 0.9688 0.9689 0.9690
2755.000000 0.9691 0.9692 0.9693 0.9694 0.9695
2750.000000 0.9696 0.9696 0.9697 0.9697 0.9698
2745.000000 0.9698 0.9698 0.9698 0.9699 0.9699
2740.000000 0.9700 0.9700 0.9701 0.9701 0.9702
2735.000000 0.9702 0.9703 0.9703 0.9704 0.9704
2730.000000 0.9705 0.9705 0.9706 0.9706 0.9707
2725.000000 0.9707 0.9708 0.9708 0.9709 0.9709
2720.000000 0.9710 0.9711 0.9712 0.9713 0.9714
2715.000000 0.9715 0.9716 0.9717 0.9718 0.9718
2710.000000 0.9720 0.9721 0.9721 0.9723 0.9724
2705.000000 0.9725 0.9725 0.9727 0.9728 0.9728
2700.000000 0.9730 0.9731 0.9732 0.9733 0.9734
2695.000000 0.9735 0.9736 0.9737 0.9738 0.9739
2690.000000 0.9740 0.9741 0.9742 0.9743 0.9744
2685.000000 0.9745 0.9747 0.9748 0.9749 0.9750
2680.000000 0.9752 0.9753 0.9754 0.9755 0.9756
2675.000000 0.9757 0.9759 0.9760 0.9761 0.9762
2670.000000 0.9764 0.9765 0.9766 0.9767 0.9768
2665.000000 0.9768 0.9770 0.9771 0.9771 0.9771
2660.000000 0.9773 0.9774 0.9775 0.9775 0.9777
2655.000000 0.9777 0.9778 0.9778 0.9780 0.9780
2650.000000 0.9781 0.9782 0.9783 0.9784 0.9785
2645.000000 0.9786 0.9787 0.9788 0.9789 0.9790
2640.000000 0.9792 0.9793 0.9794 0.9795 0.9796
2635.000000 0.9797 0.9798 0.9799 0.9800 0.9801
2630.000000 0.9803 0.9804 0.9805 0.9806 0.9807
2625.000000 0.9808 0.9810 0.9811 0.9813 0.9814
2620.000000 0.9816 0.9817 0.9818 0.9820 0.9821
2615.000000 0.9823 0.9825 0.9825 0.9828 0.9828
2610.000000 0.9831 0.9831 0.9832 0.9832 0.9833
2605.000000 0.9833 0.9833 0.9833 0.9834 0.9834
2600.000000 0.9834 0.9834 0.9835 0.9835 0.9836
2595.000000 0.9836 0.9836 0.9836 0.9837 0.9837
2590.000000 0.9838 0.9838 0.9839 0.9840 0.9841
2585.000000 0.9841 0.9842 0.9842 0.9843 0.9843
2580.000000 0.9844 0.9844 0.9845 0.9846 0.9847
2575.000000 0.9847 0.9848 0.9848 0.9849 0.9849
2570.000000 0.9850 0.9851 0.9852 0.9852 0.9853
2565.000000 0.9853 0.9854 0.9855 0.9856 0.9856
2560.000000 0.9857 0.9857 0.9858 0.9859 0.9860
2555.000000 0.9860 0.9861 0.9862 0.9863 0.9863
2550.000000 0.9864 0.9864 0.9865 0.9865 0.9866
2545.000000 0.9866 0.9866 0.9865 0.9865 0.9865
2540.000000 0.9865 0.9865 0.9865 0.9865 0.9865
2535.000000 0.9866 0.9867 0.9867 0.9868 0.9868
2530.000000 0.9868 0.9868 0.9870 0.9871 0.9871
2525.000000 0.9871 0.9873 0.9873 0.9874 0.9874
2520.000000 0.9875 0.9875 0.9877 0.9877 0.9878
2515.000000 0.9878 0.9878 0.9878 0.9878 0.9878
2510.000000 0.9878 0.9878 0.9878 0.9878 0.9878
2505.000000 0.9878 0.9878 0.9878 0.9878 0.9878
2500.000000 0.9878 0.9878 0.9878 0.9878 0.9878
2495.000000 0.9878 0.9878 0.9877 0.9877 0.9877
2490.000000 0.9877 0.9877 0.9877 0.9875 0.9875
2485.000000 0.9875 0.9875 0.9875 0.9875 0.9875
2480.000000 0.9877 0.9878 0.9878 0.9878 0.9880
2475.000000 0.9880 0.9881 0.9881 0.9882 0.9883
2470.000000 0.9884 0.9884 0.9885 0.9885 0.9886
2465.000000 0.9887 0.9888 0.9888 0.9888 0.9888
2460.000000 0.9887 0.9886 0.9885 0.9884 0.9884
2455.000000 0.9883 0.9882 0.9881 0.9880 0.9878
2450.000000 0.9878 0.9878 0.9877 0.9875 0.9875
2445.000000 0.9874 0.9873 0.9873 0.9874 0.9874
2440.000000 0.9874 0.9874 0.9874 0.9874 0.9875
2435.000000 0.9875 0.9875 0.9875 0.9875 0.9875
2430.000000 0.9875 0.9875 0.9875 0.9875 0.9877
2425.000000 0.9877 0.9877 0.9877 0.9878 0.9878
2420.000000 0.9878 0.9878 0.9880 0.9880 0.9880
2415.000000 0.9880 0.9881 0.9881 0.9882 0.9882
2410.000000 0.9883 0.9884 0.9885 0.9885 0.9886
2405.000000 0.9887 0.9888 0.9888 0.9889 0.9890
2400.000000 0.9891 0.9891 0.9892 0.9893 0.9894
2395.000000 0.9894 0.9895 0.9896 0.9897 0.9898
2390.000000 0.9899 0.9900 0.9901 0.9902 0.9904
2385.000000 0.9905 0.9907 0.9908 0.9910 0.9911
2380.000000 0.9913 0.9916 0.9920 0.9923 0.9927
2375.000000 0.9930 0.9933 0.9936 0.9940 0.9942
2370.000000 0.9945 0.9947 0.9950 0.9952 0.9955
2365.000000 0.9957 0.9959 0.9961 0.9964 0.9966
2360.000000 0.9968 0.9968 0.9971 0.9971 0.9974
2355.000000 0.9975 0.9975 0.9977 0.9978 0.9978
2350.000000 0.9980 0.9981 0.9982 0.9983 0.9984
2345.000000 0.9984 0.9984 0.9984 0.9984 0.9983
2340.000000 0.9983 0.9983 0.9983 0.9983 0.9983
2335.000000 0.9982 0.9982 0.9982 0.9982 0.9982
2330.000000 0.9982 0.9981 0.9981 0.9981 0.9981
2325.000000 0.9981 0.9981 0.9978 0.9975 0.9971
2320.000000 0.9967 0.9962 0.9958 0.9953 0.9949
2315.000000 0.9941 0.9933 0.9928 0.9923 0.9921
2310.000000 0.9918 0.9916 0.9914 0.9912 0.9910
2305.000000 0.9909 0.9909 0.9909 0.9911 0.9912
2300.000000 0.9913 0.9914 0.9916 0.9917 0.9918
2295.000000 0.9920 0.9921 0.9921 0.9924 0.9925
2290.000000 0.9925 0.9927 0.9928 0.9930 0.9932
2285.000000 0.9933 0.9935 0.9936 0.9938 0.9939
2280.000000 0.9941 0.9942 0.9944 0.9945 0.9947
2275.000000 0.9948 0.9950 0.9951 0.9953 0.9954
2270.000000 0.9956 0.9958 0.9960 0.9961 0.9963
2265.000000 0.9965 0.9967 0.9968 0.9970 0.9971
2260.000000 0.9974 0.9975 0.9977 0.9978 0.9981
2255.000000 0.9982 0.9984 0.9986 0.9988 0.9989
2250.000000 0.9991 0.9993 0.9995 0.9996 0.9998
2245.000000 1.0000 1.0002 1.0003 1.0005 1.0006
2240.000000 1.0008 1.0009 1.0011 1.0012 1.0013
2235.000000 1.0014 1.0016 1.0017 1.0018 1.0018
2230.000000 1.0021 1.0021 1.0023 1.0024 1.0025
2225.000000 1.0025 1.0028 1.0028 1.0030 1.0031
2220.000000 1.0033 1.0034 1.0035 1.0036 1.0038
2215.000000 1.0039 1.0041 1.0043 1.0045 1.0046
2210.000000 1.0048 1.0050 1.0052 1.0053 1.0055
2205.000000 1.0056 1.0058 1.0060 1.0062 1.0063
2200.000000 1.0065 1.0067 1.0068 1.0070 1.0071
2195.000000 1.0073 1.0075 1.0077 1.0078 1.0080
2190.000000 1.0082 1.0082 1.0083 1.0083 1.0084
2185.000000 1.0084 1.0085 1.0085 1.0086 1.0086
2180.000000 1.0087 1.0088 1.0089 1.0089 1.0090
2175.000000 1.0090 1.0091 1.0091 1.0092 1.0093
2170.000000 1.0094 1.0094 1.0095 1.0095 1.0096
2165.000000 1.0097 1.0098 1.0098 1.0099 1.0100
2160.000000 1.0101 1.0101 1.0102 1.0102 1.0103
2155.000000 1.0104 1.0105 1.0105 1.0106 1.0106
2150.000000 1.0107 1.0108 1.0109 1.0109 1.0110
2145.000000 1.0111 1.0112 1.0113 1.0114 1.0115
2140.000000 1.0116 1.0117 1.0118 1.0118 1.0120
2135.000000 1.0121 1.0121 1.0123 1.0124 1.0124
2130.000000 1.0125 1.0125 1.0125 1.0125 1.0127
2125.000000 1.0127 1.0128 1.0128 1.0128 1.0128
2120.000000 1.0130 1.0130 1.0130 1.0128 1.0128
2115.000000 1.0128 1.0127 1.0125 1.0125 1.0125
2110.000000 1.0125 1.0125 1.0125 1.0125 1.0125
2105.000000 1.0124 1.0124 1.0124 1.0124 1.0124
2100.000000 1.0124 1.0123 1.0123 1.0123 1.0123
2095.000000 1.0123 1.0123 1.0121 1.0121 1.0121
2090.000000 1.0121 1.0120 1.0120 1.0118 1.0118
2085.000000 1.0118 1.0117 1.0115 1.0114 1.0110
2080.000000 1.0107 1.0103 1.0100 1.0096 1.0092
2075.000000 1.0088 1.0085 1.0082 1.0139 1.0075
2070.000000 1.0074 1.0071 1.0068 1.0066 1.0064
2065.000000 1.0064 1.0064 1.0064 1.0064 1.0063
2060.000000 1.0063 1.0063 1.0063 1.0062 1.0061
2055.000000 1.0060 1.0059 1.0058 1.0057 1.0056
2050.000000 1.0055 1.0054 1.0053 1.0049 1.0045
2045.000000 1.0041 1.0037 1.0032 1.0028 1.0023
2040.000000 1.0018 1.0013 1.0008 1.0003 0.9998
2035.000000 0.9991 0.9984 0.9974 0.9965 0.9956
2030.000000 0.9947 0.9937 0.9928 0.9917 0.9907
2025.000000 0.9896 0.9885 0.9873 0.9862 0.9849
2020.000000 0.9836 0.9820 0.9805 0.9789 0.9773
2015.000000 0.9756 0.9740 0.9720 0.9701 0.9681
2010.000000 0.9662 0.9641 0.9621 0.9598 0.9575
2005.000000 0.9552 0.9528 0.9489 0.9449 0.8733
2000.000000 0.8018 0.7736 0.7600 0.7451 0.7307
1995.000000 0.7184 0.6971 0.6792 0.6671 0.6525
1990.000000 0.6048 0.5556 0.5064 0.4572 0.4080
1985.000000 0.3589 0.3097 0.2605 0.2113 0.1451
1980.000000 0.1274 0.1179 0.1104 0.1049 0.0992
1975.000000 0.0933 0.0863 0.0791 0.0742 0.0735
1970.000000 0.0750 0.0822 0.1066 0.1527 0.1942
1965.000000 0.2358 0.2773 0.3189 0.3636 0.3807
1960.000000 0.4016 0.4225 0.4434 0.4643 0.4851
1955.000000 0.5060 0.5269 0.5478 0.5687 0.5896
1950.000000 0.6104 0.6332 0.6492 0.6605 0.6694
1945.000000 0.6728 0.6762 0.6785 0.6801 0.6791
1940.000000 0.6814 0.6811 0.6789 0.6760 0.6707
1935.000000 0.6645 0.6555 0.5393 0.4699 0.4004
1930.000000 0.3309 0.3081 0.3234 0.3412 0.3447
1925.000000 0.3442 0.3204 0.2957 0.2710 0.2463
1920.000000 0.2216 0.1969 0.1723 0.1549 0.1494
1915.000000 0.1492 0.1492 0.1486 0.1528 0.1581
1910.000000 0.1637 0.1696 0.1775 0.1884 0.1984
1905.000000 0.2101 0.2261 0.2488 0.2864 0.3053
1900.000000 0.3241 0.3430 0.3618 0.3807 0.3996
1895.000000 0.4185 0.4373 0.4562 0.4751 0.4939
1890.000000 0.5047 0.5079 0.5097 0.5109 0.5114
1885.000000 0.5131 0.5118 0.5116 0.5099 0.4957
1880.000000 0.4614 0.4348 0.4082 0.3816 0.3552
1875.000000 0.3286 0.3021 0.2755 0.2489 0.2224
1870.000000 0.1958 0.1765 0.1684 0.1604 0.1492
1865.000000 0.1328 0.1179 0.1105 0.1041 0.1014
1860.000000 0.0996 0.0978 0.0964 0.0960 0.0958
1855.000000 0.1033 0.1131 0.1258 0.1437 0.1745
1850.000000 0.1975 0.2397 0.2664 0.2931 0.3199
1845.000000 0.3466 0.3732 0.4000 0.4268 0.4535
1840.000000 0.4802 0.4912 0.4949 0.4982 0.5056
1835.000000 0.5328 0.5712 0.6024 0.6026 0.5829
1830.000000 0.5610 0.5585 0.5814 0.6218 0.6484
1825.000000 0.6775 0.6901 0.7026 0.7140 0.7253
1820.000000 0.7365 0.7489 0.7611 0.7683 0.7743
1815.000000 0.7803 0.7861 0.7921 0.7986 0.8056
1810.000000 0.8126 0.8197 0.8251 0.8302 0.8353
1805.000000 0.8404 0.8454 0.8491 0.8528 0.8566
1800.000000 0.8603 0.8640 0.8678 0.8715 0.8744
1795.000000 0.8771 0.8799 0.8825 0.8854 0.8878
1790.000000 0.8902 0.8924 0.8946 0.8968 0.8991
1785.000000 0.9013 0.9032 0.9050 0.9068 0.9086
1780.000000 0.9104 0.9121 0.9140 0.9158 0.9175
1775.000000 0.9195 0.9214 0.9232 0.9251 0.9270
1770.000000 0.9289 0.9307 0.9325 0.9345 0.9360
1765.000000 0.9375 0.9390 0.9405 0.9420 0.9434
1760.000000 0.9449 0.9464 0.9475 0.9485 0.9496
1755.000000 0.9506 0.9516 0.9527 0.9537 0.9547
1750.000000 0.9558 0.9567 0.9575 0.9583 0.9591
1745.000000 0.9599 0.9607 0.9614 0.9621 0.9630
1740.000000 0.9637 0.9644 0.9651 0.9658 0.9665
1735.000000 0.9671 0.9678 0.9686 0.9693 0.9698
1730.000000 0.9703 0.9709 0.9714 0.9718 0.9724
1725.000000 0.9728 0.9734 0.9739 0.9744 0.9749
1720.000000 0.9754 0.9758 0.9762 0.9766 0.9768
1715.000000 0.9773 0.9777 0.9781 0.9785 0.9789
1710.000000 0.9793 0.9797 0.9800 0.9804 0.9807
1705.000000 0.9811 0.9814 0.9818 0.9821 0.9825
1700.000000 0.9828 0.9830 0.9833 0.9836 0.9839
1695.000000 0.9841 0.9844 0.9847 0.9850 0.9853
1690.000000 0.9855 0.9857 0.9859 0.9860 0.9861
1685.000000 0.9863 0.9864 0.9865 0.9866 0.9867
1680.000000 0.9867 0.9868 0.9868 0.9868 0.9868
1675.000000 0.9867 0.9866 0.9864 0.9863 0.9860
1670.000000 0.9856 0.9853 0.9850 0.9846 0.9843
1665.000000 0.9840 0.9837 0.9835 0.9833 0.9832
1660.000000 0.9830 0.9828 0.9827 0.9825 0.9834
1655.000000 0.9841 0.9849 0.9854 0.9858 0.9863
1650.000000 0.9868 0.9873 0.9878 0.9881 0.9882
1645.000000 0.9884 0.9886 0.9887 0.9889 0.9890
1640.000000 0.9890 0.9891 0.9891 0.9891 0.9891
1635.000000 0.9892 0.9892 0.9892 0.9892 0.9892
1630.000000 0.9892 0.9892 0.9892 0.9892 0.9893
1625.000000 0.9893 0.9894 0.9896 0.9897 0.9898
1620.000000 0.9899 0.9901 0.9902 0.9904 0.9906
1615.000000 0.9908 0.9910 0.9912 0.9914 0.9916
1610.000000 0.9918 0.9920 0.9921 0.9924 0.9925
1605.000000 0.9927 0.9928 0.9931 0.9933 0.9935
1600.000000 0.9938 0.9942 0.9945 0.9949 0.9952
1595.000000 0.9952 0.9952 0.9952 0.9951 0.9951
1590.000000 0.9951 0.9946 0.9940 0.9933 0.9927
1585.000000 0.9921 0.9916 0.9911 0.9907 0.9905
1580.000000 0.9904 0.9903 0.9903 0.9902 0.9902
1575.000000 0.9902 0.9902 0.9902 0.9903 0.9903
1570.000000 0.9904 0.9905 0.9906 0.9907 0.9908
1565.000000 0.9909 0.9910 0.9912 0.9912 0.9911
1560.000000 0.9910 0.9909 0.9908 0.9907 0.9906
1555.000000 0.9905 0.9904 0.9902 0.9901 0.9900
1550.000000 0.9900 0.9900 0.9899 0.9899 0.9899
1545.000000 0.9897 0.9895 0.9893 0.9891 0.9889
1540.000000 0.9889 0.9889 0.9890 0.9889 0.9884
1535.000000 0.9878 0.9870 0.9831 0.9512 0.8803
1530.000000 0.8770 0.9056 0.9360 0.9625 0.9684
1525.000000 0.9736 0.9773 0.9804 0.9821 0.9837
1520.000000 0.9845 0.9845 0.9845 0.9838 0.9816
1515.000000 0.9592 0.9258 0.9127 0.9133 0.9338
1510.000000 0.9543 0.9683 0.9746 0.9794 0.9816
1505.000000 0.9838 0.9850 0.9859 0.9867 0.9875
1500.000000 0.9885 0.9893 0.9901 0.9908 0.9914
1495.000000 0.9921 0.9927 0.9934 0.9940 0.9947
1490.000000 0.9954 0.9961 0.9968 0.9975 0.9980
1485.000000 0.9985 0.9989 0.9994 0.9993 0.9993
1480.000000 0.9990 0.9988 0.9982 0.9957 0.9970
1475.000000 0.9964 0.9955 0.9945 0.9935 0.9925
1470.000000 0.9915 0.9904 0.9892 0.9880 0.9865
1465.000000 0.9843 0.9821 0.9785 0.9355 0.8515
1460.000000 0.7421 0.7405 0.7524 0.7838 0.8151
1455.000000 0.8466 0.8780 0.9007 0.9196 0.9374
1450.000000 0.9568 0.9646 0.9675 0.9692 0.9704
1445.000000 0.9716 0.9745 0.9728 0.9723 0.9718
1440.000000 0.9707 0.9688 0.9641 0.9537 0.7710
1435.000000 0.7698 0.7851 0.8139 0.8425 0.8714
1430.000000 0.9001 0.9288 0.9417 0.9536 0.9654
1425.000000 0.9700 0.9725 0.9736 0.9746 0.9756
1420.000000 0.9766 0.9775 0.9782 0.9789 0.9795
1415.000000 0.9801 0.9805 0.9808 0.9812 0.9814
1410.000000 0.9816 0.9818 0.9820 0.9821 0.9823
1405.000000 0.9824 0.9825 0.9825 0.9823 0.9817
1400.000000 0.9798 0.9701 0.9511 0.9511 0.9555
1395.000000 0.9607 0.9654 0.9696 0.9737 0.9771
1390.000000 0.9806 0.9835 0.9865 0.9894 0.9921
1385.000000 0.9949 0.9968 0.9985 0.9992 1.0023
1380.000000 0.9995 0.9991 0.9987 0.9983 0.9977
1375.000000 0.9970 0.9964 0.9957 0.9950 0.9944
1370.000000 0.9937 0.9930 0.9923 0.9916 0.9910
1365.000000 0.9903 0.9895 0.9888 0.9880 0.9873
1360.000000 0.9865 0.9858 0.9850 0.9842 0.9833
1355.000000 0.9821 0.9795 0.9732 0.9653 0.9601
1350.000000 0.9581 0.9588 0.9610 0.9630 0.9638
1345.000000 0.9636 0.9627 0.9617 0.9605 0.9592
1340.000000 0.9587 0.9582 0.9577 0.9577 0.9577
1335.000000 0.9578 0.9578 0.9584 0.9588 0.9594
1330.000000 0.9601 0.9608 0.9614 0.9620 0.9625
1325.000000 0.9631 0.9637 0.9642 0.9648 0.9654
1320.000000 0.9660 0.9662 0.9663 0.9664 0.9661
1315.000000 0.9655 0.9644 0.9625 0.9603 0.9385
1310.000000 0.9086 0.9064 0.9073 0.9118 0.9203
1305.000000 0.9280 0.9349 0.9407 0.9457 0.9494
1300.000000 0.9532 0.9568 0.9594 0.9618 0.9644
1295.000000 0.9657 0.9667 0.9678 0.9688 0.9696
1290.000000 0.9703 0.9709 0.9716 0.9721 0.9728
1285.000000 0.9735 0.9738 0.9739 0.9741 0.9743
1280.000000 0.9744 0.9746 0.9748 0.9749 0.9750
1275.000000 0.9750 0.9750 0.9751 0.9751 0.9751
1270.000000 0.9751 0.9751 0.9751 0.9751 0.9750
1265.000000 0.9750 0.9750 0.9749 0.9749 0.9749
1260.000000 0.9749 0.9749 0.9750 0.9750 0.9750
1255.000000 0.9750 0.9751 0.9751 0.9752 0.9752
1250.000000 0.9752 0.9755 0.9763 0.9771 0.9788
1245.000000 0.9804 0.9820 0.9830 0.9838 0.9846
1240.000000 0.9854 0.9858 0.9860 0.9861 0.9861
1235.000000 0.9860 0.9847 0.9828 0.9795 0.9761
1230.000000 0.9715 0.9675 0.9643 0.9649 0.9678
1225.000000 0.9750 0.9789 0.9821 0.9821 0.9812
1220.000000 0.9801 0.9789 0.9790 0.9803 0.9816
1215.000000 0.9824 0.9832 0.9840 0.9844 0.9848
1210.000000 0.9853 0.9857 0.9858 0.9858 0.9857
1205.000000 0.9857 0.9857 0.9856 0.9852 0.9837
1200.000000 0.9785 0.9697 0.9616 0.9603 0.9646
1195.000000 0.9701 0.9761 0.9807 0.9839 0.9863
1190.000000 0.9881 0.9889 0.9898 0.9905 0.9909
1185.000000 0.9913 0.9917 0.9918 0.9918 0.9889
1180.000000 0.9858 0.9825 0.9800 0.9778 0.9766
1175.000000 0.9765 0.9764 0.9764 0.9765 0.9773
1170.000000 0.9780 0.9787 0.9795 0.9803 0.9811
1165.000000 0.9820 0.9828 0.9837 0.9846 0.9855
1160.000000 0.9864 0.9873 0.9882 0.9891 0.9900
1155.000000 0.9909 0.9916 0.9921 0.9928 0.9936
1150.000000 0.9942 0.9947 0.9950 0.9954 0.9957
1145.000000 0.9960 0.9960 0.9959 0.9957 0.9953
1140.000000 0.9949 0.9945 0.9940 0.9936 0.9932
1135.000000 0.9932 0.9931 0.9934 0.9937 0.9940
1130.000000 0.9943 0.9946 0.9949 0.9952 0.9957
1125.000000 0.9962 0.9967 0.9971 0.9977 0.9982
1120.000000 0.9987 0.9992 0.9995 0.9999 1.0002
1115.000000 1.0005 1.0008 1.0011 1.0014 1.0016
1110.000000 1.0017 1.0018 1.0018 1.0020 1.0021
1105.000000 1.0018 1.0015 1.0012 1.0010 1.0007
1100.000000 0.9999 0.9991 0.9983 0.9975 0.9968
1095.000000 0.9960 0.9952 0.9951 0.9950 0.9953
1090.000000 0.9955 0.9958 0.9960 0.9966 0.9974
1085.000000 0.9981 0.9988 0.9994 0.9998 1.0001
1080.000000 1.0005 1.0008 1.0008 1.0008 1.0006
1075.000000 1.0003 1.0001 0.9999 0.9997 0.9996
1070.000000 0.9994 0.9994 0.9994 0.9996 0.9998
1065.000000 0.9999 1.0001 1.0004 1.0008 1.0012
1060.000000 1.0016 1.0020 1.0024 1.0028 1.0032
1055.000000 1.0035 1.0038 1.0040 1.0043 1.0046
1050.000000 1.0049 1.0051 1.0054 1.0057 1.0059
1045.000000 1.0059 1.0060 1.0060 1.0061 1.0062
1040.000000 1.0062 1.0063 1.0064 1.0064 1.0064
1035.000000 1.0064 1.0065 1.0065 1.0065 1.0065
1030.000000 1.0063 1.0062 1.0060 1.0058 1.0056
1025.000000 1.0055 1.0053 1.0051 1.0049 1.0048
1020.000000 1.0047 1.0045 1.0020 1.0042 1.0041
1015.000000 1.0040 1.0038 1.0037 1.0036 1.0035
1010.000000 1.0034 1.0033 1.0030 1.0027 1.0023
1005.000000 1.0020 1.0013 1.0006 1.0000 0.9995
1000.000000 0.9989 0.9981 0.9958 0.9920 0.9778
995.000000 0.9454 0.9160 0.9149 0.9157 0.9243
990.000000 0.9416 0.9589 0.9650 0.9647 0.9621
985.000000 0.9583 0.9563 0.9595 0.9652 0.9731
980.000000 0.9821 0.9875 0.9900 0.9916 0.9924
975.000000 0.9932 0.9939 0.9935 0.9932 0.9928
970.000000 0.9923 0.9918 0.9917 0.9916 0.9916
965.000000 0.9924 0.9937 0.9950 0.9963 0.9975
960.000000 0.9988 1.0000 1.0013 1.0024 1.0028
955.000000 1.0034 1.0039 1.0039 1.0038 1.0035
950.000000 1.0033 1.0031 1.0028 1.0023 1.0020
945.000000 1.0018 1.0015 1.0013 1.0013 1.0013
940.000000 1.0025 1.0041 1.0056 1.0071 1.0084
935.000000 1.0096 1.0108 1.0120 1.0120 1.0116
930.000000 1.0112 1.0109 1.0105 1.0102 1.0102
925.000000 1.0108 1.0108 1.0108 1.0108 1.0109
920.000000 1.0111 1.0113 1.0115 1.0116 1.0116
915.000000 1.0113 1.0112 1.0111 1.0125 1.0139
910.000000 1.0151 1.0157 1.0160 1.0163 1.0164
905.000000 1.0165 1.0165 1.0166 1.0166 1.0165
900.000000 1.0165 1.0165 1.0164 1.0160 1.0155
895.000000 1.0150 1.0145 1.0140 1.0135 1.0128
890.000000 1.0121 1.0116 1.0108 1.0096 1.0084
885.000000 1.0071 1.0058 1.0044 1.0030 1.0020
880.000000 1.0021 1.0034 1.0047 1.0061 1.0074
875.000000 1.0096 1.0120 1.0143 1.0155 1.0166
870.000000 1.0178 1.0190 1.0200 1.0206 1.0212
865.000000 1.0218 1.0224 1.0228 1.0231 1.0234
860.000000 1.0237 1.0240 1.0245 1.0245 1.0245
855.000000 1.0244 1.0244 1.0244 1.0240 1.0235
850.000000 1.0230 1.0225 1.0221 1.0213 1.0206
845.000000 1.0193 1.0178 1.0160 1.0127 1.0100
840.000000 0.8808 0.8821 0.9191 0.9681 1.0062
835.000000 1.0100 1.0133 1.0154 1.0175 1.0197
830.000000 1.0218 1.0234 1.0241 1.0248 1.0255
825.000000 1.0262 1.0268 1.0275 1.0283 1.0290
820.000000 1.0297 1.0300 1.0303 1.0306 1.0308
815.000000 1.0311 1.0313 1.0316 1.0318 1.0321
810.000000 1.0325 1.0360 1.0336 1.0340 1.0345
805.000000 1.0350 1.0352 1.0354 1.0357 1.0359
800.000000 1.0361 1.0354 1.0345 1.0336 1.0324
795.000000 1.0310 1.0297 1.0284 1.0259 1.0231
790.000000 1.0191 1.0091 0.9925 0.9763 0.9611
785.000000 0.9591 0.9658 0.9775 0.9892 1.0009
780.000000 1.0125 1.0210 1.0261 1.0287 1.0305
775.000000 1.0314 1.0323 1.0332 1.0340 1.0345
770.000000 1.0350 1.0354 1.0358 1.0362 1.0366
765.000000 1.0370 1.0374 1.0378 1.0382 1.0386
760.000000 1.0388 1.0390 1.0392 1.0394 1.0397
755.000000 1.0399 1.0402 1.0404 1.0406 1.0409
750.000000 1.0411 1.0414 1.0415 1.0416 1.0416
745.000000 1.0417 1.0453 1.0418 1.0418 1.0418
740.000000 1.0417 1.0415 1.0413 1.0412 1.0410
735.000000 1.0406 1.0401 1.0396 1.0391 1.0386
730.000000 1.0381 1.0375 1.0371 1.0366 1.0356
725.000000 1.0346 1.0335 1.0325 1.0316 1.0308
720.000000 1.0302 1.0317 1.0348 1.0378 1.0408
715.000000 1.0433 1.0458 1.0482 1.0506 1.0530
710.000000 1.0550 1.0568 1.0585 1.0602 1.0618
705.000000 1.0637 1.0655 1.0674 1.0692 1.0711
700.000000 1.0725 1.0736 1.0747 1.0759 1.0770
695.000000 1.0780 1.0789 1.0798 1.0807 1.0815
690.000000 1.0820 1.0824 1.0828 1.0831 1.0835
685.000000 1.0837 1.0838 1.0839 1.0839 1.0840
680.000000 1.0840 1.0841 1.0841 1.0840 1.0840
675.000000 1.0838 1.0835 1.0833 1.0830 1.0828
670.000000 1.0823 1.0818 1.0814 1.0814 1.0814
665.000000 1.0816 1.0816 1.0810 1.0586 1.0310
660.000000 1.0232 1.0323 1.0456 1.0589 1.0708
655.000000 1.0715 1.0721 1.0728 1.0739 1.0749
650.000000 1.0749 1.0750 1.0747 1.0731 1.0715
645.000000 1.0702 1.0689 1.0677 1.0665 1.0652
640.000000 1.0640 1.0627 1.0616 1.0605 1.0595
635.000000 1.0585 1.0574 1.0565 1.0558 1.0551
630.000000 1.0544 1.0537 1.0530 1.0524 1.0517
625.000000 1.0510 1.0503 1.0496 1.0490 1.0485
620.000000 1.0478 1.0474 1.0468 1.0462 1.0457
615.000000 1.0448 1.0437 1.0420 1.0391 1.0336
610.000000 1.0153 0.9464 0.8775 0.8087 0.7398
605.000000 0.7383 0.7675 0.8128 0.8581 0.9033
600.000000 0.9486 0.9913 0.9997 1.0054 1.0098
595.000000 1.0132 1.0157 1.0183 1.0202 1.0225
590.000000 1.0221 1.0220 1.0220 1.0209 1.0197
585.000000 1.0170 1.0143 1.0023 0.9898 0.9601
580.000000 0.9216 0.8832 0.8414 0.8402 0.8406
575.000000 0.8459 0.8633 0.8945 0.9311 0.9677
570.000000 0.9802 0.9881 0.9949 0.9997 1.0043
565.000000 1.0068 1.0095 1.0113 1.0130 1.0173
560.000000 1.0150 1.0150 1.0150 1.0143 1.0121
555.000000 1.0077 1.0008 0.9838 0.9635 0.9432
550.000000 0.9230 0.9027 0.8850 0.8821 0.8815
545.000000 0.8823 0.8898 0.9087 0.9314 0.9485
540.000000 0.9613 0.9720 0.9817 0.9881 0.9939
535.000000 0.9983 1.0017 1.0051 1.0082 1.0104
530.000000 1.0125 1.0147 1.0168 1.0178 1.0189
525.000000 1.0199 1.0209 1.0218 1.0228 1.0236
520.000000 1.0239 1.0242 1.0245 1.0248 1.0211
515.000000 1.0255 1.0258 1.0260 1.0260 1.0259
510.000000 1.0259 1.0258 1.0256 1.0254 1.0252
505.000000 1.0249 1.0238 1.0225 1.0213 1.0182
500.000000 1.0109 0.9604 0.9004 0.8468 0.8467
495.000000 0.8565 0.8687 0.8808 0.8850 0.8715
490.000000 0.8477 0.8239 0.8051 0.8083 0.8235
485.000000 0.8568 0.8901 0.9234 0.9567 0.9812
480.000000 0.9882 0.9961 1.0042 1.0106 1.0140
475.000000 1.0164 1.0183 1.0195 1.0207 1.0216
470.000000 1.0216 1.0216 1.0232 1.0225 1.0220
465.000000 1.0211 1.0195 1.0178 1.0163 1.0146
460.000000 1.0136 1.0127 1.0118 1.0110 1.0102
455.000000 1.0095 1.0087 1.0080 1.0071 1.0066
450.000000 1.0059 1.0053 1.0047 1.0041 1.0035
445.000000 1.0028 1.0018 1.0006 0.9989 0.9967
440.000000 0.9907 0.9459 0.8954 0.8558 0.8494
435.000000 0.8528 0.8544 0.8613 0.8747 0.8943
430.000000 0.9168 0.9289 0.9342 0.9368 0.9382
425.000000 0.9385 0.9389 0.9388 0.9385 0.9382
420.000000 0.9378 0.9375 0.9371 0.9365 0.9330
415.000000 0.9352 0.9346 0.9339 0.9333 0.9325
410.000000 0.9318 0.9311 0.9303 0.9295 0.9287
405.000000 0.9278 0.9271 0.9263 0.9255 0.9247
400.000000 0.9239 0.9230 0.9221 0.9214 0.9206
395.000000 0.9197 0.9189 0.9181 0.9171 0.9162
390.000000 0.9151 0.9140 0.9128 0.9118 0.9108
385.000000 0.9094 0.9077 0.9059 0.9037 0.9009
380.000000 0.8978
##END=
