##TITLE=1,1'-ETHYLENE-BIS-PYRIDINIUM BROMIDE
$$ E.K. (W.L.)
##JCAMP-DX=4.24
##DATA TYPE=INFRARED SPECTRUM
##CLASS=COBLENTZ
##ORIGIN=WYANDOTTE CHEMICALS CORP., WYANDOTTE, MICHIGAN, USA
##OWNER=COBLENTZ SOCIETY
Collection (C) 2018 copyright by the U.S. Secretary of Commerce
on behalf of the United States of America. All rights reserved.
##DATE=1960
##MOLFORM=C12 H14 N2 Br2
##MP=290 C DECOMPOSES
##SOURCE REFERENCE=COBLENTZ NO. 435
##$NIST ID=B6000435
##$NIST SOURCE=COBLENTZ
##$NIST IMAGE=cob435
##SPECTROMETER/DATA SYSTEM=Not specified, most likely a prism, grating, or hybrid spectrometer.
##STATE=SOLID (MINERAL OIL MULL)
##SAMPLING PROCEDURE=TRANSMISSION
##RESOLUTION=4
##DATA PROCESSING=DIGITIZED BY NIST FROM HARD COPY
##XUNITS=MICROMETERS
##YUNITS=TRANSMITTANCE
##XFACTOR=1.000000
##YFACTOR=1
##DELTAX=000.006636
##FIRSTX=2.044
##LASTX=16.0055
##FIRSTY=0.842
##MAXX=16.0055
##MINX=2.044
##MAXY=0.989
##MINY=0.048
##NPOINTS=2105
##XYDATA=(X++(Y..Y))
2.044000 0.8420 0.8420 0.8440 0.8440 0.8460
2.077194 0.8460 0.8490 0.8490 0.8490 0.8490
2.111000 0.8470 0.8470 0.8470 0.8470 0.8490
2.144194 0.8510 0.8510 0.8510 0.8510 0.8510
2.177000 0.8510 0.8520 0.8520 0.8510 0.8470
2.210194 0.8470 0.8490 0.8490 0.8520 0.8520
2.244000 0.8540 0.8560 0.8560 0.8560 0.8540
2.277194 0.8490 0.8490 0.8470 0.8470 0.8490
2.310000 0.8520 0.8540 0.8540 0.8560 0.8570
2.343194 0.8570 0.8570 0.8570 0.8570 0.8570
2.376000 0.8560 0.8560 0.8540 0.8540 0.8570
2.409194 0.8570 0.8570 0.8560 0.8560 0.8560
2.443000 0.8540 0.8520 0.8510 0.8490 0.8470
2.476194 0.8470 0.8490 0.8520 0.8540 0.8560
2.509000 0.8590 0.8620 0.8620 0.8640 0.8660
2.542194 0.8670 0.8710 0.8740 0.8740 0.8740
2.575000 0.8760 0.8760 0.8770 0.8810 0.8840
2.608194 0.8870 0.8910 0.8940 0.8940 0.8960
2.642000 0.8960 0.8970 0.8990 0.9060 0.9110
2.675194 0.9140 0.9190 0.9230 0.9260 0.9290
2.708000 0.9310 0.9330 0.9340 0.9360 0.9380
2.741194 0.9380 0.9390 0.9410 0.9410 0.9410
2.774000 0.9430 0.9430 0.9430 0.9430 0.9430
2.807194 0.9430 0.9410 0.9410 0.9390 0.9390
2.841000 0.9360 0.9330 0.9310 0.9290 0.9280
2.874194 0.9240 0.9230 0.9230 0.9190 0.9160
2.907000 0.9140 0.9110 0.9080 0.9010 0.8960
2.940194 0.8920 0.8910 0.8910 0.8910 0.8890
2.973000 0.8910 0.8890 0.8890 0.8890 0.8890
3.006194 0.8890 0.8890 0.8890 0.8890 0.8890
3.040000 0.8910 0.8920 0.8970 0.9010 0.9040
3.073194 0.9060 0.9110 0.9240 0.9290 0.9340
3.106000 0.9390 0.9460 0.9490 0.9510 0.9540
3.139194 0.9580 0.9610 0.9630 0.9680 0.9730
3.173000 0.9760 0.9860 0.9890 0.9890 0.9860
3.206194 0.9660 0.9440 0.9160 0.8990 0.8920
3.239000 0.8910 0.8910 0.8910 0.8890 0.8790
3.272194 0.8560 0.8490 0.8460 0.8390 0.8160
3.305000 0.7550 0.6550 0.5780 0.5310 0.4840
3.338194 0.4030 0.3440 0.2840 0.2490 0.2220
3.372000 0.2020 0.1580 0.1380 0.1250 0.1130
3.405194 0.1100 0.1070 0.1070 0.1030 0.1030
3.438000 0.1030 0.1070 0.1120 0.1130 0.1180
3.471194 0.1230 0.1280 0.1330 0.1370 0.1400
3.504000 0.1400 0.1400 0.1400 0.1430 0.1600
3.537194 0.1680 0.1770 0.1830 0.1870 0.2090
3.571000 0.2350 0.2550 0.2650 0.2800 0.2850
3.604194 0.2940 0.3060 0.3140 0.3220 0.3240
3.637000 0.3310 0.3340 0.3360 0.3360 0.3370
3.670194 0.3370 0.3340 0.3290 0.3190 0.3070
3.703000 0.3010 0.3010 0.3060 0.3120 0.3170
3.736194 0.3240 0.3290 0.3360 0.3440 0.3540
3.770000 0.3560 0.3590 0.3620 0.3670 0.3720
3.803194 0.3760 0.3770 0.3770 0.3690 0.3690
3.836000 0.3690 0.3710 0.3760 0.3790 0.3820
3.869194 0.3840 0.3810 0.3810 0.3810 0.3810
3.902000 0.3810 0.3840 0.3890 0.3920 0.3940
3.935194 0.3940 0.3960 0.3970 0.3970 0.3990
3.969000 0.4010 0.4010 0.4010 0.4010 0.3990
4.002194 0.4010 0.4030 0.4060 0.4090 0.4110
4.035000 0.4130 0.4130 0.4160 0.4180 0.4190
4.068194 0.4210 0.4240 0.4260 0.4290 0.4330
4.102000 0.4360 0.4380 0.4380 0.4380 0.4390
4.135194 0.4390 0.4390 0.4390 0.4390 0.4390
4.168000 0.4390 0.4390 0.4390 0.4390 0.4390
4.201194 0.4390 0.4390 0.4390 0.4390 0.4390
4.234000 0.4390 0.4390 0.4380 0.4380 0.4360
4.267194 0.4340 0.4310 0.4310 0.4310 0.4310
4.301000 0.4310 0.4310 0.4310 0.4310 0.4330
4.334194 0.4360 0.4380 0.4390 0.4430 0.4460
4.367000 0.4490 0.4510 0.4540 0.4560 0.4630
4.400194 0.4680 0.4740 0.4790 0.4840 0.4860
4.433000 0.4880 0.4880 0.4890 0.4890 0.4890
4.466194 0.4890 0.4890 0.4910 0.4960 0.4980
4.500000 0.4980 0.5000 0.5000 0.5000 0.5000
4.533194 0.5010 0.5030 0.5030 0.5050 0.5050
4.566000 0.5060 0.5080 0.5080 0.5100 0.5100
4.599194 0.5110 0.5110 0.5110 0.5130 0.5110
4.632000 0.5130 0.5150 0.5160 0.5180 0.5200
4.665194 0.5210 0.5230 0.5250 0.5260 0.5260
4.699000 0.5280 0.5280 0.5280 0.5280 0.5280
4.732194 0.5280 0.5280 0.5280 0.5280 0.5280
4.765000 0.5310 0.5330 0.5350 0.5360 0.5360
4.798194 0.5380 0.5400 0.5450 0.5460 0.5500
4.831000 0.5510 0.5530 0.5550 0.5550 0.5560
4.864194 0.5560 0.5580 0.5580 0.5610 0.5630
4.898000 0.5630 0.5630 0.5650 0.5650 0.5630
4.931194 0.5630 0.5610 0.5600 0.5580 0.5560
4.964000 0.5530 0.5460 0.5350 0.5280 0.5250
4.997194 0.5250 0.5260 0.5260 0.5280 0.5280
5.031000 0.5260 0.5250 0.5250 0.5230 0.5210
5.064194 0.5250 0.5350 0.5380 0.5450 0.5500
5.097000 0.5530 0.5560 0.5580 0.5600 0.5600
5.130194 0.5550 0.5380 0.5230 0.5060 0.4890
5.163000 0.4630 0.4490 0.4480 0.4490 0.4680
5.196194 0.4740 0.4940 0.5080 0.5180 0.5300
5.230000 0.5350 0.5460 0.5550 0.5650 0.5710
5.263194 0.5760 0.5800 0.5810 0.5810 0.5760
5.296000 0.5750 0.5700 0.5580 0.5560 0.5560
5.329194 0.5580 0.5650 0.5680 0.5730 0.5750
5.362000 0.5730 0.5660 0.5600 0.5510 0.5450
5.395194 0.5360 0.5350 0.5380 0.5410 0.5410
5.429000 0.5430 0.5410 0.5400 0.5350 0.5330
5.462194 0.5330 0.5360 0.5550 0.5650 0.5780
5.495000 0.5850 0.5910 0.5950 0.6000 0.6030
5.528194 0.6080 0.6150 0.6220 0.6280 0.6320
5.561000 0.6330 0.6330 0.6350 0.6350 0.6350
5.594194 0.6350 0.6350 0.6380 0.6420 0.6430
5.628000 0.6450 0.6470 0.6500 0.6500 0.6520
5.661194 0.6530 0.6550 0.6600 0.6630 0.6670
5.694000 0.6680 0.6670 0.6620 0.6600 0.6530
5.727194 0.6500 0.6430 0.6380 0.6330 0.6320
5.760000 0.6320 0.6320 0.6350 0.6480 0.6620
5.793194 0.6770 0.6800 0.6780 0.6730 0.6650
5.827000 0.6670 0.6700 0.6730 0.6730 0.6750
5.860194 0.6730 0.6720 0.6700 0.6680 0.6670
5.893000 0.6770 0.6830 0.6830 0.6870 0.6950
5.926194 0.6980 0.6980 0.7000 0.7000 0.7000
5.960000 0.7050 0.7050 0.7000 0.6880 0.6770
5.993194 0.6620 0.6450 0.6280 0.6120 0.6070
6.026000 0.5960 0.5800 0.5630 0.5480 0.5400
6.059194 0.5360 0.5310 0.5110 0.4930 0.4730
6.092000 0.3940 0.2820 0.2400 0.2400 0.2450
6.125194 0.3270 0.3710 0.4190 0.4610 0.4960
6.159000 0.5610 0.5850 0.5960 0.6080 0.6150
6.192194 0.6220 0.6280 0.6370 0.6470 0.6530
6.225000 0.6570 0.6600 0.6620 0.6650 0.6670
6.258194 0.6650 0.6230 0.5630 0.5250 0.4610
6.291000 0.3970 0.3960 0.3990 0.4960 0.5860
6.324194 0.6170 0.6230 0.6270 0.6320 0.6350
6.358000 0.6370 0.6370 0.6280 0.6300 0.6400
6.391194 0.6450 0.6620 0.6750 0.6830 0.6880
6.424000 0.6920 0.6980 0.6970 0.6930 0.6930
6.457194 0.6950 0.6980 0.7050 0.7140 0.7240
6.490000 0.7350 0.7500 0.7590 0.7670 0.7740
6.523194 0.7790 0.7800 0.7820 0.7820 0.7840
6.557000 0.7850 0.7900 0.7970 0.7990 0.7990
6.590194 0.8010 0.8010 0.7850 0.7140 0.6500
6.623000 0.5200 0.4610 0.4010 0.3020 0.2300
6.656194 0.1770 0.1370 0.1020 0.0730 0.0600
6.689000 0.0500 0.0500 0.0480 0.0480 0.0510
6.722194 0.0680 0.0800 0.1080 0.1270 0.1380
6.756000 0.1500 0.1580 0.1680 0.1750 0.1780
6.789194 0.1820 0.1800 0.1770 0.1750 0.1730
6.822000 0.1730 0.1700 0.1720 0.1700 0.1700
6.855194 0.1630 0.1550 0.1500 0.1470 0.1420
6.889000 0.1370 0.1320 0.1320 0.1370 0.1580
6.922194 0.1700 0.1870 0.1900 0.1900 0.1880
6.955000 0.1830 0.1750 0.1700 0.1680 0.1830
6.988194 0.2000 0.2350 0.2800 0.3220 0.3590
7.021000 0.3920 0.4240 0.4530 0.4780 0.5250
7.054194 0.5450 0.5630 0.5800 0.5850 0.5950
7.088000 0.5980 0.6000 0.6030 0.6080 0.6130
7.121194 0.6180 0.6220 0.6220 0.6230 0.6230
7.154000 0.6230 0.6230 0.6250 0.6230 0.6220
7.187194 0.6080 0.5960 0.5700 0.5510 0.5280
7.220000 0.5150 0.5000 0.4690 0.4360 0.3990
7.253194 0.3640 0.3270 0.2920 0.2270 0.1980
7.287000 0.1980 0.1980 0.2090 0.2820 0.3320
7.320194 0.3660 0.3890 0.4060 0.4230 0.4410
7.353000 0.4580 0.4740 0.4940 0.5360 0.5580
7.386194 0.5660 0.5780 0.5950 0.6120 0.6280
7.419000 0.6430 0.6520 0.6530 0.6580 0.6600
7.452194 0.6620 0.6620 0.6630 0.6650 0.6650
7.486000 0.6620 0.6600 0.6600 0.6550 0.6480
7.519194 0.6480 0.6480 0.6480 0.6550 0.6550
7.552000 0.6500 0.6350 0.6070 0.5800 0.5460
7.585194 0.5210 0.4940 0.4180 0.3010 0.2670
7.618000 0.2150 0.2100 0.2120 0.2150 0.2640
7.651194 0.3110 0.3540 0.3970 0.4360 0.4710
7.685000 0.5000 0.5380 0.5560 0.5710 0.5910
7.718194 0.6080 0.6180 0.6270 0.6320 0.6380
7.751000 0.6470 0.6500 0.6530 0.6600 0.6650
7.784194 0.6680 0.6730 0.6770 0.6800 0.6850
7.818000 0.6900 0.6930 0.6980 0.7020 0.7020
7.851194 0.7020 0.7050 0.7050 0.7070 0.7120
7.884000 0.7120 0.7120 0.7100 0.7100 0.7100
7.917194 0.7100 0.7120 0.7190 0.7240 0.7270
7.950000 0.7290 0.7300 0.7300 0.7320 0.7340
7.983194 0.7370 0.7440 0.7490 0.7540 0.7570
8.017000 0.7620 0.7700 0.7750 0.7820 0.7850
8.050194 0.7850 0.7840 0.7840 0.7820 0.7820
8.083000 0.7720 0.7600 0.7450 0.7220 0.6870
8.116194 0.6350 0.5400 0.5080 0.4740 0.4030
8.149000 0.3460 0.3070 0.3020 0.3020 0.3060
8.182194 0.4390 0.5550 0.6000 0.6370 0.6650
8.216000 0.6880 0.7050 0.7240 0.7470 0.7620
8.249194 0.7670 0.7740 0.7800 0.7970 0.8070
8.282000 0.8120 0.8140 0.8140 0.8110 0.7970
8.315194 0.7640 0.7040 0.6070 0.5400 0.4730
8.348000 0.3520 0.2420 0.1430 0.1100 0.0860
8.381194 0.0800 0.0910 0.1250 0.1570 0.1930
8.415000 0.2440 0.2920 0.3390 0.3770 0.4130
8.448194 0.4430 0.4710 0.4960 0.5330 0.5450
8.481000 0.5510 0.5580 0.5650 0.5710 0.5750
8.514194 0.5760 0.5760 0.5760 0.5780 0.5780
8.547000 0.5780 0.5760 0.5730 0.5680 0.5600
8.580194 0.5500 0.5380 0.5250 0.5110 0.5050
8.614000 0.4980 0.4860 0.4740 0.4660 0.4610
8.647194 0.4580 0.4580 0.4610 0.4610 0.4590
8.680000 0.4530 0.4440 0.4330 0.4160 0.4130
8.713194 0.4140 0.4360 0.4530 0.4890 0.5460
8.747000 0.5680 0.5860 0.6030 0.6170 0.6270
8.780194 0.6370 0.6400 0.6500 0.6600 0.6670
8.813000 0.6730 0.6780 0.6820 0.6850 0.6870
8.846194 0.6900 0.6970 0.6970 0.6980 0.7000
8.879000 0.7000 0.7020 0.7040 0.7050 0.7090
8.912194 0.7120 0.7170 0.7200 0.7250 0.7290
8.946000 0.7320 0.7370 0.7420 0.7440 0.7450
8.979194 0.7450 0.7450 0.7470 0.7490 0.7500
9.012000 0.7540 0.7540 0.7550 0.7550 0.7550
9.045194 0.7550 0.7550 0.7540 0.7470 0.7400
9.078000 0.7290 0.7050 0.6630 0.6500 0.6200
9.111194 0.6030 0.5910 0.5880 0.5880 0.5980
9.145000 0.6220 0.6400 0.6580 0.6730 0.6870
9.178194 0.6970 0.7040 0.7090 0.7240 0.7340
9.211000 0.7400 0.7420 0.7440 0.7450 0.7470
9.244194 0.7490 0.7500 0.7500 0.7520 0.7520
9.277000 0.7520 0.7520 0.7520 0.7520 0.7500
9.310194 0.7490 0.7470 0.7450 0.7420 0.7390
9.344000 0.7320 0.7120 0.6900 0.6680 0.6300
9.377194 0.5950 0.5700 0.5680 0.5710 0.5830
9.410000 0.6000 0.6150 0.6400 0.6570 0.6720
9.443194 0.6830 0.6930 0.7000 0.7070 0.7100
9.476000 0.7140 0.7150 0.7190 0.7200 0.7240
9.509194 0.7250 0.7290 0.7270 0.7290 0.7300
9.543000 0.7300 0.7320 0.7350 0.7400 0.7440
9.576194 0.7500 0.7570 0.7640 0.7690 0.7750
9.609000 0.7820 0.7890 0.7920 0.7940 0.7950
9.642194 0.7970 0.7970 0.7990 0.7990 0.8010
9.676000 0.8010 0.8010 0.8020 0.8020 0.8020
9.709194 0.8020 0.8020 0.8020 0.8010 0.7970
9.742000 0.7890 0.7870 0.7840 0.7820 0.7790
9.775194 0.7750 0.7720 0.7670 0.7590 0.7520
9.808000 0.7440 0.7420 0.7440 0.7600 0.7650
9.841194 0.7720 0.7820 0.7940 0.8020 0.8020
9.875000 0.8040 0.8040 0.8120 0.8160 0.8210
9.908194 0.8220 0.8260 0.8290 0.8310 0.8320
9.941000 0.8360 0.8370 0.8390 0.8410 0.8420
9.974194 0.8420 0.8420 0.8440 0.8440 0.8420
10.007000 0.8410 0.8360 0.8260 0.7990 0.7740
10.040194 0.7540 0.7340 0.7150 0.7000 0.6970
10.074000 0.7000 0.7040 0.7170 0.7340 0.7540
10.107194 0.7650 0.7750 0.7900 0.7970 0.8020
10.140000 0.8040 0.8090 0.8140 0.8170 0.8190
10.173194 0.8210 0.8220 0.8240 0.8240 0.8240
10.206000 0.8240 0.8220 0.8220 0.8190 0.8140
10.239194 0.8060 0.8020 0.7970 0.7840 0.7740
10.273000 0.7670 0.7500 0.7450 0.7450 0.7470
10.306194 0.7570 0.7670 0.7750 0.7850 0.7940
10.339000 0.8010 0.8090 0.8140 0.8170 0.8290
10.372194 0.8360 0.8370 0.8370 0.8370 0.8390
10.405000 0.8410 0.8420 0.8470 0.8490 0.8510
10.438194 0.8520 0.8520 0.8520 0.8540 0.8540
10.472000 0.8540 0.8560 0.8590 0.8610 0.8610
10.505194 0.8610 0.8610 0.8610 0.8610 0.8590
10.538000 0.8590 0.8590 0.8590 0.8610 0.8620
10.571194 0.8640 0.8640 0.8660 0.8660 0.8670
10.605000 0.8690 0.8710 0.8710 0.8710 0.8710
10.638194 0.8720 0.8740 0.8740 0.8760 0.8770
10.671000 0.8770 0.8770 0.8740 0.8740 0.8740
10.704194 0.8740 0.8740 0.8740 0.8740 0.8740
10.737000 0.8760 0.8790 0.8810 0.8790 0.8810
10.770194 0.8810 0.8810 0.8810 0.8820 0.8840
10.804000 0.8860 0.8910 0.8910 0.8910 0.8920
10.837194 0.8910 0.8920 0.8920 0.8920 0.8920
10.870000 0.8940 0.8960 0.8970 0.8970 0.8990
10.903194 0.9010 0.9030 0.9040 0.9060 0.9110
10.936000 0.9130 0.9140 0.9180 0.9210 0.9230
10.969194 0.9240 0.9240 0.9260 0.9260 0.9280
11.003000 0.9280 0.9290 0.9290 0.9290 0.9310
11.036194 0.9310 0.9310 0.9330 0.9330 0.9330
11.069000 0.9340 0.9340 0.9340 0.9340 0.9340
11.102194 0.9340 0.9360 0.9340 0.9340 0.9340
11.135000 0.9340 0.9360 0.9360 0.9380 0.9380
11.168194 0.9380 0.9380 0.9380 0.9360 0.9360
11.202000 0.9340 0.9340 0.9340 0.9330 0.9290
11.235194 0.9230 0.9140 0.9080 0.9010 0.8920
11.268000 0.8840 0.8760 0.8690 0.8640 0.8610
11.301194 0.8590 0.8610 0.8620 0.8660 0.8710
11.334000 0.8760 0.8820 0.8870 0.8910 0.8910
11.367194 0.8940 0.8940 0.8990 0.9010 0.9030
11.401000 0.9030 0.9030 0.9040 0.9040 0.9040
11.434194 0.9040 0.9060 0.9060 0.9060 0.9060
11.467000 0.9060 0.9080 0.9080 0.9080 0.9090
11.500194 0.9090 0.9090 0.9110 0.9110 0.9110
11.534000 0.9110 0.9110 0.9110 0.9130 0.9110
11.567194 0.9110 0.9110 0.9130 0.9130 0.9140
11.600000 0.9160 0.9160 0.9160 0.9160 0.9180
11.633194 0.9180 0.9180 0.9180 0.9190 0.9190
11.666000 0.9210 0.9210 0.9210 0.9230 0.9240
11.699194 0.9260 0.9260 0.9260 0.9280 0.9280
11.733000 0.9280 0.9280 0.9280 0.9290 0.9310
11.766194 0.9310 0.9290 0.9280 0.9240 0.9230
11.799000 0.9210 0.9190 0.9180 0.9190 0.9210
11.832194 0.9240 0.9240 0.9230 0.9210 0.9190
11.865000 0.9190 0.9190 0.9190 0.9190 0.9210
11.898194 0.9230 0.9240 0.9240 0.9230 0.9210
11.932000 0.9190 0.9190 0.9190 0.9190 0.9190
11.965194 0.9180 0.9180 0.9180 0.9180 0.9190
11.998000 0.9230 0.9260 0.9280 0.9280 0.9280
12.031194 0.9280 0.9280 0.9260 0.9260 0.9240
12.064000 0.9240 0.9240 0.9240 0.9240 0.9260
12.097194 0.9260 0.9230 0.9230 0.9230 0.9240
12.131000 0.9260 0.9280 0.9280 0.9260 0.9280
12.164194 0.9280 0.9280 0.9280 0.9280 0.9280
12.197000 0.9290 0.9290 0.9280 0.9260 0.9260
12.230194 0.9260 0.9260 0.9240 0.9230 0.9230
12.263000 0.9240 0.9230 0.9240 0.9240 0.9240
12.296194 0.9240 0.9230 0.9230 0.9210 0.9190
12.330000 0.9180 0.9160 0.9140 0.9110 0.9090
12.363194 0.9060 0.9030 0.9010 0.8870 0.8660
12.396000 0.8410 0.8120 0.7850 0.7650 0.7500
12.429194 0.7470 0.7490 0.7540 0.7700 0.7940
12.463000 0.8070 0.8260 0.8310 0.8390 0.8420
12.496194 0.8470 0.8510 0.8520 0.8540 0.8560
12.529000 0.8570 0.8590 0.8590 0.8570 0.8560
12.562194 0.8520 0.8540 0.8510 0.8470 0.8440
12.595000 0.8360 0.8290 0.8240 0.8170 0.8140
12.628194 0.8110 0.8020 0.7970 0.7850 0.7720
12.662000 0.7570 0.7420 0.7250 0.7070 0.6900
12.695194 0.6730 0.6550 0.6320 0.6070 0.5910
12.728000 0.5530 0.5160 0.5010 0.4840 0.4530
12.761194 0.4230 0.3910 0.3590 0.3240 0.2850
12.794000 0.2540 0.2300 0.1980 0.1670 0.1620
12.827194 0.1430 0.1320 0.1250 0.1180 0.1120
12.861000 0.1020 0.0950 0.0910 0.0900 0.0860
12.894194 0.0830 0.0810 0.0810 0.0830 0.0860
12.927000 0.0930 0.1050 0.1220 0.1450 0.1650
12.960194 0.1830 0.2000 0.2200 0.2400 0.2670
12.993000 0.2990 0.3360 0.3790 0.4180 0.4530
13.026194 0.4880 0.5510 0.5810 0.6100 0.6370
13.060000 0.6620 0.6850 0.7070 0.7250 0.7370
13.093194 0.7500 0.7690 0.7820 0.7950 0.8070
13.126000 0.8190 0.8310 0.8410 0.8490 0.8560
13.159194 0.8610 0.8690 0.8760 0.8820 0.8870
13.192000 0.8940 0.8990 0.9030 0.9060 0.9080
13.225194 0.9140 0.9180 0.9230 0.9260 0.9310
13.259000 0.9340 0.9390 0.9410 0.9410 0.9410
13.292194 0.9390 0.9390 0.9410 0.9430 0.9460
13.325000 0.9480 0.9530 0.9560 0.9580 0.9580
13.358194 0.9610 0.9610 0.9630 0.9630 0.9640
13.392000 0.9660 0.9660 0.9660 0.9660 0.9660
13.425194 0.9660 0.9660 0.9660 0.9660 0.9640
13.458000 0.9630 0.9630 0.9630 0.9610 0.9590
13.491194 0.9590 0.9590 0.9590 0.9580 0.9580
13.524000 0.9560 0.9540 0.9510 0.9530 0.9510
13.557194 0.9460 0.9430 0.9430 0.9410 0.9410
13.591000 0.9410 0.9430 0.9410 0.9410 0.9410
13.624194 0.9430 0.9410 0.9410 0.9390 0.9390
13.657000 0.9380 0.9380 0.9360 0.9360 0.9360
13.690194 0.9340 0.9360 0.9360 0.9340 0.9330
13.723000 0.9310 0.9310 0.9310 0.9310 0.9310
13.756194 0.9310 0.9330 0.9360 0.9390 0.9390
13.790000 0.9340 0.9330 0.9310 0.9290 0.9290
13.823194 0.9280 0.9290 0.9280 0.9280 0.9230
13.856000 0.9210 0.9190 0.9180 0.9160 0.9160
13.889194 0.9140 0.9140 0.9130 0.9140 0.9140
13.922000 0.9140 0.9130 0.9130 0.9130 0.9130
13.955194 0.9160 0.9180 0.9190 0.9190 0.9190
13.989000 0.9190 0.9180 0.9180 0.9160 0.9140
14.022194 0.9160 0.9140 0.9130 0.9130 0.9110
14.055000 0.9090 0.9080 0.9060 0.9040 0.9040
14.088194 0.9010 0.8940 0.8870 0.8820 0.8810
14.121000 0.8790 0.8770 0.8720 0.8690 0.8640
14.154194 0.8590 0.8520 0.8460 0.8420 0.8390
14.188000 0.8340 0.8290 0.8220 0.8190 0.8160
14.221194 0.8140 0.8120 0.8110 0.8110 0.8110
14.254000 0.8040 0.8040 0.8020 0.8010 0.7970
14.287194 0.7900 0.7890 0.7870 0.7840 0.7820
14.321000 0.7820 0.7800 0.7800 0.7790 0.7790
14.354194 0.7790 0.7750 0.7720 0.7720 0.7700
14.387000 0.7690 0.7650 0.7570 0.7520 0.7450
14.420194 0.7390 0.7350 0.7290 0.7220 0.7140
14.453000 0.7050 0.6950 0.6870 0.6770 0.6670
14.486194 0.6570 0.6470 0.6330 0.6180 0.6050
14.520000 0.5950 0.5930 0.5760 0.5610 0.5450
14.553194 0.5300 0.5160 0.5080 0.5000 0.4840
14.586000 0.4660 0.4480 0.4280 0.4060 0.3790
14.619194 0.3570 0.3490 0.3260 0.3140 0.2990
14.652000 0.2840 0.2670 0.2520 0.2370 0.2220
14.685194 0.2070 0.1950 0.1850 0.1770 0.1720
14.719000 0.1670 0.1580 0.1520 0.1430 0.1380
14.752194 0.1350 0.1320 0.1230 0.1200 0.1170
14.785000 0.1130 0.1130 0.1120 0.1120 0.1130
14.818194 0.1130 0.1130 0.1150 0.1180 0.1220
14.851000 0.1270 0.1330 0.1420 0.1480 0.1570
14.884194 0.1670 0.1750 0.1850 0.1930 0.2090
14.918000 0.2220 0.2350 0.2500 0.2620 0.2750
14.951194 0.2890 0.3010 0.3120 0.3240 0.3360
14.984000 0.3470 0.3570 0.3670 0.3790 0.3870
15.017194 0.3970 0.4080 0.4160 0.4240 0.4330
15.050000 0.4410 0.4480 0.4610 0.4740 0.4860
15.083194 0.5000 0.5260 0.5430 0.5610 0.5810
15.117000 0.6050 0.6200 0.6330 0.6450 0.6550
15.150194 0.6650 0.6750 0.6830 0.6920 0.7020
15.183000 0.7120 0.7220 0.7320 0.7340 0.7400
15.216194 0.7470 0.7550 0.7640 0.7670 0.7700
15.250000 0.7740 0.7750 0.7840 0.7870 0.7900
15.283194 0.7920 0.7940 0.7950 0.7970 0.7990
15.316000 0.8010 0.8010 0.8020 0.8020 0.8040
15.349194 0.8040 0.8060 0.8060 0.8060 0.8060
15.382000 0.8060 0.8070 0.8070 0.8090 0.8090
15.415194 0.8070 0.8060 0.8040 0.8010 0.7950
15.449000 0.7920 0.7870 0.7820 0.7790 0.7750
15.482194 0.7720 0.7690 0.7650 0.7590 0.7540
15.515000 0.7470 0.7440 0.7390 0.7350 0.7320
15.548194 0.7290 0.7250 0.7220 0.7200 0.7190
15.581000 0.7190 0.7190 0.7200 0.7200 0.7200
15.614194 0.7220 0.7220 0.7240 0.7240 0.7270
15.648000 0.7270 0.7270 0.7270 0.7270 0.7290
15.681194 0.7290 0.7300 0.7300 0.7300 0.7290
15.714000 0.7290 0.7290 0.7290 0.7270 0.7250
15.747194 0.7240 0.7240 0.7220 0.7200 0.7170
15.780000 0.7140 0.7100 0.7070 0.7020 0.6950
15.813194 0.6880 0.6850 0.6820 0.6780 0.6770
15.847000 0.6750 0.6750 0.6720 0.6700 0.6650
15.880194 0.6620 0.6580 0.6550 0.6550 0.6530
15.913000 0.6530 0.6520 0.6480 0.6450 0.6430
15.946194 0.6420 0.6380 0.6330 0.6300 0.6300
15.979000 0.6280 0.6270 0.6250 0.6230 0.6250
##END=
