##TITLE=PHENANTHRENE-D10
##JCAMP-DX=4.24
##DATA TYPE=INFRARED SPECTRUM
##CLASS=COBLENTZ
##ORIGIN=CENTRE D'ETUDES NUCLEAIRES DE GRENOBLE
##OWNER=COBLENTZ SOCIETY
Collection (C) 2018 copyright by the U.S. Secretary of Commerce
on behalf of the United States of America. All rights reserved.
##DATE=Not specified, most likely prior to 1970
##MOLFORM=C14 D10
##SOURCE REFERENCE=COBLENTZ NO. 4259
##$NIST ID=B6004259
##$NIST SOURCE=COBLENTZ
##$NIST IMAGE=cob4259
##SPECTROMETER/DATA SYSTEM=Not specified, most likely a prism, grating, or hybrid spectrometer.
##STATE=SOLUTION (SATURATED IN HEPTANE)
##PATH LENGTH=0.05 CM
$$PURITY 91.6%
##SAMPLING PROCEDURE=TRANSMISSION
##RESOLUTION=4
##DATA PROCESSING=DIGITIZED BY NIST FROM HARD COPY
##XUNITS=MICROMETERS
##YUNITS=TRANSMITTANCE
##XFACTOR=1.000000
##YFACTOR=1
##DELTAX=000.011196
##FIRSTX=15.048
##LASTX=35.034
##FIRSTY=0.824
##MAXX=35.034
##MINX=15.048
##MAXY=0.926
##MINY=0.172
##NPOINTS=1786
##XYDATA=(X++(Y..Y))
15.048000 0.8240 0.8270 0.8290 0.8290 0.8290
15.104013 0.8290 0.8290 0.8250 0.8190 0.8190
15.160000 0.8090 0.8020 0.7950 0.7820 0.7600
15.216013 0.7210 0.6900 0.6660 0.6490 0.6260
15.272000 0.6030 0.5570 0.5120 0.4620 0.4530
15.328013 0.4170 0.3960 0.3850 0.3730 0.3680
15.384000 0.3630 0.3560 0.3550 0.3580 0.3880
15.440013 0.4130 0.4400 0.4690 0.4970 0.5240
15.496000 0.5440 0.5610 0.6030 0.6180 0.6510
15.552013 0.6910 0.6980 0.7100 0.7250 0.7400
15.608000 0.7580 0.7730 0.7880 0.7980 0.8020
15.664013 0.8090 0.8120 0.8200 0.8240 0.8290
15.720000 0.8320 0.8350 0.8370 0.8400 0.8450
15.776013 0.8450 0.8470 0.8470 0.8470 0.8450
15.832000 0.8440 0.8420 0.8400 0.8390 0.8370
15.888013 0.8350 0.8340 0.8320 0.8300 0.8290
15.944000 0.8270 0.8250 0.8220 0.8200 0.8170
16.000013 0.8120 0.8050 0.7970 0.7870 0.7730
16.056000 0.7600 0.7500 0.7420 0.7330 0.7250
16.112013 0.7160 0.7030 0.6880 0.6660 0.6540
16.168000 0.6360 0.6160 0.5990 0.5740 0.5290
16.224013 0.5100 0.4800 0.4330 0.4000 0.3730
16.280000 0.3530 0.3310 0.3060 0.2710 0.2390
16.336013 0.2240 0.2170 0.2090 0.2010 0.1970
16.392000 0.1950 0.1970 0.2010 0.2170 0.2320
16.448013 0.2460 0.2610 0.3130 0.3240 0.3510
16.504000 0.3910 0.4350 0.4600 0.4770 0.4870
16.560013 0.4990 0.5150 0.5240 0.5360 0.5420
16.616000 0.5460 0.5470 0.5490 0.5490 0.5470
16.672013 0.5460 0.5440 0.5390 0.5300 0.5290
16.728000 0.5270 0.5270 0.5270 0.5290 0.5320
16.784013 0.5340 0.5410 0.5620 0.5840 0.6030
16.840000 0.6210 0.6590 0.6800 0.6980 0.7060
16.896013 0.7210 0.7230 0.7310 0.7670 0.7770
16.952000 0.7830 0.7900 0.7970 0.8020 0.8070
17.008013 0.8100 0.8150 0.8190 0.8200 0.8220
17.064000 0.8220 0.8220 0.8200 0.8190 0.8170
17.120013 0.8150 0.8120 0.8090 0.8050 0.8020
17.176000 0.7980 0.7950 0.7930 0.7920 0.7920
17.232013 0.7930 0.7950 0.7970 0.7980 0.8000
17.288000 0.8020 0.8040 0.8050 0.8050 0.8050
17.344013 0.8050 0.8040 0.8040 0.8020 0.8000
17.400000 0.8000 0.7980 0.7970 0.7950 0.7920
17.456013 0.7900 0.7870 0.7850 0.7780 0.7700
17.511000 0.7650 0.7600 0.7550 0.7260 0.7080
17.567013 0.6980 0.6860 0.6750 0.6530 0.6430
17.623000 0.6310 0.6110 0.5920 0.5710 0.5460
17.679013 0.5170 0.4790 0.4550 0.3960 0.3800
17.735000 0.3610 0.3460 0.3230 0.3030 0.2620
17.791013 0.2360 0.2320 0.2060 0.1970 0.1920
17.847000 0.1740 0.1720 0.1720 0.1740 0.1890
17.903013 0.1970 0.2090 0.2220 0.2520 0.2740
17.959000 0.2860 0.2980 0.3110 0.3360 0.3560
18.015013 0.4130 0.4650 0.4950 0.5200 0.5420
18.071000 0.5620 0.5810 0.6030 0.6260 0.6590
18.127013 0.6730 0.6880 0.7000 0.7130 0.7260
18.183000 0.7480 0.7630 0.7750 0.7850 0.7930
18.239013 0.8000 0.8050 0.8100 0.8150 0.8190
18.295000 0.8240 0.8290 0.8340 0.8390 0.8420
18.351013 0.8440 0.8490 0.8500 0.8540 0.8570
18.407000 0.8590 0.8600 0.8620 0.8640 0.8650
18.463013 0.8670 0.8690 0.8710 0.8720 0.8720
18.519000 0.8740 0.8760 0.8760 0.8770 0.8790
18.575013 0.8810 0.8810 0.8820 0.8840 0.8840
18.631000 0.8860 0.8860 0.8860 0.8860 0.8840
18.687013 0.8820 0.8810 0.8790 0.8770 0.8760
18.743000 0.8740 0.8720 0.8710 0.8710 0.8690
18.799013 0.8690 0.8670 0.8670 0.8670 0.8670
18.855000 0.8690 0.8690 0.8690 0.8690 0.8710
18.911013 0.8710 0.8740 0.8760 0.8760 0.8770
18.967000 0.8770 0.8790 0.8810 0.8820 0.8820
19.023013 0.8840 0.8840 0.8860 0.8860 0.8870
19.079000 0.8890 0.8890 0.8910 0.8910 0.8920
19.135013 0.8940 0.8940 0.8940 0.8960 0.8960
19.191000 0.8960 0.8960 0.8970 0.8970 0.8970
19.247013 0.8990 0.8990 0.8990 0.8990 0.8990
19.303000 0.8990 0.8990 0.8990 0.8990 0.8990
19.359013 0.8990 0.8990 0.8990 0.8970 0.8970
19.415000 0.8970 0.8960 0.8960 0.8940 0.8940
19.471013 0.8920 0.8920 0.8920 0.8940 0.8940
19.527000 0.8960 0.8960 0.8960 0.8960 0.8960
19.583013 0.8940 0.8940 0.8940 0.8940 0.8960
19.639000 0.8960 0.8960 0.8960 0.8960 0.8960
19.695013 0.8970 0.8970 0.8970 0.8970 0.8970
19.751000 0.8970 0.8970 0.8970 0.8970 0.8970
19.807013 0.8970 0.8970 0.8990 0.8990 0.8990
19.863000 0.9010 0.9010 0.9010 0.9010 0.9010
19.919013 0.9010 0.9010 0.9010 0.9010 0.9010
19.975000 0.8990 0.8990 0.8990 0.8970 0.8970
20.031013 0.8970 0.8970 0.8970 0.8970 0.8970
20.087000 0.8970 0.8970 0.8970 0.8970 0.8990
20.143013 0.8990 0.8990 0.8990 0.8990 0.9010
20.199000 0.9010 0.9010 0.9020 0.9020 0.9040
20.255013 0.9040 0.9040 0.9040 0.9040 0.9040
20.311000 0.9060 0.9070 0.9070 0.9070 0.9070
20.367013 0.9090 0.9090 0.9090 0.9090 0.9090
20.423000 0.9090 0.9110 0.9110 0.9110 0.9110
20.479013 0.9110 0.9110 0.9110 0.9110 0.9110
20.534000 0.9110 0.9110 0.9110 0.9110 0.9110
20.590013 0.9110 0.9110 0.9110 0.9110 0.9110
20.646000 0.9110 0.9110 0.9110 0.9110 0.9110
20.702013 0.9110 0.9110 0.9110 0.9110 0.9110
20.758000 0.9090 0.9090 0.9090 0.9090 0.9090
20.814013 0.9090 0.9090 0.9070 0.9070 0.9070
20.870000 0.9070 0.9070 0.9060 0.9060 0.9060
20.926013 0.9060 0.9060 0.9040 0.9040 0.9040
20.982000 0.9040 0.9040 0.9020 0.9020 0.9020
21.038013 0.9010 0.9010 0.9010 0.9010 0.9010
21.094000 0.8990 0.8990 0.8990 0.8990 0.8970
21.150013 0.8970 0.8970 0.8970 0.8970 0.8970
21.206000 0.8970 0.8970 0.8970 0.8970 0.8970
21.262013 0.8970 0.8970 0.8970 0.8970 0.8970
21.318000 0.8970 0.8970 0.8970 0.8970 0.8970
21.374013 0.8970 0.8970 0.8970 0.8970 0.8970
21.430000 0.8970 0.8970 0.8970 0.8970 0.8970
21.486013 0.8970 0.8970 0.8970 0.8970 0.8970
21.542000 0.8970 0.8970 0.8970 0.8970 0.8970
21.598013 0.8970 0.8970 0.8970 0.8970 0.8970
21.654000 0.8970 0.8960 0.8960 0.8940 0.8940
21.710013 0.8920 0.8920 0.8890 0.8870 0.8860
21.766000 0.8860 0.8820 0.8790 0.8790 0.8770
21.822013 0.8740 0.8740 0.8720 0.8690 0.8650
21.878000 0.8640 0.8640 0.8620 0.8600 0.8600
21.934013 0.8600 0.8600 0.8620 0.8620 0.8640
21.990000 0.8640 0.8650 0.8650 0.8650 0.8670
22.046013 0.8670 0.8690 0.8690 0.8690 0.8690
22.102000 0.8710 0.8710 0.8710 0.8710 0.8710
22.158013 0.8710 0.8710 0.8710 0.8710 0.8710
22.214000 0.8690 0.8690 0.8690 0.8690 0.8670
22.270013 0.8670 0.8670 0.8670 0.8670 0.8670
22.326000 0.8650 0.8640 0.8620 0.8600 0.8590
22.382013 0.8550 0.8490 0.8440 0.8390 0.8370
22.438000 0.8350 0.8350 0.8340 0.8340 0.8320
22.494013 0.8190 0.8150 0.8140 0.8090 0.8040
22.550000 0.7970 0.7930 0.7920 0.7830 0.7800
22.606013 0.7770 0.7680 0.7570 0.7420 0.7280
22.662000 0.7180 0.7060 0.6980 0.6860 0.6710
22.718013 0.6560 0.6340 0.6280 0.6210 0.6130
22.774000 0.6130 0.6060 0.5970 0.5910 0.5860
22.830013 0.5810 0.5690 0.5620 0.5570 0.5540
22.886000 0.5520 0.5510 0.5490 0.5490 0.5490
22.942013 0.5510 0.5520 0.5540 0.5570 0.5670
22.998000 0.5740 0.5820 0.5910 0.6010 0.6090
23.054013 0.6160 0.6230 0.6260 0.6290 0.6710
23.110000 0.6850 0.6880 0.6900 0.6910 0.6980
23.166013 0.7150 0.7180 0.7230 0.7300 0.7400
23.222000 0.7480 0.7580 0.7650 0.7700 0.7700
23.278013 0.7730 0.7830 0.7930 0.7970 0.7980
23.334000 0.8020 0.8040 0.8220 0.8270 0.8290
23.390013 0.8300 0.8300 0.8350 0.8390 0.8400
23.445000 0.8470 0.8490 0.8500 0.8500 0.8520
23.501013 0.8540 0.8550 0.8570 0.8570 0.8570
23.557000 0.8590 0.8590 0.8620 0.8620 0.8640
23.613013 0.8670 0.8690 0.8690 0.8710 0.8710
23.669000 0.8710 0.8720 0.8720 0.8720 0.8740
23.725013 0.8740 0.8740 0.8740 0.8760 0.8760
23.781000 0.8770 0.8790 0.8790 0.8810 0.8810
23.837013 0.8810 0.8810 0.8820 0.8820 0.8820
23.893000 0.8820 0.8820 0.8820 0.8820 0.8810
23.949013 0.8810 0.8790 0.8790 0.8790 0.8790
24.005000 0.8790 0.8790 0.8770 0.8770 0.8770
24.061013 0.8760 0.8740 0.8690 0.8620 0.8590
24.117000 0.8550 0.8540 0.8540 0.8520 0.8500
24.173013 0.8450 0.8370 0.8290 0.8250 0.8220
24.229000 0.8190 0.8190 0.8150 0.8090 0.8040
24.285013 0.8000 0.7970 0.7700 0.7630 0.7630
24.341000 0.7620 0.7580 0.7570 0.7530 0.7380
24.397013 0.7350 0.7310 0.7300 0.7280 0.7280
24.453000 0.7300 0.7310 0.7330 0.7370 0.7430
24.509013 0.7500 0.7530 0.7580 0.7650 0.7700
24.565000 0.7750 0.7780 0.7780 0.7820 0.7880
24.621013 0.7950 0.8040 0.8120 0.8170 0.8200
24.677000 0.8240 0.8270 0.8300 0.8340 0.8390
24.733013 0.8440 0.8520 0.8550 0.8570 0.8570
24.789000 0.8590 0.8600 0.8600 0.8620 0.8620
24.845013 0.8620 0.8620 0.8620 0.8620 0.8620
24.901000 0.8620 0.8620 0.8620 0.8640 0.8640
24.957013 0.8640 0.8650 0.8650 0.8670 0.8670
25.013000 0.8690 0.8690 0.8710 0.8710 0.8710
25.069013 0.8690 0.8690 0.8690 0.8670 0.8650
25.125000 0.8600 0.8570 0.8570 0.8550 0.8550
25.181013 0.8550 0.8550 0.8570 0.8570 0.8590
25.237000 0.8590 0.8590 0.8570 0.8540 0.8540
25.293013 0.8500 0.8490 0.8350 0.8320 0.8300
25.349000 0.8290 0.8250 0.8220 0.8190 0.8170
25.405013 0.8150 0.8150 0.8140 0.8140 0.8120
25.461000 0.8100 0.8090 0.8070 0.8050 0.8040
25.517013 0.8000 0.8000 0.7980 0.7980 0.7970
25.573000 0.7970 0.7950 0.7950 0.7930 0.7930
25.629013 0.7930 0.7920 0.7920 0.7920 0.7900
25.685000 0.7900 0.7880 0.7870 0.7870 0.7850
25.741013 0.7830 0.7820 0.7820 0.7800 0.7780
25.797000 0.7780 0.7770 0.7750 0.7750 0.7720
25.853013 0.7720 0.7680 0.7670 0.7650 0.7650
25.909000 0.7630 0.7630 0.7620 0.7600 0.7550
25.965013 0.7520 0.7480 0.7450 0.7430 0.7380
26.021000 0.7280 0.7230 0.7210 0.7200 0.7180
26.077013 0.7060 0.6950 0.6880 0.6860 0.6830
26.133000 0.6540 0.6440 0.6410 0.6340 0.6310
26.189013 0.6280 0.6040 0.6010 0.5990 0.5670
26.245000 0.5590 0.5440 0.5390 0.5360 0.5340
26.301013 0.5040 0.4820 0.4650 0.4550 0.4520
26.357000 0.4500 0.4420 0.4100 0.3860 0.3780
26.413013 0.3660 0.3630 0.3580 0.3290 0.3080
26.468000 0.3060 0.3010 0.2910 0.2710 0.2640
26.524013 0.2490 0.2440 0.2340 0.2220 0.2190
26.580000 0.2140 0.2090 0.2060 0.2010 0.1970
26.636013 0.1950 0.1970 0.1990 0.2040 0.2060
26.692000 0.2090 0.2170 0.2240 0.2290 0.2370
26.748013 0.2440 0.2490 0.2520 0.2860 0.2910
26.804000 0.3030 0.3210 0.3400 0.3530 0.3600
26.860013 0.3750 0.3780 0.3960 0.4180 0.4280
26.916000 0.4380 0.4480 0.4650 0.4770 0.4790
26.972013 0.4820 0.5100 0.5150 0.5300 0.5440
27.028000 0.5620 0.5770 0.5810 0.5960 0.6240
27.084013 0.6410 0.6440 0.6630 0.6760 0.6800
27.140000 0.6800 0.6830 0.6900 0.7000 0.7030
27.196013 0.7100 0.7200 0.7230 0.7280 0.7350
27.252000 0.7530 0.7630 0.7670 0.7680 0.7700
27.308013 0.7750 0.7800 0.7900 0.7970 0.8000
27.364000 0.8000 0.8020 0.8040 0.8070 0.8090
27.420013 0.8100 0.8120 0.8140 0.8170 0.8190
27.476000 0.8200 0.8220 0.8250 0.8300 0.8320
27.532013 0.8320 0.8340 0.8350 0.8390 0.8440
27.588000 0.8490 0.8500 0.8520 0.8520 0.8540
27.644013 0.8540 0.8540 0.8550 0.8550 0.8550
27.700000 0.8550 0.8570 0.8570 0.8600 0.8620
27.756013 0.8640 0.8640 0.8650 0.8650 0.8670
27.812000 0.8670 0.8670 0.8690 0.8690 0.8690
27.868013 0.8710 0.8720 0.8740 0.8760 0.8790
27.924000 0.8790 0.8810 0.8810 0.8810 0.8820
27.980013 0.8820 0.8820 0.8820 0.8840 0.8840
28.036000 0.8840 0.8860 0.8860 0.8870 0.8870
28.092013 0.8870 0.8860 0.8860 0.8860 0.8840
28.148000 0.8840 0.8820 0.8820 0.8820 0.8820
28.204013 0.8840 0.8840 0.8840 0.8860 0.8860
28.260000 0.8870 0.8870 0.8870 0.8870 0.8870
28.316013 0.8870 0.8870 0.8890 0.8890 0.8890
28.372000 0.8890 0.8910 0.8910 0.8910 0.8910
28.428013 0.8910 0.8910 0.8890 0.8890 0.8870
28.484000 0.8860 0.8840 0.8820 0.8820 0.8820
28.540013 0.8840 0.8840 0.8870 0.8890 0.8910
28.596000 0.8910 0.8920 0.8920 0.8940 0.8960
28.652013 0.8960 0.8960 0.8960 0.8960 0.8960
28.708000 0.8970 0.8970 0.8970 0.8970 0.8970
28.764013 0.8970 0.8970 0.8970 0.8970 0.8970
28.820000 0.8970 0.8970 0.8970 0.8970 0.8970
28.876013 0.8970 0.8970 0.8970 0.8970 0.8970
28.932000 0.8970 0.8970 0.8970 0.8970 0.8970
28.988013 0.8990 0.8990 0.8990 0.8990 0.8990
29.044000 0.8990 0.9010 0.9010 0.9010 0.9010
29.100013 0.9020 0.9020 0.9040 0.9040 0.9040
29.156000 0.9040 0.9040 0.9040 0.9040 0.9040
29.212013 0.9040 0.9060 0.9060 0.9060 0.9060
29.268000 0.9070 0.9070 0.9070 0.9070 0.9070
29.324013 0.9070 0.9070 0.9070 0.9070 0.9060
29.379000 0.9060 0.9060 0.9060 0.9060 0.9060
29.435013 0.9060 0.9060 0.9040 0.9040 0.9040
29.491000 0.9040 0.9040 0.9040 0.9040 0.9040
29.547013 0.9040 0.9040 0.9040 0.9040 0.9040
29.603000 0.9040 0.9040 0.9040 0.9040 0.9040
29.659013 0.9040 0.9060 0.9060 0.9060 0.9060
29.715000 0.9070 0.9070 0.9070 0.9070 0.9090
29.771013 0.9090 0.9090 0.9090 0.9090 0.9090
29.827000 0.9090 0.9090 0.9070 0.9070 0.9070
29.883013 0.9060 0.9060 0.9060 0.9040 0.9040
29.939000 0.9040 0.9040 0.9040 0.9040 0.9060
29.995013 0.9060 0.9070 0.9070 0.9070 0.9090
30.051000 0.9090 0.9110 0.9120 0.9140 0.9160
30.107013 0.9160 0.9160 0.9170 0.9170 0.9170
30.163000 0.9170 0.9170 0.9170 0.9170 0.9160
30.219013 0.9140 0.9140 0.9120 0.9110 0.9110
30.275000 0.9110 0.9110 0.9110 0.9110 0.9090
30.331013 0.9090 0.9090 0.9090 0.9090 0.9090
30.387000 0.9110 0.9110 0.9120 0.9120 0.9120
30.443013 0.9120 0.9140 0.9140 0.9140 0.9140
30.499000 0.9160 0.9160 0.9140 0.9140 0.9120
30.555013 0.9120 0.9120 0.9120 0.9120 0.9120
30.611000 0.9120 0.9120 0.9120 0.9120 0.9120
30.667013 0.9120 0.9140 0.9140 0.9160 0.9160
30.723000 0.9140 0.9140 0.9140 0.9140 0.9160
30.779013 0.9160 0.9160 0.9160 0.9160 0.9170
30.835000 0.9170 0.9190 0.9190 0.9190 0.9190
30.891013 0.9190 0.9190 0.9170 0.9170 0.9170
30.947000 0.9170 0.9170 0.9160 0.9160 0.9160
31.003013 0.9160 0.9160 0.9160 0.9160 0.9160
31.059000 0.9160 0.9160 0.9160 0.9160 0.9170
31.115013 0.9170 0.9170 0.9170 0.9170 0.9170
31.171000 0.9170 0.9170 0.9170 0.9170 0.9170
31.227013 0.9170 0.9170 0.9170 0.9170 0.9190
31.283000 0.9190 0.9190 0.9190 0.9190 0.9190
31.339013 0.9190 0.9190 0.9190 0.9190 0.9190
31.395000 0.9190 0.9190 0.9190 0.9190 0.9190
31.451013 0.9190 0.9190 0.9190 0.9190 0.9190
31.507000 0.9190 0.9190 0.9190 0.9190 0.9160
31.563013 0.9160 0.9160 0.9140 0.9140 0.9140
31.619000 0.9140 0.9140 0.9160 0.9160 0.9160
31.675013 0.9170 0.9170 0.9170 0.9160 0.9160
31.731000 0.9170 0.9170 0.9190 0.9210 0.9210
31.787013 0.9210 0.9210 0.9190 0.9190 0.9170
31.843000 0.9140 0.9120 0.9120 0.9140 0.9140
31.899013 0.9160 0.9160 0.9170 0.9170 0.9170
31.955000 0.9170 0.9170 0.9170 0.9170 0.9160
32.011013 0.9160 0.9160 0.9160 0.9160 0.9160
32.067000 0.9170 0.9170 0.9190 0.9190 0.9210
32.123013 0.9210 0.9210 0.9210 0.9220 0.9220
32.179000 0.9220 0.9240 0.9240 0.9240 0.9240
32.235013 0.9260 0.9260 0.9260 0.9260 0.9240
32.291000 0.9220 0.9210 0.9190 0.9170 0.9160
32.347013 0.9140 0.9140 0.9140 0.9160 0.9160
32.402000 0.9190 0.9210 0.9210 0.9220 0.9220
32.458013 0.9240 0.9240 0.9240 0.9240 0.9260
32.514000 0.9240 0.9240 0.9220 0.9220 0.9220
32.570013 0.9210 0.9210 0.9190 0.9190 0.9190
32.626000 0.9170 0.9170 0.9170 0.9170 0.9170
32.682013 0.9170 0.9170 0.9160 0.9160 0.9160
32.738000 0.9140 0.9120 0.9120 0.9110 0.9110
32.794013 0.9110 0.9110 0.9120 0.9120 0.9120
32.850000 0.9110 0.9110 0.9120 0.9160 0.9170
32.906013 0.9190 0.9190 0.9190 0.9160 0.9140
32.962000 0.9140 0.9160 0.9170 0.9190 0.9210
33.018013 0.9210 0.9220 0.9220 0.9220 0.9220
33.074000 0.9220 0.9220 0.9220 0.9220 0.9220
33.130013 0.9210 0.9210 0.9190 0.9170 0.9160
33.186000 0.9160 0.9140 0.9140 0.9140 0.9160
33.242013 0.9190 0.9220 0.9220 0.9210 0.9190
33.298000 0.9170 0.9160 0.9140 0.9140 0.9140
33.354013 0.9140 0.9170 0.9170 0.9170 0.9170
33.410000 0.9160 0.9140 0.9120 0.9120 0.9120
33.466013 0.9140 0.9140 0.9160 0.9160 0.9170
33.522000 0.9170 0.9170 0.9170 0.9160 0.9160
33.578013 0.9160 0.9170 0.9190 0.9210 0.9220
33.634000 0.9240 0.9240 0.9210 0.9190 0.9170
33.690013 0.9120 0.9110 0.9120 0.9140 0.9160
33.746000 0.9190 0.9190 0.9210 0.9220 0.9240
33.802013 0.9260 0.9260 0.9260 0.9260 0.9260
33.858000 0.9260 0.9240 0.9240 0.9220 0.9220
33.914013 0.9220 0.9220 0.9220 0.9220 0.9210
33.970000 0.9210 0.9210 0.9210 0.9210 0.9210
34.026013 0.9210 0.9210 0.9210 0.9220 0.9220
34.082000 0.9240 0.9220 0.9210 0.9190 0.9190
34.138013 0.9170 0.9170 0.9170 0.9170 0.9190
34.194000 0.9190 0.9210 0.9220 0.9220 0.9210
34.250013 0.9210 0.9210 0.9210 0.9210 0.9210
34.306000 0.9190 0.9190 0.9170 0.9170 0.9170
34.362013 0.9160 0.9140 0.9160 0.9170 0.9190
34.418000 0.9190 0.9210 0.9220 0.9240 0.9240
34.474013 0.9220 0.9220 0.9210 0.9190 0.9210
34.530000 0.9220 0.9220 0.9190 0.9170 0.9160
34.586013 0.9140 0.9160 0.9190 0.9210 0.9210
34.642000 0.9170 0.9160 0.9140 0.9120 0.9120
34.698013 0.9160 0.9160 0.9140 0.9140 0.9140
34.754000 0.9140 0.9160 0.9110 0.9110 0.9110
34.810013 0.9110 0.9110 0.9110 0.9120 0.9120
34.866000 0.9120 0.9110 0.9110 0.9090 0.9070
34.922013 0.9070 0.9040 0.9040 0.9040 0.9060
34.978000 0.9060 0.9070 0.9090 0.9060 0.9060
35.034013 0.9070
##END=
