##TITLE=THIAMINE HYDROCHLORIDE
##JCAMP-DX=4.24
$$ By DXEDIT 1.05 (RS McDonald)
##DATA TYPE=INFRARED SPECTRUM
##CLASS=COBLENTZ III
##OWNER=COBLENTZ SOC.
Collection (C) 2018 copyright by the U.S. Secretary of Commerce
on behalf of the United States of America. All rights reserved.
##DATE=1961/08/18
##NAMES=3-(4-AMINO-2-METHYLPYRIMIDYL-5-METHYL)-4-METHYL-5,Beta-HYDROXYETHYL THIAZOLIUM CHLORIDE
##MOLFORM=C12 H18 Cl2 N4 O S
##MP=248 C DECOMP.
##SOURCE REFERENCE=COBLENTZ NO. 05158
##$NIST ID=B6005158
##$NIST SOURCE=COBLENTZ
##$NIST IMAGE=cob5158
##SPECTROMETER/DATA SYSTEM=PERKIN-ELMER 21 (GRATING)
##INSTRUMENT PARAMETERS=FILTER AT ABOUT 10 MICRONS
##STATE=SOLID (1 MG / 200 mg KBr DISC)
##SAMPLING PROCEDURE=TRANSMISSION
##RESOLUTION=2
##DATA PROCESSING=DIGITIZED BY COBLENTZ SOCIETY (BATCH I) FROM HARD COPY
##XUNITS=1/CM
##YUNITS=TRANSMITTANCE
##XLABEL=Wavenumbers (cm-1)
##YLABEL=Transmittance
##XFACTOR=1
##YFACTOR=1
##DELTAX=1
##FIRSTX=4000
##LASTX=655
##FIRSTY=0.5894
##MAXX=4000
##MINX=655
##MAXY=0.7997
##MINY=0.0349
##NPOINTS=3346
##XYDATA=(X++(Y..Y))
4000.000000 0.5894 0.5896 0.5898 0.5900 0.5902
3995.000000 0.5904 0.5906 0.5908 0.5910 0.5910
3990.000000 0.5912 0.5915 0.5917 0.5919 0.5921
3985.000000 0.5923 0.5925 0.5927 0.5929 0.5931
3980.000000 0.5933 0.5935 0.5937 0.5939 0.5941
3975.000000 0.5943 0.5945 0.5947 0.5949 0.5951
3970.000000 0.5953 0.5955 0.5957 0.5959 0.5960
3965.000000 0.5962 0.5965 0.5967 0.5969 0.5971
3960.000000 0.5973 0.5975 0.5977 0.5979 0.5981
3955.000000 0.5983 0.5985 0.5987 0.5989 0.5991
3950.000000 0.5993 0.5995 0.5997 0.5999 0.6001
3945.000000 0.6003 0.6005 0.6007 0.6009 0.6010
3940.000000 0.6012 0.6015 0.6017 0.6019 0.6020
3935.000000 0.6022 0.6024 0.6026 0.6027 0.6029
3930.000000 0.6031 0.6033 0.6035 0.6037 0.6039
3925.000000 0.6041 0.6043 0.6045 0.6047 0.6049
3920.000000 0.6051 0.6053 0.6054 0.6056 0.6058
3915.000000 0.6060 0.6062 0.6064 0.6066 0.6068
3910.000000 0.6070 0.6072 0.6073 0.6075 0.6077
3905.000000 0.6079 0.6081 0.6083 0.6085 0.6087
3900.000000 0.6089 0.6091 0.6093 0.6095 0.6097
3895.000000 0.6099 0.6101 0.6103 0.6105 0.6107
3890.000000 0.6109 0.6110 0.6112 0.6115 0.6117
3885.000000 0.6120 0.6122 0.6124 0.6126 0.6129
3880.000000 0.6132 0.6135 0.6138 0.6141 0.6143
3875.000000 0.6146 0.6149 0.6152 0.6155 0.6158
3870.000000 0.6160 0.6162 0.6166 0.6168 0.6171
3865.000000 0.6174 0.6176 0.6179 0.6181 0.6184
3860.000000 0.6187 0.6189 0.6192 0.6194 0.6196
3855.000000 0.6198 0.6200 0.6202 0.6204 0.6206
3850.000000 0.6208 0.6210 0.6212 0.6214 0.6216
3845.000000 0.6218 0.6220 0.6221 0.6223 0.6225
3840.000000 0.6227 0.6229 0.6231 0.6233 0.6235
3835.000000 0.6237 0.6239 0.6241 0.6243 0.6245
3830.000000 0.6247 0.6249 0.6250 0.6253 0.6255
3825.000000 0.6257 0.6259 0.6260 0.6262 0.6264
3820.000000 0.6266 0.6268 0.6269 0.6271 0.6273
3815.000000 0.6274 0.6275 0.6277 0.6278 0.6279
3810.000000 0.6281 0.6282 0.6284 0.6285 0.6286
3805.000000 0.6288 0.6289 0.6291 0.6292 0.6293
3800.000000 0.6295 0.6296 0.6298 0.6299 0.6301
3795.000000 0.6302 0.6304 0.6305 0.6307 0.6308
3790.000000 0.6310 0.6310 0.6312 0.6314 0.6315
3785.000000 0.6317 0.6318 0.6319 0.6321 0.6322
3780.000000 0.6324 0.6325 0.6326 0.6328 0.6329
3775.000000 0.6331 0.6333 0.6335 0.6337 0.6339
3770.000000 0.6342 0.6345 0.6348 0.6351 0.6354
3765.000000 0.6357 0.6360 0.6362 0.6366 0.6369
3760.000000 0.6372 0.6375 0.6378 0.6381 0.6384
3755.000000 0.6387 0.6390 0.6393 0.6396 0.6399
3750.000000 0.6401 0.6405 0.6408 0.6411 0.6414
3745.000000 0.6415 0.6418 0.6421 0.6425 0.6428
3740.000000 0.6431 0.6434 0.6437 0.6440 0.6444
3735.000000 0.6447 0.6451 0.6455 0.6458 0.6461
3730.000000 0.6465 0.6469 0.6474 0.6478 0.6482
3725.000000 0.6486 0.6490 0.6494 0.6498 0.6501
3720.000000 0.6505 0.6508 0.6512 0.6515 0.6519
3715.000000 0.6522 0.6525 0.6528 0.6532 0.6535
3710.000000 0.6537 0.6540 0.6543 0.6545 0.6548
3705.000000 0.6550 0.6553 0.6555 0.6558 0.6561
3700.000000 0.6564 0.6565 0.6568 0.6571 0.6574
3695.000000 0.6576 0.6578 0.6582 0.6585 0.6587
3690.000000 0.6590 0.6593 0.6596 0.6598 0.6601
3685.000000 0.6604 0.6607 0.6608 0.6611 0.6615
3680.000000 0.6617 0.6619 0.6622 0.6625 0.6628
3675.000000 0.6631 0.6633 0.6636 0.6639 0.6642
3670.000000 0.6644 0.6647 0.6649 0.6651 0.6654
3665.000000 0.6656 0.6658 0.6661 0.6662 0.6665
3660.000000 0.6667 0.6668 0.6671 0.6674 0.6675
3655.000000 0.6678 0.6681 0.6683 0.6686 0.6688
3650.000000 0.6691 0.6693 0.6695 0.6696 0.6698
3645.000000 0.6700 0.6701 0.6703 0.6705 0.6706
3640.000000 0.6708 0.6710 0.6711 0.6711 0.6712
3635.000000 0.6715 0.6715 0.6718 0.6718 0.6721
3630.000000 0.6721 0.6724 0.6725 0.6725 0.6726
3625.000000 0.6728 0.6728 0.6728 0.6728 0.6728
3620.000000 0.6728 0.6728 0.6728 0.6726 0.6725
3615.000000 0.6725 0.6725 0.6725 0.6724 0.6724
3610.000000 0.6722 0.6721 0.6721 0.6721 0.6718
3605.000000 0.6717 0.6715 0.6712 0.6711 0.6708
3600.000000 0.6706 0.6703 0.6701 0.6698 0.6695
3595.000000 0.6693 0.6690 0.6687 0.6685 0.6678
3590.000000 0.6671 0.6665 0.6658 0.6653 0.6645
3585.000000 0.6637 0.6628 0.6621 0.6612 0.6604
3580.000000 0.6594 0.6583 0.6572 0.6562 0.6549
3575.000000 0.6530 0.6511 0.6493 0.6475 0.6457
3570.000000 0.6438 0.6418 0.6401 0.6382 0.6362
3565.000000 0.6343 0.6323 0.6303 0.6282 0.6262
3560.000000 0.6242 0.6222 0.6202 0.6182 0.6160
3555.000000 0.6140 0.6118 0.6097 0.6075 0.6053
3550.000000 0.6031 0.6008 0.5985 0.5962 0.5939
3545.000000 0.5916 0.5893 0.5871 0.5848 0.5824
3540.000000 0.5797 0.5770 0.5743 0.5716 0.5689
3535.000000 0.5670 0.5650 0.5630 0.5610 0.5592
3530.000000 0.5578 0.5565 0.5552 0.5539 0.5525
3525.000000 0.5514 0.5502 0.5491 0.5480 0.5467
3520.000000 0.5447 0.5427 0.5406 0.5386 0.5362
3515.000000 0.5316 0.5271 0.5226 0.5181 0.5136
3510.000000 0.5090 0.5045 0.4999 0.4954 0.4908
3505.000000 0.4862 0.4818 0.4772 0.4727 0.4681
3500.000000 0.4636 0.4590 0.4545 0.4499 0.4454
3495.000000 0.4408 0.4362 0.4317 0.4271 0.4225
3490.000000 0.4179 0.4134 0.4088 0.4042 0.3996
3485.000000 0.3950 0.3904 0.3858 0.3810 0.3764
3480.000000 0.3718 0.3673 0.3627 0.3580 0.3534
3475.000000 0.3489 0.3443 0.3396 0.3350 0.3304
3470.000000 0.3258 0.3210 0.3165 0.3119 0.3072
3465.000000 0.3026 0.2979 0.2933 0.2902 0.2881
3460.000000 0.2861 0.2840 0.2819 0.2823 0.2832
3455.000000 0.2841 0.2851 0.2860 0.2879 0.2898
3450.000000 0.2917 0.2935 0.2955 0.2973 0.2992
3445.000000 0.3011 0.3030 0.3048 0.3067 0.3085
3440.000000 0.3105 0.3124 0.3140 0.3154 0.3169
3435.000000 0.3183 0.3196 0.3196 0.3195 0.3195
3430.000000 0.3194 0.3193 0.3193 0.3192 0.3192
3425.000000 0.3192 0.3165 0.3126 0.3085 0.3046
3420.000000 0.3007 0.2902 0.2797 0.2691 0.2584
3415.000000 0.2479 0.2372 0.2266 0.2160 0.2054
3410.000000 0.1998 0.1971 0.1943 0.1916 0.1889
3405.000000 0.1887 0.1887 0.1887 0.1896 0.1892
3400.000000 0.1904 0.1916 0.1927 0.1939 0.1979
3395.000000 0.2028 0.2077 0.2127 0.2176 0.2225
3390.000000 0.2275 0.2324 0.2373 0.2423 0.2472
3385.000000 0.2521 0.2571 0.2620 0.2670 0.2719
3380.000000 0.2769 0.2819 0.2868 0.2918 0.2967
3375.000000 0.3017 0.3067 0.3091 0.3110 0.3129
3370.000000 0.3149 0.3163 0.3165 0.3168 0.3170
3365.000000 0.3172 0.3173 0.3173 0.3173 0.3173
3360.000000 0.3174 0.3174 0.3174 0.3175 0.3175
3355.000000 0.3175 0.3175 0.3175 0.3175 0.3174
3350.000000 0.3174 0.3174 0.3173 0.3173 0.3172
3345.000000 0.3172 0.3171 0.3171 0.3170 0.3169
3340.000000 0.3168 0.3167 0.3166 0.3162 0.3158
3335.000000 0.3154 0.3149 0.3142 0.3130 0.3118
3330.000000 0.3105 0.3093 0.3069 0.3044 0.3020
3325.000000 0.2995 0.2955 0.2898 0.2841 0.2784
3320.000000 0.2727 0.2670 0.2613 0.2556 0.2499
3315.000000 0.2452 0.2411 0.2369 0.2327 0.2293
3310.000000 0.2282 0.2270 0.2259 0.2247 0.2234
3305.000000 0.2224 0.2212 0.2200 0.2189 0.2177
3300.000000 0.2165 0.2153 0.2141 0.2128 0.2115
3295.000000 0.2101 0.2088 0.2073 0.2057 0.2041
3290.000000 0.2026 0.2010 0.1994 0.1979 0.1963
3285.000000 0.1948 0.1934 0.1923 0.1910 0.1898
3280.000000 0.1885 0.1874 0.1862 0.1850 0.1837
3275.000000 0.1826 0.1814 0.1802 0.1791 0.1779
3270.000000 0.1767 0.1754 0.1743 0.1728 0.1714
3265.000000 0.1699 0.1684 0.1669 0.1652 0.1634
3260.000000 0.1619 0.1604 0.1592 0.1582 0.1570
3255.000000 0.1561 0.1556 0.1551 0.1546 0.1541
3250.000000 0.1540 0.1539 0.1538 0.1537 0.1536
3245.000000 0.1534 0.1533 0.1532 0.1540 0.1554
3240.000000 0.1569 0.1584 0.1604 0.1639 0.1672
3235.000000 0.1706 0.1740 0.1773 0.1807 0.1841
3230.000000 0.1875 0.1908 0.1942 0.1976 0.2010
3225.000000 0.2044 0.2077 0.2111 0.2145 0.2166
3220.000000 0.2180 0.2194 0.2208 0.2221 0.2232
3215.000000 0.2243 0.2254 0.2266 0.2277 0.2288
3210.000000 0.2299 0.2310 0.2321 0.2333 0.2344
3205.000000 0.2355 0.2366 0.2377 0.2389 0.2400
3200.000000 0.2411 0.2423 0.2434 0.2446 0.2457
3195.000000 0.2468 0.2480 0.2491 0.2502 0.2513
3190.000000 0.2525 0.2535 0.2547 0.2559 0.2570
3185.000000 0.2581 0.2593 0.2604 0.2615 0.2627
3180.000000 0.2638 0.2649 0.2661 0.2672 0.2684
3175.000000 0.2695 0.2707 0.2719 0.2730 0.2740
3170.000000 0.2751 0.2762 0.2766 0.2765 0.2765
3165.000000 0.2764 0.2763 0.2762 0.2761 0.2760
3160.000000 0.2759 0.2758 0.2758 0.2757 0.2755
3155.000000 0.2752 0.2749 0.2746 0.2742 0.2737
3150.000000 0.2732 0.2727 0.2704 0.2669 0.2634
3145.000000 0.2600 0.2565 0.2530 0.2495 0.2460
3140.000000 0.2425 0.2390 0.2355 0.2320 0.2284
3135.000000 0.2250 0.2215 0.2179 0.2144 0.2109
3130.000000 0.2074 0.2039 0.2003 0.1968 0.1933
3125.000000 0.1898 0.1862 0.1827 0.1791 0.1756
3120.000000 0.1722 0.1687 0.1654 0.1623 0.1608
3115.000000 0.1594 0.1579 0.1564 0.1549 0.1534
3110.000000 0.1519 0.1507 0.1499 0.1491 0.1483
3105.000000 0.1475 0.1468 0.1461 0.1453 0.1446
3100.000000 0.1441 0.1434 0.1428 0.1423 0.1418
3095.000000 0.1413 0.1408 0.1404 0.1399 0.1394
3090.000000 0.1390 0.1387 0.1384 0.1381 0.1378
3085.000000 0.1376 0.1373 0.1371 0.1368 0.1365
3080.000000 0.1363 0.1360 0.1358 0.1356 0.1354
3075.000000 0.1352 0.1351 0.1349 0.1348 0.1346
3070.000000 0.1345 0.1344 0.1342 0.1342 0.1342
3065.000000 0.1344 0.1344 0.1346 0.1350 0.1353
3060.000000 0.1356 0.1364 0.1372 0.1380 0.1389
3055.000000 0.1401 0.1413 0.1426 0.1439 0.1454
3050.000000 0.1469 0.1484 0.1500 0.1516 0.1532
3045.000000 0.1548 0.1570 0.1591 0.1613 0.1631
3040.000000 0.1643 0.1656 0.1668 0.1675 0.1679
3035.000000 0.1683 0.1686 0.1689 0.1691 0.1692
3030.000000 0.1694 0.1695 0.1698 0.1700 0.1701
3025.000000 0.1702 0.1703 0.1706 0.1690 0.1676
3020.000000 0.1662 0.1648 0.1634 0.1621 0.1607
3015.000000 0.1592 0.1579 0.1565 0.1551 0.1537
3010.000000 0.1523 0.1509 0.1495 0.1481 0.1467
3005.000000 0.1453 0.1439 0.1425 0.1411 0.1398
3000.000000 0.1392 0.1385 0.1335 0.1376 0.1376
2995.000000 0.1376 0.1376 0.1376 0.1376 0.1376
2990.000000 0.1383 0.1401 0.1419 0.1437 0.1480
2985.000000 0.1528 0.1576 0.1624 0.1671 0.1719
2980.000000 0.1767 0.1815 0.1863 0.1911 0.1963
2975.000000 0.2028 0.2093 0.2159 0.2193 0.2211
2970.000000 0.2229 0.2247 0.2265 0.2282 0.2300
2965.000000 0.2320 0.2341 0.2361 0.2382 0.2405
2960.000000 0.2427 0.2450 0.2476 0.2506 0.2534
2955.000000 0.2564 0.2599 0.2633 0.2668 0.2694
2950.000000 0.2716 0.2737 0.2757 0.2765 0.2774
2945.000000 0.2782 0.2785 0.2789 0.2791 0.2794
2940.000000 0.2795 0.2797 0.2798 0.2799 0.2800
2935.000000 0.2800 0.2800 0.2796 0.2792 0.2788
2930.000000 0.2784 0.2780 0.2776 0.2772 0.2768
2925.000000 0.2764 0.2761 0.2756 0.2752 0.2748
2920.000000 0.2744 0.2740 0.2735 0.2732 0.2728
2915.000000 0.2724 0.2720 0.2720 0.2721 0.2721
2910.000000 0.2725 0.2735 0.2746 0.2756 0.2793
2905.000000 0.2830 0.2867 0.2892 0.2909 0.2926
2900.000000 0.2943 0.2960 0.2977 0.2994 0.3011
2895.000000 0.3028 0.3044 0.3061 0.3078 0.3095
2890.000000 0.3111 0.3126 0.3140 0.3155 0.3163
2885.000000 0.3170 0.3177 0.3184 0.3190 0.3197
2880.000000 0.3203 0.3206 0.3209 0.3212 0.3216
2875.000000 0.3220 0.3223 0.3226 0.3230 0.3232
2870.000000 0.3236 0.3239 0.3241 0.3243 0.3245
2865.000000 0.3247 0.3248 0.3250 0.3250 0.3253
2860.000000 0.3254 0.3256 0.3257 0.3259 0.3259
2855.000000 0.3262 0.3249 0.3264 0.3264 0.3264
2850.000000 0.3266 0.3266 0.3266 0.3268 0.3268
2845.000000 0.3268 0.3268 0.3266 0.3262 0.3259
2840.000000 0.3255 0.3250 0.3245 0.3240 0.3234
2835.000000 0.3228 0.3220 0.3208 0.3196 0.3184
2830.000000 0.3173 0.3161 0.3149 0.3137 0.3125
2825.000000 0.3113 0.3101 0.3089 0.3077 0.3061
2820.000000 0.3044 0.3026 0.3007 0.2988 0.2969
2815.000000 0.2951 0.2932 0.2913 0.2893 0.2867
2810.000000 0.2841 0.2816 0.2769 0.2722 0.2675
2805.000000 0.2651 0.2632 0.2613 0.2598 0.2585
2800.000000 0.2574 0.2562 0.2550 0.2538 0.2525
2795.000000 0.2513 0.2501 0.2488 0.2474 0.2460
2790.000000 0.2446 0.2430 0.2413 0.2397 0.2382
2785.000000 0.2366 0.2350 0.2327 0.2304 0.2281
2780.000000 0.2238 0.2193 0.2149 0.2061 0.1961
2775.000000 0.1862 0.1816 0.1793 0.1771 0.1754
2770.000000 0.1740 0.1726 0.1714 0.1704 0.1694
2765.000000 0.1686 0.1681 0.1676 0.1670 0.1664
2760.000000 0.1658 0.1652 0.1646 0.1642 0.1636
2755.000000 0.1634 0.1629 0.1626 0.1623 0.1619
2750.000000 0.1615 0.1611 0.1606 0.1598 0.1581
2745.000000 0.1564 0.1546 0.1531 0.1514 0.1496
2740.000000 0.1480 0.1463 0.1446 0.1428 0.1411
2735.000000 0.1392 0.1373 0.1353 0.1333 0.1312
2730.000000 0.1290 0.1269 0.1246 0.1225 0.1205
2725.000000 0.1188 0.1172 0.1157 0.1146 0.1136
2720.000000 0.1127 0.1123 0.1119 0.1115 0.1111
2715.000000 0.1107 0.1103 0.1099 0.1091 0.1090
2710.000000 0.1090 0.1089 0.1089 0.1091 0.1092
2705.000000 0.1095 0.1096 0.1098 0.1101 0.1104
2700.000000 0.1107 0.1110 0.1114 0.1117 0.1120
2695.000000 0.1124 0.1127 0.1131 0.1134 0.1138
2690.000000 0.1141 0.1145 0.1148 0.1151 0.1154
2685.000000 0.1157 0.1160 0.1162 0.1164 0.1167
2680.000000 0.1169 0.1172 0.1174 0.1177 0.1179
2675.000000 0.1181 0.1183 0.1194 0.1208 0.1222
2670.000000 0.1241 0.1261 0.1280 0.1300 0.1320
2665.000000 0.1340 0.1360 0.1381 0.1402 0.1423
2660.000000 0.1444 0.1464 0.1485 0.1506 0.1527
2655.000000 0.1548 0.1569 0.1590 0.1611 0.1632
2650.000000 0.1654 0.1676 0.1698 0.1720 0.1742
2645.000000 0.1765 0.1786 0.1809 0.1831 0.1853
2640.000000 0.1876 0.1898 0.1919 0.1942 0.1965
2635.000000 0.1987 0.2014 0.2042 0.2071 0.2100
2630.000000 0.2129 0.2158 0.2203 0.2251 0.2299
2625.000000 0.2327 0.2356 0.2378 0.2384 0.2393
2620.000000 0.2401 0.2409 0.2417 0.2425 0.2432
2615.000000 0.2440 0.2448 0.2456 0.2465 0.2478
2610.000000 0.2490 0.2502 0.2514 0.2526 0.2538
2605.000000 0.2550 0.2563 0.2575 0.2588 0.2600
2600.000000 0.2612 0.2624 0.2638 0.2651 0.2664
2595.000000 0.2679 0.2693 0.2708 0.2722 0.2735
2590.000000 0.2750 0.2764 0.2778 0.2793 0.2807
2585.000000 0.2821 0.2835 0.2850 0.2865 0.2879
2580.000000 0.2893 0.2907 0.2922 0.2938 0.2957
2575.000000 0.2976 0.2996 0.3017 0.3038 0.3059
2570.000000 0.3079 0.3100 0.3121 0.3141 0.3162
2565.000000 0.3183 0.3204 0.3225 0.3246 0.3266
2560.000000 0.3289 0.3310 0.3334 0.3356 0.3379
2555.000000 0.3400 0.3424 0.3446 0.3468 0.3491
2550.000000 0.3514 0.3536 0.3559 0.3580 0.3604
2545.000000 0.3629 0.3655 0.3682 0.3716 0.3748
2540.000000 0.3780 0.3812 0.3845 0.3877 0.3909
2535.000000 0.3943 0.3975 0.4007 0.4030 0.4053
2530.000000 0.4075 0.4094 0.4114 0.4133 0.4152
2525.000000 0.4171 0.4191 0.4210 0.4230 0.4249
2520.000000 0.4269 0.4288 0.4308 0.4328 0.4347
2515.000000 0.4366 0.4386 0.4406 0.4425 0.4444
2510.000000 0.4462 0.4481 0.4500 0.4518 0.4537
2505.000000 0.4556 0.4574 0.4593 0.4610 0.4628
2500.000000 0.4645 0.4660 0.4677 0.4692 0.4706
2495.000000 0.4721 0.4735 0.4750 0.4764 0.4778
2490.000000 0.4792 0.4807 0.4821 0.4836 0.4850
2485.000000 0.4865 0.4886 0.4906 0.4927 0.4948
2480.000000 0.4970 0.4991 0.5012 0.5034 0.5056
2475.000000 0.5077 0.5099 0.5120 0.5140 0.5160
2470.000000 0.5177 0.5190 0.5203 0.5217 0.5230
2465.000000 0.5243 0.5256 0.5269 0.5282 0.5295
2460.000000 0.5308 0.5321 0.5334 0.5348 0.5360
2455.000000 0.5374 0.5387 0.5400 0.5412 0.5426
2450.000000 0.5432 0.5438 0.5444 0.5450 0.5456
2445.000000 0.5460 0.5467 0.5473 0.5479 0.5485
2440.000000 0.5490 0.5496 0.5502 0.5507 0.5512
2435.000000 0.5518 0.5523 0.5527 0.5531 0.5535
2430.000000 0.5540 0.5544 0.5548 0.5552 0.5557
2425.000000 0.5562 0.5567 0.5573 0.5578 0.5584
2420.000000 0.5590 0.5596 0.5601 0.5607 0.5612
2415.000000 0.5618 0.5624 0.5630 0.5636 0.5641
2410.000000 0.5655 0.5670 0.5685 0.5702 0.5718
2405.000000 0.5735 0.5752 0.5768 0.5785 0.5799
2400.000000 0.5812 0.5825 0.5835 0.5846 0.5856
2395.000000 0.5867 0.5877 0.5888 0.5898 0.5909
2390.000000 0.5919 0.5930 0.5941 0.5952 0.5962
2385.000000 0.5973 0.5983 0.5994 0.6004 0.6015
2380.000000 0.6024 0.6033 0.6042 0.6050 0.6058
2375.000000 0.6064 0.6069 0.6072 0.6074 0.6077
2370.000000 0.6080 0.6083 0.6086 0.6089 0.6091
2365.000000 0.6094 0.6097 0.6099 0.6102 0.6106
2360.000000 0.6108 0.6110 0.6114 0.6118 0.6122
2355.000000 0.6126 0.6130 0.6134 0.6138 0.6142
2350.000000 0.6145 0.6149 0.6153 0.6157 0.6160
2345.000000 0.6165 0.6169 0.6174 0.6178 0.6182
2340.000000 0.6186 0.6189 0.6195 0.6202 0.6209
2335.000000 0.6217 0.6226 0.6233 0.6241 0.6249
2330.000000 0.6257 0.6267 0.6278 0.6288 0.6299
2325.000000 0.6310 0.6321 0.6332 0.6343 0.6354
2320.000000 0.6365 0.6376 0.6387 0.6398 0.6408
2315.000000 0.6419 0.6432 0.6443 0.6454 0.6465
2310.000000 0.6475 0.6487 0.6498 0.6508 0.6517
2305.000000 0.6524 0.6530 0.6537 0.6544 0.6550
2300.000000 0.6557 0.6564 0.6569 0.6576 0.6583
2295.000000 0.6590 0.6597 0.6603 0.6610 0.6617
2290.000000 0.6622 0.6630 0.6637 0.6643 0.6650
2285.000000 0.6657 0.6662 0.6669 0.6676 0.6684
2280.000000 0.6690 0.6697 0.6704 0.6711 0.6717
2275.000000 0.6722 0.6730 0.6737 0.6743 0.6750
2270.000000 0.6757 0.6764 0.6771 0.6776 0.6784
2265.000000 0.6791 0.6798 0.6804 0.6811 0.6817
2260.000000 0.6824 0.6831 0.6838 0.6845 0.6851
2255.000000 0.6858 0.6864 0.6871 0.6876 0.6884
2250.000000 0.6891 0.6897 0.6904 0.6910 0.6917
2245.000000 0.6924 0.6931 0.6937 0.6943 0.6950
2240.000000 0.6957 0.6962 0.6969 0.6976 0.6983
2235.000000 0.6988 0.6993 0.6998 0.7001 0.7007
2230.000000 0.7011 0.7015 0.7019 0.7025 0.7030
2225.000000 0.7035 0.7039 0.7044 0.7049 0.7053
2220.000000 0.7058 0.7061 0.7067 0.7071 0.7076
2215.000000 0.7082 0.7086 0.7091 0.7095 0.7100
2210.000000 0.7104 0.7108 0.7111 0.7111 0.7112
2205.000000 0.7115 0.7115 0.7118 0.7118 0.7121
2200.000000 0.7121 0.7122 0.7125 0.7125 0.7128
2195.000000 0.7128 0.7131 0.7132 0.7134 0.7135
2190.000000 0.7136 0.7138 0.7138 0.7139 0.7139
2185.000000 0.7140 0.7140 0.7140 0.7140 0.7141
2180.000000 0.7141 0.7142 0.7142 0.7143 0.7143
2175.000000 0.7143 0.7143 0.7144 0.7145 0.7145
2170.000000 0.7145 0.7145 0.7146 0.7146 0.7147
2165.000000 0.7147 0.7147 0.7147 0.7148 0.7148
2160.000000 0.7148 0.7148 0.7148 0.7149 0.7151
2155.000000 0.7155 0.7161 0.7168 0.7175 0.7181
2150.000000 0.7187 0.7192 0.7196 0.7199 0.7203
2145.000000 0.7207 0.7211 0.7215 0.7218 0.7221
2140.000000 0.7225 0.7228 0.7228 0.7228 0.7225
2135.000000 0.7225 0.7221 0.7219 0.7218 0.7217
2130.000000 0.7215 0.7214 0.7211 0.7210 0.7208
2125.000000 0.7206 0.7203 0.7199 0.7195 0.7191
2120.000000 0.7187 0.7182 0.7178 0.7172 0.7168
2115.000000 0.7164 0.7160 0.7155 0.7151 0.7147
2110.000000 0.7143 0.7139 0.7136 0.7133 0.7130
2105.000000 0.7126 0.7125 0.7121 0.7119 0.7117
2100.000000 0.7114 0.7111 0.7111 0.7111 0.7111
2095.000000 0.7111 0.7111 0.7112 0.7114 0.7125
2090.000000 0.7125 0.7125 0.7161 0.7172 0.7185
2085.000000 0.7197 0.7208 0.7219 0.7232 0.7243
2080.000000 0.7254 0.7265 0.7276 0.7288 0.7299
2075.000000 0.7311 0.7322 0.7334 0.7345 0.7356
2070.000000 0.7368 0.7378 0.7388 0.7395 0.7401
2065.000000 0.7408 0.7415 0.7422 0.7430 0.7437
2060.000000 0.7444 0.7451 0.7458 0.7465 0.7471
2055.000000 0.7475 0.7480 0.7484 0.7488 0.7492
2050.000000 0.7496 0.7499 0.7503 0.7507 0.7511
2045.000000 0.7514 0.7518 0.7521 0.7525 0.7530
2040.000000 0.7532 0.7534 0.7536 0.7537 0.7538
2035.000000 0.7540 0.7542 0.7544 0.7545 0.7547
2030.000000 0.7549 0.7550 0.7550 0.7551 0.7551
2025.000000 0.7551 0.7553 0.7553 0.7553 0.7554
2020.000000 0.7554 0.7555 0.7555 0.7556 0.7557
2015.000000 0.7557 0.7558 0.7558 0.7558 0.7558
2010.000000 0.7557 0.7556 0.7554 0.7553 0.7551
2005.000000 0.7551 0.7550 0.7548 0.7543 0.7538
2000.000000 0.7533 0.7526 0.7521 0.7515 0.7508
1995.000000 0.7500 0.7490 0.7481 0.7471 0.7460
1990.000000 0.7449 0.7438 0.7425 0.7414 0.7400
1985.000000 0.7385 0.7368 0.7351 0.7334 0.7318
1980.000000 0.7304 0.7291 0.7278 0.7264 0.7251
1975.000000 0.7238 0.7226 0.7218 0.7218 0.7218
1970.000000 0.7221 0.7221 0.7221 0.7224 0.7308
1965.000000 0.7383 0.7437 0.7464 0.7487 0.7510
1960.000000 0.7519 0.7525 0.7530 0.7535 0.7539
1955.000000 0.7545 0.7549 0.7554 0.7558 0.7561
1950.000000 0.7562 0.7562 0.7564 0.7565 0.7567
1945.000000 0.7568 0.7569 0.7571 0.7571 0.7572
1940.000000 0.7580 0.7588 0.7597 0.7606 0.7615
1935.000000 0.7622 0.7632 0.7642 0.7651 0.7664
1930.000000 0.7676 0.7690 0.7701 0.7714 0.7726
1925.000000 0.7742 0.7758 0.7776 0.7795 0.7805
1920.000000 0.7808 0.7808 0.7810 0.7811 0.7812
1915.000000 0.7814 0.7814 0.7814 0.7815 0.7815
1910.000000 0.7815 0.7815 0.7814 0.7808 0.7799
1905.000000 0.7790 0.7781 0.7771 0.7760 0.7750
1900.000000 0.7740 0.7730 0.7724 0.7724 0.7724
1895.000000 0.7725 0.7725 0.7719 0.7715 0.7710
1890.000000 0.7705 0.7700 0.7695 0.7689 0.7683
1885.000000 0.7683 0.7683 0.7696 0.7710 0.7725
1880.000000 0.7742 0.7757 0.7772 0.7789 0.7800
1875.000000 0.7811 0.7821 0.7832 0.7843 0.7854
1870.000000 0.7865 0.7875 0.7886 0.7897 0.7904
1865.000000 0.7910 0.7915 0.7919 0.7925 0.7930
1860.000000 0.7935 0.7939 0.7944 0.7949 0.7951
1855.000000 0.7954 0.7956 0.7958 0.7960 0.7961
1850.000000 0.7964 0.7965 0.7967 0.7968 0.7969
1845.000000 0.7971 0.7972 0.7974 0.7975 0.7976
1840.000000 0.7978 0.7980 0.7982 0.7983 0.7984
1835.000000 0.7985 0.7987 0.7988 0.7990 0.7991
1830.000000 0.7993 0.7993 0.7995 0.7996 0.7997
1825.000000 0.7997 0.7996 0.7988 0.7971 0.7957
1820.000000 0.7941 0.7925 0.7911 0.7895 0.7881
1815.000000 0.7867 0.7856 0.7855 0.7854 0.7853
1810.000000 0.7851 0.7850 0.7849 0.7847 0.7845
1805.000000 0.7840 0.7834 0.7826 0.7817 0.7801
1800.000000 0.7785 0.7767 0.7750 0.7732 0.7714
1795.000000 0.7688 0.7661 0.7635 0.7607 0.7536
1790.000000 0.7455 0.7371 0.7290 0.7207 0.7124
1785.000000 0.7041 0.6958 0.6882 0.6846 0.6840
1780.000000 0.6837 0.6821 0.6830 0.6828 0.6835
1775.000000 0.6860 0.6898 0.6936 0.6975 0.7014
1770.000000 0.7051 0.7090 0.7128 0.7168 0.7207
1765.000000 0.7245 0.7284 0.7321 0.7361 0.7400
1760.000000 0.7439 0.7476 0.7511 0.7545 0.7578
1755.000000 0.7610 0.7638 0.7660 0.7681 0.7703
1750.000000 0.7725 0.7743 0.7756 0.7768 0.7780
1745.000000 0.7792 0.7803 0.7811 0.7819 0.7828
1740.000000 0.7836 0.7844 0.7851 0.7858 0.7865
1735.000000 0.7871 0.7876 0.7882 0.7887 0.7891
1730.000000 0.7894 0.7894 0.7895 0.7897 0.7898
1725.000000 0.7898 0.7898 0.7888 0.7875 0.7900
1720.000000 0.7850 0.7835 0.7815 0.7783 0.7750
1715.000000 0.7717 0.7684 0.7646 0.7600 0.7545
1710.000000 0.7491 0.7437 0.7383 0.7331 0.7280
1705.000000 0.7228 0.7176 0.7125 0.7075 0.7025
1700.000000 0.6975 0.6926 0.6878 0.6828 0.6780
1695.000000 0.6724 0.6667 0.6608 0.6550 0.6474
1690.000000 0.6373 0.6231 0.5950 0.5660 0.5369
1685.000000 0.5078 0.4787 0.4495 0.4203 0.3909
1680.000000 0.3616 0.3324 0.3030 0.2735 0.2441
1675.000000 0.2147 0.1852 0.1556 0.1260 0.0964
1670.000000 0.0668 0.0507 0.0454 0.0429 0.0413
1665.000000 0.0399 0.0349 0.0380 0.0377 0.0373
1660.000000 0.0370 0.0381 0.0393 0.0405 0.0417
1655.000000 0.0438 0.0467 0.0502 0.0541 0.0588
1650.000000 0.0677 0.0876 0.1037 0.1196 0.1358
1645.000000 0.1519 0.1679 0.1841 0.2002 0.2164
1640.000000 0.2325 0.2487 0.2650 0.2812 0.2975
1635.000000 0.3138 0.3300 0.3462 0.3627 0.3790
1630.000000 0.3954 0.4117 0.4282 0.4423 0.4487
1625.000000 0.4496 0.4489 0.4504 0.4504 0.4504
1620.000000 0.4493 0.4382 0.3975 0.3566 0.3159
1615.000000 0.2750 0.2340 0.1931 0.1521 0.0962
1610.000000 0.0976 0.0958 0.0955 0.0970 0.0996
1605.000000 0.1098 0.1296 0.1533 0.1770 0.2007
1600.000000 0.2244 0.2481 0.2719 0.2957 0.3196
1595.000000 0.3434 0.3673 0.3912 0.4152 0.4392
1590.000000 0.4632 0.4866 0.5040 0.5112 0.5184
1585.000000 0.5250 0.5312 0.5378 0.5447 0.5510
1580.000000 0.5558 0.5604 0.5640 0.5650 0.5660
1575.000000 0.5666 0.5679 0.5659 0.5651 0.5630
1570.000000 0.5594 0.5551 0.5510 0.5475 0.5446
1565.000000 0.5427 0.5410 0.5395 0.5380 0.5367
1560.000000 0.5353 0.5317 0.5162 0.4940 0.4717
1555.000000 0.4493 0.4268 0.4044 0.3820 0.3595
1550.000000 0.3368 0.3145 0.2918 0.2816 0.2763
1545.000000 0.2737 0.2728 0.2740 0.2715 0.2715
1540.000000 0.2720 0.2760 0.2839 0.2916 0.2994
1535.000000 0.3073 0.3146 0.3188 0.3221 0.3241
1530.000000 0.3253 0.3264 0.3273 0.3277 0.3282
1525.000000 0.3286 0.3291 0.3295 0.3300 0.3306
1520.000000 0.3312 0.3318 0.3324 0.3330 0.3342
1515.000000 0.3354 0.3366 0.3384 0.3412 0.3442
1510.000000 0.3471 0.3500 0.3536 0.3577 0.3618
1505.000000 0.3659 0.3698 0.3734 0.3773 0.3812
1500.000000 0.3858 0.3906 0.3954 0.4004 0.4034
1495.000000 0.4046 0.4055 0.4062 0.4074 0.4084
1490.000000 0.4091 0.3960 0.3846 0.3732 0.3616
1485.000000 0.3503 0.3388 0.3274 0.3243 0.3214
1480.000000 0.3222 0.3304 0.3434 0.3566 0.3699
1475.000000 0.3830 0.3964 0.4096 0.4229 0.4362
1470.000000 0.4495 0.4567 0.4597 0.4621 0.4636
1465.000000 0.4651 0.4662 0.4670 0.4678 0.4701
1460.000000 0.4672 0.4560 0.4381 0.4202 0.4022
1455.000000 0.3842 0.3660 0.3480 0.3300 0.3119
1450.000000 0.2953 0.2916 0.2914 0.2927 0.2925
1445.000000 0.3007 0.3096 0.3185 0.3275 0.3364
1440.000000 0.3453 0.3542 0.3632 0.3695 0.3730
1435.000000 0.3752 0.3773 0.3795 0.3840 0.3912
1430.000000 0.3989 0.4064 0.4143 0.4219 0.4296
1425.000000 0.4373 0.4448 0.4486 0.4515 0.4555
1420.000000 0.4585 0.4610 0.4628 0.4648 0.4637
1415.000000 0.4639 0.4632 0.4602 0.4572 0.4541
1410.000000 0.4480 0.4362 0.4243 0.4122 0.4000
1405.000000 0.3880 0.3759 0.3638 0.3580 0.3580
1400.000000 0.3588 0.3604 0.3621 0.3637 0.3654
1395.000000 0.3650 0.3502 0.3339 0.3176 0.3013
1390.000000 0.2850 0.2685 0.2560 0.2525 0.2533
1385.000000 0.2695 0.2901 0.3108 0.3314 0.3523
1380.000000 0.3730 0.3938 0.4147 0.4355 0.4564
1375.000000 0.4690 0.4760 0.4803 0.4855 0.4832
1370.000000 0.4826 0.4637 0.4420 0.4203 0.3986
1365.000000 0.3768 0.3550 0.3332 0.3114 0.3042
1360.000000 0.3026 0.3046 0.3099 0.3176 0.3253
1355.000000 0.3332 0.3418 0.3505 0.3592 0.3680
1350.000000 0.3771 0.3893 0.3990 0.4022 0.4049
1345.000000 0.4075 0.4103 0.4129 0.4155 0.4185
1340.000000 0.4228 0.4274 0.4319 0.4365 0.4415
1335.000000 0.4474 0.4532 0.4591 0.4650 0.4710
1330.000000 0.4770 0.4830 0.4890 0.4950 0.5020
1325.000000 0.5093 0.5166 0.5259 0.5350 0.5416
1320.000000 0.5470 0.5488 0.5498 0.5507 0.5505
1315.000000 0.5495 0.5483 0.5472 0.5473 0.5474
1310.000000 0.5485 0.5524 0.5604 0.5696 0.5777
1305.000000 0.5850 0.5904 0.5945 0.5973 0.5996
1300.000000 0.6012 0.6030 0.6043 0.6043 0.6044
1295.000000 0.6031 0.6006 0.5977 0.5879 0.5723
1290.000000 0.5567 0.5410 0.5254 0.5141 0.5126
1285.000000 0.5127 0.5122 0.5225 0.5376 0.5527
1280.000000 0.5678 0.5829 0.5970 0.6042 0.6114
1275.000000 0.6186 0.6258 0.6328 0.6398 0.6468
1270.000000 0.6540 0.6611 0.6650 0.6684 0.6712
1265.000000 0.6737 0.6761 0.6784 0.6798 0.6788
1260.000000 0.6808 0.6804 0.6789 0.6775 0.6740
1255.000000 0.6599 0.6370 0.6240 0.6120 0.5882
1250.000000 0.5103 0.4187 0.4188 0.4188 0.4283
1245.000000 0.4558 0.4834 0.5110 0.5387 0.5523
1240.000000 0.5516 0.5428 0.5266 0.5017 0.5016
1235.000000 0.5024 0.5145 0.5288 0.5433 0.5578
1230.000000 0.5722 0.5852 0.5901 0.5884 0.5867
1225.000000 0.5603 0.5291 0.4979 0.4666 0.4042
1220.000000 0.4042 0.4043 0.4128 0.4395 0.4664
1215.000000 0.4933 0.5202 0.5472 0.5743 0.6010
1210.000000 0.6240 0.6376 0.6455 0.6533 0.6608
1205.000000 0.6682 0.6712 0.6733 0.6743 0.6743
1200.000000 0.6742 0.6757 0.6757 0.6750 0.6728
1195.000000 0.6693 0.6622 0.6550 0.6435 0.6260
1190.000000 0.6166 0.6158 0.6145 0.6223 0.6295
1185.000000 0.6356 0.6414 0.6454 0.6453 0.6453
1180.000000 0.6437 0.6421 0.6408 0.6408 0.6408
1175.000000 0.6448 0.6490 0.6533 0.6576 0.6621
1170.000000 0.6665 0.6708 0.6736 0.6762 0.6789
1165.000000 0.6815 0.6842 0.6868 0.6888 0.6906
1160.000000 0.6924 0.6942 0.6960 0.6978 0.6997
1155.000000 0.7015 0.7034 0.7053 0.7071 0.7089
1150.000000 0.7106 0.7122 0.7140 0.7150 0.7153
1145.000000 0.7164 0.7137 0.7130 0.7121 0.7117
1140.000000 0.7115 0.7115 0.7115 0.7114 0.7118
1135.000000 0.7121 0.7125 0.7125 0.7125 0.7124
1130.000000 0.7121 0.7119 0.7118 0.7106 0.7086
1125.000000 0.7065 0.7046 0.7037 0.7028 0.7019
1120.000000 0.7011 0.7005 0.6999 0.6994 0.6989
1115.000000 0.6984 0.6978 0.6972 0.6968 0.6965
1110.000000 0.6960 0.6956 0.6944 0.6925 0.6908
1105.000000 0.6890 0.6855 0.6811 0.6730 0.6608
1100.000000 0.6460 0.6349 0.6288 0.6224 0.6231
1095.000000 0.6236 0.6272 0.6326 0.6379 0.6432
1090.000000 0.6482 0.6531 0.6556 0.6591 0.6562
1085.000000 0.6564 0.6565 0.6528 0.6454 0.6376
1080.000000 0.6289 0.6187 0.6073 0.5877 0.5853
1075.000000 0.5856 0.5892 0.5920 0.5936 0.5936
1070.000000 0.5936 0.5903 0.5777 0.5612 0.5430
1065.000000 0.5324 0.5285 0.5272 0.5276 0.5308
1060.000000 0.5435 0.5546 0.5687 0.5754 0.5762
1055.000000 0.5720 0.5674 0.5565 0.5296 0.5025
1050.000000 0.4754 0.4482 0.4209 0.3937 0.3662
1045.000000 0.3394 0.3296 0.3300 0.3350 0.3570
1040.000000 0.3827 0.4086 0.4345 0.4604 0.4864
1035.000000 0.5124 0.5418 0.5529 0.5585 0.5632
1030.000000 0.5658 0.5680 0.5700 0.5722 0.5788
1025.000000 0.5903 0.6028 0.6177 0.6317 0.6437
1020.000000 0.6551 0.6646 0.6717 0.6754 0.6753
1015.000000 0.6778 0.6771 0.6740 0.6656 0.6528
1010.000000 0.6432 0.6405 0.6401 0.6390 0.6457
1005.000000 0.6519 0.6574 0.6614 0.6633 0.6648
1000.000000 0.6658 0.6667 0.6675 0.6690 0.6707
995.000000 0.6847 0.6964 0.6960 0.6956 0.6933
990.000000 0.6812 0.6601 0.6391 0.6257 0.6252
985.000000 0.6300 0.6610 0.6912 0.7039 0.7119
980.000000 0.7183 0.7240 0.7299 0.7356 0.7392
975.000000 0.7425 0.7460 0.7481 0.7499 0.7515
970.000000 0.7534 0.7551 0.7560 0.7574 0.7564
965.000000 0.7565 0.7558 0.7546 0.7535 0.7515
960.000000 0.7480 0.7437 0.7351 0.7241 0.7096
955.000000 0.6950 0.6803 0.6656 0.6508 0.6435
950.000000 0.6455 0.6589 0.6807 0.6968 0.7081
945.000000 0.7236 0.7218 0.7234 0.7241 0.7210
940.000000 0.6994 0.6645 0.6668 0.6750 0.6951
935.000000 0.7087 0.7167 0.7246 0.7326 0.7408
930.000000 0.7475 0.7501 0.7521 0.7578 0.7539
925.000000 0.7543 0.7525 0.7505 0.7474 0.7442
920.000000 0.7394 0.7325 0.7244 0.7164 0.7072
915.000000 0.6987 0.6899 0.6788 0.6698 0.6635
910.000000 0.6608 0.6621 0.6661 0.6672 0.6651
905.000000 0.6517 0.6334 0.6110 0.5906 0.5719
900.000000 0.5589 0.5542 0.5535 0.5621 0.5799
895.000000 0.5962 0.6082 0.6199 0.6309 0.6418
890.000000 0.6548 0.6683 0.6817 0.6925 0.7010
885.000000 0.7096 0.7183 0.7235 0.7278 0.7312
880.000000 0.7345 0.7375 0.7398 0.7421 0.7443
875.000000 0.7458 0.7461 0.7451 0.7415 0.7308
870.000000 0.7153 0.6911 0.6808 0.6801 0.6836
865.000000 0.6999 0.7111 0.7232 0.7362 0.7451
860.000000 0.7526 0.7588 0.7645 0.7676 0.7701
855.000000 0.7707 0.7707 0.7706 0.7700 0.7688
850.000000 0.7691 0.7700 0.7742 0.7721 0.7732
845.000000 0.7728 0.7703 0.7668 0.7619 0.7589
840.000000 0.7565 0.7515 0.7458 0.7348 0.7161
835.000000 0.7006 0.6565 0.6171 0.5775 0.5224
830.000000 0.5231 0.5232 0.5327 0.5484 0.5735
825.000000 0.6274 0.6605 0.6837 0.7001 0.7136
820.000000 0.7237 0.7246 0.7253 0.7206 0.7088
815.000000 0.6945 0.6730 0.6457 0.5880 0.5867
810.000000 0.5925 0.6203 0.6374 0.6525 0.6644
805.000000 0.6764 0.6884 0.6982 0.7065 0.7130
800.000000 0.7188 0.7222 0.7245 0.7267 0.7281
795.000000 0.7326 0.7301 0.7301 0.7294 0.7288
790.000000 0.7271 0.7255 0.7237 0.7208 0.7178
785.000000 0.7147 0.7104 0.7057 0.7005 0.6949
780.000000 0.6882 0.6754 0.6524 0.6277 0.5942
775.000000 0.5585 0.5229 0.4870 0.4606 0.4605
770.000000 0.4935 0.5295 0.5655 0.6016 0.6347
765.000000 0.6475 0.6555 0.6553 0.6549 0.6521
760.000000 0.6450 0.6355 0.6230 0.6055 0.5944
755.000000 0.5796 0.5612 0.5406 0.5199 0.4996
750.000000 0.5000 0.5147 0.5371 0.5596 0.5822
745.000000 0.5945 0.6041 0.6174 0.6272 0.6348
740.000000 0.6422 0.6483 0.6540 0.6581 0.6607
735.000000 0.6633 0.6657 0.6669 0.6678 0.6692
730.000000 0.6692 0.6691 0.6684 0.6671 0.6653
725.000000 0.6638 0.6636 0.6634 0.6622 0.6604
720.000000 0.6585 0.6565 0.6546 0.6524 0.6494
715.000000 0.6462 0.6421 0.6374 0.6303 0.6217
710.000000 0.6131 0.6027 0.5907 0.5755 0.5605
705.000000 0.5416 0.5223 0.5039 0.4855 0.4670
700.000000 0.4485 0.4243 0.4246 0.4274 0.4462
695.000000 0.4705 0.4928 0.5166 0.5404 0.5600
690.000000 0.5690 0.5698 0.5660 0.5540 0.5319
685.000000 0.5142 0.5003 0.4994 0.5056 0.5170
680.000000 0.5260 0.5353 0.5447 0.5542 0.5642
675.000000 0.5742 0.5842 0.5941 0.6040 0.6121
670.000000 0.6177 0.6175 0.6193 0.6259 0.6310
665.000000 0.6330 0.6345 0.6362 0.6360 0.6360
660.000000 0.6364 0.6368 0.6367 0.6366 0.6355
655.000000 0.6338
##END=
