##TITLE=PHENANTHRENE, 2-METHYL-D3-
##JCAMP-DX=4.24
##DATA TYPE=INFRARED SPECTRUM
##CLASS=COBLENTZ
##ORIGIN=CENTRE D'ETUDES NUCLEAIRES DE GRENOBLE
##OWNER=COBLENTZ SOCIETY
Collection (C) 2018 copyright by the U.S. Secretary of Commerce
on behalf of the United States of America. All rights reserved.
##DATE=Not specified, most likely prior to 1970
##NAMES=2-methylphenanthrene
##MOLFORM=C15 H9 D3
##SOURCE REFERENCE=COBLENTZ NO. 4257
##$NIST ID=B6004257
##$NIST SOURCE=COBLENTZ
##$NIST IMAGE=cob4257
##SPECTROMETER/DATA SYSTEM=Not specified, most likely a prism, grating, or hybrid spectrometer.
##STATE=SOLUTION (146 g/L IN HEPTANE)
##PATH LENGTH=0.05 CM
$$PURITY 95.2%
##SAMPLING PROCEDURE=TRANSMISSION
##RESOLUTION=4
##DATA PROCESSING=DIGITIZED BY NIST FROM HARD COPY
##XUNITS=MICROMETERS
##YUNITS=TRANSMITTANCE
##XFACTOR=1.000000
##YFACTOR=1
##DELTAX=000.011144
##FIRSTX=14.841
##LASTX=35.0333
##FIRSTY=0.649
##MAXX=35.0333
##MINX=14.841
##MAXY=1.055
##MINY=0
##NPOINTS=1813
##XYDATA=(X++(Y..Y))
14.841000 0.6490 0.6470 0.5740 0.5670 0.5380
14.896749 0.5030 0.4670 0.4460 0.4440 0.4210
14.952000 0.4170 0.4170 0.4210 0.4440 0.4710
15.007749 0.4960 0.5170 0.5360 0.5570 0.5760
15.064000 0.5950 0.6140 0.6370 0.6600 0.6870
15.119749 0.7160 0.7410 0.7560 0.7700 0.7790
15.175000 0.7930 0.8080 0.8140 0.8190 0.8290
15.230749 0.8390 0.8480 0.8520 0.8540 0.8560
15.287000 0.8630 0.8670 0.8690 0.8710 0.8730
15.342749 0.8790 0.8830 0.8850 0.8860 0.8880
15.398000 0.8900 0.8920 0.8940 0.8960 0.9000
15.453749 0.9000 0.9040 0.9060 0.9080 0.9110
15.510000 0.9130 0.9130 0.9130 0.9150 0.9150
15.565749 0.9170 0.9170 0.9170 0.9170 0.9170
15.621000 0.9170 0.9150 0.9150 0.9130 0.9130
15.676749 0.9130 0.9150 0.9170 0.9190 0.9230
15.733000 0.9230 0.9250 0.9250 0.9270 0.9270
15.788749 0.9290 0.9290 0.9290 0.9290 0.9290
15.844000 0.9290 0.9290 0.9290 0.9270 0.9270
15.899749 0.9270 0.9250 0.9250 0.9230 0.9230
15.955000 0.9230 0.9230 0.9230 0.9230 0.9210
16.010749 0.9230 0.9230 0.9230 0.9210 0.9210
16.067000 0.9190 0.9130 0.9130 0.9110 0.9080
16.122749 0.9040 0.9000 0.8940 0.8920 0.8900
16.178000 0.8860 0.8850 0.8810 0.8790 0.8770
16.233749 0.8770 0.8750 0.8750 0.8750 0.8750
16.290000 0.8750 0.8750 0.8750 0.8770 0.8770
16.345749 0.8790 0.8790 0.8810 0.8810 0.8810
16.401000 0.8810 0.8830 0.8830 0.8830 0.8850
16.456749 0.8850 0.8850 0.8830 0.8830 0.8830
16.513000 0.8850 0.8850 0.8860 0.8860 0.8880
16.568749 0.8880 0.8900 0.8900 0.8900 0.8880
16.624000 0.8880 0.8880 0.8860 0.8850 0.8830
16.679749 0.8810 0.8750 0.8710 0.8690 0.8650
16.735000 0.8500 0.8370 0.8270 0.8120 0.7870
16.790749 0.7870 0.7660 0.7370 0.7030 0.6760
16.847000 0.6600 0.6300 0.6050 0.5740 0.5680
16.902749 0.5510 0.5280 0.5220 0.5170 0.5130
16.958000 0.5110 0.5090 0.5090 0.5110 0.5130
17.013749 0.5240 0.5360 0.5570 0.5740 0.5990
17.070000 0.6280 0.6550 0.6780 0.6870 0.7330
17.125749 0.7370 0.7500 0.7620 0.7830 0.7930
17.181000 0.8060 0.8160 0.8330 0.8520 0.8560
17.236749 0.8710 0.8770 0.8810 0.8830 0.8860
17.293000 0.8920 0.8960 0.8980 0.9000 0.9020
17.348749 0.9060 0.9090 0.9110 0.9150 0.9170
17.404000 0.9210 0.9230 0.9250 0.9270 0.9290
17.459749 0.9290 0.9290 0.9290 0.9290 0.9270
17.516000 0.9270 0.9270 0.9270 0.9250 0.9230
17.571749 0.9210 0.9210 0.9170 0.9130 0.9080
17.627000 0.9020 0.8920 0.8830 0.8670 0.8540
17.682749 0.8440 0.8270 0.8180 0.8020 0.7960
17.738000 0.7790 0.7600 0.7410 0.7270 0.7200
17.793749 0.7100 0.7040 0.7010 0.6950 0.6930
17.850000 0.6950 0.6990 0.7040 0.7160 0.7270
17.905749 0.7370 0.7450 0.7540 0.7620 0.7700
17.961000 0.7750 0.7830 0.7870 0.7930 0.7960
18.016749 0.7980 0.8000 0.8000 0.8040 0.8060
18.073000 0.8080 0.8100 0.8120 0.8120 0.8160
18.128749 0.8180 0.8210 0.8230 0.8270 0.8310
18.184000 0.8350 0.8400 0.8460 0.8540 0.8630
18.239749 0.8730 0.8850 0.8960 0.9000 0.9040
18.296000 0.9110 0.9190 0.9290 0.9380 0.9420
18.351749 0.9440 0.9460 0.9480 0.9480 0.9500
18.407000 0.9520 0.9520 0.9520 0.9520 0.9520
18.462749 0.9520 0.9520 0.9500 0.9500 0.9500
18.518000 0.9500 0.9500 0.9500 0.9500 0.9480
18.573749 0.9480 0.9480 0.9480 0.9460 0.9460
18.630000 0.9460 0.9440 0.9440 0.9440 0.9440
18.685749 0.9420 0.9420 0.9420 0.9420 0.9420
18.741000 0.9420 0.9420 0.9420 0.9420 0.9420
18.796749 0.9420 0.9420 0.9420 0.9440 0.9440
18.853000 0.9440 0.9440 0.9440 0.9440 0.9440
18.908749 0.9440 0.9440 0.9460 0.9460 0.9460
18.964000 0.9460 0.9480 0.9480 0.9480 0.9480
19.019749 0.9500 0.9500 0.9520 0.9520 0.9520
19.076000 0.9520 0.9540 0.9540 0.9550 0.9550
19.131749 0.9570 0.9570 0.9570 0.9590 0.9590
19.187000 0.9610 0.9610 0.9630 0.9650 0.9650
19.242749 0.9650 0.9650 0.9630 0.9610 0.9610
19.299000 0.9590 0.9570 0.9540 0.9480 0.9440
19.354749 0.9440 0.9400 0.9380 0.9360 0.9320
19.410000 0.9320 0.9270 0.9230 0.9190 0.9150
19.465749 0.9090 0.9040 0.8980 0.8880 0.8750
19.521000 0.8580 0.8460 0.8310 0.8180 0.8020
19.576749 0.7870 0.7720 0.7540 0.7370 0.7290
19.633000 0.7180 0.7040 0.6930 0.6830 0.6780
19.688749 0.6740 0.6680 0.6660 0.6640 0.6660
19.744000 0.6680 0.6740 0.6810 0.6890 0.6930
19.799749 0.6990 0.7100 0.7140 0.7350 0.7490
19.856000 0.7540 0.7580 0.7640 0.7700 0.7730
19.911749 0.7750 0.7770 0.7770 0.7770 0.7750
19.967000 0.7730 0.7700 0.7620 0.7540 0.7470
20.022749 0.7410 0.7330 0.7260 0.7180 0.7120
20.079000 0.7100 0.7100 0.7120 0.7220 0.7260
20.134749 0.7310 0.7370 0.7470 0.7560 0.7680
20.190000 0.7790 0.7930 0.8040 0.8180 0.8290
20.245749 0.8390 0.8480 0.8540 0.8670 0.8790
20.301000 0.8940 0.9020 0.9080 0.9090 0.9130
20.356749 0.9190 0.9250 0.9380 0.9400 0.9440
20.413000 0.9460 0.9460 0.9500 0.9520 0.9550
20.468749 0.9570 0.9590 0.9610 0.9630 0.9650
20.524000 0.9650 0.9670 0.9670 0.9670 0.9670
20.579749 0.9690 0.9690 0.9690 0.9690 0.9710
20.636000 0.9710 0.9710 0.9710 0.9730 0.9730
20.691749 0.9730 0.9730 0.9730 0.9730 0.9730
20.747000 0.9730 0.9730 0.9730 0.9730 0.9730
20.802749 0.9730 0.9730 0.9730 0.9710 0.9710
20.859000 0.9710 0.9710 0.9690 0.9690 0.9690
20.914749 0.9690 0.9670 0.9670 0.9670 0.9650
20.970000 0.9650 0.9650 0.9630 0.9630 0.9630
21.025749 0.9610 0.9590 0.9590 0.9570 0.9570
21.082000 0.9550 0.9550 0.9540 0.9540 0.9520
21.137749 0.9520 0.9500 0.9480 0.9480 0.9480
21.193000 0.9460 0.9460 0.9440 0.9440 0.9440
21.248749 0.9420 0.9420 0.9420 0.9400 0.9400
21.304000 0.9380 0.9380 0.9360 0.9340 0.9340
21.359749 0.9320 0.9310 0.9310 0.9310 0.9290
21.416000 0.9290 0.9290 0.9270 0.9250 0.9230
21.471749 0.9230 0.9210 0.9190 0.9170 0.9150
21.527000 0.9130 0.9090 0.9060 0.9040 0.8980
21.582749 0.8940 0.8880 0.8850 0.8770 0.8710
21.639000 0.8630 0.8580 0.8480 0.8400 0.8310
21.694749 0.8210 0.8120 0.8000 0.7890 0.7770
21.750000 0.7580 0.7390 0.7160 0.6990 0.6830
21.805749 0.6590 0.6360 0.6140 0.5930 0.5760
21.862000 0.5570 0.5400 0.5220 0.5010 0.4900
21.917749 0.4780 0.4710 0.4670 0.4570 0.4540
21.973000 0.4500 0.4480 0.4460 0.4460 0.4480
22.028749 0.4610 0.4750 0.4880 0.4920 0.4940
22.084000 0.5130 0.5320 0.5490 0.5610 0.5820
22.139749 0.5950 0.6090 0.6240 0.6370 0.6510
22.196000 0.6640 0.6780 0.6910 0.7030 0.7140
22.251749 0.7220 0.7310 0.7410 0.7540 0.7660
22.307000 0.7700 0.7790 0.7810 0.7830 0.7870
22.362749 0.7890 0.7910 0.7930 0.7950 0.7960
22.419000 0.7960 0.7950 0.7930 0.7890 0.7850
22.474749 0.7830 0.7790 0.7770 0.7750 0.7700
22.530000 0.7600 0.7520 0.7490 0.7390 0.7310
22.585749 0.7290 0.7240 0.7220 0.7160 0.7100
22.642000 0.6970 0.6830 0.6700 0.6620 0.6620
22.697749 0.6490 0.6410 0.6030 0.5860 0.5760
22.753000 0.5700 0.5630 0.5510 0.5260 0.5190
22.808749 0.5050 0.4900 0.4730 0.4540 0.4320
22.865000 0.4080 0.3810 0.3540 0.3230 0.2910
22.920749 0.2790 0.2770 0.2620 0.2540 0.2430
22.976000 0.2260 0.2040 0.1830 0.1600 0.1370
23.031749 0.1160 0.0950 0.0800 0.0670 0.0590
23.087000 0.0570 0.0420 0.0400 0.0320 0.0280
23.142749 0.0220 0.0110 0.0070 0.0030 0.0000
23.199000 0.0000 0.0000 0.0000 0.0000 0.0000
23.254749 0.0010 0.0050 0.0110 0.0170 0.0220
23.310000 0.0300 0.0400 0.0490 0.0610 0.0720
23.365749 0.0840 0.0970 0.1110 0.1260 0.1390
23.422000 0.1550 0.1720 0.1870 0.2040 0.2220
23.477749 0.2350 0.2520 0.2700 0.2870 0.3060
23.533000 0.3230 0.3370 0.3460 0.3670 0.3810
23.588749 0.4060 0.4320 0.4400 0.4550 0.4690
23.645000 0.4940 0.5000 0.5150 0.5380 0.5610
23.700749 0.5800 0.5900 0.6110 0.6220 0.6390
23.756000 0.6590 0.6640 0.6700 0.6740 0.6780
23.811749 0.6890 0.6990 0.7060 0.7160 0.7240
23.867000 0.7310 0.7370 0.7430 0.7470 0.7520
23.922749 0.7580 0.7620 0.7680 0.7730 0.7770
23.979000 0.7850 0.7930 0.8000 0.8080 0.8180
24.034749 0.8290 0.8330 0.8370 0.8400 0.8460
24.090000 0.8500 0.8540 0.8560 0.8600 0.8630
24.145749 0.8690 0.8770 0.8830 0.8850 0.8860
24.202000 0.8900 0.8940 0.8980 0.9020 0.9040
24.257749 0.9060 0.9080 0.9090 0.9110 0.9130
24.313000 0.9150 0.9170 0.9190 0.9190 0.9210
24.368749 0.9230 0.9250 0.9270 0.9270 0.9290
24.425000 0.9310 0.9320 0.9340 0.9340 0.9360
24.480749 0.9380 0.9400 0.9420 0.9460 0.9480
24.536000 0.9480 0.9500 0.9500 0.9500 0.9500
24.591749 0.9500 0.9500 0.9520 0.9520 0.9520
24.648000 0.9540 0.9540 0.9540 0.9550 0.9570
24.703749 0.9570 0.9590 0.9610 0.9610 0.9610
24.759000 0.9610 0.9610 0.9630 0.9630 0.9670
24.814749 0.9670 0.9670 0.9690 0.9690 0.9690
24.870000 0.9690 0.9690 0.9690 0.9690 0.9690
24.925749 0.9670 0.9670 0.9650 0.9650 0.9650
24.982000 0.9650 0.9630 0.9630 0.9610 0.9610
25.037749 0.9610 0.9610 0.9630 0.9630 0.9650
25.093000 0.9650 0.9650 0.9650 0.9670 0.9670
25.148749 0.9670 0.9690 0.9690 0.9690 0.9690
25.205000 0.9710 0.9710 0.9710 0.9710 0.9710
25.260749 0.9710 0.9710 0.9710 0.9710 0.9710
25.316000 0.9710 0.9710 0.9710 0.9710 0.9710
25.371749 0.9710 0.9710 0.9710 0.9710 0.9690
25.428000 0.9690 0.9690 0.9690 0.9690 0.9690
25.483749 0.9690 0.9710 0.9730 0.9750 0.9750
25.539000 0.9770 0.9770 0.9800 0.9840 0.9860
25.594749 0.9880 0.9940 0.9940 0.9960 0.9960
25.650000 0.9960 0.9960 0.9940 0.9940 0.9940
25.705749 0.9920 0.9900 0.9880 0.9880 0.9860
25.762000 0.9860 0.9860 0.9880 0.9880 0.9880
25.817749 0.9880 0.9900 0.9900 0.9900 0.9900
25.873000 0.9920 0.9920 0.9920 0.9920 0.9920
25.928749 0.9920 0.9920 0.9900 0.9900 0.9900
25.985000 0.9900 0.9880 0.9860 0.9860 0.9800
26.040749 0.9750 0.9730 0.9690 0.9650 0.9590
26.096000 0.9570 0.9570 0.9550 0.9550 0.9540
26.151749 0.9540 0.9540 0.9520 0.9500 0.9500
26.208000 0.9500 0.9500 0.9500 0.9480 0.9480
26.263749 0.9460 0.9460 0.9440 0.9440 0.9440
26.319000 0.9440 0.9460 0.9460 0.9460 0.9480
26.374749 0.9480 0.9480 0.9500 0.9500 0.9500
26.430000 0.9500 0.9520 0.9520 0.9540 0.9540
26.485749 0.9550 0.9590 0.9630 0.9670 0.9690
26.542000 0.9690 0.9710 0.9710 0.9730 0.9730
26.597749 0.9750 0.9770 0.9770 0.9780 0.9780
26.653000 0.9800 0.9800 0.9840 0.9880 0.9940
26.708749 0.9960 0.9980 1.0000 1.0010 1.0010
26.765000 1.0030 1.0050 1.0050 1.0050 1.0050
26.820749 1.0050 1.0070 1.0070 1.0070 1.0070
26.876000 1.0070 1.0090 1.0090 1.0090 1.0090
26.931749 1.0090 1.0110 1.0150 1.0150 1.0150
26.988000 1.0170 1.0170 1.0170 1.0170 1.0190
27.043749 1.0190 1.0190 1.0210 1.0210 1.0210
27.099000 1.0210 1.0210 1.0210 1.0210 1.0210
27.154749 1.0210 1.0210 1.0210 1.0210 1.0220
27.211000 1.0220 1.0240 1.0240 1.0240 1.0260
27.266749 1.0260 1.0260 1.0280 1.0280 1.0280
27.322000 1.0300 1.0300 1.0300 1.0300 1.0300
27.377749 1.0300 1.0300 1.0300 1.0300 1.0300
27.433000 1.0300 1.0300 1.0280 1.0280 1.0280
27.488749 1.0280 1.0260 1.0260 1.0260 1.0260
27.545000 1.0260 1.0280 1.0280 1.0300 1.0300
27.600749 1.0320 1.0320 1.0320 1.0340 1.0340
27.656000 1.0340 1.0320 1.0320 1.0320 1.0320
27.711749 1.0320 1.0320 1.0320 1.0340 1.0340
27.768000 1.0320 1.0320 1.0340 1.0340 1.0360
27.823749 1.0360 1.0360 1.0360 1.0340 1.0320
27.879000 1.0300 1.0300 1.0320 1.0320 1.0340
27.934749 1.0340 1.0360 1.0360 1.0360 1.0360
27.991000 1.0360 1.0360 1.0380 1.0380 1.0380
28.046749 1.0360 1.0360 1.0360 1.0360 1.0360
28.102000 1.0360 1.0380 1.0400 1.0420 1.0440
28.157749 1.0490 1.0490 1.0510 1.0510 1.0510
28.213000 1.0510 1.0490 1.0490 1.0450 1.0400
28.268749 1.0360 1.0340 1.0340 1.0340 1.0360
28.325000 1.0360 1.0380 1.0400 1.0420 1.0420
28.380749 1.0440 1.0440 1.0440 1.0420 1.0420
28.436000 1.0420 1.0400 1.0400 1.0400 1.0400
28.491749 1.0420 1.0420 1.0440 1.0450 1.0450
28.548000 1.0450 1.0450 1.0450 1.0450 1.0440
28.603749 1.0420 1.0420 1.0420 1.0440 1.0450
28.659000 1.0490 1.0510 1.0530 1.0530 1.0530
28.714749 1.0530 1.0510 1.0510 1.0490 1.0470
28.771000 1.0450 1.0440 1.0440 1.0420 1.0420
28.826749 1.0420 1.0420 1.0420 1.0400 1.0400
28.882000 1.0400 1.0400 1.0380 1.0380 1.0380
28.937749 1.0380 1.0380 1.0380 1.0400 1.0400
28.994000 1.0420 1.0420 1.0420 1.0440 1.0440
29.049749 1.0440 1.0450 1.0450 1.0450 1.0450
29.105000 1.0450 1.0450 1.0450 1.0450 1.0450
29.160749 1.0450 1.0450 1.0450 1.0470 1.0470
29.216000 1.0470 1.0450 1.0450 1.0450 1.0450
29.271749 1.0440 1.0440 1.0440 1.0440 1.0440
29.328000 1.0440 1.0440 1.0420 1.0420 1.0420
29.383749 1.0420 1.0420 1.0420 1.0420 1.0440
29.439000 1.0440 1.0440 1.0440 1.0440 1.0440
29.494749 1.0440 1.0440 1.0440 1.0440 1.0440
29.551000 1.0440 1.0440 1.0450 1.0450 1.0450
29.606749 1.0450 1.0470 1.0470 1.0470 1.0490
29.662000 1.0490 1.0490 1.0490 1.0490 1.0490
29.717749 1.0470 1.0450 1.0440 1.0440 1.0440
29.774000 1.0440 1.0450 1.0450 1.0470 1.0490
29.829749 1.0510 1.0510 1.0510 1.0510 1.0510
29.885000 1.0510 1.0490 1.0490 1.0490 1.0490
29.940749 1.0470 1.0470 1.0470 1.0470 1.0470
29.996000 1.0470 1.0470 1.0470 1.0470 1.0450
30.051749 1.0450 1.0450 1.0450 1.0450 1.0450
30.108000 1.0450 1.0450 1.0450 1.0450 1.0450
30.163749 1.0450 1.0470 1.0470 1.0470 1.0470
30.219000 1.0470 1.0470 1.0470 1.0490 1.0490
30.274749 1.0510 1.0510 1.0530 1.0510 1.0530
30.331000 1.0530 1.0530 1.0550 1.0550 1.0530
30.386749 1.0530 1.0530 1.0510 1.0510 1.0510
30.442000 1.0490 1.0490 1.0490 1.0490 1.0490
30.497749 1.0490 1.0490 1.0490 1.0510 1.0510
30.554000 1.0510 1.0530 1.0530 1.0530 1.0530
30.609749 1.0530 1.0530 1.0530 1.0530 1.0530
30.665000 1.0530 1.0530 1.0530 1.0530 1.0530
30.720749 1.0530 1.0530 1.0530 1.0530 1.0530
30.777000 1.0530 1.0530 1.0530 1.0530 1.0530
30.832749 1.0530 1.0530 1.0530 1.0530 1.0530
30.888000 1.0530 1.0530 1.0530 1.0530 1.0530
30.943749 1.0550 1.0550 1.0550 1.0550 1.0550
30.999000 1.0550 1.0550 1.0550 1.0550 1.0550
31.054749 1.0550 1.0550 1.0550 1.0530 1.0530
31.111000 1.0510 1.0490 1.0470 1.0450 1.0440
31.166749 1.0440 1.0420 1.0420 1.0420 1.0420
31.222000 1.0420 1.0420 1.0440 1.0440 1.0440
31.277749 1.0440 1.0440 1.0440 1.0440 1.0440
31.334000 1.0440 1.0440 1.0440 1.0440 1.0440
31.389749 1.0420 1.0420 1.0420 1.0420 1.0400
31.445000 1.0400 1.0400 1.0400 1.0380 1.0400
31.500749 1.0400 1.0380 1.0380 1.0380 1.0360
31.557000 1.0360 1.0360 1.0360 1.0360 1.0360
31.612749 1.0360 1.0360 1.0360 1.0360 1.0360
31.668000 1.0360 1.0340 1.0340 1.0340 1.0340
31.723749 1.0340 1.0340 1.0340 1.0340 1.0360
31.779000 1.0360 1.0380 1.0380 1.0360 1.0360
31.834749 1.0300 1.0240 1.0220 1.0210 1.0210
31.891000 1.0220 1.0220 1.0240 1.0240 1.0240
31.946749 1.0260 1.0260 1.0260 1.0260 1.0260
32.002000 1.0240 1.0240 1.0220 1.0210 1.0190
32.057749 1.0170 1.0110 1.0070 1.0050 1.0030
32.114000 1.0030 1.0030 1.0030 1.0030 1.0010
32.169749 0.9980 0.9960 0.9960 0.9940 0.9920
32.225000 0.9900 0.9880 0.9880 0.9840 0.9840
32.280749 0.9820 0.9820 0.9800 0.9770 0.9750
32.337000 0.9750 0.9730 0.9730 0.9710 0.9710
32.392749 0.9690 0.9650 0.9610 0.9570 0.9550
32.448000 0.9540 0.9480 0.9420 0.9400 0.9380
32.503749 0.9360 0.9360 0.9340 0.9310 0.9290
32.560000 0.9250 0.9230 0.9210 0.9170 0.9130
32.615749 0.9090 0.9060 0.8980 0.8900 0.8880
32.671000 0.8880 0.8860 0.8850 0.8810 0.8770
32.726749 0.8710 0.8650 0.8600 0.8560 0.8560
32.782000 0.8540 0.8520 0.8500 0.8500 0.8480
32.837749 0.8460 0.8440 0.8420 0.8420 0.8420
32.894000 0.8400 0.8400 0.8400 0.8390 0.8390
32.949749 0.8370 0.8350 0.8350 0.8350 0.8370
33.005000 0.8370 0.8390 0.8390 0.8400 0.8400
33.060749 0.8420 0.8420 0.8420 0.8440 0.8440
33.117000 0.8440 0.8440 0.8460 0.8460 0.8460
33.172749 0.8480 0.8480 0.8500 0.8500 0.8540
33.228000 0.8630 0.8710 0.8770 0.8830 0.8880
33.283749 0.8900 0.8900 0.8940 0.8960 0.8960
33.340000 0.8980 0.8980 0.8980 0.9000 0.9000
33.395749 0.9020 0.9040 0.9080 0.9090 0.9110
33.451000 0.9130 0.9130 0.9170 0.9170 0.9210
33.506749 0.9270 0.9310 0.9360 0.9540 0.9550
33.562000 0.9570 0.9570 0.9550 0.9540 0.9540
33.617749 0.9540 0.9540 0.9540 0.9540 0.9550
33.674000 0.9550 0.9570 0.9570 0.9610 0.9630
33.729749 0.9650 0.9650 0.9670 0.9670 0.9690
33.785000 0.9690 0.9710 0.9730 0.9730 0.9750
33.840749 0.9770 0.9770 0.9780 0.9780 0.9800
33.897000 0.9800 0.9820 0.9820 0.9840 0.9840
33.952749 0.9840 0.9860 0.9860 0.9860 0.9860
34.008000 0.9860 0.9880 0.9880 0.9900 0.9900
34.063749 0.9920 0.9920 0.9940 0.9960 0.9980
34.120000 1.0000 1.0000 1.0000 1.0000 1.0010
34.175749 1.0010 1.0010 1.0030 1.0030 1.0030
34.231000 1.0030 1.0030 1.0030 1.0030 1.0030
34.286749 1.0030 1.0030 1.0030 1.0030 1.0030
34.343000 1.0030 1.0030 1.0030 1.0050 1.0050
34.398749 1.0050 1.0050 1.0050 1.0050 1.0050
34.454000 1.0050 1.0050 1.0050 1.0050 1.0050
34.509749 1.0070 1.0070 1.0070 1.0090 1.0090
34.565000 1.0090 1.0090 1.0090 1.0090 1.0090
34.620749 1.0110 1.0130 1.0130 1.0130 1.0150
34.677000 1.0150 1.0150 1.0130 1.0110 1.0110
34.732749 1.0090 1.0070 1.0070 1.0050 1.0050
34.788000 1.0050 1.0050 1.0030 1.0030 1.0010
34.843749 1.0010 1.0010 1.0010 1.0010 1.0010
34.900000 1.0010 1.0010 1.0000 0.9980 0.9980
34.955749 0.9960 0.9960 0.9940 0.9920 0.9920
35.011000 0.9900 0.9880 0.9860
##END=
