##TITLE=Ethomeen C/25 hydrochloride
##JCAMP-DX=4.24
##DATA TYPE=INFRARED SPECTRUM
##CLASS=COBLENTZ
##ORIGIN=BRITISH PETROLEUM CO. LTD., ENGLAND
##OWNER=Copyright (C) 1987 by the Coblentz Society
Collection (C) 2018 copyright by the U.S. Secretary of Commerce
on behalf of the United States of America. All rights reserved.
##DATE=1972/05/10
##MOLFORM=C42-44 H88-92 Cl N O15
##SOURCE REFERENCE=COBLENTZ NO. 9064
##$NIST ID=B6009064
##$NIST SOURCE=COBLENTZ
##$NIST IMAGE=cob9064
##SPECTROMETER/DATA SYSTEM=PERKIN-ELMER 157
##STATE=LIQUID (NEAT
$$ R - DERIVED FROM COCO-FATTY ACID SOURCE
$$ REF. Can. J. Spec., 18,4,101, '73 C. S. DOUSE and P. B. TOOKE
##SAMPLING PROCEDURE=TRANSMISSION
##RESOLUTION=2
##DATA PROCESSING=DIGITIZED BY COBLENTZ SOCIETY (BATCH II) FROM HARD COPY
##XUNITS=1/CM
##YUNITS=TRANSMITTANCE
##XFACTOR=1.0
##YFACTOR=1
##FIRSTX=668
##LASTX=4000
##FIRSTY=0.254
##MAXX=4000
##MINX=668
##MAXY=0.7736
##MINY=0
##NPOINTS=3333
##XYDATA=(X++(Y..Y))
668.000000 0.2540 0.2536 0.2539 0.2545 0.2554
673.000000 0.2568 0.2583 0.2598 0.2616 0.2632
678.000000 0.2650 0.2669 0.2696 0.2728 0.2768
683.000000 0.2827 0.2875 0.2910 0.2929 0.2931
688.000000 0.2932 0.2932 0.2931 0.2930 0.2929
693.000000 0.2928 0.2928 0.2931 0.2934 0.2956
698.000000 0.2979 0.2999 0.3020 0.3042 0.3075
703.000000 0.3077 0.3082 0.3069 0.3046 0.3009
708.000000 0.2982 0.2963 0.2956 0.2953 0.2934
713.000000 0.2914 0.2883 0.2847 0.2811 0.2777
718.000000 0.2742 0.2708 0.2673 0.2662 0.2656
723.000000 0.2688 0.2731 0.2777 0.2825 0.2881
728.000000 0.2942 0.3007 0.3070 0.3134 0.3195
733.000000 0.3245 0.3296 0.3334 0.3374 0.3410
738.000000 0.3443 0.3471 0.3498 0.3527 0.3558
743.000000 0.3594 0.3629 0.3663 0.3693 0.3722
748.000000 0.3753 0.3783 0.3815 0.3846 0.3884
753.000000 0.3917 0.3936 0.3956 0.3977 0.3998
758.000000 0.4023 0.4047 0.4071 0.4092 0.4112
763.000000 0.4133 0.4153 0.4169 0.4183 0.4194
768.000000 0.4199 0.4204 0.4208 0.4212 0.4217
773.000000 0.4217 0.4216 0.4215 0.4211 0.4207
778.000000 0.4201 0.4193 0.4185 0.4172 0.4158
783.000000 0.4141 0.4121 0.4101 0.4078 0.4035
788.000000 0.3990 0.3943 0.3896 0.3850 0.3803
793.000000 0.3757 0.3703 0.3649 0.3594 0.3540
798.000000 0.3486 0.3431 0.3378 0.3324 0.3270
803.000000 0.3216 0.3162 0.3107 0.3053 0.2993
808.000000 0.2919 0.2846 0.2788 0.2730 0.2675
813.000000 0.2637 0.2598 0.2560 0.2522 0.2482
818.000000 0.2427 0.2372 0.2318 0.2266 0.2216
823.000000 0.2164 0.2112 0.2062 0.2011 0.1961
828.000000 0.1907 0.1849 0.1792 0.1736 0.1685
833.000000 0.1633 0.1583 0.1545 0.1520 0.1507
838.000000 0.1503 0.1498 0.1495 0.1494 0.1499
843.000000 0.1494 0.1494 0.1495 0.1497 0.1511
848.000000 0.1529 0.1548 0.1569 0.1592 0.1619
853.000000 0.1647 0.1674 0.1707 0.1740 0.1773
858.000000 0.1798 0.1823 0.1844 0.1856 0.1860
863.000000 0.1857 0.1844 0.1834 0.1825 0.1814
868.000000 0.1804 0.1794 0.1783 0.1768 0.1752
873.000000 0.1732 0.1701 0.1671 0.1629 0.1583
878.000000 0.1529 0.1470 0.1413 0.1358 0.1306
883.000000 0.1265 0.1224 0.1191 0.1175 0.1172
888.000000 0.1167 0.1178 0.1191 0.1215 0.1249
893.000000 0.1297 0.1354 0.1432 0.1512 0.1593
898.000000 0.1675 0.1758 0.1807 0.1836 0.1836
903.000000 0.1839 0.1820 0.1806 0.1790 0.1740
908.000000 0.1688 0.1636 0.1585 0.1534 0.1487
913.000000 0.1443 0.1400 0.1356 0.1313 0.1266
918.000000 0.1218 0.1171 0.1125 0.1078 0.1030
923.000000 0.0982 0.0936 0.0888 0.0841 0.0794
928.000000 0.0749 0.0703 0.0658 0.0614 0.0582
933.000000 0.0550 0.0519 0.0488 0.0472 0.0457
938.000000 0.0442 0.0427 0.0422 0.0419 0.0417
943.000000 0.0415 0.0398 0.0411 0.0411 0.0413
948.000000 0.0413 0.0419 0.0429 0.0439 0.0449
953.000000 0.0466 0.0490 0.0513 0.0538 0.0587
958.000000 0.0638 0.0717 0.0810 0.0926 0.1011
963.000000 0.1091 0.1172 0.1252 0.1333 0.1413
968.000000 0.1485 0.1528 0.1562 0.1594 0.1623
973.000000 0.1632 0.1641 0.1646 0.1650 0.1646
978.000000 0.1638 0.1623 0.1598 0.1567 0.1519
983.000000 0.1466 0.1438 0.1414 0.1393 0.1382
988.000000 0.1371 0.1360 0.1332 0.1256 0.1222
993.000000 0.1204 0.1197 0.1189 0.1181 0.1173
998.000000 0.1167 0.1161 0.1156 0.1150 0.1144
1003.000000 0.1138 0.1128 0.1116 0.1099 0.1074
1008.000000 0.1047 0.1015 0.0983 0.0947 0.0910
1013.000000 0.0870 0.0824 0.0778 0.0728 0.0680
1018.000000 0.0631 0.0584 0.0537 0.0488 0.0438
1023.000000 0.0413 0.0391 0.0382 0.0376 0.0353
1028.000000 0.0293 0.0216 0.0156 0.0090 0.0045
1033.000000 0.0027 0.0009 0.0000 0.0000 0.0000
1038.000000 0.0000 0.0000 0.0000 0.0000 0.0000
1043.000000 0.0000 0.0000 0.0000 0.0000 0.0000
1048.000000 0.0000 0.0000 0.0000 0.0000 0.0000
1053.000000 0.0000 0.0000 0.0000 0.0000 0.0000
1058.000000 0.0000 0.0000 0.0000 0.0000 0.0000
1063.000000 0.0000 0.0000 0.0000 0.0000 0.0000
1068.000000 0.0000 0.0000 0.0000 0.0000 0.0000
1073.000000 0.0000 0.0000 0.0000 0.0000 0.0000
1078.000000 0.0000 0.0000 0.0000 0.0000 0.0000
1083.000000 0.0000 0.0000 0.0000 0.0000 0.0002
1088.000000 0.0000 0.0000 0.0000 0.0000 0.0000
1093.000000 0.0000 0.0000 0.0000 0.0000 0.0000
1098.000000 0.0000 0.0000 0.0000 0.0000 0.0000
1103.000000 0.0000 0.0000 0.0000 0.0000 0.0000
1108.000000 0.0000 0.0000 0.0000 0.0000 0.0000
1113.000000 0.0000 0.0000 0.0000 0.0000 0.0000
1118.000000 0.0000 0.0000 0.0000 0.0000 0.0000
1123.000000 0.0000 0.0000 0.0000 0.0001 0.0001
1128.000000 0.0001 0.0001 0.0001 0.0001 0.0001
1133.000000 0.0001 0.0001 0.0001 0.0001 0.0001
1138.000000 0.0001 0.0001 0.0001 0.0001 0.0001
1143.000000 0.0001 0.0001 0.0001 0.0001 0.0001
1148.000000 0.0001 0.0001 0.0001 0.0010 0.0023
1153.000000 0.0036 0.0053 0.0072 0.0099 0.0129
1158.000000 0.0160 0.0195 0.0228 0.0257 0.0313
1163.000000 0.0435 0.0523 0.0608 0.0708 0.0808
1168.000000 0.0908 0.1008 0.1107 0.1206 0.1306
1173.000000 0.1405 0.1513 0.1671 0.1803 0.1915
1178.000000 0.2018 0.2110 0.2164 0.2214 0.2263
1183.000000 0.2314 0.2379 0.2446 0.2513 0.2568
1188.000000 0.2623 0.2677 0.2725 0.2773 0.2816
1193.000000 0.2856 0.2881 0.2897 0.2909 0.2926
1198.000000 0.2915 0.2910 0.2904 0.2895 0.2882
1203.000000 0.2862 0.2839 0.2813 0.2786 0.2728
1208.000000 0.2676 0.2636 0.2597 0.2547 0.2496
1213.000000 0.2444 0.2390 0.2337 0.2284 0.2222
1218.000000 0.2160 0.2099 0.2022 0.1943 0.1864
1223.000000 0.1804 0.1754 0.1704 0.1654 0.1603
1228.000000 0.1547 0.1489 0.1432 0.1378 0.1339
1233.000000 0.1297 0.1243 0.1178 0.0991 0.0883
1238.000000 0.0784 0.0705 0.0631 0.0577 0.0525
1243.000000 0.0486 0.0454 0.0429 0.0416 0.0408
1248.000000 0.0408 0.0411 0.0390 0.0430 0.0448
1253.000000 0.0480 0.0528 0.0574 0.0612 0.0650
1258.000000 0.0687 0.0726 0.0765 0.0804 0.0844
1263.000000 0.0885 0.0925 0.0961 0.0992 0.1021
1268.000000 0.1030 0.1037 0.1062 0.1045 0.1027
1273.000000 0.1001 0.0975 0.0948 0.0921 0.0894
1278.000000 0.0867 0.0839 0.0803 0.0761 0.0720
1283.000000 0.0679 0.0636 0.0592 0.0542 0.0527
1288.000000 0.0516 0.0513 0.0515 0.0512 0.0518
1293.000000 0.0525 0.0537 0.0551 0.0562 0.0567
1298.000000 0.0568 0.0568 0.0568 0.0579 0.0608
1303.000000 0.0649 0.0700 0.0749 0.0794 0.0841
1308.000000 0.0898 0.0956 0.1003 0.1032 0.1060
1313.000000 0.1089 0.1115 0.1134 0.1151 0.1165
1318.000000 0.1171 0.1175 0.1175 0.1176 0.1176
1323.000000 0.1176 0.1176 0.1195 0.1223 0.1272
1328.000000 0.1320 0.1353 0.1383 0.1396 0.1401
1333.000000 0.1405 0.1405 0.1407 0.1402 0.1410
1338.000000 0.1359 0.1280 0.1165 0.0986 0.0836
1343.000000 0.0710 0.0592 0.0473 0.0364 0.0339
1348.000000 0.0340 0.0341 0.0343 0.0352 0.0321
1353.000000 0.0372 0.0391 0.0413 0.0441 0.0469
1358.000000 0.0500 0.0541 0.0583 0.0628 0.0674
1363.000000 0.0730 0.0795 0.0856 0.0902 0.0946
1368.000000 0.0991 0.1038 0.1084 0.1121 0.1148
1373.000000 0.1153 0.1157 0.1161 0.1164 0.1168
1378.000000 0.1175 0.1196 0.1233 0.1274 0.1341
1383.000000 0.1411 0.1471 0.1530 0.1572 0.1606
1388.000000 0.1625 0.1636 0.1644 0.1648 0.1651
1393.000000 0.1653 0.1656 0.1657 0.1659 0.1659
1398.000000 0.1660 0.1661 0.1660 0.1663 0.1659
1403.000000 0.1659 0.1658 0.1658 0.1656 0.1651
1408.000000 0.1645 0.1632 0.1615 0.1598 0.1581
1413.000000 0.1562 0.1543 0.1529 0.1526 0.1522
1418.000000 0.1520 0.1517 0.1517 0.1517 0.1516
1423.000000 0.1516 0.1516 0.1515 0.1506 0.1492
1428.000000 0.1467 0.1439 0.1411 0.1357 0.1241
1433.000000 0.1061 0.0839 0.0708 0.0654 0.0606
1438.000000 0.0562 0.0532 0.0510 0.0488 0.0466
1443.000000 0.0444 0.0422 0.0408 0.0397 0.0385
1448.000000 0.0373 0.0361 0.0352 0.0348 0.0345
1453.000000 0.0343 0.0342 0.0342 0.0342 0.0341
1458.000000 0.0343 0.0344 0.0314 0.0348 0.0350
1463.000000 0.0352 0.0354 0.0362 0.0392 0.0440
1468.000000 0.0489 0.0529 0.0570 0.0611 0.0657
1473.000000 0.0708 0.0753 0.0792 0.0833 0.0884
1478.000000 0.0942 0.0993 0.1039 0.1086 0.1141
1483.000000 0.1210 0.1288 0.1374 0.1567 0.1839
1488.000000 0.2110 0.2381 0.2651 0.2900 0.3034
1493.000000 0.3072 0.3105 0.3270 0.3614 0.3990
1498.000000 0.4365 0.4668 0.4773 0.4894 0.5060
1503.000000 0.5206 0.5281 0.5342 0.5404 0.5448
1508.000000 0.5487 0.5525 0.5558 0.5578 0.5595
1513.000000 0.5613 0.5654 0.5704 0.5754 0.5804
1518.000000 0.5889 0.6023 0.6032 0.6040 0.6049
1523.000000 0.6059 0.6068 0.6077 0.6088 0.6104
1528.000000 0.6121 0.6140 0.6158 0.6176 0.6190
1533.000000 0.6197 0.6203 0.6211 0.6215 0.6216
1538.000000 0.6217 0.6218 0.6220 0.6221 0.6222
1543.000000 0.6223 0.6224 0.6225 0.6226 0.6226
1548.000000 0.6227 0.6227 0.6228 0.6228 0.6228
1553.000000 0.6229 0.6228 0.6228 0.6227 0.6226
1558.000000 0.6226 0.6227 0.6225 0.6224 0.6223
1563.000000 0.6223 0.6222 0.6221 0.6220 0.6218
1568.000000 0.6217 0.6215 0.6213 0.6212 0.6210
1573.000000 0.6209 0.6207 0.6205 0.6204 0.6202
1578.000000 0.6201 0.6190 0.6171 0.6150 0.6132
1583.000000 0.6115 0.6099 0.6084 0.6069 0.6055
1588.000000 0.6040 0.6026 0.6011 0.5997 0.5981
1593.000000 0.5962 0.5933 0.5895 0.5838 0.5763
1598.000000 0.5699 0.5649 0.5605 0.5562 0.5519
1603.000000 0.5476 0.5433 0.5390 0.5340 0.5284
1608.000000 0.5227 0.5165 0.5089 0.4982 0.4863
1613.000000 0.4745 0.4628 0.4510 0.4392 0.4269
1618.000000 0.4126 0.4047 0.3981 0.3927 0.3876
1623.000000 0.3825 0.3765 0.3701 0.3636 0.3570
1628.000000 0.3504 0.3428 0.3327 0.3216 0.3151
1633.000000 0.3091 0.3051 0.3014 0.2978 0.2956
1638.000000 0.2941 0.2937 0.2937 0.2938 0.2940
1643.000000 0.2943 0.2950 0.2940 0.3006 0.3043
1648.000000 0.3085 0.3169 0.3216 0.3259 0.3292
1653.000000 0.3322 0.3351 0.3378 0.3402 0.3425
1658.000000 0.3446 0.3464 0.3482 0.3508 0.3547
1663.000000 0.3580 0.3723 0.3890 0.4030 0.4170
1668.000000 0.4309 0.4449 0.4588 0.4726 0.4865
1673.000000 0.5004 0.5142 0.5280 0.5418 0.5556
1678.000000 0.5694 0.5830 0.5909 0.5981 0.6033
1683.000000 0.6079 0.6124 0.6168 0.6210 0.6247
1688.000000 0.6266 0.6284 0.6302 0.6346 0.6401
1693.000000 0.6454 0.6506 0.6553 0.6600 0.6640
1698.000000 0.6671 0.6685 0.6690 0.6696 0.6701
1703.000000 0.6708 0.6713 0.6716 0.6719 0.6720
1708.000000 0.6722 0.6723 0.6725 0.6726 0.6727
1713.000000 0.6729 0.6731 0.6734 0.6738 0.6741
1718.000000 0.6745 0.6749 0.6754 0.6764 0.6783
1723.000000 0.6801 0.6820 0.6842 0.6865 0.6887
1728.000000 0.6909 0.6931 0.6953 0.6975 0.6995
1733.000000 0.7012 0.7026 0.7040 0.7053 0.7066
1738.000000 0.7080 0.7092 0.7105 0.7116 0.7128
1743.000000 0.7138 0.7150 0.7161 0.7173 0.7184
1748.000000 0.7200 0.7217 0.7234 0.7250 0.7267
1753.000000 0.7284 0.7306 0.7330 0.7353 0.7377
1758.000000 0.7398 0.7413 0.7428 0.7443 0.7457
1763.000000 0.7473 0.7487 0.7500 0.7510 0.7518
1768.000000 0.7525 0.7532 0.7540 0.7548 0.7555
1773.000000 0.7562 0.7570 0.7577 0.7585 0.7592
1778.000000 0.7598 0.7605 0.7612 0.7618 0.7625
1783.000000 0.7631 0.7638 0.7645 0.7652 0.7659
1788.000000 0.7661 0.7664 0.7667 0.7669 0.7671
1793.000000 0.7674 0.7677 0.7679 0.7682 0.7684
1798.000000 0.7686 0.7689 0.7692 0.7694 0.7696
1803.000000 0.7699 0.7702 0.7705 0.7708 0.7711
1808.000000 0.7714 0.7715 0.7715 0.7715 0.7715
1813.000000 0.7714 0.7713 0.7711 0.7736 0.7706
1818.000000 0.7704 0.7702 0.7699 0.7697 0.7696
1823.000000 0.7694 0.7691 0.7689 0.7687 0.7685
1828.000000 0.7682 0.7680 0.7679 0.7677 0.7675
1833.000000 0.7673 0.7672 0.7670 0.7668 0.7666
1838.000000 0.7665 0.7663 0.7662 0.7659 0.7657
1843.000000 0.7654 0.7650 0.7647 0.7643 0.7639
1848.000000 0.7636 0.7632 0.7628 0.7624 0.7620
1853.000000 0.7615 0.7611 0.7604 0.7595 0.7586
1858.000000 0.7577 0.7568 0.7559 0.7549 0.7540
1863.000000 0.7531 0.7522 0.7513 0.7505 0.7496
1868.000000 0.7490 0.7484 0.7479 0.7474 0.7468
1873.000000 0.7462 0.7454 0.7443 0.7431 0.7420
1878.000000 0.7406 0.7393 0.7381 0.7368 0.7355
1883.000000 0.7342 0.7329 0.7316 0.7303 0.7287
1888.000000 0.7268 0.7248 0.7229 0.7212 0.7195
1893.000000 0.7178 0.7160 0.7144 0.7127 0.7110
1898.000000 0.7094 0.7077 0.7059 0.7043 0.7026
1903.000000 0.7009 0.6992 0.6975 0.6959 0.6944
1908.000000 0.6928 0.6914 0.6899 0.6880 0.6855
1913.000000 0.6826 0.6797 0.6767 0.6738 0.6709
1918.000000 0.6680 0.6651 0.6622 0.6593 0.6564
1923.000000 0.6536 0.6507 0.6478 0.6449 0.6420
1928.000000 0.6393 0.6368 0.6350 0.6333 0.6315
1933.000000 0.6295 0.6273 0.6251 0.6230 0.6208
1938.000000 0.6186 0.6166 0.6146 0.6126 0.6114
1943.000000 0.6106 0.6104 0.6100 0.6097 0.6095
1948.000000 0.6095 0.6095 0.6095 0.6096 0.6097
1953.000000 0.6097 0.6098 0.6079 0.6098 0.6099
1958.000000 0.6100 0.6101 0.6103 0.6106 0.6109
1963.000000 0.6111 0.6113 0.6115 0.6120 0.6127
1968.000000 0.6134 0.6142 0.6152 0.6164 0.6176
1973.000000 0.6188 0.6201 0.6213 0.6227 0.6241
1978.000000 0.6256 0.6270 0.6285 0.6300 0.6315
1983.000000 0.6330 0.6346 0.6360 0.6376 0.6394
1988.000000 0.6413 0.6433 0.6453 0.6473 0.6493
1993.000000 0.6509 0.6524 0.6540 0.6555 0.6571
1998.000000 0.6586 0.6601 0.6615 0.6628 0.6641
2003.000000 0.6655 0.6668 0.6680 0.6686 0.6692
2008.000000 0.6698 0.6704 0.6710 0.6715 0.6720
2013.000000 0.6724 0.6728 0.6730 0.6730 0.6730
2018.000000 0.6731 0.6731 0.6731 0.6731 0.6742
2023.000000 0.6731 0.6731 0.6730 0.6729 0.6729
2028.000000 0.6728 0.6726 0.6724 0.6721 0.6718
2033.000000 0.6715 0.6711 0.6707 0.6702 0.6697
2038.000000 0.6691 0.6685 0.6678 0.6671 0.6664
2043.000000 0.6656 0.6649 0.6641 0.6633 0.6625
2048.000000 0.6618 0.6610 0.6602 0.6595 0.6587
2053.000000 0.6580 0.6572 0.6565 0.6557 0.6550
2058.000000 0.6542 0.6534 0.6526 0.6519 0.6510
2063.000000 0.6502 0.6495 0.6487 0.6479 0.6470
2068.000000 0.6461 0.6449 0.6438 0.6427 0.6416
2073.000000 0.6405 0.6394 0.6383 0.6372 0.6361
2078.000000 0.6351 0.6340 0.6328 0.6317 0.6307
2083.000000 0.6298 0.6291 0.6287 0.6282 0.6278
2088.000000 0.6273 0.6269 0.6265 0.6262 0.6259
2093.000000 0.6255 0.6252 0.6248 0.6245 0.6242
2098.000000 0.6237 0.6233 0.6228 0.6224 0.6219
2103.000000 0.6215 0.6210 0.6201 0.6189 0.6178
2108.000000 0.6167 0.6155 0.6142 0.6128 0.6115
2113.000000 0.6104 0.6098 0.6096 0.6093 0.6091
2118.000000 0.6089 0.6087 0.6084 0.6081 0.6079
2123.000000 0.6077 0.6075 0.6072 0.6069 0.6067
2128.000000 0.6065 0.6062 0.6059 0.6057 0.6055
2133.000000 0.6053 0.6050 0.6047 0.6045 0.6043
2138.000000 0.6041 0.6039 0.6037 0.6036 0.6034
2143.000000 0.6032 0.6030 0.6028 0.6026 0.6025
2148.000000 0.6023 0.6021 0.6019 0.6017 0.6016
2153.000000 0.6014 0.6012 0.6010 0.6008 0.6007
2158.000000 0.6005 0.6003 0.6001 0.5999 0.5998
2163.000000 0.5996 0.5994 0.5992 0.5990 0.5989
2168.000000 0.5987 0.5985 0.5983 0.5981 0.5980
2173.000000 0.5977 0.5975 0.5973 0.5971 0.5969
2178.000000 0.5967 0.5965 0.5963 0.5961 0.5958
2183.000000 0.5956 0.5954 0.5952 0.5950 0.5948
2188.000000 0.5946 0.5944 0.5942 0.5940 0.5938
2193.000000 0.5935 0.5933 0.5931 0.5929 0.5927
2198.000000 0.5925 0.5923 0.5921 0.5919 0.5917
2203.000000 0.5914 0.5910 0.5906 0.5902 0.5898
2208.000000 0.5893 0.5889 0.5885 0.5881 0.5878
2213.000000 0.5874 0.5870 0.5866 0.5862 0.5853
2218.000000 0.5842 0.5831 0.5819 0.5808 0.5796
2223.000000 0.5784 0.5773 0.5763 0.5753 0.5744
2228.000000 0.5734 0.5725 0.5715 0.5705 0.5696
2233.000000 0.5687 0.5679 0.5670 0.5662 0.5653
2238.000000 0.5645 0.5636 0.5628 0.5619 0.5611
2243.000000 0.5603 0.5595 0.5585 0.5575 0.5565
2248.000000 0.5555 0.5544 0.5534 0.5523 0.5513
2253.000000 0.5503 0.5492 0.5485 0.5478 0.5471
2258.000000 0.5465 0.5458 0.5452 0.5446 0.5440
2263.000000 0.5434 0.5428 0.5422 0.5416 0.5410
2268.000000 0.5404 0.5398 0.5392 0.5386 0.5380
2273.000000 0.5374 0.5367 0.5360 0.5353 0.5347
2278.000000 0.5340 0.5333 0.5327 0.5321 0.5313
2283.000000 0.5305 0.5298 0.5290 0.5282 0.5275
2288.000000 0.5267 0.5259 0.5251 0.5243 0.5234
2293.000000 0.5224 0.5213 0.5201 0.5189 0.5176
2298.000000 0.5164 0.5152 0.5138 0.5114 0.5089
2303.000000 0.5049 0.5008 0.4974 0.4940 0.4906
2308.000000 0.4873 0.4849 0.4830 0.4815 0.4803
2313.000000 0.4791 0.4778 0.4766 0.4754 0.4742
2318.000000 0.4730 0.4718 0.4706 0.4694 0.4681
2323.000000 0.4669 0.4654 0.4639 0.4623 0.4607
2328.000000 0.4591 0.4575 0.4559 0.4541 0.4522
2333.000000 0.4501 0.4479 0.4457 0.4435 0.4414
2338.000000 0.4394 0.4375 0.4357 0.4339 0.4322
2343.000000 0.4304 0.4286 0.4268 0.4251 0.4235
2348.000000 0.4218 0.4202 0.4185 0.4168 0.4152
2353.000000 0.4135 0.4118 0.4100 0.4082 0.4064
2358.000000 0.4046 0.4029 0.4015 0.4002 0.3992
2363.000000 0.3981 0.3970 0.3959 0.3949 0.3938
2368.000000 0.3927 0.3917 0.3905 0.3893 0.3880
2373.000000 0.3868 0.3856 0.3843 0.3831 0.3818
2378.000000 0.3805 0.3793 0.3780 0.3768 0.3756
2383.000000 0.3743 0.3731 0.3719 0.3706 0.3694
2388.000000 0.3682 0.3669 0.3657 0.3645 0.3633
2393.000000 0.3617 0.3599 0.3580 0.3561 0.3541
2398.000000 0.3516 0.3491 0.3462 0.3432 0.3404
2403.000000 0.3381 0.3357 0.3334 0.3310 0.3289
2408.000000 0.3269 0.3251 0.3234 0.3217 0.3200
2413.000000 0.3184 0.3167 0.3151 0.3136 0.3121
2418.000000 0.3106 0.3091 0.3077 0.3062 0.3047
2423.000000 0.3029 0.3010 0.2989 0.2963 0.2937
2428.000000 0.2897 0.2852 0.2818 0.2795 0.2772
2433.000000 0.2751 0.2730 0.2713 0.2697 0.2681
2438.000000 0.2665 0.2649 0.2633 0.2617 0.2601
2443.000000 0.2585 0.2569 0.2550 0.2531 0.2512
2448.000000 0.2493 0.2476 0.2460 0.2444 0.2434
2453.000000 0.2424 0.2413 0.2402 0.2393 0.2390
2458.000000 0.2386 0.2383 0.2380 0.2376 0.2373
2463.000000 0.2370 0.2366 0.2363 0.2360 0.2357
2468.000000 0.2353 0.2350 0.2348 0.2345 0.2342
2473.000000 0.2340 0.2339 0.2337 0.2335 0.2334
2478.000000 0.2332 0.2330 0.2329 0.2327 0.2326
2483.000000 0.2324 0.2322 0.2320 0.2318 0.2316
2488.000000 0.2315 0.2313 0.2312 0.2311 0.2310
2493.000000 0.2309 0.2308 0.2308 0.2307 0.2306
2498.000000 0.2305 0.2305 0.2305 0.2304 0.2303
2503.000000 0.2302 0.2302 0.2302 0.2301 0.2300
2508.000000 0.2299 0.2298 0.2298 0.2297 0.2297
2513.000000 0.2296 0.2295 0.2295 0.2294 0.2293
2518.000000 0.2292 0.2291 0.2291 0.2290 0.2289
2523.000000 0.2288 0.2288 0.2288 0.2287 0.2286
2528.000000 0.2285 0.2280 0.2275 0.2270 0.2263
2533.000000 0.2257 0.2251 0.2245 0.2238 0.2230
2538.000000 0.2223 0.2216 0.2208 0.2201 0.2192
2543.000000 0.2183 0.2175 0.2167 0.2159 0.2151
2548.000000 0.2143 0.2135 0.2126 0.2118 0.2108
2553.000000 0.2099 0.2089 0.2079 0.2069 0.2059
2558.000000 0.2050 0.2040 0.2030 0.2020 0.2011
2563.000000 0.2003 0.1994 0.1987 0.1981 0.1974
2568.000000 0.1968 0.1962 0.1959 0.1958 0.1957
2573.000000 0.1956 0.1955 0.1954 0.1953 0.1952
2578.000000 0.1951 0.1950 0.1949 0.1948 0.1947
2583.000000 0.1946 0.1945 0.1945 0.1944 0.1943
2588.000000 0.1941 0.1941 0.1940 0.1940 0.1940
2593.000000 0.1940 0.1939 0.1939 0.1939 0.1939
2598.000000 0.1939 0.1939 0.1939 0.1939 0.1938
2603.000000 0.1938 0.1938 0.1938 0.1938 0.1937
2608.000000 0.1937 0.1937 0.1937 0.1937 0.1937
2613.000000 0.1937 0.1938 0.1938 0.1939 0.1940
2618.000000 0.1941 0.1941 0.1942 0.1943 0.1944
2623.000000 0.1944 0.1945 0.1946 0.1946 0.1948
2628.000000 0.1949 0.1950 0.1950 0.1951 0.1952
2633.000000 0.1953 0.1953 0.1954 0.1955 0.1956
2638.000000 0.1957 0.1959 0.1960 0.1961 0.1962
2643.000000 0.1963 0.1963 0.1964 0.1965 0.1966
2648.000000 0.1967 0.1968 0.1969 0.1970 0.1971
2653.000000 0.1972 0.1973 0.1974 0.1975 0.1975
2658.000000 0.1972 0.1970 0.1967 0.1965 0.1963
2663.000000 0.1960 0.1958 0.1955 0.1951 0.1946
2668.000000 0.1941 0.1936 0.1930 0.1925 0.1908
2673.000000 0.1892 0.1875 0.1851 0.1828 0.1805
2678.000000 0.1783 0.1760 0.1740 0.1722 0.1705
2683.000000 0.1689 0.1674 0.1659 0.1645 0.1631
2688.000000 0.1617 0.1604 0.1592 0.1580 0.1569
2693.000000 0.1558 0.1547 0.1540 0.1532 0.1525
2698.000000 0.1517 0.1510 0.1503 0.1497 0.1490
2703.000000 0.1485 0.1482 0.1478 0.1475 0.1472
2708.000000 0.1469 0.1466 0.1463 0.1460 0.1457
2713.000000 0.1455 0.1453 0.1451 0.1449 0.1448
2718.000000 0.1447 0.1445 0.1444 0.1443 0.1441
2723.000000 0.1440 0.1438 0.1437 0.1435 0.1434
2728.000000 0.1432 0.1431 0.1430 0.1429 0.1428
2733.000000 0.1427 0.1426 0.1425 0.1423 0.1422
2738.000000 0.1421 0.1420 0.1419 0.1418 0.1417
2743.000000 0.1416 0.1415 0.1414 0.1413 0.1412
2748.000000 0.1410 0.1407 0.1404 0.1401 0.1397
2753.000000 0.1394 0.1387 0.1379 0.1370 0.1356
2758.000000 0.1338 0.1320 0.1301 0.1281 0.1260
2763.000000 0.1240 0.1220 0.1199 0.1179 0.1159
2768.000000 0.1139 0.1118 0.1098 0.1078 0.1058
2773.000000 0.1038 0.1017 0.0997 0.0977 0.0957
2778.000000 0.0937 0.0917 0.0897 0.0877 0.0857
2783.000000 0.0837 0.0817 0.0797 0.0777 0.0758
2788.000000 0.0738 0.0718 0.0698 0.0678 0.0658
2793.000000 0.0638 0.0619 0.0599 0.0579 0.0559
2798.000000 0.0539 0.0519 0.0500 0.0482 0.0463
2803.000000 0.0445 0.0428 0.0410 0.0393 0.0376
2808.000000 0.0359 0.0342 0.0327 0.0311 0.0296
2813.000000 0.0284 0.0272 0.0261 0.0250 0.0238
2818.000000 0.0226 0.0217 0.0209 0.0202 0.0195
2823.000000 0.0191 0.0188 0.0184 0.0180 0.0176
2828.000000 0.0172 0.0168 0.0164 0.0160 0.0157
2833.000000 0.0156 0.0154 0.0153 0.0152 0.0151
2838.000000 0.0150 0.0150 0.0149 0.0148 0.0147
2843.000000 0.0147 0.0146 0.0145 0.0144 0.0143
2848.000000 0.0142 0.0142 0.0142 0.0142 0.0142
2853.000000 0.0142 0.0141 0.0141 0.0141 0.0141
2858.000000 0.0141 0.0141 0.0141 0.0140 0.0140
2863.000000 0.0140 0.0140 0.0140 0.0140 0.0139
2868.000000 0.0139 0.0139 0.0139 0.0155 0.0138
2873.000000 0.0138 0.0138 0.0138 0.0138 0.0138
2878.000000 0.0138 0.0138 0.0138 0.0138 0.0139
2883.000000 0.0140 0.0141 0.0141 0.0142 0.0143
2888.000000 0.0144 0.0144 0.0145 0.0146 0.0147
2893.000000 0.0147 0.0148 0.0149 0.0150 0.0151
2898.000000 0.0151 0.0152 0.0152 0.0153 0.0155
2903.000000 0.0156 0.0157 0.0158 0.0159 0.0161
2908.000000 0.0162 0.0163 0.0165 0.0166 0.0167
2913.000000 0.0169 0.0170 0.0171 0.0172 0.0173
2918.000000 0.0175 0.0176 0.0178 0.0179 0.0181
2923.000000 0.0183 0.0186 0.0188 0.0190 0.0193
2928.000000 0.0195 0.0197 0.0200 0.0202 0.0208
2933.000000 0.0213 0.0219 0.0229 0.0242 0.0254
2938.000000 0.0277 0.0329 0.0381 0.0432 0.0484
2943.000000 0.0536 0.0588 0.0640 0.0692 0.0743
2948.000000 0.0795 0.0846 0.0898 0.0950 0.1001
2953.000000 0.1053 0.1104 0.1155 0.1207 0.1258
2958.000000 0.1310 0.1361 0.1412 0.1463 0.1514
2963.000000 0.1565 0.1617 0.1668 0.1719 0.1770
2968.000000 0.1821 0.1871 0.1922 0.1973 0.2023
2973.000000 0.2074 0.2125 0.2176 0.2227 0.2259
2978.000000 0.2288 0.2316 0.2340 0.2354 0.2368
2983.000000 0.2382 0.2400 0.2419 0.2437 0.2457
2988.000000 0.2485 0.2512 0.2539 0.2561 0.2580
2993.000000 0.2599 0.2617 0.2630 0.2644 0.2657
2998.000000 0.2669 0.2681 0.2693 0.2705 0.2713
3003.000000 0.2721 0.2728 0.2736 0.2743 0.2751
3008.000000 0.2758 0.2766 0.2773 0.2781 0.2788
3013.000000 0.2792 0.2796 0.2800 0.2803 0.2806
3018.000000 0.2808 0.2811 0.2813 0.2816 0.2819
3023.000000 0.2822 0.2824 0.2827 0.2830 0.2832
3028.000000 0.2833 0.2833 0.2834 0.2835 0.2835
3033.000000 0.2835 0.2836 0.2836 0.2836 0.2836
3038.000000 0.2837 0.2837 0.2837 0.2837 0.2840
3043.000000 0.2836 0.2835 0.2834 0.2832 0.2831
3048.000000 0.2830 0.2829 0.2828 0.2827 0.2825
3053.000000 0.2824 0.2823 0.2822 0.2821 0.2818
3058.000000 0.2815 0.2812 0.2809 0.2805 0.2800
3063.000000 0.2796 0.2791 0.2784 0.2777 0.2771
3068.000000 0.2764 0.2758 0.2751 0.2745 0.2736
3073.000000 0.2726 0.2717 0.2707 0.2696 0.2686
3078.000000 0.2675 0.2665 0.2655 0.2645 0.2635
3083.000000 0.2625 0.2615 0.2605 0.2596 0.2586
3088.000000 0.2576 0.2566 0.2557 0.2547 0.2537
3093.000000 0.2528 0.2518 0.2508 0.2498 0.2488
3098.000000 0.2478 0.2469 0.2459 0.2449 0.2439
3103.000000 0.2429 0.2419 0.2409 0.2399 0.2389
3108.000000 0.2379 0.2369 0.2356 0.2341 0.2325
3113.000000 0.2310 0.2289 0.2267 0.2244 0.2221
3118.000000 0.2199 0.2176 0.2153 0.2131 0.2108
3123.000000 0.2086 0.2064 0.2042 0.2019 0.1997
3128.000000 0.1974 0.1952 0.1929 0.1907 0.1885
3133.000000 0.1863 0.1840 0.1818 0.1796 0.1773
3138.000000 0.1751 0.1729 0.1706 0.1684 0.1662
3143.000000 0.1640 0.1618 0.1596 0.1574 0.1551
3148.000000 0.1529 0.1507 0.1485 0.1463 0.1441
3153.000000 0.1419 0.1397 0.1375 0.1353 0.1331
3158.000000 0.1309 0.1287 0.1265 0.1243 0.1221
3163.000000 0.1199 0.1178 0.1156 0.1134 0.1112
3168.000000 0.1090 0.1068 0.1046 0.1024 0.1002
3173.000000 0.0974 0.0940 0.0905 0.0871 0.0840
3178.000000 0.0817 0.0793 0.0769 0.0747 0.0726
3183.000000 0.0706 0.0686 0.0666 0.0645 0.0624
3188.000000 0.0604 0.0585 0.0575 0.0565 0.0554
3193.000000 0.0545 0.0540 0.0535 0.0531 0.0526
3198.000000 0.0521 0.0516 0.0512 0.0507 0.0502
3203.000000 0.0497 0.0493 0.0488 0.0483 0.0478
3208.000000 0.0474 0.0469 0.0464 0.0459 0.0454
3213.000000 0.0449 0.0445 0.0441 0.0437 0.0433
3218.000000 0.0429 0.0425 0.0421 0.0418 0.0414
3223.000000 0.0411 0.0408 0.0404 0.0401 0.0397
3228.000000 0.0394 0.0391 0.0387 0.0384 0.0381
3233.000000 0.0377 0.0374 0.0371 0.0368 0.0365
3238.000000 0.0362 0.0359 0.0356 0.0354 0.0351
3243.000000 0.0348 0.0346 0.0343 0.0340 0.0338
3248.000000 0.0335 0.0333 0.0330 0.0327 0.0325
3253.000000 0.0322 0.0320 0.0317 0.0315 0.0313
3258.000000 0.0311 0.0308 0.0307 0.0306 0.0305
3263.000000 0.0304 0.0303 0.0303 0.0302 0.0301
3268.000000 0.0300 0.0300 0.0299 0.0298 0.0298
3273.000000 0.0297 0.0296 0.0296 0.0295 0.0294
3278.000000 0.0293 0.0293 0.0292 0.0291 0.0291
3283.000000 0.0290 0.0289 0.0289 0.0288 0.0287
3288.000000 0.0287 0.0286 0.0285 0.0284 0.0284
3293.000000 0.0283 0.0282 0.0282 0.0281 0.0280
3298.000000 0.0280 0.0279 0.0279 0.0278 0.0278
3303.000000 0.0277 0.0277 0.0276 0.0276 0.0275
3308.000000 0.0275 0.0275 0.0274 0.0274 0.0273
3313.000000 0.0273 0.0273 0.0273 0.0272 0.0272
3318.000000 0.0271 0.0271 0.0271 0.0271 0.0271
3323.000000 0.0272 0.0272 0.0273 0.0273 0.0273
3328.000000 0.0273 0.0274 0.0274 0.0274 0.0275
3333.000000 0.0275 0.0262 0.0276 0.0277 0.0277
3338.000000 0.0278 0.0278 0.0278 0.0279 0.0279
3343.000000 0.0280 0.0280 0.0281 0.0281 0.0282
3348.000000 0.0282 0.0283 0.0283 0.0283 0.0284
3353.000000 0.0284 0.0285 0.0285 0.0286 0.0286
3358.000000 0.0286 0.0286 0.0286 0.0287 0.0288
3363.000000 0.0288 0.0289 0.0290 0.0290 0.0291
3368.000000 0.0292 0.0292 0.0293 0.0294 0.0294
3373.000000 0.0295 0.0296 0.0297 0.0297 0.0298
3378.000000 0.0299 0.0300 0.0301 0.0301 0.0302
3383.000000 0.0303 0.0303 0.0304 0.0304 0.0305
3388.000000 0.0306 0.0306 0.0307 0.0308 0.0308
3393.000000 0.0309 0.0311 0.0312 0.0313 0.0314
3398.000000 0.0315 0.0316 0.0317 0.0318 0.0319
3403.000000 0.0320 0.0321 0.0322 0.0324 0.0325
3408.000000 0.0326 0.0327 0.0328 0.0329 0.0330
3413.000000 0.0331 0.0332 0.0333 0.0334 0.0335
3418.000000 0.0335 0.0336 0.0337 0.0337 0.0337
3423.000000 0.0337 0.0337 0.0338 0.0338 0.0338
3428.000000 0.0338 0.0338 0.0339 0.0339 0.0339
3433.000000 0.0339 0.0339 0.0340 0.0340 0.0340
3438.000000 0.0340 0.0341 0.0341 0.0341 0.0341
3443.000000 0.0341 0.0342 0.0342 0.0342 0.0342
3448.000000 0.0342 0.0343 0.0343 0.0343 0.0343
3453.000000 0.0343 0.0344 0.0344 0.0344 0.0344
3458.000000 0.0344 0.0344 0.0344 0.0344 0.0344
3463.000000 0.0343 0.0343 0.0343 0.0343 0.0343
3468.000000 0.0342 0.0342 0.0342 0.0342 0.0342
3473.000000 0.0342 0.0342 0.0342 0.0342 0.0342
3478.000000 0.0341 0.0341 0.0341 0.0341 0.0341
3483.000000 0.0341 0.0341 0.0342 0.0342 0.0343
3488.000000 0.0344 0.0346 0.0347 0.0349 0.0350
3493.000000 0.0352 0.0353 0.0355 0.0357 0.0358
3498.000000 0.0360 0.0361 0.0362 0.0364 0.0366
3503.000000 0.0368 0.0370 0.0372 0.0374 0.0379
3508.000000 0.0384 0.0390 0.0396 0.0402 0.0411
3513.000000 0.0421 0.0431 0.0442 0.0452 0.0463
3518.000000 0.0474 0.0485 0.0497 0.0508 0.0519
3523.000000 0.0529 0.0540 0.0550 0.0561 0.0569
3528.000000 0.0576 0.0584 0.0592 0.0600 0.0607
3533.000000 0.0615 0.0622 0.0630 0.0637 0.0644
3538.000000 0.0652 0.0659 0.0667 0.0674 0.0681
3543.000000 0.0687 0.0694 0.0700 0.0707 0.0713
3548.000000 0.0720 0.0727 0.0733 0.0740 0.0748
3553.000000 0.0756 0.0764 0.0773 0.0781 0.0791
3558.000000 0.0802 0.0812 0.0823 0.0834 0.0843
3563.000000 0.0851 0.0859 0.0867 0.0876 0.0895
3568.000000 0.0920 0.0945 0.0971 0.0996 0.1037
3573.000000 0.1091 0.1144 0.1198 0.1252 0.1305
3578.000000 0.1359 0.1412 0.1466 0.1519 0.1572
3583.000000 0.1626 0.1679 0.1732 0.1785 0.1838
3588.000000 0.1891 0.1944 0.1998 0.2051 0.2104
3593.000000 0.2157 0.2210 0.2263 0.2316 0.2369
3598.000000 0.2422 0.2475 0.2528 0.2580 0.2633
3603.000000 0.2686 0.2739 0.2792 0.2844 0.2897
3608.000000 0.2950 0.3002 0.3055 0.3107 0.3160
3613.000000 0.3212 0.3265 0.3317 0.3369 0.3421
3618.000000 0.3473 0.3526 0.3578 0.3630 0.3682
3623.000000 0.3735 0.3787 0.3839 0.3891 0.3943
3628.000000 0.3995 0.4047 0.4099 0.4151 0.4203
3633.000000 0.4255 0.4307 0.4359 0.4411 0.4462
3638.000000 0.4514 0.4566 0.4617 0.4669 0.4720
3643.000000 0.4772 0.4823 0.4875 0.4926 0.4978
3648.000000 0.5029 0.5081 0.5132 0.5184 0.5235
3653.000000 0.5286 0.5338 0.5389 0.5440 0.5491
3658.000000 0.5543 0.5594 0.5645 0.5696 0.5747
3663.000000 0.5798 0.5849 0.5900 0.5951 0.6002
3668.000000 0.6053 0.6104 0.6155 0.6206 0.6256
3673.000000 0.6307 0.6358 0.6408 0.6459 0.6509
3678.000000 0.6560 0.6611 0.6661 0.6712 0.6762
3683.000000 0.6813 0.6863 0.6914 0.6964 0.7015
3688.000000 0.7081 0.7156 0.7230 0.7304 0.7379
3693.000000 0.7442 0.7469 0.7497 0.7524 0.7551
3698.000000 0.7578 0.7588 0.7593 0.7598 0.7602
3703.000000 0.7607 0.7612 0.7617 0.7621 0.7626
3708.000000 0.7631 0.7636 0.7639 0.7643 0.7647
3713.000000 0.7650 0.7654 0.7657 0.7659 0.7661
3718.000000 0.7663 0.7665 0.7667 0.7669 0.7671
3723.000000 0.7673 0.7675 0.7677 0.7679 0.7681
3728.000000 0.7683 0.7685 0.7687 0.7689 0.7691
3733.000000 0.7692 0.7694 0.7696 0.7698 0.7700
3738.000000 0.7701 0.7702 0.7704 0.7705 0.7707
3743.000000 0.7708 0.7710 0.7711 0.7713 0.7715
3748.000000 0.7716 0.7717 0.7718 0.7719 0.7719
3753.000000 0.7720 0.7721 0.7721 0.7722 0.7722
3758.000000 0.7723 0.7723 0.7724 0.7724 0.7725
3763.000000 0.7725 0.7726 0.7726 0.7727 0.7728
3768.000000 0.7729 0.7729 0.7730 0.7701 0.7731
3773.000000 0.7731 0.7732 0.7732 0.7732 0.7732
3778.000000 0.7732 0.7731 0.7731 0.7730 0.7730
3783.000000 0.7729 0.7729 0.7728 0.7727 0.7727
3788.000000 0.7726 0.7726 0.7725 0.7724 0.7724
3793.000000 0.7723 0.7722 0.7721 0.7720 0.7720
3798.000000 0.7719 0.7718 0.7717 0.7716 0.7715
3803.000000 0.7714 0.7713 0.7712 0.7711 0.7710
3808.000000 0.7709 0.7708 0.7707 0.7706 0.7706
3813.000000 0.7705 0.7704 0.7703 0.7702 0.7701
3818.000000 0.7700 0.7700 0.7699 0.7698 0.7697
3823.000000 0.7696 0.7694 0.7693 0.7691 0.7690
3828.000000 0.7688 0.7687 0.7685 0.7684 0.7683
3833.000000 0.7681 0.7680 0.7679 0.7677 0.7675
3838.000000 0.7674 0.7672 0.7671 0.7669 0.7668
3843.000000 0.7666 0.7665 0.7663 0.7662 0.7660
3848.000000 0.7659 0.7657 0.7656 0.7654 0.7653
3853.000000 0.7651 0.7650 0.7648 0.7647 0.7645
3858.000000 0.7644 0.7642 0.7640 0.7638 0.7635
3863.000000 0.7633 0.7631 0.7629 0.7627 0.7625
3868.000000 0.7623 0.7621 0.7618 0.7616 0.7614
3873.000000 0.7612 0.7610 0.7608 0.7606 0.7604
3878.000000 0.7602 0.7600 0.7598 0.7596 0.7593
3883.000000 0.7590 0.7587 0.7584 0.7580 0.7577
3888.000000 0.7574 0.7570 0.7567 0.7563 0.7560
3893.000000 0.7556 0.7553 0.7549 0.7546 0.7543
3898.000000 0.7540 0.7536 0.7533 0.7530 0.7526
3903.000000 0.7523 0.7519 0.7516 0.7512 0.7509
3908.000000 0.7506 0.7503 0.7499 0.7496 0.7493
3913.000000 0.7489 0.7486 0.7482 0.7479 0.7476
3918.000000 0.7472 0.7468 0.7462 0.7457 0.7452
3923.000000 0.7446 0.7441 0.7436 0.7430 0.7425
3928.000000 0.7419 0.7414 0.7408 0.7403 0.7397
3933.000000 0.7392 0.7387 0.7381 0.7376 0.7371
3938.000000 0.7364 0.7357 0.7350 0.7343 0.7336
3943.000000 0.7329 0.7322 0.7314 0.7307 0.7300
3948.000000 0.7292 0.7285 0.7278 0.7270 0.7263
3953.000000 0.7256 0.7249 0.7242 0.7232 0.7219
3958.000000 0.7206 0.7192 0.7179 0.7165 0.7152
3963.000000 0.7144 0.7136 0.7128 0.7120 0.7112
3968.000000 0.7104 0.7095 0.7087 0.7079 0.7071
3973.000000 0.7063 0.7055 0.7047 0.7039 0.7030
3978.000000 0.7022 0.7014 0.7006 0.6998 0.6990
3983.000000 0.6982 0.6974 0.6965 0.6957 0.6949
3988.000000 0.6943 0.6938 0.6932 0.6926 0.6921
3993.000000 0.6915 0.6909 0.6904 0.6898 0.6892
3998.000000 0.6887 0.6881 0.6875
##END=
