##TITLE=ACETAMIDINE, HYDROCHLORIDE
##JCAMP-DX=4.24
$$ By DXEDIT 1.05 (RS McDonald)
##DATA TYPE=INFRARED SPECTRUM
##CLASS=COBLENTZ III
##ORIGIN=DOW CHEMICAL COMPANY
##OWNER=COBLENTZ SOC.
Collection (C) 2018 copyright by the U.S. Secretary of Commerce
on behalf of the United States of America. All rights reserved.
##DATE=1963/03/11
##MOLFORM=C2 H7 Cl N2
##SOURCE REFERENCE=COBLENTZ NO. 05750
##$NIST ID=B6005750
##$NIST SOURCE=COBLENTZ
##$NIST IMAGE=cob5750
##SPECTROMETER/DATA SYSTEM=DOW KBr FOREPRISM-GRATING
##INSTRUMENT PARAMETERS=BLAZED AT 3.5, 12.0, 20.0 MICRON AND CHANGED AT 5.0, 7.5, 14.9 MICRON
##STATE=SOLID (SPLIT MULL)
##SAMPLING PROCEDURE=TRANSMISSION
##RESOLUTION=2
##DATA PROCESSING=DIGITIZED BY COBLENTZ SOCIETY (BATCH I) FROM HARD COPY
##XUNITS=1/CM
##YUNITS=TRANSMITTANCE
##XLABEL=Wavenumbers (cm-1)
##YLABEL=% Transmission
##XFACTOR=1
##YFACTOR=1
##DELTAX=1
##FIRSTX=3820
##LASTX=379
##FIRSTY=0.8603
##MAXX=3820
##MINX=379
##MAXY=0.9178
##MINY=0.0835
##NPOINTS=3442
##XYDATA=(X++(Y..Y))
3820.000000 0.8603 0.8603 0.8604 0.8605 0.8606
3815.000000 0.8607 0.8608 0.8609 0.8610 0.8610
3810.000000 0.8611 0.8612 0.8613 0.8614 0.8615
3805.000000 0.8616 0.8617 0.8618 0.8618 0.8620
3800.000000 0.8621 0.8621 0.8621 0.8623 0.8624
3795.000000 0.8625 0.8625 0.8627 0.8628 0.8628
3790.000000 0.8630 0.8631 0.8632 0.8632 0.8633
3785.000000 0.8634 0.8636 0.8637 0.8638 0.8639
3780.000000 0.8641 0.8642 0.8643 0.8644 0.8646
3775.000000 0.8647 0.8648 0.8649 0.8651 0.8652
3770.000000 0.8653 0.8654 0.8655 0.8656 0.8658
3765.000000 0.8659 0.8660 0.8661 0.8663 0.8664
3760.000000 0.8665 0.8667 0.8668 0.8670 0.8671
3755.000000 0.8674 0.8675 0.8678 0.8680 0.8681
3750.000000 0.8683 0.8685 0.8687 0.8688 0.8690
3745.000000 0.8692 0.8694 0.8696 0.8698 0.8699
3740.000000 0.8701 0.8703 0.8705 0.8707 0.8709
3735.000000 0.8710 0.8712 0.8714 0.8716 0.8718
3730.000000 0.8720 0.8721 0.8723 0.8725 0.8727
3725.000000 0.8728 0.8730 0.8732 0.8734 0.8735
3720.000000 0.8737 0.8738 0.8740 0.8741 0.8743
3715.000000 0.8744 0.8745 0.8746 0.8748 0.8749
3710.000000 0.8751 0.8752 0.8753 0.8754 0.8756
3705.000000 0.8757 0.8759 0.8760 0.8761 0.8762
3700.000000 0.8764 0.8765 0.8767 0.8768 0.8768
3695.000000 0.8770 0.8771 0.8773 0.8775 0.8775
3690.000000 0.8777 0.8778 0.8780 0.8781 0.8782
3685.000000 0.8783 0.8785 0.8786 0.8788 0.8789
3680.000000 0.8790 0.8791 0.8793 0.8794 0.8796
3675.000000 0.8797 0.8798 0.8799 0.8800 0.8801
3670.000000 0.8802 0.8803 0.8804 0.8805 0.8806
3665.000000 0.8807 0.8808 0.8809 0.8810 0.8811
3660.000000 0.8812 0.8813 0.8814 0.8815 0.8816
3655.000000 0.8817 0.8818 0.8818 0.8820 0.8821
3650.000000 0.8821 0.8823 0.8824 0.8825 0.8825
3645.000000 0.8827 0.8828 0.8828 0.8830 0.8831
3640.000000 0.8832 0.8833 0.8834 0.8835 0.8836
3635.000000 0.8837 0.8838 0.8839 0.8840 0.8841
3630.000000 0.8842 0.8843 0.8844 0.8845 0.8846
3625.000000 0.8847 0.8848 0.8849 0.8851 0.8852
3620.000000 0.8853 0.8854 0.8855 0.8856 0.8858
3615.000000 0.8859 0.8860 0.8861 0.8862 0.8863
3610.000000 0.8865 0.8866 0.8867 0.8868 0.8870
3605.000000 0.8871 0.8871 0.8873 0.8874 0.8875
3600.000000 0.8877 0.8878 0.8878 0.8880 0.8882
3595.000000 0.8883 0.8884 0.8885 0.8886 0.8887
3590.000000 0.8889 0.8890 0.8891 0.8892 0.8893
3585.000000 0.8894 0.8895 0.8896 0.8898 0.8899
3580.000000 0.8900 0.8901 0.8902 0.8903 0.8904
3575.000000 0.8905 0.8906 0.8907 0.8909 0.8910
3570.000000 0.8911 0.8912 0.8913 0.8914 0.8915
3565.000000 0.8916 0.8917 0.8918 0.8918 0.8920
3560.000000 0.8921 0.8921 0.8921 0.8921 0.8921
3555.000000 0.8921 0.8921 0.8921 0.8923 0.8923
3550.000000 0.8923 0.8923 0.8923 0.8923 0.8923
3545.000000 0.8923 0.8923 0.8923 0.8923 0.8923
3540.000000 0.8923 0.8923 0.8924 0.8924 0.8924
3535.000000 0.8924 0.8924 0.8924 0.8924 0.8924
3530.000000 0.8924 0.8923 0.8923 0.8921 0.8921
3525.000000 0.8921 0.8921 0.8920 0.8920 0.8918
3520.000000 0.8918 0.8918 0.8918 0.8917 0.8917
3515.000000 0.8916 0.8916 0.8915 0.8915 0.8914
3510.000000 0.8914 0.8913 0.8913 0.8911 0.8910
3505.000000 0.8908 0.8907 0.8905 0.8903 0.8901
3500.000000 0.8899 0.8897 0.8896 0.8894 0.8892
3495.000000 0.8890 0.8888 0.8886 0.8885 0.8883
3490.000000 0.8881 0.8878 0.8877 0.8875 0.8874
3485.000000 0.8870 0.8867 0.8863 0.8860 0.8856
3480.000000 0.8852 0.8848 0.8845 0.8841 0.8827
3475.000000 0.8834 0.8830 0.8825 0.8821 0.8816
3470.000000 0.8811 0.8806 0.8801 0.8796 0.8791
3465.000000 0.8786 0.8781 0.8775 0.8771 0.8767
3460.000000 0.8762 0.8757 0.8752 0.8747 0.8742
3455.000000 0.8737 0.8733 0.8724 0.8715 0.8706
3450.000000 0.8697 0.8683 0.8668 0.8654 0.8640
3445.000000 0.8625 0.8612 0.8597 0.8583 0.8568
3440.000000 0.8554 0.8539 0.8524 0.8509 0.8495
3435.000000 0.8480 0.8465 0.8448 0.8432 0.8400
3430.000000 0.8368 0.8336 0.8304 0.8271 0.8241
3425.000000 0.8209 0.8176 0.8144 0.8111 0.8075
3420.000000 0.8041 0.8006 0.7971 0.7936 0.7901
3415.000000 0.7848 0.7796 0.7740 0.7685 0.7634
3410.000000 0.7584 0.7537 0.7491 0.7444 0.7398
3405.000000 0.7340 0.7282 0.7190 0.7098 0.7018
3400.000000 0.6940 0.6896 0.6851 0.6830 0.6808
3395.000000 0.6785 0.6762 0.6741 0.6718 0.6694
3390.000000 0.6669 0.6643 0.6615 0.6589 0.6561
3385.000000 0.6535 0.6508 0.6481 0.6454 0.6418
3380.000000 0.6383 0.6333 0.6283 0.6233 0.6184
3375.000000 0.6131 0.6079 0.6023 0.5968 0.5912
3370.000000 0.5857 0.5754 0.5651 0.5537 0.5424
3365.000000 0.5296 0.5168 0.5041 0.4915 0.4832
3360.000000 0.4749 0.4665 0.4582 0.4507 0.4432
3355.000000 0.4365 0.4299 0.4232 0.4166 0.4076
3350.000000 0.3986 0.3894 0.3802 0.3759 0.3718
3345.000000 0.3682 0.3645 0.3606 0.3568 0.3528
3340.000000 0.3488 0.3452 0.3416 0.3394 0.3371
3335.000000 0.3347 0.3324 0.3300 0.3278 0.3194
3330.000000 0.3111 0.3097 0.3083 0.3069 0.3055
3325.000000 0.3040 0.3026 0.3010 0.2995 0.2980
3320.000000 0.2965 0.2949 0.2934 0.2921 0.2908
3315.000000 0.2895 0.2882 0.2869 0.2857 0.2844
3310.000000 0.2832 0.2819 0.2807 0.2794 0.2782
3305.000000 0.2769 0.2756 0.2743 0.2731 0.2718
3300.000000 0.2706 0.2693 0.2681 0.2668 0.2656
3295.000000 0.2638 0.2621 0.2598 0.2576 0.2553
3290.000000 0.2530 0.2511 0.2492 0.2472 0.2453
3285.000000 0.2433 0.2414 0.2395 0.2376 0.2352
3280.000000 0.2329 0.2298 0.2267 0.2232 0.2197
3275.000000 0.2172 0.2147 0.2126 0.2106 0.2084
3270.000000 0.2064 0.2043 0.2023 0.2003 0.1984
3265.000000 0.1973 0.1963 0.1951 0.1939 0.1924
3260.000000 0.1910 0.1899 0.1889 0.1879 0.1871
3255.000000 0.1868 0.1844 0.1870 0.1875 0.1879
3250.000000 0.1883 0.1886 0.1891 0.1894 0.1899
3245.000000 0.1903 0.1907 0.1916 0.1926 0.1935
3240.000000 0.1946 0.1957 0.1967 0.1977 0.1987
3235.000000 0.2003 0.2019 0.2039 0.2060 0.2081
3230.000000 0.2102 0.2122 0.2143 0.2159 0.2175
3225.000000 0.2190 0.2205 0.2220 0.2234 0.2250
3220.000000 0.2265 0.2281 0.2298 0.2316 0.2334
3215.000000 0.2352 0.2370 0.2382 0.2395 0.2402
3210.000000 0.2409 0.2416 0.2423 0.2428 0.2433
3205.000000 0.2433 0.2433 0.2432 0.2432 0.2432
3200.000000 0.2432 0.2432 0.2432 0.2433 0.2434
3195.000000 0.2435 0.2438 0.2439 0.2441 0.2445
3190.000000 0.2450 0.2454 0.2458 0.2462 0.2467
3185.000000 0.2471 0.2476 0.2480 0.2484 0.2489
3180.000000 0.2494 0.2498 0.2502 0.2506 0.2510
3175.000000 0.2513 0.2516 0.2519 0.2523 0.2523
3170.000000 0.2522 0.2532 0.2532 0.2533 0.2531
3165.000000 0.2528 0.2526 0.2523 0.2520 0.2517
3160.000000 0.2514 0.2511 0.2508 0.2505 0.2502
3155.000000 0.2495 0.2488 0.2480 0.2472 0.2464
3150.000000 0.2456 0.2448 0.2440 0.2432 0.2424
3145.000000 0.2416 0.2408 0.2400 0.2392 0.2384
3140.000000 0.2377 0.2369 0.2361 0.2353 0.2346
3135.000000 0.2338 0.2330 0.2322 0.2315 0.2307
3130.000000 0.2299 0.2289 0.2279 0.2263 0.2247
3125.000000 0.2231 0.2216 0.2200 0.2184 0.2168
3120.000000 0.2152 0.2134 0.2116 0.2098 0.2081
3115.000000 0.2063 0.2044 0.2027 0.2010 0.1987
3110.000000 0.1966 0.1886 0.1809 0.1765 0.1721
3105.000000 0.1684 0.1648 0.1615 0.1582 0.1558
3100.000000 0.1534 0.1510 0.1486 0.1462 0.1438
3095.000000 0.1414 0.1390 0.1362 0.1335 0.1306
3090.000000 0.1278 0.1249 0.1220 0.1196 0.1174
3085.000000 0.1153 0.1132 0.1110 0.1089 0.1068
3080.000000 0.1046 0.1026 0.1006 0.0985 0.0964
3075.000000 0.0956 0.0949 0.0943 0.0939 0.0937
3070.000000 0.0935 0.0933 0.0931 0.0928 0.0928
3065.000000 0.0928 0.0931 0.0953 0.0976 0.1038
3060.000000 0.1101 0.1173 0.1245 0.1283 0.1321
3055.000000 0.1359 0.1396 0.1454 0.1511 0.1573
3050.000000 0.1634 0.1695 0.1758 0.1822 0.1885
3045.000000 0.1962 0.2039 0.2115 0.2192 0.2259
3040.000000 0.2326 0.2361 0.2396 0.2431 0.2466
3035.000000 0.2501 0.2535 0.2571 0.2606 0.2641
3030.000000 0.2676 0.2711 0.2746 0.2781 0.2816
3025.000000 0.2848 0.2881 0.2910 0.2940 0.2969
3020.000000 0.2998 0.3027 0.3056 0.3084 0.3114
3015.000000 0.3143 0.3173 0.3202 0.3230 0.3259
3010.000000 0.3289 0.3336 0.3384 0.3436 0.3489
3005.000000 0.3542 0.3595 0.3647 0.3700 0.3742
3000.000000 0.3784 0.3820 0.3856 0.3891 0.3927
2995.000000 0.3962 0.3999 0.4034 0.4070 0.4102
2990.000000 0.4135 0.4164 0.4193 0.4222 0.4252
2985.000000 0.4281 0.4310 0.4339 0.4369 0.4406
2980.000000 0.4443 0.4489 0.4535 0.4581 0.4627
2975.000000 0.4673 0.4719 0.4762 0.4808 0.4833
2970.000000 0.4858 0.4883 0.4908 0.4933 0.4958
2965.000000 0.4983 0.5008 0.5033 0.5058 0.5083
2960.000000 0.5108 0.5133 0.5158 0.5181 0.5205
2955.000000 0.5228 0.5251 0.5274 0.5297 0.5320
2950.000000 0.5343 0.5365 0.5388 0.5410 0.5434
2945.000000 0.5457 0.5480 0.5508 0.5537 0.5573
2940.000000 0.5610 0.5646 0.5683 0.5719 0.5756
2935.000000 0.5785 0.5815 0.5836 0.5858 0.5879
2930.000000 0.5900 0.5921 0.5942 0.5962 0.5985
2925.000000 0.6006 0.6027 0.6048 0.6069 0.6090
2920.000000 0.6112 0.6134 0.6156 0.6178 0.6200
2915.000000 0.6222 0.6244 0.6266 0.6289 0.6310
2910.000000 0.6333 0.6354 0.6376 0.6393 0.6410
2905.000000 0.6426 0.6444 0.6461 0.6478 0.6494
2900.000000 0.6511 0.6528 0.6545 0.6561 0.6578
2895.000000 0.6596 0.6612 0.6628 0.6644 0.6658
2890.000000 0.6674 0.6689 0.6704 0.6718 0.6734
2885.000000 0.6747 0.6761 0.6769 0.6780 0.6790
2880.000000 0.6800 0.6808 0.6818 0.6828 0.6839
2875.000000 0.6849 0.6858 0.6869 0.6882 0.6893
2870.000000 0.6905 0.6915 0.6928 0.6939 0.6950
2865.000000 0.6961 0.6972 0.6984 0.6996 0.7006
2860.000000 0.7015 0.7024 0.6999 0.7030 0.7028
2855.000000 0.7025 0.7025 0.7022 0.7021 0.7018
2850.000000 0.7017 0.7011 0.7006 0.6991 0.6976
2845.000000 0.6961 0.6947 0.6932 0.6918 0.6903
2840.000000 0.6889 0.6876 0.6865 0.6854 0.6843
2835.000000 0.6832 0.6821 0.6815 0.6811 0.6806
2830.000000 0.6801 0.6795 0.6790 0.6787 0.6785
2825.000000 0.6784 0.6783 0.6782 0.6782 0.6782
2820.000000 0.6761 0.6792 0.6803 0.6818 0.6836
2815.000000 0.6851 0.6868 0.6884 0.6900 0.6915
2810.000000 0.6931 0.6946 0.6961 0.6976 0.6993
2805.000000 0.7004 0.7015 0.7025 0.7034 0.7043
2800.000000 0.7053 0.7061 0.7071 0.7078 0.7086
2795.000000 0.7090 0.7094 0.7098 0.7115 0.7105
2790.000000 0.7105 0.7105 0.7101 0.7098 0.7095
2785.000000 0.7086 0.7076 0.7065 0.7054 0.7042
2780.000000 0.7031 0.7015 0.7001 0.6985 0.6968
2775.000000 0.6951 0.6936 0.6937 0.6938 0.6940
2770.000000 0.6941 0.6944 0.6946 0.6961 0.6976
2765.000000 0.6997 0.7018 0.7038 0.7058 0.7071
2760.000000 0.7086 0.7095 0.7105 0.7114 0.7122
2755.000000 0.7132 0.7142 0.7151 0.7160 0.7168
2750.000000 0.7178 0.7187 0.7195 0.7201 0.7210
2745.000000 0.7217 0.7224 0.7226 0.7231 0.7234
2740.000000 0.7237 0.7239 0.7242 0.7245 0.7248
2735.000000 0.7250 0.7253 0.7255 0.7258 0.7260
2730.000000 0.7261 0.7268 0.7274 0.7281 0.7288
2725.000000 0.7295 0.7301 0.7308 0.7315 0.7321
2720.000000 0.7328 0.7340 0.7351 0.7364 0.7378
2715.000000 0.7391 0.7405 0.7418 0.7432 0.7445
2710.000000 0.7458 0.7471 0.7486 0.7499 0.7512
2705.000000 0.7525 0.7540 0.7553 0.7565 0.7578
2700.000000 0.7593 0.7601 0.7611 0.7618 0.7625
2695.000000 0.7633 0.7640 0.7647 0.7655 0.7661
2690.000000 0.7668 0.7675 0.7683 0.7690 0.7697
2685.000000 0.7704 0.7711 0.7718 0.7725 0.7732
2680.000000 0.7712 0.7746 0.7754 0.7761 0.7768
2675.000000 0.7768 0.7768 0.7768 0.7768 0.7768
2670.000000 0.7768 0.7768 0.7768 0.7768 0.7768
2665.000000 0.7764 0.7760 0.7753 0.7746 0.7739
2660.000000 0.7733 0.7728 0.7722 0.7718 0.7715
2655.000000 0.7711 0.7707 0.7703 0.7700 0.7697
2650.000000 0.7694 0.7692 0.7691 0.7696 0.7701
2645.000000 0.7705 0.7710 0.7714 0.7718 0.7722
2640.000000 0.7728 0.7733 0.7738 0.7742 0.7747
2635.000000 0.7751 0.7756 0.7761 0.7765 0.7769
2630.000000 0.7775 0.7778 0.7784 0.7788 0.7793
2625.000000 0.7798 0.7803 0.7807 0.7811 0.7815
2620.000000 0.7821 0.7825 0.7831 0.7835 0.7840
2615.000000 0.7844 0.7849 0.7853 0.7857 0.7861
2610.000000 0.7865 0.7869 0.7874 0.7878 0.7883
2605.000000 0.7887 0.7891 0.7895 0.7899 0.7903
2600.000000 0.7908 0.7911 0.7915 0.7919 0.7924
2595.000000 0.7928 0.7933 0.7937 0.7941 0.7945
2590.000000 0.7950 0.7955 0.7960 0.7964 0.7968
2585.000000 0.7974 0.7978 0.7983 0.7988 0.7993
2580.000000 0.7998 0.8003 0.8008 0.8011 0.8017
2575.000000 0.8021 0.8026 0.8032 0.8037 0.8041
2570.000000 0.8046 0.8050 0.8055 0.8058 0.8062
2565.000000 0.8065 0.8069 0.8072 0.8076 0.8080
2560.000000 0.8084 0.8087 0.8091 0.8095 0.8099
2555.000000 0.8101 0.8106 0.8108 0.8112 0.8115
2550.000000 0.8119 0.8122 0.8126 0.8130 0.8134
2545.000000 0.8137 0.8140 0.8143 0.8146 0.8149
2540.000000 0.8151 0.8155 0.8158 0.8161 0.8164
2535.000000 0.8167 0.8169 0.8172 0.8175 0.8178
2530.000000 0.8181 0.8184 0.8187 0.8190 0.8193
2525.000000 0.8196 0.8199 0.8202 0.8205 0.8208
2520.000000 0.8211 0.8214 0.8217 0.8220 0.8223
2515.000000 0.8225 0.8228 0.8231 0.8234 0.8237
2510.000000 0.8240 0.8243 0.8246 0.8248 0.8250
2505.000000 0.8251 0.8253 0.8254 0.8255 0.8256
2500.000000 0.8258 0.8259 0.8261 0.8262 0.8263
2495.000000 0.8264 0.8266 0.8267 0.8268 0.8270
2490.000000 0.8271 0.8271 0.8274 0.8275 0.8277
2485.000000 0.8278 0.8278 0.8280 0.8282 0.8283
2480.000000 0.8285 0.8288 0.8291 0.8294 0.8297
2475.000000 0.8299 0.8302 0.8305 0.8308 0.8311
2470.000000 0.8314 0.8317 0.8320 0.8323 0.8325
2465.000000 0.8328 0.8332 0.8335 0.8338 0.8341
2460.000000 0.8345 0.8348 0.8351 0.8353 0.8353
2455.000000 0.8353 0.8351 0.8348 0.8345 0.8342
2450.000000 0.8339 0.8336 0.8334 0.8331 0.8328
2445.000000 0.8323 0.8318 0.8314 0.8309 0.8303
2440.000000 0.8298 0.8299 0.8300 0.8302 0.8305
2435.000000 0.8308 0.8311 0.8314 0.8318 0.8321
2430.000000 0.8325 0.8330 0.8334 0.8338 0.8342
2425.000000 0.8346 0.8350 0.8354 0.8358 0.8361
2420.000000 0.8365 0.8368 0.8373 0.8377 0.8381
2415.000000 0.8385 0.8389 0.8391 0.8394 0.8395
2410.000000 0.8396 0.8396 0.8397 0.8398 0.8399
2405.000000 0.8399 0.8400 0.8400 0.8401 0.8401
2400.000000 0.8402 0.8402 0.8403 0.8404 0.8405
2395.000000 0.8405 0.8406 0.8406 0.8407 0.8407
2390.000000 0.8408 0.8408 0.8409 0.8409 0.8410
2385.000000 0.8410 0.8411 0.8411 0.8412 0.8412
2380.000000 0.8413 0.8413 0.8414 0.8414 0.8415
2375.000000 0.8415 0.8416 0.8416 0.8417 0.8417
2370.000000 0.8418 0.8418 0.8420 0.8420 0.8421
2365.000000 0.8421 0.8421 0.8423 0.8424 0.8424
2360.000000 0.8425 0.8425 0.8427 0.8427 0.8428
2355.000000 0.8428 0.8430 0.8430 0.8431 0.8431
2350.000000 0.8432 0.8433 0.8434 0.8434 0.8435
2345.000000 0.8436 0.8437 0.8437 0.8438 0.8438
2340.000000 0.8439 0.8441 0.8443 0.8445 0.8447
2335.000000 0.8449 0.8451 0.8453 0.8455 0.8457
2330.000000 0.8459 0.8461 0.8463 0.8465 0.8467
2325.000000 0.8468 0.8471 0.8473 0.8475 0.8477
2320.000000 0.8478 0.8481 0.8483 0.8485 0.8487
2315.000000 0.8488 0.8489 0.8490 0.8492 0.8493
2310.000000 0.8494 0.8495 0.8496 0.8497 0.8498
2305.000000 0.8499 0.8501 0.8502 0.8503 0.8504
2300.000000 0.8481 0.8507 0.8508 0.8509 0.8511
2295.000000 0.8512 0.8513 0.8513 0.8514 0.8513
2290.000000 0.8511 0.8508 0.8506 0.8503 0.8501
2285.000000 0.8498 0.8496 0.8490 0.8484 0.8474
2280.000000 0.8465 0.8454 0.8443 0.8425 0.8410
2275.000000 0.8393 0.8375 0.8360 0.8345 0.8335
2270.000000 0.8325 0.8315 0.8305 0.8294 0.8284
2265.000000 0.8274 0.8265 0.8262 0.8259 0.8260
2260.000000 0.8261 0.8265 0.8235 0.8274 0.8278
2255.000000 0.8282 0.8286 0.8291 0.8297 0.8304
2250.000000 0.8312 0.8318 0.8325 0.8333 0.8340
2245.000000 0.8347 0.8354 0.8361 0.8368 0.8375
2240.000000 0.8382 0.8387 0.8392 0.8397 0.8403
2235.000000 0.8408 0.8413 0.8418 0.8424 0.8428
2230.000000 0.8434 0.8439 0.8444 0.8449 0.8455
2225.000000 0.8458 0.8462 0.8465 0.8468 0.8471
2220.000000 0.8475 0.8478 0.8482 0.8485 0.8488
2215.000000 0.8491 0.8495 0.8498 0.8501 0.8504
2210.000000 0.8508 0.8511 0.8515 0.8517 0.8518
2205.000000 0.8520 0.8521 0.8524 0.8525 0.8527
2200.000000 0.8528 0.8531 0.8533 0.8534 0.8536
2195.000000 0.8538 0.8540 0.8542 0.8544 0.8545
2190.000000 0.8547 0.8549 0.8551 0.8552 0.8554
2185.000000 0.8555 0.8575 0.8558 0.8560 0.8561
2180.000000 0.8563 0.8564 0.8566 0.8567 0.8568
2175.000000 0.8570 0.8571 0.8571 0.8574 0.8575
2170.000000 0.8577 0.8578 0.8578 0.8578 0.8578
2165.000000 0.8577 0.8575 0.8575 0.8575 0.8574
2160.000000 0.8574 0.8573 0.8571 0.8571 0.8571
2155.000000 0.8570 0.8570 0.8570 0.8571 0.8571
2150.000000 0.8571 0.8571 0.8571 0.8571 0.8573
2145.000000 0.8573 0.8573 0.8573 0.8574 0.8574
2140.000000 0.8575 0.8575 0.8578 0.8578 0.8580
2135.000000 0.8581 0.8583 0.8584 0.8585 0.8586
2130.000000 0.8588 0.8589 0.8591 0.8592 0.8593
2125.000000 0.8594 0.8596 0.8597 0.8598 0.8599
2120.000000 0.8601 0.8602 0.8604 0.8605 0.8606
2115.000000 0.8607 0.8609 0.8610 0.8611 0.8612
2110.000000 0.8614 0.8615 0.8617 0.8618 0.8618
2105.000000 0.8620 0.8621 0.8623 0.8624 0.8625
2100.000000 0.8625 0.8627 0.8628 0.8628 0.8630
2095.000000 0.8631 0.8632 0.8633 0.8634 0.8635
2090.000000 0.8636 0.8637 0.8639 0.8640 0.8641
2085.000000 0.8642 0.8643 0.8644 0.8645 0.8646
2080.000000 0.8647 0.8648 0.8649 0.8650 0.8651
2075.000000 0.8652 0.8654 0.8655 0.8656 0.8657
2070.000000 0.8658 0.8658 0.8659 0.8659 0.8660
2065.000000 0.8660 0.8661 0.8661 0.8662 0.8662
2060.000000 0.8663 0.8663 0.8664 0.8664 0.8665
2055.000000 0.8665 0.8666 0.8666 0.8667 0.8667
2050.000000 0.8668 0.8668 0.8668 0.8668 0.8670
2045.000000 0.8670 0.8671 0.8671 0.8671 0.8673
2040.000000 0.8675 0.8677 0.8678 0.8681 0.8683
2035.000000 0.8685 0.8687 0.8689 0.8691 0.8692
2030.000000 0.8694 0.8696 0.8698 0.8700 0.8702
2025.000000 0.8704 0.8706 0.8708 0.8710 0.8712
2020.000000 0.8714 0.8716 0.8718 0.8720 0.8723
2015.000000 0.8725 0.8725 0.8725 0.8724 0.8721
2010.000000 0.8718 0.8715 0.8712 0.8708 0.8705
2005.000000 0.8702 0.8700 0.8697 0.8694 0.8688
2000.000000 0.8682 0.8677 0.8671 0.8665 0.8666
1995.000000 0.8667 0.8668 0.8671 0.8673 0.8675
1990.000000 0.8677 0.8678 0.8681 0.8684 0.8686
1985.000000 0.8688 0.8690 0.8692 0.8694 0.8697
1980.000000 0.8699 0.8702 0.8705 0.8707 0.8710
1975.000000 0.8712 0.8715 0.8718 0.8720 0.8723
1970.000000 0.8725 0.8728 0.8731 0.8733 0.8736
1965.000000 0.8738 0.8742 0.8746 0.8751 0.8755
1960.000000 0.8757 0.8758 0.8758 0.8759 0.8759
1955.000000 0.8759 0.8760 0.8760 0.8761 0.8761
1950.000000 0.8761 0.8762 0.8762 0.8763 0.8763
1945.000000 0.8764 0.8764 0.8764 0.8765 0.8765
1940.000000 0.8763 0.8761 0.8760 0.8758 0.8756
1935.000000 0.8755 0.8753 0.8751 0.8749 0.8748
1930.000000 0.8746 0.8744 0.8743 0.8741 0.8739
1925.000000 0.8738 0.8736 0.8734 0.8733 0.8732
1920.000000 0.8731 0.8730 0.8730 0.8728 0.8728
1915.000000 0.8727 0.8725 0.8725 0.8725 0.8724
1910.000000 0.8723 0.8721 0.8721 0.8721 0.8720
1905.000000 0.8718 0.8718 0.8717 0.8717 0.8716
1900.000000 0.8715 0.8715 0.8715 0.8715 0.8715
1895.000000 0.8716 0.8716 0.8717 0.8717 0.8718
1890.000000 0.8718 0.8718 0.8718 0.8718 0.8720
1885.000000 0.8720 0.8721 0.8721 0.8721 0.8721
1880.000000 0.8721 0.8723 0.8723 0.8724 0.8724
1875.000000 0.8724 0.8725 0.8725 0.8725 0.8725
1870.000000 0.8725 0.8725 0.8725 0.8725 0.8725
1865.000000 0.8725 0.8725 0.8725 0.8725 0.8725
1860.000000 0.8725 0.8725 0.8724 0.8724 0.8724
1855.000000 0.8724 0.8724 0.8724 0.8724 0.8723
1850.000000 0.8723 0.8725 0.8727 0.8728 0.8731
1845.000000 0.8733 0.8735 0.8738 0.8740 0.8742
1840.000000 0.8744 0.8746 0.8748 0.8751 0.8753
1835.000000 0.8755 0.8757 0.8758 0.8759 0.8759
1830.000000 0.8760 0.8760 0.8761 0.8761 0.8762
1825.000000 0.8762 0.8763 0.8763 0.8764 0.8764
1820.000000 0.8762 0.8758 0.8755 0.8751 0.8748
1815.000000 0.8744 0.8740 0.8737 0.8735 0.8734
1810.000000 0.8734 0.8733 0.8732 0.8731 0.8730
1805.000000 0.8728 0.8727 0.8725 0.8725 0.8724
1800.000000 0.8723 0.8721 0.8721 0.8720 0.8718
1795.000000 0.8717 0.8716 0.8715 0.8714 0.8712
1790.000000 0.8711 0.8710 0.8706 0.8702 0.8699
1785.000000 0.8697 0.8694 0.8692 0.8689 0.8687
1780.000000 0.8685 0.8682 0.8680 0.8677 0.8675
1775.000000 0.8674 0.8673 0.8671 0.8671 0.8668
1770.000000 0.8668 0.8667 0.8666 0.8666 0.8665
1765.000000 0.8665 0.8665 0.8664 0.8661 0.8653
1760.000000 0.8645 0.8637 0.8615 0.8593 0.8570
1755.000000 0.8552 0.8537 0.8542 0.8547 0.8553
1750.000000 0.8558 0.8563 0.8568 0.8570 0.8573
1745.000000 0.8575 0.8578 0.8581 0.8583 0.8586
1740.000000 0.8587 0.8588 0.8588 0.8588 0.8588
1735.000000 0.8588 0.8575 0.8563 0.8550 0.8532
1730.000000 0.8509 0.8485 0.8461 0.8437 0.8413
1725.000000 0.8383 0.8344 0.8305 0.8265 0.8213
1720.000000 0.8146 0.8078 0.8011 0.7944 0.7851
1715.000000 0.7758 0.7664 0.7571 0.7378 0.7140
1710.000000 0.6906 0.6686 0.6467 0.6180 0.4942
1705.000000 0.4707 0.4515 0.4242 0.3595 0.3378
1700.000000 0.3161 0.2945 0.2728 0.2511 0.2294
1695.000000 0.2078 0.1861 0.1644 0.1427 0.1211
1690.000000 0.1026 0.0939 0.0835 0.0874 0.0864
1685.000000 0.0865 0.0874 0.0920 0.0982 0.1060
1680.000000 0.1158 0.1374 0.1884 0.2273 0.2662
1675.000000 0.3050 0.3439 0.3827 0.4216 0.4605
1670.000000 0.4993 0.5166 0.5298 0.5428 0.5556
1665.000000 0.5684 0.5812 0.6177 0.6307 0.6450
1660.000000 0.6625 0.6674 0.6721 0.6772 0.6832
1655.000000 0.6890 0.6936 0.6978 0.7021 0.7057
1650.000000 0.7065 0.7086 0.7081 0.7083 0.7085
1645.000000 0.7068 0.7051 0.7035 0.7012 0.6989
1640.000000 0.6965 0.6949 0.6903 0.6938 0.6942
1635.000000 0.6946 0.6951 0.6978 0.7006 0.7043
1630.000000 0.7084 0.7139 0.7195 0.7250 0.7300
1625.000000 0.7349 0.7399 0.7442 0.7484 0.7525
1620.000000 0.7558 0.7588 0.7617 0.7645 0.7664
1615.000000 0.7675 0.7687 0.7691 0.7695 0.7711
1610.000000 0.7704 0.7705 0.7706 0.7701 0.7695
1605.000000 0.7689 0.7683 0.7676 0.7668 0.7660
1600.000000 0.7651 0.7643 0.7634 0.7625 0.7621
1595.000000 0.7618 0.7618 0.7615 0.7615 0.7614
1590.000000 0.7615 0.7617 0.7618 0.7621 0.7621
1585.000000 0.7624 0.7625 0.7628 0.7638 0.7646
1580.000000 0.7655 0.7664 0.7671 0.7681 0.7690
1575.000000 0.7697 0.7701 0.7705 0.7708 0.7714
1570.000000 0.7718 0.7721 0.7721 0.7721 0.7721
1565.000000 0.7721 0.7721 0.7719 0.7714 0.7704
1560.000000 0.7693 0.7680 0.7655 0.7631 0.7607
1555.000000 0.7590 0.7576 0.7571 0.7568 0.7562
1550.000000 0.7558 0.7553 0.7551 0.7551 0.7551
1545.000000 0.7551 0.7551 0.7551 0.7541 0.7531
1540.000000 0.7521 0.7500 0.7480 0.7458 0.7434
1535.000000 0.7393 0.7351 0.7285 0.7198 0.7087
1530.000000 0.6950 0.6892 0.6796 0.6619 0.6443
1525.000000 0.6267 0.6091 0.5914 0.5738 0.5560
1520.000000 0.5385 0.5209 0.5032 0.4923 0.4906
1515.000000 0.4910 0.4971 0.5070 0.5170 0.5269
1510.000000 0.5368 0.5468 0.5567 0.5667 0.5766
1505.000000 0.5866 0.5965 0.6064 0.6164 0.6262
1500.000000 0.6362 0.6461 0.6561 0.6661 0.6707
1495.000000 0.6732 0.6756 0.6781 0.6795 0.6801
1490.000000 0.6808 0.6815 0.6821 0.6818 0.6815
1485.000000 0.6811 0.6808 0.6801 0.6784 0.6767
1480.000000 0.6751 0.6739 0.6730 0.6719 0.6711
1475.000000 0.6701 0.6695 0.6691 0.6688 0.6684
1470.000000 0.6680 0.6676 0.6672 0.6665 0.6657
1465.000000 0.6650 0.6642 0.6635 0.6626 0.6618
1460.000000 0.6608 0.6596 0.6583 0.6568 0.6556
1455.000000 0.6543 0.6530 0.6515 0.6503 0.6490
1450.000000 0.6476 0.6461 0.6440 0.6418 0.6399
1445.000000 0.6378 0.6352 0.6316 0.6279 0.6208
1440.000000 0.6112 0.5857 0.5771 0.5727 0.5697
1435.000000 0.5680 0.5662 0.5642 0.5603 0.5517
1430.000000 0.5337 0.5006 0.4799 0.4776 0.4768
1425.000000 0.4762 0.4755 0.4752 0.4783 0.4946
1420.000000 0.5396 0.5481 0.5548 0.5586 0.5623
1415.000000 0.5660 0.5699 0.5738 0.5776 0.5815
1410.000000 0.5854 0.5893 0.5932 0.5971 0.6010
1405.000000 0.6052 0.6095 0.6137 0.6177 0.6206
1400.000000 0.6235 0.6264 0.6292 0.6321 0.6350
1395.000000 0.6378 0.6406 0.6426 0.6447 0.6465
1390.000000 0.6486 0.6493 0.6500 0.6503 0.6471
1385.000000 0.6500 0.6495 0.6490 0.6262 0.6022
1380.000000 0.5781 0.5540 0.5484 0.5472 0.5721
1375.000000 0.6027 0.6333 0.6408 0.6472 0.6530
1370.000000 0.6565 0.6600 0.6619 0.6624 0.6628
1365.000000 0.6634 0.6639 0.6644 0.6651 0.6660
1360.000000 0.6668 0.6676 0.6685 0.6694 0.6721
1355.000000 0.6750 0.6778 0.6806 0.6834 0.6861
1350.000000 0.6891 0.6919 0.6950 0.6978 0.7008
1345.000000 0.7038 0.7067 0.7097 0.7130 0.7164
1340.000000 0.7197 0.7230 0.7257 0.7280 0.7303
1335.000000 0.7325 0.7350 0.7356 0.7355 0.7354
1330.000000 0.7353 0.7351 0.7351 0.7355 0.7358
1325.000000 0.7364 0.7368 0.7372 0.7376 0.7381
1320.000000 0.7386 0.7390 0.7394 0.7406 0.7419
1315.000000 0.7433 0.7446 0.7458 0.7472 0.7486
1310.000000 0.7499 0.7511 0.7525 0.7537 0.7547
1305.000000 0.7558 0.7568 0.7578 0.7590 0.7601
1300.000000 0.7611 0.7621 0.7633 0.7643 0.7654
1295.000000 0.7665 0.7675 0.7686 0.7697 0.7708
1290.000000 0.7721 0.7734 0.7746 0.7758 0.7769
1285.000000 0.7782 0.7794 0.7806 0.7818 0.7830
1280.000000 0.7842 0.7854 0.7865 0.7880 0.7894
1275.000000 0.7908 0.7922 0.7937 0.7951 0.7965
1270.000000 0.7981 0.7995 0.8004 0.8011 0.8018
1265.000000 0.8025 0.8032 0.8039 0.8046 0.8053
1260.000000 0.8060 0.8067 0.8074 0.8083 0.8093
1255.000000 0.8103 0.8112 0.8122 0.8133 0.8141
1250.000000 0.8147 0.8153 0.8158 0.8164 0.8169
1245.000000 0.8175 0.8181 0.8187 0.8193 0.8199
1240.000000 0.8204 0.8208 0.8213 0.8217 0.8221
1235.000000 0.8225 0.8228 0.8233 0.8237 0.8241
1230.000000 0.8244 0.8248 0.8252 0.8255 0.8259
1225.000000 0.8262 0.8266 0.8268 0.8273 0.8275
1220.000000 0.8280 0.8283 0.8286 0.8288 0.8291
1215.000000 0.8293 0.8295 0.8297 0.8300 0.8302
1210.000000 0.8304 0.8306 0.8308 0.8311 0.8313
1205.000000 0.8315 0.8317 0.8318 0.8321 0.8323
1200.000000 0.8325 0.8325 0.8328 0.8330 0.8332
1195.000000 0.8334 0.8336 0.8338 0.8339 0.8341
1190.000000 0.8343 0.8345 0.8347 0.8348 0.8350
1185.000000 0.8368 0.8353 0.8355 0.8357 0.8358
1180.000000 0.8360 0.8362 0.8363 0.8365 0.8367
1175.000000 0.8368 0.8368 0.8366 0.8364 0.8362
1170.000000 0.8360 0.8358 0.8355 0.8353 0.8351
1165.000000 0.8349 0.8347 0.8342 0.8338 0.8333
1160.000000 0.8328 0.8324 0.8318 0.8312 0.8304
1155.000000 0.8278 0.8248 0.8199 0.8153 0.8112
1150.000000 0.8074 0.8039 0.7978 0.7987 0.7988
1145.000000 0.7991 0.8025 0.8076 0.8128 0.8175
1140.000000 0.8220 0.8266 0.8293 0.8315 0.8327
1135.000000 0.8338 0.8350 0.8360 0.8366 0.8371
1130.000000 0.8378 0.8384 0.8390 0.8396 0.8402
1125.000000 0.8405 0.8406 0.8407 0.8392 0.8409
1120.000000 0.8408 0.8403 0.8390 0.8374 0.8354
1115.000000 0.8334 0.8315 0.8290 0.8255 0.8212
1110.000000 0.8151 0.8087 0.8008 0.7741 0.7741
1105.000000 0.7741 0.7737 0.7751 0.7775 0.7839
1100.000000 0.7988 0.8051 0.8115 0.8171 0.8198
1095.000000 0.8224 0.8251 0.8275 0.8289 0.8301
1090.000000 0.8314 0.8327 0.8339 0.8344 0.8348
1085.000000 0.8353 0.8357 0.8361 0.8366 0.8370
1080.000000 0.8375 0.8388 0.8378 0.8380 0.8382
1075.000000 0.8383 0.8384 0.8384 0.8384 0.8383
1070.000000 0.8381 0.8378 0.8378 0.8370 0.8358
1065.000000 0.8347 0.8314 0.8282 0.8243 0.8197
1060.000000 0.8151 0.8085 0.8019 0.7981 0.8010
1055.000000 0.8051 0.8137 0.8245 0.8351 0.8423
1050.000000 0.8433 0.8443 0.8453 0.8463 0.8474
1045.000000 0.8480 0.8485 0.8490 0.8499 0.8507
1040.000000 0.8515 0.8524 0.8532 0.8540 0.8549
1035.000000 0.8556 0.8562 0.8568 0.8575 0.8583
1030.000000 0.8560 0.8536 0.8515 0.8503 0.8503
1025.000000 0.8502 0.8494 0.8498 0.8503 0.8507
1020.000000 0.8547 0.8571 0.8591 0.8611 0.8630
1015.000000 0.8650 0.8670 0.8680 0.8688 0.8696
1010.000000 0.8704 0.8712 0.8720 0.8728 0.8736
1005.000000 0.8744 0.8752 0.8757 0.8761 0.8765
1000.000000 0.8768 0.8774 0.8778 0.8782 0.8786
995.000000 0.8790 0.8794 0.8798 0.8802 0.8806
990.000000 0.8811 0.8815 0.8820 0.8824 0.8828
985.000000 0.8833 0.8838 0.8843 0.8847 0.8852
980.000000 0.8856 0.8861 0.8865 0.8870 0.8874
975.000000 0.8878 0.8883 0.8891 0.8900 0.8908
970.000000 0.8917 0.8925 0.8934 0.8942 0.8951
965.000000 0.8959 0.8967 0.8975 0.8984 0.8993
960.000000 0.8999 0.9004 0.9010 0.9015 0.9020
955.000000 0.9025 0.9030 0.9035 0.9040 0.9045
950.000000 0.9050 0.9056 0.9061 0.9066 0.9071
945.000000 0.9075 0.9081 0.9084 0.9086 0.9087
940.000000 0.9089 0.9091 0.9093 0.9095 0.9097
935.000000 0.9098 0.9100 0.9102 0.9104 0.9107
930.000000 0.9109 0.9112 0.9115 0.9117 0.9120
925.000000 0.9123 0.9125 0.9128 0.9131 0.9134
920.000000 0.9137 0.9140 0.9144 0.9147 0.9151
915.000000 0.9154 0.9158 0.9161 0.9165 0.9168
910.000000 0.9170 0.9171 0.9171 0.9173 0.9174
905.000000 0.9175 0.9175 0.9177 0.9178 0.9173
900.000000 0.9167 0.9162 0.9156 0.9151 0.9146
895.000000 0.9141 0.9136 0.9131 0.9125 0.9121
890.000000 0.9116 0.9111 0.9106 0.9101 0.9098
885.000000 0.9096 0.9093 0.9091 0.9089 0.9086
880.000000 0.9078 0.9070 0.9063 0.9055 0.9048
875.000000 0.9040 0.9033 0.9025 0.9018 0.9010
870.000000 0.9001 0.8992 0.8983 0.8974 0.8965
865.000000 0.8956 0.8947 0.8938 0.8928 0.8920
860.000000 0.8911 0.8902 0.8893 0.8887 0.8881
855.000000 0.8875 0.8870 0.8864 0.8859 0.8853
850.000000 0.8847 0.8842 0.8836 0.8828 0.8823
845.000000 0.8817 0.8810 0.8804 0.8798 0.8791
840.000000 0.8785 0.8778 0.8771 0.8764 0.8753
835.000000 0.8742 0.8731 0.8718 0.8708 0.8697
830.000000 0.8686 0.8675 0.8666 0.8656 0.8646
825.000000 0.8636 0.8625 0.8613 0.8600 0.8586
820.000000 0.8573 0.8560 0.8547 0.8534 0.8521
815.000000 0.8507 0.8494 0.8481 0.8467 0.8453
810.000000 0.8439 0.8425 0.8411 0.8398 0.8384
805.000000 0.8370 0.8356 0.8330 0.8305 0.8278
800.000000 0.8254 0.8221 0.8171 0.8121 0.8069
795.000000 0.8018 0.7968 0.7905 0.7840 0.7775
790.000000 0.7711 0.7651 0.7595 0.7540 0.7485
785.000000 0.7430 0.7367 0.7301 0.7237 0.7171
780.000000 0.7099 0.7024 0.6949 0.6874 0.6799
775.000000 0.6717 0.6628 0.6541 0.6454 0.6371
770.000000 0.6289 0.6207 0.6125 0.6028 0.5923
765.000000 0.5819 0.5626 0.5359 0.5029 0.4633
760.000000 0.4520 0.4407 0.4300 0.4217 0.4133
755.000000 0.4050 0.3966 0.3864 0.3744 0.3607
750.000000 0.3441 0.3309 0.3245 0.3208 0.3176
745.000000 0.3149 0.3118 0.3087 0.3054 0.3012
740.000000 0.2970 0.2790 0.2746 0.2685 0.2637
735.000000 0.2601 0.2561 0.2522 0.2513 0.2504
730.000000 0.2499 0.2484 0.2496 0.2496 0.2495
725.000000 0.2520 0.2635 0.2784 0.2981 0.3149
720.000000 0.3303 0.3462 0.3662 0.4424 0.4909
715.000000 0.5215 0.5383 0.5474 0.5566 0.5662
710.000000 0.5766 0.5870 0.5956 0.6016 0.6076
705.000000 0.6137 0.6197 0.6257 0.6314 0.6371
700.000000 0.6428 0.6484 0.6541 0.6617 0.6887
695.000000 0.6957 0.7028 0.7093 0.7138 0.7183
690.000000 0.7228 0.7268 0.7306 0.7342 0.7375
685.000000 0.7400 0.7411 0.7421 0.7433 0.7444
680.000000 0.7455 0.7465 0.7474 0.7478 0.7484
675.000000 0.7489 0.7494 0.7500 0.7503 0.7505
670.000000 0.7507 0.7508 0.7510 0.7515 0.7524
665.000000 0.7533 0.7542 0.7550 0.7558 0.7568
660.000000 0.7578 0.7593 0.7608 0.7624 0.7639
655.000000 0.7654 0.7668 0.7684 0.7699 0.7714
650.000000 0.7728 0.7744 0.7758 0.7774 0.7790
645.000000 0.7808 0.7825 0.7844 0.7862 0.7881
640.000000 0.7899 0.7917 0.7935 0.7948 0.7958
635.000000 0.7968 0.7978 0.7990 0.8000 0.8010
630.000000 0.8021 0.8031 0.8041 0.8049 0.8055
625.000000 0.8061 0.8068 0.8074 0.8080 0.8087
620.000000 0.8096 0.8105 0.8115 0.8124 0.8134
615.000000 0.8143 0.8153 0.8158 0.8160 0.8161
610.000000 0.8162 0.8165 0.8167 0.8168 0.8175
605.000000 0.8184 0.8192 0.8201 0.8210 0.8218
600.000000 0.8227 0.8236 0.8244 0.8251 0.8255
595.000000 0.8259 0.8263 0.8267 0.8271 0.8274
590.000000 0.8278 0.8282 0.8286 0.8291 0.8296
585.000000 0.8300 0.8305 0.8310 0.8310 0.8310
580.000000 0.8305 0.8291 0.8278 0.8264 0.8250
575.000000 0.8235 0.8220 0.8204 0.8189 0.8183
570.000000 0.8184 0.8185 0.8192 0.8200 0.8211
565.000000 0.8221 0.8230 0.8237 0.8245 0.8253
560.000000 0.8260 0.8266 0.8270 0.8275 0.8278
555.000000 0.8284 0.8284 0.8284 0.8282 0.8280
550.000000 0.8278 0.8264 0.8246 0.8228 0.8198
545.000000 0.8167 0.8136 0.8105 0.8075 0.8044
540.000000 0.8001 0.7945 0.7890 0.7805 0.7696
535.000000 0.7278 0.6860 0.6443 0.6025 0.5608
530.000000 0.5190 0.4772 0.4260 0.4235 0.4245
525.000000 0.4530 0.5026 0.5521 0.6017 0.6511
520.000000 0.7008 0.7393 0.7567 0.7637 0.7707
515.000000 0.7749 0.7782 0.7815 0.7848 0.7881
510.000000 0.7914 0.7938 0.7956 0.7974 0.7992
505.000000 0.7991 0.7990 0.7987 0.7983 0.7981
500.000000 0.7978 0.7975 0.7971 0.7968 0.7961
495.000000 0.7956 0.7949 0.7943 0.7937 0.7931
490.000000 0.7924 0.7918 0.7911 0.7906 0.7900
485.000000 0.7895 0.7890 0.7886 0.7881 0.7876
480.000000 0.7871 0.7867 0.7862 0.7858 0.7853
475.000000 0.7849 0.7844 0.7839 0.7835 0.7830
470.000000 0.7825 0.7819 0.7815 0.7811 0.7806
465.000000 0.7801 0.7796 0.7791 0.7787 0.7782
460.000000 0.7774 0.7767 0.7758 0.7751 0.7745
455.000000 0.7737 0.7730 0.7721 0.7712 0.7704
450.000000 0.7693 0.7680 0.7612 0.7455 0.7297
445.000000 0.7139 0.6981 0.6822 0.6507 0.6507
440.000000 0.6507 0.6528 0.6730 0.6930 0.7131
435.000000 0.7331 0.7531 0.7662 0.7689 0.7715
430.000000 0.7743 0.7768 0.7796 0.7821 0.7830
425.000000 0.7838 0.7845 0.7853 0.7860 0.7865
420.000000 0.7869 0.7875 0.7858 0.7886 0.7891
415.000000 0.7896 0.7899 0.7900 0.7901 0.7901
410.000000 0.7903 0.7904 0.7906 0.7907 0.7908
405.000000 0.7908 0.7911 0.7919 0.7928 0.7938
400.000000 0.7947 0.7955 0.7964 0.7972 0.7982
395.000000 0.7991 0.8001 0.8015 0.8028 0.8042
390.000000 0.8051 0.8060 0.8068 0.8075 0.8083
385.000000 0.8091 0.8100 0.8111 0.8121 0.8131
380.000000 0.8141 0.8151
##END=
