##TITLE=BENZIDINE, DIHYDROCHLORIDE
##JCAMP-DX=4.24
$$ By DXEDIT 1.05 (RS McDonald)
##DATA TYPE=INFRARED SPECTRUM
##CLASS=COBLENTZ III
##ORIGIN=DOW CHEMICAL COMPANY
##OWNER=COBLENTZ SOC.
Collection (C) 2018 copyright by the U.S. Secretary of Commerce
on behalf of the United States of America. All rights reserved.
##DATE=Not specified, most likely prior to 1970
##MOLFORM=C12 H14 Cl2 N2
##SOURCE REFERENCE=COBLENTZ NO. 05717
##$NIST ID=B6005717
##$NIST SOURCE=COBLENTZ
##$NIST IMAGE=cob5717
##SPECTROMETER/DATA SYSTEM=BECKMAN IR-9 (GRATING)
##INSTRUMENT PARAMETERS=ORDER CHANGES: 670, 1200, 2000 CM^-^1
##STATE=SOLID (SPLIT MULL)
##SAMPLING PROCEDURE=TRANSMISSION
##RESOLUTION=2
##DATA PROCESSING=DIGITIZED BY COBLENTZ SOCIETY (BATCH I) FROM HARD COPY
##XUNITS=1/CM
##YUNITS=TRANSMITTANCE
##XLABEL=Wavenumbers (cm-1)
##YLABEL=% Transmission
##XFACTOR=1
##YFACTOR=1
##DELTAX=1
##FIRSTX=3800
##LASTX=400
##FIRSTY=0.5202
##MAXX=3800
##MINX=400
##MAXY=0.9201
##MINY=0.0467
##NPOINTS=3401
##XYDATA=(X++(Y..Y))
3800.000000 0.5202 0.5203 0.5205 0.5207 0.5209
3795.000000 0.5210 0.5214 0.5216 0.5218 0.5220
3790.000000 0.5223 0.5225 0.5227 0.5229 0.5232
3785.000000 0.5234 0.5236 0.5238 0.5241 0.5243
3780.000000 0.5245 0.5247 0.5250 0.5252 0.5254
3775.000000 0.5256 0.5259 0.5260 0.5262 0.5265
3770.000000 0.5267 0.5269 0.5271 0.5273 0.5275
3765.000000 0.5277 0.5279 0.5281 0.5283 0.5285
3760.000000 0.5287 0.5289 0.5292 0.5294 0.5296
3755.000000 0.5298 0.5300 0.5302 0.5304 0.5306
3750.000000 0.5308 0.5310 0.5312 0.5315 0.5317
3745.000000 0.5319 0.5322 0.5324 0.5326 0.5328
3740.000000 0.5331 0.5333 0.5335 0.5337 0.5340
3735.000000 0.5342 0.5345 0.5347 0.5349 0.5351
3730.000000 0.5354 0.5356 0.5358 0.5360 0.5362
3725.000000 0.5365 0.5367 0.5369 0.5372 0.5374
3720.000000 0.5377 0.5379 0.5382 0.5384 0.5387
3715.000000 0.5389 0.5391 0.5393 0.5396 0.5398
3710.000000 0.5401 0.5403 0.5406 0.5408 0.5410
3705.000000 0.5412 0.5416 0.5418 0.5421 0.5423
3700.000000 0.5426 0.5428 0.5430 0.5432 0.5435
3695.000000 0.5437 0.5440 0.5442 0.5445 0.5447
3690.000000 0.5450 0.5452 0.5455 0.5457 0.5460
3685.000000 0.5462 0.5465 0.5467 0.5469 0.5471
3680.000000 0.5474 0.5476 0.5478 0.5480 0.5482
3675.000000 0.5484 0.5486 0.5488 0.5490 0.5492
3670.000000 0.5494 0.5496 0.5498 0.5500 0.5502
3665.000000 0.5504 0.5506 0.5508 0.5510 0.5512
3660.000000 0.5514 0.5516 0.5518 0.5520 0.5522
3655.000000 0.5524 0.5526 0.5528 0.5530 0.5532
3650.000000 0.5535 0.5537 0.5539 0.5541 0.5544
3645.000000 0.5546 0.5549 0.5552 0.5555 0.5557
3640.000000 0.5560 0.5562 0.5565 0.5567 0.5570
3635.000000 0.5573 0.5576 0.5578 0.5581 0.5583
3630.000000 0.5586 0.5589 0.5592 0.5594 0.5597
3625.000000 0.5599 0.5602 0.5605 0.5608 0.5610
3620.000000 0.5612 0.5615 0.5617 0.5618 0.5620
3615.000000 0.5622 0.5624 0.5625 0.5627 0.5628
3610.000000 0.5630 0.5632 0.5634 0.5635 0.5637
3605.000000 0.5638 0.5640 0.5641 0.5643 0.5645
3600.000000 0.5647 0.5649 0.5651 0.5652 0.5654
3595.000000 0.5656 0.5658 0.5660 0.5662 0.5662
3590.000000 0.5665 0.5667 0.5669 0.5671 0.5673
3585.000000 0.5674 0.5676 0.5678 0.5680 0.5682
3580.000000 0.5684 0.5685 0.5687 0.5689 0.5691
3575.000000 0.5692 0.5693 0.5694 0.5695 0.5696
3570.000000 0.5697 0.5698 0.5699 0.5700 0.5701
3565.000000 0.5702 0.5704 0.5705 0.5706 0.5707
3560.000000 0.5708 0.5709 0.5710 0.5710 0.5712
3555.000000 0.5712 0.5714 0.5715 0.5716 0.5717
3550.000000 0.5718 0.5719 0.5720 0.5721 0.5722
3545.000000 0.5723 0.5724 0.5725 0.5727 0.5728
3540.000000 0.5729 0.5730 0.5732 0.5733 0.5734
3535.000000 0.5735 0.5737 0.5738 0.5739 0.5740
3530.000000 0.5741 0.5742 0.5744 0.5745 0.5746
3525.000000 0.5747 0.5749 0.5750 0.5751 0.5752
3520.000000 0.5754 0.5755 0.5756 0.5757 0.5759
3515.000000 0.5760 0.5760 0.5762 0.5762 0.5764
3510.000000 0.5766 0.5767 0.5769 0.5770 0.5772
3505.000000 0.5774 0.5776 0.5777 0.5779 0.5781
3500.000000 0.5783 0.5785 0.5787 0.5788 0.5790
3495.000000 0.5792 0.5794 0.5795 0.5797 0.5799
3490.000000 0.5801 0.5802 0.5804 0.5806 0.5808
3485.000000 0.5810 0.5812 0.5812 0.5815 0.5817
3480.000000 0.5819 0.5820 0.5822 0.5824 0.5826
3475.000000 0.5828 0.5830 0.5831 0.5833 0.5835
3470.000000 0.5837 0.5840 0.5843 0.5845 0.5848
3465.000000 0.5851 0.5854 0.5857 0.5860 0.5862
3460.000000 0.5866 0.5869 0.5872 0.5874 0.5877
3455.000000 0.5880 0.5883 0.5886 0.5889 0.5892
3450.000000 0.5895 0.5897 0.5900 0.5903 0.5906
3445.000000 0.5909 0.5912 0.5915 0.5918 0.5920
3440.000000 0.5923 0.5926 0.5929 0.5932 0.5935
3435.000000 0.5938 0.5941 0.5944 0.5947 0.5950
3430.000000 0.5953 0.5955 0.5958 0.5960 0.5964
3425.000000 0.5967 0.5970 0.5973 0.5976 0.5979
3420.000000 0.5982 0.5985 0.5988 0.5991 0.5994
3415.000000 0.5997 0.6000 0.6002 0.6005 0.6008
3410.000000 0.6010 0.6014 0.6017 0.6020 0.6023
3405.000000 0.6026 0.6029 0.6033 0.6038 0.6042
3400.000000 0.6047 0.6051 0.6056 0.6060 0.6065
3395.000000 0.6070 0.6075 0.6079 0.6084 0.6088
3390.000000 0.6093 0.6097 0.6102 0.6106 0.6110
3385.000000 0.6115 0.6120 0.6124 0.6129 0.6134
3380.000000 0.6139 0.6143 0.6148 0.6153 0.6158
3375.000000 0.6162 0.6169 0.6174 0.6180 0.6185
3370.000000 0.6190 0.6195 0.6201 0.6206 0.6212
3365.000000 0.6217 0.6222 0.6227 0.6233 0.6238
3360.000000 0.6244 0.6249 0.6255 0.6260 0.6265
3355.000000 0.6270 0.6276 0.6280 0.6285 0.6289
3350.000000 0.6294 0.6298 0.6303 0.6307 0.6312
3345.000000 0.6316 0.6321 0.6325 0.6330 0.6334
3340.000000 0.6339 0.6343 0.6348 0.6352 0.6357
3335.000000 0.6360 0.6366 0.6369 0.6373 0.6376
3330.000000 0.6380 0.6383 0.6387 0.6390 0.6394
3325.000000 0.6397 0.6401 0.6405 0.6408 0.6411
3320.000000 0.6415 0.6419 0.6424 0.6428 0.6432
3315.000000 0.6436 0.6440 0.6444 0.6449 0.6453
3310.000000 0.6457 0.6461 0.6465 0.6469 0.6474
3305.000000 0.6478 0.6482 0.6485 0.6488 0.6491
3300.000000 0.6494 0.6497 0.6500 0.6503 0.6506
3295.000000 0.6508 0.6511 0.6515 0.6518 0.6521
3290.000000 0.6525 0.6526 0.6530 0.6530 0.6531
3285.000000 0.6532 0.6533 0.6534 0.6535 0.6535
3280.000000 0.6536 0.6537 0.6538 0.6538 0.6538
3275.000000 0.6538 0.6538 0.6538 0.6538 0.6538
3270.000000 0.6538 0.6538 0.6538 0.6537 0.6537
3265.000000 0.6536 0.6536 0.6535 0.6535 0.6534
3260.000000 0.6533 0.6532 0.6532 0.6531 0.6531
3255.000000 0.6530 0.6528 0.6528 0.6528 0.6528
3250.000000 0.6528 0.6528 0.6528 0.6526 0.6525
3245.000000 0.6522 0.6521 0.6518 0.6515 0.6512
3240.000000 0.6511 0.6508 0.6505 0.6501 0.6500
3235.000000 0.6497 0.6495 0.6492 0.6490 0.6487
3230.000000 0.6484 0.6476 0.6469 0.6461 0.6451
3225.000000 0.6443 0.6434 0.6425 0.6417 0.6408
3220.000000 0.6401 0.6392 0.6384 0.6375 0.6367
3215.000000 0.6359 0.6351 0.6342 0.6334 0.6325
3210.000000 0.6317 0.6309 0.6301 0.6290 0.6280
3205.000000 0.6269 0.6258 0.6247 0.6236 0.6225
3200.000000 0.6215 0.6204 0.6193 0.6182 0.6171
3195.000000 0.6160 0.6150 0.6139 0.6128 0.6117
3190.000000 0.6107 0.6096 0.6085 0.6073 0.6060
3185.000000 0.6049 0.6037 0.6025 0.6014 0.6007
3180.000000 0.6000 0.5994 0.5988 0.5981 0.5975
3175.000000 0.5968 0.5962 0.5949 0.5937 0.5924
3170.000000 0.5912 0.5899 0.5887 0.5874 0.5860
3165.000000 0.5848 0.5836 0.5820 0.5804 0.5786
3160.000000 0.5769 0.5751 0.5734 0.5716 0.5699
3155.000000 0.5681 0.5664 0.5646 0.5629 0.5607
3150.000000 0.5586 0.5565 0.5544 0.5522 0.5501
3145.000000 0.5479 0.5458 0.5436 0.5415 0.5393
3140.000000 0.5372 0.5349 0.5327 0.5304 0.5281
3135.000000 0.5258 0.5235 0.5212 0.5190 0.5167
3130.000000 0.5144 0.5125 0.5107 0.5096 0.5086
3125.000000 0.5076 0.5066 0.5055 0.5045 0.5034
3120.000000 0.5024 0.5012 0.5003 0.4993 0.4983
3115.000000 0.4974 0.4966 0.4957 0.4949 0.4940
3110.000000 0.4932 0.4923 0.4915 0.4906 0.4898
3105.000000 0.4889 0.4881 0.4866 0.4851 0.4830
3100.000000 0.4810 0.4789 0.4769 0.4749 0.4729
3095.000000 0.4708 0.4688 0.4667 0.4647 0.4626
3090.000000 0.4606 0.4585 0.4565 0.4542 0.4520
3085.000000 0.4491 0.4462 0.4433 0.4404 0.4375
3080.000000 0.4346 0.4295 0.4244 0.4188 0.4132
3075.000000 0.3975 0.3818 0.3708 0.3598 0.3514
3070.000000 0.3432 0.3392 0.3350 0.3318 0.3286
3065.000000 0.3009 0.2689 0.2772 0.2812 0.2852
3060.000000 0.2892 0.2932 0.2972 0.2995 0.3018
3055.000000 0.3006 0.2989 0.2983 0.2972 0.2960
3050.000000 0.2949 0.2937 0.2926 0.2914 0.2902
3045.000000 0.2888 0.2874 0.2859 0.2844 0.2827
3040.000000 0.2810 0.2792 0.2775 0.2758 0.2741
3035.000000 0.2724 0.2707 0.2684 0.2661 0.2628
3030.000000 0.2596 0.2563 0.2531 0.2501 0.2471
3025.000000 0.2449 0.2428 0.2406 0.2384 0.2364
3020.000000 0.2343 0.2321 0.2300 0.2280 0.2260
3015.000000 0.2240 0.2221 0.2202 0.2184 0.2173
3010.000000 0.2162 0.2151 0.2140 0.2128 0.2117
3005.000000 0.2106 0.2095 0.2084 0.2076 0.2068
3000.000000 0.2060 0.2052 0.2044 0.2035 0.2028
2995.000000 0.2020 0.2012 0.2004 0.1995 0.1986
2990.000000 0.1979 0.1971 0.1963 0.1954 0.1945
2985.000000 0.1936 0.1929 0.1920 0.1911 0.1902
2980.000000 0.1894 0.1884 0.1877 0.1868 0.1859
2975.000000 0.1850 0.1842 0.1833 0.1825 0.1816
2970.000000 0.1807 0.1798 0.1790 0.1781 0.1772
2965.000000 0.1758 0.1744 0.1729 0.1716 0.1702
2960.000000 0.1687 0.1673 0.1659 0.1644 0.1631
2955.000000 0.1617 0.1603 0.1587 0.1572 0.1554
2950.000000 0.1537 0.1519 0.1502 0.1484 0.1467
2945.000000 0.1449 0.1432 0.1412 0.1392 0.1371
2940.000000 0.1350 0.1328 0.1307 0.1285 0.1264
2935.000000 0.1246 0.1231 0.1217 0.1203 0.1189
2930.000000 0.1176 0.1162 0.1148 0.1134 0.1121
2925.000000 0.1112 0.1104 0.1095 0.1087 0.1078
2920.000000 0.1070 0.1061 0.1053 0.1044 0.1036
2915.000000 0.1029 0.1022 0.1018 0.1014 0.1009
2910.000000 0.1005 0.1000 0.0996 0.0991 0.0986
2905.000000 0.0981 0.0976 0.0972 0.0968 0.0963
2900.000000 0.0958 0.0953 0.0949 0.0943 0.0939
2895.000000 0.0934 0.0930 0.0925 0.0920 0.0915
2890.000000 0.0911 0.0906 0.0901 0.0897 0.0896
2885.000000 0.0893 0.0892 0.0889 0.0887 0.0884
2880.000000 0.0882 0.0880 0.0878 0.0875 0.0856
2875.000000 0.0870 0.0868 0.0866 0.0864 0.0861
2870.000000 0.0859 0.0859 0.0859 0.0859 0.0859
2865.000000 0.0859 0.0859 0.0859 0.0859 0.0858
2860.000000 0.0858 0.0858 0.0858 0.0858 0.0858
2855.000000 0.0860 0.0863 0.0866 0.0870 0.0872
2850.000000 0.0876 0.0880 0.0883 0.0886 0.0889
2845.000000 0.0891 0.0893 0.0896 0.0899 0.0902
2840.000000 0.0905 0.0909 0.0913 0.0916 0.0920
2835.000000 0.0929 0.0938 0.0947 0.0958 0.0969
2830.000000 0.0980 0.0995 0.1010 0.1025 0.1041
2825.000000 0.1056 0.1072 0.1087 0.1102 0.1117
2820.000000 0.1133 0.1152 0.1172 0.1192 0.1214
2815.000000 0.1235 0.1256 0.1277 0.1298 0.1319
2810.000000 0.1340 0.1361 0.1383 0.1400 0.1418
2805.000000 0.1434 0.1451 0.1467 0.1484 0.1500
2800.000000 0.1517 0.1533 0.1550 0.1566 0.1583
2795.000000 0.1599 0.1616 0.1632 0.1649 0.1659
2790.000000 0.1670 0.1679 0.1691 0.1701 0.1711
2785.000000 0.1721 0.1731 0.1741 0.1751 0.1761
2780.000000 0.1771 0.1781 0.1791 0.1801 0.1812
2775.000000 0.1821 0.1829 0.1837 0.1846 0.1854
2770.000000 0.1863 0.1871 0.1879 0.1886 0.1894
2765.000000 0.1903 0.1912 0.1920 0.1928 0.1934
2760.000000 0.1942 0.1949 0.1956 0.1963 0.1971
2755.000000 0.1978 0.1984 0.1992 0.1999 0.2012
2750.000000 0.2025 0.2037 0.2051 0.2064 0.2077
2745.000000 0.2090 0.2103 0.2116 0.2129 0.2138
2740.000000 0.2148 0.2155 0.2162 0.2169 0.2177
2735.000000 0.2184 0.2191 0.2198 0.2205 0.2211
2730.000000 0.2218 0.2224 0.2230 0.2235 0.2242
2725.000000 0.2248 0.2255 0.2261 0.2267 0.2273
2720.000000 0.2279 0.2284 0.2291 0.2297 0.2304
2715.000000 0.2310 0.2316 0.2328 0.2341 0.2354
2710.000000 0.2368 0.2381 0.2395 0.2409 0.2423
2705.000000 0.2435 0.2450 0.2463 0.2476 0.2488
2700.000000 0.2501 0.2513 0.2526 0.2538 0.2551
2695.000000 0.2563 0.2576 0.2589 0.2602 0.2614
2690.000000 0.2627 0.2639 0.2651 0.2663 0.2676
2685.000000 0.2688 0.2700 0.2712 0.2725 0.2737
2680.000000 0.2749 0.2761 0.2774 0.2785 0.2798
2675.000000 0.2810 0.2822 0.2833 0.2844 0.2855
2670.000000 0.2866 0.2877 0.2889 0.2900 0.2911
2665.000000 0.2922 0.2934 0.2945 0.2956 0.2968
2660.000000 0.2980 0.2993 0.3006 0.3019 0.3033
2655.000000 0.3046 0.3060 0.3070 0.3081 0.3089
2650.000000 0.3098 0.3106 0.3114 0.3122 0.3130
2645.000000 0.3138 0.3146 0.3155 0.3165 0.3178
2640.000000 0.3192 0.3193 0.3195 0.3197 0.3199
2635.000000 0.3200 0.3223 0.3203 0.3203 0.3202
2630.000000 0.3200 0.3197 0.3195 0.3192 0.3190
2625.000000 0.3188 0.3185 0.3183 0.3181 0.3178
2620.000000 0.3176 0.3171 0.3167 0.3161 0.3156
2615.000000 0.3151 0.3147 0.3145 0.3143 0.3141
2610.000000 0.3139 0.3134 0.3132 0.3128 0.3125
2605.000000 0.3121 0.3118 0.3114 0.3111 0.3107
2600.000000 0.3104 0.3100 0.3096 0.3092 0.3089
2595.000000 0.3056 0.3023 0.2999 0.2975 0.2951
2590.000000 0.2928 0.2904 0.2881 0.2857 0.2833
2585.000000 0.2800 0.2768 0.2734 0.2703 0.2674
2580.000000 0.2646 0.2625 0.2605 0.2584 0.2563
2575.000000 0.2542 0.2521 0.2500 0.2480 0.2459
2570.000000 0.2438 0.2412 0.2387 0.2357 0.2328
2565.000000 0.2293 0.2259 0.2220 0.2182 0.2163
2560.000000 0.2145 0.2131 0.2117 0.2109 0.2102
2555.000000 0.2095 0.2060 0.2084 0.2082 0.2081
2550.000000 0.2081 0.2081 0.2081 0.2102 0.2124
2545.000000 0.2147 0.2170 0.2205 0.2241 0.2281
2540.000000 0.2321 0.2360 0.2400 0.2437 0.2474
2535.000000 0.2505 0.2537 0.2568 0.2600 0.2632
2530.000000 0.2664 0.2695 0.2727 0.2758 0.2790
2525.000000 0.2821 0.2853 0.2884 0.2917 0.2966
2520.000000 0.3015 0.3069 0.3124 0.3178 0.3232
2515.000000 0.3286 0.3340 0.3386 0.3432 0.3479
2510.000000 0.3525 0.3571 0.3618 0.3659 0.3702
2505.000000 0.3730 0.3759 0.3787 0.3814 0.3843
2500.000000 0.3872 0.3900 0.3929 0.3957 0.3984
2495.000000 0.4012 0.4042 0.4070 0.4099 0.4126
2490.000000 0.4154 0.4181 0.4208 0.4235 0.4262
2485.000000 0.4289 0.4316 0.4343 0.4370 0.4397
2480.000000 0.4424 0.4451 0.4478 0.4505 0.4532
2475.000000 0.4555 0.4579 0.4598 0.4617 0.4636
2470.000000 0.4655 0.4674 0.4693 0.4712 0.4731
2465.000000 0.4750 0.4769 0.4788 0.4807 0.4826
2460.000000 0.4846 0.4865 0.4884 0.4903 0.4922
2455.000000 0.4941 0.4960 0.4979 0.4998 0.5017
2450.000000 0.5036 0.5048 0.5060 0.5073 0.5086
2445.000000 0.5098 0.5110 0.5123 0.5135 0.5147
2440.000000 0.5160 0.5172 0.5185 0.5197 0.5209
2435.000000 0.5221 0.5234 0.5246 0.5259 0.5271
2430.000000 0.5283 0.5295 0.5308 0.5320 0.5333
2425.000000 0.5345 0.5357 0.5369 0.5382 0.5394
2420.000000 0.5407 0.5419 0.5431 0.5443 0.5456
2415.000000 0.5467 0.5478 0.5489 0.5501 0.5512
2410.000000 0.5523 0.5534 0.5545 0.5556 0.5568
2405.000000 0.5579 0.5590 0.5601 0.5612 0.5623
2400.000000 0.5635 0.5646 0.5657 0.5668 0.5679
2395.000000 0.5690 0.5701 0.5712 0.5724 0.5735
2390.000000 0.5746 0.5757 0.5768 0.5777 0.5787
2385.000000 0.5796 0.5806 0.5815 0.5824 0.5833
2380.000000 0.5842 0.5851 0.5860 0.5869 0.5879
2375.000000 0.5888 0.5897 0.5906 0.5915 0.5924
2370.000000 0.5934 0.5943 0.5952 0.5960 0.5970
2365.000000 0.5979 0.5989 0.5997 0.6006 0.6012
2360.000000 0.6021 0.6029 0.6037 0.6044 0.6052
2355.000000 0.6059 0.6067 0.6075 0.6083 0.6090
2350.000000 0.6098 0.6105 0.6112 0.6121 0.6129
2345.000000 0.6136 0.6144 0.6151 0.6158 0.6164
2340.000000 0.6171 0.6177 0.6184 0.6190 0.6197
2335.000000 0.6203 0.6210 0.6216 0.6223 0.6230
2330.000000 0.6237 0.6243 0.6250 0.6256 0.6262
2325.000000 0.6269 0.6276 0.6282 0.6289 0.6295
2320.000000 0.6302 0.6309 0.6316 0.6322 0.6329
2315.000000 0.6336 0.6343 0.6349 0.6356 0.6362
2310.000000 0.6370 0.6376 0.6383 0.6390 0.6397
2305.000000 0.6403 0.6410 0.6417 0.6424 0.6431
2300.000000 0.6438 0.6446 0.6454 0.6461 0.6468
2295.000000 0.6476 0.6485 0.6492 0.6500 0.6507
2290.000000 0.6515 0.6519 0.6525 0.6531 0.6537
2285.000000 0.6543 0.6549 0.6554 0.6560 0.6565
2280.000000 0.6571 0.6576 0.6583 0.6588 0.6594
2275.000000 0.6600 0.6606 0.6611 0.6617 0.6622
2270.000000 0.6628 0.6631 0.6633 0.6635 0.6638
2265.000000 0.6640 0.6642 0.6644 0.6647 0.6651
2260.000000 0.6656 0.6658 0.6662 0.6661 0.6660
2255.000000 0.6658 0.6657 0.6655 0.6653 0.6651
2250.000000 0.6650 0.6648 0.6647 0.6646 0.6645
2245.000000 0.6643 0.6642 0.6640 0.6639 0.6637
2240.000000 0.6636 0.6633 0.6630 0.6626 0.6625
2235.000000 0.6624 0.6624 0.6628 0.6632 0.6643
2230.000000 0.6654 0.6664 0.6675 0.6686 0.6697
2225.000000 0.6707 0.6718 0.6728 0.6740 0.6750
2220.000000 0.6761 0.6776 0.6794 0.6815 0.6839
2215.000000 0.6861 0.6884 0.6898 0.6911 0.6922
2210.000000 0.6935 0.6947 0.6958 0.6969 0.6982
2205.000000 0.6993 0.7005 0.7015 0.7028 0.7040
2200.000000 0.7051 0.7061 0.7071 0.7080 0.7089
2195.000000 0.7098 0.7107 0.7115 0.7125 0.7134
2190.000000 0.7143 0.7151 0.7161 0.7169 0.7178
2185.000000 0.7188 0.7197 0.7205 0.7212 0.7219
2180.000000 0.7228 0.7236 0.7244 0.7251 0.7258
2175.000000 0.7267 0.7275 0.7276 0.7278 0.7280
2170.000000 0.7281 0.7281 0.7282 0.7286 0.7291
2165.000000 0.7296 0.7301 0.7306 0.7311 0.7317
2160.000000 0.7321 0.7326 0.7333 0.7338 0.7343
2155.000000 0.7348 0.7354 0.7360 0.7365 0.7372
2150.000000 0.7380 0.7386 0.7393 0.7400 0.7407
2145.000000 0.7412 0.7419 0.7425 0.7433 0.7439
2140.000000 0.7446 0.7451 0.7458 0.7465 0.7471
2135.000000 0.7476 0.7484 0.7490 0.7497 0.7503
2130.000000 0.7508 0.7515 0.7521 0.7528 0.7535
2125.000000 0.7541 0.7548 0.7555 0.7561 0.7568
2120.000000 0.7576 0.7584 0.7591 0.7598 0.7605
2115.000000 0.7611 0.7618 0.7625 0.7631 0.7637
2110.000000 0.7643 0.7649 0.7655 0.7660 0.7665
2105.000000 0.7671 0.7678 0.7684 0.7690 0.7695
2100.000000 0.7701 0.7707 0.7712 0.7717 0.7721
2095.000000 0.7724 0.7728 0.7731 0.7735 0.7738
2090.000000 0.7741 0.7744 0.7748 0.7751 0.7755
2085.000000 0.7754 0.7754 0.7753 0.7751 0.7751
2080.000000 0.7750 0.7749 0.7748 0.7747 0.7746
2075.000000 0.7745 0.7744 0.7742 0.7741 0.7740
2070.000000 0.7739 0.7738 0.7737 0.7735 0.7734
2065.000000 0.7732 0.7731 0.7728 0.7728 0.7725
2060.000000 0.7725 0.7722 0.7721 0.7721 0.7719
2055.000000 0.7718 0.7717 0.7715 0.7714 0.7711
2050.000000 0.7711 0.7708 0.7708 0.7706 0.7705
2045.000000 0.7701 0.7700 0.7697 0.7694 0.7691
2040.000000 0.7689 0.7686 0.7684 0.7681 0.7678
2035.000000 0.7674 0.7671 0.7665 0.7661 0.7656
2030.000000 0.7651 0.7646 0.7641 0.7636 0.7631
2025.000000 0.7625 0.7619 0.7612 0.7607 0.7600
2020.000000 0.7593 0.7586 0.7580 0.7572 0.7565
2015.000000 0.7558 0.7550 0.7539 0.7528 0.7517
2010.000000 0.7506 0.7488 0.7471 0.7453 0.7435
2005.000000 0.7417 0.7400 0.7385 0.7369 0.7333
2000.000000 0.7297 0.7254 0.7208 0.7250 0.7292
1995.000000 0.7321 0.7336 0.7351 0.7364 0.7372
1990.000000 0.7382 0.7392 0.7401 0.7408 0.7408
1985.000000 0.7408 0.7410 0.7410 0.7406 0.7401
1980.000000 0.7395 0.7390 0.7385 0.7365 0.7342
1975.000000 0.7325 0.7310 0.7296 0.7283 0.7271
1970.000000 0.7261 0.7250 0.7239 0.7228 0.7218
1965.000000 0.7207 0.7196 0.7180 0.7169 0.7162
1960.000000 0.7158 0.7156 0.7154 0.7151 0.7149
1955.000000 0.7147 0.7143 0.7140 0.7137 0.7133
1950.000000 0.7130 0.7128 0.7128 0.7128 0.7128
1945.000000 0.7128 0.7128 0.7128 0.7128 0.7131
1940.000000 0.7132 0.7134 0.7135 0.7137 0.7138
1935.000000 0.7140 0.7143 0.7147 0.7151 0.7155
1930.000000 0.7158 0.7162 0.7165 0.7165 0.7168
1925.000000 0.7168 0.7168 0.7167 0.7158 0.7151
1920.000000 0.7167 0.7137 0.7211 0.7233 0.7251
1915.000000 0.7269 0.7288 0.7306 0.7324 0.7342
1910.000000 0.7360 0.7378 0.7396 0.7414 0.7426
1905.000000 0.7441 0.7454 0.7468 0.7481 0.7495
1900.000000 0.7508 0.7521 0.7535 0.7549 0.7558
1895.000000 0.7569 0.7580 0.7590 0.7601 0.7611
1890.000000 0.7621 0.7632 0.7642 0.7653 0.7662
1885.000000 0.7674 0.7684 0.7694 0.7705 0.7715
1880.000000 0.7725 0.7736 0.7745 0.7754 0.7764
1875.000000 0.7772 0.7783 0.7792 0.7801 0.7811
1870.000000 0.7821 0.7830 0.7840 0.7849 0.7858
1865.000000 0.7868 0.7876 0.7887 0.7897 0.7907
1860.000000 0.7918 0.7928 0.7939 0.7949 0.7960
1855.000000 0.7969 0.7981 0.7991 0.8001 0.8011
1850.000000 0.8019 0.8026 0.8034 0.8041 0.8048
1845.000000 0.8055 0.8061 0.8068 0.8075 0.8084
1840.000000 0.8091 0.8098 0.8105 0.8111 0.8118
1835.000000 0.8122 0.8126 0.8130 0.8134 0.8137
1830.000000 0.8141 0.8145 0.8148 0.8151 0.8155
1825.000000 0.8158 0.8161 0.8165 0.8171 0.8175
1820.000000 0.8180 0.8184 0.8189 0.8194 0.8198
1815.000000 0.8203 0.8208 0.8212 0.8217 0.8221
1810.000000 0.8225 0.8231 0.8236 0.8242 0.8247
1805.000000 0.8253 0.8259 0.8265 0.8271 0.8275
1800.000000 0.8282 0.8288 0.8294 0.8299 0.8303
1795.000000 0.8308 0.8313 0.8317 0.8321 0.8327
1790.000000 0.8332 0.8336 0.8340 0.8345 0.8349
1785.000000 0.8353 0.8358 0.8362 0.8366 0.8371
1780.000000 0.8375 0.8378 0.8384 0.8388 0.8392
1775.000000 0.8397 0.8401 0.8406 0.8410 0.8414
1770.000000 0.8418 0.8425 0.8432 0.8439 0.8445
1765.000000 0.8452 0.8459 0.8466 0.8471 0.8478
1760.000000 0.8486 0.8493 0.8500 0.8506 0.8513
1755.000000 0.8520 0.8527 0.8533 0.8536 0.8540
1750.000000 0.8544 0.8547 0.8551 0.8554 0.8558
1745.000000 0.8562 0.8565 0.8568 0.8570 0.8571
1740.000000 0.8571 0.8571 0.8573 0.8574 0.8574
1735.000000 0.8575 0.8575 0.8575 0.8577 0.8578
1730.000000 0.8578 0.8580 0.8581 0.8582 0.8584
1725.000000 0.8585 0.8586 0.8588 0.8589 0.8591
1720.000000 0.8592 0.8593 0.8595 0.8596 0.8596
1715.000000 0.8596 0.8595 0.8595 0.8594 0.8593
1710.000000 0.8592 0.8591 0.8590 0.8590 0.8589
1705.000000 0.8588 0.8585 0.8581 0.8575 0.8571
1700.000000 0.8567 0.8563 0.8561 0.8561 0.8561
1695.000000 0.8560 0.8560 0.8560 0.8560 0.8560
1690.000000 0.8567 0.8577 0.8587 0.8601 0.8617
1685.000000 0.8633 0.8649 0.8664 0.8680 0.8696
1680.000000 0.8711 0.8714 0.8714 0.8715 0.8715
1675.000000 0.8716 0.8707 0.8696 0.8686 0.8671
1670.000000 0.8646 0.8625 0.8615 0.8605 0.8595
1665.000000 0.8585 0.8575 0.8571 0.8568 0.8564
1660.000000 0.8560 0.8560 0.8559 0.8560 0.8561
1655.000000 0.8562 0.8563 0.8573 0.8587 0.8602
1650.000000 0.8612 0.8615 0.8618 0.8623 0.8627
1645.000000 0.8631 0.8636 0.8641 0.8645 0.8650
1640.000000 0.8664 0.8680 0.8701 0.8728 0.8756
1635.000000 0.8781 0.8809 0.8841 0.8873 0.8885
1630.000000 0.8884 0.8867 0.8828 0.8770 0.8705
1625.000000 0.8638 0.8575 0.8521 0.8467 0.8225
1620.000000 0.7864 0.7501 0.7140 0.6778 0.6415
1615.000000 0.6054 0.5928 0.5891 0.5636 0.5346
1610.000000 0.5348 0.5455 0.5775 0.6095 0.6415
1605.000000 0.6735 0.7055 0.7375 0.7696 0.8015
1600.000000 0.8221 0.8275 0.8321 0.8345 0.8365
1595.000000 0.8364 0.8363 0.8348 0.8332 0.8282
1590.000000 0.8208 0.8110 0.8010 0.7880 0.7751
1585.000000 0.7554 0.7293 0.7135 0.7134 0.7150
1580.000000 0.7165 0.7190 0.7151 0.7021 0.6846
1575.000000 0.6862 0.6864 0.6864 0.6874 0.6942
1570.000000 0.7047 0.7147 0.7192 0.7165 0.7106
1565.000000 0.7001 0.6853 0.6712 0.5488 0.6025
1560.000000 0.5683 0.5518 0.5526 0.5549 0.5621
1555.000000 0.5727 0.5787 0.5888 0.6151 0.6408
1550.000000 0.6664 0.6921 0.7178 0.7434 0.7591
1545.000000 0.7619 0.7641 0.7642 0.7678 0.7633
1540.000000 0.7621 0.7608 0.7578 0.7539 0.7485
1535.000000 0.7395 0.7278 0.7168 0.7060 0.6951
1530.000000 0.6745 0.6583 0.6382 0.5786 0.5190
1525.000000 0.4595 0.3999 0.2674 0.2808 0.2703
1520.000000 0.3177 0.3772 0.4367 0.4962 0.5558
1515.000000 0.6153 0.6626 0.6626 0.6649 0.6365
1510.000000 0.5597 0.4829 0.4060 0.3293 0.2525
1505.000000 0.1757 0.0989 0.0520 0.0506 0.0467
1500.000000 0.0649 0.0922 0.1196 0.1472 0.1745
1495.000000 0.2009 0.2188 0.2379 0.2581 0.2859
1490.000000 0.3159 0.3473 0.4004 0.4335 0.4666
1485.000000 0.4998 0.5329 0.6093 0.6229 0.6332
1480.000000 0.6434 0.6519 0.6595 0.6669 0.6744
1475.000000 0.6811 0.6875 0.6941 0.7007 0.7065
1470.000000 0.7115 0.7165 0.7215 0.7265 0.7308
1465.000000 0.7344 0.7380 0.7415 0.7451 0.7486
1460.000000 0.7521 0.7547 0.7572 0.7598 0.7622
1455.000000 0.7649 0.7675 0.7701 0.7714 0.7725
1450.000000 0.7738 0.7750 0.7760 0.7768 0.7776
1445.000000 0.7781 0.7782 0.7782 0.7782 0.7778
1440.000000 0.7771 0.7749 0.7745 0.7762 0.7867
1435.000000 0.7911 0.7955 0.8000 0.8034 0.8046
1430.000000 0.8057 0.8068 0.8078 0.8084 0.8083
1425.000000 0.8095 0.8081 0.8078 0.8074 0.8068
1420.000000 0.8064 0.8053 0.8034 0.8012 0.7978
1415.000000 0.7942 0.7890 0.7835 0.7819 0.7801
1410.000000 0.7803 0.7826 0.7869 0.7912 0.7955
1405.000000 0.7997 0.8030 0.8045 0.8060 0.8074
1400.000000 0.8089 0.8104 0.8117 0.8124 0.8130
1395.000000 0.8137 0.8144 0.8230 0.8158 0.8165
1390.000000 0.8171 0.8178 0.8185 0.8192 0.8198
1385.000000 0.8205 0.8211 0.8218 0.8224 0.8230
1380.000000 0.8237 0.8243 0.8250 0.8256 0.8262
1375.000000 0.8268 0.8274 0.8275 0.8278 0.8281
1370.000000 0.8283 0.8285 0.8288 0.8290 0.8292
1365.000000 0.8292 0.8289 0.8285 0.8282 0.8263
1360.000000 0.8244 0.8225 0.8208 0.8202 0.8197
1355.000000 0.8191 0.8188 0.8185 0.8183 0.8154
1350.000000 0.8096 0.7999 0.7890 0.7718 0.7561
1345.000000 0.7461 0.7381 0.7342 0.7310 0.7296
1340.000000 0.7296 0.7296 0.7296 0.7376 0.7441
1335.000000 0.7503 0.7561 0.7610 0.7634 0.7644
1330.000000 0.7649 0.7618 0.7442 0.7350 0.7271
1325.000000 0.7193 0.7112 0.7024 0.6976 0.6930
1320.000000 0.6680 0.6371 0.6060 0.5796 0.5803
1315.000000 0.5800 0.6160 0.6590 0.7018 0.7449
1310.000000 0.7604 0.7617 0.7631 0.7635 0.7636
1305.000000 0.7637 0.7622 0.7608 0.7593 0.7593
1300.000000 0.7593 0.7599 0.7612 0.7626 0.7641
1295.000000 0.7655 0.7672 0.7692 0.7711 0.7730
1290.000000 0.7749 0.7767 0.7786 0.7784 0.7783
1285.000000 0.7781 0.7780 0.7778 0.7774 0.7768
1280.000000 0.7764 0.7758 0.7754 0.7749 0.7743
1275.000000 0.7736 0.7734 0.7734 0.7746 0.7758
1270.000000 0.7769 0.7782 0.7792 0.7798 0.7805
1265.000000 0.7811 0.7818 0.7824 0.7831 0.7837
1260.000000 0.7844 0.7850 0.7853 0.7856 0.7858
1255.000000 0.7862 0.7865 0.7868 0.7869 0.7871
1250.000000 0.7872 0.7875 0.7876 0.7878 0.7878
1245.000000 0.7876 0.7875 0.7889 0.7872 0.7871
1240.000000 0.7868 0.7865 0.7862 0.7860 0.7857
1235.000000 0.7855 0.7851 0.7850 0.7847 0.7845
1230.000000 0.7842 0.7840 0.7837 0.7834 0.7832
1225.000000 0.7828 0.7825 0.7822 0.7815 0.7810
1220.000000 0.7798 0.7769 0.7743 0.7694 0.7638
1215.000000 0.7587 0.7543 0.6975 0.6406 0.5837
1210.000000 0.5269 0.4583 0.4622 0.4620 0.5186
1205.000000 0.6268 0.7350 0.7571 0.7641 0.7672
1200.000000 0.7705 0.7718 0.7721 0.7732 0.7724
1195.000000 0.7718 0.7711 0.7701 0.7685 0.7668
1190.000000 0.7647 0.7525 0.7089 0.7093 0.7099
1185.000000 0.7286 0.7632 0.7635 0.7639 0.7665
1180.000000 0.7756 0.7783 0.7805 0.7808 0.7812
1175.000000 0.7817 0.7821 0.7821 0.7821 0.7821
1170.000000 0.7822 0.7822 0.7822 0.7821 0.7821
1165.000000 0.7849 0.7815 0.7812 0.7810 0.7805
1160.000000 0.7799 0.7793 0.7786 0.7780 0.7774
1155.000000 0.7767 0.7756 0.7744 0.7732 0.7721
1150.000000 0.7705 0.7687 0.7668 0.7650 0.7631
1145.000000 0.7605 0.7546 0.7265 0.7256 0.7253
1140.000000 0.7250 0.7375 0.7626 0.7655 0.7653
1135.000000 0.7675 0.7650 0.7648 0.7639 0.7617
1130.000000 0.7595 0.7572 0.7495 0.7368 0.7245
1125.000000 0.7121 0.7025 0.6936 0.6762 0.6432
1120.000000 0.6102 0.5771 0.5440 0.5109 0.4778
1115.000000 0.4731 0.4720 0.4722 0.4741 0.4789
1110.000000 0.4860 0.5312 0.5828 0.6344 0.6860
1105.000000 0.7203 0.7304 0.7365 0.7403 0.7440
1100.000000 0.7457 0.7460 0.7461 0.7461 0.7462
1095.000000 0.7461 0.7457 0.7453 0.7446 0.7437
1090.000000 0.7428 0.7406 0.7378 0.7351 0.7305
1085.000000 0.7243 0.7078 0.6924 0.6712 0.6701
1080.000000 0.6704 0.6707 0.6708 0.6697 0.6672
1075.000000 0.6625 0.6596 0.6584 0.6592 0.6822
1070.000000 0.6965 0.7001 0.7068 0.7025 0.7025
1065.000000 0.7025 0.7015 0.6997 0.6968 0.6937
1060.000000 0.6911 0.6911 0.6951 0.7046 0.7101
1055.000000 0.7158 0.7291 0.7426 0.7578 0.7669
1050.000000 0.7734 0.7761 0.7771 0.7792 0.7822
1045.000000 0.7854 0.7884 0.7915 0.7945 0.7965
1040.000000 0.7986 0.8006 0.8021 0.8035 0.8035
1035.000000 0.8035 0.8019 0.7993 0.7965 0.7875
1030.000000 0.7725 0.7582 0.7507 0.7612 0.7699
1025.000000 0.7691 0.7540 0.7408 0.7398 0.7403
1020.000000 0.7576 0.7797 0.8010 0.8062 0.8040
1015.000000 0.8039 0.8037 0.8025 0.8007 0.7985
1010.000000 0.7532 0.6938 0.6919 0.7078 0.7333
1005.000000 0.7587 0.7842 0.8080 0.8106 0.8132
1000.000000 0.8158 0.8176 0.8181 0.8185 0.8190
995.000000 0.8194 0.8228 0.8189 0.8184 0.8180
990.000000 0.8174 0.8168 0.8161 0.8155 0.8149
985.000000 0.8143 0.8136 0.8114 0.8091 0.8025
980.000000 0.7971 0.7971 0.7971 0.7969 0.7965
975.000000 0.7960 0.7946 0.7921 0.7804 0.7804
970.000000 0.7811 0.7890 0.7912 0.7918 0.7930
965.000000 0.7951 0.8037 0.8068 0.8094 0.8103
960.000000 0.8111 0.8118 0.8121 0.8124 0.8125
955.000000 0.8125 0.8125 0.8124 0.8108 0.8082
950.000000 0.8055 0.8025 0.7996 0.7971 0.7824
945.000000 0.7865 0.7814 0.7788 0.7895 0.7975
940.000000 0.8036 0.8089 0.8141 0.8187 0.8228
935.000000 0.8230 0.8233 0.8235 0.8237 0.8239
930.000000 0.8241 0.8243 0.8244 0.8246 0.8247
925.000000 0.8249 0.8250 0.8252 0.8253 0.8255
920.000000 0.8256 0.8258 0.8260 0.8262 0.8264
915.000000 0.8266 0.8268 0.8270 0.8271 0.8274
910.000000 0.8275 0.8277 0.8278 0.8281 0.8283
905.000000 0.8285 0.8286 0.8288 0.8290 0.8291
900.000000 0.8294 0.8297 0.8301 0.8304 0.8308
895.000000 0.8311 0.8314 0.8317 0.8317 0.8317
890.000000 0.8317 0.8317 0.8316 0.8316 0.8316
885.000000 0.8316 0.8316 0.8316 0.8315 0.8315
880.000000 0.8315 0.8315 0.8315 0.8314 0.8310
875.000000 0.8307 0.8303 0.8299 0.8295 0.8291
870.000000 0.8286 0.8281 0.8275 0.8268 0.8259
865.000000 0.8245 0.8232 0.8218 0.8180 0.8082
860.000000 0.7961 0.7840 0.7848 0.7865 0.7940
855.000000 0.8014 0.8081 0.8075 0.8069 0.8065
850.000000 0.8081 0.8038 0.8022 0.8005 0.7975
845.000000 0.7838 0.7701 0.7565 0.7428 0.7169
840.000000 0.7171 0.7191 0.7391 0.7591 0.7791
835.000000 0.7971 0.8008 0.8008 0.8008 0.8001
830.000000 0.7990 0.7981 0.7969 0.7940 0.7910
825.000000 0.7880 0.7844 0.7808 0.7771 0.7730
820.000000 0.7665 0.7458 0.7158 0.5790 0.4926
815.000000 0.4062 0.3198 0.2334 0.1470 0.0775
810.000000 0.0784 0.0809 0.0859 0.1318 0.2121
805.000000 0.2924 0.3727 0.4530 0.5333 0.6136
800.000000 0.6939 0.7628 0.7604 0.7405 0.7175
795.000000 0.6857 0.6868 0.6867 0.6864 0.7121
790.000000 0.7435 0.7748 0.7998 0.8081 0.8101
785.000000 0.8118 0.8121 0.8122 0.8125 0.8128
780.000000 0.8130 0.8154 0.8133 0.8135 0.8136
775.000000 0.8138 0.8139 0.8141 0.8142 0.8144
770.000000 0.8145 0.8147 0.8148 0.8151 0.8154
765.000000 0.8157 0.8160 0.8162 0.8165 0.8168
760.000000 0.8171 0.8171 0.8171 0.8169 0.8168
755.000000 0.8168 0.8168 0.8165 0.8160 0.8156
750.000000 0.8151 0.8139 0.8118 0.8098 0.8082
745.000000 0.8074 0.8065 0.8056 0.8049 0.8050
740.000000 0.8050 0.8050 0.8051 0.8050 0.8046
735.000000 0.8042 0.8039 0.8031 0.8017 0.7986
730.000000 0.7945 0.7905 0.7875 0.7832 0.7860
725.000000 0.7858 0.7887 0.7921 0.7960 0.8007
720.000000 0.8057 0.8107 0.8158 0.8208 0.8255
715.000000 0.8296 0.8332 0.8353 0.8374 0.8382
710.000000 0.8387 0.8393 0.8399 0.8396 0.8378
705.000000 0.8356 0.8335 0.8325 0.8317 0.8357
700.000000 0.8433 0.8487 0.8513 0.8538 0.8563
695.000000 0.8586 0.8605 0.8605 0.8604 0.8604
690.000000 0.8604 0.8607 0.8610 0.8612 0.8615
685.000000 0.8617 0.8617 0.8616 0.8615 0.8615
680.000000 0.8614 0.8613 0.8613 0.8611 0.8609
675.000000 0.8608 0.8615 0.8647 0.8701 0.8760
670.000000 0.8833 0.8907 0.8943 0.8941 0.8939
665.000000 0.8371 0.8478 0.8587 0.8695 0.8712
660.000000 0.8716 0.8721 0.8725 0.8731 0.8730
655.000000 0.8728 0.8725 0.8724 0.8718 0.8718
650.000000 0.8652 0.8312 0.7972 0.7633 0.7294
645.000000 0.6708 0.6726 0.7125 0.7525 0.7922
640.000000 0.8028 0.8142 0.8299 0.8478 0.8482
635.000000 0.8486 0.8490 0.8495 0.8499 0.8524
630.000000 0.8549 0.8828 0.8885 0.8941 0.8982
625.000000 0.8993 0.9003 0.9013 0.9024 0.9034
620.000000 0.9044 0.9055 0.9063 0.9068 0.9074
615.000000 0.9080 0.9085 0.9091 0.9096 0.9102
610.000000 0.9107 0.9113 0.9118 0.9124 0.9128
605.000000 0.9135 0.9139 0.9143 0.9146 0.9149
600.000000 0.9152 0.9155 0.9158 0.9162 0.9165
595.000000 0.9168 0.9171 0.9174 0.9178 0.9180
590.000000 0.9182 0.9184 0.9186 0.9188 0.9190
585.000000 0.9192 0.9194 0.9196 0.9198 0.9200
580.000000 0.9201 0.9201 0.9199 0.9198 0.9197
575.000000 0.9195 0.9194 0.9193 0.9191 0.9190
570.000000 0.9188 0.9186 0.9184 0.9182 0.9180
565.000000 0.9178 0.9178 0.9177 0.9177 0.9174
560.000000 0.9166 0.9159 0.9146 0.9103 0.8991
555.000000 0.8777 0.8768 0.8749 0.8928 0.9100
550.000000 0.9098 0.9074 0.9050 0.9004 0.8892
545.000000 0.8515 0.8138 0.7761 0.7385 0.6915
540.000000 0.6936 0.7491 0.8192 0.8863 0.8843
535.000000 0.8874 0.8704 0.8258 0.7812 0.7368
530.000000 0.6922 0.6580 0.6561 0.6748 0.7261
525.000000 0.7775 0.8291 0.8535 0.8571 0.8538
520.000000 0.8528 0.7822 0.5318 0.5544 0.5343
515.000000 0.5343 0.5614 0.6178 0.6743 0.7307
510.000000 0.8075 0.8088 0.8071 0.8051 0.8025
505.000000 0.8000 0.7978 0.7958 0.7939 0.7921
500.000000 0.7903 0.7584 0.7221 0.6858 0.6497
495.000000 0.6134 0.5772 0.5409 0.5047 0.4972
490.000000 0.4983 0.5297 0.5715 0.6133 0.6551
485.000000 0.6969 0.7388 0.7806 0.8072 0.8178
480.000000 0.8250 0.8296 0.8324 0.8339 0.8353
475.000000 0.8367 0.8367 0.8367 0.8362 0.8356
470.000000 0.8344 0.8332 0.8320 0.8302 0.8282
465.000000 0.8251 0.8216 0.8158 0.8081 0.7998
460.000000 0.7908 0.7808 0.7678 0.7650 0.7646
455.000000 0.7641 0.7658 0.7712 0.7751 0.7768
450.000000 0.7768 0.7755 0.7743 0.7731 0.7554
445.000000 0.7421 0.7300 0.7205 0.7139 0.7096
440.000000 0.7072 0.7065 0.7058 0.7051 0.7045
435.000000 0.7038 0.7011 0.6949 0.6887 0.6796
430.000000 0.6701 0.6614 0.6544 0.6475 0.6408
425.000000 0.6378 0.6362 0.6359 0.6355 0.6343
420.000000 0.6275 0.5683 0.5628 0.5574 0.5520
415.000000 0.5465 0.5422 0.5382 0.5343 0.5303
410.000000 0.5262 0.5243 0.5235 0.5230 0.5225
405.000000 0.5220 0.5215 0.5210 0.5208 0.5206
400.000000 0.5205
##END=
