##TITLE=1-CYCLOPENTADIENYL-3-CHLORO-1,1,3,3-TETRAMETHYL DISILOXANE
##JCAMP-DX=4.24
##DATA TYPE=INFRARED SPECTRUM
##CLASS=COBLENTZ
##ORIGIN=WYANDOTTE CHEMICALS CORP., WYANDOTTE, MICHIGAN, USA
##OWNER=COBLENTZ SOCIETY
Collection (C) 2018 copyright by the U.S. Secretary of Commerce
on behalf of the United States of America. All rights reserved.
##DATE=Not specified, most likely prior to 1970
##NAMES=chloro(dimethyl)silyl 1,4-cyclopentadien-1-yl(dimethyl)silyl ether
1-chloro-3-(1,4-cyclopentadien-1-yl)-1,1,3,3-tetramethyldisiloxane
##MOLFORM=C9 H17 Cl O Si2
##SOURCE REFERENCE=COBLENTZ NO. 2828
##$NIST ID=B6002828
##$NIST SOURCE=COBLENTZ
##$NIST IMAGE=cob2828
##SPECTROMETER/DATA SYSTEM=Not specified, most likely a prism, grating, or hybrid spectrometer.
##STATE=LIQUID
##PATH LENGTH=CAPILLARY
##SAMPLING PROCEDURE=TRANSMISSION
##RESOLUTION=4
##DATA PROCESSING=DIGITIZED BY NIST FROM HARD COPY
##XUNITS=MICROMETERS
##YUNITS=TRANSMITTANCE
##XFACTOR=1.000000
##YFACTOR=1
##DELTAX=000.006635
##FIRSTX=2.06
##LASTX=16.0063
##FIRSTY=0.925
##MAXX=16.0063
##MINX=2.06
##MAXY=0.98
##MINY=0.132
##NPOINTS=2103
##XYDATA=(X++(Y..Y))
2.060000 0.9250 0.9270 0.9270 0.9280 0.9280
2.093191 0.9300 0.9320 0.9320 0.9330 0.9330
2.126000 0.9330 0.9330 0.9330 0.9330 0.9350
2.159191 0.9350 0.9350 0.9350 0.9350 0.9350
2.192000 0.9350 0.9350 0.9350 0.9330 0.9330
2.225191 0.9330 0.9330 0.9330 0.9330 0.9330
2.259000 0.9330 0.9330 0.9330 0.9330 0.9350
2.292191 0.9350 0.9350 0.9350 0.9350 0.9370
2.325000 0.9370 0.9370 0.9370 0.9380 0.9380
2.358191 0.9380 0.9380 0.9380 0.9380 0.9380
2.391000 0.9380 0.9380 0.9380 0.9380 0.9380
2.424191 0.9380 0.9380 0.9380 0.9380 0.9380
2.458000 0.9380 0.9380 0.9380 0.9380 0.9380
2.491191 0.9380 0.9380 0.9380 0.9380 0.9380
2.524000 0.9380 0.9380 0.9380 0.9400 0.9400
2.557191 0.9400 0.9400 0.9420 0.9420 0.9420
2.591000 0.9420 0.9420 0.9420 0.9420 0.9420
2.624191 0.9400 0.9400 0.9400 0.9400 0.9400
2.657000 0.9380 0.9380 0.9370 0.9370 0.9370
2.690191 0.9370 0.9370 0.9380 0.9380 0.9380
2.723000 0.9380 0.9420 0.9430 0.9450 0.9470
2.756191 0.9470 0.9470 0.9470 0.9470 0.9450
2.790000 0.9430 0.9400 0.9380 0.9380 0.9380
2.823191 0.9380 0.9380 0.9400 0.9400 0.9400
2.856000 0.9400 0.9420 0.9420 0.9420 0.9420
2.889191 0.9420 0.9420 0.9420 0.9420 0.9420
2.922000 0.9420 0.9420 0.9400 0.9400 0.9400
2.955191 0.9400 0.9380 0.9380 0.9380 0.9380
2.989000 0.9380 0.9380 0.9370 0.9370 0.9370
3.022191 0.9370 0.9370 0.9370 0.9350 0.9350
3.055000 0.9350 0.9350 0.9330 0.9330 0.9330
3.088191 0.9330 0.9350 0.9350 0.9350 0.9350
3.121000 0.9350 0.9350 0.9350 0.9350 0.9330
3.154191 0.9330 0.9330 0.9300 0.9300 0.9280
3.188000 0.9280 0.9250 0.9200 0.9140 0.9040
3.221191 0.8950 0.8850 0.8640 0.8490 0.8470
3.254000 0.8490 0.8570 0.8760 0.8900 0.8970
3.287191 0.9040 0.9090 0.9090 0.9050 0.9020
3.320000 0.8950 0.8850 0.8520 0.7850 0.7150
3.353191 0.6950 0.6940 0.6950 0.7680 0.8160
3.387000 0.8290 0.8710 0.8740 0.8720 0.8670
3.420191 0.8590 0.8490 0.8470 0.8490 0.8540
3.453000 0.8640 0.8710 0.8840 0.8900 0.8950
3.486191 0.9020 0.9050 0.9090 0.9170 0.9200
3.519000 0.9220 0.9250 0.9270 0.9280 0.9280
3.552191 0.9300 0.9330 0.9350 0.9370 0.9370
3.586000 0.9380 0.9380 0.9400 0.9420 0.9430
3.619191 0.9450 0.9470 0.9470 0.9480 0.9520
3.652000 0.9520 0.9550 0.9550 0.9570 0.9570
3.685191 0.9570 0.9580 0.9580 0.9580 0.9600
3.718000 0.9600 0.9600 0.9600 0.9610 0.9610
3.751191 0.9610 0.9610 0.9610 0.9610 0.9610
3.785000 0.9630 0.9630 0.9630 0.9630 0.9630
3.818191 0.9630 0.9630 0.9630 0.9630 0.9630
3.851000 0.9630 0.9630 0.9630 0.9630 0.9630
3.884191 0.9630 0.9630 0.9630 0.9630 0.9630
3.918000 0.9630 0.9630 0.9630 0.9630 0.9630
3.951191 0.9650 0.9650 0.9650 0.9650 0.9660
3.984000 0.9660 0.9660 0.9680 0.9680 0.9700
4.017191 0.9700 0.9710 0.9710 0.9710 0.9710
4.050000 0.9700 0.9700 0.9700 0.9680 0.9680
4.083191 0.9660 0.9660 0.9660 0.9650 0.9650
4.117000 0.9630 0.9630 0.9630 0.9630 0.9610
4.150191 0.9610 0.9610 0.9600 0.9600 0.9600
4.183000 0.9600 0.9600 0.9600 0.9600 0.9600
4.216191 0.9600 0.9610 0.9630 0.9630 0.9650
4.249000 0.9650 0.9680 0.9700 0.9760 0.9780
4.282191 0.9800 0.9800 0.9780 0.9780 0.9760
4.316000 0.9760 0.9750 0.9730 0.9710 0.9710
4.349191 0.9710 0.9710 0.9710 0.9700 0.9700
4.382000 0.9700 0.9700 0.9680 0.9680 0.9680
4.415191 0.9660 0.9660 0.9660 0.9660 0.9660
4.448000 0.9660 0.9680 0.9680 0.9680 0.9700
4.481191 0.9700 0.9710 0.9710 0.9710 0.9710
4.515000 0.9730 0.9730 0.9730 0.9730 0.9730
4.548191 0.9730 0.9730 0.9730 0.9730 0.9730
4.581000 0.9730 0.9730 0.9710 0.9710 0.9710
4.614191 0.9700 0.9700 0.9700 0.9700 0.9700
4.647000 0.9680 0.9680 0.9680 0.9680 0.9700
4.680191 0.9700 0.9700 0.9700 0.9700 0.9700
4.714000 0.9700 0.9700 0.9680 0.9660 0.9660
4.747191 0.9660 0.9660 0.9680 0.9680 0.9680
4.780000 0.9700 0.9710 0.9710 0.9730 0.9750
4.813191 0.9750 0.9730 0.9730 0.9730 0.9730
4.846000 0.9730 0.9730 0.9730 0.9710 0.9710
4.879191 0.9710 0.9700 0.9700 0.9700 0.9700
4.913000 0.9710 0.9710 0.9730 0.9730 0.9760
4.946191 0.9760 0.9760 0.9760 0.9760 0.9760
4.979000 0.9760 0.9760 0.9750 0.9750 0.9750
5.012191 0.9750 0.9750 0.9730 0.9730 0.9730
5.045000 0.9730 0.9730 0.9730 0.9730 0.9730
5.078191 0.9730 0.9730 0.9730 0.9730 0.9710
5.112000 0.9710 0.9700 0.9700 0.9680 0.9680
5.145191 0.9680 0.9650 0.9650 0.9650 0.9630
5.178000 0.9610 0.9610 0.9610 0.9610 0.9610
5.211191 0.9610 0.9610 0.9630 0.9630 0.9630
5.245000 0.9650 0.9650 0.9660 0.9660 0.9680
5.278191 0.9680 0.9700 0.9710 0.9710 0.9710
5.311000 0.9730 0.9730 0.9730 0.9750 0.9750
5.344191 0.9750 0.9750 0.9750 0.9750 0.9750
5.377000 0.9750 0.9750 0.9730 0.9730 0.9730
5.410191 0.9730 0.9730 0.9730 0.9730 0.9730
5.444000 0.9730 0.9730 0.9710 0.9710 0.9700
5.477191 0.9680 0.9660 0.9650 0.9630 0.9630
5.510000 0.9630 0.9630 0.9610 0.9610 0.9610
5.543191 0.9610 0.9610 0.9630 0.9630 0.9650
5.576000 0.9650 0.9650 0.9650 0.9650 0.9650
5.609191 0.9650 0.9650 0.9650 0.9650 0.9650
5.643000 0.9650 0.9650 0.9650 0.9650 0.9630
5.676191 0.9630 0.9630 0.9630 0.9630 0.9630
5.709000 0.9610 0.9610 0.9610 0.9610 0.9610
5.742191 0.9600 0.9600 0.9600 0.9600 0.9600
5.775000 0.9580 0.9580 0.9580 0.9580 0.9580
5.808191 0.9580 0.9580 0.9580 0.9580 0.9570
5.842000 0.9570 0.9570 0.9550 0.9550 0.9550
5.875191 0.9530 0.9530 0.9520 0.9500 0.9480
5.908000 0.9480 0.9480 0.9520 0.9530 0.9530
5.941191 0.9520 0.9520 0.9500 0.9500 0.9470
5.974000 0.9430 0.9400 0.9380 0.9380 0.9370
6.007191 0.9370 0.9350 0.9320 0.9280 0.9270
6.041000 0.9230 0.9220 0.9200 0.9140 0.9100
6.074191 0.9090 0.9020 0.9000 0.8970 0.8950
6.107000 0.8940 0.8940 0.8950 0.8970 0.8990
6.140191 0.9000 0.9050 0.9100 0.9170 0.9200
6.173000 0.9250 0.9280 0.9300 0.9320 0.9320
6.206191 0.9330 0.9350 0.9350 0.9370 0.9380
6.240000 0.9380 0.9400 0.9420 0.9430 0.9430
6.273191 0.9450 0.9450 0.9450 0.9420 0.9400
6.306000 0.9380 0.9370 0.9320 0.9300 0.9300
6.339191 0.9320 0.9330 0.9350 0.9350 0.9350
6.373000 0.9330 0.9320 0.9320 0.9320 0.9320
6.406191 0.9320 0.9330 0.9330 0.9370 0.9380
6.439000 0.9400 0.9400 0.9380 0.9320 0.9320
6.472191 0.9320 0.9320 0.9330 0.9330 0.9350
6.505000 0.9350 0.9370 0.9370 0.9370 0.9350
6.538191 0.9320 0.9300 0.9300 0.9300 0.9300
6.572000 0.9300 0.9300 0.9320 0.9320 0.9330
6.605191 0.9330 0.9320 0.9320 0.9280 0.9270
6.638000 0.9250 0.9230 0.9230 0.9220 0.9220
6.671191 0.9200 0.9190 0.9150 0.9090 0.9070
6.704000 0.9070 0.9070 0.9090 0.9140 0.9170
6.737191 0.9190 0.9200 0.9200 0.9170 0.9170
6.771000 0.9100 0.9000 0.8950 0.8890 0.8790
6.804191 0.8770 0.8770 0.8790 0.8820 0.8850
6.837000 0.8890 0.8890 0.8890 0.8900 0.8920
6.870191 0.8920 0.8940 0.8950 0.8970 0.8970
6.903000 0.8990 0.9000 0.9000 0.9000 0.9000
6.936191 0.9000 0.9000 0.8970 0.8940 0.8920
6.970000 0.8900 0.8890 0.8870 0.8850 0.8820
7.003191 0.8800 0.8760 0.8720 0.8610 0.8490
7.036000 0.8390 0.8290 0.8230 0.8160 0.8090
7.069191 0.8040 0.8010 0.8000 0.7980 0.7980
7.102000 0.7980 0.8000 0.8030 0.8180 0.8240
7.135191 0.8290 0.8330 0.8380 0.8460 0.8510
7.169000 0.8570 0.8640 0.8720 0.8740 0.8770
7.202191 0.8760 0.8570 0.8470 0.8420 0.8410
7.235000 0.8420 0.8660 0.8690 0.8720 0.8790
7.268191 0.8840 0.8850 0.8850 0.8850 0.8840
7.301000 0.8800 0.8790 0.8770 0.8770 0.8790
7.334191 0.8950 0.9020 0.9050 0.9090 0.9120
7.368000 0.9140 0.9140 0.9150 0.9150 0.9140
7.401191 0.9090 0.9040 0.8920 0.8850 0.8840
7.434000 0.8840 0.8840 0.8870 0.8950 0.9000
7.467191 0.9040 0.9070 0.9090 0.9100 0.9120
7.500000 0.9150 0.9200 0.9270 0.9270 0.9280
7.533191 0.9280 0.9280 0.9300 0.9300 0.9300
7.567000 0.9300 0.9280 0.9300 0.9300 0.9300
7.600191 0.9280 0.9280 0.9280 0.9270 0.9250
7.633000 0.9250 0.9220 0.9200 0.9150 0.9120
7.666191 0.9100 0.9090 0.9070 0.9050 0.9050
7.700000 0.9040 0.8990 0.8950 0.8900 0.8850
7.733191 0.8800 0.8740 0.8710 0.8690 0.8670
7.766000 0.8670 0.8660 0.8640 0.8590 0.8540
7.799191 0.8460 0.8420 0.8360 0.8240 0.8080
7.832000 0.7900 0.7660 0.7430 0.7150 0.6850
7.865191 0.6640 0.6410 0.6030 0.5090 0.4080
7.899000 0.3660 0.3230 0.2670 0.2390 0.2090
7.932191 0.2030 0.2030 0.2040 0.2310 0.2660
7.965000 0.2920 0.3250 0.3860 0.4330 0.4850
7.998191 0.5350 0.5910 0.6390 0.7150 0.7450
8.031000 0.7680 0.7880 0.8040 0.8190 0.8310
8.064191 0.8390 0.8490 0.8570 0.8660 0.8760
8.098000 0.8800 0.8820 0.8840 0.8870 0.8920
8.131191 0.8940 0.8950 0.8970 0.8990 0.8990
8.164000 0.8990 0.9000 0.9000 0.9000 0.9000
8.197191 0.9020 0.9020 0.9050 0.9050 0.9070
8.230000 0.9070 0.9090 0.9090 0.9090 0.9070
8.263191 0.9050 0.9020 0.9020 0.9000 0.9000
8.297000 0.8990 0.8990 0.8990 0.8990 0.8990
8.330191 0.8990 0.9000 0.9000 0.9020 0.9040
8.363000 0.9040 0.9040 0.9050 0.9070 0.9070
8.396191 0.9090 0.9120 0.9150 0.9190 0.9190
8.429000 0.9190 0.9190 0.9170 0.9140 0.9140
8.462191 0.9120 0.9100 0.9100 0.9100 0.9090
8.496000 0.9050 0.9040 0.8970 0.8950 0.8950
8.529191 0.8940 0.8920 0.8900 0.8890 0.8870
8.562000 0.8840 0.8820 0.8800 0.8790 0.8770
8.595191 0.8740 0.8720 0.8690 0.8660 0.8610
8.628000 0.8540 0.8510 0.8490 0.8490 0.8470
8.661191 0.8440 0.8360 0.8330 0.8310 0.8230
8.695000 0.8180 0.8160 0.8130 0.8090 0.8000
8.728191 0.7950 0.7830 0.7810 0.7780 0.7750
8.761000 0.7680 0.7580 0.7500 0.7450 0.7400
8.794191 0.7300 0.7190 0.7100 0.7090 0.7020
8.827000 0.6940 0.6800 0.6690 0.6640 0.6570
8.860191 0.6470 0.6380 0.6260 0.6160 0.6040
8.894000 0.5900 0.5760 0.5650 0.5550 0.5500
8.927191 0.5450 0.5320 0.5230 0.5090 0.5000
8.960000 0.4890 0.4790 0.4710 0.4640 0.4560
8.993191 0.4470 0.4340 0.4180 0.3950 0.3830
9.027000 0.3660 0.3550 0.3430 0.3370 0.3300
9.060191 0.3170 0.3050 0.2950 0.2900 0.2850
9.093000 0.2760 0.2660 0.2560 0.2470 0.2410
9.126191 0.2390 0.2330 0.2260 0.2190 0.2160
9.159000 0.2140 0.2110 0.2080 0.2010 0.1950
9.192191 0.1850 0.1730 0.1610 0.1600 0.1570
9.226000 0.1520 0.1500 0.1480 0.1470 0.1470
9.259191 0.1450 0.1430 0.1420 0.1420 0.1400
9.292000 0.1400 0.1380 0.1380 0.1380 0.1370
9.325191 0.1370 0.1380 0.1380 0.1400 0.1420
9.358000 0.1430 0.1450 0.1470 0.1500 0.1530
9.391191 0.1600 0.1650 0.1710 0.1780 0.1800
9.425000 0.1810 0.1830 0.1880 0.2030 0.2040
9.458191 0.2110 0.2160 0.2260 0.2390 0.2440
9.491000 0.2490 0.2540 0.2660 0.2820 0.2890
9.524191 0.2920 0.2990 0.3050 0.3170 0.3300
9.557000 0.3400 0.3450 0.3530 0.3610 0.3730
9.590191 0.3850 0.3960 0.4060 0.4140 0.4230
9.624000 0.4360 0.4510 0.4620 0.4690 0.4760
9.657191 0.4820 0.4970 0.5120 0.5190 0.5250
9.690000 0.5380 0.5520 0.5630 0.5660 0.5750
9.723191 0.5900 0.6030 0.6140 0.6180 0.6260
9.756000 0.6340 0.6440 0.6520 0.6610 0.6640
9.789191 0.6790 0.6840 0.6850 0.6890 0.6920
9.823000 0.6920 0.6900 0.6900 0.6870 0.6840
9.856191 0.6840 0.6850 0.6870 0.6940 0.7050
9.889000 0.7170 0.7220 0.7270 0.7300 0.7320
9.922191 0.7330 0.7370 0.7400 0.7400 0.7380
9.955000 0.7370 0.7330 0.7300 0.7280 0.7200
9.988191 0.7120 0.7020 0.6920 0.6790 0.6710
10.022000 0.6620 0.6520 0.6410 0.6280 0.6210
10.055191 0.6160 0.6080 0.5980 0.5960 0.5880
10.088000 0.5660 0.5600 0.5500 0.5400 0.5280
10.121191 0.5220 0.5120 0.5000 0.4920 0.4820
10.155000 0.4740 0.4640 0.4590 0.4560 0.4520
10.188191 0.4460 0.4420 0.4420 0.4440 0.4470
10.221000 0.4510 0.4590 0.4690 0.4760 0.4890
10.254191 0.4970 0.5070 0.5150 0.5300 0.5480
10.287000 0.5630 0.5730 0.5880 0.6030 0.6140
10.320191 0.6280 0.6410 0.6520 0.6660 0.6920
10.354000 0.6970 0.7050 0.7200 0.7320 0.7420
10.387191 0.7470 0.7480 0.7500 0.7520 0.7520
10.420000 0.7520 0.7480 0.7420 0.7400 0.7330
10.453191 0.7230 0.7090 0.6890 0.6670 0.6560
10.486000 0.6420 0.6140 0.5880 0.5610 0.5370
10.519191 0.5050 0.4840 0.4820 0.4820 0.4850
10.553000 0.4990 0.5150 0.5350 0.5710 0.5960
10.586191 0.6180 0.6410 0.6610 0.7000 0.7220
10.619000 0.7380 0.7530 0.7630 0.7710 0.7760
10.652191 0.7860 0.7980 0.8000 0.8010 0.8060
10.685000 0.8180 0.8230 0.8280 0.8290 0.8310
10.718191 0.8310 0.8340 0.8340 0.8340 0.8360
10.752000 0.8360 0.8380 0.8380 0.8390 0.8390
10.785191 0.8390 0.8420 0.8440 0.8460 0.8460
10.818000 0.8490 0.8490 0.8490 0.8490 0.8490
10.851191 0.8490 0.8470 0.8460 0.8460 0.8440
10.884000 0.8420 0.8410 0.8390 0.8390 0.8360
10.917191 0.8340 0.8330 0.8310 0.8280 0.8230
10.951000 0.8180 0.8130 0.8080 0.8000 0.7930
10.984191 0.7830 0.7730 0.7610 0.7470 0.7280
11.017000 0.7200 0.7190 0.7190 0.7200 0.7250
11.050191 0.7380 0.7400 0.7430 0.7480 0.7550
11.083000 0.7650 0.7650 0.7650 0.7630 0.7610
11.116191 0.7600 0.7580 0.7570 0.7570 0.7550
11.150000 0.7530 0.7530 0.7530 0.7550 0.7550
11.183191 0.7580 0.7650 0.7680 0.7710 0.7760
11.216000 0.7810 0.7850 0.7860 0.7880 0.7900
11.249191 0.7900 0.7900 0.7900 0.7880 0.7880
11.282000 0.7860 0.7860 0.7860 0.7850 0.7850
11.315191 0.7830 0.7810 0.7760 0.7730 0.7710
11.349000 0.7710 0.7660 0.7630 0.7530 0.7520
11.382191 0.7480 0.7470 0.7430 0.7400 0.7350
11.415000 0.7300 0.7280 0.7270 0.7200 0.7170
11.448191 0.7140 0.7120 0.7070 0.7020 0.6990
11.482000 0.6890 0.6760 0.6710 0.6690 0.6660
11.515191 0.6620 0.6570 0.6510 0.6420 0.6330
11.548000 0.6280 0.6210 0.6060 0.5930 0.5910
11.581191 0.5830 0.5760 0.5710 0.5650 0.5570
11.614000 0.5400 0.5300 0.5230 0.5140 0.5040
11.647191 0.4950 0.4920 0.4890 0.4820 0.4740
11.681000 0.4690 0.4670 0.4670 0.4660 0.4660
11.714191 0.4660 0.4670 0.4710 0.4760 0.4790
11.747000 0.4800 0.4820 0.4850 0.4890 0.4940
11.780191 0.4970 0.5020 0.5050 0.5100 0.5120
11.813000 0.5140 0.5170 0.5190 0.5200 0.5220
11.846191 0.5220 0.5220 0.5220 0.5200 0.5190
11.880000 0.5190 0.5170 0.5140 0.5140 0.5100
11.913191 0.5050 0.5000 0.4990 0.4940 0.4890
11.946000 0.4840 0.4770 0.4690 0.4610 0.4520
11.979191 0.4420 0.4340 0.4260 0.4160 0.4010
12.012000 0.3800 0.3760 0.3710 0.3550 0.3420
12.045191 0.3370 0.3300 0.3220 0.3190 0.3100
12.079000 0.3000 0.2950 0.2920 0.2870 0.2850
12.112191 0.2840 0.2840 0.2850 0.2870 0.2890
12.145000 0.2900 0.2900 0.2920 0.2940 0.2940
12.178191 0.2950 0.2950 0.2940 0.2940 0.2920
12.211000 0.2900 0.2890 0.2820 0.2800 0.2770
12.244191 0.2740 0.2710 0.2670 0.2660 0.2660
12.278000 0.2670 0.2670 0.2690 0.2690 0.2710
12.311191 0.2720 0.2720 0.2740 0.2740 0.2740
12.344000 0.2740 0.2690 0.2660 0.2620 0.2520
12.377191 0.2440 0.2380 0.2330 0.2280 0.2180
12.410000 0.2030 0.1960 0.1930 0.1810 0.1780
12.443191 0.1710 0.1630 0.1530 0.1480 0.1430
12.477000 0.1420 0.1370 0.1350 0.1330 0.1320
12.510191 0.1320 0.1320 0.1330 0.1350 0.1380
12.543000 0.1400 0.1470 0.1500 0.1520 0.1550
12.576191 0.1650 0.1730 0.1760 0.1910 0.2010
12.609000 0.2140 0.2260 0.2390 0.2510 0.2640
12.642191 0.2770 0.2890 0.3020 0.3140 0.3270
12.676000 0.3680 0.3810 0.3930 0.4040 0.4160
12.709191 0.4310 0.4460 0.4570 0.4690 0.4790
12.742000 0.4890 0.4970 0.5050 0.5140 0.5220
12.775191 0.5280 0.5370 0.5430 0.5520 0.5600
12.809000 0.5700 0.5800 0.5900 0.6010 0.6110
12.842191 0.6190 0.6290 0.6360 0.6440 0.6510
12.875000 0.6570 0.6620 0.6760 0.6800 0.6870
12.908191 0.6940 0.6950 0.6970 0.6990 0.7020
12.941000 0.7050 0.7070 0.7070 0.7050 0.7040
12.974191 0.7000 0.6990 0.6950 0.6890 0.6770
13.008000 0.6690 0.6660 0.6620 0.6540 0.6380
13.041191 0.6280 0.6210 0.6080 0.5960 0.5810
13.074000 0.5660 0.5520 0.5420 0.5330 0.5270
13.107191 0.5170 0.5090 0.5070 0.5070 0.5070
13.140000 0.5090 0.5170 0.5270 0.5350 0.5450
13.173191 0.5550 0.5660 0.5780 0.5900 0.6000
13.207000 0.6110 0.6210 0.6310 0.6390 0.6470
13.240191 0.6520 0.6590 0.6640 0.6760 0.6800
13.273000 0.6870 0.6890 0.6900 0.6940 0.6970
13.306191 0.6970 0.6970 0.6970 0.6950 0.6920
13.339000 0.6900 0.6870 0.6790 0.6770 0.6720
13.372191 0.6690 0.6670 0.6640 0.6590 0.6520
13.406000 0.6470 0.6420 0.6380 0.6340 0.6340
13.439191 0.6330 0.6330 0.6330 0.6330 0.6330
13.472000 0.6360 0.6470 0.6510 0.6570 0.6660
13.505191 0.6820 0.6840 0.6870 0.6940 0.6990
13.538000 0.7070 0.7140 0.7190 0.7220 0.7230
13.571191 0.7250 0.7280 0.7320 0.7330 0.7350
13.605000 0.7350 0.7350 0.7350 0.7350 0.7330
13.638191 0.7330 0.7320 0.7300 0.7280 0.7280
13.671000 0.7270 0.7230 0.7200 0.7190 0.7150
13.704191 0.7050 0.7000 0.6990 0.6950 0.6920
13.737000 0.6820 0.6790 0.6740 0.6690 0.6660
13.770191 0.6620 0.6560 0.6520 0.6470 0.6390
13.804000 0.6360 0.6330 0.6290 0.6280 0.6260
13.837191 0.6260 0.6240 0.6240 0.6240 0.6240
13.870000 0.6260 0.6260 0.6280 0.6310 0.6360
13.903191 0.6380 0.6410 0.6460 0.6510 0.6540
13.936000 0.6570 0.6610 0.6640 0.6660 0.6710
13.969191 0.6720 0.6720 0.6720 0.6740 0.6740
14.003000 0.6740 0.6740 0.6720 0.6720 0.6710
14.036191 0.6690 0.6660 0.6640 0.6620 0.6590
14.069000 0.6570 0.6540 0.6520 0.6470 0.6440
14.102191 0.6390 0.6360 0.6290 0.6240 0.6180
14.136000 0.6090 0.6080 0.6060 0.6000 0.5910
14.169191 0.5800 0.5700 0.5600 0.5570 0.5480
14.202000 0.5370 0.5300 0.5220 0.5150 0.5090
14.235191 0.5050 0.5000 0.4970 0.4950 0.4940
14.268000 0.4920 0.4900 0.4890 0.4890 0.4900
14.301191 0.4920 0.4970 0.5000 0.5040 0.5050
14.335000 0.5070 0.5100 0.5120 0.5140 0.5190
14.368191 0.5230 0.5270 0.5300 0.5370 0.5420
14.401000 0.5470 0.5530 0.5570 0.5580 0.5610
14.434191 0.5660 0.5680 0.5700 0.5730 0.5760
14.467000 0.5760 0.5780 0.5780 0.5800 0.5810
14.500191 0.5810 0.5830 0.5850 0.5850 0.5830
14.534000 0.5810 0.5800 0.5780 0.5780 0.5780
14.567191 0.5800 0.5810 0.5830 0.5830 0.5830
14.600000 0.5810 0.5780 0.5760 0.5760 0.5760
14.633191 0.5760 0.5760 0.5760 0.5780 0.5810
14.666000 0.5860 0.5900 0.5910 0.5930 0.5960
14.699191 0.6000 0.6040 0.6060 0.6090 0.6210
14.733000 0.6260 0.6290 0.6330 0.6410 0.6460
14.766191 0.6540 0.6590 0.6610 0.6640 0.6740
14.799000 0.6800 0.6850 0.6890 0.6900 0.6920
14.832191 0.6940 0.6970 0.6990 0.7040 0.7090
14.865000 0.7100 0.7100 0.7140 0.7150 0.7170
14.898191 0.7170 0.7200 0.7200 0.7200 0.7200
14.932000 0.7200 0.7190 0.7170 0.7170 0.7170
14.965191 0.7170 0.7170 0.7170 0.7150 0.7120
14.998000 0.7120 0.7100 0.7100 0.7100 0.7090
15.031191 0.7050 0.7020 0.6990 0.6970 0.6970
15.064000 0.6990 0.7020 0.7050 0.7070 0.7090
15.097191 0.7100 0.7140 0.7170 0.7200 0.7230
15.131000 0.7250 0.7270 0.7280 0.7320 0.7330
15.164191 0.7330 0.7350 0.7370 0.7380 0.7400
15.197000 0.7450 0.7470 0.7480 0.7480 0.7500
15.230191 0.7500 0.7520 0.7520 0.7530 0.7530
15.264000 0.7530 0.7550 0.7550 0.7550 0.7570
15.297191 0.7570 0.7580 0.7610 0.7630 0.7630
15.330000 0.7600 0.7530 0.7500 0.7480 0.7480
15.363191 0.7470 0.7470 0.7450 0.7450 0.7420
15.396000 0.7420 0.7400 0.7400 0.7400 0.7420
15.429191 0.7420 0.7420 0.7420 0.7400 0.7380
15.463000 0.7370 0.7370 0.7370 0.7370 0.7380
15.496191 0.7420 0.7470 0.7500 0.7520 0.7550
15.529000 0.7550 0.7550 0.7570 0.7570 0.7600
15.562191 0.7610 0.7630 0.7660 0.7680 0.7680
15.595000 0.7680 0.7680 0.7700 0.7730 0.7750
15.628191 0.7760 0.7760 0.7760 0.7760 0.7760
15.662000 0.7760 0.7750 0.7750 0.7750 0.7760
15.695191 0.7760 0.7760 0.7760 0.7760 0.7760
15.728000 0.7760 0.7760 0.7750 0.7750 0.7750
15.761191 0.7750 0.7750 0.7750 0.7730 0.7730
15.794000 0.7730 0.7730 0.7730 0.7730 0.7730
15.827191 0.7730 0.7710 0.7710 0.7710 0.7700
15.861000 0.7700 0.7680 0.7660 0.7630 0.7610
15.894191 0.7610 0.7630 0.7650 0.7660 0.7660
15.927000 0.7660 0.7660 0.7660 0.7650 0.7630
15.960191 0.7610 0.7580 0.7570 0.7570 0.7570
15.993000 0.7550 0.7570 0.7570
##END=
