##TITLE=SODIUM MOLYBDATE
$$ A.R.
##JCAMP-DX=4.24
##DATA TYPE=INFRARED SPECTRUM
##CLASS=COBLENTZ
##ORIGIN=MELLON INSTITUTE
##OWNER=COBLENTZ SOCIETY
Collection (C) 2018 copyright by the U.S. Secretary of Commerce
on behalf of the United States of America. All rights reserved.
##DATE=Not specified, most likely prior to 1970
##MOLFORM=Na2 Mo O4  * 2 H2 O
##SOURCE REFERENCE=COBLENTZ NO. 473
##$NIST ID=B6000473
##$NIST SOURCE=COBLENTZ
##$NIST IMAGE=cob473
##SPECTROMETER/DATA SYSTEM=Not specified, most likely a prism, grating, or hybrid spectrometer.
##STATE=SOLID (NUJOL MULL)
##PATH LENGTH=
$$SPECTRAL CONTAMINATION DUE TO OIL AROUND 2900, 1450, 1380 CM^-^1
##SAMPLING PROCEDURE=TRANSMISSION
##RESOLUTION=4
##DATA PROCESSING=DIGITIZED BY NIST FROM HARD COPY
##XUNITS=MICROMETERS
##YUNITS=TRANSMITTANCE
##XFACTOR=1.000000
##YFACTOR=1
##DELTAX=000.006815
##FIRSTX=2.025
##LASTX=15.9767
##FIRSTY=0.751
##MAXX=15.9767
##MINX=2.025
##MAXY=0.936
##MINY=0.135
##NPOINTS=2048
##XYDATA=(X++(Y..Y))
2.025000 0.7510 0.7510 0.7510 0.7510 0.7510
2.059093 0.7510 0.7510 0.7510 0.7530 0.7530
2.094000 0.7530 0.7530 0.7530 0.7540 0.7560
2.128093 0.7560 0.7560 0.7560 0.7560 0.7560
2.162000 0.7580 0.7580 0.7580 0.7590 0.7590
2.196093 0.7590 0.7590 0.7590 0.7610 0.7610
2.230000 0.7630 0.7630 0.7630 0.7630 0.7650
2.264093 0.7650 0.7650 0.7660 0.7660 0.7660
2.298000 0.7660 0.7660 0.7660 0.7660 0.7660
2.332093 0.7680 0.7700 0.7700 0.7700 0.7700
2.366000 0.7710 0.7710 0.7710 0.7710 0.7730
2.400093 0.7750 0.7730 0.7750 0.7750 0.7770
2.434000 0.7770 0.7770 0.7770 0.7780 0.7800
2.468093 0.7800 0.7800 0.7800 0.7800 0.7820
2.502000 0.7820 0.7820 0.7820 0.7820 0.7830
2.536093 0.7830 0.7830 0.7830 0.7830 0.7830
2.571000 0.7830 0.7830 0.7830 0.7830 0.7850
2.605093 0.7850 0.7850 0.7850 0.7850 0.7850
2.639000 0.7830 0.7830 0.7830 0.7830 0.7820
2.673093 0.7820 0.7820 0.7820 0.7820 0.7820
2.707000 0.7820 0.7800 0.7800 0.7780 0.7770
2.741093 0.7750 0.7750 0.7730 0.7730 0.7710
2.775000 0.7700 0.7660 0.7630 0.7590 0.7530
2.809093 0.7510 0.7440 0.7300 0.7180 0.7100
2.843000 0.6890 0.6770 0.6600 0.6550 0.6390
2.877093 0.6310 0.6200 0.6080 0.5980 0.5860
2.911000 0.5740 0.5660 0.5520 0.5300 0.5190
2.945093 0.5040 0.4870 0.4750 0.4570 0.4470
2.980000 0.4400 0.4320 0.4210 0.4090 0.4030
3.014093 0.3960 0.3890 0.3850 0.3820 0.3820
3.048000 0.3800 0.3800 0.3800 0.3800 0.3820
3.082093 0.3820 0.3850 0.3870 0.3910 0.3960
3.116000 0.3990 0.4040 0.4130 0.4160 0.4210
3.150093 0.4280 0.4350 0.4440 0.4520 0.4570
3.184000 0.4680 0.4750 0.4810 0.4950 0.4990
3.218093 0.5040 0.5110 0.5160 0.5230 0.5300
3.252000 0.5380 0.5420 0.5430 0.5450 0.5450
3.286093 0.5430 0.5360 0.5260 0.4990 0.4610
3.320000 0.4210 0.4010 0.3680 0.3270 0.3010
3.354093 0.2840 0.2790 0.2770 0.2790 0.2890
3.388000 0.3000 0.3150 0.3320 0.3480 0.3630
3.422093 0.3670 0.3610 0.3580 0.3560 0.3530
3.457000 0.3560 0.3820 0.4150 0.4810 0.5310
3.491093 0.5720 0.5960 0.6080 0.6460 0.6670
3.525000 0.6750 0.6820 0.6890 0.6960 0.6990
3.559093 0.7010 0.7080 0.7100 0.7100 0.7110
3.593000 0.7110 0.7110 0.7130 0.7130 0.7130
3.627093 0.7130 0.7130 0.7130 0.7150 0.7150
3.661000 0.7150 0.7150 0.7150 0.7150 0.7150
3.695093 0.7150 0.7150 0.7150 0.7150 0.7150
3.729000 0.7150 0.7130 0.7130 0.7130 0.7130
3.763093 0.7130 0.7130 0.7130 0.7130 0.7150
3.797000 0.7150 0.7150 0.7160 0.7150 0.7150
3.831093 0.7150 0.7150 0.7150 0.7150 0.7130
3.866000 0.7150 0.7150 0.7150 0.7150 0.7150
3.900093 0.7150 0.7150 0.7150 0.7150 0.7150
3.934000 0.7150 0.7150 0.7150 0.7150 0.7150
3.968093 0.7130 0.7130 0.7130 0.7130 0.7130
4.002000 0.7130 0.7150 0.7150 0.7150 0.7150
4.036093 0.7150 0.7150 0.7150 0.7150 0.7150
4.070000 0.7130 0.7130 0.7150 0.7150 0.7150
4.104093 0.7150 0.7150 0.7150 0.7150 0.7150
4.138000 0.7150 0.7130 0.7130 0.7130 0.7130
4.172093 0.7130 0.7130 0.7130 0.7130 0.7150
4.206000 0.7130 0.7150 0.7150 0.7130 0.7130
4.240093 0.7130 0.7130 0.7130 0.7130 0.7130
4.274000 0.7130 0.7130 0.7130 0.7130 0.7130
4.308093 0.7130 0.7130 0.7130 0.7130 0.7150
4.343000 0.7130 0.7130 0.7110 0.7110 0.7100
4.377093 0.7100 0.7100 0.7080 0.6990 0.6980
4.411000 0.6980 0.6980 0.6960 0.6960 0.6920
4.445093 0.6920 0.6920 0.6910 0.6910 0.6890
4.479000 0.6890 0.6890 0.6890 0.6890 0.6890
4.513093 0.6870 0.6870 0.6870 0.6870 0.6870
4.547000 0.6870 0.6870 0.6870 0.6870 0.6870
4.581093 0.6870 0.6870 0.6870 0.6860 0.6860
4.615000 0.6840 0.6860 0.6860 0.6860 0.6860
4.649093 0.6860 0.6860 0.6860 0.6870 0.6870
4.683000 0.6870 0.6870 0.6870 0.6870 0.6870
4.717093 0.6870 0.6870 0.6870 0.6870 0.6870
4.752000 0.6890 0.6890 0.6870 0.6870 0.6870
4.786093 0.6870 0.6870 0.6870 0.6870 0.6870
4.820000 0.6890 0.6890 0.6890 0.6890 0.6890
4.854093 0.6890 0.6890 0.6890 0.6890 0.6890
4.888000 0.6890 0.6890 0.6910 0.6920 0.6960
4.922093 0.6960 0.6980 0.6980 0.6980 0.6980
4.956000 0.6990 0.6990 0.6990 0.7010 0.7010
4.990093 0.7010 0.7010 0.7010 0.7010 0.6990
5.024000 0.6990 0.7010 0.7010 0.6990 0.7010
5.058093 0.6990 0.6990 0.7010 0.7010 0.7010
5.092000 0.7010 0.7010 0.7010 0.7010 0.7010
5.126093 0.7010 0.7010 0.7010 0.7010 0.7010
5.160000 0.6990 0.6990 0.7010 0.7010 0.7010
5.194093 0.7030 0.7030 0.7030 0.7030 0.7010
5.229000 0.7010 0.7010 0.7010 0.7010 0.7030
5.263093 0.7030 0.7030 0.7030 0.7030 0.7030
5.297000 0.7040 0.7030 0.7030 0.7030 0.7030
5.331093 0.7030 0.7060 0.7060 0.7060 0.7080
5.365000 0.7080 0.7080 0.7080 0.7080 0.7100
5.399093 0.7100 0.7100 0.7100 0.7110 0.7110
5.433000 0.7130 0.7130 0.7110 0.7130 0.7130
5.467093 0.7150 0.7150 0.7150 0.7160 0.7160
5.501000 0.7160 0.7160 0.7180 0.7180 0.7180
5.535093 0.7200 0.7200 0.7200 0.7200 0.7220
5.569000 0.7220 0.7230 0.7220 0.7220 0.7220
5.603093 0.7220 0.7230 0.7230 0.7230 0.7230
5.638000 0.7230 0.7230 0.7230 0.7230 0.7250
5.672093 0.7250 0.7250 0.7250 0.7250 0.7250
5.706000 0.7250 0.7250 0.7250 0.7270 0.7270
5.740093 0.7250 0.7250 0.7270 0.7270 0.7270
5.774000 0.7270 0.7270 0.7270 0.7250 0.7250
5.808093 0.7230 0.7220 0.7200 0.7160 0.7150
5.842000 0.7080 0.6990 0.6910 0.6840 0.6800
5.876093 0.6770 0.6720 0.6630 0.6560 0.6460
5.910000 0.6380 0.6320 0.6270 0.6220 0.6220
5.944093 0.6170 0.6150 0.6170 0.6190 0.6190
5.978000 0.6270 0.6310 0.6360 0.6430 0.6480
6.012093 0.6560 0.6600 0.6630 0.6670 0.6720
6.046000 0.6800 0.6860 0.6920 0.6980 0.6990
6.080093 0.7010 0.7030 0.7040 0.7110 0.7130
6.115000 0.7150 0.7160 0.7180 0.7200 0.7230
6.149093 0.7250 0.7270 0.7270 0.7280 0.7300
6.183000 0.7320 0.7320 0.7340 0.7350 0.7350
6.217093 0.7350 0.7370 0.7370 0.7370 0.7370
6.251000 0.7370 0.7390 0.7370 0.7370 0.7370
6.285093 0.7370 0.7390 0.7390 0.7390 0.7390
6.319000 0.7390 0.7390 0.7390 0.7390 0.7390
6.353093 0.7390 0.7400 0.7400 0.7400 0.7400
6.387000 0.7400 0.7420 0.7420 0.7420 0.7420
6.421093 0.7420 0.7420 0.7440 0.7440 0.7460
6.455000 0.7460 0.7470 0.7460 0.7460 0.7460
6.489093 0.7470 0.7470 0.7470 0.7460 0.7460
6.524000 0.7460 0.7460 0.7460 0.7470 0.7470
6.558093 0.7470 0.7470 0.7470 0.7470 0.7490
6.592000 0.7490 0.7490 0.7490 0.7490 0.7490
6.626093 0.7490 0.7490 0.7490 0.7490 0.7490
6.660000 0.7490 0.7470 0.7460 0.7420 0.7390
6.694093 0.7350 0.7340 0.7270 0.7220 0.7160
6.728000 0.6990 0.6870 0.6630 0.6380 0.6170
6.762093 0.6080 0.5980 0.5930 0.5880 0.5810
6.796000 0.5780 0.5760 0.5760 0.5760 0.5760
6.830093 0.5760 0.5760 0.5780 0.5830 0.5880
6.864000 0.5950 0.6050 0.6100 0.6170 0.6270
6.898093 0.6310 0.6480 0.6560 0.6650 0.6680
6.932000 0.6790 0.6840 0.6910 0.6990 0.7010
6.966093 0.7080 0.7100 0.7110 0.7130 0.7150
7.001000 0.7160 0.7180 0.7200 0.7220 0.7250
7.035093 0.7270 0.7280 0.7300 0.7340 0.7350
7.069000 0.7350 0.7370 0.7370 0.7370 0.7370
7.103093 0.7390 0.7370 0.7370 0.7350 0.7340
7.137000 0.7320 0.7280 0.7230 0.7180 0.7130
7.171093 0.7080 0.6960 0.6840 0.6720 0.6680
7.205000 0.6670 0.6620 0.6630 0.6670 0.6680
7.239093 0.6740 0.6790 0.6820 0.6910 0.6980
7.273000 0.7040 0.7100 0.7160 0.7220 0.7270
7.307093 0.7300 0.7320 0.7370 0.7390 0.7400
7.341000 0.7420 0.7420 0.7420 0.7440 0.7460
7.375093 0.7460 0.7470 0.7470 0.7490 0.7510
7.410000 0.7510 0.7530 0.7530 0.7530 0.7530
7.444093 0.7530 0.7540 0.7540 0.7560 0.7560
7.478000 0.7580 0.7580 0.7590 0.7590 0.7590
7.512093 0.7590 0.7590 0.7610 0.7610 0.7630
7.546000 0.7630 0.7630 0.7630 0.7630 0.7660
7.580093 0.7660 0.7660 0.7660 0.7660 0.7660
7.614000 0.7660 0.7660 0.7680 0.7680 0.7680
7.648093 0.7680 0.7680 0.7680 0.7680 0.7700
7.682000 0.7700 0.7710 0.7710 0.7710 0.7710
7.716093 0.7710 0.7730 0.7730 0.7730 0.7730
7.750000 0.7730 0.7750 0.7750 0.7770 0.7770
7.784093 0.7780 0.7800 0.7800 0.7800 0.7800
7.818000 0.7820 0.7820 0.7830 0.7830 0.7830
7.852093 0.7830 0.7850 0.7850 0.7870 0.7870
7.887000 0.7890 0.7870 0.7870 0.7870 0.7890
7.921093 0.7890 0.7900 0.7900 0.7900 0.7920
7.955000 0.7920 0.7920 0.7940 0.7940 0.7950
7.989093 0.7970 0.7970 0.7970 0.7990 0.7990
8.023000 0.7990 0.8010 0.8010 0.8010 0.8010
8.057093 0.8010 0.8020 0.8020 0.8020 0.8040
8.091000 0.8040 0.8040 0.8040 0.8070 0.8070
8.125093 0.8070 0.8090 0.8090 0.8090 0.8110
8.159000 0.8130 0.8130 0.8130 0.8130 0.8140
8.193093 0.8160 0.8160 0.8160 0.8160 0.8180
8.227000 0.8180 0.8180 0.8190 0.8190 0.8210
8.261093 0.8210 0.8210 0.8210 0.8230 0.8230
8.296000 0.8250 0.8260 0.8260 0.8280 0.8280
8.330093 0.8280 0.8280 0.8300 0.8300 0.8300
8.364000 0.8300 0.8310 0.8310 0.8330 0.8330
8.398093 0.8330 0.8330 0.8330 0.8330 0.8350
8.432000 0.8350 0.8350 0.8350 0.8370 0.8370
8.466093 0.8370 0.8370 0.8370 0.8380 0.8380
8.500000 0.8380 0.8380 0.8400 0.8400 0.8400
8.534093 0.8400 0.8400 0.8400 0.8400 0.8400
8.568000 0.8420 0.8420 0.8420 0.8430 0.8430
8.602093 0.8430 0.8430 0.8430 0.8450 0.8450
8.636000 0.8450 0.8450 0.8450 0.8470 0.8470
8.670093 0.8470 0.8470 0.8490 0.8490 0.8490
8.704000 0.8490 0.8490 0.8490 0.8500 0.8500
8.738093 0.8500 0.8500 0.8500 0.8500 0.8500
8.773000 0.8520 0.8520 0.8520 0.8520 0.8540
8.807093 0.8540 0.8540 0.8540 0.8540 0.8540
8.841000 0.8540 0.8540 0.8540 0.8540 0.8540
8.875093 0.8550 0.8550 0.8570 0.8570 0.8570
8.909000 0.8570 0.8550 0.8550 0.8550 0.8570
8.943093 0.8570 0.8590 0.8590 0.8590 0.8590
8.977000 0.8590 0.8590 0.8590 0.8610 0.8610
9.011093 0.8590 0.8590 0.8610 0.8610 0.8610
9.045000 0.8610 0.8610 0.8610 0.8610 0.8620
9.079093 0.8620 0.8620 0.8620 0.8620 0.8640
9.113000 0.8620 0.8620 0.8620 0.8640 0.8640
9.147093 0.8660 0.8660 0.8660 0.8670 0.8670
9.182000 0.8690 0.8690 0.8690 0.8690 0.8690
9.216093 0.8690 0.8710 0.8710 0.8710 0.8710
9.250000 0.8730 0.8740 0.8740 0.8740 0.8740
9.284093 0.8760 0.8760 0.8780 0.8780 0.8780
9.318000 0.8780 0.8790 0.8790 0.8810 0.8810
9.352093 0.8810 0.8810 0.8830 0.8830 0.8830
9.386000 0.8830 0.8850 0.8860 0.8860 0.8860
9.420093 0.8860 0.8860 0.8880 0.8880 0.8880
9.454000 0.8900 0.8900 0.8900 0.8900 0.8900
9.488093 0.8910 0.8910 0.8910 0.8910 0.8910
9.522000 0.8930 0.8930 0.8930 0.8950 0.8950
9.556093 0.8950 0.8970 0.8970 0.8970 0.8970
9.590000 0.8970 0.8970 0.8970 0.8970 0.8970
9.624093 0.8980 0.8980 0.8980 0.8980 0.8980
9.659000 0.8980 0.8980 0.8980 0.8980 0.8980
9.693093 0.8980 0.8980 0.8980 0.8980 0.8980
9.727000 0.9000 0.9000 0.9000 0.9000 0.9000
9.761093 0.9020 0.9050 0.9050 0.9050 0.9050
9.795000 0.9050 0.9070 0.9070 0.9070 0.9070
9.829093 0.9070 0.9070 0.9070 0.9090 0.9090
9.863000 0.9090 0.9090 0.9090 0.9090 0.9090
9.897093 0.9100 0.9100 0.9100 0.9120 0.9120
9.931000 0.9120 0.9140 0.9140 0.9140 0.9140
9.965093 0.9150 0.9150 0.9150 0.9150 0.9170
9.999000 0.9170 0.9170 0.9170 0.9170 0.9190
10.033093 0.9210 0.9210 0.9190 0.9190 0.9210
10.068000 0.9210 0.9210 0.9210 0.9210 0.9210
10.102093 0.9210 0.9210 0.9210 0.9210 0.9210
10.136000 0.9210 0.9220 0.9220 0.9220 0.9220
10.170093 0.9220 0.9220 0.9220 0.9240 0.9240
10.204000 0.9240 0.9240 0.9240 0.9240 0.9240
10.238093 0.9240 0.9240 0.9240 0.9240 0.9240
10.272000 0.9240 0.9260 0.9260 0.9240 0.9240
10.306093 0.9240 0.9260 0.9260 0.9260 0.9240
10.340000 0.9240 0.9240 0.9240 0.9240 0.9260
10.374093 0.9260 0.9260 0.9260 0.9260 0.9270
10.408000 0.9270 0.9270 0.9270 0.9270 0.9290
10.442093 0.9290 0.9290 0.9290 0.9290 0.9310
10.476000 0.9310 0.9310 0.9330 0.9330 0.9330
10.510093 0.9330 0.9330 0.9330 0.9330 0.9330
10.545000 0.9340 0.9340 0.9340 0.9340 0.9340
10.579093 0.9340 0.9360 0.9360 0.9360 0.9360
10.613000 0.9360 0.9360 0.9340 0.9340 0.9340
10.647093 0.9340 0.9340 0.9340 0.9340 0.9340
10.681000 0.9340 0.9340 0.9340 0.9340 0.9340
10.715093 0.9340 0.9340 0.9340 0.9340 0.9340
10.749000 0.9330 0.9330 0.9340 0.9340 0.9340
10.783093 0.9340 0.9330 0.9330 0.9310 0.9310
10.817000 0.9290 0.9290 0.9290 0.9270 0.9260
10.851093 0.9260 0.9240 0.9220 0.9220 0.9210
10.885000 0.9210 0.9210 0.9190 0.9150 0.9120
10.919093 0.9100 0.9030 0.8970 0.8910 0.8760
10.954000 0.8620 0.8470 0.8370 0.8190 0.8020
10.988093 0.7970 0.7780 0.7530 0.7270 0.6860
11.022000 0.6680 0.6630 0.6500 0.6340 0.6170
11.056093 0.6000 0.5810 0.5600 0.5540 0.5470
11.090000 0.5420 0.5470 0.5550 0.5660 0.5830
11.124093 0.6020 0.6150 0.6290 0.6500 0.6680
11.158000 0.6800 0.6890 0.6990 0.7130 0.7200
11.192093 0.7270 0.7340 0.7400 0.7440 0.7460
11.226000 0.7470 0.7470 0.7470 0.7460 0.7440
11.260093 0.7370 0.7320 0.7270 0.7150 0.7060
11.294000 0.7010 0.6940 0.6840 0.6720 0.6630
11.328093 0.6500 0.6390 0.6340 0.6140 0.6050
11.362000 0.5880 0.5840 0.5710 0.5470 0.5300
11.396093 0.5180 0.5060 0.4930 0.4780 0.4710
11.431000 0.4560 0.4420 0.4350 0.4150 0.4040
11.465093 0.3990 0.3890 0.3790 0.3720 0.3580
11.499000 0.3550 0.3430 0.3320 0.3270 0.3200
11.533093 0.3100 0.3030 0.3000 0.2890 0.2760
11.567000 0.2710 0.2620 0.2550 0.2480 0.2410
11.601093 0.2380 0.2310 0.2260 0.2210 0.2170
11.635000 0.2120 0.2070 0.2000 0.1980 0.1930
11.669093 0.1920 0.1920 0.1920 0.1930 0.1950
11.703000 0.1980 0.1980 0.2000 0.2020 0.2090
11.737093 0.2120 0.2140 0.2190 0.2220 0.2280
11.771000 0.2290 0.2310 0.2340 0.2340 0.2360
11.805093 0.2360 0.2380 0.2360 0.2360 0.2340
11.840000 0.2340 0.2310 0.2290 0.2280 0.2240
11.874093 0.2210 0.2170 0.2140 0.2120 0.2050
11.908000 0.2020 0.2000 0.1980 0.1980 0.1920
11.942093 0.1920 0.1880 0.1850 0.1830 0.1800
11.976000 0.1760 0.1740 0.1730 0.1710 0.1690
12.010093 0.1660 0.1620 0.1610 0.1570 0.1560
12.044000 0.1540 0.1520 0.1500 0.1490 0.1490
12.078093 0.1450 0.1440 0.1420 0.1420 0.1400
12.112000 0.1400 0.1380 0.1380 0.1380 0.1380
12.146093 0.1370 0.1350 0.1350 0.1350 0.1350
12.180000 0.1350 0.1350 0.1370 0.1380 0.1420
12.214093 0.1440 0.1490 0.1520 0.1560 0.1610
12.248000 0.1640 0.1690 0.1730 0.1760 0.1810
12.282093 0.1860 0.1920 0.1980 0.2000 0.2020
12.317000 0.2050 0.2100 0.2170 0.2220 0.2260
12.351093 0.2290 0.2400 0.2480 0.2550 0.2640
12.385000 0.2690 0.2790 0.2840 0.3000 0.3080
12.419093 0.3240 0.3250 0.3360 0.3480 0.3630
12.453000 0.3720 0.3800 0.3870 0.4010 0.4080
12.487093 0.4200 0.4280 0.4350 0.4450 0.4520
12.521000 0.4590 0.4690 0.4710 0.4780 0.4810
12.555093 0.4900 0.4990 0.5040 0.5110 0.5160
12.589000 0.5190 0.5240 0.5310 0.5360 0.5420
12.623093 0.5470 0.5500 0.5550 0.5570 0.5620
12.657000 0.5660 0.5690 0.5740 0.5740 0.5810
12.691093 0.5840 0.5880 0.5910 0.5950 0.6000
12.726000 0.6020 0.6030 0.6030 0.6100 0.6120
12.760093 0.6150 0.6170 0.6200 0.6200 0.6200
12.794000 0.6240 0.6270 0.6290 0.6310 0.6320
12.828093 0.6340 0.6360 0.6380 0.6390 0.6390
12.862000 0.6410 0.6430 0.6440 0.6460 0.6500
12.896093 0.6510 0.6510 0.6530 0.6550 0.6550
12.930000 0.6560 0.6580 0.6600 0.6600 0.6620
12.964093 0.6620 0.6630 0.6630 0.6650 0.6650
12.998000 0.6670 0.6670 0.6680 0.6680 0.6700
13.032093 0.6700 0.6720 0.6740 0.6740 0.6750
13.066000 0.6750 0.6770 0.6790 0.6790 0.6790
13.100093 0.6790 0.6800 0.6800 0.6800 0.6820
13.134000 0.6820 0.6840 0.6840 0.6840 0.6840
13.168093 0.6860 0.6860 0.6870 0.6870 0.6890
13.203000 0.6890 0.6890 0.6890 0.6910 0.6910
13.237093 0.6910 0.6910 0.6920 0.6940 0.6940
13.271000 0.6940 0.6940 0.6940 0.6940 0.6940
13.305093 0.6940 0.6960 0.6960 0.6960 0.6960
13.339000 0.6960 0.6960 0.6960 0.6980 0.6990
13.373093 0.6980 0.6980 0.6980 0.6980 0.6980
13.407000 0.6980 0.6980 0.6980 0.6980 0.6980
13.441093 0.6980 0.6980 0.6980 0.6980 0.6980
13.475000 0.6980 0.6980 0.6980 0.6980 0.6980
13.509093 0.6980 0.6980 0.6980 0.6980 0.6980
13.543000 0.6980 0.6980 0.6980 0.6980 0.6980
13.577093 0.6980 0.6980 0.6980 0.6980 0.6980
13.612000 0.6980 0.6980 0.6980 0.6980 0.6960
13.646093 0.6940 0.6940 0.6940 0.6940 0.6920
13.680000 0.6920 0.6920 0.6920 0.6920 0.6920
13.714093 0.6920 0.6910 0.6910 0.6910 0.6910
13.748000 0.6890 0.6890 0.6890 0.6890 0.6890
13.782093 0.6870 0.6870 0.6870 0.6870 0.6870
13.816000 0.6870 0.6870 0.6840 0.6840 0.6840
13.850093 0.6840 0.6840 0.6840 0.6840 0.6820
13.884000 0.6820 0.6820 0.6820 0.6820 0.6820
13.918093 0.6820 0.6820 0.6800 0.6800 0.6800
13.952000 0.6800 0.6800 0.6800 0.6790 0.6790
13.986093 0.6790 0.6790 0.6770 0.6770 0.6750
14.020000 0.6750 0.6750 0.6740 0.6740 0.6740
14.054093 0.6720 0.6720 0.6700 0.6700 0.6700
14.089000 0.6700 0.6680 0.6670 0.6670 0.6650
14.123093 0.6630 0.6630 0.6620 0.6620 0.6600
14.157000 0.6600 0.6580 0.6580 0.6560 0.6560
14.191093 0.6550 0.6530 0.6510 0.6510 0.6500
14.225000 0.6480 0.6460 0.6440 0.6440 0.6430
14.259093 0.6410 0.6410 0.6410 0.6410 0.6390
14.293000 0.6380 0.6380 0.6360 0.6340 0.6340
14.327093 0.6320 0.6310 0.6310 0.6290 0.6270
14.361000 0.6270 0.6260 0.6260 0.6260 0.6240
14.395093 0.6220 0.6200 0.6200 0.6200 0.6190
14.429000 0.6190 0.6170 0.6150 0.6150 0.6140
14.463093 0.6140 0.6120 0.6120 0.6140 0.6120
14.498000 0.6120 0.6100 0.6100 0.6100 0.6080
14.532093 0.6080 0.6080 0.6070 0.6070 0.6050
14.566000 0.6030 0.6030 0.6030 0.6030 0.6030
14.600093 0.6020 0.6020 0.6000 0.6000 0.6000
14.634000 0.6000 0.6000 0.6000 0.6000 0.5980
14.668093 0.5980 0.5960 0.5960 0.5950 0.5950
14.702000 0.5950 0.5930 0.5930 0.5910 0.5930
14.736093 0.5930 0.5930 0.5930 0.5910 0.5910
14.770000 0.5900 0.5900 0.5900 0.5900 0.5900
14.804093 0.5880 0.5860 0.5860 0.5860 0.5860
14.838000 0.5840 0.5840 0.5840 0.5840 0.5840
14.872093 0.5840 0.5830 0.5830 0.5810 0.5810
14.906000 0.5790 0.5790 0.5790 0.5790 0.5780
14.940093 0.5780 0.5780 0.5760 0.5760 0.5760
14.975000 0.5760 0.5740 0.5740 0.5740 0.5740
15.009093 0.5740 0.5720 0.5720 0.5720 0.5710
15.043000 0.5710 0.5710 0.5710 0.5710 0.5690
15.077093 0.5690 0.5670 0.5670 0.5670 0.5670
15.111000 0.5670 0.5670 0.5670 0.5670 0.5660
15.145093 0.5660 0.5660 0.5660 0.5640 0.5640
15.179000 0.5640 0.5640 0.5640 0.5640 0.5640
15.213093 0.5640 0.5660 0.5620 0.5620 0.5620
15.247000 0.5620 0.5620 0.5620 0.5620 0.5620
15.281093 0.5620 0.5600 0.5600 0.5600 0.5600
15.315000 0.5600 0.5600 0.5590 0.5590 0.5590
15.349093 0.5600 0.5600 0.5600 0.5590 0.5590
15.384000 0.5590 0.5590 0.5600 0.5600 0.5600
15.418093 0.5600 0.5590 0.5590 0.5590 0.5600
15.452000 0.5600 0.5600 0.5600 0.5600 0.5620
15.486093 0.5620 0.5620 0.5620 0.5620 0.5620
15.520000 0.5620 0.5620 0.5620 0.5620 0.5640
15.554093 0.5640 0.5660 0.5660 0.5670 0.5660
15.588000 0.5660 0.5660 0.5660 0.5660 0.5670
15.622093 0.5670 0.5670 0.5670 0.5690 0.5690
15.656000 0.5690 0.5690 0.5710 0.5720 0.5720
15.690093 0.5720 0.5740 0.5760 0.5780 0.5780
15.724000 0.5790 0.5790 0.5790 0.5810 0.5810
15.758093 0.5830 0.5840 0.5880 0.5900 0.5900
15.792000 0.5910 0.5930 0.5930 0.5950 0.5950
15.826093 0.5950 0.5960 0.5980 0.6000 0.6000
15.861000 0.6000 0.6000 0.6030 0.6030 0.6050
15.895093 0.6050 0.6070 0.6070 0.6080 0.6080
15.929000 0.6080 0.6100 0.6100 0.6120 0.6140
15.963093 0.6140 0.6150 0.6170
##END=
