##TITLE=1,1-DIMETHYLGUANIDINE SULFATE
$$ E.K. (W.L.)
##JCAMP-DX=4.24
##DATA TYPE=INFRARED SPECTRUM
##CLASS=COBLENTZ
##ORIGIN=WYANDOTTE CHEMICALS CORP., WYANDOTTE, MICHIGAN, USA
##OWNER=COBLENTZ SOCIETY
Collection (C) 2018 copyright by the U.S. Secretary of Commerce
on behalf of the United States of America. All rights reserved.
##DATE=Not specified, most likely prior to 1970
##MOLFORM=C6 H20 N6 O4 S
##MP=300 C
##SOURCE REFERENCE=COBLENTZ NO. 1454
##$NIST ID=B6001454
##$NIST SOURCE=COBLENTZ
##$NIST IMAGE=cob1454
##SPECTROMETER/DATA SYSTEM=Not specified, most likely a prism, grating, or hybrid spectrometer.
##STATE=SOLID (MINERAL OIL MULL)
##SAMPLING PROCEDURE=TRANSMISSION
##RESOLUTION=4
##DATA PROCESSING=DIGITIZED BY NIST FROM HARD COPY
##XUNITS=MICROMETERS
##YUNITS=TRANSMITTANCE
##XFACTOR=1.000000
##YFACTOR=1
##DELTAX=000.006823
##FIRSTX=2
##LASTX=15.9928
##FIRSTY=0.751
##MAXX=15.9928
##MINX=2
##MAXY=0.94
##MINY=0.027
##NPOINTS=2052
##XYDATA=(X++(Y..Y))
2.000000 0.7510 0.7560 0.7670 0.7680 0.7730
2.034130 0.7750 0.7770 0.7820 0.7820 0.7840
2.068000 0.7870 0.7890 0.7890 0.7890 0.7890
2.102130 0.7870 0.7870 0.7840 0.7770 0.7700
2.136000 0.7670 0.7630 0.7630 0.7610 0.7510
2.170130 0.7500 0.7460 0.7380 0.7360 0.7360
2.205000 0.7380 0.7460 0.7480 0.7510 0.7530
2.239130 0.7630 0.7670 0.7700 0.7720 0.7750
2.273000 0.7820 0.7890 0.7950 0.7950 0.7970
2.307130 0.7970 0.7970 0.7990 0.8020 0.8040
2.341000 0.8070 0.8110 0.8140 0.8160 0.8160
2.375130 0.8180 0.8190 0.8280 0.8290 0.8360
2.409000 0.8400 0.8430 0.8460 0.8480 0.8500
2.443130 0.8550 0.8570 0.8580 0.8620 0.8630
2.478000 0.8650 0.8690 0.8720 0.8740 0.8750
2.512130 0.8750 0.8770 0.8790 0.8820 0.8840
2.546000 0.8960 0.8990 0.9030 0.9090 0.9210
2.580130 0.9230 0.9230 0.9230 0.9230 0.9230
2.614000 0.9210 0.9210 0.9210 0.9210 0.9210
2.648130 0.9200 0.9180 0.9160 0.9110 0.9080
2.682000 0.8960 0.8890 0.8630 0.8280 0.7870
2.716130 0.7190 0.6710 0.6410 0.4910 0.4500
2.750000 0.4180 0.3800 0.3520 0.3400 0.3310
2.784130 0.3290 0.3290 0.3330 0.3670 0.3890
2.819000 0.4080 0.4330 0.4480 0.4620 0.4770
2.853130 0.4860 0.4890 0.4890 0.4820 0.4720
2.887000 0.4600 0.4470 0.4300 0.4110 0.3940
2.921130 0.3770 0.3550 0.3280 0.3070 0.2770
2.955000 0.2530 0.2310 0.2040 0.1590 0.1240
2.989130 0.1030 0.0780 0.0710 0.0690 0.0690
3.023000 0.0680 0.0660 0.0660 0.0660 0.0660
3.057130 0.0660 0.0660 0.0660 0.0660 0.0660
3.092000 0.0660 0.0660 0.0660 0.0680 0.0680
3.126130 0.0680 0.0680 0.0680 0.0680 0.0680
3.160000 0.0660 0.0660 0.0640 0.0620 0.0570
3.194130 0.0520 0.0510 0.0490 0.0490 0.0470
3.228000 0.0450 0.0450 0.0440 0.0440 0.0450
3.262130 0.0490 0.0590 0.0640 0.0690 0.0690
3.296000 0.0690 0.0680 0.0680 0.0640 0.0640
3.330130 0.0610 0.0590 0.0490 0.0370 0.0300
3.365000 0.0280 0.0270 0.0270 0.0270 0.0270
3.399130 0.0270 0.0270 0.0270 0.0270 0.0280
3.433000 0.0280 0.0300 0.0300 0.0300 0.0320
3.467130 0.0320 0.0320 0.0320 0.0320 0.0320
3.501000 0.0320 0.0320 0.0320 0.0420 0.0570
3.535130 0.0790 0.1220 0.1530 0.1880 0.2100
3.569000 0.2310 0.2430 0.2510 0.2600 0.2670
3.603130 0.2850 0.2970 0.3070 0.3210 0.3380
3.637000 0.3480 0.3650 0.3720 0.3770 0.3800
3.671130 0.3970 0.3990 0.4130 0.4200 0.4260
3.706000 0.4400 0.4570 0.4650 0.4710 0.4740
3.740130 0.4770 0.4810 0.4860 0.4940 0.5030
3.774000 0.5180 0.5280 0.5350 0.5400 0.5490
3.808130 0.5560 0.5620 0.5680 0.5710 0.5740
3.842000 0.5760 0.5790 0.5810 0.5860 0.5930
3.876130 0.5960 0.5980 0.6000 0.6100 0.6170
3.910000 0.6220 0.6250 0.6290 0.6340 0.6390
3.944130 0.6420 0.6470 0.6490 0.6530 0.6610
3.979000 0.6610 0.6660 0.6700 0.6780 0.6800
4.013130 0.6800 0.6830 0.6830 0.6760 0.6710
4.047000 0.6710 0.6730 0.6730 0.6750 0.6760
4.081130 0.6760 0.6780 0.6780 0.6780 0.6760
4.115000 0.6750 0.6750 0.6760 0.6780 0.6800
4.149130 0.6810 0.6850 0.6850 0.6850 0.6850
4.183000 0.6850 0.6880 0.6970 0.6980 0.7090
4.217130 0.7120 0.7140 0.7170 0.7190 0.7190
4.251000 0.7190 0.7210 0.7220 0.7260 0.7320
4.285130 0.7390 0.7510 0.7530 0.7580 0.7600
4.320000 0.7610 0.7670 0.7720 0.7770 0.7780
4.354130 0.7800 0.7780 0.7780 0.7770 0.7720
4.388000 0.7670 0.7600 0.7530 0.7500 0.7410
4.422130 0.7360 0.7270 0.7210 0.7190 0.7140
4.456000 0.7090 0.7070 0.7090 0.7140 0.7150
4.490130 0.7210 0.7270 0.7320 0.7340 0.7360
4.524000 0.7410 0.7460 0.7460 0.7460 0.7460
4.558130 0.7480 0.7510 0.7560 0.7630 0.7680
4.593000 0.7720 0.7730 0.7800 0.7870 0.7890
4.627130 0.7900 0.7970 0.8020 0.8090 0.8120
4.661000 0.8190 0.8210 0.8230 0.8240 0.8280
4.695130 0.8330 0.8400 0.8430 0.8460 0.8500
4.729000 0.8520 0.8530 0.8530 0.8550 0.8550
4.763130 0.8550 0.8550 0.8550 0.8550 0.8530
4.797000 0.8500 0.8400 0.8290 0.8260 0.8230
4.831130 0.8180 0.8180 0.8180 0.8180 0.8190
4.865000 0.8190 0.8190 0.8210 0.8210 0.8230
4.899130 0.8230 0.8240 0.8240 0.8260 0.8260
4.934000 0.8290 0.8310 0.8330 0.8360 0.8460
4.968130 0.8520 0.8600 0.8750 0.8870 0.8990
5.002000 0.9010 0.9040 0.9090 0.9110 0.9180
5.036130 0.9200 0.9230 0.9250 0.9260 0.9260
5.070000 0.9310 0.9370 0.9380 0.9380 0.9400
5.104130 0.9400 0.9400 0.9400 0.9400 0.9400
5.138000 0.9400 0.9380 0.9370 0.9370 0.9350
5.172130 0.9310 0.9300 0.9250 0.9180 0.9110
5.207000 0.9060 0.9010 0.8960 0.8960 0.8940
5.241130 0.8960 0.8970 0.8990 0.9010 0.9060
5.275000 0.9110 0.9180 0.9250 0.9250 0.9250
5.309130 0.9250 0.9260 0.9280 0.9300 0.9300
5.343000 0.9300 0.9250 0.9200 0.9160 0.9140
5.377130 0.9140 0.9160 0.9200 0.9210 0.9200
5.411000 0.9180 0.9160 0.9180 0.9180 0.9180
5.445130 0.9200 0.9230 0.9200 0.9200 0.9160
5.480000 0.9140 0.9160 0.9180 0.9180 0.9130
5.514130 0.9080 0.8920 0.8770 0.8750 0.8740
5.548000 0.8700 0.8650 0.8620 0.8580 0.8550
5.582130 0.8520 0.8460 0.8400 0.8310 0.8160
5.616000 0.8140 0.8090 0.7970 0.7900 0.7770
5.650130 0.7650 0.7610 0.7480 0.7340 0.7150
5.684000 0.6980 0.6800 0.6680 0.6340 0.6150
5.718130 0.6030 0.5810 0.5570 0.5450 0.5250
5.752000 0.5060 0.4770 0.4480 0.4260 0.4160
5.786130 0.3860 0.3550 0.3380 0.3060 0.2780
5.821000 0.2550 0.2340 0.2260 0.2170 0.2070
5.855130 0.1980 0.1880 0.1700 0.1510 0.1390
5.889000 0.1150 0.1070 0.1000 0.1000 0.0950
5.923130 0.0860 0.0760 0.0640 0.0570 0.0560
5.957000 0.0520 0.0520 0.0470 0.0450 0.0420
5.991130 0.0420 0.0420 0.0440 0.0450 0.0450
6.025000 0.0470 0.0470 0.0470 0.0450 0.0440
6.059130 0.0420 0.0400 0.0420 0.0440 0.0450
6.094000 0.0490 0.0510 0.0520 0.0560 0.0590
6.128130 0.0610 0.0690 0.0730 0.0790 0.0850
6.162000 0.0900 0.0980 0.1030 0.1050 0.1070
6.196130 0.1100 0.1190 0.1290 0.1360 0.1370
6.230000 0.1390 0.1420 0.1460 0.1470 0.1510
6.264130 0.1580 0.1610 0.1630 0.1680 0.1760
6.298000 0.1850 0.1950 0.2000 0.2000 0.2040
6.332130 0.2070 0.2070 0.2090 0.2090 0.2070
6.366000 0.2000 0.1880 0.1750 0.1680 0.1580
6.400130 0.1440 0.1370 0.1300 0.1240 0.1240
6.435000 0.1270 0.1340 0.1490 0.1640 0.1780
6.469130 0.1970 0.2050 0.2190 0.2310 0.2440
6.503000 0.2500 0.2550 0.2650 0.2720 0.2800
6.537130 0.2950 0.2990 0.3010 0.3010 0.3010
6.571000 0.3010 0.3020 0.3060 0.3090 0.3140
6.605130 0.3180 0.3190 0.3190 0.3180 0.3180
6.639000 0.3140 0.3070 0.3010 0.2990 0.2950
6.673130 0.2950 0.2780 0.2670 0.2600 0.2510
6.708000 0.2390 0.2290 0.2170 0.1980 0.1780
6.742130 0.1580 0.1300 0.0960 0.0660 0.0470
6.776000 0.0450 0.0450 0.0470 0.0470 0.0490
6.810130 0.0510 0.0570 0.0570 0.0510 0.0490
6.844000 0.0470 0.0450 0.0470 0.0510 0.0560
6.878130 0.0660 0.0710 0.0760 0.0860 0.1050
6.912000 0.1100 0.1190 0.1220 0.1250 0.1270
6.946130 0.1290 0.1290 0.1440 0.1640 0.1950
6.981000 0.2240 0.2510 0.2750 0.2870 0.3010
7.015130 0.3140 0.3260 0.3280 0.3350 0.3400
7.049000 0.3400 0.3410 0.3460 0.3500 0.3520
7.083130 0.3520 0.3520 0.3520 0.3520 0.3500
7.117000 0.3500 0.3480 0.3480 0.3480 0.3450
7.151130 0.3350 0.3210 0.3090 0.2970 0.2920
7.185000 0.2610 0.2240 0.2050 0.1780 0.1590
7.219130 0.1440 0.1320 0.1220 0.1150 0.1150
7.253000 0.1300 0.1530 0.1800 0.1970 0.2070
7.287130 0.2100 0.2120 0.2150 0.2270 0.2390
7.322000 0.2600 0.2770 0.2820 0.2870 0.2900
7.356130 0.2920 0.2940 0.2950 0.2970 0.2970
7.390000 0.2990 0.2990 0.3010 0.3010 0.3020
7.424130 0.3040 0.3070 0.3090 0.3110 0.3120
7.458000 0.3140 0.3140 0.3160 0.3190 0.3210
7.492130 0.3260 0.3290 0.3310 0.3310 0.3330
7.526000 0.3330 0.3330 0.3350 0.3350 0.3350
7.560130 0.3330 0.3310 0.3290 0.3290 0.3290
7.595000 0.3280 0.3260 0.3240 0.3240 0.3230
7.629130 0.3210 0.3230 0.3240 0.3240 0.3260
7.663000 0.3260 0.3280 0.3280 0.3290 0.3290
7.697130 0.3290 0.3310 0.3330 0.3350 0.3350
7.731000 0.3350 0.3350 0.3360 0.3360 0.3360
7.765130 0.3360 0.3360 0.3360 0.3350 0.3350
7.799000 0.3350 0.3350 0.3330 0.3350 0.3330
7.833130 0.3330 0.3330 0.3310 0.3290 0.3280
7.867000 0.3280 0.3280 0.3280 0.3260 0.3240
7.901130 0.3190 0.3110 0.3090 0.3090 0.3070
7.936000 0.3070 0.3110 0.3140 0.3160 0.3190
7.970130 0.3260 0.3310 0.3350 0.3360 0.3400
8.004000 0.3450 0.3460 0.3480 0.3480 0.3480
8.038130 0.3480 0.3480 0.3480 0.3480 0.3480
8.072000 0.3460 0.3460 0.3450 0.3450 0.3430
8.106130 0.3430 0.3430 0.3430 0.3430 0.3450
8.140000 0.3450 0.3450 0.3430 0.3430 0.3410
8.174130 0.3410 0.3400 0.3400 0.3400 0.3380
8.209000 0.3360 0.3330 0.3330 0.3330 0.3310
8.243130 0.3280 0.3280 0.3260 0.3240 0.3240
8.277000 0.3230 0.3210 0.3190 0.3180 0.3180
8.311130 0.3180 0.3140 0.3140 0.3120 0.3120
8.345000 0.3090 0.3070 0.3070 0.3040 0.3010
8.379130 0.2970 0.2950 0.2940 0.2940 0.2870
8.413000 0.2840 0.2800 0.2750 0.2680 0.2650
8.447130 0.2610 0.2600 0.2580 0.2550 0.2510
8.481000 0.2440 0.2380 0.2360 0.2340 0.2290
8.515130 0.2240 0.2140 0.2040 0.1980 0.1980
8.550000 0.1970 0.1950 0.1880 0.1830 0.1780
8.584130 0.1730 0.1680 0.1580 0.1530 0.1440
8.618000 0.1370 0.1340 0.1300 0.1270 0.1240
8.652130 0.1130 0.1080 0.1070 0.1030 0.1020
8.686000 0.1000 0.0980 0.0980 0.0980 0.0960
8.720130 0.0960 0.0950 0.0930 0.0850 0.0830
8.754000 0.0790 0.0790 0.0740 0.0740 0.0730
8.788130 0.0710 0.0680 0.0680 0.0660 0.0640
8.823000 0.0640 0.0640 0.0640 0.0610 0.0590
8.857130 0.0570 0.0520 0.0470 0.0470 0.0450
8.891000 0.0470 0.0450 0.0450 0.0450 0.0440
8.925130 0.0400 0.0400 0.0390 0.0390 0.0390
8.959000 0.0390 0.0370 0.0370 0.0370 0.0370
8.993130 0.0370 0.0370 0.0390 0.0370 0.0370
9.027000 0.0370 0.0370 0.0370 0.0370 0.0350
9.061130 0.0350 0.0350 0.0350 0.0350 0.0350
9.096000 0.0340 0.0340 0.0320 0.0320 0.0320
9.130130 0.0300 0.0300 0.0300 0.0300 0.0300
9.164000 0.0300 0.0280 0.0280 0.0280 0.0280
9.198130 0.0280 0.0280 0.0280 0.0280 0.0280
9.232000 0.0280 0.0280 0.0280 0.0280 0.0280
9.266130 0.0280 0.0280 0.0280 0.0280 0.0280
9.300000 0.0280 0.0280 0.0280 0.0280 0.0280
9.334130 0.0300 0.0300 0.0300 0.0300 0.0320
9.368000 0.0320 0.0320 0.0320 0.0320 0.0320
9.402130 0.0340 0.0340 0.0350 0.0350 0.0350
9.437000 0.0340 0.0340 0.0320 0.0320 0.0320
9.471130 0.0320 0.0320 0.0340 0.0350 0.0350
9.505000 0.0370 0.0370 0.0390 0.0390 0.0390
9.539130 0.0390 0.0390 0.0390 0.0400 0.0400
9.573000 0.0400 0.0420 0.0420 0.0420 0.0440
9.607130 0.0440 0.0440 0.0440 0.0440 0.0440
9.641000 0.0440 0.0450 0.0450 0.0470 0.0470
9.675130 0.0470 0.0490 0.0490 0.0510 0.0540
9.710000 0.0560 0.0570 0.0570 0.0590 0.0610
9.744130 0.0620 0.0620 0.0640 0.0660 0.0680
9.778000 0.0690 0.0710 0.0730 0.0740 0.0740
9.812130 0.0780 0.0790 0.0810 0.0850 0.0850
9.846000 0.0860 0.0900 0.0950 0.0960 0.0980
9.880130 0.1000 0.1000 0.1030 0.1050 0.1080
9.914000 0.1080 0.1100 0.1100 0.1120 0.1150
9.948130 0.1190 0.1240 0.1250 0.1290 0.1300
9.982000 0.1320 0.1390 0.1420 0.1460 0.1470
10.016130 0.1490 0.1540 0.1560 0.1580 0.1580
10.051000 0.1580 0.1590 0.1590 0.1610 0.1640
10.085130 0.1700 0.1750 0.1760 0.1760 0.1760
10.119000 0.1780 0.1800 0.1810 0.1830 0.1850
10.153130 0.1900 0.1950 0.1950 0.1970 0.1970
10.187000 0.1970 0.1970 0.1970 0.1980 0.1980
10.221130 0.2000 0.2000 0.2000 0.2000 0.2000
10.255000 0.2020 0.2070 0.2120 0.2140 0.2150
10.289130 0.2150 0.2210 0.2260 0.2310 0.2320
10.324000 0.2340 0.2360 0.2380 0.2390 0.2440
10.358130 0.2440 0.2480 0.2500 0.2510 0.2510
10.392000 0.2530 0.2550 0.2550 0.2560 0.2600
10.426130 0.2610 0.2630 0.2650 0.2680 0.2700
10.460000 0.2730 0.2730 0.2750 0.2770 0.2780
10.494130 0.2780 0.2840 0.2850 0.2870 0.2940
10.528000 0.2940 0.2970 0.2970 0.2970 0.2990
10.562130 0.3010 0.3060 0.3120 0.3120 0.3140
10.596000 0.3160 0.3160 0.3180 0.3160 0.3180
10.630130 0.3180 0.3190 0.3190 0.3210 0.3240
10.665000 0.3260 0.3280 0.3290 0.3310 0.3330
10.699130 0.3350 0.3360 0.3400 0.3410 0.3430
10.733000 0.3430 0.3430 0.3430 0.3450 0.3460
10.767130 0.3460 0.3500 0.3500 0.3530 0.3550
10.801000 0.3550 0.3570 0.3580 0.3630 0.3670
10.835130 0.3670 0.3690 0.3700 0.3720 0.3720
10.869000 0.3750 0.3770 0.3820 0.3860 0.3890
10.903130 0.3910 0.3920 0.3940 0.3960 0.3970
10.938000 0.3990 0.4030 0.4060 0.4080 0.4090
10.972130 0.4110 0.4130 0.4130 0.4140 0.4160
11.006000 0.4160 0.4180 0.4200 0.4230 0.4250
11.040130 0.4260 0.4280 0.4300 0.4300 0.4310
11.074000 0.4330 0.4370 0.4370 0.4400 0.4400
11.108130 0.4420 0.4430 0.4430 0.4430 0.4430
11.142000 0.4430 0.4430 0.4430 0.4430 0.4430
11.176130 0.4430 0.4430 0.4450 0.4450 0.4450
11.211000 0.4470 0.4470 0.4480 0.4480 0.4520
11.245130 0.4540 0.4550 0.4570 0.4590 0.4590
11.279000 0.4600 0.4600 0.4620 0.4620 0.4650
11.313130 0.4650 0.4670 0.4670 0.4670 0.4690
11.347000 0.4710 0.4710 0.4720 0.4740 0.4740
11.381130 0.4760 0.4760 0.4760 0.4770 0.4770
11.415000 0.4790 0.4790 0.4790 0.4810 0.4810
11.449130 0.4810 0.4810 0.4810 0.4810 0.4820
11.483000 0.4820 0.4840 0.4840 0.4840 0.4840
11.517130 0.4840 0.4840 0.4840 0.4820 0.4810
11.552000 0.4810 0.4820 0.4820 0.4820 0.4820
11.586130 0.4820 0.4820 0.4810 0.4820 0.4820
11.620000 0.4840 0.4840 0.4840 0.4840 0.4840
11.654130 0.4820 0.4820 0.4810 0.4810 0.4820
11.688000 0.4820 0.4840 0.4860 0.4860 0.4860
11.722130 0.4860 0.4860 0.4860 0.4860 0.4820
11.756000 0.4820 0.4820 0.4810 0.4820 0.4820
11.790130 0.4820 0.4820 0.4810 0.4790 0.4790
11.825000 0.4770 0.4770 0.4790 0.4790 0.4810
11.859130 0.4810 0.4810 0.4810 0.4790 0.4790
11.893000 0.4790 0.4790 0.4790 0.4790 0.4790
11.927130 0.4790 0.4790 0.4790 0.4790 0.4770
11.961000 0.4770 0.4770 0.4770 0.4770 0.4770
11.995130 0.4760 0.4770 0.4770 0.4760 0.4760
12.029000 0.4760 0.4760 0.4740 0.4740 0.4740
12.063130 0.4720 0.4720 0.4720 0.4710 0.4710
12.097000 0.4710 0.4690 0.4670 0.4650 0.4650
12.131130 0.4650 0.4650 0.4650 0.4650 0.4650
12.166000 0.4650 0.4650 0.4640 0.4620 0.4620
12.200130 0.4590 0.4590 0.4590 0.4570 0.4570
12.234000 0.4570 0.4550 0.4550 0.4550 0.4540
12.268130 0.4520 0.4500 0.4480 0.4470 0.4470
12.302000 0.4450 0.4430 0.4430 0.4420 0.4420
12.336130 0.4400 0.4380 0.4380 0.4370 0.4370
12.370000 0.4350 0.4350 0.4330 0.4310 0.4300
12.404130 0.4280 0.4260 0.4250 0.4250 0.4200
12.439000 0.4160 0.4160 0.4140 0.4130 0.4110
12.473130 0.4110 0.4090 0.4080 0.4060 0.4040
12.507000 0.4010 0.3990 0.3990 0.3970 0.3960
12.541130 0.3960 0.3940 0.3940 0.3920 0.3920
12.575000 0.3890 0.3870 0.3860 0.3840 0.3840
12.609130 0.3770 0.3700 0.3700 0.3700 0.3690
12.643000 0.3690 0.3690 0.3630 0.3600 0.3550
12.677130 0.3500 0.3480 0.3460 0.3460 0.3450
12.712000 0.3380 0.3350 0.3290 0.3280 0.3260
12.746130 0.3240 0.3230 0.3190 0.3110 0.3070
12.780000 0.3060 0.3020 0.3010 0.3010 0.3010
12.814130 0.3010 0.3020 0.3020 0.3020 0.3010
12.848000 0.3010 0.2990 0.2990 0.2970 0.2940
12.882130 0.2900 0.2900 0.2900 0.2890 0.2870
12.916000 0.2870 0.2850 0.2850 0.2850 0.2800
12.950130 0.2800 0.2770 0.2770 0.2750 0.2750
12.984000 0.2750 0.2730 0.2720 0.2680 0.2670
13.018130 0.2670 0.2670 0.2670 0.2650 0.2650
13.053000 0.2650 0.2650 0.2650 0.2630 0.2630
13.087130 0.2610 0.2610 0.2610 0.2580 0.2580
13.121000 0.2560 0.2560 0.2550 0.2550 0.2550
13.155130 0.2530 0.2530 0.2510 0.2510 0.2510
13.189000 0.2510 0.2510 0.2500 0.2480 0.2460
13.223130 0.2440 0.2430 0.2430 0.2430 0.2430
13.257000 0.2440 0.2440 0.2440 0.2430 0.2410
13.291130 0.2390 0.2380 0.2380 0.2360 0.2360
13.326000 0.2340 0.2290 0.2270 0.2270 0.2240
13.360130 0.2220 0.2210 0.2210 0.2210 0.2210
13.394000 0.2210 0.2190 0.2170 0.2150 0.2120
13.428130 0.2120 0.2100 0.2050 0.2020 0.2000
13.462000 0.2000 0.1980 0.1980 0.1980 0.1970
13.496130 0.1950 0.1930 0.1930 0.1930 0.1880
13.530000 0.1850 0.1850 0.1830 0.1810 0.1800
13.564130 0.1780 0.1780 0.1730 0.1730 0.1710
13.598000 0.1710 0.1700 0.1700 0.1700 0.1700
13.632130 0.1700 0.1710 0.1710 0.1710 0.1700
13.667000 0.1700 0.1700 0.1700 0.1700 0.1710
13.701130 0.1710 0.1710 0.1710 0.1710 0.1730
13.735000 0.1760 0.1760 0.1760 0.1780 0.1780
13.769130 0.1780 0.1780 0.1800 0.1800 0.1800
13.803000 0.1810 0.1810 0.1810 0.1830 0.1850
13.837130 0.1870 0.1870 0.1870 0.1870 0.1880
13.871000 0.1930 0.1950 0.1970 0.1970 0.1970
13.905130 0.1980 0.1980 0.1980 0.1980 0.1980
13.940000 0.2000 0.2040 0.2090 0.2100 0.2100
13.974130 0.2100 0.2140 0.2150 0.2150 0.2150
14.008000 0.2150 0.2170 0.2170 0.2170 0.2170
14.042130 0.2190 0.2190 0.2190 0.2190 0.2190
14.076000 0.2190 0.2190 0.2190 0.2190 0.2190
14.110130 0.2190 0.2190 0.2210 0.2210 0.2210
14.144000 0.2210 0.2210 0.2210 0.2210 0.2190
14.178130 0.2150 0.2140 0.2140 0.2140 0.2120
14.212000 0.2120 0.2100 0.2100 0.2100 0.2100
14.246130 0.2100 0.2090 0.2070 0.2070 0.2050
14.281000 0.2050 0.2040 0.2040 0.2020 0.2020
14.315130 0.2020 0.2020 0.2020 0.2000 0.2000
14.349000 0.1980 0.1980 0.1970 0.1970 0.1970
14.383130 0.1950 0.1950 0.1950 0.1930 0.1930
14.417000 0.1930 0.1930 0.1920 0.1920 0.1920
14.451130 0.1920 0.1920 0.1900 0.1900 0.1900
14.485000 0.1900 0.1880 0.1900 0.1880 0.1880
14.519130 0.1870 0.1870 0.1870 0.1870 0.1870
14.554000 0.1870 0.1870 0.1870 0.1870 0.1850
14.588130 0.1870 0.1870 0.1870 0.1870 0.1870
14.622000 0.1870 0.1870 0.1870 0.1870 0.1870
14.656130 0.1870 0.1850 0.1850 0.1850 0.1850
14.690000 0.1850 0.1830 0.1830 0.1850 0.1850
14.724130 0.1850 0.1850 0.1830 0.1830 0.1830
14.758000 0.1810 0.1810 0.1810 0.1830 0.1830
14.792130 0.1830 0.1830 0.1830 0.1850 0.1870
14.827000 0.1870 0.1870 0.1870 0.1870 0.1880
14.861130 0.1880 0.1880 0.1900 0.1900 0.1870
14.895000 0.1870 0.1830 0.1830 0.1830 0.1830
14.929130 0.1870 0.1950 0.1980 0.2000 0.2020
14.963000 0.2040 0.2050 0.2100 0.2120 0.2140
14.997130 0.2150 0.2170 0.2190 0.2270 0.2380
15.031000 0.2380 0.2390 0.2390 0.2380 0.2320
15.065130 0.2220 0.2170 0.2140 0.2120 0.2100
15.099000 0.2090 0.2070 0.2050 0.2040 0.2040
15.133130 0.2040 0.2020 0.2020 0.2020 0.2020
15.168000 0.2040 0.2050 0.2090 0.2120 0.2120
15.202130 0.2150 0.2190 0.2210 0.2210 0.2220
15.236000 0.2260 0.2260 0.2270 0.2270 0.2270
15.270130 0.2290 0.2320 0.2380 0.2390 0.2390
15.304000 0.2410 0.2410 0.2410 0.2410 0.2430
15.338130 0.2460 0.2480 0.2500 0.2500 0.2510
15.372000 0.2510 0.2530 0.2530 0.2560 0.2600
15.406130 0.2650 0.2670 0.2680 0.2720 0.2730
15.441000 0.2730 0.2750 0.2780 0.2820 0.2820
15.475130 0.2820 0.2820 0.2820 0.2820 0.2820
15.509000 0.2840 0.2850 0.2890 0.2890 0.2890
15.543130 0.2890 0.2890 0.2890 0.2890 0.2900
15.577000 0.2920 0.2970 0.3010 0.3010 0.3020
15.611130 0.3020 0.3020 0.3020 0.3040 0.3040
15.645000 0.3070 0.3090 0.3110 0.3140 0.3160
15.679130 0.3160 0.3180 0.3180 0.3180 0.3190
15.713000 0.3210 0.3210 0.3230 0.3230 0.3240
15.747130 0.3260 0.3280 0.3280 0.3280 0.3280
15.782000 0.3280 0.3290 0.3330 0.3350 0.3360
15.816130 0.3380 0.3400 0.3410 0.3410 0.3450
15.850000 0.3450 0.3450 0.3450 0.3450 0.3450
15.884130 0.3460 0.3460 0.3480 0.3480 0.3480
15.918000 0.3500 0.3500 0.3520 0.3530 0.3530
15.952130 0.3530 0.3550 0.3580 0.3580 0.3600
15.986000 0.3600 0.3620
##END=
