##TITLE=2,6-DIAMINO-4-OXO-1,3,3a,7-TETRAZAINDENE MONO-HYDROCHLORIDE
##JCAMP-DX=4.24
##DATA TYPE=INFRARED SPECTRUM
##CLASS=COBLENTZ
##ORIGIN=EASTMAN KODAK COMPANY, RESEARCH LABORATORIES, ROCHESTER, N.Y.
##OWNER=COBLENTZ SOCIETY
Collection (C) 2018 copyright by the U.S. Secretary of Commerce
on behalf of the United States of America. All rights reserved.
##DATE=Not specified, most likely prior to 1970
##MOLFORM=C5 H7 Cl N6 O
$$ J. ORG. CHEM. 26, 3834(1961)
##MP=ABOVE 380 C
##SOURCE REFERENCE=COBLENTZ NO. 2139
##$NIST ID=B6002139
##$NIST SOURCE=COBLENTZ
##$NIST IMAGE=cob2139
##SPECTROMETER/DATA SYSTEM=Not specified, most likely a prism, grating, or hybrid spectrometer.
##STATE=SOLID (KBr PRESSING)
##SAMPLING PROCEDURE=TRANSMISSION
##RESOLUTION=4
##DATA PROCESSING=DIGITIZED BY NIST FROM HARD COPY
##XUNITS=MICROMETERS
##YUNITS=TRANSMITTANCE
##XFACTOR=1.000000
##YFACTOR=1
##DELTAX=000.007038
##FIRSTX=2.036
##LASTX=16.0132
##FIRSTY=0.762
##MAXX=16.0132
##MINX=2.036
##MAXY=0.89
##MINY=0.061
##NPOINTS=1987
##XYDATA=(X++(Y..Y))
2.036000 0.7620 0.7640 0.7660 0.7660 0.7670
2.071206 0.7690 0.7710 0.7730 0.7740 0.7760
2.106000 0.7780 0.7800 0.7830 0.7830 0.7830
2.141206 0.7830 0.7830 0.7850 0.7870 0.7880
2.177000 0.7900 0.7900 0.7900 0.7900 0.7900
2.212206 0.7920 0.7920 0.7920 0.7940 0.7940
2.247000 0.7950 0.7970 0.7990 0.8010 0.8010
2.282206 0.8020 0.8040 0.8040 0.8060 0.8080
2.317000 0.8080 0.8090 0.8090 0.8110 0.8090
2.352206 0.8090 0.8110 0.8110 0.8110 0.8110
2.388000 0.8110 0.8130 0.8110 0.8150 0.8160
2.423206 0.8200 0.8200 0.8200 0.8210 0.8210
2.458000 0.8210 0.8210 0.8210 0.8210 0.8230
2.493206 0.8230 0.8230 0.8230 0.8250 0.8250
2.528000 0.8270 0.8270 0.8280 0.8280 0.8300
2.563206 0.8300 0.8300 0.8320 0.8340 0.8350
2.599000 0.8390 0.8410 0.8420 0.8440 0.8440
2.634206 0.8440 0.8440 0.8440 0.8440 0.8420
2.669000 0.8420 0.8410 0.8390 0.8390 0.8320
2.704206 0.8250 0.8060 0.7970 0.7780 0.7600
2.740000 0.7270 0.6910 0.6570 0.6280 0.6030
2.775206 0.5820 0.5630 0.5440 0.5250 0.5040
2.810000 0.4880 0.4710 0.4530 0.4380 0.4200
2.845206 0.4030 0.3830 0.3660 0.3470 0.3330
2.880000 0.3170 0.3010 0.2860 0.2610 0.2490
2.915206 0.2420 0.2420 0.2400 0.2400 0.2420
2.951000 0.2440 0.2440 0.2420 0.2370 0.2280
2.986206 0.2160 0.2120 0.1970 0.1950 0.1950
3.021000 0.1950 0.1980 0.2140 0.2190 0.2230
3.056206 0.2280 0.2350 0.2440 0.2540 0.2540
3.091000 0.2540 0.2540 0.2530 0.2510 0.2490
3.126206 0.2470 0.2470 0.2420 0.2390 0.2320
3.162000 0.2260 0.2210 0.2180 0.2120 0.2040
3.197206 0.2000 0.1950 0.1930 0.1930 0.1970
3.232000 0.2040 0.2120 0.2250 0.2350 0.2460
3.267206 0.2490 0.2540 0.2560 0.2560 0.2600
3.303000 0.2680 0.2890 0.3030 0.3150 0.3290
3.338206 0.3360 0.3450 0.3540 0.3590 0.3630
3.373000 0.3630 0.3630 0.3630 0.3590 0.3520
3.408206 0.3500 0.3490 0.3500 0.3760 0.3900
3.443000 0.3990 0.4040 0.4080 0.4110 0.4170
3.478206 0.4200 0.4250 0.4340 0.4430 0.4550
3.514000 0.4600 0.4720 0.4790 0.4830 0.4880
3.549206 0.4920 0.4990 0.5000 0.5000 0.5020
3.584000 0.5020 0.5000 0.5000 0.4990 0.4990
3.619206 0.4990 0.4990 0.5000 0.5000 0.5020
3.655000 0.5070 0.5090 0.5090 0.5090 0.5090
3.690206 0.5070 0.5040 0.5000 0.4970 0.4900
3.725000 0.4830 0.4790 0.4780 0.4780 0.4780
3.760206 0.4780 0.4790 0.4790 0.4810 0.4850
3.795000 0.4880 0.4920 0.4970 0.5040 0.5060
3.830206 0.5110 0.5130 0.5140 0.5160 0.5180
3.866000 0.5200 0.5210 0.5230 0.5280 0.5390
3.901206 0.5420 0.5490 0.5540 0.5560 0.5580
3.936000 0.5580 0.5600 0.5670 0.5700 0.5720
3.971206 0.5790 0.5880 0.5950 0.6020 0.6070
4.006000 0.6140 0.6190 0.6240 0.6300 0.6360
4.041206 0.6420 0.6470 0.6520 0.6560 0.6590
4.077000 0.6660 0.6710 0.6770 0.6800 0.6840
4.112206 0.6890 0.6910 0.6960 0.6990 0.6990
4.147000 0.6990 0.6990 0.6990 0.6990 0.7010
4.182206 0.7010 0.7010 0.7010 0.7010 0.6990
4.218000 0.7010 0.7010 0.7010 0.7010 0.7030
4.253206 0.7050 0.7100 0.7130 0.7170 0.7200
4.288000 0.7270 0.7340 0.7410 0.7460 0.7500
4.323206 0.7570 0.7620 0.7690 0.7730 0.7760
4.358000 0.7780 0.7780 0.7800 0.7810 0.7870
4.393206 0.7900 0.7940 0.7970 0.8010 0.8020
4.429000 0.8040 0.8060 0.8080 0.8090 0.8110
4.464206 0.8110 0.8130 0.8150 0.8180 0.8200
4.499000 0.8200 0.8210 0.8210 0.8230 0.8230
4.534206 0.8250 0.8250 0.8270 0.8280 0.8300
4.569000 0.8340 0.8370 0.8370 0.8390 0.8420
4.604206 0.8420 0.8420 0.8420 0.8420 0.8420
4.640000 0.8420 0.8420 0.8420 0.8420 0.8460
4.675206 0.8460 0.8480 0.8480 0.8460 0.8460
4.710000 0.8460 0.8460 0.8480 0.8490 0.8490
4.745206 0.8510 0.8510 0.8530 0.8530 0.8530
4.781000 0.8530 0.8530 0.8530 0.8530 0.8530
4.816206 0.8550 0.8550 0.8550 0.8530 0.8530
4.851000 0.8530 0.8530 0.8530 0.8530 0.8560
4.886206 0.8560 0.8580 0.8600 0.8600 0.8620
4.921000 0.8620 0.8630 0.8650 0.8670 0.8670
4.956206 0.8690 0.8690 0.8700 0.8720 0.8790
4.992000 0.8830 0.8830 0.8830 0.8830 0.8830
5.027206 0.8830 0.8830 0.8810 0.8790 0.8790
5.062000 0.8790 0.8770 0.8770 0.8770 0.8790
5.097206 0.8810 0.8810 0.8810 0.8810 0.8810
5.132000 0.8810 0.8830 0.8830 0.8840 0.8840
5.167206 0.8860 0.8860 0.8860 0.8880 0.8880
5.203000 0.8900 0.8900 0.8900 0.8900 0.8880
5.238206 0.8880 0.8880 0.8860 0.8860 0.8860
5.273000 0.8880 0.8880 0.8880 0.8860 0.8860
5.308206 0.8830 0.8810 0.8770 0.8760 0.8740
5.344000 0.8740 0.8790 0.8810 0.8810 0.8810
5.379206 0.8830 0.8830 0.8830 0.8810 0.8790
5.414000 0.8760 0.8760 0.8760 0.8760 0.8740
5.449206 0.8720 0.8690 0.8650 0.8650 0.8650
5.484000 0.8650 0.8650 0.8650 0.8620 0.8600
5.519206 0.8580 0.8580 0.8560 0.8550 0.8530
5.555000 0.8530 0.8510 0.8510 0.8490 0.8480
5.590206 0.8440 0.8420 0.8420 0.8410 0.8370
5.625000 0.8340 0.8300 0.8300 0.8280 0.8270
5.660206 0.8250 0.8230 0.8210 0.8180 0.8130
5.695000 0.8040 0.8020 0.8010 0.7990 0.7970
5.730206 0.7920 0.7850 0.7780 0.7710 0.7640
5.766000 0.7500 0.7480 0.7360 0.7220 0.7100
5.801206 0.7050 0.6820 0.6630 0.6490 0.6400
5.836000 0.6360 0.6140 0.5810 0.5130 0.4710
5.871206 0.4480 0.4240 0.4040 0.3850 0.3640
5.907000 0.3190 0.2330 0.1740 0.1410 0.1300
5.942206 0.1290 0.1230 0.1150 0.1020 0.0970
5.977000 0.0920 0.0870 0.0830 0.0660 0.0610
6.012206 0.0610 0.0610 0.0610 0.0660 0.0690
6.047000 0.0710 0.0730 0.0760 0.0780 0.0870
6.082206 0.0900 0.0950 0.0990 0.1020 0.1060
6.118000 0.1040 0.0950 0.0870 0.0780 0.0730
6.153206 0.0730 0.0780 0.0850 0.0900 0.1040
6.188000 0.1250 0.1430 0.1480 0.1510 0.1500
6.223206 0.1390 0.1300 0.1290 0.1290 0.1290
6.258000 0.1300 0.1390 0.1480 0.1600 0.1720
6.293206 0.1950 0.2020 0.2140 0.2210 0.2330
6.329000 0.2460 0.2560 0.2730 0.2870 0.3000
6.364206 0.3120 0.3210 0.3290 0.3360 0.3450
6.399000 0.3520 0.3590 0.3680 0.3760 0.3850
6.434206 0.4030 0.4150 0.4270 0.4320 0.4380
6.470000 0.4390 0.4480 0.4550 0.4690 0.4900
6.505206 0.5040 0.5130 0.5270 0.5280 0.5280
6.540000 0.5210 0.5020 0.4710 0.4380 0.4010
6.575206 0.3640 0.3280 0.3260 0.2650 0.2020
6.610000 0.2000 0.2000 0.2040 0.2260 0.2400
6.645206 0.2670 0.3030 0.3360 0.3500 0.3590
6.681000 0.3630 0.3690 0.3710 0.3760 0.3830
6.716206 0.3990 0.4060 0.4250 0.4340 0.4390
6.751000 0.4500 0.4580 0.4650 0.4720 0.4740
6.786206 0.4880 0.5180 0.5280 0.5410 0.5420
6.821000 0.5490 0.5530 0.5610 0.5670 0.5680
6.856206 0.5680 0.5700 0.5700 0.5680 0.5600
6.892000 0.5510 0.5510 0.5510 0.5610 0.5750
6.927206 0.5810 0.5840 0.5860 0.5860 0.5840
6.962000 0.5840 0.5810 0.5650 0.5510 0.5270
6.997206 0.4990 0.4670 0.4390 0.4150 0.4030
7.033000 0.3900 0.3820 0.3750 0.3710 0.3710
7.068206 0.3710 0.3710 0.3750 0.3940 0.4110
7.103000 0.4310 0.4460 0.4620 0.4720 0.4850
7.138206 0.4900 0.4950 0.4990 0.5000 0.5040
7.173000 0.5070 0.5090 0.5140 0.5180 0.5230
7.208206 0.5250 0.5340 0.5410 0.5510 0.5600
7.244000 0.5700 0.5820 0.5860 0.5880 0.5890
7.279206 0.5880 0.5840 0.5810 0.5790 0.5670
7.314000 0.5600 0.5530 0.5490 0.5490 0.5440
7.349206 0.5410 0.5390 0.5370 0.5340 0.5280
7.385000 0.5280 0.5250 0.5250 0.5270 0.5340
7.420206 0.5410 0.5490 0.5530 0.5580 0.5600
7.455000 0.5670 0.5720 0.5790 0.5820 0.5890
7.490206 0.5980 0.6020 0.6050 0.6140 0.6210
7.525000 0.6230 0.6280 0.6310 0.6350 0.6380
7.560206 0.6400 0.6420 0.6420 0.6420 0.6420
7.596000 0.6400 0.6380 0.6310 0.6240 0.6160
7.631206 0.6070 0.5960 0.5750 0.5560 0.5370
7.666000 0.5280 0.5270 0.5250 0.5270 0.5300
7.701206 0.5390 0.5530 0.5650 0.5750 0.5860
7.736000 0.5960 0.6050 0.6140 0.6210 0.6280
7.771206 0.6350 0.6400 0.6430 0.6450 0.6470
7.807000 0.6490 0.6500 0.6540 0.6560 0.6570
7.842206 0.6570 0.6590 0.6590 0.6610 0.6610
7.877000 0.6610 0.6610 0.6590 0.6590 0.6570
7.912206 0.6570 0.6570 0.6590 0.6590 0.6590
7.948000 0.6610 0.6630 0.6680 0.6710 0.6780
7.983206 0.6840 0.6890 0.6920 0.6960 0.6980
8.018000 0.6980 0.6990 0.7010 0.7010 0.7030
8.053206 0.7030 0.7030 0.7030 0.7030 0.7010
8.088000 0.7010 0.7010 0.6990 0.6980 0.6940
8.123206 0.6910 0.6870 0.6820 0.6730 0.6640
8.159000 0.6560 0.6500 0.6420 0.6300 0.6170
8.194206 0.5750 0.5510 0.5320 0.5060 0.4850
8.229000 0.4670 0.4530 0.4380 0.4220 0.4170
8.264206 0.4170 0.4180 0.4200 0.4340 0.4460
8.299000 0.4580 0.4710 0.4860 0.5040 0.5140
8.334206 0.5230 0.5300 0.5350 0.5410 0.5440
8.370000 0.5490 0.5530 0.5540 0.5560 0.5580
8.405206 0.5600 0.5600 0.5600 0.5600 0.5600
8.440000 0.5600 0.5610 0.5630 0.5680 0.5740
8.475206 0.5810 0.5860 0.5910 0.6000 0.6000
8.511000 0.6050 0.6120 0.6170 0.6190 0.6210
8.546206 0.6230 0.6280 0.6310 0.6330 0.6330
8.581000 0.6360 0.6400 0.6430 0.6450 0.6470
8.616206 0.6470 0.6470 0.6470 0.6450 0.6430
8.651000 0.6420 0.6420 0.6450 0.6470 0.6490
8.686206 0.6520 0.6560 0.6570 0.6610 0.6640
8.722000 0.6680 0.6710 0.6730 0.6770 0.6780
8.757206 0.6800 0.6800 0.6820 0.6820 0.6820
8.792000 0.6840 0.6850 0.6850 0.6870 0.6870
8.827206 0.6890 0.6890 0.6890 0.6890 0.6890
8.862000 0.6890 0.6890 0.6890 0.6890 0.6890
8.897206 0.6910 0.6910 0.6910 0.6910 0.6890
8.933000 0.6890 0.6890 0.6890 0.6870 0.6870
8.968206 0.6870 0.6850 0.6850 0.6850 0.6850
9.003000 0.6850 0.6850 0.6850 0.6850 0.6850
9.038206 0.6850 0.6850 0.6850 0.6850 0.6850
9.074000 0.6850 0.6850 0.6850 0.6850 0.6850
9.109206 0.6850 0.6850 0.6850 0.6850 0.6850
9.144000 0.6850 0.6850 0.6850 0.6850 0.6850
9.179206 0.6850 0.6850 0.6870 0.6870 0.6890
9.214000 0.6890 0.6910 0.6910 0.6920 0.6920
9.249206 0.6940 0.6940 0.6960 0.6990 0.6990
9.285000 0.6990 0.7010 0.7030 0.7050 0.7080
9.320206 0.7100 0.7120 0.7120 0.7120 0.7130
9.355000 0.7150 0.7150 0.7150 0.7150 0.7130
9.390206 0.7130 0.7130 0.7130 0.7120 0.7100
9.425000 0.7080 0.7060 0.7050 0.7010 0.6990
9.460206 0.6990 0.6990 0.7010 0.7030 0.7100
9.496000 0.7130 0.7170 0.7220 0.7260 0.7260
9.531206 0.7260 0.7240 0.7220 0.7200 0.7120
9.566000 0.7080 0.7010 0.6940 0.6820 0.6680
9.601206 0.6630 0.6560 0.6490 0.6400 0.6300
9.637000 0.6280 0.6210 0.6140 0.6100 0.6090
9.672206 0.6090 0.6090 0.6090 0.6100 0.6160
9.707000 0.6230 0.6300 0.6350 0.6380 0.6400
9.742206 0.6470 0.6520 0.6630 0.6750 0.6820
9.777000 0.6890 0.6980 0.7050 0.7100 0.7120
9.812206 0.7150 0.7220 0.7240 0.7270 0.7290
9.848000 0.7310 0.7320 0.7340 0.7360 0.7380
9.883206 0.7380 0.7380 0.7340 0.7310 0.7240
9.918000 0.7200 0.7130 0.7050 0.6960 0.6840
9.953206 0.6640 0.6470 0.6300 0.6120 0.5960
9.988000 0.5750 0.5490 0.5090 0.4920 0.4850
10.023206 0.4670 0.4520 0.4460 0.4430 0.4430
10.059000 0.4500 0.4740 0.4950 0.5140 0.5410
10.094206 0.5670 0.5860 0.5980 0.6120 0.6210
10.129000 0.6300 0.6420 0.6560 0.6660 0.6820
10.164206 0.6870 0.6940 0.6980 0.7030 0.7100
10.200000 0.7200 0.7220 0.7240 0.7290 0.7310
10.235206 0.7320 0.7340 0.7360 0.7380 0.7380
10.270000 0.7390 0.7390 0.7430 0.7430 0.7430
10.305206 0.7450 0.7450 0.7450 0.7450 0.7460
10.340000 0.7480 0.7500 0.7500 0.7500 0.7500
10.375206 0.7520 0.7520 0.7520 0.7520 0.7520
10.411000 0.7520 0.7500 0.7500 0.7500 0.7500
10.446206 0.7500 0.7500 0.7500 0.7500 0.7500
10.481000 0.7500 0.7500 0.7520 0.7520 0.7520
10.516206 0.7520 0.7520 0.7520 0.7520 0.7520
10.552000 0.7520 0.7520 0.7520 0.7520 0.7520
10.587206 0.7520 0.7520 0.7500 0.7450 0.7450
10.622000 0.7430 0.7430 0.7410 0.7410 0.7410
10.657206 0.7390 0.7390 0.7390 0.7390 0.7390
10.692000 0.7390 0.7390 0.7380 0.7360 0.7340
10.727206 0.7320 0.7310 0.7310 0.7290 0.7290
10.763000 0.7290 0.7290 0.7290 0.7290 0.7270
10.798206 0.7270 0.7260 0.7240 0.7220 0.7200
10.833000 0.7170 0.7150 0.7130 0.7130 0.7130
10.868206 0.7130 0.7120 0.7120 0.7120 0.7120
10.903000 0.7120 0.7120 0.7120 0.7120 0.7120
10.938206 0.7100 0.7100 0.7100 0.7100 0.7080
10.974000 0.7080 0.7060 0.7050 0.7030 0.7010
11.009206 0.6990 0.6990 0.6980 0.6960 0.6940
11.044000 0.6940 0.6940 0.6960 0.6960 0.6980
11.079206 0.6980 0.6990 0.7010 0.7010 0.7010
11.115000 0.7030 0.7030 0.7030 0.7030 0.7050
11.150206 0.7060 0.7060 0.7060 0.7060 0.7060
11.185000 0.7060 0.7060 0.7050 0.7050 0.7050
11.220206 0.7050 0.7030 0.7010 0.7010 0.7010
11.255000 0.6990 0.6980 0.6960 0.6940 0.6940
11.290206 0.6920 0.6920 0.6910 0.6910 0.6910
11.326000 0.6910 0.6890 0.6890 0.6890 0.6910
11.361206 0.6910 0.6920 0.6960 0.6960 0.6980
11.396000 0.6990 0.6990 0.7010 0.7010 0.7030
11.431206 0.7050 0.7050 0.7050 0.7050 0.7050
11.466000 0.7030 0.7030 0.7010 0.7010 0.6990
11.501206 0.6990 0.6990 0.6990 0.6990 0.7010
11.537000 0.7050 0.7120 0.7150 0.7190 0.7220
11.572206 0.7290 0.7320 0.7360 0.7360 0.7380
11.607000 0.7380 0.7390 0.7390 0.7390 0.7390
11.642206 0.7390 0.7390 0.7410 0.7410 0.7410
11.678000 0.7410 0.7410 0.7410 0.7410 0.7410
11.713206 0.7410 0.7410 0.7410 0.7410 0.7390
11.748000 0.7390 0.7390 0.7390 0.7390 0.7390
11.783206 0.7390 0.7390 0.7380 0.7380 0.7380
11.818000 0.7380 0.7380 0.7380 0.7380 0.7380
11.853206 0.7380 0.7380 0.7380 0.7380 0.7390
11.889000 0.7390 0.7390 0.7390 0.7410 0.7410
11.924206 0.7410 0.7410 0.7410 0.7390 0.7390
11.959000 0.7390 0.7410 0.7430 0.7450 0.7450
11.994206 0.7460 0.7480 0.7480 0.7520 0.7520
12.029000 0.7520 0.7520 0.7520 0.7530 0.7530
12.064206 0.7550 0.7570 0.7600 0.7600 0.7620
12.100000 0.7640 0.7640 0.7620 0.7620 0.7600
12.135206 0.7590 0.7570 0.7570 0.7550 0.7530
12.170000 0.7500 0.7480 0.7460 0.7460 0.7450
12.205206 0.7430 0.7410 0.7390 0.7360 0.7340
12.241000 0.7310 0.7240 0.7200 0.7150 0.7060
12.276206 0.7010 0.6920 0.6820 0.6700 0.6570
12.311000 0.6450 0.6310 0.6190 0.6090 0.5960
12.346206 0.5810 0.5700 0.5610 0.5580 0.5530
12.381000 0.5470 0.5390 0.5300 0.5270 0.5270
12.416206 0.5280 0.5300 0.5350 0.5470 0.5600
12.452000 0.5680 0.5720 0.5810 0.6030 0.6160
12.487206 0.6230 0.6310 0.6400 0.6470 0.6520
12.522000 0.6560 0.6640 0.6710 0.6730 0.6750
12.557206 0.6770 0.6820 0.6870 0.6890 0.6910
12.592000 0.6940 0.6990 0.6990 0.7010 0.7010
12.627206 0.7030 0.7030 0.7050 0.7050 0.7080
12.663000 0.7080 0.7080 0.7100 0.7100 0.7100
12.698206 0.7100 0.7080 0.7050 0.7030 0.7010
12.733000 0.7010 0.6990 0.6940 0.6910 0.6820
12.768206 0.6730 0.6700 0.6640 0.6570 0.6540
12.804000 0.6360 0.6230 0.6100 0.6020 0.5860
12.839206 0.5700 0.5560 0.5490 0.5410 0.5350
12.874000 0.5340 0.5320 0.5320 0.5320 0.5350
12.909206 0.5410 0.5420 0.5490 0.5560 0.5650
12.944000 0.5700 0.5740 0.5790 0.5820 0.5860
12.979206 0.5890 0.5930 0.5980 0.6000 0.6020
13.015000 0.6030 0.6090 0.6100 0.6100 0.6100
13.050206 0.6090 0.6050 0.6030 0.6000 0.5980
13.085000 0.5980 0.5950 0.5910 0.5880 0.5860
13.120206 0.5810 0.5750 0.5700 0.5700 0.5680
13.155000 0.5650 0.5630 0.5610 0.5580 0.5530
13.190206 0.5510 0.5510 0.5490 0.5490 0.5470
13.226000 0.5470 0.5460 0.5460 0.5460 0.5440
13.261206 0.5440 0.5420 0.5390 0.5300 0.5210
13.296000 0.5180 0.5140 0.5090 0.5070 0.5110
13.331206 0.5210 0.5320 0.5420 0.5560 0.5700
13.367000 0.5890 0.6000 0.6070 0.6170 0.6260
13.402206 0.6350 0.6420 0.6490 0.6520 0.6540
13.437000 0.6560 0.6630 0.6700 0.6730 0.6750
13.472206 0.6800 0.6820 0.6870 0.6890 0.6910
13.507000 0.6920 0.6940 0.6960 0.6960 0.6980
13.542206 0.7010 0.7030 0.7050 0.7050 0.7060
13.578000 0.7060 0.7060 0.7060 0.7050 0.7050
13.613206 0.7050 0.7060 0.7080 0.7080 0.7100
13.648000 0.7120 0.7120 0.7120 0.7120 0.7120
13.683206 0.7130 0.7130 0.7150 0.7150 0.7150
13.718000 0.7170 0.7190 0.7200 0.7220 0.7240
13.753206 0.7240 0.7240 0.7240 0.7240 0.7240
13.789000 0.7240 0.7240 0.7240 0.7240 0.7220
13.824206 0.7220 0.7220 0.7220 0.7220 0.7220
13.859000 0.7200 0.7190 0.7170 0.7150 0.7130
13.894206 0.7100 0.7050 0.7030 0.7010 0.6980
13.930000 0.6980 0.6940 0.6910 0.6910 0.6910
13.965206 0.6910 0.6910 0.6910 0.6910 0.6910
14.000000 0.6870 0.6870 0.6850 0.6850 0.6840
14.035206 0.6820 0.6820 0.6800 0.6800 0.6780
14.070000 0.6780 0.6750 0.6730 0.6710 0.6710
14.105206 0.6700 0.6700 0.6660 0.6610 0.6540
14.141000 0.6490 0.6420 0.6360 0.6300 0.6210
14.176206 0.6120 0.6030 0.5930 0.5820 0.5720
14.211000 0.5610 0.5510 0.5390 0.5280 0.5180
14.246206 0.5090 0.4990 0.4950 0.4830 0.4720
14.282000 0.4670 0.4620 0.4580 0.4500 0.4450
14.317206 0.4380 0.4310 0.4250 0.4200 0.4170
14.352000 0.4150 0.4130 0.4130 0.4130 0.4130
14.387206 0.4150 0.4180 0.4250 0.4340 0.4570
14.422000 0.4690 0.4790 0.4900 0.5070 0.5340
14.457206 0.5470 0.5630 0.5770 0.5930 0.6000
14.493000 0.6100 0.6240 0.6400 0.6470 0.6500
14.528206 0.6540 0.6610 0.6660 0.6700 0.6710
14.563000 0.6750 0.6780 0.6800 0.6820 0.6840
14.598206 0.6850 0.6850 0.6850 0.6850 0.6850
14.633000 0.6850 0.6850 0.6850 0.6870 0.6890
14.668206 0.6920 0.6960 0.6960 0.6960 0.6960
14.704000 0.6960 0.6960 0.6960 0.6960 0.6960
14.739206 0.6960 0.6960 0.6960 0.6920 0.6890
14.774000 0.6850 0.6840 0.6840 0.6840 0.6840
14.809206 0.6840 0.6820 0.6820 0.6820 0.6820
14.845000 0.6820 0.6820 0.6800 0.6800 0.6780
14.880206 0.6770 0.6770 0.6750 0.6750 0.6730
14.915000 0.6730 0.6730 0.6730 0.6730 0.6730
14.950206 0.6730 0.6730 0.6730 0.6710 0.6710
14.985000 0.6710 0.6700 0.6700 0.6640 0.6610
15.020206 0.6540 0.6470 0.6380 0.6330 0.6280
15.056000 0.6240 0.6230 0.6210 0.6160 0.6100
15.091206 0.6090 0.6020 0.6000 0.5980 0.5960
15.126000 0.5930 0.5890 0.5880 0.5840 0.5820
15.161206 0.5820 0.5810 0.5810 0.5810 0.5820
15.196000 0.5820 0.5840 0.5840 0.5860 0.5880
15.231206 0.5890 0.5910 0.5930 0.5930 0.5950
15.267000 0.5950 0.5960 0.5980 0.6000 0.6020
15.302206 0.6020 0.6030 0.6050 0.6050 0.6070
15.337000 0.6070 0.6090 0.6100 0.6120 0.6140
15.372206 0.6160 0.6170 0.6190 0.6190 0.6210
15.408000 0.6210 0.6230 0.6240 0.6280 0.6310
15.443206 0.6310 0.6310 0.6330 0.6330 0.6350
15.478000 0.6350 0.6350 0.6350 0.6360 0.6360
15.513206 0.6380 0.6400 0.6420 0.6430 0.6470
15.548000 0.6490 0.6500 0.6500 0.6500 0.6500
15.583206 0.6500 0.6500 0.6500 0.6490 0.6490
15.619000 0.6490 0.6490 0.6490 0.6490 0.6490
15.654206 0.6490 0.6490 0.6470 0.6450 0.6450
15.689000 0.6450 0.6450 0.6450 0.6450 0.6430
15.724206 0.6430 0.6430 0.6430 0.6420 0.6400
15.759000 0.6400 0.6380 0.6380 0.6360 0.6360
15.794206 0.6360 0.6350 0.6350 0.6350 0.6350
15.830000 0.6330 0.6310 0.6300 0.6280 0.6240
15.865206 0.6190 0.6190 0.6170 0.6160 0.6160
15.900000 0.6140 0.6140 0.6120 0.6090 0.6070
15.935206 0.6070 0.6020 0.6020 0.6000 0.6000
15.971000 0.5950 0.5930 0.5930 0.5910 0.5890
16.006206 0.5880 0.5880
##END=
