##TITLE=POTASSIUM PERCHLORATE
$$ A.R.
##JCAMP-DX=4.24
##DATA TYPE=INFRARED SPECTRUM
##CLASS=COBLENTZ
##ORIGIN=MELLON INSTITUTE
##OWNER=COBLENTZ SOCIETY
Collection (C) 2018 copyright by the U.S. Secretary of Commerce
on behalf of the United States of America. All rights reserved.
##DATE=Not specified, most likely prior to 1970
##MOLFORM=K Cl O4
##SOURCE REFERENCE=COBLENTZ NO. 525
##$NIST ID=B6000525
##$NIST SOURCE=COBLENTZ
##$NIST IMAGE=cob525
##SPECTROMETER/DATA SYSTEM=Not specified, most likely a prism, grating, or hybrid spectrometer.
##STATE=SOLID (NUJOL MULL)
##PATH LENGTH=
$$SPECTRAL CONTAMINATION DUE TO OIL AROUND 2900, 1450, 1380 CM^-^1
##SAMPLING PROCEDURE=TRANSMISSION
##RESOLUTION=4
##DATA PROCESSING=DIGITIZED BY NIST FROM HARD COPY
##XUNITS=MICROMETERS
##YUNITS=TRANSMITTANCE
##XFACTOR=1.000000
##YFACTOR=1
##DELTAX=000.006655
##FIRSTX=2.042
##LASTX=16.0227
##FIRSTY=0.904
##MAXX=16.0227
##MINX=2.042
##MAXY=0.949
##MINY=0.276
##NPOINTS=2102
##XYDATA=(X++(Y..Y))
2.042000 0.9040 0.9040 0.9040 0.9040 0.9040
2.075289 0.9020 0.9020 0.9020 0.9020 0.9020
2.108000 0.9020 0.9020 0.9020 0.9020 0.9020
2.141289 0.9020 0.9020 0.9020 0.9020 0.9020
2.175000 0.9020 0.9020 0.9040 0.9040 0.9040
2.208289 0.9040 0.9040 0.9060 0.9060 0.9060
2.241000 0.9060 0.9060 0.9060 0.9060 0.9070
2.274289 0.9070 0.9090 0.9090 0.9090 0.9110
2.308000 0.9110 0.9110 0.9110 0.9120 0.9110
2.341289 0.9110 0.9110 0.9110 0.9110 0.9110
2.374000 0.9110 0.9110 0.9110 0.9110 0.9120
2.407289 0.9120 0.9120 0.9120 0.9120 0.9120
2.441000 0.9120 0.9120 0.9140 0.9140 0.9120
2.474289 0.9120 0.9120 0.9140 0.9140 0.9140
2.508000 0.9140 0.9160 0.9160 0.9160 0.9160
2.541289 0.9160 0.9160 0.9160 0.9160 0.9160
2.574000 0.9170 0.9170 0.9170 0.9170 0.9170
2.607289 0.9170 0.9170 0.9190 0.9190 0.9190
2.641000 0.9190 0.9190 0.9190 0.9190 0.9210
2.674289 0.9210 0.9210 0.9210 0.9210 0.9210
2.707000 0.9210 0.9210 0.9210 0.9210 0.9210
2.740289 0.9220 0.9220 0.9220 0.9220 0.9220
2.774000 0.9220 0.9220 0.9220 0.9220 0.9220
2.807289 0.9220 0.9240 0.9240 0.9240 0.9240
2.840000 0.9260 0.9270 0.9270 0.9270 0.9290
2.873289 0.9290 0.9290 0.9290 0.9290 0.9290
2.907000 0.9310 0.9310 0.9310 0.9310 0.9310
2.940289 0.9310 0.9320 0.9320 0.9320 0.9320
2.973000 0.9320 0.9340 0.9340 0.9340 0.9340
3.006289 0.9340 0.9340 0.9340 0.9340 0.9340
3.040000 0.9360 0.9360 0.9360 0.9360 0.9380
3.073289 0.9360 0.9360 0.9360 0.9360 0.9360
3.106000 0.9360 0.9360 0.9360 0.9360 0.9360
3.139289 0.9360 0.9360 0.9340 0.9360 0.9360
3.173000 0.9360 0.9340 0.9340 0.9340 0.9340
3.206289 0.9340 0.9320 0.9320 0.9320 0.9320
3.240000 0.9320 0.9320 0.9310 0.9310 0.9290
3.273289 0.9270 0.9240 0.9210 0.9190 0.9120
3.306000 0.9040 0.8860 0.8450 0.7720 0.6780
3.339289 0.5840 0.4890 0.4130 0.3700 0.3530
3.373000 0.3360 0.3190 0.3180 0.3210 0.3510
3.406289 0.3650 0.3780 0.3930 0.4070 0.4220
3.439000 0.4300 0.4300 0.4200 0.4150 0.4150
3.472289 0.4150 0.4320 0.4520 0.4700 0.4970
3.506000 0.6360 0.6850 0.7250 0.7450 0.7870
3.539289 0.8240 0.8470 0.8570 0.8640 0.8690
3.572000 0.8790 0.8820 0.8890 0.8960 0.8990
3.605289 0.9010 0.9040 0.9090 0.9110 0.9110
3.639000 0.9120 0.9140 0.9140 0.9160 0.9170
3.672289 0.9170 0.9190 0.9190 0.9190 0.9210
3.705000 0.9210 0.9210 0.9220 0.9220 0.9220
3.738289 0.9240 0.9240 0.9240 0.9240 0.9260
3.772000 0.9270 0.9270 0.9290 0.9310 0.9310
3.805289 0.9310 0.9310 0.9320 0.9320 0.9340
3.838000 0.9340 0.9360 0.9360 0.9360 0.9380
3.871289 0.9380 0.9380 0.9390 0.9390 0.9390
3.905000 0.9390 0.9410 0.9410 0.9430 0.9410
3.938289 0.9430 0.9430 0.9430 0.9430 0.9440
3.972000 0.9440 0.9440 0.9440 0.9460 0.9460
4.005289 0.9460 0.9460 0.9460 0.9480 0.9480
4.038000 0.9480 0.9480 0.9480 0.9480 0.9480
4.071289 0.9480 0.9490 0.9490 0.9490 0.9480
4.105000 0.9480 0.9480 0.9460 0.9460 0.9460
4.138289 0.9440 0.9430 0.9430 0.9430 0.9430
4.171000 0.9430 0.9410 0.9410 0.9390 0.9390
4.204289 0.9390 0.9380 0.9360 0.9360 0.9360
4.238000 0.9360 0.9360 0.9360 0.9360 0.9360
4.271289 0.9360 0.9360 0.9360 0.9360 0.9360
4.304000 0.9340 0.9340 0.9340 0.9340 0.9340
4.337289 0.9340 0.9340 0.9340 0.9340 0.9340
4.371000 0.9340 0.9340 0.9340 0.9340 0.9340
4.404289 0.9340 0.9340 0.9340 0.9340 0.9340
4.437000 0.9340 0.9340 0.9340 0.9340 0.9340
4.470289 0.9340 0.9340 0.9340 0.9340 0.9340
4.504000 0.9340 0.9340 0.9340 0.9320 0.9320
4.537289 0.9320 0.9320 0.9320 0.9320 0.9320
4.570000 0.9310 0.9310 0.9290 0.9290 0.9290
4.603289 0.9290 0.9290 0.9290 0.9290 0.9310
4.637000 0.9310 0.9310 0.9290 0.9290 0.9290
4.670289 0.9290 0.9270 0.9270 0.9270 0.9270
4.704000 0.9260 0.9260 0.9260 0.9260 0.9260
4.737289 0.9260 0.9260 0.9240 0.9240 0.9240
4.770000 0.9240 0.9220 0.9220 0.9220 0.9210
4.803289 0.9220 0.9210 0.9210 0.9190 0.9190
4.837000 0.9170 0.9170 0.9160 0.9160 0.9140
4.870289 0.9140 0.9140 0.9140 0.9140 0.9140
4.903000 0.9120 0.9120 0.9110 0.9090 0.9060
4.936289 0.9060 0.9040 0.9040 0.9020 0.9010
4.970000 0.9010 0.8990 0.8970 0.8960 0.8960
5.003289 0.8940 0.8940 0.8940 0.8940 0.8940
5.036000 0.8960 0.8960 0.8970 0.8970 0.8990
5.069289 0.9010 0.9020 0.9040 0.9040 0.9060
5.103000 0.9090 0.9110 0.9120 0.9140 0.9140
5.136289 0.9140 0.9160 0.9170 0.9170 0.9170
5.169000 0.9170 0.9210 0.9210 0.9210 0.9210
5.202289 0.9220 0.9220 0.9220 0.9220 0.9220
5.236000 0.9220 0.9220 0.9220 0.9240 0.9240
5.269289 0.9240 0.9240 0.9240 0.9240 0.9240
5.302000 0.9240 0.9240 0.9220 0.9220 0.9220
5.335289 0.9220 0.9220 0.9220 0.9210 0.9210
5.369000 0.9210 0.9210 0.9210 0.9190 0.9190
5.402289 0.9190 0.9170 0.9170 0.9160 0.9160
5.436000 0.9140 0.9140 0.9140 0.9140 0.9140
5.469289 0.9140 0.9140 0.9140 0.9140 0.9120
5.502000 0.9120 0.9120 0.9120 0.9120 0.9120
5.535289 0.9110 0.9110 0.9110 0.9110 0.9110
5.569000 0.9110 0.9110 0.9110 0.9110 0.9110
5.602289 0.9070 0.9060 0.9060 0.9060 0.9060
5.635000 0.9060 0.9040 0.9040 0.9040 0.9040
5.668289 0.9060 0.9060 0.9040 0.9040 0.9040
5.702000 0.9040 0.9040 0.9040 0.9040 0.9020
5.735289 0.9020 0.9020 0.9020 0.9020 0.9020
5.768000 0.9010 0.9010 0.9010 0.8990 0.8990
5.801289 0.8990 0.8990 0.8990 0.8990 0.8990
5.835000 0.8990 0.8990 0.8970 0.8960 0.8940
5.868289 0.8940 0.8940 0.8940 0.8940 0.8940
5.901000 0.8920 0.8920 0.8920 0.8920 0.8920
5.934289 0.8910 0.8910 0.8890 0.8890 0.8890
5.968000 0.8870 0.8870 0.8870 0.8870 0.8870
6.001289 0.8860 0.8860 0.8860 0.8860 0.8860
6.034000 0.8840 0.8840 0.8840 0.8840 0.8840
6.067289 0.8840 0.8840 0.8840 0.8820 0.8820
6.101000 0.8820 0.8820 0.8820 0.8810 0.8810
6.134289 0.8810 0.8810 0.8810 0.8810 0.8810
6.168000 0.8810 0.8810 0.8790 0.8790 0.8810
6.201289 0.8810 0.8790 0.8790 0.8770 0.8770
6.234000 0.8770 0.8760 0.8760 0.8760 0.8760
6.267289 0.8740 0.8760 0.8760 0.8760 0.8760
6.301000 0.8760 0.8760 0.8760 0.8760 0.8740
6.334289 0.8740 0.8740 0.8740 0.8740 0.8740
6.367000 0.8740 0.8720 0.8720 0.8720 0.8720
6.400289 0.8720 0.8720 0.8710 0.8720 0.8710
6.434000 0.8690 0.8690 0.8670 0.8670 0.8670
6.467289 0.8650 0.8650 0.8650 0.8650 0.8650
6.500000 0.8650 0.8650 0.8640 0.8650 0.8650
6.533289 0.8640 0.8640 0.8640 0.8640 0.8620
6.567000 0.8620 0.8620 0.8600 0.8600 0.8600
6.600289 0.8600 0.8600 0.8600 0.8600 0.8590
6.633000 0.8590 0.8590 0.8550 0.8550 0.8550
6.666289 0.8540 0.8540 0.8540 0.8540 0.8520
6.700000 0.8500 0.8470 0.8440 0.8390 0.8340
6.733289 0.8300 0.8200 0.8040 0.8020 0.7880
6.766000 0.7770 0.7620 0.7470 0.7280 0.6980
6.799289 0.6850 0.6480 0.6290 0.6080 0.6040
6.833000 0.6030 0.6030 0.6030 0.6060 0.6110
6.866289 0.6140 0.6180 0.6230 0.6280 0.6290
6.900000 0.6460 0.6530 0.6680 0.6850 0.6860
6.933289 0.7000 0.7100 0.7180 0.7250 0.7350
6.966000 0.7450 0.7580 0.7650 0.7680 0.7730
6.999289 0.7770 0.7800 0.7830 0.7870 0.7880
7.033000 0.7880 0.7900 0.7920 0.7930 0.7930
7.066289 0.7970 0.7980 0.7980 0.8000 0.8000
7.099000 0.8020 0.8020 0.8040 0.8040 0.8050
7.132289 0.8050 0.8050 0.8070 0.8070 0.8050
7.166000 0.8000 0.7900 0.7780 0.7530 0.7470
7.199289 0.7400 0.7300 0.7110 0.7010 0.7000
7.232000 0.6980 0.6980 0.6980 0.7000 0.7010
7.265289 0.7030 0.7100 0.7150 0.7180 0.7210
7.299000 0.7260 0.7300 0.7380 0.7450 0.7600
7.332289 0.7630 0.7650 0.7670 0.7680 0.7700
7.365000 0.7720 0.7720 0.7730 0.7750 0.7750
7.398289 0.7750 0.7770 0.7770 0.7770 0.7770
7.432000 0.7780 0.7800 0.7800 0.7800 0.7800
7.465289 0.7800 0.7800 0.7800 0.7820 0.7820
7.498000 0.7820 0.7820 0.7820 0.7830 0.7830
7.531289 0.7830 0.7830 0.7830 0.7830 0.7830
7.565000 0.7830 0.7850 0.7850 0.7850 0.7830
7.598289 0.7830 0.7830 0.7830 0.7850 0.7830
7.632000 0.7830 0.7820 0.7820 0.7820 0.7800
7.665289 0.7800 0.7800 0.7800 0.7800 0.7800
7.698000 0.7800 0.7820 0.7820 0.7800 0.7800
7.731289 0.7800 0.7800 0.7800 0.7780 0.7780
7.765000 0.7780 0.7770 0.7770 0.7750 0.7730
7.798289 0.7720 0.7700 0.7700 0.7700 0.7700
7.831000 0.7680 0.7680 0.7680 0.7670 0.7670
7.864289 0.7650 0.7650 0.7630 0.7630 0.7620
7.898000 0.7620 0.7600 0.7600 0.7570 0.7550
7.931289 0.7550 0.7550 0.7550 0.7530 0.7530
7.964000 0.7520 0.7520 0.7500 0.7500 0.7480
7.997289 0.7470 0.7470 0.7450 0.7450 0.7450
8.031000 0.7450 0.7430 0.7420 0.7420 0.7420
8.064289 0.7400 0.7380 0.7370 0.7330 0.7310
8.097000 0.7310 0.7300 0.7280 0.7280 0.7250
8.130289 0.7230 0.7210 0.7200 0.7180 0.7150
8.164000 0.7130 0.7110 0.7100 0.7050 0.7050
8.197289 0.7010 0.6960 0.6960 0.6950 0.6930
8.230000 0.6900 0.6900 0.6850 0.6830 0.6800
8.263289 0.6780 0.6780 0.6750 0.6710 0.6680
8.297000 0.6660 0.6610 0.6590 0.6540 0.6490
8.330289 0.6430 0.6390 0.6380 0.6340 0.6230
8.364000 0.6190 0.6140 0.6080 0.6040 0.6030
8.397289 0.5990 0.5890 0.5790 0.5740 0.5710
8.430000 0.5660 0.5560 0.5520 0.5440 0.5370
8.463289 0.5290 0.5240 0.5190 0.5150 0.5140
8.497000 0.5100 0.5070 0.5040 0.5000 0.5000
8.530289 0.4970 0.4940 0.4890 0.4840 0.4770
8.563000 0.4740 0.4690 0.4630 0.4530 0.4470
8.596289 0.4400 0.4330 0.4280 0.4230 0.4180
8.630000 0.4130 0.4050 0.4030 0.4020 0.4000
8.663289 0.3980 0.3950 0.3880 0.3830 0.3800
8.696000 0.3730 0.3700 0.3630 0.3610 0.3580
8.729289 0.3560 0.3530 0.3530 0.3510 0.3510
8.763000 0.3500 0.3500 0.3480 0.3480 0.3460
8.796289 0.3450 0.3450 0.3430 0.3430 0.3410
8.829000 0.3400 0.3400 0.3380 0.3380 0.3360
8.862289 0.3360 0.3360 0.3350 0.3330 0.3310
8.896000 0.3290 0.3280 0.3260 0.3240 0.3240
8.929289 0.3230 0.3210 0.3190 0.3180 0.3160
8.962000 0.3160 0.3140 0.3130 0.3110 0.3110
8.995289 0.3110 0.3090 0.3080 0.3080 0.3060
9.029000 0.3080 0.3060 0.3060 0.3060 0.3040
9.062289 0.3040 0.3040 0.3030 0.3010 0.3010
9.096000 0.3010 0.2990 0.2980 0.2980 0.2960
9.129289 0.2960 0.2940 0.2930 0.2930 0.2910
9.162000 0.2910 0.2890 0.2890 0.2890 0.2880
9.195289 0.2880 0.2860 0.2840 0.2830 0.2830
9.229000 0.2830 0.2830 0.2830 0.2830 0.2810
9.262289 0.2810 0.2810 0.2790 0.2790 0.2790
9.295000 0.2780 0.2780 0.2760 0.2760 0.2760
9.328289 0.2760 0.2780 0.2780 0.2790 0.2790
9.362000 0.2810 0.2810 0.2810 0.2830 0.2840
9.395289 0.2840 0.2880 0.2930 0.2940 0.2940
9.428000 0.2980 0.2990 0.2990 0.3010 0.3030
9.461289 0.3040 0.3090 0.3110 0.3130 0.3180
9.495000 0.3210 0.3240 0.3280 0.3350 0.3380
9.528289 0.3410 0.3500 0.3550 0.3580 0.3610
9.561000 0.3700 0.3750 0.3780 0.3810 0.3880
9.594289 0.3960 0.4000 0.4030 0.4050 0.4080
9.628000 0.4150 0.4200 0.4230 0.4270 0.4300
9.661289 0.4350 0.4420 0.4470 0.4520 0.4570
9.694000 0.4600 0.4630 0.4670 0.4720 0.4750
9.727289 0.4790 0.4820 0.4870 0.4900 0.4950
9.761000 0.5020 0.5050 0.5090 0.5120 0.5190
9.794289 0.5220 0.5270 0.5320 0.5360 0.5390
9.828000 0.5440 0.5460 0.5510 0.5520 0.5560
9.861289 0.5570 0.5620 0.5640 0.5660 0.5670
9.894000 0.5710 0.5720 0.5720 0.5740 0.5760
9.927289 0.5770 0.5790 0.5790 0.5810 0.5820
9.961000 0.5840 0.5840 0.5870 0.5890 0.5920
9.994289 0.5990 0.6030 0.6030 0.6040 0.6080
10.027000 0.6090 0.6130 0.6190 0.6210 0.6230
10.060289 0.6240 0.6280 0.6310 0.6340 0.6380
10.094000 0.6390 0.6440 0.6460 0.6490 0.6510
10.127289 0.6530 0.6540 0.6540 0.6560 0.6560
10.160000 0.6580 0.6590 0.6590 0.6590 0.6610
10.193289 0.6630 0.6640 0.6640 0.6660 0.6680
10.227000 0.6700 0.6710 0.6710 0.6730 0.6730
10.260289 0.6750 0.6760 0.6780 0.6800 0.6800
10.293000 0.6810 0.6810 0.6830 0.6850 0.6860
10.326289 0.6880 0.6880 0.6900 0.6910 0.6930
10.360000 0.6930 0.6950 0.6980 0.6980 0.6980
10.393289 0.7000 0.7010 0.7030 0.7030 0.7050
10.426000 0.7050 0.7050 0.7060 0.7060 0.7080
10.459289 0.7100 0.7100 0.7110 0.7130 0.7130
10.493000 0.7130 0.7150 0.7150 0.7160 0.7180
10.526289 0.7200 0.7200 0.7210 0.7230 0.7230
10.560000 0.7230 0.7250 0.7250 0.7250 0.7230
10.593289 0.7210 0.7180 0.7110 0.7010 0.6900
10.626000 0.6830 0.6800 0.6750 0.6730 0.6750
10.659289 0.6800 0.6810 0.6850 0.6880 0.6910
10.693000 0.6930 0.7010 0.7010 0.7030 0.7060
10.726289 0.7080 0.7110 0.7130 0.7150 0.7160
10.759000 0.7180 0.7210 0.7230 0.7250 0.7280
10.792289 0.7280 0.7310 0.7350 0.7370 0.7380
10.826000 0.7400 0.7420 0.7430 0.7430 0.7450
10.859289 0.7470 0.7470 0.7480 0.7500 0.7520
10.892000 0.7520 0.7520 0.7520 0.7520 0.7530
10.925289 0.7530 0.7530 0.7550 0.7550 0.7550
10.959000 0.7570 0.7570 0.7580 0.7580 0.7600
10.992289 0.7620 0.7630 0.7630 0.7670 0.7700
11.025000 0.7720 0.7720 0.7730 0.7750 0.7750
11.058289 0.7750 0.7780 0.7780 0.7800 0.7800
11.092000 0.7800 0.7820 0.7820 0.7830 0.7830
11.125289 0.7850 0.7850 0.7870 0.7870 0.7880
11.158000 0.7880 0.7900 0.7900 0.7900 0.7920
11.191289 0.7920 0.7930 0.7930 0.7950 0.7950
11.225000 0.7970 0.7970 0.7980 0.7980 0.7980
11.258289 0.7980 0.7980 0.8000 0.8000 0.8000
11.292000 0.8000 0.8020 0.8020 0.8040 0.8020
11.325289 0.8040 0.8040 0.8050 0.8050 0.8050
11.358000 0.8070 0.8070 0.8070 0.8090 0.8090
11.391289 0.8090 0.8100 0.8100 0.8100 0.8100
11.425000 0.8100 0.8120 0.8120 0.8120 0.8120
11.458289 0.8140 0.8140 0.8140 0.8140 0.8140
11.491000 0.8150 0.8170 0.8170 0.8170 0.8190
11.524289 0.8190 0.8200 0.8220 0.8220 0.8220
11.558000 0.8240 0.8240 0.8240 0.8240 0.8240
11.591289 0.8240 0.8250 0.8250 0.8270 0.8270
11.624000 0.8270 0.8270 0.8270 0.8290 0.8290
11.657289 0.8290 0.8290 0.8300 0.8300 0.8300
11.691000 0.8320 0.8320 0.8320 0.8320 0.8320
11.724289 0.8340 0.8340 0.8340 0.8340 0.8340
11.757000 0.8350 0.8350 0.8370 0.8390 0.8390
11.790289 0.8400 0.8400 0.8400 0.8400 0.8420
11.824000 0.8420 0.8440 0.8440 0.8440 0.8440
11.857289 0.8440 0.8440 0.8450 0.8450 0.8450
11.891000 0.8450 0.8470 0.8470 0.8490 0.8490
11.924289 0.8490 0.8500 0.8500 0.8520 0.8520
11.957000 0.8520 0.8520 0.8540 0.8540 0.8540
11.990289 0.8550 0.8550 0.8570 0.8570 0.8570
12.024000 0.8570 0.8570 0.8570 0.8590 0.8590
12.057289 0.8590 0.8600 0.8600 0.8600 0.8600
12.090000 0.8600 0.8600 0.8600 0.8620 0.8620
12.123289 0.8620 0.8640 0.8640 0.8640 0.8640
12.157000 0.8650 0.8650 0.8650 0.8670 0.8670
12.190289 0.8670 0.8690 0.8690 0.8690 0.8710
12.223000 0.8710 0.8710 0.8720 0.8720 0.8720
12.256289 0.8720 0.8720 0.8720 0.8740 0.8740
12.290000 0.8760 0.8760 0.8760 0.8760 0.8760
12.323289 0.8760 0.8760 0.8760 0.8760 0.8760
12.356000 0.8770 0.8770 0.8770 0.8770 0.8790
12.389289 0.8790 0.8790 0.8810 0.8810 0.8810
12.423000 0.8790 0.8810 0.8810 0.8790 0.8790
12.456289 0.8810 0.8810 0.8810 0.8810 0.8790
12.489000 0.8810 0.8810 0.8810 0.8810 0.8810
12.522289 0.8810 0.8810 0.8810 0.8810 0.8820
12.556000 0.8820 0.8820 0.8820 0.8820 0.8820
12.589289 0.8820 0.8820 0.8820 0.8820 0.8820
12.623000 0.8820 0.8820 0.8820 0.8820 0.8840
12.656289 0.8840 0.8840 0.8840 0.8840 0.8840
12.689000 0.8840 0.8840 0.8820 0.8840 0.8840
12.722289 0.8840 0.8840 0.8840 0.8840 0.8840
12.756000 0.8840 0.8840 0.8840 0.8840 0.8840
12.789289 0.8860 0.8840 0.8840 0.8860 0.8840
12.822000 0.8860 0.8840 0.8840 0.8840 0.8840
12.855289 0.8840 0.8840 0.8840 0.8860 0.8860
12.889000 0.8860 0.8860 0.8870 0.8870 0.8870
12.922289 0.8870 0.8890 0.8890 0.8890 0.8890
12.955000 0.8890 0.8890 0.8890 0.8890 0.8890
12.988289 0.8890 0.8890 0.8890 0.8910 0.8910
13.022000 0.8890 0.8890 0.8890 0.8890 0.8890
13.055289 0.8890 0.8890 0.8890 0.8910 0.8910
13.088000 0.8910 0.8910 0.8910 0.8910 0.8910
13.121289 0.8910 0.8890 0.8890 0.8890 0.8890
13.155000 0.8890 0.8890 0.8890 0.8890 0.8890
13.188289 0.8890 0.8890 0.8890 0.8890 0.8870
13.221000 0.8890 0.8870 0.8870 0.8870 0.8860
13.254289 0.8860 0.8840 0.8840 0.8840 0.8840
13.288000 0.8840 0.8840 0.8820 0.8820 0.8820
13.321289 0.8820 0.8820 0.8820 0.8820 0.8820
13.355000 0.8820 0.8820 0.8820 0.8820 0.8820
13.388289 0.8810 0.8810 0.8810 0.8790 0.8790
13.421000 0.8790 0.8790 0.8790 0.8790 0.8790
13.454289 0.8770 0.8770 0.8770 0.8770 0.8760
13.488000 0.8760 0.8760 0.8760 0.8740 0.8740
13.521289 0.8740 0.8740 0.8740 0.8740 0.8740
13.554000 0.8720 0.8720 0.8710 0.8710 0.8710
13.587289 0.8690 0.8690 0.8670 0.8670 0.8650
13.621000 0.8650 0.8650 0.8650 0.8650 0.8650
13.654289 0.8640 0.8620 0.8620 0.8640 0.8640
13.687000 0.8620 0.8620 0.8600 0.8600 0.8590
13.720289 0.8590 0.8590 0.8590 0.8590 0.8570
13.754000 0.8570 0.8570 0.8570 0.8570 0.8570
13.787289 0.8550 0.8550 0.8550 0.8550 0.8540
13.820000 0.8540 0.8520 0.8520 0.8520 0.8520
13.853289 0.8520 0.8520 0.8520 0.8520 0.8520
13.887000 0.8520 0.8520 0.8500 0.8500 0.8500
13.920289 0.8500 0.8500 0.8500 0.8500 0.8500
13.953000 0.8500 0.8500 0.8520 0.8540 0.8540
13.986289 0.8540 0.8540 0.8540 0.8540 0.8540
14.020000 0.8540 0.8540 0.8540 0.8540 0.8540
14.053289 0.8540 0.8540 0.8540 0.8540 0.8540
14.087000 0.8550 0.8550 0.8550 0.8550 0.8540
14.120289 0.8540 0.8540 0.8540 0.8540 0.8540
14.153000 0.8540 0.8540 0.8540 0.8550 0.8550
14.186289 0.8550 0.8550 0.8550 0.8550 0.8550
14.220000 0.8550 0.8550 0.8550 0.8550 0.8550
14.253289 0.8550 0.8550 0.8550 0.8550 0.8550
14.286000 0.8570 0.8550 0.8550 0.8570 0.8550
14.319289 0.8550 0.8550 0.8550 0.8550 0.8550
14.353000 0.8550 0.8550 0.8570 0.8550 0.8550
14.386289 0.8570 0.8550 0.8550 0.8550 0.8550
14.419000 0.8540 0.8550 0.8540 0.8540 0.8540
14.452289 0.8540 0.8520 0.8520 0.8520 0.8520
14.486000 0.8500 0.8500 0.8500 0.8500 0.8500
14.519289 0.8490 0.8490 0.8470 0.8470 0.8470
14.552000 0.8450 0.8450 0.8450 0.8440 0.8440
14.585289 0.8420 0.8420 0.8440 0.8440 0.8420
14.619000 0.8420 0.8420 0.8420 0.8420 0.8420
14.652289 0.8420 0.8420 0.8400 0.8400 0.8400
14.685000 0.8390 0.8390 0.8390 0.8390 0.8370
14.718289 0.8370 0.8370 0.8350 0.8340 0.8340
14.752000 0.8340 0.8340 0.8340 0.8340 0.8350
14.785289 0.8340 0.8340 0.8340 0.8320 0.8340
14.819000 0.8340 0.8350 0.8350 0.8350 0.8350
14.852289 0.8350 0.8350 0.8350 0.8350 0.8350
14.885000 0.8340 0.8340 0.8340 0.8340 0.8340
14.918289 0.8340 0.8320 0.8320 0.8320 0.8320
14.952000 0.8320 0.8300 0.8300 0.8300 0.8290
14.985289 0.8290 0.8290 0.8270 0.8270 0.8250
15.018000 0.8250 0.8240 0.8250 0.8250 0.8250
15.051289 0.8240 0.8240 0.8220 0.8240 0.8250
15.085000 0.8250 0.8240 0.8250 0.8240 0.8240
15.118289 0.8240 0.8240 0.8220 0.8220 0.8220
15.151000 0.8200 0.8200 0.8200 0.8200 0.8200
15.184289 0.8200 0.8200 0.8200 0.8200 0.8200
15.218000 0.8190 0.8190 0.8190 0.8170 0.8170
15.251289 0.8170 0.8170 0.8170 0.8170 0.8150
15.284000 0.8150 0.8140 0.8140 0.8120 0.8100
15.317289 0.8100 0.8100 0.8090 0.8070 0.8050
15.351000 0.8050 0.8040 0.8000 0.8000 0.7980
15.384289 0.7920 0.7900 0.7880 0.7870 0.7830
15.417000 0.7820 0.7800 0.7780 0.7750 0.7720
15.450289 0.7680 0.7670 0.7630 0.7620 0.7580
15.484000 0.7570 0.7530 0.7520 0.7500 0.7480
15.517289 0.7450 0.7430 0.7380 0.7370 0.7350
15.551000 0.7330 0.7310 0.7300 0.7300 0.7300
15.584289 0.7300 0.7280 0.7280 0.7280 0.7280
15.617000 0.7280 0.7260 0.7250 0.7250 0.7250
15.650289 0.7230 0.7210 0.7210 0.7210 0.7210
15.684000 0.7200 0.7200 0.7200 0.7200 0.7200
15.717289 0.7180 0.7180 0.7180 0.7180 0.7180
15.750000 0.7180 0.7180 0.7200 0.7200 0.7210
15.783289 0.7210 0.7250 0.7250 0.7260 0.7280
15.817000 0.7280 0.7300 0.7310 0.7310 0.7330
15.850289 0.7350 0.7350 0.7370 0.7370 0.7370
15.883000 0.7380 0.7380 0.7400 0.7420 0.7420
15.916289 0.7430 0.7450 0.7470 0.7470 0.7480
15.950000 0.7530 0.7550 0.7580 0.7600 0.7620
15.983289 0.7630 0.7650 0.7670 0.7680 0.8450
16.016000 0.7650 0.7670
##END=
