##TITLE=Hexadecanoic acid, sodium salt
##JCAMP-DX=4.24
$$ By DXEDIT 1.05 (RS McDonald)
##DATA TYPE=INFRARED SPECTRUM
##CLASS=COBLENTZ III
##ORIGIN=DOW CHEMICAL COMPANY
##OWNER=COPYRIGHT (C) 1988 by COBLENTZ SOCIETY INC.
Collection (C) 2018 copyright by the U.S. Secretary of Commerce
on behalf of the United States of America. All rights reserved.
##DATE=1963/10/16
##NAMES=Palmitic acid, sodium salt
##MOLFORM=C16 H31 Na O2
##SOURCE REFERENCE=COBLENTZ NO. 07899
##$NIST ID=B6007899
##$NIST SOURCE=COBLENTZ
##$NIST IMAGE=cob7899
##SPECTROMETER/DATA SYSTEM=DOW KBr FOREPRISM-GRATING
##INSTRUMENT PARAMETERS=BLAZED AT 3.5, 12.0, 20.0 MICRON AND CHANGED AT 5.0, 7.5, 14.9 MICRON
##STATE=SOLID (SPLIT MULL), FLUOROLUBE FOR 3800-1335 CM^-^1, NUJOL FOR 1335-400 CM^-^1
##SAMPLING PROCEDURE=TRANSMISSION
##RESOLUTION=2
##DATA PROCESSING=DIGITIZED BY COBLENTZ SOCIETY (BATCH I) FROM HARD COPY
##XUNITS=1/CM
##YUNITS=TRANSMITTANCE
##XFACTOR=1
##YFACTOR=1
##DELTAX=1
##FIRSTX=3800
##LASTX=381
##FIRSTY=0.7428
##MAXX=3800
##MINX=381
##MAXY=0.9415
##MINY=0.0676
##NPOINTS=3420
##XYDATA=(X++(Y..Y))
3800.000000 0.7428 0.7428 0.7430 0.7433 0.7436
3795.000000 0.7439 0.7443 0.7446 0.7449 0.7451
3790.000000 0.7455 0.7457 0.7458 0.7461 0.7464
3785.000000 0.7465 0.7468 0.7469 0.7471 0.7474
3780.000000 0.7475 0.7476 0.7478 0.7481 0.7483
3775.000000 0.7484 0.7486 0.7488 0.7490 0.7491
3770.000000 0.7493 0.7495 0.7497 0.7498 0.7500
3765.000000 0.7500 0.7501 0.7501 0.7501 0.7501
3760.000000 0.7501 0.7501 0.7501 0.7500 0.7500
3755.000000 0.7500 0.7500 0.7499 0.7499 0.7498
3750.000000 0.7498 0.7497 0.7496 0.7495 0.7494
3745.000000 0.7493 0.7493 0.7492 0.7492 0.7493
3740.000000 0.7495 0.7496 0.7498 0.7499 0.7501
3735.000000 0.7501 0.7504 0.7505 0.7507 0.7508
3730.000000 0.7510 0.7511 0.7511 0.7512 0.7515
3725.000000 0.7515 0.7518 0.7519 0.7522 0.7525
3720.000000 0.7528 0.7530 0.7533 0.7535 0.7537
3715.000000 0.7539 0.7542 0.7544 0.7547 0.7549
3710.000000 0.7551 0.7553 0.7556 0.7558 0.7560
3705.000000 0.7561 0.7565 0.7567 0.7569 0.7571
3700.000000 0.7574 0.7575 0.7578 0.7578 0.7581
3695.000000 0.7582 0.7584 0.7585 0.7587 0.7588
3690.000000 0.7588 0.7588 0.7588 0.7586 0.7584
3685.000000 0.7581 0.7578 0.7574 0.7569 0.7561
3680.000000 0.7554 0.7546 0.7539 0.7531 0.7524
3675.000000 0.7521 0.7518 0.7518 0.7518 0.7518
3670.000000 0.7518 0.7518 0.7518 0.7519 0.7521
3665.000000 0.7522 0.7525 0.7528 0.7531 0.7533
3660.000000 0.7536 0.7538 0.7541 0.7543 0.7546
3655.000000 0.7547 0.7548 0.7549 0.7550 0.7550
3650.000000 0.7551 0.7551 0.7553 0.7553 0.7554
3645.000000 0.7555 0.7556 0.7556 0.7557 0.7558
3640.000000 0.7558 0.7558 0.7558 0.7558 0.7558
3635.000000 0.7558 0.7558 0.7558 0.7560 0.7560
3630.000000 0.7560 0.7560 0.7560 0.7560 0.7560
3625.000000 0.7560 0.7560 0.7560 0.7560 0.7560
3620.000000 0.7561 0.7561 0.7564 0.7565 0.7565
3615.000000 0.7567 0.7568 0.7568 0.7571 0.7571
3610.000000 0.7572 0.7574 0.7575 0.7576 0.7578
3605.000000 0.7578 0.7581 0.7582 0.7583 0.7584
3600.000000 0.7586 0.7587 0.7588 0.7589 0.7591
3595.000000 0.7592 0.7593 0.7594 0.7595 0.7596
3590.000000 0.7598 0.7599 0.7600 0.7601 0.7601
3585.000000 0.7603 0.7604 0.7605 0.7606 0.7607
3580.000000 0.7608 0.7610 0.7611 0.7611 0.7612
3575.000000 0.7614 0.7615 0.7615 0.7617 0.7618
3570.000000 0.7619 0.7619 0.7619 0.7619 0.7621
3565.000000 0.7621 0.7621 0.7621 0.7621 0.7621
3560.000000 0.7622 0.7622 0.7622 0.7622 0.7624
3555.000000 0.7624 0.7624 0.7624 0.7625 0.7625
3550.000000 0.7625 0.7624 0.7624 0.7624 0.7624
3545.000000 0.7622 0.7622 0.7621 0.7619 0.7618
3540.000000 0.7618 0.7617 0.7615 0.7614 0.7612
3535.000000 0.7611 0.7611 0.7610 0.7608 0.7608
3530.000000 0.7607 0.7605 0.7604 0.7603 0.7601
3525.000000 0.7601 0.7600 0.7598 0.7597 0.7596
3520.000000 0.7595 0.7594 0.7593 0.7592 0.7591
3515.000000 0.7590 0.7590 0.7589 0.7589 0.7588
3510.000000 0.7588 0.7587 0.7587 0.7586 0.7586
3505.000000 0.7585 0.7585 0.7584 0.7584 0.7583
3500.000000 0.7583 0.7582 0.7582 0.7581 0.7581
3495.000000 0.7580 0.7580 0.7578 0.7578 0.7578
3490.000000 0.7578 0.7576 0.7576 0.7575 0.7575
3485.000000 0.7575 0.7575 0.7574 0.7574 0.7572
3480.000000 0.7572 0.7571 0.7571 0.7571 0.7571
3475.000000 0.7571 0.7571 0.7571 0.7571 0.7571
3470.000000 0.7571 0.7571 0.7571 0.7571 0.7571
3465.000000 0.7571 0.7571 0.7571 0.7571 0.7571
3460.000000 0.7571 0.7571 0.7571 0.7571 0.7571
3455.000000 0.7571 0.7571 0.7571 0.7571 0.7571
3450.000000 0.7571 0.7571 0.7571 0.7571 0.7571
3445.000000 0.7571 0.7571 0.7571 0.7571 0.7571
3440.000000 0.7571 0.7571 0.7571 0.7571 0.7571
3435.000000 0.7571 0.7571 0.7571 0.7571 0.7571
3430.000000 0.7571 0.7571 0.7571 0.7571 0.7571
3425.000000 0.7571 0.7571 0.7571 0.7571 0.7571
3420.000000 0.7572 0.7574 0.7575 0.7575 0.7575
3415.000000 0.7576 0.7578 0.7578 0.7578 0.7580
3410.000000 0.7581 0.7581 0.7582 0.7583 0.7584
3405.000000 0.7584 0.7585 0.7586 0.7587 0.7587
3400.000000 0.7588 0.7589 0.7590 0.7590 0.7591
3395.000000 0.7592 0.7593 0.7593 0.7594 0.7595
3390.000000 0.7596 0.7597 0.7598 0.7598 0.7599
3385.000000 0.7600 0.7601 0.7601 0.7601 0.7603
3380.000000 0.7604 0.7605 0.7606 0.7607 0.7608
3375.000000 0.7608 0.7611 0.7611 0.7612 0.7614
3370.000000 0.7615 0.7617 0.7618 0.7618 0.7619
3365.000000 0.7621 0.7622 0.7624 0.7625 0.7625
3360.000000 0.7626 0.7628 0.7630 0.7631 0.7632
3355.000000 0.7633 0.7634 0.7635 0.7637 0.7638
3350.000000 0.7639 0.7640 0.7642 0.7643 0.7644
3345.000000 0.7645 0.7646 0.7647 0.7649 0.7650
3340.000000 0.7651 0.7651 0.7653 0.7654 0.7656
3335.000000 0.7657 0.7658 0.7658 0.7660 0.7661
3330.000000 0.7662 0.7664 0.7665 0.7665 0.7667
3325.000000 0.7668 0.7668 0.7669 0.7671 0.7671
3320.000000 0.7674 0.7675 0.7675 0.7676 0.7678
3315.000000 0.7678 0.7680 0.7681 0.7682 0.7683
3310.000000 0.7685 0.7686 0.7687 0.7688 0.7689
3305.000000 0.7690 0.7691 0.7692 0.7693 0.7694
3300.000000 0.7695 0.7696 0.7698 0.7699 0.7700
3295.000000 0.7701 0.7701 0.7703 0.7704 0.7704
3290.000000 0.7705 0.7706 0.7707 0.7707 0.7708
3285.000000 0.7708 0.7710 0.7710 0.7711 0.7711
3280.000000 0.7712 0.7714 0.7715 0.7715 0.7715
3275.000000 0.7717 0.7718 0.7718 0.7718 0.7719
3270.000000 0.7721 0.7721 0.7721 0.7722 0.7724
3265.000000 0.7725 0.7725 0.7725 0.7726 0.7728
3260.000000 0.7728 0.7728 0.7730 0.7731 0.7732
3255.000000 0.7732 0.7733 0.7734 0.7735 0.7735
3250.000000 0.7736 0.7737 0.7738 0.7739 0.7740
3245.000000 0.7741 0.7743 0.7744 0.7745 0.7746
3240.000000 0.7747 0.7748 0.7749 0.7750 0.7751
3235.000000 0.7751 0.7753 0.7754 0.7755 0.7756
3230.000000 0.7757 0.7758 0.7758 0.7760 0.7761
3225.000000 0.7761 0.7762 0.7764 0.7765 0.7765
3220.000000 0.7767 0.7768 0.7768 0.7769 0.7771
3215.000000 0.7771 0.7774 0.7775 0.7775 0.7776
3210.000000 0.7778 0.7778 0.7781 0.7782 0.7783
3205.000000 0.7784 0.7786 0.7787 0.7788 0.7789
3200.000000 0.7791 0.7792 0.7794 0.7795 0.7796
3195.000000 0.7797 0.7799 0.7800 0.7801 0.7801
3190.000000 0.7804 0.7805 0.7806 0.7807 0.7808
3185.000000 0.7810 0.7811 0.7812 0.7814 0.7815
3180.000000 0.7817 0.7818 0.7818 0.7819 0.7821
3175.000000 0.7822 0.7825 0.7825 0.7826 0.7828
3170.000000 0.7830 0.7831 0.7832 0.7834 0.7836
3165.000000 0.7838 0.7840 0.7842 0.7844 0.7846
3160.000000 0.7848 0.7850 0.7851 0.7853 0.7855
3155.000000 0.7857 0.7858 0.7861 0.7862 0.7865
3150.000000 0.7867 0.7868 0.7871 0.7872 0.7875
3145.000000 0.7876 0.7878 0.7881 0.7883 0.7884
3140.000000 0.7886 0.7888 0.7890 0.7891 0.7893
3135.000000 0.7894 0.7896 0.7898 0.7900 0.7901
3130.000000 0.7903 0.7904 0.7906 0.7907 0.7908
3125.000000 0.7911 0.7912 0.7914 0.7915 0.7917
3120.000000 0.7918 0.7919 0.7921 0.7922 0.7925
3115.000000 0.7925 0.7926 0.7928 0.7930 0.7931
3110.000000 0.7932 0.7933 0.7935 0.7936 0.7938
3105.000000 0.7939 0.7940 0.7941 0.7943 0.7944
3100.000000 0.7946 0.7947 0.7948 0.7949 0.7951
3095.000000 0.7951 0.7953 0.7954 0.7955 0.7956
3090.000000 0.7957 0.7958 0.7958 0.7960 0.7961
3085.000000 0.7961 0.7962 0.7964 0.7965 0.7967
3080.000000 0.7968 0.7968 0.7969 0.7971 0.7971
3075.000000 0.7972 0.7975 0.7975 0.7978 0.7978
3070.000000 0.7981 0.7982 0.7984 0.7985 0.7987
3065.000000 0.7988 0.7990 0.7991 0.7993 0.7995
3060.000000 0.7997 0.7998 0.8000 0.8001 0.8004
3055.000000 0.8005 0.8007 0.8008 0.8011 0.8012
3050.000000 0.8015 0.8015 0.8018 0.8019 0.8021
3045.000000 0.8021 0.8021 0.8021 0.8021 0.8021
3040.000000 0.8021 0.8021 0.8021 0.8021 0.8021
3035.000000 0.8021 0.8021 0.8021 0.8021 0.8021
3030.000000 0.8021 0.8021 0.8021 0.8019 0.8019
3025.000000 0.8019 0.8019 0.8019 0.8019 0.8019
3020.000000 0.8019 0.8018 0.8018 0.8018 0.8018
3015.000000 0.8018 0.8019 0.8019 0.8019 0.8019
3010.000000 0.8021 0.8021 0.8021 0.8021 0.8021
3005.000000 0.8018 0.8018 0.8015 0.8015 0.8012
3000.000000 0.8011 0.8008 0.8007 0.8005 0.8003
2995.000000 0.7997 0.7991 0.7984 0.8008 0.7968
2990.000000 0.7961 0.7953 0.7944 0.7931 0.7918
2985.000000 0.7907 0.7895 0.7853 0.7811 0.7780
2980.000000 0.7749 0.7718 0.7688 0.7639 0.7590
2975.000000 0.7532 0.7474 0.7410 0.7347 0.7215
2970.000000 0.7083 0.6875 0.6668 0.6411 0.6156
2965.000000 0.5899 0.5643 0.5386 0.5130 0.4873
2960.000000 0.4145 0.4145 0.4145 0.4143 0.4141
2955.000000 0.4222 0.4304 0.4410 0.4516 0.4622
2950.000000 0.4998 0.4834 0.4941 0.4962 0.4985
2945.000000 0.4557 0.4129 0.3568 0.3010 0.2964
2940.000000 0.2919 0.2863 0.2808 0.2639 0.2471
2935.000000 0.2252 0.2034 0.1815 0.1596 0.1378
2930.000000 0.1159 0.0946 0.0736 0.0723 0.0710
2925.000000 0.0703 0.0688 0.0691 0.0686 0.0686
2920.000000 0.0686 0.0693 0.0700 0.0734 0.0769
2915.000000 0.0945 0.1121 0.1368 0.1615 0.1862
2910.000000 0.2109 0.2355 0.2602 0.2791 0.2981
2905.000000 0.3049 0.3117 0.3190 0.3262 0.3338
2900.000000 0.3414 0.3474 0.3534 0.3589 0.3643
2895.000000 0.3697 0.3752 0.3818 0.3886 0.3948
2890.000000 0.4010 0.4059 0.4110 0.4166 0.4222
2885.000000 0.4283 0.4345 0.4398 0.4451 0.4505
2880.000000 0.4559 0.4599 0.4639 0.4679 0.4719
2875.000000 0.4736 0.4753 0.4741 0.4729 0.4692
2870.000000 0.4655 0.4703 0.4751 0.4801 0.4852
2865.000000 0.4902 0.4960 0.4948 0.4944 0.4880
2860.000000 0.4816 0.4458 0.4101 0.3743 0.3386
2855.000000 0.3029 0.2672 0.2314 0.1957 0.1599
2850.000000 0.1242 0.1229 0.1195 0.1484 0.1752
2845.000000 0.2042 0.2332 0.2622 0.2913 0.3203
2840.000000 0.3493 0.3782 0.4073 0.4292 0.4510
2835.000000 0.4660 0.4810 0.4939 0.5068 0.5150
2830.000000 0.5232 0.5314 0.5397 0.5470 0.5543
2825.000000 0.5615 0.5688 0.5747 0.5807 0.5845
2820.000000 0.5883 0.5921 0.5960 0.5998 0.6036
2815.000000 0.6074 0.6112 0.6141 0.6170 0.6198
2810.000000 0.6227 0.6255 0.6284 0.6312 0.6342
2805.000000 0.6370 0.6399 0.6424 0.6449 0.6465
2800.000000 0.6483 0.6500 0.6518 0.6535 0.6551
2795.000000 0.6568 0.6586 0.6603 0.6621 0.6638
2790.000000 0.6655 0.6671 0.6690 0.6704 0.6718
2785.000000 0.6730 0.6743 0.6755 0.6768 0.6780
2780.000000 0.6792 0.6804 0.6817 0.6828 0.6842
2775.000000 0.6854 0.6867 0.6878 0.6891 0.6903
2770.000000 0.6915 0.6928 0.6941 0.6950 0.6958
2765.000000 0.6968 0.6978 0.6987 0.6997 0.7006
2760.000000 0.7015 0.7025 0.7034 0.7043 0.7053
2755.000000 0.7061 0.7071 0.7081 0.7091 0.7100
2750.000000 0.7108 0.7118 0.7128 0.7136 0.7145
2745.000000 0.7151 0.7158 0.7164 0.7171 0.7176
2740.000000 0.7184 0.7190 0.7197 0.7203 0.7208
2735.000000 0.7215 0.7221 0.7228 0.7235 0.7241
2730.000000 0.7248 0.7254 0.7261 0.7267 0.7272
2725.000000 0.7278 0.7286 0.7292 0.7298 0.7304
2720.000000 0.7310 0.7315 0.7322 0.7328 0.7335
2715.000000 0.7341 0.7347 0.7353 0.7358 0.7365
2710.000000 0.7371 0.7376 0.7383 0.7389 0.7396
2705.000000 0.7401 0.7408 0.7414 0.7419 0.7424
2700.000000 0.7428 0.7432 0.7436 0.7439 0.7442
2695.000000 0.7445 0.7449 0.7451 0.7456 0.7458
2690.000000 0.7461 0.7465 0.7468 0.7469 0.7471
2685.000000 0.7471 0.7472 0.7472 0.7472 0.7472
2680.000000 0.7474 0.7474 0.7474 0.7474 0.7475
2675.000000 0.7475 0.7475 0.7475 0.7475 0.7475
2670.000000 0.7476 0.7476 0.7478 0.7478 0.7478
2665.000000 0.7478 0.7478 0.7478 0.7480 0.7480
2660.000000 0.7481 0.7481 0.7482 0.7482 0.7482
2655.000000 0.7482 0.7483 0.7483 0.7484 0.7484
2650.000000 0.7485 0.7485 0.7485 0.7485 0.7486
2645.000000 0.7486 0.7487 0.7487 0.7488 0.7489
2640.000000 0.7491 0.7492 0.7494 0.7495 0.7497
2635.000000 0.7498 0.7499 0.7500 0.7501 0.7503
2630.000000 0.7505 0.7506 0.7508 0.7508 0.7511
2625.000000 0.7511 0.7514 0.7515 0.7517 0.7518
2620.000000 0.7519 0.7521 0.7522 0.7525 0.7526
2615.000000 0.7528 0.7532 0.7534 0.7537 0.7540
2610.000000 0.7543 0.7545 0.7548 0.7551 0.7554
2605.000000 0.7556 0.7558 0.7561 0.7565 0.7567
2600.000000 0.7569 0.7572 0.7575 0.7578 0.7581
2595.000000 0.7583 0.7586 0.7589 0.7592 0.7593
2590.000000 0.7595 0.7596 0.7598 0.7600 0.7601
2585.000000 0.7603 0.7605 0.7606 0.7608 0.7610
2580.000000 0.7611 0.7612 0.7615 0.7615 0.7618
2575.000000 0.7619 0.7648 0.7622 0.7625 0.7625
2570.000000 0.7628 0.7630 0.7632 0.7633 0.7635
2565.000000 0.7636 0.7638 0.7640 0.7642 0.7643
2560.000000 0.7645 0.7646 0.7647 0.7647 0.7647
2555.000000 0.7647 0.7648 0.7648 0.7648 0.7648
2550.000000 0.7649 0.7649 0.7650 0.7650 0.7650
2545.000000 0.7650 0.7651 0.7651 0.7651 0.7651
2540.000000 0.7651 0.7651 0.7653 0.7653 0.7654
2535.000000 0.7654 0.7654 0.7654 0.7655 0.7655
2530.000000 0.7655 0.7655 0.7656 0.7656 0.7657
2525.000000 0.7657 0.7657 0.7657 0.7658 0.7658
2520.000000 0.7658 0.7658 0.7658 0.7658 0.7658
2515.000000 0.7658 0.7658 0.7657 0.7657 0.7656
2510.000000 0.7656 0.7655 0.7655 0.7655 0.7655
2505.000000 0.7654 0.7654 0.7653 0.7653 0.7653
2500.000000 0.7653 0.7651 0.7651 0.7651 0.7651
2495.000000 0.7650 0.7650 0.7650 0.7650 0.7649
2490.000000 0.7649 0.7648 0.7648 0.7648 0.7648
2485.000000 0.7648 0.7648 0.7647 0.7647 0.7647
2480.000000 0.7647 0.7647 0.7647 0.7647 0.7647
2475.000000 0.7646 0.7646 0.7646 0.7646 0.7646
2470.000000 0.7646 0.7646 0.7646 0.7645 0.7645
2465.000000 0.7645 0.7645 0.7645 0.7645 0.7645
2460.000000 0.7645 0.7644 0.7644 0.7644 0.7644
2455.000000 0.7644 0.7644 0.7644 0.7644 0.7643
2450.000000 0.7643 0.7643 0.7643 0.7643 0.7643
2445.000000 0.7642 0.7642 0.7642 0.7642 0.7642
2440.000000 0.7642 0.7642 0.7642 0.7641 0.7641
2435.000000 0.7640 0.7640 0.7639 0.7639 0.7638
2430.000000 0.7638 0.7637 0.7637 0.7636 0.7636
2425.000000 0.7636 0.7636 0.7635 0.7635 0.7634
2420.000000 0.7634 0.7633 0.7633 0.7632 0.7632
2415.000000 0.7631 0.7631 0.7630 0.7630 0.7628
2410.000000 0.7628 0.7628 0.7628 0.7628 0.7628
2405.000000 0.7626 0.7626 0.7625 0.7625 0.7625
2400.000000 0.7625 0.7624 0.7624 0.7622 0.7622
2395.000000 0.7621 0.7621 0.7621 0.7619 0.7618
2390.000000 0.7618 0.7618 0.7617 0.7615 0.7615
2385.000000 0.7614 0.7612 0.7610 0.7607 0.7604
2380.000000 0.7601 0.7598 0.7596 0.7593 0.7590
2375.000000 0.7587 0.7585 0.7581 0.7576 0.7571
2370.000000 0.7567 0.7561 0.7557 0.7551 0.7547
2365.000000 0.7542 0.7537 0.7532 0.7526 0.7521
2360.000000 0.7517 0.7511 0.7508 0.7503 0.7498
2355.000000 0.7493 0.7488 0.7483 0.7478 0.7472
2350.000000 0.7468 0.7464 0.7460 0.7455 0.7451
2345.000000 0.7446 0.7442 0.7438 0.7434 0.7430
2340.000000 0.7426 0.7424 0.7421 0.7418 0.7415
2335.000000 0.7414 0.7411 0.7408 0.7407 0.7404
2330.000000 0.7401 0.7400 0.7397 0.7398 0.7399
2325.000000 0.7400 0.7401 0.7403 0.7405 0.7406
2320.000000 0.7407 0.7408 0.7410 0.7411 0.7411
2315.000000 0.7414 0.7415 0.7418 0.7421 0.7424
2310.000000 0.7426 0.7428 0.7432 0.7434 0.7437
2305.000000 0.7439 0.7442 0.7444 0.7447 0.7449
2300.000000 0.7451 0.7454 0.7457 0.7458 0.7461
2295.000000 0.7464 0.7467 0.7469 0.7474 0.7476
2290.000000 0.7480 0.7483 0.7486 0.7489 0.7492
2285.000000 0.7495 0.7498 0.7501 0.7505 0.7508
2280.000000 0.7511 0.7514 0.7517 0.7521 0.7526
2275.000000 0.7533 0.7540 0.7546 0.7551 0.7558
2270.000000 0.7564 0.7569 0.7575 0.7582 0.7588
2265.000000 0.7594 0.7600 0.7606 0.7611 0.7617
2260.000000 0.7622 0.7628 0.7633 0.7637 0.7642
2255.000000 0.7646 0.7651 0.7655 0.7660 0.7665
2250.000000 0.7669 0.7674 0.7678 0.7683 0.7688
2245.000000 0.7693 0.7698 0.7701 0.7707 0.7711
2240.000000 0.7715 0.7718 0.7721 0.7725 0.7728
2235.000000 0.7732 0.7736 0.7740 0.7744 0.7747
2230.000000 0.7751 0.7753 0.7756 0.7758 0.7760
2225.000000 0.7761 0.7765 0.7767 0.7768 0.7771
2220.000000 0.7774 0.7775 0.7778 0.7778 0.7781
2215.000000 0.7783 0.7785 0.7787 0.7789 0.7790
2210.000000 0.7792 0.7794 0.7796 0.7797 0.7799
2205.000000 0.7800 0.7801 0.7803 0.7805 0.7807
2200.000000 0.7808 0.7810 0.7811 0.7812 0.7815
2195.000000 0.7817 0.7818 0.7819 0.7821 0.7824
2190.000000 0.7826 0.7830 0.7833 0.7835 0.7838
2185.000000 0.7841 0.7844 0.7847 0.7850 0.7853
2180.000000 0.7856 0.7858 0.7861 0.7864 0.7867
2175.000000 0.7869 0.7872 0.7875 0.7878 0.7882
2170.000000 0.7885 0.7887 0.7890 0.7893 0.7896
2165.000000 0.7899 0.7901 0.7905 0.7908 0.7910
2160.000000 0.7912 0.7915 0.7918 0.7921 0.7924
2155.000000 0.7925 0.7928 0.7930 0.7933 0.7935
2150.000000 0.7937 0.7939 0.7942 0.7944 0.7947
2145.000000 0.7949 0.7951 0.7953 0.7956 0.7958
2140.000000 0.7961 0.7962 0.7965 0.7967 0.7969
2135.000000 0.7971 0.7974 0.7975 0.7978 0.7981
2130.000000 0.7983 0.7984 0.7986 0.7987 0.7989
2125.000000 0.7990 0.7992 0.7994 0.7996 0.7997
2120.000000 0.7999 0.8000 0.8001 0.8003 0.8005
2115.000000 0.8007 0.8008 0.8011 0.8012 0.8015
2110.000000 0.8017 0.8018 0.8019 0.8021 0.8024
2105.000000 0.8025 0.8028 0.8030 0.8032 0.8033
2100.000000 0.8035 0.8037 0.8039 0.8041 0.8043
2095.000000 0.8045 0.8047 0.8048 0.8050 0.8051
2090.000000 0.8051 0.8053 0.8054 0.8055 0.8057
2085.000000 0.8058 0.8058 0.8060 0.8061 0.8061
2080.000000 0.8064 0.8065 0.8065 0.8067 0.8068
2075.000000 0.8069 0.8071 0.8071 0.8072 0.8074
2070.000000 0.8075 0.8076 0.8078 0.8078 0.8080
2065.000000 0.8081 0.8082 0.8083 0.8085 0.8086
2060.000000 0.8087 0.8088 0.8089 0.8090 0.8091
2055.000000 0.8092 0.8094 0.8095 0.8096 0.8097
2050.000000 0.8098 0.8099 0.8100 0.8101 0.8104
2045.000000 0.8106 0.8108 0.8110 0.8111 0.8114
2040.000000 0.8115 0.8118 0.8119 0.8121 0.8124
2035.000000 0.8125 0.8128 0.8130 0.8132 0.8134
2030.000000 0.8136 0.8138 0.8141 0.8142 0.8144
2025.000000 0.8145 0.8147 0.8148 0.8150 0.8151
2020.000000 0.8154 0.8155 0.8157 0.8158 0.8160
2015.000000 0.8161 0.8162 0.8165 0.8168 0.8169
2010.000000 0.8172 0.8175 0.8178 0.8184 0.8189
2005.000000 0.8195 0.8202 0.8208 0.8215 0.8225
2000.000000 0.8237 0.8247 0.8254 0.8260 0.8267
1995.000000 0.8274 0.8275 0.8275 0.8278 0.8278
1990.000000 0.8280 0.8282 0.8283 0.8285 0.8287
1985.000000 0.8289 0.8293 0.8297 0.8300 0.8304
1980.000000 0.8307 0.8310 0.8312 0.8313 0.8314
1975.000000 0.8316 0.8318 0.8321 0.8323 0.8325
1970.000000 0.8328 0.8333 0.8336 0.8340 0.8344
1965.000000 0.8357 0.8381 0.8404 0.8433 0.8459
1960.000000 0.8452 0.8442 0.8430 0.8420 0.8412
1955.000000 0.8409 0.8407 0.8405 0.8402 0.8400
1950.000000 0.8398 0.8396 0.8394 0.8392 0.8390
1945.000000 0.8388 0.8385 0.8383 0.8381 0.8381
1940.000000 0.8380 0.8380 0.8378 0.8378 0.8378
1935.000000 0.8378 0.8378 0.8377 0.8377 0.8375
1930.000000 0.8375 0.8375 0.8375 0.8374 0.8374
1925.000000 0.8374 0.8375 0.8375 0.8375 0.8375
1920.000000 0.8375 0.8377 0.8377 0.8377 0.8378
1915.000000 0.8378 0.8378 0.8377 0.8375 0.8375
1910.000000 0.8375 0.8375 0.8374 0.8374 0.8373
1905.000000 0.8371 0.8371 0.8371 0.8371 0.8370
1900.000000 0.8368 0.8368 0.8368 0.8368 0.8367
1895.000000 0.8366 0.8366 0.8364 0.8363 0.8361
1890.000000 0.8359 0.8358 0.8356 0.8354 0.8352
1885.000000 0.8350 0.8347 0.8345 0.8342 0.8339
1880.000000 0.8337 0.8335 0.8333 0.8331 0.8328
1875.000000 0.8328 0.8328 0.8327 0.8325 0.8318
1870.000000 0.8313 0.8304 0.8295 0.8289 0.8290
1865.000000 0.8290 0.8291 0.8291 0.8291 0.8291
1860.000000 0.8291 0.8291 0.8291 0.8290 0.8290
1855.000000 0.8290 0.8290 0.8289 0.8289 0.8290
1850.000000 0.8291 0.8292 0.8293 0.8293 0.8294
1845.000000 0.8295 0.8296 0.8297 0.8297 0.8297
1840.000000 0.8296 0.8296 0.8295 0.8294 0.8294
1835.000000 0.8293 0.8293 0.8292 0.8292 0.8291
1830.000000 0.8291 0.8292 0.8292 0.8292 0.8292
1825.000000 0.8292 0.8292 0.8293 0.8294 0.8295
1820.000000 0.8297 0.8298 0.8299 0.8299 0.8298
1815.000000 0.8298 0.8298 0.8299 0.8300 0.8301
1810.000000 0.8297 0.8293 0.8289 0.8285 0.8281
1805.000000 0.8280 0.8278 0.8275 0.8274 0.8271
1800.000000 0.8270 0.8268 0.8267 0.8265 0.8264
1795.000000 0.8263 0.8261 0.8260 0.8259 0.8258
1790.000000 0.8257 0.8255 0.8254 0.8253 0.8252
1785.000000 0.8251 0.8250 0.8247 0.8243 0.8239
1780.000000 0.8236 0.8232 0.8228 0.8225 0.8218
1775.000000 0.8214 0.8209 0.8204 0.8200 0.8195
1770.000000 0.8192 0.8192 0.8193 0.8193 0.8194
1765.000000 0.8194 0.8194 0.8193 0.8193 0.8193
1760.000000 0.8193 0.8192 0.8190 0.8185 0.8180
1755.000000 0.8175 0.8169 0.8164 0.8158 0.8153
1750.000000 0.8147 0.8141 0.8135 0.8128 0.8121
1745.000000 0.8115 0.8110 0.8104 0.8097 0.8091
1740.000000 0.8080 0.8065 0.8051 0.8036 0.8022
1735.000000 0.8015 0.8006 0.7999 0.7997 0.7995
1730.000000 0.7993 0.7989 0.7985 0.7981 0.7976
1725.000000 0.7972 0.7969 0.7965 0.7961 0.7954
1720.000000 0.7936 0.7918 0.7905 0.7891 0.7876
1715.000000 0.7864 0.7853 0.7845 0.7836 0.7828
1710.000000 0.7819 0.7811 0.7801 0.7794 0.7788
1705.000000 0.7781 0.7774 0.7767 0.7760 0.7754
1700.000000 0.7741 0.7751 0.7765 0.7778 0.7791
1695.000000 0.7808 0.7824 0.7838 0.7850 0.7861
1690.000000 0.7868 0.7875 0.7875 0.7876 0.7876
1685.000000 0.7876 0.7883 0.7889 0.7900 0.7914
1680.000000 0.7925 0.7935 0.7943 0.7951 0.7961
1675.000000 0.7969 0.7982 0.7994 0.8007 0.8018
1670.000000 0.8028 0.8038 0.8046 0.8055 0.8065
1665.000000 0.8074 0.8083 0.8092 0.8100 0.8108
1660.000000 0.8115 0.8121 0.8125 0.8128 0.8110
1655.000000 0.8088 0.8068 0.8057 0.8062 0.8071
1650.000000 0.8085 0.8098 0.8112 0.8128 0.8145
1645.000000 0.8189 0.8189 0.8190 0.8200 0.8205
1640.000000 0.8208 0.8187 0.8151 0.8135 0.8121
1635.000000 0.8110 0.8110 0.8110 0.8111 0.8111
1630.000000 0.8112 0.8108 0.8104 0.8090 0.8074
1625.000000 0.8058 0.8042 0.8025 0.8011 0.7997
1620.000000 0.7976 0.7933 0.7915 0.7903 0.7899
1615.000000 0.7894 0.7890 0.7884 0.7875 0.7868
1610.000000 0.7860 0.7851 0.7836 0.7817 0.7799
1605.000000 0.7774 0.7748 0.7722 0.7697 0.7653
1600.000000 0.7595 0.7537 0.7448 0.7344 0.7268
1595.000000 0.7200 0.7132 0.7060 0.6986 0.6912
1590.000000 0.6847 0.6781 0.6689 0.6471 0.6302
1585.000000 0.6219 0.6137 0.6069 0.6002 0.5915
1580.000000 0.5706 0.5496 0.5286 0.5086 0.4729
1575.000000 0.4281 0.3964 0.3742 0.3379 0.3063
1570.000000 0.2746 0.2430 0.2114 0.1798 0.1482
1565.000000 0.1166 0.0907 0.0783 0.0713 0.0695
1560.000000 0.0682 0.0676 0.0679 0.0718 0.0867
1555.000000 0.1241 0.1581 0.2007 0.2299 0.2534
1550.000000 0.2725 0.2875 0.3031 0.3212 0.3366
1545.000000 0.3493 0.3621 0.3780 0.3940 0.4274
1540.000000 0.4474 0.4709 0.4974 0.5132 0.5256
1535.000000 0.5346 0.5440 0.5532 0.5624 0.5715
1530.000000 0.5807 0.5899 0.5990 0.6082 0.6171
1525.000000 0.6256 0.6338 0.6398 0.6457 0.6517
1520.000000 0.6578 0.6641 0.6703 0.6761 0.6811
1515.000000 0.6861 0.6910 0.6951 0.6993 0.7035
1510.000000 0.7076 0.7115 0.7155 0.7194 0.7230
1505.000000 0.7258 0.7288 0.7315 0.7341 0.7364
1500.000000 0.7378 0.7394 0.7408 0.7424 0.7441
1495.000000 0.7458 0.7474 0.7488 0.7500 0.7511
1490.000000 0.7519 0.7528 0.7536 0.7542 0.7543
1485.000000 0.7543 0.7537 0.7524 0.7497 0.7440
1480.000000 0.7330 0.6838 0.6045 0.5791 0.5350
1475.000000 0.5152 0.4980 0.4825 0.4691 0.4556
1470.000000 0.4488 0.4290 0.4122 0.4018 0.3914
1465.000000 0.3934 0.3950 0.4304 0.4659 0.5128
1460.000000 0.5260 0.5284 0.5327 0.5297 0.5266
1455.000000 0.5106 0.4947 0.4788 0.4629 0.4469
1450.000000 0.4310 0.4232 0.4296 0.4402 0.4507
1445.000000 0.4612 0.4718 0.4824 0.4930 0.5035
1440.000000 0.5130 0.5146 0.5160 0.5154 0.5048
1435.000000 0.4936 0.4824 0.4712 0.4600 0.4488
1430.000000 0.4376 0.4264 0.4153 0.4041 0.3929
1425.000000 0.3816 0.3705 0.3660 0.3660 0.3668
1420.000000 0.3943 0.4225 0.4588 0.4876 0.5043
1415.000000 0.5169 0.5292 0.5404 0.5494 0.5554
1410.000000 0.5602 0.5631 0.5638 0.5645 0.5673
1405.000000 0.5748 0.5824 0.5880 0.5935 0.5991
1400.000000 0.6041 0.6091 0.6135 0.6169 0.6202
1395.000000 0.6235 0.6267 0.6297 0.6321 0.6345
1390.000000 0.6373 0.6373 0.6374 0.6359 0.6341
1385.000000 0.6309 0.6277 0.6206 0.6229 0.6218
1380.000000 0.6221 0.6230 0.6246 0.6260 0.6276
1375.000000 0.6290 0.6304 0.6317 0.6326 0.6336
1370.000000 0.6345 0.6355 0.6364 0.6370 0.6373
1365.000000 0.6375 0.6375 0.6376 0.6369 0.6365
1360.000000 0.6352 0.6336 0.6310 0.6275 0.6222
1355.000000 0.6169 0.6128 0.6090 0.6053 0.6018
1350.000000 0.5983 0.5948 0.5888 0.5829 0.5774
1345.000000 0.5722 0.5676 0.5643 0.5620 0.5612
1340.000000 0.5572 0.5606 0.5618 0.5653 0.5738
1335.000000 0.5828 0.5931 0.6044 0.6210 0.6273
1330.000000 0.6290 0.6298 0.6335 0.6305 0.6272
1325.000000 0.6074 0.5955 0.5831 0.5858 0.5853
1320.000000 0.5882 0.6010 0.6139 0.6255 0.6297
1315.000000 0.6336 0.6350 0.6362 0.6369 0.6375
1310.000000 0.6404 0.6388 0.6393 0.6395 0.6367
1305.000000 0.6325 0.6265 0.6203 0.6140 0.6072
1300.000000 0.6074 0.6065 0.6122 0.6225 0.6281
1295.000000 0.6317 0.6342 0.6362 0.6381 0.6398
1290.000000 0.6415 0.6435 0.6454 0.6464 0.6474
1285.000000 0.6481 0.6500 0.6478 0.6451 0.6362
1280.000000 0.6258 0.6185 0.6160 0.6173 0.6229
1275.000000 0.6324 0.6374 0.6412 0.6434 0.6454
1270.000000 0.6475 0.6496 0.6517 0.6538 0.6558
1265.000000 0.6578 0.6596 0.6614 0.6632 0.6747
1260.000000 0.6668 0.6692 0.6678 0.6639 0.6568
1255.000000 0.6507 0.6445 0.6483 0.6503 0.6546
1250.000000 0.6576 0.6608 0.6628 0.6649 0.6668
1245.000000 0.6687 0.6706 0.6718 0.6778 0.6741
1240.000000 0.6753 0.6756 0.6718 0.6635 0.6508
1235.000000 0.6411 0.6297 0.6220 0.6186 0.6185
1230.000000 0.6185 0.6243 0.6324 0.6401 0.6471
1225.000000 0.6528 0.6575 0.6603 0.6628 0.6651
1220.000000 0.6675 0.6694 0.6728 0.6704 0.6707
1215.000000 0.6691 0.6642 0.6594 0.6547 0.6494
1210.000000 0.6276 0.6296 0.6285 0.6293 0.6304
1205.000000 0.6327 0.6351 0.6378 0.6408 0.6437
1200.000000 0.6465 0.6494 0.6521 0.6549 0.6571
1195.000000 0.6584 0.6619 0.6594 0.6557 0.6435
1190.000000 0.6345 0.6310 0.6310 0.6310 0.6338
1185.000000 0.6484 0.6562 0.6615 0.6651 0.6685
1180.000000 0.6719 0.6751 0.6772 0.6782 0.6791
1175.000000 0.6795 0.6798 0.6801 0.6804 0.6804
1170.000000 0.6804 0.6803 0.6810 0.6815 0.6843
1165.000000 0.6878 0.6912 0.6934 0.6950 0.6950
1160.000000 0.6950 0.6940 0.6930 0.6918 0.6908
1155.000000 0.6904 0.6900 0.6897 0.6893 0.6889
1150.000000 0.6890 0.6905 0.6896 0.6899 0.6904
1145.000000 0.6911 0.6919 0.6931 0.6944 0.6956
1140.000000 0.6968 0.6983 0.6997 0.7011 0.7024
1135.000000 0.7028 0.7021 0.7010 0.6999 0.6991
1130.000000 0.6985 0.6978 0.6971 0.6968 0.6965
1125.000000 0.6962 0.6961 0.6961 0.6961 0.6968
1120.000000 0.6975 0.6984 0.6992 0.7000 0.7008
1115.000000 0.7015 0.7021 0.7022 0.7025 0.7025
1110.000000 0.7026 0.7019 0.7014 0.6997 0.6978
1105.000000 0.6951 0.6918 0.6792 0.6643 0.6578
1100.000000 0.6551 0.6571 0.6589 0.6661 0.6753
1095.000000 0.6818 0.6874 0.6928 0.6961 0.6990
1090.000000 0.7018 0.7048 0.7060 0.7072 0.7085
1085.000000 0.7097 0.7108 0.7119 0.7128 0.7137
1080.000000 0.7146 0.7154 0.7161 0.7167 0.7172
1075.000000 0.7178 0.7186 0.7192 0.7198 0.7204
1070.000000 0.7210 0.7215 0.7221 0.7228 0.7233
1065.000000 0.7239 0.7245 0.7251 0.7256 0.7261
1060.000000 0.7265 0.7269 0.7275 0.7278 0.7281
1055.000000 0.7283 0.7283 0.7283 0.7282 0.7281
1050.000000 0.7281 0.7282 0.7285 0.7288 0.7291
1045.000000 0.7294 0.7297 0.7300 0.7303 0.7306
1040.000000 0.7312 0.7321 0.7328 0.7337 0.7344
1035.000000 0.7350 0.7355 0.7361 0.7367 0.7371
1030.000000 0.7375 0.7378 0.7383 0.7386 0.7389
1025.000000 0.7391 0.7391 0.7390 0.7390 0.7390
1020.000000 0.7390 0.7389 0.7387 0.7384 0.7382
1015.000000 0.7371 0.7360 0.7349 0.7325 0.7298
1010.000000 0.7235 0.7194 0.7185 0.7186 0.7187
1005.000000 0.7188 0.7200 0.7215 0.7228 0.7244
1000.000000 0.7258 0.7275 0.7291 0.7307 0.7318
995.000000 0.7328 0.7337 0.7347 0.7356 0.7365
990.000000 0.7374 0.7384 0.7385 0.7385 0.7403
985.000000 0.7375 0.7367 0.7357 0.7348 0.7338
980.000000 0.7328 0.7305 0.7280 0.7255 0.7224
975.000000 0.7194 0.7164 0.7134 0.7105 0.7075
970.000000 0.7043 0.7048 0.7048 0.7048 0.7051
965.000000 0.7053 0.7062 0.7072 0.7083 0.7093
960.000000 0.7103 0.7112 0.7122 0.7135 0.7148
955.000000 0.7160 0.7172 0.7186 0.7200 0.7215
950.000000 0.7230 0.7245 0.7260 0.7271 0.7281
945.000000 0.7291 0.7299 0.7305 0.7310 0.7312
940.000000 0.7315 0.7318 0.7336 0.7325 0.7326
935.000000 0.7321 0.7310 0.7300 0.7289 0.7261
930.000000 0.7228 0.7082 0.6940 0.6906 0.6893
925.000000 0.6875 0.6755 0.6595 0.6435 0.6368
920.000000 0.6391 0.6449 0.6875 0.6972 0.7035
915.000000 0.7106 0.7175 0.7218 0.7261 0.7299
910.000000 0.7332 0.7353 0.7371 0.7384 0.7397
905.000000 0.7408 0.7430 0.7428 0.7428 0.7426
900.000000 0.7425 0.7421 0.7414 0.7395 0.7375
895.000000 0.7356 0.7336 0.7315 0.7276 0.7238
890.000000 0.7207 0.7181 0.7189 0.7198 0.7293
885.000000 0.7393 0.7418 0.7442 0.7467 0.7491
880.000000 0.7515 0.7540 0.7558 0.7569 0.7582
875.000000 0.7594 0.7606 0.7611 0.7618 0.7624
870.000000 0.7628 0.7635 0.7640 0.7661 0.7647
865.000000 0.7650 0.7651 0.7651 0.7650 0.7647
860.000000 0.7644 0.7641 0.7632 0.7621 0.7604
855.000000 0.7580 0.7555 0.7514 0.7447 0.7253
850.000000 0.7189 0.7178 0.7174 0.7262 0.7371
845.000000 0.7454 0.7518 0.7551 0.7586 0.7614
840.000000 0.7631 0.7647 0.7662 0.7671 0.7678
835.000000 0.7687 0.7695 0.7701 0.7705 0.7710
830.000000 0.7714 0.7718 0.7722 0.7728 0.7730
825.000000 0.7732 0.7733 0.7733 0.7734 0.7730
820.000000 0.7725 0.7722 0.7715 0.7698 0.7662
815.000000 0.7619 0.7590 0.7572 0.7565 0.7561
810.000000 0.7571 0.7590 0.7611 0.7632 0.7643
805.000000 0.7651 0.7658 0.7667 0.7675 0.7682
800.000000 0.7689 0.7695 0.7701 0.7705 0.7707
795.000000 0.7708 0.7710 0.7710 0.7710 0.7708
790.000000 0.7696 0.7680 0.7664 0.7628 0.7575
785.000000 0.7497 0.7378 0.7231 0.7047 0.7044
780.000000 0.7093 0.7208 0.7325 0.7437 0.7471
775.000000 0.7490 0.7508 0.7528 0.7542 0.7549
770.000000 0.7556 0.7558 0.7558 0.7558 0.7558
765.000000 0.7558 0.7556 0.7569 0.7551 0.7549
760.000000 0.7545 0.7538 0.7525 0.7497 0.7468
755.000000 0.7451 0.7455 0.7458 0.7460 0.7456
750.000000 0.7451 0.7436 0.7397 0.7358 0.7321
745.000000 0.7264 0.7205 0.7133 0.7053 0.6947
740.000000 0.6836 0.6607 0.6548 0.6535 0.6537
735.000000 0.6539 0.6540 0.6528 0.6465 0.6368
730.000000 0.6270 0.5805 0.5472 0.5024 0.4575
725.000000 0.4310 0.4247 0.4247 0.4239 0.4244
720.000000 0.4278 0.4356 0.4662 0.5252 0.5708
715.000000 0.6003 0.6187 0.6360 0.6558 0.6669
710.000000 0.6764 0.6839 0.6972 0.6945 0.6951
705.000000 0.6951 0.6912 0.6778 0.6644 0.6510
700.000000 0.6376 0.6242 0.6179 0.6196 0.6219
695.000000 0.6297 0.6501 0.6656 0.6851 0.7160
690.000000 0.7282 0.7395 0.7475 0.7555 0.7628
685.000000 0.7682 0.7726 0.7771 0.7808 0.7844
680.000000 0.7869 0.7896 0.7921 0.7947 0.7969
675.000000 0.7992 0.8011 0.8032 0.8054 0.8075
670.000000 0.8095 0.8128 0.8201 0.8220 0.8227
665.000000 0.8232 0.8232 0.8211 0.8190 0.8169
660.000000 0.8150 0.8143 0.8140 0.8137 0.8134
655.000000 0.8131 0.8132 0.8136 0.8141 0.8146
650.000000 0.8150 0.8155 0.8160 0.8164 0.8168
645.000000 0.8174 0.8178 0.8182 0.8185 0.8187
640.000000 0.8190 0.8192 0.8195 0.8197 0.8200
635.000000 0.8202 0.8205 0.8207 0.8210 0.8212
630.000000 0.8214 0.8217 0.8220 0.8224 0.8228
625.000000 0.8233 0.8235 0.8235 0.8235 0.8234
620.000000 0.8234 0.8234 0.8234 0.8233 0.8233
615.000000 0.8233 0.8233 0.8232 0.8232 0.8232
610.000000 0.8232 0.8230 0.8228 0.8228 0.8225
605.000000 0.8225 0.8223 0.8218 0.8211 0.8204
600.000000 0.8197 0.8189 0.8182 0.8175 0.8168
595.000000 0.8160 0.8153 0.8146 0.8139 0.8132
590.000000 0.8125 0.8118 0.8111 0.8100 0.8089
585.000000 0.8078 0.8068 0.8058 0.8049 0.8040
580.000000 0.8030 0.8021 0.8015 0.8008 0.8008
575.000000 0.8008 0.8012 0.8026 0.8042 0.8058
570.000000 0.8074 0.8089 0.8104 0.8118 0.8133
565.000000 0.8146 0.8160 0.8168 0.8175 0.8181
560.000000 0.8186 0.8185 0.8183 0.8182 0.8180
555.000000 0.8171 0.8164 0.8157 0.8149 0.8125
550.000000 0.8098 0.8064 0.8014 0.7961 0.7907
545.000000 0.7845 0.7722 0.7605 0.7488 0.7369
540.000000 0.7253 0.7099 0.7103 0.7146 0.7255
535.000000 0.7364 0.7471 0.7571 0.7654 0.7737
530.000000 0.7822 0.7872 0.7915 0.7958 0.7993
525.000000 0.8025 0.8056 0.8088 0.8115 0.8138
520.000000 0.8161 0.8185 0.8209 0.8232 0.8249
515.000000 0.8264 0.8280 0.8284 0.8288 0.8292
510.000000 0.8296 0.8304 0.8316 0.8333 0.8351
505.000000 0.8368 0.8384 0.8399 0.8411 0.8423
500.000000 0.8433 0.8464 0.8440 0.8439 0.8428
495.000000 0.8381 0.8318 0.8252 0.8128 0.8139
490.000000 0.8139 0.8164 0.8230 0.8300 0.8371
485.000000 0.8431 0.8484 0.8521 0.8541 0.8559
480.000000 0.8578 0.8596 0.8610 0.8618 0.8627
475.000000 0.8636 0.8644 0.8655 0.8649 0.8651
470.000000 0.8654 0.8656 0.8657 0.8652 0.8647
465.000000 0.8642 0.8635 0.8625 0.8615 0.8604
460.000000 0.8584 0.8556 0.8493 0.8430 0.8274
455.000000 0.8158 0.8149 0.8150 0.8167 0.8225
450.000000 0.8292 0.8361 0.8435 0.8498 0.8549
445.000000 0.8575 0.8575 0.8577 0.8578 0.8578
440.000000 0.8581 0.8587 0.8594 0.8601 0.8608
435.000000 0.8615 0.8621 0.8628 0.8636 0.8643
430.000000 0.8652 0.8662 0.8671 0.8681 0.8690
425.000000 0.8699 0.8709 0.8718 0.8728 0.8737
420.000000 0.8747 0.8762 0.8777 0.8793 0.8808
415.000000 0.8824 0.8839 0.8855 0.8871 0.8886
410.000000 0.8902 0.8917 0.8933 0.8949 0.8965
405.000000 0.8981 0.8997 0.9013 0.9028 0.9045
400.000000 0.9062 0.9078 0.9096 0.9112 0.9128
395.000000 0.9146 0.9163 0.9180 0.9197 0.9216
390.000000 0.9237 0.9258 0.9278 0.9299 0.9320
385.000000 0.9341 0.9361 0.9378 0.9397 0.9415
##END=
