##TITLE=SODIUM SILICOFLUORIDE
$$ C.P.
##JCAMP-DX=4.24
##DATA TYPE=INFRARED SPECTRUM
##CLASS=COBLENTZ
##ORIGIN=MELLON INSTITUTE
##OWNER=COBLENTZ SOCIETY
Collection (C) 2018 copyright by the U.S. Secretary of Commerce
on behalf of the United States of America. All rights reserved.
##DATE=Not specified, most likely prior to 1970
##MOLFORM=Na2 Si F6
##SOURCE REFERENCE=COBLENTZ NO. 516
##$NIST ID=B6000516
##$NIST SOURCE=COBLENTZ
##$NIST IMAGE=cob516
##SPECTROMETER/DATA SYSTEM=Not specified, most likely a prism, grating, or hybrid spectrometer.
##STATE=SOLID (NUJOL MULL)
##PATH LENGTH=
$$SPECTRAL CONTAMINATION DUE TO OIL AROUND 2900, 1450, 1380 CM^-^1
##SAMPLING PROCEDURE=TRANSMISSION
##RESOLUTION=4
##DATA PROCESSING=DIGITIZED BY NIST FROM HARD COPY
##XUNITS=MICROMETERS
##YUNITS=TRANSMITTANCE
##XFACTOR=1.000000
##YFACTOR=1
##DELTAX=000.006828
##FIRSTX=2.01
##LASTX=15.9868
##FIRSTY=0.742
##MAXX=15.9868
##MINX=2.01
##MAXY=0.96
##MINY=0.214
##NPOINTS=2048
##XYDATA=(X++(Y..Y))
2.010000 0.7420 0.7380 0.7380 0.7380 0.7400
2.044157 0.7380 0.7380 0.7400 0.7400 0.7400
2.078000 0.7400 0.7400 0.7380 0.7380 0.7380
2.112157 0.7380 0.7370 0.7350 0.7350 0.7370
2.146000 0.7370 0.7350 0.7370 0.7350 0.7350
2.180157 0.7350 0.7350 0.7350 0.7330 0.7330
2.215000 0.7330 0.7330 0.7330 0.7330 0.7330
2.249157 0.7330 0.7310 0.7310 0.7310 0.7310
2.283000 0.7300 0.7280 0.7280 0.7280 0.7260
2.317157 0.7280 0.7280 0.7280 0.7280 0.7260
2.351000 0.7250 0.7250 0.7280 0.7260 0.7260
2.385157 0.7250 0.7260 0.7260 0.7280 0.7280
2.420000 0.7280 0.7280 0.7280 0.7260 0.7260
2.454157 0.7280 0.7300 0.7310 0.7330 0.7330
2.488000 0.7330 0.7330 0.7330 0.7350 0.7350
2.522157 0.7350 0.7350 0.7350 0.7350 0.7350
2.556000 0.7350 0.7350 0.7350 0.7370 0.7370
2.590157 0.7350 0.7330 0.7330 0.7350 0.7380
2.624000 0.7400 0.7450 0.7470 0.7470 0.7470
2.658157 0.7450 0.7420 0.7380 0.7380 0.7380
2.693000 0.7380 0.7380 0.7400 0.7400 0.7350
2.727157 0.7330 0.7310 0.7310 0.7310 0.7310
2.761000 0.7330 0.7330 0.7310 0.7310 0.7300
2.795157 0.7300 0.7300 0.7300 0.7300 0.7280
2.829000 0.7280 0.7280 0.7260 0.7260 0.7260
2.863157 0.7250 0.7260 0.7280 0.7260 0.7260
2.898000 0.7250 0.7230 0.7230 0.7210 0.7250
2.932157 0.7260 0.7280 0.7260 0.7260 0.7250
2.966000 0.7250 0.7280 0.7300 0.7300 0.7300
3.000157 0.7280 0.7260 0.7260 0.7260 0.7230
3.034000 0.7230 0.7250 0.7280 0.7310 0.7310
3.068157 0.7300 0.7280 0.7280 0.7280 0.7280
3.102000 0.7280 0.7280 0.7310 0.7310 0.7310
3.136157 0.7310 0.7310 0.7310 0.7310 0.7330
3.171000 0.7350 0.7380 0.7380 0.7350 0.7370
3.205157 0.7370 0.7400 0.7420 0.7430 0.7470
3.239000 0.7470 0.7430 0.7400 0.7370 0.7380
3.273157 0.7380 0.7380 0.7370 0.7310 0.7190
3.307000 0.7090 0.6850 0.6490 0.5990 0.5320
3.341157 0.4810 0.4480 0.4270 0.4000 0.3620
3.376000 0.3330 0.3290 0.3330 0.3780 0.3980
3.410157 0.4190 0.4410 0.4630 0.4840 0.5050
3.444000 0.5170 0.5120 0.4980 0.4860 0.4820
3.478157 0.4860 0.5200 0.5580 0.6130 0.6760
3.512000 0.7010 0.7210 0.7400 0.7430 0.7490
3.546157 0.7520 0.7560 0.7610 0.7640 0.7660
3.580000 0.7680 0.7690 0.7690 0.7710 0.7710
3.614157 0.7740 0.7780 0.7780 0.7780 0.7780
3.649000 0.7800 0.7810 0.7830 0.7830 0.7830
3.683157 0.7830 0.7830 0.7810 0.7830 0.7810
3.717000 0.7810 0.7810 0.7800 0.7800 0.7800
3.751157 0.7800 0.7810 0.7810 0.7810 0.7810
3.785000 0.7830 0.7850 0.7850 0.7850 0.7860
3.819157 0.7830 0.7830 0.7850 0.7850 0.7850
3.854000 0.7860 0.7880 0.7860 0.7860 0.7900
3.888157 0.7920 0.7920 0.7900 0.7900 0.7880
3.922000 0.7880 0.7880 0.7880 0.7880 0.7900
3.956157 0.7920 0.7930 0.7930 0.7950 0.7950
3.990000 0.7950 0.7950 0.7970 0.7930 0.7950
4.024157 0.7950 0.7980 0.8000 0.8020 0.8020
4.058000 0.8020 0.8020 0.8020 0.8000 0.8000
4.092157 0.8020 0.8020 0.8020 0.8020 0.8020
4.127000 0.8000 0.7970 0.7980 0.8000 0.8000
4.161157 0.8020 0.8020 0.8070 0.8070 0.8040
4.195000 0.7930 0.7880 0.7810 0.7800 0.7780
4.229157 0.7760 0.7760 0.7760 0.7800 0.7800
4.263000 0.7810 0.7830 0.7860 0.7860 0.7810
4.297157 0.7760 0.7740 0.7740 0.7730 0.7740
4.331000 0.7740 0.7740 0.7760 0.7800 0.7800
4.365157 0.7800 0.7830 0.7860 0.7860 0.7900
4.400000 0.7970 0.8000 0.8000 0.8000 0.8000
4.434157 0.7980 0.7930 0.7930 0.7980 0.7980
4.468000 0.7980 0.8000 0.8000 0.8000 0.8000
4.502157 0.7980 0.8000 0.7980 0.7980 0.8000
4.536000 0.8000 0.8000 0.7980 0.7970 0.7980
4.570157 0.7980 0.7980 0.7980 0.7970 0.7980
4.605000 0.8000 0.8000 0.8000 0.8020 0.8020
4.639157 0.8020 0.8020 0.8000 0.8020 0.8020
4.673000 0.8020 0.8000 0.8000 0.8000 0.8000
4.707157 0.8020 0.8040 0.8040 0.8020 0.8040
4.741000 0.8050 0.8070 0.8090 0.8070 0.8070
4.775157 0.8070 0.8050 0.8040 0.8020 0.8020
4.809000 0.8020 0.8020 0.8040 0.8050 0.8070
4.843157 0.8090 0.8090 0.8100 0.8100 0.8120
4.878000 0.8120 0.8120 0.8120 0.8120 0.8140
4.912157 0.8160 0.8160 0.8190 0.8210 0.8210
4.946000 0.8210 0.8160 0.8160 0.8210 0.8230
4.980157 0.8230 0.8230 0.8230 0.8230 0.8230
5.014000 0.8240 0.8240 0.8260 0.8260 0.8260
5.048157 0.8280 0.8280 0.8280 0.8280 0.8260
5.083000 0.8260 0.8260 0.8260 0.8260 0.8260
5.117157 0.8280 0.8260 0.8280 0.8280 0.8280
5.151000 0.8280 0.8280 0.8260 0.8240 0.8240
5.185157 0.8260 0.8290 0.8330 0.8350 0.8350
5.219000 0.8350 0.8350 0.8350 0.8350 0.8360
5.253157 0.8380 0.8400 0.8410 0.8410 0.8410
5.287000 0.8410 0.8410 0.8400 0.8400 0.8380
5.321157 0.8380 0.8360 0.8350 0.8380 0.8380
5.356000 0.8380 0.8380 0.8400 0.8400 0.8400
5.390157 0.8400 0.8400 0.8410 0.8410 0.8430
5.424000 0.8450 0.8450 0.8450 0.8470 0.8480
5.458157 0.8470 0.8410 0.8380 0.8350 0.8380
5.492000 0.8400 0.8400 0.8400 0.8400 0.8400
5.526157 0.8410 0.8450 0.8480 0.8500 0.8520
5.561000 0.8520 0.8520 0.8530 0.8530 0.8520
5.595157 0.8530 0.8520 0.8520 0.8500 0.8500
5.629000 0.8530 0.8550 0.8550 0.8600 0.8620
5.663157 0.8640 0.8640 0.8550 0.8550 0.8620
5.697000 0.8670 0.8710 0.8720 0.8720 0.8710
5.731157 0.8710 0.8710 0.8710 0.8690 0.8650
5.765000 0.8650 0.8720 0.8720 0.8720 0.8720
5.799157 0.8740 0.8760 0.8830 0.8860 0.8860
5.834000 0.8910 0.8830 0.8760 0.8760 0.8830
5.868157 0.8880 0.8900 0.8900 0.8880 0.8880
5.902000 0.8860 0.8760 0.8830 0.8860 0.8950
5.936157 0.9000 0.9000 0.9000 0.8980 0.8950
5.970000 0.8960 0.8980 0.8980 0.9000 0.9000
6.004157 0.9020 0.9030 0.9050 0.9050 0.9050
6.038000 0.9030 0.9020 0.8980 0.8980 0.8930
6.072157 0.8930 0.8950 0.8950 0.8950 0.8910
6.107000 0.8910 0.9000 0.9030 0.9030 0.9030
6.141157 0.9050 0.9050 0.9100 0.9100 0.9100
6.175000 0.9120 0.9120 0.9080 0.9080 0.9140
6.209157 0.9150 0.9150 0.9150 0.9140 0.9120
6.243000 0.9100 0.9120 0.9120 0.9120 0.9080
6.277157 0.9020 0.9020 0.9070 0.9080 0.9120
6.312000 0.9140 0.9150 0.9150 0.9140 0.9050
6.346157 0.9030 0.9030 0.9050 0.9050 0.9050
6.380000 0.9050 0.9080 0.9050 0.9000 0.8980
6.414157 0.8950 0.8950 0.9000 0.9030 0.9050
6.448000 0.9050 0.9050 0.9070 0.9070 0.9100
6.482157 0.9120 0.9140 0.9140 0.9050 0.9030
6.516000 0.9030 0.9050 0.9050 0.9050 0.9050
6.550157 0.9070 0.9070 0.9080 0.9080 0.9080
6.585000 0.9120 0.9100 0.9100 0.9120 0.9100
6.619157 0.9120 0.9120 0.9140 0.9150 0.9170
6.653000 0.9170 0.9170 0.9150 0.9150 0.9140
6.687157 0.9120 0.9100 0.9070 0.9030 0.9030
6.721000 0.9030 0.9070 0.9070 0.9030 0.9020
6.755157 0.8880 0.8790 0.8690 0.8520 0.8380
6.790000 0.8280 0.8090 0.8000 0.7980 0.7930
6.824157 0.7930 0.7900 0.7830 0.7780 0.7780
6.858000 0.7800 0.7810 0.7850 0.7920 0.7980
6.892157 0.8020 0.8040 0.8100 0.8160 0.8260
6.926000 0.8350 0.8380 0.8380 0.8380 0.8400
6.960157 0.8480 0.8530 0.8620 0.8690 0.8710
6.994000 0.8760 0.8810 0.8840 0.8880 0.8900
7.028157 0.8900 0.8900 0.8900 0.8900 0.8930
7.063000 0.8960 0.9000 0.9020 0.9030 0.9030
7.097157 0.9030 0.9030 0.9050 0.9070 0.9050
7.131000 0.9030 0.9030 0.9030 0.9020 0.9030
7.165157 0.9030 0.9030 0.9030 0.9020 0.8980
7.199000 0.8930 0.8860 0.8790 0.8740 0.8690
7.233157 0.8590 0.8530 0.8530 0.8550 0.8570
7.268000 0.8600 0.8620 0.8640 0.8690 0.8740
7.302157 0.8780 0.8790 0.8840 0.8880 0.8900
7.336000 0.9020 0.9050 0.9070 0.9070 0.9070
7.370157 0.9070 0.9070 0.9030 0.9030 0.9050
7.404000 0.9100 0.9100 0.9050 0.9030 0.9030
7.438157 0.9030 0.9030 0.9050 0.9140 0.9150
7.472000 0.9150 0.9170 0.9190 0.9190 0.9190
7.506157 0.9190 0.9200 0.9200 0.9200 0.9200
7.541000 0.9190 0.9190 0.9190 0.9200 0.9200
7.575157 0.9170 0.9170 0.9150 0.9170 0.9170
7.609000 0.9190 0.9200 0.9200 0.9200 0.9220
7.643157 0.9200 0.9200 0.9200 0.9200 0.9190
7.677000 0.9190 0.9170 0.9150 0.9170 0.9170
7.711157 0.9190 0.9200 0.9200 0.9200 0.9220
7.745000 0.9220 0.9200 0.9150 0.9150 0.9170
7.779157 0.9170 0.9170 0.9170 0.9170 0.9170
7.814000 0.9190 0.9190 0.9150 0.9150 0.9150
7.848157 0.9150 0.9170 0.9170 0.9170 0.9190
7.882000 0.9190 0.9170 0.9170 0.9170 0.9150
7.916157 0.9150 0.9150 0.9150 0.9150 0.9150
7.950000 0.9150 0.9150 0.9150 0.9150 0.9150
7.984157 0.9150 0.9150 0.9140 0.9080 0.9050
8.019000 0.9030 0.9050 0.9050 0.9050 0.9050
8.053157 0.9030 0.9030 0.9030 0.9030 0.9030
8.087000 0.9030 0.9030 0.9020 0.9020 0.9020
8.121157 0.9030 0.9030 0.9020 0.9000 0.8980
8.155000 0.9020 0.9020 0.9020 0.9020 0.9020
8.189157 0.9000 0.9000 0.8980 0.9000 0.9000
8.223000 0.9000 0.9020 0.9020 0.9020 0.9020
8.257157 0.9000 0.8980 0.8960 0.8960 0.8960
8.292000 0.8950 0.8950 0.8950 0.8950 0.8930
8.326157 0.8930 0.8930 0.8930 0.8930 0.8930
8.360000 0.8930 0.8930 0.8930 0.8950 0.8980
8.394157 0.9000 0.9000 0.9000 0.9020 0.9020
8.428000 0.9000 0.9000 0.9020 0.9020 0.9020
8.462157 0.9020 0.9020 0.9020 0.9020 0.9020
8.497000 0.9020 0.9020 0.9020 0.9020 0.8980
8.531157 0.8980 0.9000 0.9000 0.9000 0.9000
8.565000 0.9000 0.9000 0.9000 0.8980 0.9000
8.599157 0.9000 0.9000 0.9000 0.8960 0.8960
8.633000 0.8950 0.8950 0.8950 0.8950 0.8930
8.667157 0.8930 0.8910 0.8900 0.8880 0.8860
8.701000 0.8880 0.8900 0.8900 0.8900 0.8910
8.735157 0.8930 0.8910 0.8910 0.8910 0.8910
8.770000 0.8910 0.8910 0.8910 0.8910 0.8900
8.804157 0.8880 0.8860 0.8840 0.8840 0.8830
8.838000 0.8810 0.8790 0.8790 0.8780 0.8780
8.872157 0.8780 0.8780 0.8760 0.8760 0.8760
8.906000 0.8760 0.8760 0.8760 0.8740 0.8720
8.940157 0.8710 0.8690 0.8690 0.8670 0.8670
8.975000 0.8650 0.8670 0.8670 0.8650 0.8650
9.009157 0.8640 0.8620 0.8620 0.8620 0.8620
9.043000 0.8620 0.8620 0.8620 0.8620 0.8620
9.077157 0.8640 0.8650 0.8650 0.8650 0.8670
9.111000 0.8670 0.8670 0.8670 0.8650 0.8650
9.145157 0.8650 0.8670 0.8670 0.8670 0.8690
9.179000 0.8710 0.8710 0.8690 0.8710 0.8710
9.213157 0.8740 0.8760 0.8780 0.8780 0.8790
9.248000 0.8810 0.8810 0.8830 0.8840 0.8860
9.282157 0.8860 0.8880 0.8880 0.8900 0.8900
9.316000 0.8910 0.8950 0.8980 0.9000 0.9000
9.350157 0.9000 0.8980 0.8980 0.9020 0.9020
9.384000 0.9030 0.9030 0.9050 0.9050 0.9030
9.418157 0.9050 0.9050 0.9050 0.9050 0.9050
9.453000 0.9050 0.9050 0.9050 0.9050 0.9050
9.487157 0.9050 0.9050 0.9050 0.9050 0.9050
9.521000 0.9070 0.9070 0.9120 0.9150 0.9170
9.555157 0.9190 0.9190 0.9190 0.9190 0.9190
9.589000 0.9170 0.9170 0.9190 0.9190 0.9170
9.623157 0.9170 0.9170 0.9150 0.9170 0.9170
9.657000 0.9190 0.9190 0.9190 0.9190 0.9190
9.691157 0.9190 0.9200 0.9200 0.9200 0.9200
9.726000 0.9220 0.9220 0.9220 0.9220 0.9220
9.760157 0.9240 0.9260 0.9260 0.9260 0.9260
9.794000 0.9260 0.9260 0.9240 0.9270 0.9290
9.828157 0.9290 0.9290 0.9290 0.9290 0.9290
9.862000 0.9290 0.9310 0.9310 0.9310 0.9310
9.896157 0.9320 0.9320 0.9320 0.9310 0.9290
9.930000 0.9290 0.9270 0.9270 0.9290 0.9270
9.964157 0.9270 0.9290 0.9310 0.9310 0.9310
9.999000 0.9290 0.9270 0.9270 0.9290 0.9290
10.033157 0.9310 0.9310 0.9310 0.9320 0.9320
10.067000 0.9320 0.9340 0.9340 0.9340 0.9340
10.101157 0.9310 0.9290 0.9270 0.9290 0.9290
10.135000 0.9290 0.9290 0.9290 0.9310 0.9320
10.169157 0.9320 0.9320 0.9320 0.9340 0.9340
10.204000 0.9310 0.9310 0.9310 0.9310 0.9310
10.238157 0.9270 0.9270 0.9270 0.9270 0.9290
10.272000 0.9270 0.9270 0.9270 0.9270 0.9270
10.306157 0.9290 0.9290 0.9310 0.9320 0.9310
10.340000 0.9310 0.9310 0.9310 0.9310 0.9290
10.374157 0.9290 0.9290 0.9290 0.9310 0.9310
10.408000 0.9310 0.9310 0.9310 0.9310 0.9310
10.442157 0.9310 0.9310 0.9310 0.9310 0.9310
10.477000 0.9310 0.9310 0.9310 0.9310 0.9310
10.511157 0.9310 0.9310 0.9310 0.9310 0.9290
10.545000 0.9290 0.9290 0.9290 0.9260 0.9260
10.579157 0.9270 0.9290 0.9290 0.9270 0.9270
10.613000 0.9290 0.9290 0.9290 0.9290 0.9290
10.647157 0.9310 0.9310 0.9310 0.9310 0.9310
10.682000 0.9310 0.9310 0.9310 0.9320 0.9320
10.716157 0.9320 0.9320 0.9340 0.9360 0.9360
10.750000 0.9360 0.9360 0.9380 0.9380 0.9380
10.784157 0.9380 0.9360 0.9360 0.9380 0.9380
10.818000 0.9390 0.9390 0.9390 0.9390 0.9390
10.852157 0.9390 0.9410 0.9410 0.9410 0.9430
10.886000 0.9450 0.9430 0.9430 0.9430 0.9430
10.920157 0.9460 0.9460 0.9460 0.9450 0.9430
10.955000 0.9430 0.9430 0.9450 0.9430 0.9430
10.989157 0.9430 0.9430 0.9450 0.9480 0.9480
11.023000 0.9500 0.9500 0.9510 0.9510 0.9510
11.057157 0.9510 0.9510 0.9530 0.9530 0.9510
11.091000 0.9510 0.9510 0.9510 0.9510 0.9510
11.125157 0.9530 0.9530 0.9510 0.9510 0.9510
11.160000 0.9510 0.9530 0.9530 0.9530 0.9530
11.194157 0.9530 0.9530 0.9530 0.9530 0.9530
11.228000 0.9550 0.9550 0.9550 0.9550 0.9550
11.262157 0.9550 0.9550 0.9550 0.9550 0.9550
11.296000 0.9550 0.9550 0.9570 0.9570 0.9570
11.330157 0.9570 0.9550 0.9530 0.9510 0.9500
11.364000 0.9500 0.9510 0.9530 0.9530 0.9530
11.398157 0.9530 0.9550 0.9550 0.9550 0.9550
11.433000 0.9550 0.9550 0.9550 0.9550 0.9550
11.467157 0.9550 0.9580 0.9580 0.9600 0.9600
11.501000 0.9600 0.9600 0.9600 0.9570 0.9570
11.535157 0.9550 0.9550 0.9550 0.9570 0.9570
11.569000 0.9550 0.9550 0.9570 0.9570 0.9550
11.603157 0.9550 0.9530 0.9530 0.9510 0.9510
11.637000 0.9510 0.9510 0.9530 0.9530 0.9500
11.671157 0.9460 0.9460 0.9450 0.9450 0.9450
11.706000 0.9460 0.9460 0.9450 0.9450 0.9430
11.740157 0.9430 0.9390 0.9390 0.9390 0.9390
11.774000 0.9390 0.9390 0.9390 0.9380 0.9380
11.808157 0.9380 0.9360 0.9360 0.9360 0.9360
11.842000 0.9340 0.9320 0.9320 0.9310 0.9290
11.876157 0.9290 0.9290 0.9290 0.9290 0.9290
11.911000 0.9270 0.9270 0.9260 0.9240 0.9220
11.945157 0.9200 0.9200 0.9200 0.9200 0.9190
11.979000 0.9190 0.9190 0.9190 0.9190 0.9190
12.013157 0.9170 0.9150 0.9150 0.9150 0.9140
12.047000 0.9120 0.9120 0.9100 0.9070 0.9050
12.081157 0.9050 0.9050 0.9050 0.9030 0.9030
12.115000 0.9000 0.9000 0.9000 0.8980 0.8960
12.149157 0.8950 0.8930 0.8910 0.8910 0.8910
12.184000 0.8900 0.8860 0.8860 0.8830 0.8790
12.218157 0.8780 0.8760 0.8710 0.8650 0.8570
12.252000 0.8550 0.8520 0.8500 0.8430 0.8380
12.286157 0.8350 0.8240 0.8190 0.8190 0.8140
12.320000 0.8100 0.8040 0.8020 0.8020 0.7930
12.354157 0.7880 0.7830 0.7760 0.7740 0.7690
12.389000 0.7620 0.7560 0.7490 0.7400 0.7310
12.423157 0.7180 0.7070 0.7040 0.7020 0.6890
12.457000 0.6820 0.6780 0.6780 0.6750 0.6730
12.491157 0.6660 0.6630 0.6520 0.6510 0.6440
12.525000 0.6350 0.6350 0.6320 0.6210 0.6150
12.559157 0.6110 0.6060 0.6010 0.6010 0.5960
12.593000 0.5910 0.5840 0.5750 0.5720 0.5650
12.627157 0.5630 0.5580 0.5540 0.5530 0.5490
12.662000 0.5480 0.5460 0.5440 0.5420 0.5410
12.696157 0.5370 0.5340 0.5320 0.5300 0.5270
12.730000 0.5240 0.5200 0.5180 0.5170 0.5150
12.764157 0.5130 0.5080 0.5080 0.5050 0.5050
12.798000 0.5030 0.5030 0.5010 0.4960 0.4930
12.832157 0.4910 0.4890 0.4870 0.4870 0.4840
12.867000 0.4820 0.4790 0.4700 0.4670 0.4650
12.901157 0.4650 0.4600 0.4600 0.4570 0.4550
12.935000 0.4500 0.4500 0.4450 0.4430 0.4410
12.969157 0.4360 0.4320 0.4320 0.4290 0.4260
13.003000 0.4220 0.4190 0.4170 0.4150 0.4140
13.037157 0.4140 0.4120 0.4100 0.4050 0.4030
13.071000 0.4020 0.4020 0.4000 0.4000 0.3980
13.105157 0.3960 0.3950 0.3910 0.3900 0.3840
13.140000 0.3840 0.3830 0.3810 0.3790 0.3780
13.174157 0.3740 0.3720 0.3710 0.3670 0.3640
13.208000 0.3620 0.3590 0.3570 0.3530 0.3520
13.242157 0.3520 0.3480 0.3470 0.3450 0.3430
13.276000 0.3410 0.3380 0.3360 0.3360 0.3350
13.310157 0.3330 0.3310 0.3280 0.3230 0.3210
13.345000 0.3190 0.3170 0.3140 0.3140 0.3100
13.379157 0.3100 0.3050 0.3040 0.3040 0.3000
13.413000 0.2980 0.2970 0.2970 0.2950 0.2950
13.447157 0.2930 0.2930 0.2920 0.2860 0.2850
13.481000 0.2810 0.2800 0.2760 0.2740 0.2730
13.515157 0.2690 0.2660 0.2640 0.2640 0.2610
13.549000 0.2560 0.2560 0.2540 0.2520 0.2500
13.583157 0.2490 0.2470 0.2470 0.2450 0.2420
13.618000 0.2400 0.2400 0.2380 0.2350 0.2350
13.652157 0.2330 0.2310 0.2300 0.2300 0.2260
13.686000 0.2250 0.2230 0.2210 0.2190 0.2190
13.720157 0.2180 0.2180 0.2180 0.2180 0.2160
13.754000 0.2160 0.2160 0.2160 0.2140 0.2160
13.788157 0.2160 0.2160 0.2160 0.2160 0.2180
13.822000 0.2180 0.2190 0.2190 0.2250 0.2260
13.856157 0.2310 0.2330 0.2450 0.2500 0.2520
13.891000 0.2540 0.2610 0.2660 0.2690 0.2710
13.925157 0.2810 0.2880 0.2930 0.3040 0.3090
13.959000 0.3160 0.3290 0.3310 0.3400 0.3470
13.993157 0.3590 0.3710 0.3910 0.4140 0.4220
14.027000 0.4260 0.4310 0.4310 0.4430 0.4530
14.061157 0.4620 0.4690 0.4790 0.4890 0.5010
14.096000 0.5120 0.5200 0.5300 0.5390 0.5490
14.130157 0.5600 0.5630 0.5730 0.5790 0.5820
14.164000 0.5890 0.5990 0.5990 0.6040 0.6090
14.198157 0.6130 0.6180 0.6230 0.6280 0.6340
14.232000 0.6400 0.6440 0.6510 0.6540 0.6610
14.266157 0.6640 0.6730 0.6780 0.6820 0.6850
14.300000 0.6900 0.6920 0.6990 0.7010 0.7010
14.334157 0.7020 0.7040 0.7110 0.7140 0.7160
14.369000 0.7190 0.7190 0.7250 0.7260 0.7280
14.403157 0.7300 0.7310 0.7310 0.7330 0.7330
14.437000 0.7330 0.7350 0.7350 0.7350 0.7370
14.471157 0.7370 0.7380 0.7380 0.7400 0.7400
14.505000 0.7420 0.7450 0.7450 0.7450 0.7490
14.539157 0.7500 0.7500 0.7520 0.7540 0.7540
14.574000 0.7540 0.7540 0.7540 0.7560 0.7570
14.608157 0.7590 0.7590 0.7590 0.7610 0.7610
14.642000 0.7610 0.7610 0.7620 0.7610 0.7610
14.676157 0.7610 0.7610 0.7610 0.7620 0.7620
14.710000 0.7620 0.7610 0.7610 0.7610 0.7590
14.744157 0.7590 0.7610 0.7610 0.7590 0.7590
14.778000 0.7590 0.7590 0.7590 0.7570 0.7560
14.812157 0.7540 0.7490 0.7470 0.7450 0.7420
14.847000 0.7380 0.7370 0.7350 0.7350 0.7350
14.881157 0.7350 0.7380 0.7380 0.7420 0.7430
14.915000 0.7450 0.7450 0.7450 0.7450 0.7450
14.949157 0.7450 0.7470 0.7470 0.7450 0.7450
14.983000 0.7450 0.7490 0.7490 0.7470 0.7450
15.017157 0.7420 0.7400 0.7420 0.7400 0.7330
15.052000 0.7260 0.7260 0.7250 0.7250 0.7250
15.086157 0.7250 0.7250 0.7250 0.7250 0.7260
15.120000 0.7280 0.7310 0.7330 0.7330 0.7330
15.154157 0.7330 0.7330 0.7330 0.7310 0.7260
15.188000 0.7260 0.7230 0.7250 0.7260 0.7260
15.222157 0.7280 0.7280 0.7280 0.7260 0.7250
15.256000 0.7230 0.7230 0.7190 0.7190 0.7190
15.290157 0.7190 0.7190 0.7160 0.7160 0.7140
15.325000 0.7130 0.7110 0.7090 0.7060 0.7040
15.359157 0.7020 0.7060 0.7070 0.7070 0.7070
15.393000 0.7070 0.7090 0.7070 0.7060 0.7040
15.427157 0.7020 0.7020 0.7010 0.7010 0.7010
15.461000 0.7010 0.6990 0.6970 0.6940 0.6920
15.495157 0.6920 0.6920 0.6890 0.6890 0.6890
15.529000 0.6890 0.6890 0.6890 0.6900 0.6900
15.563157 0.6900 0.6920 0.6900 0.6890 0.6890
15.598000 0.6890 0.6870 0.6830 0.6830 0.6820
15.632157 0.6780 0.6780 0.6780 0.6780 0.6780
15.666000 0.6780 0.6780 0.6780 0.6760 0.6750
15.700157 0.6730 0.6710 0.6660 0.6660 0.6630
15.734000 0.6610 0.6610 0.6590 0.6540 0.6540
15.768157 0.6540 0.6540 0.6540 0.6540 0.6540
15.803000 0.6520 0.6520 0.6540 0.6540 0.6540
15.837157 0.6540 0.6540 0.6540 0.6540 0.6540
15.871000 0.6540 0.6540 0.6540 0.6540 0.6540
15.905157 0.6540 0.6540 0.6540 0.6540 0.6540
15.939000 0.6520 0.6520 0.6520 0.6520 0.6520
15.973157 0.6520 0.6520 0.6520
##END=
