##TITLE=Beta-DIETHYLAMINOETHYL-9-XANTHENE-CARBOXYLATE DI-CYCLOHEXYLSULFAMATE
##JCAMP-DX=4.24
##DATA TYPE=INFRARED SPECTRUM
##CLASS=COBLENTZ
##ORIGIN=ABBOTT LABORATORIES - WASHBURN
##OWNER=COBLENTZ SOCIETY
Collection (C) 2018 copyright by the U.S. Secretary of Commerce
on behalf of the United States of America. All rights reserved.
##DATE=Not specified, most likely prior to 1970
##NAMES=BANTHINE DICYCLAMATE
##MOLFORM=C32 H49 N3 O9 S2
##SOURCE REFERENCE=COBLENTZ NO. 3436
##$NIST ID=B6003436
##$NIST SOURCE=COBLENTZ
##$NIST IMAGE=cob3436
##SPECTROMETER/DATA SYSTEM=PERKIN-ELMER
##STATE=SOLID (NUJOL MULL)
##SAMPLING PROCEDURE=TRANSMISSION
##RESOLUTION=4
##DATA PROCESSING=DIGITIZED BY NIST FROM HARD COPY (FROM TWO SEGMENTS)
##XUNITS=MICROMETERS
##YUNITS=TRANSMITTANCE
##XFACTOR=1.000000
##YFACTOR=1
##DELTAX=0.007076
##FIRSTX=2.061
##LASTX=15.4621
##FIRSTY=0.702
##MAXX=15.4621
##MINX=2.061
##MAXY=0.874
##MINY=0.017
##NPOINTS=1895
##XYDATA=(X++(Y..Y))
2.061000 0.7020 0.7020 0.7030 0.7050 0.7050
2.096378 0.7070 0.7070 0.7090 0.7100 0.7100
2.131755 0.7119 0.7139 0.7159 0.7179 0.7190
2.167133 0.7209 0.7210 0.7229 0.7249 0.7259
2.202511 0.7279 0.7299 0.7300 0.7318 0.7320
2.237888 0.7338 0.7340 0.7340 0.7340 0.7340
2.273266 0.7319 0.7299 0.7279 0.7260 0.7249
2.308644 0.7188 0.7089 0.7050 0.7020 0.6980
2.344022 0.6960 0.6930 0.6930 0.6910 0.6910
2.379399 0.6910 0.6930 0.6950 0.6960 0.6979
2.414777 0.6980 0.6999 0.7019 0.7030 0.7049
2.450155 0.7069 0.7070 0.7089 0.7118 0.7176
2.485532 0.7208 0.7247 0.7278 0.7335 0.7368
2.520910 0.7407 0.7419 0.7420 0.7420 0.7420
2.556288 0.7456 0.7460 0.7460 0.7478 0.7507
2.591665 0.7528 0.7548 0.7568 0.7570 0.7570
2.627043 0.7570 0.7580 0.7600 0.7600 0.7600
2.662421 0.7600 0.7600 0.7620 0.7620 0.7620
2.697799 0.7639 0.7650 0.7689 0.7709 0.7729
2.733176 0.7730 0.7730 0.7739 0.7740 0.7740
2.768554 0.7740 0.7731 0.7730 0.7730 0.7730
2.803932 0.7739 0.7740 0.7740 0.7740 0.7740
2.839309 0.7740 0.7740 0.7731 0.7730 0.7712
2.874687 0.7710 0.7692 0.7655 0.7641 0.7623
2.910065 0.7603 0.7600 0.7600 0.7600 0.7600
2.945442 0.7600 0.7600 0.7600 0.7583 0.7580
2.980820 0.7580 0.7580 0.7572 0.7554 0.7517
3.016198 0.7191 0.6949 0.6740 0.6409 0.6316
3.051575 0.5798 0.5413 0.5026 0.4963 0.4979
3.086953 0.5174 0.5383 0.6069 0.6340 0.6396
3.122331 0.6527 0.6711 0.6856 0.6942 0.7057
3.157709 0.7070 0.7070 0.7070 0.7088 0.7090
3.193086 0.7090 0.7099 0.7100 0.7091 0.7073
3.228464 0.7053 0.7050 0.7033 0.6971 0.6884
3.263842 0.6728 0.6567 0.6374 0.6183 0.5969
3.299219 0.5659 0.5567 0.5479 0.5371 0.4688
3.334597 0.4121 0.3597 0.2822 0.1992 0.1425
3.369975 0.1076 0.0947 0.0868 0.0672 0.0466
3.405352 0.0312 0.0249 0.0232 0.0215 0.0195
3.440730 0.0190 0.0175 0.0170 0.0185 0.0190
3.476108 0.0207 0.0210 0.0210 0.0227 0.0256
3.511486 0.0294 0.0326 0.0636 0.1165 0.1942
3.546863 0.3053 0.3566 0.3863 0.4176 0.4304
3.582241 0.4353 0.4385 0.4423 0.4487 0.4573
3.617619 0.4614 0.4636 0.4656 0.4676 0.4688
3.652996 0.4722 0.4746 0.4758 0.4776 0.4780
3.688374 0.4780 0.4795 0.4815 0.4835 0.4863
3.723752 0.4900 0.4918 0.4920 0.4935 0.4940
3.759129 0.4955 0.4960 0.4975 0.4995 0.5007
3.794507 0.5010 0.5010 0.5024 0.5065 0.5158
3.829885 0.5247 0.5319 0.5380 0.5457 0.5603
3.865262 0.5630 0.5646 0.5691 0.5831 0.5933
3.900640 0.6023 0.6129 0.6206 0.6292 0.6366
3.936018 0.6420 0.6462 0.6478 0.6511 0.6551
3.971396 0.6568 0.6562 0.6560 0.6499 0.6457
4.006773 0.6397 0.6335 0.6267 0.6228 0.6220
4.042151 0.6190 0.6209 0.6271 0.6356 0.6453
4.077529 0.6596 0.6683 0.6657 0.6604 0.6491
4.112906 0.6252 0.6030 0.5970 0.5984 0.6025
4.148284 0.6116 0.6280 0.6429 0.6585 0.6714
4.183662 0.6831 0.6910 0.7056 0.7179 0.7223
4.219039 0.7243 0.7250 0.7250 0.7256 0.7260
4.254417 0.7275 0.7280 0.7295 0.7315 0.7343
4.289795 0.7380 0.7405 0.7433 0.7470 0.7502
4.325173 0.7510 0.7540 0.7602 0.7671 0.7741
4.360550 0.7796 0.7839 0.7850 0.7886 0.7914
4.395928 0.7934 0.7961 0.7984 0.8025 0.8054
4.431306 0.8074 0.8108 0.8127 0.8130 0.8130
4.466683 0.8130 0.8130 0.8143 0.8150 0.8163
4.502061 0.8183 0.8210 0.8233 0.8253 0.8260
4.537439 0.8260 0.8273 0.8280 0.8280 0.8280
4.572816 0.8286 0.8302 0.8310 0.8310 0.8298
4.608194 0.8290 0.8290 0.8305 0.8310 0.8325
4.643572 0.8345 0.8372 0.8394 0.8400 0.8400
4.678949 0.8400 0.8414 0.8420 0.8420 0.8427
4.714327 0.8423 0.8427 0.8430 0.8430 0.8430
4.749705 0.8444 0.8450 0.8463 0.8483 0.8490
4.785083 0.8490 0.8490 0.8503 0.8510 0.8510
4.820460 0.8510 0.8510 0.8510 0.8510 0.8510
4.855838 0.8510 0.8510 0.8510 0.8498 0.8490
4.891216 0.8478 0.8470 0.8470 0.8470 0.8470
4.926593 0.8470 0.8470 0.8470 0.8482 0.8507
4.961971 0.8520 0.8531 0.8540 0.8551 0.8560
4.997349 0.8560 0.8548 0.8528 0.8520 0.8520
5.032726 0.8520 0.8520 0.8520 0.8520 0.8520
5.068104 0.8514 0.8510 0.8510 0.8510 0.8498
5.103482 0.8490 0.8490 0.8490 0.8490 0.8490
5.138860 0.8490 0.8490 0.8490 0.8507 0.8520
5.174237 0.8520 0.8520 0.8520 0.8531 0.8551
5.209615 0.8560 0.8560 0.8560 0.8560 0.8560
5.244993 0.8547 0.8553 0.8560 0.8560 0.8560
5.280370 0.8560 0.8560 0.8573 0.8599 0.8610
5.315748 0.8610 0.8622 0.8642 0.8669 0.8680
5.351126 0.8680 0.8692 0.8712 0.8720 0.8720
5.386503 0.8720 0.8720 0.8720 0.8720 0.8732
5.421881 0.8729 0.8720 0.8709 0.8700 0.8700
5.457259 0.8700 0.8700 0.8700 0.8700 0.8700
5.492636 0.8725 0.8740 0.8713 0.8687 0.8673
5.528014 0.8677 0.8680 0.8673 0.8657 0.8637
5.563392 0.8617 0.8610 0.8610 0.8610 0.8597
5.598770 0.8571 0.8547 0.8527 0.8514 0.8510
5.634147 0.8498 0.8454 0.8388 0.8312 0.8203
5.669525 0.8085 0.7939 0.7722 0.7170 0.6399
5.704903 0.5632 0.4733 0.4150 0.3889 0.3322
5.740280 0.2802 0.2670 0.2743 0.3391 0.4494
5.775658 0.5276 0.5975 0.6454 0.6733 0.7060
5.811036 0.7213 0.7290 0.7386 0.7473 0.7613
5.846413 0.7728 0.7785 0.7800 0.7800 0.7806
5.881791 0.7848 0.7902 0.7989 0.8087 0.8126
5.917169 0.8154 0.8170 0.8170 0.8188 0.8200
5.952546 0.8236 0.8272 0.8280 0.8286 0.8290
5.987924 0.8302 0.8310 0.8310 0.8310 0.8310
6.023302 0.8310 0.8310 0.8310 0.8310 0.8310
6.058680 0.8310 0.8310 0.8297 0.8290 0.8290
6.094057 0.8290 0.8290 0.8283 0.8267 0.8247
6.129435 0.8208 0.8177 0.8138 0.8107 0.8100
6.164813 0.8113 0.8120 0.8120 0.8126 0.8124
6.200190 0.8071 0.7950 0.7607 0.7414 0.7416
6.235568 0.7540 0.7692 0.7776 0.7830 0.7850
6.270946 0.7850 0.7680 0.7431 0.7306 0.7201
6.306323 0.7050 0.6387 0.5733 0.5557 0.5540
6.341701 0.5667 0.6098 0.6364 0.6612 0.7080
6.377079 0.7361 0.7470 0.7520 0.7543 0.7570
6.412457 0.7710 0.7850 0.7935 0.8005 0.8049
6.447834 0.8073 0.8105 0.8120 0.8126 0.8130
6.483212 0.8130 0.8130 0.8130 0.8130 0.8124
6.518590 0.8108 0.8058 0.8030 0.8006 0.7990
6.553967 0.7990 0.7990 0.7990 0.7990 0.7990
6.589345 0.7979 0.7953 0.7929 0.7903 0.7845
6.624723 0.7759 0.7642 0.7289 0.7079 0.6982
6.660100 0.6849 0.6530 0.5928 0.5545 0.5309
6.695478 0.4681 0.4107 0.3667 0.2958 0.2099
6.730856 0.1688 0.2129 0.2429 0.2625 0.2864
6.766233 0.3027 0.3080 0.2928 0.2435 0.1780
6.801611 0.1465 0.1357 0.1298 0.1205 0.1114
6.836989 0.1031 0.0927 0.0869 0.0860 0.0854
6.872367 0.0839 0.0790 0.0726 0.0700 0.0734
6.907744 0.1112 0.1439 0.1636 0.1843 0.2100
6.943122 0.2638 0.3006 0.3202 0.3375 0.3552
6.978500 0.3748 0.4124 0.4413 0.4583 0.4756
7.013877 0.4833 0.4872 0.4922 0.4953 0.4973
7.049255 0.4992 0.4976 0.4948 0.4928 0.4914
7.084633 0.4910 0.4916 0.4932 0.4964 0.5010
7.120010 0.5059 0.5115 0.5180 0.5250 0.5309
7.155388 0.5353 0.5370 0.5381 0.5419 0.5589
7.190766 0.5739 0.5760 0.5685 0.5418 0.5071
7.226144 0.4613 0.4287 0.4047 0.3712 0.3366
7.261521 0.3141 0.3080 0.3158 0.3284 0.3408
7.296899 0.3495 0.3933 0.4231 0.4347 0.4403
7.332277 0.4510 0.4644 0.4758 0.4874 0.4932
7.367654 0.4940 0.4940 0.4952 0.4960 0.4960
7.403032 0.4972 0.4997 0.5062 0.5193 0.5283
7.438410 0.5352 0.5436 0.5510 0.5540 0.5534
7.473787 0.5517 0.5496 0.5421 0.5205 0.4976
7.509165 0.4753 0.4577 0.4523 0.4540 0.4639
7.544543 0.4786 0.4873 0.4890 0.4877 0.4525
7.579920 0.4158 0.3930 0.3737 0.3404 0.2962
7.615298 0.2618 0.2504 0.2475 0.2429 0.2299
7.650676 0.2119 0.1995 0.1862 0.1794 0.1790
7.686054 0.1790 0.1790 0.1790 0.1796 0.1812
7.721431 0.1843 0.1860 0.1860 0.1848 0.1632
7.756809 0.1369 0.1282 0.1256 0.1250 0.1291
7.792187 0.1530 0.1630 0.1582 0.1361 0.1188
7.827564 0.1150 0.1275 0.1517 0.1702 0.1841
7.862942 0.1981 0.2278 0.2410 0.2410 0.2306
7.898320 0.2168 0.1990 0.1743 0.1553 0.1426
7.933697 0.1312 0.1258 0.1250 0.1250 0.1262
7.969075 0.1461 0.1778 0.2086 0.2368 0.2801
8.004453 0.3193 0.3380 0.3465 0.3531 0.3577
8.039831 0.3616 0.3803 0.4053 0.4199 0.4320
8.075208 0.4519 0.4818 0.5058 0.5216 0.5308
8.110586 0.5377 0.5440 0.5480 0.5490 0.5431
8.145964 0.5203 0.4890 0.4597 0.4232 0.3940
8.181341 0.3714 0.3505 0.3411 0.3083 0.2554
8.216719 0.2052 0.1709 0.1424 0.1199 0.1087
8.252097 0.1048 0.1052 0.1113 0.1273 0.1477
8.287474 0.1671 0.1855 0.2041 0.2214 0.2356
8.322852 0.2568 0.2838 0.3017 0.3157 0.3214
8.358230 0.3262 0.3287 0.3304 0.3324 0.3344
8.393607 0.3350 0.3350 0.3350 0.3357 0.3373
8.428985 0.3413 0.3529 0.3646 0.3693 0.3759
8.464363 0.3847 0.3936 0.3989 0.3956 0.3874
8.499741 0.3765 0.3520 0.3157 0.2898 0.2612
8.535118 0.2263 0.1889 0.1618 0.1404 0.1245
8.570496 0.1129 0.0992 0.0912 0.0900 0.0912
8.605874 0.0940 0.1027 0.1095 0.1138 0.1164
8.641251 0.1170 0.1170 0.1142 0.1116 0.1089
8.676629 0.1080 0.1087 0.1117 0.1203 0.1306
8.712007 0.1492 0.1689 0.1928 0.2172 0.2540
8.747384 0.2818 0.2966 0.3067 0.3201 0.3417
8.782762 0.3661 0.3994 0.4178 0.4263 0.4400
8.818140 0.4545 0.4695 0.4855 0.5015 0.5240
8.853518 0.5403 0.5576 0.5700 0.5815 0.5910
8.888895 0.5930 0.5930 0.5924 0.5819 0.5611
8.924273 0.5449 0.5333 0.5280 0.5291 0.5517
8.959651 0.5753 0.5910 0.6090 0.6217 0.6290
8.995028 0.6317 0.6320 0.6320 0.6320 0.6333
9.030406 0.6353 0.6360 0.6347 0.6340 0.6340
9.065784 0.6340 0.6340 0.6327 0.6276 0.6206
9.101161 0.6150 0.6118 0.6110 0.6122 0.6184
9.136539 0.6280 0.6415 0.6533 0.6623 0.6702
9.171917 0.6742 0.6778 0.6800 0.6783 0.6731
9.207294 0.6627 0.6480 0.6320 0.6065 0.5808
9.242672 0.5676 0.5590 0.5547 0.5533 0.5537
9.278050 0.5600 0.5670 0.5697 0.5753 0.6073
9.313428 0.6285 0.6320 0.6244 0.6067 0.5920
9.348805 0.5779 0.5644 0.5562 0.5521 0.5485
9.384183 0.5421 0.5342 0.5310 0.5358 0.5588
9.419561 0.5828 0.6026 0.6176 0.6304 0.6372
9.454938 0.6409 0.6481 0.6548 0.6621 0.6733
9.490316 0.6790 0.6790 0.6790 0.6790 0.6790
9.525694 0.6777 0.6757 0.6703 0.6646 0.6496
9.561071 0.6202 0.5721 0.5091 0.4422 0.3899
9.596449 0.3451 0.3130 0.2989 0.2947 0.2927
9.631827 0.2920 0.2945 0.2922 0.2754 0.2581
9.667205 0.2512 0.2476 0.2255 0.1993 0.1826
9.702582 0.1758 0.1762 0.1830 0.1924 0.2110
9.737960 0.2501 0.2989 0.3342 0.3575 0.3727
9.773338 0.4082 0.4422 0.4602 0.4838 0.4988
9.808715 0.5048 0.5117 0.5147 0.5177 0.5224
9.844093 0.5253 0.5260 0.5260 0.5287 0.5334
9.879471 0.5376 0.5422 0.5472 0.5516 0.5536
9.914848 0.5591 0.5639 0.5682 0.5840 0.5977
9.950226 0.6041 0.6115 0.6180 0.6267 0.6383
9.985604 0.6497 0.6570 0.6590 0.6590 0.6590
10.020981 0.6590 0.6590 0.6590 0.6573 0.6469
10.056359 0.6286 0.6137 0.6073 0.6032 0.5987
10.091737 0.5970 0.5997 0.6044 0.6155 0.6261
10.127115 0.6337 0.6421 0.6572 0.6677 0.6747
10.162492 0.6803 0.6865 0.6929 0.7014 0.7063
10.197870 0.7083 0.7090 0.7096 0.7100 0.7126
10.233248 0.7165 0.7186 0.7190 0.7190 0.7190
10.268625 0.7190 0.7190 0.7172 0.7136 0.7120
10.304003 0.7102 0.7055 0.6990 0.6943 0.6838
10.339381 0.6707 0.6631 0.6581 0.6537 0.6520
10.374758 0.6507 0.6486 0.6473 0.6470 0.6456
10.410136 0.6450 0.6450 0.6464 0.6504 0.6581
10.445514 0.6630 0.6685 0.6762 0.6796 0.6845
10.480892 0.6909 0.6962 0.7012 0.7043 0.7063
10.516269 0.7070 0.7070 0.7070 0.7058 0.7038
10.551647 0.7030 0.7030 0.7030 0.7030 0.7054
10.587025 0.7100 0.7120 0.7143 0.7160 0.7172
10.622402 0.7180 0.7186 0.7213 0.7241 0.7279
10.657780 0.7326 0.7374 0.7390 0.7390 0.7390
10.693158 0.7376 0.7370 0.7370 0.7370 0.7370
10.728535 0.7370 0.7370 0.7370 0.7370 0.7357
10.763913 0.7350 0.7344 0.7340 0.7327 0.7320
10.799291 0.7320 0.7320 0.7320 0.7320 0.7320
10.834668 0.7320 0.7320 0.7320 0.7320 0.7320
10.870046 0.7308 0.7288 0.7268 0.7231 0.7193
10.905424 0.7168 0.7148 0.7117 0.7083 0.7030
10.940802 0.6955 0.6889 0.6815 0.6735 0.6655
10.976179 0.6616 0.6610 0.6610 0.6624 0.6630
11.011557 0.6663 0.6739 0.6790 0.6872 0.7027
11.046935 0.7110 0.7166 0.7229 0.7282 0.7313
11.082312 0.7320 0.7332 0.7340 0.7340 0.7340
11.117690 0.7340 0.7346 0.7350 0.7344 0.7340
11.153068 0.7340 0.7340 0.7340 0.7340 0.7346
11.188445 0.7350 0.7350 0.7344 0.7340 0.7340
11.223823 0.7347 0.7364 0.7398 0.7445 0.7474
11.259201 0.7528 0.7571 0.7608 0.7641 0.7677
11.294579 0.7703 0.7710 0.7723 0.7737 0.7733
11.329956 0.7730 0.7730 0.7730 0.7730 0.7717
11.365334 0.7710 0.7666 0.7603 0.7481 0.7333
11.400712 0.7249 0.7162 0.7064 0.6968 0.6862
11.436089 0.6790 0.6735 0.6669 0.6570 0.6491
11.471467 0.6458 0.6427 0.6404 0.6400 0.6377
11.506845 0.6334 0.6299 0.6262 0.6243 0.6198
11.542222 0.6173 0.6170 0.6170 0.6170 0.6177
11.577600 0.6207 0.6286 0.6379 0.6515 0.6616
11.612978 0.6725 0.6790 0.6813 0.6879 0.6923
11.648355 0.6930 0.6949 0.7029 0.7101 0.7145
11.683733 0.7172 0.7186 0.7190 0.7202 0.7210
11.719111 0.7234 0.7256 0.7284 0.7324 0.7346
11.754489 0.7350 0.7344 0.7340 0.7317 0.7300
11.789866 0.7287 0.7280 0.7280 0.7280 0.7280
11.825244 0.7308 0.7341 0.7392 0.7431 0.7488
11.860622 0.7550 0.7590 0.7613 0.7640 0.7676
11.895999 0.7690 0.7690 0.7703 0.7723 0.7737
11.931377 0.7740 0.7753 0.7760 0.7760 0.7773
11.966755 0.7793 0.7806 0.7810 0.7804 0.7800
12.002132 0.7788 0.7768 0.7748 0.7740 0.7734
12.037510 0.7718 0.7710 0.7722 0.7730 0.7730
12.072888 0.7717 0.7710 0.7724 0.7730 0.7730
12.108265 0.7751 0.7774 0.7801 0.7838 0.7864
12.143643 0.7870 0.7870 0.7883 0.7890 0.7890
12.179021 0.7890 0.7897 0.7913 0.7920 0.7920
12.214399 0.7920 0.7920 0.7920 0.7907 0.7894
12.249776 0.7877 0.7857 0.7837 0.7811 0.7762
12.285154 0.7679 0.7586 0.7508 0.7444 0.7402
12.320532 0.7360 0.7316 0.7288 0.7268 0.7254
12.355909 0.7250 0.7236 0.7230 0.7230 0.7230
12.391287 0.7230 0.7244 0.7250 0.7257 0.7288
12.426665 0.7314 0.7340 0.7363 0.7383 0.7403
12.462042 0.7430 0.7453 0.7473 0.7493 0.7507
12.497420 0.7510 0.7523 0.7543 0.7563 0.7570
12.532798 0.7576 0.7580 0.7580 0.7580 0.7580
12.568176 0.7580 0.7580 0.7574 0.7558 0.7538
12.603553 0.7512 0.7464 0.7428 0.7414 0.7356
12.638931 0.7280 0.7210 0.7135 0.7094 0.7079
12.674309 0.7059 0.7050 0.7050 0.7050 0.7050
12.709686 0.7050 0.7063 0.7083 0.7110 0.7160
12.745064 0.7187 0.7217 0.7230 0.7243 0.7250
12.780442 0.7256 0.7254 0.7250 0.7250 0.7250
12.815819 0.7250 0.7256 0.7254 0.7250 0.7237
12.851197 0.7199 0.7168 0.7124 0.7094 0.7066
12.886575 0.7032 0.6984 0.6930 0.6898 0.6830
12.921952 0.6738 0.6626 0.6428 0.6172 0.5969
12.957330 0.5809 0.5638 0.5509 0.5414 0.5218
12.992708 0.4967 0.4843 0.4806 0.4800 0.4827
13.028086 0.4907 0.5000 0.5111 0.5210 0.5314
13.063463 0.5422 0.5582 0.5733 0.5857 0.5977
13.098841 0.6077 0.6167 0.6213 0.6233 0.6240
13.134219 0.6228 0.6190 0.6073 0.5901 0.5691
13.169596 0.5479 0.5285 0.4933 0.4521 0.4244
13.204974 0.4107 0.4013 0.3947 0.3919 0.3921
13.240352 0.4192 0.4532 0.4759 0.4912 0.5011
13.275729 0.5063 0.5090 0.5114 0.5086 0.4853
13.311107 0.4628 0.4388 0.4125 0.3966 0.3849
13.346485 0.3764 0.3740 0.3759 0.3828 0.4200
13.381863 0.4595 0.4896 0.5134 0.5357 0.5632
13.417240 0.5765 0.5798 0.5822 0.5848 0.5872
13.452618 0.5880 0.5868 0.5860 0.5830 0.5737
13.487996 0.5625 0.5557 0.5511 0.5473 0.5449
13.523373 0.5440 0.5429 0.5420 0.5449 0.5561
13.558751 0.5656 0.5752 0.5851 0.5928 0.5998
13.594129 0.6061 0.6100 0.6110 0.6151 0.6177
13.629506 0.6193 0.6258 0.6303 0.6310 0.6316
13.664884 0.6320 0.6320 0.6320 0.6320 0.6333
13.700262 0.6352 0.6360 0.6360 0.6360 0.6360
13.735639 0.6360 0.6360 0.6360 0.6360 0.6360
13.771017 0.6360 0.6360 0.6360 0.6348 0.6328
13.806395 0.6320 0.6320 0.6314 0.6310 0.6310
13.841773 0.6297 0.6290 0.6276 0.6250 0.6226
13.877150 0.6220 0.6220 0.6220 0.6220 0.6220
13.912528 0.6220 0.6220 0.6207 0.6200 0.6200
13.947906 0.6213 0.6220 0.6220 0.6233 0.6240
13.983283 0.6240 0.6246 0.6250 0.6244 0.6240
14.018661 0.6240 0.6240 0.6240 0.6240 0.6240
14.054039 0.6228 0.6220 0.6220 0.6220 0.6220
14.089416 0.6220 0.6208 0.6200 0.6188 0.6180
14.124794 0.6161 0.6122 0.6089 0.6066 0.6046
14.160172 0.6026 0.5999 0.5963 0.5936 0.5896
14.195550 0.5834 0.5777 0.5747 0.5707 0.5651
14.230927 0.5623 0.5568 0.5521 0.5497 0.5477
14.266305 0.5426 0.5381 0.5327 0.5263 0.5178
14.301683 0.5072 0.4956 0.4855 0.4783 0.4662
14.337060 0.4558 0.4437 0.4271 0.4165 0.4059
14.372438 0.3983 0.3947 0.3878 0.3788 0.3669
14.407816 0.3551 0.3423 0.3345 0.3330 0.3316
14.443193 0.3310 0.3310 0.3296 0.3290 0.3290
14.478571 0.3303 0.3310 0.3336 0.3370 0.3406
14.513949 0.3453 0.3516 0.3553 0.3606 0.3663
14.549326 0.3724 0.3831 0.3911 0.3961 0.4079
14.584704 0.4196 0.4267 0.4352 0.4427 0.4468
14.620082 0.4510 0.4571 0.4623 0.4663 0.4698
14.655460 0.4739 0.4772 0.4815 0.4869 0.4907
14.690837 0.4959 0.5001 0.5024 0.5044 0.5085
14.726215 0.5128 0.5147 0.5178 0.5204 0.5231
14.761593 0.5287 0.5323 0.5356 0.5383 0.5397
14.796970 0.5426 0.5460 0.5483 0.5490 0.5516
14.832348 0.5536 0.5553 0.5572 0.5592 0.5600
14.867726 0.5612 0.5620 0.5626 0.5642 0.5650
14.903103 0.5662 0.5682 0.5690 0.5696 0.5735
14.938481 0.5760 0.5772 0.5786 0.5802 0.5810
14.973859 0.5810 0.5824 0.5830 0.5802 0.5769
15.009237 0.5746 0.5726 0.5685 0.5656 0.5650
15.044614 0.5637 0.5630 0.5630 0.5630 0.5630
15.079992 0.5630 0.5630 0.5630 0.5630 0.5630
15.115370 0.5630 0.5624 0.5620 0.5620 0.5620
15.150747 0.5607 0.5588 0.5568 0.5548 0.5534
15.186125 0.5518 0.5498 0.5460 0.5416 0.5370
15.221503 0.5338 0.5300 0.5256 0.5169 0.5055
15.256880 0.4950 0.4864 0.4763 0.4702 0.4627
15.292258 0.4516 0.4459 0.4387 0.4332 0.4299
15.327636 0.4290 0.4277 0.4270 0.4283 0.4297
15.363013 0.4327 0.4360 0.4396 0.4456 0.4513
15.398391 0.4588 0.4664 0.4715 0.4761 0.4805
15.433769 0.4839 0.4894 0.4933 0.4884 0.4894
##END=
