##TITLE=2-PROPANE SULFONIC ACID, SODIUM SALT
$$ E.K. (W.L.)
##JCAMP-DX=4.24
##DATA TYPE=INFRARED SPECTRUM
##CLASS=COBLENTZ
##ORIGIN=WYANDOTTE CHEMICALS CORP., WYANDOTTE, MICHIGAN, USA
##OWNER=COBLENTZ SOCIETY
Collection (C) 2018 copyright by the U.S. Secretary of Commerce
on behalf of the United States of America. All rights reserved.
##DATE=Not specified, most likely prior to 1970
##MOLFORM=C3 H7 O3 S Na
##SOURCE REFERENCE=COBLENTZ NO. 1352
##$NIST ID=B6001352
##$NIST SOURCE=COBLENTZ
##$NIST IMAGE=cob1352
##SPECTROMETER/DATA SYSTEM=Not specified, most likely a prism, grating, or hybrid spectrometer.
##STATE=SOLID (MINERAL OIL MULL)
##SAMPLING PROCEDURE=TRANSMISSION
##RESOLUTION=4
##DATA PROCESSING=DIGITIZED BY NIST FROM HARD COPY
##XUNITS=MICROMETERS
##YUNITS=TRANSMITTANCE
##XFACTOR=1.000000
##YFACTOR=1
##DELTAX=000.006803
##FIRSTX=2.041
##LASTX=15.9996
##FIRSTY=0.81
##MAXX=15.9996
##MINX=2.041
##MAXY=0.943
##MINY=0.022
##NPOINTS=2053
##XYDATA=(X++(Y..Y))
2.041000 0.8100 0.8140 0.8190 0.8190 0.8210
2.075030 0.8220 0.8240 0.8260 0.8270 0.8290
2.109000 0.8310 0.8310 0.8310 0.8310 0.8330
2.143030 0.8340 0.8360 0.8360 0.8360 0.8360
2.177000 0.8360 0.8360 0.8360 0.8340 0.8310
2.211030 0.8270 0.8270 0.8240 0.8240 0.8220
2.245000 0.8220 0.8190 0.8170 0.8170 0.8160
2.279030 0.8160 0.8160 0.8120 0.8120 0.8120
2.313000 0.8120 0.8120 0.8120 0.8120 0.8100
2.347030 0.8090 0.8090 0.8090 0.8070 0.8070
2.381000 0.8070 0.8040 0.8040 0.8020 0.8020
2.415030 0.8040 0.8020 0.8020 0.8000 0.8000
2.449000 0.8000 0.7970 0.7930 0.7920 0.7900
2.483030 0.7900 0.7900 0.7900 0.7920 0.7920
2.517000 0.7920 0.7920 0.7920 0.7920 0.7920
2.551030 0.7920 0.7920 0.7920 0.7920 0.7900
2.585000 0.7880 0.7880 0.7850 0.7780 0.7760
2.619030 0.7750 0.7730 0.7710 0.7680 0.7610
2.653000 0.7490 0.7350 0.7170 0.6960 0.6720
2.687030 0.6590 0.6430 0.6090 0.5700 0.5260
2.721000 0.4820 0.4440 0.4030 0.3790 0.3500
2.755030 0.3370 0.3230 0.2980 0.2740 0.2530
2.789000 0.2350 0.2160 0.2020 0.1890 0.1770
2.823030 0.1720 0.1660 0.1650 0.1660 0.1770
2.857000 0.1900 0.2090 0.2330 0.2570 0.2840
2.891030 0.3100 0.3570 0.3740 0.3960 0.4190
2.925000 0.4370 0.4580 0.4770 0.4940 0.5110
2.959030 0.5280 0.5450 0.5620 0.5770 0.5940
2.993000 0.6110 0.6280 0.6450 0.6600 0.6890
3.027030 0.7010 0.7130 0.7250 0.7350 0.7460
3.061000 0.7520 0.7590 0.7640 0.7700 0.7710
3.095030 0.7760 0.7760 0.7760 0.7750 0.7710
3.129000 0.7700 0.7680 0.7700 0.7710 0.7750
3.163030 0.7780 0.7810 0.7830 0.7850 0.7880
3.197000 0.7930 0.8020 0.8040 0.8090 0.8100
3.231030 0.8120 0.8140 0.8170 0.8170 0.8160
3.265000 0.8120 0.8050 0.7970 0.7870 0.7710
3.299030 0.7490 0.7120 0.6790 0.6470 0.5840
3.333000 0.4220 0.3740 0.3250 0.2570 0.2120
3.367030 0.1820 0.1630 0.1460 0.1320 0.1170
3.401000 0.1030 0.0930 0.0830 0.0800 0.0710
3.435030 0.0640 0.0610 0.0590 0.0570 0.0540
3.469000 0.0540 0.0540 0.0540 0.0520 0.0520
3.503030 0.0520 0.0520 0.0520 0.0560 0.0850
3.537000 0.1150 0.1490 0.1900 0.2360 0.2700
3.571030 0.3160 0.3960 0.4290 0.4650 0.4970
3.605000 0.5290 0.5550 0.5790 0.6010 0.6180
3.639030 0.6370 0.6500 0.6660 0.6890 0.6960
3.673000 0.7030 0.7060 0.7100 0.7150 0.7200
3.707030 0.7270 0.7350 0.7410 0.7460 0.7520
3.741000 0.7560 0.7590 0.7630 0.7680 0.7710
3.775030 0.7730 0.7750 0.7800 0.7850 0.7880
3.810000 0.7930 0.7970 0.8000 0.8000 0.8050
3.844030 0.8140 0.8170 0.8190 0.8220 0.8240
3.878000 0.8260 0.8270 0.8290 0.8330 0.8380
3.912030 0.8410 0.8430 0.8440 0.8480 0.8550
3.946000 0.8600 0.8620 0.8630 0.8630 0.8680
3.980030 0.8700 0.8730 0.8750 0.8770 0.8800
4.014000 0.8800 0.8820 0.8820 0.8840 0.8890
4.048030 0.8900 0.8920 0.8920 0.8920 0.8940
4.082000 0.8970 0.8990 0.9010 0.9010 0.9010
4.116030 0.9010 0.9010 0.9010 0.9010 0.9010
4.150000 0.9010 0.9010 0.9010 0.9010 0.9010
4.184030 0.9010 0.9010 0.9010 0.9010 0.8990
4.218000 0.8990 0.8990 0.8970 0.8960 0.8940
4.252030 0.8920 0.8920 0.8890 0.8800 0.8790
4.286000 0.8790 0.8790 0.8790 0.8800 0.8820
4.320030 0.8850 0.8890 0.8900 0.8920 0.8940
4.354000 0.8960 0.8960 0.8970 0.8970 0.8990
4.388030 0.9010 0.9020 0.9040 0.9060 0.9110
4.422000 0.9130 0.9130 0.9140 0.9180 0.9180
4.456030 0.9180 0.9180 0.9160 0.9130 0.9130
4.490000 0.9090 0.9010 0.8970 0.8920 0.8900
4.524030 0.8870 0.8870 0.8820 0.8820 0.8840
4.558000 0.8850 0.8870 0.8890 0.8900 0.8900
4.592030 0.8900 0.8890 0.8850 0.8850 0.8840
4.626000 0.8820 0.8820 0.8800 0.8800 0.8800
4.660030 0.8820 0.8850 0.8900 0.8940 0.8990
4.694000 0.9020 0.9060 0.9130 0.9160 0.9210
4.728030 0.9260 0.9300 0.9330 0.9350 0.9360
4.762000 0.9400 0.9420 0.9430 0.9430 0.9430
4.796030 0.9430 0.9430 0.9430 0.9430 0.9420
4.830000 0.9420 0.9400 0.9400 0.9380 0.9380
4.864030 0.9360 0.9360 0.9360 0.9360 0.9360
4.898000 0.9360 0.9350 0.9350 0.9350 0.9350
4.932030 0.9330 0.9350 0.9350 0.9350 0.9330
4.966000 0.9330 0.9330 0.9310 0.9300 0.9300
5.000030 0.9280 0.9260 0.9260 0.9260 0.9250
5.034000 0.9250 0.9230 0.9210 0.9190 0.9190
5.068030 0.9180 0.9160 0.9140 0.9130 0.9110
5.102000 0.9110 0.9080 0.9020 0.9010 0.8990
5.136030 0.8990 0.9010 0.9010 0.9010 0.9020
5.170000 0.9020 0.9010 0.9010 0.9010 0.9020
5.204030 0.9020 0.9020 0.9020 0.9020 0.9020
5.238000 0.9060 0.9060 0.9080 0.9080 0.9090
5.272030 0.9110 0.9130 0.9140 0.9190 0.9190
5.306000 0.9230 0.9260 0.9280 0.9300 0.9300
5.340030 0.9300 0.9310 0.9310 0.9330 0.9330
5.374000 0.9330 0.9350 0.9350 0.9350 0.9350
5.408030 0.9330 0.9330 0.9330 0.9330 0.9330
5.442000 0.9300 0.9300 0.9300 0.9280 0.9260
5.476030 0.9250 0.9250 0.9230 0.9230 0.9210
5.510000 0.9210 0.9210 0.9230 0.9250 0.9250
5.544030 0.9280 0.9310 0.9310 0.9310 0.9300
5.578000 0.9260 0.9230 0.9230 0.9210 0.9210
5.612030 0.9190 0.9180 0.9180 0.9160 0.9140
5.646000 0.9110 0.9090 0.9080 0.9040 0.9020
5.680030 0.9010 0.8970 0.8920 0.8900 0.8890
5.714000 0.8800 0.8700 0.8650 0.8600 0.8510
5.748030 0.8480 0.8440 0.8380 0.8330 0.8310
5.782000 0.8270 0.8190 0.8120 0.8050 0.7980
5.816030 0.7920 0.7900 0.7900 0.7830 0.7760
5.850000 0.7640 0.7560 0.7490 0.7420 0.7390
5.884030 0.7340 0.7300 0.7220 0.7060 0.6980
5.918000 0.6890 0.6840 0.6780 0.6670 0.6640
5.952030 0.6590 0.6490 0.6380 0.6260 0.6130
5.986000 0.6010 0.5860 0.5720 0.5550 0.5380
6.020030 0.5210 0.5020 0.4820 0.4650 0.4460
6.054000 0.4200 0.3810 0.3570 0.3320 0.2860
6.088030 0.2520 0.2110 0.1770 0.1480 0.1240
6.122000 0.1050 0.0910 0.0810 0.0760 0.0740
6.156030 0.0780 0.0860 0.1030 0.1240 0.1530
6.190000 0.1890 0.2360 0.2700 0.3030 0.3300
6.224030 0.4410 0.4780 0.5070 0.5410 0.5700
6.259000 0.5920 0.6130 0.6320 0.6490 0.6640
6.293030 0.6950 0.7050 0.7150 0.7220 0.7240
6.327000 0.7300 0.7340 0.7340 0.7390 0.7440
6.361030 0.7490 0.7490 0.7510 0.7520 0.7560
6.395000 0.7610 0.7660 0.7730 0.7750 0.7800
6.429030 0.7800 0.7810 0.7810 0.7850 0.7870
6.463000 0.7880 0.7900 0.7920 0.7920 0.7920
6.497030 0.7920 0.7920 0.7900 0.7900 0.7900
6.531000 0.7880 0.7880 0.7880 0.7880 0.7870
6.565030 0.7850 0.7830 0.7800 0.7760 0.7750
6.599000 0.7700 0.7660 0.7630 0.7630 0.7610
6.633030 0.7590 0.7540 0.7520 0.7490 0.7460
6.667000 0.7350 0.7250 0.7180 0.7080 0.6950
6.701030 0.6790 0.6690 0.6570 0.6300 0.5990
6.735000 0.5600 0.5140 0.4770 0.4390 0.3760
6.769030 0.3330 0.2910 0.2240 0.1770 0.1360
6.803000 0.1030 0.0830 0.0810 0.0830 0.0900
6.837030 0.0930 0.0980 0.1020 0.1090 0.1150
6.871000 0.1200 0.1310 0.1410 0.1490 0.1650
6.905030 0.1770 0.2010 0.2210 0.2450 0.2700
6.939000 0.2980 0.3280 0.3880 0.4170 0.4460
6.973030 0.4730 0.4950 0.5160 0.5330 0.5430
7.007000 0.5480 0.5620 0.5700 0.5770 0.5800
7.041030 0.5840 0.5910 0.5970 0.5990 0.6010
7.075000 0.6030 0.6060 0.6090 0.6090 0.6090
7.109030 0.6110 0.6090 0.6010 0.5960 0.5860
7.143000 0.5750 0.5620 0.5460 0.5120 0.4800
7.177030 0.4530 0.4310 0.4120 0.3980 0.3880
7.211000 0.3830 0.3810 0.3790 0.3670 0.3420
7.245030 0.3270 0.3100 0.2870 0.2670 0.2570
7.279000 0.2470 0.2330 0.2310 0.2330 0.2410
7.313030 0.2550 0.2750 0.2990 0.3250 0.3760
7.347000 0.3980 0.4170 0.4310 0.4440 0.4510
7.381030 0.4560 0.4580 0.4590 0.4610 0.4610
7.415000 0.4610 0.4590 0.4580 0.4560 0.4540
7.449030 0.4530 0.4510 0.4480 0.4440 0.4410
7.483000 0.4390 0.4360 0.4320 0.4290 0.4290
7.517030 0.4250 0.4170 0.4050 0.4020 0.4000
7.551000 0.3980 0.3960 0.3910 0.3900 0.3880
7.585030 0.3830 0.3760 0.3690 0.3640 0.3560
7.619000 0.3500 0.3420 0.3330 0.3300 0.3250
7.653030 0.3160 0.3080 0.2990 0.2910 0.2820
7.687000 0.2740 0.2640 0.2530 0.2410 0.2310
7.721030 0.2180 0.2040 0.1890 0.1730 0.1550
7.755000 0.1410 0.1310 0.1220 0.1170 0.1140
7.789030 0.1070 0.1030 0.1030 0.1070 0.1200
7.823000 0.1340 0.1460 0.1580 0.1680 0.1800
7.857030 0.1890 0.1990 0.2040 0.2090 0.2090
7.891000 0.2020 0.2010 0.1970 0.1920 0.1870
7.925030 0.1820 0.1800 0.1780 0.1720 0.1650
7.959000 0.1550 0.1440 0.1310 0.1270 0.1220
7.993030 0.1140 0.1070 0.1000 0.0950 0.0910
8.027000 0.0880 0.0810 0.0730 0.0680 0.0640
8.061030 0.0630 0.0610 0.0590 0.0570 0.0540
8.095000 0.0520 0.0510 0.0510 0.0490 0.0450
8.129030 0.0440 0.0420 0.0390 0.0390 0.0370
8.163000 0.0350 0.0340 0.0340 0.0320 0.0320
8.197030 0.0320 0.0300 0.0270 0.0270 0.0250
8.231000 0.0250 0.0230 0.0230 0.0220 0.0220
8.265030 0.0220 0.0230 0.0230 0.0230 0.0230
8.299000 0.0250 0.0270 0.0270 0.0270 0.0270
8.333030 0.0250 0.0250 0.0250 0.0230 0.0230
8.367000 0.0220 0.0220 0.0230 0.0230 0.0230
8.401030 0.0250 0.0250 0.0250 0.0250 0.0250
8.435000 0.0270 0.0270 0.0270 0.0270 0.0270
8.469030 0.0280 0.0280 0.0280 0.0280 0.0280
8.503000 0.0280 0.0280 0.0280 0.0280 0.0280
8.537030 0.0280 0.0280 0.0270 0.0270 0.0250
8.571000 0.0250 0.0230 0.0220 0.0220 0.0220
8.605030 0.0220 0.0220 0.0230 0.0230 0.0250
8.639000 0.0230 0.0230 0.0250 0.0250 0.0250
8.673030 0.0250 0.0250 0.0250 0.0250 0.0250
8.707000 0.0250 0.0250 0.0250 0.0230 0.0220
8.741030 0.0220 0.0220 0.0220 0.0220 0.0220
8.776000 0.0220 0.0220 0.0220 0.0220 0.0220
8.810030 0.0220 0.0220 0.0220 0.0220 0.0220
8.844000 0.0220 0.0220 0.0270 0.0280 0.0300
8.878030 0.0320 0.0340 0.0340 0.0350 0.0340
8.912000 0.0340 0.0320 0.0320 0.0320 0.0320
8.946030 0.0320 0.0320 0.0320 0.0320 0.0320
8.980000 0.0320 0.0320 0.0350 0.0400 0.0420
9.014030 0.0420 0.0440 0.0440 0.0450 0.0450
9.048000 0.0470 0.0490 0.0510 0.0520 0.0540
9.082030 0.0540 0.0560 0.0540 0.0560 0.0560
9.116000 0.0570 0.0570 0.0590 0.0590 0.0590
9.150030 0.0590 0.0590 0.0610 0.0610 0.0590
9.184000 0.0590 0.0590 0.0590 0.0570 0.0570
9.218030 0.0570 0.0570 0.0570 0.0570 0.0570
9.252000 0.0570 0.0560 0.0560 0.0540 0.0540
9.286030 0.0520 0.0490 0.0470 0.0470 0.0470
9.320000 0.0450 0.0440 0.0440 0.0420 0.0420
9.354030 0.0420 0.0400 0.0400 0.0390 0.0390
9.388000 0.0390 0.0390 0.0390 0.0390 0.0390
9.422030 0.0390 0.0390 0.0390 0.0390 0.0390
9.456000 0.0370 0.0370 0.0370 0.0350 0.0340
9.490030 0.0340 0.0320 0.0320 0.0300 0.0300
9.524000 0.0300 0.0280 0.0280 0.0280 0.0270
9.558030 0.0270 0.0270 0.0270 0.0270 0.0270
9.592000 0.0270 0.0270 0.0270 0.0270 0.0270
9.626030 0.0250 0.0270 0.0270 0.0270 0.0270
9.660000 0.0270 0.0270 0.0270 0.0270 0.0300
9.694030 0.0300 0.0300 0.0340 0.0400 0.0450
9.728000 0.0520 0.0590 0.0610 0.0630 0.0690
9.762030 0.0730 0.0800 0.0880 0.0910 0.1000
9.796000 0.1090 0.1200 0.1320 0.1430 0.1510
9.830030 0.1600 0.1700 0.1780 0.1870 0.1970
9.864000 0.2090 0.2210 0.2310 0.2470 0.2550
9.898030 0.2650 0.2790 0.2820 0.2960 0.3040
9.932000 0.3160 0.3270 0.3440 0.3500 0.3570
9.966030 0.3620 0.3730 0.3780 0.3880 0.3960
10.000000 0.4070 0.4130 0.4200 0.4250 0.4290
10.034030 0.4310 0.4370 0.4420 0.4490 0.4540
10.068000 0.4590 0.4680 0.4700 0.4750 0.4820
10.102030 0.4870 0.4880 0.4880 0.4900 0.4950
10.136000 0.4990 0.4990 0.4990 0.5000 0.5020
10.170030 0.5040 0.5090 0.5110 0.5170 0.5210
10.204000 0.5210 0.5220 0.5240 0.5240 0.5240
10.238030 0.5280 0.5280 0.5280 0.5280 0.5280
10.272000 0.5280 0.5280 0.5280 0.5280 0.5280
10.306030 0.5280 0.5280 0.5280 0.5280 0.5280
10.340000 0.5240 0.5220 0.5210 0.5210 0.5190
10.374030 0.5170 0.5170 0.5190 0.5240 0.5260
10.408000 0.5310 0.5400 0.5500 0.5510 0.5530
10.442030 0.5620 0.5670 0.5720 0.5770 0.5800
10.476000 0.5870 0.5910 0.5920 0.5940 0.5960
10.510030 0.5970 0.6010 0.6040 0.6110 0.6180
10.544000 0.6180 0.6180 0.6200 0.6210 0.6210
10.578030 0.6230 0.6230 0.6250 0.6260 0.6300
10.612000 0.6320 0.6350 0.6370 0.6370 0.6370
10.646030 0.6370 0.6370 0.6330 0.6320 0.6300
10.680000 0.6300 0.6280 0.6260 0.6210 0.6180
10.714030 0.6140 0.6110 0.6090 0.6080 0.6080
10.748000 0.6080 0.6090 0.6110 0.6180 0.6200
10.782030 0.6260 0.6260 0.6280 0.6320 0.6350
10.816000 0.6430 0.6450 0.6470 0.6490 0.6500
10.850030 0.6540 0.6570 0.6600 0.6640 0.6720
10.884000 0.6780 0.6810 0.6830 0.6880 0.6910
10.918030 0.6910 0.6930 0.6960 0.6980 0.7000
10.952000 0.7000 0.7000 0.7000 0.7010 0.7030
10.986030 0.7080 0.7120 0.7130 0.7150 0.7170
11.020000 0.7180 0.7180 0.7180 0.7200 0.7220
11.054030 0.7220 0.7220 0.7220 0.7220 0.7220
11.088000 0.7220 0.7220 0.7220 0.7220 0.7200
11.122030 0.7200 0.7180 0.7150 0.7050 0.7000
11.156000 0.6950 0.6840 0.6810 0.6780 0.6720
11.190030 0.6690 0.6640 0.6550 0.6490 0.6370
11.224000 0.6300 0.6300 0.6300 0.6300 0.6300
11.258030 0.6300 0.6320 0.6370 0.6430 0.6500
11.293000 0.6550 0.6640 0.6790 0.6860 0.6950
11.327030 0.7030 0.7120 0.7180 0.7270 0.7390
11.361000 0.7470 0.7510 0.7510 0.7580 0.7580
11.395030 0.7590 0.7610 0.7610 0.7630 0.7630
11.429000 0.7640 0.7680 0.7680 0.7710 0.7710
11.463030 0.7780 0.7780 0.7810 0.7850 0.7870
11.497000 0.7880 0.7880 0.7870 0.7830 0.7830
11.531030 0.7830 0.7850 0.7870 0.7870 0.7880
11.565000 0.7900 0.7920 0.7920 0.7930 0.7930
11.599030 0.7950 0.7970 0.7980 0.7980 0.7980
11.633000 0.7980 0.8000 0.7980 0.8020 0.8020
11.667030 0.8040 0.8040 0.8040 0.8040 0.8040
11.701000 0.8040 0.8050 0.8050 0.8050 0.8050
11.735030 0.8050 0.8050 0.8050 0.8050 0.8040
11.769000 0.8020 0.8020 0.8020 0.8020 0.8020
11.803030 0.8020 0.8020 0.8020 0.8020 0.8020
11.837000 0.8020 0.8020 0.8020 0.8020 0.8020
11.871030 0.8020 0.8020 0.8040 0.8040 0.8040
11.905000 0.8050 0.8050 0.8050 0.8050 0.8050
11.939030 0.8070 0.8070 0.8070 0.8070 0.8070
11.973000 0.8090 0.8090 0.8070 0.8070 0.8070
12.007030 0.8070 0.8070 0.8070 0.8070 0.8070
12.041000 0.8070 0.8070 0.8070 0.8070 0.8070
12.075030 0.8070 0.8070 0.8070 0.8070 0.8070
12.109000 0.8070 0.8070 0.8070 0.8070 0.8070
12.143030 0.8070 0.8070 0.8070 0.8090 0.8090
12.177000 0.8090 0.8090 0.8090 0.8090 0.8090
12.211030 0.8070 0.8070 0.8070 0.8070 0.8070
12.245000 0.8070 0.8070 0.8050 0.8050 0.8040
12.279030 0.8020 0.8020 0.8000 0.8000 0.7980
12.313000 0.7980 0.7970 0.7970 0.7950 0.7950
12.347030 0.7930 0.7930 0.7920 0.7920 0.7900
12.381000 0.7900 0.7880 0.7880 0.7870 0.7870
12.415030 0.7850 0.7830 0.7830 0.7810 0.7800
12.449000 0.7800 0.7780 0.7760 0.7760 0.7760
12.483030 0.7750 0.7750 0.7730 0.7710 0.7680
12.517000 0.7660 0.7630 0.7630 0.7610 0.7590
12.551030 0.7590 0.7590 0.7590 0.7590 0.7590
12.585000 0.7590 0.7590 0.7590 0.7580 0.7580
12.619030 0.7560 0.7560 0.7540 0.7520 0.7520
12.653000 0.7510 0.7510 0.7490 0.7490 0.7470
12.687030 0.7470 0.7440 0.7440 0.7420 0.7420
12.721000 0.7410 0.7390 0.7370 0.7320 0.7290
12.755030 0.7270 0.7240 0.7240 0.7220 0.7220
12.789000 0.7220 0.7220 0.7200 0.7200 0.7200
12.823030 0.7180 0.7180 0.7170 0.7170 0.7100
12.857000 0.7100 0.7080 0.7050 0.7050 0.7030
12.891030 0.7010 0.7010 0.7000 0.6980 0.6980
12.925000 0.6950 0.6910 0.6880 0.6860 0.6860
12.959030 0.6830 0.6830 0.6830 0.6830 0.6810
12.993000 0.6810 0.6790 0.6790 0.6760 0.6720
13.027030 0.6710 0.6690 0.6670 0.6660 0.6640
13.061000 0.6570 0.6540 0.6500 0.6470 0.6450
13.095030 0.6420 0.6400 0.6350 0.6330 0.6300
13.129000 0.6300 0.6300 0.6300 0.6300 0.6280
13.163030 0.6280 0.6250 0.6230 0.6200 0.6180
13.197000 0.6160 0.6130 0.6090 0.6060 0.6030
13.231030 0.6010 0.5960 0.5940 0.5910 0.5860
13.265000 0.5790 0.5750 0.5700 0.5600 0.5530
13.299030 0.5530 0.5510 0.5510 0.5500 0.5480
13.333000 0.5400 0.5360 0.5290 0.5240 0.5190
13.367030 0.5160 0.5110 0.5040 0.5020 0.4940
13.401000 0.4850 0.4770 0.4710 0.4650 0.4580
13.435030 0.4530 0.4490 0.4420 0.4360 0.4290
13.469000 0.4200 0.4150 0.4100 0.4030 0.3980
13.503030 0.3950 0.3830 0.3740 0.3690 0.3620
13.537000 0.3540 0.3350 0.3320 0.3270 0.3160
13.571030 0.3060 0.2960 0.2890 0.2820 0.2810
13.605000 0.2700 0.2570 0.2410 0.2310 0.2260
13.639030 0.2160 0.2020 0.1940 0.1800 0.1660
13.673000 0.1600 0.1550 0.1460 0.1360 0.1260
13.707030 0.1150 0.1050 0.0970 0.0910 0.0900
13.741000 0.0850 0.0810 0.0740 0.0730 0.0710
13.775030 0.0690 0.0680 0.0660 0.0630 0.0630
13.810000 0.0610 0.0610 0.0610 0.0590 0.0590
13.844030 0.0590 0.0590 0.0570 0.0570 0.0570
13.878000 0.0570 0.0570 0.0570 0.0590 0.0590
13.912030 0.0590 0.0610 0.0630 0.0680 0.0730
13.946000 0.0780 0.0800 0.0830 0.0880 0.0910
13.980030 0.0950 0.0980 0.1030 0.1090 0.1140
14.014000 0.1200 0.1240 0.1270 0.1360 0.1410
14.048030 0.1490 0.1600 0.1650 0.1750 0.1830
14.082000 0.1950 0.1990 0.2060 0.2190 0.2260
14.116030 0.2360 0.2530 0.2620 0.2740 0.2870
14.150000 0.3010 0.3180 0.3320 0.3590 0.3660
14.184030 0.3830 0.3980 0.4130 0.4250 0.4390
14.218000 0.4510 0.4630 0.4730 0.4850 0.4950
14.252030 0.5050 0.5140 0.5210 0.5330 0.5430
14.286000 0.5510 0.5580 0.5670 0.5750 0.5820
14.320030 0.5910 0.5970 0.6040 0.6110 0.6160
14.354000 0.6230 0.6300 0.6350 0.6400 0.6470
14.388030 0.6500 0.6520 0.6540 0.6570 0.6620
14.422000 0.6780 0.6810 0.6830 0.6890 0.6950
14.456030 0.7000 0.7000 0.7060 0.7080 0.7080
14.490000 0.7080 0.7100 0.7100 0.7100 0.7120
14.524030 0.7130 0.7150 0.7170 0.7180 0.7200
14.558000 0.7200 0.7220 0.7250 0.7270 0.7320
14.592030 0.7320 0.7340 0.7340 0.7350 0.7350
14.626000 0.7350 0.7350 0.7350 0.7350 0.7350
14.660030 0.7350 0.7350 0.7350 0.7350 0.7350
14.694000 0.7340 0.7340 0.7350 0.7340 0.7340
14.728030 0.7340 0.7340 0.7320 0.7320 0.7320
14.762000 0.7320 0.7290 0.7290 0.7290 0.7290
14.796030 0.7290 0.7290 0.7270 0.7270 0.7250
14.830000 0.7250 0.7240 0.7220 0.7220 0.7200
14.864030 0.7200 0.7200 0.7180 0.7180 0.7180
14.898000 0.7180 0.7170 0.7170 0.7170 0.7170
14.932030 0.7150 0.7150 0.7150 0.7150 0.7150
14.966000 0.7150 0.7150 0.7150 0.7130 0.7150
15.000030 0.7100 0.7060 0.7010 0.6960 0.6960
15.034000 0.6950 0.6950 0.6950 0.6930 0.6910
15.068030 0.6890 0.6880 0.6860 0.6810 0.6790
15.102000 0.6790 0.6790 0.6790 0.6780 0.6780
15.136030 0.6760 0.6760 0.6740 0.6720 0.6710
15.170000 0.6710 0.6690 0.6690 0.6670 0.6670
15.204030 0.6670 0.6660 0.6640 0.6600 0.6600
15.238000 0.6600 0.6590 0.6570 0.6570 0.6520
15.272030 0.6470 0.6450 0.6430 0.6420 0.6420
15.306000 0.6420 0.6420 0.6420 0.6400 0.6400
15.340030 0.6380 0.6380 0.6380 0.6370 0.6370
15.374000 0.6370 0.6370 0.6370 0.6370 0.6350
15.408030 0.6330 0.6300 0.6300 0.6280 0.6280
15.442000 0.6260 0.6260 0.6260 0.6260 0.6260
15.476030 0.6260 0.6260 0.6260 0.6260 0.6230
15.510000 0.6210 0.6200 0.6180 0.6180 0.6180
15.544030 0.6180 0.6160 0.6140 0.6090 0.6060
15.578000 0.6040 0.6030 0.6030 0.6030 0.6010
15.612030 0.6010 0.6010 0.5990 0.5990 0.5990
15.646000 0.5990 0.5990 0.5970 0.5960 0.5960
15.680030 0.5940 0.5920 0.5920 0.5920 0.5920
15.714000 0.5910 0.5910 0.5890 0.5870 0.5870
15.748030 0.5870 0.5860 0.5860 0.5840 0.5800
15.782000 0.5790 0.5770 0.5770 0.5770 0.5750
15.816030 0.5750 0.5750 0.5750 0.5740 0.5740
15.850000 0.5720 0.5720 0.5720 0.5720 0.5720
15.884030 0.5720 0.5700 0.5700 0.5680 0.5670
15.918000 0.5670 0.5650 0.5630 0.5630 0.5620
15.952030 0.5600 0.5600 0.5580 0.5580 0.5580
15.986000 0.5600 0.5580 0.5600
##END=
