##TITLE=L-SERINE, METHYL ESTER, HYDROCHLORIDE
##JCAMP-DX=4.24
##DATA TYPE=INFRARED SPECTRUM
##CLASS=COBLENTZ III
##ORIGIN=DOW CHEMICAL COMPANY
##OWNER=COBLENTZ SOCIETY
Collection (C) 2018 copyright by the U.S. Secretary of Commerce
on behalf of the United States of America. All rights reserved.
##DATE=1963/10/22
##NAMES=methyl 2-amino-3-hydroxypropanoate hydrochloride
##MOLFORM=C4 H10 Cl N O3
##SOURCE REFERENCE=COBLENTZ NO. 6837
##$NIST ID=B6006837
##$NIST SOURCE=COBLENTZ
##$NIST IMAGE=cob6837
##SPECTROMETER/DATA SYSTEM=DOW KBr FOREPRISM-GRATING
##INSTRUMENT PARAMETERS=GRATING BLAZED AT 3.5, 12.0, 20.0 MICRONS AND CHANGED AT 5.0, 7.5, 14.9 MICRONS
##STATE=SOLID (SPLIT MULL)
##SAMPLING PROCEDURE=TRANSMISSION
##RESOLUTION=4
##DATA PROCESSING=DIGITIZED BY NIST FROM HARD COPY (FROM TWO SEGMENTS)
##XUNITS=1/CM
##YUNITS=TRANSMITTANCE
##XFACTOR=1.000000
##YFACTOR=1
##DELTAX=0.875274
##FIRSTX=379.869
##LASTX=3796.06
##FIRSTY=1.052
##MAXX=3796.06
##MINX=379.869
##MAXY=1.052
##MINY=0.082
##NPOINTS=3904
##XYDATA=(X++(Y..Y))
379.869000 1.0520 1.0520 1.0520 1.0520 1.0520
384.245369 1.0520 1.0520 1.0520 1.0520 1.0520
388.621738 1.0520 1.0520 1.0520 1.0520 1.0520
392.998107 1.0520 1.0520 1.0520 1.0520 1.0520
397.374475 1.0520 1.0520 1.0500 1.0500 1.0500
401.750844 1.0490 1.0490 1.0480 1.0460 1.0460
406.127213 1.0460 1.0450 1.0450 1.0450 1.0450
410.503582 1.0440 1.0440 1.0440 1.0440 1.0420
414.879951 1.0420 1.0420 1.0410 1.0410 1.0390
419.256320 1.0390 1.0380 1.0380 1.0370 1.0370
423.632688 1.0350 1.0350 1.0350 1.0340 1.0340
428.009057 1.0330 1.0330 1.0300 1.0300 1.0280
432.385426 1.0280 1.0280 1.0270 1.0270 1.0260
436.761795 1.0240 1.0230 1.0230 1.0220 1.0220
441.138164 1.0200 1.0190 1.0170 1.0160 1.0150
445.514533 1.0150 1.0130 1.0120 1.0110 1.0050
449.890902 1.0050 1.0020 0.9970 0.9930 0.9880
454.267270 0.9840 0.9800 0.9760 0.9621 0.9570
458.643639 0.9530 0.9470 0.9400 0.9310 0.9210
463.020008 0.9100 0.8980 0.8830 0.8671 0.8501
467.396377 0.8320 0.8100 0.8040 0.7920 0.7900
471.772746 0.7930 0.8080 0.8100 0.8190 0.8290
476.149115 0.8390 0.8470 0.8560 0.8660 0.8760
480.525483 0.8840 0.8910 0.8950 0.9030 0.9110
484.901852 0.9140 0.9160 0.9170 0.9180 0.9200
489.278221 0.9200 0.9200 0.9210 0.9210 0.9200
493.654590 0.9180 0.9180 0.9170 0.9160 0.9140
498.030959 0.9130 0.9110 0.9100 0.9090 0.9050
502.407328 0.9000 0.8980 0.8950 0.8940 0.8920
506.783697 0.8910 0.8890 0.8870 0.8830 0.8800
511.160065 0.8760 0.8720 0.8690 0.8650 0.8610
515.536434 0.8560 0.8540 0.8480 0.8440 0.8400
519.912803 0.8360 0.8300 0.8210 0.8120 0.8070
524.289172 0.8010 0.7990 0.7960 0.7930 0.7900
528.665541 0.7860 0.7810 0.7770 0.7730 0.7680
533.041910 0.7660 0.7620 0.7590 0.7560 0.7530
537.418278 0.7490 0.7460 0.7440 0.7400 0.7370
541.794647 0.7330 0.7290 0.7230 0.7220 0.7120
546.171016 0.7090 0.7040 0.6960 0.6870 0.6780
550.547385 0.6680 0.6580 0.6470 0.6380 0.6271
554.923754 0.6160 0.6060 0.5960 0.5870 0.5770
559.300123 0.5680 0.5590 0.5440 0.5390 0.5350
563.676492 0.5290 0.5250 0.5220 0.5180 0.5150
568.052860 0.5110 0.5070 0.5040 0.4950 0.4840
572.429229 0.4730 0.4630 0.4530 0.4440 0.4340
576.805598 0.4250 0.4160 0.4120 0.4090 0.4080
581.181967 0.4090 0.4230 0.4300 0.4470 0.4620
585.558336 0.4670 0.4740 0.4840 0.4989 0.5179
589.934705 0.5440 0.5570 0.5690 0.5900 0.6090
594.311073 0.6270 0.6430 0.6580 0.6739 0.6860
598.687442 0.6980 0.7110 0.7230 0.7350 0.7460
603.063811 0.7590 0.7680 0.7740 0.7770 0.7770
607.440180 0.7790 0.7820 0.7880 0.7890 0.7930
611.816549 0.7950 0.7950 0.7960 0.7960 0.7970
616.192918 0.8000 0.8070 0.8120 0.8170 0.8230
620.569287 0.8300 0.8430 0.8520 0.8630 0.8670
624.945655 0.8720 0.8730 0.8770 0.8840 0.8890
629.322024 0.8910 0.8940 0.9020 0.9070 0.9110
633.698393 0.9140 0.9140 0.9160 0.9170 0.9180
638.074762 0.9200 0.9220 0.9250 0.9280 0.9290
642.451131 0.9310 0.9320 0.9330 0.9350 0.9360
646.827500 0.9380 0.9380 0.9390 0.9400 0.9420
651.203868 0.9430 0.9460 0.9470 0.9470 0.9470
655.580237 0.9470 0.9470 0.9470 0.9470 0.9490
659.956606 0.9490 0.9500 0.9510 0.9510 0.9510
664.332975 0.9510 0.9510 0.9570 0.9580 0.9600
668.709344 0.9600 0.9610 0.9620 0.9620 0.9620
673.085713 0.9640 0.9640 0.9640 0.9640 0.9640
677.462082 0.9650 0.9650 0.9650 0.9650 0.9660
681.838450 0.9660 0.9660 0.9660 0.9660 0.9660
686.214819 0.9660 0.9660 0.9660 0.9660 0.9660
690.591188 0.9660 0.9660 0.9660 0.9660 0.9660
694.967557 0.9650 0.9640 0.9620 0.9620 0.9600
699.343926 0.9600 0.9580 0.9580 0.9540 0.9490
703.720295 0.9460 0.9440 0.9400 0.9380 0.9330
708.096663 0.9320 0.9290 0.9210 0.9160 0.9100
712.473032 0.8960 0.8920 0.8880 0.8760 0.8700
716.849401 0.8580 0.8411 0.8251 0.8071 0.7921
721.225770 0.7770 0.7680 0.7670 0.7700 0.7810
725.602139 0.7990 0.8110 0.8260 0.8330 0.8390
729.978508 0.8450 0.8510 0.8650 0.8700 0.8730
734.354876 0.8740 0.8780 0.8810 0.8840 0.8890
738.731245 0.8910 0.8920 0.8950 0.9000 0.9030
743.107614 0.9070 0.9110 0.9140 0.9200 0.9220
747.483983 0.9250 0.9310 0.9320 0.9350 0.9350
751.860352 0.9360 0.9390 0.9390 0.9390 0.9420
756.236721 0.9420 0.9430 0.9430 0.9440 0.9440
760.613090 0.9440 0.9440 0.9440 0.9430 0.9430
764.989458 0.9420 0.9420 0.9400 0.9400 0.9420
769.365827 0.9420 0.9400 0.9400 0.9400 0.9400
773.742196 0.9400 0.9400 0.9400 0.9400 0.9400
778.118565 0.9400 0.9390 0.9390 0.9380 0.9360
782.494934 0.9350 0.9330 0.9310 0.9280 0.9250
786.871303 0.9240 0.9210 0.9200 0.9140 0.9060
791.247671 0.8910 0.8580 0.8260 0.7930 0.7590
795.624040 0.5364 0.5190 0.5190 0.5828 0.6447
800.000409 0.8300 0.9180 0.9460 0.9490 0.9490
804.376778 0.9540 0.9580 0.9600 0.9600 0.9610
808.753147 0.9610 0.9620 0.9620 0.9620 0.9620
813.129516 0.9610 0.9610 0.9600 0.9600 0.9600
817.505885 0.9580 0.9580 0.9570 0.9580 0.9570
821.882253 0.9550 0.9540 0.9540 0.9530 0.9510
826.258622 0.9490 0.9470 0.9460 0.9440 0.9420
830.634991 0.9360 0.9350 0.9320 0.9290 0.9250
835.011360 0.9210 0.9170 0.9130 0.9100 0.9070
839.387729 0.9020 0.8910 0.8761 0.8541 0.8211
843.764098 0.7850 0.7780 0.7780 0.7860 0.8259
848.140466 0.8519 0.8699 0.8780 0.8979 0.9109
852.516835 0.9140 0.9170 0.9200 0.9200 0.9210
856.893204 0.9210 0.9210 0.9210 0.9220 0.9220
861.269573 0.9220 0.9240 0.9240 0.9240 0.9250
865.645942 0.9270 0.9280 0.9280 0.9290 0.9290
870.022311 0.9290 0.9280 0.9270 0.9270 0.9250
874.398680 0.9240 0.9210 0.9200 0.9170 0.9160
878.775048 0.9140 0.9110 0.9070 0.9000 0.8990
883.151417 0.8950 0.8910 0.8870 0.8810 0.8740
887.527786 0.8670 0.8580 0.8480 0.8370 0.8230
891.904155 0.8010 0.7791 0.7710 0.7570 0.7351
896.280524 0.7070 0.6690 0.6250 0.5401 0.5100
900.656893 0.5070 0.5080 0.5359 0.5629 0.6208
905.033261 0.6780 0.7480 0.7970 0.8250 0.8400
909.409630 0.8470 0.8560 0.8739 0.8810 0.8840
913.785999 0.8840 0.8840 0.8840 0.8840 0.8840
918.162368 0.8830 0.8830 0.8830 0.8800 0.8780
922.538737 0.8770 0.8760 0.8760 0.8740 0.8730
926.915106 0.8720 0.8690 0.8650 0.8630 0.8610
931.291475 0.8550 0.8520 0.8500 0.8450 0.8430
935.667843 0.8400 0.8360 0.8340 0.8320 0.8320
940.044212 0.8280 0.8230 0.8210 0.8180 0.8140
944.420581 0.8110 0.8070 0.8000 0.7970 0.7930
948.796950 0.7860 0.7790 0.7710 0.7630 0.7560
953.173319 0.7460 0.7370 0.7260 0.7150 0.7011
957.549688 0.6870 0.6690 0.6470 0.6050 0.5391
961.926056 0.5330 0.5210 0.4801 0.4421 0.4091
966.302425 0.3700 0.3560 0.3560 0.3830 0.4409
970.678794 0.4839 0.5289 0.5430 0.5430 0.5410
975.055163 0.5390 0.5280 0.5170 0.5110 0.5080
979.431532 0.5060 0.5080 0.5319 0.5569 0.5809
983.807901 0.6390 0.6780 0.7160 0.7460 0.7640
988.184270 0.7740 0.7810 0.7880 0.7900 0.7960
992.560638 0.7950 0.7920 0.7900 0.7890 0.7860
996.937007 0.7820 0.7790 0.7780 0.7730 0.7660
1001.313376 0.7600 0.7550 0.7490 0.7440 0.7400
1005.689745 0.7340 0.7270 0.7260 0.7200 0.7150
1010.066114 0.7090 0.7040 0.6930 0.6830 0.6740
1014.442483 0.6650 0.6560 0.6460 0.6360 0.6241
1018.818851 0.6090 0.5960 0.5800 0.5370 0.5180
1023.195220 0.4990 0.4800 0.4601 0.4411 0.4191
1027.571589 0.3940 0.3680 0.3380 0.3030 0.2651
1031.947958 0.2221 0.1731 0.1650 0.1520 0.1401
1036.324327 0.1290 0.1160 0.1040 0.1010 0.1000
1040.700696 0.1000 0.1010 0.1040 0.1289 0.1519
1045.077065 0.1770 0.2000 0.2220 0.2689 0.3229
1049.453433 0.3958 0.4588 0.5058 0.5428 0.5549
1053.829802 0.5680 0.5870 0.5990 0.6100 0.6180
1058.206171 0.6280 0.6340 0.6380 0.6400 0.6460
1062.582540 0.6460 0.6460 0.6450 0.6450 0.6420
1066.958909 0.6390 0.6360 0.6350 0.6340 0.6320
1071.335278 0.6280 0.6200 0.6140 0.6130 0.6050
1075.711646 0.5990 0.5910 0.5800 0.5740 0.5680
1080.088015 0.5470 0.5360 0.5240 0.5110 0.4960
1084.464384 0.4810 0.4641 0.4471 0.4261 0.4051
1088.840753 0.3810 0.3560 0.3280 0.2980 0.2650
1093.217122 0.2291 0.1911 0.1671 0.1660 0.1670
1097.593491 0.1890 0.2280 0.2480 0.3009 0.3559
1101.969860 0.4189 0.4709 0.5149 0.5479 0.5609
1106.346228 0.5720 0.5830 0.5950 0.5990 0.6030
1110.722597 0.6050 0.6050 0.6030 0.6020 0.5990
1115.098966 0.5920 0.5900 0.5850 0.5770 0.5730
1119.475335 0.5690 0.5570 0.5371 0.5251 0.5141
1123.851704 0.5020 0.4920 0.4820 0.4730 0.4630
1128.228073 0.4560 0.4550 0.4560 0.4690 0.4800
1132.604441 0.4910 0.5060 0.5210 0.5410 0.5500
1136.980810 0.5570 0.5700 0.5840 0.5940 0.5980
1141.357179 0.6030 0.6050 0.6030 0.6030 0.6010
1145.733548 0.5960 0.5900 0.5830 0.5770 0.5690
1150.109917 0.5610 0.5390 0.5240 0.5080 0.4910
1154.486286 0.4710 0.4530 0.4341 0.4161 0.4001
1158.862655 0.3850 0.3830 0.3860 0.4070 0.4360
1163.239023 0.4739 0.5079 0.5389 0.5510 0.5630
1167.615392 0.5850 0.6030 0.6180 0.6310 0.6390
1171.991761 0.6500 0.6560 0.6600 0.6600 0.6600
1176.368130 0.6600 0.6580 0.6570 0.6530 0.6500
1180.744499 0.6450 0.6350 0.6280 0.6200 0.6160
1185.120868 0.6070 0.6050 0.6030 0.6030 0.6060
1189.497236 0.6090 0.6130 0.6160 0.6180 0.6270
1193.873605 0.6290 0.6290 0.6290 0.6280 0.6250
1198.249974 0.6230 0.6200 0.6160 0.6070 0.6010
1202.626343 0.5920 0.5880 0.5830 0.5760 0.5680
1207.002712 0.5590 0.5440 0.5370 0.5300 0.5240
1211.379081 0.5100 0.4970 0.4960 0.4820 0.4700
1215.755450 0.4580 0.4470 0.4360 0.4231 0.4111
1220.131818 0.3980 0.3820 0.3740 0.3630 0.3520
1224.508187 0.3410 0.3280 0.3170 0.3030 0.2910
1228.884556 0.2790 0.2650 0.2530 0.2400 0.2260
1233.260925 0.2140 0.2030 0.1910 0.1800 0.1690
1237.637294 0.1580 0.1450 0.1300 0.1220 0.1190
1242.013663 0.1160 0.1080 0.1050 0.1030 0.0970
1246.390031 0.0960 0.0930 0.0900 0.0880 0.0830
1250.766400 0.0820 0.0820 0.0820 0.0820 0.0830
1255.142769 0.0830 0.0860 0.0880 0.0900 0.0960
1259.519138 0.0970 0.1000 0.1030 0.1080 0.1110
1263.895507 0.1220 0.1330 0.1480 0.1620 0.1770
1268.271876 0.1910 0.2000 0.2179 0.2509 0.2749
1272.648245 0.2940 0.3060 0.3190 0.3280 0.3410
1277.024613 0.3570 0.3759 0.3959 0.4119 0.4289
1281.400982 0.4420 0.4530 0.4630 0.4710 0.4750
1285.777351 0.4750 0.4780 0.4780 0.4780 0.4740
1290.153720 0.4630 0.4480 0.4260 0.4030 0.3850
1294.530089 0.3760 0.3521 0.2992 0.2532 0.2500
1298.906458 0.2500 0.2510 0.2680 0.2860 0.3269
1303.282826 0.3499 0.3789 0.4079 0.4449 0.4699
1307.659195 0.4880 0.5030 0.5210 0.5460 0.5550
1312.035564 0.5630 0.5799 0.5940 0.6050 0.6159
1316.411933 0.6270 0.6360 0.6450 0.6540 0.6650
1320.788302 0.6760 0.6870 0.6930 0.6980 0.7020
1325.164671 0.7070 0.7080 0.7080 0.7080 0.7050
1329.541039 0.7020 0.7010 0.6980 0.6940 0.6910
1333.917408 0.6900 0.6870 0.6830 0.6760 0.6640
1338.293777 0.6490 0.6360 0.6240 0.6071 0.5323
1342.670146 0.5240 0.5020 0.4560 0.4470 0.4470
1347.046515 0.4520 0.5038 0.5359 0.5659 0.6178
1351.422884 0.6670 0.7000 0.7300 0.7340 0.7450
1355.799253 0.7560 0.7600 0.7640 0.7660 0.7670
1360.175621 0.7680 0.7680 0.7660 0.7640 0.7620
1364.551990 0.7600 0.7590 0.7560 0.7510 0.7450
1368.928359 0.7420 0.7380 0.7340 0.7270 0.7220
1373.304728 0.7180 0.7110 0.7040 0.6930 0.6801
1377.681097 0.6690 0.6540 0.6350 0.6120 0.5950
1382.057466 0.5770 0.5551 0.5520 0.5550 0.5719
1386.433834 0.5990 0.6250 0.6530 0.6710 0.7070
1390.810203 0.7340 0.7510 0.7680 0.7740 0.7780
1395.186572 0.7840 0.7860 0.7880 0.7920 0.7930
1399.562941 0.7950 0.7950 0.7950 0.7950 0.7930
1403.939310 0.7900 0.7900 0.7890 0.7860 0.7850
1408.315679 0.7850 0.7840 0.7790 0.7740 0.7700
1412.692048 0.7640 0.7620 0.7600 0.7600 0.7560
1417.068416 0.7510 0.7460 0.7410 0.7350 0.7300
1421.444785 0.7240 0.7160 0.7070 0.6960 0.6830
1425.821154 0.6680 0.6500 0.6291 0.6051 0.5841
1430.197523 0.4840 0.4810 0.4820 0.5000 0.5150
1434.573892 0.5280 0.5430 0.5580 0.5829 0.5840
1438.950261 0.5840 0.5770 0.5470 0.5210 0.4960
1443.326629 0.4701 0.4451 0.4261 0.4250 0.4260
1447.702998 0.4590 0.4880 0.5370 0.5610 0.5830
1452.079367 0.5980 0.6180 0.6270 0.6390 0.6460
1456.455736 0.6490 0.6530 0.6540 0.6560 0.6600
1460.832105 0.6610 0.6610 0.6610 0.6610 0.6610
1465.208474 0.6600 0.6580 0.6570 0.6500 0.6450
1469.584843 0.6240 0.5981 0.5242 0.4911 0.4591
1473.961211 0.4580 0.4590 0.5040 0.5290 0.5789
1478.337580 0.6269 0.6739 0.7109 0.7459 0.7510
1482.713949 0.7510 0.7490 0.7480 0.7450 0.7420
1487.090318 0.7400 0.7310 0.7290 0.7230 0.7160
1491.466687 0.7070 0.6970 0.6860 0.6780 0.6710
1495.843056 0.6650 0.6570 0.6430 0.6231 0.6011
1500.219424 0.5480 0.5240 0.4990 0.4780 0.4620
1504.595793 0.4490 0.4151 0.3851 0.3601 0.3391
1508.972162 0.3240 0.3100 0.3010 0.2920 0.2870
1513.348531 0.2830 0.2790 0.2750 0.2720 0.2720
1517.724900 0.2730 0.2760 0.3050 0.3570 0.4179
1522.101269 0.5478 0.5869 0.6249 0.6619 0.7009
1526.477638 0.7420 0.7740 0.8000 0.8180 0.8320
1530.854006 0.8400 0.8470 0.8510 0.8540 0.8550
1535.230375 0.8590 0.8610 0.8630 0.8650 0.8650
1539.606744 0.8660 0.8660 0.8670 0.8690 0.8690
1543.983113 0.8700 0.8700 0.8700 0.8700 0.8700
1548.359482 0.8690 0.8670 0.8670 0.8660 0.8650
1552.735851 0.8630 0.8620 0.8590 0.8550 0.8540
1557.112219 0.8510 0.8500 0.8410 0.8360 0.8330
1561.488588 0.8260 0.8250 0.8220 0.8180 0.8110
1565.864957 0.8060 0.7970 0.7900 0.7850 0.7780
1570.241326 0.7630 0.7480 0.7350 0.7220 0.7090
1574.617695 0.6930 0.6721 0.6511 0.6341 0.6131
1578.994064 0.5910 0.5880 0.5910 0.6020 0.6160
1583.370433 0.6320 0.6360 0.6360 0.6340 0.6181
1587.746801 0.6030 0.5900 0.5790 0.5350 0.5080
1592.123170 0.4850 0.4660 0.4520 0.4400 0.4370
1596.499539 0.4380 0.4590 0.4800 0.5240 0.5679
1600.875908 0.6538 0.6540 0.7198 0.7838 0.7920
1605.252277 0.8010 0.8180 0.8360 0.8500 0.8560
1609.628646 0.8660 0.8770 0.8870 0.8890 0.8890
1614.005014 0.8920 0.8920 0.8940 0.8950 0.8950
1618.381383 0.8960 0.8960 0.8960 0.8960 0.8960
1622.757752 0.8960 0.8960 0.8960 0.8960 0.8960
1627.134121 0.8960 0.8950 0.8950 0.8950 0.8950
1631.510490 0.8940 0.8940 0.8920 0.8920 0.8910
1635.886859 0.8910 0.8890 0.8890 0.8890 0.8890
1640.263228 0.8880 0.8880 0.8880 0.8880 0.8870
1644.639596 0.8850 0.8850 0.8840 0.8840 0.8840
1649.015965 0.8830 0.8800 0.8800 0.8780 0.8780
1653.392334 0.8770 0.8760 0.8760 0.8740 0.8730
1657.768703 0.8730 0.8720 0.8700 0.8700 0.8690
1662.145072 0.8660 0.8650 0.8630 0.8630 0.8620
1666.521441 0.8610 0.8590 0.8560 0.8550 0.8550
1670.897809 0.8540 0.8520 0.8510 0.8510 0.8500
1675.274178 0.8450 0.8440 0.8430 0.8410 0.8410
1679.650547 0.8360 0.8330 0.8260 0.8220 0.8210
1684.026916 0.8190 0.8180 0.8170 0.8150 0.8140
1688.403285 0.8120 0.8110 0.8040 0.7970 0.7920
1692.779654 0.7860 0.7820 0.7790 0.7770 0.7740
1697.156023 0.7700 0.7620 0.7550 0.7530 0.7490
1701.532391 0.7380 0.7350 0.7330 0.7260 0.7090
1705.908760 0.6930 0.6711 0.6670 0.6650 0.6760
1710.285129 0.7050 0.7070 0.7070 0.6980 0.6910
1714.661498 0.6740 0.6580 0.6450 0.6310 0.6180
1719.037867 0.6060 0.5940 0.5830 0.5700 0.5440
1723.414236 0.5300 0.5140 0.4970 0.4801 0.4591
1727.790604 0.4370 0.4140 0.3860 0.3560 0.3430
1732.166973 0.3370 0.2981 0.2621 0.2590 0.2540
1736.543342 0.2320 0.2210 0.2090 0.1960 0.1850
1740.919711 0.1740 0.1561 0.1540 0.1540 0.1520
1745.296080 0.1520 0.1540 0.1540 0.1580 0.1600
1749.672449 0.1700 0.1800 0.1890 0.1990 0.2090
1754.048818 0.2390 0.2840 0.3430 0.4289 0.4969
1758.425186 0.5279 0.5569 0.6098 0.6558 0.6968
1762.801555 0.7340 0.7660 0.7950 0.8220 0.8470
1767.177924 0.8719 0.8949 0.9100 0.9130 0.9160
1771.554293 0.9240 0.9290 0.9320 0.9350 0.9380
1775.930662 0.9460 0.9500 0.9550 0.9570 0.9610
1780.307031 0.9650 0.9680 0.9680 0.9690 0.9690
1784.683399 0.9680 0.9680 0.9680 0.9680 0.9680
1789.059768 0.9660 0.9650 0.9650 0.9620 0.9620
1793.436137 0.9610 0.9600 0.9580 0.9570 0.9570
1797.812506 0.9550 0.9540 0.9530 0.9530 0.9510
1802.188875 0.9510 0.9510 0.9510 0.9530 0.9530
1806.565244 0.9530 0.9530 0.9540 0.9550 0.9570
1810.941613 0.9570 0.9580 0.9580 0.9580 0.9600
1815.317981 0.9610 0.9610 0.9620 0.9620 0.9620
1819.694350 0.9640 0.9650 0.9650 0.9650 0.9650
1824.070719 0.9680 0.9690 0.9690 0.9710 0.9710
1828.447088 0.9720 0.9730 0.9730 0.9720 0.9720
1832.823457 0.9720 0.9720 0.9710 0.9710 0.9710
1837.199826 0.9690 0.9690 0.9680 0.9660 0.9650
1841.576194 0.9640 0.9640 0.9620 0.9620 0.9610
1845.952563 0.9610 0.9600 0.9600 0.9600 0.9580
1850.328932 0.9570 0.9550 0.9530 0.9510 0.9510
1854.705301 0.9500 0.9490 0.9470 0.9460 0.9440
1859.081670 0.9430 0.9420 0.9390 0.9380 0.9360
1863.458039 0.9350 0.9350 0.9330 0.9330 0.9320
1867.834408 0.9310 0.9310 0.9290 0.9280 0.9270
1872.210776 0.9250 0.9220 0.9210 0.9200 0.9170
1876.587145 0.9160 0.9140 0.9140 0.9140 0.9130
1880.963514 0.9110 0.9110 0.9090 0.9090 0.9070
1885.339883 0.9070 0.9060 0.9060 0.9050 0.9050
1889.716252 0.9050 0.9020 0.9020 0.9000 0.9000
1894.092621 0.9000 0.8980 0.8960 0.8950 0.8950
1898.468989 0.8940 0.8910 0.8890 0.8870 0.8830
1902.845358 0.8810 0.8800 0.8770 0.8740 0.8730
1907.221727 0.8720 0.8700 0.8670 0.8650 0.8610
1911.598096 0.8580 0.8540 0.8520 0.8510 0.8500
1915.974465 0.8470 0.8440 0.8410 0.8410 0.8400
1920.350834 0.8390 0.8360 0.8360 0.8340 0.8340
1924.727202 0.8340 0.8340 0.8330 0.8330 0.8330
1929.103571 0.8340 0.8340 0.8360 0.8360 0.8370
1933.479940 0.8370 0.8390 0.8400 0.8410 0.8440
1937.856309 0.8480 0.8500 0.8510 0.8540 0.8590
1942.232678 0.8630 0.8650 0.8690 0.8700 0.8720
1946.609047 0.8740 0.8740 0.8770 0.8810 0.8840
1950.985416 0.8870 0.8870 0.8890 0.8910 0.8920
1955.361784 0.8950 0.8980 0.8990 0.9020 0.9030
1959.738153 0.9050 0.9060 0.9070 0.9070 0.9090
1964.114522 0.9090 0.9100 0.9100 0.9100 0.9110
1968.490891 0.9110 0.9130 0.9140 0.9160 0.9160
1972.867260 0.9170 0.9200 0.9210 0.9220 0.9240
1977.243629 0.9250 0.9270 0.9280 0.9310 0.9310
1981.619997 0.9320 0.9320 0.9330 0.9330 0.9350
1985.996366 0.9350 0.9350 0.9350 0.9350 0.9350
1990.372735 0.9330 0.9330 0.9320 0.9310 0.9280
1994.749104 0.9270 0.9250 0.9240 0.9240 0.9220
1999.125473 0.9210 0.9200 0.9190 0.9180 0.9175
2003.501842 0.9170 0.9165 0.9160 0.9150 0.9140
2007.878211 0.9135 0.9130 0.9130 0.9130 0.9120
2012.254579 0.9110 0.9105 0.9100 0.9100 0.9100
2016.630948 0.9095 0.9090 0.9090 0.9090 0.9080
2021.007317 0.9070 0.9065 0.9060 0.9055 0.9050
2025.383686 0.9050 0.9050 0.9050 0.9050 0.9040
2029.760055 0.9031 0.9025 0.9020 0.9006 0.8991
2034.136424 0.8985 0.8980 0.8970 0.8960 0.8955
2038.512792 0.8950 0.8950 0.8950 0.8950 0.8950
2042.889161 0.8945 0.8940 0.8940 0.8940 0.8940
2047.265530 0.8940 0.8940 0.8940 0.8931 0.8921
2051.641899 0.8915 0.8910 0.8910 0.8910 0.8901
2056.018268 0.8891 0.8890 0.8890 0.8885 0.8880
2060.394637 0.8875 0.8870 0.8856 0.8841 0.8835
2064.771006 0.8830 0.8821 0.8811 0.8805 0.8801
2069.147374 0.8773 0.8743 0.8735 0.8730 0.8716
2073.523743 0.8701 0.8709 0.8719 0.8711 0.8701
2077.900112 0.8696 0.8691 0.8677 0.8662 0.8656
2082.276481 0.8651 0.8641 0.8631 0.8630 0.8630
2086.652850 0.8639 0.8649 0.8650 0.8650 0.8668
2091.029219 0.8688 0.8690 0.8690 0.8694 0.8699
2095.405587 0.8709 0.8719 0.8724 0.8729 0.8726
2099.781956 0.8721 0.8720 0.8720 0.8720 0.8720
2104.158325 0.8711 0.8701 0.8700 0.8700 0.8700
2108.534694 0.8700 0.8696 0.8691 0.8681 0.8671
2112.911063 0.8666 0.8661 0.8656 0.8651 0.8650
2117.287432 0.8650 0.8650 0.8650 0.8637 0.8623
2121.663801 0.8603 0.8583 0.8572 0.8562 0.8556
2126.040169 0.8551 0.8550 0.8550 0.8546 0.8541
2130.416538 0.8528 0.8513 0.8510 0.8510 0.8506
2134.792907 0.8501 0.8492 0.8482 0.8468 0.8453
2139.169276 0.8446 0.8441 0.8440 0.8440 0.8440
2143.545645 0.8440 0.8436 0.8431 0.8430 0.8430
2147.922014 0.8434 0.8439 0.8452 0.8467 0.8474
2152.298382 0.8479 0.8492 0.8507 0.8510 0.8510
2156.674751 0.8510 0.8510 0.8514 0.8519 0.8520
2161.051120 0.8520 0.8516 0.8511 0.8510 0.8510
2165.427489 0.8510 0.8510 0.8498 0.8483 0.8468
2169.803858 0.8453 0.8446 0.8441 0.8436 0.8431
2174.180227 0.8422 0.8412 0.8410 0.8410 0.8402
2178.556596 0.8392 0.8378 0.8363 0.8352 0.8342
2182.932964 0.8340 0.8340 0.8336 0.8331 0.8330
2187.309333 0.8330 0.8326 0.8321 0.8309 0.8294
2191.685702 0.8286 0.8281 0.8272 0.8262 0.8260
2196.062071 0.8260 0.8256 0.8251 0.8243 0.8233
2200.438440 0.8230 0.8230 0.8230 0.8230 0.8237
2204.814809 0.8247 0.8250 0.8250 0.8254 0.8259
2209.191177 0.8267 0.8277 0.8287 0.8297 0.8307
2213.567546 0.8317 0.8320 0.8320 0.8320 0.8320
2217.943915 0.8313 0.8303 0.8293 0.8283 0.8273
2222.320284 0.8263 0.8256 0.8251 0.8243 0.8233
2226.696653 0.8226 0.8221 0.8216 0.8211 0.8203
2231.073022 0.8193 0.8190 0.8190 0.8186 0.8182
2235.449391 0.8183 0.8188 0.8190 0.8190 0.8187
2239.825759 0.8182 0.8177 0.8172 0.8163 0.8153
2244.202128 0.8147 0.8142 0.8140 0.8140 0.8133
2248.578497 0.8123 0.8113 0.8103 0.8090 0.8075
2252.954866 0.8060 0.8045 0.8037 0.8032 0.8030
2257.331235 0.8030 0.8007 0.7972 0.7957 0.7952
2261.707604 0.7950 0.7950 0.7953 0.7958 0.7960
2266.083972 0.7960 0.7957 0.7952 0.7950 0.7950
2270.460341 0.7943 0.7933 0.7927 0.7922 0.7920
2274.836710 0.7920 0.7914 0.7904 0.7897 0.7892
2279.213079 0.7887 0.7882 0.7874 0.7864 0.7857
2283.589448 0.7852 0.7850 0.7850 0.7850 0.7850
2287.965817 0.7841 0.7826 0.7820 0.7820 0.7817
2292.342186 0.7812 0.7810 0.7810 0.7804 0.7794
2296.718554 0.7790 0.7790 0.7787 0.7782 0.7777
2301.094923 0.7772 0.7761 0.7746 0.7737 0.7732
2305.471292 0.7730 0.7730 0.7715 0.7690 0.7668
2309.847661 0.7648 0.7637 0.7632 0.7627 0.7622
2314.224030 0.7614 0.7604 0.7600 0.7600 0.7600
2318.600399 0.7600 0.7600 0.7600 0.7597 0.7592
2322.976767 0.7590 0.7590 0.7590 0.7590 0.7590
2327.353136 0.7590 0.7590 0.7590 0.7590 0.7590
2331.729505 0.7590 0.7590 0.7593 0.7598 0.7600
2336.105874 0.7600 0.7600 0.7600 0.7606 0.7616
2340.482243 0.7614 0.7604 0.7597 0.7592 0.7590
2344.858612 0.7590 0.7584 0.7574 0.7567 0.7562
2349.234981 0.7552 0.7537 0.7524 0.7514 0.7504
2353.611349 0.7494 0.7490 0.7490 0.7490 0.7490
2357.987718 0.7490 0.7490 0.7490 0.7490 0.7498
2362.364087 0.7513 0.7520 0.7520 0.7520 0.7520
2366.740456 0.7520 0.7520 0.7520 0.7520 0.7517
2371.116825 0.7512 0.7505 0.7495 0.7490 0.7490
2375.493194 0.7490 0.7490 0.7490 0.7490 0.7487
2379.869562 0.7482 0.7475 0.7465 0.7457 0.7452
2384.245931 0.7447 0.7442 0.7443 0.7448 0.7450
2388.622300 0.7450 0.7447 0.7442 0.7435 0.7425
2392.998669 0.7417 0.7412 0.7410 0.7410 0.7410
2397.375038 0.7410 0.7408 0.7403 0.7395 0.7385
2401.751407 0.7378 0.7373 0.7365 0.7355 0.7348
2406.127776 0.7343 0.7340 0.7340 0.7338 0.7333
2410.504144 0.7323 0.7308 0.7293 0.7278 0.7268
2414.880513 0.7263 0.7260 0.7260 0.7260 0.7260
2419.256882 0.7255 0.7245 0.7238 0.7233 0.7230
2423.633251 0.7230 0.7232 0.7237 0.7240 0.7240
2428.009620 0.7240 0.7240 0.7245 0.7255 0.7260
2432.385989 0.7260 0.7256 0.7246 0.7240 0.7240
2436.762357 0.7240 0.7240 0.7240 0.7240 0.7238
2441.138726 0.7233 0.7228 0.7223 0.7216 0.7206
2445.515095 0.7200 0.7200 0.7198 0.7193 0.7188
2449.891464 0.7183 0.7169 0.7144 0.7130 0.7130
2454.267833 0.7126 0.7116 0.7106 0.7096 0.7088
2458.644202 0.7083 0.7080 0.7080 0.7074 0.7059
2463.020571 0.7044 0.7029 0.7012 0.6992 0.6972
2467.396939 0.6952 0.6932 0.6912 0.6890 0.6865
2471.773308 0.6840 0.6815 0.6792 0.6772 0.6760
2476.149677 0.6760 0.6752 0.6732 0.6718 0.6713
2480.526046 0.6704 0.6689 0.6674 0.6659 0.6650
2484.902415 0.6650 0.6650 0.6650 0.6648 0.6643
2489.278784 0.6636 0.6626 0.6620 0.6620 0.6624
2493.655152 0.6634 0.6648 0.6668 0.6686 0.6701
2498.031521 0.6716 0.6731 0.6751 0.6781 0.6813
2502.407890 0.6848 0.6874 0.6884 0.6886 0.6876
2506.784259 0.6870 0.6870 0.6866 0.6856 0.6841
2511.160628 0.6816 0.6800 0.6800 0.6796 0.6786
2515.536997 0.6777 0.6767 0.6757 0.6747 0.6735
2519.913365 0.6720 0.6705 0.6690 0.6675 0.6660
2524.289734 0.6645 0.6630 0.6617 0.6607 0.6593
2528.666103 0.6573 0.6552 0.6527 0.6502 0.6477
2533.042472 0.6450 0.6420 0.6390 0.6360 0.6329
2537.418841 0.6294 0.6256 0.6211 0.6161 0.6101
2541.795210 0.6032 0.5941 0.5854 0.5774 0.5682
2546.171579 0.5562 0.5478 0.5473 0.5475 0.5490
2550.547947 0.5502 0.5507 0.5516 0.5536 0.5562
2554.924316 0.5602 0.5643 0.5688 0.5732 0.5771
2559.300685 0.5811 0.5852 0.5892 0.5932 0.5991
2563.677054 0.6096 0.6170 0.6170 0.6171 0.6176
2568.053423 0.6180 0.6180 0.6177 0.6167 0.6155
2572.429792 0.6135 0.6111 0.6076 0.6051 0.6056
2576.806160 0.6056 0.6041 0.6023 0.5998 0.5972
2581.182529 0.5942 0.5911 0.5876 0.5843 0.5818
2585.558898 0.5796 0.5781 0.5769 0.5764 0.5747
2589.935267 0.5697 0.5635 0.5535 0.5456 0.5441
2594.311636 0.5430 0.5430 0.5427 0.5417 0.5409
2598.688005 0.5404 0.5400 0.5400 0.5399 0.5394
2603.064374 0.5390 0.5390 0.5390 0.5390 0.5387
2607.440742 0.5372 0.5357 0.5342 0.5326 0.5306
2611.817111 0.5286 0.5265 0.5245 0.5225 0.5207
2616.193480 0.5192 0.5174 0.5149 0.5124 0.5100
2620.569849 0.5075 0.5050 0.5026 0.5006 0.4983
2624.946218 0.4948 0.4914 0.4884 0.4852 0.4812
2629.322587 0.4779 0.4774 0.4770 0.4770 0.4771
2633.698955 0.4776 0.4783 0.4798 0.4817 0.4852
2638.075324 0.4888 0.4928 0.4964 0.4984 0.5003
2642.451693 0.5018 0.5031 0.5036 0.5042 0.5052
2646.828062 0.5057 0.5042 0.5026 0.5006 0.4984
2651.204431 0.4949 0.4907 0.4837 0.4767 0.4692
2655.580800 0.4623 0.4583 0.4548 0.4538 0.4532
2659.957169 0.4547 0.4566 0.4606 0.4648 0.4698
2664.333537 0.4749 0.4810 0.4877 0.4977 0.5070
2668.709906 0.5130 0.5188 0.5238 0.5287 0.5332
2673.086275 0.5377 0.5422 0.5461 0.5471 0.5481
2677.462644 0.5491 0.5500 0.5500 0.5499 0.5489
2681.839013 0.5480 0.5480 0.5479 0.5474 0.5468
2686.215382 0.5453 0.5438 0.5423 0.5407 0.5387
2690.591750 0.5369 0.5364 0.5356 0.5321 0.5287
2694.968119 0.5262 0.5238 0.5223 0.5206 0.5171
2699.344488 0.5138 0.5118 0.5098 0.5078 0.5056
2703.720857 0.5026 0.4997 0.4972 0.4948 0.4933
2708.097226 0.4918 0.4898 0.4878 0.4863 0.4849
2712.473595 0.4834 0.4820 0.4815 0.4810 0.4805
2716.849964 0.4799 0.4784 0.4768 0.4753 0.4738
2721.226332 0.4713 0.4687 0.4657 0.4630 0.4625
2725.602701 0.4620 0.4620 0.4618 0.4598 0.4579
2729.979070 0.4569 0.4560 0.4560 0.4561 0.4576
2734.355439 0.4590 0.4590 0.4590 0.4595 0.4600
2738.731808 0.4600 0.4600 0.4595 0.4590 0.4585
2743.108177 0.4579 0.4564 0.4549 0.4539 0.4530
2747.484545 0.4530 0.4531 0.4541 0.4551 0.4576
2751.860914 0.4600 0.4611 0.4620 0.4625 0.4632
2756.237283 0.4662 0.4691 0.4716 0.4741 0.4761
2760.613652 0.4780 0.4790 0.4800 0.4800 0.4800
2764.990021 0.4790 0.4780 0.4775 0.4769 0.4739
2769.366390 0.4710 0.4700 0.4689 0.4664 0.4640
2773.742759 0.4630 0.4619 0.4589 0.4560 0.4540
2778.119127 0.4519 0.4495 0.4469 0.4440 0.4410
2782.495496 0.4385 0.4360 0.4315 0.4270 0.4250
2786.871865 0.4230 0.4210 0.4189 0.4155 0.4119
2791.248234 0.4049 0.3980 0.3950 0.3920 0.3905
2795.624603 0.3890 0.3880 0.3870 0.3850 0.3830
2800.000972 0.3820 0.3810 0.3795 0.3780 0.3770
2804.377340 0.3760 0.3750 0.3740 0.3725 0.3710
2808.753709 0.3690 0.3670 0.3650 0.3630 0.3610
2813.130078 0.3590 0.3556 0.3521 0.3520 0.3520
2817.506447 0.3506 0.3491 0.3461 0.3431 0.3406
2821.882816 0.3381 0.3366 0.3350 0.3331 0.3311
2826.259185 0.3296 0.3281 0.3261 0.3241 0.3206
2830.635554 0.3172 0.3137 0.3102 0.3076 0.3051
2835.011922 0.3017 0.2982 0.2952 0.2922 0.2892
2839.388291 0.2862 0.2813 0.2763 0.2755 0.2750
2843.764660 0.2741 0.2731 0.2725 0.2720 0.2701
2848.141029 0.2681 0.2661 0.2641 0.2617 0.2592
2852.517398 0.2553 0.2513 0.2505 0.2500 0.2491
2856.893767 0.2481 0.2475 0.2470 0.2451 0.2432
2861.270135 0.2398 0.2363 0.2328 0.2293 0.2272
2865.646504 0.2252 0.2245 0.2240 0.2231 0.2221
2870.022873 0.2216 0.2211 0.2197 0.2182 0.2176
2874.399242 0.2171 0.2157 0.2141 0.2135 0.2130
2878.775611 0.2117 0.2102 0.2096 0.2091 0.2077
2883.151980 0.2062 0.2051 0.2041 0.2040 0.2040
2887.528349 0.2031 0.2021 0.2007 0.1992 0.1977
2891.904717 0.1962 0.1947 0.1932 0.1921 0.1911
2896.281086 0.1897 0.1882 0.1867 0.1852 0.1846
2900.657455 0.1841 0.1827 0.1812 0.1788 0.1764
2905.033824 0.1747 0.1732 0.1717 0.1702 0.1700
2909.410193 0.1700 0.1696 0.1691 0.1690 0.1690
2913.786562 0.1690 0.1690 0.1690 0.1690 0.1694
2918.162930 0.1699 0.1704 0.1709 0.1710 0.1710
2922.539299 0.1718 0.1728 0.1734 0.1739 0.1748
2926.915668 0.1758 0.1764 0.1769 0.1774 0.1779
2931.292037 0.1788 0.1798 0.1804 0.1809 0.1827
2935.668406 0.1846 0.1858 0.1868 0.1874 0.1879
2940.044775 0.1892 0.1907 0.1918 0.1928 0.1938
2944.421144 0.1948 0.1962 0.1977 0.1980 0.1980
2948.797512 0.1988 0.1998 0.2016 0.2036 0.2060
2953.173881 0.2085 0.2098 0.2108 0.2126 0.2146
2957.550250 0.2162 0.2177 0.2192 0.2207 0.2222
2961.926619 0.2237 0.2244 0.2249 0.2254 0.2259
2966.302988 0.2268 0.2278 0.2280 0.2280 0.2284
2970.679357 0.2289 0.2298 0.2308 0.2314 0.2319
2975.055725 0.2320 0.2320 0.2324 0.2329 0.2341
2979.432094 0.2356 0.2371 0.2387 0.2402 0.2417
2983.808463 0.2428 0.2438 0.2451 0.2466 0.2481
2988.184832 0.2496 0.2504 0.2509 0.2518 0.2528
2992.561201 0.2534 0.2539 0.2555 0.2575 0.2591
2996.937570 0.2606 0.2625 0.2645 0.2669 0.2694
3001.313939 0.2722 0.2752 0.2771 0.2786 0.2794
3005.690307 0.2799 0.2804 0.2809 0.2821 0.2836
3010.066676 0.2840 0.2840 0.2847 0.2857 0.2864
3014.443045 0.2869 0.2874 0.2879 0.2880 0.2880
3018.819414 0.2876 0.2871 0.2859 0.2844 0.2840
3023.195783 0.2840 0.2836 0.2831 0.2830 0.2830
3027.572152 0.2830 0.2830 0.2830 0.2830 0.2833
3031.948520 0.2838 0.2850 0.2866 0.2874 0.2879
3036.324889 0.2891 0.2906 0.2914 0.2918 0.2927
3040.701258 0.2937 0.2971 0.3016 0.3040 0.3055
3045.077627 0.3070 0.3085 0.3100 0.3115 0.3137
3049.453996 0.3162 0.3190 0.3221 0.3233 0.3238
3053.830365 0.3243 0.3248 0.3257 0.3267 0.3273
3058.206734 0.3278 0.3287 0.3297 0.3300 0.3300
3062.583102 0.3303 0.3308 0.3313 0.3318 0.3327
3066.959471 0.3337 0.3343 0.3348 0.3360 0.3375
3071.335840 0.3380 0.3380 0.3383 0.3388 0.3397
3075.712209 0.3406 0.3413 0.3418 0.3423 0.3428
3080.088578 0.3436 0.3446 0.3466 0.3491 0.3513
3084.464947 0.3533 0.3546 0.3556 0.3570 0.3585
3088.841315 0.3596 0.3606 0.3639 0.3683 0.3728
3093.217684 0.3773 0.3831 0.3896 0.3957 0.4017
3097.594053 0.4089 0.4169 0.4252 0.4337 0.4413
3101.970422 0.4482 0.4544 0.4599 0.4645 0.4685
3106.346791 0.4725 0.4765 0.4801 0.4836 0.4871
3110.723160 0.4906 0.4935 0.4960 0.4991 0.5026
3115.099529 0.5061 0.5096 0.5140 0.5189 0.5236
3119.475897 0.5281 0.5332 0.5388 0.5431 0.5466
3123.852266 0.5501 0.5536 0.5580 0.5629 0.5673
3128.228635 0.5713 0.5759 0.5809 0.5862 0.5917
3132.605004 0.5963 0.6003 0.6043 0.6083 0.6123
3136.981373 0.6163 0.6197 0.6227 0.6252 0.6271
3141.357742 0.6297 0.6327 0.6354 0.6379 0.6393
3145.734110 0.6398 0.6400 0.6400 0.6408 0.6423
3150.110479 0.6430 0.6430 0.6419 0.6399 0.6387
3154.486848 0.6382 0.6380 0.6380 0.6383 0.6388
3158.863217 0.6401 0.6421 0.6438 0.6453 0.6471
3163.239586 0.6491 0.6527 0.6577 0.6605 0.6615
3167.615955 0.6625 0.6635 0.6661 0.6701 0.6736
3171.992323 0.6766 0.6785 0.6795 0.6813 0.6838
3176.368692 0.6853 0.6858 0.6870 0.6890 0.6903
3180.745061 0.6908 0.6910 0.6910 0.6910 0.6910
3185.121430 0.6910 0.6910 0.6905 0.6895 0.6890
3189.497799 0.6890 0.6893 0.6898 0.6908 0.6923
3193.874168 0.6938 0.6953 0.6960 0.6960 0.6970
3198.250537 0.6990 0.7017 0.7052 0.7080 0.7100
3202.626905 0.7112 0.7117 0.7122 0.7127 0.7130
3207.003274 0.7130 0.7135 0.7145 0.7152 0.7157
3211.379643 0.7165 0.7175 0.7180 0.7180 0.7180
3215.756012 0.7180 0.7175 0.7165 0.7160 0.7160
3220.132381 0.7160 0.7160 0.7158 0.7153 0.7150
3224.508750 0.7150 0.7145 0.7135 0.7128 0.7123
3228.885118 0.7120 0.7120 0.7120 0.7120 0.7120
3233.261487 0.7120 0.7118 0.7113 0.7110 0.7110
3237.637856 0.7110 0.7110 0.7106 0.7096 0.7090
3242.014225 0.7090 0.7090 0.7090 0.7088 0.7083
3246.390594 0.7078 0.7073 0.7066 0.7056 0.7041
3250.766963 0.7021 0.6993 0.6953 0.6924 0.6909
3255.143332 0.6894 0.6879 0.6868 0.6863 0.6852
3259.519700 0.6832 0.6793 0.6728 0.6671 0.6626
3263.896069 0.6585 0.6550 0.6518 0.6488 0.6462
3268.272438 0.6442 0.6420 0.6395 0.6368 0.6338
3272.648807 0.6304 0.6264 0.6220 0.6170 0.6122
3277.025176 0.6078 0.6030 0.5980 0.5934 0.5894
3281.401545 0.5850 0.5800 0.5756 0.5721 0.5684
3285.777913 0.5645 0.5591 0.5516 0.5455 0.5415
3290.154282 0.5377 0.5342 0.5307 0.5272 0.5237
3294.530651 0.5202 0.5167 0.5132 0.5097 0.5062
3298.907020 0.4995 0.4875 0.4767 0.4677 0.4596
3303.283389 0.4531 0.4474 0.4429 0.4382 0.4332
3307.659758 0.4281 0.4226 0.4162 0.4082 0.4002
3312.036127 0.3922 0.3837 0.3741 0.3671 0.3646
3316.412495 0.3611 0.3556 0.3490 0.3405 0.3331
3320.788864 0.3276 0.3235 0.3220 0.3185 0.3110
3325.165233 0.3027 0.2927 0.2830 0.2741 0.2662
3329.541602 0.2607 0.2554 0.2503 0.2453 0.2403
3333.917971 0.2355 0.2310 0.2264 0.2214 0.2165
3338.294340 0.2121 0.2074 0.2024 0.1974 0.1924
3342.670708 0.1873 0.1818 0.1778 0.1773 0.1768
3347.047077 0.1764 0.1760 0.1760 0.1766 0.1786
3351.423446 0.1819 0.1878 0.1941 0.2011 0.2068
3355.799815 0.2092 0.2129 0.2194 0.2263 0.2343
3360.176184 0.2430 0.2535 0.2631 0.2706 0.2785
3364.552553 0.2875 0.2968 0.3069 0.3174 0.3288
3368.928922 0.3405 0.3524 0.3646 0.3770 0.3895
3373.305290 0.4020 0.4140 0.4250 0.4360 0.4470
3377.681659 0.4575 0.4670 0.4760 0.4835 0.4903
3382.058028 0.4953 0.5008 0.5079 0.5131 0.5136
3386.434397 0.5168 0.5273 0.5362 0.5407 0.5450
3390.810766 0.5490 0.5543 0.5633 0.5717 0.5787
3395.187135 0.5855 0.5915 0.5968 0.6003 0.6038
3399.563503 0.6073 0.6139 0.6305 0.6452 0.6542
3403.939872 0.6626 0.6691 0.6753 0.6808 0.6861
3408.316241 0.6906 0.6952 0.7002 0.7050 0.7095
3412.692610 0.7140 0.7185 0.7229 0.7269 0.7309
3417.068979 0.7349 0.7387 0.7423 0.7458 0.7493
3421.445348 0.7528 0.7563 0.7595 0.7620 0.7646
3425.821717 0.7676 0.7705 0.7730 0.7756 0.7786
3430.198085 0.7815 0.7840 0.7864 0.7884 0.7905
3434.574454 0.7930 0.7954 0.7974 0.7994 0.8014
3438.950823 0.8034 0.8054 0.8074 0.8094 0.8114
3443.327192 0.8134 0.8153 0.8168 0.8184 0.8204
3447.703561 0.8224 0.8244 0.8263 0.8278 0.8293
3452.079930 0.8313 0.8333 0.8348 0.8361 0.8366
3456.456298 0.8373 0.8388 0.8406 0.8441 0.8477
3460.832667 0.8517 0.8551 0.8556 0.8560 0.8560
3465.209036 0.8560 0.8560 0.8560 0.8560 0.8560
3469.585405 0.8560 0.8559 0.8554 0.8549 0.8544
3473.961774 0.8538 0.8528 0.8519 0.8514 0.8510
3478.338143 0.8510 0.8509 0.8504 0.8501 0.8506
3482.714512 0.8513 0.8538 0.8567 0.8622 0.8672
3487.090880 0.8687 0.8704 0.8740 0.8777 0.8827
3491.467249 0.8871 0.8881 0.8891 0.8901 0.8911
3495.843618 0.8916 0.8921 0.8931 0.8941 0.8946
3500.219987 0.8951 0.8956 0.8962 0.8977 0.8992
3504.596356 0.9007 0.9021 0.9026 0.9031 0.9041
3508.972725 0.9051 0.9056 0.9061 0.9066 0.9070
3513.349093 0.9070 0.9071 0.9081 0.9090 0.9095
3517.725462 0.9100 0.9100 0.9100 0.9100 0.9100
3522.101831 0.9100 0.9100 0.9105 0.9110 0.9110
3526.478200 0.9110 0.9110 0.9111 0.9121 0.9130
3530.854569 0.9130 0.9130 0.9130 0.9130 0.9135
3535.230938 0.9140 0.9140 0.9140 0.9140 0.9140
3539.607307 0.9140 0.9140 0.9140 0.9140 0.9140
3543.983675 0.9141 0.9151 0.9160 0.9160 0.9160
3548.360044 0.9160 0.9160 0.9160 0.9160 0.9165
3552.736413 0.9170 0.9170 0.9170 0.9170 0.9170
3557.112782 0.9170 0.9170 0.9170 0.9170 0.9170
3561.489151 0.9170 0.9170 0.9170 0.9170 0.9170
3565.865520 0.9170 0.9170 0.9170 0.9170 0.9170
3570.241888 0.9170 0.9175 0.9180 0.9180 0.9180
3574.618257 0.9180 0.9180 0.9180 0.9180 0.9180
3578.994626 0.9180 0.9180 0.9180 0.9180 0.9180
3583.370995 0.9180 0.9180 0.9190 0.9200 0.9200
3587.747364 0.9200 0.9200 0.9200 0.9200 0.9200
3592.123733 0.9200 0.9200 0.9205 0.9210 0.9210
3596.500102 0.9210 0.9210 0.9210 0.9215 0.9220
3600.876470 0.9220 0.9220 0.9215 0.9210 0.9210
3605.252839 0.9210 0.9210 0.9210 0.9210 0.9210
3609.629208 0.9210 0.9210 0.9210 0.9210 0.9210
3614.005577 0.9210 0.9210 0.9210 0.9210 0.9210
3618.381946 0.9210 0.9210 0.9210 0.9210 0.9215
3622.758315 0.9220 0.9220 0.9220 0.9220 0.9220
3627.134683 0.9220 0.9220 0.9220 0.9220 0.9220
3631.511052 0.9220 0.9220 0.9220 0.9220 0.9220
3635.887421 0.9220 0.9220 0.9220 0.9220 0.9220
3640.263790 0.9220 0.9220 0.9220 0.9220 0.9220
3644.640159 0.9220 0.9220 0.9220 0.9220 0.9215
3649.016528 0.9210 0.9210 0.9210 0.9210 0.9210
3653.392897 0.9210 0.9210 0.9210 0.9210 0.9210
3657.769265 0.9210 0.9205 0.9200 0.9200 0.9200
3662.145634 0.9200 0.9200 0.9200 0.9200 0.9191
3666.522003 0.9181 0.9180 0.9180 0.9180 0.9180
3670.898372 0.9175 0.9170 0.9170 0.9170 0.9170
3675.274741 0.9170 0.9170 0.9170 0.9170 0.9170
3679.651110 0.9170 0.9170 0.9166 0.9161 0.9160
3684.027478 0.9160 0.9160 0.9160 0.9151 0.9141
3688.403847 0.9140 0.9140 0.9140 0.9140 0.9140
3692.780216 0.9140 0.9136 0.9131 0.9130 0.9130
3697.156585 0.9130 0.9130 0.9121 0.9111 0.9110
3701.532954 0.9110 0.9110 0.9110 0.9106 0.9101
3705.909323 0.9100 0.9100 0.9096 0.9091 0.9090
3710.285692 0.9090 0.9082 0.9072 0.9070 0.9070
3714.662060 0.9066 0.9061 0.9056 0.9051 0.9050
3719.038429 0.9050 0.9042 0.9032 0.9026 0.9021
3723.414798 0.9020 0.9020 0.9012 0.9002 0.8996
3727.791167 0.8991 0.8990 0.8990 0.8990 0.8990
3732.167536 0.8986 0.8981 0.8980 0.8980 0.8972
3736.543905 0.8962 0.8960 0.8960 0.8960 0.8960
3740.920273 0.8956 0.8951 0.8950 0.8950 0.8946
3745.296642 0.8941 0.8940 0.8940 0.8932 0.8922
3749.673011 0.8920 0.8920 0.8916 0.8911 0.8910
3754.049380 0.8910 0.8910 0.8910 0.8910 0.8910
3758.425749 0.8910 0.8910 0.8902 0.8892 0.8890
3762.802118 0.8890 0.8890 0.8890 0.8890 0.8890
3767.178486 0.8890 0.8890 0.8886 0.8881 0.8880
3771.554855 0.8880 0.8876 0.8871 0.8870 0.8870
3775.931224 0.8862 0.8852 0.8850 0.8850 0.8846
3780.307593 0.8841 0.8836 0.8831 0.8830 0.8830
3784.683962 0.8819 0.8804 0.8800 0.8800 0.8800
3789.060331 0.8800 0.8792 0.8782 0.8780 0.8780
3793.436700 0.8780 0.8780 0.8776 0.8771
##END=
