##TITLE=3-HYDROXY-2,6-PYRIDINEDIMETHANOL, HYDROCHLORIDE
##JCAMP-DX=4.24
##DATA TYPE=INFRARED SPECTRUM
##CLASS=COBLENTZ III
##ORIGIN=DOW CHEMICAL COMPANY
##OWNER=COBLENTZ SOCIETY
Collection (C) 2018 copyright by the U.S. Secretary of Commerce
on behalf of the United States of America. All rights reserved.
##DATE=1965/01/06
##NAMES=2,6-bis(hydroxymethyl)-3-pyridinol hydrochloride
##MOLFORM=C7 H10 Cl N O3
##MP=145 C
##SOURCE REFERENCE=COBLENTZ NO. 8078
##$NIST ID=B6008078
##$NIST SOURCE=COBLENTZ
##$NIST IMAGE=cob8078
##SPECTROMETER/DATA SYSTEM=DOW KBr FOREPRISM-GRATING
##INSTRUMENT PARAMETERS=BLAZED AT 3.5, 12.0, 20.0 MICRON AND CHANGED AT 5.0, 7.5, 14.9 MICRON
##STATE=SOLID (SPLIT MULL), FLUOROLUBE FOR 3800-1330 CM^-^1, NUJOL FOR 1330-400 CM^-^1
##SAMPLING PROCEDURE=TRANSMISSION
##RESOLUTION=2
##DATA PROCESSING=DIGITIZED BY NIST FROM HARD COPY (FROM TWO SEGMENTS)
##XUNITS=1/CM
##YUNITS=TRANSMITTANCE
##XFACTOR=1.000000
##YFACTOR=1
##DELTAX=0.877836
##FIRSTX=387.418
##LASTX=3803.08
##FIRSTY=0.92
##MAXX=3803.08
##MINX=387.418
##MAXY=0.972
##MINY=0.00900598
##NPOINTS=3892
##XYDATA=(X++(Y..Y))
387.418000 0.9200 0.9200 0.9180 0.9180 0.9180
391.807181 0.9170 0.9170 0.9170 0.9160 0.9160
396.196362 0.9160 0.9140 0.9140 0.9140 0.9140
400.585544 0.9140 0.9140 0.9140 0.9130 0.9130
404.974725 0.9130 0.9130 0.9130 0.9130 0.9130
409.363906 0.9110 0.9100 0.9100 0.9090 0.9090
413.753087 0.9090 0.9090 0.9090 0.9090 0.9090
418.142269 0.9090 0.9090 0.9090 0.9090 0.9090
422.531450 0.9090 0.9090 0.9090 0.9090 0.9070
426.920631 0.9060 0.9050 0.9050 0.9020 0.8960
431.309812 0.8850 0.8730 0.8610 0.8500 0.8410
435.698994 0.8390 0.8280 0.8260 0.8260 0.8340
440.088175 0.8480 0.8650 0.8830 0.8980 0.9140
444.477356 0.9310 0.9360 0.9420 0.9460 0.9470
448.866537 0.9470 0.9490 0.9490 0.9490 0.9490
453.255719 0.9490 0.9490 0.9490 0.9470 0.9460
457.644900 0.9460 0.9440 0.9430 0.9420 0.9420
462.034081 0.9400 0.9390 0.9360 0.9360 0.9350
466.423262 0.9330 0.9330 0.9320 0.9280 0.9250
470.812444 0.9220 0.9200 0.9170 0.9140 0.9130
475.201625 0.9090 0.9050 0.9020 0.8990 0.8960
479.590806 0.8950 0.8940 0.8920 0.8880 0.8840
483.979987 0.8800 0.8760 0.8700 0.8660 0.8620
488.369169 0.8580 0.8540 0.8480 0.8440 0.8400
492.758350 0.8360 0.8300 0.8230 0.8170 0.8080
497.147531 0.8000 0.7920 0.7840 0.7790 0.7740
501.536712 0.7660 0.7560 0.7460 0.7370 0.7270
505.925894 0.7180 0.7080 0.6980 0.6890 0.6800
510.315075 0.6710 0.6620 0.6540 0.6390 0.6380
514.704256 0.6390 0.6400 0.6420 0.6450 0.6470
519.093437 0.6640 0.6790 0.6940 0.7070 0.7230
523.482619 0.7459 0.7620 0.7700 0.7710 0.7730
527.871800 0.7710 0.7700 0.7680 0.7670 0.7630
532.260981 0.7530 0.7400 0.7310 0.7270 0.7220
536.650162 0.7150 0.7020 0.6930 0.6860 0.6740
541.039344 0.6600 0.6510 0.6470 0.6430 0.6380
545.428525 0.6380 0.6390 0.6400 0.6450 0.6510
549.817706 0.6749 0.6830 0.6999 0.7179 0.7290
554.206887 0.7400 0.7480 0.7520 0.7530 0.7530
558.596069 0.7560 0.7560 0.7560 0.7560 0.7560
562.985250 0.7560 0.7560 0.7560 0.7560 0.7560
567.374431 0.7560 0.7560 0.7550 0.7530 0.7520
571.763612 0.7490 0.7480 0.7460 0.7460 0.7450
576.152794 0.7420 0.7420 0.7420 0.7420 0.7420
580.541975 0.7440 0.7440 0.7440 0.7450 0.7460
584.931156 0.7480 0.7520 0.7530 0.7570 0.7600
589.320337 0.7620 0.7660 0.7680 0.7710 0.7770
593.709519 0.7790 0.7790 0.7790 0.7780 0.7700
598.098700 0.7600 0.7560 0.7790 0.7860 0.7930
602.487881 0.8030 0.8170 0.8260 0.8280 0.8230
606.877062 0.8060 0.7790 0.7740 0.7680 0.7670
611.266244 0.7670 0.7929 0.7960 0.8030 0.8140
615.655425 0.8210 0.8340 0.8450 0.8550 0.8580
620.044606 0.8690 0.8770 0.8880 0.8990 0.9109
624.433787 0.9130 0.9160 0.9210 0.9270 0.9320
628.822969 0.9360 0.9400 0.9430 0.9470 0.9530
633.212150 0.9580 0.9610 0.9620 0.9650 0.9660
637.601331 0.9660 0.9680 0.9680 0.9680 0.9690
641.990512 0.9690 0.9690 0.9710 0.9710 0.9710
646.379693 0.9720 0.9720 0.9720 0.9720 0.9720
650.768875 0.9720 0.9720 0.9720 0.9720 0.9720
655.158056 0.9720 0.9720 0.9720 0.9720 0.9720
659.547237 0.9720 0.9720 0.9720 0.9710 0.9710
663.936418 0.9710 0.9710 0.9690 0.9690 0.9690
668.325600 0.9680 0.9680 0.9660 0.9660 0.9650
672.714781 0.9650 0.9580 0.9550 0.9550 0.9530
677.103962 0.9500 0.9470 0.9430 0.9400 0.9400
681.493143 0.9400 0.9390 0.9390 0.9380 0.9380
685.882325 0.9360 0.9330 0.9250 0.9170 0.9100
690.271506 0.8960 0.8780 0.8541 0.8510 0.8520
694.660687 0.8610 0.8630 0.8670 0.8700 0.8700
699.049868 0.8700 0.8700 0.8690 0.8690 0.8650
703.439050 0.8610 0.8590 0.8550 0.8510 0.8430
707.828231 0.8330 0.8230 0.8140 0.8010 0.7841
712.217412 0.7700 0.7560 0.7370 0.7230 0.7010
716.606593 0.6820 0.6561 0.6251 0.5941 0.5611
720.995775 0.5440 0.5260 0.4950 0.4660 0.4410
725.384956 0.4160 0.3941 0.3541 0.3530 0.3530
729.774137 0.3560 0.3760 0.3820 0.3930 0.4090
734.163318 0.4270 0.4480 0.4689 0.4909 0.4930
738.552500 0.4910 0.4780 0.4670 0.4630 0.4440
742.941681 0.4420 0.4450 0.4739 0.4929 0.5617
747.330862 0.5830 0.6170 0.6470 0.6720 0.7070
751.720043 0.7369 0.7849 0.8039 0.8209 0.8330
756.109225 0.8450 0.8540 0.8590 0.8660 0.8720
760.498406 0.8810 0.8910 0.8950 0.8960 0.8990
764.887587 0.9000 0.9050 0.9090 0.9130 0.9130
769.276768 0.9140 0.9170 0.9180 0.9210 0.9240
773.665950 0.9250 0.9270 0.9280 0.9280 0.9290
778.055131 0.9290 0.9290 0.9290 0.9290 0.9290
782.444312 0.9290 0.9290 0.9290 0.9290 0.9280
786.833493 0.9280 0.9280 0.9270 0.9270 0.9250
791.222675 0.9240 0.9210 0.9170 0.9140 0.9100
795.611856 0.9060 0.9050 0.9060 0.9060 0.9060
800.001037 0.8990 0.8960 0.8910 0.8840 0.8770
804.390218 0.8740 0.8720 0.8650 0.8540 0.8401
808.779400 0.8320 0.8210 0.8110 0.7880 0.7700
813.168581 0.7510 0.7290 0.7021 0.6751 0.6491
817.557762 0.6210 0.5950 0.5550 0.5140 0.4421
821.946943 0.4051 0.4030 0.4040 0.4469 0.5755
826.336125 0.6250 0.6620 0.7120 0.7290 0.7420
830.725306 0.7440 0.7440 0.7350 0.7190 0.7120
835.114487 0.6940 0.6750 0.6400 0.6160 0.5650
839.503668 0.4781 0.3921 0.2792 0.1653 0.1510
843.892850 0.1380 0.1260 0.1140 0.1010 0.0960
848.282031 0.0900 0.0880 0.1099 0.2326 0.3705
852.671212 0.4252 0.5840 0.6120 0.6560 0.6980
857.060393 0.7260 0.7859 0.7970 0.8110 0.8180
861.449575 0.8190 0.8190 0.8180 0.8150 0.8140
865.838756 0.8120 0.8110 0.8100 0.8080 0.8010
870.227937 0.7970 0.7920 0.7770 0.7730 0.7670
874.617118 0.7570 0.7450 0.7310 0.7220 0.7090
879.006300 0.6940 0.6760 0.6570 0.6380 0.6200
883.395481 0.6010 0.5830 0.5620 0.5500 0.5360
887.784662 0.5150 0.4970 0.4840 0.4700 0.4580
892.173843 0.4490 0.4440 0.4420 0.4440 0.4470
896.563024 0.4480 0.4580 0.4690 0.4840 0.4930
900.952206 0.5150 0.5519 0.5759 0.6059 0.6140
905.341387 0.6320 0.6470 0.6620 0.6790 0.6930
909.730568 0.7050 0.7180 0.7300 0.7420 0.7530
914.119749 0.7630 0.7770 0.7790 0.7860 0.7930
918.508931 0.7950 0.7970 0.8030 0.8080 0.8140
922.898112 0.8170 0.8190 0.8220 0.8250 0.8290
927.287293 0.8300 0.8300 0.8320 0.8330 0.8330
931.676474 0.8340 0.8360 0.8370 0.8370 0.8370
936.065656 0.8370 0.8370 0.8360 0.8340 0.8340
940.454837 0.8330 0.8290 0.8280 0.8220 0.8170
944.844018 0.8140 0.8040 0.7960 0.7820 0.7780
949.233199 0.7740 0.7520 0.7310 0.7000 0.6610
953.622381 0.6580 0.6600 0.6680 0.6820 0.6969
958.011562 0.7130 0.7290 0.7310 0.7330 0.7310
962.400743 0.7190 0.7070 0.7010 0.6850 0.6750
966.789924 0.6420 0.6180 0.5900 0.5870 0.5900
971.179106 0.6050 0.6180 0.6240 0.6240 0.5961
975.568287 0.5620 0.5279 0.4690 0.4660 0.4670
979.957468 0.4990 0.6467 0.6610 0.6829 0.7149
984.346649 0.7511 0.7790 0.7920 0.7960 0.8000
988.735831 0.8010 0.8010 0.8000 0.7990 0.7960
993.125012 0.7930 0.7930 0.7850 0.7750 0.7700
997.514193 0.7640 0.7570 0.7440 0.7350 0.7111
1001.903374 0.6789 0.6380 0.6360 0.6350 0.6360
1006.292556 0.6420 0.6450 0.6899 0.7070 0.7269
1010.681737 0.7410 0.7510 0.7570 0.7620 0.7620
1015.070918 0.7620 0.7570 0.7550 0.7510 0.7480
1019.460099 0.7460 0.7450 0.7440 0.7400 0.7330
1023.849281 0.7270 0.7220 0.7110 0.7050 0.6940
1028.238462 0.6900 0.6790 0.6740 0.6610 0.6430
1032.627643 0.6280 0.6170 0.6020 0.5840 0.5571
1037.016824 0.5440 0.5300 0.5110 0.4910 0.4750
1041.406006 0.4620 0.4330 0.4031 0.3850 0.3651
1045.795187 0.3310 0.2970 0.2390 0.2140 0.1760
1050.184368 0.1361 0.0741 0.0112 0.0090 0.0110
1054.573549 0.0110 0.0120 0.0130 0.0160 0.0200
1058.962731 0.0240 0.0330 0.0350 0.0490 0.0630
1063.351912 0.1111 0.1631 0.2101 0.2620 0.3460
1067.741093 0.3920 0.4360 0.4560 0.4949 0.5568
1072.130274 0.5840 0.6120 0.6200 0.6320 0.6470
1076.519456 0.6600 0.6680 0.6780 0.6860 0.6900
1080.908637 0.6980 0.7080 0.7130 0.7230 0.7240
1085.297818 0.7260 0.7290 0.7310 0.7370 0.7410
1089.686999 0.7410 0.7440 0.7450 0.7460 0.7480
1094.076181 0.7480 0.7490 0.7490 0.7510 0.7530
1098.465362 0.7570 0.7590 0.7590 0.7600 0.7600
1102.854543 0.7600 0.7590 0.7570 0.7520 0.7450
1107.243724 0.7440 0.7410 0.7330 0.7290 0.7240
1111.632906 0.7180 0.7080 0.6970 0.6960 0.6900
1116.022087 0.6760 0.6620 0.6500 0.6380 0.6280
1120.411268 0.6090 0.5840 0.5511 0.5331 0.5141
1124.800449 0.5110 0.5100 0.5080 0.5070 0.5060
1129.189631 0.5040 0.5030 0.5020 0.4950 0.4860
1133.578812 0.4850 0.4860 0.4961 0.5610 0.5990
1137.967993 0.6310 0.6420 0.6470 0.6490 0.6470
1142.357174 0.6340 0.6250 0.6200 0.6050 0.5850
1146.746355 0.5650 0.5150 0.4641 0.4450 0.4201
1151.135537 0.4000 0.3760 0.3590 0.3370 0.3090
1155.524718 0.2800 0.2800 0.2810 0.3009 0.3489
1159.913899 0.3781 0.4091 0.4491 0.5040 0.5830
1164.303080 0.6140 0.6290 0.6430 0.6530 0.6620
1168.692262 0.6680 0.6760 0.6800 0.6830 0.6850
1173.081443 0.6900 0.6910 0.6910 0.6930 0.6930
1177.470624 0.6930 0.6930 0.6940 0.6960 0.6970
1181.859805 0.6970 0.6970 0.6970 0.6970 0.6970
1186.248987 0.6970 0.6960 0.6940 0.6940 0.6930
1190.638168 0.6910 0.6900 0.6870 0.6830 0.6800
1195.027349 0.6790 0.6760 0.6740 0.6680 0.6620
1199.416530 0.6600 0.6540 0.6460 0.6380 0.6280
1203.805712 0.6200 0.6120 0.6020 0.5900 0.5770
1208.194893 0.5610 0.5520 0.5440 0.5290 0.5140
1212.584074 0.4839 0.4580 0.4420 0.4120 0.3890
1216.973255 0.3600 0.3350 0.3320 0.3310 0.3340
1221.362437 0.3430 0.3590 0.3670 0.3750 0.3850
1225.751618 0.3930 0.4000 0.4050 0.4050 0.4050
1230.140799 0.4000 0.3920 0.3830 0.3740 0.3600
1234.529980 0.3530 0.3410 0.3230 0.3050 0.2801
1238.919162 0.2569 0.2360 0.2260 0.2240 0.2260
1243.308343 0.2390 0.2510 0.2650 0.3458 0.3610
1247.697524 0.3780 0.3790 0.3740 0.3680 0.3590
1252.086705 0.3480 0.3350 0.3270 0.3190 0.2801
1256.475887 0.2469 0.2200 0.1920 0.1620 0.1220
1260.865068 0.1040 0.0850 0.0820 0.0820 0.0850
1265.254249 0.1101 0.1301 0.1551 0.2070 0.2290
1269.643430 0.2480 0.2870 0.2980 0.2980 0.2940
1274.032612 0.2900 0.2830 0.2750 0.2680 0.2650
1278.421793 0.2650 0.2640 0.2640 0.2620 0.2610
1282.810974 0.2610 0.2570 0.2540 0.2370 0.2290
1287.200155 0.2180 0.2060 0.1950 0.1820 0.1601
1291.589337 0.1159 0.0720 0.0610 0.0520 0.0420
1295.978518 0.0330 0.0280 0.0260 0.0240 0.0260
1300.367699 0.0270 0.0340 0.0390 0.0420 0.1070
1304.756880 0.1190 0.1340 0.1520 0.1759 0.2029
1309.146062 0.2221 0.2591 0.2881 0.3420 0.3650
1313.535243 0.3850 0.3860 0.3860 0.3860 0.3830
1317.924424 0.3810 0.3750 0.3710 0.3500 0.3480
1322.313605 0.3450 0.3450 0.3450 0.3450 0.3480
1326.702787 0.3490 0.3520 0.3610 0.3810 0.3820
1331.091968 0.4230 0.5548 0.5740 0.5810 0.5910
1335.481149 0.6020 0.6070 0.6160 0.6210 0.6280
1339.870330 0.6320 0.6360 0.6450 0.6500 0.6560
1344.259512 0.6570 0.6610 0.6640 0.6750 0.6780
1348.648693 0.6850 0.6900 0.6930 0.6970 0.7010
1353.037874 0.7040 0.7070 0.7080 0.7080 0.7080
1357.427055 0.7090 0.7090 0.7090 0.7090 0.7090
1361.816237 0.7090 0.7080 0.7080 0.7070 0.7050
1366.205418 0.7010 0.6980 0.6960 0.6930 0.6910
1370.594599 0.6890 0.6830 0.6800 0.6780 0.6760
1374.983780 0.6760 0.6750 0.6690 0.6680 0.6670
1379.372961 0.6640 0.6620 0.6600 0.6450 0.6350
1383.762143 0.6310 0.6230 0.6170 0.6160 0.6060
1388.151324 0.6030 0.5980 0.5950 0.5950 0.5950
1392.540505 0.5980 0.6020 0.6100 0.6160 0.6180
1396.929686 0.6230 0.6310 0.6320 0.6340 0.6340
1401.318868 0.6340 0.6320 0.6290 0.6290 0.6280
1405.708049 0.6270 0.6230 0.6210 0.6180 0.6140
1410.097230 0.6120 0.6090 0.6050 0.5990 0.5940
1414.486411 0.5920 0.5900 0.5850 0.5790 0.5740
1418.875593 0.5690 0.5630 0.5540 0.5480 0.5410
1423.264774 0.5240 0.5100 0.5030 0.4920 0.4780
1427.653955 0.4620 0.4450 0.4200 0.3871 0.3501
1432.043136 0.3350 0.3190 0.3020 0.3010 0.3020
1436.432318 0.3090 0.3250 0.3370 0.3410 0.3520
1440.821499 0.3640 0.3750 0.3870 0.3930 0.3960
1445.210680 0.3930 0.3900 0.3830 0.3750 0.3491
1449.599861 0.3280 0.3059 0.2549 0.2060 0.1630
1453.989043 0.1340 0.1030 0.1000 0.0970 0.0970
1458.378224 0.1361 0.1951 0.2351 0.2771 0.3500
1462.767405 0.3820 0.4360 0.4370 0.4370 0.4370
1467.156586 0.4370 0.4370 0.4360 0.4361 0.4960
1471.545768 0.5500 0.5760 0.6240 0.6400 0.6460
1475.934949 0.6620 0.6780 0.6830 0.6910 0.6960
1480.324130 0.7080 0.7130 0.7150 0.7190 0.7230
1484.713311 0.7240 0.7260 0.7260 0.7270 0.7270
1489.102493 0.7270 0.7270 0.7270 0.7260 0.7260
1493.491674 0.7260 0.7260 0.7260 0.7260 0.7240
1497.880855 0.7230 0.7220 0.7200 0.7190 0.7160
1502.270036 0.7150 0.7120 0.7110 0.7090 0.7070
1506.659218 0.7070 0.7020 0.7010 0.6970 0.6940
1511.048399 0.6870 0.6780 0.6740 0.6650 0.6610
1515.437580 0.6530 0.6430 0.6320 0.6310 0.6210
1519.826761 0.6120 0.6010 0.5880 0.5690 0.5500
1524.215943 0.5430 0.5360 0.5220 0.5000 0.4770
1528.605124 0.4489 0.4229 0.3959 0.3540 0.3130
1532.994305 0.2720 0.2440 0.2250 0.2090 0.1881
1537.383486 0.1579 0.1110 0.1030 0.0930 0.0520
1541.772668 0.0300 0.0190 0.0170 0.0170 0.0170
1546.161849 0.0200 0.0270 0.0300 0.0330 0.0591
1550.551030 0.1140 0.1470 0.1700 0.2130 0.2689
1554.940211 0.3012 0.3781 0.4270 0.4470 0.4670
1559.329393 0.5760 0.6030 0.6280 0.6290 0.6420
1563.718574 0.6531 0.6750 0.6910 0.7070 0.7090
1568.107755 0.7160 0.7260 0.7400 0.7480 0.7550
1572.496936 0.7600 0.7770 0.7810 0.7970 0.8140
1576.886118 0.8170 0.8190 0.8250 0.8300 0.8330
1581.275299 0.8360 0.8470 0.8520 0.8550 0.8590
1585.664480 0.8630 0.8700 0.8720 0.8760 0.8780
1590.053661 0.8810 0.8840 0.8870 0.8880 0.8890
1594.442843 0.8910 0.8920 0.8920 0.8920 0.8920
1598.832024 0.8940 0.8940 0.8940 0.8940 0.8920
1603.221205 0.8890 0.8870 0.8830 0.8800 0.8780
1607.610386 0.8730 0.8720 0.8690 0.8630 0.8550
1611.999568 0.8500 0.8400 0.8300 0.8170 0.7960
1616.388749 0.7820 0.7730 0.7630 0.7440 0.7200
1620.777930 0.6710 0.6290 0.5690 0.5360 0.5021
1625.167111 0.4509 0.4040 0.4030 0.4050 0.4470
1629.556292 0.5580 0.6209 0.6689 0.7239 0.8038
1633.945474 0.8340 0.8510 0.8540 0.8590 0.8630
1638.334655 0.8700 0.8740 0.8800 0.8830 0.8890
1642.723836 0.8920 0.8950 0.8960 0.9020 0.9030
1647.113017 0.9050 0.9060 0.9090 0.9100 0.9110
1651.502199 0.9110 0.9130 0.9130 0.9130 0.9130
1655.891380 0.9130 0.9140 0.9160 0.9170 0.9170
1660.280561 0.9200 0.9210 0.9240 0.9250 0.9250
1664.669742 0.9270 0.9280 0.9290 0.9330 0.9350
1669.058924 0.9360 0.9360 0.9360 0.9360 0.9360
1673.448105 0.9360 0.9360 0.9360 0.9360 0.9360
1677.837286 0.9360 0.9360 0.9360 0.9360 0.9360
1682.226467 0.9360 0.9350 0.9350 0.9330 0.9330
1686.615649 0.9310 0.9270 0.9250 0.9250 0.9240
1691.004830 0.9240 0.9240 0.9240 0.9240 0.9240
1695.394011 0.9250 0.9270 0.9270 0.9270 0.9280
1699.783192 0.9280 0.9280 0.9280 0.9280 0.9280
1704.172374 0.9280 0.9280 0.9270 0.9270 0.9270
1708.561555 0.9250 0.9250 0.9250 0.9240 0.9240
1712.950736 0.9220 0.9210 0.9210 0.9210 0.9210
1717.339917 0.9200 0.9180 0.9170 0.9170 0.9160
1721.729099 0.9130 0.9130 0.9130 0.9130 0.9130
1726.118280 0.9130 0.9130 0.9110 0.9110 0.9110
1730.507461 0.9100 0.9070 0.9070 0.9060 0.9030
1734.896642 0.9020 0.8990 0.8980 0.8960 0.8940
1739.285824 0.8910 0.8880 0.8870 0.8850 0.8830
1743.675005 0.8810 0.8800 0.8770 0.8770 0.8770
1748.064186 0.8780 0.8810 0.8830 0.8840 0.8870
1752.453367 0.8890 0.8920 0.8940 0.8950 0.8960
1756.842549 0.8960 0.8980 0.8990 0.8990 0.9000
1761.231730 0.9000 0.9020 0.9020 0.9020 0.9030
1765.620911 0.9030 0.9050 0.9050 0.9060 0.9060
1770.010092 0.9060 0.9060 0.9060 0.9050 0.9030
1774.399274 0.9030 0.9030 0.9030 0.9020 0.9020
1778.788455 0.9020 0.9020 0.9020 0.9020 0.9020
1783.177636 0.9020 0.9020 0.9020 0.9020 0.9020
1787.566817 0.9020 0.9020 0.9020 0.9020 0.9020
1791.955999 0.9000 0.9000 0.9020 0.9020 0.9020
1796.345180 0.9020 0.9000 0.9000 0.9000 0.9000
1800.734361 0.9000 0.9000 0.8990 0.8990 0.8990
1805.123542 0.9000 0.9000 0.9000 0.9000 0.9000
1809.512724 0.8990 0.8990 0.8990 0.8990 0.8990
1813.901905 0.8990 0.8990 0.8990 0.8990 0.8990
1818.291086 0.8990 0.8990 0.8990 0.8990 0.9000
1822.680267 0.9000 0.9000 0.9000 0.9000 0.9000
1827.069449 0.8990 0.8990 0.8990 0.8980 0.8980
1831.458630 0.8980 0.8980 0.8960 0.8960 0.8960
1835.847811 0.8950 0.8950 0.8940 0.8940 0.8940
1840.236992 0.8920 0.8920 0.8920 0.8910 0.8910
1844.626174 0.8910 0.8890 0.8890 0.8880 0.8880
1849.015355 0.8880 0.8880 0.8880 0.8880 0.8880
1853.404536 0.8880 0.8880 0.8880 0.8880 0.8880
1857.793717 0.8880 0.8880 0.8880 0.8880 0.8880
1862.182899 0.8880 0.8880 0.8870 0.8870 0.8870
1866.572080 0.8870 0.8870 0.8870 0.8870 0.8870
1870.961261 0.8880 0.8880 0.8880 0.8880 0.8880
1875.350442 0.8880 0.8880 0.8880 0.8880 0.8880
1879.739623 0.8880 0.8880 0.8880 0.8880 0.8880
1884.128805 0.8890 0.8890 0.8890 0.8890 0.8890
1888.517986 0.8890 0.8890 0.8890 0.8890 0.8890
1892.907167 0.8880 0.8880 0.8870 0.8870 0.8850
1897.296348 0.8850 0.8840 0.8840 0.8840 0.8840
1901.685530 0.8830 0.8810 0.8800 0.8800 0.8800
1906.074711 0.8800 0.8800 0.8800 0.8800 0.8780
1910.463892 0.8780 0.8780 0.8780 0.8780 0.8780
1914.853073 0.8780 0.8780 0.8780 0.8800 0.8780
1919.242255 0.8780 0.8770 0.8770 0.8740 0.8740
1923.631436 0.8740 0.8730 0.8730 0.8730 0.8720
1928.020617 0.8720 0.8720 0.8720 0.8700 0.8700
1932.409798 0.8690 0.8670 0.8670 0.8660 0.8660
1936.798980 0.8650 0.8630 0.8630 0.8630 0.8630
1941.188161 0.8630 0.8630 0.8630 0.8630 0.8630
1945.577342 0.8650 0.8660 0.8650 0.8650 0.8660
1949.966523 0.8660 0.8690 0.8700 0.8700 0.8700
1954.355705 0.8720 0.8720 0.8720 0.8720 0.8730
1958.744886 0.8730 0.8730 0.8730 0.8730 0.8730
1963.134067 0.8730 0.8730 0.8730 0.8730 0.8730
1967.523248 0.8730 0.8730 0.8730 0.8720 0.8720
1971.912430 0.8720 0.8720 0.8720 0.8720 0.8720
1976.301611 0.8720 0.8720 0.8720 0.8700 0.8700
1980.690792 0.8700 0.8700 0.8700 0.8700 0.8700
1985.079973 0.8700 0.8700 0.8700 0.8690 0.8690
1989.469155 0.8690 0.8690 0.8690 0.8690 0.8690
1993.858336 0.8690 0.8690 0.8690 0.8690 0.8690
1998.247517 0.8690 0.8690 0.8690 0.8690 0.8690
2002.636698 0.8690 0.8690 0.8690 0.8690 0.8690
2007.025880 0.8690 0.8690 0.8690 0.8690 0.8690
2011.415061 0.8690 0.8690 0.8690 0.8690 0.8690
2015.804242 0.8690 0.8690 0.8690 0.8690 0.8690
2020.193423 0.8690 0.8690 0.8690 0.8690 0.8690
2024.582605 0.8690 0.8690 0.8690 0.8690 0.8690
2028.971786 0.8690 0.8690 0.8690 0.8690 0.8690
2033.360967 0.8690 0.8690 0.8690 0.8690 0.8690
2037.750148 0.8690 0.8690 0.8690 0.8690 0.8690
2042.139330 0.8690 0.8690 0.8690 0.8690 0.8690
2046.528511 0.8690 0.8690 0.8690 0.8690 0.8690
2050.917692 0.8690 0.8690 0.8690 0.8690 0.8690
2055.306873 0.8690 0.8690 0.8690 0.8690 0.8690
2059.696055 0.8690 0.8680 0.8670 0.8670 0.8670
2064.085236 0.8665 0.8660 0.8660 0.8660 0.8655
2068.474417 0.8650 0.8639 0.8630 0.8630 0.8630
2072.863598 0.8625 0.8620 0.8620 0.8619 0.8604
2077.252780 0.8590 0.8590 0.8590 0.8585 0.8579
2081.641961 0.8569 0.8560 0.8560 0.8560 0.8555
2086.031142 0.8550 0.8545 0.8540 0.8540 0.8539
2090.420323 0.8529 0.8520 0.8515 0.8510 0.8505
2094.809505 0.8498 0.8468 0.8439 0.8424 0.8409
2099.198686 0.8399 0.8388 0.8358 0.8327 0.8287
2103.587867 0.8246 0.8190 0.8139 0.8124 0.8110
2107.977048 0.8110 0.8110 0.8110 0.8111 0.8126
2112.366230 0.8144 0.8189 0.8232 0.8257 0.8282
2116.755411 0.8302 0.8320 0.8325 0.8330 0.8335
2121.144592 0.8341 0.8351 0.8361 0.8366 0.8371
2125.533773 0.8381 0.8391 0.8396 0.8401 0.8406
2129.922954 0.8410 0.8410 0.8410 0.8410 0.8410
2134.312136 0.8410 0.8410 0.8410 0.8410 0.8410
2138.701317 0.8410 0.8410 0.8410 0.8410 0.8410
2143.090498 0.8410 0.8409 0.8404 0.8400 0.8400
2147.479679 0.8400 0.8400 0.8399 0.8394 0.8390
2151.868861 0.8390 0.8390 0.8390 0.8389 0.8379
2156.258042 0.8370 0.8370 0.8369 0.8364 0.8360
2160.647223 0.8360 0.8359 0.8349 0.8340 0.8340
2165.036404 0.8339 0.8334 0.8329 0.8324 0.8320
2169.425586 0.8320 0.8319 0.8309 0.8299 0.8294
2173.814767 0.8290 0.8290 0.8288 0.8273 0.8260
2178.203948 0.8260 0.8260 0.8260 0.8259 0.8254
2182.593129 0.8249 0.8239 0.8230 0.8230 0.8229
2186.982311 0.8224 0.8220 0.8220 0.8219 0.8214
2191.371492 0.8210 0.8210 0.8208 0.8193 0.8180
2195.760673 0.8180 0.8180 0.8180 0.8180 0.8180
2200.149854 0.8180 0.8180 0.8179 0.8174 0.8170
2204.539036 0.8170 0.8170 0.8170 0.8168 0.8158
2208.928217 0.8150 0.8150 0.8149 0.8144 0.8140
2213.317398 0.8140 0.8138 0.8128 0.8119 0.8114
2217.706579 0.8109 0.8104 0.8098 0.8088 0.8078
2222.095761 0.8068 0.8058 0.8048 0.8039 0.8034
2226.484942 0.8027 0.8012 0.7997 0.7982 0.7970
2230.874123 0.7970 0.7970 0.7970 0.7969 0.7964
2235.263304 0.7960 0.7960 0.7959 0.7954 0.7950
2239.652486 0.7950 0.7950 0.7950 0.7948 0.7938
2244.041667 0.7930 0.7930 0.7929 0.7924 0.7920
2248.430848 0.7920 0.7916 0.7896 0.7878 0.7868
2252.820029 0.7858 0.7848 0.7840 0.7840 0.7838
2257.209211 0.7828 0.7820 0.7820 0.7819 0.7814
2261.598392 0.7810 0.7810 0.7807 0.7792 0.7780
2265.987573 0.7780 0.7779 0.7774 0.7768 0.7758
2270.376754 0.7750 0.7750 0.7749 0.7744 0.7739
2274.765936 0.7734 0.7730 0.7730 0.7728 0.7718
2279.155117 0.7709 0.7704 0.7696 0.7681 0.7670
2283.544298 0.7670 0.7669 0.7664 0.7660 0.7660
2287.933479 0.7658 0.7648 0.7640 0.7640 0.7639
2292.322661 0.7634 0.7630 0.7630 0.7629 0.7624
2296.711842 0.7620 0.7620 0.7617 0.7607 0.7599
2301.101023 0.7594 0.7590 0.7590 0.7587 0.7577
2305.490204 0.7570 0.7570 0.7569 0.7564 0.7559
2309.879386 0.7554 0.7550 0.7550 0.7541 0.7506
2314.268567 0.7475 0.7455 0.7437 0.7427 0.7419
2318.657748 0.7414 0.7409 0.7404 0.7397 0.7387
2323.046929 0.7376 0.7361 0.7349 0.7344 0.7339
2327.436111 0.7334 0.7327 0.7317 0.7309 0.7304
2331.825292 0.7299 0.7294 0.7287 0.7277 0.7269
2336.214473 0.7264 0.7260 0.7260 0.7257 0.7247
2340.603654 0.7239 0.7234 0.7223 0.7198 0.7173
2344.992836 0.7148 0.7129 0.7124 0.7116 0.7101
2349.382017 0.7089 0.7084 0.7074 0.7054 0.7036
2353.771198 0.7021 0.7009 0.7004 0.7000 0.7000
2358.160379 0.6997 0.6987 0.6979 0.6974 0.6969
2362.549561 0.6964 0.6960 0.6960 0.6957 0.6947
2366.938742 0.6936 0.6920 0.6908 0.6903 0.6900
2371.327923 0.6900 0.6892 0.6867 0.6847 0.6837
2375.717104 0.6825 0.6810 0.6800 0.6800 0.6798
2380.106285 0.6793 0.6790 0.6790 0.6785 0.6770
2384.495467 0.6760 0.6760 0.6760 0.6760 0.6760
2388.884648 0.6760 0.6760 0.6760 0.6760 0.6760
2393.273829 0.6760 0.6760 0.6760 0.6760 0.6758
2397.663010 0.6753 0.6750 0.6750 0.6750 0.6750
2402.052192 0.6748 0.6743 0.6740 0.6740 0.6735
2406.441373 0.6720 0.6707 0.6697 0.6688 0.6683
2410.830554 0.6675 0.6660 0.6650 0.6650 0.6648
2415.219735 0.6643 0.6640 0.6640 0.6637 0.6627
2419.608917 0.6618 0.6613 0.6608 0.6603 0.6600
2423.998098 0.6600 0.6596 0.6586 0.6576 0.6566
2428.387279 0.6560 0.6560 0.6556 0.6546 0.6538
2432.776460 0.6533 0.6526 0.6516 0.6508 0.6503
2437.165642 0.6498 0.6493 0.6486 0.6476 0.6468
2441.554823 0.6463 0.6454 0.6439 0.6428 0.6423
2445.944004 0.6416 0.6406 0.6396 0.6386 0.6376
2450.333185 0.6366 0.6358 0.6353 0.6345 0.6330
2454.722367 0.6318 0.6313 0.6306 0.6296 0.6286
2459.111548 0.6276 0.6266 0.6256 0.6240 0.6215
2463.500729 0.6194 0.6179 0.6168 0.6163 0.6156
2467.889910 0.6146 0.6136 0.6126 0.6116 0.6106
2472.279092 0.6100 0.6100 0.6094 0.6079 0.6068
2476.668273 0.6063 0.6060 0.6060 0.6060 0.6060
2481.057454 0.6060 0.6060 0.6060 0.6060 0.6060
2485.446635 0.6060 0.6060 0.6060 0.6058 0.6053
2489.835817 0.6046 0.6036 0.6028 0.6023 0.6014
2494.224998 0.5999 0.5984 0.5969 0.5952 0.5932
2498.614179 0.5916 0.5906 0.5890 0.5865 0.5838
2503.003360 0.5808 0.5786 0.5776 0.5764 0.5749
2507.392542 0.5738 0.5733 0.5724 0.5709 0.5698
2511.781723 0.5693 0.5684 0.5669 0.5658 0.5653
2516.170904 0.5650 0.5650 0.5646 0.5636 0.5630
2520.560085 0.5630 0.5630 0.5630 0.5630 0.5630
2524.949267 0.5628 0.5623 0.5620 0.5620 0.5620
2529.338448 0.5620 0.5620 0.5620 0.5620 0.5620
2533.727629 0.5620 0.5620 0.5618 0.5613 0.5610
2538.116810 0.5610 0.5606 0.5596 0.5586 0.5576
2542.505992 0.5566 0.5555 0.5548 0.5543 0.5535
2546.895173 0.5525 0.5518 0.5513 0.5508 0.5503
2551.284354 0.5500 0.5500 0.5495 0.5485 0.5478
2555.673535 0.5473 0.5456 0.5426 0.5401 0.5381
2560.062717 0.5365 0.5355 0.5336 0.5306 0.5278
2564.451898 0.5253 0.5226 0.5196 0.5171 0.5151
2568.841079 0.5138 0.5133 0.5109 0.5064 0.5031
2573.230260 0.5011 0.4981 0.4941 0.4911 0.4891
2577.619442 0.4871 0.4850 0.4825 0.4795 0.4770
2582.008623 0.4750 0.4723 0.4688 0.4663 0.4648
2586.397804 0.4638 0.4633 0.4628 0.4623 0.4615
2590.786985 0.4605 0.4595 0.4585 0.4573 0.4558
2595.176167 0.4535 0.4505 0.4485 0.4475 0.4462
2599.565348 0.4447 0.4425 0.4395 0.4362 0.4327
2603.954529 0.4295 0.4265 0.4233 0.4198 0.4165
2608.343710 0.4135 0.4103 0.4068 0.4033 0.3998
2612.732892 0.3960 0.3920 0.3872 0.3817 0.3777
2617.122073 0.3752 0.3730 0.3710 0.3692 0.3677
2621.511254 0.3665 0.3655 0.3655 0.3665 0.3670
2625.900435 0.3670 0.3678 0.3693 0.3703 0.3708
2630.289616 0.3723 0.3748 0.3779 0.3814 0.3849
2634.678798 0.3884 0.3916 0.3946 0.3963 0.3968
2639.067979 0.3973 0.3978 0.3980 0.3980 0.3980
2643.457160 0.3980 0.3980 0.3980 0.3980 0.3980
2647.846341 0.3975 0.3965 0.3952 0.3937 0.3922
2652.235523 0.3907 0.3892 0.3877 0.3859 0.3839
2656.624704 0.3811 0.3776 0.3760 0.3760 0.3755
2661.013885 0.3745 0.3735 0.3725 0.3717 0.3712
2665.403066 0.3710 0.3710 0.3710 0.3710 0.3710
2669.792248 0.3710 0.3710 0.3710 0.3713 0.3718
2674.181429 0.3720 0.3720 0.3726 0.3736 0.3743
2678.570610 0.3748 0.3750 0.3750 0.3753 0.3758
2682.959791 0.3760 0.3760 0.3760 0.3760 0.3766
2687.348973 0.3776 0.3783 0.3788 0.3799 0.3814
2691.738154 0.3831 0.3851 0.3871 0.3891 0.3911
2696.127335 0.3931 0.3949 0.3964 0.3970 0.3970
2700.516516 0.3970 0.3970 0.3970 0.3970 0.3970
2704.905698 0.3970 0.3967 0.3962 0.3960 0.3960
2709.294879 0.3951 0.3936 0.3918 0.3898 0.3881
2713.684060 0.3866 0.3848 0.3828 0.3811 0.3796
2718.073241 0.3781 0.3766 0.3745 0.3720 0.3692
2722.462423 0.3662 0.3644 0.3634 0.3618 0.3598
2726.851604 0.3575 0.3550 0.3513 0.3468 0.3450
2731.240785 0.3450 0.3441 0.3426 0.3417 0.3412
2735.629966 0.3401 0.3386 0.3377 0.3372 0.3361
2740.019148 0.3346 0.3334 0.3324 0.3314 0.3304
2744.408329 0.3294 0.3284 0.3271 0.3256 0.3238
2748.797510 0.3218 0.3207 0.3202 0.3191 0.3176
2753.186691 0.3161 0.3146 0.3127 0.3107 0.3065
2757.575873 0.3010 0.2990 0.2990 0.2977 0.2957
2761.965054 0.2941 0.2926 0.2907 0.2887 0.2874
2766.354235 0.2864 0.2851 0.2836 0.2830 0.2830
2770.743416 0.2830 0.2830 0.2824 0.2814 0.2810
2775.132598 0.2810 0.2810 0.2810 0.2810 0.2810
2779.521779 0.2807 0.2802 0.2800 0.2800 0.2797
2783.910960 0.2792 0.2784 0.2774 0.2764 0.2754
2788.300141 0.2740 0.2725 0.2713 0.2703 0.2697
2792.689323 0.2692 0.2680 0.2665 0.2660 0.2660
2797.078504 0.2647 0.2627 0.2607 0.2587 0.2567
2801.467685 0.2547 0.2527 0.2507 0.2487 0.2467
2805.856866 0.2447 0.2427 0.2413 0.2403 0.2370
2810.246048 0.2325 0.2290 0.2260 0.2236 0.2216
2814.635229 0.2200 0.2185 0.2177 0.2172 0.2160
2819.024410 0.2145 0.2116 0.2081 0.2060 0.2045
2823.413591 0.2033 0.2023 0.2020 0.2020 0.2013
2827.802773 0.2003 0.2000 0.2000 0.1993 0.1983
2832.191954 0.1980 0.1980 0.1980 0.1980 0.1980
2836.581135 0.1980 0.1973 0.1963 0.1960 0.1960
2840.970316 0.1960 0.1960 0.1960 0.1960 0.1956
2845.359498 0.1951 0.1950 0.1950 0.1943 0.1933
2849.748679 0.1930 0.1930 0.1926 0.1921 0.1920
2854.137860 0.1920 0.1916 0.1911 0.1914 0.1919
2858.527041 0.1916 0.1911 0.1910 0.1910 0.1903
2862.916222 0.1893 0.1886 0.1881 0.1876 0.1871
2867.305404 0.1848 0.1818 0.1810 0.1810 0.1792
2871.694585 0.1767 0.1742 0.1717 0.1692 0.1667
2876.083766 0.1656 0.1651 0.1632 0.1607 0.1596
2880.472947 0.1591 0.1575 0.1555 0.1524 0.1489
2884.862129 0.1454 0.1419 0.1395 0.1375 0.1359
2889.251310 0.1344 0.1336 0.1331 0.1315 0.1295
2893.640491 0.1253 0.1203 0.1179 0.1164 0.1156
2898.029672 0.1151 0.1135 0.1115 0.1106 0.1101
2902.418854 0.1078 0.1048 0.1029 0.1014 0.0995
2906.808035 0.0975 0.0918 0.0848 0.0815 0.0795
2911.197216 0.0782 0.0772 0.0759 0.0744 0.0732
2915.586397 0.0722 0.0720 0.0720 0.0716 0.0711
2919.975579 0.0706 0.0701 0.0692 0.0682 0.0676
2924.364760 0.0671 0.0666 0.0661 0.0652 0.0642
2928.753941 0.0636 0.0631 0.0622 0.0612 0.0606
2933.143122 0.0601 0.0596 0.0591 0.0578 0.0563
2937.532304 0.0556 0.0551 0.0542 0.0532 0.0518
2941.921485 0.0503 0.0496 0.0491 0.0478 0.0463
2946.310666 0.0452 0.0442 0.0432 0.0422 0.0416
2950.699847 0.0411 0.0386 0.0356 0.0334 0.0314
2955.089029 0.0298 0.0283 0.0280 0.0280 0.0276
2959.478210 0.0271 0.0270 0.0270 0.0270 0.0270
2963.867391 0.0270 0.0270 0.0270 0.0270 0.0270
2968.256572 0.0270 0.0270 0.0270 0.0274 0.0279
2972.645754 0.0292 0.0307 0.0318 0.0328 0.0334
2977.034935 0.0339 0.0344 0.0349 0.0358 0.0368
2981.424116 0.0378 0.0388 0.0402 0.0417 0.0436
2985.813297 0.0456 0.0468 0.0478 0.0484 0.0489
2990.202479 0.0506 0.0526 0.0559 0.0594 0.0616
2994.591660 0.0636 0.0652 0.0667 0.0686 0.0706
2998.980841 0.0722 0.0738 0.0753 0.0768 0.0795
3003.370022 0.0825 0.0859 0.0894 0.0946 0.1001
3007.759204 0.1027 0.1047 0.1063 0.1078 0.1093
3012.148385 0.1108 0.1123 0.1138 0.1140 0.1140
3016.537566 0.1144 0.1149 0.1163 0.1178 0.1180
3020.926747 0.1180 0.1184 0.1189 0.1199 0.1209
3025.315929 0.1219 0.1229 0.1239 0.1249 0.1254
3029.705110 0.1259 0.1273 0.1288 0.1303 0.1318
3034.094291 0.1329 0.1339 0.1353 0.1368 0.1374
3038.483472 0.1379 0.1393 0.1408 0.1423 0.1438
3042.872654 0.1453 0.1468 0.1474 0.1479 0.1484
3047.261835 0.1489 0.1490 0.1490 0.1490 0.1490
3051.651016 0.1503 0.1518 0.1520 0.1520 0.1538
3056.040197 0.1558 0.1560 0.1560 0.1560 0.1560
3060.429379 0.1569 0.1579 0.1580 0.1580 0.1589
3064.818560 0.1599 0.1609 0.1619 0.1620 0.1620
3069.207741 0.1624 0.1629 0.1643 0.1658 0.1660
3073.596922 0.1660 0.1664 0.1669 0.1670 0.1670
3077.986104 0.1670 0.1670 0.1670 0.1670 0.1670
3082.375285 0.1670 0.1670 0.1670 0.1666 0.1661
3086.764466 0.1660 0.1660 0.1660 0.1660 0.1660
3091.153647 0.1660 0.1655 0.1650 0.1650 0.1650
3095.542829 0.1650 0.1650 0.1641 0.1631 0.1625
3099.932010 0.1620 0.1620 0.1620 0.1620 0.1620
3104.321191 0.1611 0.1601 0.1600 0.1600 0.1600
3108.710372 0.1600 0.1595 0.1590 0.1590 0.1590
3113.099553 0.1585 0.1580 0.1562 0.1542 0.1526
3117.488735 0.1511 0.1501 0.1491 0.1485 0.1480
3121.877916 0.1475 0.1470 0.1456 0.1441 0.1435
3126.267097 0.1430 0.1421 0.1411 0.1396 0.1381
3130.656278 0.1361 0.1341 0.1335 0.1330 0.1316
3135.045460 0.1301 0.1295 0.1290 0.1276 0.1261
3139.434641 0.1255 0.1250 0.1240 0.1230 0.1230
3143.823822 0.1230 0.1225 0.1220 0.1220 0.1220
3148.213003 0.1220 0.1220 0.1225 0.1230 0.1230
3152.602185 0.1230 0.1240 0.1250 0.1255 0.1260
3156.991366 0.1265 0.1270 0.1270 0.1270 0.1285
3161.380547 0.1300 0.1310 0.1320 0.1325 0.1330
3165.769728 0.1330 0.1330 0.1330 0.1330 0.1330
3170.158910 0.1330 0.1325 0.1320 0.1310 0.1300
3174.548091 0.1295 0.1290 0.1290 0.1290 0.1275
3178.937272 0.1260 0.1245 0.1230 0.1220 0.1210
3183.326453 0.1195 0.1180 0.1170 0.1160 0.1160
3187.715635 0.1160 0.1155 0.1150 0.1145 0.1140
3192.104816 0.1130 0.1120 0.1120 0.1120 0.1115
3196.493997 0.1110 0.1105 0.1100 0.1090 0.1080
3200.883178 0.1075 0.1070 0.1070 0.1070 0.1060
3205.272360 0.1050 0.1050 0.1050 0.1045 0.1040
3209.661541 0.1040 0.1040 0.1035 0.1030 0.1030
3214.050722 0.1030 0.1010 0.0990 0.0980 0.0970
3218.439903 0.0965 0.0960 0.0945 0.0930 0.0915
3222.829085 0.0900 0.0895 0.0890 0.0875 0.0860
3227.218266 0.0840 0.0819 0.0799 0.0780 0.0765
3231.607447 0.0750 0.0745 0.0740 0.0725 0.0710
3235.996628 0.0705 0.0700 0.0685 0.0670 0.0665
3240.385810 0.0659 0.0634 0.0610 0.0600 0.0590
3244.774991 0.0574 0.0559 0.0544 0.0529 0.0514
3249.164172 0.0500 0.0500 0.0500 0.0500 0.0500
3253.553353 0.0510 0.0520 0.0525 0.0530 0.0540
3257.942535 0.0550 0.0555 0.0560 0.0565 0.0570
3262.331716 0.0580 0.0590 0.0595 0.0600 0.0605
3266.720897 0.0611 0.0636 0.0661 0.0671 0.0681
3271.110078 0.0701 0.0721 0.0746 0.0771 0.0781
3275.499260 0.0791 0.0801 0.0811 0.0836 0.0862
3279.888441 0.0892 0.0921 0.0931 0.0942 0.0972
3284.277622 0.1000 0.1000 0.1000 0.1005 0.1010
3288.666803 0.1010 0.1010 0.1010 0.1010 0.1010
3293.055985 0.1010 0.1010 0.1010 0.1010 0.1010
3297.445166 0.1010 0.1010 0.1010 0.1010 0.1010
3301.834347 0.1010 0.1010 0.1009 0.0999 0.0990
3306.223528 0.0990 0.0990 0.0990 0.0989 0.0979
3310.612710 0.0969 0.0954 0.0940 0.0940 0.0938
3315.001891 0.0918 0.0897 0.0872 0.0848 0.0828
3319.391072 0.0809 0.0799 0.0789 0.0784 0.0777
3323.780253 0.0747 0.0718 0.0698 0.0679 0.0669
3328.169435 0.0659 0.0644 0.0629 0.0614 0.0597
3332.558616 0.0561 0.0529 0.0524 0.0519 0.0509
3336.947797 0.0501 0.0511 0.0520 0.0520 0.0522
3341.336978 0.0537 0.0551 0.0556 0.0561 0.0566
3345.726160 0.0572 0.0592 0.0611 0.0621 0.0632
3350.115341 0.0647 0.0663 0.0683 0.0705 0.0740
3354.504522 0.0774 0.0804 0.0842 0.0932 0.1011
3358.893703 0.1021 0.1035 0.1070 0.1108 0.1173
3363.282884 0.1235 0.1270 0.1304 0.1334 0.1363
3367.672066 0.1383 0.1407 0.1452 0.1500 0.1570
3372.061247 0.1637 0.1687 0.1734 0.1759 0.1781
3376.450428 0.1791 0.1809 0.1869 0.1930 0.2000
3380.839609 0.2066 0.2111 0.2161 0.2241 0.2318
3385.228791 0.2373 0.2420 0.2420 0.2427 0.2472
3389.617972 0.2520 0.2585 0.2649 0.2704 0.2760
3394.007153 0.2825 0.2890 0.2955 0.3019 0.3074
3398.396334 0.3136 0.3236 0.3325 0.3355 0.3391
3402.785516 0.3462 0.3526 0.3561 0.3592 0.3602
3407.174697 0.3614 0.3633 0.3653 0.3668 0.3690
3411.563878 0.3745 0.3802 0.3872 0.3934 0.3959
3415.953059 0.3984 0.4009 0.4032 0.4042 0.4055
3420.342241 0.4085 0.4119 0.4164 0.4209 0.4259
3424.731422 0.4308 0.4348 0.4384 0.4404 0.4426
3429.120603 0.4456 0.4484 0.4504 0.4529 0.4579
3433.509784 0.4632 0.4697 0.4757 0.4792 0.4822
3437.898966 0.4832 0.4842 0.4852 0.4865 0.4890
3442.288147 0.4919 0.4964 0.5006 0.5036 0.5064
3446.677328 0.5084 0.5107 0.5142 0.5178 0.5218
3451.066509 0.5255 0.5280 0.5307 0.5342 0.5384
3455.455691 0.5455 0.5517 0.5547 0.5572 0.5582
3459.844872 0.5602 0.5657 0.5708 0.5743 0.5778
3464.234053 0.5813 0.5844 0.5864 0.5887 0.5917
3468.623234 0.5944 0.5964 0.5984 0.6004 0.6028
3473.012416 0.6063 0.6099 0.6139 0.6178 0.6213
3477.401597 0.6246 0.6271 0.6290 0.6290 0.6298
3481.790778 0.6333 0.6370 0.6415 0.6452 0.6462
3486.179959 0.6477 0.6507 0.6533 0.6548 0.6562
3490.569141 0.6572 0.6585 0.6605 0.6629 0.6664
3494.958322 0.6694 0.6709 0.6725 0.6745 0.6767
3499.347503 0.6797 0.6825 0.6845 0.6864 0.6879
3503.736684 0.6892 0.6902 0.6914 0.6929 0.6945
3508.125866 0.6965 0.6985 0.7005 0.7027 0.7052
3512.515047 0.7073 0.7083 0.7095 0.7115 0.7137
3516.904228 0.7162 0.7188 0.7218 0.7243 0.7253
3521.293409 0.7261 0.7266 0.7274 0.7289 0.7301
3525.682591 0.7306 0.7314 0.7329 0.7344 0.7359
3530.071772 0.7371 0.7376 0.7384 0.7399 0.7414
3534.460953 0.7429 0.7441 0.7446 0.7454 0.7469
3538.850134 0.7481 0.7486 0.7493 0.7503 0.7511
3543.239316 0.7516 0.7521 0.7526 0.7533 0.7543
3547.628497 0.7551 0.7556 0.7561 0.7566 0.7570
3552.017678 0.7570 0.7573 0.7583 0.7591 0.7596
3556.406859 0.7603 0.7613 0.7621 0.7626 0.7631
3560.796041 0.7636 0.7640 0.7640 0.7643 0.7653
3565.185222 0.7660 0.7660 0.7660 0.7660 0.7662
3569.574403 0.7667 0.7670 0.7670 0.7670 0.7670
3573.963584 0.7670 0.7670 0.7672 0.7677 0.7680
3578.352766 0.7680 0.7680 0.7680 0.7680 0.7680
3582.741947 0.7680 0.7680 0.7680 0.7680 0.7680
3587.131128 0.7680 0.7680 0.7680 0.7680 0.7680
3591.520309 0.7678 0.7673 0.7670 0.7670 0.7670
3595.909491 0.7670 0.7670 0.7670 0.7668 0.7663
3600.298672 0.7660 0.7660 0.7660 0.7660 0.7660
3604.687853 0.7660 0.7657 0.7647 0.7640 0.7640
3609.077034 0.7640 0.7640 0.7640 0.7640 0.7638
3613.466215 0.7633 0.7630 0.7630 0.7628 0.7623
3617.855397 0.7620 0.7620 0.7620 0.7620 0.7620
3622.244578 0.7620 0.7616 0.7607 0.7600 0.7600
3626.633759 0.7600 0.7600 0.7598 0.7593 0.7590
3631.022940 0.7590 0.7590 0.7590 0.7586 0.7576
3635.412122 0.7570 0.7570 0.7570 0.7570 0.7568
3639.801303 0.7563 0.7560 0.7560 0.7560 0.7560
3644.190484 0.7558 0.7553 0.7550 0.7550 0.7546
3648.579665 0.7536 0.7530 0.7530 0.7530 0.7530
3652.968847 0.7528 0.7523 0.7520 0.7520 0.7518
3657.358028 0.7513 0.7510 0.7510 0.7506 0.7496
3661.747209 0.7490 0.7490 0.7490 0.7490 0.7488
3666.136390 0.7483 0.7480 0.7480 0.7476 0.7466
3670.525572 0.7460 0.7460 0.7458 0.7453 0.7450
3674.914753 0.7450 0.7448 0.7443 0.7440 0.7440
3679.303934 0.7440 0.7440 0.7436 0.7426 0.7420
3683.693115 0.7420 0.7418 0.7413 0.7410 0.7410
3688.082297 0.7408 0.7403 0.7396 0.7386 0.7380
3692.471478 0.7380 0.7378 0.7373 0.7370 0.7370
3696.860659 0.7366 0.7356 0.7350 0.7350 0.7348
3701.249840 0.7343 0.7340 0.7340 0.7338 0.7333
3705.639022 0.7330 0.7330 0.7326 0.7316 0.7310
3710.028203 0.7310 0.7308 0.7303 0.7300 0.7300
3714.417384 0.7298 0.7293 0.7290 0.7290 0.7286
3718.806565 0.7276 0.7270 0.7270 0.7268 0.7263
3723.195747 0.7260 0.7260 0.7256 0.7246 0.7240
3727.584928 0.7240 0.7236 0.7226 0.7220 0.7220
3731.974109 0.7220 0.7220 0.7216 0.7206 0.7200
3736.363290 0.7200 0.7198 0.7193 0.7190 0.7190
3740.752472 0.7188 0.7183 0.7180 0.7180 0.7180
3745.141653 0.7180 0.7175 0.7165 0.7160 0.7160
3749.530834 0.7158 0.7153 0.7150 0.7150 0.7145
3753.920015 0.7135 0.7130 0.7130 0.7130 0.7130
3758.309197 0.7128 0.7123 0.7120 0.7120 0.7118
3762.698378 0.7113 0.7110 0.7110 0.7105 0.7095
3767.087559 0.7088 0.7083 0.7080 0.7080 0.7078
3771.476740 0.7073 0.7070 0.7070 0.7065 0.7055
3775.865922 0.7050 0.7050 0.7048 0.7043 0.7040
3780.255103 0.7040 0.7035 0.7025 0.7020 0.7020
3784.644284 0.7018 0.7013 0.7010 0.7010 0.7008
3789.033465 0.7003 0.6995 0.6985 0.6980 0.6980
3793.422647 0.6978 0.6973 0.6970 0.6970 0.6968
3797.811828 0.6963 0.6960 0.6960 0.6960 0.6960
3802.201009 0.6960 0.6960
##END=
