##TITLE=POTASSIUM HEXAFLUOTITANATE
$$ B+A REAGENT GRADE
##JCAMP-DX=4.24
##DATA TYPE=INFRARED SPECTRUM
##CLASS=COBLENTZ
##ORIGIN=WYANDOTTE CHEMICALS CORP., WYANDOTTE, MICHIGAN, USA
##OWNER=COBLENTZ SOCIETY
Collection (C) 2018 copyright by the U.S. Secretary of Commerce
on behalf of the United States of America. All rights reserved.
##DATE=Not specified, most likely prior to 1970
##MOLFORM=K2 Ti F6
##SOURCE REFERENCE=COBLENTZ NO. 1435
##$NIST ID=B6001435
##$NIST SOURCE=COBLENTZ
##$NIST IMAGE=cob1435
##SPECTROMETER/DATA SYSTEM=Not specified, most likely a prism, grating, or hybrid spectrometer.
##STATE=SOLID (MINERAL OIL MULL)
##PATH LENGTH=
$$SPECTRAL CONTAMINATION DUE TO OIL AROUND 2900, 1450, 1380 CM^-^1
##SAMPLING PROCEDURE=TRANSMISSION
##RESOLUTION=4
##DATA PROCESSING=DIGITIZED BY NIST FROM HARD COPY
##XUNITS=MICROMETERS
##YUNITS=TRANSMITTANCE
##XFACTOR=1.000000
##YFACTOR=1
##DELTAX=000.006816
##FIRSTX=2.02
##LASTX=15.9864
##FIRSTY=0.931
##MAXX=15.9864
##MINX=2.02
##MAXY=0.964
##MINY=0.051
##NPOINTS=2050
##XYDATA=(X++(Y..Y))
2.020000 0.9310 0.9330 0.9360 0.9360 0.9380
2.054096 0.9400 0.9410 0.9410 0.9410 0.9410
2.089000 0.9430 0.9430 0.9430 0.9430 0.9430
2.123096 0.9430 0.9450 0.9470 0.9470 0.9480
2.157000 0.9500 0.9500 0.9520 0.9530 0.9530
2.191096 0.9530 0.9520 0.9520 0.9480 0.9400
2.225000 0.9380 0.9310 0.9280 0.9230 0.9190
2.259096 0.9180 0.9140 0.9110 0.9110 0.9090
2.293000 0.9070 0.9040 0.9020 0.9020 0.9010
2.327096 0.8990 0.8990 0.8990 0.9010 0.9010
2.361000 0.9010 0.9020 0.9020 0.9020 0.9020
2.395096 0.9020 0.9020 0.9020 0.9010 0.9010
2.429000 0.9010 0.9020 0.9040 0.9060 0.9070
2.463096 0.9110 0.9120 0.9140 0.9140 0.9190
2.498000 0.9230 0.9240 0.9260 0.9300 0.9310
2.532096 0.9310 0.9330 0.9330 0.9360 0.9360
2.566000 0.9380 0.9400 0.9410 0.9430 0.9430
2.600096 0.9450 0.9450 0.9480 0.9520 0.9520
2.634000 0.9530 0.9530 0.9570 0.9590 0.9600
2.668096 0.9620 0.9620 0.9640 0.9640 0.9640
2.702000 0.9640 0.9640 0.9640 0.9640 0.9640
2.736096 0.9640 0.9640 0.9640 0.9620 0.9620
2.770000 0.9620 0.9620 0.9620 0.9620 0.9620
2.804096 0.9620 0.9600 0.9600 0.9600 0.9600
2.838000 0.9600 0.9600 0.9590 0.9590 0.9570
2.872096 0.9550 0.9530 0.9520 0.9500 0.9480
2.907000 0.9450 0.9430 0.9410 0.9380 0.9360
2.941096 0.9350 0.9350 0.9330 0.9330 0.9310
2.975000 0.9300 0.9300 0.9280 0.9280 0.9260
3.009096 0.9240 0.9230 0.9210 0.9210 0.9210
3.043000 0.9190 0.9180 0.9180 0.9160 0.9160
3.077096 0.9140 0.9140 0.9140 0.9140 0.9140
3.111000 0.9120 0.9110 0.9060 0.9060 0.9040
3.145096 0.9020 0.9010 0.8990 0.8970 0.8920
3.179000 0.8900 0.8870 0.8870 0.8830 0.8820
3.213096 0.8780 0.8770 0.8770 0.8750 0.8730
3.247000 0.8730 0.8680 0.8630 0.8560 0.8480
3.281096 0.8390 0.8290 0.8150 0.8000 0.7790
3.315000 0.7520 0.7160 0.6580 0.5970 0.5270
3.349096 0.4470 0.3510 0.2900 0.2440 0.1890
3.384000 0.1650 0.1480 0.1290 0.1120 0.1000
3.418096 0.0900 0.0810 0.0760 0.0710 0.0680
3.452000 0.0630 0.0590 0.0580 0.0560 0.0540
3.486096 0.0540 0.0520 0.0510 0.0510 0.0510
3.520000 0.0510 0.0510 0.0520 0.0590 0.0710
3.554096 0.0920 0.1210 0.1530 0.1870 0.2210
3.588000 0.2590 0.2960 0.3360 0.3750 0.4140
3.622096 0.4410 0.4650 0.4880 0.5060 0.5250
3.656000 0.5400 0.5560 0.5660 0.5750 0.5810
3.690096 0.5830 0.5900 0.5930 0.5980 0.6050
3.724000 0.6120 0.6190 0.6270 0.6330 0.6380
3.758096 0.6410 0.6460 0.6500 0.6530 0.6560
3.793000 0.6620 0.6650 0.6700 0.6750 0.6800
3.827096 0.6820 0.6840 0.6910 0.6970 0.7030
3.861000 0.7080 0.7130 0.7160 0.7210 0.7250
3.895096 0.7300 0.7350 0.7380 0.7440 0.7470
3.929000 0.7520 0.7550 0.7610 0.7640 0.7710
3.963096 0.7760 0.7790 0.7830 0.7880 0.7910
3.997000 0.7960 0.8000 0.8030 0.8070 0.8100
4.031096 0.8120 0.8130 0.8190 0.8200 0.8220
4.065000 0.8240 0.8240 0.8270 0.8290 0.8310
4.099096 0.8320 0.8320 0.8340 0.8340 0.8340
4.133000 0.8360 0.8390 0.8430 0.8440 0.8440
4.167096 0.8440 0.8460 0.8460 0.8480 0.8480
4.202000 0.8480 0.8510 0.8530 0.8530 0.8540
4.236096 0.8540 0.8540 0.8540 0.8530 0.8510
4.270000 0.8490 0.8480 0.8480 0.8480 0.8480
4.304096 0.8490 0.8530 0.8530 0.8540 0.8580
4.338000 0.8580 0.8600 0.8610 0.8650 0.8700
4.372096 0.8720 0.8730 0.8730 0.8750 0.8770
4.406000 0.8780 0.8780 0.8780 0.8780 0.8780
4.440096 0.8770 0.8770 0.8750 0.8750 0.8750
4.474000 0.8750 0.8750 0.8750 0.8750 0.8750
4.508096 0.8750 0.8750 0.8750 0.8750 0.8750
4.542000 0.8750 0.8750 0.8750 0.8750 0.8750
4.576096 0.8750 0.8750 0.8750 0.8730 0.8720
4.611000 0.8720 0.8720 0.8700 0.8700 0.8700
4.645096 0.8680 0.8660 0.8660 0.8660 0.8660
4.679000 0.8660 0.8660 0.8650 0.8650 0.8650
4.713096 0.8630 0.8630 0.8610 0.8580 0.8580
4.747000 0.8540 0.8540 0.8530 0.8530 0.8510
4.781096 0.8490 0.8480 0.8460 0.8430 0.8430
4.815000 0.8430 0.8430 0.8430 0.8440 0.8460
4.849096 0.8490 0.8510 0.8540 0.8580 0.8610
4.883000 0.8630 0.8660 0.8720 0.8750 0.8780
4.917096 0.8800 0.8830 0.8870 0.8900 0.8920
4.951000 0.8940 0.8950 0.8990 0.8990 0.9010
4.985096 0.9020 0.9020 0.9020 0.9040 0.9040
5.019000 0.9060 0.9060 0.9060 0.9060 0.9060
5.053096 0.9060 0.9060 0.9060 0.9060 0.9070
5.088000 0.9090 0.9110 0.9110 0.9110 0.9110
5.122096 0.9110 0.9110 0.9110 0.9120 0.9120
5.156000 0.9140 0.9140 0.9160 0.9160 0.9160
5.190096 0.9160 0.9160 0.9160 0.9140 0.9120
5.224000 0.9120 0.9120 0.9120 0.9110 0.9110
5.258096 0.9090 0.9090 0.9090 0.9090 0.9090
5.292000 0.9090 0.9090 0.9090 0.9090 0.9090
5.326096 0.9090 0.9090 0.9090 0.9090 0.9110
5.360000 0.9090 0.9090 0.9090 0.9070 0.9070
5.394096 0.9070 0.9070 0.9060 0.9060 0.9060
5.428000 0.9040 0.9040 0.9040 0.9020 0.9020
5.462096 0.9010 0.9010 0.9010 0.9010 0.8970
5.497000 0.8970 0.8970 0.8970 0.8970 0.8950
5.531096 0.8950 0.8940 0.8940 0.8940 0.8920
5.565000 0.8900 0.8900 0.8900 0.8890 0.8890
5.599096 0.8870 0.8830 0.8820 0.8820 0.8800
5.633000 0.8800 0.8770 0.8730 0.8730 0.8720
5.667096 0.8680 0.8680 0.8660 0.8650 0.8610
5.701000 0.8540 0.8510 0.8510 0.8410 0.8320
5.735096 0.8290 0.8220 0.8120 0.8050 0.8020
5.769000 0.8000 0.8000 0.7980 0.7910 0.7910
5.803096 0.7840 0.7740 0.7710 0.7690 0.7660
5.837000 0.7640 0.7610 0.7540 0.7500 0.7420
5.871096 0.7400 0.7380 0.7350 0.7330 0.7300
5.906000 0.7230 0.7180 0.7110 0.7030 0.6960
5.940096 0.6840 0.6820 0.6800 0.6720 0.6670
5.974000 0.6620 0.6600 0.6550 0.6510 0.6460
6.008096 0.6390 0.6330 0.6270 0.6220 0.6190
6.042000 0.6160 0.6140 0.6100 0.6090 0.6040
6.076096 0.6000 0.5970 0.5870 0.5830 0.5810
6.110000 0.5800 0.5750 0.5710 0.5640 0.5610
6.144096 0.5560 0.5520 0.5510 0.5490 0.5470
6.178000 0.5470 0.5460 0.5460 0.5440 0.5440
6.212096 0.5440 0.5440 0.5440 0.5460 0.5490
6.246000 0.5520 0.5580 0.5630 0.5660 0.5690
6.280096 0.5730 0.5800 0.5870 0.5950 0.6000
6.315000 0.6040 0.6070 0.6170 0.6260 0.6310
6.349096 0.6360 0.6410 0.6430 0.6460 0.6500
6.383000 0.6510 0.6560 0.6680 0.6740 0.6770
6.417096 0.6800 0.6820 0.6820 0.6840 0.6840
6.451000 0.6870 0.6870 0.6890 0.6910 0.6940
6.485096 0.6940 0.6970 0.6990 0.6990 0.7010
6.519000 0.7030 0.7030 0.7030 0.7030 0.7030
6.553096 0.7040 0.7040 0.7040 0.7040 0.7030
6.587000 0.7010 0.6970 0.6960 0.6940 0.6920
6.621096 0.6890 0.6870 0.6860 0.6790 0.6720
6.655000 0.6650 0.6620 0.6550 0.6510 0.6480
6.689096 0.6390 0.6330 0.6290 0.6160 0.5980
6.723000 0.5870 0.5560 0.5350 0.5130 0.4860
6.757096 0.4570 0.4240 0.3870 0.3460 0.3000
6.792000 0.2490 0.2090 0.1450 0.1170 0.1050
6.826096 0.0980 0.0920 0.0880 0.0880 0.0870
6.860000 0.0880 0.0900 0.0920 0.0950 0.1000
6.894096 0.1100 0.1260 0.1340 0.1410 0.1580
6.928000 0.1960 0.2080 0.2280 0.2540 0.2830
6.962096 0.3130 0.3460 0.3730 0.3990 0.4180
6.996000 0.4530 0.4840 0.5100 0.5320 0.5510
7.030096 0.5680 0.5810 0.5950 0.6000 0.6070
7.064000 0.6160 0.6220 0.6260 0.6310 0.6360
7.098096 0.6430 0.6460 0.6480 0.6500 0.6510
7.132000 0.6510 0.6510 0.6500 0.6500 0.6460
7.166096 0.6450 0.6410 0.6330 0.6220 0.5930
7.201000 0.5510 0.5150 0.4840 0.4480 0.4070
7.235096 0.3510 0.3070 0.2740 0.2380 0.2110
7.269000 0.1960 0.1910 0.1910 0.1990 0.2300
7.303096 0.2500 0.2730 0.2860 0.2980 0.3150
7.337000 0.3310 0.3510 0.3780 0.4010 0.4190
7.371096 0.4350 0.4480 0.4570 0.4690 0.4770
7.405000 0.4790 0.4810 0.4840 0.4880 0.4910
7.439096 0.4940 0.4980 0.5000 0.5000 0.5010
7.473000 0.5030 0.5080 0.5130 0.5200 0.5250
7.507096 0.5290 0.5340 0.5390 0.5440 0.5490
7.541000 0.5560 0.5610 0.5640 0.5680 0.5690
7.575096 0.5690 0.5710 0.5710 0.5710 0.5680
7.610000 0.5660 0.5660 0.5640 0.5630 0.5630
7.644096 0.5610 0.5580 0.5560 0.5560 0.5540
7.678000 0.5540 0.5540 0.5540 0.5540 0.5540
7.712096 0.5540 0.5540 0.5540 0.5540 0.5580
7.746000 0.5610 0.5640 0.5640 0.5660 0.5680
7.780096 0.5690 0.5690 0.5710 0.5690 0.5690
7.814000 0.5690 0.5690 0.5690 0.5690 0.5690
7.848096 0.5710 0.5710 0.5710 0.5710 0.5730
7.882000 0.5730 0.5730 0.5730 0.5730 0.5730
7.916096 0.5750 0.5750 0.5750 0.5750 0.5750
7.950000 0.5760 0.5760 0.5760 0.5780 0.5800
7.984096 0.5800 0.5800 0.5810 0.5810 0.5810
8.019000 0.5810 0.5810 0.5810 0.5810 0.5800
8.053096 0.5800 0.5800 0.5780 0.5780 0.5760
8.087000 0.5760 0.5750 0.5730 0.5710 0.5690
8.121096 0.5680 0.5660 0.5630 0.5610 0.5590
8.155000 0.5580 0.5580 0.5560 0.5520 0.5520
8.189096 0.5510 0.5470 0.5470 0.5460 0.5420
8.223000 0.5370 0.5290 0.5230 0.5220 0.5180
8.257096 0.5100 0.5080 0.5080 0.5080 0.5080
8.291000 0.5080 0.5080 0.5080 0.5100 0.5110
8.325096 0.5150 0.5170 0.5170 0.5180 0.5180
8.359000 0.5180 0.5180 0.5180 0.5180 0.5180
8.393096 0.5180 0.5180 0.5170 0.5130 0.5110
8.427000 0.5100 0.5080 0.5080 0.5050 0.5010
8.461096 0.4980 0.4940 0.4910 0.4880 0.4840
8.496000 0.4810 0.4770 0.4720 0.4650 0.4590
8.530096 0.4530 0.4470 0.4410 0.4380 0.4360
8.564000 0.4360 0.4360 0.4380 0.4400 0.4430
8.598096 0.4480 0.4520 0.4570 0.4600 0.4600
8.632000 0.4640 0.4670 0.4690 0.4690 0.4690
8.666096 0.4690 0.4690 0.4690 0.4690 0.4690
8.700000 0.4690 0.4690 0.4690 0.4690 0.4670
8.734096 0.4670 0.4670 0.4670 0.4670 0.4670
8.768000 0.4650 0.4650 0.4650 0.4650 0.4650
8.802096 0.4650 0.4650 0.4650 0.4650 0.4650
8.836000 0.4640 0.4640 0.4640 0.4620 0.4620
8.870096 0.4600 0.4600 0.4590 0.4570 0.4570
8.905000 0.4550 0.4530 0.4520 0.4520 0.4500
8.939096 0.4500 0.4470 0.4470 0.4450 0.4410
8.973000 0.4380 0.4380 0.4380 0.4360 0.4360
9.007096 0.4360 0.4350 0.4350 0.4350 0.4350
9.041000 0.4350 0.4350 0.4350 0.4350 0.4350
9.075096 0.4350 0.4350 0.4350 0.4350 0.4350
9.109000 0.4350 0.4350 0.4330 0.4330 0.4330
9.143096 0.4330 0.4330 0.4330 0.4310 0.4310
9.177000 0.4300 0.4280 0.4280 0.4260 0.4240
9.211096 0.4230 0.4210 0.4180 0.4160 0.4140
9.245000 0.4120 0.4090 0.4070 0.4070 0.4060
9.279096 0.4020 0.4010 0.3990 0.3990 0.3990
9.314000 0.3990 0.3990 0.3990 0.3990 0.3970
9.348096 0.3950 0.3940 0.3940 0.3900 0.3870
9.382000 0.3850 0.3830 0.3830 0.3820 0.3800
9.416096 0.3780 0.3770 0.3750 0.3720 0.3700
9.450000 0.3700 0.3680 0.3660 0.3650 0.3610
9.484096 0.3560 0.3530 0.3510 0.3480 0.3460
9.518000 0.3410 0.3390 0.3360 0.3360 0.3340
9.552096 0.3320 0.3310 0.3290 0.3290 0.3270
9.586000 0.3270 0.3250 0.3220 0.3190 0.3170
9.620096 0.3130 0.3130 0.3120 0.3120 0.3100
9.654000 0.3100 0.3080 0.3070 0.3030 0.3020
9.688096 0.3000 0.3000 0.2980 0.2980 0.2980
9.722000 0.2980 0.3000 0.3000 0.3000 0.3000
9.756096 0.3000 0.3000 0.3000 0.3020 0.3020
9.791000 0.3020 0.3030 0.3030 0.3050 0.3050
9.825096 0.3070 0.3070 0.3070 0.3080 0.3190
9.859000 0.3270 0.3320 0.3360 0.3370 0.3410
9.893096 0.3430 0.3440 0.3480 0.3510 0.3540
9.927000 0.3580 0.3630 0.3700 0.3770 0.3830
9.961096 0.3900 0.3950 0.3990 0.4040 0.4090
9.995000 0.4120 0.4180 0.4230 0.4260 0.4300
10.029096 0.4350 0.4380 0.4410 0.4410 0.4430
10.063000 0.4470 0.4480 0.4500 0.4530 0.4550
10.097096 0.4590 0.4620 0.4650 0.4700 0.4760
10.131000 0.4770 0.4790 0.4810 0.4820 0.4840
10.165096 0.4860 0.4860 0.4880 0.4880 0.4890
10.200000 0.4910 0.4930 0.4930 0.4930 0.4940
10.234096 0.4940 0.4940 0.4940 0.4940 0.4940
10.268000 0.4940 0.4940 0.4940 0.4940 0.4940
10.302096 0.4940 0.4930 0.4930 0.4930 0.4930
10.336000 0.4930 0.4930 0.4930 0.4930 0.4940
10.370096 0.4940 0.4960 0.4960 0.4980 0.4980
10.404000 0.4980 0.4980 0.4980 0.5000 0.5010
10.438096 0.5010 0.5010 0.5010 0.5010 0.5010
10.472000 0.5010 0.5010 0.5010 0.5010 0.5010
10.506096 0.5010 0.5010 0.5010 0.5010 0.5010
10.540000 0.5010 0.5010 0.5010 0.5010 0.5010
10.574096 0.5010 0.5000 0.5000 0.5000 0.4980
10.609000 0.5000 0.5000 0.4980 0.4980 0.4960
10.643096 0.4960 0.4960 0.4960 0.4960 0.4940
10.677000 0.4940 0.4930 0.4910 0.4890 0.4890
10.711096 0.4890 0.4880 0.4880 0.4880 0.4860
10.745000 0.4860 0.4860 0.4840 0.4840 0.4820
10.779096 0.4820 0.4820 0.4820 0.4820 0.4820
10.813000 0.4820 0.4820 0.4820 0.4810 0.4820
10.847096 0.4820 0.4810 0.4810 0.4810 0.4810
10.881000 0.4810 0.4810 0.4810 0.4810 0.4810
10.915096 0.4810 0.4810 0.4810 0.4810 0.4810
10.949000 0.4790 0.4790 0.4790 0.4790 0.4770
10.983096 0.4770 0.4770 0.4760 0.4760 0.4760
11.018000 0.4740 0.4760 0.4740 0.4720 0.4700
11.052096 0.4700 0.4700 0.4700 0.4700 0.4700
11.086000 0.4700 0.4700 0.4700 0.4720 0.4740
11.120096 0.4740 0.4760 0.4760 0.4770 0.4770
11.154000 0.4790 0.4790 0.4810 0.4810 0.4810
11.188096 0.4810 0.4810 0.4810 0.4790 0.4790
11.222000 0.4790 0.4790 0.4770 0.4760 0.4740
11.256096 0.4720 0.4700 0.4700 0.4700 0.4700
11.290000 0.4700 0.4700 0.4700 0.4700 0.4700
11.324096 0.4700 0.4700 0.4700 0.4700 0.4700
11.358000 0.4700 0.4700 0.4720 0.4720 0.4720
11.392096 0.4700 0.4700 0.4760 0.4760 0.4760
11.426000 0.4760 0.4760 0.4760 0.4760 0.4760
11.460096 0.4740 0.4720 0.4720 0.4700 0.4700
11.495000 0.4690 0.4670 0.4650 0.4640 0.4620
11.529096 0.4620 0.4620 0.4620 0.4620 0.4620
11.563000 0.4620 0.4620 0.4620 0.4620 0.4600
11.597096 0.4600 0.4600 0.4600 0.4600 0.4600
11.631000 0.4600 0.4590 0.4600 0.4590 0.4590
11.665096 0.4570 0.4570 0.4570 0.4550 0.4530
11.699000 0.4530 0.4520 0.4500 0.4480 0.4480
11.733096 0.4470 0.4470 0.4470 0.4470 0.4470
11.767000 0.4450 0.4450 0.4430 0.4430 0.4410
11.801096 0.4400 0.4400 0.4380 0.4360 0.4360
11.835000 0.4350 0.4350 0.4330 0.4330 0.4310
11.869096 0.4300 0.4300 0.4300 0.4300 0.4300
11.904000 0.4300 0.4300 0.4300 0.4300 0.4300
11.938096 0.4300 0.4300 0.4300 0.4300 0.4300
11.972000 0.4310 0.4310 0.4310 0.4310 0.4330
12.006096 0.4310 0.4310 0.4310 0.4310 0.4310
12.040000 0.4310 0.4310 0.4310 0.4300 0.4300
12.074096 0.4300 0.4300 0.4280 0.4280 0.4280
12.108000 0.4280 0.4280 0.4260 0.4260 0.4260
12.142096 0.4240 0.4240 0.4240 0.4230 0.4230
12.176000 0.4230 0.4230 0.4230 0.4230 0.4210
12.210096 0.4210 0.4180 0.4160 0.4160 0.4160
12.244000 0.4160 0.4160 0.4160 0.4180 0.4180
12.278096 0.4180 0.4180 0.4190 0.4190 0.4190
12.313000 0.4190 0.4190 0.4180 0.4180 0.4140
12.347096 0.4140 0.4140 0.4140 0.4140 0.4140
12.381000 0.4140 0.4140 0.4120 0.4120 0.4110
12.415096 0.4110 0.4090 0.4090 0.4070 0.4070
12.449000 0.4060 0.4060 0.4040 0.4020 0.4020
12.483096 0.4010 0.4010 0.3990 0.3970 0.3970
12.517000 0.3950 0.3940 0.3940 0.3920 0.3900
12.551096 0.3870 0.3850 0.3820 0.3800 0.3800
12.585000 0.3780 0.3780 0.3780 0.3780 0.3780
12.619096 0.3780 0.3780 0.3750 0.3730 0.3720
12.653000 0.3700 0.3680 0.3680 0.3660 0.3650
12.687096 0.3650 0.3650 0.3630 0.3630 0.3610
12.722000 0.3610 0.3600 0.3580 0.3540 0.3530
12.756096 0.3510 0.3510 0.3480 0.3440 0.3410
12.790000 0.3390 0.3370 0.3360 0.3320 0.3320
12.824096 0.3310 0.3310 0.3290 0.3290 0.3270
12.858000 0.3250 0.3240 0.3240 0.3240 0.3220
12.892096 0.3200 0.3200 0.3190 0.3190 0.3190
12.926000 0.3190 0.3170 0.3150 0.3120 0.3100
12.960096 0.3080 0.3080 0.3070 0.3070 0.3050
12.994000 0.3050 0.3030 0.3030 0.3020 0.3020
13.028096 0.3000 0.2980 0.2980 0.2960 0.2950
13.062000 0.2930 0.2910 0.2910 0.2910 0.2900
13.096096 0.2900 0.2880 0.2880 0.2880 0.2860
13.130000 0.2860 0.2860 0.2840 0.2840 0.2840
13.164096 0.2830 0.2810 0.2810 0.2790 0.2790
13.199000 0.2780 0.2740 0.2740 0.2730 0.2730
13.233096 0.2690 0.2670 0.2670 0.2670 0.2670
13.267000 0.2660 0.2660 0.2640 0.2620 0.2610
13.301096 0.2610 0.2590 0.2570 0.2520 0.2500
13.335000 0.2500 0.2490 0.2470 0.2470 0.2450
13.369096 0.2440 0.2420 0.2420 0.2400 0.2380
13.403000 0.2370 0.2370 0.2350 0.2330 0.2320
13.437096 0.2300 0.2300 0.2280 0.2280 0.2260
13.471000 0.2260 0.2250 0.2250 0.2230 0.2230
13.505096 0.2210 0.2210 0.2210 0.2180 0.2160
13.539000 0.2160 0.2150 0.2110 0.2080 0.2080
13.573096 0.2060 0.2060 0.2060 0.2040 0.2030
13.608000 0.2010 0.2010 0.1990 0.1990 0.1970
13.642096 0.1970 0.1960 0.1960 0.1960 0.1960
13.676000 0.1940 0.1940 0.1920 0.1920 0.1910
13.710096 0.1910 0.1910 0.1910 0.1910 0.1890
13.744000 0.1890 0.1890 0.1890 0.1870 0.1870
13.778096 0.1860 0.1860 0.1840 0.1840 0.1840
13.812000 0.1820 0.1800 0.1800 0.1770 0.1770
13.846096 0.1750 0.1750 0.1740 0.1740 0.1720
13.880000 0.1720 0.1720 0.1720 0.1720 0.1720
13.914096 0.1720 0.1720 0.1720 0.1700 0.1700
13.948000 0.1700 0.1700 0.1700 0.1700 0.1700
13.982096 0.1700 0.1700 0.1700 0.1680 0.1680
14.017000 0.1680 0.1680 0.1680 0.1680 0.1680
14.051096 0.1680 0.1680 0.1680 0.1680 0.1680
14.085000 0.1680 0.1680 0.1680 0.1670 0.1670
14.119096 0.1670 0.1670 0.1670 0.1670 0.1670
14.153000 0.1680 0.1680 0.1680 0.1680 0.1680
14.187096 0.1680 0.1720 0.1700 0.1700 0.1700
14.221000 0.1680 0.1680 0.1680 0.1670 0.1670
14.255096 0.1670 0.1650 0.1650 0.1650 0.1650
14.289000 0.1650 0.1650 0.1650 0.1650 0.1650
14.323096 0.1650 0.1650 0.1650 0.1630 0.1630
14.357000 0.1620 0.1620 0.1620 0.1620 0.1630
14.391096 0.1630 0.1650 0.1630 0.1650 0.1630
14.426000 0.1630 0.1630 0.1630 0.1630 0.1630
14.460096 0.1630 0.1620 0.1600 0.1600 0.1600
14.494000 0.1600 0.1600 0.1600 0.1600 0.1600
14.528096 0.1600 0.1600 0.1620 0.1620 0.1620
14.562000 0.1620 0.1600 0.1600 0.1600 0.1600
14.596096 0.1600 0.1600 0.1580 0.1560 0.1560
14.630000 0.1560 0.1550 0.1550 0.1550 0.1550
14.664096 0.1550 0.1550 0.1560 0.1560 0.1560
14.698000 0.1560 0.1560 0.1560 0.1580 0.1600
14.732096 0.1620 0.1620 0.1630 0.1650 0.1650
14.766000 0.1650 0.1650 0.1650 0.1650 0.1650
14.800096 0.1650 0.1670 0.1670 0.1670 0.1670
14.834000 0.1680 0.1670 0.1670 0.1670 0.1670
14.868096 0.1670 0.1700 0.1700 0.1700 0.1700
14.903000 0.1700 0.1700 0.1700 0.1680 0.1680
14.937096 0.1680 0.1680 0.1680 0.1680 0.1680
14.971000 0.1680 0.1680 0.1680 0.1700 0.1720
15.005096 0.1750 0.1770 0.1800 0.1840 0.1890
15.039000 0.1920 0.1970 0.2030 0.2090 0.2150
15.073096 0.2230 0.2260 0.2280 0.2320 0.2350
15.107000 0.2370 0.2370 0.2370 0.2370 0.2370
15.141096 0.2370 0.2330 0.2300 0.2280 0.2260
15.175000 0.2250 0.2250 0.2230 0.2210 0.2200
15.209096 0.2180 0.2160 0.2160 0.2180 0.2180
15.243000 0.2200 0.2200 0.2200 0.2200 0.2210
15.277096 0.2210 0.2210 0.2230 0.2250 0.2280
15.312000 0.2300 0.2330 0.2330 0.2350 0.2380
15.346096 0.2450 0.2490 0.2520 0.2520 0.2550
15.380000 0.2590 0.2590 0.2620 0.2620 0.2620
15.414096 0.2640 0.2640 0.2640 0.2640 0.2660
15.448000 0.2660 0.2670 0.2690 0.2710 0.2730
15.482096 0.2780 0.2790 0.2830 0.2860 0.2910
15.516000 0.2950 0.2980 0.3020 0.3020 0.3030
15.550096 0.3120 0.3150 0.3170 0.3190 0.3200
15.584000 0.3200 0.3220 0.3290 0.3310 0.3320
15.618096 0.3320 0.3340 0.3360 0.3370 0.3370
15.652000 0.3390 0.3410 0.3430 0.3440 0.3490
15.686096 0.3510 0.3530 0.3530 0.3540 0.3580
15.721000 0.3600 0.3610 0.3610 0.3630 0.3660
15.755096 0.3680 0.3720 0.3720 0.3730 0.3750
15.789000 0.3750 0.3750 0.3780 0.3820 0.3830
15.823096 0.3850 0.3870 0.3890 0.3900 0.3940
15.857000 0.3950 0.3990 0.3990 0.4010 0.4020
15.891096 0.4040 0.4140 0.4190 0.4210 0.4240
15.925000 0.4300 0.4330 0.4350 0.4410 0.4430
15.959096 0.4500 0.4520 0.4530 0.4530 0.4550
##END=
