##TITLE=3,6-DISODIUM SULFONATE, 1,8-DIHYDROXY NAPHTHALENE
##JCAMP-DX=4.24
##DATA TYPE=INFRARED SPECTRUM
##CLASS=COBLENTZ
##ORIGIN=WYANDOTTE CHEMICALS CORP., WYANDOTTE, MICHIGAN, USA
##OWNER=COBLENTZ SOCIETY
Collection (C) 2018 copyright by the U.S. Secretary of Commerce
on behalf of the United States of America. All rights reserved.
##DATE=Not specified, most likely prior to 1970
##MOLFORM=C10 H6 O8 S2 Na2
##SOURCE REFERENCE=COBLENTZ NO. 1354
##$NIST ID=B6001354
##$NIST SOURCE=COBLENTZ
##$NIST IMAGE=cob1354
##SPECTROMETER/DATA SYSTEM=Not specified, most likely a prism, grating, or hybrid spectrometer.
##STATE=SOLID (MINERAL OIL MULL)
##SAMPLING PROCEDURE=TRANSMISSION
##RESOLUTION=4
##DATA PROCESSING=DIGITIZED BY NIST FROM HARD COPY
##XUNITS=MICROMETERS
##YUNITS=TRANSMITTANCE
##XFACTOR=1.000000
##YFACTOR=1
##DELTAX=000.006806
##FIRSTX=2.014
##LASTX=15.9728
##FIRSTY=0.439
##MAXX=15.9728
##MINX=2.014
##MAXY=0.918
##MINY=0.022
##NPOINTS=2052
##XYDATA=(X++(Y..Y))
2.014000 0.4390 0.4410 0.4420 0.4440 0.4440
2.048047 0.4480 0.4490 0.4510 0.4530 0.4560
2.082000 0.4580 0.4590 0.4610 0.4630 0.4630
2.116047 0.4650 0.4650 0.4650 0.4680 0.4700
2.150000 0.4730 0.4770 0.4780 0.4800 0.4800
2.184047 0.4800 0.4780 0.4780 0.4780 0.4780
2.218000 0.4780 0.4780 0.4780 0.4780 0.4780
2.252047 0.4780 0.4800 0.4820 0.4830 0.4850
2.286000 0.4880 0.4920 0.4940 0.4950 0.4970
2.320047 0.4990 0.4990 0.5000 0.5020 0.5020
2.354000 0.5070 0.5110 0.5120 0.5140 0.5160
2.388047 0.5170 0.5190 0.5240 0.5290 0.5330
2.422000 0.5380 0.5400 0.5400 0.5410 0.5410
2.456047 0.5480 0.5510 0.5570 0.5600 0.5630
2.490000 0.5670 0.5720 0.5770 0.5770 0.5790
2.524047 0.5890 0.5970 0.5970 0.5990 0.6010
2.558000 0.6010 0.6040 0.6110 0.6130 0.6140
2.592047 0.6180 0.6230 0.6260 0.6260 0.6300
2.626000 0.6350 0.6400 0.6470 0.6520 0.6590
2.660047 0.6600 0.6670 0.6670 0.6690 0.6790
2.694000 0.6830 0.6890 0.6950 0.6960 0.6960
2.728047 0.6950 0.6930 0.6910 0.6880 0.6740
2.762000 0.6550 0.6370 0.6160 0.5970 0.5790
2.796047 0.4310 0.4100 0.3880 0.3660 0.3440
2.830000 0.3420 0.3450 0.3640 0.3760 0.3880
2.864047 0.4310 0.4340 0.4320 0.4170 0.4000
2.898000 0.3830 0.3640 0.3470 0.3300 0.3040
2.932047 0.2750 0.2500 0.2190 0.1830 0.1560
2.966000 0.1530 0.1530 0.1550 0.1750 0.2140
3.000047 0.2500 0.2740 0.2910 0.2910 0.2820
3.035000 0.2740 0.2620 0.2600 0.2600 0.2650
3.069047 0.2790 0.2860 0.2980 0.3040 0.3110
3.103000 0.3150 0.3180 0.3180 0.3150 0.3110
3.137047 0.3060 0.2990 0.2910 0.2840 0.2750
3.171000 0.2670 0.2550 0.2450 0.2330 0.2210
3.205047 0.2090 0.1970 0.1850 0.1720 0.1700
3.239000 0.1700 0.1720 0.1820 0.1830 0.1870
3.273047 0.1890 0.1900 0.1940 0.1940 0.1890
3.307000 0.1820 0.1750 0.1610 0.1410 0.1240
3.341047 0.1030 0.0810 0.0630 0.0450 0.0340
3.375000 0.0270 0.0250 0.0220 0.0220 0.0220
3.409047 0.0220 0.0220 0.0220 0.0220 0.0220
3.443000 0.0220 0.0230 0.0250 0.0270 0.0280
3.477047 0.0320 0.0320 0.0320 0.0320 0.0320
3.511000 0.0340 0.0390 0.0490 0.0760 0.1200
3.545047 0.1830 0.2480 0.3060 0.3400 0.3590
3.579000 0.3780 0.3980 0.4170 0.4340 0.4460
3.613047 0.4510 0.4560 0.4680 0.4750 0.4780
3.647000 0.4780 0.4780 0.4750 0.4680 0.4610
3.681047 0.4510 0.4490 0.4490 0.4560 0.4630
3.715000 0.4650 0.4700 0.4700 0.4730 0.4780
3.749047 0.4850 0.4940 0.4970 0.5000 0.5020
3.783000 0.5050 0.5090 0.5120 0.5190 0.5280
3.817047 0.5310 0.5330 0.5340 0.5360 0.5380
3.851000 0.5400 0.5400 0.5430 0.5480 0.5500
3.885047 0.5530 0.5580 0.5580 0.5600 0.5630
3.919000 0.5670 0.5680 0.5740 0.5820 0.5870
3.953047 0.5870 0.5870 0.5870 0.5870 0.5870
3.987000 0.5890 0.5890 0.5920 0.5940 0.5970
4.021047 0.6010 0.6060 0.6090 0.6110 0.6130
4.055000 0.6160 0.6160 0.6180 0.6180 0.6210
4.089047 0.6250 0.6260 0.6300 0.6300 0.6370
4.123000 0.6380 0.6380 0.6380 0.6380 0.6400
4.157047 0.6400 0.6430 0.6470 0.6520 0.6540
4.192000 0.6590 0.6600 0.6600 0.6620 0.6620
4.226047 0.6640 0.6640 0.6640 0.6660 0.6670
4.260000 0.6670 0.6690 0.6690 0.6710 0.6720
4.294047 0.6740 0.6780 0.6790 0.6830 0.6880
4.328000 0.6880 0.6890 0.6890 0.6910 0.6930
4.362047 0.6960 0.7000 0.7030 0.7060 0.7080
4.396000 0.7120 0.7120 0.7120 0.7120 0.7130
4.430047 0.7180 0.7200 0.7220 0.7240 0.7240
4.464000 0.7240 0.7250 0.7250 0.7250 0.7270
4.498047 0.7290 0.7300 0.7300 0.7300 0.7300
4.532000 0.7300 0.7300 0.7300 0.7320 0.7340
4.566047 0.7350 0.7370 0.7390 0.7390 0.7410
4.600000 0.7410 0.7410 0.7420 0.7440 0.7440
4.634047 0.7440 0.7440 0.7440 0.7440 0.7440
4.668000 0.7440 0.7440 0.7440 0.7460 0.7460
4.702047 0.7470 0.7470 0.7510 0.7520 0.7560
4.736000 0.7610 0.7710 0.7730 0.7730 0.7780
4.770047 0.7800 0.7810 0.7830 0.7830 0.7850
4.804000 0.7850 0.7870 0.7900 0.7920 0.7950
4.838047 0.7970 0.8000 0.8020 0.8040 0.8040
4.872000 0.8040 0.8070 0.8070 0.8090 0.8100
4.906047 0.8100 0.8100 0.8120 0.8160 0.8220
4.940000 0.8240 0.8240 0.8240 0.8240 0.8220
4.974047 0.8220 0.8220 0.8220 0.8220 0.8220
5.008000 0.8240 0.8240 0.8270 0.8290 0.8330
5.042047 0.8330 0.8340 0.8340 0.8340 0.8360
5.076000 0.8360 0.8380 0.8390 0.8410 0.8460
5.110047 0.8500 0.8500 0.8510 0.8510 0.8530
5.144000 0.8550 0.8600 0.8620 0.8630 0.8630
5.178047 0.8650 0.8650 0.8650 0.8650 0.8670
5.212000 0.8670 0.8680 0.8720 0.8730 0.8730
5.246047 0.8730 0.8730 0.8730 0.8730 0.8730
5.281000 0.8750 0.8770 0.8800 0.8820 0.8840
5.315047 0.8850 0.8850 0.8890 0.8870 0.8890
5.349000 0.8890 0.8890 0.8890 0.8890 0.8900
5.383047 0.8900 0.8920 0.8940 0.8960 0.9010
5.417000 0.9010 0.9020 0.9040 0.9060 0.9080
5.451047 0.9080 0.9110 0.9110 0.9130 0.9140
5.485000 0.9130 0.9130 0.9130 0.9130 0.9130
5.519047 0.9130 0.9130 0.9140 0.9140 0.9140
5.553000 0.9140 0.9140 0.9140 0.9160 0.9160
5.587047 0.9160 0.9180 0.9180 0.9180 0.9180
5.621000 0.9180 0.9180 0.9130 0.9110 0.9080
5.655047 0.9010 0.8990 0.8970 0.8990 0.9010
5.689000 0.9110 0.9110 0.9090 0.9080 0.9080
5.723047 0.9080 0.9080 0.9080 0.9090 0.9090
5.757000 0.9090 0.9010 0.8960 0.8920 0.8900
5.791047 0.8920 0.8940 0.8960 0.8970 0.8990
5.825000 0.8940 0.8900 0.8820 0.8790 0.8750
5.859047 0.8720 0.8700 0.8700 0.8600 0.8500
5.893000 0.8360 0.8260 0.8160 0.8000 0.7730
5.927047 0.7420 0.7060 0.6640 0.6180 0.5650
5.961000 0.5090 0.4440 0.3740 0.3150 0.2810
5.995047 0.2750 0.2770 0.3950 0.4290 0.4710
6.029000 0.5500 0.6160 0.6760 0.7100 0.7350
6.063047 0.7510 0.7680 0.7700 0.7680 0.7610
6.097000 0.7460 0.7300 0.7100 0.6860 0.6570
6.131047 0.6210 0.5770 0.5210 0.4560 0.3760
6.165000 0.3200 0.2360 0.2240 0.2240 0.2280
6.199047 0.2940 0.3470 0.4080 0.4660 0.5210
6.233000 0.5700 0.6200 0.6230 0.6280 0.6210
6.267047 0.5860 0.5550 0.5530 0.5570 0.6330
6.301000 0.6740 0.6910 0.7100 0.7220 0.7350
6.335047 0.7460 0.7490 0.7510 0.7520 0.7610
6.369000 0.7780 0.7870 0.7950 0.8000 0.8040
6.403047 0.8100 0.8120 0.8120 0.8120 0.8120
6.438000 0.8140 0.8190 0.8210 0.8210 0.8190
6.472047 0.8160 0.8140 0.8100 0.8020 0.7810
6.506000 0.7610 0.7390 0.7100 0.6810 0.6500
6.540047 0.6490 0.6490 0.6600 0.7010 0.7250
6.574000 0.7370 0.7420 0.7490 0.7610 0.7710
6.608047 0.7780 0.7850 0.7850 0.7830 0.7800
6.642000 0.7780 0.7750 0.7660 0.7580 0.7460
6.676047 0.7320 0.7180 0.7030 0.6860 0.6660
6.710000 0.6490 0.6250 0.5970 0.5620 0.5210
6.744047 0.4770 0.4170 0.3400 0.2650 0.1990
6.778000 0.1580 0.1460 0.1320 0.1170 0.1120
6.812047 0.1150 0.1170 0.1220 0.1270 0.1390
6.846000 0.1580 0.1700 0.1780 0.2010 0.2180
6.880047 0.2280 0.2430 0.2700 0.2940 0.3180
6.914000 0.3420 0.3690 0.3950 0.4220 0.4460
6.948047 0.4700 0.4920 0.5050 0.5210 0.5290
6.982000 0.5290 0.5260 0.5240 0.5170 0.5110
7.016047 0.5040 0.4970 0.4820 0.4770 0.4730
7.050000 0.4730 0.4770 0.4920 0.4970 0.5070
7.084047 0.5160 0.5360 0.5580 0.5890 0.5920
7.118000 0.5910 0.5890 0.5750 0.5500 0.5170
7.152047 0.4770 0.4320 0.3900 0.3470 0.3080
7.186000 0.2770 0.2430 0.2110 0.1900 0.1660
7.220047 0.1440 0.1220 0.1030 0.0880 0.0730
7.254000 0.0680 0.0690 0.0860 0.1020 0.1170
7.288047 0.1390 0.1600 0.1800 0.2090 0.2360
7.322000 0.2650 0.2930 0.3200 0.3450 0.3710
7.356047 0.3930 0.4130 0.4290 0.4460 0.4650
7.390000 0.4820 0.4970 0.5090 0.5120 0.5140
7.424047 0.5160 0.5120 0.5090 0.5000 0.4900
7.458000 0.4770 0.4630 0.4480 0.4310 0.4080
7.492047 0.3860 0.3590 0.3350 0.3080 0.2910
7.526000 0.2700 0.2550 0.2470 0.2380 0.2360
7.560047 0.2360 0.2350 0.2360 0.2450 0.2570
7.595000 0.2700 0.2860 0.2990 0.3100 0.3250
7.629047 0.3400 0.3590 0.3810 0.4000 0.4170
7.663000 0.4340 0.4460 0.4560 0.4700 0.4750
7.697047 0.4750 0.4710 0.4560 0.4460 0.4310
7.731000 0.4100 0.3950 0.3790 0.3780 0.3790
7.765047 0.3810 0.3880 0.3960 0.4100 0.4240
7.799000 0.4360 0.4490 0.4530 0.4540 0.4540
7.833047 0.4540 0.4540 0.4530 0.4530 0.4480
7.867000 0.4410 0.4370 0.4320 0.4290 0.4220
7.901047 0.4170 0.4130 0.4100 0.4120 0.4120
7.935000 0.4100 0.4050 0.3960 0.3900 0.3810
7.969047 0.3660 0.3540 0.3440 0.3350 0.3150
8.003000 0.2940 0.2810 0.2720 0.2640 0.2520
8.037047 0.2430 0.2290 0.2160 0.2060 0.1990
8.071000 0.1890 0.1800 0.1700 0.1560 0.1440
8.105047 0.1320 0.1240 0.1150 0.1100 0.1030
8.139000 0.1000 0.0930 0.0900 0.0880 0.0830
8.173047 0.0780 0.0780 0.0760 0.0760 0.0760
8.207000 0.0740 0.0740 0.0730 0.0730 0.0730
8.241047 0.0730 0.0730 0.0730 0.0730 0.0730
8.275000 0.0730 0.0740 0.0760 0.0800 0.0810
8.309047 0.0850 0.0910 0.0980 0.1030 0.1050
8.343000 0.1030 0.1020 0.1000 0.1000 0.0980
8.377047 0.0930 0.0900 0.0850 0.0830 0.0800
8.411000 0.0800 0.0760 0.0760 0.0730 0.0710
8.445047 0.0690 0.0680 0.0680 0.0680 0.0680
8.479000 0.0680 0.0690 0.0730 0.0740 0.0760
8.513047 0.0800 0.0800 0.0800 0.0800 0.0800
8.547000 0.0800 0.0800 0.0800 0.0780 0.0780
8.581047 0.0760 0.0760 0.0760 0.0760 0.0760
8.615000 0.0760 0.0780 0.0780 0.0780 0.0800
8.649047 0.0850 0.0930 0.1050 0.1090 0.1100
8.684000 0.1120 0.1150 0.1240 0.1340 0.1430
8.718047 0.1480 0.1560 0.1660 0.1700 0.1730
8.752000 0.1820 0.1920 0.1990 0.2010 0.2040
8.786047 0.2120 0.2230 0.2350 0.2480 0.2620
8.820000 0.2770 0.2930 0.3060 0.3210 0.3370
8.854047 0.3500 0.3660 0.3780 0.3880 0.4020
8.888000 0.4080 0.4250 0.4370 0.4480 0.4590
8.922047 0.4710 0.4750 0.4730 0.4700 0.4610
8.956000 0.4540 0.4510 0.4440 0.4420 0.4480
8.990047 0.4580 0.4710 0.4900 0.5120 0.5310
9.024000 0.5500 0.5650 0.5840 0.6010 0.6040
9.058047 0.6140 0.6250 0.6320 0.6370 0.6450
9.092000 0.6490 0.6500 0.6520 0.6540 0.6540
9.126047 0.6540 0.6500 0.6450 0.6350 0.6200
9.160000 0.6080 0.5860 0.5550 0.5190 0.4770
9.194047 0.4290 0.3810 0.3320 0.2820 0.2450
9.228000 0.2090 0.2010 0.2090 0.2500 0.2980
9.262047 0.3440 0.3780 0.3950 0.4050 0.4200
9.296000 0.4220 0.4220 0.4190 0.3860 0.3560
9.330047 0.3230 0.2890 0.2550 0.2240 0.1940
9.364000 0.1660 0.1410 0.1220 0.1090 0.1020
9.398047 0.1000 0.1030 0.1070 0.1100 0.1120
9.432000 0.1120 0.1100 0.1090 0.1070 0.1090
9.466047 0.1190 0.1340 0.1530 0.1820 0.2190
9.500000 0.2550 0.2860 0.3130 0.3450 0.3660
9.534047 0.3930 0.4000 0.4000 0.3910 0.3520
9.568000 0.3200 0.2810 0.2430 0.2040 0.1660
9.602047 0.1340 0.1090 0.0910 0.0830 0.0740
9.636000 0.0710 0.0690 0.0710 0.0710 0.0730
9.670047 0.0730 0.0740 0.0740 0.0760 0.0860
9.704000 0.1000 0.1100 0.1190 0.1290 0.1370
9.738047 0.1480 0.1600 0.1720 0.1830 0.1950
9.772000 0.2070 0.2210 0.2330 0.2450 0.2530
9.806047 0.2620 0.2690 0.2750 0.2840 0.2910
9.841000 0.2990 0.3060 0.3150 0.3250 0.3330
9.875047 0.3440 0.3490 0.3540 0.3610 0.3690
9.909000 0.3780 0.3880 0.3960 0.4020 0.4050
9.943047 0.4150 0.4200 0.4250 0.4290 0.4340
9.977000 0.4410 0.4480 0.4560 0.4680 0.4700
10.011047 0.4780 0.4710 0.4800 0.4820 0.4870
10.045000 0.4970 0.5000 0.5020 0.5040 0.5050
10.079047 0.5140 0.5170 0.5210 0.5260 0.5310
10.113000 0.5340 0.5380 0.5400 0.5410 0.5430
10.147047 0.5430 0.5450 0.5480 0.5530 0.5550
10.181000 0.5580 0.5600 0.5630 0.5670 0.5680
10.215047 0.5680 0.5700 0.5700 0.5720 0.5740
10.249000 0.5750 0.5790 0.5800 0.5860 0.5860
10.283047 0.5910 0.5920 0.5940 0.5960 0.5990
10.317000 0.5990 0.6010 0.6040 0.6080 0.6080
10.351047 0.6090 0.6130 0.6160 0.6180 0.6210
10.385000 0.6230 0.6260 0.6330 0.6330 0.6330
10.419047 0.6350 0.6350 0.6380 0.6420 0.6490
10.453000 0.6500 0.6500 0.6520 0.6540 0.6540
10.487047 0.6540 0.6540 0.6550 0.6550 0.6570
10.521000 0.6570 0.6600 0.6620 0.6640 0.6670
10.555047 0.6670 0.6710 0.6710 0.6720 0.6740
10.589000 0.6780 0.6810 0.6840 0.6860 0.6860
10.623047 0.6880 0.6890 0.6890 0.6890 0.6910
10.657000 0.6910 0.6930 0.6950 0.6950 0.6960
10.691047 0.6980 0.7000 0.7000 0.7010 0.7010
10.725000 0.7050 0.7060 0.7060 0.7100 0.7080
10.759047 0.7100 0.7120 0.7120 0.7150 0.7150
10.793000 0.7180 0.7200 0.7220 0.7240 0.7270
10.827047 0.7300 0.7300 0.7320 0.7320 0.7320
10.861000 0.7320 0.7300 0.7300 0.7290 0.7250
10.895047 0.7220 0.7170 0.7100 0.6980 0.6760
10.930000 0.6590 0.6370 0.6210 0.6030 0.5940
10.964047 0.5820 0.5800 0.5790 0.5800 0.6010
10.998000 0.6040 0.6040 0.5990 0.5800 0.5700
11.032047 0.5680 0.5680 0.5770 0.5940 0.6060
11.066000 0.6200 0.6330 0.6450 0.6540 0.6600
11.100047 0.6690 0.6740 0.6790 0.6830 0.6840
11.134000 0.6890 0.6910 0.6910 0.6880 0.6880
11.168047 0.6830 0.6810 0.6810 0.6790 0.6780
11.202000 0.6720 0.6660 0.6590 0.6490 0.6370
11.236047 0.6250 0.6110 0.5940 0.5750 0.5480
11.270000 0.5120 0.4750 0.4390 0.4000 0.3560
11.304047 0.2890 0.2860 0.2870 0.3200 0.3560
11.338000 0.4480 0.5170 0.5770 0.6320 0.6640
11.372047 0.6860 0.7000 0.7120 0.7200 0.7250
11.406000 0.7290 0.7290 0.7240 0.7170 0.7060
11.440047 0.6910 0.6740 0.6550 0.6300 0.6030
11.474000 0.5720 0.5360 0.4950 0.4510 0.4000
11.508047 0.3520 0.3060 0.2700 0.2360 0.2290
11.542000 0.2280 0.2310 0.2750 0.3250 0.3740
11.576047 0.4070 0.4710 0.5240 0.5620 0.5910
11.610000 0.6110 0.6300 0.6470 0.6640 0.6810
11.644047 0.6950 0.7100 0.7220 0.7340 0.7410
11.678000 0.7440 0.7470 0.7510 0.7540 0.7610
11.712047 0.7680 0.7730 0.7780 0.7800 0.7810
11.746000 0.7830 0.7830 0.7830 0.7830 0.7850
11.780047 0.7850 0.7870 0.7880 0.7900 0.7900
11.814000 0.7920 0.7920 0.7950 0.7970 0.7980
11.848047 0.7980 0.8000 0.8000 0.8000 0.8000
11.882000 0.8000 0.8000 0.7980 0.7970 0.7930
11.916047 0.7900 0.7830 0.7800 0.7730 0.7640
11.950000 0.7540 0.7420 0.7290 0.7120 0.6890
11.984047 0.6640 0.6330 0.6140 0.5910 0.5890
12.018000 0.5890 0.5990 0.6210 0.6450 0.6670
12.052047 0.6910 0.7130 0.7320 0.7490 0.7610
12.087000 0.7680 0.7760 0.7830 0.7880 0.7920
12.121047 0.7950 0.7980 0.8020 0.8050 0.8090
12.155000 0.8120 0.8170 0.8170 0.8210 0.8240
12.189047 0.8260 0.8290 0.8290 0.8290 0.8310
12.223000 0.8310 0.8330 0.8330 0.8330 0.8330
12.257047 0.8310 0.8310 0.8310 0.8310 0.8310
12.291000 0.8310 0.8310 0.8330 0.8330 0.8330
12.325047 0.8340 0.8340 0.8390 0.8390 0.8410
12.359000 0.8410 0.8390 0.8380 0.8380 0.8380
12.393047 0.8410 0.8410 0.8410 0.8410 0.8410
12.427000 0.8410 0.8410 0.8410 0.8410 0.8410
12.461047 0.8410 0.8410 0.8410 0.8410 0.8390
12.495000 0.8390 0.8360 0.8360 0.8360 0.8340
12.529047 0.8330 0.8330 0.8330 0.8330 0.8330
12.563000 0.8330 0.8330 0.8330 0.8310 0.8310
12.597047 0.8310 0.8290 0.8260 0.8220 0.8220
12.631000 0.8210 0.8210 0.8190 0.8170 0.8170
12.665047 0.8160 0.8140 0.8120 0.8100 0.8070
12.699000 0.8020 0.7980 0.7930 0.7880 0.7810
12.733047 0.7760 0.7700 0.7610 0.7520 0.7410
12.767000 0.7270 0.7130 0.6930 0.6670 0.6300
12.801047 0.6060 0.5700 0.5400 0.5070 0.4780
12.835000 0.4730 0.4710 0.4710 0.4750 0.5380
12.869047 0.5890 0.6320 0.6640 0.6890 0.7080
12.903000 0.7250 0.7390 0.7510 0.7660 0.7750
12.937047 0.7810 0.7830 0.7870 0.7880 0.7880
12.971000 0.7900 0.7900 0.7900 0.7880 0.7880
13.005047 0.7880 0.7880 0.7880 0.7900 0.7920
13.039000 0.7920 0.7970 0.7980 0.8000 0.8000
13.073047 0.8020 0.8020 0.8020 0.8020 0.8040
13.107000 0.8040 0.8050 0.8040 0.8040 0.8040
13.141047 0.8040 0.8020 0.8020 0.8000 0.7980
13.175000 0.7980 0.7970 0.7950 0.7930 0.7920
13.209047 0.7900 0.7900 0.7900 0.7880 0.7870
13.244000 0.7850 0.7830 0.7780 0.7760 0.7760
13.278047 0.7750 0.7750 0.7730 0.7710 0.7710
13.312000 0.7700 0.7700 0.7680 0.7640 0.7610
13.346047 0.7610 0.7590 0.7590 0.7560 0.7540
13.380000 0.7540 0.7520 0.7490 0.7470 0.7460
13.414047 0.7420 0.7370 0.7320 0.7290 0.7250
13.448000 0.7240 0.7220 0.7200 0.7180 0.7150
13.482047 0.7100 0.7050 0.7030 0.7000 0.6980
13.516000 0.6960 0.6930 0.6880 0.6840 0.6830
13.550047 0.6830 0.6790 0.6780 0.6780 0.6760
13.584000 0.6720 0.6670 0.6670 0.6660 0.6640
13.618047 0.6620 0.6590 0.6590 0.6570 0.6550
13.652000 0.6540 0.6490 0.6490 0.6450 0.6430
13.686047 0.6400 0.6380 0.6350 0.6330 0.6320
13.720000 0.6300 0.6250 0.6200 0.6160 0.6140
13.754047 0.6110 0.6060 0.6010 0.5970 0.5940
13.788000 0.5910 0.5870 0.5840 0.5800 0.5770
13.822047 0.5740 0.5700 0.5650 0.5620 0.5570
13.856000 0.5500 0.5430 0.5430 0.5400 0.5380
13.890047 0.5360 0.5360 0.5360 0.5340 0.5330
13.924000 0.5330 0.5330 0.5310 0.5310 0.5310
13.958047 0.5310 0.5310 0.5310 0.5380 0.5480
13.992000 0.5530 0.5550 0.5570 0.5580 0.5620
14.026047 0.5670 0.5740 0.5770 0.5790 0.5800
14.060000 0.5820 0.5840 0.5870 0.5890 0.5910
14.094047 0.5910 0.5920 0.5920 0.5940 0.5940
14.128000 0.5940 0.5920 0.5910 0.5910 0.5890
14.162047 0.5890 0.5890 0.5890 0.5860 0.5800
14.196000 0.5770 0.5750 0.5740 0.5720 0.5680
14.230047 0.5680 0.5630 0.5600 0.5530 0.5500
14.264000 0.5480 0.5450 0.5360 0.5290 0.5240
14.298047 0.5210 0.5160 0.5110 0.5040 0.4990
14.333000 0.4940 0.4880 0.4820 0.4750 0.4700
14.367047 0.4630 0.4540 0.4480 0.4410 0.4340
14.401000 0.4250 0.4190 0.4100 0.4030 0.3950
14.435047 0.3880 0.3810 0.3730 0.3660 0.3590
14.469000 0.3520 0.3440 0.3370 0.3320 0.3300
14.503047 0.3270 0.3210 0.3180 0.3110 0.3040
14.537000 0.3010 0.2990 0.2980 0.2980 0.2910
14.571047 0.2870 0.2860 0.2820 0.2770 0.2750
14.605000 0.2740 0.2740 0.2740 0.2720 0.2720
14.639047 0.2700 0.2700 0.2700 0.2700 0.2720
14.673000 0.2740 0.2740 0.2740 0.2740 0.2740
14.707047 0.2740 0.2740 0.2740 0.2750 0.2750
14.741000 0.2810 0.2820 0.2840 0.2840 0.2860
14.775047 0.2870 0.2870 0.2870 0.2890 0.2890
14.809000 0.2890 0.2910 0.2910 0.2910 0.2930
14.843047 0.2930 0.2940 0.2960 0.2960 0.2980
14.877000 0.2990 0.2990 0.3010 0.3010 0.3030
14.911047 0.3040 0.3040 0.3060 0.3060 0.3100
14.945000 0.3110 0.3130 0.3150 0.3160 0.3180
14.979047 0.3200 0.3210 0.3250 0.3280 0.3300
15.013000 0.3300 0.3300 0.3300 0.3320 0.3320
15.047047 0.3320 0.3320 0.3320 0.3320 0.3320
15.081000 0.3320 0.3320 0.3300 0.3300 0.3280
15.115047 0.3280 0.3270 0.3270 0.3250 0.3230
15.149000 0.3210 0.3210 0.3200 0.3180 0.3160
15.183047 0.3160 0.3160 0.3160 0.3180 0.3210
15.217000 0.3210 0.3180 0.3180 0.3180 0.3160
15.251047 0.3160 0.3150 0.3130 0.3130 0.3110
15.285000 0.3110 0.3110 0.3110 0.3110 0.3110
15.319047 0.3110 0.3110 0.3130 0.3130 0.3150
15.353000 0.3150 0.3160 0.3160 0.3180 0.3180
15.387047 0.3200 0.3200 0.3200 0.3210 0.3230
15.421000 0.3230 0.3250 0.3250 0.3250 0.3250
15.455047 0.3270 0.3270 0.3280 0.3280 0.3300
15.490000 0.3300 0.3320 0.3320 0.3330 0.3330
15.524047 0.3350 0.3350 0.3370 0.3370 0.3390
15.558000 0.3400 0.3420 0.3440 0.3450 0.3450
15.592047 0.3490 0.3500 0.3520 0.3540 0.3570
15.626000 0.3570 0.3590 0.3620 0.3640 0.3660
15.660047 0.3690 0.3690 0.3710 0.3730 0.3760
15.694000 0.3780 0.3780 0.3780 0.3780 0.3780
15.728047 0.3760 0.3780 0.3780 0.3780 0.3780
15.762000 0.3780 0.3780 0.3790 0.3790 0.3810
15.796047 0.3790 0.3790 0.3790 0.3780 0.3780
15.830000 0.3760 0.3760 0.3760 0.3760 0.3760
15.864047 0.3740 0.3730 0.3710 0.3710 0.3710
15.898000 0.3690 0.3690 0.3670 0.3670 0.3670
15.932047 0.3670 0.3670 0.3670 0.3690 0.3690
15.966000 0.3710 0.3710
##END=
