##TITLE=PIPERAZINE DIHYDROCHLORIDE
##JCAMP-DX=4.24
##DATA TYPE=INFRARED SPECTRUM
##CLASS=COBLENTZ
##ORIGIN=WYANDOTTE CHEMICALS CORP., WYANDOTTE, MICHIGAN, USA
##OWNER=COBLENTZ SOCIETY
Collection (C) 2018 copyright by the U.S. Secretary of Commerce
on behalf of the United States of America. All rights reserved.
##DATE=Not specified, most likely prior to 1970
##MOLFORM=C4 H10 N2  * 2 H Cl
##SOURCE REFERENCE=COBLENTZ NO. 3857
##$NIST ID=B6003857
##$NIST SOURCE=COBLENTZ
##$NIST IMAGE=cob3857
##SPECTROMETER/DATA SYSTEM=Not specified, most likely a prism, grating, or hybrid spectrometer.
##STATE=SOLID (MINERAL OIL MULL)
##SAMPLING PROCEDURE=TRANSMISSION
##RESOLUTION=4
##DATA PROCESSING=DIGITIZED BY NIST FROM HARD COPY
##XUNITS=MICROMETERS
##YUNITS=TRANSMITTANCE
##XFACTOR=1.000000
##YFACTOR=1
##DELTAX=000.006197
##FIRSTX=2.025
##LASTX=16.0062
##FIRSTY=0.529
##MAXX=16.0062
##MINX=2.025
##MAXY=0.967
##MINY=0.012
##NPOINTS=2257
##XYDATA=(X++(Y..Y))
2.025000 0.5290 0.5300 0.5320 0.5320 0.5320
2.056001 0.5320 0.5320 0.5320 0.5320 0.5320
2.087000 0.5300 0.5300 0.5290 0.5290 0.5270
2.118001 0.5270 0.5270 0.5270 0.5270 0.5270
2.149000 0.5260 0.5260 0.5240 0.5230 0.5210
2.180001 0.5200 0.5180 0.5200 0.5200 0.5180
2.211000 0.5180 0.5180 0.5180 0.5180 0.5200
2.242001 0.5200 0.5240 0.5260 0.5370 0.5410
2.273000 0.5440 0.5490 0.5510 0.5570 0.5630
2.304001 0.5650 0.5650 0.5660 0.5660 0.5680
2.335000 0.5680 0.5690 0.5720 0.5750 0.5780
2.366001 0.5850 0.5890 0.5910 0.5910 0.5920
2.397000 0.5920 0.5940 0.5950 0.5950 0.5990
2.428001 0.6000 0.6030 0.6110 0.6170 0.6170
2.459000 0.6190 0.6200 0.6200 0.6220 0.6220
2.490001 0.6220 0.6160 0.6160 0.6190 0.6250
2.521000 0.6260 0.6190 0.6190 0.6200 0.6390
2.552001 0.6450 0.6620 0.6710 0.6790 0.6850
2.583000 0.6910 0.6930 0.6930 0.6930 0.6950
2.614001 0.7010 0.7040 0.7080 0.7160 0.7300
2.645000 0.7380 0.7390 0.7430 0.7430 0.7460
2.676001 0.7490 0.7530 0.7530 0.7500 0.7490
2.707000 0.7470 0.7430 0.7410 0.7380 0.7360
2.738001 0.7320 0.7260 0.7150 0.6990 0.6740
2.768000 0.6500 0.6230 0.5990 0.5820 0.5600
2.799001 0.5580 0.5580 0.5630 0.5630 0.5610
2.830000 0.5540 0.5460 0.5380 0.5300 0.5180
2.861001 0.5100 0.5040 0.4980 0.4920 0.4900
2.892000 0.4900 0.4920 0.4960 0.5010 0.5070
2.923001 0.5090 0.5090 0.5070 0.5070 0.5070
2.954000 0.5010 0.5000 0.4950 0.4870 0.4840
2.985001 0.4810 0.4840 0.4870 0.5060 0.5340
3.016000 0.5490 0.5610 0.5710 0.5850 0.6030
3.047001 0.6080 0.6140 0.6220 0.6260 0.6280
3.078000 0.6300 0.6280 0.6220 0.6080 0.5890
3.109001 0.5650 0.5400 0.5130 0.4890 0.4650
3.140000 0.4250 0.3940 0.3710 0.3490 0.3310
3.171001 0.3090 0.2840 0.2530 0.2120 0.1740
3.202000 0.1390 0.1020 0.0880 0.0750 0.0550
3.233001 0.0400 0.0320 0.0290 0.0300 0.0290
3.264000 0.0270 0.0260 0.0210 0.0200 0.0240
3.295001 0.0240 0.0240 0.0200 0.0200 0.0230
3.326000 0.0230 0.0230 0.0210 0.0200 0.0210
3.357001 0.0200 0.0180 0.0180 0.0180 0.0170
3.388000 0.0170 0.0150 0.0150 0.0150 0.0130
3.419001 0.0120 0.0120 0.0120 0.0120 0.0120
3.450000 0.0120 0.0120 0.0120 0.0130 0.0130
3.481001 0.0150 0.0150 0.0170 0.0180 0.0200
3.512000 0.0210 0.0210 0.0230 0.0260 0.0290
3.543001 0.0290 0.0300 0.0290 0.0200 0.0180
3.574000 0.0200 0.0290 0.0290 0.0270 0.0230
3.605001 0.0150 0.0120 0.0120 0.0150 0.0180
3.636000 0.0240 0.0240 0.0240 0.0230 0.0210
3.667001 0.0200 0.0180 0.0200 0.0230 0.0230
3.698000 0.0230 0.0200 0.0200 0.0210 0.0240
3.729001 0.0260 0.0260 0.0260 0.0270 0.0270
3.760000 0.0290 0.0300 0.0400 0.0410 0.0410
3.791001 0.0410 0.0320 0.0320 0.0350 0.0370
3.822000 0.0400 0.0410 0.0440 0.0470 0.0540
3.853001 0.0600 0.0680 0.0680 0.0600 0.0550
3.884000 0.0520 0.0510 0.0470 0.0460 0.0470
3.915001 0.0520 0.0600 0.0680 0.0720 0.0740
3.946000 0.0780 0.0830 0.0860 0.0860 0.0820
3.977001 0.0780 0.0820 0.0860 0.0940 0.1020
4.008000 0.1130 0.1250 0.1370 0.1450 0.1480
4.039001 0.1480 0.1340 0.1300 0.1260 0.1230
4.070000 0.1190 0.1130 0.1110 0.1110 0.1110
4.101001 0.1080 0.1060 0.0950 0.0860 0.0880
4.132000 0.0920 0.0970 0.0970 0.1030 0.1050
4.163001 0.1140 0.1310 0.1500 0.1670 0.1740
4.194000 0.1910 0.2020 0.2120 0.2180 0.2190
4.225001 0.2120 0.1960 0.1810 0.1810 0.1790
4.256000 0.1810 0.1880 0.2010 0.2100 0.2150
4.287001 0.2190 0.2220 0.2270 0.2300 0.2380
4.318000 0.2460 0.2600 0.2670 0.2720 0.2800
4.349001 0.2920 0.3080 0.3200 0.3290 0.3390
4.380000 0.3450 0.3510 0.3590 0.3680 0.3770
4.411001 0.3820 0.3860 0.3880 0.3880 0.3820
4.442000 0.3820 0.3860 0.3960 0.4040 0.4100
4.473001 0.4160 0.4210 0.4280 0.4340 0.4390
4.504000 0.4450 0.4500 0.4550 0.4610 0.4670
4.535001 0.4720 0.4760 0.4790 0.4860 0.4900
4.566000 0.4960 0.5030 0.5070 0.5130 0.5170
4.597001 0.5170 0.5090 0.5090 0.5130 0.5120
4.628000 0.5120 0.5100 0.5100 0.5090 0.5040
4.659001 0.4980 0.4810 0.4790 0.4810 0.4960
4.690000 0.5120 0.5240 0.5340 0.5400 0.5470
4.721001 0.5490 0.5510 0.5490 0.5370 0.5340
4.752000 0.5430 0.5490 0.5550 0.5600 0.5690
4.783001 0.5740 0.5750 0.5750 0.5680 0.5680
4.814000 0.5690 0.5830 0.5890 0.5970 0.6030
4.845001 0.6080 0.6090 0.6110 0.6140 0.6170
4.876000 0.6200 0.6260 0.6300 0.6330 0.6340
4.907001 0.6360 0.6370 0.6340 0.6310 0.6280
4.938000 0.6250 0.6250 0.6250 0.6260 0.6340
4.969001 0.6400 0.6470 0.6500 0.6530 0.6540
5.000000 0.6530 0.6500 0.6470 0.6450 0.6400
5.031001 0.6390 0.6400 0.6400 0.6430 0.6470
5.062000 0.6500 0.6560 0.6650 0.6710 0.6780
5.093001 0.6810 0.6850 0.6820 0.6780 0.6680
5.124000 0.6600 0.6640 0.6680 0.6730 0.6710
5.155001 0.6760 0.6820 0.6880 0.6910 0.6950
5.185000 0.6960 0.6990 0.7010 0.7010 0.6990
5.216001 0.6990 0.6980 0.6930 0.6900 0.6810
5.247000 0.6810 0.6870 0.6910 0.6930 0.6980
5.278001 0.6990 0.7010 0.7010 0.6980 0.6900
5.309000 0.6850 0.6850 0.6880 0.6950 0.6990
5.340001 0.7010 0.7020 0.7100 0.7220 0.7290
5.371000 0.7300 0.7320 0.7410 0.7440 0.7440
5.402001 0.7430 0.7430 0.7430 0.7430 0.7410
5.433000 0.7380 0.7360 0.7360 0.7390 0.7460
5.464001 0.7580 0.7630 0.7630 0.7600 0.7580
5.495000 0.7490 0.7490 0.7550 0.7670 0.7670
5.526001 0.7600 0.7490 0.7490 0.7500 0.7500
5.557000 0.7500 0.7500 0.7530 0.7530 0.7550
5.588001 0.7550 0.7560 0.7600 0.7630 0.7640
5.619000 0.7580 0.7580 0.7580 0.7580 0.7600
5.650001 0.7600 0.7640 0.7640 0.7670 0.7630
5.681000 0.7520 0.7390 0.7320 0.7270 0.7180
5.712001 0.7240 0.7270 0.7460 0.7610 0.7670
5.743000 0.7660 0.7630 0.7630 0.7610 0.7630
5.774001 0.7640 0.7660 0.7640 0.7630 0.7630
5.805000 0.7630 0.7610 0.7600 0.7600 0.7580
5.836001 0.7550 0.7490 0.7470 0.7470 0.7470
5.867000 0.7490 0.7580 0.7690 0.7720 0.7720
5.898001 0.7690 0.7500 0.7410 0.7410 0.7560
5.929000 0.7560 0.7560 0.7550 0.7550 0.7520
5.960001 0.7520 0.7560 0.7700 0.7700 0.7670
5.991000 0.7660 0.7610 0.7550 0.7460 0.7350
6.022001 0.7300 0.7290 0.7300 0.7470 0.7470
6.053000 0.7410 0.7320 0.7180 0.7120 0.7120
6.084001 0.7100 0.7040 0.6840 0.6500 0.6260
6.115000 0.5990 0.5610 0.5260 0.5100 0.5100
6.146001 0.5170 0.5600 0.5880 0.5880 0.5490
6.177000 0.5030 0.4470 0.2800 0.2630 0.2050
6.208001 0.1590 0.1500 0.1470 0.1420 0.1220
6.239000 0.1220 0.1480 0.1760 0.2010 0.2260
6.270001 0.2430 0.2600 0.2750 0.2750 0.2640
6.301000 0.2390 0.2190 0.1990 0.1650 0.1400
6.332001 0.1190 0.1050 0.1050 0.1080 0.1220
6.363000 0.1430 0.1500 0.1950 0.2190 0.2490
6.394001 0.2580 0.2580 0.2580 0.2520 0.2470
6.425000 0.2490 0.2500 0.2490 0.2490 0.2390
6.456001 0.2160 0.1620 0.1310 0.1200 0.1200
6.487000 0.1300 0.1570 0.1810 0.1960 0.2180
6.518001 0.2460 0.2660 0.2890 0.3140 0.3400
6.549000 0.3690 0.3930 0.4000 0.4080 0.4160
6.580001 0.4210 0.4240 0.4330 0.4450 0.4610
6.611000 0.4720 0.4700 0.4690 0.4620 0.4590
6.642001 0.4560 0.4520 0.4470 0.4420 0.4380
6.673000 0.4300 0.4140 0.3910 0.3800 0.3680
6.704001 0.3450 0.3180 0.2860 0.2670 0.2500
6.735000 0.2390 0.2300 0.2160 0.1960 0.1540
6.766001 0.0920 0.0550 0.0490 0.0460 0.0380
6.797000 0.0290 0.0260 0.0230 0.0230 0.0260
6.828001 0.0300 0.0340 0.0350 0.0340 0.0290
6.859000 0.0290 0.0300 0.0320 0.0400 0.0460
6.890001 0.0550 0.0580 0.0610 0.0680 0.0690
6.921000 0.0690 0.0710 0.0710 0.0720 0.0750
6.952001 0.0780 0.0850 0.0990 0.1170 0.1360
6.983000 0.1540 0.1930 0.2300 0.2600 0.2800
7.014001 0.2980 0.3010 0.3110 0.3120 0.3090
7.045000 0.3000 0.2970 0.2920 0.2890 0.2700
7.076001 0.2610 0.2600 0.2580 0.2530 0.2430
7.107000 0.2180 0.2010 0.1850 0.1650 0.1510
7.138001 0.1480 0.1510 0.1510 0.1620 0.1680
7.169000 0.1680 0.1530 0.1360 0.1200 0.0910
7.200001 0.0580 0.0410 0.0410 0.0470 0.0470
7.231000 0.0470 0.0490 0.0490 0.0540 0.0650
7.262001 0.0820 0.1000 0.1200 0.1360 0.1420
7.293000 0.1540 0.1680 0.1820 0.1960 0.2180
7.324001 0.2440 0.2780 0.3170 0.3310 0.3520
7.355000 0.3680 0.3770 0.3990 0.4140 0.4280
7.386001 0.4360 0.4420 0.4480 0.4530 0.4640
7.417000 0.4760 0.4780 0.4790 0.4840 0.4870
7.448001 0.4900 0.4960 0.5010 0.5090 0.5100
7.479000 0.5170 0.5170 0.5130 0.4890 0.4500
7.510001 0.4020 0.3450 0.2840 0.2670 0.2580
7.541000 0.2610 0.2640 0.2810 0.2870 0.2910
7.572001 0.2910 0.2690 0.2270 0.2180 0.2160
7.602000 0.2260 0.2560 0.2700 0.2950 0.3200
7.633001 0.3450 0.3710 0.3800 0.3970 0.4050
7.664000 0.4170 0.4280 0.4380 0.4500 0.4650
7.695001 0.4780 0.4900 0.5000 0.5010 0.5090
7.726000 0.5200 0.5290 0.5340 0.5370 0.5340
7.757001 0.5340 0.5300 0.5270 0.5200 0.5200
7.788000 0.5210 0.5340 0.5430 0.5580 0.5820
7.819001 0.5920 0.6000 0.6080 0.6130 0.6200
7.850000 0.6280 0.6330 0.6390 0.6420 0.6480
7.881001 0.6540 0.6590 0.6600 0.6620 0.6650
7.912000 0.6680 0.6680 0.6730 0.6780 0.6790
7.943001 0.6810 0.6820 0.6840 0.6850 0.6850
7.974000 0.6840 0.6850 0.6870 0.6930 0.6980
8.005001 0.7020 0.7040 0.7080 0.7100 0.7160
8.036000 0.7210 0.7220 0.7240 0.7260 0.7270
8.067001 0.7270 0.7290 0.7300 0.7290 0.7300
8.098000 0.7320 0.7330 0.7360 0.7390 0.7390
8.129001 0.7360 0.7360 0.7360 0.7360 0.7380
8.160000 0.7380 0.7410 0.7410 0.7430 0.7410
8.191001 0.7360 0.7300 0.7220 0.7150 0.7040
8.222000 0.6880 0.6450 0.5940 0.5130 0.4590
8.253001 0.3880 0.3590 0.3590 0.3770 0.4480
8.284000 0.5000 0.5440 0.5660 0.5780 0.5820
8.315001 0.5800 0.5740 0.5710 0.5680 0.5690
8.346000 0.5780 0.6030 0.6260 0.6420 0.6540
8.377001 0.6670 0.6780 0.6900 0.7020 0.7180
8.408000 0.7210 0.7220 0.7210 0.7180 0.7020
8.439001 0.6880 0.6700 0.6530 0.6340 0.6250
8.470000 0.6190 0.6190 0.6250 0.6480 0.6650
8.501001 0.6780 0.6850 0.6910 0.6930 0.6910
8.532000 0.6840 0.6730 0.6540 0.6330 0.6030
8.563001 0.5550 0.5070 0.4560 0.4100 0.3970
8.594000 0.3960 0.4250 0.5000 0.5180 0.5490
8.625001 0.5800 0.6030 0.6190 0.6280 0.6370
8.656000 0.6480 0.6570 0.6620 0.6670 0.6700
8.687001 0.6730 0.6730 0.6710 0.6700 0.6590
8.718000 0.6400 0.6200 0.6020 0.5850 0.5740
8.749001 0.5710 0.5770 0.5940 0.6140 0.6200
8.780000 0.6260 0.6300 0.6340 0.6420 0.6540
8.811001 0.6620 0.6680 0.6730 0.6840 0.6950
8.842000 0.6990 0.7120 0.7150 0.7160 0.7180
8.873001 0.7190 0.7240 0.7300 0.7300 0.7270
8.904000 0.7210 0.7210 0.7210 0.7240 0.7300
8.935001 0.7300 0.7270 0.7220 0.7190 0.7180
8.966000 0.7160 0.7180 0.7270 0.7270 0.7210
8.997001 0.7160 0.7120 0.7040 0.7010 0.6950
9.028000 0.6910 0.6910 0.6840 0.6760 0.6710
9.059001 0.6680 0.6620 0.6510 0.6310 0.6190
9.090000 0.6030 0.5890 0.5750 0.5510 0.5200
9.121001 0.4790 0.4270 0.3940 0.3520 0.2840
9.152000 0.2410 0.2150 0.1730 0.1470 0.1080
9.183001 0.0890 0.0820 0.0860 0.0890 0.0950
9.214000 0.1060 0.1200 0.1340 0.1670 0.1950
9.245001 0.2350 0.2720 0.3140 0.3520 0.3860
9.276000 0.4190 0.4470 0.4700 0.4920 0.5070
9.307001 0.5170 0.5210 0.5180 0.5130 0.4900
9.338000 0.4590 0.4440 0.4130 0.3740 0.3340
9.369001 0.2700 0.2470 0.2270 0.2240 0.2190
9.400000 0.2130 0.2020 0.1900 0.1740 0.1650
9.431001 0.1430 0.1020 0.0950 0.0750 0.0660
9.462000 0.0610 0.0600 0.0600 0.0610 0.0740
9.493001 0.0880 0.0970 0.1170 0.1300 0.1450
9.524000 0.1650 0.1840 0.2150 0.2380 0.2610
9.555001 0.2830 0.2950 0.3040 0.3110 0.3110
9.586000 0.3090 0.3080 0.3110 0.3370 0.3590
9.617001 0.3830 0.4080 0.4330 0.4590 0.4780
9.648000 0.4980 0.5100 0.5240 0.5320 0.5410
9.679001 0.5510 0.5710 0.5880 0.5950 0.5970
9.710000 0.5990 0.6020 0.6050 0.6060 0.6060
9.741001 0.6060 0.6000 0.5860 0.5740 0.5690
9.772000 0.5600 0.5150 0.4980 0.4780 0.4580
9.803001 0.4380 0.4170 0.3970 0.3970 0.4240
9.834000 0.4520 0.4780 0.5180 0.5400 0.5540
9.865001 0.5740 0.5880 0.6020 0.6080 0.6090
9.896000 0.6110 0.6110 0.6080 0.5990 0.5940
9.927001 0.5880 0.5740 0.5660 0.5460 0.5290
9.958000 0.5270 0.5300 0.5470 0.5650 0.5880
9.989001 0.5950 0.6130 0.6250 0.6360 0.6430
10.019000 0.6510 0.6510 0.6480 0.6480 0.6470
10.050001 0.6470 0.6420 0.6390 0.6260 0.6140
10.081000 0.6000 0.5990 0.6000 0.6050 0.6110
10.112001 0.6190 0.6330 0.6510 0.6600 0.6710
10.143000 0.6840 0.6980 0.7070 0.7080 0.7180
10.174001 0.7270 0.7270 0.7290 0.7330 0.7330
10.205000 0.7300 0.7290 0.7270 0.7270 0.7260
10.236001 0.7240 0.7220 0.7220 0.7240 0.7260
10.267000 0.7260 0.7260 0.7270 0.7270 0.7270
10.298001 0.7290 0.7290 0.7290 0.7300 0.7300
10.329000 0.7320 0.7320 0.7330 0.7330 0.7360
10.360001 0.7380 0.7380 0.7410 0.7490 0.7530
10.391000 0.7550 0.7550 0.7560 0.7560 0.7530
10.422001 0.7530 0.7530 0.7530 0.7530 0.7560
10.453000 0.7560 0.7560 0.7550 0.7530 0.7500
10.484001 0.7490 0.7470 0.7470 0.7430 0.7380
10.515000 0.7300 0.7260 0.7240 0.7210 0.7150
10.546001 0.7070 0.6990 0.6880 0.6760 0.6640
10.577000 0.6480 0.6300 0.6190 0.6050 0.5940
10.608001 0.5770 0.5650 0.5580 0.5520 0.5470
10.639000 0.5370 0.5270 0.5100 0.4980 0.4790
10.670001 0.4610 0.4280 0.3800 0.3390 0.2980
10.701000 0.2640 0.2410 0.2010 0.1540 0.1300
10.732001 0.1020 0.0890 0.0770 0.0660 0.0630
10.763000 0.0610 0.0660 0.0710 0.0820 0.0990
10.794001 0.1060 0.1390 0.1640 0.1910 0.2050
10.825000 0.2240 0.2550 0.2840 0.3120 0.3430
10.856001 0.3690 0.3880 0.4100 0.4410 0.4610
10.887000 0.4720 0.4810 0.4980 0.5130 0.5290
10.918001 0.5380 0.5510 0.5710 0.5880 0.5990
10.949000 0.6020 0.6110 0.6200 0.6300 0.6500
10.980001 0.6590 0.6680 0.6710 0.6760 0.6870
11.011000 0.6930 0.6990 0.7040 0.7100 0.7180
11.042001 0.7270 0.7320 0.7320 0.7360 0.7390
11.073000 0.7440 0.7520 0.7630 0.7670 0.7670
11.104001 0.7700 0.7730 0.7750 0.7770 0.7840
11.135000 0.7860 0.7870 0.7910 0.7940 0.7940
11.166001 0.7950 0.7980 0.7980 0.8030 0.8030
11.197000 0.7970 0.7970 0.8000 0.8040 0.8140
11.228001 0.8150 0.8110 0.8110 0.8110 0.8110
11.259000 0.8110 0.8120 0.8150 0.8120 0.8140
11.290001 0.8150 0.8180 0.8200 0.8200 0.8180
11.321000 0.8170 0.8140 0.8120 0.8110 0.8090
11.352001 0.8030 0.7950 0.7640 0.7220 0.7100
11.383000 0.6950 0.6900 0.6880 0.6880 0.7050
11.414001 0.7300 0.7300 0.7290 0.7180 0.6950
11.445000 0.6700 0.6230 0.5690 0.5100 0.4410
11.476001 0.3690 0.2890 0.2360 0.2290 0.2300
11.507000 0.2360 0.2580 0.2950 0.3340 0.3690
11.538001 0.4050 0.4480 0.4950 0.5370 0.5680
11.569000 0.6000 0.6250 0.6400 0.6620 0.6740
11.600001 0.6930 0.7080 0.7180 0.7260 0.7290
11.631000 0.7320 0.7380 0.7410 0.7470 0.7550
11.662001 0.7610 0.7640 0.7690 0.7730 0.7770
11.693000 0.7810 0.7870 0.7890 0.7950 0.8000
11.724001 0.8010 0.8090 0.8120 0.8170 0.8180
11.755000 0.8200 0.8200 0.8230 0.8310 0.8320
11.786001 0.8320 0.8320 0.8280 0.8320 0.8390
11.817000 0.8430 0.8460 0.8490 0.8520 0.8520
11.848001 0.8570 0.8590 0.8590 0.8620 0.8620
11.879000 0.8630 0.8630 0.8660 0.8690 0.8710
11.910001 0.8730 0.8740 0.8730 0.8680 0.8660
11.941000 0.8680 0.8680 0.8650 0.8630 0.8560
11.972001 0.8390 0.8280 0.8150 0.8040 0.8000
12.003000 0.7800 0.7610 0.7410 0.7150 0.7040
12.034001 0.6760 0.6480 0.6230 0.5990 0.5710
12.065000 0.5550 0.5400 0.5400 0.5410 0.5540
12.096001 0.5740 0.5990 0.6170 0.6340 0.6600
12.127000 0.6910 0.7240 0.7470 0.7690 0.7810
12.158001 0.7950 0.8030 0.8210 0.8310 0.8320
12.189000 0.8370 0.8480 0.8510 0.8590 0.8590
12.220001 0.8570 0.8520 0.8520 0.8510 0.8490
12.251000 0.8450 0.8370 0.8310 0.8290 0.8210
12.282001 0.8180 0.8170 0.8150 0.8150 0.8140
12.313000 0.8110 0.8110 0.8080 0.8010 0.7980
12.344001 0.7870 0.7780 0.7700 0.7670 0.7670
12.375000 0.7700 0.7780 0.7840 0.8040 0.8210
12.406001 0.8290 0.8320 0.8320 0.8340 0.8390
12.436000 0.8450 0.8570 0.8600 0.8660 0.8690
12.467001 0.8680 0.8690 0.8690 0.8710 0.8770
12.498000 0.8790 0.8790 0.8770 0.8790 0.8790
12.529001 0.8790 0.8790 0.8800 0.8800 0.8820
12.560000 0.8830 0.8860 0.8880 0.8880 0.8860
12.591001 0.8880 0.8900 0.8930 0.8970 0.9000
12.622000 0.9040 0.9050 0.9050 0.9050 0.9050
12.653001 0.9070 0.9070 0.9050 0.9000 0.8990
12.684000 0.9000 0.9100 0.9130 0.9190 0.9210
12.715001 0.9220 0.9190 0.9160 0.9160 0.9160
12.746000 0.9160 0.9160 0.9160 0.9160 0.9190
12.777001 0.9210 0.9220 0.9240 0.9240 0.9240
12.808000 0.9210 0.9210 0.9210 0.9220 0.9220
12.839001 0.9220 0.9220 0.9220 0.9220 0.9220
12.870000 0.9220 0.9220 0.9210 0.9210 0.9210
12.901001 0.9210 0.9220 0.9250 0.9270 0.9280
12.932000 0.9270 0.9220 0.9190 0.9170 0.9220
12.963001 0.9220 0.9220 0.9220 0.9220 0.9210
12.994000 0.9210 0.9210 0.9210 0.9210 0.9250
13.025001 0.9250 0.9220 0.9220 0.9240 0.9250
13.056000 0.9270 0.9280 0.9270 0.9280 0.9300
13.087001 0.9300 0.9310 0.9300 0.9310 0.9310
13.118000 0.9310 0.9310 0.9310 0.9310 0.9310
13.149001 0.9310 0.9330 0.9330 0.9330 0.9330
13.180000 0.9340 0.9340 0.9340 0.9340 0.9330
13.211001 0.9280 0.9250 0.9330 0.9330 0.9280
13.242000 0.9280 0.9250 0.9270 0.9270 0.9310
13.273001 0.9310 0.9280 0.9280 0.9250 0.9240
13.304000 0.9240 0.9240 0.9240 0.9250 0.9300
13.335001 0.9300 0.9280 0.9280 0.9270 0.9270
13.366000 0.9250 0.9210 0.9220 0.9210 0.9190
13.397001 0.9170 0.9220 0.9220 0.9190 0.9140
13.428000 0.9170 0.9160 0.9130 0.9110 0.9110
13.459001 0.9100 0.9100 0.9080 0.9070 0.9000
13.490000 0.8960 0.8990 0.8970 0.8960 0.8960
13.521001 0.8930 0.8880 0.8850 0.8830 0.8850
13.552000 0.8880 0.8880 0.8830 0.8820 0.8820
13.583001 0.8800 0.8790 0.8760 0.8710 0.8770
13.614000 0.8730 0.8690 0.8660 0.8660 0.8710
13.645001 0.8760 0.8760 0.8740 0.8730 0.8690
13.676000 0.8660 0.8630 0.8630 0.8630 0.8650
13.707001 0.8710 0.8770 0.8770 0.8740 0.8730
13.738000 0.8710 0.8680 0.8650 0.8620 0.8630
13.769001 0.8690 0.8690 0.8680 0.8630 0.8600
13.800000 0.8620 0.8600 0.8540 0.8560 0.8570
13.831001 0.8560 0.8520 0.8490 0.8480 0.8480
13.862000 0.8460 0.8460 0.8480 0.8510 0.8520
13.893001 0.8520 0.8560 0.8570 0.8600 0.8630
13.924000 0.8660 0.8690 0.8740 0.8800 0.8820
13.955001 0.8910 0.8940 0.8990 0.9000 0.9000
13.986000 0.9000 0.9020 0.9070 0.9110 0.9160
14.017001 0.9210 0.9220 0.9210 0.9140 0.9160
14.048000 0.9220 0.9310 0.9330 0.9310 0.9330
14.079001 0.9340 0.9380 0.9390 0.9390 0.9410
14.110000 0.9440 0.9470 0.9470 0.9480 0.9480
14.141001 0.9500 0.9480 0.9520 0.9550 0.9530
14.172000 0.9520 0.9530 0.9550 0.9550 0.9580
14.203001 0.9580 0.9590 0.9610 0.9610 0.9590
14.234000 0.9580 0.9580 0.9580 0.9580 0.9580
14.265001 0.9590 0.9610 0.9640 0.9650 0.9670
14.296000 0.9670 0.9670 0.9640 0.9610 0.9580
14.327001 0.9560 0.9620 0.9620 0.9610 0.9590
14.358000 0.9560 0.9550 0.9550 0.9580 0.9580
14.389001 0.9580 0.9580 0.9580 0.9580 0.9580
14.420000 0.9560 0.9550 0.9530 0.9530 0.9520
14.451001 0.9500 0.9480 0.9410 0.9410 0.9450
14.482000 0.9500 0.9480 0.9440 0.9440 0.9480
14.513001 0.9480 0.9480 0.9470 0.9420 0.9390
14.544000 0.9380 0.9340 0.9330 0.9310 0.9300
14.575001 0.9300 0.9280 0.9280 0.9270 0.9210
14.606000 0.9190 0.9190 0.9190 0.9210 0.9270
14.637001 0.9270 0.9220 0.9170 0.9140 0.9170
14.668000 0.9160 0.9140 0.9130 0.9110 0.9100
14.699001 0.9080 0.9000 0.9040 0.9070 0.9070
14.730000 0.9040 0.9000 0.8940 0.8910 0.8880
14.761001 0.8860 0.8860 0.8830 0.8800 0.8820
14.792000 0.8830 0.8820 0.8820 0.8790 0.8770
14.823001 0.8710 0.8690 0.8690 0.8740 0.8740
14.853000 0.8680 0.8660 0.8650 0.8660 0.8630
14.884001 0.8620 0.8590 0.8570 0.8490 0.8460
14.915000 0.8460 0.8480 0.8480 0.8460 0.8460
14.946001 0.8430 0.8420 0.8400 0.8390 0.8390
14.977000 0.8350 0.8280 0.8230 0.8030 0.7950
15.008001 0.7870 0.7770 0.7560 0.7500 0.7380
15.039000 0.7290 0.7180 0.7010 0.6900 0.6790
15.070001 0.6760 0.6710 0.6710 0.6760 0.6790
15.101000 0.6810 0.6870 0.6880 0.6900 0.6980
15.132001 0.7040 0.7120 0.7180 0.7190 0.7240
15.163000 0.7350 0.7390 0.7430 0.7470 0.7500
15.194001 0.7550 0.7630 0.7640 0.7670 0.7670
15.225000 0.7690 0.7700 0.7700 0.7720 0.7720
15.256001 0.7720 0.7730 0.7700 0.7690 0.7660
15.287000 0.7630 0.7610 0.7610 0.7610 0.7610
15.318001 0.7600 0.7600 0.7560 0.7530 0.7520
15.349000 0.7490 0.7410 0.7390 0.7380 0.7390
15.380001 0.7390 0.7380 0.7380 0.7380 0.7360
15.411000 0.7360 0.7320 0.7290 0.7270 0.7270
15.442001 0.7240 0.7220 0.7210 0.7160 0.7130
15.473000 0.7080 0.7050 0.7010 0.7010 0.6990
15.504001 0.6980 0.6980 0.6980 0.6960 0.6960
15.535000 0.6950 0.6930 0.6900 0.6880 0.6840
15.566001 0.6810 0.6790 0.6790 0.6790 0.6780
15.597000 0.6760 0.6740 0.6710 0.6700 0.6680
15.628001 0.6670 0.6650 0.6620 0.6600 0.6590
15.659000 0.6570 0.6540 0.6510 0.6480 0.6450
15.690001 0.6420 0.6400 0.6390 0.6390 0.6370
15.721000 0.6340 0.6310 0.6300 0.6260 0.6230
15.752001 0.6230 0.6190 0.6170 0.6130 0.6080
15.783000 0.6000 0.5950 0.5940 0.5940 0.5970
15.814001 0.6050 0.6050 0.6020 0.5970 0.5910
15.845000 0.5850 0.5780 0.5770 0.5750 0.5750
15.876001 0.5780 0.5770 0.5770 0.5770 0.5750
15.907000 0.5740 0.5710 0.5650 0.5600 0.5580
15.938001 0.5570 0.5550 0.5490 0.5470 0.5440
15.969000 0.5400 0.5370 0.5350 0.5340 0.5300
16.000001 0.5260 0.5230
##END=
