##TITLE=SILICONE FLUID 550
$$ DOW CORNING
##JCAMP-DX=4.24
##DATA TYPE=INFRARED SPECTRUM
##CLASS=COBLENTZ
##ORIGIN=WYANDOTTE CHEMICALS CORP., WYANDOTTE, MICHIGAN, USA
##OWNER=COBLENTZ SOCIETY
Collection (C) 2018 copyright by the U.S. Secretary of Commerce
on behalf of the United States of America. All rights reserved.
##DATE=Not specified, most likely prior to 1970
##MOLFORM=C14 H16 O2 Si2 X2
##SOURCE REFERENCE=COBLENTZ NO. 3900
##$NIST ID=B6003900
##$NIST SOURCE=COBLENTZ
##$NIST IMAGE=cob3900
##SPECTROMETER/DATA SYSTEM=Not specified, most likely a prism, grating, or hybrid spectrometer.
##STATE=LIQUID
##PATH LENGTH=CAPILLARY
##SAMPLING PROCEDURE=TRANSMISSION
##RESOLUTION=4
##DATA PROCESSING=DIGITIZED BY NIST FROM HARD COPY
##XUNITS=MICROMETERS
##YUNITS=TRANSMITTANCE
##XFACTOR=1.000000
##YFACTOR=1
##DELTAX=000.006203
##FIRSTX=2.019
##LASTX=15.9998
##FIRSTY=0.93
##MAXX=15.9998
##MINX=2.019
##MAXY=0.981
##MINY=0.121
##NPOINTS=2255
##XYDATA=(X++(Y..Y))
2.019000 0.9300 0.9310 0.9310 0.9310 0.9300
2.050028 0.9310 0.9310 0.9330 0.9340 0.9330
2.081000 0.9310 0.9330 0.9340 0.9340 0.9360
2.112028 0.9370 0.9370 0.9370 0.9390 0.9400
2.143000 0.9400 0.9400 0.9400 0.9390 0.9370
2.174028 0.9370 0.9360 0.9360 0.9360 0.9360
2.205000 0.9360 0.9360 0.9360 0.9370 0.9390
2.236028 0.9400 0.9400 0.9420 0.9420 0.9420
2.267000 0.9470 0.9480 0.9480 0.9480 0.9500
2.298028 0.9510 0.9510 0.9510 0.9530 0.9530
2.329000 0.9530 0.9510 0.9510 0.9510 0.9500
2.360028 0.9500 0.9480 0.9480 0.9480 0.9480
2.391000 0.9480 0.9500 0.9510 0.9530 0.9540
2.422028 0.9560 0.9560 0.9560 0.9560 0.9560
2.453000 0.9560 0.9560 0.9560 0.9580 0.9590
2.484028 0.9610 0.9620 0.9650 0.9650 0.9670
2.515000 0.9670 0.9700 0.9720 0.9720 0.9720
2.546028 0.9730 0.9730 0.9750 0.9760 0.9760
2.577000 0.9760 0.9750 0.9730 0.9650 0.9610
2.608028 0.9610 0.9640 0.9680 0.9720 0.9720
2.639000 0.9720 0.9720 0.9700 0.9700 0.9700
2.670028 0.9680 0.9680 0.9680 0.9680 0.9670
2.701000 0.9670 0.9670 0.9670 0.9670 0.9670
2.732028 0.9670 0.9670 0.9680 0.9680 0.9700
2.763000 0.9700 0.9700 0.9700 0.9680 0.9680
2.794028 0.9670 0.9670 0.9650 0.9620 0.9620
2.825000 0.9620 0.9620 0.9590 0.9540 0.9510
2.856028 0.9480 0.9480 0.9420 0.9400 0.9400
2.887000 0.9390 0.9390 0.9370 0.9370 0.9370
2.918028 0.9370 0.9370 0.9360 0.9360 0.9360
2.949000 0.9360 0.9360 0.9360 0.9360 0.9360
2.980028 0.9360 0.9360 0.9360 0.9360 0.9370
3.011000 0.9370 0.9370 0.9360 0.9360 0.9340
3.042028 0.9340 0.9340 0.9340 0.9340 0.9340
3.073000 0.9330 0.9330 0.9330 0.9310 0.9310
3.104028 0.9310 0.9310 0.9300 0.9300 0.9280
3.135000 0.9270 0.9200 0.9140 0.9110 0.9080
3.166028 0.9030 0.8990 0.8920 0.8890 0.8880
3.197000 0.8850 0.8810 0.8780 0.8770 0.8740
3.228028 0.8680 0.8520 0.8360 0.8010 0.7730
3.259000 0.7500 0.7420 0.7430 0.7500 0.7590
3.290028 0.7770 0.7810 0.7770 0.7740 0.7700
3.321000 0.7680 0.7700 0.7700 0.7670 0.7290
3.352028 0.6810 0.6300 0.5930 0.5930 0.6280
3.383000 0.6940 0.7150 0.7590 0.7870 0.7930
3.414028 0.7990 0.7990 0.8010 0.8010 0.8020
3.445000 0.8040 0.8150 0.8210 0.8270 0.8300
3.476028 0.8330 0.8380 0.8430 0.8490 0.8520
3.507000 0.8540 0.8550 0.8580 0.8610 0.8630
3.538028 0.8640 0.8680 0.8750 0.8800 0.8810
3.569000 0.8850 0.8860 0.8890 0.8910 0.8940
3.600028 0.8990 0.9000 0.9020 0.9020 0.9080
3.631000 0.9110 0.9060 0.9060 0.9080 0.9080
3.662028 0.9090 0.9110 0.9130 0.9130 0.9130
3.693000 0.9130 0.9130 0.9130 0.9140 0.9170
3.724028 0.9170 0.9190 0.9190 0.9200 0.9200
3.755000 0.9220 0.9250 0.9280 0.9300 0.9300
3.786028 0.9310 0.9330 0.9340 0.9340 0.9340
3.817000 0.9330 0.9330 0.9340 0.9340 0.9340
3.848028 0.9340 0.9340 0.9340 0.9340 0.9340
3.879000 0.9340 0.9340 0.9360 0.9370 0.9390
3.910028 0.9400 0.9420 0.9450 0.9450 0.9470
3.942000 0.9480 0.9480 0.9480 0.9480 0.9480
3.973028 0.9480 0.9480 0.9480 0.9470 0.9470
4.004000 0.9450 0.9470 0.9450 0.9450 0.9450
4.035028 0.9440 0.9440 0.9440 0.9440 0.9440
4.066000 0.9440 0.9450 0.9450 0.9450 0.9450
4.097028 0.9450 0.9450 0.9450 0.9450 0.9450
4.128000 0.9450 0.9480 0.9480 0.9480 0.9470
4.159028 0.9480 0.9480 0.9480 0.9480 0.9480
4.190000 0.9480 0.9480 0.9480 0.9500 0.9500
4.221028 0.9500 0.9500 0.9480 0.9480 0.9470
4.252000 0.9470 0.9470 0.9480 0.9480 0.9500
4.283028 0.9530 0.9620 0.9640 0.9650 0.9670
4.314000 0.9670 0.9670 0.9670 0.9670 0.9680
4.345028 0.9700 0.9730 0.9780 0.9790 0.9810
4.376000 0.9810 0.9790 0.9780 0.9760 0.9730
4.407028 0.9700 0.9680 0.9650 0.9650 0.9670
4.438000 0.9680 0.9680 0.9670 0.9640 0.9640
4.469028 0.9650 0.9650 0.9650 0.9670 0.9680
4.500000 0.9670 0.9670 0.9650 0.9650 0.9650
4.531028 0.9670 0.9670 0.9670 0.9670 0.9680
4.562000 0.9680 0.9700 0.9700 0.9700 0.9680
4.593028 0.9680 0.9670 0.9670 0.9670 0.9680
4.624000 0.9680 0.9680 0.9680 0.9680 0.9680
4.655028 0.9680 0.9680 0.9680 0.9700 0.9720
4.686000 0.9720 0.9700 0.9700 0.9700 0.9700
4.717028 0.9700 0.9700 0.9700 0.9700 0.9720
4.748000 0.9720 0.9720 0.9720 0.9720 0.9720
4.779028 0.9720 0.9720 0.9720 0.9720 0.9700
4.810000 0.9700 0.9720 0.9730 0.9730 0.9730
4.841028 0.9730 0.9720 0.9720 0.9720 0.9720
4.872000 0.9720 0.9720 0.9720 0.9720 0.9720
4.903028 0.9720 0.9720 0.9720 0.9720 0.9720
4.934000 0.9720 0.9720 0.9720 0.9730 0.9730
4.965028 0.9730 0.9750 0.9750 0.9750 0.9750
4.996000 0.9750 0.9730 0.9720 0.9720 0.9700
5.027028 0.9680 0.9650 0.9640 0.9640 0.9640
5.058000 0.9620 0.9610 0.9610 0.9620 0.9640
5.089028 0.9670 0.9670 0.9640 0.9620 0.9610
5.120000 0.9610 0.9590 0.9590 0.9580 0.9540
5.151028 0.9510 0.9500 0.9400 0.9360 0.9360
5.182000 0.9390 0.9400 0.9420 0.9500 0.9540
5.213028 0.9560 0.9580 0.9580 0.9590 0.9590
5.244000 0.9610 0.9610 0.9610 0.9590 0.9590
5.275028 0.9590 0.9590 0.9590 0.9580 0.9530
5.306000 0.9530 0.9510 0.9510 0.9500 0.9500
5.337028 0.9480 0.9440 0.9420 0.9420 0.9450
5.368000 0.9510 0.9540 0.9610 0.9650 0.9670
5.399028 0.9670 0.9680 0.9620 0.9640 0.9700
5.430000 0.9700 0.9670 0.9640 0.9640 0.9620
5.461028 0.9640 0.9640 0.9640 0.9610 0.9590
5.492000 0.9560 0.9530 0.9500 0.9480 0.9480
5.523028 0.9420 0.9420 0.9420 0.9420 0.9420
5.554000 0.9440 0.9500 0.9530 0.9560 0.9580
5.585028 0.9580 0.9590 0.9610 0.9670 0.9670
5.616000 0.9640 0.9590 0.9560 0.9560 0.9540
5.647028 0.9510 0.9480 0.9440 0.9420 0.9420
5.678000 0.9420 0.9420 0.9420 0.9440 0.9450
5.709028 0.9480 0.9500 0.9500 0.9510 0.9510
5.740000 0.9500 0.9500 0.9500 0.9480 0.9480
5.771028 0.9480 0.9470 0.9450 0.9450 0.9450
5.802000 0.9440 0.9450 0.9450 0.9450 0.9440
5.833028 0.9400 0.9390 0.9330 0.9300 0.9280
5.864000 0.9280 0.9300 0.9300 0.9310 0.9300
5.895028 0.9250 0.9190 0.9130 0.9090 0.9110
5.926000 0.9130 0.9110 0.9090 0.9030 0.9020
5.957028 0.9030 0.9030 0.9030 0.9030 0.9000
5.988000 0.8970 0.8970 0.9000 0.9000 0.9000
6.019028 0.9000 0.9000 0.9000 0.9000 0.9000
6.051000 0.8990 0.8910 0.8910 0.8890 0.8890
6.082028 0.8910 0.8920 0.8920 0.8920 0.8940
6.113000 0.8940 0.8990 0.8990 0.8950 0.8940
6.144028 0.8920 0.8910 0.8890 0.8810 0.8750
6.175000 0.8750 0.8780 0.8810 0.8810 0.8800
6.206028 0.8770 0.8720 0.8690 0.8550 0.8470
6.237000 0.8220 0.8100 0.8120 0.8330 0.8490
6.268028 0.8630 0.8740 0.8780 0.8810 0.8830
6.299000 0.8860 0.8910 0.8940 0.8990 0.9000
6.330028 0.9020 0.9030 0.9030 0.9030 0.9020
6.361000 0.9020 0.9020 0.9030 0.9030 0.9050
6.392028 0.9050 0.9050 0.9030 0.9020 0.9020
6.423000 0.9020 0.9020 0.9020 0.9030 0.9050
6.454028 0.9060 0.9050 0.9020 0.9020 0.9000
6.485000 0.9000 0.8990 0.9000 0.9050 0.9060
6.516028 0.9020 0.9020 0.9020 0.9020 0.9020
6.547000 0.9020 0.9020 0.9020 0.9050 0.9060
6.578028 0.9090 0.9090 0.9080 0.9030 0.9030
6.609000 0.9080 0.9080 0.9080 0.9080 0.9080
6.640028 0.9050 0.9050 0.9050 0.9020 0.8990
6.671000 0.8890 0.8830 0.8770 0.8720 0.8710
6.702028 0.8750 0.8780 0.8850 0.8890 0.8920
6.733000 0.8940 0.8920 0.8890 0.8860 0.8850
6.764028 0.8830 0.8800 0.8770 0.8750 0.8750
6.795000 0.8750 0.8740 0.8690 0.8690 0.8680
6.826028 0.8660 0.8640 0.8630 0.8610 0.8610
6.857000 0.8610 0.8610 0.8600 0.8600 0.8600
6.888028 0.8570 0.8550 0.8550 0.8540 0.8520
6.919000 0.8520 0.8500 0.8470 0.8380 0.8240
6.950028 0.8010 0.7740 0.7260 0.6860 0.6380
6.981000 0.6250 0.6300 0.6900 0.7170 0.7600
7.012028 0.8190 0.8190 0.8180 0.8120 0.8100
7.043000 0.8100 0.8070 0.8050 0.8010 0.7950
7.074028 0.7880 0.7880 0.7960 0.7990 0.8040
7.105000 0.8070 0.8100 0.8130 0.8160 0.8180
7.136028 0.8190 0.8210 0.8270 0.8290 0.8330
7.167000 0.8400 0.8490 0.8570 0.8580 0.8600
7.198028 0.8660 0.8680 0.8710 0.8720 0.8720
7.229000 0.8720 0.8720 0.8720 0.8740 0.8750
7.260028 0.8750 0.8740 0.8740 0.8720 0.8740
7.291000 0.8770 0.8850 0.8890 0.8910 0.8910
7.322028 0.8910 0.8920 0.8970 0.8970 0.8990
7.353000 0.8990 0.8990 0.9000 0.9030 0.9020
7.384028 0.9000 0.8990 0.8990 0.9000 0.9000
7.415000 0.8990 0.8990 0.8970 0.8950 0.8940
7.446028 0.8940 0.8940 0.8940 0.8970 0.8970
7.477000 0.8970 0.8940 0.8910 0.8910 0.8890
7.508028 0.8880 0.8830 0.8800 0.8770 0.8770
7.539000 0.8710 0.8680 0.8680 0.8640 0.8640
7.570028 0.8640 0.8640 0.8660 0.8680 0.8710
7.601000 0.8720 0.8720 0.8690 0.8610 0.8610
7.632028 0.8610 0.8610 0.8630 0.8610 0.8600
7.663000 0.8580 0.8570 0.8550 0.8550 0.8540
7.694028 0.8550 0.8550 0.8570 0.8570 0.8580
7.725000 0.8580 0.8600 0.8580 0.8540 0.8490
7.756028 0.8470 0.8430 0.8380 0.8350 0.8300
7.787000 0.8220 0.8190 0.8130 0.8090 0.7990
7.818028 0.7850 0.7740 0.7540 0.7310 0.7170
7.849000 0.6890 0.6530 0.6250 0.5740 0.5210
7.880028 0.4700 0.4030 0.3570 0.3040 0.2590
7.911000 0.2320 0.2120 0.2000 0.1970 0.2000
7.942028 0.2180 0.2450 0.2930 0.3350 0.3750
7.973000 0.4050 0.4420 0.4890 0.5180 0.5310
8.004028 0.5370 0.6270 0.6580 0.6950 0.7120
8.035000 0.7320 0.7480 0.7570 0.7680 0.7700
8.066028 0.7810 0.7950 0.8010 0.8130 0.8150
8.097000 0.8160 0.8160 0.8160 0.8180 0.8180
8.128028 0.8190 0.8190 0.8220 0.8220 0.8220
8.160000 0.8220 0.8240 0.8260 0.8260 0.8240
8.191028 0.8220 0.8220 0.8210 0.8210 0.8210
8.222000 0.8210 0.8210 0.8210 0.8220 0.8220
8.253028 0.8240 0.8220 0.8220 0.8220 0.8220
8.284000 0.8270 0.8270 0.8260 0.8260 0.8260
8.315028 0.8240 0.8220 0.8210 0.8180 0.8180
8.346000 0.8190 0.8190 0.8190 0.8160 0.8160
8.377028 0.8150 0.8130 0.8130 0.8120 0.8120
8.408000 0.8120 0.8120 0.8120 0.8150 0.8150
8.439028 0.8150 0.8160 0.8180 0.8180 0.8120
8.470000 0.8100 0.8070 0.8040 0.8020 0.8020
8.501028 0.8010 0.8010 0.7950 0.7930 0.7880
8.532000 0.7850 0.7820 0.7810 0.7770 0.7710
8.563028 0.7680 0.7620 0.7540 0.7500 0.7390
8.594000 0.7360 0.7280 0.7180 0.7120 0.7030
8.625028 0.6980 0.6830 0.6730 0.6690 0.6660
8.656000 0.6630 0.6590 0.6550 0.6500 0.6420
8.687028 0.6240 0.6190 0.6130 0.5990 0.5830
8.718000 0.5720 0.5570 0.5410 0.5240 0.5090
8.749028 0.4980 0.4780 0.4590 0.4390 0.4200
8.780000 0.4000 0.3770 0.3550 0.3330 0.3070
8.811028 0.2810 0.2600 0.2460 0.2340 0.2180
8.842000 0.1980 0.1780 0.1660 0.1580 0.1490
8.873028 0.1470 0.1450 0.1440 0.1450 0.1530
8.904000 0.1630 0.1750 0.1840 0.2000 0.2110
8.935028 0.2180 0.2280 0.2340 0.2400 0.2400
8.966000 0.2360 0.2320 0.2200 0.2110 0.2030
8.997028 0.1980 0.1890 0.1770 0.1730 0.1720
9.028000 0.1660 0.1580 0.1520 0.1490 0.1440
9.059028 0.1420 0.1410 0.1390 0.1380 0.1330
9.090000 0.1310 0.1300 0.1300 0.1300 0.1310
9.121028 0.1310 0.1310 0.1310 0.1310 0.1300
9.152000 0.1280 0.1280 0.1270 0.1270 0.1280
9.183028 0.1280 0.1280 0.1300 0.1300 0.1300
9.214000 0.1300 0.1300 0.1300 0.1300 0.1300
9.245028 0.1300 0.1310 0.1310 0.1310 0.1310
9.276000 0.1330 0.1330 0.1350 0.1380 0.1390
9.307028 0.1390 0.1410 0.1410 0.1410 0.1440
9.338000 0.1450 0.1490 0.1500 0.1530 0.1530
9.369028 0.1500 0.1500 0.1490 0.1490 0.1500
9.400000 0.1520 0.1550 0.1560 0.1520 0.1520
9.431028 0.1520 0.1520 0.1550 0.1550 0.1550
9.462000 0.1560 0.1560 0.1560 0.1560 0.1560
9.493028 0.1580 0.1580 0.1580 0.1580 0.1560
9.524000 0.1560 0.1550 0.1550 0.1550 0.1550
9.555028 0.1550 0.1550 0.1530 0.1550 0.1550
9.586000 0.1530 0.1530 0.1530 0.1520 0.1520
9.617028 0.1520 0.1520 0.1500 0.1490 0.1490
9.648000 0.1450 0.1420 0.1410 0.1380 0.1360
9.679028 0.1350 0.1300 0.1270 0.1240 0.1240
9.710000 0.1220 0.1220 0.1220 0.1210 0.1210
9.741028 0.1210 0.1220 0.1240 0.1280 0.1280
9.772000 0.1270 0.1270 0.1270 0.1280 0.1300
9.803028 0.1310 0.1330 0.1420 0.1440 0.1450
9.834000 0.1490 0.1500 0.1590 0.1690 0.1770
9.865028 0.1840 0.1900 0.1980 0.2030 0.2110
9.896000 0.2290 0.2450 0.2590 0.2680 0.2790
9.927028 0.2880 0.3020 0.3290 0.3430 0.3600
9.958000 0.3720 0.3890 0.4020 0.4140 0.4280
9.989028 0.4300 0.4310 0.4330 0.4370 0.4480
10.020000 0.4590 0.4720 0.4900 0.5200 0.5400
10.051028 0.5510 0.5690 0.5850 0.5970 0.6020
10.082000 0.6080 0.6130 0.6240 0.6330 0.6500
10.113028 0.6580 0.6630 0.6730 0.6810 0.6830
10.144000 0.6890 0.6920 0.7010 0.7090 0.7180
10.175028 0.7280 0.7310 0.7340 0.7390 0.7430
10.206000 0.7500 0.7570 0.7630 0.7650 0.7670
10.237028 0.7680 0.7710 0.7730 0.7760 0.7770
10.268000 0.7810 0.7870 0.7880 0.7910 0.7960
10.299028 0.7990 0.8010 0.8010 0.8010 0.8010
10.331000 0.8020 0.8090 0.8100 0.8120 0.8150
10.362028 0.8160 0.8160 0.8180 0.8190 0.8210
10.393000 0.8260 0.8270 0.8290 0.8320 0.8350
10.424028 0.8350 0.8380 0.8410 0.8430 0.8440
10.455000 0.8470 0.8470 0.8470 0.8470 0.8470
10.486028 0.8490 0.8500 0.8540 0.8540 0.8520
10.517000 0.8520 0.8520 0.8520 0.8520 0.8520
10.548028 0.8520 0.8520 0.8520 0.8520 0.8520
10.579000 0.8520 0.8540 0.8550 0.8550 0.8570
10.610028 0.8580 0.8600 0.8600 0.8600 0.8600
10.641000 0.8600 0.8600 0.8600 0.8600 0.8610
10.672028 0.8630 0.8640 0.8630 0.8630 0.8610
10.703000 0.8610 0.8610 0.8610 0.8630 0.8640
10.734028 0.8640 0.8640 0.8640 0.8640 0.8640
10.765000 0.8640 0.8660 0.8660 0.8660 0.8640
10.796028 0.8640 0.8640 0.8630 0.8630 0.8640
10.827000 0.8640 0.8640 0.8640 0.8640 0.8630
10.858028 0.8600 0.8570 0.8540 0.8520 0.8520
10.889000 0.8520 0.8520 0.8520 0.8520 0.8520
10.920028 0.8520 0.8520 0.8520 0.8520 0.8520
10.951000 0.8470 0.8460 0.8490 0.8500 0.8540
10.982028 0.8550 0.8550 0.8540 0.8540 0.8500
11.013000 0.8500 0.8520 0.8520 0.8520 0.8540
11.044028 0.8550 0.8550 0.8570 0.8570 0.8550
11.075000 0.8550 0.8540 0.8520 0.8520 0.8500
11.106028 0.8490 0.8490 0.8430 0.8410 0.8400
11.137000 0.8400 0.8380 0.8360 0.8330 0.8320
11.168028 0.8320 0.8300 0.8290 0.8220 0.8210
11.199000 0.8210 0.8210 0.8180 0.8180 0.8150
11.230028 0.8150 0.8130 0.8100 0.8090 0.8090
11.261000 0.8090 0.8070 0.8050 0.8020 0.8010
11.292028 0.7990 0.7990 0.7980 0.7950 0.7900
11.323000 0.7870 0.7810 0.7790 0.7730 0.7670
11.354028 0.7620 0.7570 0.7540 0.7510 0.7500
11.385000 0.7480 0.7390 0.7360 0.7310 0.7280
11.416028 0.7220 0.7180 0.7140 0.7090 0.7010
11.447000 0.6970 0.6890 0.6860 0.6800 0.6700
11.478028 0.6610 0.6530 0.6470 0.6410 0.6380
11.509000 0.6310 0.6270 0.6220 0.6180 0.6130
11.540028 0.6080 0.6040 0.6000 0.5990 0.6000
11.571000 0.6020 0.6040 0.6020 0.6000 0.5990
11.602028 0.5940 0.5880 0.5860 0.5820 0.5790
11.633000 0.5770 0.5770 0.5760 0.5690 0.5660
11.664028 0.5590 0.5520 0.5490 0.5430 0.5400
11.695000 0.5370 0.5270 0.5070 0.5010 0.4980
11.726028 0.4980 0.4930 0.4900 0.4870 0.4790
11.757000 0.4760 0.4730 0.4670 0.4610 0.4580
11.788028 0.4510 0.4480 0.4440 0.4370 0.4340
11.819000 0.4310 0.4270 0.4220 0.4170 0.4170
11.850028 0.4140 0.4130 0.4090 0.4080 0.4080
11.881000 0.4060 0.4060 0.4060 0.4060 0.4080
11.912028 0.4090 0.4130 0.4170 0.4200 0.4310
11.943000 0.4400 0.4500 0.4580 0.4620 0.4720
11.974028 0.4790 0.4870 0.4900 0.4950 0.5030
12.005000 0.5150 0.5310 0.5350 0.5400 0.5410
12.036028 0.5480 0.5550 0.5600 0.5680 0.5710
12.067000 0.5720 0.5720 0.5720 0.5740 0.5740
12.098028 0.5760 0.5770 0.5770 0.5760 0.5740
12.129000 0.5710 0.5690 0.5680 0.5660 0.5630
12.160028 0.5600 0.5570 0.5510 0.5430 0.5400
12.191000 0.5370 0.5320 0.5270 0.5240 0.5150
12.222028 0.5090 0.5010 0.4980 0.4980 0.4920
12.253000 0.4890 0.4820 0.4780 0.4720 0.4650
12.284028 0.4510 0.4480 0.4420 0.4390 0.4370
12.315000 0.4310 0.4270 0.4220 0.4140 0.4080
12.346028 0.4020 0.3950 0.3810 0.3770 0.3660
12.377000 0.3570 0.3490 0.3470 0.3440 0.3350
12.408028 0.3240 0.3150 0.3100 0.3010 0.2980
12.440000 0.2900 0.2820 0.2730 0.2670 0.2590
12.471028 0.2510 0.2480 0.2420 0.2400 0.2390
12.502000 0.2320 0.2290 0.2280 0.2200 0.2180
12.533028 0.2140 0.2140 0.2120 0.2120 0.2110
12.564000 0.2110 0.2110 0.2110 0.2110 0.2120
12.595028 0.2120 0.2120 0.2090 0.2090 0.2090
12.626000 0.2090 0.2110 0.2110 0.2120 0.2150
12.657028 0.2170 0.2170 0.2180 0.2200 0.2260
12.688000 0.2290 0.2310 0.2320 0.2340 0.2360
12.719028 0.2370 0.2420 0.2480 0.2530 0.2590
12.750000 0.2620 0.2650 0.2680 0.2700 0.2710
12.781028 0.2730 0.2730 0.2770 0.2840 0.2850
12.812000 0.2880 0.2910 0.2910 0.2990 0.3040
12.843028 0.3070 0.3070 0.3100 0.3130 0.3190
12.874000 0.3220 0.3300 0.3330 0.3360 0.3400
12.905028 0.3470 0.3490 0.3550 0.3610 0.3690
12.936000 0.3810 0.3910 0.4000 0.4050 0.4080
12.967028 0.4130 0.4190 0.4280 0.4340 0.4400
12.998000 0.4500 0.4640 0.4730 0.4780 0.4840
13.029028 0.4890 0.4980 0.5000 0.5010 0.5010
13.060000 0.5030 0.5060 0.5070 0.5070 0.5090
13.091028 0.5090 0.5090 0.5090 0.5070 0.5070
13.122000 0.5040 0.5030 0.5000 0.4960 0.4950
13.153028 0.4930 0.4900 0.4890 0.4870 0.4860
13.184000 0.4840 0.4820 0.4810 0.4810 0.4810
13.215028 0.4790 0.4780 0.4780 0.4760 0.4780
13.246000 0.4780 0.4790 0.4810 0.4810 0.4820
13.277028 0.4870 0.4900 0.4920 0.4930 0.4960
13.308000 0.4980 0.5000 0.5030 0.5040 0.5070
13.339028 0.5090 0.5150 0.5230 0.5320 0.5380
13.370000 0.5400 0.5430 0.5480 0.5490 0.5510
13.401028 0.5600 0.5680 0.5710 0.5740 0.5740
13.432000 0.5740 0.5760 0.5770 0.5770 0.5790
13.463028 0.5790 0.5790 0.5820 0.5820 0.5800
13.494000 0.5790 0.5770 0.5720 0.5680 0.5630
13.525028 0.5600 0.5510 0.5380 0.5270 0.5210
13.556000 0.5130 0.5040 0.4980 0.4890 0.4790
13.587028 0.4680 0.4610 0.4530 0.4470 0.4400
13.618000 0.4340 0.4230 0.4190 0.4160 0.4090
13.649028 0.4000 0.3910 0.3850 0.3810 0.3800
13.680000 0.3810 0.3850 0.3860 0.3830 0.3800
13.711028 0.3750 0.3720 0.3720 0.3740 0.3800
13.742000 0.3850 0.3880 0.3890 0.3910 0.4000
13.773028 0.4080 0.4110 0.4190 0.4270 0.4340
13.804000 0.4450 0.4500 0.4640 0.4790 0.4890
13.835028 0.5000 0.5120 0.5240 0.5350 0.5490
13.866000 0.5570 0.5710 0.5800 0.5970 0.6080
13.897028 0.6130 0.6220 0.6310 0.6410 0.6520
13.928000 0.6590 0.6660 0.6700 0.6810 0.6870
13.959028 0.6920 0.6970 0.6980 0.7010 0.7090
13.990000 0.7120 0.7170 0.7220 0.7250 0.7280
14.021028 0.7290 0.7290 0.7290 0.7290 0.7290
14.052000 0.7310 0.7290 0.7290 0.7280 0.7230
14.083028 0.7220 0.7220 0.7220 0.7200 0.7180
14.114000 0.7140 0.7080 0.7010 0.7000 0.6980
14.145028 0.6940 0.6870 0.6810 0.6730 0.6690
14.176000 0.6670 0.6590 0.6550 0.6520 0.6410
14.207028 0.6310 0.6250 0.6210 0.6130 0.6020
14.238000 0.5900 0.5830 0.5790 0.5690 0.5620
14.269028 0.5520 0.5430 0.5290 0.5120 0.5060
14.300000 0.4960 0.4870 0.4760 0.4680 0.4620
14.331028 0.4580 0.4440 0.4370 0.4370 0.4310
14.362000 0.4280 0.4270 0.4250 0.4270 0.4280
14.393028 0.4300 0.4330 0.4400 0.4480 0.4540
14.424000 0.4670 0.4760 0.4860 0.5000 0.5100
14.455028 0.5180 0.5260 0.5350 0.5480 0.5620
14.486000 0.5740 0.5880 0.5970 0.6000 0.6040
14.517028 0.6140 0.6220 0.6280 0.6410 0.6500
14.549000 0.6550 0.6640 0.6720 0.6750 0.6780
14.580028 0.6780 0.6810 0.6840 0.6900 0.6980
14.611000 0.7010 0.7040 0.7060 0.7060 0.7080
14.642028 0.7090 0.7120 0.7170 0.7200 0.7220
14.673000 0.7250 0.7260 0.7260 0.7280 0.7280
14.704028 0.7260 0.7260 0.7280 0.7310 0.7340
14.735000 0.7370 0.7390 0.7400 0.7400 0.7420
14.766028 0.7430 0.7460 0.7460 0.7450 0.7450
14.797000 0.7430 0.7430 0.7450 0.7460 0.7460
14.828028 0.7460 0.7460 0.7460 0.7480 0.7480
14.859000 0.7500 0.7540 0.7540 0.7560 0.7590
14.890028 0.7600 0.7600 0.7600 0.7600 0.7630
14.921000 0.7650 0.7650 0.7650 0.7670 0.7670
14.952028 0.7670 0.7670 0.7680 0.7680 0.7680
14.983000 0.7670 0.7670 0.7670 0.7680 0.7700
15.014028 0.7700 0.7700 0.7700 0.7710 0.7710
15.045000 0.7710 0.7700 0.7680 0.7700 0.7710
15.076028 0.7730 0.7730 0.7740 0.7760 0.7770
15.107000 0.7770 0.7790 0.7810 0.7840 0.7850
15.138028 0.7870 0.7900 0.7910 0.7930 0.7950
15.169000 0.7950 0.7960 0.7960 0.7980 0.7980
15.200028 0.7980 0.7990 0.7990 0.7990 0.7990
15.231000 0.7980 0.7980 0.7980 0.7980 0.7980
15.262028 0.7980 0.7980 0.7980 0.7980 0.7980
15.293000 0.7980 0.7980 0.7960 0.7960 0.7950
15.324028 0.7950 0.7950 0.7950 0.7950 0.7950
15.355000 0.7930 0.7930 0.7930 0.7910 0.7900
15.386028 0.7900 0.7880 0.7880 0.7870 0.7850
15.417000 0.7840 0.7810 0.7770 0.7740 0.7740
15.448028 0.7730 0.7730 0.7730 0.7710 0.7710
15.479000 0.7710 0.7700 0.7710 0.7710 0.7730
15.510028 0.7730 0.7730 0.7710 0.7710 0.7710
15.541000 0.7700 0.7700 0.7700 0.7700 0.7700
15.572028 0.7710 0.7710 0.7710 0.7710 0.7710
15.603000 0.7710 0.7710 0.7700 0.7700 0.7700
15.634028 0.7680 0.7650 0.7620 0.7600 0.7600
15.665000 0.7600 0.7600 0.7600 0.7600 0.7600
15.696028 0.7600 0.7600 0.7590 0.7590 0.7570
15.727000 0.7570 0.7570 0.7560 0.7560 0.7560
15.758028 0.7540 0.7540 0.7540 0.7540 0.7540
15.789000 0.7530 0.7530 0.7510 0.7500 0.7510
15.820028 0.7500 0.7500 0.7500 0.7500 0.7480
15.851000 0.7480 0.7480 0.7480 0.7460 0.7460
15.882028 0.7460 0.7420 0.7400 0.7400 0.7390
15.913000 0.7370 0.7360 0.7360 0.7360 0.7360
15.944028 0.7360 0.7370 0.7390 0.7390 0.7390
15.975000 0.7370 0.7370 0.7360 0.7360 0.7340
##END=
