##TITLE=POTASSIUM PHOSPHATE, DIBASIC
$$ C.P.
##JCAMP-DX=4.24
##DATA TYPE=INFRARED SPECTRUM
##CLASS=COBLENTZ
##ORIGIN=MELLON INSTITUTE
##OWNER=COBLENTZ SOCIETY
Collection (C) 2018 copyright by the U.S. Secretary of Commerce
on behalf of the United States of America. All rights reserved.
##DATE=Not specified, most likely prior to 1970
##MOLFORM=K2 H P O4
##SOURCE REFERENCE=COBLENTZ NO. 579
##$NIST ID=B6000579
##$NIST SOURCE=COBLENTZ
##$NIST IMAGE=cob579
##SPECTROMETER/DATA SYSTEM=Not specified, most likely a prism, grating, or hybrid spectrometer.
##STATE=SOLID (NUJOL AND FLUOROLUBE MULLS)
##SAMPLING PROCEDURE=TRANSMISSION
##RESOLUTION=4
##DATA PROCESSING=DIGITIZED BY NIST FROM HARD COPY
##XUNITS=MICROMETERS
##YUNITS=TRANSMITTANCE
##XFACTOR=1.000000
##YFACTOR=1
##DELTAX=000.006639
##FIRSTX=2.031
##LASTX=15.9853
##FIRSTY=0.867
##MAXX=15.9853
##MINX=2.031
##MAXY=0.963
##MINY=0.048
##NPOINTS=2103
##XYDATA=(X++(Y..Y))
2.031000 0.8670 0.8690 0.8690 0.8690 0.8710
2.064208 0.8690 0.8710 0.8710 0.8720 0.8720
2.097000 0.8760 0.8790 0.8810 0.8820 0.8820
2.130208 0.8840 0.8840 0.8870 0.8920 0.8940
2.164000 0.8940 0.8940 0.8940 0.8960 0.8960
2.197208 0.8960 0.8970 0.8970 0.8990 0.8990
2.230000 0.9010 0.9010 0.9030 0.9030 0.9030
2.263208 0.9030 0.9040 0.9040 0.9040 0.9060
2.296000 0.9060 0.9080 0.9090 0.9140 0.9140
2.329208 0.9160 0.9180 0.9190 0.9210 0.9210
2.363000 0.9230 0.9230 0.9240 0.9240 0.9260
2.396208 0.9280 0.9280 0.9280 0.9280 0.9280
2.429000 0.9290 0.9290 0.9310 0.9330 0.9330
2.462208 0.9340 0.9340 0.9380 0.9380 0.9380
2.495000 0.9380 0.9380 0.9380 0.9390 0.9390
2.528208 0.9410 0.9430 0.9440 0.9440 0.9440
2.562000 0.9440 0.9460 0.9460 0.9480 0.9490
2.595208 0.9510 0.9530 0.9540 0.9540 0.9540
2.628000 0.9540 0.9540 0.9580 0.9580 0.9580
2.661208 0.9580 0.9590 0.9590 0.9590 0.9610
2.695000 0.9610 0.9610 0.9630 0.9630 0.9630
2.728208 0.9630 0.9630 0.9630 0.9630 0.9630
2.761000 0.9630 0.9630 0.9630 0.9610 0.9610
2.794208 0.9590 0.9590 0.9540 0.9510 0.9490
2.827000 0.9460 0.9430 0.9360 0.9310 0.9210
2.860208 0.9080 0.9040 0.8990 0.8940 0.8910
2.894000 0.8860 0.8810 0.8760 0.8720 0.8690
2.927208 0.8610 0.8570 0.8540 0.8510 0.8470
2.960000 0.8460 0.8440 0.8420 0.8420 0.8410
2.993208 0.8410 0.8390 0.8320 0.8270 0.8260
3.027000 0.8240 0.8220 0.8190 0.8160 0.8110
3.060208 0.8070 0.8040 0.8020 0.8010 0.7990
3.093000 0.7920 0.7890 0.7850 0.7820 0.7790
3.126208 0.7750 0.7720 0.7690 0.7670 0.7640
3.159000 0.7620 0.7600 0.7550 0.7540 0.7500
3.192208 0.7490 0.7450 0.7420 0.7350 0.7320
3.226000 0.7270 0.7220 0.7190 0.7140 0.7090
3.259208 0.7050 0.7000 0.6980 0.6930 0.6900
3.292000 0.6830 0.6770 0.6680 0.6630 0.6600
3.325208 0.6550 0.6480 0.6430 0.6380 0.6350
3.358000 0.6300 0.6280 0.6250 0.6230 0.6200
3.391208 0.6180 0.6150 0.6120 0.6100 0.6080
3.425000 0.6050 0.6030 0.6030 0.6020 0.6020
3.458208 0.6020 0.6000 0.6000 0.6000 0.6000
3.491000 0.5980 0.5980 0.5980 0.5960 0.5960
3.524208 0.5960 0.5960 0.5960 0.5980 0.5980
3.558000 0.5980 0.5980 0.6000 0.6020 0.6020
3.591208 0.6030 0.6100 0.6120 0.6150 0.6180
3.624000 0.6230 0.6270 0.6320 0.6380 0.6430
3.657208 0.6480 0.6570 0.6600 0.6630 0.6680
3.690000 0.6820 0.6950 0.6980 0.7040 0.7090
3.723208 0.7150 0.7200 0.7270 0.7300 0.7320
3.757000 0.7320 0.7320 0.7300 0.7270 0.7250
3.790208 0.7200 0.7170 0.7120 0.7090 0.7040
3.823000 0.7000 0.6900 0.6850 0.6730 0.6670
3.856208 0.6620 0.6480 0.6470 0.6400 0.6330
3.890000 0.6250 0.6220 0.6150 0.6080 0.6020
3.923208 0.5950 0.5800 0.5730 0.5700 0.5650
3.956000 0.5610 0.5580 0.5560 0.5550 0.5500
3.989208 0.5500 0.5460 0.5460 0.5450 0.5450
4.022000 0.5450 0.5430 0.5430 0.5430 0.5430
4.055208 0.5430 0.5430 0.5430 0.5430 0.5430
4.089000 0.5430 0.5410 0.5400 0.5400 0.5400
4.122208 0.5380 0.5380 0.5380 0.5360 0.5360
4.155000 0.5350 0.5350 0.5330 0.5310 0.5300
4.188208 0.5300 0.5300 0.5300 0.5310 0.5330
4.221000 0.5330 0.5350 0.5350 0.5350 0.5350
4.254208 0.5350 0.5350 0.5350 0.5330 0.5330
4.288000 0.5330 0.5330 0.5330 0.5350 0.5350
4.321208 0.5350 0.5350 0.5360 0.5380 0.5400
4.354000 0.5410 0.5430 0.5460 0.5500 0.5510
4.387208 0.5530 0.5600 0.5660 0.5730 0.5780
4.421000 0.5850 0.6000 0.6000 0.6050 0.6100
4.454208 0.6150 0.6200 0.6220 0.6270 0.6330
4.487000 0.6380 0.6430 0.6480 0.6530 0.6550
4.520208 0.6580 0.6580 0.6600 0.6600 0.6620
4.553000 0.6620 0.6630 0.6650 0.6680 0.6700
4.586208 0.6720 0.6730 0.6770 0.6800 0.6830
4.620000 0.6870 0.6880 0.6900 0.6920 0.6930
4.653208 0.6950 0.6970 0.6970 0.7000 0.7020
4.686000 0.7040 0.7070 0.7070 0.7090 0.7090
4.719208 0.7100 0.7100 0.7120 0.7120 0.7140
4.753000 0.7140 0.7150 0.7150 0.7150 0.7150
4.786208 0.7150 0.7150 0.7150 0.7150 0.7150
4.819000 0.7150 0.7150 0.7150 0.7140 0.7140
4.852208 0.7140 0.7140 0.7140 0.7140 0.7140
4.885000 0.7140 0.7140 0.7140 0.7140 0.7120
4.918208 0.7120 0.7120 0.7120 0.7100 0.7090
4.952000 0.7070 0.7040 0.7040 0.7020 0.7000
4.985208 0.6980 0.6930 0.6880 0.6850 0.6800
5.018000 0.6770 0.6730 0.6680 0.6650 0.6630
5.051208 0.6600 0.6570 0.6550 0.6530 0.6500
5.084000 0.6470 0.6420 0.6370 0.6300 0.6220
5.117208 0.6200 0.6170 0.6100 0.6070 0.6030
5.151000 0.5980 0.5900 0.5860 0.5830 0.5800
5.184208 0.5760 0.5750 0.5730 0.5710 0.5680
5.217000 0.5660 0.5650 0.5630 0.5610 0.5600
5.250208 0.5580 0.5580 0.5550 0.5530 0.5530
5.284000 0.5510 0.5510 0.5500 0.5450 0.5430
5.317208 0.5410 0.5400 0.5400 0.5380 0.5380
5.350000 0.5380 0.5360 0.5350 0.5350 0.5350
5.383208 0.5330 0.5310 0.5310 0.5310 0.5310
5.416000 0.5310 0.5310 0.5310 0.5310 0.5310
5.449208 0.5310 0.5330 0.5330 0.5350 0.5350
5.483000 0.5360 0.5350 0.5360 0.5380 0.5400
5.516208 0.5410 0.5410 0.5410 0.5430 0.5450
5.549000 0.5460 0.5500 0.5530 0.5550 0.5630
5.582208 0.5710 0.5750 0.5780 0.5830 0.5910
5.616000 0.5980 0.6000 0.6000 0.6020 0.6070
5.649208 0.6120 0.6150 0.6200 0.6250 0.6270
5.682000 0.6300 0.6330 0.6380 0.6470 0.6520
5.715208 0.6550 0.6600 0.6630 0.6630 0.6670
5.748000 0.6680 0.6700 0.6700 0.6700 0.6720
5.781208 0.6720 0.6730 0.6750 0.6780 0.6820
5.815000 0.6870 0.6920 0.6930 0.6930 0.6980
5.848208 0.7020 0.7020 0.7070 0.7100 0.7100
5.881000 0.7120 0.7140 0.7150 0.7170 0.7190
5.914208 0.7200 0.7220 0.7220 0.7290 0.7300
5.947000 0.7320 0.7340 0.7370 0.7390 0.7390
5.980208 0.7450 0.7520 0.7590 0.7640 0.7670
6.014000 0.7700 0.7750 0.7790 0.7820 0.7840
6.047208 0.7850 0.7870 0.7890 0.7920 0.7970
6.080000 0.7990 0.8010 0.8020 0.8040 0.8070
6.113208 0.8110 0.8140 0.8160 0.8160 0.8190
6.147000 0.8220 0.8270 0.8320 0.8360 0.8420
6.180208 0.8440 0.8470 0.8510 0.8540 0.8560
6.213000 0.8610 0.8640 0.8690 0.8710 0.8720
6.246208 0.8740 0.8760 0.8770 0.8790 0.8810
6.279000 0.8810 0.8810 0.8810 0.8810 0.8810
6.312208 0.8810 0.8810 0.8820 0.8840 0.8840
6.346000 0.8860 0.8860 0.8860 0.8890 0.8920
6.379208 0.8940 0.8940 0.8940 0.8960 0.8960
6.412000 0.8970 0.8970 0.8990 0.8990 0.9010
6.445208 0.9030 0.9040 0.9060 0.9060 0.9060
6.479000 0.9080 0.9080 0.9080 0.9080 0.9080
6.512208 0.9080 0.9080 0.9080 0.9080 0.9080
6.545000 0.9080 0.9090 0.9090 0.9110 0.9110
6.578208 0.9130 0.9130 0.9140 0.9140 0.9160
6.611000 0.9160 0.9190 0.9210 0.9230 0.9240
6.644208 0.9260 0.9280 0.9290 0.9330 0.9330
6.678000 0.9340 0.9340 0.9340 0.9340 0.9360
6.711208 0.9380 0.9380 0.9390 0.9390 0.9390
6.744000 0.9410 0.9410 0.9430 0.9430 0.9440
6.777208 0.9460 0.9460 0.9480 0.9480 0.9480
6.811000 0.9480 0.9480 0.9480 0.9480 0.9480
6.844208 0.9480 0.9480 0.9480 0.9480 0.9460
6.877000 0.9460 0.9460 0.9460 0.9460 0.9460
6.910208 0.9460 0.9440 0.9430 0.9430 0.9410
6.943000 0.9410 0.9390 0.9390 0.9390 0.9390
6.976208 0.9390 0.9390 0.9360 0.9340 0.9330
7.010000 0.9310 0.9290 0.9280 0.9280 0.9260
7.043208 0.9260 0.9260 0.9240 0.9240 0.9240
7.076000 0.9240 0.9240 0.9240 0.9240 0.9240
7.109208 0.9240 0.9240 0.9240 0.9240 0.9240
7.142000 0.9230 0.9230 0.9210 0.9210 0.9210
7.175208 0.9180 0.9140 0.9110 0.9090 0.8970
7.209000 0.8910 0.8820 0.8760 0.8690 0.8620
7.242208 0.8540 0.8470 0.8410 0.8340 0.8260
7.275000 0.8140 0.8060 0.7970 0.7890 0.7870
7.308208 0.7840 0.7340 0.7070 0.6850 0.6570
7.342000 0.6300 0.6020 0.5800 0.5650 0.5260
7.375208 0.4880 0.4760 0.4560 0.4460 0.4390
7.408000 0.4360 0.4380 0.4440 0.4560 0.4710
7.441208 0.4910 0.5500 0.5700 0.5900 0.6070
7.474000 0.6350 0.6480 0.6670 0.6850 0.6930
7.507208 0.7000 0.7170 0.7250 0.7320 0.7470
7.541000 0.7490 0.7540 0.7640 0.7690 0.7740
7.574208 0.7820 0.7940 0.7970 0.7990 0.8010
7.607000 0.8020 0.8020 0.8070 0.8110 0.8140
7.640208 0.8140 0.8160 0.8170 0.8210 0.8220
7.674000 0.8220 0.8220 0.8240 0.8270 0.8270
7.707208 0.8290 0.8310 0.8320 0.8320 0.8320
7.740000 0.8340 0.8340 0.8360 0.8340 0.8340
7.773208 0.8340 0.8340 0.8340 0.8320 0.8320
7.806000 0.8310 0.8310 0.8290 0.8290 0.8310
7.839208 0.8310 0.8320 0.8320 0.8340 0.8340
7.873000 0.8340 0.8360 0.8370 0.8370 0.8390
7.906208 0.8390 0.8390 0.8410 0.8410 0.8410
7.939000 0.8410 0.8410 0.8410 0.8410 0.8410
7.972208 0.8410 0.8410 0.8410 0.8420 0.8410
8.005000 0.8410 0.8410 0.8410 0.8390 0.8390
8.038208 0.8370 0.8360 0.8340 0.8340 0.8320
8.072000 0.8320 0.8310 0.8290 0.8290 0.8270
8.105208 0.8260 0.8220 0.8160 0.8120 0.8070
8.138000 0.8020 0.8020 0.8010 0.7990 0.7990
8.171208 0.7970 0.7950 0.7920 0.7900 0.7890
8.205000 0.7870 0.7840 0.7820 0.7790 0.7720
8.238208 0.7690 0.7620 0.7570 0.7540 0.7540
8.271000 0.7500 0.7490 0.7450 0.7420 0.7400
8.304208 0.7370 0.7320 0.7270 0.7200 0.7190
8.337000 0.7090 0.7020 0.6980 0.6900 0.6870
8.370208 0.6750 0.6670 0.6550 0.6420 0.6300
8.404000 0.6070 0.5960 0.5880 0.5700 0.5510
8.437208 0.5400 0.5230 0.5080 0.5030 0.4980
8.470000 0.4760 0.4440 0.4290 0.4180 0.3960
8.503208 0.3720 0.3510 0.3310 0.3140 0.3010
8.537000 0.2890 0.2620 0.2450 0.2250 0.2050
8.570208 0.1820 0.1700 0.1630 0.1570 0.1480
8.603000 0.1420 0.1400 0.1370 0.1320 0.1250
8.636208 0.1180 0.1130 0.1070 0.1050 0.1020
8.669000 0.1000 0.0910 0.0880 0.0850 0.0810
8.702208 0.0800 0.0780 0.0760 0.0750 0.0730
8.736000 0.0730 0.0700 0.0680 0.0650 0.0610
8.769208 0.0600 0.0580 0.0560 0.0530 0.0510
8.802000 0.0500 0.0500 0.0480 0.0480 0.0480
8.835208 0.0480 0.0480 0.0480 0.0480 0.0480
8.868000 0.0480 0.0500 0.0500 0.0510 0.0500
8.901208 0.0500 0.0500 0.0500 0.0500 0.0500
8.935000 0.0500 0.0500 0.0500 0.0500 0.0500
8.968208 0.0500 0.0500 0.0500 0.0500 0.0500
9.001000 0.0500 0.0500 0.0480 0.0480 0.0480
9.034208 0.0480 0.0480 0.0480 0.0510 0.0510
9.068000 0.0510 0.0530 0.0530 0.0550 0.0580
9.101208 0.0600 0.0610 0.0610 0.0630 0.0630
9.134000 0.0630 0.0650 0.0650 0.0650 0.0650
9.167208 0.0660 0.0680 0.0680 0.0680 0.0700
9.200000 0.0700 0.0700 0.0710 0.0730 0.0730
9.233208 0.0750 0.0760 0.0800 0.0810 0.0830
9.267000 0.0830 0.0830 0.0830 0.0830 0.0830
9.300208 0.0830 0.0830 0.0850 0.0900 0.0960
9.333000 0.1000 0.1050 0.1100 0.1170 0.1220
9.366208 0.1270 0.1300 0.1380 0.1450 0.1500
9.400000 0.1600 0.1670 0.1720 0.1770 0.1820
9.433208 0.1900 0.2000 0.2070 0.2150 0.2250
9.466000 0.2340 0.2470 0.2550 0.2670 0.2770
9.499208 0.2900 0.3060 0.3190 0.3310 0.3390
9.532000 0.3470 0.3560 0.3670 0.3740 0.3990
9.565208 0.4110 0.4180 0.4260 0.4360 0.4510
9.599000 0.4680 0.4910 0.5260 0.5410 0.5580
9.632208 0.5760 0.5850 0.5980 0.6030 0.6130
9.665000 0.6170 0.6230 0.6370 0.6480 0.6530
9.698208 0.6600 0.6630 0.6730 0.6780 0.6830
9.731000 0.6870 0.6920 0.6930 0.6980 0.7040
9.764208 0.7090 0.7140 0.7150 0.7200 0.7240
9.798000 0.7270 0.7290 0.7300 0.7320 0.7340
9.831208 0.7340 0.7340 0.7340 0.7340 0.7340
9.864000 0.7340 0.7340 0.7340 0.7350 0.7340
9.897208 0.7340 0.7340 0.7300 0.7270 0.7220
9.931000 0.7190 0.7140 0.6970 0.6900 0.6800
9.964208 0.6680 0.6600 0.6500 0.6400 0.6370
9.997000 0.6320 0.6300 0.6320 0.6320 0.6330
10.030208 0.6350 0.6350 0.6350 0.6350 0.6330
10.063000 0.6330 0.6330 0.6350 0.6350 0.6350
10.096208 0.6350 0.6350 0.6370 0.6350 0.6350
10.130000 0.6330 0.6330 0.6320 0.6300 0.6300
10.163208 0.6300 0.6320 0.6320 0.6320 0.6320
10.196000 0.6300 0.6280 0.6280 0.6270 0.6270
10.229208 0.6250 0.6230 0.6220 0.6220 0.6200
10.263000 0.6170 0.6080 0.6050 0.6020 0.6000
10.296208 0.5830 0.5710 0.5600 0.5530 0.5430
10.329000 0.5260 0.5180 0.5010 0.5000 0.4960
10.362208 0.4830 0.4760 0.4680 0.4630 0.4560
10.395000 0.4430 0.4280 0.4130 0.3960 0.3860
10.428208 0.3740 0.3570 0.3460 0.3320 0.3260
10.462000 0.3120 0.2970 0.2770 0.2640 0.2540
10.495208 0.2470 0.2370 0.2290 0.2220 0.2120
10.528000 0.2040 0.2000 0.1900 0.1800 0.1770
10.561208 0.1720 0.1680 0.1670 0.1630 0.1600
10.594000 0.1580 0.1570 0.1550 0.1530 0.1520
10.627208 0.1520 0.1500 0.1500 0.1500 0.1480
10.661000 0.1430 0.1420 0.1400 0.1400 0.1400
10.694208 0.1380 0.1380 0.1400 0.1420 0.1420
10.727000 0.1480 0.1550 0.1580 0.1630 0.1670
10.760208 0.1750 0.1830 0.1920 0.2120 0.2170
10.794000 0.2220 0.2250 0.2320 0.2470 0.2720
10.827208 0.2940 0.3010 0.3170 0.3440 0.3570
10.860000 0.3810 0.3910 0.4030 0.4180 0.4260
10.893208 0.4390 0.4490 0.4590 0.4730 0.4830
10.926000 0.5000 0.5180 0.5230 0.5300 0.5360
10.959208 0.5450 0.5510 0.5560 0.5660 0.5730
10.993000 0.5810 0.5930 0.6030 0.6180 0.6520
11.026208 0.6570 0.6620 0.6770 0.6850 0.6900
11.059000 0.6980 0.7020 0.7090 0.7150 0.7220
11.092208 0.7250 0.7300 0.7370 0.7400 0.7490
11.126000 0.7500 0.7550 0.7600 0.7640 0.7670
11.159208 0.7700 0.7740 0.7770 0.7820 0.7870
11.192000 0.7870 0.7890 0.7900 0.7900 0.7940
11.225208 0.7950 0.7970 0.7990 0.7990 0.8010
11.258000 0.8010 0.8020 0.8020 0.8040 0.8040
11.291208 0.8040 0.8040 0.8060 0.8070 0.8070
11.325000 0.8090 0.8090 0.8110 0.8110 0.8120
11.358208 0.8120 0.8110 0.8120 0.8120 0.8110
11.391000 0.8110 0.8090 0.8090 0.8070 0.8070
11.424208 0.8070 0.8060 0.8040 0.8010 0.8010
11.457000 0.7990 0.7890 0.7850 0.7820 0.7800
11.490208 0.7750 0.7720 0.7690 0.7640 0.7570
11.524000 0.7520 0.7420 0.7190 0.7000 0.6920
11.557208 0.6730 0.6630 0.6500 0.6400 0.6300
11.590000 0.6200 0.6070 0.5710 0.5530 0.5350
11.623208 0.5250 0.5030 0.4930 0.4810 0.4680
11.657000 0.4530 0.4330 0.4240 0.4090 0.3970
11.690208 0.3820 0.3760 0.3490 0.3460 0.3190
11.723000 0.3020 0.2840 0.2690 0.2540 0.2370
11.756208 0.2240 0.2140 0.2040 0.2020 0.2000
11.789000 0.1920 0.1820 0.1770 0.1700 0.1670
11.822208 0.1580 0.1550 0.1520 0.1500 0.1480
11.856000 0.1480 0.1450 0.1430 0.1430 0.1420
11.889208 0.1400 0.1400 0.1380 0.1380 0.1350
11.922000 0.1350 0.1350 0.1350 0.1330 0.1330
11.955208 0.1320 0.1320 0.1320 0.1320 0.1320
11.989000 0.1320 0.1320 0.1320 0.1320 0.1330
12.022208 0.1350 0.1370 0.1400 0.1430 0.1450
12.055000 0.1520 0.1620 0.1680 0.1730 0.1780
12.088208 0.1830 0.1970 0.2020 0.2140 0.2250
12.121000 0.2350 0.2420 0.2570 0.2670 0.2920
12.154208 0.3060 0.3140 0.3210 0.3290 0.3360
12.188000 0.3470 0.3560 0.3710 0.3890 0.4010
12.221208 0.4060 0.4190 0.4260 0.4340 0.4460
12.254000 0.4540 0.4660 0.4760 0.4830 0.4890
12.287208 0.4960 0.5060 0.5110 0.5160 0.5230
12.320000 0.5260 0.5310 0.5400 0.5480 0.5510
12.353208 0.5560 0.5630 0.5660 0.5750 0.5810
12.387000 0.5880 0.5910 0.6020 0.6070 0.6130
12.420208 0.6150 0.6220 0.6230 0.6270 0.6300
12.453000 0.6330 0.6370 0.6420 0.6450 0.6480
12.486208 0.6530 0.6570 0.6620 0.6650 0.6680
12.520000 0.6720 0.6750 0.6780 0.6800 0.6820
12.553208 0.6850 0.6880 0.6920 0.6950 0.6980
12.586000 0.6980 0.7000 0.7020 0.7040 0.7050
12.619208 0.7070 0.7100 0.7100 0.7120 0.7140
12.652000 0.7140 0.7150 0.7200 0.7200 0.7220
12.685208 0.7240 0.7240 0.7250 0.7290 0.7320
12.719000 0.7340 0.7340 0.7350 0.7370 0.7400
12.752208 0.7420 0.7440 0.7450 0.7490 0.7500
12.785000 0.7500 0.7520 0.7540 0.7540 0.7540
12.818208 0.7550 0.7550 0.7550 0.7590 0.7590
12.852000 0.7600 0.7620 0.7620 0.7620 0.7640
12.885208 0.7640 0.7650 0.7690 0.7700 0.7720
12.918000 0.7740 0.7750 0.7770 0.7790 0.7800
12.951208 0.7820 0.7840 0.7850 0.7850 0.7850
12.984000 0.7870 0.7890 0.7900 0.7900 0.7900
13.017208 0.7900 0.7900 0.7920 0.7920 0.7940
13.051000 0.7950 0.7950 0.7970 0.7990 0.7990
13.084208 0.8010 0.8020 0.8020 0.8020 0.8020
13.117000 0.8020 0.8020 0.8040 0.8040 0.8060
13.150208 0.8090 0.8110 0.8120 0.8120 0.8120
13.183000 0.8120 0.8140 0.8160 0.8160 0.8160
13.216208 0.8160 0.8170 0.8170 0.8170 0.8170
13.250000 0.8170 0.8170 0.8170 0.8170 0.8170
13.283208 0.8190 0.8190 0.8190 0.8210 0.8210
13.316000 0.8210 0.8220 0.8220 0.8220 0.8220
13.349208 0.8240 0.8240 0.8240 0.8240 0.8240
13.383000 0.8240 0.8260 0.8260 0.8260 0.8270
13.416208 0.8270 0.8270 0.8270 0.8270 0.8270
13.449000 0.8290 0.8290 0.8290 0.8290 0.8290
13.482208 0.8290 0.8290 0.8310 0.8310 0.8310
13.515000 0.8290 0.8290 0.8290 0.8310 0.8310
13.548208 0.8310 0.8290 0.8290 0.8290 0.8290
13.582000 0.8290 0.8290 0.8270 0.8290 0.8290
13.615208 0.8290 0.8290 0.8270 0.8270 0.8260
13.648000 0.8260 0.8260 0.8260 0.8260 0.8240
13.681208 0.8240 0.8240 0.8240 0.8260 0.8260
13.715000 0.8260 0.8260 0.8260 0.8260 0.8260
13.748208 0.8260 0.8240 0.8240 0.8220 0.8220
13.781000 0.8210 0.8170 0.8170 0.8160 0.8170
13.814208 0.8190 0.8190 0.8190 0.8190 0.8190
13.847000 0.8190 0.8170 0.8160 0.8160 0.8140
13.880208 0.8140 0.8120 0.8120 0.8110 0.8090
13.914000 0.8090 0.8090 0.8070 0.8070 0.8070
13.947208 0.8040 0.8040 0.8040 0.8060 0.8040
13.980000 0.8040 0.8020 0.8040 0.8060 0.8040
14.013208 0.8040 0.8040 0.8020 0.8020 0.8010
14.046000 0.8010 0.8010 0.8010 0.7950 0.7950
14.079208 0.7950 0.7940 0.7940 0.7940 0.7920
14.113000 0.7920 0.7920 0.7920 0.7920 0.7920
14.146208 0.7900 0.7900 0.7890 0.7870 0.7870
14.179000 0.7850 0.7850 0.7840 0.7840 0.7800
14.212208 0.7800 0.7800 0.7800 0.7800 0.7790
14.246000 0.7790 0.7770 0.7770 0.7750 0.7750
14.279208 0.7740 0.7720 0.7720 0.7700 0.7700
14.312000 0.7690 0.7670 0.7670 0.7650 0.7650
14.345208 0.7640 0.7640 0.7620 0.7620 0.7620
14.378000 0.7640 0.7620 0.7620 0.7600 0.7620
14.411208 0.7620 0.7620 0.7600 0.7600 0.7590
14.445000 0.7570 0.7570 0.7570 0.7550 0.7550
14.478208 0.7550 0.7540 0.7520 0.7520 0.7500
14.511000 0.7490 0.7490 0.7490 0.7470 0.7420
14.544208 0.7420 0.7420 0.7420 0.7420 0.7420
14.578000 0.7400 0.7420 0.7420 0.7440 0.7420
14.611208 0.7420 0.7420 0.7420 0.7420 0.7400
14.644000 0.7400 0.7400 0.7400 0.7390 0.7390
14.677208 0.7370 0.7350 0.7350 0.7340 0.7320
14.710000 0.7300 0.7300 0.7270 0.7270 0.7250
14.743208 0.7250 0.7250 0.7250 0.7250 0.7240
14.777000 0.7240 0.7240 0.7240 0.7220 0.7240
14.810208 0.7240 0.7250 0.7250 0.7250 0.7270
14.843000 0.7270 0.7290 0.7290 0.7290 0.7290
14.876208 0.7270 0.7270 0.7250 0.7240 0.7240
14.909000 0.7220 0.7220 0.7200 0.7170 0.7150
14.942208 0.7150 0.7140 0.7120 0.7120 0.7100
14.976000 0.7090 0.7090 0.7090 0.7090 0.7090
15.009208 0.7070 0.7070 0.7050 0.7070 0.7050
15.042000 0.7050 0.7050 0.7040 0.7020 0.7020
15.075208 0.7000 0.6980 0.6950 0.6950 0.6930
15.109000 0.6920 0.6900 0.6900 0.6880 0.6880
15.142208 0.6880 0.6880 0.6880 0.6880 0.6880
15.175000 0.6880 0.6900 0.6900 0.6920 0.6900
15.208208 0.6900 0.6900 0.6900 0.6900 0.6900
15.241000 0.6900 0.6880 0.6900 0.6880 0.6880
15.274208 0.6880 0.6870 0.6850 0.6850 0.6830
15.308000 0.6830 0.6820 0.6800 0.6800 0.6820
15.341208 0.6820 0.6800 0.6800 0.6800 0.6780
15.374000 0.6770 0.6770 0.6770 0.6770 0.6770
15.407208 0.6750 0.6750 0.6750 0.6750 0.6750
15.441000 0.6770 0.6770 0.6770 0.6770 0.6770
15.474208 0.6770 0.6770 0.6770 0.6770 0.6770
15.507000 0.6770 0.6770 0.6770 0.6770 0.6770
15.540208 0.6780 0.6780 0.6780 0.6770 0.6770
15.573000 0.6770 0.6770 0.6770 0.6770 0.6780
15.606208 0.6780 0.6780 0.6780 0.6780 0.6800
15.640000 0.6800 0.6820 0.6820 0.6800 0.6800
15.673208 0.6800 0.6780 0.6780 0.6780 0.6770
15.706000 0.6770 0.6770 0.6770 0.6770 0.6770
15.739208 0.6770 0.6770 0.6800 0.6800 0.6800
15.772000 0.6820 0.6830 0.6830 0.6850 0.6850
15.805208 0.6870 0.6880 0.6880 0.6880 0.6870
15.839000 0.6850 0.6870 0.6870 0.6880 0.6880
15.872208 0.6900 0.6920 0.6930 0.6930 0.6930
15.905000 0.6950 0.6950 0.6950 0.6930 0.6930
15.938208 0.6950 0.6950 0.6970 0.6970 0.6980
15.972000 0.7000 0.7020 0.7000
##END=
