##TITLE=O-NITRO CARBANILIC ACID, 4-TERPINENOL ESTER
##JCAMP-DX=4.24
##DATA TYPE=INFRARED SPECTRUM
##CLASS=COBLENTZ
##ORIGIN=CITRUS EXPERIMENT STATION, UNIVERSITY OF FLORIDA (G. EDWARDS)
##OWNER=COBLENTZ SOCIETY
Collection (C) 2018 copyright by the U.S. Secretary of Commerce
on behalf of the United States of America. All rights reserved.
##DATE=Not specified, most likely prior to 1970
##NAMES=6-isopropyl-3-methyl-3-cyclohexen-1-yl 2-nitrophenylcarbamate
##MOLFORM=C17 H22 N2 O4
##SOURCE REFERENCE=COBLENTZ NO. 2504
##$NIST ID=B6002504
##$NIST SOURCE=COBLENTZ
##$NIST IMAGE=cob2504
##SPECTROMETER/DATA SYSTEM=Not specified, most likely a grating spectrometer.
##PATH LENGTH=CAPILLARY
##SAMPLING PROCEDURE=TRANSMISSION
##RESOLUTION=4
##DATA PROCESSING=DIGITIZED BY NIST FROM HARD COPY
##XUNITS=MICROMETERS
##YUNITS=TRANSMITTANCE
##XFACTOR=1.000000
##YFACTOR=1
##DELTAX=000.006629
##FIRSTX=2.046
##LASTX=15.026
##FIRSTY=0.95
##MAXX=15.026
##MINX=2.046
##MAXY=0.95
##MINY=0
##NPOINTS=1959
##XYDATA=(X++(Y..Y))
2.046000 0.9500 0.9490 0.9490 0.9490 0.9490
2.079161 0.9500 0.9500 0.9500 0.9500 0.9490
2.113000 0.9480 0.9460 0.9460 0.9450 0.9450
2.146161 0.9450 0.9450 0.9440 0.9420 0.9420
2.179000 0.9420 0.9420 0.9420 0.9420 0.9420
2.212161 0.9420 0.9420 0.9420 0.9420 0.9420
2.245000 0.9420 0.9420 0.9440 0.9440 0.9440
2.278161 0.9450 0.9450 0.9450 0.9450 0.9450
2.312000 0.9450 0.9450 0.9450 0.9450 0.9450
2.345161 0.9450 0.9450 0.9450 0.9450 0.9450
2.378000 0.9450 0.9460 0.9460 0.9460 0.9480
2.411161 0.9480 0.9490 0.9490 0.9490 0.9490
2.444000 0.9500 0.9500 0.9500 0.9500 0.9500
2.477161 0.9500 0.9500 0.9500 0.9500 0.9500
2.510000 0.9490 0.9490 0.9490 0.9480 0.9480
2.543161 0.9480 0.9460 0.9460 0.9450 0.9440
2.577000 0.9440 0.9440 0.9440 0.9420 0.9420
2.610161 0.9410 0.9410 0.9410 0.9410 0.9400
2.643000 0.9400 0.9380 0.9380 0.9370 0.9370
2.676161 0.9360 0.9360 0.9360 0.9340 0.9340
2.709000 0.9340 0.9330 0.9330 0.9330 0.9320
2.742161 0.9300 0.9300 0.9300 0.9290 0.9260
2.776000 0.9260 0.9260 0.9250 0.9220 0.9140
2.809161 0.9090 0.9040 0.9010 0.8980 0.8890
2.842000 0.8800 0.8690 0.8600 0.8500 0.8410
2.875161 0.8300 0.8210 0.8120 0.7610 0.7250
2.908000 0.6940 0.6610 0.6280 0.5890 0.5600
2.941161 0.5260 0.5250 0.5280 0.5970 0.6300
2.974000 0.6640 0.6960 0.7260 0.7920 0.7940
3.007161 0.8860 0.9040 0.9060 0.9090 0.9090
3.041000 0.9100 0.9100 0.9100 0.9090 0.9090
3.074161 0.9060 0.9040 0.9020 0.9020 0.8970
3.107000 0.8890 0.8860 0.8810 0.8740 0.8730
3.140161 0.8720 0.8700 0.8640 0.8560 0.8460
3.173000 0.8330 0.8240 0.8130 0.8050 0.8000
3.206161 0.7970 0.7960 0.7940 0.7930 0.7800
3.240000 0.7760 0.7700 0.7570 0.7490 0.7370
3.273161 0.7240 0.7060 0.6920 0.6620 0.5970
3.306000 0.5660 0.5200 0.4720 0.4690 0.4160
3.339161 0.3610 0.3050 0.3040 0.3050 0.3400
3.372000 0.3580 0.3600 0.3610 0.3640 0.3700
3.405161 0.3930 0.4160 0.4280 0.4560 0.4740
3.438000 0.4960 0.5490 0.5760 0.6020 0.6260
3.471161 0.6500 0.6690 0.6850 0.6960 0.7000
3.505000 0.7090 0.7130 0.8200 0.8460 0.8610
3.538161 0.8700 0.8800 0.8840 0.8900 0.8930
3.571000 0.9000 0.9010 0.9010 0.9020 0.9050
3.604161 0.9080 0.9090 0.9090 0.9100 0.9100
3.637000 0.9120 0.9130 0.9170 0.9180 0.9210
3.670161 0.9220 0.9220 0.9220 0.9220 0.9220
3.704000 0.9210 0.9210 0.9210 0.9210 0.9210
3.737161 0.9210 0.9210 0.9210 0.9200 0.9200
3.770000 0.9200 0.9180 0.9180 0.9180 0.9180
3.803161 0.9180 0.9180 0.9180 0.9200 0.9200
3.836000 0.9200 0.9200 0.9210 0.9210 0.9220
3.869161 0.9240 0.9240 0.9250 0.9250 0.9260
3.902000 0.9260 0.9250 0.9250 0.9250 0.9250
3.935161 0.9250 0.9250 0.9260 0.9260 0.9260
3.969000 0.9250 0.9250 0.9250 0.9240 0.9240
4.002161 0.9220 0.9220 0.9210 0.9210 0.9210
4.035000 0.9210 0.9210 0.9210 0.9210 0.9210
4.068161 0.9210 0.9210 0.9210 0.9210 0.9210
4.101000 0.9200 0.9200 0.9200 0.9200 0.9200
4.134161 0.9210 0.9220 0.9250 0.9260 0.9280
4.168000 0.9280 0.9280 0.9280 0.9280 0.9290
4.201161 0.9290 0.9290 0.9290 0.9290 0.9290
4.234000 0.9290 0.9290 0.9290 0.9290 0.9290
4.267161 0.9290 0.9290 0.9290 0.9290 0.9290
4.300000 0.9290 0.9290 0.9280 0.9280 0.9260
4.333161 0.9260 0.9260 0.9260 0.9260 0.9260
4.366000 0.9260 0.9260 0.9250 0.9250 0.9240
4.399161 0.9240 0.9240 0.9240 0.9240 0.9220
4.433000 0.9220 0.9220 0.9220 0.9220 0.9220
4.466161 0.9220 0.9240 0.9240 0.9240 0.9250
4.499000 0.9250 0.9250 0.9260 0.9260 0.9260
4.532161 0.9260 0.9260 0.9260 0.9260 0.9260
4.565000 0.9260 0.9280 0.9290 0.9290 0.9320
4.598161 0.9330 0.9330 0.9330 0.9330 0.9330
4.632000 0.9330 0.9330 0.9330 0.9330 0.9330
4.665161 0.9330 0.9330 0.9330 0.9320 0.9320
4.698000 0.9320 0.9320 0.9320 0.9320 0.9320
4.731161 0.9300 0.9300 0.9300 0.9300 0.9300
4.764000 0.9300 0.9300 0.9290 0.9290 0.9290
4.797161 0.9290 0.9290 0.9290 0.9300 0.9290
4.830000 0.9290 0.9290 0.9290 0.9290 0.9290
4.863161 0.9290 0.9280 0.9260 0.9260 0.9260
4.897000 0.9260 0.9260 0.9260 0.9260 0.9250
4.930161 0.9250 0.9240 0.9220 0.9220 0.9220
4.963000 0.9220 0.9220 0.9220 0.9220 0.9210
4.996161 0.9200 0.9180 0.9170 0.9170 0.9170
5.029000 0.9170 0.9140 0.9100 0.9090 0.9090
5.062161 0.9090 0.9090 0.9090 0.9090 0.9090
5.096000 0.9100 0.9100 0.9090 0.9090 0.9080
5.129161 0.9080 0.9080 0.9080 0.9080 0.9080
5.162000 0.9080 0.9080 0.9080 0.9080 0.9060
5.195161 0.9060 0.9060 0.9050 0.9050 0.9050
5.228000 0.9040 0.9040 0.9020 0.9020 0.9010
5.261161 0.9010 0.9000 0.9000 0.9000 0.8980
5.295000 0.8970 0.8960 0.8940 0.8900 0.8860
5.328161 0.8820 0.8800 0.8740 0.8720 0.8700
5.361000 0.8700 0.8700 0.8680 0.8640 0.8580
5.394161 0.8540 0.8480 0.8410 0.8400 0.8400
5.427000 0.8400 0.8340 0.8290 0.8210 0.8170
5.460161 0.8100 0.8060 0.8060 0.8050 0.8050
5.493000 0.8050 0.8040 0.8010 0.8010 0.8000
5.526161 0.7930 0.7900 0.7820 0.7740 0.7700
5.560000 0.7600 0.7500 0.7440 0.7400 0.7340
5.593161 0.7210 0.6880 0.6620 0.6460 0.6210
5.626000 0.5860 0.5720 0.5620 0.5460 0.5060
5.659161 0.4780 0.4500 0.4080 0.3620 0.3260
5.692000 0.2730 0.2240 0.2060 0.1970 0.1970
5.725161 0.2000 0.2130 0.2250 0.2400 0.2650
5.759000 0.2730 0.2800 0.2960 0.3180 0.3520
5.792161 0.4090 0.4720 0.5780 0.6060 0.6200
5.825000 0.6240 0.6330 0.6490 0.6690 0.6860
5.858161 0.7000 0.7010 0.7010 0.7020 0.7020
5.891000 0.7020 0.7020 0.7020 0.7010 0.7010
5.924161 0.7010 0.7010 0.7000 0.6960 0.6960
5.957000 0.6900 0.6810 0.6760 0.6740 0.6720
5.990161 0.6680 0.6600 0.6490 0.6340 0.6210
6.024000 0.6050 0.5720 0.5460 0.5410 0.5400
6.057161 0.5330 0.5220 0.5170 0.5160 0.5060
6.090000 0.4880 0.4690 0.4340 0.4100 0.4010
6.123161 0.3930 0.3560 0.3010 0.2410 0.2100
6.156000 0.1810 0.1660 0.1420 0.1410 0.1420
6.189161 0.1500 0.1690 0.1980 0.2180 0.2360
6.223000 0.2560 0.2760 0.2840 0.2840 0.2810
6.256161 0.2560 0.2220 0.1890 0.1450 0.1440
6.289000 0.1450 0.1560 0.1770 0.2120 0.2450
6.322161 0.2900 0.3420 0.3810 0.3930 0.3980
6.355000 0.4010 0.4040 0.4010 0.3900 0.3700
6.388161 0.3500 0.3210 0.3010 0.2980 0.2960
6.421000 0.2880 0.2770 0.2480 0.2250 0.2050
6.454161 0.1760 0.1610 0.1580 0.1580 0.1570
6.488000 0.1500 0.1410 0.1200 0.1100 0.1010
6.521161 0.0900 0.0810 0.0700 0.0690 0.0690
6.554000 0.0690 0.0700 0.0720 0.0720 0.0730
6.587161 0.0770 0.0840 0.0900 0.0940 0.0940
6.620000 0.0940 0.0980 0.1100 0.1290 0.1410
6.653161 0.1520 0.1610 0.1700 0.1810 0.2000
6.687000 0.2330 0.2450 0.2520 0.2570 0.2610
6.720161 0.2580 0.2560 0.2500 0.2420 0.2250
6.753000 0.1940 0.1680 0.1540 0.1480 0.1440
6.786161 0.1400 0.1280 0.1080 0.0970 0.0840
6.819000 0.0730 0.0640 0.0540 0.0500 0.0490
6.852161 0.0490 0.0490 0.0500 0.0530 0.0540
6.885000 0.0560 0.0560 0.0530 0.0520 0.0500
6.918161 0.0500 0.0520 0.0540 0.0600 0.0610
6.952000 0.0640 0.0700 0.0740 0.0840 0.0900
6.985161 0.0930 0.1020 0.1220 0.1380 0.1540
7.018000 0.1720 0.1880 0.2060 0.2210 0.2210
7.051161 0.2250 0.2330 0.2450 0.2620 0.2720
7.084000 0.2800 0.2850 0.2930 0.2960 0.2960
7.117161 0.2940 0.2930 0.2880 0.2800 0.2740
7.151000 0.2720 0.2690 0.2660 0.2650 0.2650
7.184161 0.2660 0.2680 0.2700 0.2720 0.2720
7.217000 0.2720 0.2700 0.2680 0.2680 0.2690
7.250161 0.2700 0.2720 0.2730 0.2730 0.2740
7.283000 0.2740 0.2740 0.2730 0.2700 0.2490
7.316161 0.2240 0.2060 0.1960 0.1760 0.1570
7.349000 0.1370 0.1200 0.1020 0.0850 0.0700
7.382161 0.0570 0.0440 0.0370 0.0290 0.0280
7.416000 0.0290 0.0320 0.0410 0.0450 0.0520
7.449161 0.0560 0.0620 0.0660 0.0740 0.0880
7.482000 0.1010 0.1120 0.1240 0.1300 0.1400
7.515161 0.1440 0.1440 0.1320 0.1280 0.1240
7.548000 0.1220 0.1250 0.1290 0.1360 0.1460
7.581161 0.1520 0.1570 0.1690 0.1800 0.1850
7.615000 0.1920 0.1920 0.1940 0.2010 0.2050
7.648161 0.2060 0.2060 0.2060 0.2040 0.2010
7.681000 0.1970 0.1900 0.1800 0.1680 0.1540
7.714161 0.1380 0.1300 0.1180 0.1060 0.0940
7.747000 0.0850 0.0770 0.0690 0.0640 0.0610
7.780161 0.0580 0.0570 0.0560 0.0560 0.0580
7.813000 0.0580 0.0610 0.0620 0.0640 0.0650
7.846161 0.0660 0.0650 0.0640 0.0610 0.0570
7.880000 0.0520 0.0480 0.0400 0.0300 0.0260
7.913161 0.0200 0.0180 0.0180 0.0180 0.0180
7.946000 0.0200 0.0200 0.0200 0.0180 0.0170
7.979161 0.0170 0.0160 0.0130 0.0120 0.0100
8.012000 0.0100 0.0100 0.0120 0.0140 0.0210
8.045161 0.0220 0.0240 0.0260 0.0320 0.0370
8.079000 0.0420 0.0450 0.0520 0.0650 0.0920
8.112161 0.1000 0.1050 0.1170 0.1280 0.1410
8.145000 0.1420 0.1410 0.1360 0.1340 0.1320
8.178161 0.1260 0.1160 0.1050 0.0930 0.0820
8.211000 0.0770 0.0690 0.0610 0.0560 0.0530
8.244161 0.0520 0.0500 0.0500 0.0480 0.0420
8.277000 0.0410 0.0300 0.0210 0.0160 0.0060
8.310161 0.0010 0.0010 0.0000 0.0000 0.0000
8.344000 0.0000 0.0000 0.0000 0.0010 0.0040
8.377161 0.0080 0.0100 0.0170 0.0170 0.0200
8.410000 0.0290 0.0370 0.0420 0.0500 0.0540
8.443161 0.0620 0.0740 0.0890 0.1120 0.1340
8.476000 0.1530 0.1680 0.1780 0.1860 0.1920
8.509161 0.1970 0.2010 0.2010 0.1920 0.1770
8.543000 0.1600 0.1450 0.1330 0.1180 0.1050
8.576161 0.0940 0.0860 0.0820 0.0810 0.0810
8.609000 0.0820 0.0820 0.0860 0.0890 0.0970
8.642161 0.1090 0.1210 0.1320 0.1340 0.1340
8.675000 0.1330 0.1320 0.1300 0.1300 0.1320
8.708161 0.1480 0.1610 0.1680 0.1930 0.2120
8.741000 0.2450 0.2730 0.2970 0.3170 0.3380
8.774161 0.3450 0.3460 0.3450 0.3410 0.3320
8.808000 0.3210 0.3060 0.2880 0.2770 0.2610
8.841161 0.2600 0.2610 0.2620 0.2650 0.2740
8.874000 0.2880 0.3040 0.3260 0.3400 0.3650
8.907161 0.3860 0.4060 0.4220 0.4370 0.4480
8.940000 0.4570 0.4640 0.4660 0.4680 0.4680
8.973161 0.4680 0.4680 0.4690 0.4730 0.4810
9.007000 0.4890 0.4970 0.5080 0.5160 0.5240
9.040161 0.5300 0.5340 0.5360 0.5340 0.5340
9.073000 0.5300 0.5250 0.5170 0.5050 0.4970
9.106161 0.4890 0.4680 0.4450 0.4290 0.4090
9.139000 0.3890 0.3660 0.3460 0.3280 0.3160
9.172161 0.2930 0.2720 0.2660 0.2580 0.2560
9.205000 0.2570 0.2700 0.2800 0.2960 0.3130
9.238161 0.3370 0.3570 0.3740 0.3840 0.3920
9.272000 0.3940 0.3930 0.3850 0.3810 0.3680
9.305161 0.3540 0.3320 0.3280 0.3260 0.3260
9.338000 0.3260 0.3280 0.3280 0.3280 0.3250
9.371161 0.3170 0.3100 0.3020 0.2930 0.2700
9.404000 0.2460 0.2250 0.2020 0.1850 0.1680
9.437161 0.1610 0.1600 0.1620 0.1770 0.1920
9.471000 0.2000 0.2130 0.2210 0.2220 0.2210
9.504161 0.2180 0.2140 0.2090 0.2050 0.2010
9.537000 0.1940 0.1890 0.1820 0.1730 0.1640
9.570161 0.1530 0.1370 0.1250 0.1080 0.1040
9.603000 0.0970 0.0960 0.0970 0.0980 0.1010
9.636161 0.1080 0.1170 0.1290 0.1420 0.1570
9.670000 0.1680 0.1780 0.1900 0.1970 0.2010
9.703161 0.2020 0.2020 0.2010 0.2010 0.2000
9.736000 0.2000 0.2000 0.2020 0.2100 0.2160
9.769161 0.2240 0.2370 0.2480 0.2580 0.2660
9.802000 0.2850 0.3010 0.3120 0.3170 0.3210
9.835161 0.3240 0.3250 0.3250 0.3240 0.3240
9.868000 0.3200 0.3140 0.3050 0.3010 0.2930
9.901161 0.2780 0.2580 0.2490 0.2480 0.2480
9.935000 0.2490 0.2530 0.2610 0.2680 0.2770
9.968161 0.2940 0.3100 0.3290 0.3490 0.3740
10.001000 0.4050 0.4330 0.4600 0.4880 0.5420
10.034161 0.5620 0.5850 0.6050 0.6220 0.6380
10.067000 0.6520 0.6640 0.6740 0.6840 0.6920
10.100161 0.7000 0.7020 0.7120 0.7180 0.7220
10.134000 0.7250 0.7260 0.7290 0.7320 0.7320
10.167161 0.7330 0.7360 0.7380 0.7410 0.7420
10.200000 0.7450 0.7460 0.7480 0.7490 0.7500
10.233161 0.7500 0.7520 0.7540 0.7600 0.7640
10.266000 0.7660 0.7680 0.7720 0.7720 0.7730
10.299161 0.7730 0.7720 0.7700 0.7680 0.7650
10.332000 0.7610 0.7610 0.7570 0.7530 0.7460
10.365161 0.7400 0.7330 0.7280 0.7240 0.7210
10.399000 0.7120 0.7040 0.7010 0.6940 0.6920
10.432161 0.6860 0.6840 0.6800 0.6740 0.6700
10.465000 0.6680 0.6650 0.6640 0.6620 0.6620
10.498161 0.6620 0.6640 0.6650 0.6680 0.6680
10.531000 0.6690 0.6690 0.6690 0.6690 0.6690
10.564161 0.6680 0.6610 0.6560 0.6450 0.6380
10.598000 0.6320 0.6250 0.6210 0.6200 0.6200
10.631161 0.6210 0.6240 0.6250 0.6300 0.6330
10.664000 0.6340 0.6370 0.6400 0.6420 0.6450
10.697161 0.6520 0.6560 0.6570 0.6560 0.6540
10.730000 0.6530 0.6520 0.6450 0.6440 0.6410
10.763161 0.6400 0.6380 0.6400 0.6410 0.6420
10.796000 0.6420 0.6420 0.6420 0.6420 0.6410
10.829161 0.6410 0.6410 0.6360 0.6320 0.6250
10.863000 0.6210 0.6140 0.6120 0.6080 0.6040
10.896161 0.6020 0.5970 0.5940 0.5920 0.5900
10.929000 0.5920 0.5930 0.5980 0.6080 0.6200
10.962161 0.6400 0.6570 0.6720 0.6860 0.6980
10.995000 0.7100 0.7210 0.7330 0.7460 0.7490
11.028161 0.7500 0.7500 0.7500 0.7500 0.7490
11.062000 0.7450 0.7450 0.7440 0.7370 0.7320
11.095161 0.7300 0.7260 0.7220 0.7170 0.7080
11.128000 0.7000 0.6930 0.6860 0.6780 0.6690
11.161161 0.6600 0.6460 0.6320 0.6120 0.5930
11.194000 0.5730 0.5570 0.5360 0.5160 0.5050
11.227161 0.4930 0.4770 0.4600 0.4580 0.4580
11.260000 0.4580 0.4600 0.4680 0.4770 0.4880
11.293161 0.4920 0.5130 0.5250 0.5330 0.5380
11.327000 0.5400 0.5400 0.5400 0.5400 0.5400
11.360161 0.5410 0.5440 0.5490 0.5600 0.5660
11.393000 0.5800 0.5860 0.5980 0.6090 0.6090
11.426161 0.6080 0.6060 0.6040 0.6010 0.5940
11.459000 0.5880 0.5780 0.5690 0.5560 0.5410
11.492161 0.5220 0.5020 0.4900 0.4780 0.4490
11.526000 0.4370 0.4130 0.3840 0.3520 0.3210
11.559161 0.2940 0.2620 0.2410 0.2130 0.2120
11.592000 0.2130 0.2200 0.2300 0.2440 0.2620
11.625161 0.2840 0.3080 0.3340 0.3620 0.3890
11.658000 0.4240 0.4540 0.4850 0.5290 0.5480
11.691161 0.5640 0.5780 0.5940 0.6100 0.6290
11.724000 0.6340 0.6480 0.6560 0.6640 0.6740
11.757161 0.6840 0.6880 0.6920 0.6940 0.6960
11.791000 0.6970 0.7000 0.7020 0.7040 0.7050
11.824161 0.7050 0.7050 0.7050 0.7050 0.7050
11.857000 0.7040 0.7040 0.7020 0.7020 0.7010
11.890161 0.7010 0.7000 0.6970 0.6960 0.6940
11.923000 0.6930 0.6890 0.6840 0.6810 0.6760
11.956161 0.6690 0.6620 0.6540 0.6450 0.6340
11.990000 0.6220 0.6090 0.5940 0.5800 0.5610
12.023161 0.5420 0.5220 0.5120 0.5000 0.4740
12.056000 0.4530 0.4300 0.4040 0.3780 0.3480
12.089161 0.3240 0.2980 0.2680 0.2420 0.2200
12.122000 0.2040 0.1880 0.1680 0.1570 0.1540
12.155161 0.1520 0.1520 0.1530 0.1570 0.1650
12.188000 0.1730 0.1820 0.1890 0.2050 0.2260
12.221161 0.2480 0.2580 0.2770 0.2980 0.3180
12.255000 0.3410 0.3600 0.3800 0.4020 0.4210
12.288161 0.4370 0.4520 0.4640 0.4740 0.4840
12.321000 0.4920 0.5000 0.5050 0.5060 0.5060
12.354161 0.5050 0.5050 0.5040 0.5020 0.5010
12.387000 0.4980 0.4960 0.4900 0.4860 0.4800
12.420161 0.4720 0.4660 0.4610 0.4540 0.4500
12.454000 0.4450 0.4440 0.4420 0.4410 0.4360
12.487161 0.4340 0.4330 0.4330 0.4320 0.4300
12.520000 0.4290 0.4290 0.4260 0.4250 0.4250
12.553161 0.4220 0.4180 0.4120 0.4100 0.4100
12.586000 0.4090 0.4080 0.4060 0.4040 0.4010
12.619161 0.3970 0.3890 0.3840 0.3800 0.3740
12.652000 0.3680 0.3580 0.3480 0.3340 0.3280
12.685161 0.3180 0.3060 0.2920 0.2740 0.2570
12.719000 0.2410 0.2250 0.2120 0.2010 0.1970
12.752161 0.1940 0.1930 0.1930 0.1940 0.1960
12.785000 0.1980 0.2010 0.2080 0.2170 0.2300
12.818161 0.2460 0.2530 0.2660 0.2780 0.2960
12.851000 0.3080 0.3220 0.3440 0.3580 0.3770
12.884161 0.3880 0.3940 0.4050 0.4080 0.4100
12.918000 0.4120 0.4120 0.4120 0.4100 0.4060
12.951161 0.4020 0.3940 0.3880 0.3770 0.3680
12.984000 0.3580 0.3480 0.3450 0.3370 0.3280
13.017161 0.3210 0.3160 0.3140 0.3140 0.3160
13.050000 0.3170 0.3180 0.3210 0.3250 0.3330
13.083161 0.3360 0.3440 0.3480 0.3580 0.3620
13.116000 0.3690 0.3760 0.3810 0.3850 0.3900
13.149161 0.3920 0.3920 0.3930 0.3930 0.3930
13.183000 0.3920 0.3920 0.3920 0.3920 0.3920
13.216161 0.3900 0.3890 0.3860 0.3850 0.3850
13.249000 0.3840 0.3820 0.3810 0.3800 0.3740
13.282161 0.3700 0.3650 0.3620 0.3530 0.3450
13.315000 0.3340 0.3200 0.3020 0.2840 0.2640
13.348161 0.2420 0.2180 0.1960 0.1720 0.1460
13.382000 0.1220 0.1050 0.0920 0.0700 0.0440
13.415161 0.0370 0.0330 0.0280 0.0250 0.0240
13.448000 0.0220 0.0220 0.0220 0.0220 0.0220
13.481161 0.0240 0.0250 0.0260 0.0290 0.0330
13.514000 0.0380 0.0450 0.0490 0.0530 0.0600
13.547161 0.0640 0.0730 0.0800 0.0890 0.0980
13.580000 0.1130 0.1280 0.1420 0.1580 0.1740
13.613161 0.1920 0.2090 0.2250 0.2410 0.2570
13.647000 0.2730 0.2880 0.3020 0.3160 0.3260
13.680161 0.3370 0.3480 0.3570 0.3680 0.3770
13.713000 0.3860 0.3960 0.4050 0.4120 0.4210
13.746161 0.4300 0.4380 0.4480 0.4540 0.4620
13.779000 0.4680 0.4740 0.4780 0.4850 0.4900
13.812161 0.4940 0.5000 0.5050 0.5080 0.5100
13.846000 0.5120 0.5120 0.5120 0.5130 0.5140
13.879161 0.5170 0.5200 0.5240 0.5280 0.5320
13.912000 0.5340 0.5370 0.5370 0.5380 0.5400
13.945161 0.5410 0.5410 0.5410 0.5420 0.5420
13.978000 0.5420 0.5420 0.5420 0.5420 0.5420
14.011161 0.5410 0.5410 0.5400 0.5400 0.5380
14.045000 0.5380 0.5370 0.5370 0.5360 0.5340
14.078161 0.5340 0.5330 0.5330 0.5320 0.5320
14.111000 0.5290 0.5280 0.5280 0.5260 0.5260
14.144161 0.5240 0.5220 0.5210 0.5170 0.5140
14.177000 0.5130 0.5120 0.5100 0.5080 0.5050
14.210161 0.5020 0.4980 0.4930 0.4900 0.4860
14.243000 0.4820 0.4760 0.4730 0.4720 0.4700
14.276161 0.4650 0.4640 0.4600 0.4560 0.4480
14.310000 0.4450 0.4410 0.4400 0.4340 0.4320
14.343161 0.4240 0.4200 0.4120 0.4050 0.4010
14.376000 0.3890 0.3760 0.3690 0.3640 0.3570
14.409161 0.3480 0.3360 0.3250 0.3120 0.3000
14.442000 0.2880 0.2760 0.2620 0.2570 0.2450
14.475161 0.2330 0.2240 0.2170 0.2140 0.2080
14.509000 0.2060 0.2060 0.2080 0.2090 0.2100
14.542161 0.2130 0.2160 0.2210 0.2260 0.2340
14.575000 0.2410 0.2480 0.2530 0.2570 0.2610
14.608161 0.2610 0.2620 0.2620 0.2610 0.2610
14.641000 0.2610 0.2610 0.2600 0.2600 0.2600
14.674161 0.2580 0.2580 0.2570 0.2560 0.2530
14.707000 0.2530 0.2520 0.2500 0.2480 0.2460
14.740161 0.2460 0.2420 0.2410 0.2410 0.2400
14.774000 0.2370 0.2330 0.2330 0.2300 0.2290
14.807161 0.2250 0.2210 0.2180 0.2130 0.2090
14.840000 0.2060 0.2040 0.2010 0.1980 0.1960
14.873161 0.1940 0.1930 0.1920 0.1900 0.1890
14.906000 0.1880 0.1860 0.1860 0.1880 0.1880
14.939161 0.1890 0.1890 0.1920 0.1930 0.2000
14.973000 0.2010 0.2040 0.2090 0.2130 0.2170
15.006161 0.2180 0.2180 0.2210 0.2220
##END=
