##TITLE=METHANE SULFONIC ACID, PHENYLCARBAMOYL-, ANILINE SALT
##JCAMP-DX=4.24
##DATA TYPE=INFRARED SPECTRUM
##CLASS=COBLENTZ
##ORIGIN=TENNESSEE EASTMAN COMPANY, RESEARCH LABORATORIES
##OWNER=COBLENTZ SOCIETY
Collection (C) 2018 copyright by the U.S. Secretary of Commerce
on behalf of the United States of America. All rights reserved.
##DATE=Not specified, most likely prior to 1970
##MOLFORM=C14 H16 N2 O4 S
##MP=225-227 C
##SOURCE REFERENCE=COBLENTZ NO. 1522
##$NIST ID=B6001522
##$NIST SOURCE=COBLENTZ
##$NIST IMAGE=cob1522
##SPECTROMETER/DATA SYSTEM=Not specified, most likely a prism, grating, or hybrid spectrometer.
##STATE=SOLID (KBr PELLET)
##SAMPLING PROCEDURE=TRANSMISSION
##RESOLUTION=4
##DATA PROCESSING=DIGITIZED BY NIST FROM HARD COPY
##XUNITS=MICROMETERS
##YUNITS=TRANSMITTANCE
##XFACTOR=1.000000
##YFACTOR=1
##DELTAX=000.006836
##FIRSTX=2
##LASTX=15.9723
##FIRSTY=0.958
##MAXX=15.9723
##MINX=2
##MAXY=0.998
##MINY=0.027
##NPOINTS=2045
##XYDATA=(X++(Y..Y))
2.000000 0.9580 0.9580 0.9580 0.9580 0.9570
2.034196 0.9570 0.9570 0.9570 0.9600 0.9600
2.068000 0.9600 0.9600 0.9600 0.9600 0.9580
2.102196 0.9580 0.9570 0.9550 0.9550 0.9550
2.137000 0.9550 0.9550 0.9550 0.9550 0.9550
2.171196 0.9550 0.9530 0.9530 0.9520 0.9550
2.205000 0.9550 0.9570 0.9570 0.9570 0.9570
2.239196 0.9580 0.9580 0.9570 0.9570 0.9570
2.273000 0.9570 0.9570 0.9570 0.9570 0.9580
2.307196 0.9600 0.9620 0.9620 0.9620 0.9620
2.342000 0.9600 0.9600 0.9600 0.9600 0.9600
2.376196 0.9600 0.9580 0.9570 0.9550 0.9550
2.410000 0.9550 0.9550 0.9550 0.9550 0.9550
2.444196 0.9550 0.9550 0.9550 0.9570 0.9580
2.479000 0.9620 0.9620 0.9600 0.9580 0.9580
2.513196 0.9580 0.9600 0.9600 0.9600 0.9600
2.547000 0.9600 0.9580 0.9580 0.9580 0.9580
2.581196 0.9580 0.9600 0.9600 0.9600 0.9600
2.615000 0.9600 0.9600 0.9620 0.9620 0.9620
2.649196 0.9600 0.9570 0.9550 0.9520 0.9480
2.684000 0.9470 0.9450 0.9450 0.9450 0.9450
2.718196 0.9430 0.9380 0.9260 0.9170 0.9110
2.752000 0.9050 0.8640 0.8520 0.8180 0.7960
2.786196 0.7760 0.7580 0.7520 0.7550 0.7670
2.820000 0.7770 0.7820 0.7860 0.7840 0.7810
2.854196 0.7720 0.7430 0.7230 0.7120 0.7110
2.889000 0.7020 0.7000 0.7000 0.6990 0.6990
2.923196 0.7070 0.7400 0.7620 0.7670 0.7700
2.957000 0.7670 0.7470 0.7110 0.5940 0.5450
2.991196 0.5090 0.4590 0.4100 0.3790 0.3550
3.025000 0.3550 0.3650 0.4130 0.4520 0.4900
3.059196 0.5280 0.5860 0.6000 0.6000 0.6000
3.094000 0.6000 0.5860 0.5550 0.5450 0.5450
3.128196 0.5520 0.5820 0.5810 0.5480 0.4490
3.162000 0.4300 0.4290 0.4290 0.4290 0.4270
3.196196 0.4220 0.3890 0.3500 0.3120 0.2990
3.230000 0.2970 0.2920 0.2850 0.2710 0.2590
3.264196 0.2460 0.2300 0.2150 0.2010 0.1910
3.299000 0.1760 0.1670 0.1620 0.1600 0.1580
3.333196 0.1550 0.1520 0.1470 0.1400 0.1380
3.367000 0.1350 0.1310 0.1260 0.1230 0.1210
3.401196 0.1210 0.1210 0.1210 0.1210 0.1230
3.436000 0.1260 0.1350 0.1410 0.1520 0.1670
3.470196 0.1940 0.2200 0.2410 0.2560 0.2750
3.504000 0.2940 0.3090 0.3260 0.3360 0.3470
3.538196 0.3620 0.3770 0.3940 0.4010 0.4150
3.572000 0.4340 0.4410 0.4470 0.4510 0.4640
3.606196 0.4660 0.4680 0.4730 0.4800 0.4850
3.641000 0.4870 0.4900 0.4900 0.4880 0.4830
3.675196 0.4760 0.4700 0.4660 0.4630 0.4580
3.709000 0.4520 0.4490 0.4440 0.4390 0.4250
3.743196 0.4110 0.3980 0.3770 0.3690 0.3530
3.777000 0.3470 0.3380 0.3380 0.3380 0.3380
3.811196 0.3410 0.3670 0.4010 0.4230 0.4300
3.846000 0.4320 0.4320 0.4340 0.4420 0.4700
3.880196 0.5310 0.5720 0.6000 0.6180 0.6350
3.914000 0.6560 0.6660 0.6760 0.7000 0.7240
3.948196 0.7350 0.7480 0.7570 0.7690 0.7740
3.982000 0.7860 0.7960 0.8030 0.8100 0.8110
4.016196 0.8150 0.8230 0.8290 0.8320 0.8370
4.051000 0.8440 0.8470 0.8490 0.8510 0.8520
4.085196 0.8540 0.8590 0.8640 0.8710 0.8760
4.119000 0.8850 0.8870 0.8940 0.8970 0.8990
4.153196 0.9040 0.9040 0.9070 0.9090 0.9120
4.188000 0.9120 0.9140 0.9140 0.9140 0.9140
4.222196 0.9140 0.9140 0.9140 0.9140 0.9140
4.256000 0.9140 0.9140 0.9140 0.9140 0.9140
4.290196 0.9160 0.9170 0.9190 0.9210 0.9240
4.324000 0.9260 0.9290 0.9310 0.9330 0.9330
4.358196 0.9330 0.9330 0.9350 0.9350 0.9350
4.393000 0.9360 0.9360 0.9360 0.9360 0.9360
4.427196 0.9360 0.9360 0.9360 0.9360 0.9360
4.461000 0.9360 0.9380 0.9380 0.9400 0.9400
4.495196 0.9410 0.9430 0.9450 0.9470 0.9480
4.529000 0.9480 0.9480 0.9480 0.9480 0.9480
4.563196 0.9470 0.9470 0.9470 0.9450 0.9450
4.598000 0.9450 0.9470 0.9470 0.9480 0.9480
4.632196 0.9480 0.9450 0.9430 0.9400 0.9350
4.666000 0.9290 0.9260 0.9230 0.9190 0.9110
4.700196 0.9070 0.9070 0.9050 0.9020 0.9020
4.734000 0.9000 0.8990 0.8950 0.8940 0.8940
4.768196 0.8920 0.8920 0.8920 0.8920 0.8900
4.803000 0.8900 0.8900 0.8900 0.8900 0.8900
4.837196 0.8900 0.8880 0.8880 0.8880 0.8880
4.871000 0.8880 0.8900 0.8920 0.8940 0.8940
4.905196 0.8940 0.8950 0.8990 0.9000 0.9000
4.939000 0.9040 0.9090 0.9110 0.9140 0.9160
4.973196 0.9170 0.9210 0.9210 0.9210 0.9190
5.008000 0.9170 0.9170 0.9170 0.9190 0.9210
5.042196 0.9230 0.9230 0.9240 0.9260 0.9280
5.076000 0.9260 0.9260 0.9260 0.9240 0.9240
5.110196 0.9260 0.9280 0.9290 0.9290 0.9310
5.145000 0.9330 0.9330 0.9350 0.9430 0.9500
5.179196 0.9500 0.9530 0.9550 0.9550 0.9550
5.213000 0.9550 0.9570 0.9570 0.9580 0.9580
5.247196 0.9580 0.9570 0.9570 0.9550 0.9530
5.281000 0.9450 0.9410 0.9410 0.9410 0.9410
5.315196 0.9410 0.9410 0.9410 0.9410 0.9430
5.350000 0.9470 0.9500 0.9530 0.9570 0.9580
5.384196 0.9600 0.9690 0.9690 0.9690 0.9690
5.418000 0.9690 0.9690 0.9670 0.9670 0.9670
5.452196 0.9690 0.9670 0.9670 0.9650 0.9620
5.486000 0.9580 0.9520 0.9500 0.9500 0.9500
5.520196 0.9450 0.9410 0.9410 0.9410 0.9410
5.555000 0.9430 0.9500 0.9500 0.9500 0.9500
5.589196 0.9520 0.9520 0.9500 0.9500 0.9500
5.623000 0.9480 0.9500 0.9470 0.9450 0.9430
5.657196 0.9410 0.9400 0.9360 0.9310 0.9230
5.691000 0.9190 0.9110 0.9040 0.9000 0.8940
5.725196 0.8900 0.8900 0.8880 0.8880 0.8900
5.760000 0.8900 0.8900 0.8900 0.8900 0.8900
5.794196 0.8870 0.8850 0.8830 0.8800 0.8780
5.828000 0.8700 0.8540 0.8470 0.8340 0.8250
5.862196 0.8170 0.8030 0.7930 0.7740 0.7530
5.896000 0.7290 0.7050 0.6780 0.6030 0.5530
5.930196 0.5020 0.4610 0.4180 0.3890 0.3640
5.965000 0.3450 0.2590 0.2200 0.1880 0.1310
5.999196 0.0820 0.0420 0.0340 0.0370 0.0460
6.033000 0.0490 0.0700 0.0900 0.1160 0.1400
6.067196 0.1670 0.1910 0.2030 0.2290 0.2610
6.102000 0.3110 0.3240 0.3380 0.3480 0.3480
6.136196 0.2870 0.2510 0.2220 0.1980 0.1760
6.170000 0.1650 0.1550 0.1480 0.1410 0.1290
6.204196 0.1170 0.1090 0.0950 0.0850 0.0780
6.238000 0.0760 0.0800 0.1400 0.2060 0.2610
6.272196 0.2990 0.3240 0.3480 0.4030 0.4410
6.307000 0.4540 0.4700 0.4730 0.4710 0.4470
6.341196 0.4100 0.3480 0.2370 0.1820 0.1470
6.375000 0.1230 0.1120 0.1090 0.1090 0.1110
6.409196 0.1160 0.1190 0.1260 0.1290 0.1400
6.443000 0.1500 0.1740 0.2030 0.2490 0.3090
6.477196 0.3360 0.3640 0.4100 0.4420 0.4640
6.512000 0.4820 0.4940 0.5050 0.5160 0.5330
6.546196 0.5530 0.5670 0.5760 0.5770 0.5770
6.580000 0.5760 0.5230 0.4680 0.4100 0.3520
6.614196 0.2250 0.1640 0.1260 0.1240 0.1290
6.648000 0.1790 0.2230 0.2830 0.3380 0.3910
6.682196 0.5210 0.6060 0.6300 0.6320 0.6320
6.717000 0.6370 0.6410 0.6510 0.6590 0.6660
6.751196 0.6730 0.6900 0.6990 0.6990 0.6990
6.785000 0.6990 0.6990 0.6970 0.6970 0.7000
6.819196 0.7000 0.6990 0.6880 0.6150 0.5600
6.854000 0.5050 0.4390 0.3580 0.1790 0.1550
6.888196 0.1530 0.1570 0.2880 0.4180 0.5400
6.922000 0.6290 0.6540 0.6780 0.6780 0.6710
6.956196 0.5620 0.5120 0.4710 0.4410 0.4250
6.990000 0.4230 0.4270 0.5700 0.6230 0.6510
7.024196 0.6780 0.7280 0.7470 0.7570 0.7770
7.059000 0.7980 0.8060 0.8170 0.8220 0.8300
7.093196 0.8340 0.8390 0.8390 0.8390 0.8390
7.127000 0.8390 0.8410 0.8420 0.8440 0.8460
7.161196 0.8460 0.8470 0.8470 0.8470 0.8470
7.195000 0.8470 0.8470 0.8470 0.8470 0.8470
7.229196 0.8470 0.8490 0.8490 0.8510 0.8540
7.264000 0.8560 0.8580 0.8580 0.8590 0.8610
7.298196 0.8610 0.8590 0.8590 0.8520 0.8490
7.332000 0.8470 0.8350 0.8270 0.8150 0.8030
7.366196 0.7860 0.7700 0.7240 0.6870 0.6730
7.400000 0.5720 0.5310 0.4800 0.4250 0.3790
7.434196 0.2820 0.2410 0.2300 0.2300 0.2370
7.469000 0.2750 0.3050 0.3350 0.4030 0.4610
7.503196 0.5090 0.5520 0.5880 0.6180 0.6460
7.537000 0.6590 0.6710 0.6940 0.7090 0.7310
7.571196 0.7470 0.7550 0.7720 0.7810 0.7880
7.605000 0.7910 0.7930 0.7910 0.7860 0.7740
7.639196 0.7580 0.7470 0.7330 0.7290 0.7260
7.674000 0.7240 0.7210 0.7140 0.7070 0.6920
7.708196 0.6700 0.6060 0.5640 0.5170 0.4610
7.742000 0.4010 0.3410 0.2660 0.2660 0.3090
7.776196 0.3330 0.3550 0.3700 0.4250 0.4780
7.811000 0.5570 0.6250 0.6440 0.6510 0.6520
7.845196 0.6510 0.6350 0.6180 0.5890 0.5480
7.879000 0.5110 0.4640 0.4180 0.3690 0.3500
7.913196 0.3500 0.3550 0.4150 0.4590 0.5310
7.947000 0.5690 0.6000 0.6150 0.6220 0.6220
7.981196 0.6250 0.6250 0.6220 0.6100 0.5960
8.016000 0.5840 0.5700 0.5550 0.5430 0.5280
8.050196 0.5090 0.4900 0.4680 0.4460 0.4250
8.084000 0.4050 0.3840 0.3550 0.2900 0.2610
8.118196 0.2390 0.2200 0.2000 0.1940 0.1940
8.152000 0.1940 0.1960 0.1980 0.1980 0.1840
8.186196 0.1790 0.1550 0.1330 0.1110 0.0880
8.221000 0.0630 0.0490 0.0410 0.0320 0.0290
8.255196 0.0290 0.0290 0.0300 0.0320 0.0460
8.289000 0.0610 0.0730 0.0850 0.1000 0.1240
8.323196 0.1310 0.1380 0.1410 0.1430 0.1430
8.357000 0.1430 0.1400 0.1350 0.1260 0.1230
8.391196 0.1110 0.0970 0.0880 0.0800 0.0760
8.426000 0.0750 0.0750 0.0700 0.0640 0.0520
8.460196 0.0440 0.0300 0.0270 0.0270 0.0290
8.494000 0.0320 0.0370 0.0490 0.0630 0.0940
8.528196 0.1190 0.1550 0.1940 0.2410 0.2870
8.563000 0.3110 0.3350 0.3770 0.4170 0.4470
8.597196 0.4760 0.5040 0.5260 0.5410 0.5530
8.631000 0.5640 0.5760 0.5860 0.6000 0.6000
8.665196 0.6000 0.6000 0.5930 0.5860 0.5790
8.699000 0.5720 0.5650 0.5570 0.5500 0.5450
8.733196 0.5400 0.5380 0.5330 0.5310 0.5310
8.768000 0.5310 0.5310 0.5290 0.5240 0.5140
8.802196 0.5020 0.4920 0.4760 0.4640 0.4540
8.836000 0.4440 0.4420 0.4420 0.4440 0.4540
8.870196 0.4700 0.4900 0.5110 0.5400 0.5570
8.904000 0.5760 0.5910 0.6060 0.6220 0.6350
8.938196 0.6470 0.6560 0.6630 0.6680 0.6760
8.973000 0.6830 0.6900 0.7000 0.7140 0.7260
9.007196 0.7360 0.7360 0.7450 0.7480 0.7520
9.041000 0.7580 0.7650 0.7690 0.7720 0.7790
9.075196 0.7840 0.7880 0.7890 0.7910 0.7910
9.109000 0.7930 0.7940 0.7940 0.7940 0.7960
9.143196 0.7980 0.8000 0.8010 0.8050 0.8100
9.178000 0.8100 0.8110 0.8110 0.8110 0.8110
9.212196 0.8100 0.8060 0.8050 0.8030 0.8060
9.246000 0.8110 0.8200 0.8230 0.8290 0.8290
9.280196 0.8300 0.8300 0.8300 0.8290 0.8290
9.314000 0.8270 0.8200 0.8110 0.8050 0.7960
9.348196 0.7880 0.7790 0.7700 0.7600 0.7470
9.383000 0.7360 0.7090 0.6950 0.6150 0.5760
9.417196 0.5410 0.5140 0.4920 0.4900 0.4920
9.451000 0.5210 0.5690 0.5790 0.5790 0.5690
9.485196 0.5260 0.4830 0.4370 0.3810 0.2820
9.520000 0.2270 0.1910 0.1530 0.1290 0.1050
9.554196 0.0880 0.0710 0.0540 0.0410 0.0370
9.588000 0.0370 0.0440 0.0710 0.1070 0.1620
9.622196 0.2200 0.2940 0.3240 0.3550 0.4030
9.656000 0.4470 0.4850 0.5210 0.5580 0.6000
9.690196 0.6460 0.6630 0.6800 0.7070 0.7280
9.725000 0.7470 0.7600 0.7700 0.7820 0.7930
9.759196 0.8030 0.8050 0.8110 0.8200 0.8230
9.793000 0.8270 0.8460 0.8520 0.8560 0.8590
9.827196 0.8610 0.8640 0.8680 0.8710 0.8750
9.861000 0.8780 0.8780 0.8800 0.8800 0.8800
9.895196 0.8780 0.8760 0.8750 0.8750 0.8800
9.930000 0.8800 0.8780 0.8760 0.8760 0.8730
9.964196 0.8730 0.8730 0.8730 0.8830 0.8870
9.998000 0.8920 0.8970 0.9020 0.9050 0.9070
10.032196 0.9090 0.9090 0.9090 0.9090 0.9110
10.066000 0.9110 0.9110 0.9110 0.9110 0.9110
10.100196 0.9110 0.9110 0.9110 0.9110 0.9110
10.135000 0.9090 0.9070 0.9020 0.8970 0.8870
10.169196 0.8760 0.8640 0.8490 0.8370 0.8290
10.203000 0.8220 0.8150 0.8080 0.7960 0.7810
10.237196 0.7580 0.7330 0.7120 0.6870 0.6150
10.271000 0.5960 0.5720 0.5500 0.5470 0.5470
10.305196 0.5480 0.5690 0.6050 0.6390 0.6560
10.340000 0.6710 0.7040 0.7350 0.7600 0.7840
10.374196 0.8030 0.8150 0.8300 0.8440 0.8590
10.408000 0.8710 0.8800 0.8900 0.9000 0.9050
10.442196 0.9140 0.9230 0.9280 0.9310 0.9350
10.477000 0.9380 0.9400 0.9400 0.9410 0.9430
10.511196 0.9450 0.9500 0.9500 0.9520 0.9520
10.545000 0.9530 0.9530 0.9550 0.9550 0.9570
10.579196 0.9580 0.9600 0.9620 0.9620 0.9640
10.613000 0.9640 0.9640 0.9650 0.9650 0.9670
10.647196 0.9670 0.9670 0.9670 0.9670 0.9670
10.682000 0.9690 0.9690 0.9690 0.9670 0.9670
10.716196 0.9670 0.9670 0.9670 0.9650 0.9600
10.750000 0.9530 0.9480 0.9410 0.9400 0.9330
10.784196 0.9280 0.9240 0.9190 0.9160 0.9160
10.818000 0.9160 0.9170 0.9210 0.9240 0.9290
10.852196 0.9310 0.9330 0.9350 0.9360 0.9380
10.887000 0.9380 0.9380 0.9360 0.9360 0.9330
10.921196 0.9290 0.9230 0.9160 0.9050 0.9000
10.955000 0.8900 0.8820 0.8710 0.8630 0.8560
10.989196 0.8510 0.8440 0.8350 0.8300 0.8200
11.023000 0.8170 0.7960 0.7810 0.7700 0.7550
11.057196 0.7400 0.7330 0.7310 0.7360 0.7600
11.092000 0.7910 0.8200 0.8460 0.8580 0.8750
11.126196 0.8950 0.9160 0.9280 0.9350 0.9410
11.160000 0.9500 0.9520 0.9550 0.9580 0.9650
11.194196 0.9700 0.9740 0.9770 0.9790 0.9810
11.229000 0.9810 0.9820 0.9820 0.9840 0.9840
11.263196 0.9840 0.9860 0.9860 0.9880 0.9880
11.297000 0.9880 0.9880 0.9880 0.9880 0.9890
11.331196 0.9890 0.9890 0.9890 0.9910 0.9910
11.365000 0.9910 0.9910 0.9910 0.9930 0.9930
11.399196 0.9930 0.9930 0.9930 0.9940 0.9940
11.434000 0.9940 0.9940 0.9960 0.9960 0.9960
11.468196 0.9960 0.9960 0.9960 0.9960 0.9960
11.502000 0.9960 0.9980 0.9980 0.9980 0.9980
11.536196 0.9980 0.9980 0.9980 0.9980 0.9960
11.570000 0.9960 0.9960 0.9960 0.9960 0.9940
11.604196 0.9940 0.9930 0.9930 0.9910 0.9890
11.639000 0.9890 0.9890 0.9890 0.9860 0.9820
11.673196 0.9790 0.9770 0.9720 0.9690 0.9650
11.707000 0.9620 0.9530 0.9500 0.9470 0.9400
11.741196 0.9350 0.9330 0.9260 0.9210 0.9120
11.775000 0.9020 0.8970 0.8940 0.8880 0.8830
11.809196 0.8760 0.8750 0.8700 0.8660 0.8630
11.844000 0.8630 0.8630 0.8640 0.8660 0.8730
11.878196 0.8780 0.8800 0.8850 0.8900 0.8940
11.912000 0.9020 0.9040 0.9120 0.9160 0.9190
11.946196 0.9210 0.9230 0.9240 0.9240 0.9260
11.980000 0.9280 0.9290 0.9290 0.9290 0.9290
12.014196 0.9290 0.9290 0.9290 0.9290 0.9280
12.049000 0.9280 0.9260 0.9260 0.9230 0.9160
12.083196 0.9110 0.9040 0.9020 0.8970 0.8870
12.117000 0.8680 0.8510 0.8300 0.8170 0.7980
12.151196 0.7820 0.7570 0.7260 0.7040 0.6780
12.186000 0.6410 0.6180 0.6030 0.5910 0.5840
12.220196 0.5840 0.5860 0.5940 0.6050 0.6230
12.254000 0.6460 0.6560 0.6660 0.6870 0.7070
12.288196 0.7260 0.7470 0.7570 0.7760 0.7890
12.322000 0.8000 0.8110 0.8200 0.8300 0.8370
12.356196 0.8420 0.8490 0.8520 0.8630 0.8640
12.391000 0.8680 0.8730 0.8760 0.8800 0.8820
12.425196 0.8850 0.8870 0.8870 0.8900 0.8900
12.459000 0.8920 0.8920 0.8940 0.8940 0.8940
12.493196 0.8950 0.8940 0.8940 0.8950 0.8950
12.527000 0.8950 0.8970 0.8990 0.8990 0.9000
12.561196 0.9000 0.9000 0.9020 0.9020 0.9020
12.596000 0.9020 0.9020 0.9020 0.9040 0.9040
12.630196 0.9040 0.9040 0.9040 0.9040 0.9040
12.664000 0.9040 0.9020 0.9020 0.9000 0.9000
12.698196 0.9000 0.8990 0.8990 0.8970 0.8950
12.732000 0.8900 0.8830 0.8800 0.8760 0.8750
12.766196 0.8730 0.8710 0.8700 0.8660 0.8630
12.801000 0.8590 0.8560 0.8520 0.8510 0.8510
12.835196 0.8420 0.8370 0.8320 0.8270 0.8250
12.869000 0.8220 0.8180 0.8110 0.8080 0.8080
12.903196 0.8010 0.8000 0.7980 0.7890 0.7840
12.938000 0.7760 0.7700 0.7520 0.7450 0.7430
12.972196 0.7350 0.7230 0.7190 0.7120 0.7000
13.006000 0.6900 0.6800 0.6660 0.6470 0.6340
13.040196 0.6060 0.5940 0.5810 0.5670 0.5520
13.074000 0.5410 0.5230 0.5090 0.4950 0.4830
13.108196 0.4640 0.4490 0.4410 0.4290 0.4200
13.143000 0.4110 0.4080 0.4010 0.3980 0.3880
13.177196 0.3840 0.3770 0.3700 0.3620 0.3530
13.211000 0.3450 0.3400 0.3240 0.3210 0.3190
13.245196 0.3120 0.3040 0.3000 0.2970 0.2900
13.279000 0.2870 0.2800 0.2710 0.2590 0.2510
13.313196 0.2350 0.2220 0.2060 0.1960 0.1810
13.348000 0.1650 0.1500 0.1380 0.1240 0.1120
13.382196 0.1020 0.0990 0.0940 0.0870 0.0800
13.416000 0.0760 0.0730 0.0730 0.0750 0.0760
13.450196 0.0830 0.0970 0.1070 0.1230 0.1430
13.484000 0.1580 0.1740 0.1940 0.2060 0.2350
13.518196 0.2610 0.2880 0.3120 0.3240 0.3360
13.553000 0.3640 0.3930 0.4150 0.4470 0.4760
13.587196 0.4970 0.5190 0.5550 0.5650 0.5820
13.621000 0.5960 0.6100 0.6220 0.6350 0.6510
13.655196 0.6590 0.6640 0.6700 0.6760 0.6830
13.689000 0.6900 0.6970 0.7020 0.7070 0.7110
13.723196 0.7160 0.7190 0.7210 0.7260 0.7310
13.758000 0.7360 0.7400 0.7430 0.7470 0.7500
13.792196 0.7520 0.7530 0.7570 0.7580 0.7580
13.826000 0.7580 0.7600 0.7620 0.7640 0.7690
13.860196 0.7700 0.7700 0.7720 0.7720 0.7720
13.895000 0.7740 0.7740 0.7740 0.7740 0.7760
13.929196 0.7770 0.7770 0.7770 0.7790 0.7790
13.963000 0.7790 0.7790 0.7770 0.7770 0.7760
13.997196 0.7760 0.7760 0.7760 0.7740 0.7740
14.031000 0.7720 0.7720 0.7700 0.7690 0.7690
14.065196 0.7690 0.7670 0.7640 0.7620 0.7600
14.100000 0.7550 0.7520 0.7500 0.7480 0.7480
14.134196 0.7470 0.7450 0.7450 0.7430 0.7400
14.168000 0.7350 0.7290 0.7280 0.7240 0.7240
14.202196 0.7190 0.7170 0.7140 0.7120 0.7090
14.236000 0.7050 0.7020 0.6990 0.6990 0.6900
14.270196 0.6880 0.6850 0.6820 0.6780 0.6730
14.305000 0.6710 0.6680 0.6580 0.6540 0.6510
14.339196 0.6470 0.6390 0.6350 0.6300 0.6230
14.373000 0.6170 0.6030 0.6010 0.5910 0.5790
14.407196 0.5640 0.5410 0.5350 0.5170 0.5000
14.441000 0.4850 0.4640 0.4440 0.4230 0.4050
14.475196 0.3880 0.3720 0.3550 0.3350 0.3040
14.510000 0.2920 0.2820 0.2730 0.2700 0.2680
14.544196 0.2680 0.2700 0.2730 0.2830 0.2900
14.578000 0.3040 0.3240 0.3360 0.3480 0.3740
14.612196 0.3980 0.4270 0.4460 0.4640 0.4850
14.646000 0.5070 0.5290 0.5480 0.5690 0.5860
14.680196 0.6030 0.6170 0.6270 0.6390 0.6490
14.715000 0.6590 0.6640 0.6700 0.6800 0.6830
14.749196 0.6880 0.6990 0.6990 0.7020 0.7070
14.783000 0.7170 0.7190 0.7210 0.7230 0.7240
14.817196 0.7260 0.7260 0.7260 0.7260 0.7260
14.852000 0.7260 0.7260 0.7260 0.7240 0.7240
14.886196 0.7230 0.7210 0.7190 0.7160 0.7140
14.920000 0.7120 0.7050 0.7000 0.6990 0.6950
14.954196 0.6900 0.6820 0.6760 0.6710 0.6660
14.988000 0.6580 0.6510 0.6470 0.6410 0.6370
15.022196 0.6320 0.6270 0.6180 0.6130 0.6050
15.057000 0.6010 0.6000 0.5930 0.5890 0.5820
15.091196 0.5760 0.5670 0.5500 0.5410 0.5330
15.125000 0.5260 0.5190 0.5160 0.5070 0.5020
15.159196 0.4990 0.4990 0.4970 0.4920 0.4920
15.193000 0.4900 0.4900 0.4900 0.4900 0.4920
15.227196 0.4940 0.4950 0.4970 0.4990 0.5160
15.262000 0.5260 0.5310 0.5380 0.5470 0.5520
15.296196 0.5570 0.5620 0.5690 0.5740 0.5770
15.330000 0.5820 0.5840 0.5890 0.5980 0.6000
15.364196 0.6010 0.6030 0.6050 0.6060 0.6100
15.398000 0.6110 0.6130 0.6170 0.6180 0.6200
15.432196 0.6220 0.6230 0.6250 0.6270 0.6290
15.467000 0.6300 0.6300 0.6300 0.6300 0.6300
15.501196 0.6290 0.6270 0.6250 0.6250 0.6230
15.535000 0.6230 0.6220 0.6230 0.6250 0.6250
15.569196 0.6270 0.6290 0.6290 0.6290 0.6300
15.604000 0.6300 0.6300 0.6300 0.6300 0.6300
15.638196 0.6300 0.6300 0.6290 0.6290 0.6290
15.672000 0.6270 0.6270 0.6250 0.6250 0.6230
15.706196 0.6230 0.6220 0.6220 0.6200 0.6200
15.740000 0.6180 0.6170 0.6150 0.6130 0.6130
15.774196 0.6130 0.6130 0.6130 0.6110 0.6100
15.809000 0.6100 0.6110 0.6110 0.6110 0.6100
15.843196 0.6100 0.6100 0.6080 0.6080 0.6080
15.877000 0.6050 0.6050 0.6030 0.6030 0.6030
15.911196 0.6010 0.6010 0.6000 0.6000 0.6000
15.945000 0.6000 0.6000 0.6000 0.6000 0.6000
##END=
