##TITLE=3,3',3'',3''',3'''',3'''''-[(CYCLOHEXANE-1,2,3,4,5,6-HEXAYL)HEXAOXY]HEXAPROPIONITRILE
##JCAMP-DX=4.24
##DATA TYPE=INFRARED SPECTRUM
##CLASS=COBLENTZ III
##ORIGIN=DOW CHEMICAL COMPANY
##OWNER=COBLENTZ SOCIETY
Collection (C) 2018 copyright by the U.S. Secretary of Commerce
on behalf of the United States of America. All rights reserved.
##DATE=1965/12/07
##NAMES=3-([2,3,4,5,6-pentakis(2-cyanoethoxy)cyclohexyl]oxy)propanenitrile
##MOLFORM=C24 H30 N6 O6
##MP=125 C
##SOURCE REFERENCE=COBLENTZ NO. 9190
##$NIST ID=B6009190
##$NIST SOURCE=COBLENTZ
##$NIST IMAGE=cob9190
##SPECTROMETER/DATA SYSTEM=BECKMAN IR-9 (GRATING)
##INSTRUMENT PARAMETERS=ORDER CHANGES: 670, 1200, 2000 CM^-^1
##STATE=SOLID (SPLIT MULL), FLUOROLUBE FOR 3800-1330 CM^-^1, NUJOL FOR 1330-400 CM^-^1
##SAMPLING PROCEDURE=TRANSMISSION
##RESOLUTION=2
##DATA PROCESSING=DIGITIZED BY NIST FROM HARD COPY (FROM TWO SEGMENTS)
##XUNITS=1/CM
##YUNITS=TRANSMITTANCE
##XFACTOR=1.000000
##YFACTOR=1
##DELTAX=0.890209
##FIRSTX=402.077
##LASTX=3796.44
##FIRSTY=0.523
##MAXX=3796.44
##MINX=402.077
##MAXY=0.993
##MINY=0.03
##NPOINTS=3814
##XYDATA=(X++(Y..Y))
402.077000 0.5230 0.5230 0.5230 0.5230 0.5230
406.528046 0.5230 0.5230 0.5230 0.5230 0.5240
410.979092 0.5240 0.5270 0.5300 0.5360 0.5400
415.430138 0.5550 0.5620 0.5690 0.5760 0.5830
419.881184 0.5900 0.5950 0.6020 0.6100 0.6170
424.332230 0.6260 0.6320 0.6390 0.6460 0.6530
428.783276 0.6590 0.6630 0.6640 0.6730 0.6780
433.234322 0.6840 0.6880 0.6930 0.6980 0.7030
437.685368 0.7040 0.7070 0.7100 0.7170 0.7220
442.136414 0.7280 0.7390 0.7400 0.7420 0.7460
446.587460 0.7520 0.7560 0.7590 0.7600 0.7630
451.038506 0.7650 0.7720 0.7790 0.7810 0.7880
455.489552 0.7900 0.7920 0.7950 0.7970 0.8000
459.940598 0.8030 0.8070 0.8110 0.8150 0.8180
464.391644 0.8210 0.8240 0.8260 0.8290 0.8320
468.842690 0.8330 0.8350 0.8350 0.8360 0.8360
473.293736 0.8360 0.8370 0.8390 0.8390 0.8390
477.744782 0.8370 0.8370 0.8360 0.8320 0.8290
482.195828 0.8250 0.8100 0.8070 0.8030 0.7990
486.646874 0.7950 0.7930 0.7950 0.7990 0.8030
491.097920 0.8070 0.8100 0.8150 0.8240 0.8280
495.548966 0.8310 0.8310 0.8320 0.8320 0.8330
500.000012 0.8330 0.8350 0.8360 0.8360 0.8370
504.451058 0.8440 0.8460 0.8460 0.8460 0.8460
508.902104 0.8470 0.8430 0.8330 0.8280 0.8180
513.353150 0.8000 0.7970 0.7970 0.7970 0.7990
517.804196 0.8010 0.8070 0.8250 0.8350 0.8440
522.255242 0.8490 0.8600 0.8710 0.8730 0.8760
526.706288 0.8780 0.8790 0.8800 0.8830 0.8860
531.157334 0.8870 0.8890 0.8970 0.8980 0.9000
535.608380 0.9000 0.9000 0.9000 0.9000 0.9000
540.059426 0.9000 0.9000 0.9000 0.9000 0.8980
544.510473 0.8970 0.8970 0.8960 0.8930 0.8910
548.961519 0.8890 0.8890 0.8890 0.8930 0.8980
553.412565 0.9030 0.9070 0.9080 0.9080 0.9090
557.863611 0.9090 0.9110 0.9110 0.9110 0.9090
562.314657 0.9090 0.9080 0.9080 0.9080 0.9030
566.765703 0.8970 0.8890 0.8761 0.8621 0.8600
571.216749 0.8600 0.8730 0.8830 0.8850 0.8930
575.667795 0.8940 0.8960 0.8970 0.8970 0.9000
580.118841 0.9000 0.9030 0.9040 0.9040 0.9040
584.569887 0.9040 0.9040 0.9040 0.9040 0.9040
589.020933 0.9030 0.9030 0.9010 0.9000 0.8980
593.471979 0.8900 0.8870 0.8820 0.8720 0.8690
597.923025 0.8680 0.8620 0.8600 0.8600 0.8580
602.374071 0.8580 0.8580 0.8600 0.8779 0.8909
606.825117 0.9000 0.9070 0.9080 0.9090 0.9090
611.276163 0.9120 0.9150 0.9150 0.9150 0.9150
615.727209 0.9140 0.9140 0.9110 0.9090 0.9050
620.178255 0.9040 0.9030 0.9030 0.9030 0.9050
624.629301 0.9110 0.9120 0.9150 0.9180 0.9220
629.080347 0.9260 0.9270 0.9290 0.9270 0.9300
633.531393 0.9320 0.9340 0.9360 0.9390 0.9430
637.982439 0.9500 0.9520 0.9540 0.9610 0.9620
642.433485 0.9630 0.9620 0.9650 0.9650 0.9660
646.884531 0.9700 0.9720 0.9700 0.9720 0.9730
651.335577 0.9750 0.9750 0.9760 0.9760 0.9760
655.786623 0.9760 0.9760 0.9760 0.9760 0.9760
660.237669 0.9760 0.9760 0.9760 0.9760 0.9760
664.688715 0.9760 0.9760 0.9760 0.9770 0.9770
669.139761 0.9770 0.9770 0.9770 0.9770 0.9770
673.590807 0.9770 0.9770 0.9770 0.9770 0.9770
678.041853 0.9770 0.9770 0.9770 0.9770 0.9770
682.492899 0.9790 0.9790 0.9790 0.9790 0.9790
686.943945 0.9790 0.9790 0.9790 0.9790 0.9770
691.394991 0.9760 0.9760 0.9750 0.9730 0.9720
695.846037 0.9720 0.9680 0.9660 0.9630 0.9610
700.297083 0.9550 0.9520 0.9221 0.9150 0.9090
704.748129 0.9040 0.8980 0.8930 0.8820 0.8491
709.199175 0.8151 0.7831 0.7601 0.7421 0.7390
713.650221 0.7400 0.7520 0.7630 0.7740 0.7950
718.101267 0.7960 0.8060 0.8140 0.8240 0.8290
722.552313 0.8290 0.8190 0.8000 0.7780 0.7590
727.003359 0.7381 0.7201 0.7060 0.6881 0.6820
731.454405 0.6810 0.6810 0.6800 0.6880 0.6950
735.905451 0.7130 0.7339 0.7460 0.7739 0.7899
740.356497 0.7950 0.8130 0.8250 0.8470 0.8540
744.807543 0.8580 0.8640 0.8690 0.8750 0.8800
749.258589 0.8860 0.8870 0.8890 0.8900 0.8940
753.709635 0.8980 0.9000 0.9010 0.9030 0.9030
758.160681 0.9030 0.9030 0.9030 0.9030 0.9030
762.611727 0.9010 0.9010 0.9000 0.9010 0.9010
767.062773 0.9030 0.9040 0.9050 0.9070 0.9080
771.513819 0.9110 0.9120 0.9180 0.9180 0.9190
775.964865 0.9220 0.9230 0.9250 0.9260 0.9270
780.415911 0.9290 0.9290 0.9290 0.9290 0.9290
784.866957 0.9290 0.9290 0.9270 0.9270 0.9270
789.318003 0.9270 0.9270 0.9260 0.9260 0.9260
793.769049 0.9260 0.9260 0.9260 0.9270 0.9270
798.220095 0.9270 0.9300 0.9320 0.9330 0.9330
802.671141 0.9340 0.9360 0.9370 0.9370 0.9390
807.122187 0.9390 0.9390 0.9390 0.9390 0.9390
811.573233 0.9390 0.9390 0.9390 0.9390 0.9390
816.024279 0.9370 0.9330 0.9300 0.9290 0.9270
820.475325 0.9230 0.9160 0.9110 0.9090 0.9090
824.926371 0.9090 0.9090 0.9110 0.9110 0.9120
829.377418 0.9140 0.9140 0.9140 0.9120 0.9090
833.828464 0.9080 0.9070 0.9030 0.9000 0.8910
838.279510 0.8860 0.8710 0.8670 0.8620 0.8540
842.730556 0.8460 0.8360 0.8290 0.8240 0.8210
847.181602 0.8170 0.8150 0.8150 0.8190 0.8250
851.632648 0.8440 0.8510 0.8550 0.8580 0.8600
856.083694 0.8610 0.8610 0.8600 0.8600 0.8580
860.534740 0.8580 0.8580 0.8600 0.8650 0.8690
864.985786 0.8750 0.8780 0.8820 0.8830 0.8850
869.436832 0.8860 0.8860 0.8870 0.8870 0.8870
873.887878 0.8890 0.8890 0.8900 0.8910 0.8980
878.338924 0.9190 0.9190 0.9190 0.9190 0.9190
882.789970 0.9190 0.9190 0.9190 0.9180 0.9150
887.241016 0.9150 0.9150 0.9150 0.9150 0.9150
891.692062 0.9140 0.9140 0.9140 0.9120 0.9120
896.143108 0.9110 0.9110 0.9090 0.9080 0.9080
900.594154 0.9080 0.9070 0.9070 0.9050 0.9040
905.045200 0.9040 0.9030 0.9030 0.9010 0.9010
909.496246 0.9000 0.9000 0.8970 0.8970 0.8960
913.947292 0.8940 0.8930 0.8910 0.8900 0.8890
918.398338 0.8890 0.8890 0.8870 0.8860 0.8820
922.849384 0.8800 0.8760 0.8730 0.8710 0.8650
927.300430 0.8610 0.8550 0.8510 0.8260 0.8170
931.751476 0.8080 0.8000 0.7970 0.7930 0.7930
936.202522 0.8070 0.8140 0.8150 0.8190 0.8250
940.653568 0.8290 0.8330 0.8360 0.8400 0.8420
945.104614 0.8430 0.8470 0.8470 0.8460 0.8460
949.555660 0.8440 0.8430 0.8390 0.8280 0.8111
954.006706 0.7930 0.7890 0.7780 0.7740 0.7720
958.457752 0.7790 0.7920 0.8010 0.8169 0.8319
962.908798 0.8370 0.8400 0.8490 0.8500 0.8510
967.359844 0.8510 0.8510 0.8510 0.8510 0.8510
971.810890 0.8510 0.8510 0.8510 0.8510 0.8510
976.261936 0.8510 0.8510 0.8500 0.8490 0.8490
980.712982 0.8470 0.8460 0.8460 0.8440 0.8420
985.164028 0.8400 0.8400 0.8360 0.8350 0.8320
989.615074 0.8290 0.8260 0.8210 0.8130 0.8100
994.066120 0.8010 0.7950 0.7920 0.7711 0.7610
998.517166 0.7490 0.7350 0.7220 0.6350 0.6320
1002.968212 0.6320 0.6320 0.6340 0.6370 0.6420
1007.419258 0.6530 0.6600 0.6670 0.6680 0.6740
1011.870304 0.6840 0.6850 0.6850 0.6750 0.6680
1016.321350 0.6620 0.6560 0.6490 0.6420 0.6350
1020.772396 0.6320 0.6340 0.6480 0.6600 0.6730
1025.223442 0.6820 0.6910 0.6980 0.7060 0.7130
1029.674488 0.7210 0.7240 0.7280 0.7280 0.7280
1034.125534 0.7280 0.7280 0.7280 0.7280 0.7280
1038.576580 0.7280 0.7240 0.7041 0.6920 0.6741
1043.027626 0.6560 0.6410 0.6210 0.6010 0.5740
1047.478672 0.5650 0.5520 0.5380 0.5161 0.4941
1051.929718 0.4360 0.4120 0.3850 0.3570 0.3101
1056.380764 0.2860 0.2651 0.2391 0.2181 0.1772
1060.831810 0.1640 0.1530 0.1420 0.1140 0.1060
1065.282856 0.0960 0.0800 0.0541 0.0510 0.0490
1069.733902 0.0520 0.0660 0.0810 0.1120 0.1460
1074.184948 0.1620 0.1750 0.1770 0.1890 0.2000
1078.635994 0.2110 0.2240 0.2350 0.2700 0.2750
1083.087040 0.2810 0.2860 0.2920 0.2970 0.3030
1087.538086 0.3100 0.3150 0.3250 0.3240 0.2591
1091.989132 0.2320 0.2071 0.1861 0.1730 0.1371
1096.440178 0.1160 0.1060 0.0960 0.0770 0.0580
1100.891224 0.0370 0.0340 0.0340 0.0330 0.0310
1105.342270 0.0310 0.0300 0.0300 0.0300 0.0300
1109.793317 0.0300 0.0300 0.0400 0.0579 0.0650
1114.244363 0.0690 0.0770 0.0800 0.0840 0.0900
1118.695409 0.0940 0.0950 0.1020 0.1080 0.1170
1123.146455 0.1310 0.1490 0.1500 0.1520 0.1560
1127.597501 0.1560 0.1560 0.1550 0.1311 0.1280
1132.048547 0.1300 0.1380 0.1460 0.1680 0.1890
1136.499593 0.2030 0.2170 0.2310 0.2450 0.2609
1140.950639 0.2650 0.2700 0.2740 0.2970 0.3070
1145.401685 0.3419 0.3749 0.3760 0.4178 0.4588
1149.852731 0.5010 0.5270 0.5490 0.5540 0.5590
1154.303777 0.5630 0.5720 0.5720 0.5730 0.5730
1158.754823 0.5690 0.5600 0.5520 0.5480 0.5420
1163.205869 0.5290 0.5160 0.5130 0.5130 0.5130
1167.656915 0.5130 0.5130 0.5130 0.4790 0.4141
1172.107961 0.4110 0.4110 0.4110 0.4120 0.4180
1176.559007 0.4570 0.4800 0.5010 0.5550 0.5770
1181.010053 0.6379 0.6749 0.6910 0.7040 0.7199
1185.461099 0.7340 0.7430 0.7640 0.7670 0.7710
1189.912145 0.7750 0.7790 0.7830 0.7890 0.7920
1194.363191 0.7950 0.7990 0.8010 0.8040 0.8100
1198.814237 0.8150 0.8190 0.8210 0.8210 0.8210
1203.265283 0.8190 0.8190 0.8180 0.8190 0.8210
1207.716329 0.8210 0.8210 0.8210 0.8210 0.8190
1212.167375 0.8080 0.7990 0.7930 0.7860 0.7790
1216.618421 0.7720 0.7251 0.6821 0.6032 0.5582
1221.069467 0.5550 0.5560 0.5620 0.5670 0.5730
1225.520513 0.5840 0.6100 0.6369 0.6569 0.6680
1229.971559 0.6950 0.7160 0.7360 0.7490 0.7600
1234.422605 0.7650 0.7770 0.7890 0.7920 0.8030
1238.873651 0.8040 0.8060 0.8060 0.8070 0.8150
1243.324697 0.8180 0.8190 0.8210 0.8210 0.8190
1247.775743 0.8190 0.7950 0.7680 0.7380 0.7090
1252.226789 0.6801 0.6780 0.6800 0.6840 0.6890
1256.677835 0.6960 0.7020 0.7070 0.7100 0.7130
1261.128881 0.7160 0.7180 0.7210 0.7220 0.7270
1265.579927 0.7380 0.7390 0.7400 0.7420 0.7400
1270.030973 0.7420 0.7430 0.7470 0.7520 0.7540
1274.482019 0.7560 0.7590 0.7740 0.7780 0.7850
1278.933065 0.7900 0.7920 0.7930 0.7960 0.8000
1283.384111 0.8000 0.8030 0.8070 0.8130 0.8140
1287.835157 0.8150 0.8170 0.8180 0.8190 0.8190
1292.286203 0.8190 0.8180 0.8170 0.8170 0.8150
1296.737249 0.8140 0.8140 0.8130 0.8110 0.8110
1301.188295 0.8130 0.8140 0.8150 0.8170 0.8180
1305.639341 0.8170 0.8170 0.8150 0.8130 0.8100
1310.090387 0.8100 0.8030 0.7950 0.7900 0.7880
1314.541433 0.7850 0.7860 0.7880 0.7890 0.7900
1318.992479 0.7920 0.7930 0.7950 0.7950 0.7950
1323.443525 0.7960 0.7960 0.7930 0.7890 0.7780
1327.894571 0.7489 0.7030 0.6670 0.6620 0.6560
1332.345617 0.6520 0.6480 0.6480 0.6460 0.6450
1336.796663 0.6420 0.6410 0.6390 0.6380 0.6350
1341.247709 0.6340 0.6320 0.6310 0.6300 0.6230
1345.698755 0.6200 0.6160 0.6100 0.6010 0.5770
1350.149801 0.5630 0.5480 0.5260 0.4951 0.4661
1354.600847 0.4500 0.4360 0.4190 0.4140 0.4090
1359.051893 0.4050 0.3730 0.3470 0.3360 0.3260
1363.502939 0.3250 0.3240 0.3190 0.3240 0.3470
1367.953985 0.3710 0.4120 0.4360 0.4729 0.5667
1372.405031 0.5920 0.6080 0.6240 0.6440 0.6600
1376.856077 0.6810 0.6990 0.7249 0.7380 0.7699
1381.307123 0.7860 0.7960 0.7990 0.8030 0.8100
1385.758169 0.8110 0.8110 0.8110 0.8110 0.8110
1390.209215 0.8100 0.8080 0.8060 0.8010 0.7930
1394.660262 0.7810 0.7640 0.7570 0.7540 0.7470
1399.111308 0.7360 0.7250 0.6950 0.6630 0.6490
1403.562354 0.6140 0.5870 0.5551 0.5450 0.5360
1408.013400 0.5240 0.5130 0.5020 0.4940 0.4830
1412.464446 0.4750 0.4690 0.4750 0.4770 0.4870
1416.915492 0.4970 0.5060 0.5130 0.5120 0.5190
1421.366538 0.5520 0.5740 0.5940 0.6159 0.6439
1425.817584 0.6601 0.6890 0.7160 0.7390 0.7530
1430.268630 0.7830 0.7900 0.8259 0.8420 0.8540
1434.719676 0.8680 0.8720 0.8800 0.8830 0.8900
1439.170722 0.8930 0.9040 0.9080 0.9110 0.9120
1443.621768 0.9120 0.9140 0.9180 0.9210 0.9220
1448.072814 0.9250 0.9270 0.9290 0.9290 0.9320
1452.523860 0.9330 0.9360 0.9360 0.9370 0.9370
1456.974906 0.9370 0.9360 0.9360 0.9340 0.9340
1461.425952 0.9330 0.9320 0.9300 0.9270 0.9250
1465.876998 0.9220 0.9180 0.9140 0.9080 0.8910
1470.328044 0.8639 0.8390 0.8220 0.8180 0.8150
1474.779090 0.8140 0.8130 0.7401 0.7240 0.7070
1479.230136 0.6910 0.6730 0.6700 0.6710 0.6840
1483.681182 0.6950 0.7279 0.7420 0.7928 0.8219
1488.132228 0.8530 0.8800 0.8940 0.9070 0.9140
1492.583274 0.9330 0.9500 0.9540 0.9590 0.9620
1497.034320 0.9680 0.9750 0.9770 0.9790 0.9800
1501.485366 0.9810 0.9810 0.9840 0.9840 0.9860
1505.936412 0.9870 0.9870 0.9880 0.9880 0.9900
1510.387458 0.9900 0.9900 0.9910 0.9910 0.9910
1514.838504 0.9910 0.9910 0.9910 0.9910 0.9930
1519.289550 0.9930 0.9930 0.9930 0.9930 0.9930
1523.740596 0.9930 0.9930 0.9930 0.9930 0.9930
1528.191642 0.9930 0.9930 0.9930 0.9930 0.9930
1532.642688 0.9930 0.9930 0.9930 0.9930 0.9930
1537.093734 0.9930 0.9930 0.9930 0.9930 0.9930
1541.544780 0.9930 0.9930 0.9910 0.9910 0.9910
1545.995826 0.9910 0.9910 0.9910 0.9910 0.9910
1550.446872 0.9910 0.9910 0.9910 0.9910 0.9910
1554.897918 0.9910 0.9910 0.9910 0.9910 0.9910
1559.348964 0.9910 0.9910 0.9910 0.9900 0.9900
1563.800010 0.9900 0.9900 0.9900 0.9900 0.9900
1568.251056 0.9900 0.9900 0.9900 0.9900 0.9900
1572.702102 0.9900 0.9900 0.9900 0.9900 0.9900
1577.153148 0.9900 0.9900 0.9900 0.9900 0.9900
1581.604194 0.9900 0.9900 0.9900 0.9880 0.9880
1586.055240 0.9880 0.9880 0.9880 0.9880 0.9880
1590.506286 0.9880 0.9870 0.9870 0.9870 0.9870
1594.957332 0.9870 0.9870 0.9870 0.9870 0.9870
1599.408378 0.9870 0.9860 0.9860 0.9860 0.9860
1603.859424 0.9860 0.9860 0.9860 0.9840 0.9840
1608.310470 0.9840 0.9840 0.9840 0.9840 0.9840
1612.761516 0.9840 0.9840 0.9840 0.9840 0.9840
1617.212562 0.9840 0.9840 0.9840 0.9840 0.9840
1621.663608 0.9840 0.9840 0.9840 0.9840 0.9840
1626.114654 0.9840 0.9840 0.9830 0.9830 0.9830
1630.565700 0.9830 0.9810 0.9810 0.9810 0.9800
1635.016746 0.9810 0.9810 0.9810 0.9810 0.9810
1639.467792 0.9810 0.9810 0.9810 0.9810 0.9810
1643.918838 0.9810 0.9810 0.9810 0.9810 0.9810
1648.369884 0.9810 0.9810 0.9810 0.9810 0.9810
1652.820930 0.9810 0.9810 0.9810 0.9810 0.9810
1657.271976 0.9810 0.9810 0.9810 0.9810 0.9800
1661.723022 0.9800 0.9800 0.9790 0.9770 0.9770
1666.174068 0.9770 0.9770 0.9760 0.9760 0.9760
1670.625114 0.9750 0.9750 0.9750 0.9720 0.9700
1675.076161 0.9680 0.9660 0.9650 0.9650 0.9630
1679.527207 0.9620 0.9610 0.9590 0.9590 0.9580
1683.978253 0.9580 0.9580 0.9580 0.9580 0.9580
1688.429299 0.9590 0.9590 0.9590 0.9590 0.9590
1692.880345 0.9590 0.9590 0.9610 0.9610 0.9610
1697.331391 0.9620 0.9630 0.9650 0.9690 0.9750
1701.782437 0.9770 0.9790 0.9790 0.9800 0.9810
1706.233483 0.9830 0.9840 0.9840 0.9840 0.9840
1710.684529 0.9840 0.9840 0.9840 0.9840 0.9840
1715.135575 0.9860 0.9860 0.9860 0.9870 0.9880
1719.586621 0.9880 0.9900 0.9900 0.9910 0.9910
1724.037667 0.9910 0.9910 0.9910 0.9910 0.9910
1728.488713 0.9910 0.9910 0.9900 0.9880 0.9900
1732.939759 0.9900 0.9900 0.9900 0.9900 0.9900
1737.390805 0.9900 0.9900 0.9900 0.9900 0.9900
1741.841851 0.9900 0.9900 0.9900 0.9900 0.9900
1746.292897 0.9910 0.9910 0.9910 0.9900 0.9900
1750.743943 0.9910 0.9910 0.9910 0.9910 0.9910
1755.194989 0.9910 0.9910 0.9910 0.9910 0.9910
1759.646035 0.9910 0.9910 0.9910 0.9910 0.9910
1764.097081 0.9910 0.9910 0.9910 0.9910 0.9910
1768.548127 0.9910 0.9910 0.9910 0.9910 0.9910
1772.999173 0.9910 0.9900 0.9900 0.9900 0.9900
1777.450219 0.9880 0.9880 0.9880 0.9880 0.9880
1781.901265 0.9880 0.9880 0.9880 0.9880 0.9880
1786.352311 0.9880 0.9880 0.9870 0.9870 0.9860
1790.803357 0.9860 0.9840 0.9830 0.9830 0.9830
1795.254403 0.9830 0.9830 0.9830 0.9830 0.9830
1799.705449 0.9830 0.9830 0.9840 0.9840 0.9840
1804.156495 0.9840 0.9840 0.9840 0.9840 0.9840
1808.607541 0.9840 0.9840 0.9840 0.9840 0.9840
1813.058587 0.9840 0.9840 0.9840 0.9840 0.9840
1817.509633 0.9840 0.9840 0.9840 0.9840 0.9840
1821.960679 0.9840 0.9840 0.9840 0.9840 0.9840
1826.411725 0.9840 0.9840 0.9840 0.9840 0.9840
1830.862771 0.9840 0.9840 0.9840 0.9840 0.9840
1835.313817 0.9840 0.9840 0.9840 0.9840 0.9840
1839.764863 0.9840 0.9830 0.9830 0.9830 0.9830
1844.215909 0.9830 0.9830 0.9830 0.9830 0.9830
1848.666955 0.9830 0.9830 0.9830 0.9830 0.9830
1853.118001 0.9830 0.9830 0.9830 0.9830 0.9830
1857.569047 0.9810 0.9810 0.9810 0.9810 0.9800
1862.020093 0.9800 0.9800 0.9790 0.9790 0.9790
1866.471139 0.9790 0.9790 0.9790 0.9790 0.9790
1870.922185 0.9790 0.9790 0.9790 0.9790 0.9790
1875.373231 0.9790 0.9790 0.9790 0.9790 0.9790
1879.824277 0.9790 0.9790 0.9790 0.9790 0.9790
1884.275323 0.9790 0.9790 0.9790 0.9790 0.9790
1888.726369 0.9790 0.9790 0.9790 0.9790 0.9790
1893.177415 0.9790 0.9790 0.9790 0.9790 0.9790
1897.628461 0.9790 0.9790 0.9790 0.9790 0.9790
1902.079507 0.9770 0.9770 0.9770 0.9770 0.9760
1906.530553 0.9760 0.9760 0.9760 0.9760 0.9760
1910.981599 0.9760 0.9760 0.9760 0.9760 0.9760
1915.432645 0.9760 0.9760 0.9760 0.9760 0.9760
1919.883691 0.9760 0.9760 0.9760 0.9760 0.9760
1924.334737 0.9760 0.9760 0.9760 0.9760 0.9760
1928.785783 0.9760 0.9750 0.9750 0.9750 0.9750
1933.236829 0.9730 0.9730 0.9720 0.9720 0.9720
1937.687875 0.9720 0.9720 0.9720 0.9700 0.9700
1942.138921 0.9700 0.9700 0.9700 0.9690 0.9690
1946.589967 0.9690 0.9690 0.9680 0.9680 0.9680
1951.041013 0.9680 0.9680 0.9680 0.9680 0.9680
1955.492059 0.9680 0.9680 0.9680 0.9680 0.9680
1959.943106 0.9680 0.9680 0.9680 0.9680 0.9680
1964.394152 0.9680 0.9680 0.9680 0.9680 0.9680
1968.845198 0.9680 0.9680 0.9680 0.9680 0.9690
1973.296244 0.9690 0.9690 0.9690 0.9690 0.9690
1977.747290 0.9690 0.9690 0.9690 0.9690 0.9690
1982.198336 0.9690 0.9690 0.9690 0.9690 0.9690
1986.649382 0.9690 0.9690 0.9690 0.9690 0.9690
1991.100428 0.9690 0.9690 0.9690 0.9690 0.9680
1995.551474 0.9680 0.9680 0.9660 0.9650 0.9550
2000.002520 0.9550 0.9545 0.9540 0.9540 0.9540
2004.453566 0.9560 0.9581 0.9637 0.9691 0.9726
2008.904612 0.9760 0.9765 0.9771 0.9786 0.9800
2013.355658 0.9805 0.9810 0.9810 0.9810 0.9810
2017.806704 0.9810 0.9810 0.9810 0.9810 0.9810
2022.257750 0.9810 0.9810 0.9810 0.9810 0.9810
2026.708796 0.9810 0.9810 0.9810 0.9810 0.9810
2031.159842 0.9810 0.9810 0.9810 0.9810 0.9810
2035.610888 0.9810 0.9810 0.9810 0.9810 0.9810
2040.061934 0.9810 0.9810 0.9810 0.9810 0.9810
2044.512980 0.9809 0.9804 0.9800 0.9800 0.9799
2048.964026 0.9794 0.9788 0.9777 0.9770 0.9770
2053.415072 0.9767 0.9757 0.9750 0.9750 0.9747
2057.866118 0.9737 0.9730 0.9730 0.9728 0.9723
2062.317164 0.9720 0.9720 0.9717 0.9707 0.9700
2066.768210 0.9700 0.9698 0.9693 0.9690 0.9690
2071.219256 0.9688 0.9683 0.9676 0.9666 0.9654
2075.670302 0.9639 0.9628 0.9623 0.9614 0.9599
2080.121348 0.9586 0.9576 0.9570 0.9570 0.9566
2084.572394 0.9556 0.9548 0.9543 0.9536 0.9525
2089.023440 0.9520 0.9520 0.9520 0.9520 0.9518
2093.474486 0.9513 0.9508 0.9503 0.9493 0.9477
2097.925532 0.9462 0.9447 0.9437 0.9432 0.9422
2102.376578 0.9407 0.9397 0.9392 0.9385 0.9374
2106.827624 0.9362 0.9347 0.9340 0.9340 0.9337
2111.278670 0.9332 0.9330 0.9330 0.9330 0.9330
2115.729716 0.9330 0.9330 0.9330 0.9330 0.9330
2120.180762 0.9330 0.9330 0.9330 0.9330 0.9330
2124.631808 0.9330 0.9330 0.9330 0.9330 0.9330
2129.082854 0.9330 0.9330 0.9330 0.9330 0.9330
2133.533900 0.9330 0.9330 0.9330 0.9330 0.9330
2137.984946 0.9330 0.9330 0.9330 0.9330 0.9330
2142.435992 0.9330 0.9330 0.9330 0.9330 0.9330
2146.887038 0.9330 0.9330 0.9330 0.9330 0.9330
2151.338084 0.9330 0.9330 0.9330 0.9330 0.9330
2155.789130 0.9330 0.9326 0.9321 0.9320 0.9320
2160.240176 0.9320 0.9320 0.9320 0.9320 0.9320
2164.691222 0.9320 0.9307 0.9292 0.9277 0.9262
2169.142268 0.9247 0.9232 0.9230 0.9230 0.9230
2173.593314 0.9230 0.9230 0.9230 0.9230 0.9230
2178.044360 0.9225 0.9220 0.9215 0.9210 0.9210
2182.495406 0.9210 0.9210 0.9210 0.9210 0.9210
2186.946452 0.9210 0.9210 0.9210 0.9210 0.9210
2191.397498 0.9210 0.9210 0.9210 0.9200 0.9190
2195.848544 0.9190 0.9190 0.9185 0.9180 0.9170
2200.299590 0.9160 0.9150 0.9139 0.9129 0.9120
2204.750636 0.9115 0.9109 0.9099 0.9090 0.9090
2209.201682 0.9090 0.9090 0.9090 0.9090 0.9090
2213.652728 0.9090 0.9090 0.9090 0.9090 0.9090
2218.103774 0.9089 0.9084 0.9078 0.9063 0.9049
2222.554820 0.9044 0.9038 0.9023 0.9007 0.8992
2227.005866 0.8978 0.8968 0.8955 0.8930 0.8909
2231.456912 0.8904 0.8897 0.8882 0.8850 0.8759
2235.907958 0.8689 0.8684 0.8680 0.8680 0.8661
2240.359005 0.8586 0.8471 0.8241 0.7948 0.7481
2244.810051 0.6927 0.6134 0.5450 0.5049 0.4650
2249.261097 0.4253 0.3978 0.3973 0.3970 0.3970
2253.712143 0.3981 0.4017 0.4047 0.4067 0.4148
2258.163189 0.4349 0.4565 0.4811 0.5210 0.5888
2262.614235 0.6512 0.7044 0.7503 0.7838 0.8076
2267.065281 0.8166 0.8248 0.8319 0.8389 0.8459
2271.516327 0.8544 0.8649 0.8736 0.8796 0.8847
2275.967373 0.8887 0.8917 0.8932 0.8944 0.8955
2280.418419 0.8962 0.8967 0.8977 0.8992 0.9002
2284.869465 0.9007 0.9010 0.9010 0.9018 0.9033
2289.320511 0.9043 0.9048 0.9055 0.9065 0.9073
2293.771557 0.9078 0.9080 0.9080 0.9080 0.9080
2298.222603 0.9080 0.9080 0.9080 0.9080 0.9080
2302.673649 0.9080 0.9080 0.9080 0.9080 0.9080
2307.124695 0.9080 0.9080 0.9077 0.9072 0.9070
2311.575741 0.9070 0.9064 0.9054 0.9050 0.9050
2316.026787 0.9047 0.9042 0.9040 0.9040 0.9037
2320.477833 0.9032 0.9023 0.9013 0.9010 0.9010
2324.928879 0.9010 0.9010 0.9010 0.9010 0.9006
2329.379925 0.9001 0.9000 0.9000 0.9000 0.9000
2333.830971 0.9000 0.9000 0.8992 0.8982 0.8980
2338.282017 0.8980 0.8976 0.8971 0.8970 0.8970
2342.733063 0.8970 0.8970 0.8970 0.8970 0.8970
2347.184109 0.8970 0.8970 0.8970 0.8970 0.8970
2351.635155 0.8970 0.8970 0.8970 0.8970 0.8970
2356.086201 0.8970 0.8970 0.8970 0.8970 0.8970
2360.537247 0.8970 0.8970 0.8970 0.8970 0.8975
2364.988293 0.8980 0.8980 0.8980 0.8980 0.8980
2369.439339 0.8989 0.8999 0.8991 0.8980 0.8994
2373.890385 0.9009 0.9020 0.9030 0.9035 0.9040
2378.341431 0.9035 0.9030 0.9035 0.9040 0.9040
2382.792477 0.9040 0.9045 0.9050 0.9050 0.9050
2387.243523 0.9050 0.9050 0.9050 0.9050 0.9045
2391.694569 0.9040 0.9035 0.9030 0.9030 0.9030
2396.145615 0.9030 0.9029 0.9019 0.9010 0.9010
2400.596661 0.9010 0.9010 0.9010 0.9005 0.9000
2405.047707 0.9000 0.9000 0.9000 0.9000 0.9000
2409.498753 0.8999 0.8989 0.8980 0.8980 0.8980
2413.949799 0.8980 0.8979 0.8974 0.8970 0.8970
2418.400845 0.8969 0.8964 0.8960 0.8960 0.8960
2422.851891 0.8960 0.8958 0.8948 0.8939 0.8934
2427.302937 0.8928 0.8918 0.8910 0.8910 0.8910
2431.753983 0.8910 0.8910 0.8910 0.8910 0.8910
2436.205029 0.8910 0.8910 0.8913 0.8923 0.8930
2440.656075 0.8930 0.8935 0.8950 0.8963 0.8973
2445.107121 0.8980 0.8980 0.8983 0.8993 0.9000
2449.558167 0.9000 0.9000 0.9000 0.9002 0.9007
2454.009213 0.9010 0.9010 0.9010 0.9010 0.9010
2458.460259 0.9010 0.9008 0.9003 0.8996 0.8986
2462.911305 0.8980 0.8980 0.8980 0.8980 0.8978
2467.362351 0.8973 0.8968 0.8963 0.8960 0.8960
2471.813397 0.8955 0.8945 0.8940 0.8940 0.8940
2476.264443 0.8940 0.8940 0.8940 0.8940 0.8940
2480.715489 0.8937 0.8932 0.8930 0.8930 0.8930
2485.166535 0.8930 0.8930 0.8930 0.8930 0.8930
2489.617581 0.8930 0.8930 0.8930 0.8930 0.8930
2494.068627 0.8930 0.8930 0.8930 0.8933 0.8938
2498.519673 0.8940 0.8940 0.8940 0.8940 0.8940
2502.970719 0.8940 0.8940 0.8940 0.8940 0.8940
2507.421765 0.8940 0.8940 0.8940 0.8940 0.8940
2511.872811 0.8940 0.8940 0.8940 0.8940 0.8940
2516.323857 0.8940 0.8940 0.8940 0.8940 0.8940
2520.774903 0.8940 0.8940 0.8940 0.8940 0.8940
2525.225950 0.8940 0.8940 0.8940 0.8940 0.8940
2529.676996 0.8940 0.8940 0.8940 0.8940 0.8940
2534.128042 0.8940 0.8940 0.8940 0.8940 0.8940
2538.579088 0.8940 0.8940 0.8940 0.8940 0.8940
2543.030134 0.8936 0.8931 0.8930 0.8930 0.8930
2547.481180 0.8930 0.8921 0.8911 0.8910 0.8910
2551.932226 0.8910 0.8910 0.8910 0.8910 0.8910
2556.383272 0.8910 0.8910 0.8910 0.8910 0.8910
2560.834318 0.8910 0.8910 0.8905 0.8900 0.8900
2565.285364 0.8900 0.8900 0.8900 0.8900 0.8900
2569.736410 0.8895 0.8890 0.8890 0.8890 0.8890
2574.187456 0.8890 0.8880 0.8870 0.8880 0.8890
2578.638502 0.8890 0.8890 0.8890 0.8890 0.8890
2583.089548 0.8890 0.8890 0.8890 0.8890 0.8890
2587.540594 0.8890 0.8890 0.8890 0.8890 0.8890
2591.991640 0.8890 0.8890 0.8890 0.8890 0.8890
2596.442686 0.8890 0.8890 0.8890 0.8890 0.8890
2600.893732 0.8889 0.8879 0.8870 0.8870 0.8869
2605.344778 0.8864 0.8859 0.8854 0.8850 0.8850
2609.795824 0.8850 0.8850 0.8848 0.8838 0.8830
2614.246870 0.8830 0.8830 0.8830 0.8829 0.8824
2618.697916 0.8820 0.8820 0.8820 0.8820 0.8817
2623.148962 0.8807 0.8800 0.8800 0.8799 0.8794
2627.600008 0.8790 0.8790 0.8789 0.8784 0.8780
2632.051054 0.8780 0.8777 0.8767 0.8760 0.8760
2636.502100 0.8758 0.8753 0.8750 0.8750 0.8746
2640.953146 0.8736 0.8728 0.8723 0.8720 0.8720
2645.404192 0.8720 0.8720 0.8720 0.8720 0.8720
2649.855238 0.8720 0.8722 0.8727 0.8730 0.8730
2654.306284 0.8730 0.8730 0.8730 0.8730 0.8730
2658.757330 0.8730 0.8730 0.8730 0.8730 0.8730
2663.208376 0.8730 0.8730 0.8730 0.8730 0.8730
2667.659422 0.8730 0.8730 0.8730 0.8730 0.8730
2672.110468 0.8730 0.8730 0.8730 0.8730 0.8730
2676.561514 0.8730 0.8730 0.8730 0.8730 0.8730
2681.012560 0.8730 0.8730 0.8730 0.8730 0.8730
2685.463606 0.8730 0.8730 0.8730 0.8727 0.8722
2689.914652 0.8720 0.8720 0.8720 0.8720 0.8720
2694.365698 0.8720 0.8717 0.8712 0.8710 0.8710
2698.816744 0.8703 0.8693 0.8687 0.8682 0.8680
2703.267790 0.8680 0.8677 0.8672 0.8670 0.8670
2707.718836 0.8663 0.8653 0.8650 0.8650 0.8646
2712.169882 0.8641 0.8640 0.8640 0.8633 0.8623
2716.620928 0.8620 0.8620 0.8612 0.8602 0.8592
2721.071974 0.8582 0.8576 0.8571 0.8570 0.8570
2725.523020 0.8570 0.8570 0.8562 0.8552 0.8546
2729.974066 0.8541 0.8540 0.8540 0.8540 0.8540
2734.425112 0.8536 0.8531 0.8530 0.8530 0.8530
2738.876158 0.8530 0.8521 0.8511 0.8510 0.8510
2743.327204 0.8510 0.8510 0.8505 0.8500 0.8500
2747.778250 0.8500 0.8495 0.8490 0.8490 0.8490
2752.229296 0.8481 0.8471 0.8451 0.8431 0.8425
2756.680342 0.8420 0.8410 0.8400 0.8400 0.8400
2761.131388 0.8400 0.8400 0.8400 0.8400 0.8400
2765.582434 0.8400 0.8410 0.8420 0.8420 0.8420
2770.033480 0.8420 0.8420 0.8420 0.8420 0.8410
2774.484526 0.8400 0.8395 0.8389 0.8374 0.8360
2778.935572 0.8360 0.8359 0.8344 0.8330 0.8330
2783.386618 0.8329 0.8324 0.8319 0.8314 0.8309
2787.837664 0.8299 0.8289 0.8284 0.8279 0.8269
2792.288710 0.8259 0.8249 0.8239 0.8228 0.8219
2796.739756 0.8214 0.8208 0.8198 0.8189 0.8184
2801.190802 0.8177 0.8162 0.8148 0.8138 0.8125
2805.641849 0.8100 0.8079 0.8074 0.8069 0.8064
2810.092895 0.8060 0.8060 0.8060 0.8060 0.8056
2814.543941 0.8041 0.8026 0.8011 0.8000 0.8000
2818.994987 0.8000 0.8000 0.7999 0.7994 0.7987
2823.446033 0.7977 0.7970 0.7970 0.7970 0.7970
2827.897079 0.7968 0.7963 0.7958 0.7953 0.7950
2832.348125 0.7950 0.7950 0.7950 0.7946 0.7936
2836.799171 0.7930 0.7930 0.7922 0.7902 0.7888
2841.250217 0.7883 0.7870 0.7845 0.7818 0.7788
2845.701263 0.7766 0.7756 0.7741 0.7721 0.7697
2850.152309 0.7666 0.7638 0.7613 0.7584 0.7548
2854.603355 0.7516 0.7486 0.7460 0.7440 0.7386
2859.054401 0.7295 0.7205 0.7115 0.7060 0.7040
2863.505447 0.7020 0.7000 0.6946 0.6860 0.6780
2867.956493 0.6704 0.6573 0.6397 0.6255 0.6140
2872.407539 0.6022 0.5901 0.5807 0.5731 0.5659
2876.858585 0.5589 0.5474 0.5329 0.5183 0.5038
2881.309631 0.4956 0.4916 0.4836 0.4730 0.4630
2885.760677 0.4534 0.4435 0.4335 0.4264 0.4209
2890.211723 0.4187 0.4182 0.4170 0.4155 0.4147
2894.662769 0.4142 0.4140 0.4140 0.4143 0.4148
2899.113815 0.4468 0.4925 0.5067 0.5077 0.5149
2903.564861 0.5245 0.5414 0.5610 0.5731 0.5826
2908.015907 0.5918 0.6008 0.6038 0.6048 0.6035
2912.466953 0.6015 0.5987 0.5957 0.5923 0.5887
2916.917999 0.5852 0.5817 0.5778 0.5738 0.5677
2921.369045 0.5611 0.5562 0.5517 0.5438 0.5353
2925.820091 0.5264 0.5173 0.5117 0.5067 0.5012
2930.271137 0.4957 0.4911 0.4866 0.4820 0.4775
2934.722183 0.4766 0.4761 0.4764 0.4769 0.4779
2939.173229 0.4789 0.4795 0.4800 0.4805 0.4810
2943.624275 0.4867 0.4927 0.5087 0.5252 0.5380
2948.075321 0.5505 0.5635 0.5766 0.5799 0.5829
2952.526367 0.5864 0.5899 0.5925 0.5950 0.5965
2956.977413 0.5980 0.5995 0.6010 0.6015 0.6020
2961.428459 0.6025 0.6031 0.6046 0.6061 0.6076
2965.879505 0.6099 0.6259 0.6412 0.6447 0.6481
2970.330551 0.6501 0.6520 0.6520 0.6520 0.6520
2974.781597 0.6520 0.6520 0.6520 0.6520 0.6521
2979.232643 0.6526 0.6601 0.7138 0.7601 0.7606
2983.683689 0.7617 0.7668 0.7716 0.7756 0.7797
2988.134735 0.7842 0.7884 0.7909 0.7942 0.8007
2992.585781 0.8071 0.8126 0.8177 0.8213 0.8241
2997.036827 0.8246 0.8251 0.8256 0.8264 0.8279
3001.487873 0.8292 0.8302 0.8311 0.8316 0.8321
3005.938919 0.8326 0.8329 0.8324 0.8319 0.8314
3010.389965 0.8313 0.8323 0.8330 0.8330 0.8330
3014.841011 0.8330 0.8330 0.8330 0.8330 0.8330
3019.292057 0.8328 0.8323 0.8322 0.8327 0.8333
3023.743103 0.8344 0.8350 0.8350 0.8350 0.8350
3028.194149 0.8352 0.8357 0.8360 0.8360 0.8360
3032.645195 0.8360 0.8360 0.8360 0.8360 0.8360
3037.096241 0.8360 0.8360 0.8360 0.8360 0.8360
3041.547287 0.8360 0.8360 0.8360 0.8358 0.8353
3045.998333 0.8350 0.8350 0.8350 0.8350 0.8350
3050.449379 0.8350 0.8350 0.8350 0.8350 0.8350
3054.900425 0.8350 0.8350 0.8350 0.8350 0.8350
3059.351471 0.8350 0.8345 0.8335 0.8330 0.8330
3063.802517 0.8330 0.8330 0.8330 0.8330 0.8330
3068.253563 0.8330 0.8330 0.8330 0.8327 0.8322
3072.704609 0.8320 0.8320 0.8317 0.8312 0.8310
3077.155655 0.8310 0.8304 0.8294 0.8287 0.8282
3081.606701 0.8273 0.8263 0.8260 0.8260 0.8260
3086.057747 0.8260 0.8267 0.8277 0.8280 0.8280
3090.508794 0.8280 0.8280 0.8284 0.8289 0.8290
3094.959840 0.8290 0.8290 0.8290 0.8290 0.8290
3099.410886 0.8290 0.8290 0.8290 0.8290 0.8290
3103.861932 0.8290 0.8298 0.8308 0.8310 0.8310
3108.312978 0.8310 0.8310 0.8310 0.8310 0.8310
3112.764024 0.8310 0.8310 0.8310 0.8310 0.8310
3117.215070 0.8310 0.8310 0.8310 0.8310 0.8310
3121.666116 0.8310 0.8310 0.8310 0.8310 0.8310
3126.117162 0.8310 0.8310 0.8310 0.8310 0.8310
3130.568208 0.8310 0.8310 0.8310 0.8310 0.8310
3135.019254 0.8310 0.8310 0.8310 0.8310 0.8310
3139.470300 0.8310 0.8310 0.8310 0.8310 0.8310
3143.921346 0.8310 0.8310 0.8310 0.8310 0.8310
3148.372392 0.8310 0.8310 0.8310 0.8310 0.8310
3152.823438 0.8300 0.8290 0.8290 0.8290 0.8290
3157.274484 0.8290 0.8290 0.8290 0.8290 0.8290
3161.725530 0.8290 0.8290 0.8290 0.8290 0.8285
3166.176576 0.8280 0.8280 0.8279 0.8269 0.8260
3170.627622 0.8260 0.8259 0.8254 0.8250 0.8250
3175.078668 0.8249 0.8244 0.8240 0.8240 0.8238
3179.529714 0.8228 0.8220 0.8220 0.8219 0.8214
3183.980760 0.8210 0.8210 0.8208 0.8198 0.8189
3188.431806 0.8184 0.8177 0.8161 0.8150 0.8150
3192.882852 0.8150 0.8150 0.8150 0.8150 0.8150
3197.333898 0.8150 0.8150 0.8150 0.8153 0.8163
3201.784944 0.8170 0.8170 0.8167 0.8157 0.8150
3206.235990 0.8150 0.8150 0.8150 0.8150 0.8150
3210.687036 0.8150 0.8150 0.8150 0.8150 0.8150
3215.138082 0.8150 0.8150 0.8150 0.8150 0.8150
3219.589128 0.8150 0.8150 0.8150 0.8150 0.8148
3224.040174 0.8143 0.8140 0.8140 0.8138 0.8133
3228.491220 0.8126 0.8116 0.8110 0.8110 0.8110
3232.942266 0.8110 0.8108 0.8103 0.8100 0.8100
3237.393312 0.8095 0.8085 0.8080 0.8080 0.8077
3241.844358 0.8072 0.8067 0.8062 0.8055 0.8045
3246.295404 0.8037 0.8032 0.8019 0.7999 0.7990
3250.746450 0.7990 0.7982 0.7967 0.7960 0.7960
3255.197496 0.7957 0.7952 0.7950 0.7950 0.7950
3259.648542 0.7950 0.7950 0.7950 0.7950 0.7950
3264.099588 0.7950 0.7950 0.7953 0.7958 0.7960
3268.550634 0.7960 0.7960 0.7960 0.7960 0.7960
3273.001680 0.7960 0.7960 0.7960 0.7960 0.7960
3277.452726 0.7960 0.7960 0.7960 0.7960 0.7960
3281.903772 0.7960 0.7960 0.7960 0.7960 0.7960
3286.354818 0.7960 0.7960 0.7960 0.7960 0.7960
3290.805864 0.7960 0.7960 0.7960 0.7960 0.7956
3295.256910 0.7951 0.7950 0.7950 0.7950 0.7950
3299.707956 0.7950 0.7950 0.7942 0.7932 0.7930
3304.159002 0.7930 0.7930 0.7930 0.7930 0.7930
3308.610048 0.7926 0.7921 0.7920 0.7920 0.7920
3313.061094 0.7920 0.7911 0.7901 0.7900 0.7900
3317.512140 0.7900 0.7900 0.7895 0.7890 0.7890
3321.963186 0.7890 0.7885 0.7880 0.7880 0.7880
3326.414232 0.7880 0.7880 0.7870 0.7860 0.7860
3330.865278 0.7860 0.7855 0.7850 0.7840 0.7830
3335.316324 0.7830 0.7830 0.7830 0.7830 0.7825
3339.767370 0.7820 0.7820 0.7820 0.7820 0.7820
3344.218416 0.7815 0.7810 0.7800 0.7790 0.7790
3348.669462 0.7790 0.7790 0.7790 0.7785 0.7780
3353.120508 0.7780 0.7780 0.7775 0.7770 0.7770
3357.571554 0.7769 0.7759 0.7750 0.7750 0.7749
3362.022600 0.7744 0.7740 0.7740 0.7738 0.7728
3366.473646 0.7719 0.7714 0.7710 0.7710 0.7710
3370.924693 0.7710 0.7710 0.7710 0.7710 0.7710
3375.375739 0.7710 0.7710 0.7709 0.7704 0.7700
3379.826785 0.7700 0.7700 0.7700 0.7700 0.7700
3384.277831 0.7700 0.7700 0.7700 0.7700 0.7697
3388.728877 0.7687 0.7680 0.7680 0.7680 0.7680
3393.179923 0.7680 0.7680 0.7679 0.7673 0.7670
3397.630969 0.7670 0.7672 0.7677 0.7680 0.7680
3402.082015 0.7678 0.7673 0.7670 0.7670 0.7670
3406.533061 0.7670 0.7666 0.7656 0.7650 0.7650
3410.984107 0.7650 0.7650 0.7648 0.7643 0.7640
3415.435153 0.7640 0.7638 0.7633 0.7630 0.7630
3419.886199 0.7630 0.7630 0.7626 0.7615 0.7610
3424.337245 0.7610 0.7608 0.7603 0.7600 0.7600
3428.788291 0.7598 0.7593 0.7585 0.7575 0.7570
3433.239337 0.7570 0.7567 0.7562 0.7560 0.7560
3437.690383 0.7560 0.7560 0.7560 0.7560 0.7560
3442.141429 0.7560 0.7560 0.7560 0.7560 0.7560
3446.592475 0.7560 0.7560 0.7560 0.7560 0.7560
3451.043521 0.7560 0.7560 0.7560 0.7560 0.7560
3455.494567 0.7560 0.7560 0.7560 0.7560 0.7560
3459.945613 0.7560 0.7560 0.7560 0.7560 0.7560
3464.396659 0.7560 0.7560 0.7560 0.7560 0.7560
3468.847705 0.7560 0.7560 0.7560 0.7560 0.7560
3473.298751 0.7560 0.7560 0.7560 0.7560 0.7560
3477.749797 0.7560 0.7560 0.7560 0.7560 0.7560
3482.200843 0.7560 0.7560 0.7560 0.7560 0.7560
3486.651889 0.7560 0.7560 0.7560 0.7560 0.7560
3491.102935 0.7560 0.7560 0.7560 0.7560 0.7560
3495.553981 0.7560 0.7560 0.7560 0.7560 0.7560
3500.005027 0.7551 0.7541 0.7540 0.7540 0.7540
3504.456073 0.7540 0.7540 0.7540 0.7540 0.7540
3508.907119 0.7540 0.7540 0.7540 0.7540 0.7540
3513.358165 0.7540 0.7535 0.7530 0.7530 0.7530
3517.809211 0.7530 0.7530 0.7530 0.7530 0.7530
3522.260257 0.7530 0.7530 0.7530 0.7530 0.7530
3526.711303 0.7530 0.7530 0.7530 0.7530 0.7530
3531.162349 0.7530 0.7535 0.7540 0.7540 0.7540
3535.613395 0.7540 0.7540 0.7540 0.7540 0.7540
3540.064441 0.7540 0.7540 0.7540 0.7540 0.7540
3544.515487 0.7540 0.7540 0.7540 0.7540 0.7540
3548.966533 0.7540 0.7540 0.7539 0.7534 0.7530
3553.417579 0.7530 0.7530 0.7530 0.7529 0.7524
3557.868625 0.7520 0.7520 0.7520 0.7520 0.7520
3562.319671 0.7520 0.7518 0.7508 0.7500 0.7500
3566.770717 0.7500 0.7500 0.7500 0.7500 0.7499
3571.221763 0.7494 0.7490 0.7490 0.7488 0.7478
3575.672809 0.7470 0.7470 0.7470 0.7470 0.7470
3580.123855 0.7470 0.7470 0.7470 0.7473 0.7483
3584.574901 0.7490 0.7490 0.7492 0.7497 0.7498
3589.025947 0.7493 0.7490 0.7490 0.7495 0.7510
3593.476993 0.7520 0.7520 0.7522 0.7527 0.7528
3597.928039 0.7523 0.7520 0.7520 0.7522 0.7527
3602.379085 0.7530 0.7530 0.7530 0.7530 0.7530
3606.830131 0.7530 0.7532 0.7537 0.7540 0.7540
3611.281177 0.7540 0.7540 0.7540 0.7540 0.7545
3615.732223 0.7555 0.7560 0.7560 0.7560 0.7560
3620.183269 0.7560 0.7560 0.7560 0.7560 0.7560
3624.634315 0.7560 0.7560 0.7560 0.7560 0.7560
3629.085361 0.7560 0.7560 0.7560 0.7560 0.7560
3633.536407 0.7560 0.7560 0.7560 0.7560 0.7560
3637.987453 0.7560 0.7560 0.7560 0.7560 0.7560
3642.438499 0.7560 0.7560 0.7560 0.7563 0.7568
3646.889545 0.7570 0.7570 0.7570 0.7570 0.7570
3651.340591 0.7570 0.7570 0.7570 0.7570 0.7570
3655.791638 0.7570 0.7570 0.7570 0.7570 0.7570
3660.242684 0.7570 0.7577 0.7587 0.7590 0.7590
3664.693730 0.7590 0.7590 0.7594 0.7599 0.7604
3669.144776 0.7609 0.7610 0.7610 0.7618 0.7628
3673.595822 0.7630 0.7630 0.7630 0.7630 0.7630
3678.046868 0.7630 0.7630 0.7630 0.7630 0.7630
3682.497914 0.7630 0.7630 0.7622 0.7612 0.7610
3686.948960 0.7610 0.7610 0.7610 0.7610 0.7610
3691.400006 0.7610 0.7610 0.7610 0.7610 0.7610
3695.851052 0.7610 0.7610 0.7610 0.7610 0.7610
3700.302098 0.7610 0.7610 0.7610 0.7610 0.7610
3704.753144 0.7610 0.7610 0.7610 0.7605 0.7600
3709.204190 0.7605 0.7610 0.7610 0.7610 0.7610
3713.655236 0.7610 0.7610 0.7610 0.7610 0.7610
3718.106282 0.7610 0.7610 0.7610 0.7610 0.7610
3722.557328 0.7610 0.7610 0.7610 0.7605 0.7600
3727.008374 0.7600 0.7600 0.7600 0.7600 0.7595
3731.459420 0.7590 0.7590 0.7590 0.7590 0.7590
3735.910466 0.7590 0.7590 0.7590 0.7589 0.7579
3740.361512 0.7570 0.7570 0.7570 0.7570 0.7569
3744.812558 0.7564 0.7560 0.7560 0.7560 0.7560
3749.263604 0.7558 0.7548 0.7540 0.7540 0.7539
3753.714650 0.7534 0.7530 0.7530 0.7530 0.7530
3758.165696 0.7530 0.7530 0.7529 0.7524 0.7520
3762.616742 0.7520 0.7520 0.7520 0.7520 0.7520
3767.067788 0.7518 0.7507 0.7500 0.7500 0.7500
3771.518834 0.7500 0.7500 0.7500 0.7499 0.7494
3775.969880 0.7490 0.7490 0.7490 0.7490 0.7490
3780.420926 0.7490 0.7487 0.7477 0.7470 0.7470
3784.871972 0.7468 0.7463 0.7460 0.7460 0.7460
3789.323018 0.7460 0.7460 0.7460 0.7460 0.7460
3793.774064 0.7460 0.7460 0.7460 0.7460
##END=
