##TITLE=1-HYDROXY-2(1H)-PYRIDINETHIONE, COPPER SALT
##JCAMP-DX=4.24
##DATA TYPE=INFRARED SPECTRUM
##CLASS=COBLENTZ
##ORIGIN=WYANDOTTE CHEMICALS CORP., WYANDOTTE, MICHIGAN, USA
##OWNER=COBLENTZ SOCIETY
Collection (C) 2018 copyright by the U.S. Secretary of Commerce
on behalf of the United States of America. All rights reserved.
##DATE=Not specified, most likely prior to 1970
##MOLFORM=C10 H10 N2 O2 S2 Cu
##SOURCE REFERENCE=COBLENTZ NO. 3865
##$NIST ID=B6003865
##$NIST SOURCE=COBLENTZ
##$NIST IMAGE=cob3865
##SPECTROMETER/DATA SYSTEM=Not specified, most likely a prism, grating, or hybrid spectrometer.
##STATE=SOLID (MINERAL OIL MULL)
##PATH LENGTH=
$$SPECTRAL CONTAMINATION DUE TO OIL AROUND 2900 CM^-^1
##SAMPLING PROCEDURE=TRANSMISSION
##RESOLUTION=4
##DATA PROCESSING=DIGITIZED BY NIST FROM HARD COPY
##XUNITS=MICROMETERS
##YUNITS=TRANSMITTANCE
##XFACTOR=1.000000
##YFACTOR=1
##DELTAX=000.006211
##FIRSTX=2.012
##LASTX=16.0004
##FIRSTY=0.219
##MAXX=16.0004
##MINX=2.012
##MAXY=0.973
##MINY=0.024
##NPOINTS=2253
##XYDATA=(X++(Y..Y))
2.012000 0.2190 0.2220 0.2250 0.2250 0.2270
2.043070 0.2280 0.2300 0.2320 0.2350 0.2390
2.075000 0.2410 0.2460 0.2500 0.2530 0.2580
2.106070 0.2630 0.2660 0.2670 0.2690 0.2710
2.137000 0.2710 0.2740 0.2770 0.2780 0.2800
2.168070 0.2810 0.2850 0.2850 0.2880 0.2880
2.199000 0.2890 0.2890 0.2920 0.2920 0.2910
2.230070 0.2920 0.2920 0.2940 0.2950 0.2990
2.261000 0.3000 0.3000 0.3050 0.3090 0.3130
2.292070 0.3190 0.3200 0.3250 0.3300 0.3330
2.323000 0.3340 0.3360 0.3380 0.3410 0.3420
2.354070 0.3470 0.3480 0.3480 0.3500 0.3520
2.385000 0.3530 0.3560 0.3580 0.3590 0.3610
2.416070 0.3620 0.3640 0.3670 0.3690 0.3720
2.447000 0.3760 0.3780 0.3800 0.3830 0.3870
2.478070 0.3920 0.3950 0.3950 0.3970 0.3980
2.509000 0.4000 0.4000 0.4010 0.4040 0.4090
2.540070 0.4120 0.4170 0.4220 0.4260 0.4290
2.571000 0.4340 0.4360 0.4390 0.4420 0.4420
2.602070 0.4420 0.4430 0.4450 0.4480 0.4500
2.634000 0.4510 0.4530 0.4560 0.4610 0.4670
2.665070 0.4680 0.4700 0.4710 0.4730 0.4780
2.696000 0.4780 0.4790 0.4810 0.4810 0.4820
2.727070 0.4820 0.4840 0.4840 0.4850 0.4850
2.758000 0.4890 0.4900 0.4920 0.4930 0.4960
2.789070 0.5000 0.5010 0.5010 0.5030 0.5030
2.820000 0.5030 0.5010 0.5010 0.5010 0.5010
2.851070 0.5010 0.5030 0.5030 0.5030 0.5040
2.882000 0.5040 0.5040 0.5040 0.5070 0.5070
2.913070 0.5070 0.5090 0.5090 0.5090 0.5090
2.944000 0.5100 0.5100 0.5100 0.5120 0.5140
2.975070 0.5150 0.5170 0.5170 0.5180 0.5200
3.006000 0.5230 0.5260 0.5280 0.5290 0.5290
3.037070 0.5310 0.5320 0.5340 0.5370 0.5380
3.068000 0.5380 0.5420 0.5430 0.5450 0.5480
3.099070 0.5490 0.5490 0.5480 0.5460 0.5450
3.130000 0.5430 0.5420 0.5380 0.5350 0.5310
3.161070 0.5290 0.5280 0.5240 0.5200 0.5200
3.193000 0.5180 0.5200 0.5200 0.5170 0.5070
3.224070 0.4930 0.4710 0.4430 0.4040 0.3590
3.255000 0.2970 0.2910 0.2970 0.3480 0.4000
3.286070 0.4010 0.4010 0.3920 0.3830 0.3610
3.317000 0.3470 0.3140 0.2610 0.2040 0.1550
3.348070 0.1120 0.0700 0.0590 0.0400 0.0350
3.379000 0.0290 0.0260 0.0240 0.0240 0.0240
3.410070 0.0240 0.0240 0.0260 0.0260 0.0280
3.441000 0.0280 0.0280 0.0280 0.0290 0.0310
3.472070 0.0320 0.0320 0.0340 0.0350 0.0380
3.503000 0.0400 0.0450 0.0510 0.0680 0.0950
3.534070 0.1400 0.2020 0.2570 0.3300 0.3890
3.565000 0.4310 0.4710 0.4920 0.5170 0.5340
3.596070 0.5510 0.5710 0.5880 0.6040 0.6120
3.627000 0.6180 0.6190 0.6190 0.6210 0.6210
3.658070 0.6230 0.6230 0.6190 0.6180 0.6160
3.689000 0.6160 0.6190 0.6230 0.6270 0.6320
3.720070 0.6400 0.6410 0.6440 0.6470 0.6490
3.752000 0.6510 0.6540 0.6580 0.6630 0.6680
3.783070 0.6710 0.6720 0.6740 0.6760 0.6790
3.814000 0.6830 0.6860 0.6880 0.6900 0.6910
3.845070 0.6940 0.6990 0.7000 0.7000 0.7040
3.876000 0.7080 0.7110 0.7180 0.7240 0.7280
3.907070 0.7320 0.7360 0.7390 0.7420 0.7490
3.938000 0.7500 0.7520 0.7580 0.7600 0.7610
3.969070 0.7610 0.7610 0.7630 0.7660 0.7690
4.000000 0.7720 0.7770 0.7800 0.7810 0.7830
4.031070 0.7850 0.7880 0.7890 0.7910 0.7910
4.062000 0.7910 0.7910 0.7890 0.7890 0.7860
4.093070 0.7810 0.7800 0.7750 0.7710 0.7660
4.124000 0.7640 0.7640 0.7660 0.7690 0.7750
4.155070 0.7800 0.7810 0.7830 0.7850 0.7880
4.186000 0.7910 0.7940 0.7970 0.8000 0.8030
4.217070 0.8050 0.8080 0.8080 0.8050 0.7970
4.248000 0.7860 0.7770 0.7720 0.7710 0.7710
4.279070 0.7720 0.7770 0.7800 0.7810 0.7850
4.311000 0.7880 0.7910 0.7940 0.7990 0.8030
4.342070 0.8080 0.8110 0.8170 0.8220 0.8280
4.373000 0.8330 0.8380 0.8390 0.8390 0.8420
4.404070 0.8450 0.8480 0.8500 0.8500 0.8500
4.435000 0.8480 0.8470 0.8470 0.8500 0.8520
4.466070 0.8520 0.8530 0.8550 0.8550 0.8560
4.497000 0.8580 0.8580 0.8580 0.8580 0.8590
4.528070 0.8610 0.8640 0.8670 0.8720 0.8760
4.559000 0.8830 0.8860 0.8870 0.8890 0.8890
4.590070 0.8900 0.8900 0.8920 0.8950 0.8970
4.621000 0.9000 0.9030 0.9030 0.9030 0.9030
4.652070 0.9030 0.9030 0.9010 0.9000 0.8980
4.683000 0.8980 0.8970 0.8980 0.9000 0.9010
4.714070 0.9040 0.9090 0.9120 0.9170 0.9190
4.745000 0.9200 0.9220 0.9220 0.9230 0.9250
4.776070 0.9260 0.9280 0.9280 0.9280 0.9260
4.807000 0.9280 0.9280 0.9280 0.9280 0.9280
4.838070 0.9290 0.9290 0.9290 0.9290 0.9290
4.870000 0.9310 0.9330 0.9330 0.9330 0.9330
4.901070 0.9330 0.9330 0.9330 0.9330 0.9330
4.932000 0.9330 0.9330 0.9330 0.9330 0.9330
4.963070 0.9330 0.9330 0.9310 0.9310 0.9310
4.994000 0.9290 0.9310 0.9250 0.9190 0.9140
5.025070 0.9010 0.9000 0.9010 0.9060 0.9140
5.056000 0.9190 0.9230 0.9280 0.9330 0.9360
5.087070 0.9360 0.9370 0.9390 0.9390 0.9400
5.118000 0.9420 0.9430 0.9450 0.9500 0.9500
5.149070 0.9510 0.9530 0.9530 0.9530 0.9530
5.180000 0.9530 0.9510 0.9480 0.9420 0.9290
5.211070 0.9110 0.9000 0.9000 0.9000 0.9010
5.242000 0.9120 0.9140 0.9110 0.9030 0.8900
5.273070 0.8890 0.8920 0.9030 0.9120 0.9150
5.304000 0.9150 0.9110 0.9000 0.9000 0.9010
5.335070 0.9200 0.9290 0.9340 0.9390 0.9400
5.366000 0.9420 0.9420 0.9450 0.9500 0.9510
5.397070 0.9590 0.9610 0.9610 0.9590 0.9590
5.429000 0.9610 0.9620 0.9620 0.9610 0.9620
5.460070 0.9620 0.9640 0.9680 0.9700 0.9700
5.491000 0.9700 0.9680 0.9650 0.9610 0.9590
5.522070 0.9560 0.9510 0.9480 0.9470 0.9430
5.553000 0.9430 0.9400 0.9360 0.9220 0.9080
5.584070 0.9010 0.9010 0.9110 0.9170 0.9330
5.615000 0.9530 0.9620 0.9680 0.9710 0.9730
5.646070 0.9710 0.9700 0.9700 0.9680 0.9700
5.677000 0.9680 0.9680 0.9670 0.9650 0.9680
5.708070 0.9680 0.9680 0.9680 0.9680 0.9680
5.739000 0.9680 0.9680 0.9680 0.9680 0.9680
5.770070 0.9680 0.9680 0.9680 0.9680 0.9620
5.801000 0.9610 0.9480 0.9400 0.9370 0.9340
5.832070 0.9250 0.9170 0.9120 0.9110 0.9110
5.863000 0.9110 0.9150 0.9220 0.9290 0.9390
5.894070 0.9400 0.9400 0.9400 0.9390 0.9310
5.925000 0.9330 0.9330 0.9330 0.9330 0.9310
5.956070 0.9280 0.9250 0.9220 0.9220 0.9200
5.988000 0.9220 0.9190 0.9140 0.9110 0.9030
6.019070 0.8970 0.8980 0.8980 0.9030 0.9060
6.050000 0.9120 0.9150 0.9150 0.9150 0.9110
6.081070 0.9090 0.9060 0.9090 0.9090 0.9040
6.112000 0.8950 0.8860 0.8730 0.8620 0.8520
6.143070 0.8420 0.8360 0.8170 0.8000 0.7720
6.174000 0.7360 0.6800 0.6120 0.5660 0.5060
6.205070 0.4000 0.3980 0.4000 0.4710 0.5320
6.236000 0.6020 0.6860 0.7410 0.7770 0.8080
6.267070 0.8280 0.8390 0.8470 0.8550 0.8620
6.298000 0.8730 0.8860 0.9000 0.9000 0.9010
6.329070 0.9010 0.9000 0.8940 0.8780 0.8690
6.360000 0.8610 0.8520 0.8380 0.8160 0.7860
6.391070 0.7440 0.6430 0.5560 0.4450 0.3170
6.422000 0.2570 0.1600 0.1370 0.1370 0.1510
6.453070 0.2130 0.2770 0.3330 0.4560 0.5350
6.484000 0.6160 0.6770 0.7250 0.7580 0.7750
6.515070 0.7890 0.7970 0.8050 0.8170 0.8330
6.547000 0.8470 0.8530 0.8590 0.8610 0.8620
6.578070 0.8610 0.8590 0.8580 0.8580 0.8550
6.609000 0.8550 0.8530 0.8480 0.8390 0.8230
6.640070 0.8050 0.7860 0.7520 0.7180 0.6770
6.671000 0.6320 0.5990 0.5730 0.5730 0.5880
6.702070 0.5900 0.5900 0.5900 0.5850 0.5660
6.733000 0.5430 0.5070 0.4750 0.4310 0.3670
6.764070 0.2940 0.2140 0.1460 0.0960 0.0620
6.795000 0.0570 0.0320 0.0310 0.0320 0.0340
6.826070 0.0400 0.0430 0.0510 0.0650 0.0800
6.857000 0.0960 0.1070 0.1260 0.1470 0.1720
6.888070 0.2000 0.2280 0.2580 0.2850 0.3080
6.919000 0.3270 0.3470 0.3690 0.3860 0.4060
6.950070 0.4200 0.4290 0.4430 0.4540 0.4640
6.981000 0.4650 0.4640 0.4560 0.4290 0.4030
7.012070 0.3620 0.3140 0.2670 0.2110 0.1680
7.043000 0.1400 0.1400 0.1680 0.2320 0.3090
7.074070 0.3670 0.4470 0.4960 0.5400 0.5910
7.106000 0.6160 0.6440 0.6610 0.6790 0.6880
7.137070 0.7000 0.7080 0.7300 0.7320 0.7330
7.168000 0.7300 0.7070 0.6790 0.6430 0.6260
7.199070 0.5590 0.5100 0.4650 0.3920 0.3700
7.230000 0.3340 0.2920 0.2610 0.2440 0.2420
7.261070 0.2490 0.2720 0.3190 0.3560 0.3970
7.292000 0.4260 0.4470 0.4560 0.4670 0.4850
7.323070 0.5180 0.5540 0.6010 0.6370 0.6540
7.354000 0.6650 0.6760 0.6830 0.6900 0.6910
7.385070 0.6940 0.6970 0.7020 0.7110 0.7160
7.416000 0.7190 0.7210 0.7240 0.7270 0.7320
7.447070 0.7350 0.7390 0.7440 0.7520 0.7600
7.478000 0.7690 0.7720 0.7770 0.7800 0.7830
7.509070 0.7920 0.7990 0.8000 0.8020 0.8020
7.540000 0.8060 0.8130 0.8140 0.8080 0.8080
7.571070 0.8080 0.8090 0.8090 0.8090 0.8080
7.602000 0.8060 0.8030 0.8000 0.7940 0.7940
7.633070 0.7970 0.7990 0.8000 0.8030 0.8030
7.665000 0.8060 0.8110 0.8140 0.8160 0.8170
7.696070 0.8170 0.8160 0.8170 0.8170 0.8170
7.727000 0.8190 0.8190 0.8190 0.8190 0.8190
7.758070 0.8190 0.8190 0.8190 0.8190 0.8170
7.789000 0.8170 0.8170 0.8160 0.8110 0.8060
7.820070 0.8060 0.8000 0.7920 0.7750 0.7570
7.851000 0.7390 0.7220 0.7070 0.6820 0.6490
7.882070 0.6100 0.5490 0.5010 0.5010 0.5030
7.913000 0.5460 0.6070 0.6800 0.7300 0.7640
7.944070 0.7810 0.7920 0.8000 0.8030 0.8090
7.975000 0.8130 0.8140 0.8140 0.8140 0.8140
8.006070 0.8130 0.8080 0.8050 0.8020 0.7970
8.037000 0.7880 0.7720 0.7490 0.7270 0.6910
8.068070 0.6540 0.6010 0.5450 0.4870 0.4110
8.099000 0.3580 0.3110 0.3080 0.3130 0.3470
8.130070 0.4010 0.4470 0.4920 0.5260 0.5480
8.161000 0.5650 0.5660 0.5700 0.5630 0.5540
8.192070 0.5460 0.5400 0.5290 0.5280 0.5280
8.224000 0.5280 0.5280 0.5260 0.5260 0.5240
8.255070 0.5230 0.5230 0.5260 0.5260 0.5290
8.286000 0.5290 0.5290 0.5200 0.4810 0.4360
8.317070 0.3620 0.2810 0.2080 0.1410 0.0980
8.348000 0.0600 0.0480 0.0480 0.0510 0.0620
8.379070 0.0870 0.1380 0.1510 0.2770 0.3720
8.410000 0.4590 0.5370 0.5870 0.6120 0.6370
8.441070 0.6460 0.6510 0.6510 0.6510 0.6440
8.472000 0.6320 0.6130 0.5930 0.5520 0.5210
8.503070 0.4670 0.4080 0.3700 0.2950 0.2410
8.534000 0.1910 0.1440 0.1160 0.0980 0.0870
8.565070 0.0800 0.0770 0.0770 0.0800 0.0930
8.596000 0.1070 0.1270 0.1510 0.1710 0.1760
8.627070 0.1860 0.1910 0.1930 0.1940 0.1940
8.658000 0.1900 0.1580 0.1350 0.1050 0.0870
8.689070 0.0730 0.0710 0.0730 0.0850 0.0990
8.720000 0.1160 0.1470 0.1830 0.2220 0.2630
8.751070 0.3200 0.3560 0.3980 0.4290 0.4540
8.783000 0.4750 0.4920 0.5060 0.5180 0.5320
8.814070 0.5480 0.5570 0.5650 0.5700 0.5730
8.845000 0.5770 0.5820 0.5870 0.5900 0.5910
8.876070 0.5930 0.5910 0.5900 0.5880 0.5880
8.907000 0.5900 0.5900 0.5910 0.5930 0.5990
8.938070 0.6010 0.6020 0.6020 0.6040 0.6070
8.969000 0.6130 0.6160 0.6190 0.6230 0.6290
9.000070 0.6350 0.6440 0.6510 0.6570 0.6630
9.031000 0.6660 0.6690 0.6690 0.6710 0.6740
9.062070 0.6770 0.6850 0.6880 0.6880 0.6830
9.093000 0.6760 0.6650 0.6440 0.6120 0.5630
9.124070 0.4890 0.4030 0.3300 0.2440 0.1860
9.155000 0.1820 0.1970 0.2780 0.3560 0.4310
9.186070 0.5060 0.5420 0.5980 0.6440 0.6540
9.217000 0.6550 0.6580 0.6600 0.6630 0.6690
9.248070 0.6760 0.6860 0.7000 0.7080 0.7160
9.280000 0.7270 0.7350 0.7410 0.7420 0.7470
9.311070 0.7520 0.7570 0.7600 0.7610 0.7630
9.342000 0.7640 0.7640 0.7670 0.7710 0.7740
9.373070 0.7770 0.7780 0.7800 0.7850 0.7890
9.404000 0.7940 0.7950 0.7970 0.7990 0.7990
9.435070 0.8000 0.8030 0.8050 0.8080 0.8090
9.466000 0.8110 0.8130 0.8130 0.8130 0.8130
9.497070 0.8130 0.8140 0.8140 0.8110 0.8090
9.528000 0.8060 0.8030 0.8030 0.8000 0.7990
9.559070 0.7970 0.7990 0.7990 0.7970 0.7970
9.590000 0.7950 0.7910 0.7890 0.7810 0.7750
9.621070 0.7710 0.7660 0.7550 0.7420 0.7250
9.652000 0.7000 0.6760 0.6550 0.6400 0.6380
9.683070 0.6400 0.6490 0.6580 0.6820 0.7000
9.714000 0.7140 0.7270 0.7380 0.7460 0.7530
9.745070 0.7610 0.7670 0.7750 0.7810 0.7880
9.776000 0.7910 0.7970 0.7990 0.8050 0.8130
9.807070 0.8170 0.8200 0.8220 0.8230 0.8230
9.839000 0.8250 0.8280 0.8280 0.8300 0.8310
9.870070 0.8360 0.8380 0.8390 0.8410 0.8440
9.901000 0.8480 0.8500 0.8520 0.8530 0.8560
9.932070 0.8560 0.8610 0.8620 0.8620 0.8640
9.963000 0.8640 0.8660 0.8670 0.8690 0.8690
9.994070 0.8690 0.8700 0.8700 0.8690 0.8690
10.025000 0.8690 0.8690 0.8690 0.8700 0.8700
10.056070 0.8700 0.8700 0.8720 0.8720 0.8730
10.087000 0.8780 0.8780 0.8810 0.8810 0.8810
10.118070 0.8810 0.8800 0.8780 0.8780 0.8750
10.149000 0.8730 0.8720 0.8720 0.8720 0.8720
10.180070 0.8720 0.8720 0.8720 0.8720 0.8700
10.211000 0.8690 0.8690 0.8670 0.8670 0.8670
10.242070 0.8640 0.8610 0.8590 0.8580 0.8550
10.273000 0.8520 0.8520 0.8550 0.8550 0.8550
10.304070 0.8530 0.8520 0.8500 0.8470 0.8470
10.335000 0.8480 0.8500 0.8520 0.8550 0.8610
10.366070 0.8640 0.8690 0.8700 0.8720 0.8720
10.398000 0.8720 0.8730 0.8760 0.8780 0.8780
10.429070 0.8780 0.8780 0.8780 0.8780 0.8780
10.460000 0.8760 0.8750 0.8750 0.8750 0.8730
10.491070 0.8700 0.8660 0.8620 0.8580 0.8520
10.522000 0.8470 0.8420 0.8360 0.8200 0.7990
10.553070 0.7610 0.7140 0.6470 0.5910 0.5170
10.584000 0.4360 0.4010 0.4090 0.4260 0.5070
10.615070 0.5910 0.6470 0.7050 0.7530 0.7740
10.646000 0.8000 0.8190 0.8330 0.8420 0.8500
10.677070 0.8550 0.8590 0.8610 0.8620 0.8660
10.708000 0.8700 0.8730 0.8730 0.8750 0.8780
10.739070 0.8780 0.8800 0.8810 0.8830 0.8840
10.770000 0.8840 0.8840 0.8840 0.8860 0.8860
10.801070 0.8860 0.8860 0.8840 0.8840 0.8840
10.832000 0.8840 0.8840 0.8840 0.8840 0.8860
10.863070 0.8870 0.8870 0.8870 0.8890 0.8890
10.894000 0.8890 0.8900 0.8900 0.8920 0.8940
10.925070 0.8970 0.8980 0.9010 0.9090 0.9140
10.957000 0.9190 0.9220 0.9230 0.9250 0.9250
10.988070 0.9260 0.9280 0.9290 0.9310 0.9330
11.019000 0.9330 0.9340 0.9340 0.9360 0.9370
11.050070 0.9370 0.9390 0.9370 0.9390 0.9390
11.081000 0.9390 0.9400 0.9400 0.9420 0.9420
11.112070 0.9420 0.9430 0.9430 0.9430 0.9430
11.143000 0.9430 0.9430 0.9430 0.9430 0.9430
11.174070 0.9430 0.9430 0.9430 0.9430 0.9430
11.205000 0.9420 0.9400 0.9400 0.9400 0.9390
11.236070 0.9390 0.9390 0.9370 0.9370 0.9370
11.267000 0.9370 0.9370 0.9370 0.9370 0.9370
11.298070 0.9370 0.9370 0.9370 0.9390 0.9400
11.329000 0.9420 0.9420 0.9420 0.9420 0.9430
11.360070 0.9420 0.9430 0.9430 0.9450 0.9470
11.391000 0.9470 0.9480 0.9480 0.9500 0.9500
11.422070 0.9500 0.9500 0.9500 0.9500 0.9510
11.453000 0.9510 0.9510 0.9530 0.9530 0.9530
11.484070 0.9510 0.9530 0.9530 0.9530 0.9530
11.516000 0.9530 0.9540 0.9530 0.9530 0.9530
11.547070 0.9530 0.9530 0.9540 0.9540 0.9540
11.578000 0.9560 0.9570 0.9570 0.9570 0.9560
11.609070 0.9570 0.9570 0.9570 0.9570 0.9570
11.640000 0.9570 0.9570 0.9590 0.9590 0.9590
11.671070 0.9590 0.9570 0.9570 0.9560 0.9560
11.702000 0.9560 0.9530 0.9510 0.9500 0.9430
11.733070 0.9390 0.9340 0.9260 0.9190 0.9110
11.764000 0.8980 0.8860 0.8670 0.8470 0.8200
11.795070 0.8160 0.7850 0.7810 0.7850 0.7910
11.826000 0.8060 0.8250 0.8380 0.8470 0.8530
11.857070 0.8580 0.8590 0.8590 0.8590 0.8580
11.888000 0.8450 0.8330 0.8160 0.8050 0.7920
11.919070 0.7780 0.7610 0.7440 0.7240 0.7040
11.950000 0.6820 0.6570 0.6330 0.6100 0.5870
11.981070 0.5650 0.5400 0.5150 0.4900 0.4610
12.012000 0.4290 0.3900 0.3760 0.3550 0.3300
12.043070 0.3110 0.2970 0.2830 0.2710 0.2670
12.075000 0.2670 0.2710 0.2810 0.2970 0.3230
12.106070 0.3660 0.4060 0.4450 0.4920 0.5310
12.137000 0.5680 0.6040 0.6370 0.6660 0.6940
12.168070 0.7220 0.7470 0.7690 0.7910 0.8000
12.199000 0.8160 0.8300 0.8440 0.8530 0.8620
12.230070 0.8700 0.8810 0.8950 0.9010 0.9040
12.261000 0.9090 0.9110 0.9140 0.9170 0.9200
12.292070 0.9230 0.9280 0.9310 0.9360 0.9390
12.323000 0.9390 0.9420 0.9420 0.9430 0.9430
12.354070 0.9430 0.9420 0.9430 0.9430 0.9450
12.385000 0.9450 0.9470 0.9480 0.9480 0.9500
12.416070 0.9500 0.9500 0.9500 0.9500 0.9500
12.447000 0.9500 0.9500 0.9500 0.9500 0.9500
12.478070 0.9500 0.9500 0.9510 0.9510 0.9510
12.509000 0.9510 0.9510 0.9510 0.9510 0.9500
12.540070 0.9500 0.9500 0.9500 0.9500 0.9480
12.571000 0.9480 0.9470 0.9480 0.9470 0.9470
12.602070 0.9450 0.9450 0.9450 0.9430 0.9430
12.634000 0.9430 0.9430 0.9430 0.9430 0.9420
12.665070 0.9430 0.9430 0.9420 0.9420 0.9400
12.696000 0.9390 0.9390 0.9370 0.9370 0.9370
12.727070 0.9360 0.9360 0.9340 0.9340 0.9330
12.758000 0.9310 0.9330 0.9310 0.9310 0.9290
12.789070 0.9290 0.9280 0.9190 0.9140 0.9110
12.820000 0.9090 0.9090 0.9060 0.9010 0.9000
12.851070 0.8980 0.8950 0.8920 0.8870 0.8810
12.882000 0.8780 0.8720 0.8660 0.8610 0.8530
12.913070 0.8450 0.8390 0.8310 0.8220 0.8160
12.944000 0.8080 0.8000 0.7950 0.7850 0.7740
12.975070 0.7550 0.7470 0.7360 0.7240 0.7100
13.006000 0.6960 0.6800 0.6660 0.6510 0.6380
13.037070 0.6260 0.6150 0.6050 0.5950 0.5760
13.068000 0.5570 0.5450 0.5240 0.5010 0.4710
13.099070 0.4400 0.4060 0.3730 0.3410 0.3080
13.130000 0.2800 0.2490 0.2240 0.1910 0.1630
13.161070 0.1400 0.1130 0.1010 0.0840 0.0660
13.193000 0.0630 0.0560 0.0480 0.0420 0.0370
13.224070 0.0350 0.0340 0.0340 0.0350 0.0370
13.255000 0.0380 0.0370 0.0380 0.0380 0.0400
13.286070 0.0430 0.0490 0.0590 0.0730 0.0910
13.317000 0.1100 0.1400 0.1710 0.2070 0.2500
13.348070 0.2670 0.3160 0.3450 0.3800 0.4190
13.379000 0.4480 0.4750 0.4960 0.5200 0.5450
13.410070 0.5770 0.6040 0.6100 0.6270 0.6410
13.441000 0.6550 0.6690 0.6820 0.6940 0.7050
13.472070 0.7140 0.7240 0.7320 0.7380 0.7460
13.503000 0.7520 0.7580 0.7600 0.7660 0.7720
13.534070 0.7800 0.7830 0.7860 0.7880 0.7890
13.565000 0.7910 0.7940 0.7990 0.8020 0.8080
13.596070 0.8110 0.8110 0.8130 0.8140 0.8160
13.627000 0.8160 0.8170 0.8190 0.8200 0.8200
13.658070 0.8200 0.8220 0.8220 0.8220 0.8230
13.689000 0.8220 0.8230 0.8230 0.8230 0.8250
13.720070 0.8250 0.8250 0.8250 0.8250 0.8250
13.752000 0.8250 0.8250 0.8250 0.8230 0.8190
13.783070 0.8160 0.8130 0.8090 0.8050 0.8020
13.814000 0.8000 0.7970 0.7950 0.7940 0.7920
13.845070 0.7890 0.7890 0.7880 0.7850 0.7810
13.876000 0.7800 0.7780 0.7740 0.7720 0.7720
13.907070 0.7720 0.7720 0.7720 0.7720 0.7720
13.938000 0.7720 0.7720 0.7740 0.7740 0.7740
13.969070 0.7740 0.7720 0.7690 0.7670 0.7550
14.000000 0.7410 0.7270 0.7140 0.7020 0.6880
14.031070 0.6710 0.6510 0.6240 0.5900 0.5590
14.062000 0.5210 0.4950 0.4500 0.4110 0.3760
14.093070 0.3420 0.3080 0.2710 0.2410 0.2190
14.124000 0.2050 0.1940 0.1820 0.1790 0.1790
14.155070 0.1830 0.2000 0.2220 0.2500 0.2780
14.186000 0.3090 0.3270 0.3700 0.4200 0.4560
14.217070 0.4850 0.5100 0.5370 0.5650 0.5850
14.248000 0.6040 0.6190 0.6230 0.6260 0.6270
14.279070 0.6270 0.6240 0.6180 0.6130 0.6090
14.311000 0.6020 0.5930 0.5910 0.5910 0.5930
14.342070 0.6020 0.6150 0.6320 0.6520 0.6740
14.373000 0.6970 0.7190 0.7390 0.7570 0.7860
14.404070 0.8110 0.8380 0.8500 0.8590 0.8700
14.435000 0.8810 0.8890 0.8980 0.9060 0.9190
14.466070 0.9260 0.9310 0.9330 0.9340 0.9360
14.497000 0.9390 0.9390 0.9400 0.9400 0.9400
14.528070 0.9400 0.9420 0.9420 0.9420 0.9430
14.559000 0.9430 0.9420 0.9430 0.9450 0.9450
14.590070 0.9470 0.9470 0.9480 0.9480 0.9480
14.621000 0.9470 0.9470 0.9470 0.9470 0.9480
14.652070 0.9510 0.9510 0.9530 0.9530 0.9510
14.683000 0.9510 0.9510 0.9500 0.9500 0.9500
14.714070 0.9500 0.9500 0.9500 0.9480 0.9480
14.745000 0.9470 0.9480 0.9470 0.9450 0.9450
14.776070 0.9450 0.9420 0.9430 0.9430 0.9430
14.807000 0.9420 0.9400 0.9370 0.9390 0.9370
14.838070 0.9330 0.9310 0.9260 0.9280 0.9260
14.870000 0.9230 0.9220 0.9200 0.9200 0.9200
14.901070 0.9200 0.9200 0.9200 0.9190 0.9190
14.932000 0.9170 0.9170 0.9170 0.9150 0.9120
14.963070 0.9110 0.9040 0.8980 0.8940 0.8840
14.994000 0.8760 0.8690 0.8560 0.8470 0.8360
15.025070 0.8270 0.8160 0.8050 0.7970 0.7880
15.056000 0.7810 0.7750 0.7690 0.7630 0.7610
15.087070 0.7610 0.7660 0.7690 0.7720 0.7770
15.118000 0.7810 0.7860 0.7920 0.7970 0.8000
15.149070 0.8030 0.8050 0.8080 0.8130 0.8170
15.180000 0.8200 0.8230 0.8230 0.8250 0.8250
15.211070 0.8230 0.8230 0.8220 0.8220 0.8220
15.242000 0.8220 0.8230 0.8220 0.8220 0.8200
15.273070 0.8140 0.8130 0.8090 0.8090 0.8080
15.304000 0.8050 0.8020 0.8000 0.7950 0.7910
15.335070 0.7880 0.7860 0.7860 0.7880 0.7880
15.366000 0.7860 0.7810 0.7800 0.7780 0.7750
15.397070 0.7720 0.7690 0.7660 0.7630 0.7610
15.429000 0.7580 0.7570 0.7520 0.7490 0.7470
15.460070 0.7410 0.7380 0.7380 0.7320 0.7270
15.491000 0.7220 0.7190 0.7180 0.7130 0.7110
15.522070 0.7100 0.7100 0.7080 0.7080 0.7040
15.553000 0.7000 0.6970 0.6960 0.6910 0.6900
15.584070 0.6850 0.6830 0.6760 0.6690 0.6650
15.615000 0.6600 0.6580 0.6570 0.6570 0.6520
15.646070 0.6510 0.6470 0.6430 0.6350 0.6290
15.677000 0.6230 0.6210 0.6180 0.6160 0.6120
15.708070 0.6070 0.5990 0.5950 0.5900 0.5880
15.739000 0.5870 0.5820 0.5800 0.5770 0.5740
15.770070 0.5730 0.5730 0.5710 0.5680 0.5660
15.801000 0.5620 0.5560 0.5490 0.5460 0.5430
15.832070 0.5400 0.5380 0.5340 0.5310 0.5290
15.863000 0.5260 0.5210 0.5150 0.5100 0.5040
15.894070 0.5010 0.4980 0.4950 0.4870 0.4820
15.925000 0.4790 0.4750 0.4730 0.4710 0.4650
15.956070 0.4610 0.4560 0.4530 0.4510 0.4500
15.988000 0.4480 0.4450 0.4390
##END=
