##TITLE=DIFERROCENYL METHANOL
##JCAMP-DX=4.24
##DATA TYPE=INFRARED SPECTRUM
##CLASS=COBLENTZ
##ORIGIN=WYANDOTTE CHEMICALS CORP., WYANDOTTE, MICHIGAN, USA
##OWNER=COBLENTZ SOCIETY
Collection (C) 2018 copyright by the U.S. Secretary of Commerce
on behalf of the United States of America. All rights reserved.
##DATE=Not specified, most likely prior to 1970
##MOLFORM=C21 H20 Fe2 O
##SOURCE REFERENCE=COBLENTZ NO. 3013
##$NIST ID=B6003013
##$NIST SOURCE=COBLENTZ
##$NIST IMAGE=cob3013
##SPECTROMETER/DATA SYSTEM=Not specified, most likely a prism, grating, or hybrid spectrometer.
##STATE=SOLID (MINERAL OIL MULL)
##PATH LENGTH=
$$SPECTRAL CONTAMINATION DUE TO OIL AROUND 2900 CM^-^1
##SAMPLING PROCEDURE=TRANSMISSION
##RESOLUTION=4
##DATA PROCESSING=DIGITIZED BY NIST FROM HARD COPY
##XUNITS=MICROMETERS
##YUNITS=TRANSMITTANCE
##XFACTOR=1.000000
##YFACTOR=1
##DELTAX=000.006806
##FIRSTX=2.014
##LASTX=15.9864
##FIRSTY=0.122
##MAXX=15.9864
##MINX=2.014
##MAXY=0.959
##MINY=0.003
##NPOINTS=2054
##XYDATA=(X++(Y..Y))
2.014000 0.1220 0.1240 0.1260 0.1260 0.1260
2.048047 0.1260 0.1270 0.1270 0.1270 0.1270
2.082000 0.1270 0.1270 0.1270 0.1270 0.1270
2.116047 0.1270 0.1270 0.1260 0.1240 0.1220
2.150000 0.1220 0.1220 0.1220 0.1220 0.1220
2.184047 0.1240 0.1240 0.1240 0.1220 0.1220
2.218000 0.1210 0.1210 0.1190 0.1190 0.1170
2.252047 0.1160 0.1160 0.1170 0.1170 0.1170
2.286000 0.1170 0.1170 0.1190 0.1210 0.1210
2.320047 0.1220 0.1220 0.1210 0.1210 0.1170
2.354000 0.1160 0.1170 0.1210 0.1210 0.1220
2.388047 0.1220 0.1220 0.1220 0.1220 0.1220
2.422000 0.1240 0.1240 0.1240 0.1260 0.1260
2.456047 0.1270 0.1270 0.1260 0.1220 0.1210
2.490000 0.1120 0.1090 0.1050 0.1040 0.1040
2.524047 0.1050 0.1100 0.1140 0.1170 0.1190
2.558000 0.1220 0.1260 0.1270 0.1310 0.1340
2.592047 0.1360 0.1390 0.1430 0.1480 0.1480
2.626000 0.1500 0.1510 0.1530 0.1530 0.1550
2.660047 0.1550 0.1550 0.1550 0.1550 0.1550
2.694000 0.1550 0.1550 0.1550 0.1550 0.1550
2.728047 0.1530 0.1530 0.1530 0.1530 0.1530
2.762000 0.1510 0.1480 0.1480 0.1460 0.1410
2.796047 0.1380 0.1270 0.1160 0.1120 0.1050
2.830000 0.1000 0.0980 0.0930 0.0900 0.0870
2.864047 0.0830 0.0780 0.0730 0.0630 0.0490
2.898000 0.0370 0.0270 0.0220 0.0200 0.0200
2.932047 0.0200 0.0220 0.0250 0.0370 0.0420
2.966000 0.0470 0.0520 0.0580 0.0640 0.0750
3.000047 0.0810 0.0920 0.0980 0.1020 0.1040
3.035000 0.1070 0.1120 0.1140 0.1190 0.1240
3.069047 0.1290 0.1310 0.1330 0.1340 0.1360
3.103000 0.1380 0.1390 0.1410 0.1410 0.1410
3.137047 0.1410 0.1390 0.1390 0.1380 0.1360
3.171000 0.1360 0.1340 0.1290 0.1260 0.1120
3.205047 0.1100 0.1100 0.1090 0.1070 0.0920
3.239000 0.0880 0.0750 0.0560 0.0460 0.0320
3.273047 0.0300 0.0340 0.0420 0.0490 0.0540
3.307000 0.0590 0.0640 0.0640 0.0660 0.0660
3.341047 0.0640 0.0630 0.0560 0.0470 0.0370
3.375000 0.0290 0.0230 0.0200 0.0180 0.0180
3.409047 0.0130 0.0110 0.0110 0.0110 0.0110
3.443000 0.0110 0.0130 0.0170 0.0170 0.0170
3.477047 0.0170 0.0170 0.0150 0.0150 0.0150
3.511000 0.0150 0.0170 0.0180 0.0220 0.0250
3.545047 0.0340 0.0470 0.0590 0.0900 0.1140
3.579000 0.1510 0.1650 0.1740 0.1940 0.2210
3.613047 0.2440 0.2520 0.2590 0.2620 0.2670
3.647000 0.2670 0.2690 0.2690 0.2690 0.2670
3.681047 0.2670 0.2670 0.2660 0.2640 0.2640
3.715000 0.2640 0.2640 0.2640 0.2620 0.2610
3.749047 0.2610 0.2590 0.2570 0.2570 0.2570
3.783000 0.2570 0.2570 0.2590 0.2620 0.2640
3.817047 0.2660 0.2670 0.2690 0.2690 0.2710
3.851000 0.2730 0.2740 0.2740 0.2760 0.2760
3.885047 0.2780 0.2790 0.2830 0.2840 0.2880
3.919000 0.2900 0.2930 0.2960 0.3000 0.3020
3.953047 0.3020 0.3030 0.3050 0.3050 0.3080
3.987000 0.3080 0.3100 0.3100 0.3100 0.3100
4.021047 0.3100 0.3100 0.3120 0.3120 0.3130
4.055000 0.3130 0.3130 0.3150 0.3150 0.3150
4.089047 0.3150 0.3150 0.3150 0.3130 0.3130
4.123000 0.3100 0.3080 0.3080 0.3080 0.3080
4.157047 0.3100 0.3120 0.3130 0.3130 0.3150
4.192000 0.3150 0.3150 0.3150 0.3150 0.3150
4.226047 0.3150 0.3150 0.3150 0.3170 0.3170
4.260000 0.3170 0.3190 0.3190 0.3190 0.3190
4.294047 0.3190 0.3190 0.3190 0.3190 0.3190
4.328000 0.3200 0.3200 0.3200 0.3200 0.3200
4.362047 0.3200 0.3220 0.3220 0.3240 0.3250
4.396000 0.3270 0.3310 0.3340 0.3370 0.3410
4.430047 0.3490 0.3510 0.3530 0.3540 0.3560
4.464000 0.3580 0.3580 0.3580 0.3580 0.3580
4.498047 0.3580 0.3540 0.3510 0.3490 0.3460
4.532000 0.3410 0.3370 0.3320 0.3310 0.3290
4.566047 0.3250 0.3240 0.3240 0.3250 0.3310
4.600000 0.3360 0.3430 0.3480 0.3510 0.3530
4.634047 0.3540 0.3580 0.3600 0.3630 0.3650
4.668000 0.3650 0.3660 0.3680 0.3680 0.3680
4.702047 0.3700 0.3700 0.3730 0.3780 0.3820
4.736000 0.3870 0.3890 0.3920 0.3990 0.4010
4.770047 0.4020 0.4040 0.4090 0.4090 0.4110
4.804000 0.4110 0.4110 0.4110 0.4120 0.4120
4.838047 0.4140 0.4160 0.4180 0.4190 0.4210
4.872000 0.4210 0.4190 0.4190 0.4190 0.4190
4.906047 0.4190 0.4180 0.4140 0.4120 0.4110
4.940000 0.4090 0.4090 0.4090 0.4090 0.4110
4.974047 0.4110 0.4120 0.4120 0.4140 0.4160
5.008000 0.4190 0.4230 0.4260 0.4330 0.4350
5.042047 0.4360 0.4360 0.4360 0.4360 0.4360
5.076000 0.4380 0.4380 0.4400 0.4400 0.4410
5.110047 0.4430 0.4430 0.4450 0.4470 0.4470
5.144000 0.4480 0.4480 0.4500 0.4520 0.4520
5.178047 0.4520 0.4530 0.4530 0.4590 0.4590
5.212000 0.4550 0.4550 0.4550 0.4530 0.4530
5.246047 0.4570 0.4570 0.4590 0.4620 0.4640
5.281000 0.4690 0.4700 0.4740 0.4760 0.4770
5.315047 0.4770 0.4790 0.4790 0.4790 0.4790
5.349000 0.4810 0.4820 0.4820 0.4820 0.4820
5.383047 0.4820 0.4840 0.4840 0.4860 0.4880
5.417000 0.4890 0.4960 0.4980 0.4980 0.5000
5.451047 0.5000 0.5000 0.4980 0.4980 0.4980
5.485000 0.4980 0.5000 0.5010 0.5030 0.5060
5.519047 0.5060 0.5060 0.5050 0.5050 0.5060
5.553000 0.5060 0.5050 0.5050 0.5030 0.5010
5.587047 0.4940 0.4880 0.4700 0.4570 0.4470
5.621000 0.4410 0.4280 0.4160 0.4010 0.3830
5.655047 0.3650 0.3490 0.3320 0.3150 0.2980
5.689000 0.2860 0.2780 0.2730 0.2690 0.2690
5.723047 0.2740 0.2760 0.2780 0.2780 0.2790
5.757000 0.2790 0.2810 0.2810 0.2790 0.2790
5.791047 0.2780 0.2740 0.2640 0.2610 0.2590
5.825000 0.2550 0.2520 0.2490 0.2450 0.2380
5.859047 0.2330 0.2300 0.2280 0.2260 0.2230
5.893000 0.2210 0.2200 0.2180 0.2180 0.2180
5.927047 0.2180 0.2150 0.2130 0.2130 0.2130
5.961000 0.2130 0.2150 0.2160 0.2180 0.2180
5.995047 0.2180 0.2180 0.2160 0.2150 0.2130
6.029000 0.2110 0.2090 0.2040 0.2040 0.2030
6.063047 0.2030 0.2030 0.2030 0.2040 0.2060
6.097000 0.2080 0.2090 0.2130 0.2250 0.2320
6.131047 0.2490 0.2660 0.2790 0.3050 0.3310
6.165000 0.3510 0.3730 0.3940 0.4040 0.4160
6.199047 0.4360 0.4450 0.4520 0.4640 0.4720
6.233000 0.4820 0.4940 0.5010 0.5080 0.5130
6.267047 0.5200 0.5250 0.5320 0.5370 0.5390
6.301000 0.5400 0.5400 0.5420 0.5460 0.5490
6.335047 0.5510 0.5520 0.5590 0.5630 0.5640
6.369000 0.5660 0.5660 0.5660 0.5660 0.5680
6.403047 0.5680 0.5690 0.5710 0.5730 0.5760
6.438000 0.5760 0.5730 0.5710 0.5690 0.5660
6.472047 0.5630 0.5610 0.5630 0.5630 0.5680
6.506000 0.5680 0.5690 0.5710 0.5710 0.5710
6.540047 0.5690 0.5680 0.5680 0.5660 0.5680
6.574000 0.5680 0.5680 0.5680 0.5680 0.5640
6.608047 0.5630 0.5610 0.5590 0.5580 0.5560
6.642000 0.5510 0.5470 0.5370 0.5230 0.5050
6.676047 0.4840 0.4640 0.4470 0.4310 0.4210
6.710000 0.4110 0.4010 0.3900 0.3770 0.3610
6.744047 0.3370 0.3080 0.2880 0.2710 0.2590
6.778000 0.2470 0.2330 0.2130 0.1840 0.1450
6.812047 0.1330 0.1120 0.0980 0.0920 0.0780
6.846000 0.0730 0.0690 0.0680 0.0660 0.0660
6.880047 0.0660 0.0660 0.0680 0.0710 0.0760
6.914000 0.0920 0.1040 0.1220 0.1390 0.1550
6.948047 0.1720 0.1870 0.2030 0.2200 0.2350
6.982000 0.2490 0.2550 0.2760 0.2810 0.2790
7.016047 0.2780 0.2640 0.2500 0.2300 0.2060
7.050000 0.1890 0.1650 0.1390 0.1100 0.0900
7.084047 0.0660 0.0510 0.0340 0.0230 0.0180
7.118000 0.0150 0.0130 0.0130 0.0150 0.0180
7.152047 0.0200 0.0220 0.0230 0.0290 0.0320
7.186000 0.0370 0.0390 0.0400 0.0400 0.0390
7.220047 0.0370 0.0340 0.0320 0.0300 0.0270
7.254000 0.0250 0.0230 0.0220 0.0220 0.0220
7.288047 0.0220 0.0230 0.0270 0.0320 0.0390
7.322000 0.0460 0.0490 0.0560 0.0680 0.0780
7.356047 0.0920 0.1070 0.1260 0.1480 0.1680
7.390000 0.1890 0.2060 0.2200 0.2210 0.2230
7.424047 0.2250 0.2250 0.2280 0.2370 0.2490
7.458000 0.2660 0.2810 0.2960 0.3070 0.3290
7.492047 0.3370 0.3480 0.3610 0.3830 0.3890
7.526000 0.3890 0.3870 0.3830 0.3780 0.3650
7.560047 0.3480 0.3000 0.2550 0.2150 0.1920
7.595000 0.1650 0.1390 0.1360 0.1310 0.1310
7.629047 0.1410 0.1890 0.2090 0.2300 0.2470
7.663000 0.2570 0.2740 0.2810 0.2810 0.2740
7.697047 0.2610 0.2490 0.2470 0.2450 0.2470
7.731000 0.2610 0.2760 0.3030 0.3150 0.3270
7.765047 0.3310 0.3320 0.3320 0.3310 0.3130
7.799000 0.2660 0.2150 0.1870 0.1630 0.1500
7.833047 0.1390 0.1380 0.1450 0.1820 0.2110
7.867000 0.2470 0.2760 0.2980 0.3220 0.3510
7.901047 0.3650 0.3850 0.4020 0.4110 0.4140
7.935000 0.4140 0.4070 0.3950 0.3770 0.3580
7.969047 0.3390 0.3270 0.3250 0.3190 0.3080
8.003000 0.2950 0.2810 0.2730 0.2620 0.2550
8.037047 0.2470 0.2470 0.2500 0.2500 0.2570
8.071000 0.2590 0.2570 0.2450 0.2400 0.2350
8.105047 0.2300 0.2160 0.2110 0.2080 0.2060
8.139000 0.2060 0.2090 0.2110 0.2150 0.2200
8.173047 0.2230 0.2230 0.2250 0.2280 0.2320
8.207000 0.2350 0.2380 0.2420 0.2470 0.2500
8.241047 0.2590 0.2610 0.2610 0.2590 0.2590
8.275000 0.2520 0.2450 0.2350 0.2080 0.1910
8.309047 0.1650 0.1460 0.1360 0.1190 0.0980
8.343000 0.0830 0.0660 0.0510 0.0400 0.0300
8.377047 0.0270 0.0220 0.0200 0.0220 0.0290
8.411000 0.0320 0.0390 0.0490 0.0560 0.0640
8.445047 0.0810 0.0930 0.1090 0.1290 0.1530
8.479000 0.1750 0.2010 0.2200 0.2370 0.2540
8.513047 0.2670 0.2730 0.2760 0.2740 0.2620
8.547000 0.2500 0.2370 0.2230 0.2110 0.2010
8.581047 0.1990 0.1940 0.1920 0.1910 0.1890
8.615000 0.1890 0.1890 0.1890 0.1890 0.1890
8.649047 0.1890 0.1910 0.1960 0.1970 0.2060
8.684000 0.2160 0.2260 0.2370 0.2490 0.2640
8.718047 0.2790 0.2960 0.3150 0.3340 0.3560
8.752000 0.3820 0.4040 0.4240 0.4470 0.4650
8.786047 0.4840 0.5050 0.5230 0.5400 0.5490
8.820000 0.5610 0.5750 0.5870 0.5980 0.6100
8.854047 0.6210 0.6290 0.6340 0.6390 0.6480
8.888000 0.6530 0.6620 0.6740 0.6800 0.6860
8.922047 0.6890 0.6960 0.6970 0.7030 0.7110
8.956000 0.7200 0.7300 0.7380 0.7470 0.7540
8.990047 0.7570 0.7660 0.7710 0.7710 0.7670
9.024000 0.7440 0.7030 0.6460 0.5800 0.5080
9.058047 0.4330 0.3600 0.2930 0.2350 0.1910
9.092000 0.1630 0.1410 0.1360 0.1380 0.1390
9.126047 0.1510 0.1650 0.1890 0.2090 0.2440
9.160000 0.2860 0.3360 0.3850 0.4180 0.4500
9.194047 0.4840 0.5080 0.5270 0.5390 0.5520
9.228000 0.5640 0.5750 0.5850 0.5880 0.5930
9.262047 0.6000 0.6040 0.6160 0.6220 0.6290
9.296000 0.6360 0.6410 0.6500 0.6510 0.6560
9.330047 0.6620 0.6670 0.6700 0.6720 0.6750
9.364000 0.6750 0.6700 0.6620 0.6500 0.6390
9.398047 0.6070 0.5850 0.5660 0.5420 0.5230
9.432000 0.5050 0.4860 0.4640 0.4410 0.4180
9.466047 0.3890 0.3600 0.3240 0.2910 0.2620
9.500000 0.2370 0.2150 0.1960 0.1750 0.1580
9.534047 0.1390 0.1210 0.1020 0.0900 0.0750
9.568000 0.0610 0.0470 0.0390 0.0300 0.0250
9.602047 0.0220 0.0220 0.0230 0.0250 0.0270
9.636000 0.0290 0.0300 0.0300 0.0290 0.0230
9.670047 0.0220 0.0220 0.0230 0.0250 0.0270
9.704000 0.0300 0.0350 0.0390 0.0440 0.0440
9.738047 0.0460 0.0440 0.0370 0.0300 0.0250
9.772000 0.0200 0.0170 0.0150 0.0130 0.0130
9.806047 0.0150 0.0180 0.0180 0.0220 0.0230
9.841000 0.0290 0.0370 0.0470 0.0590 0.0690
9.875047 0.0830 0.0950 0.1000 0.1070 0.1070
9.909000 0.1000 0.0880 0.0810 0.0730 0.0580
9.943047 0.0470 0.0370 0.0200 0.0170 0.0170
9.977000 0.0150 0.0130 0.0130 0.0130 0.0110
10.011047 0.0110 0.0100 0.0100 0.0100 0.0100
10.045000 0.0100 0.0100 0.0100 0.0100 0.0100
10.079047 0.0100 0.0080 0.0100 0.0100 0.0100
10.113000 0.0110 0.0110 0.0110 0.0110 0.0110
10.147047 0.0130 0.0130 0.0130 0.0150 0.0150
10.181000 0.0150 0.0170 0.0170 0.0170 0.0170
10.215047 0.0180 0.0180 0.0180 0.0230 0.0250
10.249000 0.0290 0.0350 0.0390 0.0420 0.0470
10.283047 0.0520 0.0590 0.0640 0.0780 0.0870
10.317000 0.0950 0.1050 0.1210 0.1430 0.1600
10.351047 0.1800 0.2040 0.2250 0.2450 0.2590
10.385000 0.2780 0.2950 0.3150 0.3390 0.3510
10.419047 0.3720 0.3870 0.4010 0.4120 0.4260
10.453000 0.4400 0.4530 0.4690 0.4820 0.4960
10.487047 0.5050 0.5150 0.5290 0.5390 0.5490
10.521000 0.5560 0.5640 0.5750 0.5780 0.5810
10.555047 0.5870 0.5920 0.5980 0.6040 0.6090
10.589000 0.6160 0.6220 0.6290 0.6310 0.6330
10.623047 0.6380 0.6430 0.6500 0.6530 0.6550
10.657000 0.6560 0.6580 0.6580 0.6560 0.6550
10.691047 0.6500 0.6390 0.6220 0.6050 0.5870
10.725000 0.5690 0.5440 0.5200 0.4940 0.4720
10.759047 0.4480 0.4230 0.3990 0.3720 0.3430
10.793000 0.3250 0.2980 0.2910 0.2910 0.2930
10.827047 0.3000 0.3130 0.3340 0.3650 0.3940
10.861000 0.4350 0.4650 0.4940 0.5250 0.5520
10.895047 0.5780 0.5970 0.6140 0.6270 0.6340
10.930000 0.6390 0.6390 0.6360 0.6310 0.6140
10.964047 0.5920 0.5680 0.5420 0.5110 0.4770
10.998000 0.4360 0.3920 0.3390 0.2780 0.2500
11.032047 0.2130 0.1910 0.1600 0.1430 0.1290
11.066000 0.1160 0.1120 0.1100 0.1160 0.1340
11.100047 0.1460 0.1620 0.1920 0.2210 0.2610
11.134000 0.2980 0.3310 0.3650 0.3970 0.4260
11.168047 0.4520 0.4770 0.5010 0.5220 0.5420
11.202000 0.5630 0.5800 0.5900 0.6000 0.6040
11.236047 0.6090 0.6120 0.6160 0.6190 0.6210
11.270000 0.6210 0.6220 0.6220 0.6170 0.6160
11.304047 0.6140 0.6120 0.6090 0.6070 0.6070
11.338000 0.6090 0.6120 0.6170 0.6240 0.6340
11.372047 0.6410 0.6530 0.6650 0.6740 0.6890
11.406000 0.6970 0.7030 0.7130 0.7210 0.7280
11.440047 0.7330 0.7380 0.7400 0.7380 0.7380
11.474000 0.7350 0.7280 0.7180 0.6970 0.6820
11.508047 0.6600 0.6310 0.5970 0.5630 0.5300
11.542000 0.4960 0.4650 0.4400 0.4180 0.4010
11.576047 0.3830 0.3680 0.3600 0.3560 0.3490
11.610000 0.3480 0.3480 0.3460 0.3410 0.3360
11.644047 0.3290 0.3250 0.3170 0.3080 0.3070
11.678000 0.3100 0.3190 0.3320 0.3510 0.3730
11.712047 0.3950 0.4190 0.4410 0.4600 0.4720
11.746000 0.4790 0.4820 0.4820 0.4770 0.4550
11.780047 0.4410 0.4160 0.3870 0.3560 0.3290
11.814000 0.3050 0.2910 0.2710 0.2610 0.2500
11.848047 0.2490 0.2490 0.2490 0.2490 0.2490
11.882000 0.2450 0.2400 0.2320 0.2230 0.2110
11.916047 0.2010 0.1970 0.1890 0.1860 0.1770
11.950000 0.1720 0.1670 0.1630 0.1620 0.1510
11.984047 0.1460 0.1360 0.1220 0.1070 0.0930
12.018000 0.0870 0.0750 0.0580 0.0470 0.0340
12.052047 0.0250 0.0200 0.0180 0.0170 0.0150
12.087000 0.0130 0.0110 0.0100 0.0100 0.0100
12.121047 0.0080 0.0080 0.0080 0.0080 0.0080
12.155000 0.0080 0.0080 0.0100 0.0100 0.0100
12.189047 0.0100 0.0100 0.0100 0.0080 0.0080
12.223000 0.0100 0.0100 0.0080 0.0080 0.0080
12.257047 0.0080 0.0060 0.0060 0.0080 0.0080
12.291000 0.0080 0.0060 0.0060 0.0060 0.0060
12.325047 0.0060 0.0060 0.0060 0.0060 0.0060
12.359000 0.0060 0.0060 0.0060 0.0060 0.0060
12.393047 0.0060 0.0060 0.0030 0.0030 0.0030
12.427000 0.0030 0.0060 0.0060 0.0100 0.0100
12.461047 0.0080 0.0080 0.0080 0.0060 0.0080
12.495000 0.0080 0.0100 0.0100 0.0100 0.0100
12.529047 0.0100 0.0100 0.0100 0.0110 0.0110
12.563000 0.0110 0.0110 0.0150 0.0170 0.0180
12.597047 0.0200 0.0230 0.0320 0.0420 0.0520
12.631000 0.0630 0.0750 0.0870 0.0970 0.1090
12.665047 0.1170 0.1310 0.1410 0.1530 0.1670
12.699000 0.1720 0.1790 0.1800 0.1890 0.1960
12.733047 0.1990 0.2030 0.2030 0.2010 0.2010
12.767000 0.1990 0.1970 0.1890 0.1840 0.1800
12.801047 0.1770 0.1770 0.1790 0.1790 0.1820
12.835000 0.1790 0.1770 0.1750 0.1740 0.1740
12.869047 0.1740 0.1740 0.1720 0.1700 0.1720
12.903000 0.1720 0.1750 0.1800 0.1890 0.1970
12.937047 0.2030 0.2200 0.2300 0.2440 0.2540
12.971000 0.2690 0.2830 0.2980 0.3130 0.3240
13.005047 0.3370 0.3510 0.3610 0.3720 0.3770
13.039000 0.3870 0.3950 0.4010 0.4120 0.4180
13.073047 0.4230 0.4300 0.4360 0.4410 0.4450
13.107000 0.4520 0.4590 0.4640 0.4720 0.4770
13.141047 0.4820 0.4880 0.4890 0.4940 0.4960
13.175000 0.4960 0.4980 0.4980 0.5000 0.5000
13.209047 0.5000 0.4980 0.4940 0.4880 0.4760
13.244000 0.4670 0.4590 0.4470 0.4350 0.4210
13.278047 0.4070 0.3890 0.3680 0.3490 0.3340
13.312000 0.3120 0.2960 0.2790 0.2620 0.2380
13.346047 0.2160 0.1960 0.1770 0.1600 0.1500
13.380000 0.1330 0.1220 0.1100 0.1000 0.0980
13.414047 0.0980 0.1000 0.1040 0.1100 0.1210
13.448000 0.1270 0.1380 0.1480 0.1580 0.1680
13.482047 0.1770 0.1860 0.1920 0.1990 0.2010
13.516000 0.2040 0.2080 0.2080 0.2080 0.2080
13.550047 0.2030 0.1960 0.1860 0.1750 0.1700
13.584000 0.1600 0.1530 0.1460 0.1380 0.1310
13.618047 0.1260 0.1190 0.1160 0.1120 0.1100
13.652000 0.1100 0.1140 0.1190 0.1210 0.1270
13.686047 0.1310 0.1360 0.1430 0.1500 0.1550
13.720000 0.1580 0.1650 0.1680 0.1700 0.1770
13.754047 0.1790 0.1860 0.1890 0.1970 0.2010
13.788000 0.2090 0.2210 0.2300 0.2440 0.2540
13.822047 0.2670 0.2830 0.2980 0.3130 0.3320
13.856000 0.3510 0.3730 0.3940 0.4180 0.4410
13.890047 0.4600 0.4840 0.5030 0.5230 0.5400
13.924000 0.5510 0.5660 0.5760 0.5930 0.6020
13.958047 0.6170 0.6270 0.6360 0.6460 0.6560
13.992000 0.6740 0.6960 0.7080 0.7160 0.7280
14.026047 0.7380 0.7520 0.7640 0.7740 0.7810
14.060000 0.7880 0.8000 0.8020 0.8120 0.8220
14.094047 0.8310 0.8430 0.8510 0.8580 0.8650
14.128000 0.8700 0.8780 0.8820 0.8850 0.8870
14.162047 0.8950 0.9010 0.9040 0.9090 0.9120
14.196000 0.9180 0.9240 0.9280 0.9300 0.9330
14.230047 0.9330 0.9350 0.9360 0.9400 0.9430
14.264000 0.9480 0.9500 0.9520 0.9530 0.9550
14.298047 0.9570 0.9570 0.9570 0.9590 0.9570
14.333000 0.9570 0.9570 0.9550 0.9550 0.9530
14.367047 0.9500 0.9480 0.9400 0.9360 0.9300
14.401000 0.9190 0.9110 0.9020 0.8990 0.8890
14.435047 0.8750 0.8630 0.8480 0.8320 0.8150
14.469000 0.8020 0.7960 0.7810 0.7690 0.7570
14.503047 0.7470 0.7400 0.7350 0.7300 0.7280
14.537000 0.7280 0.7280 0.7320 0.7380 0.7490
14.571047 0.7590 0.7730 0.7830 0.7950 0.8000
14.605000 0.8100 0.8170 0.8250 0.8390 0.8480
14.639047 0.8560 0.8630 0.8660 0.8720 0.8770
14.673000 0.8830 0.8890 0.8950 0.8950 0.8990
14.707047 0.8990 0.8970 0.8970 0.8990 0.8990
14.741000 0.8990 0.8990 0.8970 0.8970 0.8970
14.775047 0.8970 0.8970 0.8950 0.8970 0.8970
14.809000 0.8970 0.8950 0.8900 0.8890 0.8850
14.843047 0.8830 0.8820 0.8770 0.8750 0.8730
14.877000 0.8730 0.8720 0.8700 0.8680 0.8630
14.911047 0.8580 0.8540 0.8490 0.8480 0.8430
14.945000 0.8370 0.8310 0.8270 0.8200 0.8150
14.979047 0.8070 0.7960 0.7840 0.7730 0.7590
15.013000 0.7440 0.7300 0.7160 0.7010 0.6860
15.047047 0.6650 0.6450 0.6260 0.6040 0.5880
15.081000 0.5690 0.5560 0.5400 0.5270 0.5180
15.115047 0.5080 0.5060 0.5050 0.5000 0.5000
15.149000 0.5000 0.5010 0.5060 0.5130 0.5220
15.183047 0.5300 0.5390 0.5460 0.5590 0.5680
15.217000 0.5730 0.5830 0.5920 0.5980 0.6020
15.251047 0.6090 0.6160 0.6190 0.6260 0.6270
15.285000 0.6310 0.6340 0.6360 0.6390 0.6410
15.319047 0.6410 0.6460 0.6460 0.6430 0.6430
15.353000 0.6430 0.6430 0.6450 0.6460 0.6460
15.387047 0.6460 0.6460 0.6460 0.6460 0.6450
15.421000 0.6450 0.6450 0.6430 0.6410 0.6410
15.455047 0.6390 0.6390 0.6360 0.6310 0.6290
15.490000 0.6270 0.6260 0.6260 0.6240 0.6190
15.524047 0.6140 0.6140 0.6100 0.6050 0.6050
15.558000 0.6020 0.6020 0.6020 0.6020 0.6020
15.592047 0.6000 0.5970 0.5950 0.5930 0.5900
15.626000 0.5880 0.5830 0.5800 0.5800 0.5780
15.660047 0.5760 0.5750 0.5710 0.5690 0.5660
15.694000 0.5630 0.5590 0.5560 0.5520 0.5510
15.728047 0.5470 0.5460 0.5400 0.5370 0.5340
15.762000 0.5320 0.5300 0.5250 0.5220 0.5200
15.796047 0.5150 0.5110 0.5060 0.5030 0.5000
15.830000 0.4940 0.4910 0.4860 0.4820 0.4810
15.864047 0.4760 0.4720 0.4670 0.4620 0.4590
15.898000 0.4530 0.4520 0.4480 0.4470 0.4430
15.932047 0.4360 0.4330 0.4330 0.4310 0.4300
15.966000 0.4260 0.4240 0.4230 0.4190
##END=
