##TITLE=1,2-Propanediamine dihydrochloride
##JCAMP-DX=4.24
##DATA TYPE=INFRARED SPECTRUM
##CLASS=COBLENTZ III
##ORIGIN=BRITISH PETROLEUM CO. LTD., ENGLAND
##OWNER=Copyright (C) 1987 by the Coblentz Society
Collection (C) 2018 copyright by the U.S. Secretary of Commerce
on behalf of the United States of America. All rights reserved.
##DATE=1972/08/02
##MOLFORM=C3 H12 Cl2 N2
##SOURCE REFERENCE=COBLENTZ NO. 9404
##$NIST ID=B6009404
##$NIST SOURCE=COBLENTZ
##$NIST IMAGE=cob9404
##SPECTROMETER/DATA SYSTEM=PERKIN-ELMER 157
##STATE=SOLID (KBr DISC, 0.9% WT.)
$$ HCl RUN IN KBr MAY CONTAIN SOME HBr
$$ REF. Can. J. Spec., 18,4,101, '73 C. S. DOUSE and P. B. TOOKE
##SAMPLING PROCEDURE=TRANSMISSION
##RESOLUTION=2
##DATA PROCESSING=DIGITIZED BY COBLENTZ SOCIETY (BATCH II) FROM HARD COPY
##XUNITS=1/CM
##YUNITS=TRANSMITTANCE
##XFACTOR=1.0
##YFACTOR=1
##FIRSTX=667
##LASTX=4000
##FIRSTY=0.7972
##MAXX=4000
##MINX=667
##MAXY=0.7976
##MINY=0.0042
##NPOINTS=3334
##XYDATA=(X++(Y..Y))
667.000000 0.7972 0.7961 0.7959 0.7960 0.7963
672.000000 0.7976 0.7958 0.7954 0.7948 0.7937
677.000000 0.7926 0.7914 0.7903 0.7886 0.7857
682.000000 0.7827 0.7793 0.7759 0.7728 0.7697
687.000000 0.7666 0.7633 0.7600 0.7572 0.7551
692.000000 0.7534 0.7520 0.7534 0.7558 0.7600
697.000000 0.7655 0.7699 0.7708 0.7713 0.7714
702.000000 0.7715 0.7714 0.7713 0.7712 0.7712
707.000000 0.7711 0.7711 0.7711 0.7711 0.7707
712.000000 0.7703 0.7725 0.7695 0.7691 0.7689
717.000000 0.7686 0.7666 0.7658 0.7653 0.7655
722.000000 0.7661 0.7664 0.7655 0.7632 0.7622
727.000000 0.7615 0.7611 0.7607 0.7603 0.7597
732.000000 0.7582 0.7544 0.7498 0.7455 0.7422
737.000000 0.7400 0.7388 0.7383 0.7381 0.7377
742.000000 0.7371 0.7365 0.7360 0.7355 0.7351
747.000000 0.7345 0.7341 0.7341 0.7343 0.7345
752.000000 0.7348 0.7351 0.7355 0.7358 0.7362
757.000000 0.7365 0.7368 0.7372 0.7376 0.7375
762.000000 0.7371 0.7347 0.7319 0.7296 0.7288
767.000000 0.7285 0.7283 0.7281 0.7280 0.7279
772.000000 0.7278 0.7274 0.7269 0.7220 0.7177
777.000000 0.7140 0.7106 0.7070 0.7025 0.6979
782.000000 0.6921 0.6863 0.6813 0.6767 0.6688
787.000000 0.6561 0.6451 0.6332 0.6193 0.6050
792.000000 0.5911 0.5640 0.5437 0.5297 0.5056
797.000000 0.4703 0.4167 0.3845 0.3442 0.3424
802.000000 0.3435 0.4364 0.4935 0.5505 0.6072
807.000000 0.6633 0.6865 0.7119 0.7391 0.7479
812.000000 0.7525 0.7547 0.7558 0.7561 0.7573
817.000000 0.7549 0.7540 0.7526 0.7509 0.7491
822.000000 0.7468 0.7445 0.7415 0.7387 0.7361
827.000000 0.7334 0.7307 0.7280 0.7253 0.7226
832.000000 0.7189 0.7150 0.7109 0.7060 0.7006
837.000000 0.6951 0.6892 0.6828 0.6763 0.6684
842.000000 0.6605 0.6508 0.6410 0.6311 0.6212
847.000000 0.6088 0.5960 0.5829 0.5695 0.5521
852.000000 0.5302 0.4915 0.4311 0.3830 0.3458
857.000000 0.3087 0.2601 0.2408 0.2210 0.2023
862.000000 0.2018 0.2017 0.2451 0.2698 0.2944
867.000000 0.3190 0.3411 0.3693 0.3841 0.4175
872.000000 0.4581 0.4938 0.5409 0.5743 0.5907
877.000000 0.6410 0.6586 0.6709 0.6824 0.6939
882.000000 0.7054 0.7198 0.7364 0.7486 0.7568
887.000000 0.7601 0.7611 0.7619 0.7625 0.7645
892.000000 0.7665 0.7663 0.7672 0.7643 0.7624
897.000000 0.7600 0.7567 0.7536 0.7511 0.7476
902.000000 0.7449 0.7428 0.7404 0.7323 0.7208
907.000000 0.7167 0.7131 0.7066 0.6937 0.6804
912.000000 0.6746 0.6708 0.6643 0.6510 0.6429
917.000000 0.6346 0.6232 0.6130 0.6055 0.6036
922.000000 0.6039 0.6069 0.6147 0.6257 0.6392
927.000000 0.6568 0.6867 0.6980 0.7018 0.7034
932.000000 0.7043 0.7058 0.7049 0.7045 0.7039
937.000000 0.7033 0.7022 0.7011 0.6998 0.6984
942.000000 0.6971 0.6954 0.6937 0.6921 0.6902
947.000000 0.6883 0.6864 0.6840 0.6817 0.6791
952.000000 0.6759 0.6728 0.6691 0.6652 0.6612
957.000000 0.6572 0.6533 0.6494 0.6436 0.6373
962.000000 0.6311 0.6256 0.6201 0.6146 0.6082
967.000000 0.6014 0.5946 0.5877 0.5808 0.5738
972.000000 0.5667 0.5596 0.5505 0.5409 0.5270
977.000000 0.5125 0.4953 0.4762 0.4390 0.3872
982.000000 0.3537 0.3325 0.3138 0.3033 0.2995
987.000000 0.2979 0.2962 0.2996 0.3087 0.3216
992.000000 0.3438 0.3660 0.3881 0.4102 0.4322
997.000000 0.4542 0.4762 0.4980 0.5199 0.5331
1002.000000 0.5349 0.5302 0.5264 0.5212 0.5128
1007.000000 0.5033 0.4935 0.4817 0.4653 0.4490
1012.000000 0.4327 0.4165 0.4003 0.3531 0.3250
1017.000000 0.3110 0.2975 0.2839 0.2666 0.2483
1022.000000 0.2339 0.2081 0.1665 0.0930 0.0663
1027.000000 0.0556 0.0524 0.0516 0.0546 0.0592
1032.000000 0.0654 0.0752 0.0883 0.0983 0.1172
1037.000000 0.1242 0.1283 0.1309 0.1328 0.1347
1042.000000 0.1470 0.1746 0.1935 0.2124 0.2313
1047.000000 0.2500 0.2688 0.2875 0.3062 0.3249
1052.000000 0.3435 0.3604 0.3700 0.3759 0.3783
1057.000000 0.3786 0.3797 0.3736 0.3582 0.3436
1062.000000 0.3291 0.3146 0.3001 0.2856 0.2698
1067.000000 0.2647 0.2643 0.2651 0.2639 0.2998
1072.000000 0.3177 0.3354 0.3530 0.3658 0.3858
1077.000000 0.4317 0.4717 0.4849 0.4931 0.5047
1082.000000 0.5208 0.5356 0.5462 0.5528 0.5589
1087.000000 0.5650 0.5710 0.5762 0.5798 0.5834
1092.000000 0.5866 0.5891 0.5916 0.5942 0.5967
1097.000000 0.5990 0.6013 0.6022 0.6031 0.6036
1102.000000 0.6038 0.6040 0.6041 0.6043 0.6045
1107.000000 0.6047 0.6049 0.6050 0.6050 0.6048
1112.000000 0.6048 0.6047 0.6044 0.6041 0.6038
1117.000000 0.6028 0.6003 0.5970 0.5936 0.5909
1122.000000 0.5885 0.5854 0.5824 0.5793 0.5759
1127.000000 0.5725 0.5689 0.5637 0.5582 0.5504
1132.000000 0.5398 0.5289 0.5200 0.5097 0.4956
1137.000000 0.4799 0.4664 0.4537 0.4373 0.4168
1142.000000 0.3907 0.3645 0.3383 0.3121 0.2860
1147.000000 0.2600 0.2339 0.2080 0.1949 0.1936
1152.000000 0.1938 0.2144 0.2412 0.2678 0.2945
1157.000000 0.3211 0.3476 0.3741 0.4006 0.4270
1162.000000 0.4534 0.4796 0.5074 0.5309 0.5355
1167.000000 0.5386 0.5437 0.5527 0.5558 0.5573
1172.000000 0.5575 0.5579 0.5573 0.5579 0.5576
1177.000000 0.5570 0.5564 0.5555 0.5525 0.5487
1182.000000 0.5474 0.5461 0.5449 0.5439 0.5432
1187.000000 0.5425 0.5418 0.5398 0.5351 0.5282
1192.000000 0.5212 0.5149 0.5085 0.5013 0.4940
1197.000000 0.4869 0.4789 0.4704 0.4601 0.4495
1202.000000 0.4395 0.4294 0.4166 0.4007 0.3848
1207.000000 0.3689 0.3531 0.3372 0.3193 0.3109
1212.000000 0.3054 0.2999 0.2885 0.2740 0.2699
1217.000000 0.2696 0.2714 0.2827 0.3089 0.3349
1222.000000 0.3609 0.3870 0.4129 0.4388 0.4647
1227.000000 0.4905 0.5162 0.5326 0.5365 0.5383
1232.000000 0.5398 0.5421 0.5458 0.5495 0.5540
1237.000000 0.5564 0.5568 0.5567 0.5566 0.5564
1242.000000 0.5559 0.5552 0.5537 0.5522 0.5506
1247.000000 0.5489 0.5477 0.5469 0.5461 0.5453
1252.000000 0.5446 0.5439 0.5435 0.5431 0.5427
1257.000000 0.5423 0.5419 0.5416 0.5411 0.5407
1262.000000 0.5402 0.5398 0.5389 0.5379 0.5369
1267.000000 0.5358 0.5346 0.5335 0.5323 0.5311
1272.000000 0.5300 0.5289 0.5278 0.5267 0.5257
1277.000000 0.5246 0.5237 0.5227 0.5217 0.5208
1282.000000 0.5196 0.5181 0.5166 0.5122 0.5085
1287.000000 0.5052 0.5012 0.4965 0.4920 0.4876
1292.000000 0.4838 0.4806 0.4776 0.4747 0.4713
1297.000000 0.4638 0.4490 0.4367 0.4079 0.3876
1302.000000 0.3684 0.3492 0.3301 0.3104 0.2778
1307.000000 0.2621 0.2606 0.2620 0.2647 0.2802
1312.000000 0.2984 0.3165 0.3345 0.3526 0.3777
1317.000000 0.4097 0.4237 0.4321 0.4376 0.4405
1322.000000 0.4434 0.4451 0.4464 0.4468 0.4467
1327.000000 0.4462 0.4459 0.4449 0.4404 0.4349
1332.000000 0.4290 0.4233 0.4184 0.4139 0.4088
1337.000000 0.3937 0.3761 0.3586 0.3410 0.3266
1342.000000 0.3243 0.3249 0.3289 0.3407 0.3531
1347.000000 0.3655 0.3778 0.3901 0.3973 0.3974
1352.000000 0.3974 0.3972 0.3964 0.3943 0.3896
1357.000000 0.3835 0.3785 0.3769 0.3755 0.3645
1362.000000 0.3497 0.3391 0.3348 0.3311 0.3270
1367.000000 0.3250 0.3233 0.3215 0.3196 0.3172
1372.000000 0.3143 0.3100 0.2842 0.2518 0.2276
1377.000000 0.2124 0.2024 0.1934 0.1834 0.1809
1382.000000 0.1802 0.1815 0.1866 0.1922 0.1977
1387.000000 0.2019 0.2030 0.2027 0.1982 0.1883
1392.000000 0.1785 0.1686 0.1588 0.1490 0.1393
1397.000000 0.1295 0.1211 0.1198 0.1249 0.1514
1402.000000 0.1828 0.2142 0.2455 0.2768 0.3080
1407.000000 0.3276 0.3343 0.3404 0.3474 0.3505
1412.000000 0.3528 0.3534 0.3534 0.3562 0.3514
1417.000000 0.3492 0.3466 0.3438 0.3383 0.3307
1422.000000 0.3239 0.3185 0.3136 0.3091 0.3047
1427.000000 0.2994 0.2889 0.2708 0.2527 0.2347
1432.000000 0.2166 0.1986 0.1806 0.1677 0.1644
1437.000000 0.1624 0.1606 0.1587 0.1548 0.1491
1442.000000 0.1450 0.1420 0.1389 0.1350 0.1307
1447.000000 0.1242 0.1144 0.1084 0.1063 0.1062
1452.000000 0.1069 0.1054 0.1124 0.1201 0.1258
1457.000000 0.1283 0.1295 0.1304 0.1308 0.1308
1462.000000 0.1304 0.1315 0.1102 0.0999 0.0894
1467.000000 0.0791 0.0687 0.0592 0.0551 0.0518
1472.000000 0.0496 0.0487 0.0481 0.0480 0.0452
1477.000000 0.0484 0.0493 0.0504 0.0514 0.0524
1482.000000 0.0543 0.0562 0.0582 0.0601 0.0622
1487.000000 0.0645 0.0668 0.0690 0.0710 0.0719
1492.000000 0.0724 0.0722 0.0720 0.0747 0.0707
1497.000000 0.0694 0.0679 0.0659 0.0635 0.0612
1502.000000 0.0587 0.0558 0.0528 0.0505 0.0492
1507.000000 0.0484 0.0487 0.0472 0.0499 0.0511
1512.000000 0.0541 0.0591 0.0643 0.0692 0.0743
1517.000000 0.0799 0.0835 0.0866 0.0906 0.0971
1522.000000 0.1173 0.1420 0.1480 0.1504 0.1518
1527.000000 0.1525 0.1529 0.1528 0.1542 0.1503
1532.000000 0.1436 0.1369 0.1302 0.1235 0.1169
1537.000000 0.1102 0.1035 0.0969 0.0903 0.0837
1542.000000 0.0771 0.0704 0.0638 0.0572 0.0506
1547.000000 0.0439 0.0415 0.0413 0.0399 0.0413
1552.000000 0.0413 0.0418 0.0428 0.0437 0.0449
1557.000000 0.0463 0.0480 0.0501 0.0524 0.0547
1562.000000 0.0622 0.0718 0.0772 0.0836 0.0955
1567.000000 0.1057 0.1094 0.1108 0.1114 0.1115
1572.000000 0.1113 0.1119 0.1106 0.1101 0.1093
1577.000000 0.1081 0.1062 0.1039 0.0981 0.0897
1582.000000 0.0836 0.0762 0.0685 0.0625 0.0583
1587.000000 0.0546 0.0515 0.0498 0.0489 0.0486
1592.000000 0.0486 0.0487 0.0475 0.0493 0.0501
1597.000000 0.0511 0.0524 0.0543 0.0565 0.0585
1602.000000 0.0612 0.0659 0.0746 0.0864 0.0977
1607.000000 0.1088 0.1182 0.1250 0.1327 0.1381
1612.000000 0.1434 0.1484 0.1533 0.1601 0.1683
1617.000000 0.1879 0.1979 0.2046 0.2091 0.2126
1622.000000 0.2159 0.2192 0.2243 0.2320 0.2380
1627.000000 0.2414 0.2463 0.2549 0.2663 0.2780
1632.000000 0.2901 0.3020 0.3130 0.3358 0.3423
1637.000000 0.3480 0.3547 0.3616 0.3689 0.3852
1642.000000 0.4040 0.4157 0.4242 0.4321 0.4338
1647.000000 0.4348 0.4356 0.4363 0.4375 0.4389
1652.000000 0.4405 0.4422 0.4439 0.4472 0.4525
1657.000000 0.4587 0.4677 0.4859 0.4948 0.5066
1662.000000 0.5112 0.5150 0.5190 0.5228 0.5261
1667.000000 0.5292 0.5325 0.5363 0.5401 0.5433
1672.000000 0.5462 0.5537 0.5577 0.5584 0.5587
1677.000000 0.5590 0.5594 0.5601 0.5610 0.5628
1682.000000 0.5653 0.5745 0.5828 0.5857 0.5870
1687.000000 0.5870 0.5867 0.5863 0.5858 0.5853
1692.000000 0.5848 0.5843 0.5839 0.5840 0.5852
1697.000000 0.5864 0.5886 0.5915 0.5958 0.6011
1702.000000 0.6050 0.6066 0.6067 0.6069 0.6071
1707.000000 0.6072 0.6073 0.6075 0.6077 0.6078
1712.000000 0.6080 0.6082 0.6084 0.6086 0.6087
1717.000000 0.6087 0.6088 0.6089 0.6089 0.6090
1722.000000 0.6091 0.6091 0.6091 0.6091 0.6091
1727.000000 0.6091 0.6090 0.6091 0.6091 0.6090
1732.000000 0.6090 0.6089 0.6088 0.6088 0.6088
1737.000000 0.6087 0.6086 0.6085 0.6085 0.6084
1742.000000 0.6083 0.6082 0.6081 0.6078 0.6074
1747.000000 0.6069 0.6064 0.6059 0.6053 0.6046
1752.000000 0.6036 0.6025 0.6015 0.6005 0.5994
1757.000000 0.5982 0.5969 0.5956 0.5943 0.5922
1762.000000 0.5890 0.5857 0.5830 0.5809 0.5792
1767.000000 0.5778 0.5768 0.5758 0.5749 0.5740
1772.000000 0.5732 0.5724 0.5715 0.5703 0.5690
1777.000000 0.5677 0.5664 0.5650 0.5635 0.5618
1782.000000 0.5602 0.5584 0.5568 0.5552 0.5536
1787.000000 0.5520 0.5513 0.5505 0.5499 0.5492
1792.000000 0.5485 0.5478 0.5471 0.5464 0.5457
1797.000000 0.5451 0.5444 0.5436 0.5430 0.5423
1802.000000 0.5415 0.5408 0.5401 0.5393 0.5379
1807.000000 0.5361 0.5338 0.5313 0.5282 0.5251
1812.000000 0.5216 0.5177 0.5141 0.5116 0.5093
1817.000000 0.5071 0.5049 0.5027 0.4997 0.4960
1822.000000 0.4924 0.4889 0.4855 0.4823 0.4797
1827.000000 0.4774 0.4751 0.4728 0.4704 0.4677
1832.000000 0.4648 0.4614 0.4550 0.4491 0.4439
1837.000000 0.4397 0.4383 0.4369 0.4358 0.4351
1842.000000 0.4344 0.4337 0.4330 0.4323 0.4315
1847.000000 0.4307 0.4296 0.4280 0.4256 0.4232
1852.000000 0.4206 0.4172 0.4138 0.4106 0.4078
1857.000000 0.4049 0.4015 0.3978 0.3940 0.3899
1862.000000 0.3851 0.3798 0.3748 0.3720 0.3703
1867.000000 0.3694 0.3684 0.3673 0.3661 0.3649
1872.000000 0.3635 0.3619 0.3602 0.3585 0.3567
1877.000000 0.3548 0.3530 0.3511 0.3492 0.3473
1882.000000 0.3455 0.3438 0.3422 0.3405 0.3389
1887.000000 0.3373 0.3357 0.3336 0.3315 0.3292
1892.000000 0.3270 0.3250 0.3234 0.3218 0.3201
1897.000000 0.3185 0.3169 0.3155 0.3142 0.3131
1902.000000 0.3120 0.3109 0.3098 0.3087 0.3076
1907.000000 0.3064 0.3053 0.3045 0.3040 0.3034
1912.000000 0.3032 0.3032 0.3032 0.3030 0.3029
1917.000000 0.3029 0.3027 0.3026 0.3026 0.3021
1922.000000 0.3014 0.3004 0.2991 0.2979 0.2968
1927.000000 0.2957 0.2945 0.2934 0.2922 0.2915
1932.000000 0.2913 0.2911 0.2911 0.2916 0.2911
1937.000000 0.2912 0.2914 0.2915 0.2918 0.2922
1942.000000 0.2940 0.2957 0.2973 0.2998 0.3021
1947.000000 0.3044 0.3057 0.3070 0.3083 0.3094
1952.000000 0.3103 0.3112 0.3122 0.3130 0.3139
1957.000000 0.3148 0.3157 0.3165 0.3174 0.3186
1962.000000 0.3204 0.3223 0.3241 0.3253 0.3264
1967.000000 0.3275 0.3293 0.3325 0.3372 0.3407
1972.000000 0.3438 0.3463 0.3476 0.3484 0.3491
1977.000000 0.3497 0.3503 0.3510 0.3517 0.3526
1982.000000 0.3537 0.3551 0.3567 0.3652 0.3727
1987.000000 0.3756 0.3775 0.3789 0.3803 0.3817
1992.000000 0.3831 0.3845 0.3859 0.3873 0.3886
1997.000000 0.3899 0.3911 0.3924 0.3936 0.3947
2002.000000 0.3958 0.3969 0.3984 0.4001 0.4020
2007.000000 0.4038 0.4055 0.4072 0.4088 0.4104
2012.000000 0.4140 0.4184 0.4232 0.4279 0.4326
2017.000000 0.4366 0.4403 0.4431 0.4455 0.4474
2022.000000 0.4490 0.4504 0.4515 0.4523 0.4530
2027.000000 0.4533 0.4536 0.4539 0.4542 0.4546
2032.000000 0.4546 0.4546 0.4546 0.4546 0.4546
2037.000000 0.4546 0.4545 0.4545 0.4546 0.4547
2042.000000 0.4547 0.4548 0.4549 0.4551 0.4552
2047.000000 0.4554 0.4557 0.4560 0.4563 0.4567
2052.000000 0.4574 0.4581 0.4589 0.4598 0.4607
2057.000000 0.4617 0.4626 0.4635 0.4652 0.4672
2062.000000 0.4699 0.4725 0.4748 0.4768 0.4785
2067.000000 0.4798 0.4811 0.4823 0.4832 0.4840
2072.000000 0.4848 0.4856 0.4862 0.4869 0.4876
2077.000000 0.4883 0.4890 0.4896 0.4903 0.4907
2082.000000 0.4911 0.4914 0.4917 0.4920 0.4923
2087.000000 0.4926 0.4929 0.4932 0.4935 0.4939
2092.000000 0.4942 0.4947 0.4951 0.4956 0.4961
2097.000000 0.4965 0.4970 0.4974 0.4981 0.4989
2102.000000 0.4996 0.5004 0.5012 0.5011 0.5006
2107.000000 0.5001 0.4996 0.4990 0.4985 0.4980
2112.000000 0.5010 0.4970 0.4965 0.4960 0.4954
2117.000000 0.4949 0.4944 0.4939 0.4933 0.4928
2122.000000 0.4923 0.4917 0.4911 0.4904 0.4898
2127.000000 0.4892 0.4885 0.4879 0.4874 0.4868
2132.000000 0.4863 0.4857 0.4852 0.4846 0.4842
2137.000000 0.4838 0.4837 0.4836 0.4835 0.4834
2142.000000 0.4834 0.4833 0.4832 0.4830 0.4828
2147.000000 0.4827 0.4826 0.4825 0.4824 0.4822
2152.000000 0.4820 0.4817 0.4813 0.4808 0.4799
2157.000000 0.4790 0.4777 0.4764 0.4747 0.4731
2162.000000 0.4718 0.4705 0.4694 0.4683 0.4673
2167.000000 0.4663 0.4653 0.4644 0.4635 0.4625
2172.000000 0.4616 0.4605 0.4594 0.4582 0.4570
2177.000000 0.4559 0.4547 0.4535 0.4523 0.4512
2182.000000 0.4501 0.4491 0.4481 0.4471 0.4462
2187.000000 0.4452 0.4442 0.4433 0.4423 0.4414
2192.000000 0.4406 0.4397 0.4392 0.4386 0.4381
2197.000000 0.4376 0.4370 0.4364 0.4359 0.4354
2202.000000 0.4348 0.4343 0.4338 0.4332 0.4327
2207.000000 0.4322 0.4317 0.4312 0.4307 0.4302
2212.000000 0.4296 0.4291 0.4286 0.4281 0.4276
2217.000000 0.4271 0.4265 0.4259 0.4253 0.4247
2222.000000 0.4240 0.4233 0.4227 0.4219 0.4212
2227.000000 0.4204 0.4196 0.4188 0.4180 0.4166
2232.000000 0.4151 0.4137 0.4123 0.4120 0.4118
2237.000000 0.4116 0.4115 0.4114 0.4113 0.4111
2242.000000 0.4110 0.4106 0.4102 0.4096 0.4090
2247.000000 0.4074 0.4057 0.4034 0.4010 0.3992
2252.000000 0.3976 0.3959 0.3943 0.3928 0.3913
2257.000000 0.3898 0.3884 0.3871 0.3858 0.3846
2262.000000 0.3834 0.3822 0.3810 0.3798 0.3787
2267.000000 0.3777 0.3767 0.3758 0.3748 0.3738
2272.000000 0.3729 0.3719 0.3710 0.3701 0.3694
2277.000000 0.3688 0.3681 0.3675 0.3670 0.3665
2282.000000 0.3661 0.3657 0.3653 0.3650 0.3647
2287.000000 0.3643 0.3639 0.3635 0.3630 0.3625
2292.000000 0.3615 0.3601 0.3581 0.3554 0.3524
2297.000000 0.3489 0.3447 0.3381 0.3318 0.3295
2302.000000 0.3271 0.3248 0.3224 0.3209 0.3196
2307.000000 0.3183 0.3170 0.3157 0.3144 0.3130
2312.000000 0.3117 0.3104 0.3091 0.3078 0.3064
2317.000000 0.3051 0.3037 0.3022 0.3008 0.2994
2322.000000 0.2980 0.2966 0.2952 0.2938 0.2928
2327.000000 0.2921 0.2916 0.2912 0.2908 0.2906
2332.000000 0.2904 0.2901 0.2898 0.2896 0.2894
2337.000000 0.2891 0.2888 0.2884 0.2878 0.2872
2342.000000 0.2866 0.2860 0.2854 0.2849 0.2844
2347.000000 0.2840 0.2837 0.2836 0.2834 0.2832
2352.000000 0.2830 0.2828 0.2827 0.2825 0.2823
2357.000000 0.2821 0.2819 0.2818 0.2816 0.2814
2362.000000 0.2813 0.2811 0.2810 0.2808 0.2806
2367.000000 0.2804 0.2801 0.2798 0.2794 0.2788
2372.000000 0.2783 0.2778 0.2772 0.2766 0.2760
2377.000000 0.2754 0.2747 0.2741 0.2734 0.2728
2382.000000 0.2722 0.2715 0.2709 0.2703 0.2696
2387.000000 0.2690 0.2684 0.2677 0.2671 0.2663
2392.000000 0.2656 0.2647 0.2637 0.2627 0.2617
2397.000000 0.2607 0.2596 0.2586 0.2575 0.2564
2402.000000 0.2552 0.2541 0.2530 0.2519 0.2507
2407.000000 0.2496 0.2484 0.2472 0.2458 0.2443
2412.000000 0.2423 0.2402 0.2382 0.2361 0.2340
2417.000000 0.2320 0.2300 0.2281 0.2263 0.2245
2422.000000 0.2227 0.2209 0.2191 0.2172 0.2153
2427.000000 0.2134 0.2097 0.2057 0.2016 0.1976
2432.000000 0.1936 0.1899 0.1862 0.1826 0.1790
2437.000000 0.1750 0.1702 0.1655 0.1613 0.1571
2442.000000 0.1540 0.1516 0.1493 0.1469 0.1446
2447.000000 0.1426 0.1407 0.1389 0.1374 0.1358
2452.000000 0.1342 0.1327 0.1314 0.1304 0.1294
2457.000000 0.1285 0.1275 0.1267 0.1258 0.1248
2462.000000 0.1236 0.1223 0.1209 0.1194 0.1177
2467.000000 0.1157 0.1137 0.1118 0.1098 0.1080
2472.000000 0.1063 0.1046 0.1029 0.1013 0.0994
2477.000000 0.0974 0.0954 0.0932 0.0911 0.0899
2482.000000 0.0890 0.0880 0.0871 0.0862 0.0859
2487.000000 0.0856 0.0853 0.0850 0.0848 0.0846
2492.000000 0.0845 0.0844 0.0843 0.0842 0.0840
2497.000000 0.0839 0.0838 0.0837 0.0836 0.0830
2502.000000 0.0825 0.0816 0.0804 0.0792 0.0776
2507.000000 0.0761 0.0747 0.0735 0.0724 0.0713
2512.000000 0.0702 0.0692 0.0684 0.0676 0.0674
2517.000000 0.0672 0.0671 0.0670 0.0670 0.0669
2522.000000 0.0667 0.0666 0.0665 0.0665 0.0664
2527.000000 0.0662 0.0661 0.0661 0.0660 0.0659
2532.000000 0.0658 0.0656 0.0655 0.0653 0.0652
2537.000000 0.0650 0.0649 0.0646 0.0644 0.0641
2542.000000 0.0637 0.0633 0.0629 0.0625 0.0621
2547.000000 0.0617 0.0613 0.0609 0.0604 0.0600
2552.000000 0.0594 0.0589 0.0583 0.0578 0.0572
2557.000000 0.0566 0.0560 0.0555 0.0549 0.0543
2562.000000 0.0538 0.0532 0.0527 0.0523 0.0519
2567.000000 0.0514 0.0510 0.0505 0.0501 0.0497
2572.000000 0.0493 0.0488 0.0484 0.0480 0.0477
2577.000000 0.0474 0.0471 0.0468 0.0465 0.0462
2582.000000 0.0459 0.0457 0.0454 0.0451 0.0449
2587.000000 0.0446 0.0443 0.0442 0.0441 0.0439
2592.000000 0.0439 0.0439 0.0438 0.0437 0.0437
2597.000000 0.0436 0.0436 0.0435 0.0435 0.0435
2602.000000 0.0434 0.0434 0.0434 0.0433 0.0433
2607.000000 0.0433 0.0433 0.0433 0.0432 0.0432
2612.000000 0.0432 0.0431 0.0431 0.0431 0.0429
2617.000000 0.0427 0.0425 0.0424 0.0422 0.0421
2622.000000 0.0419 0.0417 0.0415 0.0414 0.0413
2627.000000 0.0409 0.0405 0.0402 0.0397 0.0393
2632.000000 0.0389 0.0385 0.0381 0.0376 0.0372
2637.000000 0.0367 0.0363 0.0358 0.0354 0.0349
2642.000000 0.0345 0.0340 0.0336 0.0332 0.0327
2647.000000 0.0321 0.0316 0.0311 0.0305 0.0300
2652.000000 0.0294 0.0289 0.0283 0.0278 0.0272
2657.000000 0.0267 0.0261 0.0256 0.0250 0.0244
2662.000000 0.0239 0.0232 0.0224 0.0215 0.0208
2667.000000 0.0200 0.0192 0.0185 0.0178 0.0171
2672.000000 0.0166 0.0161 0.0157 0.0152 0.0147
2677.000000 0.0143 0.0140 0.0137 0.0135 0.0133
2682.000000 0.0131 0.0130 0.0128 0.0127 0.0126
2687.000000 0.0125 0.0125 0.0124 0.0124 0.0124
2692.000000 0.0123 0.0123 0.0122 0.0122 0.0122
2697.000000 0.0121 0.0121 0.0121 0.0120 0.0120
2702.000000 0.0120 0.0119 0.0119 0.0119 0.0118
2707.000000 0.0118 0.0118 0.0117 0.0117 0.0116
2712.000000 0.0115 0.0114 0.0114 0.0113 0.0112
2717.000000 0.0111 0.0110 0.0109 0.0108 0.0107
2722.000000 0.0106 0.0105 0.0104 0.0103 0.0102
2727.000000 0.0100 0.0098 0.0096 0.0094 0.0092
2732.000000 0.0090 0.0088 0.0087 0.0085 0.0083
2737.000000 0.0081 0.0079 0.0077 0.0075 0.0073
2742.000000 0.0071 0.0070 0.0068 0.0066 0.0065
2747.000000 0.0063 0.0061 0.0060 0.0058 0.0056
2752.000000 0.0055 0.0053 0.0051 0.0050 0.0048
2757.000000 0.0047 0.0046 0.0045 0.0045 0.0045
2762.000000 0.0045 0.0045 0.0045 0.0045 0.0045
2767.000000 0.0045 0.0045 0.0045 0.0045 0.0045
2772.000000 0.0045 0.0045 0.0045 0.0045 0.0045
2777.000000 0.0045 0.0045 0.0045 0.0045 0.0045
2782.000000 0.0045 0.0045 0.0045 0.0045 0.0045
2787.000000 0.0045 0.0045 0.0045 0.0045 0.0044
2792.000000 0.0044 0.0044 0.0044 0.0044 0.0044
2797.000000 0.0044 0.0044 0.0044 0.0044 0.0044
2802.000000 0.0044 0.0044 0.0044 0.0044 0.0043
2807.000000 0.0043 0.0043 0.0043 0.0043 0.0043
2812.000000 0.0043 0.0043 0.0043 0.0043 0.0043
2817.000000 0.0043 0.0043 0.0043 0.0043 0.0043
2822.000000 0.0042 0.0042 0.0042 0.0042 0.0042
2827.000000 0.0042 0.0042 0.0043 0.0043 0.0043
2832.000000 0.0043 0.0043 0.0043 0.0043 0.0043
2837.000000 0.0043 0.0043 0.0043 0.0043 0.0043
2842.000000 0.0043 0.0043 0.0043 0.0044 0.0044
2847.000000 0.0044 0.0044 0.0044 0.0044 0.0044
2852.000000 0.0044 0.0044 0.0044 0.0044 0.0044
2857.000000 0.0044 0.0044 0.0044 0.0044 0.0049
2862.000000 0.0044 0.0044 0.0045 0.0045 0.0045
2867.000000 0.0045 0.0045 0.0045 0.0045 0.0045
2872.000000 0.0045 0.0045 0.0046 0.0046 0.0046
2877.000000 0.0046 0.0046 0.0046 0.0046 0.0047
2882.000000 0.0047 0.0047 0.0047 0.0047 0.0047
2887.000000 0.0048 0.0048 0.0048 0.0048 0.0049
2892.000000 0.0049 0.0049 0.0049 0.0049 0.0049
2897.000000 0.0050 0.0050 0.0050 0.0050 0.0050
2902.000000 0.0050 0.0050 0.0051 0.0051 0.0051
2907.000000 0.0052 0.0052 0.0052 0.0052 0.0053
2912.000000 0.0053 0.0053 0.0054 0.0054 0.0054
2917.000000 0.0054 0.0055 0.0055 0.0055 0.0056
2922.000000 0.0056 0.0056 0.0057 0.0057 0.0058
2927.000000 0.0058 0.0059 0.0059 0.0059 0.0060
2932.000000 0.0060 0.0060 0.0060 0.0061 0.0061
2937.000000 0.0061 0.0062 0.0062 0.0062 0.0062
2942.000000 0.0063 0.0064 0.0064 0.0065 0.0065
2947.000000 0.0065 0.0065 0.0066 0.0066 0.0066
2952.000000 0.0067 0.0067 0.0067 0.0067 0.0068
2957.000000 0.0069 0.0070 0.0071 0.0071 0.0072
2962.000000 0.0072 0.0073 0.0074 0.0074 0.0075
2967.000000 0.0075 0.0076 0.0076 0.0077 0.0078
2972.000000 0.0078 0.0079 0.0079 0.0080 0.0080
2977.000000 0.0081 0.0082 0.0082 0.0083 0.0083
2982.000000 0.0084 0.0084 0.0085 0.0085 0.0086
2987.000000 0.0087 0.0087 0.0088 0.0089 0.0090
2992.000000 0.0091 0.0092 0.0092 0.0093 0.0094
2997.000000 0.0095 0.0096 0.0097 0.0098 0.0099
3002.000000 0.0100 0.0101 0.0102 0.0103 0.0103
3007.000000 0.0104 0.0105 0.0106 0.0107 0.0108
3012.000000 0.0108 0.0109 0.0110 0.0111 0.0112
3017.000000 0.0112 0.0113 0.0113 0.0114 0.0114
3022.000000 0.0114 0.0115 0.0115 0.0116 0.0116
3027.000000 0.0117 0.0117 0.0117 0.0117 0.0118
3032.000000 0.0118 0.0119 0.0120 0.0120 0.0120
3037.000000 0.0120 0.0121 0.0121 0.0121 0.0121
3042.000000 0.0122 0.0122 0.0122 0.0122 0.0122
3047.000000 0.0122 0.0122 0.0123 0.0123 0.0123
3052.000000 0.0123 0.0123 0.0123 0.0123 0.0123
3057.000000 0.0123 0.0123 0.0123 0.0123 0.0123
3062.000000 0.0124 0.0124 0.0125 0.0125 0.0126
3067.000000 0.0126 0.0127 0.0127 0.0128 0.0128
3072.000000 0.0131 0.0134 0.0136 0.0139 0.0143
3077.000000 0.0147 0.0151 0.0155 0.0160 0.0164
3082.000000 0.0169 0.0174 0.0179 0.0185 0.0190
3087.000000 0.0196 0.0201 0.0207 0.0212 0.0216
3092.000000 0.0219 0.0221 0.0224 0.0227 0.0230
3097.000000 0.0232 0.0235 0.0238 0.0241 0.0243
3102.000000 0.0246 0.0249 0.0252 0.0255 0.0258
3107.000000 0.0260 0.0263 0.0265 0.0268 0.0270
3112.000000 0.0272 0.0275 0.0277 0.0279 0.0281
3117.000000 0.0283 0.0285 0.0288 0.0290 0.0292
3122.000000 0.0294 0.0295 0.0297 0.0299 0.0299
3127.000000 0.0300 0.0300 0.0301 0.0301 0.0302
3132.000000 0.0302 0.0303 0.0303 0.0304 0.0305
3137.000000 0.0306 0.0306 0.0307 0.0307 0.0308
3142.000000 0.0308 0.0309 0.0309 0.0310 0.0312
3147.000000 0.0313 0.0315 0.0317 0.0320 0.0323
3152.000000 0.0327 0.0330 0.0333 0.0336 0.0340
3157.000000 0.0344 0.0350 0.0356 0.0362 0.0369
3162.000000 0.0378 0.0386 0.0395 0.0405 0.0418
3167.000000 0.0431 0.0444 0.0461 0.0483 0.0505
3172.000000 0.0527 0.0550 0.0574 0.0598 0.0622
3177.000000 0.0642 0.0655 0.0668 0.0681 0.0693
3182.000000 0.0704 0.0714 0.0725 0.0736 0.0746
3187.000000 0.0757 0.0768 0.0778 0.0787 0.0795
3192.000000 0.0803 0.0812 0.0820 0.0828 0.0836
3197.000000 0.0844 0.0852 0.0860 0.0867 0.0875
3202.000000 0.0882 0.0889 0.0897 0.0904 0.0910
3207.000000 0.0917 0.0923 0.0930 0.0937 0.0943
3212.000000 0.0950 0.0957 0.0964 0.0970 0.0977
3217.000000 0.0983 0.0990 0.0996 0.1003 0.1009
3222.000000 0.1016 0.1022 0.1029 0.1035 0.1042
3227.000000 0.1048 0.1055 0.1061 0.1068 0.1073
3232.000000 0.1078 0.1083 0.1088 0.1091 0.1094
3237.000000 0.1097 0.1100 0.1102 0.1105 0.1108
3242.000000 0.1111 0.1114 0.1117 0.1120 0.1123
3247.000000 0.1149 0.1127 0.1128 0.1129 0.1130
3252.000000 0.1130 0.1131 0.1132 0.1132 0.1133
3257.000000 0.1134 0.1134 0.1135 0.1135 0.1134
3262.000000 0.1134 0.1133 0.1132 0.1132 0.1131
3267.000000 0.1130 0.1129 0.1129 0.1128 0.1127
3272.000000 0.1127 0.1125 0.1123 0.1121 0.1120
3277.000000 0.1117 0.1114 0.1112 0.1109 0.1106
3282.000000 0.1104 0.1101 0.1098 0.1096 0.1093
3287.000000 0.1090 0.1088 0.1085 0.1082 0.1079
3292.000000 0.1076 0.1073 0.1070 0.1067 0.1064
3297.000000 0.1061 0.1058 0.1055 0.1052 0.1049
3302.000000 0.1046 0.1043 0.1040 0.1038 0.1035
3307.000000 0.1032 0.1029 0.1026 0.1023 0.1019
3312.000000 0.1016 0.1012 0.1009 0.1005 0.1001
3317.000000 0.0998 0.0994 0.0990 0.0987 0.0983
3322.000000 0.0979 0.0975 0.0971 0.0968 0.0964
3327.000000 0.0961 0.0958 0.0954 0.0951 0.0947
3332.000000 0.0944 0.0941 0.0937 0.0934 0.0931
3337.000000 0.0927 0.0924 0.0921 0.0919 0.0916
3342.000000 0.0913 0.0911 0.0908 0.0906 0.0903
3347.000000 0.0901 0.0898 0.0896 0.0893 0.0891
3352.000000 0.0889 0.0886 0.0884 0.0881 0.0879
3357.000000 0.0879 0.0878 0.0877 0.0877 0.0876
3362.000000 0.0875 0.0875 0.0874 0.0873 0.0873
3367.000000 0.0872 0.0871 0.0871 0.0870 0.0870
3372.000000 0.0869 0.0869 0.0869 0.0869 0.0869
3377.000000 0.0869 0.0869 0.0870 0.0870 0.0870
3382.000000 0.0870 0.0871 0.0871 0.0871 0.0872
3387.000000 0.0872 0.0873 0.0873 0.0874 0.0874
3392.000000 0.0874 0.0871 0.0876 0.0877 0.0878
3397.000000 0.0879 0.0880 0.0881 0.0883 0.0884
3402.000000 0.0886 0.0887 0.0889 0.0891 0.0893
3407.000000 0.0895 0.0898 0.0900 0.0903 0.0906
3412.000000 0.0908 0.0911 0.0914 0.0917 0.0920
3417.000000 0.0924 0.0928 0.0932 0.0936 0.0940
3422.000000 0.0944 0.0948 0.0953 0.0957 0.0961
3427.000000 0.0965 0.0970 0.0974 0.0978 0.0982
3432.000000 0.0986 0.0990 0.0994 0.0998 0.1002
3437.000000 0.1006 0.1010 0.1014 0.1018 0.1022
3442.000000 0.1026 0.1030 0.1033 0.1037 0.1041
3447.000000 0.1045 0.1048 0.1054 0.1060 0.1066
3452.000000 0.1072 0.1078 0.1085 0.1091 0.1098
3457.000000 0.1104 0.1111 0.1118 0.1125 0.1131
3462.000000 0.1138 0.1152 0.1177 0.1202 0.1227
3467.000000 0.1252 0.1282 0.1315 0.1348 0.1381
3472.000000 0.1414 0.1430 0.1440 0.1450 0.1461
3477.000000 0.1471 0.1481 0.1492 0.1503 0.1513
3482.000000 0.1524 0.1538 0.1552 0.1567 0.1581
3487.000000 0.1595 0.1611 0.1627 0.1642 0.1658
3492.000000 0.1675 0.1693 0.1712 0.1731 0.1750
3497.000000 0.1805 0.1895 0.1986 0.2077 0.2167
3502.000000 0.2215 0.2235 0.2255 0.2275 0.2295
3507.000000 0.2312 0.2328 0.2344 0.2359 0.2375
3512.000000 0.2391 0.2406 0.2422 0.2438 0.2454
3517.000000 0.2476 0.2500 0.2524 0.2548 0.2571
3522.000000 0.2595 0.2619 0.2643 0.2667 0.2690
3527.000000 0.2714 0.2738 0.2762 0.2786 0.2810
3532.000000 0.2833 0.2857 0.2881 0.2904 0.2928
3537.000000 0.2951 0.2975 0.2999 0.3022 0.3046
3542.000000 0.3069 0.3093 0.3117 0.3140 0.3164
3547.000000 0.3188 0.3211 0.3234 0.3258 0.3281
3552.000000 0.3305 0.3328 0.3351 0.3375 0.3398
3557.000000 0.3421 0.3445 0.3468 0.3491 0.3515
3562.000000 0.3538 0.3561 0.3585 0.3608 0.3632
3567.000000 0.3655 0.3678 0.3701 0.3724 0.3748
3572.000000 0.3771 0.3794 0.3817 0.3840 0.3863
3577.000000 0.3884 0.3903 0.3922 0.3941 0.3960
3582.000000 0.3978 0.3994 0.4010 0.4026 0.4042
3587.000000 0.4058 0.4075 0.4091 0.4108 0.4125
3592.000000 0.4141 0.4159 0.4176 0.4193 0.4210
3597.000000 0.4227 0.4240 0.4253 0.4265 0.4277
3602.000000 0.4290 0.4300 0.4308 0.4317 0.4326
3607.000000 0.4335 0.4344 0.4353 0.4362 0.4370
3612.000000 0.4379 0.4388 0.4396 0.4404 0.4412
3617.000000 0.4420 0.4428 0.4436 0.4444 0.4451
3622.000000 0.4459 0.4467 0.4475 0.4483 0.4490
3627.000000 0.4498 0.4506 0.4514 0.4522 0.4530
3632.000000 0.4538 0.4546 0.4554 0.4562 0.4571
3637.000000 0.4579 0.4588 0.4596 0.4602 0.4607
3642.000000 0.4613 0.4618 0.4624 0.4628 0.4631
3647.000000 0.4635 0.4638 0.4641 0.4644 0.4647
3652.000000 0.4649 0.4652 0.4654 0.4657 0.4657
3657.000000 0.4658 0.4658 0.4659 0.4659 0.4660
3662.000000 0.4660 0.4660 0.4661 0.4661 0.4662
3667.000000 0.4662 0.4662 0.4663 0.4663 0.4663
3672.000000 0.4664 0.4664 0.4665 0.4665 0.4665
3677.000000 0.4666 0.4666 0.4666 0.4667 0.4667
3682.000000 0.4668 0.4668 0.4668 0.4668 0.4668
3687.000000 0.4668 0.4669 0.4669 0.4669 0.4669
3692.000000 0.4669 0.4670 0.4670 0.4670 0.4670
3697.000000 0.4670 0.4670 0.4671 0.4671 0.4671
3702.000000 0.4671 0.4671 0.4672 0.4672 0.4672
3707.000000 0.4672 0.4672 0.4672 0.4674 0.4673
3712.000000 0.4673 0.4673 0.4673 0.4673 0.4673
3717.000000 0.4673 0.4673 0.4673 0.4673 0.4674
3722.000000 0.4674 0.4674 0.4674 0.4674 0.4674
3727.000000 0.4674 0.4674 0.4674 0.4674 0.4674
3732.000000 0.4674 0.4674 0.4674 0.4674 0.4674
3737.000000 0.4673 0.4673 0.4673 0.4673 0.4673
3742.000000 0.4673 0.4672 0.4672 0.4672 0.4672
3747.000000 0.4672 0.4672 0.4671 0.4671 0.4670
3752.000000 0.4670 0.4670 0.4669 0.4669 0.4669
3757.000000 0.4669 0.4669 0.4669 0.4668 0.4668
3762.000000 0.4668 0.4668 0.4668 0.4668 0.4665
3767.000000 0.4662 0.4659 0.4656 0.4653 0.4648
3772.000000 0.4638 0.4627 0.4617 0.4607 0.4597
3777.000000 0.4592 0.4591 0.4589 0.4588 0.4587
3782.000000 0.4586 0.4584 0.4583 0.4582 0.4581
3787.000000 0.4580 0.4578 0.4578 0.4578 0.4577
3792.000000 0.4577 0.4577 0.4576 0.4576 0.4576
3797.000000 0.4575 0.4575 0.4575 0.4574 0.4574
3802.000000 0.4574 0.4574 0.4574 0.4574 0.4573
3807.000000 0.4572 0.4571 0.4570 0.4569 0.4567
3812.000000 0.4566 0.4564 0.4563 0.4561 0.4560
3817.000000 0.4557 0.4550 0.4543 0.4535 0.4528
3822.000000 0.4521 0.4515 0.4510 0.4505 0.4500
3827.000000 0.4496 0.4491 0.4487 0.4484 0.4480
3832.000000 0.4477 0.4474 0.4471 0.4467 0.4464
3837.000000 0.4461 0.4458 0.4455 0.4451 0.4448
3842.000000 0.4445 0.4442 0.4438 0.4435 0.4432
3847.000000 0.4429 0.4426 0.4423 0.4420 0.4417
3852.000000 0.4414 0.4411 0.4408 0.4405 0.4402
3857.000000 0.4399 0.4396 0.4393 0.4391 0.4389
3862.000000 0.4386 0.4384 0.4381 0.4380 0.4379
3867.000000 0.4378 0.4377 0.4376 0.4375 0.4375
3872.000000 0.4374 0.4373 0.4372 0.4371 0.4370
3877.000000 0.4370 0.4369 0.4368 0.4367 0.4366
3882.000000 0.4365 0.4365 0.4365 0.4365 0.4364
3887.000000 0.4364 0.4364 0.4363 0.4363 0.4362
3892.000000 0.4362 0.4361 0.4361 0.4360 0.4360
3897.000000 0.4360 0.4359 0.4359 0.4359 0.4358
3902.000000 0.4358 0.4358 0.4357 0.4357 0.4357
3907.000000 0.4356 0.4356 0.4355 0.4355 0.4354
3912.000000 0.4354 0.4353 0.4353 0.4352 0.4352
3917.000000 0.4351 0.4351 0.4350 0.4350 0.4349
3922.000000 0.4349 0.4348 0.4348 0.4347 0.4347
3927.000000 0.4346 0.4345 0.4345 0.4344 0.4343
3932.000000 0.4343 0.4342 0.4342 0.4341 0.4341
3937.000000 0.4341 0.4340 0.4339 0.4338 0.4337
3942.000000 0.4336 0.4335 0.4332 0.4329 0.4326
3947.000000 0.4324 0.4321 0.4318 0.4313 0.4308
3952.000000 0.4303 0.4297 0.4292 0.4286 0.4281
3957.000000 0.4278 0.4274 0.4271 0.4267 0.4264
3962.000000 0.4260 0.4258 0.4256 0.4254 0.4252
3967.000000 0.4249 0.4247 0.4245 0.4243 0.4240
3972.000000 0.4238 0.4236 0.4234 0.4232 0.4230
3977.000000 0.4227 0.4225 0.4223 0.4221 0.4219
3982.000000 0.4217 0.4215 0.4213 0.4210 0.4208
3987.000000 0.4206 0.4204 0.4202 0.4199 0.4197
3992.000000 0.4195 0.4193 0.4191 0.4191 0.4190
3997.000000 0.4189 0.4189 0.4188 0.4188
##END=
