##TITLE=LITHIUM CARBONATE
$$ A.R.
##JCAMP-DX=4.24
##DATA TYPE=INFRARED SPECTRUM
##CLASS=COBLENTZ
##ORIGIN=MELLON INSTITUTE
##OWNER=COBLENTZ SOCIETY
Collection (C) 2018 copyright by the U.S. Secretary of Commerce
on behalf of the United States of America. All rights reserved.
##DATE=Not specified, most likely prior to 1970
##MOLFORM=Li2 C O3
##SOURCE REFERENCE=COBLENTZ NO. 502
##$NIST ID=B6000502
##$NIST SOURCE=COBLENTZ
##$NIST IMAGE=cob502
##SPECTROMETER/DATA SYSTEM=Not specified, most likely a prism, grating, or hybrid spectrometer.
##STATE=SOLID (NUJOL AND FLUOROLUBE MULLS)
##SAMPLING PROCEDURE=TRANSMISSION
##RESOLUTION=4
##DATA PROCESSING=DIGITIZED BY NIST FROM HARD COPY
##XUNITS=MICROMETERS
##YUNITS=TRANSMITTANCE
##XFACTOR=1.000000
##YFACTOR=1
##DELTAX=000.006837
##FIRSTX=2.077
##LASTX=16.0308
##FIRSTY=0.873
##MAXX=16.0308
##MINX=2.077
##MAXY=0.984
##MINY=0.24
##NPOINTS=2042
##XYDATA=(X++(Y..Y))
2.077000 0.8730 0.8730 0.8730 0.8730 0.8710
2.111199 0.8690 0.8690 0.8670 0.8670 0.8660
2.145000 0.8660 0.8660 0.8660 0.8640 0.8660
2.179199 0.8660 0.8670 0.8690 0.8710 0.8690
2.214000 0.8690 0.8690 0.8690 0.8690 0.8690
2.248199 0.8690 0.8690 0.8690 0.8690 0.8710
2.282000 0.8710 0.8710 0.8710 0.8710 0.8710
2.316199 0.8710 0.8710 0.8710 0.8710 0.8710
2.351000 0.8710 0.8710 0.8730 0.8730 0.8760
2.385199 0.8780 0.8780 0.8810 0.8810 0.8810
2.419000 0.8810 0.8790 0.8790 0.8810 0.8830
2.453199 0.8830 0.8810 0.8810 0.8810 0.8810
2.487000 0.8830 0.8830 0.8850 0.8860 0.8850
2.521199 0.8850 0.8850 0.8830 0.8830 0.8850
2.556000 0.8850 0.8850 0.8860 0.8860 0.8860
2.590199 0.8900 0.8910 0.8910 0.8910 0.8910
2.624000 0.8910 0.8900 0.8900 0.8880 0.8880
2.658199 0.8860 0.8880 0.8880 0.8880 0.8860
2.692000 0.8850 0.8850 0.8860 0.8880 0.8910
2.726199 0.8930 0.8930 0.8930 0.8930 0.8930
2.761000 0.8930 0.8930 0.8930 0.8930 0.8930
2.795199 0.8930 0.8930 0.8910 0.8910 0.8910
2.829000 0.8910 0.8930 0.8930 0.8930 0.8930
2.863199 0.8950 0.8950 0.8950 0.8930 0.8930
2.897000 0.8930 0.8950 0.8950 0.8930 0.8930
2.931199 0.8930 0.8930 0.8930 0.8950 0.8950
2.966000 0.8950 0.8950 0.8950 0.8950 0.8950
3.000199 0.8950 0.8950 0.8950 0.8950 0.8930
3.034000 0.8930 0.8930 0.8950 0.8930 0.8930
3.068199 0.8930 0.8910 0.8930 0.8930 0.8930
3.103000 0.8950 0.8950 0.8950 0.8950 0.8950
3.137199 0.8950 0.8950 0.8950 0.8950 0.8950
3.171000 0.8950 0.8950 0.9000 0.9020 0.9030
3.205199 0.9030 0.9050 0.9030 0.9030 0.9030
3.239000 0.9050 0.9050 0.9030 0.9050 0.9050
3.273199 0.9050 0.9050 0.9050 0.9070 0.9100
3.308000 0.9100 0.9120 0.9120 0.9120 0.9120
3.342199 0.9120 0.9120 0.9140 0.9140 0.9140
3.376000 0.9150 0.9170 0.9190 0.9190 0.9210
3.410199 0.9210 0.9220 0.9220 0.9220 0.9240
3.444000 0.9240 0.9240 0.9240 0.9240 0.9240
3.478199 0.9240 0.9260 0.9240 0.9260 0.9260
3.513000 0.9270 0.9290 0.9330 0.9340 0.9340
3.547199 0.9360 0.9360 0.9360 0.9360 0.9360
3.581000 0.9360 0.9360 0.9380 0.9390 0.9390
3.615199 0.9410 0.9410 0.9430 0.9430 0.9430
3.649000 0.9410 0.9410 0.9410 0.9410 0.9410
3.683199 0.9410 0.9410 0.9410 0.9410 0.9360
3.718000 0.9340 0.9330 0.9330 0.9340 0.9340
3.752199 0.9340 0.9360 0.9360 0.9360 0.9360
3.786000 0.9380 0.9380 0.9390 0.9390 0.9390
3.820199 0.9390 0.9390 0.9390 0.9390 0.9390
3.855000 0.9390 0.9390 0.9380 0.9360 0.9340
3.889199 0.9340 0.9340 0.9330 0.9310 0.9310
3.923000 0.9290 0.9270 0.9270 0.9260 0.9240
3.957199 0.9240 0.9220 0.9210 0.9220 0.9220
3.991000 0.9220 0.9240 0.9260 0.9260 0.9260
4.025199 0.9270 0.9290 0.9310 0.9330 0.9360
4.060000 0.9380 0.9410 0.9390 0.9390 0.9360
4.094199 0.9340 0.9340 0.9360 0.9360 0.9360
4.128000 0.9360 0.9360 0.9360 0.9360 0.9360
4.162199 0.9360 0.9360 0.9360 0.9360 0.9340
4.196000 0.9340 0.9330 0.9310 0.9310 0.9290
4.230199 0.9260 0.9260 0.9240 0.9240 0.9240
4.265000 0.9220 0.9220 0.9210 0.9210 0.9190
4.299199 0.9190 0.9170 0.9150 0.9150 0.9150
4.333000 0.9150 0.9170 0.9190 0.9190 0.9210
4.367199 0.9210 0.9210 0.9220 0.9220 0.9210
4.401000 0.9210 0.9210 0.9190 0.9190 0.9190
4.435199 0.9190 0.9190 0.9190 0.9190 0.9210
4.470000 0.9210 0.9240 0.9240 0.9270 0.9270
4.504199 0.9290 0.9290 0.9290 0.9270 0.9260
4.538000 0.9260 0.9240 0.9240 0.9220 0.9210
4.572199 0.9210 0.9190 0.9190 0.9190 0.9210
4.607000 0.9220 0.9220 0.9220 0.9220 0.9220
4.641199 0.9210 0.9220 0.9210 0.9210 0.9210
4.675000 0.9190 0.9190 0.9210 0.9210 0.9210
4.709199 0.9210 0.9220 0.9220 0.9240 0.9260
4.743000 0.9260 0.9260 0.9260 0.9260 0.9260
4.777199 0.9260 0.9260 0.9260 0.9270 0.9290
4.812000 0.9310 0.9330 0.9340 0.9340 0.9340
4.846199 0.9340 0.9360 0.9360 0.9360 0.9380
4.880000 0.9380 0.9380 0.9380 0.9360 0.9360
4.914199 0.9360 0.9360 0.9340 0.9330 0.9330
4.948000 0.9330 0.9330 0.9340 0.9360 0.9380
4.982199 0.9380 0.9390 0.9390 0.9380 0.9380
5.017000 0.9380 0.9360 0.9360 0.9390 0.9390
5.051199 0.9410 0.9430 0.9430 0.9430 0.9430
5.085000 0.9430 0.9430 0.9430 0.9430 0.9430
5.119199 0.9450 0.9450 0.9450 0.9430 0.9430
5.154000 0.9430 0.9430 0.9410 0.9410 0.9410
5.188199 0.9410 0.9430 0.9430 0.9450 0.9450
5.222000 0.9450 0.9450 0.9450 0.9450 0.9450
5.256199 0.9430 0.9450 0.9450 0.9450 0.9460
5.290000 0.9460 0.9460 0.9460 0.9450 0.9460
5.324199 0.9460 0.9460 0.9510 0.9510 0.9530
5.359000 0.9530 0.9530 0.9530 0.9510 0.9510
5.393199 0.9510 0.9500 0.9500 0.9500 0.9480
5.427000 0.9460 0.9460 0.9450 0.9450 0.9450
5.461199 0.9430 0.9410 0.9410 0.9390 0.9410
5.495000 0.9410 0.9430 0.9430 0.9450 0.9450
5.529199 0.9450 0.9430 0.9410 0.9380 0.9360
5.564000 0.9360 0.9340 0.9340 0.9360 0.9380
5.598199 0.9380 0.9390 0.9410 0.9430 0.9430
5.632000 0.9450 0.9450 0.9460 0.9500 0.9510
5.666199 0.9510 0.9500 0.9500 0.9510 0.9510
5.700000 0.9530 0.9530 0.9530 0.9530 0.9530
5.734199 0.9530 0.9530 0.9530 0.9530 0.9510
5.769000 0.9510 0.9530 0.9530 0.9530 0.9530
5.803199 0.9530 0.9500 0.9510 0.9510 0.9510
5.837000 0.9530 0.9570 0.9580 0.9570 0.9570
5.871199 0.9570 0.9550 0.9550 0.9510 0.9460
5.906000 0.9460 0.9450 0.9450 0.9450 0.9450
5.940199 0.9450 0.9450 0.9450 0.9450 0.9430
5.974000 0.9430 0.9430 0.9430 0.9410 0.9430
6.008199 0.9410 0.9390 0.9390 0.9390 0.9390
6.042000 0.9380 0.9380 0.9360 0.9360 0.9360
6.076199 0.9340 0.9340 0.9330 0.9310 0.9310
6.111000 0.9290 0.9260 0.9240 0.9220 0.9210
6.145199 0.9190 0.9150 0.9150 0.9120 0.9090
6.179000 0.9070 0.9050 0.9020 0.8810 0.8760
6.213199 0.8690 0.8660 0.8550 0.8500 0.8400
6.247000 0.8350 0.8210 0.8110 0.7890 0.7800
6.281199 0.7580 0.7530 0.7470 0.7280 0.7230
6.316000 0.7160 0.7040 0.6990 0.6840 0.6770
6.350199 0.6460 0.6310 0.6240 0.6170 0.6080
6.384000 0.6000 0.5810 0.5620 0.5430 0.5280
6.418199 0.5210 0.5090 0.4950 0.4780 0.4680
6.452000 0.4540 0.4510 0.4440 0.4400 0.4350
6.486199 0.4300 0.4250 0.4200 0.4150 0.4040
6.521000 0.3890 0.3820 0.3730 0.3650 0.3560
6.555199 0.3430 0.3390 0.3370 0.3360 0.3320
6.589000 0.3250 0.3200 0.3000 0.2910 0.2840
6.623199 0.2760 0.2690 0.2640 0.2600 0.2590
6.658000 0.2550 0.2530 0.2530 0.2530 0.2520
6.692199 0.2520 0.2500 0.2500 0.2520 0.2570
6.726000 0.2640 0.2670 0.2690 0.2710 0.2720
6.760199 0.2810 0.2840 0.2880 0.2910 0.2930
6.794000 0.2980 0.2980 0.2980 0.2980 0.2980
6.828199 0.2930 0.2840 0.2770 0.2740 0.2720
6.863000 0.2670 0.2590 0.2530 0.2500 0.2480
6.897199 0.2460 0.2430 0.2410 0.2400 0.2410
6.931000 0.2450 0.2480 0.2600 0.2650 0.2710
6.965199 0.2790 0.2830 0.2980 0.3080 0.3170
6.999000 0.3270 0.3360 0.3430 0.3630 0.4390
7.033199 0.4470 0.4730 0.4800 0.5190 0.5300
7.068000 0.5400 0.5570 0.5720 0.6030 0.6220
7.102199 0.6240 0.6360 0.6410 0.6460 0.6510
7.136000 0.6560 0.6620 0.6670 0.6720 0.6770
7.170199 0.6820 0.6870 0.6920 0.6990 0.7040
7.204000 0.7100 0.7150 0.7200 0.7250 0.7300
7.238199 0.7350 0.7400 0.7460 0.7560 0.7610
7.273000 0.7630 0.7710 0.7750 0.7870 0.7920
7.307199 0.7970 0.8010 0.8020 0.8060 0.8110
7.341000 0.8140 0.8190 0.8250 0.8280 0.8310
7.375199 0.8350 0.8370 0.8400 0.8420 0.8420
7.410000 0.8450 0.8470 0.8490 0.8490 0.8500
7.444199 0.8520 0.8550 0.8570 0.8620 0.8640
7.478000 0.8670 0.8690 0.8690 0.8710 0.8730
7.512199 0.8740 0.8780 0.8810 0.8810 0.8810
7.546000 0.8810 0.8830 0.8810 0.8810 0.8830
7.580199 0.8850 0.8850 0.8850 0.8850 0.8850
7.615000 0.8850 0.8860 0.8880 0.8880 0.8880
7.649199 0.8900 0.8930 0.8950 0.8970 0.8980
7.683000 0.8980 0.9000 0.9000 0.9020 0.9020
7.717199 0.9020 0.9020 0.9020 0.9030 0.9030
7.751000 0.9030 0.9030 0.9030 0.9030 0.9030
7.785199 0.9050 0.9070 0.9090 0.9090 0.9100
7.820000 0.9090 0.9090 0.9100 0.9100 0.9100
7.854199 0.9120 0.9120 0.9120 0.9140 0.9140
7.888000 0.9140 0.9140 0.9140 0.9150 0.9150
7.922199 0.9150 0.9150 0.9150 0.9170 0.9190
7.956000 0.9190 0.9190 0.9190 0.9190 0.9190
7.990199 0.9170 0.9170 0.9170 0.9190 0.9190
8.025000 0.9210 0.9210 0.9210 0.9210 0.9210
8.059199 0.9210 0.9210 0.9210 0.9210 0.9210
8.093000 0.9210 0.9210 0.9210 0.9210 0.9220
8.127199 0.9220 0.9220 0.9220 0.9240 0.9240
8.162000 0.9260 0.9260 0.9260 0.9260 0.9270
8.196199 0.9270 0.9270 0.9290 0.9290 0.9270
8.230000 0.9290 0.9310 0.9310 0.9330 0.9310
8.264199 0.9310 0.9330 0.9330 0.9340 0.9340
8.298000 0.9340 0.9360 0.9360 0.9360 0.9360
8.332199 0.9360 0.9360 0.9360 0.9360 0.9360
8.367000 0.9360 0.9360 0.9360 0.9360 0.9360
8.401199 0.9360 0.9360 0.9360 0.9360 0.9360
8.435000 0.9380 0.9380 0.9380 0.9380 0.9380
8.469199 0.9380 0.9380 0.9380 0.9380 0.9380
8.503000 0.9360 0.9360 0.9360 0.9360 0.9340
8.537199 0.9340 0.9360 0.9360 0.9360 0.9380
8.572000 0.9380 0.9380 0.9390 0.9390 0.9410
8.606199 0.9390 0.9410 0.9410 0.9410 0.9410
8.640000 0.9410 0.9410 0.9430 0.9430 0.9450
8.674199 0.9450 0.9450 0.9450 0.9450 0.9450
8.709000 0.9450 0.9430 0.9430 0.9450 0.9460
8.743199 0.9460 0.9460 0.9460 0.9460 0.9460
8.777000 0.9460 0.9460 0.9460 0.9460 0.9460
8.811199 0.9460 0.9460 0.9460 0.9460 0.9460
8.845000 0.9460 0.9460 0.9460 0.9460 0.9460
8.879199 0.9460 0.9460 0.9460 0.9460 0.9460
8.914000 0.9460 0.9450 0.9450 0.9450 0.9460
8.948199 0.9450 0.9450 0.9450 0.9450 0.9450
8.982000 0.9450 0.9450 0.9460 0.9480 0.9500
9.016199 0.9500 0.9510 0.9510 0.9510 0.9530
9.050000 0.9530 0.9530 0.9530 0.9530 0.9530
9.084199 0.9530 0.9530 0.9530 0.9530 0.9510
9.119000 0.9510 0.9510 0.9500 0.9480 0.9460
9.153199 0.9460 0.9450 0.9410 0.9380 0.9360
9.187000 0.9360 0.9340 0.9340 0.9330 0.9330
9.221199 0.9330 0.9330 0.9330 0.9330 0.9330
9.255000 0.9330 0.9330 0.9330 0.9330 0.9330
9.289199 0.9330 0.9330 0.9330 0.9340 0.9380
9.324000 0.9380 0.9410 0.9430 0.9430 0.9430
9.358199 0.9430 0.9450 0.9450 0.9450 0.9460
9.392000 0.9460 0.9460 0.9460 0.9460 0.9460
9.426199 0.9460 0.9480 0.9460 0.9460 0.9460
9.461000 0.9460 0.9480 0.9500 0.9510 0.9510
9.495199 0.9510 0.9510 0.9530 0.9530 0.9530
9.529000 0.9530 0.9530 0.9530 0.9530 0.9530
9.563199 0.9530 0.9530 0.9530 0.9530 0.9530
9.597000 0.9550 0.9550 0.9550 0.9550 0.9550
9.631199 0.9570 0.9570 0.9570 0.9550 0.9570
9.666000 0.9570 0.9570 0.9570 0.9570 0.9570
9.700199 0.9570 0.9570 0.9570 0.9570 0.9580
9.734000 0.9580 0.9580 0.9580 0.9580 0.9580
9.768199 0.9580 0.9580 0.9580 0.9580 0.9580
9.802000 0.9600 0.9600 0.9600 0.9600 0.9600
9.836199 0.9600 0.9600 0.9600 0.9620 0.9620
9.871000 0.9620 0.9620 0.9620 0.9620 0.9630
9.905199 0.9630 0.9630 0.9630 0.9630 0.9630
9.939000 0.9630 0.9630 0.9630 0.9630 0.9630
9.973199 0.9630 0.9630 0.9630 0.9620 0.9620
10.007000 0.9620 0.9620 0.9630 0.9650 0.9650
10.041199 0.9630 0.9630 0.9650 0.9650 0.9630
10.076000 0.9630 0.9650 0.9650 0.9650 0.9650
10.110199 0.9650 0.9670 0.9670 0.9670 0.9670
10.144000 0.9670 0.9670 0.9670 0.9670 0.9670
10.178199 0.9670 0.9690 0.9700 0.9700 0.9720
10.213000 0.9720 0.9740 0.9740 0.9740 0.9740
10.247199 0.9740 0.9750 0.9750 0.9750 0.9750
10.281000 0.9770 0.9770 0.9770 0.9770 0.9770
10.315199 0.9790 0.9810 0.9790 0.9790 0.9790
10.349000 0.9790 0.9790 0.9790 0.9790 0.9810
10.383199 0.9810 0.9810 0.9810 0.9820 0.9820
10.418000 0.9820 0.9810 0.9810 0.9820 0.9820
10.452199 0.9810 0.9810 0.9820 0.9840 0.9840
10.486000 0.9840 0.9840 0.9840 0.9840 0.9820
10.520199 0.9820 0.9840 0.9840 0.9820 0.9820
10.554000 0.9820 0.9820 0.9820 0.9820 0.9820
10.588199 0.9840 0.9840 0.9810 0.9810 0.9820
10.623000 0.9820 0.9820 0.9820 0.9820 0.9820
10.657199 0.9820 0.9840 0.9840 0.9840 0.9840
10.691000 0.9840 0.9840 0.9840 0.9840 0.9840
10.725199 0.9820 0.9820 0.9820 0.9820 0.9820
10.759000 0.9820 0.9810 0.9810 0.9810 0.9820
10.793199 0.9810 0.9810 0.9810 0.9810 0.9810
10.828000 0.9810 0.9790 0.9790 0.9790 0.9790
10.862199 0.9790 0.9770 0.9770 0.9770 0.9770
10.896000 0.9770 0.9750 0.9770 0.9770 0.9790
10.930199 0.9770 0.9770 0.9770 0.9770 0.9770
10.965000 0.9770 0.9770 0.9790 0.9810 0.9790
10.999199 0.9790 0.9790 0.9790 0.9790 0.9790
11.033000 0.9790 0.9790 0.9770 0.9790 0.9790
11.067199 0.9770 0.9770 0.9770 0.9770 0.9790
11.101000 0.9790 0.9790 0.9790 0.9790 0.9790
11.135199 0.9790 0.9790 0.9770 0.9770 0.9770
11.170000 0.9770 0.9770 0.9790 0.9810 0.9810
11.204199 0.9810 0.9810 0.9820 0.9820 0.9820
11.238000 0.9810 0.9810 0.9790 0.9790 0.9770
11.272199 0.9770 0.9750 0.9750 0.9740 0.9740
11.306000 0.9720 0.9720 0.9690 0.9670 0.9670
11.340199 0.9630 0.9600 0.9570 0.9530 0.9510
11.375000 0.9450 0.9390 0.9310 0.9190 0.9070
11.409199 0.9020 0.8880 0.8810 0.8740 0.8620
11.443000 0.8500 0.8250 0.8070 0.7990 0.7820
11.477199 0.7750 0.7700 0.7590 0.7530 0.7490
11.511000 0.7440 0.7300 0.7220 0.7200 0.7160
11.545199 0.7150 0.7130 0.7110 0.7100 0.7100
11.580000 0.7100 0.7100 0.7130 0.7160 0.7200
11.614199 0.7230 0.7270 0.7340 0.7370 0.7400
11.648000 0.7530 0.7610 0.7650 0.7780 0.7820
11.682199 0.8130 0.8210 0.8300 0.8350 0.8500
11.717000 0.8610 0.8670 0.8730 0.8810 0.8880
11.751199 0.8930 0.8970 0.9020 0.9030 0.9050
11.785000 0.9100 0.9120 0.9140 0.9150 0.9150
11.819199 0.9170 0.9170 0.9240 0.9260 0.9260
11.853000 0.9270 0.9310 0.9330 0.9330 0.9330
11.887199 0.9340 0.9340 0.9360 0.9360 0.9380
11.922000 0.9430 0.9460 0.9510 0.9510 0.9530
11.956199 0.9550 0.9580 0.9620 0.9630 0.9630
11.990000 0.9650 0.9650 0.9650 0.9650 0.9670
12.024199 0.9670 0.9670 0.9670 0.9670 0.9690
12.058000 0.9690 0.9690 0.9690 0.9690 0.9690
12.092199 0.9700 0.9700 0.9700 0.9720 0.9720
12.127000 0.9720 0.9720 0.9720 0.9720 0.9740
12.161199 0.9740 0.9740 0.9740 0.9750 0.9750
12.195000 0.9750 0.9750 0.9770 0.9770 0.9770
12.229199 0.9770 0.9770 0.9770 0.9770 0.9770
12.264000 0.9770 0.9770 0.9770 0.9770 0.9770
12.298199 0.9770 0.9770 0.9770 0.9770 0.9770
12.332000 0.9770 0.9770 0.9770 0.9770 0.9770
12.366199 0.9750 0.9750 0.9740 0.9740 0.9750
12.400000 0.9750 0.9750 0.9750 0.9750 0.9750
12.434199 0.9740 0.9740 0.9740 0.9740 0.9720
12.469000 0.9720 0.9720 0.9720 0.9720 0.9720
12.503199 0.9720 0.9740 0.9740 0.9740 0.9740
12.537000 0.9740 0.9740 0.9740 0.9720 0.9700
12.571199 0.9700 0.9700 0.9690 0.9690 0.9670
12.605000 0.9670 0.9670 0.9670 0.9670 0.9690
12.639199 0.9690 0.9690 0.9690 0.9670 0.9670
12.674000 0.9670 0.9670 0.9670 0.9670 0.9670
12.708199 0.9670 0.9670 0.9670 0.9670 0.9670
12.742000 0.9650 0.9650 0.9630 0.9630 0.9620
12.776199 0.9600 0.9600 0.9620 0.9620 0.9620
12.810000 0.9600 0.9600 0.9600 0.9580 0.9600
12.844199 0.9600 0.9600 0.9580 0.9580 0.9580
12.879000 0.9580 0.9580 0.9580 0.9580 0.9570
12.913199 0.9570 0.9570 0.9570 0.9550 0.9550
12.947000 0.9550 0.9530 0.9510 0.9500 0.9480
12.981199 0.9480 0.9480 0.9460 0.9460 0.9450
13.016000 0.9430 0.9430 0.9410 0.9410 0.9390
13.050199 0.9390 0.9390 0.9390 0.9390 0.9380
13.084000 0.9380 0.9380 0.9380 0.9380 0.9360
13.118199 0.9360 0.9360 0.9360 0.9340 0.9340
13.152000 0.9330 0.9330 0.9310 0.9270 0.9260
13.186199 0.9260 0.9260 0.9240 0.9240 0.9240
13.221000 0.9240 0.9220 0.9220 0.9210 0.9210
13.255199 0.9170 0.9170 0.9150 0.9140 0.9140
13.289000 0.9120 0.9100 0.9070 0.9050 0.9050
13.323199 0.9050 0.9050 0.9050 0.9050 0.9050
13.357000 0.9030 0.9030 0.9050 0.9030 0.9030
13.391199 0.9020 0.9000 0.8980 0.8970 0.8950
13.426000 0.8950 0.8930 0.8930 0.8930 0.8910
13.460199 0.8900 0.8860 0.8860 0.8860 0.8850
13.494000 0.8810 0.8780 0.8780 0.8760 0.8760
13.528199 0.8760 0.8760 0.8740 0.8740 0.8740
13.562000 0.8730 0.8730 0.8730 0.8710 0.8710
13.596199 0.8710 0.8710 0.8710 0.8690 0.8690
13.631000 0.8670 0.8660 0.8660 0.8660 0.8660
13.665199 0.8660 0.8660 0.8640 0.8620 0.8610
13.699000 0.8570 0.8550 0.8550 0.8540 0.8540
13.733199 0.8550 0.8540 0.8540 0.8520 0.8520
13.768000 0.8500 0.8470 0.8470 0.8470 0.8450
13.802199 0.8450 0.8450 0.8430 0.8420 0.8400
13.836000 0.8370 0.8350 0.8350 0.8330 0.8310
13.870199 0.8260 0.8260 0.8260 0.8250 0.8250
13.904000 0.8250 0.8230 0.8230 0.8230 0.8230
13.938199 0.8210 0.8210 0.8210 0.8190 0.8190
13.973000 0.8180 0.8180 0.8160 0.8140 0.8130
14.007199 0.8110 0.8110 0.8090 0.8070 0.8040
14.041000 0.8060 0.8040 0.8040 0.8040 0.8040
14.075199 0.8040 0.8040 0.8020 0.8020 0.8020
14.109000 0.8010 0.8010 0.8010 0.7990 0.7950
14.143199 0.7950 0.7950 0.7920 0.7920 0.7920
14.178000 0.7900 0.7870 0.7850 0.7830 0.7830
14.212199 0.7820 0.7800 0.7800 0.7780 0.7780
14.246000 0.7770 0.7770 0.7750 0.7730 0.7710
14.280199 0.7710 0.7700 0.7660 0.7630 0.7580
14.314000 0.7560 0.7560 0.7560 0.7560 0.7560
14.348199 0.7540 0.7540 0.7540 0.7530 0.7530
14.383000 0.7530 0.7510 0.7510 0.7510 0.7490
14.417199 0.7470 0.7460 0.7460 0.7440 0.7440
14.451000 0.7420 0.7400 0.7390 0.7350 0.7350
14.485199 0.7340 0.7340 0.7320 0.7320 0.7300
14.520000 0.7300 0.7270 0.7250 0.7250 0.7230
14.554199 0.7220 0.7160 0.7160 0.7160 0.7150
14.588000 0.7130 0.7130 0.7150 0.7150 0.7150
14.622199 0.7150 0.7150 0.7130 0.7130 0.7130
14.656000 0.7110 0.7110 0.7060 0.7040 0.7040
14.690199 0.7040 0.7040 0.7030 0.7030 0.7030
14.725000 0.7030 0.7030 0.7010 0.6990 0.6990
14.759199 0.6980 0.6980 0.6960 0.6940 0.6910
14.793000 0.6910 0.6910 0.6890 0.6910 0.6910
14.827199 0.6940 0.6980 0.6990 0.6990 0.6990
14.861000 0.6990 0.6990 0.6980 0.6960 0.6940
14.895199 0.6920 0.6920 0.6890 0.6860 0.6800
14.930000 0.6790 0.6750 0.6750 0.6740 0.6740
14.964199 0.6740 0.6740 0.6740 0.6740 0.6740
14.998000 0.6750 0.6740 0.6740 0.6740 0.6740
15.032199 0.6740 0.6720 0.6720 0.6720 0.6720
15.067000 0.6700 0.6700 0.6700 0.6700 0.6700
15.101199 0.6700 0.6680 0.6680 0.6680 0.6680
15.135000 0.6670 0.6670 0.6670 0.6650 0.6650
15.169199 0.6650 0.6630 0.6630 0.6620 0.6620
15.203000 0.6600 0.6580 0.6560 0.6560 0.6560
15.237199 0.6560 0.6560 0.6550 0.6550 0.6560
15.272000 0.6560 0.6560 0.6560 0.6560 0.6580
15.306199 0.6580 0.6550 0.6550 0.6550 0.6550
15.340000 0.6550 0.6550 0.6530 0.6530 0.6530
15.374199 0.6530 0.6530 0.6530 0.6530 0.6510
15.408000 0.6510 0.6510 0.6510 0.6510 0.6500
15.442199 0.6500 0.6500 0.6500 0.6480 0.6480
15.477000 0.6500 0.6500 0.6500 0.6500 0.6480
15.511199 0.6480 0.6460 0.6460 0.6440 0.6440
15.545000 0.6440 0.6440 0.6460 0.6460 0.6460
15.579199 0.6460 0.6460 0.6460 0.6460 0.6460
15.613000 0.6440 0.6440 0.6460 0.6460 0.6440
15.647199 0.6440 0.6440 0.6460 0.6460 0.6480
15.682000 0.6480 0.6480 0.6500 0.6510 0.6500
15.716199 0.6500 0.6500 0.6500 0.6510 0.6510
15.750000 0.6530 0.6530 0.6550 0.6550 0.6550
15.784199 0.6550 0.6560 0.6560 0.6560 0.6560
15.819000 0.6560 0.6550 0.6550 0.6560 0.6560
15.853199 0.6560 0.6600 0.6620 0.6630 0.6630
15.887000 0.6650 0.6650 0.6670 0.6670 0.6670
15.921199 0.6670 0.6670 0.6680 0.6680 0.6680
15.955000 0.6700 0.6720 0.6720 0.6740 0.6740
15.989199 0.6750 0.6770 0.6720 0.6720 0.6740
16.024000 0.6740 0.6750
##END=
