##TITLE=CYCLOHEXANE, D12
##JCAMP-DX=4.24
##DATA TYPE=INFRARED SPECTRUM
##CLASS=COBLENTZ III
##ORIGIN=DOW CHEMICAL COMPANY
##OWNER=COBLENTZ SOC.
Collection (C) 2018 copyright by the U.S. Secretary of Commerce
on behalf of the United States of America. All rights reserved.
##DATE=1964/11/20
##MOLFORM=C6 D12
##SOURCE REFERENCE=COBLENTZ NO. 06735
##$NIST ID=B6006735
##$NIST SOURCE=COBLENTZ
##$NIST IMAGE=cob6735
##SPECTROMETER/DATA SYSTEM=DOW KBr FOREPRISM-GRATING
##INSTRUMENT PARAMETERS=BLAZED AT 3.5, 12.0, 20.0 MICRON AND CHANGED AT 5.0, 7.5, 14.9 MICRON
##STATE=SOLUTION (10% CCl4 FOR 3800-1330, 10% CS2 FOR 1330-460 CM^-^1)
##PATH LENGTH=0.012 CM, 0.012 CM
$$SPECTRAL CONTAMINATION DUE TO CS2 AROUND 650, 860 AND CCl4 AROUND 1550 CM^-^1
##SAMPLING PROCEDURE=TRANSMISSION
##RESOLUTION=2
##DATA PROCESSING=DIGITIZED BY COBLENTZ SOCIETY (BATCH I) FROM HARD COPY
##XUNITS=1/CM
##YUNITS=TRANSMITTANCE
##XLABEL=Wavenumbers (cm-1)
##YLABEL=% Transmission
##XFACTOR=1
##YFACTOR=1
##DELTAX=1
##FIRSTX=460
##LASTX=3800
##FIRSTY=0.8325
##MAXX=3800
##MINX=460
##MAXY=0.999
##MINY=0.0162
##NPOINTS=3341
##XYDATA=(X++(Y..Y))
460.000000 0.8325 0.8328 0.8335 0.8341 0.8347
465.000000 0.8354 0.8360 0.8366 0.8371 0.8378
470.000000 0.8384 0.8390 0.8396 0.8401 0.8403
475.000000 0.8406 0.8409 0.8412 0.8414 0.8417
480.000000 0.8423 0.8428 0.8436 0.8442 0.8448
485.000000 0.8455 0.8461 0.8468 0.8475 0.8484
490.000000 0.8493 0.8501 0.8505 0.8508 0.8512
495.000000 0.8516 0.8518 0.8523 0.8525 0.8525
500.000000 0.8525 0.8525 0.8527 0.8527 0.8528
505.000000 0.8534 0.8539 0.8544 0.8549 0.8554
510.000000 0.8560 0.8565 0.8575 0.8585 0.8595
515.000000 0.8605 0.8615 0.8625 0.8635 0.8645
520.000000 0.8655 0.8665 0.8677 0.8690 0.8702
525.000000 0.8715 0.8727 0.8740 0.8752 0.8765
530.000000 0.8777 0.8790 0.8802 0.8813 0.8821
535.000000 0.8832 0.8841 0.8851 0.8860 0.8870
540.000000 0.8878 0.8889 0.8898 0.8908 0.8918
545.000000 0.8928 0.8938 0.8948 0.8958 0.8968
550.000000 0.8978 0.8988 0.8997 0.9006 0.9015
555.000000 0.9024 0.9021 0.9042 0.9051 0.9060
560.000000 0.9068 0.9078 0.9086 0.9092 0.9097
565.000000 0.9103 0.9109 0.9115 0.9120 0.9125
570.000000 0.9132 0.9137 0.9143 0.9151 0.9158
575.000000 0.9165 0.9173 0.9180 0.9187 0.9194
580.000000 0.9202 0.9209 0.9216 0.9223 0.9227
585.000000 0.9227 0.9227 0.9204 0.9163 0.9102
590.000000 0.9061 0.9162 0.9262 0.9289 0.9295
595.000000 0.9301 0.9305 0.9308 0.9310 0.9315
600.000000 0.9321 0.9325 0.9327 0.9330 0.9333
605.000000 0.9336 0.9336 0.9331 0.9316 0.9304
610.000000 0.9293 0.9308 0.9331 0.9360 0.9366
615.000000 0.9370 0.9377 0.9382 0.9387 0.9393
620.000000 0.9398 0.9402 0.9424 0.9405 0.9402
625.000000 0.9399 0.9397 0.9391 0.9383 0.9375
630.000000 0.9367 0.9359 0.9351 0.9336 0.9320
635.000000 0.9305 0.9290 0.9274 0.9256 0.9237
640.000000 0.9217 0.9197 0.9178 0.9162 0.9145
645.000000 0.9128 0.9111 0.9105 0.9101 0.9097
650.000000 0.9093 0.9100 0.9085 0.9116 0.9125
655.000000 0.9139 0.9153 0.9171 0.9191 0.9211
660.000000 0.9238 0.9275 0.9311 0.9336 0.9359
665.000000 0.9382 0.9393 0.9404 0.9432 0.9350
670.000000 0.9301 0.9255 0.9218 0.9182 0.9146
675.000000 0.9114 0.9081 0.9046 0.9009 0.8971
680.000000 0.8934 0.8890 0.8732 0.8135 0.7539
685.000000 0.6942 0.6346 0.5750 0.5560 0.5581
690.000000 0.7007 0.8064 0.8481 0.8568 0.8665
695.000000 0.8753 0.8825 0.8896 0.8959 0.9015
700.000000 0.9054 0.9094 0.9133 0.9161 0.9175
705.000000 0.9190 0.9197 0.9197 0.9209 0.9181
710.000000 0.9159 0.9128 0.9082 0.9028 0.8971
715.000000 0.8913 0.8631 0.8331 0.8032 0.7733
720.000000 0.7434 0.7389 0.7397 0.8046 0.8470
725.000000 0.8893 0.9002 0.9094 0.9162 0.9207
730.000000 0.9252 0.9289 0.9318 0.9349 0.9375
735.000000 0.9397 0.9418 0.9439 0.9457 0.9471
740.000000 0.9485 0.9498 0.9507 0.9509 0.9512
745.000000 0.9512 0.9512 0.9511 0.9510 0.9510
750.000000 0.9509 0.9508 0.9507 0.9506 0.9504
755.000000 0.9502 0.9499 0.9497 0.9495 0.9556
760.000000 0.9490 0.9488 0.9484 0.9480 0.9475
765.000000 0.9471 0.9466 0.9462 0.9457 0.9447
770.000000 0.9436 0.9425 0.9416 0.9405 0.9392
775.000000 0.9375 0.9360 0.9344 0.9328 0.9312
780.000000 0.9296 0.9278 0.9257 0.9234 0.9211
785.000000 0.9188 0.9165 0.9137 0.9109 0.9081
790.000000 0.9074 0.9048 0.9067 0.9067 0.9074
795.000000 0.9081 0.9087 0.9094 0.9110 0.9128
800.000000 0.9151 0.9185 0.9220 0.9260 0.9306
805.000000 0.9354 0.9402 0.9421 0.9440 0.9454
810.000000 0.9467 0.9478 0.9490 0.9501 0.9512
815.000000 0.9523 0.9534 0.9544 0.9555 0.9567
820.000000 0.9580 0.9592 0.9605 0.9609 0.9612
825.000000 0.9645 0.9618 0.9618 0.9618 0.9617
830.000000 0.9610 0.9596 0.9582 0.9562 0.9525
835.000000 0.9490 0.9455 0.9416 0.9366 0.9317
840.000000 0.9268 0.9210 0.9143 0.9075 0.9010
845.000000 0.8945 0.8880 0.8816 0.8751 0.8649
850.000000 0.8542 0.8446 0.8350 0.8271 0.8199
855.000000 0.8128 0.8092 0.8056 0.8056 0.8055
860.000000 0.8072 0.8096 0.8118 0.8149 0.8181
865.000000 0.8212 0.8244 0.8275 0.8307 0.8349
870.000000 0.8391 0.8433 0.8477 0.8527 0.8577
875.000000 0.8627 0.8675 0.8721 0.8767 0.8813
880.000000 0.8859 0.8906 0.8953 0.8999 0.9046
885.000000 0.9105 0.9166 0.9227 0.9261 0.9295
890.000000 0.9328 0.9360 0.9386 0.9411 0.9428
895.000000 0.9435 0.9441 0.9437 0.9428 0.9423
900.000000 0.9409 0.9385 0.9354 0.9323 0.9278
905.000000 0.9216 0.9154 0.9006 0.8859 0.8349
910.000000 0.7725 0.7101 0.6478 0.5854 0.5230
915.000000 0.4489 0.4512 0.4757 0.5673 0.6588
920.000000 0.7503 0.8418 0.8778 0.8837 0.8865
925.000000 0.8888 0.8903 0.8915 0.8925 0.8935
930.000000 0.8944 0.8952 0.8961 0.8968 0.8975
935.000000 0.8983 0.8998 0.9018 0.9041 0.9064
940.000000 0.9087 0.9109 0.9137 0.9171 0.9207
945.000000 0.9239 0.9271 0.9302 0.9334 0.9363
950.000000 0.9392 0.9421 0.9435 0.9449 0.9457
955.000000 0.9461 0.9465 0.9468 0.9468 0.9463
960.000000 0.9513 0.9451 0.9440 0.9425 0.9404
965.000000 0.9381 0.9357 0.9334 0.9312 0.9289
970.000000 0.9257 0.9221 0.9185 0.9143 0.9095
975.000000 0.9037 0.8975 0.8883 0.8785 0.8694
980.000000 0.8571 0.8283 0.7898 0.7514 0.7128
985.000000 0.6744 0.6331 0.6243 0.6219 0.6219
990.000000 0.6309 0.7280 0.8153 0.8301 0.8409
995.000000 0.8493 0.8565 0.8636 0.8711 0.8787
1000.000000 0.8881 0.8983 0.9099 0.9163 0.9223
1005.000000 0.9273 0.9316 0.9346 0.9368 0.9387
1010.000000 0.9404 0.9415 0.9423 0.9431 0.9439
1015.000000 0.9445 0.9450 0.9456 0.9462 0.9467
1020.000000 0.9471 0.9475 0.9478 0.9483 0.9487
1025.000000 0.9518 0.9495 0.9498 0.9502 0.9505
1030.000000 0.9509 0.9512 0.9513 0.9514 0.9515
1035.000000 0.9512 0.9507 0.9501 0.9496 0.9490
1040.000000 0.9478 0.9468 0.9458 0.9447 0.9428
1045.000000 0.9408 0.9385 0.9355 0.9324 0.9293
1050.000000 0.9262 0.9232 0.9201 0.9170 0.9135
1055.000000 0.9099 0.9063 0.9028 0.8982 0.8934
1060.000000 0.8885 0.8828 0.8768 0.8707 0.8632
1065.000000 0.8518 0.8249 0.7980 0.7710 0.7634
1070.000000 0.7603 0.8258 0.8258 0.8252 0.8295
1075.000000 0.8193 0.8101 0.7989 0.7890 0.7425
1080.000000 0.6711 0.5996 0.5281 0.4566 0.3582
1085.000000 0.3592 0.4251 0.5033 0.5816 0.6599
1090.000000 0.7382 0.8108 0.8268 0.8388 0.8557
1095.000000 0.8685 0.8749 0.8806 0.8855 0.8900
1100.000000 0.8944 0.8971 0.9000 0.9028 0.9044
1105.000000 0.9058 0.9071 0.9086 0.9101 0.9113
1110.000000 0.9124 0.9135 0.9145 0.9156 0.9168
1115.000000 0.9181 0.9194 0.9215 0.9240 0.9264
1120.000000 0.9288 0.9318 0.9350 0.9382 0.9412
1125.000000 0.9441 0.9468 0.9493 0.9515 0.9538
1130.000000 0.9552 0.9563 0.9573 0.9584 0.9590
1135.000000 0.9594 0.9620 0.9602 0.9603 0.9603
1140.000000 0.9594 0.9584 0.9570 0.9551 0.9533
1145.000000 0.9509 0.9471 0.9411 0.9308 0.9198
1150.000000 0.9095 0.8996 0.8884 0.8761 0.8638
1155.000000 0.8455 0.8068 0.7682 0.7295 0.6908
1160.000000 0.6746 0.7235 0.6750 0.8839 0.8967
1165.000000 0.9056 0.9144 0.9243 0.9345 0.9428
1170.000000 0.9506 0.9558 0.9601 0.9625 0.9640
1175.000000 0.9654 0.9654 0.9655 0.9651 0.9650
1180.000000 0.9666 0.9682 0.9706 0.9733 0.9762
1185.000000 0.9787 0.9802 0.9818 0.9818 0.9820
1190.000000 0.9823 0.9823 0.9818 0.9812 0.9805
1195.000000 0.9798 0.9790 0.9780 0.9767 0.9755
1200.000000 0.9742 0.9728 0.9716 0.9704 0.9691
1205.000000 0.9678 0.9666 0.9654 0.9642 0.9635
1210.000000 0.9634 0.9623 0.9659 0.9678 0.9704
1215.000000 0.9728 0.9749 0.9771 0.9793 0.9814
1220.000000 0.9830 0.9846 0.9862 0.9877 0.9889
1225.000000 0.9901 0.9913 0.9924 0.9934 0.9944
1230.000000 0.9954 0.9959 0.9961 0.9963 0.9964
1235.000000 0.9959 0.9966 0.9961 0.9956 0.9951
1240.000000 0.9945 0.9936 0.9927 0.9918 0.9910
1245.000000 0.9901 0.9892 0.9881 0.9870 0.9859
1250.000000 0.9848 0.9835 0.9821 0.9823 0.9825
1255.000000 0.9827 0.9828 0.9831 0.9833 0.9835
1260.000000 0.9837 0.9839 0.9841 0.9843 0.9845
1265.000000 0.9847 0.9849 0.9851 0.9853 0.9855
1270.000000 0.9857 0.9859 0.9861 0.9863 0.9865
1275.000000 0.9865 0.9864 0.9864 0.9864 0.9849
1280.000000 0.9844 0.9840 0.9835 0.9830 0.9823
1285.000000 0.9816 0.9809 0.9800 0.9792 0.9784
1290.000000 0.9775 0.9767 0.9759 0.9751 0.9738
1295.000000 0.9725 0.9713 0.9695 0.9674 0.9653
1300.000000 0.9628 0.9616 0.9613 0.9613 0.9621
1305.000000 0.9633 0.9648 0.9666 0.9685 0.9709
1310.000000 0.9739 0.9766 0.9787 0.9794 0.9800
1315.000000 0.9800 0.9800 0.9800 0.9798 0.9796
1320.000000 0.9794 0.9792 0.9792 0.9792 0.9793
1325.000000 0.9794 0.9799 0.9806 0.9813 0.9820
1330.000000 0.9832 0.9843 0.9848 0.9853 0.9857
1335.000000 0.9861 0.9860 0.9860 0.9859 0.9858
1340.000000 0.9856 0.9851 0.9846 0.9841 0.9836
1345.000000 0.9828 0.9820 0.9812 0.9803 0.9794
1350.000000 0.9786 0.9777 0.9768 0.9760 0.9757
1355.000000 0.9755 0.9754 0.9754 0.9760 0.9774
1360.000000 0.9788 0.9800 0.9811 0.9823 0.9817
1365.000000 0.9811 0.9804 0.9796 0.9788 0.9780
1370.000000 0.9771 0.9762 0.9752 0.9742 0.9730
1375.000000 0.9714 0.9698 0.9682 0.9665 0.9647
1380.000000 0.9607 0.9568 0.9536 0.9538 0.9542
1385.000000 0.9549 0.9558 0.9578 0.9601 0.9621
1390.000000 0.9647 0.9677 0.9708 0.9739 0.9760
1395.000000 0.9764 0.9764 0.9759 0.9749 0.9738
1400.000000 0.9728 0.9720 0.9712 0.9703 0.9695
1405.000000 0.9684 0.9671 0.9660 0.9648 0.9645
1410.000000 0.9651 0.9661 0.9668 0.9675 0.9675
1415.000000 0.9675 0.9675 0.9675 0.9675 0.9675
1420.000000 0.9674 0.9671 0.9670 0.9668 0.9665
1425.000000 0.9662 0.9657 0.9653 0.9649 0.9644
1430.000000 0.9638 0.9632 0.9627 0.9621 0.9615
1435.000000 0.9609 0.9605 0.9602 0.9599 0.9596
1440.000000 0.9593 0.9591 0.9589 0.9586 0.9584
1445.000000 0.9582 0.9578 0.9577 0.9574 0.9571
1450.000000 0.9568 0.9562 0.9557 0.9551 0.9546
1455.000000 0.9541 0.9536 0.9531 0.9527 0.9524
1460.000000 0.9520 0.9520 0.9520 0.9521 0.9521
1465.000000 0.9524 0.9525 0.9528 0.9530 0.9530
1470.000000 0.9524 0.9516 0.9500 0.9485 0.9470
1475.000000 0.9452 0.9427 0.9398 0.9368 0.9339
1480.000000 0.9301 0.9259 0.9218 0.9178 0.9138
1485.000000 0.9098 0.9058 0.9016 0.8967 0.8918
1490.000000 0.8863 0.8802 0.8742 0.8696 0.8650
1495.000000 0.8604 0.8558 0.8508 0.8457 0.8405
1500.000000 0.8354 0.8303 0.8251 0.8200 0.8143
1505.000000 0.8078 0.7984 0.7925 0.7867 0.7808
1510.000000 0.7749 0.7691 0.7633 0.7565 0.7480
1515.000000 0.7403 0.7340 0.7281 0.7218 0.7151
1520.000000 0.7068 0.6988 0.6885 0.6787 0.6707
1525.000000 0.6628 0.6558 0.6487 0.6417 0.6333
1530.000000 0.6246 0.6160 0.6055 0.5946 0.5855
1535.000000 0.5773 0.5691 0.5602 0.5498 0.5394
1540.000000 0.5295 0.5205 0.5118 0.5049 0.4981
1545.000000 0.4929 0.4878 0.4826 0.4775 0.4739
1550.000000 0.4712 0.4702 0.4699 0.4708 0.4738
1555.000000 0.4799 0.4871 0.4983 0.5095 0.5207
1560.000000 0.5319 0.5431 0.5543 0.5655 0.5767
1565.000000 0.5879 0.5991 0.6104 0.6241 0.6359
1570.000000 0.6425 0.6474 0.6494 0.6514 0.6531
1575.000000 0.6540 0.6549 0.6558 0.6569 0.6585
1580.000000 0.6599 0.6618 0.6647 0.6674 0.6708
1585.000000 0.6747 0.6808 0.6880 0.6965 0.7051
1590.000000 0.7142 0.7233 0.7375 0.7508 0.7605
1595.000000 0.7701 0.7817 0.7936 0.8061 0.8240
1600.000000 0.8380 0.8485 0.8560 0.8634 0.8702
1605.000000 0.8763 0.8823 0.8873 0.8921 0.8971
1610.000000 0.9030 0.9090 0.9156 0.9204 0.9243
1615.000000 0.9275 0.9295 0.9315 0.9334 0.9348
1620.000000 0.9361 0.9375 0.9389 0.9411 0.9432
1625.000000 0.9455 0.9485 0.9516 0.9546 0.9574
1630.000000 0.9598 0.9621 0.9645 0.9668 0.9693
1635.000000 0.9711 0.9725 0.9742 0.9758 0.9773
1640.000000 0.9783 0.9794 0.9797 0.9800 0.9803
1645.000000 0.9806 0.9808 0.9811 0.9814 0.9817
1650.000000 0.9820 0.9820 0.9818 0.9818 0.9818
1655.000000 0.9817 0.9816 0.9816 0.9815 0.9814
1660.000000 0.9814 0.9812 0.9809 0.9805 0.9802
1665.000000 0.9800 0.9798 0.9796 0.9794 0.9792
1670.000000 0.9790 0.9788 0.9786 0.9784 0.9782
1675.000000 0.9780 0.9778 0.9775 0.9771 0.9768
1680.000000 0.9764 0.9761 0.9758 0.9752 0.9746
1685.000000 0.9741 0.9735 0.9728 0.9724 0.9718
1690.000000 0.9713 0.9708 0.9703 0.9699 0.9694
1695.000000 0.9689 0.9684 0.9680 0.9678 0.9678
1700.000000 0.9680 0.9685 0.9688 0.9690 0.9692
1705.000000 0.9692 0.9692 0.9691 0.9689 0.9688
1710.000000 0.9687 0.9685 0.9684 0.9683 0.9687
1715.000000 0.9696 0.9706 0.9714 0.9721 0.9728
1720.000000 0.9728 0.9728 0.9718 0.9710 0.9700
1725.000000 0.9691 0.9683 0.9681 0.9678 0.9678
1730.000000 0.9678 0.9678 0.9680 0.9681 0.9683
1735.000000 0.9685 0.9688 0.9691 0.9694 0.9697
1740.000000 0.9698 0.9699 0.9700 0.9701 0.9703
1745.000000 0.9704 0.9705 0.9705 0.9705 0.9705
1750.000000 0.9704 0.9704 0.9704 0.9703 0.9703
1755.000000 0.9703 0.9703 0.9703 0.9703 0.9703
1760.000000 0.9703 0.9703 0.9707 0.9711 0.9715
1765.000000 0.9720 0.9724 0.9728 0.9733 0.9738
1770.000000 0.9743 0.9749 0.9755 0.9755 0.9750
1775.000000 0.9745 0.9740 0.9732 0.9721 0.9710
1780.000000 0.9699 0.9688 0.9677 0.9661 0.9646
1785.000000 0.9631 0.9615 0.9600 0.9587 0.9577
1790.000000 0.9566 0.9581 0.9603 0.9624 0.9632
1795.000000 0.9639 0.9646 0.9647 0.9644 0.9644
1800.000000 0.9643 0.9642 0.9642 0.9641 0.9641
1805.000000 0.9641 0.9641 0.9641 0.9641 0.9642
1810.000000 0.9642 0.9642 0.9642 0.9642 0.9642
1815.000000 0.9642 0.9642 0.9642 0.9642 0.9642
1820.000000 0.9641 0.9641 0.9640 0.9640 0.9639
1825.000000 0.9639 0.9638 0.9637 0.9637 0.9636
1830.000000 0.9636 0.9635 0.9634 0.9632 0.9631
1835.000000 0.9628 0.9628 0.9627 0.9625 0.9624
1840.000000 0.9621 0.9618 0.9614 0.9611 0.9608
1845.000000 0.9605 0.9601 0.9598 0.9594 0.9588
1850.000000 0.9581 0.9574 0.9568 0.9561 0.9554
1855.000000 0.9549 0.9544 0.9538 0.9533 0.9532
1860.000000 0.9532 0.9538 0.9544 0.9551 0.9558
1865.000000 0.9565 0.9571 0.9578 0.9578 0.9574
1870.000000 0.9568 0.9565 0.9554 0.9544 0.9533
1875.000000 0.9523 0.9514 0.9505 0.9503 0.9513
1880.000000 0.9524 0.9539 0.9553 0.9565 0.9559
1885.000000 0.9552 0.9546 0.9520 0.9493 0.9466
1890.000000 0.9434 0.9400 0.9373 0.9361 0.9380
1895.000000 0.9400 0.9421 0.9443 0.9465 0.9491
1900.000000 0.9517 0.9544 0.9570 0.9586 0.9591
1905.000000 0.9594 0.9597 0.9597 0.9597 0.9597
1910.000000 0.9597 0.9595 0.9591 0.9586 0.9581
1915.000000 0.9575 0.9571 0.9565 0.9559 0.9553
1920.000000 0.9547 0.9541 0.9535 0.9530 0.9525
1925.000000 0.9520 0.9515 0.9509 0.9504 0.9513
1930.000000 0.9521 0.9531 0.9539 0.9544 0.9549
1935.000000 0.9532 0.9503 0.9475 0.9444 0.9404
1940.000000 0.9363 0.9325 0.9267 0.9299 0.9328
1945.000000 0.9358 0.9390 0.9421 0.9455 0.9488
1950.000000 0.9517 0.9537 0.9557 0.9575 0.9595
1955.000000 0.9608 0.9621 0.9630 0.9630 0.9628
1960.000000 0.9628 0.9628 0.9628 0.9625 0.9617
1965.000000 0.9610 0.9602 0.9561 0.9586 0.9578
1970.000000 0.9566 0.9551 0.9537 0.9521 0.9506
1975.000000 0.9484 0.9462 0.9441 0.9418 0.9398
1980.000000 0.9360 0.9321 0.9284 0.9238 0.9184
1985.000000 0.9130 0.9075 0.9023 0.8968 0.8861
1990.000000 0.8744 0.8625 0.8509 0.8392 0.8273
1995.000000 0.8168 0.8071 0.8076 0.8067 0.8069
2000.000000 0.8467 0.8925 0.9385 0.9416 0.9447
2005.000000 0.9475 0.9506 0.9553 0.9601 0.9668
2010.000000 0.9737 0.9798 0.9859 0.9889 0.9918
2015.000000 0.9939 0.9960 0.9971 0.9982 0.9986
2020.000000 0.9990 0.9990 0.9990 0.9986 0.9982
2025.000000 0.9977 0.9971 0.9962 0.9953 0.9942
2030.000000 0.9931 0.9918 0.9908 0.9896 0.9884
2035.000000 0.9871 0.9861 0.9846 0.9831 0.9812
2040.000000 0.9794 0.9775 0.9757 0.9724 0.9692
2045.000000 0.9657 0.9621 0.9584 0.9547 0.9500
2050.000000 0.9454 0.9292 0.9131 0.8970 0.8809
2055.000000 0.8647 0.8486 0.8378 0.8271 0.8237
2060.000000 0.8202 0.8193 0.8185 0.8214 0.8243
2065.000000 0.8273 0.8304 0.8330 0.8357 0.8374
2070.000000 0.8392 0.8382 0.8371 0.8275 0.8178
2075.000000 0.8000 0.7821 0.7721 0.7621 0.7532
2080.000000 0.7443 0.7357 0.7271 0.7201 0.7132
2085.000000 0.6108 0.5085 0.4868 0.4651 0.4415
2090.000000 0.4179 0.3732 0.3284 0.2557 0.1829
2095.000000 0.1168 0.0508 0.0425 0.0342 0.0328
2100.000000 0.0289 0.0317 0.0321 0.0331 0.0341
2105.000000 0.0353 0.0366 0.0366 0.0366 0.0460
2110.000000 0.0553 0.0788 0.1022 0.1258 0.1494
2115.000000 0.1729 0.1964 0.2199 0.2434 0.2651
2120.000000 0.2868 0.2907 0.2946 0.2941 0.2935
2125.000000 0.2863 0.2791 0.2876 0.2961 0.3202
2130.000000 0.3443 0.3414 0.3388 0.3275 0.3163
2135.000000 0.3050 0.2938 0.3012 0.3087 0.3289
2140.000000 0.3491 0.3693 0.3895 0.3929 0.3964
2145.000000 0.3727 0.3491 0.3255 0.3019 0.3289
2150.000000 0.3559 0.4515 0.5471 0.5493 0.5515
2155.000000 0.5541 0.5567 0.5574 0.5546 0.5349
2160.000000 0.5117 0.4884 0.4651 0.4418 0.4186
2165.000000 0.3953 0.3721 0.3488 0.3255 0.3022
2170.000000 0.2790 0.2557 0.2324 0.2108 0.1858
2175.000000 0.1991 0.2090 0.2409 0.2729 0.2999
2180.000000 0.3270 0.3242 0.3276 0.2947 0.2680
2185.000000 0.2442 0.2204 0.2183 0.2163 0.2130
2190.000000 0.2097 0.1160 0.0224 0.0200 0.0176
2195.000000 0.0173 0.0202 0.0184 0.0199 0.0230
2200.000000 0.0261 0.0292 0.0324 0.0339 0.0340
2205.000000 0.0340 0.0326 0.0297 0.0359 0.0240
2210.000000 0.0211 0.0199 0.0185 0.0210 0.0162
2215.000000 0.0280 0.0323 0.0367 0.0414 0.0463
2220.000000 0.0513 0.0659 0.0806 0.1182 0.1558
2225.000000 0.1934 0.2311 0.2687 0.3063 0.3439
2230.000000 0.3814 0.4191 0.4567 0.4873 0.5179
2235.000000 0.5186 0.5194 0.5199 0.5204 0.5212
2240.000000 0.5220 0.5234 0.5249 0.5476 0.5703
2245.000000 0.6160 0.6618 0.7076 0.7536 0.7994
2250.000000 0.8453 0.8615 0.8778 0.8845 0.8912
2255.000000 0.8936 0.8961 0.8971 0.8984 0.8989
2260.000000 0.8995 0.8997 0.9000 0.9001 0.9000
2265.000000 0.8999 0.8996 0.8986 0.8975 0.8963
2270.000000 0.8951 0.8934 0.8918 0.8897 0.8877
2275.000000 0.8850 0.8824 0.8721 0.8618 0.8470
2280.000000 0.8321 0.8171 0.8022 0.7875 0.7728
2285.000000 0.7712 0.7699 0.7695 0.7703 0.8270
2290.000000 0.8850 0.9056 0.9262 0.9289 0.9317
2295.000000 0.9342 0.9368 0.9391 0.9415 0.9435
2300.000000 0.9455 0.9474 0.9494 0.9513 0.9532
2305.000000 0.9552 0.9571 0.9592 0.9612 0.9627
2310.000000 0.9643 0.9656 0.9668 0.9682 0.9695
2315.000000 0.9707 0.9720 0.9731 0.9743 0.9754
2320.000000 0.9765 0.9775 0.9786 0.9794 0.9802
2325.000000 0.9800 0.9798 0.9792 0.9786 0.9775
2330.000000 0.9764 0.9749 0.9827 0.9715 0.9695
2335.000000 0.9678 0.9663 0.9671 0.9681 0.9691
2340.000000 0.9701 0.9707 0.9714 0.9704 0.9694
2345.000000 0.9680 0.9666 0.9651 0.9637 0.9620
2350.000000 0.9603 0.9582 0.9562 0.9528 0.9497
2355.000000 0.9461 0.9425 0.9397 0.9368 0.9349
2360.000000 0.9330 0.9311 0.9292 0.9280 0.9268
2365.000000 0.9263 0.9262 0.9263 0.9264 0.9278
2370.000000 0.9218 0.9318 0.9342 0.9374 0.9406
2375.000000 0.9446 0.9486 0.9521 0.9556 0.9573
2380.000000 0.9591 0.9591 0.9591 0.9588 0.9585
2385.000000 0.9573 0.9561 0.9548 0.9603 0.9523
2390.000000 0.9510 0.9497 0.9485 0.9471 0.9459
2395.000000 0.9446 0.9434 0.9420 0.9407 0.9394
2400.000000 0.9381 0.9380 0.9381 0.9381 0.9384
2405.000000 0.9409 0.9361 0.9481 0.9528 0.9575
2410.000000 0.9621 0.9668 0.9717 0.9759 0.9801
2415.000000 0.9812 0.9823 0.9835 0.9847 0.9851
2420.000000 0.9856 0.9858 0.9861 0.9862 0.9863
2425.000000 0.9863 0.9864 0.9864 0.9865 0.9865
2430.000000 0.9865 0.9865 0.9865 0.9865 0.9866
2435.000000 0.9868 0.9870 0.9871 0.9873 0.9873
2440.000000 0.9874 0.9874 0.9874 0.9874 0.9874
2445.000000 0.9873 0.9873 0.9871 0.9870 0.9868
2450.000000 0.9868 0.9866 0.9865 0.9863 0.9862
2455.000000 0.9862 0.9862 0.9862 0.9862 0.9862
2460.000000 0.9862 0.9862 0.9862 0.9862 0.9862
2465.000000 0.9862 0.9862 0.9862 0.9863 0.9863
2470.000000 0.9863 0.9863 0.9863 0.9863 0.9863
2475.000000 0.9863 0.9863 0.9863 0.9863 0.9863
2480.000000 0.9863 0.9863 0.9863 0.9863 0.9863
2485.000000 0.9862 0.9862 0.9861 0.9861 0.9860
2490.000000 0.9860 0.9860 0.9861 0.9861 0.9862
2495.000000 0.9863 0.9864 0.9864 0.9865 0.9866
2500.000000 0.9867 0.9867 0.9868 0.9868 0.9870
2505.000000 0.9870 0.9871 0.9871 0.9873 0.9873
2510.000000 0.9874 0.9875 0.9875 0.9875 0.9875
2515.000000 0.9875 0.9875 0.9875 0.9875 0.9875
2520.000000 0.9875 0.9875 0.9875 0.9874 0.9874
2525.000000 0.9873 0.9873 0.9871 0.9868 0.9867
2530.000000 0.9865 0.9863 0.9861 0.9859 0.9857
2535.000000 0.9854 0.9852 0.9849 0.9846 0.9843
2540.000000 0.9840 0.9837 0.9834 0.9831 0.9828
2545.000000 0.9825 0.9821 0.9818 0.9816 0.9813
2550.000000 0.9810 0.9807 0.9804 0.9801 0.9799
2555.000000 0.9796 0.9793 0.9790 0.9787 0.9784
2560.000000 0.9781 0.9778 0.9775 0.9774 0.9774
2565.000000 0.9775 0.9778 0.9780 0.9782 0.9784
2570.000000 0.9786 0.9788 0.9790 0.9790 0.9791
2575.000000 0.9792 0.9793 0.9790 0.9788 0.9785
2580.000000 0.9785 0.9785 0.9785 0.9787 0.9789
2585.000000 0.9791 0.9793 0.9795 0.9798 0.9800
2590.000000 0.9802 0.9808 0.9814 0.9820 0.9825
2595.000000 0.9831 0.9837 0.9842 0.9848 0.9853
2600.000000 0.9859 0.9865 0.9871 0.9875 0.9878
2605.000000 0.9880 0.9882 0.9884 0.9886 0.9886
2610.000000 0.9886 0.9886 0.9887 0.9887 0.9888
2615.000000 0.9888 0.9888 0.9888 0.9889 0.9889
2620.000000 0.9890 0.9890 0.9891 0.9891 0.9892
2625.000000 0.9892 0.9893 0.9893 0.9894 0.9894
2630.000000 0.9894 0.9894 0.9894 0.9894 0.9894
2635.000000 0.9894 0.9894 0.9894 0.9894 0.9893
2640.000000 0.9893 0.9893 0.9893 0.9893 0.9893
2645.000000 0.9892 0.9892 0.9892 0.9892 0.9892
2650.000000 0.9892 0.9892 0.9892 0.9892 0.9893
2655.000000 0.9893 0.9893 0.9893 0.9894 0.9894
2660.000000 0.9894 0.9894 0.9895 0.9895 0.9895
2665.000000 0.9895 0.9896 0.9896 0.9896 0.9896
2670.000000 0.9896 0.9896 0.9896 0.9895 0.9895
2675.000000 0.9895 0.9895 0.9894 0.9894 0.9894
2680.000000 0.9894 0.9893 0.9893 0.9891 0.9889
2685.000000 0.9887 0.9885 0.9883 0.9881 0.9878
2690.000000 0.9875 0.9873 0.9870 0.9867 0.9865
2695.000000 0.9862 0.9860 0.9857 0.9854 0.9851
2700.000000 0.9849 0.9846 0.9843 0.9840 0.9838
2705.000000 0.9834 0.9831 0.9828 0.9825 0.9821
2710.000000 0.9818 0.9814 0.9811 0.9810 0.9810
2715.000000 0.9811 0.9813 0.9815 0.9817 0.9818
2720.000000 0.9820 0.9821 0.9823 0.9825 0.9827
2725.000000 0.9828 0.9830 0.9830 0.9831 0.9832
2730.000000 0.9833 0.9834 0.9835 0.9836 0.9837
2735.000000 0.9838 0.9839 0.9840 0.9841 0.9841
2740.000000 0.9842 0.9843 0.9844 0.9845 0.9846
2745.000000 0.9847 0.9848 0.9849 0.9850 0.9850
2750.000000 0.9851 0.9851 0.9851 0.9851 0.9851
2755.000000 0.9851 0.9851 0.9851 0.9851 0.9851
2760.000000 0.9851 0.9851 0.9852 0.9852 0.9852
2765.000000 0.9851 0.9851 0.9849 0.9848 0.9846
2770.000000 0.9844 0.9842 0.9841 0.9839 0.9837
2775.000000 0.9835 0.9834 0.9832 0.9830 0.9828
2780.000000 0.9827 0.9825 0.9823 0.9821 0.9820
2785.000000 0.9824 0.9828 0.9833 0.9838 0.9842
2790.000000 0.9847 0.9852 0.9857 0.9861 0.9865
2795.000000 0.9868 0.9873 0.9875 0.9875 0.9875
2800.000000 0.9875 0.9875 0.9874 0.9873 0.9871
2805.000000 0.9870 0.9868 0.9866 0.9865 0.9863
2810.000000 0.9862 0.9860 0.9858 0.9855 0.9852
2815.000000 0.9849 0.9846 0.9843 0.9840 0.9836
2820.000000 0.9832 0.9828 0.9825 0.9821 0.9818
2825.000000 0.9813 0.9808 0.9800 0.9793 0.9785
2830.000000 0.9777 0.9768 0.9760 0.9751 0.9742
2835.000000 0.9733 0.9724 0.9709 0.9694 0.9677
2840.000000 0.9660 0.9643 0.9627 0.9610 0.9594
2845.000000 0.9578 0.9562 0.9546 0.9530 0.9517
2850.000000 0.9505 0.9492 0.9478 0.9465 0.9451
2855.000000 0.9437 0.9423 0.9413 0.9404 0.9395
2860.000000 0.9387 0.9373 0.9360 0.9330 0.9301
2865.000000 0.9271 0.9243 0.9216 0.9190 0.9161
2870.000000 0.9133 0.9103 0.9074 0.9056 0.9038
2875.000000 0.9018 0.9001 0.8991 0.8981 0.8971
2880.000000 0.8962 0.8965 0.8968 0.8975 0.8984
2885.000000 0.8994 0.9004 0.9015 0.8930 0.9031
2890.000000 0.9036 0.9036 0.9037 0.9037 0.9038
2895.000000 0.8998 0.8974 0.8936 0.8899 0.8862
2900.000000 0.8825 0.8806 0.8787 0.8771 0.8757
2905.000000 0.8756 0.8756 0.8756 0.8757 0.8761
2910.000000 0.8765 0.8774 0.8750 0.8804 0.8825
2915.000000 0.8844 0.8863 0.8887 0.8912 0.8931
2920.000000 0.8950 0.8970 0.8990 0.9014 0.9039
2925.000000 0.9071 0.9105 0.9127 0.9149 0.9170
2930.000000 0.9191 0.9207 0.9223 0.9239 0.9255
2935.000000 0.9270 0.9286 0.9305 0.9325 0.9345
2940.000000 0.9366 0.9377 0.9389 0.9395 0.9401
2945.000000 0.9399 0.9398 0.9397 0.9396 0.9395
2950.000000 0.9395 0.9395 0.9395 0.9402 0.9409
2955.000000 0.9421 0.9433 0.9447 0.9461 0.9478
2960.000000 0.9496 0.9512 0.9528 0.9543 0.9559
2965.000000 0.9575 0.9591 0.9607 0.9623 0.9639
2970.000000 0.9655 0.9668 0.9681 0.9692 0.9703
2975.000000 0.9713 0.9724 0.9734 0.9745 0.9755
2980.000000 0.9766 0.9774 0.9783 0.9791 0.9799
2985.000000 0.9807 0.9815 0.9821 0.9830 0.9836
2990.000000 0.9843 0.9848 0.9853 0.9856 0.9859
2995.000000 0.9859 0.9860 0.9861 0.9861 0.9861
3000.000000 0.9861 0.9858 0.9855 0.9852 0.9850
3005.000000 0.9846 0.9843 0.9839 0.9836 0.9832
3010.000000 0.9828 0.9825 0.9824 0.9821 0.9821
3015.000000 0.9820 0.9818 0.9821 0.9825 0.9828
3020.000000 0.9834 0.9838 0.9842 0.9848 0.9854
3025.000000 0.9859 0.9865 0.9873 0.9881 0.9889
3030.000000 0.9897 0.9899 0.9902 0.9905 0.9908
3035.000000 0.9910 0.9913 0.9912 0.9912 0.9911
3040.000000 0.9911 0.9910 0.9909 0.9908 0.9908
3045.000000 0.9907 0.9906 0.9906 0.9907 0.9907
3050.000000 0.9908 0.9908 0.9908 0.9908 0.9908
3055.000000 0.9909 0.9910 0.9910 0.9910 0.9908
3060.000000 0.9907 0.9905 0.9904 0.9902 0.9901
3065.000000 0.9899 0.9898 0.9896 0.9895 0.9892
3070.000000 0.9889 0.9885 0.9881 0.9877 0.9874
3075.000000 0.9870 0.9866 0.9862 0.9858 0.9854
3080.000000 0.9851 0.9845 0.9840 0.9835 0.9830
3085.000000 0.9824 0.9818 0.9815 0.9812 0.9810
3090.000000 0.9809 0.9807 0.9808 0.9809 0.9812
3095.000000 0.9816 0.9820 0.9821 0.9821 0.9820
3100.000000 0.9818 0.9813 0.9809 0.9804 0.9800
3105.000000 0.9794 0.9788 0.9782 0.9775 0.9768
3110.000000 0.9763 0.9756 0.9750 0.9743 0.9737
3115.000000 0.9730 0.9723 0.9716 0.9710 0.9706
3120.000000 0.9702 0.9700 0.9698 0.9703 0.9709
3125.000000 0.9714 0.9718 0.9721 0.9724 0.9725
3130.000000 0.9725 0.9724 0.9720 0.9711 0.9703
3135.000000 0.9688 0.9674 0.9655 0.9636 0.9617
3140.000000 0.9599 0.9581 0.9564 0.9546 0.9528
3145.000000 0.9509 0.9491 0.9471 0.9452 0.9435
3150.000000 0.9418 0.9409 0.9375 0.9397 0.9396
3155.000000 0.9401 0.9407 0.9414 0.9421 0.9428
3160.000000 0.9437 0.9447 0.9457 0.9471 0.9485
3165.000000 0.9501 0.9517 0.9533 0.9549 0.9564
3170.000000 0.9578 0.9590 0.9602 0.9612 0.9623
3175.000000 0.9628 0.9636 0.9636 0.9636 0.9636
3180.000000 0.9637 0.9639 0.9642 0.9644 0.9647
3185.000000 0.9649 0.9651 0.9653 0.9656 0.9661
3190.000000 0.9666 0.9674 0.9682 0.9692 0.9703
3195.000000 0.9715 0.9728 0.9741 0.9754 0.9763
3200.000000 0.9773 0.9774 0.9775 0.9775 0.9778
3205.000000 0.9778 0.9778 0.9778 0.9777 0.9773
3210.000000 0.9770 0.9763 0.9757 0.9749 0.9741
3215.000000 0.9737 0.9733 0.9732 0.9732 0.9733
3220.000000 0.9735 0.9737 0.9739 0.9741 0.9743
3225.000000 0.9745 0.9747 0.9749 0.9751 0.9752
3230.000000 0.9754 0.9755 0.9755 0.9755 0.9754
3235.000000 0.9748 0.9742 0.9736 0.9730 0.9721
3240.000000 0.9714 0.9709 0.9704 0.9702 0.9701
3245.000000 0.9705 0.9710 0.9715 0.9721 0.9724
3250.000000 0.9728 0.9731 0.9735 0.9739 0.9744
3255.000000 0.9749 0.9755 0.9760 0.9766 0.9771
3260.000000 0.9775 0.9781 0.9786 0.9791 0.9796
3265.000000 0.9800 0.9804 0.9807 0.9811 0.9812
3270.000000 0.9814 0.9815 0.9816 0.9817 0.9817
3275.000000 0.9817 0.9817 0.9816 0.9816 0.9815
3280.000000 0.9815 0.9814 0.9814 0.9817 0.9820
3285.000000 0.9824 0.9828 0.9834 0.9839 0.9844
3290.000000 0.9849 0.9855 0.9862 0.9868 0.9874
3295.000000 0.9875 0.9878 0.9878 0.9878 0.9878
3300.000000 0.9877 0.9875 0.9874 0.9871 0.9868
3305.000000 0.9866 0.9863 0.9860 0.9857 0.9853
3310.000000 0.9849 0.9844 0.9840 0.9836 0.9832
3315.000000 0.9832 0.9833 0.9834 0.9835 0.9836
3320.000000 0.9837 0.9839 0.9842 0.9844 0.9846
3325.000000 0.9849 0.9853 0.9857 0.9862 0.9866
3330.000000 0.9870 0.9875 0.9882 0.9889 0.9897
3335.000000 0.9904 0.9911 0.9914 0.9917 0.9920
3340.000000 0.9923 0.9925 0.9928 0.9928 0.9931
3345.000000 0.9932 0.9934 0.9936 0.9938 0.9940
3350.000000 0.9942 0.9943 0.9945 0.9945 0.9945
3355.000000 0.9945 0.9945 0.9944 0.9943 0.9941
3360.000000 0.9940 0.9939 0.9938 0.9938 0.9939
3365.000000 0.9940 0.9942 0.9943 0.9945 0.9946
3370.000000 0.9947 0.9948 0.9950 0.9951 0.9952
3375.000000 0.9953 0.9954 0.9955 0.9957 0.9958
3380.000000 0.9960 0.9961 0.9963 0.9963 0.9964
3385.000000 0.9964 0.9964 0.9964 0.9965 0.9965
3390.000000 0.9966 0.9966 0.9966 0.9966 0.9967
3395.000000 0.9967 0.9968 0.9968 0.9968 0.9968
3400.000000 0.9968 0.9968 0.9970 0.9970 0.9970
3405.000000 0.9970 0.9971 0.9971 0.9971 0.9971
3410.000000 0.9971 0.9971 0.9973 0.9973 0.9973
3415.000000 0.9973 0.9973 0.9973 0.9973 0.9973
3420.000000 0.9973 0.9973 0.9973 0.9973 0.9973
3425.000000 0.9973 0.9973 0.9973 0.9973 0.9973
3430.000000 0.9973 0.9973 0.9973 0.9971 0.9971
3435.000000 0.9971 0.9971 0.9971 0.9971 0.9970
3440.000000 0.9970 0.9968 0.9968 0.9968 0.9968
3445.000000 0.9968 0.9968 0.9967 0.9967 0.9966
3450.000000 0.9966 0.9966 0.9966 0.9966 0.9967
3455.000000 0.9967 0.9967 0.9967 0.9968 0.9968
3460.000000 0.9968 0.9968 0.9968 0.9968 0.9968
3465.000000 0.9968 0.9968 0.9968 0.9970 0.9970
3470.000000 0.9970 0.9970 0.9971 0.9971 0.9971
3475.000000 0.9971 0.9971 0.9970 0.9970 0.9970
3480.000000 0.9970 0.9968 0.9968 0.9968 0.9968
3485.000000 0.9968 0.9968 0.9967 0.9967 0.9967
3490.000000 0.9967 0.9966 0.9966 0.9966 0.9966
3495.000000 0.9965 0.9965 0.9964 0.9964 0.9964
3500.000000 0.9964 0.9964 0.9964 0.9963 0.9963
3505.000000 0.9963 0.9963 0.9963 0.9963 0.9963
3510.000000 0.9963 0.9962 0.9962 0.9962 0.9962
3515.000000 0.9962 0.9962 0.9961 0.9961 0.9961
3520.000000 0.9961 0.9960 0.9960 0.9959 0.9958
3525.000000 0.9957 0.9957 0.9956 0.9955 0.9954
3530.000000 0.9953 0.9952 0.9952 0.9951 0.9950
3535.000000 0.9949 0.9948 0.9947 0.9947 0.9946
3540.000000 0.9945 0.9944 0.9943 0.9942 0.9942
3545.000000 0.9941 0.9940 0.9939 0.9939 0.9938
3550.000000 0.9938 0.9937 0.9937 0.9936 0.9935
3555.000000 0.9934 0.9934 0.9933 0.9933 0.9932
3560.000000 0.9932 0.9931 0.9931 0.9930 0.9930
3565.000000 0.9928 0.9928 0.9928 0.9928 0.9928
3570.000000 0.9928 0.9927 0.9927 0.9925 0.9925
3575.000000 0.9927 0.9928 0.9928 0.9928 0.9928
3580.000000 0.9930 0.9930 0.9931 0.9931 0.9932
3585.000000 0.9932 0.9933 0.9934 0.9935 0.9935
3590.000000 0.9936 0.9936 0.9936 0.9936 0.9937
3595.000000 0.9937 0.9938 0.9938 0.9938 0.9938
3600.000000 0.9939 0.9939 0.9940 0.9940 0.9940
3605.000000 0.9939 0.9939 0.9939 0.9939 0.9938
3610.000000 0.9938 0.9938 0.9938 0.9938 0.9938
3615.000000 0.9937 0.9937 0.9936 0.9935 0.9933
3620.000000 0.9931 0.9928 0.9927 0.9925 0.9923
3625.000000 0.9921 0.9918 0.9917 0.9915 0.9912
3630.000000 0.9910 0.9907 0.9905 0.9902 0.9900
3635.000000 0.9898 0.9898 0.9898 0.9899 0.9899
3640.000000 0.9900 0.9901 0.9902 0.9903 0.9904
3645.000000 0.9905 0.9906 0.9907 0.9909 0.9910
3650.000000 0.9912 0.9913 0.9915 0.9916 0.9917
3655.000000 0.9918 0.9921 0.9924 0.9927 0.9928
3660.000000 0.9932 0.9934 0.9936 0.9937 0.9939
3665.000000 0.9940 0.9942 0.9943 0.9945 0.9946
3670.000000 0.9948 0.9949 0.9949 0.9948 0.9946
3675.000000 0.9943 0.9940 0.9936 0.9932 0.9925
3680.000000 0.9918 0.9912 0.9906 0.9900 0.9894
3685.000000 0.9888 0.9883 0.9878 0.9874 0.9874
3690.000000 0.9874 0.9874 0.9874 0.9875 0.9877
3695.000000 0.9880 0.9883 0.9887 0.9891 0.9895
3700.000000 0.9899 0.9902 0.9906 0.9909 0.9912
3705.000000 0.9914 0.9916 0.9918 0.9921 0.9923
3710.000000 0.9925 0.9927 0.9928 0.9928 0.9930
3715.000000 0.9930 0.9931 0.9931 0.9932 0.9932
3720.000000 0.9932 0.9932 0.9932 0.9931 0.9931
3725.000000 0.9931 0.9931 0.9930 0.9930 0.9928
3730.000000 0.9928 0.9927 0.9927 0.9925 0.9925
3735.000000 0.9924 0.9923 0.9921 0.9921 0.9918
3740.000000 0.9916 0.9913 0.9911 0.9908 0.9906
3745.000000 0.9904 0.9902 0.9899 0.9897 0.9897
3750.000000 0.9897 0.9896 0.9896 0.9896 0.9896
3755.000000 0.9895 0.9895 0.9895 0.9895 0.9894
3760.000000 0.9894 0.9894 0.9895 0.9895 0.9896
3765.000000 0.9896 0.9897 0.9898 0.9899 0.9899
3770.000000 0.9900 0.9900 0.9901 0.9902 0.9903
3775.000000 0.9903 0.9904 0.9905 0.9906 0.9906
3780.000000 0.9907 0.9908 0.9909 0.9909 0.9910
3785.000000 0.9911 0.9912 0.9913 0.9915 0.9916
3790.000000 0.9917 0.9918 0.9918 0.9918 0.9916
3795.000000 0.9913 0.9910 0.9907 0.9905 0.9904
3800.000000 0.9904
##END=
