##TITLE=2-HYDROXY-3-(N-DODECYLAMINO) PROPYL-TRIMETHYLAMMONIUM p-TOSYLATE
##JCAMP-DX=4.24
##DATA TYPE=INFRARED SPECTRUM
##CLASS=COBLENTZ
##ORIGIN=EASTMAN KODAK COMPANY, RESEARCH LABORATORIES, ROCHESTER, N.Y.
##OWNER=COBLENTZ SOCIETY
Collection (C) 2018 copyright by the U.S. Secretary of Commerce
on behalf of the United States of America. All rights reserved.
##DATE=Not specified, most likely prior to 1970
##MOLFORM=C25 H48 N2 O4 S
##MP=106-167 C
##SOURCE REFERENCE=COBLENTZ NO. 4420
##$NIST ID=B6004420
##$NIST SOURCE=COBLENTZ
##$NIST IMAGE=cob4420
##SPECTROMETER/DATA SYSTEM=Not specified, most likely a prism, grating, or hybrid spectrometer.
##STATE=SOLID (KBr PELLET)
##PATH LENGTH=
$$ SEE J. ORG. CHEM., VOL. 28, PAGE 2283 (1963)
##SAMPLING PROCEDURE=TRANSMISSION
##RESOLUTION=4
##DATA PROCESSING=DIGITIZED BY NIST FROM HARD COPY
##XUNITS=MICROMETERS
##YUNITS=TRANSMITTANCE
##XFACTOR=1.000000
##YFACTOR=1
##DELTAX=000.006679
##FIRSTX=2.154
##LASTX=16.0134
##FIRSTY=0.658
##MAXX=16.0134
##MINX=2.154
##MAXY=0.975
##MINY=0.086
##NPOINTS=2076
##XYDATA=(X++(Y..Y))
2.154000 0.6580 0.6600 0.6600 0.6600 0.6600
2.187413 0.6610 0.6680 0.6730 0.6790 0.6810
2.220000 0.6830 0.6880 0.6910 0.6910 0.6890
2.253413 0.6860 0.6830 0.6810 0.6810 0.6810
2.287000 0.6830 0.6830 0.6860 0.6910 0.6940
2.320413 0.6980 0.6990 0.6990 0.7010 0.7010
2.354000 0.7030 0.7030 0.7040 0.7040 0.7060
2.387413 0.7090 0.7130 0.7160 0.7190 0.7230
2.421000 0.7280 0.7290 0.7290 0.7290 0.7290
2.454413 0.7310 0.7360 0.7360 0.7390 0.7390
2.488000 0.7410 0.7410 0.7420 0.7440 0.7440
2.521413 0.7440 0.7440 0.7460 0.7460 0.7460
2.554000 0.7460 0.7460 0.7460 0.7460 0.7470
2.587413 0.7470 0.7470 0.7490 0.7510 0.7540
2.621000 0.7560 0.7660 0.7710 0.7720 0.7790
2.654413 0.7790 0.7810 0.7810 0.7810 0.7820
2.688000 0.7840 0.7840 0.7840 0.7840 0.7840
2.721413 0.7820 0.7820 0.7810 0.7790 0.7770
2.755000 0.7760 0.7710 0.7670 0.7660 0.7620
2.788413 0.7590 0.7540 0.7490 0.7370 0.7230
2.822000 0.7040 0.7010 0.6990 0.6960 0.6930
2.855413 0.6860 0.6690 0.6550 0.6500 0.6380
2.888000 0.6300 0.6250 0.6160 0.6080 0.6000
2.921413 0.5900 0.5880 0.5780 0.5700 0.5570
2.955000 0.5480 0.5370 0.5250 0.5240 0.5150
2.988413 0.5090 0.4990 0.4840 0.4690 0.4390
3.022000 0.4240 0.4110 0.3910 0.3690 0.3510
3.055413 0.3380 0.3250 0.3080 0.3100 0.3230
3.089000 0.3390 0.3440 0.3740 0.4020 0.4220
3.122413 0.4440 0.4610 0.4870 0.5040 0.5350
3.156000 0.5680 0.5920 0.6080 0.6200 0.6400
3.189413 0.6500 0.6630 0.6780 0.6860 0.6930
3.222000 0.6940 0.6960 0.6990 0.7040 0.7080
3.255413 0.7130 0.7160 0.7180 0.7190 0.7190
3.289000 0.7180 0.7130 0.7010 0.6840 0.6730
3.322413 0.6710 0.6710 0.6780 0.6890 0.6980
3.356000 0.6990 0.6890 0.6600 0.6450 0.6050
3.389413 0.5780 0.4820 0.4510 0.3640 0.2950
3.423000 0.2630 0.1470 0.1450 0.2020 0.2630
3.456413 0.3150 0.3630 0.4040 0.4570 0.4590
3.490000 0.4320 0.4020 0.3730 0.3310 0.2980
3.523413 0.2980 0.3180 0.3690 0.4040 0.4920
3.556000 0.5630 0.5770 0.5870 0.6000 0.6200
3.589413 0.6530 0.7030 0.7340 0.7570 0.7660
3.623000 0.7670 0.7670 0.7690 0.7690 0.7710
3.656413 0.7760 0.7770 0.7860 0.7890 0.7960
3.690000 0.7970 0.7990 0.8040 0.8070 0.8100
3.723413 0.8100 0.8140 0.8150 0.8170 0.8190
3.757000 0.8220 0.8240 0.8240 0.8270 0.8290
3.790413 0.8340 0.8390 0.8420 0.8420 0.8400
3.823000 0.8400 0.8400 0.8420 0.8420 0.8470
3.856413 0.8500 0.8520 0.8540 0.8570 0.8590
3.890000 0.8590 0.8590 0.8590 0.8590 0.8600
3.923413 0.8600 0.8600 0.8620 0.8640 0.8680
3.957000 0.8700 0.8720 0.8700 0.8700 0.8680
3.990413 0.8680 0.8700 0.8730 0.8770 0.8770
4.024000 0.8770 0.8780 0.8780 0.8820 0.8830
4.057413 0.8900 0.8950 0.8980 0.9000 0.9020
4.091000 0.9030 0.9030 0.9000 0.8920 0.8900
4.124413 0.8900 0.8900 0.8900 0.8920 0.8920
4.157000 0.8930 0.8930 0.8930 0.8950 0.8950
4.190413 0.8950 0.8950 0.8950 0.8950 0.8970
4.224000 0.8970 0.8980 0.8980 0.9020 0.9100
4.257413 0.9130 0.9130 0.9130 0.9150 0.9170
4.291000 0.9170 0.9200 0.9220 0.9270 0.9300
4.324413 0.9300 0.9300 0.9300 0.9300 0.9300
4.358000 0.9300 0.9300 0.9300 0.9300 0.9300
4.391413 0.9300 0.9300 0.9280 0.9280 0.9280
4.425000 0.9270 0.9230 0.9220 0.9220 0.9220
4.458413 0.9200 0.9200 0.9200 0.9200 0.9200
4.491000 0.9200 0.9200 0.9200 0.9180 0.9180
4.524413 0.9180 0.9180 0.9200 0.9200 0.9220
4.558000 0.9220 0.9220 0.9230 0.9230 0.9230
4.591413 0.9230 0.9230 0.9250 0.9250 0.9270
4.625000 0.9280 0.9300 0.9320 0.9330 0.9350
4.658413 0.9360 0.9360 0.9360 0.9360 0.9360
4.692000 0.9360 0.9380 0.9380 0.9380 0.9410
4.725413 0.9410 0.9430 0.9430 0.9430 0.9430
4.759000 0.9460 0.9480 0.9500 0.9500 0.9500
4.792413 0.9500 0.9510 0.9510 0.9500 0.9500
4.825000 0.9500 0.9500 0.9480 0.9450 0.9450
4.858413 0.9450 0.9430 0.9430 0.9430 0.9430
4.892000 0.9430 0.9430 0.9430 0.9430 0.9430
4.925413 0.9410 0.9410 0.9410 0.9400 0.9400
4.959000 0.9400 0.9380 0.9380 0.9380 0.9380
4.992413 0.9400 0.9450 0.9460 0.9480 0.9510
5.026000 0.9530 0.9530 0.9530 0.9530 0.9530
5.059413 0.9550 0.9550 0.9550 0.9550 0.9550
5.093000 0.9530 0.9510 0.9500 0.9500 0.9500
5.126413 0.9480 0.9450 0.9430 0.9410 0.9410
5.159000 0.9400 0.9400 0.9410 0.9410 0.9500
5.192413 0.9500 0.9460 0.9410 0.9400 0.9400
5.226000 0.9380 0.9380 0.9360 0.9360 0.9360
5.259413 0.9380 0.9380 0.9400 0.9430 0.9430
5.293000 0.9400 0.9380 0.9350 0.9330 0.9330
5.326413 0.9330 0.9330 0.9330 0.9350 0.9380
5.360000 0.9380 0.9400 0.9400 0.9430 0.9480
5.393413 0.9510 0.9580 0.9610 0.9610 0.9610
5.427000 0.9600 0.9600 0.9600 0.9600 0.9580
5.460413 0.9580 0.9600 0.9600 0.9600 0.9600
5.493000 0.9600 0.9580 0.9560 0.9530 0.9510
5.526413 0.9500 0.9480 0.9480 0.9460 0.9450
5.560000 0.9430 0.9410 0.9410 0.9410 0.9400
5.593413 0.9400 0.9410 0.9410 0.9400 0.9400
5.627000 0.9380 0.9350 0.9350 0.9360 0.9380
5.660413 0.9380 0.9400 0.9400 0.9400 0.9400
5.694000 0.9400 0.9410 0.9450 0.9460 0.9460
5.727413 0.9450 0.9430 0.9430 0.9450 0.9460
5.760000 0.9480 0.9500 0.9500 0.9500 0.9500
5.793413 0.9480 0.9460 0.9460 0.9450 0.9430
5.827000 0.9410 0.9400 0.9380 0.9380 0.9360
5.860413 0.9360 0.9350 0.9350 0.9350 0.9350
5.894000 0.9360 0.9380 0.9380 0.9380 0.9360
5.927413 0.9360 0.9350 0.9350 0.9330 0.9330
5.961000 0.9330 0.9330 0.9330 0.9330 0.9330
5.994413 0.9320 0.9200 0.9120 0.9120 0.9100
6.028000 0.9020 0.9020 0.8970 0.8900 0.8870
6.061413 0.8850 0.8830 0.8820 0.8820 0.8830
6.094000 0.8830 0.8850 0.8850 0.8850 0.8850
6.127413 0.8830 0.8820 0.8820 0.8780 0.8750
6.161000 0.8730 0.8730 0.8750 0.8750 0.8750
6.194413 0.8730 0.8720 0.8720 0.8720 0.8700
6.228000 0.8700 0.8700 0.8700 0.8670 0.8620
6.261413 0.8590 0.8540 0.8540 0.8620 0.8670
6.295000 0.8800 0.8900 0.8970 0.9000 0.9030
6.328413 0.9070 0.9100 0.9100 0.9100 0.9100
6.362000 0.9100 0.9100 0.9100 0.9100 0.9080
6.395413 0.9080 0.9100 0.9120 0.9120 0.9130
6.428000 0.9200 0.9200 0.9220 0.9320 0.9320
6.461413 0.9250 0.9200 0.9180 0.9180 0.9200
6.495000 0.9200 0.9230 0.9270 0.9320 0.9320
6.528413 0.9230 0.9200 0.9170 0.9120 0.9100
6.562000 0.9100 0.9100 0.9100 0.9100 0.9100
6.595413 0.9050 0.9030 0.8980 0.8830 0.8750
6.629000 0.8730 0.8720 0.8720 0.8750 0.8720
6.662413 0.8170 0.8070 0.7970 0.7670 0.7440
6.696000 0.7040 0.6830 0.6130 0.5090 0.4460
6.729413 0.4420 0.4320 0.4310 0.4340 0.4440
6.762000 0.4520 0.4620 0.4700 0.4800 0.4870
6.795413 0.4920 0.4920 0.4840 0.4690 0.4540
6.829000 0.4410 0.4390 0.4410 0.4820 0.5240
6.862413 0.5720 0.6060 0.6200 0.6250 0.6310
6.896000 0.6400 0.6500 0.6710 0.6840 0.6960
6.929413 0.7010 0.7090 0.7160 0.7280 0.7410
6.963000 0.7520 0.7640 0.7690 0.7690 0.7690
6.996413 0.7670 0.7660 0.7640 0.7640 0.7670
7.030000 0.7770 0.7910 0.7970 0.8040 0.8070
7.063413 0.8070 0.8090 0.8090 0.8070 0.8070
7.096000 0.8040 0.8000 0.7990 0.7960 0.7940
7.129413 0.7920 0.7940 0.8090 0.8150 0.8200
7.163000 0.8220 0.8220 0.8200 0.8200 0.8170
7.196413 0.8050 0.8000 0.7960 0.7940 0.7940
7.230000 0.7970 0.8100 0.8120 0.8120 0.8100
7.263413 0.8020 0.8000 0.7990 0.7910 0.7790
7.297000 0.7760 0.7790 0.7910 0.7960 0.7990
7.330413 0.8000 0.8020 0.8020 0.8040 0.8050
7.364000 0.8070 0.8090 0.8100 0.8140 0.8200
7.397413 0.8220 0.8220 0.8220 0.8200 0.8150
7.430000 0.8050 0.7890 0.7710 0.7510 0.7360
7.463413 0.7210 0.7060 0.7040 0.7060 0.7130
7.497000 0.7330 0.7520 0.7720 0.7870 0.8140
7.530413 0.8370 0.8470 0.8600 0.8700 0.8720
7.564000 0.8720 0.8720 0.8730 0.8730 0.8730
7.597413 0.8730 0.8720 0.8600 0.8470 0.8320
7.631000 0.8100 0.8040 0.7960 0.7870 0.7740
7.664413 0.7720 0.7740 0.7810 0.7860 0.7920
7.698000 0.8200 0.8320 0.8450 0.8550 0.8600
7.731413 0.8620 0.8670 0.8700 0.8720 0.8720
7.764000 0.8700 0.8670 0.8670 0.8620 0.8600
7.797413 0.8600 0.8620 0.8620 0.8620 0.8620
7.831000 0.8620 0.8620 0.8640 0.8650 0.8670
7.864413 0.8700 0.8720 0.8730 0.8730 0.8720
7.898000 0.8680 0.8650 0.8640 0.8640 0.8640
7.931413 0.8620 0.8600 0.8600 0.8590 0.8550
7.965000 0.8540 0.8520 0.8500 0.8470 0.8440
7.998413 0.8400 0.8370 0.8320 0.8300 0.8300
8.031000 0.8290 0.8240 0.8150 0.8100 0.8040
8.064413 0.8000 0.7970 0.7970 0.7810 0.7760
8.098000 0.7610 0.7360 0.7060 0.6810 0.6610
8.131413 0.6400 0.6200 0.5950 0.5700 0.5270
8.165000 0.4800 0.4310 0.3910 0.3490 0.2760
8.198413 0.1900 0.1520 0.1140 0.1010 0.0870
8.232000 0.0860 0.0870 0.0970 0.1070 0.1420
8.265413 0.1740 0.2000 0.2200 0.2350 0.2550
8.299000 0.2780 0.2900 0.3010 0.3050 0.3300
8.332413 0.3490 0.3590 0.3740 0.3890 0.3910
8.365000 0.3930 0.3910 0.3890 0.3840 0.3590
8.398413 0.3460 0.3000 0.2520 0.2100 0.1740
8.432000 0.1440 0.1400 0.1270 0.1060 0.0990
8.465413 0.0970 0.0970 0.0990 0.1020 0.1500
8.499000 0.1770 0.2520 0.2830 0.3100 0.3130
8.532413 0.3300 0.3460 0.3490 0.3180 0.2760
8.566000 0.2760 0.3200 0.3460 0.3760 0.4360
8.599413 0.4870 0.5330 0.5650 0.5930 0.6000
8.633000 0.6130 0.6260 0.6410 0.6710 0.6940
8.666413 0.7080 0.7190 0.7290 0.7390 0.7440
8.699000 0.7520 0.7560 0.7560 0.7470 0.7310
8.732413 0.7110 0.7030 0.6980 0.6610 0.6400
8.766000 0.6300 0.6280 0.6300 0.6300 0.6330
8.799413 0.6350 0.6350 0.6300 0.6200 0.6130
8.833000 0.5880 0.5550 0.5100 0.4660 0.4410
8.866413 0.4260 0.4190 0.4110 0.4040 0.4020
8.900000 0.3990 0.3560 0.2900 0.2600 0.2320
8.933413 0.2080 0.1920 0.1920 0.1990 0.2570
8.967000 0.3050 0.3310 0.3490 0.3880 0.4390
9.000413 0.4890 0.5240 0.5400 0.5500 0.5570
9.033000 0.5580 0.5580 0.5570 0.5550 0.5500
9.066413 0.5400 0.5380 0.5320 0.5240 0.5140
9.100000 0.5000 0.4790 0.4750 0.4690 0.4690
9.133413 0.4890 0.5050 0.5430 0.5730 0.6080
9.167000 0.6480 0.6710 0.6930 0.7110 0.7210
9.200413 0.7460 0.7620 0.7770 0.7870 0.7910
9.234000 0.8100 0.8150 0.8220 0.8270 0.8320
9.267413 0.8340 0.8350 0.8350 0.8370 0.8370
9.301000 0.8390 0.8400 0.8400 0.8400 0.8400
9.334413 0.8400 0.8420 0.8440 0.8520 0.8540
9.367000 0.8550 0.8570 0.8590 0.8600 0.8600
9.400413 0.8620 0.8620 0.8620 0.8600 0.8590
9.434000 0.8550 0.8540 0.8550 0.8570 0.8590
9.467413 0.8600 0.8620 0.8620 0.8620 0.8620
9.501000 0.8600 0.8550 0.8550 0.8520 0.8500
9.534413 0.8450 0.8450 0.8390 0.8300 0.8220
9.568000 0.8140 0.8050 0.8020 0.7970 0.7920
9.601413 0.7770 0.7610 0.7420 0.7130 0.6930
9.635000 0.6610 0.6350 0.6210 0.4640 0.2420
9.668413 0.1500 0.1490 0.1500 0.1670 0.2480
9.701000 0.3280 0.4070 0.4820 0.5620 0.6730
9.734413 0.7160 0.7470 0.7670 0.8120 0.8320
9.768000 0.8400 0.8450 0.8470 0.8490 0.8500
9.801413 0.8520 0.8540 0.8520 0.8500 0.8490
9.835000 0.8420 0.8350 0.8170 0.7990 0.7210
9.868413 0.6200 0.4870 0.3380 0.2830 0.2270
9.902000 0.1720 0.1720 0.2450 0.3210 0.3610
9.935413 0.4950 0.5550 0.6200 0.6910 0.7260
9.969000 0.7560 0.7610 0.7710 0.7770 0.7990
10.002413 0.8350 0.8470 0.8550 0.8640 0.8640
10.035000 0.8650 0.8680 0.8750 0.8820 0.8850
10.068413 0.8920 0.8950 0.9020 0.9030 0.9030
10.102000 0.9030 0.9050 0.9070 0.9070 0.9070
10.135413 0.9070 0.9070 0.9050 0.9050 0.9030
10.169000 0.9020 0.8950 0.8920 0.8870 0.8700
10.202413 0.8620 0.8500 0.8370 0.8320 0.8140
10.236000 0.8000 0.7940 0.7870 0.7410 0.7110
10.269413 0.6760 0.6610 0.6310 0.5970 0.5570
10.302000 0.5470 0.5350 0.5330 0.5320 0.5330
10.335413 0.5380 0.5520 0.5650 0.5780 0.5870
10.369000 0.6280 0.6410 0.6630 0.6910 0.7030
10.402413 0.7340 0.7610 0.7870 0.8220 0.8320
10.436000 0.8440 0.8490 0.8550 0.8620 0.8670
10.469413 0.8700 0.8700 0.8730 0.8730 0.8750
10.503000 0.8750 0.8750 0.8730 0.8730 0.8750
10.536413 0.8750 0.8750 0.8730 0.8700 0.8640
10.570000 0.8620 0.8520 0.8420 0.8390 0.8270
10.603413 0.8100 0.8000 0.7940 0.7870 0.7820
10.636000 0.7810 0.7720 0.7670 0.7420 0.7230
10.669413 0.6880 0.6760 0.6630 0.6600 0.6580
10.703000 0.6610 0.6790 0.7130 0.7310 0.7520
10.736413 0.7820 0.8220 0.8440 0.8620 0.8700
10.770000 0.8820 0.8920 0.8930 0.8980 0.9030
10.803413 0.9120 0.9150 0.9150 0.9150 0.9150
10.837000 0.9130 0.9130 0.9130 0.9150 0.9150
10.870413 0.9150 0.9150 0.9150 0.9170 0.9200
10.904000 0.9200 0.9180 0.9170 0.9170 0.9150
10.937413 0.9150 0.9150 0.9130 0.9120 0.9050
10.970000 0.8930 0.8820 0.8680 0.8490 0.8250
11.003413 0.8000 0.7860 0.7710 0.7510 0.7340
11.037000 0.7230 0.7130 0.7110 0.7140 0.7370
11.070413 0.7720 0.8320 0.8440 0.8670 0.8850
11.104000 0.9020 0.9080 0.9180 0.9230 0.9270
11.137413 0.9350 0.9380 0.9400 0.9400 0.9410
11.171000 0.9430 0.9450 0.9460 0.9500 0.9500
11.204413 0.9510 0.9510 0.9510 0.9500 0.9500
11.238000 0.9500 0.9500 0.9510 0.9510 0.9530
11.271413 0.9530 0.9550 0.9560 0.9560 0.9560
11.304000 0.9560 0.9580 0.9580 0.9610 0.9630
11.337413 0.9650 0.9650 0.9710 0.9710 0.9730
11.371000 0.9750 0.9750 0.9710 0.9710 0.9700
11.404413 0.9710 0.9710 0.9700 0.9660 0.9650
11.438000 0.9650 0.9650 0.9650 0.9650 0.9650
11.471413 0.9630 0.9610 0.9550 0.9500 0.9410
11.505000 0.9330 0.9250 0.9200 0.9200 0.9220
11.538413 0.9250 0.9280 0.9300 0.9320 0.9380
11.572000 0.9430 0.9430 0.9450 0.9460 0.9480
11.605413 0.9500 0.9510 0.9510 0.9530 0.9530
11.638000 0.9530 0.9530 0.9530 0.9550 0.9550
11.671413 0.9550 0.9550 0.9550 0.9550 0.9530
11.705000 0.9530 0.9550 0.9530 0.9510 0.9510
11.738413 0.9430 0.9430 0.9430 0.9400 0.9360
11.772000 0.9350 0.9350 0.9400 0.9410 0.9430
11.805413 0.9460 0.9480 0.9480 0.9450 0.9410
11.839000 0.9350 0.9330 0.9330 0.9330 0.9330
11.872413 0.9330 0.9330 0.9350 0.9360 0.9400
11.906000 0.9400 0.9410 0.9410 0.9410 0.9450
11.939413 0.9510 0.9510 0.9500 0.9460 0.9460
11.972000 0.9450 0.9450 0.9450 0.9450 0.9450
12.005413 0.9450 0.9450 0.9460 0.9460 0.9460
12.039000 0.9480 0.9480 0.9460 0.9410 0.9380
12.072413 0.9350 0.9330 0.9320 0.9270 0.9270
12.106000 0.9230 0.9120 0.9000 0.8980 0.8920
12.139413 0.8900 0.8870 0.8850 0.8820 0.8720
12.173000 0.8640 0.8550 0.8520 0.8500 0.8370
12.206413 0.8220 0.8120 0.8020 0.8000 0.7960
12.240000 0.7910 0.7820 0.7760 0.7540 0.7330
12.273413 0.7110 0.6810 0.6400 0.6150 0.5920
12.306000 0.5520 0.5090 0.4990 0.4920 0.4900
12.339413 0.4900 0.4920 0.5070 0.5120 0.5190
12.373000 0.5430 0.5500 0.5520 0.5620 0.5650
12.406413 0.5700 0.5770 0.5780 0.5800 0.5800
12.440000 0.5800 0.5780 0.5780 0.5820 0.5880
12.473413 0.5920 0.6010 0.6200 0.6310 0.6530
12.507000 0.6690 0.6840 0.6980 0.7090 0.7210
12.540413 0.7240 0.7330 0.7410 0.7420 0.7460
12.573000 0.7490 0.7510 0.7490 0.7420 0.7390
12.606413 0.7360 0.7290 0.7260 0.7240 0.7280
12.640000 0.7360 0.7390 0.7410 0.7410 0.7410
12.673413 0.7440 0.7510 0.7520 0.7610 0.7670
12.707000 0.7770 0.7890 0.8100 0.8170 0.8200
12.740413 0.8200 0.8200 0.8200 0.8220 0.8250
12.774000 0.8290 0.8320 0.8340 0.8350 0.8370
12.807413 0.8370 0.8420 0.8450 0.8500 0.8500
12.841000 0.8520 0.8540 0.8620 0.8650 0.8680
12.874413 0.8700 0.8700 0.8700 0.8670 0.8670
12.907000 0.8650 0.8650 0.8650 0.8670 0.8670
12.940413 0.8700 0.8720 0.8730 0.8750 0.8780
12.974000 0.8800 0.8800 0.8800 0.8800 0.8800
13.007413 0.8780 0.8720 0.8680 0.8600 0.8570
13.041000 0.8540 0.8500 0.8450 0.8390 0.8390
13.074413 0.8350 0.8350 0.8340 0.8350 0.8420
13.108000 0.8520 0.8670 0.8720 0.8750 0.8750
13.141413 0.8750 0.8770 0.8780 0.8820 0.8870
13.175000 0.8930 0.8930 0.8950 0.8950 0.8970
13.208413 0.8970 0.8970 0.8950 0.8950 0.8950
13.241000 0.8980 0.8980 0.9020 0.9020 0.9030
13.274413 0.9030 0.9030 0.9030 0.9030 0.9020
13.308000 0.9000 0.9000 0.8980 0.8980 0.8970
13.341413 0.8930 0.8920 0.8920 0.8920 0.8920
13.375000 0.8920 0.8920 0.8930 0.8950 0.9000
13.408413 0.9020 0.9030 0.9030 0.9030 0.9030
13.442000 0.9030 0.9030 0.9030 0.9030 0.9020
13.475413 0.9020 0.9020 0.9020 0.9000 0.8980
13.509000 0.8980 0.8970 0.8970 0.8950 0.8950
13.542413 0.8950 0.8950 0.8930 0.8920 0.8920
13.575000 0.8880 0.8870 0.8850 0.8830 0.8800
13.608413 0.8780 0.8720 0.8700 0.8650 0.8640
13.642000 0.8600 0.8570 0.8550 0.8540 0.8520
13.675413 0.8500 0.8500 0.8470 0.8450 0.8400
13.709000 0.8400 0.8390 0.8390 0.8390 0.8370
13.742413 0.8350 0.8320 0.8300 0.8300 0.8200
13.776000 0.8070 0.8020 0.7970 0.7920 0.7910
13.809413 0.7810 0.7710 0.7620 0.7540 0.7510
13.843000 0.7410 0.7210 0.7160 0.7130 0.7030
13.876413 0.7010 0.7030 0.7090 0.7110 0.7140
13.909000 0.7190 0.7190 0.7210 0.7230 0.7230
13.942413 0.7230 0.7230 0.7210 0.7080 0.7010
13.976000 0.6940 0.6880 0.6860 0.6880 0.6910
14.009413 0.7010 0.7290 0.7370 0.7410 0.7490
14.043000 0.7540 0.7610 0.7690 0.7720 0.7740
14.076413 0.7740 0.7740 0.7740 0.7740 0.7740
14.110000 0.7760 0.7770 0.7770 0.7770 0.7720
14.143413 0.7640 0.7640 0.7640 0.7620 0.7610
14.177000 0.7610 0.7540 0.7510 0.7510 0.7510
14.210413 0.7470 0.7440 0.7410 0.7330 0.7290
14.243000 0.7290 0.7240 0.7210 0.7130 0.7090
14.276413 0.6990 0.6960 0.6930 0.6890 0.6890
14.310000 0.6740 0.6600 0.6580 0.6510 0.6500
14.343413 0.6400 0.6300 0.6230 0.6200 0.6180
14.377000 0.6060 0.6060 0.6010 0.5800 0.5750
14.410413 0.5570 0.5400 0.5320 0.5240 0.5120
14.444000 0.5090 0.5090 0.4970 0.4840 0.4700
14.477413 0.4660 0.4590 0.4570 0.4510 0.4510
14.510000 0.4370 0.4220 0.4110 0.4020 0.3990
14.543413 0.3910 0.3840 0.3710 0.3580 0.3540
14.577000 0.3530 0.3510 0.3510 0.3490 0.3480
14.610413 0.3460 0.3440 0.3460 0.3490 0.3540
14.644000 0.3580 0.3630 0.3690 0.3780 0.3890
14.677413 0.3960 0.4010 0.4110 0.4170 0.4390
14.711000 0.4490 0.4570 0.4690 0.4850 0.4900
14.744413 0.5090 0.5200 0.5290 0.5380 0.5450
14.778000 0.5520 0.5530 0.5630 0.5730 0.5820
14.811413 0.5920 0.6010 0.6080 0.6110 0.6110
14.844000 0.6150 0.6200 0.6280 0.6310 0.6350
14.877413 0.6410 0.6430 0.6500 0.6530 0.6600
14.911000 0.6610 0.6630 0.6630 0.6600 0.6600
14.944413 0.6510 0.6460 0.6380 0.6330 0.6280
14.978000 0.6260 0.6260 0.6300 0.6480 0.6630
15.011413 0.6790 0.6990 0.7180 0.7210 0.7290
15.045000 0.7290 0.7210 0.7110 0.6960 0.6830
15.078413 0.6790 0.6780 0.6760 0.6730 0.6710
15.112000 0.6710 0.6690 0.6690 0.6680 0.6680
15.145413 0.6660 0.6630 0.6610 0.6560 0.6500
15.178000 0.6430 0.6410 0.6410 0.6410 0.6410
15.211413 0.6410 0.6410 0.6410 0.6410 0.6400
15.245000 0.6380 0.6380 0.6360 0.6350 0.6330
15.278413 0.6300 0.6280 0.6280 0.6260 0.6250
15.312000 0.6230 0.6200 0.6180 0.6180 0.6180
15.345413 0.6180 0.6180 0.6180 0.6180 0.6160
15.379000 0.6160 0.6130 0.6130 0.6130 0.6130
15.412413 0.6150 0.6150 0.6130 0.6100 0.6100
15.446000 0.6010 0.5980 0.5980 0.6010 0.6010
15.479413 0.6030 0.6030 0.6030 0.6010 0.6010
15.512000 0.6010 0.6000 0.5980 0.5980 0.5970
15.545413 0.5950 0.5930 0.5870 0.5820 0.5800
15.579000 0.5800 0.5800 0.5800 0.5800 0.5800
15.612413 0.5800 0.5780 0.5730 0.5720 0.5700
15.646000 0.5680 0.5680 0.5680 0.5680 0.5670
15.679413 0.5630 0.5620 0.5620 0.5580 0.5580
15.713000 0.5570 0.5570 0.5570 0.5570 0.5570
15.746413 0.5570 0.5570 0.5570 0.5570 0.5570
15.780000 0.5570 0.5570 0.5570 0.5570 0.5570
15.813413 0.5570 0.5550 0.5530 0.5530 0.5520
15.846000 0.5500 0.5500 0.5480 0.5480 0.5480
15.879413 0.5470 0.5400 0.5370 0.5330 0.5300
15.913000 0.5290 0.5250 0.5250 0.5240 0.5220
15.946413 0.5220 0.5220 0.5240 0.5240 0.5240
15.980000 0.5240 0.5240 0.5240 0.5240 0.5240
16.013413 0.5240
##END=
