##TITLE=m-SULFOBENZOIC ACID, S-SODIUM SALT
##JCAMP-DX=4.24
##DATA TYPE=INFRARED SPECTRUM
##CLASS=COBLENTZ III
##ORIGIN=DOW CHEMICAL COMPANY
##OWNER=COBLENTZ SOCIETY
Collection (C) 2018 copyright by the U.S. Secretary of Commerce
on behalf of the United States of America. All rights reserved.
##DATE=1962/03/22
##MOLFORM=C7 H5 Na O5 S
##SOURCE REFERENCE=COBLENTZ NO. 6827
##$NIST ID=B6006827
##$NIST SOURCE=COBLENTZ
##$NIST IMAGE=cob6827
##SPECTROMETER/DATA SYSTEM=DOW KBr FOREPRISM-GRATING
##INSTRUMENT PARAMETERS=GRATING BLAZED AT 3.5, 12.0, 20.0 MICRONS AND CHANGED AT 5.0, 7.5, 14.9 MICRONS
##STATE=SOLID (SPLIT MULL)
##SAMPLING PROCEDURE=TRANSMISSION
##RESOLUTION=4
##DATA PROCESSING=DIGITIZED BY NIST FROM HARD COPY (FROM TWO SEGMENTS)
##XUNITS=1/CM
##YUNITS=TRANSMITTANCE
##XFACTOR=1.000000
##YFACTOR=1
##DELTAX=0.877195
##FIRSTX=379.825
##LASTX=3793.87
##FIRSTY=0.991
##MAXX=3793.87
##MINX=379.825
##MAXY=1.074
##MINY=0.005
##NPOINTS=3893
##XYDATA=(X++(Y..Y))
379.825000 0.9910 0.9910 0.9910 0.9910 0.9910
384.210974 0.9910 0.9910 0.9910 0.9910 0.9910
388.596947 0.9910 0.9900 0.9900 0.9900 0.9900
392.982921 0.9880 0.9880 0.9880 0.9880 0.9880
397.368895 0.9880 0.9880 0.9880 0.9900 0.9900
401.754868 0.9900 0.9900 0.9910 0.9910 0.9910
406.140842 0.9910 0.9910 0.9930 0.9930 0.9940
410.526816 0.9950 0.9970 1.0000 1.0020 1.0020
414.912789 1.0060 1.0090 1.0160 1.0190 1.0220
419.298763 1.0280 1.0330 1.0390 1.0450 1.0480
423.684737 1.0490 1.0500 1.0520 1.0530 1.0560
428.070710 1.0570 1.0590 1.0610 1.0630 1.0640
432.456684 1.0660 1.0660 1.0670 1.0670 1.0700
436.842658 1.0700 1.0710 1.0710 1.0730 1.0730
441.228632 1.0740 1.0740 1.0740 1.0740 1.0740
445.614605 1.0740 1.0740 1.0740 1.0740 1.0730
450.000579 1.0730 1.0710 1.0700 1.0680 1.0670
454.386553 1.0660 1.0660 1.0640 1.0610 1.0610
458.772526 1.0590 1.0550 1.0530 1.0500 1.0490
463.158500 1.0480 1.0480 1.0460 1.0450 1.0420
467.544474 1.0410 1.0390 1.0380 1.0370 1.0350
471.930447 1.0340 1.0330 1.0310 1.0300 1.0270
476.316421 1.0270 1.0240 1.0220 1.0170 1.0130
480.702395 1.0090 1.0050 1.0040 1.0010 0.9970
485.088368 0.9900 0.9840 0.9800 0.9750 0.9690
489.474342 0.9610 0.9530 0.9420 0.9360 0.9320
493.860316 0.9320 0.9330 0.9360 0.9390 0.9420
498.246289 0.9530 0.9540 0.9620 0.9730 0.9800
502.632263 0.9870 0.9870 1.0020 1.0050 1.0090
507.018237 1.0120 1.0130 1.0150 1.0160 1.0160
511.404210 1.0170 1.0170 1.0170 1.0170 1.0160
515.790184 1.0150 1.0120 1.0110 1.0090 1.0060
520.176158 1.0040 1.0010 1.0000 1.0000 0.9980
524.562131 0.9970 0.9950 0.9910 0.9870 0.9870
528.948105 0.9840 0.9830 0.9790 0.9710 0.9650
533.334079 0.9610 0.9580 0.9540 0.9420 0.9330
537.720052 0.9180 0.9060 0.8840 0.8630 0.8440
542.106026 0.8290 0.8160 0.8090 0.8080 0.8090
546.492000 0.8190 0.8270 0.8420 0.8530 0.8650
550.877974 0.8760 0.8770 0.8760 0.8760 0.8670
555.263947 0.8550 0.8440 0.8310 0.8150 0.7930
559.649921 0.7611 0.7201 0.6661 0.5952 0.5532
564.035895 0.5350 0.5160 0.4980 0.4770 0.4760
568.421868 0.4770 0.5049 0.5848 0.6458 0.7117
572.807842 0.7380 0.7610 0.7900 0.8160 0.8180
577.193816 0.8160 0.8160 0.8040 0.7871 0.7611
581.579789 0.7100 0.6540 0.6250 0.6220 0.6210
585.965763 0.6220 0.6439 0.6649 0.6799 0.7049
590.351737 0.7410 0.7850 0.8250 0.8410 0.8660
594.737710 0.8910 0.9030 0.9170 0.9280 0.9290
599.123684 0.9310 0.9290 0.9150 0.9070 0.8960
603.509658 0.8840 0.8621 0.8221 0.7692 0.6734
607.895631 0.5339 0.3930 0.3520 0.1462 0.1440
612.281605 0.4763 0.4790 0.4790 0.3654 0.3122
616.667579 0.2540 0.1980 0.1400 0.1110 0.0810
621.053552 0.0201 0.0190 0.0200 0.0280 0.0370
625.439526 0.0501 0.1580 0.2050 0.2530 0.3149
629.825500 0.5495 0.7225 0.8257 0.8808 0.9238
634.211473 0.9570 0.9750 0.9830 1.0050 1.0160
638.597447 1.0170 1.0160 1.0150 1.0130 1.0110
642.983421 1.0080 1.0020 0.9980 0.9940 0.9840
647.369394 0.9800 0.9720 0.9680 0.9650 0.9610
651.755368 0.9540 0.9440 0.9260 0.9000 0.8630
656.141342 0.8151 0.6613 0.5063 0.4093 0.3113
660.527315 0.2129 0.1150 0.1151 0.2340 0.5788
664.913289 0.8037 0.8649 0.8999 0.9289 0.9390
669.299263 0.9500 0.9620 0.9640 0.9640 0.9620
673.685237 0.9440 0.9260 0.9100 0.8950 0.8771
678.071210 0.8580 0.8550 0.8530 0.8290 0.7930
682.457184 0.7610 0.7271 0.6342 0.5243 0.4134
686.843158 0.3269 0.2389 0.1510 0.1510 0.2229
691.229131 0.2889 0.4168 0.5806 0.6807 0.8484
695.615105 0.9310 0.9650 0.9820 1.0050 1.0060
700.001079 1.0090 1.0110 1.0120 1.0150 1.0150
704.387052 1.0130 1.0110 1.0090 1.0040 1.0000
708.773026 0.9940 0.9880 0.9790 0.9720 0.9610
713.159000 0.9540 0.9420 0.9260 0.9100 0.8910
717.544973 0.8700 0.8510 0.8301 0.8111 0.7801
721.930947 0.7790 0.7800 0.7930 0.7970 0.8010
726.316921 0.8030 0.8040 0.8050 0.8050 0.7980
730.702894 0.7239 0.6500 0.6080 0.5640 0.5191
735.088868 0.5170 0.5709 0.5899 0.6000 0.6080
739.474842 0.6280 0.6730 0.7390 0.8110 0.8450
743.860815 0.8819 0.9059 0.9289 0.9310 0.9280
748.246789 0.9240 0.9240 0.9180 0.9070 0.8850
752.632763 0.8590 0.8380 0.8260 0.7891 0.5669
757.018736 0.4459 0.3250 0.1830 0.1390 0.0951
761.404710 0.1838 0.2927 0.4316 0.6602 0.7955
765.790684 0.8761 0.9200 0.9420 0.9490 0.9530
770.176657 0.9600 0.9690 0.9770 0.9860 0.9900
774.562631 1.0000 1.0050 1.0120 1.0130 1.0150
778.948605 1.0170 1.0190 1.0190 1.0200 1.0220
783.334579 1.0230 1.0240 1.0240 1.0260 1.0260
787.720552 1.0270 1.0270 1.0280 1.0280 1.0280
792.106526 1.0280 1.0280 1.0280 1.0270 1.0270
796.492500 1.0260 1.0260 1.0240 1.0240 1.0220
800.878473 1.0190 1.0170 1.0150 1.0130 1.0120
805.264447 1.0110 1.0090 1.0080 1.0050 1.0020
809.650421 1.0000 0.9970 0.9940 0.9880 0.9830
814.036394 0.9800 0.9790 0.9730 0.9660 0.9600
818.422368 0.9570 0.9570 0.9500 0.9350 0.9040
822.808342 0.8960 0.8780 0.8560 0.8261 0.8051
827.194315 0.7739 0.7338 0.5490 0.5450 0.5390
831.580289 0.5610 0.5880 0.5930 0.6000 0.7495
835.966263 0.8551 0.9180 0.9440 0.9600 0.9650
840.352236 0.9650 0.9620 0.9540 0.9510 0.9460
844.738210 0.9430 0.9390 0.9320 0.9220 0.9090
849.124184 0.8920 0.8740 0.8530 0.8331 0.8091
853.510157 0.7970 0.7960 0.7970 0.8220 0.8420
857.896131 0.8600 0.8740 0.8850 0.9129 0.9319
862.282105 0.9430 0.9610 0.9660 0.9690 0.9750
866.668078 0.9800 0.9840 0.9910 0.9940 0.9950
871.054052 0.9950 0.9940 0.9940 0.9910 0.9900
875.440026 0.9880 0.9870 0.9840 0.9830 0.9820
879.825999 0.9800 0.9790 0.9730 0.9660 0.9620
884.211973 0.9600 0.9580 0.9550 0.9500 0.9440
888.597947 0.9390 0.9360 0.9350 0.9280 0.9250
892.983921 0.9220 0.9210 0.9180 0.9140 0.9090
897.369894 0.9070 0.8990 0.8910 0.8810 0.8710
901.755868 0.8580 0.8520 0.8410 0.8380 0.8360
906.141842 0.8290 0.8200 0.8120 0.8030 0.7930
910.527815 0.7790 0.7630 0.7460 0.7310 0.7160
914.913789 0.7020 0.6880 0.6770 0.6660 0.6550
919.299763 0.6410 0.6330 0.6230 0.6220 0.6220
923.685736 0.6220 0.6190 0.6180 0.5920 0.5550
928.071710 0.5280 0.5010 0.4441 0.4430 0.4440
932.457684 0.4610 0.4770 0.4940 0.5260 0.5680
936.843657 0.6060 0.6340 0.6629 0.7009 0.7349
941.229631 0.7630 0.7860 0.8050 0.8340 0.8380
945.615605 0.8380 0.8230 0.8030 0.7641 0.7171
950.001578 0.6509 0.6059 0.5630 0.5630 0.5890
954.387552 0.6190 0.6400 0.6550 0.6730 0.6949
958.773526 0.7070 0.7160 0.7420 0.7580 0.7760
963.159499 0.7830 0.7930 0.7980 0.8040 0.8160
967.545473 0.8200 0.8330 0.8380 0.8440 0.8520
971.931447 0.8590 0.8670 0.8710 0.8760 0.8810
976.317420 0.8910 0.8980 0.9030 0.9060 0.9100
980.703394 0.9110 0.9130 0.9140 0.9140 0.9140
985.089368 0.9140 0.9140 0.9110 0.9100 0.9090
989.475341 0.9020 0.8930 0.8800 0.8601 0.8341
993.861315 0.7599 0.6700 0.6330 0.5920 0.5640
998.247289 0.5021 0.4401 0.4390 0.7621 0.8946
1002.633262 0.9070 0.9170 0.9180 0.9200 0.9200
1007.019236 0.9200 0.9200 0.9170 0.9130 0.9000
1011.405210 0.8760 0.8700 0.8700 0.8740 0.8930
1015.791184 0.9020 0.9030 0.9020 0.8990 0.8930
1020.177157 0.8910 0.8770 0.8650 0.8550 0.8470
1024.563131 0.8380 0.8310 0.8220 0.8120 0.8000
1028.949105 0.7830 0.7640 0.7410 0.7120 0.6760
1033.335078 0.6330 0.5601 0.5221 0.4821 0.4062
1037.721052 0.3359 0.2759 0.2319 0.1540 0.1180
1042.107026 0.0820 0.0660 0.0410 0.0160 0.0150
1046.492999 0.0161 0.0421 0.1000 0.1391 0.2690
1050.878973 0.3630 0.4509 0.6207 0.6899 0.7469
1055.264947 0.7971 0.8370 0.8670 0.8910 0.9070
1059.650920 0.9150 0.9260 0.9360 0.9400 0.9460
1064.036894 0.9470 0.9470 0.9470 0.9470 0.9460
1068.422868 0.9460 0.9420 0.9400 0.9360 0.9220
1072.808841 0.9090 0.9000 0.8890 0.8730 0.8560
1077.194815 0.8360 0.8090 0.7900 0.7800 0.6773
1081.580789 0.6029 0.5550 0.5390 0.5230 0.5050
1085.966762 0.4940 0.4690 0.4291 0.4280 0.4290
1090.352736 0.4613 0.5971 0.6520 0.6540 0.6540
1094.738710 0.6510 0.6210 0.5791 0.5481 0.5161
1099.124683 0.2629 0.1959 0.1300 0.0990 0.0660
1103.510657 0.0660 0.1289 0.1609 0.2139 0.3287
1107.896631 0.4153 0.5891 0.6680 0.7300 0.7720
1112.282604 0.7870 0.8070 0.8150 0.8200 0.8290
1116.668578 0.8340 0.8360 0.8400 0.8420 0.8510
1121.054552 0.8580 0.8590 0.8590 0.8580 0.8580
1125.440526 0.8560 0.8530 0.8470 0.8440 0.8400
1129.826499 0.8370 0.8290 0.8190 0.8120 0.8030
1134.212473 0.7970 0.7860 0.7780 0.7640 0.7470
1138.598447 0.7300 0.7200 0.7060 0.6721 0.6291
1142.984420 0.5819 0.5630 0.5440 0.5190 0.4930
1147.370394 0.4500 0.4200 0.3800 0.3231 0.2711
1151.756368 0.2159 0.1699 0.1140 0.1110 0.1100
1156.142341 0.1100 0.1110 0.1150 0.1210 0.1290
1160.528315 0.1391 0.1720 0.1870 0.2030 0.2230
1164.914289 0.2410 0.2580 0.2750 0.2900 0.3010
1169.300262 0.3080 0.3140 0.3150 0.3140 0.3140
1173.686236 0.3110 0.3080 0.3070 0.2980 0.2860
1178.072210 0.2679 0.2470 0.2230 0.1980 0.1700
1182.458183 0.1430 0.1150 0.1030 0.0900 0.0661
1186.844157 0.0450 0.0260 0.0150 0.0120 0.0120
1191.230131 0.0090 0.0090 0.0080 0.0080 0.0090
1195.616104 0.0110 0.0120 0.0160 0.0230 0.0340
1200.002078 0.0610 0.1229 0.1550 0.1849 0.2139
1204.388052 0.2380 0.2540 0.2640 0.2670 0.2670
1208.774025 0.2670 0.2650 0.2610 0.2490 0.2310
1213.159999 0.2049 0.1739 0.1410 0.1100 0.0960
1217.545973 0.0820 0.0630 0.0530 0.0410 0.0260
1221.931946 0.0110 0.0080 0.0060 0.0050 0.0050
1226.317920 0.0050 0.0060 0.0080 0.0090 0.0110
1230.703894 0.0130 0.0200 0.0270 0.0370 0.0490
1235.089868 0.0660 0.1030 0.1260 0.1499 0.1759
1239.475841 0.2021 0.2300 0.2570 0.2860 0.3150
1243.861815 0.3440 0.3730 0.4000 0.4259 0.4440
1248.247789 0.4600 0.4710 0.4730 0.4910 0.4930
1252.633762 0.4910 0.4910 0.4840 0.4750 0.4600
1257.019736 0.4470 0.4440 0.4460 0.4600 0.4620
1261.405710 0.4760 0.4870 0.4900 0.4940 0.4970
1265.791683 0.4970 0.4980 0.4980 0.4970 0.4940
1270.177657 0.4750 0.4530 0.4360 0.4170 0.3950
1274.563631 0.3930 0.3950 0.4060 0.4180 0.4330
1278.949604 0.4500 0.4790 0.5729 0.5950 0.6110
1283.335578 0.6210 0.6220 0.6220 0.6190 0.6120
1287.721552 0.6070 0.5920 0.5750 0.5670 0.5450
1292.107525 0.5229 0.4870 0.4769 0.4460 0.4180
1296.493499 0.3820 0.3440 0.3110 0.2790 0.2411
1300.879473 0.2009 0.1649 0.1250 0.1230 0.1250
1305.265446 0.1320 0.1390 0.1410 0.1520 0.1580
1309.651420 0.1620 0.1650 0.1810 0.1950 0.2050
1314.037394 0.2130 0.2200 0.2250 0.2310 0.2360
1318.423367 0.2420 0.2490 0.2580 0.2690 0.2830
1322.809341 0.3010 0.3220 0.3470 0.3869 0.4169
1327.195315 0.4401 0.4621 0.4860 0.5121 0.5930
1331.581288 0.6520 0.6690 0.6770 0.6880 0.6990
1335.967262 0.7070 0.7130 0.7170 0.7170 0.7190
1340.353236 0.7190 0.7190 0.7190 0.7200 0.7200
1344.739209 0.7210 0.7250 0.7310 0.7390 0.7470
1349.125183 0.7570 0.7640 0.7750 0.8039 0.8150
1353.511157 0.8200 0.8300 0.8380 0.8490 0.8560
1357.897131 0.8650 0.8730 0.8770 0.8870 0.8950
1362.283104 0.9030 0.9090 0.9090 0.9090 0.9090
1366.669078 0.9070 0.9070 0.9070 0.9060 0.9070
1371.055052 0.9070 0.9060 0.9040 0.9030 0.9030
1375.441025 0.9020 0.9000 0.8950 0.8930 0.8880
1379.826999 0.8880 0.8840 0.8780 0.8760 0.8740
1384.212973 0.8710 0.8670 0.8630 0.8560 0.8520
1388.598946 0.8450 0.8410 0.8360 0.8290 0.8220
1392.984920 0.8160 0.8080 0.7980 0.7890 0.7800
1397.370894 0.7720 0.7650 0.7610 0.7410 0.7200
1401.756867 0.7020 0.6810 0.6610 0.6360 0.6031
1406.142841 0.5639 0.5329 0.5009 0.4540 0.4240
1410.528815 0.4220 0.4240 0.4440 0.4650 0.5109
1414.914788 0.5200 0.5301 0.5661 0.5960 0.6120
1419.300762 0.6250 0.6430 0.6610 0.6790 0.6940
1423.686736 0.6960 0.7060 0.7120 0.7230 0.7270
1428.072709 0.7270 0.7230 0.7230 0.7210 0.7200
1432.458683 0.7200 0.7190 0.7200 0.7200 0.7200
1436.844657 0.7170 0.7130 0.7100 0.6870 0.6590
1441.230630 0.6259 0.5838 0.5199 0.4570 0.4360
1445.616604 0.4110 0.3880 0.3650 0.3650 0.4209
1450.002578 0.4712 0.5531 0.5971 0.6370 0.6730
1454.388551 0.6870 0.7030 0.7200 0.7380 0.7789
1458.774525 0.8081 0.8300 0.8450 0.8600 0.8740
1463.160499 0.8850 0.8910 0.9000 0.9130 0.9210
1467.546473 0.9320 0.9350 0.9360 0.9390 0.9430
1471.932446 0.9460 0.9470 0.9440 0.9330 0.9170
1476.318420 0.9000 0.8870 0.8740 0.8660 0.8590
1480.704394 0.8580 0.8580 0.8620 0.8820 0.9149
1485.090367 0.9320 0.9420 0.9540 0.9650 0.9720
1489.476341 0.9770 0.9800 0.9820 0.9820 0.9830
1493.862315 0.9860 0.9860 0.9860 0.9870 0.9880
1498.248288 0.9900 0.9910 0.9930 0.9930 0.9930
1502.634262 0.9930 0.9940 0.9940 0.9950 1.0010
1507.020236 1.0000 1.0000 0.9980 0.9970 0.9950
1511.406209 0.9940 0.9910 0.9880 0.9870 0.9860
1515.792183 0.9860 0.9840 0.9840 0.9830 0.9830
1520.178157 0.9820 0.9790 0.9770 0.9750 0.9720
1524.564130 0.9710 0.9710 0.9720 0.9750 0.9750
1528.950104 0.9760 0.9790 0.9790 0.9800 0.9830
1533.336078 0.9840 0.9840 0.9840 0.9840 0.9840
1537.722051 0.9840 0.9860 0.9870 0.9880 0.9880
1542.108025 0.9870 0.9840 0.9830 0.9820 0.9800
1546.493999 0.9770 0.9770 0.9760 0.9760 0.9760
1550.879972 0.9750 0.9750 0.9730 0.9710 0.9690
1555.265946 0.9680 0.9660 0.9650 0.9610 0.9580
1559.651920 0.9580 0.9550 0.9510 0.9490 0.9440
1564.037893 0.9430 0.9430 0.9390 0.9350 0.9290
1568.423867 0.9250 0.9210 0.9200 0.9110 0.9020
1572.809841 0.8890 0.8800 0.8700 0.8580 0.8440
1577.195815 0.8110 0.7800 0.7500 0.7280 0.7090
1581.581788 0.7070 0.7100 0.7200 0.7320 0.7530
1585.967762 0.7710 0.7890 0.8010 0.8190 0.8380
1590.353736 0.8480 0.8620 0.8660 0.8660 0.8630
1594.739709 0.8620 0.8560 0.8510 0.8400 0.8300
1599.125683 0.8139 0.7939 0.7569 0.7189 0.6699
1603.511657 0.5880 0.5550 0.5220 0.5200 0.5709
1607.897630 0.6301 0.6791 0.7241 0.7691 0.8380
1612.283604 0.8820 0.9000 0.9030 0.9140 0.9170
1616.669578 0.9180 0.9180 0.9180 0.9170 0.9140
1621.055551 0.9140 0.9110 0.9100 0.9100 0.9060
1625.441525 0.8990 0.8980 0.8930 0.8920 0.8910
1629.827499 0.8890 0.8870 0.8760 0.8730 0.8690
1634.213472 0.8670 0.8630 0.8580 0.8550 0.8510
1638.599446 0.8400 0.8380 0.8330 0.8290 0.8200
1642.985420 0.8140 0.8080 0.8010 0.7960 0.7900
1647.371393 0.7830 0.7760 0.7670 0.7580 0.7470
1651.757367 0.7380 0.7280 0.7200 0.7100 0.7020
1656.143341 0.6920 0.6850 0.6770 0.6720 0.6650
1660.529314 0.6439 0.6259 0.6100 0.5960 0.5820
1664.915288 0.5680 0.5530 0.5460 0.5380 0.5200
1669.301262 0.4979 0.4749 0.4459 0.4129 0.3729
1673.687235 0.3260 0.2930 0.2560 0.2200 0.1830
1678.073209 0.1469 0.1120 0.0970 0.0810 0.0780
1682.459183 0.0780 0.0840 0.0860 0.0860 0.0850
1686.845156 0.0819 0.0670 0.0640 0.0660 0.0780
1691.231130 0.0990 0.1000 0.1030 0.1430 0.1570
1695.617104 0.1590 0.1680 0.1760 0.1800 0.1810
1700.003078 0.1830 0.1840 0.1880 0.1910 0.1990
1704.389051 0.2191 0.2340 0.2470 0.2610 0.2760
1708.775025 0.2940 0.3160 0.3440 0.3770 0.4169
1713.160999 0.4501 0.4862 0.5591 0.5931 0.6220
1717.546972 0.6470 0.6650 0.6720 0.6850 0.7070
1721.932946 0.7201 0.7381 0.7720 0.7900 0.8000
1726.318920 0.8140 0.8310 0.8510 0.8630 0.8760
1730.704893 0.8890 0.9000 0.9110 0.9200 0.9210
1735.090867 0.9220 0.9220 0.9250 0.9290 0.9350
1739.476841 0.9380 0.9390 0.9420 0.9460 0.9540
1743.862814 0.9620 0.9640 0.9650 0.9690 0.9720
1748.248788 0.9720 0.9710 0.9710 0.9720 0.9720
1752.634762 0.9750 0.9750 0.9730 0.9730 0.9720
1757.020735 0.9720 0.9710 0.9710 0.9710 0.9710
1761.406709 0.9690 0.9690 0.9680 0.9660 0.9660
1765.792683 0.9650 0.9610 0.9600 0.9570 0.9570
1770.178656 0.9550 0.9540 0.9530 0.9530 0.9530
1774.564630 0.9530 0.9530 0.9530 0.9540 0.9540
1778.950604 0.9540 0.9540 0.9550 0.9540 0.9530
1783.336577 0.9530 0.9510 0.9500 0.9500 0.9510
1787.722551 0.9530 0.9530 0.9510 0.9510 0.9500
1792.108525 0.9470 0.9460 0.9470 0.9470 0.9490
1796.494498 0.9490 0.9490 0.9490 0.9490 0.9490
1800.880472 0.9490 0.9470 0.9460 0.9440 0.9460
1805.266446 0.9440 0.9430 0.9430 0.9430 0.9430
1809.652420 0.9430 0.9430 0.9430 0.9430 0.9460
1814.038393 0.9460 0.9440 0.9430 0.9390 0.9390
1818.424367 0.9390 0.9420 0.9440 0.9470 0.9490
1822.810341 0.9490 0.9460 0.9460 0.9470 0.9470
1827.196314 0.9470 0.9490 0.9470 0.9470 0.9460
1831.582288 0.9470 0.9470 0.9490 0.9490 0.9490
1835.968262 0.9500 0.9500 0.9500 0.9500 0.9500
1840.354235 0.9490 0.9470 0.9470 0.9440 0.9420
1844.740209 0.9390 0.9380 0.9380 0.9350 0.9350
1849.126183 0.9350 0.9360 0.9360 0.9390 0.9390
1853.512156 0.9400 0.9400 0.9420 0.9420 0.9420
1857.898130 0.9420 0.9420 0.9430 0.9430 0.9420
1862.284104 0.9420 0.9420 0.9420 0.9420 0.9400
1866.670077 0.9390 0.9380 0.9360 0.9350 0.9330
1871.056051 0.9330 0.9320 0.9320 0.9320 0.9330
1875.442025 0.9330 0.9350 0.9350 0.9350 0.9350
1879.827998 0.9350 0.9350 0.9360 0.9360 0.9360
1884.213972 0.9360 0.9360 0.9360 0.9360 0.9360
1888.599946 0.9360 0.9360 0.9360 0.9350 0.9350
1892.985919 0.9330 0.9330 0.9330 0.9320 0.9320
1897.371893 0.9320 0.9320 0.9320 0.9320 0.9320
1901.757867 0.9330 0.9330 0.9330 0.9330 0.9330
1906.143840 0.9330 0.9330 0.9330 0.9330 0.9330
1910.529814 0.9350 0.9350 0.9350 0.9350 0.9360
1914.915788 0.9360 0.9360 0.9330 0.9330 0.9320
1919.301762 0.9320 0.9320 0.9310 0.9290 0.9280
1923.687735 0.9260 0.9260 0.9260 0.9260 0.9250
1928.073709 0.9240 0.9240 0.9250 0.9250 0.9240
1932.459683 0.9240 0.9220 0.9220 0.9210 0.9210
1936.845656 0.9200 0.9200 0.9200 0.9200 0.9200
1941.231630 0.9200 0.9180 0.9170 0.9170 0.9150
1945.617604 0.9150 0.9150 0.9140 0.9140 0.9150
1950.003577 0.9150 0.9170 0.9180 0.9180 0.9210
1954.389551 0.9220 0.9240 0.9240 0.9250 0.9260
1958.775525 0.9260 0.9280 0.9290 0.9310 0.9310
1963.161498 0.9290 0.9280 0.9280 0.9280 0.9280
1967.547472 0.9280 0.9260 0.9260 0.9260 0.9260
1971.933446 0.9260 0.9250 0.9250 0.9240 0.9240
1976.319419 0.9220 0.9220 0.9210 0.9200 0.9180
1980.705393 0.9170 0.9150 0.9140 0.9130 0.9110
1985.091367 0.9100 0.9090 0.9070 0.9060 0.9040
1989.477340 0.9020 0.9000 0.9000 0.9000 0.9020
1993.863314 0.9090 0.9170 0.9260 0.9260 0.9240
1998.249288 0.9210 0.9220 0.9280 0.9300 0.9320
2002.635261 0.9335 0.9350 0.9355 0.9360 0.9370
2007.021235 0.9380 0.9380 0.9380 0.9380 0.9380
2011.407209 0.9380 0.9380 0.9380 0.9380 0.9380
2015.793182 0.9380 0.9380 0.9380 0.9380 0.9380
2020.179156 0.9380 0.9380 0.9380 0.9380 0.9380
2024.565130 0.9380 0.9380 0.9380 0.9380 0.9380
2028.951103 0.9370 0.9360 0.9360 0.9360 0.9360
2033.337077 0.9360 0.9360 0.9360 0.9360 0.9360
2037.723051 0.9360 0.9360 0.9360 0.9360 0.9360
2042.109025 0.9360 0.9360 0.9360 0.9370 0.9380
2046.494998 0.9380 0.9380 0.9380 0.9380 0.9380
2050.880972 0.9380 0.9380 0.9380 0.9380 0.9380
2055.266946 0.9380 0.9379 0.9369 0.9360 0.9360
2059.652919 0.9360 0.9355 0.9350 0.9350 0.9350
2064.038893 0.9350 0.9349 0.9339 0.9330 0.9330
2068.424867 0.9330 0.9330 0.9330 0.9330 0.9330
2072.810840 0.9325 0.9320 0.9320 0.9320 0.9315
2077.196814 0.9309 0.9294 0.9279 0.9269 0.9260
2081.582788 0.9260 0.9260 0.9260 0.9260 0.9260
2085.968761 0.9260 0.9254 0.9250 0.9250 0.9250
2090.354735 0.9250 0.9250 0.9250 0.9250 0.9250
2094.740709 0.9249 0.9244 0.9240 0.9240 0.9240
2099.126682 0.9240 0.9239 0.9229 0.9218 0.9198
2103.512656 0.9179 0.9174 0.9169 0.9159 0.9149
2107.898630 0.9144 0.9138 0.9123 0.9109 0.9099
2112.284603 0.9088 0.9073 0.9059 0.9049 0.9040
2116.670577 0.9040 0.9039 0.9034 0.9030 0.9030
2121.056551 0.9029 0.9024 0.9018 0.9003 0.8989
2125.442524 0.8984 0.8978 0.8963 0.8948 0.8933
2129.828498 0.8917 0.8897 0.8878 0.8863 0.8849
2134.214472 0.8844 0.8838 0.8828 0.8820 0.8820
2138.600445 0.8820 0.8820 0.8820 0.8820 0.8819
2142.986419 0.8814 0.8810 0.8810 0.8810 0.8810
2147.372393 0.8810 0.8810 0.8810 0.8810 0.8809
2151.758367 0.8804 0.8800 0.8800 0.8801 0.8806
2156.144340 0.8810 0.8810 0.8810 0.8810 0.8810
2160.530314 0.8810 0.8809 0.8804 0.8797 0.8782
2164.916288 0.8766 0.8746 0.8730 0.8730 0.8728
2169.302261 0.8718 0.8709 0.8704 0.8697 0.8682
2173.688235 0.8668 0.8658 0.8647 0.8632 0.8617
2178.074209 0.8602 0.8587 0.8572 0.8559 0.8554
2182.460182 0.8548 0.8538 0.8529 0.8524 0.8520
2186.846156 0.8520 0.8521 0.8526 0.8530 0.8530
2191.232130 0.8530 0.8530 0.8529 0.8524 0.8520
2195.618103 0.8520 0.8519 0.8514 0.8510 0.8510
2200.004077 0.8510 0.8510 0.8510 0.8510 0.8511
2204.390051 0.8516 0.8521 0.8526 0.8530 0.8530
2208.776024 0.8533 0.8543 0.8551 0.8556 0.8559
2213.161998 0.8554 0.8550 0.8550 0.8546 0.8531
2217.547972 0.8516 0.8501 0.8487 0.8477 0.8466
2221.933945 0.8451 0.8437 0.8427 0.8419 0.8414
2226.319919 0.8409 0.8404 0.8397 0.8387 0.8379
2230.705893 0.8374 0.8369 0.8364 0.8357 0.8347
2235.091866 0.8336 0.8321 0.8309 0.8304 0.8300
2239.477840 0.8300 0.8296 0.8281 0.8267 0.8257
2243.863814 0.8246 0.8230 0.8214 0.8194 0.8177
2248.249787 0.8167 0.8163 0.8173 0.8177 0.8167
2252.635761 0.8158 0.8153 0.8145 0.8130 0.8115
2257.021735 0.8100 0.8084 0.8064 0.8048 0.8043
2261.407709 0.8038 0.8033 0.8027 0.8017 0.8010
2265.793682 0.8010 0.8008 0.8003 0.8000 0.8000
2270.179656 0.7997 0.7987 0.7980 0.7980 0.7978
2274.565630 0.7973 0.7970 0.7970 0.7968 0.7963
2278.951603 0.7960 0.7960 0.7956 0.7946 0.7940
2283.337577 0.7940 0.7938 0.7933 0.7930 0.7930
2287.723551 0.7928 0.7923 0.7916 0.7906 0.7898
2292.109524 0.7893 0.7886 0.7876 0.7868 0.7863
2296.495498 0.7860 0.7860 0.7858 0.7853 0.7844
2300.881472 0.7829 0.7816 0.7806 0.7798 0.7793
2305.267445 0.7790 0.7790 0.7790 0.7790 0.7790
2309.653419 0.7790 0.7790 0.7790 0.7792 0.7797
2314.039393 0.7800 0.7800 0.7804 0.7814 0.7820
2318.425366 0.7820 0.7820 0.7820 0.7822 0.7827
2322.811340 0.7834 0.7844 0.7850 0.7850 0.7852
2327.197314 0.7857 0.7860 0.7860 0.7862 0.7867
2331.583287 0.7874 0.7884 0.7890 0.7890 0.7884
2335.969261 0.7869 0.7860 0.7860 0.7862 0.7867
2340.355235 0.7870 0.7870 0.7870 0.7870 0.7868
2344.741208 0.7863 0.7860 0.7860 0.7860 0.7860
2349.127182 0.7860 0.7860 0.7860 0.7860 0.7860
2353.513156 0.7860 0.7860 0.7860 0.7860 0.7860
2357.899129 0.7860 0.7860 0.7867 0.7882 0.7890
2362.285103 0.7890 0.7886 0.7876 0.7868 0.7863
2366.671077 0.7853 0.7838 0.7823 0.7808 0.7798
2371.057050 0.7793 0.7783 0.7768 0.7758 0.7753
2375.443024 0.7743 0.7728 0.7711 0.7691 0.7671
2379.828998 0.7651 0.7633 0.7618 0.7608 0.7603
2384.214972 0.7600 0.7600 0.7600 0.7600 0.7600
2388.600945 0.7600 0.7600 0.7600 0.7600 0.7600
2392.986919 0.7595 0.7585 0.7580 0.7580 0.7580
2397.372893 0.7580 0.7580 0.7580 0.7580 0.7580
2401.758866 0.7578 0.7572 0.7570 0.7570 0.7567
2406.144840 0.7562 0.7560 0.7560 0.7555 0.7545
2410.530814 0.7540 0.7540 0.7537 0.7532 0.7522
2414.916787 0.7507 0.7490 0.7470 0.7452 0.7437
2419.302761 0.7425 0.7415 0.7405 0.7395 0.7387
2423.688735 0.7382 0.7380 0.7380 0.7380 0.7380
2428.074708 0.7375 0.7365 0.7357 0.7352 0.7350
2432.460682 0.7350 0.7347 0.7342 0.7340 0.7340
2436.846656 0.7335 0.7325 0.7320 0.7320 0.7317
2441.232629 0.7312 0.7307 0.7302 0.7292 0.7277
2445.618603 0.7264 0.7254 0.7247 0.7242 0.7240
2450.004577 0.7240 0.7237 0.7232 0.7224 0.7214
2454.390550 0.7207 0.7202 0.7197 0.7192 0.7184
2458.776524 0.7174 0.7167 0.7162 0.7154 0.7144
2463.162498 0.7137 0.7132 0.7127 0.7122 0.7114
2467.548471 0.7104 0.7097 0.7092 0.7084 0.7074
2471.934445 0.7067 0.7062 0.7057 0.7052 0.7044
2476.320419 0.7034 0.7024 0.7014 0.7001 0.6986
2480.706392 0.6971 0.6956 0.6935 0.6910 0.6882
2485.092366 0.6852 0.6837 0.6832 0.6824 0.6814
2489.478340 0.6807 0.6802 0.6797 0.6792 0.6775
2493.864314 0.6750 0.6734 0.6724 0.6714 0.6704
2498.250287 0.6697 0.6692 0.6678 0.6658 0.6616
2502.636261 0.6561 0.6518 0.6483 0.6458 0.6438
2507.022235 0.6421 0.6405 0.6390 0.6375 0.6367
2511.408208 0.6362 0.6341 0.6311 0.6278 0.6243
2515.794182 0.6214 0.6189 0.6180 0.6180 0.6154
2520.180156 0.6114 0.6087 0.6067 0.6041 0.6011
2524.566129 0.5974 0.5934 0.5900 0.5870 0.5843
2528.952103 0.5818 0.5790 0.5760 0.5727 0.5692
2533.338077 0.5663 0.5638 0.5607 0.5572 0.5547
2537.724050 0.5527 0.5513 0.5503 0.5493 0.5483
2542.110024 0.5467 0.5446 0.5419 0.5389 0.5363
2546.495998 0.5338 0.5309 0.5279 0.5256 0.5236
2550.881971 0.5220 0.5205 0.5197 0.5192 0.5183
2555.267945 0.5173 0.5170 0.5170 0.5180 0.5195
2559.653919 0.5214 0.5234 0.5251 0.5266 0.5298
2564.039892 0.5338 0.5371 0.5401 0.5452 0.5512
2568.425866 0.5555 0.5590 0.5639 0.5694 0.5749
2572.811840 0.5804 0.5866 0.5931 0.5982 0.6027
2577.197813 0.6065 0.6100 0.6132 0.6162 0.6188
2581.583787 0.6213 0.6242 0.6272 0.6287 0.6297
2585.969761 0.6315 0.6335 0.6340 0.6340 0.6340
2590.355734 0.6340 0.6336 0.6331 0.6315 0.6295
2594.741708 0.6279 0.6264 0.6249 0.6234 0.6211
2599.127682 0.6186 0.6169 0.6154 0.6146 0.6141
2603.513656 0.6129 0.6114 0.6099 0.6084 0.6072
2607.899629 0.6062 0.6060 0.6060 0.6052 0.6042
2612.285603 0.6040 0.6040 0.6040 0.6040 0.6052
2616.671577 0.6067 0.6070 0.6070 0.6070 0.6070
2621.057550 0.6058 0.6043 0.6036 0.6031 0.6018
2625.443524 0.6003 0.5996 0.5991 0.5975 0.5955
2629.829498 0.5942 0.5932 0.5918 0.5903 0.5892
2634.215471 0.5882 0.5868 0.5853 0.5838 0.5823
2638.601445 0.5800 0.5775 0.5754 0.5734 0.5706
2642.987419 0.5676 0.5654 0.5634 0.5606 0.5576
2647.373392 0.5550 0.5525 0.5508 0.5493 0.5478
2651.759366 0.5463 0.5444 0.5424 0.5400 0.5375
2656.145340 0.5354 0.5334 0.5310 0.5285 0.5272
2660.531313 0.5262 0.5235 0.5205 0.5184 0.5164
2664.917287 0.5148 0.5132 0.5126 0.5121 0.5120
2669.303261 0.5120 0.5120 0.5120 0.5124 0.5129
2673.689234 0.5143 0.5158 0.5177 0.5197 0.5229
2678.075208 0.5264 0.5295 0.5325 0.5397 0.5477
2682.461182 0.5532 0.5583 0.5624 0.5664 0.5687
2686.847155 0.5707 0.5727 0.5747 0.5767 0.5787
2691.233129 0.5846 0.5911 0.5950 0.5985 0.6012
2695.619103 0.6037 0.6057 0.6077 0.6097 0.6117
2700.005076 0.6142 0.6167 0.6179 0.6189 0.6216
2704.391050 0.6246 0.6254 0.6259 0.6269 0.6279
2708.777024 0.6284 0.6289 0.6308 0.6328 0.6348
2713.162997 0.6368 0.6383 0.6398 0.6404 0.6409
2717.548971 0.6410 0.6410 0.6405 0.6400 0.6395
2721.934945 0.6390 0.6390 0.6390 0.6390 0.6390
2726.320919 0.6381 0.6371 0.6365 0.6360 0.6360
2730.706892 0.6360 0.6360 0.6360 0.6351 0.6341
2735.092866 0.6340 0.6340 0.6340 0.6340 0.6335
2739.478840 0.6330 0.6330 0.6330 0.6325 0.6320
2743.864813 0.6306 0.6291 0.6285 0.6280 0.6271
2748.250787 0.6261 0.6260 0.6260 0.6255 0.6250
2752.636761 0.6250 0.6250 0.6241 0.6231 0.6221
2757.022734 0.6211 0.6201 0.6191 0.6185 0.6180
2761.408708 0.6166 0.6151 0.6117 0.6082 0.6075
2765.794682 0.6070 0.6065 0.6060 0.6036 0.6011
2770.180655 0.5981 0.5951 0.5921 0.5891 0.5871
2774.566629 0.5851 0.5835 0.5820 0.5805 0.5790
2778.952603 0.5771 0.5751 0.5740 0.5730 0.5701
2783.338576 0.5671 0.5651 0.5631 0.5601 0.5571
2787.724550 0.5545 0.5520 0.5510 0.5500 0.5490
2792.110524 0.5480 0.5445 0.5410 0.5380 0.5350
2796.496497 0.5315 0.5280 0.5255 0.5230 0.5200
2800.882471 0.5170 0.5150 0.5130 0.5105 0.5080
2805.268445 0.5060 0.5040 0.5010 0.4980 0.4965
2809.654418 0.4950 0.4930 0.4910 0.4905 0.4900
2814.040392 0.4890 0.4880 0.4880 0.4880 0.4875
2818.426366 0.4870 0.4870 0.4870 0.4865 0.4860
2822.812339 0.4860 0.4860 0.4850 0.4840 0.4840
2827.198313 0.4840 0.4840 0.4840 0.4835 0.4830
2831.584287 0.4830 0.4829 0.4814 0.4800 0.4795
2835.970261 0.4789 0.4759 0.4728 0.4688 0.4649
2840.356234 0.4624 0.4599 0.4584 0.4569 0.4559
2844.742208 0.4550 0.4550 0.4551 0.4561 0.4570
2849.128182 0.4570 0.4570 0.4570 0.4571 0.4586
2853.514155 0.4600 0.4605 0.4610 0.4610 0.4610
2857.900129 0.4610 0.4610 0.4610 0.4610 0.4605
2862.286103 0.4600 0.4600 0.4599 0.4589 0.4580
2866.672076 0.4580 0.4580 0.4580 0.4580 0.4575
2871.058050 0.4568 0.4548 0.4529 0.4519 0.4510
2875.444024 0.4505 0.4499 0.4494 0.4489 0.4479
2879.829997 0.4469 0.4464 0.4460 0.4460 0.4460
2884.215971 0.4460 0.4460 0.4460 0.4461 0.4466
2888.601945 0.4470 0.4470 0.4471 0.4481 0.4490
2892.987918 0.4490 0.4491 0.4496 0.4500 0.4500
2897.373892 0.4501 0.4506 0.4512 0.4527 0.4542
2901.759866 0.4562 0.4582 0.4602 0.4621 0.4631
2906.145839 0.4641 0.4646 0.4650 0.4650 0.4651
2910.531813 0.4656 0.4662 0.4677 0.4692 0.4707
2914.917787 0.4724 0.4749 0.4772 0.4787 0.4801
2919.303760 0.4811 0.4824 0.4849 0.4873 0.4893
2923.689734 0.4913 0.4933 0.4952 0.4967 0.4983
2928.075708 0.5003 0.5022 0.5032 0.5042 0.5052
2932.461681 0.5066 0.5101 0.5132 0.5142 0.5148
2936.847655 0.5138 0.5130 0.5130 0.5128 0.5118
2941.233629 0.5107 0.5092 0.5074 0.5039 0.5005
2945.619603 0.4975 0.4945 0.4920 0.4896 0.4876
2950.005576 0.4856 0.4836 0.4817 0.4802 0.4787
2954.391550 0.4772 0.4756 0.4736 0.4719 0.4714
2958.777524 0.4707 0.4692 0.4677 0.4662 0.4646
2963.163497 0.4626 0.4609 0.4604 0.4600 0.4600
2967.549471 0.4600 0.4600 0.4600 0.4600 0.4601
2971.935445 0.4606 0.4610 0.4610 0.4613 0.4628
2976.321418 0.4641 0.4646 0.4651 0.4656 0.4660
2980.707392 0.4660 0.4660 0.4660 0.4660 0.4660
2985.093366 0.4660 0.4660 0.4660 0.4660 0.4659
2989.479339 0.4654 0.4649 0.4644 0.4638 0.4628
2993.865313 0.4615 0.4595 0.4575 0.4555 0.4535
2998.251287 0.4515 0.4499 0.4494 0.4487 0.4477
3002.637260 0.4470 0.4470 0.4470 0.4470 0.4470
3007.023234 0.4470 0.4470 0.4470 0.4470 0.4470
3011.409208 0.4470 0.4470 0.4473 0.4483 0.4490
3015.795181 0.4490 0.4491 0.4496 0.4506 0.4526
3020.181155 0.4548 0.4578 0.4608 0.4638 0.4663
3024.567129 0.4673 0.4684 0.4699 0.4713 0.4723
3028.953102 0.4734 0.4749 0.4766 0.4786 0.4804
3033.339076 0.4819 0.4836 0.4856 0.4876 0.4896
3037.725050 0.4914 0.4929 0.4945 0.4960 0.4978
3042.111023 0.5002 0.5023 0.5033 0.5040 0.5040
3046.496997 0.5037 0.5027 0.5017 0.5007 0.4997
3050.882971 0.4987 0.4980 0.4980 0.4978 0.4973
3055.268944 0.4967 0.4957 0.4948 0.4943 0.4940
3059.654918 0.4940 0.4938 0.4933 0.4930 0.4930
3064.040892 0.4930 0.4930 0.4932 0.4937 0.4940
3068.426866 0.4940 0.4945 0.4960 0.4975 0.4990
3072.812839 0.5002 0.5007 0.5012 0.5017 0.5023
3077.198813 0.5033 0.5040 0.5040 0.5040 0.5040
3081.584787 0.5033 0.5013 0.4995 0.4980 0.4963
3085.970760 0.4943 0.4925 0.4910 0.4902 0.4907
3090.356734 0.4926 0.4971 0.5011 0.5041 0.5084
3094.742708 0.5149 0.5206 0.5251 0.5284 0.5294
3099.128681 0.5309 0.5334 0.5376 0.5446 0.5510
3103.514655 0.5566 0.5615 0.5656 0.5697 0.5742
3107.900629 0.5780 0.5805 0.5834 0.5869 0.5902
3112.286602 0.5932 0.5958 0.5978 0.5998 0.6018
3116.672576 0.6038 0.6058 0.6078 0.6098 0.6122
3121.058550 0.6152 0.6180 0.6205 0.6232 0.6262
3125.444523 0.6290 0.6315 0.6332 0.6337 0.6350
3129.830497 0.6375 0.6400 0.6425 0.6448 0.6468
3134.216471 0.6486 0.6501 0.6512 0.6517 0.6526
3138.602444 0.6541 0.6559 0.6579 0.6596 0.6611
3142.988418 0.6629 0.6649 0.6675 0.6710 0.6736
3147.374392 0.6751 0.6762 0.6767 0.6770 0.6770
3151.760365 0.6779 0.6799 0.6823 0.6853 0.6879
3156.146339 0.6899 0.6917 0.6932 0.6942 0.6947
3160.532313 0.6959 0.6979 0.6997 0.7012 0.7029
3164.918286 0.7049 0.7067 0.7082 0.7092 0.7097
3169.304260 0.7107 0.7122 0.7137 0.7152 0.7171
3173.690234 0.7197 0.7217 0.7232 0.7240 0.7240
3178.076208 0.7247 0.7262 0.7280 0.7300 0.7320
3182.462181 0.7340 0.7360 0.7380 0.7400 0.7420
3186.848155 0.7435 0.7445 0.7455 0.7465 0.7484
3191.234129 0.7515 0.7540 0.7560 0.7580 0.7600
3195.620102 0.7617 0.7632 0.7640 0.7640 0.7652
3200.006076 0.7677 0.7705 0.7735 0.7760 0.7780
3204.392050 0.7797 0.7812 0.7832 0.7857 0.7875
3208.778023 0.7885 0.7893 0.7898 0.7916 0.7946
3213.163997 0.7965 0.7975 0.7985 0.7995 0.8008
3217.549971 0.8023 0.8030 0.8030 0.8033 0.8038
3221.935944 0.8048 0.8063 0.8075 0.8085 0.8098
3226.321918 0.8113 0.8120 0.8120 0.8125 0.8135
3230.707892 0.8145 0.8155 0.8171 0.8191 0.8214
3235.093865 0.8239 0.8255 0.8265 0.8270 0.8270
3239.479839 0.8281 0.8301 0.8315 0.8325 0.8338
3243.865813 0.8353 0.8371 0.8391 0.8403 0.8408
3248.251786 0.8413 0.8418 0.8434 0.8459 0.8484
3252.637760 0.8509 0.8523 0.8528 0.8536 0.8546
3257.023734 0.8550 0.8550 0.8553 0.8558 0.8569
3261.409707 0.8584 0.8590 0.8590 0.8608 0.8638
3265.795681 0.8656 0.8666 0.8676 0.8686 0.8693
3270.181655 0.8698 0.8712 0.8732 0.8758 0.8788
3274.567628 0.8815 0.8840 0.8862 0.8882 0.8896
3278.953602 0.8906 0.8913 0.8918 0.8923 0.8928
3283.339576 0.8936 0.8946 0.8953 0.8958 0.8966
3287.725550 0.8976 0.8980 0.8980 0.8983 0.8988
3292.111523 0.8990 0.8990 0.8999 0.9014 0.9023
3296.497497 0.9028 0.9033 0.9038 0.9046 0.9056
3300.883471 0.9060 0.9060 0.9060 0.9060 0.9063
3305.269444 0.9068 0.9076 0.9086 0.9103 0.9123
3309.655418 0.9130 0.9130 0.9130 0.9130 0.9133
3314.041392 0.9138 0.9140 0.9140 0.9140 0.9140
3318.427365 0.9143 0.9148 0.9150 0.9150 0.9150
3322.813339 0.9150 0.9157 0.9167 0.9170 0.9170
3327.199313 0.9180 0.9195 0.9203 0.9208 0.9220
3331.585286 0.9235 0.9243 0.9248 0.9263 0.9283
3335.971260 0.9303 0.9323 0.9337 0.9347 0.9360
3340.357234 0.9375 0.9383 0.9388 0.9393 0.9398
3344.743207 0.9400 0.9400 0.9400 0.9400 0.9400
3349.129181 0.9400 0.9400 0.9400 0.9400 0.9400
3353.515155 0.9400 0.9400 0.9407 0.9417 0.9420
3357.901128 0.9420 0.9420 0.9420 0.9420 0.9420
3362.287102 0.9423 0.9428 0.9433 0.9438 0.9440
3366.673076 0.9440 0.9436 0.9431 0.9430 0.9430
3371.059049 0.9430 0.9430 0.9430 0.9430 0.9430
3375.445023 0.9430 0.9430 0.9430 0.9434 0.9439
3379.830997 0.9447 0.9457 0.9460 0.9460 0.9460
3384.216970 0.9460 0.9460 0.9460 0.9460 0.9460
3388.602944 0.9453 0.9443 0.9447 0.9457 0.9460
3392.988918 0.9460 0.9460 0.9460 0.9460 0.9460
3397.374891 0.9460 0.9460 0.9460 0.9460 0.9464
3401.760865 0.9469 0.9478 0.9488 0.9482 0.9472
3406.146839 0.9470 0.9470 0.9470 0.9470 0.9470
3410.532813 0.9470 0.9470 0.9470 0.9466 0.9461
3414.918786 0.9452 0.9442 0.9436 0.9431 0.9430
3419.304760 0.9430 0.9430 0.9430 0.9426 0.9421
3423.690734 0.9408 0.9393 0.9390 0.9390 0.9386
3428.076707 0.9381 0.9380 0.9380 0.9380 0.9380
3432.462681 0.9380 0.9380 0.9380 0.9380 0.9380
3436.848655 0.9380 0.9380 0.9380 0.9372 0.9362
3441.234628 0.9360 0.9360 0.9360 0.9360 0.9356
3445.620602 0.9351 0.9350 0.9350 0.9350 0.9350
3450.006576 0.9342 0.9332 0.9330 0.9330 0.9326
3454.392549 0.9321 0.9316 0.9311 0.9310 0.9310
3458.778523 0.9302 0.9292 0.9290 0.9290 0.9286
3463.164497 0.9281 0.9280 0.9280 0.9272 0.9262
3467.550470 0.9260 0.9260 0.9260 0.9260 0.9268
3471.936444 0.9278 0.9280 0.9280 0.9280 0.9280
3476.322418 0.9284 0.9289 0.9290 0.9290 0.9290
3480.708391 0.9290 0.9290 0.9290 0.9290 0.9290
3485.094365 0.9286 0.9281 0.9280 0.9280 0.9280
3489.480339 0.9280 0.9271 0.9261 0.9260 0.9260
3493.866312 0.9260 0.9260 0.9260 0.9260 0.9256
3498.252286 0.9251 0.9250 0.9250 0.9250 0.9250
3502.638260 0.9246 0.9241 0.9240 0.9240 0.9240
3507.024233 0.9240 0.9231 0.9221 0.9220 0.9220
3511.410207 0.9220 0.9220 0.9220 0.9220 0.9220
3515.796181 0.9220 0.9220 0.9220 0.9220 0.9220
3520.182155 0.9220 0.9220 0.9220 0.9220 0.9229
3524.568128 0.9239 0.9240 0.9240 0.9245 0.9250
3528.954102 0.9250 0.9250 0.9250 0.9250 0.9255
3533.340076 0.9260 0.9269 0.9279 0.9271 0.9261
3537.726049 0.9269 0.9279 0.9280 0.9280 0.9285
3542.112023 0.9290 0.9290 0.9290 0.9290 0.9290
3546.497997 0.9299 0.9309 0.9310 0.9310 0.9310
3550.883970 0.9310 0.9315 0.9320 0.9320 0.9320
3555.269944 0.9325 0.9330 0.9330 0.9330 0.9330
3559.655918 0.9330 0.9340 0.9350 0.9350 0.9350
3564.041891 0.9355 0.9360 0.9360 0.9360 0.9360
3568.427865 0.9360 0.9370 0.9380 0.9380 0.9380
3572.813839 0.9380 0.9380 0.9380 0.9380 0.9385
3577.199812 0.9390 0.9395 0.9400 0.9400 0.9400
3581.585786 0.9400 0.9400 0.9410 0.9420 0.9425
3585.971760 0.9430 0.9430 0.9430 0.9435 0.9440
3590.357733 0.9440 0.9440 0.9440 0.9440 0.9435
3594.743707 0.9430 0.9430 0.9430 0.9425 0.9420
3599.129681 0.9430 0.9440 0.9440 0.9440 0.9450
3603.515654 0.9460 0.9465 0.9470 0.9470 0.9470
3607.901628 0.9470 0.9470 0.9465 0.9460 0.9460
3612.287602 0.9460 0.9450 0.9440 0.9440 0.9440
3616.673575 0.9440 0.9440 0.9435 0.9430 0.9430
3621.059549 0.9430 0.9425 0.9420 0.9420 0.9420
3625.445523 0.9420 0.9420 0.9420 0.9420 0.9425
3629.831497 0.9430 0.9430 0.9430 0.9435 0.9440
3634.217470 0.9440 0.9440 0.9450 0.9460 0.9460
3638.603444 0.9461 0.9476 0.9490 0.9495 0.9500
3642.989418 0.9500 0.9500 0.9505 0.9510 0.9510
3647.375391 0.9511 0.9526 0.9540 0.9545 0.9550
3651.761365 0.9550 0.9550 0.9550 0.9550 0.9550
3656.147339 0.9550 0.9550 0.9550 0.9550 0.9550
3660.533312 0.9545 0.9540 0.9540 0.9540 0.9535
3664.919286 0.9530 0.9530 0.9529 0.9519 0.9510
3669.305260 0.9510 0.9510 0.9505 0.9500 0.9500
3673.691233 0.9500 0.9495 0.9490 0.9495 0.9500
3678.077207 0.9500 0.9500 0.9500 0.9500 0.9506
3682.463181 0.9510 0.9510 0.9510 0.9510 0.9510
3686.849154 0.9510 0.9511 0.9521 0.9530 0.9530
3691.235128 0.9531 0.9536 0.9540 0.9540 0.9540
3695.621102 0.9540 0.9541 0.9546 0.9550 0.9550
3700.007075 0.9550 0.9550 0.9551 0.9561 0.9570
3704.393049 0.9570 0.9570 0.9570 0.9570 0.9570
3708.779023 0.9569 0.9559 0.9550 0.9550 0.9550
3713.164996 0.9550 0.9549 0.9544 0.9539 0.9534
3717.550970 0.9530 0.9530 0.9530 0.9530 0.9530
3721.936944 0.9530 0.9530 0.9530 0.9530 0.9530
3726.322917 0.9530 0.9530 0.9530 0.9530 0.9530
3730.708891 0.9530 0.9528 0.9518 0.9510 0.9510
3735.094865 0.9509 0.9504 0.9500 0.9500 0.9499
3739.480838 0.9494 0.9488 0.9478 0.9469 0.9464
3743.866812 0.9460 0.9460 0.9458 0.9448 0.9440
3748.252786 0.9440 0.9440 0.9440 0.9439 0.9434
3752.638760 0.9430 0.9430 0.9430 0.9430 0.9430
3757.024733 0.9430 0.9430 0.9430 0.9430 0.9430
3761.410707 0.9430 0.9430 0.9430 0.9430 0.9430
3765.796681 0.9430 0.9430 0.9430 0.9430 0.9430
3770.182654 0.9430 0.9430 0.9430 0.9430 0.9431
3774.568628 0.9436 0.9440 0.9440 0.9442 0.9452
3778.954602 0.9460 0.9460 0.9460 0.9460 0.9460
3783.340575 0.9460 0.9460 0.9460 0.9460 0.9460
3787.726549 0.9460 0.9460 0.9460 0.9460 0.9460
3792.112523 0.9460 0.9460 0.9460
##END=
