##TITLE=SODIUM THIOCYANATE
##JCAMP-DX=4.24
##DATA TYPE=INFRARED SPECTRUM
##CLASS=COBLENTZ
##ORIGIN=MELLON INSTITUTE
##OWNER=COBLENTZ SOCIETY
Collection (C) 2018 copyright by the U.S. Secretary of Commerce
on behalf of the United States of America. All rights reserved.
##DATE=Not specified, most likely prior to 1970
##MOLFORM=Na S C N
##SOURCE REFERENCE=COBLENTZ NO. 488
##$NIST ID=B6000488
##$NIST SOURCE=COBLENTZ
##$NIST IMAGE=cob488
##SPECTROMETER/DATA SYSTEM=Not specified, most likely a prism, grating, or hybrid spectrometer.
##STATE=SOLID (NUJOL AND FLUOROLUBE MULLS)
$$PURITY UNKNOWN
##SAMPLING PROCEDURE=TRANSMISSION
##RESOLUTION=4
##DATA PROCESSING=DIGITIZED BY NIST FROM HARD COPY
##XUNITS=MICROMETERS
##YUNITS=TRANSMITTANCE
##XFACTOR=1.000000
##YFACTOR=1
##DELTAX=000.006841
##FIRSTX=2.015
##LASTX=15.97
##FIRSTY=0.605
##MAXX=15.97
##MINX=2.015
##MAXY=0.9
##MINY=0.518
##NPOINTS=2041
##XYDATA=(X++(Y..Y))
2.015000 0.6050 0.6050 0.6050 0.6050 0.6050
2.049221 0.6050 0.6050 0.6070 0.6050 0.6050
2.083000 0.6070 0.6050 0.6050 0.6070 0.6050
2.117221 0.6040 0.6040 0.6050 0.6050 0.6050
2.152000 0.6050 0.6050 0.6040 0.6040 0.6020
2.186221 0.6020 0.6040 0.6040 0.6050 0.6040
2.220000 0.6040 0.6040 0.6040 0.6050 0.6050
2.254221 0.6090 0.6090 0.6110 0.6110 0.6110
2.289000 0.6110 0.6110 0.6110 0.6110 0.6110
2.323221 0.6110 0.6120 0.6120 0.6120 0.6120
2.357000 0.6120 0.6120 0.6140 0.6160 0.6160
2.391221 0.6160 0.6160 0.6160 0.6160 0.6160
2.425000 0.6170 0.6170 0.6170 0.6160 0.6160
2.459221 0.6160 0.6170 0.6170 0.6170 0.6170
2.494000 0.6170 0.6190 0.6190 0.6190 0.6190
2.528221 0.6210 0.6210 0.6210 0.6210 0.6230
2.562000 0.6230 0.6230 0.6240 0.6240 0.6240
2.596221 0.6240 0.6260 0.6260 0.6280 0.6290
2.631000 0.6290 0.6290 0.6310 0.6330 0.6350
2.665221 0.6360 0.6360 0.6380 0.6380 0.6400
2.699000 0.6400 0.6400 0.6380 0.6360 0.6330
2.733221 0.6310 0.6290 0.6280 0.6260 0.6230
2.767000 0.6210 0.6170 0.6140 0.6110 0.6040
2.801221 0.6020 0.6000 0.6000 0.5980 0.5920
2.836000 0.5900 0.5850 0.5810 0.5780 0.5760
2.870221 0.5710 0.5690 0.5690 0.5660 0.5640
2.904000 0.5620 0.5610 0.5610 0.5590 0.5570
2.938221 0.5550 0.5540 0.5540 0.5520 0.5500
2.973000 0.5500 0.5500 0.5500 0.5500 0.5500
3.007221 0.5500 0.5520 0.5520 0.5540 0.5540
3.041000 0.5550 0.5550 0.5570 0.5570 0.5590
3.075221 0.5610 0.5640 0.5670 0.5690 0.5730
3.109000 0.5730 0.5760 0.5800 0.5800 0.5810
3.143221 0.5830 0.5850 0.5860 0.5880 0.5930
3.178000 0.5950 0.5970 0.5970 0.5970 0.6000
3.212221 0.6000 0.6020 0.6040 0.6110 0.6120
3.246000 0.6160 0.6190 0.6230 0.6260 0.6350
3.280221 0.6360 0.6410 0.6430 0.6470 0.6500
3.315000 0.6520 0.6540 0.6550 0.6550 0.6570
3.349221 0.6590 0.6590 0.6600 0.6620 0.6620
3.383000 0.6640 0.6660 0.6670 0.6670 0.6710
3.417221 0.6710 0.6740 0.6760 0.6790 0.6810
3.451000 0.6810 0.6830 0.6850 0.6880 0.6900
3.485221 0.6900 0.6910 0.6930 0.6930 0.6950
3.520000 0.6970 0.7000 0.7020 0.7020 0.7050
3.554221 0.7070 0.7070 0.7090 0.7100 0.7100
3.588000 0.7120 0.7140 0.7140 0.7160 0.7160
3.622221 0.7170 0.7190 0.7190 0.7210 0.7210
3.657000 0.7220 0.7220 0.7220 0.7240 0.7240
3.691221 0.7240 0.7260 0.7280 0.7290 0.7290
3.725000 0.7310 0.7310 0.7330 0.7340 0.7360
3.759221 0.7360 0.7380 0.7400 0.7400 0.7410
3.794000 0.7410 0.7410 0.7430 0.7450 0.7450
3.828221 0.7450 0.7460 0.7460 0.7480 0.7500
3.862000 0.7500 0.7500 0.7500 0.7520 0.7530
3.896221 0.7530 0.7550 0.7550 0.7550 0.7570
3.930000 0.7550 0.7550 0.7570 0.7570 0.7570
3.964221 0.7590 0.7590 0.7590 0.7600 0.7620
3.999000 0.7620 0.7620 0.7620 0.7640 0.7640
4.033221 0.7640 0.7640 0.7650 0.7650 0.7650
4.067000 0.7650 0.7670 0.7670 0.7670 0.7670
4.101221 0.7670 0.7670 0.7670 0.7670 0.7670
4.136000 0.7670 0.7670 0.7670 0.7690 0.7690
4.170221 0.7690 0.7710 0.7690 0.7690 0.7690
4.204000 0.7670 0.7670 0.7650 0.7650 0.7640
4.238221 0.7620 0.7600 0.7590 0.7590 0.7550
4.272000 0.7550 0.7530 0.7530 0.7530 0.7530
4.306221 0.7530 0.7530 0.7530 0.7530 0.7530
4.341000 0.7530 0.7530 0.7530 0.7550 0.7590
4.375221 0.7620 0.7640 0.7670 0.7710 0.7740
4.409000 0.7770 0.7770 0.7790 0.7810 0.7810
4.443221 0.7830 0.7830 0.7830 0.7840 0.7840
4.478000 0.7860 0.7880 0.7900 0.7910 0.7930
4.512221 0.7960 0.8000 0.8000 0.8000 0.8020
4.546000 0.8020 0.8030 0.8050 0.8050 0.8070
4.580221 0.8070 0.8070 0.8080 0.8080 0.8120
4.614000 0.8150 0.8190 0.8330 0.8380 0.8480
4.648221 0.8530 0.8570 0.8600 0.8700 0.8770
4.683000 0.8810 0.8880 0.8930 0.8980 0.8980
4.717221 0.8980 0.9000 0.9000 0.8980 0.8930
4.751000 0.8890 0.8810 0.8770 0.8740 0.8720
4.785221 0.8550 0.8330 0.8190 0.7520 0.7260
4.820000 0.7030 0.6720 0.6450 0.6260 0.6050
4.854221 0.5880 0.5730 0.5490 0.5450 0.5350
4.888000 0.5300 0.5260 0.5240 0.5230 0.5210
4.922221 0.5210 0.5210 0.5210 0.5210 0.5210
4.956000 0.5210 0.5210 0.5210 0.5210 0.5210
4.990221 0.5210 0.5210 0.5230 0.5280 0.5300
5.025000 0.5310 0.5330 0.5350 0.5370 0.5370
5.059221 0.5380 0.5400 0.5430 0.5470 0.5490
5.093000 0.5500 0.5540 0.5550 0.5590 0.5610
5.127221 0.5620 0.5640 0.5660 0.5670 0.5690
5.162000 0.5710 0.5730 0.5740 0.5760 0.5800
5.196221 0.5830 0.5850 0.5880 0.5920 0.5930
5.230000 0.5950 0.5970 0.5980 0.5980 0.6020
5.264221 0.6020 0.6040 0.6040 0.6050 0.6050
5.299000 0.6070 0.6070 0.6090 0.6090 0.6110
5.333221 0.6110 0.6120 0.6140 0.6160 0.6160
5.367000 0.6170 0.6190 0.6210 0.6230 0.6240
5.401221 0.6260 0.6290 0.6330 0.6360 0.6360
5.435000 0.6380 0.6400 0.6410 0.6450 0.6450
5.469221 0.6470 0.6480 0.6500 0.6540 0.6550
5.504000 0.6570 0.6570 0.6600 0.6620 0.6640
5.538221 0.6640 0.6660 0.6660 0.6670 0.6670
5.572000 0.6690 0.6690 0.6690 0.6710 0.6710
5.606221 0.6720 0.6720 0.6740 0.6740 0.6740
5.641000 0.6760 0.6760 0.6780 0.6790 0.6790
5.675221 0.6810 0.6830 0.6850 0.6850 0.6860
5.709000 0.6880 0.6900 0.6910 0.6910 0.6930
5.743221 0.6950 0.6950 0.6970 0.6970 0.6980
5.777000 0.6980 0.6980 0.7000 0.7000 0.7000
5.811221 0.7020 0.7020 0.7020 0.7030 0.7050
5.846000 0.7050 0.7050 0.7050 0.7050 0.7070
5.880221 0.7050 0.7050 0.7070 0.7050 0.7030
5.914000 0.7030 0.7030 0.7020 0.7020 0.7020
5.948221 0.7000 0.7000 0.6980 0.6970 0.6950
5.983000 0.6910 0.6880 0.6850 0.6830 0.6780
6.017221 0.6720 0.6670 0.6520 0.6480 0.6450
6.051000 0.6380 0.6310 0.6210 0.6170 0.6040
6.085221 0.6040 0.5980 0.5970 0.5900 0.5860
6.119000 0.5830 0.5780 0.5760 0.5740 0.5730
6.153221 0.5730 0.5730 0.5730 0.5730 0.5730
6.188000 0.5730 0.5730 0.5730 0.5740 0.5760
6.222221 0.5780 0.5800 0.5810 0.5850 0.5860
6.256000 0.5880 0.5930 0.5970 0.5980 0.6000
6.290221 0.6020 0.6040 0.6040 0.6050 0.6070
6.325000 0.6110 0.6140 0.6160 0.6170 0.6210
6.359221 0.6230 0.6260 0.6280 0.6280 0.6290
6.393000 0.6290 0.6310 0.6310 0.6350 0.6400
6.427221 0.6430 0.6450 0.6470 0.6500 0.6500
6.461000 0.6520 0.6540 0.6550 0.6550 0.6550
6.495221 0.6550 0.6570 0.6550 0.6550 0.6550
6.530000 0.6550 0.6550 0.6590 0.6590 0.6600
6.564221 0.6600 0.6620 0.6620 0.6640 0.6660
6.598000 0.6660 0.6670 0.6670 0.6670 0.6690
6.632221 0.6690 0.6720 0.6720 0.6740 0.6780
6.667000 0.6780 0.6790 0.6810 0.6810 0.6830
6.701221 0.6850 0.6850 0.6860 0.6860 0.6860
6.735000 0.6880 0.6880 0.6880 0.6900 0.6900
6.769221 0.6900 0.6910 0.6910 0.6910 0.6930
6.803000 0.6930 0.6930 0.6930 0.6930 0.6930
6.837221 0.6930 0.6930 0.6950 0.6950 0.6950
6.872000 0.6950 0.6950 0.6950 0.6950 0.6950
6.906221 0.6950 0.6970 0.6970 0.6970 0.6970
6.940000 0.6970 0.6970 0.6970 0.6970 0.6970
6.974221 0.6950 0.6970 0.6970 0.6970 0.6970
7.009000 0.6970 0.6980 0.6980 0.6980 0.6980
7.043221 0.6980 0.6980 0.6980 0.6980 0.6980
7.077000 0.6980 0.6980 0.6980 0.6980 0.6980
7.111221 0.6980 0.6980 0.6980 0.6980 0.6980
7.146000 0.6980 0.6980 0.6980 0.6980 0.6980
7.180221 0.6980 0.6980 0.6980 0.6980 0.6980
7.214000 0.6980 0.6980 0.6980 0.6980 0.7000
7.248221 0.6980 0.6980 0.6980 0.6980 0.6980
7.282000 0.6980 0.6980 0.6980 0.6980 0.7000
7.316221 0.7000 0.7000 0.7000 0.7000 0.7000
7.351000 0.7000 0.7000 0.7000 0.7000 0.7000
7.385221 0.7020 0.7020 0.7020 0.7020 0.7020
7.419000 0.7020 0.7020 0.7020 0.7020 0.7020
7.453221 0.7030 0.7030 0.7030 0.7030 0.7030
7.488000 0.7030 0.7030 0.7030 0.7030 0.7030
7.522221 0.7030 0.7030 0.7030 0.7030 0.7030
7.556000 0.7030 0.7030 0.7030 0.7030 0.7030
7.590221 0.7030 0.7030 0.7030 0.7030 0.7030
7.624000 0.7030 0.7030 0.7030 0.7030 0.7050
7.658221 0.7050 0.7050 0.7050 0.7050 0.7050
7.693000 0.7050 0.7050 0.7050 0.7050 0.7050
7.727221 0.7050 0.7050 0.7050 0.7050 0.7050
7.761000 0.7050 0.7050 0.7050 0.7050 0.7050
7.795221 0.7050 0.7050 0.7050 0.7050 0.7050
7.830000 0.7050 0.7050 0.7050 0.7050 0.7070
7.864221 0.7070 0.7070 0.7070 0.7070 0.7070
7.898000 0.7070 0.7070 0.7070 0.7070 0.7070
7.932221 0.7070 0.7070 0.7070 0.7070 0.7070
7.966000 0.7070 0.7070 0.7070 0.7070 0.7070
8.000221 0.7070 0.7070 0.7070 0.7070 0.7070
8.035000 0.7070 0.7070 0.7070 0.7090 0.7090
8.069221 0.7090 0.7090 0.7090 0.7090 0.7070
8.103000 0.7070 0.7090 0.7090 0.7090 0.7090
8.137221 0.7090 0.7090 0.7090 0.7090 0.7090
8.172000 0.7070 0.7070 0.7070 0.7070 0.7070
8.206221 0.7070 0.7070 0.7070 0.7070 0.7070
8.240000 0.7070 0.7070 0.7070 0.7070 0.7090
8.274221 0.7090 0.7090 0.7090 0.7090 0.7090
8.308000 0.7090 0.7090 0.7090 0.7090 0.7090
8.342221 0.7090 0.7090 0.7090 0.7090 0.7090
8.377000 0.7090 0.7090 0.7090 0.7090 0.7090
8.411221 0.7090 0.7090 0.7090 0.7090 0.7090
8.445000 0.7090 0.7090 0.7090 0.7090 0.7090
8.479221 0.7090 0.7090 0.7090 0.7090 0.7090
8.514000 0.7090 0.7090 0.7090 0.7090 0.7090
8.548221 0.7090 0.7090 0.7090 0.7090 0.7090
8.582000 0.7090 0.7090 0.7090 0.7090 0.7090
8.616221 0.7070 0.7070 0.7070 0.7070 0.7070
8.650000 0.7070 0.7070 0.7070 0.7070 0.7050
8.684221 0.7050 0.7050 0.7050 0.7050 0.7050
8.719000 0.7050 0.7050 0.7050 0.7050 0.7050
8.753221 0.7050 0.7050 0.7050 0.7050 0.7050
8.787000 0.7050 0.7050 0.7050 0.7050 0.7050
8.821221 0.7050 0.7050 0.7050 0.7050 0.7050
8.856000 0.7070 0.7070 0.7070 0.7070 0.7070
8.890221 0.7070 0.7070 0.7070 0.7070 0.7070
8.924000 0.7090 0.7090 0.7070 0.7070 0.7070
8.958221 0.7070 0.7070 0.7070 0.7070 0.7070
8.993000 0.7070 0.7070 0.7070 0.7070 0.7070
9.027221 0.7070 0.7070 0.7070 0.7070 0.7070
9.061000 0.7070 0.7070 0.7070 0.7070 0.7070
9.095221 0.7070 0.7070 0.7070 0.7070 0.7070
9.129000 0.7070 0.7070 0.7070 0.7070 0.7070
9.163221 0.7090 0.7090 0.7090 0.7090 0.7090
9.198000 0.7090 0.7090 0.7090 0.7090 0.7090
9.232221 0.7090 0.7090 0.7090 0.7090 0.7090
9.266000 0.7090 0.7090 0.7090 0.7090 0.7100
9.300221 0.7100 0.7100 0.7100 0.7100 0.7100
9.335000 0.7100 0.7100 0.7100 0.7100 0.7100
9.369221 0.7100 0.7100 0.7100 0.7100 0.7100
9.403000 0.7100 0.7100 0.7100 0.7100 0.7100
9.437221 0.7100 0.7100 0.7100 0.7120 0.7120
9.471000 0.7120 0.7120 0.7120 0.7120 0.7120
9.505221 0.7120 0.7120 0.7120 0.7120 0.7120
9.540000 0.7120 0.7120 0.7120 0.7120 0.7120
9.574221 0.7120 0.7120 0.7120 0.7120 0.7120
9.608000 0.7120 0.7120 0.7140 0.7140 0.7140
9.642221 0.7140 0.7140 0.7160 0.7140 0.7140
9.677000 0.7140 0.7140 0.7140 0.7140 0.7140
9.711221 0.7140 0.7140 0.7160 0.7160 0.7160
9.745000 0.7170 0.7160 0.7160 0.7160 0.7160
9.779221 0.7160 0.7140 0.7140 0.7140 0.7140
9.813000 0.7140 0.7120 0.7120 0.7140 0.7120
9.847221 0.7120 0.7140 0.7120 0.7120 0.7120
9.882000 0.7120 0.7120 0.7100 0.7100 0.7100
9.916221 0.7100 0.7100 0.7100 0.7100 0.7100
9.950000 0.7100 0.7120 0.7120 0.7120 0.7120
9.984221 0.7120 0.7120 0.7120 0.7120 0.7120
10.019000 0.7120 0.7120 0.7120 0.7120 0.7120
10.053221 0.7120 0.7140 0.7120 0.7120 0.7120
10.087000 0.7120 0.7100 0.7070 0.7070 0.7050
10.121221 0.7050 0.7100 0.7100 0.7120 0.7120
10.155000 0.7120 0.7120 0.7120 0.7140 0.7140
10.189221 0.7140 0.7140 0.7140 0.7140 0.7140
10.224000 0.7160 0.7160 0.7160 0.7170 0.7160
10.258221 0.7160 0.7140 0.7140 0.7140 0.7140
10.292000 0.7120 0.7120 0.7120 0.7070 0.7070
10.326221 0.7070 0.7050 0.7050 0.7030 0.7030
10.361000 0.7000 0.6970 0.6970 0.6950 0.6910
10.395221 0.6880 0.6830 0.6780 0.6780 0.6760
10.429000 0.6740 0.6720 0.6720 0.6720 0.6720
10.463221 0.6720 0.6710 0.6710 0.6710 0.6710
10.498000 0.6710 0.6720 0.6720 0.6740 0.6720
10.532221 0.6720 0.6740 0.6740 0.6740 0.6740
10.566000 0.6760 0.6760 0.6760 0.6760 0.6760
10.600221 0.6760 0.6760 0.6780 0.6780 0.6790
10.634000 0.6790 0.6790 0.6830 0.6830 0.6830
10.668221 0.6830 0.6850 0.6860 0.6860 0.6860
10.703000 0.6880 0.6900 0.6900 0.6900 0.6900
10.737221 0.6900 0.6910 0.6930 0.6930 0.6950
10.771000 0.6950 0.6970 0.6970 0.6980 0.7000
10.805221 0.7000 0.7020 0.7050 0.7070 0.7090
10.840000 0.7090 0.7090 0.7100 0.7100 0.7100
10.874221 0.7100 0.7100 0.7100 0.7120 0.7120
10.908000 0.7120 0.7120 0.7120 0.7120 0.7140
10.942221 0.7140 0.7160 0.7170 0.7170 0.7170
10.976000 0.7170 0.7170 0.7170 0.7170 0.7170
11.010221 0.7170 0.7190 0.7190 0.7190 0.7190
11.045000 0.7190 0.7210 0.7190 0.7190 0.7210
11.079221 0.7190 0.7190 0.7190 0.7210 0.7210
11.113000 0.7210 0.7210 0.7210 0.7210 0.7220
11.147221 0.7220 0.7220 0.7240 0.7260 0.7260
11.182000 0.7280 0.7280 0.7290 0.7290 0.7310
11.216221 0.7310 0.7310 0.7310 0.7310 0.7310
11.250000 0.7310 0.7310 0.7310 0.7330 0.7330
11.284221 0.7330 0.7330 0.7340 0.7340 0.7340
11.318000 0.7360 0.7360 0.7360 0.7380 0.7400
11.352221 0.7410 0.7430 0.7430 0.7430 0.7450
11.387000 0.7430 0.7430 0.7430 0.7430 0.7410
11.421221 0.7430 0.7430 0.7430 0.7410 0.7410
11.455000 0.7410 0.7430 0.7430 0.7410 0.7410
11.489221 0.7410 0.7410 0.7410 0.7410 0.7410
11.524000 0.7410 0.7410 0.7410 0.7410 0.7430
11.558221 0.7450 0.7450 0.7450 0.7450 0.7450
11.592000 0.7450 0.7450 0.7450 0.7450 0.7450
11.626221 0.7450 0.7450 0.7450 0.7450 0.7450
11.660000 0.7460 0.7460 0.7460 0.7460 0.7460
11.694221 0.7460 0.7460 0.7480 0.7480 0.7480
11.729000 0.7500 0.7500 0.7480 0.7480 0.7500
11.763221 0.7500 0.7520 0.7520 0.7520 0.7520
11.797000 0.7530 0.7530 0.7530 0.7530 0.7530
11.831221 0.7530 0.7530 0.7530 0.7530 0.7530
11.866000 0.7530 0.7530 0.7530 0.7530 0.7530
11.900221 0.7530 0.7550 0.7570 0.7570 0.7590
11.934000 0.7570 0.7570 0.7570 0.7570 0.7570
11.968221 0.7570 0.7570 0.7590 0.7590 0.7600
12.002000 0.7600 0.7590 0.7600 0.7600 0.7600
12.036221 0.7600 0.7600 0.7600 0.7590 0.7590
12.071000 0.7590 0.7590 0.7590 0.7600 0.7590
12.105221 0.7590 0.7590 0.7590 0.7600 0.7600
12.139000 0.7600 0.7600 0.7600 0.7600 0.7600
12.173221 0.7600 0.7620 0.7620 0.7620 0.7620
12.208000 0.7620 0.7620 0.7650 0.7650 0.7650
12.242221 0.7650 0.7650 0.7650 0.7650 0.7670
12.276000 0.7670 0.7670 0.7650 0.7650 0.7650
12.310221 0.7650 0.7650 0.7640 0.7650 0.7650
12.345000 0.7650 0.7650 0.7650 0.7670 0.7670
12.379221 0.7670 0.7670 0.7690 0.7690 0.7710
12.413000 0.7710 0.7710 0.7710 0.7690 0.7710
12.447221 0.7710 0.7690 0.7690 0.7690 0.7690
12.481000 0.7710 0.7710 0.7710 0.7710 0.7720
12.515221 0.7740 0.7740 0.7740 0.7760 0.7760
12.550000 0.7760 0.7760 0.7760 0.7740 0.7740
12.584221 0.7720 0.7710 0.7690 0.7690 0.7690
12.618000 0.7690 0.7690 0.7690 0.7690 0.7690
12.652221 0.7690 0.7710 0.7690 0.7690 0.7710
12.687000 0.7690 0.7690 0.7670 0.7650 0.7640
12.721221 0.7620 0.7620 0.7620 0.7620 0.7620
12.755000 0.7620 0.7620 0.7640 0.7640 0.7640
12.789221 0.7640 0.7640 0.7640 0.7650 0.7650
12.823000 0.7640 0.7640 0.7650 0.7650 0.7650
12.857221 0.7640 0.7640 0.7640 0.7640 0.7640
12.892000 0.7620 0.7620 0.7620 0.7620 0.7600
12.926221 0.7600 0.7600 0.7600 0.7620 0.7620
12.960000 0.7620 0.7640 0.7620 0.7620 0.7620
12.994221 0.7620 0.7640 0.7640 0.7640 0.7640
13.029000 0.7640 0.7640 0.7640 0.7640 0.7620
13.063221 0.7600 0.7590 0.7530 0.7520 0.7480
13.097000 0.7450 0.7410 0.7360 0.7290 0.7170
13.131221 0.7030 0.6970 0.6880 0.6690 0.6550
13.165000 0.6470 0.6430 0.6410 0.6410 0.6410
13.199221 0.6400 0.6410 0.6430 0.6430 0.6450
13.234000 0.6480 0.6540 0.6570 0.6620 0.6640
13.268221 0.6660 0.6670 0.6690 0.6740 0.6760
13.302000 0.6790 0.6810 0.6830 0.6850 0.6880
13.336221 0.6900 0.6900 0.6910 0.6910 0.6930
13.371000 0.6950 0.6970 0.6980 0.7000 0.7000
13.405221 0.7000 0.7020 0.7050 0.7050 0.7070
13.439000 0.7070 0.7090 0.7100 0.7090 0.7090
13.473221 0.7100 0.7090 0.7100 0.7100 0.7120
13.507000 0.7120 0.7120 0.7120 0.7120 0.7120
13.541221 0.7100 0.7090 0.7070 0.7050 0.7050
13.576000 0.7050 0.7030 0.7030 0.7030 0.7030
13.610221 0.7030 0.7030 0.7030 0.7030 0.7020
13.644000 0.7020 0.7020 0.7020 0.7000 0.7000
13.678221 0.6980 0.6980 0.6950 0.6950 0.6930
13.713000 0.6910 0.6900 0.6880 0.6880 0.6860
13.747221 0.6850 0.6850 0.6850 0.6830 0.6830
13.781000 0.6830 0.6830 0.6810 0.6790 0.6790
13.815221 0.6790 0.6790 0.6790 0.6780 0.6780
13.850000 0.6780 0.6780 0.6780 0.6780 0.6780
13.884221 0.6780 0.6760 0.6760 0.6760 0.6760
13.918000 0.6760 0.6760 0.6780 0.6780 0.6780
13.952221 0.6780 0.6780 0.6780 0.6780 0.6780
13.986000 0.6780 0.6780 0.6790 0.6790 0.6780
14.020221 0.6780 0.6780 0.6780 0.6760 0.6760
14.055000 0.6760 0.6740 0.6740 0.6740 0.6740
14.089221 0.6760 0.6760 0.6780 0.6780 0.6780
14.123000 0.6780 0.6760 0.6760 0.6740 0.6740
14.157221 0.6720 0.6720 0.6710 0.6710 0.6710
14.192000 0.6710 0.6690 0.6690 0.6690 0.6690
14.226221 0.6690 0.6670 0.6660 0.6660 0.6640
14.260000 0.6640 0.6640 0.6620 0.6620 0.6600
14.294221 0.6590 0.6570 0.6550 0.6540 0.6520
14.328000 0.6500 0.6500 0.6480 0.6480 0.6480
14.362221 0.6470 0.6470 0.6470 0.6470 0.6450
14.397000 0.6450 0.6450 0.6450 0.6430 0.6430
14.431221 0.6430 0.6430 0.6410 0.6410 0.6410
14.465000 0.6400 0.6400 0.6400 0.6380 0.6360
14.499221 0.6360 0.6360 0.6350 0.6350 0.6330
14.534000 0.6310 0.6310 0.6290 0.6290 0.6290
14.568221 0.6290 0.6290 0.6280 0.6260 0.6240
14.602000 0.6240 0.6230 0.6210 0.6210 0.6210
14.636221 0.6210 0.6190 0.6190 0.6170 0.6160
14.670000 0.6160 0.6160 0.6140 0.6140 0.6140
14.704221 0.6120 0.6090 0.6090 0.6070 0.6090
14.739000 0.6070 0.6070 0.6050 0.6040 0.6020
14.773221 0.6020 0.6000 0.6000 0.5980 0.5970
14.807000 0.5980 0.5980 0.6000 0.6000 0.6000
14.841221 0.6000 0.6000 0.5980 0.5980 0.5970
14.876000 0.5950 0.5930 0.5920 0.5900 0.5860
14.910221 0.5850 0.5850 0.5830 0.5830 0.5830
14.944000 0.5830 0.5810 0.5800 0.5780 0.5780
14.978221 0.5780 0.5760 0.5740 0.5740 0.5730
15.012000 0.5710 0.5690 0.5690 0.5670 0.5670
15.046221 0.5660 0.5660 0.5660 0.5640 0.5640
15.081000 0.5620 0.5610 0.5590 0.5570 0.5570
15.115221 0.5550 0.5550 0.5540 0.5540 0.5520
15.149000 0.5520 0.5500 0.5500 0.5490 0.5490
15.183221 0.5490 0.5490 0.5490 0.5470 0.5470
15.218000 0.5470 0.5470 0.5470 0.5470 0.5450
15.252221 0.5450 0.5450 0.5430 0.5430 0.5420
15.286000 0.5420 0.5420 0.5420 0.5420 0.5420
15.320221 0.5400 0.5400 0.5400 0.5400 0.5400
15.354000 0.5400 0.5400 0.5400 0.5400 0.5400
15.388221 0.5400 0.5400 0.5380 0.5380 0.5370
15.423000 0.5370 0.5370 0.5350 0.5350 0.5350
15.457221 0.5350 0.5330 0.5330 0.5310 0.5310
15.491000 0.5310 0.5330 0.5310 0.5310 0.5300
15.525221 0.5310 0.5310 0.5310 0.5300 0.5300
15.560000 0.5300 0.5300 0.5300 0.5300 0.5280
15.594221 0.5280 0.5260 0.5280 0.5260 0.5260
15.628000 0.5260 0.5260 0.5260 0.5260 0.5260
15.662221 0.5240 0.5240 0.5260 0.5260 0.5260
15.697000 0.5260 0.5240 0.5240 0.5240 0.5240
15.731221 0.5240 0.5240 0.5230 0.5230 0.5230
15.765000 0.5230 0.5230 0.5230 0.5210 0.5210
15.799221 0.5210 0.5210 0.5210 0.5210 0.5210
15.833000 0.5210 0.5230 0.5230 0.5230 0.5230
15.867221 0.5230 0.5230 0.5230 0.5230 0.5210
15.902000 0.5210 0.5210 0.5190 0.5190 0.5180
15.936221 0.5180 0.5190 0.5190 0.5190 0.5190
15.970000 0.5190
##END=
