##TITLE=POTASSIUM DICHROMATE
##JCAMP-DX=4.24
##DATA TYPE=INFRARED SPECTRUM
##CLASS=COBLENTZ
##ORIGIN=MELLON INSTITUTE
##OWNER=COBLENTZ SOCIETY
Collection (C) 2018 copyright by the U.S. Secretary of Commerce
on behalf of the United States of America. All rights reserved.
##DATE=Not specified, most likely prior to 1970
##MOLFORM=K2 Cr2 O7
##SOURCE REFERENCE=COBLENTZ NO. 466
##$NIST ID=B6000466
##$NIST SOURCE=COBLENTZ
##$NIST IMAGE=cob466
##SPECTROMETER/DATA SYSTEM=Not specified, most likely a prism, grating, or hybrid spectrometer.
##STATE=SOLID (NUJOL MULL)
$$PURITY UNKNOWN
##PATH LENGTH=
$$SPECTRAL CONTAMINATION DUE TO OIL AROUND 2900, 1450, 1380 CM^-^1
##SAMPLING PROCEDURE=TRANSMISSION
##RESOLUTION=4
##DATA PROCESSING=DIGITIZED BY NIST FROM HARD COPY
##XUNITS=MICROMETERS
##YUNITS=TRANSMITTANCE
##XFACTOR=1.000000
##YFACTOR=1
##DELTAX=000.006803
##FIRSTX=2.048
##LASTX=16.0066
##FIRSTY=0.729
##MAXX=16.0066
##MINX=2.048
##MAXY=1.003
##MINY=0.161
##NPOINTS=2053
##XYDATA=(X++(Y..Y))
2.048000 0.7290 0.7290 0.7290 0.7300 0.7300
2.082030 0.7320 0.7320 0.7320 0.7320 0.7320
2.116000 0.7320 0.7320 0.7340 0.7340 0.7340
2.150030 0.7350 0.7350 0.7370 0.7370 0.7370
2.184000 0.7370 0.7390 0.7390 0.7410 0.7410
2.218030 0.7410 0.7420 0.7420 0.7440 0.7440
2.252000 0.7440 0.7440 0.7460 0.7460 0.7460
2.286030 0.7460 0.7460 0.7470 0.7470 0.7490
2.320000 0.7490 0.7510 0.7510 0.7520 0.7520
2.354030 0.7520 0.7520 0.7540 0.7560 0.7560
2.388000 0.7580 0.7580 0.7580 0.7590 0.7590
2.422030 0.7590 0.7610 0.7610 0.7630 0.7640
2.456000 0.7640 0.7660 0.7680 0.7680 0.7700
2.490030 0.7710 0.7710 0.7730 0.7750 0.7760
2.524000 0.7760 0.7780 0.7780 0.7800 0.7800
2.558030 0.7810 0.7830 0.7850 0.7870 0.7880
2.592000 0.7900 0.7920 0.7930 0.7950 0.7970
2.626030 0.7970 0.7970 0.7970 0.7980 0.7980
2.660000 0.8000 0.8000 0.8000 0.8020 0.8040
2.694030 0.8040 0.8040 0.8050 0.8040 0.8050
2.728000 0.8050 0.8050 0.8070 0.8070 0.8070
2.762030 0.8090 0.8090 0.8100 0.8100 0.8120
2.796000 0.8120 0.8140 0.8160 0.8160 0.8140
2.830030 0.8140 0.8160 0.8160 0.8160 0.8170
2.864000 0.8170 0.8170 0.8170 0.8190 0.8190
2.898030 0.8210 0.8210 0.8210 0.8210 0.8210
2.932000 0.8220 0.8220 0.8240 0.8240 0.8240
2.966030 0.8260 0.8260 0.8260 0.8260 0.8260
3.000000 0.8270 0.8290 0.8290 0.8310 0.8330
3.034030 0.8340 0.8340 0.8340 0.8380 0.8380
3.068000 0.8390 0.8410 0.8410 0.8410 0.8410
3.102030 0.8390 0.8390 0.8390 0.8390 0.8410
3.136000 0.8410 0.8410 0.8430 0.8430 0.8440
3.170030 0.8440 0.8460 0.8460 0.8460 0.8460
3.204000 0.8480 0.8480 0.8500 0.8500 0.8510
3.238030 0.8510 0.8530 0.8530 0.8530 0.8530
3.272000 0.8530 0.8530 0.8500 0.8440 0.8390
3.306030 0.8310 0.7490 0.7060 0.6640 0.5840
3.340000 0.5280 0.4700 0.4070 0.3420 0.3160
3.374030 0.2910 0.2890 0.2910 0.3040 0.3330
3.408000 0.3470 0.3610 0.3640 0.3810 0.4030
3.442030 0.4020 0.3950 0.3950 0.3960 0.4100
3.476000 0.4270 0.4880 0.5160 0.5460 0.6500
3.510030 0.6790 0.7440 0.7750 0.8000 0.8170
3.544000 0.8330 0.8410 0.8680 0.8750 0.8800
3.578030 0.8840 0.8890 0.8960 0.8970 0.9020
3.612000 0.9040 0.9080 0.9090 0.9110 0.9110
3.646030 0.9130 0.9130 0.9130 0.9140 0.9140
3.680000 0.9160 0.9160 0.9180 0.9180 0.9180
3.714030 0.9180 0.9180 0.9180 0.9180 0.9180
3.748000 0.9180 0.9180 0.9190 0.9190 0.9210
3.782030 0.9210 0.9210 0.9210 0.9210 0.9230
3.816000 0.9230 0.9230 0.9230 0.9230 0.9230
3.850030 0.9230 0.9230 0.9260 0.9280 0.9300
3.884000 0.9300 0.9310 0.9310 0.9310 0.9310
3.918030 0.9310 0.9310 0.9330 0.9330 0.9330
3.952000 0.9350 0.9350 0.9360 0.9360 0.9380
3.986030 0.9380 0.9380 0.9380 0.9400 0.9400
4.020000 0.9400 0.9400 0.9400 0.9400 0.9400
4.054030 0.9420 0.9420 0.9420 0.9420 0.9430
4.088000 0.9430 0.9430 0.9420 0.9420 0.9420
4.122030 0.9420 0.9430 0.9450 0.9450 0.9450
4.156000 0.9450 0.9450 0.9430 0.9450 0.9430
4.190030 0.9430 0.9430 0.9420 0.9400 0.9400
4.224000 0.9380 0.9380 0.9380 0.9380 0.9380
4.258030 0.9380 0.9380 0.9380 0.9380 0.9380
4.293000 0.9380 0.9360 0.9360 0.9350 0.9350
4.327030 0.9360 0.9360 0.9360 0.9380 0.9380
4.361000 0.9380 0.9360 0.9360 0.9360 0.9360
4.395030 0.9350 0.9350 0.9350 0.9360 0.9360
4.429000 0.9360 0.9360 0.9360 0.9360 0.9360
4.463030 0.9350 0.9350 0.9360 0.9380 0.9380
4.497000 0.9380 0.9380 0.9400 0.9400 0.9400
4.531030 0.9420 0.9420 0.9420 0.9420 0.9420
4.565000 0.9420 0.9420 0.9420 0.9430 0.9430
4.599030 0.9430 0.9430 0.9470 0.9470 0.9480
4.633000 0.9500 0.9500 0.9500 0.9500 0.9500
4.667030 0.9500 0.9500 0.9500 0.9500 0.9500
4.701000 0.9520 0.9500 0.9500 0.9500 0.9500
4.735030 0.9500 0.9520 0.9520 0.9520 0.9520
4.769000 0.9520 0.9520 0.9520 0.9540 0.9540
4.803030 0.9540 0.9540 0.9550 0.9550 0.9570
4.837000 0.9590 0.9600 0.9600 0.9600 0.9600
4.871030 0.9600 0.9590 0.9590 0.9590 0.9570
4.905000 0.9570 0.9570 0.9570 0.9570 0.9570
4.939030 0.9590 0.9590 0.9590 0.9590 0.9600
4.973000 0.9600 0.9600 0.9600 0.9600 0.9600
5.007030 0.9600 0.9600 0.9600 0.9600 0.9600
5.041000 0.9600 0.9600 0.9600 0.9620 0.9620
5.075030 0.9620 0.9620 0.9620 0.9640 0.9640
5.109000 0.9640 0.9640 0.9650 0.9650 0.9650
5.143030 0.9650 0.9650 0.9670 0.9670 0.9690
5.177000 0.9690 0.9690 0.9690 0.9690 0.9690
5.211030 0.9690 0.9690 0.9690 0.9690 0.9690
5.245000 0.9690 0.9690 0.9690 0.9690 0.9690
5.279030 0.9690 0.9690 0.9690 0.9690 0.9670
5.313000 0.9670 0.9670 0.9650 0.9650 0.9650
5.347030 0.9650 0.9650 0.9640 0.9640 0.9640
5.381000 0.9650 0.9640 0.9640 0.9650 0.9640
5.415030 0.9650 0.9640 0.9640 0.9640 0.9640
5.449000 0.9640 0.9650 0.9650 0.9650 0.9650
5.483030 0.9670 0.9690 0.9690 0.9690 0.9690
5.517000 0.9690 0.9710 0.9710 0.9710 0.9690
5.551030 0.9690 0.9690 0.9710 0.9710 0.9710
5.585000 0.9710 0.9710 0.9710 0.9720 0.9710
5.619030 0.9710 0.9710 0.9720 0.9720 0.9740
5.653000 0.9740 0.9740 0.9740 0.9760 0.9760
5.687030 0.9770 0.9770 0.9770 0.9790 0.9790
5.721000 0.9810 0.9810 0.9810 0.9820 0.9820
5.755030 0.9840 0.9840 0.9840 0.9840 0.9840
5.789000 0.9840 0.9860 0.9860 0.9860 0.9880
5.823030 0.9880 0.9880 0.9890 0.9890 0.9890
5.857000 0.9910 0.9910 0.9930 0.9930 0.9930
5.891030 0.9930 0.9930 0.9930 0.9930 0.9930
5.925000 0.9930 0.9940 0.9940 0.9940 0.9940
5.959030 0.9960 0.9960 0.9960 0.9960 0.9960
5.993000 0.9980 0.9980 0.9980 0.9980 0.9980
6.027030 1.0000 1.0000 1.0000 1.0000 1.0000
6.061000 1.0000 1.0000 1.0000 1.0000 1.0000
6.095030 1.0000 1.0000 1.0000 1.0000 1.0000
6.129000 1.0000 1.0000 1.0000 1.0000 1.0010
6.163030 1.0010 1.0010 1.0010 1.0010 1.0010
6.197000 1.0010 1.0010 1.0010 1.0010 1.0030
6.231030 1.0030 1.0030 1.0030 1.0030 1.0030
6.265000 1.0030 1.0030 1.0030 1.0030 1.0030
6.299030 1.0030 1.0030 1.0030 1.0030 1.0010
6.333000 1.0010 1.0010 1.0000 1.0000 1.0000
6.367030 1.0000 0.9980 0.9980 0.9980 0.9980
6.401000 0.9980 0.9980 0.9980 0.9980 0.9980
6.435030 0.9980 0.9980 0.9980 0.9980 0.9980
6.469000 0.9980 0.9980 0.9980 0.9980 0.9980
6.503030 0.9980 0.9980 0.9980 0.9960 0.9960
6.537000 0.9960 0.9960 0.9960 0.9960 0.9960
6.571030 0.9960 0.9960 0.9960 0.9960 0.9960
6.605000 0.9960 0.9960 0.9960 0.9980 0.9960
6.639030 0.9960 0.9940 0.9940 0.9910 0.9880
6.673000 0.9840 0.9840 0.9840 0.9840 0.9840
6.707030 0.9840 0.9810 0.9760 0.9720 0.9690
6.741000 0.9590 0.9500 0.9380 0.9210 0.8970
6.775030 0.8680 0.8530 0.8360 0.7930 0.7680
6.810000 0.7560 0.7390 0.7320 0.7290 0.7340
6.844030 0.7370 0.7440 0.7470 0.7520 0.7640
6.878000 0.7730 0.7950 0.8000 0.8160 0.8270
6.912030 0.8360 0.8480 0.8550 0.8720 0.8870
6.946000 0.8960 0.9040 0.9160 0.9230 0.9310
6.980030 0.9350 0.9380 0.9430 0.9470 0.9500
7.014000 0.9540 0.9570 0.9600 0.9640 0.9650
7.048030 0.9690 0.9690 0.9710 0.9720 0.9720
7.082000 0.9720 0.9720 0.9740 0.9740 0.9760
7.116030 0.9770 0.9790 0.9790 0.9790 0.9770
7.150000 0.9740 0.9670 0.9620 0.9570 0.9420
7.184030 0.9330 0.9190 0.9020 0.8840 0.8750
7.218000 0.8720 0.8680 0.8700 0.8750 0.8770
7.252030 0.8820 0.8900 0.8990 0.9010 0.9040
7.286000 0.9090 0.9140 0.9210 0.9260 0.9300
7.320030 0.9360 0.9400 0.9430 0.9520 0.9550
7.354000 0.9590 0.9620 0.9620 0.9620 0.9620
7.388030 0.9620 0.9600 0.9590 0.9570 0.9550
7.422000 0.9550 0.9540 0.9540 0.9550 0.9550
7.456030 0.9590 0.9590 0.9600 0.9600 0.9600
7.490000 0.9600 0.9600 0.9600 0.9600 0.9600
7.524030 0.9590 0.9590 0.9590 0.9570 0.9540
7.558000 0.9540 0.9540 0.9520 0.9520 0.9500
7.592030 0.9500 0.9500 0.9470 0.9470 0.9470
7.626000 0.9470 0.9470 0.9480 0.9500 0.9500
7.660030 0.9520 0.9540 0.9540 0.9550 0.9570
7.694000 0.9590 0.9600 0.9600 0.9620 0.9640
7.728030 0.9640 0.9670 0.9690 0.9690 0.9710
7.762000 0.9720 0.9720 0.9720 0.9720 0.9740
7.796030 0.9760 0.9790 0.9810 0.9810 0.9810
7.830000 0.9810 0.9810 0.9820 0.9840 0.9840
7.864030 0.9840 0.9820 0.9820 0.9820 0.9790
7.898000 0.9790 0.9810 0.9820 0.9820 0.9840
7.932030 0.9840 0.9840 0.9840 0.9860 0.9860
7.966000 0.9860 0.9860 0.9860 0.9860 0.9860
8.000030 0.9840 0.9820 0.9840 0.9840 0.9840
8.034000 0.9840 0.9840 0.9840 0.9860 0.9860
8.068030 0.9860 0.9860 0.9860 0.9860 0.9880
8.102000 0.9890 0.9890 0.9890 0.9890 0.9880
8.136030 0.9860 0.9860 0.9860 0.9860 0.9860
8.170000 0.9860 0.9860 0.9860 0.9880 0.9890
8.204030 0.9890 0.9890 0.9890 0.9890 0.9910
8.238000 0.9910 0.9910 0.9910 0.9930 0.9930
8.272030 0.9930 0.9930 0.9930 0.9930 0.9930
8.306000 0.9930 0.9930 0.9940 0.9940 0.9960
8.340030 0.9980 0.9980 1.0000 1.0000 1.0000
8.374000 1.0000 1.0000 1.0000 0.9980 1.0000
8.408030 1.0010 1.0000 1.0000 1.0000 1.0000
8.442000 0.9980 0.9980 0.9980 0.9960 0.9960
8.476030 0.9960 0.9940 0.9940 0.9930 0.9930
8.510000 0.9930 0.9930 0.9930 0.9910 0.9910
8.544030 0.9910 0.9910 0.9910 0.9910 0.9910
8.578000 0.9910 0.9910 0.9910 0.9910 0.9930
8.612030 0.9930 0.9940 0.9940 0.9940 0.9940
8.646000 0.9960 0.9960 0.9960 0.9980 0.9980
8.680030 0.9980 0.9980 0.9980 0.9980 0.9980
8.714000 0.9980 0.9980 0.9980 0.9980 0.9980
8.748030 0.9980 0.9980 0.9980 0.9980 0.9980
8.782000 0.9980 0.9980 0.9980 0.9980 0.9980
8.816030 0.9980 0.9980 0.9980 0.9980 0.9980
8.850000 0.9980 0.9980 0.9980 0.9980 0.9980
8.884030 0.9980 0.9980 0.9980 0.9980 0.9980
8.918000 0.9980 0.9980 0.9980 0.9980 0.9980
8.952030 0.9980 0.9980 0.9980 0.9980 0.9980
8.986000 0.9960 0.9960 0.9960 0.9960 0.9960
9.020030 0.9960 0.9940 0.9940 0.9940 0.9940
9.054000 0.9940 0.9940 0.9960 0.9960 0.9960
9.088030 0.9960 0.9960 0.9960 0.9960 0.9960
9.122000 0.9980 0.9980 0.9980 0.9980 0.9980
9.156030 0.9980 0.9980 0.9980 0.9980 0.9980
9.190000 0.9980 0.9980 0.9980 1.0000 1.0000
9.224030 1.0000 1.0000 1.0000 1.0000 1.0000
9.259000 1.0010 1.0010 1.0010 1.0010 1.0010
9.293030 1.0010 1.0010 1.0010 1.0010 1.0010
9.327000 1.0010 1.0010 1.0010 1.0010 1.0010
9.361030 1.0010 1.0010 1.0010 1.0010 1.0010
9.395000 1.0010 1.0010 1.0010 1.0010 1.0010
9.429030 1.0010 1.0000 1.0010 1.0010 1.0010
9.463000 1.0010 1.0010 1.0010 1.0010 1.0010
9.497030 1.0010 1.0010 1.0010 1.0010 1.0010
9.531000 1.0010 1.0010 1.0010 1.0010 1.0010
9.565030 1.0010 1.0010 1.0010 1.0010 1.0010
9.599000 1.0010 1.0010 1.0010 1.0010 1.0010
9.633030 1.0010 1.0010 1.0010 1.0000 1.0000
9.667000 1.0000 1.0000 1.0000 0.9980 0.9980
9.701030 0.9980 0.9980 0.9960 0.9960 0.9960
9.735000 0.9960 0.9940 0.9940 0.9940 0.9940
9.769030 0.9930 0.9930 0.9930 0.9930 0.9910
9.803000 0.9910 0.9910 0.9890 0.9880 0.9860
9.837030 0.9840 0.9840 0.9840 0.9840 0.9840
9.871000 0.9840 0.9840 0.9840 0.9820 0.9820
9.905030 0.9810 0.9770 0.9760 0.9760 0.9760
9.939000 0.9760 0.9760 0.9760 0.9760 0.9760
9.973030 0.9760 0.9760 0.9740 0.9740 0.9720
10.007000 0.9720 0.9720 0.9720 0.9710 0.9710
10.041030 0.9690 0.9670 0.9650 0.9620 0.9600
10.075000 0.9550 0.9550 0.9540 0.9520 0.9470
10.109030 0.9430 0.9380 0.9330 0.9250 0.9210
10.143000 0.9180 0.9140 0.9090 0.9010 0.8800
10.177030 0.8670 0.8530 0.8510 0.8390 0.8140
10.211000 0.7880 0.7640 0.7270 0.7100 0.6930
10.245030 0.6660 0.6400 0.6030 0.5860 0.5670
10.279000 0.5450 0.5190 0.4880 0.4660 0.4490
10.313030 0.4360 0.4250 0.4150 0.4030 0.3880
10.347000 0.3810 0.3690 0.3560 0.3470 0.3390
10.381030 0.3280 0.3180 0.3100 0.3030 0.2910
10.415000 0.2840 0.2770 0.2640 0.2470 0.2310
10.449030 0.2260 0.2210 0.2140 0.2140 0.2110
10.483000 0.2060 0.2020 0.1990 0.1970 0.1890
10.517030 0.1780 0.1750 0.1730 0.1720 0.1720
10.551000 0.1700 0.1720 0.1720 0.1720 0.1720
10.585030 0.1720 0.1700 0.1680 0.1680 0.1660
10.619000 0.1660 0.1660 0.1660 0.1660 0.1660
10.653030 0.1660 0.1660 0.1660 0.1650 0.1650
10.687000 0.1630 0.1610 0.1610 0.1650 0.1700
10.721030 0.1750 0.1820 0.1890 0.1970 0.2020
10.755000 0.2090 0.2160 0.2260 0.2350 0.2450
10.789030 0.2480 0.2520 0.2530 0.2520 0.2500
10.823000 0.2470 0.2470 0.2500 0.2520 0.2600
10.857030 0.3320 0.3520 0.3900 0.4780 0.5040
10.891000 0.5330 0.5530 0.5910 0.5990 0.6140
10.925030 0.6280 0.6350 0.6450 0.6490 0.6430
10.959000 0.6400 0.6400 0.6320 0.6210 0.6110
10.993030 0.5990 0.5970 0.5960 0.5910 0.5790
11.027000 0.5740 0.5680 0.5330 0.5280 0.5240
11.061030 0.5260 0.5330 0.5410 0.5530 0.5650
11.095000 0.5960 0.6030 0.6180 0.6300 0.6450
11.129030 0.6570 0.6670 0.6670 0.6620 0.6540
11.163000 0.6400 0.6250 0.6140 0.6010 0.5910
11.197030 0.5750 0.5700 0.5650 0.5580 0.5530
11.231000 0.5480 0.5310 0.5220 0.5050 0.4880
11.265030 0.4830 0.4710 0.4610 0.4770 0.5110
11.299000 0.5240 0.5380 0.5510 0.5630 0.5960
11.333030 0.6060 0.6300 0.6450 0.6620 0.6840
11.367000 0.7000 0.7060 0.7370 0.7490 0.7640
11.401030 0.7750 0.7850 0.7970 0.8040 0.8140
11.435000 0.8170 0.8220 0.8270 0.8310 0.8380
11.469030 0.8460 0.8510 0.8550 0.8670 0.8680
11.503000 0.8720 0.8770 0.8800 0.8840 0.8850
11.537030 0.8900 0.8920 0.8940 0.8990 0.8990
11.571000 0.9010 0.9040 0.9060 0.9090 0.9140
11.605030 0.9140 0.9160 0.9190 0.9210 0.9230
11.639000 0.9250 0.9250 0.9260 0.9260 0.9260
11.673030 0.9300 0.9300 0.9310 0.9310 0.9310
11.707000 0.9330 0.9330 0.9330 0.9350 0.9350
11.741030 0.9380 0.9380 0.9380 0.9380 0.9400
11.776000 0.9400 0.9400 0.9400 0.9420 0.9420
11.810030 0.9420 0.9420 0.9420 0.9420 0.9420
11.844000 0.9420 0.9420 0.9400 0.9400 0.9400
11.878030 0.9400 0.9380 0.9360 0.9350 0.9360
11.912000 0.9360 0.9380 0.9380 0.9380 0.9380
11.946030 0.9380 0.9380 0.9360 0.9360 0.9360
11.980000 0.9350 0.9350 0.9350 0.9330 0.9330
12.014030 0.9310 0.9310 0.9300 0.9300 0.9280
12.048000 0.9250 0.9250 0.9230 0.9210 0.9160
12.082030 0.9140 0.9130 0.9110 0.9090 0.9060
12.116000 0.9020 0.9020 0.9010 0.8990 0.8970
12.150030 0.8940 0.8940 0.8900 0.8890 0.8850
12.184000 0.8820 0.8770 0.8720 0.8670 0.8630
12.218030 0.8580 0.8560 0.8530 0.8480 0.8390
12.252000 0.8330 0.8190 0.8100 0.8020 0.7950
12.286030 0.7830 0.7710 0.7640 0.7510 0.7300
12.320000 0.7170 0.7120 0.7050 0.6980 0.6930
12.354030 0.6810 0.6670 0.6540 0.6400 0.6250
12.388000 0.6110 0.5940 0.5770 0.5650 0.5530
12.422030 0.5410 0.5240 0.5020 0.4920 0.4770
12.456000 0.4710 0.4660 0.4580 0.4490 0.4460
12.490030 0.4420 0.4410 0.4390 0.4390 0.4370
12.524000 0.4370 0.4360 0.4340 0.4360 0.4370
12.558030 0.4410 0.4420 0.4460 0.4480 0.4530
12.592000 0.4560 0.4590 0.4610 0.4630 0.4650
12.626030 0.4700 0.4730 0.4750 0.4800 0.4820
12.660000 0.4830 0.4830 0.4830 0.4820 0.4800
12.694030 0.4780 0.4770 0.4730 0.4710 0.4660
12.728000 0.4630 0.4590 0.4540 0.4510 0.4510
12.762030 0.4490 0.4440 0.4410 0.4360 0.4290
12.796000 0.4270 0.4240 0.4130 0.4100 0.4030
12.830030 0.4000 0.3980 0.3880 0.3830 0.3760
12.864000 0.3690 0.3660 0.3590 0.3520 0.3420
12.898030 0.3350 0.3300 0.3270 0.3210 0.3160
12.932000 0.3110 0.3060 0.3010 0.2990 0.2910
12.966030 0.2870 0.2860 0.2840 0.2810 0.2770
13.000000 0.2720 0.2670 0.2640 0.2580 0.2580
13.034030 0.2550 0.2550 0.2530 0.2500 0.2470
13.068000 0.2450 0.2430 0.2430 0.2410 0.2400
13.102030 0.2400 0.2380 0.2380 0.2380 0.2380
13.136000 0.2360 0.2360 0.2380 0.2380 0.2380
13.170030 0.2380 0.2380 0.2400 0.2400 0.2400
13.204000 0.2430 0.2470 0.2500 0.2520 0.2550
13.238030 0.2570 0.2600 0.2640 0.2670 0.2700
13.272000 0.2740 0.2790 0.2930 0.2980 0.3060
13.306030 0.3130 0.3250 0.3300 0.3350 0.3420
13.340000 0.3500 0.3560 0.3590 0.3690 0.3760
13.374030 0.3850 0.3930 0.3960 0.4000 0.4030
13.408000 0.4080 0.4170 0.4270 0.4480 0.4580
13.442030 0.4660 0.4770 0.4820 0.4900 0.4990
13.476000 0.5070 0.5140 0.5260 0.5380 0.5530
13.510030 0.5630 0.5790 0.5840 0.5890 0.5970
13.544000 0.5990 0.6030 0.6130 0.6230 0.6260
13.578030 0.6320 0.6400 0.6500 0.6570 0.6620
13.612000 0.6660 0.6690 0.6740 0.6780 0.6810
13.646030 0.6840 0.6890 0.6960 0.7000 0.7050
13.680000 0.7100 0.7120 0.7170 0.7200 0.7220
13.714030 0.7240 0.7270 0.7300 0.7320 0.7340
13.748000 0.7370 0.7370 0.7390 0.7410 0.7410
13.782030 0.7410 0.7420 0.7440 0.7470 0.7470
13.816000 0.7510 0.7510 0.7540 0.7560 0.7560
13.850030 0.7580 0.7590 0.7610 0.7640 0.7680
13.884000 0.7710 0.7710 0.7730 0.7750 0.7780
13.918030 0.7800 0.7810 0.7810 0.7830 0.7830
13.952000 0.7850 0.7870 0.7900 0.7920 0.7930
13.986030 0.7930 0.7950 0.7980 0.7980 0.7980
14.020000 0.8000 0.8020 0.8020 0.8020 0.8040
14.054030 0.8020 0.8020 0.8040 0.8040 0.8040
14.088000 0.8040 0.8040 0.8040 0.8040 0.8040
14.122030 0.8040 0.8050 0.8070 0.8070 0.8090
14.156000 0.8100 0.8120 0.8120 0.8100 0.8120
14.190030 0.8100 0.8100 0.8100 0.8090 0.8090
14.224000 0.8090 0.8090 0.8070 0.8070 0.8070
14.258030 0.8050 0.8050 0.8050 0.8050 0.8050
14.293000 0.8040 0.8040 0.8040 0.8020 0.8000
14.327030 0.8000 0.8000 0.7980 0.7980 0.7970
14.361000 0.7970 0.7950 0.7970 0.7950 0.7930
14.395030 0.7920 0.7920 0.7920 0.7900 0.7900
14.429000 0.7900 0.7900 0.7880 0.7880 0.7850
14.463030 0.7830 0.7830 0.7810 0.7800 0.7800
14.497000 0.7800 0.7800 0.7780 0.7780 0.7780
14.531030 0.7780 0.7780 0.7760 0.7760 0.7750
14.565000 0.7730 0.7730 0.7710 0.7710 0.7700
14.599030 0.7710 0.7710 0.7710 0.7710 0.7700
14.633000 0.7700 0.7700 0.7700 0.7680 0.7680
14.667030 0.7660 0.7660 0.7660 0.7660 0.7660
14.701000 0.7660 0.7640 0.7640 0.7630 0.7630
14.735030 0.7610 0.7610 0.7610 0.7590 0.7610
14.769000 0.7590 0.7590 0.7590 0.7580 0.7590
14.803030 0.7590 0.7610 0.7610 0.7610 0.7610
14.837000 0.7610 0.7590 0.7580 0.7560 0.7540
14.871030 0.7510 0.7510 0.7470 0.7460 0.7420
14.905000 0.7410 0.7410 0.7410 0.7410 0.7410
14.939030 0.7410 0.7390 0.7390 0.7390 0.7370
14.973000 0.7350 0.7350 0.7340 0.7320 0.7340
15.007030 0.7320 0.7320 0.7300 0.7300 0.7300
15.041000 0.7300 0.7300 0.7290 0.7290 0.7270
15.075030 0.7270 0.7250 0.7250 0.7240 0.7240
15.109000 0.7220 0.7200 0.7200 0.7220 0.7220
15.143030 0.7220 0.7220 0.7220 0.7200 0.7200
15.177000 0.7200 0.7200 0.7200 0.7220 0.7220
15.211030 0.7220 0.7240 0.7240 0.7240 0.7240
15.245000 0.7240 0.7240 0.7240 0.7240 0.7240
15.279030 0.7240 0.7240 0.7220 0.7220 0.7220
15.313000 0.7220 0.7220 0.7220 0.7220 0.7220
15.347030 0.7220 0.7240 0.7240 0.7240 0.7240
15.381000 0.7240 0.7200 0.7180 0.7170 0.7150
15.415030 0.7150 0.7130 0.7130 0.7130 0.7130
15.449000 0.7150 0.7150 0.7150 0.7150 0.7150
15.483030 0.7150 0.7150 0.7150 0.7130 0.7120
15.517000 0.7120 0.7100 0.7120 0.7100 0.7100
15.551030 0.7080 0.7080 0.7060 0.7060 0.7050
15.585000 0.7050 0.7030 0.7030 0.7030 0.7030
15.619030 0.7030 0.7030 0.7030 0.7030 0.7030
15.653000 0.7030 0.7030 0.7030 0.7030 0.7030
15.687030 0.7030 0.7030 0.7030 0.7030 0.7030
15.721000 0.7030 0.7050 0.7050 0.7050 0.7050
15.755030 0.7060 0.7060 0.7060 0.7060 0.7080
15.789000 0.7100 0.7100 0.7100 0.7100 0.7100
15.823030 0.7100 0.7100 0.7100 0.7100 0.7120
15.857000 0.7120 0.7120 0.7120 0.7120 0.7130
15.891030 0.7130 0.7130 0.7130 0.7130 0.7130
15.925000 0.7130 0.7130 0.7150 0.7150 0.7170
15.959030 0.7170 0.7180 0.7180 0.7880 0.7150
15.993000 0.7170 0.7170 0.7180
##END=
