##TITLE=MONO ETHYL ADIPATE
##JCAMP-DX=4.24
##DATA TYPE=INFRARED SPECTRUM
##CLASS=COBLENTZ
##ORIGIN=WYANDOTTE CHEMICALS CORP., WYANDOTTE, MICHIGAN, USA
##OWNER=COBLENTZ SOCIETY
Collection (C) 2018 copyright by the U.S. Secretary of Commerce
on behalf of the United States of America. All rights reserved.
##DATE=1960
##MOLFORM=C6 H18 O4
##MP=27-29 C
##SOURCE REFERENCE=COBLENTZ NO. 962
##$NIST ID=B6000962
##$NIST SOURCE=COBLENTZ
##$NIST IMAGE=cob962
##SPECTROMETER/DATA SYSTEM=Not specified, most likely a prism, grating, or hybrid spectrometer.
##STATE=LIQUID
##PATH LENGTH=CAPILLARY
##SAMPLING PROCEDURE=TRANSMISSION
##RESOLUTION=4
##DATA PROCESSING=DIGITIZED BY NIST FROM HARD COPY
##XUNITS=MICROMETERS
##YUNITS=TRANSMITTANCE
##XFACTOR=1.000000
##YFACTOR=1
##DELTAX=000.006636
##FIRSTX=2.04
##LASTX=15.9949
##FIRSTY=0.98
##MAXX=15.9949
##MINX=2.04
##MAXY=0.981
##MINY=0.066
##NPOINTS=2104
##XYDATA=(X++(Y..Y))
2.040000 0.9800 0.9800 0.9800 0.9800 0.9800
2.073196 0.9780 0.9780 0.9800 0.9800 0.9800
2.106000 0.9810 0.9810 0.9800 0.9800 0.9800
2.139196 0.9780 0.9760 0.9750 0.9730 0.9710
2.173000 0.9710 0.9700 0.9660 0.9650 0.9630
2.206196 0.9610 0.9610 0.9600 0.9600 0.9600
2.239000 0.9580 0.9580 0.9580 0.9580 0.9560
2.272196 0.9580 0.9580 0.9580 0.9580 0.9600
2.305000 0.9600 0.9600 0.9610 0.9610 0.9610
2.338196 0.9610 0.9610 0.9610 0.9630 0.9630
2.372000 0.9650 0.9650 0.9650 0.9660 0.9680
2.405196 0.9680 0.9680 0.9700 0.9700 0.9700
2.438000 0.9700 0.9700 0.9710 0.9710 0.9710
2.471196 0.9710 0.9710 0.9710 0.9710 0.9730
2.504000 0.9730 0.9750 0.9750 0.9760 0.9780
2.537196 0.9780 0.9780 0.9780 0.9780 0.9760
2.571000 0.9760 0.9750 0.9750 0.9750 0.9750
2.604196 0.9750 0.9730 0.9730 0.9730 0.9730
2.637000 0.9750 0.9730 0.9730 0.9710 0.9710
2.670196 0.9710 0.9700 0.9700 0.9680 0.9660
2.703000 0.9650 0.9630 0.9610 0.9600 0.9600
2.736196 0.9550 0.9530 0.9510 0.9500 0.9470
2.770000 0.9450 0.9420 0.9350 0.9350 0.9230
2.803196 0.9130 0.9030 0.8990 0.8890 0.8800
2.836000 0.8690 0.8590 0.8520 0.8440 0.8390
2.869196 0.8310 0.8240 0.8170 0.8140 0.8060
2.903000 0.8010 0.7960 0.7910 0.7740 0.7630
2.936196 0.7430 0.7250 0.7100 0.6530 0.6400
2.969000 0.6300 0.6140 0.6050 0.5960 0.5790
3.002196 0.5620 0.5510 0.5430 0.5310 0.5240
3.035000 0.5210 0.5140 0.5040 0.5000 0.4900
3.068196 0.4810 0.4750 0.4650 0.4610 0.4550
3.102000 0.4550 0.4510 0.4510 0.4470 0.4450
3.135196 0.4420 0.4400 0.4370 0.4370 0.4350
3.168000 0.4320 0.4320 0.4270 0.4250 0.4230
3.201196 0.4220 0.4200 0.4180 0.4170 0.4170
3.234000 0.4150 0.4130 0.4130 0.4120 0.4100
3.267196 0.4050 0.4020 0.4020 0.4000 0.3950
3.301000 0.3900 0.3820 0.3090 0.2810 0.2740
3.334196 0.2730 0.2710 0.2690 0.2690 0.2690
3.367000 0.2710 0.2730 0.2840 0.3010 0.3120
3.400196 0.3120 0.3270 0.3420 0.3590 0.3740
3.433000 0.3890 0.4000 0.4080 0.4200 0.4230
3.466196 0.4320 0.4420 0.4510 0.4600 0.4730
3.500000 0.4900 0.5040 0.5180 0.5290 0.5480
3.533196 0.5540 0.5690 0.5790 0.5820 0.5890
3.566000 0.5990 0.6020 0.6050 0.6120 0.6150
3.599196 0.6170 0.6200 0.6220 0.6240 0.6240
3.632000 0.6250 0.6270 0.6270 0.6290 0.6290
3.665196 0.6300 0.6300 0.6300 0.6300 0.6300
3.699000 0.6300 0.6290 0.6240 0.6240 0.6220
3.732196 0.6200 0.6190 0.6190 0.6190 0.6200
3.765000 0.6220 0.6240 0.6270 0.6290 0.6320
3.798196 0.6370 0.6400 0.6450 0.6490 0.6500
3.832000 0.6550 0.6550 0.6580 0.6620 0.6630
3.865196 0.6630 0.6650 0.6670 0.6670 0.6680
3.898000 0.6720 0.6730 0.6750 0.6820 0.6850
3.931196 0.6900 0.6930 0.7010 0.7110 0.7150
3.964000 0.7200 0.7230 0.7300 0.7400 0.7410
3.997196 0.7500 0.7540 0.7590 0.7640 0.7690
4.031000 0.7730 0.7740 0.7810 0.7840 0.7930
4.064196 0.7940 0.8020 0.8040 0.8120 0.8160
4.097000 0.8210 0.8240 0.8260 0.8310 0.8340
4.130196 0.8360 0.8410 0.8440 0.8460 0.8490
4.163000 0.8500 0.8520 0.8520 0.8540 0.8540
4.196196 0.8570 0.8570 0.8600 0.8620 0.8640
4.230000 0.8640 0.8650 0.8690 0.8700 0.8720
4.263196 0.8740 0.8740 0.8740 0.8750 0.8750
4.296000 0.8770 0.8770 0.8790 0.8800 0.8800
4.329196 0.8820 0.8820 0.8820 0.8840 0.8840
4.362000 0.8850 0.8890 0.8890 0.8920 0.8950
4.395196 0.8990 0.9020 0.9030 0.9050 0.9050
4.429000 0.9070 0.9080 0.9080 0.9080 0.9100
4.462196 0.9100 0.9120 0.9130 0.9150 0.9170
4.495000 0.9180 0.9180 0.9200 0.9200 0.9200
4.528196 0.9200 0.9220 0.9220 0.9230 0.9230
4.562000 0.9230 0.9230 0.9230 0.9250 0.9250
4.595196 0.9270 0.9280 0.9300 0.9300 0.9300
4.628000 0.9320 0.9330 0.9330 0.9330 0.9330
4.661196 0.9330 0.9320 0.9300 0.9300 0.9280
4.694000 0.9280 0.9280 0.9280 0.9280 0.9280
4.727196 0.9280 0.9280 0.9280 0.9300 0.9320
4.761000 0.9320 0.9320 0.9320 0.9320 0.9320
4.794196 0.9320 0.9300 0.9300 0.9300 0.9300
4.827000 0.9300 0.9300 0.9320 0.9320 0.9320
4.860196 0.9330 0.9330 0.9320 0.9320 0.9320
4.893000 0.9320 0.9320 0.9300 0.9300 0.9300
4.926196 0.9300 0.9300 0.9300 0.9300 0.9300
4.960000 0.9300 0.9300 0.9280 0.9280 0.9280
4.993196 0.9280 0.9280 0.9280 0.9280 0.9280
5.026000 0.9280 0.9270 0.9270 0.9250 0.9250
5.059196 0.9230 0.9230 0.9230 0.9230 0.9220
5.092000 0.9220 0.9220 0.9220 0.9220 0.9220
5.125196 0.9220 0.9220 0.9220 0.9220 0.9220
5.159000 0.9220 0.9200 0.9200 0.9170 0.9150
5.192196 0.9130 0.9130 0.9120 0.9120 0.9120
5.225000 0.9120 0.9120 0.9120 0.9120 0.9100
5.258196 0.9100 0.9100 0.9080 0.9070 0.9030
5.291000 0.9030 0.9030 0.9020 0.9000 0.8990
5.324196 0.8990 0.8970 0.8950 0.8950 0.8900
5.358000 0.8890 0.8850 0.8850 0.8840 0.8840
5.391196 0.8840 0.8820 0.8820 0.8800 0.8790
5.424000 0.8790 0.8750 0.8740 0.8720 0.8720
5.457196 0.8700 0.8690 0.8640 0.8620 0.8600
5.491000 0.8550 0.8540 0.8520 0.8500 0.8460
5.524196 0.8390 0.8310 0.8240 0.8220 0.8140
5.557000 0.8090 0.8040 0.7990 0.7910 0.7760
5.590196 0.7640 0.7530 0.7400 0.7230 0.7100
5.623000 0.6980 0.6880 0.6780 0.6320 0.6190
5.656196 0.6090 0.5990 0.5690 0.5640 0.4600
5.690000 0.4420 0.4320 0.4120 0.3900 0.2540
5.723196 0.2130 0.1720 0.0740 0.0670 0.0660
5.756000 0.0660 0.0660 0.0690 0.0790 0.0870
5.789196 0.0940 0.0970 0.0940 0.0820 0.0770
5.822000 0.0720 0.0710 0.0740 0.0860 0.0990
5.855196 0.1100 0.1200 0.1320 0.1490 0.1620
5.889000 0.1930 0.2280 0.2710 0.2910 0.3090
5.922196 0.3220 0.3410 0.3470 0.3600 0.3790
5.955000 0.4510 0.4650 0.4700 0.4960 0.5230
5.988196 0.5240 0.5280 0.5460 0.5640 0.5720
6.021000 0.5840 0.5920 0.6120 0.6200 0.6300
6.054196 0.6400 0.6600 0.7000 0.7110 0.7250
6.088000 0.7310 0.7400 0.7500 0.7510 0.7580
6.121196 0.7630 0.7690 0.7730 0.7780 0.7810
6.154000 0.7860 0.7980 0.7990 0.8040 0.8090
6.187196 0.8120 0.8190 0.8220 0.8260 0.8290
6.221000 0.8320 0.8340 0.8370 0.8410 0.8440
6.254196 0.8490 0.8500 0.8520 0.8540 0.8550
6.287000 0.8570 0.8590 0.8590 0.8570 0.8570
6.320196 0.8570 0.8570 0.8570 0.8570 0.8570
6.353000 0.8590 0.8590 0.8600 0.8600 0.8620
6.386196 0.8640 0.8650 0.8650 0.8670 0.8670
6.420000 0.8670 0.8670 0.8670 0.8670 0.8640
6.453196 0.8640 0.8620 0.8600 0.8600 0.8600
6.486000 0.8600 0.8620 0.8620 0.8640 0.8640
6.519196 0.8640 0.8620 0.8600 0.8570 0.8550
6.552000 0.8540 0.8540 0.8520 0.8520 0.8520
6.585196 0.8500 0.8490 0.8440 0.8440 0.8440
6.619000 0.8420 0.8410 0.8340 0.8320 0.8290
6.652196 0.8210 0.8120 0.8040 0.8020 0.7990
6.685000 0.7780 0.7630 0.7000 0.6800 0.6630
6.718196 0.6520 0.6490 0.6400 0.6350 0.6320
6.751000 0.6290 0.6140 0.5970 0.5790 0.5360
6.784196 0.5290 0.5040 0.4350 0.4320 0.4300
6.818000 0.4300 0.4330 0.4380 0.4420 0.4430
6.851196 0.4430 0.4430 0.4380 0.4320 0.4300
6.884000 0.4300 0.4320 0.4330 0.4330 0.4400
6.917196 0.4420 0.4430 0.4480 0.4480 0.4480
6.950000 0.4450 0.4420 0.4380 0.4270 0.4150
6.983196 0.4030 0.3990 0.3920 0.3770 0.3650
7.017000 0.3540 0.3500 0.3360 0.3340 0.3340
7.050196 0.3360 0.3390 0.3420 0.3500 0.3590
7.083000 0.3690 0.3720 0.3800 0.3890 0.3990
7.116196 0.4280 0.4320 0.4320 0.4320 0.4280
7.150000 0.4270 0.4220 0.4220 0.4220 0.4250
7.183196 0.4400 0.4400 0.4400 0.4370 0.4320
7.216000 0.4220 0.4080 0.4020 0.3940 0.3790
7.249196 0.3690 0.3590 0.3570 0.3590 0.3590
7.282000 0.3600 0.3720 0.3820 0.3920 0.4200
7.315196 0.4320 0.4480 0.4580 0.4900 0.5010
7.349000 0.5490 0.5490 0.5390 0.5310 0.5230
7.382196 0.5140 0.5040 0.4930 0.4930 0.4910
7.415000 0.4910 0.4950 0.4980 0.4980 0.5010
7.448196 0.5040 0.5040 0.5030 0.5030 0.5030
7.481000 0.5090 0.5110 0.5110 0.5110 0.5080
7.514196 0.5030 0.5000 0.4910 0.4880 0.4780
7.548000 0.4710 0.4650 0.4600 0.4560 0.4510
7.581196 0.4430 0.4330 0.4300 0.4200 0.4100
7.614000 0.4050 0.4000 0.3970 0.3920 0.3890
7.647196 0.3800 0.3700 0.3640 0.3590 0.3500
7.680000 0.3490 0.3410 0.3360 0.3320 0.3290
7.713196 0.3240 0.3220 0.3210 0.3170 0.3140
7.747000 0.3120 0.3110 0.3090 0.3070 0.3060
7.780196 0.3040 0.3020 0.3020 0.3020 0.3010
7.813000 0.3010 0.3010 0.2990 0.2990 0.2990
7.846196 0.2990 0.2990 0.2980 0.2980 0.2980
7.880000 0.2980 0.2960 0.2940 0.2940 0.2940
7.913196 0.2930 0.2930 0.2910 0.2910 0.2910
7.946000 0.2890 0.2880 0.2880 0.2860 0.2840
7.979196 0.2840 0.2830 0.2810 0.2790 0.2780
8.012000 0.2780 0.2760 0.2740 0.2730 0.2690
8.045196 0.2640 0.2640 0.2640 0.2630 0.2630
8.079000 0.2630 0.2630 0.2630 0.2640 0.2640
8.112196 0.2640 0.2640 0.2640 0.2640 0.2640
8.145000 0.2640 0.2640 0.2640 0.2660 0.2660
8.178196 0.2660 0.2640 0.2640 0.2640 0.2640
8.211000 0.2630 0.2630 0.2630 0.2630 0.2630
8.244196 0.2610 0.2610 0.2590 0.2590 0.2580
8.278000 0.2580 0.2560 0.2560 0.2530 0.2530
8.311196 0.2510 0.2500 0.2500 0.2480 0.2460
8.344000 0.2450 0.2430 0.2410 0.2400 0.2380
8.377196 0.2360 0.2350 0.2330 0.2300 0.2280
8.410000 0.2250 0.2230 0.2210 0.2200 0.2180
8.443196 0.2160 0.2160 0.2150 0.2150 0.2150
8.477000 0.2160 0.2160 0.2210 0.2230 0.2230
8.510196 0.2250 0.2300 0.2330 0.2410 0.2460
8.543000 0.2560 0.2610 0.2630 0.2640 0.2660
8.576196 0.2710 0.2710 0.2730 0.2730 0.2760
8.609000 0.2830 0.2840 0.2860 0.2880 0.2910
8.642196 0.2930 0.2930 0.2930 0.2930 0.2930
8.676000 0.2930 0.2910 0.2910 0.2880 0.2860
8.709196 0.2860 0.2860 0.2860 0.2860 0.2880
8.742000 0.2910 0.2930 0.2960 0.2980 0.3040
8.775196 0.3070 0.3210 0.3290 0.3310 0.3410
8.809000 0.3470 0.3570 0.3650 0.3700 0.3800
8.842196 0.3970 0.4180 0.4300 0.4350 0.4500
8.875000 0.4600 0.4700 0.4780 0.4900 0.5130
8.908196 0.5280 0.5310 0.5490 0.5520 0.5590
8.941000 0.5640 0.5670 0.5690 0.5690 0.5690
8.974196 0.5740 0.5860 0.5910 0.5990 0.6100
9.008000 0.6190 0.6250 0.6320 0.6390 0.6390
9.041196 0.6320 0.6290 0.6200 0.6120 0.6000
9.074000 0.5960 0.5910 0.5790 0.5740 0.5720
9.107196 0.5710 0.5710 0.5740 0.5790 0.5860
9.140000 0.5920 0.5940 0.5970 0.6000 0.5990
9.173196 0.5970 0.5960 0.5890 0.5840 0.5770
9.207000 0.5690 0.5590 0.5520 0.5490 0.5410
9.240196 0.5390 0.5380 0.5340 0.5340 0.5340
9.273000 0.5340 0.5340 0.5340 0.5380 0.5390
9.306196 0.5430 0.5440 0.5490 0.5520 0.5540
9.339000 0.5570 0.5570 0.5570 0.5570 0.5570
9.372196 0.5570 0.5560 0.5560 0.5540 0.5540
9.406000 0.5540 0.5590 0.5590 0.5620 0.5660
9.439196 0.5660 0.5720 0.5740 0.5790 0.5810
9.472000 0.5860 0.5890 0.5910 0.5910 0.5920
9.505196 0.5940 0.5940 0.5960 0.5960 0.5960
9.539000 0.5960 0.5960 0.5940 0.5910 0.5890
9.572196 0.5870 0.5840 0.5770 0.5710 0.5640
9.605000 0.5610 0.5510 0.5410 0.5310 0.5210
9.638196 0.5110 0.5030 0.4900 0.4810 0.4710
9.671000 0.4600 0.4510 0.4450 0.4450 0.4430
9.704196 0.4420 0.4420 0.4420 0.4420 0.4420
9.738000 0.4450 0.4500 0.4500 0.4530 0.4560
9.771196 0.4610 0.4880 0.5010 0.5130 0.5210
9.804000 0.5330 0.5430 0.5540 0.5670 0.5810
9.837196 0.5860 0.5920 0.6100 0.6120 0.6200
9.870000 0.6300 0.6400 0.6420 0.6500 0.6550
9.903196 0.6600 0.6700 0.6730 0.6820 0.6900
9.937000 0.6930 0.7000 0.7030 0.7110 0.7130
9.970196 0.7180 0.7200 0.7260 0.7310 0.7380
10.003000 0.7430 0.7460 0.7530 0.7540 0.7560
10.036196 0.7560 0.7590 0.7630 0.7640 0.7690
10.069000 0.7710 0.7730 0.7730 0.7740 0.7740
10.102196 0.7740 0.7740 0.7740 0.7740 0.7760
10.136000 0.7760 0.7760 0.7760 0.7760 0.7760
10.169196 0.7760 0.7760 0.7740 0.7740 0.7730
10.202000 0.7710 0.7680 0.7660 0.7660 0.7640
10.235196 0.7590 0.7590 0.7540 0.7530 0.7510
10.269000 0.7510 0.7460 0.7410 0.7400 0.7380
10.302196 0.7330 0.7300 0.7250 0.7200 0.7150
10.335000 0.7130 0.7110 0.7050 0.7030 0.6970
10.368196 0.6950 0.6850 0.6830 0.6800 0.6750
10.401000 0.6720 0.6680 0.6630 0.6600 0.6570
10.434196 0.6520 0.6520 0.6470 0.6440 0.6400
10.468000 0.6370 0.6350 0.6320 0.6290 0.6250
10.501196 0.6220 0.6220 0.6190 0.6170 0.6140
10.534000 0.6120 0.6100 0.6090 0.6050 0.6040
10.567196 0.6020 0.6000 0.5990 0.5990 0.5940
10.600000 0.5910 0.5870 0.5860 0.5820 0.5790
10.633196 0.5760 0.5740 0.5720 0.5720 0.5670
10.667000 0.5640 0.5620 0.5610 0.5560 0.5560
10.700196 0.5540 0.5520 0.5520 0.5510 0.5510
10.733000 0.5510 0.5490 0.5490 0.5490 0.5490
10.766196 0.5510 0.5510 0.5510 0.5510 0.5520
10.799000 0.5520 0.5520 0.5520 0.5540 0.5540
10.832196 0.5540 0.5540 0.5560 0.5560 0.5560
10.866000 0.5560 0.5570 0.5570 0.5570 0.5570
10.899196 0.5570 0.5590 0.5590 0.5590 0.5620
10.932000 0.5620 0.5640 0.5640 0.5660 0.5660
10.965196 0.5670 0.5670 0.5690 0.5690 0.5710
10.998000 0.5720 0.5740 0.5770 0.5790 0.5810
11.031196 0.5820 0.5840 0.5860 0.5870 0.5890
11.065000 0.5890 0.5940 0.5990 0.6020 0.6050
11.098196 0.6120 0.6140 0.6150 0.6170 0.6200
11.131000 0.6220 0.6240 0.6250 0.6290 0.6300
11.164196 0.6320 0.6340 0.6350 0.6370 0.6370
11.198000 0.6390 0.6400 0.6400 0.6420 0.6440
11.231196 0.6440 0.6470 0.6470 0.6490 0.6490
11.264000 0.6520 0.6520 0.6530 0.6530 0.6550
11.297196 0.6550 0.6570 0.6570 0.6570 0.6570
11.330000 0.6570 0.6580 0.6580 0.6580 0.6580
11.363196 0.6580 0.6580 0.6580 0.6580 0.6580
11.397000 0.6580 0.6580 0.6580 0.6580 0.6580
11.430196 0.6580 0.6580 0.6580 0.6570 0.6570
11.463000 0.6570 0.6570 0.6570 0.6570 0.6550
11.496196 0.6550 0.6550 0.6530 0.6530 0.6530
11.529000 0.6520 0.6500 0.6500 0.6490 0.6490
11.562196 0.6470 0.6450 0.6440 0.6420 0.6400
11.596000 0.6400 0.6390 0.6370 0.6350 0.6340
11.629196 0.6320 0.6320 0.6320 0.6320 0.6300
11.662000 0.6300 0.6300 0.6290 0.6290 0.6290
11.695196 0.6270 0.6270 0.6270 0.6290 0.6290
11.728000 0.6290 0.6300 0.6300 0.6320 0.6320
11.761196 0.6340 0.6350 0.6370 0.6370 0.6390
11.795000 0.6400 0.6400 0.6420 0.6440 0.6450
11.828196 0.6470 0.6490 0.6500 0.6520 0.6530
11.861000 0.6550 0.6570 0.6580 0.6600 0.6630
11.894196 0.6630 0.6670 0.6700 0.6720 0.6730
11.928000 0.6750 0.6750 0.6800 0.6820 0.6820
11.961196 0.6830 0.6850 0.6850 0.6870 0.6880
11.994000 0.6900 0.6930 0.6930 0.6950 0.6950
12.027196 0.6950 0.6950 0.6970 0.6970 0.6970
12.060000 0.6970 0.6970 0.6970 0.6980 0.6980
12.093196 0.6980 0.6980 0.6980 0.6980 0.6980
12.127000 0.6980 0.6980 0.6980 0.6980 0.6980
12.160196 0.6980 0.6980 0.6980 0.6980 0.6980
12.193000 0.7000 0.7000 0.7000 0.7000 0.6980
12.226196 0.6980 0.6970 0.6970 0.6970 0.6970
12.259000 0.6970 0.6950 0.6950 0.6950 0.6950
12.292196 0.6950 0.6950 0.6950 0.6950 0.6950
12.326000 0.6950 0.6950 0.6950 0.6930 0.6930
12.359196 0.6920 0.6920 0.6920 0.6920 0.6930
12.392000 0.6920 0.6920 0.6900 0.6900 0.6900
12.425196 0.6880 0.6880 0.6870 0.6880 0.6870
12.458000 0.6870 0.6870 0.6870 0.6850 0.6850
12.491196 0.6850 0.6850 0.6850 0.6850 0.6830
12.525000 0.6830 0.6820 0.6820 0.6820 0.6800
12.558196 0.6800 0.6770 0.6770 0.6770 0.6770
12.591000 0.6770 0.6770 0.6750 0.6750 0.6750
12.624196 0.6750 0.6750 0.6730 0.6730 0.6730
12.657000 0.6730 0.6730 0.6730 0.6750 0.6750
12.690196 0.6750 0.6750 0.6750 0.6750 0.6750
12.724000 0.6770 0.6770 0.6770 0.6770 0.6770
12.757196 0.6800 0.6800 0.6820 0.6820 0.6820
12.790000 0.6820 0.6820 0.6830 0.6850 0.6850
12.823196 0.6850 0.6850 0.6850 0.6850 0.6850
12.857000 0.6850 0.6870 0.6900 0.6900 0.6920
12.890196 0.6920 0.6920 0.6920 0.6920 0.6930
12.923000 0.6930 0.6930 0.6930 0.6920 0.6920
12.956196 0.6920 0.6920 0.6900 0.6880 0.6880
12.989000 0.6880 0.6850 0.6850 0.6850 0.6850
13.022196 0.6850 0.6850 0.6850 0.6850 0.6850
13.056000 0.6850 0.6850 0.6850 0.6830 0.6830
13.089196 0.6830 0.6820 0.6820 0.6800 0.6780
13.122000 0.6800 0.6780 0.6780 0.6780 0.6770
13.155196 0.6770 0.6750 0.6750 0.6730 0.6730
13.188000 0.6730 0.6730 0.6730 0.6730 0.6720
13.221196 0.6720 0.6720 0.6720 0.6720 0.6720
13.255000 0.6720 0.6730 0.6730 0.6730 0.6730
13.288196 0.6750 0.6750 0.6770 0.6770 0.6780
13.321000 0.6800 0.6800 0.6820 0.6820 0.6830
13.354196 0.6830 0.6850 0.6850 0.6870 0.6870
13.387000 0.6880 0.6880 0.6900 0.6900 0.6900
13.420196 0.6900 0.6900 0.6880 0.6880 0.6870
13.454000 0.6870 0.6870 0.6870 0.6870 0.6870
13.487196 0.6870 0.6870 0.6870 0.6870 0.6870
13.520000 0.6870 0.6870 0.6870 0.6880 0.6880
13.553196 0.6880 0.6880 0.6900 0.6900 0.6920
13.587000 0.6920 0.6930 0.6930 0.6950 0.6970
13.620196 0.7000 0.7000 0.7010 0.7030 0.7050
13.653000 0.7050 0.7060 0.7110 0.7130 0.7150
13.686196 0.7150 0.7200 0.7210 0.7250 0.7250
13.719000 0.7260 0.7310 0.7330 0.7360 0.7360
13.752196 0.7410 0.7430 0.7450 0.7460 0.7510
13.786000 0.7530 0.7530 0.7540 0.7540 0.7590
13.819196 0.7610 0.7630 0.7630 0.7640 0.7660
13.852000 0.7660 0.7680 0.7680 0.7690 0.7690
13.885196 0.7690 0.7710 0.7710 0.7710 0.7710
13.918000 0.7710 0.7710 0.7710 0.7690 0.7710
13.951196 0.7710 0.7710 0.7710 0.7710 0.7710
13.985000 0.7710 0.7710 0.7730 0.7710 0.7710
14.018196 0.7710 0.7710 0.7710 0.7730 0.7730
14.051000 0.7760 0.7760 0.7760 0.7760 0.7760
14.084196 0.7760 0.7760 0.7760 0.7780 0.7780
14.117000 0.7780 0.7810 0.7810 0.7810 0.7810
14.150196 0.7830 0.7830 0.7830 0.7830 0.7830
14.184000 0.7830 0.7830 0.7830 0.7840 0.7840
14.217196 0.7840 0.7860 0.7860 0.7880 0.7880
14.250000 0.7880 0.7880 0.7880 0.7880 0.7890
14.283196 0.7890 0.7890 0.7890 0.7890 0.7890
14.316000 0.7910 0.7910 0.7910 0.7910 0.7910
14.349196 0.7910 0.7930 0.7930 0.7930 0.7930
14.383000 0.7910 0.7910 0.7910 0.7910 0.7910
14.416196 0.7910 0.7910 0.7890 0.7890 0.7890
14.449000 0.7890 0.7880 0.7880 0.7880 0.7880
14.482196 0.7860 0.7860 0.7840 0.7840 0.7830
14.516000 0.7830 0.7830 0.7810 0.7790 0.7790
14.549196 0.7790 0.7780 0.7780 0.7780 0.7760
14.582000 0.7760 0.7760 0.7740 0.7740 0.7730
14.615196 0.7730 0.7710 0.7710 0.7710 0.7710
14.648000 0.7690 0.7690 0.7660 0.7660 0.7660
14.681196 0.7640 0.7640 0.7630 0.7610 0.7610
14.715000 0.7590 0.7580 0.7580 0.7560 0.7540
14.748196 0.7540 0.7540 0.7530 0.7530 0.7530
14.781000 0.7510 0.7510 0.7500 0.7500 0.7480
14.814196 0.7480 0.7460 0.7450 0.7450 0.7450
14.847000 0.7450 0.7450 0.7450 0.7450 0.7450
14.880196 0.7430 0.7450 0.7450 0.7450 0.7430
14.914000 0.7430 0.7430 0.7410 0.7410 0.7410
14.947196 0.7410 0.7400 0.7400 0.7380 0.7350
14.980000 0.7360 0.7350 0.7350 0.7350 0.7330
15.013196 0.7330 0.7310 0.7300 0.7280 0.7280
15.046000 0.7260 0.7260 0.7260 0.7260 0.7260
15.079196 0.7250 0.7250 0.7250 0.7250 0.7250
15.113000 0.7250 0.7250 0.7250 0.7250 0.7250
15.146196 0.7250 0.7250 0.7250 0.7250 0.7250
15.179000 0.7260 0.7250 0.7250 0.7250 0.7250
15.212196 0.7250 0.7230 0.7230 0.7210 0.7210
15.246000 0.7200 0.7200 0.7180 0.7160 0.7160
15.279196 0.7160 0.7160 0.7150 0.7130 0.7130
15.312000 0.7110 0.7100 0.7100 0.7080 0.7080
15.345196 0.7060 0.7060 0.7050 0.7050 0.7030
15.378000 0.7010 0.7010 0.7010 0.7000 0.6970
15.411196 0.6970 0.6970 0.6970 0.6950 0.6950
15.445000 0.6930 0.6920 0.6920 0.6900 0.6880
15.478196 0.6870 0.6870 0.6850 0.6850 0.6830
15.511000 0.6830 0.6820 0.6820 0.6820 0.6800
15.544196 0.6780 0.6770 0.6770 0.6770 0.6770
15.577000 0.6770 0.6750 0.6750 0.6770 0.6750
15.610196 0.6750 0.6730 0.6730 0.6730 0.6730
15.644000 0.6720 0.6720 0.6720 0.6720 0.6720
15.677196 0.6720 0.6700 0.6700 0.6700 0.6700
15.710000 0.6700 0.6700 0.6700 0.6700 0.6700
15.743196 0.6700 0.6700 0.6700 0.6700 0.6680
15.776000 0.6680 0.6680 0.6680 0.6670 0.6670
15.809196 0.6650 0.6650 0.6630 0.6630 0.6620
15.843000 0.6620 0.6620 0.6620 0.6600 0.6580
15.876196 0.6570 0.6570 0.6550 0.6570 0.6580
15.909000 0.6570 0.6570 0.6570 0.6570 0.6570
15.942196 0.6550 0.6550 0.6530 0.6530 0.6520
15.975000 0.6520 0.6530 0.6530 0.6520
##END=
