##TITLE=SYM-DIETHYLDIBORANE
##JCAMP-DX=4.24
##DATA TYPE=INFRARED SPECTRUM
##CLASS=COBLENTZ
##ORIGIN=KALLERY CHEMICAL COMPANY
##OWNER=COBLENTZ SOCIETY
Collection (C) 2018 copyright by the U.S. Secretary of Commerce
on behalf of the United States of America. All rights reserved.
##DATE=1960
##MOLFORM=C4 H14 B2
##SOURCE REFERENCE=COBLENTZ NO. 830
##$NIST ID=B6000830
##$NIST SOURCE=COBLENTZ
##$NIST IMAGE=cob830
##SPECTROMETER/DATA SYSTEM=Not specified, most likely a prism, grating, or hybrid spectrometer.
##STATE=VAPOR AT 30 mmHg PRESSURE; $$ RESEARCH PURITY
##PATH LENGTH=5 CM
##SAMPLING PROCEDURE=TRANSMISSION
##RESOLUTION=4
##DATA PROCESSING=DIGITIZED BY NIST FROM HARD COPY
##XUNITS=MICROMETERS
##YUNITS=TRANSMITTANCE
##XFACTOR=1.000000
##YFACTOR=1
##DELTAX=000.006748
##FIRSTX=2.013
##LASTX=15.239
##FIRSTY=0.814
##MAXX=15.239
##MINX=2.013
##MAXY=0.821
##MINY=0.026
##NPOINTS=1961
##XYDATA=(X++(Y..Y))
2.013000 0.8140 0.8140 0.8140 0.8090 0.8070
2.046755 0.8070 0.8110 0.8110 0.8110 0.8120
2.081000 0.8120 0.8140 0.8160 0.8170 0.8170
2.114755 0.8170 0.8160 0.8160 0.8140 0.8160
2.148000 0.8170 0.8170 0.8190 0.8190 0.8190
2.181755 0.8190 0.8210 0.8190 0.8170 0.8160
2.216000 0.8140 0.8160 0.8160 0.8160 0.8160
2.249755 0.8120 0.8120 0.8110 0.8090 0.8070
2.283000 0.8060 0.8040 0.8020 0.8010 0.7990
2.316755 0.7990 0.7990 0.7990 0.7990 0.8020
2.351000 0.8040 0.8040 0.8040 0.8040 0.8040
2.384755 0.8040 0.8040 0.8020 0.8010 0.8020
2.418000 0.8040 0.8060 0.8070 0.8070 0.8070
2.451755 0.8020 0.8020 0.8020 0.8020 0.8020
2.486000 0.8020 0.8020 0.8020 0.8020 0.8020
2.519755 0.8020 0.8020 0.8020 0.8020 0.8020
2.553000 0.8020 0.8060 0.8090 0.8090 0.8090
2.586755 0.8070 0.8070 0.8060 0.8060 0.8060
2.621000 0.8060 0.8070 0.8090 0.8090 0.8090
2.654755 0.8090 0.8090 0.8070 0.8010 0.7990
2.688000 0.7770 0.7720 0.7720 0.7720 0.7700
2.721755 0.7690 0.7650 0.7600 0.7570 0.7520
2.756000 0.7520 0.7500 0.7420 0.7340 0.7300
2.789755 0.7200 0.7190 0.7200 0.7250 0.7270
2.823000 0.7390 0.7440 0.7520 0.7600 0.7700
2.856755 0.7720 0.7750 0.7790 0.7820 0.7890
2.891000 0.7920 0.7970 0.7990 0.7990 0.7990
2.924755 0.7990 0.8010 0.8010 0.8020 0.8010
2.958000 0.8010 0.8010 0.8010 0.8010 0.8010
2.991755 0.8040 0.8060 0.8070 0.8090 0.8090
3.026000 0.8090 0.8090 0.8090 0.8110 0.8110
3.059755 0.8120 0.8120 0.8120 0.8110 0.8090
3.093000 0.8090 0.8070 0.8070 0.8040 0.8020
3.126755 0.8010 0.7990 0.7970 0.7940 0.7940
3.161000 0.7950 0.7950 0.7950 0.7940 0.7940
3.194755 0.7920 0.7900 0.7900 0.7870 0.7870
3.228000 0.7850 0.7850 0.7840 0.7820 0.7800
3.261755 0.7800 0.7770 0.7750 0.7720 0.7650
3.296000 0.7620 0.7550 0.7500 0.7440 0.7290
3.329755 0.7090 0.6850 0.5730 0.5410 0.2970
3.363000 0.1070 0.1030 0.1070 0.1120 0.1570
3.396755 0.1680 0.1820 0.1870 0.2200 0.2390
3.430000 0.2520 0.2570 0.2600 0.2600 0.2650
3.463755 0.2740 0.3420 0.3710 0.4740 0.5360
3.498000 0.5960 0.6070 0.6120 0.6150 0.6270
3.531755 0.6770 0.6870 0.6980 0.7090 0.7140
3.565000 0.7550 0.7640 0.7670 0.7700 0.7700
3.598755 0.7770 0.7770 0.7720 0.7690 0.7670
3.633000 0.7650 0.7570 0.7570 0.7590 0.7640
3.666755 0.7670 0.7690 0.7700 0.7720 0.7740
3.700000 0.7790 0.7820 0.7850 0.7850 0.7870
3.733755 0.7870 0.7870 0.7870 0.7870 0.7840
3.768000 0.7800 0.7670 0.7520 0.7470 0.7400
3.801755 0.7340 0.7070 0.6920 0.6770 0.6730
3.835000 0.6600 0.6600 0.6680 0.6770 0.6850
3.868755 0.6980 0.7020 0.7050 0.7050 0.6980
3.903000 0.6970 0.6850 0.6630 0.3120 0.2750
3.936755 0.2340 0.2100 0.1920 0.1570 0.1320
3.970000 0.1150 0.0980 0.0910 0.0910 0.1170
4.003755 0.1250 0.2970 0.3260 0.3910 0.4310
4.038000 0.5200 0.6070 0.6570 0.7140 0.7240
4.071755 0.7590 0.7600 0.7640 0.7640 0.7640
4.105000 0.7640 0.7590 0.7550 0.7550 0.7550
4.138755 0.7550 0.7550 0.7570 0.7600 0.7620
4.173000 0.7640 0.7670 0.7690 0.7700 0.7750
4.206755 0.7800 0.7890 0.7890 0.7870 0.7870
4.240000 0.7870 0.7870 0.7850 0.7850 0.7820
4.273755 0.7820 0.7820 0.7820 0.7820 0.7820
4.308000 0.7820 0.7820 0.7840 0.7840 0.7850
4.341755 0.7850 0.7850 0.7850 0.7850 0.7850
4.375000 0.7850 0.7850 0.7850 0.7850 0.7840
4.408755 0.7800 0.7790 0.7770 0.7770 0.7770
4.443000 0.7750 0.7750 0.7740 0.7750 0.7750
4.476755 0.7750 0.7770 0.7790 0.7820 0.7840
4.510000 0.7870 0.7900 0.7920 0.7920 0.7940
4.543755 0.7940 0.7940 0.7940 0.7940 0.7920
4.578000 0.7900 0.7890 0.7870 0.7870 0.7870
4.611755 0.7870 0.7870 0.7870 0.7870 0.7850
4.645000 0.7850 0.7850 0.7870 0.7870 0.7870
4.678755 0.7890 0.7890 0.7900 0.7900 0.7900
4.713000 0.7970 0.7970 0.7900 0.7900 0.7870
4.746755 0.7870 0.7870 0.7850 0.7850 0.7870
4.780000 0.7870 0.7870 0.7870 0.7870 0.7870
4.813755 0.7900 0.7900 0.7870 0.7870 0.7870
4.848000 0.7870 0.7870 0.7890 0.7890 0.7890
4.881755 0.7890 0.7890 0.7870 0.7840 0.7840
4.915000 0.7850 0.7870 0.7890 0.7870 0.7870
4.948755 0.7890 0.7890 0.7890 0.7870 0.7870
4.982000 0.7850 0.7840 0.7840 0.7840 0.7840
5.015755 0.7840 0.7840 0.7850 0.7850 0.7850
5.050000 0.7850 0.7820 0.7790 0.7770 0.7770
5.083755 0.7770 0.7750 0.7750 0.7720 0.7700
5.117000 0.7690 0.7670 0.7650 0.7620 0.7600
5.150755 0.7550 0.7520 0.7490 0.7470 0.7390
5.185000 0.7270 0.7240 0.7170 0.7120 0.7090
5.218755 0.7050 0.7040 0.7050 0.7090 0.7120
5.252000 0.7150 0.7190 0.7250 0.7270 0.7320
5.285755 0.7340 0.7370 0.7450 0.7470 0.7470
5.320000 0.7470 0.7470 0.7490 0.7490 0.7470
5.353755 0.7470 0.7390 0.7290 0.7270 0.7270
5.387000 0.7250 0.7240 0.7220 0.7200 0.7220
5.420755 0.7220 0.7240 0.7240 0.7240 0.7240
5.455000 0.7240 0.7220 0.7220 0.7240 0.7240
5.488755 0.7250 0.7270 0.7290 0.7300 0.7340
5.522000 0.7370 0.7350 0.7350 0.7350 0.7350
5.555755 0.7320 0.7290 0.7270 0.7240 0.7190
5.590000 0.7150 0.7150 0.7220 0.7220 0.7200
5.623755 0.7200 0.7190 0.7170 0.7140 0.7100
5.657000 0.7070 0.7070 0.7100 0.7090 0.7090
5.690755 0.7090 0.7070 0.7040 0.6980 0.6950
5.725000 0.6950 0.6950 0.6950 0.6970 0.6970
5.758755 0.6950 0.6820 0.6680 0.6600 0.6520
5.792000 0.6480 0.6450 0.6400 0.6280 0.6120
5.825755 0.6000 0.5980 0.5980 0.5960 0.5960
5.860000 0.5930 0.5900 0.5880 0.5830 0.5730
5.893755 0.5680 0.5650 0.5560 0.5530 0.5450
5.927000 0.5360 0.5250 0.5150 0.5030 0.4780
5.960755 0.4630 0.4430 0.4030 0.3890 0.3690
5.995000 0.3620 0.3560 0.3360 0.3190 0.2920
6.028755 0.2820 0.2720 0.2640 0.2540 0.2450
6.062000 0.2370 0.2320 0.2220 0.2100 0.1950
6.095755 0.1800 0.1620 0.1450 0.1280 0.1100
6.130000 0.0910 0.0800 0.0660 0.0550 0.0480
6.163755 0.0410 0.0360 0.0350 0.0330 0.0330
6.197000 0.0310 0.0300 0.0280 0.0280 0.0260
6.230755 0.0260 0.0260 0.0260 0.0260 0.0260
6.265000 0.0260 0.0280 0.0280 0.0300 0.0310
6.298755 0.0310 0.0310 0.0310 0.0310 0.0310
6.332000 0.0310 0.0310 0.0330 0.0330 0.0400
6.365755 0.0480 0.0550 0.0610 0.0660 0.0680
6.399000 0.0710 0.0760 0.0980 0.1170 0.1780
6.432755 0.2120 0.2270 0.2400 0.2540 0.2690
6.467000 0.2840 0.2990 0.3170 0.3390 0.3610
6.500755 0.4080 0.4380 0.4510 0.4630 0.4780
6.534000 0.4940 0.4960 0.4960 0.4980 0.4980
6.567755 0.5000 0.5010 0.5050 0.5100 0.5130
6.602000 0.5160 0.5180 0.5250 0.5260 0.5280
6.635755 0.5310 0.5330 0.5350 0.5430 0.5450
6.669000 0.5460 0.5480 0.5480 0.5480 0.5480
6.702755 0.5480 0.5480 0.5460 0.5450 0.5450
6.737000 0.5360 0.5310 0.5210 0.5010 0.4880
6.770755 0.4810 0.4710 0.4540 0.4460 0.4430
6.804000 0.4330 0.4290 0.4240 0.4240 0.4260
6.837755 0.4290 0.4360 0.4430 0.4480 0.4560
6.872000 0.4640 0.4860 0.4960 0.5050 0.5250
6.905755 0.5300 0.5310 0.5330 0.5350 0.5380
6.939000 0.5460 0.5560 0.5560 0.5510 0.5500
6.972755 0.5460 0.5430 0.5300 0.5300 0.5260
7.007000 0.5250 0.5230 0.5210 0.5230 0.5250
7.040755 0.5280 0.5330 0.5400 0.5500 0.5600
7.074000 0.5700 0.5750 0.5760 0.5900 0.5960
7.107755 0.6030 0.6130 0.6220 0.6300 0.6350
7.142000 0.6420 0.6430 0.6430 0.6430 0.6450
7.175755 0.6450 0.6450 0.6470 0.6470 0.6480
7.209000 0.6480 0.6500 0.6530 0.6570 0.6600
7.242755 0.6600 0.6620 0.6620 0.6670 0.6730
7.277000 0.6820 0.6900 0.6980 0.7000 0.7040
7.310755 0.7070 0.7120 0.7220 0.7240 0.7270
7.344000 0.7270 0.7270 0.7290 0.7300 0.7350
7.377755 0.7370 0.7370 0.7390 0.7370 0.7370
7.412000 0.7370 0.7350 0.7370 0.7420 0.7450
7.445755 0.7490 0.7470 0.7470 0.7450 0.7450
7.479000 0.7450 0.7450 0.7470 0.7490 0.7490
7.512755 0.7500 0.7490 0.7490 0.7490 0.7500
7.547000 0.7500 0.7500 0.7500 0.7490 0.7470
7.580755 0.7450 0.7450 0.7440 0.7420 0.7370
7.614000 0.7340 0.7290 0.7200 0.7050 0.6930
7.647755 0.6920 0.6680 0.6630 0.6530 0.6180
7.682000 0.6080 0.5800 0.5560 0.5360 0.5230
7.715755 0.5180 0.5160 0.5160 0.5160 0.5160
7.749000 0.5160 0.5180 0.5300 0.5400 0.5500
7.782755 0.5660 0.5780 0.5960 0.6220 0.6380
7.816000 0.6520 0.6630 0.6780 0.6980 0.7140
7.849755 0.7190 0.7240 0.7300 0.7350 0.7390
7.884000 0.7450 0.7450 0.7470 0.7470 0.7450
7.917755 0.7440 0.7440 0.7450 0.7470 0.7490
7.951000 0.7490 0.7490 0.7520 0.7490 0.7490
7.984755 0.7490 0.7490 0.7490 0.7500 0.7520
8.019000 0.7540 0.7540 0.7540 0.7550 0.7550
8.052755 0.7540 0.7520 0.7520 0.7490 0.7490
8.086000 0.7500 0.7520 0.7550 0.7570 0.7590
8.119755 0.7590 0.7590 0.7590 0.7570 0.7570
8.154000 0.7570 0.7590 0.7590 0.7620 0.7620
8.187755 0.7640 0.7650 0.7620 0.7600 0.7600
8.221000 0.7590 0.7590 0.7620 0.7600 0.7600
8.254755 0.7600 0.7600 0.7620 0.7640 0.7650
8.289000 0.7650 0.7650 0.7650 0.7650 0.7640
8.322755 0.7620 0.7600 0.7600 0.7600 0.7590
8.356000 0.7600 0.7620 0.7620 0.7600 0.7620
8.389755 0.7600 0.7600 0.7590 0.7550 0.7550
8.424000 0.7550 0.7520 0.7490 0.7470 0.7470
8.457755 0.7470 0.7470 0.7470 0.7440 0.7370
8.491000 0.7340 0.7340 0.7290 0.7270 0.7270
8.524755 0.7270 0.7250 0.7250 0.7190 0.7140
8.559000 0.7090 0.7050 0.7020 0.7020 0.7000
8.592755 0.6980 0.6970 0.6950 0.6930 0.6880
8.626000 0.6850 0.6780 0.6750 0.6680 0.6620
8.659755 0.6580 0.6530 0.6450 0.6370 0.6250
8.694000 0.6180 0.6030 0.5950 0.5950 0.5830
8.727755 0.5730 0.5600 0.5510 0.5300 0.5250
8.761000 0.5130 0.5100 0.5060 0.4860 0.4590
8.794755 0.4130 0.3760 0.3310 0.3020 0.2950
8.829000 0.2750 0.2650 0.2450 0.2200 0.1750
8.862755 0.1570 0.1450 0.1350 0.1180 0.1050
8.896000 0.0960 0.0950 0.0860 0.0750 0.0630
8.929755 0.0560 0.0550 0.0530 0.0530 0.0510
8.964000 0.0500 0.0500 0.0500 0.0500 0.0500
8.997755 0.0500 0.0510 0.0510 0.0550 0.0600
9.031000 0.0630 0.0760 0.0910 0.1130 0.1280
9.064755 0.1430 0.1530 0.1650 0.1770 0.1880
9.099000 0.2050 0.2200 0.2470 0.2970 0.3510
9.132755 0.3760 0.3960 0.4010 0.4210 0.4980
9.166000 0.5030 0.5060 0.5150 0.5200 0.5280
9.199755 0.5460 0.5650 0.5800 0.5950 0.6050
9.233000 0.6130 0.6170 0.6270 0.6370 0.6400
9.266755 0.6450 0.6450 0.6450 0.6450 0.6470
9.301000 0.6520 0.6530 0.6550 0.6570 0.6570
9.334755 0.6520 0.6450 0.6330 0.6320 0.6300
9.368000 0.6280 0.6220 0.6180 0.6150 0.6120
9.401755 0.6080 0.6050 0.6030 0.6020 0.6020
9.436000 0.6020 0.6020 0.6000 0.6000 0.6000
9.469755 0.6000 0.6000 0.5980 0.5980 0.5980
9.503000 0.5980 0.5980 0.5980 0.6000 0.6050
9.536755 0.6070 0.6080 0.6130 0.6150 0.6150
9.571000 0.6170 0.6200 0.6200 0.6250 0.6270
9.604755 0.6280 0.6300 0.6300 0.6300 0.6300
9.638000 0.6300 0.6300 0.6300 0.6300 0.6300
9.671755 0.6280 0.6280 0.6280 0.6280 0.6280
9.706000 0.6270 0.6250 0.6220 0.6220 0.6200
9.739755 0.6200 0.6200 0.6200 0.6180 0.6180
9.773000 0.6180 0.6180 0.6170 0.6150 0.6150
9.806755 0.6150 0.6150 0.6130 0.6150 0.6150
9.841000 0.6170 0.6180 0.6220 0.6230 0.6250
9.874755 0.6270 0.6280 0.6350 0.6370 0.6380
9.908000 0.6380 0.6400 0.6430 0.6450 0.6450
9.941755 0.6500 0.6480 0.6520 0.6530 0.6550
9.976000 0.6570 0.6580 0.6620 0.6630 0.6670
10.009755 0.6720 0.6750 0.6800 0.6830 0.6850
10.043000 0.6880 0.6950 0.6950 0.6950 0.6970
10.076755 0.6980 0.7000 0.7020 0.7100 0.7140
10.111000 0.7170 0.7170 0.7190 0.7220 0.7270
10.144755 0.7290 0.7320 0.7340 0.7340 0.7370
10.178000 0.7350 0.7370 0.7370 0.7390 0.7440
10.211755 0.7440 0.7440 0.7440 0.7440 0.7440
10.246000 0.7420 0.7440 0.7440 0.7450 0.7490
10.279755 0.7520 0.7570 0.7570 0.7590 0.7600
10.313000 0.7620 0.7640 0.7620 0.7620 0.7600
10.346755 0.7600 0.7590 0.7590 0.7600 0.7620
10.381000 0.7620 0.7650 0.7670 0.7670 0.7700
10.414755 0.7700 0.7690 0.7690 0.7690 0.7670
10.448000 0.7670 0.7670 0.7670 0.7670 0.7670
10.481755 0.7670 0.7670 0.7670 0.7670 0.7650
10.516000 0.7640 0.7640 0.7620 0.7620 0.7620
10.549755 0.7600 0.7590 0.7590 0.7570 0.7550
10.583000 0.7540 0.7500 0.7500 0.7490 0.7500
10.616755 0.7490 0.7490 0.7490 0.7470 0.7470
10.650000 0.7450 0.7450 0.7420 0.7370 0.7300
10.683755 0.7290 0.7290 0.7270 0.7200 0.7150
10.718000 0.7140 0.7100 0.7090 0.7090 0.7070
10.751755 0.7070 0.7040 0.7000 0.6970 0.6950
10.785000 0.6920 0.6880 0.6850 0.6820 0.6780
10.818755 0.6770 0.6770 0.6730 0.6720 0.6700
10.853000 0.6680 0.6650 0.6650 0.6630 0.6620
10.886755 0.6580 0.6530 0.6530 0.6500 0.6500
10.920000 0.6480 0.6470 0.6450 0.6450 0.6450
10.953755 0.6450 0.6450 0.6450 0.6450 0.6450
10.988000 0.6470 0.6470 0.6480 0.6480 0.6500
11.021755 0.6500 0.6520 0.6530 0.6530 0.6550
11.055000 0.6550 0.6530 0.6520 0.6530 0.6530
11.088755 0.6550 0.6570 0.6570 0.6580 0.6600
11.123000 0.6620 0.6620 0.6620 0.6620 0.6620
11.156755 0.6630 0.6650 0.6720 0.6770 0.6770
11.190000 0.6780 0.6800 0.6800 0.6850 0.6850
11.223755 0.6880 0.6920 0.6920 0.6970 0.6980
11.258000 0.7000 0.7020 0.7040 0.7040 0.7040
11.291755 0.7040 0.7040 0.7020 0.7000 0.6980
11.325000 0.6980 0.6970 0.6980 0.6970 0.6970
11.358755 0.6970 0.6950 0.6930 0.6930 0.6930
11.393000 0.6930 0.6980 0.6980 0.6980 0.6970
11.426755 0.6930 0.6880 0.6870 0.6850 0.6850
11.460000 0.6850 0.6830 0.6820 0.6730 0.6700
11.493755 0.6670 0.6650 0.6620 0.6580 0.6570
11.528000 0.6520 0.6450 0.6370 0.6270 0.6180
11.561755 0.6130 0.6070 0.6070 0.5960 0.5860
11.595000 0.5760 0.5710 0.5660 0.5610 0.5600
11.628755 0.5530 0.5480 0.5460 0.5430 0.5360
11.663000 0.5300 0.5230 0.5160 0.5080 0.5030
11.696755 0.5010 0.4980 0.4960 0.4960 0.4960
11.730000 0.4960 0.4960 0.4960 0.4960 0.4960
11.763755 0.4960 0.4960 0.4980 0.5000 0.5000
11.798000 0.5010 0.5010 0.5030 0.5060 0.5100
11.831755 0.5130 0.5150 0.5160 0.5180 0.5200
11.865000 0.5210 0.5260 0.5310 0.5350 0.5380
11.898755 0.5400 0.5410 0.5430 0.5460 0.5500
11.933000 0.5530 0.5550 0.5560 0.5580 0.5610
11.966755 0.5610 0.5600 0.5580 0.5550 0.5380
12.000000 0.5310 0.5250 0.5180 0.5150 0.5110
12.033755 0.5030 0.4910 0.4840 0.4760 0.4660
12.067000 0.4580 0.4510 0.4480 0.4440 0.4440
12.100755 0.4360 0.4310 0.4280 0.4260 0.4240
12.135000 0.4230 0.4210 0.4180 0.4140 0.4130
12.168755 0.4130 0.4130 0.4140 0.4180 0.4230
12.202000 0.4290 0.4380 0.4440 0.4460 0.4480
12.235755 0.4510 0.4540 0.4590 0.4660 0.4690
12.270000 0.4740 0.4830 0.4880 0.4940 0.4980
12.303755 0.5010 0.5100 0.5180 0.5250 0.5330
12.337000 0.5410 0.5500 0.5600 0.5730 0.5800
12.370755 0.5880 0.5950 0.5980 0.6120 0.6200
12.405000 0.6280 0.6370 0.6470 0.6500 0.6600
12.438755 0.6620 0.6670 0.6720 0.6750 0.6800
12.472000 0.6830 0.6900 0.6950 0.6970 0.6980
12.505755 0.7020 0.7070 0.7090 0.7100 0.7140
12.540000 0.7150 0.7150 0.7170 0.7190 0.7190
12.573755 0.7190 0.7200 0.7220 0.7240 0.7240
12.607000 0.7240 0.7250 0.7250 0.7270 0.7270
12.640755 0.7290 0.7290 0.7290 0.7300 0.7320
12.675000 0.7340 0.7350 0.7350 0.7350 0.7370
12.708755 0.7370 0.7370 0.7370 0.7370 0.7370
12.742000 0.7370 0.7370 0.7370 0.7370 0.7370
12.775755 0.7370 0.7370 0.7370 0.7370 0.7390
12.810000 0.7390 0.7390 0.7390 0.7390 0.7370
12.843755 0.7390 0.7370 0.7370 0.7370 0.7350
12.877000 0.7340 0.7320 0.7320 0.7300 0.7300
12.910755 0.7290 0.7270 0.7270 0.7250 0.7250
12.945000 0.7250 0.7240 0.7240 0.7220 0.7220
12.978755 0.7200 0.7200 0.7190 0.7190 0.7190
13.012000 0.7170 0.7170 0.7170 0.7170 0.7170
13.045755 0.7170 0.7170 0.7190 0.7190 0.7190
13.080000 0.7170 0.7150 0.7120 0.7100 0.7090
13.113755 0.7090 0.7090 0.7090 0.7090 0.7090
13.147000 0.7100 0.7100 0.7100 0.7090 0.7090
13.180755 0.7090 0.7070 0.7070 0.7050 0.7050
13.215000 0.7050 0.7040 0.7040 0.7040 0.7040
13.248755 0.7020 0.7020 0.7020 0.7000 0.7000
13.282000 0.7000 0.7000 0.7000 0.7000 0.7000
13.315755 0.7000 0.7000 0.7020 0.7020 0.7040
13.350000 0.7040 0.7040 0.7040 0.7040 0.7050
13.383755 0.7040 0.7050 0.7050 0.7070 0.7070
13.417000 0.7070 0.7090 0.7100 0.7120 0.7120
13.450755 0.7140 0.7120 0.7140 0.7140 0.7150
13.484000 0.7150 0.7150 0.7170 0.7170 0.7190
13.517755 0.7190 0.7200 0.7200 0.7220 0.7240
13.552000 0.7240 0.7240 0.7250 0.7270 0.7270
13.585755 0.7270 0.7270 0.7270 0.7270 0.7270
13.619000 0.7270 0.7270 0.7270 0.7270 0.7270
13.652755 0.7270 0.7270 0.7270 0.7270 0.7270
13.687000 0.7270 0.7270 0.7270 0.7270 0.7270
13.720755 0.7270 0.7270 0.7250 0.7250 0.7250
13.754000 0.7250 0.7250 0.7250 0.7240 0.7240
13.787755 0.7240 0.7240 0.7240 0.7240 0.7220
13.822000 0.7220 0.7200 0.7200 0.7200 0.7200
13.855755 0.7200 0.7190 0.7200 0.7200 0.7200
13.889000 0.7240 0.7220 0.7220 0.7220 0.7200
13.922755 0.7200 0.7200 0.7200 0.7190 0.7190
13.957000 0.7190 0.7190 0.7190 0.7190 0.7190
13.990755 0.7190 0.7190 0.7190 0.7190 0.7190
14.024000 0.7190 0.7190 0.7190 0.7190 0.7190
14.057755 0.7190 0.7200 0.7200 0.7200 0.7190
14.092000 0.7190 0.7190 0.7190 0.7200 0.7220
14.125755 0.7200 0.7220 0.7220 0.7220 0.7240
14.159000 0.7250 0.7270 0.7270 0.7270 0.7290
14.192755 0.7270 0.7270 0.7250 0.7250 0.7250
14.227000 0.7240 0.7220 0.7220 0.7220 0.7200
14.260755 0.7200 0.7190 0.7190 0.7190 0.7190
14.294000 0.7190 0.7190 0.7170 0.7170 0.7150
14.327755 0.7150 0.7140 0.7140 0.7120 0.7120
14.362000 0.7100 0.7100 0.7100 0.7100 0.7120
14.395755 0.7120 0.7120 0.7120 0.7100 0.7100
14.429000 0.7090 0.7090 0.7090 0.7070 0.7070
14.462755 0.7070 0.7020 0.7000 0.6980 0.6950
14.497000 0.6950 0.6930 0.6930 0.6930 0.6930
14.530755 0.6930 0.6920 0.6920 0.6920 0.6920
14.564000 0.6920 0.6920 0.6900 0.6880 0.6880
14.597755 0.6870 0.6850 0.6830 0.6820 0.6830
14.632000 0.6830 0.6830 0.6830 0.6830 0.6830
14.665755 0.6800 0.6820 0.6800 0.6780 0.6770
14.699000 0.6730 0.6730 0.6750 0.6750 0.6730
14.732755 0.6730 0.6700 0.6700 0.6700 0.6700
14.767000 0.6680 0.6680 0.6680 0.6680 0.6680
14.800755 0.6680 0.6680 0.6670 0.6670 0.6670
14.834000 0.6650 0.6630 0.6650 0.6650 0.6650
14.867755 0.6670 0.6650 0.6630 0.6630 0.6620
14.901000 0.6620 0.6600 0.6580 0.6580 0.6570
14.934755 0.6520 0.6520 0.6480 0.6480 0.6480
14.969000 0.6500 0.6500 0.6520 0.6550 0.6570
15.002755 0.6580 0.6600 0.6620 0.6630 0.6630
15.036000 0.6620 0.6600 0.6600 0.6600 0.6580
15.069755 0.6570 0.6570 0.6570 0.6550 0.6550
15.104000 0.6550 0.6550 0.6550 0.6550 0.6550
15.137755 0.6550 0.6550 0.6530 0.6530 0.6530
15.171000 0.6530 0.6530 0.6520 0.6520 0.6500
15.204755 0.6500 0.6500 0.6480 0.6480 0.6500
15.239000 0.6520
##END=
