##TITLE=AMMONIUM SAMARIUM OXALATE, HYDRATE
##JCAMP-DX=4.24
##DATA TYPE=INFRARED SPECTRUM
##CLASS=COBLENTZ III
##ORIGIN=DOW CHEMICAL COMPANY
##OWNER=COBLENTZ SOCIETY
Collection (C) 2018 copyright by the U.S. Secretary of Commerce
on behalf of the United States of America. All rights reserved.
##DATE=1968/10/24
##MOLFORM=C8 H8 N2 O16 Sm2  * 6-8 H2 O
##SOURCE REFERENCE=COBLENTZ NO. 9191
##$NIST ID=B6009191
##$NIST SOURCE=COBLENTZ
##$NIST IMAGE=cob9191
##SPECTROMETER/DATA SYSTEM=DOW KBr FOREPRISM-GRATING
##INSTRUMENT PARAMETERS=BLAZED AT 3.5, 12.0, 20.0 MICRON AND CHANGED AT 5.0, 7.5, 14.9 MICRON
##STATE=SOLID (SPLIT MULL), FLUOROLUBE FOR 3800-1330 CM^-^1, NUJOL FOR 1330-470 CM^-^1
##SAMPLING PROCEDURE=TRANSMISSION
##RESOLUTION=2
##DATA PROCESSING=DIGITIZED BY NIST FROM HARD COPY (FROM TWO SEGMENTS)
##XUNITS=1/CM
##YUNITS=TRANSMITTANCE
##XFACTOR=1.000000
##YFACTOR=1
##DELTAX=0.880412
##FIRSTX=466.324
##LASTX=3802.2
##FIRSTY=0.892
##MAXX=3802.2
##MINX=466.324
##MAXY=1.002
##MINY=0.063
##NPOINTS=3790
##XYDATA=(X++(Y..Y))
466.324000 0.8920 0.8910 0.8900 0.8880 0.8880
470.726058 0.8870 0.8840 0.8800 0.8770 0.8720
475.128115 0.8690 0.8680 0.8620 0.8550 0.8530
479.530173 0.8500 0.8430 0.8360 0.8310 0.8260
483.932230 0.8210 0.8140 0.8040 0.7920 0.7880
488.334288 0.7840 0.7780 0.7740 0.7690 0.7670
492.736345 0.7690 0.7710 0.7730 0.7760 0.7780
497.138403 0.7820 0.7850 0.7890 0.7950 0.7990
501.540460 0.8030 0.8060 0.8100 0.8110 0.8130
505.942518 0.8170 0.8210 0.8240 0.8290 0.8310
510.344575 0.8330 0.8390 0.8430 0.8470 0.8500
514.746633 0.8530 0.8540 0.8550 0.8580 0.8610
519.148690 0.8640 0.8680 0.8690 0.8760 0.8840
523.550748 0.8880 0.8920 0.8940 0.8980 0.9050
527.952805 0.9100 0.9130 0.9160 0.9200 0.9230
532.354863 0.9280 0.9290 0.9310 0.9340 0.9350
536.756920 0.9380 0.9390 0.9400 0.9420 0.9430
541.158978 0.9430 0.9460 0.9460 0.9470 0.9470
545.561035 0.9490 0.9470 0.9490 0.9500 0.9510
549.963093 0.9510 0.9530 0.9540 0.9540 0.9560
554.365150 0.9570 0.9570 0.9580 0.9600 0.9600
558.767208 0.9610 0.9610 0.9620 0.9620 0.9640
563.169265 0.9640 0.9650 0.9650 0.9670 0.9670
567.571323 0.9680 0.9680 0.9690 0.9690 0.9690
571.973380 0.9710 0.9710 0.9710 0.9710 0.9690
576.375438 0.9710 0.9710 0.9710 0.9710 0.9720
580.777495 0.9720 0.9730 0.9730 0.9750 0.9730
585.179553 0.9750 0.9750 0.9750 0.9750 0.9750
589.581610 0.9750 0.9750 0.9750 0.9750 0.9750
593.983668 0.9750 0.9750 0.9750 0.9750 0.9750
598.385725 0.9750 0.9750 0.9750 0.9750 0.9750
602.787783 0.9750 0.9750 0.9750 0.9750 0.9750
607.189840 0.9750 0.9750 0.9750 0.9750 0.9750
611.591898 0.9760 0.9760 0.9760 0.9760 0.9760
615.993955 0.9760 0.9760 0.9760 0.9760 0.9760
620.396013 0.9760 0.9760 0.9760 0.9760 0.9760
624.798070 0.9760 0.9760 0.9760 0.9760 0.9760
629.200128 0.9760 0.9760 0.9760 0.9760 0.9760
633.602185 0.9760 0.9760 0.9760 0.9760 0.9760
638.004243 0.9760 0.9760 0.9760 0.9760 0.9760
642.406300 0.9760 0.9760 0.9760 0.9760 0.9760
646.808358 0.9760 0.9760 0.9760 0.9760 0.9760
651.210415 0.9760 0.9760 0.9760 0.9760 0.9760
655.612473 0.9760 0.9760 0.9760 0.9760 0.9760
660.014530 0.9760 0.9760 0.9760 0.9760 0.9760
664.416588 0.9760 0.9760 0.9760 0.9760 0.9760
668.818645 0.9760 0.9760 0.9760 0.9760 0.9760
673.220703 0.9760 0.9760 0.9760 0.9760 0.9760
677.622760 0.9760 0.9760 0.9760 0.9760 0.9760
682.024818 0.9760 0.9760 0.9750 0.9750 0.9750
686.426875 0.9750 0.9750 0.9750 0.9750 0.9750
690.828933 0.9750 0.9750 0.9750 0.9750 0.9750
695.230990 0.9750 0.9750 0.9750 0.9750 0.9750
699.633048 0.9730 0.9710 0.9710 0.9710 0.9710
704.035105 0.9710 0.9690 0.9690 0.9690 0.9680
708.437163 0.9670 0.9650 0.9640 0.9620 0.9610
712.839220 0.9580 0.9560 0.9530 0.9500 0.9470
717.241278 0.9450 0.9420 0.9390 0.9360 0.9310
721.643335 0.9280 0.9280 0.9280 0.9290 0.9290
726.045393 0.9310 0.9310 0.9320 0.9320 0.9320
730.447450 0.9340 0.9350 0.9360 0.9380 0.9390
734.849508 0.9400 0.9400 0.9400 0.9420 0.9420
739.251565 0.9420 0.9430 0.9430 0.9430 0.9450
743.653623 0.9450 0.9450 0.9460 0.9460 0.9460
748.055680 0.9470 0.9470 0.9470 0.9470 0.9470
752.457738 0.9470 0.9470 0.9460 0.9460 0.9460
756.859795 0.9450 0.9450 0.9450 0.9430 0.9430
761.261853 0.9420 0.9420 0.9390 0.9380 0.9350
765.663910 0.9350 0.9340 0.9320 0.9310 0.9290
770.065968 0.9280 0.9270 0.9250 0.9240 0.9230
774.468025 0.9200 0.9170 0.9140 0.9120 0.9070
778.870083 0.9020 0.8960 0.8910 0.8830 0.8770
783.272140 0.8730 0.8700 0.8550 0.8440 0.8310
787.674198 0.8180 0.8021 0.7811 0.7551 0.7232
792.076255 0.6850 0.6350 0.5930 0.5700 0.5460
796.478313 0.5430 0.5410 0.5380 0.5380 0.5390
800.880370 0.5420 0.5450 0.5520 0.5570 0.5650
805.282428 0.5760 0.5959 0.6259 0.6559 0.6878
809.684485 0.7190 0.7510 0.7809 0.8129 0.8419
814.086543 0.8689 0.8869 0.9019 0.9139 0.9239
818.488600 0.9310 0.9390 0.9450 0.9510 0.9570
822.890658 0.9610 0.9650 0.9680 0.9710 0.9760
827.292715 0.9790 0.9790 0.9800 0.9820 0.9820
831.694773 0.9830 0.9860 0.9870 0.9870 0.9870
836.096830 0.9890 0.9890 0.9900 0.9910 0.9930
840.498888 0.9930 0.9930 0.9930 0.9940 0.9940
844.900945 0.9940 0.9940 0.9950 0.9950 0.9950
849.303003 0.9950 0.9950 0.9950 0.9950 0.9950
853.705060 0.9950 0.9950 0.9950 0.9950 0.9970
858.107118 0.9970 0.9940 0.9950 0.9950 0.9970
862.509175 0.9970 0.9970 1.0010 1.0010 1.0010
866.911233 1.0020 1.0020 1.0020 1.0020 1.0020
871.313290 1.0020 1.0020 1.0020 1.0020 1.0010
875.715348 1.0010 1.0010 1.0010 1.0010 1.0000
880.117405 1.0000 0.9980 0.9980 0.9980 0.9980
884.519463 0.9970 0.9970 0.9970 0.9940 0.9940
888.921520 0.9930 0.9930 0.9930 0.9910 0.9910
893.323578 0.9910 0.9930 0.9930 0.9930 0.9940
897.725635 0.9940 0.9940 0.9930 0.9930 0.9930
902.127693 0.9930 0.9930 0.9930 0.9910 0.9900
906.529750 0.9890 0.9860 0.9820 0.9800 0.9790
910.931808 0.9790 0.9790 0.9790 0.9790 0.9800
915.333865 0.9800 0.9800 0.9820 0.9820 0.9830
919.735923 0.9830 0.9840 0.9840 0.9860 0.9860
924.137980 0.9860 0.9870 0.9870 0.9870 0.9890
928.540038 0.9890 0.9890 0.9890 0.9890 0.9890
932.942095 0.9890 0.9890 0.9890 0.9890 0.9890
937.344153 0.9900 0.9900 0.9900 0.9910 0.9910
941.746210 0.9910 0.9910 0.9900 0.9900 0.9900
946.148268 0.9900 0.9890 0.9890 0.9890 0.9890
950.550325 0.9890 0.9890 0.9910 0.9910 0.9910
954.952383 0.9910 0.9900 0.9900 0.9890 0.9900
959.354440 0.9890 0.9890 0.9890 0.9870 0.9860
963.756498 0.9860 0.9860 0.9840 0.9840 0.9840
968.158555 0.9840 0.9840 0.9840 0.9830 0.9830
972.560613 0.9830 0.9830 0.9820 0.9820 0.9820
976.962670 0.9820 0.9820 0.9830 0.9830 0.9840
981.364728 0.9840 0.9860 0.9860 0.9870 0.9870
985.766785 0.9890 0.9890 0.9900 0.9910 0.9910
990.168843 0.9910 0.9910 0.9900 0.9890 0.9870
994.570900 0.9870 0.9870 0.9870 0.9870 0.9870
998.972958 0.9870 0.9870 0.9890 0.9890 0.9890
1003.375015 0.9890 0.9890 0.9890 0.9890 0.9890
1007.777073 0.9890 0.9890 0.9890 0.9870 0.9860
1012.179130 0.9870 0.9860 0.9840 0.9840 0.9820
1016.581188 0.9820 0.9820 0.9820 0.9820 0.9820
1020.983245 0.9820 0.9820 0.9820 0.9820 0.9820
1025.385303 0.9820 0.9820 0.9820 0.9820 0.9820
1029.787360 0.9820 0.9820 0.9820 0.9820 0.9820
1034.189418 0.9820 0.9820 0.9820 0.9820 0.9820
1038.591475 0.9820 0.9820 0.9820 0.9820 0.9820
1042.993533 0.9820 0.9820 0.9820 0.9820 0.9820
1047.395590 0.9820 0.9820 0.9820 0.9820 0.9820
1051.797648 0.9800 0.9800 0.9800 0.9800 0.9800
1056.199705 0.9800 0.9800 0.9800 0.9800 0.9800
1060.601763 0.9800 0.9800 0.9800 0.9800 0.9800
1065.003820 0.9800 0.9800 0.9800 0.9800 0.9800
1069.405878 0.9800 0.9800 0.9800 0.9800 0.9800
1073.807935 0.9800 0.9800 0.9800 0.9800 0.9800
1078.209993 0.9820 0.9820 0.9820 0.9820 0.9830
1082.612050 0.9830 0.9830 0.9830 0.9840 0.9840
1087.014108 0.9840 0.9840 0.9860 0.9860 0.9860
1091.416165 0.9860 0.9860 0.9870 0.9870 0.9890
1095.818223 0.9900 0.9900 0.9900 0.9900 0.9900
1100.220280 0.9890 0.9900 0.9910 0.9900 0.9910
1104.622338 0.9930 0.9930 0.9940 0.9940 0.9940
1109.024395 0.9950 0.9950 0.9950 0.9970 0.9970
1113.426453 0.9970 0.9970 0.9970 0.9970 0.9970
1117.828510 0.9970 0.9970 0.9970 0.9970 0.9970
1122.230568 0.9950 0.9970 0.9970 0.9970 0.9970
1126.632625 0.9970 0.9970 0.9970 0.9970 0.9970
1131.034683 0.9970 0.9970 0.9970 0.9970 0.9970
1135.436740 0.9970 0.9970 0.9970 0.9970 0.9970
1139.838798 0.9970 0.9970 0.9970 0.9970 0.9970
1144.240855 0.9950 0.9940 0.9910 0.9890 0.9870
1148.642913 0.9840 0.9840 0.9830 0.9800 0.9800
1153.044970 0.9800 0.9790 0.9790 0.9780 0.9760
1157.447028 0.9760 0.9760 0.9760 0.9760 0.9760
1161.849085 0.9760 0.9760 0.9760 0.9760 0.9760
1166.251143 0.9760 0.9760 0.9750 0.9750 0.9730
1170.653200 0.9720 0.9720 0.9720 0.9720 0.9730
1175.055258 0.9750 0.9750 0.9760 0.9760 0.9780
1179.457315 0.9790 0.9790 0.9800 0.9800 0.9800
1183.859373 0.9790 0.9790 0.9760 0.9760 0.9760
1188.261430 0.9760 0.9750 0.9750 0.9730 0.9730
1192.663488 0.9720 0.9720 0.9710 0.9710 0.9690
1197.065545 0.9690 0.9670 0.9670 0.9670 0.9650
1201.467603 0.9650 0.9650 0.9640 0.9640 0.9620
1205.869660 0.9610 0.9610 0.9610 0.9610 0.9610
1210.271718 0.9610 0.9610 0.9610 0.9610 0.9610
1214.673775 0.9600 0.9600 0.9600 0.9580 0.9580
1219.075833 0.9570 0.9570 0.9570 0.9560 0.9540
1223.477890 0.9540 0.9540 0.9530 0.9530 0.9510
1227.879948 0.9500 0.9500 0.9490 0.9490 0.9470
1232.282005 0.9470 0.9460 0.9460 0.9450 0.9450
1236.684063 0.9430 0.9430 0.9420 0.9420 0.9400
1241.086120 0.9400 0.9390 0.9360 0.9350 0.9350
1245.488178 0.9350 0.9340 0.9340 0.9340 0.9320
1249.890235 0.9320 0.9310 0.9310 0.9250 0.9250
1254.292293 0.9240 0.9230 0.9200 0.9180 0.9140
1258.694350 0.9120 0.9120 0.9070 0.9030 0.8990
1263.096408 0.8960 0.8960 0.8940 0.8920 0.8910
1267.498465 0.8910 0.8900 0.8900 0.8870 0.8840
1271.900523 0.8790 0.8750 0.8720 0.8720 0.8720
1276.302580 0.8690 0.8650 0.8620 0.8570 0.8570
1280.704638 0.8540 0.8530 0.8500 0.8430 0.8370
1285.106695 0.8360 0.8320 0.8310 0.8250 0.8180
1289.508753 0.8140 0.8110 0.8020 0.7871 0.7800
1293.910810 0.7770 0.7650 0.7560 0.7450 0.7330
1298.312868 0.7220 0.7081 0.6901 0.6731 0.6551
1302.714925 0.6340 0.6120 0.5830 0.5750 0.5680
1307.116983 0.5610 0.5540 0.5351 0.5161 0.4832
1311.519040 0.4510 0.4430 0.4240 0.4100 0.4010
1315.921098 0.3980 0.3990 0.3990 0.4020 0.4090
1320.323155 0.4170 0.4280 0.4420 0.4580 0.4750
1324.725213 0.4939 0.5159 0.5628 0.5929 0.6109
1329.127270 0.6400 0.6640 0.6850 0.7030 0.7180
1333.529328 0.7290 0.7400 0.7470 0.7540 0.7590
1337.931385 0.7620 0.7650 0.7670 0.7690 0.7700
1342.333443 0.7710 0.7710 0.7730 0.7730 0.7740
1346.735500 0.7760 0.7760 0.7760 0.7760 0.7760
1351.137558 0.7760 0.7760 0.7760 0.7700 0.7630
1355.539615 0.7620 0.7600 0.7590 0.7590 0.7580
1359.941673 0.7580 0.7560 0.7550 0.7560 0.7560
1364.343730 0.7550 0.7560 0.7580 0.7580 0.7590
1368.745788 0.7620 0.7650 0.7670 0.7690 0.7730
1373.147845 0.7760 0.7770 0.7780 0.7840 0.7910
1377.549903 0.7950 0.7980 0.8040 0.8130 0.8150
1381.951960 0.8180 0.8200 0.8360 0.8420 0.8470
1386.354018 0.8530 0.8650 0.8660 0.8660 0.8660
1390.756075 0.8650 0.8650 0.8640 0.8620 0.8610
1395.158133 0.8590 0.8580 0.8550 0.8550 0.8540
1399.560190 0.8530 0.8510 0.8470 0.8430 0.8400
1403.962248 0.8360 0.8330 0.8310 0.8260 0.8220
1408.364305 0.8200 0.8150 0.8140 0.8110 0.7980
1412.766363 0.7950 0.7950 0.7930 0.7920 0.7910
1417.168420 0.7910 0.7890 0.7870 0.7820 0.7760
1421.570478 0.7700 0.7600 0.7540 0.7480 0.7480
1425.972535 0.7470 0.7450 0.7450 0.7470 0.7540
1430.374593 0.7540 0.7590 0.7660 0.7690 0.7730
1434.776650 0.7800 0.7810 0.7810 0.7820 0.7820
1439.178708 0.7820 0.7820 0.7820 0.7820 0.7820
1443.580765 0.7810 0.7770 0.7730 0.7670 0.7620
1447.982823 0.7580 0.7500 0.7400 0.7340 0.7320
1452.384880 0.7300 0.7280 0.7280 0.7280 0.7280
1456.786938 0.7280 0.7280 0.7260 0.7260 0.7260
1461.188995 0.7260 0.7260 0.7260 0.7260 0.7280
1465.591053 0.7290 0.7320 0.7370 0.7440 0.7549
1469.993110 0.7560 0.7590 0.7650 0.7700 0.7730
1474.395168 0.7740 0.7760 0.7770 0.7780 0.7770
1478.797225 0.7780 0.7820 0.7840 0.7910 0.7930
1483.199283 0.7960 0.8030 0.8040 0.8070 0.8090
1487.601340 0.8140 0.8200 0.8280 0.8290 0.8290
1492.003398 0.8310 0.8310 0.8320 0.8320 0.8320
1496.405455 0.8320 0.8320 0.8320 0.8320 0.8320
1500.807513 0.8310 0.8290 0.8260 0.8250 0.8240
1505.209570 0.8220 0.8210 0.8200 0.8180 0.8170
1509.611628 0.8150 0.8140 0.8130 0.8130 0.8110
1514.013685 0.8060 0.8040 0.8020 0.8000 0.7980
1518.415743 0.7950 0.7950 0.7930 0.7910 0.7880
1522.817800 0.7850 0.7820 0.7800 0.7770 0.7770
1527.219858 0.7760 0.7760 0.7700 0.7660 0.7660
1531.621915 0.7590 0.7560 0.7550 0.7540 0.7500
1536.023973 0.7450 0.7430 0.7410 0.7400 0.7390
1540.426030 0.7340 0.7290 0.7210 0.7150 0.7120
1544.828088 0.7080 0.7060 0.7030 0.7000 0.6960
1549.230145 0.6920 0.6900 0.6880 0.6790 0.6730
1553.632203 0.6680 0.6620 0.6590 0.6530 0.6460
1558.034260 0.6440 0.6400 0.6340 0.6270 0.6200
1562.436318 0.6150 0.6080 0.6030 0.5980 0.5900
1566.838375 0.5860 0.5790 0.5710 0.5630 0.5530
1571.240433 0.5490 0.5450 0.5350 0.5270 0.5190
1575.642490 0.5100 0.5050 0.5000 0.4900 0.4840
1580.044548 0.4790 0.4680 0.4570 0.4460 0.4360
1584.446605 0.4280 0.4200 0.4100 0.4020 0.3940
1588.848663 0.3830 0.3690 0.3541 0.3401 0.3261
1593.250720 0.3140 0.3030 0.2920 0.2810 0.2730
1597.652778 0.2660 0.2600 0.2550 0.2470 0.2390
1602.054835 0.2300 0.2220 0.2140 0.2060 0.1970
1606.456893 0.1890 0.1810 0.1730 0.1640 0.1560
1610.858950 0.1480 0.1400 0.1310 0.1230 0.1150
1615.261008 0.1070 0.1050 0.1030 0.0980 0.0960
1619.663065 0.0930 0.0890 0.0860 0.0810 0.0780
1624.065123 0.0760 0.0750 0.0740 0.0720 0.0710
1628.467180 0.0700 0.0670 0.0670 0.0650 0.0640
1632.869238 0.0640 0.0630 0.0630 0.0630 0.0630
1637.271295 0.0630 0.0630 0.0630 0.0630 0.0640
1641.673353 0.0650 0.0670 0.0680 0.0680 0.0700
1646.075410 0.0720 0.0750 0.0780 0.0820 0.0830
1650.477468 0.0870 0.0900 0.0940 0.1010 0.1040
1654.879525 0.1080 0.1080 0.1110 0.1160 0.1220
1659.281583 0.1250 0.1300 0.1340 0.1460 0.1510
1663.683640 0.1530 0.1550 0.1600 0.1680 0.1740
1668.085698 0.1790 0.1860 0.1930 0.2000 0.2080
1672.487755 0.2150 0.2230 0.2330 0.2410 0.2500
1676.889813 0.2590 0.2690 0.2780 0.2880 0.2980
1681.291870 0.3070 0.3170 0.3260 0.3360 0.3460
1685.693928 0.3540 0.3640 0.3730 0.3810 0.3900
1690.095985 0.3980 0.4050 0.4130 0.4200 0.4250
1694.498043 0.4320 0.4360 0.4450 0.4460 0.4540
1698.900100 0.4560 0.4620 0.4650 0.4720 0.4790
1703.302158 0.4820 0.4860 0.4890 0.4980 0.5020
1707.704215 0.5120 0.5200 0.5240 0.5300 0.5380
1712.106273 0.5530 0.5590 0.5640 0.5700 0.5750
1716.508330 0.5820 0.5890 0.5960 0.6030 0.6120
1720.910388 0.6220 0.6310 0.6420 0.6520 0.6560
1725.312445 0.6620 0.6740 0.6820 0.6890 0.6930
1729.714503 0.7030 0.7040 0.7100 0.7220 0.7250
1734.116560 0.7260 0.7300 0.7330 0.7390 0.7410
1738.518618 0.7430 0.7470 0.7480 0.7500 0.7510
1742.920675 0.7550 0.7560 0.7560 0.7560 0.7560
1747.322733 0.7560 0.7560 0.7510 0.7520 0.7540
1751.724790 0.7590 0.7630 0.7710 0.7780 0.7850
1756.126848 0.7960 0.8020 0.8110 0.8140 0.8210
1760.528905 0.8260 0.8310 0.8350 0.8400 0.8430
1764.930963 0.8460 0.8500 0.8510 0.8530 0.8540
1769.333020 0.8570 0.8580 0.8590 0.8620 0.8650
1773.735078 0.8680 0.8690 0.8700 0.8700 0.8720
1778.137135 0.8720 0.8750 0.8750 0.8760 0.8790
1782.539193 0.8810 0.8830 0.8840 0.8840 0.8870
1786.941250 0.8880 0.8900 0.8910 0.8910 0.8920
1791.343308 0.8940 0.8940 0.8950 0.8960 0.9010
1795.745365 0.9010 0.9020 0.9030 0.9050 0.9060
1800.147423 0.9070 0.9090 0.9120 0.9120 0.9130
1804.549480 0.9130 0.9130 0.9130 0.9140 0.9160
1808.951538 0.9140 0.9160 0.9180 0.9210 0.9230
1813.353595 0.9240 0.9240 0.9250 0.9250 0.9250
1817.755653 0.9270 0.9280 0.9280 0.9280 0.9290
1822.157710 0.9290 0.9310 0.9310 0.9320 0.9320
1826.559768 0.9340 0.9340 0.9350 0.9350 0.9360
1830.961825 0.9360 0.9380 0.9380 0.9390 0.9390
1835.363883 0.9400 0.9400 0.9400 0.9420 0.9420
1839.765940 0.9420 0.9420 0.9430 0.9450 0.9450
1844.167998 0.9450 0.9450 0.9450 0.9460 0.9460
1848.570055 0.9460 0.9470 0.9470 0.9490 0.9490
1852.972113 0.9500 0.9490 0.9500 0.9500 0.9510
1857.374170 0.9510 0.9510 0.9530 0.9530 0.9540
1861.776228 0.9560 0.9560 0.9560 0.9570 0.9570
1866.178285 0.9570 0.9570 0.9570 0.9580 0.9580
1870.580343 0.9580 0.9580 0.9580 0.9580 0.9600
1874.982400 0.9600 0.9600 0.9600 0.9600 0.9600
1879.384458 0.9610 0.9610 0.9610 0.9610 0.9610
1883.786515 0.9610 0.9620 0.9610 0.9610 0.9610
1888.188573 0.9610 0.9620 0.9610 0.9610 0.9610
1892.590630 0.9610 0.9610 0.9610 0.9610 0.9610
1896.992688 0.9610 0.9610 0.9610 0.9610 0.9610
1901.394745 0.9610 0.9610 0.9610 0.9610 0.9610
1905.796803 0.9620 0.9610 0.9610 0.9610 0.9610
1910.198860 0.9620 0.9620 0.9640 0.9650 0.9650
1914.600918 0.9670 0.9670 0.9670 0.9680 0.9680
1919.002975 0.9680 0.9690 0.9680 0.9710 0.9710
1923.405033 0.9720 0.9720 0.9720 0.9730 0.9730
1927.807090 0.9720 0.9730 0.9730 0.9760 0.9780
1932.209148 0.9780 0.9780 0.9760 0.9780 0.9780
1936.611205 0.9790 0.9790 0.9790 0.9790 0.9800
1941.013263 0.9820 0.9820 0.9820 0.9820 0.9820
1945.415320 0.9830 0.9830 0.9830 0.9840 0.9840
1949.817378 0.9860 0.9860 0.9860 0.9890 0.9890
1954.219435 0.9890 0.9890 0.9870 0.9870 0.9860
1958.621493 0.9860 0.9860 0.9860 0.9870 0.9930
1963.023550 0.9980 0.9970 0.9950 0.9950 0.9930
1967.425608 0.9900 0.9900 0.9900 0.9900 0.9900
1971.827665 0.9900 0.9900 0.9900 0.9900 0.9900
1976.229723 0.9900 0.9900 0.9900 0.9900 0.9900
1980.631780 0.9890 0.9890 0.9890 0.9890 0.9890
1985.033838 0.9890 0.9890 0.9890 0.9890 0.9890
1989.435895 0.9890 0.9890 0.9890 0.9890 0.9890
1993.837953 0.9890 0.9890 0.9890 0.9890 0.9890
1998.240010 0.9890 0.9890 0.9890 0.9890 0.9890
2002.642068 0.9890 0.9890 0.9895 0.9900 0.9900
2007.044125 0.9900 0.9900 0.9900 0.9900 0.9900
2011.446183 0.9900 0.9900 0.9900 0.9900 0.9905
2015.848240 0.9910 0.9910 0.9910 0.9910 0.9910
2020.250298 0.9910 0.9910 0.9910 0.9910 0.9910
2024.652355 0.9910 0.9910 0.9910 0.9905 0.9900
2029.054413 0.9900 0.9900 0.9900 0.9900 0.9900
2033.456470 0.9900 0.9900 0.9900 0.9900 0.9900
2037.858528 0.9900 0.9899 0.9894 0.9890 0.9890
2042.260585 0.9890 0.9890 0.9890 0.9890 0.9890
2046.662643 0.9890 0.9889 0.9879 0.9870 0.9870
2051.064700 0.9870 0.9870 0.9869 0.9864 0.9860
2055.466758 0.9860 0.9860 0.9860 0.9858 0.9848
2059.868815 0.9840 0.9840 0.9840 0.9840 0.9839
2064.270873 0.9834 0.9830 0.9830 0.9830 0.9830
2068.672930 0.9829 0.9824 0.9820 0.9820 0.9818
2073.074988 0.9808 0.9800 0.9800 0.9800 0.9800
2077.477045 0.9799 0.9794 0.9790 0.9790 0.9790
2081.879103 0.9790 0.9789 0.9784 0.9780 0.9780
2086.281160 0.9780 0.9780 0.9778 0.9768 0.9759
2090.683218 0.9754 0.9750 0.9750 0.9750 0.9750
2095.085275 0.9750 0.9750 0.9750 0.9750 0.9750
2099.487333 0.9750 0.9750 0.9750 0.9750 0.9750
2103.889390 0.9747 0.9737 0.9730 0.9730 0.9730
2108.291448 0.9730 0.9730 0.9730 0.9730 0.9730
2112.693505 0.9728 0.9723 0.9720 0.9720 0.9720
2117.095563 0.9720 0.9718 0.9713 0.9710 0.9710
2121.497620 0.9707 0.9697 0.9690 0.9690 0.9690
2125.899678 0.9690 0.9688 0.9683 0.9680 0.9680
2130.301735 0.9678 0.9673 0.9670 0.9670 0.9670
2134.703793 0.9670 0.9666 0.9656 0.9650 0.9650
2139.105850 0.9648 0.9643 0.9636 0.9626 0.9620
2143.507908 0.9620 0.9620 0.9620 0.9618 0.9613
2147.909965 0.9610 0.9610 0.9610 0.9610 0.9608
2152.312023 0.9603 0.9600 0.9600 0.9600 0.9600
2156.714080 0.9596 0.9586 0.9580 0.9580 0.9580
2161.116138 0.9580 0.9578 0.9573 0.9570 0.9570
2165.518195 0.9568 0.9563 0.9560 0.9560 0.9560
2169.920253 0.9560 0.9555 0.9545 0.9540 0.9540
2174.322310 0.9538 0.9533 0.9530 0.9530 0.9530
2178.724368 0.9530 0.9525 0.9515 0.9510 0.9510
2183.126425 0.9508 0.9503 0.9500 0.9500 0.9497
2187.528483 0.9492 0.9490 0.9490 0.9490 0.9490
2191.930540 0.9485 0.9475 0.9470 0.9470 0.9467
2196.332598 0.9462 0.9457 0.9452 0.9450 0.9450
2200.734655 0.9445 0.9435 0.9430 0.9430 0.9427
2205.136713 0.9422 0.9420 0.9420 0.9414 0.9404
2209.538770 0.9400 0.9400 0.9397 0.9392 0.9390
2213.940828 0.9390 0.9387 0.9382 0.9380 0.9380
2218.342885 0.9371 0.9356 0.9350 0.9350 0.9347
2222.744943 0.9342 0.9334 0.9324 0.9320 0.9320
2227.147000 0.9317 0.9312 0.9304 0.9294 0.9290
2231.549058 0.9290 0.9287 0.9282 0.9277 0.9272
2235.951115 0.9264 0.9254 0.9250 0.9250 0.9247
2240.353173 0.9242 0.9237 0.9232 0.9230 0.9230
2244.755230 0.9223 0.9213 0.9200 0.9185 0.9180
2249.157288 0.9180 0.9177 0.9172 0.9170 0.9170
2253.559345 0.9167 0.9162 0.9153 0.9143 0.9137
2257.961403 0.9132 0.9127 0.9122 0.9120 0.9120
2262.363460 0.9109 0.9094 0.9079 0.9064 0.9056
2266.765518 0.9051 0.9050 0.9050 0.9043 0.9033
2271.167575 0.9030 0.9030 0.9030 0.9030 0.9030
2275.569633 0.9030 0.9026 0.9021 0.9020 0.9020
2279.971690 0.9020 0.9020 0.9016 0.9011 0.9010
2284.373748 0.9010 0.9010 0.9010 0.9010 0.9010
2288.775805 0.9010 0.9010 0.9010 0.9010 0.9010
2293.177863 0.9010 0.9002 0.8992 0.8990 0.8990
2297.579920 0.8990 0.8990 0.8990 0.8990 0.8990
2301.981978 0.8990 0.8990 0.8990 0.8990 0.8990
2306.384035 0.8986 0.8981 0.8980 0.8980 0.8980
2310.786093 0.8980 0.8980 0.8980 0.8980 0.8980
2315.188150 0.8971 0.8961 0.8960 0.8960 0.8969
2319.590208 0.8979 0.8980 0.8980 0.8984 0.8989
2323.992265 0.8999 0.9009 0.9010 0.9010 0.9014
2328.394323 0.9019 0.9020 0.9020 0.9024 0.9029
2332.796380 0.9030 0.9030 0.9030 0.9030 0.9030
2337.198438 0.9030 0.9039 0.9049 0.9050 0.9050
2341.600495 0.9050 0.9050 0.9050 0.9050 0.9055
2346.002553 0.9060 0.9060 0.9060 0.9060 0.9060
2350.404610 0.9060 0.9060 0.9060 0.9060 0.9065
2354.806668 0.9070 0.9085 0.9100 0.9100 0.9100
2359.208725 0.9100 0.9100 0.9100 0.9100 0.9100
2363.610783 0.9100 0.9100 0.9100 0.9100 0.9100
2368.012840 0.9100 0.9100 0.9100 0.9100 0.9100
2372.414898 0.9100 0.9100 0.9100 0.9100 0.9100
2376.816955 0.9100 0.9100 0.9110 0.9120 0.9120
2381.219013 0.9120 0.9120 0.9120 0.9120 0.9120
2385.621070 0.9120 0.9120 0.9120 0.9120 0.9120
2390.023128 0.9120 0.9120 0.9120 0.9125 0.9130
2394.425185 0.9130 0.9130 0.9130 0.9130 0.9130
2398.827243 0.9130 0.9130 0.9130 0.9130 0.9130
2403.229300 0.9130 0.9130 0.9130 0.9130 0.9130
2407.631358 0.9130 0.9130 0.9130 0.9130 0.9130
2412.033415 0.9130 0.9130 0.9130 0.9130 0.9130
2416.435473 0.9130 0.9130 0.9130 0.9130 0.9130
2420.837530 0.9130 0.9130 0.9130 0.9130 0.9130
2425.239588 0.9130 0.9130 0.9130 0.9130 0.9130
2429.641645 0.9130 0.9130 0.9130 0.9130 0.9130
2434.043703 0.9130 0.9130 0.9130 0.9130 0.9130
2438.445760 0.9130 0.9130 0.9130 0.9130 0.9130
2442.847818 0.9130 0.9130 0.9130 0.9130 0.9129
2447.249875 0.9124 0.9121 0.9126 0.9130 0.9130
2451.651933 0.9130 0.9130 0.9130 0.9130 0.9130
2456.053990 0.9130 0.9130 0.9130 0.9130 0.9130
2460.456048 0.9130 0.9130 0.9130 0.9130 0.9130
2464.858105 0.9130 0.9129 0.9124 0.9120 0.9120
2469.260163 0.9120 0.9120 0.9120 0.9120 0.9120
2473.662220 0.9120 0.9120 0.9120 0.9120 0.9120
2478.064278 0.9120 0.9120 0.9120 0.9120 0.9120
2482.466335 0.9120 0.9120 0.9120 0.9117 0.9107
2486.868393 0.9100 0.9100 0.9100 0.9100 0.9100
2491.270450 0.9100 0.9100 0.9100 0.9100 0.9100
2495.672508 0.9100 0.9100 0.9100 0.9100 0.9100
2500.074565 0.9100 0.9100 0.9100 0.9098 0.9093
2504.476623 0.9090 0.9090 0.9092 0.9097 0.9100
2508.878680 0.9100 0.9100 0.9100 0.9100 0.9100
2513.280738 0.9100 0.9100 0.9100 0.9100 0.9100
2517.682795 0.9100 0.9100 0.9100 0.9100 0.9100
2522.084853 0.9100 0.9100 0.9100 0.9100 0.9100
2526.486910 0.9100 0.9100 0.9100 0.9098 0.9093
2530.888968 0.9090 0.9090 0.9090 0.9090 0.9090
2535.291025 0.9090 0.9090 0.9090 0.9090 0.9090
2539.693083 0.9085 0.9075 0.9075 0.9085 0.9090
2544.095140 0.9090 0.9085 0.9075 0.9070 0.9070
2548.497198 0.9070 0.9070 0.9070 0.9070 0.9070
2552.899255 0.9070 0.9070 0.9070 0.9070 0.9070
2557.301313 0.9070 0.9070 0.9070 0.9070 0.9070
2561.703370 0.9070 0.9067 0.9062 0.9057 0.9052
2566.105428 0.9050 0.9050 0.9045 0.9034 0.9036
2570.507485 0.9046 0.9050 0.9050 0.9042 0.9027
2574.909543 0.9023 0.9028 0.9027 0.9022 0.9020
2579.311600 0.9020 0.9017 0.9012 0.9010 0.9010
2583.713658 0.9004 0.8994 0.8990 0.8990 0.8990
2588.115715 0.8990 0.8987 0.8982 0.8980 0.8980
2592.517773 0.8980 0.8980 0.8980 0.8980 0.8980
2596.919830 0.8980 0.8980 0.8980 0.8974 0.8964
2601.321888 0.8960 0.8960 0.8960 0.8960 0.8960
2605.723945 0.8960 0.8957 0.8952 0.8950 0.8950
2610.126003 0.8950 0.8950 0.8947 0.8942 0.8933
2614.528060 0.8923 0.8920 0.8920 0.8920 0.8920
2618.930118 0.8920 0.8920 0.8920 0.8920 0.8920
2623.332175 0.8920 0.8920 0.8920 0.8920 0.8920
2627.734233 0.8920 0.8920 0.8920 0.8920 0.8916
2632.136290 0.8911 0.8910 0.8910 0.8910 0.8910
2636.538348 0.8906 0.8901 0.8900 0.8900 0.8900
2640.940405 0.8900 0.8893 0.8882 0.8880 0.8880
2645.342463 0.8880 0.8880 0.8876 0.8871 0.8870
2649.744520 0.8870 0.8870 0.8870 0.8862 0.8852
2654.146578 0.8850 0.8850 0.8846 0.8841 0.8840
2658.548635 0.8840 0.8840 0.8840 0.8840 0.8840
2662.950693 0.8836 0.8831 0.8830 0.8830 0.8830
2667.352750 0.8830 0.8822 0.8812 0.8810 0.8810
2671.754808 0.8810 0.8810 0.8806 0.8801 0.8800
2676.156865 0.8800 0.8800 0.8800 0.8796 0.8791
2680.558923 0.8781 0.8771 0.8770 0.8770 0.8770
2684.960980 0.8770 0.8770 0.8770 0.8766 0.8761
2689.363038 0.8760 0.8760 0.8760 0.8760 0.8756
2693.765095 0.8751 0.8750 0.8750 0.8750 0.8750
2698.167153 0.8741 0.8731 0.8730 0.8730 0.8730
2702.569210 0.8730 0.8725 0.8720 0.8720 0.8720
2706.971268 0.8720 0.8720 0.8711 0.8701 0.8695
2711.373325 0.8690 0.8690 0.8690 0.8690 0.8690
2715.775383 0.8685 0.8680 0.8680 0.8680 0.8680
2720.177440 0.8680 0.8670 0.8660 0.8660 0.8660
2724.579498 0.8660 0.8660 0.8655 0.8650 0.8645
2728.981555 0.8640 0.8640 0.8640 0.8630 0.8620
2733.383613 0.8620 0.8620 0.8615 0.8610 0.8610
2737.785670 0.8610 0.8600 0.8590 0.8590 0.8590
2742.187728 0.8585 0.8580 0.8580 0.8580 0.8575
2746.589785 0.8570 0.8570 0.8570 0.8560 0.8550
2750.991843 0.8550 0.8550 0.8540 0.8530 0.8530
2755.393900 0.8529 0.8519 0.8510 0.8510 0.8510
2759.795958 0.8505 0.8500 0.8500 0.8499 0.8489
2764.198015 0.8480 0.8475 0.8470 0.8470 0.8470
2768.600073 0.8465 0.8460 0.8460 0.8459 0.8443
2773.002130 0.8430 0.8430 0.8429 0.8424 0.8419
2777.404188 0.8409 0.8400 0.8400 0.8399 0.8394
2781.806245 0.8389 0.8379 0.8369 0.8364 0.8360
2786.208303 0.8360 0.8359 0.8354 0.8348 0.8333
2790.610360 0.8320 0.8320 0.8319 0.8314 0.8310
2795.012418 0.8310 0.8308 0.8298 0.8289 0.8284
2799.414475 0.8280 0.8280 0.8278 0.8268 0.8258
2803.816533 0.8248 0.8240 0.8240 0.8238 0.8228
2808.218590 0.8219 0.8214 0.8210 0.8210 0.8209
2812.620648 0.8204 0.8198 0.8188 0.8180 0.8180
2817.022705 0.8179 0.8174 0.8168 0.8158 0.8149
2821.424763 0.8144 0.8136 0.8121 0.8108 0.8097
2825.826820 0.8086 0.8071 0.8057 0.8047 0.8039
2830.228878 0.8034 0.8029 0.8024 0.8016 0.8001
2834.630935 0.7986 0.7971 0.7960 0.7960 0.7959
2839.032993 0.7954 0.7946 0.7931 0.7914 0.7894
2843.435050 0.7878 0.7873 0.7870 0.7870 0.7867
2847.837108 0.7857 0.7848 0.7843 0.7837 0.7827
2852.239165 0.7812 0.7787 0.7763 0.7743 0.7725
2856.641223 0.7710 0.7695 0.7680 0.7668 0.7663
2861.043280 0.7658 0.7653 0.7646 0.7636 0.7625
2865.445338 0.7610 0.7596 0.7586 0.7580 0.7580
2869.847395 0.7580 0.7580 0.7574 0.7559 0.7550
2874.249453 0.7550 0.7550 0.7550 0.7550 0.7550
2878.651510 0.7552 0.7557 0.7566 0.7581 0.7598
2883.053568 0.7618 0.7636 0.7651 0.7666 0.7681
2887.455625 0.7694 0.7704 0.7721 0.7746 0.7760
2891.857683 0.7760 0.7760 0.7760 0.7760 0.7760
2896.259740 0.7760 0.7760 0.7760 0.7760 0.7760
2900.661798 0.7760 0.7755 0.7745 0.7740 0.7740
2905.063855 0.7740 0.7740 0.7740 0.7740 0.7738
2909.465913 0.7733 0.7730 0.7730 0.7720 0.7700
2913.867970 0.7685 0.7675 0.7667 0.7662 0.7657
2918.270028 0.7652 0.7650 0.7650 0.7642 0.7627
2922.672085 0.7612 0.7597 0.7587 0.7582 0.7572
2927.074143 0.7557 0.7547 0.7542 0.7535 0.7525
2931.476200 0.7509 0.7489 0.7480 0.7480 0.7480
2935.878258 0.7480 0.7477 0.7472 0.7464 0.7454
2940.280315 0.7444 0.7434 0.7430 0.7430 0.7424
2944.682373 0.7414 0.7410 0.7410 0.7407 0.7402
2949.084430 0.7400 0.7400 0.7397 0.7392 0.7390
2953.486488 0.7390 0.7381 0.7366 0.7351 0.7336
2957.888545 0.7330 0.7330 0.7327 0.7322 0.7308
2962.290603 0.7288 0.7280 0.7280 0.7274 0.7264
2966.692660 0.7257 0.7252 0.7243 0.7233 0.7217
2971.094718 0.7197 0.7190 0.7190 0.7187 0.7182
2975.496775 0.7177 0.7172 0.7163 0.7153 0.7147
2979.898833 0.7142 0.7133 0.7123 0.7117 0.7112
2984.300890 0.7107 0.7102 0.7093 0.7083 0.7076
2988.702948 0.7071 0.7066 0.7061 0.7053 0.7043
2993.105005 0.7036 0.7031 0.7023 0.7013 0.7006
2997.507063 0.7001 0.6996 0.6991 0.6983 0.6973
3001.909120 0.6966 0.6961 0.6956 0.6951 0.6943
3006.311178 0.6932 0.6926 0.6921 0.6912 0.6902
3010.713235 0.6896 0.6891 0.6886 0.6881 0.6872
3015.115293 0.6862 0.6856 0.6851 0.6846 0.6841
3019.517350 0.6832 0.6822 0.6816 0.6811 0.6802
3023.919408 0.6792 0.6790 0.6790 0.6786 0.6781
3028.321465 0.6776 0.6771 0.6762 0.6752 0.6746
3032.723523 0.6741 0.6736 0.6731 0.6722 0.6712
3037.125580 0.6706 0.6701 0.6692 0.6682 0.6676
3041.527638 0.6671 0.6666 0.6661 0.6651 0.6641
3045.929695 0.6636 0.6631 0.6630 0.6630 0.6626
3050.331753 0.6621 0.6620 0.6620 0.6611 0.6601
3054.733810 0.6600 0.6600 0.6600 0.6600 0.6600
3059.135868 0.6600 0.6596 0.6590 0.6581 0.6571
3063.537925 0.6579 0.6589 0.6590 0.6590 0.6590
3067.939983 0.6590 0.6590 0.6590 0.6590 0.6590
3072.342040 0.6590 0.6590 0.6590 0.6590 0.6590
3076.744098 0.6590 0.6595 0.6600 0.6600 0.6600
3081.146155 0.6600 0.6600 0.6610 0.6620 0.6620
3085.548213 0.6620 0.6625 0.6630 0.6630 0.6630
3089.950270 0.6635 0.6640 0.6640 0.6640 0.6650
3094.352328 0.6660 0.6660 0.6660 0.6660 0.6660
3098.754385 0.6665 0.6670 0.6675 0.6680 0.6690
3103.156443 0.6700 0.6705 0.6710 0.6720 0.6730
3107.558500 0.6735 0.6740 0.6745 0.6750 0.6760
3111.960558 0.6770 0.6775 0.6780 0.6785 0.6790
3116.362615 0.6800 0.6810 0.6815 0.6820 0.6820
3120.764673 0.6820 0.6820 0.6820 0.6820 0.6820
3125.166730 0.6820 0.6820 0.6820 0.6820 0.6820
3129.568788 0.6820 0.6820 0.6820 0.6815 0.6810
3133.970845 0.6810 0.6810 0.6810 0.6809 0.6799
3138.372903 0.6789 0.6784 0.6780 0.6780 0.6779
3142.774960 0.6774 0.6769 0.6759 0.6750 0.6750
3147.177018 0.6749 0.6744 0.6739 0.6734 0.6729
3151.579075 0.6719 0.6708 0.6693 0.6679 0.6669
3155.981133 0.6658 0.6648 0.6639 0.6634 0.6626
3160.383190 0.6606 0.6585 0.6555 0.6530 0.6530
3164.785248 0.6529 0.6524 0.6517 0.6502 0.6489
3169.187305 0.6484 0.6477 0.6462 0.6449 0.6444
3173.589363 0.6437 0.6422 0.6409 0.6404 0.6397
3177.991420 0.6382 0.6368 0.6358 0.6348 0.6338
3182.393478 0.6326 0.6311 0.6296 0.6281 0.6270
3186.795535 0.6270 0.6269 0.6264 0.6259 0.6254
3191.197593 0.6250 0.6250 0.6247 0.6237 0.6226
3195.599650 0.6211 0.6200 0.6200 0.6200 0.6200
3200.001708 0.6200 0.6200 0.6200 0.6200 0.6203
3204.403765 0.6213 0.6220 0.6220 0.6221 0.6226
3208.805823 0.6234 0.6249 0.6262 0.6267 0.6275
3213.207880 0.6290 0.6302 0.6307 0.6315 0.6330
3217.609938 0.6342 0.6347 0.6358 0.6383 0.6410
3222.011995 0.6440 0.6468 0.6493 0.6520 0.6550
3226.414053 0.6573 0.6583 0.6595 0.6610 0.6624
3230.816110 0.6634 0.6647 0.6667 0.6689 0.6714
3235.218168 0.6734 0.6744 0.6756 0.6771 0.6782
3239.620225 0.6787 0.6796 0.6811 0.6828 0.6848
3244.022283 0.6866 0.6881 0.6892 0.6897 0.6906
3248.424340 0.6921 0.6943 0.6973 0.6992 0.6997
3252.826398 0.7002 0.7007 0.7016 0.7031 0.7044
3257.228455 0.7054 0.7064 0.7074 0.7084 0.7094
3261.630513 0.7104 0.7114 0.7127 0.7142 0.7150
3266.032570 0.7150 0.7150 0.7150 0.7155 0.7165
3270.434628 0.7170 0.7170 0.7170 0.7170 0.7172
3274.836685 0.7177 0.7180 0.7180 0.7180 0.7180
3279.238743 0.7180 0.7180 0.7180 0.7180 0.7180
3283.640800 0.7180 0.7180 0.7180 0.7180 0.7180
3288.042858 0.7180 0.7180 0.7180 0.7180 0.7180
3292.444915 0.7180 0.7180 0.7180 0.7180 0.7180
3296.846973 0.7180 0.7180 0.7177 0.7172 0.7170
3301.249030 0.7170 0.7164 0.7154 0.7147 0.7142
3305.651088 0.7140 0.7140 0.7134 0.7124 0.7120
3310.053145 0.7120 0.7117 0.7112 0.7110 0.7110
3314.455203 0.7107 0.7102 0.7100 0.7100 0.7088
3318.857260 0.7068 0.7054 0.7044 0.7040 0.7040
3323.259318 0.7037 0.7032 0.7024 0.7014 0.7007
3327.661375 0.7002 0.7000 0.7000 0.6991 0.6976
3332.063433 0.6970 0.6970 0.6967 0.6962 0.6960
3336.465490 0.6960 0.6957 0.6952 0.6950 0.6950
3340.867548 0.6940 0.6925 0.6920 0.6920 0.6913
3345.269605 0.6903 0.6900 0.6900 0.6897 0.6892
3349.671663 0.6887 0.6882 0.6880 0.6880 0.6873
3354.073720 0.6863 0.6856 0.6851 0.6850 0.6850
3358.475778 0.6846 0.6841 0.6833 0.6823 0.6820
3362.877835 0.6820 0.6816 0.6811 0.6803 0.6793
3367.279893 0.6790 0.6790 0.6783 0.6772 0.6770
3371.681950 0.6770 0.6762 0.6752 0.6750 0.6750
3376.084008 0.6746 0.6741 0.6740 0.6740 0.6736
3380.486065 0.6731 0.6730 0.6730 0.6722 0.6712
3384.888123 0.6706 0.6701 0.6700 0.6700 0.6692
3389.290180 0.6682 0.6680 0.6680 0.6672 0.6662
3393.692238 0.6660 0.6660 0.6652 0.6642 0.6640
3398.094295 0.6640 0.6640 0.6640 0.6636 0.6631
3402.496353 0.6630 0.6630 0.6626 0.6621 0.6620
3406.898410 0.6620 0.6611 0.6601 0.6596 0.6591
3411.300468 0.6590 0.6590 0.6581 0.6571 0.6566
3415.702525 0.6561 0.6556 0.6551 0.6541 0.6531
3420.104583 0.6526 0.6521 0.6516 0.6511 0.6501
3424.506640 0.6491 0.6485 0.6480 0.6466 0.6451
3428.908698 0.6450 0.6450 0.6450 0.6450 0.6445
3433.310755 0.6440 0.6440 0.6440 0.6431 0.6421
3437.712813 0.6415 0.6410 0.6410 0.6410 0.6410
3442.114870 0.6410 0.6410 0.6410 0.6410 0.6410
3446.516928 0.6415 0.6420 0.6430 0.6440 0.6445
3450.918985 0.6450 0.6455 0.6460 0.6470 0.6480
3455.321043 0.6480 0.6480 0.6495 0.6510 0.6515
3459.723100 0.6520 0.6525 0.6530 0.6540 0.6550
3464.125158 0.6555 0.6560 0.6565 0.6570 0.6580
3468.527215 0.6590 0.6595 0.6600 0.6600 0.6600
3472.929273 0.6620 0.6640 0.6650 0.6660 0.6665
3477.331330 0.6670 0.6675 0.6681 0.6696 0.6711
3481.733388 0.6731 0.6751 0.6761 0.6771 0.6781
3486.135445 0.6791 0.6801 0.6810 0.6810 0.6812
3490.537503 0.6847 0.6882 0.6907 0.6930 0.6930
3494.939560 0.6931 0.6941 0.6951 0.6961 0.6971
3499.341618 0.6987 0.7002 0.7022 0.7042 0.7062
3503.743675 0.7082 0.7102 0.7123 0.7148 0.7171
3508.145733 0.7181 0.7191 0.7201 0.7215 0.7250
3512.547790 0.7284 0.7314 0.7342 0.7357 0.7372
3516.949848 0.7387 0.7402 0.7417 0.7431 0.7436
3521.351905 0.7443 0.7463 0.7483 0.7503 0.7523
3525.753963 0.7543 0.7562 0.7572 0.7582 0.7592
3530.156020 0.7603 0.7618 0.7634 0.7654 0.7674
3534.558078 0.7694 0.7713 0.7728 0.7742 0.7752
3538.960135 0.7761 0.7766 0.7774 0.7794 0.7816
3543.362193 0.7846 0.7874 0.7895 0.7912 0.7922
3547.764250 0.7932 0.7942 0.7951 0.7956 0.7962
3552.166308 0.7972 0.7981 0.7986 0.7991 0.7996
3556.568365 0.8004 0.8019 0.8034 0.8049 0.8064
3560.970423 0.8079 0.8090 0.8090 0.8091 0.8096
3565.372480 0.8104 0.8119 0.8131 0.8136 0.8140
3569.774538 0.8140 0.8141 0.8146 0.8157 0.8182
3574.176595 0.8203 0.8213 0.8225 0.8240 0.8255
3578.578653 0.8270 0.8288 0.8313 0.8337 0.8357
3582.980710 0.8378 0.8403 0.8420 0.8420 0.8429
3587.382768 0.8454 0.8472 0.8477 0.8496 0.8541
3591.784825 0.8579 0.8604 0.8631 0.8661 0.8682
3596.186883 0.8687 0.8695 0.8711 0.8720 0.8720
3600.588940 0.8728 0.8748 0.8766 0.8781 0.8794
3604.990998 0.8804 0.8816 0.8831 0.8846 0.8861
3609.393055 0.8876 0.8891 0.8904 0.8914 0.8924
3613.795113 0.8934 0.8944 0.8954 0.8964 0.8974
3618.197170 0.8982 0.8987 0.8990 0.8990 0.8999
3622.599228 0.9019 0.9034 0.9044 0.9052 0.9057
3627.001285 0.9062 0.9067 0.9070 0.9070 0.9075
3631.403343 0.9085 0.9092 0.9097 0.9105 0.9115
3635.805400 0.9122 0.9127 0.9130 0.9130 0.9128
3640.207458 0.9123 0.9125 0.9135 0.9145 0.9155
3644.609515 0.9162 0.9167 0.9170 0.9170 0.9173
3649.011573 0.9178 0.9180 0.9180 0.9180 0.9180
3653.413630 0.9180 0.9180 0.9180 0.9180 0.9180
3657.815688 0.9180 0.9185 0.9195 0.9200 0.9200
3662.217745 0.9200 0.9200 0.9200 0.9200 0.9200
3666.619803 0.9200 0.9200 0.9200 0.9200 0.9200
3671.021860 0.9200 0.9200 0.9200 0.9200 0.9200
3675.423918 0.9200 0.9200 0.9200 0.9200 0.9200
3679.825975 0.9200 0.9200 0.9200 0.9200 0.9200
3684.228033 0.9200 0.9200 0.9200 0.9200 0.9200
3688.630090 0.9200 0.9200 0.9200 0.9200 0.9194
3693.032148 0.9184 0.9180 0.9180 0.9180 0.9180
3697.434205 0.9180 0.9180 0.9180 0.9180 0.9180
3701.836263 0.9180 0.9180 0.9180 0.9180 0.9180
3706.238320 0.9180 0.9180 0.9180 0.9180 0.9180
3710.640378 0.9180 0.9180 0.9180 0.9180 0.9180
3715.042435 0.9180 0.9180 0.9180 0.9180 0.9180
3719.444493 0.9180 0.9180 0.9180 0.9180 0.9180
3723.846550 0.9180 0.9180 0.9180 0.9180 0.9180
3728.248608 0.9180 0.9180 0.9180 0.9180 0.9180
3732.650665 0.9180 0.9180 0.9180 0.9180 0.9180
3737.052723 0.9180 0.9180 0.9180 0.9180 0.9180
3741.454780 0.9180 0.9180 0.9180 0.9180 0.9180
3745.856838 0.9180 0.9180 0.9180 0.9180 0.9180
3750.258895 0.9180 0.9180 0.9180 0.9180 0.9180
3754.660953 0.9180 0.9180 0.9180 0.9176 0.9171
3759.063010 0.9170 0.9170 0.9170 0.9170 0.9166
3763.465068 0.9161 0.9160 0.9160 0.9160 0.9160
3767.867125 0.9152 0.9142 0.9140 0.9140 0.9140
3772.269183 0.9140 0.9136 0.9131 0.9126 0.9121
3776.671240 0.9120 0.9120 0.9120 0.9120 0.9120
3781.073298 0.9120 0.9120 0.9120 0.9120 0.9120
3785.475355 0.9120 0.9120 0.9120 0.9120 0.9120
3789.877413 0.9120 0.9120 0.9120 0.9120 0.9120
3794.279470 0.9120 0.9120 0.9120 0.9120 0.9111
3798.681528 0.9101 0.9100 0.9100 0.9100 0.9100
##END=
