##TITLE=CARAMIPHEN ETHANEDISULFONATE
##JCAMP-DX=4.24
$$ By DXEDIT 1.05 (RS McDonald)
##DATA TYPE=INFRARED SPECTRUM
##CLASS=COBLENTZ III
##OWNER=COBLENTZ SOC.
Collection (C) 2018 copyright by the U.S. Secretary of Commerce
on behalf of the United States of America. All rights reserved.
##DATE=1962/07/18
##NAMES=CYCLOPENTANECARBOXYLIC ACID, 1-PHENYL-, 2-DIETHYLAMINOETHYLESTER 1,2-ETHANEDISULFONATE
##MOLFORM=C38 H60 N2 O10 S2
##MP=115-116 C
##SOURCE REFERENCE=COBLENTZ NO. 05156
##$NIST ID=B6005156
##$NIST SOURCE=COBLENTZ
##$NIST IMAGE=cob5156
##SPECTROMETER/DATA SYSTEM=PERKIN-ELMER 21 (GRATING)
##INSTRUMENT PARAMETERS=FILTER AT ABOUT 10 MICRONS
##STATE=SOLID (KBr DISC) VS KBr
##SAMPLING PROCEDURE=TRANSMISSION
##RESOLUTION=2
##DATA PROCESSING=DIGITIZED BY COBLENTZ SOCIETY (BATCH I) FROM HARD COPY
##XUNITS=1/CM
##YUNITS=TRANSMITTANCE
##XLABEL=Wavenumbers (cm-1)
##YLABEL=Transmittance
##XFACTOR=1
##YFACTOR=1
##DELTAX=1
##FIRSTX=4000
##LASTX=667
##FIRSTY=0.9525
##MAXX=4000
##MINX=667
##MAXY=0.9647
##MINY=0.0956
##NPOINTS=3334
##XYDATA=(X++(Y..Y))
4000.000000 0.9525 0.9525 0.9525 0.9527 0.9528
3995.000000 0.9528 0.9528 0.9530 0.9531 0.9532
3990.000000 0.9532 0.9533 0.9534 0.9535 0.9535
3985.000000 0.9536 0.9537 0.9538 0.9539 0.9539
3980.000000 0.9540 0.9541 0.9542 0.9543 0.9543
3975.000000 0.9544 0.9545 0.9546 0.9547 0.9547
3970.000000 0.9548 0.9549 0.9550 0.9550 0.9551
3965.000000 0.9552 0.9553 0.9554 0.9554 0.9555
3960.000000 0.9556 0.9557 0.9558 0.9558 0.9559
3955.000000 0.9560 0.9561 0.9562 0.9562 0.9563
3950.000000 0.9564 0.9565 0.9566 0.9567 0.9568
3945.000000 0.9568 0.9570 0.9571 0.9571 0.9571
3940.000000 0.9573 0.9574 0.9575 0.9575 0.9575
3935.000000 0.9577 0.9578 0.9578 0.9580 0.9580
3930.000000 0.9581 0.9582 0.9583 0.9584 0.9585
3925.000000 0.9586 0.9587 0.9588 0.9589 0.9589
3920.000000 0.9590 0.9591 0.9592 0.9593 0.9594
3915.000000 0.9595 0.9596 0.9597 0.9598 0.9599
3910.000000 0.9599 0.9600 0.9601 0.9602 0.9603
3905.000000 0.9604 0.9604 0.9605 0.9606 0.9607
3900.000000 0.9608 0.9608 0.9609 0.9610 0.9610
3895.000000 0.9611 0.9612 0.9612 0.9612 0.9613
3890.000000 0.9613 0.9613 0.9614 0.9614 0.9614
3885.000000 0.9615 0.9615 0.9615 0.9615 0.9616
3880.000000 0.9616 0.9616 0.9617 0.9617 0.9617
3875.000000 0.9618 0.9618 0.9618 0.9618 0.9618
3870.000000 0.9618 0.9620 0.9620 0.9620 0.9621
3865.000000 0.9621 0.9621 0.9621 0.9621 0.9623
3860.000000 0.9624 0.9624 0.9625 0.9625 0.9625
3855.000000 0.9625 0.9625 0.9625 0.9625 0.9625
3850.000000 0.9625 0.9627 0.9627 0.9627 0.9628
3845.000000 0.9628 0.9628 0.9628 0.9628 0.9628
3840.000000 0.9628 0.9628 0.9628 0.9628 0.9628
3835.000000 0.9628 0.9630 0.9630 0.9630 0.9631
3830.000000 0.9631 0.9631 0.9632 0.9632 0.9632
3825.000000 0.9632 0.9632 0.9632 0.9633 0.9633
3820.000000 0.9633 0.9634 0.9634 0.9634 0.9635
3815.000000 0.9635 0.9635 0.9635 0.9635 0.9635
3810.000000 0.9636 0.9636 0.9636 0.9636 0.9636
3805.000000 0.9637 0.9637 0.9637 0.9637 0.9637
3800.000000 0.9637 0.9638 0.9638 0.9638 0.9638
3795.000000 0.9638 0.9638 0.9639 0.9639 0.9639
3790.000000 0.9639 0.9639 0.9639 0.9640 0.9640
3785.000000 0.9640 0.9640 0.9640 0.9641 0.9641
3780.000000 0.9641 0.9641 0.9641 0.9641 0.9642
3775.000000 0.9642 0.9642 0.9642 0.9642 0.9642
3770.000000 0.9643 0.9643 0.9643 0.9643 0.9643
3765.000000 0.9644 0.9644 0.9644 0.9644 0.9644
3760.000000 0.9644 0.9644 0.9644 0.9644 0.9644
3755.000000 0.9644 0.9644 0.9645 0.9645 0.9645
3750.000000 0.9645 0.9645 0.9645 0.9645 0.9645
3745.000000 0.9645 0.9645 0.9645 0.9646 0.9646
3740.000000 0.9646 0.9646 0.9646 0.9646 0.9647
3735.000000 0.9647 0.9647 0.9647 0.9647 0.9647
3730.000000 0.9647 0.9647 0.9647 0.9647 0.9647
3725.000000 0.9646 0.9646 0.9646 0.9646 0.9646
3720.000000 0.9646 0.9646 0.9646 0.9646 0.9646
3715.000000 0.9646 0.9645 0.9645 0.9645 0.9645
3710.000000 0.9645 0.9644 0.9644 0.9644 0.9644
3705.000000 0.9644 0.9644 0.9643 0.9643 0.9643
3700.000000 0.9643 0.9643 0.9642 0.9642 0.9642
3695.000000 0.9642 0.9642 0.9642 0.9641 0.9641
3690.000000 0.9641 0.9641 0.9641 0.9640 0.9640
3685.000000 0.9640 0.9639 0.9639 0.9639 0.9638
3680.000000 0.9638 0.9638 0.9638 0.9638 0.9637
3675.000000 0.9637 0.9637 0.9636 0.9636 0.9635
3670.000000 0.9634 0.9633 0.9632 0.9631 0.9630
3665.000000 0.9628 0.9628 0.9625 0.9625 0.9624
3660.000000 0.9623 0.9621 0.9621 0.9620 0.9618
3655.000000 0.9618 0.9617 0.9616 0.9615 0.9614
3650.000000 0.9613 0.9610 0.9606 0.9603 0.9599
3645.000000 0.9595 0.9591 0.9588 0.9584 0.9580
3640.000000 0.9575 0.9571 0.9568 0.9565 0.9561
3635.000000 0.9557 0.9553 0.9548 0.9544 0.9540
3630.000000 0.9536 0.9532 0.9527 0.9523 0.9518
3625.000000 0.9514 0.9509 0.9505 0.9500 0.9495
3620.000000 0.9491 0.9486 0.9482 0.9477 0.9473
3615.000000 0.9468 0.9464 0.9460 0.9455 0.9451
3610.000000 0.9446 0.9441 0.9437 0.9432 0.9428
3605.000000 0.9423 0.9418 0.9414 0.9409 0.9404
3600.000000 0.9400 0.9395 0.9391 0.9386 0.9381
3595.000000 0.9375 0.9371 0.9367 0.9362 0.9357
3590.000000 0.9352 0.9347 0.9342 0.9337 0.9332
3585.000000 0.9327 0.9321 0.9317 0.9312 0.9307
3580.000000 0.9302 0.9297 0.9292 0.9287 0.9282
3575.000000 0.9277 0.9271 0.9267 0.9262 0.9257
3570.000000 0.9252 0.9248 0.9243 0.9238 0.9233
3565.000000 0.9227 0.9221 0.9217 0.9211 0.9206
3560.000000 0.9201 0.9196 0.9191 0.9186 0.9180
3555.000000 0.9175 0.9170 0.9164 0.9159 0.9154
3550.000000 0.9149 0.9143 0.9138 0.9133 0.9128
3545.000000 0.9123 0.9117 0.9112 0.9106 0.9101
3540.000000 0.9095 0.9090 0.9084 0.9078 0.9073
3535.000000 0.9068 0.9062 0.9056 0.9051 0.9045
3530.000000 0.9039 0.9033 0.9028 0.9021 0.9016
3525.000000 0.9010 0.9005 0.8999 0.8993 0.8988
3520.000000 0.8982 0.8975 0.8970 0.8964 0.8959
3515.000000 0.8953 0.8947 0.8942 0.8936 0.8930
3510.000000 0.8924 0.8918 0.8913 0.8907 0.8902
3505.000000 0.8896 0.8890 0.8885 0.8878 0.8873
3500.000000 0.8867 0.8862 0.8856 0.8850 0.8845
3495.000000 0.8839 0.8834 0.8828 0.8823 0.8817
3490.000000 0.8812 0.8806 0.8800 0.8795 0.8789
3485.000000 0.8784 0.8778 0.8773 0.8767 0.8762
3480.000000 0.8757 0.8752 0.8746 0.8741 0.8737
3475.000000 0.8733 0.8728 0.8724 0.8720 0.8715
3470.000000 0.8711 0.8706 0.8702 0.8698 0.8694
3465.000000 0.8690 0.8687 0.8683 0.8678 0.8675
3460.000000 0.8671 0.8667 0.8663 0.8662 0.8661
3455.000000 0.8661 0.8660 0.8659 0.8659 0.8658
3450.000000 0.8658 0.8657 0.8656 0.8656 0.8655
3445.000000 0.8654 0.8654 0.8653 0.8653 0.8652
3440.000000 0.8652 0.8652 0.8652 0.8652 0.8653
3435.000000 0.8653 0.8654 0.8654 0.8654 0.8655
3430.000000 0.8655 0.8656 0.8656 0.8657 0.8657
3425.000000 0.8657 0.8658 0.8660 0.8661 0.8663
3420.000000 0.8664 0.8668 0.8671 0.8675 0.8678
3415.000000 0.8681 0.8685 0.8688 0.8691 0.8694
3410.000000 0.8698 0.8702 0.8706 0.8710 0.8713
3405.000000 0.8718 0.8725 0.8730 0.8736 0.8742
3400.000000 0.8747 0.8753 0.8759 0.8765 0.8771
3395.000000 0.8775 0.8782 0.8788 0.8793 0.8800
3390.000000 0.8806 0.8813 0.8818 0.8825 0.8833
3385.000000 0.8840 0.8846 0.8853 0.8860 0.8867
3380.000000 0.8874 0.8880 0.8887 0.8894 0.8901
3375.000000 0.8907 0.8914 0.8920 0.8925 0.8932
3370.000000 0.8937 0.8943 0.8947 0.8951 0.8955
3365.000000 0.8959 0.8964 0.8968 0.8973 0.8977
3360.000000 0.8981 0.8986 0.8990 0.8994 0.8998
3355.000000 0.9003 0.9007 0.9012 0.9016 0.9020
3350.000000 0.9025 0.9028 0.9033 0.9037 0.9041
3345.000000 0.9044 0.9048 0.9051 0.9054 0.9057
3340.000000 0.9060 0.9063 0.9066 0.9068 0.9071
3335.000000 0.9075 0.9078 0.9082 0.9085 0.9088
3330.000000 0.9091 0.9094 0.9097 0.9100 0.9103
3325.000000 0.9106 0.9109 0.9111 0.9114 0.9117
3320.000000 0.9120 0.9121 0.9125 0.9127 0.9130
3315.000000 0.9132 0.9134 0.9137 0.9139 0.9141
3310.000000 0.9144 0.9146 0.9149 0.9151 0.9154
3305.000000 0.9156 0.9159 0.9161 0.9164 0.9166
3300.000000 0.9168 0.9171 0.9173 0.9175 0.9177
3295.000000 0.9180 0.9182 0.9184 0.9187 0.9189
3290.000000 0.9191 0.9194 0.9196 0.9198 0.9201
3285.000000 0.9203 0.9204 0.9205 0.9207 0.9208
3280.000000 0.9209 0.9210 0.9211 0.9212 0.9213
3275.000000 0.9214 0.9215 0.9216 0.9217 0.9217
3270.000000 0.9218 0.9218 0.9218 0.9220 0.9221
3265.000000 0.9221 0.9223 0.9224 0.9225 0.9225
3260.000000 0.9225 0.9227 0.9228 0.9228 0.9228
3255.000000 0.9230 0.9230 0.9230 0.9230 0.9230
3250.000000 0.9231 0.9231 0.9231 0.9231 0.9232
3245.000000 0.9232 0.9232 0.9232 0.9233 0.9233
3240.000000 0.9233 0.9233 0.9234 0.9234 0.9234
3235.000000 0.9234 0.9235 0.9235 0.9235 0.9235
3230.000000 0.9235 0.9236 0.9236 0.9236 0.9236
3225.000000 0.9236 0.9236 0.9236 0.9236 0.9235
3220.000000 0.9235 0.9235 0.9235 0.9234 0.9234
3215.000000 0.9234 0.9234 0.9234 0.9234 0.9234
3210.000000 0.9234 0.9233 0.9233 0.9233 0.9233
3205.000000 0.9233 0.9233 0.9233 0.9233 0.9234
3200.000000 0.9234 0.9234 0.9235 0.9235 0.9236
3195.000000 0.9236 0.9236 0.9237 0.9237 0.9237
3190.000000 0.9237 0.9237 0.9238 0.9238 0.9239
3185.000000 0.9239 0.9240 0.9240 0.9240 0.9240
3180.000000 0.9241 0.9241 0.9242 0.9242 0.9243
3175.000000 0.9243 0.9243 0.9243 0.9244 0.9244
3170.000000 0.9245 0.9245 0.9246 0.9246 0.9247
3165.000000 0.9247 0.9246 0.9244 0.9242 0.9239
3160.000000 0.9237 0.9235 0.9232 0.9230 0.9227
3155.000000 0.9225 0.9221 0.9220 0.9217 0.9215
3150.000000 0.9212 0.9209 0.9206 0.9202 0.9199
3145.000000 0.9195 0.9189 0.9181 0.9173 0.9166
3140.000000 0.9158 0.9151 0.9143 0.9135 0.9127
3135.000000 0.9120 0.9112 0.9104 0.9094 0.9084
3130.000000 0.9074 0.9063 0.9052 0.9040 0.9028
3125.000000 0.9016 0.9003 0.8991 0.8978 0.8967
3120.000000 0.8955 0.8943 0.8931 0.8918 0.8907
3115.000000 0.8895 0.8883 0.8871 0.8859 0.8847
3110.000000 0.8835 0.8823 0.8811 0.8799 0.8786
3105.000000 0.8774 0.8762 0.8750 0.8738 0.8725
3100.000000 0.8713 0.8701 0.8689 0.8677 0.8664
3095.000000 0.8652 0.8640 0.8627 0.8615 0.8603
3090.000000 0.8590 0.8575 0.8560 0.8544 0.8528
3085.000000 0.8514 0.8499 0.8483 0.8468 0.8453
3080.000000 0.8438 0.8423 0.8407 0.8390 0.8374
3075.000000 0.8357 0.8338 0.8318 0.8300 0.8281
3070.000000 0.8262 0.8242 0.8223 0.8198 0.8165
3065.000000 0.8133 0.8100 0.8053 0.8000 0.7947
3060.000000 0.7894 0.7849 0.7804 0.7758 0.7719
3055.000000 0.7703 0.7686 0.7668 0.7651 0.7634
3050.000000 0.7615 0.7599 0.7582 0.7564 0.7547
3045.000000 0.7528 0.7511 0.7494 0.7476 0.7453
3040.000000 0.7418 0.7385 0.7351 0.7312 0.7272
3035.000000 0.7232 0.7192 0.7141 0.7089 0.7038
3030.000000 0.6986 0.6934 0.6882 0.6830 0.6778
3025.000000 0.6725 0.6674 0.6621 0.6569 0.6518
3020.000000 0.6465 0.6414 0.6360 0.6309 0.6257
3015.000000 0.6195 0.6127 0.6060 0.5994 0.5964
3010.000000 0.5934 0.5904 0.5875 0.5846 0.5818
3005.000000 0.5790 0.5762 0.5735 0.5708 0.5683
3000.000000 0.5668 0.5653 0.5638 0.5625 0.5615
2995.000000 0.5605 0.5594 0.5584 0.5574 0.5564
2990.000000 0.5551 0.5533 0.5516 0.5498 0.5481
2985.000000 0.5464 0.5447 0.5431 0.5421 0.5410
2980.000000 0.5400 0.5393 0.5388 0.5382 0.5377
2975.000000 0.5375 0.5373 0.5371 0.5370 0.5369
2970.000000 0.5360 0.5366 0.5366 0.5365 0.5364
2965.000000 0.5364 0.5365 0.5366 0.5367 0.5367
2960.000000 0.5368 0.5369 0.5370 0.5372 0.5374
2955.000000 0.5376 0.5384 0.5391 0.5398 0.5406
2950.000000 0.5414 0.5422 0.5430 0.5443 0.5456
2945.000000 0.5470 0.5483 0.5497 0.5510 0.5524
2940.000000 0.5538 0.5552 0.5566 0.5581 0.5597
2935.000000 0.5612 0.5629 0.5645 0.5660 0.5678
2930.000000 0.5694 0.5710 0.5728 0.5744 0.5760
2925.000000 0.5777 0.5794 0.5821 0.5848 0.5876
2920.000000 0.5912 0.5959 0.6005 0.6052 0.6107
2915.000000 0.6160 0.6216 0.6249 0.6275 0.6302
2910.000000 0.6320 0.6323 0.6327 0.6330 0.6333
2905.000000 0.6336 0.6339 0.6342 0.6344 0.6346
2900.000000 0.6348 0.6350 0.6351 0.6353 0.6355
2895.000000 0.6357 0.6359 0.6362 0.6365 0.6369
2890.000000 0.6373 0.6381 0.6389 0.6397 0.6406
2885.000000 0.6414 0.6421 0.6433 0.6446 0.6460
2880.000000 0.6472 0.6486 0.6499 0.6511 0.6534
2875.000000 0.6557 0.6580 0.6628 0.6695 0.6761
2870.000000 0.6828 0.6900 0.6971 0.7042 0.7111
2865.000000 0.7183 0.7253 0.7324 0.7395 0.7465
2860.000000 0.7537 0.7608 0.7678 0.7745 0.7785
2855.000000 0.7825 0.7865 0.7875 0.7880 0.7886
2850.000000 0.7889 0.7891 0.7892 0.7894 0.7896
2845.000000 0.7881 0.7899 0.7900 0.7900 0.7901
2840.000000 0.7901 0.7901 0.7901 0.7901 0.7901
2835.000000 0.7901 0.7900 0.7898 0.7895 0.7893
2830.000000 0.7889 0.7886 0.7882 0.7876 0.7871
2825.000000 0.7865 0.7854 0.7840 0.7825 0.7807
2820.000000 0.7784 0.7761 0.7739 0.7715 0.7693
2815.000000 0.7668 0.7641 0.7611 0.7584 0.7557
2810.000000 0.7530 0.7503 0.7494 0.7486 0.7478
2805.000000 0.7474 0.7471 0.7467 0.7465 0.7465
2800.000000 0.7464 0.7462 0.7462 0.7462 0.7462
2795.000000 0.7465 0.7468 0.7474 0.7481 0.7488
2790.000000 0.7495 0.7503 0.7511 0.7518 0.7525
2785.000000 0.7532 0.7538 0.7543 0.7547 0.7551
2780.000000 0.7554 0.7556 0.7557 0.7558 0.7558
2775.000000 0.7558 0.7558 0.7556 0.7554 0.7551
2770.000000 0.7550 0.7548 0.7546 0.7544 0.7542
2765.000000 0.7539 0.7535 0.7532 0.7526 0.7519
2760.000000 0.7512 0.7506 0.7499 0.7492 0.7485
2755.000000 0.7478 0.7471 0.7462 0.7456 0.7450
2750.000000 0.7435 0.7401 0.7367 0.7330 0.7285
2745.000000 0.7239 0.7187 0.7111 0.7036 0.6974
2740.000000 0.6960 0.6945 0.6930 0.6915 0.6900
2735.000000 0.6884 0.6864 0.6844 0.6822 0.6801
2730.000000 0.6778 0.6756 0.6734 0.6712 0.6693
2725.000000 0.6678 0.6664 0.6650 0.6636 0.6621
2720.000000 0.6607 0.6593 0.6578 0.6564 0.6550
2715.000000 0.6535 0.6521 0.6506 0.6492 0.6475
2710.000000 0.6454 0.6434 0.6414 0.6395 0.6375
2705.000000 0.6355 0.6335 0.6314 0.6293 0.6271
2700.000000 0.6248 0.6222 0.6195 0.6168 0.6141
2695.000000 0.6114 0.6087 0.6060 0.6034 0.6007
2690.000000 0.5979 0.5951 0.5923 0.5892 0.5862
2685.000000 0.5823 0.5767 0.5710 0.5666 0.5640
2680.000000 0.5615 0.5582 0.5543 0.5505 0.5456
2675.000000 0.5402 0.5348 0.5295 0.5241 0.5187
2670.000000 0.5133 0.5079 0.5026 0.4972 0.4917
2665.000000 0.4862 0.4809 0.4755 0.4700 0.4646
2660.000000 0.4592 0.4537 0.4483 0.4428 0.4374
2655.000000 0.4319 0.4264 0.4210 0.4155 0.4102
2650.000000 0.4062 0.4024 0.3992 0.3973 0.3955
2645.000000 0.3934 0.3909 0.3886 0.3874 0.3864
2640.000000 0.3857 0.3855 0.3853 0.3850 0.3850
2635.000000 0.3850 0.3849 0.3848 0.3847 0.3846
2630.000000 0.3845 0.3844 0.3844 0.3845 0.3846
2625.000000 0.3847 0.3848 0.3849 0.3849 0.3816
2620.000000 0.3850 0.3852 0.3853 0.3854 0.3854
2615.000000 0.3855 0.3862 0.3871 0.3880 0.3890
2610.000000 0.3900 0.3914 0.3932 0.3950 0.3971
2605.000000 0.3993 0.4014 0.4037 0.4059 0.4084
2600.000000 0.4110 0.4135 0.4167 0.4201 0.4234
2595.000000 0.4268 0.4301 0.4336 0.4372 0.4409
2590.000000 0.4445 0.4482 0.4519 0.4557 0.4594
2585.000000 0.4654 0.4762 0.4873 0.4935 0.4971
2580.000000 0.5007 0.5043 0.5079 0.5112 0.5145
2575.000000 0.5176 0.5202 0.5226 0.5250 0.5274
2570.000000 0.5298 0.5323 0.5347 0.5371 0.5395
2565.000000 0.5420 0.5444 0.5471 0.5498 0.5525
2560.000000 0.5553 0.5581 0.5609 0.5636 0.5660
2555.000000 0.5679 0.5698 0.5716 0.5734 0.5752
2550.000000 0.5767 0.5783 0.5798 0.5812 0.5829
2545.000000 0.5836 0.5842 0.5848 0.5853 0.5858
2540.000000 0.5862 0.5868 0.5873 0.5877 0.5882
2535.000000 0.5886 0.5890 0.5893 0.5896 0.5900
2530.000000 0.5903 0.5906 0.5909 0.5912 0.5915
2525.000000 0.5918 0.5918 0.5919 0.5920 0.5939
2520.000000 0.5923 0.5923 0.5924 0.5925 0.5925
2515.000000 0.5925 0.5925 0.5925 0.5924 0.5924
2510.000000 0.5923 0.5916 0.5908 0.5900 0.5892
2505.000000 0.5883 0.5873 0.5862 0.5851 0.5840
2500.000000 0.5830 0.5814 0.5798 0.5784 0.5771
2495.000000 0.5757 0.5748 0.5739 0.5732 0.5728
2490.000000 0.5723 0.5721 0.5730 0.5716 0.5716
2485.000000 0.5716 0.5717 0.5721 0.5725 0.5730
2480.000000 0.5736 0.5749 0.5762 0.5786 0.5814
2475.000000 0.5859 0.5954 0.6049 0.6155 0.6264
2470.000000 0.6350 0.6393 0.6437 0.6480 0.6524
2465.000000 0.6571 0.6625 0.6680 0.6750 0.6819
2460.000000 0.6886 0.6951 0.7014 0.7071 0.7128
2455.000000 0.7185 0.7242 0.7289 0.7322 0.7357
2450.000000 0.7391 0.7424 0.7458 0.7492 0.7525
2445.000000 0.7560 0.7593 0.7621 0.7646 0.7669
2440.000000 0.7689 0.7708 0.7728 0.7749 0.7768
2435.000000 0.7788 0.7808 0.7828 0.7848 0.7868
2430.000000 0.7887 0.7914 0.7945 0.7975 0.8008
2425.000000 0.8040 0.8069 0.8099 0.8124 0.8145
2420.000000 0.8165 0.8185 0.8205 0.8225 0.8246
2415.000000 0.8265 0.8283 0.8300 0.8315 0.8331
2410.000000 0.8347 0.8363 0.8378 0.8394 0.8410
2405.000000 0.8425 0.8442 0.8458 0.8474 0.8490
2400.000000 0.8506 0.8520 0.8531 0.8542 0.8552
2395.000000 0.8563 0.8573 0.8584 0.8595 0.8606
2390.000000 0.8616 0.8627 0.8637 0.8648 0.8659
2385.000000 0.8670 0.8680 0.8691 0.8700 0.8709
2380.000000 0.8717 0.8725 0.8733 0.8741 0.8749
2375.000000 0.8757 0.8765 0.8773 0.8781 0.8789
2370.000000 0.8797 0.8805 0.8813 0.8821 0.8828
2365.000000 0.8837 0.8845 0.8853 0.8861 0.8868
2360.000000 0.8877 0.8885 0.8893 0.8902 0.8910
2355.000000 0.8918 0.8925 0.8934 0.8942 0.8950
2350.000000 0.8958 0.8966 0.8974 0.8982 0.8989
2345.000000 0.8996 0.9003 0.9011 0.9018 0.9025
2340.000000 0.9033 0.9040 0.9047 0.9054 0.9062
2335.000000 0.9068 0.9077 0.9084 0.9092 0.9100
2330.000000 0.9107 0.9114 0.9121 0.9128 0.9136
2325.000000 0.9142 0.9147 0.9153 0.9159 0.9165
2320.000000 0.9171 0.9177 0.9183 0.9188 0.9194
2315.000000 0.9200 0.9206 0.9213 0.9218 0.9224
2310.000000 0.9228 0.9234 0.9239 0.9241 0.9244
2305.000000 0.9246 0.9249 0.9252 0.9255 0.9257
2300.000000 0.9259 0.9262 0.9265 0.9267 0.9270
2295.000000 0.9271 0.9274 0.9277 0.9278 0.9281
2290.000000 0.9281 0.9282 0.9283 0.9284 0.9285
2285.000000 0.9286 0.9287 0.9288 0.9288 0.9289
2280.000000 0.9289 0.9290 0.9291 0.9292 0.9293
2275.000000 0.9294 0.9295 0.9295 0.9296 0.9297
2270.000000 0.9298 0.9299 0.9300 0.9300 0.9301
2265.000000 0.9302 0.9303 0.9303 0.9304 0.9305
2260.000000 0.9306 0.9307 0.9308 0.9308 0.9309
2255.000000 0.9310 0.9311 0.9311 0.9312 0.9314
2250.000000 0.9316 0.9318 0.9320 0.9321 0.9324
2245.000000 0.9325 0.9328 0.9330 0.9333 0.9335
2240.000000 0.9337 0.9339 0.9341 0.9343 0.9345
2235.000000 0.9347 0.9350 0.9353 0.9356 0.9359
2230.000000 0.9362 0.9365 0.9368 0.9371 0.9374
2225.000000 0.9377 0.9380 0.9383 0.9386 0.9389
2220.000000 0.9392 0.9395 0.9398 0.9401 0.9404
2215.000000 0.9408 0.9410 0.9413 0.9415 0.9418
2210.000000 0.9421 0.9423 0.9425 0.9428 0.9431
2205.000000 0.9433 0.9435 0.9438 0.9440 0.9443
2200.000000 0.9445 0.9448 0.9450 0.9453 0.9456
2195.000000 0.9458 0.9460 0.9462 0.9465 0.9468
2190.000000 0.9470 0.9473 0.9475 0.9478 0.9481
2185.000000 0.9483 0.9485 0.9488 0.9490 0.9493
2180.000000 0.9495 0.9497 0.9499 0.9501 0.9503
2175.000000 0.9505 0.9507 0.9509 0.9512 0.9514
2170.000000 0.9516 0.9518 0.9520 0.9521 0.9524
2165.000000 0.9525 0.9528 0.9531 0.9533 0.9535
2160.000000 0.9537 0.9539 0.9541 0.9544 0.9546
2155.000000 0.9548 0.9550 0.9552 0.9552 0.9553
2150.000000 0.9553 0.9554 0.9554 0.9554 0.9554
2145.000000 0.9554 0.9555 0.9555 0.9555 0.9555
2140.000000 0.9556 0.9556 0.9556 0.9556 0.9556
2135.000000 0.9556 0.9557 0.9557 0.9557 0.9556
2130.000000 0.9555 0.9554 0.9552 0.9550 0.9548
2125.000000 0.9546 0.9543 0.9541 0.9539 0.9537
2120.000000 0.9535 0.9533 0.9531 0.9528 0.9527
2115.000000 0.9524 0.9523 0.9521 0.9518 0.9516
2110.000000 0.9514 0.9512 0.9510 0.9508 0.9506
2105.000000 0.9504 0.9502 0.9499 0.9497 0.9496
2100.000000 0.9495 0.9495 0.9495 0.9495 0.9495
2095.000000 0.9496 0.9496 0.9497 0.9498 0.9498
2090.000000 0.9498 0.9498 0.9499 0.9499 0.9500
2085.000000 0.9501 0.9501 0.9501 0.9501 0.9502
2080.000000 0.9502 0.9503 0.9504 0.9504 0.9504
2075.000000 0.9504 0.9505 0.9505 0.9506 0.9507
2070.000000 0.9507 0.9508 0.9508 0.9509 0.9510
2065.000000 0.9510 0.9511 0.9511 0.9512 0.9513
2060.000000 0.9514 0.9515 0.9515 0.9516 0.9516
2055.000000 0.9517 0.9518 0.9518 0.9518 0.9518
2050.000000 0.9520 0.9521 0.9521 0.9521 0.9521
2045.000000 0.9523 0.9524 0.9524 0.9524 0.9524
2040.000000 0.9523 0.9523 0.9523 0.9523 0.9523
2035.000000 0.9521 0.9521 0.9521 0.9521 0.9521
2030.000000 0.9521 0.9521 0.9521 0.9520 0.9518
2025.000000 0.9517 0.9516 0.9515 0.9514 0.9512
2020.000000 0.9511 0.9510 0.9509 0.9508 0.9506
2015.000000 0.9505 0.9504 0.9503 0.9500 0.9498
2010.000000 0.9495 0.9493 0.9490 0.9488 0.9485
2005.000000 0.9483 0.9480 0.9478 0.9475 0.9473
2000.000000 0.9471 0.9468 0.9465 0.9463 0.9460
1995.000000 0.9458 0.9455 0.9454 0.9453 0.9453
1990.000000 0.9452 0.9452 0.9451 0.9450 0.9450
1985.000000 0.9449 0.9448 0.9448 0.9448 0.9448
1980.000000 0.9447 0.9446 0.9446 0.9445 0.9445
1975.000000 0.9445 0.9446 0.9448 0.9449 0.9450
1970.000000 0.9452 0.9453 0.9454 0.9456 0.9458
1965.000000 0.9459 0.9460 0.9462 0.9463 0.9465
1960.000000 0.9467 0.9468 0.9468 0.9471 0.9474
1955.000000 0.9475 0.9478 0.9481 0.9483 0.9486
1950.000000 0.9489 0.9491 0.9493 0.9496 0.9498
1945.000000 0.9500 0.9502 0.9504 0.9505 0.9507
1940.000000 0.9509 0.9511 0.9513 0.9515 0.9517
1935.000000 0.9518 0.9521 0.9523 0.9523 0.9524
1930.000000 0.9524 0.9524 0.9524 0.9524 0.9524
1925.000000 0.9524 0.9521 0.9520 0.9518 0.9516
1920.000000 0.9514 0.9513 0.9511 0.9509 0.9507
1915.000000 0.9506 0.9504 0.9504 0.9502 0.9501
1910.000000 0.9500 0.9499 0.9498 0.9497 0.9496
1905.000000 0.9496 0.9496 0.9496 0.9496 0.9497
1900.000000 0.9497 0.9497 0.9497 0.9497 0.9497
1895.000000 0.9496 0.9496 0.9493 0.9490 0.9486
1890.000000 0.9483 0.9480 0.9474 0.9464 0.9460
1885.000000 0.9459 0.9459 0.9459 0.9460 0.9461
1880.000000 0.9464 0.9470 0.9478 0.9485 0.9492
1875.000000 0.9498 0.9502 0.9505 0.9509 0.9512
1870.000000 0.9516 0.9520 0.9521 0.9523 0.9523
1865.000000 0.9524 0.9525 0.9525 0.9525 0.9525
1860.000000 0.9527 0.9527 0.9527 0.9528 0.9528
1855.000000 0.9528 0.9528 0.9528 0.9528 0.9528
1850.000000 0.9527 0.9525 0.9525 0.9525 0.9524
1845.000000 0.9523 0.9518 0.9511 0.9501 0.9491
1840.000000 0.9481 0.9470 0.9459 0.9448 0.9437
1835.000000 0.9425 0.9413 0.9402 0.9391 0.9380
1830.000000 0.9370 0.9358 0.9344 0.9330 0.9317
1825.000000 0.9312 0.9308 0.9303 0.9299 0.9297
1820.000000 0.9297 0.9297 0.9297 0.9297 0.9302
1815.000000 0.9309 0.9316 0.9321 0.9324 0.9325
1810.000000 0.9328 0.9328 0.9332 0.9333 0.9334
1805.000000 0.9336 0.9336 0.9337 0.9338 0.9340
1800.000000 0.9340 0.9342 0.9343 0.9344 0.9345
1795.000000 0.9345 0.9345 0.9343 0.9340 0.9338
1790.000000 0.9335 0.9331 0.9327 0.9324 0.9320
1785.000000 0.9315 0.9311 0.9308 0.9306 0.9303
1780.000000 0.9296 0.9287 0.9278 0.9268 0.9249
1775.000000 0.9227 0.9204 0.9181 0.9147 0.9110
1770.000000 0.9073 0.9036 0.9000 0.8965 0.8909
1765.000000 0.8842 0.8774 0.8711 0.8646 0.8573
1760.000000 0.8497 0.8418 0.8337 0.8256 0.8185
1755.000000 0.8118 0.8051 0.7869 0.7054 0.6684
1750.000000 0.6349 0.6012 0.5677 0.5340 0.5004
1745.000000 0.4666 0.4328 0.3990 0.3650 0.3312
1740.000000 0.2973 0.2634 0.2293 0.1952 0.1612
1735.000000 0.1149 0.1152 0.1122 0.1119 0.1118
1730.000000 0.1123 0.1130 0.1150 0.1654 0.2488
1725.000000 0.3448 0.4409 0.5371 0.6334 0.6878
1720.000000 0.7136 0.7465 0.7955 0.7986 0.8015
1715.000000 0.8047 0.8080 0.8115 0.8154 0.8192
1710.000000 0.8230 0.8268 0.8301 0.8333 0.8365
1705.000000 0.8398 0.8430 0.8461 0.8488 0.8515
1700.000000 0.8542 0.8568 0.8596 0.8624 0.8652
1695.000000 0.8680 0.8709 0.8742 0.8775 0.8810
1690.000000 0.8840 0.8863 0.8885 0.8907 0.8928
1685.000000 0.8950 0.8973 0.8995 0.9017 0.9037
1680.000000 0.9054 0.9068 0.9083 0.9098 0.9110
1675.000000 0.9116 0.9121 0.9125 0.9131 0.9136
1670.000000 0.9142 0.9144 0.9148 0.9151 0.9153
1665.000000 0.9156 0.9159 0.9161 0.9164 0.9164
1660.000000 0.9164 0.9164 0.9164 0.9163 0.9159
1655.000000 0.9149 0.9135 0.9120 0.9107 0.9098
1650.000000 0.9094 0.9089 0.9086 0.9083 0.9082
1645.000000 0.9081 0.9080 0.9078 0.9078 0.9077
1640.000000 0.9075 0.9075 0.9074 0.9074 0.9074
1635.000000 0.9075 0.9075 0.9075 0.9077 0.9078
1630.000000 0.9080 0.9080 0.9081 0.9081 0.9081
1625.000000 0.9081 0.9081 0.9082 0.9082 0.9083
1620.000000 0.9084 0.9084 0.9084 0.9084 0.9075
1615.000000 0.9057 0.9038 0.8989 0.8918 0.8853
1610.000000 0.8792 0.8728 0.8667 0.8604 0.8541
1605.000000 0.8509 0.8500 0.8500 0.8501 0.8525
1600.000000 0.8577 0.8632 0.8687 0.8742 0.8798
1595.000000 0.8853 0.8899 0.8921 0.8930 0.8938
1590.000000 0.8946 0.8955 0.8964 0.8973 0.8986
1585.000000 0.9009 0.9032 0.9055 0.9077 0.9100
1580.000000 0.9124 0.9148 0.9171 0.9196 0.9218
1575.000000 0.9236 0.9255 0.9273 0.9285 0.9292
1570.000000 0.9299 0.9306 0.9312 0.9317 0.9318
1565.000000 0.9321 0.9321 0.9321 0.9315 0.9308
1560.000000 0.9301 0.9293 0.9282 0.9270 0.9258
1555.000000 0.9252 0.9252 0.9252 0.9253 0.9254
1550.000000 0.9257 0.9261 0.9264 0.9265 0.9265
1545.000000 0.9261 0.9256 0.9247 0.9228 0.9211
1540.000000 0.9198 0.9186 0.9178 0.9175 0.9171
1535.000000 0.9171 0.9171 0.9171 0.9173 0.9174
1530.000000 0.9175 0.9175 0.9171 0.9163 0.9153
1525.000000 0.9143 0.9130 0.9113 0.9095 0.9077
1520.000000 0.9050 0.9015 0.8973 0.8900 0.8818
1515.000000 0.8732 0.8643 0.8557 0.8474 0.8396
1510.000000 0.8325 0.8256 0.8185 0.8099 0.7993
1505.000000 0.7806 0.7382 0.6957 0.6532 0.6232
1500.000000 0.6128 0.6083 0.6050 0.6034 0.6021
1495.000000 0.6018 0.6018 0.6020 0.6027 0.6039
1490.000000 0.6052 0.6062 0.6074 0.6079 0.6080
1485.000000 0.6072 0.6054 0.6038 0.6025 0.6016
1480.000000 0.6012 0.6012 0.6016 0.6022 0.6027
1475.000000 0.6032 0.6038 0.6042 0.6043 0.6032
1470.000000 0.5994 0.5933 0.5870 0.5849 0.5834
1465.000000 0.5819 0.5800 0.5779 0.5757 0.5628
1460.000000 0.5488 0.5349 0.5209 0.5072 0.5003
1455.000000 0.5037 0.5033 0.5034 0.5053 0.5250
1450.000000 0.5488 0.5723 0.5856 0.5864 0.5870
1445.000000 0.5876 0.5888 0.5927 0.5990 0.6090
1440.000000 0.6264 0.6444 0.6624 0.6804 0.7033
1435.000000 0.7225 0.7378 0.7553 0.7701 0.7821
1430.000000 0.7926 0.8005 0.8083 0.8145 0.8202
1425.000000 0.8259 0.8312 0.8364 0.8401 0.8433
1420.000000 0.8450 0.8460 0.8468 0.8475 0.8484
1415.000000 0.8502 0.8498 0.8499 0.8500 0.8496
1410.000000 0.8480 0.8461 0.8431 0.8385 0.8337
1405.000000 0.8275 0.8215 0.8136 0.8032 0.7918
1400.000000 0.7812 0.7714 0.7617 0.7518 0.7419
1395.000000 0.7321 0.7221 0.7124 0.7075 0.7093
1390.000000 0.7198 0.7365 0.7533 0.7701 0.7778
1385.000000 0.7782 0.7775 0.7733 0.7680 0.7680
1380.000000 0.7748 0.7937 0.8160 0.8368 0.8430
1375.000000 0.8471 0.8494 0.8515 0.8534 0.8547
1370.000000 0.8559 0.8578 0.8564 0.8562 0.8535
1365.000000 0.8484 0.8400 0.8285 0.8121 0.7935
1360.000000 0.7749 0.7593 0.7564 0.7565 0.7574
1355.000000 0.7708 0.7882 0.8056 0.8231 0.8408
1350.000000 0.8518 0.8553 0.8568 0.8582 0.8591
1345.000000 0.8600 0.8608 0.8616 0.8634 0.8624
1340.000000 0.8625 0.8625 0.8624 0.8618 0.8605
1335.000000 0.8585 0.8534 0.8458 0.8354 0.8249
1330.000000 0.8128 0.7972 0.7818 0.7711 0.7681
1325.000000 0.7671 0.7664 0.7658 0.7651 0.7637
1320.000000 0.7617 0.7554 0.7486 0.7411 0.7332
1315.000000 0.7265 0.7210 0.7171 0.7135 0.7098
1310.000000 0.7060 0.6941 0.6735 0.6525 0.6317
1305.000000 0.6103 0.6102 0.6102 0.6105 0.6120
1300.000000 0.6285 0.6501 0.6717 0.6934 0.7151
1295.000000 0.7368 0.7518 0.7554 0.7578 0.7591
1290.000000 0.7601 0.7606 0.7606 0.7606 0.7598
1285.000000 0.7590 0.7569 0.7545 0.7518 0.7494
1280.000000 0.7460 0.7318 0.7207 0.7082 0.6932
1275.000000 0.6845 0.6708 0.6501 0.6294 0.6086
1270.000000 0.5878 0.5670 0.5460 0.5252 0.5043
1265.000000 0.4833 0.4623 0.4412 0.4203 0.3991
1260.000000 0.3780 0.3568 0.3357 0.3144 0.2932
1255.000000 0.2719 0.2505 0.2292 0.2078 0.1864
1250.000000 0.1649 0.1403 0.1301 0.1241 0.1186
1245.000000 0.1135 0.1088 0.1046 0.1016 0.0996
1240.000000 0.0981 0.0968 0.0961 0.0956 0.0979
1235.000000 0.1065 0.1268 0.1487 0.1706 0.1925
1230.000000 0.2145 0.2365 0.2584 0.2806 0.3027
1225.000000 0.3248 0.3468 0.3566 0.3584 0.3629
1220.000000 0.3606 0.3594 0.3570 0.3462 0.3198
1215.000000 0.2932 0.2666 0.2400 0.2133 0.1866
1210.000000 0.1694 0.1668 0.1664 0.1679 0.1695
1205.000000 0.1709 0.1712 0.1701 0.1653 0.1582
1200.000000 0.1511 0.1440 0.1368 0.1296 0.1130
1195.000000 0.1165 0.1145 0.1136 0.1178 0.1311
1190.000000 0.1395 0.1429 0.1464 0.1508 0.1627
1185.000000 0.1745 0.1865 0.1983 0.2102 0.2221
1180.000000 0.2341 0.2461 0.2580 0.2672 0.2698
1175.000000 0.2667 0.2561 0.2370 0.2178 0.1985
1170.000000 0.1794 0.1601 0.1408 0.1189 0.1220
1165.000000 0.1213 0.1226 0.1266 0.1400 0.1524
1160.000000 0.1670 0.1829 0.1945 0.2062 0.2357
1155.000000 0.2638 0.2919 0.3200 0.3484 0.3730
1150.000000 0.3766 0.3782 0.3794 0.3809 0.3859
1145.000000 0.3942 0.4053 0.4205 0.4358 0.4510
1140.000000 0.4665 0.4818 0.4905 0.4982 0.5062
1135.000000 0.5141 0.5188 0.5197 0.5203 0.5210
1130.000000 0.5221 0.5235 0.5281 0.5407 0.5504
1125.000000 0.5622 0.5758 0.5873 0.6004 0.6210
1120.000000 0.6417 0.6624 0.6831 0.7039 0.7225
1115.000000 0.7291 0.7336 0.7368 0.7401 0.7439
1110.000000 0.7482 0.7539 0.7632 0.7746 0.7858
1105.000000 0.7948 0.8001 0.8048 0.8081 0.8112
1100.000000 0.8147 0.8182 0.8208 0.8221 0.8235
1095.000000 0.8195 0.8150 0.8097 0.7996 0.7875
1090.000000 0.7730 0.7605 0.7565 0.7553 0.7558
1085.000000 0.7593 0.7644 0.7696 0.7718 0.7721
1080.000000 0.7596 0.7260 0.6921 0.6584 0.5941
1075.000000 0.5972 0.5946 0.5959 0.6090 0.6331
1070.000000 0.6572 0.6815 0.7147 0.7140 0.7151
1065.000000 0.7160 0.7150 0.7033 0.7045 0.7025
1060.000000 0.7042 0.7064 0.7076 0.7076 0.7076
1055.000000 0.7053 0.6819 0.6203 0.5643 0.5090
1050.000000 0.4537 0.3982 0.3427 0.2872 0.2409
1045.000000 0.2324 0.2317 0.2313 0.2637 0.3703
1040.000000 0.3684 0.3660 0.3491 0.3230 0.3229
1035.000000 0.3302 0.3622 0.3944 0.4126 0.4134
1030.000000 0.4016 0.3674 0.3330 0.2985 0.2641
1025.000000 0.2283 0.2269 0.2274 0.2601 0.3157
1020.000000 0.3680 0.4206 0.4712 0.4893 0.4989
1015.000000 0.5062 0.5117 0.5145 0.5162 0.5170
1010.000000 0.5169 0.5162 0.5152 0.5140 0.5128
1005.000000 0.5198 0.5383 0.5548 0.5706 0.5928
1000.000000 0.6164 0.6400 0.6637 0.6875 0.7111
995.000000 0.7335 0.7501 0.7707 0.7930 0.8069
990.000000 0.8185 0.8284 0.8378 0.8474 0.8566
985.000000 0.8628 0.8673 0.8697 0.8711 0.8725
980.000000 0.8740 0.8777 0.8764 0.8771 0.8775
975.000000 0.8775 0.8777 0.8760 0.8715 0.8646
970.000000 0.8568 0.8506 0.8462 0.8464 0.8468
965.000000 0.8480 0.8518 0.8562 0.8590 0.8614
960.000000 0.8625 0.8637 0.8656 0.8685 0.8713
955.000000 0.8748 0.8795 0.8868 0.8917 0.8964
950.000000 0.9002 0.9031 0.9058 0.9080 0.9101
945.000000 0.9123 0.9145 0.9165 0.9184 0.9203
940.000000 0.9221 0.9255 0.9242 0.9240 0.9228
935.000000 0.9184 0.9118 0.9053 0.8991 0.8930
930.000000 0.8865 0.8762 0.8782 0.8787 0.8809
925.000000 0.8855 0.8909 0.8964 0.9021 0.9081
920.000000 0.9117 0.9136 0.9128 0.9105 0.9085
915.000000 0.9075 0.9063 0.9049 0.9034 0.8990
910.000000 0.8924 0.8857 0.8847 0.8836 0.8825
905.000000 0.8777 0.8727 0.8542 0.8401 0.8368
900.000000 0.8355 0.8343 0.8371 0.8383 0.8513
895.000000 0.8618 0.8727 0.8857 0.9014 0.9100
890.000000 0.9136 0.9171 0.9204 0.9230 0.9228
885.000000 0.9228 0.9132 0.9068 0.9036 0.9000
880.000000 0.9018 0.9044 0.9083 0.9146 0.9193
875.000000 0.9235 0.9266 0.9292 0.9318 0.9348
870.000000 0.9375 0.9397 0.9417 0.9428 0.9430
865.000000 0.9431 0.9432 0.9434 0.9435 0.9435
860.000000 0.9435 0.9433 0.9425 0.9412 0.9399
855.000000 0.9382 0.9362 0.9343 0.9323 0.9303
850.000000 0.9283 0.9262 0.9240 0.9217 0.9193
845.000000 0.9164 0.9135 0.9055 0.8947 0.8847
840.000000 0.8668 0.8505 0.8474 0.8484 0.8490
835.000000 0.8509 0.8573 0.8663 0.8761 0.8848
830.000000 0.8905 0.8934 0.8943 0.8945 0.8937
825.000000 0.8910 0.8878 0.8839 0.8782 0.8794
820.000000 0.8815 0.8883 0.8951 0.9021 0.9078
815.000000 0.9121 0.9139 0.9152 0.9160 0.9167
810.000000 0.9168 0.9168 0.9145 0.9109 0.9058
805.000000 0.9008 0.8968 0.8899 0.8913 0.8906
800.000000 0.8901 0.8916 0.8934 0.8957 0.8982
795.000000 0.9011 0.9030 0.9020 0.8955 0.8835
790.000000 0.8688 0.8562 0.8433 0.8221 0.7981
785.000000 0.7758 0.7453 0.6771 0.6354 0.6069
780.000000 0.5862 0.5851 0.5841 0.5764 0.5683
775.000000 0.5635 0.5598 0.5562 0.5524 0.5476
770.000000 0.5390 0.5189 0.4987 0.5017 0.5238
765.000000 0.5631 0.6025 0.6419 0.6817 0.7189
760.000000 0.7419 0.7464 0.7467 0.7468 0.7464
755.000000 0.7478 0.7585 0.7701 0.7811 0.7901
750.000000 0.7965 0.8008 0.8041 0.8040 0.8039
745.000000 0.8008 0.7969 0.7922 0.7868 0.7780
740.000000 0.7632 0.7435 0.7289 0.7180 0.7136
735.000000 0.7172 0.7298 0.7474 0.7634 0.7645
730.000000 0.7543 0.7207 0.6796 0.6150 0.6167
725.000000 0.6238 0.7086 0.7812 0.8203 0.8452
720.000000 0.8618 0.8743 0.8804 0.8839 0.8878
715.000000 0.8925 0.8981 0.9067 0.9027 0.9018
710.000000 0.9003 0.8966 0.8905 0.8815 0.8587
705.000000 0.8271 0.7799 0.7169 0.6569 0.5875
700.000000 0.5608 0.5602 0.5595 0.5435 0.4544
695.000000 0.4529 0.5059 0.6087 0.7118 0.7751
690.000000 0.8165 0.8468 0.8675 0.8814 0.8906
685.000000 0.8971 0.9024 0.9071 0.9109 0.9148
680.000000 0.9168 0.9186 0.9204 0.9223 0.9244
675.000000 0.9268 0.9280 0.9286 0.9289 0.9289
670.000000 0.9289 0.9294 0.9299 0.9302
##END=
