##TITLE=MALEIC ACID, POTASSIUM SALT
##JCAMP-DX=4.24
##DATA TYPE=INFRARED SPECTRUM
##CLASS=COBLENTZ
##ORIGIN=STANDARD OIL OF OHIO
##OWNER=COBLENTZ SOCIETY
Collection (C) 2018 copyright by the U.S. Secretary of Commerce
on behalf of the United States of America. All rights reserved.
##DATE=Not specified, most likely prior to 1970
##MOLFORM=C4 H2 O4 K2
##SOURCE REFERENCE=COBLENTZ NO. 2528
##$NIST ID=B6002528
##$NIST SOURCE=COBLENTZ
##$NIST IMAGE=cob2528
##SPECTROMETER/DATA SYSTEM=PERKIN-ELMER
##STATE=SOLID (KBr PELLET)
##SAMPLING PROCEDURE=TRANSMISSION
##RESOLUTION=4
##DATA PROCESSING=DIGITIZED BY NIST FROM HARD COPY
##XUNITS=MICROMETERS
##YUNITS=TRANSMITTANCE
##XFACTOR=1.000000
##YFACTOR=1
##DELTAX=000.006722
##FIRSTX=2.04
##LASTX=15.3634
##FIRSTY=0.838
##MAXX=15.3634
##MINX=2.04
##MAXY=0.872
##MINY=0.001
##NPOINTS=1983
##XYDATA=(X++(Y..Y))
2.040000 0.8380 0.8400 0.8400 0.8400 0.8400
2.073626 0.8400 0.8400 0.8400 0.8420 0.8420
2.108000 0.8420 0.8420 0.8420 0.8420 0.8420
2.141626 0.8440 0.8440 0.8440 0.8440 0.8440
2.175000 0.8440 0.8440 0.8440 0.8440 0.8440
2.208626 0.8440 0.8440 0.8450 0.8440 0.8440
2.242000 0.8440 0.8440 0.8440 0.8450 0.8450
2.275626 0.8450 0.8470 0.8470 0.8470 0.8470
2.309000 0.8490 0.8490 0.8490 0.8490 0.8490
2.342626 0.8500 0.8500 0.8500 0.8500 0.8500
2.376000 0.8500 0.8500 0.8500 0.8500 0.8500
2.409626 0.8500 0.8500 0.8500 0.8500 0.8520
2.444000 0.8520 0.8520 0.8520 0.8520 0.8520
2.477626 0.8520 0.8520 0.8520 0.8520 0.8520
2.511000 0.8520 0.8520 0.8520 0.8520 0.8520
2.544626 0.8520 0.8520 0.8500 0.8500 0.8500
2.578000 0.8500 0.8500 0.8520 0.8520 0.8520
2.611626 0.8520 0.8520 0.8520 0.8520 0.8520
2.645000 0.8520 0.8520 0.8520 0.8520 0.8500
2.678626 0.8500 0.8490 0.8490 0.8470 0.8450
2.713000 0.8420 0.8380 0.8350 0.8320 0.8220
2.746626 0.8030 0.7770 0.7470 0.7110 0.6740
2.780000 0.6540 0.6320 0.5910 0.5490 0.5100
2.813626 0.4740 0.4540 0.4250 0.4030 0.3880
2.847000 0.3740 0.3610 0.3420 0.3330 0.3280
2.880626 0.3230 0.3150 0.3080 0.3060 0.3060
2.914000 0.3060 0.3100 0.3220 0.3500 0.3660
2.947626 0.3790 0.3960 0.4230 0.4740 0.4980
2.981000 0.5150 0.5320 0.5500 0.5660 0.5770
3.014626 0.5860 0.5940 0.6050 0.6130 0.6230
3.049000 0.6350 0.6470 0.6540 0.6740 0.6830
3.082626 0.6890 0.6980 0.7030 0.7110 0.7160
3.116000 0.7230 0.7280 0.7330 0.7400 0.7490
3.149626 0.7540 0.7590 0.7640 0.7690 0.7710
3.183000 0.7740 0.7770 0.7810 0.7830 0.7830
3.216626 0.7840 0.7860 0.7860 0.7860 0.7860
3.250000 0.7840 0.7830 0.7710 0.7550 0.7490
3.283626 0.7420 0.7370 0.7350 0.7350 0.7350
3.317000 0.7370 0.7450 0.7490 0.7500 0.7540
3.350626 0.7550 0.7570 0.7620 0.7660 0.7740
3.385000 0.7790 0.7890 0.7980 0.8000 0.8010
3.418626 0.8050 0.8060 0.8080 0.8100 0.8100
3.452000 0.8110 0.8110 0.8130 0.8150 0.8160
3.485626 0.8220 0.8250 0.8280 0.8330 0.8370
3.519000 0.8380 0.8420 0.8440 0.8440 0.8470
3.552626 0.8500 0.8500 0.8520 0.8520 0.8540
3.586000 0.8540 0.8550 0.8550 0.8550 0.8550
3.619626 0.8550 0.8570 0.8570 0.8590 0.8610
3.654000 0.8610 0.8610 0.8610 0.8610 0.8610
3.687626 0.8610 0.8610 0.8610 0.8620 0.8620
3.721000 0.8620 0.8620 0.8620 0.8660 0.8660
3.754626 0.8660 0.8670 0.8670 0.8670 0.8670
3.788000 0.8670 0.8690 0.8690 0.8670 0.8670
3.821626 0.8670 0.8670 0.8670 0.8670 0.8670
3.855000 0.8670 0.8670 0.8690 0.8690 0.8690
3.888626 0.8690 0.8710 0.8710 0.8710 0.8710
3.922000 0.8720 0.8720 0.8720 0.8720 0.8710
3.955626 0.8710 0.8710 0.8710 0.8690 0.8690
3.990000 0.8690 0.8670 0.8670 0.8660 0.8640
4.023626 0.8620 0.8620 0.8610 0.8610 0.8590
4.057000 0.8590 0.8590 0.8590 0.8570 0.8570
4.090626 0.8570 0.8590 0.8590 0.8590 0.8590
4.124000 0.8590 0.8590 0.8590 0.8590 0.8590
4.157626 0.8590 0.8590 0.8590 0.8590 0.8590
4.191000 0.8590 0.8590 0.8590 0.8590 0.8590
4.224626 0.8590 0.8590 0.8590 0.8590 0.8570
4.259000 0.8570 0.8570 0.8570 0.8570 0.8570
4.292626 0.8570 0.8570 0.8570 0.8570 0.8570
4.326000 0.8570 0.8570 0.8570 0.8570 0.8570
4.359626 0.8570 0.8570 0.8570 0.8570 0.8570
4.393000 0.8570 0.8570 0.8570 0.8570 0.8570
4.426626 0.8570 0.8570 0.8590 0.8590 0.8590
4.460000 0.8590 0.8590 0.8570 0.8570 0.8550
4.493626 0.8550 0.8540 0.8520 0.8520 0.8500
4.527000 0.8500 0.8500 0.8500 0.8500 0.8500
4.560626 0.8500 0.8500 0.8500 0.8500 0.8500
4.595000 0.8500 0.8490 0.8470 0.8470 0.8450
4.628626 0.8450 0.8450 0.8440 0.8440 0.8440
4.662000 0.8420 0.8420 0.8400 0.8400 0.8400
4.695626 0.8400 0.8380 0.8380 0.8370 0.8370
4.729000 0.8370 0.8370 0.8350 0.8330 0.8330
4.762626 0.8320 0.8320 0.8320 0.8300 0.8300
4.796000 0.8300 0.8300 0.8280 0.8280 0.8280
4.829626 0.8280 0.8270 0.8270 0.8270 0.8270
4.863000 0.8250 0.8250 0.8250 0.8250 0.8230
4.896626 0.8230 0.8230 0.8220 0.8220 0.8220
4.931000 0.8200 0.8200 0.8200 0.8180 0.8180
4.964626 0.8180 0.8160 0.8160 0.8160 0.8150
4.998000 0.8150 0.8130 0.8130 0.8130 0.8110
5.031626 0.8110 0.8110 0.8100 0.8100 0.8100
5.065000 0.8100 0.8080 0.8080 0.8080 0.8080
5.098626 0.8060 0.8060 0.8050 0.8030 0.8030
5.132000 0.8030 0.8010 0.8010 0.8010 0.8010
5.165626 0.8000 0.8000 0.8000 0.8000 0.7980
5.200000 0.7960 0.7960 0.7940 0.7940 0.7930
5.233626 0.7940 0.7940 0.7930 0.7910 0.7910
5.267000 0.7890 0.7890 0.7890 0.7880 0.7860
5.300626 0.7840 0.7830 0.7810 0.7790 0.7770
5.334000 0.7760 0.7740 0.7720 0.7710 0.7690
5.367626 0.7670 0.7660 0.7660 0.7620 0.7610
5.401000 0.7590 0.7570 0.7540 0.7540 0.7520
5.434626 0.7500 0.7500 0.7490 0.7450 0.7420
5.468000 0.7400 0.7400 0.7380 0.7370 0.7330
5.501626 0.7300 0.7280 0.7270 0.7250 0.7220
5.536000 0.7180 0.7160 0.7130 0.7100 0.7080
5.569626 0.7060 0.7030 0.7010 0.7010 0.6940
5.603000 0.6890 0.6860 0.6830 0.6790 0.6740
5.636626 0.6710 0.6670 0.6660 0.6620 0.6550
5.670000 0.6520 0.6490 0.6420 0.6350 0.6300
5.703626 0.6250 0.6180 0.6110 0.6050 0.6010
5.737000 0.5980 0.5930 0.5860 0.5810 0.5770
5.770626 0.5720 0.5670 0.5610 0.5540 0.5520
5.805000 0.5490 0.5420 0.5370 0.5320 0.5250
5.838626 0.5200 0.5130 0.5080 0.5010 0.4980
5.872000 0.4890 0.4830 0.4790 0.4720 0.4660
5.905626 0.4570 0.4500 0.4420 0.4320 0.4230
5.939000 0.4130 0.4010 0.3890 0.3760 0.3620
5.972626 0.3450 0.3370 0.3280 0.3080 0.2860
6.006000 0.2660 0.2470 0.2270 0.2100 0.1940
6.039626 0.1790 0.1670 0.1590 0.1500 0.1420
6.073000 0.1380 0.1330 0.1300 0.1270 0.1250
6.106626 0.1220 0.1180 0.1130 0.1050 0.1030
6.141000 0.0980 0.0860 0.0770 0.0670 0.0540
6.174626 0.0420 0.0300 0.0220 0.0150 0.0110
6.208000 0.0110 0.0100 0.0060 0.0060 0.0050
6.241626 0.0030 0.0010 0.0010 0.0010 0.0010
6.275000 0.0010 0.0010 0.0010 0.0010 0.0010
6.308626 0.0010 0.0010 0.0010 0.0010 0.0010
6.342000 0.0010 0.0010 0.0010 0.0010 0.0010
6.375626 0.0010 0.0010 0.0010 0.0010 0.0010
6.410000 0.0030 0.0030 0.0030 0.0050 0.0060
6.443626 0.0060 0.0080 0.0100 0.0130 0.0250
6.477000 0.0330 0.0500 0.0690 0.0860 0.1000
6.510626 0.1130 0.1250 0.1300 0.1380 0.1470
6.544000 0.1590 0.1810 0.2050 0.2280 0.2590
6.577626 0.2790 0.2890 0.2980 0.3000 0.3050
6.611000 0.3130 0.3230 0.3470 0.3540 0.3670
6.644626 0.3790 0.3910 0.4010 0.4100 0.4200
6.678000 0.4280 0.4380 0.4490 0.4590 0.4880
6.711626 0.5080 0.5180 0.5230 0.5270 0.5320
6.746000 0.5330 0.5350 0.5370 0.5380 0.5380
6.779626 0.5370 0.5370 0.5330 0.5320 0.5270
6.813000 0.5220 0.5150 0.5100 0.5030 0.5010
6.846626 0.4940 0.4830 0.4670 0.4500 0.4320
6.880000 0.4110 0.3890 0.3640 0.3370 0.3230
6.913626 0.3080 0.2770 0.2440 0.2080 0.1610
6.947000 0.1280 0.1110 0.1000 0.0910 0.0770
6.980626 0.0710 0.0640 0.0610 0.0550 0.0540
7.014000 0.0520 0.0520 0.0570 0.0660 0.0760
7.047626 0.0860 0.1030 0.1110 0.1200 0.1200
7.082000 0.1080 0.0880 0.0790 0.0720 0.0670
7.115626 0.0640 0.0610 0.0570 0.0540 0.0500
7.149000 0.0350 0.0320 0.0110 0.0080 0.0060
7.182626 0.0050 0.0050 0.0060 0.0110 0.0220
7.216000 0.0300 0.0450 0.0640 0.1130 0.1350
7.249626 0.1570 0.1710 0.1810 0.1930 0.2050
7.283000 0.2200 0.2370 0.2540 0.2710 0.2880
7.316626 0.3050 0.3180 0.3500 0.3670 0.3910
7.351000 0.4050 0.4200 0.4320 0.4450 0.4690
7.384626 0.5030 0.5280 0.5450 0.5590 0.5690
7.418000 0.5790 0.5890 0.6030 0.6200 0.6300
7.451626 0.6380 0.6470 0.6540 0.6590 0.6640
7.485000 0.6710 0.6760 0.6770 0.6770 0.6740
7.518626 0.6710 0.6660 0.6470 0.5640 0.4860
7.552000 0.4590 0.4270 0.3760 0.3400 0.3030
7.585626 0.2330 0.1910 0.1590 0.1250 0.0930
7.619000 0.0690 0.0490 0.0400 0.0350 0.0330
7.652626 0.0330 0.0450 0.1080 0.1320 0.1590
7.687000 0.1760 0.1940 0.2080 0.2490 0.2910
7.720626 0.3200 0.3640 0.3830 0.4000 0.4180
7.754000 0.4380 0.4570 0.4790 0.5000 0.5160
7.787626 0.5350 0.5520 0.5720 0.5930 0.6050
7.821000 0.6110 0.6200 0.6300 0.6370 0.6420
7.854626 0.6490 0.6520 0.6570 0.6620 0.6660
7.888000 0.6740 0.6770 0.6830 0.6860 0.6890
7.921626 0.6960 0.7000 0.7000 0.7010 0.7050
7.956000 0.7080 0.7110 0.7150 0.7180 0.7200
7.989626 0.7230 0.7270 0.7300 0.7320 0.7320
8.023000 0.7350 0.7380 0.7400 0.7420 0.7470
8.056626 0.7490 0.7490 0.7500 0.7520 0.7550
8.090000 0.7590 0.7620 0.7640 0.7660 0.7690
8.123626 0.7710 0.7710 0.7720 0.7740 0.7740
8.157000 0.7740 0.7740 0.7740 0.7740 0.7740
8.190626 0.7740 0.7740 0.7740 0.7760 0.7760
8.224000 0.7760 0.7760 0.7770 0.7770 0.7790
8.257626 0.7790 0.7810 0.7810 0.7840 0.7860
8.292000 0.7860 0.7860 0.7840 0.7830 0.7790
8.325626 0.7670 0.7540 0.7400 0.7160 0.6940
8.359000 0.6740 0.6640 0.6540 0.6350 0.6160
8.392626 0.6010 0.5880 0.5740 0.5570 0.5450
8.426000 0.5440 0.5450 0.5470 0.5620 0.5740
8.459626 0.5930 0.6220 0.6370 0.6490 0.6610
8.493000 0.6740 0.6770 0.6770 0.6760 0.6740
8.526626 0.6740 0.6790 0.6890 0.7000 0.7180
8.560000 0.7330 0.7470 0.7540 0.7640 0.7720
8.593626 0.7790 0.7840 0.7880 0.7910 0.7940
8.628000 0.8000 0.8010 0.8030 0.8030 0.8050
8.661626 0.8060 0.8080 0.8080 0.8110 0.8130
8.695000 0.8130 0.8150 0.8160 0.8160 0.8180
8.728626 0.8180 0.8200 0.8220 0.8220 0.8220
8.762000 0.8230 0.8230 0.8230 0.8230 0.8230
8.795626 0.8230 0.8230 0.8220 0.8200 0.8180
8.829000 0.8150 0.8110 0.8060 0.8030 0.8000
8.862626 0.7980 0.7980 0.7980 0.7980 0.8000
8.897000 0.8000 0.8010 0.8010 0.8030 0.8050
8.930626 0.8060 0.8080 0.8100 0.8100 0.8110
8.964000 0.8110 0.8110 0.8110 0.8110 0.8110
8.997626 0.8130 0.8130 0.8150 0.8160 0.8160
9.031000 0.8180 0.8180 0.8200 0.8220 0.8230
9.064626 0.8230 0.8250 0.8250 0.8250 0.8270
9.098000 0.8270 0.8280 0.8280 0.8280 0.8300
9.131626 0.8300 0.8300 0.8280 0.8280 0.8280
9.165000 0.8270 0.8270 0.8280 0.8280 0.8280
9.198626 0.8280 0.8280 0.8280 0.8300 0.8300
9.233000 0.8300 0.8320 0.8320 0.8320 0.8330
9.266626 0.8330 0.8350 0.8350 0.8370 0.8380
9.300000 0.8400 0.8400 0.8420 0.8420 0.8440
9.333626 0.8440 0.8450 0.8450 0.8470 0.8490
9.367000 0.8490 0.8490 0.8490 0.8500 0.8500
9.400626 0.8500 0.8520 0.8520 0.8520 0.8520
9.434000 0.8540 0.8540 0.8540 0.8540 0.8540
9.467626 0.8540 0.8540 0.8540 0.8540 0.8540
9.502000 0.8540 0.8540 0.8540 0.8540 0.8520
9.535626 0.8520 0.8520 0.8520 0.8520 0.8540
9.569000 0.8540 0.8540 0.8520 0.8520 0.8520
9.602626 0.8520 0.8520 0.8520 0.8520 0.8520
9.636000 0.8500 0.8500 0.8500 0.8500 0.8500
9.669626 0.8500 0.8500 0.8500 0.8500 0.8500
9.703000 0.8500 0.8500 0.8500 0.8500 0.8520
9.736626 0.8520 0.8520 0.8520 0.8520 0.8520
9.770000 0.8520 0.8520 0.8520 0.8520 0.8540
9.803626 0.8540 0.8550 0.8550 0.8550 0.8550
9.838000 0.8550 0.8550 0.8570 0.8570 0.8570
9.871626 0.8590 0.8590 0.8590 0.8590 0.8590
9.905000 0.8590 0.8590 0.8590 0.8570 0.8570
9.938626 0.8570 0.8540 0.8540 0.8520 0.8500
9.972000 0.8490 0.8470 0.8440 0.8420 0.8370
10.005626 0.8300 0.8230 0.8130 0.8030 0.7860
10.039000 0.7830 0.7740 0.7690 0.7640 0.7570
10.072626 0.7520 0.7500 0.7490 0.7470 0.7470
10.107000 0.7470 0.7490 0.7490 0.7500 0.7520
10.140626 0.7540 0.7570 0.7610 0.7640 0.7660
10.174000 0.7670 0.7690 0.7670 0.7620 0.7520
10.207626 0.7450 0.7300 0.7050 0.6890 0.6760
10.241000 0.6710 0.6660 0.6640 0.6660 0.6770
10.274626 0.6860 0.6930 0.7010 0.7110 0.7200
10.308000 0.7300 0.7400 0.7500 0.7590 0.7660
10.341626 0.7720 0.7790 0.7830 0.7880 0.7910
10.375000 0.7980 0.8010 0.8030 0.8060 0.8110
10.408626 0.8130 0.8160 0.8180 0.8220 0.8230
10.443000 0.8250 0.8270 0.8270 0.8270 0.8270
10.476626 0.8270 0.8230 0.8220 0.8200 0.8160
10.510000 0.8150 0.8110 0.8050 0.8010 0.8000
10.543626 0.8000 0.8000 0.8000 0.8010 0.8030
10.577000 0.8050 0.8110 0.8180 0.8220 0.8270
10.610626 0.8300 0.8330 0.8370 0.8400 0.8440
10.644000 0.8470 0.8490 0.8500 0.8500 0.8520
10.677626 0.8520 0.8550 0.8570 0.8590 0.8590
10.711000 0.8590 0.8610 0.8610 0.8620 0.8620
10.744626 0.8640 0.8660 0.8660 0.8670 0.8670
10.779000 0.8690 0.8690 0.8690 0.8690 0.8690
10.812626 0.8710 0.8710 0.8710 0.8710 0.8720
10.846000 0.8720 0.8720 0.8720 0.8720 0.8720
10.879626 0.8720 0.8720 0.8720 0.8720 0.8710
10.913000 0.8710 0.8710 0.8710 0.8710 0.8710
10.946626 0.8710 0.8690 0.8690 0.8670 0.8670
10.980000 0.8670 0.8670 0.8670 0.8660 0.8640
11.013626 0.8640 0.8620 0.8610 0.8590 0.8550
11.048000 0.8540 0.8500 0.8500 0.8490 0.8470
11.081626 0.8400 0.8370 0.8330 0.8250 0.8100
11.115000 0.7910 0.7400 0.6860 0.6710 0.6540
11.148626 0.6350 0.6330 0.6330 0.6350 0.6400
11.182000 0.6450 0.6490 0.6490 0.6270 0.6000
11.215626 0.5690 0.5520 0.5350 0.5200 0.5110
11.249000 0.4980 0.4960 0.4960 0.5080 0.5270
11.282626 0.5380 0.5570 0.5860 0.6200 0.6610
11.316000 0.7300 0.7420 0.7500 0.7550 0.7620
11.349626 0.7690 0.7760 0.7830 0.7860 0.7890
11.384000 0.7930 0.7960 0.7980 0.8000 0.8010
11.417626 0.8010 0.8030 0.8030 0.8050 0.8050
11.451000 0.8050 0.8030 0.8010 0.8000 0.7980
11.484626 0.7930 0.7840 0.7720 0.7570 0.7380
11.518000 0.7110 0.6720 0.6450 0.6160 0.5830
11.551626 0.5520 0.5270 0.5010 0.4810 0.4610
11.585000 0.4220 0.4000 0.3790 0.3540 0.3380
11.618626 0.3330 0.3330 0.3330 0.3330 0.3350
11.653000 0.3400 0.3490 0.3540 0.3640 0.3710
11.686626 0.3720 0.3740 0.3720 0.3640 0.3470
11.720000 0.3330 0.3270 0.3180 0.3160 0.3160
11.753626 0.3160 0.3200 0.3300 0.3520 0.3690
11.787000 0.3860 0.4050 0.4250 0.4570 0.4880
11.820626 0.5060 0.5200 0.5380 0.5590 0.5830
11.854000 0.6060 0.6320 0.6550 0.6980 0.7060
11.887626 0.7160 0.7250 0.7320 0.7380 0.7450
11.921000 0.7500 0.7520 0.7550 0.7640 0.7670
11.954626 0.7710 0.7710 0.7690 0.7690 0.7690
11.989000 0.7670 0.7660 0.7620 0.7610 0.7540
12.022626 0.7470 0.7330 0.7160 0.6940 0.6790
12.056000 0.6620 0.6400 0.6110 0.5930 0.5770
12.089626 0.5670 0.5570 0.5500 0.5450 0.5450
12.123000 0.5440 0.5440 0.5450 0.5500 0.5520
12.156626 0.5550 0.5640 0.5720 0.5830 0.5910
12.190000 0.6010 0.6100 0.6180 0.6250 0.6330
12.223626 0.6380 0.6450 0.6500 0.6570 0.6620
12.257000 0.6720 0.6760 0.6770 0.6790 0.6810
12.290626 0.6810 0.6810 0.6810 0.6810 0.6810
12.325000 0.6810 0.6810 0.6810 0.6810 0.6810
12.358626 0.6810 0.6810 0.6810 0.6810 0.6810
12.392000 0.6810 0.6830 0.6830 0.6830 0.6830
12.425626 0.6830 0.6830 0.6840 0.6840 0.6860
12.459000 0.6860 0.6860 0.6880 0.6880 0.6890
12.492626 0.6890 0.6910 0.6910 0.6910 0.6910
12.526000 0.6890 0.6890 0.6910 0.6910 0.6910
12.559626 0.6910 0.6930 0.6930 0.6940 0.6940
12.594000 0.7000 0.7010 0.7010 0.7010 0.7030
12.627626 0.7050 0.7080 0.7110 0.7150 0.7180
12.661000 0.7200 0.7220 0.7230 0.7230 0.7230
12.694626 0.7230 0.7220 0.7220 0.7200 0.7180
12.728000 0.7160 0.7110 0.7050 0.7000 0.6930
12.761626 0.6840 0.6760 0.6670 0.6640 0.6590
12.795000 0.6520 0.6450 0.6400 0.6330 0.6300
12.828626 0.6300 0.6300 0.6300 0.6320 0.6350
12.862000 0.6400 0.6470 0.6550 0.6660 0.6830
12.895626 0.6910 0.7000 0.7010 0.7050 0.7100
12.930000 0.7130 0.7200 0.7250 0.7300 0.7330
12.963626 0.7370 0.7400 0.7470 0.7500 0.7540
12.997000 0.7590 0.7620 0.7670 0.7710 0.7740
13.030626 0.7770 0.7810 0.7840 0.7860 0.7910
13.064000 0.8000 0.8010 0.8010 0.8030 0.8050
13.097626 0.8080 0.8100 0.8130 0.8150 0.8180
13.131000 0.8200 0.8220 0.8230 0.8250 0.8250
13.164626 0.8280 0.8280 0.8300 0.8320 0.8320
13.199000 0.8320 0.8330 0.8330 0.8330 0.8330
13.232626 0.8330 0.8330 0.8330 0.8330 0.8330
13.266000 0.8350 0.8350 0.8370 0.8370 0.8370
13.299626 0.8370 0.8370 0.8370 0.8370 0.8350
13.333000 0.8350 0.8350 0.8350 0.8350 0.8350
13.366626 0.8350 0.8350 0.8350 0.8330 0.8320
13.400000 0.8280 0.8250 0.8230 0.8220 0.8180
13.433626 0.8160 0.8130 0.8110 0.8080 0.8030
13.467000 0.8010 0.7980 0.7940 0.7940 0.7880
13.500626 0.7860 0.7860 0.7860 0.7860 0.7880
13.535000 0.7880 0.7890 0.7890 0.7910 0.7980
13.568626 0.8010 0.8010 0.8060 0.8100 0.8110
13.602000 0.8150 0.8160 0.8200 0.8220 0.8230
13.635626 0.8250 0.8270 0.8270 0.8280 0.8300
13.669000 0.8300 0.8320 0.8320 0.8320 0.8320
13.702626 0.8330 0.8330 0.8330 0.8350 0.8370
13.736000 0.8370 0.8380 0.8380 0.8380 0.8380
13.769626 0.8380 0.8380 0.8380 0.8380 0.8400
13.804000 0.8400 0.8400 0.8400 0.8400 0.8400
13.837626 0.8400 0.8400 0.8400 0.8400 0.8400
13.871000 0.8400 0.8400 0.8400 0.8400 0.8400
13.904626 0.8400 0.8420 0.8420 0.8420 0.8420
13.938000 0.8420 0.8420 0.8420 0.8420 0.8440
13.971626 0.8440 0.8450 0.8450 0.8450 0.8450
14.005000 0.8470 0.8470 0.8450 0.8450 0.8450
14.038626 0.8450 0.8450 0.8450 0.8450 0.8450
14.072000 0.8440 0.8440 0.8440 0.8440 0.8440
14.105626 0.8440 0.8440 0.8440 0.8420 0.8420
14.140000 0.8420 0.8420 0.8420 0.8420 0.8420
14.173626 0.8420 0.8400 0.8400 0.8380 0.8380
14.207000 0.8380 0.8370 0.8370 0.8370 0.8370
14.240626 0.8350 0.8350 0.8350 0.8350 0.8350
14.274000 0.8350 0.8350 0.8330 0.8330 0.8330
14.307626 0.8330 0.8320 0.8320 0.8320 0.8320
14.341000 0.8300 0.8300 0.8300 0.8300 0.8300
14.374626 0.8300 0.8300 0.8280 0.8280 0.8270
14.408000 0.8270 0.8250 0.8230 0.8220 0.8200
14.441626 0.8180 0.8160 0.8150 0.8130 0.8110
14.476000 0.8100 0.8080 0.8080 0.8060 0.8010
14.509626 0.8010 0.8000 0.8000 0.7980 0.7960
14.543000 0.7940 0.7910 0.7880 0.7840 0.7830
14.576626 0.7830 0.7830 0.7810 0.7810 0.7810
14.610000 0.7790 0.7790 0.7770 0.7760 0.7740
14.643626 0.7720 0.7710 0.7660 0.7620 0.7590
14.677000 0.7550 0.7500 0.7470 0.7370 0.7320
14.710626 0.7230 0.7150 0.7050 0.6980 0.6810
14.745000 0.6670 0.6590 0.6500 0.6320 0.6130
14.778626 0.5980 0.5830 0.5710 0.5570 0.5450
14.812000 0.5330 0.5220 0.5100 0.4960 0.4790
14.845626 0.4660 0.4500 0.4380 0.4250 0.4150
14.879000 0.4050 0.3980 0.3930 0.3890 0.3840
14.912626 0.3830 0.3830 0.3830 0.3830 0.3830
14.946000 0.3830 0.3840 0.3890 0.3980 0.4050
14.979626 0.4180 0.4400 0.4660 0.4940 0.5230
15.013000 0.5420 0.5690 0.5830 0.6000 0.6110
15.046626 0.6220 0.6350 0.6440 0.6500 0.6550
15.081000 0.6640 0.6710 0.6740 0.6790 0.6830
15.114626 0.6860 0.6880 0.6890 0.6930 0.6940
15.148000 0.7000 0.7010 0.7010 0.7030 0.7060
15.181626 0.7060 0.7080 0.7100 0.7100 0.7110
15.215000 0.7130 0.7130 0.7150 0.7150 0.7160
15.248626 0.7160 0.7160 0.7180 0.7180 0.7180
15.282000 0.7180 0.7180 0.7180 0.7180 0.7180
15.315626 0.7180 0.7180 0.7160 0.7160 0.7160
15.350000 0.7160 0.7160 0.7160
##END=
