##TITLE=SILVER CYANATE
$$ C.P.
##JCAMP-DX=4.24
##DATA TYPE=INFRARED SPECTRUM
##CLASS=COBLENTZ
##ORIGIN=MELLON INSTITUTE
##OWNER=COBLENTZ SOCIETY
Collection (C) 2018 copyright by the U.S. Secretary of Commerce
on behalf of the United States of America. All rights reserved.
##DATE=Not specified, most likely prior to 1970
##MOLFORM=Ag O C N
##SOURCE REFERENCE=COBLENTZ NO. 567
##$NIST ID=B6000567
##$NIST SOURCE=COBLENTZ
##$NIST IMAGE=cob567
##SPECTROMETER/DATA SYSTEM=Not specified, most likely a prism, grating, or hybrid spectrometer.
##STATE=SOLID (NUJOL MULL)
$$ HIGHEST PURITY
##PATH LENGTH=
$$SPECTRAL CONTAMINATION DUE TO OIL AROUND 2900, 1450, 1380 CM^-^1
##SAMPLING PROCEDURE=TRANSMISSION
##RESOLUTION=4
##DATA PROCESSING=DIGITIZED BY NIST FROM HARD COPY
##XUNITS=MICROMETERS
##YUNITS=TRANSMITTANCE
##XFACTOR=1.000000
##YFACTOR=1
##DELTAX=000.006643
##FIRSTX=2.03
##LASTX=15.9989
##FIRSTY=0.718
##MAXX=15.9989
##MINX=2.03
##MAXY=1.016
##MINY=0.075
##NPOINTS=2104
##XYDATA=(X++(Y..Y))
2.030000 0.7180 0.7180 0.7200 0.7200 0.7210
2.063228 0.7230 0.7250 0.7250 0.7260 0.7280
2.097000 0.7300 0.7300 0.7310 0.7310 0.7330
2.130228 0.7350 0.7350 0.7370 0.7370 0.7380
2.163000 0.7380 0.7420 0.7430 0.7430 0.7450
2.196228 0.7470 0.7500 0.7520 0.7530 0.7550
2.229000 0.7550 0.7550 0.7570 0.7570 0.7570
2.262228 0.7570 0.7580 0.7580 0.7600 0.7600
2.296000 0.7600 0.7600 0.7620 0.7620 0.7600
2.329228 0.7620 0.7620 0.7620 0.7630 0.7630
2.362000 0.7630 0.7630 0.7650 0.7670 0.7670
2.395228 0.7680 0.7680 0.7700 0.7700 0.7720
2.429000 0.7720 0.7730 0.7730 0.7750 0.7770
2.462228 0.7780 0.7800 0.7820 0.7830 0.7850
2.495000 0.7870 0.7880 0.7900 0.7920 0.7930
2.528228 0.7950 0.7950 0.7950 0.7950 0.7950
2.562000 0.7950 0.7950 0.7950 0.7950 0.7950
2.595228 0.7950 0.7970 0.7970 0.7980 0.8000
2.628000 0.8000 0.8020 0.8070 0.8100 0.8100
2.661228 0.8100 0.8100 0.8100 0.8100 0.8100
2.694000 0.8100 0.8100 0.8120 0.8120 0.8120
2.727228 0.8100 0.8100 0.8100 0.8100 0.8100
2.761000 0.8090 0.8070 0.8070 0.8070 0.8070
2.794228 0.8070 0.8070 0.8050 0.8050 0.8040
2.827000 0.8040 0.8040 0.8020 0.8000 0.7970
2.860228 0.7830 0.7680 0.7480 0.7350 0.7250
2.894000 0.7230 0.7230 0.7250 0.7310 0.7400
2.927228 0.7420 0.7450 0.7480 0.7530 0.7630
2.960000 0.7700 0.7730 0.7800 0.7820 0.7820
2.993228 0.7870 0.7900 0.7930 0.7970 0.8000
3.027000 0.8020 0.8040 0.8050 0.8090 0.8100
3.060228 0.8120 0.8140 0.8150 0.8170 0.8190
3.093000 0.8190 0.8200 0.8200 0.8220 0.8220
3.126228 0.8220 0.8240 0.8240 0.8250 0.8270
3.159000 0.8290 0.8290 0.8300 0.8300 0.8300
3.192228 0.8320 0.8320 0.8320 0.8340 0.8340
3.226000 0.8340 0.8340 0.8340 0.8340 0.8340
3.259228 0.8340 0.8340 0.8340 0.8320 0.8250
3.292000 0.8170 0.8070 0.8000 0.7950 0.7750
3.325228 0.7420 0.7000 0.6330 0.5560 0.5040
3.359000 0.4500 0.3530 0.3190 0.2940 0.2680
3.392228 0.2310 0.2270 0.2290 0.2540 0.3040
3.425000 0.3330 0.3680 0.3930 0.4170 0.4220
3.458228 0.4220 0.4150 0.4100 0.4020 0.4000
3.492000 0.4020 0.5610 0.6390 0.6910 0.7570
3.525228 0.7880 0.8140 0.8320 0.8470 0.8590
3.558000 0.8670 0.8760 0.8840 0.8920 0.8970
3.591228 0.9010 0.9040 0.9060 0.9070 0.9070
3.624000 0.9090 0.9090 0.9110 0.9120 0.9120
3.657228 0.9120 0.9140 0.9140 0.9160 0.9160
3.691000 0.9160 0.9170 0.9170 0.9170 0.9190
3.724228 0.9190 0.9190 0.9190 0.9210 0.9210
3.757000 0.9210 0.9210 0.9210 0.9210 0.9190
3.790228 0.9190 0.9190 0.9190 0.9210 0.9220
3.824000 0.9240 0.9240 0.9260 0.9260 0.9290
3.857228 0.9310 0.9320 0.9320 0.9340 0.9360
3.890000 0.9380 0.9380 0.9380 0.9380 0.9380
3.923228 0.9390 0.9390 0.9390 0.9390 0.9390
3.957000 0.9390 0.9380 0.9380 0.9380 0.9380
3.990228 0.9390 0.9410 0.9430 0.9440 0.9460
4.023000 0.9480 0.9490 0.9490 0.9510 0.9510
4.056228 0.9510 0.9510 0.9510 0.9510 0.9510
4.089000 0.9510 0.9510 0.9510 0.9510 0.9510
4.122228 0.9510 0.9510 0.9510 0.9510 0.9510
4.156000 0.9490 0.9480 0.9480 0.9430 0.9430
4.189228 0.9410 0.9390 0.9380 0.9340 0.9310
4.222000 0.9270 0.9260 0.9240 0.9210 0.9190
4.255228 0.9170 0.9160 0.9140 0.9140 0.9120
4.289000 0.9110 0.9090 0.9070 0.9060 0.9040
4.322228 0.9040 0.9040 0.9020 0.9020 0.9010
4.355000 0.8920 0.8890 0.8790 0.8690 0.8520
4.388228 0.8390 0.7920 0.7450 0.7010 0.6510
4.421000 0.5790 0.5340 0.4870 0.4100 0.3460
4.454228 0.2940 0.2540 0.2210 0.1950 0.1740
4.488000 0.1590 0.1440 0.1300 0.1150 0.1070
4.521228 0.1000 0.0970 0.0920 0.0900 0.0850
4.554000 0.0830 0.0800 0.0800 0.0770 0.0750
4.587228 0.0750 0.0750 0.0750 0.0750 0.0750
4.621000 0.0770 0.0780 0.0780 0.0800 0.0820
4.654228 0.0830 0.0870 0.0900 0.0930 0.0970
4.687000 0.1030 0.1100 0.1200 0.1350 0.1520
4.720228 0.1740 0.2020 0.2360 0.2740 0.3110
4.754000 0.3400 0.3580 0.3750 0.3910 0.4080
4.787228 0.4250 0.4400 0.4550 0.4700 0.4850
4.820000 0.4990 0.5250 0.5370 0.5470 0.5590
4.853228 0.5690 0.5770 0.5860 0.5940 0.6010
4.886000 0.6060 0.6140 0.6280 0.6340 0.6410
4.919228 0.6480 0.6490 0.6540 0.6590 0.6640
4.953000 0.6710 0.6780 0.6850 0.6900 0.6910
4.986228 0.6930 0.6960 0.7010 0.7060 0.7110
5.019000 0.7150 0.7180 0.7210 0.7250 0.7280
5.052228 0.7330 0.7350 0.7380 0.7420 0.7470
5.086000 0.7520 0.7550 0.7600 0.7620 0.7630
5.119228 0.7650 0.7680 0.7700 0.7730 0.7750
5.152000 0.7770 0.7820 0.7850 0.7870 0.7880
5.185228 0.7880 0.7880 0.7880 0.7900 0.7980
5.219000 0.8020 0.8040 0.8040 0.8070 0.8100
5.252228 0.8100 0.8120 0.8150 0.8190 0.8200
5.285000 0.8220 0.8220 0.8240 0.8240 0.8250
5.318228 0.8240 0.8270 0.8270 0.8290 0.8300
5.351000 0.8320 0.8320 0.8340 0.8340 0.8340
5.384228 0.8340 0.8350 0.8350 0.8350 0.8350
5.418000 0.8340 0.8340 0.8340 0.8350 0.8370
5.451228 0.8400 0.8400 0.8400 0.8400 0.8420
5.484000 0.8400 0.8420 0.8420 0.8440 0.8450
5.517228 0.8450 0.8450 0.8490 0.8490 0.8500
5.551000 0.8500 0.8520 0.8540 0.8540 0.8540
5.584228 0.8550 0.8570 0.8570 0.8590 0.8590
5.617000 0.8590 0.8590 0.8600 0.8620 0.8620
5.650228 0.8640 0.8650 0.8670 0.8690 0.8710
5.684000 0.8710 0.8690 0.8710 0.8720 0.8720
5.717228 0.8720 0.8740 0.8740 0.8770 0.8770
5.750000 0.8770 0.8770 0.8770 0.8760 0.8740
5.783228 0.8740 0.8740 0.8740 0.8740 0.8740
5.816000 0.8760 0.8810 0.8840 0.8870 0.8870
5.849228 0.8870 0.8870 0.8870 0.8870 0.8870
5.883000 0.8890 0.8910 0.8890 0.8890 0.8890
5.916228 0.8890 0.8890 0.8890 0.8890 0.8910
5.949000 0.8910 0.8920 0.8920 0.8890 0.8890
5.982228 0.8890 0.8890 0.8890 0.8890 0.8890
6.016000 0.8890 0.8890 0.8890 0.8910 0.8940
6.049228 0.8940 0.8920 0.8910 0.8910 0.8890
6.082000 0.8890 0.8890 0.8910 0.8910 0.8910
6.115228 0.8910 0.8920 0.8920 0.8920 0.8960
6.149000 0.8960 0.8940 0.8960 0.8970 0.8990
6.182228 0.9010 0.9020 0.9020 0.9060 0.9060
6.215000 0.9070 0.9070 0.9090 0.9090 0.9110
6.248228 0.9110 0.9120 0.9140 0.9160 0.9170
6.281000 0.9170 0.9170 0.9170 0.9170 0.9170
6.314228 0.9170 0.9170 0.9160 0.9140 0.9120
6.348000 0.9120 0.9110 0.9110 0.9110 0.9110
6.381228 0.9120 0.9120 0.9140 0.9120 0.9110
6.414000 0.9090 0.9020 0.9020 0.9020 0.9040
6.447228 0.9040 0.9070 0.9090 0.9110 0.9120
6.481000 0.9120 0.9110 0.9110 0.9090 0.9070
6.514228 0.9040 0.9020 0.9020 0.9010 0.8990
6.547000 0.8990 0.8990 0.8990 0.8990 0.9010
6.580228 0.9010 0.9020 0.9040 0.9040 0.9040
6.614000 0.9010 0.9010 0.9010 0.9010 0.9010
6.647228 0.9020 0.9020 0.9020 0.9040 0.9020
6.680000 0.9060 0.9070 0.9070 0.9070 0.9040
6.713228 0.9020 0.9020 0.9010 0.9010 0.9010
6.746000 0.9010 0.8970 0.8940 0.8910 0.8840
6.779228 0.8790 0.8690 0.8520 0.8290 0.8050
6.813000 0.7820 0.7620 0.7430 0.7300 0.7180
6.846228 0.7110 0.7080 0.7030 0.7010 0.7010
6.879000 0.7010 0.7030 0.7080 0.7110 0.7150
6.912228 0.7200 0.7280 0.7380 0.7480 0.7550
6.946000 0.7620 0.7650 0.7700 0.7750 0.7850
6.979228 0.7970 0.8000 0.8120 0.8350 0.8420
7.012000 0.8450 0.8490 0.8490 0.8520 0.8540
7.045228 0.8550 0.8570 0.8600 0.8650 0.8710
7.079000 0.8770 0.8860 0.8920 0.8990 0.9010
7.112228 0.9020 0.9040 0.9040 0.9060 0.9060
7.145000 0.9060 0.9060 0.9060 0.9060 0.9040
7.178228 0.9020 0.9010 0.8970 0.8890 0.8810
7.211000 0.8720 0.8620 0.8500 0.8350 0.8240
7.244228 0.8170 0.8150 0.8150 0.8170 0.8190
7.278000 0.8200 0.8200 0.8220 0.8220 0.8220
7.311228 0.8220 0.8240 0.8250 0.8290 0.8300
7.344000 0.8300 0.8320 0.8290 0.8270 0.8150
7.377228 0.8120 0.8040 0.8000 0.7970 0.7900
7.411000 0.7870 0.7870 0.7870 0.7870 0.7870
7.444228 0.7870 0.7880 0.7930 0.7970 0.8020
7.477000 0.8070 0.8140 0.8190 0.8200 0.8240
7.510228 0.8250 0.8250 0.8270 0.8250 0.8240
7.543000 0.8220 0.8200 0.8140 0.8120 0.8000
7.576228 0.7820 0.7580 0.7330 0.7110 0.6930
7.610000 0.6830 0.6830 0.6810 0.6810 0.6810
7.643228 0.6810 0.6810 0.6850 0.6910 0.7010
7.676000 0.7110 0.7250 0.7380 0.7500 0.7630
7.709228 0.7730 0.7900 0.7970 0.8090 0.8190
7.743000 0.8270 0.8340 0.8390 0.8470 0.8490
7.776228 0.8500 0.8550 0.8570 0.8590 0.8590
7.809000 0.8600 0.8620 0.8620 0.8640 0.8670
7.842228 0.8710 0.8740 0.8760 0.8770 0.8790
7.876000 0.8810 0.8840 0.8860 0.8870 0.8910
7.909228 0.8940 0.8960 0.8970 0.9010 0.9020
7.942000 0.9040 0.9040 0.9060 0.9070 0.9090
7.975228 0.9090 0.9110 0.9120 0.9140 0.9140
8.008000 0.9170 0.9170 0.9190 0.9190 0.9210
8.041228 0.9210 0.9220 0.9220 0.9240 0.9240
8.075000 0.9260 0.9260 0.9270 0.9270 0.9270
8.108228 0.9270 0.9290 0.9270 0.9270 0.9270
8.141000 0.9270 0.9270 0.9290 0.9290 0.9290
8.174228 0.9290 0.9290 0.9290 0.9290 0.9290
8.208000 0.9270 0.9260 0.9220 0.9210 0.9190
8.241228 0.9170 0.9160 0.9140 0.9140 0.9140
8.274000 0.9140 0.9140 0.9140 0.9140 0.9160
8.307228 0.9160 0.9170 0.9170 0.9190 0.9190
8.341000 0.9210 0.9220 0.9220 0.9240 0.9240
8.374228 0.9260 0.9270 0.9270 0.9290 0.9290
8.407000 0.9310 0.9310 0.9320 0.9320 0.9320
8.440228 0.9320 0.9340 0.9340 0.9340 0.9340
8.473000 0.9340 0.9360 0.9360 0.9380 0.9390
8.506228 0.9380 0.9390 0.9390 0.9390 0.9390
8.540000 0.9410 0.9410 0.9410 0.9410 0.9430
8.573228 0.9430 0.9430 0.9410 0.9430 0.9430
8.606000 0.9430 0.9430 0.9430 0.9430 0.9440
8.639228 0.9440 0.9440 0.9440 0.9440 0.9440
8.673000 0.9440 0.9440 0.9440 0.9440 0.9440
8.706228 0.9440 0.9440 0.9440 0.9440 0.9440
8.739000 0.9430 0.9430 0.9430 0.9430 0.9430
8.772228 0.9430 0.9440 0.9440 0.9440 0.9440
8.806000 0.9440 0.9460 0.9460 0.9460 0.9460
8.839228 0.9460 0.9460 0.9480 0.9460 0.9440
8.872000 0.9440 0.9440 0.9440 0.9460 0.9460
8.905228 0.9460 0.9460 0.9480 0.9460 0.9460
8.938000 0.9460 0.9460 0.9460 0.9460 0.9460
8.971228 0.9460 0.9460 0.9460 0.9460 0.9460
9.005000 0.9460 0.9460 0.9460 0.9460 0.9460
9.038228 0.9460 0.9460 0.9460 0.9460 0.9480
9.071000 0.9480 0.9460 0.9460 0.9460 0.9460
9.104228 0.9440 0.9440 0.9440 0.9440 0.9440
9.138000 0.9440 0.9440 0.9440 0.9440 0.9440
9.171228 0.9440 0.9460 0.9460 0.9460 0.9460
9.204000 0.9460 0.9460 0.9460 0.9440 0.9440
9.237228 0.9440 0.9440 0.9440 0.9440 0.9440
9.271000 0.9440 0.9460 0.9460 0.9480 0.9480
9.304228 0.9480 0.9480 0.9480 0.9480 0.9480
9.337000 0.9480 0.9480 0.9480 0.9480 0.9440
9.370228 0.9440 0.9440 0.9440 0.9430 0.9430
9.403000 0.9430 0.9430 0.9430 0.9440 0.9440
9.436228 0.9440 0.9460 0.9460 0.9460 0.9460
9.470000 0.9440 0.9460 0.9460 0.9460 0.9460
9.503228 0.9460 0.9460 0.9480 0.9480 0.9480
9.536000 0.9480 0.9480 0.9480 0.9480 0.9490
9.569228 0.9490 0.9490 0.9490 0.9490 0.9510
9.603000 0.9510 0.9510 0.9510 0.9510 0.9530
9.636228 0.9510 0.9510 0.9510 0.9510 0.9530
9.669000 0.9530 0.9530 0.9530 0.9540 0.9540
9.702228 0.9560 0.9560 0.9560 0.9560 0.9580
9.736000 0.9560 0.9540 0.9540 0.9540 0.9540
9.769228 0.9540 0.9540 0.9540 0.9540 0.9540
9.802000 0.9560 0.9560 0.9560 0.9560 0.9560
9.835228 0.9560 0.9560 0.9560 0.9560 0.9560
9.868000 0.9580 0.9580 0.9580 0.9580 0.9580
9.901228 0.9580 0.9580 0.9580 0.9590 0.9590
9.935000 0.9590 0.9610 0.9610 0.9610 0.9630
9.968228 0.9630 0.9630 0.9630 0.9630 0.9630
10.001000 0.9630 0.9610 0.9610 0.9610 0.9610
10.034228 0.9590 0.9590 0.9590 0.9590 0.9590
10.068000 0.9590 0.9590 0.9590 0.9590 0.9590
10.101228 0.9590 0.9590 0.9590 0.9590 0.9590
10.134000 0.9590 0.9590 0.9590 0.9590 0.9590
10.167228 0.9590 0.9610 0.9610 0.9590 0.9590
10.200000 0.9590 0.9560 0.9540 0.9540 0.9540
10.233228 0.9540 0.9540 0.9540 0.9540 0.9540
10.267000 0.9540 0.9560 0.9560 0.9560 0.9580
10.300228 0.9580 0.9580 0.9580 0.9580 0.9580
10.333000 0.9580 0.9580 0.9580 0.9580 0.9580
10.366228 0.9580 0.9580 0.9580 0.9580 0.9580
10.400000 0.9580 0.9580 0.9590 0.9590 0.9590
10.433228 0.9590 0.9590 0.9590 0.9590 0.9590
10.466000 0.9610 0.9610 0.9610 0.9610 0.9610
10.499228 0.9610 0.9610 0.9630 0.9630 0.9630
10.533000 0.9630 0.9640 0.9640 0.9640 0.9640
10.566228 0.9640 0.9640 0.9640 0.9640 0.9640
10.599000 0.9640 0.9640 0.9640 0.9640 0.9640
10.632228 0.9640 0.9640 0.9640 0.9640 0.9640
10.665000 0.9640 0.9640 0.9640 0.9640 0.9640
10.698228 0.9640 0.9640 0.9640 0.9640 0.9640
10.732000 0.9640 0.9640 0.9660 0.9660 0.9680
10.765228 0.9680 0.9680 0.9690 0.9690 0.9690
10.798000 0.9690 0.9690 0.9690 0.9690 0.9690
10.831228 0.9690 0.9680 0.9680 0.9680 0.9680
10.865000 0.9680 0.9680 0.9690 0.9690 0.9690
10.898228 0.9710 0.9710 0.9710 0.9710 0.9710
10.931000 0.9730 0.9730 0.9730 0.9740 0.9760
10.964228 0.9760 0.9760 0.9780 0.9780 0.9780
10.998000 0.9780 0.9780 0.9780 0.9780 0.9780
11.031228 0.9780 0.9780 0.9780 0.9780 0.9780
11.064000 0.9780 0.9780 0.9780 0.9780 0.9790
11.097228 0.9790 0.9790 0.9810 0.9810 0.9810
11.130000 0.9810 0.9830 0.9830 0.9830 0.9830
11.163228 0.9830 0.9840 0.9840 0.9840 0.9840
11.197000 0.9860 0.9860 0.9860 0.9860 0.9880
11.230228 0.9880 0.9880 0.9890 0.9890 0.9890
11.263000 0.9890 0.9890 0.9910 0.9910 0.9910
11.296228 0.9910 0.9910 0.9930 0.9930 0.9930
11.330000 0.9930 0.9930 0.9940 0.9960 0.9960
11.363228 0.9960 0.9980 0.9980 0.9980 1.0000
11.396000 1.0000 1.0000 1.0000 1.0000 1.0010
11.429228 1.0010 1.0010 1.0010 1.0010 1.0010
11.463000 1.0030 1.0030 1.0030 1.0030 1.0050
11.496228 1.0050 1.0050 1.0050 1.0050 1.0050
11.529000 1.0060 1.0060 1.0060 1.0060 1.0060
11.562228 1.0060 1.0060 1.0060 1.0060 1.0060
11.595000 1.0060 1.0060 1.0060 1.0060 1.0060
11.628228 1.0060 1.0060 1.0060 1.0060 1.0060
11.662000 1.0060 1.0060 1.0060 1.0060 1.0060
11.695228 1.0060 1.0060 1.0060 1.0060 1.0060
11.728000 1.0060 1.0060 1.0080 1.0080 1.0080
11.761228 1.0080 1.0080 1.0100 1.0100 1.0100
11.795000 1.0100 1.0100 1.0100 1.0100 1.0110
11.828228 1.0110 1.0110 1.0110 1.0110 1.0130
11.861000 1.0130 1.0130 1.0130 1.0130 1.0130
11.894228 1.0150 1.0150 1.0150 1.0150 1.0150
11.928000 1.0150 1.0150 1.0150 1.0150 1.0150
11.961228 1.0150 1.0150 1.0150 1.0150 1.0150
11.994000 1.0150 1.0150 1.0150 1.0150 1.0150
12.027228 1.0150 1.0150 1.0150 1.0150 1.0150
12.060000 1.0150 1.0150 1.0150 1.0150 1.0150
12.093228 1.0150 1.0150 1.0150 1.0150 1.0150
12.127000 1.0150 1.0150 1.0150 1.0150 1.0150
12.160228 1.0150 1.0150 1.0150 1.0150 1.0150
12.193000 1.0160 1.0160 1.0160 1.0160 1.0160
12.226228 1.0160 1.0160 1.0160 1.0160 1.0160
12.260000 1.0160 1.0160 1.0160 1.0160 1.0160
12.293228 1.0160 1.0160 1.0160 1.0160 1.0160
12.326000 1.0160 1.0160 1.0160 1.0160 1.0160
12.359228 1.0160 1.0160 1.0160 1.0160 1.0160
12.393000 1.0160 1.0160 1.0160 1.0160 1.0160
12.426228 1.0160 1.0160 1.0160 1.0160 1.0160
12.459000 1.0160 1.0160 1.0160 1.0160 1.0160
12.492228 1.0160 1.0160 1.0160 1.0160 1.0160
12.525000 1.0160 1.0160 1.0160 1.0160 1.0160
12.558228 1.0160 1.0160 1.0160 1.0160 1.0160
12.592000 1.0160 1.0160 1.0160 1.0150 1.0150
12.625228 1.0150 1.0150 1.0150 1.0150 1.0150
12.658000 1.0150 1.0150 1.0150 1.0150 1.0150
12.691228 1.0150 1.0150 1.0150 1.0150 1.0150
12.725000 1.0150 1.0150 1.0150 1.0150 1.0150
12.758228 1.0150 1.0150 1.0150 1.0150 1.0150
12.791000 1.0150 1.0150 1.0150 1.0150 1.0150
12.824228 1.0150 1.0150 1.0150 1.0150 1.0130
12.857000 1.0130 1.0130 1.0130 1.0130 1.0110
12.890228 1.0110 1.0110 1.0110 1.0110 1.0110
12.924000 1.0110 1.0110 1.0110 1.0100 1.0080
12.957228 1.0080 1.0080 1.0060 1.0060 1.0060
12.990000 1.0060 1.0060 1.0060 1.0050 1.0050
13.023228 1.0050 1.0050 1.0050 1.0050 1.0050
13.057000 1.0050 1.0050 1.0050 1.0050 1.0050
13.090228 1.0050 1.0050 1.0050 1.0050 1.0030
13.123000 1.0030 1.0030 1.0030 1.0030 1.0030
13.156228 1.0030 1.0030 1.0030 1.0030 1.0030
13.190000 1.0030 1.0030 1.0030 1.0030 1.0030
13.223228 1.0030 1.0030 1.0030 1.0030 1.0030
13.256000 1.0030 1.0030 1.0030 1.0030 1.0030
13.289228 1.0030 1.0030 1.0010 1.0010 1.0010
13.322000 1.0010 1.0010 1.0010 1.0010 1.0010
13.355228 1.0010 1.0010 1.0010 1.0010 1.0010
13.389000 1.0010 1.0010 1.0010 1.0010 1.0010
13.422228 1.0010 1.0010 1.0000 1.0010 1.0010
13.455000 1.0010 1.0010 1.0010 1.0010 1.0010
13.488228 1.0000 0.9980 0.9980 0.9960 0.9960
13.522000 0.9940 0.9940 0.9940 0.9930 0.9910
13.555228 0.9910 0.9910 0.9890 0.9890 0.9890
13.588000 0.9890 0.9890 0.9880 0.9880 0.9880
13.621228 0.9880 0.9880 0.9860 0.9860 0.9840
13.655000 0.9830 0.9830 0.9810 0.9810 0.9810
13.688228 0.9790 0.9790 0.9780 0.9780 0.9780
13.721000 0.9780 0.9760 0.9760 0.9760 0.9760
13.754228 0.9760 0.9760 0.9760 0.9760 0.9760
13.787000 0.9740 0.9740 0.9730 0.9730 0.9710
13.820228 0.9690 0.9690 0.9680 0.9680 0.9660
13.854000 0.9660 0.9640 0.9640 0.9630 0.9610
13.887228 0.9610 0.9610 0.9610 0.9610 0.9610
13.920000 0.9610 0.9610 0.9610 0.9610 0.9610
13.953228 0.9630 0.9640 0.9630 0.9630 0.9630
13.987000 0.9630 0.9640 0.9640 0.9640 0.9640
14.020228 0.9640 0.9640 0.9640 0.9640 0.9640
14.053000 0.9640 0.9640 0.9640 0.9640 0.9640
14.086228 0.9640 0.9640 0.9640 0.9630 0.9630
14.120000 0.9610 0.9610 0.9590 0.9580 0.9580
14.153228 0.9560 0.9540 0.9540 0.9540 0.9540
14.186000 0.9540 0.9540 0.9540 0.9540 0.9540
14.219228 0.9530 0.9530 0.9530 0.9510 0.9510
14.252000 0.9490 0.9490 0.9490 0.9480 0.9480
14.285228 0.9460 0.9440 0.9440 0.9430 0.9430
14.319000 0.9410 0.9410 0.9410 0.9410 0.9410
14.352228 0.9390 0.9380 0.9380 0.9380 0.9360
14.385000 0.9360 0.9340 0.9320 0.9310 0.9290
14.418228 0.9270 0.9240 0.9240 0.9210 0.9210
14.452000 0.9190 0.9170 0.9160 0.9140 0.9140
14.485228 0.9140 0.9120 0.9120 0.9120 0.9110
14.518000 0.9110 0.9090 0.9090 0.9070 0.9060
14.551228 0.9060 0.9040 0.9020 0.9020 0.9020
14.585000 0.9020 0.9010 0.9010 0.9010 0.8990
14.618228 0.8990 0.8970 0.8960 0.8960 0.8940
14.651000 0.8920 0.8910 0.8910 0.8910 0.8920
14.684228 0.8910 0.8910 0.8910 0.8890 0.8870
14.717000 0.8870 0.8870 0.8860 0.8860 0.8840
14.750228 0.8840 0.8820 0.8810 0.8790 0.8770
14.784000 0.8770 0.8760 0.8760 0.8740 0.8720
14.817228 0.8710 0.8690 0.8670 0.8640 0.8620
14.850000 0.8590 0.8520 0.8500 0.8490 0.8470
14.883228 0.8450 0.8440 0.8390 0.8350 0.8340
14.917000 0.8320 0.8320 0.8300 0.8270 0.8250
14.950228 0.8240 0.8220 0.8220 0.8190 0.8150
14.983000 0.8120 0.8100 0.8050 0.8040 0.8000
15.016228 0.7970 0.7900 0.7850 0.7820 0.7780
15.050000 0.7750 0.7720 0.7630 0.7570 0.7530
15.083228 0.7500 0.7470 0.7450 0.7420 0.7400
15.116000 0.7380 0.7350 0.7310 0.7300 0.7280
15.149228 0.7230 0.7200 0.7200 0.7180 0.7150
15.182000 0.7110 0.7110 0.7080 0.7080 0.7060
15.215228 0.7060 0.7050 0.7050 0.7050 0.7030
15.249000 0.7010 0.7010 0.7000 0.7000 0.7010
15.282228 0.7000 0.7000 0.6980 0.6960 0.6980
15.315000 0.6980 0.6960 0.6950 0.6950 0.6950
15.348228 0.6950 0.6950 0.6950 0.6930 0.6930
15.382000 0.6930 0.6930 0.6930 0.6910 0.6910
15.415228 0.6910 0.6910 0.6910 0.6910 0.6910
15.448000 0.6910 0.6910 0.6900 0.6900 0.6900
15.481228 0.6880 0.6880 0.6880 0.6880 0.6880
15.514000 0.6880 0.6860 0.6860 0.6860 0.6860
15.547228 0.6860 0.6860 0.6850 0.6850 0.6850
15.581000 0.6850 0.6850 0.6830 0.6830 0.6830
15.614228 0.6830 0.6810 0.6810 0.6810 0.6800
15.647000 0.6800 0.6800 0.6800 0.6800 0.6800
15.680228 0.6800 0.6800 0.6780 0.6800 0.6780
15.714000 0.6780 0.6760 0.6760 0.6750 0.6750
15.747228 0.6750 0.6750 0.6750 0.6750 0.6750
15.780000 0.6730 0.6730 0.6730 0.6730 0.6710
15.813228 0.6710 0.6710 0.6710 0.6700 0.6700
15.847000 0.6680 0.6680 0.6680 0.6660 0.6660
15.880228 0.6660 0.6640 0.6660 0.6660 0.6640
15.913000 0.6640 0.6640 0.6640 0.6630 0.6630
15.946228 0.6630 0.6610 0.6610 0.6590 0.6590
15.979000 0.6590 0.6590 0.6590 0.6590
##END=
