##TITLE=STANNOUS OXALATE
##JCAMP-DX=4.24
##DATA TYPE=INFRARED SPECTRUM
##CLASS=COBLENTZ
##OWNER=COBLENTZ SOCIETY
Collection (C) 2018 copyright by the U.S. Secretary of Commerce
on behalf of the United States of America. All rights reserved.
##DATE=Not specified, most likely prior to 1970
##MOLFORM=Sn C2 O4
##SOURCE REFERENCE=COBLENTZ NO. 69
##$NIST ID=B6000069
##$NIST SOURCE=COBLENTZ
##$NIST IMAGE=cob69
##SPECTROMETER/DATA SYSTEM=Not specified, most likely a prism, grating, or hybrid spectrometer.
##STATE=SOLID (KBr DISC)
##SAMPLING PROCEDURE=TRANSMISSION
##RESOLUTION=4
##DATA PROCESSING=DIGITIZED BY NIST FROM HARD COPY
##XUNITS=MICROMETERS
##YUNITS=TRANSMITTANCE
##XFACTOR=1.000000
##YFACTOR=1
##DELTAX=000.007634
##FIRSTX=1.985
##LASTX=15.496
##FIRSTY=0.65
##MAXX=15.496
##MINX=1.985
##MAXY=0.941
##MINY=0.047
##NPOINTS=1771
##XYDATA=(X++(Y..Y))
1.985000 0.6500 0.6530 0.6500 0.6530 0.6540
2.023190 0.6560 0.6570 0.6590 0.6600 0.6600
2.061000 0.6620 0.6650 0.6660 0.6680 0.6690
2.099190 0.6710 0.6720 0.6740 0.6740 0.6750
2.137000 0.6770 0.6780 0.6810 0.6830 0.6840
2.175190 0.6840 0.6860 0.6870 0.6870 0.6880
2.214000 0.6880 0.6900 0.6900 0.6910 0.6940
2.252190 0.6960 0.6970 0.7000 0.7000 0.7000
2.290000 0.7020 0.7030 0.7060 0.7080 0.7090
2.328190 0.7110 0.7120 0.7140 0.7150 0.7170
2.366000 0.7180 0.7200 0.7210 0.7210 0.7240
2.404190 0.7240 0.7260 0.7270 0.7270 0.7290
2.443000 0.7300 0.7320 0.7320 0.7330 0.7350
2.481190 0.7360 0.7360 0.7380 0.7380 0.7380
2.519000 0.7380 0.7390 0.7390 0.7390 0.7390
2.557190 0.7390 0.7390 0.7390 0.7410 0.7420
2.595000 0.7420 0.7420 0.7440 0.7470 0.7480
2.633190 0.7500 0.7500 0.7510 0.7520 0.7520
2.672000 0.7520 0.7520 0.7540 0.7540 0.7540
2.710190 0.7540 0.7540 0.7540 0.7520 0.7520
2.748000 0.7500 0.7420 0.7380 0.7320 0.7150
2.786190 0.6910 0.6860 0.6740 0.6650 0.6510
2.824000 0.6390 0.6330 0.6170 0.6080 0.5950
2.862190 0.5920 0.5860 0.5770 0.5690 0.5630
2.901000 0.5560 0.5490 0.5410 0.5380 0.5350
2.939190 0.5340 0.5320 0.5320 0.5340 0.5380
2.977000 0.5470 0.5630 0.5830 0.5920 0.6080
3.015190 0.6140 0.6250 0.6380 0.6450 0.6530
3.053000 0.6620 0.6680 0.6740 0.6810 0.6880
3.091190 0.7000 0.7050 0.7120 0.7170 0.7260
3.130000 0.7360 0.7410 0.7450 0.7500 0.7520
3.168190 0.7550 0.7600 0.7610 0.7630 0.7640
3.206000 0.7660 0.7670 0.7690 0.7720 0.7750
3.244190 0.7750 0.7760 0.7780 0.7810 0.7820
3.282000 0.7850 0.7880 0.7910 0.7930 0.7940
3.320190 0.7960 0.7970 0.7990 0.8030 0.8030
3.359000 0.8050 0.8060 0.8060 0.8060 0.8060
3.397190 0.8060 0.8080 0.8080 0.8080 0.8080
3.435000 0.8080 0.8080 0.8080 0.8080 0.8090
3.473190 0.8110 0.8130 0.8150 0.8160 0.8180
3.511000 0.8210 0.8240 0.8270 0.8280 0.8280
3.549190 0.8300 0.8300 0.8330 0.8340 0.8360
3.588000 0.8360 0.8360 0.8360 0.8370 0.8390
3.626190 0.8390 0.8390 0.8390 0.8400 0.8390
3.664000 0.8400 0.8400 0.8420 0.8430 0.8430
3.702190 0.8430 0.8460 0.8460 0.8480 0.8480
3.740000 0.8490 0.8510 0.8540 0.8540 0.8550
3.778190 0.8570 0.8580 0.8570 0.8570 0.8580
3.817000 0.8580 0.8600 0.8610 0.8630 0.8630
3.855190 0.8640 0.8640 0.8640 0.8640 0.8660
3.893000 0.8660 0.8660 0.8660 0.8660 0.8670
3.931190 0.8670 0.8670 0.8670 0.8670 0.8670
3.969000 0.8670 0.8670 0.8670 0.8670 0.8670
4.007190 0.8690 0.8690 0.8670 0.8690 0.8690
4.046000 0.8690 0.8690 0.8700 0.8730 0.8750
4.084190 0.8760 0.8760 0.8760 0.8770 0.8770
4.122000 0.8790 0.8790 0.8790 0.8800 0.8800
4.160190 0.8800 0.8800 0.8800 0.8790 0.8790
4.198000 0.8790 0.8800 0.8800 0.8800 0.8800
4.236190 0.8800 0.8800 0.8800 0.8800 0.8800
4.275000 0.8800 0.8800 0.8800 0.8800 0.8790
4.313190 0.8790 0.8790 0.8790 0.8800 0.8820
4.351000 0.8820 0.8830 0.8830 0.8860 0.8890
4.389190 0.8910 0.8920 0.8950 0.8950 0.8970
4.427000 0.8980 0.8980 0.9000 0.9000 0.9010
4.465190 0.9010 0.9030 0.9040 0.9040 0.9060
4.504000 0.9060 0.9070 0.9060 0.9060 0.9060
4.542190 0.9070 0.9070 0.9070 0.9070 0.9070
4.580000 0.9070 0.9090 0.9090 0.9070 0.9070
4.618190 0.9090 0.9090 0.9090 0.9090 0.9100
4.656000 0.9100 0.9100 0.9100 0.9100 0.9100
4.694190 0.9120 0.9120 0.9120 0.9130 0.9130
4.733000 0.9130 0.9130 0.9150 0.9150 0.9160
4.771190 0.9160 0.9180 0.9180 0.9180 0.9180
4.809000 0.9190 0.9190 0.9190 0.9210 0.9210
4.847190 0.9210 0.9210 0.9210 0.9210 0.9220
4.885000 0.9220 0.9240 0.9240 0.9240 0.9240
4.923190 0.9240 0.9240 0.9250 0.9250 0.9250
4.962000 0.9270 0.9270 0.9270 0.9270 0.9270
5.000190 0.9270 0.9270 0.9280 0.9300 0.9300
5.038000 0.9300 0.9310 0.9330 0.9330 0.9310
5.076190 0.9310 0.9310 0.9310 0.9330 0.9330
5.115000 0.9330 0.9330 0.9330 0.9330 0.9330
5.153190 0.9310 0.9310 0.9310 0.9300 0.9280
5.191000 0.9280 0.9250 0.9250 0.9250 0.9240
5.229190 0.9240 0.9240 0.9220 0.9220 0.9220
5.267000 0.9210 0.9190 0.9180 0.9180 0.9180
5.305190 0.9160 0.9150 0.9150 0.9150 0.9150
5.344000 0.9160 0.9180 0.9180 0.9190 0.9190
5.382190 0.9210 0.9210 0.9220 0.9220 0.9240
5.420000 0.9240 0.9250 0.9250 0.9250 0.9250
5.458190 0.9250 0.9250 0.9250 0.9250 0.9250
5.496000 0.9270 0.9250 0.9250 0.9240 0.9220
5.534190 0.9220 0.9210 0.9210 0.9190 0.9160
5.573000 0.9150 0.9120 0.9100 0.9060 0.9040
5.611190 0.9030 0.9000 0.9000 0.8940 0.8910
5.649000 0.8820 0.8770 0.8700 0.8610 0.8570
5.687190 0.8430 0.8340 0.8220 0.8080 0.7810
5.725000 0.7600 0.6960 0.6690 0.6480 0.6170
5.763190 0.5660 0.5530 0.5340 0.5160 0.5000
5.802000 0.4740 0.4560 0.4310 0.4130 0.3950
5.840190 0.3920 0.3850 0.3730 0.3360 0.3090
5.878000 0.2610 0.1590 0.1440 0.1350 0.1250
5.916190 0.1040 0.0980 0.0890 0.0780 0.0770
5.954000 0.0770 0.0770 0.0770 0.0770 0.0780
5.992190 0.0810 0.0830 0.0890 0.0980 0.1050
6.031000 0.1330 0.1440 0.1660 0.1910 0.2080
6.069190 0.2110 0.2120 0.2150 0.2140 0.2120
6.107000 0.2020 0.1780 0.1590 0.1450 0.1200
6.145190 0.1010 0.0930 0.0740 0.0560 0.0550
6.183000 0.0520 0.0500 0.0500 0.0490 0.0490
6.221190 0.0470 0.0490 0.0550 0.0610 0.0720
6.260000 0.0890 0.1110 0.1570 0.1860 0.2150
6.298190 0.2320 0.2420 0.2540 0.2660 0.2900
6.336000 0.3080 0.3330 0.3540 0.3730 0.3830
6.374190 0.3950 0.4010 0.4100 0.4370 0.4680
6.412000 0.4920 0.5000 0.5070 0.5220 0.5320
6.450190 0.5350 0.5370 0.5430 0.5470 0.5470
6.489000 0.5690 0.5800 0.5900 0.5980 0.6070
6.527190 0.6080 0.6130 0.6190 0.6200 0.6250
6.565000 0.6330 0.6390 0.6530 0.6590 0.6620
6.603190 0.6660 0.6740 0.6780 0.6870 0.7020
6.641000 0.7150 0.7210 0.7330 0.7440 0.7480
6.679190 0.7510 0.7570 0.7610 0.7670 0.7700
6.718000 0.7780 0.7870 0.7900 0.7930 0.7960
6.756190 0.7960 0.7970 0.7990 0.7990 0.8000
6.794000 0.8020 0.8030 0.8050 0.8050 0.8050
6.832190 0.8050 0.8050 0.8060 0.8060 0.8080
6.870000 0.8080 0.8080 0.8080 0.8080 0.8080
6.908190 0.8060 0.8060 0.8060 0.8060 0.8050
6.947000 0.8000 0.7970 0.7960 0.7880 0.7840
6.985190 0.7790 0.7700 0.7640 0.7580 0.7520
7.023000 0.7390 0.7350 0.7320 0.7270 0.7210
7.061190 0.7110 0.7030 0.6970 0.6900 0.6870
7.099000 0.6840 0.6800 0.6780 0.6740 0.6660
7.137190 0.6650 0.6650 0.6620 0.6600 0.6560
7.176000 0.6530 0.6510 0.6500 0.6500 0.6500
7.214190 0.6480 0.6470 0.6470 0.6450 0.6450
7.252000 0.6440 0.6440 0.6440 0.6440 0.6440
7.290190 0.6450 0.6450 0.6470 0.6530 0.6540
7.328000 0.6560 0.6560 0.6570 0.6590 0.6590
7.366190 0.6560 0.6470 0.6290 0.6110 0.5950
7.405000 0.5830 0.5650 0.5070 0.4740 0.4670
7.443190 0.4680 0.4700 0.4740 0.4940 0.5130
7.481000 0.5310 0.5530 0.5660 0.5810 0.6010
7.519190 0.6230 0.6330 0.6360 0.6470 0.6570
7.557000 0.6660 0.6740 0.6800 0.6800 0.6800
7.595190 0.6800 0.6710 0.6660 0.6440 0.6220
7.634000 0.5980 0.5590 0.5290 0.4070 0.3700
7.672190 0.3160 0.2870 0.2640 0.2540 0.2520
7.710000 0.2500 0.2540 0.2630 0.2780 0.3050
7.748190 0.3570 0.3880 0.4360 0.4610 0.4830
7.786000 0.5050 0.5440 0.5630 0.5860 0.6130
7.824190 0.6390 0.6500 0.6650 0.6720 0.6780
7.863000 0.6870 0.6940 0.7050 0.7140 0.7200
7.901190 0.7260 0.7320 0.7350 0.7380 0.7420
7.939000 0.7440 0.7450 0.7470 0.7480 0.7500
7.977190 0.7510 0.7520 0.7570 0.7600 0.7610
8.015000 0.7640 0.7690 0.7700 0.7730 0.7760
8.053190 0.7780 0.7810 0.7840 0.7850 0.7900
8.092000 0.7940 0.7960 0.8000 0.8030 0.8060
8.130190 0.8090 0.8130 0.8160 0.8210 0.8240
8.168000 0.8300 0.8340 0.8400 0.8430 0.8460
8.206190 0.8510 0.8550 0.8570 0.8600 0.8630
8.244000 0.8660 0.8670 0.8690 0.8700 0.8720
8.282190 0.8730 0.8760 0.8770 0.8800 0.8820
8.321000 0.8830 0.8830 0.8860 0.8880 0.8910
8.359190 0.8910 0.8920 0.8940 0.8950 0.8950
8.397000 0.8950 0.8950 0.8970 0.8970 0.8980
8.435190 0.8970 0.8970 0.8970 0.8980 0.8980
8.473000 0.9000 0.9000 0.9010 0.9010 0.9030
8.511190 0.9030 0.9040 0.9030 0.9030 0.9030
8.550000 0.9040 0.9060 0.9060 0.9060 0.9060
8.588190 0.9060 0.9070 0.9070 0.9070 0.9090
8.626000 0.9090 0.9090 0.9090 0.9100 0.9100
8.664190 0.9100 0.9100 0.9120 0.9120 0.9120
8.702000 0.9120 0.9130 0.9130 0.9130 0.9150
8.740190 0.9160 0.9160 0.9160 0.9160 0.9180
8.779000 0.9180 0.9190 0.9210 0.9210 0.9190
8.817190 0.9190 0.9190 0.9190 0.9210 0.9210
8.855000 0.9210 0.9210 0.9220 0.9220 0.9220
8.893190 0.9220 0.9240 0.9240 0.9240 0.9240
8.931000 0.9240 0.9240 0.9240 0.9250 0.9250
8.969190 0.9250 0.9250 0.9250 0.9270 0.9270
9.008000 0.9270 0.9270 0.9270 0.9270 0.9280
9.046190 0.9280 0.9270 0.9270 0.9280 0.9280
9.084000 0.9280 0.9280 0.9270 0.9270 0.9270
9.122190 0.9270 0.9270 0.9270 0.9270 0.9270
9.160000 0.9280 0.9280 0.9280 0.9280 0.9280
9.198190 0.9280 0.9280 0.9280 0.9300 0.9310
9.237000 0.9310 0.9310 0.9310 0.9310 0.9310
9.275190 0.9310 0.9310 0.9330 0.9330 0.9330
9.313000 0.9330 0.9330 0.9330 0.9330 0.9330
9.351190 0.9330 0.9330 0.9330 0.9330 0.9330
9.389000 0.9330 0.9340 0.9340 0.9340 0.9340
9.427190 0.9340 0.9340 0.9340 0.9340 0.9340
9.466000 0.9360 0.9360 0.9360 0.9360 0.9360
9.504190 0.9360 0.9360 0.9360 0.9360 0.9370
9.542000 0.9370 0.9360 0.9360 0.9360 0.9360
9.580190 0.9360 0.9370 0.9370 0.9360 0.9360
9.618000 0.9360 0.9360 0.9360 0.9360 0.9340
9.656190 0.9360 0.9360 0.9360 0.9360 0.9360
9.695000 0.9360 0.9370 0.9370 0.9370 0.9370
9.733190 0.9370 0.9370 0.9370 0.9370 0.9370
9.771000 0.9380 0.9370 0.9370 0.9370 0.9370
9.809190 0.9370 0.9380 0.9380 0.9380 0.9370
9.847000 0.9370 0.9370 0.9380 0.9380 0.9370
9.885190 0.9370 0.9370 0.9380 0.9380 0.9380
9.924000 0.9370 0.9370 0.9380 0.9380 0.9380
9.962190 0.9380 0.9380 0.9370 0.9370 0.9370
10.000000 0.9370 0.9370 0.9380 0.9380 0.9380
10.038190 0.9380 0.9380 0.9370 0.9370 0.9370
10.076000 0.9370 0.9370 0.9370 0.9370 0.9370
10.114190 0.9370 0.9380 0.9380 0.9380 0.9380
10.153000 0.9380 0.9380 0.9380 0.9380 0.9380
10.191190 0.9380 0.9380 0.9380 0.9380 0.9380
10.229000 0.9380 0.9380 0.9380 0.9380 0.9380
10.267190 0.9380 0.9380 0.9380 0.9380 0.9380
10.305000 0.9380 0.9380 0.9380 0.9380 0.9380
10.343190 0.9380 0.9380 0.9380 0.9380 0.9380
10.382000 0.9380 0.9380 0.9380 0.9380 0.9380
10.420190 0.9380 0.9380 0.9380 0.9380 0.9380
10.458000 0.9380 0.9380 0.9380 0.9380 0.9380
10.496190 0.9380 0.9380 0.9380 0.9380 0.9380
10.534000 0.9380 0.9380 0.9380 0.9380 0.9380
10.572190 0.9380 0.9380 0.9380 0.9380 0.9380
10.611000 0.9380 0.9380 0.9380 0.9380 0.9380
10.649190 0.9380 0.9380 0.9380 0.9380 0.9380
10.687000 0.9380 0.9380 0.9380 0.9380 0.9380
10.725190 0.9380 0.9380 0.9380 0.9380 0.9380
10.763000 0.9380 0.9380 0.9370 0.9370 0.9370
10.801190 0.9370 0.9370 0.9370 0.9370 0.9370
10.840000 0.9370 0.9370 0.9370 0.9370 0.9370
10.878190 0.9370 0.9370 0.9370 0.9360 0.9360
10.916000 0.9360 0.9360 0.9360 0.9360 0.9370
10.954190 0.9370 0.9360 0.9360 0.9360 0.9360
10.992000 0.9360 0.9360 0.9360 0.9360 0.9360
11.030190 0.9340 0.9330 0.9330 0.9310 0.9300
11.069000 0.9270 0.9240 0.9220 0.9210 0.9180
11.107190 0.9180 0.9160 0.9130 0.9120 0.9100
11.145000 0.9070 0.9070 0.9060 0.9030 0.9030
11.183190 0.9030 0.9010 0.9010 0.9010 0.9010
11.221000 0.9010 0.9030 0.9040 0.9040 0.9060
11.259190 0.9060 0.9090 0.9090 0.9090 0.9120
11.298000 0.9130 0.9160 0.9180 0.9190 0.9210
11.336190 0.9210 0.9210 0.9220 0.9240 0.9250
11.374000 0.9270 0.9270 0.9280 0.9300 0.9300
11.412190 0.9310 0.9310 0.9330 0.9330 0.9340
11.450000 0.9340 0.9340 0.9340 0.9340 0.9370
11.488190 0.9370 0.9370 0.9370 0.9370 0.9370
11.527000 0.9380 0.9380 0.9380 0.9380 0.9380
11.565190 0.9380 0.9380 0.9380 0.9380 0.9380
11.603000 0.9400 0.9400 0.9400 0.9400 0.9400
11.641190 0.9400 0.9400 0.9400 0.9400 0.9400
11.679000 0.9400 0.9400 0.9400 0.9400 0.9400
11.717190 0.9400 0.9400 0.9410 0.9410 0.9410
11.756000 0.9400 0.9400 0.9400 0.9400 0.9400
11.794190 0.9400 0.9400 0.9400 0.9400 0.9400
11.832000 0.9400 0.9400 0.9400 0.9400 0.9400
11.870190 0.9400 0.9400 0.9400 0.9380 0.9370
11.908000 0.9370 0.9370 0.9360 0.9360 0.9340
11.946190 0.9330 0.9330 0.9330 0.9310 0.9310
11.985000 0.9310 0.9300 0.9300 0.9280 0.9280
12.023190 0.9280 0.9280 0.9270 0.9250 0.9250
12.061000 0.9240 0.9240 0.9240 0.9220 0.9220
12.099190 0.9220 0.9220 0.9210 0.9210 0.9210
12.137000 0.9190 0.9190 0.9190 0.9180 0.9180
12.175190 0.9180 0.9180 0.9160 0.9150 0.9130
12.214000 0.9130 0.9130 0.9120 0.9090 0.9070
12.252190 0.9060 0.9040 0.9010 0.9000 0.8970
12.290000 0.8950 0.8920 0.8880 0.8850 0.8820
12.328190 0.8760 0.8700 0.8630 0.8540 0.8460
12.366000 0.8340 0.8270 0.8160 0.8060 0.8020
12.404190 0.7910 0.7790 0.7610 0.7540 0.7270
12.443000 0.7120 0.7050 0.6870 0.6650 0.6480
12.481190 0.6300 0.6190 0.5770 0.5560 0.5340
12.519000 0.4670 0.4410 0.4160 0.3910 0.3690
12.557190 0.3460 0.3270 0.3080 0.2910 0.2760
12.595000 0.2630 0.2520 0.2390 0.2350 0.2320
12.633190 0.2320 0.2320 0.2300 0.2320 0.2320
12.672000 0.2380 0.2420 0.2470 0.2510 0.2550
12.710190 0.2700 0.2940 0.3280 0.3760 0.4330
12.748000 0.4470 0.4640 0.4980 0.5100 0.5220
12.786190 0.5520 0.5720 0.5900 0.6050 0.6200
12.824000 0.6360 0.6540 0.6770 0.7050 0.7150
12.862190 0.7300 0.7390 0.7450 0.7500 0.7610
12.901000 0.7700 0.7790 0.7880 0.7960 0.8020
12.939190 0.8090 0.8130 0.8180 0.8250 0.8330
12.977000 0.8360 0.8400 0.8430 0.8460 0.8510
13.015190 0.8550 0.8570 0.8600 0.8610 0.8630
13.053000 0.8640 0.8660 0.8670 0.8690 0.8700
13.091190 0.8730 0.8750 0.8750 0.8760 0.8770
13.130000 0.8790 0.8800 0.8820 0.8820 0.8820
13.168190 0.8820 0.8830 0.8830 0.8850 0.8860
13.206000 0.8880 0.8890 0.8890 0.8890 0.8890
13.244190 0.8920 0.8920 0.8920 0.8920 0.8920
13.282000 0.8940 0.8940 0.8940 0.8950 0.8950
13.320190 0.8970 0.8970 0.8970 0.8970 0.8980
13.359000 0.9000 0.9000 0.9010 0.9010 0.9010
13.397190 0.9010 0.9010 0.9010 0.9030 0.9040
13.435000 0.9040 0.9040 0.9040 0.9040 0.9040
13.473190 0.9040 0.9040 0.9060 0.9040 0.9040
13.511000 0.9040 0.9040 0.9060 0.9060 0.9060
13.549190 0.9060 0.9060 0.9040 0.9040 0.9060
13.588000 0.9060 0.9060 0.9060 0.9060 0.9060
13.626190 0.9060 0.9060 0.9060 0.9060 0.9060
13.664000 0.9060 0.9060 0.9060 0.9060 0.9060
13.702190 0.9060 0.9060 0.9060 0.9060 0.9040
13.740000 0.9040 0.9040 0.9060 0.9060 0.9060
13.778190 0.9060 0.9060 0.9060 0.9060 0.9060
13.817000 0.9060 0.9060 0.9060 0.9060 0.9060
13.855190 0.9060 0.9060 0.9070 0.9060 0.9060
13.893000 0.9060 0.9060 0.9060 0.9060 0.9060
13.931190 0.9060 0.9060 0.9060 0.9060 0.9060
13.969000 0.9060 0.9060 0.9060 0.9070 0.9060
14.007190 0.9060 0.9060 0.9060 0.9060 0.9060
14.046000 0.9060 0.9060 0.9060 0.9060 0.9060
14.084190 0.9060 0.9060 0.9060 0.9060 0.9060
14.122000 0.9060 0.9060 0.9060 0.9060 0.9040
14.160190 0.9040 0.9040 0.9040 0.9040 0.9040
14.198000 0.9040 0.9040 0.9040 0.9040 0.9040
14.236190 0.9040 0.9040 0.9040 0.9040 0.9040
14.275000 0.9030 0.9040 0.9030 0.9030 0.9030
14.313190 0.9030 0.9030 0.9030 0.9030 0.9010
14.351000 0.9030 0.9030 0.9040 0.9030 0.9030
14.389190 0.9030 0.9030 0.9030 0.9030 0.9030
14.427000 0.9030 0.9030 0.9030 0.9030 0.9030
14.465190 0.9030 0.9030 0.9030 0.9040 0.9030
14.504000 0.9030 0.9030 0.9030 0.9030 0.9030
14.542190 0.9030 0.9030 0.9030 0.9010 0.9000
14.580000 0.9010 0.9000 0.9000 0.9000 0.8980
14.618190 0.8980 0.8980 0.8980 0.8980 0.9000
14.656000 0.8980 0.8980 0.8980 0.8980 0.8980
14.694190 0.8980 0.8970 0.8970 0.8970 0.8970
14.733000 0.8950 0.8950 0.8950 0.8950 0.8950
14.771190 0.8950 0.8940 0.8950 0.8950 0.8950
14.809000 0.8950 0.8950 0.8950 0.8940 0.8940
14.847190 0.8940 0.8940 0.8940 0.8940 0.8940
14.885000 0.8920 0.8920 0.8920 0.8910 0.8910
14.923190 0.8910 0.8910 0.8910 0.8910 0.8910
14.962000 0.8910 0.8890 0.8860 0.8860 0.8860
15.000190 0.8850 0.8850 0.8830 0.8830 0.8830
15.038000 0.8830 0.8830 0.8830 0.8850 0.8830
15.076190 0.8830 0.8830 0.8830 0.8830 0.8830
15.115000 0.8850 0.8830 0.8850 0.8850 0.8850
15.153190 0.8850 0.8850 0.8850 0.8830 0.8830
15.191000 0.8850 0.8850 0.8850 0.8850 0.8850
15.229190 0.8850 0.8850 0.8850 0.8850 0.8850
15.267000 0.8850 0.8830 0.8830 0.8830 0.8830
15.305190 0.8830 0.8830 0.8830 0.8830 0.8830
15.344000 0.8830 0.8830 0.8830 0.8830 0.8830
15.382190 0.8830 0.8830 0.8830 0.8820 0.8820
15.420000 0.8820 0.8820 0.8820 0.8820 0.8820
15.458190 0.8820 0.8800 0.8800 0.8800 0.8800
15.496000 0.8800
##END=
