##TITLE=SODIUM ORTHOARSENATE, DIBASIC
##JCAMP-DX=4.24
##DATA TYPE=INFRARED SPECTRUM
##CLASS=COBLENTZ
##ORIGIN=MELLON INSTITUTE
##OWNER=COBLENTZ SOCIETY
Collection (C) 2018 copyright by the U.S. Secretary of Commerce
on behalf of the United States of America. All rights reserved.
##DATE=Not specified, most likely prior to 1970
##MOLFORM=Na2 H As O4  * 7 H2 O
##SOURCE REFERENCE=COBLENTZ NO. 501
##$NIST ID=B6000501
##$NIST SOURCE=COBLENTZ
##$NIST IMAGE=cob501
##SPECTROMETER/DATA SYSTEM=Not specified, most likely a prism, grating, or hybrid spectrometer.
##STATE=SOLID (NUJOL MULL)
$$PURITY UNKNOWN
##PATH LENGTH=
$$SPECTRAL CONTAMINATION DUE TO OIL AROUND 2900, 1450, 1380 CM^-^1
##SAMPLING PROCEDURE=TRANSMISSION
##RESOLUTION=4
##DATA PROCESSING=DIGITIZED BY NIST FROM HARD COPY
##XUNITS=MICROMETERS
##YUNITS=TRANSMITTANCE
##XFACTOR=1.000000
##YFACTOR=1
##DELTAX=000.006824
##FIRSTX=2.017
##LASTX=15.9926
##FIRSTY=0.953
##MAXX=15.9926
##MINX=2.017
##MAXY=0.955
##MINY=0.07
##NPOINTS=2049
##XYDATA=(X++(Y..Y))
2.017000 0.9530 0.9530 0.9530 0.9530 0.9530
2.051136 0.9530 0.9550 0.9530 0.9530 0.9530
2.086000 0.9530 0.9530 0.9530 0.9530 0.9530
2.120136 0.9530 0.9510 0.9510 0.9510 0.9510
2.154000 0.9510 0.9500 0.9500 0.9500 0.9500
2.188136 0.9480 0.9480 0.9480 0.9480 0.9460
2.222000 0.9450 0.9430 0.9430 0.9430 0.9410
2.256136 0.9390 0.9390 0.9380 0.9360 0.9340
2.290000 0.9320 0.9320 0.9310 0.9310 0.9290
2.324136 0.9270 0.9260 0.9240 0.9240 0.9220
2.359000 0.9190 0.9190 0.9150 0.9140 0.9100
2.393136 0.9070 0.9030 0.9030 0.9020 0.8980
2.427000 0.8950 0.8930 0.8900 0.8860 0.8840
2.461136 0.8810 0.8760 0.8720 0.8690 0.8650
2.495000 0.8620 0.8600 0.8530 0.8520 0.8480
2.529136 0.8470 0.8450 0.8410 0.8350 0.8310
2.563000 0.8240 0.8170 0.8120 0.8090 0.8040
2.597136 0.7970 0.7900 0.7800 0.7730 0.7660
2.632000 0.7540 0.7470 0.7350 0.7260 0.7190
2.666136 0.7090 0.7020 0.6990 0.6850 0.6760
2.700000 0.6700 0.6610 0.6540 0.6470 0.6300
2.734136 0.6180 0.6010 0.5850 0.5750 0.5510
2.768000 0.5480 0.5300 0.5220 0.4980 0.4690
2.802136 0.4460 0.4270 0.4140 0.3960 0.3740
2.836000 0.3570 0.3450 0.3310 0.3210 0.3100
2.870136 0.3020 0.2980 0.2850 0.2760 0.2690
2.904000 0.2620 0.2560 0.2470 0.2430 0.2380
2.938136 0.2330 0.2330 0.2280 0.2250 0.2230
2.973000 0.2230 0.2210 0.2210 0.2190 0.2180
3.007136 0.2140 0.2130 0.2110 0.2090 0.2070
3.041000 0.2060 0.2060 0.2040 0.2040 0.2020
3.075136 0.2010 0.2010 0.1990 0.1970 0.1950
3.109000 0.1940 0.1940 0.1920 0.1920 0.1900
3.143136 0.1890 0.1900 0.1890 0.1890 0.1870
3.177000 0.1870 0.1870 0.1870 0.1870 0.1850
3.211136 0.1850 0.1830 0.1830 0.1820 0.1820
3.246000 0.1800 0.1800 0.1800 0.1800 0.1800
3.280136 0.1800 0.1800 0.1780 0.1780 0.1780
3.314000 0.1760 0.1730 0.1680 0.1610 0.1540
3.348136 0.1490 0.1400 0.1320 0.1270 0.1200
3.382000 0.1110 0.1080 0.1030 0.1010 0.1010
3.416136 0.1010 0.1010 0.1010 0.1010 0.1010
3.450000 0.1010 0.1010 0.1010 0.1010 0.1010
3.484136 0.1030 0.1110 0.1440 0.1870 0.2190
3.519000 0.2500 0.2710 0.3240 0.3620 0.3950
3.553136 0.4050 0.4450 0.4630 0.4820 0.5050
3.587000 0.5060 0.5170 0.5360 0.5540 0.5750
3.621136 0.5890 0.5920 0.5960 0.5990 0.6010
3.655000 0.6080 0.6130 0.6200 0.6250 0.6300
3.689136 0.6370 0.6470 0.6510 0.6560 0.6630
3.723000 0.6700 0.6750 0.6800 0.6830 0.6890
3.757136 0.6950 0.7010 0.7070 0.7110 0.7140
3.792000 0.7180 0.7210 0.7280 0.7310 0.7350
3.826136 0.7370 0.7400 0.7430 0.7470 0.7490
3.860000 0.7540 0.7560 0.7560 0.7570 0.7570
3.894136 0.7570 0.7570 0.7570 0.7570 0.7560
3.928000 0.7560 0.7560 0.7540 0.7520 0.7500
3.962136 0.7490 0.7470 0.7470 0.7470 0.7450
3.996000 0.7450 0.7430 0.7420 0.7400 0.7380
4.030136 0.7380 0.7370 0.7350 0.7330 0.7300
4.065000 0.7260 0.7230 0.7210 0.7180 0.7140
4.099136 0.7130 0.7060 0.7020 0.7010 0.6990
4.133000 0.6990 0.6920 0.6900 0.6900 0.6890
4.167136 0.6850 0.6830 0.6830 0.6830 0.6820
4.201000 0.6800 0.6800 0.6800 0.6780 0.6780
4.235136 0.6780 0.6780 0.6800 0.6800 0.6800
4.269000 0.6800 0.6800 0.6800 0.6780 0.6780
4.303136 0.6780 0.6780 0.6780 0.6780 0.6780
4.337000 0.6780 0.6760 0.6760 0.6760 0.6760
4.371136 0.6760 0.6750 0.6750 0.6750 0.6750
4.406000 0.6750 0.6730 0.6730 0.6710 0.6710
4.440136 0.6700 0.6700 0.6680 0.6680 0.6660
4.474000 0.6640 0.6640 0.6640 0.6640 0.6640
4.508136 0.6640 0.6630 0.6630 0.6630 0.6630
4.542000 0.6630 0.6610 0.6610 0.6610 0.6610
4.576136 0.6590 0.6590 0.6590 0.6590 0.6580
4.610000 0.6580 0.6580 0.6580 0.6580 0.6590
4.644136 0.6590 0.6610 0.6610 0.6630 0.6640
4.679000 0.6640 0.6640 0.6680 0.6700 0.6710
4.713136 0.6730 0.6730 0.6750 0.6800 0.6820
4.747000 0.6830 0.6830 0.6890 0.6890 0.6900
4.781136 0.6920 0.6940 0.6940 0.6940 0.6950
4.815000 0.6950 0.6970 0.6970 0.6990 0.7010
4.849136 0.7020 0.7040 0.7060 0.7070 0.7070
4.883000 0.7090 0.7110 0.7130 0.7140 0.7160
4.917136 0.7180 0.7190 0.7190 0.7190 0.7210
4.952000 0.7230 0.7230 0.7260 0.7280 0.7300
4.986136 0.7310 0.7330 0.7350 0.7380 0.7420
5.020000 0.7450 0.7490 0.7500 0.7540 0.7540
5.054136 0.7570 0.7610 0.7620 0.7640 0.7640
5.088000 0.7660 0.7690 0.7710 0.7730 0.7730
5.122136 0.7740 0.7760 0.7780 0.7800 0.7800
5.156000 0.7810 0.7810 0.7830 0.7830 0.7830
5.190136 0.7850 0.7850 0.7850 0.7850 0.7850
5.225000 0.7850 0.7850 0.7850 0.7850 0.7850
5.259136 0.7850 0.7850 0.7850 0.7850 0.7850
5.293000 0.7850 0.7850 0.7850 0.7850 0.7830
5.327136 0.7830 0.7850 0.7850 0.7850 0.7850
5.361000 0.7850 0.7850 0.7850 0.7830 0.7830
5.395136 0.7830 0.7830 0.7830 0.7810 0.7810
5.429000 0.7800 0.7800 0.7800 0.7800 0.7800
5.463136 0.7800 0.7800 0.7800 0.7800 0.7780
5.498000 0.7760 0.7740 0.7740 0.7740 0.7740
5.532136 0.7740 0.7730 0.7730 0.7730 0.7710
5.566000 0.7710 0.7690 0.7690 0.7680 0.7660
5.600136 0.7680 0.7680 0.7640 0.7640 0.7640
5.634000 0.7620 0.7620 0.7610 0.7610 0.7590
5.668136 0.7570 0.7570 0.7560 0.7560 0.7560
5.702000 0.7560 0.7540 0.7560 0.7560 0.7540
5.736136 0.7540 0.7540 0.7540 0.7540 0.7540
5.770000 0.7540 0.7520 0.7520 0.7500 0.7500
5.804136 0.7500 0.7490 0.7420 0.7380 0.7310
5.839000 0.7280 0.7230 0.7190 0.7110 0.7060
5.873136 0.6990 0.6900 0.6830 0.6780 0.6700
5.907000 0.6580 0.6540 0.6460 0.6390 0.6270
5.941136 0.6210 0.6110 0.6010 0.5890 0.5770
5.975000 0.5680 0.5580 0.5530 0.5440 0.5370
6.009136 0.5340 0.5290 0.5220 0.5180 0.5150
6.043000 0.5080 0.5080 0.5060 0.5050 0.5050
6.077136 0.5050 0.5050 0.5030 0.5050 0.5050
6.112000 0.5060 0.5060 0.5100 0.5120 0.5130
6.146136 0.5170 0.5220 0.5250 0.5300 0.5410
6.180000 0.5460 0.5540 0.5650 0.5750 0.5840
6.214136 0.5940 0.6060 0.6180 0.6320 0.6400
6.248000 0.6470 0.6520 0.6580 0.6630 0.6680
6.282136 0.6730 0.6750 0.6780 0.6820 0.6850
6.316000 0.6870 0.6890 0.6900 0.6940 0.6950
6.350136 0.6990 0.7010 0.7010 0.7010 0.7020
6.385000 0.7040 0.7040 0.7040 0.7060 0.7070
6.419136 0.7090 0.7110 0.7130 0.7130 0.7140
6.453000 0.7140 0.7160 0.7160 0.7180 0.7190
6.487136 0.7190 0.7210 0.7210 0.7230 0.7230
6.521000 0.7250 0.7250 0.7250 0.7250 0.7250
6.555136 0.7250 0.7250 0.7260 0.7280 0.7280
6.589000 0.7300 0.7300 0.7300 0.7310 0.7300
6.623136 0.7300 0.7300 0.7300 0.7300 0.7300
6.658000 0.7300 0.7300 0.7260 0.7260 0.7250
6.692136 0.7250 0.7230 0.7230 0.7190 0.7160
6.726000 0.7070 0.7060 0.6990 0.6850 0.6760
6.760136 0.6560 0.6300 0.6160 0.5990 0.5870
6.794000 0.5580 0.5410 0.4290 0.4220 0.4190
6.828136 0.4120 0.4100 0.4100 0.4080 0.4080
6.862000 0.4080 0.4080 0.4100 0.4120 0.4120
6.896136 0.4150 0.4240 0.4390 0.4620 0.4790
6.931000 0.4910 0.5050 0.5170 0.5340 0.5540
6.965136 0.5610 0.5750 0.5890 0.5970 0.6090
6.999000 0.6300 0.6440 0.6540 0.6630 0.6640
7.033136 0.6710 0.6750 0.6800 0.6850 0.6890
7.067000 0.6920 0.6990 0.7010 0.7010 0.7010
7.101136 0.7020 0.7020 0.7020 0.7020 0.7020
7.135000 0.7010 0.6990 0.6990 0.6920 0.6900
7.169136 0.6870 0.6800 0.6680 0.6520 0.6300
7.203000 0.6040 0.5750 0.5510 0.5370 0.5290
7.237136 0.5290 0.5300 0.5370 0.5440 0.5510
7.272000 0.5600 0.5700 0.5750 0.5820 0.5840
7.306136 0.5890 0.5920 0.6010 0.6080 0.6200
7.340000 0.6280 0.6340 0.6390 0.6420 0.6490
7.374136 0.6520 0.6540 0.6580 0.6590 0.6610
7.408000 0.6630 0.6640 0.6640 0.6660 0.6680
7.442136 0.6710 0.6750 0.6780 0.6800 0.6820
7.476000 0.6830 0.6890 0.6900 0.6920 0.6940
7.510136 0.6940 0.6970 0.6990 0.6990 0.6970
7.545000 0.6970 0.6970 0.6970 0.6970 0.6950
7.579136 0.6950 0.6940 0.6920 0.6920 0.6900
7.613000 0.6900 0.6890 0.6890 0.6890 0.6870
7.647136 0.6850 0.6850 0.6830 0.6830 0.6830
7.681000 0.6830 0.6830 0.6820 0.6820 0.6820
7.715136 0.6800 0.6800 0.6780 0.6760 0.6760
7.749000 0.6780 0.6760 0.6760 0.6750 0.6750
7.783136 0.6750 0.6730 0.6730 0.6730 0.6710
7.818000 0.6710 0.6710 0.6710 0.6730 0.6730
7.852136 0.6750 0.6780 0.6800 0.6830 0.6850
7.886000 0.6870 0.6890 0.6900 0.6900 0.6940
7.920136 0.6970 0.6990 0.6990 0.7010 0.7020
7.954000 0.7040 0.7040 0.7040 0.7070 0.7090
7.988136 0.7110 0.7110 0.7130 0.7130 0.7140
8.022000 0.7160 0.7160 0.7180 0.7190 0.7210
8.056136 0.7210 0.7230 0.7250 0.7250 0.7250
8.091000 0.7260 0.7260 0.7280 0.7280 0.7280
8.125136 0.7300 0.7300 0.7280 0.7280 0.7280
8.159000 0.7280 0.7280 0.7300 0.7280 0.7280
8.193136 0.7280 0.7280 0.7280 0.7280 0.7260
8.227000 0.7280 0.7260 0.7260 0.7260 0.7260
8.261136 0.7260 0.7260 0.7260 0.7250 0.7250
8.295000 0.7250 0.7230 0.7230 0.7230 0.7210
8.329136 0.7190 0.7180 0.7180 0.7140 0.7140
8.364000 0.7140 0.7130 0.7090 0.7060 0.7040
8.398136 0.7020 0.6990 0.6990 0.6920 0.6900
8.432000 0.6890 0.6830 0.6820 0.6780 0.6760
8.466136 0.6730 0.6710 0.6700 0.6660 0.6640
8.500000 0.6640 0.6640 0.6640 0.6630 0.6630
8.534136 0.6630 0.6640 0.6640 0.6640 0.6640
8.568000 0.6680 0.6700 0.6710 0.6730 0.6750
8.602136 0.6780 0.6820 0.6820 0.6830 0.6830
8.636000 0.6850 0.6850 0.6890 0.6920 0.6940
8.670136 0.6940 0.6990 0.7010 0.7020 0.7040
8.705000 0.7040 0.7040 0.7070 0.7110 0.7130
8.739136 0.7140 0.7140 0.7190 0.7210 0.7230
8.773000 0.7260 0.7280 0.7300 0.7310 0.7330
8.807136 0.7330 0.7350 0.7370 0.7380 0.7380
8.841000 0.7400 0.7400 0.7420 0.7420 0.7420
8.875136 0.7430 0.7450 0.7450 0.7450 0.7470
8.909000 0.7470 0.7490 0.7490 0.7490 0.7500
8.943136 0.7500 0.7500 0.7500 0.7500 0.7520
8.978000 0.7520 0.7520 0.7520 0.7520 0.7520
9.012136 0.7540 0.7540 0.7540 0.7540 0.7540
9.046000 0.7540 0.7540 0.7560 0.7560 0.7560
9.080136 0.7540 0.7540 0.7560 0.7560 0.7560
9.114000 0.7560 0.7560 0.7560 0.7560 0.7560
9.148136 0.7570 0.7590 0.7610 0.7610 0.7610
9.182000 0.7610 0.7610 0.7610 0.7610 0.7610
9.216136 0.7610 0.7610 0.7610 0.7610 0.7610
9.251000 0.7610 0.7610 0.7610 0.7610 0.7610
9.285136 0.7610 0.7610 0.7610 0.7610 0.7610
9.319000 0.7610 0.7610 0.7590 0.7590 0.7590
9.353136 0.7590 0.7590 0.7590 0.7590 0.7590
9.387000 0.7590 0.7590 0.7590 0.7590 0.7590
9.421136 0.7590 0.7570 0.7590 0.7570 0.7570
9.455000 0.7570 0.7570 0.7560 0.7560 0.7560
9.489136 0.7590 0.7570 0.7560 0.7560 0.7560
9.524000 0.7560 0.7560 0.7560 0.7560 0.7560
9.558136 0.7560 0.7560 0.7560 0.7560 0.7560
9.592000 0.7560 0.7540 0.7540 0.7520 0.7520
9.626136 0.7500 0.7500 0.7500 0.7500 0.7500
9.660000 0.7490 0.7490 0.7470 0.7470 0.7450
9.694136 0.7470 0.7490 0.7470 0.7470 0.7470
9.728000 0.7470 0.7450 0.7450 0.7450 0.7450
9.762136 0.7430 0.7430 0.7430 0.7420 0.7420
9.797000 0.7420 0.7400 0.7380 0.7380 0.7380
9.831136 0.7370 0.7370 0.7370 0.7370 0.7350
9.865000 0.7350 0.7330 0.7330 0.7310 0.7310
9.899136 0.7280 0.7230 0.7230 0.7230 0.7210
9.933000 0.7190 0.7180 0.7140 0.7140 0.7140
9.967136 0.7130 0.7130 0.7110 0.7110 0.7070
10.001000 0.7060 0.7040 0.7020 0.7020 0.7010
10.035136 0.6990 0.6970 0.6950 0.6940 0.6920
10.069000 0.6900 0.6870 0.6850 0.6830 0.6820
10.103136 0.6780 0.6760 0.6730 0.6710 0.6700
10.138000 0.6680 0.6660 0.6630 0.6610 0.6610
10.172136 0.6560 0.6560 0.6560 0.6560 0.6540
10.206000 0.6540 0.6520 0.6510 0.6490 0.6460
10.240136 0.6460 0.6420 0.6420 0.6390 0.6390
10.274000 0.6370 0.6370 0.6350 0.6340 0.6340
10.308136 0.6300 0.6280 0.6280 0.6280 0.6250
10.342000 0.6230 0.6210 0.6200 0.6200 0.6200
10.376136 0.6200 0.6180 0.6180 0.6150 0.6130
10.411000 0.6110 0.6090 0.6080 0.6060 0.6060
10.445136 0.6040 0.6040 0.6030 0.6030 0.6030
10.479000 0.6030 0.6010 0.6010 0.5990 0.5970
10.513136 0.5970 0.5940 0.5940 0.5920 0.5910
10.547000 0.5910 0.5910 0.5890 0.5870 0.5840
10.581136 0.5840 0.5820 0.5800 0.5790 0.5770
10.615000 0.5750 0.5750 0.5730 0.5720 0.5700
10.649136 0.5680 0.5680 0.5650 0.5630 0.5610
10.684000 0.5600 0.5540 0.5530 0.5510 0.5490
10.718136 0.5490 0.5440 0.5420 0.5390 0.5390
10.752000 0.5360 0.5320 0.5300 0.5290 0.5250
10.786136 0.5240 0.5220 0.5180 0.5130 0.5100
10.820000 0.5080 0.5030 0.5000 0.4980 0.4960
10.854136 0.4910 0.4870 0.4840 0.4820 0.4790
10.888000 0.4770 0.4740 0.4720 0.4690 0.4690
10.922136 0.4620 0.4580 0.4530 0.4510 0.4480
10.957000 0.4450 0.4430 0.4390 0.4360 0.4310
10.991136 0.4290 0.4270 0.4260 0.4190 0.4120
11.025000 0.4080 0.4020 0.3960 0.3900 0.3840
11.059136 0.3780 0.3740 0.3710 0.3640 0.3620
11.093000 0.3570 0.3530 0.3500 0.3470 0.3410
11.127136 0.3380 0.3330 0.3290 0.3240 0.3210
11.161000 0.3160 0.3120 0.3040 0.3000 0.2970
11.195136 0.2930 0.2880 0.2830 0.2740 0.2640
11.230000 0.2620 0.2570 0.2540 0.2500 0.2470
11.264136 0.2370 0.2330 0.2260 0.2210 0.2160
11.298000 0.2110 0.2020 0.1990 0.1950 0.1890
11.332136 0.1850 0.1760 0.1730 0.1700 0.1630
11.366000 0.1590 0.1540 0.1520 0.1510 0.1490
11.400136 0.1460 0.1400 0.1370 0.1340 0.1320
11.434000 0.1300 0.1270 0.1230 0.1210 0.1180
11.468136 0.1150 0.1130 0.1110 0.1090 0.1060
11.502000 0.1040 0.1030 0.1030 0.1030 0.1010
11.536136 0.0990 0.0970 0.0960 0.0960 0.0960
11.571000 0.0940 0.0920 0.0920 0.0920 0.0920
11.605136 0.0890 0.0890 0.0870 0.0870 0.0870
11.639000 0.0850 0.0850 0.0840 0.0850 0.0840
11.673136 0.0840 0.0840 0.0840 0.0840 0.0840
11.707000 0.0840 0.0840 0.0840 0.0820 0.0820
11.741136 0.0800 0.0800 0.0790 0.0790 0.0790
11.775000 0.0770 0.0770 0.0770 0.0770 0.0750
11.809136 0.0750 0.0730 0.0730 0.0730 0.0730
11.844000 0.0720 0.0720 0.0720 0.0700 0.0700
11.878136 0.0700 0.0700 0.0700 0.0700 0.0700
11.912000 0.0700 0.0700 0.0700 0.0700 0.0700
11.946136 0.0700 0.0700 0.0700 0.0700 0.0700
11.980000 0.0700 0.0700 0.0700 0.0700 0.0720
12.014136 0.0730 0.0730 0.0730 0.0750 0.0750
12.048000 0.0770 0.0770 0.0790 0.0790 0.0790
12.082136 0.0800 0.0820 0.0840 0.0840 0.0850
12.117000 0.0850 0.0870 0.0890 0.0910 0.0920
12.151136 0.0920 0.0970 0.0990 0.0990 0.1010
12.185000 0.1030 0.1040 0.1060 0.1080 0.1110
12.219136 0.1150 0.1180 0.1200 0.1210 0.1230
12.253000 0.1280 0.1320 0.1340 0.1340 0.1390
12.287136 0.1400 0.1460 0.1490 0.1510 0.1540
12.321000 0.1560 0.1580 0.1610 0.1640 0.1700
12.355136 0.1710 0.1730 0.1780 0.1820 0.1870
12.390000 0.1900 0.1940 0.1970 0.1990 0.2010
12.424136 0.2010 0.2020 0.2040 0.2070 0.2090
12.458000 0.2110 0.2140 0.2160 0.2190 0.2210
12.492136 0.2230 0.2250 0.2300 0.2310 0.2330
12.526000 0.2370 0.2380 0.2400 0.2420 0.2430
12.560136 0.2470 0.2490 0.2500 0.2500 0.2500
12.594000 0.2500 0.2520 0.2500 0.2520 0.2520
12.628136 0.2540 0.2540 0.2540 0.2570 0.2590
12.663000 0.2590 0.2610 0.2620 0.2620 0.2640
12.697136 0.2640 0.2660 0.2680 0.2680 0.2680
12.731000 0.2680 0.2680 0.2680 0.2680 0.2680
12.765136 0.2680 0.2680 0.2680 0.2680 0.2680
12.799000 0.2690 0.2690 0.2690 0.2690 0.2690
12.833136 0.2680 0.2680 0.2680 0.2680 0.2660
12.867000 0.2660 0.2660 0.2640 0.2640 0.2640
12.901136 0.2640 0.2620 0.2620 0.2620 0.2620
12.935000 0.2610 0.2610 0.2610 0.2610 0.2590
12.969136 0.2590 0.2590 0.2570 0.2570 0.2570
13.004000 0.2560 0.2540 0.2540 0.2540 0.2540
13.038136 0.2540 0.2540 0.2540 0.2540 0.2540
13.072000 0.2540 0.2560 0.2540 0.2520 0.2520
13.106136 0.2520 0.2520 0.2520 0.2500 0.2500
13.140000 0.2490 0.2470 0.2470 0.2450 0.2470
13.174136 0.2470 0.2450 0.2450 0.2450 0.2430
13.208000 0.2430 0.2420 0.2420 0.2400 0.2400
13.242136 0.2400 0.2400 0.2400 0.2400 0.2380
13.277000 0.2380 0.2380 0.2370 0.2380 0.2370
13.311136 0.2370 0.2350 0.2350 0.2350 0.2350
13.345000 0.2350 0.2350 0.2330 0.2350 0.2350
13.379136 0.2350 0.2350 0.2350 0.2350 0.2350
13.413000 0.2330 0.2350 0.2350 0.2330 0.2350
13.447136 0.2330 0.2330 0.2330 0.2330 0.2310
13.481000 0.2310 0.2300 0.2300 0.2300 0.2280
13.515136 0.2260 0.2260 0.2250 0.2230 0.2230
13.550000 0.2210 0.2210 0.2210 0.2190 0.2180
13.584136 0.2160 0.2160 0.2140 0.2140 0.2090
13.618000 0.2070 0.2060 0.2060 0.2040 0.2020
13.652136 0.2020 0.2010 0.2010 0.1990 0.1990
13.686000 0.1990 0.1970 0.1950 0.1940 0.1920
13.720136 0.1900 0.1890 0.1850 0.1850 0.1830
13.754000 0.1820 0.1800 0.1800 0.1780 0.1750
13.788136 0.1750 0.1730 0.1730 0.1710 0.1700
13.823000 0.1700 0.1640 0.1640 0.1630 0.1630
13.857136 0.1610 0.1590 0.1590 0.1580 0.1580
13.891000 0.1560 0.1540 0.1540 0.1540 0.1520
13.925136 0.1520 0.1520 0.1510 0.1510 0.1510
13.959000 0.1490 0.1490 0.1470 0.1470 0.1470
13.993136 0.1460 0.1440 0.1440 0.1440 0.1420
14.027000 0.1440 0.1440 0.1440 0.1440 0.1440
14.061136 0.1460 0.1460 0.1470 0.1470 0.1470
14.096000 0.1490 0.1490 0.1490 0.1510 0.1510
14.130136 0.1510 0.1540 0.1590 0.1610 0.1610
14.164000 0.1630 0.1640 0.1660 0.1680 0.1700
14.198136 0.1710 0.1730 0.1750 0.1780 0.1800
14.232000 0.1820 0.1820 0.1830 0.1830 0.1870
14.266136 0.1890 0.1900 0.1920 0.1950 0.1950
14.300000 0.1970 0.1970 0.1990 0.1990 0.2010
14.334136 0.2010 0.2010 0.2010 0.2020 0.2020
14.368000 0.2060 0.2070 0.2090 0.2090 0.2090
14.402136 0.2110 0.2110 0.2110 0.2130 0.2140
14.437000 0.2160 0.2180 0.2190 0.2190 0.2210
14.471136 0.2210 0.2230 0.2230 0.2230 0.2230
14.505000 0.2260 0.2260 0.2280 0.2300 0.2300
14.539136 0.2310 0.2310 0.2310 0.2330 0.2330
14.573000 0.2350 0.2370 0.2370 0.2380 0.2400
14.607136 0.2400 0.2420 0.2430 0.2430 0.2430
14.641000 0.2450 0.2470 0.2490 0.2490 0.2500
14.675136 0.2500 0.2500 0.2520 0.2520 0.2540
14.710000 0.2540 0.2560 0.2570 0.2590 0.2610
14.744136 0.2610 0.2620 0.2620 0.2620 0.2640
14.778000 0.2640 0.2680 0.2680 0.2690 0.2710
14.812136 0.2730 0.2730 0.2730 0.2740 0.2740
14.846000 0.2760 0.2780 0.2780 0.2780 0.2800
14.880136 0.2810 0.2810 0.2830 0.2830 0.2830
14.914000 0.2830 0.2860 0.2880 0.2880 0.2880
14.948136 0.2900 0.2920 0.2930 0.2930 0.2970
14.983000 0.2970 0.2970 0.2980 0.3000 0.3000
15.017136 0.3020 0.3040 0.3040 0.3020 0.3040
15.051000 0.3050 0.3090 0.3090 0.3100 0.3120
15.085136 0.3120 0.3120 0.3140 0.3160 0.3170
15.119000 0.3190 0.3190 0.3190 0.3210 0.3230
15.153136 0.3230 0.3240 0.3280 0.3280 0.3290
15.187000 0.3290 0.3310 0.3330 0.3350 0.3350
15.221136 0.3380 0.3400 0.3400 0.3410 0.3410
15.256000 0.3410 0.3430 0.3470 0.3480 0.3500
15.290136 0.3500 0.3520 0.3530 0.3550 0.3590
15.324000 0.3600 0.3620 0.3640 0.3640 0.3650
15.358136 0.3670 0.3690 0.3710 0.3710 0.3720
15.392000 0.3720 0.3740 0.3740 0.3760 0.3790
15.426136 0.3830 0.3840 0.3840 0.3860 0.3880
15.460000 0.3900 0.3900 0.3930 0.3930 0.3950
15.494136 0.3980 0.3980 0.3980 0.4000 0.4020
15.529000 0.4050 0.4050 0.4070 0.4080 0.4080
15.563136 0.4120 0.4140 0.4140 0.4150 0.4170
15.597000 0.4170 0.4170 0.4200 0.4220 0.4240
15.631136 0.4240 0.4260 0.4270 0.4270 0.4290
15.665000 0.4310 0.4310 0.4320 0.4340 0.4380
15.699136 0.4390 0.4390 0.4410 0.4430 0.4450
15.733000 0.4460 0.4480 0.4500 0.4510 0.4530
15.767136 0.4530 0.4550 0.4580 0.4600 0.4600
15.801000 0.4620 0.4630 0.4650 0.4670 0.4690
15.835136 0.4700 0.4700 0.4720 0.4740 0.4750
15.870000 0.4770 0.4770 0.4790 0.4810 0.4820
15.904136 0.4840 0.4840 0.4870 0.4890 0.4890
15.938000 0.4910 0.4930 0.4940 0.4960 0.4980
15.972136 0.5010 0.5010 0.5030 0.5050
##END=
