##TITLE=4-(2-Aminoethyl)catechol, hydrochloride
##JCAMP-DX=4.24
$$ By DXEDIT 1.05 (RS McDonald)
##DATA TYPE=INFRARED SPECTRUM
##CLASS=COBLENTZ II
##ORIGIN=DOW CHEMICAL COMPANY
##OWNER=COPYRIGHT (C) 1988 by COBLENTZ SOCIETY INC.
Collection (C) 2018 copyright by the U.S. Secretary of Commerce
on behalf of the United States of America. All rights reserved.
##DATE=1965/11/02
##NAMES=4-(2-aminoethyl)-1,2-benzenediol hydrochloride
##MOLFORM=C8 H12 Cl N O2
##SOURCE REFERENCE=COBLENTZ NO. 08951
##$NIST ID=B6008951
##$NIST SOURCE=COBLENTZ
##$NIST IMAGE=cob8951
##SPECTROMETER/DATA SYSTEM=DOW KBr FOREPRISM-GRATING
##INSTRUMENT PARAMETERS=BLAZED AT 3.5, 12.0, 20.0 MICRON AND CHANGED AT 5.0, 7.5, 14.9 MICRON
##STATE=SOLID (SPLIT MULL), FLUOROLUBE FOR 3800-1330 CM^-^1, NUJOL FOR 1330-400 CM^-^1
##SAMPLING PROCEDURE=TRANSMISSION
##RESOLUTION=2
##DATA PROCESSING=DIGITIZED BY COBLENTZ SOCIETY (BATCH I) FROM HARD COPY
##XUNITS=1/CM
##YUNITS=TRANSMITTANCE
##XFACTOR=1
##YFACTOR=1
##DELTAX=1
##FIRSTX=3812
##LASTX=386
##FIRSTY=0.6651
##MAXX=3812
##MINX=386
##MAXY=0.8734
##MINY=0.0385
##NPOINTS=3427
##XYDATA=(X++(Y..Y))
3812.000000 0.6651 0.6651 0.6653 0.6653 0.6654
3807.000000 0.6654 0.6655 0.6655 0.6656 0.6657
3802.000000 0.6658 0.6658 0.6658 0.6660 0.6661
3797.000000 0.6662 0.6665 0.6667 0.6668 0.6671
3792.000000 0.6672 0.6675 0.6676 0.6678 0.6681
3787.000000 0.6682 0.6684 0.6686 0.6688 0.6692
3782.000000 0.6696 0.6700 0.6704 0.6708 0.6712
3777.000000 0.6717 0.6721 0.6725 0.6728 0.6733
3772.000000 0.6738 0.6742 0.6746 0.6750 0.6754
3767.000000 0.6758 0.6762 0.6767 0.6771 0.6775
3762.000000 0.6778 0.6783 0.6788 0.6792 0.6796
3757.000000 0.6800 0.6805 0.6808 0.6812 0.6817
3752.000000 0.6821 0.6825 0.6830 0.6834 0.6839
3747.000000 0.6843 0.6847 0.6851 0.6856 0.6860
3742.000000 0.6864 0.6868 0.6872 0.6876 0.6881
3737.000000 0.6885 0.6890 0.6894 0.6898 0.6901
3732.000000 0.6907 0.6911 0.6915 0.6918 0.6924
3727.000000 0.6928 0.6934 0.6939 0.6945 0.6950
3722.000000 0.6955 0.6960 0.6965 0.6969 0.6975
3717.000000 0.6980 0.6985 0.6990 0.6995 0.7000
3712.000000 0.7006 0.7011 0.7015 0.7021 0.7025
3707.000000 0.7031 0.7036 0.7041 0.7046 0.7051
3702.000000 0.7058 0.7062 0.7068 0.7075 0.7081
3697.000000 0.7087 0.7093 0.7098 0.7104 0.7110
3692.000000 0.7115 0.7121 0.7126 0.7133 0.7139
3687.000000 0.7144 0.7150 0.7156 0.7161 0.7168
3682.000000 0.7174 0.7178 0.7185 0.7191 0.7197
3677.000000 0.7201 0.7208 0.7214 0.7219 0.7225
3672.000000 0.7231 0.7237 0.7243 0.7248 0.7254
3667.000000 0.7260 0.7265 0.7271 0.7276 0.7282
3662.000000 0.7288 0.7293 0.7299 0.7305 0.7311
3657.000000 0.7315 0.7321 0.7326 0.7333 0.7339
3652.000000 0.7345 0.7350 0.7356 0.7361 0.7367
3647.000000 0.7371 0.7378 0.7384 0.7390 0.7395
3642.000000 0.7401 0.7406 0.7411 0.7415 0.7419
3637.000000 0.7424 0.7428 0.7432 0.7437 0.7441
3632.000000 0.7445 0.7449 0.7454 0.7458 0.7462
3627.000000 0.7467 0.7471 0.7475 0.7480 0.7484
3622.000000 0.7488 0.7492 0.7497 0.7501 0.7505
3617.000000 0.7508 0.7514 0.7518 0.7522 0.7526
3612.000000 0.7531 0.7535 0.7540 0.7544 0.7548
3607.000000 0.7551 0.7557 0.7561 0.7565 0.7568
3602.000000 0.7574 0.7578 0.7582 0.7586 0.7591
3597.000000 0.7595 0.7599 0.7603 0.7608 0.7611
3592.000000 0.7615 0.7619 0.7625 0.7628 0.7633
3587.000000 0.7637 0.7642 0.7646 0.7650 0.7654
3582.000000 0.7658 0.7662 0.7667 0.7671 0.7675
3577.000000 0.7678 0.7683 0.7686 0.7690 0.7694
3572.000000 0.7698 0.7701 0.7706 0.7708 0.7712
3567.000000 0.7717 0.7721 0.7725 0.7728 0.7733
3562.000000 0.7737 0.7740 0.7744 0.7748 0.7751
3557.000000 0.7756 0.7760 0.7764 0.7768 0.7772
3552.000000 0.7776 0.7781 0.7785 0.7789 0.7794
3547.000000 0.7798 0.7801 0.7806 0.7810 0.7814
3542.000000 0.7818 0.7821 0.7826 0.7831 0.7836
3537.000000 0.7840 0.7845 0.7849 0.7854 0.7858
3532.000000 0.7864 0.7868 0.7874 0.7878 0.7884
3527.000000 0.7889 0.7894 0.7899 0.7904 0.7906
3522.000000 0.7908 0.7911 0.7919 0.7918 0.7918
3517.000000 0.7921 0.7924 0.7925 0.7928 0.7930
3512.000000 0.7930 0.7930 0.7928 0.7925 0.7924
3507.000000 0.7918 0.7911 0.7905 0.7899 0.7892
3502.000000 0.7885 0.7876 0.7868 0.7861 0.7854
3497.000000 0.7846 0.7838 0.7830 0.7821 0.7812
3492.000000 0.7805 0.7796 0.7787 0.7776 0.7768
3487.000000 0.7758 0.7750 0.7740 0.7731 0.7721
3482.000000 0.7712 0.7705 0.7697 0.7689 0.7682
3477.000000 0.7674 0.7667 0.7658 0.7651 0.7645
3472.000000 0.7638 0.7631 0.7625 0.7618 0.7611
3467.000000 0.7605 0.7599 0.7592 0.7586 0.7580
3462.000000 0.7574 0.7567 0.7561 0.7554 0.7548
3457.000000 0.7541 0.7535 0.7528 0.7521 0.7512
3452.000000 0.7505 0.7496 0.7488 0.7480 0.7471
3447.000000 0.7462 0.7455 0.7446 0.7438 0.7425
3442.000000 0.7411 0.7395 0.7378 0.7360 0.7343
3437.000000 0.7325 0.7308 0.7291 0.7274 0.7257
3432.000000 0.7241 0.7225 0.7211 0.7196 0.7181
3427.000000 0.7165 0.7149 0.7128 0.7110 0.7082
3422.000000 0.7055 0.7022 0.6991 0.6951 0.6912
3417.000000 0.6874 0.6835 0.6796 0.6758 0.6715
3412.000000 0.6675 0.6625 0.6576 0.6528 0.6478
3407.000000 0.6430 0.6381 0.6282 0.6184 0.6064
3402.000000 0.5944 0.5888 0.5832 0.5775 0.5719
3397.000000 0.5672 0.5626 0.5587 0.5548 0.5509
3392.000000 0.5470 0.5427 0.5384 0.5320 0.5256
3387.000000 0.5204 0.5152 0.5107 0.5062 0.5017
3382.000000 0.4973 0.4923 0.4874 0.4818 0.4762
3377.000000 0.4708 0.4653 0.4604 0.4555 0.4509
3372.000000 0.4462 0.4410 0.4360 0.4276 0.4192
3367.000000 0.4072 0.3952 0.3830 0.3710 0.3591
3362.000000 0.3471 0.3350 0.3230 0.3111 0.2991
3357.000000 0.2871 0.2751 0.2561 0.2372 0.2324
3352.000000 0.2230 0.2264 0.2253 0.2247 0.2241
3347.000000 0.2240 0.2239 0.2249 0.2259 0.2283
3342.000000 0.2307 0.2357 0.2407 0.2456 0.2505
3337.000000 0.2554 0.2603 0.2654 0.2706 0.2753
3332.000000 0.2801 0.2837 0.2874 0.2928 0.2982
3327.000000 0.3009 0.3037 0.3059 0.3081 0.3097
3322.000000 0.3114 0.3127 0.3141 0.3145 0.3149
3317.000000 0.3150 0.3150 0.3150 0.3150 0.3149
3312.000000 0.3149 0.3147 0.3145 0.3141 0.3137
3307.000000 0.3132 0.3128 0.3121 0.3114 0.3107
3302.000000 0.3100 0.3093 0.3085 0.3079 0.3072
3297.000000 0.3065 0.3058 0.3045 0.3032 0.3016
3292.000000 0.3001 0.2984 0.2970 0.2954 0.2939
3287.000000 0.2922 0.2906 0.2889 0.2873 0.2856
3282.000000 0.2839 0.2822 0.2806 0.2774 0.2742
3277.000000 0.2696 0.2651 0.2602 0.2553 0.2507
3272.000000 0.2462 0.2435 0.2410 0.2384 0.2358
3267.000000 0.2331 0.2305 0.2282 0.2259 0.2245
3262.000000 0.2232 0.2218 0.2205 0.2192 0.2179
3257.000000 0.2165 0.2152 0.2138 0.2125 0.2111
3252.000000 0.2097 0.2082 0.2068 0.2053 0.2039
3247.000000 0.2024 0.2010 0.1994 0.1981 0.1968
3242.000000 0.1954 0.1944 0.1934 0.1925 0.1915
3237.000000 0.1904 0.1894 0.1884 0.1875 0.1865
3232.000000 0.1854 0.1844 0.1834 0.1825 0.1815
3227.000000 0.1804 0.1795 0.1786 0.1779 0.1770
3222.000000 0.1762 0.1754 0.1745 0.1736 0.1729
3217.000000 0.1720 0.1712 0.1703 0.1694 0.1685
3212.000000 0.1678 0.1672 0.1689 0.1665 0.1665
3207.000000 0.1664 0.1664 0.1664 0.1664 0.1666
3202.000000 0.1669 0.1671 0.1673 0.1675 0.1678
3197.000000 0.1679 0.1683 0.1684 0.1687 0.1694
3192.000000 0.1701 0.1708 0.1715 0.1722 0.1729
3187.000000 0.1736 0.1744 0.1749 0.1753 0.1754
3182.000000 0.1754 0.1756 0.1757 0.1758 0.1758
3177.000000 0.1758 0.1758 0.1757 0.1757 0.1757
3172.000000 0.1757 0.1756 0.1756 0.1754 0.1754
3167.000000 0.1754 0.1754 0.1753 0.1753 0.1752
3162.000000 0.1752 0.1751 0.1751 0.1751 0.1751
3157.000000 0.1751 0.1751 0.1751 0.1751 0.1751
3152.000000 0.1751 0.1751 0.1751 0.1751 0.1751
3147.000000 0.1751 0.1751 0.1751 0.1751 0.1751
3142.000000 0.1751 0.1751 0.1751 0.1751 0.1751
3137.000000 0.1751 0.1752 0.1752 0.1753 0.1753
3132.000000 0.1754 0.1754 0.1754 0.1754 0.1756
3127.000000 0.1756 0.1757 0.1757 0.1758 0.1758
3122.000000 0.1759 0.1760 0.1739 0.1762 0.1763
3117.000000 0.1764 0.1765 0.1766 0.1767 0.1767
3112.000000 0.1767 0.1767 0.1767 0.1767 0.1767
3107.000000 0.1766 0.1766 0.1765 0.1765 0.1764
3102.000000 0.1764 0.1760 0.1756 0.1750 0.1744
3097.000000 0.1740 0.1734 0.1729 0.1724 0.1718
3092.000000 0.1712 0.1704 0.1695 0.1687 0.1681
3087.000000 0.1673 0.1665 0.1650 0.1634 0.1619
3082.000000 0.1604 0.1589 0.1574 0.1562 0.1551
3077.000000 0.1540 0.1529 0.1529 0.1529 0.1529
3072.000000 0.1529 0.1529 0.1529 0.1529 0.1530
3067.000000 0.1530 0.1530 0.1530 0.1531 0.1531
3062.000000 0.1531 0.1531 0.1531 0.1530 0.1528
3057.000000 0.1525 0.1522 0.1519 0.1516 0.1513
3052.000000 0.1510 0.1499 0.1489 0.1476 0.1464
3047.000000 0.1448 0.1433 0.1426 0.1420 0.1420
3042.000000 0.1420 0.1405 0.1401 0.1401 0.1401
3037.000000 0.1401 0.1401 0.1401 0.1401 0.1401
3032.000000 0.1401 0.1401 0.1401 0.1401 0.1401
3027.000000 0.1421 0.1441 0.1461 0.1482 0.1519
3022.000000 0.1557 0.1598 0.1640 0.1679 0.1718
3017.000000 0.1752 0.1785 0.1820 0.1854 0.1887
3012.000000 0.1922 0.1956 0.1990 0.2024 0.2059
3007.000000 0.2093 0.2127 0.2161 0.2195 0.2229
3002.000000 0.2263 0.2290 0.2317 0.2343 0.2369
2997.000000 0.2395 0.2422 0.2450 0.2479 0.2508
2992.000000 0.2537 0.2560 0.2583 0.2603 0.2624
2987.000000 0.2643 0.2662 0.2679 0.2696 0.2713
2982.000000 0.2784 0.2749 0.2768 0.2771 0.2771
2977.000000 0.2772 0.2770 0.2768 0.2767 0.2765
2972.000000 0.2763 0.2758 0.2753 0.2733 0.2714
2967.000000 0.2694 0.2674 0.2652 0.2631 0.2605
2962.000000 0.2580 0.2554 0.2529 0.2505 0.2482
2957.000000 0.2466 0.2396 0.2440 0.2430 0.2423
2952.000000 0.2416 0.2416 0.2417 0.2418 0.2419
2947.000000 0.2420 0.2421 0.2425 0.2429 0.2433
2942.000000 0.2437 0.2439 0.2442 0.2448 0.2454
2937.000000 0.2462 0.2471 0.2480 0.2489 0.2507
2932.000000 0.2525 0.2549 0.2574 0.2616 0.2658
2927.000000 0.2698 0.2739 0.2780 0.2821 0.2849
2922.000000 0.2878 0.2900 0.2922 0.2944 0.2966
2917.000000 0.2987 0.3009 0.3031 0.3053 0.3075
2912.000000 0.3097 0.3118 0.3140 0.3161 0.3182
2907.000000 0.3203 0.3225 0.3246 0.3268 0.3289
2902.000000 0.3310 0.3332 0.3353 0.3374 0.3396
2897.000000 0.3418 0.3440 0.3462 0.3484 0.3506
2892.000000 0.3528 0.3550 0.3572 0.3594 0.3616
2887.000000 0.3634 0.3652 0.3668 0.3686 0.3703
2882.000000 0.3720 0.3736 0.3753 0.3770 0.3787
2877.000000 0.3797 0.3808 0.3816 0.3827 0.3836
2872.000000 0.3846 0.3855 0.3864 0.3875 0.3884
2867.000000 0.3897 0.3909 0.3925 0.3941 0.3956
2862.000000 0.3971 0.3986 0.4002 0.4016 0.4032
2857.000000 0.4048 0.4062 0.4078 0.4094 0.4112
2852.000000 0.4132 0.4155 0.4179 0.4202 0.4225
2847.000000 0.4241 0.4257 0.4270 0.4283 0.4296
2842.000000 0.4310 0.4323 0.4337 0.4349 0.4362
2837.000000 0.4374 0.4387 0.4400 0.4412 0.4423
2832.000000 0.4434 0.4441 0.4449 0.4458 0.4467
2827.000000 0.4474 0.4481 0.4487 0.4493 0.4499
2822.000000 0.4506 0.4512 0.4519 0.4524 0.4530
2817.000000 0.4535 0.4540 0.4545 0.4551 0.4558
2812.000000 0.4566 0.4576 0.4586 0.4596 0.4606
2807.000000 0.4615 0.4625 0.4635 0.4645 0.4657
2802.000000 0.4669 0.4683 0.4698 0.4712 0.4728
2797.000000 0.4742 0.4757 0.4776 0.4795 0.4816
2792.000000 0.4838 0.4859 0.4880 0.4895 0.4910
2787.000000 0.4924 0.4937 0.4949 0.4962 0.4975
2782.000000 0.4988 0.5000 0.5012 0.5026 0.5039
2777.000000 0.5051 0.5064 0.5077 0.5090 0.5102
2772.000000 0.5115 0.5128 0.5141 0.5153 0.5166
2767.000000 0.5172 0.5178 0.5179 0.5181 0.5182
2762.000000 0.5184 0.5185 0.5187 0.5188 0.5190
2757.000000 0.5191 0.5193 0.5193 0.5193 0.5191
2752.000000 0.5190 0.5188 0.5187 0.5185 0.5183
2747.000000 0.5180 0.5178 0.5177 0.5177 0.5180
2742.000000 0.5184 0.5192 0.5201 0.5209 0.5217
2737.000000 0.5225 0.5234 0.5242 0.5251 0.5259
2732.000000 0.5267 0.5267 0.5267 0.5266 0.5266
2727.000000 0.5265 0.5265 0.5264 0.5264 0.5265
2722.000000 0.5266 0.5266 0.5267 0.5268 0.5269
2717.000000 0.5269 0.5270 0.5271 0.5273 0.5281
2712.000000 0.5290 0.5299 0.5308 0.5316 0.5325
2707.000000 0.5336 0.5347 0.5358 0.5369 0.5380
2702.000000 0.5392 0.5395 0.5398 0.5400 0.5403
2697.000000 0.5405 0.5408 0.5410 0.5412 0.5415
2692.000000 0.5417 0.5418 0.5419 0.5420 0.5421
2687.000000 0.5422 0.5424 0.5429 0.5434 0.5438
2682.000000 0.5443 0.5451 0.5460 0.5470 0.5480
2677.000000 0.5490 0.5500 0.5510 0.5520 0.5530
2672.000000 0.5540 0.5544 0.5549 0.5552 0.5556
2667.000000 0.5560 0.5564 0.5568 0.5572 0.5575
2662.000000 0.5579 0.5583 0.5588 0.5592 0.5634
2657.000000 0.5601 0.5605 0.5609 0.5614 0.5618
2652.000000 0.5623 0.5626 0.5630 0.5631 0.5631
2647.000000 0.5631 0.5629 0.5614 0.5599 0.5568
2642.000000 0.5362 0.5479 0.5421 0.5403 0.5385
2637.000000 0.5384 0.5383 0.5383 0.5384 0.5400
2632.000000 0.5417 0.5440 0.5464 0.5485 0.5507
2627.000000 0.5523 0.5540 0.5556 0.5572 0.5588
2622.000000 0.5604 0.5620 0.5637 0.5648 0.5660
2617.000000 0.5669 0.5678 0.5687 0.5696 0.5705
2612.000000 0.5714 0.5723 0.5732 0.5740 0.5749
2607.000000 0.5758 0.5767 0.5776 0.5785 0.5793
2602.000000 0.5802 0.5810 0.5818 0.5826 0.5834
2597.000000 0.5842 0.5850 0.5857 0.5865 0.5873
2592.000000 0.5881 0.5889 0.5897 0.5905 0.5912
2587.000000 0.5921 0.5929 0.5936 0.5944 0.5951
2582.000000 0.5958 0.5965 0.5972 0.5979 0.5987
2577.000000 0.5994 0.6001 0.6008 0.6015 0.6022
2572.000000 0.6030 0.6036 0.6042 0.6044 0.6047
2567.000000 0.6049 0.6051 0.6053 0.6056 0.6058
2562.000000 0.6060 0.6060 0.6062 0.6059 0.6057
2557.000000 0.6054 0.6052 0.6044 0.6036 0.6027
2552.000000 0.6019 0.6010 0.6002 0.5993 0.5985
2547.000000 0.5975 0.5965 0.5955 0.5946 0.5936
2542.000000 0.5926 0.5922 0.5918 0.5915 0.5912
2537.000000 0.5910 0.5908 0.5906 0.5906 0.5901
2532.000000 0.5899 0.5897 0.5896 0.5899 0.5903
2527.000000 0.5906 0.5910 0.5912 0.5917 0.5920
2522.000000 0.5923 0.5926 0.5930 0.5933 0.5936
2517.000000 0.5939 0.5943 0.5948 0.5953 0.5958
2512.000000 0.5964 0.5969 0.5974 0.5979 0.5985
2507.000000 0.5992 0.5999 0.6020 0.6042 0.6062
2502.000000 0.6085 0.6104 0.6124 0.6143 0.6162
2497.000000 0.6182 0.6202 0.6218 0.6234 0.6249
2492.000000 0.6265 0.6279 0.6293 0.6300 0.6308
2487.000000 0.6316 0.6324 0.6331 0.6339 0.6347
2482.000000 0.6355 0.6359 0.6362 0.6366 0.6370
2477.000000 0.6374 0.6378 0.6382 0.6386 0.6387
2472.000000 0.6387 0.6387 0.6387 0.6386 0.6386
2467.000000 0.6385 0.6385 0.6383 0.6382 0.6379
2462.000000 0.6377 0.6374 0.6372 0.6369 0.6367
2457.000000 0.6362 0.6360 0.6352 0.6344 0.6336
2452.000000 0.6328 0.6320 0.6312 0.6305 0.6297
2447.000000 0.6285 0.6273 0.6260 0.6249 0.6236
2442.000000 0.6224 0.6212 0.6200 0.6187 0.6175
2437.000000 0.6162 0.6149 0.6137 0.6125 0.6120
2432.000000 0.6116 0.6110 0.6108 0.6104 0.6105
2427.000000 0.6105 0.6109 0.6118 0.6128 0.6171
2422.000000 0.6215 0.6240 0.6266 0.6271 0.6277
2417.000000 0.6283 0.6289 0.6294 0.6300 0.6305
2412.000000 0.6310 0.6316 0.6321 0.6325 0.6330
2407.000000 0.6334 0.6339 0.6343 0.6348 0.6352
2402.000000 0.6357 0.6362 0.6367 0.6371 0.6376
2397.000000 0.6382 0.6388 0.6395 0.6401 0.6408
2392.000000 0.6415 0.6422 0.6430 0.6438 0.6447
2387.000000 0.6455 0.6464 0.6472 0.6482 0.6490
2382.000000 0.6499 0.6507 0.6515 0.6524 0.6533
2377.000000 0.6541 0.6550 0.6555 0.6561 0.6561
2372.000000 0.6562 0.6562 0.6564 0.6565 0.6565
2367.000000 0.6567 0.6568 0.6568 0.6568 0.6569
2362.000000 0.6571 0.6571 0.6571 0.6569 0.6569
2357.000000 0.6569 0.6569 0.6568 0.6568 0.6568
2352.000000 0.6568 0.6568 0.6568 0.6568 0.6568
2347.000000 0.6567 0.6567 0.6568 0.6568 0.6569
2342.000000 0.6571 0.6571 0.6574 0.6575 0.6575
2337.000000 0.6576 0.6578 0.6580 0.6582 0.6583
2332.000000 0.6584 0.6585 0.6587 0.6588 0.6590
2327.000000 0.6592 0.6595 0.6598 0.6601 0.6606
2322.000000 0.6611 0.6618 0.6625 0.6633 0.6641
2317.000000 0.6649 0.6657 0.6664 0.6671 0.6678
2312.000000 0.6685 0.6691 0.6698 0.6704 0.6710
2307.000000 0.6715 0.6721 0.6728 0.6734 0.6737
2302.000000 0.6740 0.6742 0.6744 0.6745 0.6747
2297.000000 0.6749 0.6751 0.6753 0.6755 0.6757
2292.000000 0.6758 0.6764 0.6768 0.6774 0.6780
2287.000000 0.6785 0.6791 0.6796 0.6801 0.6807
2282.000000 0.6812 0.6818 0.6825 0.6830 0.6836
2277.000000 0.6843 0.6851 0.6858 0.6865 0.6874
2272.000000 0.6882 0.6890 0.6898 0.6905 0.6912
2267.000000 0.6921 0.6928 0.6936 0.6944 0.6951
2262.000000 0.6960 0.6967 0.6974 0.6980 0.6986
2257.000000 0.6992 0.6999 0.7005 0.7011 0.7017
2252.000000 0.7024 0.7030 0.7037 0.7043 0.7049
2247.000000 0.7055 0.7061 0.7068 0.7074 0.7080
2242.000000 0.7086 0.7091 0.7097 0.7103 0.7108
2237.000000 0.7114 0.7119 0.7125 0.7132 0.7137
2232.000000 0.7143 0.7148 0.7154 0.7160 0.7165
2227.000000 0.7171 0.7176 0.7183 0.7189 0.7194
2222.000000 0.7200 0.7205 0.7211 0.7217 0.7222
2217.000000 0.7228 0.7234 0.7240 0.7246 0.7251
2212.000000 0.7257 0.7261 0.7268 0.7274 0.7280
2207.000000 0.7285 0.7291 0.7297 0.7303 0.7308
2202.000000 0.7314 0.7318 0.7325 0.7331 0.7337
2197.000000 0.7342 0.7348 0.7354 0.7360 0.7365
2192.000000 0.7371 0.7375 0.7382 0.7388 0.7394
2187.000000 0.7399 0.7405 0.7411 0.7417 0.7421
2182.000000 0.7428 0.7433 0.7439 0.7445 0.7451
2177.000000 0.7456 0.7461 0.7468 0.7474 0.7478
2172.000000 0.7485 0.7490 0.7496 0.7499 0.7503
2167.000000 0.7505 0.7507 0.7508 0.7511 0.7511
2162.000000 0.7514 0.7515 0.7518 0.7519 0.7521
2157.000000 0.7524 0.7525 0.7528 0.7530 0.7532
2152.000000 0.7534 0.7536 0.7538 0.7540 0.7542
2147.000000 0.7544 0.7546 0.7548 0.7550 0.7551
2142.000000 0.7554 0.7555 0.7557 0.7558 0.7561
2137.000000 0.7562 0.7565 0.7568 0.7571 0.7575
2132.000000 0.7580 0.7583 0.7587 0.7591 0.7595
2127.000000 0.7599 0.7603 0.7606 0.7610 0.7614
2122.000000 0.7618 0.7621 0.7625 0.7628 0.7633
2117.000000 0.7637 0.7641 0.7645 0.7649 0.7653
2112.000000 0.7657 0.7661 0.7665 0.7668 0.7672
2107.000000 0.7676 0.7681 0.7685 0.7689 0.7693
2102.000000 0.7698 0.7701 0.7704 0.7706 0.7708
2097.000000 0.7710 0.7711 0.7714 0.7715 0.7718
2092.000000 0.7719 0.7721 0.7725 0.7726 0.7728
2087.000000 0.7730 0.7732 0.7733 0.7735 0.7736
2082.000000 0.7737 0.7738 0.7739 0.7740 0.7741
2077.000000 0.7742 0.7743 0.7744 0.7746 0.7747
2072.000000 0.7748 0.7749 0.7750 0.7751 0.7751
2067.000000 0.7754 0.7756 0.7758 0.7762 0.7767
2062.000000 0.7771 0.7774 0.7778 0.7782 0.7786
2057.000000 0.7789 0.7793 0.7797 0.7801 0.7804
2052.000000 0.7808 0.7811 0.7815 0.7819 0.7824
2047.000000 0.7826 0.7831 0.7835 0.7839 0.7841
2042.000000 0.7843 0.7845 0.7847 0.7849 0.7851
2037.000000 0.7853 0.7855 0.7857 0.7858 0.7860
2032.000000 0.7861 0.7864 0.7865 0.7868 0.7869
2027.000000 0.7871 0.7874 0.7875 0.7878 0.7878
2022.000000 0.7880 0.7881 0.7882 0.7882 0.7883
2017.000000 0.7884 0.7885 0.7886 0.7887 0.7887
2012.000000 0.7888 0.7889 0.7890 0.7890 0.7891
2007.000000 0.7892 0.7893 0.7893 0.7894 0.7895
2002.000000 0.7896 0.7897 0.7899 0.7900 0.7903
1997.000000 0.7905 0.7908 0.7910 0.7911 0.7915
1992.000000 0.7917 0.7919 0.7921 0.7925 0.7926
1987.000000 0.7928 0.7931 0.7932 0.7933 0.7934
1982.000000 0.7935 0.7936 0.7925 0.7939 0.7940
1977.000000 0.7940 0.7939 0.7939 0.7938 0.7938
1972.000000 0.7937 0.7936 0.7936 0.7937 0.7938
1967.000000 0.7938 0.7939 0.7940 0.7935 0.7928
1962.000000 0.7924 0.7915 0.7903 0.7891 0.7878
1957.000000 0.7864 0.7848 0.7831 0.7815 0.7801
1952.000000 0.7788 0.7774 0.7760 0.7747 0.7738
1947.000000 0.7728 0.7721 0.7711 0.7707 0.7703
1942.000000 0.7699 0.7695 0.7691 0.7688 0.7687
1937.000000 0.7685 0.7684 0.7682 0.7681 0.7678
1932.000000 0.7678 0.7678 0.7680 0.7683 0.7686
1927.000000 0.7688 0.7691 0.7693 0.7696 0.7699
1922.000000 0.7701 0.7704 0.7707 0.7708 0.7711
1917.000000 0.7714 0.7717 0.7718 0.7735 0.7725
1912.000000 0.7726 0.7730 0.7732 0.7735 0.7738
1907.000000 0.7740 0.7743 0.7744 0.7745 0.7746
1902.000000 0.7749 0.7751 0.7755 0.7758 0.7761
1897.000000 0.7765 0.7768 0.7771 0.7775 0.7778
1892.000000 0.7783 0.7787 0.7792 0.7796 0.7800
1887.000000 0.7803 0.7806 0.7808 0.7811 0.7814
1882.000000 0.7818 0.7821 0.7825 0.7825 0.7825
1877.000000 0.7818 0.7814 0.7812 0.7811 0.7810
1872.000000 0.7810 0.7811 0.7812 0.7815 0.7818
1867.000000 0.7821 0.7825 0.7826 0.7828 0.7831
1862.000000 0.7834 0.7836 0.7838 0.7840 0.7842
1857.000000 0.7844 0.7846 0.7858 0.7878 0.7900
1852.000000 0.7919 0.7941 0.7961 0.7982 0.8000
1847.000000 0.8014 0.8028 0.8044 0.8058 0.8067
1842.000000 0.8074 0.8078 0.8083 0.8087 0.8091
1837.000000 0.8095 0.8098 0.8101 0.8106 0.8112
1832.000000 0.8119 0.8126 0.8135 0.8142 0.8149
1827.000000 0.8157 0.8164 0.8168 0.8171 0.8175
1822.000000 0.8178 0.8183 0.8187 0.8190 0.8194
1817.000000 0.8195 0.8195 0.8195 0.8195 0.8195
1812.000000 0.8191 0.8182 0.8172 0.8164 0.8157
1807.000000 0.8150 0.8143 0.8137 0.8130 0.8122
1802.000000 0.8115 0.8125 0.8135 0.8144 0.8154
1797.000000 0.8164 0.8172 0.8178 0.8182 0.8186
1792.000000 0.8190 0.8193 0.8197 0.8200 0.8204
1787.000000 0.8207 0.8210 0.8214 0.8217 0.8221
1782.000000 0.8224 0.8228 0.8233 0.8239 0.8244
1777.000000 0.8249 0.8255 0.8260 0.8265 0.8270
1772.000000 0.8275 0.8281 0.8286 0.8290 0.8295
1767.000000 0.8299 0.8304 0.8304 0.8305 0.8305
1762.000000 0.8306 0.8306 0.8306 0.8305 0.8304
1757.000000 0.8302 0.8300 0.8294 0.8280 0.8246
1752.000000 0.8192 0.8151 0.8124 0.8105 0.8096
1747.000000 0.8096 0.8096 0.8107 0.8118 0.8137
1742.000000 0.8186 0.8211 0.8236 0.8250 0.8264
1737.000000 0.8277 0.8290 0.8303 0.8316 0.8325
1732.000000 0.8334 0.8342 0.8351 0.8360 0.8368
1727.000000 0.8377 0.8378 0.8378 0.8378 0.8378
1722.000000 0.8374 0.8363 0.8353 0.8342 0.8331
1717.000000 0.8317 0.8303 0.8289 0.8280 0.8271
1712.000000 0.8271 0.8273 0.8283 0.8292 0.8301
1707.000000 0.8311 0.8320 0.8330 0.8339 0.8349
1702.000000 0.8358 0.8365 0.8371 0.8378 0.8384
1697.000000 0.8391 0.8397 0.8403 0.8409 0.8415
1692.000000 0.8421 0.8428 0.8433 0.8439 0.8445
1687.000000 0.8451 0.8457 0.8463 0.8468 0.8474
1682.000000 0.8478 0.8485 0.8490 0.8495 0.8501
1677.000000 0.8506 0.8511 0.8516 0.8521 0.8527
1672.000000 0.8532 0.8537 0.8543 0.8548 0.8553
1667.000000 0.8558 0.8564 0.8568 0.8574 0.8580
1662.000000 0.8585 0.8590 0.8595 0.8603 0.8610
1657.000000 0.8617 0.8625 0.8632 0.8639 0.8647
1652.000000 0.8655 0.8662 0.8670 0.8677 0.8685
1647.000000 0.8692 0.8699 0.8706 0.8712 0.8718
1642.000000 0.8725 0.8728 0.8732 0.8733 0.8734
1637.000000 0.8730 0.8725 0.8711 0.8692 0.8663
1632.000000 0.8627 0.8575 0.8465 0.8328 0.8168
1627.000000 0.7942 0.7812 0.7704 0.7606 0.7101
1622.000000 0.6446 0.5791 0.4564 0.4564 0.4565
1617.000000 0.4560 0.4570 0.4587 0.4700 0.4977
1612.000000 0.5254 0.5531 0.5807 0.6265 0.6269
1607.000000 0.6291 0.6299 0.6281 0.6178 0.5871
1602.000000 0.5564 0.4894 0.4950 0.4912 0.4990
1597.000000 0.5204 0.5419 0.5633 0.5847 0.6062
1592.000000 0.6480 0.6461 0.6485 0.6497 0.6476
1587.000000 0.6410 0.6304 0.6103 0.6109 0.6077
1582.000000 0.6077 0.6097 0.6152 0.6272 0.6444
1577.000000 0.6615 0.6787 0.6958 0.7131 0.7303
1572.000000 0.7475 0.7644 0.7675 0.7705 0.7732
1567.000000 0.7756 0.7775 0.7795 0.7814 0.7833
1562.000000 0.7857 0.7887 0.7917 0.7947 0.7974
1557.000000 0.7993 0.8011 0.8028 0.8045 0.8061
1552.000000 0.8078 0.8094 0.8108 0.8111 0.8125
1547.000000 0.8125 0.8125 0.8124 0.8122 0.8121
1542.000000 0.8117 0.8111 0.8105 0.8100 0.8094
1537.000000 0.8089 0.8081 0.8071 0.8060 0.8047
1532.000000 0.8025 0.8004 0.7930 0.7774 0.7421
1527.000000 0.6858 0.6296 0.5733 0.4498 0.4607
1522.000000 0.4487 0.4528 0.4737 0.5280 0.5156
1517.000000 0.5327 0.5319 0.5283 0.5235 0.5043
1512.000000 0.4370 0.3696 0.3022 0.2349 0.1675
1507.000000 0.1030 0.0804 0.0654 0.0610 0.0605
1502.000000 0.0590 0.0588 0.0596 0.0707 0.1084
1497.000000 0.1398 0.1711 0.2024 0.2337 0.2650
1492.000000 0.2963 0.3277 0.3590 0.3812 0.4542
1487.000000 0.4723 0.4775 0.4883 0.5007 0.5131
1482.000000 0.5255 0.5379 0.5639 0.5633 0.5646
1477.000000 0.5648 0.5643 0.5199 0.4693 0.4018
1472.000000 0.4014 0.4143 0.4542 0.4940 0.5339
1467.000000 0.5626 0.5655 0.5674 0.5688 0.5697
1462.000000 0.5703 0.5712 0.5734 0.5909 0.6039
1457.000000 0.6131 0.6216 0.6301 0.6382 0.6450
1452.000000 0.6518 0.6587 0.6615 0.6644 0.6672
1447.000000 0.6701 0.6730 0.6758 0.6788 0.6818
1442.000000 0.6848 0.6878 0.6908 0.6938 0.6962
1437.000000 0.6987 0.7011 0.7036 0.7061 0.7085
1432.000000 0.7108 0.7130 0.7153 0.7175 0.7199
1427.000000 0.7214 0.7228 0.7242 0.7254 0.7261
1422.000000 0.7269 0.7278 0.7286 0.7293 0.7301
1417.000000 0.7308 0.7317 0.7325 0.7333 0.7341
1412.000000 0.7349 0.7356 0.7364 0.7372 0.7383
1407.000000 0.7393 0.7403 0.7412 0.7424 0.7440
1402.000000 0.7446 0.7458 0.7451 0.7444 0.7435
1397.000000 0.7317 0.6539 0.6899 0.6690 0.6528
1392.000000 0.6539 0.6560 0.6634 0.6732 0.6836
1387.000000 0.6942 0.7050 0.7091 0.7119 0.7149
1382.000000 0.7168 0.7185 0.7203 0.7211 0.7221
1377.000000 0.7234 0.7238 0.7243 0.7247 0.7251
1372.000000 0.7234 0.7215 0.7175 0.7130 0.7055
1367.000000 0.6978 0.6886 0.6792 0.6697 0.6601
1362.000000 0.6503 0.6404 0.6160 0.5973 0.5786
1357.000000 0.5599 0.5412 0.5226 0.5039 0.4852
1352.000000 0.4665 0.4478 0.4291 0.4105 0.3918
1347.000000 0.3730 0.3655 0.3520 0.3568 0.3552
1342.000000 0.3546 0.3544 0.3594 0.3770 0.3945
1337.000000 0.4120 0.4296 0.4471 0.4647 0.4728
1332.000000 0.4772 0.4834 0.5451 0.5348 0.5459
1327.000000 0.5467 0.5152 0.4684 0.4216 0.3748
1322.000000 0.3071 0.3065 0.3060 0.3077 0.3323
1317.000000 0.3599 0.3874 0.4149 0.4424 0.4700
1312.000000 0.4975 0.5250 0.5525 0.5801 0.6076
1307.000000 0.6207 0.6262 0.6325 0.6306 0.6319
1302.000000 0.6320 0.6310 0.6285 0.6190 0.5889
1297.000000 0.5412 0.4582 0.3752 0.2921 0.2091
1292.000000 0.1261 0.0416 0.0392 0.0387 0.0385
1287.000000 0.0585 0.1021 0.1457 0.1893 0.2329
1282.000000 0.2765 0.3162 0.3341 0.3490 0.3627
1277.000000 0.3764 0.3889 0.3934 0.3975 0.4000
1272.000000 0.3999 0.3999 0.4018 0.4014 0.4004
1267.000000 0.3904 0.3741 0.3579 0.3416 0.3334
1262.000000 0.3300 0.3268 0.3389 0.3660 0.3932
1257.000000 0.4205 0.4477 0.4749 0.5021 0.5293
1252.000000 0.5565 0.5871 0.5935 0.5996 0.6054
1247.000000 0.6110 0.6166 0.6214 0.6262 0.6300
1242.000000 0.6331 0.6353 0.6368 0.6383 0.6386
1237.000000 0.6387 0.6387 0.6388 0.6387 0.6384
1232.000000 0.6372 0.6360 0.6346 0.6312 0.6280
1227.000000 0.6248 0.6204 0.6155 0.6095 0.6009
1222.000000 0.5924 0.5839 0.5706 0.5290 0.4995
1217.000000 0.4699 0.4404 0.4109 0.3814 0.3518
1212.000000 0.3224 0.2998 0.2926 0.2892 0.2880
1207.000000 0.2879 0.2891 0.2913 0.2939 0.2965
1202.000000 0.2973 0.2968 0.2725 0.2474 0.2223
1197.000000 0.2001 0.1858 0.1754 0.1694 0.1690
1192.000000 0.1664 0.1758 0.1963 0.2168 0.2374
1187.000000 0.2579 0.2784 0.2989 0.3242 0.3242
1182.000000 0.3243 0.2737 0.2176 0.1823 0.1813
1177.000000 0.1841 0.1804 0.1804 0.2097 0.2606
1172.000000 0.3115 0.3624 0.4133 0.4642 0.5085
1167.000000 0.5291 0.5409 0.5516 0.5565 0.5609
1162.000000 0.5626 0.5631 0.5641 0.5639 0.5619
1157.000000 0.5582 0.5406 0.4908 0.4448 0.3988
1152.000000 0.3656 0.3566 0.3509 0.3500 0.3496
1147.000000 0.3627 0.3982 0.4338 0.4693 0.5049
1142.000000 0.5404 0.5718 0.5874 0.5973 0.6072
1137.000000 0.6171 0.6236 0.6293 0.6345 0.6389
1132.000000 0.6435 0.6450 0.6464 0.6458 0.6480
1127.000000 0.6478 0.6457 0.6357 0.6274 0.5799
1122.000000 0.5183 0.4568 0.3952 0.3336 0.3037
1117.000000 0.3089 0.3489 0.4146 0.4803 0.5460
1112.000000 0.6364 0.6481 0.6589 0.6669 0.6751
1107.000000 0.6818 0.6868 0.6910 0.6943 0.6958
1102.000000 0.6967 0.6975 0.6975 0.6983 0.6983
1097.000000 0.6983 0.6975 0.6969 0.6962 0.6950
1092.000000 0.6937 0.6924 0.6896 0.6845 0.6541
1087.000000 0.6166 0.5791 0.5416 0.5217 0.5193
1082.000000 0.5412 0.5669 0.5927 0.6184 0.6442
1077.000000 0.6678 0.6837 0.6972 0.7050 0.7111
1072.000000 0.7174 0.7218 0.7248 0.7278 0.7307
1067.000000 0.7336 0.7349 0.7360 0.7371 0.7383
1062.000000 0.7394 0.7406 0.7417 0.7428 0.7438
1057.000000 0.7448 0.7457 0.7467 0.7475 0.7486
1052.000000 0.7495 0.7505 0.7514 0.7524 0.7528
1047.000000 0.7531 0.7534 0.7537 0.7540 0.7542
1042.000000 0.7545 0.7548 0.7550 0.7553 0.7556
1037.000000 0.7558 0.7561 0.7564 0.7567 0.7589
1032.000000 0.7572 0.7575 0.7578 0.7582 0.7584
1027.000000 0.7587 0.7587 0.7582 0.7578 0.7572
1022.000000 0.7534 0.7444 0.7391 0.6995 0.6530
1017.000000 0.6064 0.5754 0.5746 0.5771 0.5926
1012.000000 0.6281 0.6636 0.6975 0.7118 0.7187
1007.000000 0.7251 0.7318 0.7378 0.7434 0.7483
1002.000000 0.7510 0.7537 0.7565 0.7592 0.7612
997.000000 0.7634 0.7655 0.7675 0.7697 0.7712
992.000000 0.7725 0.7737 0.7749 0.7758 0.7765
987.000000 0.7772 0.7778 0.7786 0.7792 0.7798
982.000000 0.7803 0.7808 0.7815 0.7818 0.7818
977.000000 0.7808 0.7815 0.7806 0.7797 0.7785
972.000000 0.7755 0.7715 0.7661 0.7603 0.7143
967.000000 0.6298 0.5760 0.5721 0.5727 0.6010
962.000000 0.6425 0.6841 0.7255 0.7438 0.7462
957.000000 0.7493 0.7515 0.7528 0.7503 0.7475
952.000000 0.7436 0.6147 0.5730 0.5756 0.5965
947.000000 0.6124 0.6283 0.6442 0.6578 0.6575
942.000000 0.6146 0.4697 0.4676 0.4849 0.5325
937.000000 0.5708 0.5712 0.5643 0.5560 0.5478
932.000000 0.5442 0.7199 0.7403 0.7503 0.7585
927.000000 0.7628 0.7664 0.7691 0.7718 0.7744
922.000000 0.7767 0.7788 0.7808 0.7838 0.7868
917.000000 0.7898 0.7928 0.7954 0.7971 0.7989
912.000000 0.8007 0.8025 0.8035 0.8044 0.8051
907.000000 0.8061 0.8068 0.8076 0.8078 0.8082
902.000000 0.8084 0.8087 0.8089 0.8090 0.8090
897.000000 0.8089 0.8088 0.8087 0.8098 0.8081
892.000000 0.8076 0.8074 0.8065 0.8051 0.8035
887.000000 0.7981 0.7937 0.7883 0.7824 0.7665
882.000000 0.6725 0.5786 0.4846 0.4635 0.4704
877.000000 0.5353 0.6001 0.6649 0.7297 0.7649
872.000000 0.7756 0.7857 0.7935 0.7982 0.8030
867.000000 0.8061 0.8095 0.8105 0.8111 0.8117
862.000000 0.8122 0.8128 0.8131 0.8133 0.8134
857.000000 0.8136 0.8138 0.8140 0.8142 0.8147
852.000000 0.8151 0.8156 0.8160 0.8165 0.8168
847.000000 0.8174 0.8178 0.8182 0.8187 0.8190
842.000000 0.8193 0.8195 0.8198 0.8210 0.8203
837.000000 0.8200 0.8196 0.8192 0.8189 0.8175
832.000000 0.8158 0.8141 0.8097 0.8054 0.7999
827.000000 0.7878 0.7760 0.7658 0.7556 0.7439
822.000000 0.7294 0.1760 0.1719 0.2201 0.3414
817.000000 0.4629 0.5166 0.5541 0.5916 0.6291
812.000000 0.6667 0.7042 0.7417 0.7744 0.7801
807.000000 0.7844 0.7875 0.7865 0.7887 0.7876
802.000000 0.7861 0.7800 0.6201 0.5021 0.4637
797.000000 0.4648 0.4649 0.4669 0.4934 0.5212
792.000000 0.5491 0.5770 0.6048 0.6326 0.6605
787.000000 0.6883 0.7161 0.7440 0.7707 0.7728
782.000000 0.7730 0.7693 0.7392 0.7092 0.6858
777.000000 0.6889 0.6895 0.7181 0.7465 0.7751
772.000000 0.7984 0.8053 0.8094 0.8115 0.8128
767.000000 0.8137 0.8124 0.8150 0.8150 0.8142
762.000000 0.8130 0.8103 0.8035 0.4590 0.4572
757.000000 0.4586 0.5068 0.5554 0.6040 0.6525
752.000000 0.7011 0.7498 0.7953 0.7969 0.7987
747.000000 0.7996 0.8003 0.8011 0.8017 0.8024
742.000000 0.8030 0.8035 0.8037 0.8039 0.8040
737.000000 0.8040 0.8040 0.8040 0.8037 0.8015
732.000000 0.7968 0.7908 0.7854 0.7799 0.7745
727.000000 0.7711 0.7690 0.7692 0.7699 0.7719
722.000000 0.7755 0.7818 0.7884 0.7944 0.7996
717.000000 0.8047 0.8099 0.8150 0.8196 0.8238
712.000000 0.8281 0.8325 0.8368 0.8386 0.8388
707.000000 0.8390 0.8393 0.8401 0.8409 0.8417
702.000000 0.8425 0.8435 0.8447 0.8459 0.8471
697.000000 0.8483 0.8495 0.8507 0.8518 0.8528
692.000000 0.8538 0.8546 0.8551 0.8556 0.8560
687.000000 0.8565 0.8564 0.8573 0.8559 0.8556
682.000000 0.8551 0.8544 0.8537 0.8528 0.8521
677.000000 0.8510 0.8494 0.8477 0.8460 0.8444
672.000000 0.8427 0.8412 0.8397 0.8383 0.8368
667.000000 0.8353 0.8339 0.8327 0.8318 0.8310
662.000000 0.8303 0.8300 0.8297 0.8294 0.8291
657.000000 0.8288 0.8285 0.8278 0.8271 0.8264
652.000000 0.8256 0.8249 0.8241 0.8225 0.8209
647.000000 0.8193 0.8175 0.8150 0.8124 0.8099
642.000000 0.8072 0.8012 0.7951 0.7886 0.7811
637.000000 0.7799 0.7787 0.7775 0.7762 0.7751
632.000000 0.7738 0.7725 0.7712 0.7701 0.7688
627.000000 0.7665 0.7635 0.7606 0.7565 0.7519
622.000000 0.7475 0.7430 0.7384 0.7335 0.7286
617.000000 0.7238 0.7189 0.6950 0.6767 0.6561
612.000000 0.6374 0.6132 0.5865 0.5599 0.5332
607.000000 0.5065 0.4799 0.4532 0.4266 0.4190
602.000000 0.4139 0.4285 0.4602 0.4920 0.5237
597.000000 0.5554 0.5871 0.6188 0.6505 0.6822
592.000000 0.7078 0.7101 0.7101 0.7095 0.7090
587.000000 0.7042 0.6948 0.6854 0.6721 0.6585
582.000000 0.6499 0.6414 0.6333 0.6258 0.6183
577.000000 0.6107 0.6032 0.5981 0.5930 0.5879
572.000000 0.5828 0.5777 0.5723 0.5654 0.5585
567.000000 0.5517 0.5466 0.5414 0.5362 0.5318
562.000000 0.5285 0.5253 0.5220 0.5185 0.5149
557.000000 0.5121 0.5106 0.5136 0.5117 0.5139
552.000000 0.5172 0.5202 0.5228 0.5215 0.5204
547.000000 0.5198 0.5193 0.5188 0.5188 0.5188
542.000000 0.5193 0.5212 0.5234 0.5257 0.5321
537.000000 0.5396 0.5452 0.5497 0.5541 0.5586
532.000000 0.5630 0.5675 0.5719 0.5762 0.5808
527.000000 0.5852 0.5897 0.5941 0.5985 0.6030
522.000000 0.6074 0.6119 0.6162 0.6208 0.6252
517.000000 0.6296 0.6341 0.6385 0.6430 0.6474
512.000000 0.6518 0.6562 0.6607 0.6651 0.6696
507.000000 0.6738 0.6774 0.6810 0.6846 0.6875
502.000000 0.6901 0.6926 0.6947 0.6965 0.6983
497.000000 0.7001 0.7018 0.7033 0.7048 0.7064
492.000000 0.7078 0.7094 0.7108 0.7122 0.7138
487.000000 0.7128 0.7128 0.7128 0.7099 0.7068
482.000000 0.7035 0.7008 0.6988 0.6975 0.6964
477.000000 0.6968 0.6974 0.6985 0.7037 0.7089
472.000000 0.7144 0.7212 0.7278 0.7325 0.7342
467.000000 0.7347 0.7348 0.7348 0.7347 0.7343
462.000000 0.7340 0.7349 0.7374 0.7403 0.7432
457.000000 0.7460 0.7488 0.7515 0.7545 0.7572
452.000000 0.7595 0.7615 0.7635 0.7655 0.7675
447.000000 0.7696 0.7703 0.7707 0.7711 0.7717
442.000000 0.7721 0.7725 0.7725 0.7725 0.7725
437.000000 0.7725 0.7724 0.7724 0.7724 0.7721
432.000000 0.7694 0.7715 0.7712 0.7710 0.7707
427.000000 0.7704 0.7701 0.7699 0.7696 0.7693
422.000000 0.7690 0.7687 0.7684 0.7678 0.7672
417.000000 0.7667 0.7661 0.7655 0.7649 0.7643
412.000000 0.7637 0.7634 0.7631 0.7628 0.7625
407.000000 0.7622 0.7619 0.7617 0.7614 0.7611
402.000000 0.7606 0.7599 0.7592 0.7585 0.7578
397.000000 0.7571 0.7565 0.7558 0.7553 0.7550
392.000000 0.7547 0.7544 0.7540 0.7536 0.7532
387.000000 0.7526 0.7521
##END=
