##TITLE=ORNITHINE, MONOPICRATE
##JCAMP-DX=4.24
##DATA TYPE=INFRARED SPECTRUM
##CLASS=COBLENTZ III
##ORIGIN=UNIVERSITY OF FLORIDA
##OWNER=Copyright (C) 1987 by the Coblentz Society
Collection (C) 2018 copyright by the U.S. Secretary of Commerce
on behalf of the United States of America. All rights reserved.
##DATE=1964/05/05
##MOLFORM=C11 H15 N5 O9
##SOURCE REFERENCE=COBLENTZ NO. 9971
##$NIST ID=B6009971
##$NIST SOURCE=COBLENTZ
##$NIST IMAGE=cob9971
##SPECTROMETER/DATA SYSTEM=BECKMAN IR-4 (HYBRID PRISM-GRATING)
##STATE=SOLID (KBr DISC)
##SAMPLING PROCEDURE=TRANSMISSION
##RESOLUTION=2
##DATA PROCESSING=DIGITIZED BY COBLENTZ SOCIETY (BATCH II) FROM HARD COPY
##XUNITS=1/CM
##YUNITS=TRANSMITTANCE
##XFACTOR=1.0
##YFACTOR=1
##FIRSTX=668
##LASTX=4000
##FIRSTY=0.5816
##MAXX=4000
##MINX=668
##MAXY=0.7216
##MINY=0.0375
##NPOINTS=3333
##XYDATA=(X++(Y..Y))
668.000000 0.5816 0.5635 0.5502 0.5527 0.5597
673.000000 0.5637 0.5670 0.5694 0.5709 0.5722
678.000000 0.5724 0.5721 0.5722 0.5712 0.5705
683.000000 0.5699 0.5689 0.5678 0.5659 0.5636
688.000000 0.5608 0.5583 0.5558 0.5530 0.5498
693.000000 0.5452 0.5398 0.5323 0.5197 0.5023
698.000000 0.4835 0.4567 0.4235 0.3967 0.3804
703.000000 0.3727 0.3696 0.3683 0.3617 0.3437
708.000000 0.3364 0.3377 0.3730 0.4146 0.4561
713.000000 0.4936 0.5160 0.5432 0.5590 0.5684
718.000000 0.5756 0.5810 0.5845 0.5868 0.5891
723.000000 0.5903 0.5914 0.5918 0.5928 0.5907
728.000000 0.5872 0.5783 0.5602 0.5338 0.5200
733.000000 0.5175 0.5319 0.5448 0.5513 0.5536
738.000000 0.5474 0.5391 0.5051 0.4488 0.3935
743.000000 0.3356 0.2613 0.2495 0.2485 0.3054
748.000000 0.3558 0.3965 0.4166 0.4305 0.4475
753.000000 0.4709 0.5148 0.5600 0.5829 0.5990
758.000000 0.6175 0.6283 0.6356 0.6415 0.6461
763.000000 0.6490 0.6510 0.6530 0.6538 0.6548
768.000000 0.6555 0.6563 0.6557 0.6548 0.6538
773.000000 0.6518 0.6479 0.6422 0.6353 0.6276
778.000000 0.6171 0.6045 0.5924 0.5887 0.5875
783.000000 0.5933 0.6020 0.6080 0.6092 0.6090
788.000000 0.5993 0.5902 0.5790 0.5641 0.5345
793.000000 0.4069 0.3036 0.2780 0.3724 0.4719
798.000000 0.5712 0.6338 0.6500 0.6645 0.6701
803.000000 0.6730 0.6743 0.6735 0.6751 0.6754
808.000000 0.6751 0.6745 0.6738 0.6729 0.6718
813.000000 0.6706 0.6693 0.6682 0.6671 0.6654
818.000000 0.6636 0.6618 0.6602 0.6587 0.6572
823.000000 0.6558 0.6550 0.6543 0.6537 0.6531
828.000000 0.6531 0.6532 0.6547 0.6557 0.6561
833.000000 0.6565 0.6568 0.6569 0.6568 0.6561
838.000000 0.6527 0.6479 0.6428 0.6374 0.6317
843.000000 0.6259 0.6192 0.6127 0.6071 0.6028
848.000000 0.6064 0.6129 0.6213 0.6303 0.6407
853.000000 0.6477 0.6531 0.6571 0.6579 0.6593
858.000000 0.6570 0.6555 0.6539 0.6523 0.6505
863.000000 0.6487 0.6468 0.6449 0.6426 0.6403
868.000000 0.6381 0.6350 0.6319 0.6288 0.6225
873.000000 0.6154 0.6038 0.5925 0.5810 0.5690
878.000000 0.5507 0.5415 0.5371 0.5583 0.5697
883.000000 0.5800 0.5904 0.6025 0.6121 0.6197
888.000000 0.6239 0.6251 0.6248 0.6253 0.6226
893.000000 0.6193 0.6133 0.6053 0.5943 0.5799
898.000000 0.5648 0.5498 0.5341 0.5005 0.4627
903.000000 0.4250 0.3873 0.3494 0.3393 0.3370
908.000000 0.4047 0.4588 0.5127 0.5630 0.5940
913.000000 0.6106 0.6227 0.6317 0.6374 0.6425
918.000000 0.6447 0.6464 0.6480 0.6438 0.6413
923.000000 0.6376 0.6334 0.6281 0.6215 0.6142
928.000000 0.6051 0.5950 0.5834 0.5681 0.5453
933.000000 0.5186 0.4933 0.4115 0.3647 0.3597
938.000000 0.3567 0.4034 0.4428 0.4823 0.5216
943.000000 0.5608 0.5886 0.6045 0.6212 0.6337
948.000000 0.6430 0.6508 0.6573 0.6613 0.6643
953.000000 0.6653 0.6663 0.6670 0.6676 0.6685
958.000000 0.6678 0.6675 0.6671 0.6665 0.6659
963.000000 0.6647 0.6633 0.6617 0.6598 0.6580
968.000000 0.6559 0.6531 0.6504 0.6490 0.6481
973.000000 0.6483 0.6489 0.6503 0.6517 0.6532
978.000000 0.6546 0.6556 0.6558 0.6557 0.6556
983.000000 0.6555 0.6553 0.6549 0.6541 0.6533
988.000000 0.6522 0.6501 0.6480 0.6456 0.6431
993.000000 0.6407 0.6381 0.6356 0.6325 0.6294
998.000000 0.6264 0.6226 0.6205 0.6204 0.6204
1003.000000 0.6214 0.6227 0.6242 0.6267 0.6275
1008.000000 0.6273 0.6264 0.6231 0.6192 0.6155
1013.000000 0.6117 0.6064 0.6053 0.6052 0.6072
1018.000000 0.6122 0.6165 0.6217 0.6252 0.6272
1023.000000 0.6283 0.6287 0.6276 0.6261 0.6240
1028.000000 0.6206 0.6167 0.6124 0.6081 0.6030
1033.000000 0.5971 0.5850 0.5771 0.5692 0.5611
1038.000000 0.5502 0.5340 0.5242 0.5223 0.5298
1043.000000 0.5411 0.5526 0.5639 0.5754 0.5867
1048.000000 0.5950 0.5994 0.6032 0.6051 0.6066
1053.000000 0.6066 0.6057 0.6063 0.6048 0.6035
1058.000000 0.6019 0.6002 0.5985 0.5967 0.5948
1063.000000 0.5929 0.5909 0.5889 0.5869 0.5856
1068.000000 0.5847 0.5825 0.5780 0.5722 0.5663
1073.000000 0.5591 0.5503 0.5397 0.5277 0.5047
1078.000000 0.4602 0.4410 0.4286 0.4206 0.4197
1083.000000 0.4183 0.4219 0.4248 0.4401 0.4563
1088.000000 0.4723 0.4884 0.5045 0.5204 0.5365
1093.000000 0.5485 0.5526 0.5536 0.5539 0.5519
1098.000000 0.5492 0.5353 0.5107 0.4862 0.4618
1103.000000 0.4373 0.4130 0.4030 0.4036 0.4316
1108.000000 0.4579 0.4841 0.5104 0.5417 0.5593
1113.000000 0.5666 0.5700 0.5730 0.5754 0.5769
1118.000000 0.5779 0.5779 0.5777 0.5776 0.5802
1123.000000 0.5761 0.5753 0.5743 0.5730 0.5704
1128.000000 0.5676 0.5648 0.5619 0.5576 0.5533
1133.000000 0.5489 0.5446 0.5402 0.5346 0.5280
1138.000000 0.5161 0.4974 0.4830 0.4688 0.4546
1143.000000 0.4403 0.4262 0.4121 0.3970 0.3843
1148.000000 0.3822 0.3902 0.4009 0.4117 0.4225
1153.000000 0.4333 0.4424 0.4458 0.4454 0.4446
1158.000000 0.4426 0.4396 0.4363 0.4323 0.4286
1163.000000 0.4276 0.4253 0.4472 0.4668 0.4864
1168.000000 0.5061 0.5256 0.5449 0.5569 0.5667
1173.000000 0.5726 0.5752 0.5768 0.5778 0.5784
1178.000000 0.5788 0.5791 0.5779 0.5770 0.5760
1183.000000 0.5740 0.5720 0.5693 0.5667 0.5641
1188.000000 0.5614 0.5588 0.5562 0.5536 0.5506
1193.000000 0.5475 0.5445 0.5414 0.5383 0.5350
1198.000000 0.5318 0.5285 0.5251 0.5216 0.5186
1203.000000 0.5167 0.5147 0.5128 0.5107 0.5087
1208.000000 0.5066 0.5043 0.5019 0.4995 0.4968
1213.000000 0.4940 0.4912 0.4885 0.4846 0.4799
1218.000000 0.4752 0.4705 0.4653 0.4592 0.4531
1223.000000 0.4470 0.4408 0.4345 0.4281 0.4218
1228.000000 0.4153 0.4066 0.3976 0.3886 0.3790
1233.000000 0.3656 0.3517 0.3345 0.3165 0.3043
1238.000000 0.2987 0.2930 0.2823 0.2726 0.2700
1243.000000 0.2686 0.2675 0.2673 0.2669 0.2668
1248.000000 0.2670 0.2673 0.2675 0.2676 0.2657
1253.000000 0.2598 0.2529 0.2431 0.2342 0.2266
1258.000000 0.2189 0.2112 0.2014 0.1883 0.1753
1263.000000 0.1621 0.1488 0.1354 0.1202 0.1036
1268.000000 0.0888 0.0809 0.0760 0.0739 0.0732
1273.000000 0.0731 0.0721 0.0740 0.0750 0.0761
1278.000000 0.0781 0.0807 0.0878 0.1136 0.1416
1283.000000 0.1696 0.1974 0.2253 0.2531 0.2809
1288.000000 0.3086 0.3363 0.3639 0.3912 0.4066
1293.000000 0.4113 0.4134 0.4128 0.4145 0.4137
1298.000000 0.4117 0.4034 0.3949 0.3863 0.3779
1303.000000 0.3693 0.3633 0.3614 0.3623 0.3631
1308.000000 0.3633 0.3632 0.3621 0.3562 0.3416
1313.000000 0.3285 0.3154 0.3024 0.2894 0.2764
1318.000000 0.2635 0.2505 0.2376 0.2247 0.2117
1323.000000 0.1989 0.1860 0.1732 0.1604 0.1476
1328.000000 0.1348 0.1221 0.1094 0.0974 0.0868
1333.000000 0.0765 0.0614 0.0552 0.0504 0.0456
1338.000000 0.0415 0.0385 0.0379 0.0384 0.0375
1343.000000 0.0409 0.0444 0.0498 0.0583 0.0683
1348.000000 0.0934 0.1243 0.1552 0.1861 0.2169
1353.000000 0.2477 0.2748 0.2881 0.2988 0.3065
1358.000000 0.3130 0.3189 0.3244 0.3318 0.3350
1363.000000 0.3362 0.3365 0.3343 0.3355 0.3261
1368.000000 0.3097 0.2933 0.2769 0.2606 0.2482
1373.000000 0.2452 0.2451 0.2431 0.2942 0.3301
1378.000000 0.3659 0.4016 0.4373 0.4730 0.5086
1383.000000 0.5398 0.5521 0.5575 0.5620 0.5664
1388.000000 0.5702 0.5731 0.5742 0.5744 0.5745
1393.000000 0.5746 0.5740 0.5737 0.5725 0.5708
1398.000000 0.5682 0.5584 0.5475 0.5365 0.5256
1403.000000 0.5148 0.5038 0.4929 0.4821 0.4713
1408.000000 0.4604 0.4496 0.4388 0.4281 0.4173
1413.000000 0.4065 0.3962 0.3888 0.3806 0.3769
1418.000000 0.3743 0.3736 0.3740 0.3745 0.3756
1423.000000 0.3776 0.3790 0.3801 0.3804 0.3806
1428.000000 0.3804 0.3795 0.3722 0.3602 0.3483
1433.000000 0.3363 0.3243 0.3123 0.3004 0.2885
1438.000000 0.2766 0.2647 0.2522 0.2414 0.2388
1443.000000 0.2364 0.2398 0.2415 0.2472 0.2548
1448.000000 0.2613 0.2659 0.2683 0.2701 0.2733
1453.000000 0.2783 0.2840 0.2906 0.2967 0.3004
1458.000000 0.3017 0.3016 0.3032 0.3007 0.3001
1463.000000 0.2991 0.2975 0.2943 0.2887 0.2799
1468.000000 0.2657 0.2515 0.2147 0.1748 0.1581
1473.000000 0.1457 0.1381 0.1321 0.1275 0.1230
1478.000000 0.1191 0.1159 0.1129 0.1097 0.1066
1483.000000 0.1033 0.1000 0.0967 0.0939 0.0922
1488.000000 0.0909 0.0901 0.0903 0.0907 0.0878
1493.000000 0.0925 0.0956 0.1004 0.1052 0.1108
1498.000000 0.1179 0.1267 0.1356 0.1416 0.1478
1503.000000 0.1544 0.1632 0.2023 0.2176 0.2286
1508.000000 0.2354 0.2411 0.2450 0.2496 0.2566
1513.000000 0.2689 0.2872 0.3027 0.3145 0.3227
1518.000000 0.3279 0.3329 0.3370 0.3410 0.3449
1523.000000 0.3486 0.3520 0.3555 0.3589 0.3621
1528.000000 0.3652 0.3682 0.3708 0.3734 0.3760
1533.000000 0.3786 0.3811 0.3836 0.3859 0.3883
1538.000000 0.3900 0.3908 0.3912 0.3916 0.3912
1543.000000 0.3902 0.3893 0.3922 0.3857 0.3772
1548.000000 0.3682 0.3593 0.3503 0.3414 0.3324
1553.000000 0.3234 0.3145 0.3069 0.3032 0.3002
1558.000000 0.2972 0.2947 0.2924 0.2900 0.2869
1563.000000 0.2803 0.2679 0.2529 0.2377 0.2226
1568.000000 0.2074 0.1924 0.1781 0.1733 0.1693
1573.000000 0.1880 0.2017 0.2096 0.2145 0.2212
1578.000000 0.2268 0.2294 0.2301 0.2303 0.2312
1583.000000 0.2296 0.2283 0.2262 0.2235 0.2182
1588.000000 0.2130 0.2105 0.2101 0.2103 0.2085
1593.000000 0.2131 0.2160 0.2192 0.2220 0.2242
1598.000000 0.2260 0.2273 0.2280 0.2280 0.2279
1603.000000 0.2276 0.2270 0.2271 0.2217 0.2171
1608.000000 0.2127 0.2082 0.2037 0.1993 0.1947
1613.000000 0.1903 0.1859 0.1814 0.1770 0.1725
1618.000000 0.1681 0.1636 0.1592 0.1548 0.1504
1623.000000 0.1460 0.1416 0.1372 0.1328 0.1284
1628.000000 0.1234 0.1171 0.1112 0.1084 0.1060
1633.000000 0.1039 0.1033 0.1027 0.1021 0.1020
1638.000000 0.1022 0.1015 0.1030 0.1034 0.1040
1643.000000 0.1046 0.1053 0.1060 0.1068 0.1079
1648.000000 0.1090 0.1104 0.1124 0.1144 0.1173
1653.000000 0.1211 0.1323 0.1504 0.1695 0.1877
1658.000000 0.2058 0.2239 0.2420 0.2601 0.2781
1663.000000 0.2961 0.3142 0.3308 0.3444 0.3586
1668.000000 0.3751 0.3806 0.3861 0.3916 0.3970
1673.000000 0.4020 0.4068 0.4115 0.4162 0.4226
1678.000000 0.4355 0.4570 0.4613 0.4656 0.4699
1683.000000 0.4744 0.4792 0.4839 0.4886 0.4934
1688.000000 0.4981 0.5029 0.5078 0.5166 0.5334
1693.000000 0.5505 0.5575 0.5597 0.5621 0.5643
1698.000000 0.5659 0.5674 0.5688 0.5703 0.5717
1703.000000 0.5732 0.5753 0.5791 0.5837 0.5888
1708.000000 0.5947 0.6014 0.6082 0.6115 0.6149
1713.000000 0.6176 0.6196 0.6211 0.6227 0.6242
1718.000000 0.6252 0.6262 0.6271 0.6284 0.6304
1723.000000 0.6336 0.6420 0.6527 0.6599 0.6651
1728.000000 0.6695 0.6716 0.6737 0.6759 0.6778
1733.000000 0.6792 0.6801 0.6809 0.6818 0.6827
1738.000000 0.6835 0.6843 0.6849 0.6855 0.6860
1743.000000 0.6865 0.6871 0.6877 0.6882 0.6887
1748.000000 0.6892 0.6898 0.6904 0.6910 0.6917
1753.000000 0.6924 0.6931 0.6939 0.6950 0.6963
1758.000000 0.6976 0.6989 0.7002 0.7015 0.7028
1763.000000 0.7041 0.7049 0.7057 0.7064 0.7071
1768.000000 0.7079 0.7086 0.7094 0.7101 0.7109
1773.000000 0.7115 0.7120 0.7124 0.7129 0.7133
1778.000000 0.7137 0.7142 0.7146 0.7150 0.7155
1783.000000 0.7159 0.7163 0.7168 0.7172 0.7177
1788.000000 0.7181 0.7186 0.7190 0.7194 0.7199
1793.000000 0.7204 0.7207 0.7208 0.7208 0.7208
1798.000000 0.7208 0.7207 0.7216 0.7207 0.7207
1803.000000 0.7207 0.7206 0.7206 0.7206 0.7206
1808.000000 0.7206 0.7205 0.7205 0.7204 0.7204
1813.000000 0.7203 0.7203 0.7202 0.7201 0.7200
1818.000000 0.7200 0.7200 0.7199 0.7198 0.7198
1823.000000 0.7198 0.7198 0.7198 0.7198 0.7199
1828.000000 0.7199 0.7199 0.7199 0.7200 0.7200
1833.000000 0.7200 0.7200 0.7200 0.7201 0.7201
1838.000000 0.7201 0.7199 0.7197 0.7194 0.7192
1843.000000 0.7190 0.7188 0.7186 0.7183 0.7181
1848.000000 0.7177 0.7169 0.7160 0.7151 0.7141
1853.000000 0.7132 0.7122 0.7113 0.7103 0.7094
1858.000000 0.7083 0.7070 0.7056 0.7043 0.7030
1863.000000 0.7016 0.7003 0.6990 0.6976 0.6963
1868.000000 0.6950 0.6936 0.6922 0.6908 0.6902
1873.000000 0.6899 0.6897 0.6902 0.6900 0.6905
1878.000000 0.6910 0.6916 0.6922 0.6929 0.6936
1883.000000 0.6943 0.6951 0.6962 0.6973 0.6985
1888.000000 0.6996 0.7009 0.7023 0.7037 0.7051
1893.000000 0.7063 0.7073 0.7084 0.7094 0.7103
1898.000000 0.7109 0.7116 0.7122 0.7127 0.7129
1903.000000 0.7130 0.7132 0.7134 0.7137 0.7139
1908.000000 0.7140 0.7141 0.7140 0.7140 0.7140
1913.000000 0.7139 0.7139 0.7139 0.7139 0.7139
1918.000000 0.7140 0.7140 0.7140 0.7140 0.7139
1923.000000 0.7139 0.7138 0.7137 0.7137 0.7136
1928.000000 0.7135 0.7135 0.7135 0.7134 0.7133
1933.000000 0.7133 0.7131 0.7129 0.7127 0.7124
1938.000000 0.7121 0.7119 0.7117 0.7114 0.7112
1943.000000 0.7110 0.7108 0.7103 0.7098 0.7094
1948.000000 0.7089 0.7085 0.7081 0.7076 0.7072
1953.000000 0.7067 0.7062 0.7058 0.7053 0.7049
1958.000000 0.7045 0.7040 0.7034 0.7028 0.7022
1963.000000 0.7016 0.7010 0.7004 0.6998 0.6991
1968.000000 0.6985 0.6979 0.6973 0.6967 0.6961
1973.000000 0.6956 0.6951 0.6946 0.6941 0.6936
1978.000000 0.6931 0.6926 0.6921 0.6915 0.6910
1983.000000 0.6906 0.6901 0.6896 0.6891 0.6886
1988.000000 0.6881 0.6876 0.6871 0.6866 0.6861
1993.000000 0.6857 0.6853 0.6849 0.6846 0.6842
1998.000000 0.6838 0.6834 0.6831 0.6827 0.6823
2003.000000 0.6819 0.6816 0.6812 0.6808 0.6804
2008.000000 0.6801 0.6797 0.6793 0.6789 0.6786
2013.000000 0.6782 0.6780 0.6778 0.6777 0.6775
2018.000000 0.6773 0.6772 0.6771 0.6770 0.6768
2023.000000 0.6767 0.6765 0.6764 0.6762 0.6761
2028.000000 0.6760 0.6758 0.6757 0.6755 0.6754
2033.000000 0.6753 0.6752 0.6750 0.6748 0.6748
2038.000000 0.6748 0.6748 0.6749 0.6750 0.6750
2043.000000 0.6751 0.6751 0.6753 0.6754 0.6754
2048.000000 0.6755 0.6755 0.6756 0.6757 0.6757
2053.000000 0.6758 0.6759 0.6759 0.6758 0.6756
2058.000000 0.6754 0.6752 0.6750 0.6748 0.6746
2063.000000 0.6744 0.6741 0.6739 0.6737 0.6735
2068.000000 0.6733 0.6731 0.6728 0.6726 0.6723
2073.000000 0.6720 0.6718 0.6716 0.6713 0.6710
2078.000000 0.6708 0.6705 0.6702 0.6700 0.6697
2083.000000 0.6694 0.6692 0.6690 0.6687 0.6684
2088.000000 0.6682 0.6679 0.6676 0.6676 0.6676
2093.000000 0.6676 0.6676 0.6676 0.6676 0.6676
2098.000000 0.6676 0.6676 0.6676 0.6676 0.6676
2103.000000 0.6676 0.6676 0.6676 0.6676 0.6676
2108.000000 0.6676 0.6677 0.6678 0.6680 0.6683
2113.000000 0.6686 0.6689 0.6691 0.6694 0.6697
2118.000000 0.6700 0.6702 0.6705 0.6707 0.6710
2123.000000 0.6713 0.6715 0.6718 0.6721 0.6723
2128.000000 0.6726 0.6730 0.6734 0.6738 0.6743
2133.000000 0.6748 0.6752 0.6757 0.6762 0.6767
2138.000000 0.6771 0.6775 0.6780 0.6784 0.6788
2143.000000 0.6792 0.6796 0.6800 0.6805 0.6809
2148.000000 0.6812 0.6816 0.6820 0.6824 0.6829
2153.000000 0.6832 0.6836 0.6841 0.6845 0.6848
2158.000000 0.6851 0.6853 0.6854 0.6856 0.6858
2163.000000 0.6860 0.6862 0.6865 0.6867 0.6868
2168.000000 0.6870 0.6872 0.6874 0.6876 0.6878
2173.000000 0.6880 0.6882 0.6882 0.6882 0.6882
2178.000000 0.6883 0.6883 0.6884 0.6884 0.6884
2183.000000 0.6884 0.6885 0.6885 0.6886 0.6886
2188.000000 0.6885 0.6885 0.6883 0.6882 0.6880
2193.000000 0.6878 0.6877 0.6875 0.6874 0.6872
2198.000000 0.6870 0.6868 0.6867 0.6865 0.6863
2203.000000 0.6862 0.6860 0.6859 0.6857 0.6856
2208.000000 0.6854 0.6852 0.6848 0.6844 0.6841
2213.000000 0.6837 0.6833 0.6829 0.6826 0.6822
2218.000000 0.6818 0.6814 0.6810 0.6806 0.6802
2223.000000 0.6799 0.6795 0.6792 0.6788 0.6784
2228.000000 0.6780 0.6777 0.6774 0.6771 0.6769
2233.000000 0.6766 0.6764 0.6761 0.6759 0.6756
2238.000000 0.6754 0.6751 0.6749 0.6746 0.6744
2243.000000 0.6741 0.6739 0.6736 0.6734 0.6731
2248.000000 0.6729 0.6727 0.6725 0.6724 0.6723
2253.000000 0.6722 0.6721 0.6720 0.6719 0.6718
2258.000000 0.6717 0.6716 0.6715 0.6714 0.6713
2263.000000 0.6712 0.6712 0.6711 0.6710 0.6709
2268.000000 0.6708 0.6707 0.6706 0.6705 0.6704
2273.000000 0.6703 0.6702 0.6701 0.6700 0.6699
2278.000000 0.6698 0.6697 0.6696 0.6696 0.6695
2283.000000 0.6695 0.6694 0.6693 0.6692 0.6692
2288.000000 0.6691 0.6690 0.6689 0.6689 0.6688
2293.000000 0.6687 0.6686 0.6686 0.6685 0.6684
2298.000000 0.6683 0.6683 0.6682 0.6682 0.6682
2303.000000 0.6681 0.6680 0.6679 0.6679 0.6678
2308.000000 0.6677 0.6676 0.6676 0.6675 0.6674
2313.000000 0.6673 0.6673 0.6672 0.6671 0.6671
2318.000000 0.6671 0.6671 0.6671 0.6671 0.6671
2323.000000 0.6671 0.6671 0.6671 0.6671 0.6671
2328.000000 0.6671 0.6671 0.6671 0.6671 0.6671
2333.000000 0.6671 0.6671 0.6671 0.6671 0.6671
2338.000000 0.6671 0.6671 0.6671 0.6671 0.6671
2343.000000 0.6671 0.6671 0.6671 0.6670 0.6669
2348.000000 0.6667 0.6665 0.6663 0.6660 0.6658
2353.000000 0.6656 0.6654 0.6651 0.6649 0.6647
2358.000000 0.6645 0.6642 0.6640 0.6637 0.6633
2363.000000 0.6628 0.6622 0.6617 0.6610 0.6604
2368.000000 0.6598 0.6592 0.6586 0.6580 0.6574
2373.000000 0.6568 0.6562 0.6555 0.6549 0.6542
2378.000000 0.6535 0.6528 0.6521 0.6514 0.6507
2383.000000 0.6500 0.6493 0.6487 0.6480 0.6473
2388.000000 0.6466 0.6459 0.6452 0.6445 0.6438
2393.000000 0.6431 0.6424 0.6417 0.6410 0.6403
2398.000000 0.6396 0.6389 0.6382 0.6375 0.6368
2403.000000 0.6361 0.6353 0.6346 0.6339 0.6332
2408.000000 0.6325 0.6318 0.6310 0.6303 0.6296
2413.000000 0.6288 0.6282 0.6275 0.6268 0.6260
2418.000000 0.6253 0.6246 0.6238 0.6232 0.6225
2423.000000 0.6218 0.6211 0.6204 0.6199 0.6193
2428.000000 0.6187 0.6181 0.6175 0.6169 0.6163
2433.000000 0.6157 0.6151 0.6146 0.6140 0.6134
2438.000000 0.6129 0.6123 0.6117 0.6111 0.6105
2443.000000 0.6099 0.6093 0.6088 0.6082 0.6077
2448.000000 0.6071 0.6065 0.6060 0.6054 0.6049
2453.000000 0.6043 0.6037 0.6032 0.6026 0.6021
2458.000000 0.6016 0.6010 0.6004 0.5999 0.5993
2463.000000 0.5988 0.5982 0.5977 0.5972 0.5966
2468.000000 0.5960 0.5955 0.5949 0.5944 0.5937
2473.000000 0.5931 0.5925 0.5918 0.5912 0.5906
2478.000000 0.5900 0.5893 0.5887 0.5880 0.5874
2483.000000 0.5867 0.5861 0.5855 0.5849 0.5842
2488.000000 0.5836 0.5829 0.5823 0.5817 0.5811
2493.000000 0.5805 0.5801 0.5797 0.5792 0.5788
2498.000000 0.5783 0.5779 0.5775 0.5770 0.5765
2503.000000 0.5760 0.5756 0.5752 0.5747 0.5743
2508.000000 0.5738 0.5734 0.5730 0.5724 0.5719
2513.000000 0.5713 0.5707 0.5701 0.5695 0.5690
2518.000000 0.5684 0.5679 0.5673 0.5668 0.5662
2523.000000 0.5657 0.5651 0.5646 0.5640 0.5634
2528.000000 0.5628 0.5623 0.5617 0.5613 0.5608
2533.000000 0.5603 0.5598 0.5594 0.5589 0.5584
2538.000000 0.5580 0.5575 0.5571 0.5566 0.5561
2543.000000 0.5557 0.5552 0.5547 0.5543 0.5538
2548.000000 0.5533 0.5529 0.5524 0.5519 0.5514
2553.000000 0.5509 0.5505 0.5501 0.5497 0.5494
2558.000000 0.5492 0.5489 0.5486 0.5484 0.5481
2563.000000 0.5478 0.5476 0.5473 0.5470 0.5468
2568.000000 0.5465 0.5462 0.5460 0.5457 0.5455
2573.000000 0.5452 0.5449 0.5446 0.5443 0.5440
2578.000000 0.5438 0.5436 0.5433 0.5431 0.5429
2583.000000 0.5427 0.5425 0.5423 0.5421 0.5419
2588.000000 0.5416 0.5414 0.5412 0.5410 0.5408
2593.000000 0.5405 0.5402 0.5398 0.5394 0.5390
2598.000000 0.5386 0.5382 0.5378 0.5374 0.5370
2603.000000 0.5366 0.5362 0.5358 0.5353 0.5348
2608.000000 0.5341 0.5334 0.5327 0.5320 0.5314
2613.000000 0.5307 0.5301 0.5294 0.5287 0.5281
2618.000000 0.5274 0.5268 0.5261 0.5255 0.5248
2623.000000 0.5241 0.5235 0.5228 0.5221 0.5214
2628.000000 0.5208 0.5201 0.5195 0.5188 0.5182
2633.000000 0.5175 0.5169 0.5162 0.5155 0.5147
2638.000000 0.5140 0.5133 0.5126 0.5119 0.5112
2643.000000 0.5104 0.5097 0.5090 0.5083 0.5076
2648.000000 0.5069 0.5062 0.5055 0.5048 0.5042
2653.000000 0.5035 0.5029 0.5022 0.5016 0.5009
2658.000000 0.5003 0.4996 0.4990 0.4983 0.4977
2663.000000 0.4972 0.4967 0.4963 0.4960 0.4959
2668.000000 0.4958 0.4956 0.4955 0.4953 0.4952
2673.000000 0.4951 0.4949 0.4947 0.4946 0.4944
2678.000000 0.4943 0.4941 0.4940 0.4938 0.4937
2683.000000 0.4935 0.4934 0.4932 0.4931 0.4929
2688.000000 0.4928 0.4926 0.4925 0.4924 0.4922
2693.000000 0.4921 0.4919 0.4918 0.4917 0.4916
2698.000000 0.4915 0.4914 0.4913 0.4913 0.4912
2703.000000 0.4911 0.4910 0.4909 0.4908 0.4907
2708.000000 0.4906 0.4905 0.4905 0.4904 0.4903
2713.000000 0.4902 0.4902 0.4901 0.4900 0.4900
2718.000000 0.4899 0.4898 0.4897 0.4895 0.4891
2723.000000 0.4888 0.4884 0.4878 0.4872 0.4866
2728.000000 0.4861 0.4855 0.4846 0.4837 0.4827
2733.000000 0.4816 0.4806 0.4795 0.4784 0.4774
2738.000000 0.4763 0.4752 0.4741 0.4730 0.4721
2743.000000 0.4713 0.4705 0.4698 0.4691 0.4683
2748.000000 0.4676 0.4668 0.4661 0.4653 0.4645
2753.000000 0.4638 0.4630 0.4623 0.4615 0.4608
2758.000000 0.4600 0.4592 0.4585 0.4577 0.4570
2763.000000 0.4562 0.4555 0.4547 0.4539 0.4532
2768.000000 0.4524 0.4516 0.4509 0.4501 0.4494
2773.000000 0.4486 0.4479 0.4471 0.4464 0.4456
2778.000000 0.4449 0.4441 0.4433 0.4426 0.4418
2783.000000 0.4411 0.4403 0.4395 0.4387 0.4379
2788.000000 0.4370 0.4361 0.4352 0.4343 0.4335
2793.000000 0.4326 0.4317 0.4309 0.4300 0.4292
2798.000000 0.4283 0.4274 0.4266 0.4257 0.4248
2803.000000 0.4240 0.4231 0.4223 0.4214 0.4205
2808.000000 0.4196 0.4187 0.4179 0.4170 0.4162
2813.000000 0.4153 0.4145 0.4136 0.4128 0.4119
2818.000000 0.4111 0.4102 0.4094 0.4085 0.4077
2823.000000 0.4068 0.4060 0.4051 0.4043 0.4034
2828.000000 0.4026 0.4018 0.4009 0.4001 0.3992
2833.000000 0.3984 0.3975 0.3967 0.3958 0.3949
2838.000000 0.3939 0.3929 0.3918 0.3908 0.3897
2843.000000 0.3887 0.3877 0.3867 0.3857 0.3846
2848.000000 0.3836 0.3826 0.3816 0.3806 0.3795
2853.000000 0.3785 0.3774 0.3764 0.3754 0.3744
2858.000000 0.3734 0.3724 0.3714 0.3703 0.3693
2863.000000 0.3683 0.3672 0.3662 0.3652 0.3642
2868.000000 0.3632 0.3622 0.3612 0.3601 0.3590
2873.000000 0.3579 0.3567 0.3556 0.3544 0.3532
2878.000000 0.3521 0.3509 0.3498 0.3486 0.3475
2883.000000 0.3463 0.3452 0.3440 0.3428 0.3417
2888.000000 0.3405 0.3394 0.3382 0.3371 0.3360
2893.000000 0.3349 0.3338 0.3327 0.3315 0.3304
2898.000000 0.3293 0.3282 0.3271 0.3260 0.3249
2903.000000 0.3238 0.3227 0.3216 0.3204 0.3193
2908.000000 0.3182 0.3171 0.3160 0.3150 0.3141
2913.000000 0.3131 0.3121 0.3112 0.3102 0.3093
2918.000000 0.3083 0.3074 0.3064 0.3054 0.3045
2923.000000 0.3036 0.3026 0.3017 0.3008 0.2998
2928.000000 0.2989 0.2980 0.2970 0.2961 0.2952
2933.000000 0.2942 0.2933 0.2924 0.2914 0.2904
2938.000000 0.2895 0.2885 0.2876 0.2866 0.2857
2943.000000 0.2847 0.2838 0.2828 0.2819 0.2810
2948.000000 0.2801 0.2791 0.2782 0.2772 0.2763
2953.000000 0.2755 0.2747 0.2739 0.2732 0.2725
2958.000000 0.2718 0.2711 0.2703 0.2696 0.2689
2963.000000 0.2682 0.2675 0.2668 0.2661 0.2654
2968.000000 0.2646 0.2639 0.2632 0.2624 0.2616
2973.000000 0.2607 0.2598 0.2589 0.2580 0.2571
2978.000000 0.2562 0.2552 0.2543 0.2534 0.2525
2983.000000 0.2516 0.2506 0.2496 0.2486 0.2476
2988.000000 0.2465 0.2454 0.2443 0.2432 0.2421
2993.000000 0.2411 0.2400 0.2388 0.2377 0.2366
2998.000000 0.2355 0.2344 0.2333 0.2322 0.2313
3003.000000 0.2306 0.2298 0.2290 0.2282 0.2275
3008.000000 0.2267 0.2259 0.2251 0.2243 0.2235
3013.000000 0.2227 0.2219 0.2212 0.2204 0.2195
3018.000000 0.2185 0.2176 0.2166 0.2155 0.2143
3023.000000 0.2132 0.2121 0.2109 0.2098 0.2087
3028.000000 0.2076 0.2066 0.2056 0.2047 0.2039
3033.000000 0.2030 0.2022 0.2014 0.2006 0.1998
3038.000000 0.1991 0.1985 0.1979 0.1973 0.1968
3043.000000 0.1964 0.1961 0.1957 0.1954 0.1951
3048.000000 0.1949 0.1946 0.1946 0.1945 0.1945
3053.000000 0.1924 0.1945 0.1945 0.1945 0.1945
3058.000000 0.1945 0.1945 0.1946 0.1946 0.1947
3063.000000 0.1947 0.1948 0.1949 0.1950 0.1951
3068.000000 0.1952 0.1954 0.1956 0.1958 0.1960
3073.000000 0.1963 0.1965 0.1967 0.1971 0.1974
3078.000000 0.1978 0.1981 0.1985 0.1989 0.1993
3083.000000 0.1998 0.2003 0.2009 0.2014 0.2020
3088.000000 0.2026 0.2033 0.2039 0.2047 0.2055
3093.000000 0.2064 0.2072 0.2085 0.2099 0.2112
3098.000000 0.2126 0.2141 0.2155 0.2170 0.2184
3103.000000 0.2198 0.2212 0.2226 0.2241 0.2256
3108.000000 0.2272 0.2287 0.2304 0.2321 0.2339
3113.000000 0.2356 0.2383 0.2414 0.2445 0.2476
3118.000000 0.2513 0.2552 0.2590 0.2629 0.2673
3123.000000 0.2717 0.2762 0.2807 0.2845 0.2884
3128.000000 0.2922 0.2961 0.2997 0.3033 0.3069
3133.000000 0.3105 0.3140 0.3176 0.3212 0.3248
3138.000000 0.3284 0.3320 0.3355 0.3391 0.3427
3143.000000 0.3462 0.3498 0.3534 0.3570 0.3606
3148.000000 0.3641 0.3677 0.3713 0.3748 0.3784
3153.000000 0.3811 0.3826 0.3841 0.3856 0.3871
3158.000000 0.3885 0.3899 0.3913 0.3934 0.3966
3163.000000 0.3997 0.4028 0.4053 0.4071 0.4089
3168.000000 0.4107 0.4125 0.4143 0.4160 0.4178
3173.000000 0.4197 0.4219 0.4240 0.4261 0.4283
3178.000000 0.4307 0.4330 0.4354 0.4377 0.4400
3183.000000 0.4423 0.4446 0.4468 0.4489 0.4510
3188.000000 0.4530 0.4551 0.4572 0.4592 0.4613
3193.000000 0.4637 0.4682 0.4726 0.4770 0.4814
3198.000000 0.4844 0.4875 0.4905 0.4936 0.4954
3203.000000 0.4972 0.4989 0.5007 0.5025 0.5043
3208.000000 0.5060 0.5078 0.5093 0.5106 0.5120
3213.000000 0.5134 0.5146 0.5159 0.5172 0.5184
3218.000000 0.5197 0.5209 0.5221 0.5234 0.5246
3223.000000 0.5258 0.5271 0.5283 0.5296 0.5308
3228.000000 0.5320 0.5333 0.5345 0.5358 0.5371
3233.000000 0.5384 0.5397 0.5410 0.5423 0.5437
3238.000000 0.5450 0.5463 0.5477 0.5490 0.5503
3243.000000 0.5517 0.5530 0.5543 0.5556 0.5569
3248.000000 0.5579 0.5589 0.5599 0.5609 0.5616
3253.000000 0.5623 0.5630 0.5637 0.5644 0.5651
3258.000000 0.5658 0.5665 0.5672 0.5679 0.5686
3263.000000 0.5694 0.5701 0.5708 0.5715 0.5722
3268.000000 0.5730 0.5737 0.5744 0.5751 0.5758
3273.000000 0.5765 0.5772 0.5779 0.5786 0.5793
3278.000000 0.5800 0.5808 0.5815 0.5823 0.5830
3283.000000 0.5837 0.5844 0.5851 0.5859 0.5866
3288.000000 0.5874 0.5881 0.5888 0.5896 0.5903
3293.000000 0.5911 0.5918 0.5925 0.5933 0.5940
3298.000000 0.5947 0.5955 0.5962 0.5969 0.5977
3303.000000 0.5983 0.5988 0.5992 0.5997 0.6002
3308.000000 0.6007 0.6012 0.6016 0.6021 0.6026
3313.000000 0.6031 0.6036 0.6040 0.6045 0.6050
3318.000000 0.6055 0.6059 0.6064 0.6069 0.6074
3323.000000 0.6079 0.6083 0.6086 0.6088 0.6090
3328.000000 0.6092 0.6094 0.6095 0.6097 0.6099
3333.000000 0.6101 0.6103 0.6104 0.6106 0.6108
3338.000000 0.6110 0.6111 0.6113 0.6115 0.6116
3343.000000 0.6118 0.6120 0.6121 0.6123 0.6125
3348.000000 0.6125 0.6126 0.6127 0.6127 0.6128
3353.000000 0.6128 0.6128 0.6128 0.6129 0.6129
3358.000000 0.6129 0.6129 0.6129 0.6130 0.6130
3363.000000 0.6130 0.6130 0.6130 0.6130 0.6130
3368.000000 0.6130 0.6130 0.6131 0.6131 0.6131
3373.000000 0.6131 0.6132 0.6132 0.6132 0.6132
3378.000000 0.6132 0.6131 0.6131 0.6131 0.6131
3383.000000 0.6130 0.6130 0.6129 0.6129 0.6128
3388.000000 0.6127 0.6126 0.6125 0.6124 0.6124
3393.000000 0.6123 0.6122 0.6122 0.6121 0.6120
3398.000000 0.6120 0.6119 0.6118 0.6118 0.6117
3403.000000 0.6116 0.6116 0.6115 0.6114 0.6114
3408.000000 0.6113 0.6112 0.6111 0.6110 0.6110
3413.000000 0.6109 0.6108 0.6108 0.6107 0.6107
3418.000000 0.6106 0.6106 0.6105 0.6105 0.6105
3423.000000 0.6104 0.6104 0.6103 0.6103 0.6103
3428.000000 0.6102 0.6102 0.6101 0.6100 0.6100
3433.000000 0.6099 0.6099 0.6098 0.6098 0.6097
3438.000000 0.6097 0.6096 0.6096 0.6096 0.6095
3443.000000 0.6095 0.6094 0.6094 0.6094 0.6094
3448.000000 0.6094 0.6094 0.6095 0.6096 0.6097
3453.000000 0.6098 0.6099 0.6100 0.6101 0.6102
3458.000000 0.6103 0.6103 0.6104 0.6105 0.6106
3463.000000 0.6107 0.6108 0.6109 0.6110 0.6111
3468.000000 0.6113 0.6115 0.6118 0.6120 0.6123
3473.000000 0.6125 0.6128 0.6130 0.6132 0.6134
3478.000000 0.6137 0.6139 0.6141 0.6143 0.6146
3483.000000 0.6148 0.6150 0.6153 0.6155 0.6157
3488.000000 0.6159 0.6162 0.6164 0.6166 0.6168
3493.000000 0.6170 0.6172 0.6174 0.6176 0.6178
3498.000000 0.6180 0.6182 0.6184 0.6186 0.6188
3503.000000 0.6189 0.6191 0.6193 0.6195 0.6197
3508.000000 0.6199 0.6200 0.6202 0.6204 0.6206
3513.000000 0.6208 0.6210 0.6211 0.6213 0.6215
3518.000000 0.6217 0.6219 0.6220 0.6222 0.6224
3523.000000 0.6226 0.6228 0.6230 0.6231 0.6233
3528.000000 0.6235 0.6237 0.6239 0.6241 0.6243
3533.000000 0.6245 0.6247 0.6249 0.6251 0.6253
3538.000000 0.6255 0.6257 0.6259 0.6261 0.6263
3543.000000 0.6265 0.6267 0.6269 0.6271 0.6273
3548.000000 0.6276 0.6278 0.6280 0.6282 0.6284
3553.000000 0.6287 0.6289 0.6291 0.6293 0.6295
3558.000000 0.6297 0.6300 0.6302 0.6304 0.6306
3563.000000 0.6308 0.6310 0.6313 0.6315 0.6317
3568.000000 0.6319 0.6321 0.6323 0.6326 0.6328
3573.000000 0.6330 0.6332 0.6334 0.6336 0.6339
3578.000000 0.6341 0.6343 0.6346 0.6348 0.6350
3583.000000 0.6352 0.6355 0.6357 0.6359 0.6361
3588.000000 0.6363 0.6365 0.6367 0.6369 0.6372
3593.000000 0.6374 0.6375 0.6377 0.6379 0.6381
3598.000000 0.6383 0.6384 0.6386 0.6387 0.6389
3603.000000 0.6391 0.6392 0.6394 0.6396 0.6398
3608.000000 0.6399 0.6401 0.6402 0.6404 0.6405
3613.000000 0.6407 0.6409 0.6410 0.6412 0.6414
3618.000000 0.6416 0.6417 0.6419 0.6420 0.6422
3623.000000 0.6423 0.6425 0.6427 0.6428 0.6430
3628.000000 0.6432 0.6433 0.6435 0.6436 0.6438
3633.000000 0.6439 0.6441 0.6443 0.6444 0.6446
3638.000000 0.6448 0.6449 0.6451 0.6452 0.6453
3643.000000 0.6455 0.6456 0.6458 0.6459 0.6461
3648.000000 0.6462 0.6464 0.6465 0.6467 0.6468
3653.000000 0.6470 0.6471 0.6473 0.6474 0.6476
3658.000000 0.6477 0.6479 0.6480 0.6482 0.6483
3663.000000 0.6484 0.6486 0.6487 0.6489 0.6491
3668.000000 0.6492 0.6494 0.6496 0.6497 0.6499
3673.000000 0.6501 0.6502 0.6504 0.6506 0.6507
3678.000000 0.6509 0.6511 0.6512 0.6514 0.6516
3683.000000 0.6518 0.6519 0.6521 0.6523 0.6525
3688.000000 0.6527 0.6528 0.6530 0.6532 0.6533
3693.000000 0.6535 0.6537 0.6539 0.6540 0.6542
3698.000000 0.6544 0.6546 0.6547 0.6549 0.6551
3703.000000 0.6552 0.6554 0.6556 0.6557 0.6559
3708.000000 0.6561 0.6562 0.6564 0.6566 0.6568
3713.000000 0.6569 0.6571 0.6573 0.6575 0.6576
3718.000000 0.6578 0.6579 0.6581 0.6583 0.6584
3723.000000 0.6586 0.6588 0.6589 0.6591 0.6592
3728.000000 0.6594 0.6596 0.6597 0.6599 0.6601
3733.000000 0.6602 0.6604 0.6605 0.6607 0.6609
3738.000000 0.6610 0.6612 0.6613 0.6615 0.6617
3743.000000 0.6618 0.6620 0.6621 0.6622 0.6624
3748.000000 0.6625 0.6627 0.6628 0.6629 0.6630
3753.000000 0.6632 0.6633 0.6634 0.6636 0.6637
3758.000000 0.6639 0.6640 0.6641 0.6642 0.6643
3763.000000 0.6644 0.6645 0.6646 0.6647 0.6648
3768.000000 0.6649 0.6649 0.6650 0.6651 0.6651
3773.000000 0.6652 0.6652 0.6653 0.6653 0.6654
3778.000000 0.6655 0.6655 0.6656 0.6657 0.6657
3783.000000 0.6658 0.6658 0.6659 0.6660 0.6660
3788.000000 0.6661 0.6661 0.6662 0.6663 0.6663
3793.000000 0.6664 0.6665 0.6665 0.6666 0.6667
3798.000000 0.6668 0.6668 0.6669 0.6669 0.6669
3803.000000 0.6670 0.6670 0.6670 0.6671 0.6671
3808.000000 0.6671 0.6671 0.6671 0.6671 0.6671
3813.000000 0.6671 0.6671 0.6671 0.6671 0.6671
3818.000000 0.6671 0.6671 0.6671 0.6671 0.6671
3823.000000 0.6672 0.6672 0.6672 0.6672 0.6672
3828.000000 0.6672 0.6672 0.6672 0.6672 0.6672
3833.000000 0.6672 0.6672 0.6672 0.6672 0.6672
3838.000000 0.6672 0.6672 0.6672 0.6672 0.6672
3843.000000 0.6672 0.6672 0.6672 0.6672 0.6672
3848.000000 0.6672 0.6672 0.6672 0.6672 0.6672
3853.000000 0.6671 0.6671 0.6671 0.6671 0.6671
3858.000000 0.6671 0.6671 0.6671 0.6671 0.6671
3863.000000 0.6671 0.6670 0.6670 0.6670 0.6670
3868.000000 0.6670 0.6670 0.6669 0.6669 0.6669
3873.000000 0.6669 0.6669 0.6669 0.6668 0.6668
3878.000000 0.6668 0.6667 0.6667 0.6667 0.6666
3883.000000 0.6666 0.6666 0.6666 0.6665 0.6665
3888.000000 0.6665 0.6664 0.6664 0.6664 0.6664
3893.000000 0.6664 0.6664 0.6663 0.6663 0.6663
3898.000000 0.6662 0.6662 0.6662 0.6661 0.6661
3903.000000 0.6661 0.6660 0.6660 0.6660 0.6659
3908.000000 0.6659 0.6659 0.6658 0.6658 0.6658
3913.000000 0.6657 0.6657 0.6657 0.6657 0.6657
3918.000000 0.6657 0.6656 0.6656 0.6655 0.6655
3923.000000 0.6654 0.6654 0.6653 0.6653 0.6653
3928.000000 0.6652 0.6652 0.6652 0.6651 0.6651
3933.000000 0.6650 0.6650 0.6649 0.6649 0.6649
3938.000000 0.6648 0.6648 0.6647 0.6647 0.6646
3943.000000 0.6646 0.6645 0.6645 0.6644 0.6644
3948.000000 0.6643 0.6643 0.6642 0.6642 0.6642
3953.000000 0.6641 0.6641 0.6641 0.6640 0.6640
3958.000000 0.6639 0.6639 0.6638 0.6638 0.6637
3963.000000 0.6637 0.6637 0.6636 0.6636 0.6635
3968.000000 0.6635 0.6634 0.6634 0.6633 0.6633
3973.000000 0.6632 0.6632 0.6631 0.6631 0.6630
3978.000000 0.6630 0.6629 0.6629 0.6628 0.6628
3983.000000 0.6628 0.6627 0.6627 0.6626 0.6626
3988.000000 0.6625 0.6624 0.6624 0.6623 0.6623
3993.000000 0.6622 0.6621 0.6621 0.6620 0.6620
3998.000000 0.6619 0.6619 0.6619
##END=
