##TITLE=PYRIDINE, 2,6-DIAMINO-4-[(DIPHENYLMETHYL)AMINO]-3-NITRO-
##JCAMP-DX=4.24
##DATA TYPE=INFRARED SPECTRUM
##CLASS=COBLENTZ III
##ORIGIN=SOUTHERN RESEARCH INSTITUTE
##OWNER=COBLENTZ SOCIETY
Collection (C) 2018 copyright by the U.S. Secretary of Commerce
on behalf of the United States of America. All rights reserved.
##DATE=1967/03/06
##NAMES=6-(2,2-diphenylethyl)-5-nitro-2,4-pyrimidinediamine
##MOLFORM=C18 H17 N5 O2
##SOURCE REFERENCE=COBLENTZ NO. 8447
##$NIST ID=B6008447
##$NIST SOURCE=COBLENTZ
##$NIST IMAGE=cob8447
##SPECTROMETER/DATA SYSTEM=PERKIN-ELMER 521 (GRATING)
##INSTRUMENT PARAMETERS=FILTER CHANGE AT 3150, 2500, 2000, 1150, 700, 410 CM^-^1, GRATING CHANGES AT 2000, 630 CM^-^1
##STATE=SOLID (1 mg / 650 mg KBr DISC)
##SAMPLING PROCEDURE=TRANSMISSION
##RESOLUTION=4
##DATA PROCESSING=DIGITIZED BY NIST FROM HARD COPY
##XUNITS=1/CM
##YUNITS=TRANSMITTANCE
##XFACTOR=1.000000
##YFACTOR=1
##DELTAX=001.812500
##FIRSTX=242.625
##LASTX=3820.5
##FIRSTY=0.227
##MAXX=3820.5
##MINX=242.625
##MAXY=0.932
##MINY=0.139
##NPOINTS=1975
##XYDATA=(X++(Y..Y))
242.625000 0.2270 0.2310 0.2350 0.2360 0.2370
251.692093 0.2440 0.2520 0.2630 0.2770 0.2910
260.750000 0.3050 0.3180 0.3310 0.3440 0.3570
269.817093 0.3680 0.3810 0.4040 0.4160 0.4270
278.875000 0.4380 0.4490 0.4600 0.4710 0.4810
287.942093 0.4910 0.5010 0.5110 0.5210 0.5310
297.000000 0.5410 0.5510 0.5600 0.5660 0.5700
306.067093 0.5710 0.5750 0.5840 0.5880 0.5910
315.125000 0.5930 0.5950 0.5980 0.6040 0.6100
324.192093 0.6150 0.6200 0.6240 0.6280 0.6310
333.250000 0.6350 0.6380 0.6410 0.6440 0.6460
342.317093 0.6470 0.6470 0.6460 0.6450 0.6440
351.375000 0.6420 0.6400 0.6370 0.6340 0.6310
360.442093 0.6250 0.6220 0.6160 0.6060 0.5910
369.500000 0.5860 0.5800 0.5720 0.5670 0.5640
378.567093 0.5630 0.5640 0.5710 0.5790 0.5820
387.625000 0.5840 0.5870 0.5880 0.5890 0.5930
396.692093 0.6020 0.6180 0.6330 0.6470 0.6580
405.750000 0.6700 0.6790 0.6880 0.7030 0.7100
414.817093 0.7150 0.7200 0.7240 0.7270 0.7280
423.875000 0.7290 0.7300 0.7320 0.7320 0.7310
432.942093 0.7300 0.7280 0.7270 0.7260 0.7260
442.000000 0.7230 0.7220 0.7220 0.7220 0.7230
451.067093 0.7240 0.7250 0.7260 0.7270 0.7280
460.125000 0.7300 0.7310 0.7370 0.7390 0.7410
469.192093 0.7460 0.7520 0.7540 0.7570 0.7600
478.250000 0.7610 0.7660 0.7710 0.7750 0.7790
487.317093 0.7800 0.7800 0.7800 0.7800 0.7800
496.375000 0.7800 0.7800 0.7800 0.7800 0.7790
505.442093 0.7750 0.7730 0.7710 0.7690 0.7600
514.500000 0.7510 0.7440 0.7330 0.7310 0.7330
523.567093 0.7410 0.7500 0.7580 0.7670 0.7720
532.625000 0.7740 0.7740 0.7730 0.7720 0.7710
541.692093 0.7700 0.7680 0.7660 0.7640 0.7600
550.750000 0.7550 0.7480 0.7390 0.7310 0.7200
559.817093 0.7190 0.7200 0.7240 0.7280 0.7310
568.875000 0.7310 0.7290 0.7280 0.7240 0.7210
577.942093 0.7180 0.7140 0.7100 0.7100 0.7060
587.000000 0.7010 0.6990 0.6970 0.6940 0.6740
596.067093 0.6470 0.6450 0.6460 0.6710 0.7080
605.125000 0.7200 0.7290 0.7360 0.7420 0.7460
614.192093 0.7510 0.7550 0.7610 0.7670 0.7760
623.250000 0.7800 0.7800 0.7800 0.7810 0.7820
632.317093 0.7820 0.7820 0.7810 0.7810 0.7790
641.375000 0.7730 0.7540 0.7280 0.7280 0.7500
650.442093 0.7560 0.7590 0.7600 0.7600 0.7610
659.500000 0.7710 0.7960 0.8100 0.8170 0.8200
668.567093 0.8210 0.8220 0.8250 0.8260 0.8260
677.625000 0.8240 0.8240 0.8230 0.8180 0.7800
686.692093 0.7310 0.7020 0.6930 0.6840 0.6580
695.750000 0.6310 0.6050 0.5790 0.5530 0.5530
704.817093 0.7310 0.7630 0.7680 0.7690 0.7950
713.875000 0.8540 0.8560 0.8580 0.8590 0.8600
722.942093 0.8600 0.8590 0.8550 0.8480 0.8020
732.000000 0.7670 0.7290 0.7110 0.6920 0.6550
741.067093 0.6550 0.7190 0.7530 0.7920 0.7930
750.125000 0.8050 0.8080 0.8080 0.8070 0.8000
759.192093 0.7910 0.7570 0.7270 0.7270 0.7470
768.250000 0.7670 0.7870 0.8070 0.8240 0.8240
777.317093 0.7370 0.6510 0.5750 0.5750 0.6140
786.375000 0.6500 0.7250 0.7480 0.7880 0.8220
795.442093 0.8360 0.8490 0.8500 0.8520 0.8530
804.500000 0.8530 0.8530 0.8520 0.8520 0.8520
813.567093 0.8510 0.8510 0.8510 0.8500 0.8500
822.625000 0.8500 0.8500 0.8490 0.8490 0.8480
831.692093 0.8480 0.8480 0.8480 0.8490 0.8510
840.750000 0.8550 0.8560 0.8560 0.8570 0.8570
849.817093 0.8570 0.8570 0.8560 0.8560 0.8560
858.875000 0.8550 0.8550 0.8540 0.8530 0.8530
867.942093 0.8520 0.8520 0.8520 0.8520 0.8530
877.000000 0.8540 0.8540 0.8540 0.8540 0.8530
886.067093 0.8530 0.8520 0.8520 0.8500 0.8500
895.125000 0.8490 0.8470 0.8450 0.8430 0.8420
904.192093 0.8390 0.8370 0.8350 0.8330 0.8320
913.250000 0.8310 0.8310 0.8310 0.8310 0.8320
922.317093 0.8330 0.8330 0.8330 0.8340 0.8350
931.375000 0.8350 0.8340 0.8340 0.8330 0.8330
940.442093 0.8300 0.8280 0.8270 0.8250 0.8240
949.500000 0.8240 0.8230 0.8210 0.8170 0.8140
958.567093 0.8090 0.8040 0.7980 0.7930 0.7870
967.625000 0.7800 0.7720 0.7650 0.7570 0.7490
976.692093 0.7410 0.7330 0.7240 0.7150 0.7060
985.750000 0.7010 0.6960 0.6940 0.6940 0.6930
994.817093 0.6930 0.6940 0.7040 0.7180 0.7290
1003.875000 0.7330 0.7390 0.7460 0.7530 0.7590
1012.942093 0.7650 0.7660 0.7650 0.7640 0.7520
1022.000000 0.7390 0.7280 0.7170 0.7170 0.7340
1031.067093 0.7510 0.7600 0.7650 0.7700 0.7730
1040.125000 0.7740 0.7760 0.7750 0.7740 0.7720
1049.192093 0.7710 0.7680 0.7650 0.7630 0.7590
1058.250000 0.7550 0.7520 0.7480 0.7440 0.7390
1067.317093 0.7350 0.7340 0.7340 0.7340 0.7330
1076.375000 0.7330 0.7330 0.7310 0.7190 0.7060
1085.442093 0.6920 0.6700 0.6680 0.6680 0.6670
1094.500000 0.6660 0.6660 0.6660 0.6630 0.6600
1103.567093 0.6540 0.6470 0.6390 0.6300 0.6210
1112.625000 0.6110 0.6020 0.5940 0.5870 0.5840
1121.692093 0.5820 0.5660 0.5550 0.5510 0.5360
1130.750000 0.5170 0.5080 0.5070 0.5080 0.5190
1139.817093 0.5350 0.5600 0.5800 0.5980 0.6140
1148.875000 0.6270 0.6380 0.6480 0.6550 0.6610
1157.942093 0.6660 0.6700 0.6730 0.6750 0.6780
1167.000000 0.6800 0.6820 0.6860 0.6870 0.6880
1176.067093 0.6890 0.6890 0.6710 0.6400 0.6400
1185.125000 0.6580 0.6840 0.6920 0.7020 0.7050
1194.192093 0.7100 0.7120 0.7120 0.7110 0.7030
1203.250000 0.6940 0.6850 0.6820 0.6750 0.6680
1212.317093 0.6590 0.6490 0.6360 0.6230 0.6080
1221.375000 0.5930 0.5760 0.5580 0.5390 0.5180
1230.442093 0.4980 0.4760 0.4540 0.4520 0.4500
1239.500000 0.4520 0.4580 0.4610 0.4640 0.4640
1248.567093 0.4630 0.4560 0.4460 0.4410 0.4320
1257.625000 0.4230 0.4070 0.4020 0.3960 0.3860
1266.692093 0.3770 0.3680 0.3580 0.3420 0.3400
1275.750000 0.3400 0.3410 0.3420 0.3470 0.3520
1284.817093 0.4510 0.4810 0.5090 0.5370 0.5360
1293.875000 0.5350 0.5200 0.5040 0.4860 0.4660
1302.942093 0.4450 0.4210 0.4090 0.3950 0.3740
1312.000000 0.3470 0.3460 0.3470 0.4330 0.4720
1321.067093 0.5090 0.5440 0.5760 0.6030 0.6240
1330.125000 0.6570 0.6700 0.6700 0.6620 0.6570
1339.192093 0.6510 0.6410 0.6410 0.6590 0.6860
1348.250000 0.6950 0.7000 0.7030 0.7120 0.7230
1357.317093 0.7570 0.7820 0.8020 0.8160 0.8260
1366.375000 0.8340 0.8420 0.8480 0.8540 0.8570
1375.442093 0.8560 0.8550 0.8530 0.8510 0.8490
1384.500000 0.8470 0.8440 0.8420 0.8410 0.8390
1393.567093 0.8380 0.8360 0.8290 0.8260 0.8250
1402.625000 0.8210 0.8080 0.7980 0.7890 0.7800
1411.692093 0.7650 0.7630 0.7640 0.7850 0.7960
1420.750000 0.8030 0.8040 0.8050 0.8060 0.8040
1429.817093 0.8020 0.7990 0.7950 0.7890 0.7840
1438.875000 0.7710 0.7560 0.7540 0.7530 0.7110
1447.942093 0.6840 0.6560 0.6090 0.6070 0.6080
1457.000000 0.7010 0.7160 0.7300 0.7310 0.7330
1466.067093 0.7150 0.7050 0.6940 0.6520 0.5820
1475.125000 0.5010 0.4600 0.4290 0.4120 0.3950
1484.192093 0.3940 0.3930 0.3920 0.3890 0.3740
1493.250000 0.3540 0.3350 0.3260 0.3260 0.4290
1502.317093 0.4600 0.4910 0.5230 0.5540 0.5860
1511.375000 0.6280 0.6380 0.6420 0.6500 0.6740
1520.442093 0.7000 0.7110 0.7120 0.7110 0.7050
1529.500000 0.6980 0.6650 0.6310 0.6120 0.5890
1538.567093 0.5660 0.4610 0.4230 0.4050 0.3860
1547.625000 0.3500 0.3130 0.2830 0.2760 0.2760
1556.692093 0.2980 0.3170 0.3480 0.3620 0.3620
1565.750000 0.3560 0.3410 0.3200 0.2640 0.2280
1574.817093 0.1930 0.1750 0.1500 0.1470 0.1440
1583.875000 0.1400 0.1390 0.1390 0.1400 0.1570
1592.942093 0.1770 0.1960 0.2160 0.2350 0.2540
1602.000000 0.2710 0.3190 0.3590 0.4260 0.4530
1611.067093 0.4760 0.4960 0.5140 0.5300 0.5460
1620.125000 0.5610 0.5760 0.5920 0.6190 0.6320
1629.192093 0.6430 0.6460 0.6460 0.6450 0.6430
1638.250000 0.6360 0.6230 0.5850 0.5390 0.4900
1647.317093 0.4250 0.4250 0.4560 0.5660 0.6310
1656.375000 0.7130 0.7400 0.7640 0.7860 0.8040
1665.442093 0.8200 0.8330 0.8450 0.8550 0.8630
1674.500000 0.8700 0.8760 0.8790 0.8830 0.8860
1683.567093 0.8890 0.8920 0.8940 0.8970 0.9010
1692.625000 0.9040 0.9080 0.9110 0.9120 0.9130
1701.692093 0.9150 0.9160 0.9170 0.9170 0.9180
1710.750000 0.9190 0.9200 0.9200 0.9200 0.9210
1719.817093 0.9210 0.9210 0.9220 0.9230 0.9240
1728.875000 0.9250 0.9260 0.9260 0.9270 0.9270
1737.942093 0.9280 0.9280 0.9290 0.9290 0.9290
1747.000000 0.9290 0.9290 0.9290 0.9290 0.9290
1756.067093 0.9290 0.9290 0.9290 0.9290 0.9290
1765.125000 0.9290 0.9290 0.9290 0.9290 0.9290
1774.192093 0.9290 0.9290 0.9280 0.9280 0.9280
1783.250000 0.9280 0.9280 0.9280 0.9280 0.9280
1792.317093 0.9280 0.9280 0.9280 0.9280 0.9280
1801.375000 0.9290 0.9290 0.9290 0.9290 0.9290
1810.442093 0.9290 0.9290 0.9290 0.9290 0.9300
1819.500000 0.9300 0.9300 0.9310 0.9310 0.9310
1828.567093 0.9320 0.9320 0.9320 0.9320 0.9320
1837.625000 0.9320 0.9310 0.9310 0.9300 0.9300
1846.692093 0.9290 0.9290 0.9290 0.9290 0.9290
1855.750000 0.9280 0.9280 0.9270 0.9260 0.9250
1864.817093 0.9250 0.9240 0.9230 0.9230 0.9230
1873.875000 0.9220 0.9220 0.9210 0.9210 0.9210
1882.942093 0.9210 0.9190 0.9190 0.9190 0.9190
1892.000000 0.9190 0.9190 0.9190 0.9190 0.9190
1901.067093 0.9190 0.9190 0.9190 0.9190 0.9180
1910.125000 0.9180 0.9180 0.9180 0.9180 0.9180
1919.192093 0.9170 0.9170 0.9170 0.9170 0.9160
1928.250000 0.9160 0.9160 0.9150 0.9140 0.9140
1937.317093 0.9140 0.9130 0.9130 0.9120 0.9120
1946.375000 0.9120 0.9110 0.9110 0.9100 0.9100
1955.442093 0.9100 0.9100 0.9110 0.9110 0.9110
1964.500000 0.9120 0.9120 0.9120 0.9120 0.9120
1973.567093 0.9130 0.9130 0.9140 0.9140 0.9150
1982.625000 0.9150 0.9160 0.9160 0.9160 0.9160
1991.692093 0.9160 0.9160 0.9150 0.9150 0.9140
2000.750000 0.9130 0.9120 0.9120 0.9110 0.9100
2009.817093 0.9090 0.9080 0.9070 0.9070 0.9060
2018.875000 0.9060 0.9060 0.9050 0.9050 0.9050
2027.942093 0.9040 0.9040 0.9030 0.9030 0.9030
2037.000000 0.9020 0.9020 0.9010 0.9010 0.9000
2046.067093 0.9000 0.8990 0.8990 0.8990 0.8990
2055.125000 0.8990 0.8990 0.8990 0.8990 0.8990
2064.192093 0.8980 0.8980 0.8980 0.8980 0.8980
2073.250000 0.8970 0.8970 0.8970 0.8960 0.8960
2082.317093 0.8960 0.8960 0.8950 0.8950 0.8950
2091.375000 0.8950 0.8940 0.8940 0.8940 0.8940
2100.442093 0.8940 0.8940 0.8940 0.8940 0.8940
2109.500000 0.8930 0.8930 0.8930 0.8930 0.8930
2118.567093 0.8920 0.8920 0.8920 0.8920 0.8920
2127.625000 0.8910 0.8910 0.8910 0.8900 0.8900
2136.692093 0.8900 0.8890 0.8890 0.8890 0.8880
2145.750000 0.8880 0.8880 0.8880 0.8880 0.8880
2154.817093 0.8880 0.8880 0.8870 0.8870 0.8870
2163.875000 0.8870 0.8870 0.8870 0.8860 0.8860
2172.942093 0.8860 0.8860 0.8860 0.8860 0.8860
2182.000000 0.8860 0.8860 0.8860 0.8860 0.8860
2191.067093 0.8860 0.8860 0.8860 0.8850 0.8850
2200.125000 0.8850 0.8850 0.8850 0.8850 0.8850
2209.192093 0.8850 0.8840 0.8840 0.8840 0.8840
2218.250000 0.8830 0.8830 0.8830 0.8830 0.8830
2227.317093 0.8830 0.8830 0.8820 0.8820 0.8820
2236.375000 0.8820 0.8820 0.8820 0.8820 0.8810
2245.442093 0.8810 0.8810 0.8800 0.8800 0.8800
2254.500000 0.8790 0.8790 0.8790 0.8790 0.8780
2263.567093 0.8780 0.8780 0.8770 0.8770 0.8770
2272.625000 0.8770 0.8770 0.8770 0.8770 0.8760
2281.692093 0.8760 0.8760 0.8750 0.8750 0.8750
2290.750000 0.8740 0.8740 0.8730 0.8730 0.8730
2299.817093 0.8730 0.8720 0.8720 0.8720 0.8720
2308.875000 0.8710 0.8710 0.8710 0.8710 0.8710
2317.942093 0.8710 0.8710 0.8700 0.8700 0.8700
2327.000000 0.8700 0.8700 0.8700 0.8700 0.8700
2336.067093 0.8700 0.8700 0.8700 0.8700 0.8700
2345.125000 0.8700 0.8700 0.8700 0.8700 0.8700
2354.192093 0.8700 0.8700 0.8700 0.8700 0.8700
2363.250000 0.8700 0.8700 0.8700 0.8700 0.8700
2372.317093 0.8700 0.8700 0.8700 0.8700 0.8700
2381.375000 0.8700 0.8690 0.8690 0.8690 0.8690
2390.442093 0.8680 0.8680 0.8680 0.8680 0.8680
2399.500000 0.8680 0.8680 0.8670 0.8670 0.8660
2408.567093 0.8660 0.8660 0.8650 0.8650 0.8650
2417.625000 0.8640 0.8640 0.8630 0.8630 0.8630
2426.692093 0.8620 0.8620 0.8620 0.8620 0.8610
2435.750000 0.8610 0.8610 0.8600 0.8600 0.8600
2444.817093 0.8590 0.8590 0.8590 0.8590 0.8590
2453.875000 0.8590 0.8580 0.8580 0.8580 0.8570
2462.942093 0.8570 0.8570 0.8560 0.8550 0.8550
2472.000000 0.8550 0.8540 0.8540 0.8540 0.8540
2481.067093 0.8530 0.8530 0.8530 0.8520 0.8520
2490.125000 0.8520 0.8510 0.8510 0.8500 0.8500
2499.192093 0.8500 0.8500 0.8500 0.8500 0.8500
2508.250000 0.8500 0.8500 0.8500 0.8500 0.8500
2517.317093 0.8490 0.8490 0.8490 0.8480 0.8480
2526.375000 0.8480 0.8470 0.8470 0.8460 0.8460
2535.442093 0.8460 0.8460 0.8460 0.8460 0.8460
2544.500000 0.8450 0.8450 0.8450 0.8450 0.8450
2553.567093 0.8450 0.8450 0.8450 0.8440 0.8440
2562.625000 0.8440 0.8440 0.8440 0.8440 0.8440
2571.692093 0.8440 0.8440 0.8440 0.8440 0.8440
2580.750000 0.8440 0.8440 0.8440 0.8440 0.8440
2589.817093 0.8440 0.8440 0.8440 0.8440 0.8430
2598.875000 0.8430 0.8430 0.8430 0.8430 0.8430
2607.942093 0.8420 0.8420 0.8420 0.8420 0.8420
2617.000000 0.8420 0.8420 0.8420 0.8420 0.8420
2626.067093 0.8420 0.8420 0.8410 0.8410 0.8410
2635.125000 0.8410 0.8410 0.8410 0.8410 0.8400
2644.192093 0.8400 0.8400 0.8400 0.8390 0.8390
2653.250000 0.8390 0.8390 0.8390 0.8380 0.8370
2662.317093 0.8370 0.8360 0.8360 0.8350 0.8340
2671.375000 0.8340 0.8330 0.8330 0.8330 0.8320
2680.442093 0.8310 0.8300 0.8300 0.8290 0.8290
2689.500000 0.8290 0.8280 0.8280 0.8280 0.8270
2698.567093 0.8270 0.8270 0.8260 0.8260 0.8250
2707.625000 0.8250 0.8250 0.8250 0.8240 0.8240
2716.692093 0.8240 0.8240 0.8240 0.8240 0.8240
2725.750000 0.8240 0.8240 0.8240 0.8240 0.8240
2734.817093 0.8240 0.8240 0.8230 0.8230 0.8230
2743.875000 0.8230 0.8230 0.8230 0.8230 0.8230
2752.942093 0.8230 0.8230 0.8230 0.8230 0.8230
2762.000000 0.8220 0.8220 0.8220 0.8220 0.8210
2771.067093 0.8210 0.8200 0.8200 0.8190 0.8190
2780.125000 0.8180 0.8180 0.8170 0.8170 0.8160
2789.192093 0.8160 0.8150 0.8150 0.8140 0.8130
2798.250000 0.8120 0.8110 0.8100 0.8090 0.8080
2807.317093 0.8080 0.8070 0.8070 0.8060 0.8050
2816.375000 0.8030 0.8020 0.8010 0.8010 0.8000
2825.442093 0.8000 0.7990 0.7980 0.7980 0.7980
2834.500000 0.7980 0.7970 0.7960 0.7960 0.7960
2843.567093 0.7960 0.7950 0.7950 0.7950 0.7950
2852.625000 0.7950 0.7940 0.7940 0.7940 0.7940
2861.692093 0.7930 0.7930 0.7930 0.7930 0.7920
2870.750000 0.7920 0.7920 0.7920 0.7920 0.7910
2879.817093 0.7910 0.7910 0.7910 0.7900 0.7900
2888.875000 0.7900 0.7900 0.7890 0.7890 0.7870
2897.942093 0.7850 0.7830 0.7820 0.7810 0.7800
2907.000000 0.7790 0.7780 0.7770 0.7760 0.7750
2916.067093 0.7750 0.7750 0.7740 0.7740 0.7740
2925.125000 0.7750 0.7750 0.7760 0.7770 0.7770
2934.192093 0.7780 0.7780 0.7780 0.7780 0.7790
2943.250000 0.7790 0.7790 0.7790 0.7780 0.7780
2952.317093 0.7780 0.7770 0.7770 0.7770 0.7750
2961.375000 0.7750 0.7740 0.7740 0.7730 0.7720
2970.442093 0.7710 0.7710 0.7700 0.7690 0.7680
2979.500000 0.7670 0.7660 0.7650 0.7640 0.7640
2988.567093 0.7630 0.7620 0.7600 0.7550 0.7530
2997.625000 0.7500 0.7490 0.7480 0.7470 0.7450
3006.692093 0.7440 0.7410 0.7370 0.7320 0.7240
3015.750000 0.7140 0.7060 0.7050 0.7060 0.7080
3024.817093 0.7100 0.7130 0.7150 0.7180 0.7180
3033.875000 0.7190 0.7190 0.7190 0.7170 0.7140
3042.942093 0.7100 0.7030 0.7010 0.6990 0.6950
3052.000000 0.6920 0.6910 0.6890 0.6880 0.6890
3061.067093 0.6900 0.6910 0.6920 0.6920 0.6920
3070.125000 0.6920 0.6920 0.6910 0.6900 0.6880
3079.192093 0.6870 0.6860 0.6840 0.6840 0.6820
3088.250000 0.6810 0.6780 0.6760 0.6750 0.6720
3097.317093 0.6700 0.6670 0.6650 0.6620 0.6590
3106.375000 0.6570 0.6540 0.6500 0.6480 0.6450
3115.442093 0.6420 0.6400 0.6360 0.6320 0.6310
3124.500000 0.6310 0.6290 0.6280 0.6260 0.6250
3133.567093 0.6230 0.6220 0.6210 0.6200 0.6190
3142.625000 0.6180 0.6170 0.6150 0.6140 0.6140
3151.692093 0.6130 0.6120 0.6110 0.6100 0.6090
3160.750000 0.6070 0.6060 0.6050 0.6050 0.6040
3169.817093 0.6020 0.5990 0.5970 0.5960 0.5960
3178.875000 0.5940 0.5920 0.5890 0.5870 0.5870
3187.942093 0.5860 0.5860 0.5870 0.5870 0.5890
3197.000000 0.5920 0.5960 0.6000 0.6050 0.6100
3206.067093 0.6150 0.6200 0.6260 0.6310 0.6360
3215.125000 0.6400 0.6430 0.6470 0.6490 0.6520
3224.192093 0.6540 0.6560 0.6570 0.6580 0.6600
3233.250000 0.6600 0.6610 0.6610 0.6620 0.6620
3242.317093 0.6620 0.6620 0.6600 0.6590 0.6580
3251.375000 0.6570 0.6560 0.6550 0.6540 0.6530
3260.442093 0.6520 0.6520 0.6510 0.6490 0.6470
3269.500000 0.6440 0.6400 0.6360 0.6310 0.6270
3278.567093 0.6220 0.6150 0.6100 0.6040 0.5970
3287.625000 0.5910 0.5850 0.5780 0.5720 0.5660
3296.692093 0.5600 0.5530 0.5480 0.5430 0.5370
3305.750000 0.5320 0.5270 0.5260 0.5210 0.5130
3314.817093 0.5010 0.4890 0.4740 0.4600 0.4460
3323.875000 0.4330 0.4210 0.4130 0.4080 0.4060
3332.942093 0.4030 0.3990 0.3930 0.3920 0.4030
3342.000000 0.4290 0.4640 0.4950 0.5250 0.5490
3351.067093 0.5690 0.5800 0.5830 0.5890 0.5900
3360.125000 0.5950 0.5950 0.5960 0.5960 0.5950
3369.192093 0.5940 0.5930 0.5890 0.5850 0.5810
3378.250000 0.5760 0.5710 0.5660 0.5540 0.5420
3387.317093 0.5400 0.5420 0.5500 0.5520 0.5560
3396.375000 0.5590 0.5590 0.5620 0.5630 0.5630
3405.442093 0.5630 0.5620 0.5620 0.5610 0.5610
3414.500000 0.5610 0.5610 0.5610 0.5600 0.5600
3423.567093 0.5590 0.5580 0.5570 0.5550 0.5550
3432.625000 0.5540 0.5520 0.5510 0.5460 0.5400
3441.692093 0.5350 0.5320 0.5260 0.5210 0.5160
3450.750000 0.5000 0.4880 0.4770 0.4410 0.4270
3459.817093 0.4270 0.4370 0.4560 0.4640 0.4760
3468.875000 0.4730 0.4660 0.4540 0.4380 0.4380
3477.942093 0.4590 0.4770 0.4820 0.4990 0.5230
3487.000000 0.5500 0.5730 0.5880 0.5880 0.5960
3496.067093 0.6040 0.6110 0.6170 0.6230 0.6290
3505.125000 0.6340 0.6400 0.6440 0.6490 0.6530
3514.192093 0.6570 0.6600 0.6640 0.6670 0.6700
3523.250000 0.6730 0.6750 0.6780 0.6810 0.6840
3532.317093 0.6850 0.6870 0.6900 0.6920 0.6930
3541.375000 0.6950 0.6970 0.7010 0.7020 0.7050
3550.442093 0.7070 0.7090 0.7100 0.7100 0.7110
3559.500000 0.7130 0.7150 0.7180 0.7190 0.7220
3568.567093 0.7240 0.7280 0.7290 0.7310 0.7330
3577.625000 0.7350 0.7360 0.7390 0.7410 0.7430
3586.692093 0.7450 0.7450 0.7470 0.7490 0.7520
3595.750000 0.7540 0.7560 0.7580 0.7600 0.7620
3604.817093 0.7640 0.7660 0.7680 0.7700 0.7710
3613.875000 0.7730 0.7750 0.7770 0.7790 0.7800
3622.942093 0.7820 0.7840 0.7860 0.7880 0.7890
3632.000000 0.7890 0.7900 0.7910 0.7920 0.7920
3641.067093 0.7920 0.7930 0.7940 0.7950 0.7950
3650.125000 0.7960 0.7960 0.7960 0.7970 0.7970
3659.192093 0.7970 0.7970 0.7970 0.7960 0.7960
3668.250000 0.7950 0.7950 0.7950 0.7950 0.7960
3677.317093 0.7970 0.7970 0.7980 0.7980 0.7980
3686.375000 0.7990 0.7990 0.8000 0.8000 0.8010
3695.442093 0.8010 0.8020 0.8020 0.8020 0.8020
3704.500000 0.8020 0.8020 0.8030 0.8030 0.8040
3713.567093 0.8050 0.8050 0.8050 0.8050 0.8050
3722.625000 0.8050 0.8060 0.8060 0.8060 0.8060
3731.692093 0.8060 0.8060 0.8050 0.8050 0.8050
3740.750000 0.8050 0.8040 0.8040 0.8040 0.8040
3749.817093 0.8040 0.8030 0.8030 0.8030 0.8030
3758.875000 0.8030 0.8020 0.8020 0.8020 0.8020
3767.942093 0.8010 0.8010 0.8000 0.8000 0.8000
3777.000000 0.7990 0.7990 0.7980 0.7980 0.7980
3786.067093 0.7980 0.7980 0.7980 0.7980 0.7980
3795.125000 0.7970 0.7970 0.7960 0.7960 0.7960
3804.192093 0.7950 0.7950 0.7950 0.7940 0.7940
3813.250000 0.7940 0.7950 0.7950 0.7950 0.7950
##END=
