##TITLE=2-METHYL-2-p-TOLUENESULFONYLAMINO-1,3-PROPANEDIOL ACETATE p-TOLUENESULFONATE
##JCAMP-DX=4.24
##DATA TYPE=INFRARED SPECTRUM
##CLASS=COBLENTZ
##ORIGIN=ARTHUR D. LITTLE, INC.
##OWNER=COBLENTZ SOCIETY
Collection (C) 2018 copyright by the U.S. Secretary of Commerce
on behalf of the United States of America. All rights reserved.
##DATE=Not specified, most likely prior to 1970
##NAMES=2-methyl-2-([(4-methylphenyl)sulfonyl]amino)-3-([(4-methylphenyl)sulfonyl]oxy)propyl acetate
##MOLFORM=C20 H25 N O7 S2
##MP=118-118.5 C
##SOURCE REFERENCE=COBLENTZ NO. 4575
##$NIST ID=B6004575
##$NIST SOURCE=COBLENTZ
##$NIST IMAGE=cob4575
##SPECTROMETER/DATA SYSTEM=Not specified, most likely a prism, grating, or hybrid spectrometer.
##STATE=SOLID(MINERAL OIL MULL)
##PATH LENGTH=
$$SPECTRAL CONTAMINATIN DUE TO OIL AROUND 2930 CM^-^1
##SAMPLING PROCEDURE=TRANSMISSION
##RESOLUTION=4
##DATA PROCESSING=DIGITIZED BY NIST FROM HARD COPY
##XUNITS=1/CM
##YUNITS=TRANSMITTANCE
##XFACTOR=1.000000
##YFACTOR=1
##DELTAX=001.392608
##FIRSTX=574.665
##LASTX=3492.18
##FIRSTY=0.6
##MAXX=3492.18
##MINX=574.665
##MAXY=0.983
##MINY=0.026
##NPOINTS=2096
##XYDATA=(X++(Y..Y))
574.665000 0.6000 0.6000 0.5990 0.5990 0.5980
581.631368 0.5980 0.5920 0.5850 0.5810 0.5780
588.591000 0.5780 0.5770 0.5750 0.5750 0.5750
595.557368 0.5740 0.5740 0.5750 0.5750 0.5780
602.517000 0.5780 0.5770 0.5750 0.5740 0.5720
609.483368 0.5710 0.5710 0.5710 0.5700 0.5700
616.443000 0.5680 0.5680 0.5680 0.5700 0.5710
623.409368 0.5720 0.5750 0.5780 0.5790 0.5790
630.370000 0.5820 0.5840 0.5840 0.5820 0.5810
637.336368 0.5780 0.5750 0.5700 0.5630 0.5560
644.296000 0.5460 0.5350 0.5220 0.5070 0.4870
651.262368 0.4660 0.4430 0.4150 0.3510 0.3360
658.222000 0.3160 0.2960 0.2780 0.2590 0.2400
665.188368 0.2400 0.2540 0.2680 0.2800 0.3610
672.148000 0.4390 0.5210 0.5950 0.6470 0.6970
679.114368 0.7310 0.7500 0.7630 0.7660 0.7680
686.074000 0.7750 0.7890 0.7890 0.7880 0.7850
693.040368 0.7820 0.7680 0.7520 0.7330 0.7080
700.000000 0.6830 0.6830 0.7290 0.7630 0.7870
706.966368 0.8080 0.8240 0.8260 0.8270 0.8290
713.926000 0.8310 0.8330 0.8370 0.8410 0.8440
720.892368 0.8480 0.8500 0.8520 0.8550 0.8590
727.852000 0.8590 0.8610 0.8610 0.8610 0.8610
734.818368 0.8610 0.8620 0.8650 0.8660 0.8680
741.778000 0.8680 0.8650 0.8610 0.8570 0.8500
748.744368 0.8440 0.8360 0.8270 0.8160 0.8050
755.704000 0.7910 0.7770 0.7590 0.7380 0.7240
762.670368 0.6970 0.6630 0.6350 0.6030 0.5700
769.630000 0.5400 0.5080 0.4850 0.4700 0.4710
776.596368 0.4880 0.5250 0.5770 0.6490 0.7030
783.557000 0.7500 0.7560 0.7560 0.7350 0.7220
790.523368 0.7050 0.6890 0.6720 0.6720 0.6870
797.483000 0.7030 0.7150 0.7190 0.7190 0.7180
804.449368 0.6970 0.6770 0.6540 0.6170 0.5740
811.409000 0.4740 0.4280 0.3800 0.3340 0.2880
818.375368 0.2420 0.2420 0.2890 0.3370 0.3860
825.335000 0.4340 0.5540 0.5540 0.4830 0.4450
832.301368 0.4070 0.3780 0.3520 0.3220 0.2920
839.261000 0.2920 0.3290 0.3990 0.4250 0.4450
846.227368 0.4920 0.5290 0.5650 0.5990 0.6370
853.187000 0.6750 0.6750 0.6720 0.6650 0.6560
860.153368 0.6470 0.6350 0.6190 0.6000 0.5740
867.113000 0.5420 0.5390 0.5420 0.5560 0.5630
874.079368 0.5910 0.6200 0.6860 0.7220 0.7540
881.039000 0.7850 0.8120 0.8340 0.8500 0.8640
888.005368 0.8720 0.8760 0.8780 0.8790 0.8780
894.965000 0.8730 0.8640 0.8430 0.8270 0.8150
901.931368 0.8010 0.7840 0.7590 0.7380 0.7180
908.891000 0.7170 0.7180 0.7350 0.7540 0.7590
915.857368 0.7560 0.7310 0.7150 0.7120 0.7110
922.817000 0.7120 0.7360 0.7700 0.7980 0.8230
929.783368 0.8400 0.8450 0.8450 0.8440 0.8430
936.743000 0.8400 0.8360 0.8340 0.8310 0.8260
943.709368 0.8200 0.8060 0.7890 0.7560 0.7320
950.669000 0.7100 0.6870 0.6650 0.6420 0.6200
957.635368 0.5980 0.5750 0.5560 0.5390 0.5040
964.596000 0.4550 0.4500 0.3960 0.3890 0.3690
971.562368 0.3430 0.3050 0.2870 0.2670 0.2560
978.522000 0.2470 0.2450 0.2450 0.2680 0.3010
985.488368 0.3470 0.3790 0.4030 0.4100 0.4110
992.448000 0.4130 0.4130 0.4140 0.4140 0.4140
999.414368 0.4110 0.4030 0.3020 0.2100 0.2100
1006.374000 0.2630 0.2940 0.3090 0.3690 0.4000
1013.340368 0.4500 0.4780 0.5070 0.5220 0.5250
1020.300000 0.5190 0.5090 0.4880 0.4770 0.4770
1027.266368 0.4970 0.5350 0.5530 0.5630 0.5630
1034.226000 0.5580 0.5540 0.5330 0.5210 0.4940
1041.192368 0.4710 0.4460 0.4310 0.4010 0.4010
1048.152000 0.4270 0.4520 0.4900 0.5260 0.5740
1055.118368 0.6330 0.6650 0.7000 0.7210 0.7310
1062.078000 0.7520 0.7660 0.7910 0.7940 0.7950
1069.044368 0.7950 0.7940 0.7880 0.7840 0.7810
1076.004000 0.7770 0.7730 0.7640 0.7490 0.7290
1082.970368 0.7050 0.6820 0.6550 0.6130 0.5700
1089.930000 0.5250 0.3970 0.3790 0.3640 0.3470
1096.896368 0.3010 0.3010 0.3220 0.4280 0.4570
1103.856000 0.5050 0.5640 0.5790 0.5980 0.6120
1110.822368 0.6260 0.6370 0.6510 0.6510 0.6410
1117.782000 0.6270 0.6170 0.5930 0.5750 0.5750
1124.748368 0.5890 0.6370 0.6560 0.6760 0.6730
1131.709000 0.6540 0.6420 0.6310 0.6030 0.5770
1138.675368 0.5390 0.5050 0.4760 0.4410 0.4000
1145.635000 0.3450 0.3020 0.2630 0.2290 0.2080
1152.601368 0.1440 0.1280 0.1280 0.1610 0.1790
1159.561000 0.1800 0.2280 0.2290 0.2470 0.2470
1166.527368 0.2290 0.2120 0.2000 0.1840 0.1730
1173.487000 0.1440 0.1340 0.1170 0.1160 0.1170
1180.453368 0.1340 0.1630 0.2250 0.2600 0.2890
1187.413000 0.2870 0.2810 0.2520 0.2520 0.2850
1194.379368 0.3190 0.3520 0.4350 0.4590 0.5610
1201.339000 0.5720 0.6020 0.6030 0.6020 0.5680
1208.305368 0.5470 0.5250 0.5150 0.5010 0.4770
1215.265000 0.4600 0.4410 0.4210 0.4010 0.3820
1222.231368 0.3430 0.3060 0.2850 0.2660 0.2460
1229.191000 0.2180 0.2080 0.2010 0.2000 0.2010
1236.157368 0.2390 0.2800 0.3170 0.3550 0.3930
1243.117000 0.4290 0.4700 0.5390 0.5700 0.5770
1250.083368 0.6240 0.6340 0.6610 0.6680 0.6680
1257.043000 0.6650 0.6590 0.6490 0.6410 0.6130
1264.009368 0.5890 0.5740 0.5710 0.5710 0.5910
1270.969000 0.6230 0.6440 0.6540 0.6550 0.6520
1277.935368 0.6370 0.6100 0.6020 0.5860 0.5790
1284.896000 0.5720 0.5710 0.5720 0.5790 0.5890
1291.862368 0.6030 0.6100 0.6140 0.6140 0.6100
1298.822000 0.5980 0.5560 0.5320 0.5090 0.4870
1305.788368 0.4640 0.4420 0.4070 0.4030 0.4000
1312.748000 0.3970 0.3920 0.3410 0.3170 0.2940
1319.714368 0.2710 0.2470 0.2240 0.2240 0.2530
1326.674000 0.2820 0.3450 0.3710 0.5080 0.5570
1333.640368 0.5630 0.5670 0.5630 0.5510 0.5360
1340.600000 0.5020 0.4600 0.4550 0.3960 0.3870
1347.566368 0.3610 0.3130 0.2920 0.2520 0.2290
1354.526000 0.2180 0.2180 0.2190 0.2250 0.2280
1361.492368 0.2280 0.2250 0.2220 0.2220 0.2320
1368.452000 0.2420 0.2610 0.3080 0.3410 0.3720
1375.418368 0.4620 0.4800 0.5370 0.5640 0.5880
1382.378000 0.6130 0.6140 0.6170 0.6140 0.6120
1389.344368 0.6070 0.6050 0.6000 0.5990 0.5950
1396.304000 0.5920 0.5910 0.5790 0.5680 0.5570
1403.270368 0.5390 0.5230 0.5070 0.4690 0.4450
1410.230000 0.4420 0.4240 0.3960 0.3780 0.3620
1417.196368 0.3620 0.3680 0.3730 0.3820 0.3990
1424.156000 0.3990 0.3970 0.3900 0.3850 0.3790
1431.122368 0.3790 0.3960 0.3960 0.3940 0.3930
1438.082000 0.3920 0.3900 0.3850 0.3800 0.3750
1445.048368 0.3540 0.3500 0.3330 0.3260 0.3200
1452.009000 0.3150 0.3120 0.3120 0.3150 0.3200
1458.975368 0.3240 0.3310 0.3440 0.3570 0.3580
1465.935000 0.3780 0.3970 0.4360 0.4700 0.6170
1472.901368 0.6660 0.7120 0.7140 0.7320 0.7500
1479.861000 0.7680 0.7880 0.7890 0.7920 0.7940
1486.827368 0.7940 0.7920 0.7920 0.7880 0.7870
1493.787000 0.7840 0.7820 0.7810 0.7820 0.7850
1500.753368 0.8400 0.8680 0.8920 0.9010 0.9170
1507.713000 0.9220 0.9280 0.9290 0.9310 0.9340
1514.679368 0.9340 0.9350 0.9350 0.9340 0.9340
1521.639000 0.9350 0.9350 0.9360 0.9360 0.9390
1528.605368 0.9410 0.9420 0.9420 0.9420 0.9410
1535.565000 0.9410 0.9410 0.9410 0.9420 0.9430
1542.531368 0.9430 0.9460 0.9460 0.9480 0.9490
1549.491000 0.9490 0.9480 0.9420 0.9390 0.9380
1556.457368 0.9360 0.9360 0.9350 0.9350 0.9360
1563.417000 0.9390 0.9390 0.9390 0.9380 0.9350
1570.383368 0.9320 0.9280 0.9250 0.9200 0.9170
1577.343000 0.9140 0.9130 0.9010 0.8900 0.8790
1584.309368 0.8690 0.8480 0.8360 0.8240 0.7950
1591.269000 0.7880 0.7710 0.7570 0.7390 0.7220
1598.235368 0.6900 0.6870 0.6900 0.7380 0.7870
1605.195000 0.8540 0.9210 0.9240 0.9460 0.9500
1612.161368 0.9520 0.9530 0.9550 0.9560 0.9560
1619.122000 0.9570 0.9570 0.9570 0.9560 0.9530
1626.088368 0.9530 0.9500 0.9480 0.9460 0.9450
1633.048000 0.9430 0.9420 0.9410 0.9390 0.9390
1640.014368 0.9380 0.9380 0.9360 0.9350 0.9350
1646.974000 0.9350 0.9350 0.9350 0.9350 0.9350
1653.940368 0.9350 0.9350 0.9350 0.9350 0.9360
1660.900000 0.9360 0.9360 0.9360 0.9360 0.9360
1667.866368 0.9360 0.9360 0.9350 0.9350 0.9340
1674.826000 0.9320 0.9310 0.9290 0.9280 0.9270
1681.792368 0.9240 0.9200 0.9170 0.9140 0.9110
1688.752000 0.9080 0.9010 0.8970 0.8940 0.8900
1695.718368 0.8870 0.8850 0.8800 0.8760 0.8720
1702.678000 0.8690 0.8650 0.8620 0.8580 0.8510
1709.644368 0.8450 0.8310 0.8100 0.7960 0.7810
1716.604000 0.7640 0.7490 0.7240 0.7120 0.7030
1723.570368 0.6760 0.6590 0.6330 0.5820 0.5580
1730.530000 0.5350 0.5020 0.4380 0.3850 0.3330
1737.496368 0.3100 0.2840 0.2590 0.2560 0.2570
1744.456000 0.2780 0.2950 0.3480 0.4030 0.4410
1751.422368 0.4420 0.4880 0.5330 0.6230 0.6240
1758.382000 0.6540 0.6830 0.7100 0.7450 0.7590
1765.348368 0.7600 0.7750 0.7910 0.8190 0.8200
1772.308000 0.8570 0.8580 0.8750 0.8750 0.8800
1779.274368 0.8850 0.8890 0.8940 0.9010 0.9030
1786.234000 0.9070 0.9150 0.9150 0.9180 0.9210
1793.200368 0.9220 0.9250 0.9270 0.9290 0.9310
1800.161000 0.9340 0.9350 0.9380 0.9390 0.9390
1807.127368 0.9410 0.9410 0.9420 0.9420 0.9450
1814.087000 0.9460 0.9480 0.9490 0.9500 0.9520
1821.053368 0.9530 0.9550 0.9560 0.9570 0.9590
1828.013000 0.9600 0.9600 0.9640 0.9670 0.9690
1834.979368 0.9690 0.9710 0.9730 0.9740 0.9740
1841.939000 0.9780 0.9770 0.9800 0.9800 0.9810
1848.905368 0.9810 0.9830 0.9830 0.9830 0.9830
1855.865000 0.9830 0.9810 0.9810 0.9800 0.9800
1862.831368 0.9800 0.9780 0.9780 0.9780 0.9770
1869.791000 0.9770 0.9770 0.9770 0.9770 0.9770
1876.757368 0.9770 0.9770 0.9770 0.9770 0.9770
1883.717000 0.9770 0.9770 0.9770 0.9770 0.9770
1890.683368 0.9770 0.9770 0.9770 0.9770 0.9770
1897.643000 0.9770 0.9760 0.9760 0.9760 0.9760
1904.609368 0.9740 0.9740 0.9740 0.9730 0.9730
1911.569000 0.9710 0.9700 0.9690 0.9640 0.9620
1918.535368 0.9620 0.9600 0.9600 0.9590 0.9570
1925.495000 0.9560 0.9560 0.9530 0.9530 0.9520
1932.461368 0.9520 0.9530 0.9530 0.9520 0.9500
1939.422000 0.9500 0.9480 0.9460 0.9450 0.9420
1946.388368 0.9410 0.9410 0.9420 0.9450 0.9490
1953.348000 0.9550 0.9590 0.9600 0.9600 0.9630
1960.314368 0.9640 0.9660 0.9690 0.9700 0.9700
1967.274000 0.9700 0.9700 0.9700 0.9710 0.9730
1974.240368 0.9730 0.9740 0.9740 0.9740 0.9740
1981.200000 0.9760 0.9760 0.9760 0.9760 0.9770
1988.166368 0.9780 0.9780 0.9800 0.9800 0.9800
1995.126000 0.9800 0.9800 0.9780 0.9780 0.9780
2002.092368 0.9780 0.9780 0.9780 0.9780 0.9780
2009.052000 0.9780 0.9780 0.9780 0.9780 0.9780
2016.018368 0.9780 0.9770 0.9770 0.9760 0.9760
2022.978000 0.9740 0.9740 0.9740 0.9740 0.9730
2029.944368 0.9730 0.9710 0.9710 0.9700 0.9690
2036.904000 0.9690 0.9670 0.9670 0.9670 0.9660
2043.870368 0.9660 0.9660 0.9660 0.9660 0.9670
2050.830000 0.9690 0.9700 0.9710 0.9730 0.9730
2057.796368 0.9760 0.9780 0.9780 0.9770 0.9760
2064.756000 0.9760 0.9740 0.9740 0.9730 0.9730
2071.722368 0.9710 0.9710 0.9700 0.9700 0.9700
2078.682000 0.9690 0.9690 0.9670 0.9670 0.9670
2085.648368 0.9670 0.9670 0.9670 0.9670 0.9670
2092.608000 0.9670 0.9670 0.9660 0.9660 0.9660
2099.574368 0.9660 0.9660 0.9660 0.9660 0.9660
2106.534000 0.9640 0.9640 0.9630 0.9630 0.9630
2113.500368 0.9620 0.9620 0.9600 0.9600 0.9600
2120.461000 0.9600 0.9600 0.9600 0.9600 0.9600
2127.427368 0.9620 0.9620 0.9620 0.9630 0.9630
2134.387000 0.9620 0.9600 0.9590 0.9570 0.9570
2141.353368 0.9560 0.9550 0.9550 0.9520 0.9520
2148.313000 0.9500 0.9490 0.9460 0.9420 0.9420
2155.279368 0.9410 0.9410 0.9420 0.9420 0.9420
2162.239000 0.9420 0.9420 0.9420 0.9420 0.9410
2169.205368 0.9410 0.9410 0.9410 0.9410 0.9410
2176.165000 0.9390 0.9390 0.9410 0.9410 0.9410
2183.131368 0.9410 0.9410 0.9410 0.9390 0.9380
2190.091000 0.9360 0.9360 0.9360 0.9360 0.9380
2197.057368 0.9380 0.9390 0.9390 0.9390 0.9410
2204.017000 0.9410 0.9410 0.9420 0.9420 0.9410
2210.983368 0.9410 0.9390 0.9390 0.9390 0.9390
2217.943000 0.9380 0.9380 0.9380 0.9380 0.9380
2224.909368 0.9380 0.9390 0.9390 0.9390 0.9390
2231.869000 0.9390 0.9380 0.9380 0.9380 0.9380
2238.835368 0.9380 0.9360 0.9350 0.9350 0.9340
2245.795000 0.9340 0.9340 0.9350 0.9390 0.9390
2252.761368 0.9410 0.9410 0.9390 0.9390 0.9380
2259.721000 0.9380 0.9360 0.9360 0.9380 0.9390
2266.687368 0.9410 0.9420 0.9420 0.9420 0.9410
2273.647000 0.9410 0.9390 0.9360 0.9340 0.9340
2280.613368 0.9320 0.9310 0.9310 0.9310 0.9290
2287.573000 0.9290 0.9290 0.9290 0.9290 0.9280
2294.539368 0.9270 0.9250 0.9220 0.9200 0.9170
2301.500000 0.9140 0.9130 0.9110 0.9100 0.9080
2308.466368 0.9080 0.9070 0.9060 0.9030 0.9010
2315.426000 0.8970 0.8940 0.8900 0.8870 0.8850
2322.392368 0.8830 0.8830 0.8820 0.8820 0.8800
2329.352000 0.8800 0.8790 0.8790 0.8790 0.8780
2336.318368 0.8780 0.8780 0.8780 0.8780 0.8780
2343.278000 0.8780 0.8780 0.8790 0.8790 0.8790
2350.244368 0.8800 0.8820 0.8820 0.8830 0.8830
2357.204000 0.8830 0.8830 0.8830 0.8850 0.8850
2364.170368 0.8860 0.8870 0.8890 0.8900 0.8920
2371.130000 0.8930 0.8960 0.8990 0.9000 0.9030
2378.096368 0.9060 0.9070 0.9100 0.9110 0.9130
2385.056000 0.9140 0.9150 0.9170 0.9170 0.9170
2392.022368 0.9180 0.9200 0.9200 0.9210 0.9220
2398.982000 0.9220 0.9220 0.9240 0.9240 0.9240
2405.948368 0.9240 0.9250 0.9250 0.9250 0.9250
2412.908000 0.9250 0.9250 0.9250 0.9250 0.9250
2419.874368 0.9250 0.9250 0.9250 0.9270 0.9270
2426.834000 0.9270 0.9270 0.9270 0.9270 0.9270
2433.800368 0.9270 0.9270 0.9270 0.9270 0.9270
2440.760000 0.9280 0.9280 0.9280 0.9280 0.9280
2447.726368 0.9280 0.9290 0.9290 0.9290 0.9290
2454.687000 0.9310 0.9310 0.9310 0.9310 0.9310
2461.653368 0.9320 0.9320 0.9320 0.9320 0.9320
2468.613000 0.9340 0.9340 0.9340 0.9340 0.9340
2475.579368 0.9350 0.9350 0.9350 0.9350 0.9360
2482.539000 0.9360 0.9360 0.9360 0.9360 0.9380
2489.505368 0.9380 0.9380 0.9380 0.9390 0.9390
2496.465000 0.9390 0.9390 0.9410 0.9410 0.9410
2503.431368 0.9410 0.9420 0.9420 0.9420 0.9430
2510.391000 0.9450 0.9450 0.9450 0.9450 0.9450
2517.357368 0.9460 0.9460 0.9460 0.9460 0.9460
2524.317000 0.9480 0.9480 0.9480 0.9480 0.9480
2531.283368 0.9490 0.9490 0.9490 0.9490 0.9490
2538.243000 0.9500 0.9500 0.9500 0.9500 0.9500
2545.209368 0.9500 0.9500 0.9500 0.9500 0.9500
2552.169000 0.9500 0.9520 0.9520 0.9520 0.9520
2559.135368 0.9520 0.9520 0.9520 0.9520 0.9530
2566.095000 0.9530 0.9530 0.9530 0.9530 0.9530
2573.061368 0.9530 0.9530 0.9550 0.9550 0.9550
2580.021000 0.9550 0.9550 0.9550 0.9550 0.9560
2586.987368 0.9560 0.9560 0.9560 0.9560 0.9560
2593.948000 0.9560 0.9560 0.9570 0.9570 0.9570
2600.914368 0.9570 0.9570 0.9570 0.9570 0.9570
2607.874000 0.9570 0.9570 0.9570 0.9570 0.9570
2614.840368 0.9570 0.9570 0.9570 0.9570 0.9570
2621.800000 0.9570 0.9570 0.9570 0.9570 0.9570
2628.766368 0.9570 0.9570 0.9570 0.9570 0.9570
2635.726000 0.9570 0.9570 0.9570 0.9570 0.9570
2642.692368 0.9570 0.9570 0.9570 0.9570 0.9570
2649.652000 0.9570 0.9570 0.9570 0.9570 0.9570
2656.618368 0.9570 0.9570 0.9570 0.9570 0.9570
2663.578000 0.9570 0.9570 0.9570 0.9570 0.9590
2670.544368 0.9590 0.9590 0.9590 0.9590 0.9590
2677.504000 0.9590 0.9590 0.9590 0.9590 0.9590
2684.470368 0.9590 0.9590 0.9590 0.9590 0.9590
2691.430000 0.9600 0.9600 0.9600 0.9600 0.9620
2698.396368 0.9620 0.9630 0.9630 0.9630 0.9630
2705.356000 0.9630 0.9630 0.9630 0.9630 0.9630
2712.322368 0.9620 0.9600 0.9600 0.9600 0.9590
2719.282000 0.9590 0.9570 0.9570 0.9560 0.9560
2726.248368 0.9550 0.9530 0.9530 0.9530 0.9530
2733.208000 0.9550 0.9550 0.9560 0.9590 0.9600
2740.174368 0.9600 0.9620 0.9620 0.9630 0.9630
2747.134000 0.9630 0.9640 0.9700 0.9710 0.9730
2754.100368 0.9730 0.9730 0.9740 0.9760 0.9760
2761.061000 0.9760 0.9760 0.9760 0.9740 0.9730
2768.027368 0.9700 0.9700 0.9700 0.9690 0.9690
2774.987000 0.9670 0.9640 0.9620 0.9590 0.9500
2781.953368 0.9480 0.9460 0.9450 0.9410 0.9360
2788.913000 0.9340 0.9290 0.9270 0.9240 0.9210
2795.879368 0.9130 0.9060 0.8990 0.8920 0.8830
2802.839000 0.8780 0.8750 0.8710 0.8660 0.8620
2809.805368 0.8590 0.8550 0.8510 0.8470 0.8430
2816.765000 0.8340 0.8290 0.8150 0.8030 0.7870
2823.731368 0.7780 0.7640 0.7500 0.7380 0.7250
2830.691000 0.6940 0.6730 0.6540 0.6340 0.6140
2837.657368 0.5950 0.5580 0.5360 0.4620 0.4220
2844.617000 0.3850 0.3470 0.3090 0.2710 0.2330
2851.583368 0.1960 0.1400 0.1310 0.1240 0.1200
2858.543000 0.1170 0.1160 0.1160 0.1170 0.1200
2865.509368 0.1230 0.1300 0.1310 0.1350 0.1380
2872.469000 0.1410 0.1450 0.1490 0.1510 0.1540
2879.435368 0.1660 0.1720 0.1790 0.1840 0.1870
2886.395000 0.1910 0.1940 0.1910 0.1790 0.1700
2893.361368 0.1580 0.1480 0.1410 0.1310 0.1260
2900.321000 0.1140 0.0910 0.0770 0.0720 0.0680
2907.287368 0.0630 0.0600 0.0560 0.0540 0.0510
2914.247000 0.0500 0.0470 0.0440 0.0400 0.0370
2921.213368 0.0360 0.0300 0.0290 0.0280 0.0280
2928.173000 0.0260 0.0260 0.0260 0.0280 0.0280
2935.139368 0.0290 0.0290 0.0300 0.0300 0.0320
2942.100000 0.0330 0.0350 0.0360 0.0390 0.0400
2949.066368 0.0430 0.0440 0.0470 0.0490 0.0500
2956.026000 0.0540 0.0570 0.0610 0.0650 0.0720
2962.992368 0.0740 0.0860 0.0880 0.0980 0.1070
2969.952000 0.1260 0.1270 0.1370 0.1440 0.1820
2976.918368 0.1820 0.1970 0.2120 0.2250 0.2770
2983.878000 0.2940 0.3270 0.3450 0.3650 0.3990
2990.844368 0.4010 0.4060 0.4340 0.4730 0.4940
2997.804000 0.5210 0.5530 0.5610 0.5710 0.5720
3004.770368 0.5850 0.5960 0.6190 0.6200 0.6300
3011.730000 0.6450 0.6590 0.6620 0.6630 0.6750
3018.696368 0.6890 0.6940 0.7000 0.7140 0.7250
3025.656000 0.7290 0.7290 0.7310 0.7310 0.7320
3032.622368 0.7320 0.7320 0.7310 0.7280 0.7280
3039.582000 0.7260 0.7250 0.7250 0.7250 0.7260
3046.548368 0.7290 0.7320 0.7380 0.7390 0.7460
3053.508000 0.7530 0.7570 0.7700 0.7710 0.7740
3060.474368 0.7750 0.7810 0.7820 0.7840 0.7840
3067.434000 0.7850 0.7870 0.7880 0.7880 0.7880
3074.400368 0.7870 0.7870 0.7850 0.7850 0.7870
3081.360000 0.7920 0.7960 0.8010 0.8020 0.8020
3088.326368 0.8020 0.8010 0.8010 0.7990 0.7990
3095.286000 0.7980 0.7980 0.7980 0.7980 0.7980
3102.252368 0.7980 0.7990 0.7990 0.8010 0.8010
3109.213000 0.8020 0.8020 0.8050 0.8060 0.8080
3116.179368 0.8090 0.8100 0.8130 0.8160 0.8190
3123.139000 0.8190 0.8220 0.8220 0.8240 0.8260
3130.105368 0.8270 0.8270 0.8290 0.8290 0.8290
3137.065000 0.8290 0.8290 0.8290 0.8300 0.8300
3144.031368 0.8300 0.8300 0.8300 0.8300 0.8300
3150.991000 0.8290 0.8290 0.8270 0.8270 0.8260
3157.957368 0.8260 0.8260 0.8240 0.8240 0.8230
3164.917000 0.8220 0.8200 0.8200 0.8190 0.8190
3171.883368 0.8190 0.8190 0.8190 0.8170 0.8170
3178.843000 0.8150 0.8130 0.8130 0.8120 0.8120
3185.809368 0.8100 0.8090 0.8080 0.8060 0.8050
3192.769000 0.8050 0.8030 0.8020 0.7990 0.7980
3199.735368 0.7950 0.7940 0.7910 0.7890 0.7880
3206.695000 0.7870 0.7840 0.7820 0.7810 0.7810
3213.661368 0.7800 0.7800 0.7770 0.7750 0.7710
3220.621000 0.7670 0.7640 0.7590 0.7530 0.7490
3227.587368 0.7470 0.7470 0.7390 0.7360 0.7320
3234.547000 0.7280 0.7250 0.7220 0.7180 0.7080
3241.513368 0.7030 0.6980 0.6970 0.6830 0.6790
3248.473000 0.6750 0.6690 0.6610 0.6490 0.6380
3255.439368 0.6270 0.6210 0.6090 0.6030 0.5890
3262.399000 0.5770 0.5680 0.5510 0.5490 0.5290
3269.365368 0.5180 0.5040 0.4910 0.4660 0.4500
3276.325000 0.4040 0.4000 0.3720 0.3610 0.3470
3283.291368 0.3380 0.3290 0.3020 0.3010 0.3020
3290.252000 0.3100 0.3340 0.3510 0.3590 0.3970
3297.218368 0.4060 0.4520 0.5000 0.5330 0.5630
3304.178000 0.5980 0.6260 0.6590 0.6620 0.6630
3311.144368 0.7290 0.7310 0.7460 0.7610 0.7740
3318.104000 0.7910 0.8020 0.8120 0.8270 0.8370
3325.070368 0.8500 0.8590 0.8680 0.8750 0.8820
3332.030000 0.8870 0.8890 0.8960 0.8990 0.9030
3338.996368 0.9080 0.9100 0.9150 0.9170 0.9170
3345.956000 0.9200 0.9200 0.9210 0.9220 0.9220
3352.922368 0.9240 0.9240 0.9250 0.9270 0.9270
3359.882000 0.9280 0.9290 0.9310 0.9340 0.9350
3366.848368 0.9360 0.9360 0.9380 0.9380 0.9390
3373.808000 0.9390 0.9410 0.9420 0.9420 0.9430
3380.774368 0.9430 0.9450 0.9450 0.9460 0.9460
3387.734000 0.9460 0.9480 0.9480 0.9480 0.9480
3394.700368 0.9480 0.9480 0.9480 0.9480 0.9480
3401.660000 0.9460 0.9460 0.9460 0.9460 0.9450
3408.626368 0.9450 0.9450 0.9430 0.9430 0.9430
3415.586000 0.9430 0.9430 0.9430 0.9430 0.9430
3422.552368 0.9430 0.9420 0.9420 0.9420 0.9420
3429.512000 0.9410 0.9410 0.9410 0.9390 0.9380
3436.478368 0.9380 0.9360 0.9360 0.9350 0.9350
3443.438000 0.9340 0.9340 0.9320 0.9320 0.9320
3450.404368 0.9310 0.9310 0.9290 0.9290 0.9290
3457.365000 0.9280 0.9280 0.9270 0.9270 0.9250
3464.331368 0.9250 0.9240 0.9240 0.9240 0.9220
3471.291000 0.9220 0.9220 0.9210 0.9210 0.9210
3478.257368 0.9220 0.9220 0.9220 0.9220 0.9220
3485.217000 0.9240 0.9240 0.9240 0.9240 0.9240
3492.183368 0.9240
##END=
