##TITLE=Thorium oxalate, dihydrate
##JCAMP-DX=4.24
$$ By DXEDIT 1.05 (RS McDonald)
##DATA TYPE=INFRARED SPECTRUM
##CLASS=COBLENTZ III
##ORIGIN=DOW CHEMICAL COMPANY
##OWNER=COPYRIGHT (C) 1988 by COBLENTZ SOCIETY INC.
Collection (C) 2018 copyright by the U.S. Secretary of Commerce
on behalf of the United States of America. All rights reserved.
##DATE=1965/08/20
##MOLFORM=C4 O8 Th  * 2 H2 O
##SOURCE REFERENCE=COBLENTZ NO. 07003
##$NIST ID=B6007003
##$NIST SOURCE=COBLENTZ
##$NIST IMAGE=cob7003
##SPECTROMETER/DATA SYSTEM=BECKMAN IR-9 (GRATING)
##INSTRUMENT PARAMETERS=ORDER CHANGES: 670, 1200, 2000 CM^-^1
##STATE=SOLID (SPLIT MULL), FLUOROLUBE FOR 3800-1330 CM^-^1, NUJOL FOR 1330-400 CM^-^1
##SAMPLING PROCEDURE=TRANSMISSION
##RESOLUTION=2
##DATA PROCESSING=DIGITIZED BY COBLENTZ SOCIETY (BATCH I) FROM HARD COPY
##XUNITS=1/CM
##YUNITS=TRANSMITTANCE
##XFACTOR=1
##YFACTOR=1
##DELTAX=1
##FIRSTX=3802
##LASTX=403
##FIRSTY=0.6818
##MAXX=3802
##MINX=403
##MAXY=0.8786
##MINY=0.0164
##NPOINTS=3400
##XYDATA=(X++(Y..Y))
3802.000000 0.6818 0.6819 0.6822 0.6825 0.6830
3797.000000 0.6833 0.6836 0.6839 0.6842 0.6845
3792.000000 0.6849 0.6851 0.6855 0.6858 0.6861
3787.000000 0.6865 0.6868 0.6871 0.6875 0.6878
3782.000000 0.6881 0.6884 0.6888 0.6891 0.6894
3777.000000 0.6897 0.6901 0.6904 0.6907 0.6910
3772.000000 0.6914 0.6917 0.6919 0.6922 0.6926
3767.000000 0.6930 0.6934 0.6938 0.6943 0.6947
3762.000000 0.6951 0.6955 0.6960 0.6964 0.6968
3757.000000 0.6971 0.6976 0.6981 0.6986 0.6990
3752.000000 0.6994 0.6997 0.7001 0.7004 0.7008
3747.000000 0.7011 0.7015 0.7018 0.7021 0.7024
3742.000000 0.7028 0.7031 0.7035 0.7038 0.7042
3737.000000 0.7044 0.7047 0.7049 0.7051 0.7054
3732.000000 0.7057 0.7058 0.7061 0.7064 0.7067
3727.000000 0.7068 0.7071 0.7072 0.7075 0.7078
3722.000000 0.7081 0.7083 0.7085 0.7086 0.7088
3717.000000 0.7089 0.7091 0.7092 0.7094 0.7095
3712.000000 0.7096 0.7097 0.7099 0.7100 0.7101
3707.000000 0.7103 0.7105 0.7106 0.7108 0.7108
3702.000000 0.7108 0.7108 0.7106 0.7103 0.7101
3697.000000 0.7099 0.7097 0.7094 0.7089 0.7089
3692.000000 0.7087 0.7085 0.7083 0.7080 0.7078
3687.000000 0.7075 0.7072 0.7068 0.7065 0.7058
3682.000000 0.7053 0.7047 0.7042 0.7036 0.7030
3677.000000 0.7024 0.7018 0.7012 0.7008 0.7001
3672.000000 0.6996 0.6988 0.6981 0.6972 0.6965
3667.000000 0.6957 0.6949 0.6941 0.6933 0.6925
3662.000000 0.6917 0.6908 0.6901 0.6892 0.6883
3657.000000 0.6872 0.6862 0.6853 0.6843 0.6833
3652.000000 0.6822 0.6812 0.6803 0.6793 0.6783
3647.000000 0.6772 0.6762 0.6753 0.6743 0.6718
3642.000000 0.6695 0.6669 0.6646 0.6621 0.6597
3637.000000 0.6571 0.6546 0.6519 0.6495 0.6468
3632.000000 0.6444 0.6418 0.6393 0.6370 0.6348
3627.000000 0.6326 0.6304 0.6282 0.6260 0.6237
3622.000000 0.6215 0.6192 0.6170 0.6145 0.6121
3617.000000 0.6097 0.6073 0.6048 0.6024 0.6000
3612.000000 0.5976 0.5951 0.5927 0.5894 0.5862
3607.000000 0.5823 0.5784 0.5745 0.5706 0.5667
3602.000000 0.5628 0.5578 0.5528 0.5460 0.5393
3597.000000 0.5325 0.5258 0.5191 0.5125 0.5062
3592.000000 0.4999 0.4935 0.4872 0.4810 0.4749
3587.000000 0.4717 0.4685 0.4652 0.4620 0.4588
3582.000000 0.4556 0.4524 0.4492 0.4459 0.4427
3577.000000 0.4390 0.4353 0.4310 0.4269 0.4227
3572.000000 0.4186 0.4144 0.4102 0.4059 0.4018
3567.000000 0.3974 0.3929 0.3882 0.3837 0.3791
3562.000000 0.3745 0.3684 0.3626 0.3560 0.3496
3557.000000 0.3434 0.3375 0.3322 0.3270 0.3216
3552.000000 0.3165 0.3120 0.3075 0.3031 0.2987
3547.000000 0.2946 0.2906 0.2865 0.2825 0.2791
3542.000000 0.2758 0.2729 0.2700 0.2677 0.2654
3537.000000 0.2629 0.2604 0.2583 0.2562 0.2544
3532.000000 0.2527 0.2513 0.2500 0.2488 0.2477
3527.000000 0.2466 0.2455 0.2444 0.2433 0.2433
3522.000000 0.2433 0.2434 0.2434 0.2435 0.2434
3517.000000 0.2440 0.2442 0.2444 0.2446 0.2448
3512.000000 0.2450 0.2452 0.2454 0.2456 0.2458
3507.000000 0.2460 0.2462 0.2463 0.2465 0.2466
3502.000000 0.2468 0.2469 0.2471 0.2472 0.2474
3497.000000 0.2475 0.2477 0.2478 0.2480 0.2481
3492.000000 0.2483 0.2484 0.2485 0.2487 0.2489
3487.000000 0.2490 0.2492 0.2493 0.2494 0.2495
3482.000000 0.2496 0.2497 0.2499 0.2500 0.2501
3477.000000 0.2502 0.2503 0.2504 0.2506 0.2507
3472.000000 0.2508 0.2509 0.2510 0.2511 0.2513
3467.000000 0.2514 0.2515 0.2516 0.2517 0.2518
3462.000000 0.2520 0.2521 0.2522 0.2522 0.2522
3457.000000 0.2521 0.2520 0.2519 0.2519 0.2518
3452.000000 0.2518 0.2517 0.2516 0.2515 0.2515
3447.000000 0.2514 0.2514 0.2513 0.2512 0.2510
3442.000000 0.2509 0.2507 0.2506 0.2505 0.2504
3437.000000 0.2502 0.2501 0.2500 0.2499 0.2497
3432.000000 0.2496 0.2496 0.2496 0.2497 0.2498
3427.000000 0.2499 0.2500 0.2501 0.2502 0.2503
3422.000000 0.2503 0.2504 0.2505 0.2506 0.2507
3417.000000 0.2508 0.2509 0.2510 0.2511 0.2518
3412.000000 0.2525 0.2533 0.2542 0.2551 0.2560
3407.000000 0.2569 0.2578 0.2588 0.2598 0.2608
3402.000000 0.2618 0.2628 0.2639 0.2649 0.2659
3397.000000 0.2669 0.2679 0.2689 0.2699 0.2709
3392.000000 0.2719 0.2731 0.2743 0.2756 0.2770
3387.000000 0.2783 0.2797 0.2811 0.2825 0.2838
3382.000000 0.2852 0.2865 0.2879 0.2893 0.2907
3377.000000 0.2921 0.2934 0.2949 0.2963 0.2977
3372.000000 0.2991 0.3005 0.3019 0.3033 0.3047
3367.000000 0.3061 0.3075 0.3089 0.3104 0.3118
3362.000000 0.3132 0.3146 0.3160 0.3174 0.3188
3357.000000 0.3200 0.3212 0.3225 0.3237 0.3249
3352.000000 0.3262 0.3274 0.3286 0.3298 0.3309
3347.000000 0.3322 0.3334 0.3347 0.3359 0.3371
3342.000000 0.3384 0.3396 0.3408 0.3418 0.3430
3337.000000 0.3442 0.3454 0.3464 0.3477 0.3488
3332.000000 0.3500 0.3510 0.3522 0.3532 0.3545
3327.000000 0.3556 0.3568 0.3579 0.3591 0.3602
3322.000000 0.3614 0.3625 0.3637 0.3648 0.3659
3317.000000 0.3671 0.3682 0.3694 0.3706 0.3716
3312.000000 0.3729 0.3740 0.3752 0.3764 0.3779
3307.000000 0.3793 0.3808 0.3822 0.3837 0.3852
3302.000000 0.3866 0.3880 0.3896 0.3909 0.3925
3297.000000 0.3939 0.3954 0.3968 0.3984 0.3998
3292.000000 0.4012 0.4028 0.4043 0.4057 0.4072
3287.000000 0.4086 0.4101 0.4116 0.4131 0.4146
3282.000000 0.4162 0.4177 0.4193 0.4208 0.4224
3277.000000 0.4239 0.4255 0.4270 0.4286 0.4301
3272.000000 0.4317 0.4331 0.4346 0.4360 0.4376
3267.000000 0.4390 0.4404 0.4415 0.4426 0.4437
3262.000000 0.4448 0.4459 0.4470 0.4481 0.4492
3257.000000 0.4499 0.4506 0.4510 0.4515 0.4519
3252.000000 0.4524 0.4528 0.4532 0.4536 0.4541
3247.000000 0.4545 0.4549 0.4552 0.4555 0.4556
3242.000000 0.4557 0.4558 0.4559 0.4560 0.4562
3237.000000 0.4562 0.4564 0.4565 0.4566 0.4567
3232.000000 0.4569 0.4569 0.4569 0.4569 0.4569
3227.000000 0.4569 0.4569 0.4569 0.4569 0.4569
3222.000000 0.4570 0.4570 0.4570 0.4569 0.4569
3217.000000 0.4567 0.4566 0.4564 0.4562 0.4559
3212.000000 0.4556 0.4554 0.4552 0.4550 0.4548
3207.000000 0.4545 0.4543 0.4541 0.4539 0.4536
3202.000000 0.4533 0.4530 0.4527 0.4523 0.4520
3197.000000 0.4516 0.4512 0.4509 0.4506 0.4502
3192.000000 0.4499 0.4497 0.4495 0.4495 0.4532
3187.000000 0.4498 0.4502 0.4510 0.4518 0.4526
3182.000000 0.4535 0.4543 0.4551 0.4559 0.4568
3177.000000 0.4579 0.4591 0.4607 0.4623 0.4639
3172.000000 0.4655 0.4669 0.4683 0.4693 0.4704
3167.000000 0.4714 0.4725 0.4735 0.4746 0.4756
3162.000000 0.4767 0.4777 0.4788 0.4798 0.4809
3157.000000 0.4819 0.4830 0.4840 0.4851 0.4860
3152.000000 0.4872 0.4882 0.4893 0.4903 0.4914
3147.000000 0.4924 0.4935 0.4944 0.4954 0.4962
3142.000000 0.4972 0.4981 0.4990 0.4999 0.5009
3137.000000 0.5018 0.5027 0.5036 0.5046 0.5055
3132.000000 0.5064 0.5073 0.5083 0.5092 0.5101
3127.000000 0.5110 0.5120 0.5129 0.5138 0.5147
3122.000000 0.5157 0.5166 0.5175 0.5184 0.5193
3117.000000 0.5202 0.5212 0.5221 0.5230 0.5239
3112.000000 0.5249 0.5258 0.5267 0.5276 0.5285
3107.000000 0.5293 0.5302 0.5310 0.5320 0.5329
3102.000000 0.5338 0.5347 0.5356 0.5365 0.5374
3097.000000 0.5383 0.5392 0.5401 0.5410 0.5418
3092.000000 0.5427 0.5436 0.5445 0.5454 0.5462
3087.000000 0.5472 0.5481 0.5490 0.5499 0.5508
3082.000000 0.5517 0.5525 0.5534 0.5543 0.5552
3077.000000 0.5560 0.5570 0.5579 0.5588 0.5596
3072.000000 0.5604 0.5612 0.5620 0.5628 0.5636
3067.000000 0.5644 0.5652 0.5659 0.5667 0.5675
3062.000000 0.5683 0.5691 0.5699 0.5706 0.5714
3057.000000 0.5722 0.5730 0.5738 0.5746 0.5753
3052.000000 0.5760 0.5767 0.5775 0.5782 0.5789
3047.000000 0.5796 0.5804 0.5810 0.5819 0.5826
3042.000000 0.5833 0.5840 0.5848 0.5855 0.5862
3037.000000 0.5868 0.5874 0.5879 0.5885 0.5890
3032.000000 0.5896 0.5899 0.5903 0.5906 0.5910
3027.000000 0.5912 0.5916 0.5919 0.5923 0.5926
3022.000000 0.5930 0.5933 0.5936 0.5937 0.5939
3017.000000 0.5940 0.5942 0.5944 0.5946 0.5947
3012.000000 0.5949 0.5950 0.5952 0.5953 0.5955
3007.000000 0.5956 0.5957 0.5958 0.5959 0.5960
3002.000000 0.5962 0.5962 0.5964 0.5965 0.5966
2997.000000 0.5967 0.5968 0.5969 0.5970 0.5971
2992.000000 0.5972 0.5973 0.5974 0.5974 0.5975
2987.000000 0.5975 0.5976 0.5976 0.5977 0.5977
2982.000000 0.5977 0.5977 0.5978 0.5979 0.5980
2977.000000 0.5981 0.5983 0.5984 0.5986 0.5987
2972.000000 0.5989 0.5990 0.5991 0.5992 0.5994
2967.000000 0.5995 0.5997 0.5999 0.6001 0.6003
2962.000000 0.6006 0.6008 0.6010 0.6012 0.6015
2957.000000 0.6017 0.6019 0.6021 0.6024 0.6026
2952.000000 0.6028 0.6030 0.6033 0.6035 0.6037
2947.000000 0.6041 0.6045 0.6050 0.6076 0.6071
2942.000000 0.6087 0.6095 0.6104 0.6112 0.6121
2937.000000 0.6129 0.6137 0.6145 0.6154 0.6162
2932.000000 0.6171 0.6179 0.6188 0.6196 0.6205
2927.000000 0.6212 0.6222 0.6230 0.6238 0.6247
2922.000000 0.6257 0.6267 0.6277 0.6286 0.6296
2917.000000 0.6305 0.6315 0.6325 0.6335 0.6344
2912.000000 0.6354 0.6364 0.6374 0.6383 0.6392
2907.000000 0.6401 0.6410 0.6418 0.6426 0.6436
2902.000000 0.6445 0.6454 0.6462 0.6469 0.6476
2897.000000 0.6483 0.6489 0.6495 0.6501 0.6508
2892.000000 0.6514 0.6519 0.6525 0.6532 0.6538
2887.000000 0.6544 0.6550 0.6556 0.6561 0.6568
2882.000000 0.6575 0.6581 0.6588 0.6594 0.6601
2877.000000 0.6608 0.6615 0.6621 0.6628 0.6634
2872.000000 0.6641 0.6647 0.6654 0.6660 0.6667
2867.000000 0.6672 0.6680 0.6686 0.6693 0.6699
2862.000000 0.6706 0.6711 0.6718 0.6725 0.6732
2857.000000 0.6738 0.6745 0.6751 0.6758 0.6764
2852.000000 0.6771 0.6776 0.6784 0.6790 0.6797
2847.000000 0.6803 0.6810 0.6817 0.6824 0.6828
2842.000000 0.6835 0.6840 0.6845 0.6850 0.6855
2837.000000 0.6860 0.6865 0.6871 0.6875 0.6881
2832.000000 0.6886 0.6891 0.6897 0.6901 0.6907
2827.000000 0.6911 0.6917 0.6921 0.6928 0.6933
2822.000000 0.6938 0.6943 0.6948 0.6953 0.6958
2817.000000 0.6964 0.6968 0.6974 0.6978 0.6984
2812.000000 0.6990 0.6995 0.7000 0.7005 0.7010
2807.000000 0.7015 0.7021 0.7025 0.7031 0.7036
2802.000000 0.7041 0.7046 0.7051 0.7057 0.7061
2797.000000 0.7067 0.7071 0.7076 0.7083 0.7088
2792.000000 0.7093 0.7097 0.7101 0.7106 0.7110
2787.000000 0.7114 0.7118 0.7121 0.7125 0.7130
2782.000000 0.7134 0.7138 0.7142 0.7146 0.7150
2777.000000 0.7154 0.7158 0.7161 0.7165 0.7169
2772.000000 0.7174 0.7178 0.7182 0.7186 0.7190
2767.000000 0.7194 0.7198 0.7201 0.7206 0.7210
2762.000000 0.7214 0.7218 0.7221 0.7225 0.7230
2757.000000 0.7234 0.7238 0.7242 0.7246 0.7250
2752.000000 0.7254 0.7258 0.7261 0.7265 0.7269
2747.000000 0.7274 0.7278 0.7282 0.7286 0.7290
2742.000000 0.7294 0.7298 0.7301 0.7306 0.7310
2737.000000 0.7314 0.7318 0.7321 0.7325 0.7330
2732.000000 0.7334 0.7337 0.7341 0.7344 0.7348
2727.000000 0.7351 0.7356 0.7358 0.7362 0.7365
2722.000000 0.7369 0.7374 0.7378 0.7381 0.7385
2717.000000 0.7388 0.7392 0.7395 0.7399 0.7403
2712.000000 0.7407 0.7410 0.7414 0.7417 0.7421
2707.000000 0.7425 0.7428 0.7432 0.7436 0.7439
2702.000000 0.7443 0.7447 0.7451 0.7454 0.7458
2697.000000 0.7461 0.7464 0.7467 0.7469 0.7472
2692.000000 0.7476 0.7480 0.7483 0.7486 0.7490
2687.000000 0.7493 0.7496 0.7499 0.7501 0.7505
2682.000000 0.7508 0.7511 0.7515 0.7518 0.7521
2677.000000 0.7524 0.7528 0.7531 0.7534 0.7537
2672.000000 0.7540 0.7543 0.7546 0.7549 0.7551
2667.000000 0.7555 0.7558 0.7561 0.7565 0.7568
2662.000000 0.7571 0.7574 0.7576 0.7580 0.7584
2657.000000 0.7587 0.7590 0.7593 0.7596 0.7599
2652.000000 0.7601 0.7605 0.7608 0.7611 0.7615
2647.000000 0.7618 0.7621 0.7624 0.7626 0.7630
2642.000000 0.7633 0.7636 0.7640 0.7643 0.7646
2637.000000 0.7649 0.7651 0.7655 0.7658 0.7661
2632.000000 0.7665 0.7668 0.7671 0.7674 0.7676
2627.000000 0.7678 0.7680 0.7682 0.7684 0.7685
2622.000000 0.7641 0.7688 0.7690 0.7692 0.7694
2617.000000 0.7695 0.7697 0.7698 0.7700 0.7701
2612.000000 0.7704 0.7705 0.7707 0.7708 0.7710
2607.000000 0.7711 0.7714 0.7715 0.7717 0.7718
2602.000000 0.7719 0.7721 0.7724 0.7725 0.7726
2597.000000 0.7728 0.7731 0.7732 0.7734 0.7735
2592.000000 0.7737 0.7739 0.7741 0.7742 0.7744
2587.000000 0.7745 0.7747 0.7749 0.7751 0.7751
2582.000000 0.7754 0.7755 0.7757 0.7758 0.7761
2577.000000 0.7761 0.7762 0.7762 0.7764 0.7765
2572.000000 0.7765 0.7767 0.7768 0.7768 0.7769
2567.000000 0.7771 0.7771 0.7772 0.7774 0.7775
2562.000000 0.7775 0.7775 0.7776 0.7778 0.7778
2557.000000 0.7780 0.7781 0.7782 0.7783 0.7784
2552.000000 0.7785 0.7786 0.7787 0.7788 0.7789
2547.000000 0.7789 0.7790 0.7791 0.7792 0.7793
2542.000000 0.7794 0.7795 0.7796 0.7796 0.7797
2537.000000 0.7797 0.7798 0.7798 0.7799 0.7799
2532.000000 0.7800 0.7800 0.7801 0.7801 0.7803
2527.000000 0.7803 0.7804 0.7804 0.7805 0.7805
2522.000000 0.7806 0.7806 0.7807 0.7807 0.7808
2517.000000 0.7808 0.7808 0.7808 0.7808 0.7808
2512.000000 0.7808 0.7807 0.7807 0.7807 0.7807
2507.000000 0.7807 0.7807 0.7806 0.7806 0.7806
2502.000000 0.7806 0.7806 0.7806 0.7805 0.7805
2497.000000 0.7805 0.7805 0.7804 0.7804 0.7804
2492.000000 0.7804 0.7804 0.7804 0.7803 0.7803
2487.000000 0.7803 0.7803 0.7803 0.7804 0.7804
2482.000000 0.7804 0.7804 0.7805 0.7805 0.7805
2477.000000 0.7805 0.7806 0.7806 0.7806 0.7806
2472.000000 0.7807 0.7807 0.7807 0.7807 0.7808
2467.000000 0.7808 0.7808 0.7808 0.7808 0.7808
2462.000000 0.7808 0.7808 0.7810 0.7810 0.7810
2457.000000 0.7810 0.7811 0.7811 0.7811 0.7811
2452.000000 0.7811 0.7811 0.7811 0.7811 0.7811
2447.000000 0.7810 0.7808 0.7807 0.7806 0.7805
2442.000000 0.7804 0.7801 0.7801 0.7799 0.7798
2437.000000 0.7796 0.7795 0.7795 0.7795 0.7795
2432.000000 0.7795 0.7795 0.7796 0.7796 0.7796
2427.000000 0.7796 0.7796 0.7796 0.7796 0.7796
2422.000000 0.7797 0.7797 0.7798 0.7798 0.7799
2417.000000 0.7799 0.7800 0.7800 0.7801 0.7801
2412.000000 0.7801 0.7801 0.7803 0.7803 0.7804
2407.000000 0.7805 0.7806 0.7810 0.7814 0.7817
2402.000000 0.7821 0.7825 0.7828 0.7833 0.7838
2397.000000 0.7842 0.7846 0.7850 0.7855 0.7858
2392.000000 0.7861 0.7861 0.7862 0.7864 0.7865
2387.000000 0.7865 0.7865 0.7865 0.7864 0.7860
2382.000000 0.7857 0.7851 0.7848 0.7842 0.7836
2377.000000 0.7830 0.7825 0.7818 0.7812 0.7806
2372.000000 0.7799 0.7792 0.7786 0.7778 0.7772
2367.000000 0.7765 0.7760 0.7753 0.7747 0.7741
2362.000000 0.7736 0.7733 0.7731 0.7728 0.7725
2357.000000 0.7721 0.7718 0.7715 0.7711 0.7708
2352.000000 0.7706 0.7701 0.7699 0.7696 0.7693
2347.000000 0.7690 0.7687 0.7683 0.7680 0.7676
2342.000000 0.7674 0.7669 0.7667 0.7664 0.7661
2337.000000 0.7658 0.7655 0.7651 0.7649 0.7647
2332.000000 0.7645 0.7643 0.7641 0.7639 0.7637
2327.000000 0.7634 0.7632 0.7630 0.7628 0.7625
2322.000000 0.7624 0.7621 0.7619 0.7618 0.7615
2317.000000 0.7612 0.7611 0.7608 0.7607 0.7605
2312.000000 0.7603 0.7601 0.7599 0.7596 0.7594
2307.000000 0.7592 0.7591 0.7590 0.7590 0.7590
2302.000000 0.7590 0.7590 0.7590 0.7589 0.7589
2297.000000 0.7589 0.7589 0.7588 0.7588 0.7588
2292.000000 0.7588 0.7588 0.7588 0.7588 0.7588
2287.000000 0.7588 0.7588 0.7588 0.7588 0.7588
2282.000000 0.7589 0.7591 0.7593 0.7595 0.7597
2277.000000 0.7599 0.7601 0.7603 0.7605 0.7607
2272.000000 0.7608 0.7612 0.7662 0.7622 0.7628
2267.000000 0.7635 0.7641 0.7646 0.7651 0.7658
2262.000000 0.7664 0.7669 0.7675 0.7682 0.7688
2257.000000 0.7694 0.7700 0.7706 0.7711 0.7718
2252.000000 0.7724 0.7728 0.7735 0.7741 0.7747
2247.000000 0.7753 0.7758 0.7765 0.7771 0.7776
2242.000000 0.7783 0.7789 0.7795 0.7801 0.7807
2237.000000 0.7814 0.7821 0.7828 0.7835 0.7842
2232.000000 0.7849 0.7856 0.7862 0.7869 0.7876
2227.000000 0.7883 0.7890 0.7897 0.7904 0.7911
2222.000000 0.7918 0.7925 0.7932 0.7939 0.7946
2217.000000 0.7953 0.7960 0.7967 0.7974 0.7981
2212.000000 0.7988 0.7995 0.8001 0.8008 0.8014
2207.000000 0.8019 0.8025 0.8031 0.8037 0.8043
2202.000000 0.8049 0.8054 0.8060 0.8065 0.8071
2197.000000 0.8076 0.8083 0.8089 0.8095 0.8101
2192.000000 0.8107 0.8111 0.8118 0.8124 0.8130
2187.000000 0.8135 0.8141 0.8147 0.8153 0.8158
2182.000000 0.8164 0.8169 0.8175 0.8182 0.8188
2177.000000 0.8192 0.8197 0.8201 0.8206 0.8210
2172.000000 0.8215 0.8218 0.8224 0.8228 0.8233
2167.000000 0.8237 0.8242 0.8246 0.8251 0.8255
2162.000000 0.8260 0.8264 0.8268 0.8273 0.8278
2157.000000 0.8282 0.8287 0.8291 0.8296 0.8300
2152.000000 0.8305 0.8309 0.8314 0.8318 0.8323
2147.000000 0.8327 0.8332 0.8336 0.8341 0.8345
2142.000000 0.8350 0.8355 0.8360 0.8364 0.8368
2137.000000 0.8373 0.8378 0.8382 0.8387 0.8391
2132.000000 0.8396 0.8400 0.8405 0.8410 0.8415
2127.000000 0.8418 0.8424 0.8428 0.8432 0.8436
2122.000000 0.8440 0.8444 0.8448 0.8451 0.8455
2117.000000 0.8459 0.8463 0.8467 0.8471 0.8475
2112.000000 0.8478 0.8483 0.8487 0.8491 0.8495
2107.000000 0.8498 0.8502 0.8506 0.8510 0.8514
2102.000000 0.8518 0.8521 0.8525 0.8528 0.8533
2097.000000 0.8537 0.8541 0.8544 0.8548 0.8552
2092.000000 0.8556 0.8559 0.8563 0.8567 0.8571
2087.000000 0.8574 0.8578 0.8582 0.8586 0.8589
2082.000000 0.8593 0.8597 0.8601 0.8605 0.8610
2077.000000 0.8614 0.8618 0.8621 0.8625 0.8630
2072.000000 0.8634 0.8638 0.8642 0.8646 0.8650
2067.000000 0.8654 0.8658 0.8662 0.8666 0.8668
2062.000000 0.8671 0.8674 0.8675 0.8678 0.8681
2057.000000 0.8683 0.8685 0.8687 0.8689 0.8691
2052.000000 0.8693 0.8695 0.8697 0.8699 0.8701
2047.000000 0.8703 0.8705 0.8707 0.8709 0.8711
2042.000000 0.8713 0.8715 0.8717 0.8718 0.8721
2037.000000 0.8721 0.8724 0.8725 0.8725 0.8727
2032.000000 0.8728 0.8728 0.8730 0.8731 0.8732
2027.000000 0.8733 0.8734 0.8735 0.8736 0.8737
2022.000000 0.8738 0.8739 0.8740 0.8741 0.8742
2017.000000 0.8743 0.8744 0.8745 0.8746 0.8742
2012.000000 0.8738 0.8734 0.8731 0.8727 0.8724
2007.000000 0.8720 0.8717 0.8714 0.8711 0.8708
2002.000000 0.8706 0.8701 0.8696 0.8692 0.8691
1997.000000 0.8690 0.8689 0.8688 0.8686 0.8686
1992.000000 0.8686 0.8686 0.8686 0.8686 0.8686
1987.000000 0.8686 0.8687 0.8687 0.8687 0.8687
1982.000000 0.8687 0.8685 0.8682 0.8678 0.8677
1977.000000 0.8674 0.8671 0.8668 0.8665 0.8662
1972.000000 0.8657 0.8652 0.8647 0.8642 0.8637
1967.000000 0.8632 0.8625 0.8621 0.8616 0.8611
1962.000000 0.8606 0.8601 0.8595 0.8589 0.8582
1957.000000 0.8575 0.8570 0.8564 0.8558 0.8552
1952.000000 0.8546 0.8540 0.8534 0.8525 0.8518
1947.000000 0.8508 0.8499 0.8490 0.8485 0.8480
1942.000000 0.8475 0.8467 0.8460 0.8453 0.8446
1937.000000 0.8439 0.8432 0.8425 0.8418 0.8410
1932.000000 0.8402 0.8393 0.8388 0.8387 0.8385
1927.000000 0.8383 0.8382 0.8380 0.8378 0.8378
1922.000000 0.8378 0.8378 0.8378 0.8380 0.8380
1917.000000 0.8380 0.8380 0.8380 0.8382 0.8384
1912.000000 0.8386 0.8389 0.8391 0.8393 0.8396
1907.000000 0.8398 0.8400 0.8403 0.8405 0.8408
1902.000000 0.8410 0.8412 0.8415 0.8418 0.8421
1897.000000 0.8425 0.8428 0.8431 0.8435 0.8438
1892.000000 0.8441 0.8444 0.8447 0.8447 0.8448
1887.000000 0.8448 0.8447 0.8446 0.8445 0.8444
1882.000000 0.8444 0.8443 0.8442 0.8441 0.8440
1877.000000 0.8440 0.8439 0.8438 0.8437 0.8436
1872.000000 0.8436 0.8436 0.8435 0.8435 0.8434
1867.000000 0.8434 0.8433 0.8433 0.8432 0.8432
1862.000000 0.8432 0.8431 0.8431 0.8430 0.8430
1857.000000 0.8428 0.8428 0.8428 0.8428 0.8425
1852.000000 0.8423 0.8420 0.8417 0.8414 0.8412
1847.000000 0.8409 0.8406 0.8403 0.8401 0.8398
1842.000000 0.8395 0.8392 0.8387 0.8383 0.8378
1837.000000 0.8430 0.8368 0.8364 0.8360 0.8355
1832.000000 0.8350 0.8346 0.8341 0.8335 0.8330
1827.000000 0.8325 0.8320 0.8315 0.8310 0.8305
1822.000000 0.8299 0.8294 0.8289 0.8282 0.8274
1817.000000 0.8266 0.8259 0.8250 0.8237 0.8225
1812.000000 0.8212 0.8200 0.8187 0.8174 0.8161
1807.000000 0.8149 0.8137 0.8124 0.8111 0.8099
1802.000000 0.8086 0.8072 0.8051 0.8034 0.8017
1797.000000 0.8001 0.7987 0.7965 0.7943 0.7919
1792.000000 0.7897 0.7875 0.7851 0.7828 0.7806
1787.000000 0.7784 0.7764 0.7744 0.7722 0.7703
1782.000000 0.7682 0.7661 0.7641 0.7621 0.7597
1777.000000 0.7567 0.7537 0.7507 0.7476 0.7446
1772.000000 0.7411 0.7378 0.7344 0.7311 0.7276
1767.000000 0.7237 0.7196 0.7155 0.7114 0.7072
1762.000000 0.7032 0.6971 0.6901 0.6832 0.6761
1757.000000 0.6693 0.6635 0.6578 0.6521 0.6465
1752.000000 0.6406 0.6342 0.6278 0.6214 0.6124
1747.000000 0.6032 0.5919 0.5790 0.5694 0.5600
1742.000000 0.5510 0.5422 0.5174 0.5107 0.5055
1737.000000 0.5004 0.4953 0.4901 0.4798 0.4646
1732.000000 0.4489 0.4362 0.4251 0.4139 0.4027
1727.000000 0.3914 0.3787 0.3618 0.3449 0.3303
1722.000000 0.3202 0.3102 0.3002 0.2855 0.2705
1717.000000 0.2544 0.2375 0.2230 0.2170 0.2109
1712.000000 0.2048 0.1987 0.1927 0.1866 0.1789
1707.000000 0.1677 0.1565 0.1462 0.1367 0.1273
1702.000000 0.1178 0.1084 0.1018 0.0953 0.0888
1697.000000 0.0825 0.0760 0.0657 0.0610 0.0563
1692.000000 0.0522 0.0489 0.0456 0.0421 0.0403
1687.000000 0.0386 0.0367 0.0350 0.0332 0.0314
1682.000000 0.0296 0.0285 0.0274 0.0263 0.0255
1677.000000 0.0247 0.0240 0.0233 0.0228 0.0222
1672.000000 0.0216 0.0211 0.0207 0.0201 0.0196
1667.000000 0.0191 0.0189 0.0185 0.0183 0.0180
1662.000000 0.0178 0.0175 0.0172 0.0170 0.0167
1657.000000 0.0164 0.0164 0.0164 0.0164 0.0164
1652.000000 0.0164 0.0164 0.0164 0.0165 0.0165
1647.000000 0.0165 0.0165 0.0165 0.0166 0.0166
1642.000000 0.0167 0.0168 0.0169 0.0169 0.0172
1637.000000 0.0177 0.0182 0.0187 0.0191 0.0196
1632.000000 0.0204 0.0218 0.0233 0.0250 0.0267
1627.000000 0.0288 0.0307 0.0328 0.0357 0.0390
1622.000000 0.0417 0.0419 0.0419 0.0419 0.0421
1617.000000 0.0423 0.0425 0.0427 0.0430 0.0432
1612.000000 0.0451 0.0512 0.0573 0.0634 0.0683
1607.000000 0.0724 0.0764 0.0805 0.0845 0.0885
1602.000000 0.0929 0.0975 0.1021 0.1067 0.1113
1597.000000 0.1166 0.1226 0.1286 0.1346 0.1406
1592.000000 0.1508 0.1629 0.1742 0.1822 0.1903
1587.000000 0.1984 0.2064 0.2143 0.2217 0.2291
1582.000000 0.2364 0.2438 0.2511 0.2581 0.2633
1577.000000 0.2684 0.2737 0.2789 0.2841 0.2893
1572.000000 0.2945 0.3014 0.3088 0.3162 0.3234
1567.000000 0.3305 0.3376 0.3442 0.3492 0.3543
1562.000000 0.3593 0.3644 0.3695 0.3752 0.3805
1557.000000 0.3848 0.3890 0.3932 0.3975 0.4016
1552.000000 0.4059 0.4091 0.4116 0.4141 0.4166
1547.000000 0.4191 0.4217 0.4246 0.4275 0.4304
1542.000000 0.4332 0.4360 0.4390 0.4419 0.4448
1537.000000 0.4477 0.4506 0.4534 0.4562 0.4592
1532.000000 0.4621 0.4650 0.4679 0.4707 0.4735
1527.000000 0.4762 0.4789 0.4816 0.4843 0.4870
1522.000000 0.4897 0.4924 0.4951 0.4978 0.5005
1517.000000 0.5027 0.5049 0.5070 0.5092 0.5112
1512.000000 0.5135 0.5156 0.5178 0.5201 0.5230
1507.000000 0.5256 0.5277 0.5297 0.5318 0.5333
1502.000000 0.5348 0.5360 0.5373 0.5384 0.5396
1497.000000 0.5408 0.5414 0.5419 0.5424 0.5429
1492.000000 0.5434 0.5440 0.5445 0.5450 0.5465
1487.000000 0.5483 0.5498 0.5512 0.5529 0.5544
1482.000000 0.5559 0.5574 0.5590 0.5605 0.5620
1477.000000 0.5636 0.5651 0.5666 0.5681 0.5697
1472.000000 0.5712 0.5727 0.5742 0.5758 0.5773
1467.000000 0.5787 0.5801 0.5814 0.5828 0.5842
1462.000000 0.5856 0.5870 0.5884 0.5898 0.5912
1457.000000 0.5926 0.5940 0.5954 0.5967 0.5981
1452.000000 0.5996 0.6010 0.6026 0.6041 0.6056
1447.000000 0.6071 0.6087 0.6102 0.6117 0.6132
1442.000000 0.6147 0.6162 0.6176 0.6190 0.6203
1437.000000 0.6217 0.6231 0.6244 0.6258 0.6272
1432.000000 0.6283 0.6293 0.6304 0.6315 0.6325
1427.000000 0.6336 0.6347 0.6357 0.6368 0.6379
1422.000000 0.6390 0.6400 0.6408 0.6418 0.6426
1417.000000 0.6436 0.6445 0.6454 0.6462 0.6471
1412.000000 0.6478 0.6484 0.6490 0.6496 0.6503
1407.000000 0.6508 0.6512 0.6515 0.6518 0.6519
1402.000000 0.6522 0.6525 0.6528 0.6530 0.6532
1397.000000 0.6534 0.6537 0.6537 0.6560 0.6533
1392.000000 0.6531 0.6521 0.6511 0.6500 0.6489
1387.000000 0.6475 0.6461 0.6448 0.6431 0.6408
1382.000000 0.6385 0.6342 0.6299 0.6242 0.6148
1377.000000 0.6060 0.5976 0.5859 0.5733 0.5642
1372.000000 0.5551 0.5459 0.5368 0.5280 0.5210
1367.000000 0.5141 0.5064 0.4928 0.4766 0.4528
1362.000000 0.4268 0.4008 0.3748 0.3488 0.3228
1357.000000 0.3159 0.3161 0.3183 0.3169 0.3180
1352.000000 0.3192 0.3204 0.3214 0.3239 0.3266
1347.000000 0.3318 0.3384 0.3470 0.3536 0.3602
1342.000000 0.3666 0.3714 0.3744 0.3762 0.3764
1337.000000 0.3766 0.3768 0.3791 0.3772 0.3774
1332.000000 0.3776 0.3777 0.3777 0.3721 0.3557
1327.000000 0.3393 0.3229 0.3066 0.2902 0.2738
1322.000000 0.2574 0.2411 0.2247 0.2083 0.1919
1317.000000 0.1853 0.1852 0.1858 0.1868 0.1879
1312.000000 0.1891 0.2006 0.2235 0.2466 0.2695
1307.000000 0.2925 0.3155 0.3384 0.4117 0.4286
1302.000000 0.4464 0.4651 0.5200 0.5403 0.5554
1297.000000 0.5703 0.5829 0.5955 0.6064 0.6146
1292.000000 0.6228 0.6310 0.6389 0.6442 0.6494
1287.000000 0.6547 0.6599 0.6651 0.6705 0.6755
1282.000000 0.6801 0.6850 0.6897 0.6944 0.6992
1277.000000 0.7039 0.7087 0.7132 0.7178 0.7222
1272.000000 0.7268 0.7314 0.7360 0.7405 0.7450
1267.000000 0.7494 0.7538 0.7582 0.7625 0.7668
1262.000000 0.7711 0.7754 0.7797 0.7840 0.7871
1257.000000 0.7901 0.7932 0.7962 0.7993 0.8022
1252.000000 0.8053 0.8083 0.8107 0.8125 0.8145
1247.000000 0.8164 0.8182 0.8201 0.8220 0.8239
1242.000000 0.8257 0.8275 0.8295 0.8314 0.8331
1237.000000 0.8347 0.8363 0.8380 0.8396 0.8411
1232.000000 0.8421 0.8432 0.8442 0.8452 0.8462
1227.000000 0.8471 0.8482 0.8492 0.8502 0.8513
1222.000000 0.8521 0.8525 0.8530 0.8534 0.8537
1217.000000 0.8541 0.8545 0.8549 0.8552 0.8556
1212.000000 0.8560 0.8563 0.8567 0.8571 0.8571
1207.000000 0.8573 0.8574 0.8574 0.8575 0.8575
1202.000000 0.8577 0.8578 0.8578 0.8578 0.8580
1197.000000 0.8581 0.8582 0.8583 0.8585 0.8586
1192.000000 0.8587 0.8588 0.8589 0.8590 0.8590
1187.000000 0.8590 0.8589 0.8585 0.8582 0.8575
1182.000000 0.8570 0.8564 0.8558 0.8552 0.8546
1177.000000 0.8540 0.8534 0.8528 0.8521 0.8516
1172.000000 0.8511 0.8506 0.8501 0.8496 0.8491
1167.000000 0.8486 0.8480 0.8475 0.8470 0.8466
1162.000000 0.8462 0.8458 0.8454 0.8450 0.8450
1157.000000 0.8449 0.8453 0.8457 0.8461 0.8465
1152.000000 0.8468 0.8473 0.8477 0.8481 0.8485
1147.000000 0.8488 0.8490 0.8492 0.8494 0.8496
1142.000000 0.8498 0.8500 0.8502 0.8504 0.8506
1137.000000 0.8508 0.8510 0.8512 0.8515 0.8518
1132.000000 0.8521 0.8525 0.8528 0.8531 0.8534
1127.000000 0.8537 0.8540 0.8543 0.8546 0.8549
1122.000000 0.8552 0.8555 0.8558 0.8562 0.8565
1117.000000 0.8568 0.8571 0.8574 0.8577 0.8580
1112.000000 0.8583 0.8586 0.8589 0.8592 0.8595
1107.000000 0.8598 0.8600 0.8603 0.8605 0.8607
1102.000000 0.8609 0.8611 0.8613 0.8616 0.8618
1097.000000 0.8620 0.8621 0.8624 0.8625 0.8627
1092.000000 0.8627 0.8628 0.8628 0.8628 0.8630
1087.000000 0.8630 0.8631 0.8632 0.8634 0.8637
1082.000000 0.8639 0.8642 0.8644 0.8647 0.8649
1077.000000 0.8651 0.8654 0.8656 0.8658 0.8658
1072.000000 0.8658 0.8658 0.8659 0.8659 0.8659
1067.000000 0.8659 0.8659 0.8659 0.8659 0.8658
1062.000000 0.8655 0.8653 0.8650 0.8648 0.8646
1057.000000 0.8643 0.8641 0.8638 0.8636 0.8633
1052.000000 0.8628 0.8625 0.8621 0.8618 0.8615
1047.000000 0.8611 0.8607 0.8604 0.8600 0.8597
1042.000000 0.8591 0.8586 0.8580 0.8574 0.8568
1037.000000 0.8563 0.8558 0.8552 0.8547 0.8541
1032.000000 0.8542 0.8550 0.8558 0.8566 0.8591
1027.000000 0.8591 0.8590 0.8598 0.8606 0.8614
1022.000000 0.8621 0.8632 0.8643 0.8654 0.8665
1017.000000 0.8675 0.8686 0.8697 0.8708 0.8718
1012.000000 0.8730 0.8738 0.8744 0.8750 0.8756
1007.000000 0.8762 0.8767 0.8771 0.8777 0.8781
1002.000000 0.8786 0.8786 0.8786 0.8784 0.8783
997.000000 0.8781 0.8778 0.8777 0.8768 0.8759
992.000000 0.8750 0.8741 0.8732 0.8724 0.8713
987.000000 0.8703 0.8693 0.8682 0.8671 0.8662
982.000000 0.8651 0.8641 0.8630 0.8617 0.8605
977.000000 0.8592 0.8580 0.8567 0.8554 0.8542
972.000000 0.8541 0.8540 0.8541 0.8543 0.8544
967.000000 0.8546 0.8548 0.8549 0.8551 0.8553
962.000000 0.8554 0.8555 0.8556 0.8557 0.8558
957.000000 0.8559 0.8560 0.8560 0.8561 0.8562
952.000000 0.8563 0.8563 0.8561 0.8558 0.8555
947.000000 0.8553 0.8550 0.8548 0.8545 0.8543
942.000000 0.8540 0.8535 0.8530 0.8524 0.8518
937.000000 0.8513 0.8507 0.8501 0.8496 0.8489
932.000000 0.8481 0.8471 0.8464 0.8456 0.8451
927.000000 0.8449 0.8447 0.8445 0.8442 0.8440
922.000000 0.8440 0.8446 0.8452 0.8458 0.8464
917.000000 0.8470 0.8474 0.8478 0.8482 0.8486
912.000000 0.8490 0.8492 0.8492 0.8487 0.8474
907.000000 0.8462 0.8449 0.8437 0.8424 0.8412
902.000000 0.8396 0.8382 0.8368 0.8356 0.8344
897.000000 0.8343 0.8343 0.8343 0.8344 0.8345
892.000000 0.8346 0.8348 0.8349 0.8350 0.8350
887.000000 0.8350 0.8349 0.8348 0.8347 0.8346
882.000000 0.8345 0.8342 0.8336 0.8331 0.8320
877.000000 0.8309 0.8298 0.8287 0.8275 0.8265
872.000000 0.8256 0.8247 0.8238 0.8228 0.8220
867.000000 0.8211 0.8203 0.8195 0.8188 0.8181
862.000000 0.8172 0.8165 0.8158 0.8151 0.8144
857.000000 0.8137 0.8130 0.8121 0.8115 0.8108
852.000000 0.8100 0.8096 0.8089 0.8083 0.8076
847.000000 0.8069 0.8064 0.8058 0.8051 0.8045
842.000000 0.8039 0.8032 0.8025 0.8018 0.8011
837.000000 0.8000 0.7988 0.7974 0.7951 0.7926
832.000000 0.7904 0.7881 0.7848 0.7788 0.7728
827.000000 0.7669 0.7601 0.7531 0.7461 0.7392
822.000000 0.7318 0.7235 0.7111 0.6881 0.6468
817.000000 0.6057 0.5645 0.5233 0.4821 0.4409
812.000000 0.3997 0.3584 0.3173 0.2761 0.2349
807.000000 0.1936 0.1525 0.1120 0.1022 0.1056
802.000000 0.1062 0.1127 0.1183 0.1221 0.1596
797.000000 0.1972 0.2348 0.2724 0.3100 0.3476
792.000000 0.3852 0.4228 0.4603 0.4979 0.5355
787.000000 0.5724 0.5825 0.5930 0.6037 0.6133
782.000000 0.6178 0.6223 0.6267 0.6295 0.6324
777.000000 0.6351 0.6375 0.6392 0.6401 0.6408
772.000000 0.6417 0.6425 0.6431 0.6496 0.6441
767.000000 0.6444 0.6447 0.6450 0.6453 0.6453
762.000000 0.6453 0.6450 0.6447 0.6443 0.6438
757.000000 0.6430 0.6395 0.6344 0.6292 0.6270
752.000000 0.6259 0.6248 0.6237 0.6226 0.6215
747.000000 0.6204 0.6189 0.6173 0.6158 0.6142
742.000000 0.6127 0.6112 0.6094 0.6075 0.6057
737.000000 0.6039 0.5982 0.5904 0.5835 0.5781
732.000000 0.5723 0.5696 0.5683 0.5671 0.5662
727.000000 0.5657 0.5672 0.5686 0.5712 0.5748
722.000000 0.5795 0.5842 0.5889 0.5960 0.6045
717.000000 0.6177 0.6257 0.6315 0.6373 0.6418
712.000000 0.6447 0.6475 0.6501 0.6526 0.6546
707.000000 0.6558 0.6606 0.6565 0.6562 0.6561
702.000000 0.6558 0.6551 0.6543 0.6534 0.6515
697.000000 0.6497 0.6478 0.6460 0.6431 0.6399
692.000000 0.6367 0.6331 0.6277 0.6224 0.6177
687.000000 0.6138 0.6099 0.6060 0.6022 0.5977
682.000000 0.5932 0.5886 0.5841 0.5798 0.5759
677.000000 0.5719 0.5679 0.5639 0.5600 0.5569
672.000000 0.5538 0.5509 0.5493 0.5478 0.5462
667.000000 0.5450 0.5440 0.5453 0.5454 0.5455
662.000000 0.5468 0.5480 0.5495 0.5512 0.5528
657.000000 0.5545 0.5562 0.5578 0.5595 0.5612
652.000000 0.5629 0.5645 0.5662 0.5679 0.5696
647.000000 0.5712 0.5727 0.5743 0.5759 0.5775
642.000000 0.5791 0.5806 0.5822 0.5838 0.5854
637.000000 0.5869 0.5885 0.5901 0.5916 0.5928
632.000000 0.5939 0.5951 0.5962 0.5973 0.5985
627.000000 0.5996 0.6008 0.6019 0.6031 0.6042
622.000000 0.6053 0.6065 0.6076 0.6088 0.6099
617.000000 0.6110 0.6122 0.6134 0.6145 0.6156
612.000000 0.6168 0.6179 0.6191 0.6201 0.6209
607.000000 0.6218 0.6226 0.6234 0.6243 0.6251
602.000000 0.6260 0.6268 0.6277 0.6284 0.6290
597.000000 0.6297 0.6303 0.6310 0.6316 0.6323
592.000000 0.6329 0.6336 0.6343 0.6349 0.6356
587.000000 0.6362 0.6362 0.6362 0.6362 0.6360
582.000000 0.6360 0.6359 0.6358 0.6357 0.6356
577.000000 0.6353 0.6348 0.6343 0.6338 0.6333
572.000000 0.6328 0.6323 0.6318 0.6312 0.6309
567.000000 0.6304 0.6297 0.6290 0.6282 0.6275
562.000000 0.6267 0.6259 0.6252 0.6244 0.6237
557.000000 0.6229 0.6222 0.6214 0.6206 0.6199
552.000000 0.6190 0.6181 0.6172 0.6162 0.6154
547.000000 0.6145 0.6136 0.6127 0.6118 0.6109
542.000000 0.6100 0.6091 0.6082 0.6073 0.6064
537.000000 0.6051 0.6036 0.6022 0.6008 0.5993
532.000000 0.5979 0.5965 0.5950 0.5936 0.5922
527.000000 0.5905 0.5885 0.5864 0.5844 0.5824
522.000000 0.5804 0.5783 0.5760 0.5739 0.5716
517.000000 0.5691 0.5664 0.5637 0.5610 0.5582
512.000000 0.5555 0.5512 0.5468 0.5424 0.5376
507.000000 0.5321 0.5267 0.5212 0.5158 0.5114
502.000000 0.5069 0.5025 0.4981 0.4936 0.4889
497.000000 0.4838 0.4788 0.4737 0.4670 0.4602
492.000000 0.4525 0.4400 0.4298 0.4214 0.4145
487.000000 0.4080 0.4023 0.3982 0.3942 0.3924
482.000000 0.3922 0.3912 0.3929 0.3932 0.3937
477.000000 0.3950 0.3986 0.4043 0.4107 0.4173
472.000000 0.4248 0.4323 0.4399 0.4478 0.4558
467.000000 0.4638 0.4703 0.4760 0.4818 0.4877
462.000000 0.4937 0.4988 0.5024 0.5060 0.5096
457.000000 0.5105 0.5114 0.5123 0.5164 0.5134
452.000000 0.5135 0.5135 0.5135 0.5134 0.5133
447.000000 0.5132 0.5122 0.5108 0.5093 0.5078
442.000000 0.5058 0.5034 0.5010 0.4986 0.4962
437.000000 0.4938 0.4912 0.4887 0.4862 0.4836
432.000000 0.4817 0.4797 0.4778 0.4758 0.4738
427.000000 0.4719 0.4702 0.4694 0.4686 0.4677
422.000000 0.4669 0.4660 0.4655 0.4657 0.4660
417.000000 0.4662 0.4665 0.4672 0.4681 0.4693
412.000000 0.4706 0.4719 0.4732 0.4748 0.4764
407.000000 0.4781 0.4798 0.4816 0.4833 0.4856
##END=
