##TITLE=4-AMINOBENZENEMETHANAMINE, N-PHENYL-,DIHYDROCHLORIDE
##JCAMP-DX=4.24
##DATA TYPE=INFRARED SPECTRUM
##CLASS=COBLENTZ III
##ORIGIN=BRITISH PETROLEUM CO. LTD., ENGLAND
##OWNER=Copyright (C) 1987 by the Coblentz Society
Collection (C) 2018 copyright by the U.S. Secretary of Commerce
on behalf of the United States of America. All rights reserved.
##DATE=1972/07/06
##NAMES=Toluene-a, 4-diamine, N-a-phenyl-,dihydrochloride
##MOLFORM=C13 H16 Cl2 N2
##SOURCE REFERENCE=COBLENTZ NO. 9331
##$NIST ID=B6009331
##$NIST SOURCE=COBLENTZ
##$NIST IMAGE=cob9331
##SPECTROMETER/DATA SYSTEM=PERKIN-ELMER 157
##STATE=SOLID (KBr DISC, 0.8% WT.)
$$ HCl RUN IN KBr MAY CONTAIN SOME HBr
$$ REF. Can. J. Spec., 18,4,101, '73 C. S. DOUSE and P. B. TOOKE
##SAMPLING PROCEDURE=TRANSMISSION
##RESOLUTION=2
##DATA PROCESSING=DIGITIZED BY COBLENTZ SOCIETY (BATCH II) FROM HARD COPY
##XUNITS=1/CM
##YUNITS=TRANSMITTANCE
##XFACTOR=1.0
##YFACTOR=1
##FIRSTX=667
##LASTX=4000
##FIRSTY=0.8987
##MAXX=4000
##MINX=667
##MAXY=0.8433
##MINY=0
##NPOINTS=3334
##XYDATA=(X++(Y..Y))
667.000000 0.8987 0.8960 0.8922 0.8901 0.8865
672.000000 0.8837 0.8775 0.8694 0.8647 0.8571
677.000000 0.8471 0.8366 0.8259 0.8141 0.8015
682.000000 0.7882 0.7726 0.7581 0.7360 0.7037
687.000000 0.6681 0.5889 0.5232 0.4967 0.4810
692.000000 0.4797 0.5070 0.5911 0.6918 0.7169
697.000000 0.7507 0.7628 0.7703 0.7779 0.7868
702.000000 0.8077 0.8347 0.8391 0.8400 0.8405
707.000000 0.8409 0.8433 0.8412 0.8409 0.8405
712.000000 0.8401 0.8396 0.8391 0.8362 0.8281
717.000000 0.8231 0.8208 0.8185 0.8161 0.8137
722.000000 0.8110 0.8083 0.8051 0.8018 0.7981
727.000000 0.7938 0.7894 0.7845 0.7795 0.7739
732.000000 0.7664 0.7591 0.7517 0.7441 0.7360
737.000000 0.7276 0.7175 0.7073 0.6959 0.6827
742.000000 0.6665 0.6529 0.6377 0.6184 0.5929
747.000000 0.5535 0.4810 0.4324 0.3917 0.3319
752.000000 0.2213 0.1730 0.1269 0.0666 0.0401
757.000000 0.0294 0.0348 0.0847 0.1931 0.3012
762.000000 0.4119 0.4574 0.5174 0.5997 0.6393
767.000000 0.6739 0.6942 0.7074 0.7152 0.7170
772.000000 0.7175 0.7206 0.7258 0.7253 0.7266
777.000000 0.7258 0.7242 0.7222 0.7207 0.7186
782.000000 0.7152 0.7106 0.7047 0.6979 0.6899
787.000000 0.6796 0.6645 0.6503 0.6319 0.6031
792.000000 0.5553 0.5064 0.4915 0.4885 0.4901
797.000000 0.4936 0.4944 0.4794 0.4611 0.4434
802.000000 0.4004 0.3396 0.3086 0.2300 0.1469
807.000000 0.0692 0.0360 0.0294 0.0289 0.0725
812.000000 0.1516 0.2305 0.3128 0.3542 0.3972
817.000000 0.4259 0.4423 0.4534 0.4618 0.4741
822.000000 0.4757 0.4763 0.4790 0.4847 0.4913
827.000000 0.5033 0.5271 0.5421 0.5500 0.5628
832.000000 0.5851 0.6059 0.6183 0.6262 0.6303
837.000000 0.6335 0.6364 0.6391 0.6438 0.6513
842.000000 0.6578 0.6735 0.6843 0.7019 0.7096
847.000000 0.7131 0.7135 0.7091 0.7019 0.6933
852.000000 0.6792 0.6629 0.6491 0.6352 0.6120
857.000000 0.5641 0.5388 0.4680 0.4001 0.3325
862.000000 0.2649 0.1981 0.1605 0.1558 0.1574
867.000000 0.1882 0.2694 0.3504 0.4313 0.5119
872.000000 0.5897 0.6326 0.6767 0.7102 0.7293
877.000000 0.7466 0.7640 0.7797 0.7929 0.7982
882.000000 0.8007 0.8020 0.8028 0.8034 0.8038
887.000000 0.8042 0.8060 0.8048 0.8052 0.8052
892.000000 0.8047 0.8042 0.8036 0.8025 0.8008
897.000000 0.7985 0.7956 0.7923 0.7882 0.7841
902.000000 0.7792 0.7729 0.7505 0.7266 0.7028
907.000000 0.6791 0.6554 0.6367 0.6177 0.6113
912.000000 0.6105 0.6094 0.6331 0.6558 0.6786
917.000000 0.7012 0.7238 0.7492 0.7629 0.7714
922.000000 0.7772 0.7803 0.7823 0.7833 0.7838
927.000000 0.7838 0.7829 0.7818 0.7801 0.7782
932.000000 0.7762 0.7734 0.7704 0.7664 0.7595
937.000000 0.7399 0.7137 0.6791 0.6447 0.6114
942.000000 0.5931 0.5879 0.5874 0.6047 0.6383
947.000000 0.6720 0.7055 0.7389 0.7686 0.7730
952.000000 0.7735 0.7730 0.7740 0.7736 0.7731
957.000000 0.7722 0.7703 0.7658 0.7568 0.7476
962.000000 0.7381 0.7171 0.6960 0.6750 0.6540
967.000000 0.6486 0.6487 0.6477 0.7036 0.7345
972.000000 0.7602 0.7640 0.7650 0.7647 0.7650
977.000000 0.7646 0.7641 0.7635 0.7625 0.7604
982.000000 0.7572 0.7540 0.7516 0.7507 0.7498
987.000000 0.7489 0.7479 0.7466 0.7447 0.7424
992.000000 0.7401 0.7378 0.7355 0.7333 0.7307
997.000000 0.7281 0.7255 0.7227 0.7196 0.7165
1002.000000 0.7133 0.7099 0.7067 0.7025 0.6977
1007.000000 0.6918 0.6862 0.6803 0.6710 0.6607
1012.000000 0.6478 0.6328 0.6133 0.5804 0.5561
1017.000000 0.5292 0.5065 0.4405 0.3658 0.2914
1022.000000 0.2170 0.2020 0.2020 0.3077 0.3944
1027.000000 0.4810 0.5658 0.6255 0.6301 0.6317
1032.000000 0.6321 0.6322 0.6305 0.6244 0.6171
1037.000000 0.6101 0.6026 0.5941 0.5854 0.5761
1042.000000 0.5680 0.5601 0.5458 0.5280 0.5030
1047.000000 0.4829 0.4633 0.4438 0.4242 0.4048
1052.000000 0.3884 0.3659 0.3544 0.3449 0.3350
1057.000000 0.3255 0.3211 0.3176 0.3163 0.3158
1062.000000 0.3154 0.3247 0.3363 0.3682 0.4029
1067.000000 0.4377 0.4723 0.5029 0.5222 0.5299
1072.000000 0.5312 0.5317 0.5318 0.5306 0.5293
1077.000000 0.5234 0.5154 0.5072 0.4991 0.4919
1082.000000 0.4828 0.4740 0.4641 0.4548 0.4454
1087.000000 0.4336 0.4188 0.3958 0.3705 0.3503
1092.000000 0.3196 0.3023 0.2836 0.2492 0.2134
1097.000000 0.1778 0.1421 0.1061 0.0833 0.0706
1102.000000 0.0570 0.0526 0.0517 0.0519 0.0530
1107.000000 0.0544 0.0555 0.0560 0.0548 0.0462
1112.000000 0.0364 0.0351 0.0350 0.0350 0.0355
1117.000000 0.0404 0.0521 0.0937 0.1611 0.2287
1122.000000 0.2962 0.3509 0.4175 0.4840 0.5513
1127.000000 0.5851 0.6110 0.6272 0.6473 0.6613
1132.000000 0.6677 0.6708 0.6721 0.6730 0.6733
1137.000000 0.6736 0.6736 0.6742 0.6727 0.6719
1142.000000 0.6698 0.6648 0.6596 0.6535 0.6454
1147.000000 0.6351 0.6322 0.6326 0.6322 0.6373
1152.000000 0.6451 0.6497 0.6515 0.6526 0.6528
1157.000000 0.6527 0.6526 0.6524 0.6503 0.6485
1162.000000 0.6455 0.6418 0.6370 0.6313 0.6254
1167.000000 0.6195 0.6137 0.6079 0.6019 0.5959
1172.000000 0.5892 0.5816 0.5729 0.5605 0.5429
1177.000000 0.5318 0.5243 0.4607 0.3941 0.3295
1182.000000 0.3051 0.3042 0.3054 0.3606 0.4054
1187.000000 0.4325 0.4351 0.4355 0.4340 0.4125
1192.000000 0.3808 0.3492 0.3176 0.2861 0.2546
1197.000000 0.2231 0.1893 0.1572 0.1457 0.1290
1202.000000 0.1247 0.1239 0.1241 0.1246 0.2451
1207.000000 0.3837 0.4556 0.5107 0.5655 0.6044
1212.000000 0.6490 0.6555 0.6577 0.6593 0.6611
1217.000000 0.6605 0.6606 0.6601 0.6595 0.6587
1222.000000 0.6576 0.6566 0.6554 0.6539 0.6522
1227.000000 0.6492 0.6436 0.6378 0.6344 0.6331
1232.000000 0.6329 0.6327 0.6327 0.6327 0.6327
1237.000000 0.6329 0.6331 0.6334 0.6335 0.6336
1242.000000 0.6336 0.6336 0.6337 0.6337 0.6338
1247.000000 0.6339 0.6339 0.6339 0.6339 0.6339
1252.000000 0.6338 0.6338 0.6338 0.6336 0.6333
1257.000000 0.6331 0.6328 0.6311 0.6281 0.6250
1262.000000 0.6217 0.6184 0.6143 0.6071 0.5964
1267.000000 0.5913 0.5883 0.5865 0.5859 0.5857
1272.000000 0.5856 0.5846 0.5818 0.5780 0.5747
1277.000000 0.5736 0.5736 0.5737 0.5737 0.5737
1282.000000 0.5737 0.5736 0.5736 0.5732 0.5725
1287.000000 0.5670 0.5528 0.5380 0.5233 0.5085
1292.000000 0.4938 0.4791 0.4644 0.4498 0.4351
1297.000000 0.4205 0.4058 0.3910 0.3779 0.3700
1302.000000 0.3616 0.3586 0.3573 0.3573 0.3626
1307.000000 0.3561 0.4135 0.4403 0.4577 0.4589
1312.000000 0.4588 0.4592 0.4480 0.4384 0.4098
1317.000000 0.3655 0.3213 0.2824 0.2741 0.2788
1322.000000 0.2744 0.3616 0.4090 0.4562 0.5035
1327.000000 0.5506 0.5933 0.6106 0.6141 0.6154
1332.000000 0.6160 0.6160 0.6161 0.6160 0.6160
1337.000000 0.6159 0.6162 0.6158 0.6157 0.6151
1342.000000 0.6143 0.6127 0.6102 0.6081 0.6065
1347.000000 0.6053 0.6044 0.6039 0.6035 0.6026
1352.000000 0.6006 0.5982 0.5957 0.5931 0.5901
1357.000000 0.5864 0.5826 0.5789 0.5756 0.5746
1362.000000 0.5741 0.5734 0.5729 0.5724 0.5716
1367.000000 0.5707 0.5685 0.5660 0.5623 0.5578
1372.000000 0.5519 0.5407 0.5338 0.5268 0.5198
1377.000000 0.5129 0.5059 0.4985 0.4978 0.4972
1382.000000 0.4966 0.4962 0.4957 0.4942 0.4918
1387.000000 0.4890 0.4858 0.4823 0.4781 0.4727
1392.000000 0.4690 0.4659 0.4628 0.4595 0.4555
1397.000000 0.4517 0.4469 0.4404 0.4352 0.4321
1402.000000 0.4291 0.4260 0.4225 0.4190 0.4154
1407.000000 0.4113 0.4076 0.4049 0.4010 0.3869
1412.000000 0.3763 0.3668 0.3591 0.3526 0.3449
1417.000000 0.3323 0.3183 0.3102 0.3057 0.3028
1422.000000 0.3007 0.3001 0.2994 0.2985 0.2972
1427.000000 0.2943 0.2821 0.2700 0.2502 0.2323
1432.000000 0.1975 0.1706 0.1437 0.1168 0.0911
1437.000000 0.0899 0.0948 0.1169 0.0893 0.1759
1442.000000 0.2054 0.2367 0.2557 0.2589 0.2595
1447.000000 0.2597 0.2603 0.2572 0.2506 0.2432
1452.000000 0.2359 0.2286 0.2213 0.2152 0.2123
1457.000000 0.2114 0.2106 0.2098 0.2073 0.1983
1462.000000 0.1872 0.1761 0.1664 0.1617 0.1592
1467.000000 0.1560 0.1451 0.1374 0.1302 0.1135
1472.000000 0.0935 0.0833 0.0761 0.0677 0.0588
1477.000000 0.0519 0.0449 0.0342 0.0239 0.0185
1482.000000 0.0152 0.0132 0.0120 0.0116 0.0115
1487.000000 0.0114 0.0122 0.0131 0.0140 0.0152
1492.000000 0.0168 0.0186 0.0197 0.0205 0.0209
1497.000000 0.0212 0.0215 0.0218 0.0223 0.0226
1502.000000 0.0230 0.0238 0.0250 0.0283 0.0303
1507.000000 0.0315 0.0319 0.0325 0.0330 0.0345
1512.000000 0.0433 0.0622 0.0858 0.1103 0.1346
1517.000000 0.1590 0.1833 0.2076 0.2317 0.2546
1522.000000 0.2704 0.2809 0.3028 0.3171 0.3195
1527.000000 0.3210 0.3215 0.3236 0.3215 0.3187
1532.000000 0.3156 0.3111 0.3036 0.2988 0.2917
1537.000000 0.2797 0.2651 0.2507 0.2362 0.2218
1542.000000 0.2073 0.1929 0.1872 0.1850 0.1750
1547.000000 0.1585 0.1262 0.0939 0.0725 0.0661
1552.000000 0.0607 0.0575 0.0543 0.0511 0.0476
1557.000000 0.0436 0.0406 0.0392 0.0381 0.0377
1562.000000 0.0375 0.0375 0.0377 0.0371 0.0388
1567.000000 0.0398 0.0414 0.0444 0.0494 0.0556
1572.000000 0.0620 0.0684 0.1072 0.1514 0.1913
1577.000000 0.2311 0.2710 0.3107 0.3504 0.3698
1582.000000 0.3792 0.3872 0.3911 0.3925 0.3928
1587.000000 0.3930 0.3933 0.3925 0.3920 0.3913
1592.000000 0.3897 0.3877 0.3844 0.3798 0.3750
1597.000000 0.3694 0.3634 0.3578 0.3508 0.3445
1602.000000 0.3228 0.2878 0.2619 0.2361 0.2104
1607.000000 0.1846 0.1590 0.1333 0.1077 0.0856
1612.000000 0.0807 0.0806 0.0812 0.1100 0.1846
1617.000000 0.2591 0.2927 0.3135 0.3330 0.3525
1622.000000 0.3719 0.3913 0.4106 0.4299 0.4484
1627.000000 0.4620 0.4728 0.4833 0.4869 0.4917
1632.000000 0.5000 0.5022 0.5026 0.5029 0.5033
1637.000000 0.5035 0.5037 0.5039 0.5041 0.5049
1642.000000 0.5061 0.5079 0.5117 0.5187 0.5282
1647.000000 0.5411 0.5453 0.5464 0.5466 0.5468
1652.000000 0.5471 0.5474 0.5483 0.5500 0.5529
1657.000000 0.5584 0.5673 0.5714 0.5752 0.5809
1662.000000 0.5828 0.5840 0.5850 0.5856 0.5861
1667.000000 0.5866 0.5870 0.5873 0.5874 0.5876
1672.000000 0.5878 0.5879 0.5880 0.5881 0.5881
1677.000000 0.5882 0.5882 0.5883 0.5883 0.5883
1682.000000 0.5884 0.5884 0.5884 0.5884 0.5884
1687.000000 0.5884 0.5884 0.5885 0.5886 0.5886
1692.000000 0.5887 0.5887 0.5888 0.5867 0.5889
1697.000000 0.5889 0.5890 0.5891 0.5891 0.5891
1702.000000 0.5892 0.5892 0.5892 0.5893 0.5893
1707.000000 0.5894 0.5895 0.5895 0.5896 0.5896
1712.000000 0.5897 0.5897 0.5898 0.5899 0.5899
1717.000000 0.5899 0.5899 0.5899 0.5899 0.5900
1722.000000 0.5897 0.5888 0.5874 0.5850 0.5829
1727.000000 0.5809 0.5788 0.5767 0.5757 0.5749
1732.000000 0.5741 0.5734 0.5729 0.5726 0.5723
1737.000000 0.5718 0.5713 0.5702 0.5687 0.5671
1742.000000 0.5648 0.5619 0.5590 0.5562 0.5538
1747.000000 0.5525 0.5514 0.5508 0.5504 0.5502
1752.000000 0.5500 0.5498 0.5496 0.5494 0.5492
1757.000000 0.5489 0.5479 0.5467 0.5449 0.5428
1762.000000 0.5407 0.5386 0.5363 0.5335 0.5301
1767.000000 0.5266 0.5241 0.5219 0.5197 0.5171
1772.000000 0.5139 0.5107 0.5075 0.5043 0.5011
1777.000000 0.4979 0.4947 0.4915 0.4883 0.4851
1782.000000 0.4822 0.4795 0.4775 0.4758 0.4741
1787.000000 0.4724 0.4713 0.4701 0.4690 0.4682
1792.000000 0.4678 0.4674 0.4670 0.4666 0.4662
1797.000000 0.4659 0.4656 0.4654 0.4652 0.4651
1802.000000 0.4649 0.4648 0.4646 0.4645 0.4643
1807.000000 0.4642 0.4642 0.4641 0.4641 0.4640
1812.000000 0.4636 0.4627 0.4604 0.4576 0.4552
1817.000000 0.4535 0.4519 0.4503 0.4486 0.4470
1822.000000 0.4455 0.4440 0.4425 0.4410 0.4395
1827.000000 0.4380 0.4365 0.4349 0.4332 0.4315
1832.000000 0.4298 0.4281 0.4264 0.4243 0.4221
1837.000000 0.4199 0.4177 0.4155 0.4133 0.4112
1842.000000 0.4092 0.4071 0.4051 0.4035 0.4020
1847.000000 0.4005 0.3990 0.3975 0.3961 0.3942
1852.000000 0.3918 0.3891 0.3864 0.3835 0.3804
1857.000000 0.3769 0.3734 0.3700 0.3667 0.3639
1862.000000 0.3611 0.3583 0.3554 0.3511 0.3464
1867.000000 0.3417 0.3361 0.3303 0.3248 0.3227
1872.000000 0.3206 0.3184 0.3163 0.3142 0.3121
1877.000000 0.3099 0.3071 0.3044 0.3016 0.2989
1882.000000 0.2947 0.2903 0.2859 0.2812 0.2763
1887.000000 0.2709 0.2635 0.2562 0.2498 0.2448
1892.000000 0.2401 0.2356 0.2313 0.2258 0.2209
1897.000000 0.2170 0.2157 0.2148 0.2143 0.2140
1902.000000 0.2141 0.2143 0.2147 0.2140 0.2177
1907.000000 0.2200 0.2261 0.2322 0.2382 0.2443
1912.000000 0.2497 0.2538 0.2547 0.2552 0.2555
1917.000000 0.2559 0.2562 0.2565 0.2568 0.2571
1922.000000 0.2577 0.2587 0.2599 0.2617 0.2640
1927.000000 0.2676 0.2705 0.2726 0.2768 0.2799
1932.000000 0.2819 0.2835 0.2850 0.2864 0.2875
1937.000000 0.2886 0.2898 0.2906 0.2915 0.2923
1942.000000 0.2931 0.2938 0.2945 0.2952 0.2959
1947.000000 0.2965 0.2972 0.2979 0.2985 0.2987
1952.000000 0.2989 0.2991 0.2994 0.2996 0.2998
1957.000000 0.3001 0.3006 0.3014 0.3023 0.3032
1962.000000 0.3038 0.3043 0.3047 0.3052 0.3055
1967.000000 0.3058 0.3060 0.3061 0.3063 0.3065
1972.000000 0.3067 0.3067 0.3068 0.3069 0.3070
1977.000000 0.3072 0.3074 0.3080 0.3090 0.3102
1982.000000 0.3122 0.3143 0.3167 0.3192 0.3216
1987.000000 0.3240 0.3264 0.3288 0.3313 0.3337
1992.000000 0.3361 0.3385 0.3409 0.3432 0.3456
1997.000000 0.3480 0.3504 0.3528 0.3553 0.3576
2002.000000 0.3600 0.3624 0.3647 0.3671 0.3695
2007.000000 0.3718 0.3742 0.3795 0.3840 0.3869
2012.000000 0.3888 0.3903 0.3913 0.3920 0.3922
2017.000000 0.3924 0.3926 0.3929 0.3931 0.3932
2022.000000 0.3933 0.3933 0.3933 0.3934 0.3933
2027.000000 0.3933 0.3932 0.3932 0.3931 0.3930
2032.000000 0.3930 0.3930 0.3930 0.3929 0.3929
2037.000000 0.3929 0.3929 0.3929 0.3930 0.3932
2042.000000 0.3938 0.3946 0.3954 0.3963 0.3971
2047.000000 0.3979 0.3989 0.4002 0.4017 0.4032
2052.000000 0.4047 0.4065 0.4085 0.4105 0.4123
2057.000000 0.4136 0.4148 0.4160 0.4171 0.4181
2062.000000 0.4186 0.4208 0.4195 0.4198 0.4199
2067.000000 0.4200 0.4201 0.4201 0.4201 0.4199
2072.000000 0.4196 0.4193 0.4191 0.4188 0.4183
2077.000000 0.4177 0.4171 0.4164 0.4155 0.4143
2082.000000 0.4131 0.4116 0.4100 0.4083 0.4068
2087.000000 0.4053 0.4039 0.4025 0.4011 0.3997
2092.000000 0.3982 0.3968 0.3954 0.3939 0.3925
2097.000000 0.3911 0.3894 0.3875 0.3850 0.3826
2102.000000 0.3807 0.3787 0.3769 0.3752 0.3735
2107.000000 0.3721 0.3709 0.3700 0.3693 0.3693
2112.000000 0.3692 0.3692 0.3692 0.3693 0.3683
2117.000000 0.3696 0.3699 0.3707 0.3722 0.3739
2122.000000 0.3757 0.3770 0.3782 0.3787 0.3792
2127.000000 0.3793 0.3794 0.3794 0.3794 0.3792
2132.000000 0.3800 0.3785 0.3774 0.3762 0.3752
2137.000000 0.3742 0.3733 0.3722 0.3710 0.3697
2142.000000 0.3685 0.3675 0.3664 0.3655 0.3644
2147.000000 0.3631 0.3618 0.3604 0.3590 0.3575
2152.000000 0.3561 0.3547 0.3533 0.3519 0.3504
2157.000000 0.3490 0.3476 0.3462 0.3448 0.3433
2162.000000 0.3419 0.3405 0.3391 0.3377 0.3363
2167.000000 0.3349 0.3335 0.3321 0.3307 0.3293
2172.000000 0.3279 0.3265 0.3251 0.3238 0.3224
2177.000000 0.3209 0.3195 0.3182 0.3168 0.3154
2182.000000 0.3140 0.3126 0.3112 0.3099 0.3085
2187.000000 0.3071 0.3057 0.3043 0.3030 0.3016
2192.000000 0.3002 0.2988 0.2975 0.2961 0.2944
2197.000000 0.2926 0.2908 0.2891 0.2879 0.2867
2202.000000 0.2856 0.2846 0.2835 0.2824 0.2813
2207.000000 0.2802 0.2791 0.2779 0.2768 0.2749
2212.000000 0.2726 0.2703 0.2681 0.2665 0.2651
2217.000000 0.2640 0.2629 0.2623 0.2619 0.2619
2222.000000 0.2620 0.2593 0.2632 0.2640 0.2649
2227.000000 0.2659 0.2669 0.2688 0.2709 0.2723
2232.000000 0.2735 0.2745 0.2755 0.2765 0.2775
2237.000000 0.2782 0.2789 0.2795 0.2801 0.2807
2242.000000 0.2813 0.2816 0.2819 0.2822 0.2826
2247.000000 0.2827 0.2828 0.2829 0.2829 0.2829
2252.000000 0.2829 0.2828 0.2827 0.2823 0.2824
2257.000000 0.2822 0.2821 0.2819 0.2816 0.2813
2262.000000 0.2809 0.2805 0.2799 0.2794 0.2788
2267.000000 0.2782 0.2777 0.2771 0.2766 0.2761
2272.000000 0.2755 0.2749 0.2741 0.2733 0.2724
2277.000000 0.2715 0.2707 0.2699 0.2690 0.2682
2282.000000 0.2664 0.2646 0.2627 0.2607 0.2590
2287.000000 0.2574 0.2559 0.2545 0.2531 0.2516
2292.000000 0.2502 0.2488 0.2475 0.2462 0.2448
2297.000000 0.2435 0.2422 0.2409 0.2395 0.2373
2302.000000 0.2352 0.2328 0.2304 0.2285 0.2267
2307.000000 0.2253 0.2242 0.2230 0.2219 0.2207
2312.000000 0.2195 0.2184 0.2173 0.2161 0.2150
2317.000000 0.2138 0.2125 0.2113 0.2100 0.2088
2322.000000 0.2075 0.2063 0.2050 0.2037 0.2023
2327.000000 0.2009 0.1994 0.1979 0.1964 0.1950
2332.000000 0.1936 0.1914 0.1892 0.1869 0.1844
2337.000000 0.1820 0.1796 0.1776 0.1764 0.1753
2342.000000 0.1743 0.1734 0.1724 0.1714 0.1704
2347.000000 0.1694 0.1684 0.1674 0.1665 0.1655
2352.000000 0.1645 0.1635 0.1625 0.1615 0.1605
2357.000000 0.1596 0.1586 0.1576 0.1567 0.1557
2362.000000 0.1547 0.1537 0.1528 0.1518 0.1508
2367.000000 0.1499 0.1489 0.1479 0.1470 0.1461
2372.000000 0.1453 0.1448 0.1442 0.1437 0.1433
2377.000000 0.1428 0.1423 0.1418 0.1413 0.1408
2382.000000 0.1403 0.1399 0.1394 0.1390 0.1386
2387.000000 0.1382 0.1378 0.1373 0.1369 0.1357
2392.000000 0.1346 0.1331 0.1315 0.1299 0.1282
2397.000000 0.1263 0.1226 0.1190 0.1153 0.1116
2402.000000 0.1092 0.1083 0.1075 0.1069 0.1063
2407.000000 0.1058 0.1052 0.1047 0.1044 0.1040
2412.000000 0.1037 0.1034 0.1022 0.1008 0.0991
2417.000000 0.0971 0.0953 0.0940 0.0926 0.0920
2422.000000 0.0914 0.0909 0.0905 0.0901 0.0897
2427.000000 0.0893 0.0889 0.0885 0.0880 0.0874
2432.000000 0.0869 0.0861 0.0854 0.0846 0.0838
2437.000000 0.0830 0.0822 0.0813 0.0797 0.0781
2442.000000 0.0766 0.0750 0.0736 0.0722 0.0708
2447.000000 0.0695 0.0681 0.0666 0.0647 0.0628
2452.000000 0.0605 0.0582 0.0562 0.0544 0.0526
2457.000000 0.0509 0.0491 0.0479 0.0468 0.0458
2462.000000 0.0450 0.0442 0.0434 0.0426 0.0419
2467.000000 0.0413 0.0406 0.0404 0.0402 0.0400
2472.000000 0.0399 0.0397 0.0395 0.0393 0.0391
2477.000000 0.0389 0.0387 0.0385 0.0384 0.0379
2482.000000 0.0375 0.0369 0.0363 0.0357 0.0351
2487.000000 0.0344 0.0337 0.0330 0.0323 0.0308
2492.000000 0.0292 0.0276 0.0258 0.0241 0.0211
2497.000000 0.0181 0.0156 0.0134 0.0112 0.0088
2502.000000 0.0064 0.0046 0.0033 0.0021 0.0012
2507.000000 0.0004 0.0000 0.0000 0.0000 0.0000
2512.000000 0.0000 0.0000 0.0000 0.0000 0.0000
2517.000000 0.0000 0.0000 0.0000 0.0000 0.0000
2522.000000 0.0000 0.0000 0.0000 0.0000 0.0000
2527.000000 0.0000 0.0000 0.0000 0.0000 0.0000
2532.000000 0.0000 0.0000 0.0000 0.0000 0.0000
2537.000000 0.0000 0.0000 0.0000 0.0000 0.0000
2542.000000 0.0000 0.0000 0.0000 0.0000 0.0000
2547.000000 0.0000 0.0000 0.0000 0.0000 0.0000
2552.000000 0.0000 0.0000 0.0000 0.0000 0.0000
2557.000000 0.0000 0.0000 0.0000 0.0000 0.0000
2562.000000 0.0000 0.0000 0.0000 0.0000 0.0000
2567.000000 0.0000 0.0001 0.0003 0.0005 0.0007
2572.000000 0.0009 0.0012 0.0014 0.0016 0.0018
2577.000000 0.0020 0.0022 0.0025 0.0028 0.0029
2582.000000 0.0031 0.0032 0.0034 0.0035 0.0036
2587.000000 0.0037 0.0039 0.0040 0.0041 0.0042
2592.000000 0.0043 0.0044 0.0045 0.0046 0.0047
2597.000000 0.0047 0.0046 0.0046 0.0046 0.0046
2602.000000 0.0045 0.0044 0.0043 0.0039 0.0035
2607.000000 0.0031 0.0023 0.0016 0.0010 0.0005
2612.000000 0.0001 0.0000 0.0000 0.0000 0.0000
2617.000000 0.0000 0.0000 0.0000 0.0000 0.0000
2622.000000 0.0000 0.0000 0.0000 0.0000 0.0000
2627.000000 0.0000 0.0000 0.0000 0.0000 0.0000
2632.000000 0.0000 0.0000 0.0000 0.0000 0.0000
2637.000000 0.0000 0.0000 0.0000 0.0000 0.0000
2642.000000 0.0000 0.0000 0.0000 0.0000 0.0000
2647.000000 0.0000 0.0000 0.0000 0.0000 0.0000
2652.000000 0.0000 0.0000 0.0000 0.0000 0.0000
2657.000000 0.0000 0.0000 0.0000 0.0000 0.0000
2662.000000 0.0000 0.0000 0.0000 0.0000 0.0000
2667.000000 0.0000 0.0000 0.0000 0.0000 0.0000
2672.000000 0.0000 0.0000 0.0000 0.0000 0.0000
2677.000000 0.0000 0.0000 0.0000 0.0000 0.0000
2682.000000 0.0000 0.0000 0.0000 0.0000 0.0000
2687.000000 0.0000 0.0000 0.0000 0.0000 0.0000
2692.000000 0.0000 0.0000 0.0000 0.0000 0.0000
2697.000000 0.0000 0.0000 0.0000 0.0000 0.0000
2702.000000 0.0000 0.0000 0.0000 0.0000 0.0000
2707.000000 0.0000 0.0000 0.0000 0.0000 0.0000
2712.000000 0.0000 0.0000 0.0000 0.0000 0.0000
2717.000000 0.0000 0.0000 0.0000 0.0000 0.0000
2722.000000 0.0000 0.0000 0.0000 0.0000 0.0000
2727.000000 0.0000 0.0000 0.0000 0.0000 0.0000
2732.000000 0.0000 0.0000 0.0000 0.0000 0.0000
2737.000000 0.0000 0.0000 0.0000 0.0000 0.0000
2742.000000 0.0000 0.0000 0.0000 0.0000 0.0000
2747.000000 0.0000 0.0000 0.0000 0.0000 0.0000
2752.000000 0.0000 0.0000 0.0001 0.0002 0.0004
2757.000000 0.0007 0.0010 0.0013 0.0016 0.0019
2762.000000 0.0022 0.0025 0.0027 0.0029 0.0030
2767.000000 0.0031 0.0032 0.0033 0.0033 0.0034
2772.000000 0.0035 0.0035 0.0035 0.0036 0.0036
2777.000000 0.0036 0.0036 0.0036 0.0036 0.0036
2782.000000 0.0036 0.0036 0.0037 0.0037 0.0037
2787.000000 0.0037 0.0037 0.0037 0.0037 0.0036
2792.000000 0.0036 0.0036 0.0036 0.0036 0.0036
2797.000000 0.0036 0.0036 0.0036 0.0035 0.0035
2802.000000 0.0035 0.0035 0.0035 0.0035 0.0035
2807.000000 0.0035 0.0035 0.0035 0.0035 0.0035
2812.000000 0.0035 0.0038 0.0041 0.0044 0.0047
2817.000000 0.0051 0.0055 0.0060 0.0067 0.0074
2822.000000 0.0080 0.0084 0.0089 0.0093 0.0094
2827.000000 0.0095 0.0096 0.0098 0.0099 0.0100
2832.000000 0.0101 0.0102 0.0102 0.0103 0.0103
2837.000000 0.0103 0.0104 0.0104 0.0104 0.0105
2842.000000 0.0105 0.0106 0.0106 0.0107 0.0107
2847.000000 0.0107 0.0108 0.0108 0.0108 0.0109
2852.000000 0.0109 0.0109 0.0110 0.0110 0.0110
2857.000000 0.0110 0.0111 0.0111 0.0111 0.0111
2862.000000 0.0111 0.0111 0.0111 0.0111 0.0111
2867.000000 0.0112 0.0112 0.0112 0.0112 0.0112
2872.000000 0.0112 0.0112 0.0113 0.0113 0.0113
2877.000000 0.0113 0.0113 0.0113 0.0113 0.0113
2882.000000 0.0113 0.0113 0.0114 0.0114 0.0114
2887.000000 0.0114 0.0114 0.0114 0.0114 0.0114
2892.000000 0.0114 0.0114 0.0114 0.0114 0.0114
2897.000000 0.0114 0.0114 0.0114 0.0114 0.0114
2902.000000 0.0114 0.0114 0.0114 0.0114 0.0114
2907.000000 0.0114 0.0114 0.0114 0.0114 0.0114
2912.000000 0.0114 0.0114 0.0114 0.0114 0.0114
2917.000000 0.0114 0.0114 0.0114 0.0114 0.0114
2922.000000 0.0114 0.0114 0.0114 0.0114 0.0114
2927.000000 0.0114 0.0114 0.0114 0.0114 0.0113
2932.000000 0.0113 0.0113 0.0113 0.0113 0.0113
2937.000000 0.0113 0.0114 0.0114 0.0114 0.0114
2942.000000 0.0114 0.0114 0.0114 0.0114 0.0114
2947.000000 0.0114 0.0114 0.0114 0.0114 0.0114
2952.000000 0.0114 0.0114 0.0114 0.0114 0.0114
2957.000000 0.0114 0.0114 0.0114 0.0114 0.0114
2962.000000 0.0114 0.0115 0.0115 0.0115 0.0116
2967.000000 0.0116 0.0116 0.0116 0.0117 0.0117
2972.000000 0.0117 0.0118 0.0118 0.0118 0.0118
2977.000000 0.0119 0.0119 0.0119 0.0120 0.0120
2982.000000 0.0120 0.0120 0.0121 0.0121 0.0121
2987.000000 0.0122 0.0122 0.0122 0.0122 0.0123
2992.000000 0.0123 0.0123 0.0123 0.0124 0.0124
2997.000000 0.0124 0.0125 0.0125 0.0126 0.0126
3002.000000 0.0127 0.0128 0.0129 0.0130 0.0130
3007.000000 0.0131 0.0132 0.0133 0.0133 0.0134
3012.000000 0.0134 0.0135 0.0136 0.0137 0.0138
3017.000000 0.0139 0.0140 0.0141 0.0143 0.0145
3022.000000 0.0147 0.0149 0.0150 0.0152 0.0153
3027.000000 0.0155 0.0157 0.0159 0.0161 0.0164
3032.000000 0.0167 0.0170 0.0173 0.0175 0.0178
3037.000000 0.0181 0.0183 0.0186 0.0189 0.0192
3042.000000 0.0196 0.0200 0.0203 0.0207 0.0211
3047.000000 0.0215 0.0219 0.0222 0.0226 0.0230
3052.000000 0.0234 0.0237 0.0241 0.0245 0.0249
3057.000000 0.0252 0.0256 0.0260 0.0264 0.0267
3062.000000 0.0271 0.0274 0.0277 0.0281 0.0284
3067.000000 0.0287 0.0289 0.0290 0.0291 0.0291
3072.000000 0.0292 0.0293 0.0294 0.0294 0.0295
3077.000000 0.0296 0.0297 0.0298 0.0298 0.0299
3082.000000 0.0300 0.0301 0.0301 0.0302 0.0302
3087.000000 0.0303 0.0304 0.0305 0.0305 0.0306
3092.000000 0.0306 0.0307 0.0307 0.0318 0.0330
3097.000000 0.0341 0.0353 0.0368 0.0384 0.0399
3102.000000 0.0419 0.0453 0.0486 0.0520 0.0549
3107.000000 0.0573 0.0596 0.0620 0.0643 0.0666
3112.000000 0.0690 0.0713 0.0731 0.0748 0.0764
3117.000000 0.0780 0.0794 0.0808 0.0822 0.0835
3122.000000 0.0847 0.0858 0.0870 0.0882 0.0893
3127.000000 0.0904 0.0915 0.0927 0.0943 0.0960
3132.000000 0.0976 0.0994 0.1020 0.1047 0.1073
3137.000000 0.1101 0.1134 0.1167 0.1200 0.1233
3142.000000 0.1266 0.1300 0.1333 0.1366 0.1399
3147.000000 0.1432 0.1465 0.1498 0.1531 0.1564
3152.000000 0.1596 0.1629 0.1662 0.1695 0.1728
3157.000000 0.1761 0.1794 0.1826 0.1859 0.1892
3162.000000 0.1925 0.1958 0.1990 0.2023 0.2055
3167.000000 0.2088 0.2120 0.2153 0.2185 0.2218
3172.000000 0.2250 0.2283 0.2315 0.2348 0.2380
3177.000000 0.2413 0.2445 0.2478 0.2510 0.2542
3182.000000 0.2574 0.2607 0.2639 0.2671 0.2703
3187.000000 0.2735 0.2767 0.2800 0.2832 0.2864
3192.000000 0.2896 0.2928 0.2960 0.2993 0.3025
3197.000000 0.3057 0.3088 0.3120 0.3152 0.3184
3202.000000 0.3216 0.3248 0.3279 0.3311 0.3389
3207.000000 0.3473 0.3557 0.3641 0.3672 0.3685
3212.000000 0.3698 0.3712 0.3729 0.3748 0.3767
3217.000000 0.3787 0.3815 0.3851 0.3887 0.3924
3222.000000 0.3952 0.3967 0.3981 0.3995 0.4009
3227.000000 0.4022 0.4034 0.4047 0.4060 0.4066
3232.000000 0.4072 0.4078 0.4085 0.4091 0.4097
3237.000000 0.4102 0.4108 0.4114 0.4120 0.4126
3242.000000 0.4132 0.4137 0.4141 0.4145 0.4149
3247.000000 0.4152 0.4154 0.4156 0.4158 0.4161
3252.000000 0.4163 0.4165 0.4167 0.4169 0.4171
3257.000000 0.4172 0.4174 0.4176 0.4177 0.4177
3262.000000 0.4178 0.4178 0.4178 0.4177 0.4176
3267.000000 0.4175 0.4191 0.4173 0.4171 0.4170
3272.000000 0.4168 0.4166 0.4163 0.4160 0.4158
3277.000000 0.4155 0.4151 0.4147 0.4144 0.4140
3282.000000 0.4136 0.4131 0.4127 0.4123 0.4117
3287.000000 0.4110 0.4103 0.4096 0.4089 0.4082
3292.000000 0.4076 0.4069 0.4062 0.4056 0.4049
3297.000000 0.4043 0.4036 0.4030 0.4023 0.4017
3302.000000 0.4010 0.4003 0.3996 0.3989 0.3983
3307.000000 0.3975 0.3965 0.3954 0.3944 0.3933
3312.000000 0.3923 0.3912 0.3902 0.3891 0.3881
3317.000000 0.3871 0.3860 0.3850 0.3840 0.3831
3322.000000 0.3823 0.3814 0.3806 0.3797 0.3789
3327.000000 0.3780 0.3772 0.3764 0.3755 0.3747
3332.000000 0.3739 0.3730 0.3721 0.3712 0.3702
3337.000000 0.3693 0.3683 0.3670 0.3657 0.3644
3342.000000 0.3632 0.3619 0.3606 0.3593 0.3580
3347.000000 0.3553 0.3492 0.3431 0.3369 0.3308
3352.000000 0.3280 0.3261 0.3242 0.3223 0.3206
3357.000000 0.3192 0.3178 0.3165 0.3151 0.3139
3362.000000 0.3128 0.3116 0.3105 0.3094 0.3086
3367.000000 0.3077 0.3068 0.3060 0.3051 0.3043
3372.000000 0.3034 0.3026 0.3017 0.3008 0.2999
3377.000000 0.2991 0.2982 0.2973 0.2963 0.2953
3382.000000 0.2944 0.2934 0.2925 0.2916 0.2907
3387.000000 0.2898 0.2891 0.2886 0.2881 0.2875
3392.000000 0.2870 0.2865 0.2860 0.2855 0.2849
3397.000000 0.2844 0.2839 0.2835 0.2830 0.2825
3402.000000 0.2822 0.2819 0.2816 0.2813 0.2809
3407.000000 0.2806 0.2803 0.2800 0.2797 0.2795
3412.000000 0.2795 0.2794 0.2793 0.2793 0.2792
3417.000000 0.2792 0.2791 0.2791 0.2790 0.2790
3422.000000 0.2790 0.2789 0.2789 0.2789 0.2789
3427.000000 0.2789 0.2789 0.2789 0.2789 0.2789
3432.000000 0.2789 0.2789 0.2789 0.2789 0.2789
3437.000000 0.2789 0.2789 0.2789 0.2790 0.2791
3442.000000 0.2793 0.2794 0.2795 0.2796 0.2798
3447.000000 0.2799 0.2800 0.2804 0.2808 0.2812
3452.000000 0.2816 0.2820 0.2827 0.2833 0.2840
3457.000000 0.2846 0.2853 0.2863 0.2872 0.2882
3462.000000 0.2892 0.2902 0.2913 0.2924 0.2936
3467.000000 0.2947 0.2958 0.2968 0.2978 0.2989
3472.000000 0.2999 0.3010 0.3020 0.3030 0.3041
3477.000000 0.3051 0.3061 0.3070 0.3080 0.3090
3482.000000 0.3100 0.3109 0.3119 0.3129 0.3138
3487.000000 0.3148 0.3156 0.3164 0.3173 0.3181
3492.000000 0.3190 0.3198 0.3206 0.3214 0.3222
3497.000000 0.3230 0.3238 0.3246 0.3254 0.3262
3502.000000 0.3270 0.3278 0.3286 0.3294 0.3302
3507.000000 0.3310 0.3318 0.3326 0.3334 0.3342
3512.000000 0.3351 0.3360 0.3369 0.3379 0.3388
3517.000000 0.3397 0.3407 0.3416 0.3426 0.3435
3522.000000 0.3445 0.3454 0.3464 0.3473 0.3483
3527.000000 0.3502 0.3523 0.3543 0.3564 0.3584
3532.000000 0.3599 0.3614 0.3629 0.3644 0.3658
3537.000000 0.3669 0.3678 0.3688 0.3698 0.3708
3542.000000 0.3718 0.3727 0.3737 0.3747 0.3757
3547.000000 0.3768 0.3781 0.3793 0.3805 0.3817
3552.000000 0.3831 0.3845 0.3859 0.3873 0.3887
3557.000000 0.3900 0.3913 0.3927 0.3940 0.3953
3562.000000 0.3965 0.3977 0.3989 0.4001 0.4013
3567.000000 0.4024 0.4036 0.4047 0.4059 0.4071
3572.000000 0.4083 0.4096 0.4109 0.4122 0.4135
3577.000000 0.4150 0.4165 0.4180 0.4196 0.4211
3582.000000 0.4230 0.4254 0.4278 0.4303 0.4327
3587.000000 0.4358 0.4419 0.4479 0.4539 0.4599
3592.000000 0.4657 0.4674 0.4691 0.4708 0.4725
3597.000000 0.4742 0.4752 0.4761 0.4769 0.4778
3602.000000 0.4787 0.4796 0.4804 0.4813 0.4821
3607.000000 0.4830 0.4839 0.4847 0.4856 0.4865
3612.000000 0.4873 0.4883 0.4893 0.4904 0.4915
3617.000000 0.4925 0.4936 0.4947 0.4959 0.4970
3622.000000 0.4981 0.4992 0.5004 0.5016 0.5027
3627.000000 0.5039 0.5050 0.5064 0.5078 0.5093
3632.000000 0.5108 0.5123 0.5138 0.5156 0.5174
3637.000000 0.5191 0.5209 0.5226 0.5240 0.5254
3642.000000 0.5267 0.5281 0.5294 0.5300 0.5302
3647.000000 0.5304 0.5305 0.5307 0.5309 0.5311
3652.000000 0.5312 0.5314 0.5316 0.5318 0.5319
3657.000000 0.5321 0.5322 0.5324 0.5325 0.5326
3662.000000 0.5327 0.5328 0.5329 0.5330 0.5331
3667.000000 0.5331 0.5332 0.5332 0.5333 0.5333
3672.000000 0.5334 0.5334 0.5334 0.5334 0.5334
3677.000000 0.5334 0.5334 0.5334 0.5334 0.5334
3682.000000 0.5334 0.5334 0.5334 0.5334 0.5334
3687.000000 0.5334 0.5328 0.5333 0.5333 0.5332
3692.000000 0.5332 0.5331 0.5330 0.5329 0.5329
3697.000000 0.5328 0.5327 0.5326 0.5324 0.5323
3702.000000 0.5322 0.5320 0.5319 0.5317 0.5314
3707.000000 0.5312 0.5310 0.5308 0.5300 0.5291
3712.000000 0.5283 0.5274 0.5265 0.5256 0.5249
3717.000000 0.5242 0.5235 0.5227 0.5220 0.5215
3722.000000 0.5209 0.5204 0.5199 0.5194 0.5189
3727.000000 0.5185 0.5182 0.5178 0.5174 0.5171
3732.000000 0.5167 0.5164 0.5160 0.5157 0.5154
3737.000000 0.5150 0.5147 0.5144 0.5141 0.5137
3742.000000 0.5134 0.5132 0.5130 0.5128 0.5126
3747.000000 0.5124 0.5122 0.5120 0.5119 0.5118
3752.000000 0.5117 0.5115 0.5115 0.5115 0.5115
3757.000000 0.5115 0.5115 0.5115 0.5114 0.5114
3762.000000 0.5114 0.5114 0.5114 0.5114 0.5114
3767.000000 0.5114 0.5114 0.5114 0.5114 0.5114
3772.000000 0.5114 0.5114 0.5114 0.5114 0.5114
3777.000000 0.5114 0.5114 0.5114 0.5114 0.5114
3782.000000 0.5114 0.5111 0.5109 0.5106 0.5103
3787.000000 0.5101 0.5098 0.5095 0.5092 0.5089
3792.000000 0.5086 0.5083 0.5080 0.5075 0.5070
3797.000000 0.5065 0.5060 0.5055 0.5048 0.5039
3802.000000 0.5030 0.5020 0.5011 0.5002 0.4993
3807.000000 0.4984 0.4975 0.4966 0.4956 0.4947
3812.000000 0.4942 0.4936 0.4930 0.4925 0.4919
3817.000000 0.4914 0.4909 0.4904 0.4900 0.4895
3822.000000 0.4890 0.4886 0.4882 0.4879 0.4875
3827.000000 0.4871 0.4867 0.4864 0.4862 0.4860
3832.000000 0.4857 0.4855 0.4852 0.4850 0.4848
3837.000000 0.4847 0.4845 0.4843 0.4841 0.4838
3842.000000 0.4835 0.4833 0.4830 0.4827 0.4824
3847.000000 0.4818 0.4812 0.4806 0.4800 0.4794
3852.000000 0.4788 0.4783 0.4778 0.4773 0.4768
3857.000000 0.4763 0.4759 0.4754 0.4749 0.4744
3862.000000 0.4739 0.4734 0.4729 0.4724 0.4718
3867.000000 0.4713 0.4707 0.4702 0.4696 0.4692
3872.000000 0.4688 0.4683 0.4679 0.4675 0.4670
3877.000000 0.4667 0.4664 0.4661 0.4658 0.4655
3882.000000 0.4651 0.4650 0.4649 0.4649 0.4648
3887.000000 0.4647 0.4646 0.4645 0.4644 0.4643
3892.000000 0.4642 0.4641 0.4640 0.4639 0.4639
3897.000000 0.4638 0.4638 0.4637 0.4637 0.4637
3902.000000 0.4637 0.4637 0.4637 0.4637 0.4637
3907.000000 0.4638 0.4638 0.4638 0.4638 0.4638
3912.000000 0.4638 0.4638 0.4638 0.4638 0.4638
3917.000000 0.4638 0.4638 0.4637 0.4637 0.4637
3922.000000 0.4637 0.4637 0.4637 0.4636 0.4636
3927.000000 0.4636 0.4636 0.4636 0.4636 0.4635
3932.000000 0.4635 0.4635 0.4635 0.4635 0.4635
3937.000000 0.4635 0.4634 0.4633 0.4632 0.4631
3942.000000 0.4630 0.4629 0.4628 0.4627 0.4626
3947.000000 0.4625 0.4624 0.4623 0.4622 0.4621
3952.000000 0.4620 0.4619 0.4618 0.4617 0.4616
3957.000000 0.4615 0.4613 0.4612 0.4610 0.4609
3962.000000 0.4607 0.4606 0.4604 0.4602 0.4600
3967.000000 0.4598 0.4596 0.4593 0.4591 0.4588
3972.000000 0.4585 0.4583 0.4580 0.4577 0.4575
3977.000000 0.4572 0.4569 0.4567 0.4564 0.4561
3982.000000 0.4558 0.4556 0.4553 0.4550 0.4547
3987.000000 0.4544 0.4541 0.4539 0.4536 0.4533
3992.000000 0.4531 0.4528 0.4526 0.4525 0.4524
3997.000000 0.4523 0.4522 0.4521 0.4521
##END=
