##TITLE=Aniline, 2,4-di-tert-butyl-5-methyl-
##JCAMP-DX=4.24
##DATA TYPE=INFRARED SPECTRUM
##CLASS=COBLENTZ III
##ORIGIN=MONSANTO (J. FREEMAN)
##OWNER=Copyright (C) 1987 by the Coblentz Society
Collection (C) 2018 copyright by the U.S. Secretary of Commerce
on behalf of the United States of America. All rights reserved.
##DATE=1959/01/29
##NAMES=2,4-ditert-butyl-5-methylphenylamine
2,4-ditert-butyl-5-methylaniline
m-Toluidine, 4,6-di-tert-butyl-
##MOLFORM=C15 H25 N
##SOURCE REFERENCE=COBLENTZ NO. 8496
##$NIST ID=B6008496
##$NIST SOURCE=COBLENTZ
##$NIST IMAGE=cob8496
##SPECTROMETER/DATA SYSTEM=BECKMAN IR-4 (HYBRID PRISM-GRATING)
##INSTRUMENT PARAMETERS=NaCl PRISM
##STATE=SOLID (MELT)
##PATH LENGTH=CAPILLARY
##SAMPLING PROCEDURE=TRANSMISSION
##RESOLUTION=2
##DATA PROCESSING=DIGITIZED BY COBLENTZ SOCIETY (BATCH II) FROM HARD COPY (ADJUSTED \addmicron\0.02um\)
##XUNITS=1/CM
##YUNITS=TRANSMITTANCE
##XFACTOR=1.0
##YFACTOR=1
##DELTAX=0.981799
##FIRSTX=624.436
##LASTX=3937.03
##FIRSTY=0.5264
##MAXX=3937.03
##MINX=624.436
##MAXY=0.872865
##MINY=0
##NPOINTS=3375
##XYDATA=(X++(Y..Y))
624.436411 0.5264 0.5258 0.5247 0.5233 0.5216
629.345406 0.5199 0.5192 0.5182 0.5161 0.5138
634.254401 0.5111 0.5083 0.5055 0.5027 0.5000
639.163396 0.4976 0.4952 0.4929 0.4906 0.4885
644.072390 0.4868 0.4858 0.4854 0.4856 0.4863
648.981385 0.4869 0.4878 0.4888 0.4903 0.4928
653.890380 0.4957 0.4985 0.5015 0.5046 0.5077
658.799375 0.5110 0.5145 0.5182 0.5219 0.5258
663.708369 0.5280 0.5279 0.5270 0.5270 0.5297
668.617364 0.5359 0.5462 0.5606 0.5760 0.5890
673.526359 0.5999 0.6068 0.6097 0.6109 0.6123
678.435354 0.6140 0.6096 0.6081 0.6064 0.6047
683.344348 0.6032 0.6018 0.6007 0.5994 0.5984
688.253343 0.5982 0.5991 0.5999 0.6008 0.6027
693.162338 0.6024 0.6039 0.6058 0.6079 0.6099
698.071333 0.6118 0.6137 0.6156 0.6181 0.6205
702.980327 0.6229 0.6259 0.6292 0.6325 0.6364
707.889322 0.6405 0.6448 0.6496 0.6547 0.6602
712.798317 0.6660 0.6714 0.6748 0.6780 0.6806
717.707312 0.6830 0.6849 0.6870 0.6911 0.6958
722.616306 0.7011 0.7065 0.7110 0.7148 0.7178
727.525301 0.7203 0.7219 0.7209 0.7181 0.7123
732.434296 0.7055 0.6992 0.6937 0.6912 0.6905
737.343291 0.6925 0.6962 0.6991 0.7013 0.7023
742.252285 0.7024 0.7023 0.7022 0.7026 0.7033
747.161280 0.7044 0.7062 0.7079 0.7096 0.7113
752.070275 0.7131 0.7148 0.7165 0.7182 0.7200
756.979270 0.7216 0.7234 0.7250 0.7267 0.7284
761.888264 0.7301 0.7318 0.7335 0.7351 0.7368
766.797259 0.7385 0.7400 0.7417 0.7434 0.7450
771.706254 0.7469 0.7487 0.7511 0.7534 0.7558
776.615249 0.7583 0.7611 0.7638 0.7666 0.7689
781.524244 0.7709 0.7729 0.7749 0.7769 0.7785
786.433238 0.7800 0.7815 0.7830 0.7845 0.7860
791.342233 0.7876 0.7891 0.7902 0.7912 0.7922
796.251228 0.7932 0.7942 0.7951 0.7961 0.7974
801.160223 0.7986 0.7998 0.8011 0.8025 0.8039
806.069217 0.8052 0.8063 0.8071 0.8080 0.8087
810.978212 0.8090 0.8089 0.8104 0.8092 0.8067
815.887207 0.8052 0.8035 0.8016 0.7996 0.7977
820.796202 0.7967 0.7973 0.7995 0.8024 0.8055
825.705196 0.8072 0.8066 0.8039 0.7995 0.7938
830.614191 0.7856 0.7754 0.7638 0.7505 0.7364
835.523186 0.7162 0.6877 0.6592 0.6260 0.5891
840.432181 0.5735 0.5646 0.5605 0.5591 0.5580
845.341175 0.5537 0.5410 0.5281 0.5152 0.5024
850.250170 0.4891 0.4747 0.4654 0.4657 0.4700
855.159165 0.4802 0.4924 0.5133 0.5342 0.5550
860.068160 0.5758 0.5965 0.6173 0.6389 0.6517
864.977154 0.6635 0.6798 0.6946 0.7066 0.7184
869.886149 0.7296 0.7382 0.7435 0.7459 0.7464
874.795144 0.7480 0.7436 0.7313 0.6955 0.6469
879.704139 0.5967 0.5466 0.4966 0.4467 0.3970
884.613133 0.3589 0.3486 0.3937 0.4522 0.5095
889.522128 0.5666 0.6161 0.6490 0.6735 0.6978
894.431123 0.7292 0.7525 0.7696 0.7837 0.7930
899.340118 0.7993 0.8042 0.8084 0.8119 0.8149
904.249113 0.8175 0.8197 0.8213 0.8225 0.8251
909.158107 0.8249 0.8217 0.8192 0.8155 0.8105
914.067102 0.8038 0.7955 0.7869 0.7775 0.7660
918.976097 0.7540 0.7459 0.7433 0.7435 0.7463
923.885092 0.7529 0.7613 0.7723 0.7854 0.7955
928.794086 0.8041 0.8108 0.8164 0.8219 0.8283
933.703081 0.8341 0.8395 0.8430 0.8450 0.8464
938.612076 0.8477 0.8490 0.8500 0.8503 0.8502
943.521071 0.8501 0.8500 0.8499 0.8498 0.8499
948.430065 0.8499 0.8503 0.8510 0.8529 0.8552
953.339060 0.8579 0.8601 0.8620 0.8639 0.8655
958.248055 0.8670 0.8677 0.8684 0.8690 0.8694
963.157050 0.8695 0.8699 0.8697 0.8696 0.8695
968.066044 0.8695 0.8693 0.8691 0.8689 0.8681
972.975039 0.8671 0.8661 0.8650 0.8631 0.8608
977.884034 0.8585 0.8541 0.8485 0.8428 0.8371
982.793029 0.8315 0.8258 0.8201 0.8145 0.8080
987.702023 0.8000 0.7919 0.7846 0.7762 0.7673
992.611018 0.7620 0.7618 0.7644 0.7699 0.7780
997.520013 0.7850 0.7897 0.7935 0.7970 0.7999
1002.429008 0.8023 0.8040 0.8045 0.8057 0.8054
1007.338002 0.8019 0.7993 0.7950 0.7886 0.7802
1012.246997 0.7702 0.7578 0.7436 0.7314 0.7266
1017.155992 0.7249 0.7283 0.7399 0.7424 0.7438
1022.064987 0.7446 0.7405 0.7318 0.7218 0.7118
1026.973982 0.7018 0.6919 0.6820 0.6722 0.6655
1031.882976 0.6730 0.6879 0.7029 0.7179 0.7329
1036.791971 0.7490 0.7678 0.7845 0.8046 0.8316
1041.700966 0.8412 0.8471 0.8507 0.8542 0.8576
1046.609961 0.8606 0.8635 0.8653 0.8667 0.8679
1051.518955 0.8685 0.8688 0.8692 0.8695 0.8695
1056.427950 0.8695 0.8693 0.8729 0.8692 0.8682
1061.336945 0.8678 0.8668 0.8659 0.8648 0.8634
1066.245940 0.8619 0.8602 0.8585 0.8566 0.8547
1071.154934 0.8522 0.8490 0.8457 0.8418 0.8362
1076.063929 0.8300 0.8238 0.8174 0.8107 0.8035
1080.972924 0.7958 0.7874 0.7793 0.7734 0.7685
1085.881919 0.7639 0.7609 0.7599 0.7598 0.7596
1090.790913 0.7607 0.7627 0.7655 0.7691 0.7726
1095.699908 0.7761 0.7793 0.7818 0.7828 0.7823
1100.608903 0.7816 0.7801 0.7775 0.7742 0.7685
1105.517898 0.7561 0.7361 0.7133 0.6906 0.6680
1110.426892 0.6454 0.6228 0.6003 0.5736 0.5443
1115.335887 0.5276 0.5181 0.5135 0.5140 0.5161
1120.244882 0.5239 0.5533 0.5933 0.6332 0.6729
1125.153877 0.7067 0.7256 0.7435 0.7567 0.7698
1130.062871 0.7820 0.7910 0.7991 0.8067 0.8130
1134.971866 0.8191 0.8247 0.8300 0.8351 0.8388
1139.880861 0.8422 0.8454 0.8472 0.8488 0.8505
1144.789856 0.8516 0.8521 0.8526 0.8532 0.8534
1149.698851 0.8534 0.8564 0.8532 0.8528 0.8525
1154.607845 0.8520 0.8514 0.8504 0.8492 0.8480
1159.516840 0.8464 0.8443 0.8418 0.8384 0.8350
1164.425835 0.8308 0.8262 0.8188 0.8104 0.8035
1169.334830 0.7968 0.7859 0.7715 0.7563 0.7411
1174.243824 0.7260 0.7107 0.6953 0.6765 0.6636
1179.152819 0.6567 0.6518 0.6461 0.6354 0.6092
1184.061814 0.5674 0.5215 0.4755 0.4296 0.3852
1188.970809 0.3619 0.3576 0.3571 0.3659 0.3779
1193.879803 0.3883 0.3988 0.4094 0.4190 0.4251
1198.788798 0.4279 0.4296 0.4311 0.4331 0.4436
1203.697793 0.4695 0.5031 0.5366 0.5701 0.6035
1208.606788 0.6447 0.6792 0.6955 0.7099 0.7272
1213.515782 0.7462 0.7586 0.7652 0.7690 0.7711
1218.424777 0.7714 0.7704 0.7690 0.7635 0.7561
1223.333772 0.7487 0.7414 0.7341 0.7241 0.7096
1228.242767 0.6963 0.6797 0.6599 0.6401 0.6203
1233.151761 0.6005 0.5766 0.5373 0.4911 0.4543
1238.060756 0.4176 0.3809 0.3443 0.3076 0.2713
1242.969751 0.2390 0.2247 0.2221 0.2217 0.2254
1247.878746 0.2401 0.2737 0.3073 0.3409 0.3744
1252.787740 0.4079 0.4412 0.4746 0.5079 0.5397
1257.696735 0.5496 0.5502 0.5509 0.5505 0.5494
1262.605730 0.5356 0.5141 0.4924 0.4710 0.4495
1267.514725 0.4281 0.4066 0.3852 0.3639 0.3427
1272.423720 0.3213 0.3001 0.2695 0.2510 0.2460
1277.332714 0.2447 0.2450 0.2452 0.2691 0.3094
1282.241709 0.3518 0.3941 0.4363 0.4785 0.5205
1287.150704 0.5566 0.6285 0.6551 0.6754 0.7008
1292.059699 0.7142 0.7237 0.7326 0.7413 0.7517
1296.968693 0.7632 0.7732 0.7822 0.7907 0.7981
1301.877688 0.8031 0.8067 0.8101 0.8129 0.8154
1306.786683 0.8177 0.8193 0.8205 0.8210 0.8210
1311.695678 0.8207 0.8200 0.8189 0.8170 0.8146
1316.604672 0.8125 0.8110 0.8104 0.8104 0.8109
1321.513667 0.8130 0.8161 0.8196 0.8235 0.8268
1326.422662 0.8293 0.8313 0.8328 0.8343 0.8355
1331.331657 0.8364 0.8372 0.8379 0.8384 0.8385
1336.240651 0.8373 0.8361 0.8360 0.8341 0.8316
1341.149646 0.8291 0.8263 0.8226 0.8184 0.8137
1346.058641 0.8085 0.8029 0.7970 0.7910 0.7849
1350.967636 0.7783 0.7703 0.7588 0.7327 0.6791
1355.876630 0.6152 0.5521 0.4890 0.4260 0.3631
1360.785625 0.3004 0.2466 0.2285 0.2283 0.2284
1365.694620 0.2339 0.2636 0.2980 0.3322 0.3664
1370.603615 0.3988 0.4191 0.4270 0.4379 0.4557
1375.512609 0.4747 0.4936 0.5107 0.5155 0.5176
1380.421604 0.5182 0.5180 0.5142 0.4912 0.4393
1385.330599 0.3849 0.3483 0.3322 0.3252 0.3192
1390.239594 0.3136 0.3095 0.3061 0.3037 0.2939
1395.148588 0.2802 0.2665 0.2528 0.2391 0.2254
1400.057583 0.2117 0.2048 0.2041 0.2037 0.2042
1404.966578 0.2500 0.3452 0.4432 0.4993 0.5278
1409.875573 0.5657 0.5828 0.5916 0.5993 0.6057
1414.784568 0.6114 0.6157 0.6191 0.6223 0.6255
1419.693562 0.6284 0.6300 0.6304 0.6297 0.6290
1424.602557 0.6272 0.6253 0.6202 0.6108 0.6001
1429.511552 0.5893 0.5786 0.5678 0.5571 0.5465
1434.420547 0.5358 0.5251 0.5145 0.5038 0.4935
1439.329541 0.4853 0.4790 0.4729 0.4666 0.4601
1444.238536 0.4522 0.4424 0.4317 0.4203 0.4085
1449.147531 0.3965 0.3847 0.3735 0.3637 0.3562
1454.056526 0.3499 0.3436 0.3371 0.3305 0.3240
1458.965520 0.3175 0.3110 0.3047 0.2991 0.2939
1463.874515 0.2887 0.2836 0.2780 0.2720 0.2660
1468.783510 0.2606 0.2560 0.2522 0.2491 0.2469
1473.692505 0.2453 0.2442 0.2434 0.2430 0.2428
1478.601499 0.2430 0.2432 0.2496 0.2678 0.2877
1483.510494 0.3076 0.3275 0.3473 0.3671 0.3869
1488.419489 0.4065 0.4237 0.4336 0.4366 0.4373
1493.328484 0.4370 0.4365 0.4306 0.4114 0.3942
1498.237478 0.3770 0.3599 0.3427 0.3256 0.3085
1503.146473 0.2914 0.2745 0.2575 0.2405 0.2235
1508.055468 0.2076 0.1981 0.1982 0.1977 0.1992
1512.964463 0.2070 0.2253 0.2477 0.2702 0.2925
1517.873457 0.3148 0.3371 0.3594 0.3816 0.4038
1522.782452 0.4261 0.4482 0.4704 0.4924 0.5145
1527.691447 0.5366 0.5586 0.5798 0.5959 0.6072
1532.600442 0.6138 0.6172 0.6202 0.6217 0.6230
1537.509437 0.6243 0.6249 0.6252 0.6257 0.6245
1542.418431 0.6192 0.6040 0.5887 0.5735 0.5582
1547.327426 0.5430 0.5277 0.5126 0.4974 0.4823
1552.236421 0.4671 0.4520 0.4369 0.4274 0.4248
1557.145416 0.4247 0.4233 0.4318 0.4465 0.4636
1562.054410 0.4810 0.4983 0.5156 0.5329 0.5502
1566.963405 0.5674 0.5846 0.6018 0.6190 0.6361
1571.872400 0.6533 0.6703 0.6874 0.7004 0.7072
1576.781395 0.7102 0.7121 0.7136 0.7137 0.7135
1581.690389 0.7127 0.7096 0.6993 0.6836 0.6669
1586.599384 0.6502 0.6335 0.6168 0.6002 0.5836
1591.508379 0.5670 0.5505 0.5340 0.5174 0.5009
1596.417374 0.4844 0.4679 0.4514 0.4350 0.4187
1601.326368 0.4023 0.3859 0.3696 0.3532 0.3369
1606.235363 0.3206 0.3043 0.2881 0.2718 0.2557
1611.144358 0.2395 0.2234 0.2072 0.1910 0.1757
1616.053353 0.1645 0.1598 0.1577 0.1554 0.1541
1620.962347 0.1534 0.1535 0.1541 0.1555 0.1678
1625.871342 0.1901 0.2129 0.2357 0.2585 0.2812
1630.780337 0.3039 0.3266 0.3493 0.3719 0.3945
1635.689332 0.4171 0.4397 0.4622 0.4847 0.5072
1640.598326 0.5262 0.5404 0.5529 0.5616 0.5679
1645.507321 0.5737 0.5797 0.5869 0.5963 0.6069
1650.416316 0.6168 0.6273 0.6435 0.6652 0.6875
1655.325311 0.7038 0.7145 0.7240 0.7334 0.7447
1660.234306 0.7551 0.7602 0.7647 0.7690 0.7727
1665.143300 0.7757 0.7784 0.7812 0.7839 0.7866
1670.052295 0.7891 0.7916 0.7941 0.7965 0.7985
1674.961290 0.8000 0.8013 0.8026 0.8039 0.8052
1679.870285 0.8065 0.8075 0.8085 0.8096 0.8107
1684.779279 0.8118 0.8128 0.8139 0.8152 0.8164
1689.688274 0.8178 0.8191 0.8204 0.8216 0.8229
1694.597269 0.8238 0.8245 0.8253 0.8261 0.8268
1699.506264 0.8275 0.8283 0.8286 0.8289 0.8291
1704.415258 0.8293 0.8295 0.8298 0.8300 0.8303
1709.324253 0.8305 0.8307 0.8309 0.8309 0.8309
1714.233248 0.8309 0.8309 0.8309 0.8309 0.8309
1719.142243 0.8309 0.8310 0.8318 0.8331 0.8345
1724.051237 0.8359 0.8376 0.8394 0.8411 0.8426
1728.960232 0.8441 0.8455 0.8469 0.8476 0.8479
1733.869227 0.8482 0.8485 0.8492 0.8491 0.8493
1738.778222 0.8494 0.8495 0.8496 0.8497 0.8498
1743.687216 0.8499 0.8500 0.8500 0.8498 0.8496
1748.596211 0.8494 0.8492 0.8491 0.8488 0.8486
1753.505206 0.8485 0.8482 0.8478 0.8471 0.8464
1758.414201 0.8457 0.8450 0.8444 0.8434 0.8423
1763.323195 0.8413 0.8403 0.8392 0.8381 0.8369
1768.232190 0.8354 0.8333 0.8313 0.8292 0.8269
1773.141185 0.8242 0.8215 0.8188 0.8165 0.8143
1778.050180 0.8126 0.8118 0.8112 0.8109 0.8103
1782.959175 0.8107 0.8111 0.8114 0.8120 0.8126
1787.868169 0.8135 0.8154 0.8181 0.8214 0.8250
1792.777164 0.8286 0.8316 0.8336 0.8351 0.8356
1797.686159 0.8358 0.8360 0.8363 0.8365 0.8367
1802.595154 0.8370 0.8372 0.8375 0.8377 0.8394
1807.504148 0.8387 0.8379 0.8380 0.8381 0.8380
1812.413143 0.8380 0.8380 0.8379 0.8379 0.8379
1817.322138 0.8378 0.8377 0.8377 0.8377 0.8376
1822.231133 0.8376 0.8375 0.8375 0.8374 0.8373
1827.140127 0.8372 0.8372 0.8371 0.8370 0.8370
1832.049122 0.8369 0.8368 0.8367 0.8367 0.8366
1836.958117 0.8365 0.8364 0.8364 0.8363 0.8361
1841.867112 0.8359 0.8357 0.8354 0.8352 0.8349
1846.776106 0.8346 0.8343 0.8341 0.8338 0.8335
1851.685101 0.8333 0.8331 0.8329 0.8326 0.8323
1856.594096 0.8320 0.8316 0.8312 0.8309 0.8305
1861.503091 0.8302 0.8298 0.8294 0.8290 0.8286
1866.412085 0.8283 0.8279 0.8276 0.8272 0.8268
1871.321080 0.8264 0.8260 0.8256 0.8251 0.8247
1876.230075 0.8242 0.8238 0.8234 0.8229 0.8225
1881.139070 0.8221 0.8217 0.8213 0.8210 0.8208
1886.048064 0.8207 0.8205 0.8204 0.8202 0.8200
1890.957059 0.8199 0.8197 0.8196 0.8194 0.8192
1895.866054 0.8191 0.8190 0.8188 0.8187 0.8185
1900.775049 0.8184 0.8182 0.8180 0.8179 0.8177
1905.684044 0.8175 0.8172 0.8170 0.8168 0.8166
1910.593038 0.8164 0.8162 0.8159 0.8157 0.8155
1915.502033 0.8153 0.8150 0.8148 0.8146 0.8143
1920.411028 0.8141 0.8139 0.8137 0.8135 0.8133
1925.320023 0.8131 0.8129 0.8127 0.8125 0.8124
1930.229017 0.8122 0.8120 0.8118 0.8118 0.8117
1935.138012 0.8117 0.8117 0.8117 0.8117 0.8116
1940.047007 0.8116 0.8116 0.8115 0.8115 0.8115
1944.956002 0.8114 0.8114 0.8114 0.8113 0.8113
1949.864996 0.8113 0.8113 0.8113 0.8113 0.8114
1954.773991 0.8114 0.8114 0.8115 0.8115 0.8115
1959.682986 0.8116 0.8116 0.8116 0.8117 0.8117
1964.591981 0.8116 0.8115 0.8115 0.8114 0.8114
1969.500975 0.8113 0.8112 0.8112 0.8111 0.8110
1974.409970 0.8108 0.8106 0.8105 0.8103 0.8101
1979.318965 0.8099 0.8097 0.8094 0.8092 0.8090
1984.227960 0.8089 0.8087 0.8085 0.8083 0.8081
1989.136954 0.8079 0.8078 0.8076 0.8075 0.8073
1994.045949 0.8072 0.8070 0.8069 0.8067 0.8065
1998.954944 0.8064 0.8063 0.8061 0.8059 0.8057
2003.863939 0.8055 0.8054 0.8052 0.8050 0.8048
2008.772933 0.8046 0.8044 0.8043 0.8041 0.8039
2013.681928 0.8037 0.8035 0.8034 0.8033 0.8031
2018.590923 0.8029 0.8026 0.8024 0.8022 0.8020
2023.499918 0.8017 0.8015 0.8013 0.8010 0.8008
2028.408912 0.8005 0.8003 0.8001 0.7999 0.7997
2033.317907 0.7995 0.7992 0.7990 0.7987 0.7985
2038.226902 0.7983 0.7980 0.7978 0.7976 0.7973
2043.135897 0.7971 0.7969 0.7966 0.7964 0.7961
2048.044892 0.7959 0.7957 0.7954 0.7952 0.7950
2052.953886 0.7947 0.7945 0.7942 0.7939 0.7937
2057.862881 0.7935 0.7932 0.7929 0.7927 0.7924
2062.771876 0.7921 0.7918 0.7916 0.7913 0.7911
2067.680871 0.7908 0.7905 0.7902 0.7898 0.7895
2072.589865 0.7892 0.7888 0.7885 0.7881 0.7878
2077.498860 0.7874 0.7871 0.7868 0.7864 0.7861
2082.407855 0.7858 0.7855 0.7854 0.7852 0.7850
2087.316850 0.7848 0.7847 0.7845 0.7843 0.7842
2092.225844 0.7840 0.7838 0.7837 0.7835 0.7833
2097.134839 0.7832 0.7830 0.7828 0.7827 0.7825
2102.043834 0.7823 0.7822 0.7820 0.7818 0.7817
2106.952829 0.7815 0.7813 0.7812 0.7810 0.7808
2111.861823 0.7807 0.7805 0.7803 0.7802 0.7800
2116.770818 0.7798 0.7797 0.7795 0.7795 0.7794
2121.679813 0.7793 0.7792 0.7791 0.7790 0.7790
2126.588808 0.7789 0.7787 0.7786 0.7785 0.7785
2131.497802 0.7784 0.7783 0.7782 0.7782 0.7782
2136.406797 0.7782 0.7782 0.7782 0.7781 0.7781
2141.315792 0.7781 0.7781 0.7781 0.7781 0.7781
2146.224787 0.7780 0.7780 0.7780 0.7780 0.7780
2151.133781 0.7780 0.7779 0.7779 0.7779 0.7779
2156.042776 0.7779 0.7779 0.7779 0.7778 0.7778
2160.951771 0.7778 0.7778 0.7778 0.7778 0.7778
2165.860766 0.7778 0.7777 0.7777 0.7776 0.7775
2170.769761 0.7773 0.7771 0.7769 0.7767 0.7764
2175.678755 0.7762 0.7761 0.7759 0.7757 0.7755
2180.587750 0.7753 0.7751 0.7749 0.7747 0.7745
2185.496745 0.7743 0.7741 0.7739 0.7736 0.7733
2190.405740 0.7730 0.7728 0.7725 0.7722 0.7719
2195.314734 0.7716 0.7713 0.7710 0.7708 0.7705
2200.223729 0.7704 0.7703 0.7702 0.7700 0.7699
2205.132724 0.7697 0.7696 0.7694 0.7693 0.7691
2210.041719 0.7690 0.7688 0.7687 0.7685 0.7684
2214.950713 0.7684 0.7684 0.7684 0.7684 0.7684
2219.859708 0.7684 0.7684 0.7684 0.7684 0.7684
2224.768703 0.7685 0.7685 0.7685 0.7685 0.7686
2229.677698 0.7686 0.7687 0.7688 0.7689 0.7690
2234.586692 0.7691 0.7692 0.7693 0.7693 0.7694
2239.495687 0.7695 0.7696 0.7697 0.7698 0.7699
2244.404682 0.7700 0.7700 0.7701 0.7702 0.7703
2249.313677 0.7703 0.7704 0.7705 0.7706 0.7706
2254.222671 0.7707 0.7707 0.7708 0.7709 0.7710
2259.131666 0.7710 0.7710 0.7711 0.7711 0.7711
2264.040661 0.7711 0.7710 0.7709 0.7708 0.7707
2268.949656 0.7706 0.7704 0.7701 0.7697 0.7693
2273.858650 0.7688 0.7684 0.7679 0.7675 0.7670
2278.767645 0.7666 0.7661 0.7655 0.7649 0.7642
2283.676640 0.7635 0.7628 0.7621 0.7614 0.7607
2288.585635 0.7600 0.7593 0.7587 0.7580 0.7573
2293.494630 0.7565 0.7557 0.7548 0.7540 0.7531
2298.403624 0.7526 0.7522 0.7518 0.7514 0.7510
2303.312619 0.7507 0.7504 0.7502 0.7500 0.7498
2308.221614 0.7497 0.7497 0.7496 0.7495 0.7495
2313.130609 0.7494 0.7493 0.7492 0.7491 0.7490
2318.039603 0.7490 0.7489 0.7488 0.7488 0.7487
2322.948598 0.7486 0.7485 0.7483 0.7482 0.7481
2327.857593 0.7479 0.7478 0.7477 0.7476 0.7475
2332.766588 0.7474 0.7472 0.7471 0.7470 0.7469
2337.675582 0.7468 0.7467 0.7466 0.7465 0.7465
2342.584577 0.7465 0.7464 0.7463 0.7462 0.7462
2347.493572 0.7461 0.7460 0.7459 0.7459 0.7459
2352.402567 0.7458 0.7457 0.7456 0.7455 0.7454
2357.311561 0.7454 0.7453 0.7453 0.7452 0.7451
2362.220556 0.7451 0.7450 0.7449 0.7448 0.7447
2367.129551 0.7447 0.7445 0.7444 0.7443 0.7442
2372.038546 0.7441 0.7440 0.7438 0.7438 0.7437
2376.947540 0.7436 0.7435 0.7434 0.7433 0.7432
2381.856535 0.7432 0.7432 0.7434 0.7435 0.7436
2386.765530 0.7437 0.7439 0.7444 0.7450 0.7457
2391.674525 0.7463 0.7469 0.7472 0.7475 0.7478
2396.583519 0.7481 0.7483 0.7484 0.7485 0.7486
2401.492514 0.7487 0.7487 0.7487 0.7488 0.7489
2406.401509 0.7490 0.7491 0.7492 0.7492 0.7492
2411.310504 0.7492 0.7492 0.7492 0.7492 0.7492
2416.219499 0.7492 0.7492 0.7492 0.7492 0.7492
2421.128493 0.7492 0.7492 0.7492 0.7492 0.7492
2426.037488 0.7492 0.7492 0.7492 0.7492 0.7491
2430.946483 0.7491 0.7491 0.7491 0.7491 0.7491
2435.855478 0.7491 0.7491 0.7491 0.7491 0.7490
2440.764472 0.7490 0.7490 0.7490 0.7490 0.7490
2445.673467 0.7490 0.7490 0.7490 0.7489 0.7489
2450.582462 0.7489 0.7489 0.7489 0.7489 0.7489
2455.491457 0.7489 0.7489 0.7489 0.7488 0.7488
2460.400451 0.7488 0.7488 0.7488 0.7488 0.7488
2465.309446 0.7488 0.7488 0.7488 0.7488 0.7488
2470.218441 0.7488 0.7487 0.7486 0.7485 0.7484
2475.127436 0.7484 0.7483 0.7483 0.7482 0.7481
2480.036430 0.7481 0.7480 0.7479 0.7478 0.7477
2484.945425 0.7477 0.7476 0.7475 0.7474 0.7473
2489.854420 0.7473 0.7472 0.7471 0.7470 0.7470
2494.763415 0.7470 0.7469 0.7468 0.7467 0.7466
2499.672409 0.7466 0.7465 0.7464 0.7463 0.7462
2504.581404 0.7461 0.7460 0.7458 0.7456 0.7455
2509.490399 0.7454 0.7453 0.7451 0.7450 0.7448
2514.399394 0.7447 0.7445 0.7443 0.7442 0.7441
2519.308388 0.7439 0.7438 0.7437 0.7435 0.7433
2524.217383 0.7431 0.7429 0.7426 0.7424 0.7421
2529.126378 0.7419 0.7416 0.7414 0.7411 0.7409
2534.035373 0.7406 0.7404 0.7401 0.7398 0.7395
2538.944368 0.7391 0.7388 0.7385 0.7382 0.7379
2543.853362 0.7375 0.7372 0.7369 0.7364 0.7360
2548.762357 0.7356 0.7352 0.7348 0.7343 0.7339
2553.671352 0.7334 0.7330 0.7326 0.7322 0.7318
2558.580347 0.7314 0.7310 0.7307 0.7303 0.7300
2563.489341 0.7297 0.7293 0.7290 0.7286 0.7282
2568.398336 0.7279 0.7276 0.7273 0.7271 0.7269
2573.307331 0.7268 0.7267 0.7266 0.7265 0.7265
2578.216326 0.7265 0.7265 0.7265 0.7266 0.7267
2583.125320 0.7268 0.7269 0.7270 0.7271 0.7272
2588.034315 0.7273 0.7275 0.7276 0.7277 0.7279
2592.943310 0.7281 0.7284 0.7288 0.7291 0.7295
2597.852305 0.7298 0.7301 0.7303 0.7304 0.7305
2602.761299 0.7305 0.7305 0.7304 0.7304 0.7304
2607.670294 0.7303 0.7303 0.7303 0.7302 0.7301
2612.579289 0.7300 0.7300 0.7299 0.7298 0.7297
2617.488284 0.7296 0.7295 0.7293 0.7291 0.7289
2622.397278 0.7287 0.7286 0.7284 0.7282 0.7280
2627.306273 0.7279 0.7278 0.7276 0.7274 0.7273
2632.215268 0.7271 0.7269 0.7267 0.7266 0.7264
2637.124263 0.7263 0.7261 0.7260 0.7259 0.7257
2642.033257 0.7254 0.7253 0.7252 0.7250 0.7249
2646.942252 0.7247 0.7246 0.7244 0.7242 0.7241
2651.851247 0.7239 0.7238 0.7237 0.7235 0.7234
2656.760242 0.7233 0.7231 0.7230 0.7228 0.7227
2661.669236 0.7226 0.7225 0.7223 0.7222 0.7221
2666.578231 0.7220 0.7218 0.7217 0.7216 0.7215
2671.487226 0.7214 0.7212 0.7211 0.7210 0.7209
2676.396221 0.7208 0.7207 0.7205 0.7204 0.7202
2681.305216 0.7200 0.7198 0.7196 0.7194 0.7193
2686.214210 0.7191 0.7189 0.7187 0.7186 0.7184
2691.123205 0.7182 0.7180 0.7178 0.7176 0.7175
2696.032200 0.7173 0.7171 0.7170 0.7168 0.7166
2700.941195 0.7164 0.7161 0.7158 0.7155 0.7152
2705.850189 0.7149 0.7146 0.7143 0.7140 0.7137
2710.759184 0.7133 0.7130 0.7127 0.7124 0.7120
2715.668179 0.7114 0.7108 0.7102 0.7095 0.7088
2720.577174 0.7082 0.7076 0.7069 0.7063 0.7056
2725.486168 0.7049 0.7042 0.7035 0.7027 0.7019
2730.395163 0.7012 0.7005 0.6998 0.6990 0.6983
2735.304158 0.6975 0.6968 0.6960 0.6954 0.6948
2740.213153 0.6942 0.6936 0.6932 0.6927 0.6923
2745.122147 0.6919 0.6914 0.6910 0.6905 0.6901
2750.031142 0.6897 0.6894 0.6893 0.6891 0.6889
2754.940137 0.6888 0.6886 0.6885 0.6883 0.6881
2759.849132 0.6880 0.6878 0.6877 0.6875 0.6874
2764.758126 0.6873 0.6872 0.6871 0.6871 0.6870
2769.667121 0.6869 0.6868 0.6867 0.6867 0.6866
2774.576116 0.6865 0.6864 0.6863 0.6862 0.6861
2779.485111 0.6860 0.6859 0.6858 0.6855 0.6853
2784.394105 0.6850 0.6848 0.6845 0.6843 0.6840
2789.303100 0.6838 0.6835 0.6829 0.6824 0.6818
2794.212095 0.6811 0.6803 0.6795 0.6787 0.6778
2799.121090 0.6769 0.6761 0.6752 0.6744 0.6734
2804.030085 0.6724 0.6713 0.6701 0.6687 0.6672
2808.939079 0.6658 0.6643 0.6628 0.6613 0.6597
2813.848074 0.6581 0.6565 0.6549 0.6533 0.6517
2818.757069 0.6501 0.6486 0.6469 0.6452 0.6436
2823.666064 0.6419 0.6402 0.6382 0.6361 0.6341
2828.575058 0.6320 0.6300 0.6280 0.6258 0.6233
2833.484053 0.6208 0.6184 0.6159 0.6133 0.6108
2838.393048 0.6081 0.6053 0.6024 0.5992 0.5954
2843.302043 0.5916 0.5876 0.5826 0.5775 0.5724
2848.211037 0.5663 0.5600 0.5533 0.5387 0.5164
2853.120032 0.4940 0.4705 0.4429 0.4152 0.3876
2858.029027 0.3600 0.3325 0.3048 0.2772 0.2497
2862.938022 0.2224 0.1996 0.1932 0.1867 0.1809
2867.847016 0.1791 0.1785 0.1779 0.1774 0.1770
2872.756011 0.1766 0.1761 0.1757 0.1753 0.1749
2877.665006 0.1745 0.1741 0.1737 0.1734 0.1731
2882.574001 0.1728 0.1725 0.1722 0.1719 0.1715
2887.482995 0.1713 0.1710 0.1707 0.1705 0.1702
2892.391990 0.1700 0.1697 0.1694 0.1691 0.1689
2897.300985 0.1686 0.1682 0.1678 0.1674 0.1670
2902.209980 0.1665 0.1660 0.1654 0.1644 0.1633
2907.118974 0.1623 0.1613 0.1602 0.1591 0.1578
2912.027969 0.1562 0.1547 0.1531 0.1515 0.1499
2916.936964 0.1483 0.1467 0.1450 0.1434 0.1413
2921.845959 0.1383 0.1353 0.1322 0.1289 0.1254
2926.754954 0.1219 0.1161 0.1069 0.0973 0.0891
2931.663948 0.0843 0.0819 0.0794 0.0773 0.0756
2936.572943 0.0740 0.0724 0.0708 0.0692 0.0676
2941.481938 0.0660 0.0646 0.0633 0.0619 0.0606
2946.390933 0.0595 0.0583 0.0572 0.0564 0.0557
2951.299927 0.0538 0.0535 0.0540 0.0535 0.0532
2956.208922 0.0531 0.0531 0.0531 0.0531 0.0532
2961.117917 0.0532 0.0533 0.0534 0.0534 0.0535
2966.026912 0.0536 0.0538 0.0539 0.0547 0.0582
2970.935906 0.0629 0.0677 0.0737 0.0811 0.0890
2975.844901 0.0970 0.1049 0.1128 0.1206 0.1285
2980.753896 0.1364 0.1443 0.1521 0.1600 0.1678
2985.662891 0.1757 0.1835 0.1913 0.1992 0.2070
2990.571885 0.2148 0.2226 0.2304 0.2382 0.2461
2995.480880 0.2538 0.2616 0.2694 0.2772 0.2850
3000.389875 0.2927 0.3005 0.3082 0.3160 0.3238
3005.298870 0.3316 0.3392 0.3470 0.3547 0.3624
3010.207864 0.3701 0.3778 0.3855 0.3932 0.4009
3015.116859 0.4086 0.4231 0.4449 0.4673 0.4897
3020.025854 0.4974 0.4997 0.5019 0.5040 0.5062
3024.934849 0.5084 0.5105 0.5126 0.5148 0.5170
3029.843843 0.5192 0.5220 0.5253 0.5286 0.5318
3034.752838 0.5351 0.5384 0.5417 0.5450 0.5482
3039.661833 0.5515 0.5549 0.5581 0.5614 0.5647
3044.570828 0.5679 0.5711 0.5742 0.5772 0.5802
3049.479823 0.5831 0.5859 0.5888 0.5916 0.5943
3054.388817 0.5969 0.5996 0.6021 0.6043 0.6064
3059.297812 0.6085 0.6107 0.6128 0.6150 0.6170
3064.206807 0.6189 0.6205 0.6220 0.6234 0.6249
3069.115802 0.6263 0.6276 0.6290 0.6304 0.6318
3074.024796 0.6331 0.6345 0.6360 0.6374 0.6389
3078.933791 0.6404 0.6419 0.6434 0.6449 0.6464
3083.842786 0.6479 0.6494 0.6510 0.6524 0.6536
3088.751781 0.6548 0.6560 0.6571 0.6583 0.6594
3093.660775 0.6605 0.6613 0.6618 0.6623 0.6628
3098.569770 0.6631 0.6634 0.6637 0.6640 0.6642
3103.478765 0.6644 0.6646 0.6648 0.6649 0.6650
3108.387760 0.6650 0.6650 0.6649 0.6649 0.6648
3113.296754 0.6647 0.6646 0.6646 0.6645 0.6644
3118.205749 0.6641 0.6638 0.6635 0.6631 0.6627
3123.114744 0.6623 0.6618 0.6613 0.6604 0.6594
3128.023739 0.6585 0.6576 0.6568 0.6560 0.6552
3132.932733 0.6544 0.6537 0.6530 0.6524 0.6518
3137.841728 0.6512 0.6508 0.6503 0.6500 0.6499
3142.750723 0.6498 0.6498 0.6498 0.6498 0.6499
3147.659718 0.6499 0.6500 0.6500 0.6500 0.6500
3152.568712 0.6501 0.6502 0.6503 0.6504 0.6506
3157.477707 0.6508 0.6511 0.6513 0.6515 0.6521
3162.386702 0.6527 0.6534 0.6541 0.6550 0.6560
3167.295697 0.6569 0.6579 0.6592 0.6607 0.6622
3172.204692 0.6636 0.6647 0.6655 0.6663 0.6671
3177.113686 0.6678 0.6683 0.6688 0.6692 0.6697
3182.022681 0.6701 0.6705 0.6709 0.6713 0.6714
3186.931676 0.6715 0.6716 0.6718 0.6719 0.6720
3191.840671 0.6722 0.6723 0.6725 0.6726 0.6727
3196.749665 0.6728 0.6729 0.6731 0.6732 0.6734
3201.658660 0.6735 0.6737 0.6738 0.6739 0.6741
3206.567655 0.6742 0.6744 0.6745 0.6747 0.6749
3211.476650 0.6751 0.6752 0.6754 0.6755 0.6757
3216.385644 0.6759 0.6760 0.6762 0.6764 0.6765
3221.294639 0.6767 0.6769 0.6771 0.6773 0.6775
3226.203634 0.6777 0.6780 0.6783 0.6787 0.6790
3231.112629 0.6794 0.6798 0.6802 0.6806 0.6812
3236.021623 0.6819 0.6825 0.6831 0.6838 0.6846
3240.930618 0.6854 0.6862 0.6869 0.6877 0.6884
3245.839613 0.6891 0.6897 0.6900 0.6903 0.6905
3250.748608 0.6908 0.6910 0.6911 0.6913 0.6914
3255.657602 0.6914 0.6914 0.6914 0.6914 0.6913
3260.566597 0.6913 0.6913 0.6913 0.6912 0.6912
3265.475592 0.6912 0.6912 0.6912 0.6925 0.6916
3270.384587 0.6911 0.6911 0.6910 0.6910 0.6909
3275.293581 0.6908 0.6908 0.6907 0.6906 0.6905
3280.202576 0.6905 0.6904 0.6903 0.6902 0.6901
3285.111571 0.6900 0.6900 0.6899 0.6898 0.6898
3290.020566 0.6897 0.6896 0.6896 0.6895 0.6894
3294.929560 0.6893 0.6892 0.6890 0.6889 0.6887
3299.838555 0.6885 0.6883 0.6881 0.6879 0.6877
3304.747550 0.6875 0.6874 0.6872 0.6870 0.6868
3309.656545 0.6866 0.6864 0.6862 0.6859 0.6857
3314.565540 0.6854 0.6852 0.6848 0.6843 0.6838
3319.474534 0.6834 0.6829 0.6825 0.6821 0.6817
3324.383529 0.6812 0.6803 0.6792 0.6782 0.6771
3329.292524 0.6761 0.6752 0.6743 0.6734 0.6724
3334.201519 0.6714 0.6703 0.6693 0.6682 0.6666
3339.110513 0.6641 0.6616 0.6591 0.6559 0.6507
3344.019508 0.6442 0.6376 0.6311 0.6245 0.6180
3348.928503 0.6114 0.6049 0.5983 0.5918 0.5853
3353.837498 0.5788 0.5723 0.5657 0.5592 0.5527
3358.746492 0.5462 0.5397 0.5332 0.5267 0.5202
3363.655487 0.5137 0.5072 0.5007 0.4942 0.4878
3368.564482 0.4813 0.4749 0.4684 0.4620 0.4555
3373.473477 0.4490 0.4426 0.4361 0.4297 0.4232
3378.382471 0.4181 0.4161 0.4153 0.4144 0.4135
3383.291466 0.4131 0.4130 0.4129 0.4129 0.4129
3388.200461 0.4140 0.4137 0.4137 0.4140 0.4150
3393.109456 0.4190 0.4237 0.4284 0.4331 0.4377
3398.018450 0.4425 0.4471 0.4518 0.4565 0.4611
3402.927445 0.4658 0.4704 0.4752 0.4798 0.4844
3407.836440 0.4891 0.4937 0.4984 0.5030 0.5077
3412.745435 0.5123 0.5169 0.5216 0.5262 0.5308
3417.654429 0.5354 0.5401 0.5447 0.5493 0.5539
3422.563424 0.5585 0.5632 0.5677 0.5723 0.5769
3427.472419 0.5815 0.5862 0.5907 0.5953 0.5999
3432.381414 0.6044 0.6091 0.6136 0.6183 0.6228
3437.290409 0.6274 0.6330 0.6393 0.6367 0.6383
3442.199403 0.6399 0.6414 0.6421 0.6421 0.6421
3447.108398 0.6421 0.6421 0.6421 0.6421 0.6421
3452.017393 0.6421 0.6410 0.6373 0.6323 0.6274
3456.926388 0.6226 0.6174 0.6117 0.6058 0.6000
3461.835382 0.5942 0.5884 0.5826 0.5768 0.5710
3466.744377 0.5652 0.5594 0.5536 0.5478 0.5420
3471.653372 0.5362 0.5305 0.5246 0.5188 0.5131
3476.562367 0.5073 0.5028 0.4992 0.4957 0.4922
3481.471361 0.4887 0.4872 0.4870 0.4869 0.4868
3486.380356 0.4868 0.4868 0.4868 0.4868 0.4868
3491.289351 0.4868 0.4868 0.4875 0.4882 0.4887
3496.198346 0.4892 0.4924 0.4966 0.5008 0.5051
3501.107340 0.5094 0.5136 0.5179 0.5221 0.5264
3506.016335 0.5306 0.5349 0.5391 0.5433 0.5476
3510.925330 0.5518 0.5561 0.5603 0.5645 0.5688
3515.834325 0.5730 0.5772 0.5814 0.5857 0.5899
3520.743319 0.5941 0.5983 0.6025 0.6068 0.6109
3525.652314 0.6152 0.6194 0.6235 0.6278 0.6319
3530.561309 0.6362 0.6405 0.6450 0.6494 0.6539
3535.470304 0.6582 0.6618 0.6637 0.6656 0.6675
3540.379298 0.6694 0.6712 0.6724 0.6736 0.6747
3545.288293 0.6759 0.6770 0.6776 0.6781 0.6786
3550.197288 0.6791 0.6795 0.6799 0.6803 0.6808
3555.106283 0.6812 0.6816 0.6820 0.6824 0.6828
3560.015278 0.6832 0.6836 0.6839 0.6843 0.6846
3564.924272 0.6850 0.6854 0.6857 0.6860 0.6862
3569.833267 0.6865 0.6867 0.6870 0.6872 0.6875
3574.742262 0.6878 0.6880 0.6883 0.6885 0.6888
3579.651257 0.6890 0.6893 0.6895 0.6897 0.6899
3584.560251 0.6901 0.6903 0.6905 0.6907 0.6909
3589.469246 0.6912 0.6913 0.6915 0.6917 0.6918
3594.378241 0.6920 0.6921 0.6923 0.6924 0.6926
3599.287236 0.6927 0.6929 0.6931 0.6933 0.6934
3604.196230 0.6936 0.6938 0.6939 0.6941 0.6943
3609.105225 0.6944 0.6946 0.6948 0.6949 0.6951
3614.014220 0.6951 0.6952 0.6952 0.6953 0.6953
3618.923215 0.6954 0.6955 0.6955 0.6956 0.6956
3623.832209 0.6957 0.6958 0.6958 0.6959 0.6960
3628.741204 0.6961 0.6961 0.6962 0.6962 0.6963
3633.650199 0.6963 0.6964 0.6964 0.6965 0.6966
3638.559194 0.6966 0.6967 0.6967 0.6968 0.6969
3643.468188 0.6970 0.6970 0.6971 0.6971 0.6972
3648.377183 0.6973 0.6973 0.6974 0.6974 0.6975
3653.286178 0.6975 0.6976 0.6976 0.6977 0.6978
3658.195173 0.6978 0.6978 0.6979 0.6979 0.6979
3663.104167 0.6979 0.6979 0.6979 0.6984 0.6983
3668.013162 0.6980 0.6981 0.6981 0.6982 0.6982
3672.922157 0.6982 0.6982 0.6982 0.6982 0.6983
3677.831152 0.6983 0.6983 0.6984 0.6984 0.6985
3682.740147 0.6985 0.6985 0.6985 0.6985 0.6985
3687.649141 0.6986 0.6986 0.6986 0.6986 0.6986
3692.558136 0.6986 0.6987 0.6987 0.6988 0.6988
3697.467131 0.6988 0.6988 0.6988 0.6988 0.6988
3702.376126 0.6988 0.6988 0.6987 0.6987 0.6987
3707.285120 0.6987 0.6987 0.6987 0.6986 0.6986
3712.194115 0.6986 0.6986 0.6986 0.6985 0.6985
3717.103110 0.6985 0.6985 0.6985 0.6985 0.6984
3722.012105 0.6984 0.6984 0.6984 0.6984 0.6984
3726.921099 0.6983 0.6983 0.6983 0.6982 0.6982
3731.830094 0.6981 0.6981 0.6981 0.6981 0.6981
3736.739089 0.6981 0.6980 0.6980 0.6980 0.6980
3741.648084 0.6980 0.6979 0.6979 0.6979 0.6979
3746.557078 0.6979 0.6979 0.6978 0.6978 0.6978
3751.466073 0.6977 0.6977 0.6976 0.6976 0.6976
3756.375068 0.6975 0.6975 0.6975 0.6974 0.6974
3761.284063 0.6973 0.6973 0.6972 0.6972 0.6971
3766.193057 0.6971 0.6971 0.6970 0.6970 0.6970
3771.102052 0.6969 0.6969 0.6969 0.6968 0.6968
3776.011047 0.6968 0.6967 0.6967 0.6967 0.6966
3780.920042 0.6966 0.6966 0.6965 0.6965 0.6965
3785.829036 0.6964 0.6964 0.6964 0.6963 0.6963
3790.738031 0.6963 0.6962 0.6962 0.6962 0.6961
3795.647026 0.6961 0.6961 0.6960 0.6960 0.6960
3800.556021 0.6959 0.6959 0.6959 0.6958 0.6958
3805.465016 0.6957 0.6957 0.6957 0.6956 0.6956
3810.374010 0.6956 0.6955 0.6955 0.6954 0.6954
3815.283005 0.6953 0.6953 0.6952 0.6952 0.6952
3820.192000 0.6951 0.6951 0.6950 0.6950 0.6949
3825.100995 0.6949 0.6949 0.6948 0.6948 0.6947
3830.009989 0.6947 0.6946 0.6946 0.6945 0.6945
3834.918984 0.6944 0.6944 0.6943 0.6943 0.6942
3839.827979 0.6942 0.6941 0.6941 0.6941 0.6940
3844.736974 0.6940 0.6940 0.6939 0.6939 0.6938
3849.645968 0.6938 0.6937 0.6937 0.6936 0.6936
3854.554963 0.6935 0.6935 0.6934 0.6934 0.6933
3859.463958 0.6933 0.6932 0.6932 0.6931 0.6931
3864.372953 0.6930 0.6930 0.6929 0.6929 0.6928
3869.281947 0.6928 0.6927 0.6927 0.6927 0.6926
3874.190942 0.6926 0.6926 0.6926 0.6925 0.6925
3879.099937 0.6924 0.6924 0.6923 0.6923 0.6922
3884.008932 0.6922 0.6921 0.6921 0.6920 0.6920
3888.917926 0.6919 0.6919 0.6918 0.6918 0.6917
3893.826921 0.6917 0.6916 0.6916 0.6916 0.6915
3898.735916 0.6915 0.6914 0.6914 0.6914 0.6913
3903.644911 0.6913 0.6912 0.6912 0.6911 0.6911
3908.553905 0.6910 0.6910 0.6909 0.6909 0.6908
3913.462900 0.6908 0.6908 0.6907 0.6907 0.6907
3918.371895 0.6906 0.6906 0.6906 0.6905 0.6905
3923.280890 0.6904 0.6904 0.6903 0.6903 0.6903
3928.189884 0.6902 0.6902 0.6902 0.6901 0.6901
3933.098879 0.6900 0.6900 0.6899 0.6899 0.0000
##END=
