##TITLE=PROPANE, 1,3-DI-4-PYRIDINYL-, HYDROCHLORIDE
##JCAMP-DX=4.24
##DATA TYPE=INFRARED SPECTRUM
##CLASS=COBLENTZ III
##ORIGIN=BRITISH PETROLEUM CO. LTD., ENGLAND
##OWNER=Copyright (C) 1987 by the Coblentz Society
Collection (C) 2018 copyright by the U.S. Secretary of Commerce
on behalf of the United States of America. All rights reserved.
##DATE=1972/07/11
##NAMES=4-[3-(4-pyridinyl)propyl]pyridine hydrochloride
Pyridine, 4,4'-trimethylenedi-, monohydrochloride
##MOLFORM=C13 H15 Cl N2
##SOURCE REFERENCE=COBLENTZ NO. 9332
##$NIST ID=B6009332
##$NIST SOURCE=COBLENTZ
##$NIST IMAGE=cob9332
##SPECTROMETER/DATA SYSTEM=PERKIN-ELMER 157
##STATE=SOLID (KBr DISC, 0.8% WT.)
$$ HCl RUN IN KBr MAY CONTAIN SOME HBr
$$ REF. Can. J. Spec., 18,4,101, '73 C. S. DOUSE and P. B. TOOKE
##SAMPLING PROCEDURE=TRANSMISSION
##RESOLUTION=2
##DATA PROCESSING=DIGITIZED BY COBLENTZ SOCIETY (BATCH II) FROM HARD COPY
##XUNITS=1/CM
##YUNITS=TRANSMITTANCE
##XFACTOR=1.0
##YFACTOR=1
##FIRSTX=667
##LASTX=4000
##FIRSTY=0.6463
##MAXX=4000
##MINX=667
##MAXY=0.7281
##MINY=0.025
##NPOINTS=3334
##XYDATA=(X++(Y..Y))
667.000000 0.6463 0.6460 0.6460 0.6461 0.6463
672.000000 0.6465 0.6466 0.6466 0.6464 0.6463
677.000000 0.6461 0.6460 0.6461 0.6461 0.6462
682.000000 0.6462 0.6463 0.6463 0.6463 0.6463
687.000000 0.6464 0.6464 0.6464 0.6466 0.6468
692.000000 0.6469 0.6470 0.6471 0.6472 0.6472
697.000000 0.6473 0.6473 0.6474 0.6474 0.6474
702.000000 0.6475 0.6475 0.6474 0.6473 0.6472
707.000000 0.6470 0.6468 0.6465 0.6461 0.6453
712.000000 0.6442 0.6419 0.6395 0.6374 0.6361
717.000000 0.6349 0.6339 0.6329 0.6316 0.6304
722.000000 0.6291 0.6275 0.6255 0.6207 0.6121
727.000000 0.6024 0.5922 0.5806 0.5680 0.5530
732.000000 0.5301 0.5186 0.5188 0.5301 0.5655
737.000000 0.5927 0.5990 0.5997 0.5997 0.6008
742.000000 0.5985 0.5973 0.5946 0.5893 0.5849
747.000000 0.5758 0.5659 0.5600 0.5590 0.5573
752.000000 0.5609 0.5656 0.5769 0.5881 0.5973
757.000000 0.6007 0.6018 0.6019 0.6023 0.6007
762.000000 0.5992 0.5961 0.5916 0.5858 0.5784
767.000000 0.5708 0.5626 0.5543 0.5460 0.5362
772.000000 0.5249 0.5132 0.4970 0.4829 0.4611
777.000000 0.4392 0.4105 0.3868 0.3631 0.3346
782.000000 0.3128 0.2915 0.2656 0.2349 0.2004
787.000000 0.1725 0.1277 0.0876 0.0484 0.0368
792.000000 0.0326 0.0279 0.0256 0.0259 0.0250
797.000000 0.0272 0.0344 0.0445 0.0575 0.0723
802.000000 0.0860 0.1160 0.1474 0.1725 0.2232
807.000000 0.2648 0.3120 0.3591 0.4043 0.4339
812.000000 0.4519 0.4543 0.4548 0.4486 0.4223
817.000000 0.3853 0.3484 0.3116 0.2684 0.2545
822.000000 0.2545 0.2742 0.3333 0.3952 0.4568
827.000000 0.5058 0.5383 0.5666 0.5899 0.6069
832.000000 0.6367 0.6512 0.6623 0.6683 0.6693
837.000000 0.6665 0.6623 0.6569 0.6503 0.6279
842.000000 0.6015 0.5755 0.5496 0.5236 0.4978
847.000000 0.4834 0.4828 0.4991 0.5140 0.5289
852.000000 0.5437 0.5585 0.5728 0.5803 0.5846
857.000000 0.5870 0.5885 0.5914 0.6016 0.6189
862.000000 0.6503 0.6620 0.6710 0.6783 0.6856
867.000000 0.6933 0.6991 0.7042 0.7087 0.7131
872.000000 0.7175 0.7218 0.7252 0.7271 0.7274
877.000000 0.7272 0.7270 0.7267 0.7281 0.7262
882.000000 0.7260 0.7255 0.7250 0.7227 0.7193
887.000000 0.7172 0.7162 0.7156 0.7148 0.7130
892.000000 0.7112 0.7099 0.7094 0.7089 0.7087
897.000000 0.7086 0.7084 0.7079 0.7071 0.7064
902.000000 0.7036 0.6991 0.6973 0.6967 0.6966
907.000000 0.6962 0.6957 0.6952 0.6948 0.6942
912.000000 0.6934 0.6925 0.6916 0.6900 0.6870
917.000000 0.6826 0.6777 0.6742 0.6718 0.6664
922.000000 0.6597 0.6540 0.6485 0.6418 0.6351
927.000000 0.6292 0.6233 0.6175 0.6113 0.6054
932.000000 0.6027 0.6022 0.6024 0.6044 0.6078
937.000000 0.6131 0.6206 0.6293 0.6340 0.6371
942.000000 0.6400 0.6424 0.6447 0.6451 0.6453
947.000000 0.6448 0.6443 0.6437 0.6432 0.6423
952.000000 0.6415 0.6406 0.6397 0.6389 0.6381
957.000000 0.6372 0.6363 0.6353 0.6342 0.6331
962.000000 0.6319 0.6306 0.6292 0.6276 0.6253
967.000000 0.6230 0.6206 0.6181 0.6154 0.6121
972.000000 0.6089 0.6071 0.6056 0.6013 0.5941
977.000000 0.5844 0.5738 0.5625 0.5402 0.5193
982.000000 0.5059 0.4989 0.4947 0.4941 0.5044
987.000000 0.5232 0.5430 0.5540 0.5590 0.5616
992.000000 0.5610 0.5594 0.5573 0.5546 0.5491
997.000000 0.5427 0.5335 0.5246 0.5169 0.4864
1002.000000 0.4077 0.4000 0.3943 0.3932 0.3942
1007.000000 0.3987 0.4049 0.4052 0.4057 0.4123
1012.000000 0.4217 0.4313 0.4457 0.4514 0.4551
1017.000000 0.4586 0.4643 0.4902 0.5097 0.5188
1022.000000 0.5286 0.5319 0.5327 0.5327 0.5309
1027.000000 0.5225 0.5185 0.5204 0.5234 0.5302
1032.000000 0.5495 0.5537 0.5545 0.5550 0.5553
1037.000000 0.5559 0.5552 0.5550 0.5546 0.5542
1042.000000 0.5533 0.5517 0.5472 0.5420 0.5381
1047.000000 0.5335 0.5263 0.5184 0.5100 0.5018
1052.000000 0.4919 0.4816 0.4716 0.4563 0.4591
1057.000000 0.4833 0.5113 0.5389 0.5515 0.5543
1062.000000 0.5552 0.5552 0.5486 0.5417 0.5358
1067.000000 0.5293 0.5228 0.5147 0.4780 0.4457
1072.000000 0.4166 0.3875 0.3604 0.3553 0.3544
1077.000000 0.4379 0.4774 0.4980 0.5133 0.5284
1082.000000 0.5349 0.5385 0.5394 0.5400 0.5384
1087.000000 0.5372 0.5356 0.5327 0.5286 0.5233
1092.000000 0.5143 0.4984 0.4778 0.4563 0.4181
1097.000000 0.3834 0.3834 0.3831 0.4341 0.4646
1102.000000 0.4950 0.5274 0.5420 0.5450 0.5469
1107.000000 0.5482 0.5486 0.5490 0.5497 0.5489
1112.000000 0.5487 0.5485 0.5483 0.5480 0.5477
1117.000000 0.5473 0.5470 0.5466 0.5463 0.5459
1122.000000 0.5455 0.5452 0.5448 0.5445 0.5441
1127.000000 0.5437 0.5434 0.5430 0.5426 0.5419
1132.000000 0.5411 0.5404 0.5387 0.5373 0.5369
1137.000000 0.5367 0.5365 0.5364 0.5362 0.5360
1142.000000 0.5358 0.5355 0.5349 0.5343 0.5336
1147.000000 0.5318 0.5292 0.5253 0.5222 0.5212
1152.000000 0.5209 0.5207 0.5204 0.5200 0.5193
1157.000000 0.5185 0.5171 0.5156 0.5129 0.5106
1162.000000 0.5098 0.5093 0.5094 0.5094 0.5094
1167.000000 0.5095 0.5094 0.5091 0.5077 0.5061
1172.000000 0.5043 0.5022 0.4995 0.4967 0.4939
1177.000000 0.4911 0.4876 0.4826 0.4774 0.4720
1182.000000 0.4665 0.4611 0.4526 0.4358 0.3944
1187.000000 0.3767 0.3479 0.3184 0.2890 0.2596
1192.000000 0.2303 0.2010 0.1731 0.1628 0.1615
1197.000000 0.1816 0.2502 0.3187 0.3871 0.4554
1202.000000 0.5083 0.5064 0.5058 0.5023 0.4983
1207.000000 0.4991 0.4977 0.5075 0.5091 0.5100
1212.000000 0.5103 0.5103 0.5098 0.5085 0.5056
1217.000000 0.5001 0.4955 0.4864 0.4533 0.4305
1222.000000 0.4077 0.3849 0.3623 0.3397 0.3170
1227.000000 0.2977 0.2934 0.2930 0.3020 0.3304
1232.000000 0.3594 0.3885 0.4176 0.4465 0.4699
1237.000000 0.4735 0.4739 0.4742 0.4695 0.4592
1242.000000 0.4487 0.4382 0.4305 0.4303 0.4324
1247.000000 0.4381 0.4441 0.4463 0.4460 0.4443
1252.000000 0.4359 0.4261 0.4163 0.4064 0.3993
1257.000000 0.3963 0.3965 0.4128 0.4610 0.5091
1262.000000 0.5643 0.5781 0.5895 0.5929 0.5950
1267.000000 0.5961 0.5969 0.5974 0.5980 0.5983
1272.000000 0.5983 0.5982 0.5980 0.5976 0.5972
1277.000000 0.5968 0.5962 0.5955 0.5944 0.5934
1282.000000 0.5922 0.5904 0.5866 0.5829 0.5794
1287.000000 0.5758 0.5722 0.5686 0.5653 0.5628
1292.000000 0.5603 0.5577 0.5548 0.5519 0.5488
1297.000000 0.5443 0.5361 0.5235 0.5133 0.5053
1302.000000 0.4921 0.4785 0.4683 0.4568 0.4385
1307.000000 0.4119 0.3849 0.3631 0.3564 0.3404
1312.000000 0.3259 0.3221 0.3213 0.3214 0.3221
1317.000000 0.3380 0.3577 0.3775 0.3973 0.4170
1322.000000 0.4367 0.4564 0.4747 0.4860 0.4887
1327.000000 0.4902 0.4907 0.4908 0.4916 0.4903
1332.000000 0.4897 0.4883 0.4863 0.4836 0.4768
1337.000000 0.4641 0.4389 0.4138 0.3886 0.3636
1342.000000 0.3386 0.3136 0.2886 0.2701 0.2664
1347.000000 0.2663 0.2662 0.2898 0.3104 0.3309
1352.000000 0.3465 0.3613 0.3694 0.3747 0.3845
1357.000000 0.4102 0.4413 0.4723 0.5033 0.5238
1362.000000 0.5314 0.5352 0.5367 0.5375 0.5381
1367.000000 0.5383 0.5384 0.5384 0.5382 0.5381
1372.000000 0.5381 0.5382 0.5382 0.5386 0.5405
1377.000000 0.5455 0.5733 0.5887 0.5937 0.5955
1382.000000 0.5969 0.5977 0.5980 0.5982 0.5986
1387.000000 0.5985 0.5985 0.5984 0.5983 0.5983
1392.000000 0.5980 0.5979 0.5978 0.5976 0.5974
1397.000000 0.5973 0.5971 0.5970 0.5978 0.5969
1402.000000 0.5968 0.5967 0.5967 0.5966 0.5966
1407.000000 0.5965 0.5964 0.5963 0.5962 0.5960
1412.000000 0.5959 0.5958 0.5957 0.5955 0.5953
1417.000000 0.5951 0.5939 0.5917 0.5890 0.5866
1422.000000 0.5841 0.5812 0.5782 0.5752 0.5720
1427.000000 0.5688 0.5655 0.5619 0.5585 0.5547
1432.000000 0.5506 0.5467 0.5436 0.5407 0.5375
1437.000000 0.5296 0.5135 0.5009 0.4889 0.4780
1442.000000 0.4715 0.4684 0.4660 0.4627 0.4530
1447.000000 0.4417 0.4305 0.4193 0.4080 0.3970
1452.000000 0.3899 0.3899 0.3894 0.4160 0.4370
1457.000000 0.4578 0.4763 0.4883 0.4950 0.4960
1462.000000 0.4961 0.4949 0.4891 0.4833 0.4775
1467.000000 0.4717 0.4659 0.4618 0.4581 0.4550
1472.000000 0.4529 0.4500 0.4464 0.4409 0.4309
1477.000000 0.4178 0.4084 0.3999 0.3918 0.3833
1482.000000 0.3344 0.2691 0.2040 0.1421 0.1115
1487.000000 0.1041 0.0965 0.0871 0.0710 0.0654
1492.000000 0.0639 0.0639 0.0627 0.0684 0.0755
1497.000000 0.0827 0.0899 0.0957 0.0955 0.0948
1502.000000 0.0905 0.0874 0.0843 0.0816 0.0813
1507.000000 0.0817 0.0814 0.1107 0.1491 0.1875
1512.000000 0.2258 0.2641 0.3023 0.3700 0.4120
1517.000000 0.4480 0.4838 0.5196 0.5553 0.5852
1522.000000 0.6018 0.6190 0.6282 0.6288 0.6297
1527.000000 0.6294 0.6285 0.6239 0.6183 0.6143
1532.000000 0.6103 0.6073 0.6047 0.6027 0.6015
1537.000000 0.6006 0.6002 0.5999 0.5994 0.5987
1542.000000 0.5979 0.5970 0.5856 0.5765 0.5705
1547.000000 0.5652 0.5602 0.5540 0.5501 0.5472
1552.000000 0.5452 0.5434 0.5422 0.5417 0.5415
1557.000000 0.5413 0.5412 0.5411 0.5410 0.5395
1562.000000 0.5318 0.5222 0.5150 0.5081 0.5020
1567.000000 0.4965 0.4919 0.4875 0.4782 0.4639
1572.000000 0.4564 0.4529 0.4493 0.4458 0.4416
1577.000000 0.4368 0.4318 0.4245 0.4141 0.3962
1582.000000 0.3758 0.3555 0.3352 0.3149 0.2909
1587.000000 0.2682 0.2465 0.2249 0.2034 0.1818
1592.000000 0.1603 0.1388 0.1174 0.0959 0.0745
1597.000000 0.0584 0.0509 0.0464 0.0463 0.0461
1602.000000 0.0516 0.0733 0.1081 0.1429 0.1778
1607.000000 0.2125 0.2446 0.2639 0.2639 0.2638
1612.000000 0.2629 0.2562 0.2425 0.2288 0.2151
1617.000000 0.2014 0.1878 0.1742 0.1606 0.1469
1622.000000 0.1333 0.1198 0.1062 0.0927 0.0791
1627.000000 0.0656 0.0521 0.0433 0.0431 0.0442
1632.000000 0.0492 0.0583 0.0673 0.0763 0.0843
1637.000000 0.1039 0.1339 0.1662 0.1985 0.2244
1642.000000 0.2372 0.2656 0.3104 0.3240 0.3339
1647.000000 0.3418 0.3470 0.3523 0.3595 0.3708
1652.000000 0.3846 0.3943 0.4013 0.4081 0.4148
1657.000000 0.4215 0.4282 0.4349 0.4416 0.4441
1662.000000 0.4518 0.4565 0.4604 0.4654 0.4705
1667.000000 0.4748 0.4789 0.4839 0.4885 0.4910
1672.000000 0.4933 0.4957 0.4980 0.5000 0.5018
1677.000000 0.5035 0.5053 0.5067 0.5076 0.5086
1682.000000 0.5096 0.5101 0.5103 0.5117 0.5107
1687.000000 0.5107 0.5105 0.5101 0.5096 0.5089
1692.000000 0.5080 0.5071 0.5059 0.5042 0.5026
1697.000000 0.5008 0.4990 0.4980 0.4974 0.4969
1702.000000 0.4966 0.4966 0.4966 0.4968 0.4971
1707.000000 0.4972 0.4971 0.4968 0.4962 0.4956
1712.000000 0.4949 0.4940 0.4932 0.4927 0.4928
1717.000000 0.4931 0.4923 0.4946 0.4956 0.4966
1722.000000 0.4977 0.4987 0.4996 0.5005 0.5015
1727.000000 0.5024 0.5033 0.5043 0.5053 0.5062
1732.000000 0.5072 0.5082 0.5092 0.5106 0.5120
1737.000000 0.5134 0.5149 0.5163 0.5177 0.5192
1742.000000 0.5207 0.5222 0.5237 0.5252 0.5266
1747.000000 0.5281 0.5297 0.5316 0.5337 0.5358
1752.000000 0.5378 0.5399 0.5424 0.5455 0.5489
1757.000000 0.5524 0.5571 0.5598 0.5611 0.5619
1762.000000 0.5623 0.5627 0.5632 0.5636 0.5639
1767.000000 0.5641 0.5643 0.5645 0.5647 0.5649
1772.000000 0.5651 0.5652 0.5654 0.5656 0.5657
1777.000000 0.5658 0.5658 0.5660 0.5661 0.5662
1782.000000 0.5664 0.5664 0.5665 0.5666 0.5668
1787.000000 0.5666 0.5670 0.5671 0.5672 0.5672
1792.000000 0.5672 0.5673 0.5673 0.5674 0.5675
1797.000000 0.5675 0.5676 0.5677 0.5678 0.5678
1802.000000 0.5679 0.5680 0.5681 0.5682 0.5693
1807.000000 0.5701 0.5708 0.5716 0.5723 0.5727
1812.000000 0.5729 0.5730 0.5727 0.5722 0.5715
1817.000000 0.5709 0.5702 0.5694 0.5685 0.5675
1822.000000 0.5664 0.5652 0.5637 0.5619 0.5599
1827.000000 0.5575 0.5547 0.5514 0.5478 0.5451
1832.000000 0.5426 0.5404 0.5381 0.5359 0.5338
1837.000000 0.5318 0.5301 0.5286 0.5279 0.5281
1842.000000 0.5282 0.5284 0.5285 0.5286 0.5288
1847.000000 0.5272 0.5291 0.5292 0.5294 0.5298
1852.000000 0.5303 0.5310 0.5316 0.5327 0.5345
1857.000000 0.5366 0.5385 0.5402 0.5419 0.5434
1862.000000 0.5451 0.5468 0.5488 0.5517 0.5549
1867.000000 0.5581 0.5636 0.5708 0.5785 0.5813
1872.000000 0.5833 0.5845 0.5849 0.5853 0.5858
1877.000000 0.5863 0.5864 0.5865 0.5865 0.5865
1882.000000 0.5866 0.5864 0.5874 0.5859 0.5857
1887.000000 0.5854 0.5849 0.5842 0.5826 0.5794
1892.000000 0.5772 0.5752 0.5732 0.5716 0.5702
1897.000000 0.5691 0.5685 0.5679 0.5674 0.5668
1902.000000 0.5663 0.5651 0.5629 0.5589 0.5549
1907.000000 0.5508 0.5468 0.5427 0.5387 0.5346
1912.000000 0.5306 0.5266 0.5225 0.5206 0.5192
1917.000000 0.5171 0.5138 0.5104 0.5072 0.5050
1922.000000 0.5031 0.5014 0.5001 0.4988 0.4976
1927.000000 0.4966 0.4957 0.4950 0.4941 0.4953
1932.000000 0.4956 0.4968 0.4989 0.5018 0.5047
1937.000000 0.5076 0.5105 0.5134 0.5163 0.5192
1942.000000 0.5221 0.5250 0.5278 0.5307 0.5336
1947.000000 0.5364 0.5393 0.5422 0.5450 0.5479
1952.000000 0.5511 0.5549 0.5566 0.5577 0.5586
1957.000000 0.5591 0.5595 0.5599 0.5602 0.5605
1962.000000 0.5605 0.5605 0.5606 0.5606 0.5604
1967.000000 0.5606 0.5597 0.5589 0.5575 0.5560
1972.000000 0.5545 0.5533 0.5520 0.5508 0.5496
1977.000000 0.5482 0.5468 0.5453 0.5438 0.5422
1982.000000 0.5404 0.5387 0.5369 0.5350 0.5331
1987.000000 0.5309 0.5285 0.5261 0.5236 0.5212
1992.000000 0.5186 0.5157 0.5129 0.5100 0.5072
1997.000000 0.5045 0.5020 0.4995 0.4971 0.4931
2002.000000 0.4886 0.4832 0.4809 0.4792 0.4776
2007.000000 0.4757 0.4738 0.4723 0.4711 0.4706
2012.000000 0.4690 0.4702 0.4703 0.4714 0.4737
2017.000000 0.4771 0.4806 0.4842 0.4877 0.4912
2022.000000 0.4947 0.4983 0.5018 0.5053 0.5088
2027.000000 0.5123 0.5154 0.5177 0.5191 0.5203
2032.000000 0.5214 0.5224 0.5232 0.5239 0.5247
2037.000000 0.5253 0.5260 0.5266 0.5271 0.5275
2042.000000 0.5279 0.5282 0.5284 0.5287 0.5290
2047.000000 0.5292 0.5296 0.5302 0.5307 0.5313
2052.000000 0.5322 0.5333 0.5346 0.5353 0.5357
2057.000000 0.5362 0.5366 0.5369 0.5371 0.5373
2062.000000 0.5376 0.5378 0.5381 0.5384 0.5385
2067.000000 0.5387 0.5388 0.5388 0.5389 0.5390
2072.000000 0.5391 0.5392 0.5393 0.5394 0.5394
2077.000000 0.5395 0.5396 0.5397 0.5398 0.5398
2082.000000 0.5399 0.5399 0.5399 0.5399 0.5400
2087.000000 0.5401 0.5401 0.5402 0.5402 0.5403
2092.000000 0.5403 0.5404 0.5405 0.5405 0.5406
2097.000000 0.5406 0.5407 0.5407 0.5408 0.5409
2102.000000 0.5409 0.5410 0.5410 0.5410 0.5410
2107.000000 0.5411 0.5411 0.5411 0.5412 0.5412
2112.000000 0.5412 0.5412 0.5413 0.5413 0.5413
2117.000000 0.5413 0.5413 0.5414 0.5414 0.5414
2122.000000 0.5414 0.5415 0.5415 0.5415 0.5415
2127.000000 0.5415 0.5415 0.5415 0.5415 0.5415
2132.000000 0.5416 0.5416 0.5416 0.5416 0.5416
2137.000000 0.5416 0.5416 0.5416 0.5416 0.5416
2142.000000 0.5416 0.5416 0.5416 0.5416 0.5415
2147.000000 0.5415 0.5415 0.5415 0.5415 0.5415
2152.000000 0.5415 0.5415 0.5418 0.5415 0.5414
2157.000000 0.5414 0.5414 0.5413 0.5413 0.5412
2162.000000 0.5412 0.5411 0.5411 0.5410 0.5409
2167.000000 0.5408 0.5408 0.5406 0.5404 0.5401
2172.000000 0.5399 0.5396 0.5393 0.5391 0.5388
2177.000000 0.5385 0.5383 0.5380 0.5377 0.5373
2182.000000 0.5368 0.5363 0.5358 0.5353 0.5348
2187.000000 0.5343 0.5338 0.5333 0.5328 0.5323
2192.000000 0.5319 0.5315 0.5311 0.5307 0.5303
2197.000000 0.5299 0.5295 0.5292 0.5287 0.5284
2202.000000 0.5282 0.5281 0.5279 0.5277 0.5275
2207.000000 0.5274 0.5272 0.5271 0.5269 0.5268
2212.000000 0.5266 0.5265 0.5263 0.5259 0.5252
2217.000000 0.5247 0.5241 0.5235 0.5229 0.5223
2222.000000 0.5217 0.5212 0.5208 0.5204 0.5200
2227.000000 0.5197 0.5194 0.5193 0.5192 0.5191
2232.000000 0.5190 0.5189 0.5188 0.5187 0.5186
2237.000000 0.5185 0.5185 0.5184 0.5183 0.5182
2242.000000 0.5181 0.5180 0.5179 0.5178 0.5177
2247.000000 0.5176 0.5175 0.5175 0.5175 0.5174
2252.000000 0.5174 0.5173 0.5173 0.5172 0.5172
2257.000000 0.5171 0.5171 0.5170 0.5170 0.5169
2262.000000 0.5169 0.5168 0.5168 0.5166 0.5162
2267.000000 0.5158 0.5153 0.5148 0.5143 0.5138
2272.000000 0.5132 0.5126 0.5120 0.5114 0.5108
2277.000000 0.5102 0.5094 0.5087 0.5080 0.5074
2282.000000 0.5067 0.5060 0.5052 0.5044 0.5035
2287.000000 0.5025 0.5016 0.5007 0.4998 0.4988
2292.000000 0.4979 0.4970 0.4961 0.4952 0.4943
2297.000000 0.4934 0.4925 0.4916 0.4907 0.4898
2302.000000 0.4889 0.4881 0.4873 0.4864 0.4856
2307.000000 0.4848 0.4840 0.4832 0.4825 0.4819
2312.000000 0.4815 0.4810 0.4805 0.4800 0.4795
2317.000000 0.4790 0.4786 0.4781 0.4776 0.4771
2322.000000 0.4766 0.4761 0.4757 0.4752 0.4747
2327.000000 0.4742 0.4737 0.4730 0.4724 0.4718
2332.000000 0.4711 0.4705 0.4698 0.4692 0.4685
2337.000000 0.4679 0.4673 0.4666 0.4660 0.4653
2342.000000 0.4647 0.4641 0.4634 0.4628 0.4622
2347.000000 0.4616 0.4610 0.4603 0.4599 0.4596
2352.000000 0.4594 0.4592 0.4590 0.4588 0.4586
2357.000000 0.4584 0.4582 0.4580 0.4578 0.4576
2362.000000 0.4574 0.4571 0.4570 0.4568 0.4566
2367.000000 0.4563 0.4561 0.4560 0.4558 0.4557
2372.000000 0.4555 0.4555 0.4554 0.4552 0.4551
2377.000000 0.4549 0.4548 0.4546 0.4542 0.4539
2382.000000 0.4536 0.4533 0.4529 0.4525 0.4520
2387.000000 0.4514 0.4508 0.4501 0.4495 0.4488
2392.000000 0.4482 0.4473 0.4464 0.4454 0.4443
2397.000000 0.4433 0.4423 0.4413 0.4403 0.4393
2402.000000 0.4383 0.4374 0.4364 0.4354 0.4344
2407.000000 0.4335 0.4325 0.4315 0.4305 0.4296
2412.000000 0.4287 0.4279 0.4270 0.4262 0.4254
2417.000000 0.4245 0.4237 0.4228 0.4220 0.4211
2422.000000 0.4203 0.4195 0.4187 0.4178 0.4170
2427.000000 0.4162 0.4152 0.4141 0.4130 0.4119
2432.000000 0.4107 0.4096 0.4085 0.4073 0.4062
2437.000000 0.4050 0.4039 0.4027 0.4015 0.4004
2442.000000 0.3993 0.3981 0.3970 0.3959 0.3948
2447.000000 0.3936 0.3924 0.3911 0.3897 0.3882
2452.000000 0.3867 0.3851 0.3836 0.3821 0.3805
2457.000000 0.3791 0.3776 0.3760 0.3745 0.3730
2462.000000 0.3715 0.3699 0.3684 0.3669 0.3654
2467.000000 0.3638 0.3623 0.3608 0.3593 0.3578
2472.000000 0.3563 0.3547 0.3532 0.3517 0.3502
2477.000000 0.3487 0.3472 0.3457 0.3442 0.3427
2482.000000 0.3412 0.3397 0.3382 0.3368 0.3353
2487.000000 0.3339 0.3324 0.3310 0.3296 0.3282
2492.000000 0.3267 0.3253 0.3239 0.3225 0.3201
2497.000000 0.3178 0.3155 0.3132 0.3109 0.3085
2502.000000 0.3062 0.3039 0.3016 0.2994 0.2971
2507.000000 0.2949 0.2927 0.2905 0.2882 0.2861
2512.000000 0.2840 0.2819 0.2801 0.2782 0.2763
2517.000000 0.2744 0.2725 0.2706 0.2688 0.2669
2522.000000 0.2650 0.2631 0.2612 0.2593 0.2574
2527.000000 0.2555 0.2536 0.2516 0.2497 0.2477
2532.000000 0.2458 0.2439 0.2420 0.2400 0.2384
2537.000000 0.2370 0.2356 0.2343 0.2330 0.2317
2542.000000 0.2303 0.2290 0.2276 0.2263 0.2250
2547.000000 0.2237 0.2223 0.2210 0.2197 0.2184
2552.000000 0.2168 0.2153 0.2138 0.2123 0.2108
2557.000000 0.2093 0.2078 0.2063 0.2048 0.2033
2562.000000 0.2016 0.1997 0.1978 0.1960 0.1941
2567.000000 0.1923 0.1904 0.1885 0.1868 0.1850
2572.000000 0.1833 0.1819 0.1806 0.1792 0.1778
2577.000000 0.1765 0.1751 0.1738 0.1724 0.1711
2582.000000 0.1697 0.1683 0.1669 0.1655 0.1640
2587.000000 0.1624 0.1608 0.1593 0.1577 0.1561
2592.000000 0.1545 0.1529 0.1514 0.1498 0.1482
2597.000000 0.1469 0.1456 0.1443 0.1431 0.1419
2602.000000 0.1407 0.1395 0.1383 0.1372 0.1361
2607.000000 0.1349 0.1337 0.1326 0.1314 0.1302
2612.000000 0.1290 0.1279 0.1268 0.1256 0.1246
2617.000000 0.1235 0.1224 0.1213 0.1202 0.1192
2622.000000 0.1181 0.1171 0.1160 0.1149 0.1138
2627.000000 0.1126 0.1115 0.1103 0.1091 0.1079
2632.000000 0.1066 0.1054 0.1041 0.1029 0.1016
2637.000000 0.1004 0.0992 0.0979 0.0966 0.0954
2642.000000 0.0942 0.0930 0.0919 0.0908 0.0897
2647.000000 0.0886 0.0876 0.0865 0.0854 0.0844
2652.000000 0.0833 0.0822 0.0811 0.0800 0.0789
2657.000000 0.0779 0.0769 0.0759 0.0750 0.0740
2662.000000 0.0731 0.0722 0.0713 0.0704 0.0695
2667.000000 0.0687 0.0678 0.0670 0.0661 0.0653
2672.000000 0.0646 0.0639 0.0632 0.0626 0.0620
2677.000000 0.0614 0.0608 0.0602 0.0596 0.0590
2682.000000 0.0585 0.0580 0.0575 0.0570 0.0565
2687.000000 0.0560 0.0554 0.0549 0.0545 0.0540
2692.000000 0.0535 0.0529 0.0524 0.0519 0.0514
2697.000000 0.0509 0.0504 0.0499 0.0495 0.0491
2702.000000 0.0486 0.0482 0.0478 0.0474 0.0470
2707.000000 0.0466 0.0462 0.0458 0.0454 0.0450
2712.000000 0.0445 0.0441 0.0437 0.0433 0.0429
2717.000000 0.0425 0.0422 0.0419 0.0416 0.0414
2722.000000 0.0412 0.0410 0.0408 0.0406 0.0403
2727.000000 0.0401 0.0399 0.0397 0.0395 0.0393
2732.000000 0.0391 0.0389 0.0386 0.0384 0.0382
2737.000000 0.0380 0.0378 0.0376 0.0374 0.0372
2742.000000 0.0370 0.0368 0.0366 0.0364 0.0363
2747.000000 0.0361 0.0359 0.0358 0.0356 0.0354
2752.000000 0.0353 0.0351 0.0350 0.0348 0.0347
2757.000000 0.0346 0.0345 0.0344 0.0343 0.0341
2762.000000 0.0340 0.0347 0.0339 0.0339 0.0339
2767.000000 0.0340 0.0341 0.0342 0.0343 0.0344
2772.000000 0.0345 0.0346 0.0347 0.0348 0.0349
2777.000000 0.0350 0.0352 0.0353 0.0354 0.0355
2782.000000 0.0356 0.0357 0.0358 0.0359 0.0359
2787.000000 0.0360 0.0361 0.0362 0.0363 0.0366
2792.000000 0.0369 0.0373 0.0376 0.0379 0.0382
2797.000000 0.0385 0.0388 0.0390 0.0392 0.0394
2802.000000 0.0396 0.0398 0.0400 0.0401 0.0403
2807.000000 0.0404 0.0406 0.0407 0.0407 0.0407
2812.000000 0.0407 0.0406 0.0405 0.0405 0.0404
2817.000000 0.0403 0.0403 0.0402 0.0402 0.0401
2822.000000 0.0400 0.0400 0.0400 0.0399 0.0399
2827.000000 0.0399 0.0399 0.0399 0.0399 0.0399
2832.000000 0.0399 0.0399 0.0399 0.0399 0.0399
2837.000000 0.0399 0.0400 0.0401 0.0402 0.0404
2842.000000 0.0406 0.0408 0.0410 0.0413 0.0415
2847.000000 0.0418 0.0420 0.0422 0.0425 0.0428
2852.000000 0.0432 0.0435 0.0439 0.0444 0.0450
2857.000000 0.0455 0.0459 0.0463 0.0467 0.0471
2862.000000 0.0474 0.0478 0.0481 0.0484 0.0488
2867.000000 0.0491 0.0492 0.0494 0.0496 0.0498
2872.000000 0.0500 0.0501 0.0503 0.0505 0.0507
2877.000000 0.0509 0.0510 0.0510 0.0511 0.0512
2882.000000 0.0513 0.0513 0.0514 0.0514 0.0515
2887.000000 0.0516 0.0516 0.0517 0.0517 0.0518
2892.000000 0.0519 0.0519 0.0520 0.0520 0.0521
2897.000000 0.0522 0.0522 0.0523 0.0523 0.0524
2902.000000 0.0524 0.0524 0.0525 0.0525 0.0525
2907.000000 0.0525 0.0525 0.0525 0.0525 0.0526
2912.000000 0.0526 0.0526 0.0527 0.0527 0.0527
2917.000000 0.0527 0.0528 0.0528 0.0528 0.0528
2922.000000 0.0528 0.0528 0.0529 0.0529 0.0529
2927.000000 0.0529 0.0530 0.0530 0.0530 0.0531
2932.000000 0.0531 0.0532 0.0532 0.0533 0.0534
2937.000000 0.0534 0.0535 0.0535 0.0536 0.0536
2942.000000 0.0537 0.0538 0.0538 0.0539 0.0539
2947.000000 0.0540 0.0540 0.0542 0.0543 0.0545
2952.000000 0.0546 0.0547 0.0548 0.0549 0.0551
2957.000000 0.0552 0.0554 0.0555 0.0557 0.0559
2962.000000 0.0560 0.0564 0.0568 0.0571 0.0575
2967.000000 0.0577 0.0580 0.0583 0.0586 0.0588
2972.000000 0.0591 0.0593 0.0596 0.0598 0.0601
2977.000000 0.0603 0.0606 0.0608 0.0610 0.0612
2982.000000 0.0613 0.0615 0.0616 0.0617 0.0618
2987.000000 0.0619 0.0620 0.0621 0.0622 0.0623
2992.000000 0.0623 0.0623 0.0623 0.0624 0.0624
2997.000000 0.0624 0.0624 0.0624 0.0624 0.0624
3002.000000 0.0623 0.0623 0.0623 0.0623 0.0623
3007.000000 0.0623 0.0623 0.0623 0.0623 0.0623
3012.000000 0.0623 0.0623 0.0623 0.0623 0.0623
3017.000000 0.0623 0.0623 0.0623 0.0624 0.0624
3022.000000 0.0625 0.0626 0.0628 0.0630 0.0632
3027.000000 0.0636 0.0641 0.0647 0.0653 0.0660
3032.000000 0.0668 0.0676 0.0684 0.0692 0.0700
3037.000000 0.0709 0.0720 0.0736 0.0752 0.0768
3042.000000 0.0787 0.0809 0.0830 0.0852 0.0874
3047.000000 0.0895 0.0917 0.0936 0.0949 0.0962
3052.000000 0.0974 0.0987 0.0999 0.1011 0.1024
3057.000000 0.1034 0.1044 0.1054 0.1064 0.1073
3062.000000 0.1083 0.1093 0.1102 0.1113 0.1124
3067.000000 0.1134 0.1143 0.1150 0.1157 0.1164
3072.000000 0.1166 0.1166 0.1166 0.1166 0.1166
3077.000000 0.1166 0.1166 0.1166 0.1166 0.1166
3082.000000 0.1166 0.1165 0.1165 0.1165 0.1165
3087.000000 0.1165 0.1165 0.1165 0.1165 0.1166
3092.000000 0.1168 0.1170 0.1172 0.1175 0.1178
3097.000000 0.1180 0.1183 0.1186 0.1189 0.1192
3102.000000 0.1196 0.1200 0.1204 0.1208 0.1214
3107.000000 0.1221 0.1229 0.1237 0.1246 0.1257
3112.000000 0.1267 0.1278 0.1287 0.1296 0.1305
3117.000000 0.1314 0.1318 0.1322 0.1326 0.1329
3122.000000 0.1331 0.1333 0.1335 0.1338 0.1337
3127.000000 0.1337 0.1337 0.1336 0.1336 0.1336
3132.000000 0.1336 0.1343 0.1335 0.1335 0.1335
3137.000000 0.1334 0.1334 0.1334 0.1334 0.1331
3142.000000 0.1325 0.1318 0.1311 0.1304 0.1295
3147.000000 0.1286 0.1278 0.1268 0.1255 0.1243
3152.000000 0.1231 0.1213 0.1187 0.1160 0.1134
3157.000000 0.1109 0.1085 0.1062 0.1038 0.1020
3162.000000 0.1011 0.1002 0.0993 0.0984 0.0977
3167.000000 0.0970 0.0963 0.0958 0.0954 0.0950
3172.000000 0.0947 0.0944 0.0942 0.0940 0.0938
3177.000000 0.0936 0.0936 0.0936 0.0936 0.0936
3182.000000 0.0936 0.0936 0.0936 0.0937 0.0937
3187.000000 0.0937 0.0937 0.0938 0.0938 0.0938
3192.000000 0.0938 0.0939 0.0939 0.0939 0.0939
3197.000000 0.0940 0.0940 0.0940 0.0940 0.0940
3202.000000 0.0941 0.0941 0.0941 0.0941 0.0941
3207.000000 0.0941 0.0941 0.0941 0.0942 0.0942
3212.000000 0.0942 0.0942 0.0942 0.0942 0.0942
3217.000000 0.0942 0.0941 0.0941 0.0941 0.0941
3222.000000 0.0940 0.0940 0.0939 0.0939 0.0938
3227.000000 0.0938 0.0938 0.0938 0.0937 0.0937
3232.000000 0.0937 0.0937 0.0937 0.0935 0.0933
3237.000000 0.0930 0.0928 0.0925 0.0922 0.0919
3242.000000 0.0916 0.0913 0.0908 0.0904 0.0900
3247.000000 0.0895 0.0891 0.0886 0.0882 0.0877
3252.000000 0.0873 0.0868 0.0863 0.0858 0.0854
3257.000000 0.0849 0.0844 0.0839 0.0834 0.0828
3262.000000 0.0823 0.0817 0.0812 0.0807 0.0801
3267.000000 0.0796 0.0790 0.0785 0.0780 0.0774
3272.000000 0.0769 0.0764 0.0759 0.0754 0.0749
3277.000000 0.0744 0.0740 0.0736 0.0731 0.0727
3282.000000 0.0722 0.0718 0.0714 0.0709 0.0705
3287.000000 0.0701 0.0697 0.0692 0.0688 0.0684
3292.000000 0.0679 0.0675 0.0671 0.0666 0.0662
3297.000000 0.0658 0.0653 0.0650 0.0646 0.0643
3302.000000 0.0639 0.0636 0.0633 0.0630 0.0626
3307.000000 0.0623 0.0620 0.0617 0.0614 0.0610
3312.000000 0.0608 0.0605 0.0603 0.0600 0.0598
3317.000000 0.0598 0.0597 0.0596 0.0596 0.0595
3322.000000 0.0594 0.0593 0.0593 0.0592 0.0592
3327.000000 0.0592 0.0592 0.0591 0.0591 0.0591
3332.000000 0.0591 0.0591 0.0591 0.0591 0.0591
3337.000000 0.0591 0.0591 0.0591 0.0591 0.0591
3342.000000 0.0591 0.0591 0.0591 0.0591 0.0591
3347.000000 0.0591 0.0591 0.0591 0.0591 0.0591
3352.000000 0.0591 0.0591 0.0591 0.0591 0.0591
3357.000000 0.0591 0.0591 0.0591 0.0591 0.0591
3362.000000 0.0591 0.0591 0.0591 0.0591 0.0591
3367.000000 0.0591 0.0591 0.0591 0.0591 0.0591
3372.000000 0.0591 0.0591 0.0591 0.0591 0.0591
3377.000000 0.0591 0.0591 0.0590 0.0590 0.0590
3382.000000 0.0590 0.0590 0.0590 0.0590 0.0590
3387.000000 0.0590 0.0589 0.0589 0.0589 0.0589
3392.000000 0.0589 0.0589 0.0589 0.0589 0.0589
3397.000000 0.0589 0.0589 0.0589 0.0589 0.0589
3402.000000 0.0588 0.0588 0.0588 0.0588 0.0588
3407.000000 0.0588 0.0588 0.0588 0.0588 0.0589
3412.000000 0.0589 0.0590 0.0590 0.0590 0.0572
3417.000000 0.0591 0.0592 0.0592 0.0593 0.0593
3422.000000 0.0593 0.0593 0.0593 0.0594 0.0594
3427.000000 0.0595 0.0596 0.0596 0.0597 0.0599
3432.000000 0.0600 0.0601 0.0602 0.0604 0.0605
3437.000000 0.0607 0.0608 0.0611 0.0616 0.0621
3442.000000 0.0626 0.0632 0.0638 0.0645 0.0652
3447.000000 0.0659 0.0666 0.0673 0.0680 0.0687
3452.000000 0.0694 0.0701 0.0711 0.0720 0.0730
3457.000000 0.0740 0.0749 0.0759 0.0769 0.0779
3462.000000 0.0789 0.0801 0.0816 0.0830 0.0844
3467.000000 0.0859 0.0873 0.0887 0.0902 0.0916
3472.000000 0.0930 0.0944 0.0957 0.0971 0.0984
3477.000000 0.0998 0.1010 0.1021 0.1033 0.1045
3482.000000 0.1058 0.1081 0.1105 0.1128 0.1152
3487.000000 0.1179 0.1218 0.1256 0.1295 0.1334
3492.000000 0.1372 0.1411 0.1450 0.1488 0.1527
3497.000000 0.1566 0.1604 0.1642 0.1681 0.1719
3502.000000 0.1757 0.1796 0.1834 0.1872 0.1911
3507.000000 0.1949 0.1987 0.2025 0.2063 0.2101
3512.000000 0.2140 0.2178 0.2216 0.2255 0.2293
3517.000000 0.2331 0.2369 0.2407 0.2445 0.2483
3522.000000 0.2521 0.2558 0.2596 0.2634 0.2672
3527.000000 0.2710 0.2748 0.2786 0.2824 0.2862
3532.000000 0.2899 0.2937 0.2975 0.3012 0.3050
3537.000000 0.3087 0.3125 0.3163 0.3200 0.3238
3542.000000 0.3275 0.3313 0.3351 0.3388 0.3426
3547.000000 0.3463 0.3500 0.3538 0.3575 0.3612
3552.000000 0.3650 0.3687 0.3724 0.3761 0.3799
3557.000000 0.3836 0.3873 0.3910 0.3947 0.3984
3562.000000 0.4021 0.4058 0.4096 0.4133 0.4170
3567.000000 0.4207 0.4244 0.4281 0.4318 0.4355
3572.000000 0.4392 0.4428 0.4465 0.4502 0.4539
3577.000000 0.4571 0.4598 0.4625 0.4652 0.4679
3582.000000 0.4704 0.4725 0.4747 0.4769 0.4790
3587.000000 0.4812 0.4837 0.4861 0.4886 0.4910
3592.000000 0.4934 0.4944 0.4954 0.4964 0.4973
3597.000000 0.4983 0.4993 0.5003 0.5013 0.5023
3602.000000 0.5032 0.5042 0.5052 0.5062 0.5072
3607.000000 0.5082 0.5092 0.5102 0.5112 0.5122
3612.000000 0.5131 0.5141 0.5152 0.5162 0.5172
3617.000000 0.5182 0.5192 0.5209 0.5225 0.5241
3622.000000 0.5257 0.5273 0.5290 0.5307 0.5324
3627.000000 0.5340 0.5357 0.5368 0.5375 0.5381
3632.000000 0.5387 0.5394 0.5399 0.5402 0.5404
3637.000000 0.5407 0.5409 0.5411 0.5413 0.5415
3642.000000 0.5416 0.5418 0.5419 0.5420 0.5421
3647.000000 0.5423 0.5424 0.5425 0.5426 0.5426
3652.000000 0.5427 0.5427 0.5428 0.5429 0.5429
3657.000000 0.5430 0.5430 0.5431 0.5431 0.5432
3662.000000 0.5432 0.5432 0.5432 0.5432 0.5433
3667.000000 0.5433 0.5433 0.5433 0.5433 0.5433
3672.000000 0.5435 0.5433 0.5433 0.5433 0.5433
3677.000000 0.5432 0.5432 0.5432 0.5431 0.5431
3682.000000 0.5430 0.5430 0.5430 0.5429 0.5429
3687.000000 0.5429 0.5427 0.5424 0.5422 0.5420
3692.000000 0.5417 0.5414 0.5407 0.5400 0.5394
3697.000000 0.5387 0.5380 0.5372 0.5363 0.5354
3702.000000 0.5345 0.5337 0.5329 0.5323 0.5317
3707.000000 0.5311 0.5305 0.5300 0.5295 0.5290
3712.000000 0.5285 0.5281 0.5276 0.5271 0.5266
3717.000000 0.5261 0.5256 0.5252 0.5247 0.5241
3722.000000 0.5235 0.5229 0.5223 0.5217 0.5212
3727.000000 0.5210 0.5207 0.5205 0.5203 0.5200
3732.000000 0.5199 0.5198 0.5197 0.5196 0.5195
3737.000000 0.5194 0.5194 0.5193 0.5192 0.5192
3742.000000 0.5191 0.5190 0.5190 0.5190 0.5189
3747.000000 0.5189 0.5189 0.5188 0.5188 0.5187
3752.000000 0.5186 0.5186 0.5185 0.5185 0.5184
3757.000000 0.5184 0.5183 0.5183 0.5182 0.5182
3762.000000 0.5182 0.5182 0.5182 0.5182 0.5181
3767.000000 0.5181 0.5181 0.5181 0.5181 0.5180
3772.000000 0.5180 0.5180 0.5180 0.5180 0.5180
3777.000000 0.5178 0.5176 0.5174 0.5172 0.5170
3782.000000 0.5168 0.5165 0.5161 0.5158 0.5155
3787.000000 0.5151 0.5148 0.5143 0.5139 0.5134
3792.000000 0.5129 0.5124 0.5119 0.5113 0.5108
3797.000000 0.5102 0.5096 0.5090 0.5084 0.5079
3802.000000 0.5074 0.5069 0.5064 0.5058 0.5054
3807.000000 0.5050 0.5045 0.5041 0.5037 0.5032
3812.000000 0.5028 0.5024 0.5020 0.5015 0.5011
3817.000000 0.5006 0.5001 0.4996 0.4991 0.4986
3822.000000 0.4981 0.4975 0.4969 0.4963 0.4957
3827.000000 0.4951 0.4945 0.4939 0.4933 0.4928
3832.000000 0.4922 0.4916 0.4910 0.4903 0.4897
3837.000000 0.4890 0.4884 0.4878 0.4871 0.4865
3842.000000 0.4859 0.4853 0.4847 0.4841 0.4834
3847.000000 0.4830 0.4826 0.4821 0.4817 0.4813
3852.000000 0.4809 0.4805 0.4800 0.4796 0.4792
3857.000000 0.4788 0.4784 0.4780 0.4776 0.4773
3862.000000 0.4769 0.4765 0.4761 0.4758 0.4755
3867.000000 0.4752 0.4749 0.4746 0.4742 0.4739
3872.000000 0.4736 0.4732 0.4729 0.4726 0.4722
3877.000000 0.4719 0.4716 0.4712 0.4709 0.4706
3882.000000 0.4702 0.4699 0.4696 0.4693 0.4690
3887.000000 0.4687 0.4684 0.4680 0.4677 0.4674
3892.000000 0.4671 0.4668 0.4665 0.4662 0.4658
3897.000000 0.4655 0.4652 0.4649 0.4646 0.4643
3902.000000 0.4640 0.4638 0.4635 0.4632 0.4629
3907.000000 0.4627 0.4624 0.4622 0.4619 0.4617
3912.000000 0.4614 0.4612 0.4610 0.4607 0.4605
3917.000000 0.4603 0.4601 0.4598 0.4596 0.4594
3922.000000 0.4592 0.4589 0.4587 0.4585 0.4584
3927.000000 0.4583 0.4582 0.4581 0.4579 0.4578
3932.000000 0.4577 0.4576 0.4575 0.4574 0.4573
3937.000000 0.4573 0.4571 0.4570 0.4569 0.4568
3942.000000 0.4567 0.4566 0.4565 0.4563 0.4562
3947.000000 0.4561 0.4560 0.4559 0.4558 0.4558
3952.000000 0.4558 0.4557 0.4557 0.4557 0.4556
3957.000000 0.4554 0.4552 0.4551 0.4549 0.4547
3962.000000 0.4545 0.4542 0.4538 0.4534 0.4530
3967.000000 0.4526 0.4522 0.4519 0.4515 0.4511
3972.000000 0.4507 0.4503 0.4500 0.4496 0.4492
3977.000000 0.4488 0.4484 0.4481 0.4477 0.4473
3982.000000 0.4469 0.4466 0.4462 0.4458 0.4454
3987.000000 0.4450 0.4447 0.4443 0.4439 0.4435
3992.000000 0.4432 0.4428 0.4424 0.4421 0.4418
3997.000000 0.4415 0.4412 0.4409 0.4407
##END=
