##TITLE=Strontium lactate
##JCAMP-DX=4.24
$$ By DXEDIT 1.05 (RS McDonald)
##DATA TYPE=INFRARED SPECTRUM
##CLASS=COBLENTZ III
##ORIGIN=DOW CHEMICAL COMPANY
##OWNER=COPYRIGHT (C) 1988 by COBLENTZ SOCIETY INC.
Collection (C) 2018 copyright by the U.S. Secretary of Commerce
on behalf of the United States of America. All rights reserved.
##DATE=1963/10/15
##MOLFORM=C6 H10 O6 Sr
##SOURCE REFERENCE=COBLENTZ NO. 06710
##$NIST ID=B6006710
##$NIST SOURCE=COBLENTZ
##$NIST IMAGE=cob6710
##SPECTROMETER/DATA SYSTEM=BECKMAN IR-9 (GRATING)
##INSTRUMENT PARAMETERS=ORDER CHANGES: 670, 1200, 2000 CM^-^1
##STATE=SOLID (SPLIT MULL)
##SAMPLING PROCEDURE=TRANSMISSION
##RESOLUTION=2
##DATA PROCESSING=DIGITIZED BY COBLENTZ SOCIETY (BATCH I) FROM HARD COPY
##XUNITS=1/CM
##YUNITS=TRANSMITTANCE
##XFACTOR=1
##YFACTOR=1
##DELTAX=1
##FIRSTX=3800
##LASTX=400
##FIRSTY=0.9575
##MAXX=3800
##MINX=400
##MAXY=1.0043
##MINY=0.0315
##NPOINTS=3401
##XYDATA=(X++(Y..Y))
3800.000000 0.9575 0.9575 0.9575 0.9575 0.9577
3795.000000 0.9578 0.9578 0.9580 0.9581 0.9581
3790.000000 0.9582 0.9583 0.9584 0.9584 0.9585
3785.000000 0.9586 0.9587 0.9588 0.9589 0.9589
3780.000000 0.9590 0.9591 0.9592 0.9593 0.9594
3775.000000 0.9594 0.9595 0.9596 0.9597 0.9597
3770.000000 0.9598 0.9599 0.9600 0.9601 0.9602
3765.000000 0.9602 0.9603 0.9604 0.9605 0.9605
3760.000000 0.9606 0.9607 0.9608 0.9609 0.9610
3755.000000 0.9610 0.9611 0.9612 0.9613 0.9613
3750.000000 0.9614 0.9614 0.9615 0.9615 0.9615
3745.000000 0.9616 0.9617 0.9617 0.9618 0.9618
3740.000000 0.9620 0.9621 0.9621 0.9623 0.9624
3735.000000 0.9625 0.9625 0.9627 0.9628 0.9628
3730.000000 0.9630 0.9630 0.9630 0.9630 0.9630
3725.000000 0.9628 0.9628 0.9628 0.9627 0.9625
3720.000000 0.9625 0.9624 0.9623 0.9621 0.9621
3715.000000 0.9620 0.9618 0.9618 0.9617 0.9616
3710.000000 0.9615 0.9614 0.9613 0.9611 0.9610
3705.000000 0.9607 0.9605 0.9602 0.9600 0.9597
3700.000000 0.9595 0.9592 0.9590 0.9587 0.9584
3695.000000 0.9580 0.9577 0.9573 0.9570 0.9566
3690.000000 0.9563 0.9560 0.9557 0.9553 0.9549
3685.000000 0.9544 0.9540 0.9535 0.9530 0.9525
3680.000000 0.9521 0.9516 0.9512 0.9507 0.9503
3675.000000 0.9498 0.9494 0.9488 0.9482 0.9475
3670.000000 0.9468 0.9462 0.9456 0.9449 0.9443
3665.000000 0.9435 0.9428 0.9418 0.9410 0.9401
3660.000000 0.9392 0.9383 0.9374 0.9365 0.9356
3655.000000 0.9347 0.9338 0.9325 0.9315 0.9303
3650.000000 0.9291 0.9278 0.9267 0.9254 0.9242
3645.000000 0.9228 0.9214 0.9195 0.9175 0.9157
3640.000000 0.9138 0.9118 0.9099 0.9078 0.9060
3635.000000 0.9040 0.9021 0.9001 0.8982 0.8962
3630.000000 0.8943 0.8923 0.8903 0.8882 0.8862
3625.000000 0.8841 0.8821 0.8801 0.8781 0.8760
3620.000000 0.8740 0.8720 0.8700 0.8680 0.8660
3615.000000 0.8640 0.8620 0.8600 0.8580 0.8560
3610.000000 0.8541 0.8524 0.8508 0.8492 0.8475
3605.000000 0.8459 0.8443 0.8427 0.8411 0.8394
3600.000000 0.8378 0.8361 0.8345 0.8325 0.8306
3595.000000 0.8286 0.8267 0.8247 0.8228 0.8208
3590.000000 0.8189 0.8168 0.8150 0.8128 0.8108
3585.000000 0.8088 0.8068 0.8047 0.8026 0.8006
3580.000000 0.7986 0.7965 0.7945 0.7925 0.7905
3575.000000 0.7882 0.7858 0.7836 0.7812 0.7790
3570.000000 0.7767 0.7743 0.7719 0.7697 0.7674
3565.000000 0.7651 0.7628 0.7604 0.7580 0.7554
3560.000000 0.7528 0.7501 0.7475 0.7450 0.7425
3555.000000 0.7399 0.7372 0.7346 0.7319 0.7293
3550.000000 0.7267 0.7240 0.7214 0.7187 0.7161
3545.000000 0.7134 0.7108 0.7064 0.7021 0.6975
3540.000000 0.6930 0.6886 0.6842 0.6798 0.6755
3535.000000 0.6711 0.6668 0.6626 0.6587 0.6546
3530.000000 0.6506 0.6467 0.6428 0.6392 0.6355
3525.000000 0.6318 0.6282 0.6244 0.6206 0.6167
3520.000000 0.6128 0.6089 0.6050 0.6010 0.5972
3515.000000 0.5933 0.5895 0.5856 0.5818 0.5765
3510.000000 0.5712 0.5680 0.5648 0.5607 0.5566
3505.000000 0.5539 0.5512 0.5505 0.5498 0.5494
3500.000000 0.5491 0.5487 0.5484 0.5480 0.5477
3495.000000 0.5474 0.5471 0.5467 0.5464 0.5460
3490.000000 0.5458 0.5455 0.5452 0.5449 0.5446
3485.000000 0.5439 0.5433 0.5423 0.5414 0.5394
3480.000000 0.5375 0.5357 0.5339 0.5321 0.5303
3475.000000 0.5282 0.5262 0.5246 0.5230 0.5216
3470.000000 0.5203 0.5189 0.5176 0.5162 0.5149
3465.000000 0.5135 0.5122 0.5108 0.5094 0.5080
3460.000000 0.5067 0.5052 0.5037 0.5020 0.5004
3455.000000 0.4988 0.4972 0.4956 0.4940 0.4923
3450.000000 0.4907 0.4891 0.4875 0.4858 0.4842
3445.000000 0.4826 0.4810 0.4790 0.4771 0.4752
3440.000000 0.4733 0.4714 0.4695 0.4676 0.4657
3435.000000 0.4637 0.4618 0.4600 0.4583 0.4565
3430.000000 0.4547 0.4529 0.4512 0.4494 0.4477
3425.000000 0.4459 0.4442 0.4424 0.4406 0.4389
3420.000000 0.4373 0.4356 0.4340 0.4323 0.4307
3415.000000 0.4290 0.4273 0.4256 0.4240 0.4223
3410.000000 0.4207 0.4191 0.4176 0.4162 0.4148
3405.000000 0.4134 0.4120 0.4106 0.4093 0.4079
3400.000000 0.4064 0.4052 0.4039 0.4026 0.4012
3395.000000 0.3999 0.3986 0.3973 0.3959 0.3947
3390.000000 0.3934 0.3923 0.3912 0.3900 0.3890
3385.000000 0.3879 0.3868 0.3857 0.3846 0.3834
3380.000000 0.3825 0.3814 0.3803 0.3792 0.3780
3375.000000 0.3771 0.3760 0.3753 0.3745 0.3736
3370.000000 0.3728 0.3720 0.3712 0.3704 0.3696
3365.000000 0.3687 0.3679 0.3671 0.3662 0.3655
3360.000000 0.3647 0.3638 0.3630 0.3624 0.3618
3355.000000 0.3610 0.3605 0.3599 0.3593 0.3586
3350.000000 0.3580 0.3573 0.3566 0.3560 0.3555
3345.000000 0.3549 0.3544 0.3539 0.3534 0.3529
3340.000000 0.3525 0.3520 0.3514 0.3509 0.3505
3335.000000 0.3500 0.3495 0.3490 0.3484 0.3480
3330.000000 0.3476 0.3471 0.3466 0.3462 0.3458
3325.000000 0.3455 0.3452 0.3448 0.3445 0.3441
3320.000000 0.3438 0.3434 0.3432 0.3428 0.3425
3315.000000 0.3422 0.3418 0.3414 0.3412 0.3409
3310.000000 0.3407 0.3405 0.3403 0.3400 0.3398
3305.000000 0.3395 0.3393 0.3390 0.3388 0.3386
3300.000000 0.3384 0.3380 0.3379 0.3376 0.3374
3295.000000 0.3372 0.3370 0.3366 0.3364 0.3362
3290.000000 0.3359 0.3358 0.3357 0.3356 0.3355
3285.000000 0.3354 0.3353 0.3352 0.3350 0.3350
3280.000000 0.3349 0.3348 0.3347 0.3346 0.3345
3275.000000 0.3344 0.3343 0.3342 0.3341 0.3340
3270.000000 0.3339 0.3338 0.3337 0.3336 0.3336
3265.000000 0.3336 0.3336 0.3336 0.3336 0.3336
3260.000000 0.3336 0.3336 0.3337 0.3337 0.3337
3255.000000 0.3337 0.3337 0.3337 0.3337 0.3337
3250.000000 0.3337 0.3337 0.3337 0.3337 0.3338
3245.000000 0.3338 0.3338 0.3338 0.3338 0.3338
3240.000000 0.3338 0.3338 0.3338 0.3340 0.3342
3235.000000 0.3344 0.3347 0.3349 0.3350 0.3353
3230.000000 0.3356 0.3358 0.3360 0.3362 0.3366
3225.000000 0.3368 0.3372 0.3374 0.3377 0.3380
3220.000000 0.3382 0.3386 0.3390 0.3393 0.3397
3215.000000 0.3400 0.3403 0.3406 0.3409 0.3412
3210.000000 0.3416 0.3420 0.3424 0.3427 0.3430
3205.000000 0.3432 0.3437 0.3440 0.3444 0.3447
3200.000000 0.3450 0.3455 0.3459 0.3464 0.3468
3195.000000 0.3474 0.3479 0.3482 0.3488 0.3492
3190.000000 0.3497 0.3500 0.3506 0.3510 0.3516
3185.000000 0.3520 0.3525 0.3530 0.3534 0.3539
3180.000000 0.3544 0.3549 0.3554 0.3558 0.3562
3175.000000 0.3568 0.3573 0.3577 0.3582 0.3586
3170.000000 0.3591 0.3596 0.3602 0.3609 0.3618
3165.000000 0.3626 0.3634 0.3643 0.3650 0.3659
3160.000000 0.3666 0.3679 0.3692 0.3705 0.3718
3155.000000 0.3730 0.3744 0.3757 0.3770 0.3782
3150.000000 0.3796 0.3807 0.3818 0.3829 0.3840
3145.000000 0.3850 0.3860 0.3872 0.3882 0.3893
3140.000000 0.3904 0.3914 0.3925 0.3936 0.3947
3135.000000 0.3960 0.3976 0.3991 0.4006 0.4020
3130.000000 0.4034 0.4050 0.4064 0.4080 0.4095
3125.000000 0.4108 0.4121 0.4134 0.4147 0.4159
3120.000000 0.4172 0.4185 0.4198 0.4210 0.4224
3115.000000 0.4237 0.4250 0.4262 0.4275 0.4291
3110.000000 0.4308 0.4325 0.4343 0.4360 0.4377
3105.000000 0.4394 0.4410 0.4430 0.4449 0.4472
3100.000000 0.4495 0.4518 0.4541 0.4564 0.4587
3095.000000 0.4610 0.4633 0.4656 0.4679 0.4697
3090.000000 0.4716 0.4732 0.4748 0.4764 0.4780
3085.000000 0.4796 0.4812 0.4828 0.4844 0.4860
3080.000000 0.4876 0.4892 0.4908 0.4927 0.4946
3075.000000 0.4965 0.4984 0.5003 0.5022 0.5041
3070.000000 0.5060 0.5076 0.5093 0.5109 0.5126
3065.000000 0.5140 0.5155 0.5170 0.5185 0.5200
3060.000000 0.5215 0.5229 0.5244 0.5258 0.5273
3055.000000 0.5288 0.5303 0.5318 0.5333 0.5348
3050.000000 0.5364 0.5380 0.5396 0.5412 0.5429
3045.000000 0.5445 0.5460 0.5476 0.5492 0.5503
3040.000000 0.5514 0.5523 0.5533 0.5543 0.5553
3035.000000 0.5559 0.5565 0.5567 0.5570 0.5570
3030.000000 0.5570 0.5568 0.5566 0.5560 0.5555
3025.000000 0.5547 0.5540 0.5531 0.5532 0.5509
3020.000000 0.5496 0.5481 0.5467 0.5454 0.5441
3015.000000 0.5422 0.5403 0.5372 0.5341 0.5251
3010.000000 0.5162 0.5129 0.5096 0.5036 0.4977
3005.000000 0.4912 0.4849 0.4812 0.4775 0.4752
3000.000000 0.4729 0.4715 0.4702 0.4694 0.4687
2995.000000 0.4683 0.4679 0.4679 0.4680 0.4685
2990.000000 0.4699 0.4709 0.4728 0.4781 0.4835
2985.000000 0.4910 0.4988 0.5067 0.5147 0.5204
2980.000000 0.5260 0.5315 0.5370 0.5410 0.5450
2975.000000 0.5479 0.5508 0.5534 0.5560 0.5584
2970.000000 0.5608 0.5627 0.5646 0.5662 0.5681
2965.000000 0.5692 0.5704 0.5704 0.5705 0.5700
2960.000000 0.5695 0.5680 0.5715 0.5649 0.5633
2955.000000 0.5617 0.5601 0.5588 0.5575 0.5564
2950.000000 0.5553 0.5544 0.5535 0.5529 0.5524
2945.000000 0.5524 0.5479 0.5530 0.5537 0.5552
2940.000000 0.5568 0.5583 0.5599 0.5612 0.5628
2935.000000 0.5641 0.5655 0.5669 0.5683 0.5696
2930.000000 0.5710 0.5726 0.5743 0.5760 0.5777
2925.000000 0.5793 0.5810 0.5822 0.5834 0.5845
2920.000000 0.5857 0.5868 0.5880 0.5892 0.5904
2915.000000 0.5915 0.5927 0.5938 0.5949 0.5956
2910.000000 0.5964 0.5971 0.5979 0.5986 0.5993
2905.000000 0.6000 0.6008 0.6015 0.6022 0.6029
2900.000000 0.6037 0.6044 0.6052 0.6059 0.6066
2895.000000 0.6073 0.6081 0.6087 0.6094 0.6100
2890.000000 0.6106 0.6112 0.6118 0.6124 0.6130
2885.000000 0.6137 0.6144 0.6151 0.6159 0.6166
2880.000000 0.6174 0.6181 0.6188 0.6196 0.6204
2875.000000 0.6212 0.6223 0.6232 0.6242 0.6251
2870.000000 0.6260 0.6271 0.6281 0.6290 0.6300
2865.000000 0.6309 0.6319 0.6330 0.6342 0.6355
2860.000000 0.6368 0.6381 0.6394 0.6407 0.6419
2855.000000 0.6434 0.6448 0.6464 0.6480 0.6495
2850.000000 0.6511 0.6526 0.6543 0.6558 0.6575
2845.000000 0.6597 0.6618 0.6641 0.6662 0.6684
2840.000000 0.6706 0.6728 0.6751 0.6772 0.6795
2835.000000 0.6817 0.6840 0.6861 0.6885 0.6901
2830.000000 0.6918 0.6928 0.6939 0.6949 0.6960
2825.000000 0.6969 0.6980 0.6990 0.7001 0.7011
2820.000000 0.7021 0.7031 0.7042 0.7051 0.7061
2815.000000 0.7071 0.7081 0.7091 0.7101 0.7111
2810.000000 0.7121 0.7130 0.7140 0.7148 0.7156
2805.000000 0.7164 0.7172 0.7181 0.7189 0.7197
2800.000000 0.7206 0.7214 0.7221 0.7230 0.7239
2795.000000 0.7247 0.7256 0.7264 0.7272 0.7281
2790.000000 0.7290 0.7298 0.7306 0.7311 0.7317
2785.000000 0.7322 0.7328 0.7335 0.7341 0.7346
2780.000000 0.7351 0.7356 0.7361 0.7362 0.7365
2775.000000 0.7365 0.7367 0.7368 0.7368 0.7369
2770.000000 0.7371 0.7371 0.7372 0.7372 0.7374
2765.000000 0.7375 0.7375 0.7380 0.7384 0.7387
2760.000000 0.7391 0.7394 0.7398 0.7401 0.7405
2755.000000 0.7411 0.7419 0.7426 0.7434 0.7441
2750.000000 0.7449 0.7456 0.7462 0.7471 0.7481
2745.000000 0.7489 0.7498 0.7507 0.7515 0.7524
2740.000000 0.7533 0.7542 0.7551 0.7558 0.7568
2735.000000 0.7576 0.7586 0.7594 0.7603 0.7611
2730.000000 0.7619 0.7628 0.7638 0.7646 0.7655
2725.000000 0.7664 0.7672 0.7681 0.7690 0.7699
2720.000000 0.7708 0.7718 0.7728 0.7740 0.7751
2715.000000 0.7762 0.7775 0.7786 0.7798 0.7810
2710.000000 0.7821 0.7833 0.7845 0.7856 0.7868
2705.000000 0.7878 0.7891 0.7901 0.7914 0.7925
2700.000000 0.7937 0.7948 0.7958 0.7968 0.7980
2695.000000 0.7987 0.7994 0.8001 0.8008 0.8015
2690.000000 0.8021 0.8028 0.8037 0.8044 0.8051
2685.000000 0.8058 0.8065 0.8071 0.8078 0.8081
2680.000000 0.8085 0.8089 0.8093 0.8096 0.8100
2675.000000 0.8104 0.8108 0.8111 0.8115 0.8118
2670.000000 0.8121 0.8125 0.8130 0.8133 0.8137
2665.000000 0.8143 0.8149 0.8157 0.8165 0.8171
2660.000000 0.8180 0.8188 0.8196 0.8203 0.8211
2655.000000 0.8218 0.8227 0.8234 0.8242 0.8249
2650.000000 0.8257 0.8265 0.8273 0.8280 0.8287
2645.000000 0.8293 0.8300 0.8306 0.8313 0.8318
2640.000000 0.8325 0.8331 0.8338 0.8344 0.8351
2635.000000 0.8357 0.8364 0.8370 0.8377 0.8383
2630.000000 0.8390 0.8396 0.8402 0.8408 0.8415
2625.000000 0.8421 0.8428 0.8434 0.8441 0.8447
2620.000000 0.8454 0.8460 0.8467 0.8473 0.8478
2615.000000 0.8485 0.8492 0.8498 0.8505 0.8512
2610.000000 0.8518 0.8525 0.8532 0.8538 0.8545
2605.000000 0.8551 0.8558 0.8564 0.8571 0.8577
2600.000000 0.8584 0.8590 0.8597 0.8603 0.8610
2595.000000 0.8616 0.8621 0.8627 0.8633 0.8638
2590.000000 0.8644 0.8649 0.8654 0.8659 0.8665
2585.000000 0.8670 0.8675 0.8681 0.8687 0.8692
2580.000000 0.8698 0.8702 0.8706 0.8709 0.8713
2575.000000 0.8716 0.8718 0.8721 0.8725 0.8728
2570.000000 0.8732 0.8734 0.8736 0.8736 0.8737
2565.000000 0.8737 0.8738 0.8738 0.8739 0.8739
2560.000000 0.8739 0.8738 0.8738 0.8737 0.8737
2555.000000 0.8737 0.8737 0.8736 0.8736 0.8735
2550.000000 0.8735 0.8734 0.8734 0.8732 0.8730
2545.000000 0.8728 0.8725 0.8724 0.8723 0.8721
2540.000000 0.8718 0.8717 0.8715 0.8713 0.8712
2535.000000 0.8711 0.8710 0.8710 0.8710 0.8712
2530.000000 0.8714 0.8716 0.8718 0.8720 0.8723
2525.000000 0.8725 0.8727 0.8728 0.8731 0.8734
2520.000000 0.8737 0.8741 0.8745 0.8749 0.8753
2515.000000 0.8757 0.8761 0.8765 0.8768 0.8773
2510.000000 0.8777 0.8780 0.8784 0.8787 0.8790
2505.000000 0.8793 0.8797 0.8800 0.8803 0.8806
2500.000000 0.8809 0.8812 0.8815 0.8816 0.8818
2495.000000 0.8818 0.8820 0.8821 0.8823 0.8824
2490.000000 0.8825 0.8827 0.8828 0.8831 0.8833
2485.000000 0.8834 0.8836 0.8838 0.8840 0.8842
2480.000000 0.8844 0.8845 0.8847 0.8848 0.8849
2475.000000 0.8850 0.8852 0.8853 0.8854 0.8855
2470.000000 0.8856 0.8857 0.8858 0.8859 0.8860
2465.000000 0.8861 0.8862 0.8862 0.8863 0.8863
2460.000000 0.8864 0.8864 0.8865 0.8865 0.8866
2455.000000 0.8866 0.8867 0.8867 0.8868 0.8868
2450.000000 0.8868 0.8868 0.8870 0.8870 0.8870
2445.000000 0.8868 0.8868 0.8868 0.8868 0.8867
2440.000000 0.8867 0.8866 0.8866 0.8865 0.8865
2435.000000 0.8865 0.8865 0.8866 0.8867 0.8868
2430.000000 0.8871 0.8874 0.8877 0.8880 0.8883
2425.000000 0.8885 0.8888 0.8892 0.8897 0.8902
2420.000000 0.8907 0.8911 0.8916 0.8921 0.8928
2415.000000 0.8934 0.8941 0.8947 0.8954 0.8960
2410.000000 0.8966 0.8971 0.8978 0.8985 0.8991
2405.000000 0.8997 0.9004 0.9010 0.9016 0.9021
2400.000000 0.9028 0.9035 0.9041 0.9047 0.9054
2395.000000 0.9057 0.9061 0.9063 0.9065 0.9067
2390.000000 0.9068 0.9068 0.9070 0.9070 0.9070
2385.000000 0.9068 0.9068 0.9066 0.9065 0.9064
2380.000000 0.9063 0.9062 0.9061 0.9060 0.9059
2375.000000 0.9058 0.9057 0.9056 0.9055 0.9054
2370.000000 0.9053 0.9053 0.9053 0.9054 0.9055
2365.000000 0.9057 0.9059 0.9061 0.9061 0.9061
2360.000000 0.9059 0.9056 0.9054 0.9052 0.9050
2355.000000 0.9048 0.9046 0.9043 0.9041 0.9039
2350.000000 0.9037 0.9034 0.9032 0.9030 0.9028
2345.000000 0.9025 0.9025 0.9023 0.9021 0.9018
2340.000000 0.9018 0.9018 0.9020 0.9021 0.9024
2335.000000 0.9025 0.9028 0.9031 0.9034 0.9036
2330.000000 0.9039 0.9041 0.9044 0.9046 0.9049
2325.000000 0.9051 0.9054 0.9056 0.9059 0.9061
2320.000000 0.9064 0.9066 0.9068 0.9071 0.9075
2315.000000 0.9077 0.9080 0.9082 0.9085 0.9087
2310.000000 0.9090 0.9092 0.9095 0.9097 0.9100
2305.000000 0.9102 0.9105 0.9107 0.9110 0.9112
2300.000000 0.9115 0.9118 0.9121 0.9123 0.9125
2295.000000 0.9128 0.9133 0.9137 0.9142 0.9146
2290.000000 0.9150 0.9154 0.9159 0.9163 0.9167
2285.000000 0.9171 0.9175 0.9180 0.9185 0.9189
2280.000000 0.9193 0.9197 0.9202 0.9206 0.9210
2275.000000 0.9214 0.9218 0.9223 0.9227 0.9231
2270.000000 0.9236 0.9240 0.9244 0.9248 0.9252
2265.000000 0.9255 0.9258 0.9261 0.9265 0.9268
2260.000000 0.9271 0.9274 0.9277 0.9280 0.9284
2255.000000 0.9287 0.9290 0.9293 0.9296 0.9299
2250.000000 0.9303 0.9306 0.9309 0.9312 0.9315
2245.000000 0.9318 0.9323 0.9325 0.9330 0.9333
2240.000000 0.9337 0.9341 0.9345 0.9348 0.9352
2235.000000 0.9356 0.9360 0.9363 0.9367 0.9371
2230.000000 0.9375 0.9378 0.9383 0.9387 0.9391
2225.000000 0.9395 0.9400 0.9404 0.9408 0.9412
2220.000000 0.9416 0.9420 0.9424 0.9428 0.9432
2215.000000 0.9436 0.9440 0.9444 0.9448 0.9451
2210.000000 0.9455 0.9458 0.9462 0.9465 0.9468
2205.000000 0.9471 0.9475 0.9478 0.9483 0.9486
2200.000000 0.9490 0.9493 0.9497 0.9500 0.9504
2195.000000 0.9507 0.9511 0.9514 0.9518 0.9521
2190.000000 0.9525 0.9528 0.9532 0.9536 0.9540
2185.000000 0.9543 0.9547 0.9550 0.9554 0.9557
2180.000000 0.9561 0.9564 0.9568 0.9571 0.9575
2175.000000 0.9578 0.9582 0.9585 0.9589 0.9592
2170.000000 0.9596 0.9599 0.9603 0.9606 0.9610
2165.000000 0.9613 0.9617 0.9620 0.9624 0.9627
2160.000000 0.9631 0.9634 0.9638 0.9641 0.9644
2155.000000 0.9647 0.9651 0.9654 0.9658 0.9661
2150.000000 0.9664 0.9667 0.9671 0.9674 0.9678
2145.000000 0.9681 0.9684 0.9687 0.9691 0.9694
2140.000000 0.9698 0.9701 0.9704 0.9707 0.9711
2135.000000 0.9714 0.9718 0.9721 0.9725 0.9728
2130.000000 0.9731 0.9734 0.9738 0.9741 0.9745
2125.000000 0.9748 0.9751 0.9754 0.9758 0.9761
2120.000000 0.9765 0.9768 0.9771 0.9774 0.9778
2115.000000 0.9781 0.9785 0.9788 0.9792 0.9795
2110.000000 0.9798 0.9801 0.9805 0.9808 0.9812
2105.000000 0.9815 0.9818 0.9821 0.9825 0.9828
2100.000000 0.9832 0.9835 0.9839 0.9842 0.9846
2095.000000 0.9849 0.9852 0.9855 0.9859 0.9862
2090.000000 0.9866 0.9870 0.9874 0.9877 0.9881
2085.000000 0.9884 0.9888 0.9892 0.9896 0.9899
2080.000000 0.9903 0.9906 0.9909 0.9912 0.9915
2075.000000 0.9918 0.9921 0.9924 0.9927 0.9930
2070.000000 0.9933 0.9936 0.9939 0.9942 0.9945
2065.000000 0.9948 0.9951 0.9954 0.9957 0.9960
2060.000000 0.9963 0.9966 0.9968 0.9971 0.9975
2055.000000 0.9978 0.9982 0.9985 0.9989 0.9993
2050.000000 0.9997 1.0000 1.0004 1.0008 1.0012
2045.000000 1.0015 1.0018 1.0021 1.0025 1.0025
2040.000000 1.0027 1.0028 1.0030 1.0031 1.0032
2035.000000 1.0033 1.0034 1.0035 1.0036 1.0037
2030.000000 1.0039 1.0040 1.0041 1.0042 1.0043
2025.000000 1.0043 1.0043 1.0042 1.0042 1.0041
2020.000000 1.0041 1.0040 1.0040 1.0039 1.0039
2015.000000 1.0038 1.0038 1.0037 1.0037 1.0036
2010.000000 1.0035 1.0034 1.0034 1.0033 1.0033
2005.000000 1.0032 1.0032 1.0031 1.0031 1.0031
2000.000000 1.0031 1.0032 1.0032 1.0033 1.0034
1995.000000 1.0034 1.0035 1.0035 1.0036 1.0036
1990.000000 1.0037 1.0037 1.0038 1.0038 1.0039
1985.000000 1.0039 1.0040 1.0040 1.0041 1.0041
1980.000000 1.0041 1.0041 1.0040 1.0040 1.0040
1975.000000 1.0040 1.0040 1.0040 1.0040 1.0040
1970.000000 1.0040 1.0040 1.0039 1.0039 1.0039
1965.000000 1.0039 1.0038 1.0037 1.0036 1.0036
1960.000000 1.0035 1.0034 1.0033 1.0032 1.0031
1955.000000 1.0030 1.0028 1.0028 1.0027 1.0025
1950.000000 1.0025 1.0024 1.0023 1.0021 1.0021
1945.000000 1.0020 1.0020 1.0020 1.0018 1.0018
1940.000000 1.0018 1.0018 1.0018 1.0018 1.0017
1935.000000 1.0017 1.0016 1.0016 1.0016 1.0015
1930.000000 1.0015 1.0015 1.0015 1.0015 1.0015
1925.000000 1.0015 1.0014 1.0014 1.0014 1.0014
1920.000000 1.0014 1.0014 1.0014 1.0013 1.0013
1915.000000 1.0012 1.0011 1.0010 1.0009 1.0008
1910.000000 1.0007 1.0006 1.0005 1.0005 1.0004
1905.000000 1.0003 1.0002 1.0001 1.0000 0.9999
1900.000000 0.9999 0.9998 0.9998 0.9997 0.9997
1895.000000 0.9996 0.9995 0.9995 0.9994 0.9994
1890.000000 0.9993 0.9993 0.9992 0.9991 0.9991
1885.000000 0.9990 0.9990 0.9988 0.9987 0.9985
1880.000000 0.9983 0.9981 0.9980 0.9978 0.9975
1875.000000 0.9975 0.9973 0.9971 0.9970 0.9968
1870.000000 0.9966 0.9965 0.9963 0.9961 0.9959
1865.000000 0.9958 0.9957 0.9956 0.9955 0.9954
1860.000000 0.9952 0.9951 0.9950 0.9949 0.9948
1855.000000 0.9947 0.9945 0.9944 0.9943 0.9942
1850.000000 0.9941 0.9938 0.9936 0.9933 0.9930
1845.000000 0.9927 0.9924 0.9921 0.9918 0.9916
1840.000000 0.9913 0.9910 0.9908 0.9906 0.9903
1835.000000 0.9901 0.9898 0.9896 0.9894 0.9891
1830.000000 0.9889 0.9886 0.9882 0.9878 0.9875
1825.000000 0.9871 0.9868 0.9864 0.9861 0.9857
1820.000000 0.9854 0.9850 0.9847 0.9843 0.9840
1815.000000 0.9836 0.9833 0.9828 0.9825 0.9821
1810.000000 0.9818 0.9815 0.9812 0.9808 0.9805
1805.000000 0.9801 0.9797 0.9794 0.9790 0.9787
1800.000000 0.9783 0.9780 0.9773 0.9763 0.9753
1795.000000 0.9744 0.9734 0.9725 0.9717 0.9709
1790.000000 0.9701 0.9692 0.9684 0.9674 0.9664
1785.000000 0.9654 0.9644 0.9635 0.9625 0.9615
1780.000000 0.9605 0.9595 0.9581 0.9564 0.9547
1775.000000 0.9531 0.9514 0.9496 0.9475 0.9457
1770.000000 0.9437 0.9418 0.9398 0.9378 0.9355
1765.000000 0.9331 0.9306 0.9281 0.9257 0.9228
1760.000000 0.9194 0.9161 0.9127 0.9093 0.9057
1755.000000 0.9017 0.8978 0.8938 0.8899 0.8857
1750.000000 0.8812 0.8768 0.8724 0.8678 0.8642
1745.000000 0.8605 0.8568 0.8531 0.8494 0.8462
1740.000000 0.8430 0.8399 0.8367 0.8336 0.8306
1735.000000 0.8275 0.8245 0.8215 0.8187 0.8164
1730.000000 0.8141 0.8118 0.8096 0.8078 0.8061
1725.000000 0.8047 0.8032 0.8017 0.8001 0.7986
1720.000000 0.7975 0.7967 0.7958 0.7949 0.7942
1715.000000 0.7936 0.7928 0.7922 0.7917 0.7911
1710.000000 0.7904 0.7898 0.7892 0.7885 0.7876
1705.000000 0.7869 0.7862 0.7856 0.7848 0.7837
1700.000000 0.7826 0.7810 0.7791 0.7772 0.7747
1695.000000 0.7721 0.7685 0.7640 0.7590 0.7532
1690.000000 0.7469 0.7407 0.7335 0.7278 0.7258
1685.000000 0.7254 0.7248 0.7243 0.7240 0.7237
1680.000000 0.7233 0.7230 0.7228 0.7225 0.7224
1675.000000 0.7219 0.7210 0.7199 0.7188 0.7171
1670.000000 0.7154 0.7138 0.7115 0.7081 0.7045
1665.000000 0.7001 0.6956 0.6911 0.6850 0.6786
1660.000000 0.6721 0.6648 0.6571 0.6497 0.6421
1655.000000 0.6352 0.6285 0.6219 0.6153 0.6087
1650.000000 0.6021 0.5956 0.5891 0.5826 0.5760
1645.000000 0.5677 0.5564 0.5451 0.5238 0.5003
1640.000000 0.4757 0.4567 0.4462 0.4360 0.4256
1635.000000 0.4152 0.4049 0.3945 0.3841 0.3738
1630.000000 0.3634 0.3530 0.3427 0.3323 0.3220
1625.000000 0.2954 0.2805 0.2429 0.2207 0.2048
1620.000000 0.1940 0.1832 0.1743 0.1654 0.1565
1615.000000 0.1487 0.1415 0.1342 0.1267 0.1166
1610.000000 0.1066 0.0966 0.0879 0.0791 0.0713
1605.000000 0.0664 0.0614 0.0567 0.0538 0.0509
1600.000000 0.0481 0.0452 0.0427 0.0404 0.0381
1595.000000 0.0358 0.0346 0.0340 0.0334 0.0329
1590.000000 0.0324 0.0318 0.0315 0.0315 0.0315
1585.000000 0.0316 0.0323 0.0337 0.0350 0.0363
1580.000000 0.0382 0.0402 0.0421 0.0443 0.0465
1575.000000 0.0491 0.0516 0.0541 0.0581 0.0626
1570.000000 0.0671 0.0716 0.0764 0.0816 0.0871
1565.000000 0.0934 0.0997 0.1074 0.1150 0.1246
1560.000000 0.1353 0.1460 0.1596 0.1752 0.1859
1555.000000 0.1940 0.2020 0.2100 0.2185 0.2284
1550.000000 0.2383 0.2482 0.2580 0.2892 0.3029
1545.000000 0.3140 0.3262 0.3455 0.3671 0.3874
1540.000000 0.4059 0.4451 0.4636 0.4778 0.4873
1535.000000 0.4968 0.5062 0.5180 0.5300 0.5543
1530.000000 0.5791 0.5964 0.6048 0.6133 0.6212
1525.000000 0.6281 0.6339 0.6390 0.6441 0.6491
1520.000000 0.6541 0.6583 0.6611 0.6621 0.6630
1515.000000 0.6639 0.6597 0.6630 0.6625 0.6621
1510.000000 0.6612 0.6594 0.6575 0.6554 0.6525
1505.000000 0.6499 0.6460 0.6408 0.6359 0.6307
1500.000000 0.6245 0.6174 0.6096 0.6017 0.5890
1495.000000 0.5740 0.5493 0.5247 0.5001 0.4755
1490.000000 0.4509 0.4317 0.4282 0.4271 0.4278
1485.000000 0.4277 0.4277 0.4286 0.4305 0.4323
1480.000000 0.4342 0.4362 0.4392 0.4421 0.4450
1475.000000 0.4479 0.4512 0.4546 0.4578 0.4604
1470.000000 0.4626 0.4645 0.4650 0.4653 0.4653
1465.000000 0.4653 0.4659 0.4665 0.4671 0.4694
1460.000000 0.4726 0.4766 0.4812 0.4860 0.4908
1455.000000 0.4960 0.5016 0.5076 0.5144 0.5227
1450.000000 0.5317 0.5341 0.5359 0.5391 0.5365
1445.000000 0.5346 0.5310 0.5249 0.4944 0.4614
1440.000000 0.4304 0.4157 0.4037 0.3936 0.3836
1435.000000 0.3725 0.3646 0.3576 0.3520 0.3493
1430.000000 0.3466 0.3486 0.3505 0.3527 0.3582
1425.000000 0.3640 0.3707 0.3784 0.3896 0.3980
1420.000000 0.4055 0.4108 0.4139 0.4158 0.4168
1415.000000 0.4168 0.4166 0.4164 0.4158 0.4150
1410.000000 0.4142 0.4134 0.4126 0.4123 0.4120
1405.000000 0.4117 0.4125 0.4133 0.4145 0.4162
1400.000000 0.4181 0.4205 0.4234 0.4262 0.4292
1395.000000 0.4321 0.4350 0.4379 0.4407 0.4432
1390.000000 0.4456 0.4481 0.4502 0.4523 0.4541
1385.000000 0.4559 0.4577 0.4594 0.4604 0.4612
1380.000000 0.4619 0.4619 0.4615 0.4593 0.4549
1375.000000 0.4467 0.4414 0.4376 0.4355 0.4339
1370.000000 0.4334 0.4335 0.4345 0.4299 0.4454
1365.000000 0.4530 0.4612 0.4704 0.4808 0.4945
1360.000000 0.5075 0.5174 0.5276 0.5346 0.5389
1355.000000 0.5421 0.5438 0.5455 0.5473 0.5490
1350.000000 0.5514 0.5539 0.5569 0.5600 0.5630
1345.000000 0.5657 0.5679 0.5696 0.5736 0.5710
1340.000000 0.5710 0.5695 0.5636 0.5545 0.5437
1335.000000 0.5349 0.5299 0.5256 0.5210 0.5165
1330.000000 0.5117 0.5074 0.5032 0.4951 0.4858
1325.000000 0.4773 0.4714 0.4645 0.4586 0.4546
1320.000000 0.4521 0.4505 0.4505 0.4435 0.4642
1315.000000 0.4710 0.4776 0.4843 0.4925 0.5007
1310.000000 0.5074 0.5140 0.5202 0.5267 0.5341
1305.000000 0.5421 0.5502 0.5565 0.5632 0.5708
1300.000000 0.5758 0.5792 0.5820 0.5828 0.5827
1295.000000 0.5827 0.5822 0.5795 0.5765 0.5729
1290.000000 0.5689 0.5639 0.5584 0.5522 0.5394
1285.000000 0.5253 0.5170 0.4983 0.4852 0.4742
1280.000000 0.4631 0.4427 0.4431 0.4412 0.4414
1275.000000 0.4444 0.4473 0.4502 0.4532 0.4560
1270.000000 0.4591 0.4625 0.4662 0.4701 0.4739
1265.000000 0.4781 0.4827 0.4873 0.4919 0.4965
1260.000000 0.5010 0.5057 0.5103 0.5151 0.5199
1255.000000 0.5247 0.5295 0.5347 0.5398 0.5450
1250.000000 0.5502 0.5553 0.5602 0.5651 0.5700
1245.000000 0.5748 0.5794 0.5837 0.5880 0.5923
1240.000000 0.5966 0.6009 0.6051 0.6089 0.6126
1235.000000 0.6162 0.6199 0.6235 0.6272 0.6308
1230.000000 0.6344 0.6379 0.6414 0.6450 0.6485
1225.000000 0.6519 0.6551 0.6583 0.6614 0.6646
1220.000000 0.6676 0.6708 0.6739 0.6769 0.6801
1215.000000 0.6832 0.6862 0.6893 0.6921 0.6951
1210.000000 0.6980 0.7001 0.7024 0.7045 0.7067
1205.000000 0.7089 0.7108 0.7125 0.7143 0.7161
1200.000000 0.7178 0.7195 0.7212 0.7231 0.7249
1195.000000 0.7267 0.7283 0.7296 0.7308 0.7321
1190.000000 0.7332 0.7341 0.7351 0.7354 0.7358
1185.000000 0.7357 0.7356 0.7354 0.7351 0.7378
1180.000000 0.7344 0.7340 0.7333 0.7325 0.7318
1175.000000 0.7315 0.7311 0.7303 0.7295 0.7287
1170.000000 0.7278 0.7269 0.7260 0.7249 0.7235
1165.000000 0.7218 0.7184 0.7149 0.7115 0.7078
1160.000000 0.7040 0.7001 0.6961 0.6918 0.6845
1155.000000 0.6764 0.6665 0.6549 0.6426 0.6327
1150.000000 0.6227 0.6094 0.5924 0.5771 0.5619
1145.000000 0.5470 0.5337 0.5209 0.5052 0.4860
1140.000000 0.4667 0.4474 0.4336 0.4116 0.3864
1135.000000 0.3612 0.3359 0.3108 0.2856 0.2604
1130.000000 0.2352 0.2310 0.2320 0.2322 0.2511
1125.000000 0.2627 0.2914 0.3019 0.3170 0.3378
1120.000000 0.3584 0.3792 0.4000 0.4207 0.4414
1115.000000 0.4622 0.4829 0.5036 0.5244 0.5451
1110.000000 0.5659 0.5731 0.5754 0.5770 0.5741
1105.000000 0.5762 0.5758 0.5737 0.5716 0.5694
1100.000000 0.5666 0.5638 0.5610 0.5573 0.5534
1095.000000 0.5499 0.5471 0.5417 0.5475 0.5498
1090.000000 0.5529 0.5566 0.5620 0.5708 0.5795
1085.000000 0.5882 0.5969 0.6057 0.6144 0.6231
1080.000000 0.6318 0.6405 0.6492 0.6578 0.6667
1075.000000 0.6754 0.6841 0.6928 0.6998 0.7043
1070.000000 0.7074 0.7099 0.7108 0.7117 0.7122
1065.000000 0.7135 0.7118 0.7103 0.7087 0.7036
1060.000000 0.6880 0.6660 0.6440 0.6220 0.5999
1055.000000 0.5779 0.5559 0.5339 0.5119 0.5082
1050.000000 0.5097 0.5090 0.5167 0.5219 0.5274
1045.000000 0.5329 0.5403 0.5479 0.5549 0.5616
1040.000000 0.5684 0.5753 0.5820 0.5952 0.6097
1035.000000 0.6242 0.6388 0.6533 0.6678 0.6822
1030.000000 0.6968 0.7078 0.7139 0.7195 0.7245
1025.000000 0.7295 0.7339 0.7381 0.7422 0.7456
1020.000000 0.7488 0.7519 0.7551 0.7578 0.7605
1015.000000 0.7633 0.7660 0.7687 0.7707 0.7719
1010.000000 0.7733 0.7746 0.7758 0.7767 0.7769
1005.000000 0.7772 0.7775 0.7778 0.7780 0.7782
1000.000000 0.7782 0.7782 0.7782 0.7782 0.7782
995.000000 0.7781 0.7778 0.7776 0.7775 0.7774
990.000000 0.7771 0.7769 0.7768 0.7743 0.7764
985.000000 0.7761 0.7758 0.7755 0.7751 0.7748
980.000000 0.7745 0.7742 0.7740 0.7738 0.7736
975.000000 0.7734 0.7732 0.7730 0.7730 0.7728
970.000000 0.7728 0.7728 0.7728 0.7728 0.7728
965.000000 0.7728 0.7728 0.7728 0.7728 0.7728
960.000000 0.7722 0.7718 0.7715 0.7710 0.7704
955.000000 0.7698 0.7692 0.7686 0.7675 0.7664
950.000000 0.7653 0.7639 0.7622 0.7595 0.7562
945.000000 0.7525 0.7484 0.7434 0.7376 0.7306
940.000000 0.7251 0.7198 0.7153 0.7112 0.7075
935.000000 0.7043 0.7017 0.6995 0.6989 0.6915
930.000000 0.7043 0.7082 0.7121 0.7160 0.7199
925.000000 0.7249 0.7304 0.7354 0.7396 0.7437
920.000000 0.7471 0.7505 0.7531 0.7547 0.7549
915.000000 0.7551 0.7551 0.7551 0.7599 0.7545
910.000000 0.7543 0.7540 0.7537 0.7528 0.7518
905.000000 0.7510 0.7495 0.7480 0.7464 0.7448
900.000000 0.7431 0.7414 0.7397 0.7381 0.7361
895.000000 0.7342 0.7321 0.7301 0.7283 0.7262
890.000000 0.7243 0.7222 0.7203 0.7183 0.7165
885.000000 0.7151 0.7139 0.7115 0.7082 0.7044
880.000000 0.7001 0.6930 0.6860 0.6789 0.6717
875.000000 0.6651 0.6591 0.6493 0.6369 0.6246
870.000000 0.6123 0.6000 0.5877 0.5754 0.5630
865.000000 0.5356 0.5262 0.5187 0.5232 0.5266
860.000000 0.5337 0.5453 0.5568 0.5677 0.5786
855.000000 0.5896 0.6004 0.6112 0.6220 0.6327
850.000000 0.6411 0.6497 0.6583 0.6668 0.6733
845.000000 0.6798 0.6862 0.6900 0.6926 0.6953
840.000000 0.6978 0.6991 0.7001 0.7012 0.7025
835.000000 0.7036 0.7046 0.7051 0.7056 0.7061
830.000000 0.7067 0.7071 0.7076 0.7082 0.7082
825.000000 0.7083 0.7083 0.7083 0.7084 0.7085
820.000000 0.7085 0.7081 0.7075 0.7071 0.7065
815.000000 0.7060 0.7055 0.7048 0.7036 0.7024
810.000000 0.7011 0.6999 0.6987 0.6974 0.6960
805.000000 0.6938 0.6915 0.6892 0.6868 0.6841
800.000000 0.6811 0.6784 0.6751 0.6708 0.6665
795.000000 0.6618 0.6549 0.6480 0.6412 0.6347
790.000000 0.6282 0.6216 0.6153 0.6090 0.6026
785.000000 0.5947 0.5845 0.5748 0.5659 0.5576
780.000000 0.5522 0.5509 0.5510 0.5536 0.5590
775.000000 0.5647 0.5715 0.5787 0.5853 0.5914
770.000000 0.5975 0.6040 0.6091 0.6123 0.6155
765.000000 0.6183 0.6207 0.6232 0.6251 0.6260
760.000000 0.6268 0.6322 0.6273 0.6276 0.6276
755.000000 0.6277 0.6276 0.6272 0.6268 0.6264
750.000000 0.6260 0.6253 0.6244 0.6234 0.6225
745.000000 0.6215 0.6204 0.6189 0.6175 0.6160
740.000000 0.6147 0.6131 0.6112 0.6093 0.6074
735.000000 0.6052 0.6026 0.6000 0.5974 0.5948
730.000000 0.5918 0.5884 0.5851 0.5818 0.5784
725.000000 0.5753 0.5686 0.5698 0.5676 0.5672
720.000000 0.5707 0.5819 0.5869 0.5916 0.5955
715.000000 0.5985 0.6000 0.6016 0.6024 0.6028
710.000000 0.6030 0.6033 0.6036 0.6029 0.6023
705.000000 0.6016 0.6010 0.6001 0.5990 0.5980
700.000000 0.5969 0.5959 0.5948 0.5932 0.5915
695.000000 0.5899 0.5883 0.5866 0.5850 0.5833
690.000000 0.5814 0.5794 0.5775 0.5756 0.5739
685.000000 0.5722 0.5705 0.5688 0.5670 0.5655
680.000000 0.5641 0.5627 0.5612 0.5600 0.5588
675.000000 0.5575 0.5562 0.5562 0.5562 0.5562
670.000000 0.5564 0.5575 0.5587 0.5599 0.5610
665.000000 0.5623 0.5635 0.5645 0.5655 0.5664
660.000000 0.5674 0.5683 0.5692 0.5698 0.5703
655.000000 0.5707 0.5712 0.5716 0.5720 0.5720
650.000000 0.5720 0.5720 0.5719 0.5719 0.5719
645.000000 0.5719 0.5724 0.5731 0.5738 0.5745
640.000000 0.5753 0.5760 0.5767 0.5774 0.5781
635.000000 0.5788 0.5795 0.5804 0.5812 0.5822
630.000000 0.5831 0.5839 0.5848 0.5857 0.5866
625.000000 0.5875 0.5884 0.5892 0.5901 0.5910
620.000000 0.5919 0.5928 0.5937 0.5946 0.5956
615.000000 0.5965 0.5974 0.5983 0.5992 0.6001
610.000000 0.6012 0.6025 0.6036 0.6048 0.6059
605.000000 0.6071 0.6082 0.6094 0.6106 0.6117
600.000000 0.6129 0.6141 0.6154 0.6167 0.6180
595.000000 0.6193 0.6206 0.6221 0.6236 0.6250
590.000000 0.6265 0.6279 0.6291 0.6302 0.6314
585.000000 0.6326 0.6336 0.6346 0.6356 0.6365
580.000000 0.6372 0.6376 0.6378 0.6382 0.6381
575.000000 0.6379 0.6378 0.6368 0.6357 0.6345
570.000000 0.6333 0.6312 0.6294 0.6268 0.6240
565.000000 0.6189 0.6144 0.6102 0.6057 0.6009
560.000000 0.5964 0.5922 0.5885 0.5864 0.5857
555.000000 0.5850 0.5841 0.5831 0.5822 0.5812
550.000000 0.5806 0.5800 0.5804 0.5803 0.5803
545.000000 0.5806 0.5816 0.5845 0.5874 0.5922
540.000000 0.5985 0.6047 0.6104 0.6160 0.6212
535.000000 0.6258 0.6304 0.6349 0.6395 0.6441
530.000000 0.6487 0.6533 0.6578 0.6617 0.6654
525.000000 0.6690 0.6725 0.6746 0.6765 0.6786
520.000000 0.6807 0.6826 0.6837 0.6847 0.6856
515.000000 0.6865 0.6875 0.6886 0.6895 0.6905
510.000000 0.6915 0.6925 0.6928 0.6932 0.6935
505.000000 0.6958 0.6941 0.6944 0.6947 0.6950
500.000000 0.6951 0.6951 0.6951 0.6950 0.6949
495.000000 0.6947 0.6946 0.6945 0.6944 0.6942
490.000000 0.6941 0.6938 0.6932 0.6926 0.6921
485.000000 0.6915 0.6908 0.6904 0.6893 0.6881
480.000000 0.6868 0.6856 0.6843 0.6831 0.6818
475.000000 0.6806 0.6790 0.6767 0.6744 0.6719
470.000000 0.6698 0.6675 0.6654 0.6632 0.6608
465.000000 0.6582 0.6555 0.6528 0.6504 0.6478
460.000000 0.6455 0.6431 0.6407 0.6381 0.6354
455.000000 0.6334 0.6320 0.6310 0.6307 0.6302
450.000000 0.6224 0.6130 0.6095 0.6070 0.6050
445.000000 0.6039 0.6034 0.6036 0.6038 0.6038
440.000000 0.6029 0.5992 0.5969 0.5938 0.5936
435.000000 0.5934 0.5939 0.5945 0.5951 0.5962
430.000000 0.5976 0.5995 0.6029 0.6062 0.6097
425.000000 0.6135 0.6179 0.6223 0.6268 0.6314
420.000000 0.6365 0.6415 0.6465 0.6515 0.6558
415.000000 0.6601 0.6645 0.6689 0.6739 0.6790
410.000000 0.6840 0.6888 0.6934 0.6976 0.7015
405.000000 0.7051 0.7090 0.7136 0.7181 0.7218
400.000000 0.7256
##END=
