##TITLE=L(+)-3-AMINO-4-MERCAPTO-1-BUTANOL
##JCAMP-DX=4.24
##DATA TYPE=INFRARED SPECTRUM
##CLASS=COBLENTZ
##ORIGIN=ARTHUR D. LITTLE, INC.
##OWNER=COBLENTZ SOCIETY
Collection (C) 2018 copyright by the U.S. Secretary of Commerce
on behalf of the United States of America. All rights reserved.
##DATE=Not specified, most likely prior to 1970
##NAMES=3-amino-4-sulfanyl-1-butanol
##MOLFORM=C4 H11 N O S
##MP=100-103 C
##SOURCE REFERENCE=COBLENTZ NO. 4560
##$NIST ID=B6004560
##$NIST SOURCE=COBLENTZ
##$NIST IMAGE=cob4560
##SPECTROMETER/DATA SYSTEM=Not specified, most likely a prism, grating, or hybrid spectrometer.
##STATE=SOLID(MINERAL OIL MULL)
##PATH LENGTH=
$$ 95% PURE
##SAMPLING PROCEDURE=TRANSMISSION
##RESOLUTION=4
##DATA PROCESSING=DIGITIZED BY NIST FROM HARD COPY
##XUNITS=1/CM
##YUNITS=TRANSMITTANCE
##XFACTOR=1.000000
##YFACTOR=1
##DELTAX=001.452937
##FIRSTX=645.483
##LASTX=3443.84
##FIRSTY=0.562
##MAXX=3443.84
##MINX=645.483
##MAXY=0.856
##MINY=0.028
##NPOINTS=1927
##XYDATA=(X++(Y..Y))
645.483000 0.5620 0.5630 0.5620 0.5630 0.5650
652.751461 0.5650 0.5680 0.5690 0.5710 0.5730
660.013000 0.5750 0.5760 0.5780 0.5790 0.5790
667.281461 0.5790 0.5810 0.5810 0.5810 0.5810
674.542000 0.5810 0.5790 0.5790 0.5780 0.5750
681.810461 0.5730 0.5720 0.5710 0.5690 0.5680
689.071000 0.5650 0.5630 0.5600 0.5570 0.5520
696.339461 0.5470 0.5400 0.5280 0.5180 0.5130
703.601000 0.4940 0.4780 0.4650 0.4490 0.4360
710.869461 0.4200 0.4100 0.3980 0.3890 0.3810
718.130000 0.3780 0.3760 0.3790 0.3860 0.3890
725.398461 0.3910 0.3910 0.3910 0.3880 0.3850
732.659000 0.3840 0.3880 0.4020 0.4370 0.4780
739.927461 0.4920 0.5070 0.5370 0.5620 0.5940
747.189000 0.6140 0.6360 0.6530 0.6680 0.6790
754.457461 0.6890 0.6970 0.7000 0.7010 0.7070
761.718000 0.7100 0.7130 0.7150 0.7170 0.7200
768.986461 0.7210 0.7230 0.7230 0.7230 0.7240
776.248000 0.7240 0.7260 0.7270 0.7270 0.7270
783.516461 0.7280 0.7280 0.7280 0.7270 0.7270
790.777000 0.7260 0.7240 0.7230 0.7170 0.7110
798.045461 0.7010 0.6910 0.6730 0.6490 0.6470
805.306000 0.6490 0.6590 0.6730 0.7010 0.7260
812.574461 0.7360 0.7370 0.7390 0.7390 0.7400
819.836000 0.7400 0.7400 0.7400 0.7400 0.7390
827.104461 0.7390 0.7370 0.7360 0.7340 0.7330
834.365000 0.7310 0.7310 0.7270 0.7240 0.7170
841.633461 0.7110 0.7040 0.6970 0.6820 0.6560
848.895000 0.6550 0.6560 0.6680 0.6910 0.7040
856.163461 0.7130 0.7150 0.7150 0.7130 0.7110
863.424000 0.7100 0.7080 0.7020 0.6970 0.6880
870.692461 0.6720 0.6500 0.6270 0.5970 0.5590
877.953000 0.5500 0.5500 0.5630 0.6170 0.6730
885.221461 0.7020 0.7150 0.7210 0.7240 0.7270
892.483000 0.7270 0.7270 0.7280 0.7280 0.7270
899.751461 0.7240 0.7240 0.7230 0.7210 0.7200
907.012000 0.7150 0.7110 0.7080 0.7070 0.7040
914.280461 0.7020 0.7010 0.6980 0.6950 0.6890
921.541000 0.6750 0.6650 0.6590 0.6430 0.6180
928.809461 0.5970 0.5620 0.5130 0.5110 0.5130
936.071000 0.5260 0.5530 0.6270 0.6880 0.7040
943.339461 0.7110 0.7130 0.7130 0.7140 0.7150
950.600000 0.7150 0.7140 0.7130 0.7130 0.7110
957.868461 0.7100 0.7100 0.7080 0.7050 0.7020
965.130000 0.7020 0.7000 0.6970 0.6910 0.6880
972.398461 0.6850 0.6810 0.6730 0.6660 0.6600
979.659000 0.6570 0.6440 0.6260 0.6000 0.5710
986.927461 0.4970 0.4620 0.4370 0.4180 0.3000
994.188000 0.3000 0.4910 0.5530 0.6140 0.6430
1001.456461 0.6630 0.6710 0.6730 0.6720 0.6680
1008.718000 0.6620 0.6520 0.6460 0.6430 0.6460
1015.986461 0.6520 0.6620 0.6680 0.6730 0.6820
1023.247000 0.6820 0.6840 0.6840 0.6840 0.6840
1030.515461 0.6810 0.6810 0.6780 0.6750 0.6660
1037.776000 0.6600 0.6560 0.6490 0.6460 0.6340
1045.044461 0.6240 0.6050 0.5970 0.5860 0.5840
1052.306000 0.5840 0.5820 0.5820 0.5820 0.5810
1059.574461 0.5790 0.5680 0.5560 0.5490 0.5280
1066.835000 0.4880 0.4550 0.4200 0.3790 0.3370
1074.103461 0.2910 0.2590 0.2300 0.2270 0.2280
1081.365000 0.2440 0.2710 0.3020 0.3300 0.3650
1088.633461 0.3810 0.3890 0.3940 0.3950 0.3970
1095.894000 0.3970 0.3980 0.4000 0.4310 0.5000
1103.162461 0.5680 0.5910 0.6300 0.6660 0.6780
1110.423000 0.6810 0.6820 0.6820 0.6820 0.6820
1117.691461 0.6820 0.6820 0.6820 0.6810 0.6810
1124.953000 0.6810 0.6810 0.6790 0.6790 0.6790
1132.221461 0.6780 0.6760 0.6760 0.6730 0.6720
1139.482000 0.6680 0.6650 0.6630 0.6590 0.6500
1146.750461 0.6470 0.6430 0.6360 0.6270 0.6200
1154.011000 0.6150 0.6150 0.6150 0.6140 0.6140
1161.279461 0.6130 0.6100 0.6070 0.5980 0.5950
1168.541000 0.5850 0.5760 0.5630 0.5470 0.5300
1175.809461 0.4840 0.4550 0.4210 0.3880 0.3500
1183.070000 0.3240 0.3230 0.3660 0.3690 0.4650
1190.338461 0.5080 0.5520 0.6100 0.6470 0.6680
1197.599000 0.6760 0.6780 0.6790 0.6840 0.6850
1204.867461 0.6860 0.6860 0.6860 0.6860 0.6860
1212.129000 0.6860 0.6850 0.6840 0.6820 0.6810
1219.397461 0.6790 0.6760 0.6730 0.6680 0.6650
1226.658000 0.6620 0.6590 0.6550 0.6470 0.6340
1233.926461 0.6170 0.6040 0.5940 0.5890 0.5890
1241.188000 0.5940 0.6010 0.6070 0.6070 0.6080
1248.456461 0.6080 0.6020 0.5970 0.5910 0.5880
1255.717000 0.5860 0.5860 0.5850 0.5850 0.5850
1262.985461 0.5840 0.5820 0.5790 0.5750 0.5680
1270.246000 0.5590 0.5520 0.5490 0.5470 0.5470
1277.514461 0.5470 0.5470 0.5490 0.5520 0.5590
1284.776000 0.5680 0.5780 0.5940 0.6080 0.6150
1292.044461 0.6180 0.6200 0.6210 0.6210 0.6210
1299.305000 0.6210 0.6200 0.6200 0.6180 0.6180
1306.573461 0.6170 0.6150 0.6150 0.6140 0.6140
1313.834000 0.6130 0.6130 0.6110 0.6100 0.6100
1321.102461 0.6080 0.6070 0.6010 0.5980 0.5920
1328.364000 0.5880 0.5860 0.5840 0.5840 0.5820
1335.632461 0.5820 0.5820 0.5820 0.5820 0.5790
1342.893000 0.5750 0.5680 0.5630 0.5570 0.5530
1350.161461 0.5470 0.5420 0.5360 0.5270 0.5150
1357.423000 0.4980 0.4790 0.4630 0.4400 0.4130
1364.691461 0.3840 0.3690 0.3440 0.3230 0.3230
1371.952000 0.3280 0.3340 0.3370 0.3420 0.3430
1379.220461 0.3440 0.3460 0.3600 0.3860 0.4110
1386.481000 0.4400 0.4650 0.4850 0.4950 0.4980
1393.749461 0.5010 0.5050 0.5050 0.5070 0.5070
1401.011000 0.5070 0.5050 0.5050 0.5050 0.5040
1408.279461 0.5040 0.5040 0.5040 0.5050 0.5050
1415.540000 0.5070 0.5070 0.5070 0.5080 0.5080
1422.808461 0.5080 0.5080 0.5080 0.5080 0.5080
1430.069000 0.5070 0.4910 0.4690 0.4420 0.4210
1437.337461 0.3950 0.3590 0.3440 0.3360 0.3300
1444.599000 0.2950 0.2420 0.2180 0.2150 0.2180
1451.867461 0.2560 0.2980 0.3000 0.3000 0.2980
1459.128000 0.2970 0.2950 0.2940 0.2920 0.2920
1466.396461 0.2940 0.3010 0.3050 0.3150 0.3430
1473.658000 0.3970 0.4720 0.4820 0.4880 0.4950
1480.926461 0.4980 0.5010 0.5020 0.5040 0.4980
1488.187000 0.4860 0.4730 0.4560 0.4300 0.4130
1495.455461 0.4010 0.3810 0.3530 0.3020 0.2630
1502.716000 0.2390 0.2100 0.1790 0.1790 0.1950
1509.984461 0.3890 0.4370 0.4500 0.4890 0.5310
1517.246000 0.5730 0.6280 0.7010 0.7310 0.7440
1524.514461 0.7590 0.7710 0.7720 0.7720 0.7720
1531.775000 0.7710 0.7680 0.7650 0.7650 0.7620
1539.043461 0.7600 0.7600 0.7600 0.7590 0.7590
1546.304000 0.7570 0.7570 0.7520 0.7470 0.7420
1553.572461 0.7370 0.7330 0.7300 0.7260 0.7200
1560.834000 0.7140 0.7110 0.7110 0.7100 0.7020
1568.102461 0.6970 0.6920 0.6790 0.6620 0.6530
1575.363000 0.6440 0.6200 0.6020 0.5570 0.5340
1582.631461 0.4910 0.4530 0.4150 0.3780 0.3460
1589.893000 0.3440 0.3460 0.3590 0.3860 0.4330
1597.161461 0.4690 0.5050 0.5470 0.5910 0.6240
1604.422000 0.6300 0.6310 0.6310 0.6330 0.6360
1611.690461 0.6530 0.6920 0.7230 0.7430 0.7660
1618.951000 0.7940 0.8020 0.8080 0.8140 0.8200
1626.219461 0.8260 0.8270 0.8280 0.8300 0.8300
1633.481000 0.8300 0.8300 0.8310 0.8310 0.8310
1640.749461 0.8300 0.8300 0.8300 0.8300 0.8300
1648.010000 0.8300 0.8310 0.8310 0.8330 0.8330
1655.278461 0.8330 0.8330 0.8330 0.8330 0.8330
1662.540000 0.8340 0.8340 0.8340 0.8340 0.8340
1669.808461 0.8360 0.8360 0.8360 0.8360 0.8360
1677.069000 0.8360 0.8360 0.8360 0.8360 0.8360
1684.337461 0.8360 0.8360 0.8370 0.8370 0.8370
1691.598000 0.8370 0.8370 0.8370 0.8390 0.8390
1698.866461 0.8390 0.8400 0.8400 0.8400 0.8400
1706.128000 0.8400 0.8400 0.8420 0.8420 0.8430
1713.396461 0.8440 0.8440 0.8460 0.8490 0.8520
1720.657000 0.8550 0.8550 0.8550 0.8530 0.8530
1727.925461 0.8530 0.8530 0.8530 0.8550 0.8560
1735.186000 0.8560 0.8560 0.8560 0.8550 0.8500
1742.454461 0.8500 0.8490 0.8490 0.8470 0.8470
1749.716000 0.8470 0.8460 0.8460 0.8460 0.8440
1756.984461 0.8440 0.8440 0.8440 0.8440 0.8440
1764.245000 0.8430 0.8430 0.8430 0.8430 0.8430
1771.513461 0.8430 0.8430 0.8430 0.8420 0.8400
1778.775000 0.8390 0.8390 0.8390 0.8370 0.8370
1786.043461 0.8370 0.8360 0.8360 0.8360 0.8360
1793.304000 0.8360 0.8360 0.8340 0.8340 0.8340
1800.572461 0.8340 0.8340 0.8340 0.8340 0.8340
1807.833000 0.8340 0.8340 0.8340 0.8340 0.8330
1815.101461 0.8330 0.8330 0.8330 0.8330 0.8330
1822.363000 0.8330 0.8330 0.8330 0.8330 0.8330
1829.631461 0.8310 0.8300 0.8300 0.8280 0.8270
1836.892000 0.8260 0.8260 0.8260 0.8240 0.8240
1844.160461 0.8240 0.8240 0.8230 0.8230 0.8210
1851.421000 0.8200 0.8180 0.8170 0.8150 0.8140
1858.689461 0.8140 0.8130 0.8110 0.8110 0.8100
1865.951000 0.8100 0.8100 0.8100 0.8100 0.8100
1873.219461 0.8100 0.8080 0.8070 0.8050 0.8020
1880.480000 0.8010 0.8000 0.8000 0.7980 0.7980
1887.748461 0.7970 0.7950 0.7940 0.7940 0.7920
1895.010000 0.7920 0.7910 0.7910 0.7890 0.7860
1902.278461 0.7850 0.7820 0.7790 0.7780 0.7760
1909.539000 0.7760 0.7750 0.7730 0.7730 0.7720
1916.807461 0.7710 0.7650 0.7600 0.7560 0.7530
1924.068000 0.7530 0.7530 0.7520 0.7520 0.7520
1931.336461 0.7520 0.7520 0.7520 0.7520 0.7520
1938.598000 0.7520 0.7520 0.7520 0.7520 0.7520
1945.866461 0.7520 0.7520 0.7500 0.7500 0.7500
1953.127000 0.7490 0.7470 0.7470 0.7460 0.7440
1960.395461 0.7440 0.7420 0.7390 0.7370 0.7360
1967.656000 0.7360 0.7340 0.7300 0.7280 0.7210
1974.924461 0.7150 0.7130 0.7100 0.7070 0.7000
1982.186000 0.6970 0.6920 0.6880 0.6850 0.6790
1989.454461 0.6760 0.6720 0.6660 0.6630 0.6620
1996.715000 0.6590 0.6530 0.6490 0.6420 0.6310
2003.983461 0.6210 0.6110 0.6020 0.5980 0.5970
2011.245000 0.5890 0.5790 0.5720 0.5660 0.5590
2018.513461 0.5530 0.5490 0.5440 0.5400 0.5370
2025.774000 0.5360 0.5340 0.5340 0.5340 0.5340
2033.042461 0.5340 0.5360 0.5360 0.5370 0.5390
2040.303000 0.5430 0.5470 0.5500 0.5550 0.5590
2047.571461 0.5620 0.5660 0.5690 0.5710 0.5730
2054.833000 0.5730 0.5730 0.5720 0.5720 0.5720
2062.101461 0.5720 0.5710 0.5710 0.5710 0.5720
2069.362000 0.5780 0.5880 0.6010 0.6150 0.6340
2076.630461 0.6500 0.6710 0.6810 0.6940 0.7040
2083.891000 0.7170 0.7270 0.7310 0.7360 0.7370
2091.159461 0.7400 0.7420 0.7430 0.7440 0.7440
2098.421000 0.7440 0.7460 0.7460 0.7460 0.7460
2105.689461 0.7460 0.7460 0.7460 0.7470 0.7470
2112.950000 0.7470 0.7470 0.7460 0.7460 0.7460
2120.218461 0.7460 0.7460 0.7460 0.7440 0.7440
2127.479000 0.7430 0.7430 0.7430 0.7420 0.7420
2134.747461 0.7400 0.7400 0.7400 0.7390 0.7390
2142.009000 0.7390 0.7390 0.7370 0.7370 0.7370
2149.277461 0.7370 0.7360 0.7360 0.7340 0.7340
2156.538000 0.7340 0.7330 0.7330 0.7310 0.7300
2163.806461 0.7280 0.7270 0.7240 0.7210 0.7180
2171.068000 0.7170 0.7150 0.7140 0.7130 0.7110
2178.336461 0.7110 0.7100 0.7080 0.7080 0.7070
2185.597000 0.7070 0.7050 0.7050 0.7050 0.7040
2192.865461 0.7040 0.7020 0.7020 0.7010 0.7010
2200.126000 0.7010 0.7000 0.7000 0.7000 0.7000
2207.394461 0.6980 0.6980 0.6970 0.6970 0.6950
2214.656000 0.6950 0.6940 0.6920 0.6910 0.6890
2221.924461 0.6880 0.6840 0.6790 0.6760 0.6730
2229.185000 0.6710 0.6680 0.6660 0.6630 0.6620
2236.453461 0.6600 0.6590 0.6560 0.6530 0.6520
2243.715000 0.6500 0.6490 0.6490 0.6470 0.6470
2250.983461 0.6460 0.6460 0.6440 0.6440 0.6430
2258.244000 0.6430 0.6430 0.6420 0.6400 0.6370
2265.512461 0.6340 0.6330 0.6310 0.6270 0.6240
2272.773000 0.6200 0.6170 0.6150 0.6130 0.6110
2280.041461 0.6080 0.6070 0.6020 0.6000 0.5980
2287.302000 0.5950 0.5950 0.5940 0.5910 0.5890
2294.570461 0.5860 0.5840 0.5790 0.5750 0.5720
2301.832000 0.5680 0.5650 0.5600 0.5570 0.5550
2309.100461 0.5520 0.5490 0.5470 0.5440 0.5430
2316.361000 0.5400 0.5370 0.5340 0.5310 0.5270
2323.629461 0.5240 0.5210 0.5200 0.5170 0.5100
2330.891000 0.5010 0.4980 0.4950 0.4920 0.4860
2338.159461 0.4810 0.4790 0.4780 0.4760 0.4750
2345.420000 0.4730 0.4720 0.4690 0.4680 0.4650
2352.688461 0.4620 0.4570 0.4500 0.4490 0.4470
2359.949000 0.4460 0.4420 0.4400 0.4390 0.4360
2367.217461 0.4330 0.4310 0.4300 0.4280 0.4270
2374.479000 0.4270 0.4260 0.4240 0.4240 0.4210
2381.747461 0.4170 0.4140 0.4110 0.4100 0.4070
2389.008000 0.4040 0.4010 0.4000 0.4000 0.3980
2396.276461 0.3970 0.3910 0.3880 0.3840 0.3780
2403.538000 0.3720 0.3660 0.3620 0.3570 0.3530
2410.806461 0.3470 0.3420 0.3360 0.3310 0.3280
2418.067000 0.3270 0.3260 0.3260 0.3260 0.3240
2425.335461 0.3240 0.3240 0.3240 0.3260 0.3260
2432.596000 0.3020 0.3000 0.3000 0.3020 0.3080
2439.864461 0.3140 0.3200 0.3260 0.3300 0.3310
2447.126000 0.3310 0.3310 0.3310 0.3280 0.3260
2454.394461 0.3210 0.3150 0.3110 0.3070 0.3010
2461.655000 0.3010 0.2980 0.2940 0.2860 0.2850
2468.923461 0.2810 0.2790 0.2730 0.2690 0.2650
2476.185000 0.2620 0.2550 0.2470 0.2420 0.2360
2483.453461 0.2310 0.2260 0.2200 0.2140 0.2050
2490.714000 0.2020 0.2000 0.1970 0.1950 0.1940
2497.982461 0.1920 0.1910 0.1910 0.1890 0.1890
2505.243000 0.1880 0.1880 0.1850 0.1840 0.1820
2512.511461 0.1810 0.1790 0.1790 0.1790 0.1810
2519.773000 0.1810 0.1810 0.1820 0.1820 0.1820
2527.041461 0.1820 0.1810 0.1810 0.1810 0.1810
2534.302000 0.1810 0.1810 0.1820 0.1820 0.1840
2541.570461 0.1860 0.1880 0.1920 0.1950 0.1980
2548.831000 0.2010 0.2040 0.2070 0.2130 0.2180
2556.099461 0.2200 0.2210 0.2200 0.2200 0.2180
2563.361000 0.2170 0.2150 0.2130 0.2100 0.2020
2570.629461 0.1970 0.1910 0.1880 0.1840 0.1820
2577.890000 0.1810 0.1790 0.1790 0.1790 0.1810
2585.158461 0.1810 0.1820 0.1840 0.1850 0.1850
2592.419000 0.1850 0.1860 0.1860 0.1860 0.1860
2599.687461 0.1860 0.1860 0.1850 0.1820 0.1780
2606.949000 0.1750 0.1720 0.1710 0.1690 0.1680
2614.217461 0.1680 0.1660 0.1660 0.1660 0.1660
2621.478000 0.1660 0.1680 0.1680 0.1660 0.1660
2628.746461 0.1650 0.1630 0.1600 0.1550 0.1530
2636.008000 0.1500 0.1460 0.1440 0.1440 0.1430
2643.276461 0.1420 0.1420 0.1420 0.1400 0.1400
2650.537000 0.1390 0.1370 0.1370 0.1370 0.1370
2657.805461 0.1370 0.1370 0.1390 0.1390 0.1390
2665.066000 0.1390 0.1390 0.1390 0.1390 0.1390
2672.334461 0.1390 0.1390 0.1390 0.1390 0.1390
2679.596000 0.1400 0.1400 0.1420 0.1420 0.1420
2686.864461 0.1400 0.1400 0.1390 0.1370 0.1370
2694.125000 0.1360 0.1330 0.1310 0.1300 0.1280
2701.393461 0.1280 0.1270 0.1270 0.1260 0.1260
2708.655000 0.1260 0.1260 0.1260 0.1260 0.1260
2715.923461 0.1260 0.1270 0.1270 0.1270 0.1280
2723.184000 0.1300 0.1300 0.1310 0.1330 0.1340
2730.452461 0.1360 0.1370 0.1390 0.1390 0.1390
2737.713000 0.1400 0.1400 0.1400 0.1420 0.1420
2744.981461 0.1420 0.1420 0.1420 0.1420 0.1420
2752.243000 0.1420 0.1420 0.1420 0.1420 0.1420
2759.511461 0.1420 0.1400 0.1400 0.1400 0.1400
2766.772000 0.1400 0.1400 0.1400 0.1420 0.1420
2774.040461 0.1420 0.1420 0.1420 0.1420 0.1420
2781.301000 0.1430 0.1430 0.1430 0.1430 0.1440
2788.569461 0.1460 0.1460 0.1470 0.1470 0.1490
2795.831000 0.1500 0.1520 0.1530 0.1560 0.1570
2803.099461 0.1590 0.1590 0.1600 0.1600 0.1600
2810.360000 0.1620 0.1620 0.1630 0.1630 0.1630
2817.628461 0.1620 0.1620 0.1620 0.1620 0.1590
2824.889000 0.1570 0.1560 0.1530 0.1520 0.1500
2832.157461 0.1490 0.1440 0.1430 0.1400 0.1340
2839.419000 0.1210 0.1050 0.0910 0.0810 0.0780
2846.687461 0.0720 0.0660 0.0650 0.0630 0.0620
2853.948000 0.0600 0.0600 0.0600 0.0600 0.0600
2861.216461 0.0620 0.0620 0.0620 0.0630 0.0630
2868.478000 0.0630 0.0630 0.0650 0.0650 0.0680
2875.746461 0.0680 0.0690 0.0720 0.0730 0.0730
2883.007000 0.0750 0.0750 0.0750 0.0730 0.0720
2890.275461 0.0720 0.0690 0.0650 0.0590 0.0550
2897.536000 0.0520 0.0500 0.0470 0.0460 0.0430
2904.804461 0.0390 0.0370 0.0340 0.0330 0.0310
2912.066000 0.0300 0.0300 0.0280 0.0280 0.0280
2919.334461 0.0280 0.0280 0.0280 0.0300 0.0300
2926.595000 0.0310 0.0310 0.0330 0.0340 0.0360
2933.863461 0.0370 0.0390 0.0400 0.0420 0.0440
2941.125000 0.0470 0.0500 0.0550 0.0560 0.0570
2948.393461 0.0590 0.0600 0.0620 0.0630 0.0650
2955.654000 0.0660 0.0660 0.0680 0.0690 0.0760
2962.922461 0.0840 0.0950 0.1020 0.1110 0.1140
2970.183000 0.1200 0.1280 0.1370 0.1490 0.1560
2977.451461 0.1720 0.1910 0.1980 0.2080 0.2230
2984.713000 0.2340 0.2420 0.2470 0.2490 0.2500
2991.981461 0.2520 0.2530 0.2530 0.2530 0.2530
2999.242000 0.2550 0.2550 0.2550 0.2550 0.2560
3006.510461 0.2560 0.2560 0.2560 0.2570 0.2590
3013.771000 0.2590 0.2600 0.2600 0.2620 0.2620
3021.039461 0.2620 0.2630 0.2630 0.2630 0.2620
3028.301000 0.2620 0.2590 0.2550 0.2520 0.2490
3035.569461 0.2470 0.2430 0.2400 0.2390 0.2340
3042.830000 0.2330 0.2310 0.2280 0.2230 0.2210
3050.098461 0.2150 0.2100 0.2040 0.1980 0.1950
3057.359000 0.1920 0.1890 0.1880 0.1820 0.1780
3064.627461 0.1730 0.1720 0.1690 0.1650 0.1630
3071.889000 0.1620 0.1600 0.1590 0.1570 0.1570
3079.157461 0.1560 0.1560 0.1560 0.1550 0.1550
3086.418000 0.1550 0.1550 0.1550 0.1560 0.1560
3093.686461 0.1560 0.1560 0.1560 0.1560 0.1560
3100.948000 0.1560 0.1570 0.1570 0.1570 0.1570
3108.216461 0.1570 0.1570 0.1570 0.1570 0.1590
3115.477000 0.1590 0.1590 0.1590 0.1590 0.1600
3122.745461 0.1620 0.1620 0.1630 0.1650 0.1660
3130.006000 0.1690 0.1730 0.1750 0.1780 0.1810
3137.274461 0.1820 0.1860 0.1950 0.2000 0.2020
3144.536000 0.2100 0.2170 0.2230 0.2300 0.2370
3151.804461 0.2430 0.2490 0.2550 0.2620 0.2680
3159.065000 0.2730 0.2780 0.2840 0.2890 0.3000
3166.333461 0.3100 0.3110 0.3180 0.3240 0.3280
3173.594000 0.3340 0.3400 0.3430 0.3470 0.3500
3180.862461 0.3550 0.3630 0.3690 0.3720 0.3760
3188.124000 0.3780 0.3820 0.3860 0.3890 0.3910
3195.392461 0.3950 0.4000 0.4070 0.4080 0.4100
3202.653000 0.4150 0.4180 0.4240 0.4300 0.4370
3209.921461 0.4390 0.4470 0.4550 0.4650 0.4690
3217.183000 0.4750 0.4810 0.4850 0.4950 0.4980
3224.451461 0.5000 0.5040 0.5130 0.5180 0.5260
3231.712000 0.5280 0.5330 0.5360 0.5390 0.5460
3238.980461 0.5500 0.5550 0.5570 0.5600 0.5630
3246.241000 0.5690 0.5750 0.5790 0.5810 0.5860
3253.509461 0.5920 0.5940 0.5950 0.6000 0.6020
3260.771000 0.6070 0.6110 0.6170 0.6210 0.6260
3268.039461 0.6280 0.6280 0.6310 0.6330 0.6360
3275.300000 0.6370 0.6400 0.6430 0.6470 0.6500
3282.568461 0.6520 0.6550 0.6570 0.6570 0.6590
3289.830000 0.6630 0.6680 0.6690 0.6720 0.6730
3297.098461 0.6750 0.6780 0.6790 0.6820 0.6820
3304.359000 0.6850 0.6860 0.6880 0.6910 0.6940
3311.627461 0.6970 0.6980 0.7000 0.7040 0.7050
3318.888000 0.7070 0.7080 0.7110 0.7140 0.7140
3326.156461 0.7180 0.7230 0.7260 0.7300 0.7330
3333.417000 0.7340 0.7340 0.7370 0.7440 0.7470
3340.685461 0.7490 0.7500 0.7520 0.7550 0.7570
3347.947000 0.7590 0.7630 0.7680 0.7710 0.7720
3355.215461 0.7730 0.7730 0.7750 0.7760 0.7780
3362.476000 0.7790 0.7820 0.7840 0.7880 0.7890
3369.744461 0.7920 0.7970 0.7980 0.8000 0.8010
3377.006000 0.8010 0.8040 0.8050 0.8050 0.8070
3384.274461 0.8080 0.8100 0.8100 0.8100 0.8110
3391.535000 0.8140 0.8150 0.8170 0.8170 0.8180
3398.803461 0.8180 0.8180 0.8200 0.8200 0.8200
3406.064000 0.8200 0.8200 0.8200 0.8200 0.8200
3413.332461 0.8200 0.8200 0.8200 0.8200 0.8210
3420.594000 0.8210 0.8210 0.8210 0.8210 0.8210
3427.862461 0.8210 0.8230 0.8230 0.8230 0.8230
3435.123000 0.8240 0.8240 0.8240 0.8240 0.8240
3442.391461 0.8260 0.8260
##END=
