##TITLE=5-NITRO-O-CRESOL
##JCAMP-DX=4.24
##DATA TYPE=INFRARED SPECTRUM
##CLASS=COBLENTZ
##OWNER=COBLENTZ SOCIETY
Collection (C) 2018 copyright by the U.S. Secretary of Commerce
on behalf of the United States of America. All rights reserved.
##DATE=1960
##MOLFORM=C7 H7 N3 O
##SOURCE REFERENCE=COBLENTZ NO. 888
##$NIST ID=B6000888
##$NIST SOURCE=COBLENTZ
##$NIST IMAGE=cob888
##SPECTROMETER/DATA SYSTEM=Not specified, most likely a prism, grating, or hybrid spectrometer.
##STATE=SOLUTION (3% CHCl3)
##PATH LENGTH=0.009 CM
$$SPECTRAL CONTAMINATION DUE TO INACTIVE CHCl3 AROUND 730-800 CM^-^1
##SAMPLING PROCEDURE=TRANSMISSION
##RESOLUTION=4
##DATA PROCESSING=DIGITIZED BY NIST FROM HARD COPY
##XUNITS=MICROMETERS
##YUNITS=TRANSMITTANCE
##XFACTOR=1.000000
##YFACTOR=1
##DELTAX=000.007127
##FIRSTX=1.95
##LASTX=15.3918
##FIRSTY=0.954
##MAXX=15.3918
##MINX=1.95
##MAXY=0.954
##MINY=0.092
##NPOINTS=1887
##XYDATA=(X++(Y..Y))
1.950000 0.9540 0.9540 0.9540 0.9540 0.9540
1.985655 0.9540 0.9540 0.9540 0.9540 0.9540
2.021000 0.9540 0.9540 0.9530 0.9530 0.9530
2.056655 0.9530 0.9530 0.9530 0.9510 0.9510
2.093000 0.9510 0.9510 0.9510 0.9490 0.9490
2.128655 0.9490 0.9490 0.9490 0.9490 0.9490
2.164000 0.9470 0.9470 0.9470 0.9470 0.9470
2.199655 0.9490 0.9490 0.9490 0.9490 0.9490
2.235000 0.9490 0.9470 0.9460 0.9460 0.9460
2.270655 0.9460 0.9460 0.9460 0.9460 0.9460
2.306000 0.9440 0.9440 0.9440 0.9440 0.9440
2.341655 0.9440 0.9420 0.9420 0.9420 0.9420
2.378000 0.9420 0.9420 0.9420 0.9420 0.9420
2.413655 0.9420 0.9420 0.9400 0.9400 0.9400
2.449000 0.9400 0.9390 0.9390 0.9400 0.9400
2.484655 0.9400 0.9420 0.9420 0.9420 0.9420
2.520000 0.9400 0.9400 0.9400 0.9390 0.9390
2.555655 0.9390 0.9390 0.9390 0.9390 0.9390
2.592000 0.9390 0.9390 0.9390 0.9370 0.9350
2.627655 0.9330 0.9320 0.9320 0.9320 0.9320
2.663000 0.9320 0.9320 0.9300 0.9300 0.9300
2.698655 0.9280 0.9280 0.9280 0.9280 0.9260
2.734000 0.9070 0.8850 0.8600 0.8340 0.7800
2.769655 0.7540 0.7530 0.7560 0.7840 0.8190
2.805000 0.8310 0.8410 0.8480 0.8590 0.8600
2.840655 0.8590 0.8590 0.8570 0.8570 0.8530
2.877000 0.8520 0.8520 0.8480 0.8430 0.8340
2.912655 0.8270 0.8260 0.8260 0.8200 0.8170
2.948000 0.8130 0.8120 0.8100 0.8050 0.8000
2.983655 0.7940 0.7910 0.7870 0.7840 0.7790
3.019000 0.7730 0.7720 0.7680 0.7680 0.7660
3.054655 0.7650 0.7650 0.7660 0.7700 0.7730
3.090000 0.7790 0.7820 0.7870 0.7910 0.7940
3.125655 0.8000 0.8030 0.8060 0.8100 0.8130
3.162000 0.8150 0.8190 0.8220 0.8260 0.8290
3.197655 0.8330 0.8340 0.8380 0.8400 0.8430
3.233000 0.8450 0.8460 0.8460 0.8450 0.8340
3.268655 0.8260 0.8240 0.8260 0.8330 0.8400
3.304000 0.8450 0.8530 0.8570 0.8590 0.8600
3.339655 0.8620 0.8640 0.8670 0.8690 0.8710
3.376000 0.8710 0.8710 0.8710 0.8710 0.8730
3.411655 0.8730 0.8740 0.8760 0.8800 0.8830
3.447000 0.8860 0.8880 0.8880 0.8900 0.8900
3.482655 0.8920 0.8920 0.8950 0.8990 0.9000
3.518000 0.9000 0.9000 0.9020 0.9000 0.9000
3.553655 0.9020 0.9020 0.9020 0.9020 0.9020
3.589000 0.9020 0.9020 0.9020 0.9020 0.9020
3.624655 0.9020 0.9020 0.9020 0.9020 0.9020
3.661000 0.9020 0.9040 0.9040 0.9040 0.9040
3.696655 0.9040 0.9040 0.9040 0.9040 0.9040
3.732000 0.9040 0.9040 0.9040 0.9040 0.9040
3.767655 0.9060 0.9060 0.9060 0.9060 0.9060
3.803000 0.9060 0.9060 0.9060 0.9070 0.9070
3.838655 0.9070 0.9090 0.9090 0.9090 0.9110
3.874000 0.9110 0.9130 0.9130 0.9130 0.9130
3.909655 0.9130 0.9130 0.9110 0.9110 0.9110
3.946000 0.9110 0.9110 0.9110 0.9110 0.9110
3.981655 0.9110 0.9110 0.9110 0.9110 0.9110
4.017000 0.9110 0.9110 0.9110 0.9090 0.9090
4.052655 0.9090 0.9090 0.9090 0.9070 0.9070
4.088000 0.9070 0.9070 0.9070 0.9060 0.9060
4.123655 0.9060 0.9060 0.9060 0.9060 0.9070
4.160000 0.9070 0.9090 0.9090 0.9110 0.9110
4.195655 0.9130 0.9130 0.9130 0.9140 0.9140
4.231000 0.9140 0.9130 0.9130 0.9130 0.9130
4.266655 0.9130 0.9130 0.9130 0.9130 0.9130
4.302000 0.9130 0.9130 0.9140 0.9140 0.9140
4.337655 0.9140 0.9140 0.9140 0.9140 0.9140
4.373000 0.9140 0.9140 0.9140 0.9140 0.9160
4.408655 0.9160 0.9160 0.9160 0.9160 0.9160
4.445000 0.9160 0.9160 0.9160 0.9160 0.9160
4.480655 0.9160 0.9160 0.9160 0.9160 0.9180
4.516000 0.9180 0.9180 0.9180 0.9160 0.9160
4.551655 0.9160 0.9160 0.9160 0.9180 0.9180
4.587000 0.9180 0.9180 0.9180 0.9180 0.9180
4.622655 0.9180 0.9180 0.9180 0.9180 0.9180
4.658000 0.9180 0.9180 0.9180 0.9180 0.9180
4.693655 0.9180 0.9180 0.9180 0.9180 0.9180
4.730000 0.9180 0.9180 0.9180 0.9180 0.9180
4.765655 0.9180 0.9180 0.9180 0.9180 0.9180
4.801000 0.9180 0.9180 0.9180 0.9180 0.9180
4.836655 0.9180 0.9180 0.9180 0.9180 0.9180
4.872000 0.9180 0.9180 0.9180 0.9180 0.9160
4.907655 0.9160 0.9160 0.9160 0.9160 0.9160
4.944000 0.9160 0.9160 0.9160 0.9160 0.9160
4.979655 0.9160 0.9140 0.9140 0.9140 0.9140
5.015000 0.9140 0.9140 0.9140 0.9130 0.9130
5.050655 0.9130 0.9130 0.9110 0.9110 0.9110
5.086000 0.9110 0.9110 0.9110 0.9110 0.9110
5.121655 0.9110 0.9110 0.9110 0.9110 0.9110
5.157000 0.9110 0.9110 0.9110 0.9110 0.9110
5.192655 0.9110 0.9110 0.9090 0.9090 0.9090
5.229000 0.9090 0.9090 0.9090 0.9090 0.9090
5.264655 0.9090 0.9090 0.9110 0.9110 0.9110
5.300000 0.9130 0.9130 0.9130 0.9130 0.9130
5.335655 0.9130 0.9130 0.9130 0.9140 0.9130
5.371000 0.9130 0.9130 0.9140 0.9140 0.9140
5.406655 0.9140 0.9140 0.9140 0.9140 0.9140
5.442000 0.9140 0.9140 0.9140 0.9130 0.9130
5.477655 0.9130 0.9110 0.9110 0.9110 0.9110
5.514000 0.9110 0.9130 0.9140 0.9140 0.9140
5.549655 0.9140 0.9160 0.9160 0.9160 0.9140
5.585000 0.9140 0.9130 0.9110 0.9090 0.9070
5.620655 0.9060 0.9020 0.9000 0.9000 0.9000
5.656000 0.9000 0.9000 0.9000 0.8990 0.8990
5.691655 0.8990 0.8990 0.8990 0.8990 0.8990
5.728000 0.8990 0.8990 0.8990 0.8990 0.8990
5.763655 0.8990 0.8990 0.8990 0.8990 0.8990
5.799000 0.8990 0.8990 0.8990 0.8990 0.8990
5.834655 0.8990 0.8990 0.8990 0.8990 0.8990
5.870000 0.8990 0.8990 0.8990 0.8990 0.8990
5.905655 0.8990 0.8990 0.8990 0.8990 0.8990
5.941000 0.8990 0.8990 0.8990 0.8990 0.8990
5.976655 0.8990 0.8970 0.8970 0.8950 0.8950
6.013000 0.8930 0.8930 0.8930 0.8920 0.8880
6.048655 0.8860 0.8850 0.8850 0.8830 0.8810
6.084000 0.8800 0.8780 0.8760 0.8760 0.8710
6.119655 0.8670 0.8620 0.8600 0.8570 0.8530
6.155000 0.8380 0.8100 0.8080 0.8060 0.8080
6.190655 0.8100 0.8120 0.7800 0.7600 0.7560
6.226000 0.7600 0.7730 0.7940 0.8150 0.8270
6.261655 0.8330 0.8380 0.8450 0.8480 0.8500
6.298000 0.8520 0.8520 0.8500 0.8500 0.8460
6.333655 0.8450 0.8400 0.8170 0.8060 0.8010
6.369000 0.7940 0.7890 0.7820 0.7800 0.7800
6.404655 0.7800 0.7800 0.7820 0.7840 0.7840
6.440000 0.7820 0.7770 0.7700 0.7630 0.7530
6.475655 0.7370 0.7130 0.6810 0.5790 0.5060
6.512000 0.4340 0.3910 0.3420 0.2310 0.1870
6.547655 0.1390 0.1350 0.1370 0.1400 0.1630
6.583000 0.1860 0.2290 0.2730 0.3160 0.3370
6.618655 0.3580 0.4240 0.4850 0.5130 0.5400
6.654000 0.6310 0.6640 0.6740 0.6850 0.6990
6.689655 0.7070 0.7140 0.7200 0.7320 0.7460
6.725000 0.7580 0.7660 0.7720 0.7750 0.7840
6.760655 0.7940 0.8050 0.8050 0.8080 0.8120
6.797000 0.8170 0.8190 0.8190 0.8150 0.8130
6.832655 0.8120 0.8030 0.7980 0.7940 0.7840
6.868000 0.7750 0.7630 0.7600 0.7610 0.7610
6.903655 0.7630 0.7650 0.7660 0.7680 0.7680
6.939000 0.7680 0.7660 0.7660 0.7660 0.7650
6.974655 0.7650 0.7630 0.7630 0.7540 0.7400
7.010000 0.7230 0.7060 0.6930 0.6850 0.6480
7.045655 0.6290 0.6010 0.6000 0.6010 0.6430
7.082000 0.6670 0.6900 0.7460 0.7660 0.7790
7.117655 0.7860 0.7910 0.7930 0.7960 0.7980
7.153000 0.7980 0.7980 0.7980 0.7980 0.7960
7.188655 0.7940 0.7870 0.7730 0.7610 0.7530
7.224000 0.7400 0.7260 0.7040 0.6800 0.6760
7.259655 0.6800 0.6920 0.7200 0.7330 0.7370
7.296000 0.7370 0.7370 0.7350 0.7230 0.7110
7.331655 0.6970 0.6830 0.6410 0.6120 0.5750
7.367000 0.5300 0.4240 0.3820 0.3470 0.2850
7.402655 0.2520 0.2100 0.1000 0.0920 0.1000
7.438000 0.1630 0.1960 0.2270 0.2970 0.3260
7.473655 0.3540 0.4100 0.4640 0.4950 0.5250
7.509000 0.5940 0.6240 0.6500 0.6640 0.6760
7.544655 0.6970 0.7140 0.7230 0.7320 0.7470
7.581000 0.7530 0.7560 0.7600 0.7630 0.7630
7.616655 0.7630 0.7650 0.7650 0.7650 0.7660
7.652000 0.7680 0.7700 0.7700 0.7700 0.7660
7.687655 0.7600 0.7560 0.7510 0.7470 0.7470
7.723000 0.7510 0.7580 0.7610 0.7650 0.7680
7.758655 0.7720 0.7750 0.7800 0.7860 0.7860
7.794000 0.7750 0.7680 0.7610 0.7540 0.7460
7.829655 0.7320 0.7130 0.7130 0.7180 0.7180
7.866000 0.7160 0.7140 0.6970 0.6740 0.6260
7.901655 0.6000 0.5750 0.5530 0.5350 0.5200
7.937000 0.5110 0.4970 0.4990 0.5000 0.5020
7.972655 0.5140 0.5180 0.5540 0.5960 0.6100
8.008000 0.6330 0.6520 0.6620 0.6710 0.6880
8.043655 0.7000 0.7070 0.7090 0.7110 0.7110
8.079000 0.7130 0.7160 0.7230 0.7260 0.7260
8.114655 0.7260 0.7250 0.7230 0.7180 0.7130
8.151000 0.7040 0.6970 0.6880 0.6860 0.6850
8.186655 0.6860 0.6970 0.6990 0.7020 0.7040
8.222000 0.7040 0.7070 0.7110 0.7130 0.7130
8.257655 0.7130 0.7140 0.7160 0.7160 0.7160
8.293000 0.7160 0.7130 0.7130 0.7110 0.7140
8.328655 0.7210 0.7320 0.7460 0.7600 0.7750
8.365000 0.7870 0.8000 0.8060 0.8100 0.8130
8.400655 0.8130 0.8130 0.8080 0.7910 0.7770
8.436000 0.7680 0.7490 0.7400 0.7280 0.7230
8.471655 0.7210 0.7200 0.7160 0.7130 0.7110
8.507000 0.7110 0.7110 0.7090 0.7060 0.7000
8.542655 0.6970 0.6930 0.6880 0.6830 0.6740
8.578000 0.6450 0.6240 0.5960 0.5940 0.5980
8.613655 0.6360 0.6590 0.6640 0.6930 0.7210
8.650000 0.7510 0.7730 0.7910 0.8030 0.8120
8.685655 0.8170 0.8220 0.8270 0.8310 0.8330
8.721000 0.8340 0.8380 0.8430 0.8460 0.8480
8.756655 0.8480 0.8530 0.8550 0.8570 0.8570
8.792000 0.8590 0.8600 0.8600 0.8620 0.8620
8.827655 0.8600 0.8570 0.8520 0.8450 0.8380
8.863000 0.8220 0.8120 0.7980 0.7840 0.7680
8.898655 0.7510 0.7300 0.7130 0.7060 0.6900
8.935000 0.6810 0.6690 0.6660 0.6670 0.6690
8.970655 0.6990 0.7250 0.7490 0.7700 0.7890
9.006000 0.8050 0.8190 0.8290 0.8340 0.8380
9.041655 0.8410 0.8450 0.8450 0.8480 0.8520
9.077000 0.8570 0.8620 0.8620 0.8590 0.8570
9.112655 0.8550 0.8570 0.8570 0.8550 0.8520
9.149000 0.8460 0.8400 0.8190 0.8010 0.7910
9.184655 0.7720 0.7510 0.7180 0.7090 0.7110
9.220000 0.7180 0.7250 0.7350 0.7510 0.7660
9.255655 0.7840 0.7980 0.8080 0.8240 0.8330
9.291000 0.8340 0.8360 0.8380 0.8400 0.8410
9.326655 0.8460 0.8530 0.8570 0.8590 0.8600
9.362000 0.8640 0.8660 0.8670 0.8670 0.8690
9.397655 0.8710 0.8730 0.8740 0.8760 0.8780
9.434000 0.8810 0.8830 0.8900 0.8930 0.8950
9.469655 0.8990 0.9000 0.9020 0.9040 0.9060
9.505000 0.9090 0.9110 0.9110 0.9090 0.9020
9.540655 0.8950 0.8900 0.8860 0.8810 0.8760
9.576000 0.8690 0.8590 0.8460 0.8190 0.8080
9.611655 0.7980 0.7890 0.7820 0.7790 0.7720
9.647000 0.7700 0.7700 0.7700 0.7720 0.7840
9.682655 0.7940 0.8060 0.8190 0.8330 0.8380
9.719000 0.8430 0.8550 0.8640 0.8730 0.8800
9.754655 0.8850 0.8860 0.8900 0.8900 0.8900
9.790000 0.8900 0.8900 0.8880 0.8900 0.8900
9.825655 0.8900 0.8900 0.8920 0.8920 0.8920
9.861000 0.8900 0.8900 0.8880 0.8860 0.8800
9.896655 0.8780 0.8760 0.8740 0.8710 0.8640
9.933000 0.8620 0.8600 0.8590 0.8570 0.8530
9.968655 0.8520 0.8480 0.8430 0.8380 0.8240
10.004000 0.8190 0.8130 0.8120 0.8080 0.8060
10.039655 0.8120 0.8170 0.8240 0.8310 0.8330
10.075000 0.8340 0.8400 0.8480 0.8550 0.8620
10.110655 0.8640 0.8670 0.8690 0.8690 0.8710
10.146000 0.8710 0.8730 0.8780 0.8800 0.8810
10.181655 0.8830 0.8850 0.8860 0.8900 0.8920
10.218000 0.8930 0.8930 0.8930 0.8930 0.8930
10.253655 0.8950 0.8950 0.8950 0.8950 0.8950
10.289000 0.8970 0.8970 0.8970 0.8970 0.8970
10.324655 0.8970 0.8970 0.8970 0.8970 0.8970
10.360000 0.8970 0.8970 0.8970 0.8970 0.8970
10.395655 0.8970 0.8970 0.8970 0.8970 0.8970
10.431000 0.8970 0.8970 0.8970 0.8970 0.8970
10.466655 0.8950 0.8950 0.8930 0.8930 0.8900
10.503000 0.8900 0.8900 0.8860 0.8850 0.8810
10.538655 0.8760 0.8740 0.8690 0.8660 0.8620
10.574000 0.8530 0.8520 0.8400 0.8050 0.7910
10.609655 0.7820 0.7730 0.7660 0.7660 0.7680
10.645000 0.7840 0.7960 0.8060 0.8170 0.8270
10.680655 0.8330 0.8360 0.8450 0.8530 0.8620
10.717000 0.8710 0.8780 0.8810 0.8830 0.8850
10.752655 0.8850 0.8850 0.8880 0.8880 0.8900
10.788000 0.8900 0.8920 0.8930 0.8930 0.8930
10.823655 0.8930 0.8950 0.8950 0.8950 0.8950
10.859000 0.8950 0.8950 0.8950 0.8950 0.8950
10.894655 0.8950 0.8950 0.8950 0.8950 0.8950
10.930000 0.8950 0.8950 0.8950 0.8950 0.8950
10.965655 0.8950 0.8950 0.8950 0.8950 0.8950
11.002000 0.8950 0.8950 0.8950 0.8950 0.8950
11.037655 0.8930 0.8930 0.8930 0.8920 0.8920
11.073000 0.8900 0.8880 0.8860 0.8860 0.8860
11.108655 0.8850 0.8850 0.8850 0.8830 0.8830
11.144000 0.8810 0.8810 0.8810 0.8800 0.8800
11.179655 0.8780 0.8760 0.8760 0.8730 0.8690
11.215000 0.8670 0.8660 0.8620 0.8590 0.8520
11.250655 0.8450 0.8340 0.8120 0.8050 0.8030
11.287000 0.8000 0.7960 0.7940 0.7940 0.7910
11.322655 0.7890 0.7860 0.7840 0.7820 0.7790
11.358000 0.7720 0.7660 0.7580 0.7510 0.7420
11.393655 0.7330 0.7250 0.7140 0.7040 0.7000
11.429000 0.6970 0.6970 0.6950 0.6950 0.6950
11.464655 0.6950 0.6950 0.6970 0.7000 0.7040
11.501000 0.7060 0.7140 0.7320 0.7470 0.7580
11.536655 0.7720 0.7820 0.7940 0.8030 0.8120
11.572000 0.8200 0.8270 0.8310 0.8340 0.8410
11.607655 0.8460 0.8530 0.8570 0.8590 0.8620
11.643000 0.8670 0.8710 0.8730 0.8740 0.8760
11.678655 0.8780 0.8780 0.8800 0.8800 0.8810
11.714000 0.8810 0.8810 0.8810 0.8810 0.8810
11.749655 0.8810 0.8810 0.8810 0.8810 0.8810
11.786000 0.8810 0.8810 0.8810 0.8810 0.8810
11.821655 0.8810 0.8810 0.8830 0.8830 0.8830
11.857000 0.8850 0.8850 0.8850 0.8850 0.8850
11.892655 0.8850 0.8860 0.8880 0.8880 0.8900
11.928000 0.8900 0.8920 0.8920 0.8920 0.8900
11.963655 0.8900 0.8900 0.8900 0.8860 0.8850
11.999000 0.8810 0.8780 0.8730 0.8710 0.8670
12.034655 0.8660 0.8600 0.8590 0.8570 0.8550
12.071000 0.8530 0.8500 0.8480 0.8430 0.8400
12.106655 0.8270 0.8190 0.8100 0.7980 0.7860
12.142000 0.7720 0.7560 0.7370 0.7160 0.6930
12.177655 0.6670 0.6080 0.5730 0.5370 0.4520
12.213000 0.4200 0.3870 0.3440 0.3090 0.3090
12.248655 0.3320 0.3930 0.4520 0.4970 0.5420
12.285000 0.6080 0.6570 0.6740 0.6900 0.7130
12.320655 0.7300 0.7440 0.7630 0.7870 0.7960
12.356000 0.8030 0.8100 0.8150 0.8200 0.8270
12.391655 0.8330 0.8340 0.8360 0.8410 0.8430
12.427000 0.8450 0.8450 0.8430 0.8410 0.8410
12.462655 0.8410 0.8400 0.8400 0.8400 0.8400
12.498000 0.8400 0.8400 0.8400 0.8410 0.8430
12.533655 0.8450 0.8430 0.8430 0.8430 0.8430
12.570000 0.8430 0.8450 0.8450 0.8460 0.8460
12.605655 0.8460 0.8460 0.8480 0.8500 0.8500
12.641000 0.8500 0.8500 0.8520 0.8520 0.8520
12.676655 0.8520 0.8520 0.8500 0.8500 0.8500
12.712000 0.8500 0.8480 0.8500 0.8500 0.8500
12.747655 0.8500 0.8500 0.8530 0.8530 0.8550
12.783000 0.8570 0.8570 0.8590 0.8600 0.8600
12.818655 0.8620 0.8620 0.8620 0.8640 0.8640
12.855000 0.8660 0.8660 0.8660 0.8660 0.8660
12.890655 0.8660 0.8670 0.8670 0.8670 0.8670
12.926000 0.8670 0.8670 0.8670 0.8670 0.8670
12.961655 0.8670 0.8660 0.8640 0.8620 0.8600
12.997000 0.8600 0.8600 0.8590 0.8590 0.8590
13.032655 0.8590 0.8570 0.8570 0.8590 0.8590
13.069000 0.8600 0.8600 0.8620 0.8620 0.8640
13.104655 0.8670 0.8690 0.8710 0.8730 0.8760
13.140000 0.8780 0.8810 0.8830 0.8830 0.8850
13.175655 0.8860 0.8880 0.8880 0.8880 0.8900
13.211000 0.8900 0.8900 0.8920 0.8920 0.8920
13.246655 0.8920 0.8900 0.8900 0.8880 0.8880
13.282000 0.8880 0.8880 0.8880 0.8880 0.8860
13.317655 0.8850 0.8830 0.8830 0.8810 0.8810
13.354000 0.8810 0.8810 0.8810 0.8830 0.8830
13.389655 0.8830 0.8830 0.8830 0.8830 0.8830
13.425000 0.8830 0.8830 0.8830 0.8830 0.8830
13.460655 0.8830 0.8830 0.8810 0.8810 0.8800
13.496000 0.8800 0.8780 0.8780 0.8780 0.8780
13.531655 0.8780 0.8760 0.8780 0.8780 0.8800
13.567000 0.8800 0.8810 0.8830 0.8850 0.8860
13.602655 0.8880 0.8900 0.8900 0.8900 0.8900
13.639000 0.8900 0.8900 0.8900 0.8900 0.8900
13.674655 0.8900 0.8900 0.8900 0.8900 0.8880
13.710000 0.8860 0.8850 0.8850 0.8810 0.8780
13.745655 0.8760 0.8740 0.8740 0.8740 0.8740
13.781000 0.8740 0.8740 0.8760 0.8760 0.8760
13.816655 0.8800 0.8810 0.8810 0.8800 0.8780
13.853000 0.8730 0.8690 0.8670 0.8660 0.8640
13.888655 0.8640 0.8620 0.8590 0.8550 0.8530
13.924000 0.8520 0.8500 0.8500 0.8500 0.8500
13.959655 0.8500 0.8480 0.8480 0.8480 0.8480
13.995000 0.8480 0.8480 0.8480 0.8500 0.8500
14.030655 0.8500 0.8480 0.8480 0.8480 0.8480
14.066000 0.8480 0.8480 0.8460 0.8460 0.8460
14.101655 0.8450 0.8450 0.8450 0.8430 0.8430
14.138000 0.8430 0.8430 0.8410 0.8410 0.8410
14.173655 0.8410 0.8410 0.8410 0.8430 0.8430
14.209000 0.8430 0.8430 0.8430 0.8450 0.8500
14.244655 0.8500 0.8500 0.8520 0.8520 0.8520
14.280000 0.8520 0.8520 0.8520 0.8520 0.8530
14.315655 0.8530 0.8530 0.8530 0.8530 0.8530
14.351000 0.8530 0.8530 0.8530 0.8530 0.8530
14.386655 0.8530 0.8530 0.8530 0.8530 0.8520
14.423000 0.8520 0.8500 0.8500 0.8500 0.8500
14.458655 0.8500 0.8520 0.8530 0.8530 0.8530
14.494000 0.8550 0.8570 0.8600 0.8620 0.8620
14.529655 0.8640 0.8620 0.8620 0.8620 0.8620
14.565000 0.8620 0.8640 0.8640 0.8640 0.8640
14.600655 0.8640 0.8620 0.8620 0.8620 0.8620
14.637000 0.8620 0.8620 0.8640 0.8660 0.8660
14.672655 0.8670 0.8670 0.8670 0.8690 0.8690
14.708000 0.8690 0.8690 0.8690 0.8670 0.8640
14.743655 0.8620 0.8620 0.8600 0.8600 0.8590
14.779000 0.8590 0.8590 0.8570 0.8570 0.8570
14.814655 0.8550 0.8550 0.8550 0.8550 0.8550
14.850000 0.8570 0.8570 0.8590 0.8590 0.8600
14.885655 0.8620 0.8620 0.8620 0.8640 0.8620
14.922000 0.8620 0.8600 0.8590 0.8570 0.8550
14.957655 0.8530 0.8520 0.8480 0.8430 0.8360
14.993000 0.8290 0.8260 0.8240 0.8220 0.8200
15.028655 0.8190 0.8170 0.8170 0.8170 0.8190
15.064000 0.8190 0.8220 0.8240 0.8270 0.8330
15.099655 0.8360 0.8380 0.8400 0.8410 0.8450
15.135000 0.8460 0.8530 0.8550 0.8570 0.8590
15.170655 0.8600 0.8600 0.8600 0.8640 0.8640
15.207000 0.8640 0.8660 0.8660 0.8660 0.8670
15.242655 0.8670 0.8670 0.8670 0.8670 0.8690
15.278000 0.8690 0.8710 0.8710 0.8710 0.8730
15.313655 0.8730 0.8730 0.8730 0.8730 0.8730
15.349000 0.8730 0.8730 0.8730 0.8730 0.8710
15.384655 0.8710 0.8690
##END=
