##TITLE=OCTANOIC ACID, LITHIUM SALT
##JCAMP-DX=4.24
$$ By DXEDIT 1.05 (RS McDonald)
##DATA TYPE=INFRARED SPECTRUM
##CLASS=COBLENTZ III
##ORIGIN=WYANDOTTE CHEMICALS CORP.
##OWNER=COBLENTZ SOC.
Collection (C) 2018 copyright by the U.S. Secretary of Commerce
on behalf of the United States of America. All rights reserved.
##DATE=1956/03/02
##MOLFORM=C8 H15 Li O2
##SOURCE REFERENCE=COBLENTZ NO. 05973
##$NIST ID=B6005973
##$NIST SOURCE=COBLENTZ
##$NIST IMAGE=cob5973
##SPECTROMETER/DATA SYSTEM=BAIRD (GRATING)
##INSTRUMENT PARAMETERS=NaCl PRISM
##STATE=SOLID (OIL MULL)
##SAMPLING PROCEDURE=TRANSMISSION
##RESOLUTION=2
##DATA PROCESSING=DIGITIZED BY COBLENTZ SOCIETY (BATCH I) FROM HARD COPY
##XUNITS=1/CM
##YUNITS=TRANSMITTANCE
##XLABEL=Wavenumbers (cm-1)
##YLABEL=Transmittance
##XFACTOR=1
##YFACTOR=1
##DELTAX=1
##FIRSTX=4000
##LASTX=627
##FIRSTY=0.8902
##MAXX=4000
##MINX=627
##MAXY=0.9113
##MINY=0.0259
##NPOINTS=3374
##XYDATA=(X++(Y..Y))
4000.000000 0.8902 0.8902 0.8902 0.8902 0.8902
3995.000000 0.8902 0.8902 0.8902 0.8902 0.8902
3990.000000 0.8902 0.8902 0.8902 0.8903 0.8903
3985.000000 0.8903 0.8903 0.8903 0.8903 0.8903
3980.000000 0.8902 0.8902 0.8902 0.8902 0.8902
3975.000000 0.8902 0.8901 0.8901 0.8901 0.8901
3970.000000 0.8901 0.8901 0.8900 0.8900 0.8900
3965.000000 0.8899 0.8899 0.8899 0.8899 0.8898
3960.000000 0.8898 0.8898 0.8898 0.8898 0.8898
3955.000000 0.8897 0.8897 0.8897 0.8896 0.8896
3950.000000 0.8896 0.8895 0.8895 0.8895 0.8895
3945.000000 0.8895 0.8895 0.8895 0.8895 0.8895
3940.000000 0.8895 0.8895 0.8895 0.8895 0.8895
3935.000000 0.8895 0.8895 0.8895 0.8895 0.8895
3930.000000 0.8895 0.8895 0.8895 0.8895 0.8895
3925.000000 0.8895 0.8894 0.8894 0.8894 0.8894
3920.000000 0.8894 0.8894 0.8894 0.8894 0.8894
3915.000000 0.8894 0.8894 0.8894 0.8894 0.8894
3910.000000 0.8894 0.8894 0.8894 0.8894 0.8894
3905.000000 0.8894 0.8894 0.8894 0.8894 0.8894
3900.000000 0.8894 0.8894 0.8894 0.8895 0.8895
3895.000000 0.8895 0.8896 0.8896 0.8897 0.8898
3890.000000 0.8898 0.8899 0.8900 0.8900 0.8901
3885.000000 0.8901 0.8901 0.8902 0.8902 0.8903
3880.000000 0.8904 0.8904 0.8905 0.8906 0.8906
3875.000000 0.8907 0.8908 0.8908 0.8909 0.8910
3870.000000 0.8910 0.8912 0.8914 0.8916 0.8918
3865.000000 0.8920 0.8921 0.8924 0.8925 0.8928
3860.000000 0.8930 0.8932 0.8935 0.8937 0.8939
3855.000000 0.8941 0.8943 0.8945 0.8948 0.8950
3850.000000 0.8952 0.8954 0.8956 0.8959 0.8961
3845.000000 0.8963 0.8965 0.8967 0.8970 0.8971
3840.000000 0.8974 0.8975 0.8978 0.8981 0.8983
3835.000000 0.8985 0.8987 0.8990 0.8993 0.8996
3830.000000 0.8998 0.9001 0.9004 0.9007 0.9009
3825.000000 0.9012 0.9015 0.9017 0.9020 0.9023
3820.000000 0.9025 0.9028 0.9031 0.9034 0.9037
3815.000000 0.9039 0.9042 0.9045 0.9048 0.9050
3810.000000 0.9053 0.9056 0.9058 0.9061 0.9063
3805.000000 0.9066 0.9068 0.9068 0.9071 0.9073
3800.000000 0.9074 0.9075 0.9078 0.9078 0.9081
3795.000000 0.9082 0.9084 0.9086 0.9087 0.9089
3790.000000 0.9091 0.9093 0.9094 0.9096 0.9098
3785.000000 0.9100 0.9101 0.9103 0.9105 0.9106
3780.000000 0.9108 0.9109 0.9111 0.9113 0.9113
3775.000000 0.9113 0.9113 0.9112 0.9112 0.9112
3770.000000 0.9111 0.9111 0.9111 0.9110 0.9110
3765.000000 0.9109 0.9109 0.9109 0.9108 0.9108
3760.000000 0.9108 0.9107 0.9107 0.9106 0.9106
3755.000000 0.9105 0.9105 0.9104 0.9104 0.9104
3750.000000 0.9103 0.9103 0.9102 0.9102 0.9101
3745.000000 0.9101 0.9100 0.9100 0.9099 0.9099
3740.000000 0.9098 0.9098 0.9097 0.9095 0.9095
3735.000000 0.9095 0.9094 0.9093 0.9092 0.9091
3730.000000 0.9091 0.9090 0.9089 0.9088 0.9088
3725.000000 0.9087 0.9086 0.9085 0.9084 0.9083
3720.000000 0.9082 0.9082 0.9081 0.9080 0.9078
3715.000000 0.9078 0.9078 0.9077 0.9075 0.9075
3710.000000 0.9074 0.9073 0.9071 0.9070 0.9068
3705.000000 0.9067 0.9065 0.9063 0.9061 0.9059
3700.000000 0.9056 0.9054 0.9052 0.9050 0.9048
3695.000000 0.9046 0.9044 0.9042 0.9040 0.9038
3690.000000 0.9036 0.9034 0.9032 0.9030 0.9028
3685.000000 0.9025 0.9023 0.9021 0.9018 0.9016
3680.000000 0.9014 0.9012 0.9009 0.9007 0.9004
3675.000000 0.9002 0.8999 0.8997 0.8994 0.8991
3670.000000 0.8989 0.8986 0.8984 0.8982 0.8978
3665.000000 0.8977 0.8974 0.8971 0.8968 0.8966
3660.000000 0.8964 0.8961 0.8959 0.8956 0.8954
3655.000000 0.8952 0.8948 0.8944 0.8940 0.8936
3650.000000 0.8932 0.8927 0.8921 0.8915 0.8909
3645.000000 0.8903 0.8898 0.8892 0.8886 0.8881
3640.000000 0.8875 0.8868 0.8863 0.8856 0.8849
3635.000000 0.8842 0.8835 0.8828 0.8821 0.8814
3630.000000 0.8807 0.8799 0.8792 0.8785 0.8778
3625.000000 0.8771 0.8763 0.8756 0.8748 0.8740
3620.000000 0.8733 0.8725 0.8717 0.8710 0.8703
3615.000000 0.8696 0.8689 0.8682 0.8677 0.8673
3610.000000 0.8668 0.8664 0.8660 0.8657 0.8655
3605.000000 0.8653 0.8651 0.8649 0.8647 0.8647
3600.000000 0.8647 0.8647 0.8647 0.8647 0.8648
3595.000000 0.8649 0.8650 0.8650 0.8651 0.8653
3590.000000 0.8654 0.8655 0.8656 0.8657 0.8658
3585.000000 0.8660 0.8661 0.8662 0.8663 0.8664
3580.000000 0.8664 0.8664 0.8664 0.8664 0.8665
3575.000000 0.8665 0.8665 0.8665 0.8665 0.8666
3570.000000 0.8666 0.8666 0.8666 0.8666 0.8666
3565.000000 0.8666 0.8666 0.8666 0.8666 0.8667
3560.000000 0.8667 0.8667 0.8667 0.8667 0.8667
3555.000000 0.8667 0.8667 0.8667 0.8667 0.8666
3550.000000 0.8666 0.8666 0.8666 0.8666 0.8665
3545.000000 0.8665 0.8665 0.8664 0.8664 0.8663
3540.000000 0.8663 0.8662 0.8662 0.8661 0.8660
3535.000000 0.8660 0.8660 0.8659 0.8659 0.8658
3530.000000 0.8658 0.8658 0.8657 0.8657 0.8656
3525.000000 0.8656 0.8655 0.8655 0.8654 0.8653
3520.000000 0.8653 0.8652 0.8652 0.8651 0.8650
3515.000000 0.8649 0.8648 0.8647 0.8645 0.8644
3510.000000 0.8643 0.8642 0.8641 0.8639 0.8638
3505.000000 0.8637 0.8636 0.8634 0.8633 0.8632
3500.000000 0.8631 0.8630 0.8628 0.8627 0.8625
3495.000000 0.8625 0.8623 0.8621 0.8621 0.8620
3490.000000 0.8618 0.8617 0.8616 0.8615 0.8613
3485.000000 0.8612 0.8611 0.8609 0.8608 0.8606
3480.000000 0.8604 0.8602 0.8599 0.8597 0.8595
3475.000000 0.8593 0.8591 0.8589 0.8587 0.8585
3470.000000 0.8583 0.8581 0.8578 0.8577 0.8575
3465.000000 0.8573 0.8571 0.8568 0.8567 0.8565
3460.000000 0.8563 0.8561 0.8559 0.8557 0.8555
3455.000000 0.8553 0.8551 0.8548 0.8546 0.8543
3450.000000 0.8540 0.8537 0.8535 0.8532 0.8528
3445.000000 0.8527 0.8524 0.8521 0.8518 0.8516
3440.000000 0.8513 0.8510 0.8507 0.8505 0.8502
3435.000000 0.8499 0.8496 0.8493 0.8490 0.8487
3430.000000 0.8484 0.8482 0.8478 0.8475 0.8473
3425.000000 0.8470 0.8468 0.8465 0.8462 0.8459
3420.000000 0.8457 0.8454 0.8451 0.8449 0.8446
3415.000000 0.8444 0.8441 0.8438 0.8435 0.8433
3410.000000 0.8430 0.8427 0.8425 0.8421 0.8420
3405.000000 0.8417 0.8414 0.8411 0.8408 0.8405
3400.000000 0.8403 0.8400 0.8397 0.8394 0.8391
3395.000000 0.8389 0.8386 0.8383 0.8380 0.8377
3390.000000 0.8373 0.8370 0.8366 0.8363 0.8359
3385.000000 0.8355 0.8351 0.8348 0.8344 0.8341
3380.000000 0.8337 0.8334 0.8330 0.8327 0.8323
3375.000000 0.8320 0.8316 0.8312 0.8309 0.8305
3370.000000 0.8301 0.8297 0.8294 0.8290 0.8286
3365.000000 0.8282 0.8278 0.8275 0.8271 0.8267
3360.000000 0.8264 0.8260 0.8257 0.8253 0.8250
3355.000000 0.8246 0.8242 0.8238 0.8234 0.8231
3350.000000 0.8228 0.8225 0.8221 0.8218 0.8216
3345.000000 0.8214 0.8212 0.8210 0.8208 0.8206
3340.000000 0.8204 0.8203 0.8201 0.8199 0.8197
3335.000000 0.8195 0.8194 0.8192 0.8192 0.8191
3330.000000 0.8191 0.8191 0.8191 0.8191 0.8191
3325.000000 0.8191 0.8191 0.8191 0.8191 0.8191
3320.000000 0.8191 0.8191 0.8192 0.8193 0.8194
3315.000000 0.8195 0.8196 0.8198 0.8199 0.8200
3310.000000 0.8201 0.8202 0.8203 0.8204 0.8206
3305.000000 0.8207 0.8208 0.8209 0.8210 0.8211
3300.000000 0.8212 0.8213 0.8214 0.8215 0.8216
3295.000000 0.8217 0.8218 0.8218 0.8217 0.8216
3290.000000 0.8215 0.8214 0.8213 0.8213 0.8212
3285.000000 0.8211 0.8211 0.8210 0.8209 0.8209
3280.000000 0.8208 0.8207 0.8207 0.8206 0.8205
3275.000000 0.8204 0.8204 0.8203 0.8202 0.8200
3270.000000 0.8199 0.8197 0.8196 0.8194 0.8192
3265.000000 0.8191 0.8189 0.8188 0.8186 0.8185
3260.000000 0.8183 0.8182 0.8180 0.8178 0.8176
3255.000000 0.8175 0.8174 0.8171 0.8169 0.8168
3250.000000 0.8165 0.8164 0.8161 0.8158 0.8157
3245.000000 0.8154 0.8151 0.8149 0.8146 0.8143
3240.000000 0.8140 0.8137 0.8135 0.8132 0.8128
3235.000000 0.8125 0.8122 0.8118 0.8115 0.8111
3230.000000 0.8107 0.8101 0.8098 0.8094 0.8089
3225.000000 0.8085 0.8081 0.8076 0.8072 0.8065
3220.000000 0.8055 0.8045 0.8035 0.8025 0.8015
3215.000000 0.8005 0.7995 0.7985 0.7975 0.7967
3210.000000 0.7958 0.7950 0.7942 0.7934 0.7925
3205.000000 0.7918 0.7912 0.7908 0.7903 0.7898
3200.000000 0.7894 0.7889 0.7884 0.7880 0.7875
3195.000000 0.7871 0.7865 0.7861 0.7857 0.7851
3190.000000 0.7847 0.7843 0.7838 0.7834 0.7828
3185.000000 0.7825 0.7821 0.7818 0.7815 0.7812
3180.000000 0.7808 0.7806 0.7803 0.7800 0.7797
3175.000000 0.7793 0.7790 0.7787 0.7784 0.7780
3170.000000 0.7776 0.7774 0.7771 0.7768 0.7765
3165.000000 0.7764 0.7761 0.7758 0.7757 0.7754
3160.000000 0.7751 0.7750 0.7747 0.7745 0.7742
3155.000000 0.7740 0.7737 0.7735 0.7732 0.7730
3150.000000 0.7728 0.7725 0.7722 0.7719 0.7718
3145.000000 0.7715 0.7712 0.7710 0.7707 0.7704
3140.000000 0.7701 0.7699 0.7697 0.7694 0.7692
3135.000000 0.7689 0.7686 0.7684 0.7681 0.7678
3130.000000 0.7675 0.7674 0.7671 0.7668 0.7665
3125.000000 0.7662 0.7658 0.7653 0.7649 0.7644
3120.000000 0.7639 0.7635 0.7630 0.7625 0.7621
3115.000000 0.7615 0.7611 0.7607 0.7601 0.7596
3110.000000 0.7590 0.7583 0.7574 0.7564 0.7554
3105.000000 0.7545 0.7535 0.7525 0.7515 0.7506
3100.000000 0.7497 0.7487 0.7478 0.7462 0.7447
3095.000000 0.7432 0.7415 0.7399 0.7382 0.7365
3090.000000 0.7347 0.7330 0.7312 0.7296 0.7278
3085.000000 0.7260 0.7242 0.7224 0.7207 0.7189
3080.000000 0.7171 0.7153 0.7135 0.7115 0.7098
3075.000000 0.7080 0.7061 0.7044 0.7025 0.7006
3070.000000 0.6980 0.6954 0.6928 0.6901 0.6874
3065.000000 0.6846 0.6818 0.6794 0.6771 0.6748
3060.000000 0.6724 0.6701 0.6680 0.6658 0.6636
3055.000000 0.6611 0.6588 0.6562 0.6538 0.6511
3050.000000 0.6484 0.6456 0.6428 0.6401 0.6375
3045.000000 0.6346 0.6293 0.6240 0.6187 0.6137
3040.000000 0.6091 0.6045 0.5999 0.5933 0.5857
3035.000000 0.5781 0.5705 0.5627 0.5549 0.5472
3030.000000 0.5394 0.5316 0.5238 0.5160 0.5082
3025.000000 0.5004 0.4926 0.4848 0.4769 0.4691
3020.000000 0.4612 0.4534 0.4455 0.4376 0.4298
3015.000000 0.4219 0.4140 0.4060 0.3982 0.3904
3010.000000 0.3825 0.3746 0.3666 0.3588 0.3509
3005.000000 0.3430 0.3350 0.3271 0.3191 0.3112
3000.000000 0.3032 0.2953 0.2873 0.2794 0.2714
2995.000000 0.2634 0.2555 0.2475 0.2395 0.2315
2990.000000 0.2234 0.2155 0.2074 0.1994 0.1914
2985.000000 0.1833 0.1753 0.1673 0.1592 0.1512
2980.000000 0.1432 0.1351 0.1270 0.1190 0.1109
2975.000000 0.1028 0.0946 0.0866 0.0785 0.0704
2970.000000 0.0623 0.0545 0.0492 0.0438 0.0385
2965.000000 0.0361 0.0357 0.0344 0.0344 0.0344
2960.000000 0.0340 0.0335 0.0332 0.0329 0.0326
2955.000000 0.0323 0.0321 0.0317 0.0316 0.0316
2950.000000 0.0316 0.0316 0.0317 0.0318 0.0320
2945.000000 0.0321 0.0322 0.0323 0.0324 0.0325
2940.000000 0.0326 0.0328 0.0329 0.0331 0.0332
2935.000000 0.0333 0.0335 0.0336 0.0338 0.0339
2930.000000 0.0341 0.0342 0.0344 0.0345 0.0347
2925.000000 0.0348 0.0349 0.0351 0.0353 0.0355
2920.000000 0.0356 0.0358 0.0360 0.0362 0.0364
2915.000000 0.0366 0.0367 0.0370 0.0372 0.0374
2910.000000 0.0376 0.0378 0.0380 0.0381 0.0384
2905.000000 0.0386 0.0388 0.0390 0.0392 0.0395
2900.000000 0.0397 0.0400 0.0403 0.0406 0.0409
2895.000000 0.0412 0.0415 0.0417 0.0421 0.0423
2890.000000 0.0425 0.0429 0.0431 0.0434 0.0436
2885.000000 0.0437 0.0438 0.0439 0.0440 0.0441
2880.000000 0.0442 0.0443 0.0443 0.0444 0.0446
2875.000000 0.0447 0.0448 0.0449 0.0450 0.0451
2870.000000 0.0452 0.0452 0.0452 0.0452 0.0453
2865.000000 0.0453 0.0453 0.0453 0.0453 0.0453
2860.000000 0.0454 0.0454 0.0454 0.0455 0.0459
2855.000000 0.0462 0.0466 0.0471 0.0475 0.0481
2850.000000 0.0487 0.0495 0.0502 0.0516 0.0540
2845.000000 0.0565 0.0596 0.0668 0.0741 0.0813
2840.000000 0.0866 0.0917 0.0968 0.1180 0.1467
2835.000000 0.1753 0.1973 0.2117 0.2261 0.2406
2830.000000 0.2550 0.2694 0.2838 0.2983 0.3127
2825.000000 0.3272 0.3416 0.3562 0.3708 0.3853
2820.000000 0.3998 0.4143 0.4289 0.4434 0.4580
2815.000000 0.4721 0.4854 0.4987 0.5108 0.5165
2810.000000 0.5223 0.5280 0.5329 0.5378 0.5427
2805.000000 0.5478 0.5529 0.5581 0.5635 0.5691
2800.000000 0.5747 0.5826 0.5924 0.6021 0.6118
2795.000000 0.6214 0.6310 0.6389 0.6425 0.6461
2790.000000 0.6497 0.6532 0.6568 0.6601 0.6624
2785.000000 0.6646 0.6668 0.6689 0.6711 0.6733
2780.000000 0.6755 0.6776 0.6799 0.6818 0.6839
2775.000000 0.6858 0.6875 0.6892 0.6908 0.6925
2770.000000 0.6941 0.6957 0.6974 0.6990 0.7007
2765.000000 0.7024 0.7042 0.7058 0.7076 0.7095
2760.000000 0.7112 0.7131 0.7150 0.7169 0.7186
2755.000000 0.7198 0.7208 0.7218 0.7225 0.7231
2750.000000 0.7237 0.7243 0.7248 0.7253 0.7253
2745.000000 0.7253 0.7251 0.7248 0.7244 0.7241
2740.000000 0.7237 0.7234 0.7231 0.7226 0.7222
2735.000000 0.7219 0.7215 0.7211 0.7207 0.7203
2730.000000 0.7199 0.7194 0.7190 0.7186 0.7186
2725.000000 0.7186 0.7187 0.7189 0.7191 0.7193
2720.000000 0.7197 0.7203 0.7210 0.7218 0.7230
2715.000000 0.7242 0.7255 0.7271 0.7287 0.7303
2710.000000 0.7318 0.7335 0.7351 0.7367 0.7383
2705.000000 0.7396 0.7408 0.7421 0.7432 0.7440
2700.000000 0.7449 0.7456 0.7462 0.7469 0.7475
2695.000000 0.7482 0.7488 0.7488 0.7486 0.7485
2690.000000 0.7484 0.7483 0.7482 0.7481 0.7480
2685.000000 0.7478 0.7478 0.7476 0.7475 0.7475
2680.000000 0.7472 0.7471 0.7471 0.7471 0.7469
2675.000000 0.7468 0.7468 0.7467 0.7465 0.7465
2670.000000 0.7464 0.7461 0.7461 0.7460 0.7458
2665.000000 0.7458 0.7458 0.7458 0.7460 0.7461
2660.000000 0.7461 0.7462 0.7464 0.7465 0.7465
2655.000000 0.7467 0.7468 0.7468 0.7471 0.7471
2650.000000 0.7472 0.7474 0.7476 0.7486 0.7495
2645.000000 0.7505 0.7515 0.7526 0.7540 0.7554
2640.000000 0.7568 0.7583 0.7598 0.7611 0.7625
2635.000000 0.7639 0.7651 0.7661 0.7671 0.7680
2630.000000 0.7687 0.7694 0.7696 0.7697 0.7699
2625.000000 0.7700 0.7701 0.7701 0.7701 0.7703
2620.000000 0.7704 0.7705 0.7706 0.7707 0.7708
2615.000000 0.7710 0.7710 0.7711 0.7711 0.7711
2610.000000 0.7712 0.7714 0.7715 0.7715 0.7715
2605.000000 0.7717 0.7718 0.7718 0.7718 0.7719
2600.000000 0.7721 0.7721 0.7724 0.7726 0.7730
2595.000000 0.7732 0.7735 0.7737 0.7740 0.7743
2590.000000 0.7745 0.7748 0.7750 0.7753 0.7756
2585.000000 0.7758 0.7761 0.7764 0.7767 0.7771
2580.000000 0.7774 0.7780 0.7785 0.7790 0.7795
2575.000000 0.7801 0.7806 0.7811 0.7817 0.7821
2570.000000 0.7825 0.7831 0.7837 0.7842 0.7847
2565.000000 0.7853 0.7858 0.7864 0.7869 0.7876
2560.000000 0.7884 0.7890 0.7897 0.7904 0.7910
2555.000000 0.7917 0.7924 0.7931 0.7938 0.7945
2550.000000 0.7951 0.7958 0.7965 0.7972 0.7980
2545.000000 0.7987 0.7994 0.8001 0.8008 0.8015
2540.000000 0.8022 0.8030 0.8037 0.8046 0.8055
2535.000000 0.8064 0.8071 0.8081 0.8090 0.8099
2530.000000 0.8106 0.8110 0.8115 0.8118 0.8122
2525.000000 0.8125 0.8130 0.8134 0.8138 0.8142
2520.000000 0.8145 0.8148 0.8151 0.8154 0.8158
2515.000000 0.8161 0.8162 0.8165 0.8167 0.8168
2510.000000 0.8169 0.8165 0.8161 0.8158 0.8154
2505.000000 0.8149 0.8148 0.8146 0.8145 0.8144
2500.000000 0.8143 0.8141 0.8140 0.8139 0.8138
2495.000000 0.8136 0.8135 0.8134 0.8133 0.8132
2490.000000 0.8131 0.8131 0.8132 0.8133 0.8134
2485.000000 0.8135 0.8135 0.8136 0.8137 0.8138
2480.000000 0.8139 0.8139 0.8140 0.8141 0.8142
2475.000000 0.8143 0.8144 0.8145 0.8146 0.8147
2470.000000 0.8148 0.8149 0.8149 0.8150 0.8151
2465.000000 0.8151 0.8153 0.8154 0.8155 0.8156
2460.000000 0.8157 0.8158 0.8158 0.8160 0.8160
2455.000000 0.8161 0.8161 0.8162 0.8164 0.8164
2450.000000 0.8165 0.8167 0.8168 0.8168 0.8169
2445.000000 0.8169 0.8171 0.8171 0.8172 0.8174
2440.000000 0.8175 0.8175 0.8176 0.8178 0.8178
2435.000000 0.8180 0.8181 0.8181 0.8181 0.8182
2430.000000 0.8182 0.8183 0.8184 0.8185 0.8185
2425.000000 0.8185 0.8186 0.8186 0.8187 0.8187
2420.000000 0.8188 0.8188 0.8189 0.8190 0.8190
2415.000000 0.8191 0.8191 0.8192 0.8192 0.8192
2410.000000 0.8193 0.8193 0.8194 0.8195 0.8196
2405.000000 0.8196 0.8196 0.8197 0.8197 0.8198
2400.000000 0.8198 0.8199 0.8199 0.8199 0.8199
2395.000000 0.8199 0.8198 0.8196 0.8195 0.8194
2390.000000 0.8193 0.8193 0.8192 0.8191 0.8190
2385.000000 0.8189 0.8188 0.8186 0.8185 0.8185
2380.000000 0.8182 0.8180 0.8178 0.8175 0.8174
2375.000000 0.8171 0.8168 0.8165 0.8164 0.8161
2370.000000 0.8158 0.8157 0.8155 0.8153 0.8150
2365.000000 0.8148 0.8146 0.8145 0.8142 0.8140
2360.000000 0.8138 0.8136 0.8134 0.8132 0.8130
2355.000000 0.8128 0.8125 0.8124 0.8121 0.8121
2350.000000 0.8121 0.8121 0.8121 0.8122 0.8122
2345.000000 0.8122 0.8122 0.8124 0.8124 0.8124
2340.000000 0.8126 0.8132 0.8138 0.8145 0.8151
2335.000000 0.8158 0.8164 0.8171 0.8178 0.8184
2330.000000 0.8189 0.8193 0.8197 0.8200 0.8203
2325.000000 0.8206 0.8210 0.8213 0.8216 0.8218
2320.000000 0.8223 0.8225 0.8228 0.8232 0.8236
2315.000000 0.8239 0.8242 0.8245 0.8249 0.8252
2310.000000 0.8255 0.8257 0.8259 0.8262 0.8264
2305.000000 0.8266 0.8268 0.8270 0.8271 0.8274
2300.000000 0.8275 0.8278 0.8280 0.8282 0.8284
2295.000000 0.8286 0.8288 0.8290 0.8291 0.8292
2290.000000 0.8292 0.8293 0.8293 0.8294 0.8294
2285.000000 0.8295 0.8296 0.8297 0.8297 0.8298
2280.000000 0.8298 0.8298 0.8299 0.8299 0.8299
2275.000000 0.8299 0.8298 0.8298 0.8297 0.8296
2270.000000 0.8295 0.8295 0.8294 0.8293 0.8291
2265.000000 0.8287 0.8284 0.8280 0.8275 0.8271
2260.000000 0.8267 0.8263 0.8259 0.8255 0.8250
2255.000000 0.8246 0.8242 0.8238 0.8234 0.8230
2250.000000 0.8225 0.8221 0.8217 0.8212 0.8208
2245.000000 0.8204 0.8200 0.8200 0.8200 0.8200
2240.000000 0.8200 0.8200 0.8200 0.8200 0.8200
2235.000000 0.8205 0.8210 0.8217 0.8225 0.8232
2230.000000 0.8239 0.8244 0.8248 0.8251 0.8254
2225.000000 0.8258 0.8261 0.8265 0.8268 0.8271
2220.000000 0.8274 0.8278 0.8281 0.8281 0.8282
2215.000000 0.8282 0.8283 0.8283 0.8284 0.8284
2210.000000 0.8285 0.8285 0.8286 0.8286 0.8287
2205.000000 0.8287 0.8287 0.8287 0.8286 0.8285
2200.000000 0.8284 0.8283 0.8282 0.8281 0.8280
2195.000000 0.8280 0.8278 0.8278 0.8275 0.8275
2190.000000 0.8274 0.8273 0.8273 0.8271 0.8271
2185.000000 0.8271 0.8271 0.8271 0.8271 0.8273
2180.000000 0.8273 0.8273 0.8273 0.8273 0.8273
2175.000000 0.8274 0.8274 0.8274 0.8274 0.8274
2170.000000 0.8275 0.8275 0.8275 0.8275 0.8275
2165.000000 0.8275 0.8275 0.8275 0.8275 0.8275
2160.000000 0.8275 0.8275 0.8275 0.8277 0.8277
2155.000000 0.8277 0.8277 0.8277 0.8277 0.8278
2150.000000 0.8278 0.8278 0.8278 0.8278 0.8278
2145.000000 0.8278 0.8280 0.8280 0.8280 0.8280
2140.000000 0.8280 0.8280 0.8281 0.8281 0.8281
2135.000000 0.8281 0.8282 0.8282 0.8283 0.8284
2130.000000 0.8285 0.8286 0.8287 0.8288 0.8289
2125.000000 0.8291 0.8293 0.8294 0.8295 0.8296
2120.000000 0.8297 0.8298 0.8299 0.8300 0.8301
2115.000000 0.8303 0.8304 0.8305 0.8306 0.8307
2110.000000 0.8308 0.8311 0.8314 0.8318 0.8321
2105.000000 0.8325 0.8328 0.8332 0.8336 0.8339
2100.000000 0.8342 0.8346 0.8349 0.8353 0.8356
2095.000000 0.8359 0.8363 0.8366 0.8370 0.8373
2090.000000 0.8375 0.8378 0.8378 0.8381 0.8383
2085.000000 0.8385 0.8386 0.8387 0.8389 0.8391
2080.000000 0.8392 0.8394 0.8396 0.8397 0.8398
2075.000000 0.8400 0.8402 0.8403 0.8405 0.8407
2070.000000 0.8408 0.8409 0.8409 0.8410 0.8410
2065.000000 0.8410 0.8410 0.8410 0.8410 0.8410
2060.000000 0.8410 0.8410 0.8410 0.8410 0.8410
2055.000000 0.8410 0.8411 0.8411 0.8411 0.8411
2050.000000 0.8411 0.8411 0.8411 0.8411 0.8411
2045.000000 0.8411 0.8411 0.8411 0.8411 0.8411
2040.000000 0.8411 0.8410 0.8409 0.8408 0.8407
2035.000000 0.8405 0.8404 0.8402 0.8401 0.8400
2030.000000 0.8398 0.8396 0.8395 0.8394 0.8393
2025.000000 0.8391 0.8389 0.8388 0.8387 0.8385
2020.000000 0.8384 0.8383 0.8383 0.8382 0.8380
2015.000000 0.8378 0.8378 0.8378 0.8375 0.8375
2010.000000 0.8374 0.8373 0.8371 0.8371 0.8370
2005.000000 0.8370 0.8368 0.8367 0.8367 0.8366
2000.000000 0.8366 0.8365 0.8364 0.8363 0.8362
1995.000000 0.8361 0.8361 0.8361 0.8361 0.8362
1990.000000 0.8364 0.8366 0.8368 0.8370 0.8373
1985.000000 0.8375 0.8377 0.8378 0.8381 0.8383
1980.000000 0.8385 0.8389 0.8394 0.8399 0.8404
1975.000000 0.8410 0.8415 0.8420 0.8425 0.8431
1970.000000 0.8436 0.8442 0.8446 0.8447 0.8448
1965.000000 0.8447 0.8445 0.8443 0.8441 0.8439
1960.000000 0.8437 0.8435 0.8434 0.8432 0.8430
1955.000000 0.8428 0.8427 0.8425 0.8424 0.8423
1950.000000 0.8421 0.8421 0.8421 0.8420 0.8420
1945.000000 0.8418 0.8418 0.8418 0.8417 0.8417
1940.000000 0.8416 0.8416 0.8417 0.8418 0.8420
1935.000000 0.8421 0.8423 0.8424 0.8425 0.8427
1930.000000 0.8428 0.8431 0.8432 0.8432 0.8433
1925.000000 0.8432 0.8427 0.8420 0.8413 0.8406
1920.000000 0.8400 0.8392 0.8386 0.8380 0.8378
1915.000000 0.8375 0.8373 0.8371 0.8368 0.8367
1910.000000 0.8365 0.8363 0.8360 0.8358 0.8356
1905.000000 0.8353 0.8351 0.8349 0.8347 0.8345
1900.000000 0.8343 0.8341 0.8339 0.8337 0.8335
1895.000000 0.8334 0.8332 0.8330 0.8328 0.8325
1890.000000 0.8324 0.8323 0.8321 0.8318 0.8317
1885.000000 0.8316 0.8314 0.8311 0.8310 0.8308
1880.000000 0.8307 0.8306 0.8304 0.8303 0.8301
1875.000000 0.8300 0.8298 0.8297 0.8296 0.8295
1870.000000 0.8294 0.8292 0.8291 0.8289 0.8288
1865.000000 0.8287 0.8285 0.8284 0.8282 0.8281
1860.000000 0.8278 0.8278 0.8277 0.8275 0.8275
1855.000000 0.8273 0.8271 0.8270 0.8268 0.8267
1850.000000 0.8266 0.8265 0.8264 0.8262 0.8261
1845.000000 0.8259 0.8258 0.8257 0.8255 0.8254
1840.000000 0.8252 0.8251 0.8249 0.8249 0.8247
1835.000000 0.8246 0.8244 0.8243 0.8241 0.8240
1830.000000 0.8238 0.8236 0.8232 0.8228 0.8225
1825.000000 0.8221 0.8217 0.8214 0.8210 0.8206
1820.000000 0.8202 0.8198 0.8194 0.8190 0.8186
1815.000000 0.8182 0.8176 0.8172 0.8168 0.8164
1810.000000 0.8158 0.8155 0.8150 0.8143 0.8130
1805.000000 0.8111 0.8092 0.8074 0.8057 0.8039
1800.000000 0.8022 0.8008 0.7993 0.7976 0.7961
1795.000000 0.7945 0.7928 0.7911 0.7895 0.7876
1790.000000 0.7865 0.7855 0.7846 0.7838 0.7828
1785.000000 0.7818 0.7810 0.7801 0.7792 0.7783
1780.000000 0.7774 0.7765 0.7756 0.7747 0.7738
1775.000000 0.7728 0.7715 0.7701 0.7687 0.7672
1770.000000 0.7658 0.7643 0.7628 0.7617 0.7606
1765.000000 0.7596 0.7585 0.7574 0.7564 0.7553
1760.000000 0.7543 0.7532 0.7522 0.7512 0.7503
1755.000000 0.7493 0.7483 0.7472 0.7464 0.7454
1750.000000 0.7445 0.7438 0.7434 0.7430 0.7426
1745.000000 0.7424 0.7415 0.7401 0.7385 0.7367
1740.000000 0.7350 0.7332 0.7314 0.7297 0.7278
1735.000000 0.7268 0.7257 0.7247 0.7238 0.7228
1730.000000 0.7218 0.7211 0.7205 0.7198 0.7189
1725.000000 0.7174 0.7151 0.7130 0.7107 0.7085
1720.000000 0.7061 0.7038 0.7012 0.6988 0.6961
1715.000000 0.6937 0.6911 0.6886 0.6860 0.6834
1710.000000 0.6807 0.6780 0.6751 0.6725 0.6697
1705.000000 0.6669 0.6642 0.6615 0.6587 0.6560
1700.000000 0.6533 0.6505 0.6478 0.6450 0.6422
1695.000000 0.6395 0.6368 0.6338 0.6308 0.6277
1690.000000 0.6246 0.6215 0.6184 0.6152 0.6122
1685.000000 0.6090 0.6054 0.6012 0.5971 0.5928
1680.000000 0.5886 0.5843 0.5796 0.5741 0.5684
1675.000000 0.5627 0.5570 0.5514 0.5453 0.5386
1670.000000 0.5318 0.5251 0.5189 0.5131 0.5075
1665.000000 0.5019 0.4962 0.4910 0.4862 0.4812
1660.000000 0.4762 0.4695 0.4614 0.4558 0.4518
1655.000000 0.4482 0.4445 0.4408 0.4372 0.4335
1650.000000 0.4298 0.4260 0.4206 0.4135 0.4064
1645.000000 0.3878 0.3646 0.3429 0.3262 0.3131
1640.000000 0.3024 0.2942 0.2859 0.2773 0.2679
1635.000000 0.2582 0.2470 0.2312 0.2210 0.2123
1630.000000 0.2028 0.1925 0.1817 0.1707 0.1618
1625.000000 0.1549 0.1482 0.1416 0.1353 0.1295
1620.000000 0.1235 0.1176 0.1117 0.1059 0.1000
1615.000000 0.0939 0.0881 0.0821 0.0762 0.0702
1610.000000 0.0642 0.0586 0.0534 0.0488 0.0450
1605.000000 0.0416 0.0385 0.0357 0.0328 0.0303
1600.000000 0.0287 0.0277 0.0270 0.0285 0.0262
1595.000000 0.0260 0.0259 0.0263 0.0272 0.0287
1590.000000 0.0303 0.0322 0.0338 0.0346 0.0353
1585.000000 0.0360 0.0365 0.0366 0.0367 0.0368
1580.000000 0.0370 0.0371 0.0374 0.0379 0.0384
1575.000000 0.0389 0.0394 0.0399 0.0404 0.0412
1570.000000 0.0423 0.0434 0.0444 0.0459 0.0482
1565.000000 0.0506 0.0532 0.0583 0.0660 0.0741
1560.000000 0.0825 0.0931 0.1071 0.1192 0.1296
1555.000000 0.1426 0.1601 0.1869 0.2045 0.2170
1550.000000 0.2284 0.2370 0.2408 0.2444 0.2479
1545.000000 0.2506 0.2528 0.2549 0.2575 0.2609
1540.000000 0.2644 0.2684 0.2752 0.2869 0.3102
1535.000000 0.3298 0.3432 0.3544 0.3641 0.3724
1530.000000 0.3770 0.3814 0.3858 0.3900 0.3945
1525.000000 0.3993 0.4041 0.4087 0.4129 0.4170
1520.000000 0.4209 0.4246 0.4281 0.4303 0.4319
1515.000000 0.4333 0.4344 0.4359 0.4358 0.4358
1510.000000 0.4359 0.4360 0.4360 0.4351 0.4339
1505.000000 0.4326 0.4290 0.4242 0.4190 0.4127
1500.000000 0.4059 0.3991 0.3908 0.3804 0.3699
1495.000000 0.3594 0.3491 0.3388 0.3287 0.3187
1490.000000 0.3085 0.2944 0.2737 0.2234 0.2031
1485.000000 0.1765 0.1508 0.1310 0.1113 0.0915
1480.000000 0.0718 0.0556 0.0505 0.0493 0.0486
1475.000000 0.0481 0.0477 0.0479 0.0489 0.0503
1470.000000 0.0522 0.0533 0.0539 0.0542 0.0516
1465.000000 0.0350 0.0400 0.0374 0.0365 0.0361
1460.000000 0.0361 0.0361 0.0361 0.0362 0.0365
1455.000000 0.0367 0.0376 0.0393 0.0413 0.0434
1450.000000 0.0459 0.0528 0.0610 0.0711 0.0816
1445.000000 0.0911 0.1006 0.1101 0.1196 0.1292
1440.000000 0.1387 0.1484 0.1579 0.1675 0.1771
1435.000000 0.1827 0.1850 0.1868 0.1868 0.1864
1430.000000 0.1854 0.1831 0.1779 0.1679 0.1578
1425.000000 0.1542 0.1544 0.1544 0.1524 0.1525
1420.000000 0.1528 0.1541 0.1565 0.1595 0.1649
1415.000000 0.1718 0.1804 0.1909 0.2023 0.2138
1410.000000 0.2254 0.2370 0.2484 0.2601 0.2717
1405.000000 0.2833 0.2949 0.3066 0.3182 0.3299
1400.000000 0.3414 0.3500 0.3508 0.3471 0.3375
1395.000000 0.3272 0.3169 0.3066 0.2964 0.2861
1390.000000 0.2758 0.2654 0.2550 0.2446 0.2343
1385.000000 0.2313 0.2302 0.2322 0.2359 0.2424
1380.000000 0.2595 0.2823 0.3050 0.3278 0.3446
1375.000000 0.3480 0.3497 0.3512 0.3532 0.3618
1370.000000 0.3778 0.3936 0.4095 0.4254 0.4414
1365.000000 0.4573 0.4665 0.4691 0.4710 0.4742
1360.000000 0.4734 0.4733 0.4733 0.4681 0.4583
1355.000000 0.4485 0.4388 0.4290 0.4191 0.4102
1350.000000 0.4050 0.4064 0.4130 0.4334 0.4558
1345.000000 0.4784 0.5003 0.5115 0.5159 0.5204
1340.000000 0.5260 0.5328 0.5408 0.5512 0.5617
1335.000000 0.5666 0.5704 0.5730 0.5762 0.5746
1330.000000 0.5745 0.5744 0.5735 0.5722 0.5709
1325.000000 0.5687 0.5650 0.5610 0.5551 0.5472
1320.000000 0.5275 0.5029 0.4782 0.4535 0.4253
1315.000000 0.4254 0.4258 0.4312 0.4627 0.4874
1310.000000 0.5122 0.5370 0.5536 0.5574 0.5597
1305.000000 0.5618 0.5627 0.5632 0.5633 0.5633
1300.000000 0.5616 0.5596 0.5582 0.5571 0.5569
1295.000000 0.5605 0.5667 0.5725 0.5780 0.5833
1290.000000 0.5874 0.5888 0.5886 0.5876 0.5856
1285.000000 0.5818 0.5777 0.5738 0.5712 0.5712
1280.000000 0.5710 0.5766 0.5824 0.5884 0.5948
1275.000000 0.6003 0.6044 0.6088 0.6058 0.6057
1270.000000 0.6045 0.6010 0.5959 0.5890 0.5849
1265.000000 0.5794 0.5805 0.5846 0.6026 0.6144
1260.000000 0.6250 0.6403 0.6471 0.6519 0.6554
1255.000000 0.6568 0.6582 0.6591 0.6603 0.6599
1250.000000 0.6600 0.6601 0.6601 0.6594 0.6578
1245.000000 0.6551 0.6475 0.6345 0.6274 0.6248
1240.000000 0.6228 0.6244 0.6306 0.6390 0.6468
1235.000000 0.6525 0.6575 0.6601 0.6622 0.6634
1230.000000 0.6665 0.6643 0.6634 0.6618 0.6553
1225.000000 0.6457 0.6279 0.6078 0.5876 0.5674
1220.000000 0.5471 0.5345 0.5345 0.5543 0.5852
1215.000000 0.6162 0.6389 0.6489 0.6567 0.6637
1210.000000 0.6700 0.6754 0.6790 0.6825 0.6854
1205.000000 0.6880 0.6897 0.6906 0.6917 0.6922
1200.000000 0.6924 0.6924 0.6917 0.6903 0.6872
1195.000000 0.6828 0.6768 0.6691 0.6641 0.6633
1190.000000 0.6651 0.6692 0.6740 0.6791 0.6843
1185.000000 0.6896 0.6938 0.6975 0.7008 0.7031
1180.000000 0.7054 0.7068 0.7069 0.7069 0.7069
1175.000000 0.7068 0.7067 0.7065 0.7065 0.7065
1170.000000 0.7075 0.7088 0.7100 0.7111 0.7122
1165.000000 0.7135 0.7147 0.7158 0.7169 0.7181
1160.000000 0.7211 0.7205 0.7219 0.7234 0.7249
1155.000000 0.7262 0.7278 0.7295 0.7311 0.7328
1150.000000 0.7346 0.7358 0.7361 0.7361 0.7361
1145.000000 0.7358 0.7353 0.7348 0.7343 0.7338
1140.000000 0.7334 0.7328 0.7318 0.7310 0.7296
1135.000000 0.7272 0.7250 0.7203 0.7128 0.7055
1130.000000 0.6938 0.6778 0.6611 0.6464 0.6336
1125.000000 0.6200 0.6005 0.5734 0.5462 0.5190
1120.000000 0.4917 0.4718 0.4710 0.4740 0.4805
1115.000000 0.5159 0.5531 0.5905 0.6279 0.6586
1110.000000 0.6721 0.6871 0.6958 0.7008 0.7058
1105.000000 0.7095 0.7128 0.7146 0.7161 0.7175
1100.000000 0.7190 0.7201 0.7211 0.7221 0.7230
1095.000000 0.7239 0.7239 0.7239 0.7236 0.7221
1090.000000 0.7199 0.7178 0.7169 0.7160 0.7150
1085.000000 0.7142 0.7132 0.7122 0.7107 0.7084
1080.000000 0.7061 0.7038 0.7014 0.6965 0.6917
1075.000000 0.6868 0.6811 0.6754 0.6715 0.6681
1070.000000 0.6651 0.6622 0.6628 0.6642 0.6699
1065.000000 0.6771 0.6842 0.6905 0.6968 0.7028
1060.000000 0.7082 0.7117 0.7148 0.7165 0.7164
1055.000000 0.7164 0.7125 0.7068 0.7003 0.6930
1050.000000 0.6876 0.6831 0.6803 0.6795 0.6811
1045.000000 0.6841 0.6872 0.6901 0.6925 0.6935
1040.000000 0.6945 0.6944 0.6931 0.6917 0.6868
1035.000000 0.6812 0.6749 0.6711 0.6682 0.6678
1030.000000 0.6696 0.6755 0.6847 0.6891 0.6930
1025.000000 0.6955 0.6980 0.7005 0.7024 0.7043
1020.000000 0.7061 0.7078 0.7084 0.7090 0.7095
1015.000000 0.7095 0.7095 0.7093 0.7081 0.7055
1010.000000 0.7028 0.7000 0.6969 0.6932 0.6894
1005.000000 0.6856 0.6788 0.6814 0.6828 0.6915
1000.000000 0.6996 0.7067 0.7135 0.7185 0.7236
995.000000 0.7283 0.7308 0.7334 0.7358 0.7376
990.000000 0.7392 0.7407 0.7414 0.7415 0.7415
985.000000 0.7418 0.7418 0.7414 0.7404 0.7395
980.000000 0.7385 0.7378 0.7369 0.7361 0.7353
975.000000 0.7345 0.7342 0.7340 0.7338 0.7345
970.000000 0.7334 0.7333 0.7331 0.7328 0.7328
965.000000 0.7326 0.7325 0.7325 0.7324 0.7322
960.000000 0.7315 0.7308 0.7301 0.7291 0.7274
955.000000 0.7258 0.7240 0.7211 0.7182 0.7121
950.000000 0.7057 0.6962 0.6851 0.6730 0.6615
945.000000 0.6512 0.6370 0.6284 0.6231 0.6152
940.000000 0.6187 0.6173 0.6216 0.6286 0.6367
935.000000 0.6443 0.6515 0.6585 0.6640 0.6693
930.000000 0.6743 0.6783 0.6821 0.6851 0.6865
925.000000 0.6910 0.6878 0.6883 0.6868 0.6798
920.000000 0.6656 0.6475 0.6335 0.6239 0.6275
915.000000 0.6277 0.6368 0.6543 0.6767 0.6982
910.000000 0.7121 0.7172 0.7211 0.7247 0.7278
905.000000 0.7294 0.7301 0.7298 0.7305 0.7304
900.000000 0.7290 0.7265 0.7232 0.7198 0.7165
895.000000 0.7131 0.7097 0.7065 0.7050 0.7040
890.000000 0.7047 0.7055 0.7065 0.7084 0.7101
885.000000 0.7115 0.7121 0.7124 0.7128 0.7117
880.000000 0.7104 0.7089 0.7065 0.7044 0.7021
875.000000 0.6999 0.6976 0.6958 0.6939 0.6918
870.000000 0.6899 0.6878 0.6858 0.6824 0.6786
865.000000 0.6762 0.6745 0.6740 0.6735 0.6731
860.000000 0.6728 0.6722 0.6718 0.6712 0.6708
855.000000 0.6705 0.6700 0.6695 0.6689 0.6684
850.000000 0.6678 0.6671 0.6658 0.6649 0.6638
845.000000 0.6628 0.6615 0.6591 0.6568 0.6530
840.000000 0.6485 0.6406 0.6305 0.6190 0.6101
835.000000 0.6038 0.5974 0.6020 0.6088 0.6192
830.000000 0.6293 0.6383 0.6458 0.6500 0.6518
825.000000 0.6540 0.6562 0.6586 0.6601 0.6611
820.000000 0.6624 0.6635 0.6645 0.6656 0.6665
815.000000 0.6665 0.6661 0.6658 0.6650 0.6641
810.000000 0.6624 0.6625 0.6618 0.6614 0.6608
805.000000 0.6595 0.6578 0.6562 0.6549 0.6534
800.000000 0.6521 0.6506 0.6492 0.6476 0.6464
795.000000 0.6446 0.6417 0.6389 0.6362 0.6312
790.000000 0.6245 0.6165 0.6084 0.5984 0.5883
785.000000 0.5774 0.5665 0.5566 0.5437 0.5236
780.000000 0.5084 0.4971 0.4856 0.4788 0.4722
775.000000 0.4798 0.4980 0.5265 0.5447 0.5601
770.000000 0.5712 0.5776 0.5820 0.5856 0.5884
765.000000 0.5896 0.5895 0.5891 0.5875 0.5859
760.000000 0.5840 0.5810 0.5781 0.5752 0.5714
755.000000 0.5669 0.5625 0.5579 0.5530 0.5483
750.000000 0.5440 0.5397 0.5318 0.5236 0.5169
745.000000 0.5106 0.5040 0.4971 0.4901 0.4831
740.000000 0.4762 0.4698 0.4632 0.4562 0.4491
735.000000 0.4408 0.4312 0.4215 0.4116 0.4007
730.000000 0.3871 0.3727 0.3568 0.3406 0.3139
725.000000 0.2821 0.2663 0.2577 0.2607 0.2783
720.000000 0.3032 0.3247 0.3447 0.3605 0.3691
715.000000 0.3734 0.3780 0.3820 0.3859 0.3900
710.000000 0.3934 0.3968 0.3984 0.3997 0.4008
705.000000 0.4018 0.4027 0.4038 0.4048 0.4060
700.000000 0.4079 0.4099 0.4126 0.4154 0.4180
695.000000 0.4205 0.4231 0.4252 0.4268 0.4283
690.000000 0.4300 0.4316 0.4332 0.4345 0.4352
685.000000 0.4360 0.4368 0.4374 0.4377 0.4379
680.000000 0.4381 0.4382 0.4382 0.4382 0.4382
675.000000 0.4379 0.4376 0.4373 0.4380 0.4389
670.000000 0.4398 0.4410 0.4431 0.4459 0.4504
665.000000 0.4548 0.4580 0.4576 0.4517 0.4441
660.000000 0.4399 0.4395 0.4428 0.4460 0.4494
655.000000 0.4519 0.4528 0.4537 0.4547 0.4557
650.000000 0.4564 0.4571 0.4582 0.4605 0.4629
645.000000 0.4656 0.4682 0.4710 0.4754 0.4800
640.000000 0.4834 0.4867 0.4888 0.4898 0.4907
635.000000 0.4926 0.4944 0.4965 0.4995 0.5025
630.000000 0.5055 0.5084 0.5104 0.5140
##END=
