##TITLE=GUANIDINE SULFATE
##JCAMP-DX=4.24
##DATA TYPE=INFRARED SPECTRUM
##CLASS=COBLENTZ
##ORIGIN=WYANDOTTE CHEMICALS CORP., WYANDOTTE, MICHIGAN, USA
##OWNER=COBLENTZ SOCIETY
Collection (C) 2018 copyright by the U.S. Secretary of Commerce
on behalf of the United States of America. All rights reserved.
##DATE=Not specified, most likely prior to 1970
##MOLFORM=C2 H10 N6  * H2 S O4
##SOURCE REFERENCE=COBLENTZ NO. 3832
##$NIST ID=B6003832
##$NIST SOURCE=COBLENTZ
##$NIST IMAGE=cob3832
##SPECTROMETER/DATA SYSTEM=Not specified, most likely a prism, grating, or hybrid spectrometer.
##STATE=SOLID (MINERAL OIL MULL)
##PATH LENGTH=
$$SPECTRAL CONTAMINATION DUE TO OIL AROUND 2900, 1450, 1380 CM^-^1
##SAMPLING PROCEDURE=TRANSMISSION
##RESOLUTION=4
##DATA PROCESSING=DIGITIZED BY NIST FROM HARD COPY
##XUNITS=MICROMETERS
##YUNITS=TRANSMITTANCE
##XFACTOR=1.000000
##YFACTOR=1
##DELTAX=000.006184
##FIRSTX=2.025
##LASTX=16
##FIRSTY=0.741
##MAXX=16
##MINX=2.025
##MAXY=0.948
##MINY=0.092
##NPOINTS=2261
##XYDATA=(X++(Y..Y))
2.025000 0.7410 0.7410 0.7390 0.7380 0.7360
2.055932 0.7350 0.7330 0.7300 0.7290 0.7240
2.087000 0.7210 0.7190 0.7160 0.7150 0.7130
2.117932 0.7130 0.7100 0.7050 0.6980 0.6880
2.148000 0.6810 0.6710 0.6640 0.6570 0.6530
2.178932 0.6510 0.6430 0.6340 0.6280 0.6200
2.210000 0.6160 0.6110 0.6060 0.6030 0.6020
2.240932 0.6000 0.6000 0.5990 0.5990 0.5990
2.272000 0.5970 0.5950 0.5940 0.5920 0.5890
2.302932 0.5860 0.5830 0.5820 0.5780 0.5770
2.334000 0.5750 0.5740 0.5720 0.5690 0.5650
2.364932 0.5610 0.5580 0.5580 0.5570 0.5570
2.396000 0.5570 0.5570 0.5570 0.5570 0.5570
2.426932 0.5550 0.5550 0.5540 0.5520 0.5470
2.458000 0.5440 0.5400 0.5350 0.5290 0.5260
2.488932 0.5210 0.5170 0.5120 0.5060 0.5060
2.519000 0.5030 0.4980 0.4960 0.4950 0.4930
2.549932 0.4920 0.4900 0.4870 0.4840 0.4810
2.581000 0.4790 0.4760 0.4720 0.4690 0.4650
2.611932 0.4610 0.4580 0.4560 0.4550 0.4520
2.643000 0.4520 0.4470 0.4390 0.4360 0.4270
2.673932 0.4220 0.4160 0.4100 0.4040 0.3970
2.705000 0.3910 0.3850 0.3800 0.3740 0.3680
2.735932 0.3560 0.3460 0.3400 0.3320 0.3250
2.767000 0.3150 0.3040 0.2950 0.2840 0.2730
2.797932 0.2610 0.2500 0.2390 0.2300 0.2190
2.829000 0.2100 0.2010 0.1910 0.1850 0.1780
2.859932 0.1710 0.1670 0.1600 0.1590 0.1560
2.890000 0.1530 0.1510 0.1470 0.1470 0.1420
2.920932 0.1390 0.1360 0.1340 0.1330 0.1330
2.952000 0.1330 0.1310 0.1310 0.1310 0.1300
2.982932 0.1300 0.1300 0.1280 0.1280 0.1280
3.014000 0.1300 0.1300 0.1310 0.1310 0.1310
3.044932 0.1310 0.1310 0.1330 0.1330 0.1330
3.076000 0.1330 0.1340 0.1340 0.1340 0.1340
3.106932 0.1340 0.1330 0.1300 0.1280 0.1260
3.138000 0.1260 0.1250 0.1250 0.1230 0.1220
3.168932 0.1220 0.1220 0.1220 0.1230 0.1260
3.200000 0.1300 0.1330 0.1360 0.1370 0.1400
3.230932 0.1470 0.1510 0.1510 0.1530 0.1540
3.261000 0.1540 0.1540 0.1540 0.1540 0.1540
3.291932 0.1540 0.1530 0.1510 0.1450 0.1300
3.323000 0.1260 0.1190 0.1160 0.1080 0.1060
3.353932 0.1020 0.1000 0.1000 0.0990 0.0970
3.385000 0.0940 0.0920 0.0920 0.0920 0.0940
3.415932 0.1000 0.1050 0.1060 0.1050 0.1020
3.447000 0.0990 0.0970 0.0990 0.1020 0.1050
3.477932 0.1060 0.1090 0.1090 0.1090 0.1090
3.509000 0.1110 0.1130 0.1220 0.1340 0.1500
3.539932 0.1650 0.1840 0.2040 0.2220 0.2410
3.571000 0.2600 0.2750 0.2890 0.2980 0.3080
3.601932 0.3210 0.3390 0.3390 0.3490 0.3600
3.633000 0.3740 0.3850 0.3970 0.4070 0.4210
3.663932 0.4340 0.4500 0.4650 0.4840 0.5040
3.694000 0.5260 0.5460 0.5630 0.5750 0.5860
3.724932 0.5940 0.5970 0.6020 0.6090 0.6190
3.756000 0.6360 0.6600 0.6760 0.6980 0.7100
3.786932 0.7260 0.7460 0.7660 0.7860 0.8000
3.818000 0.8040 0.8150 0.8210 0.8250 0.8250
3.848932 0.8250 0.8260 0.8280 0.8340 0.8400
3.880000 0.8460 0.8560 0.8650 0.8740 0.8820
3.910932 0.8900 0.8960 0.9040 0.9110 0.9190
3.942000 0.9220 0.9280 0.9300 0.9330 0.9340
3.972932 0.9360 0.9380 0.9390 0.9390 0.9420
4.004000 0.9420 0.9470 0.9480 0.9480 0.9470
4.034932 0.9420 0.9410 0.9390 0.9390 0.9380
4.065000 0.9380 0.9330 0.9310 0.9300 0.9280
4.095932 0.9270 0.9220 0.9130 0.9110 0.9100
4.127000 0.9070 0.9070 0.9050 0.9020 0.9000
4.157932 0.8990 0.8990 0.8990 0.8990 0.8990
4.189000 0.8970 0.8970 0.8930 0.8880 0.8830
4.219932 0.8760 0.8650 0.8560 0.8490 0.8460
4.251000 0.8450 0.8460 0.8480 0.8490 0.8520
4.281932 0.8540 0.8540 0.8560 0.8570 0.8570
4.313000 0.8570 0.8560 0.8540 0.8520 0.8490
4.343932 0.8490 0.8430 0.8370 0.8260 0.8110
4.375000 0.7980 0.7920 0.7840 0.7780 0.7660
4.405932 0.7560 0.7470 0.7470 0.7410 0.7360
4.436000 0.7300 0.7270 0.7260 0.7220 0.7190
4.466932 0.7150 0.7070 0.6980 0.6960 0.6840
4.498000 0.6760 0.6700 0.6620 0.6560 0.6500
4.528932 0.6480 0.6500 0.6510 0.6560 0.6590
4.560000 0.6620 0.6620 0.6640 0.6700 0.6760
4.590932 0.6850 0.6930 0.7010 0.7050 0.7070
4.622000 0.7120 0.7190 0.7240 0.7290 0.7300
4.652932 0.7300 0.7320 0.7330 0.7360 0.7380
4.684000 0.7380 0.7410 0.7440 0.7500 0.7560
4.714932 0.7610 0.7660 0.7700 0.7730 0.7770
4.746000 0.7780 0.7800 0.7810 0.7810 0.7810
4.776932 0.7810 0.7800 0.7720 0.7670 0.7600
4.807000 0.7500 0.7470 0.7410 0.7390 0.7350
4.837932 0.7320 0.7300 0.7270 0.7260 0.7240
4.869000 0.7220 0.7220 0.7220 0.7270 0.7290
4.899932 0.7300 0.7330 0.7350 0.7390 0.7430
4.931000 0.7460 0.7490 0.7530 0.7560 0.7600
4.961932 0.7630 0.7640 0.7690 0.7700 0.7700
4.993000 0.7720 0.7720 0.7750 0.7750 0.7750
5.023932 0.7730 0.7700 0.7670 0.7610 0.7550
5.055000 0.7430 0.7410 0.7430 0.7490 0.7500
5.085932 0.7500 0.7490 0.7460 0.7410 0.7350
5.117000 0.7290 0.7220 0.7190 0.7190 0.7150
5.147932 0.7130 0.7120 0.7040 0.7010 0.6960
5.178000 0.6930 0.6910 0.6900 0.6870 0.6810
5.208932 0.6740 0.6670 0.6620 0.6590 0.6560
5.240000 0.6510 0.6480 0.6430 0.6400 0.6370
5.270932 0.6360 0.6310 0.6250 0.6190 0.6110
5.302000 0.6020 0.5940 0.5880 0.5820 0.5800
5.332932 0.5800 0.5780 0.5740 0.5710 0.5610
5.364000 0.5550 0.5520 0.5510 0.5460 0.5430
5.394932 0.5380 0.5340 0.5270 0.5240 0.5200
5.426000 0.5150 0.5120 0.5100 0.5070 0.5040
5.456932 0.5010 0.4980 0.4950 0.4890 0.4810
5.488000 0.4780 0.4750 0.4700 0.4620 0.4560
5.518932 0.4500 0.4450 0.4390 0.4360 0.4300
5.549000 0.4210 0.4160 0.4080 0.4020 0.3970
5.579932 0.3960 0.3930 0.3880 0.3800 0.3660
5.611000 0.3570 0.3540 0.3460 0.3400 0.3370
5.641932 0.3340 0.3320 0.3310 0.3210 0.3150
5.673000 0.3040 0.3000 0.2910 0.2830 0.2800
5.703932 0.2730 0.2720 0.2660 0.2580 0.2520
5.735000 0.2440 0.2390 0.2330 0.2300 0.2240
5.765932 0.2100 0.1990 0.1870 0.1850 0.1810
5.797000 0.1760 0.1710 0.1650 0.1600 0.1570
5.827932 0.1530 0.1510 0.1500 0.1500 0.1480
5.859000 0.1480 0.1430 0.1400 0.1370 0.1310
5.889932 0.1280 0.1260 0.1280 0.1400 0.1400
5.920000 0.1390 0.1370 0.1340 0.1300 0.1250
5.950932 0.1230 0.1220 0.1220 0.1230 0.1250
5.982000 0.1250 0.1280 0.1300 0.1310 0.1310
6.012932 0.1300 0.1300 0.1310 0.1330 0.1330
6.044000 0.1330 0.1330 0.1330 0.1330 0.1360
6.074932 0.1420 0.1560 0.1710 0.1880 0.1960
6.106000 0.2040 0.2180 0.2360 0.2490 0.2640
6.136932 0.2770 0.2870 0.3060 0.3210 0.3340
6.168000 0.3370 0.3370 0.3370 0.3260 0.3170
6.198932 0.2950 0.2670 0.2500 0.2350 0.2150
6.230000 0.1960 0.1760 0.1700 0.1620 0.1600
6.260932 0.1600 0.1590 0.1570 0.1510 0.1510
6.292000 0.1590 0.1670 0.1680 0.1680 0.1680
6.322932 0.1640 0.1600 0.1590 0.1620 0.1710
6.353000 0.1840 0.1900 0.1960 0.2050 0.2160
6.383932 0.2210 0.2330 0.2410 0.2530 0.2660
6.415000 0.2720 0.2770 0.2810 0.2910 0.3040
6.445932 0.3210 0.3430 0.3650 0.3820 0.4000
6.477000 0.4170 0.4340 0.4470 0.4610 0.4690
6.507932 0.4780 0.4890 0.4950 0.5100 0.5180
6.539000 0.5210 0.5230 0.5240 0.5290 0.5300
6.569932 0.5320 0.5320 0.5320 0.5320 0.5300
6.601000 0.5270 0.5240 0.5150 0.5130 0.5040
6.631932 0.5000 0.4950 0.4860 0.4790 0.4730
6.663000 0.4650 0.4590 0.4480 0.4280 0.4140
6.693932 0.3970 0.3820 0.3620 0.3370 0.3200
6.724000 0.2970 0.2770 0.2530 0.2320 0.2050
6.754932 0.1790 0.1480 0.1260 0.1200 0.1170
6.786000 0.1170 0.1160 0.1160 0.1160 0.1160
6.816932 0.1170 0.1170 0.1190 0.1190 0.1200
6.848000 0.1220 0.1220 0.1230 0.1250 0.1260
6.878932 0.1310 0.1340 0.1400 0.1470 0.1530
6.910000 0.1620 0.1760 0.1960 0.2070 0.2300
6.940932 0.2500 0.2660 0.2830 0.2970 0.3170
6.972000 0.3320 0.3390 0.3450 0.3520 0.3600
7.002932 0.3680 0.3760 0.3830 0.3910 0.3960
7.034000 0.4000 0.4070 0.4080 0.4080 0.4020
7.064932 0.3970 0.3940 0.3930 0.3940 0.3960
7.095000 0.3990 0.3970 0.3940 0.3930 0.3900
7.125932 0.3880 0.3880 0.3850 0.3820 0.3730
7.157000 0.3620 0.3350 0.3180 0.2970 0.2700
7.187932 0.2440 0.2180 0.1910 0.1710 0.1540
7.219000 0.1430 0.1330 0.1260 0.1250 0.1260
7.249932 0.1280 0.1340 0.1390 0.1430 0.1470
7.281000 0.1500 0.1530 0.1560 0.1600 0.1670
7.311932 0.1740 0.1850 0.1980 0.2100 0.2210
7.343000 0.2270 0.2330 0.2390 0.2430 0.2430
7.373932 0.2410 0.2380 0.2380 0.2410 0.2430
7.405000 0.2440 0.2440 0.2460 0.2460 0.2460
7.435932 0.2470 0.2490 0.2490 0.2490 0.2460
7.466000 0.2460 0.2460 0.2470 0.2470 0.2500
7.496932 0.2520 0.2530 0.2530 0.2550 0.2580
7.528000 0.2600 0.2600 0.2600 0.2580 0.2580
7.558932 0.2560 0.2560 0.2550 0.2550 0.2530
7.590000 0.2520 0.2430 0.2330 0.2320 0.2320
7.620932 0.2320 0.2320 0.2320 0.2320 0.2320
7.652000 0.2330 0.2350 0.2380 0.2380 0.2350
7.682932 0.2330 0.2300 0.2300 0.2290 0.2270
7.714000 0.2260 0.2260 0.2240 0.2220 0.2210
7.744932 0.2210 0.2210 0.2210 0.2210 0.2210
7.776000 0.2220 0.2220 0.2220 0.2220 0.2210
7.806932 0.2160 0.2150 0.2120 0.2130 0.2100
7.837000 0.2080 0.2080 0.2120 0.2120 0.2120
7.867932 0.2100 0.2080 0.2050 0.2020 0.2010
7.899000 0.2020 0.2040 0.2070 0.2080 0.2040
7.929932 0.2040 0.2040 0.2040 0.2040 0.2050
7.961000 0.2040 0.2020 0.2010 0.1990 0.1960
7.991932 0.1960 0.1950 0.1950 0.1930 0.1930
8.023000 0.1910 0.1910 0.1910 0.1880 0.1870
8.053932 0.1870 0.1880 0.1930 0.1930 0.1900
8.085000 0.1900 0.1880 0.1870 0.1870 0.1850
8.115932 0.1850 0.1850 0.1820 0.1820 0.1820
8.147000 0.1820 0.1820 0.1820 0.1820 0.1850
8.177932 0.1840 0.1840 0.1840 0.1820 0.1810
8.208000 0.1820 0.1820 0.1820 0.1820 0.1820
8.238932 0.1810 0.1790 0.1790 0.1780 0.1790
8.270000 0.1790 0.1820 0.1820 0.1810 0.1810
8.300932 0.1790 0.1780 0.1760 0.1730 0.1710
8.332000 0.1680 0.1680 0.1670 0.1670 0.1670
8.362932 0.1670 0.1670 0.1650 0.1650 0.1640
8.394000 0.1640 0.1670 0.1670 0.1640 0.1560
8.424932 0.1500 0.1480 0.1540 0.1530 0.1530
8.456000 0.1530 0.1530 0.1510 0.1500 0.1500
8.486932 0.1480 0.1470 0.1450 0.1450 0.1430
8.518000 0.1420 0.1420 0.1390 0.1390 0.1420
8.548932 0.1420 0.1400 0.1390 0.1360 0.1330
8.580000 0.1300 0.1260 0.1260 0.1280 0.1330
8.610932 0.1330 0.1330 0.1310 0.1300 0.1280
8.641000 0.1280 0.1280 0.1280 0.1280 0.1300
8.671932 0.1300 0.1300 0.1310 0.1310 0.1310
8.703000 0.1330 0.1330 0.1370 0.1390 0.1390
8.733932 0.1370 0.1340 0.1310 0.1300 0.1300
8.765000 0.1300 0.1300 0.1300 0.1300 0.1300
8.795932 0.1310 0.1310 0.1310 0.1300 0.1280
8.827000 0.1260 0.1280 0.1280 0.1280 0.1280
8.857932 0.1280 0.1280 0.1280 0.1280 0.1280
8.889000 0.1280 0.1280 0.1280 0.1280 0.1260
8.919932 0.1220 0.1230 0.1230 0.1250 0.1250
8.951000 0.1230 0.1230 0.1220 0.1220 0.1190
8.981932 0.1190 0.1190 0.1190 0.1190 0.1190
9.012000 0.1170 0.1190 0.1190 0.1190 0.1190
9.042932 0.1190 0.1190 0.1200 0.1220 0.1220
9.074000 0.1220 0.1220 0.1220 0.1220 0.1220
9.104932 0.1220 0.1200 0.1190 0.1190 0.1190
9.136000 0.1170 0.1170 0.1160 0.1190 0.1190
9.166932 0.1200 0.1200 0.1200 0.1190 0.1220
9.198000 0.1220 0.1190 0.1190 0.1190 0.1170
9.228932 0.1170 0.1160 0.1170 0.1190 0.1200
9.260000 0.1200 0.1220 0.1220 0.1220 0.1220
9.290932 0.1200 0.1200 0.1200 0.1200 0.1200
9.322000 0.1220 0.1220 0.1220 0.1230 0.1230
9.352932 0.1230 0.1230 0.1230 0.1230 0.1230
9.383000 0.1220 0.1200 0.1170 0.1160 0.1160
9.413932 0.1160 0.1160 0.1160 0.1160 0.1170
9.445000 0.1170 0.1190 0.1190 0.1190 0.1200
9.475932 0.1200 0.1200 0.1200 0.1190 0.1190
9.507000 0.1170 0.1170 0.1170 0.1170 0.1170
9.537932 0.1170 0.1170 0.1170 0.1170 0.1190
9.569000 0.1190 0.1190 0.1200 0.1190 0.1200
9.599932 0.1250 0.1280 0.1300 0.1310 0.1310
9.631000 0.1300 0.1300 0.1250 0.1250 0.1280
9.661932 0.1300 0.1340 0.1370 0.1370 0.1340
9.693000 0.1330 0.1300 0.1280 0.1250 0.1260
9.723932 0.1260 0.1330 0.1370 0.1390 0.1390
9.754000 0.1400 0.1420 0.1450 0.1470 0.1480
9.784932 0.1500 0.1510 0.1500 0.1480 0.1450
9.816000 0.1470 0.1470 0.1480 0.1510 0.1510
9.846932 0.1500 0.1480 0.1500 0.1500 0.1510
9.878000 0.1530 0.1540 0.1540 0.1540 0.1560
9.908932 0.1570 0.1570 0.1590 0.1620 0.1670
9.940000 0.1700 0.1710 0.1730 0.1780 0.1780
9.970932 0.1810 0.1840 0.1850 0.1870 0.1880
10.002000 0.1910 0.1950 0.1980 0.1930 0.1930
10.032932 0.1980 0.2020 0.2040 0.2020 0.2010
10.064000 0.1990 0.2010 0.2040 0.2080 0.2130
10.094932 0.2180 0.2190 0.2210 0.2220 0.2240
10.125000 0.2260 0.2270 0.2290 0.2320 0.2330
10.155932 0.2330 0.2350 0.2380 0.2410 0.2470
10.187000 0.2500 0.2520 0.2550 0.2560 0.2560
10.217932 0.2560 0.2560 0.2560 0.2560 0.2560
10.249000 0.2580 0.2580 0.2610 0.2660 0.2670
10.279932 0.2690 0.2720 0.2770 0.2800 0.2840
10.311000 0.2910 0.2920 0.2970 0.2980 0.3000
10.341932 0.3010 0.3010 0.3030 0.3040 0.3080
10.373000 0.3090 0.3110 0.3120 0.3180 0.3200
10.403932 0.3210 0.3260 0.3280 0.3290 0.3310
10.435000 0.3340 0.3390 0.3420 0.3460 0.3490
10.465932 0.3520 0.3540 0.3540 0.3540 0.3560
10.496000 0.3590 0.3630 0.3680 0.3730 0.3770
10.526932 0.3800 0.3860 0.3880 0.3900 0.3940
10.558000 0.3970 0.3990 0.4040 0.4100 0.4130
10.588932 0.4140 0.4170 0.4220 0.4280 0.4310
10.620000 0.4330 0.4340 0.4380 0.4390 0.4450
10.650932 0.4500 0.4530 0.4560 0.4560 0.4580
10.682000 0.4580 0.4590 0.4620 0.4670 0.4700
10.712932 0.4760 0.4790 0.4820 0.4840 0.4870
10.744000 0.4890 0.4920 0.4950 0.5000 0.5010
10.774932 0.5070 0.5120 0.5120 0.5150 0.5210
10.806000 0.5270 0.5350 0.5410 0.5460 0.5470
10.836932 0.5510 0.5570 0.5580 0.5610 0.5630
10.867000 0.5680 0.5710 0.5750 0.5780 0.5820
10.897932 0.5850 0.5860 0.5880 0.5860 0.5850
10.929000 0.5860 0.5890 0.5970 0.6030 0.6110
10.959932 0.6140 0.6190 0.6250 0.6310 0.6370
10.991000 0.6390 0.6450 0.6500 0.6530 0.6560
11.021932 0.6590 0.6600 0.6620 0.6670 0.6700
11.053000 0.6740 0.6790 0.6870 0.6870 0.6810
11.083932 0.6810 0.6810 0.6810 0.6840 0.6910
11.115000 0.6980 0.6980 0.6990 0.7010 0.7020
11.145932 0.7020 0.7040 0.7070 0.7070 0.7080
11.177000 0.7080 0.7080 0.7080 0.7100 0.7100
11.207932 0.7100 0.7120 0.7130 0.7130 0.7160
11.239000 0.7180 0.7210 0.7270 0.7290 0.7300
11.269932 0.7300 0.7320 0.7360 0.7380 0.7390
11.300000 0.7410 0.7460 0.7490 0.7520 0.7530
11.330932 0.7560 0.7580 0.7580 0.7580 0.7600
11.362000 0.7600 0.7610 0.7640 0.7640 0.7660
11.392932 0.7670 0.7700 0.7720 0.7730 0.7730
11.424000 0.7750 0.7750 0.7720 0.7720 0.7720
11.454932 0.7720 0.7750 0.7770 0.7780 0.7800
11.486000 0.7870 0.7890 0.7890 0.7870 0.7860
11.516932 0.7840 0.7830 0.7810 0.7810 0.7810
11.548000 0.7830 0.7840 0.7870 0.7890 0.7890
11.578932 0.7890 0.7870 0.7890 0.7910 0.7920
11.610000 0.7920 0.7870 0.7870 0.7870 0.7890
11.640932 0.7910 0.7910 0.7910 0.7910 0.7910
11.671000 0.7890 0.7890 0.7870 0.7870 0.7860
11.701932 0.7870 0.7840 0.7780 0.7730 0.7730
11.733000 0.7780 0.7780 0.7780 0.7780 0.7770
11.763932 0.7730 0.7730 0.7720 0.7700 0.7670
11.795000 0.7660 0.7640 0.7630 0.7610 0.7690
11.825932 0.7690 0.7690 0.7690 0.7690 0.7690
11.857000 0.7690 0.7690 0.7690 0.7670 0.7670
11.887932 0.7640 0.7630 0.7660 0.7690 0.7700
11.919000 0.7720 0.7720 0.7730 0.7730 0.7720
11.949932 0.7700 0.7690 0.7670 0.7660 0.7660
11.981000 0.7610 0.7600 0.7600 0.7610 0.7640
12.011932 0.7660 0.7660 0.7640 0.7640 0.7640
12.042000 0.7630 0.7630 0.7630 0.7630 0.7610
12.072932 0.7600 0.7580 0.7560 0.7520 0.7530
12.104000 0.7530 0.7550 0.7550 0.7530 0.7530
12.134932 0.7520 0.7500 0.7470 0.7440 0.7430
12.166000 0.7410 0.7410 0.7410 0.7410 0.7410
12.196932 0.7390 0.7380 0.7360 0.7350 0.7330
12.228000 0.7320 0.7300 0.7290 0.7290 0.7270
12.258932 0.7270 0.7240 0.7220 0.7210 0.7190
12.290000 0.7180 0.7160 0.7180 0.7180 0.7160
12.320932 0.7150 0.7120 0.7100 0.7070 0.7040
12.352000 0.6990 0.6960 0.6910 0.6880 0.6880
12.382932 0.6850 0.6850 0.6840 0.6820 0.6810
12.413000 0.6780 0.6740 0.6780 0.6740 0.6730
12.443932 0.6700 0.6680 0.6670 0.6640 0.6620
12.475000 0.6590 0.6570 0.6570 0.6540 0.6540
12.505932 0.6530 0.6530 0.6510 0.6480 0.6450
12.537000 0.6400 0.6370 0.6330 0.6310 0.6280
12.567932 0.6230 0.6200 0.6170 0.6130 0.6110
12.599000 0.6090 0.6050 0.6030 0.6020 0.6000
12.629932 0.5970 0.5950 0.5910 0.5880 0.5880
12.661000 0.5860 0.5830 0.5780 0.5740 0.5720
12.691932 0.5690 0.5660 0.5630 0.5600 0.5550
12.723000 0.5510 0.5490 0.5490 0.5470 0.5440
12.753932 0.5380 0.5320 0.5270 0.5180 0.5170
12.784000 0.5150 0.5130 0.5100 0.5070 0.5010
12.814932 0.4960 0.4950 0.4920 0.4860 0.4790
12.846000 0.4780 0.4730 0.4700 0.4690 0.4670
12.876932 0.4640 0.4610 0.4560 0.4520 0.4480
12.908000 0.4470 0.4420 0.4410 0.4340 0.4280
12.938932 0.4210 0.4170 0.4140 0.4130 0.4130
12.970000 0.4130 0.4110 0.4100 0.4040 0.3990
13.000932 0.3910 0.3900 0.3880 0.3880 0.3850
13.032000 0.3850 0.3800 0.3800 0.3770 0.3730
13.062932 0.3710 0.3680 0.3680 0.3660 0.3650
13.094000 0.3620 0.3590 0.3570 0.3520 0.3510
13.124932 0.3490 0.3480 0.3430 0.3400 0.3370
13.155000 0.3350 0.3350 0.3320 0.3310 0.3290
13.185932 0.3280 0.3250 0.3200 0.3170 0.3140
13.217000 0.3140 0.3120 0.3120 0.3120 0.3120
13.247932 0.3120 0.3110 0.3080 0.3000 0.2950
13.279000 0.2920 0.2910 0.2910 0.2890 0.2890
13.309932 0.2870 0.2870 0.2860 0.2810 0.2750
13.341000 0.2700 0.2660 0.2640 0.2630 0.2610
13.371932 0.2600 0.2560 0.2530 0.2520 0.2500
13.403000 0.2470 0.2430 0.2410 0.2380 0.2380
13.433932 0.2360 0.2360 0.2360 0.2380 0.2380
13.465000 0.2390 0.2390 0.2410 0.2410 0.2430
13.495932 0.2440 0.2440 0.2460 0.2460 0.2490
13.527000 0.2500 0.2530 0.2640 0.2690 0.2750
13.557932 0.2780 0.2780 0.2800 0.2830 0.2840
13.588000 0.2870 0.2910 0.2910 0.2920 0.2920
13.618932 0.2940 0.2940 0.2920 0.2890 0.2890
13.650000 0.2870 0.2860 0.2840 0.2840 0.2780
13.680932 0.2730 0.2700 0.2670 0.2660 0.2630
13.712000 0.2610 0.2610 0.2610 0.2670 0.2670
13.742932 0.2630 0.2600 0.2550 0.2520 0.2490
13.774000 0.2460 0.2430 0.2430 0.2490 0.2490
13.804932 0.2490 0.2440 0.2430 0.2430 0.2390
13.836000 0.2360 0.2330 0.2320 0.2300 0.2290
13.866932 0.2270 0.2260 0.2220 0.2210 0.2180
13.898000 0.2180 0.2190 0.2220 0.2270 0.2270
13.928932 0.2270 0.2260 0.2210 0.2210 0.2210
13.959000 0.2210 0.2270 0.2270 0.2240 0.2210
13.989932 0.2210 0.2220 0.2210 0.2210 0.2210
14.021000 0.2210 0.2210 0.2210 0.2190 0.2190
14.051932 0.2180 0.2190 0.2190 0.2190 0.2190
14.083000 0.2180 0.2180 0.2130 0.2120 0.2080
14.113932 0.2050 0.2040 0.2040 0.2050 0.2070
14.145000 0.2070 0.2070 0.2070 0.2070 0.2050
14.175932 0.2050 0.2040 0.2040 0.2040 0.2040
14.207000 0.2020 0.2020 0.2020 0.2020 0.2020
14.237932 0.2020 0.2010 0.2010 0.2010 0.2010
14.269000 0.1990 0.2010 0.2010 0.1990 0.1990
14.299932 0.1990 0.1990 0.1990 0.1990 0.1990
14.330000 0.1990 0.2010 0.2010 0.2010 0.1990
14.360932 0.1990 0.1960 0.1950 0.1930 0.1960
14.392000 0.1990 0.2010 0.2010 0.1990 0.1990
14.422932 0.1980 0.1960 0.1960 0.1950 0.1950
14.454000 0.1950 0.1950 0.1950 0.1960 0.1960
14.484932 0.1990 0.1990 0.2010 0.1990 0.2010
14.516000 0.2010 0.2010 0.1990 0.1960 0.1960
14.546932 0.1980 0.1990 0.2010 0.2020 0.2020
14.578000 0.2020 0.2020 0.2020 0.2010 0.2010
14.608932 0.2020 0.2020 0.2010 0.2010 0.2020
14.640000 0.2040 0.2040 0.2040 0.2050 0.2050
14.670932 0.2050 0.2070 0.2070 0.2070 0.2070
14.701000 0.2080 0.2080 0.2100 0.2100 0.2130
14.731932 0.2130 0.2150 0.2130 0.2150 0.2160
14.763000 0.2180 0.2180 0.2160 0.2180 0.2180
14.793932 0.2180 0.2190 0.2240 0.2260 0.2260
14.825000 0.2270 0.2270 0.2290 0.2290 0.2300
14.855932 0.2330 0.2350 0.2350 0.2360 0.2360
14.887000 0.2380 0.2360 0.2380 0.2380 0.2410
14.917932 0.2410 0.2380 0.2350 0.2350 0.2380
14.949000 0.2410 0.2470 0.2470 0.2490 0.2490
14.979932 0.2490 0.2500 0.2500 0.2530 0.2600
15.011000 0.2630 0.2640 0.2690 0.2720 0.2770
15.041932 0.2780 0.2800 0.2830 0.2840 0.2860
15.072000 0.2860 0.2870 0.2870 0.2860 0.2770
15.102932 0.2720 0.2700 0.2690 0.2690 0.2670
15.134000 0.2660 0.2640 0.2630 0.2600 0.2560
15.164932 0.2530 0.2500 0.2490 0.2500 0.2530
15.196000 0.2580 0.2630 0.2670 0.2670 0.2700
15.226932 0.2720 0.2730 0.2750 0.2770 0.2780
15.258000 0.2770 0.2780 0.2780 0.2800 0.2810
15.288932 0.2830 0.2830 0.2830 0.2830 0.2860
15.320000 0.2860 0.2890 0.2940 0.2980 0.2980
15.350932 0.3000 0.3010 0.3010 0.3030 0.3030
15.382000 0.3040 0.3060 0.3090 0.3110 0.3120
15.412932 0.3120 0.3110 0.3120 0.3120 0.3150
15.443000 0.3170 0.3200 0.3210 0.3280 0.3310
15.473932 0.3310 0.3290 0.3290 0.3290 0.3310
15.505000 0.3280 0.3280 0.3260 0.3250 0.3250
15.535932 0.3200 0.3200 0.3250 0.3290 0.3320
15.567000 0.3320 0.3290 0.3260 0.3260 0.3280
15.597932 0.3290 0.3310 0.3320 0.3340 0.3370
15.629000 0.3370 0.3370 0.3370 0.3390 0.3390
15.659932 0.3400 0.3420 0.3420 0.3430 0.3450
15.691000 0.3480 0.3480 0.3510 0.3540 0.3570
15.721932 0.3560 0.3570 0.3600 0.3630 0.3630
15.753000 0.3620 0.3600 0.3590 0.3590 0.3600
15.783932 0.3600 0.3600 0.3600 0.3620 0.3630
15.814000 0.3650 0.3660 0.3680 0.3690 0.3710
15.844932 0.3730 0.3730 0.3730 0.3740 0.3740
15.876000 0.3740 0.3760 0.3760 0.3740 0.3740
15.906932 0.3760 0.3770 0.3790 0.3800 0.3830
15.938000 0.3860 0.3880 0.3900 0.3940 0.3960
15.968932 0.3970 0.3990 0.4000 0.4000 0.4000
16.000000 0.4020
##END=
