##TITLE=ADONITOL
##JCAMP-DX=4.24
##DATA TYPE=INFRARED SPECTRUM
##CLASS=COBLENTZ III
##ORIGIN=DOW CHEMICAL COMPANY
##OWNER=COBLENTZ SOC.
Collection (C) 2018 copyright by the U.S. Secretary of Commerce
on behalf of the United States of America. All rights reserved.
##DATE=1965/03/09
##MOLFORM=C5 H12 O5
##MP=101 C
##SOURCE REFERENCE=COBLENTZ NO. 07168
##$NIST ID=B6007168
##$NIST SOURCE=COBLENTZ
##$NIST IMAGE=cob7168
##SPECTROMETER/DATA SYSTEM=DOW KBr FOREPRISM-GRATING
##INSTRUMENT PARAMETERS=BLAZED AT 3.5, 12.0, 20.0 MICRON AND CHANGED AT 5.0, 7.5, 14.9 MICRON
##STATE=SOLID (SPLIT MULL), FLUOROLUBE FOR 3800-1330 CM^-^1, NUJOL FOR 1330-450 CM^-^1
##SAMPLING PROCEDURE=TRANSMISSION
##RESOLUTION=2
##DATA PROCESSING=DIGITIZED BY COBLENTZ SOCIETY (BATCH I) FROM HARD COPY
##XUNITS=1/CM
##YUNITS=TRANSMITTANCE
##XLABEL=Wavenumbers (cm-1)
##YLABEL=% Transmission
##XFACTOR=1
##YFACTOR=1
##DELTAX=1
##FIRSTX=457
##LASTX=3802
##FIRSTY=0.6621
##MAXX=3802
##MINX=457
##MAXY=0.8903
##MINY=0.0052
##NPOINTS=3346
##XYDATA=(X++(Y..Y))
457.000000 0.6621 0.6598 0.6565 0.6531 0.6493
462.000000 0.6455 0.6415 0.6376 0.6335 0.6283
467.000000 0.6231 0.6169 0.6087 0.6009 0.5939
472.000000 0.5877 0.5876 0.5876 0.5827 0.5935
477.000000 0.6038 0.6167 0.6297 0.6444 0.6455
482.000000 0.6456 0.6441 0.6451 0.6446 0.6438
487.000000 0.6425 0.6411 0.6386 0.6360 0.6325
492.000000 0.6288 0.6241 0.6195 0.6149 0.6101
497.000000 0.6050 0.5998 0.5947 0.5901 0.5854
502.000000 0.5806 0.5744 0.5682 0.5620 0.5559
507.000000 0.5497 0.5435 0.5373 0.5310 0.5249
512.000000 0.5187 0.5126 0.5064 0.5020 0.4977
517.000000 0.4934 0.4891 0.4840 0.4762 0.4686
522.000000 0.4609 0.4532 0.4432 0.4296 0.4209
527.000000 0.4121 0.4012 0.3897 0.3762 0.3652
532.000000 0.3554 0.3492 0.3458 0.3425 0.3384
537.000000 0.3342 0.3300 0.3242 0.3184 0.3131
542.000000 0.3081 0.3031 0.2982 0.2933 0.2884
547.000000 0.2835 0.2788 0.2741 0.2694 0.2647
552.000000 0.2600 0.2550 0.2496 0.2443 0.2390
557.000000 0.2342 0.2299 0.2257 0.2214 0.2172
562.000000 0.2129 0.2082 0.2034 0.1987 0.1940
567.000000 0.1899 0.1863 0.1827 0.1791 0.1764
572.000000 0.1741 0.1722 0.1713 0.1704 0.1694
577.000000 0.1687 0.1684 0.1683 0.1684 0.1684
582.000000 0.1691 0.1700 0.1709 0.1717 0.1729
587.000000 0.1749 0.1769 0.1787 0.1825 0.1863
592.000000 0.1910 0.1959 0.2015 0.2071 0.2127
597.000000 0.2188 0.2254 0.2320 0.2372 0.2416
602.000000 0.2460 0.2504 0.2538 0.2573 0.2608
607.000000 0.2641 0.2667 0.2693 0.2713 0.2720
612.000000 0.2728 0.2769 0.2710 0.2676 0.2614
617.000000 0.2547 0.2472 0.2388 0.2277 0.2157
622.000000 0.2036 0.1917 0.1790 0.1656 0.1529
627.000000 0.1503 0.1535 0.1552 0.1602 0.1677
632.000000 0.1779 0.1861 0.1934 0.2012 0.2091
637.000000 0.2187 0.2284 0.2367 0.2443 0.2519
642.000000 0.2578 0.2630 0.2681 0.2733 0.2783
647.000000 0.2827 0.2871 0.2915 0.2958 0.3002
652.000000 0.3046 0.3089 0.3132 0.3175 0.3218
657.000000 0.3273 0.3338 0.3404 0.3468 0.3546
662.000000 0.3626 0.3704 0.3764 0.3827 0.3887
667.000000 0.3925 0.3962 0.4006 0.4057 0.4108
672.000000 0.4159 0.4210 0.4262 0.4312 0.4365
677.000000 0.4416 0.4476 0.4476 0.4477 0.4464
682.000000 0.4442 0.4424 0.4406 0.4378 0.4347
687.000000 0.4315 0.4278 0.4234 0.4184 0.4134
692.000000 0.4077 0.4018 0.3966 0.3914 0.3891
697.000000 0.3880 0.3882 0.3887 0.3893 0.3916
702.000000 0.3959 0.4008 0.4060 0.4125 0.4202
707.000000 0.4255 0.4307 0.4382 0.4454 0.4505
712.000000 0.4549 0.4584 0.4618 0.4640 0.4652
717.000000 0.4657 0.4662 0.4668 0.4692 0.4719
722.000000 0.4768 0.4827 0.4897 0.4953 0.5006
727.000000 0.5044 0.5078 0.5102 0.5116 0.5115
732.000000 0.5112 0.5112 0.5114 0.5101 0.5094
737.000000 0.5082 0.5071 0.5045 0.5012 0.4944
742.000000 0.4848 0.4740 0.4480 0.4331 0.4079
747.000000 0.3826 0.3574 0.3468 0.3453 0.3562
752.000000 0.4087 0.4610 0.5135 0.5594 0.5931
757.000000 0.6115 0.6323 0.6436 0.6550 0.6711
762.000000 0.6871 0.6968 0.7062 0.7157 0.7239
767.000000 0.7321 0.7399 0.7469 0.7540 0.7611
772.000000 0.7684 0.7757 0.7828 0.7901 0.7975
777.000000 0.8050 0.8115 0.8167 0.8218 0.8270
782.000000 0.8314 0.8344 0.8374 0.8403 0.8433
787.000000 0.8459 0.8480 0.8501 0.8521 0.8543
792.000000 0.8564 0.8585 0.8605 0.8624 0.8643
797.000000 0.8661 0.8680 0.8699 0.8717 0.8736
802.000000 0.8753 0.8767 0.8780 0.8794 0.8808
807.000000 0.8821 0.8836 0.8850 0.8859 0.8864
812.000000 0.8868 0.8874 0.8878 0.8884 0.8887
817.000000 0.8887 0.8888 0.8889 0.8889 0.8902
822.000000 0.8891 0.8891 0.8889 0.8885 0.8880
827.000000 0.8875 0.8871 0.8867 0.8863 0.8855
832.000000 0.8841 0.8828 0.8813 0.8796 0.8778
837.000000 0.8763 0.8737 0.8711 0.8685 0.8646
842.000000 0.8587 0.8506 0.8405 0.8275 0.8156
847.000000 0.8042 0.7934 0.7808 0.7562 0.7032
852.000000 0.6594 0.5832 0.5069 0.4307 0.3545
857.000000 0.2783 0.2451 0.2463 0.4682 0.6209
862.000000 0.6333 0.6467 0.7225 0.7343 0.7492
867.000000 0.7645 0.7715 0.7758 0.7811 0.7801
872.000000 0.7799 0.7790 0.7718 0.7635 0.7447
877.000000 0.7311 0.7158 0.6847 0.6333 0.5819
882.000000 0.5305 0.4791 0.4323 0.3877 0.3430
887.000000 0.2984 0.2537 0.2091 0.1644 0.1198
892.000000 0.0971 0.1189 0.1934 0.2681 0.3427
897.000000 0.4172 0.4918 0.5664 0.6410 0.7155
902.000000 0.7494 0.7453 0.7447 0.7355 0.6915
907.000000 0.6476 0.6038 0.5599 0.5160 0.4721
912.000000 0.4282 0.3843 0.3404 0.3046 0.3039
917.000000 0.4636 0.6025 0.6507 0.7036 0.7565
922.000000 0.7994 0.8275 0.8506 0.8571 0.8621
927.000000 0.8649 0.8675 0.8698 0.8710 0.8721
932.000000 0.8721 0.8721 0.8715 0.8705 0.8694
937.000000 0.8677 0.8656 0.8625 0.8593 0.8527
942.000000 0.8448 0.8364 0.8263 0.8118 0.7978
947.000000 0.7569 0.7271 0.7031 0.7099 0.7431
952.000000 0.7668 0.7815 0.8030 0.8359 0.8460
957.000000 0.8508 0.8553 0.8584 0.8606 0.8618
962.000000 0.8628 0.8640 0.8645 0.8644 0.8654
967.000000 0.8636 0.8630 0.8624 0.8618 0.8610
972.000000 0.8600 0.8589 0.8575 0.8563 0.8549
977.000000 0.8535 0.8520 0.8504 0.8488 0.8471
982.000000 0.8451 0.8428 0.8405 0.8382 0.8359
987.000000 0.8331 0.8303 0.8275 0.8248 0.8218
992.000000 0.8191 0.8161 0.8134 0.8099 0.8048
997.000000 0.7996 0.7942 0.7878 0.7815 0.7751
1002.000000 0.7690 0.7628 0.7568 0.7468 0.7351
1007.000000 0.7261 0.7186 0.7110 0.7028 0.6949
1012.000000 0.6847 0.6619 0.6425 0.6066 0.5940
1017.000000 0.5106 0.4965 0.4488 0.3560 0.3420
1022.000000 0.3278 0.3073 0.2818 0.2538 0.1965
1027.000000 0.1652 0.1312 0.1055 0.0741 0.0431
1032.000000 0.0300 0.0196 0.0159 0.0159 0.0143
1037.000000 0.0165 0.0192 0.0232 0.0419 0.0521
1042.000000 0.0675 0.1250 0.1894 0.2366 0.2374
1047.000000 0.2400 0.2330 0.2160 0.1991 0.1821
1052.000000 0.1803 0.1810 0.1826 0.1870 0.1944
1057.000000 0.2131 0.2394 0.2657 0.2882 0.2807
1062.000000 0.2518 0.2152 0.1784 0.1419 0.1053
1067.000000 0.0686 0.0372 0.0293 0.0222 0.0150
1072.000000 0.0089 0.0085 0.0080 0.0077 0.0076
1077.000000 0.0074 0.0070 0.0081 0.0085 0.0103
1082.000000 0.0145 0.0238 0.0344 0.0403 0.0471
1087.000000 0.0590 0.1195 0.1945 0.2475 0.2434
1092.000000 0.2418 0.2240 0.2034 0.1829 0.1624
1097.000000 0.1418 0.1213 0.1007 0.0802 0.0724
1102.000000 0.0713 0.0942 0.1167 0.1392 0.1618
1107.000000 0.1844 0.2069 0.2295 0.2520 0.2693
1112.000000 0.2663 0.2657 0.2597 0.2484 0.2370
1117.000000 0.2257 0.2144 0.2029 0.1970 0.1945
1122.000000 0.2591 0.3024 0.3457 0.3890 0.4324
1127.000000 0.4757 0.5387 0.5683 0.5731 0.5733
1132.000000 0.5736 0.5741 0.5808 0.5944 0.6185
1137.000000 0.6331 0.6600 0.6945 0.7217 0.7418
1142.000000 0.7538 0.7603 0.7644 0.7672 0.7701
1147.000000 0.7725 0.7750 0.7772 0.7796 0.7815
1152.000000 0.7836 0.7856 0.7874 0.7888 0.7901
1157.000000 0.7917 0.7928 0.7938 0.7947 0.7957
1162.000000 0.7965 0.7974 0.7982 0.7990 0.7997
1167.000000 0.8001 0.8006 0.8010 0.8015 0.8015
1172.000000 0.8015 0.8014 0.8012 0.8008 0.8005
1177.000000 0.8001 0.7995 0.7984 0.8006 0.8001
1182.000000 0.8017 0.8031 0.8056 0.8061 0.8061
1187.000000 0.8062 0.8058 0.8054 0.8049 0.8044
1192.000000 0.8035 0.8025 0.8015 0.8005 0.7986
1197.000000 0.7968 0.7949 0.7918 0.7889 0.7858
1202.000000 0.7825 0.7792 0.7758 0.7704 0.7649
1207.000000 0.7592 0.7535 0.7457 0.7375 0.7311
1212.000000 0.7303 0.7343 0.7400 0.7458 0.7511
1217.000000 0.7560 0.7604 0.7648 0.7699 0.7742
1222.000000 0.7776 0.7804 0.7825 0.7825 0.7824
1227.000000 0.7818 0.7811 0.7804 0.7789 0.7769
1232.000000 0.7751 0.7733 0.7714 0.7694 0.7674
1237.000000 0.7653 0.7633 0.7608 0.7584 0.7558
1242.000000 0.7548 0.7541 0.7534 0.7526 0.7518
1247.000000 0.7510 0.7485 0.7457 0.7428 0.7395
1252.000000 0.7354 0.7301 0.7250 0.7178 0.7108
1257.000000 0.7049 0.6989 0.6930 0.6831 0.6528
1262.000000 0.6410 0.6174 0.5977 0.5918 0.5884
1267.000000 0.5856 0.5827 0.5870 0.5910 0.5997
1272.000000 0.6150 0.6360 0.6522 0.6617 0.6681
1277.000000 0.6730 0.6762 0.6801 0.6818 0.6826
1282.000000 0.6848 0.6806 0.6788 0.6768 0.6718
1287.000000 0.6654 0.6536 0.6415 0.6372 0.6367
1292.000000 0.6365 0.6377 0.6390 0.6412 0.6446
1297.000000 0.6480 0.6518 0.6538 0.6507 0.6494
1302.000000 0.6468 0.6443 0.6415 0.6384 0.6351
1307.000000 0.6312 0.6272 0.6232 0.6185 0.6120
1312.000000 0.6018 0.5926 0.5826 0.5708 0.5582
1317.000000 0.5421 0.5296 0.5116 0.4855 0.4565
1322.000000 0.4414 0.3759 0.3486 0.3355 0.3340
1327.000000 0.3349 0.3418 0.3538 0.3656 0.3775
1332.000000 0.3893 0.3941 0.4025 0.4098 0.4166
1337.000000 0.4237 0.4319 0.4381 0.4406 0.4415
1342.000000 0.4410 0.4380 0.4305 0.4160 0.4068
1347.000000 0.4006 0.3977 0.3987 0.4014 0.4115
1352.000000 0.4436 0.4783 0.4908 0.5005 0.5092
1357.000000 0.5176 0.5215 0.5232 0.5229 0.5218
1362.000000 0.5201 0.5169 0.5109 0.5041 0.4990
1367.000000 0.4985 0.4986 0.4992 0.4960 0.5053
1372.000000 0.5104 0.5169 0.5264 0.5371 0.6069
1377.000000 0.6314 0.6560 0.6892 0.6969 0.7033
1382.000000 0.7078 0.7106 0.7115 0.7122 0.7128
1387.000000 0.7131 0.7119 0.7111 0.7097 0.7082
1392.000000 0.7064 0.7043 0.7015 0.6982 0.6946
1397.000000 0.6905 0.6861 0.6791 0.6728 0.6672
1402.000000 0.6618 0.6560 0.6496 0.6432 0.6365
1407.000000 0.6285 0.6199 0.6087 0.5989 0.5910
1412.000000 0.5830 0.5750 0.5671 0.5594 0.5531
1417.000000 0.5468 0.5414 0.5364 0.5333 0.5310
1422.000000 0.5309 0.5304 0.5314 0.5319 0.5329
1427.000000 0.5349 0.5373 0.5407 0.5450 0.5491
1432.000000 0.5512 0.5521 0.5524 0.5526 0.5543
1437.000000 0.5512 0.5499 0.5456 0.5424 0.5358
1442.000000 0.5292 0.5212 0.5092 0.5005 0.4921
1447.000000 0.4842 0.4718 0.4589 0.4488 0.4381
1452.000000 0.4262 0.4137 0.4006 0.3803 0.3670
1457.000000 0.3441 0.3266 0.3226 0.3230 0.3238
1462.000000 0.3258 0.3280 0.3296 0.3308 0.3309
1467.000000 0.3309 0.3316 0.3327 0.3358 0.3412
1472.000000 0.3559 0.3743 0.4026 0.4235 0.4545
1477.000000 0.4769 0.4959 0.5151 0.5342 0.5533
1482.000000 0.5632 0.5771 0.5904 0.6156 0.6334
1487.000000 0.6475 0.6534 0.6592 0.6650 0.6717
1492.000000 0.6784 0.6851 0.6936 0.7019 0.7103
1497.000000 0.7187 0.7240 0.7290 0.7340 0.7398
1502.000000 0.7456 0.7512 0.7561 0.7608 0.7658
1507.000000 0.7694 0.7721 0.7748 0.7775 0.7803
1512.000000 0.7828 0.7855 0.7881 0.7907 0.7933
1517.000000 0.7956 0.7974 0.7993 0.8011 0.8031
1522.000000 0.8049 0.8067 0.8084 0.8101 0.8119
1527.000000 0.8137 0.8155 0.8171 0.8189 0.8206
1532.000000 0.8223 0.8240 0.8256 0.8268 0.8280
1537.000000 0.8292 0.8303 0.8315 0.8327 0.8339
1542.000000 0.8350 0.8362 0.8373 0.8383 0.8394
1547.000000 0.8405 0.8416 0.8427 0.8438 0.8449
1552.000000 0.8456 0.8462 0.8468 0.8475 0.8482
1557.000000 0.8488 0.8495 0.8501 0.8507 0.8513
1562.000000 0.8516 0.8520 0.8523 0.8525 0.8530
1567.000000 0.8534 0.8539 0.8544 0.8549 0.8554
1572.000000 0.8559 0.8564 0.8568 0.8574 0.8578
1577.000000 0.8585 0.8589 0.8588 0.8586 0.8585
1582.000000 0.8584 0.8583 0.8582 0.8581 0.8580
1587.000000 0.8578 0.8578 0.8577 0.8575 0.8575
1592.000000 0.8574 0.8571 0.8567 0.8563 0.8560
1597.000000 0.8556 0.8552 0.8549 0.8549 0.8549
1602.000000 0.8549 0.8549 0.8550 0.8550 0.8550
1607.000000 0.8548 0.8545 0.8543 0.8541 0.8539
1612.000000 0.8539 0.8539 0.8541 0.8544 0.8547
1617.000000 0.8550 0.8553 0.8556 0.8559 0.8563
1622.000000 0.8568 0.8575 0.8581 0.8587 0.8593
1627.000000 0.8601 0.8608 0.8616 0.8623 0.8628
1632.000000 0.8635 0.8641 0.8647 0.8655 0.8663
1637.000000 0.8670 0.8675 0.8682 0.8688 0.8694
1642.000000 0.8700 0.8706 0.8712 0.8717 0.8720
1647.000000 0.8723 0.8725 0.8728 0.8732 0.8734
1652.000000 0.8736 0.8731 0.8723 0.8714 0.8695
1657.000000 0.8675 0.8660 0.8651 0.8646 0.8648
1662.000000 0.8650 0.8656 0.8661 0.8667 0.8673
1667.000000 0.8675 0.8678 0.8682 0.8685 0.8689
1672.000000 0.8693 0.8697 0.8699 0.8702 0.8704
1677.000000 0.8707 0.8710 0.8712 0.8715 0.8717
1682.000000 0.8718 0.8721 0.8723 0.8725 0.8727
1687.000000 0.8728 0.8731 0.8733 0.8734 0.8735
1692.000000 0.8737 0.8738 0.8739 0.8740 0.8745
1697.000000 0.8758 0.8767 0.8766 0.8765 0.8764
1702.000000 0.8760 0.8754 0.8748 0.8745 0.8743
1707.000000 0.8741 0.8740 0.8740 0.8740 0.8740
1712.000000 0.8740 0.8743 0.8750 0.8764 0.8781
1717.000000 0.8788 0.8788 0.8775 0.8762 0.8748
1722.000000 0.8739 0.8741 0.8743 0.8744 0.8745
1727.000000 0.8746 0.8749 0.8758 0.8766 0.8805
1732.000000 0.8848 0.8866 0.8852 0.8836 0.8820
1737.000000 0.8805 0.8790 0.8780 0.8775 0.8775
1742.000000 0.8777 0.8778 0.8781 0.8783 0.8784
1747.000000 0.8784 0.8784 0.8785 0.8785 0.8785
1752.000000 0.8785 0.8785 0.8785 0.8785 0.8784
1757.000000 0.8783 0.8782 0.8780 0.8778 0.8778
1762.000000 0.8777 0.8775 0.8773 0.8770 0.8767
1767.000000 0.8765 0.8762 0.8759 0.8756 0.8753
1772.000000 0.8750 0.8747 0.8744 0.8741 0.8738
1777.000000 0.8735 0.8732 0.8728 0.8725 0.8721
1782.000000 0.8718 0.8715 0.8712 0.8709 0.8705
1787.000000 0.8700 0.8696 0.8691 0.8687 0.8683
1792.000000 0.8680 0.8680 0.8682 0.8684 0.8698
1797.000000 0.8688 0.8690 0.8691 0.8693 0.8694
1802.000000 0.8695 0.8696 0.8697 0.8698 0.8699
1807.000000 0.8700 0.8702 0.8704 0.8706 0.8707
1812.000000 0.8709 0.8710 0.8712 0.8713 0.8715
1817.000000 0.8716 0.8717 0.8718 0.8720 0.8721
1822.000000 0.8721 0.8721 0.8721 0.8724 0.8725
1827.000000 0.8728 0.8730 0.8732 0.8734 0.8735
1832.000000 0.8735 0.8736 0.8737 0.8738 0.8739
1837.000000 0.8739 0.8739 0.8739 0.8739 0.8737
1842.000000 0.8736 0.8734 0.8732 0.8730 0.8728
1847.000000 0.8727 0.8725 0.8723 0.8723 0.8723
1852.000000 0.8721 0.8721 0.8721 0.8721 0.8721
1857.000000 0.8721 0.8721 0.8720 0.8718 0.8718
1862.000000 0.8717 0.8716 0.8715 0.8714 0.8713
1867.000000 0.8712 0.8711 0.8710 0.8709 0.8708
1872.000000 0.8708 0.8707 0.8707 0.8707 0.8706
1877.000000 0.8706 0.8705 0.8705 0.8705 0.8704
1882.000000 0.8704 0.8703 0.8702 0.8701 0.8700
1887.000000 0.8699 0.8698 0.8697 0.8696 0.8695
1892.000000 0.8694 0.8693 0.8692 0.8690 0.8688
1897.000000 0.8687 0.8685 0.8683 0.8682 0.8680
1902.000000 0.8678 0.8675 0.8675 0.8673 0.8671
1907.000000 0.8668 0.8666 0.8663 0.8660 0.8657
1912.000000 0.8654 0.8651 0.8649 0.8645 0.8640
1917.000000 0.8636 0.8631 0.8627 0.8621 0.8617
1922.000000 0.8617 0.8617 0.8618 0.8618 0.8621
1927.000000 0.8624 0.8627 0.8630 0.8632 0.8635
1932.000000 0.8637 0.8639 0.8641 0.8643 0.8645
1937.000000 0.8646 0.8648 0.8650 0.8653 0.8655
1942.000000 0.8657 0.8659 0.8661 0.8663 0.8664
1947.000000 0.8664 0.8664 0.8664 0.8663 0.8663
1952.000000 0.8663 0.8663 0.8662 0.8661 0.8660
1957.000000 0.8658 0.8656 0.8654 0.8652 0.8650
1962.000000 0.8648 0.8647 0.8645 0.8643 0.8641
1967.000000 0.8639 0.8637 0.8636 0.8634 0.8632
1972.000000 0.8630 0.8628 0.8625 0.8625 0.8624
1977.000000 0.8623 0.8621 0.8620 0.8618 0.8618
1982.000000 0.8617 0.8616 0.8614 0.8613 0.8612
1987.000000 0.8610 0.8608 0.8607 0.8605 0.8603
1992.000000 0.8602 0.8600 0.8598 0.8596 0.8594
1997.000000 0.8592 0.8590 0.8588 0.8586 0.8584
2002.000000 0.8582 0.8581 0.8580 0.8578 0.8578
2007.000000 0.8577 0.8575 0.8575 0.8574 0.8573
2012.000000 0.8571 0.8570 0.8568 0.8568 0.8567
2017.000000 0.8565 0.8564 0.8563 0.8562 0.8560
2022.000000 0.8559 0.8556 0.8554 0.8551 0.8549
2027.000000 0.8546 0.8543 0.8540 0.8538 0.8535
2032.000000 0.8532 0.8528 0.8527 0.8524 0.8521
2037.000000 0.8518 0.8516 0.8513 0.8511 0.8509
2042.000000 0.8508 0.8506 0.8505 0.8503 0.8502
2047.000000 0.8500 0.8498 0.8496 0.8495 0.8493
2052.000000 0.8492 0.8490 0.8489 0.8487 0.8485
2057.000000 0.8483 0.8482 0.8480 0.8478 0.8477
2062.000000 0.8475 0.8473 0.8471 0.8470 0.8468
2067.000000 0.8467 0.8465 0.8463 0.8461 0.8459
2072.000000 0.8457 0.8455 0.8453 0.8451 0.8450
2077.000000 0.8447 0.8445 0.8443 0.8441 0.8439
2082.000000 0.8437 0.8434 0.8432 0.8430 0.8428
2087.000000 0.8425 0.8424 0.8421 0.8420 0.8417
2092.000000 0.8415 0.8411 0.8407 0.8402 0.8397
2097.000000 0.8392 0.8388 0.8384 0.8380 0.8375
2102.000000 0.8371 0.8368 0.8364 0.8365 0.8367
2107.000000 0.8368 0.8370 0.8371 0.8374 0.8375
2112.000000 0.8377 0.8378 0.8381 0.8382 0.8384
2117.000000 0.8384 0.8384 0.8384 0.8384 0.8383
2122.000000 0.8383 0.8382 0.8381 0.8380 0.8378
2127.000000 0.8378 0.8377 0.8375 0.8375 0.8374
2132.000000 0.8373 0.8371 0.8368 0.8367 0.8366
2137.000000 0.8364 0.8362 0.8360 0.8359 0.8356
2142.000000 0.8354 0.8351 0.8349 0.8346 0.8344
2147.000000 0.8341 0.8339 0.8336 0.8333 0.8330
2152.000000 0.8328 0.8325 0.8323 0.8320 0.8318
2157.000000 0.8314 0.8311 0.8308 0.8305 0.8301
2162.000000 0.8298 0.8295 0.8292 0.8288 0.8285
2167.000000 0.8282 0.8278 0.8275 0.8271 0.8268
2172.000000 0.8266 0.8263 0.8260 0.8257 0.8254
2177.000000 0.8251 0.8248 0.8245 0.8242 0.8239
2182.000000 0.8236 0.8233 0.8230 0.8227 0.8224
2187.000000 0.8221 0.8220 0.8218 0.8218 0.8217
2192.000000 0.8216 0.8215 0.8214 0.8212 0.8211
2197.000000 0.8211 0.8212 0.8212 0.8212 0.8212
2202.000000 0.8213 0.8213 0.8214 0.8214 0.8215
2207.000000 0.8215 0.8216 0.8216 0.8217 0.8217
2212.000000 0.8218 0.8218 0.8218 0.8218 0.8220
2217.000000 0.8220 0.8221 0.8221 0.8221 0.8221
2222.000000 0.8223 0.8223 0.8223 0.8223 0.8221
2227.000000 0.8220 0.8218 0.8217 0.8216 0.8213
2232.000000 0.8210 0.8206 0.8202 0.8198 0.8194
2237.000000 0.8190 0.8186 0.8182 0.8178 0.8174
2242.000000 0.8169 0.8165 0.8161 0.8158 0.8155
2247.000000 0.8151 0.8147 0.8143 0.8140 0.8136
2252.000000 0.8132 0.8128 0.8125 0.8121 0.8117
2257.000000 0.8112 0.8110 0.8107 0.8104 0.8101
2262.000000 0.8098 0.8095 0.8092 0.8088 0.8085
2267.000000 0.8082 0.8078 0.8075 0.8072 0.8068
2272.000000 0.8065 0.8062 0.8060 0.8056 0.8053
2277.000000 0.8050 0.8047 0.8043 0.8040 0.8036
2282.000000 0.8033 0.8030 0.8026 0.8022 0.8019
2287.000000 0.8015 0.8012 0.8008 0.8006 0.8003
2292.000000 0.8000 0.7996 0.7993 0.7989 0.7986
2297.000000 0.7982 0.7978 0.7975 0.7974 0.7971
2302.000000 0.7968 0.7965 0.7964 0.7961 0.7958
2307.000000 0.7956 0.7954 0.7951 0.7949 0.7946
2312.000000 0.7944 0.7941 0.7939 0.7937 0.7935
2317.000000 0.7932 0.7930 0.7928 0.7925 0.7925
2322.000000 0.7924 0.7922 0.7921 0.7919 0.7918
2327.000000 0.7918 0.7917 0.7915 0.7915 0.7912
2332.000000 0.7911 0.7911 0.7910 0.7908 0.7908
2337.000000 0.7906 0.7905 0.7903 0.7901 0.7900
2342.000000 0.7899 0.7897 0.7896 0.7894 0.7893
2347.000000 0.7892 0.7891 0.7889 0.7888 0.7886
2352.000000 0.7885 0.7883 0.7882 0.7880 0.7878
2357.000000 0.7876 0.7875 0.7874 0.7872 0.7871
2362.000000 0.7869 0.7868 0.7867 0.7865 0.7864
2367.000000 0.7861 0.7861 0.7858 0.7857 0.7855
2372.000000 0.7854 0.7851 0.7850 0.7848 0.7846
2377.000000 0.7843 0.7840 0.7836 0.7833 0.7828
2382.000000 0.7825 0.7821 0.7818 0.7814 0.7810
2387.000000 0.7806 0.7803 0.7799 0.7795 0.7791
2392.000000 0.7788 0.7784 0.7780 0.7775 0.7772
2397.000000 0.7768 0.7765 0.7761 0.7758 0.7754
2402.000000 0.7750 0.7746 0.7742 0.7738 0.7734
2407.000000 0.7728 0.7725 0.7721 0.7717 0.7711
2412.000000 0.7708 0.7704 0.7700 0.7695 0.7691
2417.000000 0.7687 0.7683 0.7678 0.7675 0.7669
2422.000000 0.7665 0.7661 0.7658 0.7653 0.7649
2427.000000 0.7645 0.7641 0.7637 0.7633 0.7628
2432.000000 0.7624 0.7618 0.7615 0.7610 0.7606
2437.000000 0.7601 0.7597 0.7593 0.7589 0.7584
2442.000000 0.7580 0.7575 0.7571 0.7565 0.7561
2447.000000 0.7557 0.7553 0.7549 0.7545 0.7540
2452.000000 0.7536 0.7531 0.7526 0.7521 0.7518
2457.000000 0.7512 0.7508 0.7504 0.7499 0.7494
2462.000000 0.7490 0.7485 0.7481 0.7475 0.7471
2467.000000 0.7465 0.7458 0.7450 0.7443 0.7435
2472.000000 0.7428 0.7421 0.7414 0.7406 0.7399
2477.000000 0.7391 0.7384 0.7375 0.7368 0.7361
2482.000000 0.7354 0.7346 0.7338 0.7328 0.7321
2487.000000 0.7311 0.7303 0.7294 0.7286 0.7281
2492.000000 0.7275 0.7271 0.7268 0.7265 0.7262
2497.000000 0.7260 0.7257 0.7253 0.7250 0.7247
2502.000000 0.7244 0.7241 0.7239 0.7237 0.7235
2507.000000 0.7232 0.7230 0.7226 0.7225 0.7222
2512.000000 0.7221 0.7219 0.7218 0.7217 0.7215
2517.000000 0.7214 0.7212 0.7211 0.7210 0.7207
2522.000000 0.7205 0.7201 0.7200 0.7197 0.7194
2527.000000 0.7191 0.7188 0.7184 0.7181 0.7174
2532.000000 0.7168 0.7161 0.7156 0.7149 0.7143
2537.000000 0.7136 0.7130 0.7121 0.7115 0.7106
2542.000000 0.7098 0.7089 0.7081 0.7071 0.7062
2547.000000 0.7054 0.7046 0.7036 0.7025 0.7015
2552.000000 0.7004 0.6993 0.6982 0.6969 0.6958
2557.000000 0.6957 0.6955 0.6955 0.6955 0.6955
2562.000000 0.6955 0.6954 0.6954 0.6954 0.6954
2567.000000 0.6953 0.6953 0.6951 0.6951 0.6950
2572.000000 0.6949 0.6947 0.6945 0.6943 0.6941
2577.000000 0.6939 0.6937 0.6934 0.6931 0.6925
2582.000000 0.6921 0.6915 0.6911 0.6907 0.6904
2587.000000 0.6901 0.6900 0.6898 0.6897 0.6895
2592.000000 0.6893 0.6891 0.6889 0.6888 0.6888
2597.000000 0.6888 0.6888 0.6888 0.6887 0.6886
2602.000000 0.6883 0.6880 0.6878 0.6875 0.6872
2607.000000 0.6869 0.6867 0.6864 0.6861 0.6858
2612.000000 0.6857 0.6854 0.6851 0.6848 0.6846
2617.000000 0.6835 0.6824 0.6814 0.6804 0.6794
2622.000000 0.6785 0.6775 0.6765 0.6751 0.6737
2627.000000 0.6721 0.6707 0.6692 0.6676 0.6661
2632.000000 0.6648 0.6633 0.6618 0.6605 0.6591
2637.000000 0.6576 0.6562 0.6548 0.6534 0.6518
2642.000000 0.6505 0.6488 0.6471 0.6454 0.6437
2647.000000 0.6419 0.6403 0.6386 0.6369 0.6352
2652.000000 0.6335 0.6315 0.6296 0.6276 0.6257
2657.000000 0.6237 0.6218 0.6198 0.6179 0.6159
2662.000000 0.6140 0.6120 0.6101 0.6081 0.6060
2667.000000 0.6041 0.6022 0.6002 0.5983 0.5966
2672.000000 0.5950 0.5934 0.5918 0.5915 0.5912
2677.000000 0.5910 0.5909 0.5907 0.5906 0.5907
2682.000000 0.5908 0.5910 0.5912 0.5915 0.5918
2687.000000 0.5925 0.5932 0.5939 0.5947 0.5954
2692.000000 0.5960 0.5968 0.5975 0.5982 0.5990
2697.000000 0.5997 0.6004 0.6010 0.6018 0.6024
2702.000000 0.6030 0.6035 0.6039 0.6041 0.6041
2707.000000 0.6035 0.6029 0.6020 0.6012 0.6002
2712.000000 0.5993 0.5983 0.5973 0.5962 0.5952
2717.000000 0.5940 0.5928 0.5914 0.5901 0.5888
2722.000000 0.5875 0.5862 0.5850 0.5837 0.5825
2727.000000 0.5812 0.5800 0.5788 0.5776 0.5762
2732.000000 0.5748 0.5729 0.5710 0.5698 0.5687
2737.000000 0.5676 0.5665 0.5654 0.5643 0.5632
2742.000000 0.5622 0.5610 0.5600 0.5593 0.5586
2747.000000 0.5579 0.5573 0.5566 0.5559 0.5552
2752.000000 0.5546 0.5540 0.5534 0.5531 0.5528
2757.000000 0.5525 0.5523 0.5521 0.5502 0.5518
2762.000000 0.5517 0.5516 0.5515 0.5514 0.5512
2767.000000 0.5512 0.5512 0.5512 0.5512 0.5515
2772.000000 0.5517 0.5519 0.5521 0.5523 0.5525
2777.000000 0.5528 0.5532 0.5536 0.5540 0.5544
2782.000000 0.5548 0.5549 0.5550 0.5550 0.5551
2787.000000 0.5551 0.5560 0.5548 0.5544 0.5538
2792.000000 0.5533 0.5527 0.5521 0.5515 0.5510
2797.000000 0.5497 0.5484 0.5471 0.5459 0.5443
2802.000000 0.5428 0.5405 0.5383 0.5362 0.5344
2807.000000 0.5324 0.5305 0.5285 0.5266 0.5240
2812.000000 0.5215 0.5187 0.5160 0.5135 0.5110
2817.000000 0.5090 0.5070 0.5049 0.5029 0.5008
2822.000000 0.4988 0.4964 0.4940 0.4915 0.4891
2827.000000 0.4866 0.4841 0.4816 0.4792 0.4769
2832.000000 0.4747 0.4725 0.4703 0.4681 0.4660
2837.000000 0.4650 0.4641 0.4632 0.4623 0.4614
2842.000000 0.4605 0.4597 0.4589 0.4586 0.4583
2847.000000 0.4579 0.4576 0.4572 0.4547 0.4567
2852.000000 0.4566 0.4566 0.4567 0.4567 0.4567
2857.000000 0.4567 0.4567 0.4565 0.4564 0.4562
2862.000000 0.4560 0.4544 0.4528 0.4512 0.4542
2867.000000 0.4478 0.4460 0.4439 0.4419 0.4386
2872.000000 0.4354 0.4316 0.4279 0.4239 0.4200
2877.000000 0.4136 0.4072 0.4021 0.3971 0.3934
2882.000000 0.3899 0.3882 0.3868 0.3857 0.3846
2887.000000 0.3842 0.3838 0.3834 0.3830 0.3828
2892.000000 0.3826 0.3824 0.3822 0.3818 0.3816
2897.000000 0.3800 0.3784 0.3739 0.3693 0.3678
2902.000000 0.3664 0.3653 0.3643 0.3637 0.3632
2907.000000 0.3622 0.3612 0.3580 0.3547 0.3476
2912.000000 0.3405 0.3284 0.3163 0.3065 0.2967
2917.000000 0.2869 0.2772 0.2674 0.2577 0.2479
2922.000000 0.2382 0.2344 0.2306 0.2305 0.2289
2927.000000 0.2356 0.2408 0.2599 0.2791 0.2982
2932.000000 0.3173 0.3364 0.3556 0.3658 0.3759
2937.000000 0.3604 0.3847 0.3293 0.3137 0.2981
2942.000000 0.2826 0.2670 0.2514 0.2358 0.2202
2947.000000 0.2119 0.2036 0.2077 0.2022 0.2379
2952.000000 0.2641 0.2902 0.3164 0.3426 0.3688
2957.000000 0.3949 0.4210 0.4219 0.4200 0.4149
2962.000000 0.4070 0.3984 0.3899 0.3812 0.3727
2967.000000 0.3706 0.3686 0.4132 0.3680 0.5048
2972.000000 0.5518 0.5531 0.5545 0.5542 0.5541
2977.000000 0.5538 0.5538 0.5536 0.5534 0.5529
2982.000000 0.5524 0.5519 0.5515 0.5507 0.5500
2987.000000 0.5488 0.5477 0.5460 0.5445 0.5432
2992.000000 0.5419 0.5406 0.5394 0.5381 0.5368
2997.000000 0.5351 0.5335 0.5319 0.5303 0.5284
3002.000000 0.5265 0.5246 0.5227 0.5207 0.5188
3007.000000 0.5169 0.5150 0.5130 0.5110 0.5090
3012.000000 0.5069 0.5047 0.5025 0.5003 0.4981
3017.000000 0.4959 0.4937 0.4915 0.4894 0.4872
3022.000000 0.4851 0.4829 0.4808 0.4789 0.4770
3027.000000 0.4752 0.4735 0.4717 0.4700 0.4682
3032.000000 0.4665 0.4647 0.4629 0.4610 0.4593
3037.000000 0.4574 0.4556 0.4537 0.4518 0.4499
3042.000000 0.4481 0.4462 0.4443 0.4424 0.4406
3047.000000 0.4385 0.4364 0.4341 0.4319 0.4297
3052.000000 0.4275 0.4253 0.4231 0.4208 0.4186
3057.000000 0.4164 0.4142 0.4120 0.4098 0.4076
3062.000000 0.4055 0.4032 0.4010 0.3989 0.3968
3067.000000 0.3946 0.3925 0.3903 0.3880 0.3859
3072.000000 0.3838 0.3809 0.3782 0.3755 0.3727
3077.000000 0.3698 0.3670 0.3642 0.3614 0.3582
3082.000000 0.3550 0.3518 0.3488 0.3456 0.3424
3087.000000 0.3392 0.3360 0.3332 0.3305 0.3276
3092.000000 0.3248 0.3220 0.3192 0.3162 0.3132
3097.000000 0.3099 0.3066 0.3033 0.3000 0.2967
3102.000000 0.2934 0.2903 0.2871 0.2845 0.2819
3107.000000 0.2793 0.2767 0.2741 0.2715 0.2689
3112.000000 0.2663 0.2637 0.2611 0.2584 0.2559
3117.000000 0.2534 0.2511 0.2488 0.2465 0.2441
3122.000000 0.2418 0.2395 0.2372 0.2349 0.2326
3127.000000 0.2302 0.2279 0.2256 0.2233 0.2209
3132.000000 0.2185 0.2162 0.2139 0.2115 0.2092
3137.000000 0.2068 0.2044 0.2021 0.1998 0.1974
3142.000000 0.1950 0.1926 0.1903 0.1879 0.1856
3147.000000 0.1831 0.1807 0.1782 0.1758 0.1733
3152.000000 0.1708 0.1683 0.1659 0.1634 0.1610
3157.000000 0.1587 0.1564 0.1544 0.1524 0.1504
3162.000000 0.1485 0.1465 0.1445 0.1425 0.1405
3167.000000 0.1385 0.1365 0.1345 0.1325 0.1308
3172.000000 0.1291 0.1273 0.1256 0.1239 0.1222
3177.000000 0.1204 0.1187 0.1169 0.1152 0.1135
3182.000000 0.1118 0.1096 0.1075 0.1049 0.1024
3187.000000 0.0997 0.0972 0.0947 0.0922 0.0900
3192.000000 0.0876 0.0861 0.0845 0.0828 0.0812
3197.000000 0.0796 0.0780 0.0763 0.0747 0.0731
3202.000000 0.0716 0.0703 0.0691 0.0678 0.0665
3207.000000 0.0652 0.0640 0.0627 0.0615 0.0602
3212.000000 0.0590 0.0577 0.0565 0.0555 0.0545
3217.000000 0.0534 0.0524 0.0514 0.0504 0.0493
3222.000000 0.0483 0.0473 0.0463 0.0452 0.0442
3227.000000 0.0432 0.0423 0.0414 0.0405 0.0396
3232.000000 0.0388 0.0379 0.0370 0.0363 0.0357
3237.000000 0.0352 0.0347 0.0341 0.0336 0.0330
3242.000000 0.0325 0.0322 0.0320 0.0316 0.0315
3247.000000 0.0312 0.0310 0.0307 0.0305 0.0302
3252.000000 0.0300 0.0297 0.0295 0.0292 0.0290
3257.000000 0.0287 0.0285 0.0282 0.0280 0.0279
3262.000000 0.0278 0.0276 0.0275 0.0273 0.0272
3267.000000 0.0271 0.0271 0.0268 0.0267 0.0266
3272.000000 0.0266 0.0265 0.0265 0.0264 0.0263
3277.000000 0.0262 0.0261 0.0260 0.0259 0.0258
3282.000000 0.0258 0.0254 0.0251 0.0248 0.0245
3287.000000 0.0241 0.0237 0.0233 0.0231 0.0226
3292.000000 0.0222 0.0215 0.0210 0.0206 0.0201
3297.000000 0.0195 0.0190 0.0184 0.0180 0.0173
3302.000000 0.0167 0.0160 0.0153 0.0146 0.0140
3307.000000 0.0133 0.0126 0.0119 0.0113 0.0108
3312.000000 0.0103 0.0098 0.0094 0.0089 0.0085
3317.000000 0.0080 0.0076 0.0071 0.0066 0.0065
3322.000000 0.0064 0.0063 0.0062 0.0061 0.0061
3327.000000 0.0060 0.0059 0.0058 0.0057 0.0056
3332.000000 0.0056 0.0055 0.0055 0.0054 0.0054
3337.000000 0.0054 0.0052 0.0052 0.0052 0.0054
3342.000000 0.0055 0.0058 0.0061 0.0064 0.0068
3347.000000 0.0071 0.0074 0.0077 0.0081 0.0085
3352.000000 0.0089 0.0092 0.0096 0.0100 0.0104
3357.000000 0.0108 0.0113 0.0123 0.0133 0.0148
3362.000000 0.0164 0.0180 0.0196 0.0220 0.0244
3367.000000 0.0267 0.0292 0.0315 0.0339 0.0356
3372.000000 0.0373 0.0390 0.0407 0.0423 0.0441
3377.000000 0.0458 0.0475 0.0493 0.0510 0.0527
3382.000000 0.0544 0.0561 0.0578 0.0595 0.0612
3387.000000 0.0629 0.0647 0.0670 0.0694 0.0719
3392.000000 0.0744 0.0769 0.0794 0.0819 0.0845
3397.000000 0.0881 0.0918 0.0972 0.1029 0.1104
3402.000000 0.1179 0.1250 0.1322 0.1382 0.1442
3407.000000 0.1504 0.1565 0.1628 0.1691 0.1754
3412.000000 0.1817 0.1871 0.1925 0.1983 0.2041
3417.000000 0.2123 0.2206 0.2280 0.2354 0.2410
3422.000000 0.2467 0.2523 0.2579 0.2638 0.2697
3427.000000 0.2759 0.2822 0.2884 0.2947 0.2999
3432.000000 0.3051 0.3098 0.3145 0.3192 0.3239
3437.000000 0.3290 0.3342 0.3409 0.3476 0.3542
3442.000000 0.3609 0.3680 0.3752 0.3829 0.3906
3447.000000 0.3966 0.4026 0.4082 0.4140 0.4197
3452.000000 0.4254 0.4310 0.4368 0.4424 0.4481
3457.000000 0.4538 0.4595 0.4647 0.4699 0.4726
3462.000000 0.4754 0.4783 0.4812 0.4851 0.4890
3467.000000 0.4930 0.4970 0.5015 0.5060 0.5105
3472.000000 0.5151 0.5207 0.5264 0.5327 0.5391
3477.000000 0.5466 0.5542 0.5629 0.5716 0.5817
3482.000000 0.5919 0.5975 0.6031 0.6087 0.6144
3487.000000 0.6195 0.6247 0.6295 0.6343 0.6391
3492.000000 0.6439 0.6488 0.6537 0.6587 0.6637
3497.000000 0.6687 0.6737 0.6787 0.6837 0.6880
3502.000000 0.6924 0.6965 0.7008 0.7050 0.7092
3507.000000 0.7131 0.7171 0.7206 0.7242 0.7278
3512.000000 0.7314 0.7349 0.7385 0.7418 0.7451
3517.000000 0.7476 0.7503 0.7528 0.7554 0.7578
3522.000000 0.7605 0.7630 0.7656 0.7681 0.7707
3527.000000 0.7734 0.7761 0.7791 0.7819 0.7849
3532.000000 0.7878 0.7907 0.7936 0.7964 0.7993
3537.000000 0.8015 0.8040 0.8064 0.8088 0.8111
3542.000000 0.8135 0.8158 0.8183 0.8199 0.8215
3547.000000 0.8230 0.8245 0.8260 0.8275 0.8291
3552.000000 0.8307 0.8321 0.8335 0.8346 0.8357
3557.000000 0.8368 0.8378 0.8390 0.8402 0.8413
3562.000000 0.8424 0.8434 0.8445 0.8455 0.8465
3567.000000 0.8475 0.8485 0.8495 0.8505 0.8515
3572.000000 0.8525 0.8535 0.8546 0.8555 0.8565
3577.000000 0.8574 0.8583 0.8591 0.8600 0.8609
3582.000000 0.8618 0.8625 0.8635 0.8644 0.8653
3587.000000 0.8661 0.8670 0.8678 0.8687 0.8695
3592.000000 0.8704 0.8712 0.8721 0.8728 0.8738
3597.000000 0.8746 0.8755 0.8762 0.8768 0.8775
3602.000000 0.8782 0.8788 0.8794 0.8800 0.8806
3607.000000 0.8812 0.8818 0.8824 0.8830 0.8833
3612.000000 0.8836 0.8839 0.8842 0.8845 0.8848
3617.000000 0.8851 0.8854 0.8857 0.8860 0.8863
3622.000000 0.8866 0.8868 0.8871 0.8874 0.8875
3627.000000 0.8877 0.8878 0.8878 0.8881 0.8882
3632.000000 0.8884 0.8885 0.8901 0.8887 0.8889
3637.000000 0.8890 0.8892 0.8893 0.8894 0.8895
3642.000000 0.8897 0.8898 0.8899 0.8899 0.8899
3647.000000 0.8899 0.8900 0.8900 0.8901 0.8901
3652.000000 0.8902 0.8902 0.8903 0.8903 0.8903
3657.000000 0.8902 0.8902 0.8901 0.8901 0.8900
3662.000000 0.8900 0.8899 0.8899 0.8898 0.8898
3667.000000 0.8897 0.8897 0.8896 0.8896 0.8895
3672.000000 0.8895 0.8894 0.8894 0.8894 0.8894
3677.000000 0.8894 0.8894 0.8894 0.8894 0.8894
3682.000000 0.8895 0.8895 0.8895 0.8895 0.8895
3687.000000 0.8895 0.8895 0.8895 0.8895 0.8895
3692.000000 0.8895 0.8895 0.8895 0.8894 0.8894
3697.000000 0.8894 0.8894 0.8893 0.8893 0.8892
3702.000000 0.8892 0.8891 0.8891 0.8891 0.8891
3707.000000 0.8890 0.8890 0.8889 0.8889 0.8888
3712.000000 0.8888 0.8887 0.8887 0.8886 0.8886
3717.000000 0.8884 0.8883 0.8881 0.8880 0.8878
3722.000000 0.8878 0.8875 0.8875 0.8873 0.8871
3727.000000 0.8870 0.8868 0.8867 0.8866 0.8864
3732.000000 0.8863 0.8860 0.8857 0.8853 0.8849
3737.000000 0.8844 0.8839 0.8831 0.8824 0.8816
3742.000000 0.8809 0.8803 0.8797 0.8792 0.8788
3747.000000 0.8783 0.8778 0.8773 0.8768 0.8766
3752.000000 0.8764 0.8761 0.8759 0.8756 0.8754
3757.000000 0.8752 0.8750 0.8748 0.8747 0.8745
3762.000000 0.8743 0.8741 0.8740 0.8738 0.8737
3767.000000 0.8735 0.8734 0.8732 0.8731 0.8728
3772.000000 0.8727 0.8725 0.8724 0.8721 0.8721
3777.000000 0.8718 0.8718 0.8716 0.8714 0.8712
3782.000000 0.8710 0.8708 0.8706 0.8704 0.8702
3787.000000 0.8701 0.8700 0.8699 0.8698 0.8697
3792.000000 0.8696 0.8695 0.8694 0.8693 0.8692
3797.000000 0.8691 0.8690 0.8689 0.8688 0.8688
3802.000000 0.8688
##END=
