##TITLE=RHODANINE, 5,5'-ETHYLIDENEDI-
##JCAMP-DX=4.24
##DATA TYPE=INFRARED SPECTRUM
##CLASS=COBLENTZ
##ORIGIN=TENNESSEE EASTMAN COMPANY, RESEARCH LABORATORIES
##OWNER=COBLENTZ SOCIETY
Collection (C) 2018 copyright by the U.S. Secretary of Commerce
on behalf of the United States of America. All rights reserved.
##DATE=Not specified, most likely prior to 1970
##MOLFORM=C8 H8 N2 O2 S4
##MP=240 C DECOMPOSES
##SOURCE REFERENCE=COBLENTZ NO. 725
##$NIST ID=B6000725
##$NIST SOURCE=COBLENTZ
##$NIST IMAGE=cob725
##SPECTROMETER/DATA SYSTEM=Not specified, most likely a prism, grating, or hybrid spectrometer.
##STATE=SOLID (KBr PELLET)
##SAMPLING PROCEDURE=TRANSMISSION
##RESOLUTION=4
##DATA PROCESSING=DIGITIZED BY NIST FROM HARD COPY
##XUNITS=MICROMETERS
##YUNITS=TRANSMITTANCE
##XFACTOR=1.000000
##YFACTOR=1
##DELTAX=000.006842
##FIRSTX=1.993
##LASTX=15.9578
##FIRSTY=0.759
##MAXX=15.9578
##MINX=1.993
##MAXY=1.008
##MINY=0.048
##NPOINTS=2042
##XYDATA=(X++(Y..Y))
1.993000 0.7590 0.7570 0.7570 0.7590 0.7570
2.027227 0.7570 0.7570 0.7570 0.7570 0.7570
2.062000 0.7590 0.7590 0.7590 0.7610 0.7620
2.096227 0.7620 0.7640 0.7640 0.7640 0.7660
2.130000 0.7660 0.7660 0.7680 0.7690 0.7690
2.164227 0.7710 0.7710 0.7730 0.7740 0.7760
2.198000 0.7760 0.7800 0.7800 0.7800 0.7810
2.232227 0.7810 0.7830 0.7830 0.7850 0.7860
2.267000 0.7860 0.7860 0.7880 0.7880 0.7900
2.301227 0.7900 0.7900 0.7920 0.7920 0.7920
2.335000 0.7920 0.7930 0.7930 0.7930 0.7930
2.369227 0.7930 0.7950 0.7950 0.7970 0.7950
2.404000 0.7970 0.8000 0.8000 0.8000 0.8020
2.438227 0.8020 0.8020 0.8040 0.8050 0.8050
2.472000 0.8050 0.8050 0.8040 0.8070 0.8070
2.506227 0.8090 0.8100 0.8100 0.8120 0.8120
2.541000 0.8120 0.8120 0.8120 0.8120 0.8120
2.575227 0.8120 0.8120 0.8120 0.8100 0.8120
2.609000 0.8120 0.8100 0.8100 0.8120 0.8120
2.643227 0.8120 0.8120 0.8120 0.8120 0.8120
2.677000 0.8140 0.8140 0.8120 0.8120 0.8040
2.711227 0.7950 0.7740 0.7540 0.7160 0.6970
2.746000 0.6820 0.6680 0.6560 0.6440 0.6370
2.780227 0.6300 0.6200 0.6080 0.6040 0.5970
2.814000 0.5910 0.5820 0.5750 0.5650 0.5600
2.848227 0.5490 0.5420 0.5370 0.5320 0.5240
2.883000 0.5150 0.5100 0.5010 0.5010 0.5010
2.917227 0.5030 0.5060 0.5150 0.5300 0.5480
2.951000 0.5630 0.5730 0.5820 0.5890 0.5960
2.985227 0.5970 0.6010 0.6030 0.6090 0.6110
3.019000 0.6090 0.6030 0.5940 0.5800 0.5700
3.053227 0.5610 0.5460 0.5370 0.5240 0.5100
3.088000 0.5050 0.4720 0.4580 0.4480 0.4430
3.122227 0.4320 0.4240 0.4150 0.4100 0.4100
3.156000 0.4100 0.4100 0.4120 0.4140 0.4170
3.190227 0.4170 0.4260 0.4290 0.4310 0.4270
3.225000 0.4200 0.4150 0.4150 0.4150 0.4150
3.259227 0.4150 0.4190 0.4380 0.4480 0.4740
3.293000 0.4890 0.4980 0.5050 0.5240 0.5360
3.327227 0.5600 0.5750 0.5820 0.5890 0.6060
3.362000 0.6230 0.6230 0.6350 0.6460 0.6580
3.396227 0.6640 0.6630 0.6610 0.6590 0.6580
3.430000 0.6540 0.6460 0.6370 0.6250 0.6060
3.464227 0.5890 0.5600 0.5290 0.5240 0.5240
3.498000 0.5440 0.6180 0.6730 0.7140 0.7450
3.532227 0.7560 0.7660 0.7800 0.7880 0.7970
3.567000 0.8050 0.8170 0.8230 0.8310 0.8380
3.601227 0.8400 0.8410 0.8410 0.8430 0.8470
3.635000 0.8500 0.8520 0.8530 0.8570 0.8600
3.669227 0.8640 0.8650 0.8690 0.8690 0.8710
3.704000 0.8720 0.8740 0.8740 0.8760 0.8760
3.738227 0.8780 0.8790 0.8790 0.8790 0.8810
3.772000 0.8810 0.8810 0.8810 0.8790 0.8780
3.806227 0.8780 0.8790 0.8810 0.8840 0.8900
3.841000 0.8910 0.8960 0.9030 0.9100 0.9150
3.875227 0.9190 0.9220 0.9220 0.9240 0.9260
3.909000 0.9270 0.9290 0.9290 0.9290 0.9290
3.943227 0.9310 0.9310 0.9290 0.9290 0.9290
3.977000 0.9290 0.9290 0.9290 0.9290 0.9290
4.011227 0.9290 0.9290 0.9290 0.9290 0.9310
4.046000 0.9320 0.9340 0.9340 0.9380 0.9390
4.080227 0.9410 0.9430 0.9450 0.9460 0.9480
4.114000 0.9480 0.9480 0.9500 0.9500 0.9480
4.148227 0.9500 0.9500 0.9500 0.9500 0.9510
4.183000 0.9510 0.9510 0.9510 0.9500 0.9500
4.217227 0.9500 0.9480 0.9480 0.9460 0.9430
4.251000 0.9390 0.9380 0.9360 0.9360 0.9360
4.285227 0.9360 0.9360 0.9380 0.9390 0.9430
4.319000 0.9460 0.9500 0.9510 0.9550 0.9580
4.353227 0.9600 0.9630 0.9650 0.9670 0.9670
4.388000 0.9670 0.9670 0.9670 0.9670 0.9670
4.422227 0.9670 0.9670 0.9690 0.9690 0.9670
4.456000 0.9690 0.9690 0.9690 0.9700 0.9700
4.490227 0.9700 0.9700 0.9720 0.9720 0.9720
4.525000 0.9740 0.9740 0.9740 0.9740 0.9720
4.559227 0.9720 0.9720 0.9700 0.9700 0.9720
4.593000 0.9720 0.9740 0.9740 0.9740 0.9740
4.627227 0.9740 0.9740 0.9740 0.9740 0.9750
4.662000 0.9770 0.9930 1.0000 1.0060 1.0080
4.696227 1.0030 0.9860 0.9840 0.9840 0.9840
4.730000 0.9840 0.9840 0.9860 0.9860 0.9860
4.764227 0.9860 0.9860 0.9870 0.9870 0.9870
4.798000 0.9870 0.9870 0.9870 0.9870 0.9860
4.832227 0.9860 0.9860 0.9870 0.9870 0.9860
4.867000 0.9860 0.9870 0.9870 0.9870 0.9870
4.901227 0.9870 0.9870 0.9870 0.9870 0.9870
4.935000 0.9890 0.9890 0.9870 0.9870 0.9870
4.969227 0.9890 0.9890 0.9890 0.9910 0.9910
5.004000 0.9910 0.9910 0.9910 0.9910 0.9910
5.038227 0.9910 0.9890 0.9890 0.9890 0.9910
5.072000 0.9910 0.9910 0.9910 0.9910 0.9910
5.106227 0.9910 0.9910 0.9910 0.9910 0.9910
5.141000 0.9910 0.9910 0.9910 0.9910 0.9910
5.175227 0.9910 0.9910 0.9910 0.9910 0.9910
5.209000 0.9910 0.9910 0.9910 0.9910 0.9890
5.243227 0.9910 0.9890 0.9870 0.9860 0.9860
5.277000 0.9840 0.9840 0.9840 0.9840 0.9840
5.311227 0.9820 0.9810 0.9790 0.9750 0.9740
5.346000 0.9720 0.9720 0.9720 0.9700 0.9700
5.380227 0.9690 0.9670 0.9690 0.9690 0.9670
5.414000 0.9650 0.9650 0.9650 0.9650 0.9630
5.448227 0.9620 0.9580 0.9550 0.9530 0.9510
5.483000 0.9460 0.9430 0.9390 0.9340 0.9310
5.517227 0.9270 0.9220 0.9170 0.9100 0.9050
5.551000 0.8980 0.8910 0.8810 0.8760 0.8710
5.585227 0.8640 0.8550 0.8450 0.8330 0.8190
5.619000 0.8020 0.7810 0.7590 0.7060 0.6730
5.653227 0.6370 0.5990 0.5560 0.5100 0.4030
5.688000 0.3450 0.2800 0.1680 0.1340 0.1060
5.722227 0.0870 0.0730 0.0680 0.0670 0.0680
5.756000 0.0680 0.0700 0.0700 0.0720 0.0720
5.790227 0.0720 0.0730 0.0720 0.0720 0.0750
5.825000 0.0800 0.0890 0.0970 0.1080 0.1160
5.859227 0.1230 0.1300 0.1340 0.1340 0.1300
5.893000 0.1230 0.1230 0.1270 0.1760 0.2180
5.927227 0.2590 0.4240 0.4770 0.5290 0.5870
5.962000 0.6200 0.6390 0.6630 0.7070 0.7260
5.996227 0.7380 0.7450 0.7500 0.7540 0.7560
6.030000 0.7590 0.7610 0.7620 0.7590 0.7560
6.064227 0.7500 0.7490 0.7500 0.7500 0.7500
6.098000 0.7470 0.7430 0.7420 0.7420 0.7420
6.132227 0.7420 0.7430 0.7430 0.7420 0.7430
6.167000 0.7490 0.7500 0.7500 0.7560 0.7680
6.201227 0.7740 0.7800 0.7850 0.7920 0.7980
6.235000 0.8040 0.8120 0.8190 0.8260 0.8310
6.269227 0.8360 0.8410 0.8450 0.8480 0.8480
6.304000 0.8520 0.8520 0.8530 0.8530 0.8550
6.338227 0.8590 0.8620 0.8620 0.8640 0.8650
6.372000 0.8650 0.8670 0.8690 0.8690 0.8690
6.406227 0.8710 0.8760 0.8780 0.8790 0.8790
6.441000 0.8790 0.8790 0.8780 0.8780 0.8780
6.475227 0.8780 0.8790 0.8790 0.8790 0.8790
6.509000 0.8790 0.8790 0.8780 0.8760 0.8760
6.543227 0.8740 0.8740 0.8760 0.8760 0.8740
6.577000 0.8720 0.8720 0.8690 0.8640 0.8600
6.611227 0.8600 0.8590 0.8570 0.8530 0.8500
6.646000 0.8450 0.8430 0.8400 0.8350 0.8240
6.680227 0.8190 0.8160 0.8070 0.8040 0.7980
6.714000 0.7920 0.7860 0.7780 0.7660 0.7520
6.748227 0.7110 0.6970 0.6870 0.6780 0.6490
6.783000 0.6270 0.6080 0.5910 0.5700 0.5440
6.817227 0.5120 0.4030 0.3520 0.3070 0.2730
6.851000 0.2230 0.2070 0.1870 0.1580 0.1400
6.885227 0.1230 0.1060 0.0960 0.0820 0.0750
6.919000 0.0670 0.0630 0.0650 0.0700 0.0750
6.953227 0.0940 0.1150 0.1390 0.1660 0.1950
6.988000 0.2280 0.2450 0.2610 0.2950 0.3290
7.022227 0.3640 0.3950 0.4220 0.4510 0.4790
7.056000 0.4930 0.5060 0.5360 0.5670 0.5970
7.090227 0.6210 0.6390 0.6590 0.6850 0.6970
7.125000 0.7040 0.7110 0.7110 0.7130 0.7130
7.159227 0.7110 0.7110 0.7060 0.7070 0.7260
7.193000 0.7430 0.7500 0.7560 0.7690 0.7780
7.227227 0.7810 0.7860 0.7920 0.7980 0.8000
7.262000 0.8020 0.8020 0.8040 0.8040 0.8050
7.296227 0.8090 0.8100 0.8120 0.8120 0.8120
7.330000 0.8120 0.8120 0.8100 0.8100 0.8100
7.364227 0.8100 0.8090 0.8050 0.8040 0.8020
7.398000 0.8000 0.7970 0.7930 0.7900 0.7800
7.432227 0.7760 0.7690 0.7590 0.7250 0.7060
7.467000 0.6870 0.6680 0.6470 0.6250 0.6030
7.501227 0.5750 0.5460 0.5240 0.5030 0.4600
7.535000 0.4500 0.4450 0.4390 0.4360 0.4340
7.569227 0.4380 0.4460 0.4530 0.4580 0.4600
7.604000 0.4600 0.4580 0.4530 0.4480 0.4430
7.638227 0.4360 0.4310 0.4150 0.4120 0.4120
7.672000 0.4140 0.4170 0.4310 0.4450 0.4580
7.706227 0.4720 0.4870 0.4960 0.5030 0.5170
7.741000 0.5320 0.5480 0.5630 0.5790 0.5920
7.775227 0.6060 0.6200 0.6340 0.6440 0.6540
7.809000 0.6640 0.6710 0.6710 0.6700 0.6700
7.843227 0.6680 0.6640 0.6560 0.6470 0.6390
7.877000 0.6280 0.6200 0.6130 0.6080 0.6010
7.911227 0.5910 0.5800 0.5680 0.5580 0.5510
7.946000 0.5440 0.5410 0.5410 0.5390 0.5360
7.980227 0.5340 0.5320 0.5290 0.5250 0.5200
8.014000 0.5130 0.5100 0.5050 0.4890 0.4790
8.048227 0.4690 0.4530 0.4360 0.4150 0.3910
8.083000 0.3640 0.3310 0.2920 0.2590 0.1920
8.117227 0.1610 0.1320 0.1060 0.0850 0.0720
8.151000 0.0610 0.0580 0.0530 0.0490 0.0480
8.185227 0.0490 0.0510 0.0540 0.0580 0.0630
8.219000 0.0700 0.0770 0.0800 0.0840 0.0850
8.253227 0.0910 0.0970 0.1030 0.1040 0.1060
8.288000 0.1060 0.1060 0.1060 0.1060 0.1080
8.322227 0.1160 0.1250 0.1340 0.1460 0.1630
8.356000 0.1800 0.1970 0.2140 0.2260 0.2350
8.390227 0.2450 0.2490 0.2500 0.2520 0.2540
8.425000 0.2560 0.2560 0.2560 0.2560 0.2520
8.459227 0.2500 0.2430 0.2430 0.2430 0.2430
8.493000 0.2450 0.2500 0.2540 0.2570 0.2620
8.527227 0.2680 0.2740 0.2830 0.2950 0.3100
8.562000 0.3280 0.3760 0.4000 0.4220 0.4390
8.596227 0.4690 0.4840 0.5000 0.5410 0.5770
8.630000 0.6080 0.6340 0.6580 0.6760 0.6940
8.664227 0.7060 0.7180 0.7250 0.7300 0.7330
8.698000 0.7330 0.7300 0.7250 0.7190 0.7160
8.732227 0.7110 0.7020 0.7010 0.7010 0.6990
8.767000 0.7020 0.7160 0.7230 0.7300 0.7380
8.801227 0.7470 0.7520 0.7570 0.7640 0.7680
8.835000 0.7710 0.7740 0.7800 0.7810 0.7860
8.869227 0.7860 0.7880 0.7880 0.7900 0.7900
8.904000 0.7900 0.7900 0.7860 0.7850 0.7800
8.938227 0.7730 0.7610 0.7370 0.7210 0.7040
8.972000 0.6870 0.6700 0.6490 0.6300 0.6080
9.006227 0.5920 0.5800 0.5680 0.5560 0.5530
9.041000 0.5480 0.5440 0.5420 0.5440 0.5440
9.075227 0.5460 0.5460 0.5440 0.5440 0.5440
9.109000 0.5420 0.5410 0.5370 0.5300 0.5220
9.143227 0.5080 0.4810 0.4650 0.4500 0.4340
9.177000 0.4170 0.3980 0.3780 0.3620 0.3470
9.211227 0.3310 0.3160 0.3000 0.2860 0.2710
9.246000 0.2560 0.2260 0.2140 0.1990 0.1870
9.280227 0.1800 0.1680 0.1590 0.1510 0.1490
9.314000 0.1490 0.1510 0.1560 0.1700 0.1920
9.348227 0.2230 0.2420 0.2610 0.3040 0.3530
9.383000 0.4080 0.4650 0.4890 0.5120 0.5530
9.417227 0.5910 0.6230 0.6580 0.6750 0.6990
9.451000 0.7140 0.7310 0.7450 0.7500 0.7560
9.485227 0.7680 0.7730 0.7800 0.7850 0.7860
9.519000 0.7920 0.8000 0.8020 0.8040 0.8050
9.553227 0.8100 0.8170 0.8190 0.8230 0.8280
9.588000 0.8310 0.8330 0.8350 0.8350 0.8380
9.622227 0.8400 0.8410 0.8430 0.8430 0.8450
9.656000 0.8470 0.8480 0.8500 0.8520 0.8530
9.690227 0.8590 0.8620 0.8620 0.8640 0.8650
9.725000 0.8670 0.8710 0.8720 0.8740 0.8760
9.759227 0.8790 0.8810 0.8810 0.8840 0.8860
9.793000 0.8880 0.8900 0.8900 0.8910 0.8910
9.827227 0.8950 0.8950 0.8960 0.8960 0.8960
9.862000 0.8960 0.8960 0.8960 0.8960 0.8960
9.896227 0.8960 0.8960 0.8960 0.8960 0.8960
9.930000 0.8960 0.8950 0.8900 0.8840 0.8810
9.964227 0.8740 0.8690 0.8620 0.8550 0.8550
9.998000 0.8500 0.8450 0.8410 0.8400 0.8380
10.032227 0.8380 0.8380 0.8380 0.8400 0.8410
10.067000 0.8430 0.8470 0.8520 0.8530 0.8530
10.101227 0.8550 0.8570 0.8590 0.8600 0.8600
10.135000 0.8620 0.8640 0.8650 0.8690 0.8710
10.169227 0.8720 0.8760 0.8790 0.8810 0.8830
10.204000 0.8840 0.8880 0.8900 0.8900 0.8910
10.238227 0.8910 0.8930 0.8930 0.8930 0.8930
10.272000 0.8930 0.8930 0.8910 0.8910 0.8900
10.306227 0.8900 0.8900 0.8900 0.8900 0.8900
10.341000 0.8900 0.8900 0.8900 0.8900 0.8910
10.375227 0.8910 0.8910 0.8910 0.8930 0.8910
10.409000 0.8910 0.8910 0.8910 0.8930 0.8960
10.443227 0.9000 0.9000 0.9020 0.9000 0.9020
10.477000 0.9020 0.9020 0.9030 0.9030 0.9030
10.511227 0.9030 0.9050 0.9050 0.9050 0.9050
10.546000 0.9050 0.9050 0.9050 0.9050 0.9050
10.580227 0.9050 0.9030 0.9030 0.9030 0.9020
10.614000 0.9020 0.8980 0.8910 0.8860 0.8810
10.648227 0.8780 0.8720 0.8670 0.8640 0.8620
10.683000 0.8600 0.8590 0.8570 0.8550 0.8500
10.717227 0.8500 0.8470 0.8470 0.8450 0.8450
10.751000 0.8450 0.8450 0.8450 0.8480 0.8480
10.785227 0.8500 0.8500 0.8520 0.8530 0.8550
10.819000 0.8590 0.8620 0.8650 0.8670 0.8720
10.853227 0.8740 0.8780 0.8830 0.8860 0.8880
10.888000 0.8900 0.8930 0.8960 0.9000 0.9020
10.922227 0.9030 0.9050 0.9050 0.9050 0.9070
10.956000 0.9070 0.9070 0.9070 0.9070 0.9070
10.990227 0.9070 0.9070 0.9050 0.9050 0.9050
11.025000 0.9030 0.9020 0.9000 0.8960 0.8950
11.059227 0.8930 0.8910 0.8880 0.8840 0.8830
11.093000 0.8790 0.8760 0.8760 0.8760 0.8760
11.127227 0.8760 0.8760 0.8760 0.8760 0.8760
11.162000 0.8760 0.8780 0.8810 0.8830 0.8840
11.196227 0.8840 0.8880 0.8900 0.8900 0.8900
11.230000 0.8900 0.8900 0.8880 0.8860 0.8840
11.264227 0.8810 0.8760 0.8710 0.8640 0.8550
11.298000 0.8450 0.8380 0.8310 0.8240 0.8210
11.332227 0.8190 0.8190 0.8190 0.8190 0.8190
11.367000 0.8210 0.8290 0.8430 0.8500 0.8550
11.401227 0.8570 0.8600 0.8650 0.8720 0.8780
11.435000 0.8810 0.8810 0.8860 0.8910 0.8950
11.469227 0.8950 0.8960 0.8980 0.9000 0.9000
11.504000 0.9000 0.9000 0.9000 0.9000 0.9000
11.538227 0.9020 0.9020 0.9020 0.9020 0.9020
11.572000 0.9020 0.9030 0.9030 0.9030 0.9050
11.606227 0.9050 0.9050 0.9050 0.9050 0.9030
11.641000 0.9030 0.9030 0.9030 0.9070 0.9070
11.675227 0.9070 0.9070 0.9070 0.9070 0.9070
11.709000 0.9070 0.9070 0.9070 0.9070 0.9070
11.743227 0.9070 0.9070 0.9070 0.9070 0.9070
11.777000 0.9070 0.9050 0.9050 0.9050 0.9050
11.811227 0.9030 0.9030 0.9030 0.9020 0.9020
11.846000 0.9020 0.9020 0.9020 0.9030 0.9030
11.880227 0.9030 0.9030 0.9030 0.9030 0.8980
11.914000 0.8950 0.8930 0.8930 0.8930 0.8910
11.948227 0.8910 0.8910 0.8900 0.8840 0.8840
11.983000 0.8810 0.8780 0.8760 0.8780 0.8740
12.017227 0.8740 0.8720 0.8710 0.8670 0.8640
12.051000 0.8640 0.8620 0.8620 0.8590 0.8570
12.085227 0.8530 0.8520 0.8520 0.8520 0.8500
12.119000 0.8500 0.8480 0.8480 0.8480 0.8480
12.153227 0.8480 0.8480 0.8470 0.8430 0.8430
12.188000 0.8410 0.8400 0.8380 0.8360 0.8350
12.222227 0.8330 0.8310 0.8310 0.8290 0.8280
12.256000 0.8260 0.8240 0.8230 0.8210 0.8170
12.290227 0.8140 0.8140 0.8120 0.8120 0.8070
12.325000 0.8070 0.8040 0.8040 0.8020 0.8000
12.359227 0.7980 0.7950 0.7930 0.7900 0.7860
12.393000 0.7850 0.7810 0.7810 0.7810 0.7810
12.427227 0.7800 0.7760 0.7740 0.7740 0.7730
12.462000 0.7710 0.7710 0.7690 0.7660 0.7660
12.496227 0.7640 0.7620 0.7610 0.7590 0.7570
12.530000 0.7560 0.7560 0.7540 0.7520 0.7500
12.564227 0.7470 0.7450 0.7430 0.7330 0.7300
12.598000 0.7280 0.7250 0.7230 0.7210 0.7190
12.632227 0.7180 0.7140 0.7110 0.7040 0.7040
12.667000 0.7020 0.7010 0.7010 0.6950 0.6940
12.701227 0.6920 0.6900 0.6870 0.6850 0.6830
12.735000 0.6820 0.6800 0.6780 0.6760 0.6750
12.769227 0.6660 0.6630 0.6590 0.6590 0.6580
12.804000 0.6560 0.6520 0.6490 0.6490 0.6460
12.838227 0.6420 0.6400 0.6370 0.6340 0.6320
12.872000 0.6300 0.6270 0.6270 0.6270 0.6270
12.906227 0.6270 0.6270 0.6270 0.6280 0.6320
12.941000 0.6390 0.6470 0.6520 0.6580 0.6630
12.975227 0.6700 0.6760 0.6830 0.6920 0.6990
13.009000 0.7060 0.7090 0.7160 0.7190 0.7210
13.043227 0.7260 0.7310 0.7310 0.7330 0.7350
13.077000 0.7380 0.7400 0.7430 0.7450 0.7450
13.111227 0.7470 0.7490 0.7500 0.7520 0.7540
13.146000 0.7540 0.7560 0.7560 0.7570 0.7570
13.180227 0.7560 0.7570 0.7590 0.7620 0.7620
13.214000 0.7640 0.7620 0.7640 0.7640 0.7660
13.248227 0.7640 0.7640 0.7660 0.7680 0.7680
13.283000 0.7690 0.7690 0.7710 0.7710 0.7710
13.317227 0.7730 0.7730 0.7740 0.7740 0.7740
13.351000 0.7760 0.7780 0.7780 0.7800 0.7810
13.385227 0.7830 0.7830 0.7850 0.7860 0.7860
13.419000 0.7860 0.7880 0.7880 0.7880 0.7900
13.453227 0.7900 0.7920 0.7920 0.7930 0.7950
13.488000 0.7950 0.7950 0.7950 0.7970 0.7980
13.522227 0.8000 0.8000 0.8000 0.8000 0.8020
13.556000 0.8020 0.8020 0.8040 0.8040 0.8040
13.590227 0.8050 0.8050 0.8050 0.8050 0.8070
13.625000 0.8070 0.8070 0.8090 0.8090 0.8090
13.659227 0.8090 0.8100 0.8120 0.8120 0.8120
13.693000 0.8120 0.8140 0.8140 0.8160 0.8160
13.727227 0.8160 0.8170 0.8170 0.8170 0.8190
13.762000 0.8190 0.8210 0.8210 0.8190 0.8230
13.796227 0.8230 0.8230 0.8230 0.8230 0.8230
13.830000 0.8230 0.8230 0.8210 0.8210 0.8210
13.864227 0.8210 0.8230 0.8210 0.8210 0.8210
13.898000 0.8210 0.8210 0.8210 0.8230 0.8230
13.932227 0.8230 0.8240 0.8240 0.8260 0.8260
13.967000 0.8260 0.8260 0.8280 0.8290 0.8310
14.001227 0.8310 0.8310 0.8310 0.8310 0.8310
14.035000 0.8310 0.8310 0.8310 0.8310 0.8310
14.069227 0.8310 0.8310 0.8310 0.8310 0.8330
14.104000 0.8330 0.8330 0.8330 0.8330 0.8330
14.138227 0.8330 0.8330 0.8330 0.8330 0.8330
14.172000 0.8330 0.8330 0.8330 0.8330 0.8310
14.206227 0.8280 0.8260 0.8260 0.8230 0.8210
14.241000 0.8190 0.8160 0.8120 0.8090 0.8070
14.275227 0.8050 0.8020 0.7930 0.7920 0.7880
14.309000 0.7830 0.7810 0.7780 0.7730 0.7710
14.343227 0.7690 0.7640 0.7560 0.7500 0.7430
14.377000 0.7380 0.7330 0.7230 0.7180 0.7160
14.411227 0.7090 0.7040 0.7010 0.6990 0.6940
14.446000 0.6920 0.6900 0.6870 0.6870 0.6850
14.480227 0.6830 0.6830 0.6830 0.6830 0.6830
14.514000 0.6830 0.6830 0.6830 0.6830 0.6830
14.548227 0.6830 0.6830 0.6830 0.6850 0.6850
14.583000 0.6890 0.6900 0.6900 0.6900 0.6900
14.617227 0.6900 0.6920 0.6920 0.6920 0.6920
14.651000 0.6920 0.6920 0.6920 0.6920 0.6920
14.685227 0.6920 0.6920 0.6900 0.6900 0.6890
14.719000 0.6870 0.6850 0.6830 0.6830 0.6830
14.753227 0.6820 0.6780 0.6760 0.6750 0.6750
14.788000 0.6730 0.6710 0.6710 0.6710 0.6710
14.822227 0.6700 0.6680 0.6660 0.6640 0.6640
14.856000 0.6640 0.6640 0.6640 0.6640 0.6660
14.890227 0.6640 0.6640 0.6640 0.6640 0.6640
14.925000 0.6640 0.6640 0.6640 0.6640 0.6640
14.959227 0.6660 0.6660 0.6700 0.6750 0.6830
14.993000 0.6900 0.6940 0.6990 0.7060 0.7130
15.027227 0.7230 0.7280 0.7310 0.7350 0.7450
15.062000 0.7490 0.7500 0.7520 0.7640 0.7680
15.096227 0.7710 0.7740 0.7760 0.7780 0.7800
15.130000 0.7800 0.7810 0.7830 0.7830 0.7850
15.164227 0.7850 0.7850 0.7860 0.7860 0.7860
15.198000 0.7880 0.7900 0.7880 0.7900 0.7900
15.232227 0.7900 0.7900 0.7920 0.7920 0.7920
15.267000 0.7920 0.7920 0.7920 0.7930 0.7930
15.301227 0.7930 0.7920 0.7920 0.7920 0.7920
15.335000 0.7920 0.7920 0.7920 0.7920 0.7920
15.369227 0.7900 0.7900 0.7920 0.7900 0.7900
15.404000 0.7900 0.7880 0.7880 0.7880 0.7860
15.438227 0.7880 0.7880 0.7880 0.7880 0.7880
15.472000 0.7880 0.7860 0.7860 0.7860 0.7860
15.506227 0.7860 0.7860 0.7850 0.7850 0.7830
15.541000 0.7830 0.7830 0.7830 0.7830 0.7810
15.575227 0.7800 0.7800 0.7780 0.7780 0.7760
15.609000 0.7740 0.7710 0.7710 0.7690 0.7690
15.643227 0.7680 0.7680 0.7680 0.7660 0.7640
15.677000 0.7620 0.7620 0.7620 0.7610 0.7590
15.711227 0.7590 0.7570 0.7560 0.7540 0.7520
15.746000 0.7470 0.7470 0.7430 0.7430 0.7380
15.780227 0.7370 0.7370 0.7350 0.7350 0.7330
15.814000 0.7310 0.7280 0.7260 0.7260 0.7250
15.848227 0.7250 0.7230 0.7190 0.7180 0.7160
15.883000 0.7140 0.7110 0.7090 0.7090 0.7070
15.917227 0.7040 0.7020 0.6990 0.6970 0.6950
15.951000 0.6950 0.6950
##END=
