##TITLE=ACETAMIDE, N-[2-[1,1-DIMETHYLETHYL)-4-METHYLPHENYL]
##JCAMP-DX=4.24
##DATA TYPE=INFRARED SPECTRUM
##CLASS=COBLENTZ III
##ORIGIN=MONSANTO (J. FREEMAN)
##OWNER=COBLENTZ SOCIETY
Collection (C) 2018 copyright by the U.S. Secretary of Commerce
on behalf of the United States of America. All rights reserved.
##DATE=1959/01/30
##NAMES=N-(2-tert-butyl-4-methylphenyl)acetamide
ACETANILIDE, 2-TERT-BUTYL-4-METHYL-
##MOLFORM=C13 H19 N O
##SOURCE REFERENCE=COBLENTZ NO. 9677
##$NIST ID=B6009677
##$NIST SOURCE=COBLENTZ
##$NIST IMAGE=cob9677
##SPECTROMETER/DATA SYSTEM=BECKMAN IR-4 (HYBRID PRISM-GRATING)
##INSTRUMENT PARAMETERS=NaCl PRISM
##STATE=SOLID (NUJOL MULL)
$$SPECTRAL CONTAMINATION DUE TO OIL AROUND 2900, 1450, 1380 CM^-^1
##SAMPLING PROCEDURE=TRANSMISSION
##RESOLUTION=2
##DATA PROCESSING=DIGITIZED BY NIST FROM HARD COPY
##XUNITS=MICROMETERS
##YUNITS=TRANSMITTANCE
##XFACTOR=1.000000
##YFACTOR=1
##DELTAX=000.006058
##FIRSTX=0.971
##LASTX=15.8962
##FIRSTY=0.634
##MAXX=15.8962
##MINX=0.971
##MAXY=0.971
##MINY=0.019
##NPOINTS=2465
##XYDATA=(X++(Y..Y))
0.971000 0.6340 0.6340 0.6350 0.6370 0.6380
1.001300 0.6390 0.6400 0.6400 0.6410 0.6430
1.031000 0.6440 0.6450 0.6470 0.6500 0.6520
1.061300 0.6550 0.6570 0.6580 0.6580 0.6610
1.092000 0.6640 0.6690 0.6730 0.6740 0.6750
1.122300 0.6760 0.6770 0.6790 0.6810 0.6830
1.152000 0.6860 0.6870 0.6880 0.6910 0.6920
1.182300 0.6930 0.6950 0.6970 0.6980 0.7000
1.213000 0.7010 0.7040 0.7050 0.7060 0.7060
1.243300 0.7070 0.7090 0.7100 0.7100 0.7110
1.274000 0.7130 0.7150 0.7170 0.7190 0.7210
1.304300 0.7230 0.7240 0.7270 0.7290 0.7290
1.334000 0.7300 0.7310 0.7330 0.7340 0.7350
1.364300 0.7360 0.7400 0.7410 0.7410 0.7430
1.395000 0.7450 0.7460 0.7470 0.7480 0.7500
1.425300 0.7510 0.7520 0.7530 0.7540 0.7560
1.455000 0.7570 0.7580 0.7590 0.7600 0.7620
1.485300 0.7630 0.7640 0.7650 0.7660 0.7660
1.516000 0.7660 0.7660 0.7680 0.7680 0.7680
1.546300 0.7680 0.7690 0.7690 0.7690 0.7690
1.576000 0.7710 0.7740 0.7750 0.7760 0.7780
1.606300 0.7800 0.7810 0.7820 0.7830 0.7840
1.637000 0.7840 0.7870 0.7880 0.7890 0.7900
1.667300 0.7920 0.7930 0.7940 0.7950 0.7980
1.698000 0.7990 0.7990 0.8000 0.8010 0.8020
1.728300 0.8020 0.8040 0.8050 0.8060 0.8060
1.758000 0.8080 0.8080 0.8100 0.8100 0.8110
1.788300 0.8120 0.8120 0.8130 0.8130 0.8140
1.819000 0.8160 0.8160 0.8170 0.8170 0.8180
1.849300 0.8190 0.8190 0.8200 0.8200 0.8220
1.879000 0.8230 0.8230 0.8240 0.8240 0.8250
1.909300 0.8250 0.8260 0.8260 0.8280 0.8280
1.940000 0.8290 0.8290 0.8300 0.8300 0.8310
1.970300 0.8310 0.8320 0.8320 0.8340 0.8340
2.001000 0.8340 0.8350 0.8350 0.8350 0.8360
2.031300 0.8370 0.8370 0.8380 0.8380 0.8400
2.061000 0.8400 0.8400 0.8410 0.8410 0.8420
2.091300 0.8420 0.8430 0.8430 0.8440 0.8440
2.122000 0.8440 0.8440 0.8440 0.8440 0.8440
2.152300 0.8440 0.8440 0.8440 0.8440 0.8440
2.182000 0.8440 0.8430 0.8430 0.8430 0.8420
2.212300 0.8380 0.8360 0.8320 0.8290 0.8260
2.243000 0.8240 0.8230 0.8240 0.8230 0.8240
2.273300 0.8240 0.8240 0.8250 0.8260 0.8280
2.303000 0.8280 0.8290 0.8300 0.8300 0.8310
2.333300 0.8320 0.8320 0.8340 0.8350 0.8350
2.364000 0.8350 0.8360 0.8380 0.8400 0.8410
2.394300 0.8420 0.8430 0.8440 0.8460 0.8470
2.425000 0.8480 0.8490 0.8500 0.8520 0.8530
2.455300 0.8530 0.8540 0.8540 0.8540 0.8550
2.485000 0.8550 0.8550 0.8560 0.8560 0.8580
2.515300 0.8580 0.8590 0.8640 0.8660 0.8670
2.546000 0.8670 0.8670 0.8680 0.8680 0.8700
2.576300 0.8700 0.8700 0.8710 0.8710 0.8720
2.606000 0.8720 0.8730 0.8730 0.8730 0.8730
2.636300 0.8750 0.8750 0.8750 0.8750 0.8760
2.667000 0.8760 0.8760 0.8760 0.8760 0.8760
2.697300 0.8770 0.8770 0.8770 0.8770 0.8770
2.727000 0.8770 0.8770 0.8770 0.8770 0.8760
2.757300 0.8760 0.8760 0.8760 0.8750 0.8750
2.788000 0.8750 0.8730 0.8730 0.8720 0.8720
2.818300 0.8720 0.8710 0.8710 0.8700 0.8700
2.849000 0.8680 0.8680 0.8680 0.8680 0.8670
2.879300 0.8660 0.8640 0.8620 0.8610 0.8590
2.909000 0.8560 0.8550 0.8540 0.8540 0.8520
2.939300 0.8470 0.8430 0.8410 0.8360 0.8260
2.970000 0.8110 0.7840 0.7500 0.7150 0.6810
3.000300 0.6460 0.6100 0.5750 0.5750 0.5460
3.030000 0.3310 0.2860 0.2100 0.1430 0.1410
3.060300 0.1440 0.2090 0.3240 0.4180 0.4950
3.091000 0.5250 0.5550 0.6000 0.6350 0.6610
3.121300 0.6790 0.6910 0.7000 0.7070 0.7160
3.151000 0.7280 0.7450 0.7690 0.7800 0.7890
3.181300 0.7950 0.8100 0.8110 0.8110 0.8100
3.212000 0.8100 0.8080 0.8070 0.8060 0.8010
3.242300 0.7950 0.7880 0.7780 0.7630 0.7390
3.273000 0.7190 0.6920 0.6640 0.6380 0.5910
3.303300 0.5640 0.5320 0.5030 0.4470 0.4450
3.333000 0.3380 0.2290 0.1950 0.1620 0.1280
3.363300 0.0630 0.0550 0.0460 0.0380 0.0300
3.394000 0.0220 0.0200 0.0190 0.0190 0.0200
3.424300 0.0380 0.0600 0.0820 0.1330 0.1390
3.454000 0.1390 0.1390 0.1290 0.1250 0.1220
3.484300 0.1230 0.2160 0.2990 0.4050 0.4860
3.515000 0.5190 0.5510 0.6040 0.6520 0.7000
3.545300 0.7350 0.7530 0.7660 0.7720 0.7780
3.575000 0.7840 0.8060 0.8170 0.8280 0.8400
3.605300 0.8470 0.8520 0.8550 0.8600 0.8620
3.636000 0.8640 0.8650 0.8650 0.8670 0.8670
3.666300 0.8680 0.8700 0.8700 0.8710 0.8710
3.697000 0.8720 0.8730 0.8730 0.8750 0.8760
3.727300 0.8760 0.8770 0.8770 0.8780 0.8790
3.757000 0.8780 0.8790 0.8810 0.8810 0.8820
3.787300 0.8820 0.8840 0.8850 0.8870 0.8870
3.818000 0.8880 0.8890 0.8900 0.8910 0.8910
3.848300 0.8930 0.8940 0.8950 0.8950 0.8960
3.878000 0.8970 0.8990 0.9000 0.9000 0.9010
3.908300 0.9020 0.9030 0.9030 0.9050 0.9060
3.939000 0.9070 0.9080 0.9080 0.9090 0.9110
3.969300 0.9120 0.9120 0.9130 0.9140 0.9140
3.999000 0.9150 0.9150 0.9170 0.9170 0.9180
4.029300 0.9180 0.9190 0.9190 0.9200 0.9200
4.060000 0.9210 0.9210 0.9210 0.9230 0.9230
4.090300 0.9240 0.9240 0.9250 0.9250 0.9260
4.121000 0.9260 0.9270 0.9270 0.9290 0.9290
4.151300 0.9300 0.9300 0.9300 0.9310 0.9310
4.181000 0.9310 0.9300 0.9300 0.9290 0.9270
4.211300 0.9270 0.9270 0.9270 0.9290 0.9290
4.242000 0.9290 0.9290 0.9300 0.9310 0.9320
4.272300 0.9320 0.9330 0.9330 0.9350 0.9350
4.302000 0.9350 0.9350 0.9350 0.9350 0.9350
4.332300 0.9360 0.9360 0.9360 0.9360 0.9360
4.363000 0.9360 0.9360 0.9380 0.9380 0.9380
4.393300 0.9380 0.9380 0.9380 0.9380 0.9390
4.424000 0.9390 0.9410 0.9410 0.9410 0.9410
4.454300 0.9410 0.9410 0.9410 0.9410 0.9410
4.484000 0.9410 0.9410 0.9410 0.9420 0.9410
4.514300 0.9410 0.9410 0.9410 0.9410 0.9410
4.545000 0.9410 0.9410 0.9410 0.9410 0.9410
4.575300 0.9410 0.9410 0.9420 0.9420 0.9430
4.605000 0.9440 0.9440 0.9440 0.9440 0.9440
4.635300 0.9440 0.9440 0.9440 0.9440 0.9440
4.666000 0.9440 0.9440 0.9440 0.9450 0.9450
4.696300 0.9470 0.9480 0.9490 0.9500 0.9500
4.726000 0.9500 0.9500 0.9500 0.9510 0.9510
4.756300 0.9510 0.9510 0.9510 0.9510 0.9510
4.787000 0.9510 0.9510 0.9510 0.9510 0.9510
4.817300 0.9510 0.9510 0.9510 0.9500 0.9500
4.848000 0.9500 0.9500 0.9500 0.9500 0.9510
4.878300 0.9510 0.9530 0.9530 0.9530 0.9530
4.908000 0.9530 0.9530 0.9510 0.9510 0.9510
4.938300 0.9510 0.9510 0.9510 0.9510 0.9510
4.969000 0.9510 0.9510 0.9510 0.9510 0.9510
4.999300 0.9510 0.9510 0.9530 0.9530 0.9540
5.029000 0.9540 0.9550 0.9550 0.9570 0.9600
5.059300 0.9610 0.9610 0.9610 0.9610 0.9610
5.090000 0.9610 0.9600 0.9600 0.9600 0.9600
5.120300 0.9590 0.9590 0.9590 0.9570 0.9570
5.150000 0.9570 0.9570 0.9570 0.9570 0.9570
5.180300 0.9570 0.9570 0.9570 0.9570 0.9570
5.211000 0.9570 0.9570 0.9570 0.9570 0.9570
5.241300 0.9570 0.9570 0.9570 0.9560 0.9560
5.272000 0.9560 0.9560 0.9560 0.9570 0.9570
5.302300 0.9590 0.9600 0.9610 0.9610 0.9610
5.332000 0.9610 0.9610 0.9610 0.9610 0.9610
5.362300 0.9610 0.9620 0.9620 0.9620 0.9620
5.393000 0.9620 0.9620 0.9620 0.9620 0.9620
5.423300 0.9620 0.9620 0.9620 0.9620 0.9620
5.453000 0.9610 0.9590 0.9570 0.9560 0.9550
5.483300 0.9540 0.9530 0.9530 0.9530 0.9530
5.514000 0.9530 0.9540 0.9540 0.9540 0.9550
5.544300 0.9550 0.9550 0.9550 0.9550 0.9540
5.574000 0.9540 0.9540 0.9540 0.9530 0.9530
5.604300 0.9510 0.9500 0.9500 0.9490 0.9490
5.635000 0.9480 0.9480 0.9470 0.9470 0.9450
5.665300 0.9450 0.9440 0.9430 0.9430 0.9420
5.696000 0.9420 0.9420 0.9440 0.9480 0.9490
5.726300 0.9490 0.9510 0.9550 0.9560 0.9560
5.756000 0.9560 0.9560 0.9560 0.9550 0.9550
5.786300 0.9530 0.9500 0.9470 0.9440 0.9410
5.817000 0.9370 0.9330 0.9310 0.9290 0.9260
5.847300 0.9240 0.9200 0.9150 0.9090 0.9030
5.877000 0.8950 0.8840 0.8730 0.8610 0.8470
5.907300 0.8420 0.8350 0.8240 0.8040 0.7710
5.938000 0.7230 0.6530 0.6230 0.5860 0.5440
5.968300 0.4530 0.4060 0.3600 0.3180 0.2800
5.998000 0.2480 0.2220 0.2060 0.2000 0.1730
6.028300 0.1470 0.1340 0.1150 0.0860 0.0630
6.059000 0.0600 0.0610 0.0790 0.0980 0.1200
6.089300 0.1630 0.1810 0.1930 0.2160 0.2660
6.120000 0.3610 0.4390 0.5160 0.5620 0.5970
6.150300 0.6270 0.6520 0.6760 0.7000 0.7120
6.180000 0.7240 0.7150 0.7100 0.7010 0.6940
6.210300 0.6740 0.6550 0.6470 0.6440 0.6400
6.241000 0.6400 0.6590 0.6890 0.6920 0.7120
6.271300 0.7420 0.7720 0.7940 0.8040 0.8100
6.301000 0.8190 0.8250 0.8280 0.8280 0.8260
6.331300 0.8250 0.8230 0.8180 0.8140 0.8100
6.362000 0.8100 0.8130 0.8130 0.8140 0.8140
6.392300 0.8130 0.8080 0.8010 0.7940 0.7870
6.423000 0.7800 0.7740 0.7660 0.7590 0.7510
6.453300 0.7400 0.7270 0.7100 0.6910 0.6670
6.483000 0.6380 0.6040 0.5660 0.5200 0.4370
6.513300 0.4020 0.3680 0.3400 0.3110 0.2860
6.544000 0.2590 0.2350 0.2100 0.1850 0.1570
6.574300 0.1330 0.1160 0.1060 0.1160 0.1490
6.604000 0.1860 0.2250 0.2560 0.2940 0.3320
6.634300 0.3700 0.4120 0.4490 0.4620 0.4670
6.665000 0.4710 0.4740 0.4780 0.4830 0.4910
6.695300 0.4970 0.5020 0.5160 0.5370 0.5620
6.725000 0.5780 0.5790 0.5700 0.5570 0.5490
6.755300 0.5340 0.5160 0.5010 0.4670 0.4490
6.786000 0.4320 0.4170 0.4000 0.3840 0.3680
6.816300 0.3550 0.3410 0.3290 0.3180 0.3070
6.847000 0.2990 0.2920 0.2830 0.2760 0.2720
6.877300 0.2690 0.2660 0.2630 0.2630 0.2640
6.907000 0.2650 0.2660 0.2750 0.2840 0.3100
6.937300 0.3260 0.3440 0.3610 0.3790 0.3960
6.968000 0.4140 0.4650 0.4810 0.4980 0.5070
6.998300 0.5150 0.5320 0.5490 0.5660 0.5820
7.028000 0.5990 0.6160 0.6290 0.6440 0.6570
7.058300 0.6690 0.6710 0.6750 0.6790 0.6800
7.089000 0.6800 0.6800 0.6790 0.6770 0.6740
7.119300 0.6710 0.6650 0.6590 0.6530 0.6490
7.149000 0.6430 0.6380 0.6320 0.6310 0.6290
7.179300 0.6280 0.6280 0.6280 0.6270 0.6260
7.210000 0.5990 0.5860 0.5730 0.5600 0.5480
7.240300 0.5340 0.5210 0.5080 0.4830 0.4690
7.271000 0.4560 0.4430 0.4300 0.4300 0.4190
7.301300 0.3840 0.3430 0.3220 0.2830 0.2820
7.331000 0.2830 0.3340 0.4010 0.4840 0.5190
7.361300 0.5520 0.6080 0.6520 0.6870 0.7130
7.392000 0.7310 0.7430 0.7520 0.7570 0.7590
7.422300 0.7600 0.7630 0.7640 0.7680 0.7700
7.452000 0.7710 0.7710 0.7720 0.7720 0.7740
7.482300 0.7740 0.7740 0.7760 0.7770 0.7760
7.513000 0.7770 0.7770 0.7760 0.7740 0.7720
7.543300 0.7720 0.7710 0.7710 0.7700 0.7690
7.573000 0.7660 0.7600 0.7580 0.7560 0.7530
7.603300 0.7530 0.7530 0.7530 0.7520 0.7520
7.634000 0.7520 0.7510 0.7500 0.7480 0.7460
7.664300 0.7430 0.7410 0.7370 0.7330 0.7270
7.695000 0.7190 0.7070 0.6920 0.6760 0.6530
7.725300 0.6250 0.6050 0.5750 0.5390 0.4560
7.755000 0.4170 0.3540 0.2930 0.2820 0.2760
7.785300 0.2660 0.2650 0.2650 0.2680 0.3010
7.816000 0.3400 0.3820 0.4260 0.4710 0.4920
7.846300 0.5130 0.5520 0.5850 0.6100 0.6390
7.876000 0.6610 0.6850 0.7010 0.7070 0.7160
7.906300 0.7340 0.7410 0.7460 0.7460 0.7410
7.937000 0.7310 0.7240 0.7190 0.7130 0.7060
7.967300 0.6970 0.6800 0.6670 0.6650 0.6670
7.997000 0.6820 0.6980 0.7110 0.7600 0.7890
8.027300 0.8050 0.8200 0.8370 0.8430 0.8480
8.058000 0.8540 0.8590 0.8640 0.8680 0.8710
8.088300 0.8710 0.8720 0.8720 0.8700 0.8680
8.119000 0.8660 0.8650 0.8640 0.8600 0.8590
8.149300 0.8580 0.8530 0.8490 0.8440 0.8430
8.179000 0.8430 0.8460 0.8480 0.8500 0.8540
8.209300 0.8560 0.8590 0.8590 0.8580 0.8400
8.240000 0.8320 0.8120 0.7940 0.7830 0.7800
8.270300 0.7810 0.7870 0.7900 0.7990 0.8120
8.300000 0.8250 0.8370 0.8440 0.8470 0.8470
8.330300 0.8470 0.8470 0.8470 0.8470 0.8470
8.361000 0.8480 0.8490 0.8530 0.8520 0.8540
8.391300 0.8590 0.8650 0.8730 0.8830 0.8910
8.422000 0.9000 0.9060 0.9090 0.9140 0.9170
8.452300 0.9180 0.9190 0.9190 0.9200 0.9210
8.482000 0.9230 0.9230 0.9240 0.9240 0.9250
8.512300 0.9250 0.9250 0.9260 0.9260 0.9240
8.543000 0.9260 0.9260 0.9260 0.9260 0.9270
8.573300 0.9270 0.9270 0.9290 0.9290 0.9290
8.603000 0.9300 0.9300 0.9300 0.9300 0.9300
8.633300 0.9300 0.9300 0.9310 0.9310 0.9310
8.664000 0.9320 0.9320 0.9320 0.9320 0.9320
8.694300 0.9330 0.9330 0.9330 0.9330 0.9330
8.724000 0.9350 0.9350 0.9330 0.9330 0.9310
8.754300 0.9310 0.9290 0.9290 0.9290 0.9300
8.785000 0.9350 0.9370 0.9390 0.9390 0.9420
8.815300 0.9450 0.9450 0.9470 0.9470 0.9470
8.846000 0.9470 0.9470 0.9480 0.9480 0.9480
8.876300 0.9480 0.9480 0.9480 0.9490 0.9490
8.906000 0.9490 0.9490 0.9490 0.9490 0.9490
8.936300 0.9490 0.9490 0.9500 0.9500 0.9510
8.967000 0.9510 0.9510 0.9510 0.9510 0.9530
8.997300 0.9530 0.9530 0.9530 0.9530 0.9530
9.027000 0.9530 0.9530 0.9530 0.9530 0.9530
9.057300 0.9530 0.9530 0.9510 0.9500 0.9490
9.088000 0.9480 0.9450 0.9410 0.9320 0.9310
9.118300 0.9290 0.9150 0.9080 0.9000 0.8950
9.148000 0.8880 0.8810 0.8760 0.8730 0.8730
9.178300 0.8760 0.8820 0.8880 0.8970 0.9080
9.209000 0.9120 0.9200 0.9230 0.9240 0.9240
9.239300 0.9240 0.9240 0.9240 0.9230 0.9230
9.270000 0.9230 0.9250 0.9270 0.9320 0.9350
9.300300 0.9350 0.9360 0.9370 0.9380 0.9420
9.330000 0.9430 0.9440 0.9450 0.9470 0.9480
9.360300 0.9480 0.9490 0.9490 0.9490 0.9490
9.391000 0.9490 0.9490 0.9490 0.9490 0.9490
9.421300 0.9480 0.9480 0.9470 0.9470 0.9470
9.451000 0.9470 0.9470 0.9470 0.9470 0.9470
9.481300 0.9470 0.9470 0.9470 0.9470 0.9450
9.512000 0.9450 0.9450 0.9450 0.9450 0.9440
9.542300 0.9430 0.9410 0.9420 0.9410 0.9380
9.572000 0.9360 0.9330 0.9310 0.9290 0.9240
9.602300 0.9190 0.9130 0.9060 0.9020 0.8940
9.633000 0.8880 0.8810 0.8750 0.8670 0.8610
9.663300 0.8530 0.8440 0.8400 0.8370 0.8400
9.694000 0.8480 0.8590 0.8680 0.8790 0.8930
9.724300 0.8990 0.9030 0.9050 0.9060 0.9050
9.754000 0.9050 0.9010 0.8960 0.8930 0.8900
9.784300 0.8870 0.8830 0.8820 0.8840 0.8870
9.815000 0.8890 0.8930 0.8940 0.8940 0.8930
9.845300 0.8890 0.8880 0.8840 0.8790 0.8730
9.875000 0.8650 0.8540 0.8410 0.8230 0.8020
9.905300 0.7770 0.7460 0.7270 0.6990 0.6830
9.936000 0.6700 0.6680 0.6700 0.6920 0.7130
9.966300 0.7450 0.7720 0.7960 0.8180 0.8360
9.996000 0.8530 0.8660 0.8780 0.8880 0.8950
10.026300 0.9010 0.9060 0.9110 0.9130 0.9150
10.057000 0.9170 0.9190 0.9200 0.9210 0.9230
10.087300 0.9230 0.9240 0.9240 0.9240 0.9240
10.118000 0.9240 0.9240 0.9240 0.9240 0.9240
10.148300 0.9240 0.9240 0.9240 0.9230 0.9230
10.178000 0.9210 0.9200 0.9170 0.9110 0.9060
10.208300 0.9010 0.9000 0.8910 0.8810 0.8710
10.239000 0.8650 0.8610 0.8610 0.8620 0.8670
10.269300 0.8710 0.8760 0.8790 0.8820 0.8840
10.299000 0.8850 0.8840 0.8810 0.8680 0.8590
10.329300 0.8540 0.8520 0.8540 0.8600 0.8710
10.360000 0.8790 0.8890 0.8970 0.9080 0.9210
10.390300 0.9290 0.9320 0.9360 0.9390 0.9410
10.420000 0.9420 0.9430 0.9440 0.9440 0.9440
10.450300 0.9440 0.9440 0.9440 0.9420 0.9410
10.481000 0.9390 0.9380 0.9370 0.9350 0.9320
10.511300 0.9270 0.9240 0.9190 0.9120 0.9050
10.542000 0.8940 0.8900 0.8900 0.8930 0.9020
10.572300 0.9020 0.9070 0.9130 0.9210 0.9300
10.602000 0.9360 0.9380 0.9410 0.9420 0.9420
10.632300 0.9420 0.9430 0.9430 0.9430 0.9440
10.663000 0.9440 0.9440 0.9450 0.9450 0.9470
10.693300 0.9470 0.9470 0.9470 0.9470 0.9470
10.723000 0.9470 0.9470 0.9450 0.9440 0.9430
10.753300 0.9410 0.9380 0.9350 0.9310 0.9290
10.784000 0.9230 0.9140 0.9120 0.9120 0.9130
10.814300 0.9140 0.9150 0.9180 0.9200 0.9210
10.845000 0.9260 0.9290 0.9290 0.9290 0.9290
10.875300 0.9270 0.9250 0.9210 0.9120 0.9090
10.905000 0.9050 0.9010 0.8970 0.8960 0.8940
10.935300 0.8940 0.8970 0.9030 0.9070 0.9120
10.966000 0.9140 0.9320 0.9350 0.9360 0.9380
10.996300 0.9410 0.9420 0.9440 0.9440 0.9490
11.026000 0.9510 0.9530 0.9550 0.9550 0.9560
11.056300 0.9570 0.9570 0.9590 0.9590 0.9600
11.087000 0.9600 0.9610 0.9610 0.9610 0.9620
11.117300 0.9620 0.9620 0.9620 0.9620 0.9620
11.147000 0.9620 0.9620 0.9620 0.9620 0.9620
11.177300 0.9620 0.9620 0.9620 0.9610 0.9600
11.208000 0.9600 0.9590 0.9570 0.9560 0.9550
11.238300 0.9540 0.9540 0.9530 0.9510 0.9500
11.269000 0.9490 0.9480 0.9450 0.9430 0.9410
11.299300 0.9370 0.9330 0.9300 0.9240 0.9180
11.329000 0.9110 0.9010 0.8910 0.8790 0.8660
11.359300 0.8500 0.8350 0.8260 0.8190 0.8160
11.390000 0.8190 0.8190 0.8400 0.8650 0.8870
11.420300 0.9050 0.9210 0.9350 0.9450 0.9530
11.450000 0.9570 0.9590 0.9610 0.9610 0.9630
11.480300 0.9650 0.9650 0.9660 0.9660 0.9670
11.511000 0.9680 0.9680 0.9690 0.9690 0.9710
11.541300 0.9710 0.9710 0.9710 0.9710 0.9710
11.571000 0.9710 0.9710 0.9710 0.9710 0.9710
11.601300 0.9710 0.9710 0.9710 0.9690 0.9690
11.632000 0.9690 0.9690 0.9690 0.9680 0.9680
11.662300 0.9680 0.9670 0.9670 0.9670 0.9670
11.693000 0.9660 0.9660 0.9650 0.9630 0.9630
11.723300 0.9620 0.9610 0.9610 0.9600 0.9590
11.753000 0.9570 0.9560 0.9550 0.9530 0.9500
11.783300 0.9490 0.9450 0.9430 0.9390 0.9370
11.814000 0.9320 0.9260 0.9200 0.9130 0.9050
11.844300 0.8950 0.8850 0.8760 0.8660 0.8550
11.874000 0.8440 0.8340 0.8230 0.8110 0.7950
11.904300 0.7930 0.7930 0.7930 0.8010 0.8110
11.935000 0.8240 0.8350 0.8410 0.8530 0.8840
11.965300 0.9070 0.9110 0.9150 0.9200 0.9240
11.995000 0.9290 0.9330 0.9350 0.9360 0.9360
12.025300 0.9360 0.9360 0.9360 0.9360 0.9360
12.056000 0.9350 0.9350 0.9330 0.9330 0.9320
12.086300 0.9320 0.9320 0.9310 0.9300 0.9290
12.117000 0.9260 0.9240 0.9210 0.9200 0.9170
12.147300 0.9110 0.9030 0.8960 0.8880 0.8790
12.177000 0.8680 0.8580 0.8460 0.8310 0.8160
12.207300 0.7980 0.7780 0.7570 0.7330 0.7070
12.238000 0.6790 0.6460 0.6120 0.5740 0.5510
12.268300 0.5210 0.4750 0.4430 0.4420 0.4430
12.298000 0.4450 0.4830 0.5200 0.5880 0.6450
12.328300 0.7240 0.7960 0.8300 0.8550 0.8750
12.359000 0.8880 0.8970 0.9020 0.9030 0.9050
12.389300 0.9060 0.9060 0.9050 0.9020 0.9010
12.419000 0.9000 0.8960 0.8890 0.8830 0.8670
12.449300 0.8600 0.8530 0.8440 0.8350 0.8240
12.480000 0.8120 0.7990 0.7820 0.7640 0.7420
12.510300 0.7170 0.7160 0.7180 0.7230 0.7270
12.541000 0.7420 0.7580 0.7740 0.7990 0.8220
12.571300 0.8410 0.8590 0.8750 0.8880 0.9000
12.601000 0.9090 0.9180 0.9250 0.9310 0.9360
12.631300 0.9390 0.9420 0.9440 0.9450 0.9480
12.662000 0.9490 0.9500 0.9510 0.9530 0.9540
12.692300 0.9560 0.9570 0.9590 0.9590 0.9600
12.722000 0.9600 0.9610 0.9610 0.9610 0.9620
12.752300 0.9620 0.9610 0.9610 0.9610 0.9610
12.783000 0.9610 0.9610 0.9610 0.9610 0.9610
12.813300 0.9610 0.9610 0.9610 0.9610 0.9610
12.844000 0.9610 0.9620 0.9620 0.9620 0.9620
12.874300 0.9620 0.9620 0.9620 0.9620 0.9620
12.904000 0.9630 0.9630 0.9630 0.9630 0.9630
12.934300 0.9630 0.9630 0.9630 0.9630 0.9630
12.965000 0.9630 0.9630 0.9630 0.9630 0.9630
12.995300 0.9630 0.9630 0.9630 0.9630 0.9630
13.025000 0.9630 0.9630 0.9620 0.9620 0.9620
13.055300 0.9620 0.9620 0.9620 0.9620 0.9620
13.086000 0.9620 0.9610 0.9610 0.9610 0.9610
13.116300 0.9600 0.9600 0.9600 0.9600 0.9590
13.146000 0.9590 0.9590 0.9570 0.9570 0.9570
13.176300 0.9560 0.9560 0.9550 0.9550 0.9550
13.207000 0.9540 0.9540 0.9530 0.9530 0.9530
13.237300 0.9510 0.9510 0.9510 0.9500 0.9500
13.268000 0.9500 0.9490 0.9490 0.9490 0.9480
13.298300 0.9480 0.9480 0.9470 0.9470 0.9450
13.328000 0.9450 0.9440 0.9430 0.9420 0.9390
13.358300 0.9380 0.9360 0.9330 0.9310 0.9290
13.389000 0.9260 0.9250 0.9230 0.9200 0.9190
13.419300 0.9170 0.9130 0.9090 0.9070 0.9050
13.449000 0.9020 0.8990 0.8950 0.8930 0.8910
13.479300 0.8890 0.8870 0.8850 0.8850 0.8850
13.510000 0.8830 0.8830 0.8830 0.8840 0.8840
13.540300 0.8850 0.8870 0.8870 0.8880 0.8880
13.570000 0.8880 0.8880 0.8870 0.8870 0.8870
13.600300 0.8850 0.8850 0.8850 0.8840 0.8840
13.631000 0.8830 0.8830 0.8820 0.8810 0.8790
13.661300 0.8770 0.8730 0.8700 0.8670 0.8670
13.692000 0.8650 0.8640 0.8610 0.8560 0.8540
13.722300 0.8520 0.8500 0.8480 0.8470 0.8460
13.752000 0.8440 0.8410 0.8360 0.8320 0.8300
13.782300 0.8260 0.8240 0.8220 0.8180 0.8130
13.813000 0.8100 0.8060 0.8020 0.7980 0.7950
13.843300 0.7920 0.7900 0.7880 0.7870 0.7870
13.873000 0.7870 0.7870 0.7860 0.7860 0.7860
13.903300 0.7840 0.7840 0.7840 0.7830 0.7830
13.934000 0.7820 0.7820 0.7820 0.7810 0.7810
13.964300 0.7800 0.7800 0.7800 0.7780 0.7770
13.994000 0.7770 0.7760 0.7750 0.7750 0.7740
14.024300 0.7720 0.7710 0.7700 0.7700 0.7690
14.055000 0.7680 0.7680 0.7660 0.7650 0.7650
14.085300 0.7650 0.7650 0.7650 0.7660 0.7660
14.116000 0.7680 0.7680 0.7680 0.7700 0.7720
14.146300 0.7750 0.7760 0.7780 0.7810 0.7830
14.176000 0.7860 0.7870 0.7890 0.7900 0.7900
14.206300 0.7930 0.7960 0.8000 0.8020 0.8040
14.237000 0.8060 0.8080 0.8120 0.8140 0.8170
14.267300 0.8200 0.8230 0.8260 0.8300 0.8320
14.297000 0.8350 0.8370 0.8400 0.8410 0.8420
14.327300 0.8430 0.8440 0.8470 0.8490 0.8530
14.358000 0.8560 0.8600 0.8640 0.8670 0.8700
14.388300 0.8710 0.8730 0.8750 0.8770 0.8780
14.418000 0.8810 0.8820 0.8830 0.8850 0.8870
14.448300 0.8880 0.8900 0.8910 0.8930 0.8940
14.479000 0.8960 0.8970 0.8990 0.9000 0.9020
14.509300 0.9030 0.9050 0.9060 0.9080 0.9090
14.540000 0.9110 0.9120 0.9130 0.9150 0.9170
14.570300 0.9170 0.9180 0.9180 0.9180 0.9170
14.600000 0.9170 0.9170 0.9140 0.9140 0.9140
14.630300 0.9170 0.9180 0.9190 0.9200 0.9230
14.661000 0.9240 0.9240 0.9250 0.9260 0.9260
14.691300 0.9270 0.9290 0.9300 0.9300 0.9320
14.721000 0.9350 0.9350 0.9360 0.9360 0.9370
14.751300 0.9370 0.9380 0.9380 0.9390 0.9390
14.782000 0.9390 0.9390 0.9390 0.9390 0.9380
14.812300 0.9360 0.9350 0.9320 0.9310 0.9310
14.843000 0.9310 0.9320 0.9330 0.9330 0.9350
14.873300 0.9360 0.9370 0.9370 0.9380 0.9380
14.903000 0.9390 0.9390 0.9390 0.9410 0.9410
14.933300 0.9410 0.9410 0.9410 0.9410 0.9410
14.964000 0.9410 0.9410 0.9410 0.9410 0.9410
14.994300 0.9390 0.9390 0.9370 0.9370 0.9370
15.024000 0.9370 0.9360 0.9360 0.9360 0.9360
15.054300 0.9350 0.9350 0.9350 0.9350 0.9320
15.085000 0.9320 0.9320 0.9320 0.9320 0.9320
15.115300 0.9320 0.9320 0.9320 0.9320 0.9320
15.145000 0.9310 0.9310 0.9310 0.9310 0.9310
15.175300 0.9310 0.9310 0.9310 0.9310 0.9300
15.206000 0.9300 0.9290 0.9270 0.9270 0.9270
15.236300 0.9270 0.9270 0.9270 0.9270 0.9270
15.267000 0.9270 0.9270 0.9290 0.9270 0.9270
15.297300 0.9260 0.9260 0.9250 0.9240 0.9230
15.327000 0.9230 0.9210 0.9200 0.9190 0.9190
15.357300 0.9190 0.9190 0.9190 0.9190 0.9190
15.388000 0.9190 0.9190 0.9200 0.9210 0.9210
15.418300 0.9230 0.9230 0.9230 0.9230 0.9230
15.448000 0.9230 0.9210 0.9210 0.9200 0.9200
15.478300 0.9190 0.9190 0.9180 0.9170 0.9170
15.509000 0.9150 0.9150 0.9140 0.9130 0.9130
15.539300 0.9130 0.9130 0.9130 0.9130 0.9130
15.569000 0.9130 0.9130 0.9130 0.9130 0.9130
15.599300 0.9130 0.9130 0.9130 0.9130 0.9130
15.630000 0.9130 0.9130 0.9130 0.9130 0.9130
15.660300 0.9130 0.9130 0.9130 0.9120 0.9120
15.691000 0.9090 0.9090 0.9080 0.9110 0.9120
15.721300 0.9120 0.9130 0.9140 0.9140 0.9150
15.751000 0.9150 0.9140 0.9140 0.9140 0.9140
15.781300 0.9140 0.9140 0.9130 0.9130 0.9120
15.812000 0.9120 0.9110 0.9120 0.9120 0.9130
15.842300 0.9140 0.9150 0.9170 0.9170 0.9170
15.872000 0.9180 0.9180 0.9180 0.9180 0.9180
##END=
