##TITLE=KELCOLOID O
$$ KELCO CO.
##JCAMP-DX=4.24
##DATA TYPE=INFRARED SPECTRUM
##CLASS=COBLENTZ
##ORIGIN=WYANDOTTE CHEMICALS CORP., WYANDOTTE, MICHIGAN, USA
##OWNER=COBLENTZ SOCIETY
Collection (C) 2018 copyright by the U.S. Secretary of Commerce
on behalf of the United States of America. All rights reserved.
##DATE=Not specified, most likely prior to 1970
##MOLFORM=C12 H16 O11 X2
##SOURCE REFERENCE=COBLENTZ NO. 2926
##$NIST ID=B6002926
##$NIST SOURCE=COBLENTZ
##$NIST IMAGE=cob2926
##SPECTROMETER/DATA SYSTEM=Not specified, most likely a prism, grating, or hybrid spectrometer.
##PATH LENGTH=AIR DRIED FILM
##SAMPLING PROCEDURE=TRANSMISSION
##RESOLUTION=4
##DATA PROCESSING=DIGITIZED BY NIST FROM HARD COPY
##XUNITS=MICROMETERS
##YUNITS=TRANSMITTANCE
##XFACTOR=1.000000
##YFACTOR=1
##DELTAX=000.006641
##FIRSTX=2.04
##LASTX=16.0003
##FIRSTY=0.996
##MAXX=16.0003
##MINX=2.04
##MAXY=1
##MINY=0.051
##NPOINTS=2103
##XYDATA=(X++(Y..Y))
2.040000 0.9960 0.9960 0.9960 0.9960 0.9960
2.073223 0.9960 0.9950 0.9950 0.9950 0.9960
2.106000 0.9960 0.9980 1.0000 1.0000 1.0000
2.139223 0.9980 0.9980 0.9980 0.9980 0.9980
2.173000 0.9960 0.9960 0.9950 0.9950 0.9930
2.206223 0.9930 0.9930 0.9930 0.9930 0.9910
2.239000 0.9910 0.9910 0.9910 0.9910 0.9910
2.272223 0.9910 0.9910 0.9930 0.9930 0.9930
2.306000 0.9930 0.9930 0.9930 0.9930 0.9930
2.339223 0.9910 0.9900 0.9880 0.9880 0.9860
2.372000 0.9830 0.9810 0.9810 0.9800 0.9800
2.405223 0.9800 0.9780 0.9760 0.9730 0.9710
2.438000 0.9700 0.9700 0.9710 0.9750 0.9760
2.471223 0.9760 0.9780 0.9780 0.9800 0.9810
2.505000 0.9810 0.9830 0.9830 0.9830 0.9830
2.538223 0.9810 0.9810 0.9800 0.9780 0.9760
2.571000 0.9750 0.9750 0.9750 0.9760 0.9760
2.604223 0.9780 0.9780 0.9780 0.9780 0.9730
2.638000 0.9710 0.9700 0.9680 0.9660 0.9600
2.671223 0.9560 0.9460 0.9280 0.9100 0.8970
2.704000 0.8770 0.8500 0.8200 0.7970 0.7490
2.737223 0.7170 0.6670 0.6210 0.5780 0.5380
2.770000 0.4980 0.4630 0.4280 0.3930 0.3570
2.803223 0.3280 0.3070 0.2870 0.2750 0.2600
2.837000 0.2470 0.2370 0.2270 0.2170 0.2090
2.870223 0.2000 0.1970 0.1940 0.1920 0.1870
2.903000 0.1840 0.1820 0.1810 0.1790 0.1770
2.936223 0.1760 0.1760 0.1760 0.1760 0.1760
2.970000 0.1770 0.1790 0.1820 0.1860 0.1890
3.003223 0.1960 0.2020 0.2100 0.2170 0.2220
3.036000 0.2370 0.2470 0.2570 0.2670 0.2770
3.069223 0.2790 0.2870 0.2990 0.3080 0.3200
3.102000 0.3380 0.3570 0.3770 0.3980 0.4060
3.135223 0.4160 0.4360 0.4500 0.4610 0.4760
3.169000 0.4860 0.4950 0.5160 0.5360 0.5490
3.202223 0.5680 0.5840 0.6010 0.6160 0.6190
3.235000 0.6310 0.6470 0.6490 0.6590 0.6690
3.268223 0.6760 0.6820 0.6860 0.6870 0.6840
3.302000 0.6570 0.6210 0.5980 0.5690 0.5610
3.335223 0.5590 0.5580 0.5510 0.5440 0.5340
3.368000 0.5290 0.5260 0.5240 0.5260 0.5310
3.401223 0.5340 0.5410 0.5460 0.5490 0.5530
3.435000 0.5610 0.5690 0.5760 0.5810 0.5980
3.468223 0.6070 0.6190 0.6410 0.6610 0.6760
3.501000 0.6870 0.6970 0.7070 0.7200 0.7290
3.534223 0.7390 0.7470 0.7550 0.7600 0.7690
3.567000 0.7750 0.7800 0.7800 0.7820 0.7850
3.600223 0.7870 0.7900 0.7940 0.7950 0.7950
3.634000 0.7970 0.7970 0.7990 0.8020 0.8030
3.667223 0.8030 0.8070 0.8150 0.8200 0.8230
3.700000 0.8270 0.8280 0.8300 0.8350 0.8420
3.733223 0.8500 0.8520 0.8520 0.8550 0.8600
3.767000 0.8620 0.8670 0.8680 0.8700 0.8720
3.800223 0.8750 0.8780 0.8780 0.8800 0.8830
3.833000 0.8870 0.8880 0.8920 0.8930 0.8950
3.866223 0.8970 0.8970 0.8980 0.9000 0.9000
3.899000 0.9010 0.9030 0.9050 0.9060 0.9060
3.932223 0.9060 0.9060 0.9060 0.9080 0.9100
3.966000 0.9100 0.9100 0.9100 0.9110 0.9130
3.999223 0.9160 0.9180 0.9180 0.9200 0.9210
4.032000 0.9210 0.9230 0.9230 0.9230 0.9230
4.065223 0.9250 0.9250 0.9260 0.9260 0.9280
4.099000 0.9300 0.9300 0.9310 0.9310 0.9310
4.132223 0.9330 0.9330 0.9330 0.9330 0.9330
4.165000 0.9330 0.9330 0.9330 0.9330 0.9330
4.198223 0.9330 0.9330 0.9330 0.9330 0.9330
4.231000 0.9330 0.9330 0.9350 0.9360 0.9380
4.264223 0.9400 0.9400 0.9400 0.9410 0.9410
4.298000 0.9410 0.9410 0.9410 0.9410 0.9430
4.331223 0.9430 0.9450 0.9450 0.9460 0.9460
4.364000 0.9460 0.9480 0.9480 0.9480 0.9480
4.397223 0.9460 0.9450 0.9450 0.9430 0.9430
4.431000 0.9430 0.9450 0.9450 0.9450 0.9450
4.464223 0.9460 0.9480 0.9480 0.9480 0.9480
4.497000 0.9450 0.9430 0.9410 0.9410 0.9410
4.530223 0.9400 0.9380 0.9380 0.9360 0.9360
4.564000 0.9360 0.9350 0.9350 0.9350 0.9330
4.597223 0.9330 0.9330 0.9310 0.9310 0.9310
4.630000 0.9310 0.9310 0.9300 0.9300 0.9300
4.663223 0.9300 0.9280 0.9280 0.9280 0.9260
4.696000 0.9260 0.9260 0.9260 0.9280 0.9310
4.729223 0.9330 0.9360 0.9360 0.9400 0.9410
4.763000 0.9430 0.9430 0.9450 0.9460 0.9460
4.796223 0.9480 0.9480 0.9480 0.9500 0.9500
4.829000 0.9510 0.9530 0.9530 0.9530 0.9530
4.862223 0.9530 0.9530 0.9530 0.9530 0.9530
4.896000 0.9530 0.9530 0.9530 0.9530 0.9530
4.929223 0.9550 0.9550 0.9560 0.9560 0.9600
4.962000 0.9600 0.9610 0.9630 0.9650 0.9650
4.995223 0.9660 0.9660 0.9680 0.9700 0.9710
5.028000 0.9730 0.9730 0.9730 0.9710 0.9710
5.061223 0.9700 0.9700 0.9700 0.9710 0.9730
5.095000 0.9730 0.9750 0.9760 0.9760 0.9760
5.128223 0.9750 0.9730 0.9710 0.9700 0.9680
5.161000 0.9680 0.9710 0.9730 0.9750 0.9750
5.194223 0.9750 0.9730 0.9730 0.9730 0.9730
5.228000 0.9710 0.9710 0.9710 0.9700 0.9700
5.261223 0.9680 0.9680 0.9680 0.9660 0.9660
5.294000 0.9660 0.9660 0.9660 0.9660 0.9660
5.327223 0.9680 0.9680 0.9700 0.9710 0.9710
5.361000 0.9710 0.9710 0.9680 0.9680 0.9660
5.394223 0.9650 0.9650 0.9660 0.9660 0.9680
5.427000 0.9700 0.9700 0.9680 0.9650 0.9610
5.460223 0.9600 0.9550 0.9550 0.9510 0.9510
5.493000 0.9510 0.9500 0.9500 0.9480 0.9460
5.526223 0.9460 0.9450 0.9430 0.9410 0.9360
5.560000 0.9300 0.9250 0.9180 0.9110 0.9100
5.593223 0.9000 0.8970 0.8970 0.8900 0.8850
5.626000 0.8750 0.8580 0.8370 0.7970 0.7270
5.659223 0.6670 0.6070 0.5480 0.4760 0.4080
5.693000 0.3670 0.3320 0.3020 0.2690 0.2490
5.726223 0.2320 0.2300 0.2300 0.2340 0.2420
5.759000 0.2570 0.3120 0.3600 0.3880 0.4100
5.792223 0.4380 0.4780 0.5340 0.5910 0.6470
5.825000 0.6560 0.6660 0.6760 0.6790 0.6870
5.858223 0.6970 0.7090 0.7250 0.7370 0.7470
5.892000 0.7520 0.7540 0.7540 0.7540 0.7500
5.925223 0.7500 0.7470 0.7400 0.7350 0.7290
5.958000 0.7200 0.7050 0.6970 0.6870 0.6770
5.991223 0.6670 0.6610 0.6560 0.6510 0.6470
6.025000 0.6370 0.6170 0.6010 0.5860 0.5760
6.058223 0.5690 0.5580 0.5480 0.5280 0.5160
6.091000 0.5090 0.5010 0.4980 0.4880 0.4810
6.124223 0.4710 0.4580 0.4550 0.4460 0.4430
6.157000 0.4430 0.4460 0.4600 0.4730 0.4810
6.190223 0.4910 0.5040 0.5290 0.5530 0.5760
6.224000 0.5860 0.6060 0.6190 0.6410 0.6570
6.257223 0.6660 0.6760 0.6860 0.6970 0.7100
6.290000 0.7300 0.7470 0.7550 0.7600 0.7670
6.323223 0.7690 0.7700 0.7720 0.7750 0.7790
6.357000 0.7800 0.7820 0.7870 0.7950 0.7970
6.390223 0.8020 0.8100 0.8200 0.8250 0.8270
6.423000 0.8270 0.8230 0.8200 0.8200 0.8200
6.456223 0.8200 0.8220 0.8250 0.8280 0.8350
6.490000 0.8400 0.8420 0.8430 0.8430 0.8430
6.523223 0.8430 0.8430 0.8420 0.8420 0.8400
6.556000 0.8400 0.8380 0.8380 0.8370 0.8370
6.589223 0.8380 0.8400 0.8400 0.8400 0.8400
6.622000 0.8400 0.8380 0.8380 0.8370 0.8320
6.655223 0.8280 0.8200 0.8150 0.8070 0.7970
6.689000 0.7900 0.7870 0.7800 0.7700 0.7650
6.722223 0.7590 0.7550 0.7450 0.7250 0.7000
6.755000 0.6710 0.6560 0.6410 0.6260 0.6170
6.788223 0.6090 0.6010 0.5980 0.5960 0.5930
6.822000 0.5880 0.5810 0.5790 0.5780 0.5760
6.855223 0.5740 0.5710 0.5680 0.5660 0.5660
6.888000 0.5660 0.5660 0.5660 0.5640 0.5580
6.921223 0.5490 0.5410 0.5290 0.5190 0.5110
6.954000 0.5090 0.5000 0.4960 0.4930 0.4830
6.987223 0.4730 0.4610 0.4500 0.4430 0.4350
7.021000 0.4200 0.4110 0.4060 0.4000 0.3930
7.054223 0.3920 0.3880 0.3870 0.3850 0.3850
7.087000 0.3850 0.3870 0.3870 0.3880 0.3900
7.120223 0.3930 0.3950 0.3950 0.3970 0.3980
7.154000 0.4000 0.4010 0.4030 0.4030 0.4050
7.187223 0.4050 0.4050 0.4050 0.4030 0.4030
7.220000 0.4050 0.4080 0.4100 0.4130 0.4160
7.253223 0.4210 0.4350 0.4460 0.4560 0.4660
7.287000 0.4710 0.4810 0.4850 0.4880 0.4900
7.320223 0.4910 0.4960 0.5000 0.5030 0.5030
7.353000 0.5010 0.5000 0.4980 0.4980 0.4960
7.386223 0.4930 0.4910 0.4880 0.4850 0.4850
7.419000 0.4850 0.4850 0.4830 0.4830 0.4810
7.452223 0.4810 0.4800 0.4800 0.4800 0.4810
7.486000 0.4810 0.4810 0.4810 0.4810 0.4830
7.519223 0.4860 0.4880 0.4900 0.4900 0.4900
7.552000 0.4880 0.4860 0.4850 0.4830 0.4830
7.585223 0.4810 0.4810 0.4750 0.4680 0.4610
7.619000 0.4550 0.4480 0.4410 0.4360 0.4310
7.652223 0.4280 0.4260 0.4210 0.4200 0.4100
7.685000 0.3980 0.3930 0.3920 0.3900 0.3870
7.718223 0.3870 0.3850 0.3820 0.3800 0.3800
7.751000 0.3800 0.3820 0.3830 0.3850 0.3870
7.784223 0.3870 0.3900 0.3920 0.3930 0.3950
7.818000 0.3950 0.3950 0.3970 0.3980 0.3980
7.851223 0.3980 0.3970 0.3970 0.3930 0.3900
7.884000 0.3870 0.3830 0.3800 0.3780 0.3720
7.917223 0.3700 0.3620 0.3580 0.3520 0.3480
7.951000 0.3400 0.3350 0.3320 0.3280 0.3280
7.984223 0.3220 0.3170 0.3130 0.3080 0.3050
8.017000 0.3000 0.3000 0.2990 0.2970 0.2970
8.050223 0.2970 0.2970 0.2970 0.2990 0.2990
8.083000 0.2990 0.3000 0.3070 0.3120 0.3200
8.116223 0.3270 0.3280 0.3320 0.3380 0.3430
8.150000 0.3470 0.3500 0.3600 0.3620 0.3650
8.183223 0.3700 0.3730 0.3780 0.3820 0.3830
8.216000 0.3830 0.3850 0.3870 0.3900 0.3920
8.249223 0.3980 0.4000 0.4010 0.4030 0.4030
8.283000 0.4060 0.4080 0.4110 0.4130 0.4180
8.316223 0.4250 0.4310 0.4330 0.4350 0.4360
8.349000 0.4380 0.4400 0.4400 0.4410 0.4410
8.382223 0.4430 0.4460 0.4460 0.4480 0.4480
8.416000 0.4480 0.4460 0.4410 0.4400 0.4350
8.449223 0.4330 0.4330 0.4350 0.4350 0.4350
8.482000 0.4350 0.4330 0.4300 0.4300 0.4280
8.515223 0.4280 0.4250 0.4210 0.4160 0.4110
8.548000 0.4080 0.4010 0.3980 0.3880 0.3800
8.581223 0.3730 0.3650 0.3580 0.3480 0.3400
8.615000 0.3280 0.3220 0.3150 0.3070 0.2990
8.648223 0.2920 0.2870 0.2800 0.2720 0.2670
8.681000 0.2620 0.2590 0.2520 0.2500 0.2470
8.714223 0.2420 0.2420 0.2390 0.2390 0.2370
8.748000 0.2350 0.2350 0.2320 0.2320 0.2320
8.781223 0.2300 0.2300 0.2300 0.2290 0.2240
8.814000 0.2200 0.2190 0.2190 0.2170 0.2150
8.847223 0.2140 0.2140 0.2140 0.2140 0.2140
8.880000 0.2120 0.2120 0.2100 0.2050 0.2020
8.913223 0.2000 0.1970 0.1890 0.1790 0.1710
8.947000 0.1660 0.1620 0.1570 0.1470 0.1460
8.980223 0.1420 0.1410 0.1390 0.1340 0.1310
9.013000 0.1290 0.1270 0.1270 0.1260 0.1220
9.046223 0.1210 0.1170 0.1160 0.1160 0.1160
9.080000 0.1170 0.1170 0.1170 0.1190 0.1190
9.113223 0.1210 0.1210 0.1210 0.1210 0.1210
9.146000 0.1190 0.1170 0.1170 0.1170 0.1160
9.179223 0.1160 0.1140 0.1140 0.1140 0.1120
9.213000 0.1120 0.1120 0.1120 0.1120 0.1120
9.246223 0.1120 0.1120 0.1120 0.1110 0.1110
9.279000 0.1110 0.1110 0.1110 0.1110 0.1110
9.312223 0.1110 0.1110 0.1110 0.1110 0.1090
9.345000 0.1070 0.1060 0.1060 0.1060 0.1020
9.378223 0.1020 0.1020 0.1020 0.1010 0.1010
9.412000 0.1010 0.0990 0.0990 0.0980 0.0960
9.445223 0.0960 0.0940 0.0940 0.0930 0.0910
9.478000 0.0880 0.0880 0.0830 0.0810 0.0790
9.511223 0.0760 0.0730 0.0690 0.0660 0.0630
9.545000 0.0590 0.0540 0.0530 0.0510 0.0510
9.578223 0.0510 0.0510 0.0510 0.0510 0.0530
9.611000 0.0540 0.0540 0.0560 0.0580 0.0590
9.644223 0.0610 0.0640 0.0690 0.0730 0.0810
9.677000 0.0880 0.0960 0.0990 0.1010 0.1010
9.710223 0.1090 0.1160 0.1210 0.1360 0.1460
9.744000 0.1510 0.1520 0.1590 0.1660 0.1740
9.777223 0.1810 0.1860 0.1910 0.1990 0.2070
9.810000 0.2190 0.2290 0.2350 0.2390 0.2420
9.843223 0.2450 0.2500 0.2520 0.2600 0.2720
9.877000 0.2820 0.2900 0.2990 0.3000 0.3000
9.910223 0.3020 0.3100 0.3120 0.3150 0.3200
9.943000 0.3220 0.3270 0.3280 0.3300 0.3320
9.976223 0.3330 0.3350 0.3380 0.3430 0.3480
10.009000 0.3550 0.3600 0.3620 0.3630 0.3650
10.042223 0.3720 0.3780 0.3850 0.3880 0.3920
10.076000 0.3980 0.4000 0.4080 0.4180 0.4260
10.109223 0.4360 0.4410 0.4480 0.4510 0.4550
10.142000 0.4630 0.4710 0.4800 0.4880 0.4900
10.175223 0.4910 0.4950 0.4980 0.5030 0.5080
10.209000 0.5110 0.5130 0.5130 0.5140 0.5140
10.242223 0.5160 0.5160 0.5160 0.5160 0.5160
10.275000 0.5160 0.5160 0.5160 0.5160 0.5160
10.308223 0.5160 0.5140 0.5130 0.5110 0.5090
10.342000 0.5060 0.5060 0.5030 0.5030 0.5010
10.375223 0.5010 0.5010 0.5000 0.5000 0.4980
10.408000 0.4980 0.4960 0.4960 0.4960 0.4960
10.441223 0.4980 0.4980 0.5000 0.5010 0.5010
10.474000 0.5010 0.5010 0.5010 0.5010 0.5010
10.507223 0.5030 0.5030 0.5030 0.5060 0.5060
10.541000 0.5090 0.5130 0.5160 0.5190 0.5260
10.574223 0.5280 0.5280 0.5280 0.5290 0.5310
10.607000 0.5330 0.5340 0.5360 0.5360 0.5360
10.640223 0.5340 0.5330 0.5330 0.5290 0.5280
10.674000 0.5260 0.5240 0.5230 0.5210 0.5190
10.707223 0.5180 0.5140 0.5130 0.5110 0.5110
10.740000 0.5110 0.5110 0.5110 0.5130 0.5130
10.773223 0.5130 0.5130 0.5130 0.5130 0.5140
10.806000 0.5160 0.5180 0.5190 0.5230 0.5290
10.839223 0.5330 0.5340 0.5340 0.5340 0.5360
10.873000 0.5380 0.5390 0.5410 0.5430 0.5460
10.906223 0.5460 0.5480 0.5480 0.5510 0.5510
10.939000 0.5610 0.5680 0.5680 0.5690 0.5710
10.972223 0.5710 0.5730 0.5730 0.5740 0.5740
11.006000 0.5780 0.5830 0.5830 0.5840 0.5860
11.039223 0.5880 0.5880 0.5880 0.5860 0.5860
11.072000 0.5860 0.5880 0.5880 0.5880 0.5890
11.105223 0.5890 0.5910 0.5910 0.5910 0.5910
11.139000 0.5890 0.5890 0.5890 0.5890 0.5890
11.172223 0.5890 0.5880 0.5830 0.5810 0.5790
11.205000 0.5780 0.5780 0.5780 0.5780 0.5780
11.238223 0.5760 0.5760 0.5760 0.5760 0.5760
11.271000 0.5760 0.5780 0.5780 0.5780 0.5780
11.304223 0.5780 0.5780 0.5780 0.5790 0.5790
11.338000 0.5790 0.5790 0.5810 0.5840 0.5880
11.371223 0.5910 0.5940 0.5960 0.5980 0.5990
11.404000 0.6010 0.6020 0.6040 0.6060 0.6110
11.437223 0.6120 0.6190 0.6220 0.6260 0.6270
11.471000 0.6310 0.6320 0.6320 0.6320 0.6340
11.504223 0.6340 0.6360 0.6370 0.6390 0.6390
11.537000 0.6410 0.6410 0.6410 0.6410 0.6390
11.570223 0.6390 0.6370 0.6370 0.6360 0.6360
11.603000 0.6370 0.6370 0.6370 0.6370 0.6370
11.636223 0.6360 0.6320 0.6310 0.6310 0.6310
11.670000 0.6310 0.6310 0.6320 0.6320 0.6340
11.703223 0.6340 0.6340 0.6340 0.6360 0.6360
11.736000 0.6360 0.6360 0.6360 0.6340 0.6340
11.769223 0.6340 0.6340 0.6360 0.6390 0.6390
11.803000 0.6390 0.6390 0.6390 0.6410 0.6420
11.836223 0.6490 0.6490 0.6490 0.6490 0.6470
11.869000 0.6470 0.6470 0.6460 0.6460 0.6460
11.902223 0.6460 0.6460 0.6440 0.6440 0.6420
11.935000 0.6390 0.6370 0.6320 0.6310 0.6310
11.968223 0.6310 0.6310 0.6320 0.6320 0.6320
12.002000 0.6310 0.6290 0.6260 0.6240 0.6240
12.035223 0.6220 0.6220 0.6210 0.6210 0.6210
12.068000 0.6190 0.6170 0.6170 0.6170 0.6160
12.101223 0.6120 0.6090 0.6070 0.6060 0.6040
12.135000 0.6020 0.5930 0.5910 0.5880 0.5860
12.168223 0.5840 0.5810 0.5730 0.5690 0.5680
12.201000 0.5660 0.5660 0.5660 0.5660 0.5640
12.234223 0.5630 0.5630 0.5610 0.5590 0.5590
12.268000 0.5590 0.5590 0.5590 0.5590 0.5610
12.301223 0.5630 0.5640 0.5660 0.5680 0.5690
12.334000 0.5710 0.5730 0.5810 0.5860 0.5880
12.367223 0.5890 0.5910 0.5930 0.5940 0.5940
12.400000 0.5960 0.5980 0.6010 0.6020 0.6040
12.433223 0.6070 0.6070 0.6110 0.6160 0.6170
12.467000 0.6190 0.6210 0.6220 0.6240 0.6260
12.500223 0.6270 0.6290 0.6290 0.6310 0.6320
12.533000 0.6320 0.6340 0.6360 0.6360 0.6370
12.566223 0.6410 0.6410 0.6410 0.6420 0.6420
12.600000 0.6420 0.6440 0.6460 0.6470 0.6470
12.633223 0.6490 0.6490 0.6510 0.6520 0.6520
12.666000 0.6520 0.6520 0.6540 0.6540 0.6540
12.699223 0.6540 0.6540 0.6520 0.6520 0.6520
12.732000 0.6520 0.6520 0.6570 0.6590 0.6590
12.765223 0.6610 0.6610 0.6610 0.6590 0.6590
12.799000 0.6590 0.6590 0.6590 0.6590 0.6590
12.832223 0.6590 0.6610 0.6620 0.6660 0.6660
12.865000 0.6660 0.6670 0.6670 0.6670 0.6670
12.898223 0.6670 0.6690 0.6690 0.6690 0.6690
12.932000 0.6690 0.6670 0.6670 0.6660 0.6660
12.965223 0.6660 0.6660 0.6670 0.6670 0.6660
12.998000 0.6660 0.6660 0.6640 0.6620 0.6620
13.031223 0.6620 0.6620 0.6620 0.6620 0.6610
13.065000 0.6610 0.6590 0.6570 0.6570 0.6570
13.098223 0.6570 0.6570 0.6570 0.6570 0.6560
13.131000 0.6560 0.6560 0.6520 0.6520 0.6510
13.164223 0.6510 0.6510 0.6470 0.6470 0.6460
13.197000 0.6440 0.6420 0.6410 0.6410 0.6410
13.230223 0.6410 0.6410 0.6410 0.6390 0.6390
13.264000 0.6390 0.6390 0.6410 0.6410 0.6410
13.297223 0.6410 0.6390 0.6390 0.6370 0.6370
13.330000 0.6370 0.6370 0.6390 0.6420 0.6420
13.363223 0.6420 0.6440 0.6440 0.6440 0.6440
13.397000 0.6420 0.6420 0.6420 0.6410 0.6390
13.430223 0.6390 0.6410 0.6410 0.6420 0.6420
13.463000 0.6440 0.6440 0.6440 0.6440 0.6420
13.496223 0.6420 0.6440 0.6460 0.6490 0.6490
13.529000 0.6490 0.6510 0.6520 0.6540 0.6560
13.562223 0.6570 0.6570 0.6570 0.6570 0.6590
13.596000 0.6590 0.6610 0.6620 0.6620 0.6620
13.629223 0.6620 0.6620 0.6620 0.6620 0.6620
13.662000 0.6640 0.6640 0.6660 0.6660 0.6660
13.695223 0.6660 0.6640 0.6640 0.6620 0.6620
13.729000 0.6620 0.6620 0.6690 0.6690 0.6690
13.762223 0.6670 0.6670 0.6670 0.6670 0.6670
13.795000 0.6690 0.6690 0.6690 0.6690 0.6690
13.828223 0.6690 0.6710 0.6710 0.6690 0.6690
13.861000 0.6670 0.6670 0.6690 0.6690 0.6710
13.894223 0.6710 0.6710 0.6710 0.6710 0.6710
13.928000 0.6720 0.6720 0.6710 0.6690 0.6690
13.961223 0.6690 0.6690 0.6690 0.6690 0.6690
13.994000 0.6690 0.6690 0.6710 0.6710 0.6710
14.027223 0.6710 0.6720 0.6740 0.6740 0.6740
14.061000 0.6740 0.6740 0.6720 0.6710 0.6670
14.094223 0.6670 0.6640 0.6640 0.6660 0.6690
14.127000 0.6690 0.6670 0.6640 0.6640 0.6670
14.160223 0.6690 0.6690 0.6690 0.6670 0.6640
14.194000 0.6620 0.6620 0.6620 0.6620 0.6610
14.227223 0.6610 0.6620 0.6620 0.6620 0.6610
14.260000 0.6610 0.6610 0.6610 0.6610 0.6610
14.293223 0.6610 0.6610 0.6590 0.6590 0.6590
14.326000 0.6590 0.6590 0.6570 0.6570 0.6560
14.359223 0.6560 0.6540 0.6540 0.6520 0.6520
14.393000 0.6520 0.6520 0.6520 0.6540 0.6540
14.426223 0.6570 0.6590 0.6590 0.6570 0.6570
14.459000 0.6560 0.6560 0.6560 0.6560 0.6570
14.492223 0.6570 0.6590 0.6590 0.6610 0.6620
14.526000 0.6620 0.6570 0.6560 0.6540 0.6540
14.559223 0.6560 0.6570 0.6620 0.6620 0.6620
14.592000 0.6640 0.6640 0.6640 0.6640 0.6660
14.625223 0.6670 0.6690 0.6690 0.6690 0.6690
14.658000 0.6690 0.6690 0.6690 0.6720 0.6740
14.691223 0.6740 0.6740 0.6740 0.6740 0.6760
14.725000 0.6760 0.6760 0.6760 0.6760 0.6740
14.758223 0.6740 0.6720 0.6720 0.6740 0.6760
14.791000 0.6770 0.6790 0.6790 0.6810 0.6820
14.824223 0.6820 0.6820 0.6820 0.6810 0.6790
14.858000 0.6790 0.6770 0.6760 0.6760 0.6760
14.891223 0.6760 0.6770 0.6790 0.6790 0.6790
14.924000 0.6810 0.6810 0.6810 0.6820 0.6820
14.957223 0.6820 0.6810 0.6790 0.6760 0.6740
14.991000 0.6720 0.6720 0.6740 0.6740 0.6740
15.024223 0.6770 0.6770 0.6790 0.6790 0.6810
15.057000 0.6820 0.6840 0.6840 0.6840 0.6840
15.090223 0.6820 0.6820 0.6820 0.6840 0.6910
15.123000 0.6920 0.6920 0.6940 0.6960 0.6960
15.156223 0.6970 0.6990 0.6990 0.6990 0.6990
15.190000 0.6990 0.6990 0.6990 0.7000 0.7000
15.223223 0.7000 0.7000 0.7000 0.7000 0.7000
15.256000 0.7000 0.7000 0.7000 0.7000 0.7000
15.289223 0.7000 0.7020 0.7020 0.7020 0.7020
15.323000 0.7020 0.7040 0.7040 0.7040 0.7050
15.356223 0.7050 0.7040 0.7040 0.7040 0.7040
15.389000 0.7040 0.7040 0.7040 0.7050 0.7050
15.422223 0.7070 0.7090 0.7100 0.7100 0.7100
15.455000 0.7100 0.7090 0.7090 0.7090 0.7090
15.488223 0.7100 0.7120 0.7170 0.7190 0.7190
15.522000 0.7190 0.7190 0.7190 0.7200 0.7220
15.555223 0.7240 0.7250 0.7270 0.7270 0.7290
15.588000 0.7290 0.7290 0.7290 0.7290 0.7250
15.621223 0.7250 0.7240 0.7220 0.7220 0.7220
15.655000 0.7220 0.7200 0.7200 0.7200 0.7200
15.688223 0.7220 0.7220 0.7220 0.7220 0.7220
15.721000 0.7200 0.7200 0.7200 0.7200 0.7220
15.754223 0.7220 0.7220 0.7220 0.7240 0.7240
15.787000 0.7240 0.7240 0.7240 0.7250 0.7250
15.820223 0.7250 0.7250 0.7250 0.7270 0.7270
15.854000 0.7270 0.7270 0.7250 0.7220 0.7220
15.887223 0.7240 0.7250 0.7250 0.7270 0.7290
15.920000 0.7290 0.7250 0.7240 0.7220 0.7200
15.953223 0.7200 0.7200 0.7200 0.7200 0.7200
15.987000 0.7200 0.7220 0.7200
##END=
