##TITLE=DIMETHISOQUIN HYDROCHLORIDE
##JCAMP-DX=4.24
$$ By DXEDIT 1.05 (RS McDonald)
##DATA TYPE=INFRARED SPECTRUM
##CLASS=COBLENTZ III
##OWNER=COPYRIGHT (C) 1988 by COBLENTZ SOCIETY INC.
Collection (C) 2018 copyright by the U.S. Secretary of Commerce
on behalf of the United States of America. All rights reserved.
##DATE=1962/04/24
##NAMES=2-[(3-butyl-1-isoquinolinyl)oxy]-N,N-dimethylethanamine hydrochloride
3-BUTYL-1-(2-DIMETHYLAMINOETHOXY)ISOQUINOLINE HYDROCHLORIDE
##MOLFORM=C17 H25 Cl N2 O
##SOURCE REFERENCE=COBLENTZ NO. 5186
##$NIST ID=B6005186
##$NIST SOURCE=COBLENTZ
##$NIST IMAGE=cob5186
##SPECTROMETER/DATA SYSTEM=PERKIN-ELMER 21 (GRATING)
##INSTRUMENT PARAMETERS=FILTER AT ABOUT 10 MICRONS
##STATE=SOLID (1 mg / 200 mg KCl DISC) VS KCl
##PATH LENGTH=0.055 CM (THICKNESS)
$$ SPECTRAL FEATURE AT 998 CM^-^1 IS AN ARTIFACT CAUSED BY FILTER CHANGE
##SAMPLING PROCEDURE=TRANSMISSION
##RESOLUTION=2
##DATA PROCESSING=DIGITIZED BY COBLENTZ SOCIETY (BATCH I) FROM HARD COPY
##XUNITS=1/CM
##YUNITS=TRANSMITTANCE
##XFACTOR=1
##YFACTOR=1
##DELTAX=1
##FIRSTX=4000
##LASTX=663
##FIRSTY=0.9436
##MAXX=4000
##MINX=663
##MAXY=0.9574
##MINY=0.3278
##NPOINTS=3338
##XYDATA=(X++(Y..Y))
4000.000000 0.9436 0.9435 0.9435 0.9434 0.9434
3995.000000 0.9433 0.9431 0.9433 0.9431 0.9431
3990.000000 0.9430 0.9430 0.9429 0.9429 0.9428
3985.000000 0.9428 0.9428 0.9427 0.9426 0.9425
3980.000000 0.9426 0.9425 0.9425 0.9423 0.9422
3975.000000 0.9421 0.9421 0.9422 0.9423 0.9421
3970.000000 0.9420 0.9421 0.9421 0.9420 0.9419
3965.000000 0.9419 0.9420 0.9419 0.9418 0.9418
3960.000000 0.9419 0.9419 0.9418 0.9417 0.9417
3955.000000 0.9418 0.9417 0.9418 0.9417 0.9417
3950.000000 0.9417 0.9417 0.9417 0.9416 0.9416
3945.000000 0.9416 0.9416 0.9416 0.9418 0.9419
3940.000000 0.9420 0.9422 0.9423 0.9424 0.9424
3935.000000 0.9427 0.9429 0.9429 0.9432 0.9434
3930.000000 0.9434 0.9437 0.9440 0.9442 0.9442
3925.000000 0.9445 0.9447 0.9450 0.9451 0.9452
3920.000000 0.9455 0.9456 0.9459 0.9460 0.9462
3915.000000 0.9464 0.9465 0.9467 0.9469 0.9470
3910.000000 0.9472 0.9474 0.9474 0.9476 0.9479
3905.000000 0.9479 0.9481 0.9483 0.9485 0.9486
3900.000000 0.9488 0.9489 0.9490 0.9493 0.9494
3895.000000 0.9495 0.9498 0.9499 0.9500 0.9503
3890.000000 0.9504 0.9504 0.9508 0.9509 0.9509
3885.000000 0.9512 0.9512 0.9514 0.9514 0.9515
3880.000000 0.9514 0.9515 0.9515 0.9515 0.9515
3875.000000 0.9515 0.9514 0.9514 0.9513 0.9513
3870.000000 0.9512 0.9512 0.9511 0.9511 0.9509
3865.000000 0.9510 0.9508 0.9508 0.9507 0.9507
3860.000000 0.9506 0.9505 0.9505 0.9504 0.9504
3855.000000 0.9502 0.9502 0.9501 0.9501 0.9500
3850.000000 0.9500 0.9499 0.9499 0.9498 0.9498
3845.000000 0.9496 0.9496 0.9495 0.9495 0.9494
3840.000000 0.9494 0.9493 0.9492 0.9490 0.9492
3835.000000 0.9490 0.9490 0.9489 0.9488 0.9488
3830.000000 0.9487 0.9486 0.9486 0.9487 0.9486
3825.000000 0.9487 0.9487 0.9487 0.9488 0.9488
3820.000000 0.9491 0.9489 0.9492 0.9491 0.9493
3815.000000 0.9493 0.9493 0.9494 0.9497 0.9497
3810.000000 0.9498 0.9499 0.9499 0.9501 0.9501
3805.000000 0.9502 0.9502 0.9503 0.9503 0.9504
3800.000000 0.9506 0.9506 0.9507 0.9507 0.9508
3795.000000 0.9508 0.9508 0.9509 0.9509 0.9512
3790.000000 0.9512 0.9513 0.9513 0.9513 0.9514
3785.000000 0.9514 0.9517 0.9515 0.9518 0.9517
3780.000000 0.9519 0.9519 0.9520 0.9521 0.9521
3775.000000 0.9523 0.9524 0.9525 0.9525 0.9526
3770.000000 0.9528 0.9528 0.9529 0.9528 0.9530
3765.000000 0.9531 0.9531 0.9531 0.9532 0.9532
3760.000000 0.9535 0.9535 0.9536 0.9536 0.9538
3755.000000 0.9537 0.9540 0.9540 0.9540 0.9541
3750.000000 0.9540 0.9541 0.9542 0.9542 0.9542
3745.000000 0.9542 0.9543 0.9543 0.9543 0.9543
3740.000000 0.9543 0.9543 0.9543 0.9543 0.9544
3735.000000 0.9544 0.9544 0.9544 0.9546 0.9544
3730.000000 0.9546 0.9546 0.9545 0.9545 0.9545
3725.000000 0.9545 0.9547 0.9547 0.9545 0.9548
3720.000000 0.9548 0.9547 0.9548 0.9548 0.9548
3715.000000 0.9549 0.9548 0.9548 0.9549 0.9549
3710.000000 0.9549 0.9550 0.9549 0.9550 0.9551
3705.000000 0.9551 0.9551 0.9551 0.9551 0.9551
3700.000000 0.9552 0.9552 0.9552 0.9552 0.9552
3695.000000 0.9553 0.9553 0.9553 0.9553 0.9553
3690.000000 0.9555 0.9553 0.9555 0.9555 0.9553
3685.000000 0.9553 0.9553 0.9553 0.9552 0.9552
3680.000000 0.9551 0.9552 0.9551 0.9551 0.9549
3675.000000 0.9548 0.9548 0.9547 0.9548 0.9548
3670.000000 0.9547 0.9546 0.9547 0.9547 0.9546
3665.000000 0.9544 0.9544 0.9546 0.9544 0.9543
3660.000000 0.9543 0.9542 0.9543 0.9543 0.9542
3655.000000 0.9541 0.9541 0.9542 0.9541 0.9539
3650.000000 0.9541 0.9541 0.9539 0.9539 0.9539
3645.000000 0.9538 0.9538 0.9537 0.9537 0.9537
3640.000000 0.9537 0.9537 0.9536 0.9535 0.9535
3635.000000 0.9535 0.9534 0.9534 0.9533 0.9532
3630.000000 0.9531 0.9529 0.9529 0.9528 0.9527
3625.000000 0.9526 0.9524 0.9524 0.9523 0.9522
3620.000000 0.9521 0.9520 0.9518 0.9518 0.9517
3615.000000 0.9516 0.9515 0.9514 0.9513 0.9512
3610.000000 0.9511 0.9510 0.9509 0.9509 0.9507
3605.000000 0.9506 0.9505 0.9504 0.9504 0.9503
3600.000000 0.9501 0.9500 0.9499 0.9499 0.9498
3595.000000 0.9496 0.9495 0.9494 0.9493 0.9490
3590.000000 0.9489 0.9488 0.9487 0.9486 0.9483
3585.000000 0.9481 0.9480 0.9477 0.9476 0.9474
3580.000000 0.9472 0.9470 0.9468 0.9466 0.9464
3575.000000 0.9463 0.9461 0.9458 0.9457 0.9455
3570.000000 0.9452 0.9450 0.9446 0.9444 0.9441
3565.000000 0.9439 0.9437 0.9433 0.9430 0.9427
3560.000000 0.9426 0.9421 0.9419 0.9418 0.9413
3555.000000 0.9412 0.9409 0.9406 0.9405 0.9400
3550.000000 0.9398 0.9396 0.9394 0.9391 0.9388
3545.000000 0.9386 0.9382 0.9380 0.9376 0.9373
3540.000000 0.9370 0.9367 0.9363 0.9360 0.9356
3535.000000 0.9353 0.9349 0.9346 0.9342 0.9339
3530.000000 0.9335 0.9330 0.9328 0.9323 0.9320
3525.000000 0.9318 0.9313 0.9310 0.9306 0.9303
3520.000000 0.9298 0.9291 0.9287 0.9281 0.9275
3515.000000 0.9269 0.9265 0.9259 0.9252 0.9247
3510.000000 0.9241 0.9237 0.9231 0.9225 0.9219
3505.000000 0.9215 0.9209 0.9203 0.9198 0.9192
3500.000000 0.9187 0.9180 0.9174 0.9168 0.9162
3495.000000 0.9154 0.9145 0.9138 0.9130 0.9121
3490.000000 0.9113 0.9104 0.9096 0.9089 0.9081
3485.000000 0.9073 0.9065 0.9055 0.9046 0.9038
3480.000000 0.9031 0.9023 0.9014 0.9005 0.8999
3475.000000 0.8990 0.8983 0.8975 0.8968 0.8963
3470.000000 0.8955 0.8950 0.8943 0.8937 0.8930
3465.000000 0.8925 0.8919 0.8912 0.8907 0.8902
3460.000000 0.8897 0.8892 0.8888 0.8883 0.8881
3455.000000 0.8876 0.8874 0.8869 0.8865 0.8863
3450.000000 0.8859 0.8856 0.8852 0.8850 0.8848
3445.000000 0.8844 0.8842 0.8840 0.8839 0.8836
3440.000000 0.8835 0.8834 0.8832 0.8830 0.8829
3435.000000 0.8826 0.8824 0.8823 0.8821 0.8820
3430.000000 0.8817 0.8815 0.8814 0.8811 0.8809
3425.000000 0.8808 0.8807 0.8806 0.8803 0.8802
3420.000000 0.8801 0.8798 0.8797 0.8796 0.8795
3415.000000 0.8794 0.8793 0.8792 0.8791 0.8789
3410.000000 0.8787 0.8786 0.8785 0.8784 0.8783
3405.000000 0.8783 0.8785 0.8787 0.8789 0.8791
3400.000000 0.8795 0.8797 0.8800 0.8804 0.8806
3395.000000 0.8810 0.8812 0.8815 0.8819 0.8824
3390.000000 0.8825 0.8829 0.8833 0.8835 0.8839
3385.000000 0.8841 0.8843 0.8846 0.8849 0.8851
3380.000000 0.8854 0.8856 0.8860 0.8862 0.8864
3375.000000 0.8868 0.8870 0.8872 0.8875 0.8877
3370.000000 0.8879 0.8882 0.8885 0.8887 0.8890
3365.000000 0.8893 0.8894 0.8897 0.8900 0.8902
3360.000000 0.8905 0.8910 0.8914 0.8918 0.8922
3355.000000 0.8926 0.8931 0.8934 0.8940 0.8944
3350.000000 0.8949 0.8953 0.8958 0.8963 0.8967
3345.000000 0.8972 0.8977 0.8980 0.8986 0.8989
3340.000000 0.8995 0.8998 0.9003 0.9007 0.9012
3335.000000 0.9016 0.9019 0.9024 0.9028 0.9034
3330.000000 0.9037 0.9041 0.9047 0.9052 0.9056
3325.000000 0.9061 0.9064 0.9070 0.9073 0.9079
3320.000000 0.9082 0.9086 0.9090 0.9095 0.9098
3315.000000 0.9101 0.9105 0.9108 0.9112 0.9116
3310.000000 0.9117 0.9122 0.9125 0.9129 0.9131
3305.000000 0.9135 0.9139 0.9142 0.9145 0.9149
3300.000000 0.9152 0.9155 0.9159 0.9162 0.9164
3295.000000 0.9168 0.9171 0.9176 0.9179 0.9182
3290.000000 0.9185 0.9188 0.9191 0.9195 0.9197
3285.000000 0.9200 0.9204 0.9206 0.9208 0.9211
3280.000000 0.9214 0.9218 0.9220 0.9224 0.9226
3275.000000 0.9229 0.9231 0.9235 0.9237 0.9240
3270.000000 0.9244 0.9246 0.9248 0.9251 0.9254
3265.000000 0.9258 0.9260 0.9264 0.9267 0.9270
3260.000000 0.9272 0.9276 0.9278 0.9280 0.9283
3255.000000 0.9286 0.9289 0.9291 0.9296 0.9298
3250.000000 0.9301 0.9304 0.9308 0.9311 0.9312
3245.000000 0.9316 0.9318 0.9321 0.9325 0.9326
3240.000000 0.9331 0.9334 0.9337 0.9340 0.9343
3235.000000 0.9345 0.9348 0.9352 0.9355 0.9358
3230.000000 0.9360 0.9364 0.9366 0.9368 0.9371
3225.000000 0.9376 0.9378 0.9381 0.9384 0.9388
3220.000000 0.9390 0.9392 0.9395 0.9397 0.9400
3215.000000 0.9402 0.9405 0.9407 0.9407 0.9409
3210.000000 0.9411 0.9415 0.9417 0.9419 0.9421
3205.000000 0.9423 0.9425 0.9428 0.9430 0.9432
3200.000000 0.9433 0.9435 0.9438 0.9440 0.9443
3195.000000 0.9445 0.9446 0.9449 0.9451 0.9453
3190.000000 0.9455 0.9458 0.9459 0.9461 0.9462
3185.000000 0.9463 0.9465 0.9466 0.9467 0.9468
3180.000000 0.9468 0.9470 0.9470 0.9472 0.9472
3175.000000 0.9473 0.9475 0.9475 0.9477 0.9478
3170.000000 0.9479 0.9480 0.9480 0.9481 0.9482
3165.000000 0.9483 0.9483 0.9484 0.9484 0.9485
3160.000000 0.9485 0.9486 0.9486 0.9488 0.9488
3155.000000 0.9489 0.9489 0.9490 0.9489 0.9489
3150.000000 0.9491 0.9492 0.9492 0.9492 0.9493
3145.000000 0.9493 0.9494 0.9494 0.9496 0.9495
3140.000000 0.9497 0.9498 0.9498 0.9487 0.9500
3135.000000 0.9500 0.9501 0.9501 0.9501 0.9501
3130.000000 0.9500 0.9500 0.9500 0.9499 0.9498
3125.000000 0.9498 0.9496 0.9495 0.9494 0.9493
3120.000000 0.9492 0.9490 0.9489 0.9488 0.9487
3115.000000 0.9485 0.9483 0.9481 0.9479 0.9475
3110.000000 0.9473 0.9471 0.9468 0.9465 0.9463
3105.000000 0.9460 0.9457 0.9455 0.9452 0.9449
3100.000000 0.9446 0.9441 0.9439 0.9432 0.9426
3095.000000 0.9421 0.9416 0.9411 0.9405 0.9401
3090.000000 0.9395 0.9390 0.9384 0.9378 0.9366
3085.000000 0.9350 0.9332 0.9313 0.9295 0.9273
3080.000000 0.9250 0.9229 0.9198 0.9169 0.9136
3075.000000 0.9106 0.9098 0.9091 0.9082 0.9075
3070.000000 0.9067 0.9059 0.9053 0.9045 0.9040
3065.000000 0.9033 0.9028 0.9022 0.9016 0.9010
3060.000000 0.9005 0.9000 0.8995 0.8989 0.8982
3055.000000 0.8976 0.8969 0.8961 0.8952 0.8944
3050.000000 0.8938 0.8930 0.8916 0.8901 0.8884
3045.000000 0.8868 0.8819 0.8771 0.8723 0.8668
3040.000000 0.8598 0.8527 0.8458 0.8413 0.8379
3035.000000 0.8347 0.8313 0.8299 0.8285 0.8272
3030.000000 0.8258 0.8247 0.8236 0.8226 0.8220
3025.000000 0.8218 0.8216 0.8214 0.8211 0.8209
3020.000000 0.8207 0.8204 0.8202 0.8199 0.8197
3015.000000 0.8194 0.8192 0.8189 0.8185 0.8182
3010.000000 0.8180 0.8177 0.8173 0.8168 0.8164
3005.000000 0.8160 0.8125 0.8084 0.8042 0.7995
3000.000000 0.7918 0.7841 0.7765 0.7688 0.7613
2995.000000 0.7536 0.7459 0.7383 0.7305 0.7229
2990.000000 0.7152 0.7076 0.6999 0.6922 0.6846
2985.000000 0.6769 0.6692 0.6615 0.6537 0.6462
2980.000000 0.6384 0.6307 0.6231 0.6154 0.6076
2975.000000 0.5999 0.5922 0.5845 0.5768 0.5691
2970.000000 0.5613 0.5537 0.5459 0.5381 0.5304
2965.000000 0.5247 0.5202 0.5157 0.5116 0.5107
2960.000000 0.5097 0.5087 0.5078 0.5067 0.5058
2955.000000 0.5049 0.5035 0.5024 0.5011 0.4997
2950.000000 0.4983 0.4967 0.4951 0.4931 0.4910
2945.000000 0.4887 0.4865 0.4842 0.4821 0.4799
2940.000000 0.4784 0.4769 0.4753 0.4746 0.4743
2935.000000 0.4739 0.4735 0.4734 0.4733 0.4727
2930.000000 0.4728 0.4728 0.4727 0.4733 0.4749
2925.000000 0.4766 0.4783 0.4817 0.4853 0.4889
2920.000000 0.4924 0.4959 0.4994 0.5031 0.5066
2915.000000 0.5102 0.5137 0.5173 0.5209 0.5246
2910.000000 0.5281 0.5317 0.5353 0.5389 0.5424
2905.000000 0.5460 0.5495 0.5531 0.5567 0.5603
2900.000000 0.5639 0.5675 0.5711 0.5746 0.5782
2895.000000 0.5818 0.5852 0.5874 0.5883 0.5893
2890.000000 0.5902 0.5912 0.5921 0.5931 0.5941
2885.000000 0.5950 0.5960 0.5968 0.5978 0.5987
2880.000000 0.5996 0.6006 0.6016 0.6025 0.6035
2875.000000 0.6046 0.6056 0.6069 0.6082 0.6097
2870.000000 0.6117 0.6149 0.6182 0.6215 0.6247
2865.000000 0.6281 0.6314 0.6347 0.6380 0.6413
2860.000000 0.6446 0.6478 0.6512 0.6545 0.6578
2855.000000 0.6611 0.6645 0.6678 0.6711 0.6744
2850.000000 0.6777 0.6810 0.6843 0.6877 0.6909
2845.000000 0.6943 0.6976 0.7010 0.7043 0.7077
2840.000000 0.7110 0.7143 0.7176 0.7210 0.7243
2835.000000 0.7276 0.7310 0.7343 0.7377 0.7411
2830.000000 0.7444 0.7477 0.7510 0.7544 0.7578
2825.000000 0.7612 0.7646 0.7679 0.7712 0.7746
2820.000000 0.7780 0.7814 0.7841 0.7863 0.7885
2815.000000 0.7904 0.7910 0.7916 0.7924 0.7930
2810.000000 0.7937 0.7943 0.7950 0.7958 0.7964
2805.000000 0.7968 0.7973 0.7975 0.7979 0.7983
2800.000000 0.7987 0.7990 0.7993 0.7997 0.7999
2795.000000 0.8002 0.8003 0.8004 0.8005 0.8005
2790.000000 0.8006 0.8006 0.8007 0.8008 0.8008
2785.000000 0.8009 0.8009 0.8010 0.8011 0.8011
2780.000000 0.8012 0.8013 0.8013 0.8013 0.8013
2775.000000 0.8013 0.8013 0.8013 0.8012 0.8013
2770.000000 0.8013 0.8015 0.8014 0.8012 0.8011
2765.000000 0.8011 0.8011 0.8011 0.8011 0.8010
2760.000000 0.8010 0.8010 0.8009 0.8009 0.8008
2755.000000 0.8006 0.8003 0.8001 0.7998 0.7995
2750.000000 0.7992 0.7989 0.7987 0.7983 0.7973
2745.000000 0.7967 0.7958 0.7946 0.7935 0.7924
2740.000000 0.7913 0.7902 0.7891 0.7876 0.7862
2735.000000 0.7845 0.7824 0.7803 0.7783 0.7762
2730.000000 0.7742 0.7721 0.7699 0.7676 0.7651
2725.000000 0.7613 0.7577 0.7541 0.7505 0.7468
2720.000000 0.7432 0.7396 0.7360 0.7323 0.7289
2715.000000 0.7253 0.7216 0.7181 0.7145 0.7108
2710.000000 0.7073 0.7037 0.7001 0.6965 0.6929
2705.000000 0.6893 0.6857 0.6822 0.6785 0.6749
2700.000000 0.6713 0.6677 0.6641 0.6605 0.6569
2695.000000 0.6532 0.6496 0.6460 0.6423 0.6387
2690.000000 0.6351 0.6315 0.6279 0.6242 0.6206
2685.000000 0.6170 0.6133 0.6097 0.6060 0.6025
2680.000000 0.5988 0.5951 0.5915 0.5879 0.5842
2675.000000 0.5806 0.5769 0.5733 0.5696 0.5660
2670.000000 0.5624 0.5586 0.5548 0.5514 0.5477
2665.000000 0.5440 0.5404 0.5366 0.5330 0.5293
2660.000000 0.5255 0.5220 0.5182 0.5146 0.5108
2655.000000 0.5073 0.5035 0.4999 0.4961 0.4924
2650.000000 0.4888 0.4851 0.4814 0.4777 0.4741
2645.000000 0.4704 0.4666 0.4629 0.4592 0.4556
2640.000000 0.4519 0.4482 0.4445 0.4406 0.4370
2635.000000 0.4334 0.4296 0.4259 0.4222 0.4184
2630.000000 0.4147 0.4110 0.4073 0.4035 0.3998
2625.000000 0.3961 0.3924 0.3887 0.3848 0.3811
2620.000000 0.3774 0.3735 0.3699 0.3662 0.3624
2615.000000 0.3586 0.3549 0.3511 0.3474 0.3435
2610.000000 0.3399 0.3373 0.3358 0.3340 0.3332
2605.000000 0.3326 0.3320 0.3315 0.3314 0.3312
2600.000000 0.3311 0.3278 0.3308 0.3307 0.3305
2595.000000 0.3304 0.3304 0.3303 0.3309 0.3314
2590.000000 0.3320 0.3328 0.3337 0.3374 0.3410
2585.000000 0.3447 0.3478 0.3512 0.3545 0.3578
2580.000000 0.3612 0.3645 0.3678 0.3711 0.3744
2575.000000 0.3777 0.3811 0.3844 0.3877 0.3910
2570.000000 0.3943 0.3976 0.4009 0.4043 0.4076
2565.000000 0.4110 0.4143 0.4177 0.4210 0.4243
2560.000000 0.4277 0.4311 0.4344 0.4377 0.4409
2555.000000 0.4443 0.4477 0.4511 0.4544 0.4578
2550.000000 0.4612 0.4645 0.4679 0.4713 0.4746
2545.000000 0.4780 0.4814 0.4847 0.4881 0.4915
2540.000000 0.4949 0.4982 0.5016 0.5050 0.5083
2535.000000 0.5118 0.5151 0.5185 0.5219 0.5253
2530.000000 0.5279 0.5292 0.5305 0.5311 0.5330
2525.000000 0.5318 0.5320 0.5322 0.5323 0.5322
2520.000000 0.5321 0.5315 0.5307 0.5303 0.5297
2515.000000 0.5290 0.5285 0.5279 0.5272 0.5264
2510.000000 0.5254 0.5240 0.5224 0.5208 0.5192
2505.000000 0.5175 0.5160 0.5144 0.5127 0.5109
2500.000000 0.5091 0.5073 0.5054 0.5036 0.5018
2495.000000 0.4999 0.4982 0.4963 0.4939 0.4914
2490.000000 0.4887 0.4862 0.4835 0.4808 0.4783
2485.000000 0.4755 0.4730 0.4703 0.4677 0.4650
2480.000000 0.4623 0.4596 0.4569 0.4550 0.4534
2475.000000 0.4520 0.4516 0.4510 0.4508 0.4505
2470.000000 0.4503 0.4502 0.4500 0.4499 0.4497
2465.000000 0.4497 0.4497 0.4499 0.4500 0.4503
2460.000000 0.4506 0.4513 0.4519 0.4532 0.4544
2455.000000 0.4565 0.4586 0.4616 0.4657 0.4698
2450.000000 0.4737 0.4777 0.4817 0.4856 0.4895
2445.000000 0.4936 0.4976 0.5015 0.5055 0.5094
2440.000000 0.5135 0.5174 0.5213 0.5254 0.5294
2435.000000 0.5335 0.5375 0.5415 0.5454 0.5495
2430.000000 0.5535 0.5576 0.5616 0.5656 0.5696
2425.000000 0.5736 0.5777 0.5817 0.5857 0.5898
2420.000000 0.5938 0.5979 0.6019 0.6060 0.6100
2415.000000 0.6141 0.6181 0.6222 0.6262 0.6302
2410.000000 0.6343 0.6384 0.6424 0.6465 0.6506
2405.000000 0.6546 0.6587 0.6628 0.6668 0.6709
2400.000000 0.6749 0.6790 0.6831 0.6872 0.6913
2395.000000 0.6954 0.6995 0.7036 0.7077 0.7118
2390.000000 0.7159 0.7200 0.7241 0.7275 0.7307
2385.000000 0.7330 0.7348 0.7365 0.7377 0.7391
2380.000000 0.7400 0.7408 0.7415 0.7421 0.7426
2375.000000 0.7431 0.7437 0.7442 0.7447 0.7452
2370.000000 0.7457 0.7463 0.7468 0.7473 0.7478
2365.000000 0.7483 0.7488 0.7493 0.7500 0.7506
2360.000000 0.7515 0.7524 0.7534 0.7542 0.7552
2355.000000 0.7563 0.7574 0.7594 0.7613 0.7631
2350.000000 0.7651 0.7670 0.7688 0.7707 0.7727
2345.000000 0.7745 0.7765 0.7784 0.7800 0.7820
2340.000000 0.7838 0.7855 0.7874 0.7892 0.7910
2335.000000 0.7925 0.7942 0.7959 0.7974 0.7991
2330.000000 0.8007 0.8024 0.8040 0.8057 0.8073
2325.000000 0.8090 0.8106 0.8121 0.8140 0.8156
2320.000000 0.8174 0.8192 0.8207 0.8226 0.8242
2315.000000 0.8260 0.8277 0.8293 0.8310 0.8327
2310.000000 0.8343 0.8359 0.8376 0.8391 0.8408
2305.000000 0.8424 0.8440 0.8456 0.8473 0.8489
2300.000000 0.8506 0.8522 0.8540 0.8556 0.8573
2295.000000 0.8590 0.8606 0.8623 0.8640 0.8657
2290.000000 0.8673 0.8688 0.8695 0.8703 0.8710
2285.000000 0.8716 0.8725 0.8732 0.8739 0.8746
2280.000000 0.8753 0.8760 0.8769 0.8776 0.8784
2275.000000 0.8792 0.8797 0.8806 0.8814 0.8821
2270.000000 0.8828 0.8834 0.8842 0.8850 0.8856
2265.000000 0.8863 0.8870 0.8878 0.8884 0.8892
2260.000000 0.8899 0.8906 0.8914 0.8920 0.8929
2255.000000 0.8936 0.8943 0.8949 0.8956 0.8963
2250.000000 0.8970 0.8978 0.8984 0.8991 0.8998
2245.000000 0.9003 0.9012 0.9018 0.9026 0.9032
2240.000000 0.9039 0.9045 0.9049 0.9052 0.9055
2235.000000 0.9058 0.9061 0.9064 0.9067 0.9069
2230.000000 0.9072 0.9075 0.9077 0.9080 0.9084
2225.000000 0.9086 0.9088 0.9091 0.9094 0.9096
2220.000000 0.9099 0.9102 0.9103 0.9106 0.9108
2215.000000 0.9111 0.9112 0.9117 0.9120 0.9126
2210.000000 0.9133 0.9138 0.9144 0.9149 0.9155
2205.000000 0.9163 0.9169 0.9176 0.9183 0.9191
2200.000000 0.9199 0.9206 0.9214 0.9220 0.9229
2195.000000 0.9237 0.9245 0.9252 0.9255 0.9258
2190.000000 0.9258 0.9260 0.9262 0.9263 0.9265
2185.000000 0.9267 0.9268 0.9270 0.9272 0.9273
2180.000000 0.9274 0.9277 0.9279 0.9280 0.9282
2175.000000 0.9284 0.9285 0.9287 0.9289 0.9289
2170.000000 0.9289 0.9289 0.9289 0.9290 0.9289
2165.000000 0.9290 0.9290 0.9291 0.9291 0.9290
2160.000000 0.9292 0.9291 0.9292 0.9292 0.9293
2155.000000 0.9293 0.9293 0.9294 0.9295 0.9295
2150.000000 0.9294 0.9294 0.9295 0.9296 0.9295
2145.000000 0.9296 0.9297 0.9297 0.9297 0.9297
2140.000000 0.9297 0.9297 0.9296 0.9295 0.9295
2135.000000 0.9295 0.9295 0.9295 0.9295 0.9295
2130.000000 0.9295 0.9294 0.9295 0.9297 0.9299
2125.000000 0.9302 0.9304 0.9306 0.9308 0.9311
2120.000000 0.9313 0.9316 0.9318 0.9321 0.9324
2115.000000 0.9326 0.9329 0.9331 0.9333 0.9336
2110.000000 0.9338 0.9340 0.9343 0.9345 0.9348
2105.000000 0.9350 0.9353 0.9356 0.9359 0.9362
2100.000000 0.9363 0.9366 0.9369 0.9373 0.9376
2095.000000 0.9378 0.9381 0.9383 0.9386 0.9388
2090.000000 0.9392 0.9395 0.9396 0.9399 0.9402
2085.000000 0.9406 0.9408 0.9411 0.9413 0.9415
2080.000000 0.9417 0.9419 0.9421 0.9423 0.9425
2075.000000 0.9427 0.9429 0.9429 0.9433 0.9434
2070.000000 0.9437 0.9439 0.9440 0.9442 0.9444
2065.000000 0.9446 0.9449 0.9450 0.9453 0.9455
2060.000000 0.9456 0.9458 0.9460 0.9463 0.9464
2055.000000 0.9466 0.9468 0.9468 0.9470 0.9470
2050.000000 0.9472 0.9473 0.9473 0.9475 0.9476
2045.000000 0.9476 0.9478 0.9480 0.9481 0.9481
2040.000000 0.9483 0.9484 0.9484 0.9486 0.9487
2035.000000 0.9489 0.9489 0.9490 0.9491 0.9491
2030.000000 0.9492 0.9492 0.9491 0.9491 0.9491
2025.000000 0.9492 0.9491 0.9491 0.9491 0.9491
2020.000000 0.9491 0.9491 0.9491 0.9490 0.9491
2015.000000 0.9491 0.9490 0.9490 0.9490 0.9491
2010.000000 0.9489 0.9489 0.9490 0.9489 0.9489
2005.000000 0.9488 0.9489 0.9488 0.9487 0.9489
2000.000000 0.9489 0.9489 0.9490 0.9490 0.9491
1995.000000 0.9492 0.9493 0.9494 0.9495 0.9494
1990.000000 0.9495 0.9494 0.9493 0.9493 0.9493
1985.000000 0.9489 0.9484 0.9476 0.9468 0.9458
1980.000000 0.9447 0.9436 0.9426 0.9418 0.9409
1975.000000 0.9402 0.9394 0.9386 0.9379 0.9374
1970.000000 0.9370 0.9369 0.9368 0.9371 0.9373
1965.000000 0.9376 0.9379 0.9385 0.9390 0.9398
1960.000000 0.9403 0.9408 0.9412 0.9415 0.9419
1955.000000 0.9423 0.9427 0.9431 0.9434 0.9439
1950.000000 0.9443 0.9443 0.9443 0.9442 0.9441
1945.000000 0.9441 0.9440 0.9441 0.9442 0.9442
1940.000000 0.9444 0.9446 0.9446 0.9448 0.9449
1935.000000 0.9450 0.9452 0.9453 0.9454 0.9455
1930.000000 0.9457 0.9458 0.9459 0.9461 0.9462
1925.000000 0.9464 0.9465 0.9467 0.9468 0.9471
1920.000000 0.9472 0.9473 0.9476 0.9477 0.9480
1915.000000 0.9481 0.9483 0.9485 0.9487 0.9488
1910.000000 0.9490 0.9491 0.9494 0.9495 0.9498
1905.000000 0.9499 0.9501 0.9503 0.9505 0.9507
1900.000000 0.9509 0.9511 0.9514 0.9516 0.9519
1895.000000 0.9521 0.9523 0.9525 0.9528 0.9530
1890.000000 0.9533 0.9535 0.9537 0.9540 0.9542
1885.000000 0.9546 0.9549 0.9553 0.9556 0.9559
1880.000000 0.9561 0.9565 0.9567 0.9572 0.9573
1875.000000 0.9574 0.9574 0.9573 0.9573 0.9574
1870.000000 0.9572 0.9572 0.9572 0.9571 0.9570
1865.000000 0.9570 0.9569 0.9567 0.9566 0.9564
1860.000000 0.9561 0.9558 0.9555 0.9553 0.9551
1855.000000 0.9547 0.9545 0.9542 0.9539 0.9536
1850.000000 0.9533 0.9531 0.9528 0.9526 0.9522
1845.000000 0.9517 0.9514 0.9510 0.9506 0.9502
1840.000000 0.9498 0.9493 0.9489 0.9485 0.9481
1835.000000 0.9477 0.9472 0.9467 0.9463 0.9460
1830.000000 0.9456 0.9452 0.9450 0.9448 0.9449
1825.000000 0.9448 0.9447 0.9449 0.9451 0.9459
1820.000000 0.9467 0.9475 0.9483 0.9489 0.9496
1815.000000 0.9502 0.9508 0.9514 0.9517 0.9519
1810.000000 0.9519 0.9520 0.9521 0.9523 0.9523
1805.000000 0.9524 0.9526 0.9526 0.9528 0.9529
1800.000000 0.9530 0.9530 0.9529 0.9528 0.9527
1795.000000 0.9526 0.9524 0.9523 0.9522 0.9521
1790.000000 0.9520 0.9518 0.9517 0.9516 0.9515
1785.000000 0.9514 0.9514 0.9514 0.9514 0.9513
1780.000000 0.9513 0.9513 0.9512 0.9512 0.9512
1775.000000 0.9511 0.9511 0.9511 0.9511 0.9510
1770.000000 0.9510 0.9510 0.9509 0.9509 0.9508
1765.000000 0.9507 0.9505 0.9505 0.9505 0.9504
1760.000000 0.9503 0.9501 0.9501 0.9501 0.9499
1755.000000 0.9496 0.9492 0.9489 0.9488 0.9484
1750.000000 0.9482 0.9479 0.9475 0.9471 0.9468
1745.000000 0.9465 0.9463 0.9461 0.9460 0.9459
1740.000000 0.9458 0.9457 0.9455 0.9453 0.9452
1735.000000 0.9452 0.9452 0.9451 0.9451 0.9451
1730.000000 0.9450 0.9450 0.9450 0.9450 0.9449
1725.000000 0.9449 0.9448 0.9447 0.9444 0.9442
1720.000000 0.9441 0.9439 0.9436 0.9435 0.9433
1715.000000 0.9432 0.9430 0.9428 0.9428 0.9428
1710.000000 0.9427 0.9427 0.9426 0.9426 0.9425
1705.000000 0.9425 0.9425 0.9425 0.9427 0.9428
1700.000000 0.9430 0.9430 0.9432 0.9433 0.9435
1695.000000 0.9435 0.9434 0.9434 0.9434 0.9434
1690.000000 0.9433 0.9432 0.9427 0.9421 0.9416
1685.000000 0.9409 0.9397 0.9381 0.9366 0.9351
1680.000000 0.9335 0.9319 0.9297 0.9274 0.9250
1675.000000 0.9228 0.9208 0.9187 0.9168 0.9149
1670.000000 0.9133 0.9116 0.9100 0.9087 0.9076
1665.000000 0.9065 0.9054 0.9043 0.9030 0.9017
1660.000000 0.9004 0.8986 0.8967 0.8939 0.8866
1655.000000 0.8768 0.8667 0.8566 0.8464 0.8363
1650.000000 0.8262 0.8171 0.8147 0.8122 0.8095
1645.000000 0.7953 0.7771 0.7385 0.6892 0.6390
1640.000000 0.5890 0.5388 0.4886 0.4408 0.4088
1635.000000 0.4061 0.4055 0.4055 0.4227 0.4487
1630.000000 0.4758 0.5030 0.5302 0.5574 0.5848
1625.000000 0.6120 0.6395 0.6669 0.6942 0.7217
1620.000000 0.7492 0.7767 0.8043 0.8305 0.8405
1615.000000 0.8446 0.8477 0.8483 0.8489 0.8496
1610.000000 0.8498 0.8358 0.8086 0.7787 0.7488
1605.000000 0.7187 0.6886 0.6584 0.6294 0.6161
1600.000000 0.6159 0.6200 0.6321 0.6479 0.6638
1595.000000 0.6797 0.6955 0.7097 0.7169 0.7172
1590.000000 0.7068 0.6619 0.5910 0.5198 0.4488
1585.000000 0.3965 0.3959 0.3927 0.4004 0.4312
1580.000000 0.4699 0.5090 0.5478 0.5867 0.6258
1575.000000 0.6649 0.7040 0.7404 0.7655 0.7780
1570.000000 0.7881 0.7981 0.8078 0.8172 0.8260
1565.000000 0.8347 0.8418 0.8471 0.8524 0.8577
1560.000000 0.8634 0.8692 0.8740 0.8777 0.8795
1555.000000 0.8803 0.8809 0.8815 0.8821 0.8828
1550.000000 0.8834 0.8844 0.8855 0.8867 0.8879
1545.000000 0.8891 0.8905 0.8918 0.8931 0.8945
1540.000000 0.8959 0.8972 0.8985 0.8996 0.9005
1535.000000 0.9014 0.9024 0.9032 0.9038 0.9043
1530.000000 0.9047 0.9047 0.9047 0.9047 0.9046
1525.000000 0.9053 0.9041 0.9036 0.9031 0.9021
1520.000000 0.9004 0.8980 0.8955 0.8915 0.8872
1515.000000 0.8779 0.8554 0.8189 0.7723 0.7258
1510.000000 0.6792 0.6325 0.5857 0.5714 0.5729
1505.000000 0.5735 0.5953 0.6176 0.6382 0.6475
1500.000000 0.6481 0.6498 0.6392 0.6327 0.6261
1495.000000 0.6196 0.6130 0.6087 0.6053 0.6046
1490.000000 0.6152 0.6299 0.6446 0.6594 0.6741
1485.000000 0.6889 0.7037 0.7185 0.7313 0.7337
1480.000000 0.7341 0.7341 0.7336 0.7256 0.7101
1475.000000 0.6937 0.6773 0.6610 0.6445 0.6281
1470.000000 0.6116 0.5884 0.5768 0.5675 0.5622
1465.000000 0.5597 0.5565 0.5582 0.5579 0.5578
1460.000000 0.5583 0.5596 0.5608 0.5627 0.5693
1455.000000 0.5766 0.5840 0.5915 0.5989 0.6063
1450.000000 0.6137 0.6211 0.6286 0.6361 0.6435
1445.000000 0.6505 0.6523 0.6517 0.6534 0.6537
1440.000000 0.6519 0.6479 0.6441 0.6402 0.6363
1435.000000 0.6325 0.6287 0.6256 0.6214 0.6194
1430.000000 0.6200 0.6294 0.6423 0.6552 0.6681
1425.000000 0.6801 0.6851 0.6846 0.6856 0.6833
1420.000000 0.6645 0.6330 0.6013 0.5697 0.5380
1415.000000 0.5063 0.4746 0.4426 0.4111 0.4015
1410.000000 0.4141 0.4430 0.4720 0.5010 0.5300
1405.000000 0.5537 0.5605 0.5633 0.5656 0.5608
1400.000000 0.5671 0.4878 0.4455 0.4184 0.4182
1395.000000 0.4166 0.4326 0.4623 0.4921 0.5219
1390.000000 0.5518 0.5816 0.6116 0.6415 0.6688
1385.000000 0.6845 0.6936 0.6981 0.7028 0.7081
1380.000000 0.7134 0.7188 0.7244 0.7304 0.7394
1375.000000 0.7508 0.7634 0.7691 0.7709 0.7715
1370.000000 0.7725 0.7720 0.7719 0.7703 0.7653
1365.000000 0.7573 0.7375 0.6682 0.5928 0.5175
1360.000000 0.4442 0.4080 0.4087 0.4108 0.4312
1355.000000 0.4567 0.4828 0.5085 0.5344 0.5603
1350.000000 0.5863 0.6115 0.6239 0.6253 0.6267
1345.000000 0.6260 0.6240 0.6192 0.6125 0.6043
1340.000000 0.5828 0.5572 0.5372 0.5081 0.4720
1335.000000 0.4357 0.3994 0.3693 0.3573 0.3452
1330.000000 0.3382 0.3342 0.3328 0.3314 0.3325
1325.000000 0.3344 0.3483 0.3688 0.3894 0.4085
1320.000000 0.4157 0.4173 0.4190 0.4205 0.4327
1315.000000 0.4597 0.4873 0.5152 0.5432 0.5712
1310.000000 0.5991 0.6271 0.6548 0.6795 0.7068
1305.000000 0.7430 0.7592 0.7719 0.7817 0.7914
1300.000000 0.7993 0.8061 0.8132 0.8203 0.8251
1295.000000 0.8285 0.8312 0.8328 0.8334 0.8341
1290.000000 0.8342 0.8342 0.8338 0.8326 0.8291
1285.000000 0.8229 0.8154 0.8095 0.8057 0.8049
1280.000000 0.8048 0.8057 0.8088 0.8166 0.8273
1275.000000 0.8355 0.8429 0.8454 0.8473 0.8479
1270.000000 0.8479 0.8478 0.8458 0.8429 0.8384
1265.000000 0.8351 0.8343 0.8344 0.8365 0.8408
1260.000000 0.8456 0.8531 0.8705 0.8768 0.8824
1255.000000 0.8859 0.8873 0.8886 0.8898 0.8907
1250.000000 0.8912 0.8911 0.8904 0.8876 0.8831
1245.000000 0.8778 0.8748 0.8733 0.8738 0.8737
1240.000000 0.8752 0.8772 0.8791 0.8809 0.8826
1235.000000 0.8839 0.8850 0.8873 0.8860 0.8860
1230.000000 0.8861 0.8845 0.8795 0.8738 0.8699
1225.000000 0.8676 0.8656 0.8636 0.8609 0.8582
1220.000000 0.8536 0.8466 0.8378 0.8256 0.8093
1215.000000 0.7832 0.7526 0.7219 0.7126 0.7111
1210.000000 0.7121 0.7240 0.7436 0.7632 0.7827
1205.000000 0.8024 0.8221 0.8419 0.8598 0.8637
1200.000000 0.8655 0.8651 0.8676 0.8676 0.8677
1195.000000 0.8646 0.8471 0.8297 0.8124 0.7950
1190.000000 0.7789 0.7747 0.7756 0.7767 0.7831
1185.000000 0.7918 0.8005 0.8091 0.8177 0.8208
1180.000000 0.8205 0.8194 0.8161 0.8135 0.8134
1175.000000 0.8134 0.8144 0.8163 0.8187 0.8210
1170.000000 0.8235 0.8252 0.8264 0.8258 0.8049
1165.000000 0.7496 0.6942 0.6387 0.5830 0.5400
1160.000000 0.5394 0.5401 0.5436 0.5511 0.5658
1155.000000 0.5726 0.5736 0.5833 0.6185 0.6536
1150.000000 0.6888 0.7240 0.7594 0.7940 0.8121
1145.000000 0.8241 0.8358 0.8406 0.8416 0.8416
1140.000000 0.8413 0.8401 0.8358 0.8323 0.8296
1135.000000 0.8278 0.8269 0.8263 0.8259 0.8255
1130.000000 0.8250 0.8249 0.8245 0.8232 0.8168
1125.000000 0.7843 0.7367 0.6890 0.6414 0.5935
1120.000000 0.5456 0.4975 0.4640 0.4639 0.4639
1115.000000 0.4736 0.5064 0.5426 0.5787 0.6149
1110.000000 0.6512 0.6686 0.6706 0.6702 0.6660
1105.000000 0.6530 0.6198 0.5849 0.5498 0.5148
1100.000000 0.4909 0.4910 0.4980 0.5295 0.5621
1095.000000 0.5947 0.6274 0.6601 0.6929 0.7257
1090.000000 0.7586 0.7733 0.7798 0.7860 0.7900
1085.000000 0.7918 0.7935 0.7955 0.7980 0.8027
1080.000000 0.8086 0.8173 0.8186 0.8202 0.8237
1075.000000 0.8361 0.8461 0.8546 0.8611 0.8633
1070.000000 0.8648 0.8652 0.8616 0.8529 0.8421
1065.000000 0.8382 0.8367 0.8367 0.8367 0.8396
1060.000000 0.8448 0.8536 0.8614 0.8693 0.8778
1055.000000 0.8863 0.8935 0.8977 0.9005 0.9020
1050.000000 0.9035 0.9057 0.9051 0.9053 0.9036
1045.000000 0.8998 0.8933 0.8835 0.8726 0.8537
1040.000000 0.8331 0.8124 0.7918 0.7711 0.7503
1035.000000 0.7319 0.7306 0.7506 0.7801 0.8043
1030.000000 0.8172 0.8252 0.8316 0.8361 0.8406
1025.000000 0.8450 0.8489 0.8520 0.8548 0.8567
1020.000000 0.8583 0.8592 0.8600 0.8620 0.8716
1015.000000 0.8831 0.8936 0.8976 0.9009 0.9039
1010.000000 0.9049 0.9055 0.9060 0.9062 0.9066
1005.000000 0.9078 0.9104 0.9148 0.9132 0.9138
1000.000000 0.8863 0.8467 0.8152 0.8280 0.8479
995.000000 0.8629 0.8610 0.8174 0.7716 0.7256
990.000000 0.6796 0.6335 0.5872 0.5408 0.5280
985.000000 0.5264 0.5401 0.5658 0.5926 0.6194
980.000000 0.6463 0.6732 0.7002 0.7411 0.7407
975.000000 0.7394 0.7242 0.7091 0.7012 0.7021
970.000000 0.7243 0.7496 0.7750 0.8006 0.8191
965.000000 0.8243 0.8279 0.8300 0.8315 0.8332
960.000000 0.8392 0.8570 0.8721 0.8833 0.8941
955.000000 0.9028 0.9087 0.9147 0.9198 0.9252
950.000000 0.9275 0.9289 0.9301 0.9313 0.9333
945.000000 0.9350 0.9362 0.9373 0.9385 0.9376
940.000000 0.9376 0.9371 0.9365 0.9359 0.9338
935.000000 0.9312 0.9252 0.9181 0.9064 0.8767
930.000000 0.8391 0.8068 0.7747 0.7617 0.7621
925.000000 0.7650 0.7743 0.7912 0.8119 0.8326
920.000000 0.8535 0.8745 0.8948 0.9073 0.9124
915.000000 0.9169 0.9211 0.9244 0.9259 0.9265
910.000000 0.9270 0.9273 0.9275 0.9276 0.9280
905.000000 0.9286 0.9294 0.9311 0.9341 0.9377
900.000000 0.9415 0.9455 0.9470 0.9484 0.9487
895.000000 0.9486 0.9481 0.9473 0.9466 0.9466
890.000000 0.9465 0.9475 0.9489 0.9505 0.9521
885.000000 0.9536 0.9551 0.9561 0.9566 0.9564
880.000000 0.9557 0.9543 0.9525 0.9504 0.9456
875.000000 0.9395 0.9317 0.9202 0.9075 0.8935
870.000000 0.8711 0.8299 0.8302 0.8337 0.8558
865.000000 0.8785 0.9014 0.9141 0.9190 0.9194
860.000000 0.9198 0.9207 0.9234 0.9282 0.9325
855.000000 0.9369 0.9400 0.9416 0.9430 0.9438
850.000000 0.9447 0.9448 0.9449 0.9443 0.9429
845.000000 0.9390 0.9326 0.9248 0.9159 0.9008
840.000000 0.8693 0.8435 0.8254 0.8029 0.7854
835.000000 0.7296 0.6441 0.5585 0.5265 0.5453
830.000000 0.6227 0.7003 0.7779 0.8226 0.8534
825.000000 0.8780 0.8951 0.9092 0.9210 0.9247
820.000000 0.9260 0.9276 0.9294 0.9313 0.9337
815.000000 0.9365 0.9393 0.9418 0.9443 0.9460
810.000000 0.9472 0.9483 0.9488 0.9494 0.9495
805.000000 0.9495 0.9494 0.9484 0.9470 0.9444
800.000000 0.9366 0.9202 0.8947 0.8656 0.8363
795.000000 0.8040 0.8027 0.8121 0.8349 0.8567
790.000000 0.8785 0.8994 0.9107 0.9152 0.9167
785.000000 0.9148 0.9044 0.9069 0.9079 0.9144
780.000000 0.9199 0.9238 0.9263 0.9280 0.9257
775.000000 0.9152 0.9013 0.8882 0.8821 0.8854
770.000000 0.8899 0.8965 0.9085 0.9175 0.9223
765.000000 0.9239 0.9255 0.9252 0.9237 0.9193
760.000000 0.9128 0.9051 0.8898 0.8510 0.8091
755.000000 0.7705 0.7088 0.6137 0.5186 0.4194
750.000000 0.4199 0.4804 0.5848 0.6895 0.7922
745.000000 0.8252 0.8525 0.8680 0.8767 0.8853
740.000000 0.8923 0.8962 0.9012 0.8990 0.8936
735.000000 0.8863 0.8808 0.8754 0.8770 0.8826
730.000000 0.8946 0.9066 0.9177 0.9262 0.9332
725.000000 0.9380 0.9405 0.9449 0.9485 0.9506
720.000000 0.9507 0.9512 0.9515 0.9520 0.9523
715.000000 0.9522 0.9515 0.9493 0.9453 0.9425
710.000000 0.9402 0.9397 0.9396 0.9442 0.9462
705.000000 0.9465 0.9467 0.9470 0.9474 0.9479
700.000000 0.9483 0.9487 0.9486 0.9482 0.9469
695.000000 0.9457 0.9419 0.9355 0.9281 0.9183
690.000000 0.9069 0.8914 0.8782 0.8659 0.8680
685.000000 0.8713 0.8782 0.8872 0.8963 0.9028
680.000000 0.9084 0.9117 0.9117 0.9117 0.9084
675.000000 0.9014 0.8855 0.8434 0.8002 0.7569
670.000000 0.7136 0.6701 0.6029 0.6046 0.6117
665.000000 0.6750 0.7300 0.7853
##END=
