##TITLE=4,4'-METHYLENEDIANILINE DIHYDROCHLORIDE
##JCAMP-DX=4.24
##DATA TYPE=INFRARED SPECTRUM
##CLASS=COBLENTZ
##ORIGIN=TENNESSEE EASTMAN COMPANY, RESEARCH LABORATORIES
##OWNER=COBLENTZ SOCIETY
Collection (C) 2018 copyright by the U.S. Secretary of Commerce
on behalf of the United States of America. All rights reserved.
##DATE=Not specified, most likely prior to 1970
##MOLFORM=C13 H16 Cl2 N2
##MP=DECOMPOSES ABOVE 245 C
##SOURCE REFERENCE=COBLENTZ NO. 1537
##$NIST ID=B6001537
##$NIST SOURCE=COBLENTZ
##$NIST IMAGE=cob1537
##SPECTROMETER/DATA SYSTEM=Not specified, most likely a prism, grating, or hybrid spectrometer.
##STATE=SOLID (KBr PELLET)
##SAMPLING PROCEDURE=TRANSMISSION
##RESOLUTION=4
##DATA PROCESSING=DIGITIZED BY NIST FROM HARD COPY
##XUNITS=MICROMETERS
##YUNITS=TRANSMITTANCE
##XFACTOR=1.000000
##YFACTOR=1
##DELTAX=000.006793
##FIRSTX=2.041
##LASTX=16.0068
##FIRSTY=0.809
##MAXX=16.0068
##MINX=2.041
##MAXY=0.91
##MINY=0.119
##NPOINTS=2057
##XYDATA=(X++(Y..Y))
2.041000 0.8090 0.8090 0.8110 0.8110 0.8110
2.074981 0.8110 0.8110 0.8130 0.8130 0.8130
2.109000 0.8130 0.8130 0.8130 0.8110 0.8110
2.142981 0.8130 0.8130 0.8150 0.8150 0.8150
2.177000 0.8150 0.8160 0.8180 0.8180 0.8180
2.210981 0.8180 0.8200 0.8200 0.8200 0.8200
2.245000 0.8200 0.8200 0.8200 0.8200 0.8200
2.278981 0.8200 0.8210 0.8210 0.8210 0.8210
2.312000 0.8230 0.8230 0.8230 0.8230 0.8230
2.345981 0.8230 0.8230 0.8250 0.8250 0.8270
2.380000 0.8280 0.8280 0.8280 0.8280 0.8280
2.413981 0.8300 0.8300 0.8300 0.8300 0.8300
2.448000 0.8320 0.8320 0.8320 0.8330 0.8330
2.481981 0.8330 0.8330 0.8330 0.8330 0.8350
2.516000 0.8350 0.8350 0.8370 0.8370 0.8370
2.549981 0.8370 0.8370 0.8390 0.8390 0.8390
2.584000 0.8390 0.8390 0.8390 0.8390 0.8400
2.617981 0.8400 0.8440 0.8450 0.8450 0.8450
2.652000 0.8450 0.8450 0.8450 0.8450 0.8440
2.685981 0.8400 0.8320 0.8110 0.7870 0.7630
2.720000 0.7550 0.7390 0.7170 0.6830 0.6740
2.753981 0.6640 0.6420 0.6230 0.6110 0.6040
2.788000 0.5970 0.5890 0.5730 0.5660 0.5510
2.821981 0.5410 0.5350 0.5220 0.5110 0.5030
2.856000 0.5000 0.4890 0.4840 0.4840 0.4840
2.889981 0.4840 0.4860 0.4980 0.5060 0.5170
2.924000 0.5390 0.5420 0.5680 0.5800 0.5940
2.957981 0.6090 0.6090 0.6300 0.6450 0.6480
2.992000 0.6620 0.6790 0.6830 0.6880 0.6900
3.025981 0.6910 0.6910 0.6910 0.6900 0.6860
3.060000 0.6840 0.6740 0.6690 0.6640 0.6600
3.093981 0.6520 0.6310 0.6190 0.6140 0.5990
3.128000 0.5650 0.5470 0.5270 0.4980 0.4760
3.161981 0.4480 0.4360 0.4220 0.4000 0.3830
3.196000 0.3760 0.3350 0.3200 0.3030 0.2970
3.229981 0.2700 0.2460 0.2260 0.2120 0.2020
3.263000 0.1860 0.1830 0.1740 0.1710 0.1660
3.296981 0.1620 0.1600 0.1480 0.1450 0.1400
3.331000 0.1360 0.1310 0.1260 0.1260 0.1250
3.364981 0.1230 0.1230 0.1230 0.1230 0.1250
3.399000 0.1280 0.1300 0.1300 0.1300 0.1300
3.432981 0.1300 0.1300 0.1300 0.1300 0.1260
3.467000 0.1250 0.1230 0.1210 0.1210 0.1190
3.500981 0.1190 0.1190 0.1190 0.1210 0.1210
3.535000 0.1250 0.1300 0.1360 0.1420 0.1450
3.568981 0.1470 0.1500 0.1520 0.1590 0.1600
3.603000 0.1690 0.1760 0.1780 0.1840 0.1960
3.636981 0.2140 0.2220 0.2310 0.2460 0.2600
3.671000 0.2700 0.2790 0.2850 0.2920 0.3010
3.704981 0.3110 0.3210 0.3280 0.3420 0.3490
3.739000 0.3520 0.3540 0.3540 0.3540 0.3540
3.772981 0.3540 0.3540 0.3540 0.3540 0.3540
3.807000 0.3520 0.3470 0.3370 0.3270 0.3010
3.840981 0.2680 0.2390 0.2070 0.1980 0.1960
3.875000 0.1950 0.1960 0.2020 0.2070 0.2260
3.908981 0.2310 0.2430 0.2560 0.2580 0.2970
3.943000 0.3180 0.3710 0.3930 0.4070 0.4340
3.976981 0.4530 0.4690 0.4820 0.5010 0.5200
4.011000 0.5390 0.5560 0.5680 0.5850 0.5920
4.044981 0.6020 0.6160 0.6250 0.6310 0.6400
4.079000 0.6470 0.6540 0.6620 0.6740 0.6790
4.112981 0.6830 0.6840 0.6960 0.7020 0.7070
4.147000 0.7140 0.7190 0.7240 0.7290 0.7340
4.180981 0.7410 0.7460 0.7480 0.7500 0.7510
4.214000 0.7510 0.7530 0.7530 0.7530 0.7530
4.247981 0.7550 0.7580 0.7610 0.7630 0.7630
4.282000 0.7650 0.7700 0.7730 0.7790 0.7820
4.315981 0.7840 0.7870 0.7910 0.7940 0.8010
4.350000 0.8030 0.8060 0.8110 0.8130 0.8150
4.383981 0.8180 0.8180 0.8180 0.8180 0.8180
4.418000 0.8180 0.8180 0.8180 0.8160 0.8150
4.451981 0.8130 0.8110 0.8110 0.8110 0.8130
4.486000 0.8130 0.8130 0.8160 0.8180 0.8200
4.519981 0.8200 0.8250 0.8270 0.8280 0.8280
4.554000 0.8320 0.8330 0.8350 0.8370 0.8390
4.587981 0.8400 0.8400 0.8420 0.8440 0.8450
4.622000 0.8450 0.8450 0.8440 0.8420 0.8420
4.655981 0.8420 0.8420 0.8420 0.8440 0.8450
4.690000 0.8470 0.8470 0.8490 0.8490 0.8510
4.723981 0.8510 0.8520 0.8520 0.8540 0.8540
4.758000 0.8540 0.8540 0.8540 0.8540 0.8520
4.791981 0.8520 0.8520 0.8520 0.8470 0.8440
4.826000 0.8440 0.8420 0.8390 0.8390 0.8370
4.859981 0.8370 0.8370 0.8370 0.8370 0.8370
4.894000 0.8370 0.8350 0.8350 0.8330 0.8320
4.927981 0.8280 0.8270 0.8230 0.8230 0.8210
4.962000 0.8150 0.8130 0.8110 0.8090 0.8060
4.995981 0.8040 0.8030 0.7990 0.7960 0.7940
5.030000 0.7920 0.7920 0.7920 0.7920 0.7910
5.063981 0.7910 0.7890 0.7870 0.7850 0.7840
5.098000 0.7840 0.7840 0.7820 0.7800 0.7790
5.131981 0.7790 0.7770 0.7770 0.7750 0.7750
5.165000 0.7730 0.7720 0.7700 0.7680 0.7680
5.198981 0.7680 0.7680 0.7680 0.7700 0.7720
5.233000 0.7770 0.7850 0.7920 0.7940 0.7970
5.266981 0.8010 0.8060 0.8090 0.8110 0.8130
5.301000 0.8150 0.8160 0.8180 0.8200 0.8250
5.334981 0.8280 0.8320 0.8330 0.8350 0.8370
5.369000 0.8400 0.8400 0.8420 0.8420 0.8440
5.402981 0.8440 0.8450 0.8450 0.8450 0.8470
5.437000 0.8470 0.8470 0.8470 0.8490 0.8510
5.470981 0.8520 0.8540 0.8540 0.8540 0.8540
5.505000 0.8540 0.8540 0.8540 0.8540 0.8540
5.538981 0.8560 0.8560 0.8570 0.8570 0.8570
5.573000 0.8570 0.8610 0.8630 0.8640 0.8640
5.606981 0.8660 0.8690 0.8710 0.8730 0.8730
5.641000 0.8750 0.8750 0.8750 0.8750 0.8750
5.674981 0.8750 0.8750 0.8750 0.8750 0.8750
5.709000 0.8750 0.8750 0.8750 0.8750 0.8750
5.742981 0.8750 0.8750 0.8750 0.8750 0.8750
5.777000 0.8730 0.8730 0.8730 0.8730 0.8750
5.810981 0.8730 0.8710 0.8690 0.8680 0.8660
5.845000 0.8630 0.8630 0.8520 0.8510 0.8510
5.878981 0.8510 0.8520 0.8540 0.8570 0.8570
5.913000 0.8560 0.8540 0.8520 0.8510 0.8470
5.946981 0.8450 0.8440 0.8370 0.8330 0.8320
5.981000 0.8320 0.8280 0.8230 0.8210 0.8160
6.014981 0.8090 0.8010 0.7920 0.7820 0.7750
6.049000 0.7720 0.7630 0.7610 0.7550 0.7500
6.082981 0.7430 0.7410 0.7340 0.7220 0.7200
6.116000 0.7190 0.7120 0.6980 0.6780 0.6660
6.149981 0.6520 0.5990 0.5510 0.5470 0.5510
6.184000 0.5660 0.5800 0.5870 0.5940 0.6450
6.217981 0.7140 0.7260 0.7360 0.7380 0.7380
6.252000 0.7380 0.7340 0.7290 0.7080 0.6720
6.285981 0.6570 0.6420 0.6350 0.5900 0.5440
6.320000 0.4700 0.4620 0.4600 0.4640 0.4910
6.353981 0.4940 0.5130 0.5230 0.5300 0.5410
6.388000 0.5820 0.6010 0.6190 0.6400 0.6640
6.421981 0.6960 0.6980 0.7030 0.7080 0.7170
6.456000 0.7220 0.7270 0.7270 0.7260 0.7190
6.489981 0.7100 0.6740 0.6690 0.6620 0.6130
6.524000 0.4410 0.4260 0.3660 0.3450 0.3230
6.557981 0.2800 0.2200 0.1950 0.1840 0.1720
6.592000 0.1570 0.1550 0.1550 0.1590 0.1980
6.625981 0.2120 0.2270 0.2410 0.2560 0.2700
6.660000 0.3160 0.4000 0.4530 0.4700 0.5010
6.693981 0.5150 0.5290 0.5410 0.5610 0.5850
6.728000 0.6090 0.6420 0.6450 0.6570 0.7100
6.761981 0.7170 0.7220 0.7310 0.7460 0.7550
6.796000 0.7600 0.7630 0.7680 0.7720 0.7730
6.829981 0.7750 0.7770 0.7770 0.7730 0.7510
6.864000 0.7310 0.7220 0.7020 0.6720 0.6670
6.897981 0.6670 0.6790 0.7120 0.7150 0.7580
6.932000 0.7650 0.7730 0.7750 0.7770 0.7800
6.965981 0.7820 0.7840 0.7870 0.7920 0.7960
7.000000 0.7990 0.8090 0.8230 0.8280 0.8330
7.033981 0.8400 0.8490 0.8510 0.8520 0.8560
7.067000 0.8560 0.8590 0.8590 0.8590 0.8590
7.100981 0.8590 0.8590 0.8590 0.8610 0.8630
7.135000 0.8660 0.8660 0.8710 0.8730 0.8750
7.168981 0.8750 0.8750 0.8760 0.8760 0.8760
7.203000 0.8760 0.8760 0.8750 0.8760 0.8760
7.236981 0.8760 0.8760 0.8760 0.8760 0.8780
7.271000 0.8800 0.8810 0.8800 0.8810 0.8830
7.304981 0.8830 0.8850 0.8850 0.8850 0.8850
7.339000 0.8850 0.8830 0.8850 0.8850 0.8850
7.372981 0.8850 0.8850 0.8850 0.8850 0.8860
7.407000 0.8860 0.8860 0.8860 0.8860 0.8860
7.440981 0.8860 0.8860 0.8850 0.8830 0.8780
7.475000 0.8750 0.8680 0.8560 0.8470 0.8230
7.508981 0.8090 0.7940 0.7840 0.7820 0.7850
7.543000 0.7940 0.8080 0.8200 0.8320 0.8320
7.576981 0.8320 0.8280 0.8210 0.8150 0.8080
7.611000 0.8060 0.8060 0.8090 0.8180 0.8180
7.644981 0.8250 0.8280 0.8330 0.8370 0.8420
7.679000 0.8450 0.8470 0.8510 0.8540 0.8560
7.712981 0.8570 0.8610 0.8610 0.8630 0.8640
7.747000 0.8640 0.8660 0.8660 0.8660 0.8660
7.780981 0.8660 0.8660 0.8660 0.8660 0.8680
7.815000 0.8680 0.8680 0.8680 0.8680 0.8680
7.848981 0.8680 0.8690 0.8690 0.8690 0.8690
7.883000 0.8690 0.8690 0.8690 0.8690 0.8690
7.916981 0.8690 0.8690 0.8690 0.8690 0.8690
7.951000 0.8690 0.8680 0.8680 0.8660 0.8660
7.984981 0.8640 0.8640 0.8630 0.8630 0.8630
8.018000 0.8630 0.8630 0.8610 0.8610 0.8610
8.051981 0.8610 0.8610 0.8610 0.8610 0.8610
8.086000 0.8610 0.8610 0.8610 0.8610 0.8610
8.119981 0.8610 0.8610 0.8610 0.8590 0.8570
8.154000 0.8570 0.8560 0.8560 0.8540 0.8520
8.187981 0.8470 0.8470 0.8400 0.8330 0.8180
8.222000 0.8030 0.7910 0.7870 0.7260 0.6720
8.255981 0.6600 0.6470 0.6380 0.6350 0.6350
8.290000 0.6450 0.6500 0.6590 0.6980 0.7120
8.323981 0.7290 0.7550 0.7580 0.7790 0.7870
8.358000 0.8030 0.8030 0.8030 0.8010 0.7970
8.391981 0.7890 0.7850 0.7630 0.7610 0.7650
8.426000 0.7870 0.7920 0.7970 0.8060 0.8150
8.459981 0.8200 0.8210 0.8210 0.8230 0.8230
8.494000 0.8250 0.8270 0.8300 0.8320 0.8320
8.527981 0.8330 0.8330 0.8350 0.8350 0.8350
8.562000 0.8350 0.8350 0.8350 0.8350 0.8350
8.595981 0.8350 0.8330 0.8330 0.8320 0.8300
8.630000 0.8270 0.8250 0.8250 0.8250 0.8230
8.663981 0.8210 0.8200 0.8200 0.8200 0.8200
8.698000 0.8180 0.8180 0.8160 0.8160 0.8150
8.731981 0.8110 0.8090 0.8080 0.8040 0.8030
8.766000 0.8010 0.7970 0.7970 0.7820 0.7800
8.799981 0.7650 0.7560 0.7550 0.7270 0.7070
8.834000 0.6950 0.6860 0.6540 0.6210 0.5730
8.867981 0.5660 0.5230 0.4740 0.4670 0.4640
8.902000 0.4640 0.4640 0.4640 0.4720 0.4930
8.935981 0.5050 0.5200 0.5270 0.5340 0.5410
8.969000 0.5410 0.5420 0.5490 0.5580 0.5630
9.002981 0.5730 0.5770 0.5870 0.5950 0.6140
9.037000 0.6230 0.6300 0.6380 0.6450 0.6810
9.070981 0.6840 0.6980 0.7050 0.7070 0.7120
9.105000 0.7270 0.7360 0.7410 0.7480 0.7510
9.138981 0.7560 0.7600 0.7630 0.7680 0.7720
9.173000 0.7770 0.7800 0.7800 0.7820 0.7820
9.206981 0.7840 0.7850 0.7850 0.7870 0.7870
9.241000 0.7870 0.7870 0.7870 0.7870 0.7870
9.274981 0.7850 0.7840 0.7840 0.7820 0.7770
9.309000 0.7730 0.7700 0.7630 0.7580 0.7550
9.342981 0.7500 0.7480 0.7460 0.7440 0.7430
9.377000 0.7430 0.7440 0.7500 0.7530 0.7560
9.410981 0.7600 0.7630 0.7670 0.7700 0.7730
9.445000 0.7750 0.7770 0.7800 0.7820 0.7840
9.478981 0.7870 0.7870 0.7890 0.7910 0.7940
9.513000 0.7970 0.7990 0.8010 0.8030 0.8030
9.546981 0.8040 0.8060 0.8080 0.8090 0.8110
9.581000 0.8150 0.8160 0.8180 0.8200 0.8200
9.614981 0.8200 0.8210 0.8210 0.8210 0.8210
9.649000 0.8210 0.8200 0.8180 0.8150 0.8130
9.682981 0.7820 0.7510 0.7310 0.7120 0.6980
9.717000 0.6930 0.6880 0.6860 0.6860 0.7120
9.750981 0.7310 0.7460 0.7750 0.7840 0.7920
9.785000 0.8010 0.8040 0.8150 0.8210 0.8270
9.818981 0.8300 0.8320 0.8390 0.8450 0.8450
9.852000 0.8490 0.8510 0.8520 0.8540 0.8540
9.885981 0.8560 0.8560 0.8570 0.8570 0.8570
9.920000 0.8570 0.8570 0.8570 0.8590 0.8590
9.953981 0.8610 0.8610 0.8610 0.8610 0.8630
9.988000 0.8630 0.8630 0.8640 0.8640 0.8640
10.021981 0.8640 0.8680 0.8690 0.8690 0.8710
10.056000 0.8730 0.8750 0.8750 0.8750 0.8750
10.089981 0.8730 0.8730 0.8730 0.8750 0.8750
10.124000 0.8750 0.8750 0.8760 0.8730 0.8730
10.157981 0.8730 0.8730 0.8730 0.8750 0.8760
10.192000 0.8780 0.8760 0.8760 0.8760 0.8760
10.225981 0.8760 0.8760 0.8750 0.8750 0.8730
10.260000 0.8710 0.8640 0.8610 0.8590 0.8570
10.293981 0.8570 0.8590 0.8590 0.8610 0.8610
10.328000 0.8630 0.8660 0.8680 0.8690 0.8690
10.361981 0.8690 0.8710 0.8710 0.8730 0.8750
10.396000 0.8750 0.8760 0.8780 0.8800 0.8800
10.429981 0.8800 0.8800 0.8800 0.8800 0.8800
10.464000 0.8800 0.8800 0.8780 0.8780 0.8780
10.497981 0.8780 0.8800 0.8800 0.8800 0.8800
10.532000 0.8760 0.8730 0.8690 0.8630 0.8610
10.565981 0.8590 0.8590 0.8570 0.8590 0.8590
10.600000 0.8630 0.8660 0.8690 0.8730 0.8750
10.633981 0.8780 0.8800 0.8830 0.8850 0.8860
10.668000 0.8880 0.8900 0.8920 0.8930 0.8930
10.701981 0.8950 0.8950 0.8950 0.8950 0.8950
10.736000 0.8950 0.8950 0.8950 0.8950 0.8950
10.769981 0.8950 0.8930 0.8930 0.8920 0.8920
10.803000 0.8930 0.8930 0.8930 0.8930 0.8920
10.836981 0.8880 0.8880 0.8860 0.8850 0.8830
10.871000 0.8810 0.8810 0.8800 0.8810 0.8800
10.904981 0.8760 0.8750 0.8750 0.8730 0.8730
10.939000 0.8710 0.8710 0.8710 0.8710 0.8710
10.972981 0.8730 0.8760 0.8800 0.8810 0.8850
11.007000 0.8850 0.8850 0.8880 0.8920 0.8970
11.040981 0.8980 0.8980 0.8980 0.8980 0.8980
11.075000 0.9000 0.9000 0.9020 0.9020 0.9020
11.108981 0.9020 0.9020 0.9020 0.9020 0.9020
11.143000 0.9040 0.9050 0.9050 0.9050 0.9070
11.176981 0.9070 0.9090 0.9090 0.9090 0.9100
11.211000 0.9100 0.9100 0.9100 0.9100 0.9100
11.244981 0.9100 0.9100 0.9100 0.9090 0.9090
11.279000 0.9090 0.9070 0.9070 0.9070 0.9050
11.312981 0.9050 0.9050 0.9040 0.9040 0.9020
11.347000 0.9020 0.9020 0.9000 0.9000 0.8980
11.380981 0.8950 0.8930 0.8880 0.8850 0.8830
11.415000 0.8810 0.8800 0.8750 0.8570 0.8510
11.448981 0.8400 0.8330 0.8250 0.8130 0.7970
11.483000 0.7840 0.7670 0.7530 0.7380 0.7240
11.516981 0.7140 0.7080 0.7030 0.7030 0.7140
11.551000 0.7260 0.7320 0.7440 0.7580 0.7730
11.584981 0.7850 0.7960 0.8010 0.8060 0.8080
11.619000 0.8130 0.8160 0.8230 0.8320 0.8370
11.652981 0.8400 0.8440 0.8470 0.8490 0.8510
11.687000 0.8540 0.8560 0.8560 0.8570 0.8570
11.720981 0.8570 0.8590 0.8590 0.8590 0.8590
11.754000 0.8590 0.8590 0.8590 0.8590 0.8590
11.787981 0.8590 0.8590 0.8590 0.8590 0.8590
11.822000 0.8590 0.8590 0.8590 0.8570 0.8560
11.855981 0.8560 0.8540 0.8520 0.8510 0.8490
11.890000 0.8490 0.8490 0.8470 0.8450 0.8450
11.923981 0.8440 0.8440 0.8440 0.8420 0.8400
11.958000 0.8390 0.8350 0.8330 0.8320 0.8300
11.991981 0.8230 0.8210 0.8210 0.8180 0.8180
12.026000 0.8160 0.8150 0.8090 0.8060 0.8040
12.059981 0.8030 0.8010 0.7990 0.7990 0.7940
12.094000 0.7910 0.7870 0.7850 0.7850 0.7840
12.127981 0.7820 0.7800 0.7790 0.7770 0.7750
12.162000 0.7750 0.7730 0.7680 0.7610 0.7550
12.195981 0.7510 0.7440 0.7270 0.7100 0.7080
12.230000 0.6960 0.6900 0.6830 0.6740 0.6740
12.263981 0.6670 0.6600 0.6470 0.6210 0.5510
12.298000 0.4930 0.4790 0.4620 0.4600 0.4620
12.331981 0.4700 0.4930 0.5110 0.5370 0.5530
12.366000 0.5920 0.6250 0.6540 0.6930 0.6930
12.399981 0.7220 0.7290 0.7360 0.7410 0.7510
12.434000 0.7630 0.7750 0.7800 0.7850 0.7910
12.467981 0.7910 0.7920 0.7970 0.8010 0.8030
12.502000 0.8060 0.8110 0.8110 0.8130 0.8180
12.535981 0.8200 0.8230 0.8270 0.8280 0.8300
12.570000 0.8320 0.8330 0.8350 0.8390 0.8400
12.603981 0.8420 0.8440 0.8470 0.8490 0.8510
12.638000 0.8510 0.8520 0.8540 0.8540 0.8560
12.671981 0.8570 0.8590 0.8590 0.8590 0.8590
12.705000 0.8590 0.8590 0.8590 0.8590 0.8590
12.738981 0.8590 0.8590 0.8590 0.8590 0.8590
12.773000 0.8590 0.8570 0.8570 0.8570 0.8570
12.806981 0.8570 0.8560 0.8560 0.8560 0.8560
12.841000 0.8560 0.8540 0.8540 0.8540 0.8540
12.874981 0.8520 0.8520 0.8510 0.8510 0.8490
12.909000 0.8470 0.8440 0.8420 0.8390 0.8370
12.942981 0.8330 0.8320 0.8300 0.8210 0.8180
12.977000 0.8130 0.8080 0.8030 0.7960 0.7870
13.010981 0.7840 0.7770 0.7680 0.7500 0.7220
13.045000 0.6780 0.6690 0.6570 0.6450 0.6210
13.078981 0.5900 0.5530 0.5110 0.4860 0.4700
13.113000 0.4520 0.4520 0.4520 0.4600 0.4810
13.146981 0.5080 0.5340 0.5540 0.5730 0.6020
13.181000 0.6300 0.6520 0.6590 0.7050 0.7100
13.214981 0.7190 0.7340 0.7460 0.7550 0.7650
13.249000 0.7700 0.7790 0.7840 0.7870 0.7920
13.282981 0.7960 0.7990 0.8010 0.8090 0.8110
13.317000 0.8130 0.8160 0.8180 0.8230 0.8250
13.350981 0.8280 0.8280 0.8300 0.8330 0.8370
13.385000 0.8390 0.8390 0.8400 0.8420 0.8420
13.418981 0.8440 0.8450 0.8450 0.8490 0.8490
13.453000 0.8490 0.8490 0.8490 0.8490 0.8490
13.486981 0.8490 0.8490 0.8490 0.8510 0.8510
13.521000 0.8510 0.8510 0.8510 0.8510 0.8510
13.554981 0.8510 0.8510 0.8510 0.8510 0.8510
13.589000 0.8510 0.8510 0.8510 0.8510 0.8510
13.622981 0.8510 0.8510 0.8520 0.8520 0.8520
13.656000 0.8520 0.8520 0.8520 0.8520 0.8520
13.689981 0.8540 0.8540 0.8540 0.8540 0.8540
13.724000 0.8540 0.8540 0.8540 0.8560 0.8560
13.757981 0.8560 0.8560 0.8560 0.8560 0.8560
13.792000 0.8560 0.8560 0.8560 0.8560 0.8560
13.825981 0.8560 0.8560 0.8560 0.8560 0.8560
13.860000 0.8560 0.8560 0.8560 0.8560 0.8560
13.893981 0.8560 0.8560 0.8560 0.8560 0.8560
13.928000 0.8560 0.8570 0.8570 0.8570 0.8570
13.961981 0.8570 0.8570 0.8570 0.8570 0.8570
13.996000 0.8570 0.8570 0.8560 0.8560 0.8540
14.029981 0.8540 0.8520 0.8520 0.8520 0.8520
14.064000 0.8510 0.8510 0.8510 0.8510 0.8490
14.097981 0.8470 0.8450 0.8450 0.8440 0.8420
14.132000 0.8400 0.8390 0.8390 0.8330 0.8320
14.165981 0.8320 0.8300 0.8280 0.8280 0.8270
14.200000 0.8270 0.8250 0.8230 0.8230 0.8210
14.233981 0.8200 0.8200 0.8200 0.8200 0.8200
14.268000 0.8200 0.8200 0.8180 0.8150 0.8150
14.301981 0.8130 0.8130 0.8110 0.8090 0.8040
14.336000 0.8010 0.7960 0.7940 0.7910 0.7850
14.369981 0.7840 0.7820 0.7800 0.7790 0.7750
14.404000 0.7750 0.7730 0.7730 0.7720 0.7720
14.437981 0.7720 0.7720 0.7720 0.7720 0.7720
14.472000 0.7730 0.7730 0.7750 0.7770 0.7790
14.505981 0.7800 0.7820 0.7850 0.7870 0.7870
14.540000 0.7890 0.7910 0.7910 0.7920 0.7940
14.573981 0.7940 0.7960 0.7960 0.7970 0.7970
14.607000 0.7970 0.7990 0.7990 0.8010 0.8010
14.640981 0.8030 0.8030 0.8030 0.8040 0.8040
14.675000 0.8040 0.8040 0.8040 0.8040 0.8040
14.708981 0.8060 0.8060 0.8060 0.8060 0.8060
14.743000 0.8060 0.8060 0.8060 0.8060 0.8060
14.776981 0.8060 0.8060 0.8060 0.8060 0.8060
14.811000 0.8060 0.8060 0.8060 0.8060 0.8060
14.844981 0.8040 0.8040 0.8030 0.8030 0.8010
14.879000 0.8010 0.8010 0.7990 0.7970 0.7970
14.912981 0.7960 0.7960 0.7910 0.7890 0.7870
14.947000 0.7850 0.7840 0.7800 0.7790 0.7770
14.980981 0.7770 0.7750 0.7750 0.7730 0.7730
15.015000 0.7730 0.7730 0.7720 0.7720 0.7720
15.048981 0.7720 0.7700 0.7700 0.7700 0.7700
15.083000 0.7680 0.7680 0.7680 0.7670 0.7670
15.116981 0.7670 0.7650 0.7630 0.7630 0.7610
15.151000 0.7600 0.7600 0.7580 0.7560 0.7550
15.184981 0.7530 0.7510 0.7500 0.7500 0.7480
15.219000 0.7460 0.7440 0.7440 0.7440 0.7430
15.252981 0.7410 0.7410 0.7390 0.7390 0.7360
15.287000 0.7340 0.7340 0.7320 0.7320 0.7310
15.320981 0.7310 0.7290 0.7290 0.7270 0.7270
15.355000 0.7260 0.7240 0.7240 0.7220 0.7190
15.388981 0.7150 0.7140 0.7120 0.7120 0.7100
15.423000 0.7100 0.7080 0.7070 0.7050 0.7030
15.456981 0.7030 0.7020 0.7020 0.7000 0.6980
15.491000 0.6960 0.6930 0.6910 0.6900 0.6880
15.524981 0.6860 0.6790 0.6760 0.6710 0.6670
15.558000 0.6660 0.6620 0.6590 0.6570 0.6570
15.591981 0.6550 0.6540 0.6540 0.6520 0.6520
15.626000 0.6500 0.6500 0.6480 0.6480 0.6480
15.659981 0.6470 0.6470 0.6470 0.6470 0.6470
15.694000 0.6470 0.6470 0.6470 0.6470 0.6480
15.727981 0.6480 0.6480 0.6480 0.6480 0.6500
15.762000 0.6500 0.6520 0.6520 0.6520 0.6520
15.795981 0.6520 0.6520 0.6520 0.6520 0.6520
15.830000 0.6520 0.6520 0.6520 0.6520 0.6520
15.863981 0.6520 0.6520 0.6520 0.6520 0.6520
15.898000 0.6520 0.6520 0.6520 0.6520 0.6520
15.931981 0.6520 0.6520 0.6520 0.6520 0.6520
15.966000 0.6520 0.6520 0.6520 0.6540 0.6540
15.999981 0.6540 0.6540
##END=
