##TITLE=BARIUM SULFATE (SYNTHETIC)
##JCAMP-DX=4.24
##DATA TYPE=INFRARED SPECTRUM
##CLASS=COBLENTZ III
##ORIGIN=DESOTO CHEMICAL COATINGS, INC.
##OWNER=COBLENTZ SOCIETY
Collection (C) 2018 copyright by the U.S. Secretary of Commerce
on behalf of the United States of America. All rights reserved.
##DATE=Not specified, most likely prior to 1970
##MOLFORM=O4 S Ba
##SOURCE REFERENCE=COBLENTZ NO. 4658
##$NIST ID=B6004658
##$NIST SOURCE=COBLENTZ
##$NIST IMAGE=cob4658
##SPECTROMETER/DATA SYSTEM=BECKMAN IR-12 (GRATING)
##INSTRUMENT PARAMETERS=GRATING BLAZED AT 3330, 1330, 445, 220 CM^-^1
##STATE=SOLID (0.3 mg / 300 mg CsI DISC)
##SAMPLING PROCEDURE=TRANSMISSION
##RESOLUTION=4
##DATA PROCESSING=DIGITIZED BY NIST FROM HARD COPY (FROM TWO SEGMENTS)
##XUNITS=1/CM
##YUNITS=TRANSMITTANCE
##XFACTOR=1.000000
##YFACTOR=1
##DELTAX=1.329397
##FIRSTX=201.329
##LASTX=3988.78
##FIRSTY=0.67
##MAXX=3988.78
##MINX=201.329
##MAXY=0.969
##MINY=0.0950117
##NPOINTS=2850
##XYDATA=(X++(Y..Y))
201.329000 0.6700 0.6700 0.6680 0.6680 0.6680
207.975985 0.6680 0.6700 0.6700 0.6710 0.6740
214.622970 0.6760 0.6800 0.6900 0.7000 0.7070
221.269955 0.7150 0.7279 0.7350 0.7459 0.7549
227.916940 0.7610 0.7690 0.7790 0.7910 0.8000
234.563925 0.8070 0.8130 0.8200 0.8240 0.8310
241.210910 0.8390 0.8490 0.8490 0.8530 0.8560
247.857895 0.8570 0.8590 0.8600 0.8600 0.8610
254.504880 0.8630 0.8640 0.8640 0.8670 0.8710
261.151865 0.8730 0.8750 0.8760 0.8760 0.8760
267.798850 0.8760 0.8760 0.8770 0.8770 0.8780
274.445835 0.8780 0.8780 0.8780 0.8780 0.8800
281.092820 0.8800 0.8810 0.8810 0.8820 0.8840
287.739805 0.8840 0.8860 0.8880 0.8880 0.8890
294.386790 0.8890 0.8890 0.8890 0.8890 0.8880
301.033775 0.8880 0.8850 0.8840 0.8820 0.8810
307.680760 0.8810 0.8810 0.8810 0.8810 0.8820
314.327744 0.8820 0.8840 0.8840 0.8840 0.8840
320.974729 0.8840 0.8840 0.8820 0.8820 0.8810
327.621714 0.8800 0.8800 0.8780 0.8780 0.8770
334.268699 0.8770 0.8750 0.8750 0.8750 0.8750
340.915684 0.8720 0.8720 0.8720 0.8720 0.8730
347.562669 0.8750 0.8750 0.8750 0.8750 0.8750
354.209654 0.8750 0.8750 0.8750 0.8750 0.8760
360.856639 0.8760 0.8760 0.8730 0.8720 0.8720
367.503624 0.8720 0.8710 0.8710 0.8690 0.8690
374.150609 0.8690 0.8690 0.8690 0.8690 0.8690
380.797594 0.8690 0.8690 0.8690 0.8690 0.8690
387.444579 0.8690 0.8690 0.8680 0.8680 0.8680
394.091564 0.8680 0.8680 0.8680 0.8680 0.8670
400.738549 0.8670 0.8670 0.8670 0.8670 0.8670
407.385534 0.8670 0.8680 0.8680 0.8680 0.8690
414.032519 0.8710 0.8710 0.8720 0.8750 0.8770
420.679504 0.8780 0.8780 0.8800 0.8810 0.8810
427.326489 0.8840 0.8850 0.8850 0.8880 0.8880
433.973474 0.8890 0.8890 0.8890 0.8900 0.8920
440.620459 0.8920 0.8900 0.8900 0.8900 0.8900
447.267444 0.8920 0.8920 0.8920 0.8920 0.8920
453.914429 0.8920 0.8920 0.8920 0.8920 0.8920
460.561414 0.8920 0.8920 0.8930 0.8930 0.8930
467.208399 0.8930 0.8930 0.8930 0.8940 0.8940
473.855384 0.8970 0.9000 0.9000 0.9010 0.9010
480.502369 0.9020 0.9050 0.9050 0.9060 0.9060
487.149354 0.9060 0.9060 0.9080 0.9090 0.9090
493.796339 0.9100 0.9100 0.9130 0.9130 0.9140
500.443324 0.9160 0.9170 0.9170 0.9170 0.9180
507.090309 0.9210 0.9240 0.9250 0.9250 0.9260
513.737294 0.9280 0.9290 0.9290 0.9290 0.9290
520.384279 0.9300 0.9300 0.9320 0.9320 0.9320
527.031264 0.9320 0.9320 0.9320 0.9330 0.9330
533.678249 0.9340 0.9340 0.9340 0.9370 0.9370
540.325233 0.9370 0.9370 0.9370 0.9370 0.9380
546.972218 0.9380 0.9380 0.9380 0.9380 0.9380
553.619203 0.9380 0.9400 0.9400 0.9400 0.9400
560.266188 0.9380 0.9380 0.9380 0.9380 0.9380
566.913173 0.9380 0.9380 0.9380 0.9370 0.9370
573.560158 0.9380 0.9380 0.9400 0.9420 0.9420
580.207143 0.9400 0.9400 0.9380 0.9370 0.9370
586.854128 0.9370 0.9360 0.9360 0.9330 0.9290
593.501113 0.9250 0.9220 0.9160 0.9100 0.8901
600.148098 0.8040 0.7221 0.7070 0.6561 0.6032
606.795083 0.5512 0.5012 0.4582 0.4262 0.4250
613.442068 0.4530 0.4810 0.4890 0.6227 0.6838
620.089053 0.7199 0.7319 0.7479 0.7878 0.8128
626.736038 0.8130 0.7920 0.7850 0.7720 0.7361
633.383023 0.6663 0.6441 0.6191 0.5941 0.5940
640.030008 0.6070 0.6190 0.6579 0.7079 0.7479
646.676993 0.7719 0.7909 0.8169 0.8448 0.8480
653.323978 0.8520 0.8630 0.8710 0.8820 0.8880
659.970963 0.8980 0.9010 0.9050 0.9090 0.9130
666.617948 0.9160 0.9200 0.9210 0.9240 0.9250
673.264933 0.9260 0.9280 0.9300 0.9320 0.9340
679.911918 0.9360 0.9370 0.9380 0.9400 0.9400
686.558903 0.9400 0.9400 0.9410 0.9420 0.9420
693.205888 0.9440 0.9440 0.9460 0.9460 0.9480
699.852873 0.9480 0.9480 0.9490 0.9490 0.9490
706.499858 0.9500 0.9500 0.9500 0.9500 0.9500
713.146843 0.9500 0.9520 0.9520 0.9530 0.9540
719.793828 0.9540 0.9540 0.9540 0.9540 0.9540
726.440813 0.9560 0.9560 0.9570 0.9570 0.9580
733.087798 0.9600 0.9600 0.9570 0.9570 0.9570
739.734783 0.9570 0.9580 0.9580 0.9600 0.9600
746.381768 0.9580 0.9580 0.9580 0.9600 0.9600
753.028753 0.9580 0.9580 0.9580 0.9580 0.9580
759.675738 0.9580 0.9600 0.9600 0.9600 0.9600
766.322722 0.9600 0.9610 0.9620 0.9620 0.9620
772.969707 0.9620 0.9640 0.9640 0.9640 0.9640
779.616692 0.9620 0.9620 0.9620 0.9610 0.9600
786.263677 0.9600 0.9600 0.9600 0.9600 0.9600
792.910662 0.9600 0.9600 0.9600 0.9600 0.9600
799.557647 0.9600 0.9600 0.9600 0.9600 0.9600
806.204632 0.9600 0.9610 0.9620 0.9620 0.9620
812.851617 0.9620 0.9620 0.9610 0.9610 0.9610
819.498602 0.9620 0.9620 0.9620 0.9620 0.9620
826.145587 0.9640 0.9640 0.9640 0.9650 0.9650
832.792572 0.9650 0.9650 0.9650 0.9650 0.9660
839.439557 0.9660 0.9680 0.9680 0.9680 0.9690
846.086542 0.9690 0.9690 0.9690 0.9690 0.9690
852.733527 0.9690 0.9690 0.9690 0.9690 0.9690
859.380512 0.9690 0.9690 0.9690 0.9690 0.9690
866.027497 0.9690 0.9690 0.9690 0.9690 0.9690
872.674482 0.9690 0.9680 0.9650 0.9640 0.9650
879.321467 0.9660 0.9680 0.9690 0.9690 0.9680
885.968452 0.9660 0.9660 0.9650 0.9650 0.9650
892.615437 0.9650 0.9650 0.9650 0.9650 0.9650
899.262422 0.9650 0.9650 0.9650 0.9650 0.9650
905.909407 0.9650 0.9650 0.9650 0.9640 0.9640
912.556392 0.9640 0.9640 0.9640 0.9620 0.9620
919.203377 0.9620 0.9610 0.9610 0.9600 0.9580
925.850362 0.9580 0.9570 0.9560 0.9540 0.9530
932.497347 0.9500 0.9490 0.9480 0.9450 0.9440
939.144332 0.9410 0.9400 0.9400 0.9420 0.9440
945.791317 0.9450 0.9450 0.9440 0.9410 0.9400
952.438302 0.9410 0.9440 0.9490 0.9490 0.9500
959.085287 0.9500 0.9500 0.9500 0.9500 0.9500
965.732272 0.9490 0.9450 0.9400 0.9370 0.9370
972.379257 0.9380 0.9380 0.9370 0.9340 0.9330
979.026242 0.9320 0.9240 0.9140 0.8652 0.7894
985.673227 0.7720 0.7720 0.8799 0.9060 0.9120
992.320211 0.9130 0.9130 0.9130 0.9130 0.9130
998.967196 0.9130 0.9120 0.9120 0.9100 0.9080
1005.614181 0.9060 0.9050 0.9040 0.9020 0.9010
1012.261166 0.9000 0.8980 0.8970 0.8930 0.8900
1018.908151 0.8890 0.8880 0.8820 0.8780 0.8760
1025.555136 0.8750 0.8720 0.8690 0.8640 0.8610
1032.202121 0.8600 0.8560 0.8550 0.8520 0.8490
1038.849106 0.8430 0.8390 0.8350 0.8310 0.8240
1045.496091 0.8170 0.8040 0.7990 0.7881 0.7721
1052.143076 0.7520 0.7320 0.7080 0.6800 0.6590
1058.790061 0.6191 0.5772 0.5302 0.4822 0.4343
1065.437046 0.3820 0.3280 0.2830 0.1981 0.1301
1072.084031 0.1220 0.1090 0.0990 0.0970 0.0950
1078.731016 0.0970 0.0990 0.1100 0.1150 0.1350
1085.378001 0.1619 0.1949 0.2159 0.2379 0.2758
1092.024986 0.3290 0.3750 0.4000 0.4180 0.4330
1098.671971 0.4410 0.4420 0.4410 0.4360 0.4221
1105.318956 0.4040 0.3800 0.3600 0.3390 0.3041
1111.965941 0.2721 0.2431 0.2191 0.1792 0.1591
1118.612926 0.1510 0.1460 0.1440 0.1460 0.1560
1125.259911 0.1680 0.1869 0.1900 0.2268 0.2638
1131.906896 0.3191 0.3760 0.4100 0.4380 0.4729
1138.553881 0.5089 0.5329 0.5509 0.5689 0.5899
1145.200866 0.6010 0.6100 0.6210 0.6340 0.6380
1151.847851 0.6390 0.6400 0.6420 0.6420 0.6400
1158.494836 0.6380 0.6350 0.6310 0.6230 0.6010
1165.141821 0.5810 0.5531 0.5301 0.5021 0.4771
1171.788806 0.4400 0.4040 0.3730 0.3410 0.3081
1178.435791 0.2890 0.2681 0.2272 0.2220 0.2160
1185.082776 0.2080 0.2060 0.2040 0.2060 0.2180
1191.729761 0.2300 0.2759 0.2870 0.3228 0.3707
1198.376746 0.4041 0.4420 0.4700 0.5260 0.5649
1205.023731 0.5939 0.6149 0.6379 0.6519 0.6709
1211.670716 0.6920 0.7150 0.7240 0.7390 0.7520
1218.317700 0.7590 0.7640 0.7670 0.7720 0.7760
1224.964685 0.7800 0.7880 0.8000 0.8110 0.8210
1231.611670 0.8350 0.8410 0.8450 0.8550 0.8600
1238.258655 0.8670 0.8720 0.8750 0.8770 0.8810
1244.905640 0.8850 0.8860 0.8890 0.8900 0.8920
1251.552625 0.8940 0.8970 0.8980 0.9010 0.9010
1258.199610 0.9020 0.9050 0.9060 0.9080 0.9090
1264.846595 0.9090 0.9100 0.9120 0.9120 0.9130
1271.493580 0.9130 0.9140 0.9160 0.9170 0.9170
1278.140565 0.9180 0.9180 0.9200 0.9200 0.9200
1284.787550 0.9210 0.9210 0.9220 0.9220 0.9240
1291.434535 0.9250 0.9260 0.9280 0.9280 0.9280
1298.081520 0.9280 0.9280 0.9280 0.9300 0.9300
1304.728505 0.9290 0.9290 0.9300 0.9300 0.9290
1311.375490 0.9290 0.9290 0.9290 0.9290 0.9290
1318.022475 0.9300 0.9300 0.9300 0.9330 0.9340
1324.669460 0.9340 0.9360 0.9360 0.9360 0.9340
1331.316445 0.9340 0.9330 0.9320 0.9320 0.9330
1337.963430 0.9330 0.9330 0.9330 0.9330 0.9340
1344.610415 0.9340 0.9330 0.9330 0.9330 0.9330
1351.257400 0.9340 0.9340 0.9360 0.9360 0.9340
1357.904385 0.9340 0.9340 0.9330 0.9330 0.9330
1364.551370 0.9320 0.9320 0.9320 0.9320 0.9300
1371.198355 0.9300 0.9300 0.9290 0.9290 0.9290
1377.845340 0.9280 0.9280 0.9280 0.9280 0.9280
1384.492325 0.9280 0.9280 0.9280 0.9280 0.9260
1391.139310 0.9260 0.9240 0.9220 0.9200 0.9160
1397.786295 0.9140 0.9100 0.9080 0.9060 0.9080
1404.433280 0.9090 0.9100 0.9120 0.9140 0.9160
1411.080265 0.9170 0.9180 0.9180 0.9210 0.9210
1417.727250 0.9210 0.9220 0.9220 0.9220 0.9220
1424.374235 0.9220 0.9210 0.9210 0.9210 0.9200
1431.021220 0.9170 0.9140 0.9120 0.9080 0.9080
1437.668205 0.9060 0.9060 0.9080 0.9100 0.9120
1444.315189 0.9130 0.9130 0.9160 0.9170 0.9180
1450.962174 0.9200 0.9210 0.9210 0.9220 0.9220
1457.609159 0.9220 0.9220 0.9220 0.9220 0.9240
1464.256144 0.9250 0.9250 0.9260 0.9260 0.9260
1470.903129 0.9260 0.9280 0.9300 0.9320 0.9320
1477.550114 0.9320 0.9320 0.9320 0.9340 0.9340
1484.197099 0.9340 0.9340 0.9360 0.9360 0.9380
1490.844084 0.9400 0.9400 0.9400 0.9400 0.9400
1497.491069 0.9400 0.9400 0.9400 0.9400 0.9400
1504.138054 0.9400 0.9410 0.9410 0.9410 0.9410
1510.785039 0.9410 0.9410 0.9410 0.9420 0.9440
1517.432024 0.9440 0.9440 0.9440 0.9420 0.9420
1524.079009 0.9410 0.9400 0.9400 0.9380 0.9380
1530.725994 0.9380 0.9370 0.9370 0.9370 0.9370
1537.372979 0.9380 0.9400 0.9400 0.9400 0.9380
1544.019964 0.9380 0.9370 0.9370 0.9370 0.9380
1550.666949 0.9400 0.9400 0.9380 0.9380 0.9360
1557.313934 0.9340 0.9330 0.9320 0.9320 0.9330
1563.960919 0.9340 0.9340 0.9360 0.9360 0.9360
1570.607904 0.9360 0.9360 0.9340 0.9340 0.9330
1577.254889 0.9320 0.9320 0.9320 0.9300 0.9290
1583.901874 0.9280 0.9260 0.9250 0.9250 0.9240
1590.548859 0.9220 0.9210 0.9210 0.9200 0.9180
1597.195844 0.9130 0.9130 0.9100 0.9100 0.9090
1603.842829 0.9080 0.9080 0.9060 0.9050 0.9050
1610.489814 0.9050 0.9040 0.9040 0.9040 0.9020
1617.136799 0.9020 0.9020 0.9040 0.9040 0.9050
1623.783784 0.9050 0.9060 0.9080 0.9080 0.9090
1630.430769 0.9100 0.9120 0.9120 0.9130 0.9140
1637.077754 0.9160 0.9160 0.9170 0.9170 0.9180
1643.724739 0.9200 0.9200 0.9210 0.9210 0.9220
1650.371724 0.9220 0.9240 0.9240 0.9210 0.9210
1657.018709 0.9210 0.9210 0.9220 0.9240 0.9240
1663.665694 0.9220 0.9220 0.9240 0.9240 0.9240
1670.312678 0.9240 0.9250 0.9250 0.9260 0.9260
1676.959663 0.9280 0.9290 0.9300 0.9300 0.9300
1683.606648 0.9300 0.9320 0.9320 0.9320 0.9330
1690.253633 0.9340 0.9360 0.9360 0.9360 0.9370
1696.900618 0.9380 0.9380 0.9370 0.9360 0.9330
1703.547603 0.9300 0.9300 0.9320 0.9330 0.9340
1710.194588 0.9340 0.9360 0.9360 0.9370 0.9370
1716.841573 0.9370 0.9360 0.9340 0.9340 0.9360
1723.488558 0.9360 0.9370 0.9370 0.9380 0.9380
1730.135543 0.9380 0.9380 0.9380 0.9380 0.9380
1736.782528 0.9400 0.9400 0.9400 0.9380 0.9380
1743.429513 0.9400 0.9400 0.9410 0.9410 0.9410
1750.076498 0.9410 0.9420 0.9420 0.9420 0.9440
1756.723483 0.9440 0.9420 0.9420 0.9410 0.9410
1763.370468 0.9420 0.9420 0.9420 0.9410 0.9410
1770.017453 0.9410 0.9410 0.9440 0.9440 0.9440
1776.664438 0.9440 0.9440 0.9440 0.9420 0.9410
1783.311423 0.9410 0.9410 0.9410 0.9410 0.9410
1789.958408 0.9420 0.9420 0.9420 0.9420 0.9420
1796.605393 0.9440 0.9440 0.9460 0.9460 0.9450
1803.252378 0.9440 0.9440 0.9440 0.9420 0.9420
1809.899363 0.9420 0.9440 0.9440 0.9440 0.9440
1816.546348 0.9410 0.9410 0.9420 0.9420 0.9440
1823.193333 0.9440 0.9450 0.9450 0.9450 0.9460
1829.840318 0.9460 0.9480 0.9480 0.9450 0.9440
1836.487303 0.9440 0.9440 0.9440 0.9440 0.9440
1843.134288 0.9440 0.9440 0.9440 0.9440 0.9440
1849.781273 0.9440 0.9440 0.9440 0.9450 0.9450
1856.428258 0.9450 0.9450 0.9450 0.9440 0.9440
1863.075243 0.9420 0.9420 0.9420 0.9440 0.9440
1869.722228 0.9440 0.9440 0.9410 0.9410 0.9420
1876.369213 0.9420 0.9420 0.9420 0.9410 0.9410
1883.016198 0.9410 0.9420 0.9420 0.9420 0.9420
1889.663182 0.9410 0.9410 0.9410 0.9410 0.9410
1896.310167 0.9410 0.9410 0.9410 0.9410 0.9410
1902.957152 0.9410 0.9410 0.9410 0.9410 0.9410
1909.604137 0.9410 0.9410 0.9410 0.9410 0.9410
1916.251122 0.9420 0.9420 0.9410 0.9410 0.9400
1922.898107 0.9380 0.9380 0.9380 0.9380 0.9380
1929.545092 0.9400 0.9400 0.9410 0.9410 0.9410
1936.192077 0.9410 0.9410 0.9410 0.9410 0.9410
1942.839062 0.9410 0.9410 0.9410 0.9420 0.9410
1949.486047 0.9410 0.9400 0.9400 0.9400 0.9410
1956.133032 0.9410 0.9410 0.9410 0.9410 0.9400
1962.780017 0.9400 0.9400 0.9400 0.9380 0.9380
1969.427002 0.9400 0.9400 0.9370 0.9360 0.9360
1976.073987 0.9360 0.9370 0.9370 0.9380 0.9380
1982.720972 0.9380 0.9380 0.9380 0.9380 0.9380
1989.367957 0.9380 0.9380 0.9380 0.9380 0.9380
1996.014942 0.9370 0.9370 0.9400 0.9440 0.9450
2002.661927 0.9460 0.9470 0.9480 0.9485 0.9490
2009.308912 0.9490 0.9490 0.9490 0.9490 0.9490
2015.955897 0.9490 0.9490 0.9490 0.9490 0.9490
2022.602882 0.9485 0.9480 0.9480 0.9480 0.9470
2029.249867 0.9460 0.9455 0.9450 0.9450 0.9450
2035.896852 0.9445 0.9440 0.9440 0.9440 0.9440
2042.543837 0.9440 0.9426 0.9411 0.9410 0.9410
2049.190822 0.9405 0.9400 0.9400 0.9400 0.9391
2055.837807 0.9381 0.9380 0.9380 0.9371 0.9361
2062.484792 0.9360 0.9360 0.9360 0.9360 0.9360
2069.131777 0.9360 0.9365 0.9369 0.9370 0.9370
2075.778762 0.9374 0.9379 0.9380 0.9380 0.9389
2082.425747 0.9399 0.9404 0.9409 0.9410 0.9410
2089.072732 0.9410 0.9410 0.9410 0.9410 0.9410
2095.719717 0.9410 0.9406 0.9401 0.9400 0.9400
2102.366702 0.9404 0.9409 0.9410 0.9410 0.9410
2109.013687 0.9410 0.9410 0.9410 0.9410 0.9410
2115.660671 0.9414 0.9419 0.9420 0.9420 0.9416
2122.307656 0.9411 0.9410 0.9410 0.9406 0.9401
2128.954641 0.9400 0.9400 0.9400 0.9400 0.9404
2135.601626 0.9409 0.9410 0.9410 0.9414 0.9419
2142.248611 0.9420 0.9420 0.9420 0.9420 0.9416
2148.895596 0.9411 0.9410 0.9410 0.9422 0.9437
2155.542581 0.9440 0.9440 0.9440 0.9440 0.9432
2162.189566 0.9422 0.9420 0.9420 0.9416 0.9411
2168.836551 0.9410 0.9410 0.9414 0.9419 0.9420
2175.483536 0.9420 0.9420 0.9420 0.9420 0.9420
2182.130521 0.9420 0.9420 0.9420 0.9420 0.9420
2188.777506 0.9420 0.9420 0.9420 0.9420 0.9420
2195.424491 0.9416 0.9411 0.9410 0.9410 0.9410
2202.071476 0.9410 0.9421 0.9436 0.9440 0.9440
2208.718461 0.9433 0.9423 0.9420 0.9420 0.9420
2215.365446 0.9420 0.9420 0.9420 0.9420 0.9420
2222.012431 0.9420 0.9420 0.9427 0.9437 0.9440
2228.659416 0.9440 0.9440 0.9440 0.9440 0.9440
2235.306401 0.9440 0.9440 0.9443 0.9449 0.9450
2241.953386 0.9450 0.9450 0.9450 0.9450 0.9450
2248.600371 0.9447 0.9442 0.9440 0.9440 0.9440
2255.247356 0.9440 0.9433 0.9423 0.9420 0.9420
2261.894341 0.9420 0.9420 0.9427 0.9437 0.9440
2268.541326 0.9440 0.9440 0.9440 0.9443 0.9448
2275.188311 0.9450 0.9450 0.9450 0.9450 0.9450
2281.835296 0.9450 0.9450 0.9450 0.9450 0.9450
2288.482281 0.9453 0.9458 0.9460 0.9460 0.9457
2295.129266 0.9452 0.9450 0.9450 0.9450 0.9450
2301.776251 0.9453 0.9458 0.9460 0.9460 0.9460
2308.423236 0.9460 0.9460 0.9460 0.9457 0.9452
2315.070221 0.9447 0.9442 0.9440 0.9440 0.9440
2321.717206 0.9440 0.9434 0.9424 0.9420 0.9420
2328.364191 0.9420 0.9420 0.9420 0.9420 0.9417
2335.011176 0.9412 0.9410 0.9410 0.9410 0.9410
2341.658160 0.9413 0.9418 0.9420 0.9420 0.9420
2348.305145 0.9420 0.9420 0.9420 0.9420 0.9420
2354.952130 0.9420 0.9420 0.9420 0.9420 0.9417
2361.599115 0.9412 0.9410 0.9410 0.9410 0.9410
2368.246100 0.9407 0.9402 0.9395 0.9385 0.9380
2374.893085 0.9380 0.9380 0.9380 0.9385 0.9395
2381.540070 0.9403 0.9408 0.9413 0.9418 0.9420
2388.187055 0.9420 0.9420 0.9420 0.9420 0.9420
2394.834040 0.9418 0.9413 0.9410 0.9410 0.9418
2401.481025 0.9433 0.9440 0.9440 0.9440 0.9440
2408.128010 0.9440 0.9440 0.9440 0.9440 0.9440
2414.774995 0.9440 0.9440 0.9440 0.9440 0.9440
2421.421980 0.9440 0.9440 0.9440 0.9440 0.9435
2428.068965 0.9425 0.9420 0.9420 0.9418 0.9413
2434.715950 0.9412 0.9417 0.9418 0.9413 0.9410
2441.362935 0.9410 0.9408 0.9403 0.9400 0.9400
2448.009920 0.9400 0.9400 0.9400 0.9400 0.9400
2454.656905 0.9400 0.9402 0.9407 0.9410 0.9410
2461.303890 0.9408 0.9403 0.9400 0.9400 0.9400
2467.950875 0.9400 0.9400 0.9400 0.9400 0.9400
2474.597860 0.9400 0.9400 0.9400 0.9400 0.9402
2481.244845 0.9407 0.9410 0.9410 0.9408 0.9403
2487.891830 0.9396 0.9386 0.9380 0.9380 0.9380
2494.538815 0.9380 0.9386 0.9401 0.9410 0.9410
2501.185800 0.9408 0.9403 0.9400 0.9400 0.9396
2507.832785 0.9386 0.9380 0.9380 0.9384 0.9394
2514.479770 0.9400 0.9400 0.9400 0.9400 0.9400
2521.126755 0.9400 0.9397 0.9387 0.9380 0.9380
2527.773740 0.9380 0.9380 0.9383 0.9393 0.9400
2534.420725 0.9400 0.9400 0.9400 0.9400 0.9400
2541.067710 0.9400 0.9400 0.9400 0.9400 0.9402
2547.714695 0.9407 0.9410 0.9410 0.9408 0.9403
2554.361680 0.9400 0.9400 0.9397 0.9387 0.9378
2561.008665 0.9373 0.9370 0.9370 0.9370 0.9370
2567.655649 0.9370 0.9370 0.9370 0.9370 0.9371
2574.302634 0.9376 0.9380 0.9380 0.9374 0.9355
2580.949619 0.9340 0.9340 0.9340 0.9340 0.9343
2587.596604 0.9353 0.9360 0.9360 0.9360 0.9360
2594.243589 0.9360 0.9360 0.9361 0.9366 0.9369
2600.890574 0.9364 0.9360 0.9360 0.9360 0.9360
2607.537559 0.9360 0.9360 0.9360 0.9360 0.9361
2614.184544 0.9366 0.9370 0.9370 0.9371 0.9376
2620.831529 0.9380 0.9380 0.9380 0.9380 0.9379
2627.478514 0.9374 0.9369 0.9364 0.9360 0.9360
2634.125499 0.9360 0.9360 0.9362 0.9372 0.9379
2640.772484 0.9374 0.9369 0.9364 0.9358 0.9348
2647.419469 0.9339 0.9334 0.9330 0.9330 0.9330
2654.066454 0.9330 0.9329 0.9324 0.9320 0.9320
2660.713439 0.9320 0.9320 0.9320 0.9320 0.9320
2667.360424 0.9320 0.9321 0.9326 0.9330 0.9330
2674.007409 0.9331 0.9336 0.9342 0.9352 0.9360
2680.654394 0.9360 0.9360 0.9360 0.9359 0.9349
2687.301379 0.9340 0.9340 0.9339 0.9334 0.9330
2693.948364 0.9330 0.9330 0.9330 0.9330 0.9330
2700.595349 0.9330 0.9330 0.9330 0.9330 0.9329
2707.242334 0.9324 0.9318 0.9303 0.9290 0.9290
2713.889319 0.9289 0.9284 0.9280 0.9280 0.9281
2720.536304 0.9286 0.9290 0.9290 0.9290 0.9290
2727.183289 0.9290 0.9290 0.9290 0.9290 0.9290
2733.830274 0.9295 0.9301 0.9311 0.9319 0.9304
2740.477259 0.9290 0.9290 0.9290 0.9290 0.9290
2747.124244 0.9290 0.9290 0.9290 0.9290 0.9290
2753.771229 0.9290 0.9295 0.9301 0.9316 0.9330
2760.418214 0.9330 0.9330 0.9325 0.9320 0.9320
2767.065199 0.9320 0.9310 0.9300 0.9300 0.9300
2773.712184 0.9300 0.9300 0.9295 0.9289 0.9269
2780.359169 0.9250 0.9250 0.9250 0.9255 0.9260
2787.006154 0.9260 0.9260 0.9260 0.9260 0.9270
2793.653138 0.9280 0.9285 0.9290 0.9290 0.9290
2800.300123 0.9275 0.9260 0.9255 0.9250 0.9250
2806.947108 0.9250 0.9265 0.9280 0.9285 0.9290
2813.594093 0.9290 0.9290 0.9290 0.9290 0.9285
2820.241078 0.9280 0.9280 0.9280 0.9270 0.9260
2826.888063 0.9250 0.9240 0.9230 0.9220 0.9220
2833.535048 0.9220 0.9220 0.9220 0.9220 0.9220
2840.182033 0.9215 0.9210 0.9205 0.9200 0.9190
2846.829018 0.9181 0.9180 0.9180 0.9175 0.9170
2853.476003 0.9170 0.9170 0.9165 0.9160 0.9151
2860.122988 0.9141 0.9140 0.9140 0.9140 0.9140
2866.769973 0.9140 0.9140 0.9140 0.9140 0.9135
2873.416958 0.9130 0.9130 0.9130 0.9130 0.9130
2880.063943 0.9125 0.9120 0.9120 0.9120 0.9120
2886.710928 0.9120 0.9111 0.9101 0.9100 0.9100
2893.357913 0.9100 0.9100 0.9096 0.9091 0.9090
2900.004898 0.9090 0.9090 0.9090 0.9086 0.9081
2906.651883 0.9071 0.9061 0.9060 0.9060 0.9056
2913.298868 0.9051 0.9050 0.9050 0.9050 0.9050
2919.945853 0.9046 0.9041 0.9040 0.9040 0.9040
2926.592838 0.9040 0.9040 0.9040 0.9040 0.9040
2933.239823 0.9040 0.9040 0.9044 0.9049 0.9054
2939.886808 0.9059 0.9068 0.9078 0.9080 0.9080
2946.533793 0.9084 0.9089 0.9090 0.9090 0.9094
2953.180778 0.9099 0.9100 0.9100 0.9100 0.9100
2959.827763 0.9100 0.9100 0.9100 0.9100 0.9100
2966.474748 0.9100 0.9108 0.9118 0.9124 0.9129
2973.121733 0.9130 0.9130 0.9134 0.9139 0.9148
2979.768718 0.9158 0.9160 0.9160 0.9164 0.9169
2986.415703 0.9174 0.9179 0.9180 0.9180 0.9180
2993.062688 0.9180 0.9180 0.9180 0.9176 0.9171
2999.709673 0.9170 0.9170 0.9166 0.9161 0.9160
3006.356658 0.9160 0.9153 0.9143 0.9140 0.9140
3013.003643 0.9140 0.9140 0.9140 0.9140 0.9140
3019.650627 0.9140 0.9140 0.9140 0.9140 0.9140
3026.297612 0.9140 0.9140 0.9140 0.9140 0.9136
3032.944597 0.9131 0.9130 0.9130 0.9130 0.9130
3039.591582 0.9130 0.9130 0.9130 0.9130 0.9130
3046.238567 0.9130 0.9126 0.9121 0.9120 0.9120
3052.885552 0.9120 0.9120 0.9120 0.9120 0.9120
3059.532537 0.9120 0.9120 0.9120 0.9120 0.9120
3066.179522 0.9120 0.9120 0.9120 0.9120 0.9120
3072.826507 0.9120 0.9120 0.9120 0.9120 0.9120
3079.473492 0.9120 0.9120 0.9120 0.9120 0.9120
3086.120477 0.9120 0.9120 0.9120 0.9120 0.9120
3092.767462 0.9120 0.9120 0.9120 0.9120 0.9120
3099.414447 0.9120 0.9120 0.9120 0.9114 0.9104
3106.061432 0.9100 0.9100 0.9100 0.9100 0.9100
3112.708417 0.9100 0.9100 0.9100 0.9100 0.9100
3119.355402 0.9097 0.9092 0.9090 0.9090 0.9090
3126.002387 0.9090 0.9090 0.9090 0.9090 0.9090
3132.649372 0.9087 0.9082 0.9080 0.9080 0.9080
3139.296357 0.9080 0.9080 0.9080 0.9080 0.9080
3145.943342 0.9080 0.9080 0.9080 0.9080 0.9080
3152.590327 0.9080 0.9080 0.9080 0.9080 0.9080
3159.237312 0.9074 0.9064 0.9060 0.9060 0.9057
3165.884297 0.9052 0.9050 0.9050 0.9047 0.9042
3172.531282 0.9040 0.9040 0.9040 0.9040 0.9040
3179.178267 0.9040 0.9034 0.9025 0.9020 0.9020
3185.825252 0.9020 0.9020 0.9020 0.9020 0.9017
3192.472237 0.9012 0.9010 0.9010 0.9010 0.9010
3199.119222 0.9010 0.9010 0.9007 0.9002 0.9000
3205.766207 0.9000 0.8995 0.8985 0.8980 0.8980
3212.413192 0.8975 0.8965 0.8960 0.8960 0.8953
3219.060177 0.8938 0.8928 0.8923 0.8920 0.8920
3225.707162 0.8915 0.8905 0.8900 0.8900 0.8900
3232.354147 0.8900 0.8898 0.8893 0.8888 0.8883
3239.001132 0.8880 0.8880 0.8880 0.8880 0.8875
3245.648116 0.8865 0.8860 0.8860 0.8860 0.8860
3252.295101 0.8858 0.8853 0.8848 0.8843 0.8835
3258.942086 0.8825 0.8820 0.8820 0.8818 0.8813
3265.589071 0.8810 0.8810 0.8810 0.8810 0.8808
3272.236056 0.8803 0.8800 0.8800 0.8796 0.8786
3278.883041 0.8778 0.8773 0.8766 0.8756 0.8750
3285.530026 0.8750 0.8744 0.8729 0.8720 0.8720
3292.177011 0.8718 0.8713 0.8706 0.8696 0.8688
3298.823996 0.8683 0.8678 0.8673 0.8670 0.8670
3305.470981 0.8666 0.8656 0.8648 0.8643 0.8638
3312.117966 0.8633 0.8626 0.8616 0.8606 0.8596
3318.764951 0.8584 0.8569 0.8554 0.8539 0.8528
3325.411936 0.8523 0.8518 0.8513 0.8505 0.8489
3332.058921 0.8480 0.8480 0.8473 0.8453 0.8438
3338.705906 0.8433 0.8426 0.8416 0.8406 0.8397
3345.352891 0.8385 0.8370 0.8358 0.8353 0.8345
3351.999876 0.8330 0.8320 0.8320 0.8315 0.8300
3358.646861 0.8287 0.8277 0.8267 0.8257 0.8247
3365.293846 0.8237 0.8227 0.8217 0.8208 0.8203
3371.940831 0.8195 0.8180 0.8168 0.8163 0.8154
3378.587816 0.8134 0.8110 0.8075 0.8047 0.8037
3385.234801 0.8027 0.8017 0.8008 0.8003 0.7999
3391.881786 0.7994 0.7987 0.7977 0.7967 0.7957
3398.528771 0.7947 0.7937 0.7929 0.7924 0.7919
3405.175756 0.7914 0.7907 0.7897 0.7887 0.7877
3411.822741 0.7866 0.7851 0.7839 0.7834 0.7830
3418.469726 0.7830 0.7827 0.7817 0.7810 0.7810
3425.116711 0.7809 0.7804 0.7800 0.7800 0.7799
3431.763696 0.7794 0.7788 0.7778 0.7770 0.7770
3438.410681 0.7769 0.7764 0.7760 0.7760 0.7760
3445.057666 0.7760 0.7760 0.7760 0.7760 0.7760
3451.704651 0.7760 0.7760 0.7760 0.7760 0.7760
3458.351636 0.7760 0.7761 0.7766 0.7770 0.7770
3464.998620 0.7770 0.7770 0.7772 0.7782 0.7791
3471.645605 0.7796 0.7801 0.7806 0.7812 0.7822
3478.292590 0.7830 0.7830 0.7831 0.7836 0.7843
3484.939575 0.7863 0.7880 0.7880 0.7882 0.7898
3491.586560 0.7911 0.7916 0.7920 0.7920 0.7921
3498.233545 0.7926 0.7932 0.7942 0.7951 0.7956
3504.880530 0.7961 0.7966 0.7970 0.7970 0.7971
3511.527515 0.7981 0.7991 0.7996 0.8001 0.8006
3518.174500 0.8010 0.8010 0.8011 0.8021 0.8031
3524.821485 0.8036 0.8041 0.8046 0.8052 0.8067
3531.468470 0.8081 0.8086 0.8092 0.8107 0.8124
3538.115455 0.8159 0.8193 0.8223 0.8251 0.8261
3544.762440 0.8271 0.8276 0.8280 0.8280 0.8280
3551.409425 0.8280 0.8280 0.8285 0.8291 0.8301
3558.056410 0.8312 0.8332 0.8352 0.8372 0.8390
3564.703395 0.8390 0.8391 0.8401 0.8412 0.8448
3571.350380 0.8480 0.8480 0.8480 0.8485 0.8491
3577.997365 0.8501 0.8512 0.8537 0.8560 0.8560
3584.644350 0.8560 0.8565 0.8570 0.8570 0.8571
3591.291335 0.8586 0.8600 0.8605 0.8610 0.8620
3597.938320 0.8631 0.8651 0.8670 0.8680 0.8691
3604.585305 0.8706 0.8720 0.8725 0.8730 0.8745
3611.232290 0.8760 0.8765 0.8770 0.8775 0.8780
3617.879275 0.8790 0.8800 0.8805 0.8810 0.8810
3624.526260 0.8810 0.8810 0.8810 0.8815 0.8820
3631.173245 0.8840 0.8860 0.8870 0.8880 0.8885
3637.820230 0.8890 0.8890 0.8890 0.8890 0.8890
3644.467215 0.8890 0.8890 0.8895 0.8900 0.8900
3651.114200 0.8900 0.8900 0.8900 0.8900 0.8900
3657.761185 0.8910 0.8920 0.8920 0.8920 0.8920
3664.408170 0.8920 0.8920 0.8920 0.8920 0.8920
3671.055155 0.8925 0.8930 0.8930 0.8930 0.8930
3677.702140 0.8930 0.8930 0.8930 0.8930 0.8930
3684.349125 0.8930 0.8930 0.8930 0.8930 0.8930
3690.996109 0.8930 0.8930 0.8930 0.8930 0.8930
3697.643094 0.8930 0.8930 0.8930 0.8930 0.8930
3704.290079 0.8930 0.8930 0.8930 0.8930 0.8930
3710.937064 0.8930 0.8930 0.8930 0.8930 0.8930
3717.584049 0.8930 0.8930 0.8930 0.8930 0.8930
3724.231034 0.8930 0.8930 0.8930 0.8930 0.8930
3730.878019 0.8930 0.8930 0.8930 0.8930 0.8930
3737.525004 0.8930 0.8930 0.8930 0.8930 0.8930
3744.171989 0.8930 0.8930 0.8930 0.8930 0.8930
3750.818974 0.8930 0.8930 0.8930 0.8930 0.8930
3757.465959 0.8930 0.8930 0.8930 0.8930 0.8930
3764.112944 0.8930 0.8930 0.8930 0.8930 0.8930
3770.759929 0.8930 0.8930 0.8930 0.8934 0.8939
3777.406914 0.8940 0.8940 0.8940 0.8940 0.8936
3784.053899 0.8931 0.8926 0.8921 0.8920 0.8920
3790.700884 0.8920 0.8920 0.8924 0.8929 0.8930
3797.347869 0.8930 0.8934 0.8939 0.8948 0.8958
3803.994854 0.8960 0.8960 0.8952 0.8942 0.8936
3810.641839 0.8931 0.8930 0.8930 0.8934 0.8939
3817.288824 0.8948 0.8958 0.8960 0.8960 0.8952
3823.935809 0.8942 0.8940 0.8940 0.8940 0.8940
3830.582794 0.8936 0.8931 0.8930 0.8930 0.8930
3837.229779 0.8930 0.8926 0.8921 0.8920 0.8920
3843.876764 0.8920 0.8920 0.8913 0.8903 0.8900
3850.523749 0.8900 0.8896 0.8891 0.8890 0.8890
3857.170734 0.8890 0.8890 0.8894 0.8899 0.8900
3863.817719 0.8900 0.8900 0.8900 0.8907 0.8917
3870.464704 0.8920 0.8920 0.8924 0.8929 0.8930
3877.111689 0.8930 0.8930 0.8930 0.8927 0.8922
3883.758674 0.8920 0.8920 0.8913 0.8903 0.8897
3890.405659 0.8892 0.8890 0.8890 0.8890 0.8890
3897.052644 0.8890 0.8890 0.8890 0.8890 0.8890
3903.699629 0.8890 0.8890 0.8890 0.8893 0.8898
3910.346614 0.8900 0.8900 0.8900 0.8900 0.8900
3916.993598 0.8900 0.8900 0.8900 0.8900 0.8900
3923.640583 0.8900 0.8900 0.8900 0.8900 0.8900
3930.287568 0.8900 0.8900 0.8900 0.8900 0.8900
3936.934553 0.8900 0.8900 0.8900 0.8900 0.8900
3943.581538 0.8900 0.8900 0.8900 0.8900 0.8900
3950.228523 0.8900 0.8900 0.8900 0.8900 0.8900
3956.875508 0.8900 0.8900 0.8900 0.8897 0.8892
3963.522493 0.8890 0.8890 0.8890 0.8890 0.8890
3970.169478 0.8890 0.8887 0.8882 0.8880 0.8880
3976.816463 0.8880 0.8880 0.8880 0.8880 0.8880
3983.463448 0.8880 0.8874 0.8864 0.8860 0.8860
##END=
