##TITLE=2-NAPHTHOL-6,8-DISULFONIC ACID DIPOTASSIUM SALT
$$ E.K. (W.L.)
##JCAMP-DX=4.24
##DATA TYPE=INFRARED SPECTRUM
##CLASS=COBLENTZ
##ORIGIN=WYANDOTTE CHEMICALS CORP., WYANDOTTE, MICHIGAN, USA
##OWNER=COBLENTZ SOCIETY
Collection (C) 2018 copyright by the U.S. Secretary of Commerce
on behalf of the United States of America. All rights reserved.
##DATE=Not specified, most likely prior to 1970
##MOLFORM=C10 H6 O7 S2 K2
##SOURCE REFERENCE=COBLENTZ NO. 353
##$NIST ID=B6000353
##$NIST SOURCE=COBLENTZ
##$NIST IMAGE=cob353
##SPECTROMETER/DATA SYSTEM=Not specified, most likely a prism, grating, or hybrid spectrometer.
##STATE=SOLID (MULL)
##SAMPLING PROCEDURE=TRANSMISSION
##RESOLUTION=4
##DATA PROCESSING=DIGITIZED BY NIST FROM HARD COPY
##XUNITS=MICROMETERS
##YUNITS=TRANSMITTANCE
##XFACTOR=1.000000
##YFACTOR=1
##DELTAX=000.006645
##FIRSTX=2.03
##LASTX=15.9963
##FIRSTY=0.548
##MAXX=15.9963
##MINX=2.03
##MAXY=0.96
##MINY=0.028
##NPOINTS=2103
##XYDATA=(X++(Y..Y))
2.030000 0.5480 0.5480 0.5460 0.5460 0.5460
2.063238 0.5490 0.5510 0.5530 0.5530 0.5510
2.096000 0.5530 0.5540 0.5540 0.5560 0.5560
2.129238 0.5560 0.5580 0.5580 0.5580 0.5590
2.163000 0.5580 0.5580 0.5580 0.5560 0.5560
2.196238 0.5540 0.5510 0.5480 0.5480 0.5490
2.229000 0.5490 0.5490 0.5490 0.5490 0.5490
2.262238 0.5510 0.5510 0.5510 0.5530 0.5540
2.296000 0.5540 0.5540 0.5580 0.5590 0.5640
2.329238 0.5690 0.5710 0.5730 0.5730 0.5730
2.362000 0.5740 0.5740 0.5760 0.5760 0.5760
2.395238 0.5760 0.5760 0.5740 0.5740 0.5740
2.429000 0.5740 0.5760 0.5780 0.5780 0.5810
2.462238 0.5840 0.5860 0.5890 0.5910 0.5930
2.495000 0.5940 0.5960 0.5980 0.5980 0.5990
2.528238 0.5990 0.6010 0.6020 0.6020 0.6020
2.561000 0.6020 0.6020 0.6020 0.6020 0.6020
2.594238 0.6040 0.6060 0.6090 0.6110 0.6110
2.628000 0.6110 0.6110 0.6110 0.6110 0.6110
2.661238 0.6090 0.6060 0.5990 0.5940 0.5880
2.694000 0.5810 0.5760 0.5690 0.5590 0.5460
2.727238 0.5290 0.5110 0.4930 0.4650 0.4330
2.761000 0.3980 0.3680 0.3500 0.3400 0.3320
2.794238 0.3280 0.3270 0.3300 0.3370 0.3480
2.827000 0.3620 0.3830 0.4100 0.4360 0.4610
2.860238 0.4760 0.4950 0.5090 0.5130 0.5140
2.894000 0.5160 0.5160 0.5130 0.5010 0.4960
2.927238 0.4900 0.4700 0.4530 0.4250 0.4060
2.960000 0.3880 0.3720 0.3550 0.3280 0.3020
2.993238 0.2740 0.2520 0.2340 0.2170 0.2150
3.027000 0.2190 0.2420 0.2600 0.2750 0.2840
3.060238 0.2920 0.2990 0.3100 0.3270 0.3470
3.093000 0.3580 0.3700 0.3800 0.3870 0.3950
3.126238 0.4000 0.4050 0.4110 0.4160 0.4210
3.159000 0.4300 0.4360 0.4380 0.4430 0.4500
3.192238 0.4560 0.4600 0.4660 0.4800 0.4880
3.226000 0.4860 0.4850 0.4810 0.4780 0.4750
3.259238 0.4710 0.4580 0.4480 0.4330 0.4230
3.292000 0.4060 0.3720 0.3120 0.2320 0.1710
3.325238 0.1070 0.0730 0.0430 0.0290 0.0280
3.359000 0.0280 0.0280 0.0280 0.0290 0.0290
3.392238 0.0290 0.0290 0.0330 0.0430 0.0510
3.425000 0.0580 0.0680 0.0710 0.0730 0.0710
3.458238 0.0690 0.0680 0.0680 0.0790 0.1120
3.492000 0.1570 0.2120 0.2700 0.3320 0.3930
3.525238 0.4480 0.4950 0.5510 0.5680 0.5810
3.558000 0.5910 0.5990 0.6020 0.6090 0.6160
3.591238 0.6190 0.6210 0.6210 0.6220 0.6240
3.625000 0.6240 0.6260 0.6290 0.6310 0.6310
3.658238 0.6310 0.6310 0.6320 0.6360 0.6390
3.691000 0.6440 0.6470 0.6490 0.6510 0.6490
3.724238 0.6490 0.6490 0.6490 0.6510 0.6540
3.757000 0.6560 0.6570 0.6570 0.6610 0.6620
3.790238 0.6620 0.6620 0.6640 0.6640 0.6640
3.824000 0.6660 0.6690 0.6720 0.6760 0.6790
3.857238 0.6810 0.6840 0.6860 0.6870 0.6870
3.890000 0.6910 0.6920 0.6920 0.6920 0.6920
3.923238 0.6940 0.6940 0.6940 0.6960 0.6960
3.957000 0.6970 0.6990 0.6990 0.6990 0.6990
3.990238 0.7000 0.7040 0.7070 0.7100 0.7120
4.023000 0.7140 0.7150 0.7190 0.7220 0.7220
4.056238 0.7250 0.7250 0.7270 0.7290 0.7290
4.090000 0.7270 0.7270 0.7270 0.7290 0.7290
4.123238 0.7300 0.7300 0.7320 0.7320 0.7340
4.156000 0.7350 0.7370 0.7390 0.7390 0.7390
4.189238 0.7390 0.7400 0.7420 0.7400 0.7400
4.223000 0.7390 0.7400 0.7400 0.7420 0.7450
4.256238 0.7450 0.7490 0.7490 0.7490 0.7500
4.289000 0.7520 0.7550 0.7570 0.7590 0.7600
4.322238 0.7640 0.7670 0.7690 0.7720 0.7750
4.355000 0.7790 0.7800 0.7820 0.7820 0.7840
4.388238 0.7850 0.7870 0.7870 0.7840 0.7790
4.422000 0.7740 0.7720 0.7740 0.7740 0.7740
4.455238 0.7740 0.7740 0.7750 0.7750 0.7750
4.488000 0.7770 0.7770 0.7790 0.7790 0.7800
4.521238 0.7800 0.7800 0.7800 0.7800 0.7800
4.555000 0.7800 0.7800 0.7820 0.7850 0.7870
4.588238 0.7890 0.7920 0.7940 0.7970 0.8000
4.621000 0.8000 0.8000 0.8020 0.8020 0.8050
4.654238 0.8050 0.8100 0.8130 0.8150 0.8170
4.688000 0.8170 0.8180 0.8180 0.8180 0.8180
4.721238 0.8170 0.8180 0.8200 0.8220 0.8230
4.754000 0.8230 0.8200 0.8180 0.8180 0.8200
4.787238 0.8220 0.8200 0.8220 0.8230 0.8230
4.821000 0.8230 0.8230 0.8230 0.8250 0.8230
4.854238 0.8250 0.8250 0.8250 0.8250 0.8270
4.887000 0.8270 0.8270 0.8280 0.8280 0.8320
4.920238 0.8320 0.8320 0.8300 0.8300 0.8300
4.953000 0.8300 0.8320 0.8370 0.8380 0.8400
4.986238 0.8420 0.8400 0.8430 0.8450 0.8500
5.020000 0.8530 0.8550 0.8570 0.8570 0.8570
5.053238 0.8580 0.8580 0.8600 0.8600 0.8600
5.086000 0.8600 0.8620 0.8620 0.8600 0.8620
5.119238 0.8630 0.8680 0.8700 0.8720 0.8730
5.153000 0.8750 0.8770 0.8800 0.8830 0.8870
5.186238 0.8880 0.8880 0.8880 0.8900 0.8880
5.219000 0.8900 0.8900 0.8900 0.8900 0.8900
5.252238 0.8900 0.8900 0.8880 0.8900 0.8920
5.286000 0.8930 0.8950 0.8930 0.8950 0.8980
5.319238 0.9000 0.9000 0.9000 0.9000 0.8950
5.352000 0.8920 0.8820 0.8800 0.8800 0.8800
5.385238 0.8830 0.8830 0.8870 0.8880 0.8900
5.419000 0.8920 0.8970 0.8980 0.9010 0.9030
5.452238 0.9030 0.9050 0.9060 0.9060 0.9060
5.485000 0.9080 0.9100 0.9100 0.9100 0.9100
5.518238 0.9110 0.9130 0.9130 0.9150 0.9180
5.551000 0.9200 0.9210 0.9210 0.9230 0.9230
5.584238 0.9250 0.9260 0.9280 0.9260 0.9210
5.618000 0.9200 0.9180 0.9200 0.9310 0.9360
5.651238 0.9400 0.9410 0.9430 0.9450 0.9480
5.684000 0.9480 0.9480 0.9500 0.9480 0.9480
5.717238 0.9430 0.9360 0.9300 0.9280 0.9280
5.751000 0.9350 0.9350 0.9330 0.9330 0.9310
5.784238 0.9350 0.9360 0.9410 0.9410 0.9410
5.817000 0.9400 0.9380 0.9380 0.9380 0.9380
5.850238 0.9410 0.9530 0.9580 0.9600 0.9560
5.884000 0.9530 0.9510 0.9500 0.9480 0.9460
5.917238 0.9450 0.9410 0.9330 0.9230 0.9060
5.950000 0.8880 0.8630 0.8180 0.7500 0.6690
5.983238 0.6210 0.5810 0.5790 0.5830 0.5990
6.017000 0.6220 0.6670 0.7090 0.7140 0.7140
6.050238 0.7050 0.6790 0.6490 0.6090 0.5730
6.083000 0.5140 0.4780 0.4400 0.3170 0.2270
6.116238 0.2190 0.2220 0.2590 0.3450 0.4000
6.150000 0.4630 0.5290 0.5290 0.5090 0.4880
6.183238 0.4850 0.4880 0.5540 0.5890 0.6270
6.216000 0.6290 0.6290 0.6220 0.6220 0.6320
6.249238 0.6660 0.6910 0.7120 0.7320 0.7500
6.282000 0.7650 0.7800 0.7940 0.8050 0.8150
6.315238 0.8230 0.8250 0.8250 0.8250 0.8270
6.349000 0.8320 0.8400 0.8470 0.8530 0.8550
6.382238 0.8580 0.8600 0.8580 0.8530 0.8520
6.415000 0.8500 0.8430 0.8350 0.8170 0.7800
6.448238 0.7250 0.6740 0.5740 0.5140 0.4980
6.482000 0.4810 0.4800 0.4810 0.5340 0.5610
6.515238 0.5910 0.6220 0.6590 0.6970 0.7120
6.548000 0.7290 0.7400 0.7490 0.7600 0.7740
6.581238 0.7770 0.7840 0.7850 0.7970 0.8050
6.615000 0.8130 0.8170 0.8170 0.8180 0.8170
6.648238 0.8150 0.8130 0.8100 0.7870 0.7670
6.681000 0.7470 0.7290 0.7090 0.6860 0.6560
6.714238 0.6190 0.5730 0.5310 0.4880 0.4060
6.748000 0.3050 0.2550 0.2140 0.1760 0.1570
6.781238 0.1370 0.1310 0.1290 0.1320 0.1470
6.814000 0.1610 0.1790 0.2020 0.2290 0.2590
6.847238 0.2900 0.3250 0.3620 0.3980 0.4150
6.880000 0.4430 0.4610 0.4850 0.5460 0.5790
6.913238 0.6090 0.6310 0.6470 0.6560 0.6620
6.947000 0.6670 0.6770 0.6940 0.7100 0.7240
6.980238 0.7370 0.7490 0.7640 0.7800 0.7900
7.013000 0.8000 0.8050 0.8170 0.8200 0.8250
7.046238 0.8270 0.8270 0.8220 0.8050 0.8000
7.080000 0.7950 0.7870 0.7790 0.7720 0.7640
7.113238 0.7570 0.7250 0.6770 0.6140 0.5480
7.146000 0.5140 0.4800 0.4330 0.3620 0.3200
7.179238 0.3000 0.2920 0.2800 0.2570 0.2100
7.213000 0.1840 0.1570 0.1510 0.1510 0.1770
7.246238 0.2300 0.2720 0.3030 0.3350 0.3620
7.279000 0.3900 0.4050 0.4250 0.4480 0.4710
7.312238 0.4930 0.5240 0.5410 0.5640 0.5880
7.346000 0.6140 0.6360 0.6410 0.6470 0.6570
7.379238 0.6660 0.6740 0.6760 0.6820 0.6870
7.412000 0.6910 0.6970 0.7020 0.7120 0.7200
7.445238 0.7250 0.7370 0.7420 0.7440 0.7470
7.478000 0.7490 0.7500 0.7540 0.7550 0.7550
7.511238 0.7550 0.7570 0.7600 0.7600 0.7590
7.545000 0.7590 0.7590 0.7570 0.7540 0.7500
7.578238 0.7490 0.7440 0.7420 0.7370 0.7320
7.611000 0.7220 0.7200 0.7140 0.7120 0.7120
7.644238 0.7100 0.7100 0.7100 0.7100 0.7090
7.678000 0.7100 0.7100 0.7120 0.7140 0.7140
7.711238 0.7100 0.7020 0.6940 0.6820 0.6740
7.744000 0.6660 0.6620 0.6570 0.6540 0.6490
7.777238 0.6460 0.6390 0.6290 0.6170 0.6160
7.811000 0.6070 0.5960 0.5790 0.5590 0.5410
7.844238 0.5210 0.5030 0.4950 0.4860 0.4610
7.877000 0.4250 0.4050 0.3720 0.3330 0.2900
7.910238 0.2490 0.2100 0.1790 0.1740 0.1740
7.944000 0.1870 0.2200 0.2370 0.2440 0.2440
7.977238 0.2390 0.2220 0.2040 0.1820 0.1540
8.010000 0.1140 0.0980 0.0880 0.0710 0.0610
8.043238 0.0530 0.0480 0.0440 0.0430 0.0410
8.076000 0.0410 0.0410 0.0410 0.0410 0.0410
8.109238 0.0410 0.0410 0.0410 0.0410 0.0410
8.143000 0.0410 0.0410 0.0430 0.0480 0.0480
8.176238 0.0490 0.0510 0.0510 0.0510 0.0510
8.209000 0.0530 0.0560 0.0590 0.0580 0.0490
8.242238 0.0460 0.0430 0.0410 0.0410 0.0410
8.276000 0.0410 0.0410 0.0390 0.0380 0.0380
8.309238 0.0380 0.0390 0.0430 0.0460 0.0480
8.342000 0.0480 0.0480 0.0480 0.0460 0.0460
8.375238 0.0460 0.0490 0.0540 0.0610 0.0690
8.409000 0.0780 0.0830 0.0880 0.0940 0.1010
8.442238 0.1070 0.1120 0.1190 0.1260 0.1270
8.475000 0.1270 0.1170 0.1110 0.1090 0.1090
8.508238 0.1110 0.1270 0.1370 0.1510 0.1590
8.542000 0.1670 0.1720 0.1720 0.1720 0.1670
8.575238 0.1610 0.1460 0.1270 0.1140 0.1110
8.608000 0.1110 0.1270 0.1610 0.1820 0.2100
8.641238 0.2370 0.2590 0.2770 0.2940 0.3100
8.674000 0.3230 0.3380 0.3500 0.3630 0.3750
8.707238 0.3880 0.4000 0.4110 0.4250 0.4400
8.741000 0.4530 0.4650 0.4730 0.4850 0.4960
8.774238 0.5210 0.5260 0.5340 0.5410 0.5460
8.807000 0.5510 0.5560 0.5590 0.5640 0.5660
8.840238 0.5630 0.5560 0.5410 0.5230 0.5110
8.874000 0.5000 0.4700 0.4360 0.3950 0.3620
8.907238 0.3280 0.2800 0.2420 0.2150 0.1960
8.940000 0.1810 0.1760 0.1760 0.1790 0.1990
8.973238 0.2300 0.2450 0.2900 0.3220 0.3420
9.007000 0.3680 0.3970 0.4280 0.4460 0.4650
9.040238 0.4780 0.5130 0.5210 0.5310 0.5380
9.073000 0.5430 0.5490 0.5560 0.5660 0.5790
9.106238 0.5940 0.5990 0.6020 0.6110 0.6190
9.140000 0.6270 0.6270 0.6310 0.6340 0.6390
9.173238 0.6440 0.6510 0.6560 0.6670 0.6710
9.206000 0.6760 0.6790 0.6810 0.6820 0.6810
9.239238 0.6810 0.6810 0.6760 0.6740 0.6720
9.272000 0.6720 0.6640 0.6540 0.6470 0.6370
9.305238 0.6220 0.6070 0.5890 0.5540 0.5240
9.339000 0.5090 0.4930 0.4380 0.4100 0.3670
9.372238 0.3330 0.2970 0.2550 0.2070 0.1590
9.405000 0.1470 0.1370 0.1260 0.1190 0.1190
9.438238 0.1210 0.1290 0.1390 0.1490 0.1520
9.472000 0.1520 0.1520 0.1510 0.1360 0.1260
9.505238 0.1190 0.1040 0.0960 0.0880 0.0810
9.538000 0.0760 0.0690 0.0660 0.0660 0.0690
9.571238 0.0690 0.0760 0.0830 0.0930 0.1010
9.605000 0.1070 0.1140 0.1220 0.1320 0.1440
9.638238 0.1620 0.1710 0.1770 0.1840 0.1960
9.671000 0.2100 0.2270 0.2420 0.2550 0.2640
9.704238 0.2740 0.2850 0.2990 0.3080 0.3180
9.738000 0.3250 0.3330 0.3430 0.3530 0.3670
9.771238 0.3820 0.3900 0.3950 0.4000 0.4060
9.804000 0.4180 0.4350 0.4430 0.4480 0.4550
9.837238 0.4600 0.4680 0.4750 0.4880 0.4960
9.870000 0.5060 0.5080 0.5090 0.5110 0.5140
9.903238 0.5210 0.5310 0.5360 0.5460 0.5530
9.937000 0.5580 0.5580 0.5590 0.5610 0.5640
9.970238 0.5690 0.5730 0.5680 0.5630 0.5560
10.003000 0.5530 0.5480 0.5490 0.5540 0.5610
10.036238 0.5730 0.5780 0.5830 0.5840 0.5890
10.070000 0.5990 0.6040 0.6060 0.6070 0.6110
10.103238 0.6140 0.6190 0.6240 0.6270 0.6290
10.136000 0.6310 0.6320 0.6340 0.6360 0.6370
10.169238 0.6390 0.6410 0.6420 0.6470 0.6490
10.203000 0.6490 0.6440 0.6460 0.6460 0.6460
10.236238 0.6510 0.6540 0.6570 0.6570 0.6620
10.269000 0.6640 0.6670 0.6670 0.6690 0.6690
10.302238 0.6690 0.6720 0.6720 0.6740 0.6720
10.336000 0.6720 0.6760 0.6790 0.6820 0.6840
10.369238 0.6860 0.6860 0.6890 0.6890 0.6910
10.402000 0.6920 0.6920 0.6920 0.6920 0.6920
10.435238 0.6920 0.6970 0.6990 0.7000 0.7050
10.468000 0.7100 0.7140 0.7140 0.7150 0.7150
10.501238 0.7150 0.7150 0.7150 0.7150 0.7170
10.535000 0.7170 0.7200 0.7200 0.7220 0.7220
10.568238 0.7250 0.7290 0.7290 0.7290 0.7270
10.601000 0.7290 0.7300 0.7340 0.7340 0.7340
10.634238 0.7320 0.7300 0.7300 0.7300 0.7290
10.668000 0.7270 0.7200 0.7040 0.6920 0.6710
10.701238 0.6470 0.6160 0.5890 0.5590 0.5260
10.734000 0.5130 0.5000 0.4600 0.4410 0.4300
10.767238 0.4300 0.4410 0.4650 0.4900 0.5490
10.801000 0.5730 0.5890 0.5960 0.6010 0.6210
10.834238 0.6290 0.6320 0.6360 0.6360 0.6360
10.867000 0.6370 0.6340 0.6310 0.6220 0.6110
10.900238 0.5790 0.5530 0.5240 0.5060 0.4860
10.934000 0.4500 0.4030 0.3520 0.3100 0.2920
10.967238 0.2900 0.3300 0.3780 0.3900 0.4260
11.000000 0.4630 0.5780 0.6490 0.6670 0.6840
11.033238 0.6990 0.7100 0.7200 0.7250 0.7340
11.066000 0.7390 0.7440 0.7470 0.7540 0.7600
11.099238 0.7640 0.7650 0.7690 0.7720 0.7740
11.133000 0.7770 0.7790 0.7800 0.7850 0.7900
11.166238 0.7970 0.8000 0.8000 0.8020 0.8020
11.199000 0.8020 0.8020 0.8020 0.8050 0.8070
11.232238 0.8070 0.8070 0.8080 0.8080 0.8100
11.266000 0.8100 0.8150 0.8150 0.8170 0.8170
11.299238 0.8180 0.8180 0.8170 0.8170 0.8180
11.332000 0.8180 0.8200 0.8200 0.8180 0.8150
11.365238 0.8100 0.8030 0.8020 0.8020 0.7990
11.399000 0.7920 0.7750 0.7620 0.7440 0.7250
11.432238 0.6990 0.6710 0.6190 0.5580 0.5210
11.465000 0.5040 0.4860 0.4610 0.4510 0.4510
11.498238 0.4750 0.5810 0.6360 0.6840 0.7200
11.532000 0.7440 0.7590 0.7770 0.7940 0.8000
11.565238 0.8080 0.8130 0.8200 0.8220 0.8230
11.598000 0.8230 0.8250 0.8280 0.8300 0.8300
11.631238 0.8270 0.8180 0.8020 0.7840 0.7540
11.664000 0.7300 0.6910 0.6640 0.6210 0.6120
11.697238 0.6070 0.6070 0.6210 0.6370 0.6520
11.731000 0.6690 0.6870 0.7070 0.7220 0.7340
11.764238 0.7370 0.7440 0.7450 0.7490 0.7490
11.797000 0.7520 0.7550 0.7590 0.7600 0.7620
11.830238 0.7640 0.7650 0.7670 0.7690 0.7740
11.864000 0.7820 0.7850 0.7870 0.7890 0.7950
11.897238 0.8000 0.8100 0.8150 0.8180 0.8200
11.930000 0.8230 0.8280 0.8350 0.8400 0.8430
11.963238 0.8430 0.8470 0.8480 0.8480 0.8480
11.997000 0.8480 0.8480 0.8470 0.8450 0.8450
12.030238 0.8430 0.8420 0.8380 0.8370 0.8330
12.063000 0.8300 0.8280 0.8230 0.8170 0.8050
12.096238 0.7900 0.7770 0.7670 0.7540 0.7400
12.130000 0.7170 0.6910 0.6410 0.6040 0.5630
12.163238 0.5140 0.4900 0.4630 0.4080 0.3530
12.196000 0.2970 0.2440 0.1940 0.1470 0.1340
12.229238 0.1190 0.1160 0.1160 0.1190 0.1310
12.262000 0.1470 0.1690 0.1970 0.2270 0.2600
12.295238 0.2940 0.3270 0.3580 0.3900 0.4230
12.329000 0.4450 0.4780 0.5410 0.5580 0.5790
12.362238 0.6020 0.6160 0.6240 0.6360 0.6390
12.395000 0.6460 0.6640 0.6790 0.6860 0.6910
12.428238 0.6990 0.7050 0.7150 0.7250 0.7300
12.462000 0.7340 0.7350 0.7370 0.7390 0.7420
12.495238 0.7470 0.7520 0.7570 0.7590 0.7600
12.528000 0.7620 0.7640 0.7650 0.7670 0.7690
12.561238 0.7720 0.7720 0.7740 0.7750 0.7770
12.595000 0.7800 0.7840 0.7890 0.7920 0.7940
12.628238 0.7990 0.8000 0.8030 0.8070 0.8080
12.661000 0.8100 0.8100 0.8120 0.8120 0.8150
12.694238 0.8170 0.8170 0.8170 0.8180 0.8200
12.728000 0.8220 0.8230 0.8230 0.8250 0.8250
12.761238 0.8250 0.8250 0.8250 0.8230 0.8220
12.794000 0.8220 0.8220 0.8220 0.8220 0.8230
12.827238 0.8250 0.8230 0.8250 0.8250 0.8270
12.860000 0.8270 0.8270 0.8280 0.8280 0.8280
12.893238 0.8280 0.8300 0.8300 0.8300 0.8270
12.927000 0.8220 0.8200 0.8180 0.8150 0.8030
12.960238 0.7900 0.7650 0.7350 0.7090 0.6870
12.993000 0.6640 0.6390 0.6210 0.6210 0.6220
13.026238 0.6520 0.6790 0.7050 0.7320 0.7600
13.060000 0.7890 0.8030 0.8200 0.8320 0.8350
13.093238 0.8370 0.8380 0.8420 0.8430 0.8450
13.126000 0.8500 0.8500 0.8520 0.8520 0.8530
13.159238 0.8550 0.8570 0.8620 0.8650 0.8680
13.193000 0.8680 0.8700 0.8700 0.8730 0.8730
13.226238 0.8730 0.8750 0.8750 0.8750 0.8770
13.259000 0.8780 0.8780 0.8780 0.8780 0.8780
13.292238 0.8770 0.8770 0.8780 0.8820 0.8820
13.326000 0.8800 0.8800 0.8800 0.8800 0.8800
13.359238 0.8800 0.8780 0.8780 0.8770 0.8750
13.392000 0.8750 0.8750 0.8750 0.8780 0.8800
13.425238 0.8780 0.8780 0.8750 0.8700 0.8700
13.458000 0.8700 0.8730 0.8750 0.8750 0.8750
13.491238 0.8750 0.8750 0.8750 0.8730 0.8730
13.525000 0.8720 0.8700 0.8720 0.8730 0.8730
13.558238 0.8720 0.8720 0.8720 0.8720 0.8720
13.591000 0.8720 0.8730 0.8770 0.8770 0.8770
13.624238 0.8770 0.8770 0.8770 0.8770 0.8770
13.658000 0.8750 0.8750 0.8750 0.8750 0.8750
13.691238 0.8770 0.8770 0.8780 0.8770 0.8750
13.724000 0.8750 0.8750 0.8750 0.8750 0.8720
13.757238 0.8680 0.8680 0.8630 0.8620 0.8600
13.791000 0.8580 0.8570 0.8550 0.8550 0.8520
13.824238 0.8450 0.8380 0.8300 0.8220 0.8130
13.857000 0.8020 0.7900 0.7770 0.7600 0.7400
13.890238 0.7170 0.6910 0.6570 0.6190 0.5840
13.924000 0.5540 0.5310 0.5140 0.5060 0.4980
13.957238 0.4830 0.4750 0.4730 0.4730 0.4810
13.990000 0.4950 0.5430 0.5640 0.5880 0.6090
14.023238 0.6310 0.6510 0.6710 0.6890 0.7050
14.056000 0.7220 0.7350 0.7470 0.7590 0.7700
14.089238 0.7750 0.7820 0.7870 0.7940 0.8000
14.123000 0.8080 0.8170 0.8230 0.8300 0.8320
14.156238 0.8350 0.8370 0.8400 0.8430 0.8480
14.189000 0.8520 0.8600 0.8670 0.8700 0.8720
14.222238 0.8730 0.8800 0.8820 0.8820 0.8830
14.256000 0.8850 0.8870 0.8870 0.8870 0.8880
14.289238 0.8900 0.8900 0.8920 0.8920 0.8930
14.322000 0.8950 0.8970 0.8970 0.8950 0.8930
14.355238 0.8950 0.8970 0.8980 0.8980 0.9000
14.389000 0.9000 0.9000 0.9000 0.9010 0.9010
14.422238 0.9010 0.9010 0.9010 0.9010 0.9000
14.455000 0.8980 0.8950 0.8970 0.8950 0.8950
14.488238 0.8930 0.8930 0.8930 0.8930 0.8920
14.522000 0.8900 0.8880 0.8850 0.8830 0.8800
14.555238 0.8780 0.8780 0.8750 0.8770 0.8750
14.588000 0.8750 0.8700 0.8650 0.8630 0.8630
14.621238 0.8620 0.8620 0.8620 0.8600 0.8580
14.654000 0.8580 0.8550 0.8530 0.8520 0.8470
14.687238 0.8430 0.8430 0.8420 0.8420 0.8420
14.721000 0.8380 0.8330 0.8280 0.8230 0.8170
14.754238 0.8120 0.8050 0.8020 0.7970 0.7920
14.787000 0.7850 0.7800 0.7740 0.7690 0.7600
14.820238 0.7470 0.7270 0.7090 0.6920 0.6770
14.854000 0.6660 0.6520 0.6370 0.6190 0.5960
14.887238 0.5680 0.5490 0.5240 0.5080 0.5000
14.920000 0.4900 0.4760 0.4680 0.4550 0.4380
14.953238 0.4260 0.4210 0.4180 0.4130 0.4080
14.987000 0.4030 0.4010 0.4010 0.4000 0.3980
15.020238 0.3980 0.3980 0.3980 0.3970 0.3970
15.053000 0.3950 0.3920 0.3880 0.3820 0.3770
15.086238 0.3700 0.3630 0.3530 0.3480 0.3430
15.120000 0.3370 0.3320 0.3280 0.3250 0.3250
15.153238 0.3250 0.3230 0.3220 0.3220 0.3220
15.186000 0.3220 0.3220 0.3300 0.3350 0.3380
15.219238 0.3420 0.3450 0.3500 0.3570 0.3670
15.252000 0.3730 0.3800 0.3880 0.3970 0.4060
15.285238 0.4160 0.4260 0.4380 0.4500 0.4630
15.319000 0.4750 0.4860 0.4980 0.5210 0.5330
15.352238 0.5440 0.5540 0.5630 0.5710 0.5780
15.385000 0.5840 0.5890 0.5960 0.6020 0.6090
15.418238 0.6170 0.6240 0.6320 0.6390 0.6470
15.452000 0.6520 0.6590 0.6640 0.6690 0.6720
15.485238 0.6770 0.6820 0.6890 0.6920 0.6940
15.518000 0.6970 0.7000 0.7000 0.7000 0.7000
15.551238 0.7020 0.7020 0.7020 0.7020 0.7020
15.585000 0.7020 0.7020 0.7020 0.7020 0.7000
15.618238 0.7000 0.6990 0.6990 0.6960 0.6960
15.651000 0.6960 0.6960 0.6960 0.6960 0.6960
15.684238 0.6960 0.6970 0.6970 0.6940 0.6940
15.718000 0.6920 0.6910 0.6870 0.6820 0.6810
15.751238 0.6760 0.6710 0.6710 0.6690 0.6660
15.784000 0.6640 0.6640 0.6620 0.6590 0.6570
15.817238 0.6540 0.6520 0.6490 0.6440 0.6420
15.850000 0.6410 0.6370 0.6310 0.6270 0.6240
15.883238 0.6170 0.6170 0.6160 0.6140 0.6120
15.917000 0.6070 0.6010 0.5960 0.5880 0.5830
15.950238 0.5810 0.5730 0.5680 0.5660 0.5630
15.983000 0.5610 0.5580 0.5610
##END=
