##TITLE=[1,2,5]THIADIAZOLO[3,4-d]PYRIMIDINE, 5-AMINO-7-BUTYLAMINO-
##JCAMP-DX=4.24
##DATA TYPE=INFRARED SPECTRUM
##CLASS=COBLENTZ III
##ORIGIN=SOUTHERN RESEARCH INSTITUTE
##OWNER=COBLENTZ SOCIETY
Collection (C) 2018 copyright by the U.S. Secretary of Commerce
on behalf of the United States of America. All rights reserved.
##DATE=1964/06/15
##NAMES=N<7>-butyl[1,2,5]thiadiazolo[3,4-d]pyrimidine-5,7-diamine
##MOLFORM=C8 H12 N6 S
##SOURCE REFERENCE=COBLENTZ NO. 8427
##$NIST ID=B6008427
##$NIST SOURCE=COBLENTZ
##$NIST IMAGE=cob8427
##SPECTROMETER/DATA SYSTEM=PERKIN-ELMER 221 (GRATING)
##INSTRUMENT PARAMETERS=FILTER CHANGE AT 2490, 980 CM^-^1, GRATING FOR 4000-1428 CM^-^1, NaCl PRISM FOR 1428-650 CM^-^1
##STATE=SOLID (1 mg / 650 mg KBr DISC)
##SAMPLING PROCEDURE=TRANSMISSION
##RESOLUTION=4
##DATA PROCESSING=DIGITIZED BY NIST FROM HARD COPY
##XUNITS=1/CM
##YUNITS=TRANSMITTANCE
##XFACTOR=1.000000
##YFACTOR=1
##DELTAX=001.557992
##FIRSTX=590.941
##LASTX=4009.17
##FIRSTY=0.893
##MAXX=4009.17
##MINX=590.941
##MAXY=0.968
##MINY=0.128
##NPOINTS=2195
##XYDATA=(X++(Y..Y))
590.941000 0.8930 0.8940 0.8950 0.8950 0.8960
598.734512 0.8970 0.8970 0.8980 0.8980 0.8990
606.521000 0.8990 0.9000 0.9010 0.9010 0.9010
614.314512 0.9020 0.9020 0.9030 0.9040 0.9050
622.100000 0.9050 0.9060 0.9060 0.9060 0.9070
629.893512 0.9070 0.9080 0.9080 0.9090 0.9090
637.680000 0.9090 0.9090 0.9100 0.9100 0.9100
645.473512 0.9110 0.9110 0.9110 0.9120 0.9130
653.260000 0.9150 0.9150 0.9180 0.9200 0.9260
661.053512 0.9280 0.9290 0.9310 0.9320 0.9330
668.840000 0.9330 0.9350 0.9360 0.9360 0.9360
676.633512 0.9360 0.9360 0.9360 0.9360 0.9360
684.420000 0.9360 0.9350 0.9350 0.9350 0.9350
692.213512 0.9350 0.9350 0.9340 0.9330 0.9330
700.000000 0.9330 0.9330 0.9330 0.9320 0.9320
707.793512 0.9320 0.9320 0.9320 0.9320 0.9320
715.580000 0.9310 0.9290 0.9280 0.9240 0.9210
723.373512 0.9180 0.9160 0.9150 0.9130 0.9120
731.160000 0.9120 0.9110 0.9100 0.9070 0.8920
738.953512 0.8750 0.8650 0.8500 0.8350 0.8180
746.740000 0.8180 0.8180 0.8360 0.8540 0.8630
754.533512 0.8920 0.9210 0.9320 0.9360 0.9380
762.320000 0.9380 0.9390 0.9390 0.9390 0.9390
770.113512 0.9380 0.9370 0.9350 0.9340 0.9330
777.900000 0.9320 0.9290 0.9190 0.9190 0.9180
785.693512 0.8790 0.8210 0.7630 0.7080 0.6530
793.479000 0.6000 0.6000 0.6310 0.6330 0.7940
801.272512 0.8880 0.8860 0.7630 0.7290 0.6940
809.059000 0.6300 0.6300 0.6490 0.7590 0.8410
816.852512 0.9290 0.9300 0.9300 0.9300 0.9300
824.639000 0.9300 0.9290 0.9280 0.9260 0.9210
832.432512 0.9150 0.9100 0.9050 0.9030 0.9050
840.219000 0.9360 0.9370 0.9380 0.9360 0.9340
848.012512 0.9320 0.9260 0.9200 0.9150 0.8800
855.799000 0.8500 0.8210 0.7910 0.7910 0.8000
863.592512 0.8510 0.8830 0.9150 0.9350 0.9490
871.379000 0.9550 0.9560 0.9570 0.9570 0.9570
879.172512 0.9570 0.9560 0.9560 0.9560 0.9550
886.959000 0.9520 0.9520 0.9500 0.9490 0.9480
894.752512 0.9470 0.9460 0.9460 0.9460 0.9450
902.539000 0.9450 0.9440 0.9420 0.9420 0.9410
910.332512 0.9410 0.9400 0.9400 0.9390 0.9390
918.119000 0.9370 0.9360 0.9350 0.9350 0.9340
925.912512 0.9330 0.9320 0.9320 0.9320 0.9310
933.699000 0.9290 0.9290 0.9290 0.9280 0.9270
941.492512 0.9270 0.9260 0.9260 0.9250 0.9250
949.279000 0.9250 0.9240 0.9230 0.9210 0.9190
957.072512 0.9180 0.9170 0.9150 0.9150 0.9150
964.859000 0.9130 0.9120 0.9110 0.9090 0.9080
972.652512 0.9060 0.9050 0.9040 0.9020 0.9010
980.439000 0.9010 0.8980 0.8950 0.8930 0.8910
988.232512 0.8880 0.8850 0.8830 0.8820 0.8790
996.018000 0.8770 0.8750 0.8740 0.8720 0.8720
1003.811512 0.8700 0.8680 0.8640 0.8610 0.8570
1011.598000 0.8530 0.8490 0.8450 0.8410 0.8370
1019.391512 0.8330 0.8290 0.8250 0.8210 0.8180
1027.178000 0.8140 0.8110 0.8080 0.8060 0.8040
1034.971512 0.8010 0.7940 0.7880 0.7830 0.7790
1042.758000 0.7760 0.7740 0.7710 0.7700 0.7690
1050.551512 0.7680 0.7670 0.7670 0.7660 0.7640
1058.338000 0.7630 0.7600 0.7540 0.7500 0.7470
1066.131512 0.7460 0.7440 0.7440 0.7430 0.7380
1073.918000 0.7320 0.7260 0.7130 0.7050 0.7020
1081.711512 0.6980 0.6930 0.6890 0.6830 0.6770
1089.498000 0.6700 0.6660 0.6630 0.6630 0.6630
1097.291512 0.6630 0.6650 0.6700 0.6800 0.6900
1105.078000 0.7030 0.7090 0.7130 0.7170 0.7200
1112.871512 0.7240 0.7290 0.7340 0.7400 0.7400
1120.658000 0.7410 0.7410 0.7400 0.7400 0.7380
1128.451512 0.7370 0.7350 0.7340 0.7330 0.7320
1136.238000 0.7320 0.7310 0.7310 0.7310 0.7310
1144.031512 0.7320 0.7320 0.7340 0.7400 0.7570
1151.818000 0.7690 0.7760 0.7800 0.7850 0.7860
1159.611512 0.7870 0.7870 0.7870 0.7890 0.7900
1167.398000 0.7910 0.7920 0.7930 0.7940 0.7940
1175.191512 0.7950 0.7960 0.7970 0.7970 0.7980
1182.977000 0.7990 0.8010 0.8030 0.8050 0.8060
1190.770512 0.8080 0.8090 0.8110 0.8110 0.8140
1198.557000 0.8150 0.8160 0.8170 0.8160 0.8080
1206.350512 0.8040 0.8040 0.7990 0.7910 0.7890
1214.137000 0.7880 0.7880 0.7880 0.7900 0.8010
1221.930512 0.8080 0.8130 0.8160 0.8210 0.8270
1229.717000 0.8310 0.8330 0.8340 0.8340 0.8340
1237.510512 0.8340 0.8330 0.8320 0.8310 0.8310
1245.297000 0.8310 0.8310 0.8330 0.8340 0.8360
1253.090512 0.8380 0.8410 0.8430 0.8450 0.8450
1260.877000 0.8450 0.8440 0.8420 0.8410 0.8380
1268.670512 0.8350 0.8310 0.8290 0.8270 0.8240
1276.457000 0.8210 0.8180 0.8140 0.8100 0.8040
1284.250512 0.7970 0.7910 0.7840 0.7760 0.7750
1292.037000 0.7760 0.7800 0.7890 0.7910 0.7910
1299.830512 0.7930 0.7920 0.7910 0.7880 0.7830
1307.617000 0.7770 0.7740 0.7710 0.7670 0.7660
1315.410512 0.7640 0.7640 0.7620 0.7570 0.7510
1323.197000 0.7430 0.7330 0.7210 0.7100 0.7030
1330.990512 0.6960 0.6840 0.6720 0.6590 0.6490
1338.777000 0.6380 0.6360 0.6160 0.5920 0.5720
1346.570512 0.5370 0.5250 0.5130 0.4880 0.4630
1354.357000 0.4370 0.4120 0.4000 0.3870 0.3850
1362.150512 0.3850 0.4140 0.4270 0.4420 0.4610
1369.937000 0.4810 0.5030 0.5220 0.5330 0.5460
1377.730512 0.5860 0.6240 0.6600 0.7200 0.7440
1385.516000 0.7530 0.7600 0.7620 0.7650 0.7740
1393.309512 0.7810 0.7840 0.7850 0.7850 0.7840
1401.096000 0.7770 0.7670 0.7570 0.7410 0.7120
1408.889512 0.7080 0.7060 0.7040 0.7030 0.7000
1416.676000 0.6980 0.6960 0.6880 0.6830 0.6760
1424.469512 0.6680 0.6580 0.6470 0.6330 0.6180
1432.256000 0.6000 0.5800 0.5570 0.5310 0.5040
1440.049512 0.4720 0.4370 0.4180 0.3990 0.3660
1447.836000 0.3320 0.3300 0.3290 0.3290 0.3300
1455.629512 0.3330 0.3520 0.3600 0.3670 0.3720
1463.416000 0.3730 0.3720 0.3410 0.3290 0.3290
1471.209512 0.3350 0.3510 0.4760 0.5120 0.5460
1478.996000 0.5710 0.6020 0.6020 0.5990 0.5950
1486.789512 0.5820 0.5550 0.5280 0.4700 0.4420
1494.576000 0.4420 0.4790 0.5210 0.5710 0.6250
1502.369512 0.7300 0.7720 0.8020 0.8150 0.8160
1510.156000 0.8180 0.8190 0.8200 0.8200 0.8210
1517.949512 0.8210 0.8190 0.8180 0.8140 0.8090
1525.736000 0.8080 0.8060 0.7990 0.7870 0.7660
1533.529512 0.7570 0.7470 0.7320 0.7170 0.7000
1541.316000 0.6920 0.6830 0.6660 0.6470 0.6270
1549.109512 0.6070 0.5850 0.5620 0.5360 0.5100
1556.896000 0.4810 0.4510 0.4190 0.4020 0.3840
1564.689512 0.3470 0.3080 0.2660 0.2220 0.1750
1572.475000 0.1450 0.1440 0.1440 0.1440 0.1440
1580.268512 0.1450 0.1450 0.1450 0.1440 0.1440
1588.055000 0.1420 0.1350 0.1310 0.1280 0.1310
1595.848512 0.1390 0.1640 0.1990 0.2350 0.2720
1603.635000 0.3100 0.3500 0.4270 0.4650 0.5020
1611.428512 0.5380 0.5710 0.6010 0.6260 0.6380
1619.215000 0.6390 0.6390 0.6400 0.6400 0.6380
1627.008512 0.6360 0.6300 0.5930 0.5550 0.5150
1634.795000 0.4760 0.4390 0.4070 0.3750 0.3440
1642.588512 0.3060 0.2690 0.2690 0.2940 0.3190
1650.375000 0.3350 0.3630 0.4470 0.5050 0.5560
1658.168512 0.6010 0.6400 0.7040 0.7290 0.7500
1665.955000 0.7680 0.7840 0.7970 0.8080 0.8180
1673.748512 0.8270 0.8360 0.8450 0.8550 0.8650
1681.535000 0.8660 0.8680 0.8710 0.8740 0.8800
1689.328512 0.8850 0.8890 0.8920 0.8950 0.8980
1697.115000 0.9010 0.9020 0.9050 0.9060 0.9080
1704.908512 0.9090 0.9100 0.9110 0.9120 0.9120
1712.695000 0.9130 0.9140 0.9150 0.9150 0.9160
1720.488512 0.9160 0.9180 0.9190 0.9200 0.9220
1728.275000 0.9220 0.9230 0.9230 0.9230 0.9240
1736.068512 0.9240 0.9250 0.9260 0.9280 0.9290
1743.854000 0.9310 0.9320 0.9330 0.9340 0.9340
1751.647512 0.9360 0.9370 0.9410 0.9450 0.9460
1759.434000 0.9470 0.9480 0.9490 0.9490 0.9490
1767.227512 0.9490 0.9490 0.9490 0.9490 0.9500
1775.014000 0.9510 0.9520 0.9590 0.9650 0.9650
1782.807512 0.9670 0.9680 0.9680 0.9680 0.9680
1790.594000 0.9680 0.9680 0.9680 0.9680 0.9680
1798.387512 0.9680 0.9680 0.9680 0.9680 0.9680
1806.174000 0.9680 0.9680 0.9680 0.9680 0.9680
1813.967512 0.9680 0.9680 0.9680 0.9680 0.9680
1821.754000 0.9680 0.9680 0.9680 0.9680 0.9680
1829.547512 0.9680 0.9680 0.9680 0.9680 0.9680
1837.334000 0.9680 0.9680 0.9680 0.9680 0.9680
1845.127512 0.9680 0.9680 0.9680 0.9680 0.9680
1852.914000 0.9680 0.9680 0.9680 0.9680 0.9680
1860.707512 0.9680 0.9680 0.9680 0.9680 0.9680
1868.494000 0.9680 0.9680 0.9680 0.9680 0.9680
1876.287512 0.9680 0.9680 0.9680 0.9670 0.9670
1884.074000 0.9670 0.9660 0.9660 0.9660 0.9660
1891.867512 0.9660 0.9660 0.9650 0.9650 0.9640
1899.654000 0.9640 0.9630 0.9630 0.9620 0.9620
1907.447512 0.9620 0.9620 0.9620 0.9620 0.9620
1915.234000 0.9620 0.9620 0.9600 0.9600 0.9600
1923.027512 0.9590 0.9590 0.9590 0.9590 0.9590
1930.814000 0.9580 0.9580 0.9570 0.9560 0.9560
1938.607512 0.9560 0.9560 0.9550 0.9550 0.9540
1946.393000 0.9530 0.9530 0.9530 0.9520 0.9520
1954.186512 0.9520 0.9520 0.9520 0.9520 0.9520
1961.973000 0.9520 0.9510 0.9510 0.9510 0.9500
1969.766512 0.9500 0.9500 0.9490 0.9490 0.9490
1977.553000 0.9490 0.9490 0.9490 0.9490 0.9480
1985.346512 0.9480 0.9480 0.9480 0.9480 0.9480
1993.133000 0.9480 0.9480 0.9480 0.9480 0.9480
2000.926512 0.9470 0.9470 0.9470 0.9470 0.9470
2008.713000 0.9470 0.9470 0.9460 0.9460 0.9460
2016.506512 0.9460 0.9460 0.9460 0.9460 0.9450
2024.293000 0.9450 0.9450 0.9440 0.9440 0.9430
2032.086512 0.9430 0.9430 0.9430 0.9430 0.9430
2039.873000 0.9430 0.9430 0.9420 0.9420 0.9420
2047.666512 0.9420 0.9420 0.9420 0.9420 0.9420
2055.453000 0.9420 0.9420 0.9420 0.9420 0.9420
2063.246512 0.9420 0.9410 0.9410 0.9410 0.9410
2071.033000 0.9410 0.9410 0.9410 0.9410 0.9410
2078.826512 0.9410 0.9410 0.9410 0.9410 0.9410
2086.613000 0.9410 0.9410 0.9410 0.9410 0.9410
2094.406512 0.9400 0.9400 0.9400 0.9400 0.9400
2102.193000 0.9400 0.9400 0.9400 0.9400 0.9400
2109.986512 0.9400 0.9400 0.9400 0.9400 0.9400
2117.773000 0.9390 0.9390 0.9390 0.9390 0.9390
2125.566512 0.9390 0.9390 0.9390 0.9390 0.9390
2133.353000 0.9390 0.9390 0.9390 0.9390 0.9390
2141.146512 0.9390 0.9390 0.9390 0.9390 0.9390
2148.932000 0.9390 0.9390 0.9390 0.9390 0.9390
2156.725512 0.9390 0.9390 0.9390 0.9390 0.9390
2164.512000 0.9390 0.9390 0.9390 0.9380 0.9380
2172.305512 0.9380 0.9380 0.9370 0.9370 0.9370
2180.092000 0.9370 0.9370 0.9370 0.9370 0.9370
2187.885512 0.9370 0.9370 0.9370 0.9370 0.9370
2195.672000 0.9370 0.9370 0.9370 0.9370 0.9380
2203.465512 0.9380 0.9380 0.9380 0.9380 0.9380
2211.252000 0.9380 0.9380 0.9380 0.9380 0.9380
2219.045512 0.9380 0.9380 0.9370 0.9370 0.9370
2226.832000 0.9370 0.9360 0.9360 0.9360 0.9360
2234.625512 0.9360 0.9360 0.9360 0.9350 0.9350
2242.412000 0.9350 0.9340 0.9340 0.9330 0.9330
2250.205512 0.9330 0.9330 0.9330 0.9330 0.9330
2257.992000 0.9330 0.9320 0.9320 0.9320 0.9320
2265.785512 0.9320 0.9320 0.9320 0.9320 0.9320
2273.572000 0.9320 0.9320 0.9320 0.9310 0.9310
2281.365512 0.9310 0.9310 0.9300 0.9300 0.9300
2289.152000 0.9300 0.9290 0.9290 0.9290 0.9290
2296.945512 0.9290 0.9290 0.9290 0.9280 0.9280
2304.732000 0.9280 0.9280 0.9270 0.9270 0.9270
2312.525512 0.9270 0.9270 0.9270 0.9260 0.9260
2320.312000 0.9260 0.9260 0.9250 0.9250 0.9250
2328.105512 0.9250 0.9250 0.9250 0.9250 0.9250
2335.891000 0.9250 0.9250 0.9250 0.9250 0.9250
2343.684512 0.9240 0.9240 0.9240 0.9240 0.9240
2351.471000 0.9240 0.9240 0.9240 0.9240 0.9240
2359.264512 0.9240 0.9240 0.9240 0.9240 0.9240
2367.051000 0.9240 0.9240 0.9240 0.9230 0.9230
2374.844512 0.9230 0.9230 0.9230 0.9230 0.9220
2382.631000 0.9220 0.9220 0.9220 0.9210 0.9210
2390.424512 0.9210 0.9200 0.9200 0.9190 0.9190
2398.211000 0.9190 0.9190 0.9190 0.9190 0.9190
2406.004512 0.9190 0.9190 0.9190 0.9190 0.9190
2413.791000 0.9190 0.9190 0.9190 0.9180 0.9180
2421.584512 0.9180 0.9180 0.9180 0.9180 0.9180
2429.371000 0.9180 0.9180 0.9180 0.9180 0.9180
2437.164512 0.9180 0.9180 0.9180 0.9180 0.9180
2444.951000 0.9180 0.9180 0.9180 0.9180 0.9180
2452.744512 0.9180 0.9180 0.9180 0.9170 0.9170
2460.531000 0.9170 0.9170 0.9170 0.9170 0.9170
2468.324512 0.9170 0.9170 0.9170 0.9170 0.9160
2476.111000 0.9160 0.9160 0.9160 0.9160 0.9160
2483.904512 0.9150 0.9150 0.9150 0.9150 0.9150
2491.691000 0.9150 0.9150 0.9150 0.9150 0.9150
2499.484512 0.9150 0.9150 0.9140 0.9140 0.9140
2507.271000 0.9140 0.9140 0.9140 0.9130 0.9130
2515.064512 0.9130 0.9140 0.9140 0.9140 0.9140
2522.851000 0.9140 0.9140 0.9140 0.9130 0.9130
2530.644512 0.9130 0.9130 0.9120 0.9120 0.9120
2538.430000 0.9120 0.9120 0.9090 0.9080 0.9060
2546.223512 0.9050 0.9040 0.9020 0.9010 0.9000
2554.010000 0.8990 0.8990 0.8980 0.8980 0.8980
2561.803512 0.8970 0.8960 0.8960 0.8950 0.8950
2569.590000 0.8950 0.8950 0.8940 0.8940 0.8930
2577.383512 0.8930 0.8920 0.8920 0.8920 0.8920
2585.170000 0.8920 0.8920 0.8920 0.8920 0.8920
2592.963512 0.8910 0.8910 0.8910 0.8910 0.8900
2600.750000 0.8900 0.8900 0.8900 0.8890 0.8890
2608.543512 0.8880 0.8880 0.8880 0.8880 0.8880
2616.330000 0.8870 0.8870 0.8870 0.8860 0.8860
2624.123512 0.8850 0.8850 0.8850 0.8850 0.8850
2631.910000 0.8840 0.8840 0.8830 0.8830 0.8830
2639.703512 0.8820 0.8820 0.8820 0.8820 0.8820
2647.490000 0.8820 0.8810 0.8810 0.8810 0.8800
2655.283512 0.8800 0.8800 0.8790 0.8790 0.8790
2663.070000 0.8790 0.8780 0.8780 0.8780 0.8780
2670.863512 0.8780 0.8780 0.8780 0.8780 0.8770
2678.650000 0.8760 0.8760 0.8750 0.8750 0.8750
2686.443512 0.8750 0.8740 0.8740 0.8730 0.8730
2694.229000 0.8730 0.8720 0.8720 0.8720 0.8720
2702.022512 0.8710 0.8710 0.8700 0.8700 0.8700
2709.810000 0.8690 0.8680 0.8680 0.8670 0.8660
2717.603512 0.8650 0.8650 0.8640 0.8630 0.8620
2725.389000 0.8610 0.8610 0.8610 0.8610 0.8600
2733.182512 0.8600 0.8590 0.8580 0.8580 0.8580
2740.969000 0.8580 0.8580 0.8580 0.8580 0.8580
2748.762512 0.8590 0.8590 0.8600 0.8600 0.8610
2756.549000 0.8610 0.8610 0.8610 0.8610 0.8610
2764.342512 0.8610 0.8610 0.8610 0.8610 0.8600
2772.129000 0.8600 0.8590 0.8590 0.8580 0.8580
2779.922512 0.8580 0.8570 0.8570 0.8560 0.8560
2787.709000 0.8550 0.8550 0.8550 0.8550 0.8540
2795.502512 0.8540 0.8530 0.8520 0.8500 0.8480
2803.289000 0.8450 0.8430 0.8410 0.8390 0.8380
2811.082512 0.8360 0.8350 0.8340 0.8330 0.8310
2818.869000 0.8310 0.8300 0.8280 0.8270 0.8260
2826.662512 0.8240 0.8230 0.8210 0.8190 0.8180
2834.449000 0.8150 0.8120 0.8110 0.8090 0.8050
2842.242512 0.8010 0.7950 0.7890 0.7820 0.7750
2850.029000 0.7680 0.7600 0.7540 0.7460 0.7400
2857.822512 0.7340 0.7280 0.7230 0.7190 0.7180
2865.609000 0.7180 0.7190 0.7200 0.7200 0.7210
2873.402512 0.7230 0.7250 0.7280 0.7290 0.7340
2881.189000 0.7520 0.7590 0.7600 0.7620 0.7620
2888.982512 0.7620 0.7620 0.7620 0.7610 0.7610
2896.769000 0.7600 0.7600 0.7580 0.7570 0.7530
2904.562512 0.7440 0.7420 0.7400 0.7360 0.7300
2912.348000 0.7230 0.7140 0.7040 0.7000 0.6940
2920.141512 0.6840 0.6730 0.6640 0.6550 0.6460
2927.928000 0.6390 0.6350 0.6310 0.6250 0.6190
2935.721512 0.6180 0.6190 0.6290 0.6470 0.6650
2943.508000 0.6750 0.6860 0.6940 0.6990 0.6980
2951.301512 0.6970 0.6940 0.6910 0.6870 0.6830
2959.088000 0.6800 0.6750 0.6700 0.6590 0.6590
2966.881512 0.6600 0.6670 0.6760 0.6860 0.7040
2974.668000 0.7140 0.7250 0.7380 0.7520 0.7670
2982.461512 0.7780 0.7840 0.7940 0.7970 0.8000
2990.248000 0.8010 0.8020 0.8020 0.8020 0.8030
2998.041512 0.8030 0.8040 0.8040 0.8040 0.8040
3005.828000 0.8040 0.8030 0.8030 0.8030 0.8030
3013.621512 0.8020 0.8020 0.8010 0.8000 0.7990
3021.408000 0.7970 0.7960 0.7950 0.7930 0.7920
3029.201512 0.7870 0.7830 0.7790 0.7750 0.7730
3036.988000 0.7710 0.7690 0.7670 0.7670 0.7660
3044.781512 0.7650 0.7640 0.7630 0.7620 0.7610
3052.568000 0.7600 0.7600 0.7600 0.7590 0.7580
3060.361512 0.7570 0.7550 0.7540 0.7530 0.7500
3068.148000 0.7490 0.7470 0.7460 0.7440 0.7420
3075.941512 0.7400 0.7370 0.7360 0.7340 0.7310
3083.728000 0.7290 0.7270 0.7240 0.7210 0.7190
3091.521512 0.7170 0.7140 0.7110 0.7090 0.7060
3099.307000 0.7030 0.7000 0.7000 0.6980 0.6950
3107.100512 0.6940 0.6920 0.6890 0.6840 0.6800
3114.887000 0.6750 0.6700 0.6640 0.6590 0.6540
3122.680512 0.6500 0.6460 0.6440 0.6420 0.6370
3130.467000 0.6320 0.6290 0.6250 0.6220 0.6200
3138.260512 0.6180 0.6160 0.6150 0.6130 0.6120
3146.047000 0.6110 0.6090 0.6080 0.6060 0.6050
3153.840512 0.6030 0.6000 0.5970 0.5940 0.5910
3161.627000 0.5870 0.5830 0.5790 0.5750 0.5700
3169.420512 0.5650 0.5600 0.5550 0.5490 0.5440
3177.207000 0.5380 0.5320 0.5260 0.5190 0.5130
3185.000512 0.5060 0.4980 0.4920 0.4860 0.4850
3192.787000 0.4870 0.4890 0.4920 0.4950 0.4980
3200.580512 0.5010 0.5050 0.5080 0.5110 0.5130
3208.367000 0.5190 0.5250 0.5310 0.5380 0.5450
3216.160512 0.5520 0.5590 0.5670 0.5740 0.5810
3223.947000 0.5890 0.5950 0.6020 0.6090 0.6150
3231.740512 0.6160 0.6160 0.6170 0.6180 0.6190
3239.527000 0.6190 0.6190 0.6200 0.6210 0.6220
3247.320512 0.6220 0.6220 0.6260 0.6270 0.6280
3255.107000 0.6290 0.6290 0.6320 0.6350 0.6380
3262.900512 0.6400 0.6410 0.6420 0.6420 0.6420
3270.687000 0.6420 0.6410 0.6410 0.6380 0.6350
3278.480512 0.6290 0.6230 0.6160 0.6090 0.6020
3286.267000 0.5940 0.5850 0.5770 0.5690 0.5600
3294.060512 0.5510 0.5420 0.5320 0.5230 0.5150
3301.846000 0.5050 0.4960 0.4870 0.4780 0.4700
3309.639512 0.4610 0.4530 0.4460 0.4440 0.4440
3317.426000 0.4450 0.4460 0.4470 0.4520 0.4570
3325.219512 0.4620 0.4680 0.4750 0.4770 0.4840
3333.006000 0.4910 0.4980 0.5080 0.5170 0.5260
3340.799512 0.5370 0.5470 0.5580 0.5610 0.5650
3348.586000 0.5680 0.5760 0.5790 0.5810 0.5830
3356.379512 0.5850 0.5880 0.5890 0.5920 0.5930
3364.166000 0.5930 0.5920 0.5920 0.5920 0.5910
3371.959512 0.5890 0.5890 0.5870 0.5850 0.5820
3379.746000 0.5770 0.5710 0.5710 0.5690 0.5680
3387.539512 0.5660 0.5660 0.5650 0.5650 0.5650
3395.326000 0.5650 0.5650 0.5640 0.5640 0.5650
3403.119512 0.5650 0.5660 0.5670 0.5690 0.5720
3410.906000 0.5740 0.5800 0.5890 0.5960 0.6050
3418.699512 0.6140 0.6220 0.6320 0.6400 0.6480
3426.486000 0.6560 0.6630 0.6690 0.6740 0.6780
3434.279512 0.6800 0.7000 0.7070 0.7150 0.7210
3442.066000 0.7270 0.7320 0.7360 0.7400 0.7440
3449.859512 0.7470 0.7500 0.7540 0.7570 0.7600
3457.646000 0.7640 0.7670 0.7710 0.7750 0.7800
3465.439512 0.7840 0.7870 0.7900 0.7910 0.7920
3473.226000 0.7940 0.7940 0.7940 0.7950 0.7960
3481.019512 0.7970 0.7980 0.8000 0.8010 0.8010
3488.805000 0.8020 0.8030 0.8040 0.8050 0.8060
3496.598512 0.8060 0.8070 0.8080 0.8090 0.8100
3504.385000 0.8100 0.8120 0.8140 0.8150 0.8160
3512.178512 0.8170 0.8180 0.8190 0.8220 0.8260
3519.965000 0.8290 0.8310 0.8310 0.8320 0.8330
3527.758512 0.8340 0.8340 0.8350 0.8360 0.8380
3535.545000 0.8380 0.8380 0.8390 0.8390 0.8400
3543.338512 0.8410 0.8410 0.8410 0.8420 0.8420
3551.125000 0.8430 0.8440 0.8440 0.8450 0.8450
3558.918512 0.8450 0.8450 0.8460 0.8460 0.8470
3566.705000 0.8470 0.8470 0.8480 0.8480 0.8480
3574.498512 0.8480 0.8480 0.8480 0.8490 0.8490
3582.285000 0.8490 0.8490 0.8500 0.8500 0.8500
3590.078512 0.8510 0.8510 0.8510 0.8510 0.8510
3597.865000 0.8530 0.8550 0.8560 0.8560 0.8570
3605.658512 0.8570 0.8570 0.8580 0.8580 0.8580
3613.445000 0.8580 0.8580 0.8580 0.8590 0.8590
3621.238512 0.8600 0.8600 0.8600 0.8610 0.8610
3629.025000 0.8610 0.8610 0.8610 0.8610 0.8620
3636.818512 0.8620 0.8630 0.8630 0.8650 0.8650
3644.605000 0.8650 0.8660 0.8660 0.8660 0.8660
3652.398512 0.8660 0.8650 0.8650 0.8650 0.8650
3660.185000 0.8650 0.8650 0.8640 0.8640 0.8640
3667.978512 0.8630 0.8630 0.8620 0.8620 0.8620
3675.764000 0.8620 0.8620 0.8620 0.8620 0.8620
3683.557512 0.8610 0.8610 0.8610 0.8610 0.8610
3691.344000 0.8610 0.8610 0.8610 0.8610 0.8610
3699.137512 0.8610 0.8610 0.8630 0.8650 0.8660
3706.924000 0.8670 0.8670 0.8680 0.8680 0.8680
3714.717512 0.8680 0.8680 0.8670 0.8670 0.8670
3722.504000 0.8660 0.8660 0.8660 0.8650 0.8650
3730.297512 0.8640 0.8630 0.8630 0.8620 0.8620
3738.084000 0.8610 0.8610 0.8590 0.8580 0.8560
3745.877512 0.8550 0.8540 0.8520 0.8510 0.8500
3753.664000 0.8500 0.8500 0.8500 0.8510 0.8520
3761.457512 0.8530 0.8590 0.8600 0.8600 0.8610
3769.244000 0.8610 0.8610 0.8610 0.8600 0.8600
3777.037512 0.8600 0.8590 0.8590 0.8580 0.8580
3784.824000 0.8580 0.8580 0.8580 0.8580 0.8580
3792.617512 0.8580 0.8580 0.8570 0.8570 0.8550
3800.404000 0.8550 0.8550 0.8550 0.8540 0.8540
3808.197512 0.8530 0.8520 0.8520 0.8520 0.8520
3815.984000 0.8510 0.8510 0.8510 0.8510 0.8510
3823.777512 0.8510 0.8510 0.8510 0.8500 0.8500
3831.564000 0.8490 0.8490 0.8490 0.8490 0.8490
3839.357512 0.8490 0.8490 0.8480 0.8480 0.8480
3847.144000 0.8480 0.8480 0.8480 0.8480 0.8480
3854.937512 0.8480 0.8480 0.8480 0.8480 0.8470
3862.723000 0.8470 0.8470 0.8470 0.8470 0.8460
3870.516512 0.8460 0.8460 0.8460 0.8460 0.8460
3878.303000 0.8460 0.8460 0.8460 0.8460 0.8460
3886.096512 0.8460 0.8460 0.8460 0.8460 0.8460
3893.883000 0.8460 0.8460 0.8460 0.8460 0.8460
3901.676512 0.8460 0.8460 0.8460 0.8460 0.8460
3909.463000 0.8460 0.8460 0.8460 0.8460 0.8460
3917.256512 0.8460 0.8460 0.8460 0.8460 0.8460
3925.043000 0.8460 0.8460 0.8460 0.8460 0.8460
3932.836512 0.8460 0.8460 0.8460 0.8460 0.8460
3940.623000 0.8460 0.8460 0.8460 0.8460 0.8460
3948.416512 0.8460 0.8460 0.8460 0.8460 0.8460
3956.203000 0.8450 0.8450 0.8450 0.8450 0.8450
3963.996512 0.8450 0.8450 0.8450 0.8450 0.8450
3971.783000 0.8450 0.8450 0.8450 0.8440 0.8440
3979.576512 0.8440 0.8440 0.8440 0.8440 0.8430
3987.363000 0.8430 0.8430 0.8430 0.8420 0.8420
3995.156512 0.8410 0.8410 0.8410 0.8410 0.8400
4002.943000 0.8400 0.8390 0.8390 0.8390 0.8390
##END=
