##TITLE=PENICILLIN G, POTASSIUM SALT
##JCAMP-DX=4.24
##DATA TYPE=INFRARED SPECTRUM
##CLASS=COBLENTZ III
##ORIGIN=SOUTHERN RESEARCH INSTITUTE, W.C. Coburn, Jr.
##OWNER=Copyright (C) 1987 by the Coblentz Society
Collection (C) 2018 copyright by the U.S. Secretary of Commerce
on behalf of the United States of America. All rights reserved.
##DATE=1956/04/04
##NAMES=4-Thia-1-azabicyclo[3.2.0]heptane-2-carboxylic acid, 3,3-dimethyl-7-oxo-6-(2-phenylacetamido)-, potassium salt
##MOLFORM=C16 H17 N2 O4 S K
##SOURCE REFERENCE=COBLENTZ NO. 9223
##$NIST ID=B6009223
##$NIST SOURCE=COBLENTZ
##$NIST IMAGE=cob9223
##SPECTROMETER/DATA SYSTEM=PERKIN-ELMER 21 (GRATING)
##INSTRUMENT PARAMETERS=FILTER CHANGE AT 1075 CM^-^1
##STATE=SOLID (NUJOL MULL)
##SAMPLING PROCEDURE=TRANSMISSION
##RESOLUTION=2
##DATA PROCESSING=DIGITIZED BY COBLENTZ SOCIETY (BATCH II) FROM HARD COPY (ADJUSTED \addcm-1\20-15-3\)
##XUNITS=1/CM
##YUNITS=TRANSMITTANCE
##XFACTOR=1.0
##YFACTOR=1
##DELTAX=1.004676
##FIRSTX=622.18
##LASTX=4020
##FIRSTY=0.7908
##MAXX=4020
##MINX=622.18
##MAXY=0.8822
##MINY=0.0441597
##NPOINTS=3383
##XYDATA=(X++(Y..Y))
622.180000 0.7908 0.7916 0.7917 0.7916 0.7914
627.203382 0.7911 0.7908 0.7904 0.7901 0.7897
632.226763 0.7891 0.7885 0.7880 0.7874 0.7867
637.250145 0.7855 0.7843 0.7832 0.7804 0.7768
642.273526 0.7730 0.7693 0.7656 0.7619 0.7582
647.296908 0.7514 0.7376 0.7226 0.7077 0.6928
652.320290 0.6779 0.6630 0.6480 0.6400 0.6358
657.343671 0.6377 0.6518 0.6970 0.7490 0.8011
662.367053 0.8169 0.8195 0.8201 0.8204 0.8206
667.390435 0.8213 0.8208 0.8201 0.8196 0.8185
672.413816 0.8174 0.8151 0.8111 0.8067 0.8025
677.437198 0.7986 0.7933 0.7870 0.7800 0.7724
682.460579 0.7643 0.7537 0.7422 0.6961 0.6350
687.483961 0.5749 0.5147 0.4546 0.3945 0.3543
692.507343 0.3456 0.3453 0.3768 0.4445 0.5221
697.530724 0.5998 0.6763 0.7064 0.7066 0.7070
702.554106 0.7072 0.7061 0.7026 0.6832 0.6516
707.577487 0.6193 0.5871 0.5549 0.5226 0.4903
712.600869 0.4581 0.4311 0.4204 0.4189 0.4192
717.624251 0.4475 0.5117 0.5871 0.6625 0.7091
722.647632 0.7196 0.7237 0.7262 0.7281 0.7300
727.671014 0.7316 0.7326 0.7328 0.7325 0.7319
732.694396 0.7307 0.7282 0.7244 0.7198 0.7153
737.717777 0.7109 0.7065 0.6990 0.6830 0.6604
742.741159 0.6371 0.6139 0.5958 0.5893 0.5878
747.764540 0.5874 0.5828 0.5445 0.4561 0.3768
752.787922 0.3354 0.3350 0.3472 0.4001 0.4875
757.811304 0.5751 0.6625 0.7400 0.7795 0.7861
762.834685 0.7901 0.7939 0.7971 0.7997 0.8016
767.858067 0.8034 0.8058 0.8124 0.8297 0.8502
772.881448 0.8629 0.8663 0.8674 0.8685 0.8696
777.904830 0.8708 0.8717 0.8709 0.8705 0.8701
782.928212 0.8697 0.8693 0.8683 0.8670 0.8656
787.951593 0.8643 0.8625 0.8602 0.8579 0.8556
792.974975 0.8532 0.8508 0.8483 0.8458 0.8441
797.998356 0.8437 0.8416 0.8449 0.8458 0.8468
803.021738 0.8486 0.8504 0.8523 0.8565 0.8610
808.045120 0.8660 0.8713 0.8760 0.8763 0.8765
813.068501 0.8767 0.8769 0.8778 0.8766 0.8764
818.091883 0.8762 0.8759 0.8756 0.8753 0.8750
823.115265 0.8746 0.8743 0.8740 0.8733 0.8727
828.138646 0.8721 0.8718 0.8725 0.8734 0.8755
833.162028 0.8775 0.8786 0.8796 0.8807 0.8815
838.185409 0.8819 0.8822 0.8822 0.8819 0.8815
843.208791 0.8812 0.8808 0.8801 0.8793 0.8784
848.232173 0.8776 0.8769 0.8757 0.8741 0.8726
853.255554 0.8710 0.8695 0.8679 0.8659 0.8638
858.278936 0.8617 0.8597 0.8575 0.8547 0.8517
863.302317 0.8487 0.8457 0.8421 0.8378 0.8332
868.325699 0.8262 0.8176 0.8098 0.8027 0.7992
873.349081 0.7972 0.7957 0.7940 0.7917 0.7890
878.372462 0.7845 0.7671 0.7404 0.7123 0.6929
883.395844 0.6879 0.6998 0.7312 0.7871 0.8155
888.419226 0.8191 0.8207 0.8236 0.8227 0.8206
893.442607 0.8191 0.8153 0.8107 0.8063 0.8012
898.465989 0.7947 0.7888 0.7839 0.7794 0.7753
903.489370 0.7717 0.7682 0.7655 0.7642 0.7635
908.512752 0.7629 0.7616 0.7613 0.7632 0.7731
913.536134 0.7834 0.7846 0.7852 0.7848 0.7842
918.559515 0.7835 0.7827 0.7817 0.7808 0.7801
923.582897 0.7801 0.7814 0.7834 0.7897 0.8021
928.606278 0.8106 0.8125 0.8136 0.8147 0.8158
933.629660 0.8168 0.8173 0.8174 0.8178 0.8182
938.653042 0.8175 0.8168 0.8161 0.8154 0.8146
943.676423 0.8137 0.8120 0.8098 0.8080 0.8068
948.699805 0.8065 0.8066 0.8067 0.8067 0.8068
953.723187 0.8069 0.8069 0.8067 0.8062 0.8056
958.746568 0.8043 0.8015 0.7990 0.7976 0.7961
963.769950 0.7946 0.7932 0.7917 0.7902 0.7888
968.793331 0.7878 0.7867 0.7857 0.7847 0.7836
973.816713 0.7828 0.7825 0.7824 0.7824 0.7823
978.840095 0.7823 0.7822 0.7822 0.7819 0.7815
983.863476 0.7801 0.7773 0.7744 0.7713 0.7639
988.886858 0.7535 0.7324 0.7205 0.7131 0.7072
993.910239 0.7016 0.6997 0.6978 0.6961 0.6939
998.933621 0.7002 0.7389 0.7772 0.7835 0.7895
1003.957003 0.7845 0.7842 0.7827 0.7812 0.7797
1008.980384 0.7759 0.7704 0.7648 0.7592 0.7533
1014.003766 0.7455 0.7377 0.7314 0.7187 0.7200
1019.027148 0.7202 0.7212 0.7225 0.7587 0.7691
1024.050529 0.7728 0.7758 0.7788 0.7806 0.7823
1029.073911 0.7835 0.7838 0.7840 0.7842 0.7892
1034.097292 0.7849 0.7836 0.7832 0.7824 0.7814
1039.120674 0.7804 0.7795 0.7777 0.7756 0.7736
1044.144056 0.7713 0.7688 0.7664 0.7639 0.7614
1049.167437 0.7589 0.7555 0.7514 0.7471 0.7427
1054.190819 0.7372 0.7314 0.7256 0.7190 0.7119
1059.214200 0.7049 0.6978 0.6905 0.6832 0.6759
1064.237582 0.6662 0.6553 0.6466 0.6455 0.6465
1069.260964 0.6468 0.6729 0.7151 0.7312 0.7316
1074.284345 0.7323 0.7281 0.7211 0.7148 0.7086
1079.307727 0.7023 0.6958 0.6895 0.6832 0.6769
1084.331108 0.6706 0.6642 0.6577 0.6512 0.6379
1089.354490 0.6165 0.5925 0.5681 0.5435 0.5190
1094.377872 0.5010 0.4983 0.5014 0.5375 0.6111
1099.401253 0.6710 0.6946 0.6964 0.6964 0.6961
1104.424635 0.6965 0.6906 0.6801 0.6742 0.6683
1109.448017 0.6621 0.6557 0.6494 0.6434 0.6377
1114.471398 0.6320 0.6260 0.6191 0.6116 0.5998
1119.494780 0.5882 0.5871 0.5867 0.5877 0.5903
1124.518161 0.5931 0.5960 0.6225 0.6719 0.6802
1129.541543 0.6802 0.6800 0.6804 0.6809 0.6773
1134.564925 0.6636 0.6312 0.6164 0.6067 0.5975
1139.588306 0.5901 0.5835 0.5769 0.5694 0.5591
1144.611688 0.5472 0.5393 0.5359 0.5354 0.5426
1149.635069 0.5734 0.5811 0.5885 0.5975 0.6152
1154.658451 0.6320 0.6393 0.6422 0.6446 0.6456
1159.681833 0.6466 0.6414 0.6390 0.6364 0.6328
1164.705214 0.6285 0.6240 0.6184 0.6136 0.6108
1169.728596 0.6107 0.6106 0.6113 0.6121 0.6135
1174.751978 0.6154 0.6163 0.6163 0.6158 0.6112
1179.775359 0.6065 0.6019 0.5972 0.5926 0.5879
1184.798741 0.5833 0.5786 0.5740 0.5694 0.5659
1189.822122 0.5625 0.5588 0.5552 0.5515 0.5482
1194.845504 0.5448 0.5414 0.5358 0.5301 0.5117
1199.868886 0.4945 0.4824 0.4648 0.4393 0.4155
1204.892267 0.3982 0.3924 0.3907 0.3893 0.3898
1209.915649 0.3893 0.3937 0.4098 0.4284 0.4471
1214.939030 0.4531 0.4549 0.4560 0.4571 0.4585
1219.962412 0.4610 0.4666 0.4744 0.4832 0.4891
1224.985794 0.4926 0.4944 0.4954 0.4967 0.4958
1230.009175 0.4936 0.4916 0.4885 0.4838 0.4732
1235.032557 0.4504 0.4193 0.3882 0.3571 0.3260
1240.055939 0.2949 0.2731 0.2724 0.2724 0.2777
1245.079320 0.2976 0.3231 0.3486 0.3721 0.3836
1250.102702 0.3867 0.3935 0.4274 0.4651 0.5029
1255.126083 0.5406 0.5723 0.5819 0.5861 0.5874
1260.149465 0.5872 0.5879 0.5878 0.5868 0.5855
1265.172847 0.5841 0.5822 0.5801 0.5777 0.5751
1270.196228 0.5719 0.5669 0.5623 0.5584 0.5546
1275.219610 0.5506 0.5461 0.5414 0.5351 0.5270
1280.242991 0.5195 0.5133 0.5073 0.5007 0.4929
1285.266373 0.4845 0.4768 0.4702 0.4639 0.4577
1290.289755 0.4513 0.4436 0.4339 0.4157 0.3823
1295.313136 0.3693 0.3549 0.3391 0.3221 0.3047
1300.336518 0.2873 0.2699 0.2525 0.2351 0.2176
1305.359899 0.2004 0.1864 0.1810 0.1805 0.1814
1310.383281 0.1826 0.1841 0.1856 0.1869 0.1876
1315.406663 0.1872 0.1835 0.1735 0.1643 0.1567
1320.430044 0.1493 0.1417 0.1361 0.1329 0.1316
1325.453426 0.1308 0.1303 0.1300 0.1316 0.1360
1330.476808 0.1408 0.1463 0.1545 0.1658 0.1807
1335.500189 0.1987 0.2320 0.2720 0.2904 0.3031
1340.523571 0.3146 0.3259 0.3375 0.3506 0.3730
1345.546952 0.3965 0.4072 0.4133 0.4178 0.4198
1350.570334 0.4216 0.4224 0.4197 0.4179 0.4155
1355.593716 0.4097 0.4022 0.3942 0.3775 0.3549
1360.617097 0.3344 0.3290 0.3282 0.3276 0.3270
1365.640479 0.3266 0.3217 0.2958 0.2656 0.2376
1370.663860 0.2262 0.2196 0.2125 0.2096 0.2084
1375.687242 0.2072 0.2064 0.2063 0.2065 0.2065
1380.710624 0.2065 0.2064 0.2046 0.1997 0.1930
1385.734005 0.1858 0.1771 0.1707 0.1698 0.1704
1390.757387 0.1716 0.1725 0.1778 0.1885 0.2009
1395.780769 0.2116 0.2224 0.2332 0.2440 0.2542
1400.804150 0.2572 0.2580 0.2586 0.2591 0.2590
1405.827532 0.2576 0.2551 0.2527 0.2509 0.2492
1410.850913 0.2475 0.2467 0.2493 0.2662 0.2798
1415.874295 0.3283 0.3876 0.4014 0.4059 0.4075
1420.897677 0.4081 0.4087 0.4078 0.4072 0.4059
1425.921058 0.4046 0.4022 0.3992 0.3914 0.3763
1430.944440 0.3609 0.3454 0.3299 0.3144 0.2990
1435.967821 0.2835 0.2680 0.2526 0.2398 0.2329
1440.991203 0.2242 0.1988 0.1833 0.1705 0.1583
1446.014585 0.1407 0.1294 0.1224 0.1187 0.1166
1451.037966 0.1157 0.1158 0.1161 0.1159 0.1179
1456.061348 0.1204 0.1228 0.1254 0.1289 0.1320
1461.084730 0.1348 0.1380 0.1434 0.1496 0.1563
1466.108111 0.1619 0.1623 0.1621 0.1628 0.1586
1471.131493 0.1549 0.1511 0.1473 0.1415 0.1335
1476.154874 0.1166 0.1059 0.0995 0.0958 0.0950
1481.178256 0.0948 0.0947 0.0946 0.0946 0.0963
1486.201638 0.0983 0.1034 0.1185 0.1353 0.1420
1491.225019 0.1463 0.1487 0.1508 0.1529 0.1549
1496.248401 0.1604 0.1824 0.2178 0.2555 0.2892
1501.271782 0.2942 0.2977 0.3005 0.3036 0.3076
1506.295164 0.3144 0.3314 0.3548 0.3672 0.3784
1511.318546 0.3897 0.4013 0.4084 0.4130 0.4176
1516.341927 0.4219 0.4254 0.4283 0.4312 0.4341
1521.365309 0.4363 0.4379 0.4391 0.4397 0.4401
1526.388691 0.4403 0.4404 0.4404 0.4405 0.4403
1531.412072 0.4397 0.4391 0.4386 0.4380 0.4372
1536.435454 0.4361 0.4350 0.4336 0.4318 0.4299
1541.458835 0.4277 0.4250 0.4222 0.4195 0.4156
1546.482217 0.4105 0.4051 0.3993 0.3938 0.3895
1551.505599 0.3872 0.3858 0.3844 0.3830 0.3814
1556.528980 0.3789 0.3729 0.3634 0.3453 0.3281
1561.552362 0.3183 0.3102 0.3030 0.2961 0.2889
1566.575743 0.2809 0.2724 0.2680 0.2664 0.2653
1571.599125 0.2645 0.2637 0.2629 0.2619 0.2554
1576.622507 0.2410 0.2261 0.2145 0.2036 0.1920
1581.645888 0.1795 0.1699 0.1620 0.1485 0.1383
1586.669270 0.1313 0.1252 0.1195 0.1134 0.1067
1591.692651 0.0995 0.0922 0.0840 0.0796 0.0770
1596.716033 0.0762 0.0762 0.0763 0.0744 0.0774
1601.739415 0.0804 0.0830 0.0874 0.0958 0.1062
1606.762796 0.1170 0.1261 0.1346 0.1429 0.1512
1611.786178 0.1591 0.1668 0.1746 0.1827 0.1936
1616.809560 0.2053 0.2162 0.2259 0.2377 0.2551
1621.832941 0.2737 0.2922 0.3107 0.3293 0.3478
1626.856323 0.3663 0.3848 0.4019 0.4106 0.4180
1631.879704 0.4273 0.4362 0.4402 0.4428 0.4441
1636.903086 0.4451 0.4464 0.4433 0.4412 0.4385
1641.926468 0.4359 0.4337 0.4291 0.4240 0.4208
1646.949849 0.4176 0.4146 0.4118 0.3761 0.3390
1651.973231 0.3018 0.2646 0.2274 0.1777 0.1729
1656.996612 0.1721 0.1695 0.1727 0.1757 0.1840
1662.019994 0.1956 0.2074 0.2190 0.2314 0.2660
1667.043376 0.3166 0.3672 0.4187 0.4829 0.4904
1672.066757 0.5013 0.5158 0.5400 0.5811 0.6040
1677.090139 0.6287 0.6787 0.6892 0.6974 0.7023
1682.113521 0.7054 0.7078 0.7093 0.7097 0.7099
1687.136902 0.7101 0.7113 0.7085 0.7079 0.7072
1692.160284 0.7065 0.7057 0.7047 0.7038 0.7028
1697.183665 0.7014 0.6994 0.6963 0.6909 0.6821
1702.207047 0.6752 0.6721 0.6694 0.6680 0.6666
1707.230429 0.6652 0.6638 0.6627 0.6616 0.6604
1712.253810 0.6593 0.6582 0.6570 0.6538 0.6448
1717.277192 0.6346 0.6176 0.5923 0.5741 0.5688
1722.300573 0.5635 0.5572 0.5477 0.5376 0.5267
1727.323955 0.5109 0.4955 0.4806 0.4637 0.4371
1732.347337 0.4104 0.3994 0.3844 0.3493 0.2930
1737.370718 0.2392 0.2003 0.1853 0.1725 0.1598
1742.394100 0.1550 0.1533 0.1516 0.1499 0.1487
1747.417482 0.1479 0.1471 0.1462 0.1443 0.1373
1752.440863 0.1262 0.1225 0.1220 0.1218 0.1217
1757.464245 0.1222 0.1226 0.1230 0.1237 0.1240
1762.487626 0.1238 0.1279 0.1316 0.1416 0.1594
1767.511008 0.1844 0.2206 0.2569 0.2932 0.3295
1772.534390 0.3657 0.4021 0.4364 0.4600 0.4694
1777.557771 0.4797 0.4949 0.5215 0.5458 0.5600
1782.581153 0.5760 0.5949 0.6072 0.6143 0.6214
1787.604534 0.6285 0.6356 0.6435 0.6530 0.6623
1792.627916 0.6710 0.6787 0.6865 0.6940 0.7006
1797.651298 0.7070 0.7133 0.7197 0.7264 0.7333
1802.674679 0.7402 0.7470 0.7536 0.7602 0.7672
1807.698061 0.7754 0.7846 0.7926 0.7973 0.8006
1812.721443 0.8039 0.8073 0.8106 0.8138 0.8163
1817.744824 0.8188 0.8213 0.8238 0.8263 0.8287
1822.768206 0.8308 0.8326 0.8344 0.8360 0.8366
1827.791587 0.8364 0.8363 0.8361 0.8359 0.8357
1832.814969 0.8354 0.8350 0.8347 0.8344 0.8340
1837.838351 0.8337 0.8334 0.8330 0.8326 0.8322
1842.861732 0.8317 0.8313 0.8309 0.8305 0.8301
1847.885114 0.8300 0.8298 0.8297 0.8296 0.8294
1852.908495 0.8293 0.8292 0.8292 0.8296 0.8301
1857.931877 0.8306 0.8312 0.8320 0.8328 0.8336
1862.955259 0.8345 0.8356 0.8374 0.8392 0.8412
1867.978640 0.8432 0.8452 0.8472 0.8491 0.8506
1873.002022 0.8521 0.8535 0.8549 0.8559 0.8568
1878.025403 0.8577 0.8586 0.8594 0.8603 0.8612
1883.048785 0.8619 0.8625 0.8631 0.8637 0.8642
1888.072167 0.8646 0.8649 0.8653 0.8657 0.8660
1893.095548 0.8664 0.8667 0.8671 0.8673 0.8673
1898.118930 0.8674 0.8675 0.8675 0.8676 0.8676
1903.142312 0.8677 0.8678 0.8677 0.8675 0.8671
1908.165693 0.8679 0.8691 0.8662 0.8659 0.8656
1913.189075 0.8653 0.8649 0.8646 0.8641 0.8635
1918.212456 0.8630 0.8625 0.8619 0.8614 0.8609
1923.235838 0.8602 0.8592 0.8581 0.8571 0.8560
1928.259220 0.8549 0.8543 0.8549 0.8556 0.8562
1933.282601 0.8568 0.8573 0.8579 0.8584 0.8590
1938.305983 0.8595 0.8601 0.8607 0.8613 0.8619
1943.329364 0.8626 0.8632 0.8638 0.8644 0.8649
1948.352746 0.8655 0.8660 0.8666 0.8671 0.8676
1953.376128 0.8681 0.8685 0.8689 0.8693 0.8696
1958.399509 0.8700 0.8704 0.8708 0.8711 0.8715
1963.422891 0.8719 0.8721 0.8722 0.8722 0.8722
1968.446273 0.8722 0.8722 0.8722 0.8722 0.8721
1973.469654 0.8721 0.8721 0.8720 0.8719 0.8718
1978.493036 0.8716 0.8714 0.8712 0.8710 0.8708
1983.516417 0.8706 0.8704 0.8702 0.8701 0.8699
1988.539799 0.8697 0.8695 0.8694 0.8692 0.8690
1993.563181 0.8688 0.8686 0.8685 0.8683 0.8681
1998.586562 0.8679 0.8677 0.8676 0.8674 0.8672
2003.609944 0.8670 0.8668 0.8666 0.8664 0.8662
2008.633325 0.8659 0.8657 0.8654 0.8652 0.8649
2013.656707 0.8647 0.8644 0.8642 0.8640 0.8637
2018.680089 0.8635 0.8632 0.8630 0.8627 0.8625
2023.703470 0.8622 0.8620 0.8617 0.8614 0.8612
2028.726852 0.8609 0.8606 0.8604 0.8601 0.8598
2033.750234 0.8596 0.8593 0.8590 0.8588 0.8585
2038.773615 0.8582 0.8580 0.8577 0.8574 0.8572
2043.796997 0.8570 0.8569 0.8567 0.8565 0.8564
2048.820378 0.8562 0.8560 0.8559 0.8557 0.8556
2053.843760 0.8554 0.8552 0.8551 0.8549 0.8548
2058.867142 0.8546 0.8544 0.8543 0.8541 0.8540
2063.890523 0.8539 0.8538 0.8537 0.8537 0.8536
2068.913905 0.8535 0.8534 0.8534 0.8533 0.8532
2073.937286 0.8531 0.8530 0.8530 0.8529 0.8528
2078.960668 0.8527 0.8526 0.8524 0.8522 0.8520
2083.984050 0.8518 0.8517 0.8515 0.8513 0.8511
2089.007431 0.8509 0.8507 0.8506 0.8505 0.8503
2094.030813 0.8502 0.8500 0.8499 0.8497 0.8496
2099.054195 0.8495 0.8493 0.8492 0.8490 0.8489
2104.077576 0.8487 0.8486 0.8485 0.8483 0.8482
2109.100958 0.8480 0.8479 0.8477 0.8476 0.8474
2114.124339 0.8472 0.8470 0.8469 0.8467 0.8465
2119.147721 0.8463 0.8461 0.8460 0.8458 0.8456
2124.171103 0.8454 0.8452 0.8451 0.8449 0.8448
2129.194484 0.8447 0.8446 0.8444 0.8443 0.8442
2134.217866 0.8441 0.8440 0.8438 0.8437 0.8436
2139.241247 0.8435 0.8434 0.8432 0.8431 0.8430
2144.264629 0.8429 0.8427 0.8426 0.8425 0.8424
2149.288011 0.8423 0.8421 0.8420 0.8419 0.8418
2154.311392 0.8417 0.8415 0.8414 0.8413 0.8412
2159.334774 0.8410 0.8409 0.8408 0.8407 0.8406
2164.358155 0.8404 0.8403 0.8402 0.8401 0.8399
2169.381537 0.8398 0.8397 0.8395 0.8393 0.8390
2174.404919 0.8388 0.8386 0.8383 0.8381 0.8379
2179.428300 0.8376 0.8374 0.8372 0.8370 0.8367
2184.451682 0.8365 0.8363 0.8360 0.8358 0.8356
2189.475064 0.8353 0.8351 0.8349 0.8346 0.8344
2194.498445 0.8342 0.8340 0.8337 0.8335 0.8333
2199.521827 0.8331 0.8328 0.8326 0.8324 0.8321
2204.545208 0.8319 0.8317 0.8315 0.8312 0.8310
2209.568590 0.8308 0.8307 0.8305 0.8304 0.8302
2214.591972 0.8301 0.8299 0.8297 0.8296 0.8294
2219.615353 0.8293 0.8291 0.8290 0.8288 0.8286
2224.638735 0.8285 0.8283 0.8282 0.8280 0.8279
2229.662116 0.8278 0.8277 0.8275 0.8274 0.8273
2234.685498 0.8272 0.8270 0.8269 0.8268 0.8267
2239.708880 0.8265 0.8264 0.8263 0.8262 0.8260
2244.732261 0.8259 0.8257 0.8255 0.8252 0.8250
2249.755643 0.8248 0.8246 0.8244 0.8241 0.8239
2254.779025 0.8237 0.8235 0.8232 0.8230 0.8228
2259.802406 0.8226 0.8224 0.8221 0.8219 0.8218
2264.825788 0.8217 0.8217 0.8217 0.8218 0.8218
2269.849169 0.8218 0.8218 0.8218 0.8219 0.8219
2274.872551 0.8219 0.8220 0.8225 0.8230 0.8235
2279.895933 0.8240 0.8245 0.8250 0.8255 0.8261
2284.919314 0.8267 0.8273 0.8279 0.8285 0.8292
2289.942696 0.8296 0.8300 0.8303 0.8307 0.8311
2294.966077 0.8314 0.8318 0.8321 0.8325 0.8329
2299.989459 0.8335 0.8342 0.8349 0.8356 0.8363
2305.012841 0.8367 0.8369 0.8370 0.8371 0.8372
2310.036222 0.8373 0.8375 0.8376 0.8374 0.8372
2315.059604 0.8370 0.8368 0.8366 0.8364 0.8362
2320.082986 0.8360 0.8358 0.8357 0.8356 0.8355
2325.106367 0.8354 0.8353 0.8351 0.8350 0.8349
2330.129749 0.8348 0.8347 0.8346 0.8344 0.8341
2335.153130 0.8335 0.8329 0.8322 0.8316 0.8310
2340.176512 0.8304 0.8297 0.8291 0.8284 0.8272
2345.199894 0.8259 0.8247 0.8234 0.8222 0.8209
2350.223275 0.8196 0.8184 0.8171 0.8159 0.8148
2355.246657 0.8137 0.8126 0.8115 0.8104 0.8093
2360.270038 0.8082 0.8071 0.8062 0.8056 0.8050
2365.293420 0.8044 0.8037 0.8031 0.8025 0.8019
2370.316802 0.8015 0.8012 0.8009 0.8006 0.8003
2375.340183 0.8000 0.7997 0.7995 0.7992 0.7989
2380.363565 0.7987 0.7985 0.7983 0.7981 0.7980
2385.386946 0.7979 0.7978 0.7977 0.7977 0.7977
2390.410328 0.7976 0.7976 0.7976 0.7975 0.7975
2395.433710 0.7975 0.7974 0.7974 0.7974 0.7973
2400.457091 0.7973 0.7973 0.7972 0.7972 0.7972
2405.480473 0.7971 0.7971 0.7971 0.7970 0.7970
2410.503855 0.7970 0.7970 0.7971 0.7971 0.7971
2415.527236 0.7971 0.7971 0.7971 0.7972 0.7972
2420.550618 0.7971 0.7971 0.7971 0.7970 0.7970
2425.573999 0.7970 0.7969 0.7969 0.7967 0.7966
2430.597381 0.7965 0.7964 0.7962 0.7961 0.7960
2435.620763 0.7959 0.7957 0.7956 0.7954 0.7950
2440.644144 0.7947 0.7943 0.7939 0.7935 0.7931
2445.667526 0.7928 0.7924 0.7920 0.7915 0.7910
2450.690907 0.7905 0.7900 0.7894 0.7889 0.7883
2455.714289 0.7878 0.7873 0.7867 0.7863 0.7859
2460.737671 0.7856 0.7854 0.7851 0.7848 0.7846
2465.761052 0.7843 0.7841 0.7838 0.7835 0.7833
2470.784434 0.7831 0.7830 0.7829 0.7829 0.7828
2475.807816 0.7828 0.7827 0.7827 0.7826 0.7825
2480.831197 0.7825 0.7824 0.7824 0.7823 0.7823
2485.854579 0.7822 0.7821 0.7821 0.7821 0.7821
2490.877960 0.7821 0.7820 0.7820 0.7820 0.7820
2495.901342 0.7820 0.7820 0.7820 0.7819 0.7818
2500.924724 0.7816 0.7814 0.7812 0.7810 0.7808
2505.948105 0.7806 0.7804 0.7801 0.7799 0.7797
2510.971487 0.7795 0.7793 0.7790 0.7788 0.7785
2515.994868 0.7782 0.7779 0.7776 0.7774 0.7770
2521.018250 0.7766 0.7761 0.7757 0.7753 0.7749
2526.041632 0.7745 0.7742 0.7739 0.7736 0.7733
2531.065013 0.7730 0.7728 0.7725 0.7722 0.7719
2536.088395 0.7716 0.7713 0.7708 0.7702 0.7697
2541.111777 0.7691 0.7685 0.7680 0.7674 0.7667
2546.135158 0.7658 0.7649 0.7640 0.7631 0.7623
2551.158540 0.7614 0.7605 0.7597 0.7592 0.7589
2556.181921 0.7584 0.7581 0.7577 0.7573 0.7570
2561.205303 0.7565 0.7562 0.7559 0.7556 0.7554
2566.228685 0.7551 0.7549 0.7546 0.7543 0.7541
2571.252066 0.7538 0.7536 0.7533 0.7531 0.7528
2576.275448 0.7526 0.7523 0.7520 0.7517 0.7514
2581.298829 0.7511 0.7508 0.7505 0.7502 0.7499
2586.322211 0.7496 0.7493 0.7491 0.7488 0.7485
2591.345593 0.7482 0.7479 0.7477 0.7475 0.7474
2596.368974 0.7472 0.7471 0.7469 0.7467 0.7466
2601.392356 0.7464 0.7463 0.7461 0.7460 0.7458
2606.415738 0.7457 0.7456 0.7455 0.7454 0.7453
2611.439119 0.7452 0.7451 0.7450 0.7449 0.7449
2616.462501 0.7448 0.7447 0.7446 0.7445 0.7444
2621.485882 0.7443 0.7442 0.7440 0.7436 0.7433
2626.509264 0.7430 0.7427 0.7424 0.7421 0.7418
2631.532646 0.7415 0.7412 0.7409 0.7407 0.7406
2636.556027 0.7404 0.7403 0.7402 0.7401 0.7399
2641.579409 0.7398 0.7397 0.7395 0.7394 0.7393
2646.602790 0.7392 0.7391 0.7390 0.7389 0.7388
2651.626172 0.7387 0.7386 0.7386 0.7385 0.7384
2656.649554 0.7382 0.7379 0.7377 0.7374 0.7372
2661.672935 0.7369 0.7367 0.7364 0.7362 0.7359
2666.696317 0.7357 0.7355 0.7352 0.7350 0.7347
2671.719698 0.7344 0.7340 0.7335 0.7330 0.7325
2676.743080 0.7321 0.7316 0.7311 0.7306 0.7303
2681.766462 0.7300 0.7298 0.7296 0.7294 0.7292
2686.789843 0.7290 0.7288 0.7287 0.7287 0.7287
2691.813225 0.7287 0.7287 0.7288 0.7288 0.7288
2696.836607 0.7288 0.7288 0.7289 0.7289 0.7291
2701.859988 0.7292 0.7293 0.7294 0.7295 0.7297
2706.883370 0.7298 0.7299 0.7300 0.7302 0.7303
2711.906751 0.7303 0.7304 0.7304 0.7305 0.7306
2716.930133 0.7306 0.7307 0.7307 0.7308 0.7308
2721.953515 0.7309 0.7309 0.7308 0.7308 0.7307
2726.976896 0.7306 0.7305 0.7305 0.7304 0.7303
2732.000278 0.7301 0.7295 0.7288 0.7282 0.7276
2737.023659 0.7269 0.7263 0.7257 0.7249 0.7240
2742.047041 0.7229 0.7219 0.7209 0.7199 0.7188
2747.070423 0.7176 0.7160 0.7144 0.7129 0.7113
2752.093804 0.7096 0.7077 0.7056 0.7036 0.7014
2757.117186 0.6988 0.6962 0.6936 0.6910 0.6884
2762.140568 0.6858 0.6832 0.6804 0.6774 0.6741
2767.163949 0.6709 0.6676 0.6643 0.6608 0.6567
2772.187331 0.6526 0.6487 0.6454 0.6422 0.6389
2777.210712 0.6334 0.6242 0.6144 0.6047 0.5950
2782.234094 0.5852 0.5755 0.5658 0.5560 0.5463
2787.257476 0.5365 0.5270 0.5187 0.5124 0.5078
2792.280857 0.5029 0.4971 0.4901 0.4797 0.4642
2797.304239 0.4472 0.4319 0.3796 0.3082 0.2896
2802.327620 0.2705 0.2466 0.2191 0.1929 0.1712
2807.351002 0.1523 0.1356 0.1213 0.1106 0.1045
2812.374384 0.0988 0.0945 0.0913 0.0881 0.0849
2817.397765 0.0825 0.0814 0.0802 0.0791 0.0782
2822.421147 0.0778 0.0775 0.0772 0.0771 0.0771
2827.444529 0.0772 0.0772 0.0772 0.0773 0.0774
2832.467910 0.0775 0.0776 0.0776 0.0774 0.0773
2837.491292 0.0771 0.0770 0.0768 0.0767 0.0766
2842.514673 0.0765 0.0763 0.0761 0.0756 0.0750
2847.538055 0.0743 0.0736 0.0726 0.0714 0.0703
2852.561437 0.0692 0.0680 0.0669 0.0658 0.0648
2857.584818 0.0640 0.0631 0.0623 0.0614 0.0606
2862.608200 0.0598 0.0589 0.0581 0.0573 0.0565
2867.631581 0.0557 0.0549 0.0540 0.0531 0.0522
2872.654963 0.0513 0.0504 0.0495 0.0486 0.0478
2877.678345 0.0478 0.0467 0.0458 0.0452 0.0445
2882.701726 0.0442 0.0444 0.0447 0.0451 0.0454
2887.725108 0.0458 0.0463 0.0472 0.0483 0.0493
2892.748490 0.0504 0.0515 0.0525 0.0541 0.0559
2897.771871 0.0577 0.0595 0.0615 0.0637 0.0659
2902.795253 0.0685 0.0712 0.0727 0.0741 0.0750
2907.818634 0.0754 0.0757 0.0759 0.0760 0.0762
2912.842016 0.0763 0.0767 0.0771 0.0776 0.0781
2917.865398 0.0787 0.0792 0.0800 0.0812 0.0824
2922.888779 0.0837 0.0849 0.0867 0.0887 0.0906
2927.912161 0.0928 0.0950 0.0972 0.0994 0.1016
2932.935542 0.1040 0.1069 0.1098 0.1136 0.1195
2937.958924 0.1260 0.1330 0.1400 0.1458 0.1508
2942.982306 0.1557 0.1606 0.1656 0.1712 0.1767
2948.005687 0.1823 0.1880 0.1940 0.2013 0.2087
2953.029069 0.2159 0.2224 0.2287 0.2366 0.2461
2958.052450 0.2556 0.2651 0.2746 0.2841 0.2936
2963.075832 0.3031 0.3126 0.3221 0.3316 0.3411
2968.099214 0.3505 0.3598 0.3661 0.3708 0.3755
2973.122595 0.3801 0.3846 0.3891 0.3945 0.4055
2978.145977 0.4157 0.4211 0.4264 0.4303 0.4333
2983.169359 0.4363 0.4393 0.4423 0.4452 0.4482
2988.192740 0.4509 0.4532 0.4555 0.4578 0.4601
2993.216122 0.4624 0.4646 0.4667 0.4686 0.4706
2998.239503 0.4726 0.4744 0.4762 0.4778 0.4795
3003.262885 0.4812 0.4828 0.4844 0.4860 0.4877
3008.286267 0.4893 0.4909 0.4931 0.4968 0.5009
3013.309648 0.5063 0.5129 0.5182 0.5225 0.5265
3018.333030 0.5300 0.5329 0.5359 0.5388 0.5415
3023.356411 0.5437 0.5458 0.5478 0.5494 0.5507
3028.379793 0.5520 0.5532 0.5545 0.5557 0.5570
3033.403175 0.5581 0.5589 0.5595 0.5601 0.5607
3038.426556 0.5613 0.5620 0.5627 0.5634 0.5642
3043.449938 0.5649 0.5656 0.5663 0.5670 0.5677
3048.473320 0.5683 0.5687 0.5691 0.5695 0.5699
3053.496701 0.5703 0.5707 0.5711 0.5715 0.5718
3058.520083 0.5722 0.5726 0.5730 0.5733 0.5736
3063.543464 0.5742 0.5752 0.5763 0.5772 0.5782
3068.566846 0.5792 0.5808 0.5833 0.5861 0.5888
3073.590228 0.5923 0.5965 0.6009 0.6054 0.6102
3078.613609 0.6153 0.6191 0.6217 0.6240 0.6257
3083.636991 0.6266 0.6273 0.6281 0.6287 0.6294
3088.660372 0.6301 0.6308 0.6313 0.6318 0.6322
3093.683754 0.6327 0.6331 0.6334 0.6337 0.6339
3098.707136 0.6342 0.6344 0.6347 0.6349 0.6351
3103.730517 0.6354 0.6356 0.6359 0.6361 0.6365
3108.753899 0.6371 0.6377 0.6384 0.6390 0.6396
3113.777281 0.6401 0.6403 0.6405 0.6406 0.6407
3118.800662 0.6409 0.6410 0.6411 0.6409 0.6405
3123.824044 0.6401 0.6398 0.6394 0.6390 0.6387
3128.847425 0.6386 0.6385 0.6384 0.6383 0.6382
3133.870807 0.6381 0.6380 0.6378 0.6378 0.6379
3138.894189 0.6381 0.6382 0.6384 0.6386 0.6387
3143.917570 0.6389 0.6391 0.6376 0.6393 0.6396
3148.940952 0.6397 0.6399 0.6401 0.6403 0.6404
3153.964333 0.6406 0.6408 0.6409 0.6411 0.6413
3158.987715 0.6413 0.6411 0.6409 0.6406 0.6404
3164.011097 0.6402 0.6399 0.6396 0.6393 0.6390
3169.034478 0.6387 0.6384 0.6380 0.6375 0.6371
3174.057860 0.6367 0.6362 0.6358 0.6354 0.6349
3179.081242 0.6347 0.6345 0.6343 0.6341 0.6340
3184.104623 0.6338 0.6336 0.6335 0.6334 0.6333
3189.128005 0.6332 0.6331 0.6330 0.6329 0.6328
3194.151386 0.6326 0.6325 0.6324 0.6323 0.6322
3199.174768 0.6321 0.6320 0.6319 0.6319 0.6318
3204.198150 0.6318 0.6318 0.6317 0.6317 0.6317
3209.221531 0.6317 0.6317 0.6317 0.6318 0.6318
3214.244913 0.6318 0.6318 0.6318 0.6318 0.6319
3219.268294 0.6319 0.6319 0.6319 0.6319 0.6320
3224.291676 0.6320 0.6318 0.6317 0.6316 0.6314
3229.315058 0.6313 0.6312 0.6310 0.6309 0.6308
3234.338439 0.6307 0.6305 0.6303 0.6300 0.6298
3239.361821 0.6296 0.6294 0.6292 0.6289 0.6287
3244.385202 0.6285 0.6283 0.6281 0.6279 0.6276
3249.408584 0.6274 0.6270 0.6267 0.6263 0.6259
3254.431966 0.6256 0.6252 0.6249 0.6245 0.6242
3259.455347 0.6238 0.6235 0.6231 0.6227 0.6224
3264.478729 0.6220 0.6215 0.6209 0.6201 0.6194
3269.502111 0.6186 0.6178 0.6171 0.6163 0.6156
3274.525492 0.6148 0.6141 0.6133 0.6126 0.6117
3279.548874 0.6107 0.6096 0.6086 0.6076 0.6066
3284.572255 0.6055 0.6045 0.6035 0.6025 0.6015
3289.595637 0.6004 0.5994 0.5984 0.5974 0.5964
3294.619019 0.5953 0.5940 0.5927 0.5914 0.5902
3299.642400 0.5889 0.5876 0.5863 0.5849 0.5836
3304.665782 0.5823 0.5810 0.5797 0.5785 0.5771
3309.689163 0.5756 0.5741 0.5726 0.5710 0.5695
3314.712545 0.5680 0.5649 0.5614 0.5578 0.5542
3319.735927 0.5507 0.5472 0.5437 0.5401 0.5366
3324.759308 0.5325 0.5282 0.5239 0.5196 0.5153
3329.782690 0.5112 0.5074 0.5037 0.5000 0.4962
3334.806072 0.4923 0.4871 0.4816 0.4760 0.4711
3339.829453 0.4673 0.4637 0.4601 0.4558 0.4519
3344.852835 0.4500 0.4487 0.4487 0.4475 0.4511
3349.876216 0.4548 0.4593 0.4637 0.4680 0.4734
3354.899598 0.4803 0.4864 0.4918 0.4978 0.5047
3359.922980 0.5123 0.5215 0.5313 0.5446 0.5596
3364.946361 0.5623 0.5634 0.5653 0.5749 0.5818
3369.969743 0.5871 0.5968 0.6071 0.6152 0.6232
3374.993124 0.6267 0.6302 0.6337 0.6361 0.6379
3380.016506 0.6396 0.6413 0.6419 0.6426 0.6432
3385.039888 0.6439 0.6445 0.6448 0.6449 0.6450
3390.063269 0.6452 0.6453 0.6454 0.6456 0.6456
3395.086651 0.6456 0.6456 0.6457 0.6457 0.6458
3400.110033 0.6461 0.6464 0.6468 0.6471 0.6475
3405.133414 0.6482 0.6488 0.6491 0.6491 0.6491
3410.156796 0.6491 0.6492 0.6492 0.6492 0.6492
3415.180177 0.6492 0.6493 0.6493 0.6493 0.6493
3420.203559 0.6492 0.6491 0.6491 0.6490 0.6489
3425.226941 0.6489 0.6488 0.6487 0.6487 0.6486
3430.250322 0.6485 0.6483 0.6482 0.6481 0.6480
3435.273704 0.6479 0.6478 0.6476 0.6474 0.6472
3440.297085 0.6470 0.6468 0.6466 0.6464 0.6462
3445.320467 0.6460 0.6458 0.6456 0.6454 0.6452
3450.343849 0.6450 0.6448 0.6446 0.6444 0.6443
3455.367230 0.6443 0.6443 0.6444 0.6445 0.6445
3460.390612 0.6446 0.6446 0.6447 0.6448 0.6449
3465.413993 0.6450 0.6452 0.6454 0.6456 0.6457
3470.437375 0.6459 0.6461 0.6463 0.6465 0.6467
3475.460757 0.6469 0.6471 0.6473 0.6475 0.6477
3480.484138 0.6479 0.6482 0.6484 0.6487 0.6491
3485.507520 0.6494 0.6497 0.6501 0.6504 0.6507
3490.530902 0.6510 0.6511 0.6512 0.6513 0.6514
3495.554283 0.6515 0.6514 0.6512 0.6511 0.6509
3500.577665 0.6507 0.6506 0.6504 0.6503 0.6501
3505.601046 0.6499 0.6498 0.6496 0.6496 0.6495
3510.624428 0.6495 0.6495 0.6494 0.6494 0.6493
3515.647810 0.6493 0.6492 0.6492 0.6491 0.6491
3520.671191 0.6491 0.6490 0.6490 0.6489 0.6489
3525.694573 0.6488 0.6488 0.6487 0.6487 0.6487
3530.717954 0.6486 0.6486 0.6485 0.6485 0.6486
3535.741336 0.6487 0.6487 0.6488 0.6489 0.6489
3540.764718 0.6490 0.6490 0.6491 0.6492 0.6492
3545.788099 0.6493 0.6493 0.6494 0.6495 0.6495
3550.811481 0.6496 0.6497 0.6497 0.6498 0.6499
3555.834863 0.6500 0.6501 0.6502 0.6503 0.6504
3560.858244 0.6505 0.6506 0.6507 0.6508 0.6509
3565.881626 0.6510 0.6511 0.6512 0.6513 0.6514
3570.905007 0.6515 0.6517 0.6518 0.6519 0.6520
3575.928389 0.6521 0.6522 0.6523 0.6524 0.6525
3580.951771 0.6526 0.6527 0.6529 0.6530 0.6531
3585.975152 0.6532 0.6533 0.6534 0.6535 0.6536
3590.998534 0.6537 0.6537 0.6538 0.6538 0.6539
3596.021915 0.6539 0.6540 0.6541 0.6541 0.6542
3601.045297 0.6542 0.6543 0.6543 0.6544 0.6545
3606.068679 0.6545 0.6546 0.6546 0.6547 0.6548
3611.092060 0.6548 0.6549 0.6549 0.6550 0.6550
3616.115442 0.6551 0.6552 0.6552 0.6553 0.6553
3621.138824 0.6554 0.6554 0.6555 0.6556 0.6556
3626.162205 0.6557 0.6557 0.6558 0.6558 0.6559
3631.185587 0.6560 0.6560 0.6560 0.6560 0.6561
3636.208968 0.6561 0.6561 0.6562 0.6562 0.6562
3641.232350 0.6563 0.6563 0.6563 0.6563 0.6564
3646.255732 0.6564 0.6564 0.6565 0.6565 0.6565
3651.279113 0.6566 0.6566 0.6566 0.6566 0.6567
3656.302495 0.6567 0.6567 0.6568 0.6568 0.6568
3661.325876 0.6569 0.6569 0.6569 0.6569 0.6569
3666.349258 0.6569 0.6569 0.6569 0.6569 0.6568
3671.372640 0.6568 0.6568 0.6568 0.6568 0.6568
3676.396021 0.6568 0.6567 0.6567 0.6567 0.6567
3681.419403 0.6567 0.6567 0.6567 0.6566 0.6566
3686.442785 0.6566 0.6566 0.6566 0.6566 0.6566
3691.466166 0.6565 0.6565 0.6565 0.6565 0.6565
3696.489548 0.6565 0.6564 0.6564 0.6564 0.6564
3701.512929 0.6563 0.6561 0.6559 0.6556 0.6554
3706.536311 0.6552 0.6550 0.6548 0.6545 0.6543
3711.559693 0.6541 0.6539 0.6537 0.6535 0.6532
3716.583074 0.6530 0.6528 0.6526 0.6524 0.6521
3721.606456 0.6519 0.6517 0.6515 0.6513 0.6511
3726.629837 0.6508 0.6506 0.6504 0.6502 0.6498
3731.653219 0.6494 0.6490 0.6486 0.6481 0.6477
3736.676601 0.6473 0.6468 0.6464 0.6459 0.6455
3741.699982 0.6451 0.6446 0.6442 0.6437 0.6432
3746.723364 0.6427 0.6422 0.6417 0.6412 0.6407
3751.746745 0.6402 0.6397 0.6392 0.6387 0.6382
3756.770127 0.6379 0.6376 0.6374 0.6372 0.6370
3761.793509 0.6368 0.6366 0.6364 0.6363 0.6361
3766.816890 0.6359 0.6357 0.6355 0.6353 0.6352
3771.840272 0.6352 0.6352 0.6351 0.6351 0.6351
3776.863654 0.6350 0.6350 0.6350 0.6349 0.6349
3781.887035 0.6349 0.6348 0.6348 0.6348 0.6348
3786.910417 0.6347 0.6348 0.6348 0.6349 0.6349
3791.933798 0.6350 0.6350 0.6351 0.6351 0.6352
3796.957180 0.6352 0.6353 0.6353 0.6354 0.6354
3801.980562 0.6354 0.6354 0.6354 0.6354 0.6355
3807.003943 0.6355 0.6355 0.6355 0.6355 0.6356
3812.027325 0.6355 0.6354 0.6353 0.6351 0.6350
3817.050706 0.6348 0.6347 0.6346 0.6344 0.6343
3822.074088 0.6342 0.6340 0.6339 0.6337 0.6333
3827.097470 0.6329 0.6324 0.6320 0.6316 0.6311
3832.120851 0.6307 0.6302 0.6298 0.6294 0.6290
3837.144233 0.6285 0.6282 0.6279 0.6277 0.6275
3842.167615 0.6274 0.6272 0.6270 0.6269 0.6267
3847.190996 0.6265 0.6264 0.6263 0.6262 0.6262
3852.214378 0.6261 0.6260 0.6259 0.6258 0.6257
3857.237759 0.6256 0.6256 0.6255 0.6254 0.6253
3862.261141 0.6252 0.6250 0.6248 0.6244 0.6241
3867.284523 0.6237 0.6233 0.6230 0.6226 0.6222
3872.307904 0.6219 0.6215 0.6211 0.6208 0.6203
3877.331286 0.6196 0.6188 0.6181 0.6173 0.6166
3882.354667 0.6158 0.6150 0.6143 0.6137 0.6133
3887.378049 0.6130 0.6126 0.6123 0.6120 0.6117
3892.401431 0.6113 0.6110 0.6107 0.6104 0.6100
3897.424812 0.6097 0.6095 0.6095 0.6095 0.6096
3902.448194 0.6097 0.6097 0.6098 0.6098 0.6099
3907.471576 0.6100 0.6100 0.6101 0.6101 0.6102
3912.494957 0.6103 0.6103 0.6104 0.6105 0.6106
3917.518339 0.6107 0.6108 0.6110 0.6112 0.6114
3922.541720 0.6115 0.6117 0.6119 0.6121 0.6123
3927.565102 0.6124 0.6126 0.6128 0.6130 0.6132
3932.588484 0.6134 0.6135 0.6137 0.6137 0.6137
3937.611865 0.6136 0.6136 0.6136 0.6136 0.6135
3942.635247 0.6135 0.6135 0.6134 0.6134 0.6134
3947.658628 0.6135 0.6134 0.6133 0.6133 0.6132
3952.682010 0.6132 0.6132 0.6131 0.6131 0.6131
3957.705392 0.6130 0.6130 0.6130 0.6130 0.6130
3962.728773 0.6130 0.6130 0.6130 0.6130 0.6130
3967.752155 0.6130 0.6130 0.6130 0.6130 0.6130
3972.775537 0.6130 0.6130 0.6130 0.6130 0.6131
3977.798918 0.6131 0.6131 0.6131 0.6131 0.6131
3982.822300 0.6131 0.6131 0.6131 0.6131 0.6131
3987.845681 0.6131 0.6131 0.6131 0.6131 0.6131
3992.869063 0.6131 0.6131 0.6131 0.6131 0.6131
3997.892445 0.6131 0.6131 0.6131 0.6132 0.6132
4002.915826 0.6132 0.6132 0.6132 0.6132 0.6132
4007.939208 0.6132 0.6132 0.6132 0.6132 0.6132
4012.962589 0.6132 0.6132 0.6132 0.6132 0.6132
4017.985971 0.6132 0.6132 0.6132
##END=
