##TITLE=5,5'-BIS-BENZYLMERCAPTO-[2,2'-AZO-1,3,4-THIADIAZOL]
##JCAMP-DX=4.24
##DATA TYPE=INFRARED SPECTRUM
##CLASS=COBLENTZ
##ORIGIN=NORBERT PETRI
##OWNER=COBLENTZ SOCIETY
Collection (C) 2018 copyright by the U.S. Secretary of Commerce
on behalf of the United States of America. All rights reserved.
##DATE=Not specified, most likely prior to 1970
##NAMES=2-(benzylsulfanyl)-5-((E)-[5-(benzylsulfanyl)-1,3,4-thiadiazol-2-yl]diazenyl)-1,3,4-thiadiazole
##MOLFORM=C18 H14 N6 S4
##SOURCE REFERENCE=COBLENTZ NO. 3628
##$NIST ID=B6003628
##$NIST SOURCE=COBLENTZ
##$NIST IMAGE=cob3628
##SPECTROMETER/DATA SYSTEM=Not specified, most likely a prism, grating, or hybrid spectrometer.
##STATE=SOLID (KBr PELLET)
##PATH LENGTH=
$$SPECTRAL FEATURE AROUND 3500 CM^-^1 IS PROBABLY DUE TO AN UNKNOWN
##SAMPLING PROCEDURE=TRANSMISSION
##RESOLUTION=4
##DATA PROCESSING=DIGITIZED BY NIST FROM HARD COPY
##XUNITS=MICROMETERS
##YUNITS=TRANSMITTANCE
##XFACTOR=1.000000
##YFACTOR=1
##DELTAX=000.006013
##FIRSTX=2.03
##LASTX=15.4031
##FIRSTY=0.254
##MAXX=15.4031
##MINX=2.03
##MAXY=0.85
##MINY=0.026
##NPOINTS=2225
##XYDATA=(X++(Y..Y))
2.030000 0.2540 0.2540 0.2570 0.2570 0.2590
2.060078 0.2610 0.2630 0.2630 0.2630 0.2660
2.090000 0.2700 0.2710 0.2720 0.2720 0.2760
2.120078 0.2760 0.2770 0.2780 0.2800 0.2810
2.150000 0.2810 0.2820 0.2820 0.2820 0.2830
2.180078 0.2830 0.2830 0.2860 0.2870 0.2880
2.210000 0.2880 0.2890 0.2910 0.2920 0.2930
2.240078 0.2940 0.2940 0.2970 0.2990 0.2990
2.271000 0.3000 0.3000 0.3000 0.3020 0.3020
2.301078 0.3030 0.3030 0.3040 0.3050 0.3060
2.331000 0.3080 0.3110 0.3130 0.3140 0.3160
2.361078 0.3170 0.3190 0.3190 0.3200 0.3220
2.391000 0.3220 0.3220 0.3230 0.3270 0.3280
2.421078 0.3280 0.3280 0.3300 0.3300 0.3300
2.451000 0.3310 0.3320 0.3330 0.3330 0.3360
2.481078 0.3360 0.3360 0.3360 0.3370 0.3370
2.511000 0.3380 0.3380 0.3380 0.3380 0.3410
2.541078 0.3430 0.3450 0.3450 0.3470 0.3490
2.571000 0.3500 0.3520 0.3530 0.3550 0.3560
2.601078 0.3580 0.3590 0.3600 0.3600 0.3600
2.631000 0.3600 0.3600 0.3600 0.3610 0.3610
2.661078 0.3590 0.3590 0.3590 0.3600 0.3600
2.691000 0.3580 0.3550 0.3520 0.3470 0.3430
2.721078 0.3360 0.3330 0.3300 0.3270 0.3220
2.752000 0.3150 0.3100 0.3090 0.3030 0.3020
2.782078 0.2940 0.2910 0.2880 0.2860 0.2830
2.812000 0.2800 0.2750 0.2740 0.2740 0.2720
2.842078 0.2720 0.2710 0.2710 0.2710 0.2710
2.872000 0.2720 0.2720 0.2740 0.2750 0.2760
2.902078 0.2780 0.2860 0.2930 0.3000 0.3080
2.932000 0.3140 0.3150 0.3220 0.3270 0.3300
2.962078 0.3320 0.3340 0.3380 0.3390 0.3410
2.992000 0.3420 0.3500 0.3540 0.3550 0.3590
3.022078 0.3610 0.3620 0.3650 0.3670 0.3690
3.052000 0.3710 0.3720 0.3730 0.3770 0.3810
3.082078 0.3840 0.3860 0.3890 0.3900 0.3920
3.112000 0.3920 0.3920 0.3940 0.3980 0.4010
3.142078 0.4030 0.4040 0.4060 0.4080 0.4090
3.173000 0.4110 0.4110 0.4110 0.4110 0.4120
3.203078 0.4110 0.4100 0.4080 0.4080 0.4080
3.233000 0.4090 0.4110 0.4140 0.4140 0.4140
3.263078 0.4120 0.4110 0.4120 0.4150 0.4190
3.293000 0.4200 0.4200 0.4210 0.4230 0.4230
3.323078 0.4250 0.4250 0.4260 0.4250 0.4230
3.353000 0.4220 0.4210 0.4210 0.4220 0.4230
3.383078 0.4230 0.4250 0.4270 0.4270 0.4290
3.413000 0.4320 0.4320 0.4330 0.4380 0.4400
3.443078 0.4400 0.4400 0.4420 0.4420 0.4430
3.473000 0.4480 0.4510 0.4560 0.4590 0.4620
3.503078 0.4660 0.4670 0.4670 0.4670 0.4680
3.533000 0.4680 0.4680 0.4700 0.4700 0.4710
3.563078 0.4710 0.4710 0.4730 0.4750 0.4760
3.593000 0.4760 0.4760 0.4780 0.4810 0.4810
3.623078 0.4820 0.4840 0.4840 0.4830 0.4830
3.654000 0.4830 0.4840 0.4870 0.4880 0.4890
3.684078 0.4900 0.4900 0.4870 0.4840 0.4830
3.714000 0.4830 0.4820 0.4820 0.4830 0.4830
3.744078 0.4830 0.4830 0.4840 0.4880 0.4890
3.774000 0.4900 0.4900 0.4900 0.4870 0.4850
3.804078 0.4850 0.4850 0.4890 0.4920 0.4940
3.834000 0.4960 0.4980 0.4980 0.5010 0.5010
3.864078 0.5010 0.5040 0.5060 0.5070 0.5070
3.894000 0.5110 0.5110 0.5120 0.5110 0.5110
3.924078 0.5110 0.5100 0.5090 0.5090 0.5100
3.954000 0.5120 0.5110 0.5120 0.5140 0.5160
3.984078 0.5170 0.5180 0.5180 0.5210 0.5230
4.014000 0.5230 0.5230 0.5230 0.5230 0.5240
4.044078 0.5240 0.5260 0.5260 0.5260 0.5260
4.074000 0.5260 0.5260 0.5240 0.5240 0.5230
4.104078 0.5220 0.5220 0.5220 0.5230 0.5240
4.135000 0.5240 0.5240 0.5240 0.5240 0.5260
4.165078 0.5260 0.5270 0.5280 0.5290 0.5310
4.195000 0.5310 0.5310 0.5310 0.5320 0.5330
4.225078 0.5330 0.5330 0.5350 0.5380 0.5400
4.255000 0.5400 0.5400 0.5400 0.5400 0.5420
4.285078 0.5420 0.5420 0.5440 0.5480 0.5510
4.315000 0.5510 0.5510 0.5510 0.5500 0.5490
4.345078 0.5500 0.5510 0.5510 0.5520 0.5520
4.375000 0.5520 0.5520 0.5540 0.5520 0.5540
4.405078 0.5590 0.5620 0.5620 0.5620 0.5620
4.435000 0.5630 0.5630 0.5650 0.5660 0.5660
4.465078 0.5660 0.5660 0.5660 0.5670 0.5700
4.495000 0.5710 0.5700 0.5700 0.5700 0.5670
4.525078 0.5660 0.5630 0.5610 0.5610 0.5650
4.556000 0.5660 0.5670 0.5670 0.5670 0.5710
4.586078 0.5740 0.5760 0.5740 0.5740 0.5730
4.616000 0.5710 0.5710 0.5730 0.5760 0.5770
4.646078 0.5770 0.5780 0.5780 0.5780 0.5780
4.676000 0.5780 0.5780 0.5770 0.5760 0.5730
4.706078 0.5720 0.5710 0.5710 0.5760 0.5780
4.736000 0.5800 0.5830 0.5840 0.5880 0.5880
4.766078 0.5890 0.5900 0.5900 0.5900 0.5900
4.796000 0.5910 0.5940 0.5950 0.5950 0.5950
4.826078 0.5950 0.5950 0.5990 0.6010 0.6020
4.856000 0.6040 0.6040 0.6020 0.6040 0.6060
4.886078 0.6070 0.6090 0.6090 0.6090 0.6090
4.916000 0.6090 0.6090 0.6130 0.6130 0.6130
4.946078 0.6150 0.6150 0.6120 0.6130 0.6130
4.976000 0.6130 0.6150 0.6170 0.6170 0.6180
5.006078 0.6190 0.6190 0.6180 0.6130 0.6130
5.037000 0.6170 0.6170 0.6170 0.6170 0.6170
5.067078 0.6170 0.6150 0.6120 0.6110 0.6110
5.097000 0.6180 0.6220 0.6220 0.6230 0.6260
5.127078 0.6240 0.6260 0.6260 0.6270 0.6290
5.157000 0.6330 0.6340 0.6340 0.6350 0.6350
5.187078 0.6350 0.6350 0.6330 0.6330 0.6330
5.217000 0.6330 0.6350 0.6350 0.6350 0.6340
5.247078 0.6320 0.6300 0.6300 0.6320 0.6320
5.277000 0.6340 0.6400 0.6430 0.6460 0.6500
5.307078 0.6500 0.6500 0.6500 0.6520 0.6520
5.337000 0.6520 0.6520 0.6540 0.6540 0.6550
5.367078 0.6550 0.6560 0.6570 0.6570 0.6570
5.397000 0.6550 0.6540 0.6520 0.6550 0.6540
5.427078 0.6520 0.6520 0.6520 0.6510 0.6500
5.457000 0.6470 0.6470 0.6490 0.6490 0.6490
5.487078 0.6500 0.6510 0.6550 0.6580 0.6600
5.518000 0.6610 0.6610 0.6610 0.6620 0.6620
5.548078 0.6620 0.6620 0.6620 0.6620 0.6620
5.578000 0.6620 0.6630 0.6630 0.6620 0.6600
5.608078 0.6580 0.6580 0.6570 0.6570 0.6550
5.638000 0.6560 0.6570 0.6600 0.6610 0.6610
5.668078 0.6610 0.6620 0.6620 0.6620 0.6630
5.698000 0.6620 0.6620 0.6630 0.6630 0.6650
5.728078 0.6660 0.6650 0.6650 0.6620 0.6620
5.758000 0.6620 0.6620 0.6630 0.6650 0.6660
5.788078 0.6650 0.6650 0.6650 0.6650 0.6660
5.818000 0.6660 0.6660 0.6690 0.6710 0.6710
5.848078 0.6710 0.6690 0.6690 0.6690 0.6670
5.878000 0.6670 0.6710 0.6760 0.6760 0.6720
5.908078 0.6680 0.6660 0.6660 0.6630 0.6630
5.938000 0.6620 0.6630 0.6600 0.6570 0.6550
5.968078 0.6510 0.6500 0.6500 0.6500 0.6490
5.999000 0.6460 0.6460 0.6440 0.6410 0.6370
6.029078 0.6300 0.6280 0.6260 0.6240 0.6240
6.059000 0.6230 0.6230 0.6220 0.6220 0.6220
6.089078 0.6220 0.6220 0.6230 0.6260 0.6270
6.119000 0.6280 0.6300 0.6380 0.6430 0.6490
6.149078 0.6500 0.6510 0.6540 0.6550 0.6540
6.179000 0.6510 0.6450 0.6400 0.6400 0.6430
6.209078 0.6500 0.6560 0.6630 0.6690 0.6760
6.239000 0.6800 0.6800 0.6770 0.6770 0.6780
6.269078 0.6780 0.6820 0.6850 0.6910 0.6930
6.299000 0.6960 0.7040 0.7060 0.7070 0.7080
6.329078 0.7080 0.7080 0.7080 0.7070 0.7070
6.359000 0.7070 0.7080 0.7110 0.7140 0.7130
6.389078 0.7130 0.7140 0.7140 0.7120 0.7110
6.420000 0.7110 0.7110 0.7120 0.7180 0.7210
6.450078 0.7220 0.7220 0.7220 0.7220 0.7230
6.480000 0.7240 0.7250 0.7250 0.7270 0.7270
6.510078 0.7270 0.7270 0.7280 0.7300 0.7330
6.540000 0.7340 0.7340 0.7350 0.7360 0.7380
6.570078 0.7400 0.7420 0.7460 0.7570 0.7580
6.600000 0.7580 0.7490 0.7380 0.6340 0.5840
6.630078 0.5370 0.5160 0.5170 0.5630 0.6180
6.660000 0.6520 0.6780 0.6930 0.7040 0.7070
6.690078 0.7130 0.7180 0.7230 0.7290 0.7300
6.720000 0.7320 0.7340 0.7340 0.7380 0.7420
6.750078 0.7440 0.7450 0.7460 0.7460 0.7460
6.780000 0.7460 0.7460 0.7460 0.7450 0.7440
6.810078 0.7410 0.6610 0.6010 0.5800 0.5400
6.840000 0.5400 0.5840 0.6440 0.6840 0.6950
6.870078 0.7050 0.7110 0.7110 0.7020 0.6510
6.901000 0.5890 0.5070 0.4650 0.4210 0.3820
6.931078 0.3720 0.3720 0.4030 0.4670 0.5340
6.961000 0.5630 0.5710 0.6070 0.6220 0.6370
6.991078 0.6470 0.6570 0.6670 0.6800 0.6860
7.021000 0.6900 0.6930 0.6940 0.7000 0.7040
7.051078 0.7060 0.7080 0.7110 0.7170 0.7210
7.081000 0.7210 0.7210 0.7210 0.7220 0.7240
7.111078 0.7250 0.7270 0.7280 0.7280 0.7320
7.141000 0.7340 0.7360 0.7360 0.7360 0.7360
7.171078 0.7360 0.7360 0.7360 0.7400 0.7460
7.201000 0.7600 0.7610 0.7620 0.7640 0.7670
7.231078 0.7730 0.7750 0.7780 0.7810 0.7840
7.261000 0.7860 0.7900 0.7910 0.7960 0.8010
7.291078 0.8050 0.8090 0.8130 0.8170 0.8180
7.321000 0.8200 0.8220 0.8250 0.8290 0.8300
7.351078 0.8330 0.8340 0.8340 0.8340 0.8340
7.382000 0.8350 0.8350 0.8400 0.8400 0.8380
7.412078 0.8360 0.8350 0.8330 0.8310 0.8290
7.442000 0.8290 0.8380 0.8420 0.8460 0.8470
7.472078 0.8500 0.8500 0.8500 0.8440 0.8380
7.502000 0.8290 0.8130 0.7990 0.7860 0.7580
7.532078 0.7470 0.7350 0.6950 0.6510 0.5880
7.562000 0.5400 0.5110 0.4810 0.3870 0.3160
7.592078 0.2670 0.2160 0.1640 0.0980 0.0790
7.622000 0.0510 0.0340 0.0280 0.0260 0.0300
7.652078 0.0340 0.0530 0.0750 0.0970 0.1150
7.682000 0.1440 0.1570 0.1660 0.1850 0.2030
7.712078 0.2240 0.2370 0.2710 0.2940 0.3140
7.742000 0.3370 0.3520 0.3540 0.3560 0.3900
7.772078 0.3970 0.4060 0.4150 0.4370 0.4440
7.802000 0.4640 0.4810 0.4960 0.5110 0.5210
7.832078 0.5340 0.5430 0.5490 0.5620 0.5700
7.863000 0.5740 0.5830 0.5900 0.5930 0.5940
7.893078 0.5950 0.5980 0.5960 0.5950 0.5950
7.923000 0.5900 0.5800 0.5740 0.5680 0.5420
7.953078 0.5100 0.4960 0.4820 0.4770 0.4640
7.983000 0.4540 0.4400 0.4260 0.4100 0.4040
8.013078 0.3950 0.3940 0.3970 0.4120 0.4290
8.043000 0.4500 0.4660 0.4750 0.4780 0.4810
8.073078 0.4760 0.4440 0.4110 0.4030 0.4030
8.103000 0.4230 0.4640 0.4830 0.5230 0.5420
8.133078 0.5520 0.5660 0.5770 0.5900 0.6040
8.163000 0.6110 0.6130 0.6210 0.6240 0.6300
8.193078 0.6340 0.6400 0.6450 0.6500 0.6540
8.223000 0.6540 0.6520 0.6520 0.6510 0.6510
8.253078 0.6510 0.6510 0.6540 0.6510 0.6430
8.284000 0.6220 0.6100 0.5980 0.5940 0.5870
8.314078 0.5770 0.5480 0.5100 0.4940 0.4780
8.344000 0.4670 0.4680 0.5270 0.5460 0.5630
8.374078 0.5830 0.5960 0.6010 0.6110 0.6220
8.404000 0.6290 0.6340 0.6440 0.6500 0.6540
8.434078 0.6540 0.6550 0.6560 0.6580 0.6610
8.464000 0.6620 0.6670 0.6690 0.6710 0.6720
8.494078 0.6740 0.6770 0.6790 0.6800 0.6850
8.524000 0.6900 0.6900 0.6910 0.6910 0.6910
8.554078 0.6910 0.6900 0.6900 0.6900 0.6930
8.584000 0.6950 0.7010 0.7070 0.7070 0.7080
8.614078 0.7080 0.7100 0.7120 0.7120 0.7120
8.644000 0.7120 0.7140 0.7210 0.7210 0.7240
8.674078 0.7300 0.7320 0.7330 0.7330 0.7350
8.704000 0.7400 0.7450 0.7450 0.7460 0.7470
8.734078 0.7500 0.7600 0.7600 0.7550 0.7500
8.765000 0.7470 0.7440 0.7380 0.7190 0.7120
8.795078 0.7000 0.6930 0.6930 0.6990 0.7060
8.825000 0.7120 0.7140 0.7160 0.7220 0.7330
8.855078 0.7330 0.7320 0.7300 0.7300 0.7300
8.885000 0.7300 0.7300 0.7340 0.7360 0.7390
8.915078 0.7410 0.7420 0.7440 0.7410 0.7360
8.945000 0.7210 0.6900 0.6720 0.6430 0.6120
8.975078 0.5740 0.5140 0.4810 0.4470 0.3820
9.005000 0.3160 0.2500 0.2240 0.1970 0.1590
9.035078 0.1360 0.1050 0.0850 0.0740 0.0730
9.065000 0.0700 0.0690 0.0690 0.0680 0.0680
9.095078 0.0690 0.0790 0.0970 0.1050 0.1260
9.125000 0.1470 0.1640 0.1940 0.2080 0.2200
9.155078 0.2490 0.2760 0.2980 0.3040 0.3220
9.185000 0.3340 0.3410 0.3610 0.3770 0.3900
9.215078 0.4040 0.4150 0.4230 0.4340 0.4400
9.246000 0.4540 0.4730 0.4820 0.4890 0.4900
9.276078 0.4920 0.5040 0.5050 0.5010 0.4920
9.306000 0.4820 0.4720 0.4510 0.4430 0.4390
9.336078 0.4390 0.4570 0.4680 0.4890 0.5120
9.366000 0.5330 0.5400 0.5450 0.5510 0.5610
9.396078 0.5700 0.5710 0.5710 0.5720 0.5710
9.426000 0.5630 0.5590 0.5540 0.5430 0.5420
9.456078 0.5450 0.5510 0.5600 0.5670 0.5720
9.486000 0.5760 0.5830 0.5890 0.5950 0.6000
9.516078 0.6000 0.6010 0.6110 0.6160 0.6210
9.546000 0.6210 0.6180 0.6180 0.6180 0.6190
9.576078 0.6240 0.6240 0.6240 0.6220 0.6260
9.606000 0.6320 0.6320 0.6340 0.6340 0.6340
9.636078 0.6340 0.6280 0.6220 0.6090 0.5900
9.667000 0.5760 0.5710 0.5700 0.5700 0.5710
9.697078 0.5820 0.5940 0.6070 0.6110 0.6180
9.727000 0.6230 0.6260 0.6270 0.6290 0.6370
9.757078 0.6410 0.6470 0.6520 0.6560 0.6600
9.787000 0.6600 0.6650 0.6660 0.6660 0.6660
9.817078 0.6660 0.6670 0.6680 0.6680 0.6690
9.847000 0.6710 0.6720 0.6720 0.6730 0.6740
9.877078 0.6770 0.6770 0.6790 0.6820 0.6860
9.907000 0.6880 0.6890 0.6890 0.6880 0.6710
9.937078 0.6610 0.6490 0.6470 0.6500 0.6600
9.967000 0.6630 0.6690 0.6780 0.6820 0.6840
9.997078 0.6860 0.6880 0.6890 0.6890 0.6900
10.027000 0.6930 0.6950 0.6970 0.6990 0.7000
10.057078 0.7000 0.6990 0.6990 0.7010 0.7020
10.087000 0.7040 0.7040 0.7040 0.7050 0.7050
10.117078 0.7060 0.7060 0.7070 0.7070 0.7070
10.148000 0.7070 0.7070 0.7070 0.7070 0.7070
10.178078 0.7100 0.7120 0.7140 0.7140 0.7160
10.208000 0.7190 0.7190 0.7190 0.7210 0.7210
10.238078 0.7210 0.7210 0.7210 0.7220 0.7210
10.268000 0.7230 0.7230 0.7230 0.7230 0.7230
10.298078 0.7230 0.7240 0.7240 0.7250 0.7280
10.328000 0.7280 0.7270 0.7270 0.7280 0.7280
10.358078 0.7290 0.7290 0.7290 0.7300 0.7300
10.388000 0.7300 0.7290 0.7300 0.7320 0.7320
10.418078 0.7330 0.7340 0.7350 0.7350 0.7360
10.448000 0.7360 0.7400 0.7400 0.7400 0.7400
10.478078 0.7400 0.7410 0.7420 0.7420 0.7450
10.508000 0.7450 0.7450 0.7460 0.7470 0.7500
10.538078 0.7500 0.7510 0.7510 0.7510 0.7530
10.568000 0.7530 0.7510 0.7510 0.7500 0.7500
10.598078 0.7510 0.7550 0.7550 0.7560 0.7560
10.629000 0.7560 0.7570 0.7580 0.7600 0.7610
10.659078 0.7610 0.7610 0.7610 0.7620 0.7630
10.689000 0.7630 0.7620 0.7610 0.7610 0.7620
10.719078 0.7620 0.7620 0.7620 0.7620 0.7620
10.749000 0.7630 0.7630 0.7630 0.7630 0.7620
10.779078 0.7620 0.7620 0.7620 0.7620 0.7620
10.809000 0.7610 0.7570 0.7520 0.7520 0.7560
10.839078 0.7610 0.7610 0.7570 0.7520 0.7510
10.869000 0.7500 0.7490 0.7410 0.7340 0.7270
10.899078 0.7230 0.7180 0.7170 0.7180 0.7210
10.929000 0.7220 0.7240 0.7280 0.7330 0.7380
10.959078 0.7420 0.7460 0.7510 0.7510 0.7520
10.989000 0.7550 0.7570 0.7570 0.7510 0.7510
11.019078 0.7490 0.7450 0.7440 0.7440 0.7450
11.049000 0.7450 0.7460 0.7460 0.7460 0.7460
11.079078 0.7510 0.7560 0.7560 0.7610 0.7630
11.110000 0.7660 0.7670 0.7670 0.7670 0.7680
11.140078 0.7710 0.7720 0.7730 0.7730 0.7730
11.170000 0.7730 0.7730 0.7730 0.7730 0.7730
11.200078 0.7740 0.7740 0.7750 0.7750 0.7740
11.230000 0.7740 0.7730 0.7730 0.7750 0.7750
11.260078 0.7750 0.7770 0.7770 0.7770 0.7780
11.290000 0.7780 0.7810 0.7810 0.7780 0.7790
11.320078 0.7790 0.7800 0.7830 0.7840 0.7850
11.350000 0.7850 0.7850 0.7850 0.7850 0.7880
11.380078 0.7900 0.7900 0.7890 0.7900 0.7900
11.410000 0.7900 0.7900 0.7900 0.7900 0.7910
11.440078 0.7910 0.7940 0.7950 0.7940 0.7910
11.470000 0.7910 0.7920 0.7920 0.7920 0.7940
11.500078 0.7950 0.7960 0.7960 0.7950 0.7950
11.531000 0.7950 0.7950 0.7990 0.8010 0.8010
11.561078 0.8020 0.8020 0.8020 0.8030 0.8030
11.591000 0.8020 0.8030 0.8060 0.8060 0.8060
11.621078 0.8060 0.8020 0.8070 0.8070 0.8020
11.651000 0.8010 0.8000 0.7950 0.7920 0.7910
11.681078 0.7860 0.7810 0.7770 0.7740 0.7730
11.711000 0.7720 0.7730 0.7750 0.7790 0.7830
11.741078 0.7830 0.7850 0.7860 0.7860 0.7880
11.771000 0.7900 0.7910 0.7910 0.7940 0.8000
11.801078 0.8020 0.8020 0.8030 0.8070 0.8070
11.831000 0.8020 0.8020 0.8020 0.8020 0.8060
11.861078 0.8080 0.8080 0.8070 0.8070 0.8070
11.891000 0.8070 0.8060 0.8060 0.8060 0.8070
11.921078 0.8110 0.8110 0.8110 0.8110 0.8080
11.951000 0.8060 0.8050 0.8030 0.8110 0.8020
11.981078 0.8060 0.8090 0.8090 0.8080 0.8060
12.012000 0.8050 0.8020 0.8120 0.8120 0.8060
12.042078 0.8000 0.7960 0.7950 0.7950 0.7950
12.072000 0.7940 0.7920 0.7920 0.7920 0.7890
12.102078 0.7830 0.7830 0.7770 0.7730 0.7690
12.132000 0.7670 0.7660 0.7640 0.7630 0.7630
12.162078 0.7620 0.7620 0.7620 0.7620 0.7620
12.192000 0.7630 0.7630 0.7630 0.7630 0.7630
12.222078 0.7640 0.7640 0.7660 0.7660 0.7660
12.252000 0.7670 0.7670 0.7690 0.7710 0.7720
12.282078 0.7730 0.7730 0.7750 0.7770 0.7770
12.312000 0.7780 0.7790 0.7790 0.7790 0.7800
12.342078 0.7800 0.7810 0.7810 0.7810 0.7830
12.372000 0.7830 0.7840 0.7850 0.7860 0.7880
12.402078 0.7880 0.7880 0.7880 0.7890 0.7900
12.432000 0.7910 0.7920 0.7920 0.7920 0.7920
12.462078 0.7920 0.7950 0.7970 0.7990 0.8000
12.493000 0.8010 0.8010 0.8010 0.8010 0.8010
12.523078 0.8010 0.8010 0.8020 0.8020 0.8030
12.553000 0.8050 0.8050 0.8060 0.8060 0.8020
12.583078 0.8020 0.8060 0.8090 0.8080 0.8080
12.613000 0.8070 0.8070 0.8070 0.8070 0.8070
12.643078 0.8080 0.8090 0.8090 0.8090 0.8090
12.673000 0.8090 0.8120 0.8120 0.8130 0.8120
12.703078 0.8080 0.8070 0.8060 0.8050 0.8050
12.733000 0.8050 0.8060 0.8060 0.8050 0.8020
12.763078 0.8020 0.8010 0.7970 0.7900 0.7830
12.793000 0.7710 0.7660 0.7600 0.7510 0.7410
12.823078 0.7190 0.7020 0.6970 0.6740 0.6500
12.853000 0.6380 0.6270 0.6120 0.6100 0.6100
12.883078 0.6120 0.6220 0.6350 0.6470 0.6620
12.914000 0.6730 0.6840 0.6950 0.7060 0.7120
12.944078 0.7190 0.7270 0.7330 0.7360 0.7400
12.974000 0.7410 0.7420 0.7400 0.7350 0.7320
13.004078 0.7290 0.7270 0.7230 0.7220 0.7220
13.034000 0.7230 0.7250 0.7330 0.7460 0.7600
13.064078 0.7630 0.7660 0.7720 0.7740 0.7790
13.094000 0.7840 0.7850 0.7880 0.7890 0.7900
13.124078 0.7910 0.7920 0.7960 0.8020 0.8020
13.154000 0.8030 0.8060 0.8070 0.8070 0.8070
13.184078 0.8090 0.8090 0.8090 0.8050 0.8050
13.214000 0.8070 0.8080 0.8110 0.8120 0.8120
13.244078 0.8130 0.8130 0.8160 0.8160 0.8170
13.274000 0.8190 0.8230 0.8300 0.8190 0.8190
13.304078 0.8190 0.8200 0.8200 0.8230 0.8230
13.334000 0.8220 0.8200 0.8190 0.8180 0.8190
13.364078 0.8200 0.8200 0.8220 0.8230 0.8230
13.395000 0.8220 0.8180 0.8130 0.8090 0.8010
13.425078 0.7850 0.7670 0.7620 0.7510 0.7400
13.455000 0.7190 0.6830 0.6550 0.6210 0.5880
13.485078 0.5620 0.5390 0.5200 0.5030 0.4980
13.515000 0.4920 0.4900 0.4900 0.4920 0.4960
13.545078 0.5160 0.5240 0.5350 0.5450 0.5560
13.575000 0.5680 0.5800 0.5930 0.6050 0.6170
13.605078 0.6270 0.6320 0.6350 0.6400 0.6490
13.635000 0.6560 0.6630 0.6710 0.6760 0.6790
13.665078 0.6800 0.6890 0.6960 0.7000 0.7020
13.695000 0.7080 0.7120 0.7160 0.7190 0.7190
13.725078 0.7230 0.7250 0.7280 0.7300 0.7340
13.755000 0.7380 0.7400 0.7410 0.7410 0.7450
13.785078 0.7490 0.7490 0.7560 0.7560 0.7560
13.815000 0.7560 0.7580 0.7580 0.7600 0.7600
13.845078 0.7600 0.7580 0.7580 0.7600 0.7600
13.876000 0.7620 0.7630 0.7630 0.7620 0.7620
13.906078 0.7610 0.7610 0.7600 0.7600 0.7570
13.936000 0.7530 0.7500 0.7500 0.7490 0.7420
13.966078 0.7410 0.7340 0.7290 0.7220 0.7140
13.996000 0.7070 0.7000 0.6910 0.6820 0.6720
14.026078 0.6620 0.6550 0.6320 0.6100 0.6000
14.056000 0.5850 0.5680 0.5490 0.5270 0.5050
14.086078 0.4930 0.4810 0.4560 0.4330 0.4100
14.116000 0.3890 0.3710 0.3540 0.3420 0.3320
14.146078 0.3150 0.2970 0.2800 0.2670 0.2640
14.176000 0.2570 0.2540 0.2530 0.2500 0.2500
14.206078 0.2490 0.2490 0.2570 0.2600 0.2630
14.236000 0.2700 0.2810 0.3020 0.3330 0.3450
14.266078 0.3550 0.3650 0.3830 0.3940 0.4060
14.296000 0.4200 0.4360 0.4490 0.4620 0.4720
14.326078 0.4780 0.4790 0.4880 0.4930 0.4980
14.357000 0.5030 0.5060 0.5100 0.5100 0.5110
14.387078 0.5110 0.5110 0.5110 0.5100 0.5090
14.417000 0.5090 0.5100 0.5140 0.5230 0.5310
14.447078 0.5350 0.5440 0.5510 0.5570 0.5650
14.477000 0.5720 0.5790 0.5890 0.6010 0.6150
14.507078 0.6220 0.6290 0.6350 0.6430 0.6490
14.537000 0.6550 0.6610 0.6670 0.6710 0.6730
14.567078 0.6780 0.6860 0.6880 0.6900 0.6930
14.597000 0.6960 0.6990 0.7010 0.7020 0.7060
14.627078 0.7070 0.7070 0.7110 0.7140 0.7170
14.657000 0.7180 0.7180 0.7190 0.7190 0.7210
14.687078 0.7220 0.7230 0.7240 0.7240 0.7250
14.717000 0.7270 0.7280 0.7290 0.7300 0.7320
14.747078 0.7330 0.7340 0.7340 0.7360 0.7390
14.778000 0.7390 0.7400 0.7400 0.7410 0.7410
14.808078 0.7440 0.7440 0.7450 0.7450 0.7450
14.838000 0.7450 0.7460 0.7460 0.7470 0.7470
14.868078 0.7490 0.7490 0.7460 0.7420 0.7410
14.898000 0.7390 0.7390 0.7380 0.7360 0.7350
14.928078 0.7350 0.7340 0.7330 0.7330 0.7340
14.958000 0.7340 0.7360 0.7360 0.7390 0.7410
14.988078 0.7450 0.7460 0.7490 0.7500 0.7500
15.018000 0.7500 0.7500 0.7500 0.7500 0.7500
15.048078 0.7500 0.7510 0.7510 0.7510 0.7520
15.078000 0.7520 0.7530 0.7550 0.7570 0.7580
15.108078 0.7580 0.7570 0.7560 0.7550 0.7550
15.138000 0.7530 0.7530 0.7550 0.7550 0.7560
15.168078 0.7570 0.7580 0.7580 0.7600 0.7600
15.198000 0.7610 0.7610 0.7610 0.7610 0.7610
15.228078 0.7610 0.7620 0.7620 0.7620 0.7620
15.259000 0.7620 0.7620 0.7620 0.7620 0.7620
15.289078 0.7620 0.7630 0.7630 0.7630 0.7630
15.319000 0.7630 0.7630 0.7630 0.7610 0.7610
15.349078 0.7610 0.7620 0.7620 0.7630 0.7620
15.379000 0.7620 0.7610 0.7630 0.7620 0.7620
##END=
