##TITLE=N-(3-HYDROXY-1-PROPENYL) TRIMETHYLAMMONIUM PERCHLORATE
##JCAMP-DX=4.24
##DATA TYPE=INFRARED SPECTRUM
##CLASS=COBLENTZ
##ORIGIN=EASTMAN KODAK COMPANY, RESEARCH LABORATORIES, ROCHESTER, N.Y.
##OWNER=COBLENTZ SOCIETY
Collection (C) 2018 copyright by the U.S. Secretary of Commerce
on behalf of the United States of America. All rights reserved.
##DATE=Not specified, most likely prior to 1970
##NAMES=perchloric acid compound with (2E)-3-(trimethyl-.lambda.<5>-azanyl)-2-propen-1-ol (1:1)
##MOLFORM=C6 H14 Cl N O5
##MP=181.5-183.5 C
##SOURCE REFERENCE=COBLENTZ NO. 4441
##$NIST ID=B6004441
##$NIST SOURCE=COBLENTZ
##$NIST IMAGE=cob4441
##SPECTROMETER/DATA SYSTEM=Not specified, most likely a prism, grating, or hybrid spectrometer.
##STATE=SOLID (KBr PELLET)
##PATH LENGTH=
$$ SEE J. ORG. CHEM., VOL. 29, PAGE 1862 (1964)
##SAMPLING PROCEDURE=TRANSMISSION
##RESOLUTION=4
##DATA PROCESSING=DIGITIZED BY NIST FROM HARD COPY
##XUNITS=MICROMETERS
##YUNITS=TRANSMITTANCE
##XFACTOR=1.000000
##YFACTOR=1
##DELTAX=000.006645
##FIRSTX=2.007
##LASTX=15.9932
##FIRSTY=0.666
##MAXX=15.9932
##MINX=2.007
##MAXY=0.945
##MINY=0.013
##NPOINTS=2106
##XYDATA=(X++(Y..Y))
2.007000 0.6660 0.6640 0.6620 0.6620 0.6620
2.040238 0.6610 0.6610 0.6610 0.6610 0.6610
2.073000 0.6590 0.6590 0.6590 0.6590 0.6590
2.106238 0.6590 0.6570 0.6570 0.6560 0.6520
2.140000 0.6510 0.6490 0.6490 0.6410 0.6390
2.173238 0.6310 0.6250 0.6210 0.6150 0.6080
2.206000 0.6050 0.6010 0.6010 0.6000 0.6000
2.239238 0.6000 0.6010 0.6050 0.6110 0.6130
2.272000 0.6210 0.6230 0.6250 0.6280 0.6280
2.305238 0.6280 0.6280 0.6280 0.6280 0.6280
2.339000 0.6290 0.6310 0.6380 0.6390 0.6410
2.372238 0.6410 0.6410 0.6410 0.6410 0.6430
2.405000 0.6430 0.6440 0.6480 0.6490 0.6490
2.438238 0.6490 0.6490 0.6490 0.6490 0.6490
2.472000 0.6490 0.6490 0.6490 0.6490 0.6490
2.505238 0.6490 0.6480 0.6480 0.6490 0.6490
2.538000 0.6490 0.6510 0.6520 0.6540 0.6590
2.571238 0.6610 0.6610 0.6620 0.6640 0.6640
2.605000 0.6640 0.6640 0.6640 0.6640 0.6660
2.638238 0.6660 0.6660 0.6660 0.6660 0.6660
2.671000 0.6670 0.6670 0.6670 0.6670 0.6670
2.704238 0.6670 0.6660 0.6640 0.6610 0.6590
2.738000 0.6510 0.6490 0.6410 0.6260 0.6180
2.771238 0.6050 0.5950 0.5700 0.5590 0.5210
2.804000 0.4530 0.4250 0.3960 0.3650 0.3200
2.837238 0.2860 0.2530 0.2400 0.2350 0.2350
2.870000 0.2400 0.2430 0.2480 0.2510 0.2660
2.903238 0.2690 0.2690 0.2630 0.2590 0.2500
2.937000 0.2300 0.2030 0.1820 0.1520 0.1290
2.970238 0.1060 0.0850 0.0500 0.0240 0.0240
3.003000 0.0420 0.0920 0.1180 0.1410 0.1620
3.036238 0.1800 0.1970 0.2200 0.2530 0.2910
3.070000 0.3140 0.3400 0.3660 0.3910 0.4120
3.103238 0.4350 0.4520 0.4800 0.4960 0.5060
3.136000 0.5180 0.5230 0.5260 0.5290 0.5290
3.169238 0.5290 0.5310 0.5320 0.5390 0.5470
3.203000 0.5570 0.5590 0.5590 0.5550 0.5500
3.236238 0.5410 0.5310 0.5130 0.4880 0.4500
3.269000 0.4290 0.4290 0.4390 0.4700 0.4910
3.302238 0.4910 0.4600 0.4570 0.4040 0.3780
3.336000 0.3780 0.4290 0.4800 0.5130 0.5310
3.369238 0.5410 0.5390 0.5310 0.5160 0.5010
3.402000 0.4950 0.4910 0.4930 0.5000 0.5040
3.435238 0.5080 0.5090 0.5030 0.4980 0.4930
3.468000 0.4930 0.4960 0.5010 0.5130 0.5310
3.501238 0.5550 0.5720 0.5900 0.6000 0.6000
3.535000 0.5920 0.5770 0.5490 0.5460 0.5490
3.568238 0.5750 0.5970 0.6080 0.6330 0.6520
3.601000 0.6620 0.6670 0.6710 0.6710 0.6740
3.634238 0.6750 0.6800 0.6820 0.6840 0.6890
3.668000 0.6890 0.6900 0.6900 0.6890 0.6870
3.701238 0.6840 0.6820 0.6770 0.6710 0.6620
3.734000 0.6610 0.6620 0.6720 0.6840 0.6940
3.767238 0.7020 0.7030 0.7080 0.7100 0.7130
3.801000 0.7200 0.7260 0.7300 0.7300 0.7310
3.834238 0.7330 0.7350 0.7350 0.7350 0.7330
3.867000 0.7330 0.7330 0.7330 0.7330 0.7330
3.900238 0.7330 0.7330 0.7330 0.7330 0.7330
3.934000 0.7310 0.7310 0.7310 0.7300 0.7260
3.967238 0.7220 0.7180 0.7180 0.7230 0.7310
4.000000 0.7380 0.7450 0.7510 0.7530 0.7560
4.033238 0.7590 0.7590 0.7630 0.7690 0.7710
4.066000 0.7710 0.7710 0.7730 0.7740 0.7790
4.099238 0.7810 0.7820 0.7860 0.7890 0.7940
4.133000 0.7960 0.7990 0.8000 0.8020 0.8020
4.166238 0.8020 0.8020 0.8020 0.8020 0.8020
4.199000 0.8020 0.8040 0.8040 0.8050 0.8050
4.232238 0.8090 0.8090 0.8100 0.8100 0.8100
4.266000 0.8100 0.8100 0.8100 0.8100 0.8100
4.299238 0.8100 0.8100 0.8100 0.8100 0.8120
4.332000 0.8120 0.8140 0.8140 0.8140 0.8140
4.365238 0.8140 0.8140 0.8140 0.8120 0.8120
4.399000 0.8120 0.8120 0.8120 0.8100 0.8090
4.432238 0.8090 0.8050 0.8040 0.8000 0.8000
4.465000 0.8000 0.8000 0.8000 0.8000 0.8000
4.498238 0.8000 0.7990 0.7970 0.7960 0.7910
4.532000 0.7860 0.7840 0.7820 0.7820 0.7840
4.565238 0.7910 0.7970 0.8020 0.8050 0.8090
4.598000 0.8100 0.8100 0.8100 0.8100 0.8100
4.631238 0.8120 0.8120 0.8140 0.8140 0.8140
4.664000 0.8140 0.8140 0.8140 0.8140 0.8140
4.697238 0.8140 0.8140 0.8120 0.8120 0.8100
4.731000 0.8070 0.8040 0.8040 0.8020 0.8000
4.764238 0.7920 0.7910 0.7870 0.7840 0.7770
4.797000 0.7710 0.7690 0.7610 0.7590 0.7540
4.830238 0.7510 0.7450 0.7400 0.7310 0.7300
4.864000 0.7300 0.7300 0.7300 0.7300 0.7300
4.897238 0.7280 0.7220 0.7170 0.7120 0.7100
4.930000 0.7050 0.7030 0.7020 0.7000 0.7000
4.963238 0.7020 0.7120 0.7170 0.7330 0.7450
4.997000 0.7560 0.7690 0.7770 0.7810 0.7840
5.030238 0.7910 0.7990 0.8020 0.8100 0.8120
5.063000 0.8150 0.8200 0.8200 0.8220 0.8250
5.096238 0.8270 0.8270 0.8300 0.8300 0.8300
5.130000 0.8320 0.8320 0.8320 0.8320 0.8320
5.163238 0.8320 0.8320 0.8320 0.8300 0.8280
5.196000 0.8250 0.8240 0.8240 0.8240 0.8240
5.229238 0.8240 0.8240 0.8240 0.8240 0.8240
5.262000 0.8240 0.8240 0.8240 0.8240 0.8240
5.295238 0.8240 0.8240 0.8240 0.8240 0.8240
5.329000 0.8220 0.8200 0.8150 0.8140 0.8140
5.362238 0.8150 0.8200 0.8200 0.8200 0.8220
5.395000 0.8240 0.8220 0.8220 0.8200 0.8190
5.428238 0.8190 0.8190 0.8190 0.8170 0.8140
5.462000 0.8100 0.8100 0.8090 0.8050 0.8040
5.495238 0.8040 0.8040 0.8040 0.8040 0.8050
5.528000 0.8050 0.8050 0.8090 0.8100 0.8100
5.561238 0.8100 0.8100 0.8100 0.8100 0.8120
5.595000 0.8140 0.8140 0.8140 0.8120 0.8120
5.628238 0.8100 0.8040 0.8020 0.7990 0.7920
5.661000 0.7870 0.7820 0.7760 0.7730 0.7710
5.694238 0.7710 0.7710 0.7690 0.7690 0.7690
5.728000 0.7710 0.7710 0.7710 0.7690 0.7690
5.761238 0.7710 0.7740 0.7870 0.7960 0.8040
5.794000 0.8050 0.8040 0.8020 0.7990 0.7990
5.827238 0.8020 0.8040 0.8050 0.8050 0.8050
5.860000 0.8050 0.8040 0.8020 0.8020 0.8020
5.893238 0.8000 0.8000 0.7970 0.7820 0.7730
5.927000 0.7610 0.7510 0.7430 0.7400 0.7410
5.960238 0.7480 0.7540 0.7580 0.7710 0.7790
5.993000 0.7810 0.7860 0.7940 0.7990 0.7990
6.026238 0.7960 0.7920 0.7910 0.7860 0.7820
6.060000 0.7810 0.7730 0.7730 0.7710 0.7710
6.093238 0.7610 0.7580 0.7580 0.7580 0.7590
6.126000 0.7590 0.7590 0.7590 0.7590 0.7610
6.159238 0.7610 0.7610 0.7630 0.7630 0.7660
6.193000 0.7730 0.7790 0.7860 0.7860 0.7870
6.226238 0.7890 0.7910 0.7920 0.7940 0.7970
6.259000 0.7990 0.8000 0.8000 0.8000 0.8020
6.292238 0.8020 0.8020 0.8040 0.8040 0.8040
6.326000 0.8040 0.8020 0.7970 0.7960 0.7960
6.359238 0.7960 0.7940 0.7940 0.7940 0.7940
6.392000 0.7960 0.7960 0.7960 0.7960 0.7920
6.425238 0.7920 0.7920 0.7920 0.7920 0.7920
6.458000 0.7910 0.7870 0.7820 0.7810 0.7740
6.491238 0.7740 0.7730 0.7710 0.7710 0.7690
6.525000 0.7680 0.7640 0.7630 0.7610 0.7560
6.558238 0.7530 0.7510 0.7450 0.7430 0.7350
6.591000 0.7250 0.7220 0.7150 0.7120 0.7020
6.624238 0.6840 0.6660 0.6430 0.6150 0.5920
6.658000 0.5570 0.5130 0.4520 0.3910 0.3270
6.691238 0.2920 0.2610 0.2430 0.2430 0.2740
6.724000 0.3140 0.3140 0.3020 0.2530 0.2050
6.757238 0.1620 0.1410 0.1330 0.1290 0.1290
6.791000 0.1410 0.1620 0.1920 0.2220 0.2730
6.824238 0.3320 0.4010 0.4320 0.4500 0.4500
6.857000 0.4600 0.4720 0.4930 0.5110 0.5290
6.890238 0.5290 0.5210 0.4900 0.3750 0.3070
6.924000 0.2630 0.2130 0.2130 0.2530 0.2870
6.957238 0.3380 0.3860 0.4210 0.4370 0.4620
6.990000 0.4910 0.5230 0.5550 0.5850 0.5950
7.023238 0.6010 0.6030 0.6100 0.6150 0.6230
7.056000 0.6330 0.6510 0.6720 0.6870 0.6870
7.089238 0.6740 0.6540 0.6440 0.6430 0.6440
7.123000 0.6490 0.6510 0.6510 0.6330 0.5310
7.156238 0.5210 0.4980 0.4730 0.4730 0.5550
7.189000 0.6540 0.6920 0.7690 0.7690 0.7640
7.222238 0.7630 0.7660 0.7690 0.7730 0.7790
7.256000 0.7810 0.7810 0.7820 0.7840 0.7840
7.289238 0.7820 0.7840 0.7840 0.7890 0.7890
7.322000 0.7860 0.7860 0.7840 0.7820 0.7790
7.355238 0.7740 0.7710 0.7710 0.7710 0.7690
7.389000 0.7680 0.7660 0.7630 0.7630 0.7590
7.422238 0.7590 0.7530 0.7500 0.7430 0.7410
7.455000 0.7350 0.7230 0.7150 0.7050 0.6900
7.488238 0.6710 0.6390 0.6060 0.5720 0.5590
7.522000 0.5590 0.5820 0.6200 0.6520 0.6840
7.555238 0.7030 0.7130 0.7180 0.7180 0.7150
7.588000 0.7100 0.7030 0.6940 0.6840 0.6720
7.621238 0.6610 0.6410 0.6210 0.5970 0.5720
7.654000 0.5590 0.5520 0.5600 0.5740 0.5900
7.687238 0.6010 0.6100 0.6100 0.6030 0.5920
7.721000 0.5720 0.5470 0.5110 0.4630 0.4340
7.754238 0.4120 0.4110 0.4120 0.4270 0.4450
7.787000 0.4580 0.4720 0.4810 0.4900 0.4900
7.820238 0.4910 0.4910 0.4900 0.4810 0.4680
7.854000 0.4470 0.4210 0.3860 0.3610 0.3530
7.887238 0.3530 0.3610 0.3790 0.4020 0.4300
7.920000 0.4600 0.4810 0.5010 0.5130 0.5190
7.953238 0.5240 0.5240 0.5210 0.5160 0.5130
7.987000 0.5110 0.5130 0.5160 0.5230 0.5290
8.020238 0.5340 0.5420 0.5500 0.5540 0.5600
8.053000 0.5620 0.5640 0.5650 0.5700 0.5750
8.086238 0.5800 0.5820 0.5850 0.5870 0.5900
8.120000 0.5870 0.5830 0.5800 0.5740 0.5640
8.153238 0.5540 0.5440 0.5310 0.5210 0.5140
8.186000 0.5130 0.5080 0.5060 0.5040 0.5040
8.219238 0.5040 0.5040 0.5040 0.5030 0.5030
8.252000 0.5030 0.5010 0.5000 0.4930 0.4900
8.285238 0.4810 0.4800 0.4720 0.4700 0.4620
8.319000 0.4550 0.4500 0.4400 0.4320 0.4240
8.352238 0.4140 0.4040 0.4010 0.3910 0.3880
8.385000 0.3750 0.3580 0.3400 0.3250 0.3170
8.418238 0.3020 0.2910 0.2730 0.2610 0.2430
8.452000 0.2310 0.2130 0.2000 0.1840 0.1740
8.485238 0.1640 0.1610 0.1520 0.1510 0.1510
8.518000 0.1440 0.1410 0.1340 0.1290 0.1160
8.551238 0.1030 0.0930 0.0820 0.0720 0.0670
8.585000 0.0600 0.0540 0.0420 0.0360 0.0340
8.618238 0.0310 0.0310 0.0240 0.0230 0.0210
8.651000 0.0210 0.0180 0.0180 0.0160 0.0140
8.684238 0.0140 0.0140 0.0140 0.0140 0.0140
8.718000 0.0140 0.0140 0.0140 0.0140 0.0140
8.751238 0.0140 0.0140 0.0140 0.0140 0.0160
8.784000 0.0180 0.0180 0.0180 0.0180 0.0180
8.817238 0.0180 0.0180 0.0180 0.0180 0.0180
8.850000 0.0180 0.0180 0.0180 0.0180 0.0180
8.883238 0.0180 0.0180 0.0180 0.0180 0.0180
8.917000 0.0180 0.0180 0.0180 0.0180 0.0180
8.950238 0.0180 0.0160 0.0160 0.0160 0.0160
8.983000 0.0160 0.0160 0.0160 0.0160 0.0160
9.016238 0.0140 0.0140 0.0140 0.0140 0.0140
9.050000 0.0140 0.0140 0.0140 0.0140 0.0140
9.083238 0.0140 0.0140 0.0140 0.0140 0.0140
9.116000 0.0140 0.0140 0.0130 0.0130 0.0130
9.149238 0.0130 0.0130 0.0130 0.0130 0.0130
9.183000 0.0130 0.0130 0.0160 0.0160 0.0140
9.216238 0.0140 0.0140 0.0140 0.0140 0.0140
9.249000 0.0140 0.0140 0.0140 0.0140 0.0140
9.282238 0.0160 0.0180 0.0180 0.0180 0.0160
9.316000 0.0160 0.0180 0.0180 0.0180 0.0190
9.349238 0.0210 0.0210 0.0230 0.0230 0.0230
9.382000 0.0240 0.0310 0.0370 0.0470 0.0570
9.415238 0.0620 0.0720 0.0750 0.0830 0.0950
9.449000 0.1050 0.1210 0.1310 0.1430 0.1540
9.482238 0.1640 0.1740 0.1800 0.1900 0.1940
9.515000 0.2030 0.2120 0.2170 0.2250 0.2330
9.548238 0.2430 0.2530 0.2610 0.2710 0.2740
9.581000 0.2790 0.2910 0.3000 0.3050 0.3120
9.614238 0.3140 0.3220 0.3320 0.3350 0.3420
9.648000 0.3470 0.3530 0.3610 0.3630 0.3650
9.681238 0.3680 0.3700 0.3700 0.3680 0.3630
9.714000 0.3610 0.3580 0.3580 0.3560 0.3580
9.747238 0.3630 0.3730 0.3860 0.4010 0.4120
9.781000 0.4190 0.4350 0.4490 0.4580 0.4670
9.814238 0.4700 0.4720 0.4750 0.4810 0.4830
9.847000 0.4910 0.5010 0.5110 0.5140 0.5210
9.880238 0.5240 0.5260 0.5310 0.5310 0.5320
9.914000 0.5340 0.5320 0.5310 0.5230 0.5130
9.947238 0.5010 0.4780 0.4520 0.4250 0.3930
9.980000 0.3560 0.3100 0.2510 0.1920 0.1460
10.013238 0.1030 0.0920 0.0820 0.0820 0.0850
10.047000 0.1050 0.1280 0.1520 0.1750 0.2070
10.080238 0.2330 0.2590 0.2840 0.3090 0.3330
10.113000 0.3580 0.3810 0.4010 0.4190 0.4320
10.146238 0.4490 0.4620 0.4750 0.4910 0.5030
10.179000 0.5080 0.5140 0.5260 0.5390 0.5460
10.212238 0.5500 0.5520 0.5540 0.5570 0.5570
10.246000 0.5550 0.5540 0.5520 0.5490 0.5460
10.279238 0.5360 0.5260 0.5140 0.4980 0.4780
10.312000 0.4550 0.4390 0.4120 0.3830 0.3550
10.345238 0.3240 0.2840 0.2480 0.2000 0.1670
10.379000 0.1290 0.1130 0.0800 0.0490 0.0410
10.412238 0.0320 0.0310 0.0310 0.0290 0.0270
10.445000 0.0270 0.0270 0.0290 0.0290 0.0310
10.478238 0.0310 0.0320 0.0340 0.0360 0.0420
10.512000 0.0420 0.0500 0.0540 0.0650 0.0820
10.545238 0.0950 0.1080 0.1330 0.1540 0.1820
10.578000 0.2080 0.2230 0.2610 0.3000 0.3280
10.611238 0.3530 0.3650 0.3780 0.3840 0.3910
10.645000 0.3840 0.3810 0.3710 0.3650 0.3650
10.678238 0.3860 0.4220 0.4650 0.5030 0.5320
10.711000 0.5540 0.5650 0.5750 0.5830 0.5930
10.744238 0.6030 0.6130 0.6230 0.6330 0.6360
10.777000 0.6430 0.6460 0.6520 0.6520 0.6510
10.810238 0.6510 0.6460 0.6430 0.6360 0.6310
10.844000 0.6230 0.6160 0.6110 0.6050 0.5950
10.877238 0.5870 0.5800 0.5640 0.5440 0.5230
10.910000 0.4880 0.4440 0.4120 0.3750 0.3330
10.943238 0.2990 0.2580 0.2330 0.2080 0.2000
10.977000 0.1850 0.1840 0.1870 0.2250 0.2540
11.010238 0.2870 0.3240 0.3530 0.3930 0.4290
11.043000 0.4630 0.4980 0.5230 0.5490 0.5720
11.076238 0.5980 0.6150 0.6390 0.6560 0.6720
11.110000 0.6850 0.7020 0.7120 0.7220 0.7310
11.143238 0.7410 0.7460 0.7540 0.7610 0.7660
11.176000 0.7730 0.7740 0.7810 0.7920 0.7970
11.209238 0.8000 0.8020 0.8040 0.8050 0.8120
11.243000 0.8150 0.8220 0.8270 0.8320 0.8330
11.276238 0.8350 0.8380 0.8420 0.8430 0.8510
11.309000 0.8530 0.8550 0.8580 0.8610 0.8610
11.342238 0.8650 0.8680 0.8700 0.8700 0.8700
11.375000 0.8710 0.8710 0.8710 0.8730 0.8760
11.408238 0.8780 0.8790 0.8790 0.8810 0.8810
11.442000 0.8810 0.8830 0.8830 0.8830 0.8840
11.475238 0.8890 0.8890 0.8910 0.8930 0.8940
11.508000 0.8940 0.8980 0.8990 0.9010 0.9010
11.541238 0.9020 0.9020 0.9020 0.9020 0.9020
11.575000 0.9020 0.9020 0.9060 0.9060 0.9070
11.608238 0.9070 0.9090 0.9090 0.9110 0.9090
11.641000 0.9090 0.9110 0.9110 0.9140 0.9160
11.674238 0.9190 0.9190 0.9190 0.9190 0.9210
11.708000 0.9210 0.9220 0.9220 0.9220 0.9220
11.741238 0.9240 0.9250 0.9290 0.9290 0.9300
11.774000 0.9300 0.9300 0.9300 0.9300 0.9320
11.807238 0.9340 0.9340 0.9340 0.9350 0.9370
11.841000 0.9370 0.9390 0.9390 0.9370 0.9370
11.874238 0.9350 0.9350 0.9350 0.9350 0.9350
11.907000 0.9350 0.9370 0.9390 0.9390 0.9400
11.940238 0.9400 0.9400 0.9370 0.9350 0.9340
11.973000 0.9340 0.9340 0.9350 0.9370 0.9370
12.006238 0.9390 0.9400 0.9400 0.9400 0.9400
12.040000 0.9400 0.9400 0.9370 0.9350 0.9340
12.073238 0.9340 0.9340 0.9340 0.9340 0.9340
12.106000 0.9340 0.9350 0.9350 0.9340 0.9340
12.139238 0.9340 0.9340 0.9340 0.9340 0.9340
12.173000 0.9320 0.9320 0.9320 0.9320 0.9320
12.206238 0.9320 0.9300 0.9300 0.9300 0.9300
12.239000 0.9290 0.9270 0.9240 0.9240 0.9240
12.272238 0.9240 0.9220 0.9220 0.9210 0.9190
12.306000 0.9140 0.9120 0.9110 0.9090 0.9060
12.339238 0.9040 0.9020 0.9010 0.8980 0.8930
12.372000 0.8890 0.8810 0.8760 0.8700 0.8610
12.405238 0.8480 0.8350 0.8220 0.8120 0.8020
12.439000 0.7840 0.7710 0.7480 0.7260 0.6970
12.472238 0.6710 0.6410 0.6110 0.5900 0.5670
12.505000 0.5500 0.5410 0.5310 0.5260 0.5240
12.538238 0.5240 0.5230 0.5210 0.5140 0.5030
12.571000 0.4810 0.4630 0.4420 0.4340 0.4210
12.604238 0.4010 0.3990 0.4010 0.4120 0.4470
12.638000 0.4720 0.5000 0.5290 0.5590 0.5880
12.671238 0.6160 0.6440 0.6690 0.6900 0.7070
12.704000 0.7230 0.7380 0.7530 0.7690 0.7840
12.737238 0.7990 0.8070 0.8200 0.8270 0.8320
12.771000 0.8400 0.8420 0.8450 0.8500 0.8500
12.804238 0.8600 0.8650 0.8660 0.8680 0.8700
12.837000 0.8710 0.8750 0.8790 0.8810 0.8830
12.870238 0.8840 0.8840 0.8840 0.8840 0.8840
12.904000 0.8840 0.8860 0.8880 0.8890 0.8910
12.937238 0.8940 0.9010 0.9020 0.9040 0.9110
12.970000 0.9110 0.9140 0.9140 0.9190 0.9190
13.003238 0.9220 0.9240 0.9240 0.9250 0.9270
13.037000 0.9270 0.9300 0.9300 0.9300 0.9320
13.070238 0.9320 0.9340 0.9340 0.9340 0.9340
13.103000 0.9340 0.9340 0.9340 0.9340 0.9340
13.136238 0.9340 0.9340 0.9340 0.9340 0.9340
13.169000 0.9340 0.9350 0.9350 0.9370 0.9390
13.202238 0.9390 0.9400 0.9400 0.9400 0.9400
13.236000 0.9400 0.9420 0.9420 0.9420 0.9440
13.269238 0.9440 0.9440 0.9440 0.9440 0.9440
13.302000 0.9440 0.9420 0.9420 0.9400 0.9400
13.335238 0.9400 0.9420 0.9420 0.9420 0.9420
13.369000 0.9440 0.9440 0.9440 0.9440 0.9440
13.402238 0.9440 0.9440 0.9420 0.9420 0.9420
13.435000 0.9420 0.9420 0.9420 0.9420 0.9420
13.468238 0.9420 0.9440 0.9440 0.9450 0.9450
13.502000 0.9450 0.9450 0.9440 0.9440 0.9440
13.535238 0.9440 0.9420 0.9420 0.9390 0.9390
13.568000 0.9350 0.9350 0.9340 0.9340 0.9350
13.601238 0.9390 0.9390 0.9400 0.9400 0.9400
13.635000 0.9400 0.9400 0.9390 0.9370 0.9350
13.668238 0.9340 0.9340 0.9320 0.9320 0.9320
13.701000 0.9320 0.9320 0.9320 0.9320 0.9340
13.734238 0.9340 0.9340 0.9340 0.9340 0.9320
13.767000 0.9320 0.9320 0.9300 0.9300 0.9300
13.800238 0.9300 0.9300 0.9300 0.9300 0.9320
13.834000 0.9320 0.9320 0.9320 0.9320 0.9340
13.867238 0.9320 0.9320 0.9320 0.9320 0.9320
13.900000 0.9320 0.9320 0.9320 0.9320 0.9340
13.933238 0.9340 0.9340 0.9340 0.9340 0.9340
13.967000 0.9340 0.9320 0.9320 0.9320 0.9320
14.000238 0.9290 0.9290 0.9270 0.9270 0.9270
14.033000 0.9250 0.9240 0.9220 0.9220 0.9220
14.066238 0.9210 0.9210 0.9210 0.9210 0.9210
14.100000 0.9210 0.9210 0.9210 0.9210 0.9210
14.133238 0.9170 0.9120 0.9110 0.9110 0.9040
14.166000 0.9040 0.9020 0.9020 0.9010 0.9010
14.199238 0.9010 0.9010 0.8990 0.8990 0.8990
14.233000 0.8990 0.8980 0.8980 0.8960 0.8930
14.266238 0.8910 0.8910 0.8860 0.8840 0.8840
14.299000 0.8840 0.8840 0.8840 0.8840 0.8840
14.332238 0.8840 0.8840 0.8860 0.8880 0.8890
14.365000 0.8910 0.8910 0.8910 0.8910 0.8910
14.398238 0.8910 0.8910 0.8910 0.8910 0.8910
14.432000 0.8910 0.8910 0.8910 0.8930 0.8930
14.465238 0.8930 0.8930 0.8930 0.8930 0.8910
14.498000 0.8910 0.8910 0.8910 0.8890 0.8890
14.531238 0.8880 0.8840 0.8840 0.8840 0.8840
14.565000 0.8840 0.8840 0.8840 0.8860 0.8860
14.598238 0.8860 0.8840 0.8840 0.8840 0.8830
14.631000 0.8810 0.8810 0.8760 0.8750 0.8750
14.664238 0.8750 0.8730 0.8730 0.8730 0.8730
14.698000 0.8730 0.8730 0.8730 0.8730 0.8710
14.731238 0.8710 0.8700 0.8680 0.8680 0.8650
14.764000 0.8630 0.8580 0.8430 0.8330 0.8300
14.797238 0.8300 0.8280 0.8270 0.8250 0.8250
14.831000 0.8250 0.8250 0.8250 0.8250 0.8250
14.864238 0.8240 0.8220 0.8170 0.8120 0.8040
14.897000 0.8020 0.7970 0.7920 0.7820 0.7770
14.930238 0.7730 0.7680 0.7680 0.7710 0.7740
14.963000 0.7760 0.7790 0.7820 0.7870 0.7940
14.996238 0.7970 0.8020 0.8040 0.8040 0.8050
15.030000 0.8050 0.8050 0.8040 0.8040 0.8020
15.063238 0.8000 0.7990 0.7970 0.7960 0.7940
15.096000 0.7920 0.7910 0.7890 0.7870 0.7820
15.129238 0.7790 0.7770 0.7760 0.7740 0.7730
15.163000 0.7710 0.7690 0.7640 0.7630 0.7590
15.196238 0.7580 0.7560 0.7530 0.7450 0.7430
15.229000 0.7410 0.7410 0.7400 0.7400 0.7380
15.262238 0.7360 0.7360 0.7350 0.7350 0.7350
15.296000 0.7330 0.7330 0.7310 0.7310 0.7250
15.329238 0.7230 0.7220 0.7220 0.7170 0.7130
15.362000 0.7120 0.7120 0.7100 0.7080 0.7070
15.395238 0.7050 0.7020 0.7000 0.6990 0.6940
15.429000 0.6920 0.6870 0.6850 0.6840 0.6840
15.462238 0.6820 0.6820 0.6770 0.6750 0.6740
15.495000 0.6720 0.6660 0.6640 0.6620 0.6610
15.528238 0.6540 0.6520 0.6460 0.6430 0.6360
15.561000 0.6310 0.6230 0.6200 0.6150 0.6100
15.594238 0.6080 0.6050 0.6000 0.5900 0.5830
15.628000 0.5820 0.5740 0.5650 0.5620 0.5540
15.661238 0.5520 0.5520 0.5460 0.5420 0.5340
15.694000 0.5310 0.5230 0.5210 0.5210 0.5190
15.727238 0.5180 0.5140 0.5110 0.5110 0.5060
15.761000 0.5060 0.5040 0.5040 0.5040 0.5060
15.794238 0.5080 0.5080 0.5090 0.5090 0.5130
15.827000 0.5130 0.5140 0.5140 0.5160 0.5160
15.860238 0.5180 0.5190 0.5210 0.5210 0.5210
15.894000 0.5210 0.5210 0.5210 0.5210 0.5210
15.927238 0.5210 0.5210 0.5210 0.5190 0.5190
15.960000 0.5190 0.5180 0.5180 0.5160 0.5140
15.993238 0.5140
##END=
