##TITLE=PROPIONITRILE, 3-AMINO-, FUMARATE
##JCAMP-DX=4.24
##DATA TYPE=INFRARED SPECTRUM
##CLASS=COBLENTZ III
##ORIGIN=DOW CHEMICAL COMPANY
##OWNER=COBLENTZ SOC.
Collection (C) 2018 copyright by the U.S. Secretary of Commerce
on behalf of the United States of America. All rights reserved.
##DATE=1967/07/05
##MOLFORM=C10 H16 N4 O4
##SOURCE REFERENCE=COBLENTZ NO. 07237
##$NIST ID=B6007237
##$NIST SOURCE=COBLENTZ
##$NIST IMAGE=cob7237
##SPECTROMETER/DATA SYSTEM=DOW KBr FOREPRISM-GRATING
##INSTRUMENT PARAMETERS=BLAZED AT 3.5, 12.0, 20.0 MICRON AND CHANGED AT 5.0, 7.5, 14.9 MICRON
##STATE=SOLID (SPLIT MULL), FLUOROLUBE FOR 3800-1330 CM^-^1, NUJOL FOR 1330-400 CM^-^1
$$ SEE SPECTRUM NO. 5341 FOR "PRISM" SPECTRUM
##SAMPLING PROCEDURE=TRANSMISSION
##RESOLUTION=2
##DATA PROCESSING=DIGITIZED BY COBLENTZ SOCIETY (BATCH I) FROM HARD COPY
##XUNITS=1/CM
##YUNITS=TRANSMITTANCE
##XLABEL=Wavenumbers (cm-1)
##YLABEL=% Transmission
##XFACTOR=1
##YFACTOR=1
##DELTAX=1
##FIRSTX=385
##LASTX=3800
##FIRSTY=0.5593
##MAXX=3800
##MINX=385
##MAXY=0.9425
##MINY=0.0726
##NPOINTS=3416
##XYDATA=(X++(Y..Y))
385.000000 0.5593 0.5604 0.5615 0.5627 0.5649
390.000000 0.5675 0.5734 0.5828 0.5923 0.6024
395.000000 0.6132 0.6224 0.6300 0.6377 0.6453
400.000000 0.6526 0.6601 0.6675 0.6754 0.6853
405.000000 0.6951 0.7071 0.7192 0.7268 0.7333
410.000000 0.7398 0.7451 0.7493 0.7535 0.7575
415.000000 0.7611 0.7646 0.7681 0.7715 0.7751
420.000000 0.7776 0.7803 0.7828 0.7855 0.7881
425.000000 0.7906 0.7930 0.7954 0.7978 0.8001
430.000000 0.8024 0.8045 0.8065 0.8086 0.8107
435.000000 0.8128 0.8151 0.8175 0.8198 0.8221
440.000000 0.8246 0.8270 0.8295 0.8318 0.8343
445.000000 0.8367 0.8387 0.8407 0.8428 0.8448
450.000000 0.8468 0.8484 0.8501 0.8518 0.8534
455.000000 0.8551 0.8567 0.8584 0.8599 0.8611
460.000000 0.8623 0.8635 0.8647 0.8659 0.8671
465.000000 0.8681 0.8689 0.8698 0.8706 0.8714
470.000000 0.8721 0.8730 0.8737 0.8741 0.8746
475.000000 0.8751 0.8755 0.8760 0.8764 0.8768
480.000000 0.8768 0.8767 0.8767 0.8767 0.8766
485.000000 0.8766 0.8766 0.8765 0.8764 0.8763
490.000000 0.8762 0.8761 0.8760 0.8760 0.8765
495.000000 0.8807 0.8775 0.8781 0.8789 0.8805
500.000000 0.8821 0.8838 0.8855 0.8871 0.8886
505.000000 0.8890 0.8895 0.8899 0.8904 0.8907
510.000000 0.8906 0.8905 0.8904 0.8903 0.8902
515.000000 0.8900 0.8892 0.8883 0.8863 0.8828
520.000000 0.8665 0.8480 0.8295 0.8110 0.7925
525.000000 0.7741 0.7556 0.7371 0.7333 0.7319
530.000000 0.8462 0.8810 0.9055 0.9187 0.9243
535.000000 0.9287 0.9307 0.9327 0.9347 0.9358
540.000000 0.9368 0.9378 0.9380 0.9352 0.9375
545.000000 0.9373 0.9368 0.9357 0.9346 0.9328
550.000000 0.9309 0.9283 0.9241 0.9181 0.9120
555.000000 0.9065 0.9014 0.8949 0.8880 0.8807
560.000000 0.8725 0.8531 0.8108 0.7810 0.7510
565.000000 0.7210 0.6910 0.6610 0.6310 0.6010
570.000000 0.5710 0.5302 0.5327 0.5335 0.5714
575.000000 0.6142 0.6571 0.6999 0.7426 0.7856
580.000000 0.8082 0.8225 0.8446 0.8591 0.8687
585.000000 0.8775 0.8855 0.8917 0.8978 0.9024
590.000000 0.9064 0.9105 0.9131 0.9157 0.9183
595.000000 0.9209 0.9227 0.9240 0.9253 0.9266
600.000000 0.9278 0.9292 0.9305 0.9316 0.9325
605.000000 0.9335 0.9345 0.9355 0.9363 0.9370
610.000000 0.9378 0.9386 0.9390 0.9393 0.9396
615.000000 0.9400 0.9403 0.9407 0.9410 0.9413
620.000000 0.9417 0.9420 0.9423 0.9425 0.9425
625.000000 0.9425 0.9425 0.9425 0.9421 0.9418
630.000000 0.9415 0.9412 0.9408 0.9405 0.9401
635.000000 0.9395 0.9390 0.9385 0.9380 0.9374
640.000000 0.9368 0.9364 0.9355 0.9343 0.9330
645.000000 0.9312 0.9288 0.9265 0.9241 0.9208
650.000000 0.9168 0.9127 0.9087 0.9048 0.9009
655.000000 0.8955 0.8891 0.8787 0.8632 0.8431
660.000000 0.8241 0.8024 0.7845 0.7732 0.7542
665.000000 0.6935 0.6742 0.6388 0.6244 0.5392
670.000000 0.4558 0.3723 0.2889 0.2055 0.1220
675.000000 0.0748 0.0732 0.0726 0.0726 0.0734
680.000000 0.1633 0.2555 0.3477 0.4399 0.5321
685.000000 0.6003 0.6451 0.6778 0.6981 0.7200
690.000000 0.7518 0.7753 0.8151 0.8458 0.8514
695.000000 0.8570 0.8618 0.8665 0.8710 0.8750
700.000000 0.8789 0.8823 0.8845 0.8864 0.8871
705.000000 0.8899 0.8875 0.8875 0.8874 0.8861
710.000000 0.8842 0.8823 0.8790 0.8757 0.8714
715.000000 0.8661 0.8609 0.8528 0.8439 0.8351
720.000000 0.8264 0.8084 0.8049 0.8075 0.8183
725.000000 0.8260 0.8321 0.8361 0.8390 0.8409
730.000000 0.8427 0.8442 0.8457 0.8470 0.8478
735.000000 0.8488 0.8498 0.8509 0.8523 0.8537
740.000000 0.8551 0.8563 0.8574 0.8585 0.8597
745.000000 0.8613 0.8628 0.8642 0.8649 0.8656
750.000000 0.8659 0.8659 0.8659 0.8656 0.8649
755.000000 0.8639 0.8618 0.8590 0.8561 0.8540
760.000000 0.8531 0.8520 0.8508 0.8497 0.8484
765.000000 0.8471 0.8459 0.8447 0.8436 0.8425
770.000000 0.8414 0.8402 0.8392 0.8382 0.8371
775.000000 0.8363 0.8349 0.8270 0.8171 0.8071
780.000000 0.7980 0.7875 0.7768 0.7506 0.7151
785.000000 0.6797 0.6442 0.6088 0.5733 0.5634
790.000000 0.5697 0.6305 0.6914 0.7478 0.7522
795.000000 0.7650 0.7844 0.7974 0.7958 0.7958
800.000000 0.7754 0.7019 0.6286 0.5552 0.4818
805.000000 0.4084 0.3349 0.2615 0.2031 0.2033
810.000000 0.2034 0.6976 0.8228 0.8343 0.8407
815.000000 0.8470 0.8514 0.8538 0.8562 0.8574
820.000000 0.8585 0.8596 0.8607 0.8613 0.8613
825.000000 0.8613 0.8601 0.8586 0.8570 0.8553
830.000000 0.8536 0.8518 0.8515 0.8512 0.8508
835.000000 0.8506 0.8504 0.8502 0.8501 0.8501
840.000000 0.8501 0.8501 0.8501 0.8501 0.8501
845.000000 0.8499 0.8495 0.8491 0.8488 0.8484
850.000000 0.8480 0.8475 0.8473 0.8468 0.8466
855.000000 0.8514 0.8462 0.8460 0.8458 0.8457
860.000000 0.8455 0.8453 0.8451 0.8449 0.8449
865.000000 0.8447 0.8441 0.8435 0.8428 0.8423
870.000000 0.8421 0.8418 0.8417 0.8415 0.8413
875.000000 0.8411 0.8408 0.8400 0.8392 0.8384
880.000000 0.8371 0.8354 0.8335 0.8316 0.8297
885.000000 0.8278 0.8251 0.8221 0.8191 0.8162
890.000000 0.8134 0.8115 0.8101 0.8089 0.8076
895.000000 0.8068 0.8061 0.8055 0.8048 0.8040
900.000000 0.8030 0.7994 0.7941 0.7878 0.7814
905.000000 0.7751 0.7661 0.7567 0.7484 0.7410
910.000000 0.7336 0.7261 0.7175 0.7071 0.6965
915.000000 0.6855 0.6778 0.6745 0.6718 0.6694
920.000000 0.6661 0.6618 0.6554 0.6478 0.6395
925.000000 0.6303 0.6208 0.6084 0.5962 0.5870
930.000000 0.5797 0.5771 0.5770 0.5894 0.6040
935.000000 0.6300 0.6524 0.6712 0.6944 0.7068
940.000000 0.7085 0.7111 0.7078 0.7043 0.6922
945.000000 0.6847 0.6767 0.6687 0.6585 0.6280
950.000000 0.5801 0.5322 0.4843 0.4365 0.4123
955.000000 0.4114 0.4091 0.4219 0.4655 0.5091
960.000000 0.5527 0.5962 0.6199 0.6210 0.6190
965.000000 0.5872 0.5486 0.5099 0.4712 0.4327
970.000000 0.3941 0.3555 0.3169 0.3030 0.3175
975.000000 0.2999 0.4064 0.4510 0.4956 0.5235
980.000000 0.5288 0.5360 0.5455 0.5549 0.5639
985.000000 0.5739 0.5923 0.6227 0.6542 0.6745
990.000000 0.6864 0.6928 0.6934 0.6934 0.6928
995.000000 0.6956 0.6890 0.6753 0.6598 0.6443
1000.000000 0.6288 0.6133 0.5978 0.5823 0.5667
1005.000000 0.5512 0.5357 0.5202 0.5047 0.4892
1010.000000 0.4737 0.4582 0.4427 0.4272 0.4116
1015.000000 0.3960 0.3832 0.3805 0.3805 0.3800
1020.000000 0.3837 0.4166 0.4543 0.4920 0.5297
1025.000000 0.5674 0.6052 0.6428 0.6651 0.6662
1030.000000 0.6669 0.6671 0.6664 0.6630 0.6498
1035.000000 0.6353 0.6208 0.6062 0.5919 0.5853
1040.000000 0.6162 0.6821 0.6908 0.6982 0.7038
1045.000000 0.7081 0.7097 0.7112 0.7130 0.7141
1050.000000 0.7149 0.7158 0.7171 0.7186 0.7200
1055.000000 0.7215 0.7228 0.7243 0.7254 0.7260
1060.000000 0.7267 0.7272 0.7276 0.7276 0.7276
1065.000000 0.7276 0.7276 0.7275 0.7271 0.7268
1070.000000 0.7262 0.7258 0.7255 0.7250 0.7246
1075.000000 0.7241 0.7235 0.7228 0.7222 0.7215
1080.000000 0.7210 0.7204 0.7198 0.7191 0.7185
1085.000000 0.7178 0.7161 0.7164 0.7157 0.7149
1090.000000 0.7142 0.7135 0.7126 0.7118 0.7108
1095.000000 0.7100 0.7092 0.7083 0.7074 0.7065
1100.000000 0.7056 0.7047 0.7042 0.7039 0.7036
1105.000000 0.7033 0.7030 0.7026 0.7024 0.7021
1110.000000 0.7018 0.7015 0.7012 0.7012 0.7014
1115.000000 0.7015 0.7017 0.7018 0.7019 0.7021
1120.000000 0.7024 0.7025 0.7026 0.7000 0.6948
1125.000000 0.6890 0.6822 0.6761 0.6703 0.6645
1130.000000 0.6574 0.6493 0.6448 0.6408 0.6369
1135.000000 0.6370 0.6371 0.6376 0.6381 0.6389
1140.000000 0.6398 0.6408 0.6419 0.6403 0.6362
1145.000000 0.6309 0.6266 0.6234 0.6202 0.6158
1150.000000 0.6114 0.6069 0.6024 0.5980 0.5922
1155.000000 0.5856 0.5789 0.5674 0.5549 0.5418
1160.000000 0.5271 0.5098 0.4896 0.4627 0.4394
1165.000000 0.4184 0.3862 0.3543 0.3222 0.2902
1170.000000 0.2581 0.2246 0.2203 0.2208 0.2213
1175.000000 0.2384 0.2682 0.2791 0.2957 0.3508
1180.000000 0.4058 0.4608 0.4922 0.5082 0.5278
1185.000000 0.5440 0.5595 0.5839 0.5936 0.6006
1190.000000 0.6053 0.6090 0.6112 0.6127 0.6141
1195.000000 0.6149 0.6174 0.6160 0.6159 0.6158
1200.000000 0.6154 0.6146 0.6129 0.6093 0.6054
1205.000000 0.6006 0.5950 0.5885 0.5808 0.5710
1210.000000 0.5475 0.5271 0.4971 0.4635 0.4225
1215.000000 0.3814 0.3404 0.2994 0.2583 0.2358
1220.000000 0.2347 0.3210 0.3956 0.4700 0.5445
1225.000000 0.6189 0.6508 0.6582 0.6614 0.6645
1230.000000 0.6657 0.6692 0.6681 0.6678 0.6675
1235.000000 0.6671 0.6667 0.6661 0.6657 0.6650
1240.000000 0.6639 0.6628 0.6615 0.6601 0.6587
1245.000000 0.6571 0.6556 0.6535 0.6514 0.6492
1250.000000 0.6465 0.6438 0.6411 0.6384 0.6360
1255.000000 0.6335 0.6310 0.6284 0.6253 0.6221
1260.000000 0.6190 0.6159 0.6128 0.6096 0.6065
1265.000000 0.6034 0.6003 0.5971 0.5937 0.5901
1270.000000 0.5864 0.5828 0.5792 0.5756 0.5721
1275.000000 0.5686 0.5651 0.5616 0.5567 0.5564
1280.000000 0.5560 0.5557 0.5553 0.5553 0.5556
1285.000000 0.5560 0.5569 0.5582 0.5595 0.5606
1290.000000 0.5584 0.5550 0.5516 0.5467 0.5416
1295.000000 0.5359 0.5301 0.5230 0.5155 0.5084
1300.000000 0.5014 0.4930 0.4831 0.4739 0.4649
1305.000000 0.4507 0.4306 0.4047 0.3647 0.3650
1310.000000 0.3668 0.3694 0.3725 0.3791 0.3934
1315.000000 0.4112 0.4206 0.4243 0.4252 0.4269
1320.000000 0.4257 0.4249 0.4237 0.4212 0.4149
1325.000000 0.4078 0.3980 0.3849 0.3774 0.3708
1330.000000 0.3620 0.3502 0.3444 0.3387 0.3338
1335.000000 0.3292 0.3246 0.3185 0.3123 0.3059
1340.000000 0.2994 0.2925 0.2855 0.2781 0.2707
1345.000000 0.2631 0.2547 0.2464 0.2380 0.2300
1350.000000 0.2220 0.2141 0.2081 0.2021 0.1961
1355.000000 0.1901 0.1834 0.1767 0.1721 0.1682
1360.000000 0.1642 0.1639 0.1654 0.1656 0.1721
1365.000000 0.1761 0.1807 0.1854 0.1904 0.1959
1370.000000 0.2026 0.2118 0.2197 0.2267 0.2307
1375.000000 0.2349 0.2392 0.2442 0.2466 0.2481
1380.000000 0.2492 0.2503 0.2514 0.2542 0.2584
1385.000000 0.2647 0.2763 0.2873 0.2988 0.3099
1390.000000 0.3246 0.3462 0.3978 0.4283 0.4386
1395.000000 0.4429 0.4469 0.4532 0.4512 0.4474
1400.000000 0.4273 0.4071 0.3870 0.3798 0.3812
1405.000000 0.3802 0.4399 0.4692 0.4986 0.5279
1410.000000 0.5457 0.5585 0.5675 0.5712 0.5745
1415.000000 0.5759 0.5772 0.5772 0.5772 0.5770
1420.000000 0.5762 0.5751 0.5740 0.5727 0.5707
1425.000000 0.5674 0.5635 0.5596 0.5542 0.5486
1430.000000 0.5434 0.5428 0.5381 0.5397 0.5412
1435.000000 0.5427 0.5451 0.5482 0.5520 0.5565
1440.000000 0.5595 0.5577 0.5558 0.5539 0.5515
1445.000000 0.5491 0.5458 0.5428 0.5398 0.5368
1450.000000 0.5334 0.5300 0.5265 0.5200 0.5132
1455.000000 0.5044 0.4948 0.4853 0.4772 0.4691
1460.000000 0.4609 0.4522 0.4433 0.4345 0.4257
1465.000000 0.4165 0.4021 0.3882 0.3754 0.3652
1470.000000 0.3549 0.3161 0.3165 0.3190 0.4617
1475.000000 0.4685 0.4709 0.4714 0.4715 0.4744
1480.000000 0.4709 0.4683 0.4634 0.4571 0.4527
1485.000000 0.4481 0.4432 0.4360 0.4283 0.4217
1490.000000 0.4152 0.4087 0.4021 0.3956 0.3891
1495.000000 0.3826 0.3759 0.3684 0.3608 0.3532
1500.000000 0.3458 0.3384 0.3309 0.3228 0.3128
1505.000000 0.3017 0.2874 0.2732 0.2609 0.2496
1510.000000 0.2411 0.2326 0.2207 0.2074 0.1970
1515.000000 0.1866 0.1771 0.1679 0.1602 0.1528
1520.000000 0.1474 0.1426 0.1399 0.1383 0.1372
1525.000000 0.1375 0.1382 0.1394 0.1407 0.1422
1530.000000 0.1445 0.1470 0.1501 0.1532 0.1562
1535.000000 0.1604 0.1656 0.1720 0.1794 0.1909
1540.000000 0.2008 0.2120 0.2233 0.2335 0.2412
1545.000000 0.2480 0.2539 0.2594 0.2650 0.2704
1550.000000 0.2748 0.2793 0.2838 0.2880 0.2915
1555.000000 0.2950 0.2984 0.3020 0.3053 0.3085
1560.000000 0.3134 0.3204 0.3296 0.3542 0.3656
1565.000000 0.3740 0.3816 0.3900 0.4012 0.4123
1570.000000 0.4235 0.4349 0.4470 0.4605 0.4739
1575.000000 0.4858 0.4975 0.5089 0.5190 0.5291
1580.000000 0.5392 0.5493 0.5589 0.5684 0.5779
1585.000000 0.5864 0.5940 0.6015 0.6064 0.6104
1590.000000 0.6144 0.6178 0.6202 0.6227 0.6242
1595.000000 0.6249 0.6256 0.6264 0.6265 0.6266
1600.000000 0.6260 0.6254 0.6244 0.6226 0.6208
1605.000000 0.6188 0.6167 0.6137 0.6086 0.6034
1610.000000 0.5982 0.5921 0.5852 0.5783 0.5719
1615.000000 0.5655 0.5590 0.5531 0.5481 0.5431
1620.000000 0.5382 0.5336 0.5289 0.5244 0.5200
1625.000000 0.5119 0.4988 0.4748 0.4609 0.4441
1630.000000 0.4242 0.4143 0.4044 0.3792 0.3539
1635.000000 0.3362 0.3200 0.3052 0.2884 0.2718
1640.000000 0.2564 0.2402 0.2316 0.2306 0.2312
1645.000000 0.2316 0.2365 0.2430 0.2507 0.2625
1650.000000 0.2799 0.2996 0.3195 0.3394 0.3592
1655.000000 0.3791 0.3990 0.4188 0.4387 0.4586
1660.000000 0.4784 0.4969 0.5172 0.5371 0.5593
1665.000000 0.5860 0.6069 0.6284 0.6528 0.6715
1670.000000 0.6901 0.7071 0.7196 0.7300 0.7398
1675.000000 0.7494 0.7580 0.7634 0.7688 0.7742
1680.000000 0.7795 0.7845 0.7896 0.7939 0.7976
1685.000000 0.8015 0.8042 0.8067 0.8092 0.8117
1690.000000 0.8142 0.8167 0.8186 0.8202 0.8217
1695.000000 0.8233 0.8249 0.8263 0.8274 0.8285
1700.000000 0.8296 0.8307 0.8318 0.8328 0.8339
1705.000000 0.8345 0.8352 0.8358 0.8365 0.8371
1710.000000 0.8375 0.8378 0.8381 0.8384 0.8387
1715.000000 0.8389 0.8392 0.8396 0.8399 0.8403
1720.000000 0.8406 0.8409 0.8413 0.8416 0.8420
1725.000000 0.8425 0.8430 0.8431 0.8431 0.8425
1730.000000 0.8418 0.8409 0.8402 0.8399 0.8421
1735.000000 0.8393 0.8399 0.8405 0.8411 0.8421
1740.000000 0.8430 0.8438 0.8445 0.8452 0.8459
1745.000000 0.8468 0.8477 0.8485 0.8491 0.8494
1750.000000 0.8497 0.8499 0.8499 0.8499 0.8497
1755.000000 0.8495 0.8492 0.8487 0.8482 0.8477
1760.000000 0.8471 0.8466 0.8459 0.8453 0.8448
1765.000000 0.8443 0.8438 0.8433 0.8428 0.8425
1770.000000 0.8424 0.8423 0.8421 0.8421 0.8420
1775.000000 0.8420 0.8420 0.8420 0.8420 0.8420
1780.000000 0.8420 0.8420 0.8421 0.8421 0.8421
1785.000000 0.8420 0.8420 0.8420 0.8418 0.8418
1790.000000 0.8418 0.8418 0.8417 0.8415 0.8414
1795.000000 0.8412 0.8410 0.8408 0.8406 0.8405
1800.000000 0.8403 0.8401 0.8399 0.8396 0.8393
1805.000000 0.8391 0.8388 0.8386 0.8383 0.8380
1810.000000 0.8378 0.8375 0.8373 0.8368 0.8366
1815.000000 0.8363 0.8360 0.8357 0.8354 0.8350
1820.000000 0.8347 0.8344 0.8341 0.8338 0.8334
1825.000000 0.8330 0.8327 0.8323 0.8320 0.8316
1830.000000 0.8312 0.8309 0.8305 0.8302 0.8298
1835.000000 0.8294 0.8291 0.8287 0.8284 0.8280
1840.000000 0.8275 0.8273 0.8268 0.8265 0.8262
1845.000000 0.8258 0.8253 0.8249 0.8245 0.8241
1850.000000 0.8237 0.8233 0.8228 0.8225 0.8220
1855.000000 0.8216 0.8212 0.8208 0.8204 0.8200
1860.000000 0.8196 0.8192 0.8187 0.8183 0.8178
1865.000000 0.8175 0.8171 0.8167 0.8164 0.8160
1870.000000 0.8156 0.8151 0.8148 0.8144 0.8140
1875.000000 0.8136 0.8132 0.8128 0.8124 0.8119
1880.000000 0.8115 0.8111 0.8108 0.8105 0.8101
1885.000000 0.8098 0.8094 0.8090 0.8087 0.8083
1890.000000 0.8078 0.8075 0.8071 0.8068 0.8064
1895.000000 0.8061 0.8057 0.8053 0.8049 0.8045
1900.000000 0.8041 0.8037 0.8033 0.8028 0.8024
1905.000000 0.8019 0.8015 0.8011 0.8008 0.8003
1910.000000 0.7999 0.7994 0.7990 0.7985 0.7980
1915.000000 0.7972 0.7965 0.7950 0.7932 0.7915
1920.000000 0.7893 0.7875 0.7869 0.7865 0.7864
1925.000000 0.7862 0.7861 0.7861 0.7860 0.7858
1930.000000 0.7858 0.7857 0.7856 0.7856 0.7856
1935.000000 0.7856 0.7856 0.7856 0.7856 0.7856
1940.000000 0.7857 0.7857 0.7856 0.7854 0.7851
1945.000000 0.7851 0.7849 0.7848 0.7841 0.7825
1950.000000 0.7808 0.7794 0.7780 0.7767 0.7761
1955.000000 0.7755 0.7750 0.7744 0.7739 0.7734
1960.000000 0.7734 0.7734 0.7734 0.7735 0.7735
1965.000000 0.7735 0.7735 0.7735 0.7735 0.7734
1970.000000 0.7733 0.7731 0.7730 0.7728 0.7726
1975.000000 0.7725 0.7722 0.7718 0.7715 0.7711
1980.000000 0.7707 0.7703 0.7699 0.7694 0.7690
1985.000000 0.7684 0.7676 0.7669 0.7662 0.7655
1990.000000 0.7648 0.7635 0.7618 0.7601 0.7591
1995.000000 0.7580 0.7572 0.7574 0.7538 0.7453
2000.000000 0.7368 0.7284 0.7200 0.7158 0.7115
2005.000000 0.7074 0.7032 0.7022 0.7014 0.7011
2010.000000 0.7008 0.7005 0.7001 0.6998 0.6994
2015.000000 0.6990 0.6986 0.6981 0.6976 0.6968
2020.000000 0.6960 0.6950 0.6941 0.6931 0.6921
2025.000000 0.6911 0.6901 0.6891 0.6882 0.6871
2030.000000 0.6862 0.6857 0.6851 0.6847 0.6842
2035.000000 0.6837 0.6833 0.6828 0.6824 0.6815
2040.000000 0.6807 0.6807 0.6806 0.6774 0.6764
2045.000000 0.6754 0.6744 0.6734 0.6724 0.6715
2050.000000 0.6706 0.6696 0.6687 0.6676 0.6668
2055.000000 0.6660 0.6653 0.6647 0.6641 0.6624
2060.000000 0.6608 0.6587 0.6565 0.6553 0.6541
2065.000000 0.6528 0.6515 0.6503 0.6490 0.6480
2070.000000 0.6469 0.6465 0.6460 0.6454 0.6448
2075.000000 0.6440 0.6432 0.6424 0.6415 0.6408
2080.000000 0.6400 0.6392 0.6384 0.6373 0.6362
2085.000000 0.6351 0.6340 0.6328 0.6317 0.6305
2090.000000 0.6294 0.6282 0.6271 0.6259 0.6248
2095.000000 0.6236 0.6224 0.6212 0.6200 0.6187
2100.000000 0.6175 0.6160 0.6145 0.6130 0.6115
2105.000000 0.6100 0.6085 0.6070 0.6056 0.6048
2110.000000 0.6041 0.6033 0.6026 0.6018 0.6010
2115.000000 0.6003 0.5980 0.5981 0.5980 0.5980
2120.000000 0.5980 0.5979 0.5979 0.5979 0.5979
2125.000000 0.5978 0.5978 0.5978 0.5979 0.5980
2130.000000 0.5981 0.5982 0.5983 0.5984 0.5986
2135.000000 0.5987 0.5988 0.5990 0.5992 0.5995
2140.000000 0.5999 0.6002 0.6006 0.6009 0.6012
2145.000000 0.6016 0.6020 0.6023 0.6026 0.6029
2150.000000 0.6033 0.6036 0.6040 0.6043 0.6047
2155.000000 0.6050 0.6054 0.6057 0.6060 0.6064
2160.000000 0.6067 0.6070 0.6074 0.6076 0.6078
2165.000000 0.6079 0.6081 0.6083 0.6085 0.6086
2170.000000 0.6088 0.6089 0.6089 0.6089 0.6089
2175.000000 0.6089 0.6089 0.6088 0.6088 0.6088
2180.000000 0.6088 0.6085 0.6083 0.6080 0.6077
2185.000000 0.6074 0.6071 0.6067 0.6064 0.6060
2190.000000 0.6058 0.6055 0.6052 0.6049 0.6046
2195.000000 0.6041 0.6037 0.6032 0.6028 0.6023
2200.000000 0.6019 0.6014 0.6010 0.6005 0.6001
2205.000000 0.5996 0.5991 0.5983 0.5976 0.5968
2210.000000 0.5960 0.5953 0.5946 0.5938 0.5931
2215.000000 0.5924 0.5917 0.5909 0.5902 0.5893
2220.000000 0.5884 0.5875 0.5866 0.5857 0.5848
2225.000000 0.5839 0.5830 0.5821 0.5812 0.5803
2230.000000 0.5794 0.5785 0.5776 0.5766 0.5756
2235.000000 0.5746 0.5736 0.5726 0.5716 0.5706
2240.000000 0.5696 0.5686 0.5676 0.5662 0.5650
2245.000000 0.5634 0.5619 0.5603 0.5587 0.5571
2250.000000 0.5556 0.5436 0.5317 0.4856 0.4396
2255.000000 0.4398 0.4400 0.4401 0.4403 0.4605
2260.000000 0.4381 0.5173 0.5538 0.5693 0.5848
2265.000000 0.5845 0.5843 0.5836 0.5829 0.5820
2270.000000 0.5812 0.5801 0.5791 0.5784 0.5778
2275.000000 0.5771 0.5764 0.5757 0.5750 0.5743
2280.000000 0.5736 0.5736 0.5737 0.5720 0.5715
2285.000000 0.5710 0.5706 0.5703 0.5700 0.5696
2290.000000 0.5693 0.5690 0.5687 0.5682 0.5677
2295.000000 0.5671 0.5666 0.5652 0.5638 0.5607
2300.000000 0.5577 0.5567 0.5557 0.5549 0.5542
2305.000000 0.5539 0.5537 0.5534 0.5531 0.5528
2310.000000 0.5525 0.5522 0.5520 0.5515 0.5510
2315.000000 0.5503 0.5495 0.5487 0.5479 0.5470
2320.000000 0.5460 0.5454 0.5448 0.5443 0.5439
2325.000000 0.5435 0.5431 0.5429 0.5427 0.5424
2330.000000 0.5422 0.5417 0.5412 0.5407 0.5403
2335.000000 0.5398 0.5394 0.5390 0.5386 0.5382
2340.000000 0.5378 0.5373 0.5369 0.5366 0.5362
2345.000000 0.5360 0.5359 0.5356 0.5354 0.5350
2350.000000 0.5347 0.5343 0.5340 0.5337 0.5334
2355.000000 0.5330 0.5327 0.5323 0.5320 0.5316
2360.000000 0.5312 0.5301 0.5290 0.5277 0.5265
2365.000000 0.5253 0.5241 0.5229 0.5217 0.5204
2370.000000 0.5192 0.5179 0.5167 0.5154 0.5142
2375.000000 0.5127 0.5112 0.5098 0.5083 0.5068
2380.000000 0.5054 0.5042 0.5030 0.5018 0.5006
2385.000000 0.4993 0.4981 0.4969 0.4957 0.4945
2390.000000 0.4933 0.4920 0.4908 0.4896 0.4885
2395.000000 0.4873 0.4860 0.4849 0.4838 0.4826
2400.000000 0.4814 0.4802 0.4791 0.4779 0.4767
2405.000000 0.4755 0.4744 0.4732 0.4720 0.4708
2410.000000 0.4697 0.4686 0.4676 0.4665 0.4654
2415.000000 0.4643 0.4633 0.4622 0.4610 0.4600
2420.000000 0.4590 0.4579 0.4568 0.4557 0.4547
2425.000000 0.4536 0.4525 0.4514 0.4504 0.4493
2430.000000 0.4482 0.4472 0.4462 0.4453 0.4443
2435.000000 0.4433 0.4423 0.4412 0.4404 0.4394
2440.000000 0.4384 0.4374 0.4365 0.4357 0.4350
2445.000000 0.4343 0.4336 0.4329 0.4322 0.4315
2450.000000 0.4308 0.4300 0.4293 0.4286 0.4279
2455.000000 0.4272 0.4265 0.4260 0.4257 0.4253
2460.000000 0.4250 0.4246 0.4242 0.4238 0.4234
2465.000000 0.4230 0.4226 0.4223 0.4221 0.4220
2470.000000 0.4220 0.4219 0.4218 0.4217 0.4217
2475.000000 0.4216 0.4216 0.4216 0.4218 0.4219
2480.000000 0.4221 0.4223 0.4225 0.4227 0.4229
2485.000000 0.4231 0.4233 0.4236 0.4239 0.4243
2490.000000 0.4247 0.4251 0.4255 0.4259 0.4262
2495.000000 0.4268 0.4274 0.4280 0.4287 0.4293
2500.000000 0.4300 0.4306 0.4312 0.4317 0.4322
2505.000000 0.4326 0.4330 0.4333 0.4337 0.4336
2510.000000 0.4336 0.4333 0.4330 0.4325 0.4321
2515.000000 0.4317 0.4312 0.4309 0.4306 0.4302
2520.000000 0.4299 0.4295 0.4292 0.4288 0.4285
2525.000000 0.4281 0.4278 0.4273 0.4269 0.4264
2530.000000 0.4259 0.4254 0.4249 0.4244 0.4239
2535.000000 0.4234 0.4229 0.4223 0.4217 0.4209
2540.000000 0.4202 0.4194 0.4186 0.4178 0.4171
2545.000000 0.4162 0.4156 0.4148 0.4140 0.4132
2550.000000 0.4124 0.4114 0.4105 0.4095 0.4086
2555.000000 0.4076 0.4066 0.4057 0.4048 0.4038
2560.000000 0.4029 0.4018 0.4009 0.4000 0.3991
2565.000000 0.3978 0.3966 0.3953 0.3940 0.3927
2570.000000 0.3914 0.3900 0.3887 0.3874 0.3860
2575.000000 0.3849 0.3837 0.3824 0.3812 0.3800
2580.000000 0.3788 0.3780 0.3775 0.3777 0.3780
2585.000000 0.3782 0.3784 0.3788 0.3791 0.3794
2590.000000 0.3797 0.3800 0.3804 0.3807 0.3809
2595.000000 0.3812 0.3816 0.3818 0.3823 0.3826
2600.000000 0.3830 0.3834 0.3840 0.3844 0.3849
2605.000000 0.3853 0.3858 0.3862 0.3866 0.3871
2610.000000 0.3876 0.3879 0.3882 0.3886 0.3889
2615.000000 0.3892 0.3896 0.3897 0.3897 0.3896
2620.000000 0.3894 0.3891 0.3889 0.3886 0.3882
2625.000000 0.3879 0.3875 0.3871 0.3866 0.3862
2630.000000 0.3858 0.3854 0.3850 0.3845 0.3841
2635.000000 0.3837 0.3832 0.3829 0.3825 0.3821
2640.000000 0.3816 0.3812 0.3809 0.3805 0.3800
2645.000000 0.3796 0.3792 0.3788 0.3784 0.3780
2650.000000 0.3776 0.3772 0.3768 0.3764 0.3759
2655.000000 0.3756 0.3752 0.3748 0.3744 0.3740
2660.000000 0.3736 0.3730 0.3727 0.3725 0.3724
2665.000000 0.3722 0.3721 0.3718 0.3718 0.3716
2670.000000 0.3714 0.3712 0.3710 0.3709 0.3709
2675.000000 0.3709 0.3709 0.3709 0.3709 0.3709
2680.000000 0.3709 0.3709 0.3709 0.3709 0.3710
2685.000000 0.3710 0.3710 0.3710 0.3712 0.3712
2690.000000 0.3712 0.3712 0.3712 0.3712 0.3714
2695.000000 0.3714 0.3714 0.3714 0.3714 0.3712
2700.000000 0.3709 0.3698 0.3687 0.3676 0.3664
2705.000000 0.3653 0.3642 0.3632 0.3623 0.3614
2710.000000 0.3605 0.3596 0.3588 0.3580 0.3573
2715.000000 0.3566 0.3562 0.3556 0.3550 0.3547
2720.000000 0.3543 0.3542 0.3541 0.3539 0.3538
2725.000000 0.3537 0.3537 0.3537 0.3538 0.3539
2730.000000 0.3540 0.3541 0.3543 0.3545 0.3547
2735.000000 0.3549 0.3550 0.3555 0.3559 0.3564
2740.000000 0.3571 0.3576 0.3582 0.3588 0.3610
2745.000000 0.3600 0.3608 0.3614 0.3620 0.3626
2750.000000 0.3632 0.3639 0.3646 0.3655 0.3664
2755.000000 0.3673 0.3682 0.3693 0.3703 0.3714
2760.000000 0.3727 0.3741 0.3755 0.3768 0.3782
2765.000000 0.3794 0.3807 0.3812 0.3816 0.3816
2770.000000 0.3816 0.3814 0.3814 0.3812 0.3810
2775.000000 0.3809 0.3808 0.3807 0.3806 0.3805
2780.000000 0.3804 0.3803 0.3802 0.3799 0.3797
2785.000000 0.3794 0.3792 0.3789 0.3786 0.3782
2790.000000 0.3780 0.3778 0.3777 0.3776 0.3775
2795.000000 0.3774 0.3773 0.3771 0.3770 0.3768
2800.000000 0.3768 0.3766 0.3766 0.3753 0.3740
2805.000000 0.3725 0.3709 0.3696 0.3682 0.3675
2810.000000 0.3668 0.3662 0.3657 0.3650 0.3645
2815.000000 0.3641 0.3637 0.3632 0.3630 0.3626
2820.000000 0.3623 0.3618 0.3616 0.3612 0.3610
2825.000000 0.3608 0.3605 0.3602 0.3600 0.3597
2830.000000 0.3595 0.3592 0.3589 0.3587 0.3586
2835.000000 0.3584 0.3582 0.3582 0.3580 0.3579
2840.000000 0.3578 0.3577 0.3576 0.3575 0.3574
2845.000000 0.3572 0.3571 0.3568 0.3568 0.3566
2850.000000 0.3564 0.3562 0.3560 0.3559 0.3558
2855.000000 0.3556 0.3554 0.3552 0.3550 0.3550
2860.000000 0.3550 0.3550 0.3552 0.3553 0.3554
2865.000000 0.3556 0.3558 0.3559 0.3560 0.3562
2870.000000 0.3564 0.3566 0.3568 0.3568 0.3571
2875.000000 0.3573 0.3576 0.3579 0.3582 0.3586
2880.000000 0.3589 0.3592 0.3595 0.3598 0.3600
2885.000000 0.3604 0.3608 0.3612 0.3616 0.3620
2890.000000 0.3625 0.3629 0.3634 0.3638 0.3642
2895.000000 0.3646 0.3650 0.3653 0.3657 0.3659
2900.000000 0.3664 0.3668 0.3672 0.3675 0.3679
2905.000000 0.3680 0.3682 0.3682 0.3684 0.3686
2910.000000 0.3688 0.3689 0.3690 0.3686 0.3682
2915.000000 0.3675 0.3668 0.3659 0.3653 0.3645
2920.000000 0.3637 0.3628 0.3620 0.3610 0.3603
2925.000000 0.3594 0.3584 0.3584 0.3584 0.3590
2930.000000 0.3596 0.3607 0.3618 0.3632 0.3649
2935.000000 0.3666 0.3684 0.3700 0.3718 0.3737
2940.000000 0.3756 0.3759 0.3764 0.3766 0.3770
2945.000000 0.3773 0.3776 0.3778 0.3778 0.3778
2950.000000 0.3776 0.3748 0.3720 0.3699 0.3679
2955.000000 0.3682 0.3686 0.3691 0.3697 0.3721
2960.000000 0.3746 0.3777 0.3808 0.3868 0.3930
2965.000000 0.3929 0.3929 0.3927 0.3926 0.3924
2970.000000 0.3923 0.3921 0.3920 0.3916 0.3914
2975.000000 0.3909 0.3906 0.3902 0.3898 0.3894
2980.000000 0.3891 0.3888 0.3884 0.3882 0.3880
2985.000000 0.3877 0.3874 0.3871 0.3868 0.3866
2990.000000 0.3864 0.3862 0.3860 0.3858 0.3856
2995.000000 0.3854 0.3852 0.3852 0.3853 0.3854
3000.000000 0.3855 0.3856 0.3858 0.3860 0.3864
3005.000000 0.3868 0.3872 0.3876 0.3880 0.3884
3010.000000 0.3889 0.3893 0.3898 0.3902 0.3907
3015.000000 0.3912 0.3916 0.3923 0.3930 0.3936
3020.000000 0.3943 0.3949 0.3956 0.3962 0.3968
3025.000000 0.3975 0.3982 0.3992 0.4002 0.4010
3030.000000 0.4021 0.4030 0.4040 0.4049 0.4059
3035.000000 0.4068 0.4078 0.4087 0.4097 0.4106
3040.000000 0.4116 0.4126 0.4137 0.4147 0.4157
3045.000000 0.4167 0.4178 0.4188 0.4198 0.4208
3050.000000 0.4218 0.4228 0.4238 0.4248 0.4258
3055.000000 0.4255 0.4252 0.4248 0.4245 0.4226
3060.000000 0.4207 0.4175 0.4144 0.4112 0.4082
3065.000000 0.4084 0.4084 0.4088 0.4092 0.4096
3070.000000 0.4101 0.4131 0.4162 0.4195 0.4229
3075.000000 0.4268 0.4307 0.4375 0.4444 0.4476
3080.000000 0.4508 0.4528 0.4548 0.4566 0.4585
3085.000000 0.4601 0.4617 0.4636 0.4656 0.4677
3090.000000 0.4699 0.4720 0.4742 0.4762 0.4783
3095.000000 0.4800 0.4818 0.4835 0.4853 0.4870
3100.000000 0.4888 0.4906 0.4925 0.4943 0.4962
3105.000000 0.4980 0.4999 0.5017 0.5036 0.5055
3110.000000 0.5075 0.5095 0.5115 0.5135 0.5155
3115.000000 0.5175 0.5195 0.5215 0.5235 0.5255
3120.000000 0.5275 0.5295 0.5315 0.5330 0.5345
3125.000000 0.5360 0.5375 0.5389 0.5404 0.5419
3130.000000 0.5434 0.5449 0.5464 0.5479 0.5494
3135.000000 0.5509 0.5524 0.5539 0.5555 0.5570
3140.000000 0.5586 0.5601 0.5617 0.5632 0.5648
3145.000000 0.5662 0.5679 0.5694 0.5710 0.5730
3150.000000 0.5751 0.5772 0.5793 0.5814 0.5835
3155.000000 0.5856 0.5877 0.5898 0.5919 0.5940
3160.000000 0.5960 0.5982 0.6004 0.6025 0.6046
3165.000000 0.6064 0.6083 0.6102 0.6121 0.6139
3170.000000 0.6158 0.6176 0.6195 0.6212 0.6232
3175.000000 0.6251 0.6270 0.6288 0.6307 0.6326
3180.000000 0.6345 0.6364 0.6384 0.6403 0.6422
3185.000000 0.6443 0.6462 0.6482 0.6501 0.6521
3190.000000 0.6541 0.6560 0.6580 0.6599 0.6618
3195.000000 0.6637 0.6657 0.6675 0.6696 0.6715
3200.000000 0.6734 0.6753 0.6772 0.6787 0.6801
3205.000000 0.6815 0.6830 0.6844 0.6858 0.6871
3210.000000 0.6885 0.6899 0.6912 0.6922 0.6934
3215.000000 0.6944 0.6955 0.6965 0.6975 0.6985
3220.000000 0.6996 0.7006 0.7015 0.7025 0.7035
3225.000000 0.7044 0.7053 0.7057 0.7061 0.7064
3230.000000 0.7067 0.7069 0.7072 0.7075 0.7078
3235.000000 0.7080 0.7082 0.7084 0.7086 0.7088
3240.000000 0.7090 0.7092 0.7094 0.7096 0.7099
3245.000000 0.7101 0.7104 0.7107 0.7111 0.7114
3250.000000 0.7118 0.7121 0.7125 0.7128 0.7134
3255.000000 0.7141 0.7148 0.7155 0.7162 0.7171
3260.000000 0.7178 0.7186 0.7194 0.7201 0.7210
3265.000000 0.7218 0.7225 0.7235 0.7244 0.7253
3270.000000 0.7262 0.7271 0.7282 0.7292 0.7301
3275.000000 0.7311 0.7322 0.7333 0.7344 0.7351
3280.000000 0.7360 0.7367 0.7375 0.7382 0.7390
3285.000000 0.7396 0.7401 0.7404 0.7407 0.7408
3290.000000 0.7411 0.7412 0.7415 0.7418 0.7421
3295.000000 0.7422 0.7425 0.7426 0.7428 0.7431
3300.000000 0.7434 0.7435 0.7436 0.7436 0.7437
3305.000000 0.7437 0.7438 0.7438 0.7439 0.7439
3310.000000 0.7440 0.7441 0.7442 0.7442 0.7442
3315.000000 0.7442 0.7442 0.7441 0.7440 0.7439
3320.000000 0.7438 0.7436 0.7435 0.7434 0.7433
3325.000000 0.7432 0.7431 0.7430 0.7428 0.7426
3330.000000 0.7425 0.7424 0.7422 0.7421 0.7419
3335.000000 0.7418 0.7417 0.7415 0.7415 0.7412
3340.000000 0.7411 0.7410 0.7408 0.7408 0.7407
3345.000000 0.7406 0.7405 0.7404 0.7403 0.7401
3350.000000 0.7401 0.7399 0.7398 0.7397 0.7396
3355.000000 0.7395 0.7394 0.7393 0.7392 0.7391
3360.000000 0.7390 0.7388 0.7387 0.7386 0.7385
3365.000000 0.7383 0.7382 0.7380 0.7378 0.7376
3370.000000 0.7375 0.7374 0.7372 0.7371 0.7369
3375.000000 0.7368 0.7367 0.7365 0.7364 0.7361
3380.000000 0.7361 0.7360 0.7358 0.7357 0.7356
3385.000000 0.7354 0.7353 0.7351 0.7351 0.7350
3390.000000 0.7350 0.7349 0.7348 0.7347 0.7347
3395.000000 0.7346 0.7345 0.7344 0.7344 0.7343
3400.000000 0.7343 0.7342 0.7341 0.7340 0.7340
3405.000000 0.7339 0.7338 0.7337 0.7336 0.7335
3410.000000 0.7334 0.7333 0.7332 0.7331 0.7331
3415.000000 0.7330 0.7328 0.7328 0.7326 0.7325
3420.000000 0.7325 0.7324 0.7322 0.7321 0.7321
3425.000000 0.7319 0.7318 0.7318 0.7317 0.7315
3430.000000 0.7314 0.7312 0.7311 0.7310 0.7308
3435.000000 0.7307 0.7306 0.7305 0.7304 0.7301
3440.000000 0.7301 0.7299 0.7298 0.7297 0.7296
3445.000000 0.7294 0.7293 0.7291 0.7290 0.7289
3450.000000 0.7288 0.7286 0.7285 0.7283 0.7282
3455.000000 0.7281 0.7280 0.7278 0.7278 0.7276
3460.000000 0.7275 0.7275 0.7274 0.7272 0.7271
3465.000000 0.7271 0.7269 0.7268 0.7268 0.7267
3470.000000 0.7265 0.7265 0.7264 0.7262 0.7262
3475.000000 0.7261 0.7261 0.7260 0.7258 0.7258
3480.000000 0.7257 0.7256 0.7255 0.7254 0.7253
3485.000000 0.7251 0.7251 0.7251 0.7251 0.7251
3490.000000 0.7251 0.7251 0.7251 0.7251 0.7251
3495.000000 0.7251 0.7251 0.7251 0.7251 0.7251
3500.000000 0.7251 0.7251 0.7251 0.7251 0.7251
3505.000000 0.7251 0.7251 0.7250 0.7250 0.7250
3510.000000 0.7250 0.7250 0.7250 0.7250 0.7250
3515.000000 0.7249 0.7249 0.7249 0.7249 0.7248
3520.000000 0.7248 0.7247 0.7247 0.7247 0.7247
3525.000000 0.7246 0.7246 0.7245 0.7245 0.7245
3530.000000 0.7245 0.7244 0.7244 0.7243 0.7243
3535.000000 0.7243 0.7243 0.7242 0.7242 0.7241
3540.000000 0.7241 0.7241 0.7241 0.7240 0.7240
3545.000000 0.7239 0.7239 0.7239 0.7239 0.7238
3550.000000 0.7238 0.7237 0.7237 0.7235 0.7234
3555.000000 0.7232 0.7231 0.7228 0.7228 0.7226
3560.000000 0.7225 0.7224 0.7222 0.7221 0.7219
3565.000000 0.7218 0.7218 0.7215 0.7215 0.7212
3570.000000 0.7211 0.7208 0.7205 0.7201 0.7199
3575.000000 0.7196 0.7193 0.7190 0.7187 0.7187
3580.000000 0.7187 0.7189 0.7191 0.7193 0.7195
3585.000000 0.7197 0.7199 0.7201 0.7203 0.7205
3590.000000 0.7207 0.7207 0.7207 0.7207 0.7207
3595.000000 0.7207 0.7208 0.7208 0.7208 0.7207
3600.000000 0.7207 0.7207 0.7207 0.7207 0.7207
3605.000000 0.7206 0.7206 0.7206 0.7206 0.7206
3610.000000 0.7206 0.7205 0.7205 0.7205 0.7205
3615.000000 0.7204 0.7204 0.7204 0.7204 0.7203
3620.000000 0.7203 0.7201 0.7201 0.7201 0.7201
3625.000000 0.7200 0.7200 0.7199 0.7199 0.7198
3630.000000 0.7198 0.7197 0.7196 0.7195 0.7194
3635.000000 0.7193 0.7192 0.7191 0.7190 0.7189
3640.000000 0.7188 0.7187 0.7186 0.7185 0.7184
3645.000000 0.7183 0.7182 0.7181 0.7180 0.7178
3650.000000 0.7178 0.7176 0.7175 0.7175 0.7174
3655.000000 0.7172 0.7171 0.7171 0.7171 0.7169
3660.000000 0.7169 0.7168 0.7168 0.7167 0.7167
3665.000000 0.7165 0.7165 0.7165 0.7164 0.7162
3670.000000 0.7162 0.7161 0.7161 0.7158 0.7157
3675.000000 0.7153 0.7150 0.7147 0.7144 0.7140
3680.000000 0.7137 0.7134 0.7131 0.7126 0.7124
3685.000000 0.7119 0.7117 0.7111 0.7108 0.7101
3690.000000 0.7096 0.7090 0.7084 0.7078 0.7071
3695.000000 0.7067 0.7062 0.7061 0.7060 0.7058
3700.000000 0.7057 0.7056 0.7055 0.7054 0.7053
3705.000000 0.7053 0.7053 0.7053 0.7053 0.7053
3710.000000 0.7053 0.7053 0.7053 0.7053 0.7053
3715.000000 0.7053 0.7054 0.7054 0.7054 0.7054
3720.000000 0.7054 0.7054 0.7054 0.7054 0.7054
3725.000000 0.7054 0.7054 0.7054 0.7054 0.7054
3730.000000 0.7054 0.7054 0.7055 0.7055 0.7055
3735.000000 0.7055 0.7055 0.7055 0.7055 0.7055
3740.000000 0.7055 0.7055 0.7055 0.7055 0.7055
3745.000000 0.7053 0.7051 0.7048 0.7046 0.7043
3750.000000 0.7041 0.7038 0.7036 0.7033 0.7031
3755.000000 0.7028 0.7025 0.7022 0.7021 0.7018
3760.000000 0.7015 0.7012 0.7011 0.7008 0.7006
3765.000000 0.7003 0.7001 0.6998 0.6996 0.6993
3770.000000 0.6991 0.6988 0.6986 0.6983 0.6981
3775.000000 0.6978 0.6975 0.6975 0.6975 0.6975
3780.000000 0.6976 0.6978 0.6978 0.6980 0.6982
3785.000000 0.6983 0.6985 0.6986 0.6988 0.6989
3790.000000 0.6991 0.6992 0.6994 0.6995 0.6997
3795.000000 0.6998 0.7000 0.7001 0.7003 0.7003
3800.000000 0.7004
##END=
