##TITLE=(2,4-DICHLOROPHENOXY)ACETIC ACID, SODIUM SALT HYDRATE
##JCAMP-DX=4.24
##DATA TYPE=INFRARED SPECTRUM
##CLASS=COBLENTZ
##ORIGIN=DOW CHEMICAL COMPANY
##OWNER=COBLENTZ SOCIETY
Collection (C) 2018 copyright by the U.S. Secretary of Commerce
on behalf of the United States of America. All rights reserved.
##DATE=Not specified, most likely prior to 1970
##MOLFORM=C8 H5 Cl2 O3 Na  * ( H2 O) X
##SOURCE REFERENCE=COBLENTZ NO. 1015
##$NIST ID=B6001015
##$NIST SOURCE=COBLENTZ
##$NIST IMAGE=cob1015
##SPECTROMETER/DATA SYSTEM=Not specified, most likely a prism, grating, or hybrid spectrometer.
##STATE=SOLID (MINERAL OIL MULL OF CS2 INSOLUBLES)
##SAMPLING PROCEDURE=TRANSMISSION
##RESOLUTION=4
##DATA PROCESSING=DIGITIZED BY NIST FROM HARD COPY (FROM TWO SEGMENTS)
##XUNITS=1/CM
##YUNITS=TRANSMITTANCE
##XFACTOR=1.000000
##YFACTOR=1
##DELTAX=1.182035
##FIRSTX=424.35
##LASTX=3799.06
##FIRSTY=0.916
##MAXX=3799.06
##MINX=424.35
##MAXY=1.007
##MINY=0.007
##NPOINTS=2856
##XYDATA=(X++(Y..Y))
424.350000 0.9160 0.9160 0.9160 0.9140 0.9140
430.260175 0.9140 0.9140 0.9140 0.9140 0.9160
436.170351 0.9160 0.9160 0.9160 0.9180 0.9180
442.080526 0.9180 0.9180 0.9200 0.9200 0.9200
447.990702 0.9200 0.9220 0.9220 0.9220 0.9220
453.900877 0.9220 0.9220 0.9220 0.9220 0.9220
459.811052 0.9220 0.9220 0.9220 0.9180 0.9180
465.721228 0.9140 0.9070 0.9000 0.8960 0.8811
471.631403 0.8660 0.8550 0.8420 0.8310 0.8140
477.541579 0.8120 0.8120 0.8140 0.8717 0.9137
483.451754 0.9350 0.9530 0.9660 0.9770 0.9830
489.361929 0.9870 0.9880 0.9920 0.9940 0.9960
495.272105 0.9960 0.9980 0.9980 1.0000 1.0000
501.182280 1.0010 1.0010 1.0030 1.0030 1.0030
507.092456 1.0050 1.0050 1.0070 1.0070 1.0070
513.002631 1.0070 1.0070 1.0070 1.0070 1.0070
518.912806 1.0070 1.0070 1.0070 1.0070 1.0050
524.822982 1.0050 1.0050 1.0030 1.0030 1.0010
530.733157 1.0010 1.0000 0.9980 0.9940 0.9900
536.643333 0.9880 0.9880 0.9870 0.9870 0.9850
542.553508 0.9810 0.9810 0.9790 0.9750 0.9720
548.463683 0.9610 0.9481 0.9331 0.8962 0.7648
554.373859 0.7620 0.7660 0.9008 0.9289 0.9310
560.284034 0.9310 0.9310 0.9240 0.8743 0.8313
566.194210 0.8270 0.8310 0.8570 0.8810 0.8940
572.104385 0.8960 0.8960 0.8960 0.8940 0.8940
578.014560 0.8940 0.8920 0.8880 0.8870 0.8850
583.924736 0.8810 0.8770 0.8700 0.8620 0.8501
589.834911 0.8370 0.8250 0.8120 0.8010 0.7870
595.745087 0.7701 0.7481 0.7241 0.6922 0.6553
601.655262 0.6090 0.5740 0.5510 0.5510 0.5530
607.565437 0.5610 0.5789 0.5830 0.5810 0.5770
613.475613 0.5640 0.5380 0.5030 0.4770 0.4441
619.385788 0.4400 0.4400 0.4500 0.4769 0.4939
625.295964 0.5160 0.5330 0.5590 0.5790 0.5940
631.206139 0.6139 0.6309 0.6400 0.6509 0.6609
637.116314 0.6660 0.6750 0.6790 0.6920 0.7030
643.026490 0.7090 0.7120 0.7249 0.7330 0.7400
648.936665 0.7460 0.7570 0.7720 0.7750 0.7790
654.846841 0.7790 0.7740 0.7740 0.7869 0.8138
660.757016 0.8380 0.8460 0.8570 0.8590 0.8610
666.667191 0.8620 0.8640 0.8660 0.8680 0.8680
672.577367 0.8680 0.8680 0.8680 0.8640 0.8610
678.487542 0.8590 0.8530 0.8440 0.8331 0.8241
684.397718 0.8120 0.8030 0.7920 0.7790 0.7640
690.307893 0.7291 0.7250 0.7250 0.7290 0.7399
696.218068 0.7700 0.8070 0.8270 0.8350 0.8550
702.128244 0.8620 0.8640 0.8740 0.8830 0.8850
708.038419 0.8830 0.8750 0.8740 0.8610 0.8550
713.948595 0.8480 0.8400 0.8330 0.8221 0.8160
719.858770 0.8120 0.7960 0.7810 0.7770 0.7770
725.768945 0.7810 0.7850 0.7900 0.7900 0.7920
731.679121 0.7960 0.7980 0.8010 0.8050 0.8070
737.589296 0.8090 0.8090 0.8110 0.8160 0.8160
743.499472 0.8200 0.8240 0.8250 0.8270 0.8270
749.409647 0.8270 0.8240 0.8200 0.8160 0.8120
755.319822 0.8090 0.8000 0.7750 0.7530 0.7271
761.229998 0.6772 0.6381 0.5643 0.5252 0.4514
767.140173 0.3380 0.3350 0.3370 0.3500 0.3570
773.050349 0.4617 0.5616 0.6437 0.7395 0.7897
778.960524 0.8290 0.8720 0.8920 0.9010 0.9140
784.870699 0.9240 0.9250 0.9250 0.9270 0.9270
790.780875 0.9270 0.9160 0.9050 0.8830 0.8381
796.691050 0.6426 0.4338 0.1174 0.1160 0.1269
802.601226 0.4243 0.6880 0.7940 0.8619 0.8919
808.511401 0.9119 0.9180 0.9200 0.9329 0.9419
814.421576 0.9590 0.9640 0.9660 0.9680 0.9740
820.331752 0.9750 0.9770 0.9790 0.9790 0.9810
826.241927 0.9830 0.9830 0.9850 0.9850 0.9850
832.152103 0.9850 0.9850 0.9830 0.9830 0.9830
838.062278 0.9830 0.9830 0.9830 0.9830 0.9830
843.972453 0.9830 0.9830 0.9830 0.9850 0.9830
849.882629 0.9830 0.9810 0.9810 0.9810 0.9790
855.792804 0.9770 0.9740 0.9640 0.9590 0.9550
861.702980 0.9480 0.9420 0.9350 0.9140 0.8960
867.613155 0.8661 0.6488 0.4250 0.4180 0.4240
873.523330 0.6553 0.8880 0.9400 0.9590 0.9620
879.433506 0.9590 0.9530 0.9530 0.9550 0.9590
885.343681 0.9660 0.9720 0.9750 0.9790 0.9790
891.253857 0.9810 0.9810 0.9830 0.9850 0.9870
897.164032 0.9870 0.9870 0.9870 0.9880 0.9880
903.074207 0.9880 0.9880 0.9880 0.9870 0.9870
908.984383 0.9870 0.9850 0.9850 0.9850 0.9850
914.894558 0.9850 0.9830 0.9810 0.9790 0.9770
920.804734 0.9740 0.9720 0.9550 0.9440 0.9420
926.714909 0.9460 0.9570 0.9749 0.9740 0.9700
932.625084 0.9660 0.9640 0.9620 0.9590 0.9530
938.535260 0.9440 0.9370 0.9251 0.9160 0.9031
944.445435 0.8610 0.8380 0.7810 0.7640 0.7620
950.355611 0.7620 0.8437 0.9067 0.9289 0.9479
956.265786 0.9590 0.9680 0.9750 0.9750 0.9770
962.175961 0.9770 0.9770 0.9790 0.9790 0.9790
968.086137 0.9790 0.9790 0.9790 0.9750 0.9770
973.996312 0.9830 0.9850 0.9850 0.9870 0.9880
979.906488 0.9880 0.9880 0.9880 0.9880 0.9880
985.816663 0.9880 0.9880 0.9880 0.9900 0.9900
991.726838 0.9900 0.9920 0.9920 0.9920 0.9920
997.637014 0.9900 0.9880 0.9870 0.9850 0.9850
1003.547189 0.9850 0.9830 0.9810 0.9790 0.9750
1009.457365 0.9740 0.9720 0.9700 0.9680 0.9640
1015.367540 0.9620 0.9620 0.9590 0.9510 0.9420
1021.277715 0.9121 0.8642 0.8640 0.9028 0.9050
1027.187891 0.9050 0.9030 0.8900 0.8700 0.8401
1033.098066 0.8111 0.7721 0.6944 0.6055 0.4708
1039.008242 0.3220 0.3180 0.3200 0.4788 0.6137
1044.918417 0.7616 0.8198 0.8738 0.8999 0.9089
1050.828592 0.9090 0.9090 0.9070 0.9050 0.9030
1056.738768 0.8920 0.8790 0.8511 0.8291 0.7594
1062.648943 0.6529 0.4960 0.2811 0.2770 0.2810
1068.559119 0.3827 0.4866 0.6005 0.7104 0.7786
1074.469294 0.8460 0.8850 0.9050 0.9120 0.9180
1080.379469 0.9290 0.9400 0.9400 0.9420 0.9460
1086.289645 0.9460 0.9510 0.9530 0.9530 0.9550
1092.199820 0.9530 0.9510 0.9500 0.9480 0.9420
1098.109996 0.9310 0.9140 0.8920 0.8770 0.8531
1104.020171 0.8181 0.7871 0.7123 0.6483 0.6440
1109.930346 0.6461 0.6980 0.7530 0.7750 0.7880
1115.840522 0.7960 0.8110 0.8239 0.8399 0.8619
1121.750697 0.8790 0.8900 0.9050 0.9160 0.9240
1127.660873 0.9240 0.9250 0.9250 0.9270 0.9310
1133.571048 0.9310 0.9330 0.9350 0.9350 0.9350
1139.481223 0.9350 0.9350 0.9310 0.9220 0.9200
1145.391399 0.9200 0.9240 0.9240 0.9240 0.9240
1151.301574 0.9240 0.9220 0.9180 0.9140 0.9070
1157.211750 0.9010 0.8960 0.8770 0.8750 0.8770
1163.121925 0.8960 0.9120 0.9180 0.9220 0.9250
1169.032100 0.9270 0.9290 0.9310 0.9310 0.9310
1174.942276 0.9330 0.9330 0.9310 0.9290 0.9290
1180.852451 0.9240 0.9220 0.9250 0.9290 0.9330
1186.762627 0.9350 0.9350 0.9350 0.9330 0.9330
1192.672802 0.9330 0.9310 0.9290 0.9290 0.9270
1198.582977 0.9270 0.9250 0.9240 0.9220 0.9200
1204.493153 0.9180 0.9140 0.9140 0.9120 0.9120
1210.403328 0.9120 0.9110 0.9110 0.9090 0.9070
1216.313504 0.9050 0.9010 0.8980 0.8960 0.8920
1222.223679 0.8870 0.8850 0.8810 0.8750 0.8720
1228.133854 0.8680 0.8610 0.8530 0.8460 0.8420
1234.044030 0.8400 0.8380 0.8350 0.8250 0.8121
1239.954205 0.8010 0.7790 0.7570 0.7350 0.6961
1245.864381 0.6372 0.5981 0.4905 0.4223 0.3574
1251.774556 0.3570 0.3700 0.3770 0.3790 0.3810
1257.684731 0.3830 0.3870 0.3870 0.3870 0.3810
1263.594907 0.3509 0.3120 0.3070 0.3070 0.3160
1269.505082 0.3609 0.4328 0.5267 0.6216 0.6877
1275.415258 0.7160 0.7400 0.7420 0.7420 0.7350
1281.325433 0.6941 0.6252 0.5254 0.4852 0.4035
1287.235608 0.2718 0.1240 0.1200 0.1250 0.3117
1293.145784 0.5195 0.6496 0.7506 0.8067 0.8309
1299.055959 0.8440 0.8570 0.8610 0.8660 0.8680
1304.966135 0.8680 0.8680 0.8680 0.8680 0.8660
1310.876310 0.8660 0.8660 0.8660 0.8660 0.8640
1316.786485 0.8640 0.8620 0.8590 0.8550 0.8510
1322.696661 0.8480 0.8420 0.8350 0.8270 0.8220
1328.606836 0.8110 0.7960 0.7721 0.7382 0.7141
1334.517012 0.6479 0.5720 0.5510 0.4680 0.4241
1340.427187 0.2244 0.1981 0.2000 0.3235 0.4633
1346.337362 0.6141 0.7240 0.7720 0.7980 0.8180
1352.247538 0.8290 0.8370 0.8370 0.8370 0.8370
1358.157713 0.8370 0.8370 0.8350 0.8290 0.8270
1364.067889 0.8160 0.8010 0.7811 0.7661 0.7610
1369.978064 0.7590 0.7590 0.7500 0.7440 0.7250
1375.888239 0.6831 0.6381 0.6031 0.5980 0.5980
1381.798415 0.6440 0.6550 0.6960 0.7110 0.7270
1387.708590 0.7380 0.7420 0.7440 0.7420 0.7311
1393.618766 0.5900 0.5870 0.5870 0.5880 0.7737
1399.528941 0.7740 0.7640 0.7510 0.7460 0.7400
1405.439116 0.7270 0.7050 0.6790 0.6610 0.6380
1411.349292 0.5871 0.5461 0.5051 0.4612 0.4182
1417.259467 0.3900 0.3700 0.3590 0.3480 0.3480
1423.169643 0.3440 0.3400 0.3221 0.2961 0.2682
1429.079818 0.2349 0.1770 0.1160 0.1120 0.1140
1434.989993 0.1310 0.1938 0.3175 0.3290 0.3290
1440.900169 0.3029 0.2239 0.1330 0.1250 0.1330
1446.810344 0.2138 0.2878 0.3378 0.3768 0.3830
1452.720520 0.3810 0.3790 0.3740 0.3620 0.3510
1458.630695 0.3420 0.3420 0.3380 0.3380 0.3370
1464.540870 0.3310 0.3270 0.3180 0.3180 0.3180
1470.451046 0.3180 0.3350 0.3400 0.3400 0.3370
1476.361221 0.3270 0.3180 0.3030 0.2870 0.2610
1482.271397 0.2311 0.2001 0.1980 0.1980 0.2000
1488.181572 0.2010 0.2160 0.2590 0.3030 0.3479
1494.091747 0.3749 0.3939 0.4249 0.4638 0.4958
1500.001923 0.5441 0.6050 0.6510 0.6830 0.6900
1505.912098 0.7110 0.7270 0.7400 0.7480 0.7570
1511.822274 0.7660 0.7740 0.7770 0.7900 0.8000
1517.732449 0.8120 0.8349 0.8440 0.8550 0.8659
1523.642624 0.8750 0.8790 0.8830 0.8830 0.8870
1529.552800 0.8870 0.8920 0.8960 0.8980 0.8980
1535.462975 0.8980 0.8980 0.8980 0.9000 0.9000
1541.373151 0.9000 0.9000 0.9000 0.9000 0.9000
1547.283326 0.8980 0.9000 0.9000 0.9000 0.9000
1553.193501 0.8980 0.8960 0.8940 0.8920 0.8850
1559.103677 0.8790 0.8750 0.8740 0.8740 0.8740
1565.013852 0.8720 0.8660 0.8590 0.8570 0.8530
1570.924028 0.8440 0.8350 0.8310 0.8240 0.8140
1576.834203 0.8090 0.7960 0.7850 0.7770 0.7641
1582.744378 0.7510 0.7460 0.7440 0.7350 0.7240
1588.654554 0.7110 0.6751 0.6401 0.5832 0.5790
1594.564729 0.5790 0.5790 0.5790 0.5750 0.5510
1600.474905 0.5251 0.4961 0.4611 0.4291 0.4091
1606.385080 0.3749 0.3460 0.3010 0.2500 0.1901
1612.295255 0.1311 0.0702 0.0610 0.0500 0.0351
1618.205431 0.0290 0.0270 0.0270 0.0270 0.0290
1624.115606 0.0350 0.0510 0.0510 0.0749 0.1029
1630.025782 0.1371 0.1700 0.2270 0.2900 0.3160
1635.935957 0.3619 0.3720 0.3720 0.3720 0.3640
1641.846132 0.3640 0.3680 0.3770 0.3940 0.4290
1647.756308 0.5328 0.5619 0.6068 0.6180 0.6996
1653.666483 0.7180 0.7290 0.7370 0.7400 0.7460
1659.576659 0.7550 0.7610 0.7620 0.7620 0.7640
1665.486834 0.7640 0.7640 0.7640 0.7640 0.7620
1671.397009 0.7570 0.7510 0.7480 0.7440 0.7420
1677.307185 0.7420 0.7420 0.7440 0.7460 0.7510
1683.217360 0.7570 0.7700 0.7919 0.7960 0.8000
1689.127536 0.8200 0.8370 0.8510 0.8590 0.8660
1695.037711 0.8720 0.8870 0.8980 0.9000 0.9050
1700.947886 0.9050 0.9110 0.9110 0.9110 0.9110
1706.858062 0.9090 0.9070 0.9050 0.9050 0.9050
1712.768237 0.9050 0.9050 0.9050 0.9050 0.9090
1718.678413 0.9160 0.9250 0.9310 0.9330 0.9350
1724.588588 0.9380 0.9400 0.9420 0.9420 0.9420
1730.498763 0.9400 0.9380 0.9380 0.9370 0.9380
1736.408939 0.9400 0.9420 0.9420 0.9440 0.9510
1742.319114 0.9570 0.9640 0.9640 0.9660 0.9660
1748.229290 0.9680 0.9750 0.9790 0.9830 0.9830
1754.139465 0.9850 0.9850 0.9850 0.9870 0.9870
1760.049640 0.9880 0.9880 0.9900 0.9920 0.9940
1765.959816 0.9940 0.9940 0.9940 0.9940 0.9940
1771.869991 0.9960 0.9960 0.9960 0.9940 0.9940
1777.780166 0.9940 0.9940 0.9940 0.9920 0.9960
1783.690342 0.9960 0.9960 0.9940 0.9940 0.9940
1789.600517 0.9940 0.9940 0.9940 0.9940 0.9940
1795.510693 0.9940 0.9960 0.9960 0.9960 0.9980
1801.420868 0.9980 0.9980 1.0000 1.0000 1.0000
1807.331043 1.0000 1.0000 1.0000 1.0000 1.0000
1813.241219 1.0030 1.0030 1.0030 1.0050 1.0050
1819.151394 1.0050 1.0050 1.0050 1.0050 1.0050
1825.061570 1.0050 1.0050 1.0050 1.0050 1.0050
1830.971745 1.0050 1.0050 1.0030 1.0030 1.0030
1836.881920 1.0030 1.0030 1.0030 1.0030 1.0010
1842.792096 1.0010 1.0010 1.0010 0.9960 0.9940
1848.702271 0.9920 0.9920 0.9900 0.9880 0.9850
1854.612447 0.9810 0.9740 0.9680 0.9660 0.9700
1860.522622 0.9740 0.9830 0.9850 0.9870 0.9900
1866.432797 0.9940 0.9960 0.9960 0.9960 0.9980
1872.342973 0.9980 1.0010 1.0010 1.0010 1.0030
1878.253148 1.0030 1.0030 1.0030 1.0030 1.0030
1884.163324 1.0030 1.0030 1.0030 1.0030 1.0030
1890.073499 1.0030 1.0050 1.0030 1.0030 1.0050
1895.983674 1.0030 1.0050 1.0050 1.0050 1.0030
1901.893850 1.0030 1.0030 1.0030 1.0030 1.0030
1907.804025 1.0030 1.0030 1.0030 1.0030 1.0030
1913.714201 1.0030 1.0030 1.0030 1.0030 1.0030
1919.624376 1.0030 1.0050 1.0030 1.0030 1.0030
1925.534551 1.0030 1.0030 1.0050 1.0030 1.0030
1931.444727 1.0010 1.0010 1.0010 1.0000 1.0000
1937.354902 1.0010 1.0010 1.0010 1.0010 1.0030
1943.265078 1.0050 1.0050 1.0050 1.0050 1.0050
1949.175253 1.0050 1.0050 1.0050 1.0030 1.0030
1955.085428 1.0030 1.0030 1.0030 1.0030 1.0030
1960.995604 1.0030 1.0030 1.0030 1.0030 1.0030
1966.905779 1.0030 1.0030 1.0030 1.0030 1.0030
1972.815955 1.0030 1.0030 1.0030 1.0030 1.0030
1978.726130 1.0030 1.0030 1.0030 1.0030 1.0030
1984.636305 1.0030 1.0030 1.0030 1.0030 1.0030
1990.546481 1.0030 1.0030 1.0030 1.0010 1.0010
1996.456656 1.0010 1.0000 1.0000 1.0000 1.0000
2002.366832 1.0000 0.9990 0.9980 0.9980 0.9980
2008.277007 0.9980 0.9980 0.9970 0.9961 0.9960
2014.187182 0.9960 0.9951 0.9941 0.9940 0.9940
2020.097358 0.9940 0.9940 0.9940 0.9940 0.9940
2026.007533 0.9940 0.9949 0.9959 0.9969 0.9979
2031.917709 0.9980 0.9980 0.9989 0.9999 1.0000
2037.827884 1.0000 1.0000 1.0000 1.0000 1.0000
2043.738059 1.0000 1.0000 1.0000 1.0000 1.0000
2049.648235 1.0000 1.0000 1.0000 1.0000 1.0000
2055.558410 1.0000 1.0000 0.9992 0.9982 0.9964
2061.468586 0.9945 0.9925 0.9905 0.9900 0.9900
2067.378761 0.9915 0.9935 0.9947 0.9958 0.9975
2073.288936 0.9995 1.0000 1.0000 1.0000 1.0000
2079.199112 1.0000 1.0000 1.0000 1.0000 1.0000
2085.109287 1.0000 1.0000 1.0000 0.9987 0.9967
2091.019463 0.9953 0.9943 0.9933 0.9923 0.9913
2096.929638 0.9903 0.9893 0.9884 0.9880 0.9880
2102.839813 0.9880 0.9880 0.9880 0.9880 0.9880
2108.749989 0.9880 0.9880 0.9880 0.9886 0.9896
2114.660164 0.9900 0.9900 0.9900 0.9900 0.9900
2120.570340 0.9900 0.9900 0.9900 0.9900 0.9900
2126.480515 0.9894 0.9885 0.9880 0.9880 0.9880
2132.390690 0.9880 0.9880 0.9880 0.9880 0.9880
2138.300866 0.9878 0.9873 0.9870 0.9870 0.9870
2144.211041 0.9870 0.9870 0.9870 0.9870 0.9870
2150.121217 0.9870 0.9870 0.9870 0.9870 0.9870
2156.031392 0.9870 0.9870 0.9870 0.9870 0.9870
2161.941567 0.9870 0.9870 0.9870 0.9870 0.9870
2167.851743 0.9870 0.9870 0.9870 0.9870 0.9870
2173.761918 0.9870 0.9870 0.9870 0.9870 0.9870
2179.672094 0.9870 0.9870 0.9870 0.9870 0.9870
2185.582269 0.9867 0.9857 0.9850 0.9850 0.9850
2191.492444 0.9850 0.9844 0.9824 0.9807 0.9797
2197.402620 0.9790 0.9790 0.9790 0.9790 0.9787
2203.312795 0.9777 0.9770 0.9770 0.9770 0.9770
2209.222971 0.9768 0.9758 0.9746 0.9731 0.9720
2215.133146 0.9720 0.9718 0.9708 0.9700 0.9700
2221.043321 0.9698 0.9688 0.9678 0.9668 0.9660
2226.953497 0.9660 0.9658 0.9648 0.9640 0.9640
2232.863672 0.9638 0.9623 0.9607 0.9587 0.9570
2238.773848 0.9570 0.9567 0.9547 0.9529 0.9519
2244.684023 0.9509 0.9504 0.9499 0.9489 0.9479
2250.594198 0.9469 0.9460 0.9460 0.9460 0.9460
2256.504374 0.9460 0.9460 0.9460 0.9460 0.9461
2262.414549 0.9471 0.9480 0.9480 0.9480 0.9480
2268.324725 0.9481 0.9490 0.9501 0.9516 0.9531
2274.234900 0.9551 0.9570 0.9580 0.9590 0.9590
2280.145075 0.9590 0.9615 0.9640 0.9640 0.9640
2286.055251 0.9650 0.9660 0.9650 0.9640 0.9640
2291.965426 0.9640 0.9650 0.9660 0.9660 0.9660
2297.875602 0.9660 0.9660 0.9669 0.9679 0.9680
2303.785777 0.9680 0.9680 0.9680 0.9680 0.9680
2309.695952 0.9689 0.9699 0.9700 0.9700 0.9700
2315.606128 0.9700 0.9700 0.9700 0.9709 0.9719
2321.516303 0.9720 0.9720 0.9720 0.9720 0.9720
2327.426479 0.9720 0.9728 0.9738 0.9740 0.9740
2333.336654 0.9740 0.9740 0.9740 0.9740 0.9740
2339.246829 0.9740 0.9744 0.9749 0.9750 0.9750
2345.157005 0.9750 0.9750 0.9750 0.9750 0.9750
2351.067180 0.9750 0.9750 0.9750 0.9750 0.9750
2356.977356 0.9750 0.9750 0.9750 0.9750 0.9750
2362.887531 0.9750 0.9750 0.9750 0.9750 0.9750
2368.797706 0.9750 0.9750 0.9750 0.9750 0.9750
2374.707882 0.9750 0.9750 0.9750 0.9750 0.9750
2380.618057 0.9757 0.9767 0.9770 0.9770 0.9776
2386.528233 0.9786 0.9790 0.9790 0.9796 0.9806
2392.438408 0.9810 0.9810 0.9810 0.9810 0.9804
2398.348583 0.9794 0.9790 0.9790 0.9790 0.9790
2404.258759 0.9790 0.9790 0.9790 0.9790 0.9790
2410.168934 0.9790 0.9790 0.9790 0.9790 0.9790
2416.079110 0.9790 0.9790 0.9790 0.9790 0.9790
2421.989285 0.9790 0.9790 0.9790 0.9790 0.9790
2427.899460 0.9790 0.9790 0.9790 0.9790 0.9790
2433.809636 0.9790 0.9790 0.9790 0.9790 0.9790
2439.719811 0.9790 0.9790 0.9790 0.9790 0.9790
2445.629987 0.9790 0.9790 0.9790 0.9794 0.9804
2451.540162 0.9810 0.9810 0.9806 0.9796 0.9790
2457.450337 0.9790 0.9790 0.9790 0.9790 0.9790
2463.360513 0.9790 0.9790 0.9790 0.9790 0.9790
2469.270688 0.9790 0.9787 0.9777 0.9770 0.9770
2475.180864 0.9767 0.9757 0.9750 0.9750 0.9750
2481.091039 0.9750 0.9750 0.9750 0.9750 0.9750
2487.001214 0.9750 0.9750 0.9750 0.9750 0.9749
2492.911390 0.9744 0.9740 0.9740 0.9740 0.9740
2498.821565 0.9741 0.9746 0.9749 0.9744 0.9740
2504.731741 0.9740 0.9738 0.9728 0.9720 0.9720
2510.641916 0.9718 0.9708 0.9698 0.9688 0.9678
2516.552091 0.9668 0.9658 0.9648 0.9640 0.9640
2522.462267 0.9638 0.9628 0.9619 0.9614 0.9608
2528.372442 0.9599 0.9590 0.9590 0.9590 0.9590
2534.282618 0.9590 0.9590 0.9589 0.9579 0.9570
2540.192793 0.9570 0.9570 0.9570 0.9571 0.9581
2546.102968 0.9590 0.9590 0.9590 0.9590 0.9590
2552.013144 0.9590 0.9590 0.9590 0.9590 0.9590
2557.923319 0.9590 0.9600 0.9610 0.9610 0.9610
2563.833495 0.9610 0.9610 0.9610 0.9610 0.9600
2569.743670 0.9590 0.9580 0.9570 0.9570 0.9570
2575.653845 0.9570 0.9570 0.9570 0.9570 0.9570
2581.564021 0.9570 0.9570 0.9570 0.9570 0.9570
2587.474196 0.9570 0.9570 0.9570 0.9570 0.9570
2593.384372 0.9570 0.9570 0.9570 0.9561 0.9551
2599.294547 0.9550 0.9550 0.9550 0.9550 0.9550
2605.204722 0.9550 0.9559 0.9569 0.9561 0.9551
2611.114898 0.9550 0.9550 0.9533 0.9513 0.9510
2617.025073 0.9510 0.9510 0.9510 0.9506 0.9501
2622.935249 0.9500 0.9500 0.9504 0.9509 0.9510
2628.845424 0.9510 0.9506 0.9501 0.9500 0.9500
2634.755599 0.9500 0.9500 0.9500 0.9500 0.9500
2640.665775 0.9500 0.9492 0.9482 0.9473 0.9463
2646.575950 0.9453 0.9443 0.9433 0.9423 0.9413
2652.486126 0.9403 0.9393 0.9383 0.9380 0.9380
2658.396301 0.9370 0.9355 0.9350 0.9350 0.9343
2664.306476 0.9333 0.9330 0.9330 0.9323 0.9313
2670.216652 0.9310 0.9310 0.9316 0.9326 0.9336
2676.126827 0.9346 0.9350 0.9350 0.9356 0.9366
2682.037003 0.9373 0.9378 0.9380 0.9380 0.9380
2687.947178 0.9380 0.9380 0.9380 0.9380 0.9380
2693.857353 0.9380 0.9380 0.9380 0.9380 0.9385
2699.767529 0.9395 0.9395 0.9385 0.9380 0.9380
2705.677704 0.9377 0.9372 0.9370 0.9370 0.9365
2711.587880 0.9355 0.9350 0.9350 0.9345 0.9335
2717.498055 0.9330 0.9330 0.9316 0.9286 0.9265
2723.408230 0.9255 0.9250 0.9250 0.9250 0.9250
2729.318406 0.9250 0.9250 0.9254 0.9264 0.9278
2735.228581 0.9298 0.9310 0.9310 0.9310 0.9310
2741.138757 0.9314 0.9324 0.9330 0.9330 0.9330
2747.048932 0.9330 0.9330 0.9330 0.9330 0.9330
2752.959107 0.9327 0.9317 0.9310 0.9310 0.9310
2758.869283 0.9310 0.9310 0.9310 0.9310 0.9310
2764.779458 0.9310 0.9310 0.9307 0.9297 0.9284
2770.689634 0.9264 0.9243 0.9218 0.9197 0.9187
2776.599809 0.9177 0.9167 0.9157 0.9148 0.9138
2782.509984 0.9127 0.9113 0.9089 0.9068 0.9058
2788.420160 0.9042 0.9007 0.8973 0.8943 0.8916
2794.330335 0.8896 0.8879 0.8874 0.8866 0.8846
2800.240511 0.8823 0.8783 0.8742 0.8697 0.8653
2806.150686 0.8607 0.8562 0.8517 0.8472 0.8422
2812.060861 0.8369 0.8300 0.8231 0.8172 0.8109
2817.971037 0.8030 0.7955 0.7915 0.7869 0.7769
2823.881212 0.7671 0.7587 0.7501 0.7402 0.7301
2829.791388 0.7190 0.7061 0.6758 0.6461 0.6237
2835.701563 0.6007 0.5694 0.5387 0.5178 0.4947
2841.611738 0.4311 0.3682 0.3229 0.2781 0.2457
2847.521914 0.2135 0.1877 0.1618 0.1380 0.1141
2853.432089 0.0844 0.0550 0.0540 0.0530 0.0530
2859.342265 0.0530 0.0767 0.1005 0.1185 0.1364
2865.252440 0.1413 0.1458 0.1470 0.1479 0.1494
2871.162615 0.1509 0.1519 0.1529 0.1659 0.1798
2877.072791 0.2073 0.2360 0.2408 0.2438 0.2440
2882.982966 0.2440 0.2413 0.2383 0.2264 0.2135
2888.893142 0.2023 0.1914 0.1726 0.1527 0.1380
2894.803317 0.1240 0.1148 0.1063 0.0996 0.0931
2900.713492 0.0866 0.0800 0.0697 0.0588 0.0524
2906.623668 0.0470 0.0390 0.0306 0.0270 0.0245
2912.533843 0.0216 0.0186 0.0156 0.0127 0.0101
2918.444019 0.0076 0.0070 0.0070 0.0070 0.0070
2924.354194 0.0070 0.0070 0.0070 0.0070 0.0077
2930.264369 0.0087 0.0097 0.0107 0.0114 0.0119
2936.174545 0.0134 0.0154 0.0181 0.0211 0.0244
2942.084720 0.0279 0.0334 0.0399 0.0440 0.0470
2947.994896 0.0480 0.0480 0.0466 0.0447 0.0440
2953.905071 0.0440 0.0440 0.0440 0.0440 0.0440
2959.815246 0.0446 0.0456 0.0516 0.0605 0.0710
2965.725422 0.0825 0.0984 0.1173 0.1415 0.1693
2971.635597 0.2000 0.2328 0.2674 0.3032 0.3390
2977.545773 0.3748 0.4106 0.4464 0.4808 0.5141
2983.455948 0.5439 0.5707 0.5919 0.6083 0.6234
2989.366123 0.6373 0.6525 0.6689 0.6828 0.6943
2995.276299 0.7018 0.7053 0.7103 0.7168 0.7238
3001.186474 0.7312 0.7377 0.7432 0.7477 0.7512
3007.096650 0.7549 0.7588 0.7617 0.7632 0.7653
3013.006825 0.7683 0.7711 0.7736 0.7758 0.7778
3018.917000 0.7803 0.7833 0.7850 0.7850 0.7854
3024.827176 0.7864 0.7870 0.7870 0.7872 0.7877
3030.737351 0.7880 0.7880 0.7884 0.7894 0.7900
3036.647527 0.7900 0.7900 0.7900 0.7900 0.7900
3042.557702 0.7900 0.7900 0.7897 0.7887 0.7878
3048.467877 0.7873 0.7870 0.7870 0.7867 0.7857
3054.378053 0.7850 0.7850 0.7853 0.7863 0.7870
3060.288228 0.7870 0.7871 0.7876 0.7880 0.7880
3066.198404 0.7879 0.7874 0.7867 0.7857 0.7806
3072.108579 0.7632 0.7495 0.7475 0.7465 0.7485
3078.018754 0.7532 0.7676 0.7790 0.7790 0.7788
3083.928930 0.7778 0.7770 0.7770 0.7770 0.7770
3089.839105 0.7768 0.7758 0.7736 0.7656 0.7581
3095.749281 0.7526 0.7478 0.7468 0.7464 0.7489
3101.659456 0.7524 0.7629 0.7721 0.7731 0.7740
3107.569631 0.7740 0.7740 0.7740 0.7738 0.7718
3113.479807 0.7699 0.7689 0.7679 0.7669 0.7659
3119.389982 0.7649 0.7639 0.7624 0.7609 0.7599
3125.300158 0.7590 0.7590 0.7590 0.7580 0.7570
3131.210333 0.7560 0.7549 0.7514 0.7480 0.7470
3137.120508 0.7460 0.7450 0.7440 0.7430 0.7420
3143.030684 0.7385 0.7350 0.7310 0.7271 0.7260
3148.940859 0.7250 0.7245 0.7240 0.7192 0.7142
3154.851035 0.7140 0.7140 0.7117 0.7092 0.7072
3160.761210 0.7052 0.7018 0.6982 0.6952 0.6922
3166.671385 0.6897 0.6872 0.6825 0.6775 0.6748
3172.581561 0.6723 0.6671 0.6617 0.6593 0.6573
3178.491736 0.6505 0.6431 0.6382 0.6337 0.6292
3184.401912 0.6247 0.6198 0.6148 0.6110 0.6076
3190.312087 0.6032 0.5988 0.5927 0.5862 0.5797
3196.222262 0.5733 0.5668 0.5603 0.5539 0.5474
3202.132438 0.5409 0.5345 0.5288 0.5233 0.5178
3208.042613 0.5124 0.5061 0.4995 0.4938 0.4883
3213.952789 0.4821 0.4757 0.4696 0.4636 0.4580
3219.862964 0.4525 0.4463 0.4399 0.4334 0.4269
3225.773139 0.4205 0.4140 0.4082 0.4028 0.3980
3231.683315 0.3935 0.3903 0.3878 0.3856 0.3837
3237.593490 0.3823 0.3813 0.3810 0.3810 0.3810
3243.503666 0.3810 0.3810 0.3810 0.3810 0.3810
3249.413841 0.3822 0.3842 0.3865 0.3890 0.3918
3255.324016 0.3948 0.3981 0.4016 0.4036 0.4046
3261.234192 0.4100 0.4184 0.4234 0.4259 0.4312
3267.144367 0.4387 0.4462 0.4536 0.4600 0.4655
3273.054543 0.4715 0.4779 0.4839 0.4893 0.4948
3278.964718 0.5003 0.5063 0.5128 0.5183 0.5228
3284.874893 0.5280 0.5340 0.5392 0.5437 0.5477
3290.785069 0.5512 0.5551 0.5596 0.5638 0.5678
3296.695244 0.5725 0.5779 0.5830 0.5874 0.5921
3302.605420 0.5971 0.6015 0.6050 0.6081 0.6106
3308.515595 0.6124 0.6134 0.6163 0.6217 0.6262
3314.425770 0.6292 0.6318 0.6338 0.6354 0.6364
3320.335946 0.6379 0.6404 0.6424 0.6434 0.6443
3326.246121 0.6453 0.6463 0.6473 0.6483 0.6493
3332.156297 0.6502 0.6507 0.6510 0.6510 0.6510
3338.066472 0.6510 0.6510 0.6510 0.6509 0.6504
3343.976647 0.6500 0.6500 0.6500 0.6500 0.6495
3349.886823 0.6475 0.6446 0.6391 0.6342 0.6312
3355.796998 0.6287 0.6278 0.6264 0.6239 0.6213
3361.707174 0.6183 0.6152 0.6117 0.6084 0.6054
3367.617349 0.6027 0.6012 0.5992 0.5953 0.5914
3373.527524 0.5879 0.5841 0.5791 0.5745 0.5721
3379.437700 0.5695 0.5665 0.5631 0.5576 0.5526
3385.347875 0.5501 0.5476 0.5446 0.5417 0.5392
3391.258051 0.5364 0.5314 0.5267 0.5242 0.5215
3397.168226 0.5165 0.5117 0.5082 0.5045 0.5001
3403.078401 0.4955 0.4900 0.4846 0.4791 0.4738
3408.988577 0.4708 0.4673 0.4543 0.4417 0.4352
3414.898752 0.4286 0.4187 0.4088 0.4014 0.3938
3420.808928 0.3809 0.3680 0.3579 0.3477 0.3338
3426.719103 0.3199 0.3024 0.2850 0.2676 0.2502
3432.629278 0.2343 0.2184 0.2064 0.1944 0.1878
3438.539454 0.1813 0.1810 0.1810 0.1749 0.1684
3444.449629 0.1671 0.1661 0.1688 0.1718 0.1771
3450.359805 0.1826 0.1890 0.1954 0.2033 0.2112
3456.269980 0.2214 0.2319 0.2437 0.2556 0.2684
3462.180155 0.2813 0.2943 0.3072 0.3201 0.3330
3468.090331 0.3464 0.3598 0.3726 0.3851 0.3963
3474.000506 0.4073 0.4220 0.4374 0.4516 0.4655
3479.910682 0.4794 0.4933 0.5057 0.5176 0.5295
3485.820857 0.5415 0.5534 0.5653 0.5765 0.5874
3491.731032 0.5980 0.6084 0.6186 0.6287 0.6383
3497.641208 0.6477 0.6575 0.6675 0.6767 0.6856
3503.551383 0.6950 0.7044 0.7135 0.7225 0.7310
3509.461559 0.7395 0.7466 0.7530 0.7602 0.7676
3515.371734 0.7744 0.7809 0.7860 0.7906 0.7951
3521.281909 0.7995 0.8037 0.8077 0.8120 0.8165
3527.192085 0.8209 0.8254 0.8302 0.8352 0.8392
3533.102260 0.8427 0.8468 0.8513 0.8554 0.8594
3539.012436 0.8625 0.8650 0.8678 0.8708 0.8726
3544.922611 0.8736 0.8755 0.8780 0.8796 0.8806
3550.832786 0.8821 0.8841 0.8864 0.8889 0.8905
3556.742962 0.8915 0.8925 0.8935 0.8945 0.8955
3562.653137 0.8973 0.8998 0.9025 0.9055 0.9075
3568.563313 0.9085 0.9095 0.9105 0.9117 0.9132
3574.473488 0.9140 0.9140 0.9145 0.9155 0.9160
3580.383663 0.9160 0.9169 0.9189 0.9204 0.9214
3586.293839 0.9224 0.9234 0.9242 0.9247 0.9259
3592.204014 0.9279 0.9294 0.9304 0.9310 0.9310
3598.114190 0.9314 0.9324 0.9330 0.9330 0.9334
3604.024365 0.9344 0.9350 0.9350 0.9354 0.9364
3609.934540 0.9370 0.9370 0.9372 0.9377 0.9384
3615.844716 0.9393 0.9400 0.9400 0.9400 0.9400
3621.754891 0.9400 0.9400 0.9400 0.9400 0.9403
3627.665067 0.9413 0.9420 0.9420 0.9426 0.9445
3633.575242 0.9463 0.9473 0.9483 0.9493 0.9501
3639.485417 0.9506 0.9513 0.9523 0.9530 0.9530
3645.395593 0.9530 0.9530 0.9530 0.9530 0.9532
3651.305768 0.9542 0.9550 0.9550 0.9550 0.9550
3657.215944 0.9550 0.9550 0.9550 0.9550 0.9548
3663.126119 0.9538 0.9530 0.9530 0.9530 0.9530
3669.036294 0.9530 0.9530 0.9530 0.9530 0.9530
3674.946470 0.9530 0.9530 0.9530 0.9530 0.9530
3680.856645 0.9530 0.9530 0.9530 0.9530 0.9530
3686.766821 0.9530 0.9530 0.9530 0.9530 0.9530
3692.676996 0.9530 0.9530 0.9531 0.9541 0.9551
3698.587171 0.9560 0.9570 0.9570 0.9570 0.9580
3704.497347 0.9590 0.9580 0.9570 0.9570 0.9570
3710.407522 0.9570 0.9570 0.9570 0.9570 0.9570
3716.317698 0.9570 0.9570 0.9570 0.9570 0.9570
3722.227873 0.9570 0.9570 0.9570 0.9570 0.9570
3728.138048 0.9570 0.9570 0.9570 0.9570 0.9570
3734.048224 0.9570 0.9570 0.9570 0.9570 0.9570
3739.958399 0.9570 0.9570 0.9570 0.9570 0.9570
3745.868575 0.9570 0.9570 0.9570 0.9570 0.9570
3751.778750 0.9570 0.9570 0.9570 0.9570 0.9570
3757.688925 0.9570 0.9570 0.9570 0.9570 0.9570
3763.599101 0.9570 0.9570 0.9570 0.9570 0.9570
3769.509276 0.9570 0.9570 0.9562 0.9552 0.9550
3775.419452 0.9550 0.9550 0.9550 0.9542 0.9532
3781.329627 0.9530 0.9530 0.9530 0.9530 0.9523
3787.239802 0.9513 0.9510 0.9510 0.9510 0.9510
3793.149978 0.9506 0.9501 0.9500 0.9500 0.9493
3799.060153 0.9483
##END=
