##TITLE=BENZOIC ACID, 4-AMINO-2-CHLORO-, 2-DIETHYLAMINOETHYL ESTER, HYDROCHLORIDE
##JCAMP-DX=4.24 $$ By DXEDIT 1.05 (RS McDonald)
##DATA TYPE=INFRARED SPECTRUM
##CLASS=COBLENTZ III
##OWNER=COBLENTZ SOC.
Collection (C) 2018 copyright by the U.S. Secretary of Commerce
on behalf of the United States of America. All rights reserved.
##DATE=1964/09/01
##NAMES=2-(diethylamino)ethyl 4-amino-2-chlorobenzoate hydrochloride
CHLOROPROCAINE HYDROCHLORIDE
##MOLFORM=C13 H20 Cl2 N2 O2
##MP=176-178 C
##SOURCE REFERENCE=COBLENTZ NO. 05089
##$NIST ID=B6005089
##$NIST SOURCE=COBLENTZ
##$NIST IMAGE=cob5089
##SPECTROMETER/DATA SYSTEM=PERKIN-ELMER 21 (GRATING)
##INSTRUMENT PARAMETERS=FILTER AT ABOUT 10 MICRONS
##STATE=SOLID (KCl DISC)
##PATH LENGTH=
$$ SPECTRAL FEATURE AT 997 CM^-^1 IS MOST OIKELY AN ARTIFACT CAUSED BY FILTER CHANGE
##SAMPLING PROCEDURE=TRANSMISSION
##RESOLUTION=2
##DATA PROCESSING=DIGITIZED BY COBLENTZ SOCIETY (BATCH I) FROM HARD COPY
##XUNITS=1/CM
##YUNITS=TRANSMITTANCE
##XLABEL=Wavenumbers (cm-1)
##YLABEL=Transmittance
##XFACTOR=1
##YFACTOR=1
##DELTAX=1
##FIRSTX=4000
##LASTX=665
##FIRSTY=0.8493
##MAXX=4000
##MINX=665
##MAXY=1.009
##MINY=0.0419
##NPOINTS=3336
##XYDATA=(X++(Y..Y))
4000.000000 0.8493 0.8494 0.8495 0.8496 0.8497
3995.000000 0.8498 0.8499 0.8500 0.8501 0.8502
3990.000000 0.8503 0.8504 0.8505 0.8506 0.8507
3985.000000 0.8508 0.8509 0.8510 0.8511 0.8512
3980.000000 0.8513 0.8515 0.8516 0.8517 0.8518
3975.000000 0.8518 0.8520 0.8521 0.8521 0.8523
3970.000000 0.8524 0.8525 0.8525 0.8527 0.8528
3965.000000 0.8530 0.8531 0.8532 0.8533 0.8535
3960.000000 0.8536 0.8537 0.8539 0.8540 0.8541
3955.000000 0.8542 0.8544 0.8545 0.8546 0.8548
3950.000000 0.8549 0.8550 0.8551 0.8553 0.8554
3945.000000 0.8555 0.8556 0.8558 0.8559 0.8560
3940.000000 0.8562 0.8563 0.8564 0.8566 0.8567
3935.000000 0.8568 0.8568 0.8571 0.8571 0.8573
3930.000000 0.8575 0.8575 0.8577 0.8578 0.8580
3925.000000 0.8581 0.8582 0.8584 0.8585 0.8586
3920.000000 0.8588 0.8589 0.8590 0.8591 0.8593
3915.000000 0.8594 0.8595 0.8597 0.8598 0.8600
3910.000000 0.8601 0.8602 0.8604 0.8605 0.8607
3905.000000 0.8608 0.8609 0.8611 0.8612 0.8613
3900.000000 0.8615 0.8616 0.8617 0.8618 0.8620
3895.000000 0.8621 0.8623 0.8624 0.8625 0.8627
3890.000000 0.8628 0.8628 0.8631 0.8632 0.8633
3885.000000 0.8635 0.8636 0.8637 0.8638 0.8640
3880.000000 0.8641 0.8642 0.8644 0.8645 0.8646
3875.000000 0.8648 0.8649 0.8650 0.8652 0.8653
3870.000000 0.8654 0.8656 0.8657 0.8658 0.8660
3865.000000 0.8661 0.8662 0.8664 0.8665 0.8667
3860.000000 0.8668 0.8670 0.8671 0.8673 0.8674
3855.000000 0.8675 0.8677 0.8678 0.8680 0.8681
3850.000000 0.8682 0.8684 0.8685 0.8686 0.8688
3845.000000 0.8689 0.8690 0.8692 0.8693 0.8694
3840.000000 0.8696 0.8697 0.8699 0.8700 0.8701
3835.000000 0.8703 0.8704 0.8705 0.8707 0.8708
3830.000000 0.8709 0.8711 0.8712 0.8714 0.8715
3825.000000 0.8716 0.8718 0.8718 0.8720 0.8721
3820.000000 0.8724 0.8725 0.8727 0.8728 0.8730
3815.000000 0.8731 0.8732 0.8734 0.8735 0.8736
3810.000000 0.8738 0.8740 0.8741 0.8743 0.8744
3805.000000 0.8746 0.8747 0.8749 0.8750 0.8751
3800.000000 0.8753 0.8754 0.8756 0.8757 0.8759
3795.000000 0.8760 0.8762 0.8763 0.8765 0.8766
3790.000000 0.8768 0.8768 0.8770 0.8771 0.8773
3785.000000 0.8775 0.8777 0.8778 0.8780 0.8781
3780.000000 0.8783 0.8784 0.8785 0.8787 0.8788
3775.000000 0.8790 0.8791 0.8793 0.8795 0.8796
3770.000000 0.8798 0.8799 0.8800 0.8802 0.8803
3765.000000 0.8805 0.8806 0.8808 0.8809 0.8811
3760.000000 0.8813 0.8814 0.8815 0.8816 0.8818
3755.000000 0.8818 0.8820 0.8821 0.8821 0.8823
3750.000000 0.8825 0.8825 0.8827 0.8828 0.8828
3745.000000 0.8830 0.8831 0.8832 0.8833 0.8835
3740.000000 0.8837 0.8839 0.8841 0.8842 0.8844
3735.000000 0.8846 0.8848 0.8850 0.8852 0.8854
3730.000000 0.8856 0.8858 0.8860 0.8862 0.8864
3725.000000 0.8867 0.8871 0.8875 0.8878 0.8883
3720.000000 0.8886 0.8889 0.8892 0.8895 0.8899
3715.000000 0.8902 0.8904 0.8906 0.8908 0.8911
3710.000000 0.8913 0.8915 0.8916 0.8917 0.8917
3705.000000 0.8918 0.8918 0.8920 0.8921 0.8921
3700.000000 0.8924 0.8925 0.8925 0.8927 0.8928
3695.000000 0.8928 0.8928 0.8930 0.8931 0.8931
3690.000000 0.8932 0.8933 0.8933 0.8934 0.8934
3685.000000 0.8935 0.8936 0.8937 0.8937 0.8938
3680.000000 0.8939 0.8939 0.8940 0.8940 0.8941
3675.000000 0.8942 0.8942 0.8943 0.8944 0.8945
3670.000000 0.8945 0.8946 0.8946 0.8947 0.8947
3665.000000 0.8948 0.8949 0.8950 0.8950 0.8951
3660.000000 0.8952 0.8952 0.8953 0.8953 0.8954
3655.000000 0.8954 0.8955 0.8956 0.8957 0.8957
3650.000000 0.8958 0.8959 0.8959 0.8960 0.8961
3645.000000 0.8961 0.8962 0.8962 0.8963 0.8963
3640.000000 0.8964 0.8965 0.8965 0.8966 0.8966
3635.000000 0.8967 0.8967 0.8968 0.8968 0.8968
3630.000000 0.8970 0.8970 0.8971 0.8971 0.8971
3625.000000 0.8971 0.8971 0.8973 0.8973 0.8973
3620.000000 0.8974 0.8974 0.8974 0.8975 0.8975
3615.000000 0.8975 0.8975 0.8975 0.8975 0.8975
3610.000000 0.8977 0.8977 0.8977 0.8978 0.8978
3605.000000 0.8978 0.8978 0.8978 0.8977 0.8975
3600.000000 0.8975 0.8975 0.8974 0.8973 0.8973
3595.000000 0.8971 0.8971 0.8970 0.8970 0.8968
3590.000000 0.8966 0.8964 0.8963 0.8961 0.8958
3585.000000 0.8955 0.8951 0.8948 0.8945 0.8941
3580.000000 0.8938 0.8935 0.8932 0.8928 0.8925
3575.000000 0.8920 0.8915 0.8909 0.8904 0.8899
3570.000000 0.8893 0.8887 0.8881 0.8875 0.8868
3565.000000 0.8863 0.8857 0.8851 0.8845 0.8838
3560.000000 0.8830 0.8821 0.8812 0.8804 0.8795
3555.000000 0.8786 0.8777 0.8767 0.8758 0.8749
3550.000000 0.8740 0.8731 0.8721 0.8713 0.8704
3545.000000 0.8696 0.8689 0.8682 0.8674 0.8667
3540.000000 0.8660 0.8653 0.8646 0.8639 0.8632
3535.000000 0.8625 0.8618 0.8612 0.8605 0.8598
3530.000000 0.8591 0.8584 0.8577 0.8570 0.8563
3525.000000 0.8556 0.8549 0.8542 0.8535 0.8528
3520.000000 0.8521 0.8514 0.8507 0.8500 0.8493
3515.000000 0.8486 0.8480 0.8473 0.8466 0.8459
3510.000000 0.8452 0.8445 0.8438 0.8431 0.8424
3505.000000 0.8417 0.8410 0.8403 0.8396 0.8389
3500.000000 0.8382 0.8375 0.8368 0.8361 0.8354
3495.000000 0.8347 0.8340 0.8333 0.8325 0.8320
3490.000000 0.8314 0.8307 0.8301 0.8295 0.8289
3485.000000 0.8282 0.8275 0.8270 0.8263 0.8257
3480.000000 0.8250 0.8244 0.8238 0.8231 0.8225
3475.000000 0.8218 0.8213 0.8206 0.8200 0.8193
3470.000000 0.8186 0.8178 0.8171 0.8162 0.8151
3465.000000 0.8138 0.8125 0.8114 0.8097 0.8075
3460.000000 0.8054 0.8032 0.8010 0.7915 0.7805
3455.000000 0.7694 0.7582 0.7471 0.7382 0.7293
3450.000000 0.7203 0.7112 0.7024 0.6934 0.6843
3445.000000 0.6753 0.6662 0.6572 0.6483 0.6393
3440.000000 0.6303 0.6212 0.6122 0.6032 0.5941
3435.000000 0.5851 0.5760 0.5670 0.5579 0.5489
3430.000000 0.5398 0.5307 0.5216 0.5125 0.5035
3425.000000 0.4944 0.4853 0.4760 0.4670 0.4579
3420.000000 0.4488 0.4396 0.4305 0.4212 0.4122
3415.000000 0.4030 0.3938 0.3847 0.3755 0.3540
3410.000000 0.3618 0.3598 0.3579 0.3559 0.3540
3405.000000 0.3540 0.3540 0.3540 0.3540 0.3549
3400.000000 0.3574 0.3600 0.3625 0.3650 0.3724
3395.000000 0.3812 0.3903 0.3993 0.4082 0.4172
3390.000000 0.4262 0.4352 0.4442 0.4532 0.4622
3385.000000 0.4712 0.4802 0.4892 0.4982 0.5073
3380.000000 0.5162 0.5253 0.5344 0.5434 0.5525
3375.000000 0.5616 0.5706 0.5797 0.5888 0.5979
3370.000000 0.6069 0.6144 0.6175 0.6207 0.6238
3365.000000 0.6269 0.6279 0.6281 0.6284 0.6286
3360.000000 0.6288 0.6289 0.6290 0.6291 0.6292
3355.000000 0.6293 0.6294 0.6294 0.6295 0.6288
3350.000000 0.6251 0.6212 0.6176 0.6139 0.6093
3345.000000 0.6044 0.5995 0.5946 0.5897 0.5849
3340.000000 0.5800 0.5751 0.5702 0.5653 0.5604
3335.000000 0.5555 0.5505 0.5456 0.5407 0.5358
3330.000000 0.5309 0.5260 0.5210 0.5160 0.5110
3325.000000 0.5062 0.5012 0.4962 0.4914 0.4864
3320.000000 0.4815 0.4765 0.4715 0.4666 0.4616
3315.000000 0.4566 0.4517 0.4467 0.4417 0.4368
3310.000000 0.4318 0.4268 0.4218 0.4169 0.4118
3305.000000 0.4068 0.4018 0.3968 0.3934 0.3918
3300.000000 0.3900 0.3864 0.3868 0.3866 0.3866
3295.000000 0.3866 0.3864 0.3893 0.3928 0.3962
3290.000000 0.3998 0.4047 0.4112 0.4177 0.4242
3285.000000 0.4307 0.4373 0.4438 0.4503 0.4568
3280.000000 0.4633 0.4699 0.4764 0.4829 0.4895
3275.000000 0.4960 0.5026 0.5091 0.5157 0.5223
3270.000000 0.5288 0.5354 0.5420 0.5486 0.5551
3265.000000 0.5617 0.5683 0.5749 0.5815 0.5881
3260.000000 0.5947 0.5998 0.6029 0.6060 0.6091
3255.000000 0.6116 0.6117 0.6118 0.6119 0.6120
3250.000000 0.6121 0.6122 0.6123 0.6123 0.6122
3245.000000 0.6119 0.6117 0.6115 0.6108 0.6099
3240.000000 0.6089 0.6080 0.6052 0.5990 0.5928
3235.000000 0.5865 0.5803 0.5737 0.5672 0.5607
3230.000000 0.5541 0.5476 0.5410 0.5345 0.5279
3225.000000 0.5214 0.5148 0.5082 0.5017 0.4951
3220.000000 0.4885 0.4818 0.4752 0.4686 0.4620
3215.000000 0.4554 0.4488 0.4422 0.4356 0.4290
3210.000000 0.4224 0.4157 0.4091 0.4025 0.3958
3205.000000 0.3892 0.3825 0.3758 0.3692 0.3626
3200.000000 0.3584 0.3544 0.3504 0.3455 0.3456
3195.000000 0.3457 0.3455 0.3454 0.3454 0.3454
3190.000000 0.3454 0.3454 0.3492 0.3542 0.3592
3185.000000 0.3642 0.3718 0.3803 0.3889 0.3974
3180.000000 0.4059 0.4147 0.4233 0.4319 0.4405
3175.000000 0.4491 0.4578 0.4664 0.4750 0.4837
3170.000000 0.4923 0.5009 0.5096 0.5183 0.5269
3165.000000 0.5356 0.5443 0.5530 0.5616 0.5703
3160.000000 0.5790 0.5877 0.5964 0.6052 0.6139
3155.000000 0.6226 0.6312 0.6400 0.6465 0.6517
3150.000000 0.6567 0.6618 0.6650 0.6671 0.6692
3145.000000 0.6711 0.6732 0.6751 0.6771 0.6791
3140.000000 0.6826 0.6871 0.6914 0.6958 0.6982
3135.000000 0.6999 0.7015 0.7033 0.7065 0.7103
3130.000000 0.7140 0.7176 0.7203 0.7226 0.7251
3125.000000 0.7276 0.7283 0.7290 0.7296 0.7303
3120.000000 0.7308 0.7311 0.7317 0.7321 0.7322
3115.000000 0.7324 0.7325 0.7328 0.7331 0.7334
3110.000000 0.7336 0.7339 0.7342 0.7344 0.7347
3105.000000 0.7350 0.7353 0.7356 0.7358 0.7361
3100.000000 0.7365 0.7368 0.7371 0.7375 0.7378
3095.000000 0.7383 0.7387 0.7391 0.7395 0.7399
3090.000000 0.7404 0.7410 0.7415 0.7421 0.7428
3085.000000 0.7438 0.7447 0.7457 0.7471 0.7489
3080.000000 0.7507 0.7524 0.7536 0.7546 0.7557
3075.000000 0.7567 0.7578 0.7591 0.7603 0.7615
3070.000000 0.7628 0.7642 0.7655 0.7667 0.7678
3065.000000 0.7689 0.7700 0.7706 0.7711 0.7715
3060.000000 0.7721 0.7725 0.7731 0.7736 0.7741
3055.000000 0.7745 0.7749 0.7753 0.7758 0.7761
3050.000000 0.7765 0.7771 0.7778 0.7788 0.7798
3045.000000 0.7807 0.7818 0.7828 0.7839 0.7850
3040.000000 0.7861 0.7875 0.7887 0.7898 0.7908
3035.000000 0.7918 0.7926 0.7932 0.7937 0.7941
3030.000000 0.7945 0.7948 0.7950 0.7964 0.7954
3025.000000 0.7955 0.7956 0.7956 0.7957 0.7957
3020.000000 0.7957 0.7956 0.7954 0.7951 0.7949
3015.000000 0.7940 0.7928 0.7915 0.7903 0.7889
3010.000000 0.7875 0.7861 0.7843 0.7817 0.7792
3005.000000 0.7765 0.7735 0.7703 0.7669 0.7630
3000.000000 0.7558 0.7489 0.7418 0.7371 0.7343
2995.000000 0.7314 0.7285 0.7258 0.7233 0.7207
2990.000000 0.7183 0.7161 0.7139 0.7118 0.7096
2985.000000 0.7074 0.7053 0.7030 0.7004 0.6978
2980.000000 0.6953 0.6926 0.6900 0.6874 0.6847
2975.000000 0.6817 0.6787 0.6757 0.6725 0.6695
2970.000000 0.6664 0.6633 0.6601 0.6568 0.6536
2965.000000 0.6506 0.6478 0.6450 0.6421 0.6396
2960.000000 0.6371 0.6346 0.6323 0.6302 0.6281
2955.000000 0.6260 0.6242 0.6224 0.6207 0.6191
2950.000000 0.6177 0.6162 0.6149 0.6137 0.6124
2945.000000 0.6112 0.6106 0.6103 0.6100 0.6097
2940.000000 0.6095 0.6094 0.6092 0.6091 0.6091
2935.000000 0.6091 0.6091 0.6092 0.6093 0.6094
2930.000000 0.6096 0.6099 0.6101 0.6104 0.6109
2925.000000 0.6114 0.6118 0.6129 0.6140 0.6151
2920.000000 0.6167 0.6187 0.6207 0.6232 0.6277
2915.000000 0.6323 0.6369 0.6404 0.6434 0.6465
2910.000000 0.6493 0.6517 0.6542 0.6565 0.6594
2905.000000 0.6621 0.6650 0.6680 0.6710 0.6740
2900.000000 0.6769 0.6801 0.6831 0.6861 0.6889
2895.000000 0.6918 0.6947 0.6975 0.7004 0.7033
2890.000000 0.7060 0.7084 0.7107 0.7130 0.7153
2885.000000 0.7175 0.7199 0.7219 0.7239 0.7258
2880.000000 0.7276 0.7294 0.7311 0.7328 0.7347
2875.000000 0.7365 0.7383 0.7404 0.7428 0.7451
2870.000000 0.7475 0.7499 0.7521 0.7545 0.7561
2865.000000 0.7578 0.7595 0.7610 0.7625 0.7639
2860.000000 0.7651 0.7661 0.7672 0.7682 0.7689
2855.000000 0.7695 0.7701 0.7707 0.7712 0.7718
2850.000000 0.7724 0.7728 0.7733 0.7737 0.7741
2845.000000 0.7744 0.7748 0.7751 0.7755 0.7758
2840.000000 0.7761 0.7764 0.7767 0.7768 0.7771
2835.000000 0.7772 0.7775 0.7778 0.7781 0.7783
2830.000000 0.7784 0.7785 0.7787 0.7788 0.7790
2825.000000 0.7791 0.7793 0.7794 0.7795 0.7796
2820.000000 0.7798 0.7799 0.7800 0.7800 0.7800
2815.000000 0.7801 0.7801 0.7801 0.7801 0.7800
2810.000000 0.7798 0.7797 0.7793 0.7790 0.7787
2805.000000 0.7781 0.7774 0.7768 0.7761 0.7754
2800.000000 0.7747 0.7739 0.7732 0.7725 0.7717
2795.000000 0.7710 0.7703 0.7695 0.7688 0.7681
2790.000000 0.7672 0.7667 0.7660 0.7654 0.7651
2785.000000 0.7651 0.7649 0.7647 0.7645 0.7643
2780.000000 0.7643 0.7643 0.7643 0.7643 0.7643
2775.000000 0.7643 0.7644 0.7645 0.7646 0.7647
2770.000000 0.7648 0.7649 0.7650 0.7651 0.7653
2765.000000 0.7654 0.7655 0.7656 0.7657 0.7658
2760.000000 0.7660 0.7661 0.7661 0.7662 0.7664
2755.000000 0.7664 0.7665 0.7665 0.7665 0.7667
2750.000000 0.7668 0.7668 0.7668 0.7668 0.7668
2745.000000 0.7667 0.7665 0.7662 0.7661 0.7658
2740.000000 0.7655 0.7651 0.7648 0.7639 0.7631
2735.000000 0.7621 0.7604 0.7586 0.7568 0.7550
2730.000000 0.7531 0.7511 0.7484 0.7457 0.7428
2725.000000 0.7400 0.7371 0.7344 0.7321 0.7299
2720.000000 0.7276 0.7257 0.7237 0.7217 0.7196
2715.000000 0.7175 0.7154 0.7131 0.7108 0.7084
2710.000000 0.7060 0.7036 0.7018 0.7008 0.6998
2705.000000 0.6987 0.6975 0.6965 0.6955 0.6944
2700.000000 0.6933 0.6921 0.6911 0.6901 0.6894
2695.000000 0.6886 0.6878 0.6869 0.6861 0.6853
2690.000000 0.6845 0.6837 0.6828 0.6819 0.6810
2685.000000 0.6801 0.6791 0.6781 0.6771 0.6761
2680.000000 0.6751 0.6741 0.6730 0.6718 0.6708
2675.000000 0.6696 0.6685 0.6672 0.6661 0.6650
2670.000000 0.6634 0.6617 0.6599 0.6575 0.6550
2665.000000 0.6521 0.6480 0.6438 0.6397 0.6355
2660.000000 0.6312 0.6267 0.6217 0.6167 0.6120
2655.000000 0.6075 0.6029 0.6001 0.5975 0.5949
2650.000000 0.5920 0.5892 0.5862 0.5829 0.5797
2645.000000 0.5765 0.5734 0.5703 0.5672 0.5642
2640.000000 0.5612 0.5582 0.5552 0.5522 0.5491
2635.000000 0.5460 0.5431 0.5401 0.5370 0.5340
2630.000000 0.5309 0.5278 0.5248 0.5217 0.5187
2625.000000 0.5156 0.5126 0.5095 0.5065 0.5034
2620.000000 0.5004 0.4973 0.4943 0.4912 0.4881
2615.000000 0.4851 0.4820 0.4789 0.4758 0.4728
2610.000000 0.4697 0.4666 0.4635 0.4604 0.4573
2605.000000 0.4542 0.4510 0.4480 0.4449 0.4417
2600.000000 0.4386 0.4355 0.4324 0.4293 0.4262
2595.000000 0.4231 0.4199 0.4168 0.4137 0.4106
2590.000000 0.4074 0.4043 0.4012 0.3980 0.3949
2585.000000 0.3918 0.3886 0.3855 0.3830 0.3812
2580.000000 0.3793 0.3777 0.3760 0.3746 0.3730
2575.000000 0.3714 0.3704 0.3696 0.3688 0.3686
2570.000000 0.3684 0.3682 0.3680 0.3664 0.3677
2565.000000 0.3676 0.3675 0.3682 0.3688 0.3698
2560.000000 0.3712 0.3726 0.3745 0.3764 0.3784
2555.000000 0.3808 0.3832 0.3856 0.3882 0.3907
2550.000000 0.3941 0.3975 0.4009 0.4043 0.4077
2545.000000 0.4119 0.4162 0.4209 0.4262 0.4318
2540.000000 0.4381 0.4450 0.4517 0.4570 0.4622
2535.000000 0.4662 0.4690 0.4718 0.4742 0.4766
2530.000000 0.4789 0.4810 0.4832 0.4854 0.4875
2525.000000 0.4894 0.4910 0.4926 0.4934 0.4985
2520.000000 0.4944 0.4946 0.4949 0.4950 0.4951
2515.000000 0.4953 0.4953 0.4953 0.4951 0.4948
2510.000000 0.4945 0.4942 0.4938 0.4935 0.4931
2505.000000 0.4927 0.4921 0.4915 0.4909 0.4903
2500.000000 0.4897 0.4890 0.4884 0.4874 0.4860
2495.000000 0.4847 0.4832 0.4817 0.4802 0.4786
2490.000000 0.4771 0.4745 0.4720 0.4693 0.4662
2485.000000 0.4633 0.4606 0.4579 0.4548 0.4515
2480.000000 0.4480 0.4433 0.4387 0.4310 0.4221
2475.000000 0.4149 0.4127 0.4105 0.4087 0.4070
2470.000000 0.4056 0.4048 0.4039 0.4032 0.4027
2465.000000 0.4023 0.4020 0.4016 0.4016 0.4014
2460.000000 0.4014 0.4014 0.4016 0.4018 0.4021
2455.000000 0.4025 0.4030 0.4036 0.4042 0.4048
2450.000000 0.4064 0.4080 0.4099 0.4116 0.4134
2445.000000 0.4151 0.4168 0.4185 0.4203 0.4224
2440.000000 0.4250 0.4276 0.4305 0.4333 0.4381
2435.000000 0.4439 0.4501 0.4571 0.4641 0.4697
2430.000000 0.4751 0.4799 0.4843 0.4895 0.4984
2425.000000 0.5073 0.5159 0.5243 0.5343 0.5459
2420.000000 0.5562 0.5598 0.5632 0.5667 0.5701
2415.000000 0.5734 0.5766 0.5798 0.5830 0.5860
2410.000000 0.5893 0.5926 0.5960 0.5996 0.6032
2405.000000 0.6068 0.6104 0.6136 0.6167 0.6197
2400.000000 0.6227 0.6255 0.6276 0.6298 0.6319
2395.000000 0.6341 0.6362 0.6384 0.6406 0.6426
2390.000000 0.6448 0.6468 0.6490 0.6511 0.6533
2385.000000 0.6558 0.6589 0.6619 0.6655 0.6690
2380.000000 0.6722 0.6757 0.6785 0.6810 0.6834
2375.000000 0.6855 0.6875 0.6898 0.6919 0.6934
2370.000000 0.6948 0.6960 0.6971 0.6983 0.6995
2365.000000 0.7007 0.7018 0.7028 0.7041 0.7051
2360.000000 0.7061 0.7068 0.7076 0.7086 0.7094
2355.000000 0.7103 0.7111 0.7121 0.7131 0.7141
2350.000000 0.7151 0.7160 0.7169 0.7180 0.7191
2345.000000 0.7201 0.7214 0.7225 0.7238 0.7249
2340.000000 0.7261 0.7272 0.7286 0.7301 0.7315
2335.000000 0.7328 0.7342 0.7356 0.7371 0.7396
2330.000000 0.7419 0.7451 0.7483 0.7508 0.7532
2325.000000 0.7554 0.7575 0.7596 0.7615 0.7636
2320.000000 0.7654 0.7671 0.7689 0.7707 0.7725
2315.000000 0.7742 0.7761 0.7780 0.7806 0.7835
2310.000000 0.7864 0.7894 0.7922 0.7953 0.7983
2305.000000 0.8012 0.8044 0.8075 0.8105 0.8128
2300.000000 0.8151 0.8172 0.8195 0.8217 0.8239
2295.000000 0.8261 0.8283 0.8302 0.8318 0.8334
2290.000000 0.8349 0.8364 0.8378 0.8394 0.8409
2285.000000 0.8423 0.8438 0.8453 0.8465 0.8477
2280.000000 0.8489 0.8501 0.8513 0.8525 0.8537
2275.000000 0.8548 0.8559 0.8568 0.8578 0.8588
2270.000000 0.8598 0.8608 0.8618 0.8627 0.8635
2265.000000 0.8641 0.8648 0.8654 0.8660 0.8667
2260.000000 0.8673 0.8680 0.8687 0.8692 0.8698
2255.000000 0.8704 0.8710 0.8716 0.8721 0.8725
2250.000000 0.8728 0.8732 0.8734 0.8736 0.8739
2245.000000 0.8742 0.8745 0.8747 0.8750 0.8752
2240.000000 0.8754 0.8756 0.8759 0.8761 0.8764
2235.000000 0.8766 0.8768 0.8771 0.8774 0.8778
2230.000000 0.8782 0.8786 0.8790 0.8794 0.8798
2225.000000 0.8803 0.8808 0.8814 0.8821 0.8828
2220.000000 0.8834 0.8841 0.8847 0.8853 0.8860
2215.000000 0.8866 0.8873 0.8878 0.8886 0.8893
2210.000000 0.8901 0.8908 0.8915 0.8923 0.8930
2205.000000 0.8938 0.8945 0.8954 0.8964 0.8975
2200.000000 0.8987 0.8998 0.9009 0.9021 0.9032
2195.000000 0.9042 0.9054 0.9065 0.9075 0.9087
2190.000000 0.9094 0.9101 0.9107 0.9113 0.9118
2185.000000 0.9123 0.9127 0.9130 0.9134 0.9137
2180.000000 0.9141 0.9145 0.9148 0.9152 0.9155
2175.000000 0.9158 0.9161 0.9164 0.9168 0.9170
2170.000000 0.9173 0.9175 0.9178 0.9182 0.9185
2165.000000 0.9187 0.9190 0.9193 0.9196 0.9199
2160.000000 0.9202 0.9204 0.9206 0.9209 0.9211
2155.000000 0.9213 0.9215 0.9217 0.9220 0.9223
2150.000000 0.9225 0.9227 0.9228 0.9231 0.9233
2145.000000 0.9235 0.9236 0.9237 0.9238 0.9239
2140.000000 0.9240 0.9241 0.9242 0.9243 0.9244
2135.000000 0.9245 0.9249 0.9252 0.9255 0.9259
2130.000000 0.9262 0.9266 0.9268 0.9273 0.9277
2125.000000 0.9281 0.9285 0.9289 0.9292 0.9296
2120.000000 0.9300 0.9304 0.9308 0.9312 0.9316
2115.000000 0.9320 0.9324 0.9328 0.9331 0.9335
2110.000000 0.9339 0.9343 0.9347 0.9351 0.9355
2105.000000 0.9359 0.9363 0.9367 0.9371 0.9375
2100.000000 0.9378 0.9383 0.9387 0.9391 0.9395
2095.000000 0.9399 0.9403 0.9407 0.9411 0.9415
2090.000000 0.9418 0.9420 0.9423 0.9425 0.9428
2085.000000 0.9431 0.9433 0.9435 0.9438 0.9441
2080.000000 0.9443 0.9446 0.9449 0.9451 0.9453
2075.000000 0.9455 0.9457 0.9458 0.9460 0.9462
2070.000000 0.9464 0.9466 0.9468 0.9470 0.9471
2065.000000 0.9473 0.9475 0.9478 0.9480 0.9483
2060.000000 0.9485 0.9487 0.9490 0.9492 0.9494
2055.000000 0.9497 0.9500 0.9502 0.9505 0.9507
2050.000000 0.9510 0.9512 0.9515 0.9518 0.9520
2045.000000 0.9521 0.9525 0.9527 0.9530 0.9532
2040.000000 0.9535 0.9538 0.9540 0.9543 0.9545
2035.000000 0.9548 0.9550 0.9553 0.9556 0.9558
2030.000000 0.9561 0.9564 0.9567 0.9570 0.9573
2025.000000 0.9575 0.9578 0.9582 0.9585 0.9589
2020.000000 0.9592 0.9594 0.9597 0.9600 0.9603
2015.000000 0.9606 0.9609 0.9613 0.9616 0.9618
2010.000000 0.9621 0.9625 0.9628 0.9632 0.9635
2005.000000 0.9638 0.9641 0.9644 0.9647 0.9650
2000.000000 0.9654 0.9657 0.9660 0.9663 0.9664
1995.000000 0.9665 0.9666 0.9667 0.9668 0.9668
1990.000000 0.9668 0.9670 0.9671 0.9671 0.9671
1985.000000 0.9673 0.9674 0.9675 0.9675 0.9677
1980.000000 0.9678 0.9678 0.9680 0.9682 0.9683
1975.000000 0.9684 0.9685 0.9687 0.9687 0.9688
1970.000000 0.9690 0.9691 0.9692 0.9693 0.9695
1965.000000 0.9696 0.9697 0.9698 0.9699 0.9699
1960.000000 0.9699 0.9700 0.9700 0.9701 0.9701
1955.000000 0.9702 0.9703 0.9705 0.9706 0.9708
1950.000000 0.9710 0.9711 0.9712 0.9714 0.9715
1945.000000 0.9716 0.9718 0.9718 0.9718 0.9720
1940.000000 0.9721 0.9723 0.9723 0.9725 0.9725
1935.000000 0.9725 0.9728 0.9728 0.9728 0.9730
1930.000000 0.9731 0.9733 0.9733 0.9734 0.9735
1925.000000 0.9739 0.9743 0.9747 0.9751 0.9755
1920.000000 0.9758 0.9760 0.9761 0.9763 0.9763
1915.000000 0.9764 0.9766 0.9766 0.9768 0.9768
1910.000000 0.9768 0.9771 0.9771 0.9771 0.9774
1905.000000 0.9775 0.9777 0.9778 0.9780 0.9782
1900.000000 0.9783 0.9784 0.9786 0.9787 0.9789
1895.000000 0.9790 0.9791 0.9793 0.9796 0.9798
1890.000000 0.9799 0.9801 0.9803 0.9805 0.9807
1885.000000 0.9808 0.9810 0.9813 0.9814 0.9816
1880.000000 0.9818 0.9820 0.9821 0.9824 0.9827
1875.000000 0.9830 0.9832 0.9834 0.9836 0.9838
1870.000000 0.9840 0.9842 0.9844 0.9847 0.9850
1865.000000 0.9853 0.9858 0.9861 0.9865 0.9870
1860.000000 0.9874 0.9878 0.9884 0.9889 0.9894
1855.000000 0.9900 0.9907 0.9915 0.9923 0.9932
1850.000000 0.9941 0.9950 0.9962 0.9974 0.9987
1845.000000 1.0000 1.0008 1.0017 1.0025 1.0033
1840.000000 1.0042 1.0049 1.0055 1.0061 1.0066
1835.000000 1.0071 1.0075 1.0077 1.0077 1.0075
1830.000000 1.0075 1.0071 1.0067 1.0061 1.0056
1825.000000 1.0054 1.0052 1.0051 1.0049 1.0047
1820.000000 1.0047 1.0047 1.0049 1.0050 1.0055
1815.000000 1.0060 1.0066 1.0071 1.0077 1.0081
1810.000000 1.0081 1.0080 1.0071 1.0058 1.0042
1805.000000 1.0025 1.0010 0.9998 0.9992 0.9993
1800.000000 1.0000 1.0011 1.0021 1.0033 1.0044
1795.000000 1.0056 1.0084 1.0070 1.0075 1.0082
1790.000000 1.0088 1.0090 1.0086 1.0077 1.0052
1785.000000 1.0028 1.0005 0.9984 0.9964 0.9944
1780.000000 0.9924 0.9903 0.9884 0.9863 0.9841
1775.000000 0.9818 0.9796 0.9777 0.9777 0.9777
1770.000000 0.9780 0.9784 0.9788 0.9791 0.9794
1765.000000 0.9797 0.9799 0.9801 0.9803 0.9805
1760.000000 0.9807 0.9807 0.9806 0.9806 0.9805
1755.000000 0.9800 0.9792 0.9783 0.9775 0.9760
1750.000000 0.9743 0.9718 0.9684 0.9651 0.9587
1745.000000 0.9521 0.9461 0.9404 0.9342 0.9259
1740.000000 0.9175 0.9093 0.9004 0.8905 0.8797
1735.000000 0.8680 0.8558 0.8448 0.8345 0.8200
1730.000000 0.7975 0.7894 0.7700 0.7365 0.6978
1725.000000 0.6592 0.6204 0.5816 0.5427 0.5038
1720.000000 0.4648 0.4258 0.3866 0.3477 0.3084
1715.000000 0.2693 0.2301 0.1908 0.1596 0.1461
1710.000000 0.1349 0.1180 0.1084 0.1048 0.1037
1705.000000 0.1035 0.1032 0.1032 0.1048 0.1125
1700.000000 0.1416 0.1831 0.2273 0.2714 0.3155
1695.000000 0.3598 0.4000 0.4171 0.4269 0.4435
1690.000000 0.4812 0.5358 0.5490 0.5717 0.5873
1685.000000 0.6008 0.6134 0.6236 0.6301 0.6336
1680.000000 0.6370 0.6405 0.6446 0.6487 0.6531
1675.000000 0.6576 0.6622 0.6684 0.6785 0.6922
1670.000000 0.7000 0.7040 0.7076 0.7112 0.7153
1665.000000 0.7183 0.7199 0.7205 0.7205 0.7198
1660.000000 0.7199 0.7193 0.7175 0.7140 0.7081
1655.000000 0.7011 0.6878 0.6715 0.6601 0.6515
1650.000000 0.6428 0.6300 0.5648 0.5281 0.4915
1645.000000 0.4551 0.4185 0.3818 0.3452 0.3084
1640.000000 0.2718 0.2350 0.2015 0.1820 0.1804
1635.000000 0.1802 0.1806 0.1834 0.2045 0.2322
1630.000000 0.2606 0.2890 0.3175 0.3459 0.3745
1625.000000 0.4030 0.4317 0.4603 0.4890 0.5123
1620.000000 0.5196 0.5209 0.5198 0.5220 0.5219
1615.000000 0.5205 0.5167 0.4887 0.4549 0.4207
1610.000000 0.3864 0.3522 0.3178 0.2834 0.2490
1605.000000 0.2145 0.1800 0.1453 0.1107 0.0761
1600.000000 0.0524 0.0448 0.0433 0.0421 0.0419
1595.000000 0.0419 0.0427 0.0447 0.0491 0.0564
1590.000000 0.0693 0.0939 0.1310 0.1657 0.1893
1585.000000 0.2131 0.2368 0.2605 0.2844 0.3082
1580.000000 0.3320 0.3559 0.3798 0.4037 0.4277
1575.000000 0.4517 0.4757 0.4998 0.5239 0.5480
1570.000000 0.5721 0.5962 0.6185 0.6346 0.6455
1565.000000 0.6536 0.6586 0.6611 0.6628 0.6637
1560.000000 0.6637 0.6637 0.6621 0.6468 0.6229
1555.000000 0.5982 0.5736 0.5538 0.5506 0.5496
1550.000000 0.5510 0.5636 0.5772 0.5909 0.6045
1545.000000 0.6172 0.6223 0.6276 0.6349 0.6503
1540.000000 0.6676 0.6808 0.6942 0.7075 0.7208
1535.000000 0.7341 0.7475 0.7572 0.7633 0.7686
1530.000000 0.7733 0.7780 0.7831 0.7881 0.7925
1525.000000 0.7967 0.7999 0.8015 0.8026 0.8037
1520.000000 0.8033 0.8028 0.8011 0.7890 0.7726
1515.000000 0.7564 0.7400 0.7237 0.7072 0.6908
1510.000000 0.6744 0.6580 0.6415 0.6288 0.6278
1505.000000 0.6320 0.6464 0.6608 0.6754 0.6899
1500.000000 0.7044 0.7189 0.7335 0.7480 0.7572
1495.000000 0.7578 0.7580 0.7522 0.7310 0.7026
1490.000000 0.6744 0.6458 0.6174 0.5890 0.5605
1485.000000 0.5398 0.5349 0.5348 0.5410 0.5498
1480.000000 0.5587 0.5677 0.5767 0.5824 0.5839
1475.000000 0.5841 0.5831 0.5743 0.5616 0.5488
1470.000000 0.5360 0.5232 0.5199 0.5188 0.5174
1465.000000 0.5152 0.5116 0.5068 0.4976 0.4992
1460.000000 0.4992 0.4993 0.5020 0.5077 0.5195
1455.000000 0.5306 0.5417 0.5528 0.5639 0.5751
1450.000000 0.5851 0.5902 0.5935 0.5962 0.5982
1445.000000 0.5992 0.5993 0.5993 0.5985 0.5971
1440.000000 0.5955 0.5934 0.5910 0.5888 0.5866
1435.000000 0.5850 0.5840 0.5855 0.5919 0.6137
1430.000000 0.6432 0.6728 0.7025 0.7250 0.7318
1425.000000 0.7355 0.7378 0.7407 0.7408 0.7408
1420.000000 0.7408 0.7386 0.7306 0.7217 0.7126
1415.000000 0.7065 0.7069 0.7098 0.7184 0.7305
1410.000000 0.7440 0.7554 0.7584 0.7594 0.7599
1405.000000 0.7587 0.7528 0.7446 0.7369 0.7287
1400.000000 0.7160 0.7004 0.6849 0.6695 0.6540
1395.000000 0.6385 0.6229 0.6085 0.6051 0.6041
1390.000000 0.6060 0.6208 0.6407 0.6606 0.6805
1385.000000 0.6976 0.7054 0.7128 0.7208 0.7345
1380.000000 0.7524 0.7647 0.7771 0.7848 0.7858
1375.000000 0.7865 0.7865 0.7872 0.7868 0.7846
1370.000000 0.7812 0.7751 0.7682 0.7593 0.7514
1365.000000 0.7444 0.7258 0.6824 0.6364 0.5903
1360.000000 0.4949 0.4949 0.4949 0.4981 0.5122
1355.000000 0.5272 0.5422 0.5573 0.5724 0.5875
1350.000000 0.6027 0.6178 0.6430 0.6425 0.6426
1345.000000 0.6260 0.5819 0.5342 0.4865 0.4410
1340.000000 0.4195 0.4143 0.4095 0.4049 0.3999
1335.000000 0.3928 0.3747 0.3537 0.3326 0.3115
1330.000000 0.2904 0.2684 0.2611 0.2574 0.2564
1325.000000 0.2562 0.2611 0.2764 0.3014 0.3264
1320.000000 0.3516 0.3768 0.4020 0.4272 0.4524
1315.000000 0.4777 0.5030 0.5284 0.5538 0.5793
1310.000000 0.6030 0.6177 0.6274 0.6350 0.6415
1305.000000 0.6480 0.6542 0.6597 0.6643 0.6689
1300.000000 0.6731 0.6767 0.6797 0.6791 0.6817
1295.000000 0.6815 0.6771 0.6688 0.6601 0.6454
1290.000000 0.6301 0.6166 0.6023 0.5880 0.5795
1285.000000 0.5724 0.5648 0.5564 0.5462 0.5239
1280.000000 0.4917 0.4640 0.4326 0.4012 0.3698
1275.000000 0.3382 0.3067 0.2751 0.2434 0.2118
1270.000000 0.1800 0.1548 0.1379 0.1270 0.1190
1265.000000 0.1142 0.1148 0.1130 0.1170 0.1249
1260.000000 0.1349 0.1525 0.1659 0.1623 0.1619
1255.000000 0.1584 0.1530 0.1461 0.1390 0.1330
1250.000000 0.1287 0.1248 0.1219 0.1188 0.1146
1245.000000 0.1171 0.1183 0.1374 0.1701 0.1973
1240.000000 0.2245 0.2518 0.2791 0.3065 0.3339
1235.000000 0.3612 0.3888 0.4164 0.4440 0.4716
1230.000000 0.4993 0.5272 0.5508 0.5732 0.5855
1225.000000 0.5954 0.6070 0.6214 0.6389 0.6550
1220.000000 0.6708 0.6865 0.6961 0.7051 0.7112
1215.000000 0.7174 0.7234 0.7295 0.7355 0.7401
1210.000000 0.7444 0.7488 0.7533 0.7578 0.7614
1205.000000 0.7650 0.7686 0.7717 0.7744 0.7771
1200.000000 0.7797 0.7824 0.7850 0.7871 0.7890
1195.000000 0.7908 0.7925 0.7942 0.7957 0.7972
1190.000000 0.7988 0.8000 0.8011 0.8024 0.8036
1185.000000 0.8064 0.8041 0.8034 0.8018 0.7982
1180.000000 0.7935 0.7855 0.7745 0.7615 0.7572
1175.000000 0.7597 0.7610 0.7665 0.7732 0.7772
1170.000000 0.7811 0.7819 0.7824 0.7812 0.7792
1165.000000 0.7746 0.7649 0.7512 0.7315 0.7118
1160.000000 0.6961 0.6819 0.6624 0.6461 0.6308
1155.000000 0.6168 0.5903 0.5499 0.5095 0.4689
1150.000000 0.4286 0.4284 0.4295 0.4465 0.4706
1145.000000 0.4948 0.5190 0.5432 0.5676 0.5919
1140.000000 0.6162 0.6280 0.6310 0.6309 0.6306
1135.000000 0.6267 0.6095 0.5864 0.5632 0.5400
1130.000000 0.5168 0.4935 0.4701 0.4467 0.4234
1125.000000 0.3999 0.3764 0.3528 0.3293 0.3056
1120.000000 0.2820 0.2583 0.2309 0.2198 0.2125
1115.000000 0.2077 0.2049 0.2040 0.2034 0.2043
1110.000000 0.2119 0.2194 0.2325 0.2489 0.2687
1105.000000 0.3055 0.3300 0.3545 0.3790 0.4036
1100.000000 0.4282 0.4529 0.4776 0.4999 0.5119
1095.000000 0.5240 0.5501 0.5737 0.5898 0.6010
1090.000000 0.6110 0.6221 0.6326 0.6392 0.6438
1085.000000 0.6469 0.6492 0.6512 0.6536 0.6562
1080.000000 0.6585 0.6599 0.6607 0.6606 0.6612
1075.000000 0.6603 0.6578 0.6506 0.6387 0.6287
1070.000000 0.6193 0.6205 0.6203 0.6253 0.6314
1065.000000 0.6376 0.6446 0.6517 0.6583 0.6628
1060.000000 0.6668 0.6701 0.6742 0.6740 0.6736
1055.000000 0.6715 0.6686 0.6656 0.6635 0.6636
1050.000000 0.6636 0.6640 0.6640 0.6640 0.6601
1045.000000 0.6518 0.6418 0.6345 0.6301 0.6260
1040.000000 0.6237 0.6230 0.6224 0.6202 0.6117
1035.000000 0.5787 0.5422 0.5055 0.4446 0.4464
1030.000000 0.4450 0.4492 0.4691 0.4914 0.5138
1025.000000 0.5362 0.5503 0.5494 0.5487 0.5457
1020.000000 0.5376 0.5060 0.4810 0.4560 0.4309
1015.000000 0.4087 0.4086 0.4084 0.4086 0.4146
1010.000000 0.4232 0.4365 0.4741 0.5144 0.5548
1005.000000 0.5930 0.6131 0.6289 0.6426 0.6537
1000.000000 0.6701 0.6925 0.6717 0.6349 0.6656
995.000000 0.7030 0.7169 0.7255 0.7311 0.7358
990.000000 0.7401 0.7431 0.7455 0.7472 0.7491
985.000000 0.7508 0.7521 0.7532 0.7543 0.7553
980.000000 0.7562 0.7571 0.7581 0.7591 0.7600
975.000000 0.7610 0.7618 0.7626 0.7636 0.7643
970.000000 0.7651 0.7660 0.7668 0.7678 0.7688
965.000000 0.7698 0.7708 0.7718 0.7730 0.7740
960.000000 0.7751 0.7761 0.7774 0.7786 0.7794
955.000000 0.7796 0.7797 0.7797 0.7801 0.7808
950.000000 0.7824 0.7840 0.7858 0.7881 0.7903
945.000000 0.7925 0.7946 0.7965 0.7986 0.8001
940.000000 0.8015 0.8030 0.8038 0.8047 0.8050
935.000000 0.8034 0.8048 0.8038 0.8001 0.7943
930.000000 0.7874 0.7672 0.7388 0.7101 0.6815
925.000000 0.6528 0.6241 0.5882 0.5885 0.5967
920.000000 0.6309 0.6671 0.7033 0.7397 0.7557
915.000000 0.7582 0.7601 0.7618 0.7632 0.7638
910.000000 0.7644 0.7631 0.7610 0.7572 0.7507
905.000000 0.7408 0.7294 0.7260 0.7254 0.7284
900.000000 0.7341 0.7430 0.7514 0.7618 0.7721
895.000000 0.7803 0.7891 0.7974 0.8037 0.8050
890.000000 0.8050 0.8060 0.8096 0.8146 0.8192
885.000000 0.8215 0.8212 0.8225 0.8224 0.8203
880.000000 0.8157 0.8056 0.7965 0.7911 0.7868
875.000000 0.7837 0.7821 0.7811 0.7811 0.7810
870.000000 0.7781 0.7586 0.7291 0.6996 0.6700
865.000000 0.6366 0.6366 0.6421 0.6571 0.6722
860.000000 0.6903 0.7071 0.7228 0.7365 0.7510
855.000000 0.7688 0.7864 0.7962 0.8044 0.8118
850.000000 0.8191 0.8263 0.8315 0.8363 0.8406
845.000000 0.8446 0.8471 0.8478 0.8500 0.8499
840.000000 0.8487 0.8451 0.8404 0.8348 0.8265
835.000000 0.8138 0.7968 0.7494 0.7250 0.7007
830.000000 0.6761 0.6517 0.6356 0.6229 0.6247
825.000000 0.6279 0.6412 0.6658 0.7048 0.7446
820.000000 0.7832 0.8017 0.8154 0.8240 0.8318
815.000000 0.8389 0.8450 0.8494 0.8525 0.8552
810.000000 0.8571 0.8584 0.8598 0.8613 0.8601
805.000000 0.8642 0.8641 0.8640 0.8624 0.8597
800.000000 0.8536 0.8432 0.8260 0.8085 0.7908
795.000000 0.7733 0.7557 0.7389 0.7406 0.7435
790.000000 0.7596 0.7821 0.8005 0.8151 0.8304
785.000000 0.8453 0.8510 0.8539 0.8574 0.8636
780.000000 0.8678 0.8694 0.8709 0.8718 0.8731
775.000000 0.8725 0.8695 0.8630 0.8520 0.8316
770.000000 0.7767 0.7465 0.7285 0.7056 0.6819
765.000000 0.5904 0.4910 0.3916 0.3258 0.3386
760.000000 0.4605 0.5740 0.6736 0.7651 0.7971
755.000000 0.8169 0.8287 0.8367 0.8416 0.8458
750.000000 0.8494 0.8528 0.8562 0.8597 0.8632
745.000000 0.8668 0.8707 0.8748 0.8782 0.8805
740.000000 0.8818 0.8831 0.8847 0.8864 0.8871
735.000000 0.8880 0.8894 0.8907 0.8916 0.8916
730.000000 0.8916 0.8912 0.8907 0.8904 0.8898
725.000000 0.8893 0.8888 0.8886 0.8885 0.8885
720.000000 0.8887 0.8897 0.8925 0.8963 0.9000
715.000000 0.9016 0.9025 0.9018 0.9018 0.9003
710.000000 0.8955 0.8931 0.8924 0.8916 0.8891
705.000000 0.8877 0.8868 0.8860 0.8813 0.8781
700.000000 0.8768 0.8753 0.8735 0.8692 0.8574
695.000000 0.8328 0.8035 0.7675 0.7326 0.6975
690.000000 0.6624 0.6287 0.6157 0.6171 0.6315
685.000000 0.6855 0.7449 0.7737 0.7931 0.8162
680.000000 0.8350 0.8438 0.8475 0.8506 0.8540
675.000000 0.8563 0.8582 0.8573 0.8540 0.8513
670.000000 0.8523 0.8630 0.8628 0.8628 0.8570
665.000000 0.8482
##END=
