##TITLE=Succinic acid, hydrazino-, hydrobromide
##JCAMP-DX=4.24
##DATA TYPE=INFRARED SPECTRUM
##CLASS=COBLENTZ III
##ORIGIN=SOUTHERN RESEARCH INSTITUTE
##OWNER=Copyright (C) 1987 by the Coblentz Society
Collection (C) 2018 copyright by the U.S. Secretary of Commerce
on behalf of the United States of America. All rights reserved.
##DATE=1955/10/06
##NAMES=2-hydrazinosuccinic acid hydrobromide
##MOLFORM=C4 H9 Br N2 O4
##SOURCE REFERENCE=COBLENTZ NO. 7881
##$NIST ID=B6007881
##$NIST SOURCE=COBLENTZ
##$NIST IMAGE=cob7881
##SPECTROMETER/DATA SYSTEM=PERKIN-ELMER 21 (GRATING)
##INSTRUMENT PARAMETERS=FILTER CHANGE ABOUT 1070 CM^-^1
##STATE=SOLID (0.9 mg / 650 mg KBr DISC)
##SAMPLING PROCEDURE=TRANSMISSION
##RESOLUTION=2
##DATA PROCESSING=DIGITIZED BY COBLENTZ SOCIETY (BATCH II) FROM HARD COPY (ADJUSTED \addcm-1\20-10-2\)
##XUNITS=1/CM
##YUNITS=TRANSMITTANCE
##XFACTOR=1.0
##YFACTOR=1
##DELTAX=1.004165
##FIRSTX=635.808
##LASTX=3815
##FIRSTY=0.7001
##MAXX=3815
##MINX=635.808
##MAXY=0.832
##MINY=0.032226
##NPOINTS=3167
##XYDATA=(X++(Y..Y))
635.808000 0.7001 0.6974 0.6946 0.6916 0.6886
640.828827 0.6860 0.6834 0.6807 0.6776 0.6745
645.849655 0.6718 0.6697 0.6676 0.6661 0.6658
650.870482 0.6656 0.6654 0.6665 0.6679 0.6701
655.891309 0.6724 0.6747 0.6778 0.6816 0.6856
660.912136 0.6901 0.6952 0.7025 0.7132 0.7293
665.932964 0.7409 0.7498 0.7554 0.7601 0.7623
670.953791 0.7636 0.7641 0.7642 0.7642 0.7642
675.974618 0.7641 0.7638 0.7650 0.7638 0.7625
680.995446 0.7620 0.7614 0.7606 0.7596 0.7586
686.016273 0.7573 0.7555 0.7534 0.7514 0.7491
691.037100 0.7468 0.7445 0.7422 0.7399 0.7373
696.057927 0.7346 0.7318 0.7291 0.7264 0.7236
701.078755 0.7203 0.7162 0.7133 0.7107 0.7106
706.099582 0.7134 0.7148 0.7175 0.7218 0.7264
711.120409 0.7424 0.7647 0.7773 0.7896 0.7937
716.141237 0.7973 0.8004 0.8025 0.8034 0.8043
721.162064 0.8052 0.8060 0.8069 0.8075 0.8077
726.182891 0.8080 0.8082 0.8085 0.8087 0.8090
731.203718 0.8091 0.8090 0.8089 0.8088 0.8088
736.224546 0.8090 0.8085 0.8084 0.8082 0.8081
741.245373 0.8078 0.8074 0.8071 0.8067 0.8064
746.266200 0.8060 0.8057 0.8053 0.8049 0.8043
751.287027 0.8033 0.8023 0.8013 0.8004 0.7994
756.307855 0.7984 0.7974 0.7964 0.7955 0.7945
761.328682 0.7935 0.7925 0.7915 0.7904 0.7893
766.349509 0.7881 0.7870 0.7859 0.7848 0.7836
771.370337 0.7825 0.7816 0.7807 0.7798 0.7789
776.391164 0.7781 0.7772 0.7763 0.7756 0.7751
781.411991 0.7747 0.7743 0.7739 0.7734 0.7732
786.432818 0.7733 0.7735 0.7736 0.7738 0.7740
791.453646 0.7741 0.7742 0.7741 0.7739 0.7738
796.474473 0.7737 0.7735 0.7731 0.7724 0.7718
801.495300 0.7711 0.7705 0.7695 0.7680 0.7663
806.516128 0.7647 0.7631 0.7614 0.7597 0.7582
811.536955 0.7567 0.7552 0.7538 0.7523 0.7509
816.557782 0.7494 0.7481 0.7471 0.7461 0.7450
821.578609 0.7440 0.7429 0.7422 0.7419 0.7416
826.599437 0.7426 0.7450 0.7478 0.7506 0.7531
831.620264 0.7555 0.7575 0.7587 0.7591 0.7590
836.641091 0.7586 0.7578 0.7565 0.7550 0.7534
841.661919 0.7518 0.7503 0.7486 0.7469 0.7452
846.682746 0.7434 0.7416 0.7397 0.7377 0.7357
851.703573 0.7336 0.7315 0.7293 0.7271 0.7248
856.724400 0.7222 0.7190 0.7156 0.7121 0.7087
861.745228 0.7052 0.7017 0.6983 0.6948 0.6904
866.766055 0.6831 0.6734 0.6613 0.6492 0.6370
871.786882 0.6249 0.6127 0.6006 0.5885 0.5753
876.807710 0.5595 0.5605 0.5693 0.6300 0.6781
881.828537 0.6806 0.6809 0.6805 0.6795 0.6787
886.849364 0.6778 0.6765 0.6738 0.6696 0.6628
891.870191 0.6528 0.6449 0.6395 0.6327 0.6184
896.891019 0.6108 0.6034 0.5958 0.5883 0.5808
901.911846 0.5733 0.5658 0.5583 0.5508 0.5426
906.932673 0.5338 0.5215 0.4960 0.4667 0.4372
911.953500 0.4077 0.3887 0.3882 0.3920 0.4571
916.974328 0.5265 0.5959 0.6150 0.6181 0.6159
921.995155 0.6152 0.6145 0.6131 0.6104 0.6070
927.015982 0.6023 0.5931 0.5836 0.5741 0.5647
932.036810 0.5552 0.5457 0.5363 0.5268 0.5174
937.057637 0.5113 0.5063 0.5015 0.4967 0.4919
942.078464 0.4863 0.4805 0.4746 0.4694 0.4645
947.099291 0.4596 0.4558 0.4525 0.4494 0.4468
952.120119 0.4464 0.4462 0.4459 0.4456 0.4453
957.140946 0.4451 0.4450 0.4448 0.4446 0.4445
962.161773 0.4443 0.4442 0.4442 0.4442 0.4442
967.182601 0.4442 0.4442 0.4442 0.4428 0.4413
972.203428 0.4399 0.4381 0.4355 0.4328 0.4299
977.224255 0.4269 0.4236 0.4198 0.4159 0.3955
982.245082 0.3685 0.3416 0.3146 0.2875 0.2666
987.265910 0.2660 0.2666 0.2688 0.2795 0.4748
992.286737 0.4930 0.5044 0.5120 0.5167 0.5200
997.307564 0.5233 0.5266 0.5301 0.5338 0.5376
1002.328392 0.5413 0.5444 0.5471 0.5498 0.5525
1007.349219 0.5550 0.5569 0.5589 0.5608 0.5628
1012.370046 0.5650 0.5673 0.5695 0.5717 0.5740
1017.390873 0.5764 0.5788 0.5810 0.5818 0.5827
1022.411701 0.5835 0.5844 0.5850 0.5849 0.5855
1027.432528 0.5857 0.5854 0.5851 0.5849 0.5846
1032.453355 0.5840 0.5833 0.5826 0.5820 0.5813
1037.474183 0.5805 0.5794 0.5783 0.5770 0.5756
1042.495010 0.5741 0.5726 0.5708 0.5684 0.5661
1047.515837 0.5634 0.5600 0.5566 0.5524 0.5468
1052.536664 0.5411 0.5337 0.5260 0.5116 0.5012
1057.557492 0.4908 0.4805 0.4701 0.4596 0.4492
1062.578319 0.4388 0.4284 0.4180 0.4077 0.3973
1067.599146 0.3869 0.3784 0.3738 0.3708 0.3693
1072.619973 0.3678 0.3660 0.3639 0.3614 0.3523
1077.640801 0.3132 0.3040 0.2921 0.2894 0.2880
1082.661628 0.2877 0.2874 0.2876 0.2877 0.2878
1087.682455 0.2879 0.2882 0.2881 0.2885 0.2892
1092.703283 0.2899 0.2919 0.2982 0.3071 0.3160
1097.724110 0.3249 0.3339 0.3433 0.3591 0.3818
1102.744937 0.4002 0.4115 0.4204 0.4260 0.4316
1107.765764 0.4371 0.4427 0.4488 0.4552 0.4617
1112.786592 0.4676 0.4727 0.4778 0.4829 0.4880
1117.807419 0.4929 0.4976 0.5023 0.5069 0.5110
1122.828246 0.5152 0.5193 0.5222 0.5247 0.5271
1127.849074 0.5295 0.5314 0.5327 0.5339 0.5350
1132.869901 0.5351 0.5357 0.5344 0.5337 0.5329
1137.890728 0.5318 0.5305 0.5285 0.5264 0.5243
1142.911555 0.5222 0.5200 0.5177 0.5154 0.5129
1147.932383 0.5103 0.5076 0.5041 0.5006 0.4970
1152.953210 0.4929 0.4885 0.4841 0.4797 0.4745
1157.974037 0.4685 0.4623 0.4549 0.4458 0.4357
1162.994865 0.4153 0.3712 0.3443 0.3181 0.2989
1168.015692 0.2997 0.3009 0.3257 0.4642 0.4665
1173.036519 0.4669 0.4663 0.4653 0.4635 0.4606
1178.057346 0.4566 0.4519 0.4468 0.4414 0.4353
1183.078174 0.4287 0.4220 0.4154 0.4087 0.4013
1188.099001 0.3926 0.3827 0.3627 0.3259 0.2913
1193.119828 0.2907 0.2923 0.2939 0.3014 0.3297
1198.140656 0.3640 0.3930 0.3943 0.3933 0.3873
1203.161483 0.3802 0.3730 0.3659 0.3588 0.3518
1208.182310 0.3448 0.3370 0.3239 0.3155 0.3070
1213.203137 0.2986 0.2801 0.2676 0.2577 0.2385
1218.223965 0.2180 0.1980 0.1905 0.1836 0.1767
1223.244792 0.1697 0.1601 0.1513 0.1449 0.1391
1228.265619 0.1359 0.1330 0.1315 0.1305 0.1296
1233.286446 0.1294 0.1295 0.1296 0.1278 0.1296
1238.307274 0.1327 0.1362 0.1401 0.1483 0.1597
1243.328101 0.1721 0.1886 0.2115 0.2534 0.3081
1248.348928 0.3628 0.4018 0.4221 0.4394 0.4569
1253.369756 0.4746 0.4902 0.5003 0.5062 0.5090
1258.390583 0.5112 0.5131 0.5144 0.5153 0.5150
1263.411410 0.5137 0.5144 0.5129 0.5111 0.5090
1268.432237 0.5069 0.5047 0.5020 0.4994 0.4971
1273.453065 0.4949 0.4927 0.4905 0.4882 0.4858
1278.473892 0.4834 0.4810 0.4793 0.4774 0.4755
1283.494719 0.4741 0.4728 0.4714 0.4697 0.4670
1288.515547 0.4640 0.4611 0.4572 0.4530 0.4488
1293.536374 0.4445 0.4385 0.4315 0.4192 0.4027
1298.557201 0.3854 0.3681 0.3508 0.3348 0.3144
1303.578028 0.2986 0.2859 0.2726 0.2606 0.2510
1308.598856 0.2422 0.2326 0.2224 0.2080 0.1982
1313.619683 0.1969 0.1970 0.2184 0.2528 0.2765
1318.640510 0.3061 0.3296 0.3325 0.3321 0.3325
1323.661338 0.3324 0.3299 0.3261 0.3181 0.3048
1328.682165 0.2856 0.2686 0.2516 0.2346 0.2176
1333.702992 0.2014 0.1893 0.1801 0.1692 0.1609
1338.723819 0.1552 0.1516 0.1489 0.1474 0.1479
1343.744647 0.1478 0.1484 0.1494 0.1527 0.1594
1348.765474 0.1685 0.1774 0.1877 0.1970 0.2047
1353.786301 0.2121 0.2205 0.2292 0.2388 0.2489
1358.807129 0.2699 0.2824 0.2881 0.2897 0.2893
1363.827956 0.2892 0.2875 0.2791 0.2683 0.2575
1368.848783 0.2467 0.2359 0.2250 0.2143 0.2035
1373.869610 0.1926 0.1818 0.1710 0.1603 0.1494
1378.890438 0.1368 0.1250 0.1182 0.1150 0.1138
1383.911265 0.1132 0.1130 0.1138 0.1160 0.1208
1388.932092 0.1284 0.1363 0.1459 0.1624 0.1863
1393.952919 0.2102 0.2340 0.2579 0.2818 0.3057
1398.973747 0.3285 0.3450 0.3509 0.3535 0.3551
1403.994574 0.3560 0.3564 0.3560 0.3558 0.3545
1409.015401 0.3529 0.3512 0.3466 0.3414 0.3362
1414.036229 0.3309 0.3237 0.3141 0.3051 0.2977
1419.057056 0.2924 0.2898 0.2892 0.2876 0.2903
1424.077883 0.2920 0.2953 0.3064 0.3155 0.3208
1429.098710 0.3255 0.3441 0.3636 0.3832 0.4027
1434.119538 0.4226 0.4371 0.4524 0.4697 0.4828
1439.140365 0.4892 0.4949 0.4995 0.5036 0.5069
1444.161192 0.5093 0.5116 0.5136 0.5154 0.5172
1449.182020 0.5190 0.5208 0.5222 0.5235 0.5249
1454.202847 0.5260 0.5269 0.5278 0.5287 0.5295
1459.223674 0.5302 0.5309 0.5314 0.5316 0.5318
1464.244501 0.5320 0.5311 0.5319 0.5317 0.5311
1469.265329 0.5304 0.5291 0.5273 0.5247 0.5219
1474.286156 0.5175 0.5124 0.5051 0.4882 0.4816
1479.306983 0.4751 0.4685 0.4619 0.4554 0.4488
1484.327811 0.4423 0.4358 0.4292 0.4227 0.4161
1489.348638 0.4087 0.3962 0.3873 0.3823 0.3775
1494.369465 0.3738 0.3717 0.3718 0.3720 0.3725
1499.390292 0.3736 0.3753 0.3771 0.3790 0.3809
1504.411120 0.3828 0.3847 0.3868 0.3890 0.3909
1509.431947 0.3926 0.3941 0.3955 0.3966 0.3967
1514.452774 0.3962 0.3955 0.3945 0.3931 0.3900
1519.473602 0.3848 0.3780 0.3670 0.3631 0.3601
1524.494429 0.3577 0.3554 0.3532 0.3509 0.3490
1529.515256 0.3471 0.3451 0.3432 0.3412 0.3388
1534.536083 0.3363 0.3332 0.3293 0.3248 0.3177
1539.556911 0.3074 0.2955 0.2851 0.2788 0.2752
1544.577738 0.2725 0.2693 0.2663 0.2649 0.2642
1549.598565 0.2629 0.2606 0.2556 0.2481 0.2411
1554.619392 0.2306 0.2130 0.1972 0.1882 0.1807
1559.640220 0.1716 0.1596 0.1450 0.1396 0.1382
1564.661047 0.1370 0.1346 0.1300 0.1244 0.1174
1569.681874 0.1049 0.0935 0.0853 0.0791 0.0733
1574.702702 0.0678 0.0624 0.0570 0.0517 0.0464
1579.723529 0.0412 0.0368 0.0344 0.0327 0.0324
1584.744356 0.0322 0.0325 0.0330 0.0333 0.0340
1589.765183 0.0349 0.0364 0.0386 0.0416 0.0455
1594.786011 0.0504 0.0562 0.0627 0.0695 0.0761
1599.806838 0.0823 0.0891 0.0974 0.1068 0.1150
1604.827665 0.1201 0.1242 0.1275 0.1311 0.1360
1609.848493 0.1440 0.1580 0.1715 0.1829 0.1938
1614.869320 0.2037 0.2130 0.2204 0.2272 0.2340
1619.890147 0.2407 0.2476 0.2545 0.2617 0.2699
1624.910974 0.2790 0.2882 0.2978 0.3076 0.3197
1629.931802 0.3339 0.3425 0.3490 0.3552 0.3603
1634.952629 0.3648 0.3691 0.3731 0.3762 0.3787
1639.973456 0.3801 0.3811 0.3820 0.3827 0.3832
1644.994284 0.3833 0.3833 0.3833 0.3833 0.3834
1650.015111 0.3835 0.3828 0.3823 0.3817 0.3812
1655.035938 0.3806 0.3801 0.3793 0.3782 0.3767
1660.056765 0.3747 0.3716 0.3662 0.3588 0.3472
1665.077593 0.3262 0.2985 0.2774 0.2563 0.2352
1670.098420 0.2173 0.2070 0.2011 0.1963 0.1914
1675.119247 0.1864 0.1820 0.1790 0.1762 0.1736
1680.140075 0.1721 0.1717 0.1713 0.1713 0.1714
1685.160902 0.1713 0.1717 0.1721 0.1727 0.1735
1690.181729 0.1752 0.1796 0.1901 0.2064 0.2234
1695.202556 0.2404 0.2574 0.2745 0.2870 0.2927
1700.223384 0.2972 0.3015 0.3057 0.3099 0.3135
1705.244211 0.3163 0.3190 0.3224 0.3279 0.3343
1710.265038 0.3405 0.3500 0.3625 0.3725 0.3794
1715.285865 0.3854 0.3911 0.3957 0.3995 0.4031
1720.306693 0.4062 0.4089 0.4117 0.4147 0.4185
1725.327520 0.4225 0.4270 0.4336 0.4427 0.4547
1730.348347 0.4672 0.4770 0.4856 0.4921 0.4958
1735.369175 0.4990 0.5021 0.5055 0.5094 0.5133
1740.390002 0.5175 0.5240 0.5323 0.5390 0.5446
1745.410829 0.5503 0.5558 0.5612 0.5665 0.5721
1750.431656 0.5781 0.5841 0.5901 0.5955 0.6005
1755.452484 0.6055 0.6101 0.6141 0.6177 0.6213
1760.473311 0.6249 0.6282 0.6311 0.6340 0.6368
1765.494138 0.6396 0.6423 0.6449 0.6475 0.6494
1770.514966 0.6507 0.6520 0.6532 0.6541 0.6548
1775.535793 0.6556 0.6564 0.6575 0.6590 0.6614
1780.556620 0.6645 0.6664 0.6673 0.6678 0.6681
1785.577447 0.6684 0.6685 0.6684 0.6682 0.6681
1790.598275 0.6679 0.6678 0.6675 0.6673 0.6671
1795.619102 0.6669 0.6668 0.6669 0.6669 0.6670
1800.639929 0.6670 0.6671 0.6671 0.6672 0.6673
1805.660757 0.6685 0.6683 0.6677 0.6682 0.6686
1810.681584 0.6691 0.6696 0.6701 0.6707 0.6713
1815.702411 0.6720 0.6727 0.6732 0.6734 0.6735
1820.723238 0.6737 0.6738 0.6740 0.6741 0.6743
1825.744066 0.6745 0.6746 0.6745 0.6744 0.6743
1830.764893 0.6742 0.6739 0.6736 0.6733 0.6730
1835.785720 0.6727 0.6724 0.6721 0.6715 0.6710
1840.806548 0.6705 0.6700 0.6694 0.6689 0.6681
1845.827375 0.6672 0.6663 0.6654 0.6645 0.6636
1850.848202 0.6627 0.6618 0.6606 0.6593 0.6581
1855.869029 0.6569 0.6557 0.6545 0.6533 0.6521
1860.889857 0.6511 0.6502 0.6494 0.6486 0.6477
1865.910684 0.6469 0.6461 0.6451 0.6440 0.6430
1870.931511 0.6419 0.6408 0.6396 0.6383 0.6370
1875.952338 0.6356 0.6343 0.6330 0.6317 0.6305
1880.973166 0.6292 0.6279 0.6266 0.6253 0.6242
1885.993993 0.6234 0.6225 0.6216 0.6208 0.6199
1891.014820 0.6191 0.6182 0.6173 0.6165 0.6158
1896.035648 0.6150 0.6143 0.6135 0.6128 0.6120
1901.056475 0.6115 0.6110 0.6105 0.6099 0.6095
1906.077302 0.6090 0.6085 0.6080 0.6075 0.6071
1911.098129 0.6066 0.6061 0.6057 0.6052 0.6047
1916.118957 0.6043 0.6038 0.6034 0.6029 0.6024
1921.139784 0.6020 0.6015 0.6010 0.6005 0.6000
1926.160611 0.5995 0.5990 0.5984 0.5979 0.5958
1931.181439 0.5964 0.5966 0.5964 0.5962 0.5960
1936.202266 0.5958 0.5956 0.5956 0.5958 0.5959
1941.223093 0.5961 0.5963 0.5965 0.5966 0.5968
1946.243920 0.5970 0.5971 0.5973 0.5975 0.5977
1951.264748 0.5979 0.5982 0.5984 0.5987 0.5989
1956.285575 0.5992 0.5994 0.5997 0.5999 0.6001
1961.306402 0.6004 0.6008 0.6012 0.6016 0.6020
1966.327230 0.6025 0.6029 0.6033 0.6037 0.6041
1971.348057 0.6045 0.6051 0.6058 0.6065 0.6072
1976.368884 0.6079 0.6088 0.6100 0.6112 0.6122
1981.389711 0.6127 0.6131 0.6135 0.6139 0.6143
1986.410539 0.6147 0.6152 0.6160 0.6170 0.6181
1991.431366 0.6192 0.6207 0.6222 0.6238 0.6253
1996.452193 0.6268 0.6282 0.6297 0.6311 0.6321
2001.473021 0.6331 0.6339 0.6348 0.6356 0.6364
2006.493848 0.6370 0.6376 0.6383 0.6389 0.6396
2011.514675 0.6402 0.6408 0.6413 0.6419 0.6425
2016.535502 0.6430 0.6436 0.6442 0.6447 0.6453
2021.556330 0.6460 0.6468 0.6477 0.6485 0.6494
2026.577157 0.6502 0.6511 0.6519 0.6528 0.6536
2031.597984 0.6544 0.6553 0.6559 0.6566 0.6572
2036.618811 0.6578 0.6585 0.6591 0.6598 0.6604
2041.639639 0.6610 0.6617 0.6623 0.6628 0.6633
2046.660466 0.6638 0.6643 0.6647 0.6653 0.6658
2051.681293 0.6663 0.6668 0.6674 0.6678 0.6681
2056.702121 0.6684 0.6686 0.6689 0.6692 0.6694
2061.722948 0.6697 0.6701 0.6713 0.6727 0.6746
2066.743775 0.6765 0.6782 0.6795 0.6808 0.6821
2071.764602 0.6830 0.6839 0.6848 0.6856 0.6863
2076.785430 0.6868 0.6874 0.6880 0.6885 0.6891
2081.806257 0.6897 0.6903 0.6909 0.6915 0.6920
2086.827084 0.6925 0.6931 0.6936 0.6941 0.6947
2091.847912 0.6950 0.6953 0.6955 0.6958 0.6961
2096.868739 0.6964 0.6966 0.6969 0.6972 0.6974
2101.889566 0.6977 0.6979 0.6981 0.6982 0.6984
2106.910393 0.6985 0.6987 0.6989 0.6990 0.6992
2111.931221 0.6993 0.6995 0.6997 0.6996 0.6995
2116.952048 0.6997 0.6993 0.6992 0.6991 0.6990
2121.972875 0.6989 0.6988 0.6987 0.6986 0.6985
2126.993703 0.6984 0.6982 0.6981 0.6980 0.6979
2132.014530 0.6977 0.6976 0.6975 0.6974 0.6973
2137.035357 0.6971 0.6970 0.6969 0.6968 0.6967
2142.056184 0.6965 0.6964 0.6963 0.6962 0.6961
2147.077012 0.6960 0.6958 0.6957 0.6956 0.6955
2152.097839 0.6954 0.6953 0.6952 0.6950 0.6950
2157.118666 0.6949 0.6948 0.6948 0.6947 0.6946
2162.139494 0.6945 0.6945 0.6944 0.6943 0.6943
2167.160321 0.6942 0.6941 0.6940 0.6940 0.6939
2172.181148 0.6938 0.6938 0.6937 0.6936 0.6934
2177.201975 0.6931 0.6929 0.6926 0.6924 0.6921
2182.222803 0.6919 0.6916 0.6914 0.6911 0.6909
2187.243630 0.6905 0.6900 0.6895 0.6891 0.6886
2192.264457 0.6881 0.6876 0.6871 0.6866 0.6861
2197.285284 0.6856 0.6851 0.6846 0.6840 0.6834
2202.306112 0.6828 0.6822 0.6815 0.6809 0.6803
2207.326939 0.6797 0.6791 0.6784 0.6778 0.6771
2212.347766 0.6765 0.6759 0.6752 0.6746 0.6739
2217.368594 0.6733 0.6726 0.6718 0.6710 0.6703
2222.389421 0.6695 0.6688 0.6680 0.6673 0.6665
2227.410248 0.6660 0.6656 0.6651 0.6647 0.6643
2232.431075 0.6639 0.6634 0.6630 0.6626 0.6621
2237.451903 0.6617 0.6613 0.6608 0.6605 0.6604
2242.472730 0.6603 0.6602 0.6600 0.6599 0.6598
2247.493557 0.6597 0.6595 0.6594 0.6594 0.6593
2252.514385 0.6593 0.6592 0.6592 0.6589 0.6584
2257.535212 0.6580 0.6575 0.6571 0.6566 0.6561
2262.556039 0.6557 0.6552 0.6547 0.6543 0.6537
2267.576866 0.6530 0.6523 0.6515 0.6508 0.6501
2272.597694 0.6493 0.6485 0.6476 0.6467 0.6458
2277.618521 0.6449 0.6440 0.6431 0.6421 0.6412
2282.639348 0.6403 0.6393 0.6383 0.6373 0.6363
2287.660176 0.6353 0.6343 0.6333 0.6322 0.6311
2292.681003 0.6298 0.6284 0.6270 0.6256 0.6243
2297.701830 0.6229 0.6215 0.6200 0.6185 0.6170
2302.722657 0.6155 0.6140 0.6125 0.6110 0.6096
2307.743485 0.6081 0.6066 0.6051 0.6036 0.6021
2312.764312 0.6006 0.5989 0.5972 0.5956 0.5942
2317.785139 0.5927 0.5913 0.5899 0.5885 0.5871
2322.805967 0.5857 0.5843 0.5829 0.5815 0.5801
2327.826794 0.5788 0.5777 0.5765 0.5754 0.5742
2332.847621 0.5731 0.5719 0.5708 0.5696 0.5685
2337.868448 0.5675 0.5665 0.5655 0.5645 0.5635
2342.889276 0.5625 0.5615 0.5605 0.5596 0.5588
2347.910103 0.5581 0.5573 0.5565 0.5558 0.5552
2352.930930 0.5548 0.5544 0.5541 0.5537 0.5534
2357.951757 0.5531 0.5527 0.5524 0.5520 0.5517
2362.972585 0.5513 0.5510 0.5506 0.5503 0.5499
2367.993412 0.5495 0.5488 0.5482 0.5475 0.5468
2373.014239 0.5461 0.5454 0.5446 0.5435 0.5424
2378.035067 0.5412 0.5398 0.5384 0.5369 0.5355
2383.055894 0.5341 0.5326 0.5310 0.5294 0.5279
2388.076721 0.5271 0.5270 0.5269 0.5267 0.5266
2393.097548 0.5264 0.5261 0.5256 0.5251 0.5247
2398.118376 0.5239 0.5228 0.5218 0.5206 0.5192
2403.139203 0.5177 0.5162 0.5147 0.5131 0.5116
2408.160030 0.5101 0.5088 0.5077 0.5065 0.5054
2413.180858 0.5042 0.5030 0.5019 0.5007 0.4995
2418.201685 0.4984 0.4972 0.4960 0.4949 0.4937
2423.222512 0.4925 0.4914 0.4902 0.4890 0.4879
2428.243339 0.4867 0.4856 0.4844 0.4832 0.4821
2433.264167 0.4809 0.4798 0.4786 0.4775 0.4763
2438.284994 0.4752 0.4740 0.4729 0.4717 0.4707
2443.305821 0.4700 0.4692 0.4684 0.4677 0.4669
2448.326649 0.4662 0.4654 0.4646 0.4639 0.4631
2453.347476 0.4624 0.4617 0.4612 0.4608 0.4603
2458.368303 0.4599 0.4595 0.4591 0.4587 0.4582
2463.389130 0.4578 0.4573 0.4567 0.4560 0.4553
2468.409958 0.4547 0.4539 0.4529 0.4518 0.4506
2473.430785 0.4494 0.4483 0.4473 0.4462 0.4451
2478.451612 0.4442 0.4437 0.4433 0.4428 0.4423
2483.472440 0.4419 0.4416 0.4412 0.4409 0.4406
2488.493267 0.4402 0.4399 0.4397 0.4396 0.4395
2493.514094 0.4393 0.4392 0.4392 0.4392 0.4392
2498.534921 0.4392 0.4392 0.4392 0.4392 0.4392
2503.555749 0.4392 0.4392 0.4393 0.4395 0.4396
2508.576576 0.4398 0.4400 0.4402 0.4404 0.4406
2513.597403 0.4408 0.4409 0.4410 0.4412 0.4413
2518.618231 0.4414 0.4414 0.4412 0.4431 0.4425
2523.639058 0.4405 0.4403 0.4401 0.4398 0.4394
2528.659885 0.4390 0.4387 0.4383 0.4379 0.4376
2533.680712 0.4372 0.4368 0.4365 0.4361 0.4356
2538.701540 0.4350 0.4343 0.4336 0.4329 0.4322
2543.722367 0.4314 0.4307 0.4299 0.4292 0.4284
2548.743194 0.4277 0.4270 0.4263 0.4258 0.4254
2553.764021 0.4249 0.4244 0.4239 0.4235 0.4231
2558.784849 0.4229 0.4228 0.4227 0.4226 0.4225
2563.805676 0.4224 0.4225 0.4226 0.4228 0.4229
2568.826503 0.4231 0.4232 0.4234 0.4237 0.4241
2573.847331 0.4246 0.4250 0.4255 0.4260 0.4265
2578.868158 0.4271 0.4276 0.4282 0.4288 0.4294
2583.888985 0.4299 0.4303 0.4307 0.4312 0.4316
2588.909812 0.4320 0.4324 0.4328 0.4329 0.4329
2593.930640 0.4330 0.4330 0.4331 0.4331 0.4331
2598.951467 0.4332 0.4332 0.4332 0.4331 0.4331
2603.972294 0.4330 0.4329 0.4328 0.4327 0.4326
2608.993122 0.4325 0.4325 0.4325 0.4325 0.4325
2614.013949 0.4326 0.4326 0.4326 0.4327 0.4329
2619.034776 0.4331 0.4333 0.4335 0.4342 0.4353
2624.055603 0.4364 0.4375 0.4388 0.4406 0.4422
2629.076431 0.4431 0.4436 0.4440 0.4442 0.4442
2634.097258 0.4443 0.4443 0.4444 0.4444 0.4444
2639.118085 0.4444 0.4444 0.4443 0.4443 0.4442
2644.138913 0.4442 0.4441 0.4440 0.4439 0.4438
2649.159740 0.4436 0.4435 0.4433 0.4432 0.4429
2654.180567 0.4424 0.4418 0.4412 0.4406 0.4400
2659.201394 0.4394 0.4389 0.4383 0.4378 0.4372
2664.222222 0.4366 0.4360 0.4355 0.4349 0.4342
2669.243049 0.4335 0.4328 0.4321 0.4314 0.4306
2674.263876 0.4299 0.4291 0.4283 0.4275 0.4267
2679.284704 0.4259 0.4252 0.4244 0.4236 0.4229
2684.305531 0.4222 0.4216 0.4210 0.4204 0.4197
2689.326358 0.4195 0.4221 0.4202 0.4195 0.4195
2694.347185 0.4195 0.4195 0.4195 0.4195 0.4195
2699.368013 0.4195 0.4195 0.4195 0.4195 0.4195
2704.388840 0.4197 0.4199 0.4201 0.4203 0.4205
2709.409667 0.4207 0.4209 0.4211 0.4213 0.4215
2714.430494 0.4217 0.4219 0.4222 0.4224 0.4227
2719.451322 0.4229 0.4232 0.4235 0.4237 0.4240
2724.472149 0.4242 0.4245 0.4248 0.4251 0.4252
2729.492976 0.4253 0.4254 0.4255 0.4256 0.4257
2734.513804 0.4258 0.4259 0.4261 0.4263 0.4264
2739.534631 0.4266 0.4267 0.4266 0.4266 0.4265
2744.555458 0.4265 0.4264 0.4262 0.4256 0.4247
2749.576285 0.4237 0.4227 0.4217 0.4206 0.4193
2754.597113 0.4180 0.4167 0.4153 0.4139 0.4125
2759.617940 0.4111 0.4097 0.4083 0.4068 0.4054
2764.638767 0.4040 0.4025 0.4008 0.3990 0.3973
2769.659595 0.3955 0.3938 0.3921 0.3904 0.3887
2774.680422 0.3870 0.3853 0.3836 0.3818 0.3800
2779.701249 0.3783 0.3765 0.3747 0.3729 0.3711
2784.722076 0.3694 0.3678 0.3662 0.3645 0.3629
2789.742904 0.3612 0.3596 0.3580 0.3565 0.3551
2794.763731 0.3538 0.3525 0.3512 0.3499 0.3486
2799.784558 0.3473 0.3459 0.3446 0.3433 0.3420
2804.805386 0.3408 0.3396 0.3385 0.3373 0.3361
2809.826213 0.3349 0.3337 0.3326 0.3314 0.3302
2814.847040 0.3290 0.3278 0.3267 0.3254 0.3245
2819.867867 0.3236 0.3227 0.3218 0.3209 0.3200
2824.888695 0.3191 0.3183 0.3175 0.3167 0.3159
2829.909522 0.3151 0.3143 0.3136 0.3128 0.3120
2834.930349 0.3111 0.3103 0.3094 0.3085 0.3076
2839.951177 0.3067 0.3058 0.3046 0.3031 0.3016
2844.972004 0.3001 0.2986 0.2972 0.2957 0.2942
2849.992831 0.2927 0.2914 0.2900 0.2886 0.2872
2855.013658 0.2859 0.2845 0.2831 0.2819 0.2808
2860.034486 0.2798 0.2787 0.2776 0.2765 0.2754
2865.055313 0.2744 0.2733 0.2722 0.2711 0.2700
2870.076140 0.2690 0.2681 0.2673 0.2666 0.2658
2875.096967 0.2650 0.2643 0.2635 0.2628 0.2620
2880.117795 0.2613 0.2605 0.2597 0.2588 0.2579
2885.138622 0.2569 0.2549 0.2525 0.2502 0.2475
2890.159449 0.2449 0.2422 0.2397 0.2372 0.2348
2895.180277 0.2325 0.2307 0.2288 0.2270 0.2251
2900.201104 0.2232 0.2215 0.2199 0.2182 0.2166
2905.221931 0.2150 0.2135 0.2122 0.2110 0.2098
2910.242758 0.2085 0.2073 0.2061 0.2048 0.2037
2915.263586 0.2027 0.2017 0.2007 0.1997 0.1987
2920.284413 0.1980 0.1974 0.1967 0.1961 0.1954
2925.305240 0.1947 0.1941 0.1934 0.1929 0.1927
2930.326068 0.1926 0.1924 0.1923 0.1921 0.1920
2935.346895 0.1919 0.1919 0.1918 0.1917 0.1916
2940.367722 0.1915 0.1914 0.1914 0.1913 0.1913
2945.388549 0.1912 0.1912 0.1911 0.1911 0.1910
2950.409377 0.1910 0.1909 0.1909 0.1908 0.1908
2955.430204 0.1908 0.1908 0.1908 0.1908 0.1908
2960.451031 0.1908 0.1908 0.1908 0.1908 0.1907
2965.471859 0.1907 0.1907 0.1906 0.1906 0.1905
2970.492686 0.1905 0.1904 0.1901 0.1894 0.1887
2975.513513 0.1879 0.1870 0.1860 0.1850 0.1840
2980.534340 0.1832 0.1826 0.1820 0.1814 0.1809
2985.555168 0.1803 0.1797 0.1793 0.1790 0.1786
2990.575995 0.1783 0.1780 0.1776 0.1773 0.1769
2995.596822 0.1767 0.1764 0.1762 0.1759 0.1756
3000.617650 0.1754 0.1751 0.1749 0.1746 0.1744
3005.638477 0.1741 0.1739 0.1736 0.1734 0.1732
3010.659304 0.1730 0.1728 0.1726 0.1724 0.1722
3015.680131 0.1720 0.1717 0.1715 0.1714 0.1714
3020.700959 0.1714 0.1714 0.1714 0.1714 0.1714
3025.721786 0.1714 0.1714 0.1714 0.1714 0.1715
3030.742613 0.1718 0.1723 0.1717 0.1718 0.1718
3035.763440 0.1719 0.1720 0.1721 0.1722 0.1724
3040.784268 0.1727 0.1731 0.1734 0.1737 0.1740
3045.805095 0.1743 0.1746 0.1750 0.1753 0.1756
3050.825922 0.1759 0.1763 0.1768 0.1773 0.1778
3055.846750 0.1783 0.1788 0.1793 0.1797 0.1802
3060.867577 0.1807 0.1813 0.1819 0.1826 0.1833
3065.888404 0.1841 0.1848 0.1856 0.1863 0.1871
3070.909231 0.1878 0.1885 0.1892 0.1899 0.1906
3075.930059 0.1913 0.1919 0.1926 0.1933 0.1941
3080.950886 0.1949 0.1958 0.1966 0.1975 0.1984
3085.971713 0.1992 0.2001 0.2010 0.2018 0.2027
3090.992541 0.2036 0.2044 0.2052 0.2061 0.2069
3096.013368 0.2077 0.2085 0.2093 0.2102 0.2111
3101.034195 0.2122 0.2132 0.2144 0.2159 0.2174
3106.055022 0.2188 0.2199 0.2211 0.2222 0.2234
3111.075850 0.2245 0.2256 0.2266 0.2276 0.2286
3116.096677 0.2298 0.2311 0.2324 0.2337 0.2349
3121.117504 0.2361 0.2370 0.2380 0.2390 0.2399
3126.138332 0.2409 0.2418 0.2427 0.2436 0.2444
3131.159159 0.2451 0.2458 0.2465 0.2473 0.2479
3136.179986 0.2485 0.2490 0.2495 0.2500 0.2505
3141.200813 0.2510 0.2514 0.2518 0.2522 0.2526
3146.221641 0.2532 0.2541 0.2550 0.2559 0.2569
3151.242468 0.2581 0.2594 0.2606 0.2620 0.2632
3156.263295 0.2645 0.2657 0.2670 0.2683 0.2695
3161.284123 0.2708 0.2720 0.2731 0.2741 0.2751
3166.304950 0.2764 0.2778 0.2794 0.2815 0.2836
3171.325777 0.2857 0.2881 0.2907 0.2935 0.2962
3176.346604 0.2986 0.3009 0.3033 0.3055 0.3073
3181.367432 0.3086 0.3099 0.3111 0.3124 0.3136
3186.388259 0.3145 0.3154 0.3163 0.3172 0.3181
3191.409086 0.3190 0.3200 0.3210 0.3220 0.3230
3196.429913 0.3252 0.3287 0.3322 0.3352 0.3378
3201.450741 0.3403 0.3422 0.3438 0.3455 0.3470
3206.471568 0.3484 0.3496 0.3508 0.3519 0.3531
3211.492395 0.3543 0.3552 0.3558 0.3564 0.3570
3216.513223 0.3576 0.3582 0.3587 0.3590 0.3591
3221.534050 0.3592 0.3593 0.3594 0.3595 0.3595
3226.554877 0.3610 0.3606 0.3592 0.3591 0.3590
3231.575704 0.3588 0.3587 0.3586 0.3585 0.3584
3236.596532 0.3583 0.3583 0.3582 0.3581 0.3581
3241.617359 0.3580 0.3579 0.3579 0.3578 0.3577
3246.638186 0.3575 0.3573 0.3570 0.3568 0.3566
3251.659014 0.3564 0.3562 0.3560 0.3558 0.3557
3256.679841 0.3555 0.3554 0.3552 0.3551 0.3549
3261.700668 0.3548 0.3546 0.3545 0.3545 0.3545
3266.721495 0.3545 0.3544 0.3544 0.3544 0.3544
3271.742323 0.3543 0.3543 0.3543 0.3542 0.3543
3276.763150 0.3537 0.3543 0.3547 0.3548 0.3550
3281.783977 0.3551 0.3553 0.3555 0.3557 0.3560
3286.804805 0.3565 0.3572 0.3583 0.3593 0.3602
3291.825632 0.3611 0.3619 0.3628 0.3637 0.3647
3296.846459 0.3658 0.3669 0.3679 0.3693 0.3709
3301.867286 0.3724 0.3736 0.3749 0.3761 0.3774
3306.888114 0.3788 0.3805 0.3822 0.3839 0.3858
3311.908941 0.3883 0.3909 0.3935 0.3961 0.3989
3316.929768 0.4017 0.4044 0.4072 0.4099 0.4128
3321.950596 0.4155 0.4182 0.4210 0.4244 0.4279
3326.971423 0.4314 0.4349 0.4384 0.4422 0.4476
3331.992250 0.4531 0.4580 0.4618 0.4656 0.4694
3337.013077 0.4723 0.4753 0.4782 0.4811 0.4840
3342.033905 0.4861 0.4882 0.4902 0.4922 0.4942
3347.054732 0.4962 0.4982 0.5002 0.5021 0.5040
3352.075559 0.5060 0.5080 0.5099 0.5118 0.5138
3357.096386 0.5156 0.5174 0.5192 0.5209 0.5227
3362.117214 0.5245 0.5257 0.5266 0.5275 0.5284
3367.138041 0.5294 0.5302 0.5312 0.5325 0.5345
3372.158868 0.5365 0.5385 0.5405 0.5421 0.5436
3377.179696 0.5452 0.5467 0.5488 0.5512 0.5535
3382.200523 0.5547 0.5559 0.5571 0.5583 0.5594
3387.221350 0.5600 0.5605 0.5611 0.5616 0.5621
3392.242177 0.5627 0.5631 0.5635 0.5638 0.5642
3397.263005 0.5645 0.5649 0.5653 0.5656 0.5659
3402.283832 0.5662 0.5665 0.5668 0.5671 0.5673
3407.304659 0.5674 0.5675 0.5676 0.5676 0.5677
3412.325487 0.5678 0.5679 0.5680 0.5680 0.5681
3417.346314 0.5682 0.5682 0.5682 0.5683 0.5683
3422.367141 0.5684 0.5684 0.5685 0.5685 0.5686
3427.387968 0.5686 0.5687 0.5687 0.5688 0.5689
3432.408796 0.5689 0.5691 0.5692 0.5694 0.5695
3437.429623 0.5699 0.5705 0.5712 0.5719 0.5727
3442.450450 0.5736 0.5745 0.5755 0.5767 0.5780
3447.471278 0.5791 0.5800 0.5808 0.5816 0.5824
3452.492105 0.5832 0.5840 0.5847 0.5854 0.5860
3457.512932 0.5867 0.5873 0.5880 0.5886 0.5892
3462.533759 0.5899 0.5905 0.5912 0.5918 0.5925
3467.554587 0.5932 0.5939 0.5947 0.5955 0.5962
3472.575414 0.5968 0.5975 0.5981 0.5988 0.5995
3477.596241 0.6001 0.6008 0.6014 0.6021 0.6027
3482.617069 0.6034 0.6040 0.6047 0.6053 0.6060
3487.637896 0.6066 0.6074 0.6082 0.6090 0.6097
3492.658723 0.6105 0.6112 0.6120 0.6128 0.6135
3497.679550 0.6143 0.6150 0.6159 0.6166 0.6174
3502.700378 0.6181 0.6189 0.6197 0.6206 0.6214
3507.721205 0.6223 0.6233 0.6241 0.6250 0.6259
3512.742032 0.6267 0.6276 0.6285 0.6294 0.6302
3517.762859 0.6312 0.6322 0.6332 0.6342 0.6352
3522.783687 0.6362 0.6372 0.6382 0.6392 0.6402
3527.804514 0.6412 0.6421 0.6430 0.6439 0.6449
3532.825341 0.6458 0.6467 0.6476 0.6486 0.6495
3537.846169 0.6505 0.6514 0.6523 0.6532 0.6542
3542.866996 0.6551 0.6560 0.6569 0.6579 0.6588
3547.887823 0.6597 0.6607 0.6618 0.6629 0.6640
3552.908650 0.6651 0.6662 0.6673 0.6684 0.6695
3557.929478 0.6706 0.6717 0.6728 0.6739 0.6749
3562.950305 0.6760 0.6771 0.6781 0.6791 0.6802
3567.971132 0.6812 0.6823 0.6833 0.6843 0.6854
3572.991960 0.6864 0.6875 0.6887 0.6899 0.6911
3578.012787 0.6923 0.6935 0.6947 0.6959 0.6971
3583.033614 0.6983 0.6995 0.7008 0.7024 0.7042
3588.054441 0.7060 0.7079 0.7097 0.7116 0.7134
3593.075269 0.7152 0.7170 0.7188 0.7207 0.7225
3598.096096 0.7243 0.7259 0.7275 0.7291 0.7306
3603.116923 0.7321 0.7336 0.7351 0.7365 0.7377
3608.137751 0.7389 0.7400 0.7412 0.7423 0.7435
3613.158578 0.7446 0.7458 0.7469 0.7481 0.7492
3618.179405 0.7502 0.7512 0.7523 0.7533 0.7543
3623.200232 0.7554 0.7564 0.7575 0.7585 0.7595
3628.221060 0.7606 0.7616 0.7626 0.7636 0.7646
3633.241887 0.7656 0.7666 0.7675 0.7686 0.7696
3638.262714 0.7705 0.7715 0.7725 0.7735 0.7745
3643.283542 0.7754 0.7762 0.7771 0.7779 0.7787
3648.304369 0.7795 0.7804 0.7813 0.7820 0.7826
3653.325196 0.7831 0.7837 0.7842 0.7848 0.7853
3658.346023 0.7859 0.7864 0.7869 0.7873 0.7876
3663.366851 0.7881 0.7890 0.7902 0.7913 0.7925
3668.387678 0.7936 0.7947 0.7957 0.7966 0.7976
3673.408505 0.7985 0.7995 0.8004 0.8013 0.8021
3678.429332 0.8029 0.8036 0.8044 0.8051 0.8059
3683.450160 0.8066 0.8073 0.8080 0.8085 0.8090
3688.470987 0.8095 0.8100 0.8105 0.8111 0.8116
3693.491814 0.8121 0.8126 0.8132 0.8137 0.8142
3698.512642 0.8145 0.8149 0.8153 0.8157 0.8161
3703.533469 0.8165 0.8169 0.8173 0.8176 0.8180
3708.554296 0.8184 0.8188 0.8191 0.8193 0.8195
3713.575123 0.8198 0.8200 0.8203 0.8205 0.8207
3718.595951 0.8210 0.8212 0.8215 0.8217 0.8219
3723.616778 0.8222 0.8224 0.8226 0.8228 0.8230
3728.637605 0.8232 0.8234 0.8236 0.8238 0.8240
3733.658433 0.8242 0.8244 0.8246 0.8248 0.8250
3738.679260 0.8251 0.8256 0.8267 0.8279 0.8292
3743.700087 0.8304 0.8313 0.8316 0.8316 0.8317
3748.720914 0.8318 0.8318 0.8319 0.8319 0.8319
3753.741742 0.8319 0.8319 0.8319 0.8319 0.8319
3758.762569 0.8319 0.8319 0.8319 0.8319 0.8319
3763.783396 0.8319 0.8319 0.8319 0.8319 0.8319
3768.804224 0.8320 0.8320 0.8320 0.8320 0.8320
3773.825051 0.8320 0.8320 0.8320 0.8320 0.8320
3778.845878 0.8319 0.8318 0.8320 0.8317 0.8315
3783.866705 0.8314 0.8313 0.8313 0.8314 0.8315
3788.887533 0.8316 0.8317 0.8319 0.8320 0.8320
3793.908360 0.8319 0.8318 0.8318 0.8317 0.8316
3798.929187 0.8315 0.8314 0.8314 0.8313 0.8312
3803.950015 0.8311 0.8310 0.8309 0.8309 0.8308
3808.970842 0.8307 0.8306 0.8305 0.8305 0.8304
3813.991669 0.8303 0.8303
##END=
