##TITLE=2,6-Methano-3-benzazocin-8-ol, 1,2,3,4,5,6-hexahydro-3, 6,11-trimethyl-, hydrochloride, monohydrate
##JCAMP-DX=4.24
##DATA TYPE=INFRARED SPECTRUM
##CLASS=COBLENTZ III
##ORIGIN=SMITH, KLINE & FRENCH LABS.
##OWNER=Copyright (C) 1987 by the Coblentz Society
Collection (C) 2018 copyright by the U.S. Secretary of Commerce
on behalf of the United States of America. All rights reserved.
##DATE=1959/06/30
##MOLFORM=C15 H22 Cl N O  * H2 O
##SOURCE REFERENCE=COBLENTZ NO. 7309
##$NIST ID=B6007309
##$NIST SOURCE=COBLENTZ
##$NIST IMAGE=cob7309
##SPECTROMETER/DATA SYSTEM=PERKIN-ELMER 21 (GRATING)
##INSTRUMENT PARAMETERS=NaCl PRISM
##STATE=SOLID (OIL MULL)
$$SPECTRAL CONTAMINATION DUE TO OIL AROUND 2900, 1460 CM^-^1
##SAMPLING PROCEDURE=TRANSMISSION
##RESOLUTION=2
##DATA PROCESSING=DIGITIZED BY COBLENTZ SOCIETY (BATCH II) FROM HARD COPY
##XUNITS=1/CM
##YUNITS=TRANSMITTANCE
##XFACTOR=1.0
##YFACTOR=1
##FIRSTX=655
##LASTX=4000
##FIRSTY=0.5367
##MAXX=4000
##MINX=655
##MAXY=0.8446
##MINY=0.0336
##NPOINTS=3346
##XYDATA=(X++(Y..Y))
655.000000 0.5367 0.5467 0.5544 0.5608 0.5723
660.000000 0.5863 0.5945 0.5969 0.6035 0.6077
665.000000 0.6082 0.6088 0.6155 0.6264 0.6332
670.000000 0.6343 0.6396 0.6431 0.6539 0.6594
675.000000 0.6609 0.6623 0.6637 0.6661 0.6694
680.000000 0.6724 0.6723 0.6703 0.6692 0.6682
685.000000 0.6703 0.6665 0.6683 0.6767 0.6799
690.000000 0.6793 0.6766 0.6661 0.6680 0.6748
695.000000 0.6744 0.6748 0.6748 0.6753 0.6770
700.000000 0.6795 0.6817 0.6840 0.6874 0.6913
705.000000 0.6993 0.7073 0.7135 0.7181 0.7163
710.000000 0.7162 0.7231 0.7320 0.7236 0.7183
715.000000 0.7161 0.7098 0.6947 0.6839 0.6741
720.000000 0.6649 0.6590 0.6565 0.6545 0.6492
725.000000 0.6143 0.5811 0.5538 0.5536 0.5496
730.000000 0.6001 0.6121 0.6532 0.6624 0.6884
735.000000 0.6905 0.6925 0.6952 0.7008 0.7068
740.000000 0.7132 0.7194 0.7248 0.7287 0.7305
745.000000 0.7319 0.7331 0.7342 0.7345 0.7347
750.000000 0.7348 0.7328 0.7312 0.7345 0.7423
755.000000 0.7409 0.7335 0.7268 0.7214 0.7175
760.000000 0.7146 0.7119 0.7091 0.7063 0.7045
765.000000 0.7009 0.7054 0.7057 0.7062 0.7094
770.000000 0.7145 0.7213 0.7283 0.7348 0.7399
775.000000 0.7429 0.7452 0.7470 0.7481 0.7491
780.000000 0.7481 0.7469 0.7447 0.7422 0.7405
785.000000 0.7410 0.7101 0.7003 0.6977 0.7107
790.000000 0.7232 0.7365 0.7522 0.7711 0.7749
795.000000 0.7776 0.7794 0.7806 0.7823 0.7876
800.000000 0.7870 0.7853 0.7828 0.7812 0.7802
805.000000 0.7783 0.7660 0.7589 0.7449 0.7248
810.000000 0.7109 0.7046 0.7021 0.7127 0.7183
815.000000 0.7159 0.7184 0.7114 0.7065 0.6923
820.000000 0.6828 0.6637 0.6133 0.5640 0.5216
825.000000 0.5186 0.5380 0.6140 0.6899 0.7514
830.000000 0.7831 0.8019 0.8118 0.8119 0.8076
835.000000 0.8024 0.8006 0.8039 0.8030 0.7980
840.000000 0.7923 0.7854 0.7757 0.7441 0.6768
845.000000 0.6727 0.6718 0.7085 0.7552 0.7868
850.000000 0.7913 0.7950 0.7977 0.7978 0.7966
855.000000 0.7940 0.7880 0.7748 0.7601 0.7312
860.000000 0.7090 0.6490 0.6367 0.6367 0.6564
865.000000 0.6912 0.7540 0.7691 0.7720 0.7726
870.000000 0.7715 0.7709 0.7752 0.7815 0.7897
875.000000 0.7954 0.7980 0.7973 0.7971 0.7948
880.000000 0.7921 0.7868 0.7815 0.7738 0.7645
885.000000 0.7615 0.7624 0.7571 0.7685 0.7738
890.000000 0.7865 0.7976 0.8043 0.8095 0.8150
895.000000 0.8206 0.8248 0.8274 0.8288 0.8310
900.000000 0.8346 0.8365 0.8369 0.8308 0.8276
905.000000 0.8245 0.8216 0.8187 0.8154 0.8121
910.000000 0.8084 0.8045 0.8007 0.7966 0.7924
915.000000 0.7881 0.7839 0.7796 0.7757 0.7720
920.000000 0.7701 0.7725 0.7693 0.7639 0.7574
925.000000 0.7461 0.7293 0.7090 0.6852 0.6583
930.000000 0.6373 0.6089 0.5971 0.5916 0.5901
935.000000 0.6002 0.6215 0.6632 0.7047 0.7413
940.000000 0.7497 0.7501 0.7498 0.7494 0.7473
945.000000 0.7421 0.7393 0.7385 0.7396 0.7464
950.000000 0.7564 0.7583 0.7565 0.7523 0.7479
955.000000 0.7436 0.7389 0.7353 0.7354 0.7371
960.000000 0.7422 0.7495 0.7550 0.7572 0.7582
965.000000 0.7591 0.7601 0.7609 0.7618 0.7613
970.000000 0.7597 0.7557 0.7535 0.7522 0.7513
975.000000 0.7508 0.7510 0.7521 0.7535 0.7545
980.000000 0.7550 0.7551 0.7544 0.7524 0.7502
985.000000 0.7453 0.7364 0.7263 0.7206 0.7196
990.000000 0.7217 0.7165 0.7403 0.7480 0.7491
995.000000 0.7513 0.7270 0.7225 0.7340 0.7417
1000.000000 0.7476 0.7548 0.7590 0.7602 0.7610
1005.000000 0.7618 0.7591 0.7570 0.7548 0.7504
1010.000000 0.7458 0.7379 0.7239 0.7001 0.6882
1015.000000 0.6770 0.6671 0.6637 0.6649 0.6660
1020.000000 0.6658 0.6560 0.6528 0.6517 0.6673
1025.000000 0.6766 0.6842 0.6893 0.6907 0.6924
1030.000000 0.6889 0.6819 0.6627 0.6347 0.6262
1035.000000 0.6236 0.6439 0.6590 0.6763 0.6898
1040.000000 0.6903 0.6913 0.6861 0.6677 0.6460
1045.000000 0.6244 0.6028 0.5812 0.5653 0.5644
1050.000000 0.6100 0.6525 0.6951 0.7328 0.7378
1055.000000 0.7380 0.7410 0.7374 0.7368 0.7351
1060.000000 0.7318 0.7237 0.7140 0.7051 0.6935
1065.000000 0.6801 0.6656 0.6635 0.6621 0.6796
1070.000000 0.7225 0.7471 0.7556 0.7596 0.7618
1075.000000 0.7621 0.7610 0.7627 0.7572 0.7538
1080.000000 0.7500 0.7457 0.7411 0.7358 0.7287
1085.000000 0.7203 0.7096 0.6966 0.6859 0.6826
1090.000000 0.6849 0.6904 0.6924 0.6924 0.6807
1095.000000 0.6651 0.6495 0.6374 0.6366 0.6492
1100.000000 0.6700 0.6908 0.7038 0.7116 0.7243
1105.000000 0.7364 0.7430 0.7484 0.7529 0.7561
1110.000000 0.7586 0.7602 0.7611 0.7611 0.7611
1115.000000 0.7610 0.7607 0.7634 0.7601 0.7598
1120.000000 0.7590 0.7582 0.7574 0.7561 0.7540
1125.000000 0.7517 0.7495 0.7466 0.7414 0.7361
1130.000000 0.7304 0.7240 0.6960 0.6901 0.6908
1135.000000 0.6964 0.7043 0.7087 0.7078 0.7058
1140.000000 0.6874 0.6781 0.6620 0.6515 0.6501
1145.000000 0.6556 0.6626 0.6667 0.6682 0.6680
1150.000000 0.6640 0.6644 0.6697 0.6737 0.6772
1155.000000 0.6799 0.6813 0.6823 0.6827 0.6827
1160.000000 0.6829 0.6820 0.6826 0.6669 0.6576
1165.000000 0.6511 0.6465 0.6433 0.6401 0.6369
1170.000000 0.6338 0.6305 0.6198 0.6055 0.5763
1175.000000 0.5629 0.5493 0.5466 0.5473 0.5453
1180.000000 0.5846 0.6052 0.6256 0.6460 0.6495
1185.000000 0.6489 0.6466 0.6443 0.6421 0.6399
1190.000000 0.6366 0.6326 0.6273 0.6216 0.6158
1195.000000 0.6095 0.6005 0.5778 0.5594 0.5588
1200.000000 0.5556 0.5665 0.5745 0.5825 0.5905
1205.000000 0.5941 0.5930 0.5956 0.5892 0.5778
1210.000000 0.5654 0.5580 0.5492 0.5389 0.5302
1215.000000 0.5227 0.5158 0.4957 0.4682 0.4238
1220.000000 0.3946 0.3668 0.3507 0.3305 0.3034
1225.000000 0.2763 0.2455 0.2396 0.2383 0.2381
1230.000000 0.2360 0.2456 0.2683 0.2919 0.3126
1235.000000 0.3281 0.3400 0.3516 0.3644 0.3702
1240.000000 0.3739 0.3770 0.3798 0.3824 0.3846
1245.000000 0.3868 0.3889 0.3908 0.3925 0.4102
1250.000000 0.4596 0.5088 0.5581 0.6071 0.6497
1255.000000 0.6615 0.6653 0.6667 0.6660 0.6642
1260.000000 0.6616 0.6568 0.6513 0.6439 0.6331
1265.000000 0.6047 0.5828 0.5582 0.5337 0.5091
1270.000000 0.4846 0.4643 0.4593 0.4621 0.4600
1275.000000 0.4650 0.4868 0.5113 0.5357 0.5602
1280.000000 0.5846 0.6088 0.6231 0.6387 0.6445
1285.000000 0.6460 0.6463 0.6424 0.6450 0.6439
1290.000000 0.6428 0.6420 0.6412 0.6404 0.6395
1295.000000 0.6388 0.6379 0.6373 0.6373 0.6377
1300.000000 0.6381 0.6385 0.6378 0.6369 0.6358
1305.000000 0.6346 0.6334 0.6305 0.6204 0.6039
1310.000000 0.5874 0.5710 0.5587 0.5573 0.5542
1315.000000 0.5751 0.5941 0.6130 0.6320 0.6497
1320.000000 0.6540 0.6536 0.6533 0.6488 0.6380
1325.000000 0.6249 0.6117 0.5991 0.5983 0.6014
1330.000000 0.6052 0.6071 0.6073 0.6062 0.5979
1335.000000 0.5896 0.5823 0.5754 0.5693 0.5631
1340.000000 0.5544 0.5360 0.5221 0.5127 0.5052
1345.000000 0.4997 0.4944 0.4892 0.4880 0.4876
1350.000000 0.4878 0.4907 0.4940 0.4964 0.4969
1355.000000 0.4965 0.4959 0.4919 0.4863 0.4789
1360.000000 0.4704 0.4645 0.4590 0.3924 0.3703
1365.000000 0.3645 0.3611 0.3586 0.3552 0.3476
1370.000000 0.3248 0.3088 0.2967 0.2794 0.2402
1375.000000 0.2190 0.2115 0.2092 0.2087 0.2093
1380.000000 0.2080 0.2129 0.2196 0.2300 0.2410
1385.000000 0.2646 0.3026 0.3409 0.3792 0.4174
1390.000000 0.4556 0.4937 0.5320 0.5735 0.5801
1395.000000 0.5867 0.6045 0.6252 0.6298 0.6304
1400.000000 0.6314 0.6309 0.6303 0.6298 0.6291
1405.000000 0.6271 0.6230 0.6188 0.6151 0.6113
1410.000000 0.6077 0.6038 0.5980 0.5914 0.5855
1415.000000 0.5797 0.5698 0.5534 0.5369 0.5205
1420.000000 0.5040 0.4876 0.4812 0.4780 0.4747
1425.000000 0.4715 0.4682 0.4646 0.4587 0.4338
1430.000000 0.3939 0.3540 0.3131 0.2791 0.2685
1435.000000 0.2572 0.2454 0.2274 0.2100 0.1927
1440.000000 0.1624 0.1448 0.1356 0.1278 0.1218
1445.000000 0.1159 0.1112 0.1079 0.1047 0.1020
1450.000000 0.1006 0.1003 0.1002 0.1001 0.0999
1455.000000 0.0997 0.0990 0.0963 0.0929 0.0874
1460.000000 0.0830 0.0803 0.0793 0.0797 0.0804
1465.000000 0.0819 0.0844 0.0876 0.0903 0.0919
1470.000000 0.0933 0.1024 0.1236 0.1456 0.1676
1475.000000 0.1897 0.2116 0.2335 0.2555 0.2773
1480.000000 0.2992 0.3210 0.3428 0.3646 0.3863
1485.000000 0.4081 0.4297 0.4514 0.4601 0.4726
1490.000000 0.5002 0.5276 0.5548 0.5712 0.5744
1495.000000 0.5757 0.5758 0.5774 0.5625 0.5492
1500.000000 0.5360 0.5227 0.5095 0.4977 0.4911
1505.000000 0.4871 0.4855 0.4845 0.4847 0.4849
1510.000000 0.4853 0.4849 0.4876 0.4895 0.4917
1515.000000 0.4949 0.4992 0.5175 0.5438 0.5700
1520.000000 0.5962 0.6224 0.6485 0.6746 0.7007
1525.000000 0.7267 0.7464 0.7552 0.7610 0.7663
1530.000000 0.7705 0.7724 0.7742 0.7749 0.7754
1535.000000 0.7759 0.7764 0.7769 0.7773 0.7775
1540.000000 0.7777 0.7780 0.7782 0.7783 0.7785
1545.000000 0.7795 0.7808 0.7821 0.7849 0.7877
1550.000000 0.7896 0.7899 0.7901 0.7911 0.7901
1555.000000 0.7896 0.7879 0.7859 0.7841 0.7825
1560.000000 0.7813 0.7803 0.7796 0.7791 0.7789
1565.000000 0.7791 0.7797 0.7803 0.7806 0.7807
1570.000000 0.7807 0.7807 0.7807 0.7807 0.7802
1575.000000 0.7793 0.7785 0.7774 0.7762 0.7750
1580.000000 0.7737 0.7720 0.7672 0.7601 0.7507
1585.000000 0.7425 0.7355 0.7287 0.7221 0.7156
1590.000000 0.7092 0.7026 0.6958 0.6890 0.6836
1595.000000 0.6789 0.6742 0.6697 0.6655 0.6616
1600.000000 0.6578 0.6539 0.6500 0.6458 0.6415
1605.000000 0.6369 0.6318 0.6209 0.5966 0.5694
1610.000000 0.5424 0.5153 0.4883 0.4613 0.4343
1615.000000 0.4076 0.3923 0.3917 0.3917 0.3920
1620.000000 0.4273 0.4634 0.4996 0.5357 0.5718
1625.000000 0.6078 0.6438 0.6797 0.7143 0.7378
1630.000000 0.7435 0.7496 0.7550 0.7595 0.7690
1635.000000 0.7656 0.7663 0.7666 0.7669 0.7672
1640.000000 0.7672 0.7671 0.7671 0.7670 0.7668
1645.000000 0.7664 0.7657 0.7650 0.7643 0.7635
1650.000000 0.7627 0.7619 0.7612 0.7606 0.7600
1655.000000 0.7595 0.7592 0.7590 0.7532 0.7586
1660.000000 0.7585 0.7584 0.7584 0.7594 0.7610
1665.000000 0.7627 0.7644 0.7660 0.7679 0.7698
1670.000000 0.7716 0.7735 0.7754 0.7773 0.7791
1675.000000 0.7810 0.7830 0.7852 0.7874 0.7896
1680.000000 0.7917 0.7933 0.7973 0.7938 0.7939
1685.000000 0.7940 0.7939 0.7935 0.7927 0.7919
1690.000000 0.7911 0.7903 0.7888 0.7864 0.7837
1695.000000 0.7811 0.7787 0.7783 0.7781 0.7779
1700.000000 0.7778 0.7776 0.7778 0.7790 0.7802
1705.000000 0.7903 0.8047 0.8149 0.8194 0.8222
1710.000000 0.8229 0.8236 0.8243 0.8251 0.8257
1715.000000 0.8261 0.8265 0.8269 0.8274 0.8278
1720.000000 0.8282 0.8284 0.8286 0.8288 0.8288
1725.000000 0.8290 0.8291 0.8292 0.8294 0.8296
1730.000000 0.8296 0.8298 0.8298 0.8295 0.8291
1735.000000 0.8287 0.8283 0.8279 0.8275 0.8271
1740.000000 0.8266 0.8262 0.8258 0.8254 0.8250
1745.000000 0.8247 0.8246 0.8246 0.8247 0.8248
1750.000000 0.8254 0.8262 0.8270 0.8279 0.8287
1755.000000 0.8294 0.8299 0.8304 0.8309 0.8314
1760.000000 0.8318 0.8320 0.8319 0.8319 0.8318
1765.000000 0.8318 0.8317 0.8316 0.8316 0.8315
1770.000000 0.8315 0.8315 0.8315 0.8315 0.8316
1775.000000 0.8316 0.8317 0.8317 0.8317 0.8318
1780.000000 0.8318 0.8318 0.8317 0.8316 0.8314
1785.000000 0.8312 0.8310 0.8308 0.8307 0.8305
1790.000000 0.8303 0.8302 0.8304 0.8306 0.8308
1795.000000 0.8310 0.8313 0.8315 0.8317 0.8319
1800.000000 0.8326 0.8361 0.8395 0.8410 0.8411
1805.000000 0.8410 0.8409 0.8446 0.8370 0.8317
1810.000000 0.8316 0.8314 0.8312 0.8310 0.8308
1815.000000 0.8306 0.8304 0.8302 0.8301 0.8299
1820.000000 0.8297 0.8295 0.8293 0.8291 0.8289
1825.000000 0.8287 0.8286 0.8284 0.8282 0.8280
1830.000000 0.8279 0.8277 0.8274 0.8272 0.8270
1835.000000 0.8268 0.8265 0.8262 0.8260 0.8258
1840.000000 0.8255 0.8252 0.8249 0.8246 0.8243
1845.000000 0.8241 0.8238 0.8234 0.8231 0.8227
1850.000000 0.8222 0.8217 0.8212 0.8207 0.8203
1855.000000 0.8197 0.8192 0.8187 0.8182 0.8176
1860.000000 0.8170 0.8164 0.8159 0.8153 0.8146
1865.000000 0.8140 0.8135 0.8129 0.8123 0.8118
1870.000000 0.8113 0.8107 0.8102 0.8097 0.8091
1875.000000 0.8086 0.8084 0.8084 0.8084 0.8085
1880.000000 0.8086 0.8086 0.8088 0.8089 0.8090
1885.000000 0.8090 0.8086 0.8077 0.8063 0.8050
1890.000000 0.8039 0.8031 0.8027 0.8024 0.8023
1895.000000 0.8024 0.8025 0.8027 0.8028 0.8030
1900.000000 0.8031 0.8032 0.8034 0.8035 0.8036
1905.000000 0.8037 0.8037 0.8036 0.8036 0.8036
1910.000000 0.8035 0.8035 0.8034 0.8034 0.8034
1915.000000 0.8033 0.8032 0.8032 0.8031 0.8031
1920.000000 0.8031 0.8030 0.8029 0.8029 0.8027
1925.000000 0.8026 0.8024 0.8021 0.8019 0.8017
1930.000000 0.8015 0.8012 0.8009 0.8007 0.8005
1935.000000 0.8002 0.8000 0.7998 0.7996 0.7994
1940.000000 0.7991 0.7989 0.7987 0.7986 0.7984
1945.000000 0.7981 0.7979 0.7977 0.7975 0.7973
1950.000000 0.7971 0.7969 0.7967 0.7965 0.7963
1955.000000 0.7962 0.7962 0.7961 0.7960 0.7959
1960.000000 0.7958 0.7957 0.7956 0.7955 0.7954
1965.000000 0.7953 0.7952 0.7951 0.7950 0.7949
1970.000000 0.7949 0.7947 0.7946 0.7946 0.7944
1975.000000 0.7943 0.7942 0.7940 0.7938 0.7933
1980.000000 0.7928 0.7923 0.7919 0.7915 0.7910
1985.000000 0.7906 0.7901 0.7897 0.7892 0.7888
1990.000000 0.7883 0.7879 0.7876 0.7871 0.7867
1995.000000 0.7862 0.7859 0.7855 0.7850 0.7846
2000.000000 0.7842 0.7838 0.7834 0.7829 0.7825
2005.000000 0.7821 0.7817 0.7813 0.7810 0.7806
2010.000000 0.7802 0.7798 0.7795 0.7792 0.7788
2015.000000 0.7786 0.7786 0.7785 0.7784 0.7783
2020.000000 0.7782 0.7782 0.7781 0.7780 0.7780
2025.000000 0.7779 0.7778 0.7778 0.7777 0.7777
2030.000000 0.7776 0.7775 0.7775 0.7774 0.7774
2035.000000 0.7773 0.7772 0.7772 0.7771 0.7771
2040.000000 0.7771 0.7772 0.7772 0.7772 0.7772
2045.000000 0.7773 0.7773 0.7773 0.7774 0.7774
2050.000000 0.7775 0.7775 0.7775 0.7776 0.7776
2055.000000 0.7776 0.7776 0.7776 0.7776 0.7776
2060.000000 0.7776 0.7776 0.7776 0.7773 0.7763
2065.000000 0.7751 0.7737 0.7727 0.7718 0.7714
2070.000000 0.7710 0.7706 0.7705 0.7705 0.7705
2075.000000 0.7706 0.7706 0.7707 0.7707 0.7705
2080.000000 0.7701 0.7696 0.7692 0.7687 0.7682
2085.000000 0.7678 0.7667 0.7655 0.7640 0.7627
2090.000000 0.7613 0.7606 0.7602 0.7597 0.7593
2095.000000 0.7593 0.7594 0.7596 0.7597 0.7598
2100.000000 0.7600 0.7601 0.7602 0.7604 0.7605
2105.000000 0.7606 0.7606 0.7605 0.7603 0.7602
2110.000000 0.7600 0.7598 0.7596 0.7594 0.7589
2115.000000 0.7582 0.7574 0.7565 0.7557 0.7549
2120.000000 0.7541 0.7534 0.7529 0.7523 0.7517
2125.000000 0.7511 0.7506 0.7500 0.7494 0.7489
2130.000000 0.7485 0.7482 0.7480 0.7477 0.7474
2135.000000 0.7471 0.7469 0.7466 0.7466 0.7466
2140.000000 0.7466 0.7465 0.7465 0.7464 0.7464
2145.000000 0.7444 0.7423 0.7398 0.7375 0.7358
2150.000000 0.7344 0.7335 0.7326 0.7316 0.7309
2155.000000 0.7304 0.7301 0.7300 0.7298 0.7297
2160.000000 0.7296 0.7294 0.7293 0.7291 0.7289
2165.000000 0.7288 0.7287 0.7286 0.7285 0.7283
2170.000000 0.7282 0.7281 0.7280 0.7280 0.7280
2175.000000 0.7280 0.7281 0.7281 0.7282 0.7282
2180.000000 0.7282 0.7282 0.7283 0.7283 0.7284
2185.000000 0.7284 0.7285 0.7285 0.7286 0.7287
2190.000000 0.7288 0.7288 0.7289 0.7291 0.7291
2195.000000 0.7291 0.7291 0.7290 0.7289 0.7287
2200.000000 0.7283 0.7277 0.7269 0.7262 0.7253
2205.000000 0.7245 0.7238 0.7232 0.7227 0.7224
2210.000000 0.7221 0.7218 0.7215 0.7213 0.7213
2215.000000 0.7213 0.7213 0.7214 0.7214 0.7215
2220.000000 0.7215 0.7215 0.7215 0.7216 0.7216
2225.000000 0.7217 0.7217 0.7212 0.7207 0.7201
2230.000000 0.7195 0.7183 0.7169 0.7155 0.7141
2235.000000 0.7136 0.7131 0.7127 0.7122 0.7118
2240.000000 0.7113 0.7109 0.7104 0.7100 0.7095
2245.000000 0.7094 0.7093 0.7092 0.7092 0.7091
2250.000000 0.7090 0.7089 0.7089 0.7088 0.7087
2255.000000 0.7087 0.7087 0.7086 0.7086 0.7085
2260.000000 0.7085 0.7085 0.7085 0.7083 0.7081
2265.000000 0.7078 0.7075 0.7072 0.7069 0.7066
2270.000000 0.7063 0.7061 0.7058 0.7055 0.7052
2275.000000 0.7048 0.7043 0.7037 0.7030 0.7023
2280.000000 0.7017 0.7011 0.7003 0.6996 0.6981
2285.000000 0.6965 0.6949 0.6933 0.6920 0.6909
2290.000000 0.6897 0.6885 0.6874 0.6862 0.6850
2295.000000 0.6839 0.6825 0.6809 0.6793 0.6777
2300.000000 0.6760 0.6749 0.6738 0.6729 0.6720
2305.000000 0.6711 0.6703 0.6694 0.6685 0.6676
2310.000000 0.6667 0.6658 0.6649 0.6639 0.6627
2315.000000 0.6614 0.6601 0.6588 0.6575 0.6562
2320.000000 0.6546 0.6529 0.6511 0.6492 0.6474
2325.000000 0.6455 0.6418 0.6355 0.6301 0.6273
2330.000000 0.6246 0.6225 0.6203 0.6187 0.6171
2335.000000 0.6161 0.6153 0.6145 0.6137 0.6130
2340.000000 0.6124 0.6118 0.6115 0.6113 0.6110
2345.000000 0.6107 0.6104 0.6102 0.6099 0.6095
2350.000000 0.6093 0.6090 0.6088 0.6088 0.6088
2355.000000 0.6087 0.6087 0.6086 0.6086 0.6084
2360.000000 0.6081 0.6078 0.6071 0.6065 0.6059
2365.000000 0.6054 0.6047 0.6041 0.6035 0.6029
2370.000000 0.6023 0.6017 0.6011 0.6002 0.5993
2375.000000 0.5983 0.5974 0.5964 0.5954 0.5944
2380.000000 0.5935 0.5925 0.5918 0.5910 0.5904
2385.000000 0.5898 0.5894 0.5892 0.5890 0.5888
2390.000000 0.5887 0.5884 0.5882 0.5869 0.5850
2395.000000 0.5828 0.5801 0.5774 0.5748 0.5722
2400.000000 0.5697 0.5672 0.5653 0.5643 0.5632
2405.000000 0.5623 0.5614 0.5609 0.5605 0.5600
2410.000000 0.5597 0.5592 0.5587 0.5582 0.5558
2415.000000 0.5531 0.5503 0.5473 0.5445 0.5425
2420.000000 0.5404 0.5384 0.5364 0.5344 0.5324
2425.000000 0.5304 0.5285 0.5265 0.5246 0.5227
2430.000000 0.5196 0.5152 0.5108 0.5066 0.5024
2435.000000 0.4987 0.4951 0.4919 0.4894 0.4868
2440.000000 0.4848 0.4828 0.4808 0.4787 0.4768
2445.000000 0.4749 0.4730 0.4717 0.4705 0.4692
2450.000000 0.4680 0.4667 0.4655 0.4643 0.4631
2455.000000 0.4619 0.4607 0.4595 0.4583 0.4572
2460.000000 0.4561 0.4549 0.4538 0.4527 0.4516
2465.000000 0.4505 0.4494 0.4483 0.4472 0.4463
2470.000000 0.4455 0.4447 0.4440 0.4433 0.4427
2475.000000 0.4420 0.4413 0.4406 0.4400 0.4393
2480.000000 0.4387 0.4380 0.4373 0.4366 0.4360
2485.000000 0.4353 0.4346 0.4339 0.4333 0.4326
2490.000000 0.4320 0.4313 0.4307 0.4300 0.4293
2495.000000 0.4287 0.4277 0.4268 0.4257 0.4243
2500.000000 0.4229 0.4215 0.4201 0.4184 0.4164
2505.000000 0.4144 0.4110 0.4077 0.4041 0.4003
2510.000000 0.3965 0.3932 0.3900 0.3872 0.3850
2515.000000 0.3828 0.3806 0.3784 0.3761 0.3737
2520.000000 0.3712 0.3683 0.3653 0.3624 0.3597
2525.000000 0.3571 0.3554 0.3539 0.3525 0.3510
2530.000000 0.3496 0.3481 0.3467 0.3452 0.3436
2535.000000 0.3420 0.3404 0.3389 0.3374 0.3371
2540.000000 0.3369 0.3367 0.3365 0.3363 0.3361
2545.000000 0.3359 0.3357 0.3355 0.3352 0.3350
2550.000000 0.3348 0.3347 0.3345 0.3343 0.3339
2555.000000 0.3332 0.3324 0.3317 0.3310 0.3302
2560.000000 0.3295 0.3288 0.3282 0.3278 0.3274
2565.000000 0.3272 0.3270 0.3268 0.3266 0.3264
2570.000000 0.3263 0.3262 0.3262 0.3262 0.3262
2575.000000 0.3262 0.3262 0.3262 0.3261 0.3261
2580.000000 0.3260 0.3258 0.3256 0.3254 0.3252
2585.000000 0.3250 0.3243 0.3234 0.3225 0.3212
2590.000000 0.3199 0.3182 0.3160 0.3138 0.3117
2595.000000 0.3098 0.3079 0.3061 0.3044 0.3026
2600.000000 0.3009 0.2991 0.2974 0.2957 0.2940
2605.000000 0.2924 0.2907 0.2891 0.2874 0.2857
2610.000000 0.2840 0.2823 0.2806 0.2789 0.2772
2615.000000 0.2755 0.2737 0.2720 0.2703 0.2686
2620.000000 0.2670 0.2652 0.2633 0.2614 0.2595
2625.000000 0.2576 0.2556 0.2536 0.2515 0.2494
2630.000000 0.2473 0.2451 0.2432 0.2417 0.2403
2635.000000 0.2392 0.2384 0.2377 0.2370 0.2364
2640.000000 0.2359 0.2359 0.2359 0.2359 0.2360
2645.000000 0.2360 0.2364 0.2374 0.2384 0.2416
2650.000000 0.2460 0.2503 0.2553 0.2605 0.2654
2655.000000 0.2681 0.2707 0.2731 0.2750 0.2768
2660.000000 0.2783 0.2792 0.2802 0.2808 0.2813
2665.000000 0.2818 0.2823 0.2828 0.2832 0.2835
2670.000000 0.2839 0.2842 0.2845 0.2848 0.2852
2675.000000 0.2862 0.2871 0.2882 0.2895 0.2909
2680.000000 0.2922 0.2934 0.2947 0.2960 0.2972
2685.000000 0.2985 0.3000 0.3015 0.3031 0.3049
2690.000000 0.3067 0.3085 0.3106 0.3127 0.3148
2695.000000 0.3169 0.3190 0.3211 0.3229 0.3247
2700.000000 0.3265 0.3284 0.3303 0.3323 0.3347
2705.000000 0.3370 0.3396 0.3423 0.3450 0.3477
2710.000000 0.3503 0.3529 0.3565 0.3611 0.3656
2715.000000 0.3681 0.3690 0.3698 0.3707 0.3715
2720.000000 0.3724 0.3733 0.3743 0.3753 0.3765
2725.000000 0.3778 0.3791 0.3803 0.3816 0.3828
2730.000000 0.3843 0.3860 0.3876 0.3963 0.4074
2735.000000 0.4184 0.4232 0.4260 0.4289 0.4340
2740.000000 0.4398 0.4456 0.4498 0.4535 0.4573
2745.000000 0.4599 0.4621 0.4644 0.4666 0.4688
2750.000000 0.4710 0.4734 0.4758 0.4781 0.4805
2755.000000 0.4829 0.4852 0.4878 0.4904 0.4930
2760.000000 0.4947 0.4959 0.4970 0.4981 0.4991
2765.000000 0.5002 0.5010 0.5014 0.5018 0.5022
2770.000000 0.5026 0.5029 0.5046 0.5034 0.5035
2775.000000 0.5036 0.5036 0.5036 0.5035 0.5034
2780.000000 0.5033 0.5032 0.5030 0.5027 0.5024
2785.000000 0.5017 0.5011 0.5004 0.4993 0.4982
2790.000000 0.4971 0.4953 0.4934 0.4914 0.4889
2795.000000 0.4862 0.4835 0.4809 0.4784 0.4758
2800.000000 0.4729 0.4693 0.4658 0.4621 0.4583
2805.000000 0.4544 0.4498 0.4418 0.4337 0.4256
2810.000000 0.4160 0.4063 0.3967 0.3853 0.3736
2815.000000 0.3619 0.3502 0.3386 0.3269 0.3152
2820.000000 0.3036 0.2919 0.2803 0.2687 0.2570
2825.000000 0.2454 0.2338 0.2223 0.2107 0.1991
2830.000000 0.1876 0.1760 0.1596 0.1415 0.1234
2835.000000 0.1132 0.1099 0.1065 0.1030 0.0991
2840.000000 0.0951 0.0912 0.0879 0.0845 0.0811
2845.000000 0.0789 0.0769 0.0749 0.0729 0.0709
2850.000000 0.0689 0.0669 0.0650 0.0631 0.0612
2855.000000 0.0595 0.0579 0.0563 0.0552 0.0542
2860.000000 0.0532 0.0523 0.0515 0.0508 0.0501
2865.000000 0.0498 0.0495 0.0491 0.0490 0.0488
2870.000000 0.0487 0.0485 0.0484 0.0482 0.0481
2875.000000 0.0479 0.0478 0.0476 0.0475 0.0474
2880.000000 0.0473 0.0470 0.0468 0.0465 0.0461
2885.000000 0.0457 0.0453 0.0447 0.0433 0.0420
2890.000000 0.0406 0.0394 0.0383 0.0372 0.0363
2895.000000 0.0356 0.0349 0.0343 0.0341 0.0338
2900.000000 0.0336 0.0336 0.0337 0.0337 0.0338
2905.000000 0.0338 0.0339 0.0340 0.0340 0.0341
2910.000000 0.0342 0.0343 0.0344 0.0345 0.0346
2915.000000 0.0347 0.0347 0.0348 0.0349 0.0350
2920.000000 0.0351 0.0352 0.0353 0.0354 0.0356
2925.000000 0.0357 0.0358 0.0360 0.0361 0.0363
2930.000000 0.0364 0.0366 0.0369 0.0372 0.0376
2935.000000 0.0381 0.0388 0.0394 0.0400 0.0406
2940.000000 0.0411 0.0417 0.0422 0.0427 0.0432
2945.000000 0.0436 0.0437 0.0438 0.0439 0.0441
2950.000000 0.0442 0.0443 0.0444 0.0444 0.0445
2955.000000 0.0445 0.0446 0.0447 0.0447 0.0448
2960.000000 0.0449 0.0450 0.0450 0.0487 0.0527
2965.000000 0.0567 0.0603 0.0634 0.0665 0.0696
2970.000000 0.0711 0.0725 0.0739 0.0763 0.0806
2975.000000 0.0849 0.0892 0.0949 0.1008 0.1068
2980.000000 0.1127 0.1186 0.1245 0.1304 0.1363
2985.000000 0.1423 0.1482 0.1541 0.1600 0.1658
2990.000000 0.1717 0.1776 0.1835 0.1893 0.1952
2995.000000 0.2011 0.2069 0.2128 0.2192 0.2265
3000.000000 0.2337 0.2409 0.2444 0.2469 0.2495
3005.000000 0.2520 0.2543 0.2566 0.2590 0.2613
3010.000000 0.2636 0.2658 0.2681 0.2704 0.2727
3015.000000 0.2750 0.2773 0.2796 0.2819 0.2842
3020.000000 0.2865 0.2888 0.2910 0.2933 0.2956
3025.000000 0.2979 0.3002 0.3025 0.3047 0.3070
3030.000000 0.3093 0.3115 0.3138 0.3160 0.3183
3035.000000 0.3187 0.3191 0.3196 0.3198 0.3197
3040.000000 0.3196 0.3195 0.3193 0.3192 0.3190
3045.000000 0.3189 0.3211 0.3181 0.3177 0.3173
3050.000000 0.3166 0.3160 0.3153 0.3146 0.3138
3055.000000 0.3131 0.3123 0.3115 0.3107 0.3099
3060.000000 0.3091 0.3079 0.3066 0.3054 0.3041
3065.000000 0.3029 0.3017 0.3004 0.2994 0.2984
3070.000000 0.2974 0.2965 0.2955 0.2946 0.2936
3075.000000 0.2927 0.2915 0.2903 0.2891 0.2879
3080.000000 0.2865 0.2851 0.2837 0.2824 0.2811
3085.000000 0.2799 0.2787 0.2771 0.2754 0.2737
3090.000000 0.2720 0.2699 0.2677 0.2655 0.2634
3095.000000 0.2610 0.2586 0.2563 0.2539 0.2519
3100.000000 0.2499 0.2478 0.2461 0.2452 0.2443
3105.000000 0.2434 0.2426 0.2420 0.2415 0.2409
3110.000000 0.2406 0.2405 0.2403 0.2402 0.2401
3115.000000 0.2401 0.2400 0.2400 0.2393 0.2384
3120.000000 0.2375 0.2366 0.2352 0.2336 0.2321
3125.000000 0.2306 0.2290 0.2275 0.2260 0.2245
3130.000000 0.2232 0.2218 0.2204 0.2191 0.2181
3135.000000 0.2172 0.2162 0.2152 0.2143 0.2133
3140.000000 0.2123 0.2114 0.2104 0.2094 0.2085
3145.000000 0.2074 0.2060 0.2047 0.2034 0.2022
3150.000000 0.2011 0.2001 0.1991 0.1981 0.1972
3155.000000 0.1964 0.1955 0.1948 0.1942 0.1936
3160.000000 0.1930 0.1924 0.1919 0.1914 0.1908
3165.000000 0.1904 0.1902 0.1899 0.1897 0.1895
3170.000000 0.1893 0.1891 0.1889 0.1887 0.1885
3175.000000 0.1884 0.1882 0.1882 0.1882 0.1882
3180.000000 0.1882 0.1882 0.1882 0.1882 0.1882
3185.000000 0.1886 0.1886 0.1888 0.1891 0.1893
3190.000000 0.1896 0.1899 0.1901 0.1904 0.1907
3195.000000 0.1911 0.1914 0.1918 0.1921 0.1925
3200.000000 0.1928 0.1931 0.1937 0.1943 0.1948
3205.000000 0.1954 0.1962 0.1971 0.1980 0.1988
3210.000000 0.1999 0.2011 0.2023 0.2035 0.2054
3215.000000 0.2078 0.2102 0.2126 0.2153 0.2183
3220.000000 0.2213 0.2244 0.2274 0.2304 0.2335
3225.000000 0.2365 0.2395 0.2426 0.2456 0.2486
3230.000000 0.2516 0.2546 0.2577 0.2607 0.2637
3235.000000 0.2667 0.2697 0.2726 0.2756 0.2786
3240.000000 0.2816 0.2846 0.2876 0.2906 0.2936
3245.000000 0.2966 0.2996 0.3026 0.3056 0.3086
3250.000000 0.3115 0.3145 0.3175 0.3205 0.3235
3255.000000 0.3264 0.3294 0.3323 0.3353 0.3382
3260.000000 0.3412 0.3441 0.3471 0.3501 0.3530
3265.000000 0.3560 0.3589 0.3619 0.3648 0.3678
3270.000000 0.3707 0.3737 0.3766 0.3795 0.3825
3275.000000 0.3854 0.3884 0.3913 0.3942 0.3971
3280.000000 0.4000 0.4030 0.4068 0.4105 0.4142
3285.000000 0.4179 0.4198 0.4213 0.4229 0.4244
3290.000000 0.4258 0.4272 0.4285 0.4298 0.4311
3295.000000 0.4323 0.4335 0.4347 0.4360 0.4376
3300.000000 0.4392 0.4409 0.4425 0.4437 0.4443
3305.000000 0.4450 0.4457 0.4463 0.4469 0.4475
3310.000000 0.4480 0.4486 0.4489 0.4492 0.4494
3315.000000 0.4497 0.4499 0.4500 0.4502 0.4503
3320.000000 0.4504 0.4505 0.4505 0.4506 0.4506
3325.000000 0.4549 0.4507 0.4507 0.4507 0.4507
3330.000000 0.4507 0.4507 0.4507 0.4507 0.4506
3335.000000 0.4505 0.4504 0.4503 0.4502 0.4502
3340.000000 0.4501 0.4500 0.4500 0.4498 0.4497
3345.000000 0.4495 0.4494 0.4492 0.4489 0.4487
3350.000000 0.4484 0.4482 0.4480 0.4477 0.4475
3355.000000 0.4472 0.4470 0.4468 0.4465 0.4463
3360.000000 0.4461 0.4457 0.4453 0.4448 0.4444
3365.000000 0.4439 0.4434 0.4429 0.4424 0.4419
3370.000000 0.4412 0.4405 0.4397 0.4390 0.4382
3375.000000 0.4372 0.4362 0.4353 0.4343 0.4334
3380.000000 0.4324 0.4315 0.4305 0.4296 0.4288
3385.000000 0.4279 0.4271 0.4262 0.4254 0.4245
3390.000000 0.4237 0.4228 0.4220 0.4211 0.4202
3395.000000 0.4193 0.4184 0.4177 0.4174 0.4172
3400.000000 0.4170 0.4167 0.4167 0.4167 0.4167
3405.000000 0.4167 0.4167 0.4167 0.4168 0.4169
3410.000000 0.4170 0.4153 0.4172 0.4173 0.4174
3415.000000 0.4175 0.4176 0.4178 0.4179 0.4180
3420.000000 0.4182 0.4184 0.4186 0.4188 0.4190
3425.000000 0.4198 0.4219 0.4239 0.4259 0.4279
3430.000000 0.4310 0.4346 0.4381 0.4417 0.4453
3435.000000 0.4489 0.4525 0.4560 0.4596 0.4632
3440.000000 0.4668 0.4703 0.4739 0.4775 0.4810
3445.000000 0.4846 0.4882 0.4917 0.4953 0.4988
3450.000000 0.5024 0.5059 0.5095 0.5130 0.5165
3455.000000 0.5200 0.5236 0.5271 0.5306 0.5341
3460.000000 0.5377 0.5412 0.5447 0.5482 0.5518
3465.000000 0.5553 0.5588 0.5623 0.5658 0.5693
3470.000000 0.5729 0.5764 0.5799 0.5834 0.5869
3475.000000 0.5904 0.5939 0.5974 0.5995 0.6015
3480.000000 0.6035 0.6055 0.6077 0.6108 0.6139
3485.000000 0.6170 0.6201 0.6229 0.6249 0.6268
3490.000000 0.6288 0.6307 0.6326 0.6342 0.6358
3495.000000 0.6373 0.6389 0.6402 0.6412 0.6422
3500.000000 0.6432 0.6442 0.6452 0.6462 0.6472
3505.000000 0.6482 0.6492 0.6502 0.6512 0.6522
3510.000000 0.6531 0.6541 0.6551 0.6561 0.6571
3515.000000 0.6582 0.6592 0.6607 0.6623 0.6640
3520.000000 0.6656 0.6672 0.6688 0.6704 0.6719
3525.000000 0.6735 0.6750 0.6758 0.6765 0.6772
3530.000000 0.6779 0.6786 0.6793 0.6800 0.6808
3535.000000 0.6815 0.6822 0.6827 0.6832 0.6837
3540.000000 0.6842 0.6847 0.6852 0.6857 0.6862
3545.000000 0.6867 0.6872 0.6876 0.6879 0.6882
3550.000000 0.6886 0.6889 0.6891 0.6893 0.6895
3555.000000 0.6897 0.6899 0.6901 0.6903 0.6905
3560.000000 0.6907 0.6909 0.6911 0.6913 0.6915
3565.000000 0.6917 0.6919 0.6921 0.6923 0.6925
3570.000000 0.6927 0.6929 0.6931 0.6932 0.6934
3575.000000 0.6936 0.6938 0.6939 0.6941 0.6943
3580.000000 0.6945 0.6946 0.6948 0.6950 0.6952
3585.000000 0.6953 0.6955 0.6957 0.6959 0.6960
3590.000000 0.6962 0.6964 0.6966 0.6967 0.6969
3595.000000 0.6971 0.6973 0.6974 0.6976 0.6978
3600.000000 0.6979 0.6981 0.6983 0.6983 0.6983
3605.000000 0.6983 0.6983 0.6983 0.6984 0.6982
3610.000000 0.6982 0.6981 0.6981 0.6980 0.6980
3615.000000 0.6980 0.6980 0.6980 0.6979 0.6979
3620.000000 0.6979 0.6978 0.6978 0.6978 0.6977
3625.000000 0.6975 0.6974 0.6973 0.6972 0.6971
3630.000000 0.6969 0.6968 0.6966 0.6965 0.6963
3635.000000 0.6961 0.6960 0.6958 0.6956 0.6955
3640.000000 0.6953 0.6951 0.6949 0.6948 0.6946
3645.000000 0.6944 0.6941 0.6938 0.6936 0.6933
3650.000000 0.6930 0.6927 0.6924 0.6920 0.6917
3655.000000 0.6913 0.6910 0.6907 0.6903 0.6900
3660.000000 0.6897 0.6893 0.6889 0.6886 0.6882
3665.000000 0.6878 0.6874 0.6868 0.6862 0.6856
3670.000000 0.6850 0.6844 0.6838 0.6832 0.6827
3675.000000 0.6821 0.6815 0.6810 0.6804 0.6798
3680.000000 0.6793 0.6787 0.6782 0.6776 0.6771
3685.000000 0.6765 0.6760 0.6754 0.6749 0.6743
3690.000000 0.6738 0.6732 0.6727 0.6721 0.6716
3695.000000 0.6711 0.6706 0.6702 0.6697 0.6692
3700.000000 0.6687 0.6682 0.6678 0.6673 0.6668
3705.000000 0.6664 0.6659 0.6655 0.6650 0.6645
3710.000000 0.6641 0.6636 0.6631 0.6627 0.6622
3715.000000 0.6617 0.6612 0.6608 0.6603 0.6598
3720.000000 0.6594 0.6588 0.6583 0.6577 0.6571
3725.000000 0.6566 0.6560 0.6554 0.6549 0.6543
3730.000000 0.6537 0.6531 0.6526 0.6520 0.6514
3735.000000 0.6509 0.6503 0.6497 0.6492 0.6486
3740.000000 0.6480 0.6475 0.6469 0.6464 0.6459
3745.000000 0.6453 0.6448 0.6443 0.6437 0.6433
3750.000000 0.6429 0.6425 0.6421 0.6417 0.6412
3755.000000 0.6408 0.6404 0.6400 0.6395 0.6391
3760.000000 0.6387 0.6383 0.6378 0.6374 0.6370
3765.000000 0.6366 0.6362 0.6358 0.6354 0.6350
3770.000000 0.6345 0.6341 0.6337 0.6333 0.6329
3775.000000 0.6325 0.6320 0.6316 0.6312 0.6308
3780.000000 0.6304 0.6300 0.6296 0.6292 0.6288
3785.000000 0.6284 0.6279 0.6275 0.6271 0.6267
3790.000000 0.6264 0.6260 0.6256 0.6253 0.6249
3795.000000 0.6246 0.6243 0.6239 0.6236 0.6233
3800.000000 0.6229 0.6226 0.6222 0.6219 0.6216
3805.000000 0.6212 0.6209 0.6205 0.6202 0.6198
3810.000000 0.6195 0.6191 0.6188 0.6185 0.6181
3815.000000 0.6178 0.6174 0.6171 0.6168 0.6164
3820.000000 0.6161 0.6158 0.6155 0.6151 0.6148
3825.000000 0.6144 0.6141 0.6138 0.6134 0.6131
3830.000000 0.6127 0.6124 0.6121 0.6117 0.6114
3835.000000 0.6111 0.6108 0.6105 0.6103 0.6100
3840.000000 0.6097 0.6095 0.6093 0.6090 0.6088
3845.000000 0.6086 0.6084 0.6082 0.6080 0.6078
3850.000000 0.6076 0.6074 0.6072 0.6070 0.6068
3855.000000 0.6066 0.6064 0.6062 0.6060 0.6057
3860.000000 0.6055 0.6053 0.6051 0.6049 0.6046
3865.000000 0.6044 0.6042 0.6040 0.6038 0.6036
3870.000000 0.6034 0.6032 0.6030 0.6028 0.6026
3875.000000 0.6024 0.6022 0.6020 0.6018 0.6016
3880.000000 0.6014 0.6012 0.6009 0.6008 0.6006
3885.000000 0.6004 0.6002 0.6000 0.5999 0.5997
3890.000000 0.5996 0.5995 0.5994 0.5993 0.5992
3895.000000 0.5990 0.5989 0.5988 0.5987 0.5986
3900.000000 0.5985 0.5984 0.5982 0.5981 0.5980
3905.000000 0.5979 0.5978 0.5977 0.5975 0.5974
3910.000000 0.5973 0.5972 0.5971 0.5970 0.5969
3915.000000 0.5967 0.5966 0.5965 0.5964 0.5963
3920.000000 0.5962 0.5961 0.5960 0.5958 0.5957
3925.000000 0.5956 0.5955 0.5954 0.5953 0.5952
3930.000000 0.5950 0.5949 0.5948 0.5947 0.5946
3935.000000 0.5945 0.5944 0.5943 0.5941 0.5940
3940.000000 0.5939 0.5938 0.5937 0.5936 0.5933
3945.000000 0.5930 0.5927 0.5925 0.5922 0.5919
3950.000000 0.5916 0.5913 0.5910 0.5907 0.5904
3955.000000 0.5902 0.5899 0.5896 0.5893 0.5890
3960.000000 0.5887 0.5884 0.5881 0.5879 0.5876
3965.000000 0.5873 0.5870 0.5867 0.5864 0.5862
3970.000000 0.5860 0.5858 0.5856 0.5854 0.5852
3975.000000 0.5850 0.5848 0.5845 0.5843 0.5841
3980.000000 0.5839 0.5837 0.5835 0.5833 0.5831
3985.000000 0.5829 0.5827 0.5825 0.5823 0.5821
3990.000000 0.5820 0.5818 0.5816 0.5815 0.5813
3995.000000 0.5811 0.5809 0.5808 0.5806 0.5804
4000.000000 0.5803
##END=
