##TITLE=CHONDROCURARINE, IODIDE
##JCAMP-DX=4.24
$$ By DXEDIT 1.05 (RS McDonald)
##DATA TYPE=INFRARED SPECTRUM
##CLASS=COBLENTZ III
##OWNER=COBLENTZ SOC.
Collection (C) 2018 copyright by the U.S. Secretary of Commerce
on behalf of the United States of America. All rights reserved.
##DATE=1963/02/28
##MOLFORM=C38 H44 I2 N2 O6
##MP=277-280 C DECOMP.
##SOURCE REFERENCE=COBLENTZ NO. 05179
##$NIST ID=B6005179
##$NIST SOURCE=COBLENTZ
##$NIST IMAGE=cob5179
##SPECTROMETER/DATA SYSTEM=PERKIN-ELMER 21 (GRATING)
##INSTRUMENT PARAMETERS=FILTER AT ABOUT 10 MICRONS
##STATE=SOLID (KI DISC)
##PATH LENGTH=
$$ SPECTRAL FEATURE AT 999 CM^-^1 IS AN ARTIFACT CAUSED BY FILTER CHANGE
##SAMPLING PROCEDURE=TRANSMISSION
##RESOLUTION=2
##DATA PROCESSING=DIGITIZED BY COBLENTZ SOCIETY (BATCH I) FROM HARD COPY
##XUNITS=1/CM
##YUNITS=TRANSMITTANCE
##XLABEL=Wavenumbers (cm-1)
##YLABEL=Transmittance
##XFACTOR=1
##YFACTOR=1
##DELTAX=1
##FIRSTX=4000
##LASTX=667
##FIRSTY=0.619
##MAXX=4000
##MINX=667
##MAXY=0.7611
##MINY=0.1039
##NPOINTS=3334
##XYDATA=(X++(Y..Y))
4000.000000 0.6190 0.6190 0.6190 0.6190 0.6190
3995.000000 0.6190 0.6190 0.6189 0.6189 0.6189
3990.000000 0.6189 0.6189 0.6189 0.6189 0.6189
3985.000000 0.6189 0.6189 0.6189 0.6189 0.6189
3980.000000 0.6188 0.6188 0.6188 0.6188 0.6188
3975.000000 0.6188 0.6188 0.6188 0.6188 0.6188
3970.000000 0.6188 0.6188 0.6189 0.6190 0.6191
3965.000000 0.6192 0.6193 0.6194 0.6194 0.6195
3960.000000 0.6196 0.6197 0.6198 0.6198 0.6199
3955.000000 0.6200 0.6201 0.6202 0.6202 0.6203
3950.000000 0.6204 0.6205 0.6206 0.6207 0.6208
3945.000000 0.6209 0.6210 0.6210 0.6210 0.6212
3940.000000 0.6212 0.6214 0.6215 0.6216 0.6216
3935.000000 0.6217 0.6218 0.6219 0.6220 0.6220
3930.000000 0.6221 0.6222 0.6223 0.6224 0.6224
3925.000000 0.6225 0.6226 0.6227 0.6228 0.6229
3920.000000 0.6230 0.6231 0.6232 0.6232 0.6233
3915.000000 0.6233 0.6234 0.6234 0.6235 0.6235
3910.000000 0.6235 0.6236 0.6236 0.6236 0.6237
3905.000000 0.6237 0.6238 0.6238 0.6239 0.6239
3900.000000 0.6240 0.6240 0.6240 0.6241 0.6241
3895.000000 0.6241 0.6242 0.6242 0.6242 0.6243
3890.000000 0.6243 0.6243 0.6244 0.6244 0.6245
3885.000000 0.6245 0.6245 0.6246 0.6246 0.6246
3880.000000 0.6245 0.6244 0.6243 0.6242 0.6242
3875.000000 0.6241 0.6240 0.6239 0.6238 0.6237
3870.000000 0.6237 0.6236 0.6235 0.6234 0.6233
3865.000000 0.6232 0.6232 0.6231 0.6230 0.6229
3860.000000 0.6228 0.6227 0.6226 0.6226 0.6225
3855.000000 0.6224 0.6224 0.6223 0.6222 0.6222
3850.000000 0.6221 0.6220 0.6219 0.6218 0.6217
3845.000000 0.6217 0.6216 0.6215 0.6215 0.6214
3840.000000 0.6212 0.6212 0.6212 0.6210 0.6210
3835.000000 0.6210 0.6209 0.6209 0.6208 0.6208
3830.000000 0.6207 0.6207 0.6206 0.6205 0.6205
3825.000000 0.6204 0.6203 0.6203 0.6202 0.6201
3820.000000 0.6201 0.6200 0.6199 0.6199 0.6198
3815.000000 0.6198 0.6197 0.6197 0.6196 0.6196
3810.000000 0.6195 0.6194 0.6193 0.6193 0.6192
3805.000000 0.6192 0.6192 0.6192 0.6192 0.6192
3800.000000 0.6192 0.6192 0.6192 0.6192 0.6192
3795.000000 0.6192 0.6192 0.6193 0.6193 0.6193
3790.000000 0.6193 0.6193 0.6193 0.6194 0.6194
3785.000000 0.6194 0.6194 0.6194 0.6195 0.6195
3780.000000 0.6195 0.6195 0.6195 0.6195 0.6196
3775.000000 0.6196 0.6196 0.6196 0.6196 0.6196
3770.000000 0.6197 0.6197 0.6197 0.6197 0.6197
3765.000000 0.6198 0.6198 0.6198 0.6198 0.6198
3760.000000 0.6198 0.6199 0.6199 0.6199 0.6199
3755.000000 0.6199 0.6199 0.6200 0.6200 0.6200
3750.000000 0.6200 0.6200 0.6200 0.6200 0.6200
3745.000000 0.6200 0.6200 0.6200 0.6199 0.6199
3740.000000 0.6199 0.6199 0.6199 0.6199 0.6199
3735.000000 0.6199 0.6199 0.6199 0.6199 0.6198
3730.000000 0.6198 0.6198 0.6198 0.6198 0.6198
3725.000000 0.6197 0.6197 0.6197 0.6197 0.6197
3720.000000 0.6197 0.6197 0.6197 0.6197 0.6197
3715.000000 0.6197 0.6196 0.6196 0.6196 0.6196
3710.000000 0.6196 0.6195 0.6195 0.6195 0.6195
3705.000000 0.6195 0.6195 0.6194 0.6194 0.6194
3700.000000 0.6194 0.6194 0.6193 0.6193 0.6193
3695.000000 0.6193 0.6193 0.6193 0.6192 0.6192
3690.000000 0.6191 0.6191 0.6191 0.6190 0.6190
3685.000000 0.6190 0.6190 0.6190 0.6190 0.6189
3680.000000 0.6189 0.6189 0.6189 0.6189 0.6188
3675.000000 0.6188 0.6188 0.6187 0.6187 0.6186
3670.000000 0.6186 0.6185 0.6185 0.6184 0.6184
3665.000000 0.6183 0.6183 0.6182 0.6181 0.6181
3660.000000 0.6180 0.6180 0.6179 0.6179 0.6178
3655.000000 0.6178 0.6177 0.6176 0.6175 0.6175
3650.000000 0.6174 0.6171 0.6167 0.6164 0.6160
3645.000000 0.6156 0.6152 0.6146 0.6140 0.6134
3640.000000 0.6128 0.6122 0.6116 0.6110 0.6104
3635.000000 0.6098 0.6092 0.6085 0.6078 0.6071
3630.000000 0.6064 0.6057 0.6048 0.6035 0.6022
3625.000000 0.6009 0.5996 0.5983 0.5970 0.5957
3620.000000 0.5944 0.5931 0.5918 0.5906 0.5893
3615.000000 0.5880 0.5868 0.5855 0.5843 0.5830
3610.000000 0.5818 0.5806 0.5794 0.5781 0.5769
3605.000000 0.5757 0.5745 0.5733 0.5708 0.5656
3600.000000 0.5604 0.5551 0.5499 0.5447 0.5406
3595.000000 0.5365 0.5323 0.5282 0.5240 0.5199
3590.000000 0.5157 0.5115 0.5074 0.5032 0.4990
3585.000000 0.4949 0.4907 0.4865 0.4824 0.4782
3580.000000 0.4740 0.4698 0.4657 0.4615 0.4590
3575.000000 0.4578 0.4567 0.4556 0.4545 0.4539
3570.000000 0.4539 0.4539 0.4539 0.4539 0.4541
3565.000000 0.4545 0.4550 0.4554 0.4558 0.4566
3560.000000 0.4584 0.4602 0.4621 0.4639 0.4657
3555.000000 0.4675 0.4694 0.4712 0.4731 0.4749
3550.000000 0.4767 0.4786 0.4804 0.4822 0.4840
3545.000000 0.4859 0.4877 0.4896 0.4914 0.4932
3540.000000 0.4945 0.4958 0.4971 0.4984 0.4996
3535.000000 0.4996 0.4997 0.4997 0.4998 0.4999
3530.000000 0.4999 0.4999 0.5000 0.5000 0.5000
3525.000000 0.4999 0.4998 0.4997 0.4996 0.4994
3520.000000 0.4992 0.4991 0.4989 0.4987 0.4985
3515.000000 0.4983 0.4982 0.4980 0.4978 0.4975
3510.000000 0.4968 0.4960 0.4954 0.4947 0.4940
3505.000000 0.4933 0.4926 0.4920 0.4912 0.4905
3500.000000 0.4897 0.4889 0.4881 0.4873 0.4862
3495.000000 0.4850 0.4837 0.4825 0.4812 0.4800
3490.000000 0.4787 0.4774 0.4760 0.4749 0.4732
3485.000000 0.4712 0.4695 0.4677 0.4658 0.4637
3480.000000 0.4614 0.4592 0.4570 0.4547 0.4525
3475.000000 0.4503 0.4480 0.4458 0.4436 0.4412
3470.000000 0.4391 0.4368 0.4346 0.4323 0.4301
3465.000000 0.4278 0.4256 0.4233 0.4210 0.4188
3460.000000 0.4166 0.4143 0.4121 0.4098 0.4076
3455.000000 0.4053 0.4030 0.4009 0.3986 0.3962
3450.000000 0.3941 0.3918 0.3895 0.3872 0.3850
3445.000000 0.3827 0.3804 0.3782 0.3759 0.3736
3440.000000 0.3712 0.3690 0.3666 0.3645 0.3622
3435.000000 0.3599 0.3576 0.3553 0.3530 0.3508
3430.000000 0.3484 0.3462 0.3439 0.3416 0.3393
3425.000000 0.3370 0.3347 0.3324 0.3300 0.3278
3420.000000 0.3255 0.3249 0.3243 0.3237 0.3232
3415.000000 0.3227 0.3224 0.3222 0.3220 0.3185
3410.000000 0.3216 0.3214 0.3214 0.3212 0.3212
3405.000000 0.3212 0.3212 0.3212 0.3212 0.3210
3400.000000 0.3210 0.3210 0.3210 0.3210 0.3212
3395.000000 0.3216 0.3218 0.3223 0.3226 0.3232
3390.000000 0.3238 0.3243 0.3249 0.3256 0.3264
3385.000000 0.3274 0.3282 0.3291 0.3300 0.3309
3380.000000 0.3316 0.3326 0.3334 0.3344 0.3352
3375.000000 0.3360 0.3370 0.3380 0.3390 0.3399
3370.000000 0.3409 0.3418 0.3429 0.3439 0.3449
3365.000000 0.3459 0.3468 0.3479 0.3489 0.3499
3360.000000 0.3509 0.3526 0.3541 0.3557 0.3573
3355.000000 0.3582 0.3588 0.3594 0.3600 0.3605
3350.000000 0.3609 0.3612 0.3616 0.3620 0.3623
3345.000000 0.3627 0.3630 0.3634 0.3637 0.3639
3340.000000 0.3641 0.3642 0.3644 0.3646 0.3647
3335.000000 0.3649 0.3650 0.3652 0.3654 0.3655
3330.000000 0.3657 0.3658 0.3659 0.3660 0.3662
3325.000000 0.3664 0.3664 0.3666 0.3668 0.3670
3320.000000 0.3672 0.3673 0.3675 0.3676 0.3678
3315.000000 0.3680 0.3682 0.3684 0.3686 0.3688
3310.000000 0.3690 0.3692 0.3694 0.3696 0.3698
3305.000000 0.3700 0.3702 0.3704 0.3707 0.3709
3300.000000 0.3710 0.3714 0.3716 0.3718 0.3720
3295.000000 0.3722 0.3724 0.3726 0.3728 0.3730
3290.000000 0.3732 0.3734 0.3737 0.3739 0.3741
3285.000000 0.3743 0.3745 0.3747 0.3750 0.3752
3280.000000 0.3754 0.3757 0.3759 0.3760 0.3762
3275.000000 0.3764 0.3766 0.3766 0.3768 0.3770
3270.000000 0.3771 0.3772 0.3772 0.3773 0.3774
3265.000000 0.3775 0.3775 0.3775 0.3774 0.3774
3260.000000 0.3773 0.3772 0.3771 0.3771 0.3797
3255.000000 0.3768 0.3768 0.3768 0.3768 0.3768
3250.000000 0.3766 0.3766 0.3764 0.3764 0.3760
3245.000000 0.3757 0.3753 0.3749 0.3744 0.3739
3240.000000 0.3732 0.3727 0.3720 0.3709 0.3698
3235.000000 0.3687 0.3676 0.3664 0.3654 0.3643
3230.000000 0.3632 0.3620 0.3608 0.3596 0.3584
3225.000000 0.3566 0.3549 0.3532 0.3514 0.3496
3220.000000 0.3478 0.3459 0.3441 0.3426 0.3412
3215.000000 0.3400 0.3387 0.3374 0.3362 0.3350
3210.000000 0.3338 0.3326 0.3314 0.3302 0.3290
3205.000000 0.3278 0.3268 0.3259 0.3250 0.3241
3200.000000 0.3232 0.3223 0.3214 0.3205 0.3198
3195.000000 0.3192 0.3184 0.3179 0.3172 0.3166
3190.000000 0.3160 0.3154 0.3150 0.3146 0.3143
3185.000000 0.3139 0.3137 0.3134 0.3132 0.3125
3180.000000 0.3126 0.3126 0.3125 0.3123 0.3123
3175.000000 0.3125 0.3126 0.3127 0.3128 0.3130
3170.000000 0.3131 0.3133 0.3137 0.3144 0.3151
3165.000000 0.3158 0.3165 0.3174 0.3183 0.3192
3160.000000 0.3207 0.3229 0.3250 0.3272 0.3303
3155.000000 0.3340 0.3378 0.3414 0.3444 0.3466
3150.000000 0.3490 0.3512 0.3536 0.3559 0.3582
3145.000000 0.3605 0.3628 0.3650 0.3674 0.3697
3140.000000 0.3720 0.3743 0.3766 0.3789 0.3812
3135.000000 0.3834 0.3858 0.3880 0.3904 0.3927
3130.000000 0.3950 0.3973 0.3997 0.4020 0.4043
3125.000000 0.4066 0.4090 0.4112 0.4136 0.4160
3120.000000 0.4183 0.4207 0.4230 0.4253 0.4277
3115.000000 0.4300 0.4324 0.4347 0.4371 0.4394
3110.000000 0.4418 0.4441 0.4464 0.4488 0.4510
3105.000000 0.4534 0.4558 0.4582 0.4605 0.4629
3100.000000 0.4653 0.4676 0.4700 0.4724 0.4747
3095.000000 0.4771 0.4795 0.4819 0.4842 0.4866
3090.000000 0.4890 0.4914 0.4938 0.4962 0.4986
3085.000000 0.5009 0.5033 0.5057 0.5081 0.5105
3080.000000 0.5128 0.5152 0.5176 0.5200 0.5224
3075.000000 0.5248 0.5272 0.5296 0.5321 0.5344
3070.000000 0.5364 0.5384 0.5404 0.5417 0.5422
3065.000000 0.5427 0.5432 0.5437 0.5443 0.5448
3060.000000 0.5453 0.5458 0.5464 0.5469 0.5473
3055.000000 0.5477 0.5480 0.5484 0.5486 0.5488
3050.000000 0.5490 0.5492 0.5494 0.5496 0.5498
3045.000000 0.5501 0.5503 0.5505 0.5507 0.5509
3040.000000 0.5510 0.5512 0.5514 0.5514 0.5512
3035.000000 0.5510 0.5510 0.5507 0.5505 0.5503
3030.000000 0.5501 0.5498 0.5496 0.5493 0.5490
3025.000000 0.5487 0.5484 0.5481 0.5475 0.5469
3020.000000 0.5462 0.5457 0.5451 0.5445 0.5439
3015.000000 0.5433 0.5427 0.5421 0.5415 0.5409
3010.000000 0.5403 0.5396 0.5389 0.5379 0.5370
3005.000000 0.5360 0.5351 0.5341 0.5332 0.5323
3000.000000 0.5312 0.5304 0.5295 0.5288 0.5283
2995.000000 0.5278 0.5272 0.5269 0.5265 0.5262
2990.000000 0.5259 0.5258 0.5257 0.5257 0.5256
2985.000000 0.5255 0.5254 0.5254 0.5258 0.5260
2980.000000 0.5264 0.5267 0.5271 0.5275 0.5278
2975.000000 0.5282 0.5286 0.5290 0.5293 0.5295
2970.000000 0.5297 0.5299 0.5301 0.5303 0.5306
2965.000000 0.5308 0.5310 0.5312 0.5314 0.5316
2960.000000 0.5318 0.5320 0.5321 0.5322 0.5323
2955.000000 0.5325 0.5325 0.5325 0.5325 0.5325
2950.000000 0.5325 0.5325 0.5326 0.5326 0.5326
2945.000000 0.5326 0.5326 0.5326 0.5325 0.5324
2940.000000 0.5322 0.5319 0.5317 0.5315 0.5312
2935.000000 0.5310 0.5308 0.5306 0.5303 0.5301
2930.000000 0.5299 0.5298 0.5296 0.5295 0.5294
2925.000000 0.5293 0.5292 0.5290 0.5289 0.5287
2920.000000 0.5286 0.5286 0.5285 0.5284 0.5284
2915.000000 0.5284 0.5284 0.5284 0.5286 0.5287
2910.000000 0.5289 0.5293 0.5297 0.5300 0.5314
2905.000000 0.5329 0.5343 0.5358 0.5373 0.5388
2900.000000 0.5404 0.5424 0.5445 0.5465 0.5485
2895.000000 0.5506 0.5527 0.5547 0.5568 0.5589
2890.000000 0.5610 0.5631 0.5652 0.5673 0.5694
2885.000000 0.5716 0.5737 0.5757 0.5776 0.5795
2880.000000 0.5814 0.5833 0.5852 0.5871 0.5888
2875.000000 0.5905 0.5921 0.5937 0.5953 0.5968
2870.000000 0.5984 0.5999 0.6015 0.6030 0.6041
2865.000000 0.6051 0.6060 0.6072 0.6082 0.6092
2860.000000 0.6100 0.6104 0.6108 0.6112 0.6114
2855.000000 0.6115 0.6117 0.6119 0.6120 0.6122
2850.000000 0.6123 0.6124 0.6124 0.6124 0.6124
2845.000000 0.6123 0.6122 0.6122 0.6121 0.6121
2840.000000 0.6120 0.6119 0.6118 0.6117 0.6115
2835.000000 0.6114 0.6112 0.6112 0.6112 0.6112
2830.000000 0.6114 0.6116 0.6119 0.6121 0.6124
2825.000000 0.6126 0.6129 0.6131 0.6134 0.6147
2820.000000 0.6167 0.6186 0.6202 0.6215 0.6228
2815.000000 0.6242 0.6255 0.6269 0.6282 0.6296
2810.000000 0.6309 0.6322 0.6336 0.6349 0.6362
2805.000000 0.6375 0.6388 0.6401 0.6415 0.6428
2800.000000 0.6442 0.6455 0.6468 0.6481 0.6494
2795.000000 0.6507 0.6519 0.6533 0.6544 0.6556
2790.000000 0.6568 0.6578 0.6591 0.6601 0.6614
2785.000000 0.6625 0.6637 0.6648 0.6658 0.6668
2780.000000 0.6678 0.6686 0.6695 0.6703 0.6711
2775.000000 0.6719 0.6728 0.6737 0.6745 0.6751
2770.000000 0.6754 0.6757 0.6758 0.6761 0.6761
2765.000000 0.6762 0.6764 0.6765 0.6765 0.6767
2760.000000 0.6768 0.6769 0.6771 0.6771 0.6772
2755.000000 0.6774 0.6775 0.6776 0.6778 0.6778
2750.000000 0.6780 0.6780 0.6780 0.6781 0.6781
2745.000000 0.6781 0.6781 0.6781 0.6781 0.6781
2740.000000 0.6781 0.6781 0.6780 0.6780 0.6780
2735.000000 0.6780 0.6780 0.6780 0.6780 0.6780
2730.000000 0.6780 0.6780 0.6780 0.6780 0.6778
2725.000000 0.6778 0.6775 0.6775 0.6774 0.6772
2720.000000 0.6771 0.6771 0.6768 0.6768 0.6767
2715.000000 0.6765 0.6764 0.6762 0.6761 0.6761
2710.000000 0.6758 0.6758 0.6757 0.6755 0.6754
2705.000000 0.6754 0.6754 0.6754 0.6755 0.6756
2700.000000 0.6756 0.6757 0.6758 0.6758 0.6758
2695.000000 0.6760 0.6760 0.6761 0.6761 0.6761
2690.000000 0.6761 0.6762 0.6764 0.6764 0.6765
2685.000000 0.6765 0.6765 0.6767 0.6768 0.6768
2680.000000 0.6768 0.6768 0.6769 0.6769 0.6771
2675.000000 0.6772 0.6775 0.6776 0.6778 0.6778
2670.000000 0.6781 0.6782 0.6784 0.6785 0.6786
2665.000000 0.6788 0.6789 0.6791 0.6792 0.6793
2660.000000 0.6795 0.6796 0.6798 0.6799 0.6801
2655.000000 0.6801 0.6803 0.6805 0.6806 0.6808
2650.000000 0.6808 0.6811 0.6811 0.6812 0.6815
2645.000000 0.6815 0.6818 0.6818 0.6821 0.6821
2640.000000 0.6822 0.6825 0.6826 0.6828 0.6830
2635.000000 0.6832 0.6833 0.6834 0.6836 0.6837
2630.000000 0.6838 0.6838 0.6839 0.6840 0.6841
2625.000000 0.6841 0.6842 0.6843 0.6843 0.6844
2620.000000 0.6845 0.6846 0.6846 0.6847 0.6848
2615.000000 0.6849 0.6849 0.6850 0.6851 0.6851
2610.000000 0.6851 0.6853 0.6853 0.6853 0.6854
2605.000000 0.6855 0.6856 0.6856 0.6857 0.6858
2600.000000 0.6858 0.6858 0.6858 0.6857 0.6856
2595.000000 0.6855 0.6854 0.6853 0.6851 0.6851
2590.000000 0.6850 0.6849 0.6848 0.6846 0.6845
2585.000000 0.6844 0.6844 0.6843 0.6842 0.6841
2580.000000 0.6840 0.6838 0.6837 0.6835 0.6834
2575.000000 0.6833 0.6831 0.6830 0.6828 0.6826
2570.000000 0.6825 0.6825 0.6822 0.6821 0.6821
2565.000000 0.6819 0.6818 0.6817 0.6815 0.6814
2560.000000 0.6812 0.6811 0.6810 0.6808 0.6807
2555.000000 0.6804 0.6801 0.6798 0.6795 0.6791
2550.000000 0.6788 0.6785 0.6782 0.6778 0.6775
2545.000000 0.6775 0.6775 0.6775 0.6775 0.6775
2540.000000 0.6775 0.6775 0.6774 0.6774 0.6774
2535.000000 0.6774 0.6774 0.6774 0.6774 0.6774
2530.000000 0.6774 0.6774 0.6774 0.6774 0.6774
2525.000000 0.6775 0.6781 0.6786 0.6791 0.6795
2520.000000 0.6799 0.6804 0.6808 0.6812 0.6818
2515.000000 0.6822 0.6826 0.6832 0.6836 0.6841
2510.000000 0.6846 0.6850 0.6854 0.6858 0.6861
2505.000000 0.6864 0.6865 0.6868 0.6871 0.6874
2500.000000 0.6876 0.6878 0.6882 0.6885 0.6887
2495.000000 0.6890 0.6892 0.6895 0.6898 0.6900
2490.000000 0.6903 0.6905 0.6908 0.6911 0.6912
2485.000000 0.6915 0.6918 0.6919 0.6921 0.6922
2480.000000 0.6925 0.6926 0.6928 0.6931 0.6933
2475.000000 0.6935 0.6937 0.6939 0.6941 0.6942
2470.000000 0.6944 0.6946 0.6948 0.6950 0.6951
2465.000000 0.6954 0.6956 0.6958 0.6960 0.6961
2460.000000 0.6964 0.6965 0.6968 0.6969 0.6971
2455.000000 0.6974 0.6975 0.6976 0.6978 0.6978
2450.000000 0.6978 0.6980 0.6981 0.6981 0.6982
2445.000000 0.6982 0.6983 0.6984 0.6984 0.6985
2440.000000 0.6985 0.6986 0.6986 0.6987 0.6988
2435.000000 0.6988 0.6989 0.6990 0.6990 0.6991
2430.000000 0.6991 0.6992 0.6993 0.6994 0.6995
2425.000000 0.6996 0.6997 0.6998 0.6999 0.7000
2420.000000 0.7001 0.7003 0.7004 0.7006 0.7007
2415.000000 0.7008 0.7008 0.7011 0.7011 0.7012
2410.000000 0.7015 0.7015 0.7017 0.7018 0.7018
2405.000000 0.7019 0.7021 0.7022 0.7024 0.7025
2400.000000 0.7026 0.7028 0.7031 0.7032 0.7034
2395.000000 0.7035 0.7037 0.7038 0.7040 0.7042
2390.000000 0.7044 0.7045 0.7047 0.7048 0.7049
2385.000000 0.7050 0.7050 0.7050 0.7050 0.7050
2380.000000 0.7051 0.7051 0.7051 0.7051 0.7051
2375.000000 0.7051 0.7051 0.7050 0.7049 0.7048
2370.000000 0.7047 0.7046 0.7044 0.7043 0.7042
2365.000000 0.7041 0.7040 0.7039 0.7038 0.7037
2360.000000 0.7036 0.7035 0.7034 0.7033 0.7032
2355.000000 0.7032 0.7031 0.7031 0.7031 0.7030
2350.000000 0.7030 0.7030 0.7030 0.7028 0.7028
2345.000000 0.7028 0.7028 0.7026 0.7026 0.7026
2340.000000 0.7026 0.7026 0.7025 0.7025 0.7025
2335.000000 0.7025 0.7025 0.7025 0.7025 0.7025
2330.000000 0.7025 0.7025 0.7025 0.7026 0.7028
2325.000000 0.7028 0.7028 0.7030 0.7030 0.7031
2320.000000 0.7031 0.7032 0.7033 0.7033 0.7034
2315.000000 0.7035 0.7037 0.7040 0.7042 0.7044
2310.000000 0.7047 0.7049 0.7051 0.7054 0.7056
2305.000000 0.7060 0.7062 0.7068 0.7074 0.7078
2300.000000 0.7083 0.7088 0.7093 0.7098 0.7103
2295.000000 0.7108 0.7111 0.7117 0.7121 0.7125
2290.000000 0.7128 0.7133 0.7137 0.7142 0.7145
2285.000000 0.7149 0.7154 0.7158 0.7161 0.7167
2280.000000 0.7167 0.7168 0.7168 0.7168 0.7169
2275.000000 0.7169 0.7171 0.7171 0.7171 0.7171
2270.000000 0.7171 0.7171 0.7172 0.7172 0.7174
2265.000000 0.7174 0.7174 0.7174 0.7174 0.7174
2260.000000 0.7174 0.7174 0.7174 0.7174 0.7174
2255.000000 0.7174 0.7172 0.7172 0.7172 0.7172
2250.000000 0.7172 0.7172 0.7174 0.7174 0.7174
2245.000000 0.7174 0.7175 0.7175 0.7175 0.7175
2240.000000 0.7175 0.7175 0.7175 0.7175 0.7176
2235.000000 0.7176 0.7176 0.7176 0.7178 0.7178
2230.000000 0.7178 0.7178 0.7178 0.7178 0.7180
2225.000000 0.7180 0.7181 0.7182 0.7183 0.7183
2220.000000 0.7184 0.7185 0.7186 0.7186 0.7187
2215.000000 0.7188 0.7189 0.7189 0.7190 0.7190
2210.000000 0.7191 0.7192 0.7193 0.7193 0.7194
2205.000000 0.7194 0.7194 0.7193 0.7192 0.7191
2200.000000 0.7190 0.7190 0.7189 0.7188 0.7187
2195.000000 0.7186 0.7185 0.7185 0.7183 0.7182
2190.000000 0.7181 0.7180 0.7178 0.7178 0.7178
2185.000000 0.7176 0.7175 0.7175 0.7174 0.7172
2180.000000 0.7172 0.7171 0.7171 0.7171 0.7171
2175.000000 0.7169 0.7169 0.7168 0.7168 0.7168
2170.000000 0.7167 0.7167 0.7165 0.7165 0.7165
2165.000000 0.7165 0.7165 0.7165 0.7164 0.7164
2160.000000 0.7162 0.7162 0.7161 0.7161 0.7161
2155.000000 0.7161 0.7161 0.7160 0.7160 0.7158
2150.000000 0.7158 0.7158 0.7158 0.7158 0.7158
2145.000000 0.7158 0.7158 0.7158 0.7158 0.7158
2140.000000 0.7158 0.7158 0.7158 0.7158 0.7158
2135.000000 0.7158 0.7158 0.7158 0.7158 0.7158
2130.000000 0.7158 0.7157 0.7157 0.7157 0.7157
2125.000000 0.7156 0.7156 0.7156 0.7156 0.7156
2120.000000 0.7155 0.7155 0.7155 0.7155 0.7155
2115.000000 0.7154 0.7154 0.7154 0.7154 0.7154
2110.000000 0.7154 0.7153 0.7153 0.7153 0.7151
2105.000000 0.7151 0.7151 0.7151 0.7151 0.7150
2100.000000 0.7149 0.7147 0.7146 0.7145 0.7144
2095.000000 0.7143 0.7142 0.7141 0.7139 0.7138
2090.000000 0.7137 0.7136 0.7135 0.7134 0.7132
2085.000000 0.7130 0.7128 0.7128 0.7126 0.7125
2080.000000 0.7125 0.7122 0.7121 0.7119 0.7118
2075.000000 0.7118 0.7117 0.7115 0.7114 0.7111
2070.000000 0.7111 0.7110 0.7108 0.7107 0.7105
2065.000000 0.7105 0.7104 0.7104 0.7103 0.7101
2060.000000 0.7101 0.7101 0.7101 0.7100 0.7100
2055.000000 0.7099 0.7098 0.7098 0.7097 0.7097
2050.000000 0.7096 0.7095 0.7095 0.7094 0.7094
2045.000000 0.7094 0.7095 0.7095 0.7095 0.7095
2040.000000 0.7095 0.7096 0.7096 0.7096 0.7096
2035.000000 0.7096 0.7095 0.7095 0.7094 0.7093
2030.000000 0.7092 0.7091 0.7091 0.7090 0.7089
2025.000000 0.7088 0.7087 0.7087 0.7086 0.7085
2020.000000 0.7084 0.7083 0.7083 0.7082 0.7081
2015.000000 0.7080 0.7078 0.7078 0.7078 0.7076
2010.000000 0.7076 0.7075 0.7074 0.7074 0.7072
2005.000000 0.7071 0.7071 0.7069 0.7068 0.7068
2000.000000 0.7068 0.7065 0.7065 0.7064 0.7062
1995.000000 0.7061 0.7061 0.7061 0.7061 0.7061
1990.000000 0.7061 0.7061 0.7061 0.7060 0.7060
1985.000000 0.7060 0.7060 0.7060 0.7060 0.7060
1980.000000 0.7060 0.7061 0.7061 0.7061 0.7061
1975.000000 0.7061 0.7061 0.7061 0.7061 0.7061
1970.000000 0.7061 0.7061 0.7058 0.7057 0.7053
1965.000000 0.7050 0.7048 0.7045 0.7042 0.7039
1960.000000 0.7036 0.7034 0.7031 0.7028 0.7025
1955.000000 0.7021 0.7019 0.7017 0.7014 0.7011
1950.000000 0.7008 0.7006 0.7005 0.7003 0.7001
1945.000000 0.7000 0.6998 0.6997 0.6996 0.6994
1940.000000 0.6992 0.6991 0.6990 0.6988 0.6987
1935.000000 0.6985 0.6983 0.6982 0.6981 0.6978
1930.000000 0.6976 0.6975 0.6974 0.6971 0.6969
1925.000000 0.6968 0.6967 0.6965 0.6964 0.6962
1920.000000 0.6961 0.6958 0.6958 0.6956 0.6954
1915.000000 0.6953 0.6951 0.6951 0.6951 0.6953
1910.000000 0.6955 0.6957 0.6958 0.6960 0.6961
1905.000000 0.6964 0.6965 0.6967 0.6968 0.6971
1900.000000 0.6971 0.6972 0.6975 0.6976 0.6978
1895.000000 0.6980 0.6982 0.6984 0.6986 0.6988
1890.000000 0.6989 0.6991 0.6993 0.6994 0.6996
1885.000000 0.6998 0.6999 0.7001 0.7003 0.7005
1880.000000 0.7007 0.7008 0.7010 0.7011 0.7011
1875.000000 0.7011 0.7012 0.7012 0.7014 0.7014
1870.000000 0.7014 0.7015 0.7015 0.7015 0.7015
1865.000000 0.7017 0.7017 0.7017 0.7018 0.7018
1860.000000 0.7018 0.7018 0.7019 0.7019 0.7019
1855.000000 0.7021 0.7021 0.7021 0.7021 0.7021
1850.000000 0.7021 0.7021 0.7021 0.7022 0.7022
1845.000000 0.7022 0.7022 0.7024 0.7024 0.7024
1840.000000 0.7024 0.7025 0.7025 0.7025 0.7025
1835.000000 0.7025 0.7025 0.7025 0.7025 0.7025
1830.000000 0.7026 0.7026 0.7026 0.7026 0.7026
1825.000000 0.7026 0.7025 0.7025 0.7024 0.7024
1820.000000 0.7022 0.7021 0.7021 0.7021 0.7019
1815.000000 0.7018 0.7015 0.7012 0.7010 0.7007
1810.000000 0.7004 0.7001 0.6993 0.6984 0.6975
1805.000000 0.6965 0.6956 0.6945 0.6938 0.6934
1800.000000 0.6931 0.6928 0.6925 0.6921 0.6918
1795.000000 0.6915 0.6912 0.6911 0.6908 0.6907
1790.000000 0.6905 0.6901 0.6900 0.6898 0.6896
1785.000000 0.6894 0.6891 0.6889 0.6888 0.6885
1780.000000 0.6883 0.6881 0.6878 0.6874 0.6869
1775.000000 0.6865 0.6860 0.6856 0.6851 0.6847
1770.000000 0.6843 0.6838 0.6834 0.6830 0.6825
1765.000000 0.6821 0.6818 0.6814 0.6810 0.6806
1760.000000 0.6801 0.6798 0.6795 0.6791 0.6787
1755.000000 0.6783 0.6778 0.6775 0.6771 0.6768
1750.000000 0.6764 0.6760 0.6756 0.6751 0.6748
1745.000000 0.6744 0.6738 0.6733 0.6728 0.6722
1740.000000 0.6717 0.6711 0.6706 0.6701 0.6696
1735.000000 0.6691 0.6685 0.6680 0.6675 0.6668
1730.000000 0.6664 0.6658 0.6653 0.6648 0.6643
1725.000000 0.6638 0.6632 0.6626 0.6621 0.6615
1720.000000 0.6610 0.6604 0.6598 0.6593 0.6587
1715.000000 0.6582 0.6576 0.6571 0.6567 0.6561
1710.000000 0.6557 0.6551 0.6546 0.6540 0.6535
1705.000000 0.6528 0.6517 0.6505 0.6492 0.6480
1700.000000 0.6468 0.6456 0.6444 0.6432 0.6418
1695.000000 0.6406 0.6393 0.6380 0.6367 0.6355
1690.000000 0.6342 0.6329 0.6316 0.6304 0.6291
1685.000000 0.6277 0.6265 0.6252 0.6239 0.6226
1680.000000 0.6215 0.6205 0.6193 0.6182 0.6171
1675.000000 0.6160 0.6149 0.6138 0.6127 0.6115
1670.000000 0.6104 0.6090 0.6076 0.6062 0.6048
1665.000000 0.6035 0.6021 0.6007 0.5993 0.5979
1660.000000 0.5965 0.5951 0.5938 0.5925 0.5912
1655.000000 0.5901 0.5889 0.5877 0.5864 0.5852
1650.000000 0.5841 0.5829 0.5816 0.5791 0.5759
1645.000000 0.5728 0.5696 0.5655 0.5604 0.5547
1640.000000 0.5491 0.5423 0.5329 0.5220 0.5123
1635.000000 0.5032 0.4939 0.4845 0.4768 0.4692
1630.000000 0.4572 0.4415 0.4249 0.4084 0.3918
1625.000000 0.3752 0.3586 0.3418 0.3252 0.3101
1620.000000 0.3008 0.2979 0.2968 0.2959 0.2959
1615.000000 0.2960 0.2996 0.3111 0.3229 0.3349
1610.000000 0.3466 0.3587 0.3706 0.3826 0.3945
1605.000000 0.4064 0.4185 0.4305 0.4425 0.4510
1600.000000 0.4543 0.4540 0.4512 0.4472 0.4430
1595.000000 0.4388 0.4346 0.4315 0.4318 0.4387
1590.000000 0.4524 0.4660 0.4798 0.4936 0.5073
1585.000000 0.5210 0.5356 0.5492 0.5560 0.5618
1580.000000 0.5667 0.5700 0.5732 0.5760 0.5787
1575.000000 0.5808 0.5824 0.5836 0.5841 0.5847
1570.000000 0.5852 0.5858 0.5850 0.5846 0.5839
1565.000000 0.5829 0.5818 0.5803 0.5781 0.5759
1560.000000 0.5738 0.5716 0.5694 0.5673 0.5652
1555.000000 0.5622 0.5585 0.5546 0.5508 0.5462
1550.000000 0.5403 0.5342 0.5297 0.5260 0.5226
1545.000000 0.5187 0.5131 0.5066 0.4997 0.4915
1540.000000 0.4736 0.4464 0.4310 0.4158 0.4005
1535.000000 0.3852 0.3698 0.3545 0.3391 0.3237
1530.000000 0.3082 0.2928 0.2773 0.2618 0.2463
1525.000000 0.2308 0.2153 0.1996 0.1841 0.1684
1520.000000 0.1529 0.1372 0.1279 0.1207 0.1129
1515.000000 0.1082 0.1063 0.1039 0.1040 0.1040
1510.000000 0.1040 0.1052 0.1068 0.1096 0.1160
1505.000000 0.1329 0.1624 0.1871 0.2119 0.2367
1500.000000 0.2615 0.2864 0.3112 0.3362 0.3612
1495.000000 0.3860 0.4066 0.4132 0.4138 0.4138
1490.000000 0.4094 0.4009 0.3923 0.3834 0.3747
1485.000000 0.3676 0.3634 0.3598 0.3564 0.3534
1480.000000 0.3508 0.3480 0.3459 0.3445 0.3430
1475.000000 0.3416 0.3406 0.3395 0.3384 0.3355
1470.000000 0.3275 0.3175 0.3074 0.2973 0.2871
1465.000000 0.2769 0.2668 0.2421 0.2465 0.2426
1460.000000 0.2458 0.2496 0.2533 0.2572 0.2598
1455.000000 0.2617 0.2634 0.2654 0.2684 0.2719
1450.000000 0.2767 0.2850 0.2947 0.3031 0.3106
1445.000000 0.3156 0.3185 0.3189 0.3193 0.3200
1440.000000 0.3208 0.3227 0.3264 0.3310 0.3430
1435.000000 0.3604 0.3803 0.3973 0.4115 0.4214
1430.000000 0.4271 0.4290 0.4297 0.4297 0.4298
1425.000000 0.4298 0.4300 0.4310 0.4325 0.4341
1420.000000 0.4379 0.4436 0.4492 0.4587 0.4718
1415.000000 0.4849 0.4980 0.5110 0.5243 0.5375
1410.000000 0.5507 0.5639 0.5771 0.5899 0.5952
1405.000000 0.5988 0.6004 0.6012 0.6020 0.6021
1400.000000 0.6022 0.6020 0.6004 0.5981 0.5954
1395.000000 0.5914 0.5872 0.5823 0.5764 0.5701
1390.000000 0.5623 0.5287 0.5086 0.4974 0.4864
1385.000000 0.4769 0.4693 0.4654 0.4634 0.4615
1380.000000 0.4596 0.4564 0.4520 0.4455 0.4360
1375.000000 0.4238 0.4183 0.4169 0.4164 0.4192
1370.000000 0.4230 0.4272 0.4349 0.4418 0.4452
1365.000000 0.4455 0.4456 0.4449 0.4400 0.4324
1360.000000 0.4222 0.4105 0.3980 0.3890 0.3795
1355.000000 0.3679 0.3600 0.3571 0.3550 0.3537
1350.000000 0.3537 0.3536 0.3554 0.3590 0.3636
1345.000000 0.3699 0.3759 0.3821 0.3874 0.3926
1340.000000 0.3976 0.4028 0.4080 0.4133 0.4188
1335.000000 0.4246 0.4309 0.4366 0.4412 0.4448
1330.000000 0.4474 0.4498 0.4491 0.4495 0.4496
1325.000000 0.4474 0.4444 0.4401 0.4354 0.4281
1320.000000 0.4148 0.4062 0.3978 0.3893 0.3808
1315.000000 0.3723 0.3638 0.3553 0.3489 0.3490
1310.000000 0.3503 0.3516 0.3538 0.3559 0.3575
1305.000000 0.3588 0.3464 0.3305 0.3146 0.2987
1300.000000 0.2827 0.2667 0.2508 0.2373 0.2262
1295.000000 0.2212 0.2162 0.2121 0.2081 0.2048
1290.000000 0.2020 0.1996 0.1979 0.1992 0.1977
1285.000000 0.1998 0.2052 0.2166 0.2314 0.2475
1280.000000 0.2635 0.2797 0.2928 0.2929 0.2941
1275.000000 0.2924 0.2865 0.2767 0.2684 0.2616
1270.000000 0.2545 0.2467 0.2389 0.2341 0.2330
1265.000000 0.2331 0.2333 0.2334 0.2338 0.2338
1260.000000 0.2318 0.2265 0.2204 0.2115 0.1983
1255.000000 0.1906 0.1867 0.1884 0.1908 0.2014
1250.000000 0.2132 0.2279 0.2414 0.2525 0.2599
1245.000000 0.2648 0.2682 0.2675 0.2674 0.2673
1240.000000 0.2644 0.2595 0.2534 0.2474 0.2413
1235.000000 0.2348 0.2263 0.2179 0.2095 0.2011
1230.000000 0.1926 0.1842 0.1757 0.1673 0.1592
1225.000000 0.1517 0.1526 0.1524 0.1536 0.1554
1220.000000 0.1598 0.1704 0.1810 0.1910 0.2013
1215.000000 0.2118 0.2225 0.2342 0.2425 0.2485
1210.000000 0.2535 0.2559 0.2582 0.2620 0.2676
1205.000000 0.2845 0.3024 0.3192 0.3359 0.3521
1200.000000 0.3643 0.3709 0.3736 0.3762 0.3782
1195.000000 0.3805 0.3838 0.3871 0.3902 0.3936
1190.000000 0.3995 0.4164 0.4346 0.4380 0.4389
1185.000000 0.4397 0.4397 0.4386 0.4468 0.4607
1180.000000 0.4747 0.4886 0.4996 0.5055 0.5095
1175.000000 0.5124 0.5143 0.5170 0.5155 0.5129
1170.000000 0.5075 0.4998 0.4848 0.4629 0.4410
1165.000000 0.4165 0.4143 0.4178 0.4304 0.4422
1160.000000 0.4429 0.4391 0.4255 0.4118 0.3894
1155.000000 0.3900 0.3897 0.4034 0.4234 0.4433
1150.000000 0.4578 0.4683 0.4769 0.4854 0.4938
1145.000000 0.5021 0.5084 0.5140 0.5177 0.5200
1140.000000 0.5215 0.5223 0.5226 0.5218 0.5206
1135.000000 0.5138 0.5002 0.4717 0.4387 0.4046
1130.000000 0.3809 0.3573 0.3337 0.3099 0.2861
1125.000000 0.2624 0.2384 0.1854 0.1920 0.1885
1120.000000 0.1895 0.1908 0.1957 0.2029 0.2179
1115.000000 0.2415 0.2578 0.2737 0.2860 0.2950
1110.000000 0.2984 0.2997 0.2955 0.2925 0.2948
1105.000000 0.3058 0.3249 0.3443 0.3637 0.3832
1100.000000 0.4027 0.4222 0.4418 0.4612 0.4810
1095.000000 0.5006 0.5204 0.5400 0.5532 0.5634
1090.000000 0.5740 0.5802 0.5850 0.5880 0.5905
1085.000000 0.5939 0.5924 0.5916 0.5877 0.5797
1080.000000 0.5510 0.5160 0.4812 0.4460 0.4110
1075.000000 0.3759 0.3506 0.3474 0.3553 0.3892
1070.000000 0.4129 0.4360 0.4593 0.4825 0.5058
1065.000000 0.5292 0.5527 0.5741 0.5956 0.6056
1060.000000 0.6099 0.6137 0.6169 0.6189 0.6190
1055.000000 0.6190 0.6153 0.6082 0.5980 0.5882
1050.000000 0.5906 0.6031 0.6228 0.6358 0.6431
1045.000000 0.6469 0.6494 0.6503 0.6508 0.6487
1040.000000 0.6461 0.6411 0.6315 0.6193 0.6045
1035.000000 0.5860 0.5705 0.5642 0.5602 0.5568
1030.000000 0.5575 0.5590 0.5702 0.5822 0.5923
1025.000000 0.6010 0.6091 0.6160 0.6186 0.6202
1020.000000 0.6236 0.6305 0.6339 0.6356 0.6355
1015.000000 0.6343 0.6310 0.6277 0.6216 0.6154
1010.000000 0.6092 0.6093 0.6094 0.6132 0.6201
1005.000000 0.6194 0.6181 0.6141 0.6088 0.6020
1000.000000 0.5947 0.5899 0.6073 0.6090 0.6048
995.000000 0.5966 0.5847 0.5712 0.5577 0.5477
990.000000 0.5431 0.5400 0.5370 0.5333 0.5085
985.000000 0.4625 0.4610 0.4687 0.5048 0.5410
980.000000 0.5772 0.6137 0.6408 0.6540 0.6641
975.000000 0.6728 0.6765 0.6795 0.6811 0.6799
970.000000 0.6799 0.6799 0.6771 0.6737 0.6657
965.000000 0.6522 0.6401 0.6332 0.6323 0.6341
960.000000 0.6497 0.6583 0.6661 0.6722 0.6776
955.000000 0.6801 0.6803 0.6764 0.6684 0.6601
950.000000 0.6515 0.6412 0.6317 0.6338 0.6372
945.000000 0.6430 0.6489 0.6547 0.6583 0.6605
940.000000 0.6633 0.6611 0.6568 0.6496 0.6518
935.000000 0.6564 0.6675 0.6745 0.6796 0.6848
930.000000 0.6832 0.6826 0.6801 0.6749 0.6665
925.000000 0.6515 0.6235 0.5933 0.5630 0.5328
920.000000 0.5228 0.5249 0.5358 0.5474 0.5576
915.000000 0.5720 0.5697 0.5714 0.5692 0.5644
910.000000 0.5654 0.5660 0.5712 0.5779 0.5862
905.000000 0.5943 0.6020 0.6096 0.6173 0.6250
900.000000 0.6328 0.6405 0.6449 0.6478 0.6501
895.000000 0.6496 0.6489 0.6468 0.6431 0.6391
890.000000 0.6295 0.6192 0.5936 0.5566 0.5247
885.000000 0.4929 0.4565 0.4587 0.4608 0.4780
880.000000 0.5106 0.5425 0.5745 0.5931 0.6022
875.000000 0.6093 0.6151 0.6164 0.6137 0.6076
870.000000 0.5993 0.5829 0.5580 0.5147 0.4702
865.000000 0.4256 0.3753 0.3775 0.3775 0.3909
860.000000 0.4289 0.4684 0.5081 0.5473 0.5664
855.000000 0.5785 0.5762 0.5733 0.5552 0.5291
850.000000 0.5034 0.4946 0.4886 0.4900 0.5005
845.000000 0.5100 0.5178 0.5169 0.5010 0.4632
840.000000 0.4252 0.3871 0.3876 0.3893 0.4184
835.000000 0.4529 0.4776 0.4970 0.5159 0.5342
830.000000 0.5506 0.5648 0.5776 0.5894 0.6005
825.000000 0.6095 0.6110 0.6077 0.6014 0.5934
820.000000 0.5846 0.5755 0.5681 0.5624 0.5606
815.000000 0.5605 0.5604 0.5630 0.5639 0.5557
810.000000 0.5177 0.4742 0.4309 0.4221 0.4207
805.000000 0.4420 0.4649 0.5007 0.5487 0.5746
800.000000 0.6018 0.6219 0.6303 0.6374 0.6448
795.000000 0.6508 0.6514 0.6501 0.6462 0.6401
790.000000 0.6333 0.6369 0.6404 0.6494 0.6611
785.000000 0.6721 0.6822 0.6904 0.6904 0.6904
780.000000 0.6868 0.6791 0.6721 0.6721 0.6721
775.000000 0.6825 0.6926 0.7017 0.7103 0.7181
770.000000 0.7251 0.7262 0.7272 0.7282 0.7289
765.000000 0.7288 0.7235 0.7165 0.7078 0.6991
760.000000 0.6886 0.6888 0.6876 0.6904 0.6950
755.000000 0.6983 0.6987 0.7008 0.7067 0.7125
750.000000 0.7178 0.7232 0.7281 0.7322 0.7350
745.000000 0.7360 0.7364 0.7362 0.7374 0.7396
740.000000 0.7415 0.7421 0.7436 0.7458 0.7484
735.000000 0.7501 0.7442 0.7424 0.7406 0.7351
730.000000 0.7289 0.7186 0.7191 0.7207 0.7244
725.000000 0.7285 0.7294 0.7303 0.7318 0.7357
720.000000 0.7386 0.7387 0.7388 0.7405 0.7430
715.000000 0.7442 0.7449 0.7455 0.7454 0.7382
710.000000 0.7294 0.7191 0.7204 0.7274 0.7367
705.000000 0.7418 0.7417 0.7478 0.7545 0.7597
700.000000 0.7607 0.7584 0.7565 0.7578 0.7601
695.000000 0.7611 0.7594 0.7571 0.7557 0.7543
690.000000 0.7521 0.7490 0.7475 0.7499 0.7522
685.000000 0.7554 0.7561 0.7568 0.7571 0.7575
680.000000 0.7568 0.7556 0.7556 0.7571 0.7578
675.000000 0.7543 0.7489 0.7436 0.7431 0.7426
670.000000 0.7386 0.7337 0.7288 0.7258
##END=
