##TITLE=BARIUM CHLORIDE
$$ A. R.
##JCAMP-DX=4.24
##DATA TYPE=INFRARED SPECTRUM
##CLASS=COBLENTZ
##ORIGIN=MELLON INSTITUTE
##OWNER=COBLENTZ SOCIETY
Collection (C) 2018 copyright by the U.S. Secretary of Commerce
on behalf of the United States of America. All rights reserved.
##DATE=Not specified, most likely prior to 1970
##MOLFORM=Ba Cl2  * 2 H2 O
##SOURCE REFERENCE=COBLENTZ NO. 449
##$NIST ID=B6000449
##$NIST SOURCE=COBLENTZ
##$NIST IMAGE=cob449
##SPECTROMETER/DATA SYSTEM=Not specified, most likely a prism, grating, or hybrid spectrometer.
##STATE=SOLID (NUJOL MULLS)
##PATH LENGTH=
$$SPECTRAL CONTAMINATION DUE TO OIL AROUND 2900, 1450, 1380 CM^-^1
##SAMPLING PROCEDURE=TRANSMISSION
##RESOLUTION=4
##DATA PROCESSING=DIGITIZED BY NIST FROM HARD COPY
##XUNITS=MICROMETERS
##YUNITS=TRANSMITTANCE
##XFACTOR=1.000000
##YFACTOR=1
##DELTAX=000.006647
##FIRSTX=2.063
##LASTX=16.0072
##FIRSTY=0.75
##MAXX=16.0072
##MINX=2.063
##MAXY=0.964
##MINY=0.075
##NPOINTS=2099
##XYDATA=(X++(Y..Y))
2.063000 0.7500 0.7500 0.7520 0.7520 0.7530
2.096248 0.7550 0.7550 0.7570 0.7580 0.7600
2.129000 0.7620 0.7630 0.7630 0.7630 0.7650
2.162248 0.7650 0.7670 0.7680 0.7700 0.7720
2.196000 0.7720 0.7730 0.7730 0.7750 0.7750
2.229248 0.7750 0.7770 0.7770 0.7770 0.7770
2.262000 0.7780 0.7780 0.7800 0.7800 0.7820
2.295248 0.7820 0.7820 0.7820 0.7820 0.7820
2.329000 0.7830 0.7830 0.7850 0.7870 0.7870
2.362248 0.7870 0.7880 0.7880 0.7900 0.7900
2.395000 0.7920 0.7950 0.7950 0.7970 0.8000
2.428248 0.8000 0.8000 0.8000 0.8020 0.8040
2.462000 0.8040 0.8040 0.8040 0.8040 0.8090
2.495248 0.8100 0.8120 0.8140 0.8150 0.8150
2.528000 0.8170 0.8190 0.8200 0.8220 0.8240
2.561248 0.8250 0.8290 0.8300 0.8320 0.8350
2.595000 0.8390 0.8400 0.8420 0.8450 0.8470
2.628248 0.8500 0.8520 0.8550 0.8570 0.8600
2.661000 0.8620 0.8650 0.8650 0.8690 0.8690
2.694248 0.8710 0.8710 0.8720 0.8740 0.8740
2.727000 0.8740 0.8740 0.8740 0.8740 0.8720
2.760248 0.8650 0.8620 0.8450 0.8200 0.7980
2.794000 0.7750 0.7520 0.6760 0.5990 0.5560
2.827248 0.5170 0.4770 0.4370 0.3350 0.2320
2.860000 0.2240 0.2140 0.1900 0.1740 0.1520
2.893248 0.1400 0.1280 0.1180 0.1130 0.1080
2.927000 0.1020 0.0950 0.0900 0.0870 0.0820
2.960248 0.0800 0.0770 0.0750 0.0750 0.0750
2.993000 0.0770 0.0820 0.0850 0.0880 0.0950
3.026248 0.1020 0.1050 0.1220 0.1300 0.1520
3.060000 0.1570 0.1790 0.1890 0.2020 0.2170
3.093248 0.2470 0.2710 0.3110 0.3560 0.3800
3.126000 0.3900 0.4180 0.4350 0.4740 0.4940
3.159248 0.5050 0.5190 0.5300 0.5740 0.5820
3.193000 0.5920 0.6010 0.6060 0.6140 0.6240
3.226248 0.6330 0.6380 0.6410 0.6430 0.6440
3.259000 0.6440 0.6430 0.6380 0.6140 0.5990
3.292248 0.5710 0.5460 0.5190 0.4450 0.4030
3.326000 0.3610 0.3190 0.2310 0.1420 0.1400
3.359248 0.1420 0.1690 0.1820 0.2010 0.2210
3.392000 0.2610 0.2760 0.3030 0.3030 0.3010
3.425248 0.2980 0.2930 0.2910 0.2930 0.3310
3.459000 0.3900 0.4370 0.5220 0.6480 0.7000
3.492248 0.7210 0.7500 0.7750 0.8140 0.8270
3.525000 0.8340 0.8440 0.8500 0.8550 0.8620
3.558248 0.8650 0.8690 0.8710 0.8740 0.8760
3.592000 0.8770 0.8790 0.8810 0.8820 0.8820
3.625248 0.8820 0.8820 0.8840 0.8860 0.8860
3.658000 0.8870 0.8870 0.8870 0.8890 0.8890
3.691248 0.8910 0.8910 0.8910 0.8920 0.8920
3.724000 0.8920 0.8920 0.8940 0.8960 0.8960
3.757248 0.8960 0.8960 0.8970 0.8990 0.8990
3.791000 0.9010 0.9010 0.9010 0.9010 0.9010
3.824248 0.9010 0.9020 0.9020 0.9020 0.9020
3.857000 0.9020 0.9040 0.9040 0.9040 0.9040
3.890248 0.9060 0.9060 0.9060 0.9070 0.9070
3.924000 0.9070 0.9090 0.9090 0.9090 0.9090
3.957248 0.9090 0.9110 0.9110 0.9110 0.9110
3.990000 0.9110 0.9120 0.9120 0.9140 0.9140
4.023248 0.9140 0.9140 0.9140 0.9160 0.9160
4.057000 0.9170 0.9170 0.9170 0.9190 0.9190
4.090248 0.9170 0.9170 0.9170 0.9170 0.9170
4.123000 0.9170 0.9170 0.9170 0.9170 0.9160
4.156248 0.9160 0.9160 0.9160 0.9160 0.9160
4.190000 0.9170 0.9160 0.9160 0.9160 0.9160
4.223248 0.9160 0.9160 0.9160 0.9140 0.9140
4.256000 0.9140 0.9140 0.9120 0.9120 0.9120
4.289248 0.9120 0.9110 0.9110 0.9110 0.9110
4.323000 0.9110 0.9090 0.9090 0.9090 0.9090
4.356248 0.9090 0.9090 0.9070 0.9060 0.9070
4.389000 0.9070 0.9060 0.9060 0.9060 0.9040
4.422248 0.9040 0.9040 0.9040 0.9040 0.9040
4.456000 0.9040 0.9040 0.9060 0.9040 0.9040
4.489248 0.9040 0.9040 0.9040 0.9020 0.9010
4.522000 0.9010 0.9010 0.9010 0.9010 0.9010
4.555248 0.8990 0.8990 0.8990 0.8990 0.8990
4.589000 0.8990 0.8990 0.8970 0.8970 0.8960
4.622248 0.8940 0.8940 0.8940 0.8940 0.8940
4.655000 0.8920 0.8920 0.8920 0.8920 0.8920
4.688248 0.8920 0.8910 0.8910 0.8910 0.8910
4.721000 0.8890 0.8890 0.8890 0.8870 0.8870
4.754248 0.8870 0.8860 0.8860 0.8860 0.8860
4.788000 0.8860 0.8860 0.8820 0.8820 0.8810
4.821248 0.8810 0.8810 0.8810 0.8810 0.8790
4.854000 0.8790 0.8790 0.8790 0.8770 0.8770
4.887248 0.8770 0.8770 0.8770 0.8770 0.8770
4.921000 0.8770 0.8770 0.8790 0.8790 0.8810
4.954248 0.8810 0.8820 0.8820 0.8840 0.8840
4.987000 0.8860 0.8910 0.8920 0.8940 0.8960
5.020248 0.8970 0.8990 0.8990 0.9010 0.9020
5.054000 0.9060 0.9060 0.9070 0.9090 0.9110
5.087248 0.9110 0.9110 0.9120 0.9140 0.9160
5.120000 0.9160 0.9170 0.9170 0.9190 0.9210
5.153248 0.9220 0.9220 0.9220 0.9220 0.9240
5.187000 0.9260 0.9270 0.9270 0.9270 0.9270
5.220248 0.9270 0.9270 0.9270 0.9290 0.9290
5.253000 0.9310 0.9310 0.9320 0.9320 0.9320
5.286248 0.9320 0.9320 0.9340 0.9340 0.9320
5.320000 0.9320 0.9320 0.9340 0.9340 0.9320
5.353248 0.9320 0.9320 0.9320 0.9320 0.9320
5.386000 0.9320 0.9340 0.9340 0.9340 0.9320
5.419248 0.9320 0.9320 0.9320 0.9320 0.9320
5.453000 0.9320 0.9320 0.9320 0.9320 0.9320
5.486248 0.9340 0.9340 0.9340 0.9340 0.9340
5.519000 0.9360 0.9360 0.9380 0.9380 0.9390
5.552248 0.9410 0.9410 0.9410 0.9430 0.9430
5.585000 0.9430 0.9440 0.9440 0.9460 0.9460
5.618248 0.9460 0.9460 0.9480 0.9480 0.9490
5.652000 0.9490 0.9510 0.9510 0.9510 0.9530
5.685248 0.9530 0.9540 0.9540 0.9560 0.9560
5.718000 0.9560 0.9580 0.9590 0.9590 0.9610
5.751248 0.9610 0.9630 0.9630 0.9630 0.9630
5.785000 0.9630 0.9630 0.9630 0.9630 0.9630
5.818248 0.9630 0.9630 0.9630 0.9630 0.9630
5.851000 0.9630 0.9640 0.9630 0.9630 0.9630
5.884248 0.9630 0.9610 0.9610 0.9610 0.9590
5.918000 0.9590 0.9580 0.9580 0.9560 0.9560
5.951248 0.9540 0.9530 0.9530 0.9510 0.9480
5.984000 0.9460 0.9380 0.9340 0.9240 0.9040
6.017248 0.8600 0.8150 0.7530 0.6910 0.6280
6.051000 0.5420 0.4570 0.4550 0.4580 0.4970
6.084248 0.5300 0.5410 0.5890 0.6230 0.6340
6.117000 0.6530 0.6700 0.6590 0.6480 0.5920
6.150248 0.5370 0.4900 0.4620 0.4330 0.4300
6.184000 0.4330 0.6010 0.6390 0.6580 0.7050
6.217248 0.7210 0.7420 0.7580 0.7880 0.8000
6.250000 0.8070 0.8170 0.8240 0.8350 0.8420
6.283248 0.8500 0.8550 0.8620 0.8650 0.8690
6.317000 0.8720 0.8760 0.8790 0.8820 0.8840
6.350248 0.8860 0.8910 0.8920 0.8940 0.8960
6.383000 0.8960 0.9010 0.9020 0.9040 0.9040
6.416248 0.9060 0.9060 0.9060 0.9070 0.9090
6.450000 0.9090 0.9090 0.9110 0.9110 0.9120
6.483248 0.9140 0.9140 0.9140 0.9140 0.9140
6.516000 0.9140 0.9140 0.9160 0.9160 0.9140
6.549248 0.9140 0.9140 0.9140 0.9140 0.9140
6.582000 0.9140 0.9120 0.9140 0.9140 0.9120
6.615248 0.9120 0.9110 0.9110 0.9090 0.9060
6.649000 0.9060 0.9060 0.9040 0.8990 0.8940
6.682248 0.8890 0.8870 0.8840 0.8760 0.8720
6.715000 0.8600 0.8470 0.8290 0.8150 0.8040
6.748248 0.7750 0.7470 0.7000 0.6800 0.6660
6.782000 0.6510 0.6210 0.6010 0.5960 0.5940
6.815248 0.5960 0.5970 0.6010 0.6040 0.6060
6.848000 0.6180 0.6330 0.6440 0.6580 0.6810
6.881248 0.6910 0.7030 0.7130 0.7250 0.7310
6.915000 0.7400 0.7470 0.7550 0.7680 0.7850
6.948248 0.7930 0.8000 0.8020 0.8050 0.8100
6.981000 0.8140 0.8170 0.8220 0.8220 0.8220
7.014248 0.8240 0.8240 0.8240 0.8250 0.8250
7.048000 0.8250 0.8250 0.8250 0.8240 0.8240
7.081248 0.8220 0.8200 0.8170 0.8120 0.8070
7.114000 0.8040 0.8000 0.8000 0.7870 0.7820
7.147248 0.7770 0.7670 0.7580 0.7330 0.7210
7.181000 0.7080 0.6880 0.6700 0.6630 0.6560
7.214248 0.6540 0.6560 0.6630 0.6640 0.6780
7.247000 0.6860 0.6910 0.7000 0.7100 0.7160
7.280248 0.7260 0.7350 0.7420 0.7480 0.7530
7.314000 0.7600 0.7630 0.7670 0.7680 0.7720
7.347248 0.7730 0.7750 0.7830 0.7830 0.7870
7.380000 0.7880 0.7880 0.7920 0.7930 0.7970
7.413248 0.8000 0.8000 0.8020 0.8040 0.8050
7.447000 0.8050 0.8050 0.8070 0.8120 0.8120
7.480248 0.8140 0.8140 0.8150 0.8190 0.8190
7.513000 0.8200 0.8200 0.8220 0.8240 0.8240
7.546248 0.8250 0.8250 0.8270 0.8270 0.8290
7.579000 0.8290 0.8300 0.8320 0.8320 0.8340
7.612248 0.8340 0.8350 0.8350 0.8370 0.8370
7.646000 0.8390 0.8390 0.8390 0.8400 0.8420
7.679248 0.8420 0.8440 0.8440 0.8440 0.8440
7.712000 0.8450 0.8450 0.8450 0.8470 0.8490
7.745248 0.8490 0.8490 0.8490 0.8490 0.8490
7.779000 0.8490 0.8490 0.8490 0.8500 0.8500
7.812248 0.8520 0.8520 0.8520 0.8520 0.8520
7.845000 0.8520 0.8520 0.8520 0.8520 0.8520
7.878248 0.8520 0.8520 0.8520 0.8540 0.8540
7.912000 0.8540 0.8540 0.8550 0.8550 0.8550
7.945248 0.8550 0.8550 0.8550 0.8550 0.8570
7.978000 0.8570 0.8570 0.8570 0.8590 0.8590
8.011248 0.8600 0.8600 0.8600 0.8600 0.8600
8.045000 0.8600 0.8600 0.8620 0.8620 0.8620
8.078248 0.8640 0.8640 0.8640 0.8650 0.8650
8.111000 0.8670 0.8670 0.8670 0.8690 0.8710
8.144248 0.8720 0.8720 0.8720 0.8740 0.8740
8.178000 0.8740 0.8760 0.8760 0.8760 0.8770
8.211248 0.8790 0.8810 0.8810 0.8820 0.8820
8.244000 0.8840 0.8840 0.8860 0.8860 0.8870
8.277248 0.8870 0.8870 0.8870 0.8890 0.8910
8.311000 0.8910 0.8920 0.8920 0.8920 0.8940
8.344248 0.8940 0.8940 0.8960 0.8960 0.8970
8.377000 0.8970 0.8970 0.9010 0.8990 0.8990
8.410248 0.8990 0.8990 0.9010 0.9010 0.9010
8.444000 0.9020 0.9040 0.9040 0.9040 0.9060
8.477248 0.9060 0.9060 0.9060 0.9060 0.9060
8.510000 0.9060 0.9070 0.9070 0.9070 0.9070
8.543248 0.9070 0.9070 0.9060 0.9090 0.9110
8.576000 0.9110 0.9110 0.9120 0.9140 0.9140
8.609248 0.9140 0.9140 0.9140 0.9160 0.9160
8.643000 0.9160 0.9160 0.9160 0.9160 0.9170
8.676248 0.9170 0.9170 0.9170 0.9170 0.9190
8.709000 0.9190 0.9210 0.9210 0.9210 0.9210
8.742248 0.9210 0.9220 0.9220 0.9220 0.9220
8.776000 0.9240 0.9240 0.9220 0.9240 0.9240
8.809248 0.9260 0.9260 0.9260 0.9260 0.9260
8.842000 0.9260 0.9260 0.9270 0.9270 0.9270
8.875248 0.9270 0.9270 0.9270 0.9270 0.9270
8.909000 0.9270 0.9290 0.9290 0.9290 0.9290
8.942248 0.9290 0.9310 0.9310 0.9310 0.9310
8.975000 0.9310 0.9310 0.9310 0.9320 0.9340
9.008248 0.9340 0.9340 0.9340 0.9340 0.9340
9.042000 0.9340 0.9360 0.9360 0.9360 0.9380
9.075248 0.9380 0.9390 0.9390 0.9390 0.9390
9.108000 0.9390 0.9390 0.9390 0.9390 0.9410
9.141248 0.9410 0.9410 0.9430 0.9430 0.9430
9.175000 0.9430 0.9430 0.9410 0.9410 0.9410
9.208248 0.9410 0.9410 0.9430 0.9430 0.9430
9.241000 0.9430 0.9430 0.9430 0.9430 0.9440
9.274248 0.9440 0.9440 0.9440 0.9440 0.9440
9.308000 0.9440 0.9440 0.9440 0.9440 0.9460
9.341248 0.9460 0.9460 0.9460 0.9480 0.9460
9.374000 0.9460 0.9480 0.9480 0.9480 0.9490
9.407248 0.9490 0.9490 0.9490 0.9510 0.9510
9.440000 0.9510 0.9510 0.9510 0.9510 0.9510
9.473248 0.9510 0.9510 0.9510 0.9510 0.9510
9.507000 0.9510 0.9510 0.9510 0.9510 0.9510
9.540248 0.9510 0.9530 0.9540 0.9540 0.9540
9.573000 0.9540 0.9540 0.9540 0.9530 0.9540
9.606248 0.9540 0.9540 0.9540 0.9540 0.9540
9.640000 0.9540 0.9540 0.9540 0.9540 0.9540
9.673248 0.9530 0.9530 0.9530 0.9530 0.9540
9.706000 0.9540 0.9530 0.9530 0.9530 0.9530
9.739248 0.9530 0.9530 0.9530 0.9530 0.9530
9.773000 0.9530 0.9530 0.9510 0.9510 0.9530
9.806248 0.9530 0.9510 0.9510 0.9510 0.9530
9.839000 0.9510 0.9510 0.9510 0.9510 0.9510
9.872248 0.9510 0.9490 0.9490 0.9490 0.9510
9.906000 0.9510 0.9510 0.9490 0.9490 0.9490
9.939248 0.9490 0.9490 0.9490 0.9480 0.9480
9.972000 0.9480 0.9480 0.9490 0.9480 0.9490
10.005248 0.9480 0.9480 0.9480 0.9480 0.9460
10.039000 0.9460 0.9460 0.9460 0.9460 0.9460
10.072248 0.9460 0.9460 0.9460 0.9480 0.9480
10.105000 0.9480 0.9480 0.9480 0.9460 0.9460
10.138248 0.9460 0.9460 0.9460 0.9460 0.9460
10.172000 0.9460 0.9460 0.9460 0.9480 0.9480
10.205248 0.9460 0.9440 0.9440 0.9440 0.9460
10.238000 0.9460 0.9440 0.9440 0.9440 0.9440
10.271248 0.9440 0.9440 0.9440 0.9440 0.9440
10.305000 0.9440 0.9440 0.9440 0.9440 0.9440
10.338248 0.9440 0.9430 0.9430 0.9430 0.9430
10.371000 0.9430 0.9430 0.9430 0.9410 0.9430
10.404248 0.9430 0.9430 0.9430 0.9410 0.9410
10.437000 0.9410 0.9410 0.9390 0.9390 0.9390
10.470248 0.9390 0.9390 0.9380 0.9380 0.9380
10.504000 0.9380 0.9380 0.9360 0.9360 0.9360
10.537248 0.9360 0.9360 0.9360 0.9360 0.9360
10.570000 0.9360 0.9340 0.9340 0.9340 0.9340
10.603248 0.9340 0.9340 0.9340 0.9340 0.9340
10.637000 0.9340 0.9360 0.9340 0.9340 0.9340
10.670248 0.9340 0.9320 0.9320 0.9320 0.9320
10.703000 0.9320 0.9320 0.9320 0.9320 0.9320
10.736248 0.9320 0.9320 0.9320 0.9320 0.9310
10.770000 0.9310 0.9320 0.9310 0.9310 0.9290
10.803248 0.9290 0.9290 0.9290 0.9290 0.9290
10.836000 0.9290 0.9290 0.9290 0.9290 0.9270
10.869248 0.9270 0.9270 0.9270 0.9270 0.9270
10.903000 0.9270 0.9270 0.9270 0.9270 0.9270
10.936248 0.9270 0.9270 0.9260 0.9260 0.9260
10.969000 0.9260 0.9260 0.9260 0.9270 0.9260
11.002248 0.9270 0.9270 0.9270 0.9270 0.9270
11.036000 0.9270 0.9270 0.9270 0.9270 0.9290
11.069248 0.9290 0.9290 0.9310 0.9310 0.9310
11.102000 0.9310 0.9310 0.9310 0.9320 0.9320
11.135248 0.9320 0.9320 0.9340 0.9340 0.9340
11.169000 0.9340 0.9360 0.9360 0.9360 0.9380
11.202248 0.9390 0.9390 0.9390 0.9390 0.9410
11.235000 0.9410 0.9430 0.9430 0.9430 0.9430
11.268248 0.9430 0.9430 0.9430 0.9440 0.9440
11.302000 0.9440 0.9440 0.9440 0.9440 0.9440
11.335248 0.9440 0.9440 0.9440 0.9440 0.9440
11.368000 0.9440 0.9440 0.9440 0.9440 0.9440
11.401248 0.9440 0.9440 0.9440 0.9440 0.9440
11.434000 0.9440 0.9430 0.9430 0.9430 0.9440
11.467248 0.9440 0.9440 0.9440 0.9440 0.9440
11.501000 0.9440 0.9440 0.9440 0.9440 0.9460
11.534248 0.9460 0.9460 0.9460 0.9460 0.9460
11.567000 0.9460 0.9460 0.9460 0.9460 0.9460
11.600248 0.9480 0.9480 0.9490 0.9490 0.9490
11.634000 0.9490 0.9490 0.9490 0.9490 0.9490
11.667248 0.9490 0.9490 0.9490 0.9490 0.9480
11.700000 0.9480 0.9480 0.9480 0.9460 0.9460
11.733248 0.9460 0.9460 0.9480 0.9480 0.9480
11.767000 0.9480 0.9480 0.9480 0.9480 0.9460
11.800248 0.9460 0.9440 0.9440 0.9440 0.9440
11.833000 0.9440 0.9440 0.9440 0.9430 0.9430
11.866248 0.9410 0.9410 0.9410 0.9410 0.9410
11.900000 0.9410 0.9390 0.9380 0.9380 0.9380
11.933248 0.9380 0.9380 0.9360 0.9340 0.9320
11.966000 0.9320 0.9320 0.9310 0.9310 0.9310
11.999248 0.9310 0.9310 0.9320 0.9310 0.9310
12.033000 0.9310 0.9290 0.9290 0.9270 0.9270
12.066248 0.9270 0.9260 0.9260 0.9240 0.9240
12.099000 0.9240 0.9240 0.9220 0.9220 0.9220
12.132248 0.9220 0.9220 0.9210 0.9210 0.9170
12.166000 0.9170 0.9170 0.9170 0.9160 0.9160
12.199248 0.9160 0.9160 0.9160 0.9160 0.9140
12.232000 0.9140 0.9120 0.9110 0.9110 0.9110
12.265248 0.9090 0.9090 0.9070 0.9070 0.9090
12.298000 0.9070 0.9060 0.9070 0.9070 0.9060
12.331248 0.9060 0.9060 0.9060 0.9060 0.9040
12.365000 0.9040 0.9040 0.9040 0.9040 0.9020
12.398248 0.9020 0.9020 0.9020 0.9010 0.9010
12.431000 0.9010 0.9010 0.8990 0.8990 0.8970
12.464248 0.8970 0.8970 0.8970 0.8960 0.8960
12.498000 0.8960 0.8940 0.8940 0.8940 0.8940
12.531248 0.8920 0.8920 0.8920 0.8920 0.8920
12.564000 0.8910 0.8890 0.8890 0.8890 0.8890
12.597248 0.8890 0.8870 0.8860 0.8860 0.8860
12.631000 0.8860 0.8860 0.8840 0.8820 0.8820
12.664248 0.8820 0.8820 0.8820 0.8820 0.8820
12.697000 0.8810 0.8810 0.8810 0.8790 0.8770
12.730248 0.8760 0.8760 0.8770 0.8770 0.8760
12.764000 0.8760 0.8740 0.8740 0.8740 0.8720
12.797248 0.8710 0.8710 0.8690 0.8690 0.8690
12.830000 0.8670 0.8670 0.8670 0.8670 0.8670
12.863248 0.8650 0.8650 0.8640 0.8640 0.8640
12.897000 0.8620 0.8600 0.8600 0.8590 0.8570
12.930248 0.8570 0.8550 0.8550 0.8540 0.8540
12.963000 0.8520 0.8520 0.8500 0.8490 0.8470
12.996248 0.8470 0.8450 0.8450 0.8440 0.8440
13.030000 0.8420 0.8400 0.8400 0.8390 0.8370
13.063248 0.8350 0.8340 0.8300 0.8290 0.8270
13.096000 0.8250 0.8250 0.8220 0.8200 0.8200
13.129248 0.8170 0.8150 0.8140 0.8120 0.8070
13.163000 0.8050 0.8040 0.8040 0.8040 0.8020
13.196248 0.8000 0.7930 0.7920 0.7900 0.7880
13.229000 0.7850 0.7820 0.7800 0.7780 0.7770
13.262248 0.7730 0.7720 0.7680 0.7650 0.7630
13.295000 0.7600 0.7570 0.7550 0.7520 0.7480
13.328248 0.7450 0.7430 0.7400 0.7380 0.7350
13.362000 0.7310 0.7280 0.7230 0.7210 0.7200
13.395248 0.7150 0.7110 0.7100 0.7060 0.7050
13.428000 0.7030 0.6980 0.6930 0.6880 0.6850
13.461248 0.6810 0.6760 0.6710 0.6660 0.6640
13.495000 0.6630 0.6560 0.6540 0.6490 0.6460
13.528248 0.6430 0.6280 0.6240 0.6210 0.6180
13.561000 0.6140 0.6110 0.6080 0.6060 0.6040
13.594248 0.5970 0.5870 0.5820 0.5790 0.5690
13.628000 0.5620 0.5570 0.5560 0.5520 0.5440
13.661248 0.5390 0.5300 0.5250 0.5220 0.5120
13.694000 0.5070 0.5000 0.4950 0.4900 0.4840
13.727248 0.4790 0.4720 0.4650 0.4600 0.4520
13.761000 0.4470 0.4430 0.4400 0.4350 0.4320
13.794248 0.4280 0.4220 0.4130 0.4120 0.4080
13.827000 0.4030 0.3910 0.3850 0.3810 0.3750
13.860248 0.3710 0.3650 0.3610 0.3550 0.3480
13.894000 0.3430 0.3380 0.3350 0.3310 0.3280
13.927248 0.3230 0.3180 0.3130 0.3090 0.3030
13.960000 0.3010 0.2890 0.2890 0.2840 0.2830
13.993248 0.2780 0.2740 0.2690 0.2680 0.2680
14.027000 0.2660 0.2640 0.2620 0.2570 0.2560
14.060248 0.2540 0.2540 0.2510 0.2490 0.2470
14.093000 0.2470 0.2460 0.2440 0.2440 0.2420
14.126248 0.2420 0.2420 0.2410 0.2410 0.2420
14.160000 0.2420 0.2420 0.2420 0.2420 0.2420
14.193248 0.2410 0.2410 0.2420 0.2420 0.2420
14.226000 0.2440 0.2440 0.2440 0.2440 0.2440
14.259248 0.2460 0.2460 0.2460 0.2460 0.2470
14.292000 0.2470 0.2470 0.2470 0.2490 0.2490
14.325248 0.2490 0.2490 0.2490 0.2490 0.2510
14.359000 0.2510 0.2510 0.2510 0.2510 0.2510
14.392248 0.2510 0.2510 0.2520 0.2520 0.2520
14.425000 0.2520 0.2540 0.2540 0.2560 0.2560
14.458248 0.2570 0.2570 0.2590 0.2590 0.2590
14.492000 0.2610 0.2610 0.2610 0.2620 0.2640
14.525248 0.2640 0.2680 0.2680 0.2690 0.2710
14.558000 0.2710 0.2730 0.2730 0.2740 0.2760
14.591248 0.2760 0.2790 0.2790 0.2810 0.2810
14.625000 0.2830 0.2840 0.2840 0.2860 0.2880
14.658248 0.2890 0.2910 0.2930 0.2930 0.2960
14.691000 0.2980 0.2990 0.3010 0.3030 0.3040
14.724248 0.3090 0.3130 0.3140 0.3190 0.3230
14.758000 0.3260 0.3290 0.3380 0.3430 0.3450
14.791248 0.3500 0.3550 0.3580 0.3650 0.3660
14.824000 0.3710 0.3760 0.3810 0.3850 0.3860
14.857248 0.3900 0.3910 0.3930 0.3930 0.3950
14.891000 0.3960 0.3960 0.3980 0.3980 0.4000
14.924248 0.4000 0.4020 0.4020 0.4020 0.4030
14.957000 0.4050 0.4100 0.4120 0.4130 0.4150
14.990248 0.4170 0.4200 0.4220 0.4230 0.4250
15.024000 0.4270 0.4280 0.4320 0.4330 0.4350
15.057248 0.4370 0.4400 0.4420 0.4430 0.4470
15.090000 0.4500 0.4520 0.4530 0.4530 0.4550
15.123248 0.4580 0.4600 0.4620 0.4630 0.4650
15.156000 0.4690 0.4700 0.4720 0.4750 0.4750
15.189248 0.4750 0.4790 0.4820 0.4820 0.4850
15.223000 0.4870 0.4890 0.4900 0.4920 0.4940
15.256248 0.4950 0.4990 0.4990 0.5000 0.5020
15.289000 0.5020 0.5040 0.5050 0.5090 0.5100
15.322248 0.5120 0.5140 0.5150 0.5170 0.5190
15.356000 0.5200 0.5220 0.5220 0.5240 0.5250
15.389248 0.5270 0.5290 0.5300 0.5300 0.5300
15.422000 0.5320 0.5340 0.5340 0.5360 0.5360
15.455248 0.5370 0.5370 0.5370 0.5370 0.5390
15.489000 0.5390 0.5390 0.5410 0.5410 0.5420
15.522248 0.5420 0.5420 0.5440 0.5440 0.5440
15.555000 0.5460 0.5460 0.5470 0.5470 0.5490
15.588248 0.5490 0.5490 0.5510 0.5520 0.5540
15.622000 0.5560 0.5560 0.5570 0.5590 0.5610
15.655248 0.5610 0.5620 0.5620 0.5640 0.5660
15.688000 0.5670 0.5670 0.5670 0.5690 0.5690
15.721248 0.5710 0.5710 0.5720 0.5720 0.5720
15.755000 0.5720 0.5740 0.5740 0.5740 0.5720
15.788248 0.5740 0.5760 0.5760 0.5770 0.5770
15.821000 0.5790 0.5790 0.5790 0.5810 0.5810
15.854248 0.5810 0.5810 0.5820 0.5820 0.5840
15.888000 0.5840 0.5860 0.5870 0.5870 0.5870
15.921248 0.5890 0.5890 0.5910 0.5910 0.5920
15.954000 0.5920 0.5920 0.5920 0.5920 0.6830
15.987248 0.5920 0.5920 0.5920 0.5920
##END=
