##TITLE=BENZIDINE, DIHYDROCHLORIDE
##JCAMP-DX=4.24
##DATA TYPE=INFRARED SPECTRUM
##CLASS=COBLENTZ III
##ORIGIN=DOW CHEMICAL COMPANY
##OWNER=COBLENTZ SOC.
Collection (C) 2018 copyright by the U.S. Secretary of Commerce
on behalf of the United States of America. All rights reserved.
##DATE=1963/11/01
##NAMES=p-DIAMINODIPHENYL DIHYDROCHLORIDE
##MOLFORM=C12 H14 Cl2 N2
##SOURCE REFERENCE=COBLENTZ NO. 06379
##$NIST ID=B6006379
##$NIST SOURCE=COBLENTZ
##$NIST IMAGE=cob6379
##SPECTROMETER/DATA SYSTEM=BECKMAN IR-9 (GRATING)
##INSTRUMENT PARAMETERS=ORDER CHANGES: 670, 1200, 2000 CM^-^1
##STATE=SOLID (SPLIT MULL)
$$ SPECTRAL FEATURE AT 1993 CM^-^1 IS AN ARTIFACT CAUSED BY GRATING CHANGE
##SAMPLING PROCEDURE=TRANSMISSION
##RESOLUTION=2
##DATA PROCESSING=DIGITIZED BY COBLENTZ SOCIETY (BATCH I) FROM HARD COPY
##XUNITS=1/CM
##YUNITS=TRANSMITTANCE
##XLABEL=Wavenumbers (cm-1)
##YLABEL=% Transmission
##XFACTOR=1
##YFACTOR=1
##DELTAX=1
##FIRSTX=400
##LASTX=3812
##FIRSTY=0.6601
##MAXX=3812
##MINX=400
##MAXY=0.8804
##MINY=0.0795
##NPOINTS=3413
##XYDATA=(X++(Y..Y))
400.000000 0.6601 0.6593 0.6585 0.6569 0.6554
405.000000 0.6539 0.6525 0.6512 0.6500 0.6487
410.000000 0.6474 0.6461 0.6444 0.6426 0.6408
415.000000 0.6399 0.6393 0.6392 0.6391 0.6396
420.000000 0.6400 0.6404 0.6411 0.6419 0.6430
425.000000 0.6443 0.6458 0.6472 0.6490 0.6508
430.000000 0.6528 0.6547 0.6565 0.6585 0.6608
435.000000 0.6639 0.6668 0.6699 0.6731 0.6767
440.000000 0.6801 0.6838 0.6874 0.6910 0.6948
445.000000 0.6985 0.7021 0.7064 0.7111 0.7158
450.000000 0.7197 0.7215 0.7221 0.7218 0.7217
455.000000 0.7214 0.7211 0.7211 0.7224 0.7255
460.000000 0.7298 0.7344 0.7390 0.7436 0.7482
465.000000 0.7553 0.7625 0.7651 0.7675 0.7692
470.000000 0.7706 0.7708 0.7712 0.7715 0.7760
475.000000 0.7712 0.7705 0.7697 0.7681 0.7653
480.000000 0.7603 0.7531 0.7432 0.7253 0.6967
485.000000 0.6681 0.6395 0.6108 0.5822 0.5536
490.000000 0.5260 0.5258 0.5294 0.5869 0.6445
495.000000 0.6755 0.6887 0.7008 0.7099 0.7219
500.000000 0.7476 0.7541 0.7603 0.7658 0.7682
505.000000 0.7705 0.7708 0.7734 0.7712 0.7714
510.000000 0.7699 0.7651 0.7410 0.7096 0.6783
515.000000 0.6644 0.6646 0.6621 0.7012 0.7258
520.000000 0.7503 0.7708 0.7687 0.7598 0.7387
525.000000 0.7176 0.6967 0.6756 0.6601 0.6668
530.000000 0.6576 0.7238 0.7522 0.7781 0.7861
535.000000 0.7906 0.7918 0.7945 0.7895 0.7711
540.000000 0.7528 0.7376 0.7374 0.7532 0.7711
545.000000 0.7892 0.8071 0.8142 0.8178 0.8195
550.000000 0.8194 0.8168 0.8108 0.8057 0.8048
555.000000 0.8049 0.8054 0.8060 0.8065 0.8069
560.000000 0.8075 0.8081 0.8086 0.8091 0.8097
565.000000 0.8101 0.8114 0.8133 0.8151 0.8174
570.000000 0.8194 0.8214 0.8234 0.8254 0.8273
575.000000 0.8292 0.8309 0.8324 0.8336 0.8345
580.000000 0.8355 0.8363 0.8362 0.8361 0.8359
585.000000 0.8358 0.8357 0.8355 0.8353 0.8352
590.000000 0.8350 0.8378 0.8344 0.8341 0.8338
595.000000 0.8334 0.8331 0.8328 0.8325 0.8321
600.000000 0.8321 0.8318 0.8317 0.8315 0.8313
605.000000 0.8312 0.8309 0.8307 0.8304 0.8302
610.000000 0.8299 0.8297 0.8294 0.8294 0.8294
615.000000 0.8295 0.8296 0.8297 0.8298 0.8304
620.000000 0.8313 0.8325 0.8343 0.8361 0.8374
625.000000 0.8388 0.8389 0.8385 0.8381 0.8375
630.000000 0.8371 0.8361 0.8351 0.8340 0.8328
635.000000 0.8312 0.8261 0.8183 0.8122 0.8057
640.000000 0.7708 0.7361 0.7042 0.7035 0.7024
645.000000 0.7261 0.7565 0.7868 0.8171 0.8442
650.000000 0.8504 0.8530 0.8548 0.8561 0.8573
655.000000 0.8578 0.8578 0.8578 0.8578 0.8577
660.000000 0.8571 0.8568 0.8564 0.8560 0.8556
665.000000 0.8552 0.8548 0.8544 0.8539 0.8539
670.000000 0.8539 0.8542 0.8544 0.8558 0.8573
675.000000 0.8587 0.8602 0.8615 0.8625 0.8634
680.000000 0.8656 0.8643 0.8646 0.8646 0.8646
685.000000 0.8645 0.8641 0.8636 0.8632 0.8628
690.000000 0.8620 0.8611 0.8602 0.8593 0.8584
695.000000 0.8568 0.8543 0.8506 0.8470 0.8428
700.000000 0.8381 0.8331 0.8293 0.8283 0.8273
705.000000 0.8266 0.8263 0.8254 0.8178 0.8097
710.000000 0.8022 0.7961 0.7883 0.7761 0.7630
715.000000 0.7506 0.7384 0.7280 0.7161 0.7025
720.000000 0.6878 0.6878 0.6880 0.6884 0.6992
725.000000 0.7107 0.7174 0.7241 0.7308 0.7368
730.000000 0.7417 0.7458 0.7493 0.7531 0.7571
735.000000 0.7612 0.7658 0.7708 0.7755 0.7796
740.000000 0.7834 0.7857 0.7878 0.7901 0.7924
745.000000 0.7947 0.7961 0.7974 0.7987 0.8000
750.000000 0.8011 0.8019 0.8028 0.8038 0.8046
755.000000 0.8055 0.8060 0.8065 0.8068 0.8074
760.000000 0.8078 0.8083 0.8083 0.8082 0.8081
765.000000 0.8080 0.8078 0.8076 0.8075 0.8075
770.000000 0.8074 0.8072 0.8071 0.8071 0.8069
775.000000 0.8068 0.8068 0.8069 0.8071 0.8071
780.000000 0.8072 0.8074 0.8064 0.8054 0.8044
785.000000 0.8034 0.8018 0.7992 0.7956 0.7749
790.000000 0.7542 0.7335 0.7200 0.7197 0.7234
795.000000 0.7384 0.7534 0.7601 0.7578 0.7501
800.000000 0.6895 0.6289 0.5683 0.5077 0.4471
805.000000 0.3864 0.3259 0.2653 0.2147 0.2141
810.000000 0.2127 0.3377 0.4862 0.7150 0.7318
815.000000 0.7440 0.7518 0.7589 0.7678 0.7754
820.000000 0.7807 0.7856 0.7888 0.7918 0.7937
825.000000 0.7950 0.7962 0.7965 0.7965 0.7968
830.000000 0.7954 0.7926 0.7882 0.7835 0.7784
835.000000 0.7731 0.7675 0.7618 0.7576 0.7583
840.000000 0.7604 0.7721 0.7821 0.7881 0.7918
845.000000 0.7949 0.7971 0.7972 0.7974 0.7974
850.000000 0.7969 0.7962 0.7947 0.7931 0.7900
855.000000 0.7865 0.7806 0.7801 0.7810 0.7871
860.000000 0.7917 0.7969 0.8011 0.8051 0.8090
865.000000 0.8101 0.8110 0.8114 0.8118 0.8122
870.000000 0.8121 0.8121 0.8108 0.8117 0.8112
875.000000 0.8106 0.8099 0.8092 0.8086 0.8078
880.000000 0.8068 0.8058 0.8050 0.8040 0.8028
885.000000 0.8017 0.8006 0.7994 0.7983 0.7971
890.000000 0.7961 0.7954 0.7947 0.7940 0.7932
895.000000 0.7925 0.7918 0.7911 0.7903 0.7903
900.000000 0.7903 0.7903 0.7903 0.7903 0.7903
905.000000 0.7903 0.7903 0.7889 0.7868 0.7835
910.000000 0.7801 0.7730 0.7637 0.7543 0.7465
915.000000 0.7391 0.7389 0.7378 0.7400 0.7511
920.000000 0.7582 0.7653 0.7698 0.7730 0.7746
925.000000 0.7761 0.7769 0.7774 0.7774 0.7772
930.000000 0.7771 0.7771 0.7769 0.7768 0.7767
935.000000 0.7765 0.7762 0.7757 0.7722 0.7689
940.000000 0.7640 0.7578 0.7495 0.7450 0.7447
945.000000 0.7453 0.7486 0.7541 0.7596 0.7631
950.000000 0.7638 0.7636 0.7636 0.7635 0.7634
955.000000 0.7631 0.7628 0.7625 0.7624 0.7621
960.000000 0.7618 0.7605 0.7586 0.7565 0.7518
965.000000 0.7478 0.7461 0.7453 0.7455 0.7458
970.000000 0.7461 0.7465 0.7468 0.7469 0.7471
975.000000 0.7472 0.7474 0.7493 0.7514 0.7547
980.000000 0.7572 0.7594 0.7601 0.7610 0.7618
985.000000 0.7615 0.7615 0.7614 0.7644 0.7603
990.000000 0.7594 0.7586 0.7574 0.7542 0.7510
995.000000 0.7475 0.7440 0.7389 0.7314 0.7238
1000.000000 0.7162 0.7087 0.7011 0.6936 0.6860
1005.000000 0.6785 0.6764 0.6837 0.6742 0.7375
1010.000000 0.7424 0.7442 0.7449 0.7446 0.7439
1015.000000 0.7438 0.7408 0.7328 0.7195 0.7099
1020.000000 0.6965 0.6964 0.6964 0.6983 0.7004
1025.000000 0.7014 0.6984 0.6921 0.6934 0.6946
1030.000000 0.6958 0.6891 0.7007 0.7036 0.7065
1035.000000 0.7096 0.7128 0.7160 0.7196 0.7228
1040.000000 0.7249 0.7267 0.7268 0.7269 0.7271
1045.000000 0.7261 0.7246 0.7228 0.7211 0.7193
1050.000000 0.7169 0.7143 0.7107 0.7078 0.7049
1055.000000 0.7015 0.6971 0.6928 0.6896 0.6864
1060.000000 0.6831 0.6783 0.6718 0.6657 0.6603
1065.000000 0.6549 0.6481 0.6408 0.6352 0.6301
1070.000000 0.6271 0.6240 0.6226 0.6221 0.6217
1075.000000 0.6215 0.6212 0.6194 0.6171 0.6173
1080.000000 0.6389 0.6512 0.6638 0.6761 0.6886
1085.000000 0.6978 0.6978 0.6980 0.6968 0.6936
1090.000000 0.6903 0.6878 0.6878 0.6878 0.6910
1095.000000 0.6944 0.6982 0.7000 0.7008 0.7003
1100.000000 0.6998 0.6954 0.6890 0.6815 0.6749
1105.000000 0.6605 0.6399 0.6194 0.5988 0.5783
1110.000000 0.5577 0.5492 0.5492 0.5453 0.5638
1115.000000 0.5825 0.6012 0.6198 0.6385 0.6634
1120.000000 0.6739 0.6821 0.6874 0.6918 0.6962
1125.000000 0.7019 0.7074 0.7104 0.7104 0.7103
1130.000000 0.7097 0.7085 0.7050 0.7014 0.6995
1135.000000 0.6968 0.6930 0.6888 0.6848 0.6850
1140.000000 0.6869 0.6942 0.7006 0.7076 0.7100
1145.000000 0.7118 0.7134 0.7145 0.7155 0.7161
1150.000000 0.7165 0.7171 0.7175 0.7175 0.7176
1155.000000 0.7176 0.7176 0.7178 0.7178 0.7178
1160.000000 0.7180 0.7181 0.7182 0.7183 0.7184
1165.000000 0.7183 0.7183 0.7181 0.7180 0.7178
1170.000000 0.7175 0.7174 0.7171 0.7169 0.7168
1175.000000 0.7165 0.7161 0.7121 0.7078 0.7018
1180.000000 0.6942 0.6865 0.6788 0.6721 0.6724
1185.000000 0.6728 0.6811 0.6904 0.6969 0.6994
1190.000000 0.6999 0.7005 0.7008 0.7026 0.7011
1195.000000 0.7011 0.7006 0.7000 0.6945 0.6878
1200.000000 0.6712 0.6343 0.5974 0.5604 0.5234
1205.000000 0.5024 0.5027 0.5027 0.5881 0.6638
1210.000000 0.6942 0.6999 0.7056 0.7103 0.7138
1215.000000 0.7158 0.7175 0.7181 0.7182 0.7181
1220.000000 0.7181 0.7176 0.7172 0.7168 0.7165
1225.000000 0.7161 0.7158 0.7154 0.7153 0.7153
1230.000000 0.7154 0.7154 0.7155 0.7155 0.7154
1235.000000 0.7151 0.7149 0.7146 0.7141 0.7136
1240.000000 0.7130 0.7125 0.7121 0.7117 0.7112
1245.000000 0.7101 0.7091 0.7078 0.7067 0.7055
1250.000000 0.7043 0.7031 0.7018 0.7006 0.6997
1255.000000 0.6992 0.6988 0.6984 0.6978 0.6974
1260.000000 0.6968 0.6962 0.6958 0.6949 0.6936
1265.000000 0.6922 0.6910 0.6900 0.6893 0.6887
1270.000000 0.6888 0.6889 0.6894 0.6899 0.6904
1275.000000 0.6908 0.6912 0.6917 0.6921 0.6914
1280.000000 0.6905 0.6896 0.6887 0.6868 0.6847
1285.000000 0.6822 0.6800 0.6775 0.6753 0.6728
1290.000000 0.6704 0.6678 0.6654 0.6628 0.6600
1295.000000 0.6569 0.6540 0.6518 0.6511 0.6507
1300.000000 0.6514 0.6521 0.6528 0.6533 0.6535
1305.000000 0.6537 0.6539 0.6541 0.6535 0.6528
1310.000000 0.6521 0.6458 0.6330 0.6186 0.6042
1315.000000 0.5900 0.5900 0.5900 0.6115 0.6233
1320.000000 0.6232 0.6229 0.6228 0.6226 0.6260
1325.000000 0.6221 0.6218 0.6203 0.6178 0.6151
1330.000000 0.6124 0.6096 0.6068 0.6039 0.6018
1335.000000 0.6000 0.5981 0.5979 0.5990 0.5964
1340.000000 0.6091 0.6176 0.6265 0.6406 0.6539
1345.000000 0.6639 0.6740 0.6845 0.6938 0.7025
1350.000000 0.7101 0.7165 0.7225 0.7286 0.7337
1355.000000 0.7384 0.7421 0.7451 0.7478 0.7493
1360.000000 0.7508 0.7525 0.7537 0.7545 0.7553
1365.000000 0.7561 0.7568 0.7575 0.7576 0.7578
1370.000000 0.7580 0.7582 0.7583 0.7584 0.7584
1375.000000 0.7585 0.7585 0.7585 0.7585 0.7586
1380.000000 0.7587 0.7587 0.7587 0.7587 0.7587
1385.000000 0.7580 0.7572 0.7565 0.7555 0.7543
1390.000000 0.7531 0.7518 0.7504 0.7483 0.7462
1395.000000 0.7442 0.7418 0.7395 0.7371 0.7349
1400.000000 0.7328 0.7308 0.7288 0.7261 0.7242
1405.000000 0.7235 0.7265 0.7324 0.7393 0.7426
1410.000000 0.7435 0.7437 0.7438 0.7435 0.7434
1415.000000 0.7433 0.7431 0.7430 0.7428 0.7421
1420.000000 0.7412 0.7406 0.7398 0.7390 0.7381
1425.000000 0.7369 0.7357 0.7344 0.7331 0.7296
1430.000000 0.7260 0.7226 0.7199 0.7178 0.7167
1435.000000 0.7155 0.7151 0.7149 0.7146 0.7143
1440.000000 0.7139 0.7131 0.7124 0.7115 0.7098
1445.000000 0.7078 0.7060 0.7041 0.7021 0.6994
1450.000000 0.6967 0.6935 0.6904 0.6871 0.6840
1455.000000 0.6788 0.6736 0.6688 0.6649 0.6608
1460.000000 0.6568 0.6525 0.6472 0.6421 0.6369
1465.000000 0.6310 0.6248 0.6186 0.6124 0.6048
1470.000000 0.5973 0.5898 0.5821 0.5743 0.5666
1475.000000 0.5588 0.5479 0.5369 0.5262 0.5158
1480.000000 0.4737 0.4490 0.4243 0.3995 0.3748
1485.000000 0.3500 0.3253 0.3006 0.2758 0.2511
1490.000000 0.2263 0.2016 0.1769 0.1521 0.1274
1495.000000 0.1027 0.0835 0.0808 0.0795 0.1233
1500.000000 0.2034 0.2834 0.3637 0.4438 0.5239
1505.000000 0.6040 0.6841 0.7071 0.7081 0.6864
1510.000000 0.6320 0.5777 0.5234 0.4690 0.4147
1515.000000 0.3604 0.3480 0.3471 0.3491 0.4629
1520.000000 0.5449 0.6269 0.6845 0.6961 0.7133
1525.000000 0.7331 0.7443 0.7544 0.7639 0.7688
1530.000000 0.7733 0.7765 0.7786 0.7784 0.7805
1535.000000 0.7771 0.7764 0.7756 0.7728 0.7661
1540.000000 0.7587 0.7460 0.7292 0.7124 0.6956
1545.000000 0.6787 0.6618 0.6451 0.6283 0.6114
1550.000000 0.6024 0.5986 0.5941 0.5922 0.5922
1555.000000 0.5941 0.6431 0.7108 0.7235 0.7322
1560.000000 0.7403 0.7481 0.7496 0.7475 0.7451
1565.000000 0.7396 0.7343 0.7283 0.7225 0.7221
1570.000000 0.7218 0.7248 0.7305 0.7362 0.7421
1575.000000 0.7430 0.7424 0.7537 0.7676 0.7817
1580.000000 0.7958 0.8098 0.8238 0.8365 0.8406
1585.000000 0.8434 0.8453 0.8453 0.8452 0.8415
1590.000000 0.8343 0.8261 0.8188 0.8115 0.8028
1595.000000 0.7911 0.7675 0.7430 0.7184 0.6938
1600.000000 0.6693 0.6447 0.6201 0.5956 0.5762
1605.000000 0.5760 0.5782 0.5896 0.6243 0.6591
1610.000000 0.6938 0.7160 0.7361 0.7508 0.7845
1615.000000 0.8022 0.8171 0.8310 0.8459 0.8592
1620.000000 0.8685 0.8752 0.8761 0.8771 0.8780
1625.000000 0.8804 0.8793 0.8799 0.8796 0.8783
1630.000000 0.8770 0.8757 0.8745 0.8732 0.8720
1635.000000 0.8707 0.8695 0.8683 0.8670 0.8658
1640.000000 0.8645 0.8632 0.8618 0.8606 0.8592
1645.000000 0.8578 0.8565 0.8551 0.8540 0.8542
1650.000000 0.8544 0.8547 0.8551 0.8555 0.8559
1655.000000 0.8563 0.8565 0.8567 0.8568 0.8568
1660.000000 0.8564 0.8560 0.8556 0.8552 0.8545
1665.000000 0.8539 0.8532 0.8525 0.8518 0.8509
1670.000000 0.8498 0.8488 0.8477 0.8467 0.8456
1675.000000 0.8445 0.8435 0.8424 0.8413 0.8402
1680.000000 0.8394 0.8393 0.8392 0.8391 0.8390
1685.000000 0.8389 0.8387 0.8387 0.8387 0.8387
1690.000000 0.8387 0.8387 0.8387 0.8387 0.8387
1695.000000 0.8387 0.8387 0.8385 0.8382 0.8380
1700.000000 0.8377 0.8374 0.8371 0.8368 0.8363
1705.000000 0.8359 0.8355 0.8350 0.8346 0.8343
1710.000000 0.8341 0.8339 0.8337 0.8335 0.8333
1715.000000 0.8330 0.8328 0.8325 0.8324 0.8321
1720.000000 0.8320 0.8318 0.8314 0.8310 0.8306
1725.000000 0.8303 0.8299 0.8295 0.8291 0.8287
1730.000000 0.8284 0.8280 0.8275 0.8268 0.8262
1735.000000 0.8254 0.8246 0.8239 0.8231 0.8224
1740.000000 0.8216 0.8208 0.8200 0.8192 0.8185
1745.000000 0.8176 0.8168 0.8161 0.8153 0.8145
1750.000000 0.8137 0.8128 0.8121 0.8114 0.8106
1755.000000 0.8098 0.8090 0.8082 0.8074 0.8065
1760.000000 0.8058 0.8050 0.8042 0.8034 0.8025
1765.000000 0.8018 0.8010 0.8001 0.7992 0.7980
1770.000000 0.7968 0.7956 0.7944 0.7932 0.7918
1775.000000 0.7912 0.7906 0.7900 0.7894 0.7888
1780.000000 0.7881 0.7875 0.7868 0.7861 0.7855
1785.000000 0.7847 0.7839 0.7832 0.7824 0.7819
1790.000000 0.7819 0.7821 0.7821 0.7821 0.7819
1795.000000 0.7815 0.7812 0.7810 0.7806 0.7803
1800.000000 0.7799 0.7794 0.7789 0.7784 0.7778
1805.000000 0.7772 0.7768 0.7762 0.7757 0.7751
1810.000000 0.7745 0.7739 0.7733 0.7726 0.7721
1815.000000 0.7715 0.7710 0.7705 0.7699 0.7693
1820.000000 0.7688 0.7682 0.7676 0.7671 0.7667
1825.000000 0.7661 0.7656 0.7651 0.7646 0.7641
1830.000000 0.7636 0.7631 0.7625 0.7618 0.7611
1835.000000 0.7605 0.7599 0.7592 0.7586 0.7578
1840.000000 0.7572 0.7567 0.7560 0.7551 0.7543
1845.000000 0.7535 0.7525 0.7518 0.7510 0.7501
1850.000000 0.7493 0.7485 0.7475 0.7468 0.7458
1855.000000 0.7451 0.7443 0.7434 0.7425 0.7418
1860.000000 0.7408 0.7400 0.7392 0.7383 0.7374
1865.000000 0.7365 0.7357 0.7348 0.7340 0.7331
1870.000000 0.7321 0.7314 0.7306 0.7298 0.7290
1875.000000 0.7283 0.7275 0.7267 0.7260 0.7251
1880.000000 0.7245 0.7237 0.7228 0.7221 0.7212
1885.000000 0.7204 0.7194 0.7185 0.7175 0.7165
1890.000000 0.7156 0.7147 0.7137 0.7126 0.7118
1895.000000 0.7108 0.7093 0.7075 0.7060 0.7044
1900.000000 0.7026 0.7011 0.6992 0.6971 0.6949
1905.000000 0.6928 0.6911 0.6899 0.6886 0.6872
1910.000000 0.6861 0.6857 0.6853 0.6849 0.6845
1915.000000 0.6842 0.6839 0.6836 0.6834 0.6831
1920.000000 0.6828 0.6825 0.6821 0.6821 0.6821
1925.000000 0.6821 0.6821 0.6821 0.6821 0.6822
1930.000000 0.6824 0.6824 0.6825 0.6825 0.6826
1935.000000 0.6828 0.6830 0.6832 0.6834 0.6836
1940.000000 0.6838 0.6839 0.6841 0.6843 0.6846
1945.000000 0.6849 0.6851 0.6856 0.6858 0.6860
1950.000000 0.6861 0.6864 0.6865 0.6868 0.6871
1955.000000 0.6875 0.6880 0.6885 0.6889 0.6898
1960.000000 0.6907 0.6915 0.6925 0.6935 0.6944
1965.000000 0.6953 0.6962 0.6968 0.6969 0.6971
1970.000000 0.6974 0.6975 0.6976 0.6978 0.6981
1975.000000 0.6983 0.6984 0.6983 0.6983 0.6981
1980.000000 0.6978 0.6976 0.6974 0.6971 0.6967
1985.000000 0.6964 0.6961 0.6958 0.6953 0.6942
1990.000000 0.6921 0.6895 0.6862 0.6849 0.6849
1995.000000 0.6850 0.6911 0.6951 0.6976 0.7001
2000.000000 0.7025 0.7048 0.7069 0.7080 0.7091
2005.000000 0.7100 0.7110 0.7117 0.7125 0.7126
2010.000000 0.7130 0.7132 0.7135 0.7137 0.7140
2015.000000 0.7142 0.7144 0.7144 0.7144 0.7144
2020.000000 0.7145 0.7145 0.7146 0.7146 0.7147
2025.000000 0.7148 0.7149 0.7149 0.7150 0.7150
2030.000000 0.7151 0.7151 0.7151 0.7151 0.7153
2035.000000 0.7153 0.7154 0.7154 0.7155 0.7155
2040.000000 0.7156 0.7156 0.7156 0.7155 0.7155
2045.000000 0.7154 0.7154 0.7153 0.7153 0.7153
2050.000000 0.7153 0.7151 0.7151 0.7151 0.7151
2055.000000 0.7150 0.7150 0.7149 0.7149 0.7148
2060.000000 0.7147 0.7144 0.7142 0.7139 0.7137
2065.000000 0.7133 0.7130 0.7126 0.7124 0.7119
2070.000000 0.7117 0.7112 0.7110 0.7107 0.7104
2075.000000 0.7100 0.7097 0.7094 0.7091 0.7087
2080.000000 0.7084 0.7080 0.7076 0.7071 0.7065
2085.000000 0.7057 0.7050 0.7042 0.7035 0.7026
2090.000000 0.7019 0.7011 0.7004 0.6995 0.6987
2095.000000 0.6978 0.6971 0.6961 0.6954 0.6946
2100.000000 0.6939 0.6931 0.6924 0.6917 0.6910
2105.000000 0.6901 0.6895 0.6887 0.6880 0.6871
2110.000000 0.6865 0.6857 0.6850 0.6842 0.6835
2115.000000 0.6826 0.6819 0.6812 0.6806 0.6799
2120.000000 0.6793 0.6787 0.6781 0.6774 0.6768
2125.000000 0.6761 0.6756 0.6750 0.6744 0.6738
2130.000000 0.6732 0.6725 0.6719 0.6714 0.6708
2135.000000 0.6701 0.6696 0.6690 0.6684 0.6676
2140.000000 0.6671 0.6664 0.6658 0.6651 0.6645
2145.000000 0.6636 0.6628 0.6618 0.6608 0.6607
2150.000000 0.6606 0.6604 0.6603 0.6601 0.6600
2155.000000 0.6599 0.6599 0.6599 0.6599 0.6599
2160.000000 0.6599 0.6599 0.6599 0.6598 0.6598
2165.000000 0.6598 0.6598 0.6598 0.6599 0.6595
2170.000000 0.6591 0.6581 0.6571 0.6561 0.6551
2175.000000 0.6540 0.6528 0.6518 0.6508 0.6497
2180.000000 0.6487 0.6475 0.6464 0.6451 0.6440
2185.000000 0.6428 0.6415 0.6403 0.6391 0.6379
2190.000000 0.6367 0.6355 0.6343 0.6330 0.6318
2195.000000 0.6306 0.6295 0.6283 0.6272 0.6260
2200.000000 0.6250 0.6238 0.6227 0.6215 0.6204
2205.000000 0.6192 0.6181 0.6170 0.6159 0.6147
2210.000000 0.6136 0.6124 0.6112 0.6101 0.6090
2215.000000 0.6078 0.6067 0.6055 0.6044 0.6032
2220.000000 0.6021 0.6009 0.5998 0.5988 0.5979
2225.000000 0.5976 0.5973 0.5970 0.5967 0.5964
2230.000000 0.5960 0.5959 0.5958 0.5957 0.5956
2235.000000 0.5955 0.5954 0.5953 0.5953 0.5952
2240.000000 0.5952 0.5951 0.5950 0.5949 0.5949
2245.000000 0.5948 0.5948 0.5947 0.5947 0.5946
2250.000000 0.5946 0.5941 0.5937 0.5932 0.5928
2255.000000 0.5922 0.5917 0.5909 0.5901 0.5893
2260.000000 0.5885 0.5877 0.5869 0.5860 0.5853
2265.000000 0.5845 0.5837 0.5828 0.5820 0.5810
2270.000000 0.5803 0.5794 0.5786 0.5777 0.5769
2275.000000 0.5760 0.5754 0.5746 0.5739 0.5731
2280.000000 0.5724 0.5716 0.5709 0.5701 0.5694
2285.000000 0.5686 0.5679 0.5672 0.5665 0.5657
2290.000000 0.5650 0.5642 0.5635 0.5627 0.5620
2295.000000 0.5612 0.5605 0.5597 0.5590 0.5582
2300.000000 0.5575 0.5567 0.5560 0.5553 0.5547
2305.000000 0.5540 0.5533 0.5526 0.5520 0.5512
2310.000000 0.5506 0.5499 0.5493 0.5486 0.5480
2315.000000 0.5473 0.5466 0.5459 0.5453 0.5446
2320.000000 0.5439 0.5432 0.5426 0.5419 0.5412
2325.000000 0.5406 0.5399 0.5391 0.5383 0.5375
2330.000000 0.5367 0.5359 0.5351 0.5343 0.5335
2335.000000 0.5327 0.5320 0.5312 0.5304 0.5296
2340.000000 0.5288 0.5280 0.5272 0.5264 0.5256
2345.000000 0.5248 0.5240 0.5234 0.5229 0.5224
2350.000000 0.5219 0.5214 0.5209 0.5203 0.5198
2355.000000 0.5193 0.5188 0.5183 0.5178 0.5173
2360.000000 0.5168 0.5162 0.5158 0.5153 0.5149
2365.000000 0.5144 0.5139 0.5134 0.5129 0.5123
2370.000000 0.5118 0.5112 0.5106 0.5099 0.5093
2375.000000 0.5087 0.5081 0.5074 0.5068 0.5058
2380.000000 0.5048 0.5037 0.5027 0.5016 0.5006
2385.000000 0.4996 0.4986 0.4974 0.4962 0.4951
2390.000000 0.4939 0.4926 0.4914 0.4902 0.4890
2395.000000 0.4877 0.4865 0.4852 0.4840 0.4829
2400.000000 0.4818 0.4809 0.4800 0.4790 0.4781
2405.000000 0.4772 0.4762 0.4753 0.4744 0.4735
2410.000000 0.4726 0.4717 0.4708 0.4698 0.4689
2415.000000 0.4680 0.4671 0.4662 0.4653 0.4640
2420.000000 0.4627 0.4614 0.4601 0.4588 0.4575
2425.000000 0.4562 0.4549 0.4536 0.4523 0.4510
2430.000000 0.4498 0.4485 0.4472 0.4459 0.4446
2435.000000 0.4433 0.4420 0.4406 0.4393 0.4376
2440.000000 0.4360 0.4343 0.4327 0.4310 0.4294
2445.000000 0.4277 0.4260 0.4244 0.4228 0.4210
2450.000000 0.4194 0.4178 0.4162 0.4145 0.4129
2455.000000 0.4112 0.4096 0.4080 0.4064 0.4047
2460.000000 0.4030 0.4014 0.3999 0.3982 0.3966
2465.000000 0.3949 0.3932 0.3916 0.3899 0.3882
2470.000000 0.3864 0.3848 0.3830 0.3814 0.3797
2475.000000 0.3780 0.3762 0.3748 0.3732 0.3718
2480.000000 0.3704 0.3689 0.3674 0.3659 0.3644
2485.000000 0.3629 0.3614 0.3600 0.3584 0.3564
2490.000000 0.3546 0.3523 0.3500 0.3476 0.3453
2495.000000 0.3430 0.3407 0.3382 0.3359 0.3336
2500.000000 0.3312 0.3291 0.3268 0.3247 0.3225
2505.000000 0.3203 0.3181 0.3159 0.3138 0.3116
2510.000000 0.3094 0.3071 0.3048 0.3019 0.2990
2515.000000 0.2960 0.2931 0.2901 0.2872 0.2843
2520.000000 0.2814 0.2787 0.2761 0.2734 0.2709
2525.000000 0.2682 0.2656 0.2628 0.2600 0.2571
2530.000000 0.2542 0.2516 0.2490 0.2451 0.2412
2535.000000 0.2369 0.2326 0.2292 0.2258 0.2224
2540.000000 0.2191 0.2178 0.2166 0.2158 0.2151
2545.000000 0.2149 0.2147 0.2147 0.2147 0.2147
2550.000000 0.2148 0.2156 0.2165 0.2180 0.2195
2555.000000 0.2215 0.2234 0.2261 0.2288 0.2317
2560.000000 0.2346 0.2372 0.2399 0.2424 0.2450
2565.000000 0.2477 0.2505 0.2532 0.2560 0.2587
2570.000000 0.2615 0.2650 0.2684 0.2721 0.2757
2575.000000 0.2780 0.2803 0.2825 0.2848 0.2866
2580.000000 0.2884 0.2894 0.2904 0.2913 0.2923
2585.000000 0.2932 0.2941 0.2947 0.2954 0.2960
2590.000000 0.2966 0.2972 0.2978 0.2984 0.2991
2595.000000 0.2995 0.3000 0.3003 0.3007 0.3010
2600.000000 0.3014 0.3018 0.3022 0.3025 0.3029
2605.000000 0.3032 0.3035 0.3039 0.3043 0.3045
2610.000000 0.3047 0.3048 0.3050 0.3052 0.3054
2615.000000 0.3056 0.3058 0.3060 0.3062 0.3064
2620.000000 0.3065 0.3065 0.3065 0.3065 0.3065
2625.000000 0.3064 0.3074 0.3059 0.3055 0.3048
2630.000000 0.3042 0.3032 0.3023 0.3013 0.3004
2635.000000 0.2995 0.2985 0.2977 0.2969 0.2961
2640.000000 0.2953 0.2944 0.2935 0.2928 0.2920
2645.000000 0.2912 0.2905 0.2897 0.2889 0.2881
2650.000000 0.2874 0.2866 0.2858 0.2850 0.2843
2655.000000 0.2834 0.2827 0.2819 0.2811 0.2802
2660.000000 0.2793 0.2784 0.2775 0.2766 0.2757
2665.000000 0.2748 0.2740 0.2731 0.2722 0.2713
2670.000000 0.2704 0.2695 0.2685 0.2677 0.2669
2675.000000 0.2660 0.2652 0.2643 0.2634 0.2625
2680.000000 0.2617 0.2608 0.2600 0.2591 0.2583
2685.000000 0.2573 0.2564 0.2552 0.2540 0.2528
2690.000000 0.2516 0.2504 0.2492 0.2480 0.2468
2695.000000 0.2456 0.2445 0.2428 0.2411 0.2394
2700.000000 0.2377 0.2360 0.2343 0.2326 0.2309
2705.000000 0.2296 0.2284 0.2273 0.2262 0.2251
2710.000000 0.2240 0.2230 0.2221 0.2214 0.2208
2715.000000 0.2201 0.2195 0.2189 0.2183 0.2176
2720.000000 0.2170 0.2163 0.2157 0.2151 0.2145
2725.000000 0.2138 0.2132 0.2126 0.2120 0.2114
2730.000000 0.2109 0.2104 0.2099 0.2093 0.2088
2735.000000 0.2083 0.2078 0.2072 0.2067 0.2061
2740.000000 0.2056 0.2050 0.2044 0.2039 0.2034
2745.000000 0.2028 0.2022 0.2016 0.2010 0.2004
2750.000000 0.1998 0.1992 0.1985 0.1979 0.1975
2755.000000 0.1969 0.1963 0.1957 0.1951 0.1944
2760.000000 0.1939 0.1933 0.1927 0.1916 0.1904
2765.000000 0.1894 0.1884 0.1873 0.1862 0.1851
2770.000000 0.1840 0.1829 0.1819 0.1808 0.1796
2775.000000 0.1785 0.1775 0.1766 0.1757 0.1748
2780.000000 0.1740 0.1731 0.1723 0.1714 0.1706
2785.000000 0.1696 0.1689 0.1679 0.1672 0.1663
2790.000000 0.1654 0.1645 0.1637 0.1629 0.1621
2795.000000 0.1612 0.1604 0.1592 0.1583 0.1572
2800.000000 0.1561 0.1550 0.1539 0.1528 0.1517
2805.000000 0.1506 0.1495 0.1484 0.1473 0.1463
2810.000000 0.1453 0.1444 0.1435 0.1426 0.1417
2815.000000 0.1408 0.1399 0.1391 0.1384 0.1380
2820.000000 0.1377 0.1374 0.1371 0.1367 0.1364
2825.000000 0.1361 0.1358 0.1354 0.1351 0.1348
2830.000000 0.1345 0.1342 0.1339 0.1335 0.1332
2835.000000 0.1329 0.1326 0.1322 0.1319 0.1317
2840.000000 0.1316 0.1315 0.1314 0.1313 0.1312
2845.000000 0.1311 0.1310 0.1309 0.1308 0.1307
2850.000000 0.1306 0.1305 0.1304 0.1304 0.1304
2855.000000 0.1305 0.1296 0.1308 0.1310 0.1311
2860.000000 0.1313 0.1315 0.1318 0.1321 0.1325
2865.000000 0.1328 0.1332 0.1335 0.1339 0.1342
2870.000000 0.1346 0.1349 0.1353 0.1356 0.1360
2875.000000 0.1363 0.1367 0.1370 0.1374 0.1377
2880.000000 0.1381 0.1384 0.1388 0.1392 0.1396
2885.000000 0.1399 0.1403 0.1407 0.1411 0.1416
2890.000000 0.1422 0.1428 0.1434 0.1439 0.1445
2895.000000 0.1450 0.1456 0.1461 0.1467 0.1473
2900.000000 0.1479 0.1484 0.1490 0.1496 0.1502
2905.000000 0.1508 0.1515 0.1521 0.1528 0.1537
2910.000000 0.1546 0.1557 0.1569 0.1581 0.1592
2915.000000 0.1604 0.1616 0.1628 0.1640 0.1651
2920.000000 0.1663 0.1674 0.1685 0.1696 0.1709
2925.000000 0.1720 0.1732 0.1743 0.1754 0.1766
2930.000000 0.1778 0.1789 0.1801 0.1813 0.1825
2935.000000 0.1836 0.1849 0.1861 0.1874 0.1885
2940.000000 0.1898 0.1910 0.1922 0.1934 0.1945
2945.000000 0.1958 0.1970 0.1982 0.1994 0.2008
2950.000000 0.2022 0.2034 0.2049 0.2063 0.2077
2955.000000 0.2090 0.2104 0.2118 0.2132 0.2145
2960.000000 0.2159 0.2170 0.2182 0.2192 0.2203
2965.000000 0.2214 0.2225 0.2234 0.2246 0.2258
2970.000000 0.2270 0.2281 0.2293 0.2305 0.2317
2975.000000 0.2328 0.2340 0.2354 0.2368 0.2383
2980.000000 0.2399 0.2414 0.2430 0.2444 0.2459
2985.000000 0.2466 0.2474 0.2482 0.2490 0.2498
2990.000000 0.2506 0.2513 0.2521 0.2529 0.2537
2995.000000 0.2545 0.2553 0.2560 0.2568 0.2576
3000.000000 0.2584 0.2591 0.2599 0.2604 0.2610
3005.000000 0.2615 0.2621 0.2627 0.2633 0.2638
3010.000000 0.2644 0.2649 0.2655 0.2674 0.2693
3015.000000 0.2725 0.2757 0.2784 0.2813 0.2835
3020.000000 0.2860 0.2884 0.2908 0.2942 0.2976
3025.000000 0.3006 0.3035 0.3063 0.3090 0.3116
3030.000000 0.3143 0.3172 0.3202 0.3232 0.3262
3035.000000 0.3293 0.3324 0.3356 0.3389 0.3422
3040.000000 0.3455 0.3486 0.3516 0.3536 0.3556
3045.000000 0.3559 0.3562 0.3566 0.3568 0.3566
3050.000000 0.3566 0.3564 0.3562 0.3554 0.3547
3055.000000 0.3540 0.3532 0.3525 0.3516 0.3500
3060.000000 0.3484 0.3462 0.3443 0.3441 0.3440
3065.000000 0.3441 0.3441 0.3471 0.3500 0.3587
3070.000000 0.3673 0.3921 0.4170 0.4272 0.4374
3075.000000 0.4421 0.4468 0.4507 0.4546 0.4584
3080.000000 0.4623 0.4687 0.4752 0.4833 0.4915
3085.000000 0.4966 0.5017 0.5046 0.5076 0.5105
3090.000000 0.5134 0.5160 0.5187 0.5212 0.5239
3095.000000 0.5256 0.5274 0.5284 0.5295 0.5300
3100.000000 0.5305 0.5306 0.5308 0.5309 0.5310
3105.000000 0.5312 0.5314 0.5317 0.5321 0.5324
3110.000000 0.5328 0.5331 0.5334 0.5342 0.5350
3115.000000 0.5358 0.5367 0.5375 0.5384 0.5394
3120.000000 0.5404 0.5420 0.5437 0.5456 0.5475
3125.000000 0.5493 0.5510 0.5522 0.5534 0.5545
3130.000000 0.5557 0.5568 0.5580 0.5591 0.5603
3135.000000 0.5614 0.5625 0.5636 0.5648 0.5660
3140.000000 0.5673 0.5691 0.5710 0.5728 0.5747
3145.000000 0.5760 0.5775 0.5783 0.5792 0.5800
3150.000000 0.5809 0.5817 0.5826 0.5834 0.5843
3155.000000 0.5851 0.5860 0.5868 0.5877 0.5889
3160.000000 0.5902 0.5915 0.5928 0.5940 0.5953
3165.000000 0.5960 0.5968 0.5974 0.5980 0.5986
3170.000000 0.5992 0.5998 0.6005 0.6010 0.6018
3175.000000 0.6025 0.6033 0.6040 0.6047 0.6054
3180.000000 0.6062 0.6068 0.6074 0.6079 0.6084
3185.000000 0.6089 0.6094 0.6099 0.6104 0.6109
3190.000000 0.6114 0.6119 0.6125 0.6130 0.6135
3195.000000 0.6142 0.6149 0.6155 0.6162 0.6168
3200.000000 0.6175 0.6181 0.6188 0.6195 0.6202
3205.000000 0.6208 0.6215 0.6221 0.6228 0.6233
3210.000000 0.6239 0.6244 0.6249 0.6254 0.6260
3215.000000 0.6265 0.6270 0.6274 0.6278 0.6281
3220.000000 0.6284 0.6286 0.6289 0.6292 0.6295
3225.000000 0.6298 0.6301 0.6303 0.6306 0.6309
3230.000000 0.6312 0.6315 0.6318 0.6321 0.6324
3235.000000 0.6327 0.6330 0.6333 0.6336 0.6339
3240.000000 0.6342 0.6343 0.6344 0.6344 0.6344
3245.000000 0.6344 0.6344 0.6344 0.6344 0.6344
3250.000000 0.6344 0.6344 0.6344 0.6343 0.6342
3255.000000 0.6340 0.6339 0.6337 0.6335 0.6333
3260.000000 0.6331 0.6329 0.6328 0.6324 0.6321
3265.000000 0.6317 0.6314 0.6310 0.6307 0.6302
3270.000000 0.6298 0.6293 0.6288 0.6283 0.6278
3275.000000 0.6272 0.6267 0.6262 0.6257 0.6251
3280.000000 0.6246 0.6241 0.6236 0.6230 0.6224
3285.000000 0.6218 0.6212 0.6206 0.6200 0.6194
3290.000000 0.6188 0.6182 0.6176 0.6170 0.6164
3295.000000 0.6157 0.6151 0.6144 0.6138 0.6131
3300.000000 0.6125 0.6118 0.6112 0.6105 0.6099
3305.000000 0.6092 0.6086 0.6079 0.6073 0.6066
3310.000000 0.6059 0.6052 0.6046 0.6039 0.6033
3315.000000 0.6026 0.6020 0.6012 0.6007 0.6000
3320.000000 0.5994 0.5987 0.5981 0.5974 0.5968
3325.000000 0.5960 0.5954 0.5947 0.5941 0.5934
3330.000000 0.5928 0.5921 0.5915 0.5908 0.5902
3335.000000 0.5896 0.5890 0.5885 0.5880 0.5874
3340.000000 0.5869 0.5864 0.5859 0.5853 0.5848
3345.000000 0.5842 0.5837 0.5832 0.5827 0.5821
3350.000000 0.5816 0.5810 0.5806 0.5800 0.5795
3355.000000 0.5790 0.5785 0.5780 0.5775 0.5771
3360.000000 0.5767 0.5762 0.5758 0.5753 0.5749
3365.000000 0.5744 0.5740 0.5736 0.5732 0.5727
3370.000000 0.5723 0.5718 0.5714 0.5709 0.5705
3375.000000 0.5700 0.5696 0.5692 0.5688 0.5683
3380.000000 0.5679 0.5674 0.5670 0.5666 0.5662
3385.000000 0.5658 0.5654 0.5650 0.5647 0.5643
3390.000000 0.5639 0.5635 0.5631 0.5627 0.5624
3395.000000 0.5620 0.5616 0.5612 0.5608 0.5604
3400.000000 0.5601 0.5597 0.5593 0.5589 0.5585
3405.000000 0.5581 0.5578 0.5574 0.5570 0.5566
3410.000000 0.5562 0.5558 0.5555 0.5551 0.5547
3415.000000 0.5543 0.5539 0.5535 0.5532 0.5529
3420.000000 0.5526 0.5523 0.5520 0.5516 0.5512
3425.000000 0.5510 0.5507 0.5504 0.5501 0.5498
3430.000000 0.5495 0.5491 0.5488 0.5485 0.5482
3435.000000 0.5479 0.5476 0.5473 0.5470 0.5466
3440.000000 0.5462 0.5460 0.5457 0.5454 0.5451
3445.000000 0.5448 0.5445 0.5441 0.5438 0.5435
3450.000000 0.5432 0.5429 0.5426 0.5423 0.5421
3455.000000 0.5419 0.5417 0.5414 0.5412 0.5409
3460.000000 0.5407 0.5405 0.5403 0.5400 0.5398
3465.000000 0.5395 0.5393 0.5390 0.5388 0.5386
3470.000000 0.5384 0.5381 0.5379 0.5376 0.5374
3475.000000 0.5372 0.5370 0.5367 0.5365 0.5362
3480.000000 0.5360 0.5357 0.5355 0.5353 0.5351
3485.000000 0.5348 0.5346 0.5343 0.5341 0.5339
3490.000000 0.5337 0.5334 0.5332 0.5329 0.5326
3495.000000 0.5322 0.5319 0.5315 0.5312 0.5308
3500.000000 0.5305 0.5301 0.5298 0.5294 0.5291
3505.000000 0.5287 0.5284 0.5281 0.5278 0.5274
3510.000000 0.5271 0.5267 0.5264 0.5260 0.5257
3515.000000 0.5253 0.5250 0.5246 0.5243 0.5239
3520.000000 0.5236 0.5233 0.5230 0.5226 0.5223
3525.000000 0.5219 0.5216 0.5212 0.5209 0.5205
3530.000000 0.5202 0.5198 0.5195 0.5191 0.5188
3535.000000 0.5185 0.5182 0.5178 0.5175 0.5171
3540.000000 0.5168 0.5164 0.5160 0.5157 0.5154
3545.000000 0.5150 0.5147 0.5144 0.5141 0.5137
3550.000000 0.5134 0.5131 0.5128 0.5124 0.5121
3555.000000 0.5117 0.5114 0.5110 0.5108 0.5104
3560.000000 0.5101 0.5098 0.5095 0.5091 0.5088
3565.000000 0.5084 0.5081 0.5078 0.5075 0.5071
3570.000000 0.5068 0.5065 0.5062 0.5058 0.5055
3575.000000 0.5051 0.5048 0.5045 0.5042 0.5038
3580.000000 0.5035 0.5032 0.5029 0.5025 0.5022
3585.000000 0.5018 0.5015 0.5012 0.5009 0.5006
3590.000000 0.5003 0.5000 0.4997 0.4994 0.4992
3595.000000 0.4989 0.4987 0.4984 0.4982 0.4979
3600.000000 0.4977 0.4974 0.4971 0.4968 0.4966
3605.000000 0.4962 0.4960 0.4958 0.4956 0.4953
3610.000000 0.4951 0.4948 0.4945 0.4942 0.4940
3615.000000 0.4937 0.4935 0.4932 0.4930 0.4927
3620.000000 0.4925 0.4922 0.4919 0.4916 0.4914
3625.000000 0.4910 0.4909 0.4906 0.4904 0.4901
3630.000000 0.4899 0.4896 0.4894 0.4891 0.4888
3635.000000 0.4885 0.4883 0.4880 0.4878 0.4875
3640.000000 0.4873 0.4870 0.4868 0.4865 0.4862
3645.000000 0.4859 0.4857 0.4854 0.4852 0.4849
3650.000000 0.4847 0.4844 0.4842 0.4839 0.4837
3655.000000 0.4834 0.4831 0.4828 0.4826 0.4823
3660.000000 0.4821 0.4818 0.4816 0.4812 0.4810
3665.000000 0.4808 0.4806 0.4803 0.4800 0.4797
3670.000000 0.4795 0.4792 0.4790 0.4787 0.4785
3675.000000 0.4782 0.4780 0.4777 0.4775 0.4772
3680.000000 0.4769 0.4766 0.4764 0.4760 0.4759
3685.000000 0.4756 0.4754 0.4751 0.4749 0.4747
3690.000000 0.4745 0.4742 0.4740 0.4737 0.4735
3695.000000 0.4733 0.4731 0.4728 0.4726 0.4724
3700.000000 0.4722 0.4719 0.4717 0.4715 0.4712
3705.000000 0.4710 0.4708 0.4705 0.4703 0.4701
3710.000000 0.4699 0.4696 0.4694 0.4692 0.4690
3715.000000 0.4687 0.4685 0.4683 0.4681 0.4678
3720.000000 0.4676 0.4674 0.4672 0.4669 0.4667
3725.000000 0.4664 0.4660 0.4657 0.4654 0.4650
3730.000000 0.4647 0.4643 0.4640 0.4637 0.4634
3735.000000 0.4630 0.4627 0.4623 0.4620 0.4616
3740.000000 0.4612 0.4609 0.4606 0.4602 0.4599
3745.000000 0.4595 0.4592 0.4589 0.4586 0.4582
3750.000000 0.4579 0.4575 0.4572 0.4569 0.4566
3755.000000 0.4562 0.4560 0.4558 0.4555 0.4552
3760.000000 0.4549 0.4546 0.4544 0.4541 0.4538
3765.000000 0.4535 0.4533 0.4530 0.4527 0.4524
3770.000000 0.4522 0.4519 0.4516 0.4512 0.4510
3775.000000 0.4507 0.4505 0.4502 0.4499 0.4496
3780.000000 0.4494 0.4491 0.4488 0.4485 0.4483
3785.000000 0.4480 0.4477 0.4474 0.4472 0.4469
3790.000000 0.4466 0.4462 0.4460 0.4458 0.4455
3795.000000 0.4452 0.4450 0.4447 0.4444 0.4441
3800.000000 0.4438 0.4435 0.4433 0.4430 0.4427
3805.000000 0.4424 0.4422 0.4419 0.4416 0.4412
3810.000000 0.4410 0.4408 0.4406
##END=
