##TITLE=Cyclohexanamine, N-methyl-, hydrochloride
##JCAMP-DX=4.24
##DATA TYPE=INFRARED SPECTRUM
##CLASS=COBLENTZ III
##ORIGIN=BRITISH PETROLEUM CO. LTD., ENGLAND
##OWNER=Copyright (C) 1987 by the Coblentz Society
Collection (C) 2018 copyright by the U.S. Secretary of Commerce
on behalf of the United States of America. All rights reserved.
##DATE=1972/07/26
##NAMES=N-cyclohexyl-N-methylamine hydrochloride
Cyclohexylamine, N-methyl-, hydrochloride
##MOLFORM=C7 H16 Cl N
##SOURCE REFERENCE=COBLENTZ NO. 9348
##$NIST ID=B6009348
##$NIST SOURCE=COBLENTZ
##$NIST IMAGE=cob9348
##SPECTROMETER/DATA SYSTEM=PERKIN-ELMER 157
##STATE=SOLID (KBr DISC, 1% WT.)
$$ HCl RUN IN KBr MAY CONTAIN SOME HBr
$$ REF. Can. J. Spec., 18,4,101, '73 C. S. DOUSE and P. B. TOOKE
##SAMPLING PROCEDURE=TRANSMISSION
##RESOLUTION=2
##DATA PROCESSING=DIGITIZED BY COBLENTZ SOCIETY (BATCH II) FROM HARD COPY
##XUNITS=1/CM
##YUNITS=TRANSMITTANCE
##XFACTOR=1.0
##YFACTOR=1
##FIRSTX=668
##LASTX=4000
##FIRSTY=0.9909
##MAXX=4000
##MINX=668
##MAXY=0.8635
##MINY=0.0075
##NPOINTS=3333
##XYDATA=(X++(Y..Y))
668.000000 0.9909 0.9907 0.9899 0.9888 0.9872
673.000000 0.9852 0.9828 0.9790 0.9742 0.9706
678.000000 0.9681 0.9663 0.9650 0.9639 0.9620
683.000000 0.9600 0.9575 0.9551 0.9532 0.9514
688.000000 0.9496 0.9480 0.9463 0.9448 0.9434
693.000000 0.9418 0.9403 0.9384 0.9363 0.9334
698.000000 0.9309 0.9295 0.9283 0.9278 0.9277
703.000000 0.9276 0.9269 0.9255 0.9242 0.9218
708.000000 0.9192 0.9164 0.9136 0.9109 0.9081
713.000000 0.9051 0.9029 0.9011 0.8994 0.8978
718.000000 0.8962 0.8942 0.8915 0.8890 0.8876
723.000000 0.8862 0.8852 0.8841 0.8831 0.8818
728.000000 0.8797 0.8728 0.8674 0.8659 0.8651
733.000000 0.8648 0.8646 0.8644 0.8642 0.8641
738.000000 0.8639 0.8625 0.8635 0.8633 0.8632
743.000000 0.8630 0.8628 0.8624 0.8621 0.8617
748.000000 0.8613 0.8609 0.8605 0.8598 0.8591
753.000000 0.8585 0.8574 0.8555 0.8536 0.8521
758.000000 0.8507 0.8493 0.8482 0.8471 0.8460
763.000000 0.8452 0.8445 0.8437 0.8430 0.8424
768.000000 0.8419 0.8407 0.8394 0.8375 0.8341
773.000000 0.8316 0.8295 0.8285 0.8255 0.8196
778.000000 0.8144 0.8120 0.8048 0.7968 0.7865
783.000000 0.7725 0.7593 0.7497 0.7438 0.7444
788.000000 0.7444 0.7452 0.7412 0.7331 0.7307
793.000000 0.7322 0.7428 0.7624 0.7809 0.7859
798.000000 0.7872 0.7880 0.7887 0.7888 0.7888
803.000000 0.7888 0.7886 0.7884 0.7882 0.7880
808.000000 0.7877 0.7874 0.7870 0.7868 0.7860
813.000000 0.7852 0.7843 0.7834 0.7826 0.7818
818.000000 0.7811 0.7804 0.7796 0.7788 0.7781
823.000000 0.7774 0.7767 0.7758 0.7735 0.7706
828.000000 0.7669 0.7657 0.7648 0.7640 0.7631
833.000000 0.7621 0.7608 0.7580 0.7524 0.7442
838.000000 0.7327 0.7124 0.6970 0.6583 0.6120
843.000000 0.5659 0.5321 0.5241 0.5417 0.5226
848.000000 0.6604 0.7000 0.7025 0.7047 0.6972
853.000000 0.6910 0.6831 0.6747 0.6662 0.6601
858.000000 0.6541 0.6524 0.6502 0.6603 0.6783
863.000000 0.6936 0.7064 0.7198 0.7293 0.7347
868.000000 0.7386 0.7403 0.7411 0.7413 0.7410
873.000000 0.7409 0.7407 0.7412 0.7400 0.7396
878.000000 0.7391 0.7385 0.7374 0.7299 0.7250
883.000000 0.7199 0.7161 0.7148 0.7094 0.6970
888.000000 0.6935 0.6853 0.6667 0.6413 0.6050
893.000000 0.5522 0.4995 0.4583 0.4443 0.4420
898.000000 0.4410 0.4860 0.5355 0.5849 0.6169
903.000000 0.6193 0.6197 0.6147 0.6067 0.5965
908.000000 0.5729 0.5349 0.4997 0.4645 0.4294
913.000000 0.3944 0.3594 0.3246 0.2898 0.2489
918.000000 0.2377 0.2356 0.2405 0.2508 0.2859
923.000000 0.3309 0.3758 0.4207 0.4654 0.5035
928.000000 0.5042 0.5038 0.4928 0.4726 0.4521
933.000000 0.4434 0.4418 0.5207 0.6050 0.6683
938.000000 0.6817 0.6922 0.7024 0.7110 0.7207
943.000000 0.7309 0.7372 0.7398 0.7420 0.7430
948.000000 0.7439 0.7444 0.7448 0.7453 0.7455
953.000000 0.7458 0.7461 0.7459 0.7447 0.7452
958.000000 0.7446 0.7438 0.7431 0.7423 0.7416
963.000000 0.7407 0.7392 0.7378 0.7363 0.7346
968.000000 0.7318 0.7289 0.7248 0.7213 0.7208
973.000000 0.7200 0.7190 0.7127 0.7117 0.7115
978.000000 0.7114 0.7113 0.7114 0.7115 0.7117
983.000000 0.7118 0.7120 0.7120 0.7121 0.7122
988.000000 0.7114 0.7101 0.7081 0.7058 0.7035
993.000000 0.6999 0.6955 0.6903 0.6850 0.6790
998.000000 0.6723 0.6623 0.6443 0.6239 0.6076
1003.000000 0.5922 0.5782 0.5372 0.4959 0.4547
1008.000000 0.4146 0.4073 0.4082 0.4160 0.4525
1013.000000 0.4888 0.5252 0.5385 0.5386 0.5375
1018.000000 0.5169 0.4993 0.4817 0.4642 0.4467
1023.000000 0.4292 0.4083 0.3897 0.3208 0.2795
1028.000000 0.2367 0.1939 0.1523 0.1484 0.1493
1033.000000 0.2034 0.2573 0.3053 0.3110 0.3104
1038.000000 0.2587 0.2290 0.1993 0.1697 0.1401
1043.000000 0.1107 0.0842 0.0804 0.0799 0.1010
1048.000000 0.1467 0.1924 0.2376 0.2535 0.2552
1053.000000 0.2570 0.2640 0.3017 0.3606 0.4147
1058.000000 0.4480 0.4915 0.5273 0.5579 0.5775
1063.000000 0.5912 0.6034 0.6155 0.6268 0.6370
1068.000000 0.6464 0.6536 0.6565 0.6573 0.6573
1073.000000 0.6577 0.6541 0.6513 0.6455 0.6300
1078.000000 0.5895 0.5482 0.5068 0.4656 0.4464
1083.000000 0.4392 0.4333 0.4322 0.4326 0.4298
1088.000000 0.4773 0.5093 0.5412 0.5731 0.6035
1093.000000 0.6121 0.6159 0.6182 0.6189 0.6189
1098.000000 0.6196 0.6168 0.6137 0.6079 0.6016
1103.000000 0.5955 0.5896 0.5844 0.5779 0.5669
1108.000000 0.4566 0.4112 0.3657 0.3295 0.3257
1113.000000 0.3264 0.3256 0.4084 0.4535 0.4986
1118.000000 0.5435 0.5883 0.6253 0.6376 0.6481
1123.000000 0.6608 0.6729 0.6789 0.6808 0.6821
1128.000000 0.6825 0.6825 0.6821 0.6812 0.6817
1133.000000 0.6768 0.6682 0.6575 0.6486 0.6405
1138.000000 0.6196 0.5849 0.5502 0.5156 0.4811
1143.000000 0.4466 0.4122 0.3778 0.3703 0.3713
1148.000000 0.4340 0.4829 0.5318 0.5805 0.6292
1153.000000 0.6777 0.7003 0.7120 0.7183 0.7236
1158.000000 0.7265 0.7276 0.7280 0.7283 0.7285
1163.000000 0.7286 0.7286 0.7283 0.7294 0.7279
1168.000000 0.7273 0.7262 0.7241 0.7209 0.7178
1173.000000 0.7144 0.7100 0.7033 0.6881 0.6772
1178.000000 0.6672 0.6587 0.6519 0.6504 0.6503
1183.000000 0.6555 0.6678 0.6802 0.6927 0.7051
1188.000000 0.7162 0.7190 0.7195 0.7198 0.7197
1193.000000 0.7200 0.7184 0.7171 0.7160 0.7148
1198.000000 0.7138 0.7131 0.7124 0.7117 0.7111
1203.000000 0.7106 0.7102 0.7099 0.7095 0.7094
1208.000000 0.7093 0.7089 0.7061 0.7028 0.6981
1213.000000 0.6920 0.6821 0.6777 0.6769 0.6769
1218.000000 0.6820 0.6923 0.7027 0.7130 0.7233
1223.000000 0.7289 0.7297 0.7299 0.7301 0.7300
1228.000000 0.7293 0.7295 0.7267 0.7218 0.7164
1233.000000 0.7132 0.7120 0.7110 0.7100 0.7092
1238.000000 0.7083 0.7073 0.7062 0.7045 0.7028
1243.000000 0.7010 0.6985 0.6955 0.6923 0.6886
1248.000000 0.6845 0.6781 0.6685 0.6477 0.6269
1253.000000 0.6098 0.6077 0.6088 0.6063 0.6234
1258.000000 0.6307 0.6324 0.6318 0.6325 0.6300
1263.000000 0.6272 0.6251 0.6240 0.6233 0.6226
1268.000000 0.6204 0.6119 0.6021 0.5924 0.5827
1273.000000 0.5780 0.5781 0.5774 0.6445 0.6548
1278.000000 0.6577 0.6602 0.6616 0.6623 0.6631
1283.000000 0.6619 0.6612 0.6602 0.6590 0.6566
1288.000000 0.6542 0.6521 0.6496 0.6470 0.6442
1293.000000 0.6414 0.6386 0.6351 0.6312 0.6273
1298.000000 0.6234 0.6192 0.6150 0.6103 0.6036
1303.000000 0.5969 0.5908 0.5850 0.5803 0.5760
1308.000000 0.5724 0.5672 0.5558 0.5418 0.5200
1313.000000 0.4801 0.4436 0.4321 0.4311 0.4316
1318.000000 0.4325 0.4547 0.4693 0.4824 0.4878
1323.000000 0.4905 0.4925 0.4943 0.4964 0.4985
1328.000000 0.5014 0.5163 0.5239 0.5270 0.5288
1333.000000 0.5302 0.5312 0.5323 0.5329 0.5326
1338.000000 0.5326 0.5310 0.5280 0.4960 0.4763
1343.000000 0.4571 0.4193 0.3805 0.3512 0.3463
1348.000000 0.3569 0.3747 0.3924 0.4101 0.4258
1353.000000 0.4270 0.4261 0.4270 0.4084 0.3984
1358.000000 0.3884 0.3785 0.3699 0.3680 0.3675
1363.000000 0.3671 0.3667 0.3664 0.3515 0.3245
1368.000000 0.2970 0.2696 0.2428 0.2283 0.2271
1373.000000 0.2268 0.2267 0.2345 0.2560 0.2791
1378.000000 0.3021 0.3252 0.3482 0.3710 0.3939
1383.000000 0.4134 0.4188 0.4211 0.4215 0.4218
1388.000000 0.4217 0.4215 0.4207 0.4193 0.4172
1393.000000 0.4143 0.4115 0.4085 0.4052 0.4003
1398.000000 0.3935 0.3889 0.3849 0.3806 0.3758
1403.000000 0.3709 0.3668 0.3635 0.3601 0.3568
1408.000000 0.3521 0.3456 0.3382 0.3289 0.3202
1413.000000 0.3120 0.3063 0.3010 0.2959 0.2837
1418.000000 0.2389 0.2191 0.2021 0.1853 0.1684
1423.000000 0.1516 0.1349 0.1181 0.1014 0.0902
1428.000000 0.0888 0.0891 0.0962 0.1107 0.1257
1433.000000 0.1407 0.1509 0.1527 0.1522 0.1530
1438.000000 0.1398 0.1276 0.1153 0.1031 0.0865
1443.000000 0.0635 0.0540 0.0448 0.0379 0.0364
1448.000000 0.0357 0.0365 0.0352 0.0417 0.0444
1453.000000 0.0473 0.0505 0.0539 0.0574 0.0609
1458.000000 0.0630 0.0644 0.0648 0.0648 0.0646
1463.000000 0.0644 0.0634 0.0623 0.0611 0.0602
1468.000000 0.0596 0.0596 0.0599 0.0608 0.0624
1473.000000 0.0645 0.0704 0.0775 0.1049 0.1295
1478.000000 0.1540 0.1786 0.2030 0.2274 0.2518
1483.000000 0.2762 0.3005 0.3248 0.3450 0.3629
1488.000000 0.3903 0.4010 0.4097 0.4191 0.4304
1493.000000 0.4394 0.4448 0.4497 0.4554 0.4636
1498.000000 0.4738 0.4965 0.5006 0.5045 0.5086
1503.000000 0.5118 0.5142 0.5166 0.5189 0.5212
1508.000000 0.5229 0.5242 0.5255 0.5269 0.5279
1513.000000 0.5286 0.5291 0.5297 0.5302 0.5308
1518.000000 0.5310 0.5312 0.5314 0.5315 0.5317
1523.000000 0.5320 0.5321 0.5320 0.5318 0.5317
1528.000000 0.5316 0.5315 0.5314 0.5317 0.5326
1533.000000 0.5333 0.5333 0.5347 0.5350 0.5349
1538.000000 0.5348 0.5344 0.5337 0.5329 0.5321
1543.000000 0.5312 0.5301 0.5291 0.5280 0.5261
1548.000000 0.5240 0.5204 0.5157 0.5116 0.5087
1553.000000 0.5060 0.5034 0.5008 0.4977 0.4929
1558.000000 0.4864 0.4798 0.4729 0.4667 0.4614
1563.000000 0.4565 0.4516 0.4465 0.4412 0.4360
1568.000000 0.4301 0.4232 0.4159 0.3948 0.3490
1573.000000 0.3215 0.3072 0.2854 0.2592 0.2324
1578.000000 0.2057 0.1789 0.1523 0.1256 0.0990
1583.000000 0.0838 0.0805 0.0804 0.0805 0.0808
1588.000000 0.0990 0.1169 0.1346 0.1523 0.1700
1593.000000 0.1877 0.2053 0.2230 0.2406 0.2582
1598.000000 0.2758 0.2933 0.3109 0.3284 0.3458
1603.000000 0.3633 0.3807 0.3981 0.4155 0.4329
1608.000000 0.4502 0.4701 0.4928 0.4974 0.5019
1613.000000 0.5059 0.5069 0.5080 0.5089 0.5092
1618.000000 0.5094 0.5097 0.5099 0.5101 0.5104
1623.000000 0.5106 0.5108 0.5110 0.5111 0.5116
1628.000000 0.5125 0.5135 0.5144 0.5155 0.5170
1633.000000 0.5188 0.5205 0.5223 0.5241 0.5252
1638.000000 0.5259 0.5264 0.5269 0.5280 0.5299
1643.000000 0.5333 0.5405 0.5510 0.5575 0.5636
1648.000000 0.5686 0.5735 0.5781 0.5816 0.5850
1653.000000 0.5883 0.5920 0.5980 0.6057 0.6123
1658.000000 0.6176 0.6203 0.6223 0.6243 0.6261
1663.000000 0.6270 0.6276 0.6282 0.6288 0.6295
1668.000000 0.6301 0.6307 0.6309 0.6310 0.6311
1673.000000 0.6312 0.6312 0.6312 0.6307 0.6300
1678.000000 0.6293 0.6286 0.6275 0.6258 0.6239
1683.000000 0.6216 0.6193 0.6172 0.6155 0.6138
1688.000000 0.6122 0.6107 0.6092 0.6072 0.6047
1693.000000 0.6018 0.5987 0.5954 0.5920 0.5885
1698.000000 0.5850 0.5813 0.5774 0.5740 0.5718
1703.000000 0.5699 0.5692 0.5685 0.5690 0.5695
1708.000000 0.5714 0.5734 0.5755 0.5775 0.5795
1713.000000 0.5815 0.5832 0.5847 0.5860 0.5873
1718.000000 0.5887 0.5908 0.5931 0.5953 0.5977
1723.000000 0.6001 0.6032 0.6065 0.6107 0.6154
1728.000000 0.6207 0.6270 0.6313 0.6338 0.6347
1733.000000 0.6349 0.6351 0.6353 0.6353 0.6366
1738.000000 0.6349 0.6346 0.6337 0.6314 0.6289
1743.000000 0.6251 0.6211 0.6175 0.6146 0.6119
1748.000000 0.6096 0.6073 0.6052 0.6033 0.6014
1753.000000 0.5995 0.5978 0.5964 0.5950 0.5937
1758.000000 0.5924 0.5911 0.5898 0.5886 0.5874
1763.000000 0.5862 0.5850 0.5840 0.5831 0.5824
1768.000000 0.5817 0.5816 0.5816 0.5817 0.5819
1773.000000 0.5821 0.5810 0.5832 0.5844 0.5859
1778.000000 0.5876 0.5894 0.5915 0.5939 0.5969
1783.000000 0.6000 0.6037 0.6085 0.6147 0.6227
1788.000000 0.6285 0.6319 0.6345 0.6370 0.6394
1793.000000 0.6414 0.6433 0.6449 0.6459 0.6467
1798.000000 0.6476 0.6483 0.6488 0.6492 0.6496
1803.000000 0.6498 0.6499 0.6499 0.6499 0.6500
1808.000000 0.6498 0.6509 0.6491 0.6488 0.6485
1813.000000 0.6480 0.6473 0.6463 0.6450 0.6434
1818.000000 0.6402 0.6342 0.6282 0.6232 0.6192
1823.000000 0.6155 0.6096 0.6027 0.6005 0.5983
1828.000000 0.5963 0.5944 0.5926 0.5908 0.5888
1833.000000 0.5869 0.5858 0.5854 0.5854 0.5855
1838.000000 0.5855 0.5857 0.5859 0.5862 0.5865
1843.000000 0.5839 0.5870 0.5873 0.5878 0.5883
1848.000000 0.5889 0.5898 0.5911 0.5934 0.5968
1853.000000 0.5999 0.6034 0.6071 0.6109 0.6140
1858.000000 0.6170 0.6197 0.6216 0.6233 0.6245
1863.000000 0.6253 0.6262 0.6272 0.6282 0.6294
1868.000000 0.6305 0.6321 0.6354 0.6448 0.6476
1873.000000 0.6480 0.6484 0.6488 0.6492 0.6496
1878.000000 0.6496 0.6497 0.6498 0.6498 0.6498
1883.000000 0.6499 0.6499 0.6499 0.6499 0.6499
1888.000000 0.6499 0.6505 0.6498 0.6498 0.6496
1893.000000 0.6493 0.6490 0.6488 0.6484 0.6481
1898.000000 0.6478 0.6475 0.6470 0.6460 0.6445
1903.000000 0.6427 0.6405 0.6384 0.6365 0.6348
1908.000000 0.6331 0.6315 0.6296 0.6266 0.6220
1913.000000 0.6168 0.6115 0.6062 0.6009 0.5957
1918.000000 0.5904 0.5852 0.5799 0.5788 0.5785
1923.000000 0.5785 0.5787 0.5778 0.5802 0.5816
1928.000000 0.5833 0.5852 0.5870 0.5888 0.5904
1933.000000 0.5923 0.5944 0.5967 0.5981 0.5994
1938.000000 0.6006 0.6024 0.6042 0.6060 0.6071
1943.000000 0.6082 0.6093 0.6105 0.6117 0.6132
1948.000000 0.6153 0.6178 0.6206 0.6239 0.6278
1953.000000 0.6326 0.6377 0.6419 0.6443 0.6458
1958.000000 0.6468 0.6473 0.6478 0.6483 0.6488
1963.000000 0.6490 0.6492 0.6493 0.6494 0.6496
1968.000000 0.6497 0.6498 0.6498 0.6499 0.6500
1973.000000 0.6500 0.6500 0.6501 0.6501 0.6501
1978.000000 0.6500 0.6499 0.6497 0.6513 0.6493
1983.000000 0.6489 0.6484 0.6477 0.6470 0.6463
1988.000000 0.6455 0.6446 0.6438 0.6430 0.6422
1993.000000 0.6414 0.6406 0.6396 0.6386 0.6376
1998.000000 0.6366 0.6357 0.6347 0.6330 0.6311
2003.000000 0.6291 0.6270 0.6251 0.6237 0.6224
2008.000000 0.6211 0.6201 0.6192 0.6186 0.6180
2013.000000 0.6174 0.6168 0.6161 0.6153 0.6141
2018.000000 0.6124 0.6096 0.6063 0.6026 0.5998
2023.000000 0.5972 0.5947 0.5924 0.5901 0.5878
2028.000000 0.5850 0.5814 0.5772 0.5731 0.5701
2033.000000 0.5684 0.5683 0.5682 0.5682 0.5682
2038.000000 0.5682 0.5684 0.5693 0.5668 0.5720
2043.000000 0.5736 0.5753 0.5769 0.5785 0.5802
2048.000000 0.5819 0.5835 0.5851 0.5868 0.5884
2053.000000 0.5900 0.5917 0.5933 0.5949 0.5965
2058.000000 0.5982 0.5998 0.6014 0.6030 0.6046
2063.000000 0.6062 0.6079 0.6095 0.6111 0.6126
2068.000000 0.6142 0.6157 0.6171 0.6186 0.6200
2073.000000 0.6213 0.6241 0.6265 0.6281 0.6291
2078.000000 0.6296 0.6300 0.6304 0.6305 0.6305
2083.000000 0.6303 0.6305 0.6300 0.6297 0.6295
2088.000000 0.6293 0.6291 0.6288 0.6284 0.6280
2093.000000 0.6275 0.6269 0.6264 0.6259 0.6253
2098.000000 0.6248 0.6242 0.6236 0.6230 0.6223
2103.000000 0.6217 0.6210 0.6203 0.6196 0.6189
2108.000000 0.6182 0.6175 0.6169 0.6162 0.6152
2113.000000 0.6141 0.6095 0.6036 0.6023 0.6012
2118.000000 0.6004 0.5998 0.5998 0.5997 0.5997
2123.000000 0.5997 0.5997 0.5999 0.6001 0.6002
2128.000000 0.6004 0.6008 0.6012 0.6016 0.6021
2133.000000 0.6027 0.6033 0.6040 0.6046 0.6052
2138.000000 0.6058 0.6062 0.6063 0.6063 0.6063
2143.000000 0.6060 0.6056 0.6052 0.6048 0.6045
2148.000000 0.6042 0.6038 0.6032 0.6024 0.6016
2153.000000 0.6009 0.6002 0.5997 0.5991 0.5985
2158.000000 0.5978 0.5972 0.5964 0.5956 0.5948
2163.000000 0.5939 0.5929 0.5918 0.5906 0.5896
2168.000000 0.5888 0.5882 0.5876 0.5871 0.5867
2173.000000 0.5863 0.5859 0.5854 0.5848 0.5842
2178.000000 0.5836 0.5829 0.5823 0.5817 0.5812
2183.000000 0.5809 0.5806 0.5802 0.5799 0.5796
2188.000000 0.5793 0.5790 0.5786 0.5783 0.5781
2193.000000 0.5778 0.5777 0.5775 0.5773 0.5771
2198.000000 0.5770 0.5768 0.5766 0.5763 0.5759
2203.000000 0.5755 0.5752 0.5748 0.5744 0.5738
2208.000000 0.5731 0.5723 0.5715 0.5706 0.5697
2213.000000 0.5688 0.5680 0.5671 0.5661 0.5652
2218.000000 0.5643 0.5634 0.5625 0.5615 0.5606
2223.000000 0.5597 0.5588 0.5582 0.5576 0.5570
2228.000000 0.5565 0.5564 0.5563 0.5562 0.5561
2233.000000 0.5560 0.5559 0.5558 0.5557 0.5555
2238.000000 0.5554 0.5554 0.5554 0.5554 0.5554
2243.000000 0.5555 0.5555 0.5555 0.5555 0.5556
2248.000000 0.5556 0.5556 0.5556 0.5556 0.5555
2253.000000 0.5553 0.5552 0.5542 0.5530 0.5518
2258.000000 0.5507 0.5497 0.5487 0.5478 0.5469
2263.000000 0.5460 0.5451 0.5442 0.5432 0.5416
2268.000000 0.5393 0.5370 0.5350 0.5330 0.5310
2273.000000 0.5291 0.5275 0.5260 0.5250 0.5240
2278.000000 0.5231 0.5221 0.5211 0.5201 0.5193
2283.000000 0.5184 0.5178 0.5172 0.5166 0.5160
2288.000000 0.5155 0.5149 0.5145 0.5140 0.5135
2293.000000 0.5130 0.5125 0.5118 0.5111 0.5102
2298.000000 0.5094 0.5084 0.5075 0.5065 0.5055
2303.000000 0.5044 0.5033 0.5022 0.5011 0.5000
2308.000000 0.4989 0.4974 0.4956 0.4934 0.4907
2313.000000 0.4880 0.4855 0.4831 0.4811 0.4791
2318.000000 0.4771 0.4751 0.4713 0.4674 0.4618
2323.000000 0.4556 0.4512 0.4483 0.4453 0.4424
2328.000000 0.4393 0.4359 0.4325 0.4288 0.4250
2333.000000 0.4211 0.4173 0.4134 0.4094 0.4053
2338.000000 0.4009 0.3963 0.3911 0.3841 0.3683
2343.000000 0.3525 0.3475 0.3426 0.3384 0.3344
2348.000000 0.3306 0.3269 0.3239 0.3220 0.3203
2353.000000 0.3191 0.3179 0.3167 0.3155 0.3143
2358.000000 0.3130 0.3120 0.3111 0.3103 0.3096
2363.000000 0.3090 0.3088 0.3085 0.3084 0.3084
2368.000000 0.3084 0.3084 0.3083 0.3083 0.3082
2373.000000 0.3082 0.3082 0.3081 0.3080 0.3079
2378.000000 0.3078 0.3077 0.3076 0.3075 0.3075
2383.000000 0.3074 0.3073 0.3072 0.3045 0.2992
2388.000000 0.2936 0.2868 0.2800 0.2733 0.2665
2393.000000 0.2597 0.2530 0.2462 0.2394 0.2327
2398.000000 0.2260 0.2192 0.2125 0.2058 0.1990
2403.000000 0.1923 0.1855 0.1788 0.1721 0.1654
2408.000000 0.1587 0.1521 0.1454 0.1387 0.1321
2413.000000 0.1254 0.1187 0.1121 0.1054 0.0988
2418.000000 0.0928 0.0898 0.0868 0.0856 0.0848
2423.000000 0.0841 0.0837 0.0833 0.0833 0.0832
2428.000000 0.0832 0.0832 0.0827 0.0838 0.0852
2433.000000 0.0961 0.1070 0.1190 0.1314 0.1438
2438.000000 0.1562 0.1687 0.1705 0.1721 0.1735
2443.000000 0.1749 0.1763 0.1781 0.1798 0.1823
2448.000000 0.1850 0.1879 0.1912 0.1944 0.1977
2453.000000 0.2010 0.2042 0.2075 0.2117 0.2104
2458.000000 0.2107 0.2108 0.2108 0.2108 0.2108
2463.000000 0.2108 0.2085 0.2060 0.2029 0.1992
2468.000000 0.1955 0.1919 0.1882 0.1845 0.1807
2473.000000 0.1770 0.1733 0.1697 0.1660 0.1623
2478.000000 0.1587 0.1550 0.1513 0.1476 0.1439
2483.000000 0.1403 0.1366 0.1330 0.1293 0.1257
2488.000000 0.1222 0.1189 0.1157 0.1155 0.1155
2493.000000 0.1154 0.1154 0.1154 0.1168 0.1153
2498.000000 0.1172 0.1211 0.1251 0.1307 0.1363
2503.000000 0.1420 0.1476 0.1533 0.1589 0.1645
2508.000000 0.1686 0.1709 0.1733 0.1744 0.1755
2513.000000 0.1766 0.1776 0.1787 0.1796 0.1806
2518.000000 0.1816 0.1824 0.1833 0.1841 0.1850
2523.000000 0.1858 0.1865 0.1872 0.1876 0.1880
2528.000000 0.1883 0.1884 0.1886 0.1887 0.1889
2533.000000 0.1890 0.1890 0.1889 0.1888 0.1887
2538.000000 0.1886 0.1883 0.1881 0.1895 0.1867
2543.000000 0.1858 0.1851 0.1845 0.1838 0.1831
2548.000000 0.1824 0.1816 0.1808 0.1799 0.1795
2553.000000 0.1791 0.1787 0.1783 0.1779 0.1770
2558.000000 0.1759 0.1743 0.1697 0.1651 0.1619
2563.000000 0.1598 0.1578 0.1557 0.1537 0.1518
2568.000000 0.1500 0.1483 0.1470 0.1459 0.1449
2573.000000 0.1438 0.1427 0.1416 0.1405 0.1395
2578.000000 0.1386 0.1377 0.1368 0.1361 0.1353
2583.000000 0.1346 0.1338 0.1331 0.1323 0.1315
2588.000000 0.1307 0.1301 0.1295 0.1289 0.1283
2593.000000 0.1277 0.1271 0.1265 0.1259 0.1253
2598.000000 0.1247 0.1240 0.1232 0.1223 0.1214
2603.000000 0.1205 0.1195 0.1186 0.1177 0.1167
2608.000000 0.1159 0.1150 0.1141 0.1132 0.1123
2613.000000 0.1095 0.1060 0.1024 0.0989 0.0954
2618.000000 0.0923 0.0906 0.0888 0.0873 0.0862
2623.000000 0.0851 0.0840 0.0828 0.0817 0.0806
2628.000000 0.0795 0.0783 0.0767 0.0751 0.0735
2633.000000 0.0718 0.0702 0.0686 0.0670 0.0654
2638.000000 0.0629 0.0603 0.0577 0.0550 0.0522
2643.000000 0.0497 0.0479 0.0461 0.0444 0.0426
2648.000000 0.0409 0.0393 0.0378 0.0362 0.0349
2653.000000 0.0337 0.0325 0.0312 0.0300 0.0287
2658.000000 0.0275 0.0263 0.0250 0.0236 0.0223
2663.000000 0.0210 0.0198 0.0186 0.0177 0.0169
2668.000000 0.0161 0.0153 0.0145 0.0137 0.0130
2673.000000 0.0124 0.0118 0.0113 0.0109 0.0106
2678.000000 0.0105 0.0104 0.0103 0.0102 0.0102
2683.000000 0.0101 0.0100 0.0100 0.0099 0.0098
2688.000000 0.0097 0.0096 0.0095 0.0095 0.0094
2693.000000 0.0093 0.0092 0.0092 0.0092 0.0091
2698.000000 0.0091 0.0091 0.0090 0.0090 0.0090
2703.000000 0.0089 0.0089 0.0089 0.0089 0.0089
2708.000000 0.0089 0.0088 0.0088 0.0088 0.0088
2713.000000 0.0088 0.0088 0.0088 0.0088 0.0088
2718.000000 0.0087 0.0087 0.0087 0.0087 0.0087
2723.000000 0.0087 0.0086 0.0086 0.0086 0.0086
2728.000000 0.0086 0.0086 0.0085 0.0085 0.0085
2733.000000 0.0085 0.0085 0.0085 0.0084 0.0084
2738.000000 0.0084 0.0083 0.0083 0.0083 0.0082
2743.000000 0.0082 0.0082 0.0082 0.0082 0.0082
2748.000000 0.0081 0.0081 0.0081 0.0080 0.0080
2753.000000 0.0080 0.0079 0.0079 0.0079 0.0079
2758.000000 0.0079 0.0079 0.0079 0.0079 0.0079
2763.000000 0.0078 0.0078 0.0078 0.0078 0.0078
2768.000000 0.0078 0.0078 0.0078 0.0078 0.0078
2773.000000 0.0078 0.0078 0.0077 0.0077 0.0077
2778.000000 0.0077 0.0077 0.0077 0.0077 0.0077
2783.000000 0.0077 0.0077 0.0077 0.0077 0.0077
2788.000000 0.0076 0.0076 0.0076 0.0076 0.0076
2793.000000 0.0076 0.0076 0.0076 0.0076 0.0075
2798.000000 0.0075 0.0075 0.0075 0.0075 0.0075
2803.000000 0.0082 0.0075 0.0075 0.0076 0.0076
2808.000000 0.0076 0.0076 0.0076 0.0076 0.0076
2813.000000 0.0076 0.0076 0.0076 0.0077 0.0077
2818.000000 0.0077 0.0077 0.0077 0.0077 0.0077
2823.000000 0.0077 0.0077 0.0078 0.0078 0.0078
2828.000000 0.0078 0.0078 0.0078 0.0078 0.0078
2833.000000 0.0078 0.0078 0.0079 0.0079 0.0079
2838.000000 0.0079 0.0079 0.0079 0.0080 0.0080
2843.000000 0.0080 0.0080 0.0080 0.0080 0.0080
2848.000000 0.0081 0.0081 0.0081 0.0082 0.0082
2853.000000 0.0082 0.0083 0.0083 0.0083 0.0083
2858.000000 0.0084 0.0084 0.0084 0.0085 0.0085
2863.000000 0.0085 0.0086 0.0086 0.0086 0.0087
2868.000000 0.0087 0.0087 0.0087 0.0088 0.0089
2873.000000 0.0089 0.0090 0.0090 0.0090 0.0091
2878.000000 0.0091 0.0091 0.0091 0.0092 0.0092
2883.000000 0.0092 0.0093 0.0093 0.0093 0.0094
2888.000000 0.0094 0.0094 0.0094 0.0095 0.0095
2893.000000 0.0095 0.0096 0.0096 0.0096 0.0097
2898.000000 0.0097 0.0098 0.0098 0.0099 0.0099
2903.000000 0.0099 0.0100 0.0100 0.0100 0.0101
2908.000000 0.0101 0.0102 0.0102 0.0103 0.0103
2913.000000 0.0104 0.0105 0.0105 0.0106 0.0106
2918.000000 0.0107 0.0107 0.0107 0.0108 0.0108
2923.000000 0.0109 0.0110 0.0110 0.0111 0.0111
2928.000000 0.0112 0.0112 0.0112 0.0113 0.0113
2933.000000 0.0114 0.0114 0.0115 0.0116 0.0116
2938.000000 0.0117 0.0117 0.0117 0.0117 0.0118
2943.000000 0.0119 0.0119 0.0120 0.0120 0.0121
2948.000000 0.0121 0.0122 0.0123 0.0123 0.0124
2953.000000 0.0124 0.0124 0.0124 0.0126 0.0127
2958.000000 0.0128 0.0129 0.0130 0.0131 0.0131
2963.000000 0.0133 0.0134 0.0135 0.0137 0.0142
2968.000000 0.0147 0.0152 0.0157 0.0162 0.0166
2973.000000 0.0171 0.0176 0.0180 0.0185 0.0189
2978.000000 0.0194 0.0199 0.0204 0.0208 0.0213
2983.000000 0.0217 0.0221 0.0225 0.0229 0.0233
2988.000000 0.0236 0.0239 0.0242 0.0245 0.0247
2993.000000 0.0249 0.0250 0.0252 0.0253 0.0254
2998.000000 0.0255 0.0256 0.0257 0.0258 0.0259
3003.000000 0.0260 0.0262 0.0263 0.0264 0.0265
3008.000000 0.0266 0.0267 0.0268 0.0269 0.0270
3013.000000 0.0272 0.0274 0.0275 0.0278 0.0282
3018.000000 0.0286 0.0290 0.0297 0.0304 0.0311
3023.000000 0.0319 0.0329 0.0340 0.0351 0.0364
3028.000000 0.0382 0.0399 0.0417 0.0436 0.0454
3033.000000 0.0473 0.0492 0.0514 0.0536 0.0558
3038.000000 0.0577 0.0591 0.0604 0.0618 0.0631
3043.000000 0.0645 0.0658 0.0672 0.0685 0.0699
3048.000000 0.0713 0.0727 0.0740 0.0754 0.0768
3053.000000 0.0782 0.0796 0.0810 0.0824 0.0839
3058.000000 0.0853 0.0868 0.0883 0.0909 0.0935
3063.000000 0.0962 0.0991 0.1031 0.1071 0.1110
3068.000000 0.1142 0.1166 0.1190 0.1214 0.1242
3073.000000 0.1271 0.1300 0.1329 0.1343 0.1358
3078.000000 0.1372 0.1386 0.1401 0.1416 0.1430
3083.000000 0.1446 0.1461 0.1477 0.1493 0.1515
3088.000000 0.1541 0.1568 0.1594 0.1615 0.1635
3093.000000 0.1654 0.1673 0.1685 0.1697 0.1708
3098.000000 0.1720 0.1731 0.1743 0.1755 0.1766
3103.000000 0.1776 0.1786 0.1797 0.1807 0.1816
3108.000000 0.1826 0.1836 0.1846 0.1856 0.1865
3113.000000 0.1875 0.1883 0.1890 0.1897 0.1904
3118.000000 0.1910 0.1916 0.1921 0.1927 0.1933
3123.000000 0.1939 0.1945 0.1951 0.1956 0.1962
3128.000000 0.1967 0.1973 0.1978 0.1984 0.1989
3133.000000 0.1994 0.1999 0.2005 0.2010 0.2015
3138.000000 0.2020 0.2025 0.2031 0.2036 0.2042
3143.000000 0.2048 0.2055 0.2061 0.2067 0.2073
3148.000000 0.2079 0.2088 0.2104 0.2119 0.2135
3153.000000 0.2149 0.2163 0.2177 0.2191 0.2203
3158.000000 0.2215 0.2226 0.2237 0.2266 0.2318
3163.000000 0.2370 0.2422 0.2464 0.2494 0.2525
3168.000000 0.2555 0.2581 0.2600 0.2619 0.2638
3173.000000 0.2654 0.2664 0.2673 0.2683 0.2693
3178.000000 0.2703 0.2713 0.2723 0.2733 0.2743
3183.000000 0.2753 0.2762 0.2774 0.2788 0.2802
3188.000000 0.2816 0.2830 0.2845 0.2860 0.2875
3193.000000 0.2890 0.2908 0.2926 0.2944 0.2962
3198.000000 0.2979 0.2995 0.3012 0.3029 0.3041
3203.000000 0.3054 0.3066 0.3078 0.3089 0.3101
3208.000000 0.3112 0.3124 0.3131 0.3137 0.3143
3213.000000 0.3148 0.3154 0.3160 0.3166 0.3172
3218.000000 0.3177 0.3183 0.3188 0.3194 0.3199
3223.000000 0.3204 0.3208 0.3213 0.3217 0.3222
3228.000000 0.3226 0.3230 0.3235 0.3239 0.3243
3233.000000 0.3247 0.3251 0.3255 0.3259 0.3264
3238.000000 0.3268 0.3272 0.3276 0.3280 0.3283
3243.000000 0.3287 0.3291 0.3295 0.3299 0.3303
3248.000000 0.3307 0.3311 0.3315 0.3319 0.3322
3253.000000 0.3326 0.3330 0.3334 0.3337 0.3340
3258.000000 0.3342 0.3345 0.3348 0.3351 0.3354
3263.000000 0.3357 0.3359 0.3362 0.3365 0.3368
3268.000000 0.3371 0.3371 0.3372 0.3373 0.3374
3273.000000 0.3375 0.3375 0.3375 0.3375 0.3374
3278.000000 0.3376 0.3377 0.3377 0.3377 0.3377
3283.000000 0.3377 0.3377 0.3377 0.3376 0.3375
3288.000000 0.3374 0.3373 0.3372 0.3371 0.3370
3293.000000 0.3368 0.3367 0.3366 0.3365 0.3364
3298.000000 0.3363 0.3361 0.3360 0.3359 0.3357
3303.000000 0.3356 0.3354 0.3353 0.3351 0.3349
3308.000000 0.3348 0.3346 0.3345 0.3343 0.3341
3313.000000 0.3340 0.3339 0.3337 0.3336 0.3335
3318.000000 0.3334 0.3333 0.3332 0.3330 0.3329
3323.000000 0.3328 0.3327 0.3326 0.3324 0.3323
3328.000000 0.3322 0.3320 0.3319 0.3318 0.3317
3333.000000 0.3316 0.3315 0.3313 0.3312 0.3311
3338.000000 0.3309 0.3307 0.3306 0.3304 0.3302
3343.000000 0.3300 0.3299 0.3297 0.3296 0.3294
3348.000000 0.3293 0.3291 0.3289 0.3288 0.3286
3353.000000 0.3284 0.3283 0.3281 0.3279 0.3278
3358.000000 0.3277 0.3277 0.3276 0.3275 0.3274
3363.000000 0.3273 0.3272 0.3271 0.3271 0.3270
3368.000000 0.3269 0.3269 0.3268 0.3267 0.3266
3373.000000 0.3265 0.3265 0.3265 0.3266 0.3267
3378.000000 0.3267 0.3268 0.3269 0.3269 0.3270
3383.000000 0.3271 0.3271 0.3272 0.3273 0.3274
3388.000000 0.3274 0.3275 0.3276 0.3277 0.3277
3393.000000 0.3278 0.3279 0.3280 0.3281 0.3282
3398.000000 0.3283 0.3284 0.3285 0.3286 0.3287
3403.000000 0.3288 0.3289 0.3290 0.3292 0.3293
3408.000000 0.3294 0.3295 0.3297 0.3298 0.3299
3413.000000 0.3300 0.3301 0.3302 0.3304 0.3305
3418.000000 0.3307 0.3309 0.3311 0.3312 0.3314
3423.000000 0.3316 0.3317 0.3319 0.3321 0.3322
3428.000000 0.3323 0.3325 0.3327 0.3328 0.3330
3433.000000 0.3332 0.3333 0.3335 0.3337 0.3338
3438.000000 0.3340 0.3342 0.3344 0.3346 0.3348
3443.000000 0.3350 0.3353 0.3356 0.3358 0.3361
3448.000000 0.3364 0.3367 0.3370 0.3373 0.3375
3453.000000 0.3378 0.3381 0.3384 0.3387 0.3389
3458.000000 0.3392 0.3395 0.3398 0.3401 0.3404
3463.000000 0.3407 0.3412 0.3417 0.3422 0.3427
3468.000000 0.3431 0.3436 0.3441 0.3446 0.3450
3473.000000 0.3455 0.3460 0.3465 0.3469 0.3474
3478.000000 0.3479 0.3484 0.3489 0.3493 0.3498
3483.000000 0.3504 0.3511 0.3517 0.3523 0.3529
3488.000000 0.3536 0.3544 0.3551 0.3558 0.3565
3493.000000 0.3572 0.3579 0.3585 0.3592 0.3598
3498.000000 0.3604 0.3610 0.3616 0.3622 0.3628
3503.000000 0.3634 0.3640 0.3646 0.3653 0.3659
3508.000000 0.3664 0.3670 0.3676 0.3682 0.3688
3513.000000 0.3694 0.3700 0.3706 0.3712 0.3719
3518.000000 0.3725 0.3731 0.3737 0.3744 0.3750
3523.000000 0.3756 0.3762 0.3769 0.3775 0.3781
3528.000000 0.3787 0.3793 0.3799 0.3805 0.3811
3533.000000 0.3818 0.3824 0.3831 0.3837 0.3844
3538.000000 0.3850 0.3857 0.3863 0.3870 0.3877
3543.000000 0.3884 0.3891 0.3898 0.3905 0.3915
3548.000000 0.3926 0.3936 0.3947 0.3957 0.3965
3553.000000 0.3973 0.3980 0.3988 0.3995 0.4001
3558.000000 0.4007 0.4012 0.4018 0.4023 0.4028
3563.000000 0.4033 0.4039 0.4044 0.4049 0.4052
3568.000000 0.4054 0.4056 0.4058 0.4060 0.4062
3573.000000 0.4063 0.4065 0.4067 0.4069 0.4070
3578.000000 0.4071 0.4073 0.4074 0.4076 0.4077
3583.000000 0.4078 0.4078 0.4079 0.4080 0.4081
3588.000000 0.4081 0.4082 0.4083 0.4084 0.4085
3593.000000 0.4085 0.4086 0.4087 0.4088 0.4088
3598.000000 0.4089 0.4090 0.4091 0.4091 0.4092
3603.000000 0.4093 0.4094 0.4095 0.4095 0.4096
3608.000000 0.4097 0.4097 0.4097 0.4098 0.4098
3613.000000 0.4099 0.4099 0.4099 0.4100 0.4100
3618.000000 0.4101 0.4101 0.4101 0.4101 0.4101
3623.000000 0.4101 0.4102 0.4102 0.4103 0.4103
3628.000000 0.4103 0.4104 0.4104 0.4104 0.4105
3633.000000 0.4105 0.4106 0.4106 0.4106 0.4106
3638.000000 0.4106 0.4106 0.4107 0.4107 0.4107
3643.000000 0.4107 0.4107 0.4108 0.4107 0.4107
3648.000000 0.4107 0.4107 0.4106 0.4106 0.4106
3653.000000 0.4106 0.4106 0.4106 0.4106 0.4106
3658.000000 0.4106 0.4106 0.4106 0.4105 0.4105
3663.000000 0.4105 0.4104 0.4104 0.4103 0.4103
3668.000000 0.4103 0.4102 0.4102 0.4102 0.4101
3673.000000 0.4101 0.4100 0.4100 0.4100 0.4099
3678.000000 0.4099 0.4099 0.4099 0.4099 0.4098
3683.000000 0.4098 0.4097 0.4096 0.4095 0.4095
3688.000000 0.4094 0.4093 0.4092 0.4090 0.4089
3693.000000 0.4088 0.4087 0.4086 0.4085 0.4084
3698.000000 0.4083 0.4081 0.4078 0.4076 0.4074
3703.000000 0.4071 0.4069 0.4066 0.4063 0.4061
3708.000000 0.4058 0.4055 0.4052 0.4050 0.4047
3713.000000 0.4044 0.4041 0.4038 0.4035 0.4031
3718.000000 0.4028 0.4024 0.4020 0.4017 0.4013
3723.000000 0.4010 0.4006 0.4002 0.3999 0.3998
3728.000000 0.3997 0.3996 0.3995 0.3994 0.3993
3733.000000 0.3992 0.3991 0.3990 0.3989 0.3988
3738.000000 0.3987 0.3986 0.3985 0.3984 0.3983
3743.000000 0.3982 0.3981 0.3980 0.3979 0.3979
3748.000000 0.3978 0.3977 0.3976 0.3974 0.3973
3753.000000 0.3972 0.3971 0.3970 0.3969 0.3968
3758.000000 0.3967 0.3966 0.3965 0.3964 0.3963
3763.000000 0.3962 0.3961 0.3961 0.3960 0.3958
3768.000000 0.3957 0.3956 0.3955 0.3954 0.3953
3773.000000 0.3951 0.3950 0.3949 0.3947 0.3946
3778.000000 0.3945 0.3943 0.3942 0.3941 0.3940
3783.000000 0.3938 0.3937 0.3936 0.3935 0.3934
3788.000000 0.3932 0.3931 0.3930 0.3929 0.3927
3793.000000 0.3926 0.3925 0.3924 0.3922 0.3921
3798.000000 0.3919 0.3918 0.3917 0.3916 0.3914
3803.000000 0.3913 0.3912 0.3911 0.3909 0.3908
3808.000000 0.3906 0.3905 0.3903 0.3901 0.3900
3813.000000 0.3898 0.3896 0.3895 0.3893 0.3891
3818.000000 0.3889 0.3887 0.3885 0.3884 0.3882
3823.000000 0.3880 0.3878 0.3876 0.3875 0.3873
3828.000000 0.3871 0.3870 0.3868 0.3866 0.3865
3833.000000 0.3863 0.3861 0.3859 0.3858 0.3856
3838.000000 0.3854 0.3853 0.3851 0.3848 0.3845
3843.000000 0.3842 0.3838 0.3835 0.3832 0.3829
3848.000000 0.3825 0.3821 0.3818 0.3814 0.3811
3853.000000 0.3807 0.3803 0.3800 0.3796 0.3792
3858.000000 0.3789 0.3784 0.3780 0.3776 0.3771
3863.000000 0.3767 0.3762 0.3762 0.3761 0.3760
3868.000000 0.3759 0.3758 0.3758 0.3758 0.3758
3873.000000 0.3758 0.3758 0.3758 0.3758 0.3758
3878.000000 0.3758 0.3758 0.3758 0.3758 0.3758
3883.000000 0.3758 0.3758 0.3758 0.3758 0.3758
3888.000000 0.3758 0.3758 0.3758 0.3758 0.3758
3893.000000 0.3758 0.3758 0.3758 0.3758 0.3758
3898.000000 0.3758 0.3758 0.3758 0.3759 0.3759
3903.000000 0.3759 0.3759 0.3759 0.3759 0.3759
3908.000000 0.3759 0.3759 0.3759 0.3759 0.3759
3913.000000 0.3758 0.3758 0.3758 0.3758 0.3758
3918.000000 0.3758 0.3757 0.3757 0.3757 0.3756
3923.000000 0.3756 0.3756 0.3755 0.3755 0.3755
3928.000000 0.3755 0.3755 0.3755 0.3754 0.3754
3933.000000 0.3754 0.3754 0.3754 0.3754 0.3754
3938.000000 0.3753 0.3753 0.3753 0.3753 0.3753
3943.000000 0.3753 0.3752 0.3752 0.3752 0.3752
3948.000000 0.3752 0.3752 0.3751 0.3751 0.3751
3953.000000 0.3750 0.3750 0.3750 0.3749 0.3749
3958.000000 0.3749 0.3748 0.3748 0.3748 0.3747
3963.000000 0.3747 0.3747 0.3746 0.3746 0.3745
3968.000000 0.3745 0.3744 0.3744 0.3744 0.3743
3973.000000 0.3743 0.3743 0.3742 0.3742 0.3741
3978.000000 0.3740 0.3740 0.3739 0.3738 0.3738
3983.000000 0.3737 0.3736 0.3735 0.3734 0.3734
3988.000000 0.3733 0.3732 0.3731 0.3731 0.3730
3993.000000 0.3729 0.3728 0.3727 0.3727 0.3726
3998.000000 0.3725 0.3724 0.3724
##END=
