##TITLE=2-HYDROXY-3-(N-OCTYLAMINO) PROPYL-TRIMETHYLAMMONIUM p-TOSYLATE
##JCAMP-DX=4.24
##DATA TYPE=INFRARED SPECTRUM
##CLASS=COBLENTZ
##ORIGIN=EASTMAN KODAK COMPANY, RESEARCH LABORATORIES, ROCHESTER, N.Y.
##OWNER=COBLENTZ SOCIETY
Collection (C) 2018 copyright by the U.S. Secretary of Commerce
on behalf of the United States of America. All rights reserved.
##DATE=Not specified, most likely prior to 1970
##MOLFORM=C21 H40 N2 O4 S
##MP=114.5-115.5 C
##SOURCE REFERENCE=COBLENTZ NO. 4419
##$NIST ID=B6004419
##$NIST SOURCE=COBLENTZ
##$NIST IMAGE=cob4419
##SPECTROMETER/DATA SYSTEM=Not specified, most likely a prism, grating, or hybrid spectrometer.
##STATE=SOLID (KBr PELLET)
##PATH LENGTH=
$$ SEE J. ORG. CHEM., VOL. 28, PAGE 2283 (1963)
##SAMPLING PROCEDURE=TRANSMISSION
##RESOLUTION=4
##DATA PROCESSING=DIGITIZED BY NIST FROM HARD COPY
##XUNITS=MICROMETERS
##YUNITS=TRANSMITTANCE
##XFACTOR=1.000000
##YFACTOR=1
##DELTAX=000.006657
##FIRSTX=2.02
##LASTX=16.0067
##FIRSTY=0.694
##MAXX=16.0067
##MINX=2.02
##MAXY=1.017
##MINY=0.029
##NPOINTS=2102
##XYDATA=(X++(Y..Y))
2.020000 0.6940 0.6940 0.6990 0.7030 0.7060
2.053302 0.7070 0.7110 0.7140 0.7160 0.7160
2.087000 0.7170 0.7170 0.7250 0.7270 0.7290
2.120302 0.7290 0.7300 0.7300 0.7320 0.7320
2.153000 0.7350 0.7350 0.7380 0.7380 0.7420
2.186302 0.7420 0.7430 0.7430 0.7430 0.7450
2.220000 0.7470 0.7480 0.7480 0.7520 0.7550
2.253302 0.7600 0.7610 0.7610 0.7630 0.7630
2.286000 0.7630 0.7630 0.7630 0.7610 0.7600
2.319302 0.7600 0.7580 0.7580 0.7580 0.7580
2.353000 0.7600 0.7660 0.7680 0.7690 0.7690
2.386302 0.7710 0.7710 0.7710 0.7690 0.7690
2.419000 0.7690 0.7710 0.7730 0.7760 0.7790
2.452302 0.7860 0.7870 0.7890 0.7910 0.7920
2.486000 0.7920 0.7940 0.7940 0.7940 0.7940
2.519302 0.7940 0.7960 0.7960 0.7960 0.7960
2.553000 0.7970 0.7990 0.8000 0.8020 0.8020
2.586302 0.8070 0.8100 0.8150 0.8170 0.8180
2.619000 0.8220 0.8250 0.8280 0.8300 0.8300
2.652302 0.8310 0.8330 0.8350 0.8350 0.8330
2.686000 0.8310 0.8300 0.8280 0.8280 0.8280
2.719302 0.8270 0.8270 0.8250 0.8180 0.8150
2.752000 0.8100 0.8040 0.7990 0.7890 0.7870
2.785302 0.7860 0.7860 0.7840 0.7710 0.7580
2.819000 0.7450 0.7320 0.7190 0.7160 0.7070
2.852302 0.6980 0.6900 0.6780 0.6670 0.6650
2.885000 0.6570 0.6500 0.6370 0.6190 0.5970
2.918302 0.5720 0.5360 0.5150 0.5000 0.4950
2.952000 0.4740 0.4510 0.4270 0.3980 0.3810
2.985302 0.3710 0.3550 0.3340 0.3110 0.2880
3.019000 0.2610 0.2380 0.2230 0.2050 0.1850
3.052302 0.1820 0.1840 0.1920 0.2020 0.2280
3.085000 0.2640 0.2780 0.3180 0.3490 0.3650
3.118302 0.3860 0.4010 0.4710 0.4920 0.4970
3.152000 0.5120 0.5280 0.5570 0.5920 0.6110
3.185302 0.6370 0.6620 0.6630 0.6780 0.6880
3.218000 0.7040 0.7220 0.7290 0.7350 0.7450
3.251302 0.7550 0.7550 0.7530 0.7500 0.7430
3.285000 0.7370 0.7220 0.6990 0.6830 0.6550
3.318302 0.6180 0.6180 0.6440 0.6860 0.7060
3.351000 0.7060 0.6880 0.6000 0.5850 0.5360
3.384302 0.4840 0.4300 0.3780 0.3260 0.3230
3.418000 0.2690 0.1870 0.1680 0.1660 0.1850
3.451302 0.3000 0.3260 0.4060 0.4060 0.3810
3.485000 0.3570 0.3310 0.3050 0.2780 0.2750
3.518302 0.2540 0.2540 0.2920 0.3290 0.3670
3.551000 0.4040 0.4370 0.4840 0.5410 0.5720
3.584302 0.6320 0.6850 0.7010 0.7220 0.7380
3.618000 0.7550 0.7680 0.7690 0.7690 0.7690
3.651302 0.7690 0.7730 0.7830 0.7970 0.8050
3.684000 0.8050 0.8090 0.8140 0.8200 0.8280
3.717302 0.8400 0.8560 0.8580 0.8590 0.8590
3.751000 0.8590 0.8590 0.8610 0.8620 0.8670
3.784302 0.8710 0.8710 0.8710 0.8720 0.8720
3.817000 0.8760 0.8840 0.8930 0.8970 0.8980
3.850302 0.8980 0.9000 0.9000 0.9000 0.9020
3.884000 0.9020 0.9030 0.9030 0.9050 0.9050
3.917302 0.9070 0.9070 0.9070 0.9080 0.9130
3.951000 0.9200 0.9210 0.9230 0.9240 0.9260
3.984302 0.9280 0.9290 0.9330 0.9360 0.9380
4.017000 0.9390 0.9410 0.9410 0.9440 0.9440
4.050302 0.9470 0.9470 0.9510 0.9570 0.9600
4.084000 0.9650 0.9670 0.9670 0.9690 0.9700
4.117302 0.9690 0.9670 0.9590 0.9570 0.9570
4.150000 0.9550 0.9550 0.9540 0.9520 0.9510
4.183302 0.9490 0.9490 0.9490 0.9490 0.9490
4.217000 0.9490 0.9510 0.9520 0.9570 0.9600
4.250302 0.9670 0.9690 0.9700 0.9700 0.9720
4.283000 0.9730 0.9770 0.9770 0.9800 0.9850
4.316302 0.9880 0.9930 0.9960 0.9960 0.9960
4.350000 0.9980 0.9980 0.9980 0.9980 0.9960
4.383302 0.9960 0.9950 0.9930 0.9910 0.9910
4.417000 0.9900 0.9860 0.9860 0.9860 0.9850
4.450302 0.9830 0.9830 0.9800 0.9770 0.9770
4.483000 0.9800 0.9820 0.9820 0.9800 0.9770
4.516302 0.9770 0.9780 0.9820 0.9850 0.9850
4.550000 0.9850 0.9860 0.9860 0.9860 0.9880
4.583302 0.9900 0.9900 0.9930 0.9930 0.9950
4.616000 0.9980 1.0010 1.0030 1.0080 1.0110
4.649302 1.0110 1.0110 1.0110 1.0110 1.0110
4.683000 1.0110 1.0080 1.0040 1.0030 1.0010
4.716302 1.0010 1.0010 1.0030 1.0060 1.0140
4.749000 1.0160 1.0160 1.0160 1.0170 1.0170
4.782302 1.0130 1.0110 1.0080 1.0080 1.0090
4.816000 1.0110 1.0110 1.0110 1.0130 1.0130
4.849302 1.0080 1.0060 1.0040 1.0060 1.0080
4.883000 1.0110 1.0130 1.0130 1.0110 1.0090
4.916302 1.0090 1.0090 1.0110 1.0110 1.0090
4.949000 1.0090 1.0090 1.0090 1.0110 1.0140
4.982302 1.0170 1.0170 1.0160 1.0160 1.0130
5.016000 1.0110 1.0130 1.0160 1.0170 1.0170
5.049302 1.0170 1.0170 1.0160 1.0090 1.0090
5.082000 1.0110 1.0130 1.0160 1.0140 1.0130
5.115302 1.0110 1.0110 1.0110 1.0090 1.0080
5.149000 1.0060 1.0030 1.0030 1.0000 1.0000
5.182302 0.9980 0.9960 0.9960 0.9960 0.9950
5.215000 0.9950 0.9950 0.9950 0.9950 0.9950
5.248302 0.9950 0.9960 0.9980 0.9980 1.0000
5.282000 1.0000 1.0010 1.0040 1.0060 1.0060
5.315302 1.0060 1.0080 1.0090 1.0130 1.0130
5.349000 1.0140 1.0140 1.0140 1.0140 1.0140
5.382302 1.0140 1.0140 1.0130 1.0130 1.0110
5.415000 1.0110 1.0110 1.0090 1.0090 1.0090
5.448302 1.0090 1.0090 1.0110 1.0110 1.0110
5.482000 1.0110 1.0130 1.0140 1.0170 1.0170
5.515302 1.0170 1.0170 1.0160 1.0130 1.0090
5.548000 1.0080 1.0060 1.0040 1.0030 1.0010
5.581302 1.0000 1.0000 0.9980 0.9980 0.9980
5.615000 0.9960 0.9950 0.9950 0.9950 0.9950
5.648302 0.9960 0.9960 0.9960 0.9980 1.0000
5.681000 1.0000 1.0000 1.0000 1.0010 1.0010
5.714302 1.0010 1.0010 1.0010 1.0010 1.0010
5.748000 1.0010 1.0010 1.0010 1.0010 1.0010
5.781302 1.0000 1.0000 1.0000 0.9960 0.9950
5.815000 0.9930 0.9910 0.9900 0.9830 0.9820
5.848302 0.9850 0.9880 0.9900 0.9930 0.9980
5.881000 1.0010 1.0030 1.0030 1.0030 1.0030
5.914302 1.0010 1.0010 1.0000 0.9900 0.9880
5.948000 0.9860 0.9820 0.9780 0.9770 0.9770
5.981302 0.9770 0.9750 0.9750 0.9720 0.9730
6.014000 0.9700 0.9640 0.9570 0.9520 0.9440
6.047302 0.9340 0.9310 0.9310 0.9290 0.9290
6.081000 0.9290 0.9290 0.9310 0.9310 0.9330
6.114302 0.9340 0.9340 0.9310 0.9280 0.9160
6.147000 0.9150 0.9150 0.9150 0.9130 0.9110
6.180302 0.9110 0.9100 0.9100 0.9100 0.9100
6.214000 0.9080 0.9070 0.9000 0.8870 0.8710
6.247302 0.8510 0.8380 0.8360 0.8400 0.8590
6.281000 0.8850 0.9070 0.9260 0.9380 0.9420
6.314302 0.9440 0.9460 0.9460 0.9460 0.9470
6.347000 0.9510 0.9540 0.9550 0.9550 0.9550
6.380302 0.9550 0.9540 0.9540 0.9550 0.9550
6.414000 0.9520 0.9520 0.9490 0.9490 0.9490
6.447302 0.9470 0.9470 0.9460 0.9460 0.9460
6.480000 0.9460 0.9440 0.9440 0.9420 0.9420
6.513302 0.9420 0.9410 0.9410 0.9390 0.9380
6.547000 0.9340 0.9330 0.9310 0.9260 0.9210
6.580302 0.9180 0.9160 0.9150 0.9070 0.8790
6.613000 0.8480 0.8330 0.8220 0.8200 0.8170
6.646302 0.8090 0.7970 0.7420 0.6990 0.6280
6.680000 0.5510 0.5300 0.4970 0.4350 0.3290
6.713302 0.2950 0.2560 0.2470 0.2460 0.2460
6.747000 0.2470 0.2560 0.2750 0.3050 0.3370
6.780302 0.3470 0.3650 0.3700 0.3760 0.3800
6.813000 0.3830 0.3880 0.3910 0.3940 0.3960
6.846302 0.3990 0.4150 0.4250 0.4660 0.4770
6.880000 0.4840 0.4950 0.5080 0.5200 0.5280
6.913302 0.5360 0.5660 0.6000 0.6340 0.6670
6.946000 0.6910 0.6960 0.7010 0.7060 0.7070
6.979302 0.7090 0.7120 0.7120 0.6760 0.6810
7.013000 0.7060 0.7140 0.7380 0.7560 0.7760
7.046302 0.7840 0.7840 0.7810 0.7740 0.7730
7.079000 0.7710 0.7660 0.7560 0.7500 0.7340
7.112302 0.7160 0.7170 0.7240 0.7350 0.7450
7.146000 0.7550 0.7650 0.7680 0.7680 0.7650
7.179302 0.7560 0.7500 0.7450 0.7340 0.7250
7.213000 0.7140 0.7070 0.7120 0.7240 0.7350
7.246302 0.7370 0.7340 0.7290 0.7190 0.7160
7.279000 0.7070 0.7120 0.7160 0.7250 0.7290
7.312302 0.7340 0.7340 0.7250 0.7210 0.7170
7.346000 0.7160 0.7170 0.7320 0.7450 0.7560
7.379302 0.7660 0.7690 0.7760 0.7860 0.7870
7.412000 0.7890 0.7560 0.7250 0.7010 0.6550
7.445302 0.5950 0.5750 0.5540 0.5530 0.5540
7.479000 0.5700 0.6000 0.6210 0.6880 0.7350
7.512302 0.7550 0.7990 0.8280 0.8410 0.8450
7.545000 0.8460 0.8450 0.8430 0.8360 0.8350
7.578302 0.8310 0.8300 0.8300 0.8280 0.8180
7.612000 0.7990 0.7480 0.6830 0.6810 0.6800
7.645302 0.6700 0.6700 0.6900 0.6930 0.7120
7.679000 0.7350 0.7450 0.7610 0.7760 0.7840
7.712302 0.7960 0.8020 0.8090 0.8120 0.8170
7.745000 0.8220 0.8270 0.8310 0.8330 0.8330
7.778302 0.8300 0.8280 0.8270 0.8230 0.8220
7.812000 0.8200 0.8180 0.8180 0.8220 0.8250
7.845302 0.8280 0.8310 0.8350 0.8360 0.8360
7.878000 0.8350 0.8330 0.8300 0.8270 0.8220
7.911302 0.8170 0.8100 0.8000 0.7960 0.7870
7.945000 0.7840 0.7760 0.7760 0.7710 0.7690
7.978302 0.7680 0.7680 0.7680 0.7680 0.7660
8.011000 0.7630 0.7580 0.7550 0.7530 0.7470
8.044302 0.7350 0.7210 0.7040 0.6850 0.6680
8.078000 0.6570 0.6340 0.6190 0.5880 0.5530
8.111302 0.4990 0.4680 0.4420 0.4150 0.3860
8.145000 0.3600 0.3210 0.2770 0.2430 0.1990
8.178302 0.1680 0.1400 0.1220 0.0650 0.0580
8.211000 0.0470 0.0420 0.0400 0.0400 0.0420
8.244302 0.0440 0.0480 0.0570 0.0660 0.0760
8.278000 0.0810 0.0890 0.0960 0.1150 0.1280
8.311302 0.1580 0.1810 0.1850 0.1890 0.1990
8.344000 0.2020 0.2070 0.2100 0.2130 0.2150
8.377302 0.2150 0.2070 0.1970 0.1720 0.1410
8.411000 0.1020 0.0680 0.0580 0.0480 0.0450
8.444302 0.0440 0.0420 0.0370 0.0290 0.0290
8.477000 0.0470 0.0680 0.0830 0.1150 0.1500
8.510302 0.1790 0.2250 0.2250 0.2160 0.1940
8.544000 0.1660 0.1540 0.1540 0.1740 0.2200
8.577302 0.2560 0.2960 0.3360 0.3760 0.3910
8.611000 0.3990 0.4450 0.4860 0.4970 0.5180
8.644302 0.5440 0.5590 0.6050 0.6280 0.6390
8.677000 0.6520 0.6540 0.6540 0.6540 0.6540
8.710302 0.6520 0.6340 0.6160 0.5380 0.5050
8.744000 0.4560 0.4560 0.4690 0.4810 0.4860
8.777302 0.4890 0.4940 0.4950 0.4940 0.4860
8.810000 0.4740 0.4450 0.4110 0.3760 0.3240
8.843302 0.3090 0.2740 0.2460 0.2260 0.2150
8.877000 0.2050 0.2050 0.2020 0.1950 0.1850
8.910302 0.1500 0.1090 0.1020 0.0880 0.0780
8.943000 0.0760 0.0890 0.1250 0.1770 0.2310
8.976302 0.2570 0.3000 0.3190 0.3490 0.3500
9.010000 0.3450 0.3110 0.2960 0.2780 0.2650
9.043302 0.2620 0.2620 0.2640 0.3030 0.3260
9.077000 0.3580 0.3840 0.3930 0.4110 0.4350
9.110302 0.4420 0.4420 0.4380 0.4350 0.4250
9.143000 0.4200 0.4110 0.3940 0.3930 0.3940
9.176302 0.4070 0.4270 0.4690 0.4860 0.5280
9.210000 0.5750 0.6160 0.6500 0.6550 0.6670
9.243302 0.6860 0.6910 0.7090 0.7350 0.7400
9.276000 0.7450 0.7470 0.7470 0.7470 0.7480
9.309302 0.7550 0.7630 0.7660 0.7680 0.7680
9.343000 0.7690 0.7710 0.7780 0.7940 0.7990
9.376302 0.8050 0.8070 0.8090 0.8120 0.8090
9.409000 0.7990 0.7960 0.7960 0.7960 0.7960
9.442302 0.7940 0.7940 0.7920 0.7910 0.7890
9.476000 0.7870 0.7860 0.7790 0.7760 0.7530
9.509302 0.7470 0.7240 0.7120 0.7040 0.6990
9.543000 0.6980 0.6980 0.6990 0.7010 0.7030
9.576302 0.7040 0.7040 0.7030 0.6990 0.6760
9.609000 0.6470 0.5840 0.4860 0.4400 0.3260
9.642302 0.2690 0.1940 0.1250 0.1100 0.0960
9.676000 0.0970 0.1190 0.1530 0.2460 0.3130
9.709302 0.3830 0.4550 0.5080 0.5260 0.5570
9.742000 0.6060 0.6550 0.6830 0.7210 0.7420
9.775302 0.7600 0.7660 0.7740 0.7790 0.7860
9.809000 0.7860 0.7790 0.7610 0.7450 0.7060
9.842302 0.6760 0.6410 0.5800 0.3450 0.2070
9.875000 0.1510 0.1060 0.0750 0.0750 0.0960
9.908302 0.1560 0.2120 0.2770 0.3260 0.3940
9.942000 0.4400 0.4550 0.4950 0.5150 0.5700
9.975302 0.5840 0.5970 0.6210 0.6490 0.6750
10.009000 0.6990 0.7380 0.7630 0.7890 0.7970
10.042302 0.8070 0.8140 0.8250 0.8400 0.8490
10.075000 0.8620 0.8660 0.8670 0.8690 0.8710
10.108302 0.8720 0.8720 0.8690 0.8660 0.8640
10.142000 0.8560 0.8560 0.8560 0.8540 0.8530
10.175302 0.8490 0.8450 0.8300 0.8250 0.8070
10.208000 0.7920 0.7890 0.7690 0.7170 0.6900
10.241302 0.6260 0.5980 0.5480 0.4350 0.3500
10.275000 0.3140 0.2850 0.2770 0.2700 0.2650
10.308302 0.2650 0.2750 0.2960 0.3060 0.3260
10.341000 0.3550 0.3760 0.4450 0.4740 0.5080
10.374302 0.5440 0.5610 0.6000 0.6290 0.6570
10.408000 0.6860 0.7110 0.7430 0.7710 0.7780
10.441302 0.7940 0.8000 0.8150 0.8270 0.8380
10.475000 0.8410 0.8460 0.8480 0.8480 0.8480
10.508302 0.8480 0.8460 0.8460 0.8460 0.8450
10.541000 0.8450 0.8430 0.8360 0.8270 0.8120
10.574302 0.7920 0.7860 0.7560 0.7350 0.7010
10.608000 0.6650 0.6540 0.6410 0.6340 0.6260
10.641302 0.6150 0.5980 0.5480 0.4860 0.4420
10.674000 0.4220 0.4140 0.4090 0.4120 0.4450
10.707302 0.4790 0.5080 0.6160 0.6460 0.6760
10.741000 0.7070 0.7300 0.7610 0.7960 0.8310
10.774302 0.8640 0.8660 0.8670 0.8740 0.8760
10.807000 0.8850 0.8970 0.9070 0.9150 0.9160
10.840302 0.9160 0.9160 0.9160 0.9150 0.9110
10.874000 0.9100 0.9110 0.9130 0.9130 0.9150
10.907302 0.9160 0.9160 0.9150 0.9150 0.9150
10.941000 0.9150 0.9150 0.9130 0.9110 0.8970
10.974302 0.8670 0.8480 0.8330 0.8150 0.7870
11.007000 0.7400 0.6620 0.6030 0.5790 0.5750
11.040302 0.5720 0.5670 0.5670 0.5930 0.6500
11.074000 0.7060 0.7270 0.7650 0.7960 0.8150
11.107302 0.8540 0.8850 0.9070 0.9210 0.9280
11.140000 0.9340 0.9380 0.9410 0.9460 0.9490
11.173302 0.9520 0.9550 0.9570 0.9600 0.9640
11.207000 0.9690 0.9770 0.9770 0.9750 0.9750
11.240302 0.9670 0.9650 0.9650 0.9670 0.9690
11.273000 0.9720 0.9730 0.9730 0.9750 0.9800
11.306302 0.9850 0.9880 0.9910 0.9930 0.9910
11.340000 0.9880 0.9860 0.9820 0.9780 0.9750
11.373302 0.9750 0.9750 0.9750 0.9750 0.9750
11.407000 0.9730 0.9730 0.9730 0.9700 0.9670
11.440302 0.9570 0.9490 0.9420 0.9310 0.9240
11.473000 0.9230 0.9230 0.9240 0.9260 0.9280
11.506302 0.9310 0.9310 0.9280 0.9240 0.9200
11.540000 0.9180 0.9160 0.9180 0.9210 0.9260
11.573302 0.9360 0.9410 0.9460 0.9470 0.9510
11.606000 0.9550 0.9590 0.9640 0.9650 0.9670
11.639302 0.9690 0.9690 0.9690 0.9670 0.9670
11.673000 0.9730 0.9750 0.9770 0.9750 0.9730
11.706302 0.9620 0.9470 0.9380 0.9310 0.9260
11.739000 0.9240 0.9210 0.9200 0.9180 0.9180
11.772302 0.9180 0.9180 0.9200 0.9210 0.9260
11.806000 0.9290 0.9340 0.9390 0.9420 0.9440
11.839302 0.9440 0.9460 0.9470 0.9540 0.9570
11.873000 0.9670 0.9720 0.9720 0.9670 0.9650
11.906302 0.9640 0.9620 0.9590 0.9590 0.9590
11.939000 0.9590 0.9570 0.9570 0.9550 0.9550
11.972302 0.9520 0.9520 0.9490 0.9470 0.9470
12.006000 0.9470 0.9460 0.9420 0.9390 0.9330
12.039302 0.9260 0.9200 0.9180 0.9180 0.9160
12.072000 0.9110 0.9020 0.9000 0.8890 0.8840
12.105302 0.8760 0.8670 0.8640 0.8560 0.8540
12.139000 0.8380 0.8280 0.8250 0.8090 0.7960
12.172302 0.7910 0.7780 0.7680 0.7580 0.7520
12.205000 0.7370 0.7220 0.6980 0.6700 0.6540
12.238302 0.6440 0.6290 0.6230 0.5900 0.5560
12.272000 0.5200 0.4710 0.4120 0.3800 0.3400
12.305302 0.3080 0.2830 0.2720 0.2670 0.2650
12.339000 0.2640 0.2590 0.2560 0.2540 0.2540
12.372302 0.2560 0.2570 0.2640 0.2700 0.2850
12.405000 0.3050 0.3290 0.3570 0.3780 0.3840
12.438302 0.3960 0.4120 0.4380 0.4600 0.4910
12.472000 0.5200 0.5360 0.5690 0.5840 0.5900
12.505302 0.6000 0.6080 0.6190 0.6260 0.6260
12.538000 0.6240 0.6190 0.6080 0.6000 0.5820
12.571302 0.5570 0.5440 0.5430 0.5430 0.5390
12.605000 0.5350 0.5330 0.5350 0.5570 0.5640
12.638302 0.5750 0.5900 0.5950 0.6130 0.6360
12.671000 0.6500 0.6630 0.6730 0.6750 0.6850
12.704302 0.6980 0.7120 0.7210 0.7290 0.7290
12.738000 0.7300 0.7320 0.7400 0.7520 0.7580
12.771302 0.7680 0.7780 0.7780 0.7840 0.7870
12.805000 0.7940 0.8020 0.8070 0.8090 0.8140
12.838302 0.8170 0.8200 0.8230 0.8230 0.8270
12.871000 0.8330 0.8350 0.8360 0.8360 0.8360
12.904302 0.8380 0.8380 0.8410 0.8490 0.8560
12.938000 0.8640 0.8660 0.8660 0.8670 0.8740
12.971302 0.8740 0.8740 0.8740 0.8740 0.8760
13.004000 0.8760 0.8760 0.8740 0.8720 0.8690
13.037302 0.8660 0.8640 0.8610 0.8480 0.8350
13.071000 0.8280 0.8230 0.8220 0.8220 0.8230
13.104302 0.8280 0.8360 0.8430 0.8510 0.8540
13.137000 0.8540 0.8540 0.8540 0.8560 0.8560
13.170302 0.8540 0.8490 0.8460 0.8430 0.8410
13.204000 0.8400 0.8360 0.8330 0.8310 0.8310
13.237302 0.8330 0.8360 0.8400 0.8530 0.8640
13.271000 0.8670 0.8720 0.8720 0.8740 0.8740
13.304302 0.8740 0.8770 0.8870 0.8900 0.8930
13.337000 0.8950 0.8970 0.8980 0.8980 0.9000
13.370302 0.9000 0.8980 0.8950 0.8930 0.8930
13.404000 0.8950 0.8970 0.9020 0.9050 0.9050
13.437302 0.9030 0.9030 0.9030 0.9030 0.9030
13.470000 0.9050 0.9070 0.9070 0.9080 0.9080
13.503302 0.9070 0.9050 0.9030 0.9020 0.9000
13.537000 0.8980 0.8970 0.8970 0.8950 0.8950
13.570302 0.8950 0.8930 0.8930 0.8930 0.8930
13.603000 0.8930 0.8930 0.8930 0.8920 0.8920
13.636302 0.8900 0.8870 0.8850 0.8800 0.8760
13.670000 0.8690 0.8620 0.8560 0.8530 0.8490
13.703302 0.8490 0.8460 0.8400 0.8270 0.8150
13.737000 0.8070 0.8040 0.7990 0.7790 0.7630
13.770302 0.7530 0.7430 0.7380 0.7340 0.7290
13.803000 0.7250 0.7220 0.7190 0.7170 0.7170
13.836302 0.7190 0.7210 0.7220 0.7250 0.7300
13.870000 0.7370 0.7430 0.7450 0.7430 0.7420
13.903302 0.7370 0.7340 0.7190 0.6900 0.6730
13.936000 0.6630 0.6570 0.6540 0.6280 0.5840
13.969302 0.5840 0.5970 0.6110 0.6260 0.6420
14.003000 0.6570 0.6720 0.6850 0.6960 0.7190
14.036302 0.7240 0.7340 0.7380 0.7400 0.7430
14.069000 0.7450 0.7450 0.7430 0.7430 0.7420
14.102302 0.7420 0.7400 0.7370 0.7340 0.7340
14.136000 0.7320 0.7320 0.7290 0.7220 0.7120
14.169302 0.7060 0.7030 0.7030 0.6960 0.6960
14.203000 0.6900 0.6860 0.6750 0.6630 0.6540
14.236302 0.6470 0.6440 0.6440 0.6360 0.6260
14.269000 0.6210 0.6160 0.6130 0.6030 0.5980
14.302302 0.5870 0.5670 0.5530 0.5410 0.5300
14.336000 0.5250 0.5170 0.5100 0.4940 0.4760
14.369302 0.4680 0.4480 0.4430 0.4330 0.4290
14.402000 0.4170 0.4040 0.3910 0.3780 0.3680
14.435302 0.3630 0.3530 0.3500 0.3360 0.3160
14.469000 0.3050 0.2960 0.2870 0.2830 0.2720
14.502302 0.2690 0.2560 0.2380 0.2210 0.2150
14.535000 0.2080 0.2050 0.2020 0.2000 0.1990
14.568302 0.1990 0.1970 0.1970 0.1970 0.1990
14.602000 0.2000 0.2030 0.2030 0.2030 0.2050
14.635302 0.2070 0.2160 0.2250 0.2360 0.2460
14.669000 0.2560 0.2640 0.2640 0.2750 0.2820
14.702302 0.3000 0.3140 0.3340 0.3490 0.3530
14.735000 0.3650 0.3780 0.3890 0.3960 0.4070
14.768302 0.4300 0.4530 0.4550 0.4580 0.4730
14.802000 0.4790 0.4910 0.5040 0.5080 0.5120
14.835302 0.5130 0.5170 0.5250 0.5330 0.5430
14.868000 0.5480 0.5560 0.5620 0.5640 0.5670
14.901302 0.5690 0.5720 0.5800 0.5800 0.5750
14.935000 0.5720 0.5720 0.5640 0.5620 0.5610
14.968302 0.5620 0.5700 0.5740 0.5900 0.5950
15.001000 0.6080 0.6210 0.6310 0.6370 0.6420
15.034302 0.6420 0.6340 0.6290 0.6190 0.6130
15.068000 0.6110 0.6050 0.6030 0.6000 0.5970
15.101302 0.5950 0.5930 0.5930 0.5970 0.6000
15.135000 0.6010 0.6010 0.6010 0.6000 0.5980
15.168302 0.5970 0.5970 0.5980 0.6000 0.6000
15.201000 0.6010 0.6010 0.6000 0.5880 0.5850
15.234302 0.5840 0.5820 0.5820 0.5820 0.5820
15.268000 0.5800 0.5800 0.5800 0.5800 0.5770
15.301302 0.5770 0.5750 0.5750 0.5750 0.5770
15.334000 0.5790 0.5790 0.5800 0.5820 0.5820
15.367302 0.5790 0.5750 0.5740 0.5720 0.5720
15.401000 0.5740 0.5740 0.5720 0.5720 0.5720
15.434302 0.5720 0.5720 0.5720 0.5670 0.5640
15.467000 0.5560 0.5540 0.5540 0.5540 0.5540
15.500302 0.5560 0.5570 0.5590 0.5610 0.5610
15.534000 0.5620 0.5640 0.5660 0.5670 0.5670
15.567302 0.5690 0.5690 0.5670 0.5660 0.5640
15.601000 0.5610 0.5570 0.5570 0.5560 0.5540
15.634302 0.5510 0.5480 0.5460 0.5440 0.5440
15.667000 0.5440 0.5440 0.5460 0.5480 0.5530
15.700302 0.5530 0.5530 0.5540 0.5560 0.5560
15.734000 0.5560 0.5560 0.5560 0.5540 0.5530
15.767302 0.5530 0.5530 0.5530 0.5530 0.5530
15.800000 0.5530 0.5510 0.5480 0.5480 0.5460
15.833302 0.5440 0.5430 0.5430 0.5430 0.5430
15.867000 0.5430 0.5430 0.5430 0.5430 0.5430
15.900302 0.5430 0.5430 0.5410 0.5390 0.5390
15.933000 0.5380 0.5380 0.5380 0.5380 0.5380
15.966302 0.5380 0.5380 0.5380 0.5360 0.5360
16.000000 0.5350 0.5350
##END=
