##TITLE=3,5,6-TRICHLORO-2,2,3,4,4,5,6,6-OCTAFLUOROHEXANOIC ACID
##JCAMP-DX=4.24
##DATA TYPE=INFRARED SPECTRUM
##CLASS=COBLENTZ
##ORIGIN=WYANDOTTE CHEMICALS CORP., WYANDOTTE, MICHIGAN, USA
##OWNER=COBLENTZ SOCIETY
Collection (C) 2018 copyright by the U.S. Secretary of Commerce
on behalf of the United States of America. All rights reserved.
##DATE=Not specified, most likely prior to 1970
##NAMES=KEL-F ACID 683
$$ COMMERCIAL
##MOLFORM=C6 H Cl3 F8 O2
##SOURCE REFERENCE=COBLENTZ NO. 3897
##$NIST ID=B6003897
##$NIST SOURCE=COBLENTZ
##$NIST IMAGE=cob3897
##SPECTROMETER/DATA SYSTEM=Not specified, most likely a prism, grating, or hybrid spectrometer.
##STATE=LIQUID
##PATH LENGTH=0.0015 CM
##SAMPLING PROCEDURE=TRANSMISSION
##RESOLUTION=4
##DATA PROCESSING=DIGITIZED BY NIST FROM HARD COPY
##XUNITS=MICROMETERS
##YUNITS=TRANSMITTANCE
##XFACTOR=1.000000
##YFACTOR=1
##DELTAX=000.006197
##FIRSTX=2.025
##LASTX=16.0124
##FIRSTY=0.958
##MAXX=16.0124
##MINX=2.025
##MAXY=1
##MINY=0.027
##NPOINTS=2258
##XYDATA=(X++(Y..Y))
2.025000 0.9580 0.9580 0.9590 0.9610 0.9590
2.056001 0.9610 0.9610 0.9620 0.9640 0.9650
2.087000 0.9670 0.9680 0.9700 0.9720 0.9720
2.118001 0.9720 0.9700 0.9650 0.9650 0.9670
2.149000 0.9670 0.9700 0.9700 0.9720 0.9730
2.180001 0.9700 0.9720 0.9730 0.9760 0.9810
2.211000 0.9810 0.9790 0.9790 0.9790 0.9790
2.242001 0.9780 0.9760 0.9760 0.9760 0.9760
2.273000 0.9780 0.9790 0.9790 0.9790 0.9790
2.304001 0.9780 0.9780 0.9760 0.9750 0.9730
2.335000 0.9730 0.9760 0.9790 0.9810 0.9820
2.366001 0.9840 0.9820 0.9820 0.9760 0.9760
2.397000 0.9810 0.9810 0.9780 0.9780 0.9790
2.428001 0.9790 0.9810 0.9820 0.9860 0.9860
2.459000 0.9790 0.9790 0.9810 0.9820 0.9840
2.490001 0.9860 0.9860 0.9860 0.9860 0.9860
2.521000 0.9890 0.9920 0.9930 0.9950 0.9950
2.552001 0.9960 0.9960 0.9960 0.9960 0.9960
2.583000 0.9980 1.0000 1.0000 1.0000 1.0000
2.614001 1.0000 1.0000 1.0000 1.0000 0.9980
2.645000 0.9960 0.9960 0.9950 0.9900 0.9890
2.676001 0.9840 0.9780 0.9750 0.9650 0.9590
2.707000 0.9580 0.9560 0.9540 0.9530 0.9510
2.738001 0.9510 0.9500 0.9500 0.9500 0.9470
2.768000 0.9450 0.9400 0.9360 0.9310 0.9250
2.799001 0.9160 0.9050 0.8940 0.8810 0.8720
2.830000 0.8640 0.8630 0.8610 0.8580 0.8550
2.861001 0.8530 0.8520 0.8490 0.8440 0.8350
2.892000 0.8280 0.8240 0.8210 0.8190 0.8180
2.923001 0.8160 0.8140 0.8140 0.8100 0.8040
2.954000 0.7940 0.7800 0.7690 0.7550 0.7430
2.985001 0.7410 0.7320 0.7150 0.6900 0.6540
3.016000 0.6320 0.6090 0.5860 0.5690 0.5530
3.047001 0.5390 0.5110 0.5050 0.4970 0.4820
3.078000 0.4680 0.4600 0.4520 0.4380 0.4270
3.109001 0.4230 0.4160 0.4120 0.4020 0.4010
3.140000 0.3950 0.3870 0.3810 0.3790 0.3760
3.171001 0.3730 0.3710 0.3700 0.3680 0.3650
3.202000 0.3650 0.3630 0.3630 0.3630 0.3630
3.233001 0.3620 0.3620 0.3620 0.3630 0.3670
3.264000 0.3710 0.3790 0.3850 0.3960 0.3990
3.295001 0.4010 0.4050 0.4150 0.4290 0.4460
3.326000 0.4510 0.4580 0.4650 0.4660 0.4660
3.357001 0.4650 0.4630 0.4610 0.4600 0.4600
3.388000 0.4580 0.4580 0.4600 0.4600 0.4610
3.419001 0.4630 0.4650 0.4660 0.4750 0.4820
3.450000 0.4880 0.4940 0.5060 0.5110 0.5160
3.481001 0.5200 0.5280 0.5310 0.5360 0.5410
3.512000 0.5470 0.5580 0.5700 0.5760 0.5860
3.543001 0.5950 0.6030 0.6110 0.6150 0.6220
3.574000 0.6340 0.6370 0.6430 0.6500 0.6600
3.605001 0.6670 0.6710 0.6740 0.6780 0.6810
3.636000 0.6870 0.6920 0.6980 0.7010 0.7060
3.667001 0.7100 0.7100 0.7090 0.6990 0.6980
3.698000 0.6990 0.7150 0.7180 0.7180 0.7150
3.729001 0.7150 0.7160 0.7210 0.7260 0.7290
3.760000 0.7300 0.7340 0.7370 0.7380 0.7400
3.791001 0.7430 0.7490 0.7570 0.7690 0.7740
3.822000 0.7760 0.7760 0.7740 0.7720 0.7720
3.853001 0.7710 0.7690 0.7680 0.7680 0.7650
3.884000 0.7630 0.7620 0.7600 0.7600 0.7600
3.915001 0.7600 0.7620 0.7620 0.7580 0.7570
3.946000 0.7550 0.7550 0.7540 0.7520 0.7520
3.977001 0.7520 0.7520 0.7540 0.7600 0.7660
4.008000 0.7710 0.7760 0.7790 0.7830 0.7880
4.039001 0.7910 0.7930 0.7940 0.7970 0.7990
4.070000 0.8020 0.8040 0.8050 0.8130 0.8180
4.101001 0.8210 0.8190 0.8210 0.8240 0.8280
4.132000 0.8320 0.8350 0.8380 0.8390 0.8410
4.163001 0.8420 0.8470 0.8520 0.8550 0.8580
4.194000 0.8610 0.8640 0.8660 0.8670 0.8690
4.225001 0.8700 0.8720 0.8720 0.8720 0.8720
4.256000 0.8700 0.8670 0.8670 0.8740 0.8770
4.287001 0.8780 0.8810 0.8860 0.8920 0.8940
4.318000 0.8940 0.8920 0.8920 0.8920 0.8940
4.349001 0.8950 0.8970 0.8980 0.9000 0.9030
4.380000 0.9060 0.9120 0.9160 0.9170 0.9090
4.411001 0.9090 0.9110 0.9120 0.9120 0.9160
4.442000 0.9140 0.9140 0.9110 0.9110 0.9140
4.473001 0.9200 0.9230 0.9200 0.9220 0.9230
4.504000 0.9230 0.9250 0.9280 0.9280 0.9250
4.535001 0.9230 0.9230 0.9220 0.9220 0.9200
4.566000 0.9220 0.9220 0.9230 0.9260 0.9300
4.597001 0.9340 0.9360 0.9360 0.9360 0.9310
4.628000 0.9310 0.9330 0.9330 0.9330 0.9360
4.659001 0.9390 0.9420 0.9420 0.9440 0.9450
4.690000 0.9450 0.9440 0.9470 0.9470 0.9480
4.721001 0.9500 0.9470 0.9480 0.9510 0.9530
4.752000 0.9530 0.9530 0.9530 0.9530 0.9530
4.783001 0.9530 0.9510 0.9500 0.9500 0.9480
4.814000 0.9480 0.9480 0.9480 0.9480 0.9480
4.845001 0.9480 0.9480 0.9480 0.9480 0.9480
4.876000 0.9470 0.9470 0.9450 0.9450 0.9450
4.907001 0.9450 0.9440 0.9450 0.9450 0.9450
4.938000 0.9450 0.9500 0.9500 0.9500 0.9470
4.969001 0.9450 0.9450 0.9450 0.9450 0.9450
5.000000 0.9450 0.9440 0.9420 0.9420 0.9450
5.031001 0.9470 0.9480 0.9480 0.9480 0.9450
5.062000 0.9420 0.9400 0.9390 0.9370 0.9360
5.093001 0.9340 0.9330 0.9310 0.9310 0.9330
5.124000 0.9340 0.9360 0.9370 0.9370 0.9360
5.155001 0.9360 0.9340 0.9330 0.9360 0.9360
5.185000 0.9360 0.9360 0.9360 0.9340 0.9330
5.216001 0.9330 0.9330 0.9330 0.9330 0.9340
5.247000 0.9330 0.9330 0.9330 0.9310 0.9330
5.278001 0.9330 0.9330 0.9310 0.9280 0.9280
5.309000 0.9260 0.9260 0.9250 0.9250 0.9250
5.340001 0.9220 0.9230 0.9220 0.9200 0.9200
5.371000 0.9190 0.9170 0.9160 0.9160 0.9140
5.402001 0.9090 0.9080 0.9080 0.9170 0.9170
5.433000 0.9110 0.9030 0.9020 0.9000 0.9000
5.464001 0.9000 0.8970 0.8920 0.8860 0.8800
5.495000 0.8700 0.8610 0.8520 0.8440 0.8330
5.526001 0.8220 0.8050 0.7850 0.7570 0.7160
5.557000 0.6680 0.6140 0.5620 0.5300 0.5100
5.588001 0.4890 0.4380 0.3840 0.3180 0.2530
5.619000 0.1910 0.1430 0.1100 0.0900 0.0740
5.650001 0.0660 0.0550 0.0400 0.0350 0.0350
5.681000 0.0400 0.0520 0.0690 0.0930 0.1240
5.712001 0.1600 0.2000 0.2480 0.3000 0.3570
5.743000 0.3910 0.4350 0.4610 0.4910 0.5390
5.774001 0.5590 0.5800 0.5970 0.6120 0.6260
5.805000 0.6400 0.6540 0.6670 0.6780 0.6880
5.836001 0.6980 0.7060 0.7100 0.7120 0.7150
5.867000 0.7230 0.7340 0.7440 0.7490 0.7580
5.898001 0.7680 0.7690 0.7570 0.7570 0.7660
5.929000 0.7760 0.7880 0.7910 0.7940 0.7970
5.960001 0.7990 0.8000 0.7990 0.8020 0.8040
5.991000 0.8130 0.8210 0.8240 0.8270 0.8270
6.022001 0.8280 0.8300 0.8300 0.8280 0.8280
6.053000 0.8250 0.8250 0.8270 0.8270 0.8270
6.084001 0.8270 0.8270 0.8300 0.8320 0.8320
6.115000 0.8320 0.8320 0.8320 0.8320 0.8280
6.146001 0.8210 0.8220 0.8270 0.8300 0.8320
6.177000 0.8280 0.8300 0.8320 0.8350 0.8380
6.208001 0.8420 0.8470 0.8550 0.8600 0.8610
6.239000 0.8660 0.8690 0.8700 0.8700 0.8720
6.270001 0.8720 0.8740 0.8750 0.8770 0.8770
6.301000 0.8800 0.8810 0.8810 0.8750 0.8770
6.332001 0.8800 0.8830 0.8860 0.8880 0.8860
6.363000 0.8840 0.8770 0.8780 0.8780 0.8780
6.394001 0.8780 0.8780 0.8860 0.8860 0.8840
6.425000 0.8750 0.8690 0.8670 0.8670 0.8740
6.456001 0.8720 0.8670 0.8640 0.8550 0.8520
6.487000 0.8550 0.8600 0.8640 0.8660 0.8690
6.518001 0.8640 0.8670 0.8670 0.8700 0.8720
6.549000 0.8750 0.8780 0.8800 0.8780 0.8780
6.580001 0.8780 0.8780 0.8800 0.8800 0.8770
6.611000 0.8700 0.8690 0.8630 0.8610 0.8690
6.642001 0.8690 0.8690 0.8660 0.8610 0.8630
6.673000 0.8630 0.8610 0.8600 0.8580 0.8550
6.704001 0.8520 0.8530 0.8550 0.8530 0.8500
6.735000 0.8530 0.8520 0.8490 0.8440 0.8350
6.766001 0.8270 0.8220 0.8190 0.8180 0.8140
6.797000 0.8130 0.8100 0.8070 0.7970 0.7960
6.828001 0.7850 0.7720 0.7540 0.7440 0.7370
6.859000 0.7300 0.7230 0.7070 0.6850 0.6700
6.890001 0.6460 0.6310 0.6010 0.5840 0.5720
6.921000 0.5500 0.5250 0.5030 0.4970 0.4890
6.952001 0.4690 0.4650 0.4660 0.4680 0.4720
6.983000 0.4790 0.4890 0.5200 0.5360 0.5480
7.014001 0.5550 0.5620 0.5900 0.5980 0.6120
7.045000 0.6200 0.6320 0.6450 0.6570 0.6650
7.076001 0.6730 0.6780 0.6900 0.7020 0.7060
7.107000 0.7100 0.7160 0.7260 0.7300 0.7350
7.138001 0.7410 0.7540 0.7600 0.7630 0.7660
7.169000 0.7660 0.7680 0.7710 0.7760 0.7830
7.200001 0.7860 0.7900 0.7930 0.7960 0.7960
7.231000 0.8000 0.8000 0.8020 0.8020 0.8050
7.262001 0.8070 0.8100 0.8180 0.8220 0.8140
7.293000 0.8140 0.8160 0.8180 0.8180 0.8210
7.324001 0.8280 0.8300 0.8220 0.8220 0.8280
7.355000 0.8280 0.8280 0.8280 0.8280 0.8280
7.386001 0.8280 0.8270 0.8220 0.8180 0.8160
7.417000 0.8190 0.8220 0.8220 0.8250 0.8250
7.448001 0.8240 0.8210 0.8180 0.8210 0.8180
7.479000 0.8160 0.8140 0.8190 0.8190 0.8180
7.510001 0.8180 0.8180 0.8180 0.8160 0.8130
7.541000 0.8110 0.8100 0.8080 0.8080 0.8050
7.572001 0.8040 0.7990 0.7990 0.7960 0.7940
7.602000 0.7900 0.7850 0.7790 0.7680 0.7600
7.633001 0.7580 0.7550 0.7480 0.7400 0.7320
7.664000 0.7240 0.7150 0.7040 0.6950 0.6820
7.695001 0.6680 0.6560 0.6510 0.6460 0.6360
7.726000 0.6200 0.6090 0.6000 0.5870 0.5750
7.757001 0.5610 0.5500 0.5390 0.5240 0.5140
7.788000 0.5080 0.4940 0.4790 0.4750 0.4690
7.819001 0.4610 0.4460 0.4330 0.4230 0.4120
7.850000 0.3990 0.3850 0.3730 0.3590 0.3450
7.881001 0.3310 0.3170 0.3000 0.2750 0.2610
7.912000 0.2550 0.2510 0.2450 0.2330 0.2160
7.943001 0.2080 0.2000 0.1970 0.1970 0.1950
7.974000 0.1950 0.1940 0.1940 0.1920 0.1910
8.005001 0.1890 0.1860 0.1830 0.1800 0.1770
8.036000 0.1750 0.1740 0.1710 0.1690 0.1690
8.067001 0.1690 0.1690 0.1690 0.1710 0.1710
8.098000 0.1710 0.1690 0.1630 0.1520 0.1430
8.129001 0.1320 0.1220 0.1130 0.1050 0.0970
8.160000 0.0900 0.0830 0.0790 0.0740 0.0730
8.191001 0.0710 0.0730 0.0760 0.0740 0.0740
8.222000 0.0730 0.0710 0.0680 0.0630 0.0600
8.253001 0.0550 0.0510 0.0480 0.0450 0.0410
8.284000 0.0370 0.0400 0.0410 0.0400 0.0380
8.315001 0.0350 0.0320 0.0290 0.0270 0.0270
8.346000 0.0290 0.0310 0.0320 0.0340 0.0340
8.377001 0.0350 0.0350 0.0350 0.0350 0.0350
8.408000 0.0340 0.0340 0.0340 0.0320 0.0310
8.439001 0.0310 0.0320 0.0340 0.0350 0.0370
8.470000 0.0370 0.0370 0.0290 0.0290 0.0310
8.501001 0.0430 0.0460 0.0310 0.0310 0.0310
8.532000 0.0340 0.0350 0.0380 0.0380 0.0380
8.563001 0.0380 0.0400 0.0400 0.0400 0.0410
8.594000 0.0450 0.0490 0.0490 0.0520 0.0520
8.625001 0.0520 0.0550 0.0570 0.0590 0.0600
8.656000 0.0620 0.0630 0.0650 0.0660 0.0690
8.687001 0.0710 0.0710 0.0760 0.0760 0.0770
8.718000 0.0790 0.0820 0.0870 0.0940 0.1010
8.749001 0.1040 0.1040 0.0930 0.0910 0.0930
8.780000 0.0960 0.0970 0.0970 0.0960 0.0940
8.811001 0.0930 0.0900 0.0870 0.0820 0.0760
8.842000 0.0760 0.0730 0.0690 0.0680 0.0690
8.873001 0.0760 0.0800 0.0830 0.0850 0.0850
8.904000 0.0870 0.0900 0.0940 0.1020 0.1100
8.935001 0.1180 0.1290 0.1410 0.1530 0.1660
8.966000 0.1740 0.1800 0.1850 0.1910 0.1990
8.997001 0.2080 0.2160 0.2250 0.2330 0.2420
9.028000 0.2500 0.2550 0.2610 0.2670 0.2700
9.059001 0.2750 0.2780 0.2790 0.2860 0.2950
9.090000 0.3000 0.3070 0.3200 0.3320 0.3430
9.121001 0.3560 0.3700 0.3820 0.3960 0.4090
9.152000 0.4230 0.4370 0.4510 0.4650 0.4720
9.183001 0.4770 0.4820 0.4830 0.4880 0.4910
9.214000 0.4930 0.4940 0.4940 0.4930 0.4910
9.245001 0.4890 0.4880 0.4850 0.4800 0.4750
9.276000 0.4720 0.4710 0.4850 0.4930 0.4970
9.307001 0.4990 0.5140 0.5270 0.5310 0.5340
9.338000 0.5360 0.5380 0.5420 0.5440 0.5420
9.369001 0.5380 0.5330 0.5250 0.5240 0.5190
9.400000 0.5060 0.4990 0.4890 0.4690 0.4630
9.431001 0.4540 0.4430 0.4320 0.4180 0.4010
9.462000 0.3840 0.3650 0.3450 0.3280 0.3120
9.493001 0.3000 0.2920 0.2640 0.2420 0.2300
9.524000 0.2200 0.2060 0.1950 0.1850 0.1750
9.555001 0.1660 0.1530 0.1440 0.1350 0.1320
9.586000 0.1320 0.1320 0.1320 0.1320 0.1330
9.617001 0.1430 0.1460 0.1600 0.1720 0.1910
9.648000 0.2060 0.2170 0.2220 0.2330 0.2440
9.679001 0.2580 0.2720 0.2830 0.2950 0.2980
9.710000 0.3000 0.3010 0.3030 0.3040 0.3090
9.741001 0.3140 0.3150 0.3170 0.3180 0.3200
9.772000 0.3230 0.3280 0.3340 0.3430 0.3480
9.803001 0.3600 0.3630 0.3810 0.4020 0.4190
9.834000 0.4400 0.4540 0.4750 0.4910 0.5240
9.865001 0.5410 0.5520 0.5670 0.5800 0.5920
9.896000 0.6010 0.6090 0.6140 0.6230 0.6310
9.927001 0.6390 0.6430 0.6460 0.6500 0.6530
9.958000 0.6560 0.6600 0.6670 0.6700 0.6780
9.989001 0.6810 0.6840 0.6870 0.6900 0.6900
10.019000 0.6900 0.6900 0.6900 0.6900 0.6900
10.050001 0.6880 0.6820 0.6780 0.6680 0.6620
10.081000 0.6560 0.6480 0.6420 0.6250 0.6060
10.112001 0.5970 0.5840 0.5730 0.5530 0.5270
10.143000 0.5060 0.4990 0.4890 0.4720 0.4550
10.174001 0.4400 0.4240 0.4050 0.3850 0.3630
10.205000 0.3390 0.3090 0.2750 0.2640 0.2470
10.236001 0.2300 0.2090 0.1910 0.1720 0.1570
10.267000 0.1500 0.1430 0.1330 0.1220 0.1080
10.298001 0.1070 0.1070 0.1080 0.1110 0.1180
10.329000 0.1240 0.1300 0.1390 0.1490 0.1570
10.360001 0.1660 0.1750 0.1880 0.2000 0.2130
10.391000 0.2200 0.2250 0.2280 0.2300 0.2310
10.422001 0.2330 0.2340 0.2370 0.2390 0.2440
10.453000 0.2500 0.2560 0.2650 0.2720 0.2780
10.484001 0.2890 0.2980 0.3090 0.3180 0.3260
10.515000 0.3320 0.3320 0.3320 0.3320 0.3310
10.546001 0.3260 0.3170 0.3090 0.2970 0.2870
10.577000 0.2780 0.2720 0.2690 0.2640 0.2610
10.608001 0.2610 0.2650 0.2700 0.2720 0.2790
10.639000 0.2900 0.2980 0.3070 0.3140 0.3210
10.670001 0.3280 0.3310 0.3320 0.3340 0.3370
10.701000 0.3390 0.3400 0.3390 0.3290 0.3230
10.732001 0.3210 0.3200 0.3200 0.3150 0.3110
10.763000 0.3090 0.3090 0.3110 0.3180 0.3210
10.794001 0.3280 0.3370 0.3450 0.3540 0.3590
10.825000 0.3590 0.3600 0.3680 0.3710 0.3680
10.856001 0.3650 0.3600 0.3590 0.3540 0.3530
10.887000 0.3510 0.3490 0.3450 0.3420 0.3420
10.918001 0.3450 0.3490 0.3510 0.3510 0.3510
10.949000 0.3510 0.3490 0.3480 0.3480 0.3460
10.980001 0.3460 0.3450 0.3430 0.3430 0.3420
11.011000 0.3400 0.3390 0.3340 0.3310 0.3280
11.042001 0.3230 0.3210 0.3200 0.3170 0.3140
11.073000 0.3110 0.3090 0.3110 0.3170 0.3290
11.104001 0.3370 0.3420 0.3460 0.3530 0.3570
11.135000 0.3650 0.3740 0.3870 0.3880 0.3930
11.166001 0.3990 0.4070 0.4130 0.4180 0.4190
11.197000 0.4230 0.4260 0.4290 0.4320 0.4370
11.228001 0.4400 0.4460 0.4490 0.4510 0.4490
11.259000 0.4470 0.4510 0.4550 0.4610 0.4630
11.290001 0.4600 0.4600 0.4600 0.4600 0.4600
11.321000 0.4610 0.4650 0.4680 0.4650 0.4690
11.352001 0.4740 0.4800 0.4830 0.4850 0.4820
11.383000 0.4850 0.4880 0.4910 0.4960 0.5000
11.414001 0.4990 0.4960 0.5050 0.5100 0.5140
11.445000 0.5140 0.5080 0.5060 0.5050 0.5020
11.476001 0.5000 0.4990 0.4960 0.4910 0.4860
11.507000 0.4800 0.4710 0.4680 0.4630 0.4550
11.538001 0.4520 0.4490 0.4470 0.4400 0.4300
11.569000 0.4270 0.4270 0.4320 0.4320 0.4320
11.600001 0.4320 0.4300 0.4260 0.4240 0.4290
11.631000 0.4290 0.4270 0.4270 0.4240 0.4230
11.662001 0.4270 0.4270 0.4270 0.4270 0.4270
11.693000 0.4260 0.4240 0.4240 0.4230 0.4180
11.724001 0.4150 0.4050 0.4010 0.4090 0.4090
11.755000 0.4130 0.4130 0.4100 0.4050 0.3960
11.786001 0.3960 0.3990 0.4040 0.4100 0.4120
11.817000 0.4120 0.4010 0.4010 0.4010 0.4070
11.848001 0.4120 0.4190 0.4230 0.4260 0.4270
11.879000 0.4300 0.4320 0.4380 0.4460 0.4540
11.910001 0.4710 0.4750 0.4770 0.4800 0.4850
11.941000 0.4930 0.5110 0.5190 0.5280 0.5340
11.972001 0.5380 0.5410 0.5450 0.5500 0.5560
12.003000 0.5620 0.5670 0.5690 0.5690 0.5720
12.034001 0.5760 0.5800 0.5830 0.5870 0.5900
12.065000 0.5920 0.5950 0.5970 0.5970 0.5980
12.096001 0.6000 0.6030 0.6030 0.6040 0.6040
12.127000 0.6040 0.6040 0.6060 0.6080 0.6080
12.158001 0.6080 0.6080 0.6090 0.6110 0.6110
12.189000 0.6110 0.6090 0.6080 0.6080 0.6080
12.220001 0.6060 0.6060 0.6040 0.6040 0.6030
12.251000 0.6030 0.6030 0.6010 0.6000 0.6000
12.282001 0.5970 0.5940 0.5900 0.5900 0.5940
12.313000 0.5940 0.5940 0.5940 0.5940 0.5920
12.344001 0.5920 0.5870 0.5840 0.5830 0.5810
12.375000 0.5780 0.5730 0.5720 0.5720 0.5750
12.406001 0.5730 0.5670 0.5670 0.5640 0.5580
12.436000 0.5610 0.5580 0.5550 0.5480 0.5470
12.467001 0.5440 0.5410 0.5380 0.5380 0.5310
12.498000 0.5340 0.5340 0.5380 0.5340 0.5340
12.529001 0.5270 0.5220 0.5220 0.5240 0.5250
12.560000 0.5330 0.5310 0.5270 0.5240 0.5200
12.591001 0.5190 0.5190 0.5160 0.5110 0.5060
12.622000 0.5050 0.5020 0.5000 0.4990 0.4970
12.653001 0.4960 0.4930 0.4910 0.4880 0.4890
12.684000 0.4910 0.4890 0.4890 0.4880 0.4800
12.715001 0.4790 0.4800 0.4820 0.4860 0.4860
12.746000 0.4860 0.4860 0.4830 0.4770 0.4770
12.777001 0.4790 0.4820 0.4880 0.4930 0.4930
12.808000 0.4850 0.4850 0.4850 0.4880 0.4930
12.839001 0.4940 0.4940 0.4960 0.4970 0.4990
12.870000 0.5030 0.5030 0.5030 0.5050 0.5050
12.901001 0.5060 0.5080 0.5100 0.5110 0.5140
12.932000 0.5170 0.5200 0.5220 0.5240 0.5250
12.963001 0.5240 0.5170 0.5170 0.5200 0.5240
12.994000 0.5250 0.5270 0.5300 0.5310 0.5330
13.025001 0.5330 0.5340 0.5380 0.5380 0.5310
13.056000 0.5310 0.5340 0.5360 0.5390 0.5410
13.087001 0.5440 0.5470 0.5470 0.5450 0.5440
13.118000 0.5420 0.5420 0.5410 0.5410 0.5420
13.149001 0.5440 0.5450 0.5480 0.5520 0.5520
13.180000 0.5530 0.5530 0.5560 0.5610 0.5690
13.211001 0.5720 0.5670 0.5700 0.5700 0.5720
13.242000 0.5750 0.5760 0.5730 0.5700 0.5720
13.273001 0.5720 0.5700 0.5690 0.5670 0.5640
13.304000 0.5620 0.5620 0.5610 0.5610 0.5590
13.335001 0.5580 0.5550 0.5470 0.5390 0.5380
13.366000 0.5410 0.5410 0.5380 0.5300 0.5240
13.397001 0.5190 0.5160 0.5140 0.5110 0.5110
13.428000 0.5100 0.5100 0.5080 0.5030 0.5000
13.459001 0.5000 0.4990 0.4970 0.4960 0.4940
13.490000 0.4930 0.4910 0.4890 0.4890 0.4890
13.521001 0.4860 0.4850 0.4830 0.4800 0.4770
13.552000 0.4750 0.4740 0.4720 0.4740 0.4720
13.583001 0.4710 0.4690 0.4690 0.4710 0.4720
13.614000 0.4790 0.4800 0.4820 0.4830 0.4860
13.645001 0.4940 0.4990 0.5020 0.5020 0.5030
13.676000 0.5060 0.5100 0.5160 0.5270 0.5280
13.707001 0.5300 0.5270 0.5280 0.5300 0.5330
13.738000 0.5360 0.5300 0.5300 0.5340 0.5340
13.769001 0.5310 0.5310 0.5310 0.5310 0.5310
13.800000 0.5340 0.5440 0.5440 0.5360 0.5380
13.831001 0.5380 0.5380 0.5390 0.5420 0.5420
13.862000 0.5420 0.5300 0.5300 0.5340 0.5390
13.893001 0.5420 0.5420 0.5420 0.5410 0.5410
13.924000 0.5390 0.5380 0.5380 0.5380 0.5340
13.955001 0.5300 0.5240 0.5220 0.5220 0.5280
13.986000 0.5280 0.5270 0.5240 0.5200 0.5130
14.017001 0.5060 0.5060 0.5080 0.5190 0.5170
14.048000 0.5140 0.5080 0.5060 0.5030 0.5000
14.079001 0.5000 0.4990 0.4970 0.4940 0.4940
14.110000 0.4910 0.4910 0.4910 0.4910 0.4930
14.141001 0.4930 0.4930 0.4910 0.4890 0.4880
14.172000 0.4830 0.4770 0.4720 0.4690 0.4650
14.203001 0.4720 0.4690 0.4680 0.4650 0.4600
14.234000 0.4650 0.4630 0.4610 0.4580 0.4520
14.265001 0.4470 0.4380 0.4320 0.4320 0.4350
14.296000 0.4350 0.4330 0.4320 0.4290 0.4190
14.327001 0.4190 0.4290 0.4290 0.4270 0.4230
14.358000 0.4190 0.4190 0.4180 0.4160 0.4120
14.389001 0.4070 0.4050 0.4020 0.4010 0.4020
14.420000 0.4040 0.4050 0.4070 0.4070 0.4070
14.451001 0.4040 0.3980 0.3950 0.3950 0.3980
14.482000 0.4020 0.4050 0.4120 0.4150 0.4130
14.513001 0.4120 0.4070 0.4070 0.4090 0.4100
14.544000 0.4120 0.4120 0.4130 0.4130 0.4130
14.575001 0.4150 0.4150 0.4150 0.4160 0.4190
14.606000 0.4230 0.4290 0.4290 0.4270 0.4180
14.637001 0.4160 0.4180 0.4180 0.4190 0.4210
14.668000 0.4260 0.4270 0.4270 0.4240 0.4180
14.699001 0.4180 0.4180 0.4180 0.4180 0.4190
14.730000 0.4240 0.4300 0.4350 0.4350 0.4370
14.761001 0.4370 0.4380 0.4380 0.4400 0.4410
14.792000 0.4430 0.4460 0.4510 0.4550 0.4580
14.823001 0.4610 0.4660 0.4690 0.4710 0.4720
14.853000 0.4740 0.4750 0.4770 0.4770 0.4790
14.884001 0.4790 0.4790 0.4790 0.4800 0.4830
14.915000 0.4930 0.5030 0.5080 0.5100 0.5100
14.946001 0.5130 0.5140 0.5160 0.5190 0.5200
14.977000 0.5220 0.5220 0.5220 0.5250 0.5270
15.008001 0.5300 0.5340 0.5340 0.5380 0.5390
15.039000 0.5410 0.5470 0.5500 0.5530 0.5590
15.070001 0.5670 0.5720 0.5720 0.5700 0.5640
15.101000 0.5590 0.5590 0.5610 0.5640 0.5660
15.132001 0.5670 0.5690 0.5690 0.5670 0.5660
15.163000 0.5620 0.5610 0.5610 0.5640 0.5660
15.194001 0.5690 0.5720 0.5750 0.5760 0.5780
15.225000 0.5800 0.5810 0.5810 0.5830 0.5840
15.256001 0.5860 0.5860 0.5870 0.5870 0.5870
15.287000 0.5870 0.5870 0.5860 0.5860 0.5860
15.318001 0.5840 0.5840 0.5830 0.5830 0.5810
15.349000 0.5800 0.5760 0.5720 0.5670 0.5640
15.380001 0.5660 0.5670 0.5660 0.5660 0.5610
15.411000 0.5580 0.5560 0.5560 0.5580 0.5580
15.442001 0.5550 0.5520 0.5500 0.5440 0.5410
15.473000 0.5380 0.5360 0.5340 0.5330 0.5310
15.504001 0.5310 0.5310 0.5330 0.5330 0.5340
15.535000 0.5360 0.5360 0.5380 0.5380 0.5380
15.566001 0.5380 0.5380 0.5380 0.5380 0.5390
15.597000 0.5420 0.5420 0.5410 0.5410 0.5410
15.628001 0.5410 0.5450 0.5480 0.5520 0.5550
15.659000 0.5560 0.5580 0.5610 0.5620 0.5660
15.690001 0.5670 0.5690 0.5700 0.5700 0.5720
15.721000 0.5720 0.5730 0.5730 0.5670 0.5700
15.752001 0.5800 0.5780 0.5730 0.5670 0.5640
15.783000 0.5660 0.5700 0.5750 0.5800 0.5840
15.814001 0.5870 0.5890 0.5920 0.5940 0.5920
15.845000 0.5900 0.5900 0.5890 0.5860 0.5840
15.876001 0.5840 0.5840 0.5870 0.5920 0.5970
15.907000 0.6000 0.6030 0.6030 0.5970 0.5970
15.938001 0.5970 0.5980 0.6040 0.6060 0.6080
15.969000 0.6080 0.6080 0.6080 0.6040 0.6010
16.000001 0.6000 0.5950 0.6000
##END=
