##TITLE=o-METHYLAMPHETAMINE, SULFATE
##JCAMP-DX=4.24
##DATA TYPE=INFRARED SPECTRUM
##CLASS=COBLENTZ III
##ORIGIN=SMITH KLINE & FRENCH LABS.
##OWNER=Copyright (C) 1987 by the Coblentz Society
Collection (C) 2018 copyright by the U.S. Secretary of Commerce
on behalf of the United States of America. All rights reserved.
##DATE=1962/01/24
##NAMES=Phenethylamine, o,a-dimethyll-,sulfate (2 to 1)
##MOLFORM=C20 H32 N2 O4 S
##SOURCE REFERENCE=COBLENTZ NO. 9110
##$NIST ID=B6009110
##$NIST SOURCE=COBLENTZ
##$NIST IMAGE=cob9110
##SPECTROMETER/DATA SYSTEM=PERKIN-ELMER 21 (GRATING)
##INSTRUMENT PARAMETERS=NaCl PRISM
##STATE=SOLID (OIL MULL)
$$SPECTRAL CONTAMINATION DUE TO OIL AROUND 2900, 1450, 1380 CM^-^1
##SAMPLING PROCEDURE=TRANSMISSION
##RESOLUTION=2
##DATA PROCESSING=DIGITIZED BY COBLENTZ SOCIETY (BATCH II) FROM HARD COPY
##XUNITS=1/CM
##YUNITS=TRANSMITTANCE
##XFACTOR=1.0
##YFACTOR=1
##FIRSTX=653
##LASTX=4000
##FIRSTY=0.7115
##MAXX=4000
##MINX=653
##MAXY=0.8673
##MINY=0.0519
##NPOINTS=3348
##XYDATA=(X++(Y..Y))
653.000000 0.7115 0.7168 0.7218 0.7261 0.7308
658.000000 0.7357 0.7405 0.7452 0.7493 0.7534
663.000000 0.7573 0.7608 0.7644 0.7672 0.7685
668.000000 0.7698 0.7712 0.7724 0.7731 0.7737
673.000000 0.7744 0.7750 0.7757 0.7762 0.7767
678.000000 0.7772 0.7777 0.7789 0.7801 0.7815
683.000000 0.7828 0.7843 0.7858 0.7873 0.7887
688.000000 0.7901 0.7915 0.7928 0.7936 0.7938
693.000000 0.7949 0.7964 0.7964 0.7938 0.7885
698.000000 0.7833 0.7800 0.7797 0.7813 0.7839
703.000000 0.7870 0.7892 0.7908 0.7923 0.7928
708.000000 0.7929 0.7928 0.7892 0.7844 0.7767
713.000000 0.7663 0.7498 0.7480 0.7485 0.7460
718.000000 0.7363 0.7373 0.7391 0.7402 0.7413
723.000000 0.7429 0.7446 0.7382 0.7287 0.7233
728.000000 0.7112 0.6946 0.6829 0.6580 0.6106
733.000000 0.5270 0.4425 0.3659 0.2103 0.2052
738.000000 0.2025 0.2498 0.2550 0.2587 0.2661
743.000000 0.2837 0.3265 0.3418 0.3595 0.4249
748.000000 0.4916 0.5615 0.6408 0.6670 0.6875
753.000000 0.6969 0.7008 0.7055 0.6954 0.6706
758.000000 0.6503 0.6498 0.6583 0.6784 0.6841
763.000000 0.6633 0.6369 0.6342 0.6937 0.7301
768.000000 0.7517 0.7696 0.7839 0.7964 0.8039
773.000000 0.8100 0.8142 0.8156 0.8159 0.8159
778.000000 0.8156 0.8161 0.8281 0.8342 0.8376
783.000000 0.8398 0.8421 0.8436 0.8446 0.8457
788.000000 0.8481 0.8500 0.8508 0.8517 0.8519
793.000000 0.8521 0.8522 0.8468 0.8523 0.8522
798.000000 0.8516 0.8501 0.8486 0.8470 0.8451
803.000000 0.8430 0.8411 0.8394 0.8377 0.8361
808.000000 0.8347 0.8335 0.8324 0.8312 0.8300
813.000000 0.8287 0.8274 0.8259 0.8247 0.8239
818.000000 0.8231 0.8245 0.8265 0.8204 0.8140
823.000000 0.8087 0.8128 0.8191 0.8246 0.8254
828.000000 0.8228 0.8161 0.8049 0.7940 0.7848
833.000000 0.7798 0.7801 0.7804 0.7798 0.7863
838.000000 0.7918 0.8006 0.8060 0.8062 0.8055
843.000000 0.8046 0.8020 0.8032 0.8050 0.8084
848.000000 0.8111 0.8138 0.8158 0.8176 0.8194
853.000000 0.8211 0.8229 0.8247 0.8265 0.8270
858.000000 0.8252 0.8224 0.8178 0.8143 0.8137
863.000000 0.8137 0.8140 0.8110 0.8093 0.8094
868.000000 0.8135 0.8191 0.8212 0.8216 0.8220
873.000000 0.8222 0.8225 0.8225 0.8224 0.8216
878.000000 0.8207 0.8191 0.8175 0.8158 0.8146
883.000000 0.8140 0.8130 0.8117 0.8095 0.8060
888.000000 0.8019 0.7967 0.7911 0.7845 0.7777
893.000000 0.7698 0.7624 0.7569 0.7575 0.7593
898.000000 0.7624 0.7677 0.7718 0.7739 0.7744
903.000000 0.7755 0.7780 0.7806 0.7826 0.7812
908.000000 0.7837 0.7771 0.7753 0.7738 0.7723
913.000000 0.7708 0.7693 0.7677 0.7661 0.7644
918.000000 0.7622 0.7594 0.7560 0.7526 0.7492
923.000000 0.7456 0.7417 0.7378 0.7323 0.7280
928.000000 0.7244 0.7210 0.7185 0.7161 0.7137
933.000000 0.7114 0.7094 0.7077 0.7070 0.7098
938.000000 0.7080 0.7237 0.7261 0.7252 0.7237
943.000000 0.7216 0.7234 0.7169 0.7139 0.7105
948.000000 0.7071 0.7035 0.6999 0.6959 0.6919
953.000000 0.6879 0.6835 0.6790 0.6746 0.6671
958.000000 0.6588 0.6491 0.6392 0.6296 0.6201
963.000000 0.6094 0.5986 0.5891 0.5839 0.5827
968.000000 0.5808 0.5866 0.5949 0.6041 0.6104
973.000000 0.6177 0.6196 0.6198 0.6211 0.6184
978.000000 0.6170 0.6134 0.6096 0.6044 0.5991
983.000000 0.5933 0.5870 0.5800 0.5730 0.5653
988.000000 0.5571 0.5476 0.5398 0.5320 0.5242
993.000000 0.5164 0.5086 0.4988 0.4897 0.4832
998.000000 0.4806 0.4786 0.4758 0.4699 0.4599
1003.000000 0.4494 0.4405 0.4332 0.4288 0.4245
1008.000000 0.4205 0.4174 0.4143 0.4112 0.4080
1013.000000 0.4042 0.3982 0.3921 0.3863 0.3807
1018.000000 0.3753 0.3697 0.3640 0.3582 0.3525
1023.000000 0.3448 0.3364 0.3280 0.3197 0.3116
1028.000000 0.3034 0.2954 0.2880 0.2807 0.2735
1033.000000 0.2663 0.2589 0.2509 0.2441 0.2243
1038.000000 0.1921 0.1728 0.1567 0.1424 0.1318
1043.000000 0.1233 0.1200 0.1169 0.1149 0.1131
1048.000000 0.1112 0.1095 0.1077 0.1059 0.1041
1053.000000 0.1023 0.1006 0.0988 0.0970 0.0957
1058.000000 0.0951 0.0947 0.0955 0.0966 0.0997
1063.000000 0.0982 0.0990 0.1001 0.1019 0.1037
1068.000000 0.1063 0.1089 0.1112 0.1136 0.1153
1073.000000 0.1164 0.1176 0.1181 0.1181 0.1181
1078.000000 0.1179 0.1170 0.1162 0.1155 0.1148
1083.000000 0.1142 0.1141 0.1150 0.1170 0.1211
1088.000000 0.1263 0.1329 0.1444 0.1584 0.1720
1093.000000 0.1846 0.1945 0.1993 0.2021 0.2048
1098.000000 0.2072 0.2088 0.2108 0.2156 0.2204
1103.000000 0.2260 0.2325 0.2379 0.2422 0.2430
1108.000000 0.2437 0.2435 0.2430 0.2423 0.2412
1113.000000 0.2401 0.2383 0.2361 0.2339 0.2326
1118.000000 0.2325 0.2325 0.2333 0.2341 0.2348
1123.000000 0.2348 0.2347 0.2346 0.2347 0.2348
1128.000000 0.2349 0.2355 0.2363 0.2371 0.2380
1133.000000 0.2387 0.2395 0.2401 0.2405 0.2411
1138.000000 0.2416 0.2409 0.2368 0.2326 0.2283
1143.000000 0.2236 0.2190 0.2155 0.2123 0.2095
1148.000000 0.2087 0.2079 0.2079 0.2079 0.2113
1153.000000 0.2155 0.2235 0.2336 0.2488 0.2671
1158.000000 0.2850 0.3028 0.3207 0.3385 0.3562
1163.000000 0.3731 0.3867 0.4053 0.4221 0.4325
1168.000000 0.4415 0.4499 0.4581 0.4696 0.4977
1173.000000 0.5118 0.5242 0.5378 0.5454 0.5540
1178.000000 0.5619 0.5664 0.5679 0.5687 0.5694
1183.000000 0.5700 0.5713 0.5744 0.5833 0.5929
1188.000000 0.6018 0.6111 0.6176 0.6199 0.6208
1193.000000 0.6207 0.6178 0.6174 0.6143 0.6125
1198.000000 0.6112 0.6101 0.6089 0.6081 0.6073
1203.000000 0.6064 0.6056 0.6005 0.5874 0.5782
1208.000000 0.5725 0.5692 0.5596 0.5475 0.5340
1213.000000 0.5205 0.5125 0.5061 0.5022 0.4989
1218.000000 0.4924 0.4836 0.4724 0.4675 0.4664
1223.000000 0.4692 0.4771 0.4869 0.4968 0.5066
1228.000000 0.5164 0.5261 0.5359 0.5456 0.5553
1233.000000 0.5651 0.5747 0.5827 0.5894 0.5882
1238.000000 0.5875 0.5873 0.5867 0.5859 0.5845
1243.000000 0.5832 0.5820 0.5810 0.5799 0.5790
1248.000000 0.5783 0.5779 0.5794 0.5824 0.5853
1253.000000 0.5898 0.5979 0.6259 0.6615 0.6715
1258.000000 0.6766 0.6806 0.6840 0.6863 0.6882
1263.000000 0.6876 0.6864 0.6853 0.6845 0.6874
1268.000000 0.6910 0.6943 0.6958 0.6971 0.6984
1273.000000 0.6999 0.7034 0.7068 0.7102 0.7123
1278.000000 0.7136 0.7137 0.7136 0.7132 0.7132
1283.000000 0.7148 0.7172 0.7194 0.7211 0.7219
1288.000000 0.7212 0.7210 0.7206 0.7201 0.7196
1293.000000 0.7191 0.7184 0.7177 0.7171 0.7163
1298.000000 0.7153 0.7141 0.7130 0.7117 0.7103
1303.000000 0.7088 0.7073 0.7057 0.7030 0.6999
1308.000000 0.6952 0.6896 0.6807 0.6716 0.6655
1313.000000 0.6604 0.6560 0.6518 0.6480 0.6448
1318.000000 0.6422 0.6403 0.6391 0.6398 0.6393
1323.000000 0.6420 0.6458 0.6494 0.6536 0.6580
1328.000000 0.6614 0.6634 0.6639 0.6640 0.6630
1333.000000 0.6594 0.6554 0.6519 0.6490 0.6470
1338.000000 0.6456 0.6443 0.6436 0.6431 0.6371
1343.000000 0.6286 0.6219 0.6154 0.6076 0.6017
1348.000000 0.5967 0.5900 0.5821 0.5725 0.5615
1353.000000 0.5515 0.5442 0.5399 0.5370 0.5327
1358.000000 0.5206 0.5065 0.4925 0.4785 0.4646
1363.000000 0.4507 0.4365 0.4183 0.3994 0.3867
1368.000000 0.3773 0.3675 0.3504 0.3326 0.3148
1373.000000 0.2971 0.2788 0.2691 0.2677 0.2699
1378.000000 0.2820 0.2971 0.3122 0.3272 0.3423
1383.000000 0.3543 0.3571 0.3587 0.3594 0.3599
1388.000000 0.3604 0.3611 0.3639 0.3881 0.4265
1393.000000 0.4650 0.5034 0.5417 0.5801 0.6183
1398.000000 0.6462 0.6592 0.6926 0.7036 0.7100
1403.000000 0.7147 0.7191 0.7226 0.7243 0.7250
1408.000000 0.7253 0.7245 0.7224 0.7184 0.7132
1413.000000 0.7084 0.7057 0.7026 0.6973 0.6885
1418.000000 0.6786 0.6715 0.6655 0.6603 0.6549
1423.000000 0.6506 0.6467 0.6422 0.6369 0.6305
1428.000000 0.6135 0.5950 0.5766 0.5581 0.5398
1433.000000 0.5214 0.5030 0.4847 0.4665 0.4482
1438.000000 0.4299 0.4116 0.3934 0.3795 0.3681
1443.000000 0.3542 0.3390 0.3247 0.3117 0.3010
1448.000000 0.2903 0.2760 0.2391 0.2252 0.2133
1453.000000 0.1994 0.1908 0.1844 0.1799 0.1760
1458.000000 0.1733 0.1706 0.1690 0.1689 0.1692
1463.000000 0.1696 0.1703 0.1718 0.1770 0.1841
1468.000000 0.1924 0.2013 0.2146 0.2454 0.2782
1473.000000 0.3070 0.3356 0.3643 0.3929 0.4214
1478.000000 0.4685 0.5026 0.5108 0.5160 0.5208
1483.000000 0.5250 0.5280 0.5309 0.5337 0.5363
1488.000000 0.5389 0.5426 0.5469 0.5524 0.5618
1493.000000 0.5704 0.5768 0.5829 0.5913 0.6027
1498.000000 0.6121 0.6211 0.6296 0.6367 0.6434
1503.000000 0.6504 0.6549 0.6572 0.6593 0.6605
1508.000000 0.6606 0.6605 0.6603 0.6601 0.6598
1513.000000 0.6596 0.6591 0.6604 0.6564 0.6475
1518.000000 0.6379 0.6285 0.6190 0.6075 0.5950
1523.000000 0.5888 0.5849 0.5822 0.5798 0.5772
1528.000000 0.5744 0.5689 0.5562 0.5410 0.5304
1533.000000 0.5217 0.5146 0.5088 0.5041 0.5011
1538.000000 0.4995 0.4995 0.5015 0.5040 0.5059
1543.000000 0.5031 0.5080 0.5085 0.5090 0.5094
1548.000000 0.5101 0.5117 0.5245 0.5375 0.5505
1553.000000 0.5635 0.5765 0.5894 0.6023 0.6152
1558.000000 0.6280 0.6414 0.6523 0.6584 0.6645
1563.000000 0.6703 0.6760 0.6809 0.6852 0.6879
1568.000000 0.6891 0.6899 0.6899 0.6896 0.6892
1573.000000 0.6884 0.6868 0.6896 0.6828 0.6801
1578.000000 0.6773 0.6755 0.6739 0.6726 0.6720
1583.000000 0.6716 0.6712 0.6709 0.6706 0.6683
1588.000000 0.6611 0.6523 0.6435 0.6346 0.6258
1593.000000 0.6185 0.6130 0.6078 0.6031 0.5997
1598.000000 0.5971 0.5952 0.5938 0.5924 0.5881
1603.000000 0.5803 0.5723 0.5643 0.5564 0.5484
1608.000000 0.5420 0.5397 0.5375 0.5362 0.5349
1613.000000 0.5331 0.5303 0.5252 0.5227 0.5215
1618.000000 0.5211 0.5212 0.5188 0.5220 0.5226
1623.000000 0.5236 0.5261 0.5294 0.5326 0.5359
1628.000000 0.5393 0.5424 0.5450 0.5473 0.5495
1633.000000 0.5516 0.5538 0.5560 0.5584 0.5607
1638.000000 0.5629 0.5648 0.5667 0.5685 0.5722
1643.000000 0.5861 0.6116 0.6371 0.6625 0.6891
1648.000000 0.7259 0.7345 0.7384 0.7419 0.7450
1653.000000 0.7477 0.7503 0.7529 0.7554 0.7578
1658.000000 0.7605 0.7651 0.7719 0.7769 0.7808
1663.000000 0.7837 0.7864 0.7888 0.7907 0.7922
1668.000000 0.7937 0.7951 0.7964 0.7977 0.7989
1673.000000 0.8002 0.8013 0.8023 0.8034 0.8044
1678.000000 0.8054 0.8065 0.8075 0.8085 0.8092
1683.000000 0.8098 0.8104 0.8110 0.8116 0.8122
1688.000000 0.8133 0.8146 0.8159 0.8172 0.8187
1693.000000 0.8204 0.8225 0.8245 0.8256 0.8254
1698.000000 0.8247 0.8238 0.8227 0.8216 0.8206
1703.000000 0.8194 0.8183 0.8172 0.8161 0.8151
1708.000000 0.8139 0.8127 0.8113 0.8101 0.8087
1713.000000 0.8079 0.8076 0.8075 0.8074 0.8074
1718.000000 0.8076 0.8079 0.8087 0.8100 0.8115
1723.000000 0.8134 0.8154 0.8183 0.8221 0.8262
1728.000000 0.8296 0.8320 0.8332 0.8345 0.8357
1733.000000 0.8370 0.8382 0.8394 0.8405 0.8417
1738.000000 0.8428 0.8440 0.8453 0.8466 0.8479
1743.000000 0.8492 0.8503 0.8512 0.8521 0.8531
1748.000000 0.8541 0.8550 0.8559 0.8568 0.8577
1753.000000 0.8586 0.8595 0.8603 0.8610 0.8618
1758.000000 0.8625 0.8632 0.8639 0.8646 0.8652
1763.000000 0.8657 0.8661 0.8665 0.8668 0.8671
1768.000000 0.8673 0.8673 0.8672 0.8671 0.8670
1773.000000 0.8670 0.8669 0.8668 0.8666 0.8664
1778.000000 0.8663 0.8661 0.8659 0.8658 0.8656
1783.000000 0.8655 0.8642 0.8652 0.8650 0.8648
1788.000000 0.8647 0.8646 0.8645 0.8643 0.8643
1793.000000 0.8641 0.8640 0.8639 0.8637 0.8637
1798.000000 0.8635 0.8632 0.8628 0.8625 0.8621
1803.000000 0.8617 0.8614 0.8611 0.8607 0.8603
1808.000000 0.8599 0.8594 0.8591 0.8587 0.8583
1813.000000 0.8578 0.8574 0.8570 0.8568 0.8568
1818.000000 0.8568 0.8568 0.8569 0.8569 0.8569
1823.000000 0.8570 0.8571 0.8571 0.8571 0.8572
1828.000000 0.8572 0.8573 0.8573 0.8574 0.8574
1833.000000 0.8575 0.8575 0.8575 0.8576 0.8576
1838.000000 0.8576 0.8577 0.8578 0.8578 0.8578
1843.000000 0.8579 0.8579 0.8579 0.8580 0.8580
1848.000000 0.8581 0.8581 0.8581 0.8582 0.8582
1853.000000 0.8582 0.8584 0.8588 0.8595 0.8601
1858.000000 0.8608 0.8615 0.8622 0.8629 0.8636
1863.000000 0.8644 0.8653 0.8656 0.8655 0.8651
1868.000000 0.8647 0.8643 0.8639 0.8635 0.8630
1873.000000 0.8624 0.8617 0.8609 0.8602 0.8595
1878.000000 0.8588 0.8580 0.8572 0.8565 0.8558
1883.000000 0.8552 0.8546 0.8541 0.8536 0.8532
1888.000000 0.8531 0.8529 0.8528 0.8527 0.8526
1893.000000 0.8525 0.8523 0.8522 0.8521 0.8517
1898.000000 0.8504 0.8489 0.8472 0.8455 0.8436
1903.000000 0.8421 0.8414 0.8410 0.8406 0.8402
1908.000000 0.8399 0.8395 0.8392 0.8390 0.8388
1913.000000 0.8385 0.8383 0.8380 0.8378 0.8376
1918.000000 0.8374 0.8372 0.8370 0.8368 0.8366
1923.000000 0.8364 0.8362 0.8360 0.8358 0.8355
1928.000000 0.8353 0.8351 0.8349 0.8346 0.8344
1933.000000 0.8342 0.8340 0.8338 0.8336 0.8334
1938.000000 0.8332 0.8330 0.8327 0.8325 0.8323
1943.000000 0.8321 0.8319 0.8315 0.8312 0.8310
1948.000000 0.8307 0.8304 0.8301 0.8298 0.8295
1953.000000 0.8293 0.8290 0.8287 0.8284 0.8279
1958.000000 0.8274 0.8270 0.8265 0.8260 0.8255
1963.000000 0.8250 0.8245 0.8240 0.8235 0.8230
1968.000000 0.8226 0.8221 0.8216 0.8211 0.8206
1973.000000 0.8200 0.8194 0.8187 0.8180 0.8172
1978.000000 0.8165 0.8158 0.8151 0.8144 0.8137
1983.000000 0.8130 0.8123 0.8116 0.8109 0.8102
1988.000000 0.8095 0.8088 0.8081 0.8074 0.8067
1993.000000 0.8059 0.8052 0.8044 0.8037 0.8029
1998.000000 0.8022 0.8015 0.8008 0.8000 0.7993
2003.000000 0.7985 0.7977 0.7969 0.7960 0.7951
2008.000000 0.7943 0.7935 0.7926 0.7918 0.7909
2013.000000 0.7901 0.7893 0.7884 0.7876 0.7867
2018.000000 0.7859 0.7851 0.7843 0.7835 0.7828
2023.000000 0.7822 0.7815 0.7809 0.7802 0.7795
2028.000000 0.7789 0.7782 0.7775 0.7769 0.7762
2033.000000 0.7755 0.7749 0.7742 0.7736 0.7730
2038.000000 0.7725 0.7719 0.7714 0.7710 0.7705
2043.000000 0.7700 0.7694 0.7692 0.7690 0.7689
2048.000000 0.7688 0.7686 0.7685 0.7683 0.7681
2053.000000 0.7680 0.7679 0.7679 0.7678 0.7678
2058.000000 0.7678 0.7678 0.7678 0.7678 0.7677
2063.000000 0.7677 0.7677 0.7677 0.7677 0.7677
2068.000000 0.7676 0.7676 0.7675 0.7675 0.7672
2073.000000 0.7669 0.7666 0.7663 0.7660 0.7655
2078.000000 0.7649 0.7643 0.7637 0.7630 0.7624
2083.000000 0.7617 0.7610 0.7604 0.7599 0.7600
2088.000000 0.7591 0.7588 0.7585 0.7583 0.7580
2093.000000 0.7581 0.7582 0.7586 0.7590 0.7593
2098.000000 0.7597 0.7601 0.7605 0.7608 0.7613
2103.000000 0.7617 0.7623 0.7627 0.7632 0.7637
2108.000000 0.7642 0.7647 0.7652 0.7657 0.7662
2113.000000 0.7666 0.7671 0.7676 0.7681 0.7685
2118.000000 0.7690 0.7695 0.7700 0.7704 0.7708
2123.000000 0.7711 0.7714 0.7718 0.7721 0.7727
2128.000000 0.7736 0.7749 0.7761 0.7774 0.7786
2133.000000 0.7797 0.7808 0.7819 0.7823 0.7826
2138.000000 0.7830 0.7834 0.7837 0.7841 0.7845
2143.000000 0.7848 0.7851 0.7852 0.7854 0.7854
2148.000000 0.7855 0.7856 0.7857 0.7857 0.7857
2153.000000 0.7857 0.7857 0.7857 0.7857 0.7857
2158.000000 0.7857 0.7858 0.7859 0.7861 0.7862
2163.000000 0.7864 0.7866 0.7869 0.7873 0.7879
2168.000000 0.7887 0.7895 0.7902 0.7914 0.7926
2173.000000 0.7935 0.7944 0.7951 0.7958 0.7965
2178.000000 0.7971 0.7975 0.7979 0.7982 0.7985
2183.000000 0.7987 0.7990 0.7993 0.7995 0.7996
2188.000000 0.7998 0.8000 0.8002 0.8003 0.8005
2193.000000 0.8008 0.8009 0.8011 0.8012 0.8014
2198.000000 0.8014 0.8013 0.8013 0.8012 0.8012
2203.000000 0.8011 0.8011 0.8010 0.8009 0.8008
2208.000000 0.8008 0.8007 0.8007 0.8006 0.8005
2213.000000 0.8005 0.8005 0.8005 0.8005 0.8005
2218.000000 0.8005 0.8005 0.8005 0.8008 0.8012
2223.000000 0.8017 0.8022 0.8027 0.8032 0.8044
2228.000000 0.8057 0.8067 0.8075 0.8084 0.8093
2233.000000 0.8098 0.8103 0.8104 0.8104 0.8103
2238.000000 0.8103 0.8102 0.8101 0.8100 0.8099
2243.000000 0.8098 0.8097 0.8095 0.8094 0.8093
2248.000000 0.8092 0.8091 0.8090 0.8089 0.8088
2253.000000 0.8086 0.8085 0.8084 0.8083 0.8082
2258.000000 0.8081 0.8080 0.8078 0.8077 0.8076
2263.000000 0.8075 0.8074 0.8072 0.8070 0.8065
2268.000000 0.8057 0.8049 0.8041 0.8033 0.8025
2273.000000 0.8017 0.8008 0.8000 0.7990 0.7981
2278.000000 0.7973 0.7966 0.7959 0.7952 0.7945
2283.000000 0.7938 0.7931 0.7925 0.7918 0.7911
2288.000000 0.7905 0.7898 0.7890 0.7882 0.7873
2293.000000 0.7864 0.7855 0.7846 0.7837 0.7828
2298.000000 0.7819 0.7809 0.7799 0.7786 0.7773
2303.000000 0.7759 0.7746 0.7732 0.7719 0.7706
2308.000000 0.7692 0.7679 0.7666 0.7652 0.7639
2313.000000 0.7626 0.7613 0.7600 0.7587 0.7574
2318.000000 0.7561 0.7549 0.7531 0.7512 0.7503
2323.000000 0.7496 0.7491 0.7485 0.7483 0.7483
2328.000000 0.7483 0.7484 0.7486 0.7489 0.7493
2333.000000 0.7496 0.7500 0.7503 0.7505 0.7508
2338.000000 0.7511 0.7515 0.7517 0.7520 0.7523
2343.000000 0.7526 0.7530 0.7534 0.7537 0.7541
2348.000000 0.7544 0.7548 0.7550 0.7551 0.7553
2353.000000 0.7555 0.7556 0.7558 0.7559 0.7560
2358.000000 0.7561 0.7562 0.7563 0.7564 0.7565
2363.000000 0.7566 0.7566 0.7566 0.7566 0.7566
2368.000000 0.7565 0.7565 0.7564 0.7563 0.7562
2373.000000 0.7562 0.7561 0.7559 0.7558 0.7556
2378.000000 0.7554 0.7552 0.7550 0.7547 0.7545
2383.000000 0.7543 0.7541 0.7539 0.7535 0.7531
2388.000000 0.7527 0.7522 0.7518 0.7513 0.7509
2393.000000 0.7505 0.7501 0.7497 0.7493 0.7488
2398.000000 0.7483 0.7478 0.7472 0.7467 0.7460
2403.000000 0.7452 0.7444 0.7433 0.7421 0.7410
2408.000000 0.7398 0.7384 0.7367 0.7350 0.7331
2413.000000 0.7313 0.7293 0.7273 0.7255 0.7239
2418.000000 0.7224 0.7210 0.7195 0.7185 0.7175
2423.000000 0.7166 0.7157 0.7146 0.7128 0.7110
2428.000000 0.7088 0.7065 0.7042 0.7019 0.6995
2433.000000 0.6972 0.6949 0.6926 0.6903 0.6880
2438.000000 0.6857 0.6834 0.6811 0.6789 0.6766
2443.000000 0.6743 0.6720 0.6697 0.6674 0.6651
2448.000000 0.6629 0.6606 0.6583 0.6560 0.6537
2453.000000 0.6514 0.6492 0.6469 0.6447 0.6424
2458.000000 0.6401 0.6379 0.6357 0.6334 0.6311
2463.000000 0.6289 0.6266 0.6243 0.6221 0.6199
2468.000000 0.6177 0.6154 0.6132 0.6109 0.6087
2473.000000 0.6065 0.6043 0.6020 0.5998 0.5975
2478.000000 0.5953 0.5931 0.5909 0.5887 0.5864
2483.000000 0.5842 0.5820 0.5798 0.5776 0.5754
2488.000000 0.5732 0.5710 0.5687 0.5666 0.5644
2493.000000 0.5622 0.5600 0.5578 0.5559 0.5540
2498.000000 0.5522 0.5506 0.5490 0.5472 0.5454
2503.000000 0.5436 0.5419 0.5402 0.5388 0.5374
2508.000000 0.5360 0.5345 0.5331 0.5292 0.5253
2513.000000 0.5212 0.5171 0.5129 0.5088 0.5047
2518.000000 0.5006 0.4965 0.4924 0.4883 0.4842
2523.000000 0.4800 0.4760 0.4719 0.4678 0.4637
2528.000000 0.4596 0.4555 0.4513 0.4492 0.4483
2533.000000 0.4474 0.4465 0.4456 0.4451 0.4449
2538.000000 0.4447 0.4448 0.4449 0.4450 0.4451
2543.000000 0.4452 0.4453 0.4454 0.4455 0.4455
2548.000000 0.4455 0.4456 0.4456 0.4456 0.4457
2553.000000 0.4458 0.4459 0.4459 0.4459 0.4460
2558.000000 0.4460 0.4461 0.4461 0.4461 0.4462
2563.000000 0.4462 0.4462 0.4460 0.4459 0.4457
2568.000000 0.4455 0.4453 0.4448 0.4441 0.4434
2573.000000 0.4424 0.4415 0.4403 0.4385 0.4367
2578.000000 0.4347 0.4326 0.4305 0.4292 0.4278
2583.000000 0.4265 0.4251 0.4238 0.4222 0.4206
2588.000000 0.4190 0.4173 0.4155 0.4138 0.4121
2593.000000 0.4104 0.4086 0.4067 0.4049 0.4028
2598.000000 0.4007 0.3987 0.3969 0.3951 0.3934
2603.000000 0.3920 0.3905 0.3890 0.3875 0.3860
2608.000000 0.3845 0.3830 0.3815 0.3801 0.3787
2613.000000 0.3774 0.3761 0.3747 0.3734 0.3720
2618.000000 0.3707 0.3693 0.3680 0.3666 0.3653
2623.000000 0.3639 0.3626 0.3613 0.3600 0.3587
2628.000000 0.3573 0.3562 0.3556 0.3551 0.3546
2633.000000 0.3541 0.3536 0.3531 0.3527 0.3522
2638.000000 0.3517 0.3512 0.3507 0.3503 0.3499
2643.000000 0.3495 0.3493 0.3491 0.3489 0.3487
2648.000000 0.3485 0.3483 0.3481 0.3479 0.3477
2653.000000 0.3475 0.3473 0.3471 0.3469 0.3467
2658.000000 0.3464 0.3462 0.3459 0.3456 0.3453
2663.000000 0.3449 0.3446 0.3442 0.3439 0.3435
2668.000000 0.3432 0.3426 0.3421 0.3415 0.3408
2673.000000 0.3401 0.3394 0.3388 0.3381 0.3373
2678.000000 0.3362 0.3351 0.3340 0.3327 0.3315
2683.000000 0.3301 0.3287 0.3273 0.3258 0.3242
2688.000000 0.3226 0.3206 0.3184 0.3163 0.3141
2693.000000 0.3119 0.3098 0.3076 0.3054 0.3033
2698.000000 0.3011 0.2989 0.2968 0.2946 0.2925
2703.000000 0.2903 0.2882 0.2861 0.2842 0.2825
2708.000000 0.2809 0.2794 0.2778 0.2763 0.2748
2713.000000 0.2733 0.2718 0.2704 0.2691 0.2679
2718.000000 0.2667 0.2657 0.2647 0.2637 0.2626
2723.000000 0.2616 0.2609 0.2605 0.2601 0.2597
2728.000000 0.2594 0.2591 0.2588 0.2585 0.2582
2733.000000 0.2580 0.2579 0.2578 0.2576 0.2575
2738.000000 0.2574 0.2572 0.2571 0.2570 0.2568
2743.000000 0.2567 0.2566 0.2566 0.2566 0.2566
2748.000000 0.2566 0.2566 0.2566 0.2567 0.2567
2753.000000 0.2567 0.2568 0.2568 0.2568 0.2569
2758.000000 0.2569 0.2569 0.2569 0.2569 0.2569
2763.000000 0.2569 0.2569 0.2569 0.2569 0.2569
2768.000000 0.2568 0.2566 0.2564 0.2561 0.2559
2773.000000 0.2556 0.2553 0.2548 0.2535 0.2522
2778.000000 0.2509 0.2495 0.2480 0.2463 0.2432
2783.000000 0.2401 0.2369 0.2338 0.2307 0.2276
2788.000000 0.2241 0.2207 0.2173 0.2135 0.2097
2793.000000 0.2059 0.2021 0.1983 0.1945 0.1901
2798.000000 0.1853 0.1806 0.1756 0.1703 0.1650
2803.000000 0.1603 0.1568 0.1533 0.1499 0.1475
2808.000000 0.1451 0.1426 0.1402 0.1377 0.1353
2813.000000 0.1329 0.1304 0.1280 0.1241 0.1194
2818.000000 0.1147 0.1104 0.1065 0.1025 0.0988
2823.000000 0.0958 0.0928 0.0898 0.0870 0.0843
2828.000000 0.0816 0.0789 0.0763 0.0736 0.0715
2833.000000 0.0696 0.0677 0.0666 0.0660 0.0655
2838.000000 0.0650 0.0645 0.0639 0.0634 0.0629
2843.000000 0.0624 0.0619 0.0615 0.0610 0.0605
2848.000000 0.0600 0.0596 0.0591 0.0586 0.0581
2853.000000 0.0576 0.0571 0.0566 0.0560 0.0555
2858.000000 0.0551 0.0546 0.0541 0.0537 0.0532
2863.000000 0.0528 0.0524 0.0524 0.0523 0.0522
2868.000000 0.0522 0.0521 0.0520 0.0519 0.0519
2873.000000 0.0519 0.0519 0.0519 0.0519 0.0520
2878.000000 0.0520 0.0520 0.0520 0.0521 0.0521
2883.000000 0.0521 0.0522 0.0522 0.0523 0.0524
2888.000000 0.0525 0.0525 0.0526 0.0527 0.0528
2893.000000 0.0529 0.0530 0.0531 0.0532 0.0533
2898.000000 0.0534 0.0534 0.0535 0.0538 0.0540
2903.000000 0.0543 0.0546 0.0550 0.0554 0.0558
2908.000000 0.0562 0.0566 0.0571 0.0576 0.0581
2913.000000 0.0587 0.0593 0.0602 0.0611 0.0620
2918.000000 0.0633 0.0646 0.0659 0.0669 0.0674
2923.000000 0.0679 0.0685 0.0686 0.0688 0.0690
2928.000000 0.0692 0.0693 0.0695 0.0697 0.0698
2933.000000 0.0700 0.0701 0.0707 0.0714 0.0721
2938.000000 0.0734 0.0762 0.0789 0.0817 0.0842
2943.000000 0.0866 0.0891 0.0916 0.0942 0.0968
2948.000000 0.0994 0.1023 0.1053 0.1083 0.1108
2953.000000 0.1128 0.1147 0.1167 0.1186 0.1205
2958.000000 0.1224 0.1249 0.1280 0.1311 0.1342
2963.000000 0.1377 0.1412 0.1447 0.1476 0.1499
2968.000000 0.1521 0.1543 0.1564 0.1586 0.1607
2973.000000 0.1628 0.1646 0.1663 0.1681 0.1699
2978.000000 0.1717 0.1735 0.1753 0.1771 0.1789
2983.000000 0.1807 0.1826 0.1844 0.1863 0.1881
2988.000000 0.1900 0.1918 0.1937 0.1952 0.1966
2993.000000 0.1979 0.1992 0.2004 0.2016 0.2028
2998.000000 0.2040 0.2053 0.2065 0.2077 0.2084
3003.000000 0.2090 0.2097 0.2103 0.2109 0.2115
3008.000000 0.2121 0.2125 0.2127 0.2128 0.2130
3013.000000 0.2132 0.2133 0.2134 0.2135 0.2137
3018.000000 0.2138 0.2140 0.2142 0.2144 0.2146
3023.000000 0.2149 0.2151 0.2153 0.2155 0.2158
3028.000000 0.2161 0.2164 0.2168 0.2173 0.2179
3033.000000 0.2185 0.2191 0.2200 0.2210 0.2219
3038.000000 0.2230 0.2243 0.2256 0.2269 0.2285
3043.000000 0.2302 0.2319 0.2336 0.2351 0.2366
3048.000000 0.2381 0.2394 0.2401 0.2409 0.2416
3053.000000 0.2421 0.2424 0.2426 0.2429 0.2432
3058.000000 0.2434 0.2437 0.2440 0.2442 0.2445
3063.000000 0.2448 0.2450 0.2454 0.2457 0.2461
3068.000000 0.2484 0.2526 0.2569 0.2611 0.2641
3073.000000 0.2668 0.2695 0.2722 0.2748 0.2774
3078.000000 0.2800 0.2828 0.2861 0.2895 0.2928
3083.000000 0.2961 0.2993 0.3026 0.3058 0.3085
3088.000000 0.3109 0.3133 0.3157 0.3181 0.3204
3093.000000 0.3228 0.3251 0.3275 0.3299 0.3322
3098.000000 0.3345 0.3363 0.3381 0.3399 0.3417
3103.000000 0.3435 0.3452 0.3470 0.3488 0.3506
3108.000000 0.3524 0.3541 0.3559 0.3577 0.3594
3113.000000 0.3612 0.3636 0.3662 0.3689 0.3716
3118.000000 0.3745 0.3775 0.3805 0.3835 0.3864
3123.000000 0.3893 0.3922 0.3951 0.3977 0.4004
3128.000000 0.4030 0.4057 0.4082 0.4108 0.4133
3133.000000 0.4158 0.4182 0.4205 0.4229 0.4254
3138.000000 0.4288 0.4321 0.4355 0.4389 0.4424
3143.000000 0.4460 0.4495 0.4531 0.4566 0.4601
3148.000000 0.4637 0.4672 0.4707 0.4743 0.4778
3153.000000 0.4813 0.4849 0.4884 0.4919 0.4955
3158.000000 0.4990 0.5025 0.5060 0.5095 0.5130
3163.000000 0.5165 0.5200 0.5235 0.5270 0.5305
3168.000000 0.5340 0.5375 0.5409 0.5444 0.5479
3173.000000 0.5514 0.5549 0.5583 0.5618 0.5653
3178.000000 0.5687 0.5722 0.5757 0.5789 0.5817
3183.000000 0.5844 0.5872 0.5896 0.5911 0.5927
3188.000000 0.5942 0.5958 0.5976 0.5993 0.6010
3193.000000 0.6027 0.6044 0.6060 0.6077 0.6094
3198.000000 0.6111 0.6128 0.6145 0.6162 0.6180
3203.000000 0.6198 0.6215 0.6233 0.6251 0.6268
3208.000000 0.6286 0.6303 0.6329 0.6357 0.6385
3213.000000 0.6413 0.6441 0.6470 0.6498 0.6526
3218.000000 0.6558 0.6594 0.6629 0.6664 0.6697
3223.000000 0.6725 0.6753 0.6780 0.6806 0.6827
3228.000000 0.6847 0.6868 0.6888 0.6910 0.6932
3233.000000 0.6954 0.6976 0.6994 0.7010 0.7027
3238.000000 0.7044 0.7054 0.7061 0.7068 0.7076
3243.000000 0.7083 0.7090 0.7097 0.7104 0.7111
3248.000000 0.7117 0.7122 0.7128 0.7134 0.7139
3253.000000 0.7145 0.7150 0.7155 0.7161 0.7166
3258.000000 0.7171 0.7176 0.7183 0.7191 0.7198
3263.000000 0.7206 0.7214 0.7221 0.7229 0.7236
3268.000000 0.7244 0.7255 0.7267 0.7279 0.7291
3273.000000 0.7303 0.7315 0.7327 0.7340 0.7352
3278.000000 0.7364 0.7376 0.7388 0.7400 0.7411
3283.000000 0.7421 0.7431 0.7442 0.7449 0.7456
3288.000000 0.7463 0.7470 0.7476 0.7481 0.7485
3293.000000 0.7490 0.7494 0.7497 0.7499 0.7502
3298.000000 0.7504 0.7506 0.7509 0.7511 0.7513
3303.000000 0.7514 0.7514 0.7513 0.7513 0.7512
3308.000000 0.7512 0.7512 0.7512 0.7512 0.7512
3313.000000 0.7512 0.7512 0.7512 0.7512 0.7512
3318.000000 0.7512 0.7512 0.7512 0.7511 0.7511
3323.000000 0.7511 0.7511 0.7510 0.7510 0.7510
3328.000000 0.7510 0.7509 0.7509 0.7509 0.7509
3333.000000 0.7509 0.7509 0.7509 0.7509 0.7509
3338.000000 0.7510 0.7510 0.7511 0.7512 0.7512
3343.000000 0.7513 0.7514 0.7515 0.7516 0.7518
3348.000000 0.7521 0.7525 0.7529 0.7533 0.7536
3353.000000 0.7540 0.7543 0.7547 0.7551 0.7555
3358.000000 0.7559 0.7563 0.7567 0.7570 0.7573
3363.000000 0.7576 0.7579 0.7582 0.7584 0.7585
3368.000000 0.7587 0.7589 0.7591 0.7593 0.7595
3373.000000 0.7597 0.7599 0.7599 0.7599 0.7600
3378.000000 0.7600 0.7601 0.7601 0.7602 0.7602
3383.000000 0.7603 0.7603 0.7603 0.7604 0.7604
3388.000000 0.7605 0.7605 0.7606 0.7607 0.7607
3393.000000 0.7608 0.7608 0.7609 0.7609 0.7610
3398.000000 0.7610 0.7610 0.7611 0.7611 0.7612
3403.000000 0.7613 0.7613 0.7614 0.7615 0.7616
3408.000000 0.7618 0.7619 0.7621 0.7622 0.7624
3413.000000 0.7625 0.7627 0.7628 0.7630 0.7631
3418.000000 0.7633 0.7635 0.7637 0.7638 0.7640
3423.000000 0.7642 0.7643 0.7645 0.7647 0.7648
3428.000000 0.7649 0.7651 0.7652 0.7654 0.7655
3433.000000 0.7657 0.7658 0.7660 0.7661 0.7663
3438.000000 0.7664 0.7666 0.7667 0.7669 0.7670
3443.000000 0.7672 0.7673 0.7675 0.7677 0.7679
3448.000000 0.7681 0.7683 0.7684 0.7686 0.7688
3453.000000 0.7689 0.7691 0.7693 0.7695 0.7697
3458.000000 0.7699 0.7700 0.7702 0.7704 0.7705
3463.000000 0.7707 0.7709 0.7711 0.7713 0.7715
3468.000000 0.7717 0.7720 0.7723 0.7726 0.7729
3473.000000 0.7732 0.7735 0.7738 0.7740 0.7743
3478.000000 0.7746 0.7750 0.7753 0.7756 0.7759
3483.000000 0.7762 0.7765 0.7768 0.7771 0.7774
3488.000000 0.7777 0.7780 0.7784 0.7787 0.7790
3493.000000 0.7793 0.7797 0.7800 0.7804 0.7807
3498.000000 0.7811 0.7814 0.7818 0.7821 0.7825
3503.000000 0.7828 0.7831 0.7835 0.7838 0.7842
3508.000000 0.7845 0.7849 0.7852 0.7856 0.7859
3513.000000 0.7863 0.7867 0.7870 0.7874 0.7878
3518.000000 0.7881 0.7885 0.7888 0.7892 0.7894
3523.000000 0.7896 0.7897 0.7899 0.7900 0.7901
3528.000000 0.7901 0.7901 0.7901 0.7901 0.7902
3533.000000 0.7902 0.7902 0.7902 0.7902 0.7903
3538.000000 0.7903 0.7903 0.7903 0.7903 0.7904
3543.000000 0.7904 0.7904 0.7904 0.7904 0.7905
3548.000000 0.7905 0.7905 0.7905 0.7905 0.7905
3553.000000 0.7905 0.7905 0.7905 0.7905 0.7905
3558.000000 0.7905 0.7905 0.7905 0.7905 0.7905
3563.000000 0.7905 0.7905 0.7905 0.7905 0.7904
3568.000000 0.7904 0.7903 0.7903 0.7903 0.7898
3573.000000 0.7902 0.7901 0.7901 0.7901 0.7900
3578.000000 0.7900 0.7900 0.7900 0.7900 0.7899
3583.000000 0.7899 0.7899 0.7898 0.7898 0.7897
3588.000000 0.7897 0.7897 0.7897 0.7897 0.7896
3593.000000 0.7896 0.7896 0.7895 0.7895 0.7895
3598.000000 0.7894 0.7893 0.7893 0.7892 0.7892
3603.000000 0.7891 0.7890 0.7889 0.7889 0.7888
3608.000000 0.7887 0.7886 0.7886 0.7885 0.7884
3613.000000 0.7883 0.7883 0.7882 0.7881 0.7880
3618.000000 0.7879 0.7879 0.7878 0.7877 0.7876
3623.000000 0.7876 0.7875 0.7874 0.7873 0.7872
3628.000000 0.7871 0.7870 0.7869 0.7869 0.7868
3633.000000 0.7867 0.7866 0.7866 0.7865 0.7865
3638.000000 0.7864 0.7864 0.7863 0.7863 0.7863
3643.000000 0.7863 0.7863 0.7862 0.7862 0.7861
3648.000000 0.7861 0.7861 0.7860 0.7860 0.7860
3653.000000 0.7859 0.7859 0.7858 0.7858 0.7858
3658.000000 0.7857 0.7857 0.7857 0.7856 0.7856
3663.000000 0.7856 0.7855 0.7855 0.7854 0.7854
3668.000000 0.7854 0.7853 0.7853 0.7853 0.7853
3673.000000 0.7853 0.7854 0.7854 0.7854 0.7856
3678.000000 0.7859 0.7862 0.7865 0.7868 0.7871
3683.000000 0.7873 0.7876 0.7878 0.7880 0.7883
3688.000000 0.7885 0.7888 0.7890 0.7892 0.7895
3693.000000 0.7897 0.7899 0.7900 0.7902 0.7903
3698.000000 0.7905 0.7905 0.7905 0.7904 0.7903
3703.000000 0.7903 0.7902 0.7902 0.7901 0.7901
3708.000000 0.7900 0.7900 0.7899 0.7898 0.7897
3713.000000 0.7897 0.7896 0.7895 0.7894 0.7893
3718.000000 0.7892 0.7891 0.7890 0.7889 0.7888
3723.000000 0.7887 0.7886 0.7885 0.7884 0.7883
3728.000000 0.7883 0.7882 0.7881 0.7880 0.7880
3733.000000 0.7880 0.7880 0.7880 0.7880 0.7880
3738.000000 0.7880 0.7881 0.7882 0.7882 0.7883
3743.000000 0.7884 0.7885 0.7887 0.7888 0.7889
3748.000000 0.7890 0.7892 0.7893 0.7895 0.7896
3753.000000 0.7897 0.7899 0.7900 0.7900 0.7901
3758.000000 0.7902 0.7903 0.7904 0.7904 0.7904
3763.000000 0.7904 0.7904 0.7904 0.7903 0.7901
3768.000000 0.7900 0.7898 0.7897 0.7895 0.7892
3773.000000 0.7890 0.7887 0.7885 0.7883 0.7879
3778.000000 0.7875 0.7872 0.7868 0.7864 0.7860
3783.000000 0.7857 0.7854 0.7851 0.7847 0.7844
3788.000000 0.7841 0.7838 0.7834 0.7831 0.7828
3793.000000 0.7825 0.7821 0.7819 0.7816 0.7813
3798.000000 0.7810 0.7808 0.7805 0.7802 0.7799
3803.000000 0.7797 0.7794 0.7791 0.7790 0.7788
3808.000000 0.7787 0.7786 0.7785 0.7783 0.7783
3813.000000 0.7782 0.7781 0.7780 0.7779 0.7778
3818.000000 0.7778 0.7777 0.7776 0.7776 0.7775
3823.000000 0.7774 0.7774 0.7773 0.7773 0.7772
3828.000000 0.7772 0.7771 0.7771 0.7770 0.7770
3833.000000 0.7769 0.7769 0.7768 0.7768 0.7768
3838.000000 0.7767 0.7767 0.7767 0.7766 0.7766
3843.000000 0.7766 0.7765 0.7765 0.7765 0.7764
3848.000000 0.7763 0.7762 0.7761 0.7760 0.7759
3853.000000 0.7758 0.7757 0.7756 0.7755 0.7754
3858.000000 0.7754 0.7753 0.7752 0.7751 0.7749
3863.000000 0.7748 0.7747 0.7746 0.7744 0.7742
3868.000000 0.7740 0.7738 0.7736 0.7732 0.7728
3873.000000 0.7724 0.7720 0.7716 0.7711 0.7706
3878.000000 0.7701 0.7696 0.7691 0.7686 0.7681
3883.000000 0.7677 0.7672 0.7668 0.7663 0.7658
3888.000000 0.7654 0.7649 0.7645 0.7640 0.7636
3893.000000 0.7631 0.7627 0.7626 0.7625 0.7625
3898.000000 0.7624 0.7623 0.7623 0.7622 0.7621
3903.000000 0.7621 0.7620 0.7619 0.7619 0.7618
3908.000000 0.7618 0.7618 0.7617 0.7617 0.7617
3913.000000 0.7617 0.7617 0.7617 0.7617 0.7617
3918.000000 0.7617 0.7618 0.7618 0.7618 0.7618
3923.000000 0.7618 0.7618 0.7619 0.7619 0.7619
3928.000000 0.7619 0.7619 0.7619 0.7620 0.7620
3933.000000 0.7620 0.7621 0.7621 0.7621 0.7621
3938.000000 0.7622 0.7622 0.7622 0.7623 0.7623
3943.000000 0.7623 0.7624 0.7624 0.7625 0.7625
3948.000000 0.7626 0.7626 0.7627 0.7627 0.7627
3953.000000 0.7628 0.7628 0.7628 0.7629 0.7629
3958.000000 0.7630 0.7630 0.7631 0.7631 0.7631
3963.000000 0.7631 0.7631 0.7631 0.7631 0.7631
3968.000000 0.7631 0.7630 0.7630 0.7630 0.7630
3973.000000 0.7630 0.7630 0.7630 0.7630 0.7630
3978.000000 0.7630 0.7630 0.7630 0.7629 0.7629
3983.000000 0.7629 0.7629 0.7629 0.7629 0.7629
3988.000000 0.7628 0.7628 0.7628 0.7628 0.7628
3993.000000 0.7628 0.7627 0.7626 0.7625 0.7624
3998.000000 0.7623 0.7622 0.7621
##END=
