##TITLE=6,6,12,12-TETRAMETHYL-1,4,8,11-TETROXADISPIRO-[4.1.4.1]DODECANE
##JCAMP-DX=4.24
##DATA TYPE=INFRARED SPECTRUM
##CLASS=COBLENTZ
##ORIGIN=TENNESSEE EASTMAN COMPANY, RESEARCH LABORATORIES
##OWNER=COBLENTZ SOCIETY
Collection (C) 2018 copyright by the U.S. Secretary of Commerce
on behalf of the United States of America. All rights reserved.
##DATE=Not specified, most likely prior to 1970
##NAMES=6,6,12,12-tetramethyl-1,4,9,10-tetraoxadispiro[4.1.4.1]dodecane
##MOLFORM=C12 H20 O4
##MP=104-105 C
##SOURCE REFERENCE=COBLENTZ NO. 1767
##$NIST ID=B6001767
##$NIST SOURCE=COBLENTZ
##$NIST IMAGE=cob1767
##SPECTROMETER/DATA SYSTEM=Not specified, most likely a prism, grating, or hybrid spectrometer.
##STATE=SOLID (KBr PELLET)
##SAMPLING PROCEDURE=TRANSMISSION
##RESOLUTION=4
##DATA PROCESSING=DIGITIZED BY NIST FROM HARD COPY
##XUNITS=MICROMETERS
##YUNITS=TRANSMITTANCE
##XFACTOR=1.000000
##YFACTOR=1
##DELTAX=000.006819
##FIRSTX=2.055
##LASTX=16.0001
##FIRSTY=0.914
##MAXX=16.0001
##MINX=2.055
##MAXY=0.946
##MINY=0.006
##NPOINTS=2046
##XYDATA=(X++(Y..Y))
2.055000 0.9140 0.9140 0.9140 0.9120 0.9140
2.089113 0.9140 0.9140 0.9150 0.9150 0.9190
2.123000 0.9210 0.9210 0.9210 0.9220 0.9240
2.157113 0.9240 0.9270 0.9290 0.9290 0.9310
2.191000 0.9310 0.9310 0.9310 0.9310 0.9290
2.225113 0.9270 0.9220 0.9190 0.9120 0.9050
2.259000 0.9030 0.9020 0.9000 0.9000 0.9000
2.293113 0.9000 0.9000 0.8980 0.8980 0.8980
2.327000 0.9000 0.9050 0.9070 0.9090 0.9090
2.361113 0.9100 0.9120 0.9120 0.9120 0.9120
2.396000 0.9120 0.9120 0.9120 0.9120 0.9120
2.430113 0.9120 0.9120 0.9120 0.9120 0.9120
2.464000 0.9120 0.9140 0.9140 0.9140 0.9120
2.498113 0.9120 0.9120 0.9120 0.9120 0.9120
2.532000 0.9120 0.9100 0.9100 0.9100 0.9100
2.566113 0.9100 0.9100 0.9120 0.9120 0.9120
2.600000 0.9120 0.9120 0.9140 0.9140 0.9150
2.634113 0.9190 0.9210 0.9220 0.9240 0.9260
2.668000 0.9270 0.9290 0.9290 0.9290 0.9290
2.702113 0.9290 0.9290 0.9290 0.9290 0.9290
2.736000 0.9290 0.9240 0.9210 0.9140 0.9100
2.770113 0.9020 0.8910 0.8880 0.8760 0.8690
2.805000 0.8590 0.8450 0.8400 0.8330 0.8300
2.839113 0.8230 0.8190 0.8190 0.8130 0.8090
2.873000 0.8020 0.8010 0.7990 0.7900 0.7830
2.907113 0.7800 0.7780 0.7750 0.7730 0.7710
2.941000 0.7710 0.7750 0.7770 0.7800 0.7900
2.975113 0.7990 0.8020 0.8090 0.8180 0.8230
3.009000 0.8260 0.8300 0.8330 0.8380 0.8420
3.043113 0.8430 0.8490 0.8490 0.8500 0.8500
3.077000 0.8520 0.8540 0.8540 0.8550 0.8550
3.111113 0.8550 0.8550 0.8550 0.8570 0.8570
3.146000 0.8570 0.8570 0.8570 0.8570 0.8570
3.180113 0.8570 0.8590 0.8590 0.8610 0.8610
3.214000 0.8620 0.8620 0.8620 0.8620 0.8610
3.248113 0.8610 0.8590 0.8590 0.8490 0.8310
3.282000 0.8210 0.8130 0.7940 0.7630 0.7110
3.316113 0.6770 0.5950 0.5110 0.4420 0.3000
3.350000 0.1560 0.0220 0.0200 0.0240 0.0800
3.384113 0.0920 0.1060 0.1060 0.0920 0.0890
3.418000 0.0840 0.0780 0.0720 0.0700 0.0720
3.452113 0.1300 0.1780 0.2160 0.2400 0.2710
3.487000 0.3130 0.4350 0.5120 0.5780 0.6390
3.521113 0.7440 0.7800 0.7970 0.8190 0.8310
3.555000 0.8450 0.8550 0.8620 0.8690 0.8740
3.589113 0.8830 0.8930 0.9000 0.9070 0.9120
3.623000 0.9140 0.9140 0.9140 0.9140 0.9150
3.657113 0.9150 0.9150 0.9150 0.9120 0.9100
3.691000 0.9050 0.9000 0.8980 0.8970 0.8970
3.725113 0.8970 0.8970 0.8910 0.8900 0.8830
3.759000 0.8780 0.8710 0.8690 0.8710 0.8850
3.793113 0.9050 0.9210 0.9240 0.9290 0.9290
3.828000 0.9310 0.9330 0.9330 0.9340 0.9380
3.862113 0.9380 0.9380 0.9380 0.9380 0.9380
3.896000 0.9380 0.9380 0.9380 0.9380 0.9380
3.930113 0.9380 0.9360 0.9360 0.9380 0.9380
3.964000 0.9380 0.9380 0.9380 0.9390 0.9390
3.998113 0.9390 0.9410 0.9410 0.9430 0.9430
4.032000 0.9430 0.9450 0.9450 0.9460 0.9460
4.066113 0.9460 0.9460 0.9460 0.9460 0.9460
4.100000 0.9460 0.9460 0.9460 0.9460 0.9460
4.134113 0.9430 0.9430 0.9410 0.9380 0.9380
4.169000 0.9360 0.9360 0.9360 0.9360 0.9360
4.203113 0.9360 0.9360 0.9360 0.9360 0.9360
4.237000 0.9340 0.9330 0.9310 0.9290 0.9270
4.271113 0.9240 0.9210 0.9190 0.9190 0.9190
4.305000 0.9170 0.9170 0.9170 0.9170 0.9170
4.339113 0.9170 0.9170 0.9170 0.9170 0.9170
4.373000 0.9170 0.9170 0.9190 0.9210 0.9210
4.407113 0.9240 0.9270 0.9290 0.9310 0.9330
4.441000 0.9330 0.9330 0.9330 0.9330 0.9330
4.475113 0.9330 0.9330 0.9330 0.9310 0.9290
4.509000 0.9270 0.9260 0.9260 0.9240 0.9260
4.543113 0.9260 0.9270 0.9270 0.9290 0.9310
4.578000 0.9310 0.9310 0.9330 0.9330 0.9360
4.612113 0.9380 0.9380 0.9380 0.9380 0.9330
4.646000 0.9330 0.9330 0.9310 0.9310 0.9310
4.680113 0.9270 0.9270 0.9190 0.9170 0.9140
4.714000 0.9090 0.9050 0.9030 0.9030 0.9050
4.748113 0.9050 0.9090 0.9090 0.9120 0.9140
4.782000 0.9150 0.9150 0.9150 0.9150 0.9140
4.816113 0.9120 0.9100 0.9100 0.9090 0.9070
4.850000 0.9020 0.9020 0.9000 0.8980 0.8970
4.884113 0.8900 0.8790 0.8780 0.8690 0.8670
4.919000 0.8590 0.8520 0.8450 0.8420 0.8420
4.953113 0.8420 0.8430 0.8500 0.8540 0.8610
4.987000 0.8730 0.8760 0.8780 0.8730 0.8690
5.021113 0.8670 0.8570 0.8570 0.8590 0.8660
5.055000 0.8710 0.8780 0.8830 0.8860 0.8950
5.089113 0.9000 0.9020 0.9050 0.9070 0.9070
5.123000 0.9070 0.9070 0.9100 0.9140 0.9170
5.157113 0.9170 0.9190 0.9220 0.9260 0.9260
5.191000 0.9290 0.9290 0.9310 0.9330 0.9330
5.225113 0.9330 0.9330 0.9330 0.9330 0.9330
5.260000 0.9330 0.9340 0.9340 0.9340 0.9340
5.294113 0.9340 0.9340 0.9360 0.9360 0.9360
5.328000 0.9360 0.9360 0.9380 0.9380 0.9360
5.362113 0.9360 0.9360 0.9360 0.9340 0.9340
5.396000 0.9340 0.9340 0.9330 0.9330 0.9330
5.430113 0.9330 0.9330 0.9330 0.9330 0.9330
5.464000 0.9330 0.9310 0.9310 0.9290 0.9270
5.498113 0.9240 0.9210 0.9190 0.9170 0.9170
5.532000 0.9150 0.9150 0.9150 0.9170 0.9190
5.566113 0.9190 0.9210 0.9220 0.9220 0.9210
5.601000 0.9210 0.9190 0.9190 0.9170 0.9170
5.635113 0.9170 0.9150 0.9100 0.9100 0.9100
5.669000 0.9100 0.9100 0.9100 0.9150 0.9150
5.703113 0.9120 0.9100 0.9070 0.9000 0.8980
5.737000 0.8970 0.8910 0.8880 0.8860 0.8810
5.771113 0.8790 0.8780 0.8760 0.8780 0.8790
5.805000 0.8860 0.8860 0.8790 0.8790 0.8790
5.839113 0.8830 0.8860 0.8860 0.8880 0.8900
5.873000 0.8900 0.8880 0.8880 0.8850 0.8850
5.907113 0.8830 0.8850 0.8860 0.8910 0.8910
5.942000 0.8880 0.8860 0.8850 0.8830 0.8830
5.976113 0.8830 0.8810 0.8790 0.8780 0.8760
6.010000 0.8730 0.8710 0.8690 0.8690 0.8690
6.044113 0.8690 0.8690 0.8590 0.8550 0.8520
6.078000 0.8500 0.8500 0.8500 0.8490 0.8490
6.112113 0.8490 0.8490 0.8490 0.8470 0.8450
6.146000 0.8470 0.8470 0.8470 0.8470 0.8470
6.180113 0.8470 0.8470 0.8470 0.8470 0.8450
6.214000 0.8430 0.8400 0.8380 0.8300 0.8260
6.248113 0.8260 0.8280 0.8380 0.8400 0.8450
6.283000 0.8470 0.8490 0.8500 0.8520 0.8550
6.317113 0.8550 0.8550 0.8550 0.8500 0.8490
6.351000 0.8490 0.8470 0.8470 0.8470 0.8490
6.385113 0.8500 0.8490 0.8470 0.8380 0.8300
6.419000 0.8300 0.8370 0.8490 0.8500 0.8500
6.453113 0.8500 0.8470 0.8420 0.8370 0.8300
6.487000 0.8280 0.8300 0.8310 0.8330 0.8370
6.521113 0.8370 0.8330 0.8310 0.8210 0.8180
6.555000 0.8110 0.8070 0.8060 0.8060 0.8020
6.589113 0.8010 0.7940 0.7820 0.7680 0.7580
6.623000 0.7390 0.7270 0.7150 0.6980 0.6680
6.657113 0.6430 0.6170 0.5620 0.5260 0.4630
6.692000 0.4230 0.3920 0.3840 0.3820 0.3850
6.726113 0.3910 0.3920 0.3910 0.3870 0.3870
6.760000 0.4090 0.4320 0.4420 0.4450 0.4450
6.794113 0.4450 0.4450 0.2550 0.0650 0.0420
6.828000 0.0390 0.0410 0.0600 0.0800 0.1010
6.862113 0.1210 0.1420 0.1590 0.1880 0.1970
6.896000 0.2040 0.2220 0.2480 0.2830 0.3030
6.930113 0.4440 0.4950 0.5360 0.5710 0.5980
6.964000 0.6150 0.6310 0.6440 0.6620 0.7080
6.998113 0.7270 0.7390 0.7490 0.7580 0.7590
7.033000 0.7660 0.7680 0.7710 0.7770 0.7800
7.067113 0.7850 0.7890 0.7890 0.7890 0.7890
7.101000 0.7870 0.7870 0.7850 0.7820 0.7780
7.135113 0.7770 0.7770 0.7730 0.7710 0.7660
7.169000 0.7650 0.7610 0.7590 0.7530 0.7460
7.203113 0.7270 0.7060 0.6860 0.6630 0.6290
7.237000 0.3730 0.3530 0.3320 0.2980 0.2960
7.271113 0.3000 0.4040 0.4560 0.4570 0.4540
7.305000 0.4450 0.4440 0.4470 0.5190 0.5880
7.339113 0.6360 0.7270 0.7350 0.7350 0.7350
7.374000 0.7300 0.7220 0.6840 0.6740 0.6630
7.408113 0.6240 0.5400 0.5020 0.4390 0.4370
7.442000 0.4400 0.4900 0.5470 0.6270 0.7270
7.476113 0.7540 0.7700 0.7890 0.7970 0.8060
7.510000 0.8090 0.8130 0.8160 0.8160 0.8160
7.544113 0.8160 0.8160 0.8110 0.8110 0.8110
7.578000 0.8110 0.8070 0.8010 0.7920 0.7870
7.612113 0.7820 0.7780 0.7770 0.7680 0.7590
7.646000 0.7530 0.7420 0.7270 0.7160 0.7060
7.680113 0.6870 0.6750 0.6620 0.6560 0.6510
7.715000 0.6500 0.6480 0.6500 0.6530 0.6560
7.749113 0.6600 0.6600 0.6580 0.6500 0.6320
7.783000 0.6190 0.6100 0.5950 0.5660 0.5140
7.817113 0.5070 0.4760 0.4510 0.4250 0.3720
7.851000 0.3410 0.3170 0.2930 0.2520 0.2140
7.885113 0.1860 0.1620 0.1520 0.1370 0.1330
7.919000 0.1330 0.1350 0.1380 0.1440 0.1520
7.953113 0.1660 0.1810 0.1850 0.2020 0.2040
7.987000 0.2090 0.2120 0.2190 0.2220 0.2220
8.021113 0.2160 0.2040 0.1880 0.1760 0.1620
8.056000 0.1520 0.1420 0.1320 0.1210 0.1110
8.090113 0.1010 0.0940 0.0840 0.0770 0.0730
8.124000 0.0730 0.0770 0.0900 0.1080 0.1250
8.158113 0.1420 0.1610 0.1780 0.1920 0.2050
8.192000 0.2160 0.2210 0.2280 0.2290 0.2310
8.226113 0.2280 0.2170 0.2140 0.2120 0.2140
8.260000 0.2240 0.2460 0.2760 0.3170 0.3820
8.294113 0.4090 0.4350 0.4560 0.4780 0.4970
8.328000 0.5160 0.5350 0.5480 0.5620 0.5710
8.362113 0.5760 0.5840 0.5840 0.5880 0.5950
8.396000 0.5950 0.5960 0.5960 0.5980 0.6000
8.430113 0.6030 0.6070 0.6080 0.6100 0.6150
8.465000 0.6170 0.6190 0.6260 0.6270 0.6290
8.499113 0.6310 0.6310 0.6340 0.6380 0.6390
8.533000 0.6390 0.6390 0.6380 0.6380 0.6340
8.567113 0.6320 0.6290 0.6270 0.6260 0.6240
8.601000 0.6190 0.6140 0.6120 0.6080 0.6050
8.635113 0.6000 0.5910 0.5790 0.5740 0.5600
8.669000 0.5500 0.5330 0.5160 0.4990 0.4760
8.703113 0.4510 0.4160 0.3960 0.3790 0.3680
8.737000 0.3580 0.3530 0.3480 0.3510 0.3580
8.771113 0.3700 0.3800 0.3870 0.3940 0.3970
8.806000 0.4030 0.4040 0.4030 0.3990 0.3970
8.840113 0.3960 0.3870 0.3800 0.3720 0.3560
8.874000 0.3460 0.3360 0.3320 0.3270 0.3100
8.908113 0.2980 0.2770 0.2620 0.2450 0.2260
8.942000 0.2090 0.1920 0.1740 0.1590 0.1440
8.976113 0.1280 0.1130 0.0990 0.0870 0.0750
9.010000 0.0610 0.0490 0.0370 0.0300 0.0270
9.044113 0.0250 0.0220 0.0180 0.0150 0.0130
9.078000 0.0120 0.0100 0.0100 0.0080 0.0080
9.112113 0.0080 0.0080 0.0080 0.0080 0.0080
9.147000 0.0080 0.0060 0.0060 0.0060 0.0060
9.181113 0.0060 0.0060 0.0060 0.0060 0.0060
9.215000 0.0080 0.0080 0.0080 0.0080 0.0100
9.249113 0.0100 0.0100 0.0100 0.0100 0.0100
9.283000 0.0100 0.0100 0.0130 0.0180 0.0270
9.317113 0.0300 0.0370 0.0390 0.0460 0.0530
9.351000 0.0630 0.0700 0.0750 0.0780 0.0870
9.385113 0.0900 0.0940 0.0990 0.1040 0.1060
9.419000 0.1080 0.1090 0.1110 0.1110 0.1060
9.453113 0.0990 0.0920 0.0840 0.0770 0.0680
9.488000 0.0600 0.0480 0.0420 0.0360 0.0270
9.522113 0.0250 0.0250 0.0200 0.0170 0.0150
9.556000 0.0130 0.0120 0.0120 0.0100 0.0100
9.590113 0.0100 0.0100 0.0100 0.0080 0.0080
9.624000 0.0080 0.0080 0.0080 0.0080 0.0100
9.658113 0.0100 0.0100 0.0100 0.0120 0.0130
9.692000 0.0180 0.0250 0.0290 0.0370 0.0420
9.726113 0.0490 0.0560 0.0650 0.0720 0.0800
9.760000 0.0850 0.0870 0.0890 0.0890 0.0900
9.794113 0.0900 0.0890 0.0840 0.0730 0.0630
9.829000 0.0530 0.0420 0.0320 0.0270 0.0220
9.863113 0.0200 0.0180 0.0180 0.0170 0.0170
9.897000 0.0170 0.0170 0.0170 0.0170 0.0180
9.931113 0.0180 0.0180 0.0180 0.0200 0.0200
9.965000 0.0200 0.0220 0.0220 0.0220 0.0220
9.999113 0.0220 0.0220 0.0220 0.0250 0.0270
10.033000 0.0300 0.0360 0.0370 0.0370 0.0390
10.067113 0.0410 0.0410 0.0420 0.0420 0.0420
10.101000 0.0460 0.0730 0.0920 0.1090 0.1320
10.135113 0.1520 0.1780 0.2020 0.2260 0.2460
10.170000 0.2670 0.2830 0.3010 0.3190 0.3560
10.204113 0.3750 0.3920 0.4060 0.4160 0.4230
10.238000 0.4330 0.4390 0.4490 0.4560 0.4570
10.272113 0.4640 0.4680 0.4690 0.4710 0.4730
10.306000 0.4710 0.4690 0.4680 0.4630 0.4560
10.340113 0.4440 0.4280 0.4180 0.3970 0.3730
10.374000 0.3480 0.3370 0.3150 0.2910 0.2690
10.408113 0.2160 0.1660 0.1440 0.1250 0.1020
10.442000 0.0780 0.0630 0.0530 0.0460 0.0370
10.476113 0.0370 0.0360 0.0360 0.0370 0.0390
10.510000 0.0460 0.0580 0.0850 0.1080 0.1280
10.544113 0.1520 0.1760 0.2070 0.2330 0.2570
10.579000 0.2770 0.3000 0.3250 0.3800 0.4040
10.613113 0.4280 0.4450 0.4570 0.4760 0.5000
10.647000 0.5230 0.5330 0.5520 0.5810 0.5950
10.681113 0.6140 0.6260 0.6360 0.6530 0.6630
10.715000 0.6820 0.6940 0.6990 0.7060 0.7100
10.749113 0.7200 0.7270 0.7350 0.7390 0.7420
10.783000 0.7420 0.7470 0.7540 0.7590 0.7630
10.817113 0.7680 0.7700 0.7770 0.7780 0.7800
10.851000 0.7820 0.7870 0.7870 0.7890 0.7900
10.885113 0.7950 0.7970 0.7990 0.8010 0.8010
10.920000 0.8060 0.8070 0.8070 0.8090 0.8090
10.954113 0.8110 0.8140 0.8140 0.8160 0.8160
10.988000 0.8180 0.8180 0.8180 0.8190 0.8190
11.022113 0.8210 0.8210 0.8210 0.8210 0.8210
11.056000 0.8210 0.8210 0.8210 0.8210 0.8210
11.090113 0.8210 0.8210 0.8210 0.8210 0.8210
11.124000 0.8210 0.8210 0.8210 0.8210 0.8210
11.158113 0.8210 0.8190 0.8190 0.8180 0.8180
11.192000 0.8160 0.8140 0.8130 0.8130 0.8110
11.226113 0.8090 0.8060 0.8040 0.8020 0.8010
11.261000 0.7990 0.7970 0.7940 0.7920 0.7920
11.295113 0.7900 0.7870 0.7870 0.7850 0.7850
11.329000 0.7830 0.7820 0.7800 0.7800 0.7800
11.363113 0.7800 0.7800 0.7800 0.7820 0.7830
11.397000 0.7890 0.7900 0.7920 0.7950 0.7970
11.431113 0.7990 0.8020 0.8060 0.8090 0.8140
11.465000 0.8160 0.8160 0.8180 0.8190 0.8210
11.499113 0.8230 0.8230 0.8250 0.8260 0.8260
11.533000 0.8280 0.8280 0.8300 0.8300 0.8310
11.567113 0.8330 0.8350 0.8350 0.8370 0.8370
11.602000 0.8370 0.8370 0.8370 0.8370 0.8350
11.636113 0.8310 0.8280 0.8260 0.8190 0.8130
11.670000 0.8070 0.7970 0.7870 0.7750 0.7590
11.704113 0.7490 0.7280 0.6890 0.6770 0.6670
11.738000 0.6550 0.6270 0.6080 0.5910 0.5780
11.772113 0.5740 0.5740 0.5760 0.5880 0.6020
11.806000 0.6190 0.6390 0.6580 0.6870 0.7060
11.840113 0.7320 0.7350 0.7580 0.7710 0.7830
11.874000 0.7940 0.8110 0.8180 0.8260 0.8300
11.908113 0.8350 0.8350 0.8380 0.8500 0.8550
11.943000 0.8550 0.8590 0.8610 0.8660 0.8670
11.977113 0.8730 0.8760 0.8780 0.8830 0.8860
12.011000 0.8880 0.8900 0.8910 0.8930 0.8950
12.045113 0.8970 0.8980 0.9000 0.9020 0.9030
12.079000 0.9030 0.9050 0.9050 0.9070 0.9070
12.113113 0.9090 0.9090 0.9090 0.9090 0.9090
12.147000 0.9090 0.9090 0.9100 0.9100 0.9120
12.181113 0.9120 0.9120 0.9140 0.9140 0.9140
12.215000 0.9150 0.9150 0.9150 0.9150 0.9170
12.249113 0.9170 0.9170 0.9170 0.9190 0.9190
12.283000 0.9190 0.9190 0.9190 0.9190 0.9190
12.317113 0.9190 0.9190 0.9190 0.9190 0.9190
12.352000 0.9210 0.9210 0.9210 0.9210 0.9210
12.386113 0.9220 0.9220 0.9220 0.9220 0.9220
12.420000 0.9220 0.9220 0.9220 0.9220 0.9220
12.454113 0.9220 0.9220 0.9220 0.9220 0.9220
12.488000 0.9220 0.9220 0.9210 0.9210 0.9190
12.522113 0.9210 0.9210 0.9210 0.9210 0.9210
12.556000 0.9210 0.9210 0.9210 0.9190 0.9190
12.590113 0.9190 0.9190 0.9190 0.9170 0.9150
12.624000 0.9150 0.9070 0.9050 0.8980 0.8970
12.658113 0.8860 0.8730 0.8550 0.8380 0.8230
12.693000 0.8130 0.7990 0.7890 0.7780 0.7750
12.727113 0.7730 0.7730 0.7750 0.7890 0.8010
12.761000 0.8160 0.8250 0.8370 0.8430 0.8450
12.795113 0.8570 0.8670 0.8760 0.8810 0.8850
12.829000 0.8880 0.8910 0.8950 0.8970 0.8980
12.863113 0.9000 0.9020 0.9030 0.9050 0.9050
12.897000 0.9050 0.9050 0.9050 0.9070 0.9090
12.931113 0.9100 0.9120 0.9140 0.9150 0.9150
12.965000 0.9170 0.9190 0.9190 0.9170 0.9190
12.999113 0.9190 0.9190 0.9190 0.9190 0.9210
13.034000 0.9210 0.9210 0.9210 0.9220 0.9220
13.068113 0.9220 0.9220 0.9220 0.9220 0.9220
13.102000 0.9220 0.9220 0.9220 0.9240 0.9240
13.136113 0.9240 0.9240 0.9260 0.9260 0.9260
13.170000 0.9260 0.9260 0.9260 0.9260 0.9260
13.204113 0.9260 0.9260 0.9260 0.9260 0.9260
13.238000 0.9260 0.9260 0.9260 0.9260 0.9260
13.272113 0.9240 0.9240 0.9240 0.9240 0.9240
13.306000 0.9240 0.9240 0.9240 0.9240 0.9240
13.340113 0.9240 0.9240 0.9240 0.9240 0.9240
13.375000 0.9240 0.9240 0.9240 0.9240 0.9240
13.409113 0.9240 0.9240 0.9240 0.9240 0.9240
13.443000 0.9240 0.9240 0.9240 0.9240 0.9240
13.477113 0.9240 0.9220 0.9220 0.9220 0.9220
13.511000 0.9220 0.9220 0.9220 0.9220 0.9220
13.545113 0.9220 0.9210 0.9210 0.9210 0.9210
13.579000 0.9210 0.9190 0.9190 0.9190 0.9170
13.613113 0.9170 0.9170 0.9170 0.9170 0.9150
13.647000 0.9150 0.9140 0.9140 0.9120 0.9120
13.681113 0.9100 0.9100 0.9090 0.9070 0.9070
13.716000 0.9070 0.9050 0.9050 0.9050 0.9070
13.750113 0.9070 0.9070 0.9050 0.9050 0.9050
13.784000 0.9030 0.9030 0.9030 0.9030 0.9030
13.818113 0.9020 0.9000 0.9000 0.9000 0.9000
13.852000 0.8980 0.8980 0.8980 0.8970 0.8970
13.886113 0.8970 0.8970 0.8970 0.8970 0.8970
13.920000 0.8950 0.8950 0.8950 0.8950 0.8930
13.954113 0.8930 0.8910 0.8910 0.8900 0.8860
13.988000 0.8850 0.8830 0.8810 0.8790 0.8790
14.022113 0.8780 0.8780 0.8780 0.8760 0.8760
14.057000 0.8760 0.8740 0.8740 0.8730 0.8710
14.091113 0.8710 0.8690 0.8690 0.8670 0.8660
14.125000 0.8640 0.8570 0.8550 0.8540 0.8540
14.159113 0.8540 0.8540 0.8520 0.8520 0.8500
14.193000 0.8490 0.8470 0.8450 0.8450 0.8450
14.227113 0.8430 0.8400 0.8380 0.8370 0.8370
14.261000 0.8350 0.8300 0.8280 0.8260 0.8250
14.295113 0.8250 0.8210 0.8180 0.8180 0.8160
14.329000 0.8160 0.8160 0.8140 0.8110 0.8090
14.363113 0.8070 0.8040 0.8040 0.8020 0.8020
14.397000 0.8010 0.7970 0.7950 0.7940 0.7890
14.431113 0.7870 0.7830 0.7800 0.7770 0.7750
14.466000 0.7710 0.7700 0.7680 0.7660 0.7590
14.500113 0.7580 0.7540 0.7510 0.7470 0.7460
14.534000 0.7460 0.7440 0.7390 0.7370 0.7370
14.568113 0.7350 0.7340 0.7320 0.7300 0.7280
14.602000 0.7250 0.7230 0.7200 0.7200 0.7160
14.636113 0.7130 0.7130 0.7110 0.7110 0.7100
14.670000 0.7100 0.7080 0.7080 0.7080 0.7080
14.704113 0.7060 0.7060 0.7060 0.7060 0.7040
14.738000 0.7040 0.7040 0.7040 0.7060 0.7060
14.772113 0.7060 0.7060 0.7060 0.7060 0.7080
14.807000 0.7080 0.7080 0.7080 0.7080 0.7100
14.841113 0.7100 0.7100 0.7110 0.7110 0.7130
14.875000 0.7150 0.7160 0.7160 0.7180 0.7180
14.909113 0.7180 0.7200 0.7200 0.7180 0.7180
14.943000 0.7180 0.7160 0.7150 0.7150 0.7130
14.977113 0.7130 0.7130 0.7130 0.7130 0.7130
15.011000 0.7130 0.7130 0.7150 0.7150 0.7150
15.045113 0.7150 0.7160 0.7180 0.7180 0.7230
15.079000 0.7230 0.7250 0.7250 0.7250 0.7270
15.113113 0.7280 0.7280 0.7280 0.7280 0.7280
15.148000 0.7280 0.7280 0.7280 0.7270 0.7270
15.182113 0.7250 0.7250 0.7250 0.7230 0.7220
15.216000 0.7220 0.7220 0.7220 0.7200 0.7200
15.250113 0.7180 0.7160 0.7160 0.7150 0.7130
15.284000 0.7130 0.7110 0.7100 0.7060 0.7060
15.318113 0.7040 0.7040 0.7030 0.7010 0.6990
15.352000 0.6980 0.6960 0.6940 0.6920 0.6920
15.386113 0.6910 0.6910 0.6890 0.6890 0.6870
15.420000 0.6860 0.6860 0.6840 0.6840 0.6820
15.454113 0.6800 0.6790 0.6770 0.6750 0.6750
15.489000 0.6740 0.6720 0.6700 0.6700 0.6680
15.523113 0.6670 0.6670 0.6650 0.6650 0.6630
15.557000 0.6620 0.6600 0.6600 0.6580 0.6560
15.591113 0.6550 0.6530 0.6510 0.6500 0.6460
15.625000 0.6440 0.6410 0.6390 0.6380 0.6360
15.659113 0.6340 0.6310 0.6290 0.6260 0.6240
15.693000 0.6200 0.6150 0.6140 0.6100 0.6070
15.727113 0.6030 0.5980 0.5960 0.5950 0.5900
15.761000 0.5840 0.5780 0.5740 0.5720 0.5710
15.795113 0.5660 0.5620 0.5570 0.5550 0.5470
15.830000 0.5450 0.5450 0.5380 0.5350 0.5350
15.864113 0.5300 0.5260 0.5240 0.5240 0.5210
15.898000 0.5210 0.5180 0.5180 0.5160 0.5160
15.932113 0.5160 0.5160 0.5160 0.5160 0.5160
15.966000 0.5180 0.5180 0.5180 0.5190 0.5190
16.000113 0.5190
##END=
