##TITLE=Cedrenol (mixed isomers)
##JCAMP-DX=4.24
##DATA TYPE=INFRARED SPECTRUM
##CLASS=COBLENTZ
##ORIGIN=COLGATE-PALMOLIVE COMPANY (KELLENBACH)
##OWNER=Copyright (C) 1987 by the Coblentz Society
Collection (C) 2018 copyright by the U.S. Secretary of Commerce
on behalf of the United States of America. All rights reserved.
##DATE=1970/06/22
##MOLFORM=C15 H24 O
##SOURCE REFERENCE=COBLENTZ NO. 9752
##$NIST ID=B6009752
##$NIST SOURCE=COBLENTZ
##$NIST IMAGE=cob9752
##SPECTROMETER/DATA SYSTEM=BECKMAN IR-12 (GRATING)
##INSTRUMENT PARAMETERS=GRATINGS BLAZED AT 3, 7.5, 22.5, 45 MICRON; FILTERS AT 200, 300, 500, 800, 1100, 1800, 2900, 4000
##STATE=SOLID (2 mg / 200 mg (1%) KBr DISC)
$$ SOURCE - DAUPHIN S. A.
$$SPECTRAL CONTAMINATION DUE TO AN UNKNOWN AROUND 200 CM^-^1
##SAMPLING PROCEDURE=TRANSMISSION
##RESOLUTION=2
##DATA PROCESSING=DIGITIZED BY COBLENTZ SOCIETY (BATCH II) FROM HARD COPY
##XUNITS=1/CM
##YUNITS=TRANSMITTANCE
##XFACTOR=1.0
##YFACTOR=1
##FIRSTX=203
##LASTX=4000
##FIRSTY=0.0883
##MAXX=4000
##MINX=203
##MAXY=0.9076
##MINY=0.011
##NPOINTS=3798
##XYDATA=(X++(Y..Y))
203.000000 0.0883 0.0861 0.0843 0.0825 0.0805
208.000000 0.0780 0.0756 0.0731 0.0707 0.0683
213.000000 0.0659 0.0635 0.0593 0.0548 0.0503
218.000000 0.0468 0.0439 0.0409 0.0380 0.0362
223.000000 0.0354 0.0375 0.0396 0.0420 0.0455
228.000000 0.0488 0.0522 0.0556 0.0590 0.0624
233.000000 0.0702 0.0819 0.0936 0.1053 0.1170
238.000000 0.1287 0.1404 0.1521 0.1638 0.1755
243.000000 0.1814 0.1824 0.1841 0.1871 0.1943
248.000000 0.2100 0.2256 0.2412 0.2568 0.2725
253.000000 0.2881 0.3037 0.3193 0.3350 0.3506
258.000000 0.3662 0.3818 0.3975 0.4131 0.4262
263.000000 0.4310 0.4358 0.4392 0.4426 0.4455
268.000000 0.4483 0.4511 0.4757 0.5026 0.5293
273.000000 0.5356 0.5376 0.5390 0.5398 0.5407
278.000000 0.5415 0.5423 0.5430 0.5436 0.5443
283.000000 0.5450 0.5500 0.5564 0.5628 0.5692
288.000000 0.5756 0.5820 0.5884 0.5948 0.6012
293.000000 0.6076 0.6140 0.6204 0.6268 0.6329
298.000000 0.6352 0.6384 0.6402 0.6417 0.6424
303.000000 0.6432 0.6434 0.6436 0.6438 0.6439
308.000000 0.6440 0.6441 0.6443 0.6446 0.6450
313.000000 0.6467 0.6484 0.6504 0.6524 0.6545
318.000000 0.6568 0.6591 0.6608 0.6618 0.6628
323.000000 0.6624 0.6617 0.6608 0.6572 0.6518
328.000000 0.6471 0.6424 0.6392 0.6383 0.6384
333.000000 0.6388 0.6392 0.6425 0.6462 0.6499
338.000000 0.6536 0.6573 0.6610 0.6647 0.6684
343.000000 0.6721 0.6758 0.6795 0.6832 0.6869
348.000000 0.6906 0.6940 0.6958 0.6966 0.6970
353.000000 0.6960 0.6945 0.6932 0.6921 0.6940
358.000000 0.7013 0.7099 0.7149 0.7195 0.7232
363.000000 0.7269 0.7306 0.7342 0.7378 0.7405
368.000000 0.7412 0.7418 0.7410 0.7398 0.7337
373.000000 0.7269 0.7207 0.7162 0.7117 0.7075
378.000000 0.7045 0.7041 0.7048 0.7034 0.7147
383.000000 0.7197 0.7247 0.7296 0.7346 0.7396
388.000000 0.7446 0.7495 0.7545 0.7595 0.7645
393.000000 0.7695 0.7744 0.7775 0.7772 0.7764
398.000000 0.7753 0.7738 0.7724 0.7710 0.7708
403.000000 0.7729 0.7774 0.7819 0.7864 0.7910
408.000000 0.7954 0.7962 0.7978 0.7966 0.7961
413.000000 0.7955 0.7937 0.7916 0.7879 0.7839
418.000000 0.7794 0.7737 0.7684 0.7636 0.7588
423.000000 0.7558 0.7538 0.7539 0.7539 0.7498
428.000000 0.7546 0.7568 0.7607 0.7639 0.7670
433.000000 0.7700 0.7726 0.7749 0.7772 0.7798
438.000000 0.7826 0.7854 0.7880 0.7903 0.7926
443.000000 0.7949 0.7969 0.7988 0.8006 0.8025
448.000000 0.8044 0.8061 0.8077 0.8094 0.8107
453.000000 0.8108 0.8109 0.8110 0.8131 0.8107
458.000000 0.8100 0.8078 0.8045 0.8012 0.7962
463.000000 0.7908 0.7857 0.7806 0.7757 0.7714
468.000000 0.7674 0.7675 0.7654 0.7685 0.7733
473.000000 0.7768 0.7801 0.7836 0.7871 0.7911
478.000000 0.7965 0.8017 0.8066 0.8114 0.8161
483.000000 0.8204 0.8217 0.8228 0.8235 0.8242
488.000000 0.8243 0.8245 0.8247 0.8247 0.8247
493.000000 0.8246 0.8245 0.8248 0.8243 0.8242
498.000000 0.8241 0.8240 0.8238 0.8235 0.8225
503.000000 0.8214 0.8204 0.8193 0.8183 0.8172
508.000000 0.8160 0.8149 0.8137 0.8125 0.8114
513.000000 0.8105 0.8100 0.8099 0.8105 0.8111
518.000000 0.8117 0.8127 0.8138 0.8150 0.8157
523.000000 0.8163 0.8164 0.8163 0.8162 0.8160
528.000000 0.8159 0.8157 0.8153 0.8149 0.8144
533.000000 0.8140 0.8121 0.8075 0.8024 0.7966
538.000000 0.7901 0.7833 0.7802 0.7794 0.7794
543.000000 0.7802 0.7808 0.7831 0.7851 0.7870
548.000000 0.7884 0.7894 0.7897 0.7892 0.7883
553.000000 0.7873 0.7856 0.7837 0.7818 0.7798
558.000000 0.7777 0.7756 0.7735 0.7713 0.7688
563.000000 0.7662 0.7636 0.7625 0.7623 0.7599
568.000000 0.7624 0.7625 0.7629 0.7648 0.7676
573.000000 0.7704 0.7736 0.7770 0.7803 0.7839
578.000000 0.7876 0.7912 0.7944 0.7966 0.7988
583.000000 0.8011 0.8027 0.8040 0.8053 0.8063
588.000000 0.8067 0.8071 0.8075 0.8079 0.8082
593.000000 0.8085 0.8084 0.8084 0.8083 0.8104
598.000000 0.8081 0.8073 0.8065 0.8049 0.8026
603.000000 0.8002 0.7909 0.7816 0.7724 0.7631
608.000000 0.7539 0.7446 0.7417 0.7436 0.7485
613.000000 0.7545 0.7605 0.7665 0.7726 0.7786
618.000000 0.7846 0.7906 0.7966 0.8001 0.8008
623.000000 0.8012 0.8015 0.8015 0.8015 0.8015
628.000000 0.8015 0.8013 0.8009 0.8005 0.8001
633.000000 0.8001 0.7986 0.7977 0.7968 0.7959
638.000000 0.7949 0.7938 0.7928 0.7917 0.7906
643.000000 0.7895 0.7880 0.7865 0.7847 0.7822
648.000000 0.7798 0.7774 0.7750 0.7726 0.7678
653.000000 0.7629 0.7579 0.7502 0.7422 0.7366
658.000000 0.7310 0.7022 0.6626 0.6230 0.5834
663.000000 0.5438 0.5042 0.4934 0.4900 0.4874
668.000000 0.4854 0.4842 0.4839 0.4847 0.5150
673.000000 0.5334 0.5517 0.5701 0.5884 0.6068
678.000000 0.6251 0.6435 0.6618 0.6802 0.6985
683.000000 0.7169 0.7210 0.7231 0.7254 0.7282
688.000000 0.7312 0.7343 0.7373 0.7402 0.7418
693.000000 0.7429 0.7429 0.7429 0.7447 0.7420
698.000000 0.7413 0.7402 0.7391 0.7379 0.7368
703.000000 0.7357 0.7356 0.7359 0.7374 0.7387
708.000000 0.7399 0.7397 0.7388 0.7378 0.7368
713.000000 0.7359 0.7352 0.7344 0.7337 0.7330
718.000000 0.7329 0.7327 0.7325 0.7324 0.7325
723.000000 0.7331 0.7336 0.7342 0.7348 0.7353
728.000000 0.7358 0.7362 0.7367 0.7372 0.7366
733.000000 0.7354 0.7343 0.7331 0.7318 0.7306
738.000000 0.7294 0.7281 0.7267 0.7252 0.7237
743.000000 0.7222 0.7206 0.7198 0.7189 0.7181
748.000000 0.7172 0.7164 0.7167 0.7171 0.7175
753.000000 0.7140 0.7217 0.7270 0.7330 0.7394
758.000000 0.7476 0.7559 0.7635 0.7685 0.7664
763.000000 0.7665 0.7662 0.7659 0.7648 0.7631
768.000000 0.7615 0.7598 0.7581 0.7564 0.7547
773.000000 0.7530 0.7512 0.7491 0.7471 0.7451
778.000000 0.7431 0.7411 0.7391 0.7371 0.7351
783.000000 0.7331 0.7312 0.7292 0.7274 0.7255
788.000000 0.7236 0.7218 0.7199 0.7180 0.7162
793.000000 0.7141 0.7118 0.7106 0.7106 0.7104
798.000000 0.7118 0.7135 0.7152 0.7172 0.7191
803.000000 0.7213 0.7235 0.7258 0.7286 0.7315
808.000000 0.7345 0.7369 0.7391 0.7413 0.7435
813.000000 0.7442 0.7438 0.7434 0.7430 0.7425
818.000000 0.7421 0.7417 0.7414 0.7458 0.7506
823.000000 0.7556 0.7601 0.7636 0.7671 0.7705
828.000000 0.7733 0.7762 0.7785 0.7805 0.7824
833.000000 0.7833 0.7841 0.7850 0.7843 0.7696
838.000000 0.7580 0.7465 0.7350 0.7234 0.7225
843.000000 0.7228 0.7383 0.7494 0.7605 0.7716
848.000000 0.7826 0.7937 0.8012 0.8054 0.8091
853.000000 0.8121 0.8152 0.8176 0.8189 0.8202
858.000000 0.8218 0.8204 0.8125 0.7933 0.7741
863.000000 0.7549 0.7357 0.7165 0.6973 0.6793
868.000000 0.6794 0.6819 0.6779 0.6985 0.7068
873.000000 0.7150 0.7233 0.7316 0.7399 0.7482
878.000000 0.7565 0.7648 0.7669 0.7654 0.7127
883.000000 0.6433 0.5738 0.5043 0.4349 0.3654
888.000000 0.2959 0.2265 0.1570 0.1291 0.1291
893.000000 0.1294 0.1794 0.2331 0.2869 0.3406
898.000000 0.3943 0.4480 0.5017 0.5555 0.6092
903.000000 0.6629 0.7166 0.7608 0.7795 0.7846
908.000000 0.7863 0.7880 0.7900 0.7923 0.7935
913.000000 0.7970 0.7656 0.7429 0.7202 0.6975
918.000000 0.6880 0.7036 0.7195 0.6872 0.7515
923.000000 0.7674 0.7752 0.7766 0.7784 0.7830
928.000000 0.7940 0.8051 0.8161 0.8260 0.8262
933.000000 0.8277 0.8161 0.8066 0.7970 0.7875
938.000000 0.7779 0.7684 0.7588 0.7493 0.7424
943.000000 0.7422 0.7576 0.7687 0.7797 0.7908
948.000000 0.8018 0.8129 0.8239 0.8350 0.8422
953.000000 0.8426 0.8428 0.8421 0.8198 0.8083
958.000000 0.8054 0.8055 0.8045 0.7896 0.7746
963.000000 0.7596 0.7530 0.7538 0.7625 0.7712
968.000000 0.7714 0.7715 0.7596 0.7602 0.7636
973.000000 0.7671 0.7689 0.7629 0.7412 0.7195
978.000000 0.6978 0.6770 0.6808 0.6907 0.7005
983.000000 0.7104 0.7202 0.7300 0.7399 0.7455
988.000000 0.7441 0.7444 0.6830 0.6192 0.5554
993.000000 0.4916 0.4278 0.3639 0.3001 0.2641
998.000000 0.2641 0.2653 0.3365 0.3894 0.4423
1003.000000 0.4951 0.5480 0.5566 0.5622 0.5692
1008.000000 0.5924 0.6212 0.6499 0.6787 0.7074
1013.000000 0.7281 0.7343 0.7331 0.7329 0.7314
1018.000000 0.6887 0.6425 0.5964 0.5636 0.5633
1023.000000 0.5750 0.5976 0.6202 0.6428 0.6654
1028.000000 0.6880 0.7106 0.7332 0.7399 0.7405
1033.000000 0.7413 0.7415 0.7415 0.7412 0.7425
1038.000000 0.7113 0.6803 0.6493 0.6183 0.5873
1043.000000 0.5563 0.5253 0.4943 0.4633 0.4323
1048.000000 0.4013 0.3703 0.3393 0.3083 0.2773
1053.000000 0.2463 0.2153 0.1843 0.1533 0.1291
1058.000000 0.1303 0.1294 0.1616 0.1991 0.2365
1063.000000 0.2740 0.3114 0.3489 0.3863 0.4120
1068.000000 0.4148 0.4006 0.3840 0.3674 0.3509
1073.000000 0.3279 0.3279 0.3390 0.3649 0.3909
1078.000000 0.3929 0.3929 0.3588 0.3351 0.3114
1083.000000 0.2878 0.2641 0.2454 0.2474 0.2547
1088.000000 0.2750 0.2954 0.3158 0.3361 0.3565
1093.000000 0.3768 0.3972 0.4176 0.4379 0.4458
1098.000000 0.4467 0.4491 0.4755 0.5018 0.5281
1103.000000 0.5545 0.5808 0.6071 0.6335 0.6598
1108.000000 0.6963 0.7124 0.7199 0.7275 0.7336
1113.000000 0.7382 0.7428 0.7454 0.7474 0.7494
1118.000000 0.7506 0.7513 0.7521 0.7522 0.7541
1123.000000 0.7517 0.7500 0.7315 0.7081 0.6847
1128.000000 0.6613 0.6379 0.6145 0.5907 0.5838
1133.000000 0.5534 0.5230 0.4926 0.4622 0.4318
1138.000000 0.4244 0.4275 0.4450 0.4748 0.5046
1143.000000 0.5343 0.5641 0.5939 0.6237 0.6535
1148.000000 0.6832 0.7130 0.7428 0.7726 0.7834
1153.000000 0.7847 0.7847 0.7844 0.7821 0.7630
1158.000000 0.7501 0.7373 0.7245 0.7117 0.6988
1163.000000 0.6928 0.6926 0.6846 0.6667 0.6489
1168.000000 0.6310 0.6132 0.5954 0.5886 0.5882
1173.000000 0.6038 0.6218 0.6399 0.6579 0.6759
1178.000000 0.6939 0.7120 0.7300 0.7480 0.7660
1183.000000 0.7785 0.7776 0.7736 0.7690 0.7644
1188.000000 0.7598 0.7552 0.7506 0.7460 0.7429
1193.000000 0.7444 0.7450 0.7457 0.7493 0.7579
1198.000000 0.7665 0.7751 0.7838 0.7924 0.8010
1203.000000 0.8096 0.8180 0.8236 0.8269 0.8301
1208.000000 0.8333 0.8358 0.8377 0.8396 0.8415
1213.000000 0.8419 0.8424 0.8421 0.8418 0.8406
1218.000000 0.8394 0.8362 0.8327 0.8287 0.8243
1223.000000 0.8199 0.8151 0.8103 0.8028 0.7872
1228.000000 0.7716 0.7560 0.7403 0.7247 0.7196
1233.000000 0.7199 0.7285 0.7379 0.7473 0.7566
1238.000000 0.7660 0.7769 0.7824 0.7868 0.7906
1243.000000 0.7940 0.7974 0.8008 0.8034 0.8060
1248.000000 0.8072 0.8076 0.8059 0.8039 0.8016
1253.000000 0.7984 0.7690 0.7356 0.7023 0.6690
1258.000000 0.6356 0.6023 0.5690 0.5356 0.5023
1263.000000 0.4690 0.4356 0.4347 0.4332 0.4496
1268.000000 0.4786 0.5077 0.5368 0.5659 0.5950
1273.000000 0.6241 0.6532 0.6823 0.7113 0.7378
1278.000000 0.7368 0.7357 0.7345 0.7357 0.7394
1283.000000 0.7304 0.7205 0.7106 0.7006 0.6907
1288.000000 0.6816 0.6791 0.6760 0.6690 0.6618
1293.000000 0.6547 0.6476 0.6404 0.6425 0.6506
1298.000000 0.6652 0.6798 0.6944 0.7090 0.7236
1303.000000 0.7238 0.7238 0.7254 0.7110 0.6989
1308.000000 0.6868 0.6748 0.6627 0.6506 0.6386
1313.000000 0.6265 0.6144 0.6023 0.5812 0.5812
1318.000000 0.5952 0.6339 0.6726 0.6894 0.6868
1323.000000 0.6735 0.6580 0.6426 0.6316 0.6439
1328.000000 0.6299 0.7043 0.7345 0.7448 0.7481
1333.000000 0.7499 0.7501 0.7519 0.7325 0.7231
1338.000000 0.7137 0.7042 0.6948 0.6853 0.6759
1343.000000 0.6669 0.6627 0.6603 0.6591 0.6641
1348.000000 0.6795 0.6950 0.7105 0.7260 0.7415
1353.000000 0.7423 0.7429 0.7419 0.7095 0.6645
1358.000000 0.6195 0.5913 0.5889 0.5858 0.5509
1363.000000 0.5132 0.4756 0.4379 0.4119 0.4121
1368.000000 0.5076 0.6227 0.6376 0.6376 0.6364
1373.000000 0.6118 0.5906 0.5901 0.5948 0.6010
1378.000000 0.6017 0.5969 0.5849 0.5729 0.5713
1383.000000 0.5781 0.5882 0.5983 0.6050 0.6051
1388.000000 0.5877 0.5679 0.5481 0.5283 0.5085
1393.000000 0.4920 0.4928 0.4998 0.5156 0.5314
1398.000000 0.5473 0.5631 0.5789 0.5947 0.6055
1403.000000 0.6128 0.6172 0.6195 0.6205 0.6191
1408.000000 0.6199 0.6183 0.6100 0.6012 0.5924
1413.000000 0.5836 0.5748 0.5660 0.5572 0.5484
1418.000000 0.5396 0.5309 0.5221 0.5133 0.5045
1423.000000 0.4957 0.4869 0.4781 0.4693 0.4605
1428.000000 0.4517 0.4429 0.4341 0.4253 0.4169
1433.000000 0.4140 0.4114 0.4085 0.4050 0.4012
1438.000000 0.3888 0.3741 0.3594 0.3447 0.3300
1443.000000 0.3153 0.3006 0.2859 0.2712 0.2565
1448.000000 0.2418 0.2271 0.2124 0.1977 0.1830
1453.000000 0.1732 0.1667 0.1639 0.1622 0.1617
1458.000000 0.1603 0.1643 0.1806 0.2020 0.2235
1463.000000 0.2449 0.2663 0.2877 0.2917 0.2939
1468.000000 0.2958 0.2983 0.3106 0.3353 0.3601
1473.000000 0.3848 0.4096 0.4343 0.4591 0.4838
1478.000000 0.5086 0.5333 0.5581 0.5829 0.6076
1483.000000 0.6324 0.6564 0.6598 0.6631 0.6664
1488.000000 0.6726 0.7005 0.7156 0.7215 0.7243
1493.000000 0.7256 0.7262 0.7284 0.7341 0.7409
1498.000000 0.7461 0.7476 0.7479 0.7475 0.7472
1503.000000 0.7467 0.7459 0.7469 0.7531 0.7590
1508.000000 0.7642 0.7687 0.7729 0.7752 0.7764
1513.000000 0.7765 0.7767 0.7765 0.7762 0.7759
1518.000000 0.7764 0.7772 0.7785 0.7805 0.7827
1523.000000 0.7851 0.7880 0.7910 0.7941 0.7969
1528.000000 0.7995 0.8004 0.8000 0.7996 0.7985
1533.000000 0.7970 0.7953 0.7932 0.7911 0.7890
1538.000000 0.7873 0.7875 0.7880 0.7909 0.7932
1543.000000 0.7967 0.8013 0.8056 0.8099 0.8104
1548.000000 0.8108 0.8111 0.8104 0.8096 0.8089
1553.000000 0.8081 0.8070 0.8057 0.8045 0.8033
1558.000000 0.8019 0.8006 0.8022 0.8038 0.8055
1563.000000 0.8072 0.8088 0.8104 0.8121 0.8143
1568.000000 0.8165 0.8189 0.8214 0.8239 0.8262
1573.000000 0.8279 0.8296 0.8312 0.8329 0.8346
1578.000000 0.8360 0.8369 0.8378 0.8379 0.8377
1583.000000 0.8386 0.8375 0.8368 0.8350 0.8333
1588.000000 0.8316 0.8289 0.8249 0.8223 0.8197
1593.000000 0.8179 0.8178 0.8176 0.8174 0.8173
1598.000000 0.8173 0.8170 0.8166 0.8158 0.8141
1603.000000 0.8120 0.8095 0.8070 0.8045 0.8020
1608.000000 0.7995 0.7970 0.7944 0.7919 0.7894
1613.000000 0.7869 0.7844 0.7818 0.7793 0.7762
1618.000000 0.7728 0.7693 0.7659 0.7624 0.7580
1623.000000 0.7535 0.7490 0.7445 0.7383 0.7314
1628.000000 0.7248 0.7183 0.7027 0.6747 0.6467
1633.000000 0.6186 0.5906 0.5626 0.5345 0.5065
1638.000000 0.4785 0.4537 0.4505 0.4502 0.4502
1643.000000 0.4519 0.4714 0.5002 0.5289 0.5577
1648.000000 0.5865 0.5988 0.6282 0.6639 0.6996
1653.000000 0.7353 0.7557 0.7642 0.7722 0.7798
1658.000000 0.7875 0.7953 0.8026 0.8072 0.8118
1663.000000 0.8150 0.8164 0.8179 0.8193 0.8209
1668.000000 0.8226 0.8243 0.8261 0.8285 0.8309
1673.000000 0.8333 0.8357 0.8368 0.8372 0.8376
1678.000000 0.8369 0.8357 0.8345 0.8331 0.8317
1683.000000 0.8312 0.8349 0.8388 0.8419 0.8451
1688.000000 0.8475 0.8492 0.8509 0.8526 0.8529
1693.000000 0.8531 0.8534 0.8534 0.8533 0.8531
1698.000000 0.8529 0.8528 0.8525 0.8523 0.8520
1703.000000 0.8517 0.8525 0.8540 0.8565 0.8589
1708.000000 0.8614 0.8625 0.8637 0.8632 0.8620
1713.000000 0.8608 0.8596 0.8584 0.8572 0.8557
1718.000000 0.8562 0.8597 0.8633 0.8665 0.8690
1723.000000 0.8708 0.8711 0.8714 0.8717 0.8721
1728.000000 0.8716 0.8706 0.8697 0.8685 0.8670
1733.000000 0.8655 0.8644 0.8636 0.8643 0.8650
1738.000000 0.8660 0.8669 0.8678 0.8689 0.8699
1743.000000 0.8709 0.8719 0.8729 0.8739 0.8750
1748.000000 0.8760 0.8793 0.8820 0.8843 0.8866
1753.000000 0.8870 0.8874 0.8878 0.8881 0.8878
1758.000000 0.8908 0.8873 0.8871 0.8868 0.8865
1763.000000 0.8862 0.8860 0.8857 0.8855 0.8853
1768.000000 0.8852 0.8851 0.8849 0.8852 0.8858
1773.000000 0.8863 0.8865 0.8862 0.8859 0.8842
1778.000000 0.8820 0.8792 0.8746 0.8598 0.8399
1783.000000 0.8201 0.8002 0.7804 0.7605 0.7511
1788.000000 0.7547 0.7513 0.7633 0.7766 0.7900
1793.000000 0.8033 0.8167 0.8301 0.8434 0.8568
1798.000000 0.8701 0.8775 0.8802 0.8826 0.8847
1803.000000 0.8854 0.8861 0.8869 0.8871 0.8874
1808.000000 0.8876 0.8878 0.8880 0.8882 0.8893
1813.000000 0.8904 0.8917 0.8929 0.8941 0.8953
1818.000000 0.8965 0.8966 0.8958 0.8945 0.8931
1823.000000 0.8918 0.8908 0.8899 0.8889 0.8880
1828.000000 0.8879 0.8880 0.8888 0.8904 0.8920
1833.000000 0.8940 0.8961 0.8963 0.8962 0.8961
1838.000000 0.8960 0.8958 0.8947 0.8936 0.8925
1843.000000 0.8914 0.8916 0.8920 0.8924 0.8932
1848.000000 0.8942 0.8952 0.8962 0.8972 0.8983
1853.000000 0.8993 0.9003 0.9012 0.9020 0.9029
1858.000000 0.9038 0.9046 0.9050 0.9037 0.9025
1863.000000 0.9012 0.8999 0.8985 0.8974 0.8970
1868.000000 0.8992 0.9014 0.9037 0.9060 0.9070
1873.000000 0.9067 0.9057 0.9048 0.9041 0.9036
1878.000000 0.9030 0.9024 0.9020 0.9016 0.9012
1883.000000 0.9008 0.9004 0.9001 0.8999 0.9001
1888.000000 0.9002 0.9004 0.9005 0.9007 0.9009
1893.000000 0.9014 0.9019 0.9024 0.9028 0.9031
1898.000000 0.9032 0.9034 0.9035 0.9037 0.9038
1903.000000 0.9037 0.9030 0.9032 0.9030 0.9027
1908.000000 0.9024 0.9018 0.9012 0.9005 0.8999
1913.000000 0.8993 0.8987 0.8981 0.8978 0.8986
1918.000000 0.9002 0.9018 0.9031 0.9044 0.9051
1923.000000 0.9056 0.9059 0.9061 0.9063 0.9065
1928.000000 0.9067 0.9069 0.9071 0.9073 0.9074
1933.000000 0.9075 0.9076 0.9076 0.9076 0.9076
1938.000000 0.9075 0.9075 0.9075 0.9074 0.9074
1943.000000 0.9073 0.9073 0.9072 0.9071 0.9071
1948.000000 0.9070 0.9070 0.9069 0.9068 0.9068
1953.000000 0.9067 0.9065 0.9064 0.9063 0.9062
1958.000000 0.9060 0.9059 0.9058 0.9057 0.9055
1963.000000 0.9053 0.9052 0.9050 0.9048 0.9047
1968.000000 0.9045 0.9043 0.9042 0.9040 0.9039
1973.000000 0.9037 0.9035 0.9034 0.9032 0.9030
1978.000000 0.9029 0.9027 0.9025 0.9024 0.9022
1983.000000 0.9020 0.9019 0.9017 0.9016 0.9016
1988.000000 0.9015 0.9014 0.9013 0.9011 0.8996
1993.000000 0.8980 0.8961 0.8937 0.8912 0.8887
1998.000000 0.8858 0.8829 0.8803 0.8783 0.8764
2003.000000 0.8754 0.8744 0.8738 0.8733 0.8728
2008.000000 0.8723 0.8718 0.8714 0.8710 0.8706
2013.000000 0.8702 0.8698 0.8693 0.8689 0.8685
2018.000000 0.8681 0.8677 0.8673 0.8669 0.8665
2023.000000 0.8662 0.8659 0.8655 0.8652 0.8649
2028.000000 0.8646 0.8642 0.8639 0.8636 0.8633
2033.000000 0.8630 0.8628 0.8625 0.8622 0.8619
2038.000000 0.8617 0.8614 0.8612 0.8610 0.8609
2043.000000 0.8607 0.8605 0.8603 0.8602 0.8600
2048.000000 0.8599 0.8597 0.8595 0.8593 0.8592
2053.000000 0.8590 0.8589 0.8587 0.8585 0.8584
2058.000000 0.8583 0.8581 0.8580 0.8579 0.8578
2063.000000 0.8576 0.8575 0.8573 0.8572 0.8571
2068.000000 0.8570 0.8569 0.8568 0.8567 0.8566
2073.000000 0.8565 0.8564 0.8565 0.8567 0.8569
2078.000000 0.8572 0.8575 0.8578 0.8582 0.8586
2083.000000 0.8590 0.8594 0.8598 0.8602 0.8600
2088.000000 0.8599 0.8596 0.8594 0.8591 0.8588
2093.000000 0.8585 0.8582 0.8579 0.8576 0.8572
2098.000000 0.8569 0.8566 0.8564 0.8561 0.8559
2103.000000 0.8557 0.8555 0.8552 0.8550 0.8548
2108.000000 0.8546 0.8543 0.8541 0.8539 0.8537
2113.000000 0.8534 0.8532 0.8530 0.8528 0.8525
2118.000000 0.8523 0.8521 0.8519 0.8516 0.8514
2123.000000 0.8512 0.8510 0.8510 0.8510 0.8510
2128.000000 0.8511 0.8511 0.8512 0.8512 0.8513
2133.000000 0.8516 0.8520 0.8524 0.8528 0.8531
2138.000000 0.8535 0.8538 0.8542 0.8546 0.8550
2143.000000 0.8553 0.8557 0.8561 0.8565 0.8568
2148.000000 0.8572 0.8575 0.8579 0.8582 0.8585
2153.000000 0.8588 0.8592 0.8595 0.8598 0.8601
2158.000000 0.8605 0.8608 0.8611 0.8614 0.8617
2163.000000 0.8616 0.8616 0.8616 0.8616 0.8615
2168.000000 0.8615 0.8614 0.8614 0.8613 0.8613
2173.000000 0.8612 0.8612 0.8609 0.8606 0.8602
2178.000000 0.8599 0.8595 0.8592 0.8588 0.8585
2183.000000 0.8581 0.8578 0.8574 0.8571 0.8568
2188.000000 0.8565 0.8561 0.8558 0.8554 0.8551
2193.000000 0.8548 0.8545 0.8542 0.8540 0.8540
2198.000000 0.8540 0.8543 0.8568 0.8549 0.8553
2203.000000 0.8556 0.8559 0.8562 0.8565 0.8565
2208.000000 0.8565 0.8562 0.8560 0.8556 0.8552
2213.000000 0.8548 0.8545 0.8544 0.8543 0.8544
2218.000000 0.8545 0.8547 0.8550 0.8552 0.8555
2223.000000 0.8558 0.8561 0.8564 0.8567 0.8571
2228.000000 0.8575 0.8578 0.8582 0.8585 0.8588
2233.000000 0.8590 0.8592 0.8593 0.8594 0.8594
2238.000000 0.8594 0.8594 0.8594 0.8594 0.8594
2243.000000 0.8593 0.8592 0.8591 0.8590 0.8588
2248.000000 0.8587 0.8586 0.8585 0.8583 0.8582
2253.000000 0.8579 0.8577 0.8574 0.8572 0.8569
2258.000000 0.8567 0.8564 0.8562 0.8559 0.8557
2263.000000 0.8554 0.8552 0.8549 0.8547 0.8544
2268.000000 0.8542 0.8539 0.8537 0.8534 0.8532
2273.000000 0.8529 0.8526 0.8523 0.8521 0.8518
2278.000000 0.8516 0.8513 0.8510 0.8507 0.8504
2283.000000 0.8500 0.8497 0.8494 0.8491 0.8487
2288.000000 0.8484 0.8481 0.8478 0.8474 0.8471
2293.000000 0.8467 0.8464 0.8461 0.8458 0.8454
2298.000000 0.8451 0.8447 0.8443 0.8439 0.8435
2303.000000 0.8431 0.8427 0.8423 0.8420 0.8416
2308.000000 0.8412 0.8408 0.8404 0.8400 0.8397
2313.000000 0.8393 0.8389 0.8385 0.8381 0.8377
2318.000000 0.8374 0.8370 0.8366 0.8362 0.8358
2323.000000 0.8353 0.8348 0.8343 0.8338 0.8333
2328.000000 0.8329 0.8324 0.8319 0.8314 0.8310
2333.000000 0.8305 0.8300 0.8295 0.8290 0.8283
2338.000000 0.8276 0.8268 0.8261 0.8253 0.8246
2343.000000 0.8239 0.8232 0.8224 0.8217 0.8210
2348.000000 0.8203 0.8196 0.8189 0.8184 0.8180
2353.000000 0.8175 0.8170 0.8165 0.8150 0.8161
2358.000000 0.8161 0.8162 0.8163 0.8166 0.8169
2363.000000 0.8178 0.8187 0.8196 0.8205 0.8218
2368.000000 0.8231 0.8244 0.8258 0.8281 0.8304
2373.000000 0.8326 0.8349 0.8367 0.8386 0.8401
2378.000000 0.8417 0.8431 0.8446 0.8455 0.8465
2383.000000 0.8465 0.8465 0.8465 0.8465 0.8464
2388.000000 0.8463 0.8461 0.8460 0.8458 0.8457
2393.000000 0.8455 0.8454 0.8452 0.8451 0.8449
2398.000000 0.8448 0.8446 0.8445 0.8444 0.8443
2403.000000 0.8442 0.8441 0.8440 0.8439 0.8438
2408.000000 0.8437 0.8436 0.8435 0.8434 0.8433
2413.000000 0.8432 0.8432 0.8431 0.8430 0.8429
2418.000000 0.8428 0.8427 0.8426 0.8425 0.8424
2423.000000 0.8423 0.8422 0.8421 0.8421 0.8420
2428.000000 0.8420 0.8419 0.8418 0.8417 0.8417
2433.000000 0.8416 0.8416 0.8415 0.8415 0.8414
2438.000000 0.8414 0.8413 0.8413 0.8412 0.8412
2443.000000 0.8411 0.8411 0.8410 0.8410 0.8408
2448.000000 0.8406 0.8402 0.8398 0.8394 0.8391
2453.000000 0.8387 0.8383 0.8379 0.8376 0.8372
2458.000000 0.8368 0.8362 0.8356 0.8347 0.8339
2463.000000 0.8330 0.8321 0.8312 0.8303 0.8294
2468.000000 0.8285 0.8276 0.8267 0.8258 0.8249
2473.000000 0.8240 0.8232 0.8223 0.8214 0.8206
2478.000000 0.8198 0.8192 0.8187 0.8182 0.8177
2483.000000 0.8171 0.8166 0.8160 0.8155 0.8153
2488.000000 0.8152 0.8152 0.8152 0.8152 0.8152
2493.000000 0.8152 0.8152 0.8154 0.8157 0.8161
2498.000000 0.8166 0.8170 0.8174 0.8177 0.8181
2503.000000 0.8183 0.8186 0.8188 0.8190 0.8191
2508.000000 0.8193 0.8188 0.8184 0.8179 0.8174
2513.000000 0.8169 0.8165 0.8159 0.8154 0.8147
2518.000000 0.8140 0.8133 0.8126 0.8119 0.8112
2523.000000 0.8105 0.8098 0.8092 0.8087 0.8083
2528.000000 0.8079 0.8074 0.8070 0.8065 0.8061
2533.000000 0.8056 0.8052 0.8049 0.8046 0.8043
2538.000000 0.8040 0.8026 0.8012 0.7999 0.7987
2543.000000 0.7974 0.7962 0.7950 0.7938 0.7927
2548.000000 0.7916 0.7905 0.7894 0.7883 0.7872
2553.000000 0.7861 0.7851 0.7840 0.7830 0.7820
2558.000000 0.7810 0.7799 0.7789 0.7786 0.7784
2563.000000 0.7785 0.7787 0.7788 0.7790 0.7794
2568.000000 0.7799 0.7803 0.7808 0.7812 0.7817
2573.000000 0.7821 0.7825 0.7832 0.7839 0.7847
2578.000000 0.7855 0.7862 0.7870 0.7875 0.7881
2583.000000 0.7882 0.7883 0.7883 0.7884 0.7880
2588.000000 0.7877 0.7872 0.7868 0.7864 0.7860
2593.000000 0.7855 0.7851 0.7846 0.7842 0.7838
2598.000000 0.7834 0.7829 0.7825 0.7821 0.7817
2603.000000 0.7812 0.7808 0.7803 0.7799 0.7801
2608.000000 0.7803 0.7805 0.7808 0.7810 0.7813
2613.000000 0.7817 0.7822 0.7826 0.7830 0.7834
2618.000000 0.7838 0.7842 0.7847 0.7850 0.7854
2623.000000 0.7855 0.7857 0.7852 0.7848 0.7838
2628.000000 0.7829 0.7819 0.7810 0.7799 0.7789
2633.000000 0.7778 0.7768 0.7756 0.7744 0.7729
2638.000000 0.7715 0.7700 0.7686 0.7672 0.7658
2643.000000 0.7643 0.7628 0.7613 0.7599 0.7584
2648.000000 0.7570 0.7555 0.7540 0.7525 0.7511
2653.000000 0.7497 0.7483 0.7469 0.7455 0.7441
2658.000000 0.7427 0.7413 0.7399 0.7385 0.7371
2663.000000 0.7357 0.7343 0.7329 0.7315 0.7300
2668.000000 0.7286 0.7272 0.7258 0.7244 0.7230
2673.000000 0.7216 0.7202 0.7190 0.7179 0.7168
2678.000000 0.7158 0.7147 0.7137 0.7126 0.7116
2683.000000 0.7112 0.7109 0.7107 0.7105 0.7103
2688.000000 0.7102 0.7100 0.7098 0.7101 0.7104
2693.000000 0.7108 0.7112 0.7118 0.7125 0.7131
2698.000000 0.7138 0.7144 0.7150 0.7155 0.7160
2703.000000 0.7164 0.7169 0.7172 0.7175 0.7174
2708.000000 0.7174 0.7173 0.7173 0.7170 0.7168
2713.000000 0.7156 0.7145 0.7076 0.7030 0.7004
2718.000000 0.7001 0.7001 0.7001 0.7003 0.7005
2723.000000 0.7016 0.7028 0.7048 0.7068 0.7090
2728.000000 0.7113 0.7127 0.7142 0.7157 0.7172
2733.000000 0.7186 0.7201 0.7212 0.7224 0.7231
2738.000000 0.7239 0.7240 0.7241 0.7241 0.7242
2743.000000 0.7242 0.7242 0.7242 0.7243 0.7243
2748.000000 0.7243 0.7242 0.7241 0.7239 0.7237
2753.000000 0.7235 0.7234 0.7231 0.7229 0.7227
2758.000000 0.7225 0.7223 0.7221 0.7216 0.7212
2763.000000 0.7205 0.7198 0.7191 0.7184 0.7175
2768.000000 0.7167 0.7153 0.7140 0.7126 0.7113
2773.000000 0.7096 0.7079 0.7062 0.7046 0.7027
2778.000000 0.7008 0.6983 0.6958 0.6932 0.6907
2783.000000 0.6880 0.6854 0.6827 0.6801 0.6774
2788.000000 0.6748 0.6714 0.6681 0.6645 0.6610
2793.000000 0.6571 0.6533 0.6472 0.6412 0.6346
2798.000000 0.6281 0.6212 0.6144 0.6076 0.6008
2803.000000 0.5940 0.5872 0.5803 0.5735 0.5667
2808.000000 0.5599 0.5531 0.5463 0.5394 0.5326
2813.000000 0.5258 0.5190 0.5122 0.5054 0.4985
2818.000000 0.4917 0.4868 0.4819 0.4753 0.4687
2823.000000 0.4630 0.4574 0.4517 0.4461 0.4216
2828.000000 0.3971 0.3738 0.3506 0.3273 0.3040
2833.000000 0.2807 0.2574 0.2341 0.2108 0.1875
2838.000000 0.1642 0.1578 0.1484 0.1595 0.1676
2843.000000 0.1775 0.1875 0.1974 0.2073 0.2125
2848.000000 0.2178 0.2140 0.2103 0.1970 0.2178
2853.000000 0.1704 0.1571 0.1438 0.1305 0.1172
2858.000000 0.1040 0.0907 0.0774 0.0645 0.0517
2863.000000 0.0499 0.0481 0.0470 0.0460 0.0457
2868.000000 0.0460 0.0460 0.0465 0.0516 0.0568
2873.000000 0.0623 0.0678 0.0733 0.0788 0.0843
2878.000000 0.0898 0.0953 0.1008 0.1036 0.1064
2883.000000 0.1065 0.1073 0.1066 0.1066 0.1063
2888.000000 0.1061 0.1050 0.1039 0.0990 0.0941
2893.000000 0.0892 0.0843 0.0794 0.0745 0.0696
2898.000000 0.0647 0.0597 0.0548 0.0499 0.0450
2903.000000 0.0439 0.0429 0.0440 0.0451 0.0480
2908.000000 0.0425 0.0538 0.0567 0.0596 0.0625
2913.000000 0.0654 0.0683 0.0684 0.0683 0.0681
2918.000000 0.0677 0.0636 0.0595 0.0549 0.0503
2923.000000 0.0457 0.0411 0.0390 0.0369 0.0351
2928.000000 0.0333 0.0307 0.0282 0.0253 0.0225
2933.000000 0.0211 0.0197 0.0188 0.0180 0.0174
2938.000000 0.0168 0.0162 0.0157 0.0152 0.0148
2943.000000 0.0143 0.0139 0.0135 0.0132 0.0129
2948.000000 0.0127 0.0124 0.0122 0.0120 0.0119
2953.000000 0.0118 0.0117 0.0117 0.0110 0.0120
2958.000000 0.0123 0.0132 0.0141 0.0290 0.0440
2963.000000 0.0686 0.0933 0.1179 0.1425 0.1671
2968.000000 0.1917 0.2163 0.2410 0.2542 0.2675
2973.000000 0.2696 0.2718 0.2735 0.2752 0.2909
2978.000000 0.3067 0.3227 0.3387 0.3547 0.3707
2983.000000 0.3867 0.4027 0.4187 0.4348 0.4508
2988.000000 0.4668 0.4828 0.4988 0.5148 0.5309
2993.000000 0.5352 0.5396 0.5446 0.5497 0.5535
2998.000000 0.5573 0.5587 0.5601 0.5611 0.5622
3003.000000 0.5628 0.5634 0.5640 0.5646 0.5651
3008.000000 0.5657 0.5660 0.5664 0.5665 0.5641
3013.000000 0.5667 0.5668 0.5663 0.5659 0.5645
3018.000000 0.5631 0.5612 0.5594 0.5569 0.5544
3023.000000 0.5525 0.5506 0.5486 0.5467 0.5445
3028.000000 0.5424 0.5402 0.5380 0.5357 0.5335
3033.000000 0.5313 0.5291 0.5269 0.5247 0.5225
3038.000000 0.5203 0.5181 0.5159 0.5137 0.5115
3043.000000 0.5093 0.5071 0.5046 0.5021 0.4995
3048.000000 0.4969 0.4943 0.4918 0.4892 0.4867
3053.000000 0.4841 0.4815 0.4789 0.4764 0.4738
3058.000000 0.4713 0.4683 0.4654 0.4619 0.4585
3063.000000 0.4550 0.4516 0.4480 0.4444 0.4405
3068.000000 0.4366 0.4327 0.4289 0.4244 0.4199
3073.000000 0.4073 0.3948 0.3718 0.3488 0.3258
3078.000000 0.3028 0.2951 0.2875 0.2900 0.2854
3083.000000 0.2978 0.3031 0.3084 0.3137 0.3190
3088.000000 0.3243 0.3296 0.3350 0.3403 0.3456
3093.000000 0.3473 0.3487 0.3482 0.3474 0.3433
3098.000000 0.3392 0.3351 0.3310 0.3269 0.3228
3103.000000 0.3187 0.3146 0.3105 0.3065 0.3030
3108.000000 0.2995 0.2966 0.2938 0.2911 0.2884
3113.000000 0.2857 0.2831 0.2804 0.2778 0.2752
3118.000000 0.2726 0.2700 0.2675 0.2649 0.2624
3123.000000 0.2598 0.2573 0.2542 0.2511 0.2480
3128.000000 0.2449 0.2418 0.2387 0.2362 0.2338
3133.000000 0.2314 0.2290 0.2266 0.2242 0.2217
3138.000000 0.2193 0.2172 0.2152 0.2135 0.2119
3143.000000 0.2102 0.2086 0.2069 0.2052 0.2036
3148.000000 0.2020 0.2005 0.1991 0.1977 0.1963
3153.000000 0.1948 0.1934 0.1919 0.1905 0.1891
3158.000000 0.1877 0.1863 0.1850 0.1837 0.1824
3163.000000 0.1811 0.1799 0.1786 0.1773 0.1760
3168.000000 0.1748 0.1735 0.1722 0.1709 0.1697
3173.000000 0.1684 0.1671 0.1658 0.1646 0.1635
3178.000000 0.1625 0.1615 0.1605 0.1594 0.1584
3183.000000 0.1574 0.1564 0.1554 0.1544 0.1534
3188.000000 0.1524 0.1513 0.1503 0.1493 0.1483
3193.000000 0.1473 0.1463 0.1453 0.1444 0.1435
3198.000000 0.1427 0.1418 0.1409 0.1400 0.1391
3203.000000 0.1382 0.1374 0.1365 0.1356 0.1347
3208.000000 0.1338 0.1331 0.1325 0.1319 0.1313
3213.000000 0.1306 0.1300 0.1293 0.1287 0.1280
3218.000000 0.1274 0.1267 0.1261 0.1254 0.1248
3223.000000 0.1241 0.1235 0.1229 0.1223 0.1218
3228.000000 0.1213 0.1208 0.1203 0.1198 0.1193
3233.000000 0.1188 0.1183 0.1178 0.1173 0.1170
3238.000000 0.1167 0.1164 0.1161 0.1158 0.1156
3243.000000 0.1153 0.1150 0.1147 0.1144 0.1143
3248.000000 0.1143 0.1143 0.1144 0.1144 0.1145
3253.000000 0.1145 0.1128 0.1147 0.1148 0.1151
3258.000000 0.1154 0.1160 0.1167 0.1175 0.1184
3263.000000 0.1195 0.1207 0.1225 0.1243 0.1261
3268.000000 0.1279 0.1296 0.1313 0.1329 0.1346
3273.000000 0.1362 0.1379 0.1394 0.1410 0.1425
3278.000000 0.1441 0.1457 0.1473 0.1490 0.1508
3283.000000 0.1525 0.1543 0.1561 0.1579 0.1608
3288.000000 0.1638 0.1667 0.1697 0.1726 0.1756
3293.000000 0.1780 0.1804 0.1827 0.1851 0.1875
3298.000000 0.1899 0.1919 0.1939 0.1959 0.1979
3303.000000 0.1999 0.2020 0.2040 0.2060 0.2085
3308.000000 0.2111 0.2139 0.2168 0.2197 0.2226
3313.000000 0.2255 0.2284 0.2327 0.2371 0.2418
3318.000000 0.2466 0.2509 0.2552 0.2579 0.2607
3323.000000 0.2634 0.2661 0.2688 0.2716 0.2745
3328.000000 0.2774 0.2805 0.2836 0.2867 0.2898
3333.000000 0.2938 0.2978 0.3017 0.3057 0.3134
3338.000000 0.3211 0.3232 0.3254 0.3276 0.3298
3343.000000 0.3320 0.3343 0.3365 0.3388 0.3410
3348.000000 0.3433 0.3467 0.3501 0.3535 0.3570
3353.000000 0.3604 0.3638 0.3670 0.3703 0.3729
3358.000000 0.3755 0.3781 0.3807 0.3833 0.3859
3363.000000 0.3885 0.3911 0.3937 0.3964 0.3987
3368.000000 0.4011 0.4032 0.4053 0.4074 0.4095
3373.000000 0.4116 0.4138 0.4159 0.4180 0.4201
3378.000000 0.4222 0.4243 0.4265 0.4286 0.4307
3383.000000 0.4332 0.4357 0.4381 0.4406 0.4431
3388.000000 0.4456 0.4480 0.4505 0.4527 0.4549
3393.000000 0.4569 0.4589 0.4609 0.4629 0.4648
3398.000000 0.4668 0.4688 0.4708 0.4728 0.4748
3403.000000 0.4768 0.4788 0.4808 0.4828 0.4843
3408.000000 0.4858 0.4872 0.4886 0.4899 0.4913
3413.000000 0.4927 0.4941 0.4955 0.4969 0.4983
3418.000000 0.4997 0.5011 0.5025 0.5042 0.5060
3423.000000 0.5078 0.5096 0.5114 0.5132 0.5150
3428.000000 0.5169 0.5185 0.5201 0.5216 0.5232
3433.000000 0.5247 0.5262 0.5280 0.5299 0.5314
3438.000000 0.5330 0.5346 0.5363 0.5380 0.5397
3443.000000 0.5415 0.5434 0.5452 0.5471 0.5490
3448.000000 0.5509 0.5527 0.5546 0.5565 0.5584
3453.000000 0.5610 0.5637 0.5667 0.5698 0.5716
3458.000000 0.5735 0.5747 0.5760 0.5773 0.5786
3463.000000 0.5798 0.5811 0.5824 0.5838 0.5852
3468.000000 0.5867 0.5881 0.5895 0.5909 0.5924
3473.000000 0.5938 0.5953 0.5967 0.5982 0.5995
3478.000000 0.6009 0.6022 0.6036 0.6049 0.6063
3483.000000 0.6076 0.6089 0.6102 0.6116 0.6129
3488.000000 0.6143 0.6156 0.6170 0.6183 0.6197
3493.000000 0.6211 0.6225 0.6238 0.6252 0.6266
3498.000000 0.6280 0.6293 0.6307 0.6321 0.6335
3503.000000 0.6348 0.6361 0.6374 0.6388 0.6401
3508.000000 0.6414 0.6427 0.6441 0.6454 0.6467
3513.000000 0.6480 0.6494 0.6507 0.6520 0.6533
3518.000000 0.6546 0.6559 0.6572 0.6585 0.6598
3523.000000 0.6611 0.6624 0.6637 0.6650 0.6663
3528.000000 0.6676 0.6689 0.6702 0.6715 0.6728
3533.000000 0.6740 0.6753 0.6766 0.6779 0.6791
3538.000000 0.6804 0.6816 0.6828 0.6840 0.6853
3543.000000 0.6865 0.6878 0.6890 0.6902 0.6914
3548.000000 0.6927 0.6939 0.6952 0.6964 0.6976
3553.000000 0.6988 0.7001 0.7013 0.7026 0.7038
3558.000000 0.7050 0.7062 0.7074 0.7086 0.7098
3563.000000 0.7110 0.7123 0.7135 0.7147 0.7159
3568.000000 0.7171 0.7183 0.7195 0.7207 0.7219
3573.000000 0.7231 0.7244 0.7257 0.7270 0.7282
3578.000000 0.7295 0.7307 0.7320 0.7332 0.7345
3583.000000 0.7357 0.7370 0.7382 0.7395 0.7407
3588.000000 0.7420 0.7432 0.7445 0.7454 0.7464
3593.000000 0.7473 0.7482 0.7491 0.7500 0.7509
3598.000000 0.7519 0.7528 0.7537 0.7546 0.7555
3603.000000 0.7564 0.7573 0.7582 0.7591 0.7600
3608.000000 0.7610 0.7620 0.7630 0.7640 0.7650
3613.000000 0.7660 0.7670 0.7680 0.7690 0.7700
3618.000000 0.7710 0.7720 0.7730 0.7740 0.7751
3623.000000 0.7761 0.7771 0.7781 0.7791 0.7801
3628.000000 0.7811 0.7821 0.7831 0.7841 0.7852
3633.000000 0.7862 0.7872 0.7882 0.7892 0.7902
3638.000000 0.7912 0.7922 0.7933 0.7940 0.7948
3643.000000 0.7956 0.7964 0.7972 0.7980 0.7988
3648.000000 0.7996 0.8003 0.8011 0.8019 0.8027
3653.000000 0.8035 0.8043 0.8050 0.8058 0.8060
3658.000000 0.8062 0.8062 0.8063 0.8060 0.8058
3663.000000 0.8056 0.8054 0.8051 0.8049 0.8048
3668.000000 0.8047 0.8047 0.8047 0.8047 0.8047
3673.000000 0.8052 0.8058 0.8064 0.8070 0.8076
3678.000000 0.8082 0.8091 0.8100 0.8108 0.8117
3683.000000 0.8124 0.8131 0.8138 0.8145 0.8152
3688.000000 0.8159 0.8161 0.8164 0.8164 0.8165
3693.000000 0.8166 0.8167 0.8168 0.8169 0.8165
3698.000000 0.8162 0.8158 0.8155 0.8151 0.8148
3703.000000 0.8144 0.8141 0.8137 0.8134 0.8130
3708.000000 0.8127 0.8122 0.8118 0.8113 0.8109
3713.000000 0.8104 0.8100 0.8095 0.8091 0.8086
3718.000000 0.8082 0.8078 0.8074 0.8069 0.8065
3723.000000 0.8060 0.8056 0.8052 0.8048 0.8043
3728.000000 0.8039 0.8034 0.8030 0.8025 0.8020
3733.000000 0.8015 0.8011 0.8006 0.8001 0.8000
3738.000000 0.7999 0.8001 0.8003 0.8004 0.8006
3743.000000 0.8008 0.8010 0.8012 0.8014 0.8022
3748.000000 0.8031 0.8040 0.8050 0.8060 0.8070
3753.000000 0.8081 0.8092 0.8105 0.8119 0.8132
3758.000000 0.8145 0.8158 0.8172 0.8185 0.8198
3763.000000 0.8203 0.8208 0.8210 0.8213 0.8215
3768.000000 0.8218 0.8221 0.8224 0.8226 0.8229
3773.000000 0.8231 0.8234 0.8236 0.8239 0.8238
3778.000000 0.8237 0.8236 0.8235 0.8234 0.8233
3783.000000 0.8232 0.8231 0.8229 0.8228 0.8227
3788.000000 0.8226 0.8222 0.8218 0.8213 0.8208
3793.000000 0.8203 0.8199 0.8194 0.8189 0.8184
3798.000000 0.8180 0.8175 0.8170 0.8165 0.8161
3803.000000 0.8156 0.8151 0.8144 0.8138 0.8131
3808.000000 0.8124 0.8117 0.8111 0.8104 0.8098
3813.000000 0.8091 0.8084 0.8079 0.8074 0.8069
3818.000000 0.8065 0.8060 0.8056 0.8051 0.8047
3823.000000 0.8042 0.8038 0.8035 0.8032 0.8030
3828.000000 0.8029 0.8027 0.8026 0.8024 0.8023
3833.000000 0.8021 0.8020 0.8019 0.8018 0.8017
3838.000000 0.8016 0.8016 0.8016 0.8015 0.8015
3843.000000 0.8015 0.8015 0.8014 0.8014 0.8014
3848.000000 0.8014 0.8014 0.8014 0.8013 0.8013
3853.000000 0.8013 0.8013 0.8012 0.8012 0.8012
3858.000000 0.8012 0.8013 0.8015 0.8016 0.8017
3863.000000 0.8018 0.8019 0.8020 0.8021 0.8022
3868.000000 0.8023 0.8024 0.8026 0.8027 0.8028
3873.000000 0.8029 0.8030 0.8031 0.8032 0.8033
3878.000000 0.8034 0.8035 0.8037 0.8037 0.8038
3883.000000 0.8039 0.8040 0.8041 0.8042 0.8042
3888.000000 0.8043 0.8044 0.8045 0.8045 0.8046
3893.000000 0.8047 0.8048 0.8049 0.8050 0.8050
3898.000000 0.8051 0.8052 0.8053 0.8053 0.8054
3903.000000 0.8055 0.8056 0.8056 0.8056 0.8055
3908.000000 0.8055 0.8055 0.8048 0.8054 0.8054
3913.000000 0.8053 0.8053 0.8052 0.8052 0.8051
3918.000000 0.8051 0.8050 0.8050 0.8049 0.8049
3923.000000 0.8048 0.8048 0.8048 0.8048 0.8047
3928.000000 0.8047 0.8048 0.8049 0.8050 0.8051
3933.000000 0.8052 0.8053 0.8054 0.8055 0.8056
3938.000000 0.8057 0.8058 0.8059 0.8060 0.8061
3943.000000 0.8062 0.8063 0.8064 0.8065 0.8066
3948.000000 0.8067 0.8068 0.8069 0.8070 0.8071
3953.000000 0.8071 0.8072 0.8073 0.8074 0.8075
3958.000000 0.8076 0.8077 0.8078 0.8079 0.8080
3963.000000 0.8081 0.8082 0.8083 0.8084 0.8084
3968.000000 0.8085 0.8086 0.8087 0.8088 0.8089
3973.000000 0.8090 0.8091 0.8091 0.8092 0.8092
3978.000000 0.8092 0.8092 0.8093 0.8093 0.8093
3983.000000 0.8093 0.8094 0.8094 0.8094 0.8094
3988.000000 0.8095 0.8095 0.8096 0.8096 0.8097
3993.000000 0.8097 0.8098 0.8099 0.8100 0.8101
3998.000000 0.8102 0.8102 0.8102
##END=
