##TITLE=CHLORTETRACYCLINE HYDROCHLORIDE
##JCAMP-DX=4.24
$$ By DXEDIT 1.05 (RS McDonald)
##DATA TYPE=INFRARED SPECTRUM
##CLASS=COBLENTZ III
##OWNER=COPYRIGHT (C) 1988 by COBLENTZ SOCIETY INC.
Collection (C) 2018 copyright by the U.S. Secretary of Commerce
on behalf of the United States of America. All rights reserved.
##DATE=1962/04/24
##NAMES=7-chloro-4-(dimethylamino)-3,6,10,12,12a-pentahydroxy-6-methyl-1,11-dioxo-1,4,4a,5,5a,6,11,12a-octahydro-2-naphthacenecarboxamide hydrochloride
7-CHLORO-4-DIMETHYLAMINO-1,4,4Alpha,5,5Alpha,6,11,12Alpha-OCTAHYDRO-3,6,10,12,12Alpha-PENTAHYDROXY-6-METHYL-1,11-DIOXO-2-NAPHTHACENECARBOXAMIDE HYDROCHLORIDE
##MOLFORM=C22 H24 Cl2 N2 O8
##MP=210 C DECOMP.
##SOURCE REFERENCE=COBLENTZ NO. 5143
##$NIST ID=B6005143
##$NIST SOURCE=COBLENTZ
##$NIST IMAGE=cob5143
##SPECTROMETER/DATA SYSTEM=PERKIN-ELMER 21 (GRATING)
##INSTRUMENT PARAMETERS=FILTER AT ABOUT 10 MICRONS
##STATE=SOLID (1.05 mg / 200 mg KCl DISC) VS KCl
##PATH LENGTH=0.055 CM (THICKNESS)
##SAMPLING PROCEDURE=TRANSMISSION
##RESOLUTION=2
##DATA PROCESSING=DIGITIZED BY COBLENTZ SOCIETY (BATCH I) FROM HARD COPY
##XUNITS=1/CM
##YUNITS=TRANSMITTANCE
##XFACTOR=1
##YFACTOR=1
##DELTAX=1
##FIRSTX=4000
##LASTX=669
##FIRSTY=0.9035
##MAXX=4000
##MINX=669
##MAXY=0.9391
##MINY=0.3087
##NPOINTS=3332
##XYDATA=(X++(Y..Y))
4000.000000 0.9035 0.9036 0.9039 0.9041 0.9044
3995.000000 0.9046 0.9048 0.9050 0.9051 0.9055
3990.000000 0.9057 0.9060 0.9062 0.9065 0.9067
3985.000000 0.9070 0.9072 0.9075 0.9076 0.9078
3980.000000 0.9081 0.9083 0.9086 0.9088 0.9091
3975.000000 0.9092 0.9096 0.9098 0.9101 0.9103
3970.000000 0.9106 0.9107 0.9109 0.9112 0.9114
3965.000000 0.9115 0.9118 0.9120 0.9121 0.9122
3960.000000 0.9123 0.9124 0.9125 0.9126 0.9126
3955.000000 0.9127 0.9128 0.9129 0.9131 0.9132
3950.000000 0.9133 0.9132 0.9133 0.9134 0.9136
3945.000000 0.9135 0.9136 0.9137 0.9138 0.9140
3940.000000 0.9141 0.9142 0.9143 0.9144 0.9143
3935.000000 0.9145 0.9146 0.9147 0.9146 0.9147
3930.000000 0.9148 0.9150 0.9151 0.9149 0.9151
3925.000000 0.9152 0.9152 0.9152 0.9151 0.9150
3920.000000 0.9150 0.9149 0.9149 0.9149 0.9148
3915.000000 0.9148 0.9148 0.9147 0.9147 0.9147
3910.000000 0.9145 0.9145 0.9145 0.9144 0.9144
3905.000000 0.9144 0.9142 0.9142 0.9141 0.9141
3900.000000 0.9141 0.9139 0.9139 0.9138 0.9138
3895.000000 0.9138 0.9138 0.9136 0.9136 0.9135
3890.000000 0.9135 0.9135 0.9134 0.9133 0.9132
3885.000000 0.9132 0.9132 0.9131 0.9130 0.9129
3880.000000 0.9129 0.9129 0.9129 0.9128 0.9127
3875.000000 0.9126 0.9126 0.9124 0.9125 0.9124
3870.000000 0.9122 0.9123 0.9123 0.9122 0.9122
3865.000000 0.9122 0.9120 0.9120 0.9119 0.9119
3860.000000 0.9119 0.9119 0.9118 0.9118 0.9118
3855.000000 0.9119 0.9118 0.9118 0.9119 0.9119
3850.000000 0.9120 0.9121 0.9120 0.9121 0.9122
3845.000000 0.9123 0.9124 0.9124 0.9125 0.9126
3840.000000 0.9127 0.9128 0.9128 0.9129 0.9130
3835.000000 0.9128 0.9129 0.9131 0.9132 0.9133
3830.000000 0.9134 0.9135 0.9135 0.9136 0.9137
3825.000000 0.9137 0.9138 0.9139 0.9140 0.9141
3820.000000 0.9140 0.9141 0.9142 0.9143 0.9144
3815.000000 0.9145 0.9145 0.9146 0.9147 0.9147
3810.000000 0.9149 0.9150 0.9149 0.9150 0.9153
3805.000000 0.9154 0.9155 0.9156 0.9157 0.9158
3800.000000 0.9159 0.9160 0.9160 0.9161 0.9164
3795.000000 0.9165 0.9166 0.9167 0.9168 0.9169
3790.000000 0.9169 0.9170 0.9171 0.9172 0.9175
3785.000000 0.9176 0.9175 0.9179 0.9180 0.9181
3780.000000 0.9182 0.9183 0.9184 0.9185 0.9185
3775.000000 0.9188 0.9189 0.9190 0.9191 0.9191
3770.000000 0.9192 0.9193 0.9194 0.9195 0.9197
3765.000000 0.9198 0.9199 0.9200 0.9203 0.9202
3760.000000 0.9203 0.9205 0.9208 0.9208 0.9209
3755.000000 0.9212 0.9213 0.9213 0.9216 0.9217
3750.000000 0.9218 0.9218 0.9221 0.9222 0.9223
3745.000000 0.9225 0.9226 0.9227 0.9229 0.9230
3740.000000 0.9231 0.9233 0.9234 0.9235 0.9237
3735.000000 0.9238 0.9239 0.9241 0.9242 0.9243
3730.000000 0.9245 0.9246 0.9247 0.9249 0.9250
3725.000000 0.9251 0.9253 0.9254 0.9255 0.9257
3720.000000 0.9258 0.9260 0.9259 0.9263 0.9264
3715.000000 0.9266 0.9269 0.9275 0.9280 0.9286
3710.000000 0.9291 0.9297 0.9302 0.9308 0.9312
3705.000000 0.9317 0.9323 0.9327 0.9330 0.9332
3700.000000 0.9336 0.9339 0.9341 0.9345 0.9347
3695.000000 0.9349 0.9352 0.9356 0.9358 0.9361
3690.000000 0.9363 0.9367 0.9369 0.9372 0.9374
3685.000000 0.9378 0.9380 0.9383 0.9385 0.9386
3680.000000 0.9387 0.9388 0.9389 0.9390 0.9389
3675.000000 0.9390 0.9390 0.9390 0.9390 0.9391
3670.000000 0.9390 0.9390 0.9389 0.9390 0.9390
3665.000000 0.9389 0.9388 0.9387 0.9386 0.9384
3660.000000 0.9383 0.9382 0.9380 0.9378 0.9377
3655.000000 0.9375 0.9374 0.9373 0.9372 0.9371
3650.000000 0.9369 0.9368 0.9367 0.9365 0.9363
3645.000000 0.9362 0.9361 0.9359 0.9358 0.9356
3640.000000 0.9354 0.9354 0.9352 0.9350 0.9350
3635.000000 0.9348 0.9347 0.9346 0.9344 0.9343
3630.000000 0.9341 0.9339 0.9339 0.9337 0.9336
3625.000000 0.9334 0.9332 0.9332 0.9330 0.9328
3620.000000 0.9328 0.9326 0.9324 0.9324 0.9322
3615.000000 0.9321 0.9319 0.9317 0.9316 0.9314
3610.000000 0.9312 0.9310 0.9309 0.9307 0.9305
3605.000000 0.9304 0.9302 0.9300 0.9299 0.9297
3600.000000 0.9295 0.9294 0.9292 0.9290 0.9289
3595.000000 0.9287 0.9285 0.9283 0.9282 0.9280
3590.000000 0.9278 0.9277 0.9275 0.9273 0.9270
3585.000000 0.9269 0.9267 0.9265 0.9264 0.9261
3580.000000 0.9259 0.9257 0.9256 0.9254 0.9251
3575.000000 0.9249 0.9248 0.9245 0.9243 0.9240
3570.000000 0.9239 0.9236 0.9233 0.9231 0.9228
3565.000000 0.9226 0.9225 0.9222 0.9220 0.9217
3560.000000 0.9216 0.9214 0.9211 0.9209 0.9206
3555.000000 0.9205 0.9203 0.9200 0.9199 0.9196
3550.000000 0.9194 0.9192 0.9189 0.9188 0.9185
3545.000000 0.9183 0.9180 0.9177 0.9175 0.9172
3540.000000 0.9169 0.9165 0.9162 0.9158 0.9153
3535.000000 0.9151 0.9148 0.9142 0.9141 0.9137
3530.000000 0.9131 0.9126 0.9121 0.9115 0.9110
3525.000000 0.9103 0.9096 0.9089 0.9081 0.9075
3520.000000 0.9067 0.9060 0.9054 0.9046 0.9040
3515.000000 0.9033 0.9025 0.9019 0.9012 0.9005
3510.000000 0.8998 0.8992 0.8984 0.8977 0.8968
3505.000000 0.8957 0.8944 0.8933 0.8922 0.8909
3500.000000 0.8895 0.8881 0.8868 0.8854 0.8840
3495.000000 0.8826 0.8813 0.8799 0.8785 0.8771
3490.000000 0.8759 0.8745 0.8731 0.8718 0.8704
3485.000000 0.8690 0.8677 0.8663 0.8649 0.8634
3480.000000 0.8621 0.8607 0.8593 0.8580 0.8566
3475.000000 0.8551 0.8537 0.8524 0.8509 0.8495
3470.000000 0.8482 0.8468 0.8455 0.8440 0.8425
3465.000000 0.8413 0.8399 0.8385 0.8372 0.8357
3460.000000 0.8346 0.8334 0.8320 0.8308 0.8295
3455.000000 0.8283 0.8270 0.8257 0.8245 0.8233
3450.000000 0.8219 0.8207 0.8195 0.8182 0.8169
3445.000000 0.8155 0.8144 0.8132 0.8119 0.8107
3440.000000 0.8094 0.8081 0.8069 0.8056 0.8044
3435.000000 0.8031 0.8017 0.8005 0.7992 0.7980
3430.000000 0.7966 0.7953 0.7940 0.7926 0.7913
3425.000000 0.7900 0.7886 0.7873 0.7860 0.7846
3420.000000 0.7833 0.7820 0.7806 0.7793 0.7780
3415.000000 0.7765 0.7751 0.7739 0.7725 0.7712
3410.000000 0.7699 0.7685 0.7672 0.7659 0.7646
3405.000000 0.7622 0.7598 0.7575 0.7551 0.7512
3400.000000 0.7442 0.7371 0.7301 0.7231 0.7190
3395.000000 0.7159 0.7129 0.7100 0.7067 0.7025
3390.000000 0.6982 0.6940 0.6897 0.6853 0.6811
3385.000000 0.6768 0.6725 0.6682 0.6639 0.6595
3380.000000 0.6553 0.6510 0.6466 0.6423 0.6382
3375.000000 0.6337 0.6296 0.6252 0.6210 0.6166
3370.000000 0.6123 0.6080 0.6037 0.5993 0.5951
3365.000000 0.5908 0.5864 0.5821 0.5778 0.5735
3360.000000 0.5692 0.5649 0.5606 0.5563 0.5520
3355.000000 0.5477 0.5434 0.5391 0.5348 0.5304
3350.000000 0.5261 0.5218 0.5175 0.5132 0.5089
3345.000000 0.5045 0.5003 0.4960 0.4917 0.4873
3340.000000 0.4830 0.4787 0.4743 0.4725 0.4714
3335.000000 0.4703 0.4692 0.4683 0.4678 0.4676
3330.000000 0.4673 0.4670 0.4666 0.4663 0.4660
3325.000000 0.4657 0.4653 0.4650 0.4646 0.4642
3320.000000 0.4639 0.4639 0.4637 0.4635 0.4635
3315.000000 0.4633 0.4631 0.4628 0.4628 0.4626
3310.000000 0.4626 0.4625 0.4624 0.4624 0.4623
3305.000000 0.4624 0.4623 0.4625 0.4626 0.4628
3300.000000 0.4629 0.4630 0.4632 0.4636 0.4640
3295.000000 0.4644 0.4648 0.4653 0.4660 0.4664
3290.000000 0.4671 0.4676 0.4683 0.4689 0.4696
3285.000000 0.4703 0.4711 0.4718 0.4726 0.4733
3280.000000 0.4747 0.4761 0.4774 0.4789 0.4802
3275.000000 0.4816 0.4830 0.4843 0.4857 0.4871
3270.000000 0.4884 0.4898 0.4911 0.4928 0.4945
3265.000000 0.4960 0.4977 0.4998 0.5020 0.5043
3260.000000 0.5065 0.5089 0.5111 0.5133 0.5156
3255.000000 0.5179 0.5202 0.5225 0.5247 0.5270
3250.000000 0.5290 0.5308 0.5326 0.5346 0.5365
3245.000000 0.5383 0.5403 0.5422 0.5441 0.5460
3240.000000 0.5477 0.5496 0.5515 0.5534 0.5553
3235.000000 0.5572 0.5590 0.5606 0.5621 0.5636
3230.000000 0.5651 0.5666 0.5681 0.5696 0.5710
3225.000000 0.5726 0.5740 0.5755 0.5770 0.5784
3220.000000 0.5799 0.5815 0.5830 0.5844 0.5859
3215.000000 0.5872 0.5888 0.5902 0.5916 0.5928
3210.000000 0.5941 0.5956 0.5970 0.5983 0.5997
3205.000000 0.6010 0.6025 0.6037 0.6051 0.6065
3200.000000 0.6077 0.6089 0.6101 0.6114 0.6125
3195.000000 0.6137 0.6149 0.6161 0.6172 0.6185
3190.000000 0.6197 0.6209 0.6218 0.6229 0.6237
3185.000000 0.6248 0.6257 0.6265 0.6272 0.6281
3180.000000 0.6288 0.6295 0.6302 0.6307 0.6313
3175.000000 0.6317 0.6320 0.6326 0.6329 0.6331
3170.000000 0.6333 0.6336 0.6337 0.6339 0.6341
3165.000000 0.6342 0.6342 0.6342 0.6342 0.6343
3160.000000 0.6343 0.6343 0.6343 0.6365 0.6343
3155.000000 0.6342 0.6344 0.6344 0.6343 0.6341
3150.000000 0.6337 0.6336 0.6334 0.6332 0.6330
3145.000000 0.6328 0.6326 0.6324 0.6322 0.6320
3140.000000 0.6317 0.6313 0.6308 0.6305 0.6297
3135.000000 0.6285 0.6274 0.6263 0.6244 0.6225
3130.000000 0.6206 0.6185 0.6167 0.6148 0.6129
3125.000000 0.6110 0.6096 0.6081 0.6065 0.6051
3120.000000 0.6039 0.6026 0.6014 0.6002 0.5994
3115.000000 0.5985 0.5979 0.5973 0.5965 0.5957
3110.000000 0.5950 0.5942 0.5935 0.5927 0.5920
3105.000000 0.5912 0.5904 0.5894 0.5883 0.5875
3100.000000 0.5866 0.5856 0.5847 0.5840 0.5832
3095.000000 0.5824 0.5817 0.5811 0.5804 0.5797
3090.000000 0.5790 0.5783 0.5776 0.5769 0.5761
3085.000000 0.5756 0.5748 0.5742 0.5734 0.5728
3080.000000 0.5722 0.5714 0.5708 0.5699 0.5694
3075.000000 0.5687 0.5680 0.5673 0.5667 0.5659
3070.000000 0.5654 0.5649 0.5644 0.5640 0.5639
3065.000000 0.5638 0.5637 0.5635 0.5634 0.5631
3060.000000 0.5631 0.5630 0.5629 0.5628 0.5627
3055.000000 0.5627 0.5628 0.5628 0.5629 0.5628
3050.000000 0.5628 0.5627 0.5629 0.5630 0.5631
3045.000000 0.5633 0.5635 0.5639 0.5641 0.5645
3040.000000 0.5647 0.5650 0.5652 0.5656 0.5658
3035.000000 0.5661 0.5663 0.5666 0.5668 0.5671
3030.000000 0.5673 0.5673 0.5674 0.5674 0.5674
3025.000000 0.5674 0.5675 0.5674 0.5674 0.5674
3020.000000 0.5674 0.5674 0.5674 0.5673 0.5674
3015.000000 0.5674 0.5674 0.5674 0.5675 0.5675
3010.000000 0.5675 0.5675 0.5676 0.5676 0.5676
3005.000000 0.5677 0.5677 0.5678 0.5678 0.5679
3000.000000 0.5679 0.5680 0.5681 0.5681 0.5682
2995.000000 0.5682 0.5684 0.5687 0.5691 0.5694
2990.000000 0.5698 0.5702 0.5706 0.5710 0.5714
2985.000000 0.5717 0.5722 0.5725 0.5729 0.5732
2980.000000 0.5736 0.5742 0.5748 0.5753 0.5761
2975.000000 0.5767 0.5774 0.5782 0.5788 0.5796
2970.000000 0.5803 0.5811 0.5818 0.5827 0.5835
2965.000000 0.5845 0.5856 0.5867 0.5877 0.5888
2960.000000 0.5898 0.5910 0.5921 0.5932 0.5943
2955.000000 0.5953 0.5964 0.5972 0.5982 0.5991
2950.000000 0.6000 0.6008 0.6017 0.6027 0.6036
2945.000000 0.6044 0.6052 0.6063 0.6071 0.6080
2940.000000 0.6089 0.6099 0.6107 0.6116 0.6125
2935.000000 0.6133 0.6142 0.6153 0.6161 0.6171
2930.000000 0.6180 0.6189 0.6197 0.6207 0.6216
2925.000000 0.6226 0.6235 0.6243 0.6253 0.6260
2920.000000 0.6271 0.6280 0.6287 0.6297 0.6305
2915.000000 0.6313 0.6321 0.6330 0.6339 0.6348
2910.000000 0.6356 0.6365 0.6373 0.6381 0.6388
2905.000000 0.6396 0.6403 0.6409 0.6415 0.6421
2900.000000 0.6427 0.6434 0.6440 0.6446 0.6450
2895.000000 0.6456 0.6460 0.6463 0.6465 0.6466
2890.000000 0.6467 0.6468 0.6469 0.6470 0.6471
2885.000000 0.6472 0.6473 0.6476 0.6478 0.6479
2880.000000 0.6480 0.6481 0.6482 0.6483 0.6484
2875.000000 0.6484 0.6485 0.6485 0.6484 0.6484
2870.000000 0.6484 0.6483 0.6483 0.6482 0.6482
2865.000000 0.6482 0.6481 0.6481 0.6482 0.6481
2860.000000 0.6481 0.6480 0.6480 0.6480 0.6479
2855.000000 0.6478 0.6477 0.6478 0.6478 0.6477
2850.000000 0.6477 0.6476 0.6475 0.6475 0.6474
2845.000000 0.6473 0.6472 0.6471 0.6470 0.6469
2840.000000 0.6468 0.6467 0.6466 0.6465 0.6464
2835.000000 0.6463 0.6461 0.6460 0.6459 0.6458
2830.000000 0.6457 0.6456 0.6455 0.6454 0.6453
2825.000000 0.6452 0.6451 0.6450 0.6449 0.6448
2820.000000 0.6447 0.6446 0.6445 0.6444 0.6443
2815.000000 0.6441 0.6440 0.6439 0.6437 0.6436
2810.000000 0.6435 0.6434 0.6430 0.6429 0.6428
2805.000000 0.6427 0.6425 0.6424 0.6422 0.6421
2800.000000 0.6420 0.6418 0.6417 0.6415 0.6413
2795.000000 0.6411 0.6409 0.6407 0.6404 0.6402
2790.000000 0.6399 0.6397 0.6394 0.6391 0.6390
2785.000000 0.6387 0.6385 0.6381 0.6377 0.6373
2780.000000 0.6368 0.6363 0.6358 0.6354 0.6347
2775.000000 0.6344 0.6340 0.6338 0.6335 0.6332
2770.000000 0.6330 0.6327 0.6325 0.6322 0.6319
2765.000000 0.6316 0.6314 0.6311 0.6309 0.6306
2760.000000 0.6303 0.6300 0.6297 0.6294 0.6291
2755.000000 0.6290 0.6287 0.6286 0.6283 0.6281
2750.000000 0.6280 0.6279 0.6278 0.6277 0.6280
2745.000000 0.6281 0.6282 0.6285 0.6286 0.6288
2740.000000 0.6289 0.6291 0.6292 0.6293 0.6295
2735.000000 0.6296 0.6297 0.6300 0.6301 0.6302
2730.000000 0.6303 0.6305 0.6306 0.6308 0.6308
2725.000000 0.6310 0.6311 0.6312 0.6313 0.6312
2720.000000 0.6313 0.6312 0.6311 0.6311 0.6310
2715.000000 0.6309 0.6308 0.6307 0.6307 0.6307
2710.000000 0.6306 0.6305 0.6304 0.6301 0.6298
2705.000000 0.6295 0.6292 0.6289 0.6285 0.6283
2700.000000 0.6280 0.6277 0.6272 0.6270 0.6267
2695.000000 0.6264 0.6261 0.6257 0.6254 0.6249
2690.000000 0.6244 0.6239 0.6234 0.6227 0.6222
2685.000000 0.6216 0.6211 0.6205 0.6200 0.6195
2680.000000 0.6189 0.6182 0.6175 0.6168 0.6159
2675.000000 0.6150 0.6141 0.6132 0.6122 0.6112
2670.000000 0.6104 0.6094 0.6085 0.6077 0.6071
2665.000000 0.6063 0.6056 0.6049 0.6043 0.6037
2660.000000 0.6030 0.6023 0.6017 0.6010 0.6005
2655.000000 0.6000 0.5995 0.5990 0.5988 0.5984
2650.000000 0.5982 0.5979 0.5976 0.5972 0.5969
2645.000000 0.5965 0.5962 0.5959 0.5955 0.5952
2640.000000 0.5949 0.5946 0.5942 0.5939 0.5937
2635.000000 0.5935 0.5932 0.5931 0.5930 0.5927
2630.000000 0.5926 0.5925 0.5925 0.5924 0.5921
2625.000000 0.5920 0.5919 0.5918 0.5917 0.5914
2620.000000 0.5914 0.5913 0.5912 0.5911 0.5912
2615.000000 0.5913 0.5914 0.5915 0.5915 0.5916
2610.000000 0.5917 0.5918 0.5918 0.5919 0.5921
2605.000000 0.5924 0.5927 0.5930 0.5933 0.5936
2600.000000 0.5939 0.5941 0.5944 0.5947 0.5951
2595.000000 0.5953 0.5956 0.5959 0.5963 0.5966
2590.000000 0.5971 0.5975 0.5980 0.5985 0.5991
2585.000000 0.5996 0.6000 0.6006 0.6011 0.6015
2580.000000 0.6021 0.6025 0.6029 0.6036 0.6041
2575.000000 0.6047 0.6054 0.6060 0.6067 0.6072
2570.000000 0.6079 0.6084 0.6092 0.6098 0.6104
2565.000000 0.6111 0.6117 0.6123 0.6130 0.6136
2560.000000 0.6142 0.6149 0.6155 0.6162 0.6167
2555.000000 0.6175 0.6181 0.6187 0.6193 0.6199
2550.000000 0.6206 0.6213 0.6220 0.6226 0.6231
2545.000000 0.6238 0.6245 0.6252 0.6259 0.6266
2540.000000 0.6275 0.6283 0.6291 0.6298 0.6306
2535.000000 0.6314 0.6321 0.6330 0.6337 0.6344
2530.000000 0.6350 0.6353 0.6358 0.6362 0.6367
2525.000000 0.6372 0.6376 0.6381 0.6386 0.6391
2520.000000 0.6395 0.6399 0.6403 0.6406 0.6410
2515.000000 0.6414 0.6418 0.6421 0.6425 0.6429
2510.000000 0.6433 0.6436 0.6440 0.6443 0.6447
2505.000000 0.6451 0.6455 0.6458 0.6462 0.6466
2500.000000 0.6470 0.6473 0.6476 0.6480 0.6484
2495.000000 0.6488 0.6492 0.6495 0.6500 0.6505
2490.000000 0.6510 0.6515 0.6521 0.6526 0.6531
2485.000000 0.6536 0.6542 0.6546 0.6552 0.6556
2480.000000 0.6562 0.6568 0.6573 0.6578 0.6584
2475.000000 0.6589 0.6594 0.6599 0.6605 0.6609
2470.000000 0.6615 0.6622 0.6629 0.6636 0.6642
2465.000000 0.6650 0.6656 0.6664 0.6670 0.6677
2460.000000 0.6684 0.6691 0.6697 0.6705 0.6712
2455.000000 0.6719 0.6725 0.6733 0.6740 0.6747
2450.000000 0.6756 0.6764 0.6774 0.6783 0.6792
2445.000000 0.6802 0.6811 0.6820 0.6831 0.6840
2440.000000 0.6849 0.6859 0.6869 0.6878 0.6889
2435.000000 0.6903 0.6918 0.6937 0.6955 0.6972
2430.000000 0.6990 0.7002 0.7010 0.7019 0.7028
2425.000000 0.7037 0.7045 0.7055 0.7064 0.7072
2420.000000 0.7081 0.7090 0.7099 0.7108 0.7116
2415.000000 0.7124 0.7132 0.7140 0.7147 0.7154
2410.000000 0.7161 0.7167 0.7173 0.7179 0.7184
2405.000000 0.7189 0.7194 0.7199 0.7204 0.7209
2400.000000 0.7214 0.7220 0.7225 0.7230 0.7233
2395.000000 0.7235 0.7237 0.7240 0.7242 0.7244
2390.000000 0.7246 0.7248 0.7251 0.7253 0.7256
2385.000000 0.7257 0.7260 0.7261 0.7264 0.7265
2380.000000 0.7268 0.7270 0.7272 0.7274 0.7276
2375.000000 0.7278 0.7279 0.7281 0.7282 0.7284
2370.000000 0.7286 0.7288 0.7290 0.7292 0.7294
2365.000000 0.7295 0.7297 0.7299 0.7300 0.7303
2360.000000 0.7304 0.7307 0.7310 0.7312 0.7316
2355.000000 0.7319 0.7322 0.7325 0.7328 0.7330
2350.000000 0.7334 0.7336 0.7340 0.7342 0.7345
2345.000000 0.7348 0.7351 0.7355 0.7357 0.7361
2340.000000 0.7363 0.7367 0.7374 0.7383 0.7391
2335.000000 0.7400 0.7410 0.7419 0.7429 0.7440
2330.000000 0.7449 0.7464 0.7477 0.7492 0.7506
2325.000000 0.7520 0.7535 0.7551 0.7571 0.7592
2320.000000 0.7618 0.7645 0.7682 0.7720 0.7732
2315.000000 0.7742 0.7753 0.7763 0.7774 0.7785
2310.000000 0.7793 0.7798 0.7804 0.7809 0.7814
2305.000000 0.7819 0.7825 0.7830 0.7836 0.7841
2300.000000 0.7846 0.7852 0.7858 0.7866 0.7875
2295.000000 0.7883 0.7892 0.7901 0.7909 0.7916
2290.000000 0.7926 0.7934 0.7943 0.7952 0.7960
2285.000000 0.7969 0.7978 0.7986 0.7995 0.8003
2280.000000 0.8012 0.8021 0.8029 0.8038 0.8047
2275.000000 0.8056 0.8066 0.8076 0.8086 0.8097
2270.000000 0.8106 0.8116 0.8123 0.8132 0.8136
2265.000000 0.8137 0.8139 0.8139 0.8138 0.8140
2260.000000 0.8140 0.8141 0.8142 0.8140 0.8140
2255.000000 0.8140 0.8140 0.8140 0.8140 0.8139
2250.000000 0.8140 0.8139 0.8140 0.8139 0.8140
2245.000000 0.8139 0.8140 0.8141 0.8141 0.8140
2240.000000 0.8141 0.8141 0.8142 0.8142 0.8142
2235.000000 0.8143 0.8144 0.8144 0.8146 0.8146
2230.000000 0.8147 0.8147 0.8148 0.8149 0.8151
2225.000000 0.8153 0.8157 0.8162 0.8167 0.8171
2220.000000 0.8175 0.8180 0.8184 0.8189 0.8192
2215.000000 0.8196 0.8199 0.8202 0.8206 0.8209
2210.000000 0.8212 0.8216 0.8219 0.8223 0.8227
2205.000000 0.8230 0.8233 0.8236 0.8238 0.8240
2200.000000 0.8244 0.8246 0.8249 0.8253 0.8255
2195.000000 0.8258 0.8261 0.8264 0.8267 0.8270
2190.000000 0.8273 0.8275 0.8278 0.8280 0.8280
2185.000000 0.8281 0.8282 0.8282 0.8282 0.8284
2180.000000 0.8284 0.8285 0.8285 0.8286 0.8286
2175.000000 0.8287 0.8288 0.8288 0.8288 0.8290
2170.000000 0.8291 0.8290 0.8291 0.8290 0.8290
2165.000000 0.8290 0.8288 0.8289 0.8288 0.8288
2160.000000 0.8288 0.8287 0.8288 0.8291 0.8293
2155.000000 0.8295 0.8297 0.8301 0.8303 0.8307
2150.000000 0.8309 0.8312 0.8315 0.8320 0.8325
2145.000000 0.8329 0.8334 0.8339 0.8344 0.8348
2140.000000 0.8352 0.8358 0.8361 0.8366 0.8371
2135.000000 0.8375 0.8379 0.8385 0.8390 0.8394
2130.000000 0.8399 0.8404 0.8408 0.8413 0.8417
2125.000000 0.8422 0.8426 0.8430 0.8433 0.8436
2120.000000 0.8440 0.8445 0.8449 0.8454 0.8458
2115.000000 0.8462 0.8465 0.8468 0.8472 0.8477
2110.000000 0.8482 0.8486 0.8489 0.8493 0.8497
2105.000000 0.8502 0.8504 0.8508 0.8513 0.8517
2100.000000 0.8521 0.8526 0.8529 0.8533 0.8538
2095.000000 0.8541 0.8545 0.8549 0.8552 0.8556
2090.000000 0.8558 0.8563 0.8566 0.8568 0.8573
2085.000000 0.8577 0.8580 0.8583 0.8587 0.8590
2080.000000 0.8594 0.8597 0.8601 0.8604 0.8608
2075.000000 0.8612 0.8614 0.8617 0.8620 0.8625
2070.000000 0.8626 0.8630 0.8634 0.8637 0.8639
2065.000000 0.8642 0.8646 0.8649 0.8651 0.8655
2060.000000 0.8657 0.8661 0.8663 0.8666 0.8669
2055.000000 0.8672 0.8674 0.8676 0.8679 0.8681
2050.000000 0.8685 0.8686 0.8689 0.8692 0.8695
2045.000000 0.8697 0.8699 0.8702 0.8704 0.8708
2040.000000 0.8709 0.8711 0.8715 0.8718 0.8721
2035.000000 0.8724 0.8725 0.8729 0.8731 0.8735
2030.000000 0.8737 0.8740 0.8743 0.8747 0.8749
2025.000000 0.8752 0.8755 0.8758 0.8761 0.8763
2020.000000 0.8767 0.8770 0.8773 0.8776 0.8778
2015.000000 0.8781 0.8784 0.8786 0.8788 0.8792
2010.000000 0.8794 0.8798 0.8801 0.8803 0.8806
2005.000000 0.8808 0.8811 0.8813 0.8817 0.8819
2000.000000 0.8821 0.8825 0.8828 0.8831 0.8834
1995.000000 0.8835 0.8838 0.8840 0.8843 0.8845
1990.000000 0.8848 0.8851 0.8853 0.8855 0.8857
1985.000000 0.8858 0.8860 0.8860 0.8862 0.8863
1980.000000 0.8864 0.8865 0.8864 0.8865 0.8866
1975.000000 0.8868 0.8868 0.8869 0.8871 0.8874
1970.000000 0.8876 0.8880 0.8882 0.8884 0.8891
1965.000000 0.8899 0.8907 0.8911 0.8914 0.8913
1960.000000 0.8914 0.8913 0.8913 0.8913 0.8914
1955.000000 0.8912 0.8911 0.8911 0.8910 0.8909
1950.000000 0.8907 0.8906 0.8906 0.8904 0.8904
1945.000000 0.8902 0.8903 0.8901 0.8900 0.8900
1940.000000 0.8900 0.8899 0.8898 0.8898 0.8898
1935.000000 0.8897 0.8897 0.8897 0.8897 0.8899
1930.000000 0.8900 0.8902 0.8905 0.8909 0.8913
1925.000000 0.8918 0.8921 0.8925 0.8929 0.8933
1920.000000 0.8937 0.8941 0.8945 0.8947 0.8950
1915.000000 0.8953 0.8955 0.8958 0.8960 0.8962
1910.000000 0.8965 0.8967 0.8970 0.8973 0.8975
1905.000000 0.8978 0.8981 0.8984 0.8986 0.8987
1900.000000 0.8991 0.8994 0.8996 0.8999 0.9002
1895.000000 0.9004 0.9007 0.9009 0.9013 0.9015
1890.000000 0.9019 0.9024 0.9028 0.9031 0.9035
1885.000000 0.9039 0.9042 0.9046 0.9050 0.9054
1880.000000 0.9058 0.9062 0.9066 0.9070 0.9074
1875.000000 0.9078 0.9081 0.9086 0.9090 0.9093
1870.000000 0.9097 0.9101 0.9105 0.9110 0.9114
1865.000000 0.9118 0.9123 0.9127 0.9131 0.9135
1860.000000 0.9139 0.9144 0.9148 0.9152 0.9155
1855.000000 0.9160 0.9163 0.9167 0.9172 0.9175
1850.000000 0.9179 0.9182 0.9186 0.9190 0.9195
1845.000000 0.9200 0.9204 0.9208 0.9213 0.9217
1840.000000 0.9221 0.9225 0.9228 0.9230 0.9233
1835.000000 0.9236 0.9238 0.9241 0.9244 0.9245
1830.000000 0.9245 0.9245 0.9245 0.9246 0.9246
1825.000000 0.9244 0.9243 0.9239 0.9238 0.9236
1820.000000 0.9234 0.9232 0.9230 0.9229 0.9227
1815.000000 0.9225 0.9224 0.9223 0.9223 0.9222
1810.000000 0.9222 0.9221 0.9221 0.9220 0.9220
1805.000000 0.9221 0.9221 0.9222 0.9223 0.9224
1800.000000 0.9225 0.9227 0.9228 0.9228 0.9228
1795.000000 0.9229 0.9228 0.9229 0.9230 0.9230
1790.000000 0.9230 0.9231 0.9231 0.9231 0.9231
1785.000000 0.9230 0.9229 0.9229 0.9228 0.9227
1780.000000 0.9227 0.9226 0.9229 0.9232 0.9216
1775.000000 0.9237 0.9239 0.9241 0.9242 0.9241
1770.000000 0.9240 0.9239 0.9235 0.9227 0.9219
1765.000000 0.9212 0.9205 0.9197 0.9182 0.9165
1760.000000 0.9149 0.9133 0.9116 0.9090 0.9064
1755.000000 0.9037 0.9010 0.8982 0.8950 0.8914
1750.000000 0.8877 0.8843 0.8809 0.8779 0.8749
1745.000000 0.8719 0.8690 0.8614 0.8470 0.8379
1740.000000 0.8338 0.8302 0.8278 0.8262 0.8246
1735.000000 0.8231 0.8216 0.8200 0.8185 0.8170
1730.000000 0.8154 0.8138 0.8123 0.8096 0.8057
1725.000000 0.8002 0.7931 0.7874 0.7763 0.7649
1720.000000 0.7534 0.7421 0.7306 0.7191 0.7076
1715.000000 0.6961 0.6846 0.6731 0.6615 0.6499
1710.000000 0.6383 0.6267 0.6150 0.6034 0.5917
1705.000000 0.5800 0.5683 0.5566 0.5448 0.5331
1700.000000 0.5213 0.5095 0.4976 0.4857 0.4739
1695.000000 0.4620 0.4500 0.4382 0.4262 0.4143
1690.000000 0.4023 0.3903 0.3784 0.3666 0.3603
1685.000000 0.3555 0.3525 0.3505 0.3488 0.3477
1680.000000 0.3466 0.3458 0.3449 0.3441 0.3435
1675.000000 0.3429 0.3430 0.3432 0.3432 0.3433
1670.000000 0.3436 0.3448 0.3461 0.3475 0.3493
1665.000000 0.3513 0.3533 0.3554 0.3575 0.3603
1660.000000 0.3637 0.3670 0.3692 0.3716 0.3733
1655.000000 0.3749 0.3762 0.3774 0.3782 0.3788
1650.000000 0.3791 0.3792 0.3792 0.3794 0.3794
1645.000000 0.3795 0.3795 0.3778 0.3743 0.3701
1640.000000 0.3656 0.3613 0.3570 0.3527 0.3483
1635.000000 0.3439 0.3396 0.3352 0.3308 0.3264
1630.000000 0.3220 0.3176 0.3136 0.3111 0.3100
1625.000000 0.3101 0.3089 0.3087 0.3087 0.3092
1620.000000 0.3104 0.3123 0.3147 0.3181 0.3215
1615.000000 0.3248 0.3300 0.3370 0.3447 0.3516
1610.000000 0.3565 0.3601 0.3625 0.3644 0.3663
1605.000000 0.3677 0.3687 0.3694 0.3699 0.3705
1600.000000 0.3709 0.3714 0.3716 0.3719 0.3719
1595.000000 0.3738 0.3708 0.3679 0.3625 0.3568
1590.000000 0.3508 0.3455 0.3410 0.3368 0.3334
1585.000000 0.3305 0.3282 0.3266 0.3255 0.3256
1580.000000 0.3256 0.3266 0.3289 0.3317 0.3352
1575.000000 0.3404 0.3467 0.3555 0.3643 0.3702
1570.000000 0.3744 0.3767 0.3774 0.3781 0.3786
1565.000000 0.3790 0.3790 0.3790 0.3791 0.3791
1560.000000 0.3791 0.3791 0.3793 0.3806 0.3825
1555.000000 0.3844 0.3863 0.3883 0.3901 0.3919
1550.000000 0.3937 0.3954 0.3970 0.3983 0.3997
1545.000000 0.4009 0.4022 0.4035 0.4046 0.4050
1540.000000 0.4053 0.4057 0.4060 0.4060 0.4061
1535.000000 0.4060 0.4060 0.4059 0.4058 0.4056
1530.000000 0.4054 0.4051 0.4048 0.4045 0.4043
1525.000000 0.4044 0.4043 0.4044 0.4051 0.4056
1520.000000 0.4067 0.4087 0.4131 0.4189 0.4230
1515.000000 0.4261 0.4290 0.4318 0.4364 0.4437
1510.000000 0.4512 0.4586 0.4661 0.4736 0.4810
1505.000000 0.4884 0.4960 0.5034 0.5111 0.5186
1500.000000 0.5262 0.5337 0.5412 0.5433 0.5443
1495.000000 0.5452 0.5460 0.5467 0.5474 0.5480
1490.000000 0.5492 0.5514 0.5535 0.5556 0.5580
1485.000000 0.5602 0.5621 0.5637 0.5648 0.5658
1480.000000 0.5665 0.5671 0.5672 0.5674 0.5663
1475.000000 0.5649 0.5568 0.5471 0.5366 0.5239
1470.000000 0.5120 0.5052 0.4996 0.4959 0.4924
1465.000000 0.4892 0.4861 0.4832 0.4803 0.4767
1460.000000 0.4727 0.4635 0.4508 0.4382 0.4255
1455.000000 0.4128 0.4001 0.3873 0.3745 0.3617
1450.000000 0.3493 0.3412 0.3415 0.3391 0.3392
1445.000000 0.3413 0.3469 0.3553 0.3726 0.3891
1440.000000 0.4036 0.4185 0.4315 0.4422 0.4527
1435.000000 0.4613 0.4697 0.4781 0.4861 0.4941
1430.000000 0.5018 0.5095 0.5163 0.5212 0.5262
1425.000000 0.5289 0.5302 0.5320 0.5287 0.5243
1420.000000 0.5165 0.5087 0.4974 0.4893 0.4865
1415.000000 0.4830 0.4856 0.4858 0.4887 0.4977
1410.000000 0.5053 0.5103 0.5138 0.5166 0.5192
1405.000000 0.5215 0.5233 0.5245 0.5272 0.5265
1400.000000 0.5270 0.5251 0.5154 0.5057 0.4985
1395.000000 0.4945 0.4908 0.4870 0.4829 0.4787
1390.000000 0.4748 0.4721 0.4697 0.4678 0.4661
1385.000000 0.4652 0.4645 0.4637 0.4634 0.4635
1380.000000 0.4643 0.4652 0.4663 0.4680 0.4689
1375.000000 0.4695 0.4699 0.4697 0.4637 0.4379
1370.000000 0.4312 0.4245 0.4177 0.4097 0.3996
1365.000000 0.3867 0.3839 0.3826 0.3821 0.3796
1360.000000 0.3815 0.3812 0.3812 0.3814 0.3827
1355.000000 0.3854 0.3970 0.4084 0.4157 0.4225
1350.000000 0.4301 0.4390 0.4482 0.4554 0.4603
1345.000000 0.4638 0.4665 0.4683 0.4701 0.4697
1340.000000 0.4697 0.4697 0.4684 0.4656 0.4625
1335.000000 0.4588 0.4550 0.4513 0.4482 0.4451
1330.000000 0.4424 0.4399 0.4376 0.4353 0.4335
1325.000000 0.4329 0.4340 0.4356 0.4375 0.4394
1320.000000 0.4413 0.4417 0.4418 0.4403 0.4300
1315.000000 0.4169 0.4038 0.3915 0.3879 0.3848
1310.000000 0.3829 0.3820 0.3825 0.3846 0.4063
1305.000000 0.4218 0.4338 0.4428 0.4515 0.4600
1300.000000 0.4698 0.4807 0.4867 0.4906 0.4936
1295.000000 0.4962 0.4980 0.4998 0.5012 0.5020
1290.000000 0.5043 0.5034 0.5034 0.5034 0.5030
1285.000000 0.5024 0.5018 0.5012 0.5008 0.5006
1280.000000 0.5004 0.5003 0.5002 0.5001 0.4997
1275.000000 0.4987 0.4968 0.4945 0.4892 0.4837
1270.000000 0.4776 0.4716 0.4672 0.4637 0.4605
1265.000000 0.4581 0.4560 0.4547 0.4537 0.4538
1260.000000 0.4537 0.4565 0.4737 0.4940 0.5137
1255.000000 0.5217 0.5320 0.5476 0.5580 0.5686
1250.000000 0.5792 0.5896 0.6002 0.6109 0.6215
1245.000000 0.6320 0.6387 0.6425 0.6449 0.6467
1240.000000 0.6481 0.6477 0.6489 0.6484 0.6464
1235.000000 0.6425 0.6318 0.5831 0.5326 0.5073
1230.000000 0.4982 0.4920 0.4858 0.4763 0.4685
1225.000000 0.4648 0.4629 0.4642 0.4647 0.4753
1220.000000 0.4916 0.5005 0.5064 0.5106 0.5147
1215.000000 0.5186 0.5230 0.5249 0.5261 0.5258
1210.000000 0.5211 0.5126 0.5041 0.4957 0.4871
1205.000000 0.4786 0.4700 0.4616 0.4572 0.4554
1200.000000 0.4544 0.4541 0.4541 0.4542 0.4547
1195.000000 0.4552 0.4562 0.4572 0.4583 0.4601
1190.000000 0.4624 0.4668 0.4721 0.4798 0.4887
1185.000000 0.5029 0.5157 0.5281 0.5418 0.5555
1180.000000 0.5673 0.5786 0.5883 0.5988 0.6100
1175.000000 0.6183 0.6264 0.6348 0.6433 0.6517
1170.000000 0.6593 0.6662 0.6692 0.6727 0.6712
1165.000000 0.6715 0.6698 0.6654 0.6598 0.6536
1160.000000 0.6443 0.6346 0.6242 0.6121 0.6000
1155.000000 0.5893 0.5796 0.5730 0.5682 0.5669
1150.000000 0.5664 0.5664 0.5662 0.5659 0.5645
1145.000000 0.5624 0.5597 0.5559 0.5519 0.5470
1140.000000 0.5418 0.5360 0.5289 0.5151 0.5060
1135.000000 0.5040 0.5040 0.5040 0.5056 0.5339
1130.000000 0.5515 0.5572 0.5606 0.5613 0.5618
1125.000000 0.5622 0.5615 0.5592 0.5566 0.5568
1120.000000 0.5568 0.5571 0.5606 0.5757 0.6015
1115.000000 0.6305 0.6388 0.6469 0.6551 0.6656
1110.000000 0.6745 0.6798 0.6831 0.6868 0.6865
1105.000000 0.6873 0.6863 0.6847 0.6816 0.6783
1100.000000 0.6745 0.6732 0.6733 0.6733 0.6740
1095.000000 0.6749 0.6758 0.6771 0.6802 0.6835
1090.000000 0.6869 0.6902 0.6954 0.7011 0.7069
1085.000000 0.7127 0.7174 0.7206 0.7223 0.7234
1080.000000 0.7243 0.7260 0.7228 0.7197 0.7155
1075.000000 0.7117 0.7113 0.7132 0.7152 0.7170
1070.000000 0.7182 0.7182 0.7150 0.7024 0.6878
1065.000000 0.6730 0.6589 0.6556 0.6582 0.6674
1060.000000 0.6766 0.6858 0.6951 0.7044 0.7103
1055.000000 0.7131 0.7134 0.7124 0.7051 0.6730
1050.000000 0.6362 0.5993 0.5645 0.5465 0.5351
1045.000000 0.5236 0.5095 0.4904 0.4681 0.4482
1040.000000 0.4506 0.4512 0.4783 0.5067 0.5322
1035.000000 0.5575 0.5802 0.6075 0.6230 0.6327
1030.000000 0.6426 0.6558 0.6734 0.6923 0.7081
1025.000000 0.7159 0.7233 0.7310 0.7391 0.7470
1020.000000 0.7523 0.7572 0.7625 0.7664 0.7699
1015.000000 0.7685 0.7665 0.7599 0.7483 0.7313
1010.000000 0.7141 0.6904 0.6722 0.6638 0.6610
1005.000000 0.6580 0.6588 0.6615 0.6668 0.6740
1000.000000 0.6825 0.6941 0.7075 0.7227 0.7449
995.000000 0.7615 0.7780 0.7874 0.7960 0.8045
990.000000 0.8101 0.8153 0.8206 0.8251 0.8294
985.000000 0.8339 0.8373 0.8402 0.8431 0.8460
980.000000 0.8490 0.8489 0.8512 0.8511 0.8488
975.000000 0.8449 0.8365 0.8143 0.7747 0.7348
970.000000 0.6949 0.6548 0.6154 0.5998 0.5980
965.000000 0.5971 0.6084 0.6250 0.6417 0.6585
960.000000 0.6752 0.6920 0.7089 0.7247 0.7300
955.000000 0.7336 0.7370 0.7361 0.7363 0.7359
950.000000 0.7341 0.7280 0.7156 0.6997 0.6880
945.000000 0.6841 0.6836 0.6807 0.6828 0.6828
940.000000 0.6828 0.6839 0.6853 0.6893 0.6933
935.000000 0.7039 0.7157 0.7279 0.7400 0.7522
930.000000 0.7631 0.7741 0.7838 0.7931 0.8024
925.000000 0.8107 0.8189 0.8261 0.8323 0.8384
920.000000 0.8446 0.8504 0.8562 0.8611 0.8658
915.000000 0.8693 0.8720 0.8745 0.8753 0.8757
910.000000 0.8768 0.8781 0.8794 0.8832 0.8870
905.000000 0.8901 0.8933 0.8959 0.8987 0.9014
900.000000 0.9038 0.9061 0.9082 0.9108 0.9135
895.000000 0.9171 0.9203 0.9211 0.9206 0.9204
890.000000 0.9202 0.9200 0.9198 0.9197 0.9198
885.000000 0.9200 0.9201 0.9203 0.9206 0.9213
880.000000 0.9218 0.9226 0.9255 0.9237 0.9234
875.000000 0.9220 0.9197 0.9161 0.9110 0.9037
870.000000 0.8842 0.8505 0.8081 0.7839 0.7647
865.000000 0.7455 0.7216 0.6953 0.6690 0.6600
860.000000 0.6603 0.6800 0.6999 0.7196 0.7285
855.000000 0.7328 0.7358 0.7364 0.7310 0.7241
850.000000 0.7168 0.7087 0.7004 0.6909 0.6935
845.000000 0.6999 0.7144 0.7122 0.7071 0.6956
840.000000 0.6264 0.5587 0.5509 0.5558 0.5743
835.000000 0.6081 0.6429 0.6876 0.7063 0.7230
830.000000 0.7394 0.7534 0.7671 0.7803 0.7931
825.000000 0.8051 0.8153 0.8238 0.8325 0.8424
820.000000 0.8513 0.8588 0.8634 0.8661 0.8676
815.000000 0.8678 0.8682 0.8683 0.8677 0.8659
810.000000 0.8620 0.8546 0.8463 0.8427 0.8406
805.000000 0.8400 0.8395 0.8379 0.8327 0.8219
800.000000 0.7977 0.7496 0.7212 0.7155 0.7179
795.000000 0.7331 0.7519 0.7665 0.7733 0.7727
790.000000 0.7677 0.7588 0.7508 0.7533 0.7606
785.000000 0.7740 0.7848 0.7915 0.7969 0.7957
780.000000 0.7935 0.7865 0.7774 0.7664 0.7560
775.000000 0.7451 0.7312 0.7158 0.6994 0.6862
770.000000 0.6786 0.6694 0.6750 0.6773 0.6807
765.000000 0.6875 0.6955 0.7050 0.7155 0.7280
760.000000 0.7415 0.7570 0.7733 0.7914 0.8081
755.000000 0.8217 0.8347 0.8483 0.8601 0.8675
750.000000 0.8718 0.8740 0.8772 0.8824 0.8874
745.000000 0.8910 0.8884 0.8890 0.8893 0.8877
740.000000 0.8811 0.8723 0.8557 0.8345 0.8207
735.000000 0.8095 0.8110 0.8151 0.8294 0.8429
730.000000 0.8533 0.8602 0.8667 0.8716 0.8764
725.000000 0.8809 0.8853 0.8892 0.8928 0.8944
720.000000 0.8972 0.8963 0.8965 0.8949 0.8906
715.000000 0.8830 0.8623 0.8381 0.8091 0.7723
710.000000 0.7748 0.7764 0.7854 0.7906 0.7886
705.000000 0.7816 0.7611 0.7437 0.7230 0.7011
700.000000 0.6712 0.6437 0.6060 0.6052 0.6067
695.000000 0.6113 0.6165 0.6224 0.6293 0.6409
690.000000 0.6547 0.6694 0.6820 0.6940 0.7056
685.000000 0.7168 0.7257 0.7363 0.7471 0.7579
680.000000 0.7721 0.7871 0.8014 0.8112 0.8158
675.000000 0.8178 0.8133 0.7962 0.7583 0.7134
670.000000 0.6876 0.6575
##END=
