##TITLE=ANILINE-, BORON TRICHLORIDE
##JCAMP-DX=4.24
##DATA TYPE=INFRARED SPECTRUM
##CLASS=COBLENTZ
##ORIGIN=STANDARD OIL OF OHIO
##OWNER=COBLENTZ SOCIETY
Collection (C) 2018 copyright by the U.S. Secretary of Commerce
on behalf of the United States of America. All rights reserved.
##DATE=Not specified, most likely prior to 1970
##NAMES=aniline compound with trichloroborane (1:1)
##MOLFORM=C6 H7 N  * B Cl3
##SOURCE REFERENCE=COBLENTZ NO. 174
##$NIST ID=B6000174
##$NIST SOURCE=COBLENTZ
##$NIST IMAGE=cob174
##SPECTROMETER/DATA SYSTEM=Not specified, most likely a grating spectrometer.
##STATE=SOLID (0.5% IN KBr PELLET)
##SAMPLING PROCEDURE=TRANSMISSION
##RESOLUTION=4
##DATA PROCESSING=DIGITIZED BY NIST FROM HARD COPY
##XUNITS=MICROMETERS
##YUNITS=TRANSMITTANCE
##XFACTOR=1.000000
##YFACTOR=1
##DELTAX=000.006719
##FIRSTX=2.019
##LASTX=15.457
##FIRSTY=0.849
##MAXX=15.457
##MINX=2.019
##MAXY=0.871
##MINY=0.011
##NPOINTS=2001
##XYDATA=(X++(Y..Y))
2.019000 0.8490 0.8510 0.8510 0.8510 0.8520
2.052611 0.8520 0.8520 0.8520 0.8520 0.8520
2.086000 0.8520 0.8520 0.8510 0.8510 0.8490
2.119611 0.8490 0.8470 0.8470 0.8460 0.8460
2.153000 0.8440 0.8420 0.8420 0.8400 0.8400
2.186611 0.8400 0.8420 0.8420 0.8440 0.8460
2.221000 0.8470 0.8470 0.8470 0.8470 0.8470
2.254611 0.8470 0.8490 0.8490 0.8490 0.8490
2.288000 0.8510 0.8510 0.8510 0.8510 0.8520
2.321611 0.8540 0.8560 0.8560 0.8570 0.8570
2.355000 0.8590 0.8590 0.8610 0.8610 0.8610
2.388611 0.8610 0.8610 0.8610 0.8590 0.8570
2.422000 0.8570 0.8560 0.8540 0.8510 0.8510
2.455611 0.8490 0.8470 0.8460 0.8460 0.8470
2.489000 0.8510 0.8520 0.8540 0.8540 0.8560
2.522611 0.8570 0.8570 0.8590 0.8590 0.8610
2.557000 0.8610 0.8610 0.8620 0.8620 0.8620
2.590611 0.8620 0.8620 0.8620 0.8610 0.8610
2.624000 0.8620 0.8620 0.8620 0.8640 0.8680
2.657611 0.8690 0.8710 0.8710 0.8680 0.8620
2.691000 0.8610 0.8590 0.8570 0.8540 0.8520
2.724611 0.8510 0.8440 0.8390 0.8240 0.8050
2.758000 0.7610 0.7250 0.6980 0.6760 0.6590
2.791611 0.6420 0.6260 0.6050 0.5820 0.5490
2.825000 0.5090 0.4550 0.4390 0.4190 0.3990
2.858611 0.3750 0.3510 0.3230 0.3060 0.2890
2.892000 0.2750 0.2620 0.2520 0.2410 0.2330
2.925611 0.2250 0.2180 0.2130 0.2060 0.1990
2.960000 0.1970 0.1910 0.1840 0.1750 0.1690
2.993611 0.1640 0.1550 0.1500 0.1480 0.1430
3.027000 0.1380 0.1300 0.1250 0.1230 0.1200
3.060611 0.1150 0.1030 0.0870 0.0740 0.0650
3.094000 0.0600 0.0570 0.0550 0.0550 0.0570
3.127611 0.0590 0.0640 0.0740 0.0810 0.0840
3.161000 0.0870 0.0940 0.0960 0.0980 0.0980
3.194611 0.0980 0.0980 0.0960 0.0940 0.0930
3.228000 0.0910 0.0890 0.0860 0.0840 0.0790
3.261611 0.0760 0.0720 0.0690 0.0650 0.0600
3.296000 0.0550 0.0500 0.0470 0.0420 0.0350
3.329611 0.0320 0.0280 0.0250 0.0210 0.0200
3.363000 0.0180 0.0180 0.0160 0.0160 0.0160
3.396611 0.0150 0.0130 0.0130 0.0130 0.0130
3.430000 0.0110 0.0110 0.0110 0.0110 0.0110
3.463611 0.0130 0.0130 0.0150 0.0150 0.0160
3.497000 0.0180 0.0180 0.0200 0.0210 0.0230
3.530611 0.0250 0.0270 0.0300 0.0350 0.0430
3.564000 0.0520 0.0600 0.0710 0.0810 0.0930
3.597611 0.1040 0.1160 0.1280 0.1400 0.1520
3.632000 0.1620 0.1700 0.1790 0.1840 0.1910
3.665611 0.1970 0.2040 0.2130 0.2190 0.2280
3.699000 0.2360 0.2450 0.2520 0.2570 0.2580
3.732611 0.2620 0.2650 0.2650 0.2670 0.2690
3.766000 0.2720 0.2790 0.2870 0.2870 0.2850
3.799611 0.2800 0.2740 0.2670 0.2570 0.2480
3.833000 0.2380 0.2280 0.2190 0.2110 0.2030
3.866611 0.1960 0.1920 0.1910 0.1920 0.1970
3.900000 0.2060 0.2160 0.2280 0.2400 0.2550
3.933611 0.2720 0.2890 0.3060 0.3230 0.3400
3.968000 0.3570 0.3730 0.3890 0.4020 0.4140
4.001611 0.4240 0.4310 0.4410 0.4510 0.4610
4.035000 0.4750 0.4870 0.5020 0.5160 0.5290
4.068611 0.5430 0.5460 0.5530 0.5630 0.5710
4.102000 0.5820 0.5880 0.5900 0.5930 0.5980
4.135611 0.6020 0.6090 0.6140 0.6200 0.6260
4.169000 0.6310 0.6320 0.6360 0.6370 0.6390
4.202611 0.6420 0.6440 0.6480 0.6480 0.6490
4.236000 0.6490 0.6510 0.6530 0.6540 0.6540
4.269611 0.6580 0.6580 0.6590 0.6630 0.6640
4.303000 0.6680 0.6710 0.6730 0.6750 0.6780
4.336611 0.6810 0.6860 0.6920 0.6930 0.6950
4.371000 0.6970 0.6970 0.6930 0.6900 0.6830
4.404611 0.6810 0.6780 0.6750 0.6710 0.6710
4.438000 0.6730 0.6760 0.6780 0.6800 0.6830
4.471611 0.6860 0.6900 0.6930 0.6950 0.6970
4.505000 0.6980 0.7000 0.7020 0.7030 0.7050
4.538611 0.7070 0.7080 0.7080 0.7100 0.7120
4.572000 0.7140 0.7170 0.7190 0.7200 0.7220
4.605611 0.7220 0.7220 0.7200 0.7200 0.7190
4.639000 0.7190 0.7170 0.7140 0.7120 0.7120
4.672611 0.7140 0.7140 0.7150 0.7170 0.7170
4.707000 0.7170 0.7150 0.7150 0.7140 0.7100
4.740611 0.7080 0.7070 0.7030 0.7020 0.7000
4.774000 0.7000 0.7000 0.7020 0.7020 0.7020
4.807611 0.7020 0.7030 0.7030 0.7050 0.7050
4.841000 0.7070 0.7070 0.7070 0.7070 0.7070
4.874611 0.7070 0.7050 0.7050 0.7050 0.7050
4.908000 0.7030 0.7030 0.7030 0.7000 0.7020
4.941611 0.7030 0.7020 0.7000 0.7000 0.7000
4.975000 0.6980 0.6950 0.6930 0.6880 0.6850
5.008611 0.6800 0.6780 0.6750 0.6750 0.6750
5.043000 0.6730 0.6710 0.6700 0.6680 0.6660
5.076611 0.6640 0.6640 0.6660 0.6680 0.6710
5.110000 0.6750 0.6780 0.6800 0.6810 0.6830
5.143611 0.6850 0.6880 0.6880 0.6860 0.6860
5.177000 0.6860 0.6860 0.6850 0.6850 0.6830
5.210611 0.6810 0.6800 0.6780 0.6750 0.6730
5.244000 0.6730 0.6700 0.6680 0.6660 0.6640
5.277611 0.6630 0.6610 0.6590 0.6590 0.6580
5.311000 0.6580 0.6580 0.6580 0.6580 0.6590
5.344611 0.6610 0.6610 0.6640 0.6660 0.6680
5.378000 0.6700 0.6700 0.6710 0.6710 0.6730
5.411611 0.6730 0.6710 0.6700 0.6700 0.6680
5.446000 0.6680 0.6680 0.6660 0.6640 0.6640
5.479611 0.6630 0.6630 0.6610 0.6610 0.6610
5.513000 0.6610 0.6610 0.6630 0.6640 0.6640
5.546611 0.6630 0.6630 0.6630 0.6610 0.6590
5.580000 0.6590 0.6580 0.6580 0.6580 0.6580
5.613611 0.6580 0.6580 0.6580 0.6580 0.6560
5.647000 0.6560 0.6540 0.6530 0.6510 0.6510
5.680611 0.6490 0.6510 0.6510 0.6480 0.6480
5.714000 0.6410 0.6390 0.6370 0.6390 0.6390
5.747611 0.6390 0.6390 0.6390 0.6410 0.6410
5.782000 0.6410 0.6390 0.6390 0.6390 0.6390
5.815611 0.6370 0.6370 0.6370 0.6360 0.6360
5.849000 0.6360 0.6360 0.6370 0.6370 0.6390
5.882611 0.6390 0.6390 0.6390 0.6390 0.6390
5.916000 0.6390 0.6390 0.6390 0.6390 0.6390
5.949611 0.6390 0.6370 0.6370 0.6370 0.6360
5.983000 0.6340 0.6310 0.6290 0.6240 0.6200
6.016611 0.6150 0.6120 0.6090 0.6040 0.6020
6.050000 0.6000 0.5970 0.5950 0.5880 0.5870
6.083611 0.5850 0.5820 0.5750 0.5630 0.5530
6.118000 0.5440 0.5410 0.5390 0.5340 0.5170
6.151611 0.5050 0.5000 0.4950 0.4900 0.4890
6.185000 0.4890 0.4870 0.4770 0.3940 0.3630
6.218611 0.3290 0.3210 0.3020 0.3020 0.3240
6.252000 0.3410 0.3600 0.3730 0.3720 0.3650
6.285611 0.3530 0.3350 0.3180 0.3060 0.2890
6.319000 0.2750 0.2630 0.2500 0.2430 0.2350
6.352611 0.2260 0.2230 0.2160 0.2140 0.2140
6.386000 0.2160 0.2180 0.2210 0.2280 0.2330
6.419611 0.2480 0.2630 0.2770 0.2870 0.2970
6.454000 0.3060 0.3130 0.3180 0.3240 0.3310
6.487611 0.3380 0.3450 0.3530 0.3630 0.3720
6.521000 0.3750 0.3750 0.3680 0.3410 0.3260
6.554611 0.3060 0.2850 0.2670 0.2530 0.2450
6.588000 0.2400 0.2380 0.2360 0.2350 0.2330
6.621611 0.2250 0.2080 0.1820 0.1420 0.1080
6.655000 0.0860 0.0640 0.0470 0.0330 0.0210
6.688611 0.0200 0.0210 0.0280 0.0350 0.0420
6.722000 0.0490 0.0570 0.0640 0.0720 0.0810
6.755611 0.0870 0.0890 0.0910 0.0910 0.0910
6.789000 0.0910 0.0910 0.0910 0.0910 0.0910
6.822611 0.0930 0.0940 0.0940 0.0940 0.0960
6.857000 0.0960 0.0960 0.0960 0.0960 0.0960
6.890611 0.0960 0.0940 0.0940 0.0930 0.0930
6.924000 0.0930 0.0910 0.0890 0.0890 0.0870
6.957611 0.0870 0.0860 0.0860 0.0840 0.0840
6.991000 0.0840 0.0820 0.0820 0.0810 0.0810
7.024611 0.0810 0.0810 0.0820 0.0820 0.0820
7.058000 0.0820 0.0820 0.0820 0.0840 0.0840
7.091611 0.0840 0.0860 0.0870 0.0890 0.0910
7.125000 0.0930 0.0940 0.0960 0.0990 0.1030
7.158611 0.1040 0.1060 0.1090 0.1150 0.1210
7.193000 0.1260 0.1310 0.1350 0.1400 0.1430
7.226611 0.1470 0.1500 0.1550 0.1590 0.1620
7.260000 0.1670 0.1720 0.1790 0.1860 0.1920
7.293611 0.2010 0.2110 0.2210 0.2330 0.2400
7.327000 0.2410 0.2430 0.2450 0.2520 0.2630
7.360611 0.2720 0.2800 0.2890 0.2970 0.3060
7.394000 0.3130 0.3190 0.3260 0.3330 0.3380
7.427611 0.3410 0.3450 0.3460 0.3550 0.3620
7.461000 0.3670 0.3700 0.3730 0.3770 0.3790
7.494611 0.3800 0.3820 0.3850 0.3870 0.3900
7.529000 0.3940 0.3970 0.4020 0.4090 0.4160
7.562611 0.4260 0.4360 0.4480 0.4560 0.4630
7.596000 0.4700 0.4750 0.4780 0.4780 0.4800
7.629611 0.4800 0.4820 0.4820 0.4820 0.4830
7.663000 0.4850 0.4890 0.4900 0.4950 0.4990
7.696611 0.5000 0.5020 0.5020 0.5000 0.4990
7.730000 0.4970 0.4940 0.4920 0.4900 0.4920
7.763611 0.4940 0.4990 0.5040 0.5120 0.5210
7.797000 0.5360 0.5460 0.5560 0.5610 0.5660
7.830611 0.5710 0.5730 0.5750 0.5780 0.5800
7.865000 0.5820 0.5830 0.5850 0.5850 0.5870
7.898611 0.5870 0.5870 0.5870 0.5870 0.5870
7.932000 0.5870 0.5870 0.5870 0.5870 0.5870
7.965611 0.5850 0.5850 0.5850 0.5830 0.5820
7.999000 0.5780 0.5750 0.5560 0.5540 0.5480
8.032611 0.5440 0.5390 0.5380 0.5360 0.5320
8.066000 0.5240 0.5220 0.5160 0.5050 0.5040
8.099611 0.5000 0.4970 0.4900 0.4890 0.4870
8.133000 0.4820 0.4820 0.4800 0.4770 0.4750
8.166611 0.4730 0.4720 0.4700 0.4680 0.4670
8.200000 0.4650 0.4630 0.4610 0.4610 0.4600
8.233611 0.4560 0.4530 0.4500 0.4450 0.4390
8.268000 0.4310 0.4240 0.4170 0.4120 0.4060
8.301611 0.3990 0.3900 0.3750 0.3650 0.3570
8.335000 0.3430 0.3290 0.3160 0.3020 0.2890
8.368611 0.2750 0.2720 0.2750 0.3010 0.3280
8.402000 0.3600 0.3850 0.4060 0.4230 0.4360
8.435611 0.4450 0.4530 0.4600 0.4650 0.4680
8.469000 0.4720 0.4770 0.4800 0.4870 0.4920
8.502611 0.4990 0.5040 0.5100 0.5160 0.5190
8.536000 0.5210 0.5220 0.5240 0.5240 0.5240
8.569611 0.5240 0.5220 0.5220 0.5210 0.5170
8.604000 0.5120 0.5100 0.5120 0.5140 0.5140
8.637611 0.5140 0.5160 0.5210 0.5220 0.5220
8.671000 0.5220 0.5220 0.5210 0.5190 0.5190
8.704611 0.5190 0.5210 0.5220 0.5240 0.5260
8.738000 0.5290 0.5310 0.5310 0.5320 0.5320
8.771611 0.5340 0.5340 0.5340 0.5320 0.5320
8.805000 0.5320 0.5320 0.5320 0.5320 0.5320
8.838611 0.5290 0.5270 0.5260 0.5220 0.5170
8.872000 0.5140 0.5040 0.4990 0.4940 0.4850
8.905611 0.4770 0.4610 0.4510 0.4410 0.4310
8.940000 0.4210 0.4120 0.4020 0.3940 0.3850
8.973611 0.3790 0.3720 0.3650 0.3580 0.3530
9.007000 0.3480 0.3460 0.3450 0.3430 0.3410
9.040611 0.3400 0.3360 0.3350 0.3330 0.3310
9.074000 0.3310 0.3310 0.3310 0.3310 0.3330
9.107611 0.3330 0.3330 0.3330 0.3310 0.3310
9.141000 0.3290 0.3280 0.3260 0.3230 0.3210
9.174611 0.3190 0.3180 0.3160 0.3160 0.3210
9.208000 0.3280 0.3360 0.3430 0.3500 0.3580
9.241611 0.3670 0.3730 0.3820 0.3900 0.3970
9.275000 0.4040 0.4120 0.4190 0.4260 0.4310
9.308611 0.4360 0.4390 0.4430 0.4500 0.4550
9.343000 0.4600 0.4650 0.4700 0.4700 0.4720
9.376611 0.4730 0.4730 0.4750 0.4770 0.4780
9.410000 0.4820 0.4850 0.4890 0.4900 0.4920
9.443611 0.4940 0.4940 0.4940 0.4940 0.4940
9.477000 0.4940 0.4950 0.4950 0.4970 0.4990
9.510611 0.4990 0.5000 0.5000 0.5020 0.5020
9.544000 0.5040 0.5050 0.5070 0.5090 0.5090
9.577611 0.5090 0.5090 0.5090 0.5100 0.5120
9.611000 0.5120 0.5100 0.5090 0.5050 0.4940
9.644611 0.4820 0.4610 0.4430 0.4240 0.4020
9.679000 0.3800 0.3800 0.3950 0.4110 0.4280
9.712611 0.4430 0.4600 0.4750 0.4850 0.5020
9.746000 0.5160 0.5260 0.5360 0.5430 0.5480
9.779611 0.5530 0.5580 0.5630 0.5680 0.5730
9.813000 0.5750 0.5800 0.5830 0.5870 0.5880
9.846611 0.5920 0.5950 0.5970 0.6000 0.6000
9.880000 0.6040 0.6070 0.6070 0.6070 0.6090
9.913611 0.6090 0.6090 0.6100 0.6100 0.6120
9.947000 0.6120 0.6140 0.6170 0.6190 0.6220
9.980611 0.6260 0.6310 0.6320 0.6320 0.6340
10.015000 0.6370 0.6410 0.6420 0.6440 0.6440
10.048611 0.6440 0.6420 0.6420 0.6420 0.6440
10.082000 0.6440 0.6440 0.6460 0.6490 0.6530
10.115611 0.6530 0.6580 0.6590 0.6630 0.6630
10.149000 0.6680 0.6680 0.6660 0.6660 0.6630
10.182611 0.6590 0.6580 0.6590 0.6590 0.6610
10.216000 0.6610 0.6640 0.6660 0.6700 0.6730
10.249611 0.6780 0.6800 0.6810 0.6830 0.6830
10.283000 0.6850 0.6860 0.6880 0.6880 0.6900
10.316611 0.6920 0.6900 0.6920 0.6920 0.6930
10.351000 0.6970 0.6980 0.6980 0.7000 0.7000
10.384611 0.7000 0.7000 0.7000 0.7020 0.7020
10.418000 0.7020 0.7020 0.7020 0.7020 0.7000
10.451611 0.7000 0.6980 0.7000 0.6980 0.6970
10.485000 0.6970 0.6950 0.6930 0.6930 0.6930
10.518611 0.6930 0.6930 0.6930 0.6920 0.6920
10.552000 0.6920 0.6920 0.6920 0.6900 0.6900
10.585611 0.6900 0.6900 0.6900 0.6920 0.6920
10.619000 0.6920 0.6930 0.6930 0.6930 0.6930
10.652611 0.6930 0.6950 0.6950 0.6970 0.6970
10.686000 0.6980 0.6980 0.6980 0.6980 0.6970
10.719611 0.6970 0.6950 0.6950 0.6930 0.6930
10.754000 0.6920 0.6900 0.6900 0.6880 0.6860
10.787611 0.6860 0.6850 0.6830 0.6800 0.6800
10.821000 0.6780 0.6750 0.6730 0.6700 0.6680
10.854611 0.6660 0.6660 0.6660 0.6660 0.6660
10.888000 0.6660 0.6660 0.6660 0.6660 0.6700
10.921611 0.6700 0.6700 0.6700 0.6700 0.6700
10.955000 0.6700 0.6700 0.6700 0.6700 0.6700
10.988611 0.6680 0.6680 0.6660 0.6660 0.6660
11.022000 0.6660 0.6660 0.6680 0.6660 0.6660
11.055611 0.6680 0.6700 0.6700 0.6700 0.6700
11.090000 0.6710 0.6710 0.6700 0.6700 0.6700
11.123611 0.6700 0.6700 0.6700 0.6700 0.6710
11.157000 0.6730 0.6730 0.6730 0.6730 0.6710
11.190611 0.6710 0.6730 0.6750 0.6750 0.6760
11.224000 0.6760 0.6780 0.6780 0.6780 0.6750
11.257611 0.6700 0.6640 0.6610 0.6590 0.6540
11.291000 0.6490 0.6480 0.6420 0.6390 0.6370
11.324611 0.6360 0.6340 0.6340 0.6360 0.6420
11.358000 0.6460 0.6490 0.6490 0.6510 0.6510
11.391611 0.6510 0.6510 0.6490 0.6490 0.6490
11.426000 0.6490 0.6490 0.6490 0.6490 0.6510
11.459611 0.6510 0.6530 0.6510 0.6530 0.6560
11.493000 0.6630 0.6660 0.6660 0.6680 0.6680
11.526611 0.6680 0.6680 0.6680 0.6660 0.6640
11.560000 0.6640 0.6610 0.6590 0.6540 0.6530
11.593611 0.6530 0.6510 0.6490 0.6460 0.6420
11.627000 0.6370 0.6320 0.6290 0.6240 0.6190
11.660611 0.6150 0.6100 0.6070 0.6050 0.6040
11.694000 0.6000 0.5980 0.5950 0.5930 0.5900
11.727611 0.5880 0.5850 0.5830 0.5820 0.5780
11.761000 0.5760 0.5750 0.5730 0.5700 0.5680
11.794611 0.5650 0.5630 0.5600 0.5580 0.5530
11.829000 0.5510 0.5510 0.5490 0.5480 0.5440
11.862611 0.5430 0.5390 0.5360 0.5340 0.5320
11.896000 0.5310 0.5240 0.5190 0.5170 0.5140
11.929611 0.5100 0.5050 0.5000 0.4950 0.4900
11.963000 0.4830 0.4780 0.4730 0.4670 0.4610
11.996611 0.4560 0.4530 0.4480 0.4430 0.4360
12.030000 0.4310 0.4280 0.4240 0.4210 0.4170
12.063611 0.4160 0.4120 0.4090 0.4070 0.4040
12.097000 0.4020 0.3990 0.3950 0.3950 0.3900
12.130611 0.3890 0.3850 0.3840 0.3820 0.3800
12.165000 0.3790 0.3770 0.3750 0.3750 0.3730
12.198611 0.3730 0.3700 0.3680 0.3670 0.3650
12.232000 0.3650 0.3620 0.3600 0.3600 0.3580
12.265611 0.3570 0.3570 0.3550 0.3530 0.3510
12.299000 0.3510 0.3510 0.3500 0.3500 0.3500
12.332611 0.3500 0.3500 0.3500 0.3500 0.3510
12.366000 0.3510 0.3510 0.3530 0.3530 0.3530
12.399611 0.3550 0.3570 0.3570 0.3580 0.3580
12.433000 0.3580 0.3600 0.3600 0.3600 0.3620
12.466611 0.3620 0.3630 0.3650 0.3650 0.3650
12.501000 0.3670 0.3680 0.3680 0.3680 0.3700
12.534611 0.3700 0.3700 0.3720 0.3720 0.3720
12.568000 0.3720 0.3720 0.3720 0.3720 0.3720
12.601611 0.3720 0.3720 0.3730 0.3750 0.3750
12.635000 0.3820 0.3850 0.3870 0.3870 0.3890
12.668611 0.3900 0.3920 0.3940 0.3970 0.3990
12.702000 0.4020 0.4020 0.4070 0.4090 0.4110
12.735611 0.4120 0.4120 0.4140 0.4160 0.4210
12.769000 0.4230 0.4230 0.4260 0.4280 0.4280
12.802611 0.4290 0.4290 0.4310 0.4310 0.4340
12.837000 0.4360 0.4360 0.4380 0.4380 0.4380
12.870611 0.4390 0.4390 0.4410 0.4430 0.4450
12.904000 0.4460 0.4480 0.4500 0.4500 0.4500
12.937611 0.4510 0.4510 0.4510 0.4510 0.4500
12.971000 0.4500 0.4500 0.4500 0.4500 0.4530
13.004611 0.4530 0.4530 0.4510 0.4510 0.4500
13.038000 0.4500 0.4480 0.4480 0.4450 0.4410
13.071611 0.4390 0.4380 0.4380 0.4360 0.4340
13.105000 0.4340 0.4340 0.4330 0.4330 0.4310
13.138611 0.4310 0.4310 0.4290 0.4280 0.4260
13.172000 0.4240 0.4230 0.4210 0.4190 0.4190
13.205611 0.4140 0.4060 0.4010 0.3970 0.3950
13.240000 0.3940 0.3900 0.3870 0.3790 0.3680
13.273611 0.3530 0.3500 0.3430 0.3330 0.3230
13.307000 0.3110 0.2990 0.2850 0.2700 0.2550
13.340611 0.2400 0.2230 0.2060 0.1920 0.1740
13.374000 0.1530 0.1250 0.1080 0.0940 0.0840
13.407611 0.0650 0.0520 0.0420 0.0400 0.0320
13.441000 0.0270 0.0250 0.0230 0.0250 0.0350
13.474611 0.0420 0.0450 0.0520 0.0650 0.0790
13.508000 0.0960 0.1110 0.1260 0.1400 0.1470
13.541611 0.1530 0.1600 0.1670 0.1750 0.1840
13.576000 0.1940 0.2040 0.2140 0.2250 0.2360
13.609611 0.2470 0.2580 0.2700 0.2820 0.2940
13.643000 0.3060 0.3160 0.3280 0.3380 0.3500
13.676611 0.3600 0.3680 0.3790 0.3870 0.3940
13.710000 0.4010 0.4070 0.4120 0.4160 0.4210
13.743611 0.4240 0.4290 0.4330 0.4360 0.4360
13.777000 0.4380 0.4390 0.4410 0.4410 0.4430
13.810611 0.4450 0.4450 0.4460 0.4460 0.4480
13.844000 0.4500 0.4510 0.4510 0.4530 0.4530
13.877611 0.4550 0.4550 0.4560 0.4560 0.4580
13.912000 0.4580 0.4610 0.4630 0.4650 0.4650
13.945611 0.4650 0.4670 0.4670 0.4680 0.4700
13.979000 0.4700 0.4730 0.4750 0.4770 0.4820
14.012611 0.4850 0.4870 0.4900 0.4900 0.4920
14.046000 0.4940 0.4970 0.4990 0.5000 0.5020
14.079611 0.5040 0.5070 0.5070 0.5090 0.5100
14.113000 0.5140 0.5170 0.5190 0.5190 0.5210
14.146611 0.5210 0.5220 0.5240 0.5240 0.5260
14.180000 0.5260 0.5260 0.5270 0.5270 0.5290
14.213611 0.5310 0.5310 0.5310 0.5310 0.5320
14.247000 0.5320 0.5310 0.5290 0.5290 0.5270
14.280611 0.5260 0.5220 0.5210 0.5190 0.5170
14.315000 0.5120 0.5070 0.5020 0.5000 0.4990
14.348611 0.4950 0.4940 0.4830 0.4770 0.4730
14.382000 0.4650 0.4560 0.4460 0.4390 0.4330
14.415611 0.4240 0.4170 0.4110 0.4040 0.3950
14.449000 0.3870 0.3750 0.3620 0.3450 0.3240
14.482611 0.3140 0.3060 0.2990 0.2920 0.2870
14.516000 0.2790 0.2720 0.2650 0.2600 0.2530
14.549611 0.2500 0.2480 0.2430 0.2350 0.2300
14.583000 0.2280 0.2210 0.2140 0.2040 0.1970
14.616611 0.1920 0.1870 0.1840 0.1740 0.1700
14.651000 0.1690 0.1670 0.1670 0.1690 0.1740
14.684611 0.1820 0.1960 0.2140 0.2400 0.2570
14.718000 0.2720 0.2850 0.2990 0.3110 0.3260
14.751611 0.3410 0.3580 0.3790 0.4010 0.4090
14.785000 0.4160 0.4210 0.4280 0.4330 0.4380
14.818611 0.4450 0.4500 0.4550 0.4580 0.4670
14.852000 0.4700 0.4730 0.4750 0.4780 0.4820
14.885611 0.4870 0.4900 0.4940 0.4950 0.4970
14.919000 0.4970 0.4990 0.5000 0.5020 0.5040
14.952611 0.5050 0.5070 0.5090 0.5090 0.5120
14.987000 0.5140 0.5140 0.5170 0.5190 0.5220
15.020611 0.5240 0.5240 0.5260 0.5260 0.5260
15.054000 0.5260 0.5260 0.5260 0.5260 0.5260
15.087611 0.5260 0.5240 0.5240 0.5220 0.5220
15.121000 0.5220 0.5210 0.5210 0.5210 0.5190
15.154611 0.5190 0.5190 0.5170 0.5170 0.5160
15.188000 0.5140 0.5120 0.5100 0.5090 0.5090
15.221611 0.5090 0.5050 0.5050 0.5040 0.5020
15.255000 0.5000 0.5000 0.5000 0.5020 0.5020
15.288611 0.5020 0.5040 0.5040 0.5050 0.5050
15.323000 0.5070 0.5090 0.5140 0.5220 0.5260
15.356611 0.5290 0.5340 0.5360 0.5390 0.5410
15.390000 0.5460 0.5490 0.5510 0.5510 0.5510
15.423611 0.5510 0.5510 0.5490 0.5490 0.5510
15.457000 0.5510
##END=
