##TITLE=Acetanilide, 2,4-di-tert-butyl-N-methyl-
##JCAMP-DX=4.24
##DATA TYPE=INFRARED SPECTRUM
##CLASS=COBLENTZ III
##ORIGIN=MONSANTO (J. FREEMAN)
##OWNER=Copyright (C) 1987 by the Coblentz Society
Collection (C) 2018 copyright by the U.S. Secretary of Commerce
on behalf of the United States of America. All rights reserved.
##DATE=1959/06/12
##NAMES=N-(2,4-ditert-butylphenyl)-N-methylacetamide
##MOLFORM=C17 H27 N O
##SOURCE REFERENCE=COBLENTZ NO. 9287
##$NIST ID=B6009287
##$NIST SOURCE=COBLENTZ
##$NIST IMAGE=cob9287
##SPECTROMETER/DATA SYSTEM=BECKMAN IR-4 (HYBRID PRISM-GRATING)
##INSTRUMENT PARAMETERS=NaCl PRISM
##STATE=SOLID (NUJOL MULL)
$$SPECTRAL CONTAMINATION DUE TO OIL AROUND 2900, 1450 CM^-^1
##SAMPLING PROCEDURE=TRANSMISSION
##RESOLUTION=2
##DATA PROCESSING=DIGITIZED BY COBLENTZ SOCIETY (BATCH II) FROM HARD COPY
##XUNITS=1/CM
##YUNITS=TRANSMITTANCE
##XFACTOR=1.0
##YFACTOR=1
##FIRSTX=626
##LASTX=4000
##FIRSTY=0.8753
##MAXX=4000
##MINX=626
##MAXY=0.9754
##MINY=0.0183
##NPOINTS=3375
##XYDATA=(X++(Y..Y))
626.000000 0.8753 0.8780 0.8795 0.8812 0.8832
631.000000 0.8854 0.8882 0.8917 0.8947 0.8970
636.000000 0.8994 0.9012 0.9030 0.9047 0.9066
641.000000 0.9084 0.9100 0.9108 0.9106 0.9100
646.000000 0.9085 0.9060 0.9022 0.8982 0.8932
651.000000 0.8914 0.8916 0.8918 0.8920 0.8931
656.000000 0.8947 0.8964 0.8975 0.8974 0.8966
661.000000 0.8940 0.8924 0.8904 0.8880 0.8909
666.000000 0.8934 0.8973 0.9012 0.9058 0.9104
671.000000 0.9151 0.9197 0.9236 0.9277 0.9316
676.000000 0.9349 0.9390 0.9416 0.9425 0.9428
681.000000 0.9428 0.9422 0.9407 0.9389 0.9425
686.000000 0.9382 0.9408 0.9435 0.9457 0.9456
691.000000 0.9447 0.9439 0.9426 0.9412 0.9399
696.000000 0.9388 0.9378 0.9367 0.9355 0.9342
701.000000 0.9329 0.9316 0.9302 0.9287 0.9265
706.000000 0.9242 0.9219 0.9185 0.9151 0.9116
711.000000 0.9081 0.9034 0.8987 0.8937 0.8871
716.000000 0.8805 0.8741 0.8683 0.8624 0.8559
721.000000 0.8493 0.8488 0.8513 0.8564 0.8608
726.000000 0.8644 0.8678 0.8708 0.8729 0.8749
731.000000 0.8769 0.8788 0.8807 0.8825 0.8842
736.000000 0.8867 0.8894 0.8920 0.8947 0.8973
741.000000 0.9002 0.9032 0.9057 0.9076 0.9096
746.000000 0.9115 0.9131 0.9147 0.9159 0.9166
751.000000 0.9174 0.9179 0.9184 0.9191 0.9193
756.000000 0.9195 0.9196 0.9195 0.9193 0.9185
761.000000 0.9169 0.9153 0.9129 0.9089 0.9093
766.000000 0.9124 0.9153 0.9171 0.9182 0.9166
771.000000 0.9150 0.9150 0.9173 0.9206 0.9237
776.000000 0.9262 0.9277 0.9291 0.9307 0.9321
781.000000 0.9336 0.9352 0.9367 0.9374 0.9380
786.000000 0.9386 0.9392 0.9397 0.9401 0.9405
791.000000 0.9408 0.9412 0.9413 0.9414 0.9415
796.000000 0.9428 0.9416 0.9417 0.9417 0.9415
801.000000 0.9413 0.9410 0.9408 0.9406 0.9403
806.000000 0.9397 0.9391 0.9386 0.9380 0.9375
811.000000 0.9369 0.9359 0.9349 0.9337 0.9318
816.000000 0.9293 0.9266 0.9237 0.9198 0.9152
821.000000 0.9097 0.9006 0.8813 0.8337 0.7857
826.000000 0.7379 0.7004 0.6930 0.7212 0.7597
831.000000 0.7981 0.8377 0.8885 0.9000 0.9054
836.000000 0.9099 0.9139 0.9160 0.9178 0.9190
841.000000 0.9195 0.9196 0.9197 0.9198 0.9199
846.000000 0.9200 0.9203 0.9206 0.9210 0.9213
851.000000 0.9260 0.9222 0.9226 0.9228 0.9230
856.000000 0.9232 0.9233 0.9235 0.9236 0.9236
861.000000 0.9237 0.9237 0.9235 0.9230 0.9225
866.000000 0.9219 0.9213 0.9199 0.9186 0.9173
871.000000 0.9143 0.9105 0.9043 0.8967 0.8795
876.000000 0.8579 0.8364 0.8267 0.8195 0.8186
881.000000 0.8281 0.8460 0.8639 0.8839 0.8934
886.000000 0.8993 0.9025 0.9034 0.9039 0.9044
891.000000 0.9050 0.9057 0.9064 0.9075 0.9086
896.000000 0.9099 0.9111 0.9125 0.9138 0.9142
901.000000 0.9150 0.9138 0.9124 0.9108 0.9085
906.000000 0.9061 0.9038 0.9016 0.8992 0.8967
911.000000 0.8944 0.8929 0.8929 0.8930 0.8928
916.000000 0.8919 0.8872 0.8778 0.8665 0.8590
921.000000 0.8507 0.8419 0.8325 0.8250 0.8217
926.000000 0.8232 0.8238 0.8271 0.8359 0.8507
931.000000 0.8669 0.8727 0.8728 0.8728 0.8725
936.000000 0.8718 0.8717 0.8744 0.8772 0.8811
941.000000 0.8837 0.8874 0.8907 0.8921 0.8923
946.000000 0.8931 0.8915 0.8902 0.8887 0.8861
951.000000 0.8830 0.8798 0.8764 0.8742 0.8723
956.000000 0.8710 0.8699 0.8672 0.8605 0.8496
961.000000 0.8383 0.8252 0.8087 0.7917 0.7784
966.000000 0.7685 0.7591 0.7524 0.7478 0.7469
971.000000 0.7452 0.7499 0.7561 0.7854 0.8039
976.000000 0.8171 0.8310 0.8441 0.8555 0.8638
981.000000 0.8713 0.8783 0.8847 0.8890 0.8927
986.000000 0.8958 0.8984 0.9006 0.9018 0.9027
991.000000 0.9037 0.9044 0.9052 0.9058 0.9065
996.000000 0.9071 0.9076 0.9081 0.9087 0.9090
1001.000000 0.9092 0.9094 0.9096 0.9131 0.9097
1006.000000 0.9095 0.9091 0.9089 0.9082 0.9071
1011.000000 0.9061 0.9050 0.9039 0.9025 0.9007
1016.000000 0.8989 0.8970 0.8949 0.8927 0.8905
1021.000000 0.8884 0.8861 0.8838 0.8815 0.8792
1026.000000 0.8769 0.8747 0.8726 0.8703 0.8682
1031.000000 0.8653 0.8624 0.8585 0.8594 0.8601
1036.000000 0.8612 0.8626 0.8650 0.8677 0.8708
1041.000000 0.8736 0.8760 0.8773 0.8775 0.8773
1046.000000 0.8764 0.8749 0.8723 0.8686 0.8624
1051.000000 0.8534 0.8434 0.8335 0.8226 0.8016
1056.000000 0.7773 0.7531 0.7290 0.7049 0.6808
1061.000000 0.6568 0.6329 0.6126 0.6040 0.6039
1066.000000 0.6193 0.6729 0.7277 0.7916 0.8345
1071.000000 0.8441 0.8511 0.8572 0.8617 0.8653
1076.000000 0.8688 0.8716 0.8743 0.8765 0.8782
1081.000000 0.8793 0.8801 0.8804 0.8801 0.8839
1086.000000 0.8789 0.8779 0.8769 0.8753 0.8706
1091.000000 0.8628 0.8545 0.8456 0.8368 0.8238
1096.000000 0.8083 0.7928 0.7774 0.7619 0.7464
1101.000000 0.7392 0.7389 0.7562 0.7777 0.7991
1106.000000 0.8206 0.8419 0.8527 0.8547 0.8550
1111.000000 0.8548 0.8539 0.8548 0.8485 0.8385
1116.000000 0.8251 0.8118 0.7984 0.7852 0.7719
1121.000000 0.7587 0.7454 0.7335 0.7301 0.7308
1126.000000 0.7282 0.7562 0.7700 0.7838 0.7975
1131.000000 0.8021 0.8028 0.8006 0.7950 0.7807
1136.000000 0.7665 0.7522 0.7380 0.7238 0.7096
1141.000000 0.6955 0.6814 0.6754 0.6732 0.6845
1146.000000 0.7016 0.7188 0.7357 0.7528 0.7611
1151.000000 0.7653 0.7681 0.7699 0.7718 0.7744
1156.000000 0.7794 0.7916 0.8103 0.8246 0.8415
1161.000000 0.8530 0.8608 0.8665 0.8693 0.8721
1166.000000 0.8742 0.8761 0.8774 0.8786 0.8795
1171.000000 0.8803 0.8811 0.8818 0.8823 0.8827
1176.000000 0.8832 0.8836 0.8841 0.8844 0.8846
1181.000000 0.8848 0.8849 0.8851 0.8872 0.8852
1186.000000 0.8846 0.8841 0.8833 0.8820 0.8791
1191.000000 0.8756 0.8716 0.8642 0.8561 0.8457
1196.000000 0.8353 0.8264 0.8195 0.8117 0.8068
1201.000000 0.8068 0.8037 0.8119 0.8182 0.8267
1206.000000 0.8319 0.8359 0.8403 0.8454 0.8485
1211.000000 0.8513 0.8529 0.8540 0.8552 0.8562
1216.000000 0.8567 0.8581 0.8560 0.8554 0.8540
1221.000000 0.8522 0.8500 0.8477 0.8452 0.8425
1226.000000 0.8385 0.8332 0.8274 0.8181 0.8114
1231.000000 0.8045 0.7972 0.7894 0.7802 0.7702
1236.000000 0.7598 0.7486 0.7352 0.7200 0.7044
1241.000000 0.6854 0.6580 0.6541 0.6544 0.6538
1246.000000 0.6757 0.6998 0.7238 0.7477 0.7717
1251.000000 0.7955 0.8024 0.8025 0.8019 0.8090
1256.000000 0.7987 0.7950 0.7909 0.7838 0.7738
1261.000000 0.7648 0.7552 0.7443 0.7334 0.7225
1266.000000 0.7117 0.7009 0.6901 0.6793 0.6685
1271.000000 0.6579 0.6555 0.6558 0.6569 0.6538
1276.000000 0.7008 0.7310 0.7612 0.7844 0.7897
1281.000000 0.7925 0.7935 0.7935 0.7929 0.7954
1286.000000 0.7905 0.7836 0.7763 0.7670 0.7567
1291.000000 0.7477 0.7327 0.7157 0.7011 0.6899
1296.000000 0.6813 0.6741 0.6671 0.6615 0.6569
1301.000000 0.6544 0.6531 0.6521 0.6513 0.6511
1306.000000 0.6464 0.6514 0.6522 0.6543 0.6589
1311.000000 0.6662 0.6761 0.6880 0.7131 0.7313
1316.000000 0.7406 0.7449 0.7489 0.7515 0.7539
1321.000000 0.7557 0.7569 0.7571 0.7552 0.7564
1326.000000 0.7553 0.7537 0.7517 0.7488 0.7443
1331.000000 0.7377 0.7266 0.7177 0.7098 0.7022
1336.000000 0.6939 0.6840 0.6751 0.6676 0.6596
1341.000000 0.6496 0.6385 0.6250 0.5993 0.5644
1346.000000 0.5293 0.4943 0.4719 0.4668 0.4614
1351.000000 0.4566 0.4544 0.4531 0.4546 0.4681
1356.000000 0.4859 0.5036 0.5213 0.5341 0.5348
1361.000000 0.5326 0.5167 0.4953 0.4738 0.4524
1366.000000 0.4311 0.4098 0.3885 0.3672 0.3332
1371.000000 0.2524 0.2385 0.2322 0.2269 0.2221
1376.000000 0.2181 0.2149 0.2129 0.2115 0.2117
1381.000000 0.2175 0.2114 0.2609 0.2839 0.3070
1386.000000 0.3300 0.3531 0.3760 0.3990 0.4219
1391.000000 0.4378 0.4428 0.4438 0.4429 0.4418
1396.000000 0.4398 0.4367 0.4322 0.4287 0.4270
1401.000000 0.4268 0.4272 0.4295 0.4521 0.4822
1406.000000 0.5123 0.5423 0.5723 0.6022 0.6292
1411.000000 0.6341 0.6352 0.6349 0.6345 0.6324
1416.000000 0.6202 0.6001 0.5877 0.5798 0.5751
1421.000000 0.5713 0.5680 0.5661 0.5647 0.5642
1426.000000 0.5643 0.5646 0.5651 0.5662 0.5676
1431.000000 0.5693 0.5706 0.5711 0.5711 0.5705
1436.000000 0.5695 0.5680 0.5658 0.5629 0.5595
1441.000000 0.5538 0.5405 0.5258 0.5111 0.4965
1446.000000 0.4818 0.4672 0.4526 0.4380 0.4234
1451.000000 0.4089 0.3944 0.3799 0.3654 0.3509
1456.000000 0.3366 0.3142 0.3046 0.2905 0.2728
1461.000000 0.2586 0.2493 0.2405 0.2311 0.2211
1466.000000 0.2131 0.2070 0.2030 0.2020 0.2020
1471.000000 0.2025 0.2035 0.2049 0.2064 0.2107
1476.000000 0.2234 0.2419 0.2650 0.2880 0.3110
1481.000000 0.3340 0.3570 0.3799 0.4028 0.4256
1486.000000 0.4484 0.4713 0.4940 0.5151 0.5230
1491.000000 0.5284 0.5304 0.5305 0.5301 0.5304
1496.000000 0.5259 0.5158 0.4974 0.4866 0.4774
1501.000000 0.4673 0.4590 0.4519 0.4448 0.4402
1506.000000 0.4386 0.4385 0.4369 0.4394 0.4407
1511.000000 0.4442 0.4604 0.4786 0.4862 0.5001
1516.000000 0.5243 0.5496 0.5768 0.6182 0.6372
1521.000000 0.6469 0.6587 0.6721 0.6858 0.6975
1526.000000 0.7064 0.7126 0.7182 0.7291 0.7412
1531.000000 0.7518 0.7607 0.7729 0.7903 0.8014
1536.000000 0.8090 0.8140 0.8177 0.8206 0.8224
1541.000000 0.8240 0.8256 0.8272 0.8287 0.8297
1546.000000 0.8307 0.8316 0.8326 0.8335 0.8343
1551.000000 0.8349 0.8354 0.8360 0.8365 0.8370
1556.000000 0.8374 0.8376 0.8375 0.8371 0.8372
1561.000000 0.8368 0.8362 0.8356 0.8350 0.8343
1566.000000 0.8335 0.8326 0.8316 0.8294 0.8266
1571.000000 0.8256 0.8252 0.8249 0.8248 0.8247
1576.000000 0.8247 0.8246 0.8245 0.8244 0.8241
1581.000000 0.8236 0.8229 0.8217 0.8198 0.8160
1586.000000 0.8123 0.8089 0.8056 0.8025 0.7986
1591.000000 0.7945 0.7904 0.7871 0.7842 0.7813
1596.000000 0.7785 0.7756 0.7728 0.7703 0.7679
1601.000000 0.7655 0.7630 0.7606 0.7582 0.7558
1606.000000 0.7533 0.7504 0.7474 0.7444 0.7413
1611.000000 0.7382 0.7348 0.7311 0.7274 0.7237
1616.000000 0.7191 0.7139 0.7086 0.7033 0.6988
1621.000000 0.6948 0.6909 0.6861 0.6769 0.6649
1626.000000 0.6540 0.6460 0.6400 0.6329 0.6224
1631.000000 0.6100 0.6021 0.5960 0.5898 0.5829
1636.000000 0.5743 0.5657 0.5573 0.5492 0.5412
1641.000000 0.5339 0.5270 0.5201 0.5127 0.5052
1646.000000 0.4974 0.4884 0.4784 0.4721 0.4659
1651.000000 0.4597 0.4459 0.4228 0.3644 0.3120
1656.000000 0.2949 0.2778 0.2607 0.2436 0.2265
1661.000000 0.2095 0.1924 0.1305 0.1042 0.1038
1666.000000 0.1038 0.1041 0.1044 0.1031 0.1055
1671.000000 0.1104 0.1409 0.1751 0.2092 0.2433
1676.000000 0.2774 0.3114 0.3454 0.3791 0.4058
1681.000000 0.4128 0.4174 0.4246 0.4413 0.4662
1686.000000 0.4910 0.5158 0.5405 0.5653 0.5900
1691.000000 0.6146 0.6732 0.7336 0.7522 0.7858
1696.000000 0.7937 0.8012 0.8083 0.8154 0.8236
1701.000000 0.8332 0.8447 0.8626 0.8753 0.8830
1706.000000 0.8899 0.8969 0.9039 0.9109 0.9180
1711.000000 0.9251 0.9320 0.9385 0.9440 0.9481
1716.000000 0.9508 0.9536 0.9564 0.9587 0.9608
1721.000000 0.9628 0.9647 0.9666 0.9686 0.9701
1726.000000 0.9712 0.9721 0.9731 0.9740 0.9741
1731.000000 0.9743 0.9745 0.9754 0.9747 0.9744
1736.000000 0.9743 0.9740 0.9738 0.9736 0.9734
1741.000000 0.9732 0.9730 0.9728 0.9726 0.9723
1746.000000 0.9719 0.9714 0.9710 0.9705 0.9700
1751.000000 0.9696 0.9691 0.9687 0.9682 0.9678
1756.000000 0.9673 0.9668 0.9663 0.9659 0.9654
1761.000000 0.9649 0.9645 0.9640 0.9635 0.9630
1766.000000 0.9626 0.9621 0.9617 0.9612 0.9607
1771.000000 0.9602 0.9598 0.9593 0.9588 0.9583
1776.000000 0.9577 0.9573 0.9567 0.9561 0.9556
1781.000000 0.9551 0.9546 0.9541 0.9542 0.9543
1786.000000 0.9545 0.9547 0.9550 0.9553 0.9556
1791.000000 0.9559 0.9563 0.9568 0.9573 0.9575
1796.000000 0.9574 0.9573 0.9572 0.9570 0.9568
1801.000000 0.9566 0.9564 0.9561 0.9559 0.9557
1806.000000 0.9554 0.9551 0.9548 0.9545 0.9542
1811.000000 0.9539 0.9536 0.9533 0.9530 0.9527
1816.000000 0.9524 0.9521 0.9517 0.9514 0.9511
1821.000000 0.9508 0.9505 0.9502 0.9499 0.9495
1826.000000 0.9492 0.9489 0.9486 0.9482 0.9479
1831.000000 0.9476 0.9473 0.9469 0.9466 0.9462
1836.000000 0.9459 0.9456 0.9453 0.9450 0.9447
1841.000000 0.9444 0.9441 0.9438 0.9436 0.9434
1846.000000 0.9431 0.9428 0.9425 0.9423 0.9420
1851.000000 0.9417 0.9415 0.9412 0.9409 0.9407
1856.000000 0.9404 0.9402 0.9399 0.9396 0.9394
1861.000000 0.9391 0.9388 0.9385 0.9382 0.9379
1866.000000 0.9377 0.9374 0.9371 0.9369 0.9366
1871.000000 0.9363 0.9360 0.9358 0.9355 0.9352
1876.000000 0.9349 0.9346 0.9344 0.9341 0.9339
1881.000000 0.9336 0.9334 0.9333 0.9330 0.9328
1886.000000 0.9326 0.9324 0.9322 0.9320 0.9318
1891.000000 0.9317 0.9315 0.9312 0.9310 0.9307
1896.000000 0.9300 0.9292 0.9284 0.9276 0.9268
1901.000000 0.9261 0.9254 0.9248 0.9241 0.9237
1906.000000 0.9236 0.9236 0.9237 0.9239 0.9242
1911.000000 0.9245 0.9248 0.9253 0.9260 0.9267
1916.000000 0.9275 0.9283 0.9291 0.9299 0.9308
1921.000000 0.9315 0.9322 0.9330 0.9337 0.9340
1926.000000 0.9339 0.9338 0.9337 0.9336 0.9334
1931.000000 0.9333 0.9331 0.9330 0.9329 0.9327
1936.000000 0.9325 0.9323 0.9321 0.9320 0.9318
1941.000000 0.9316 0.9314 0.9312 0.9310 0.9308
1946.000000 0.9305 0.9303 0.9300 0.9298 0.9296
1951.000000 0.9293 0.9290 0.9288 0.9286 0.9284
1956.000000 0.9281 0.9278 0.9276 0.9274 0.9272
1961.000000 0.9269 0.9266 0.9263 0.9260 0.9258
1966.000000 0.9255 0.9252 0.9250 0.9247 0.9245
1971.000000 0.9242 0.9240 0.9238 0.9236 0.9235
1976.000000 0.9234 0.9233 0.9231 0.9230 0.9229
1981.000000 0.9227 0.9226 0.9225 0.9224 0.9222
1986.000000 0.9221 0.9220 0.9219 0.9217 0.9216
1991.000000 0.9215 0.9214 0.9212 0.9211 0.9210
1996.000000 0.9209 0.9207 0.9206 0.9205 0.9205
2001.000000 0.9203 0.9202 0.9202 0.9201 0.9199
2006.000000 0.9199 0.9198 0.9198 0.9196 0.9195
2011.000000 0.9195 0.9194 0.9192 0.9192 0.9191
2016.000000 0.9191 0.9189 0.9188 0.9188 0.9187
2021.000000 0.9186 0.9185 0.9184 0.9184 0.9183
2026.000000 0.9181 0.9181 0.9180 0.9179 0.9178
2031.000000 0.9177 0.9176 0.9175 0.9175 0.9174
2036.000000 0.9173 0.9172 0.9171 0.9171 0.9169
2041.000000 0.9168 0.9168 0.9167 0.9166 0.9165
2046.000000 0.9164 0.9163 0.9162 0.9161 0.9160
2051.000000 0.9159 0.9158 0.9157 0.9156 0.9155
2056.000000 0.9154 0.9153 0.9152 0.9151 0.9150
2061.000000 0.9149 0.9148 0.9147 0.9146 0.9145
2066.000000 0.9144 0.9143 0.9142 0.9141 0.9140
2071.000000 0.9139 0.9138 0.9137 0.9136 0.9135
2076.000000 0.9134 0.9133 0.9132 0.9130 0.9128
2081.000000 0.9127 0.9126 0.9124 0.9123 0.9122
2086.000000 0.9120 0.9118 0.9116 0.9115 0.9114
2091.000000 0.9112 0.9111 0.9109 0.9108 0.9106
2096.000000 0.9105 0.9104 0.9102 0.9101 0.9099
2101.000000 0.9098 0.9097 0.9095 0.9094 0.9092
2106.000000 0.9091 0.9090 0.9088 0.9087 0.9085
2111.000000 0.9083 0.9082 0.9081 0.9079 0.9078
2116.000000 0.9076 0.9075 0.9074 0.9072 0.9070
2121.000000 0.9069 0.9068 0.9066 0.9065 0.9063
2126.000000 0.9061 0.9060 0.9058 0.9056 0.9055
2131.000000 0.9053 0.9052 0.9051 0.9049 0.9047
2136.000000 0.9046 0.9044 0.9042 0.9041 0.9039
2141.000000 0.9038 0.9036 0.9035 0.9034 0.9032
2146.000000 0.9030 0.9029 0.9027 0.9025 0.9024
2151.000000 0.9022 0.9021 0.9019 0.9018 0.9017
2156.000000 0.9015 0.9014 0.9012 0.9010 0.9009
2161.000000 0.9007 0.9006 0.9004 0.9003 0.9002
2166.000000 0.9000 0.8999 0.8998 0.8997 0.8996
2171.000000 0.8995 0.8994 0.8992 0.8991 0.8990
2176.000000 0.8989 0.8988 0.8987 0.8987 0.8986
2181.000000 0.8985 0.8984 0.8983 0.8982 0.8981
2186.000000 0.8980 0.8979 0.8978 0.8977 0.8976
2191.000000 0.8976 0.8975 0.8973 0.8972 0.8971
2196.000000 0.8970 0.8969 0.8968 0.8967 0.8966
2201.000000 0.8965 0.8965 0.8964 0.8963 0.8962
2206.000000 0.8961 0.8960 0.8959 0.8958 0.8956
2211.000000 0.8955 0.8954 0.8953 0.8952 0.8951
2216.000000 0.8950 0.8949 0.8948 0.8947 0.8946
2221.000000 0.8945 0.8944 0.8942 0.8941 0.8940
2226.000000 0.8939 0.8938 0.8937 0.8936 0.8935
2231.000000 0.8934 0.8933 0.8932 0.8931 0.8929
2236.000000 0.8928 0.8927 0.8926 0.8925 0.8924
2241.000000 0.8923 0.8922 0.8921 0.8920 0.8919
2246.000000 0.8918 0.8917 0.8916 0.8914 0.8913
2251.000000 0.8912 0.8911 0.8910 0.8909 0.8907
2256.000000 0.8906 0.8905 0.8904 0.8903 0.8901
2261.000000 0.8900 0.8899 0.8898 0.8896 0.8895
2266.000000 0.8893 0.8892 0.8891 0.8890 0.8888
2271.000000 0.8887 0.8886 0.8884 0.8883 0.8882
2276.000000 0.8881 0.8879 0.8878 0.8876 0.8875
2281.000000 0.8875 0.8873 0.8872 0.8871 0.8870
2286.000000 0.8868 0.8867 0.8865 0.8864 0.8863
2291.000000 0.8862 0.8861 0.8859 0.8858 0.8856
2296.000000 0.8854 0.8853 0.8851 0.8850 0.8848
2301.000000 0.8847 0.8846 0.8844 0.8842 0.8840
2306.000000 0.8839 0.8837 0.8836 0.8835 0.8833
2311.000000 0.8832 0.8830 0.8828 0.8827 0.8825
2316.000000 0.8824 0.8822 0.8821 0.8820 0.8819
2321.000000 0.8818 0.8817 0.8816 0.8815 0.8814
2326.000000 0.8813 0.8812 0.8811 0.8811 0.8810
2331.000000 0.8810 0.8809 0.8808 0.8807 0.8806
2336.000000 0.8806 0.8805 0.8804 0.8803 0.8802
2341.000000 0.8801 0.8801 0.8801 0.8800 0.8799
2346.000000 0.8798 0.8798 0.8798 0.8798 0.8799
2351.000000 0.8799 0.8800 0.8800 0.8800 0.8801
2356.000000 0.8801 0.8802 0.8802 0.8803 0.8803
2361.000000 0.8804 0.8805 0.8806 0.8806 0.8806
2366.000000 0.8807 0.8807 0.8808 0.8808 0.8809
2371.000000 0.8809 0.8810 0.8810 0.8810 0.8811
2376.000000 0.8811 0.8812 0.8812 0.8813 0.8813
2381.000000 0.8813 0.8813 0.8813 0.8813 0.8813
2386.000000 0.8814 0.8814 0.8813 0.8812 0.8811
2391.000000 0.8803 0.8796 0.8789 0.8782 0.8775
2396.000000 0.8768 0.8761 0.8756 0.8751 0.8745
2401.000000 0.8740 0.8735 0.8733 0.8731 0.8731
2406.000000 0.8730 0.8729 0.8728 0.8727 0.8726
2411.000000 0.8725 0.8724 0.8724 0.8722 0.8721
2416.000000 0.8720 0.8719 0.8718 0.8717 0.8716
2421.000000 0.8715 0.8714 0.8713 0.8712 0.8710
2426.000000 0.8710 0.8710 0.8709 0.8708 0.8707
2431.000000 0.8707 0.8706 0.8706 0.8705 0.8704
2436.000000 0.8703 0.8702 0.8702 0.8702 0.8701
2441.000000 0.8700 0.8699 0.8699 0.8698 0.8697
2446.000000 0.8697 0.8696 0.8695 0.8694 0.8694
2451.000000 0.8693 0.8693 0.8692 0.8691 0.8689
2456.000000 0.8688 0.8688 0.8687 0.8686 0.8685
2461.000000 0.8684 0.8683 0.8682 0.8681 0.8680
2466.000000 0.8679 0.8678 0.8677 0.8676 0.8675
2471.000000 0.8674 0.8673 0.8672 0.8672 0.8671
2476.000000 0.8670 0.8668 0.8667 0.8666 0.8666
2481.000000 0.8664 0.8663 0.8661 0.8659 0.8658
2486.000000 0.8656 0.8654 0.8653 0.8651 0.8650
2491.000000 0.8648 0.8646 0.8645 0.8643 0.8641
2496.000000 0.8639 0.8637 0.8636 0.8634 0.8633
2501.000000 0.8631 0.8629 0.8628 0.8626 0.8625
2506.000000 0.8623 0.8621 0.8619 0.8617 0.8616
2511.000000 0.8614 0.8612 0.8611 0.8609 0.8608
2516.000000 0.8606 0.8604 0.8603 0.8601 0.8599
2521.000000 0.8597 0.8596 0.8594 0.8592 0.8591
2526.000000 0.8589 0.8586 0.8584 0.8582 0.8579
2531.000000 0.8577 0.8575 0.8572 0.8570 0.8568
2536.000000 0.8565 0.8563 0.8561 0.8558 0.8556
2541.000000 0.8554 0.8551 0.8549 0.8547 0.8544
2546.000000 0.8542 0.8538 0.8534 0.8530 0.8527
2551.000000 0.8524 0.8520 0.8516 0.8512 0.8508
2556.000000 0.8504 0.8501 0.8497 0.8493 0.8489
2561.000000 0.8485 0.8481 0.8477 0.8473 0.8468
2566.000000 0.8464 0.8459 0.8455 0.8450 0.8446
2571.000000 0.8442 0.8438 0.8433 0.8429 0.8424
2576.000000 0.8419 0.8415 0.8410 0.8406 0.8401
2581.000000 0.8397 0.8392 0.8388 0.8383 0.8379
2586.000000 0.8374 0.8370 0.8365 0.8361 0.8357
2591.000000 0.8352 0.8348 0.8343 0.8339 0.8334
2596.000000 0.8330 0.8325 0.8321 0.8316 0.8312
2601.000000 0.8308 0.8303 0.8299 0.8294 0.8290
2606.000000 0.8285 0.8281 0.8277 0.8273 0.8269
2611.000000 0.8265 0.8261 0.8257 0.8253 0.8250
2616.000000 0.8246 0.8242 0.8238 0.8234 0.8230
2621.000000 0.8226 0.8222 0.8219 0.8215 0.8211
2626.000000 0.8207 0.8203 0.8199 0.8195 0.8191
2631.000000 0.8188 0.8184 0.8181 0.8179 0.8176
2636.000000 0.8173 0.8170 0.8167 0.8164 0.8161
2641.000000 0.8158 0.8156 0.8153 0.8150 0.8147
2646.000000 0.8144 0.8141 0.8138 0.8136 0.8133
2651.000000 0.8131 0.8128 0.8125 0.8122 0.8119
2656.000000 0.8117 0.8114 0.8111 0.8108 0.8105
2661.000000 0.8102 0.8100 0.8097 0.8094 0.8091
2666.000000 0.8088 0.8086 0.8083 0.8080 0.8077
2671.000000 0.8074 0.8072 0.8069 0.8067 0.8065
2676.000000 0.8062 0.8060 0.8058 0.8056 0.8053
2681.000000 0.8051 0.8048 0.8046 0.8044 0.8041
2686.000000 0.8039 0.8037 0.8035 0.8032 0.8030
2691.000000 0.8028 0.8026 0.8023 0.8021 0.8019
2696.000000 0.8017 0.8014 0.8012 0.8010 0.8008
2701.000000 0.8006 0.8003 0.8001 0.7999 0.7997
2706.000000 0.7995 0.7994 0.7992 0.7991 0.7990
2711.000000 0.7989 0.7988 0.7987 0.7987 0.7986
2716.000000 0.7985 0.7985 0.7984 0.7983 0.7982
2721.000000 0.7980 0.7978 0.7975 0.7972 0.7968
2726.000000 0.7965 0.7961 0.7957 0.7953 0.7949
2731.000000 0.7944 0.7939 0.7933 0.7927 0.7922
2736.000000 0.7916 0.7910 0.7905 0.7901 0.7898
2741.000000 0.7894 0.7892 0.7891 0.7890 0.7889
2746.000000 0.7888 0.7887 0.7887 0.7887 0.7887
2751.000000 0.7888 0.7888 0.7888 0.7889 0.7890
2756.000000 0.7890 0.7891 0.7891 0.7891 0.7893
2761.000000 0.7896 0.7898 0.7901 0.7903 0.7905
2766.000000 0.7908 0.7910 0.7913 0.7915 0.7917
2771.000000 0.7918 0.7920 0.7921 0.7922 0.7923
2776.000000 0.7923 0.7924 0.7924 0.7923 0.7922
2781.000000 0.7921 0.7919 0.7917 0.7915 0.7913
2786.000000 0.7911 0.7909 0.7906 0.7904 0.7902
2791.000000 0.7899 0.7897 0.7894 0.7890 0.7886
2796.000000 0.7881 0.7872 0.7858 0.7845 0.7832
2801.000000 0.7818 0.7805 0.7790 0.7771 0.7752
2806.000000 0.7729 0.7680 0.7631 0.7583 0.7554
2811.000000 0.7525 0.7496 0.7470 0.7445 0.7419
2816.000000 0.7393 0.7367 0.7340 0.7314 0.7287
2821.000000 0.7260 0.7232 0.7203 0.7174 0.7145
2826.000000 0.7111 0.7076 0.7042 0.7008 0.6974
2831.000000 0.6940 0.6871 0.6789 0.6708 0.6579
2836.000000 0.6409 0.6239 0.6115 0.6091 0.6066
2841.000000 0.6042 0.6018 0.5994 0.5970 0.5946
2846.000000 0.5922 0.5899 0.5872 0.5844 0.5816
2851.000000 0.5777 0.5719 0.5661 0.5551 0.5058
2856.000000 0.4566 0.4073 0.3581 0.3090 0.2599
2861.000000 0.2202 0.1872 0.1542 0.1304 0.1272
2866.000000 0.1240 0.1208 0.1179 0.1150 0.1121
2871.000000 0.1099 0.1079 0.1059 0.1039 0.1019
2876.000000 0.1000 0.0981 0.0972 0.0963 0.0954
2881.000000 0.0946 0.0938 0.0930 0.0922 0.0915
2886.000000 0.0908 0.0901 0.0897 0.0892 0.0888
2891.000000 0.0884 0.0880 0.0876 0.0872 0.0868
2896.000000 0.0864 0.0860 0.0856 0.0853 0.0849
2901.000000 0.0846 0.0843 0.0839 0.0835 0.0829
2906.000000 0.0823 0.0817 0.0811 0.0805 0.0799
2911.000000 0.0792 0.0785 0.0778 0.0770 0.0760
2916.000000 0.0750 0.0740 0.0720 0.0698 0.0677
2921.000000 0.0653 0.0628 0.0603 0.0578 0.0550
2926.000000 0.0522 0.0494 0.0468 0.0443 0.0419
2931.000000 0.0396 0.0378 0.0361 0.0344 0.0332
2936.000000 0.0321 0.0310 0.0300 0.0291 0.0282
2941.000000 0.0273 0.0266 0.0260 0.0254 0.0247
2946.000000 0.0241 0.0235 0.0228 0.0223 0.0219
2951.000000 0.0214 0.0210 0.0206 0.0202 0.0198
2956.000000 0.0195 0.0191 0.0188 0.0186 0.0185
2961.000000 0.0184 0.0184 0.0183 0.0183 0.0183
2966.000000 0.0183 0.0183 0.0184 0.0184 0.0186
2971.000000 0.0188 0.0190 0.0193 0.0198 0.0202
2976.000000 0.0207 0.0263 0.0332 0.0402 0.0473
2981.000000 0.0551 0.0629 0.0707 0.0785 0.0863
2986.000000 0.0941 0.1019 0.1096 0.1174 0.1252
2991.000000 0.1330 0.1407 0.1485 0.1563 0.1640
2996.000000 0.1717 0.1794 0.1871 0.1949 0.2026
3001.000000 0.2103 0.2180 0.2257 0.2334 0.2411
3006.000000 0.2488 0.2565 0.2642 0.2719 0.2795
3011.000000 0.2871 0.2948 0.3024 0.3101 0.3177
3016.000000 0.3254 0.3330 0.3406 0.3483 0.3559
3021.000000 0.3635 0.3711 0.3787 0.3863 0.3939
3026.000000 0.4014 0.4090 0.4166 0.4242 0.4318
3031.000000 0.4393 0.4469 0.4544 0.4620 0.4695
3036.000000 0.4771 0.4846 0.4921 0.4996 0.5071
3041.000000 0.5146 0.5221 0.5296 0.5371 0.5446
3046.000000 0.5645 0.5853 0.6061 0.6227 0.6243
3051.000000 0.6259 0.6275 0.6291 0.6308 0.6324
3056.000000 0.6340 0.6356 0.6372 0.6388 0.6404
3061.000000 0.6420 0.6436 0.6452 0.6468 0.6484
3066.000000 0.6500 0.6516 0.6532 0.6549 0.6566
3071.000000 0.6583 0.6601 0.6619 0.6637 0.6655
3076.000000 0.6675 0.6695 0.6715 0.6737 0.6769
3081.000000 0.6800 0.6832 0.6865 0.6901 0.6936
3086.000000 0.6972 0.7003 0.7031 0.7059 0.7087
3091.000000 0.7111 0.7134 0.7156 0.7179 0.7194
3096.000000 0.7208 0.7222 0.7236 0.7247 0.7259
3101.000000 0.7271 0.7281 0.7289 0.7296 0.7303
3106.000000 0.7310 0.7318 0.7325 0.7332 0.7339
3111.000000 0.7344 0.7350 0.7356 0.7360 0.7364
3116.000000 0.7369 0.7373 0.7377 0.7381 0.7386
3121.000000 0.7390 0.7394 0.7398 0.7402 0.7407
3126.000000 0.7410 0.7414 0.7417 0.7421 0.7422
3131.000000 0.7424 0.7426 0.7428 0.7430 0.7432
3136.000000 0.7434 0.7436 0.7438 0.7439 0.7441
3141.000000 0.7443 0.7444 0.7445 0.7447 0.7448
3146.000000 0.7449 0.7450 0.7452 0.7453 0.7454
3151.000000 0.7455 0.7456 0.7457 0.7458 0.7459
3156.000000 0.7460 0.7461 0.7462 0.7463 0.7464
3161.000000 0.7465 0.7465 0.7465 0.7465 0.7464
3166.000000 0.7464 0.7464 0.7464 0.7463 0.7463
3171.000000 0.7462 0.7462 0.7461 0.7461 0.7460
3176.000000 0.7460 0.7459 0.7459 0.7458 0.7458
3181.000000 0.7457 0.7457 0.7456 0.7456 0.7456
3186.000000 0.7456 0.7456 0.7456 0.7456 0.7456
3191.000000 0.7456 0.7456 0.7456 0.7456 0.7456
3196.000000 0.7456 0.7455 0.7455 0.7455 0.7455
3201.000000 0.7455 0.7454 0.7454 0.7454 0.7454
3206.000000 0.7453 0.7453 0.7453 0.7453 0.7452
3211.000000 0.7452 0.7452 0.7452 0.7451 0.7451
3216.000000 0.7451 0.7451 0.7450 0.7450 0.7450
3221.000000 0.7450 0.7450 0.7450 0.7450 0.7450
3226.000000 0.7449 0.7449 0.7449 0.7449 0.7448
3231.000000 0.7448 0.7448 0.7448 0.7448 0.7447
3236.000000 0.7447 0.7447 0.7447 0.7447 0.7447
3241.000000 0.7447 0.7447 0.7446 0.7446 0.7445
3246.000000 0.7445 0.7444 0.7444 0.7443 0.7443
3251.000000 0.7442 0.7442 0.7442 0.7442 0.7442
3256.000000 0.7441 0.7441 0.7440 0.7440 0.7439
3261.000000 0.7439 0.7438 0.7438 0.7437 0.7437
3266.000000 0.7436 0.7436 0.7435 0.7435 0.7435
3271.000000 0.7434 0.7434 0.7432 0.7431 0.7430
3276.000000 0.7428 0.7427 0.7425 0.7424 0.7423
3281.000000 0.7421 0.7420 0.7418 0.7417 0.7416
3286.000000 0.7414 0.7413 0.7412 0.7410 0.7409
3291.000000 0.7407 0.7405 0.7403 0.7401 0.7400
3296.000000 0.7398 0.7396 0.7395 0.7393 0.7392
3301.000000 0.7390 0.7388 0.7387 0.7385 0.7384
3306.000000 0.7382 0.7380 0.7380 0.7380 0.7380
3311.000000 0.7380 0.7380 0.7380 0.7380 0.7380
3316.000000 0.7381 0.7381 0.7381 0.7381 0.7381
3321.000000 0.7382 0.7382 0.7382 0.7382 0.7383
3326.000000 0.7384 0.7384 0.7385 0.7386 0.7387
3331.000000 0.7388 0.7389 0.7390 0.7391 0.7392
3336.000000 0.7393 0.7394 0.7395 0.7396 0.7396
3341.000000 0.7397 0.7398 0.7400 0.7401 0.7403
3346.000000 0.7404 0.7406 0.7407 0.7409 0.7411
3351.000000 0.7412 0.7413 0.7414 0.7414 0.7415
3356.000000 0.7416 0.7416 0.7417 0.7417 0.7417
3361.000000 0.7418 0.7418 0.7419 0.7419 0.7420
3366.000000 0.7420 0.7420 0.7421 0.7421 0.7421
3371.000000 0.7421 0.7420 0.7420 0.7419 0.7418
3376.000000 0.7418 0.7417 0.7416 0.7415 0.7414
3381.000000 0.7413 0.7412 0.7411 0.7410 0.7409
3386.000000 0.7408 0.7407 0.7406 0.7405 0.7404
3391.000000 0.7403 0.7403 0.7401 0.7400 0.7398
3396.000000 0.7397 0.7395 0.7394 0.7392 0.7391
3401.000000 0.7389 0.7388 0.7386 0.7385 0.7383
3406.000000 0.7381 0.7380 0.7378 0.7377 0.7375
3411.000000 0.7374 0.7372 0.7370 0.7369 0.7367
3416.000000 0.7366 0.7364 0.7363 0.7362 0.7360
3421.000000 0.7359 0.7358 0.7357 0.7356 0.7355
3426.000000 0.7354 0.7353 0.7352 0.7351 0.7350
3431.000000 0.7349 0.7348 0.7347 0.7346 0.7345
3436.000000 0.7344 0.7343 0.7342 0.7341 0.7340
3441.000000 0.7339 0.7338 0.7337 0.7336 0.7335
3446.000000 0.7334 0.7334 0.7333 0.7332 0.7331
3451.000000 0.7330 0.7329 0.7329 0.7328 0.7327
3456.000000 0.7326 0.7325 0.7324 0.7324 0.7323
3461.000000 0.7323 0.7322 0.7321 0.7320 0.7320
3466.000000 0.7319 0.7318 0.7317 0.7316 0.7315
3471.000000 0.7315 0.7314 0.7313 0.7312 0.7312
3476.000000 0.7311 0.7311 0.7310 0.7309 0.7308
3481.000000 0.7307 0.7306 0.7306 0.7305 0.7304
3486.000000 0.7303 0.7302 0.7302 0.7301 0.7300
3491.000000 0.7300 0.7299 0.7298 0.7298 0.7297
3496.000000 0.7296 0.7295 0.7295 0.7294 0.7294
3501.000000 0.7294 0.7293 0.7293 0.7292 0.7291
3506.000000 0.7291 0.7290 0.7289 0.7289 0.7288
3511.000000 0.7288 0.7287 0.7286 0.7286 0.7285
3516.000000 0.7285 0.7284 0.7283 0.7283 0.7282
3521.000000 0.7282 0.7281 0.7281 0.7280 0.7280
3526.000000 0.7280 0.7279 0.7278 0.7278 0.7277
3531.000000 0.7277 0.7276 0.7275 0.7275 0.7274
3536.000000 0.7274 0.7273 0.7272 0.7272 0.7271
3541.000000 0.7271 0.7270 0.7270 0.7269 0.7269
3546.000000 0.7269 0.7268 0.7268 0.7268 0.7268
3551.000000 0.7268 0.7267 0.7267 0.7266 0.7266
3556.000000 0.7266 0.7265 0.7265 0.7265 0.7265
3561.000000 0.7265 0.7264 0.7264 0.7264 0.7264
3566.000000 0.7264 0.7263 0.7263 0.7263 0.7263
3571.000000 0.7263 0.7262 0.7262 0.7261 0.7261
3576.000000 0.7261 0.7260 0.7260 0.7260 0.7260
3581.000000 0.7260 0.7259 0.7259 0.7259 0.7259
3586.000000 0.7259 0.7258 0.7258 0.7258 0.7258
3591.000000 0.7258 0.7257 0.7257 0.7257 0.7257
3596.000000 0.7257 0.7257 0.7257 0.7257 0.7257
3601.000000 0.7257 0.7257 0.7256 0.7256 0.7256
3606.000000 0.7256 0.7256 0.7256 0.7256 0.7256
3611.000000 0.7256 0.7256 0.7255 0.7255 0.7255
3616.000000 0.7255 0.7255 0.7255 0.7255 0.7255
3621.000000 0.7255 0.7255 0.7255 0.7254 0.7254
3626.000000 0.7254 0.7254 0.7254 0.7254 0.7254
3631.000000 0.7254 0.7254 0.7254 0.7253 0.7253
3636.000000 0.7253 0.7253 0.7253 0.7253 0.7253
3641.000000 0.7253 0.7253 0.7253 0.7253 0.7253
3646.000000 0.7253 0.7253 0.7253 0.7253 0.7253
3651.000000 0.7253 0.7253 0.7253 0.7253 0.7253
3656.000000 0.7253 0.7253 0.7253 0.7253 0.7253
3661.000000 0.7253 0.7253 0.7253 0.7253 0.7253
3666.000000 0.7253 0.7253 0.7253 0.7253 0.7253
3671.000000 0.7253 0.7253 0.7253 0.7253 0.7253
3676.000000 0.7253 0.7253 0.7253 0.7253 0.7253
3681.000000 0.7253 0.7253 0.7253 0.7253 0.7253
3686.000000 0.7253 0.7253 0.7253 0.7253 0.7253
3691.000000 0.7253 0.7253 0.7252 0.7252 0.7251
3696.000000 0.7251 0.7250 0.7250 0.7249 0.7249
3701.000000 0.7248 0.7248 0.7248 0.7247 0.7247
3706.000000 0.7246 0.7246 0.7245 0.7245 0.7244
3711.000000 0.7243 0.7242 0.7242 0.7241 0.7240
3716.000000 0.7239 0.7237 0.7236 0.7234 0.7233
3721.000000 0.7231 0.7230 0.7229 0.7227 0.7226
3726.000000 0.7224 0.7223 0.7221 0.7220 0.7218
3731.000000 0.7217 0.7216 0.7214 0.7213 0.7211
3736.000000 0.7210 0.7208 0.7207 0.7206 0.7204
3741.000000 0.7203 0.7201 0.7200 0.7198 0.7197
3746.000000 0.7196 0.7194 0.7193 0.7191 0.7190
3751.000000 0.7188 0.7187 0.7186 0.7184 0.7183
3756.000000 0.7181 0.7180 0.7178 0.7177 0.7176
3761.000000 0.7174 0.7173 0.7171 0.7170 0.7169
3766.000000 0.7168 0.7166 0.7165 0.7164 0.7163
3771.000000 0.7162 0.7161 0.7160 0.7158 0.7157
3776.000000 0.7156 0.7155 0.7154 0.7152 0.7151
3781.000000 0.7150 0.7149 0.7147 0.7146 0.7145
3786.000000 0.7144 0.7143 0.7141 0.7140 0.7139
3791.000000 0.7138 0.7136 0.7135 0.7134 0.7133
3796.000000 0.7132 0.7131 0.7130 0.7129 0.7128
3801.000000 0.7127 0.7125 0.7124 0.7123 0.7122
3806.000000 0.7121 0.7119 0.7118 0.7117 0.7116
3811.000000 0.7114 0.7113 0.7112 0.7111 0.7110
3816.000000 0.7108 0.7107 0.7106 0.7105 0.7104
3821.000000 0.7102 0.7101 0.7100 0.7099 0.7097
3826.000000 0.7096 0.7095 0.7093 0.7092 0.7090
3831.000000 0.7089 0.7088 0.7086 0.7085 0.7084
3836.000000 0.7082 0.7081 0.7080 0.7078 0.7077
3841.000000 0.7075 0.7074 0.7073 0.7071 0.7070
3846.000000 0.7069 0.7067 0.7066 0.7065 0.7063
3851.000000 0.7062 0.7061 0.7059 0.7058 0.7057
3856.000000 0.7055 0.7054 0.7053 0.7051 0.7050
3861.000000 0.7049 0.7047 0.7046 0.7044 0.7043
3866.000000 0.7042 0.7040 0.7039 0.7038 0.7036
3871.000000 0.7035 0.7034 0.7032 0.7031 0.7030
3876.000000 0.7028 0.7027 0.7026 0.7024 0.7023
3881.000000 0.7022 0.7020 0.7019 0.7018 0.7017
3886.000000 0.7015 0.7014 0.7013 0.7011 0.7010
3891.000000 0.7009 0.7007 0.7006 0.7005 0.7003
3896.000000 0.7002 0.7001 0.6999 0.6998 0.6997
3901.000000 0.6995 0.6994 0.6992 0.6991 0.6989
3906.000000 0.6988 0.6986 0.6985 0.6983 0.6982
3911.000000 0.6981 0.6979 0.6978 0.6976 0.6975
3916.000000 0.6973 0.6972 0.6970 0.6969 0.6967
3921.000000 0.6966 0.6964 0.6963 0.6961 0.6960
3926.000000 0.6959 0.6957 0.6956 0.6954 0.6953
3931.000000 0.6951 0.6950 0.6948 0.6947 0.6945
3936.000000 0.6944 0.6943 0.6941 0.6940 0.6938
3941.000000 0.6937 0.6935 0.6934 0.6932 0.6931
3946.000000 0.6929 0.6928 0.6927 0.6925 0.6924
3951.000000 0.6922 0.6921 0.6919 0.6918 0.6917
3956.000000 0.6915 0.6914 0.6912 0.6911 0.6909
3961.000000 0.6908 0.6906 0.6905 0.6904 0.6902
3966.000000 0.6901 0.6899 0.6898 0.6897 0.6896
3971.000000 0.6895 0.6895 0.6894 0.6893 0.6892
3976.000000 0.6891 0.6891 0.6890 0.6889 0.6888
3981.000000 0.6887 0.6887 0.6886 0.6886 0.6885
3986.000000 0.6884 0.6884 0.6883 0.6882 0.6881
3991.000000 0.6881 0.6880 0.6879 0.6878 0.6877
3996.000000 0.6877 0.6876 0.6875 0.6874 0.6874
##END=
