##TITLE=PYRIDINE HYDROCHLORIDE
##JCAMP-DX=4.24
##DATA TYPE=INFRARED SPECTRUM
##CLASS=COBLENTZ
##ORIGIN=STANDARD OIL OF OHIO
##OWNER=COBLENTZ SOCIETY
Collection (C) 2018 copyright by the U.S. Secretary of Commerce
on behalf of the United States of America. All rights reserved.
##DATE=Not specified, most likely prior to 1970
##MOLFORM=C5 H6 Cl N
##SOURCE REFERENCE=COBLENTZ NO. 2058
##$NIST ID=B6002058
##$NIST SOURCE=COBLENTZ
##$NIST IMAGE=cob2058
##SPECTROMETER/DATA SYSTEM=PERKIN-ELMER
##STATE=SOLID (KBr PELLET)
##SAMPLING PROCEDURE=TRANSMISSION
##RESOLUTION=4
##DATA PROCESSING=DIGITIZED BY NIST FROM HARD COPY
##XUNITS=MICROMETERS
##YUNITS=TRANSMITTANCE
##XFACTOR=1.000000
##YFACTOR=1
##DELTAX=000.006785
##FIRSTX=2.047
##LASTX=15.4276
##FIRSTY=0.836
##MAXX=15.4276
##MINX=2.047
##MAXY=0.954
##MINY=0.003
##NPOINTS=1973
##XYDATA=(X++(Y..Y))
2.047000 0.8360 0.8380 0.8400 0.8410 0.8430
2.080942 0.8450 0.8460 0.8480 0.8500 0.8500
2.115000 0.8500 0.8500 0.8500 0.8500 0.8500
2.148942 0.8520 0.8520 0.8520 0.8530 0.8530
2.183000 0.8550 0.8570 0.8580 0.8600 0.8600
2.216942 0.8620 0.8620 0.8630 0.8650 0.8670
2.251000 0.8690 0.8690 0.8690 0.8690 0.8690
2.284942 0.8690 0.8690 0.8700 0.8720 0.8720
2.319000 0.8740 0.8750 0.8750 0.8770 0.8770
2.352942 0.8770 0.8770 0.8790 0.8790 0.8790
2.387000 0.8790 0.8790 0.8790 0.8750 0.8750
2.420942 0.8740 0.8720 0.8690 0.8630 0.8600
2.455000 0.8580 0.8570 0.8570 0.8570 0.8620
2.488942 0.8670 0.8720 0.8740 0.8770 0.8790
2.522000 0.8790 0.8790 0.8800 0.8800 0.8840
2.555942 0.8870 0.8890 0.8890 0.8920 0.8960
2.590000 0.8990 0.8990 0.9010 0.9010 0.9030
2.623942 0.9030 0.9040 0.9040 0.9080 0.9090
2.658000 0.9090 0.9090 0.9090 0.9090 0.9090
2.691942 0.9090 0.9090 0.9090 0.9090 0.9090
2.726000 0.9090 0.9080 0.9060 0.9040 0.9030
2.759942 0.9010 0.8990 0.8940 0.8890 0.8790
2.794000 0.8620 0.8460 0.8360 0.8210 0.8040
2.827942 0.7990 0.7820 0.7650 0.7580 0.7500
2.862000 0.7360 0.7270 0.7190 0.7140 0.7050
2.895942 0.7000 0.6980 0.6900 0.6880 0.6870
2.930000 0.6850 0.6870 0.6870 0.6930 0.6980
2.963942 0.7020 0.7090 0.7150 0.7260 0.7360
2.997000 0.7440 0.7610 0.7680 0.7680 0.7680
3.030942 0.7600 0.7550 0.7500 0.7340 0.7170
3.065000 0.6950 0.6660 0.6410 0.6030 0.5440
3.098942 0.5220 0.5100 0.5080 0.5100 0.5200
3.133000 0.5200 0.5100 0.4790 0.4470 0.4060
3.166942 0.3860 0.3720 0.3650 0.3550 0.3400
3.201000 0.3330 0.3230 0.3210 0.2800 0.2380
3.234942 0.2360 0.2210 0.1680 0.1510 0.1420
3.269000 0.1410 0.1410 0.1410 0.1460 0.1530
3.302942 0.1540 0.1580 0.1630 0.1660 0.1700
3.337000 0.1750 0.1920 0.2040 0.2150 0.2240
3.370942 0.2270 0.2270 0.2260 0.2220 0.2220
3.404000 0.2210 0.2210 0.2240 0.2270 0.2290
3.437942 0.2310 0.2290 0.2240 0.2170 0.2070
3.472000 0.2040 0.1950 0.1850 0.1780 0.1700
3.505942 0.1680 0.1640 0.1630 0.1590 0.1580
3.540000 0.1560 0.1530 0.1510 0.1490 0.1470
3.573942 0.1460 0.1440 0.1420 0.1410 0.1410
3.608000 0.1410 0.1410 0.1420 0.1420 0.1440
3.641942 0.1460 0.1470 0.1490 0.1510 0.1530
3.676000 0.1540 0.1560 0.1580 0.1630 0.1640
3.709942 0.1700 0.1700 0.1730 0.1750 0.1750
3.744000 0.1780 0.1830 0.1870 0.1900 0.1920
3.777942 0.1970 0.2000 0.2070 0.2150 0.2240
3.812000 0.2320 0.2390 0.2500 0.2600 0.2750
3.845942 0.2920 0.2970 0.3110 0.3210 0.3330
3.879000 0.3450 0.3530 0.3670 0.3840 0.4030
3.912942 0.4130 0.4260 0.4470 0.4550 0.4740
3.947000 0.4980 0.5230 0.5340 0.5450 0.5680
3.980942 0.5810 0.5880 0.6000 0.6120 0.6220
4.015000 0.6340 0.6420 0.6580 0.6730 0.6830
4.048942 0.6930 0.7020 0.7040 0.7170 0.7240
4.083000 0.7320 0.7380 0.7440 0.7530 0.7600
4.116942 0.7670 0.7750 0.7820 0.7920 0.8020
4.151000 0.8090 0.8180 0.8310 0.8380 0.8410
4.184942 0.8460 0.8500 0.8520 0.8530 0.8570
4.219000 0.8580 0.8600 0.8620 0.8630 0.8670
4.252942 0.8690 0.8700 0.8700 0.8740 0.8750
4.287000 0.8790 0.8800 0.8860 0.8870 0.8890
4.320942 0.8940 0.8990 0.9010 0.9030 0.9040
4.354000 0.9090 0.9110 0.9110 0.9140 0.9160
4.387942 0.9160 0.9180 0.9200 0.9200 0.9200
4.422000 0.9200 0.9200 0.9200 0.9140 0.9130
4.455942 0.9110 0.9090 0.9090 0.9110 0.9140
4.490000 0.9180 0.9200 0.9200 0.9210 0.9210
4.523942 0.9230 0.9230 0.9230 0.9210 0.9210
4.558000 0.9210 0.9210 0.9200 0.9180 0.9180
4.591942 0.9140 0.9140 0.9140 0.9130 0.9130
4.626000 0.9140 0.9140 0.9140 0.9140 0.9140
4.659942 0.9130 0.9130 0.9110 0.9090 0.9090
4.694000 0.9030 0.9010 0.9010 0.8990 0.8970
4.727942 0.8960 0.8940 0.8910 0.8840 0.8800
4.761000 0.8740 0.8690 0.8630 0.8580 0.8520
4.794942 0.8480 0.8430 0.8380 0.8330 0.8290
4.829000 0.8240 0.8210 0.8180 0.8120 0.8090
4.862942 0.8090 0.8020 0.8020 0.8020 0.8020
4.897000 0.8020 0.8020 0.8020 0.8020 0.8090
4.930942 0.8120 0.8190 0.8230 0.8290 0.8350
4.965000 0.8410 0.8450 0.8520 0.8550 0.8580
4.998942 0.8600 0.8620 0.8630 0.8630 0.8630
5.033000 0.8620 0.8600 0.8600 0.8570 0.8530
5.066942 0.8500 0.8430 0.8400 0.8360 0.8290
5.101000 0.8240 0.8210 0.8190 0.8140 0.8140
5.134942 0.8120 0.8120 0.8120 0.8140 0.8160
5.169000 0.8160 0.8180 0.8190 0.8210 0.8240
5.202942 0.8260 0.8290 0.8310 0.8350 0.8380
5.236000 0.8400 0.8430 0.8500 0.8520 0.8520
5.269942 0.8530 0.8570 0.8580 0.8600 0.8620
5.304000 0.8620 0.8630 0.8650 0.8670 0.8700
5.337942 0.8740 0.8790 0.8820 0.8870 0.8910
5.372000 0.8940 0.8990 0.9010 0.9010 0.9010
5.405942 0.9030 0.9010 0.9030 0.9040 0.9080
5.440000 0.9080 0.9090 0.9090 0.9090 0.9110
5.473942 0.9110 0.9110 0.9130 0.9140 0.9160
5.508000 0.9180 0.9200 0.9200 0.9200 0.9210
5.541942 0.9210 0.9210 0.9210 0.9210 0.9230
5.576000 0.9230 0.9250 0.9250 0.9260 0.9260
5.609942 0.9300 0.9310 0.9310 0.9330 0.9330
5.644000 0.9330 0.9330 0.9350 0.9350 0.9370
5.677942 0.9370 0.9370 0.9370 0.9370 0.9370
5.711000 0.9380 0.9380 0.9380 0.9370 0.9370
5.744942 0.9350 0.9330 0.9300 0.9300 0.9280
5.779000 0.9260 0.9260 0.9260 0.9260 0.9280
5.812942 0.9280 0.9280 0.9260 0.9260 0.9260
5.847000 0.9260 0.9260 0.9260 0.9280 0.9260
5.880942 0.9260 0.9230 0.9230 0.9230 0.9230
5.915000 0.9250 0.9280 0.9330 0.9380 0.9480
5.948942 0.9500 0.9500 0.9540 0.9540 0.9480
5.983000 0.9300 0.9130 0.8990 0.8860 0.8820
6.016942 0.8800 0.8750 0.8570 0.8460 0.8210
6.051000 0.7920 0.7680 0.7440 0.7020 0.6460
6.084942 0.5710 0.4140 0.2580 0.2580 0.2900
6.118000 0.3500 0.4130 0.4520 0.4710 0.5220
6.151942 0.5220 0.5060 0.5000 0.4910 0.4300
6.186000 0.3230 0.2290 0.1360 0.1320 0.1320
6.219942 0.1320 0.1360 0.1900 0.2430 0.3500
6.254000 0.4040 0.6340 0.6680 0.7000 0.7290
6.287942 0.7950 0.8090 0.8240 0.8400 0.8500
6.322000 0.8550 0.8630 0.8720 0.8750 0.8800
6.355942 0.8820 0.8860 0.8860 0.8870 0.8870
6.390000 0.8860 0.8800 0.8690 0.8520 0.8380
6.423942 0.8230 0.8090 0.8010 0.7700 0.7530
6.458000 0.6950 0.6370 0.6170 0.4980 0.3770
6.491942 0.2780 0.1800 0.1410 0.1070 0.0900
6.526000 0.0730 0.0710 0.0710 0.0930 0.1560
6.559942 0.3280 0.4040 0.4370 0.4600 0.5340
6.593000 0.5570 0.5710 0.6050 0.6590 0.6870
6.626942 0.7040 0.7150 0.7240 0.7390 0.7500
6.661000 0.7500 0.7500 0.7500 0.7410 0.7270
6.694942 0.5590 0.3890 0.2190 0.1710 0.1250
6.729000 0.1240 0.1240 0.1240 0.1250 0.3160
6.762942 0.3740 0.4470 0.6070 0.6470 0.6710
6.797000 0.6900 0.7070 0.7210 0.7380 0.7670
6.830942 0.7800 0.7890 0.7990 0.8020 0.8010
6.865000 0.8110 0.8160 0.8190 0.8230 0.8240
6.898942 0.8260 0.8290 0.8290 0.8290 0.8280
6.933000 0.8260 0.8240 0.8240 0.8240 0.8260
6.966942 0.8260 0.8280 0.8290 0.8350 0.8400
7.001000 0.8460 0.8530 0.8580 0.8620 0.8690
7.034942 0.8740 0.8770 0.8820 0.8840 0.8890
7.068000 0.8920 0.8960 0.8970 0.8990 0.9010
7.101942 0.9010 0.9010 0.8990 0.8990 0.8990
7.136000 0.8970 0.8940 0.8890 0.8820 0.8740
7.169942 0.8650 0.8600 0.8580 0.8500 0.8500
7.204000 0.8410 0.8380 0.8290 0.8210 0.8180
7.237942 0.8020 0.7850 0.7840 0.7770 0.7700
7.272000 0.7680 0.7680 0.7700 0.7780 0.7890
7.305942 0.7970 0.8040 0.8210 0.8360 0.8430
7.340000 0.8520 0.8580 0.8630 0.8690 0.8740
7.373942 0.8750 0.8790 0.8790 0.8770 0.8750
7.408000 0.8700 0.8620 0.8520 0.8310 0.8060
7.441942 0.7970 0.7600 0.7500 0.7380 0.7170
7.475000 0.7020 0.6970 0.6930 0.6810 0.6800
7.508942 0.6810 0.6900 0.7000 0.7120 0.7220
7.543000 0.7310 0.7430 0.7600 0.7630 0.7670
7.576942 0.7730 0.7780 0.7820 0.7850 0.7890
7.611000 0.7900 0.7940 0.7970 0.7990 0.7990
7.644942 0.8010 0.8040 0.8110 0.8120 0.8160
7.679000 0.8190 0.8230 0.8240 0.8260 0.8280
7.712942 0.8290 0.8310 0.8310 0.8330 0.8330
7.747000 0.8330 0.8350 0.8330 0.8310 0.8290
7.780942 0.8280 0.8260 0.8210 0.8190 0.8140
7.815000 0.8120 0.8110 0.8090 0.8060 0.8040
7.848942 0.8040 0.8040 0.8040 0.8040 0.8040
7.883000 0.8040 0.8020 0.8010 0.7990 0.7900
7.916942 0.7800 0.7700 0.7560 0.7510 0.7460
7.950000 0.7240 0.6640 0.6270 0.6080 0.5730
7.983942 0.5170 0.5030 0.4880 0.4860 0.4860
8.018000 0.4860 0.4890 0.4930 0.4980 0.5010
8.051942 0.5030 0.5030 0.5110 0.5200 0.5350
8.086000 0.5560 0.5860 0.6070 0.6470 0.6760
8.119942 0.7000 0.7170 0.7310 0.7430 0.7680
8.154000 0.7770 0.7820 0.7920 0.8010 0.8040
8.187942 0.8110 0.8140 0.8180 0.8190 0.8230
8.222000 0.8290 0.8330 0.8360 0.8380 0.8380
8.255942 0.8410 0.8410 0.8400 0.8380 0.8350
8.290000 0.8280 0.8110 0.7970 0.7850 0.7650
8.323942 0.7550 0.7430 0.7270 0.7100 0.6810
8.358000 0.6560 0.6470 0.6340 0.6290 0.6220
8.391942 0.6200 0.6190 0.6240 0.6320 0.6410
8.425000 0.6510 0.6610 0.6750 0.6970 0.7120
8.458942 0.7260 0.7390 0.7610 0.7680 0.7730
8.493000 0.7750 0.7780 0.7820 0.7820 0.7820
8.526942 0.7820 0.7800 0.7780 0.7730 0.7680
8.561000 0.7580 0.7530 0.7510 0.7500 0.7390
8.594942 0.7320 0.7260 0.7220 0.7240 0.7190
8.629000 0.7170 0.7170 0.7150 0.7150 0.7150
8.662942 0.7150 0.7150 0.7170 0.7210 0.7270
8.697000 0.7340 0.7480 0.7630 0.7730 0.7840
8.730942 0.7950 0.8040 0.8180 0.8290 0.8380
8.765000 0.8480 0.8520 0.8600 0.8690 0.8740
8.798942 0.8800 0.8890 0.8920 0.8940 0.8970
8.832000 0.9010 0.9040 0.9060 0.9080 0.9090
8.865942 0.9110 0.9110 0.9110 0.9130 0.9140
8.900000 0.9160 0.9160 0.9180 0.9180 0.9200
8.933942 0.9200 0.9210 0.9210 0.9210 0.9210
8.968000 0.9200 0.9200 0.9180 0.9180 0.9140
9.001942 0.9130 0.9090 0.9080 0.9040 0.9030
9.036000 0.9010 0.8990 0.8960 0.8910 0.8890
9.069942 0.8840 0.8800 0.8790 0.8750 0.8720
9.104000 0.8690 0.8670 0.8630 0.8620 0.8600
9.137942 0.8600 0.8580 0.8570 0.8570 0.8570
9.172000 0.8550 0.8550 0.8550 0.8530 0.8550
9.205942 0.8550 0.8530 0.8530 0.8530 0.8530
9.240000 0.8530 0.8530 0.8520 0.8520 0.8500
9.273942 0.8500 0.8480 0.8480 0.8460 0.8460
9.307000 0.8430 0.8410 0.8400 0.8360 0.8330
9.340942 0.8280 0.8190 0.8020 0.7970 0.7840
9.375000 0.7650 0.7510 0.7430 0.7320 0.7140
9.408942 0.6610 0.6360 0.5790 0.5490 0.5110
9.443000 0.4620 0.4130 0.4090 0.4090 0.4090
9.476942 0.4130 0.4210 0.4300 0.4670 0.4980
9.511000 0.5610 0.5950 0.5980 0.6020 0.6020
9.544942 0.6440 0.6660 0.6850 0.6900 0.6980
9.579000 0.7020 0.7020 0.7050 0.7090 0.7100
9.612942 0.7100 0.7090 0.7040 0.6970 0.6900
9.647000 0.6810 0.6730 0.6640 0.6590 0.6540
9.680942 0.6510 0.6510 0.6490 0.6470 0.6510
9.715000 0.6510 0.6590 0.6680 0.6750 0.6830
9.748942 0.6900 0.6950 0.7000 0.7050 0.7050
9.782000 0.7070 0.7050 0.7050 0.7020 0.7000
9.815942 0.6930 0.6830 0.6780 0.6750 0.6750
9.850000 0.6710 0.6700 0.6700 0.6680 0.6660
9.883942 0.6640 0.6630 0.6610 0.6590 0.6510
9.918000 0.6470 0.6340 0.6200 0.6120 0.5860
9.951942 0.5710 0.5560 0.5440 0.5280 0.5230
9.986000 0.5170 0.5110 0.5080 0.5030 0.5030
10.019942 0.5010 0.5010 0.5010 0.5080 0.5150
10.054000 0.5250 0.5340 0.5400 0.5540 0.5680
10.087942 0.5760 0.5860 0.6170 0.6370 0.6470
10.122000 0.6610 0.6750 0.6870 0.6920 0.7020
10.155942 0.7150 0.7310 0.7410 0.7500 0.7630
10.189000 0.7700 0.7840 0.7970 0.8020 0.8090
10.222942 0.8140 0.8190 0.8240 0.8280 0.8310
10.257000 0.8350 0.8380 0.8500 0.8520 0.8550
10.290942 0.8580 0.8600 0.8690 0.8700 0.8700
10.325000 0.8720 0.8740 0.8770 0.8790 0.8800
10.358942 0.8840 0.8840 0.8860 0.8870 0.8890
10.393000 0.8910 0.8920 0.8940 0.8970 0.8970
10.426942 0.8990 0.8990 0.9010 0.9010 0.9010
10.461000 0.9010 0.9010 0.9010 0.9010 0.9010
10.494942 0.9010 0.9010 0.9010 0.9010 0.9010
10.529000 0.9010 0.9010 0.9010 0.9010 0.9010
10.562942 0.8990 0.8990 0.8990 0.8970 0.8970
10.597000 0.8960 0.8960 0.8940 0.8920 0.8910
10.630942 0.8890 0.8890 0.8890 0.8860 0.8800
10.664000 0.8770 0.8740 0.8690 0.8630 0.8620
10.697942 0.8530 0.8500 0.8500 0.8430 0.8360
10.732000 0.8330 0.8260 0.8190 0.8110 0.8090
10.765942 0.8020 0.8010 0.7920 0.7890 0.7820
10.800000 0.7750 0.7700 0.7650 0.7600 0.7530
10.833942 0.7510 0.7500 0.7480 0.7410 0.7380
10.868000 0.7340 0.7310 0.7290 0.7260 0.7240
10.901942 0.7210 0.7140 0.7120 0.7100 0.7090
10.936000 0.7050 0.7050 0.7040 0.7040 0.7020
10.969942 0.7020 0.7020 0.7020 0.7000 0.7000
11.004000 0.7000 0.7000 0.7020 0.7020 0.7040
11.037942 0.7040 0.7070 0.7090 0.7140 0.7190
11.072000 0.7210 0.7220 0.7240 0.7270 0.7290
11.105942 0.7320 0.7360 0.7390 0.7410 0.7460
11.139000 0.7500 0.7530 0.7550 0.7580 0.7600
11.172942 0.7630 0.7650 0.7670 0.7680 0.7720
11.207000 0.7750 0.7770 0.7780 0.7780 0.7800
11.240942 0.7800 0.7800 0.7800 0.7800 0.7820
11.275000 0.7820 0.7820 0.7820 0.7820 0.7820
11.308942 0.7820 0.7820 0.7840 0.7840 0.7840
11.343000 0.7850 0.7870 0.7890 0.7900 0.7920
11.376942 0.7970 0.7990 0.8010 0.8020 0.8060
11.411000 0.8120 0.8140 0.8190 0.8210 0.8240
11.444942 0.8290 0.8310 0.8360 0.8380 0.8450
11.479000 0.8500 0.8520 0.8550 0.8570 0.8580
11.512942 0.8580 0.8620 0.8620 0.8630 0.8670
11.546000 0.8690 0.8700 0.8720 0.8740 0.8750
11.579942 0.8790 0.8800 0.8820 0.8860 0.8870
11.614000 0.8890 0.8910 0.8920 0.8920 0.8960
11.647942 0.8990 0.8990 0.9010 0.9010 0.9030
11.682000 0.9030 0.9030 0.9030 0.9030 0.9030
11.715942 0.9030 0.9040 0.9040 0.9040 0.9060
11.750000 0.9060 0.9060 0.9080 0.9080 0.9080
11.783942 0.9090 0.9090 0.9090 0.9090 0.9090
11.818000 0.9090 0.9090 0.9090 0.9090 0.9090
11.851942 0.9090 0.9110 0.9110 0.9110 0.9130
11.886000 0.9130 0.9140 0.9140 0.9160 0.9180
11.919942 0.9180 0.9180 0.9200 0.9200 0.9210
11.954000 0.9210 0.9210 0.9210 0.9210 0.9210
11.987942 0.9210 0.9210 0.9230 0.9230 0.9210
12.021000 0.9210 0.9210 0.9210 0.9210 0.9210
12.054942 0.9230 0.9230 0.9230 0.9230 0.9230
12.089000 0.9260 0.9250 0.9250 0.9250 0.9250
12.122942 0.9250 0.9250 0.9250 0.9250 0.9250
12.157000 0.9250 0.9260 0.9260 0.9260 0.9260
12.190942 0.9260 0.9260 0.9260 0.9260 0.9260
12.225000 0.9260 0.9260 0.9260 0.9260 0.9260
12.258942 0.9260 0.9260 0.9260 0.9260 0.9260
12.293000 0.9260 0.9260 0.9280 0.9280 0.9280
12.326942 0.9260 0.9260 0.9260 0.9260 0.9260
12.361000 0.9260 0.9250 0.9250 0.9230 0.9230
12.394942 0.9230 0.9200 0.9200 0.9180 0.9180
12.428000 0.9160 0.9140 0.9140 0.9140 0.9110
12.461942 0.9110 0.9090 0.9090 0.9090 0.9080
12.496000 0.9080 0.9060 0.9040 0.9030 0.9030
12.529942 0.9010 0.8990 0.8970 0.8970 0.8960
12.564000 0.8940 0.8940 0.8920 0.8920 0.8910
12.597942 0.8910 0.8910 0.8890 0.8870 0.8870
12.632000 0.8860 0.8860 0.8860 0.8840 0.8820
12.665942 0.8820 0.8820 0.8820 0.8800 0.8800
12.700000 0.8800 0.8770 0.8770 0.8750 0.8740
12.733942 0.8720 0.8720 0.8720 0.8700 0.8690
12.768000 0.8670 0.8670 0.8650 0.8630 0.8630
12.801942 0.8600 0.8600 0.8580 0.8570 0.8550
12.836000 0.8530 0.8520 0.8500 0.8430 0.8400
12.869942 0.8360 0.8330 0.8290 0.8260 0.8160
12.903000 0.8010 0.7940 0.7870 0.7780 0.7680
12.936942 0.7600 0.7550 0.7500 0.7380 0.7260
12.971000 0.7140 0.7040 0.6980 0.6950 0.6870
13.004942 0.6680 0.6340 0.5810 0.5010 0.4890
13.039000 0.4770 0.4540 0.4210 0.3650 0.3090
13.072942 0.2610 0.2550 0.2480 0.2220 0.1930
13.107000 0.1610 0.1360 0.1150 0.1000 0.0850
13.140942 0.0690 0.0560 0.0440 0.0340 0.0250
13.175000 0.0200 0.0180 0.0130 0.0100 0.0080
13.208942 0.0060 0.0060 0.0060 0.0050 0.0050
13.243000 0.0030 0.0030 0.0030 0.0030 0.0050
13.276942 0.0050 0.0060 0.0100 0.0110 0.0150
13.311000 0.0170 0.0270 0.0390 0.0570 0.0760
13.344942 0.1000 0.1240 0.1420 0.1510 0.1540
13.378000 0.2000 0.2360 0.2800 0.3110 0.3290
13.411942 0.3500 0.3750 0.3920 0.4210 0.4500
13.446000 0.4650 0.4890 0.5300 0.5440 0.5540
13.479942 0.5620 0.5710 0.5850 0.6000 0.6220
13.514000 0.6490 0.6590 0.6640 0.6710 0.6780
13.547942 0.6870 0.6980 0.7120 0.7210 0.7240
13.582000 0.7310 0.7390 0.7430 0.7500 0.7600
13.615942 0.7650 0.7720 0.7770 0.7820 0.7850
13.650000 0.7920 0.7970 0.8020 0.8020 0.8060
13.683942 0.8110 0.8140 0.8190 0.8210 0.8240
13.718000 0.8260 0.8290 0.8330 0.8360 0.8380
13.751942 0.8410 0.8430 0.8460 0.8480 0.8500
13.785000 0.8500 0.8520 0.8530 0.8550 0.8580
13.818942 0.8600 0.8600 0.8620 0.8630 0.8650
13.853000 0.8650 0.8690 0.8690 0.8700 0.8720
13.886942 0.8720 0.8720 0.8740 0.8740 0.8750
13.921000 0.8770 0.8790 0.8790 0.8790 0.8800
13.954942 0.8800 0.8820 0.8820 0.8820 0.8820
13.989000 0.8820 0.8820 0.8840 0.8840 0.8820
14.022942 0.8820 0.8820 0.8820 0.8820 0.8820
14.057000 0.8820 0.8820 0.8800 0.8800 0.8800
14.090942 0.8800 0.8800 0.8790 0.8790 0.8790
14.125000 0.8790 0.8790 0.8770 0.8770 0.8750
14.158942 0.8750 0.8740 0.8720 0.8720 0.8720
14.193000 0.8720 0.8700 0.8700 0.8690 0.8690
14.226942 0.8670 0.8670 0.8670 0.8650 0.8630
14.260000 0.8550 0.8520 0.8500 0.8500 0.8480
14.293942 0.8430 0.8400 0.8350 0.8310 0.8280
14.328000 0.8210 0.8060 0.8010 0.7990 0.7750
14.361942 0.7700 0.7610 0.7560 0.7500 0.7360
14.396000 0.7290 0.7070 0.6800 0.6590 0.6360
14.429942 0.6150 0.5960 0.5590 0.5400 0.5180
14.464000 0.4960 0.4600 0.4230 0.3870 0.3500
14.497942 0.3120 0.2750 0.2560 0.2380 0.1980
14.532000 0.1580 0.1460 0.1360 0.1190 0.1000
14.565942 0.0980 0.0910 0.0850 0.0780 0.0710
14.600000 0.0680 0.0640 0.0610 0.0590 0.0570
14.633942 0.0540 0.0540 0.0540 0.0520 0.0520
14.668000 0.0510 0.0490 0.0490 0.0490 0.0510
14.701942 0.0520 0.0590 0.0640 0.0680 0.0730
14.735000 0.0790 0.0930 0.1130 0.1470 0.1780
14.768942 0.2070 0.2320 0.2820 0.3060 0.3290
14.803000 0.3550 0.3800 0.4080 0.4350 0.4450
14.836942 0.4550 0.4720 0.4910 0.5350 0.5470
14.871000 0.5590 0.5730 0.5850 0.5960 0.6050
14.904942 0.6120 0.6190 0.6250 0.6300 0.6370
14.939000 0.6420 0.6490 0.6580 0.6700 0.6850
14.972942 0.6870 0.6950 0.7020 0.7090 0.7170
15.007000 0.7270 0.7320 0.7360 0.7410 0.7460
15.040942 0.7460 0.7480 0.7500 0.7600 0.7600
15.075000 0.7610 0.7630 0.7630 0.7650 0.7650
15.108942 0.7670 0.7680 0.7700 0.7700 0.7700
15.142000 0.7700 0.7720 0.7720 0.7720 0.7720
15.175942 0.7720 0.7730 0.7730 0.7730 0.7730
15.210000 0.7730 0.7730 0.7730 0.7730 0.7730
15.243942 0.7730 0.7730 0.7730 0.7730 0.7730
15.278000 0.7730 0.7750 0.7750 0.7770 0.7770
15.311942 0.7780 0.7800 0.7800 0.7800 0.7820
15.346000 0.7820 0.7840 0.7840 0.7840 0.7840
15.379942 0.7840 0.7850 0.7850 0.7850 0.7870
15.414000 0.7850 0.7850 0.7850
##END=
