##TITLE=4-ImidazoleCarboxylic acid, 5-(dimethyl-1-triazeno)-, butyl ester
##JCAMP-DX=4.24
##DATA TYPE=INFRARED SPECTRUM
##CLASS=COBLENTZ III
##ORIGIN=SOUTHERN RESEARCH INSTITUTE
##OWNER=Copyright (C) 1987 by the Coblentz Society
Collection (C) 2018 copyright by the U.S. Secretary of Commerce
on behalf of the United States of America. All rights reserved.
##DATE=1967/05/01
##NAMES=butyl 5-[(1E)-3,3-dimethyl-1-triazenyl]-1H-imidazole-4-carboxylate
Imidazole-4-carboxylic acid, 5-(3,3-dimethyl-1-triazeno)-, butyl ester
##MOLFORM=C10 H17 N5 O2
##SOURCE REFERENCE=COBLENTZ NO. 8211
##$NIST ID=B6008211
##$NIST SOURCE=COBLENTZ
##$NIST IMAGE=cob8211
##SPECTROMETER/DATA SYSTEM=PERKIN-ELMER 521 (GRATING)
##INSTRUMENT PARAMETERS=FILTERS AT 3130, 2475, 2000, 1150, 700, 410. GRATING CHANGES: 2000, 620 CM^-^1
##STATE=SOLID (1 mg / 650 mg KBr DISC)
##SAMPLING PROCEDURE=TRANSMISSION
##RESOLUTION=2
##DATA PROCESSING=DIGITIZED BY COBLENTZ SOCIETY (BATCH II) FROM HARD COPY (ADJUSTED \addcm-1\10-8-2\)
##XUNITS=1/CM
##YUNITS=TRANSMITTANCE
##XFACTOR=1.0
##YFACTOR=1
##DELTAX=1.004266
##FIRSTX=250
##LASTX=4016
##FIRSTY=0.4792
##MAXX=4016
##MINX=250
##MAXY=0.9064
##MINY=0.150364
##NPOINTS=3751
##XYDATA=(X++(Y..Y))
250.000000 0.4792 0.4849 0.4907 0.4966 0.5023
255.021328 0.5081 0.5139 0.5197 0.5255 0.5313
260.042655 0.5370 0.5429 0.5487 0.5544 0.5602
265.063983 0.5661 0.5719 0.5785 0.5893 0.5998
270.085311 0.6084 0.6160 0.6228 0.6286 0.6340
275.106638 0.6370 0.6399 0.6428 0.6459 0.6489
280.127966 0.6520 0.6555 0.6593 0.6632 0.6670
285.149294 0.6700 0.6731 0.6761 0.6792 0.6823
290.170621 0.6863 0.6903 0.6943 0.6983 0.7026
295.191949 0.7069 0.7112 0.7149 0.7179 0.7208
300.213276 0.7238 0.7269 0.7299 0.7331 0.7362
305.234604 0.7394 0.7425 0.7452 0.7473 0.7496
310.255932 0.7518 0.7540 0.7562 0.7583 0.7603
315.277259 0.7621 0.7639 0.7658 0.7676 0.7694
320.298587 0.7713 0.7731 0.7749 0.7766 0.7783
325.319915 0.7800 0.7818 0.7836 0.7853 0.7870
330.341242 0.7887 0.7904 0.7920 0.7932 0.7945
335.362570 0.7957 0.7970 0.7983 0.7995 0.8008
340.383898 0.8021 0.8033 0.8046 0.8060 0.8074
345.405225 0.8087 0.8101 0.8115 0.8128 0.8141
350.426553 0.8151 0.8161 0.8170 0.8179 0.8189
355.447881 0.8198 0.8208 0.8217 0.8225 0.8234
360.469208 0.8242 0.8257 0.8278 0.8299 0.8319
365.490536 0.8339 0.8358 0.8375 0.8391 0.8407
370.511864 0.8422 0.8438 0.8452 0.8466 0.8480
375.533191 0.8494 0.8509 0.8521 0.8534 0.8546
380.554519 0.8550 0.8546 0.8536 0.8521 0.8502
385.575846 0.8484 0.8466 0.8453 0.8445 0.8438
390.597174 0.8434 0.8435 0.8438 0.8441 0.8444
395.618502 0.8448 0.8454 0.8459 0.8465 0.8471
400.639829 0.8477 0.8484 0.8491 0.8498 0.8506
405.661157 0.8514 0.8522 0.8529 0.8532 0.8535
410.682485 0.8537 0.8535 0.8530 0.8524 0.8514
415.703812 0.8496 0.8475 0.8454 0.8423 0.8384
420.725140 0.8345 0.8306 0.8280 0.8261 0.8247
425.746468 0.8241 0.8239 0.8241 0.8253 0.8280
430.767795 0.8328 0.8371 0.8414 0.8464 0.8519
435.789123 0.8537 0.8539 0.8537 0.8533 0.8524
440.810451 0.8515 0.8499 0.8479 0.8463 0.8453
445.831778 0.8448 0.8447 0.8448 0.8448 0.8451
450.853106 0.8455 0.8459 0.8465 0.8472 0.8491
455.874433 0.8542 0.8588 0.8602 0.8607 0.8610
460.895761 0.8613 0.8617 0.8619 0.8622 0.8625
465.917089 0.8628 0.8631 0.8634 0.8636 0.8638
470.938416 0.8639 0.8641 0.8643 0.8644 0.8645
475.959744 0.8646 0.8647 0.8649 0.8682 0.8652
480.981072 0.8652 0.8650 0.8647 0.8644 0.8642
486.002399 0.8639 0.8636 0.8633 0.8631 0.8628
491.023727 0.8626 0.8626 0.8626 0.8625 0.8625
496.045055 0.8625 0.8625 0.8624 0.8628 0.8634
501.066382 0.8651 0.8669 0.8683 0.8696 0.8708
506.087710 0.8719 0.8730 0.8733 0.8733 0.8733
511.109038 0.8734 0.8734 0.8734 0.8734 0.8734
516.130365 0.8735 0.8735 0.8735 0.8735 0.8735
521.151693 0.8733 0.8732 0.8731 0.8730 0.8728
526.173021 0.8727 0.8726 0.8724 0.8723 0.8721
531.194348 0.8718 0.8714 0.8711 0.8707 0.8704
536.215676 0.8701 0.8697 0.8694 0.8686 0.8674
541.237003 0.8663 0.8651 0.8639 0.8626 0.8606
546.258331 0.8584 0.8562 0.8541 0.8520 0.8504
551.279659 0.8500 0.8498 0.8496 0.8495 0.8497
556.300986 0.8500 0.8503 0.8507 0.8518 0.8540
561.322314 0.8575 0.8625 0.8690 0.8745 0.8750
566.343642 0.8753 0.8752 0.8751 0.8750 0.8748
571.364969 0.8746 0.8744 0.8742 0.8737 0.8732
576.386297 0.8727 0.8722 0.8717 0.8712 0.8707
581.407625 0.8701 0.8695 0.8689 0.8682 0.8676
586.428952 0.8670 0.8663 0.8655 0.8647 0.8639
591.450280 0.8631 0.8623 0.8616 0.8606 0.8592
596.471608 0.8578 0.8564 0.8549 0.8530 0.8504
601.492935 0.8476 0.8447 0.8416 0.8384 0.8351
606.514263 0.8308 0.8231 0.8131 0.8032 0.7932
611.535591 0.7833 0.7734 0.7634 0.7535 0.7435
616.556918 0.7353 0.7323 0.7330 0.7334 0.7545
621.578246 0.7833 0.8018 0.8100 0.8129 0.8163
626.599573 0.8204 0.8265 0.8354 0.8462 0.8563
631.620901 0.8602 0.8608 0.8630 0.8621 0.8608
636.642229 0.8606 0.8602 0.8594 0.8582 0.8551
641.663556 0.8502 0.8444 0.8353 0.8259 0.8038
646.684884 0.7755 0.7471 0.7187 0.6904 0.6622
651.706212 0.6534 0.6542 0.6906 0.7433 0.7960
656.727539 0.8487 0.8750 0.8806 0.8818 0.8827
661.748867 0.8833 0.8835 0.8836 0.8838 0.8838
666.770195 0.8837 0.8836 0.8835 0.8834 0.8833
671.791522 0.8843 0.8840 0.8830 0.8828 0.8827
676.812850 0.8825 0.8823 0.8821 0.8819 0.8817
681.834178 0.8815 0.8813 0.8811 0.8809 0.8807
686.855505 0.8805 0.8802 0.8800 0.8798 0.8796
691.876833 0.8793 0.8791 0.8790 0.8789 0.8788
696.898160 0.8788 0.8787 0.8787 0.8787 0.8787
701.919488 0.8787 0.8787 0.8787 0.8785 0.8780
706.940816 0.8775 0.8768 0.8761 0.8754 0.8748
711.962143 0.8741 0.8734 0.8727 0.8720 0.8714
716.983471 0.8706 0.8697 0.8688 0.8679 0.8670
722.004799 0.8661 0.8652 0.8643 0.8631 0.8619
727.026126 0.8606 0.8593 0.8580 0.8567 0.8553
732.047454 0.8537 0.8515 0.8493 0.8471 0.8443
737.068782 0.8408 0.8375 0.8361 0.8360 0.8367
742.090109 0.8396 0.8445 0.8499 0.8545 0.8580
747.111437 0.8599 0.8609 0.8612 0.8612 0.8611
752.132765 0.8608 0.8604 0.8599 0.8587 0.8574
757.154092 0.8559 0.8544 0.8528 0.8512 0.8488
762.175420 0.8458 0.8428 0.8395 0.8350 0.8304
767.196748 0.8243 0.8179 0.8115 0.8052 0.7987
772.218075 0.7923 0.7860 0.7796 0.7786 0.7786
777.239403 0.7795 0.7745 0.7570 0.7390 0.7211
782.260730 0.7031 0.6852 0.6772 0.6771 0.6760
787.282058 0.7088 0.7378 0.7664 0.7950 0.8236
792.303386 0.8295 0.8298 0.8294 0.8301 0.8284
797.324713 0.8274 0.8265 0.8256 0.8248 0.8235
802.346041 0.8220 0.8203 0.8185 0.8167 0.8149
807.367369 0.8131 0.8113 0.8095 0.8077 0.8059
812.388696 0.8040 0.8021 0.8002 0.7983 0.7966
817.410024 0.7950 0.7933 0.7905 0.7874 0.7840
822.431352 0.7804 0.7767 0.7732 0.7701 0.7672
827.452679 0.7643 0.7614 0.7585 0.7556 0.7525
832.474007 0.7484 0.7438 0.7391 0.7345 0.7301
837.495335 0.7257 0.7213 0.7169 0.7126 0.7082
842.516662 0.7035 0.6985 0.6937 0.6896 0.6872
847.537990 0.6863 0.6860 0.6860 0.6858 0.6863
852.559318 0.6882 0.6929 0.7009 0.7102 0.7194
857.580645 0.7286 0.7378 0.7470 0.7563 0.7654
862.601973 0.7758 0.7814 0.7825 0.7828 0.7828
867.623300 0.7825 0.7821 0.7816 0.7805 0.7791
872.644628 0.7778 0.7763 0.7746 0.7735 0.7730
877.665956 0.7726 0.7722 0.7719 0.7716 0.7714
882.687283 0.7712 0.7711 0.7710 0.7708 0.7709
887.708611 0.7710 0.7712 0.7715 0.7717 0.7721
892.729939 0.7737 0.7763 0.7791 0.7819 0.7847
897.751266 0.7873 0.7899 0.7925 0.7953 0.7982
902.772594 0.8009 0.8024 0.8028 0.8030 0.8031
907.793922 0.8029 0.8028 0.8020 0.8013 0.8008
912.815249 0.8003 0.7997 0.7989 0.7978 0.7966
917.836577 0.7954 0.7936 0.7915 0.7895 0.7874
922.857905 0.7853 0.7832 0.7812 0.7780 0.7746
927.879232 0.7712 0.7674 0.7636 0.7598 0.7476
932.900560 0.7369 0.7266 0.7162 0.7059 0.6955
937.921887 0.6852 0.6749 0.6645 0.6542 0.6448
942.943215 0.6379 0.6308 0.6258 0.6229 0.6207
947.964543 0.6215 0.6236 0.6390 0.6546 0.6704
952.985870 0.6859 0.7008 0.7043 0.7013 0.7009
958.007198 0.6940 0.6861 0.6781 0.6701 0.6621
963.028526 0.6541 0.6461 0.6410 0.6397 0.6549
968.049853 0.6783 0.7027 0.7271 0.7515 0.7759
973.071181 0.8002 0.8151 0.8196 0.8213 0.8219
978.092509 0.8219 0.8217 0.8208 0.8205 0.8200
983.113836 0.8192 0.8184 0.8172 0.8158 0.8144
988.135164 0.8131 0.8118 0.8105 0.8091 0.8078
993.156492 0.8064 0.8051 0.8036 0.8021 0.8005
998.177819 0.7989 0.7974 0.7958 0.7940 0.7922
1003.199147 0.7904 0.7885 0.7860 0.7830 0.7799
1008.220475 0.7767 0.7733 0.7696 0.7660 0.7624
1013.241802 0.7589 0.7563 0.7550 0.7540 0.7531
1018.263130 0.7521 0.7510 0.7499 0.7486 0.7468
1023.284457 0.7445 0.7421 0.7393 0.7352 0.7301
1028.305785 0.7256 0.7221 0.7186 0.7151 0.7112
1033.327113 0.7075 0.7046 0.7016 0.6983 0.6932
1038.348440 0.6857 0.6798 0.6753 0.6709 0.6667
1043.369768 0.6625 0.6588 0.6559 0.6528 0.6493
1048.391096 0.6454 0.6399 0.6282 0.6155 0.6049
1053.412423 0.5965 0.5882 0.5797 0.5663 0.5497
1058.433751 0.5285 0.4972 0.4735 0.4499 0.4264
1063.455079 0.4028 0.3791 0.3555 0.3319 0.3187
1068.476406 0.3181 0.3196 0.3183 0.3353 0.3679
1073.497734 0.4017 0.4355 0.4693 0.5031 0.5369
1078.519062 0.5707 0.6045 0.6309 0.6427 0.6521
1083.540389 0.6706 0.6823 0.6915 0.6986 0.7006
1088.561717 0.7025 0.7017 0.7014 0.7002 0.6986
1093.583045 0.6960 0.6931 0.6892 0.6848 0.6801
1098.604372 0.6747 0.6692 0.6624 0.6501 0.6424
1103.625700 0.6413 0.6398 0.6416 0.6468 0.6596
1108.647027 0.6729 0.6818 0.6914 0.7034 0.7151
1113.668355 0.7247 0.7310 0.7344 0.7355 0.7355
1118.689683 0.7352 0.7346 0.7337 0.7304 0.7248
1123.711010 0.7194 0.7142 0.7084 0.7019 0.6955
1128.732338 0.6892 0.6829 0.6769 0.6714 0.6659
1133.753666 0.6597 0.6527 0.6476 0.6459 0.6456
1138.774993 0.6453 0.6450 0.6449 0.6448 0.6448
1143.796321 0.6447 0.6446 0.6442 0.6437 0.6427
1148.817649 0.6396 0.6332 0.6236 0.6061 0.5899
1153.838976 0.5737 0.5575 0.5413 0.5251 0.5089
1158.860304 0.4926 0.4765 0.4602 0.4441 0.4278
1163.881632 0.4117 0.3954 0.3793 0.3630 0.3478
1168.902959 0.3474 0.3473 0.3485 0.3553 0.3734
1173.924287 0.3915 0.4095 0.4276 0.4456 0.4636
1178.945615 0.4817 0.4997 0.5177 0.5358 0.5539
1183.966942 0.5719 0.5900 0.6080 0.6563 0.6791
1188.988270 0.6970 0.7090 0.7178 0.7262 0.7333
1194.009597 0.7396 0.7458 0.7517 0.7561 0.7602
1199.030925 0.7643 0.7667 0.7686 0.7705 0.7716
1204.052253 0.7720 0.7722 0.7724 0.7723 0.7720
1209.073580 0.7729 0.7718 0.7707 0.7701 0.7695
1214.094908 0.7688 0.7678 0.7665 0.7650 0.7628
1219.116236 0.7601 0.7571 0.7539 0.7505 0.7469
1224.137563 0.7432 0.7395 0.7358 0.7317 0.7275
1229.158891 0.7233 0.7188 0.7126 0.7044 0.6943
1234.180219 0.6826 0.6709 0.6592 0.6475 0.6379
1239.201546 0.6338 0.6336 0.6351 0.6434 0.6580
1244.222874 0.6726 0.6873 0.7005 0.7082 0.7096
1249.244202 0.7102 0.7102 0.7096 0.7086 0.7084
1254.265529 0.7073 0.7061 0.7050 0.7038 0.7026
1259.286857 0.7013 0.6996 0.6980 0.6962 0.6936
1264.308184 0.6907 0.6878 0.6849 0.6819 0.6788
1269.329512 0.6757 0.6721 0.6683 0.6642 0.6594
1274.350840 0.6534 0.6448 0.6362 0.6270 0.6178
1279.372167 0.6077 0.5958 0.5782 0.5507 0.5004
1284.393495 0.4747 0.4490 0.4234 0.4034 0.4033
1289.414823 0.4014 0.4146 0.4244 0.4340 0.4436
1294.436150 0.4533 0.4629 0.4726 0.4755 0.4771
1299.457478 0.4613 0.4475 0.4344 0.4212 0.4079
1304.478806 0.3947 0.3815 0.3684 0.3552 0.3419
1309.500133 0.3287 0.3155 0.3023 0.2892 0.2759
1314.521461 0.2711 0.2695 0.2811 0.3009 0.3222
1319.542789 0.3435 0.3648 0.3861 0.4074 0.4287
1324.564116 0.4623 0.4762 0.4763 0.4757 0.4715
1329.585444 0.4654 0.4592 0.4531 0.4470 0.4409
1334.606772 0.4348 0.4287 0.4267 0.4299 0.4383
1339.628099 0.4498 0.4613 0.4728 0.4843 0.4958
1344.649427 0.5073 0.5188 0.5303 0.5418 0.5533
1349.670754 0.5648 0.5763 0.5878 0.5993 0.6108
1354.692082 0.6222 0.6309 0.6335 0.6340 0.6342
1359.713410 0.6323 0.6278 0.6145 0.5995 0.5845
1364.734737 0.5695 0.5545 0.5396 0.5245 0.5095
1369.756065 0.4946 0.4795 0.4646 0.4496 0.4346
1374.777393 0.4196 0.4046 0.3896 0.3753 0.3663
1379.798720 0.3697 0.3862 0.4313 0.4764 0.5215
1384.820048 0.5666 0.6117 0.6549 0.6807 0.6809
1389.841376 0.6811 0.6809 0.6780 0.6658 0.6522
1394.862703 0.6386 0.6249 0.6114 0.5977 0.5841
1399.884031 0.5705 0.5568 0.5433 0.5297 0.5273
1404.905359 0.5354 0.5473 0.5594 0.5651 0.5654
1409.926686 0.5653 0.5546 0.5415 0.5283 0.5151
1414.948014 0.5019 0.4886 0.4754 0.4622 0.4489
1419.969342 0.4414 0.4410 0.4409 0.4635 0.4799
1424.990669 0.4959 0.5118 0.5276 0.5435 0.5594
1430.011997 0.5753 0.5845 0.5869 0.5844 0.5767
1435.033324 0.5687 0.5606 0.5525 0.5445 0.5365
1440.054652 0.5324 0.5313 0.5366 0.5433 0.5501
1445.075980 0.5568 0.5636 0.5703 0.5771 0.5797
1450.097307 0.5799 0.5799 0.5800 0.5799 0.5797
1455.118635 0.5796 0.5795 0.5795 0.5794 0.5793
1460.139963 0.5806 0.5823 0.5841 0.5859 0.5849
1465.161290 0.5861 0.5855 0.5844 0.5826 0.5802
1470.182618 0.5771 0.5730 0.5689 0.5648 0.5608
1475.203946 0.5568 0.5539 0.5529 0.5518 0.5520
1480.225273 0.5527 0.5583 0.5640 0.5697 0.5754
1485.246601 0.5811 0.5868 0.5921 0.5937 0.5925
1490.267929 0.5892 0.5787 0.5683 0.5578 0.5473
1495.289256 0.5368 0.5263 0.5158 0.5133 0.5132
1500.310584 0.5219 0.5273 0.5327 0.5381 0.5435
1505.331911 0.5477 0.5480 0.5484 0.5573 0.5751
1510.353239 0.5928 0.6107 0.6285 0.6462 0.6640
1515.374567 0.6818 0.6995 0.7174 0.7352 0.7528
1520.395894 0.7648 0.7728 0.7829 0.7897 0.7936
1525.417222 0.7971 0.7990 0.8009 0.8026 0.8039
1530.438550 0.8049 0.8075 0.8059 0.8056 0.8053
1535.459877 0.8043 0.8030 0.8009 0.7986 0.7946
1540.481205 0.7865 0.7813 0.7763 0.7714 0.7670
1545.502533 0.7625 0.7585 0.7555 0.7526 0.7496
1550.523860 0.7465 0.7433 0.7412 0.7405 0.7399
1555.545188 0.7399 0.7380 0.7404 0.7417 0.7433
1560.566516 0.7489 0.7588 0.7722 0.8030 0.8073
1565.587843 0.8098 0.8112 0.8115 0.8119 0.8128
1570.609171 0.8143 0.8158 0.8175 0.8205 0.8239
1575.630499 0.8279 0.8319 0.8357 0.8395 0.8430
1580.651826 0.8452 0.8472 0.8482 0.8484 0.8485
1585.673154 0.8485 0.8504 0.8478 0.8476 0.8475
1590.694481 0.8473 0.8470 0.8463 0.8456 0.8449
1595.715809 0.8442 0.8435 0.8428 0.8416 0.8403
1600.737137 0.8387 0.8370 0.8354 0.8337 0.8321
1605.758464 0.8306 0.8292 0.8278 0.8264 0.8250
1610.779792 0.8235 0.8220 0.8202 0.8184 0.8166
1615.801120 0.8148 0.8130 0.8112 0.8093 0.8073
1620.822447 0.8053 0.8033 0.8013 0.7993 0.7972
1625.843775 0.7948 0.7918 0.7889 0.7859 0.7830
1630.865103 0.7800 0.7770 0.7741 0.7707 0.7671
1635.886430 0.7634 0.7598 0.7561 0.7525 0.7488
1640.907758 0.7451 0.7410 0.7369 0.7328 0.7287
1645.929086 0.7246 0.7205 0.7165 0.7119 0.7073
1650.950413 0.7027 0.6981 0.6935 0.6888 0.6836
1655.971741 0.6784 0.6733 0.6681 0.6622 0.6562
1660.993069 0.6501 0.6429 0.6321 0.6215 0.6120
1666.014396 0.6033 0.5945 0.5848 0.5747 0.5645
1671.035724 0.5534 0.5399 0.5260 0.5101 0.4853
1676.057051 0.4330 0.4050 0.3770 0.3490 0.3209
1681.078379 0.2929 0.2649 0.2370 0.2089 0.1811
1686.099707 0.1579 0.1525 0.1511 0.1504 0.1506
1691.121034 0.1531 0.1572 0.1628 0.1720 0.1816
1696.142362 0.2035 0.2363 0.2690 0.3019 0.3347
1701.163690 0.3674 0.3982 0.4193 0.4351 0.4492
1706.185017 0.4649 0.4815 0.4986 0.5145 0.5278
1711.206345 0.5423 0.5614 0.5787 0.5937 0.6074
1716.227673 0.6194 0.6339 0.6580 0.6827 0.6983
1721.249000 0.7127 0.7236 0.7345 0.7451 0.7550
1726.270328 0.7649 0.7745 0.7830 0.7915 0.7993
1731.291656 0.8050 0.8096 0.8142 0.8188 0.8234
1736.312983 0.8274 0.8303 0.8331 0.8358 0.8386
1741.334311 0.8414 0.8439 0.8459 0.8479 0.8498
1746.355638 0.8519 0.8538 0.8557 0.8575 0.8592
1751.376966 0.8610 0.8626 0.8638 0.8650 0.8662
1756.398294 0.8673 0.8685 0.8697 0.8706 0.8713
1761.419621 0.8721 0.8728 0.8735 0.8742 0.8749
1766.440949 0.8757 0.8764 0.8771 0.8779 0.8793
1771.462277 0.8811 0.8831 0.8848 0.8858 0.8864
1776.483604 0.8870 0.8876 0.8881 0.8886 0.8891
1781.504932 0.8896 0.8901 0.8906 0.8911 0.8916
1786.526260 0.8919 0.8923 0.8927 0.8931 0.8935
1791.547587 0.8939 0.8943 0.8947 0.8950 0.8954
1796.568915 0.8958 0.8962 0.8966 0.8970 0.8974
1801.590243 0.8978 0.8982 0.8985 0.8989 0.8993
1806.611570 0.8997 0.9001 0.9005 0.9009 0.9013
1811.632898 0.9017 0.9020 0.9023 0.9027 0.9030
1816.654226 0.9033 0.9036 0.9040 0.9043 0.9046
1821.675553 0.9049 0.9053 0.9055 0.9055 0.9055
1826.696881 0.9055 0.9055 0.9056 0.9056 0.9056
1831.718208 0.9056 0.9057 0.9057 0.9057 0.9057
1836.739536 0.9057 0.9058 0.9058 0.9058 0.9058
1841.760864 0.9058 0.9059 0.9059 0.9059 0.9059
1846.782191 0.9060 0.9060 0.9060 0.9060 0.9060
1851.803519 0.9061 0.9061 0.9061 0.9061 0.9062
1856.824847 0.9062 0.9062 0.9062 0.9062 0.9061
1861.846174 0.9060 0.9058 0.9057 0.9056 0.9055
1866.867502 0.9054 0.9052 0.9053 0.9053 0.9053
1871.888830 0.9053 0.9053 0.9053 0.9053 0.9053
1876.910157 0.9053 0.9054 0.9054 0.9054 0.9054
1881.931485 0.9054 0.9054 0.9054 0.9054 0.9054
1886.952813 0.9054 0.9055 0.9055 0.9055 0.9055
1891.974140 0.9055 0.9055 0.9055 0.9055 0.9055
1896.995468 0.9055 0.9056 0.9056 0.9056 0.9056
1902.016796 0.9056 0.9056 0.9056 0.9056 0.9056
1907.038123 0.9057 0.9057 0.9057 0.9057 0.9057
1912.059451 0.9057 0.9057 0.9057 0.9057 0.9057
1917.080778 0.9058 0.9058 0.9058 0.9058 0.9058
1922.102106 0.9058 0.9058 0.9058 0.9058 0.9058
1927.123434 0.9059 0.9059 0.9059 0.9059 0.9059
1932.144761 0.9059 0.9059 0.9059 0.9059 0.9060
1937.166089 0.9060 0.9060 0.9060 0.9060 0.9060
1942.187417 0.9060 0.9060 0.9060 0.9060 0.9061
1947.208744 0.9061 0.9061 0.9061 0.9061 0.9061
1952.230072 0.9061 0.9061 0.9061 0.9061 0.9062
1957.251400 0.9062 0.9062 0.9062 0.9062 0.9062
1962.272727 0.9062 0.9062 0.9062 0.9063 0.9063
1967.294055 0.9063 0.9063 0.9063 0.9063 0.9063
1972.315383 0.9063 0.9064 0.9064 0.9064 0.9064
1977.336710 0.9064 0.9063 0.9062 0.9061 0.9060
1982.358038 0.9059 0.9058 0.9057 0.9056 0.9055
1987.379366 0.9054 0.9054 0.9053 0.9053 0.9053
1992.400693 0.9051 0.9048 0.9044 0.9039 0.9035
1997.422021 0.9031 0.9026 0.9020 0.9012 0.9005
2002.443348 0.8998 0.8992 0.8990 0.8988 0.8986
2007.464676 0.8984 0.8984 0.8985 0.8985 0.8984
2012.486004 0.8983 0.8982 0.8981 0.8978 0.8976
2017.507331 0.8974 0.8972 0.8970 0.8968 0.8966
2022.528659 0.8964 0.8963 0.8962 0.8961 0.8959
2027.549987 0.8958 0.8957 0.8956 0.8955 0.8954
2032.571314 0.8953 0.8952 0.8951 0.8950 0.8949
2037.592642 0.8948 0.8947 0.8946 0.8945 0.8944
2042.613970 0.8943 0.8942 0.8941 0.8940 0.8939
2047.635297 0.8938 0.8938 0.8937 0.8936 0.8935
2052.656625 0.8934 0.8933 0.8932 0.8931 0.8930
2057.677953 0.8930 0.8928 0.8926 0.8924 0.8923
2062.699280 0.8921 0.8919 0.8917 0.8916 0.8914
2067.720608 0.8912 0.8910 0.8908 0.8907 0.8905
2072.741935 0.8903 0.8899 0.8896 0.8892 0.8889
2077.763263 0.8886 0.8882 0.8879 0.8876 0.8872
2082.784591 0.8869 0.8865 0.8862 0.8859 0.8855
2087.805918 0.8851 0.8848 0.8844 0.8841 0.8837
2092.827246 0.8833 0.8830 0.8826 0.8822 0.8818
2097.848574 0.8814 0.8810 0.8806 0.8802 0.8798
2102.869901 0.8794 0.8790 0.8786 0.8782 0.8778
2107.891229 0.8775 0.8771 0.8768 0.8767 0.8768
2112.912557 0.8769 0.8770 0.8771 0.8771 0.8772
2117.933884 0.8773 0.8774 0.8775 0.8775 0.8776
2122.955212 0.8777 0.8778 0.8778 0.8778 0.8779
2127.976540 0.8779 0.8780 0.8780 0.8781 0.8781
2132.997867 0.8781 0.8782 0.8782 0.8783 0.8783
2138.019195 0.8784 0.8784 0.8784 0.8785 0.8784
2143.040523 0.8783 0.8782 0.8782 0.8781 0.8780
2148.061850 0.8779 0.8778 0.8777 0.8777 0.8776
2153.083178 0.8775 0.8774 0.8773 0.8772 0.8772
2158.104505 0.8771 0.8770 0.8769 0.8768 0.8767
2163.125833 0.8767 0.8766 0.8766 0.8765 0.8765
2168.147161 0.8765 0.8764 0.8764 0.8764 0.8764
2173.168488 0.8763 0.8763 0.8763 0.8762 0.8762
2178.189816 0.8762 0.8761 0.8761 0.8761 0.8760
2183.211144 0.8760 0.8760 0.8759 0.8759 0.8758
2188.232471 0.8757 0.8756 0.8755 0.8754 0.8753
2193.253799 0.8752 0.8751 0.8750 0.8749 0.8748
2198.275127 0.8747 0.8746 0.8745 0.8743 0.8742
2203.296454 0.8741 0.8740 0.8739 0.8738 0.8737
2208.317782 0.8736 0.8735 0.8734 0.8733 0.8732
2213.339110 0.8731 0.8730 0.8728 0.8725 0.8722
2218.360437 0.8719 0.8717 0.8714 0.8711 0.8709
2223.381765 0.8706 0.8703 0.8701 0.8698 0.8695
2228.403093 0.8692 0.8690 0.8687 0.8684 0.8682
2233.424420 0.8679 0.8676 0.8674 0.8671 0.8668
2238.445748 0.8665 0.8663 0.8660 0.8657 0.8655
2243.467075 0.8652 0.8649 0.8647 0.8644 0.8642
2248.488403 0.8639 0.8637 0.8634 0.8631 0.8629
2253.509731 0.8626 0.8624 0.8621 0.8619 0.8616
2258.531058 0.8614 0.8611 0.8609 0.8606 0.8603
2263.552386 0.8601 0.8598 0.8595 0.8593 0.8590
2268.573714 0.8587 0.8585 0.8582 0.8579 0.8577
2273.595041 0.8574 0.8571 0.8569 0.8566 0.8563
2278.616369 0.8560 0.8557 0.8554 0.8550 0.8547
2283.637697 0.8544 0.8541 0.8538 0.8536 0.8533
2288.659024 0.8530 0.8527 0.8524 0.8521 0.8518
2293.680352 0.8515 0.8512 0.8510 0.8508 0.8505
2298.701680 0.8503 0.8501 0.8498 0.8496 0.8494
2303.723007 0.8491 0.8488 0.8486 0.8484 0.8482
2308.744335 0.8479 0.8477 0.8475 0.8472 0.8470
2313.765662 0.8468 0.8465 0.8463 0.8461 0.8458
2318.786990 0.8456 0.8454 0.8452 0.8449 0.8447
2323.808318 0.8445 0.8442 0.8440 0.8438 0.8436
2328.829645 0.8433 0.8431 0.8429 0.8426 0.8424
2333.850973 0.8422 0.8420 0.8417 0.8415 0.8413
2338.872301 0.8411 0.8408 0.8406 0.8402 0.8398
2343.893628 0.8395 0.8391 0.8388 0.8384 0.8381
2348.914956 0.8377 0.8374 0.8370 0.8366 0.8363
2353.936284 0.8359 0.8356 0.8352 0.8349 0.8345
2358.957611 0.8342 0.8338 0.8334 0.8331 0.8327
2363.978939 0.8324 0.8320 0.8317 0.8313 0.8310
2369.000267 0.8308 0.8305 0.8302 0.8299 0.8296
2374.021594 0.8293 0.8290 0.8287 0.8284 0.8280
2379.042922 0.8277 0.8274 0.8271 0.8268 0.8265
2384.064250 0.8262 0.8259 0.8256 0.8253 0.8250
2389.085577 0.8247 0.8244 0.8241 0.8238 0.8236
2394.106905 0.8233 0.8231 0.8229 0.8227 0.8225
2399.128232 0.8224 0.8222 0.8220 0.8218 0.8216
2404.149560 0.8214 0.8212 0.8211 0.8209 0.8207
2409.170888 0.8205 0.8203 0.8200 0.8197 0.8193
2414.192215 0.8188 0.8183 0.8179 0.8175 0.8171
2419.213543 0.8167 0.8163 0.8160 0.8157 0.8154
2424.234871 0.8150 0.8147 0.8144 0.8141 0.8137
2429.256198 0.8134 0.8131 0.8128 0.8124 0.8121
2434.277526 0.8118 0.8114 0.8111 0.8108 0.8106
2439.298854 0.8104 0.8101 0.8099 0.8096 0.8094
2444.320181 0.8092 0.8089 0.8087 0.8084 0.8082
2449.341509 0.8079 0.8077 0.8074 0.8072 0.8069
2454.362837 0.8065 0.8062 0.8059 0.8055 0.8052
2459.384164 0.8045 0.8034 0.8024 0.8014 0.8003
2464.405492 0.7993 0.7984 0.7974 0.7964 0.7955
2469.426820 0.7945 0.7936 0.7926 0.7916 0.7906
2474.448147 0.7897 0.7887 0.7878 0.7868 0.7859
2479.469475 0.7848 0.7839 0.7829 0.7820 0.7810
2484.490802 0.7802 0.7795 0.7787 0.7780 0.7772
2489.512130 0.7765 0.7758 0.7750 0.7743 0.7734
2494.533458 0.7726 0.7717 0.7709 0.7700 0.7691
2499.554785 0.7683 0.7674 0.7666 0.7657 0.7649
2504.576113 0.7640 0.7631 0.7622 0.7614 0.7607
2509.597441 0.7599 0.7592 0.7584 0.7576 0.7569
2514.618768 0.7561 0.7558 0.7555 0.7552 0.7549
2519.640096 0.7546 0.7543 0.7540 0.7537 0.7534
2524.661424 0.7531 0.7528 0.7525 0.7524 0.7524
2529.682751 0.7523 0.7523 0.7522 0.7522 0.7521
2534.704079 0.7520 0.7520 0.7519 0.7519 0.7518
2539.725407 0.7518 0.7517 0.7517 0.7517 0.7518
2544.746734 0.7518 0.7519 0.7520 0.7521 0.7522
2549.768062 0.7522 0.7523 0.7524 0.7525 0.7526
2554.789389 0.7526 0.7527 0.7529 0.7530 0.7531
2559.810717 0.7532 0.7533 0.7535 0.7536 0.7536
2564.832045 0.7535 0.7533 0.7532 0.7530 0.7528
2569.853372 0.7527 0.7525 0.7524 0.7522 0.7520
2574.874700 0.7517 0.7513 0.7509 0.7504 0.7500
2579.896028 0.7496 0.7491 0.7487 0.7483 0.7477
2584.917355 0.7469 0.7463 0.7456 0.7449 0.7443
2589.938683 0.7438 0.7434 0.7429 0.7425 0.7421
2594.960011 0.7416 0.7412 0.7410 0.7408 0.7405
2599.981338 0.7403 0.7401 0.7399 0.7396 0.7394
2605.002666 0.7392 0.7391 0.7390 0.7389 0.7388
2610.023994 0.7386 0.7385 0.7384 0.7383 0.7382
2615.045321 0.7381 0.7380 0.7379 0.7377 0.7375
2620.066649 0.7371 0.7364 0.7356 0.7348 0.7341
2625.087977 0.7333 0.7325 0.7318 0.7310 0.7303
2630.109304 0.7296 0.7288 0.7281 0.7274 0.7266
2635.130632 0.7259 0.7252 0.7247 0.7242 0.7237
2640.151959 0.7232 0.7227 0.7221 0.7216 0.7211
2645.173287 0.7206 0.7201 0.7196 0.7191 0.7187
2650.194615 0.7184 0.7180 0.7177 0.7173 0.7169
2655.215942 0.7166 0.7162 0.7158 0.7155 0.7151
2660.237270 0.7148 0.7147 0.7147 0.7146 0.7145
2665.258598 0.7144 0.7144 0.7143 0.7142 0.7142
2670.279925 0.7141 0.7141 0.7141 0.7141 0.7141
2675.301253 0.7140 0.7140 0.7140 0.7140 0.7139
2680.322581 0.7138 0.7138 0.7137 0.7136 0.7136
2685.343908 0.7135 0.7135 0.7134 0.7133 0.7133
2690.365236 0.7132 0.7131 0.7129 0.7126 0.7123
2695.386564 0.7120 0.7116 0.7113 0.7109 0.7106
2700.407891 0.7103 0.7094 0.7084 0.7074 0.7064
2705.429219 0.7053 0.7043 0.7030 0.7014 0.6998
2710.450547 0.6981 0.6964 0.6947 0.6930 0.6911
2715.471874 0.6891 0.6871 0.6852 0.6831 0.6811
2720.493202 0.6791 0.6771 0.6758 0.6749 0.6741
2725.514529 0.6735 0.6729 0.6720 0.6710 0.6700
2730.535857 0.6690 0.6680 0.6670 0.6659 0.6649
2735.557185 0.6638 0.6627 0.6615 0.6604 0.6593
2740.578512 0.6582 0.6570 0.6559 0.6548 0.6537
2745.599840 0.6526 0.6516 0.6506 0.6495 0.6485
2750.621168 0.6475 0.6464 0.6454 0.6444 0.6433
2755.642495 0.6423 0.6414 0.6405 0.6396 0.6387
2760.663823 0.6378 0.6369 0.6364 0.6359 0.6355
2765.685151 0.6351 0.6347 0.6343 0.6339 0.6335
2770.706478 0.6333 0.6334 0.6316 0.6334 0.6341
2775.727806 0.6346 0.6352 0.6357 0.6368 0.6378
2780.749134 0.6389 0.6401 0.6414 0.6427 0.6440
2785.770461 0.6453 0.6463 0.6473 0.6483 0.6493
2790.791789 0.6503 0.6513 0.6523 0.6533 0.6550
2795.813117 0.6567 0.6584 0.6601 0.6618 0.6634
2800.834444 0.6650 0.6666 0.6683 0.6697 0.6712
2805.855772 0.6727 0.6735 0.6736 0.6737 0.6739
2810.877099 0.6738 0.6735 0.6728 0.6730 0.6728
2815.898427 0.6725 0.6722 0.6717 0.6707 0.6698
2820.919755 0.6687 0.6673 0.6658 0.6644 0.6630
2825.941082 0.6614 0.6597 0.6580 0.6563 0.6546
2830.962410 0.6528 0.6508 0.6487 0.6473 0.6463
2835.983738 0.6452 0.6442 0.6432 0.6422 0.6413
2841.005065 0.6405 0.6396 0.6388 0.6380 0.6371
2846.026393 0.6358 0.6345 0.6324 0.6296 0.6263
2851.047721 0.6224 0.6174 0.6112 0.6063 0.6014
2856.069048 0.5957 0.5899 0.5833 0.5761 0.5678
2861.090376 0.5623 0.5612 0.5614 0.5616 0.5620
2866.111704 0.5632 0.5654 0.5687 0.5714 0.5734
2871.133031 0.5749 0.5755 0.5758 0.5755 0.5749
2876.154359 0.5736 0.5722 0.5704 0.5684 0.5652
2881.175686 0.5624 0.5601 0.5581 0.5567 0.5562
2886.197014 0.5563 0.5564 0.5566 0.5571 0.5577
2891.218342 0.5583 0.5589 0.5596 0.5602 0.5607
2896.239669 0.5612 0.5613 0.5615 0.5617 0.5618
2901.260997 0.5619 0.5617 0.5615 0.5614 0.5612
2906.282325 0.5607 0.5602 0.5597 0.5593 0.5587
2911.303652 0.5578 0.5570 0.5562 0.5553 0.5543
2916.324980 0.5528 0.5509 0.5490 0.5471 0.5452
2921.346308 0.5433 0.5416 0.5405 0.5399 0.5392
2926.367635 0.5386 0.5384 0.5383 0.5382 0.5381
2931.388963 0.5379 0.5377 0.5375 0.5371 0.5362
2936.410291 0.5354 0.5339 0.5314 0.5286 0.5255
2941.431618 0.5221 0.5172 0.5103 0.5039 0.4981
2946.452946 0.4927 0.4878 0.4833 0.4796 0.4768
2951.474274 0.4753 0.4750 0.4742 0.4748 0.4770
2956.495601 0.4796 0.4861 0.4960 0.5071 0.5183
2961.516929 0.5295 0.5407 0.5519 0.5630 0.5742
2966.538256 0.5854 0.5966 0.6086 0.6184 0.6242
2971.559584 0.6281 0.6307 0.6320 0.6323 0.6325
2976.580912 0.6325 0.6324 0.6324 0.6322 0.6320
2981.602239 0.6317 0.6314 0.6309 0.6303 0.6297
2986.623567 0.6292 0.6286 0.6279 0.6273 0.6266
2991.644895 0.6260 0.6253 0.6246 0.6239 0.6233
2996.666222 0.6227 0.6221 0.6216 0.6211 0.6209
3001.687550 0.6208 0.6208 0.6207 0.6207 0.6207
3006.708878 0.6209 0.6213 0.6217 0.6220 0.6224
3011.730205 0.6228 0.6234 0.6240 0.6246 0.6252
3016.751533 0.6258 0.6264 0.6271 0.6279 0.6286
3021.772861 0.6294 0.6302 0.6309 0.6317 0.6324
3026.794188 0.6332 0.6340 0.6350 0.6362 0.6374
3031.815516 0.6386 0.6398 0.6410 0.6422 0.6434
3036.836844 0.6448 0.6463 0.6479 0.6494 0.6509
3041.858171 0.6523 0.6537 0.6551 0.6565 0.6579
3046.879499 0.6593 0.6608 0.6625 0.6642 0.6659
3051.900826 0.6673 0.6679 0.6686 0.6692 0.6695
3056.922154 0.6699 0.6702 0.6706 0.6710 0.6715
3061.943482 0.6721 0.6730 0.6738 0.6747 0.6758
3066.964809 0.6772 0.6786 0.6800 0.6814 0.6828
3071.986137 0.6842 0.6855 0.6868 0.6880 0.6894
3077.007465 0.6907 0.6920 0.6933 0.6946 0.6958
3082.028792 0.6968 0.6979 0.6989 0.7000 0.7010
3087.050120 0.7021 0.7031 0.7041 0.7051 0.7058
3092.071448 0.7066 0.7074 0.7080 0.7082 0.7082
3097.092775 0.7083 0.7084 0.7084 0.7085 0.7086
3102.114103 0.7088 0.7091 0.7095 0.7099 0.7102
3107.135431 0.7106 0.7110 0.7113 0.7117 0.7121
3112.156758 0.7127 0.7136 0.7147 0.7158 0.7169
3117.178086 0.7180 0.7190 0.7201 0.7212 0.7223
3122.199413 0.7234 0.7246 0.7262 0.7278 0.7294
3127.220741 0.7306 0.7315 0.7324 0.7331 0.7331
3132.242069 0.7329 0.7327 0.7319 0.7306 0.7293
3137.263396 0.7278 0.7259 0.7240 0.7221 0.7203
3142.284724 0.7189 0.7175 0.7160 0.7148 0.7145
3147.306052 0.7143 0.7142 0.7149 0.7158 0.7168
3152.327379 0.7183 0.7200 0.7219 0.7248 0.7277
3157.348707 0.7307 0.7337 0.7367 0.7394 0.7418
3162.370035 0.7441 0.7465 0.7488 0.7513 0.7537
3167.391362 0.7561 0.7586 0.7608 0.7626 0.7644
3172.412690 0.7662 0.7680 0.7698 0.7715 0.7731
3177.434018 0.7747 0.7762 0.7777 0.7792 0.7807
3182.455345 0.7821 0.7834 0.7845 0.7857 0.7868
3187.476673 0.7880 0.7892 0.7903 0.7913 0.7922
3192.498001 0.7931 0.7939 0.7948 0.7957 0.7965
3197.519328 0.7974 0.7983 0.7992 0.8000 0.8009
3202.540656 0.8018 0.8027 0.8036 0.8045 0.8054
3207.561983 0.8063 0.8072 0.8081 0.8089 0.8097
3212.583311 0.8105 0.8113 0.8121 0.8129 0.8137
3217.604639 0.8145 0.8153 0.8161 0.8168 0.8174
3222.625966 0.8180 0.8187 0.8193 0.8199 0.8206
3227.647294 0.8212 0.8218 0.8225 0.8231 0.8237
3232.668622 0.8244 0.8250 0.8255 0.8260 0.8265
3237.689949 0.8271 0.8276 0.8281 0.8287 0.8292
3242.711277 0.8297 0.8302 0.8306 0.8309 0.8312
3247.732605 0.8315 0.8319 0.8322 0.8325 0.8328
3252.753932 0.8331 0.8335 0.8338 0.8341 0.8344
3257.775260 0.8347 0.8348 0.8350 0.8351 0.8352
3262.796588 0.8354 0.8355 0.8356 0.8357 0.8359
3267.817915 0.8360 0.8361 0.8363 0.8364 0.8365
3272.839243 0.8366 0.8368 0.8369 0.8370 0.8372
3277.860571 0.8373 0.8374 0.8375 0.8376 0.8377
3282.881898 0.8378 0.8378 0.8379 0.8380 0.8380
3287.903226 0.8381 0.8382 0.8383 0.8383 0.8384
3292.924553 0.8385 0.8385 0.8386 0.8386 0.8386
3297.945881 0.8386 0.8385 0.8385 0.8384 0.8384
3302.967209 0.8384 0.8383 0.8383 0.8382 0.8382
3307.988536 0.8382 0.8381 0.8381 0.8380 0.8380
3313.009864 0.8380 0.8379 0.8378 0.8377 0.8375
3318.031192 0.8374 0.8372 0.8371 0.8369 0.8368
3323.052519 0.8366 0.8365 0.8363 0.8362 0.8360
3328.073847 0.8359 0.8357 0.8356 0.8354 0.8353
3333.095175 0.8352 0.8350 0.8349 0.8347 0.8346
3338.116502 0.8344 0.8343 0.8341 0.8340 0.8338
3343.137830 0.8337 0.8335 0.8333 0.8329 0.8325
3348.159158 0.8321 0.8317 0.8313 0.8309 0.8305
3353.180485 0.8301 0.8297 0.8293 0.8289 0.8285
3358.201813 0.8281 0.8277 0.8273 0.8269 0.8265
3363.223140 0.8261 0.8257 0.8253 0.8249 0.8245
3368.244468 0.8240 0.8235 0.8230 0.8225 0.8219
3373.265796 0.8214 0.8209 0.8204 0.8199 0.8194
3378.287123 0.8188 0.8183 0.8178 0.8176 0.8176
3383.308451 0.8176 0.8176 0.8176 0.8176 0.8176
3388.329779 0.8176 0.8176 0.8176 0.8176 0.8176
3393.351106 0.8176 0.8176 0.8176 0.8176 0.8176
3398.372434 0.8176 0.8177 0.8178 0.8179 0.8180
3403.393762 0.8181 0.8182 0.8183 0.8184 0.8185
3408.415089 0.8186 0.8187 0.8188 0.8189 0.8190
3413.436417 0.8191 0.8192 0.8193 0.8194 0.8195
3418.457745 0.8196 0.8197 0.8198 0.8199 0.8200
3423.479072 0.8201 0.8202 0.8203 0.8204 0.8205
3428.500400 0.8206 0.8207 0.8208 0.8209 0.8211
3433.521728 0.8212 0.8213 0.8214 0.8215 0.8216
3438.543055 0.8217 0.8218 0.8219 0.8220 0.8221
3443.564383 0.8222 0.8223 0.8224 0.8225 0.8226
3448.585710 0.8228 0.8229 0.8230 0.8231 0.8232
3453.607038 0.8233 0.8234 0.8235 0.8236 0.8237
3458.628366 0.8238 0.8240 0.8241 0.8242 0.8243
3463.649693 0.8244 0.8245 0.8246 0.8247 0.8248
3468.671021 0.8249 0.8250 0.8252 0.8254 0.8256
3473.692349 0.8257 0.8259 0.8261 0.8263 0.8265
3478.713676 0.8267 0.8269 0.8271 0.8272 0.8274
3483.735004 0.8276 0.8278 0.8280 0.8282 0.8284
3488.756332 0.8286 0.8287 0.8288 0.8290 0.8292
3493.777659 0.8294 0.8296 0.8300 0.8303 0.8306
3498.798987 0.8309 0.8312 0.8316 0.8319 0.8322
3503.820315 0.8325 0.8328 0.8332 0.8335 0.8338
3508.841642 0.8341 0.8344 0.8348 0.8351 0.8354
3513.862970 0.8357 0.8360 0.8364 0.8367 0.8370
3518.884298 0.8373 0.8376 0.8380 0.8383 0.8386
3523.905625 0.8389 0.8392 0.8396 0.8399 0.8402
3528.926953 0.8405 0.8408 0.8411 0.8415 0.8418
3533.948280 0.8421 0.8424 0.8427 0.8430 0.8434
3538.969608 0.8437 0.8440 0.8443 0.8446 0.8449
3543.990936 0.8453 0.8455 0.8458 0.8461 0.8464
3549.012263 0.8467 0.8470 0.8473 0.8476 0.8479
3554.033591 0.8482 0.8485 0.8488 0.8491 0.8494
3559.054919 0.8497 0.8500 0.8503 0.8505 0.8508
3564.076246 0.8511 0.8515 0.8519 0.8524 0.8528
3569.097574 0.8532 0.8536 0.8540 0.8544 0.8548
3574.118902 0.8552 0.8556 0.8560 0.8563 0.8568
3579.140229 0.8572 0.8576 0.8579 0.8581 0.8583
3584.161557 0.8585 0.8587 0.8590 0.8592 0.8594
3589.182885 0.8596 0.8598 0.8600 0.8602 0.8604
3594.204212 0.8606 0.8608 0.8610 0.8612 0.8614
3599.225540 0.8615 0.8615 0.8616 0.8616 0.8617
3604.246868 0.8617 0.8618 0.8618 0.8619 0.8619
3609.268195 0.8620 0.8620 0.8621 0.8621 0.8621
3614.289523 0.8621 0.8621 0.8620 0.8620 0.8620
3619.310850 0.8619 0.8619 0.8619 0.8618 0.8618
3624.332178 0.8618 0.8618 0.8617 0.8617 0.8617
3629.353506 0.8616 0.8616 0.8616 0.8615 0.8615
3634.374833 0.8615 0.8614 0.8614 0.8614 0.8614
3639.396161 0.8613 0.8613 0.8613 0.8612 0.8612
3644.417489 0.8612 0.8612 0.8612 0.8612 0.8612
3649.438816 0.8612 0.8612 0.8612 0.8612 0.8612
3654.460144 0.8612 0.8612 0.8612 0.8612 0.8612
3659.481472 0.8612 0.8612 0.8612 0.8612 0.8612
3664.502799 0.8612 0.8612 0.8612 0.8612 0.8612
3669.524127 0.8612 0.8612 0.8612 0.8612 0.8612
3674.545455 0.8612 0.8612 0.8612 0.8612 0.8612
3679.566782 0.8612 0.8612 0.8612 0.8612 0.8612
3684.588110 0.8612 0.8612 0.8611 0.8611 0.8611
3689.609437 0.8611 0.8611 0.8611 0.8611 0.8611
3694.630765 0.8611 0.8612 0.8612 0.8613 0.8613
3699.652093 0.8614 0.8615 0.8615 0.8616 0.8616
3704.673420 0.8617 0.8617 0.8618 0.8618 0.8619
3709.694748 0.8619 0.8620 0.8621 0.8621 0.8622
3714.716076 0.8622 0.8623 0.8623 0.8624 0.8624
3719.737403 0.8625 0.8626 0.8626 0.8627 0.8627
3724.758731 0.8628 0.8628 0.8629 0.8629 0.8630
3729.780059 0.8630 0.8631 0.8632 0.8632 0.8633
3734.801386 0.8633 0.8634 0.8634 0.8635 0.8635
3739.822714 0.8636 0.8637 0.8637 0.8638 0.8638
3744.844042 0.8638 0.8638 0.8639 0.8639 0.8639
3749.865369 0.8639 0.8639 0.8640 0.8640 0.8640
3754.886697 0.8640 0.8641 0.8641 0.8641 0.8641
3759.908025 0.8641 0.8642 0.8642 0.8642 0.8642
3764.929352 0.8642 0.8643 0.8643 0.8643 0.8643
3769.950680 0.8644 0.8644 0.8644 0.8644 0.8644
3774.972007 0.8645 0.8645 0.8645 0.8645 0.8646
3779.993335 0.8646 0.8646 0.8646 0.8646 0.8646
3785.014663 0.8645 0.8645 0.8644 0.8644 0.8643
3790.035990 0.8643 0.8642 0.8642 0.8641 0.8640
3795.057318 0.8640 0.8639 0.8639 0.8638 0.8638
3800.078646 0.8637 0.8637 0.8636 0.8636 0.8635
3805.099973 0.8635 0.8634 0.8633 0.8633 0.8632
3810.121301 0.8632 0.8631 0.8631 0.8630 0.8630
3815.142629 0.8629 0.8629 0.8628 0.8627 0.8627
3820.163956 0.8626 0.8626 0.8625 0.8625 0.8624
3825.185284 0.8623 0.8622 0.8621 0.8620 0.8619
3830.206612 0.8618 0.8617 0.8616 0.8615 0.8614
3835.227939 0.8612 0.8611 0.8610 0.8609 0.8608
3840.249267 0.8607 0.8606 0.8605 0.8604 0.8603
3845.270595 0.8602 0.8601 0.8600 0.8599 0.8597
3850.291922 0.8596 0.8595 0.8594 0.8593 0.8592
3855.313250 0.8591 0.8590 0.8589 0.8588 0.8586
3860.334577 0.8585 0.8584 0.8582 0.8581 0.8580
3865.355905 0.8579 0.8577 0.8576 0.8575 0.8573
3870.377233 0.8572 0.8571 0.8569 0.8568 0.8567
3875.398560 0.8565 0.8564 0.8563 0.8561 0.8560
3880.419888 0.8559 0.8558 0.8556 0.8555 0.8554
3885.441216 0.8552 0.8551 0.8550 0.8548 0.8547
3890.462543 0.8546 0.8544 0.8543 0.8541 0.8540
3895.483871 0.8538 0.8537 0.8535 0.8533 0.8532
3900.505199 0.8530 0.8529 0.8527 0.8526 0.8524
3905.526526 0.8522 0.8521 0.8519 0.8518 0.8516
3910.547854 0.8514 0.8513 0.8511 0.8510 0.8508
3915.569182 0.8507 0.8505 0.8504 0.8502 0.8501
3920.590509 0.8500 0.8498 0.8497 0.8496 0.8494
3925.611837 0.8493 0.8492 0.8490 0.8489 0.8488
3930.633164 0.8486 0.8485 0.8484 0.8482 0.8481
3935.654492 0.8480 0.8478 0.8477 0.8476 0.8475
3940.675820 0.8474 0.8474 0.8473 0.8473 0.8472
3945.697147 0.8471 0.8471 0.8470 0.8470 0.8469
3950.718475 0.8469 0.8468 0.8467 0.8467 0.8466
3955.739803 0.8466 0.8465 0.8464 0.8464 0.8464
3960.761130 0.8464 0.8463 0.8465 0.8487 0.8463
3965.782458 0.8463 0.8463 0.8462 0.8462 0.8462
3970.803786 0.8462 0.8462 0.8462 0.8461 0.8461
3975.825113 0.8461 0.8461 0.8461 0.8461 0.8460
3980.846441 0.8460 0.8459 0.8458 0.8457 0.8456
3985.867769 0.8455 0.8455 0.8454 0.8453 0.8452
3990.889096 0.8451 0.8451 0.8450 0.8449 0.8448
3995.910424 0.8449 0.8449 0.8449 0.8450 0.8450
4000.931752 0.8451 0.8451 0.8451 0.8452 0.8452
4005.953079 0.8453 0.8453 0.8454 0.8454 0.8454
4010.974407 0.8455 0.8455 0.8456 0.8456 0.8456
4015.995734 0.8457
##END=
