##TITLE=Benzo[b]-1,5-naphthyridine, 7-chloro-10-[[4-(diethylamino)-1-methylbutyl]amino]-2-methoxy-, dihydrochloride
##JCAMP-DX=4.24
##DATA TYPE=INFRARED SPECTRUM
##CLASS=COBLENTZ III
##ORIGIN=SMITH, KLINE & FRENCH LABS.
##OWNER=Copyright (C) 1987 by the Coblentz Society
Collection (C) 2018 copyright by the U.S. Secretary of Commerce
on behalf of the United States of America. All rights reserved.
##DATE=1966/01/10
##MOLFORM=C22 H31 Cl3 N4 O
##SOURCE REFERENCE=COBLENTZ NO. 7315
##$NIST ID=B6007315
##$NIST SOURCE=COBLENTZ
##$NIST IMAGE=cob7315
##SPECTROMETER/DATA SYSTEM=PERKIN-ELMER 21 (GRATING)
##INSTRUMENT PARAMETERS=NaCl PRISM
##STATE=SOLID (OIL MULL)
$$SPECTRAL CONTAMINATION DUE TO OIL AROUND 2900, 1450 CM^-^1
##SAMPLING PROCEDURE=TRANSMISSION
##RESOLUTION=2
##DATA PROCESSING=DIGITIZED BY COBLENTZ SOCIETY (BATCH II) FROM HARD COPY
##XUNITS=1/CM
##YUNITS=TRANSMITTANCE
##XFACTOR=1.0
##YFACTOR=1
##FIRSTX=671
##LASTX=4000
##FIRSTY=0.6264
##MAXX=4000
##MINX=671
##MAXY=0.8242
##MINY=0.0561
##NPOINTS=3330
##XYDATA=(X++(Y..Y))
671.000000 0.6264 0.6223 0.6188 0.6102 0.6032
676.000000 0.6012 0.6088 0.6158 0.6290 0.6494
681.000000 0.6698 0.6818 0.6848 0.6880 0.6916
686.000000 0.6956 0.6988 0.7009 0.7029 0.7048
691.000000 0.7064 0.7080 0.7091 0.7097 0.7105
696.000000 0.7130 0.7159 0.7188 0.7204 0.7202
701.000000 0.7178 0.7159 0.7128 0.7092 0.7038
706.000000 0.6991 0.6897 0.6890 0.6800 0.6645
711.000000 0.6497 0.6348 0.6186 0.6029 0.5896
716.000000 0.5833 0.5866 0.5877 0.5864 0.5819
721.000000 0.5761 0.5699 0.5609 0.5527 0.5461
726.000000 0.5398 0.5344 0.5300 0.5335 0.5396
731.000000 0.5455 0.5501 0.5514 0.5523 0.5625
736.000000 0.5812 0.6047 0.6301 0.6526 0.6643
741.000000 0.6721 0.6774 0.6826 0.6876 0.6925
746.000000 0.6964 0.7002 0.7045 0.7113 0.7216
751.000000 0.7300 0.7383 0.7456 0.7520 0.7578
756.000000 0.7621 0.7664 0.7706 0.7747 0.7779
761.000000 0.7792 0.7805 0.7818 0.7822 0.7817
766.000000 0.7812 0.7816 0.7797 0.7786 0.7776
771.000000 0.7745 0.7704 0.7663 0.7587 0.7488
776.000000 0.7272 0.6787 0.6303 0.5820 0.5345
781.000000 0.5298 0.5922 0.6619 0.7313 0.7677
786.000000 0.7759 0.7796 0.7811 0.7791 0.7793
791.000000 0.7776 0.7755 0.7729 0.7701 0.7665
796.000000 0.7630 0.7586 0.7532 0.7472 0.7361
801.000000 0.7263 0.7180 0.7150 0.7186 0.7233
806.000000 0.7243 0.7209 0.7158 0.7066 0.6954
811.000000 0.6788 0.6547 0.6286 0.6048 0.5830
816.000000 0.5663 0.5578 0.5556 0.5924 0.6386
821.000000 0.6846 0.7151 0.7308 0.7382 0.7429
826.000000 0.7382 0.7342 0.7272 0.7189 0.7123
831.000000 0.7080 0.7032 0.6939 0.6731 0.6523
836.000000 0.6315 0.6115 0.5981 0.5923 0.5911
841.000000 0.5969 0.6082 0.6296 0.6388 0.6411
846.000000 0.6426 0.6446 0.6521 0.6678 0.6865
851.000000 0.7024 0.7108 0.7139 0.7116 0.7099
856.000000 0.7113 0.7131 0.7175 0.7224 0.7283
861.000000 0.7346 0.7411 0.7472 0.7518 0.7532
866.000000 0.7514 0.7489 0.7461 0.7423 0.7375
871.000000 0.7277 0.7152 0.6883 0.6704 0.6566
876.000000 0.6453 0.6399 0.6359 0.6356 0.6354
881.000000 0.6339 0.6276 0.6174 0.6089 0.6014
886.000000 0.5972 0.5943 0.5961 0.5985 0.6028
891.000000 0.6077 0.6151 0.6257 0.6446 0.6648
896.000000 0.6881 0.7026 0.7128 0.7179 0.7213
901.000000 0.7247 0.7269 0.7288 0.7303 0.7303
906.000000 0.7269 0.7224 0.7178 0.7133 0.7078
911.000000 0.7011 0.6945 0.6877 0.6812 0.6725
916.000000 0.6637 0.6550 0.6461 0.6306 0.6143
921.000000 0.5964 0.5728 0.5510 0.5317 0.5111
926.000000 0.4741 0.4729 0.4747 0.5051 0.5340
931.000000 0.5629 0.5918 0.6206 0.6466 0.6547
936.000000 0.6597 0.6640 0.6684 0.6733 0.6785
941.000000 0.6837 0.6884 0.6930 0.6965 0.6987
946.000000 0.7008 0.6988 0.6986 0.6978 0.6971
951.000000 0.6963 0.6951 0.6937 0.6923 0.6907
956.000000 0.6886 0.6866 0.6846 0.6827 0.6808
961.000000 0.6790 0.6772 0.6755 0.6737 0.6726
966.000000 0.6714 0.6704 0.6692 0.6680 0.6670
971.000000 0.6659 0.6649 0.6632 0.6612 0.6592
976.000000 0.6573 0.6538 0.6500 0.6461 0.6400
981.000000 0.6331 0.6259 0.6141 0.6014 0.5912
986.000000 0.5890 0.6095 0.6286 0.6476 0.6665
991.000000 0.6854 0.7012 0.7082 0.7105 0.7108
996.000000 0.7095 0.7095 0.7078 0.7054 0.6993
1001.000000 0.6917 0.6840 0.6773 0.6728 0.6719
1006.000000 0.6712 0.6698 0.6683 0.6666 0.6644
1011.000000 0.6623 0.6602 0.6584 0.6555 0.6264
1016.000000 0.6121 0.5939 0.5735 0.5559 0.5403
1021.000000 0.5344 0.5362 0.5319 0.5497 0.5577
1026.000000 0.5716 0.5955 0.6278 0.6306 0.6335
1031.000000 0.6365 0.6393 0.6422 0.6451 0.6480
1036.000000 0.6508 0.6537 0.6566 0.6594 0.6622
1041.000000 0.6651 0.6679 0.6707 0.6736 0.6764
1046.000000 0.6797 0.6835 0.6889 0.6978 0.7083
1051.000000 0.7149 0.7175 0.7189 0.7196 0.7220
1056.000000 0.7187 0.7173 0.7157 0.7131 0.7099
1061.000000 0.7067 0.7034 0.6992 0.6950 0.6905
1066.000000 0.6856 0.6808 0.6760 0.6715 0.6671
1071.000000 0.6618 0.6524 0.6408 0.6285 0.6169
1076.000000 0.6057 0.5927 0.5621 0.5604 0.5618
1081.000000 0.5583 0.5719 0.5799 0.5860 0.5882
1086.000000 0.5890 0.5903 0.5921 0.6072 0.6292
1091.000000 0.6591 0.6750 0.6851 0.6945 0.6989
1096.000000 0.7001 0.6969 0.6993 0.6962 0.6924
1101.000000 0.6881 0.6822 0.6756 0.6683 0.6609
1106.000000 0.6523 0.6428 0.6310 0.6023 0.5858
1111.000000 0.5724 0.5536 0.5428 0.5418 0.5438
1116.000000 0.5431 0.5760 0.5934 0.6055 0.6226
1121.000000 0.6523 0.6649 0.6708 0.6765 0.6837
1126.000000 0.6890 0.6922 0.6915 0.6924 0.6907
1131.000000 0.6881 0.6840 0.6756 0.6638 0.6513
1136.000000 0.6304 0.6118 0.5961 0.5817 0.5686
1141.000000 0.5652 0.5621 0.5607 0.5604 0.5574
1146.000000 0.5763 0.5887 0.6010 0.6133 0.6256
1151.000000 0.6410 0.6479 0.6530 0.6556 0.6564
1156.000000 0.6566 0.6557 0.6525 0.6478 0.6436
1161.000000 0.6424 0.6433 0.6450 0.6472 0.6506
1166.000000 0.6541 0.6577 0.6608 0.6622 0.6631
1171.000000 0.6628 0.6625 0.6618 0.6612 0.6605
1176.000000 0.6600 0.6599 0.6597 0.6595 0.6598
1181.000000 0.6608 0.6626 0.6662 0.6720 0.6792
1186.000000 0.6860 0.6910 0.6915 0.6926 0.6894
1191.000000 0.6861 0.6825 0.6789 0.6751 0.6700
1196.000000 0.6645 0.6585 0.6524 0.6463 0.6402
1201.000000 0.6337 0.6295 0.6293 0.6303 0.6416
1206.000000 0.6492 0.6568 0.6643 0.6667 0.6658
1211.000000 0.6637 0.6591 0.6558 0.6556 0.6558
1216.000000 0.6552 0.6544 0.6534 0.6515 0.6493
1221.000000 0.6471 0.6447 0.6424 0.6399 0.6376
1226.000000 0.6350 0.6323 0.6298 0.6259 0.6187
1231.000000 0.6094 0.5965 0.5839 0.5744 0.5674
1236.000000 0.5656 0.5659 0.5622 0.5780 0.5842
1241.000000 0.5884 0.5914 0.5916 0.5935 0.5907
1246.000000 0.5879 0.5828 0.5750 0.5656 0.5568
1251.000000 0.5477 0.5374 0.5273 0.5179 0.5087
1256.000000 0.4996 0.4893 0.4780 0.4627 0.4468
1261.000000 0.4308 0.4150 0.3990 0.3831 0.3676
1266.000000 0.3534 0.3402 0.3230 0.2943 0.2832
1271.000000 0.2774 0.2767 0.2800 0.3009 0.3229
1276.000000 0.3449 0.3668 0.3888 0.4106 0.4325
1281.000000 0.4543 0.4760 0.4978 0.5195 0.5411
1286.000000 0.5628 0.5805 0.5845 0.5845 0.5849
1291.000000 0.5834 0.5814 0.5786 0.5741 0.5597
1296.000000 0.5454 0.5311 0.5168 0.5026 0.4888
1301.000000 0.4815 0.4792 0.4786 0.4788 0.4811
1306.000000 0.4797 0.5086 0.5257 0.5428 0.5598
1311.000000 0.5682 0.5689 0.5692 0.5689 0.5678
1316.000000 0.5637 0.5588 0.5537 0.5480 0.5418
1321.000000 0.5357 0.5291 0.5216 0.5142 0.5060
1326.000000 0.4963 0.4865 0.4753 0.4600 0.4401
1331.000000 0.4200 0.3999 0.3799 0.3598 0.3404
1336.000000 0.3280 0.3253 0.3242 0.3286 0.3428
1341.000000 0.3576 0.3723 0.3870 0.4013 0.4061
1346.000000 0.4078 0.4090 0.4058 0.4032 0.3992
1351.000000 0.3913 0.3841 0.3766 0.3675 0.3583
1356.000000 0.3477 0.3367 0.3249 0.3116 0.2992
1361.000000 0.2878 0.2723 0.2156 0.1566 0.1447
1366.000000 0.1357 0.1270 0.1203 0.1165 0.1159
1371.000000 0.1157 0.1170 0.1201 0.1424 0.1643
1376.000000 0.1707 0.1779 0.2080 0.2470 0.2859
1381.000000 0.3247 0.3635 0.4022 0.4408 0.4794
1386.000000 0.5133 0.5155 0.5166 0.5166 0.5165
1391.000000 0.5165 0.5167 0.5173 0.5211 0.5340
1396.000000 0.5427 0.5492 0.5543 0.5571 0.5569
1401.000000 0.5566 0.5580 0.5559 0.5530 0.5485
1406.000000 0.5432 0.5394 0.5357 0.5318 0.5279
1411.000000 0.5238 0.5187 0.5132 0.5070 0.5006
1416.000000 0.4936 0.4864 0.4796 0.4731 0.4656
1421.000000 0.4505 0.4271 0.4024 0.3778 0.3532
1426.000000 0.3287 0.3042 0.2797 0.2411 0.2129
1431.000000 0.2024 0.1884 0.1762 0.1642 0.1514
1436.000000 0.1407 0.1323 0.1248 0.1191 0.1137
1441.000000 0.1085 0.1043 0.1010 0.0976 0.0943
1446.000000 0.0910 0.0879 0.0848 0.0816 0.0800
1451.000000 0.0790 0.0782 0.0779 0.0782 0.0786
1456.000000 0.0796 0.0814 0.0833 0.0863 0.0901
1461.000000 0.1015 0.1177 0.1341 0.1505 0.1669
1466.000000 0.1832 0.1995 0.2159 0.2321 0.2485
1471.000000 0.2583 0.2581 0.2576 0.2572 0.2552
1476.000000 0.2498 0.2412 0.2324 0.2235 0.2146
1481.000000 0.2060 0.2055 0.2054 0.2056 0.2194
1486.000000 0.2503 0.2813 0.3124 0.3433 0.3742
1491.000000 0.4051 0.4359 0.4667 0.4974 0.5282
1496.000000 0.5588 0.5895 0.6180 0.6266 0.6296
1501.000000 0.6310 0.6316 0.6317 0.6297 0.6308
1506.000000 0.6298 0.6245 0.6163 0.6062 0.5960
1511.000000 0.5860 0.5758 0.5657 0.5556 0.5456
1516.000000 0.5355 0.5255 0.5154 0.5054 0.4954
1521.000000 0.4854 0.4754 0.4654 0.4555 0.4455
1526.000000 0.4368 0.4345 0.4343 0.4354 0.4399
1531.000000 0.4556 0.4712 0.4868 0.5025 0.5177
1536.000000 0.5267 0.5265 0.5286 0.5256 0.5185
1541.000000 0.5026 0.4843 0.4662 0.4479 0.4298
1546.000000 0.4117 0.3935 0.3754 0.3574 0.3393
1551.000000 0.3228 0.3177 0.3182 0.3197 0.3218
1556.000000 0.3259 0.3355 0.3527 0.3728 0.3930
1561.000000 0.4056 0.4092 0.4008 0.3884 0.3760
1566.000000 0.3636 0.3513 0.3389 0.3266 0.3144
1571.000000 0.3020 0.2898 0.2775 0.2653 0.2531
1576.000000 0.2440 0.2426 0.2419 0.2502 0.2713
1581.000000 0.2963 0.3212 0.3462 0.3711 0.3959
1586.000000 0.4207 0.4455 0.4703 0.4971 0.5224
1591.000000 0.5378 0.5479 0.5559 0.5628 0.5700
1596.000000 0.5784 0.5895 0.6035 0.6158 0.6231
1601.000000 0.6258 0.6259 0.6296 0.6246 0.6194
1606.000000 0.6067 0.5924 0.5782 0.5639 0.5497
1611.000000 0.5356 0.5213 0.5072 0.4930 0.4789
1616.000000 0.4648 0.4506 0.4366 0.4225 0.4084
1621.000000 0.3944 0.3804 0.3737 0.3731 0.3737
1626.000000 0.3760 0.3775 0.3789 0.3891 0.4170
1631.000000 0.4456 0.4741 0.5026 0.5311 0.5597
1636.000000 0.5666 0.5744 0.5912 0.6103 0.6293
1641.000000 0.6483 0.6673 0.6863 0.7052 0.7241
1646.000000 0.7422 0.7566 0.7670 0.7771 0.7859
1651.000000 0.7923 0.7997 0.8064 0.8107 0.8135
1656.000000 0.8156 0.8169 0.8180 0.8186 0.8191
1661.000000 0.8196 0.8242 0.8203 0.8202 0.8199
1666.000000 0.8196 0.8192 0.8189 0.8185 0.8183
1671.000000 0.8180 0.8177 0.8174 0.8172 0.8170
1676.000000 0.8167 0.8165 0.8162 0.8160 0.8158
1681.000000 0.8154 0.8151 0.8149 0.8146 0.8144
1686.000000 0.8141 0.8138 0.8137 0.8136 0.8135
1691.000000 0.8134 0.8133 0.8132 0.8130 0.8123
1696.000000 0.8114 0.8105 0.8096 0.8086 0.8072
1701.000000 0.8052 0.8032 0.8019 0.8012 0.8003
1706.000000 0.7997 0.7995 0.7997 0.7999 0.8001
1711.000000 0.8002 0.8004 0.8006 0.8007 0.8009
1716.000000 0.8012 0.8012 0.8008 0.8004 0.7999
1721.000000 0.7994 0.7990 0.7985 0.7980 0.7976
1726.000000 0.7971 0.7966 0.7961 0.7956 0.7951
1731.000000 0.7945 0.7940 0.7935 0.7930 0.7925
1736.000000 0.7919 0.7915 0.7910 0.7906 0.7901
1741.000000 0.7896 0.7892 0.7887 0.7883 0.7878
1746.000000 0.7873 0.7868 0.7863 0.7857 0.7852
1751.000000 0.7846 0.7841 0.7835 0.7830 0.7825
1756.000000 0.7820 0.7815 0.7809 0.7809 0.7808
1761.000000 0.7807 0.7806 0.7806 0.7805 0.7805
1766.000000 0.7804 0.7803 0.7803 0.7802 0.7801
1771.000000 0.7801 0.7801 0.7801 0.7804 0.7808
1776.000000 0.7811 0.7815 0.7818 0.7822 0.7826
1781.000000 0.7829 0.7833 0.7836 0.7837 0.7836
1786.000000 0.7834 0.7833 0.7833 0.7831 0.7830
1791.000000 0.7829 0.7828 0.7826 0.7824 0.7820
1796.000000 0.7816 0.7813 0.7810 0.7807 0.7804
1801.000000 0.7801 0.7798 0.7795 0.7792 0.7789
1806.000000 0.7786 0.7783 0.7779 0.7776 0.7774
1811.000000 0.7771 0.7769 0.7766 0.7764 0.7762
1816.000000 0.7759 0.7756 0.7754 0.7752 0.7749
1821.000000 0.7747 0.7744 0.7742 0.7739 0.7735
1826.000000 0.7729 0.7724 0.7719 0.7714 0.7709
1831.000000 0.7704 0.7699 0.7694 0.7688 0.7684
1836.000000 0.7679 0.7674 0.7669 0.7664 0.7661
1841.000000 0.7658 0.7655 0.7652 0.7649 0.7647
1846.000000 0.7644 0.7641 0.7638 0.7636 0.7634
1851.000000 0.7633 0.7631 0.7630 0.7628 0.7627
1856.000000 0.7625 0.7624 0.7623 0.7621 0.7616
1861.000000 0.7610 0.7603 0.7597 0.7590 0.7584
1866.000000 0.7577 0.7571 0.7564 0.7558 0.7552
1871.000000 0.7545 0.7539 0.7533 0.7530 0.7526
1876.000000 0.7522 0.7518 0.7515 0.7511 0.7507
1881.000000 0.7503 0.7500 0.7498 0.7497 0.7496
1886.000000 0.7495 0.7494 0.7494 0.7492 0.7491
1891.000000 0.7491 0.7490 0.7486 0.7480 0.7474
1896.000000 0.7468 0.7461 0.7455 0.7448 0.7440
1901.000000 0.7431 0.7422 0.7414 0.7407 0.7407
1906.000000 0.7408 0.7410 0.7411 0.7412 0.7414
1911.000000 0.7415 0.7416 0.7417 0.7418 0.7420
1916.000000 0.7422 0.7423 0.7424 0.7422 0.7416
1921.000000 0.7411 0.7405 0.7399 0.7394 0.7388
1926.000000 0.7381 0.7373 0.7366 0.7358 0.7350
1931.000000 0.7341 0.7333 0.7326 0.7318 0.7310
1936.000000 0.7304 0.7300 0.7297 0.7295 0.7292
1941.000000 0.7289 0.7287 0.7284 0.7282 0.7279
1946.000000 0.7276 0.7274 0.7271 0.7269 0.7267
1951.000000 0.7265 0.7264 0.7264 0.7262 0.7261
1956.000000 0.7261 0.7259 0.7258 0.7258 0.7252
1961.000000 0.7245 0.7237 0.7229 0.7221 0.7213
1966.000000 0.7205 0.7197 0.7189 0.7182 0.7174
1971.000000 0.7166 0.7158 0.7151 0.7143 0.7135
1976.000000 0.7128 0.7120 0.7113 0.7107 0.7101
1981.000000 0.7095 0.7090 0.7084 0.7078 0.7073
1986.000000 0.7067 0.7061 0.7055 0.7050 0.7044
1991.000000 0.7038 0.7033 0.7027 0.7021 0.7016
1996.000000 0.7010 0.7004 0.6999 0.6993 0.6988
2001.000000 0.6982 0.6976 0.6971 0.6965 0.6959
2006.000000 0.6954 0.6948 0.6943 0.6938 0.6933
2011.000000 0.6928 0.6923 0.6918 0.6913 0.6908
2016.000000 0.6903 0.6898 0.6893 0.6888 0.6883
2021.000000 0.6879 0.6874 0.6869 0.6864 0.6859
2026.000000 0.6854 0.6849 0.6844 0.6840 0.6835
2031.000000 0.6830 0.6825 0.6820 0.6815 0.6811
2036.000000 0.6806 0.6801 0.6796 0.6791 0.6786
2041.000000 0.6782 0.6777 0.6772 0.6767 0.6762
2046.000000 0.6758 0.6754 0.6751 0.6751 0.6751
2051.000000 0.6751 0.6751 0.6751 0.6751 0.6750
2056.000000 0.6750 0.6750 0.6750 0.6750 0.6749
2061.000000 0.6749 0.6750 0.6753 0.6758 0.6764
2066.000000 0.6769 0.6772 0.6773 0.6771 0.6769
2071.000000 0.6767 0.6765 0.6762 0.6761 0.6759
2076.000000 0.6757 0.6755 0.6753 0.6751 0.6749
2081.000000 0.6746 0.6743 0.6738 0.6734 0.6730
2086.000000 0.6726 0.6722 0.6717 0.6713 0.6709
2091.000000 0.6704 0.6700 0.6696 0.6692 0.6687
2096.000000 0.6683 0.6679 0.6674 0.6668 0.6662
2101.000000 0.6656 0.6649 0.6643 0.6637 0.6630
2106.000000 0.6624 0.6617 0.6611 0.6605 0.6599
2111.000000 0.6593 0.6586 0.6580 0.6574 0.6568
2116.000000 0.6562 0.6556 0.6550 0.6545 0.6539
2121.000000 0.6533 0.6528 0.6522 0.6517 0.6511
2126.000000 0.6506 0.6500 0.6494 0.6488 0.6483
2131.000000 0.6477 0.6472 0.6468 0.6466 0.6463
2136.000000 0.6462 0.6460 0.6458 0.6456 0.6453
2141.000000 0.6451 0.6449 0.6447 0.6446 0.6444
2146.000000 0.6441 0.6439 0.6437 0.6435 0.6434
2151.000000 0.6432 0.6431 0.6429 0.6427 0.6426
2156.000000 0.6425 0.6424 0.6422 0.6420 0.6419
2161.000000 0.6417 0.6416 0.6415 0.6413 0.6412
2166.000000 0.6411 0.6410 0.6408 0.6407 0.6406
2171.000000 0.6404 0.6403 0.6401 0.6400 0.6399
2176.000000 0.6398 0.6397 0.6395 0.6394 0.6393
2181.000000 0.6392 0.6391 0.6389 0.6387 0.6384
2186.000000 0.6381 0.6378 0.6375 0.6371 0.6368
2191.000000 0.6365 0.6361 0.6357 0.6354 0.6351
2196.000000 0.6348 0.6345 0.6341 0.6337 0.6332
2201.000000 0.6327 0.6320 0.6314 0.6309 0.6303
2206.000000 0.6298 0.6292 0.6285 0.6280 0.6274
2211.000000 0.6268 0.6263 0.6256 0.6250 0.6244
2216.000000 0.6237 0.6231 0.6224 0.6218 0.6212
2221.000000 0.6206 0.6199 0.6193 0.6187 0.6180
2226.000000 0.6174 0.6168 0.6161 0.6155 0.6149
2231.000000 0.6143 0.6137 0.6131 0.6125 0.6119
2236.000000 0.6112 0.6106 0.6100 0.6094 0.6088
2241.000000 0.6082 0.6076 0.6070 0.6064 0.6059
2246.000000 0.6053 0.6047 0.6041 0.6033 0.6025
2251.000000 0.6017 0.6008 0.5999 0.5991 0.5983
2256.000000 0.5974 0.5966 0.5957 0.5949 0.5941
2261.000000 0.5932 0.5924 0.5918 0.5912 0.5907
2266.000000 0.5901 0.5896 0.5891 0.5886 0.5881
2271.000000 0.5874 0.5865 0.5856 0.5847 0.5838
2276.000000 0.5828 0.5819 0.5810 0.5801 0.5791
2281.000000 0.5782 0.5769 0.5756 0.5733 0.5709
2286.000000 0.5686 0.5662 0.5645 0.5631 0.5617
2291.000000 0.5605 0.5592 0.5578 0.5566 0.5555
2296.000000 0.5545 0.5536 0.5528 0.5519 0.5510
2301.000000 0.5501 0.5493 0.5484 0.5475 0.5466
2306.000000 0.5458 0.5449 0.5441 0.5432 0.5423
2311.000000 0.5415 0.5408 0.5401 0.5395 0.5388
2316.000000 0.5381 0.5374 0.5367 0.5360 0.5353
2321.000000 0.5346 0.5340 0.5333 0.5326 0.5320
2326.000000 0.5311 0.5301 0.5291 0.5280 0.5269
2331.000000 0.5258 0.5247 0.5236 0.5225 0.5214
2336.000000 0.5203 0.5193 0.5182 0.5171 0.5160
2341.000000 0.5149 0.5140 0.5132 0.5124 0.5116
2346.000000 0.5109 0.5102 0.5094 0.5087 0.5079
2351.000000 0.5071 0.5062 0.5054 0.5046 0.5037
2356.000000 0.5029 0.5020 0.5012 0.5003 0.4995
2361.000000 0.4987 0.4979 0.4970 0.4961 0.4952
2366.000000 0.4943 0.4934 0.4926 0.4917 0.4909
2371.000000 0.4900 0.4891 0.4882 0.4873 0.4864
2376.000000 0.4855 0.4847 0.4838 0.4830 0.4821
2381.000000 0.4812 0.4804 0.4795 0.4787 0.4779
2386.000000 0.4771 0.4763 0.4755 0.4746 0.4738
2391.000000 0.4730 0.4721 0.4712 0.4703 0.4693
2396.000000 0.4682 0.4671 0.4660 0.4649 0.4639
2401.000000 0.4630 0.4620 0.4611 0.4602 0.4594
2406.000000 0.4585 0.4576 0.4568 0.4559 0.4550
2411.000000 0.4539 0.4522 0.4506 0.4489 0.4472
2416.000000 0.4453 0.4433 0.4412 0.4391 0.4369
2421.000000 0.4348 0.4327 0.4307 0.4287 0.4268
2426.000000 0.4249 0.4230 0.4211 0.4192 0.4172
2431.000000 0.4153 0.4131 0.4093 0.4056 0.4042
2436.000000 0.4037 0.4033 0.4028 0.4024 0.4019
2441.000000 0.4014 0.4009 0.4004 0.4000 0.3995
2446.000000 0.3990 0.3988 0.3986 0.3985 0.3983
2451.000000 0.3980 0.3979 0.3977 0.3975 0.3973
2456.000000 0.3971 0.3969 0.3967 0.3965 0.3962
2461.000000 0.3960 0.3958 0.3956 0.3953 0.3951
2466.000000 0.3948 0.3946 0.3943 0.3941 0.3939
2471.000000 0.3937 0.3934 0.3932 0.3930 0.3928
2476.000000 0.3926 0.3923 0.3921 0.3917 0.3914
2481.000000 0.3911 0.3908 0.3904 0.3902 0.3899
2486.000000 0.3896 0.3892 0.3889 0.3886 0.3883
2491.000000 0.3873 0.3864 0.3850 0.3832 0.3814
2496.000000 0.3787 0.3761 0.3732 0.3700 0.3668
2501.000000 0.3646 0.3625 0.3605 0.3586 0.3567
2506.000000 0.3554 0.3542 0.3530 0.3517 0.3505
2511.000000 0.3497 0.3490 0.3484 0.3481 0.3478
2516.000000 0.3474 0.3471 0.3467 0.3464 0.3461
2521.000000 0.3458 0.3454 0.3451 0.3447 0.3444
2526.000000 0.3440 0.3436 0.3432 0.3427 0.3423
2531.000000 0.3419 0.3414 0.3409 0.3404 0.3400
2536.000000 0.3395 0.3390 0.3386 0.3378 0.3369
2541.000000 0.3358 0.3343 0.3327 0.3316 0.3306
2546.000000 0.3298 0.3295 0.3293 0.3292 0.3294
2551.000000 0.3295 0.3297 0.3299 0.3300 0.3302
2556.000000 0.3303 0.3310 0.3306 0.3307 0.3308
2561.000000 0.3310 0.3311 0.3313 0.3314 0.3316
2566.000000 0.3317 0.3318 0.3319 0.3320 0.3321
2571.000000 0.3322 0.3323 0.3325 0.3326 0.3327
2576.000000 0.3328 0.3328 0.3329 0.3329 0.3330
2581.000000 0.3330 0.3331 0.3332 0.3333 0.3333
2586.000000 0.3333 0.3332 0.3330 0.3329 0.3328
2591.000000 0.3327 0.3327 0.3326 0.3325 0.3324
2596.000000 0.3323 0.3321 0.3320 0.3319 0.3315
2601.000000 0.3311 0.3307 0.3304 0.3300 0.3296
2606.000000 0.3292 0.3288 0.3284 0.3281 0.3278
2611.000000 0.3275 0.3273 0.3271 0.3268 0.3266
2616.000000 0.3263 0.3261 0.3259 0.3256 0.3254
2621.000000 0.3253 0.3254 0.3255 0.3259 0.3259
2626.000000 0.3261 0.3269 0.3278 0.3286 0.3297
2631.000000 0.3307 0.3320 0.3338 0.3356 0.3374
2636.000000 0.3392 0.3410 0.3430 0.3451 0.3471
2641.000000 0.3492 0.3513 0.3538 0.3574 0.3610
2646.000000 0.3635 0.3652 0.3668 0.3682 0.3695
2651.000000 0.3708 0.3716 0.3724 0.3731 0.3738
2656.000000 0.3745 0.3752 0.3757 0.3762 0.3767
2661.000000 0.3770 0.3773 0.3776 0.3780 0.3783
2666.000000 0.3786 0.3789 0.3792 0.3795 0.3799
2671.000000 0.3802 0.3806 0.3810 0.3815 0.3821
2676.000000 0.3828 0.3835 0.3842 0.3849 0.3861
2681.000000 0.3879 0.3897 0.3917 0.3937 0.3957
2686.000000 0.3987 0.4021 0.4056 0.4085 0.4113
2691.000000 0.4142 0.4161 0.4180 0.4198 0.4207
2696.000000 0.4217 0.4227 0.4236 0.4246 0.4254
2701.000000 0.4259 0.4263 0.4267 0.4269 0.4271
2706.000000 0.4273 0.4275 0.4277 0.4277 0.4276
2711.000000 0.4275 0.4285 0.4273 0.4273 0.4272
2716.000000 0.4271 0.4270 0.4269 0.4268 0.4268
2721.000000 0.4266 0.4264 0.4262 0.4260 0.4257
2726.000000 0.4254 0.4251 0.4247 0.4243 0.4237
2731.000000 0.4231 0.4225 0.4218 0.4211 0.4204
2736.000000 0.4196 0.4187 0.4178 0.4167 0.4155
2741.000000 0.4144 0.4129 0.4112 0.4095 0.4078
2746.000000 0.4059 0.4041 0.4022 0.4002 0.3983
2751.000000 0.3962 0.3942 0.3921 0.3899 0.3876
2756.000000 0.3853 0.3822 0.3787 0.3751 0.3704
2761.000000 0.3649 0.3594 0.3525 0.3446 0.3366
2766.000000 0.3287 0.3207 0.3127 0.3048 0.2969
2771.000000 0.2889 0.2810 0.2731 0.2652 0.2572
2776.000000 0.2494 0.2415 0.2336 0.2257 0.2179
2781.000000 0.2100 0.2021 0.1942 0.1864 0.1785
2786.000000 0.1707 0.1629 0.1551 0.1473 0.1394
2791.000000 0.1318 0.1241 0.1165 0.1107 0.1056
2796.000000 0.1006 0.0951 0.0893 0.0835 0.0791
2801.000000 0.0767 0.0742 0.0719 0.0703 0.0687
2806.000000 0.0672 0.0661 0.0651 0.0640 0.0633
2811.000000 0.0625 0.0618 0.0612 0.0607 0.0602
2816.000000 0.0599 0.0597 0.0595 0.0594 0.0592
2821.000000 0.0590 0.0588 0.0586 0.0584 0.0582
2826.000000 0.0581 0.0580 0.0580 0.0579 0.0578
2831.000000 0.0577 0.0576 0.0575 0.0574 0.0573
2836.000000 0.0573 0.0572 0.0571 0.0570 0.0569
2841.000000 0.0568 0.0568 0.0567 0.0567 0.0566
2846.000000 0.0566 0.0566 0.0565 0.0565 0.0564
2851.000000 0.0563 0.0563 0.0563 0.0562 0.0562
2856.000000 0.0561 0.0561 0.0561 0.0561 0.0561
2861.000000 0.0562 0.0562 0.0562 0.0562 0.0562
2866.000000 0.0562 0.0563 0.0563 0.0563 0.0563
2871.000000 0.0564 0.0564 0.0564 0.0564 0.0564
2876.000000 0.0564 0.0565 0.0565 0.0565 0.0565
2881.000000 0.0565 0.0566 0.0567 0.0568 0.0570
2886.000000 0.0571 0.0573 0.0574 0.0575 0.0576
2891.000000 0.0578 0.0579 0.0581 0.0583 0.0586
2896.000000 0.0589 0.0592 0.0598 0.0604 0.0609
2901.000000 0.0615 0.0620 0.0625 0.0631 0.0636
2906.000000 0.0642 0.0648 0.0654 0.0660 0.0666
2911.000000 0.0673 0.0679 0.0686 0.0692 0.0699
2916.000000 0.0705 0.0712 0.0736 0.0763 0.0790
2921.000000 0.0844 0.0932 0.1020 0.1108 0.1195
2926.000000 0.1282 0.1370 0.1457 0.1544 0.1632
2931.000000 0.1719 0.1806 0.1894 0.1981 0.2068
2936.000000 0.2155 0.2242 0.2356 0.2541 0.2727
2941.000000 0.2912 0.2964 0.2989 0.3013 0.3037
2946.000000 0.3061 0.3086 0.3110 0.3132 0.3153
2951.000000 0.3175 0.3196 0.3217 0.3237 0.3258
2956.000000 0.3277 0.3297 0.3316 0.3335 0.3353
2961.000000 0.3372 0.3390 0.3408 0.3426 0.3444
2966.000000 0.3458 0.3468 0.3477 0.3486 0.3496
2971.000000 0.3505 0.3514 0.3524 0.3533 0.3542
2976.000000 0.3552 0.3561 0.3570 0.3580 0.3589
2981.000000 0.3597 0.3606 0.3614 0.3622 0.3629
2986.000000 0.3636 0.3644 0.3651 0.3658 0.3665
2991.000000 0.3672 0.3679 0.3686 0.3693 0.3699
2996.000000 0.3704 0.3709 0.3715 0.3720 0.3725
3001.000000 0.3730 0.3736 0.3741 0.3746 0.3752
3006.000000 0.3757 0.3762 0.3767 0.3772 0.3776
3011.000000 0.3781 0.3785 0.3789 0.3792 0.3796
3016.000000 0.3800 0.3804 0.3807 0.3811 0.3815
3021.000000 0.3819 0.3823 0.3827 0.3830 0.3834
3026.000000 0.3837 0.3841 0.3845 0.3849 0.3852
3031.000000 0.3856 0.3859 0.3863 0.3867 0.3870
3036.000000 0.3874 0.3878 0.3882 0.3885 0.3889
3041.000000 0.3892 0.3896 0.3900 0.3903 0.3907
3046.000000 0.3910 0.3913 0.3915 0.3918 0.3920
3051.000000 0.3922 0.3924 0.3925 0.3927 0.3929
3056.000000 0.3930 0.3932 0.3934 0.3936 0.3938
3061.000000 0.3939 0.3941 0.3943 0.3945 0.3947
3066.000000 0.3949 0.3951 0.3952 0.3954 0.3956
3071.000000 0.3958 0.3959 0.3959 0.3960 0.3960
3076.000000 0.3961 0.3962 0.3962 0.3963 0.3963
3081.000000 0.3964 0.3964 0.3965 0.3965 0.3966
3086.000000 0.3966 0.3967 0.3967 0.3968 0.3968
3091.000000 0.3978 0.3969 0.3970 0.3970 0.3970
3096.000000 0.3969 0.3968 0.3967 0.3967 0.3966
3101.000000 0.3966 0.3965 0.3964 0.3963 0.3962
3106.000000 0.3961 0.3958 0.3956 0.3954 0.3951
3111.000000 0.3949 0.3946 0.3943 0.3941 0.3938
3116.000000 0.3936 0.3933 0.3929 0.3925 0.3921
3121.000000 0.3917 0.3913 0.3908 0.3904 0.3900
3126.000000 0.3893 0.3886 0.3880 0.3873 0.3866
3131.000000 0.3859 0.3851 0.3844 0.3836 0.3828
3136.000000 0.3821 0.3812 0.3804 0.3795 0.3787
3141.000000 0.3778 0.3769 0.3761 0.3752 0.3744
3146.000000 0.3736 0.3728 0.3719 0.3711 0.3703
3151.000000 0.3695 0.3686 0.3678 0.3670 0.3661
3156.000000 0.3653 0.3645 0.3637 0.3628 0.3620
3161.000000 0.3611 0.3602 0.3592 0.3583 0.3573
3166.000000 0.3563 0.3553 0.3543 0.3533 0.3523
3171.000000 0.3513 0.3503 0.3496 0.3494 0.3492
3176.000000 0.3489 0.3487 0.3486 0.3486 0.3485
3181.000000 0.3485 0.3486 0.3487 0.3489 0.3490
3186.000000 0.3491 0.3493 0.3494 0.3454 0.3542
3191.000000 0.3580 0.3617 0.3654 0.3686 0.3717
3196.000000 0.3748 0.3778 0.3789 0.3800 0.3811
3201.000000 0.3822 0.3831 0.3839 0.3848 0.3856
3206.000000 0.3863 0.3869 0.3876 0.3882 0.3884
3211.000000 0.3885 0.3886 0.3886 0.3887 0.3887
3216.000000 0.3888 0.3888 0.3898 0.3889 0.3889
3221.000000 0.3889 0.3889 0.3889 0.3888 0.3887
3226.000000 0.3886 0.3886 0.3885 0.3885 0.3884
3231.000000 0.3884 0.3883 0.3882 0.3882 0.3880
3236.000000 0.3879 0.3878 0.3877 0.3872 0.3864
3241.000000 0.3857 0.3850 0.3840 0.3827 0.3815
3246.000000 0.3802 0.3790 0.3779 0.3768 0.3757
3251.000000 0.3746 0.3739 0.3732 0.3724 0.3717
3256.000000 0.3714 0.3713 0.3711 0.3709 0.3708
3261.000000 0.3706 0.3704 0.3703 0.3701 0.3700
3266.000000 0.3699 0.3698 0.3696 0.3696 0.3696
3271.000000 0.3695 0.3695 0.3694 0.3694 0.3693
3276.000000 0.3693 0.3692 0.3692 0.3691 0.3691
3281.000000 0.3690 0.3690 0.3689 0.3689 0.3689
3286.000000 0.3688 0.3687 0.3687 0.3686 0.3685
3291.000000 0.3684 0.3683 0.3681 0.3680 0.3679
3296.000000 0.3678 0.3678 0.3677 0.3674 0.3671
3301.000000 0.3668 0.3665 0.3661 0.3655 0.3649
3306.000000 0.3644 0.3638 0.3632 0.3626 0.3621
3311.000000 0.3615 0.3609 0.3603 0.3597 0.3591
3316.000000 0.3586 0.3580 0.3574 0.3568 0.3563
3321.000000 0.3557 0.3551 0.3546 0.3540 0.3534
3326.000000 0.3528 0.3521 0.3515 0.3509 0.3503
3331.000000 0.3496 0.3490 0.3484 0.3477 0.3471
3336.000000 0.3465 0.3459 0.3454 0.3451 0.3448
3341.000000 0.3444 0.3441 0.3440 0.3439 0.3437
3346.000000 0.3436 0.3435 0.3434 0.3433 0.3432
3351.000000 0.3431 0.3430 0.3429 0.3427 0.3426
3356.000000 0.3425 0.3424 0.3423 0.3423 0.3422
3361.000000 0.3421 0.3420 0.3419 0.3418 0.3417
3366.000000 0.3417 0.3416 0.3415 0.3415 0.3414
3371.000000 0.3413 0.3412 0.3411 0.3410 0.3409
3376.000000 0.3409 0.3408 0.3407 0.3406 0.3405
3381.000000 0.3405 0.3404 0.3403 0.3402 0.3401
3386.000000 0.3400 0.3398 0.3396 0.3393 0.3391
3391.000000 0.3388 0.3385 0.3382 0.3379 0.3376
3396.000000 0.3374 0.3371 0.3370 0.3370 0.3369
3401.000000 0.3368 0.3367 0.3366 0.3365 0.3364
3406.000000 0.3364 0.3364 0.3364 0.3364 0.3364
3411.000000 0.3365 0.3367 0.3369 0.3370 0.3372
3416.000000 0.3373 0.3392 0.3404 0.3415 0.3427
3421.000000 0.3445 0.3462 0.3480 0.3498 0.3516
3426.000000 0.3533 0.3551 0.3569 0.3586 0.3604
3431.000000 0.3621 0.3639 0.3657 0.3674 0.3692
3436.000000 0.3709 0.3727 0.3745 0.3762 0.3780
3441.000000 0.3797 0.3815 0.3832 0.3850 0.3867
3446.000000 0.3885 0.3902 0.3920 0.3937 0.3955
3451.000000 0.3972 0.3989 0.4007 0.4024 0.4042
3456.000000 0.4059 0.4076 0.4094 0.4111 0.4128
3461.000000 0.4146 0.4163 0.4180 0.4198 0.4215
3466.000000 0.4232 0.4249 0.4268 0.4286 0.4305
3471.000000 0.4324 0.4342 0.4384 0.4432 0.4480
3476.000000 0.4528 0.4576 0.4594 0.4609 0.4625
3481.000000 0.4641 0.4657 0.4667 0.4678 0.4688
3486.000000 0.4699 0.4708 0.4715 0.4723 0.4730
3491.000000 0.4737 0.4744 0.4751 0.4759 0.4766
3496.000000 0.4773 0.4779 0.4785 0.4791 0.4797
3501.000000 0.4803 0.4808 0.4813 0.4818 0.4822
3506.000000 0.4827 0.4832 0.4836 0.4841 0.4846
3511.000000 0.4850 0.4855 0.4860 0.4864 0.4869
3516.000000 0.4874 0.4877 0.4879 0.4881 0.4884
3521.000000 0.4886 0.4888 0.4891 0.4893 0.4895
3526.000000 0.4897 0.4900 0.4902 0.4904 0.4906
3531.000000 0.4908 0.4911 0.4913 0.4915 0.4917
3536.000000 0.4919 0.4922 0.4924 0.4926 0.4928
3541.000000 0.4930 0.4932 0.4934 0.4936 0.4938
3546.000000 0.4939 0.4941 0.4942 0.4943 0.4944
3551.000000 0.4945 0.4947 0.4948 0.4949 0.4950
3556.000000 0.4951 0.4953 0.4954 0.4955 0.4957
3561.000000 0.4958 0.4949 0.4958 0.4957 0.4957
3566.000000 0.4957 0.4956 0.4955 0.4954 0.4954
3571.000000 0.4953 0.4952 0.4950 0.4949 0.4948
3576.000000 0.4946 0.4945 0.4943 0.4942 0.4940
3581.000000 0.4939 0.4937 0.4936 0.4934 0.4933
3586.000000 0.4932 0.4930 0.4929 0.4927 0.4926
3591.000000 0.4924 0.4922 0.4921 0.4920 0.4918
3596.000000 0.4917 0.4916 0.4914 0.4912 0.4909
3601.000000 0.4907 0.4905 0.4903 0.4901 0.4899
3606.000000 0.4897 0.4895 0.4894 0.4892 0.4890
3611.000000 0.4888 0.4886 0.4884 0.4882 0.4880
3616.000000 0.4878 0.4876 0.4874 0.4872 0.4870
3621.000000 0.4868 0.4866 0.4864 0.4862 0.4860
3626.000000 0.4858 0.4856 0.4854 0.4852 0.4850
3631.000000 0.4848 0.4845 0.4843 0.4841 0.4838
3636.000000 0.4835 0.4832 0.4829 0.4826 0.4823
3641.000000 0.4819 0.4816 0.4813 0.4810 0.4807
3646.000000 0.4804 0.4801 0.4798 0.4795 0.4792
3651.000000 0.4789 0.4786 0.4783 0.4780 0.4777
3656.000000 0.4774 0.4771 0.4768 0.4765 0.4762
3661.000000 0.4760 0.4757 0.4755 0.4752 0.4749
3666.000000 0.4747 0.4744 0.4741 0.4738 0.4735
3671.000000 0.4733 0.4730 0.4727 0.4725 0.4722
3676.000000 0.4720 0.4717 0.4714 0.4711 0.4709
3681.000000 0.4706 0.4703 0.4701 0.4698 0.4695
3686.000000 0.4693 0.4690 0.4688 0.4685 0.4682
3691.000000 0.4679 0.4677 0.4674 0.4671 0.4669
3696.000000 0.4666 0.4664 0.4661 0.4659 0.4656
3701.000000 0.4653 0.4651 0.4648 0.4646 0.4644
3706.000000 0.4641 0.4639 0.4637 0.4635 0.4633
3711.000000 0.4630 0.4628 0.4626 0.4623 0.4621
3716.000000 0.4618 0.4616 0.4614 0.4611 0.4609
3721.000000 0.4606 0.4603 0.4600 0.4597 0.4594
3726.000000 0.4591 0.4588 0.4584 0.4581 0.4578
3731.000000 0.4575 0.4571 0.4568 0.4565 0.4562
3736.000000 0.4558 0.4555 0.4552 0.4549 0.4546
3741.000000 0.4543 0.4540 0.4537 0.4533 0.4530
3746.000000 0.4527 0.4523 0.4520 0.4514 0.4509
3751.000000 0.4503 0.4497 0.4491 0.4485 0.4479
3756.000000 0.4473 0.4468 0.4462 0.4456 0.4452
3761.000000 0.4450 0.4448 0.4446 0.4444 0.4442
3766.000000 0.4441 0.4440 0.4439 0.4439 0.4438
3771.000000 0.4437 0.4437 0.4436 0.4436 0.4435
3776.000000 0.4435 0.4434 0.4433 0.4433 0.4432
3781.000000 0.4431 0.4431 0.4430 0.4430 0.4429
3786.000000 0.4428 0.4428 0.4427 0.4427 0.4426
3791.000000 0.4425 0.4425 0.4424 0.4422 0.4418
3796.000000 0.4414 0.4410 0.4406 0.4402 0.4398
3801.000000 0.4393 0.4388 0.4383 0.4378 0.4373
3806.000000 0.4369 0.4364 0.4359 0.4355 0.4350
3811.000000 0.4345 0.4343 0.4341 0.4339 0.4337
3816.000000 0.4334 0.4332 0.4331 0.4329 0.4328
3821.000000 0.4326 0.4324 0.4323 0.4322 0.4320
3826.000000 0.4319 0.4318 0.4316 0.4315 0.4314
3831.000000 0.4313 0.4312 0.4311 0.4310 0.4309
3836.000000 0.4309 0.4308 0.4308 0.4307 0.4307
3841.000000 0.4306 0.4306 0.4306 0.4305 0.4305
3846.000000 0.4305 0.4304 0.4304 0.4304 0.4303
3851.000000 0.4303 0.4303 0.4302 0.4302 0.4301
3856.000000 0.4301 0.4300 0.4300 0.4296 0.4292
3861.000000 0.4289 0.4285 0.4281 0.4277 0.4274
3866.000000 0.4270 0.4266 0.4262 0.4258 0.4254
3871.000000 0.4251 0.4247 0.4243 0.4239 0.4235
3876.000000 0.4231 0.4228 0.4224 0.4220 0.4217
3881.000000 0.4213 0.4209 0.4206 0.4203 0.4201
3886.000000 0.4198 0.4195 0.4192 0.4189 0.4186
3891.000000 0.4183 0.4180 0.4178 0.4175 0.4172
3896.000000 0.4169 0.4166 0.4164 0.4161 0.4158
3901.000000 0.4157 0.4156 0.4156 0.4155 0.4154
3906.000000 0.4154 0.4153 0.4153 0.4153 0.4153
3911.000000 0.4153 0.4153 0.4152 0.4152 0.4152
3916.000000 0.4152 0.4152 0.4152 0.4152 0.4152
3921.000000 0.4152 0.4152 0.4152 0.4152 0.4151
3926.000000 0.4151 0.4150 0.4149 0.4149 0.4148
3931.000000 0.4147 0.4147 0.4146 0.4145 0.4145
3936.000000 0.4144 0.4144 0.4143 0.4142 0.4142
3941.000000 0.4141 0.4140 0.4140 0.4137 0.4135
3946.000000 0.4132 0.4130 0.4127 0.4125 0.4121
3951.000000 0.4117 0.4112 0.4108 0.4103 0.4099
3956.000000 0.4094 0.4089 0.4085 0.4080 0.4076
3961.000000 0.4071 0.4066 0.4062 0.4057 0.4053
3966.000000 0.4049 0.4044 0.4040 0.4035 0.4030
3971.000000 0.4026 0.4021 0.4017 0.4012 0.4008
3976.000000 0.4003 0.3999 0.3994 0.3990 0.3985
3981.000000 0.3981 0.3976 0.3971 0.3966 0.3961
3986.000000 0.3957 0.3952 0.3946 0.3941 0.3936
3991.000000 0.3930 0.3925 0.3920 0.3914 0.3909
3996.000000 0.3904 0.3898 0.3893 0.3888 0.3883
##END=
