##TITLE=Toluenesulfonamide, N-ethyl-, (mixture of o-and p-)
##JCAMP-DX=4.24
##DATA TYPE=INFRARED SPECTRUM
##CLASS=COBLENTZ
##ORIGIN=DOW CHEMICAL COMPANY
##OWNER=Copyright (C) 1987 by the Coblentz Society
Collection (C) 2018 copyright by the U.S. Secretary of Commerce
on behalf of the United States of America. All rights reserved.
##DATE=1970/01/19
##NAMES=SANTICIZER 8 (MONSANTO)
##MOLFORM=C9 H13 N O2 S
##SOURCE REFERENCE=COBLENTZ NO. 9652
##$NIST ID=B6009652
##$NIST SOURCE=COBLENTZ
##$NIST IMAGE=cob9652
##SPECTROMETER/DATA SYSTEM=DOW FOREPRISM-GRATING
##INSTRUMENT PARAMETERS=BLAZED AT 3.5, 12.0, 20.0 MICRON AND CHANGED AT 5.0, 7.5, 14.9 MICRON
##STATE=LIQUID (NEAT)
##PATH LENGTH=CAPILLARY
##SAMPLING PROCEDURE=TRANSMISSION
##RESOLUTION=2
##DATA PROCESSING=DIGITIZED BY COBLENTZ SOCIETY (BATCH II) FROM HARD COPY
##XUNITS=1/CM
##YUNITS=TRANSMITTANCE
##XFACTOR=1.0
##YFACTOR=1
##FIRSTX=386
##LASTX=3766
##FIRSTY=0.6939
##MAXX=3766
##MINX=386
##MAXY=0.8906
##MINY=0.0563
##NPOINTS=3381
##XYDATA=(X++(Y..Y))
386.000000 0.6939 0.6941 0.6943 0.6944 0.6946
391.000000 0.6947 0.6947 0.6947 0.6947 0.6947
396.000000 0.6947 0.6948 0.6948 0.6948 0.6949
401.000000 0.6951 0.6953 0.6954 0.6956 0.6958
406.000000 0.6960 0.6962 0.6964 0.6966 0.6950
411.000000 0.6968 0.6969 0.6970 0.6970 0.6971
416.000000 0.6972 0.6972 0.6973 0.6974 0.6974
421.000000 0.6975 0.6976 0.6976 0.6973 0.6968
426.000000 0.6964 0.6959 0.6955 0.6950 0.6946
431.000000 0.6941 0.6937 0.6932 0.6928 0.6919
436.000000 0.6911 0.6903 0.6894 0.6886 0.6878
441.000000 0.6870 0.6861 0.6853 0.6844 0.6832
446.000000 0.6820 0.6808 0.6796 0.6784 0.6771
451.000000 0.6759 0.6745 0.6727 0.6709 0.6690
456.000000 0.6672 0.6653 0.6635 0.6617 0.6600
461.000000 0.6582 0.6565 0.6548 0.6531 0.6514
466.000000 0.6494 0.6468 0.6442 0.6416 0.6390
471.000000 0.6364 0.6338 0.6311 0.6280 0.6249
476.000000 0.6218 0.6187 0.6156 0.6133 0.6111
481.000000 0.6096 0.6084 0.6073 0.6074 0.6064
486.000000 0.6083 0.6089 0.6097 0.6114 0.6131
491.000000 0.6148 0.6166 0.6186 0.6205 0.6225
496.000000 0.6248 0.6271 0.6295 0.6319 0.6342
501.000000 0.6365 0.6387 0.6407 0.6424 0.6440
506.000000 0.6446 0.6443 0.6442 0.6437 0.6427
511.000000 0.6416 0.6404 0.6392 0.6379 0.6367
516.000000 0.6355 0.6342 0.6329 0.6316 0.6304
521.000000 0.6291 0.6278 0.6262 0.6247 0.6231
526.000000 0.6215 0.6200 0.6176 0.6151 0.6126
531.000000 0.6076 0.6009 0.5931 0.5843 0.5687
536.000000 0.5530 0.5373 0.5215 0.5058 0.4902
541.000000 0.4833 0.4764 0.4696 0.4639 0.4579
546.000000 0.4470 0.4165 0.3859 0.3708 0.3718
551.000000 0.4024 0.4234 0.4445 0.4655 0.4865
556.000000 0.5076 0.5143 0.5094 0.5058 0.4969
561.000000 0.4881 0.4793 0.4704 0.4616 0.4528
566.000000 0.4439 0.4351 0.4263 0.4174 0.4093
571.000000 0.4111 0.4155 0.4234 0.4312 0.4390
576.000000 0.4469 0.4547 0.4623 0.4628 0.4626
581.000000 0.4625 0.4530 0.4347 0.4165 0.3982
586.000000 0.3799 0.3616 0.3434 0.3251 0.3068
591.000000 0.2923 0.2929 0.2932 0.2927 0.2978
596.000000 0.3231 0.3570 0.3909 0.4247 0.4586
601.000000 0.4849 0.4985 0.5096 0.5219 0.5428
606.000000 0.5571 0.5701 0.5825 0.5956 0.6093
611.000000 0.6203 0.6303 0.6402 0.6499 0.6570
616.000000 0.6610 0.6650 0.6690 0.6713 0.6736
621.000000 0.6759 0.6782 0.6795 0.6808 0.6820
626.000000 0.6833 0.6839 0.6843 0.6847 0.6866
631.000000 0.6855 0.6843 0.6828 0.6807 0.6783
636.000000 0.6760 0.6734 0.6681 0.6628 0.6587
641.000000 0.6547 0.6507 0.6467 0.6372 0.6258
646.000000 0.6144 0.6030 0.5916 0.5802 0.5688
651.000000 0.5574 0.5460 0.5345 0.5247 0.5178
656.000000 0.5105 0.5031 0.4968 0.4931 0.4879
661.000000 0.4898 0.4903 0.5039 0.5195 0.5335
666.000000 0.5349 0.5378 0.5444 0.5490 0.5512
671.000000 0.5528 0.5533 0.5547 0.5540 0.5534
676.000000 0.5517 0.5344 0.5125 0.4905 0.4685
681.000000 0.4466 0.4198 0.4220 0.4237 0.4377
686.000000 0.4517 0.4657 0.4797 0.4937 0.5077
691.000000 0.5217 0.5357 0.5497 0.5637 0.5770
696.000000 0.5777 0.5788 0.5794 0.5785 0.5654
701.000000 0.5520 0.5385 0.5251 0.5116 0.4982
706.000000 0.4847 0.4713 0.4578 0.4525 0.5090
711.000000 0.6072 0.6213 0.6406 0.6523 0.6656
716.000000 0.6769 0.6831 0.6894 0.6935 0.6973
721.000000 0.7011 0.7048 0.7079 0.7109 0.7140
726.000000 0.7162 0.7182 0.7203 0.7222 0.7230
731.000000 0.7235 0.7236 0.7250 0.7233 0.7230
736.000000 0.7222 0.7212 0.7201 0.7180 0.7156
741.000000 0.7129 0.7086 0.7040 0.6975 0.6876
746.000000 0.6670 0.6445 0.6221 0.5997 0.5772
751.000000 0.5548 0.5323 0.5099 0.4874 0.4650
756.000000 0.4426 0.4135 0.4008 0.3956 0.3935
761.000000 0.3930 0.3943 0.3970 0.4134 0.4340
766.000000 0.4547 0.4754 0.4961 0.5168 0.5375
771.000000 0.5582 0.5789 0.5996 0.6203 0.6388
776.000000 0.6520 0.6665 0.6846 0.7002 0.7140
781.000000 0.7208 0.7262 0.7284 0.7307 0.7317
786.000000 0.7325 0.7329 0.7323 0.7321 0.7310
791.000000 0.7300 0.7277 0.7252 0.7194 0.7142
796.000000 0.7051 0.6869 0.6686 0.6504 0.6321
801.000000 0.6139 0.6073 0.6070 0.6072 0.6069
806.000000 0.5984 0.5899 0.5813 0.5728 0.5642
811.000000 0.5581 0.5576 0.5572 0.5593 0.5853
816.000000 0.6119 0.6385 0.6651 0.6917 0.7183
821.000000 0.7384 0.7442 0.7472 0.7485 0.7493
826.000000 0.7496 0.7498 0.7480 0.7452 0.7429
831.000000 0.7390 0.7347 0.7304 0.7260 0.7217
836.000000 0.7174 0.7130 0.7087 0.7044 0.7000
841.000000 0.6957 0.6914 0.6870 0.6827 0.6810
846.000000 0.6765 0.6722 0.6696 0.6671 0.6645
851.000000 0.6620 0.6602 0.6596 0.6589 0.6590
856.000000 0.6577 0.6598 0.6604 0.6610 0.6623
861.000000 0.6642 0.6662 0.6686 0.6711 0.6736
866.000000 0.6771 0.6819 0.6867 0.6919 0.6985
871.000000 0.7050 0.7135 0.7225 0.7299 0.7373
876.000000 0.7459 0.7513 0.7559 0.7601 0.7632
881.000000 0.7663 0.7688 0.7707 0.7727 0.7740
886.000000 0.7753 0.7764 0.7772 0.7779 0.7787
891.000000 0.7793 0.7798 0.7803 0.7808 0.7812
896.000000 0.7815 0.7817 0.7819 0.7821 0.7823
901.000000 0.7824 0.7814 0.7819 0.7817 0.7813
906.000000 0.7800 0.7787 0.7775 0.7762 0.7745
911.000000 0.7727 0.7708 0.7680 0.7652 0.7616
916.000000 0.7573 0.7530 0.7463 0.7376 0.7276
921.000000 0.7175 0.7075 0.6975 0.6874 0.6774
926.000000 0.6673 0.6573 0.6473 0.6372 0.6272
931.000000 0.6171 0.6034 0.5964 0.5894 0.5841
936.000000 0.5788 0.5724 0.5650 0.5613 0.5602
941.000000 0.5598 0.5599 0.5577 0.5614 0.5628
946.000000 0.5654 0.5682 0.5819 0.6041 0.6264
951.000000 0.6486 0.6660 0.6883 0.7036 0.7157
956.000000 0.7231 0.7306 0.7380 0.7447 0.7514
961.000000 0.7631 0.7759 0.7833 0.7874 0.7914
966.000000 0.7935 0.7954 0.7972 0.7990 0.8006
971.000000 0.8019 0.8032 0.8045 0.8056 0.8064
976.000000 0.8072 0.8080 0.8081 0.8082 0.8083
981.000000 0.8083 0.8084 0.8085 0.8084 0.8083
986.000000 0.8082 0.8081 0.8080 0.8079 0.8078
991.000000 0.8077 0.8076 0.8074 0.8073 0.8071
996.000000 0.8068 0.8064 0.8060 0.8057 0.8053
1001.000000 0.8045 0.8034 0.8021 0.7990 0.7958
1006.000000 0.7921 0.7881 0.7833 0.7782 0.7745
1011.000000 0.7728 0.7730 0.7738 0.7765 0.7809
1016.000000 0.7833 0.7846 0.7852 0.7851 0.7846
1021.000000 0.7834 0.7816 0.7771 0.7719 0.7667
1026.000000 0.7614 0.7562 0.7509 0.7457 0.7404
1031.000000 0.7352 0.7300 0.7247 0.7195 0.7142
1036.000000 0.7090 0.7037 0.6985 0.6933 0.6880
1041.000000 0.6828 0.6775 0.6705 0.6628 0.6549
1046.000000 0.6466 0.6365 0.6234 0.6059 0.5912
1051.000000 0.5777 0.5651 0.5484 0.5314 0.5144
1056.000000 0.4974 0.4803 0.4633 0.4463 0.4293
1061.000000 0.4123 0.4064 0.4069 0.4075 0.4214
1066.000000 0.4344 0.4475 0.4605 0.4735 0.4866
1071.000000 0.4996 0.5126 0.5257 0.5387 0.5517
1076.000000 0.5619 0.5638 0.5637 0.5651 0.5621
1081.000000 0.5541 0.5268 0.4995 0.4722 0.4449
1086.000000 0.4176 0.3903 0.3629 0.3568 0.3562
1091.000000 0.3791 0.3939 0.4087 0.4234 0.4382
1096.000000 0.4385 0.4385 0.4388 0.4397 0.4409
1101.000000 0.4434 0.4479 0.4527 0.4600 0.4662
1106.000000 0.4701 0.4713 0.4714 0.4737 0.4705
1111.000000 0.4698 0.4691 0.4673 0.4639 0.4592
1116.000000 0.4537 0.4481 0.4365 0.4233 0.4100
1121.000000 0.3968 0.3836 0.3712 0.3660 0.3652
1126.000000 0.3656 0.3665 0.3758 0.3854 0.3949
1131.000000 0.4044 0.4139 0.4234 0.4324 0.4339
1136.000000 0.4341 0.4334 0.4317 0.4019 0.3708
1141.000000 0.3396 0.3085 0.2774 0.2462 0.2151
1146.000000 0.1840 0.1528 0.1217 0.0923 0.0829
1151.000000 0.0703 0.0590 0.0563 0.0564 0.0568
1156.000000 0.0566 0.0580 0.0592 0.0620 0.0700
1161.000000 0.0786 0.0933 0.1293 0.1480 0.1804
1166.000000 0.2337 0.2870 0.3403 0.3937 0.4470
1171.000000 0.5003 0.5536 0.6069 0.6544 0.6601
1176.000000 0.6674 0.6729 0.6762 0.6780 0.6792
1181.000000 0.6867 0.6998 0.7090 0.7174 0.7288
1186.000000 0.7410 0.7446 0.7465 0.7470 0.7475
1191.000000 0.7468 0.7442 0.7421 0.7414 0.7413
1196.000000 0.7416 0.7430 0.7460 0.7508 0.7601
1201.000000 0.7678 0.7747 0.7789 0.7825 0.7861
1206.000000 0.7894 0.7924 0.7942 0.7960 0.7977
1211.000000 0.7995 0.8012 0.8029 0.8040 0.8051
1216.000000 0.8061 0.8072 0.8082 0.8086 0.8090
1221.000000 0.8091 0.8087 0.8082 0.8078 0.8075
1226.000000 0.8069 0.8064 0.8059 0.8054 0.8049
1231.000000 0.8044 0.8039 0.8032 0.8024 0.8017
1236.000000 0.8009 0.8001 0.7992 0.7984 0.7976
1241.000000 0.7968 0.7958 0.7942 0.7926 0.7910
1246.000000 0.7894 0.7871 0.7845 0.7820 0.7794
1251.000000 0.7768 0.7739 0.7708 0.7676 0.7644
1256.000000 0.7589 0.7530 0.7466 0.7396 0.7326
1261.000000 0.7244 0.7139 0.6948 0.6758 0.6567
1266.000000 0.6377 0.6187 0.5996 0.5806 0.5616
1271.000000 0.5425 0.5236 0.5167 0.5108 0.5052
1276.000000 0.5014 0.4976 0.4938 0.4882 0.4814
1281.000000 0.4712 0.4419 0.4360 0.4346 0.4346
1286.000000 0.4418 0.4490 0.4563 0.4636 0.4709
1291.000000 0.4754 0.4754 0.4747 0.4711 0.4597
1296.000000 0.4334 0.4071 0.3807 0.3544 0.3281
1301.000000 0.3075 0.2981 0.2907 0.2834 0.2779
1306.000000 0.2727 0.2649 0.2549 0.2426 0.2082
1311.000000 0.1928 0.1783 0.1739 0.1707 0.1686
1316.000000 0.1670 0.1647 0.1668 0.1675 0.1682
1321.000000 0.1704 0.1746 0.1801 0.1865 0.1937
1326.000000 0.2069 0.2269 0.2469 0.2670 0.2870
1331.000000 0.3070 0.3271 0.3471 0.3672 0.3872
1336.000000 0.4072 0.4273 0.4473 0.4674 0.4874
1341.000000 0.5074 0.5246 0.5316 0.5392 0.5505
1346.000000 0.5618 0.5824 0.6038 0.6203 0.6378
1351.000000 0.6578 0.6700 0.6804 0.6872 0.6923
1356.000000 0.6963 0.6987 0.7002 0.7016 0.7030
1361.000000 0.7037 0.7039 0.7047 0.7033 0.7024
1366.000000 0.7009 0.6985 0.6961 0.6931 0.6900
1371.000000 0.6840 0.6719 0.6562 0.6406 0.6249
1376.000000 0.6092 0.6011 0.5994 0.5983 0.5988
1381.000000 0.6089 0.6190 0.6291 0.6392 0.6492
1386.000000 0.6509 0.6508 0.6516 0.6452 0.6399
1391.000000 0.6346 0.6293 0.6241 0.6188 0.6135
1396.000000 0.6083 0.6030 0.5977 0.5925 0.5872
1401.000000 0.5813 0.5750 0.5715 0.5673 0.5624
1406.000000 0.5578 0.5533 0.5479 0.5421 0.5365
1411.000000 0.5324 0.5283 0.5241 0.5198 0.5153
1416.000000 0.5107 0.5059 0.5034 0.5018 0.5004
1421.000000 0.5002 0.4997 0.5011 0.5021 0.5049
1426.000000 0.5079 0.5123 0.5168 0.5226 0.5290
1431.000000 0.5348 0.5406 0.5464 0.5520 0.5577
1436.000000 0.5625 0.5663 0.5687 0.5664 0.5654
1441.000000 0.5636 0.5610 0.5582 0.5544 0.5496
1446.000000 0.5438 0.5372 0.5302 0.5196 0.5051
1451.000000 0.5011 0.4999 0.4995 0.4988 0.5003
1456.000000 0.5013 0.5036 0.5191 0.5371 0.5550
1461.000000 0.5729 0.5774 0.5801 0.5774 0.5764
1466.000000 0.5749 0.5720 0.5664 0.5624 0.5596
1471.000000 0.5594 0.5597 0.5853 0.6065 0.6277
1476.000000 0.6488 0.6700 0.6912 0.7124 0.7329
1481.000000 0.7387 0.7418 0.7438 0.7466 0.7429
1486.000000 0.7406 0.7375 0.7348 0.7319 0.7303
1491.000000 0.7304 0.7304 0.7474 0.7601 0.7728
1496.000000 0.7855 0.7915 0.7952 0.7982 0.8008
1501.000000 0.8029 0.8048 0.8059 0.8070 0.8081
1506.000000 0.8093 0.8102 0.8109 0.8115 0.8122
1511.000000 0.8128 0.8134 0.8137 0.8140 0.8143
1516.000000 0.8146 0.8150 0.8153 0.8184 0.8159
1521.000000 0.8158 0.8157 0.8156 0.8156 0.8155
1526.000000 0.8154 0.8153 0.8150 0.8146 0.8142
1531.000000 0.8137 0.8133 0.8129 0.8123 0.8114
1536.000000 0.8104 0.8095 0.8085 0.8076 0.8066
1541.000000 0.8057 0.8047 0.8037 0.8027 0.8017
1546.000000 0.8008 0.7998 0.7988 0.7978 0.7968
1551.000000 0.7959 0.7949 0.7939 0.7928 0.7917
1556.000000 0.7906 0.7895 0.7885 0.7879 0.7873
1561.000000 0.7868 0.7862 0.7859 0.7870 0.7882
1566.000000 0.7896 0.7917 0.7937 0.7957 0.7978
1571.000000 0.7999 0.8019 0.8030 0.8032 0.8024
1576.000000 0.8016 0.8007 0.7992 0.7974 0.7929
1581.000000 0.7871 0.7816 0.7780 0.7754 0.7727
1586.000000 0.7701 0.7545 0.7388 0.7230 0.7073
1591.000000 0.6915 0.6781 0.6784 0.6936 0.7110
1596.000000 0.7284 0.7458 0.7632 0.7807 0.7915
1601.000000 0.7996 0.8051 0.8103 0.8137 0.8167
1606.000000 0.8189 0.8212 0.8230 0.8241 0.8251
1611.000000 0.8262 0.8273 0.8279 0.8286 0.8293
1616.000000 0.8299 0.8303 0.8306 0.8309 0.8312
1621.000000 0.8315 0.8318 0.8320 0.8321 0.8322
1626.000000 0.8322 0.8323 0.8324 0.8329 0.8333
1631.000000 0.8338 0.8343 0.8347 0.8352 0.8357
1636.000000 0.8361 0.8366 0.8372 0.8378 0.8384
1641.000000 0.8389 0.8395 0.8401 0.8408 0.8415
1646.000000 0.8422 0.8429 0.8435 0.8442 0.8449
1651.000000 0.8456 0.8463 0.8470 0.8477 0.8484
1656.000000 0.8491 0.8499 0.8506 0.8513 0.8520
1661.000000 0.8527 0.8534 0.8541 0.8548 0.8555
1666.000000 0.8562 0.8568 0.8575 0.8582 0.8588
1671.000000 0.8591 0.8595 0.8599 0.8603 0.8607
1676.000000 0.8611 0.8615 0.8619 0.8622 0.8624
1681.000000 0.8625 0.8626 0.8627 0.8629 0.8630
1686.000000 0.8630 0.8631 0.8620 0.8631 0.8631
1691.000000 0.8631 0.8629 0.8626 0.8622 0.8619
1696.000000 0.8616 0.8613 0.8610 0.8607 0.8604
1701.000000 0.8603 0.8601 0.8600 0.8598 0.8597
1706.000000 0.8596 0.8594 0.8593 0.8591 0.8590
1711.000000 0.8589 0.8587 0.8586 0.8584 0.8583
1716.000000 0.8582 0.8580 0.8579 0.8580 0.8581
1721.000000 0.8582 0.8583 0.8584 0.8585 0.8587
1726.000000 0.8592 0.8600 0.8607 0.8614 0.8625
1731.000000 0.8637 0.8649 0.8662 0.8673 0.8684
1736.000000 0.8695 0.8706 0.8714 0.8716 0.8719
1741.000000 0.8721 0.8724 0.8725 0.8726 0.8728
1746.000000 0.8729 0.8730 0.8731 0.8733 0.8734
1751.000000 0.8735 0.8736 0.8737 0.8739 0.8740
1756.000000 0.8741 0.8743 0.8744 0.8745 0.8747
1761.000000 0.8748 0.8750 0.8752 0.8753 0.8755
1766.000000 0.8756 0.8758 0.8760 0.8761 0.8763
1771.000000 0.8763 0.8762 0.8760 0.8758 0.8757
1776.000000 0.8755 0.8753 0.8752 0.8749 0.8745
1781.000000 0.8740 0.8736 0.8732 0.8728 0.8724
1786.000000 0.8719 0.8715 0.8711 0.8707 0.8702
1791.000000 0.8698 0.8694 0.8690 0.8686 0.8682
1796.000000 0.8677 0.8673 0.8669 0.8665 0.8661
1801.000000 0.8657 0.8653 0.8652 0.8653 0.8653
1806.000000 0.8654 0.8655 0.8655 0.8656 0.8656
1811.000000 0.8657 0.8658 0.8658 0.8659 0.8660
1816.000000 0.8660 0.8661 0.8662 0.8662 0.8663
1821.000000 0.8664 0.8664 0.8665 0.8666 0.8666
1826.000000 0.8667 0.8668 0.8668 0.8669 0.8670
1831.000000 0.8670 0.8671 0.8673 0.8674 0.8675
1836.000000 0.8676 0.8677 0.8678 0.8680 0.8681
1841.000000 0.8682 0.8683 0.8684 0.8685 0.8687
1846.000000 0.8688 0.8689 0.8690 0.8691 0.8692
1851.000000 0.8694 0.8695 0.8696 0.8697 0.8698
1856.000000 0.8699 0.8699 0.8699 0.8698 0.8698
1861.000000 0.8698 0.8698 0.8698 0.8698 0.8698
1866.000000 0.8698 0.8698 0.8698 0.8698 0.8698
1871.000000 0.8698 0.8698 0.8698 0.8698 0.8696
1876.000000 0.8694 0.8693 0.8691 0.8689 0.8688
1881.000000 0.8686 0.8684 0.8682 0.8681 0.8679
1886.000000 0.8677 0.8676 0.8674 0.8672 0.8670
1891.000000 0.8669 0.8664 0.8659 0.8653 0.8648
1896.000000 0.8642 0.8637 0.8632 0.8626 0.8621
1901.000000 0.8616 0.8610 0.8605 0.8601 0.8597
1906.000000 0.8592 0.8588 0.8584 0.8579 0.8576
1911.000000 0.8578 0.8580 0.8582 0.8584 0.8586
1916.000000 0.8588 0.8589 0.8591 0.8593 0.8595
1921.000000 0.8597 0.8600 0.8602 0.8604 0.8606
1926.000000 0.8608 0.8610 0.8613 0.8615 0.8617
1931.000000 0.8619 0.8621 0.8623 0.8625 0.8626
1936.000000 0.8628 0.8630 0.8631 0.8633 0.8642
1941.000000 0.8635 0.8565 0.8495 0.8425 0.8355
1946.000000 0.8285 0.8216 0.8216 0.8336 0.8224
1951.000000 0.8576 0.8672 0.8677 0.8682 0.8687
1956.000000 0.8689 0.8689 0.8689 0.8689 0.8690
1961.000000 0.8690 0.8690 0.8690 0.8690 0.8692
1966.000000 0.8695 0.8698 0.8701 0.8704 0.8708
1971.000000 0.8710 0.8712 0.8713 0.8715 0.8716
1976.000000 0.8718 0.8720 0.8721 0.8723 0.8725
1981.000000 0.8728 0.8731 0.8734 0.8737 0.8740
1986.000000 0.8743 0.8745 0.8748 0.8751 0.8754
1991.000000 0.8757 0.8759 0.8762 0.8764 0.8766
1996.000000 0.8768 0.8770 0.8772 0.8774 0.8776
2001.000000 0.8776 0.8776 0.8775 0.8774 0.8773
2006.000000 0.8773 0.8772 0.8771 0.8770 0.8770
2011.000000 0.8769 0.8769 0.8767 0.8766 0.8762
2016.000000 0.8759 0.8755 0.8752 0.8748 0.8745
2021.000000 0.8742 0.8740 0.8739 0.8739 0.8738
2026.000000 0.8738 0.8737 0.8737 0.8739 0.8741
2031.000000 0.8745 0.8749 0.8752 0.8756 0.8761
2036.000000 0.8767 0.8773 0.8779 0.8784 0.8790
2041.000000 0.8795 0.8800 0.8803 0.8807 0.8810
2046.000000 0.8814 0.8815 0.8817 0.8817 0.8817
2051.000000 0.8817 0.8818 0.8818 0.8818 0.8818
2056.000000 0.8819 0.8819 0.8819 0.8819 0.8820
2061.000000 0.8820 0.8820 0.8820 0.8821 0.8821
2066.000000 0.8821 0.8820 0.8820 0.8820 0.8820
2071.000000 0.8819 0.8819 0.8819 0.8819 0.8818
2076.000000 0.8818 0.8818 0.8818 0.8817 0.8817
2081.000000 0.8816 0.8816 0.8816 0.8816 0.8815
2086.000000 0.8815 0.8815 0.8815 0.8814 0.8814
2091.000000 0.8814 0.8814 0.8813 0.8813 0.8813
2096.000000 0.8814 0.8814 0.8815 0.8816 0.8817
2101.000000 0.8817 0.8818 0.8819 0.8820 0.8820
2106.000000 0.8821 0.8822 0.8823 0.8823 0.8824
2111.000000 0.8823 0.8823 0.8821 0.8820 0.8819
2116.000000 0.8818 0.8817 0.8816 0.8814 0.8813
2121.000000 0.8812 0.8811 0.8810 0.8809 0.8807
2126.000000 0.8806 0.8805 0.8804 0.8803 0.8802
2131.000000 0.8802 0.8802 0.8803 0.8804 0.8805
2136.000000 0.8806 0.8806 0.8807 0.8808 0.8809
2141.000000 0.8809 0.8810 0.8811 0.8812 0.8812
2146.000000 0.8813 0.8813 0.8813 0.8813 0.8813
2151.000000 0.8813 0.8814 0.8814 0.8814 0.8814
2156.000000 0.8814 0.8815 0.8816 0.8817 0.8818
2161.000000 0.8831 0.8844 0.8864 0.8884 0.8895
2166.000000 0.8906 0.8896 0.8886 0.8876 0.8867
2171.000000 0.8858 0.8849 0.8841 0.8834 0.8827
2176.000000 0.8820 0.8812 0.8805 0.8802 0.8800
2181.000000 0.8798 0.8797 0.8796 0.8795 0.8793
2186.000000 0.8792 0.8791 0.8790 0.8789 0.8789
2191.000000 0.8788 0.8787 0.8786 0.8785 0.8784
2196.000000 0.8783 0.8782 0.8782 0.8781 0.8781
2201.000000 0.8780 0.8780 0.8779 0.8779 0.8779
2206.000000 0.8779 0.8778 0.8778 0.8777 0.8777
2211.000000 0.8777 0.8777 0.8776 0.8786 0.8775
2216.000000 0.8774 0.8772 0.8771 0.8770 0.8769
2221.000000 0.8767 0.8766 0.8765 0.8764 0.8762
2226.000000 0.8761 0.8759 0.8758 0.8757 0.8756
2231.000000 0.8754 0.8753 0.8751 0.8750 0.8748
2236.000000 0.8747 0.8745 0.8744 0.8742 0.8740
2241.000000 0.8738 0.8737 0.8735 0.8734 0.8732
2246.000000 0.8731 0.8729 0.8727 0.8725 0.8724
2251.000000 0.8722 0.8721 0.8719 0.8717 0.8715
2256.000000 0.8714 0.8712 0.8711 0.8710 0.8709
2261.000000 0.8708 0.8708 0.8707 0.8706 0.8705
2266.000000 0.8704 0.8703 0.8702 0.8701 0.8700
2271.000000 0.8699 0.8699 0.8698 0.8697 0.8696
2276.000000 0.8695 0.8694 0.8693 0.8692 0.8691
2281.000000 0.8690 0.8690 0.8689 0.8689 0.8688
2286.000000 0.8688 0.8688 0.8688 0.8687 0.8687
2291.000000 0.8687 0.8687 0.8687 0.8687 0.8686
2296.000000 0.8686 0.8687 0.8688 0.8688 0.8689
2301.000000 0.8692 0.8696 0.8702 0.8709 0.8715
2306.000000 0.8721 0.8727 0.8733 0.8738 0.8743
2311.000000 0.8748 0.8753 0.8758 0.8763 0.8768
2316.000000 0.8773 0.8778 0.8783 0.8787 0.8792
2321.000000 0.8796 0.8800 0.8802 0.8804 0.8805
2326.000000 0.8807 0.8809 0.8811 0.8812 0.8814
2331.000000 0.8815 0.8817 0.8818 0.8820 0.8821
2336.000000 0.8823 0.8824 0.8825 0.8826 0.8828
2341.000000 0.8829 0.8830 0.8831 0.8832 0.8833
2346.000000 0.8834 0.8834 0.8835 0.8835 0.8836
2351.000000 0.8836 0.8836 0.8836 0.8836 0.8836
2356.000000 0.8836 0.8836 0.8836 0.8835 0.8834
2361.000000 0.8832 0.8831 0.8829 0.8827 0.8825
2366.000000 0.8824 0.8822 0.8820 0.8818 0.8816
2371.000000 0.8814 0.8813 0.8811 0.8809 0.8807
2376.000000 0.8805 0.8803 0.8802 0.8800 0.8798
2381.000000 0.8796 0.8794 0.8791 0.8789 0.8787
2386.000000 0.8785 0.8783 0.8781 0.8779 0.8777
2391.000000 0.8775 0.8773 0.8771 0.8769 0.8766
2396.000000 0.8764 0.8762 0.8761 0.8761 0.8761
2401.000000 0.8760 0.8760 0.8759 0.8759 0.8759
2406.000000 0.8759 0.8758 0.8758 0.8758 0.8758
2411.000000 0.8757 0.8757 0.8757 0.8757 0.8756
2416.000000 0.8756 0.8756 0.8756 0.8755 0.8755
2421.000000 0.8754 0.8754 0.8753 0.8753 0.8752
2426.000000 0.8752 0.8751 0.8750 0.8749 0.8749
2431.000000 0.8748 0.8748 0.8747 0.8747 0.8746
2436.000000 0.8746 0.8745 0.8745 0.8744 0.8744
2441.000000 0.8743 0.8743 0.8742 0.8742 0.8741
2446.000000 0.8740 0.8739 0.8739 0.8738 0.8738
2451.000000 0.8737 0.8737 0.8736 0.8736 0.8735
2456.000000 0.8735 0.8734 0.8734 0.8735 0.8736
2461.000000 0.8737 0.8738 0.8738 0.8739 0.8740
2466.000000 0.8741 0.8742 0.8743 0.8744 0.8745
2471.000000 0.8745 0.8746 0.8747 0.8748 0.8749
2476.000000 0.8750 0.8751 0.8752 0.8753 0.8754
2481.000000 0.8754 0.8755 0.8756 0.8757 0.8758
2486.000000 0.8759 0.8760 0.8761 0.8761 0.8762
2491.000000 0.8763 0.8764 0.8765 0.8766 0.8766
2496.000000 0.8767 0.8767 0.8768 0.8768 0.8769
2501.000000 0.8769 0.8770 0.8771 0.8772 0.8772
2506.000000 0.8773 0.8773 0.8774 0.8774 0.8775
2511.000000 0.8776 0.8777 0.8776 0.8776 0.8775
2516.000000 0.8775 0.8774 0.8774 0.8773 0.8773
2521.000000 0.8772 0.8772 0.8771 0.8771 0.8770
2526.000000 0.8770 0.8769 0.8769 0.8768 0.8768
2531.000000 0.8767 0.8767 0.8766 0.8766 0.8765
2536.000000 0.8765 0.8761 0.8757 0.8753 0.8749
2541.000000 0.8744 0.8740 0.8736 0.8732 0.8728
2546.000000 0.8724 0.8720 0.8716 0.8712 0.8708
2551.000000 0.8704 0.8700 0.8697 0.8694 0.8693
2556.000000 0.8692 0.8690 0.8689 0.8688 0.8687
2561.000000 0.8686 0.8685 0.8684 0.8683 0.8681
2566.000000 0.8680 0.8679 0.8678 0.8677 0.8676
2571.000000 0.8678 0.8681 0.8684 0.8688 0.8692
2576.000000 0.8696 0.8699 0.8703 0.8707 0.8712
2581.000000 0.8716 0.8720 0.8724 0.8728 0.8731
2586.000000 0.8735 0.8738 0.8741 0.8742 0.8744
2591.000000 0.8745 0.8746 0.8747 0.8748 0.8748
2596.000000 0.8748 0.8748 0.8748 0.8748 0.8748
2601.000000 0.8748 0.8748 0.8748 0.8748 0.8746
2606.000000 0.8745 0.8743 0.8741 0.8739 0.8738
2611.000000 0.8736 0.8735 0.8733 0.8731 0.8729
2616.000000 0.8728 0.8727 0.8726 0.8725 0.8724
2621.000000 0.8723 0.8722 0.8721 0.8721 0.8720
2626.000000 0.8719 0.8718 0.8717 0.8716 0.8715
2631.000000 0.8714 0.8713 0.8712 0.8711 0.8710
2636.000000 0.8709 0.8708 0.8708 0.8707 0.8706
2641.000000 0.8704 0.8703 0.8701 0.8700 0.8698
2646.000000 0.8696 0.8694 0.8693 0.8691 0.8690
2651.000000 0.8688 0.8687 0.8685 0.8683 0.8681
2656.000000 0.8680 0.8678 0.8677 0.8675 0.8674
2661.000000 0.8672 0.8671 0.8669 0.8667 0.8665
2666.000000 0.8664 0.8662 0.8661 0.8659 0.8658
2671.000000 0.8656 0.8655 0.8653 0.8652 0.8650
2676.000000 0.8649 0.8647 0.8646 0.8644 0.8643
2681.000000 0.8641 0.8640 0.8638 0.8637 0.8635
2686.000000 0.8634 0.8632 0.8631 0.8629 0.8628
2691.000000 0.8626 0.8625 0.8623 0.8622 0.8620
2696.000000 0.8619 0.8617 0.8616 0.8614 0.8613
2701.000000 0.8611 0.8610 0.8608 0.8607 0.8605
2706.000000 0.8604 0.8602 0.8601 0.8599 0.8598
2711.000000 0.8596 0.8594 0.8592 0.8591 0.8589
2716.000000 0.8588 0.8586 0.8585 0.8583 0.8582
2721.000000 0.8580 0.8579 0.8577 0.8576 0.8575
2726.000000 0.8574 0.8575 0.8576 0.8576 0.8577
2731.000000 0.8578 0.8579 0.8580 0.8581 0.8582
2736.000000 0.8583 0.8584 0.8586 0.8595 0.8604
2741.000000 0.8612 0.8621 0.8628 0.8635 0.8642
2746.000000 0.8649 0.8653 0.8657 0.8658 0.8659
2751.000000 0.8659 0.8660 0.8658 0.8656 0.8654
2756.000000 0.8652 0.8650 0.8648 0.8645 0.8643
2761.000000 0.8640 0.8638 0.8635 0.8633 0.8630
2766.000000 0.8628 0.8626 0.8624 0.8621 0.8619
2771.000000 0.8615 0.8612 0.8607 0.8603 0.8598
2776.000000 0.8594 0.8588 0.8583 0.8576 0.8569
2781.000000 0.8561 0.8554 0.8547 0.8540 0.8533
2786.000000 0.8526 0.8517 0.8509 0.8498 0.8487
2791.000000 0.8476 0.8466 0.8455 0.8445 0.8434
2796.000000 0.8424 0.8414 0.8404 0.8394 0.8384
2801.000000 0.8374 0.8364 0.8353 0.8343 0.8333
2806.000000 0.8323 0.8313 0.8303 0.8290 0.8277
2811.000000 0.8264 0.8251 0.8238 0.8226 0.8213
2816.000000 0.8200 0.8187 0.8174 0.8155 0.8137
2821.000000 0.8119 0.8101 0.8082 0.8064 0.8046
2826.000000 0.8028 0.8009 0.7991 0.7973 0.7955
2831.000000 0.7936 0.7918 0.7899 0.7881 0.7863
2836.000000 0.7845 0.7826 0.7808 0.7790 0.7772
2841.000000 0.7753 0.7735 0.7717 0.7699 0.7680
2846.000000 0.7662 0.7637 0.7612 0.7583 0.7555
2851.000000 0.7526 0.7497 0.7469 0.7441 0.7413
2856.000000 0.7385 0.7359 0.7334 0.7325 0.7315
2861.000000 0.7319 0.7322 0.7328 0.7335 0.7347
2866.000000 0.7359 0.7368 0.7377 0.7389 0.7401
2871.000000 0.7415 0.7429 0.7442 0.7456 0.7470
2876.000000 0.7484 0.7502 0.7521 0.7539 0.7558
2881.000000 0.7573 0.7588 0.7603 0.7618 0.7630
2886.000000 0.7642 0.7652 0.7663 0.7667 0.7672
2891.000000 0.7672 0.7672 0.7672 0.7640 0.7668
2896.000000 0.7664 0.7657 0.7650 0.7642 0.7634
2901.000000 0.7597 0.7561 0.7524 0.7488 0.7451
2906.000000 0.7414 0.7377 0.7340 0.7303 0.7266
2911.000000 0.7229 0.7193 0.7156 0.7119 0.7082
2916.000000 0.7045 0.7019 0.6994 0.6983 0.6972
2921.000000 0.6972 0.6973 0.6989 0.6962 0.7039
2926.000000 0.7073 0.7106 0.7140 0.7173 0.7206
2931.000000 0.7239 0.7273 0.7306 0.7340 0.7361
2936.000000 0.7382 0.7384 0.7386 0.7386 0.7392
2941.000000 0.7380 0.7374 0.7359 0.7345 0.7317
2946.000000 0.7290 0.7254 0.7219 0.7145 0.7072
2951.000000 0.6998 0.6924 0.6850 0.6777 0.6703
2956.000000 0.6629 0.6555 0.6482 0.6408 0.6334
2961.000000 0.6260 0.6186 0.6112 0.6039 0.5985
2966.000000 0.5932 0.5922 0.5913 0.5913 0.5923
2971.000000 0.5920 0.5926 0.5990 0.6054 0.6208
2976.000000 0.6363 0.6517 0.6672 0.6826 0.6981
2981.000000 0.7135 0.7290 0.7444 0.7599 0.7753
2986.000000 0.7908 0.7940 0.7973 0.8010 0.8047
2991.000000 0.8063 0.8080 0.8089 0.8099 0.8104
2996.000000 0.8109 0.8109 0.8110 0.8110 0.8112
3001.000000 0.8111 0.8112 0.8112 0.8112 0.8112
3006.000000 0.8113 0.8113 0.8113 0.8112 0.8111
3011.000000 0.8110 0.8110 0.8109 0.8108 0.8107
3016.000000 0.8106 0.8103 0.8100 0.8096 0.8093
3021.000000 0.8090 0.8087 0.8084 0.8081 0.8073
3026.000000 0.8066 0.8053 0.8041 0.8023 0.8005
3031.000000 0.7989 0.7973 0.7958 0.7943 0.7928
3036.000000 0.7913 0.7901 0.7889 0.7878 0.7867
3041.000000 0.7863 0.7860 0.7858 0.7857 0.7858
3046.000000 0.7836 0.7859 0.7860 0.7865 0.7871
3051.000000 0.7881 0.7892 0.7906 0.7920 0.7941
3056.000000 0.7963 0.7984 0.8005 0.8025 0.8046
3061.000000 0.8063 0.8081 0.8097 0.8114 0.8129
3066.000000 0.8145 0.8156 0.8167 0.8168 0.8170
3071.000000 0.8171 0.8173 0.8174 0.8175 0.8176
3076.000000 0.8178 0.8179 0.8180 0.8180 0.8181
3081.000000 0.8182 0.8184 0.8185 0.8187 0.8188
3086.000000 0.8190 0.8191 0.8193 0.8196 0.8199
3091.000000 0.8202 0.8205 0.8208 0.8211 0.8213
3096.000000 0.8215 0.8216 0.8218 0.8219 0.8221
3101.000000 0.8222 0.8224 0.8224 0.8226 0.8224
3106.000000 0.8223 0.8222 0.8221 0.8219 0.8217
3111.000000 0.8214 0.8212 0.8209 0.8207 0.8204
3116.000000 0.8202 0.8199 0.8196 0.8193 0.8191
3121.000000 0.8188 0.8186 0.8181 0.8177 0.8172
3126.000000 0.8167 0.8162 0.8158 0.8153 0.8148
3131.000000 0.8143 0.8139 0.8133 0.8127 0.8121
3136.000000 0.8115 0.8108 0.8102 0.8096 0.8090
3141.000000 0.8083 0.8077 0.8071 0.8065 0.8057
3146.000000 0.8050 0.8041 0.8033 0.8024 0.8015
3151.000000 0.8006 0.7998 0.7989 0.7981 0.7972
3156.000000 0.7964 0.7951 0.7938 0.7924 0.7911
3161.000000 0.7897 0.7884 0.7870 0.7857 0.7843
3166.000000 0.7830 0.7813 0.7797 0.7780 0.7764
3171.000000 0.7747 0.7730 0.7713 0.7697 0.7679
3176.000000 0.7661 0.7636 0.7611 0.7586 0.7561
3181.000000 0.7536 0.7512 0.7487 0.7462 0.7437
3186.000000 0.7412 0.7383 0.7354 0.7324 0.7295
3191.000000 0.7265 0.7235 0.7205 0.7175 0.7132
3196.000000 0.7090 0.7044 0.6999 0.6953 0.6908
3201.000000 0.6860 0.6813 0.6764 0.6716 0.6668
3206.000000 0.6620 0.6565 0.6511 0.6455 0.6399
3211.000000 0.6342 0.6286 0.6229 0.6173 0.6117
3216.000000 0.6061 0.6004 0.5948 0.5891 0.5835
3221.000000 0.5778 0.5722 0.5666 0.5610 0.5553
3226.000000 0.5497 0.5440 0.5384 0.5328 0.5272
3231.000000 0.5215 0.5159 0.5102 0.5046 0.4989
3236.000000 0.4933 0.4877 0.4821 0.4764 0.4708
3241.000000 0.4666 0.4624 0.4591 0.4559 0.4519
3246.000000 0.4479 0.4405 0.4332 0.4266 0.4201
3251.000000 0.4139 0.4078 0.4047 0.4016 0.3984
3256.000000 0.3953 0.3921 0.3890 0.3862 0.3834
3261.000000 0.3809 0.3784 0.3758 0.3733 0.3712
3266.000000 0.3691 0.3673 0.3655 0.3647 0.3640
3271.000000 0.3635 0.3631 0.3626 0.3622 0.3622
3276.000000 0.3622 0.3622 0.3622 0.3624 0.3627
3281.000000 0.3629 0.3632 0.3638 0.3645 0.3653
3286.000000 0.3661 0.3676 0.3691 0.3706 0.3722
3291.000000 0.3737 0.3753 0.3783 0.3813 0.3845
3296.000000 0.3878 0.3915 0.3952 0.3989 0.4027
3301.000000 0.4069 0.4112 0.4160 0.4208 0.4256
3306.000000 0.4304 0.4352 0.4400 0.4448 0.4496
3311.000000 0.4544 0.4592 0.4640 0.4688 0.4736
3316.000000 0.4784 0.4831 0.4879 0.4927 0.4975
3321.000000 0.5023 0.5071 0.5119 0.5167 0.5269
3326.000000 0.5372 0.5454 0.5537 0.5579 0.5622
3331.000000 0.5664 0.5706 0.5746 0.5787 0.5827
3336.000000 0.5868 0.5929 0.5991 0.6060 0.6129
3341.000000 0.6208 0.6287 0.6364 0.6442 0.6482
3346.000000 0.6523 0.6563 0.6604 0.6645 0.6686
3351.000000 0.6726 0.6767 0.6819 0.6871 0.6927
3356.000000 0.6984 0.7040 0.7096 0.7145 0.7194
3361.000000 0.7239 0.7284 0.7329 0.7374 0.7418
3366.000000 0.7462 0.7494 0.7527 0.7560 0.7593
3371.000000 0.7625 0.7658 0.7690 0.7723 0.7747
3376.000000 0.7771 0.7794 0.7818 0.7841 0.7865
3381.000000 0.7888 0.7912 0.7935 0.7959 0.7983
3386.000000 0.8007 0.8031 0.8056 0.8081 0.8106
3391.000000 0.8130 0.8155 0.8179 0.8204 0.8224
3396.000000 0.8244 0.8260 0.8277 0.8294 0.8311
3401.000000 0.8327 0.8344 0.8355 0.8366 0.8376
3406.000000 0.8387 0.8397 0.8408 0.8418 0.8429
3411.000000 0.8439 0.8449 0.8455 0.8461 0.8467
3416.000000 0.8474 0.8480 0.8486 0.8492 0.8498
3421.000000 0.8504 0.8510 0.8516 0.8522 0.8528
3426.000000 0.8535 0.8538 0.8542 0.8544 0.8547
3431.000000 0.8550 0.8553 0.8555 0.8558 0.8561
3436.000000 0.8564 0.8566 0.8569 0.8571 0.8574
3441.000000 0.8573 0.8573 0.8572 0.8572 0.8572
3446.000000 0.8572 0.8571 0.8570 0.8569 0.8568
3451.000000 0.8566 0.8565 0.8564 0.8563 0.8561
3456.000000 0.8560 0.8559 0.8558 0.8556 0.8555
3461.000000 0.8554 0.8553 0.8551 0.8549 0.8546
3466.000000 0.8543 0.8540 0.8537 0.8534 0.8531
3471.000000 0.8528 0.8525 0.8522 0.8519 0.8516
3476.000000 0.8513 0.8510 0.8507 0.8503 0.8500
3481.000000 0.8496 0.8493 0.8489 0.8486 0.8482
3486.000000 0.8479 0.8475 0.8472 0.8468 0.8465
3491.000000 0.8461 0.8458 0.8454 0.8451 0.8450
3496.000000 0.8449 0.8448 0.8447 0.8446 0.8445
3501.000000 0.8444 0.8443 0.8442 0.8441 0.8440
3506.000000 0.8439 0.8438 0.8437 0.8436 0.8435
3511.000000 0.8434 0.8433 0.8432 0.8431 0.8430
3516.000000 0.8429 0.8428 0.8427 0.8426 0.8425
3521.000000 0.8424 0.8424 0.8423 0.8423 0.8422
3526.000000 0.8422 0.8421 0.8421 0.8420 0.8420
3531.000000 0.8420 0.8420 0.8419 0.8419 0.8418
3536.000000 0.8418 0.8417 0.8417 0.8416 0.8416
3541.000000 0.8416 0.8416 0.8415 0.8415 0.8415
3546.000000 0.8415 0.8415 0.8415 0.8415 0.8415
3551.000000 0.8415 0.8415 0.8414 0.8414 0.8414
3556.000000 0.8414 0.8414 0.8414 0.8414 0.8414
3561.000000 0.8414 0.8414 0.8413 0.8413 0.8413
3566.000000 0.8414 0.8415 0.8416 0.8417 0.8418
3571.000000 0.8419 0.8420 0.8420 0.8421 0.8422
3576.000000 0.8423 0.8424 0.8425 0.8426 0.8427
3581.000000 0.8427 0.8428 0.8430 0.8433 0.8436
3586.000000 0.8440 0.8443 0.8447 0.8450 0.8454
3591.000000 0.8457 0.8460 0.8463 0.8467 0.8470
3596.000000 0.8474 0.8477 0.8481 0.8484 0.8487
3601.000000 0.8490 0.8494 0.8498 0.8503 0.8507
3606.000000 0.8512 0.8516 0.8520 0.8524 0.8529
3611.000000 0.8533 0.8538 0.8542 0.8546 0.8550
3616.000000 0.8555 0.8559 0.8564 0.8568 0.8573
3621.000000 0.8577 0.8581 0.8585 0.8590 0.8594
3626.000000 0.8599 0.8603 0.8607 0.8611 0.8616
3631.000000 0.8620 0.8624 0.8628 0.8632 0.8636
3636.000000 0.8640 0.8643 0.8647 0.8651 0.8655
3641.000000 0.8659 0.8663 0.8666 0.8670 0.8674
3646.000000 0.8678 0.8682 0.8686 0.8689 0.8693
3651.000000 0.8697 0.8701 0.8705 0.8709 0.8713
3656.000000 0.8717 0.8718 0.8720 0.8721 0.8723
3661.000000 0.8724 0.8726 0.8727 0.8729 0.8730
3666.000000 0.8731 0.8732 0.8734 0.8735 0.8737
3671.000000 0.8738 0.8740 0.8739 0.8739 0.8738
3676.000000 0.8737 0.8736 0.8735 0.8734 0.8733
3681.000000 0.8731 0.8741 0.8729 0.8728 0.8727
3686.000000 0.8726 0.8725 0.8724 0.8722 0.8721
3691.000000 0.8720 0.8719 0.8718 0.8717 0.8716
3696.000000 0.8715 0.8714 0.8713 0.8711 0.8710
3701.000000 0.8709 0.8708 0.8707 0.8706 0.8705
3706.000000 0.8704 0.8703 0.8702 0.8700 0.8699
3711.000000 0.8698 0.8697 0.8696 0.8695 0.8694
3716.000000 0.8693 0.8692 0.8691 0.8691 0.8691
3721.000000 0.8691 0.8692 0.8692 0.8692 0.8692
3726.000000 0.8693 0.8693 0.8693 0.8693 0.8693
3731.000000 0.8693 0.8694 0.8694 0.8694 0.8694
3736.000000 0.8695 0.8695 0.8695 0.8695 0.8696
3741.000000 0.8696 0.8696 0.8696 0.8697 0.8697
3746.000000 0.8698 0.8698 0.8699 0.8699 0.8700
3751.000000 0.8700 0.8701 0.8702 0.8703 0.8703
3756.000000 0.8704 0.8704 0.8705 0.8705 0.8706
3761.000000 0.8706 0.8707 0.8707 0.8708 0.8708
3766.000000 0.8708
##END=
