##TITLE=N,N'-DI-Beta-NAPHTHYL-P-PHENYLENE DIAMINE
##JCAMP-DX=4.24
##DATA TYPE=INFRARED SPECTRUM
##CLASS=COBLENTZ
##ORIGIN=US INDUSTRIAL CHEMICALS COMPANY, CINCINNATI, OHIO
##OWNER=COBLENTZ SOCIETY
Collection (C) 2018 copyright by the U.S. Secretary of Commerce
on behalf of the United States of America. All rights reserved.
##DATE=Not specified, most likely prior to 1970
##NAMES=N<1>,N<3>-di(2-naphthyl)-1,3-benzenediamine
##MOLFORM=C26 H20 N2
##SOURCE REFERENCE=COBLENTZ NO. 2113
##$NIST ID=B6002113
##$NIST SOURCE=COBLENTZ
##$NIST IMAGE=cob2113
##SPECTROMETER/DATA SYSTEM=PERKIN-ELMER (GRATING)
##STATE=SOLID (0.99% IN KBr DISC)
##PATH LENGTH=0.040 CM
##SAMPLING PROCEDURE=TRANSMISSION
##RESOLUTION=4
##DATA PROCESSING=DIGITIZED BY NIST FROM HARD COPY (FROM TWO SEGMENTS)
##XUNITS=1/CM
##YUNITS=TRANSMITTANCE
##XFACTOR=1.000000
##YFACTOR=1
##DELTAX=0.844705
##FIRSTX=602.859
##LASTX=3992.66
##FIRSTY=0.746
##MAXX=3992.66
##MINX=602.859
##MAXY=0.906
##MINY=0.049
##NPOINTS=4014
##XYDATA=(X++(Y..Y))
602.859000 0.7460 0.7440 0.7420 0.7390 0.7370
607.082527 0.7360 0.7340 0.7320 0.7320 0.7300
611.306055 0.7300 0.7290 0.7290 0.7290 0.7300
615.529582 0.7300 0.7320 0.7320 0.7340 0.7340
619.753110 0.7340 0.7360 0.7360 0.7370 0.7370
623.976637 0.7370 0.7370 0.7370 0.7370 0.7370
628.200164 0.7360 0.7340 0.7320 0.7300 0.7270
632.423692 0.7240 0.7170 0.7120 0.7070 0.7020
636.647219 0.6980 0.6950 0.6810 0.6750 0.6710
640.870747 0.6630 0.6560 0.6530 0.6560 0.6679
645.094274 0.6830 0.7360 0.7560 0.7610 0.7690
649.317801 0.7690 0.7710 0.7730 0.7740 0.7760
653.541329 0.7800 0.7800 0.7810 0.7810 0.7830
657.764856 0.7830 0.7850 0.7850 0.7860 0.7860
661.988383 0.7880 0.7880 0.7880 0.7880 0.7880
666.211911 0.7900 0.7900 0.7900 0.7900 0.7900
670.435438 0.7900 0.7900 0.7900 0.7900 0.7900
674.658966 0.7900 0.7880 0.7880 0.7880 0.7880
678.882493 0.7880 0.7880 0.7880 0.7880 0.7900
683.106020 0.7900 0.7900 0.7900 0.7900 0.7900
687.329548 0.7900 0.7900 0.7900 0.7900 0.7900
691.553075 0.7880 0.7880 0.7880 0.7880 0.7880
695.776603 0.7880 0.7880 0.7880 0.7860 0.7860
700.000130 0.7860 0.7860 0.7850 0.7850 0.7830
704.223657 0.7810 0.7810 0.7800 0.7780 0.7760
708.447185 0.7740 0.7740 0.7730 0.7710 0.7710
712.670712 0.7690 0.7690 0.7680 0.7680 0.7660
716.894240 0.7630 0.7590 0.7590 0.7580 0.7580
721.117767 0.7560 0.7510 0.7440 0.7360 0.7270
725.341294 0.7140 0.6971 0.6711 0.6372 0.5903
729.564822 0.5290 0.4501 0.3791 0.3241 0.3230
733.788349 0.3240 0.3599 0.3819 0.3850 0.3850
738.011877 0.3820 0.3770 0.3730 0.3670 0.3620
742.235404 0.3580 0.3570 0.3570 0.3580 0.3630
746.458931 0.3670 0.3770 0.3840 0.3940 0.4090
750.682459 0.4359 0.4768 0.4969 0.5139 0.5269
754.905986 0.5430 0.5560 0.5730 0.5900 0.6139
759.129514 0.6389 0.6639 0.6799 0.6860 0.6900
763.353041 0.6980 0.7080 0.7140 0.7170 0.7250
767.576568 0.7290 0.7360 0.7370 0.7390 0.7390
771.800096 0.7410 0.7410 0.7420 0.7420 0.7420
776.023623 0.7420 0.7410 0.7410 0.7390 0.7370
780.247150 0.7360 0.7320 0.7290 0.7240 0.7190
784.470678 0.7140 0.7070 0.7000 0.6920 0.6811
788.694205 0.6730 0.6640 0.6580 0.6490 0.6410
792.917733 0.6320 0.6240 0.6120 0.5981 0.5831
797.141260 0.5660 0.5460 0.5220 0.4950 0.4631
801.364787 0.4281 0.3871 0.3412 0.2912 0.2333
805.588315 0.1700 0.1010 0.0990 0.0990 0.1010
809.811842 0.1030 0.1080 0.1130 0.1379 0.1738
814.035370 0.1970 0.2180 0.2380 0.3179 0.3190
818.258897 0.3230 0.3230 0.3230 0.3230 0.3210
822.482424 0.3180 0.3180 0.3180 0.3190 0.3280
826.705952 0.3360 0.3460 0.3550 0.3630 0.3650
830.929479 0.3630 0.3620 0.3600 0.3550 0.3500
835.153007 0.3460 0.3430 0.3410 0.3400 0.3380
839.376534 0.3350 0.3310 0.3280 0.3190 0.3160
843.600061 0.3110 0.3070 0.3020 0.3010 0.3010
847.823589 0.3020 0.3020 0.3060 0.3070 0.3070
852.047116 0.3110 0.3280 0.3509 0.3839 0.4278
856.270644 0.5020 0.5660 0.6220 0.6630 0.6900
860.494171 0.6980 0.7080 0.7100 0.7080 0.7050
864.717698 0.6970 0.6860 0.6730 0.6590 0.6460
868.941226 0.6310 0.6140 0.6020 0.5821 0.5750
873.164753 0.5730 0.5680 0.5660 0.5680 0.5730
877.388281 0.5969 0.6319 0.6659 0.7019 0.7299
881.611808 0.7540 0.7680 0.7800 0.7800 0.7810
885.835335 0.7810 0.7830 0.7830 0.7830 0.7830
890.058863 0.7830 0.7830 0.7830 0.7830 0.7830
894.282390 0.7850 0.7850 0.7850 0.7860 0.7860
898.505917 0.7860 0.7880 0.7880 0.7880 0.7880
902.729445 0.7880 0.7880 0.7880 0.7860 0.7860
906.952972 0.7860 0.7850 0.7850 0.7850 0.7850
911.176500 0.7850 0.7850 0.7850 0.7850 0.7850
915.400027 0.7850 0.7850 0.7850 0.7850 0.7850
919.623554 0.7850 0.7850 0.7850 0.7830 0.7830
923.847082 0.7830 0.7830 0.7830 0.7810 0.7800
928.070609 0.7800 0.7780 0.7740 0.7740 0.7710
932.294137 0.7680 0.7610 0.7580 0.7520 0.7440
936.517664 0.7320 0.7200 0.7071 0.6931 0.6781
940.741191 0.6640 0.6490 0.6360 0.6220 0.5881
944.964719 0.5850 0.5850 0.5850 0.5850 0.5850
949.188246 0.5850 0.5830 0.5780 0.5600 0.5440
953.411774 0.5440 0.5460 0.5759 0.6198 0.6588
957.635301 0.6850 0.7030 0.7140 0.7240 0.7320
961.858828 0.7440 0.7470 0.7540 0.7689 0.7849
966.082356 0.7900 0.7950 0.7980 0.7980 0.8020
970.305883 0.8030 0.8070 0.8080 0.8100 0.8100
974.529411 0.8100 0.8120 0.8120 0.8120 0.8120
978.752938 0.8100 0.8100 0.8100 0.8080 0.8080
982.976465 0.8080 0.8070 0.8070 0.8070 0.8050
987.199993 0.8050 0.8050 0.8030 0.8020 0.8020
991.423520 0.8000 0.8000 0.7980 0.7960 0.7950
995.647048 0.7930 0.7910 0.7910 0.7900 0.7880
999.870575 0.7860 0.7830 0.7740 0.7660 0.7580
1004.094102 0.7490 0.7410 0.7300 0.7200 0.7100
1008.317630 0.6980 0.6830 0.6710 0.6660 0.6630
1012.541157 0.6630 0.6640 0.6879 0.7049 0.7249
1016.764684 0.7590 0.7780 0.7910 0.8000 0.8050
1020.988212 0.8070 0.8070 0.8080 0.8080 0.8100
1025.211739 0.8100 0.8100 0.8100 0.8120 0.8120
1029.435267 0.8120 0.8120 0.8120 0.8120 0.8120
1033.658794 0.8120 0.8120 0.8120 0.8120 0.8120
1037.882321 0.8120 0.8120 0.8120 0.8120 0.8120
1042.105849 0.8120 0.8120 0.8120 0.8120 0.8120
1046.329376 0.8120 0.8120 0.8120 0.8120 0.8120
1050.552904 0.8120 0.8120 0.8130 0.8130 0.8130
1054.776431 0.8130 0.8130 0.8130 0.8130 0.8130
1058.999958 0.8130 0.8130 0.8130 0.8130 0.8130
1063.223486 0.8130 0.8130 0.8120 0.8120 0.8120
1067.447013 0.8120 0.8100 0.8100 0.8100 0.8100
1071.670541 0.8080 0.8080 0.8080 0.8080 0.8070
1075.894068 0.8070 0.8070 0.8050 0.8050 0.8030
1080.117595 0.8030 0.8030 0.8020 0.8020 0.8020
1084.341123 0.8020 0.8020 0.8020 0.8020 0.8000
1088.564650 0.8000 0.7980 0.7980 0.7960 0.7960
1092.788178 0.7950 0.7910 0.7910 0.7900 0.7860
1097.011705 0.7810 0.7780 0.7740 0.7730 0.7710
1101.235232 0.7680 0.7610 0.7540 0.7440 0.7370
1105.458760 0.7270 0.7120 0.6881 0.6611 0.6421
1109.682287 0.6290 0.6120 0.6100 0.6120 0.6270
1113.905814 0.6270 0.6290 0.6290 0.6270 0.6051
1118.129342 0.5290 0.4240 0.4070 0.4070 0.4110
1122.352869 0.4240 0.5267 0.6087 0.6926 0.7338
1126.576397 0.7490 0.7540 0.7560 0.7560 0.7560
1130.799924 0.7520 0.7470 0.7440 0.7410 0.7360
1135.023451 0.7290 0.7200 0.7140 0.7070 0.6980
1139.246979 0.6880 0.6860 0.6850 0.6860 0.7049
1143.470506 0.7120 0.7200 0.7300 0.7320 0.7320
1147.694034 0.7290 0.7250 0.7240 0.7250 0.7250
1151.917561 0.7270 0.7290 0.7320 0.7340 0.7340
1156.141088 0.7340 0.7340 0.7320 0.7270 0.7270
1160.364616 0.7220 0.7170 0.7120 0.7070 0.7000
1164.588143 0.6970 0.6930 0.6830 0.6681 0.6630
1168.811671 0.6590 0.6480 0.6310 0.6090 0.5870
1173.035198 0.5611 0.5391 0.5191 0.5001 0.4751
1177.258725 0.4720 0.4720 0.4830 0.5439 0.5929
1181.482253 0.6339 0.6659 0.6899 0.7049 0.7140
1185.705780 0.7220 0.7320 0.7340 0.7340 0.7340
1189.929308 0.7340 0.7300 0.7300 0.7290 0.7270
1194.152835 0.7270 0.7250 0.7240 0.7200 0.7150
1198.376362 0.7100 0.6970 0.6860 0.6800 0.6730
1202.599890 0.6680 0.6630 0.6580 0.6480 0.6370
1206.823417 0.6220 0.6021 0.5751 0.5611 0.5530
1211.046945 0.5490 0.5530 0.5600 0.5660 0.5780
1215.270472 0.5830 0.5880 0.5930 0.5950 0.5950
1219.493999 0.5950 0.5930 0.5880 0.5780 0.5650
1223.717527 0.5480 0.5271 0.5021 0.4721 0.4342
1227.941054 0.3939 0.3450 0.2920 0.2300 0.2260
1232.164581 0.2260 0.2300 0.2629 0.3058 0.3697
1236.388109 0.4261 0.4730 0.5140 0.5480 0.5760
1240.611636 0.6000 0.6190 0.6320 0.6440 0.6530
1244.835164 0.6610 0.6660 0.6700 0.6700 0.6680
1249.058691 0.6660 0.6660 0.6660 0.6630 0.6630
1253.282218 0.6610 0.6610 0.6540 0.6480 0.6370
1257.505746 0.6270 0.6190 0.6100 0.6050 0.5761
1261.729273 0.5560 0.5410 0.5320 0.5290 0.5270
1265.952801 0.5270 0.5320 0.5360 0.5390 0.5390
1270.176328 0.5430 0.5480 0.5490 0.5490 0.5490
1274.399855 0.5480 0.5380 0.5220 0.5021 0.4771
1278.623383 0.4499 0.4190 0.3890 0.3570 0.3240
1282.846910 0.2940 0.2651 0.2401 0.2181 0.1961
1287.070438 0.1750 0.1550 0.1400 0.1250 0.1130
1291.293965 0.1030 0.0990 0.0940 0.0890 0.0840
1295.517492 0.0790 0.0770 0.0770 0.0770 0.0770
1299.741020 0.0770 0.0770 0.0770 0.0810 0.0890
1303.964547 0.1010 0.1160 0.1350 0.1570 0.1889
1308.188075 0.2209 0.2569 0.2889 0.3189 0.3409
1312.411602 0.3570 0.3700 0.3850 0.3990 0.4140
1316.635129 0.4280 0.4390 0.4530 0.4650 0.4750
1320.858657 0.4870 0.4950 0.5040 0.5120 0.5170
1325.082184 0.5190 0.5190 0.5160 0.5050 0.5040
1329.305712 0.5000 0.4970 0.4950 0.4940 0.4920
1333.529239 0.4940 0.4990 0.5070 0.5219 0.5339
1337.752766 0.5440 0.5560 0.5680 0.5780 0.5900
1341.976294 0.6000 0.6090 0.6150 0.6200 0.6220
1346.199821 0.6220 0.6220 0.6220 0.6220 0.6220
1350.423348 0.6220 0.6220 0.6220 0.6200 0.6200
1354.646876 0.6200 0.6200 0.6220 0.6220 0.6240
1358.870403 0.6240 0.6270 0.6290 0.6320 0.6320
1363.093931 0.6340 0.6370 0.6420 0.6530 0.6590
1367.317458 0.6680 0.6710 0.6730 0.6780 0.6800
1371.540985 0.6830 0.6850 0.6860 0.6860 0.6860
1375.764513 0.6850 0.6830 0.6810 0.6810 0.6830
1379.988040 0.6850 0.6860 0.6860 0.6900 0.6920
1384.211568 0.6920 0.6920 0.6900 0.6860 0.6780
1388.435095 0.6710 0.6640 0.6580 0.6310 0.6170
1392.658622 0.6100 0.5980 0.5731 0.5262 0.4463
1396.882150 0.3939 0.3530 0.3090 0.3010 0.3090
1401.105677 0.3579 0.4558 0.5318 0.5928 0.6368
1405.329205 0.6710 0.6950 0.7100 0.7220 0.7300
1409.552732 0.7390 0.7420 0.7440 0.7460 0.7460
1413.776259 0.7460 0.7460 0.7460 0.7440 0.7420
1417.999787 0.7420 0.7410 0.7390 0.7370 0.7360
1422.223314 0.7300 0.7270 0.7240 0.7200 0.7140
1426.446842 0.7080 0.7020 0.6950 0.6880 0.6880
1430.670369 0.6760 0.6610 0.6460 0.6370 0.6360
1434.893896 0.6320 0.6310 0.6310 0.6310 0.6320
1439.117424 0.6420 0.6510 0.6610 0.6710 0.6760
1443.340951 0.6780 0.6780 0.6800 0.6780 0.6760
1447.564479 0.6730 0.6710 0.6630 0.6480 0.6310
1451.788006 0.6100 0.5920 0.5760 0.5650 0.5610
1456.011533 0.5480 0.5410 0.5310 0.5190 0.4870
1460.235061 0.4850 0.4870 0.4970 0.5090 0.5210
1464.458588 0.5360 0.5510 0.5680 0.5830 0.5920
1468.682115 0.5930 0.5970 0.5980 0.5980 0.5970
1472.905643 0.5950 0.5930 0.5920 0.5880 0.5820
1477.129170 0.5710 0.5610 0.5490 0.5360 0.5211
1481.352698 0.4990 0.4700 0.4330 0.3801 0.3401
1485.576225 0.3131 0.2921 0.2771 0.2650 0.2531
1489.799752 0.2380 0.1940 0.1640 0.1160 0.1030
1494.023280 0.0890 0.0740 0.0640 0.0570 0.0520
1498.246807 0.0490 0.0490 0.0490 0.0490 0.0490
1502.470335 0.0490 0.0490 0.0490 0.0490 0.0490
1506.693862 0.0500 0.0550 0.0600 0.0640 0.0710
1510.917389 0.0770 0.0840 0.1009 0.1030 0.1040
1515.140917 0.1040 0.1040 0.1030 0.1010 0.1010
1519.364444 0.1010 0.1010 0.1030 0.1030 0.1030
1523.587972 0.1060 0.1150 0.1250 0.1370 0.1500
1527.811499 0.1700 0.1909 0.2408 0.2789 0.3188
1532.035026 0.3380 0.3570 0.3840 0.4240 0.4889
1536.258554 0.5798 0.6169 0.6419 0.6460 0.6490
1540.482081 0.6510 0.6530 0.6540 0.6560 0.6560
1544.705609 0.6560 0.6560 0.6560 0.6580 0.6580
1548.929136 0.6540 0.6510 0.6490 0.6480 0.6460
1553.152663 0.6420 0.6410 0.6370 0.6360 0.6360
1557.376191 0.6320 0.6320 0.6320 0.6270 0.6260
1561.599718 0.6190 0.6100 0.6020 0.5920 0.5830
1565.823245 0.5760 0.5710 0.5700 0.5700 0.5700
1570.046773 0.5730 0.5730 0.5730 0.5730 0.5730
1574.270300 0.5730 0.5730 0.5710 0.5680 0.5650
1578.493828 0.5630 0.5610 0.5560 0.5510 0.5430
1582.717355 0.5290 0.5140 0.4990 0.4870 0.4720
1586.940882 0.4560 0.4380 0.4141 0.3841 0.3461
1591.164410 0.3009 0.2449 0.1750 0.1200 0.1160
1595.387937 0.1160 0.1160 0.1180 0.1300 0.1529
1599.611465 0.1871 0.2301 0.2740 0.3140 0.3480
1603.834992 0.3680 0.3720 0.3969 0.3990 0.3990
1608.058519 0.3970 0.3900 0.3770 0.3580 0.3180
1612.282047 0.2701 0.2231 0.1911 0.1820 0.1740
1616.505574 0.1520 0.1330 0.1150 0.1040 0.0940
1620.729102 0.0820 0.0810 0.0810 0.0840 0.0910
1624.952629 0.0941 0.1230 0.1500 0.1790 0.2080
1629.176156 0.2380 0.2869 0.3509 0.4457 0.5138
1633.399684 0.5710 0.5900 0.5970 0.6140 0.6290
1637.623211 0.6410 0.6510 0.6610 0.6710 0.6850
1641.846739 0.7000 0.7170 0.7270 0.7360 0.7370
1646.070266 0.7420 0.7440 0.7440 0.7460 0.7460
1650.293793 0.7540 0.7580 0.7590 0.7630 0.7690
1654.517321 0.7710 0.7730 0.7730 0.7760 0.7780
1658.740848 0.7780 0.7800 0.7810 0.7810 0.7810
1662.964376 0.7830 0.7830 0.7850 0.7850 0.7860
1667.187903 0.7860 0.7860 0.7900 0.7910 0.7910
1671.411430 0.7930 0.7950 0.7960 0.7980 0.8000
1675.634958 0.8020 0.8020 0.8020 0.8020 0.8020
1679.858485 0.8030 0.8030 0.8030 0.8030 0.8050
1684.082012 0.8050 0.8050 0.8050 0.8070 0.8070
1688.305540 0.8080 0.8080 0.8080 0.8100 0.8100
1692.529067 0.8120 0.8120 0.8120 0.8130 0.8130
1696.752595 0.8150 0.8150 0.8170 0.8170 0.8180
1700.976122 0.8180 0.8200 0.8200 0.8200 0.8200
1705.199649 0.8200 0.8200 0.8200 0.8200 0.8220
1709.423177 0.8220 0.8240 0.8240 0.8240 0.8250
1713.646704 0.8250 0.8250 0.8250 0.8250 0.8250
1717.870232 0.8250 0.8250 0.8270 0.8270 0.8290
1722.093759 0.8290 0.8290 0.8300 0.8300 0.8300
1726.317286 0.8320 0.8320 0.8320 0.8340 0.8340
1730.540814 0.8340 0.8350 0.8350 0.8350 0.8350
1734.764341 0.8370 0.8370 0.8370 0.8370 0.8370
1738.987869 0.8350 0.8350 0.8370 0.8370 0.8370
1743.211396 0.8370 0.8370 0.8370 0.8370 0.8370
1747.434923 0.8370 0.8370 0.8370 0.8370 0.8390
1751.658451 0.8400 0.8400 0.8400 0.8400 0.8420
1755.881978 0.8420 0.8420 0.8440 0.8440 0.8460
1760.105506 0.8460 0.8470 0.8470 0.8470 0.8490
1764.329033 0.8490 0.8490 0.8510 0.8510 0.8510
1768.552560 0.8520 0.8520 0.8520 0.8520 0.8520
1772.776088 0.8520 0.8520 0.8520 0.8540 0.8540
1776.999615 0.8540 0.8540 0.8560 0.8560 0.8560
1781.223143 0.8560 0.8560 0.8560 0.8560 0.8560
1785.446670 0.8560 0.8560 0.8560 0.8560 0.8560
1789.670197 0.8570 0.8570 0.8570 0.8570 0.8570
1793.893725 0.8570 0.8590 0.8590 0.8590 0.8590
1798.117252 0.8590 0.8590 0.8590 0.8590 0.8590
1802.340779 0.8590 0.8590 0.8590 0.8590 0.8590
1806.564307 0.8590 0.8590 0.8590 0.8590 0.8590
1810.787834 0.8590 0.8590 0.8590 0.8590 0.8590
1815.011362 0.8590 0.8610 0.8610 0.8610 0.8610
1819.234889 0.8610 0.8620 0.8620 0.8620 0.8620
1823.458416 0.8620 0.8620 0.8620 0.8620 0.8620
1827.681944 0.8620 0.8620 0.8620 0.8620 0.8620
1831.905471 0.8620 0.8620 0.8620 0.8620 0.8620
1836.128999 0.8620 0.8620 0.8620 0.8620 0.8620
1840.352526 0.8620 0.8620 0.8640 0.8640 0.8640
1844.576053 0.8640 0.8640 0.8640 0.8640 0.8640
1848.799581 0.8640 0.8640 0.8640 0.8640 0.8620
1853.023108 0.8620 0.8610 0.8610 0.8590 0.8590
1857.246636 0.8570 0.8570 0.8560 0.8560 0.8540
1861.470163 0.8520 0.8510 0.8510 0.8490 0.8510
1865.693690 0.8510 0.8490 0.8490 0.8470 0.8470
1869.917218 0.8470 0.8470 0.8490 0.8490 0.8490
1874.140745 0.8510 0.8510 0.8510 0.8510 0.8510
1878.364273 0.8510 0.8510 0.8510 0.8490 0.8490
1882.587800 0.8470 0.8470 0.8460 0.8460 0.8440
1886.811327 0.8440 0.8440 0.8440 0.8440 0.8440
1891.034855 0.8420 0.8420 0.8420 0.8420 0.8420
1895.258382 0.8420 0.8440 0.8440 0.8440 0.8440
1899.481910 0.8440 0.8440 0.8440 0.8420 0.8420
1903.705437 0.8420 0.8400 0.8400 0.8390 0.8390
1907.928964 0.8390 0.8390 0.8390 0.8390 0.8390
1912.152492 0.8400 0.8400 0.8420 0.8440 0.8440
1916.376019 0.8440 0.8440 0.8440 0.8440 0.8440
1920.599546 0.8440 0.8460 0.8460 0.8470 0.8470
1924.823074 0.8490 0.8490 0.8510 0.8510 0.8510
1929.046601 0.8510 0.8510 0.8510 0.8510 0.8490
1933.270129 0.8490 0.8490 0.8490 0.8470 0.8470
1937.493656 0.8470 0.8490 0.8510 0.8520 0.8520
1941.717183 0.8540 0.8560 0.8560 0.8570 0.8570
1945.940711 0.8590 0.8620 0.8680 0.8690 0.8710
1950.164238 0.8710 0.8730 0.8740 0.8760 0.8760
1954.387766 0.8780 0.8790 0.8790 0.8810 0.8810
1958.611293 0.8810 0.8810 0.8830 0.8830 0.8830
1962.834820 0.8830 0.8840 0.8840 0.8840 0.8840
1967.058348 0.8840 0.8840 0.8840 0.8840 0.8840
1971.281875 0.8860 0.8860 0.8860 0.8860 0.8860
1975.505403 0.8860 0.8860 0.8860 0.8840 0.8840
1979.728930 0.8840 0.8840 0.8840 0.8830 0.8830
1983.952457 0.8830 0.8830 0.8830 0.8830 0.8830
1988.175985 0.8830 0.8840 0.8840 0.8840 0.8840
1992.399512 0.8840 0.8860 0.8880 0.8900 0.8910
1996.623040 0.8930 0.8950 0.8960 0.8960 0.8980
2000.846567 0.8980 0.8980 0.8980 0.8980 0.8980
2005.070094 0.8980 0.8980 0.8980 0.8985 0.8990
2009.293622 0.8995 0.9000 0.9000 0.9000 0.9000
2013.517149 0.9000 0.9000 0.9000 0.9000 0.9000
2017.740676 0.9002 0.9005 0.9007 0.9010 0.9010
2021.964204 0.9010 0.9010 0.9010 0.9010 0.9010
2026.187731 0.9010 0.9010 0.9010 0.9010 0.9010
2030.411259 0.9010 0.9010 0.9010 0.9010 0.9010
2034.634786 0.9010 0.9010 0.9010 0.9010 0.9010
2038.858313 0.9010 0.9010 0.9010 0.9010 0.9010
2043.081841 0.9010 0.9010 0.9010 0.9010 0.9010
2047.305368 0.9010 0.9015 0.9020 0.9025 0.9030
2051.528896 0.9030 0.9030 0.9030 0.9030 0.9030
2055.752423 0.9030 0.9030 0.9030 0.9030 0.9030
2059.975950 0.9030 0.9030 0.9030 0.9030 0.9030
2064.199478 0.9030 0.9030 0.9030 0.9030 0.9030
2068.423005 0.9030 0.9030 0.9030 0.9030 0.9030
2072.646533 0.9030 0.9030 0.9030 0.9030 0.9030
2076.870060 0.9030 0.9030 0.9030 0.9030 0.9030
2081.093587 0.9030 0.9030 0.9030 0.9030 0.9030
2085.317115 0.9030 0.9030 0.9030 0.9030 0.9030
2089.540642 0.9030 0.9030 0.9030 0.9030 0.9030
2093.764170 0.9030 0.9030 0.9030 0.9030 0.9030
2097.987697 0.9030 0.9030 0.9030 0.9030 0.9030
2102.211224 0.9030 0.9030 0.9030 0.9030 0.9030
2106.434752 0.9030 0.9030 0.9030 0.9030 0.9030
2110.658279 0.9030 0.9030 0.9035 0.9040 0.9045
2114.881807 0.9050 0.9050 0.9050 0.9050 0.9050
2119.105334 0.9050 0.9050 0.9050 0.9050 0.9050
2123.328861 0.9050 0.9050 0.9050 0.9052 0.9055
2127.552389 0.9057 0.9060 0.9060 0.9060 0.9060
2131.775916 0.9060 0.9060 0.9060 0.9060 0.9060
2135.999443 0.9060 0.9060 0.9060 0.9060 0.9060
2140.222971 0.9060 0.9060 0.9060 0.9060 0.9060
2144.446498 0.9060 0.9060 0.9060 0.9060 0.9060
2148.670026 0.9060 0.9060 0.9060 0.9060 0.9060
2152.893553 0.9060 0.9060 0.9060 0.9060 0.9060
2157.117080 0.9060 0.9060 0.9060 0.9060 0.9060
2161.340608 0.9060 0.9060 0.9060 0.9060 0.9060
2165.564135 0.9060 0.9060 0.9060 0.9060 0.9060
2169.787663 0.9060 0.9060 0.9060 0.9060 0.9060
2174.011190 0.9060 0.9060 0.9060 0.9060 0.9060
2178.234717 0.9060 0.9060 0.9060 0.9060 0.9060
2182.458245 0.9060 0.9060 0.9060 0.9060 0.9060
2186.681772 0.9060 0.9060 0.9060 0.9060 0.9060
2190.905300 0.9060 0.9060 0.9060 0.9058 0.9055
2195.128827 0.9053 0.9050 0.9050 0.9050 0.9050
2199.352354 0.9050 0.9050 0.9050 0.9050 0.9050
2203.575882 0.9050 0.9050 0.9050 0.9050 0.9045
2207.799409 0.9040 0.9035 0.9030 0.9030 0.9030
2212.022937 0.9030 0.9030 0.9030 0.9030 0.9030
2216.246464 0.9030 0.9030 0.9030 0.9030 0.9030
2220.469991 0.9030 0.9030 0.9030 0.9030 0.9025
2224.693519 0.9020 0.9015 0.9010 0.9010 0.9010
2228.917046 0.9010 0.9010 0.9010 0.9010 0.9010
2233.140574 0.9010 0.9010 0.9010 0.9010 0.9010
2237.364101 0.9007 0.9005 0.9002 0.9000 0.9000
2241.587628 0.9000 0.9000 0.9000 0.9000 0.9000
2245.811156 0.9000 0.9000 0.9000 0.9000 0.9000
2250.034683 0.9000 0.8995 0.8990 0.8985 0.8980
2254.258210 0.8980 0.8980 0.8980 0.8980 0.8980
2258.481738 0.8980 0.8980 0.8980 0.8975 0.8970
2262.705265 0.8965 0.8960 0.8960 0.8960 0.8960
2266.928793 0.8960 0.8960 0.8960 0.8960 0.8960
2271.152320 0.8960 0.8960 0.8960 0.8960 0.8957
2275.375847 0.8955 0.8952 0.8950 0.8950 0.8950
2279.599375 0.8950 0.8950 0.8950 0.8950 0.8950
2283.822902 0.8950 0.8945 0.8940 0.8935 0.8930
2288.046430 0.8930 0.8930 0.8930 0.8930 0.8930
2292.269957 0.8930 0.8930 0.8930 0.8930 0.8930
2296.493484 0.8930 0.8930 0.8930 0.8930 0.8930
2300.717012 0.8930 0.8925 0.8920 0.8915 0.8910
2304.940539 0.8915 0.8920 0.8925 0.8930 0.8930
2309.164067 0.8930 0.8930 0.8930 0.8930 0.8930
2313.387594 0.8930 0.8930 0.8930 0.8930 0.8930
2317.611121 0.8930 0.8925 0.8920 0.8915 0.8910
2321.834649 0.8910 0.8910 0.8910 0.8910 0.8910
2326.058176 0.8910 0.8910 0.8910 0.8910 0.8910
2330.281704 0.8910 0.8910 0.8910 0.8910 0.8910
2334.505231 0.8910 0.8902 0.8895 0.8887 0.8880
2338.728758 0.8880 0.8880 0.8880 0.8880 0.8880
2342.952286 0.8880 0.8880 0.8880 0.8880 0.8880
2347.175813 0.8880 0.8880 0.8880 0.8880 0.8880
2351.399340 0.8880 0.8880 0.8880 0.8880 0.8880
2355.622868 0.8880 0.8880 0.8880 0.8880 0.8880
2359.846395 0.8880 0.8880 0.8880 0.8880 0.8880
2364.069923 0.8880 0.8880 0.8880 0.8880 0.8880
2368.293450 0.8880 0.8880 0.8880 0.8880 0.8880
2372.516977 0.8880 0.8880 0.8880 0.8880 0.8880
2376.740505 0.8880 0.8880 0.8880 0.8880 0.8880
2380.964032 0.8880 0.8880 0.8880 0.8880 0.8880
2385.187560 0.8880 0.8880 0.8880 0.8880 0.8880
2389.411087 0.8880 0.8880 0.8880 0.8880 0.8880
2393.634614 0.8880 0.8880 0.8880 0.8880 0.8880
2397.858142 0.8880 0.8880 0.8880 0.8880 0.8880
2402.081669 0.8880 0.8880 0.8880 0.8880 0.8880
2406.305197 0.8880 0.8880 0.8880 0.8880 0.8880
2410.528724 0.8880 0.8880 0.8880 0.8880 0.8880
2414.752251 0.8880 0.8880 0.8875 0.8870 0.8865
2418.975779 0.8860 0.8860 0.8860 0.8860 0.8860
2423.199306 0.8855 0.8850 0.8845 0.8840 0.8840
2427.422834 0.8840 0.8840 0.8840 0.8840 0.8840
2431.646361 0.8840 0.8840 0.8837 0.8835 0.8832
2435.869888 0.8830 0.8830 0.8830 0.8830 0.8830
2440.093416 0.8825 0.8820 0.8815 0.8810 0.8810
2444.316943 0.8810 0.8810 0.8810 0.8805 0.8800
2448.540471 0.8795 0.8790 0.8790 0.8790 0.8790
2452.763998 0.8790 0.8790 0.8790 0.8790 0.8790
2456.987525 0.8787 0.8785 0.8782 0.8780 0.8780
2461.211053 0.8780 0.8780 0.8780 0.8780 0.8780
2465.434580 0.8780 0.8780 0.8775 0.8770 0.8765
2469.658107 0.8760 0.8760 0.8760 0.8760 0.8760
2473.881635 0.8755 0.8750 0.8745 0.8740 0.8740
2478.105162 0.8740 0.8740 0.8740 0.8740 0.8740
2482.328690 0.8740 0.8740 0.8740 0.8740 0.8740
2486.552217 0.8740 0.8740 0.8740 0.8740 0.8740
2490.775744 0.8740 0.8740 0.8740 0.8740 0.8740
2494.999272 0.8740 0.8740 0.8740 0.8740 0.8740
2499.222799 0.8740 0.8740 0.8740 0.8740 0.8740
2503.446327 0.8740 0.8740 0.8740 0.8740 0.8740
2507.669854 0.8740 0.8740 0.8740 0.8740 0.8740
2511.893381 0.8740 0.8740 0.8740 0.8740 0.8740
2516.116909 0.8740 0.8740 0.8740 0.8740 0.8740
2520.340436 0.8740 0.8740 0.8740 0.8740 0.8740
2524.563964 0.8740 0.8740 0.8740 0.8740 0.8740
2528.787491 0.8740 0.8740 0.8740 0.8740 0.8740
2533.011018 0.8740 0.8740 0.8740 0.8740 0.8740
2537.234546 0.8740 0.8740 0.8740 0.8740 0.8740
2541.458073 0.8740 0.8740 0.8740 0.8740 0.8740
2545.681601 0.8740 0.8740 0.8740 0.8740 0.8740
2549.905128 0.8740 0.8740 0.8740 0.8740 0.8740
2554.128655 0.8740 0.8740 0.8740 0.8740 0.8740
2558.352183 0.8740 0.8740 0.8740 0.8740 0.8740
2562.575710 0.8740 0.8740 0.8740 0.8740 0.8740
2566.799238 0.8740 0.8740 0.8740 0.8740 0.8740
2571.022765 0.8740 0.8740 0.8740 0.8740 0.8740
2575.246292 0.8740 0.8740 0.8740 0.8740 0.8740
2579.469820 0.8740 0.8740 0.8740 0.8740 0.8740
2583.693347 0.8740 0.8740 0.8740 0.8740 0.8740
2587.916874 0.8740 0.8737 0.8735 0.8732 0.8730
2592.140402 0.8730 0.8730 0.8730 0.8730 0.8730
2596.363929 0.8730 0.8730 0.8730 0.8730 0.8730
2600.587457 0.8730 0.8730 0.8730 0.8730 0.8730
2604.810984 0.8730 0.8730 0.8730 0.8730 0.8730
2609.034511 0.8730 0.8730 0.8730 0.8730 0.8730
2613.258039 0.8730 0.8730 0.8730 0.8730 0.8730
2617.481566 0.8730 0.8730 0.8730 0.8730 0.8730
2621.705094 0.8730 0.8730 0.8730 0.8730 0.8730
2625.928621 0.8730 0.8730 0.8730 0.8730 0.8730
2630.152148 0.8730 0.8730 0.8730 0.8725 0.8720
2634.375676 0.8715 0.8710 0.8710 0.8710 0.8710
2638.599203 0.8710 0.8705 0.8700 0.8695 0.8690
2642.822731 0.8690 0.8690 0.8690 0.8690 0.8690
2647.046258 0.8690 0.8690 0.8690 0.8690 0.8690
2651.269785 0.8690 0.8690 0.8687 0.8685 0.8682
2655.493313 0.8680 0.8680 0.8680 0.8680 0.8680
2659.716840 0.8680 0.8680 0.8680 0.8680 0.8680
2663.940368 0.8680 0.8680 0.8680 0.8680 0.8680
2668.163895 0.8680 0.8680 0.8680 0.8680 0.8680
2672.387422 0.8680 0.8680 0.8680 0.8680 0.8680
2676.610950 0.8680 0.8680 0.8680 0.8680 0.8680
2680.834477 0.8680 0.8680 0.8680 0.8680 0.8680
2685.058005 0.8680 0.8680 0.8680 0.8680 0.8680
2689.281532 0.8680 0.8680 0.8680 0.8680 0.8680
2693.505059 0.8675 0.8670 0.8665 0.8660 0.8660
2697.728587 0.8660 0.8660 0.8660 0.8655 0.8650
2701.952114 0.8645 0.8640 0.8640 0.8640 0.8640
2706.175641 0.8640 0.8635 0.8630 0.8625 0.8620
2710.399169 0.8620 0.8620 0.8620 0.8620 0.8617
2714.622696 0.8615 0.8612 0.8610 0.8610 0.8610
2718.846224 0.8610 0.8610 0.8610 0.8610 0.8610
2723.069751 0.8610 0.8610 0.8610 0.8610 0.8610
2727.293278 0.8613 0.8615 0.8618 0.8620 0.8620
2731.516806 0.8620 0.8620 0.8620 0.8620 0.8620
2735.740333 0.8620 0.8620 0.8620 0.8620 0.8620
2739.963861 0.8620 0.8620 0.8620 0.8620 0.8620
2744.187388 0.8617 0.8615 0.8612 0.8610 0.8610
2748.410915 0.8610 0.8610 0.8610 0.8610 0.8610
2752.634443 0.8610 0.8610 0.8610 0.8610 0.8610
2756.857970 0.8610 0.8610 0.8610 0.8610 0.8610
2761.081498 0.8610 0.8610 0.8610 0.8610 0.8605
2765.305025 0.8600 0.8595 0.8590 0.8590 0.8590
2769.528552 0.8590 0.8590 0.8590 0.8590 0.8590
2773.752080 0.8590 0.8590 0.8590 0.8590 0.8589
2777.975607 0.8584 0.8579 0.8574 0.8570 0.8570
2782.199135 0.8570 0.8570 0.8570 0.8567 0.8565
2786.422662 0.8562 0.8559 0.8554 0.8550 0.8545
2790.646189 0.8540 0.8535 0.8530 0.8525 0.8520
2794.869717 0.8517 0.8515 0.8512 0.8510 0.8505
2799.093244 0.8500 0.8495 0.8490 0.8485 0.8480
2803.316771 0.8475 0.8470 0.8470 0.8470 0.8470
2807.540299 0.8470 0.8467 0.8465 0.8462 0.8459
2811.763826 0.8454 0.8449 0.8444 0.8439 0.8434
2815.987354 0.8429 0.8424 0.8420 0.8420 0.8420
2820.210881 0.8420 0.8420 0.8420 0.8420 0.8420
2824.434408 0.8419 0.8414 0.8410 0.8405 0.8399
2828.657936 0.8392 0.8384 0.8377 0.8370 0.8365
2832.881463 0.8360 0.8355 0.8349 0.8336 0.8324
2837.104991 0.8312 0.8299 0.8287 0.8274 0.8262
2841.328518 0.8249 0.8236 0.8224 0.8211 0.8200
2845.552045 0.8200 0.8200 0.8200 0.8201 0.8206
2849.775573 0.8211 0.8216 0.8221 0.8226 0.8231
2853.999100 0.8236 0.8240 0.8243 0.8245 0.8248
2858.222628 0.8251 0.8256 0.8261 0.8266 0.8270
2862.446155 0.8270 0.8270 0.8270 0.8270 0.8265
2866.669682 0.8260 0.8255 0.8250 0.8247 0.8245
2870.893210 0.8242 0.8240 0.8235 0.8230 0.8225
2875.116737 0.8220 0.8215 0.8209 0.8204 0.8199
2879.340265 0.8194 0.8189 0.8184 0.8180 0.8177
2883.563792 0.8175 0.8172 0.8170 0.8170 0.8170
2887.787319 0.8170 0.8169 0.8159 0.8149 0.8139
2892.010847 0.8129 0.8116 0.8104 0.8091 0.8079
2896.234374 0.8072 0.8064 0.8057 0.8048 0.8025
2900.457902 0.8003 0.7980 0.7958 0.7938 0.7918
2904.681429 0.7898 0.7878 0.7858 0.7838 0.7818
2908.904956 0.7799 0.7781 0.7763 0.7745 0.7729
2913.128484 0.7724 0.7719 0.7714 0.7710 0.7710
2917.352011 0.7710 0.7710 0.7710 0.7710 0.7710
2921.575538 0.7710 0.7710 0.7710 0.7710 0.7710
2925.799066 0.7711 0.7718 0.7726 0.7733 0.7741
2930.022593 0.7746 0.7751 0.7756 0.7761 0.7766
2934.246121 0.7771 0.7776 0.7780 0.7780 0.7780
2938.469648 0.7780 0.7780 0.7780 0.7780 0.7780
2942.693175 0.7779 0.7769 0.7759 0.7749 0.7740
2946.916703 0.7740 0.7740 0.7740 0.7740 0.7740
2951.140230 0.7740 0.7740 0.7740 0.7740 0.7740
2955.363758 0.7740 0.7740 0.7740 0.7740 0.7740
2959.587285 0.7741 0.7746 0.7751 0.7756 0.7761
2963.810812 0.7766 0.7771 0.7776 0.7781 0.7786
2968.034340 0.7791 0.7796 0.7800 0.7800 0.7800
2972.257867 0.7800 0.7800 0.7800 0.7800 0.7800
2976.481395 0.7800 0.7800 0.7800 0.7800 0.7799
2980.704922 0.7794 0.7789 0.7784 0.7779 0.7774
2984.928449 0.7769 0.7764 0.7759 0.7754 0.7749
2989.151977 0.7744 0.7740 0.7737 0.7735 0.7732
2993.375504 0.7724 0.7676 0.7629 0.7582 0.7534
2997.599032 0.7484 0.7434 0.7384 0.7334 0.7284
3001.822559 0.7234 0.7184 0.7127 0.7013 0.6898
3006.046086 0.6783 0.6679 0.6669 0.6659 0.6649
3010.269614 0.6640 0.6640 0.6640 0.6640 0.6641
3014.493141 0.6646 0.6651 0.6656 0.6662 0.6674
3018.716669 0.6687 0.6699 0.6710 0.6710 0.6710
3022.940196 0.6710 0.6707 0.6687 0.6667 0.6647
3027.163723 0.6596 0.6347 0.6097 0.5847 0.5599
3031.387251 0.5359 0.5120 0.4880 0.4669 0.4659
3035.610778 0.4649 0.4639 0.4631 0.4636 0.4641
3039.834305 0.4646 0.4659 0.4739 0.4819 0.4898
3044.057833 0.4979 0.5065 0.5152 0.5238 0.5323
3048.281360 0.5403 0.5483 0.5563 0.5644 0.5728
3052.504888 0.5813 0.5898 0.5978 0.6028 0.6077
3056.728415 0.6127 0.6192 0.6339 0.6486 0.6633
3060.951942 0.6774 0.6877 0.6979 0.7081 0.7180
3065.175470 0.7255 0.7330 0.7405 0.7475 0.7518
3069.398997 0.7560 0.7603 0.7644 0.7674 0.7704
3073.622525 0.7734 0.7761 0.7774 0.7786 0.7799
3077.846052 0.7812 0.7830 0.7847 0.7865 0.7882
3082.069579 0.7895 0.7907 0.7920 0.7931 0.7939
3086.293107 0.7946 0.7954 0.7962 0.7972 0.7982
3090.516634 0.7992 0.8001 0.8006 0.8011 0.8016
3094.740162 0.8020 0.8023 0.8025 0.8028 0.8030
3098.963689 0.8030 0.8030 0.8030 0.8031 0.8036
3103.187216 0.8041 0.8046 0.8050 0.8050 0.8050
3107.410744 0.8050 0.8051 0.8056 0.8061 0.8066
3111.634271 0.8070 0.8070 0.8070 0.8070 0.8070
3115.857799 0.8073 0.8075 0.8078 0.8080 0.8080
3120.081326 0.8080 0.8080 0.8080 0.8080 0.8080
3124.304853 0.8080 0.8080 0.8080 0.8080 0.8080
3128.528381 0.8080 0.8080 0.8080 0.8080 0.8080
3132.751908 0.8080 0.8080 0.8080 0.8080 0.8077
3136.975436 0.8075 0.8072 0.8070 0.8070 0.8070
3141.198963 0.8070 0.8070 0.8070 0.8070 0.8070
3145.422490 0.8070 0.8070 0.8070 0.8070 0.8069
3149.646018 0.8064 0.8059 0.8054 0.8050 0.8050
3153.869545 0.8050 0.8050 0.8049 0.8044 0.8039
3158.093072 0.8034 0.8030 0.8027 0.8025 0.8022
3162.316600 0.8019 0.8014 0.8009 0.8004 0.7999
3166.540127 0.7994 0.7989 0.7984 0.7979 0.7974
3170.763655 0.7969 0.7964 0.7960 0.7957 0.7955
3174.987182 0.7952 0.7949 0.7944 0.7939 0.7934
3179.210709 0.7929 0.7924 0.7919 0.7914 0.7910
3183.434237 0.7907 0.7905 0.7902 0.7899 0.7894
3187.657764 0.7889 0.7884 0.7879 0.7874 0.7869
3191.881292 0.7864 0.7860 0.7857 0.7855 0.7852
3196.104819 0.7849 0.7844 0.7839 0.7834 0.7829
3200.328346 0.7824 0.7819 0.7814 0.7810 0.7807
3204.551874 0.7805 0.7802 0.7799 0.7794 0.7789
3208.775401 0.7784 0.7779 0.7769 0.7759 0.7749
3212.998929 0.7740 0.7737 0.7735 0.7732 0.7729
3217.222456 0.7724 0.7719 0.7714 0.7709 0.7704
3221.445983 0.7699 0.7694 0.7690 0.7687 0.7685
3225.669511 0.7682 0.7679 0.7674 0.7669 0.7664
3229.893038 0.7659 0.7654 0.7649 0.7644 0.7640
3234.116566 0.7637 0.7635 0.7632 0.7629 0.7624
3238.340093 0.7619 0.7614 0.7609 0.7604 0.7599
3242.563620 0.7594 0.7590 0.7587 0.7585 0.7582
3246.787148 0.7579 0.7574 0.7569 0.7564 0.7559
3251.010675 0.7554 0.7549 0.7544 0.7539 0.7531
3255.234202 0.7524 0.7516 0.7508 0.7498 0.7488
3259.457730 0.7478 0.7469 0.7461 0.7454 0.7446
3263.681257 0.7438 0.7425 0.7413 0.7400 0.7389
3267.904785 0.7381 0.7374 0.7366 0.7358 0.7348
3272.128312 0.7338 0.7328 0.7317 0.7300 0.7282
3276.351839 0.7265 0.7248 0.7236 0.7223 0.7211
3280.575367 0.7198 0.7183 0.7167 0.7152 0.7137
3284.798894 0.7122 0.7107 0.7092 0.7077 0.7062
3289.022422 0.7047 0.7032 0.7018 0.7005 0.6993
3293.245949 0.6980 0.6967 0.6949 0.6932 0.6914
3297.469476 0.6897 0.6879 0.6862 0.6845 0.6827
3301.693004 0.6807 0.6787 0.6767 0.6745 0.6718
3305.916531 0.6691 0.6663 0.6636 0.6611 0.6586
3310.140059 0.6561 0.6535 0.6506 0.6476 0.6446
3314.363586 0.6414 0.6376 0.6338 0.6300 0.6261
3318.587113 0.6216 0.6171 0.6126 0.6077 0.6012
3322.810641 0.5947 0.5882 0.5815 0.5741 0.5666
3327.034168 0.5591 0.5513 0.5423 0.5333 0.5244
3331.257696 0.5152 0.5055 0.4958 0.4860 0.4762
3335.481223 0.4657 0.4552 0.4447 0.4342 0.4237
3339.704750 0.4133 0.4028 0.3923 0.3815 0.3708
3343.928278 0.3601 0.3494 0.3389 0.3284 0.3179
3348.151805 0.3075 0.2976 0.2877 0.2778 0.2681
3352.375333 0.2594 0.2507 0.2419 0.2334 0.2254
3356.598860 0.2174 0.2094 0.2016 0.1946 0.1876
3360.822387 0.1806 0.1747 0.1732 0.1717 0.1702
3365.045915 0.1683 0.1643 0.1603 0.1563 0.1529
3369.269442 0.1521 0.1514 0.1506 0.1500 0.1500
3373.492969 0.1500 0.1500 0.1508 0.1558 0.1608
3377.716497 0.1658 0.1732 0.1932 0.2132 0.2332
3381.940024 0.2521 0.2659 0.2796 0.2933 0.3075
3386.163552 0.3235 0.3394 0.3554 0.3727 0.3952
3390.387079 0.4177 0.4401 0.4614 0.4779 0.4943
3394.610606 0.5108 0.5263 0.5381 0.5498 0.5615
3398.834134 0.5726 0.5811 0.5896 0.5981 0.6061
3403.057661 0.6121 0.6181 0.6241 0.6299 0.6346
3407.281189 0.6393 0.6441 0.6487 0.6527 0.6567
3411.504716 0.6607 0.6646 0.6681 0.6716 0.6751
3415.728243 0.6781 0.6789 0.6796 0.6804 0.6813
3419.951771 0.6825 0.6838 0.6850 0.6861 0.6866
3424.175298 0.6871 0.6876 0.6880 0.6880 0.6880
3428.398826 0.6880 0.6882 0.6892 0.6902 0.6912
3432.622353 0.6920 0.6923 0.6925 0.6928 0.6932
3436.845880 0.6942 0.6952 0.6962 0.6970 0.6973
3441.069408 0.6975 0.6978 0.6981 0.6986 0.6991
3445.292935 0.6996 0.7001 0.7009 0.7016 0.7024
3449.516463 0.7031 0.7036 0.7041 0.7046 0.7051
3453.739990 0.7056 0.7061 0.7066 0.7071 0.7073
3457.963517 0.7076 0.7078 0.7081 0.7086 0.7091
3462.187045 0.7096 0.7102 0.7112 0.7122 0.7132
3466.410572 0.7142 0.7149 0.7156 0.7164 0.7171
3470.634100 0.7176 0.7181 0.7186 0.7190 0.7193
3474.857627 0.7195 0.7198 0.7201 0.7206 0.7211
3479.081154 0.7216 0.7221 0.7226 0.7231 0.7236
3483.304682 0.7240 0.7240 0.7240 0.7240 0.7240
3487.528209 0.7240 0.7240 0.7240 0.7241 0.7243
3491.751736 0.7246 0.7248 0.7250 0.7250 0.7250
3495.975264 0.7250 0.7251 0.7256 0.7261 0.7266
3500.198791 0.7270 0.7270 0.7270 0.7270 0.7272
3504.422319 0.7279 0.7286 0.7294 0.7301 0.7306
3508.645846 0.7311 0.7316 0.7322 0.7332 0.7342
3512.869373 0.7352 0.7361 0.7369 0.7376 0.7384
3517.092901 0.7391 0.7396 0.7401 0.7406 0.7412
3521.316428 0.7419 0.7427 0.7434 0.7441 0.7446
3525.539956 0.7451 0.7456 0.7461 0.7463 0.7466
3529.763483 0.7468 0.7472 0.7482 0.7492 0.7502
3533.987010 0.7511 0.7513 0.7516 0.7518 0.7523
3538.210538 0.7538 0.7553 0.7568 0.7582 0.7589
3542.434065 0.7596 0.7604 0.7612 0.7625 0.7637
3546.657593 0.7650 0.7660 0.7660 0.7660 0.7660
3550.881120 0.7661 0.7666 0.7671 0.7676 0.7682
3555.104647 0.7689 0.7697 0.7704 0.7712 0.7719
3559.328175 0.7727 0.7734 0.7744 0.7762 0.7779
3563.551702 0.7796 0.7812 0.7822 0.7832 0.7842
3567.775230 0.7853 0.7865 0.7878 0.7890 0.7901
3571.998757 0.7903 0.7906 0.7908 0.7913 0.7925
3576.222284 0.7938 0.7950 0.7963 0.7978 0.7993
3580.445812 0.8008 0.8020 0.8023 0.8025 0.8028
3584.669339 0.8030 0.8030 0.8030 0.8030 0.8030
3588.892867 0.8030 0.8030 0.8030 0.8030 0.8030
3593.116394 0.8030 0.8030 0.8031 0.8036 0.8041
3597.339921 0.8046 0.8051 0.8056 0.8061 0.8066
3601.563449 0.8072 0.8079 0.8087 0.8094 0.8102
3605.786976 0.8109 0.8117 0.8124 0.8131 0.8136
3610.010503 0.8141 0.8146 0.8152 0.8159 0.8167
3614.234031 0.8174 0.8181 0.8186 0.8191 0.8196
3618.457558 0.8201 0.8206 0.8211 0.8216 0.8221
3622.681086 0.8226 0.8231 0.8236 0.8240 0.8240
3626.904613 0.8240 0.8240 0.8242 0.8249 0.8257
3631.128140 0.8264 0.8270 0.8270 0.8270 0.8270
3635.351668 0.8270 0.8270 0.8270 0.8270 0.8271
3639.575195 0.8276 0.8281 0.8286 0.8290 0.8290
3643.798723 0.8290 0.8290 0.8290 0.8290 0.8290
3648.022250 0.8290 0.8291 0.8293 0.8296 0.8298
3652.245777 0.8300 0.8300 0.8300 0.8300 0.8300
3656.469305 0.8300 0.8300 0.8300 0.8300 0.8300
3660.692832 0.8300 0.8300 0.8300 0.8300 0.8300
3664.916360 0.8300 0.8300 0.8300 0.8300 0.8300
3669.139887 0.8300 0.8300 0.8300 0.8300 0.8300
3673.363414 0.8300 0.8300 0.8300 0.8300 0.8300
3677.586942 0.8300 0.8300 0.8299 0.8297 0.8294
3681.810469 0.8292 0.8290 0.8290 0.8290 0.8290
3686.033997 0.8290 0.8290 0.8290 0.8290 0.8290
3690.257524 0.8290 0.8290 0.8290 0.8290 0.8290
3694.481051 0.8290 0.8290 0.8290 0.8290 0.8290
3698.704579 0.8290 0.8289 0.8284 0.8279 0.8274
3702.928106 0.8270 0.8270 0.8270 0.8270 0.8269
3707.151633 0.8264 0.8259 0.8254 0.8249 0.8247
3711.375161 0.8244 0.8242 0.8240 0.8240 0.8240
3715.598688 0.8240 0.8240 0.8240 0.8240 0.8240
3719.822216 0.8240 0.8240 0.8240 0.8240 0.8240
3724.045743 0.8240 0.8240 0.8240 0.8237 0.8227
3728.269270 0.8217 0.8207 0.8199 0.8194 0.8189
3732.492798 0.8184 0.8180 0.8180 0.8180 0.8180
3736.716325 0.8180 0.8180 0.8180 0.8180 0.8179
3740.939853 0.8177 0.8174 0.8172 0.8170 0.8170
3745.163380 0.8170 0.8170 0.8170 0.8170 0.8170
3749.386907 0.8170 0.8169 0.8164 0.8159 0.8154
3753.610435 0.8150 0.8150 0.8150 0.8150 0.8149
3757.833962 0.8144 0.8139 0.8134 0.8130 0.8130
3762.057490 0.8130 0.8130 0.8129 0.8127 0.8124
3766.281017 0.8122 0.8120 0.8120 0.8120 0.8120
3770.504544 0.8120 0.8120 0.8120 0.8120 0.8121
3774.728072 0.8123 0.8126 0.8128 0.8130 0.8130
3778.951599 0.8130 0.8130 0.8130 0.8130 0.8130
3783.175127 0.8130 0.8130 0.8130 0.8130 0.8130
3787.398654 0.8130 0.8130 0.8130 0.8130 0.8130
3791.622181 0.8130 0.8130 0.8130 0.8130 0.8130
3795.845709 0.8130 0.8130 0.8130 0.8130 0.8130
3800.069236 0.8130 0.8130 0.8130 0.8130 0.8130
3804.292764 0.8130 0.8130 0.8130 0.8130 0.8130
3808.516291 0.8130 0.8130 0.8130 0.8130 0.8130
3812.739818 0.8130 0.8130 0.8129 0.8127 0.8124
3816.963346 0.8122 0.8120 0.8120 0.8120 0.8120
3821.186873 0.8119 0.8114 0.8109 0.8104 0.8100
3825.410400 0.8100 0.8100 0.8100 0.8100 0.8100
3829.633928 0.8100 0.8100 0.8100 0.8100 0.8100
3833.857455 0.8100 0.8100 0.8100 0.8100 0.8100
3838.080983 0.8100 0.8100 0.8100 0.8100 0.8100
3842.304510 0.8100 0.8100 0.8100 0.8100 0.8100
3846.528037 0.8100 0.8100 0.8100 0.8100 0.8100
3850.751565 0.8100 0.8100 0.8100 0.8100 0.8100
3854.975092 0.8100 0.8100 0.8100 0.8100 0.8100
3859.198620 0.8100 0.8100 0.8100 0.8100 0.8100
3863.422147 0.8100 0.8100 0.8100 0.8100 0.8100
3867.645674 0.8100 0.8100 0.8100 0.8100 0.8100
3871.869202 0.8100 0.8100 0.8100 0.8100 0.8100
3876.092729 0.8100 0.8100 0.8100 0.8100 0.8100
3880.316257 0.8100 0.8100 0.8100 0.8100 0.8100
3884.539784 0.8100 0.8100 0.8100 0.8100 0.8100
3888.763311 0.8100 0.8100 0.8100 0.8100 0.8100
3892.986839 0.8100 0.8100 0.8100 0.8100 0.8100
3897.210366 0.8100 0.8100 0.8100 0.8100 0.8100
3901.433894 0.8100 0.8099 0.8094 0.8089 0.8084
3905.657421 0.8080 0.8080 0.8080 0.8080 0.8080
3909.880948 0.8080 0.8080 0.8080 0.8080 0.8080
3914.104476 0.8080 0.8080 0.8079 0.8077 0.8074
3918.328003 0.8072 0.8070 0.8070 0.8070 0.8070
3922.551531 0.8069 0.8064 0.8059 0.8054 0.8050
3926.775058 0.8050 0.8050 0.8050 0.8050 0.8050
3930.998585 0.8050 0.8050 0.8050 0.8050 0.8050
3935.222113 0.8050 0.8050 0.8050 0.8050 0.8050
3939.445640 0.8050 0.8050 0.8050 0.8050 0.8050
3943.669167 0.8050 0.8050 0.8050 0.8049 0.8044
3947.892695 0.8039 0.8034 0.8030 0.8030 0.8030
3952.116222 0.8030 0.8030 0.8030 0.8030 0.8030
3956.339750 0.8030 0.8030 0.8030 0.8030 0.8030
3960.563277 0.8030 0.8030 0.8030 0.8030 0.8030
3964.786804 0.8030 0.8030 0.8030 0.8030 0.8030
3969.010332 0.8030 0.8030 0.8030 0.8030 0.8030
3973.233859 0.8030 0.8030 0.8030 0.8030 0.8030
3977.457387 0.8030 0.8030 0.8030 0.8030 0.8030
3981.680914 0.8030 0.8030 0.8030 0.8030 0.8030
3985.904441 0.8030 0.8030 0.8030 0.8030 0.8030
3990.127969 0.8030 0.8030 0.8030 0.8030
##END=
