##TITLE=MERCURIC ACETATE
$$ BAKER & ADAMS
##JCAMP-DX=4.24
##DATA TYPE=INFRARED SPECTRUM
##CLASS=COBLENTZ
##ORIGIN=WYANDOTTE CHEMICALS CORP., WYANDOTTE, MICHIGAN, USA
##OWNER=COBLENTZ SOCIETY
Collection (C) 2018 copyright by the U.S. Secretary of Commerce
on behalf of the United States of America. All rights reserved.
##DATE=Not specified, most likely prior to 1970
##MOLFORM=C4 H6 O4 Hg
##SOURCE REFERENCE=COBLENTZ NO. 3068
##$NIST ID=B6003068
##$NIST SOURCE=COBLENTZ
##$NIST IMAGE=cob3068
##SPECTROMETER/DATA SYSTEM=Not specified, most likely a prism, grating, or hybrid spectrometer.
##STATE=SOLID (MINERAL OIL MULL)
##PATH LENGTH=
$$SPECTRAL CONTAMINATION DUE TO OIL AROUND 2900 CM^-^1
##SAMPLING PROCEDURE=TRANSMISSION
##RESOLUTION=4
##DATA PROCESSING=DIGITIZED BY NIST FROM HARD COPY
##XUNITS=MICROMETERS
##YUNITS=TRANSMITTANCE
##XFACTOR=1.000000
##YFACTOR=1
##DELTAX=000.006806
##FIRSTX=2.007
##LASTX=15.993
##FIRSTY=0.668
##MAXX=15.993
##MINX=2.007
##MAXY=0.981
##MINY=0.037
##NPOINTS=2056
##XYDATA=(X++(Y..Y))
2.007000 0.6680 0.6740 0.6750 0.6750 0.6740
2.041047 0.6750 0.6750 0.6770 0.6790 0.6800
2.075000 0.6840 0.6840 0.6790 0.6790 0.6800
2.109047 0.6820 0.6820 0.6840 0.6840 0.6800
2.143000 0.6770 0.6740 0.6720 0.6700 0.6700
2.177047 0.6680 0.6670 0.6620 0.6580 0.6550
2.211000 0.6530 0.6530 0.6550 0.6580 0.6620
2.245047 0.6630 0.6670 0.6680 0.6700 0.6740
2.279000 0.6770 0.6770 0.6750 0.6740 0.6740
2.313047 0.6740 0.6750 0.6750 0.6770 0.6790
2.347000 0.6820 0.6840 0.6860 0.6870 0.6870
2.381047 0.6870 0.6870 0.6870 0.6870 0.6890
2.415000 0.6910 0.6920 0.6940 0.6960 0.6970
2.449047 0.6970 0.6970 0.6970 0.6960 0.6970
2.483000 0.6970 0.6970 0.6970 0.6970 0.6990
2.517047 0.6990 0.6990 0.7010 0.7040 0.7040
2.551000 0.7060 0.7060 0.7080 0.7080 0.7080
2.585047 0.7080 0.7080 0.7090 0.7090 0.7110
2.619000 0.7110 0.7110 0.7130 0.7130 0.7130
2.653047 0.7130 0.7130 0.7130 0.7110 0.7090
2.687000 0.7080 0.7040 0.7010 0.7010 0.6990
2.721047 0.6990 0.6990 0.6990 0.6970 0.6970
2.755000 0.6960 0.6940 0.6940 0.6920 0.6910
2.789047 0.6890 0.6890 0.6870 0.6870 0.6860
2.824000 0.6840 0.6820 0.6820 0.6820 0.6820
2.858047 0.6820 0.6800 0.6800 0.6790 0.6790
2.892000 0.6790 0.6790 0.6790 0.6790 0.6790
2.926047 0.6790 0.6790 0.6790 0.6770 0.6770
2.960000 0.6770 0.6790 0.6790 0.6790 0.6800
2.994047 0.6800 0.6820 0.6840 0.6860 0.6870
3.028000 0.6890 0.6920 0.6940 0.6940 0.6960
3.062047 0.6960 0.6960 0.6960 0.6960 0.6940
3.096000 0.6910 0.6890 0.6860 0.6840 0.6800
3.130047 0.6800 0.6860 0.6860 0.6870 0.6890
3.164000 0.6910 0.6920 0.6940 0.6960 0.6970
3.198047 0.6970 0.6970 0.6960 0.6940 0.6940
3.232000 0.6910 0.6870 0.6820 0.6770 0.6700
3.266047 0.6600 0.6460 0.6290 0.6050 0.5750
3.300000 0.5370 0.4930 0.4400 0.3770 0.2840
3.334047 0.1990 0.1600 0.1050 0.0560 0.0390
3.368000 0.0370 0.0370 0.0370 0.0370 0.0370
3.402047 0.0370 0.0400 0.0540 0.0610 0.0760
3.436000 0.0870 0.0970 0.1040 0.1050 0.1050
3.470047 0.1040 0.0950 0.0970 0.1140 0.1450
3.504000 0.1840 0.2370 0.3050 0.3950 0.5100
3.538047 0.6040 0.6720 0.7150 0.7370 0.7500
3.572000 0.7520 0.7590 0.7730 0.7880 0.8030
3.606047 0.8080 0.8100 0.8100 0.8120 0.8120
3.640000 0.8100 0.8050 0.8030 0.8020 0.7980
3.674047 0.7950 0.7980 0.8030 0.8050 0.8050
3.708000 0.8070 0.8070 0.8070 0.8030 0.8030
3.742047 0.8030 0.8050 0.8100 0.8130 0.8150
3.776000 0.8150 0.8150 0.8150 0.8130 0.8130
3.810047 0.8120 0.8120 0.8130 0.8190 0.8220
3.844000 0.8250 0.8310 0.8320 0.8360 0.8390
3.878047 0.8430 0.8480 0.8510 0.8540 0.8540
3.912000 0.8510 0.8490 0.8510 0.8530 0.8560
3.946047 0.8560 0.8580 0.8580 0.8580 0.8600
3.981000 0.8600 0.8610 0.8630 0.8610 0.8630
4.015047 0.8630 0.8660 0.8700 0.8720 0.8730
4.049000 0.8750 0.8770 0.8780 0.8780 0.8780
4.083047 0.8780 0.8800 0.8800 0.8800 0.8820
4.117000 0.8820 0.8850 0.8870 0.8870 0.8870
4.151047 0.8870 0.8870 0.8870 0.8870 0.8870
4.185000 0.8850 0.8850 0.8850 0.8850 0.8830
4.219047 0.8820 0.8800 0.8770 0.8730 0.8720
4.253000 0.8680 0.8680 0.8700 0.8700 0.8720
4.287047 0.8730 0.8750 0.8770 0.8770 0.8800
4.321000 0.8820 0.8850 0.8890 0.8950 0.8990
4.355047 0.9010 0.9070 0.9110 0.9110 0.9090
4.389000 0.9070 0.9040 0.9040 0.9020 0.9010
4.423047 0.9020 0.9020 0.9060 0.9070 0.9090
4.457000 0.9110 0.9120 0.9140 0.9140 0.9120
4.491047 0.9120 0.9110 0.9090 0.9070 0.9070
4.525000 0.9060 0.9060 0.9040 0.9040 0.9060
4.559047 0.9090 0.9110 0.9140 0.9190 0.9240
4.593000 0.9280 0.9300 0.9310 0.9310 0.9330
4.627047 0.9350 0.9360 0.9380 0.9400 0.9400
4.661000 0.9410 0.9410 0.9430 0.9430 0.9450
4.695047 0.9450 0.9450 0.9480 0.9500 0.9520
4.729000 0.9570 0.9570 0.9590 0.9600 0.9620
4.763047 0.9640 0.9650 0.9650 0.9650 0.9650
4.797000 0.9650 0.9650 0.9670 0.9670 0.9690
4.831047 0.9690 0.9720 0.9740 0.9740 0.9740
4.865000 0.9700 0.9700 0.9700 0.9700 0.9700
4.899047 0.9700 0.9700 0.9700 0.9700 0.9700
4.933000 0.9700 0.9700 0.9720 0.9740 0.9740
4.967047 0.9740 0.9760 0.9760 0.9770 0.9790
5.001000 0.9790 0.9810 0.9810 0.9810 0.9810
5.035047 0.9790 0.9790 0.9760 0.9720 0.9700
5.070000 0.9720 0.9740 0.9740 0.9760 0.9770
5.104047 0.9790 0.9790 0.9770 0.9770 0.9740
5.138000 0.9720 0.9700 0.9700 0.9690 0.9690
5.172047 0.9700 0.9720 0.9720 0.9700 0.9720
5.206000 0.9720 0.9740 0.9760 0.9770 0.9790
5.240047 0.9790 0.9810 0.9810 0.9810 0.9810
5.274000 0.9810 0.9810 0.9810 0.9790 0.9770
5.308047 0.9770 0.9770 0.9790 0.9790 0.9790
5.342000 0.9790 0.9760 0.9740 0.9720 0.9690
5.376047 0.9690 0.9670 0.9640 0.9600 0.9550
5.410000 0.9530 0.9520 0.9530 0.9550 0.9590
5.444047 0.9620 0.9640 0.9650 0.9670 0.9670
5.478000 0.9640 0.9620 0.9620 0.9600 0.9600
5.512047 0.9590 0.9590 0.9570 0.9570 0.9550
5.546000 0.9550 0.9530 0.9520 0.9500 0.9480
5.580047 0.9470 0.9380 0.9330 0.9310 0.9300
5.614000 0.9240 0.9210 0.9190 0.9120 0.9040
5.648047 0.9020 0.9010 0.9010 0.8970 0.8890
5.682000 0.8820 0.8770 0.8720 0.8630 0.8540
5.716047 0.8530 0.8480 0.8430 0.8360 0.8270
5.750000 0.8190 0.8130 0.8050 0.7960 0.7930
5.784047 0.7840 0.7760 0.7660 0.7610 0.7550
5.818000 0.7490 0.7380 0.7280 0.7210 0.7180
5.852047 0.7150 0.7090 0.7040 0.7010 0.6960
5.886000 0.6860 0.6750 0.6670 0.6580 0.6500
5.920047 0.6430 0.6360 0.6290 0.6190 0.6090
5.954000 0.5950 0.5850 0.5730 0.5660 0.5540
5.988047 0.5400 0.5270 0.5170 0.5080 0.5000
6.022000 0.4980 0.4890 0.4790 0.4650 0.4410
6.056047 0.4190 0.4010 0.3900 0.3750 0.3600
6.090000 0.3370 0.3150 0.3080 0.2980 0.2810
6.124047 0.2570 0.2450 0.2350 0.2320 0.2350
6.158000 0.2400 0.2500 0.2500 0.2490 0.2350
6.192047 0.2150 0.1960 0.1920 0.1920 0.1990
6.227000 0.2210 0.2370 0.2490 0.2570 0.2590
6.261047 0.2570 0.2470 0.2370 0.2260 0.2150
6.295000 0.2010 0.1940 0.1800 0.1740 0.1680
6.329047 0.1670 0.1650 0.1670 0.1750 0.1820
6.363000 0.1920 0.2010 0.2110 0.2180 0.2250
6.397047 0.2300 0.2400 0.2450 0.2470 0.2470
6.431000 0.2490 0.2520 0.2620 0.2730 0.2840
6.465047 0.2930 0.2980 0.3070 0.3130 0.3250
6.499000 0.3370 0.3480 0.3530 0.3610 0.3720
6.533047 0.3830 0.3950 0.4070 0.4190 0.4310
6.567000 0.4400 0.4480 0.4530 0.4590 0.4650
6.601047 0.4810 0.4930 0.5000 0.5030 0.5100
6.635000 0.5110 0.5150 0.5200 0.5300 0.5320
6.669047 0.5340 0.5340 0.5350 0.5370 0.5350
6.703000 0.5270 0.5150 0.5030 0.4940 0.4810
6.737047 0.4600 0.4400 0.4070 0.3630 0.3000
6.771000 0.2420 0.2150 0.2010 0.1910 0.1800
6.805047 0.1740 0.1680 0.1700 0.1790 0.1820
6.839000 0.1870 0.1960 0.1990 0.2030 0.2080
6.873047 0.2110 0.2150 0.2200 0.2280 0.2330
6.907000 0.2400 0.2470 0.2550 0.2660 0.2880
6.941047 0.3070 0.3240 0.3410 0.3560 0.3720
6.975000 0.3850 0.4010 0.4140 0.4210 0.4360
7.009047 0.4430 0.4470 0.4520 0.4600 0.4700
7.043000 0.4760 0.4770 0.4770 0.4770 0.4760
7.077047 0.4720 0.4670 0.4620 0.4550 0.4520
7.111000 0.4470 0.4400 0.4310 0.4230 0.4110
7.145047 0.3970 0.3800 0.3610 0.3410 0.3150
7.179000 0.2860 0.2620 0.2400 0.2200 0.2040
7.213047 0.1890 0.1750 0.1620 0.1500 0.1360
7.247000 0.1240 0.1160 0.1140 0.1170 0.1330
7.281047 0.1410 0.1460 0.1480 0.1480 0.1500
7.316000 0.1550 0.1650 0.1790 0.1990 0.2210
7.350047 0.2440 0.2740 0.3070 0.3560 0.3950
7.384000 0.4180 0.4470 0.4770 0.4980 0.5200
7.418047 0.5220 0.5220 0.5180 0.4960 0.4860
7.452000 0.4740 0.4570 0.4410 0.4240 0.4070
7.486047 0.3970 0.3780 0.3650 0.3480 0.3340
7.520000 0.3190 0.2980 0.2780 0.2540 0.2320
7.554047 0.2110 0.1940 0.1800 0.1720 0.1580
7.588000 0.1510 0.1500 0.1510 0.1530 0.1560
7.622047 0.1560 0.1530 0.1500 0.1430 0.1380
7.656000 0.1270 0.1170 0.1140 0.1140 0.1170
7.690047 0.1220 0.1270 0.1360 0.1430 0.1510
7.724000 0.1560 0.1630 0.1700 0.1770 0.1820
7.758047 0.1890 0.1920 0.1990 0.2060 0.2090
7.792000 0.2130 0.2160 0.2200 0.2250 0.2320
7.826047 0.2400 0.2470 0.2520 0.2550 0.2620
7.860000 0.2670 0.2740 0.2810 0.2880 0.2960
7.894047 0.3030 0.3070 0.3100 0.3130 0.3200
7.928000 0.3290 0.3340 0.3410 0.3480 0.3510
7.962047 0.3540 0.3610 0.3650 0.3700 0.3720
7.996000 0.3780 0.3820 0.3850 0.3890 0.3920
8.030047 0.3940 0.3970 0.4010 0.4020 0.4060
8.064000 0.4090 0.4110 0.4140 0.4180 0.4210
8.098047 0.4230 0.4240 0.4280 0.4300 0.4330
8.132000 0.4350 0.4380 0.4410 0.4470 0.4500
8.166047 0.4550 0.4590 0.4600 0.4620 0.4640
8.200000 0.4640 0.4650 0.4670 0.4700 0.4740
8.234047 0.4790 0.4820 0.4840 0.4840 0.4860
8.268000 0.4880 0.4910 0.4930 0.4980 0.5010
8.302047 0.5010 0.5060 0.5100 0.5100 0.5110
8.336000 0.5130 0.5150 0.5170 0.5180 0.5180
8.370047 0.5180 0.5200 0.5230 0.5270 0.5300
8.404000 0.5340 0.5350 0.5370 0.5370 0.5370
8.438047 0.5390 0.5420 0.5440 0.5470 0.5470
8.473000 0.5490 0.5490 0.5490 0.5510 0.5520
8.507047 0.5520 0.5560 0.5560 0.5580 0.5580
8.541000 0.5590 0.5590 0.5610 0.5630 0.5640
8.575047 0.5680 0.5710 0.5750 0.5780 0.5780
8.609000 0.5800 0.5800 0.5810 0.5810 0.5810
8.643047 0.5780 0.5780 0.5810 0.5870 0.5900
8.677000 0.5970 0.5980 0.6000 0.6000 0.6020
8.711047 0.6040 0.6040 0.6070 0.6070 0.6120
8.745000 0.6160 0.6170 0.6190 0.6210 0.6240
8.779047 0.6270 0.6310 0.6340 0.6340 0.6360
8.813000 0.6380 0.6390 0.6410 0.6430 0.6430
8.847047 0.6450 0.6450 0.6450 0.6450 0.6450
8.881000 0.6450 0.6450 0.6450 0.6460 0.6480
8.915047 0.6480 0.6510 0.6510 0.6530 0.6530
8.949000 0.6550 0.6550 0.6560 0.6560 0.6580
8.983047 0.6600 0.6630 0.6630 0.6630 0.6630
9.017000 0.6630 0.6620 0.6620 0.6620 0.6620
9.051047 0.6630 0.6670 0.6680 0.6680 0.6680
9.085000 0.6670 0.6630 0.6620 0.6630 0.6670
9.119047 0.6670 0.6680 0.6680 0.6670 0.6620
9.153000 0.6620 0.6630 0.6670 0.6680 0.6680
9.187047 0.6680 0.6700 0.6700 0.6680 0.6680
9.221000 0.6680 0.6680 0.6670 0.6670 0.6670
9.255047 0.6670 0.6680 0.6700 0.6680 0.6680
9.289000 0.6670 0.6670 0.6670 0.6670 0.6680
9.323047 0.6680 0.6680 0.6680 0.6680 0.6680
9.357000 0.6650 0.6630 0.6620 0.6620 0.6620
9.391047 0.6600 0.6560 0.6550 0.6500 0.6460
9.425000 0.6390 0.6340 0.6270 0.6190 0.6050
9.459047 0.5950 0.5800 0.5610 0.5420 0.5250
9.493000 0.5080 0.4960 0.4840 0.4810 0.4810
9.527047 0.4820 0.4890 0.4960 0.5000 0.5060
9.561000 0.5130 0.5200 0.5290 0.5370 0.5470
9.595047 0.5580 0.5680 0.5800 0.5810 0.5810
9.630000 0.5830 0.5830 0.5810 0.5710 0.5560
9.664047 0.5470 0.5390 0.5270 0.5100 0.5000
9.698000 0.4930 0.4890 0.4880 0.4840 0.4860
9.732047 0.4890 0.4960 0.5000 0.5010 0.5080
9.766000 0.5100 0.5100 0.5080 0.5030 0.5000
9.800047 0.4960 0.4890 0.4860 0.4840 0.4840
9.834000 0.4880 0.4960 0.5050 0.5110 0.5200
9.868047 0.5270 0.5370 0.5460 0.5510 0.5590
9.902000 0.5680 0.5750 0.5800 0.5850 0.5900
9.936047 0.5970 0.6000 0.6070 0.6100 0.6140
9.970000 0.6160 0.6190 0.6240 0.6290 0.6340
10.004047 0.6360 0.6390 0.6410 0.6410 0.6430
10.038000 0.6450 0.6480 0.6480 0.6500 0.6500
10.072047 0.6560 0.6580 0.6600 0.6620 0.6620
10.106000 0.6620 0.6650 0.6670 0.6680 0.6700
10.140047 0.6720 0.6720 0.6720 0.6740 0.6740
10.174000 0.6750 0.6770 0.6770 0.6790 0.6790
10.208047 0.6790 0.6790 0.6790 0.6790 0.6790
10.242000 0.6790 0.6790 0.6790 0.6790 0.6800
10.276047 0.6820 0.6820 0.6840 0.6860 0.6870
10.310000 0.6890 0.6910 0.6920 0.6940 0.6960
10.344047 0.6970 0.6970 0.6990 0.6990 0.6990
10.378000 0.7010 0.7010 0.7010 0.7010 0.7030
10.412047 0.7030 0.7060 0.7080 0.7090 0.7110
10.446000 0.7130 0.7130 0.7150 0.7160 0.7210
10.480047 0.7230 0.7230 0.7230 0.7230 0.7230
10.514000 0.7250 0.7250 0.7260 0.7280 0.7320
10.548047 0.7350 0.7350 0.7370 0.7380 0.7380
10.582000 0.7380 0.7400 0.7400 0.7400 0.7380
10.616047 0.7380 0.7370 0.7320 0.7250 0.7160
10.650000 0.7060 0.6890 0.6650 0.6260 0.5980
10.684047 0.5590 0.5230 0.4930 0.4640 0.4570
10.719000 0.4570 0.4670 0.4930 0.5130 0.5390
10.753047 0.5590 0.5760 0.5850 0.5980 0.5980
10.787000 0.6000 0.5970 0.5870 0.5730 0.5590
10.821047 0.5510 0.5490 0.5510 0.5690 0.5830
10.855000 0.5930 0.6040 0.6160 0.6260 0.6360
10.889047 0.6430 0.6460 0.6480 0.6500 0.6530
10.923000 0.6600 0.6650 0.6680 0.6700 0.6740
10.957047 0.6770 0.6790 0.6820 0.6860 0.6870
10.991000 0.6910 0.6960 0.6970 0.6990 0.6990
11.025047 0.7010 0.7030 0.7030 0.7040 0.7040
11.059000 0.7040 0.7060 0.7080 0.7090 0.7110
11.093047 0.7110 0.7110 0.7110 0.7110 0.7110
11.127000 0.7130 0.7150 0.7150 0.7160 0.7160
11.161047 0.7180 0.7160 0.7180 0.7180 0.7180
11.195000 0.7180 0.7200 0.7210 0.7210 0.7210
11.229047 0.7230 0.7210 0.7200 0.7200 0.7210
11.263000 0.7210 0.7230 0.7250 0.7250 0.7260
11.297047 0.7280 0.7300 0.7320 0.7320 0.7320
11.331000 0.7330 0.7330 0.7350 0.7370 0.7380
11.365047 0.7400 0.7420 0.7440 0.7440 0.7440
11.399000 0.7440 0.7420 0.7420 0.7420 0.7400
11.433047 0.7400 0.7420 0.7440 0.7450 0.7450
11.467000 0.7450 0.7470 0.7470 0.7490 0.7470
11.501047 0.7490 0.7490 0.7490 0.7490 0.7500
11.535000 0.7500 0.7500 0.7500 0.7520 0.7540
11.569047 0.7570 0.7570 0.7540 0.7490 0.7490
11.603000 0.7500 0.7540 0.7540 0.7540 0.7540
11.637047 0.7540 0.7540 0.7570 0.7570 0.7520
11.671000 0.7520 0.7520 0.7520 0.7520 0.7520
11.705047 0.7520 0.7520 0.7550 0.7550 0.7550
11.739000 0.7550 0.7550 0.7550 0.7550 0.7550
11.773047 0.7550 0.7550 0.7540 0.7540 0.7540
11.807000 0.7550 0.7550 0.7550 0.7540 0.7540
11.841047 0.7500 0.7520 0.7550 0.7590 0.7590
11.876000 0.7590 0.7590 0.7590 0.7590 0.7610
11.910047 0.7590 0.7610 0.7610 0.7610 0.7620
11.944000 0.7640 0.7640 0.7660 0.7640 0.7660
11.978047 0.7660 0.7660 0.7660 0.7670 0.7670
12.012000 0.7670 0.7620 0.7640 0.7640 0.7670
12.046047 0.7670 0.7670 0.7710 0.7710 0.7690
12.080000 0.7660 0.7670 0.7690 0.7710 0.7710
12.114047 0.7710 0.7710 0.7710 0.7710 0.7690
12.148000 0.7670 0.7660 0.7670 0.7690 0.7710
12.182047 0.7710 0.7730 0.7730 0.7740 0.7740
12.216000 0.7740 0.7730 0.7730 0.7710 0.7710
12.250047 0.7710 0.7710 0.7710 0.7710 0.7710
12.284000 0.7730 0.7740 0.7740 0.7740 0.7740
12.318047 0.7740 0.7740 0.7730 0.7730 0.7730
12.352000 0.7730 0.7740 0.7740 0.7740 0.7740
12.386047 0.7740 0.7740 0.7780 0.7780 0.7740
12.420000 0.7740 0.7740 0.7740 0.7760 0.7760
12.454047 0.7760 0.7760 0.7760 0.7780 0.7780
12.488000 0.7780 0.7760 0.7740 0.7740 0.7740
12.522047 0.7740 0.7760 0.7780 0.7810 0.7810
12.556000 0.7830 0.7830 0.7830 0.7830 0.7830
12.590047 0.7830 0.7860 0.7860 0.7830 0.7830
12.624000 0.7830 0.7840 0.7860 0.7840 0.7860
12.658047 0.7880 0.7880 0.7880 0.7860 0.7840
12.692000 0.7840 0.7840 0.7860 0.7880 0.7880
12.726047 0.7860 0.7840 0.7840 0.7860 0.7880
12.760000 0.7880 0.7880 0.7880 0.7880 0.7880
12.794047 0.7880 0.7900 0.7900 0.7900 0.7880
12.828000 0.7880 0.7860 0.7860 0.7860 0.7840
12.862047 0.7830 0.7830 0.7840 0.7860 0.7860
12.896000 0.7860 0.7860 0.7860 0.7860 0.7860
12.930047 0.7860 0.7840 0.7840 0.7830 0.7830
12.965000 0.7840 0.7840 0.7840 0.7860 0.7860
12.999047 0.7860 0.7860 0.7860 0.7840 0.7840
13.033000 0.7840 0.7830 0.7830 0.7830 0.7840
13.067047 0.7840 0.7860 0.7860 0.7860 0.7860
13.101000 0.7840 0.7840 0.7840 0.7860 0.7860
13.135047 0.7860 0.7840 0.7840 0.7830 0.7830
13.169000 0.7840 0.7840 0.7840 0.7840 0.7840
13.203047 0.7860 0.7860 0.7840 0.7830 0.7830
13.237000 0.7810 0.7830 0.7810 0.7810 0.7810
13.271047 0.7810 0.7790 0.7790 0.7790 0.7790
13.305000 0.7810 0.7810 0.7830 0.7830 0.7830
13.339047 0.7810 0.7790 0.7790 0.7790 0.7790
13.373000 0.7790 0.7790 0.7790 0.7810 0.7810
13.407047 0.7810 0.7790 0.7780 0.7730 0.7710
13.441000 0.7690 0.7710 0.7710 0.7710 0.7690
13.475047 0.7670 0.7670 0.7660 0.7670 0.7670
13.509000 0.7670 0.7670 0.7670 0.7660 0.7640
13.543047 0.7620 0.7610 0.7590 0.7590 0.7570
13.577000 0.7550 0.7550 0.7540 0.7540 0.7540
13.611047 0.7540 0.7540 0.7540 0.7540 0.7520
13.645000 0.7520 0.7520 0.7520 0.7500 0.7500
13.679047 0.7490 0.7490 0.7490 0.7490 0.7500
13.713000 0.7500 0.7490 0.7490 0.7470 0.7470
13.747047 0.7470 0.7470 0.7490 0.7490 0.7470
13.781000 0.7450 0.7440 0.7420 0.7420 0.7420
13.815047 0.7420 0.7400 0.7400 0.7380 0.7370
13.849000 0.7370 0.7350 0.7320 0.7300 0.7280
13.883047 0.7280 0.7260 0.7250 0.7230 0.7200
13.917000 0.7200 0.7210 0.7230 0.7250 0.7250
13.951047 0.7250 0.7250 0.7260 0.7260 0.7250
13.985000 0.7230 0.7230 0.7210 0.7200 0.7180
14.019047 0.7180 0.7160 0.7150 0.7090 0.7030
14.053000 0.6990 0.6920 0.6860 0.6770 0.6680
14.087047 0.6550 0.6480 0.6380 0.6270 0.6210
14.122000 0.6140 0.6000 0.5900 0.5750 0.5580
14.156047 0.5400 0.5250 0.5080 0.4940 0.4790
14.190000 0.4650 0.4500 0.4350 0.4180 0.3990
14.224047 0.3920 0.3780 0.3720 0.3660 0.3610
14.258000 0.3580 0.3560 0.3540 0.3580 0.3630
14.292047 0.3700 0.3750 0.3820 0.3890 0.3970
14.326000 0.4060 0.4190 0.4330 0.4450 0.4590
14.360047 0.4720 0.4860 0.4980 0.5110 0.5230
14.394000 0.5290 0.5390 0.5610 0.5690 0.5800
14.428047 0.5930 0.5970 0.6020 0.6090 0.6160
14.462000 0.6220 0.6270 0.6450 0.6480 0.6500
14.496047 0.6510 0.6580 0.6630 0.6650 0.6670
14.530000 0.6700 0.6740 0.6750 0.6770 0.6790
14.564047 0.6790 0.6790 0.6790 0.6790 0.6790
14.598000 0.6770 0.6740 0.6700 0.6680 0.6670
14.632047 0.6620 0.6600 0.6550 0.6510 0.6500
14.666000 0.6500 0.6480 0.6480 0.6460 0.6460
14.700047 0.6460 0.6480 0.6500 0.6510 0.6530
14.734000 0.6550 0.6580 0.6620 0.6670 0.6680
14.768047 0.6700 0.6720 0.6770 0.6820 0.6890
14.802000 0.6920 0.6960 0.6970 0.6970 0.6990
14.836047 0.6990 0.7010 0.7040 0.7060 0.7060
14.870000 0.7040 0.7040 0.7060 0.7130 0.7160
14.904047 0.7180 0.7210 0.7210 0.7230 0.7230
14.938000 0.7230 0.7230 0.7210 0.7210 0.7200
14.972047 0.7160 0.7130 0.7110 0.7060 0.7010
15.006000 0.6920 0.6870 0.6840 0.6820 0.6770
15.040047 0.6750 0.6720 0.6670 0.6630 0.6630
15.074000 0.6650 0.6670 0.6700 0.6750 0.6820
15.108047 0.6890 0.6970 0.7040 0.7080 0.7090
15.142000 0.7110 0.7130 0.7150 0.7160 0.7180
15.176047 0.7200 0.7200 0.7200 0.7210 0.7230
15.211000 0.7230 0.7230 0.7210 0.7200 0.7200
15.245047 0.7180 0.7150 0.7110 0.7060 0.7030
15.279000 0.7030 0.7030 0.7030 0.7010 0.6990
15.313047 0.6990 0.6970 0.6970 0.6960 0.6960
15.347000 0.6960 0.6960 0.6960 0.6960 0.6960
15.381047 0.6960 0.6960 0.6960 0.6960 0.6960
15.415000 0.6960 0.6940 0.6920 0.6910 0.6890
15.449047 0.6870 0.6860 0.6840 0.6820 0.6840
15.483000 0.6840 0.6840 0.6840 0.6820 0.6820
15.517047 0.6800 0.6790 0.6790 0.6770 0.6790
15.551000 0.6790 0.6800 0.6790 0.6770 0.6750
15.585047 0.6770 0.6770 0.6770 0.6750 0.6750
15.619000 0.6740 0.6720 0.6720 0.6740 0.6750
15.653047 0.6770 0.6770 0.6740 0.6720 0.6700
15.687000 0.6680 0.6670 0.6650 0.6650 0.6630
15.721047 0.6650 0.6630 0.6620 0.6620 0.6600
15.755000 0.6580 0.6580 0.6560 0.6510 0.6530
15.789047 0.6510 0.6510 0.6500 0.6480 0.6500
15.823000 0.6480 0.6480 0.6480 0.6460 0.6430
15.857047 0.6410 0.6410 0.6390 0.6380 0.6380
15.891000 0.6380 0.6360 0.6360 0.6340 0.6340
15.925047 0.6330 0.6310 0.6290 0.6270 0.6260
15.959000 0.6220 0.6210 0.6190 0.6170 0.6170
15.993047 0.6170
##END=
