##TITLE=GLUTAMIC ACID, N-(2,5-DIFLUORO-4-NITROBENZOYL)-
##JCAMP-DX=4.24
##DATA TYPE=INFRARED SPECTRUM
##CLASS=COBLENTZ III
##ORIGIN=SOUTHERN RESEARCH INSTITUTE
##OWNER=COBLENTZ SOCIETY
Collection (C) 2018 copyright by the U.S. Secretary of Commerce
on behalf of the United States of America. All rights reserved.
##DATE=1961/05/22
##NAMES=N-(2,5-difluoro-4-nitrobenzoyl)glutamic acid
##MOLFORM=C12 H10 F2 N2 O7
##SOURCE REFERENCE=COBLENTZ NO. 8662
##$NIST ID=B6008662
##$NIST SOURCE=COBLENTZ
##$NIST IMAGE=cob8662
##SPECTROMETER/DATA SYSTEM=PERKIN-ELMER 221 (GRATING)
##INSTRUMENT PARAMETERS=FILTER CHANGE AT 2490, 980 CM^-^1, GRATING FOR 4000-1428 CM^-^1, NaCl PRISM FOR 1428-650 CM^-^1
##STATE=SOLID (1 mg / 650 mg KBr DISC)
##SAMPLING PROCEDURE=TRANSMISSION
##RESOLUTION=4
##DATA PROCESSING=DIGITIZED BY NIST FROM HARD COPY (FROM TWO SEGMENTS)
##XUNITS=1/CM
##YUNITS=TRANSMITTANCE
##XFACTOR=1.000000
##YFACTOR=1
##DELTAX=1.800569
##FIRSTX=640.582
##LASTX=4029.25
##FIRSTY=0.535
##MAXX=4029.25
##MINX=640.582
##MAXY=0.844
##MINY=0.0610044
##NPOINTS=1883
##XYDATA=(X++(Y..Y))
640.582000 0.5350 0.5380 0.5390 0.5470 0.5520
649.584846 0.5550 0.5580 0.5600 0.5610 0.5620
658.587692 0.5630 0.5630 0.5630 0.5620 0.5620
667.590537 0.5610 0.5580 0.5580 0.5570 0.5570
676.593383 0.5560 0.5560 0.5560 0.5550 0.5550
685.596229 0.5550 0.5550 0.5560 0.5560 0.5560
694.599075 0.5570 0.5610 0.5650 0.5740 0.5820
703.601920 0.5900 0.5960 0.6010 0.6060 0.6100
712.604766 0.6170 0.6200 0.6220 0.6280 0.6300
721.607612 0.6310 0.6310 0.6340 0.6340 0.6330
730.610458 0.6320 0.6310 0.6280 0.6260 0.6220
739.613303 0.6160 0.6130 0.6080 0.5476 0.5272
748.616149 0.5060 0.4930 0.4860 0.4830 0.4800
757.618995 0.4711 0.4541 0.4262 0.3874 0.3682
766.621841 0.3480 0.3600 0.3770 0.4099 0.4339
775.624686 0.4479 0.4490 0.4480 0.4430 0.4222
784.627532 0.4140 0.4080 0.4010 0.3930 0.3880
793.630378 0.3870 0.3880 0.5744 0.5909 0.5920
802.633224 0.5910 0.5870 0.5501 0.5490 0.5490
811.636069 0.5599 0.5709 0.5809 0.5919 0.6029
820.638915 0.6240 0.6350 0.6460 0.6540 0.6570
829.641761 0.6630 0.6680 0.6670 0.6660 0.6650
838.644607 0.6640 0.6590 0.6530 0.6400 0.6241
847.647453 0.6160 0.6081 0.5931 0.5831 0.5800
856.650298 0.5710 0.5590 0.5580 0.5590 0.5630
865.653144 0.5729 0.5800 0.5850 0.5900 0.5930
874.655990 0.5950 0.5970 0.5990 0.5990 0.5980
883.658836 0.5980 0.5950 0.5900 0.5860 0.5751
892.661681 0.5590 0.5390 0.5180 0.5000 0.4851
901.664527 0.4820 0.4770 0.4532 0.4510 0.4510
910.667373 0.4891 0.5450 0.5989 0.6000 0.6020
919.670219 0.6010 0.6000 0.5980 0.5921 0.5900
928.673064 0.5900 0.5910 0.5920 0.5960 0.5990
937.675910 0.6030 0.6040 0.6149 0.6190 0.6249
946.678756 0.6320 0.6360 0.6390 0.6410 0.6430
955.681602 0.6430 0.6440 0.6440 0.6450 0.6470
964.684447 0.6470 0.6500 0.6510 0.6829 0.6960
973.687293 0.6960 0.7069 0.7139 0.7170 0.7239
982.690139 0.7360 0.7460 0.7470 0.7470 0.7460
991.692985 0.7450 0.7440 0.7440 0.7430 0.7420
1000.695830 0.7410 0.7390 0.7380 0.7370 0.7360
1009.698676 0.7350 0.7340 0.7320 0.7300 0.7270
1018.701522 0.7220 0.7190 0.7150 0.7110 0.7060
1027.704368 0.7000 0.6930 0.6861 0.6801 0.6800
1036.707214 0.6810 0.6830 0.6870 0.6880 0.6900
1045.710059 0.6880 0.6860 0.6840 0.6820 0.6790
1054.712905 0.6740 0.6720 0.6720 0.6730 0.6730
1063.715751 0.6750 0.6750 0.6760 0.6760 0.6760
1072.718597 0.6760 0.6750 0.6730 0.6720 0.6421
1081.721442 0.6141 0.6120 0.6080 0.6030 0.5674
1090.724288 0.5349 0.5040 0.4820 0.4590 0.4580
1099.727134 0.4590 0.6390 0.6539 0.6540 0.6550
1108.729980 0.6560 0.6540 0.6460 0.6280 0.6200
1117.732825 0.6120 0.5991 0.5881 0.5781 0.5691
1126.735671 0.5590 0.5490 0.5370 0.5220 0.5021
1135.738517 0.4881 0.4820 0.4750 0.4591 0.4590
1144.741363 0.4591 0.4980 0.5000 0.4990 0.4970
1153.744208 0.4930 0.4850 0.4761 0.4413 0.4281
1162.747054 0.3979 0.3529 0.3090 0.2970 0.3658
1171.749900 0.3660 0.3650 0.3580 0.3372 0.3162
1180.752746 0.2919 0.2690 0.2450 0.2290 0.2130
1189.755591 0.1712 0.1680 0.2445 0.2658 0.2779
1198.758437 0.2870 0.2930 0.3010 0.3110 0.3150
1207.761283 0.3150 0.3150 0.3140 0.3120 0.3100
1216.764129 0.3070 0.3060 0.3060 0.3060 0.3070
1225.766975 0.3130 0.3269 0.3648 0.3848 0.4009
1234.769820 0.4130 0.4150 0.4250 0.4340 0.4340
1243.772666 0.4340 0.4250 0.4012 0.3851 0.3751
1252.775512 0.3680 0.3630 0.3570 0.3520 0.3470
1261.778358 0.3440 0.3420 0.3400 0.3390 0.3380
1270.781203 0.3380 0.3380 0.3390 0.3410 0.3649
1279.784049 0.3680 0.3849 0.4009 0.4020 0.4010
1288.786895 0.3969 0.3790 0.3620 0.3550 0.3480
1297.789741 0.3460 0.3450 0.3629 0.3789 0.3879
1306.792586 0.3970 0.4060 0.4190 0.4330 0.4340
1315.795432 0.4340 0.4111 0.4001 0.3901 0.3791
1324.798278 0.3680 0.3660 0.3540 0.3420 0.3200
1333.801124 0.3160 0.2802 0.2452 0.2430 0.2440
1342.803969 0.2540 0.2650 0.2760 0.2800 0.3000
1351.806815 0.3249 0.3837 0.4108 0.4338 0.4469
1360.809661 0.4580 0.4590 0.4620 0.4640 0.4660
1369.812507 0.4660 0.4670 0.4670 0.4660 0.4640
1378.815352 0.4630 0.4620 0.4620 0.4590 0.4570
1387.818198 0.4550 0.4421 0.4072 0.3713 0.3581
1396.821044 0.3439 0.3149 0.2920 0.2700 0.2470
1405.823890 0.2370 0.2250 0.2031 0.2010 0.1583
1414.826736 0.3191 0.3330 0.3340 0.3350 0.3370
1423.829581 0.3390 0.3420 0.3440 0.3619 0.3699
1432.832427 0.3971 0.4180 0.4290 0.4320 0.4330
1441.835273 0.4340 0.4350 0.4987 0.5189 0.5379
1450.838119 0.5400 0.5511 0.5730 0.5730 0.5720
1459.840964 0.5680 0.5630 0.5580 0.5491 0.5371
1468.843810 0.5079 0.4849 0.4629 0.4170 0.3801
1477.846656 0.3660 0.3282 0.2912 0.2691 0.3622
1486.849502 0.3619 0.3470 0.3320 0.3170 0.3030
1495.852347 0.3708 0.3989 0.4746 0.4760 0.4591
1504.855193 0.4379 0.4049 0.3690 0.3440 0.3190
1513.858039 0.2372 0.2211 0.2031 0.1841 0.1622
1522.860885 0.1389 0.1170 0.1060 0.0950 0.0730
1531.863730 0.0720 0.1049 0.1239 0.1389 0.1489
1540.866576 0.1561 0.1750 0.1760 0.1710 0.1630
1549.869422 0.1570 0.1480 0.1381 0.1360 0.1380
1558.872268 0.1521 0.1670 0.1801 0.2530 0.2900
1567.875113 0.3579 0.3839 0.4019 0.4109 0.4199
1576.877959 0.4690 0.4700 0.4690 0.4680 0.4680
1585.880805 0.4451 0.4101 0.3642 0.3362 0.3072
1594.883651 0.2390 0.2290 0.2293 0.3780 0.4010
1603.886497 0.4250 0.4469 0.4679 0.4690 0.4700
1612.889342 0.4700 0.4669 0.4510 0.4310 0.4140
1621.892188 0.3960 0.3781 0.3601 0.3520 0.3421
1630.895034 0.3229 0.3039 0.2860 0.2670 0.2470
1639.897880 0.2370 0.2280 0.2081 0.1881 0.1681
1648.900725 0.1469 0.1269 0.1060 0.0960 0.0850
1657.903571 0.0730 0.0620 0.0610 0.0620 0.1117
1666.906417 0.1631 0.1872 0.2331 0.2550 0.2810
1675.909263 0.2850 0.2850 0.2352 0.2320 0.2181
1684.912108 0.2029 0.1919 0.1780 0.1680 0.1390
1693.914954 0.1090 0.1070 0.1080 0.1189 0.1309
1702.917800 0.1450 0.1550 0.1600 0.1800 0.1800
1711.920646 0.1800 0.1770 0.1720 0.1670 0.1620
1720.923491 0.1569 0.1440 0.1420 0.1430 0.1510
1729.926337 0.1690 0.1830 0.1950 0.2159 0.2150
1738.929183 0.2129 0.1869 0.1640 0.1510 0.1380
1747.932029 0.1370 0.1380 0.1500 0.1570 0.1828
1756.934874 0.2721 0.2850 0.2870 0.3040 0.3250
1765.937720 0.3630 0.4059 0.4339 0.4579 0.4997
1774.940566 0.5171 0.5341 0.5490 0.5630 0.5740
1783.943412 0.5850 0.5950 0.6040 0.6179 0.6230
1792.946258 0.6290 0.6330 0.6370 0.6400 0.6440
1801.949103 0.6470 0.6490 0.6520 0.6550 0.6570
1810.951949 0.6610 0.6630 0.6680 0.6720 0.6760
1819.954795 0.6800 0.6850 0.6890 0.6930 0.6970
1828.957641 0.7010 0.7050 0.7090 0.7130 0.7150
1837.960486 0.7180 0.7210 0.7220 0.7240 0.7250
1846.963332 0.7270 0.7280 0.7290 0.7300 0.7310
1855.966178 0.7320 0.7330 0.7340 0.7350 0.7350
1864.969024 0.7370 0.7380 0.7390 0.7390 0.7400
1873.971869 0.7400 0.7430 0.7450 0.7450 0.7460
1882.974715 0.7470 0.7490 0.7510 0.7530 0.7530
1891.977561 0.7540 0.7550 0.7560 0.7580 0.7590
1900.980407 0.7590 0.7600 0.7600 0.7600 0.7610
1909.983252 0.7610 0.7620 0.7620 0.7620 0.7620
1918.986098 0.7620 0.7630 0.7630 0.7630 0.7640
1927.988944 0.7650 0.7660 0.7660 0.7670 0.7680
1936.991790 0.7680 0.7690 0.7700 0.7700 0.7700
1945.994635 0.7700 0.7710 0.7720 0.7720 0.7730
1954.997481 0.7740 0.7740 0.7750 0.7760 0.7760
1964.000327 0.7770 0.7770 0.7780 0.7780 0.7780
1973.003173 0.7780 0.7780 0.7780 0.7780 0.7780
1982.006019 0.7780 0.7780 0.7790 0.7790 0.7790
1991.008864 0.7800 0.7800 0.7800 0.7810 0.7810
2000.011710 0.7810 0.7820 0.7820 0.7820 0.7829
2009.014556 0.7830 0.7830 0.7839 0.7840 0.7840
2018.017402 0.7840 0.7848 0.7850 0.7850 0.7850
2027.020247 0.7850 0.7857 0.7860 0.7860 0.7860
2036.023093 0.7860 0.7860 0.7860 0.7860 0.7860
2045.025939 0.7866 0.7870 0.7870 0.7870 0.7870
2054.028785 0.7875 0.7880 0.7880 0.7880 0.7880
2063.031630 0.7880 0.7880 0.7880 0.7880 0.7880
2072.034476 0.7880 0.7880 0.7880 0.7880 0.7880
2081.037322 0.7880 0.7880 0.7880 0.7880 0.7880
2090.040168 0.7880 0.7880 0.7880 0.7880 0.7881
2099.043013 0.7890 0.7890 0.7890 0.7890 0.7890
2108.045859 0.7890 0.7890 0.7899 0.7900 0.7900
2117.048705 0.7900 0.7900 0.7900 0.7900 0.7908
2126.051551 0.7910 0.7910 0.7918 0.7920 0.7920
2135.054396 0.7927 0.7930 0.7930 0.7930 0.7930
2144.057242 0.7930 0.7930 0.7930 0.7936 0.7940
2153.060088 0.7940 0.7940 0.7940 0.7940 0.7940
2162.062934 0.7940 0.7940 0.7940 0.7940 0.7940
2171.065780 0.7940 0.7940 0.7940 0.7940 0.7940
2180.068625 0.7940 0.7940 0.7940 0.7940 0.7940
2189.071471 0.7938 0.7930 0.7930 0.7930 0.7930
2198.074317 0.7930 0.7930 0.7929 0.7920 0.7920
2207.077163 0.7920 0.7920 0.7920 0.7911 0.7910
2216.080008 0.7910 0.7910 0.7910 0.7910 0.7902
2225.082854 0.7900 0.7900 0.7900 0.7900 0.7900
2234.085700 0.7893 0.7890 0.7890 0.7890 0.7890
2243.088546 0.7883 0.7880 0.7880 0.7874 0.7870
2252.091391 0.7870 0.7870 0.7870 0.7865 0.7860
2261.094237 0.7860 0.7860 0.7860 0.7860 0.7860
2270.097083 0.7856 0.7850 0.7846 0.7840 0.7837
2279.099929 0.7830 0.7827 0.7817 0.7807 0.7798
2288.102774 0.7790 0.7788 0.7780 0.7778 0.7768
2297.105620 0.7757 0.7738 0.7718 0.7698 0.7679
2306.108466 0.7659 0.7640 0.7620 0.7620 0.7610
2315.111312 0.7600 0.7600 0.7591 0.7590 0.7581
2324.114157 0.7580 0.7572 0.7562 0.7560 0.7560
2333.117003 0.7560 0.7552 0.7550 0.7550 0.7550
2342.119849 0.7550 0.7550 0.7550 0.7550 0.7550
2351.122695 0.7544 0.7540 0.7540 0.7540 0.7540
2360.125541 0.7540 0.7540 0.7540 0.7540 0.7540
2369.128386 0.7540 0.7540 0.7540 0.7540 0.7536
2378.131232 0.7530 0.7527 0.7517 0.7510 0.7504
2387.134078 0.7482 0.7455 0.7438 0.7426 0.7406
2396.136924 0.7387 0.7368 0.7359 0.7348 0.7329
2405.139769 0.7319 0.7309 0.7299 0.7290 0.7280
2414.142615 0.7260 0.7250 0.7231 0.7221 0.7211
2423.145461 0.7210 0.7210 0.7201 0.7183 0.7172
2432.148307 0.7162 0.7152 0.7134 0.7130 0.7122
2441.151152 0.7113 0.7096 0.7083 0.7073 0.7063
2450.153998 0.7047 0.7040 0.7034 0.7018 0.6998
2459.156844 0.6984 0.6975 0.6965 0.6960 0.6955
2468.159690 0.6945 0.6935 0.6926 0.6916 0.6906
2477.162535 0.6896 0.6886 0.6880 0.6877 0.6867
2486.165381 0.6857 0.6847 0.6840 0.6838 0.6828
2495.168227 0.6818 0.6808 0.6800 0.6800 0.6799
2504.171073 0.6789 0.6779 0.6768 0.6748 0.6718
2513.173918 0.6689 0.6670 0.6660 0.6650 0.6640
2522.176764 0.6630 0.6630 0.6621 0.6611 0.6601
2531.179610 0.6591 0.6581 0.6572 0.6562 0.6552
2540.182456 0.6550 0.6542 0.6533 0.6523 0.6513
2549.185302 0.6496 0.6490 0.6483 0.6480 0.6480
2558.188147 0.6474 0.6470 0.6470 0.6470 0.6470
2567.190993 0.6465 0.6460 0.6455 0.6450 0.6450
2576.193839 0.6446 0.6440 0.6440 0.6440 0.6436
2585.196685 0.6430 0.6430 0.6430 0.6430 0.6430
2594.199530 0.6430 0.6430 0.6430 0.6430 0.6430
2603.202376 0.6428 0.6420 0.6420 0.6419 0.6410
2612.205222 0.6410 0.6409 0.6400 0.6400 0.6400
2621.208068 0.6390 0.6390 0.6390 0.6390 0.6390
2630.210913 0.6381 0.6380 0.6380 0.6371 0.6370
2639.213759 0.6370 0.6370 0.6362 0.6360 0.6360
2648.216605 0.6353 0.6350 0.6350 0.6343 0.6340
2657.219451 0.6340 0.6340 0.6340 0.6340 0.6340
2666.222296 0.6340 0.6340 0.6340 0.6340 0.6340
2675.225142 0.6345 0.6350 0.6350 0.6350 0.6354
2684.227988 0.6360 0.6360 0.6360 0.6360 0.6363
2693.230834 0.6370 0.6370 0.6370 0.6370 0.6372
2702.233679 0.6380 0.6380 0.6380 0.6380 0.6380
2711.236525 0.6380 0.6379 0.6370 0.6368 0.6349
2720.239371 0.6340 0.6340 0.6330 0.6320 0.6320
2729.242217 0.6310 0.6310 0.6310 0.6301 0.6291
2738.245063 0.6273 0.6245 0.6240 0.6232 0.6222
2747.247908 0.6220 0.6212 0.6203 0.6193 0.6183
2756.250754 0.6173 0.6170 0.6163 0.6160 0.6154
2765.253600 0.6150 0.6144 0.6140 0.6140 0.6140
2774.256446 0.6135 0.6130 0.6125 0.6111 0.6096
2783.259291 0.6086 0.6076 0.6066 0.6052 0.6033
2792.262137 0.6013 0.5993 0.5977 0.5961 0.5935
2801.264983 0.5912 0.5888 0.5876 0.5856 0.5836
2810.267829 0.5818 0.5807 0.5787 0.5766 0.5739
2819.270674 0.5728 0.5708 0.5679 0.5650 0.5639
2828.273520 0.5610 0.5590 0.5571 0.5542 0.5521
2837.276366 0.5493 0.5481 0.5454 0.5424 0.5403
2846.279212 0.5392 0.5366 0.5344 0.5325 0.5312
2855.282057 0.5295 0.5276 0.5256 0.5243 0.5240
2864.284903 0.5240 0.5234 0.5230 0.5224 0.5214
2873.287749 0.5199 0.5185 0.5175 0.5165 0.5160
2882.290595 0.5155 0.5145 0.5136 0.5126 0.5116
2891.293440 0.5102 0.5086 0.5063 0.5017 0.4977
2900.296286 0.4941 0.4911 0.4885 0.4868 0.4855
2909.299132 0.4838 0.4826 0.4806 0.4787 0.4769
2918.301978 0.4759 0.4749 0.4739 0.4730 0.4730
2927.304824 0.4730 0.4720 0.4710 0.4710 0.4710
2936.307669 0.4710 0.4710 0.4710 0.4719 0.4720
2945.310515 0.4729 0.4730 0.4730 0.4730 0.4738
2954.313361 0.4740 0.4740 0.4740 0.4740 0.4740
2963.316207 0.4740 0.4740 0.4740 0.4740 0.4734
2972.319052 0.4730 0.4730 0.4730 0.4730 0.4730
2981.321898 0.4725 0.4715 0.4710 0.4705 0.4696
2990.324744 0.4690 0.4686 0.4676 0.4670 0.4670
2999.327590 0.4667 0.4660 0.4657 0.4650 0.4647
3008.330435 0.4635 0.4618 0.4606 0.4584 0.4554
3017.333281 0.4525 0.4497 0.4476 0.4447 0.4417
3026.336127 0.4387 0.4349 0.4328 0.4289 0.4249
3035.338973 0.4210 0.4171 0.4122 0.4082 0.4025
3044.341818 0.3974 0.3916 0.3857 0.3833 0.3813
3053.344664 0.3753 0.3660 0.3609 0.3562 0.3483
3062.347510 0.3394 0.3320 0.3286 0.3287 0.3343
3071.350356 0.3428 0.3510 0.3577 0.3606 0.3616
3080.353201 0.3631 0.3651 0.3671 0.3695 0.3725
3089.356047 0.3754 0.3784 0.3817 0.3848 0.3868
3098.358893 0.3899 0.3945 0.3974 0.3980 0.3983
3107.361739 0.3993 0.4000 0.4003 0.4010 0.4012
3116.364585 0.4022 0.4032 0.4042 0.4052 0.4061
3125.367430 0.4071 0.4081 0.4092 0.4112 0.4142
3134.370276 0.4181 0.4211 0.4240 0.4270 0.4289
3143.373122 0.4290 0.4299 0.4300 0.4291 0.4290
3152.375968 0.4281 0.4280 0.4263 0.4260 0.4244
3161.378813 0.4232 0.4215 0.4203 0.4186 0.4173
3170.381659 0.4163 0.4147 0.4140 0.4121 0.4098
3179.384505 0.4072 0.4042 0.4019 0.3994 0.3969
3188.387351 0.3945 0.3925 0.3910 0.3886 0.3861
3197.390196 0.3846 0.3832 0.3816 0.3803 0.3783
3206.393042 0.3767 0.3754 0.3737 0.3724 0.3705
3215.395888 0.3687 0.3678 0.3666 0.3642 0.3608
3224.398734 0.3598 0.3589 0.3579 0.3569 0.3556
3233.401579 0.3520 0.3519 0.3507 0.3438 0.3370
3242.404425 0.3320 0.3271 0.3231 0.3192 0.3144
3251.407271 0.3095 0.3037 0.2978 0.2893 0.2796
3260.410117 0.2674 0.2570 0.2495 0.2441 0.2392
3269.412962 0.2343 0.2301 0.2269 0.2246 0.2240
3278.415808 0.2246 0.2250 0.2274 0.2308 0.2332
3287.418654 0.2362 0.2396 0.2431 0.2455 0.2470
3296.421500 0.2485 0.2495 0.2504 0.2510 0.2514
3305.424346 0.2520 0.2524 0.2530 0.2530 0.2533
3314.427191 0.2543 0.2556 0.2583 0.2622 0.2653
3323.430037 0.2762 0.2896 0.2971 0.3023 0.3048
3332.432883 0.3111 0.3198 0.3277 0.3355 0.3423
3341.435729 0.3484 0.3591 0.3640 0.3689 0.3738
3350.438574 0.3768 0.3816 0.3847 0.3886 0.3925
3359.441420 0.3956 0.3994 0.4017 0.4052 0.4084
3368.444266 0.4105 0.4140 0.4172 0.4202 0.4238
3377.447112 0.4264 0.4297 0.4336 0.4375 0.4415
3386.449957 0.4454 0.4476 0.4491 0.4500 0.4505
3395.452803 0.4531 0.4570 0.4604 0.4634 0.4659
3404.455649 0.4683 0.4708 0.4732 0.4754 0.4767
3413.458495 0.4790 0.4816 0.4842 0.4876 0.4895
3422.461340 0.4915 0.4937 0.4966 0.4992 0.5004
3431.464186 0.5027 0.5065 0.5097 0.5145 0.5185
3440.467032 0.5233 0.5273 0.5322 0.5371 0.5421
3449.469878 0.5480 0.5519 0.5568 0.5626 0.5667
3458.472723 0.5724 0.5765 0.5805 0.5852 0.5894
3467.475569 0.5933 0.5964 0.6017 0.6061 0.6130
3476.478415 0.6179 0.6211 0.6241 0.6270 0.6300
3485.481261 0.6323 0.6355 0.6382 0.6408 0.6443
3494.484107 0.6477 0.6512 0.6540 0.6565 0.6580
3503.486952 0.6589 0.6605 0.6619 0.6643 0.6676
3512.489798 0.6711 0.6737 0.6767 0.6816 0.6856
3521.492644 0.6873 0.6900 0.6961 0.7000 0.7035
3530.495490 0.7054 0.7074 0.7093 0.7113 0.7130
3539.498335 0.7133 0.7151 0.7163 0.7191 0.7212
3548.501181 0.7241 0.7260 0.7270 0.7290 0.7290
3557.504027 0.7319 0.7339 0.7358 0.7378 0.7398
3566.506873 0.7426 0.7447 0.7458 0.7460 0.7468
3575.509718 0.7478 0.7480 0.7480 0.7480 0.7480
3584.512564 0.7487 0.7517 0.7543 0.7569 0.7592
3593.515410 0.7612 0.7632 0.7651 0.7671 0.7691
3602.518256 0.7705 0.7720 0.7740 0.7764 0.7784
3611.521101 0.7803 0.7832 0.7858 0.7885 0.7921
3620.523947 0.7947 0.7973 0.8009 0.8036 0.8061
3629.526793 0.8095 0.8115 0.8137 0.8164 0.8182
3638.529639 0.8192 0.8203 0.8221 0.8231 0.8240
3647.532484 0.8241 0.8250 0.8250 0.8260 0.8260
3656.535330 0.8270 0.8270 0.8270 0.8270 0.8279
3665.538176 0.8280 0.8280 0.8289 0.8290 0.8290
3674.541022 0.8298 0.8300 0.8300 0.8308 0.8310
3683.543868 0.8317 0.8327 0.8337 0.8347 0.8357
3692.546713 0.8360 0.8366 0.8382 0.8402 0.8416
3701.549559 0.8426 0.8430 0.8435 0.8440 0.8440
3710.552405 0.8440 0.8440 0.8440 0.8440 0.8440
3719.555251 0.8440 0.8440 0.8440 0.8440 0.8440
3728.558096 0.8440 0.8440 0.8440 0.8440 0.8440
3737.560942 0.8440 0.8440 0.8440 0.8440 0.8440
3746.563788 0.8440 0.8440 0.8440 0.8440 0.8440
3755.566634 0.8440 0.8440 0.8440 0.8440 0.8440
3764.569479 0.8440 0.8440 0.8440 0.8440 0.8440
3773.572325 0.8440 0.8440 0.8440 0.8440 0.8440
3782.575171 0.8440 0.8440 0.8440 0.8440 0.8440
3791.578017 0.8440 0.8440 0.8440 0.8440 0.8440
3800.580862 0.8440 0.8440 0.8440 0.8440 0.8440
3809.583708 0.8440 0.8440 0.8440 0.8440 0.8440
3818.586554 0.8440 0.8440 0.8440 0.8440 0.8440
3827.589400 0.8440 0.8440 0.8440 0.8440 0.8440
3836.592245 0.8440 0.8440 0.8440 0.8440 0.8440
3845.595091 0.8440 0.8440 0.8440 0.8440 0.8440
3854.597937 0.8440 0.8439 0.8430 0.8430 0.8420
3863.600783 0.8420 0.8420 0.8430 0.8430 0.8430
3872.603629 0.8430 0.8430 0.8430 0.8430 0.8430
3881.606474 0.8430 0.8430 0.8430 0.8430 0.8430
3890.609320 0.8430 0.8430 0.8430 0.8430 0.8430
3899.612166 0.8430 0.8430 0.8430 0.8430 0.8430
3908.615012 0.8430 0.8430 0.8430 0.8430 0.8430
3917.617857 0.8430 0.8430 0.8430 0.8430 0.8430
3926.620703 0.8430 0.8430 0.8430 0.8430 0.8430
3935.623549 0.8430 0.8430 0.8430 0.8430 0.8430
3944.626395 0.8430 0.8430 0.8430 0.8430 0.8430
3953.629240 0.8430 0.8430 0.8429 0.8420 0.8420
3962.632086 0.8420 0.8420 0.8420 0.8420 0.8420
3971.634932 0.8420 0.8420 0.8420 0.8420 0.8420
3980.637778 0.8420 0.8420 0.8420 0.8420 0.8420
3989.640623 0.8420 0.8420 0.8420 0.8420 0.8420
3998.643469 0.8420 0.8420 0.8420 0.8420 0.8420
4007.646315 0.8426 0.8430 0.8430 0.8430 0.8430
4016.649161 0.8435 0.8440 0.8440 0.8435 0.8430
4025.652006 0.8434 0.8440 0.8440
##END=
