##TITLE=Glutaranilic acid, 3-[( phenylcarbamoyl)methyl]-
##JCAMP-DX=4.24
##DATA TYPE=INFRARED SPECTRUM
##CLASS=COBLENTZ III
##ORIGIN=SOUTHERN RESEARCH INSTITUTE
##OWNER=Copyright (C) 1987 by the Coblentz Society
Collection (C) 2018 copyright by the U.S. Secretary of Commerce
on behalf of the United States of America. All rights reserved.
##DATE=1956/03/19
##NAMES=5-anilino-3-(2-anilino-2-oxoethyl)-5-oxopentanoic acid
##MOLFORM=C19 H20 N2 O4
##MP=212 C
##SOURCE REFERENCE=COBLENTZ NO. 8227
##$NIST ID=B6008227
##$NIST SOURCE=COBLENTZ
##$NIST IMAGE=cob8227
##SPECTROMETER/DATA SYSTEM=PERKIN-ELMER 21 (GRATING)
##INSTRUMENT PARAMETERS=FILTER CHANGE ABOUT 1075 CM^-^1
##STATE=SOLID (OIL MULL)
##PATH LENGTH=0.0025 CM
##SAMPLING PROCEDURE=TRANSMISSION
##RESOLUTION=2
##DATA PROCESSING=DIGITIZED BY COBLENTZ SOCIETY (BATCH II) FROM HARD COPY (ADJUSTED \addcm-1\10-5-2\)
##XUNITS=1/CM
##YUNITS=TRANSMITTANCE
##XFACTOR=1.0
##YFACTOR=1
##DELTAX=1.004421
##FIRSTX=611
##LASTX=4065.2
##FIRSTY=0.7587
##MAXX=4065.2
##MINX=611
##MAXY=0.8936
##MINY=0.0034
##NPOINTS=3440
##XYDATA=(X++(Y..Y))
611.000000 0.7587 0.7592 0.7597 0.7603 0.7609
616.022105 0.7615 0.7624 0.7633 0.7642 0.7651
621.044210 0.7660 0.7669 0.7679 0.7689 0.7699
626.066315 0.7708 0.7718 0.7728 0.7737 0.7747
631.088421 0.7757 0.7766 0.7776 0.7785 0.7797
636.110526 0.7819 0.7802 0.7804 0.7788 0.7767
641.132631 0.7742 0.7717 0.7691 0.7663 0.7633
646.154736 0.7602 0.7566 0.7511 0.7454 0.7390
651.176841 0.7326 0.7264 0.7215 0.7166 0.7116
656.198946 0.7068 0.7027 0.6994 0.6960 0.6929
661.221051 0.6910 0.6895 0.6880 0.6865 0.6851
666.243156 0.6838 0.6827 0.6815 0.6800 0.6782
671.265262 0.6763 0.6745 0.6725 0.6704 0.6684
676.287367 0.6649 0.6580 0.6501 0.6402 0.5969
681.309472 0.4766 0.3724 0.3287 0.3432 0.3885
686.331577 0.4372 0.4860 0.5348 0.5837 0.6325
691.353682 0.6813 0.7141 0.7169 0.7170 0.7167
696.375787 0.7161 0.7151 0.7089 0.6968 0.6846
701.397892 0.6725 0.6603 0.6482 0.6360 0.6238
706.419998 0.6116 0.5995 0.5873 0.5752 0.5630
711.442103 0.5509 0.5387 0.5265 0.5153 0.5067
716.464208 0.5006 0.4949 0.4889 0.4824 0.4752
721.486313 0.4648 0.4461 0.4213 0.3964 0.3715
726.508418 0.3468 0.3349 0.3345 0.3392 0.3578
731.530523 0.3847 0.4114 0.4382 0.4630 0.4754
736.552628 0.4793 0.4834 0.4866 0.4892 0.4918
741.574734 0.4964 0.5039 0.5141 0.5275 0.5611
746.596839 0.6128 0.6652 0.6886 0.6938 0.6985
751.618944 0.7028 0.7051 0.7065 0.7078 0.7094
756.641049 0.7114 0.7134 0.7154 0.7173 0.7199
761.663154 0.7230 0.7272 0.7752 0.8167 0.8318
766.685259 0.8386 0.8443 0.8493 0.8529 0.8560
771.707364 0.8592 0.8626 0.8644 0.8656 0.8667
776.729469 0.8673 0.8676 0.8679 0.8681 0.8689
781.751575 0.8686 0.8687 0.8685 0.8682 0.8679
786.773680 0.8676 0.8671 0.8665 0.8659 0.8654
791.795785 0.8648 0.8643 0.8637 0.8631 0.8626
796.817890 0.8619 0.8611 0.8604 0.8597 0.8590
801.839995 0.8582 0.8575 0.8568 0.8557 0.8545
806.862100 0.8532 0.8520 0.8508 0.8496 0.8478
811.884205 0.8460 0.8442 0.8424 0.8406 0.8389
816.906311 0.8371 0.8354 0.8336 0.8318 0.8301
821.928416 0.8283 0.8265 0.8248 0.8230 0.8213
826.950521 0.8203 0.8194 0.8185 0.8176 0.8167
831.972626 0.8159 0.8153 0.8148 0.8142 0.8137
836.994731 0.8131 0.8125 0.8120 0.8114 0.8109
842.016836 0.8104 0.8101 0.8099 0.8097 0.8095
847.038941 0.8093 0.8091 0.8088 0.8078 0.8068
852.061047 0.8058 0.8038 0.8017 0.7996 0.7969
857.083152 0.7936 0.7903 0.7870 0.7833 0.7794
862.105257 0.7754 0.7714 0.7666 0.7601 0.7527
867.127362 0.7375 0.7194 0.7014 0.6834 0.6653
872.149467 0.6493 0.6451 0.6442 0.6530 0.6707
877.171572 0.6756 0.6774 0.6778 0.6781 0.6782
882.193677 0.6770 0.6762 0.6753 0.6744 0.6731
887.215782 0.6717 0.6702 0.6681 0.6654 0.6626
892.237888 0.6597 0.6565 0.6532 0.6499 0.6467
897.259993 0.6439 0.6413 0.6387 0.6357 0.6321
902.282098 0.6304 0.6288 0.6277 0.6297 0.6301
907.304203 0.6307 0.6318 0.6337 0.6364 0.6408
912.326308 0.6468 0.6530 0.6589 0.6646 0.6698
917.348413 0.6751 0.6798 0.6834 0.6869 0.6903
922.370518 0.6937 0.6969 0.7001 0.7031 0.7058
927.392624 0.7083 0.7108 0.7129 0.7148 0.7166
932.414729 0.7182 0.7190 0.7192 0.7194 0.7196
937.436834 0.7197 0.7196 0.7195 0.7206 0.7208
942.458939 0.7193 0.7192 0.7190 0.7187 0.7183
947.481044 0.7179 0.7172 0.7159 0.7144 0.7128
952.503149 0.7110 0.7092 0.7075 0.7057 0.7039
957.525254 0.7019 0.7000 0.6981 0.6961 0.6942
962.547359 0.6916 0.6885 0.6854 0.6802 0.6731
967.569465 0.6662 0.6616 0.6597 0.6587 0.6585
972.591570 0.6584 0.6597 0.6632 0.6724 0.6822
977.613675 0.7011 0.7239 0.7408 0.7543 0.7615
982.635780 0.7654 0.7676 0.7686 0.7688 0.7685
987.657885 0.7682 0.7679 0.7676 0.7675 0.7674
992.679990 0.7673 0.7672 0.7674 0.7678 0.7683
997.702095 0.7687 0.7699 0.7690 0.7684 0.7682
1002.724201 0.7679 0.7674 0.7668 0.7663 0.7650
1007.746306 0.7636 0.7621 0.7606 0.7592 0.7578
1012.768411 0.7563 0.7549 0.7535 0.7526 0.7519
1017.790516 0.7511 0.7503 0.7495 0.7488 0.7480
1022.812621 0.7477 0.7479 0.7482 0.7485 0.7481
1027.834726 0.7472 0.7462 0.7424 0.7379 0.7333
1032.856831 0.7286 0.7231 0.7177 0.7128 0.7046
1037.878937 0.6955 0.6864 0.6772 0.6637 0.6595
1042.901042 0.6587 0.6582 0.6578 0.6585 0.6586
1047.923147 0.6650 0.6841 0.7042 0.7243 0.7378
1052.945252 0.7390 0.7394 0.7394 0.7394 0.7387
1057.967357 0.7377 0.7368 0.7351 0.7334 0.7317
1062.989462 0.7306 0.7299 0.7299 0.7299 0.7305
1068.011567 0.7315 0.7328 0.7352 0.7376 0.7400
1073.033672 0.7423 0.7447 0.7470 0.7494 0.7517
1078.055778 0.7528 0.7532 0.7531 0.7530 0.7529
1083.077883 0.7529 0.7529 0.7535 0.7541 0.7551
1088.099988 0.7564 0.7580 0.7596 0.7609 0.7623
1093.122093 0.7635 0.7645 0.7655 0.7663 0.7673
1098.144198 0.7665 0.7662 0.7659 0.7656 0.7653
1103.166303 0.7647 0.7637 0.7626 0.7616 0.7606
1108.188408 0.7595 0.7587 0.7579 0.7570 0.7562
1113.210514 0.7554 0.7544 0.7533 0.7522 0.7511
1118.232619 0.7495 0.7479 0.7462 0.7443 0.7414
1123.254724 0.7383 0.7350 0.7313 0.7275 0.7237
1128.276829 0.7200 0.7164 0.7126 0.7089 0.7051
1133.298934 0.7013 0.6977 0.6941 0.6895 0.6838
1138.321039 0.6763 0.6683 0.6643 0.6622 0.6607
1143.343144 0.6601 0.6597 0.6593 0.6589 0.6583
1148.365250 0.6575 0.6563 0.6542 0.6505 0.6473
1153.387355 0.6447 0.6422 0.6402 0.6387 0.6374
1158.409460 0.6362 0.6351 0.6330 0.6297 0.6254
1163.431565 0.6189 0.6069 0.5780 0.5394 0.5066
1168.453670 0.4744 0.4539 0.4488 0.4478 0.4466
1173.475775 0.4552 0.4850 0.5240 0.5629 0.6018
1178.497880 0.6407 0.6723 0.6883 0.6939 0.6962
1183.519985 0.6962 0.6962 0.6963 0.6958 0.6947
1188.542091 0.6934 0.6921 0.6905 0.6886 0.6867
1193.564196 0.6848 0.6826 0.6801 0.6773 0.6747
1198.586301 0.6721 0.6696 0.6667 0.6632 0.6596
1203.608406 0.6558 0.6519 0.6480 0.6441 0.6402
1208.630511 0.6352 0.6293 0.6230 0.6160 0.6083
1213.652616 0.6002 0.5910 0.5811 0.5678 0.5513
1218.674721 0.4601 0.4072 0.3869 0.3755 0.3704
1223.696827 0.3674 0.3657 0.3651 0.3652 0.3627
1228.718932 0.4410 0.5344 0.5665 0.5700 0.5694
1233.741037 0.5698 0.5697 0.5689 0.5646 0.5520
1238.763142 0.5372 0.5224 0.5077 0.4929 0.4823
1243.785247 0.4799 0.4793 0.4771 0.4784 0.4794
1248.807352 0.4860 0.4969 0.5084 0.5199 0.5314
1253.829457 0.5419 0.5469 0.5493 0.5508 0.5512
1258.851562 0.5511 0.5509 0.5506 0.5501 0.5491
1263.873668 0.5491 0.5486 0.5481 0.5476 0.5471
1268.895773 0.5464 0.5456 0.5440 0.5422 0.5391
1273.917878 0.5352 0.5299 0.5175 0.5087 0.4991
1278.939983 0.4880 0.4763 0.4708 0.4658 0.4619
1283.962088 0.4579 0.4547 0.4518 0.4489 0.4411
1288.984193 0.4291 0.4174 0.4075 0.3958 0.3860
1294.006298 0.3791 0.3720 0.3628 0.3531 0.3450
1299.028404 0.3378 0.3344 0.3315 0.3310 0.3307
1304.050509 0.3280 0.3319 0.3346 0.3424 0.3643
1309.072614 0.3863 0.4082 0.4302 0.4515 0.4663
1314.094719 0.4719 0.4748 0.4757 0.4756 0.4750
1319.116824 0.4733 0.4698 0.4616 0.4455 0.4291
1324.138929 0.4248 0.4240 0.4239 0.4251 0.4266
1329.161034 0.4299 0.4352 0.4415 0.4466 0.4488
1334.183140 0.4495 0.4495 0.4493 0.4484 0.4475
1339.205245 0.4465 0.4446 0.4420 0.4389 0.4358
1344.227350 0.4327 0.4296 0.4266 0.4237 0.4207
1349.249455 0.4176 0.4145 0.4112 0.4041 0.3891
1354.271560 0.3798 0.3707 0.3614 0.3513 0.2997
1359.293665 0.1890 0.1829 0.1793 0.1766 0.1746
1364.315770 0.1727 0.1535 0.1049 0.0806 0.0770
1369.337875 0.0765 0.0765 0.0775 0.0798 0.0825
1374.359981 0.0856 0.0945 0.1181 0.1517 0.1853
1379.382086 0.2189 0.2525 0.2861 0.3197 0.3533
1384.404191 0.3869 0.4205 0.4541 0.4877 0.5175
1389.426296 0.5343 0.5395 0.5420 0.5427 0.5429
1394.448401 0.5426 0.5420 0.5412 0.5403 0.5387
1399.470506 0.5327 0.5229 0.5133 0.5036 0.4940
1404.492611 0.4843 0.4750 0.4676 0.4638 0.4619
1409.514717 0.4604 0.4588 0.4572 0.4551 0.4488
1414.536822 0.4420 0.4346 0.4266 0.4059 0.3889
1419.558927 0.3726 0.3562 0.3399 0.3236 0.3073
1424.581032 0.2910 0.2746 0.2584 0.2421 0.2258
1429.603137 0.2097 0.1942 0.1796 0.1629 0.1430
1434.625242 0.1223 0.0960 0.0782 0.0691 0.0605
1439.647347 0.0529 0.0448 0.0346 0.0292 0.0256
1444.669453 0.0228 0.0221 0.0215 0.0211 0.0207
1449.691558 0.0203 0.0200 0.0198 0.0198 0.0197
1454.713663 0.0196 0.0196 0.0198 0.0202 0.0206
1459.735768 0.0214 0.0229 0.0252 0.0283 0.0317
1464.757873 0.0356 0.0398 0.0447 0.0517 0.0703
1469.779978 0.1013 0.1323 0.1633 0.1943 0.2253
1474.802083 0.2563 0.2873 0.3183 0.3493 0.3802
1479.824188 0.4112 0.4422 0.4647 0.4731 0.4760
1484.846294 0.4773 0.4776 0.4774 0.4771 0.4764
1489.868399 0.4751 0.4681 0.4535 0.4388 0.4243
1494.890504 0.4133 0.4117 0.4120 0.4157 0.4530
1499.912609 0.5133 0.5597 0.5664 0.5707 0.5727
1504.934714 0.5741 0.5771 0.5755 0.5752 0.5751
1509.956819 0.5749 0.5746 0.5734 0.5719 0.5688
1514.978924 0.5631 0.5498 0.5323 0.5180 0.5079
1520.001030 0.5001 0.4926 0.4869 0.4815 0.4728
1525.023135 0.4606 0.4209 0.3931 0.3688 0.3441
1530.045240 0.3196 0.2949 0.2703 0.2458 0.2211
1535.067345 0.2001 0.1882 0.1822 0.1790 0.1774
1540.089450 0.1769 0.1769 0.1766 0.1779 0.1796
1545.111555 0.1833 0.1883 0.2000 0.2972 0.4311
1550.133660 0.5651 0.6193 0.6353 0.6506 0.6643
1555.155766 0.6735 0.6797 0.6853 0.6908 0.6962
1560.177871 0.7007 0.7035 0.7052 0.7064 0.7060
1565.199976 0.7054 0.7048 0.7039 0.7028 0.7000
1570.222081 0.6942 0.6882 0.6840 0.6810 0.6786
1575.244186 0.6764 0.6743 0.6722 0.6698 0.6667
1580.266291 0.6595 0.6389 0.6092 0.5798 0.5503
1585.288396 0.5208 0.4914 0.4619 0.4324 0.4029
1590.310501 0.3735 0.3440 0.3198 0.3081 0.3077
1595.332607 0.3106 0.3115 0.3142 0.3309 0.3649
1600.354712 0.3989 0.4328 0.4667 0.5006 0.5345
1605.376817 0.5617 0.5727 0.5746 0.5753 0.5749
1610.398922 0.5742 0.5730 0.5711 0.5686 0.5655
1615.421027 0.5623 0.5590 0.5558 0.5524 0.5491
1620.443132 0.5461 0.5432 0.5404 0.5377 0.5353
1625.465237 0.5326 0.5285 0.5175 0.4983 0.4791
1630.487343 0.4599 0.4407 0.4228 0.4100 0.4020
1635.509448 0.3952 0.3884 0.3778 0.3639 0.3488
1640.531553 0.3257 0.3003 0.2750 0.2496 0.2243
1645.553658 0.1989 0.1735 0.1482 0.1228 0.0984
1650.575763 0.0813 0.0749 0.0715 0.0700 0.0693
1655.597868 0.0697 0.0729 0.0760 0.0878 0.1102
1660.619973 0.1330 0.1558 0.1786 0.2014 0.2242
1665.642078 0.2470 0.2698 0.2926 0.3154 0.3381
1670.664184 0.3542 0.3575 0.3573 0.3548 0.3439
1675.686289 0.3253 0.3067 0.2881 0.2695 0.2509
1680.708394 0.2323 0.2137 0.1951 0.1765 0.1578
1685.730499 0.1444 0.1395 0.1367 0.1389 0.1402
1690.752604 0.1354 0.1362 0.1438 0.1658 0.1965
1695.774709 0.2273 0.2580 0.2887 0.3195 0.3503
1700.796814 0.3810 0.4117 0.4390 0.4617 0.4865
1705.818920 0.5132 0.5419 0.5659 0.5766 0.5883
1710.841025 0.6016 0.6149 0.6282 0.6416 0.6538
1715.863130 0.6644 0.6726 0.6790 0.6855 0.6930
1720.885235 0.7098 0.7315 0.7415 0.7489 0.7551
1725.907340 0.7596 0.7638 0.7680 0.7714 0.7740
1730.929445 0.7766 0.7792 0.7818 0.7847 0.7875
1735.951550 0.7904 0.7933 0.7961 0.7990 0.8018
1740.973656 0.8047 0.8076 0.8104 0.8132 0.8159
1745.995761 0.8187 0.8214 0.8239 0.8262 0.8285
1751.017866 0.8308 0.8331 0.8353 0.8376 0.8395
1756.039971 0.8408 0.8421 0.8433 0.8446 0.8459
1761.062076 0.8471 0.8482 0.8493 0.8504 0.8514
1766.084181 0.8525 0.8535 0.8546 0.8557 0.8567
1771.106286 0.8578 0.8588 0.8598 0.8607 0.8616
1776.128391 0.8625 0.8633 0.8642 0.8651 0.8660
1781.150497 0.8668 0.8677 0.8686 0.8695 0.8703
1786.172602 0.8713 0.8724 0.8735 0.8746 0.8757
1791.194707 0.8769 0.8780 0.8791 0.8800 0.8804
1796.216812 0.8806 0.8809 0.8811 0.8813 0.8816
1801.238917 0.8818 0.8821 0.8823 0.8825 0.8828
1806.261022 0.8830 0.8833 0.8835 0.8838 0.8859
1811.283127 0.8867 0.8845 0.8847 0.8850 0.8852
1816.305233 0.8855 0.8857 0.8858 0.8858 0.8857
1821.327338 0.8856 0.8856 0.8855 0.8854 0.8853
1826.349443 0.8853 0.8852 0.8851 0.8850 0.8850
1831.371548 0.8849 0.8848 0.8847 0.8847 0.8846
1836.393653 0.8845 0.8844 0.8844 0.8843 0.8842
1841.415758 0.8842 0.8842 0.8843 0.8843 0.8843
1846.437863 0.8843 0.8843 0.8845 0.8848 0.8851
1851.459969 0.8855 0.8858 0.8861 0.8864 0.8867
1856.482074 0.8870 0.8873 0.8876 0.8880 0.8885
1861.504179 0.8889 0.8894 0.8899 0.8903 0.8908
1866.526284 0.8913 0.8917 0.8920 0.8921 0.8922
1871.548389 0.8924 0.8925 0.8926 0.8927 0.8928
1876.570494 0.8930 0.8931 0.8932 0.8933 0.8935
1881.592599 0.8936 0.8936 0.8935 0.8934 0.8932
1886.614704 0.8931 0.8930 0.8929 0.8927 0.8926
1891.636810 0.8925 0.8924 0.8923 0.8921 0.8920
1896.658915 0.8919 0.8918 0.8917 0.8916 0.8915
1901.681020 0.8914 0.8913 0.8912 0.8912 0.8911
1906.703125 0.8910 0.8909 0.8909 0.8908 0.8907
1911.725230 0.8906 0.8906 0.8905 0.8904 0.8903
1916.747335 0.8902 0.8902 0.8901 0.8901 0.8900
1921.769440 0.8900 0.8899 0.8899 0.8899 0.8898
1926.791546 0.8898 0.8897 0.8897 0.8896 0.8896
1931.813651 0.8895 0.8895 0.8894 0.8894 0.8893
1936.835756 0.8894 0.8894 0.8894 0.8894 0.8894
1941.857861 0.8894 0.8894 0.8895 0.8895 0.8895
1946.879966 0.8895 0.8895 0.8895 0.8895 0.8895
1951.902071 0.8896 0.8896 0.8896 0.8896 0.8895
1956.924176 0.8895 0.8895 0.8894 0.8894 0.8893
1961.946281 0.8893 0.8893 0.8892 0.8892 0.8891
1966.968387 0.8891 0.8891 0.8890 0.8890 0.8889
1971.990492 0.8889 0.8889 0.8888 0.8888 0.8887
1977.012597 0.8886 0.8885 0.8884 0.8882 0.8881
1982.034702 0.8880 0.8878 0.8877 0.8876 0.8874
1987.056807 0.8873 0.8872 0.8870 0.8869 0.8868
1992.078912 0.8867 0.8865 0.8864 0.8862 0.8861
1997.101017 0.8859 0.8858 0.8856 0.8854 0.8853
2002.123123 0.8851 0.8850 0.8848 0.8846 0.8845
2007.145228 0.8843 0.8842 0.8840 0.8838 0.8837
2012.167333 0.8835 0.8834 0.8832 0.8830 0.8829
2017.189438 0.8827 0.8826 0.8824 0.8822 0.8821
2022.211543 0.8819 0.8817 0.8816 0.8814 0.8812
2027.233648 0.8811 0.8809 0.8807 0.8806 0.8804
2032.255753 0.8803 0.8801 0.8799 0.8798 0.8796
2037.277859 0.8795 0.8795 0.8796 0.8797 0.8798
2042.299964 0.8798 0.8799 0.8800 0.8801 0.8801
2047.322069 0.8802 0.8803 0.8804 0.8804 0.8805
2052.344174 0.8806 0.8806 0.8807 0.8808 0.8808
2057.366279 0.8804 0.8799 0.8795 0.8790 0.8785
2062.388384 0.8781 0.8777 0.8774 0.8771 0.8767
2067.410489 0.8764 0.8760 0.8757 0.8754 0.8750
2072.432594 0.8747 0.8744 0.8740 0.8737 0.8733
2077.454700 0.8730 0.8727 0.8724 0.8721 0.8718
2082.476805 0.8716 0.8713 0.8711 0.8708 0.8705
2087.498910 0.8703 0.8700 0.8698 0.8695 0.8693
2092.521015 0.8690 0.8688 0.8685 0.8682 0.8680
2097.543120 0.8678 0.8675 0.8672 0.8670 0.8667
2102.565225 0.8665 0.8662 0.8660 0.8657 0.8655
2107.587330 0.8652 0.8649 0.8647 0.8644 0.8642
2112.609436 0.8639 0.8637 0.8635 0.8632 0.8630
2117.631541 0.8627 0.8625 0.8622 0.8620 0.8617
2122.653646 0.8615 0.8612 0.8610 0.8608 0.8605
2127.675751 0.8603 0.8600 0.8598 0.8595 0.8593
2132.697856 0.8591 0.8589 0.8587 0.8585 0.8582
2137.719961 0.8580 0.8578 0.8576 0.8574 0.8572
2142.742066 0.8570 0.8568 0.8566 0.8564 0.8562
2147.764172 0.8560 0.8558 0.8556 0.8555 0.8554
2152.786277 0.8554 0.8554 0.8554 0.8553 0.8553
2157.808382 0.8553 0.8552 0.8553 0.8554 0.8556
2162.830487 0.8558 0.8559 0.8561 0.8563 0.8565
2167.852592 0.8566 0.8568 0.8570 0.8570 0.8571
2172.874697 0.8572 0.8573 0.8574 0.8574 0.8575
2177.896802 0.8576 0.8577 0.8577 0.8578 0.8577
2182.918907 0.8575 0.8572 0.8569 0.8566 0.8563
2187.941013 0.8560 0.8557 0.8555 0.8552 0.8549
2192.963118 0.8546 0.8543 0.8540 0.8537 0.8534
2197.985223 0.8531 0.8528 0.8525 0.8522 0.8517
2203.007328 0.8512 0.8507 0.8502 0.8497 0.8492
2208.029433 0.8487 0.8482 0.8477 0.8472 0.8467
2213.051538 0.8462 0.8456 0.8451 0.8447 0.8442
2218.073643 0.8437 0.8433 0.8428 0.8423 0.8419
2223.095749 0.8414 0.8410 0.8405 0.8400 0.8396
2228.117854 0.8391 0.8386 0.8382 0.8377 0.8373
2233.139959 0.8368 0.8363 0.8360 0.8358 0.8355
2238.162064 0.8353 0.8351 0.8348 0.8346 0.8344
2243.184169 0.8341 0.8339 0.8336 0.8334 0.8332
2248.206274 0.8329 0.8327 0.8325 0.8322 0.8320
2253.228379 0.8318 0.8315 0.8313 0.8311 0.8308
2258.250484 0.8306 0.8303 0.8300 0.8297 0.8294
2263.272590 0.8291 0.8288 0.8285 0.8283 0.8280
2268.294695 0.8277 0.8274 0.8271 0.8268 0.8265
2273.316800 0.8263 0.8260 0.8257 0.8254 0.8251
2278.338905 0.8248 0.8245 0.8243 0.8240 0.8237
2283.361010 0.8234 0.8231 0.8228 0.8225 0.8222
2288.383115 0.8219 0.8216 0.8213 0.8210 0.8207
2293.405220 0.8204 0.8201 0.8198 0.8195 0.8193
2298.427326 0.8191 0.8191 0.8190 0.8190 0.8189
2303.449431 0.8189 0.8188 0.8188 0.8187 0.8187
2308.471536 0.8187 0.8186 0.8186 0.8185 0.8185
2313.493641 0.8184 0.8184 0.8183 0.8183 0.8184
2318.515746 0.8185 0.8187 0.8188 0.8190 0.8191
2323.537851 0.8193 0.8194 0.8196 0.8197 0.8199
2328.559956 0.8199 0.8198 0.8197 0.8196 0.8195
2333.582062 0.8193 0.8192 0.8191 0.8190 0.8189
2338.604167 0.8188 0.8187 0.8185 0.8178 0.8169
2343.626272 0.8161 0.8152 0.8143 0.8135 0.8126
2348.648377 0.8117 0.8108 0.8100 0.8091 0.8083
2353.670482 0.8075 0.8067 0.8059 0.8051 0.8043
2358.692587 0.8034 0.8026 0.8020 0.8015 0.8012
2363.714692 0.8009 0.8006 0.8002 0.7999 0.7996
2368.736797 0.7993 0.7989 0.7986 0.7983 0.7980
2373.758903 0.7976 0.7973 0.7970 0.7967 0.7963
2378.781008 0.7960 0.7955 0.7951 0.7947 0.7943
2383.803113 0.7939 0.7935 0.7930 0.7926 0.7922
2388.825218 0.7918 0.7914 0.7910 0.7906 0.7902
2393.847323 0.7898 0.7894 0.7891 0.7887 0.7883
2398.869428 0.7879 0.7875 0.7871 0.7867 0.7863
2403.891533 0.7860 0.7856 0.7852 0.7848 0.7844
2408.913639 0.7841 0.7839 0.7837 0.7834 0.7832
2413.935744 0.7830 0.7827 0.7825 0.7822 0.7820
2418.957849 0.7818 0.7815 0.7813 0.7810 0.7807
2423.979954 0.7804 0.7802 0.7799 0.7796 0.7793
2429.002059 0.7791 0.7789 0.7788 0.7788 0.7788
2434.024164 0.7788 0.7787 0.7787 0.7787 0.7787
2439.046269 0.7787 0.7787 0.7786 0.7786 0.7784
2444.068375 0.7778 0.7770 0.7762 0.7754 0.7746
2449.090480 0.7738 0.7730 0.7722 0.7714 0.7704
2454.112585 0.7693 0.7682 0.7670 0.7659 0.7648
2459.134690 0.7636 0.7624 0.7613 0.7602 0.7590
2464.156795 0.7579 0.7568 0.7557 0.7546 0.7535
2469.178900 0.7524 0.7513 0.7502 0.7491 0.7480
2474.201005 0.7470 0.7460 0.7449 0.7439 0.7429
2479.223110 0.7419 0.7408 0.7398 0.7388 0.7378
2484.245216 0.7367 0.7357 0.7347 0.7337 0.7326
2489.267321 0.7316 0.7306 0.7295 0.7285 0.7275
2494.289426 0.7265 0.7254 0.7242 0.7230 0.7218
2499.311531 0.7207 0.7195 0.7183 0.7171 0.7159
2504.333636 0.7148 0.7136 0.7124 0.7112 0.7100
2509.355741 0.7089 0.7077 0.7065 0.7053 0.7041
2514.377846 0.7029 0.7018 0.7006 0.6994 0.6982
2519.399952 0.6969 0.6956 0.6943 0.6930 0.6917
2524.422057 0.6904 0.6892 0.6879 0.6866 0.6853
2529.444162 0.6840 0.6827 0.6814 0.6801 0.6788
2534.466267 0.6775 0.6762 0.6749 0.6736 0.6723
2539.488372 0.6710 0.6697 0.6685 0.6674 0.6664
2544.510477 0.6653 0.6642 0.6631 0.6620 0.6609
2549.532582 0.6598 0.6588 0.6577 0.6566 0.6555
2554.554687 0.6544 0.6533 0.6523 0.6512 0.6499
2559.576793 0.6485 0.6471 0.6456 0.6442 0.6428
2564.598898 0.6414 0.6400 0.6386 0.6372 0.6358
2569.621003 0.6343 0.6329 0.6315 0.6301 0.6287
2574.643108 0.6273 0.6259 0.6245 0.6230 0.6216
2579.665213 0.6202 0.6188 0.6174 0.6160 0.6146
2584.687318 0.6132 0.6119 0.6105 0.6091 0.6077
2589.709423 0.6064 0.6051 0.6038 0.6026 0.6013
2594.731529 0.6000 0.5988 0.5975 0.5962 0.5950
2599.753634 0.5937 0.5924 0.5914 0.5905 0.5897
2604.775739 0.5889 0.5881 0.5873 0.5865 0.5857
2609.797844 0.5849 0.5841 0.5834 0.5826 0.5818
2614.819949 0.5810 0.5802 0.5795 0.5787 0.5779
2619.842054 0.5771 0.5763 0.5756 0.5748 0.5740
2624.864159 0.5732 0.5724 0.5717 0.5709 0.5701
2629.886265 0.5693 0.5686 0.5678 0.5671 0.5663
2634.908370 0.5656 0.5649 0.5641 0.5634 0.5626
2639.930475 0.5619 0.5612 0.5604 0.5597 0.5589
2644.952580 0.5582 0.5576 0.5572 0.5567 0.5563
2649.974685 0.5559 0.5554 0.5550 0.5545 0.5541
2654.996790 0.5536 0.5532 0.5527 0.5523 0.5518
2660.018895 0.5514 0.5510 0.5505 0.5501 0.5496
2665.041000 0.5492 0.5487 0.5483 0.5479 0.5475
2670.063106 0.5471 0.5467 0.5463 0.5459 0.5455
2675.085211 0.5451 0.5447 0.5443 0.5439 0.5435
2680.107316 0.5431 0.5427 0.5424 0.5420 0.5416
2685.129421 0.5412 0.5408 0.5403 0.5398 0.5394
2690.151526 0.5389 0.5384 0.5379 0.5374 0.5369
2695.173631 0.5364 0.5359 0.5354 0.5349 0.5344
2700.195736 0.5338 0.5333 0.5327 0.5322 0.5316
2705.217842 0.5311 0.5306 0.5300 0.5295 0.5289
2710.239947 0.5284 0.5278 0.5273 0.5267 0.5262
2715.262052 0.5259 0.5257 0.5254 0.5252 0.5250
2720.284157 0.5247 0.5245 0.5243 0.5242 0.5240
2725.306262 0.5238 0.5236 0.5234 0.5233 0.5231
2730.328367 0.5229 0.5224 0.5217 0.5210 0.5203
2735.350472 0.5196 0.5189 0.5182 0.5175 0.5168
2740.372578 0.5155 0.5140 0.5126 0.5111 0.5097
2745.394683 0.5082 0.5068 0.5052 0.5031 0.5009
2750.416788 0.4987 0.4965 0.4943 0.4921 0.4899
2755.438893 0.4870 0.4839 0.4808 0.4777 0.4745
2760.460998 0.4700 0.4629 0.4548 0.4477 0.4423
2765.483103 0.4376 0.4328 0.4277 0.4222 0.4166
2770.505208 0.4110 0.4041 0.3957 0.3866 0.3767
2775.527313 0.3653 0.3534 0.3421 0.3315 0.3211
2780.549419 0.3108 0.3031 0.2965 0.2898 0.2832
2785.571524 0.2766 0.2704 0.2649 0.2596 0.2544
2790.593629 0.2491 0.2438 0.2386 0.2333 0.2267
2795.615734 0.2184 0.2098 0.2011 0.1895 0.1584
2800.637839 0.1338 0.1201 0.1081 0.0950 0.0813
2805.659944 0.0705 0.0631 0.0566 0.0502 0.0448
2810.682049 0.0404 0.0361 0.0318 0.0280 0.0247
2815.704155 0.0215 0.0183 0.0152 0.0133 0.0124
2820.726260 0.0115 0.0110 0.0110 0.0110 0.0110
2825.748365 0.0110 0.0110 0.0110 0.0110 0.0110
2830.770470 0.0111 0.0111 0.0111 0.0111 0.0112
2835.792575 0.0113 0.0114 0.0115 0.0115 0.0116
2840.814680 0.0117 0.0118 0.0118 0.0119 0.0120
2845.836785 0.0119 0.0116 0.0113 0.0110 0.0106
2850.858891 0.0103 0.0100 0.0097 0.0094 0.0090
2855.880996 0.0087 0.0081 0.0074 0.0067 0.0060
2860.903101 0.0054 0.0047 0.0040 0.0035 0.0034
2865.925206 0.0034 0.0034 0.0034 0.0035 0.0035
2870.947311 0.0035 0.0035 0.0035 0.0035 0.0035
2875.969416 0.0035 0.0036 0.0036 0.0036 0.0036
2880.991521 0.0036 0.0036 0.0036 0.0037 0.0038
2886.013626 0.0039 0.0040 0.0041 0.0042 0.0042
2891.035732 0.0043 0.0044 0.0045 0.0046 0.0047
2896.057837 0.0048 0.0048 0.0049 0.0050 0.0053
2901.079942 0.0056 0.0060 0.0063 0.0066 0.0070
2906.102047 0.0073 0.0077 0.0080 0.0083 0.0087
2911.124152 0.0090 0.0093 0.0095 0.0097 0.0099
2916.146257 0.0101 0.0103 0.0105 0.0107 0.0108
2921.168362 0.0111 0.0116 0.0121 0.0126 0.0131
2926.190468 0.0136 0.0142 0.0147 0.0152 0.0157
2931.212573 0.0162 0.0169 0.0180 0.0192 0.0204
2936.234678 0.0216 0.0229 0.0244 0.0260 0.0275
2941.256783 0.0304 0.0338 0.0372 0.0393 0.0411
2946.278888 0.0428 0.0446 0.0463 0.0482 0.0501
2951.300993 0.0519 0.0538 0.0562 0.0588 0.0624
2956.323098 0.0680 0.0736 0.0784 0.0830 0.0873
2961.345203 0.0915 0.0957 0.1002 0.1052 0.1105
2966.367309 0.1157 0.1227 0.1312 0.1395 0.1464
2971.389414 0.1529 0.1593 0.1683 0.1792 0.1895
2976.411519 0.1976 0.2050 0.2137 0.2285 0.2382
2981.433624 0.2446 0.2502 0.2555 0.2607 0.2660
2986.455729 0.2713 0.2767 0.2820 0.2873 0.2920
2991.477834 0.2964 0.3009 0.3038 0.3061 0.3083
2996.499939 0.3105 0.3127 0.3149 0.3171 0.3193
3001.522045 0.3215 0.3233 0.3250 0.3266 0.3281
3006.544150 0.3297 0.3313 0.3329 0.3344 0.3358
3011.566255 0.3371 0.3384 0.3398 0.3411 0.3423
3016.588360 0.3437 0.3450 0.3462 0.3473 0.3484
3021.610465 0.3495 0.3507 0.3518 0.3529 0.3542
3026.632570 0.3558 0.3573 0.3588 0.3604 0.3617
3031.654675 0.3630 0.3642 0.3654 0.3667 0.3679
3036.676781 0.3692 0.3704 0.3717 0.3732 0.3746
3041.698886 0.3761 0.3776 0.3791 0.3806 0.3821
3046.720991 0.3836 0.3851 0.3866 0.3881 0.3896
3051.743096 0.3910 0.3925 0.3939 0.3953 0.3968
3056.765201 0.3982 0.3996 0.4011 0.4025 0.4040
3061.787306 0.4054 0.4068 0.4083 0.4100 0.4119
3066.809411 0.4138 0.4158 0.4178 0.4198 0.4218
3071.831516 0.4238 0.4257 0.4277 0.4301 0.4327
3076.853622 0.4354 0.4381 0.4408 0.4435 0.4464
3081.875727 0.4492 0.4519 0.4533 0.4542 0.4552
3086.897832 0.4561 0.4567 0.4568 0.4569 0.4569
3091.919937 0.4569 0.4569 0.4569 0.4569 0.4569
3096.942042 0.4568 0.4567 0.4567 0.4566 0.4565
3101.964147 0.4564 0.4564 0.4563 0.4561 0.4558
3106.986252 0.4555 0.4552 0.4549 0.4546 0.4543
3112.008358 0.4541 0.4543 0.4544 0.4546 0.4547
3117.030463 0.4549 0.4550 0.4552 0.4553 0.4560
3122.052568 0.4569 0.4578 0.4587 0.4596 0.4605
3127.074673 0.4614 0.4621 0.4626 0.4648 0.4642
3132.096778 0.4643 0.4642 0.4641 0.4640 0.4638
3137.118883 0.4637 0.4632 0.4622 0.4611 0.4600
3142.140988 0.4589 0.4578 0.4565 0.4551 0.4535
3147.163094 0.4519 0.4503 0.4487 0.4474 0.4463
3152.185199 0.4452 0.4441 0.4430 0.4419 0.4408
3157.207304 0.4397 0.4386 0.4378 0.4374 0.4370
3162.229409 0.4366 0.4362 0.4358 0.4354 0.4350
3167.251514 0.4347 0.4344 0.4343 0.4341 0.4339
3172.273619 0.4337 0.4336 0.4334 0.4332 0.4327
3177.295724 0.4321 0.4315 0.4308 0.4302 0.4296
3182.317829 0.4290 0.4281 0.4265 0.4247 0.4229
3187.339935 0.4211 0.4193 0.4174 0.4154 0.4134
3192.362040 0.4113 0.4093 0.4072 0.4052 0.4022
3197.384145 0.3989 0.3956 0.3922 0.3882 0.3833
3202.406250 0.3782 0.3731 0.3676 0.3605 0.3532
3207.428355 0.3463 0.3407 0.3355 0.3302 0.3249
3212.450460 0.3201 0.3154 0.3106 0.3058 0.3010
3217.472565 0.2963 0.2915 0.2867 0.2818 0.2768
3222.494671 0.2718 0.2667 0.2617 0.2568 0.2528
3227.516776 0.2490 0.2453 0.2416 0.2379 0.2342
3232.538881 0.2306 0.2276 0.2249 0.2222 0.2195
3237.560986 0.2168 0.2140 0.2113 0.2087 0.2061
3242.583091 0.2036 0.2011 0.1990 0.1976 0.1962
3247.605196 0.1948 0.1934 0.1925 0.1920 0.1917
3252.627301 0.1919 0.1922 0.1929 0.1898 0.1931
3257.649406 0.1948 0.1959 0.1969 0.1980 0.1994
3262.671512 0.2008 0.2023 0.2038 0.2053 0.2067
3267.693617 0.2082 0.2097 0.2114 0.2137 0.2161
3272.715722 0.2184 0.2208 0.2234 0.2269 0.2307
3277.737827 0.2344 0.2382 0.2494 0.2584 0.2646
3282.759932 0.2704 0.2756 0.2806 0.2855 0.2912
3287.782037 0.2974 0.3037 0.3100 0.3167 0.3233
3292.804142 0.3299 0.3467 0.3671 0.3767 0.3835
3297.826248 0.3903 0.3971 0.4032 0.4087 0.4139
3302.848353 0.4191 0.4243 0.4295 0.4355 0.4419
3307.870458 0.4485 0.4551 0.4617 0.4691 0.4772
3312.892563 0.4854 0.4941 0.5029 0.5117 0.5209
3317.914668 0.5342 0.5484 0.5621 0.5760 0.5931
3322.936773 0.6090 0.6196 0.6291 0.6385 0.6461
3327.958878 0.6529 0.6597 0.6664 0.6727 0.6784
3332.980984 0.6840 0.6889 0.6936 0.6983 0.7024
3338.003089 0.7058 0.7089 0.7120 0.7152 0.7181
3343.025194 0.7201 0.7218 0.7236 0.7254 0.7271
3348.047299 0.7289 0.7306 0.7324 0.7342 0.7361
3353.069404 0.7382 0.7403 0.7423 0.7444 0.7465
3358.091509 0.7483 0.7495 0.7506 0.7517 0.7528
3363.113614 0.7539 0.7548 0.7556 0.7564 0.7572
3368.135719 0.7580 0.7588 0.7596 0.7604 0.7612
3373.157825 0.7620 0.7628 0.7637 0.7647 0.7656
3378.179930 0.7666 0.7675 0.7680 0.7686 0.7691
3383.202035 0.7697 0.7702 0.7708 0.7713 0.7719
3388.224140 0.7724 0.7730 0.7735 0.7740 0.7745
3393.246245 0.7750 0.7755 0.7759 0.7765 0.7772
3398.268350 0.7778 0.7784 0.7790 0.7794 0.7797
3403.290455 0.7799 0.7802 0.7804 0.7807 0.7809
3408.312561 0.7810 0.7810 0.7811 0.7811 0.7812
3413.334666 0.7812 0.7813 0.7813 0.7814 0.7814
3418.356771 0.7814 0.7815 0.7815 0.7814 0.7814
3423.378876 0.7814 0.7792 0.7810 0.7813 0.7813
3428.400981 0.7813 0.7813 0.7813 0.7813 0.7813
3433.423086 0.7813 0.7813 0.7813 0.7813 0.7813
3438.445191 0.7814 0.7814 0.7814 0.7814 0.7814
3443.467297 0.7814 0.7814 0.7815 0.7815 0.7815
3448.489402 0.7815 0.7815 0.7815 0.7815 0.7815
3453.511507 0.7816 0.7816 0.7820 0.7825 0.7830
3458.533612 0.7835 0.7839 0.7839 0.7838 0.7838
3463.555717 0.7837 0.7837 0.7835 0.7833 0.7831
3468.577822 0.7829 0.7826 0.7824 0.7822 0.7822
3473.599927 0.7822 0.7822 0.7822 0.7822 0.7823
3478.622032 0.7826 0.7830 0.7836 0.7841 0.7846
3483.644138 0.7850 0.7847 0.7845 0.7843 0.7840
3488.666243 0.7838 0.7835 0.7833 0.7829 0.7823
3493.688348 0.7817 0.7810 0.7804 0.7797 0.7793
3498.710453 0.7790 0.7787 0.7784 0.7782 0.7779
3503.732558 0.7776 0.7773 0.7771 0.7768 0.7765
3508.754663 0.7763 0.7760 0.7757 0.7756 0.7755
3513.776768 0.7754 0.7753 0.7751 0.7750 0.7749
3518.798874 0.7748 0.7747 0.7746 0.7744 0.7743
3523.820979 0.7742 0.7741 0.7740 0.7739 0.7737
3528.843084 0.7736 0.7735 0.7733 0.7732 0.7730
3533.865189 0.7729 0.7728 0.7726 0.7725 0.7723
3538.887294 0.7722 0.7720 0.7719 0.7717 0.7716
3543.909399 0.7715 0.7713 0.7712 0.7710 0.7709
3548.931504 0.7707 0.7706 0.7704 0.7703 0.7702
3553.953609 0.7700 0.7699 0.7698 0.7696 0.7695
3558.975715 0.7694 0.7692 0.7691 0.7690 0.7688
3563.997820 0.7687 0.7686 0.7684 0.7683 0.7682
3569.019925 0.7681 0.7679 0.7678 0.7677 0.7675
3574.042030 0.7674 0.7673 0.7671 0.7670 0.7669
3579.064135 0.7667 0.7666 0.7665 0.7664 0.7662
3584.086240 0.7661 0.7660 0.7658 0.7657 0.7655
3589.108345 0.7654 0.7653 0.7651 0.7650 0.7648
3594.130451 0.7647 0.7645 0.7644 0.7642 0.7641
3599.152556 0.7640 0.7638 0.7637 0.7635 0.7634
3604.174661 0.7632 0.7631 0.7630 0.7628 0.7627
3609.196766 0.7626 0.7625 0.7624 0.7623 0.7623
3614.218871 0.7622 0.7621 0.7620 0.7619 0.7618
3619.240976 0.7617 0.7609 0.7598 0.7587 0.7580
3624.263081 0.7575 0.7569 0.7564 0.7558 0.7553
3629.285187 0.7548 0.7544 0.7541 0.7538 0.7535
3634.307292 0.7532 0.7529 0.7525 0.7522 0.7519
3639.329397 0.7516 0.7513 0.7510 0.7508 0.7506
3644.351502 0.7503 0.7501 0.7499 0.7496 0.7494
3649.373607 0.7492 0.7489 0.7487 0.7485 0.7483
3654.395712 0.7480 0.7478 0.7476 0.7473 0.7471
3659.417817 0.7471 0.7470 0.7469 0.7468 0.7467
3664.439922 0.7466 0.7465 0.7464 0.7463 0.7462
3669.462028 0.7461 0.7460 0.7460 0.7459 0.7458
3674.484133 0.7457 0.7456 0.7455 0.7454 0.7453
3679.506238 0.7452 0.7451 0.7449 0.7447 0.7445
3684.528343 0.7443 0.7441 0.7439 0.7436 0.7434
3689.550448 0.7432 0.7430 0.7428 0.7426 0.7424
3694.572553 0.7422 0.7420 0.7418 0.7416 0.7414
3699.594658 0.7411 0.7409 0.7407 0.7405 0.7403
3704.616764 0.7401 0.7399 0.7397 0.7395 0.7393
3709.638869 0.7391 0.7388 0.7386 0.7384 0.7382
3714.660974 0.7380 0.7378 0.7376 0.7374 0.7372
3719.683079 0.7370 0.7368 0.7366 0.7364 0.7362
3724.705184 0.7360 0.7359 0.7357 0.7355 0.7353
3729.727289 0.7351 0.7349 0.7347 0.7345 0.7343
3734.749394 0.7341 0.7339 0.7337 0.7336 0.7334
3739.771500 0.7332 0.7330 0.7328 0.7326 0.7324
3744.793605 0.7322 0.7320 0.7318 0.7316 0.7314
3749.815710 0.7313 0.7311 0.7309 0.7307 0.7305
3754.837815 0.7303 0.7301 0.7299 0.7297 0.7295
3759.859920 0.7293 0.7291 0.7289 0.7287 0.7285
3764.882025 0.7284 0.7282 0.7280 0.7278 0.7276
3769.904130 0.7274 0.7272 0.7270 0.7268 0.7266
3774.926235 0.7264 0.7262 0.7260 0.7258 0.7256
3779.948341 0.7254 0.7252 0.7251 0.7249 0.7247
3784.970446 0.7245 0.7243 0.7241 0.7239 0.7237
3789.992551 0.7235 0.7233 0.7231 0.7229 0.7227
3795.014656 0.7225 0.7224 0.7222 0.7220 0.7218
3800.036761 0.7216 0.7214 0.7212 0.7210 0.7209
3805.058866 0.7207 0.7205 0.7203 0.7201 0.7199
3810.080971 0.7197 0.7195 0.7194 0.7192 0.7190
3815.103077 0.7188 0.7186 0.7184 0.7182 0.7180
3820.125182 0.7178 0.7177 0.7175 0.7173 0.7171
3825.147287 0.7169 0.7168 0.7167 0.7166 0.7165
3830.169392 0.7164 0.7163 0.7162 0.7161 0.7160
3835.191497 0.7159 0.7158 0.7157 0.7155 0.7154
3840.213602 0.7153 0.7152 0.7151 0.7150 0.7149
3845.235707 0.7148 0.7147 0.7146 0.7145 0.7144
3850.257812 0.7143 0.7142 0.7141 0.7140 0.7139
3855.279918 0.7138 0.7137 0.7135 0.7133 0.7130
3860.302023 0.7128 0.7125 0.7122 0.7119 0.7116
3865.324128 0.7113 0.7110 0.7107 0.7104 0.7101
3870.346233 0.7098 0.7095 0.7092 0.7089 0.7086
3875.368338 0.7083 0.7080 0.7077 0.7075 0.7072
3880.390443 0.7069 0.7066 0.7063 0.7060 0.7057
3885.412548 0.7054 0.7051 0.7049 0.7046 0.7044
3890.434654 0.7041 0.7039 0.7036 0.7034 0.7031
3895.456759 0.7029 0.7026 0.7024 0.7021 0.7018
3900.478864 0.7016 0.7013 0.7011 0.7008 0.7006
3905.500969 0.7003 0.7001 0.6998 0.6996 0.6993
3910.523074 0.6991 0.6988 0.6986 0.6984 0.6982
3915.545179 0.6981 0.6980 0.6979 0.6977 0.6976
3920.567284 0.6975 0.6974 0.6972 0.6971 0.6970
3925.589390 0.6969 0.6968 0.6966 0.6965 0.6964
3930.611495 0.6963 0.6961 0.6960 0.6959 0.6958
3935.633600 0.6957 0.6955 0.6954 0.6953 0.6951
3940.655705 0.6948 0.6945 0.6942 0.6940 0.6937
3945.677810 0.6934 0.6931 0.6929 0.6926 0.6923
3950.699915 0.6920 0.6918 0.6915 0.6912 0.6909
3955.722020 0.6906 0.6903 0.6900 0.6898 0.6895
3960.744125 0.6892 0.6889 0.6886 0.6883 0.6880
3965.766231 0.6877 0.6874 0.6871 0.6868 0.6867
3970.788336 0.6866 0.6865 0.6864 0.6862 0.6861
3975.810441 0.6860 0.6859 0.6858 0.6857 0.6856
3980.832546 0.6855 0.6854 0.6853 0.6852 0.6851
3985.854651 0.6849 0.6848 0.6847 0.6847 0.6848
3990.876756 0.6848 0.6848 0.6849 0.6849 0.6822
3995.898861 0.6849 0.6850 0.6850 0.6851 0.6851
4000.920967 0.6851 0.6852 0.6852 0.6853 0.6853
4005.943072 0.6853 0.6855 0.6857 0.6859 0.6862
4010.965177 0.6864 0.6866 0.6868 0.6870 0.6872
4015.987282 0.6874 0.6876 0.6878 0.6880 0.6882
4021.009387 0.6888 0.6893 0.6898 0.6903 0.6908
4026.031492 0.6913 0.6919 0.6924 0.6929 0.6934
4031.053597 0.6939 0.6944 0.6949 0.6955 0.6960
4036.075703 0.6965 0.6970 0.6978 0.6985 0.6992
4041.097808 0.7000 0.7007 0.7015 0.7022 0.7029
4046.119913 0.7037 0.7046 0.7057 0.7068 0.7079
4051.142018 0.7090 0.7100 0.7122 0.7123 0.7134
4056.164123 0.7145 0.7161 0.7190 0.7216 0.7237
4061.186228 0.7259 0.7280 0.7301 0.7322 0.7328
##END=
