##TITLE=COCAINE MURIATE
##JCAMP-DX=4.24
$$ By DXEDIT 1.05 (RS McDonald)
##DATA TYPE=INFRARED SPECTRUM
##CLASS=COBLENTZ III
##ORIGIN=BUREAU OF CUSTOMS
##OWNER=COBLENTZ SOC.
Collection (C) 2018 copyright by the U.S. Secretary of Commerce
on behalf of the United States of America. All rights reserved.
##DATE=Not specified, most likely prior to 1970
##NAMES=methyl 3-(benzoyloxy)-8-methyl-8-azabicyclo[3.2.1]octane-2-carboxylate hydrochloride
COCAINE, HYDROCHLORIDE
##MOLFORM=C17 H22 Cl N O4
##MP=195 C
##SOURCE REFERENCE=COBLENTZ NO. 05004
##$NIST ID=B6005004
##$NIST SOURCE=COBLENTZ
##$NIST IMAGE=cob5004
##SPECTROMETER/DATA SYSTEM=PERKIN-ELMER 21 (GRATING)
##INSTRUMENT PARAMETERS=FILTER AT ABOUT 10 MICRONS
##STATE=SOLID (1 mg / 125 mg KBr DISC)
$$PURITY 99+
##SAMPLING PROCEDURE=TRANSMISSION
##RESOLUTION=2
##DATA PROCESSING=DIGITIZED BY COBLENTZ SOCIETY (BATCH I) FROM HARD COPY
##XUNITS=1/CM
##YUNITS=TRANSMITTANCE
##XLABEL=Wavenumbers (cm-1)
##YLABEL=Transmittance
##XFACTOR=1
##YFACTOR=1
##DELTAX=1
##FIRSTX=4000
##LASTX=649
##FIRSTY=0.9217
##MAXX=4000
##MINX=649
##MAXY=0.9478
##MINY=0.0566
##NPOINTS=3352
##XYDATA=(X++(Y..Y))
4000.000000 0.9217 0.9217 0.9218 0.9218 0.9218
3995.000000 0.9220 0.9220 0.9221 0.9221 0.9223
3990.000000 0.9223 0.9224 0.9225 0.9225 0.9225
3985.000000 0.9227 0.9228 0.9228 0.9230 0.9230
3980.000000 0.9231 0.9232 0.9233 0.9234 0.9234
3975.000000 0.9235 0.9236 0.9236 0.9237 0.9238
3970.000000 0.9238 0.9239 0.9239 0.9239 0.9239
3965.000000 0.9239 0.9239 0.9239 0.9239 0.9238
3960.000000 0.9238 0.9238 0.9237 0.9237 0.9237
3955.000000 0.9236 0.9236 0.9236 0.9235 0.9235
3950.000000 0.9235 0.9234 0.9234 0.9234 0.9233
3945.000000 0.9233 0.9233 0.9232 0.9232 0.9232
3940.000000 0.9231 0.9231 0.9231 0.9230 0.9230
3935.000000 0.9230 0.9230 0.9230 0.9230 0.9230
3930.000000 0.9228 0.9228 0.9228 0.9228 0.9228
3925.000000 0.9228 0.9227 0.9227 0.9227 0.9225
3920.000000 0.9225 0.9225 0.9225 0.9225 0.9225
3915.000000 0.9224 0.9224 0.9224 0.9223 0.9223
3910.000000 0.9223 0.9221 0.9221 0.9221 0.9221
3905.000000 0.9221 0.9221 0.9221 0.9221 0.9221
3900.000000 0.9220 0.9220 0.9220 0.9220 0.9220
3895.000000 0.9220 0.9218 0.9218 0.9218 0.9218
3890.000000 0.9218 0.9218 0.9218 0.9218 0.9218
3885.000000 0.9218 0.9218 0.9218 0.9218 0.9217
3880.000000 0.9217 0.9217 0.9217 0.9217 0.9217
3875.000000 0.9216 0.9216 0.9216 0.9216 0.9216
3870.000000 0.9216 0.9216 0.9216 0.9216 0.9216
3865.000000 0.9216 0.9216 0.9215 0.9215 0.9215
3860.000000 0.9215 0.9215 0.9214 0.9214 0.9214
3855.000000 0.9214 0.9214 0.9214 0.9213 0.9213
3850.000000 0.9213 0.9213 0.9213 0.9213 0.9213
3845.000000 0.9214 0.9215 0.9216 0.9217 0.9218
3840.000000 0.9218 0.9220 0.9221 0.9223 0.9224
3835.000000 0.9225 0.9227 0.9228 0.9230 0.9231
3830.000000 0.9232 0.9234 0.9235 0.9237 0.9238
3825.000000 0.9239 0.9241 0.9242 0.9243 0.9245
3820.000000 0.9246 0.9247 0.9249 0.9250 0.9252
3815.000000 0.9253 0.9255 0.9256 0.9258 0.9259
3810.000000 0.9260 0.9261 0.9262 0.9262 0.9263
3805.000000 0.9264 0.9264 0.9265 0.9265 0.9266
3800.000000 0.9266 0.9267 0.9267 0.9268 0.9268
3795.000000 0.9268 0.9268 0.9270 0.9270 0.9271
3790.000000 0.9271 0.9271 0.9271 0.9273 0.9273
3785.000000 0.9274 0.9275 0.9275 0.9275 0.9275
3780.000000 0.9277 0.9277 0.9278 0.9278 0.9278
3775.000000 0.9280 0.9280 0.9281 0.9282 0.9282
3770.000000 0.9283 0.9283 0.9284 0.9284 0.9285
3765.000000 0.9286 0.9286 0.9286 0.9286 0.9286
3760.000000 0.9286 0.9286 0.9286 0.9285 0.9285
3755.000000 0.9284 0.9284 0.9283 0.9283 0.9283
3750.000000 0.9282 0.9282 0.9281 0.9281 0.9280
3745.000000 0.9280 0.9278 0.9278 0.9278 0.9278
3740.000000 0.9277 0.9277 0.9275 0.9275 0.9275
3735.000000 0.9274 0.9274 0.9273 0.9273 0.9271
3730.000000 0.9271 0.9271 0.9271 0.9271 0.9271
3725.000000 0.9270 0.9268 0.9268 0.9268 0.9267
3720.000000 0.9266 0.9265 0.9264 0.9263 0.9262
3715.000000 0.9261 0.9260 0.9259 0.9258 0.9256
3710.000000 0.9255 0.9254 0.9253 0.9252 0.9250
3705.000000 0.9249 0.9248 0.9247 0.9246 0.9245
3700.000000 0.9243 0.9242 0.9241 0.9240 0.9239
3695.000000 0.9238 0.9237 0.9236 0.9234 0.9233
3690.000000 0.9231 0.9230 0.9228 0.9227 0.9224
3685.000000 0.9221 0.9218 0.9216 0.9214 0.9211
3680.000000 0.9209 0.9206 0.9203 0.9201 0.9198
3675.000000 0.9195 0.9193 0.9190 0.9187 0.9184
3670.000000 0.9182 0.9178 0.9177 0.9174 0.9171
3665.000000 0.9168 0.9166 0.9163 0.9160 0.9157
3660.000000 0.9154 0.9149 0.9145 0.9140 0.9135
3655.000000 0.9131 0.9125 0.9120 0.9115 0.9110
3650.000000 0.9104 0.9099 0.9094 0.9089 0.9084
3645.000000 0.9078 0.9074 0.9068 0.9063 0.9057
3640.000000 0.9052 0.9046 0.9039 0.9032 0.9025
3635.000000 0.9018 0.9011 0.9003 0.8996 0.8989
3630.000000 0.8982 0.8974 0.8967 0.8960 0.8952
3625.000000 0.8945 0.8938 0.8930 0.8923 0.8916
3620.000000 0.8908 0.8901 0.8894 0.8886 0.8878
3615.000000 0.8868 0.8861 0.8853 0.8843 0.8832
3610.000000 0.8821 0.8811 0.8801 0.8790 0.8780
3605.000000 0.8768 0.8758 0.8748 0.8737 0.8727
3600.000000 0.8716 0.8705 0.8695 0.8684 0.8674
3595.000000 0.8663 0.8652 0.8642 0.8631 0.8621
3590.000000 0.8611 0.8601 0.8591 0.8581 0.8571
3585.000000 0.8561 0.8552 0.8542 0.8533 0.8523
3580.000000 0.8514 0.8504 0.8494 0.8485 0.8475
3575.000000 0.8466 0.8456 0.8447 0.8437 0.8427
3570.000000 0.8418 0.8408 0.8399 0.8389 0.8378
3565.000000 0.8370 0.8360 0.8350 0.8341 0.8331
3560.000000 0.8321 0.8312 0.8302 0.8292 0.8283
3555.000000 0.8273 0.8262 0.8252 0.8242 0.8232
3550.000000 0.8221 0.8211 0.8200 0.8189 0.8178
3545.000000 0.8168 0.8157 0.8146 0.8135 0.8125
3540.000000 0.8114 0.8104 0.8093 0.8082 0.8071
3535.000000 0.8061 0.8050 0.8039 0.8028 0.8018
3530.000000 0.8007 0.7996 0.7985 0.7974 0.7961
3525.000000 0.7950 0.7937 0.7925 0.7911 0.7900
3520.000000 0.7887 0.7875 0.7861 0.7850 0.7837
3515.000000 0.7825 0.7811 0.7799 0.7786 0.7774
3510.000000 0.7761 0.7748 0.7736 0.7722 0.7711
3505.000000 0.7701 0.7691 0.7681 0.7671 0.7661
3500.000000 0.7653 0.7643 0.7634 0.7625 0.7615
3495.000000 0.7607 0.7598 0.7589 0.7580 0.7571
3490.000000 0.7561 0.7551 0.7543 0.7534 0.7525
3485.000000 0.7515 0.7506 0.7497 0.7487 0.7478
3480.000000 0.7468 0.7460 0.7451 0.7442 0.7431
3475.000000 0.7419 0.7408 0.7398 0.7387 0.7375
3470.000000 0.7365 0.7353 0.7342 0.7331 0.7319
3465.000000 0.7308 0.7297 0.7286 0.7275 0.7265
3460.000000 0.7254 0.7244 0.7233 0.7222 0.7212
3455.000000 0.7203 0.7193 0.7183 0.7172 0.7162
3450.000000 0.7153 0.7143 0.7133 0.7122 0.7112
3445.000000 0.7103 0.7093 0.7083 0.7072 0.7062
3440.000000 0.7053 0.7043 0.7034 0.7025 0.7018
3435.000000 0.7010 0.7001 0.6997 0.6992 0.6986
3430.000000 0.6981 0.6976 0.6975 0.6974 0.6972
3425.000000 0.6971 0.6971 0.6969 0.6968 0.6968
3420.000000 0.6967 0.6965 0.6965 0.6965 0.6964
3415.000000 0.6962 0.6962 0.6962 0.6962 0.6962
3410.000000 0.6961 0.6961 0.6961 0.6961 0.6961
3405.000000 0.6961 0.6961 0.6960 0.6960 0.6962
3400.000000 0.6972 0.6982 0.6992 0.7001 0.7012
3395.000000 0.7025 0.7037 0.7048 0.7060 0.7071
3390.000000 0.7084 0.7095 0.7107 0.7118 0.7131
3385.000000 0.7143 0.7155 0.7167 0.7180 0.7193
3380.000000 0.7206 0.7218 0.7232 0.7246 0.7258
3375.000000 0.7271 0.7285 0.7298 0.7311 0.7325
3370.000000 0.7339 0.7351 0.7365 0.7378 0.7392
3365.000000 0.7405 0.7418 0.7433 0.7447 0.7461
3360.000000 0.7475 0.7491 0.7506 0.7521 0.7537
3355.000000 0.7551 0.7567 0.7582 0.7598 0.7612
3350.000000 0.7628 0.7643 0.7658 0.7674 0.7689
3345.000000 0.7705 0.7719 0.7735 0.7750 0.7765
3340.000000 0.7781 0.7797 0.7811 0.7825 0.7838
3335.000000 0.7850 0.7861 0.7874 0.7884 0.7894
3330.000000 0.7904 0.7914 0.7925 0.7935 0.7946
3325.000000 0.7956 0.7965 0.7975 0.7987 0.7997
3320.000000 0.8007 0.8018 0.8028 0.8038 0.8049
3315.000000 0.8058 0.8069 0.8080 0.8091 0.8101
3310.000000 0.8111 0.8121 0.8132 0.8142 0.8151
3305.000000 0.8158 0.8167 0.8175 0.8182 0.8190
3300.000000 0.8198 0.8206 0.8214 0.8221 0.8228
3295.000000 0.8237 0.8245 0.8253 0.8261 0.8268
3290.000000 0.8275 0.8284 0.8292 0.8300 0.8308
3285.000000 0.8316 0.8323 0.8328 0.8336 0.8343
3280.000000 0.8350 0.8356 0.8362 0.8368 0.8374
3275.000000 0.8380 0.8386 0.8392 0.8398 0.8404
3270.000000 0.8410 0.8416 0.8421 0.8428 0.8435
3265.000000 0.8441 0.8447 0.8453 0.8459 0.8465
3260.000000 0.8471 0.8477 0.8483 0.8490 0.8496
3255.000000 0.8502 0.8508 0.8514 0.8520 0.8525
3250.000000 0.8531 0.8535 0.8539 0.8543 0.8547
3245.000000 0.8551 0.8554 0.8558 0.8562 0.8565
3240.000000 0.8568 0.8573 0.8577 0.8581 0.8584
3235.000000 0.8588 0.8592 0.8596 0.8600 0.8604
3230.000000 0.8607 0.8611 0.8615 0.8618 0.8621
3225.000000 0.8625 0.8628 0.8633 0.8637 0.8641
3220.000000 0.8645 0.8649 0.8653 0.8656 0.8659
3215.000000 0.8662 0.8666 0.8668 0.8671 0.8673
3210.000000 0.8675 0.8678 0.8681 0.8683 0.8685
3205.000000 0.8688 0.8690 0.8693 0.8695 0.8698
3200.000000 0.8700 0.8702 0.8705 0.8707 0.8709
3195.000000 0.8711 0.8713 0.8714 0.8715 0.8716
3190.000000 0.8717 0.8718 0.8718 0.8720 0.8721
3185.000000 0.8721 0.8723 0.8724 0.8725 0.8725
3180.000000 0.8725 0.8727 0.8728 0.8728 0.8730
3175.000000 0.8731 0.8732 0.8733 0.8734 0.8735
3170.000000 0.8735 0.8725 0.8737 0.8737 0.8738
3165.000000 0.8738 0.8738 0.8737 0.8735 0.8734
3160.000000 0.8733 0.8732 0.8730 0.8728 0.8728
3155.000000 0.8725 0.8725 0.8723 0.8721 0.8721
3150.000000 0.8718 0.8718 0.8716 0.8714 0.8712
3145.000000 0.8709 0.8705 0.8700 0.8694 0.8689
3140.000000 0.8684 0.8678 0.8673 0.8668 0.8662
3135.000000 0.8657 0.8652 0.8646 0.8641 0.8636
3130.000000 0.8630 0.8625 0.8620 0.8614 0.8609
3125.000000 0.8604 0.8597 0.8590 0.8584 0.8577
3120.000000 0.8568 0.8561 0.8554 0.8546 0.8538
3115.000000 0.8531 0.8524 0.8516 0.8509 0.8501
3110.000000 0.8494 0.8486 0.8478 0.8470 0.8463
3105.000000 0.8455 0.8446 0.8438 0.8430 0.8421
3100.000000 0.8412 0.8403 0.8394 0.8387 0.8381
3095.000000 0.8374 0.8367 0.8362 0.8357 0.8352
3090.000000 0.8347 0.8343 0.8338 0.8333 0.8328
3085.000000 0.8323 0.8318 0.8313 0.8309 0.8306
3080.000000 0.8302 0.8298 0.8296 0.8294 0.8292
3075.000000 0.8289 0.8287 0.8285 0.8282 0.8280
3070.000000 0.8278 0.8275 0.8274 0.8271 0.8268
3065.000000 0.8267 0.8264 0.8260 0.8256 0.8251
3060.000000 0.8247 0.8239 0.8232 0.8225 0.8218
3055.000000 0.8211 0.8204 0.8197 0.8190 0.8183
3050.000000 0.8175 0.8168 0.8158 0.8148 0.8137
3045.000000 0.8125 0.8108 0.8092 0.8075 0.8060
3040.000000 0.8044 0.8028 0.8014 0.8000 0.7988
3035.000000 0.7975 0.7962 0.7950 0.7938 0.7925
3030.000000 0.7911 0.7896 0.7881 0.7865 0.7835
3025.000000 0.7796 0.7757 0.7718 0.7651 0.7583
3020.000000 0.7515 0.7446 0.7378 0.7308 0.7240
3015.000000 0.7187 0.7141 0.7095 0.7051 0.7051
3010.000000 0.7051 0.7051 0.7055 0.7061 0.7067
3005.000000 0.7071 0.7078 0.7084 0.7090 0.7096
3000.000000 0.7101 0.7107 0.7111 0.7118 0.7124
2995.000000 0.7130 0.7136 0.7141 0.7147 0.7153
2990.000000 0.7158 0.7165 0.7169 0.7175 0.7162
2985.000000 0.7147 0.7132 0.7104 0.7047 0.6990
2980.000000 0.6933 0.6875 0.6819 0.6762 0.6706
2975.000000 0.6649 0.6591 0.6534 0.6476 0.6419
2970.000000 0.6364 0.6307 0.6249 0.6192 0.6135
2965.000000 0.6099 0.6078 0.6058 0.6039 0.6039
2960.000000 0.6039 0.6040 0.6040 0.6040 0.6041
2955.000000 0.6042 0.6048 0.6054 0.6060 0.6068
2950.000000 0.6076 0.6085 0.6094 0.6105 0.6117
2945.000000 0.6128 0.6140 0.6151 0.6162 0.6177
2940.000000 0.6205 0.6232 0.6260 0.6293 0.6328
2935.000000 0.6362 0.6396 0.6425 0.6455 0.6485
2930.000000 0.6511 0.6536 0.6561 0.6586 0.6606
2925.000000 0.6625 0.6646 0.6661 0.6678 0.6694
2920.000000 0.6705 0.6712 0.6721 0.6728 0.6731
2915.000000 0.6733 0.6735 0.6737 0.6739 0.6741
2910.000000 0.6743 0.6745 0.6747 0.6748 0.6751
2905.000000 0.6753 0.6755 0.6758 0.6761 0.6765
2900.000000 0.6771 0.6775 0.6781 0.6787 0.6792
2895.000000 0.6798 0.6803 0.6808 0.6814 0.6818
2890.000000 0.6825 0.6836 0.6847 0.6858 0.6874
2885.000000 0.6891 0.6908 0.6925 0.6944 0.6961
2880.000000 0.6978 0.6997 0.7015 0.7034 0.7053
2875.000000 0.7071 0.7091 0.7105 0.7115 0.7125
2870.000000 0.7135 0.7142 0.7149 0.7155 0.7161
2865.000000 0.7168 0.7175 0.7181 0.7188 0.7195
2860.000000 0.7201 0.7208 0.7215 0.7221 0.7222
2855.000000 0.7225 0.7228 0.7231 0.7234 0.7236
2850.000000 0.7239 0.7242 0.7244 0.7246 0.7247
2845.000000 0.7248 0.7249 0.7250 0.7250 0.7251
2840.000000 0.7251 0.7253 0.7254 0.7255 0.7256
2835.000000 0.7257 0.7258 0.7258 0.7258 0.7260
2830.000000 0.7260 0.7261 0.7261 0.7261 0.7261
2825.000000 0.7261 0.7262 0.7262 0.7262 0.7264
2820.000000 0.7264 0.7264 0.7262 0.7260 0.7257
2815.000000 0.7254 0.7251 0.7247 0.7243 0.7234
2810.000000 0.7224 0.7215 0.7201 0.7189 0.7175
2805.000000 0.7162 0.7150 0.7137 0.7121 0.7105
2800.000000 0.7089 0.7071 0.7054 0.7036 0.7018
2795.000000 0.7000 0.6981 0.6964 0.6949 0.6935
2790.000000 0.6919 0.6906 0.6892 0.6878 0.6864
2785.000000 0.6850 0.6836 0.6825 0.6812 0.6801
2780.000000 0.6794 0.6786 0.6778 0.6769 0.6761
2775.000000 0.6754 0.6746 0.6738 0.6730 0.6722
2770.000000 0.6717 0.6710 0.6704 0.6698 0.6692
2765.000000 0.6687 0.6683 0.6678 0.6675 0.6674
2760.000000 0.6671 0.6669 0.6668 0.6641 0.6665
2755.000000 0.6668 0.6668 0.6671 0.6676 0.6681
2750.000000 0.6686 0.6692 0.6698 0.6706 0.6719
2745.000000 0.6734 0.6748 0.6761 0.6775 0.6791
2740.000000 0.6808 0.6825 0.6843 0.6861 0.6878
2735.000000 0.6895 0.6908 0.6921 0.6933 0.6937
2730.000000 0.6942 0.6945 0.6949 0.6953 0.6956
2725.000000 0.6958 0.6958 0.6961 0.6961 0.6978
2720.000000 0.6962 0.6962 0.6964 0.6965 0.6965
2715.000000 0.6965 0.6965 0.6965 0.6965 0.6964
2710.000000 0.6960 0.6956 0.6941 0.6918 0.6894
2705.000000 0.6869 0.6844 0.6818 0.6798 0.6778
2700.000000 0.6758 0.6751 0.6746 0.6741 0.6737
2695.000000 0.6732 0.6728 0.6728 0.6728 0.6728
2690.000000 0.6728 0.6728 0.6728 0.6728 0.6730
2685.000000 0.6731 0.6731 0.6731 0.6732 0.6732
2680.000000 0.6732 0.6733 0.6735 0.6737 0.6739
2675.000000 0.6742 0.6744 0.6747 0.6750 0.6751
2670.000000 0.6755 0.6757 0.6760 0.6761 0.6765
2665.000000 0.6767 0.6769 0.6771 0.6775 0.6776
2660.000000 0.6778 0.6783 0.6787 0.6791 0.6794
2655.000000 0.6798 0.6801 0.6806 0.6811 0.6815
2650.000000 0.6818 0.6824 0.6828 0.6832 0.6836
2645.000000 0.6841 0.6845 0.6849 0.6854 0.6858
2640.000000 0.6861 0.6865 0.6869 0.6874 0.6878
2635.000000 0.6883 0.6887 0.6892 0.6897 0.6901
2630.000000 0.6908 0.6914 0.6919 0.6926 0.6933
2625.000000 0.6939 0.6944 0.6950 0.6957 0.6962
2620.000000 0.6968 0.6975 0.6981 0.6987 0.6994
2615.000000 0.7000 0.7006 0.7011 0.7018 0.7025
2610.000000 0.7032 0.7038 0.7045 0.7051 0.7057
2605.000000 0.7064 0.7071 0.7076 0.7083 0.7090
2600.000000 0.7096 0.7103 0.7108 0.7115 0.7121
2595.000000 0.7132 0.7143 0.7154 0.7165 0.7175
2590.000000 0.7187 0.7198 0.7208 0.7221 0.7233
2585.000000 0.7242 0.7248 0.7254 0.7258 0.7264
2580.000000 0.7268 0.7274 0.7278 0.7283 0.7284
2575.000000 0.7286 0.7288 0.7304 0.7292 0.7293
2570.000000 0.7294 0.7295 0.7296 0.7296 0.7288
2565.000000 0.7276 0.7265 0.7246 0.7225 0.7201
2560.000000 0.7175 0.7148 0.7111 0.7072 0.7037
2555.000000 0.7007 0.6975 0.6947 0.6919 0.6892
2550.000000 0.6880 0.6868 0.6857 0.6848 0.6839
2545.000000 0.6832 0.6825 0.6818 0.6814 0.6808
2540.000000 0.6806 0.6805 0.6803 0.6801 0.6801
2535.000000 0.6800 0.6799 0.6798 0.6796 0.6795
2530.000000 0.6795 0.6798 0.6800 0.6831 0.6868
2525.000000 0.6901 0.6922 0.6944 0.6965 0.6986
2520.000000 0.7007 0.7026 0.7048 0.7067 0.7086
2515.000000 0.7104 0.7119 0.7136 0.7151 0.7167
2510.000000 0.7182 0.7198 0.7214 0.7226 0.7237
2505.000000 0.7247 0.7256 0.7265 0.7275 0.7284
2500.000000 0.7294 0.7303 0.7311 0.7321 0.7330
2495.000000 0.7340 0.7349 0.7358 0.7368 0.7376
2490.000000 0.7387 0.7396 0.7405 0.7417 0.7428
2485.000000 0.7442 0.7458 0.7476 0.7499 0.7524
2480.000000 0.7550 0.7584 0.7618 0.7651 0.7685
2475.000000 0.7717 0.7742 0.7765 0.7792 0.7817
2470.000000 0.7842 0.7867 0.7892 0.7919 0.7948
2465.000000 0.7975 0.8005 0.8033 0.8057 0.8081
2460.000000 0.8103 0.8124 0.8144 0.8164 0.8183
2455.000000 0.8198 0.8212 0.8225 0.8237 0.8248
2450.000000 0.8256 0.8264 0.8268 0.8271 0.8274
2445.000000 0.8277 0.8280 0.8282 0.8285 0.8287
2440.000000 0.8289 0.8292 0.8294 0.8296 0.8298
2435.000000 0.8300 0.8302 0.8304 0.8306 0.8308
2430.000000 0.8311 0.8313 0.8315 0.8318 0.8325
2425.000000 0.8332 0.8340 0.8348 0.8356 0.8364
2420.000000 0.8371 0.8380 0.8389 0.8400 0.8413
2415.000000 0.8425 0.8438 0.8451 0.8464 0.8475
2410.000000 0.8486 0.8495 0.8504 0.8513 0.8521
2405.000000 0.8531 0.8539 0.8548 0.8556 0.8564
2400.000000 0.8568 0.8575 0.8580 0.8585 0.8591
2395.000000 0.8596 0.8602 0.8607 0.8614 0.8621
2390.000000 0.8631 0.8640 0.8649 0.8659 0.8668
2385.000000 0.8677 0.8686 0.8694 0.8703 0.8712
2380.000000 0.8720 0.8727 0.8731 0.8732 0.8734
2375.000000 0.8735 0.8737 0.8739 0.8740 0.8742
2370.000000 0.8744 0.8746 0.8747 0.8749 0.8750
2365.000000 0.8750 0.8750 0.8749 0.8748 0.8747
2360.000000 0.8746 0.8745 0.8744 0.8742 0.8741
2355.000000 0.8740 0.8740 0.8740 0.8740 0.8741
2350.000000 0.8741 0.8742 0.8742 0.8742 0.8742
2345.000000 0.8743 0.8745 0.8747 0.8755 0.8764
2340.000000 0.8773 0.8781 0.8790 0.8798 0.8806
2335.000000 0.8813 0.8820 0.8825 0.8831 0.8836
2330.000000 0.8841 0.8847 0.8854 0.8861 0.8868
2325.000000 0.8875 0.8881 0.8888 0.8895 0.8902
2320.000000 0.8909 0.8917 0.8927 0.8938 0.8950
2315.000000 0.8961 0.8973 0.8986 0.8997 0.9009
2310.000000 0.9021 0.9033 0.9045 0.9057 0.9068
2305.000000 0.9078 0.9089 0.9100 0.9111 0.9121
2300.000000 0.9132 0.9142 0.9152 0.9163 0.9173
2295.000000 0.9184 0.9194 0.9202 0.9209 0.9215
2290.000000 0.9220 0.9224 0.9230 0.9235 0.9240
2285.000000 0.9245 0.9250 0.9255 0.9259 0.9264
2280.000000 0.9266 0.9268 0.9271 0.9275 0.9278
2275.000000 0.9281 0.9284 0.9287 0.9290 0.9293
2270.000000 0.9295 0.9298 0.9301 0.9304 0.9307
2265.000000 0.9310 0.9313 0.9315 0.9317 0.9318
2260.000000 0.9321 0.9324 0.9325 0.9328 0.9330
2255.000000 0.9333 0.9335 0.9337 0.9339 0.9342
2250.000000 0.9344 0.9346 0.9348 0.9350 0.9353
2245.000000 0.9355 0.9357 0.9359 0.9362 0.9364
2240.000000 0.9366 0.9368 0.9371 0.9373 0.9375
2235.000000 0.9375 0.9377 0.9378 0.9378 0.9380
2230.000000 0.9381 0.9382 0.9384 0.9385 0.9386
2225.000000 0.9387 0.9388 0.9389 0.9390 0.9391
2220.000000 0.9393 0.9394 0.9395 0.9396 0.9397
2215.000000 0.9398 0.9399 0.9401 0.9402 0.9403
2210.000000 0.9404 0.9405 0.9406 0.9407 0.9408
2205.000000 0.9410 0.9411 0.9412 0.9413 0.9413
2200.000000 0.9414 0.9415 0.9416 0.9417 0.9418
2195.000000 0.9418 0.9420 0.9421 0.9423 0.9424
2190.000000 0.9425 0.9425 0.9427 0.9428 0.9428
2185.000000 0.9428 0.9430 0.9431 0.9432 0.9433
2180.000000 0.9434 0.9435 0.9436 0.9437 0.9438
2175.000000 0.9439 0.9439 0.9440 0.9440 0.9440
2170.000000 0.9440 0.9440 0.9440 0.9440 0.9440
2165.000000 0.9440 0.9440 0.9440 0.9439 0.9439
2160.000000 0.9439 0.9439 0.9439 0.9439 0.9439
2155.000000 0.9439 0.9439 0.9439 0.9439 0.9439
2150.000000 0.9439 0.9439 0.9439 0.9439 0.9439
2145.000000 0.9439 0.9439 0.9439 0.9439 0.9439
2140.000000 0.9439 0.9439 0.9439 0.9439 0.9439
2135.000000 0.9439 0.9438 0.9437 0.9436 0.9435
2130.000000 0.9434 0.9433 0.9432 0.9431 0.9430
2125.000000 0.9428 0.9425 0.9425 0.9424 0.9423
2120.000000 0.9421 0.9421 0.9421 0.9420 0.9418
2115.000000 0.9417 0.9416 0.9415 0.9414 0.9413
2110.000000 0.9412 0.9411 0.9411 0.9411 0.9412
2105.000000 0.9412 0.9413 0.9413 0.9413 0.9413
2100.000000 0.9414 0.9415 0.9415 0.9415 0.9415
2095.000000 0.9416 0.9416 0.9417 0.9418 0.9418
2090.000000 0.9418 0.9418 0.9418 0.9418 0.9420
2085.000000 0.9421 0.9421 0.9421 0.9421 0.9421
2080.000000 0.9421 0.9421 0.9421 0.9421 0.9421
2075.000000 0.9421 0.9421 0.9421 0.9421 0.9423
2070.000000 0.9424 0.9425 0.9425 0.9427 0.9428
2065.000000 0.9430 0.9431 0.9432 0.9433 0.9435
2060.000000 0.9436 0.9437 0.9438 0.9439 0.9440
2055.000000 0.9442 0.9442 0.9442 0.9441 0.9440
2050.000000 0.9440 0.9439 0.9439 0.9437 0.9434
2045.000000 0.9430 0.9425 0.9421 0.9418 0.9414
2040.000000 0.9410 0.9406 0.9402 0.9398 0.9396
2035.000000 0.9393 0.9390 0.9387 0.9384 0.9382
2030.000000 0.9378 0.9375 0.9374 0.9371 0.9368
2025.000000 0.9365 0.9362 0.9360 0.9358 0.9355
2020.000000 0.9354 0.9352 0.9350 0.9348 0.9346
2015.000000 0.9344 0.9342 0.9340 0.9340 0.9340
2010.000000 0.9343 0.9345 0.9348 0.9349 0.9352
2005.000000 0.9354 0.9358 0.9361 0.9364 0.9367
2000.000000 0.9371 0.9374 0.9378 0.9382 0.9386
1995.000000 0.9390 0.9394 0.9398 0.9402 0.9406
1990.000000 0.9410 0.9414 0.9417 0.9420 0.9423
1985.000000 0.9425 0.9428 0.9430 0.9433 0.9435
1980.000000 0.9438 0.9438 0.9434 0.9430 0.9425
1975.000000 0.9423 0.9418 0.9415 0.9411 0.9407
1970.000000 0.9403 0.9399 0.9396 0.9392 0.9390
1965.000000 0.9390 0.9390 0.9391 0.9392 0.9392
1960.000000 0.9393 0.9393 0.9393 0.9394 0.9395
1955.000000 0.9395 0.9396 0.9397 0.9399 0.9402
1950.000000 0.9405 0.9408 0.9411 0.9414 0.9417
1945.000000 0.9420 0.9423 0.9425 0.9428 0.9431
1940.000000 0.9435 0.9438 0.9440 0.9443 0.9446
1935.000000 0.9449 0.9452 0.9454 0.9455 0.9457
1930.000000 0.9458 0.9460 0.9461 0.9462 0.9464
1925.000000 0.9465 0.9466 0.9468 0.9468 0.9470
1920.000000 0.9471 0.9473 0.9474 0.9475 0.9477
1915.000000 0.9478 0.9478 0.9478 0.9478 0.9478
1910.000000 0.9478 0.9478 0.9478 0.9478 0.9478
1905.000000 0.9478 0.9478 0.9478 0.9478 0.9478
1900.000000 0.9478 0.9478 0.9477 0.9477 0.9475
1895.000000 0.9475 0.9475 0.9474 0.9473 0.9471
1890.000000 0.9471 0.9471 0.9470 0.9470 0.9468
1885.000000 0.9466 0.9461 0.9456 0.9452 0.9448
1880.000000 0.9444 0.9440 0.9435 0.9431 0.9427
1875.000000 0.9424 0.9424 0.9424 0.9424 0.9425
1870.000000 0.9425 0.9425 0.9425 0.9425 0.9425
1865.000000 0.9427 0.9428 0.9428 0.9428 0.9430
1860.000000 0.9431 0.9431 0.9432 0.9433 0.9433
1855.000000 0.9433 0.9434 0.9435 0.9435 0.9436
1850.000000 0.9436 0.9435 0.9435 0.9434 0.9433
1845.000000 0.9431 0.9431 0.9430 0.9428 0.9425
1840.000000 0.9423 0.9420 0.9418 0.9415 0.9404
1835.000000 0.9391 0.9375 0.9360 0.9342 0.9325
1830.000000 0.9313 0.9309 0.9305 0.9302 0.9298
1825.000000 0.9293 0.9291 0.9288 0.9286 0.9283
1820.000000 0.9281 0.9278 0.9275 0.9268 0.9262
1815.000000 0.9255 0.9248 0.9240 0.9233 0.9225
1810.000000 0.9218 0.9210 0.9201 0.9191 0.9182
1805.000000 0.9173 0.9163 0.9153 0.9143 0.9133
1800.000000 0.9123 0.9112 0.9100 0.9085 0.9070
1795.000000 0.9054 0.9038 0.9021 0.9007 0.8992
1790.000000 0.8977 0.8961 0.8946 0.8931 0.8915
1785.000000 0.8899 0.8882 0.8861 0.8825 0.8789
1780.000000 0.8755 0.8725 0.8701 0.8678 0.8654
1775.000000 0.8630 0.8607 0.8582 0.8558 0.8533
1770.000000 0.8508 0.8482 0.8458 0.8431 0.8397
1765.000000 0.8361 0.8325 0.8290 0.8254 0.8204
1760.000000 0.8136 0.8054 0.7971 0.7887 0.7800
1755.000000 0.7711 0.7617 0.7510 0.7396 0.7282
1750.000000 0.7122 0.6611 0.5841 0.5394 0.4994
1745.000000 0.4592 0.4191 0.3790 0.3387 0.2984
1740.000000 0.2580 0.2176 0.1772 0.1368 0.0967
1735.000000 0.0600 0.0566 0.0611 0.0668 0.0879
1730.000000 0.1121 0.1362 0.1604 0.1744 0.1793
1725.000000 0.1787 0.1759 0.1682 0.1606 0.1529
1720.000000 0.1452 0.1375 0.1298 0.1221 0.1144
1715.000000 0.1073 0.1054 0.1094 0.1272 0.1665
1710.000000 0.2058 0.2452 0.2847 0.3241 0.3636
1705.000000 0.4030 0.4427 0.4823 0.5221 0.5466
1700.000000 0.5897 0.6222 0.6384 0.6576 0.6721
1695.000000 0.6854 0.6975 0.7069 0.7157 0.7243
1690.000000 0.7318 0.7374 0.7428 0.7485 0.7542
1685.000000 0.7597 0.7643 0.7683 0.7721 0.7758
1680.000000 0.7797 0.7835 0.7872 0.7910 0.7946
1675.000000 0.7983 0.8017 0.8046 0.8071 0.8097
1670.000000 0.8122 0.8149 0.8167 0.8184 0.8200
1665.000000 0.8217 0.8233 0.8246 0.8253 0.8258
1660.000000 0.8264 0.8268 0.8274 0.8278 0.8278
1655.000000 0.8277 0.8275 0.8270 0.8268 0.8264
1650.000000 0.8256 0.8244 0.8231 0.8218 0.8206
1645.000000 0.8197 0.8189 0.8181 0.8172 0.8165
1640.000000 0.8157 0.8149 0.8141 0.8136 0.8131
1635.000000 0.8125 0.8126 0.8117 0.8111 0.8108
1630.000000 0.8108 0.8111 0.8112 0.8118 0.8128
1625.000000 0.8142 0.8154 0.8167 0.8181 0.8195
1620.000000 0.8210 0.8223 0.8235 0.8262 0.8250
1615.000000 0.8253 0.8258 0.8261 0.8263 0.8264
1610.000000 0.8265 0.8221 0.8104 0.7965 0.7825
1605.000000 0.7685 0.7545 0.7405 0.7275 0.7244
1600.000000 0.7218 0.7286 0.7436 0.7595 0.7755
1595.000000 0.7915 0.8075 0.8236 0.8361 0.8401
1590.000000 0.8396 0.8374 0.8334 0.8294 0.8254
1585.000000 0.8220 0.8207 0.8214 0.8256 0.8334
1580.000000 0.8413 0.8491 0.8560 0.8602 0.8641
1575.000000 0.8678 0.8713 0.8737 0.8762 0.8787
1570.000000 0.8811 0.8835 0.8856 0.8871 0.8888
1565.000000 0.8904 0.8918 0.8927 0.8927 0.8927
1560.000000 0.8925 0.8925 0.8921 0.8915 0.8908
1555.000000 0.8902 0.8896 0.8890 0.8886 0.8883
1550.000000 0.8881 0.8878 0.8875 0.8873 0.8873
1545.000000 0.8874 0.8875 0.8875 0.8877 0.8878
1540.000000 0.8880 0.8884 0.8889 0.8894 0.8898
1535.000000 0.8902 0.8906 0.8910 0.8912 0.8914
1530.000000 0.8917 0.8918 0.8921 0.8923 0.8925
1525.000000 0.8928 0.8928 0.8928 0.8930 0.8930
1520.000000 0.8928 0.8923 0.8917 0.8912 0.8905
1515.000000 0.8899 0.8890 0.8874 0.8858 0.8842
1510.000000 0.8825 0.8805 0.8781 0.8757 0.8733
1505.000000 0.8706 0.8661 0.8609 0.8557 0.8503
1500.000000 0.8445 0.8375 0.8286 0.8165 0.7969
1495.000000 0.7730 0.7591 0.7455 0.7283 0.6841
1490.000000 0.6269 0.5452 0.5431 0.5432 0.5455
1485.000000 0.5556 0.5698 0.5840 0.5982 0.6125
1480.000000 0.6267 0.6410 0.6553 0.6696 0.6839
1475.000000 0.6983 0.7126 0.7271 0.7405 0.7475
1470.000000 0.7491 0.7492 0.7492 0.7518 0.7028
1465.000000 0.6797 0.6565 0.6333 0.6099 0.5866
1460.000000 0.5633 0.5399 0.5165 0.4930 0.4696
1455.000000 0.4460 0.4281 0.4254 0.4255 0.4332
1450.000000 0.4618 0.4910 0.5206 0.5500 0.5796
1445.000000 0.6078 0.6184 0.6184 0.6185 0.6167
1440.000000 0.6051 0.5931 0.5810 0.5689 0.5568
1435.000000 0.5446 0.5325 0.5203 0.5082 0.5076
1430.000000 0.5060 0.5237 0.5704 0.6178 0.6653
1425.000000 0.7048 0.7230 0.7451 0.7768 0.7875
1420.000000 0.7964 0.8036 0.8088 0.8135 0.8165
1415.000000 0.8196 0.8220 0.8241 0.8256 0.8285
1410.000000 0.8268 0.8268 0.8264 0.8257 0.8165
1405.000000 0.8005 0.7845 0.7685 0.7524 0.7364
1400.000000 0.7203 0.7042 0.6883 0.6796 0.6807
1395.000000 0.6891 0.6986 0.7080 0.7175 0.7269
1390.000000 0.7336 0.7334 0.7354 0.7347 0.7314
1385.000000 0.7262 0.7193 0.7091 0.6932 0.6750
1380.000000 0.6534 0.6316 0.6096 0.5877 0.5657
1375.000000 0.5437 0.5302 0.5312 0.5362 0.5455
1370.000000 0.5547 0.5638 0.5689 0.5670 0.5581
1365.000000 0.5499 0.5419 0.5338 0.5309 0.5309
1360.000000 0.5327 0.5419 0.5571 0.5723 0.5876
1355.000000 0.6030 0.6182 0.6285 0.6301 0.6306
1350.000000 0.6309 0.6310 0.6310 0.6310 0.6305
1345.000000 0.6301 0.6297 0.6297 0.6306 0.6321
1340.000000 0.6354 0.6417 0.6537 0.6656 0.6832
1335.000000 0.6848 0.6848 0.6691 0.6486 0.6316
1330.000000 0.6319 0.6299 0.6355 0.6442 0.6530
1325.000000 0.6617 0.6705 0.6792 0.6830 0.6840
1320.000000 0.6848 0.6548 0.6216 0.5884 0.5551
1315.000000 0.5217 0.4689 0.4665 0.4662 0.4834
1310.000000 0.5170 0.5509 0.5848 0.6199 0.6229
1305.000000 0.6100 0.5754 0.5388 0.5021 0.4654
1300.000000 0.4305 0.4301 0.4310 0.4349 0.4389
1295.000000 0.4429 0.4468 0.4509 0.4548 0.4548
1290.000000 0.4547 0.4297 0.4045 0.3792 0.3539
1285.000000 0.3284 0.3032 0.2777 0.2522 0.2268
1280.000000 0.2013 0.1757 0.1500 0.1242 0.1078
1275.000000 0.1075 0.1073 0.1066 0.1026 0.0893
1270.000000 0.0763 0.0725 0.0711 0.0711 0.0711
1265.000000 0.0727 0.0771 0.0896 0.1251 0.1499
1260.000000 0.1759 0.2019 0.2281 0.2542 0.2804
1255.000000 0.3064 0.3133 0.3135 0.3021 0.2831
1250.000000 0.2642 0.2597 0.2609 0.2770 0.2971
1245.000000 0.3174 0.3377 0.3580 0.3784 0.3941
1240.000000 0.3922 0.3845 0.3691 0.3537 0.3382
1235.000000 0.3227 0.3072 0.2917 0.2762 0.2669
1230.000000 0.2689 0.2819 0.3046 0.3268 0.3491
1225.000000 0.3714 0.3938 0.4162 0.4386 0.4612
1220.000000 0.4837 0.5062 0.5289 0.5515 0.5741
1215.000000 0.5969 0.6196 0.6210 0.6042 0.5758
1210.000000 0.5473 0.5189 0.4919 0.4857 0.4867
1205.000000 0.5029 0.5233 0.5438 0.5643 0.5847
1200.000000 0.6075 0.6356 0.6532 0.6651 0.6741
1195.000000 0.6800 0.6845 0.6871 0.6893 0.6893
1190.000000 0.6892 0.6892 0.6850 0.6794 0.6695
1185.000000 0.6594 0.6500 0.6407 0.6299 0.6246
1180.000000 0.6210 0.6188 0.6184 0.6180 0.6177
1175.000000 0.6159 0.6116 0.5852 0.5459 0.5385
1170.000000 0.5342 0.5284 0.5048 0.5060 0.5056
1165.000000 0.5164 0.5337 0.5508 0.5682 0.5854
1160.000000 0.6028 0.6269 0.6251 0.6240 0.5923
1155.000000 0.5541 0.5156 0.4772 0.4538 0.4541
1150.000000 0.4779 0.4983 0.5189 0.5394 0.5600
1145.000000 0.5805 0.5975 0.5949 0.5764 0.5486
1140.000000 0.5208 0.4929 0.4649 0.4370 0.4210
1135.000000 0.4209 0.4337 0.4440 0.4543 0.4651
1130.000000 0.4788 0.4916 0.4977 0.5024 0.5058
1125.000000 0.5057 0.5055 0.5051 0.4995 0.4873
1120.000000 0.4585 0.4479 0.4212 0.3925 0.3638
1115.000000 0.3350 0.3061 0.2771 0.2482 0.2191
1110.000000 0.1900 0.1646 0.1696 0.1692 0.1729
1105.000000 0.1824 0.1971 0.2251 0.2577 0.2905
1100.000000 0.3232 0.3560 0.3890 0.4219 0.4550
1095.000000 0.4881 0.5212 0.5544 0.5876 0.6210
1090.000000 0.6544 0.6878 0.7153 0.7265 0.7321
1085.000000 0.7346 0.7371 0.7339 0.7288 0.7067
1080.000000 0.6584 0.6101 0.5616 0.5129 0.4643
1075.000000 0.4155 0.3666 0.3177 0.3152 0.3416
1070.000000 0.3914 0.4414 0.4912 0.5414 0.5908
1065.000000 0.6219 0.6462 0.6707 0.6953 0.7133
1060.000000 0.7143 0.7146 0.7065 0.6811 0.6554
1055.000000 0.6336 0.6288 0.6398 0.6700 0.7001
1050.000000 0.7305 0.7608 0.7855 0.7947 0.8025
1045.000000 0.8081 0.8111 0.8125 0.8136 0.8171
1040.000000 0.8130 0.8096 0.8026 0.7934 0.7790
1035.000000 0.7507 0.7261 0.6978 0.6695 0.6411
1030.000000 0.6121 0.5531 0.4485 0.3578 0.3593
1025.000000 0.3909 0.4358 0.4809 0.5231 0.5284
1020.000000 0.5388 0.5638 0.5888 0.6139 0.6373
1015.000000 0.6347 0.6089 0.5759 0.5447 0.5465
1010.000000 0.5649 0.5976 0.6304 0.6631 0.6958
1005.000000 0.7208 0.7222 0.7221 0.7221 0.7198
1000.000000 0.7158 0.7143 0.7205 0.7354 0.7504
995.000000 0.7643 0.7706 0.7739 0.7711 0.7622
990.000000 0.7515 0.7439 0.7391 0.7411 0.7451
985.000000 0.7488 0.7501 0.7464 0.7194 0.6919
980.000000 0.6646 0.6511 0.6511 0.6758 0.7095
975.000000 0.7432 0.7712 0.7928 0.8101 0.8174
970.000000 0.8198 0.8216 0.8237 0.8257 0.8275
965.000000 0.8290 0.8305 0.8328 0.8351 0.8375
960.000000 0.8410 0.8456 0.8492 0.8501 0.8453
955.000000 0.8362 0.8281 0.8217 0.8118 0.8145
950.000000 0.8183 0.8314 0.8423 0.8515 0.8585
945.000000 0.8654 0.8712 0.8764 0.8801 0.8828
940.000000 0.8852 0.8875 0.8891 0.8904 0.8916
935.000000 0.8928 0.8937 0.8946 0.8946 0.8959
930.000000 0.8959 0.8959 0.8934 0.8884 0.8807
925.000000 0.8733 0.8666 0.8582 0.8409 0.8448
920.000000 0.8455 0.8525 0.8624 0.8733 0.8818
915.000000 0.8866 0.8903 0.8933 0.8964 0.8991
910.000000 0.9011 0.9032 0.9041 0.9051 0.9060
905.000000 0.9064 0.9067 0.9130 0.9080 0.9090
900.000000 0.9096 0.9101 0.9040 0.8896 0.8790
895.000000 0.8741 0.8750 0.8771 0.8815 0.8871
890.000000 0.8899 0.8924 0.8948 0.8971 0.8995
885.000000 0.9018 0.9042 0.9065 0.9083 0.9095
880.000000 0.9101 0.9109 0.9107 0.9106 0.9116
875.000000 0.9093 0.9087 0.9080 0.9068 0.9052
870.000000 0.9035 0.9016 0.8999 0.8993 0.8987
865.000000 0.8990 0.9000 0.9013 0.9027 0.9011
860.000000 0.8925 0.8896 0.8851 0.8732 0.8484
855.000000 0.8141 0.7797 0.7451 0.7050 0.7075
850.000000 0.7150 0.7453 0.7768 0.8085 0.8400
845.000000 0.8558 0.8678 0.8768 0.8825 0.8868
840.000000 0.8910 0.8897 0.8886 0.8849 0.8800
835.000000 0.8747 0.8678 0.8582 0.8411 0.8439
830.000000 0.8442 0.8525 0.8646 0.8731 0.8807
825.000000 0.8873 0.8946 0.9007 0.9065 0.9047
820.000000 0.9004 0.8943 0.8871 0.8767 0.8597
815.000000 0.8385 0.8075 0.8114 0.8260 0.8518
810.000000 0.8666 0.8753 0.8818 0.8849 0.8865
805.000000 0.8925 0.8973 0.8985 0.8966 0.8935
800.000000 0.8927 0.9002 0.9021 0.9000 0.8609
795.000000 0.7960 0.7011 0.7025 0.7525 0.8080
790.000000 0.8342 0.8484 0.8596 0.8642 0.8624
785.000000 0.8521 0.8409 0.8406 0.8493 0.8637
780.000000 0.8799 0.8832 0.8841 0.8859 0.8912
775.000000 0.8968 0.8974 0.8959 0.8907 0.8914
770.000000 0.8953 0.9028 0.9030 0.8985 0.8933
765.000000 0.8925 0.8947 0.8966 0.8966 0.8886
760.000000 0.8846 0.8844 0.8850 0.8809 0.8495
755.000000 0.8181 0.7865 0.7642 0.7703 0.7968
750.000000 0.8211 0.8354 0.8468 0.8570 0.8596
745.000000 0.8581 0.8462 0.8382 0.8367 0.8366
740.000000 0.8355 0.8236 0.7975 0.7697 0.6955
735.000000 0.5864 0.4810 0.3755 0.2696 0.1873
730.000000 0.1915 0.2101 0.2585 0.3414 0.4244
725.000000 0.4915 0.5333 0.5619 0.5798 0.5883
720.000000 0.5922 0.5949 0.5989 0.6084 0.6184
715.000000 0.6179 0.6199 0.6230 0.6301 0.6506
710.000000 0.6718 0.6945 0.7168 0.7465 0.7715
705.000000 0.7881 0.8048 0.8178 0.8194 0.8220
700.000000 0.8343 0.8440 0.8442 0.8425 0.8341
695.000000 0.8339 0.8388 0.8434 0.8415 0.8320
690.000000 0.8178 0.8157 0.8196 0.8243 0.8233
685.000000 0.8068 0.7914 0.7744 0.7476 0.7492
680.000000 0.7549 0.7708 0.7857 0.8012 0.8158
675.000000 0.8275 0.8307 0.8257 0.8209 0.8224
670.000000 0.8284 0.8323 0.8327 0.8265 0.8175
665.000000 0.8180 0.8227 0.8265 0.8191 0.8118
660.000000 0.8095 0.8138 0.8181 0.8172 0.8096
655.000000 0.8021 0.8043 0.8095 0.8112 0.8055
650.000000 0.8006 0.7985
##END=
