##TITLE=ZINC OXIDE (LEAD FREE )
##JCAMP-DX=4.24
##DATA TYPE=INFRARED SPECTRUM
##CLASS=COBLENTZ
##ORIGIN=DESOTO CHEMICAL COATINGS, INC.
##OWNER=COBLENTZ SOCIETY
Collection (C) 2018 copyright by the U.S. Secretary of Commerce
on behalf of the United States of America. All rights reserved.
##DATE=Not specified, most likely prior to 1970
##MOLFORM=Zn O
$$ MORE THAN 99% PURE
##SOURCE REFERENCE=COBLENTZ NO. 4650
##$NIST ID=B6004650
##$NIST SOURCE=COBLENTZ
##$NIST IMAGE=cob4650
##SPECTROMETER/DATA SYSTEM=Not specified, most likely a grating spectrometer.
##STATE=SOLID (0.5 mg / 300 mg CsI PELLET)
##SAMPLING PROCEDURE=TRANSMISSION
##RESOLUTION=4
##DATA PROCESSING=DIGITIZED BY NIST FROM HARD COPY (FROM TWO SEGMENTS)
##XUNITS=1/CM
##YUNITS=TRANSMITTANCE
##XFACTOR=1.000000
##YFACTOR=1
##DELTAX=1.329397
##FIRSTX=200
##LASTX=3983.46
##FIRSTY=0.695
##MAXX=3983.46
##MINX=200
##MAXY=0.99
##MINY=0.158
##NPOINTS=2847
##XYDATA=(X++(Y..Y))
200.000000 0.6950 0.6960 0.6960 0.6980 0.6950
206.646985 0.6960 0.6960 0.6980 0.6980 0.6980
213.293970 0.6990 0.6990 0.6990 0.7000 0.7000
219.940955 0.7030 0.7040 0.7100 0.7110 0.7120
226.587940 0.7140 0.7140 0.7150 0.7150 0.7150
233.234924 0.7150 0.7150 0.7160 0.7180 0.7200
239.881909 0.7280 0.7310 0.7350 0.7380 0.7400
246.528894 0.7470 0.7500 0.7510 0.7510 0.7510
253.175879 0.7530 0.7540 0.7540 0.7540 0.7540
259.822864 0.7550 0.7550 0.7550 0.7570 0.7570
266.469849 0.7580 0.7580 0.7580 0.7580 0.7580
273.116834 0.7580 0.7590 0.7590 0.7610 0.7620
279.763819 0.7630 0.7650 0.7650 0.7630 0.7620
286.410804 0.7590 0.7570 0.7550 0.7540 0.7530
293.057788 0.7510 0.7500 0.7480 0.7480 0.7470
299.704773 0.7470 0.7470 0.7480 0.7500 0.7500
306.351758 0.7500 0.7460 0.7430 0.7390 0.7380
312.998743 0.7360 0.7360 0.7350 0.7340 0.7320
319.645728 0.7320 0.7310 0.7300 0.7280 0.7270
326.292713 0.7260 0.7260 0.7240 0.7230 0.7200
332.939698 0.7200 0.7190 0.7160 0.7140 0.7120
339.586683 0.7110 0.7100 0.7100 0.7100 0.7080
346.233668 0.7080 0.7080 0.7080 0.7070 0.7070
352.880652 0.7060 0.7040 0.7030 0.7020 0.6990
359.527637 0.6980 0.6920 0.6880 0.6840 0.6800
366.174622 0.6780 0.6740 0.6700 0.6660 0.6600
372.821607 0.6540 0.6480 0.6360 0.6280 0.6220
379.468592 0.5981 0.5502 0.4972 0.4522 0.3894
386.115577 0.3560 0.3240 0.2890 0.2690 0.2491
392.762562 0.2340 0.2280 0.2220 0.2180 0.2160
399.409547 0.2120 0.2090 0.2060 0.2050 0.2050
406.056532 0.2080 0.2090 0.2120 0.2130 0.2140
412.703516 0.2160 0.2170 0.2180 0.2200 0.2240
419.350501 0.2250 0.2290 0.2300 0.2320 0.2330
425.997486 0.2370 0.2370 0.2400 0.2460 0.2510
432.644471 0.2520 0.2530 0.2550 0.2570 0.2600
439.291456 0.2640 0.2680 0.2720 0.2770 0.2790
445.938441 0.2840 0.2880 0.2910 0.2960 0.2970
452.585426 0.3000 0.3030 0.3040 0.3050 0.3050
459.232411 0.3040 0.3030 0.3000 0.2990 0.2960
465.879396 0.2910 0.2880 0.2840 0.2760 0.2680
472.526380 0.2590 0.2520 0.2460 0.2410 0.2321
479.173365 0.2240 0.2140 0.2080 0.1970 0.1900
485.820350 0.1820 0.1800 0.1780 0.1730 0.1700
492.467335 0.1690 0.1680 0.1650 0.1640 0.1610
499.114320 0.1600 0.1580 0.1580 0.1600 0.1620
505.761305 0.1690 0.1760 0.1810 0.1940 0.2000
512.408290 0.2040 0.2090 0.2130 0.2170 0.2170
519.055275 0.2200 0.2200 0.2210 0.2210 0.2220
525.702260 0.2240 0.2290 0.2370 0.2420 0.2529
532.349244 0.2770 0.3000 0.3270 0.3529 0.3839
538.996229 0.4009 0.4169 0.4429 0.4867 0.5148
545.643214 0.5400 0.5640 0.5870 0.5980 0.6080
552.290199 0.6279 0.6469 0.6659 0.6829 0.6979
558.937184 0.7140 0.7230 0.7320 0.7420 0.7530
565.584169 0.7630 0.7700 0.7770 0.7860 0.7930
572.231154 0.7980 0.7990 0.8010 0.8090 0.8130
578.878139 0.8190 0.8260 0.8310 0.8410 0.8460
585.525124 0.8510 0.8570 0.8580 0.8610 0.8650
592.172108 0.8660 0.8690 0.8710 0.8770 0.8770
598.819093 0.8790 0.8820 0.8850 0.8870 0.8890
605.466078 0.8900 0.8910 0.8910 0.8930 0.8940
612.113063 0.8950 0.8970 0.8970 0.8980 0.8990
618.760048 0.8990 0.8990 0.9010 0.9010 0.9030
625.407033 0.9050 0.9100 0.9100 0.9110 0.9130
632.054018 0.9130 0.9150 0.9170 0.9170 0.9180
638.701003 0.9180 0.9180 0.9190 0.9210 0.9210
645.347988 0.9220 0.9220 0.9220 0.9220 0.9230
651.994972 0.9230 0.9230 0.9220 0.9220 0.9220
658.641957 0.9220 0.9230 0.9230 0.9230 0.9230
665.288942 0.9250 0.9250 0.9260 0.9260 0.9290
671.935927 0.9290 0.9290 0.9300 0.9300 0.9300
678.582912 0.9300 0.9300 0.9310 0.9330 0.9340
685.229897 0.9350 0.9370 0.9370 0.9390 0.9410
691.876882 0.9410 0.9420 0.9430 0.9430 0.9420
698.523867 0.9420 0.9420 0.9420 0.9430 0.9450
705.170852 0.9490 0.9500 0.9510 0.9510 0.9530
711.817836 0.9530 0.9540 0.9550 0.9570 0.9580
718.464821 0.9590 0.9610 0.9620 0.9630 0.9620
725.111806 0.9630 0.9630 0.9650 0.9670 0.9670
731.758791 0.9670 0.9690 0.9700 0.9710 0.9710
738.405776 0.9710 0.9730 0.9740 0.9740 0.9750
745.052761 0.9770 0.9770 0.9770 0.9770 0.9770
751.699746 0.9780 0.9780 0.9790 0.9810 0.9810
758.346731 0.9810 0.9810 0.9820 0.9830 0.9850
764.993716 0.9850 0.9850 0.9860 0.9860 0.9860
771.640700 0.9860 0.9860 0.9860 0.9860 0.9850
778.287685 0.9850 0.9850 0.9850 0.9850 0.9850
784.934670 0.9830 0.9830 0.9830 0.9830 0.9850
791.581655 0.9850 0.9850 0.9850 0.9860 0.9850
798.228640 0.9850 0.9850 0.9850 0.9850 0.9850
804.875625 0.9850 0.9830 0.9830 0.9830 0.9830
811.522610 0.9830 0.9850 0.9850 0.9860 0.9860
818.169595 0.9860 0.9860 0.9860 0.9860 0.9860
824.816580 0.9860 0.9860 0.9860 0.9850 0.9850
831.463564 0.9850 0.9860 0.9860 0.9860 0.9860
838.110549 0.9850 0.9830 0.9820 0.9830 0.9830
844.757534 0.9830 0.9830 0.9830 0.9820 0.9820
851.404519 0.9810 0.9810 0.9790 0.9780 0.9750
858.051504 0.9750 0.9740 0.9740 0.9740 0.9740
864.698489 0.9740 0.9730 0.9710 0.9710 0.9710
871.345474 0.9710 0.9710 0.9690 0.9690 0.9690
877.992459 0.9690 0.9690 0.9700 0.9700 0.9690
884.639443 0.9670 0.9670 0.9670 0.9670 0.9670
891.286428 0.9670 0.9670 0.9670 0.9670 0.9690
897.933413 0.9690 0.9690 0.9690 0.9690 0.9690
904.580398 0.9700 0.9710 0.9710 0.9710 0.9710
911.227383 0.9700 0.9710 0.9710 0.9710 0.9730
917.874368 0.9730 0.9730 0.9730 0.9730 0.9740
924.521353 0.9750 0.9750 0.9770 0.9780 0.9790
931.168338 0.9790 0.9790 0.9790 0.9810 0.9810
937.815323 0.9810 0.9810 0.9810 0.9810 0.9820
944.462307 0.9820 0.9830 0.9830 0.9830 0.9830
951.109292 0.9830 0.9830 0.9820 0.9820 0.9820
957.756277 0.9820 0.9830 0.9830 0.9850 0.9860
964.403262 0.9860 0.9860 0.9870 0.9870 0.9890
971.050247 0.9890 0.9870 0.9860 0.9850 0.9850
977.697232 0.9850 0.9850 0.9830 0.9830 0.9830
984.344217 0.9830 0.9820 0.9820 0.9820 0.9810
990.991202 0.9810 0.9810 0.9790 0.9790 0.9780
997.638187 0.9780 0.9780 0.9780 0.9780 0.9780
1004.285171 0.9770 0.9750 0.9730 0.9730 0.9730
1010.932156 0.9710 0.9710 0.9700 0.9690 0.9670
1017.579141 0.9650 0.9630 0.9630 0.9620 0.9610
1024.226126 0.9590 0.9590 0.9580 0.9570 0.9550
1030.873111 0.9550 0.9540 0.9530 0.9530 0.9510
1037.520096 0.9500 0.9470 0.9460 0.9460 0.9460
1044.167081 0.9470 0.9470 0.9460 0.9460 0.9450
1050.814066 0.9430 0.9430 0.9450 0.9450 0.9460
1057.461051 0.9460 0.9450 0.9450 0.9430 0.9430
1064.108035 0.9420 0.9420 0.9410 0.9390 0.9390
1070.755020 0.9380 0.9380 0.9370 0.9370 0.9370
1077.402005 0.9350 0.9350 0.9350 0.9350 0.9350
1084.048990 0.9370 0.9370 0.9370 0.9370 0.9370
1090.695975 0.9370 0.9370 0.9370 0.9380 0.9390
1097.342960 0.9390 0.9390 0.9410 0.9410 0.9410
1103.989945 0.9390 0.9390 0.9390 0.9380 0.9380
1110.636930 0.9380 0.9380 0.9380 0.9380 0.9380
1117.283915 0.9380 0.9380 0.9390 0.9390 0.9390
1123.930899 0.9390 0.9410 0.9390 0.9410 0.9410
1130.577884 0.9410 0.9420 0.9420 0.9420 0.9430
1137.224869 0.9450 0.9500 0.9500 0.9510 0.9530
1143.871854 0.9540 0.9550 0.9570 0.9580 0.9580
1150.518839 0.9590 0.9590 0.9610 0.9620 0.9630
1157.165824 0.9650 0.9650 0.9650 0.9660 0.9660
1163.812809 0.9670 0.9700 0.9710 0.9730 0.9730
1170.459794 0.9710 0.9710 0.9730 0.9740 0.9750
1177.106779 0.9770 0.9780 0.9780 0.9790 0.9790
1183.753763 0.9810 0.9820 0.9820 0.9820 0.9820
1190.400748 0.9830 0.9830 0.9850 0.9830 0.9850
1197.047733 0.9850 0.9850 0.9850 0.9850 0.9860
1203.694718 0.9860 0.9860 0.9850 0.9850 0.9850
1210.341703 0.9850 0.9850 0.9860 0.9870 0.9870
1216.988688 0.9870 0.9870 0.9870 0.9890 0.9890
1223.635673 0.9900 0.9900 0.9900 0.9890 0.9890
1230.282658 0.9890 0.9890 0.9890 0.9900 0.9900
1236.929643 0.9890 0.9890 0.9890 0.9870 0.9870
1243.576627 0.9860 0.9860 0.9860 0.9860 0.9860
1250.223612 0.9870 0.9890 0.9890 0.9890 0.9890
1256.870597 0.9890 0.9890 0.9890 0.9870 0.9870
1263.517582 0.9870 0.9870 0.9870 0.9870 0.9870
1270.164567 0.9870 0.9870 0.9890 0.9890 0.9870
1276.811552 0.9870 0.9870 0.9870 0.9870 0.9870
1283.458537 0.9890 0.9890 0.9900 0.9900 0.9900
1290.105522 0.9900 0.9890 0.9870 0.9870 0.9890
1296.752507 0.9890 0.9890 0.9890 0.9870 0.9870
1303.399491 0.9870 0.9860 0.9860 0.9860 0.9860
1310.046476 0.9860 0.9860 0.9860 0.9860 0.9860
1316.693461 0.9860 0.9850 0.9850 0.9830 0.9830
1323.340446 0.9830 0.9850 0.9850 0.9850 0.9850
1329.987431 0.9850 0.9850 0.9830 0.9830 0.9820
1336.634416 0.9820 0.9820 0.9820 0.9830 0.9830
1343.281401 0.9830 0.9830 0.9830 0.9830 0.9830
1349.928386 0.9830 0.9830 0.9830 0.9830 0.9830
1356.575371 0.9820 0.9820 0.9820 0.9820 0.9820
1363.222355 0.9810 0.9820 0.9820 0.9820 0.9820
1369.869340 0.9820 0.9820 0.9820 0.9820 0.9820
1376.516325 0.9810 0.9810 0.9810 0.9790 0.9790
1383.163310 0.9790 0.9790 0.9790 0.9790 0.9790
1389.810295 0.9790 0.9790 0.9790 0.9790 0.9810
1396.457280 0.9810 0.9820 0.9820 0.9820 0.9820
1403.104265 0.9810 0.9790 0.9780 0.9770 0.9770
1409.751250 0.9770 0.9780 0.9790 0.9810 0.9790
1416.398235 0.9810 0.9810 0.9810 0.9810 0.9810
1423.045219 0.9810 0.9810 0.9810 0.9810 0.9820
1429.692204 0.9820 0.9820 0.9820 0.9820 0.9820
1436.339189 0.9820 0.9820 0.9820 0.9830 0.9830
1442.986174 0.9820 0.9820 0.9820 0.9820 0.9820
1449.633159 0.9820 0.9820 0.9820 0.9810 0.9790
1456.280144 0.9790 0.9790 0.9790 0.9780 0.9780
1462.927129 0.9790 0.9790 0.9790 0.9790 0.9790
1469.574114 0.9790 0.9790 0.9790 0.9810 0.9820
1476.221099 0.9830 0.9830 0.9830 0.9830 0.9850
1482.868083 0.9850 0.9860 0.9860 0.9870 0.9870
1489.515068 0.9870 0.9890 0.9900 0.9900 0.9890
1496.162053 0.9890 0.9890 0.9890 0.9890 0.9870
1502.809038 0.9870 0.9870 0.9870 0.9860 0.9860
1509.456023 0.9850 0.9830 0.9820 0.9820 0.9830
1516.103008 0.9830 0.9830 0.9830 0.9830 0.9830
1522.749993 0.9830 0.9830 0.9820 0.9820 0.9820
1529.396978 0.9820 0.9820 0.9820 0.9820 0.9820
1536.043963 0.9820 0.9810 0.9810 0.9790 0.9780
1542.690947 0.9780 0.9780 0.9780 0.9780 0.9770
1549.337932 0.9770 0.9770 0.9770 0.9770 0.9780
1555.984917 0.9780 0.9770 0.9770 0.9770 0.9750
1562.631902 0.9740 0.9710 0.9690 0.9690 0.9690
1569.278887 0.9690 0.9690 0.9690 0.9670 0.9670
1575.925872 0.9650 0.9650 0.9650 0.9630 0.9630
1582.572857 0.9590 0.9580 0.9550 0.9530 0.9510
1589.219842 0.9500 0.9430 0.9390 0.9370 0.9330
1595.866827 0.9290 0.9260 0.9250 0.9230 0.9210
1602.513811 0.9170 0.9130 0.9070 0.9030 0.9020
1609.160796 0.9010 0.8990 0.8940 0.8930 0.8900
1615.807781 0.8890 0.8890 0.8870 0.8860 0.8860
1622.454766 0.8860 0.8870 0.8900 0.8910 0.8930
1629.101751 0.8940 0.8970 0.8980 0.9020 0.9070
1635.748736 0.9130 0.9140 0.9150 0.9170 0.9180
1642.395721 0.9210 0.9220 0.9270 0.9290 0.9300
1649.042706 0.9300 0.9330 0.9340 0.9340 0.9370
1655.689691 0.9380 0.9380 0.9380 0.9380 0.9380
1662.336675 0.9410 0.9430 0.9490 0.9500 0.9500
1668.983660 0.9510 0.9530 0.9530 0.9530 0.9530
1675.630645 0.9530 0.9550 0.9550 0.9580 0.9610
1682.277630 0.9620 0.9630 0.9650 0.9650 0.9650
1688.924615 0.9650 0.9650 0.9660 0.9670 0.9670
1695.571600 0.9690 0.9700 0.9710 0.9730 0.9730
1702.218585 0.9730 0.9710 0.9700 0.9700 0.9690
1708.865570 0.9690 0.9690 0.9700 0.9700 0.9710
1715.512555 0.9730 0.9730 0.9740 0.9740 0.9730
1722.159539 0.9710 0.9710 0.9730 0.9730 0.9740
1728.806524 0.9740 0.9750 0.9770 0.9780 0.9780
1735.453509 0.9790 0.9810 0.9810 0.9820 0.9820
1742.100494 0.9820 0.9820 0.9820 0.9820 0.9830
1748.747479 0.9830 0.9830 0.9830 0.9830 0.9830
1755.394464 0.9830 0.9830 0.9820 0.9820 0.9830
1762.041449 0.9830 0.9850 0.9860 0.9860 0.9860
1768.688434 0.9870 0.9870 0.9860 0.9850 0.9850
1775.335419 0.9830 0.9830 0.9860 0.9860 0.9860
1781.982403 0.9860 0.9860 0.9870 0.9870 0.9870
1788.629388 0.9860 0.9850 0.9830 0.9830 0.9850
1795.276373 0.9860 0.9860 0.9850 0.9850 0.9850
1801.923358 0.9850 0.9850 0.9850 0.9850 0.9850
1808.570343 0.9860 0.9860 0.9860 0.9860 0.9860
1815.217328 0.9860 0.9860 0.9870 0.9870 0.9860
1821.864313 0.9860 0.9860 0.9860 0.9860 0.9860
1828.511298 0.9850 0.9850 0.9850 0.9850 0.9860
1835.158283 0.9860 0.9860 0.9860 0.9870 0.9870
1841.805267 0.9870 0.9870 0.9870 0.9870 0.9870
1848.452252 0.9860 0.9860 0.9860 0.9860 0.9870
1855.099237 0.9870 0.9860 0.9860 0.9860 0.9860
1861.746222 0.9860 0.9860 0.9860 0.9860 0.9860
1868.393207 0.9850 0.9850 0.9830 0.9830 0.9830
1875.040192 0.9830 0.9830 0.9850 0.9860 0.9860
1881.687177 0.9850 0.9850 0.9850 0.9850 0.9850
1888.334162 0.9860 0.9860 0.9860 0.9870 0.9860
1894.981147 0.9860 0.9860 0.9860 0.9860 0.9860
1901.628131 0.9850 0.9850 0.9850 0.9850 0.9850
1908.275116 0.9850 0.9860 0.9860 0.9860 0.9860
1914.922101 0.9850 0.9850 0.9850 0.9830 0.9820
1921.569086 0.9820 0.9820 0.9830 0.9830 0.9850
1928.216071 0.9850 0.9850 0.9860 0.9860 0.9850
1934.863056 0.9850 0.9850 0.9830 0.9820 0.9820
1941.510041 0.9830 0.9830 0.9830 0.9830 0.9830
1948.157026 0.9830 0.9830 0.9820 0.9820 0.9820
1954.804011 0.9820 0.9820 0.9830 0.9830 0.9830
1961.450995 0.9850 0.9850 0.9850 0.9850 0.9830
1968.097980 0.9830 0.9830 0.9830 0.9850 0.9850
1974.744965 0.9830 0.9830 0.9830 0.9820 0.9820
1981.391950 0.9820 0.9820 0.9820 0.9830 0.9830
1988.038935 0.9830 0.9830 0.9830 0.9830 0.9830
1994.685920 0.9830 0.9830 0.9830 0.9830 0.9830
2001.332905 0.9830 0.9830 0.9825 0.9820 0.9820
2007.979890 0.9820 0.9820 0.9820 0.9820 0.9820
2014.626875 0.9820 0.9820 0.9815 0.9810 0.9810
2021.273859 0.9810 0.9810 0.9810 0.9815 0.9820
2027.920844 0.9820 0.9820 0.9820 0.9820 0.9815
2034.567829 0.9810 0.9800 0.9790 0.9790 0.9790
2041.214814 0.9785 0.9780 0.9775 0.9770 0.9770
2047.861799 0.9770 0.9770 0.9770 0.9770 0.9770
2054.508784 0.9770 0.9770 0.9770 0.9770 0.9770
2061.155769 0.9770 0.9770 0.9770 0.9770 0.9770
2067.802754 0.9770 0.9770 0.9760 0.9750 0.9750
2074.449739 0.9750 0.9745 0.9740 0.9735 0.9730
2081.096723 0.9730 0.9730 0.9730 0.9730 0.9720
2087.743708 0.9710 0.9710 0.9710 0.9720 0.9730
2094.390693 0.9730 0.9730 0.9740 0.9750 0.9750
2101.037678 0.9750 0.9750 0.9750 0.9745 0.9740
2107.684663 0.9735 0.9730 0.9730 0.9730 0.9720
2114.331648 0.9710 0.9710 0.9710 0.9705 0.9700
2120.978633 0.9700 0.9700 0.9700 0.9700 0.9705
2127.625618 0.9710 0.9720 0.9730 0.9730 0.9730
2134.272603 0.9730 0.9730 0.9730 0.9730 0.9730
2140.919587 0.9730 0.9735 0.9740 0.9740 0.9740
2147.566572 0.9740 0.9740 0.9735 0.9730 0.9730
2154.213557 0.9730 0.9721 0.9711 0.9710 0.9710
2160.860542 0.9710 0.9710 0.9710 0.9710 0.9710
2167.507527 0.9710 0.9710 0.9710 0.9710 0.9710
2174.154512 0.9710 0.9710 0.9710 0.9710 0.9719
2180.801497 0.9729 0.9730 0.9730 0.9730 0.9730
2187.448482 0.9720 0.9710 0.9705 0.9700 0.9695
2194.095466 0.9690 0.9690 0.9690 0.9690 0.9690
2200.742451 0.9690 0.9690 0.9690 0.9690 0.9690
2207.389436 0.9690 0.9695 0.9700 0.9700 0.9700
2214.036421 0.9700 0.9700 0.9700 0.9700 0.9700
2220.683406 0.9700 0.9700 0.9700 0.9700 0.9700
2227.330391 0.9700 0.9700 0.9695 0.9690 0.9690
2233.977376 0.9690 0.9681 0.9671 0.9670 0.9670
2240.624361 0.9670 0.9670 0.9670 0.9670 0.9679
2247.271346 0.9689 0.9690 0.9690 0.9690 0.9690
2253.918330 0.9690 0.9690 0.9690 0.9690 0.9681
2260.565315 0.9671 0.9670 0.9670 0.9665 0.9660
2267.212300 0.9655 0.9650 0.9655 0.9660 0.9660
2273.859285 0.9660 0.9665 0.9670 0.9679 0.9689
2280.506270 0.9690 0.9690 0.9695 0.9700 0.9700
2287.153255 0.9700 0.9700 0.9700 0.9695 0.9690
2293.800240 0.9690 0.9690 0.9681 0.9671 0.9670
2300.447225 0.9670 0.9670 0.9670 0.9670 0.9670
2307.094210 0.9670 0.9670 0.9670 0.9670 0.9665
2313.741194 0.9660 0.9660 0.9660 0.9660 0.9660
2320.388179 0.9660 0.9660 0.9655 0.9650 0.9641
2327.035164 0.9631 0.9621 0.9611 0.9601 0.9591
2333.682149 0.9585 0.9580 0.9580 0.9580 0.9580
2340.329134 0.9580 0.9575 0.9570 0.9556 0.9541
2346.976119 0.9540 0.9540 0.9535 0.9530 0.9530
2353.623104 0.9530 0.9521 0.9511 0.9510 0.9510
2360.270089 0.9505 0.9500 0.9495 0.9490 0.9476
2366.917074 0.9462 0.9456 0.9451 0.9441 0.9431
2373.564058 0.9425 0.9420 0.9415 0.9410 0.9410
2380.211043 0.9410 0.9410 0.9410 0.9415 0.9420
2386.858028 0.9438 0.9458 0.9482 0.9507 0.9519
2393.505013 0.9529 0.9548 0.9568 0.9575 0.9580
2400.151998 0.9580 0.9580 0.9585 0.9590 0.9590
2406.798983 0.9590 0.9599 0.9609 0.9610 0.9610
2413.445968 0.9610 0.9610 0.9610 0.9610 0.9610
2420.092953 0.9610 0.9610 0.9610 0.9610 0.9610
2426.739938 0.9601 0.9591 0.9590 0.9590 0.9590
2433.386922 0.9590 0.9590 0.9590 0.9599 0.9609
2440.033907 0.9610 0.9610 0.9610 0.9610 0.9610
2446.680892 0.9610 0.9610 0.9610 0.9610 0.9610
2453.327877 0.9610 0.9610 0.9610 0.9610 0.9610
2459.974862 0.9610 0.9610 0.9610 0.9610 0.9610
2466.621847 0.9610 0.9610 0.9610 0.9610 0.9610
2473.268832 0.9610 0.9610 0.9610 0.9610 0.9610
2479.915817 0.9610 0.9610 0.9610 0.9610 0.9610
2486.562802 0.9610 0.9610 0.9610 0.9610 0.9610
2493.209786 0.9610 0.9610 0.9610 0.9610 0.9610
2499.856771 0.9610 0.9610 0.9610 0.9610 0.9610
2506.503756 0.9610 0.9610 0.9610 0.9610 0.9610
2513.150741 0.9610 0.9610 0.9610 0.9610 0.9610
2519.797726 0.9601 0.9591 0.9590 0.9590 0.9590
2526.444711 0.9590 0.9590 0.9590 0.9590 0.9590
2533.091696 0.9590 0.9590 0.9590 0.9590 0.9590
2539.738681 0.9590 0.9590 0.9590 0.9590 0.9590
2546.385666 0.9586 0.9581 0.9580 0.9580 0.9580
2553.032650 0.9580 0.9576 0.9571 0.9570 0.9570
2559.679635 0.9570 0.9570 0.9570 0.9570 0.9570
2566.326620 0.9570 0.9561 0.9551 0.9550 0.9550
2572.973605 0.9550 0.9550 0.9550 0.9550 0.9550
2579.620590 0.9550 0.9546 0.9541 0.9540 0.9540
2586.267575 0.9540 0.9540 0.9536 0.9531 0.9530
2592.914560 0.9530 0.9530 0.9530 0.9530 0.9530
2599.561545 0.9521 0.9511 0.9506 0.9501 0.9500
2606.208530 0.9500 0.9500 0.9500 0.9500 0.9500
2612.855514 0.9496 0.9491 0.9490 0.9490 0.9490
2619.502499 0.9490 0.9490 0.9490 0.9494 0.9499
2626.149484 0.9500 0.9500 0.9500 0.9500 0.9504
2632.796469 0.9509 0.9510 0.9510 0.9506 0.9501
2639.443454 0.9500 0.9500 0.9500 0.9500 0.9496
2646.090439 0.9491 0.9490 0.9490 0.9490 0.9490
2652.737424 0.9490 0.9490 0.9490 0.9490 0.9490
2659.384409 0.9490 0.9494 0.9499 0.9500 0.9500
2666.031394 0.9504 0.9509 0.9510 0.9510 0.9506
2672.678378 0.9501 0.9500 0.9500 0.9496 0.9491
2679.325363 0.9490 0.9490 0.9482 0.9472 0.9466
2685.972348 0.9461 0.9460 0.9460 0.9456 0.9451
2692.619333 0.9450 0.9450 0.9450 0.9450 0.9442
2699.266318 0.9432 0.9430 0.9430 0.9438 0.9448
2705.913303 0.9450 0.9450 0.9450 0.9450 0.9450
2712.560288 0.9450 0.9450 0.9450 0.9450 0.9450
2719.207273 0.9450 0.9450 0.9450 0.9450 0.9450
2725.854258 0.9450 0.9450 0.9450 0.9442 0.9432
2732.501242 0.9426 0.9421 0.9420 0.9420 0.9420
2739.148227 0.9420 0.9416 0.9411 0.9410 0.9410
2745.795212 0.9410 0.9410 0.9410 0.9410 0.9410
2752.442197 0.9410 0.9414 0.9419 0.9420 0.9420
2759.089182 0.9420 0.9420 0.9424 0.9429 0.9430
2765.736167 0.9430 0.9430 0.9430 0.9426 0.9421
2772.383152 0.9420 0.9420 0.9420 0.9420 0.9416
2779.030137 0.9411 0.9410 0.9410 0.9410 0.9410
2785.677122 0.9410 0.9410 0.9410 0.9410 0.9410
2792.324106 0.9410 0.9402 0.9392 0.9390 0.9390
2798.971091 0.9386 0.9381 0.9380 0.9380 0.9380
2805.618076 0.9380 0.9376 0.9371 0.9370 0.9370
2812.265061 0.9370 0.9370 0.9370 0.9370 0.9370
2818.912046 0.9370 0.9370 0.9370 0.9370 0.9370
2825.559031 0.9370 0.9370 0.9370 0.9370 0.9362
2832.206016 0.9352 0.9346 0.9341 0.9340 0.9340
2838.853001 0.9336 0.9331 0.9322 0.9312 0.9306
2845.499986 0.9301 0.9288 0.9273 0.9266 0.9261
2852.146970 0.9248 0.9233 0.9214 0.9194 0.9174
2858.793955 0.9154 0.9146 0.9141 0.9136 0.9131
2865.440940 0.9130 0.9130 0.9134 0.9139 0.9140
2872.087925 0.9140 0.9144 0.9149 0.9150 0.9150
2878.734910 0.9158 0.9168 0.9174 0.9179 0.9180
2885.381895 0.9180 0.9180 0.9180 0.9184 0.9189
2892.028880 0.9190 0.9190 0.9190 0.9190 0.9190
2898.675865 0.9190 0.9186 0.9181 0.9176 0.9171
2905.322850 0.9170 0.9170 0.9162 0.9152 0.9146
2911.969834 0.9141 0.9136 0.9131 0.9118 0.9103
2918.616819 0.9096 0.9091 0.9074 0.9054 0.9038
2925.263804 0.9023 0.9008 0.8993 0.8986 0.8981
2931.910789 0.8976 0.8971 0.8970 0.8970 0.8970
2938.557774 0.8970 0.8974 0.8979 0.8984 0.8989
2945.204759 0.8998 0.9008 0.9018 0.9028 0.9038
2951.851744 0.9048 0.9058 0.9068 0.9078 0.9088
2958.498729 0.9098 0.9108 0.9118 0.9128 0.9130
2965.145714 0.9130 0.9130 0.9130 0.9134 0.9139
2971.792698 0.9144 0.9149 0.9150 0.9150 0.9158
2978.439683 0.9168 0.9174 0.9179 0.9180 0.9180
2985.086668 0.9184 0.9189 0.9198 0.9208 0.9210
2991.733653 0.9210 0.9214 0.9219 0.9224 0.9229
2998.380638 0.9230 0.9230 0.9230 0.9230 0.9230
3005.027623 0.9230 0.9230 0.9230 0.9238 0.9248
3011.674608 0.9250 0.9250 0.9250 0.9250 0.9250
3018.321593 0.9250 0.9250 0.9250 0.9250 0.9250
3024.968578 0.9250 0.9250 0.9242 0.9232 0.9230
3031.615562 0.9230 0.9230 0.9230 0.9230 0.9230
3038.262547 0.9230 0.9230 0.9230 0.9230 0.9230
3044.909532 0.9230 0.9230 0.9230 0.9230 0.9230
3051.556517 0.9230 0.9230 0.9230 0.9230 0.9226
3058.203502 0.9221 0.9220 0.9220 0.9220 0.9220
3064.850487 0.9216 0.9211 0.9210 0.9210 0.9210
3071.497472 0.9210 0.9210 0.9210 0.9210 0.9210
3078.144457 0.9210 0.9210 0.9210 0.9210 0.9214
3084.791442 0.9219 0.9231 0.9246 0.9250 0.9250
3091.438426 0.9250 0.9250 0.9250 0.9250 0.9242
3098.085411 0.9232 0.9226 0.9221 0.9216 0.9211
3104.732396 0.9203 0.9193 0.9186 0.9181 0.9180
3111.379381 0.9180 0.9180 0.9180 0.9180 0.9180
3118.026366 0.9180 0.9180 0.9180 0.9180 0.9180
3124.673351 0.9180 0.9176 0.9171 0.9170 0.9170
3131.320336 0.9163 0.9153 0.9150 0.9150 0.9150
3137.967321 0.9150 0.9150 0.9150 0.9150 0.9150
3144.614306 0.9150 0.9150 0.9146 0.9141 0.9140
3151.261290 0.9140 0.9140 0.9140 0.9136 0.9131
3157.908275 0.9130 0.9130 0.9123 0.9113 0.9106
3164.555260 0.9101 0.9100 0.9100 0.9096 0.9091
3171.202245 0.9083 0.9073 0.9070 0.9070 0.9070
3177.849230 0.9070 0.9066 0.9061 0.9060 0.9060
3184.496215 0.9056 0.9051 0.9043 0.9033 0.9026
3191.143200 0.9021 0.9020 0.9020 0.9016 0.9011
3197.790185 0.9010 0.9010 0.9003 0.8993 0.8986
3204.437170 0.8981 0.8980 0.8980 0.8976 0.8971
3211.084154 0.8963 0.8953 0.8943 0.8933 0.8919
3217.731139 0.8904 0.8900 0.8900 0.8900 0.8900
3224.378124 0.8904 0.8909 0.8910 0.8910 0.8910
3231.025109 0.8910 0.8906 0.8901 0.8900 0.8900
3237.672094 0.8900 0.8900 0.8900 0.8900 0.8900
3244.319079 0.8900 0.8896 0.8891 0.8890 0.8890
3250.966064 0.8883 0.8873 0.8870 0.8870 0.8866
3257.613049 0.8861 0.8856 0.8851 0.8839 0.8824
3264.260034 0.8816 0.8811 0.8803 0.8793 0.8783
3270.907018 0.8773 0.8763 0.8753 0.8746 0.8741
3277.554003 0.8736 0.8731 0.8723 0.8713 0.8710
3284.200988 0.8710 0.8706 0.8701 0.8696 0.8691
3290.847973 0.8683 0.8673 0.8670 0.8670 0.8663
3297.494958 0.8653 0.8643 0.8633 0.8627 0.8621
3304.141943 0.8616 0.8611 0.8599 0.8584 0.8566
3310.788928 0.8546 0.8536 0.8531 0.8523 0.8513
3317.435913 0.8493 0.8468 0.8457 0.8452 0.8440
3324.082898 0.8425 0.8417 0.8412 0.8403 0.8393
3330.729882 0.8383 0.8373 0.8363 0.8353 0.8343
3337.376867 0.8333 0.8320 0.8305 0.8290 0.8275
3344.023852 0.8253 0.8228 0.8206 0.8186 0.8166
3350.670837 0.8146 0.8130 0.8115 0.8096 0.8076
3357.317822 0.8063 0.8053 0.8029 0.7999 0.7969
3363.964807 0.7939 0.7923 0.7913 0.7903 0.7893
3370.611792 0.7866 0.7831 0.7810 0.7795 0.7773
3377.258777 0.7748 0.7737 0.7732 0.7723 0.7713
3383.905762 0.7703 0.7693 0.7676 0.7656 0.7636
3390.552746 0.7616 0.7589 0.7559 0.7543 0.7533
3397.199731 0.7520 0.7505 0.7486 0.7467 0.7440
3403.846716 0.7410 0.7387 0.7367 0.7353 0.7343
3410.493701 0.7333 0.7323 0.7313 0.7303 0.7293
3417.140686 0.7283 0.7277 0.7272 0.7246 0.7211
3423.787671 0.7187 0.7167 0.7153 0.7143 0.7133
3430.434656 0.7123 0.7117 0.7112 0.7100 0.7085
3437.081641 0.7080 0.7080 0.7073 0.7063 0.7053
3443.728626 0.7043 0.7040 0.7040 0.7037 0.7032
3450.375610 0.7027 0.7022 0.7020 0.7020 0.7013
3457.022595 0.7003 0.7000 0.7000 0.7000 0.7000
3463.669580 0.7000 0.7000 0.7007 0.7017 0.7020
3470.316565 0.7020 0.7023 0.7028 0.7030 0.7030
3476.963550 0.7033 0.7038 0.7047 0.7057 0.7063
3483.610535 0.7068 0.7073 0.7078 0.7093 0.7113
3490.257520 0.7127 0.7137 0.7143 0.7148 0.7150
3496.904505 0.7150 0.7153 0.7158 0.7167 0.7177
3503.551490 0.7183 0.7188 0.7190 0.7190 0.7193
3510.198474 0.7198 0.7210 0.7225 0.7233 0.7238
3516.845459 0.7253 0.7273 0.7287 0.7297 0.7307
3523.492444 0.7317 0.7330 0.7345 0.7353 0.7358
3530.139429 0.7370 0.7385 0.7393 0.7398 0.7406
3536.786414 0.7416 0.7439 0.7469 0.7486 0.7497
3543.433399 0.7510 0.7525 0.7530 0.7530 0.7543
3550.080384 0.7563 0.7583 0.7603 0.7616 0.7626
3556.727369 0.7640 0.7655 0.7673 0.7693 0.7713
3563.374353 0.7733 0.7753 0.7773 0.7793 0.7813
3570.021338 0.7836 0.7861 0.7880 0.7895 0.7913
3576.668323 0.7933 0.7943 0.7948 0.7956 0.7966
3583.315308 0.7983 0.8003 0.8016 0.8026 0.8036
3589.962293 0.8046 0.8063 0.8083 0.8103 0.8123
3596.609278 0.8143 0.8163 0.8183 0.8203 0.8216
3603.256263 0.8226 0.8249 0.8279 0.8309 0.8339
3609.903248 0.8350 0.8350 0.8369 0.8399 0.8423
3616.550233 0.8442 0.8466 0.8491 0.8500 0.8500
3623.197217 0.8513 0.8533 0.8556 0.8581 0.8596
3629.844202 0.8606 0.8613 0.8618 0.8623 0.8628
3636.491187 0.8639 0.8654 0.8682 0.8717 0.8742
3643.138172 0.8762 0.8776 0.8786 0.8790 0.8790
3649.785157 0.8796 0.8806 0.8810 0.8810 0.8813
3656.432142 0.8818 0.8829 0.8844 0.8856 0.8866
3663.079127 0.8882 0.8902 0.8916 0.8926 0.8930
3669.726112 0.8930 0.8930 0.8930 0.8924 0.8914
3676.373097 0.8910 0.8910 0.8910 0.8910 0.8910
3683.020081 0.8910 0.8916 0.8926 0.8930 0.8930
3689.667066 0.8933 0.8938 0.8940 0.8940 0.8940
3696.314051 0.8940 0.8940 0.8940 0.8943 0.8948
3702.961036 0.8950 0.8950 0.8947 0.8942 0.8940
3709.608021 0.8940 0.8940 0.8940 0.8937 0.8932
3716.255006 0.8930 0.8930 0.8933 0.8938 0.8943
3722.901991 0.8948 0.8950 0.8950 0.8956 0.8966
3729.548976 0.8970 0.8970 0.8970 0.8970 0.8964
3736.195961 0.8954 0.8947 0.8942 0.8940 0.8940
3742.842945 0.8940 0.8940 0.8943 0.8948 0.8950
3749.489930 0.8950 0.8956 0.8966 0.8970 0.8970
3756.136915 0.8970 0.8970 0.8970 0.8970 0.8970
3762.783900 0.8970 0.8970 0.8970 0.8964 0.8954
3769.430885 0.8950 0.8950 0.8950 0.8950 0.8947
3776.077870 0.8942 0.8940 0.8940 0.8940 0.8940
3782.724855 0.8943 0.8948 0.8950 0.8950 0.8950
3789.371840 0.8950 0.8956 0.8966 0.8970 0.8970
3796.018825 0.8970 0.8970 0.8970 0.8970 0.8964
3802.665809 0.8954 0.8947 0.8942 0.8940 0.8940
3809.312794 0.8940 0.8940 0.8937 0.8932 0.8930
3815.959779 0.8930 0.8930 0.8930 0.8930 0.8930
3822.606764 0.8930 0.8930 0.8930 0.8930 0.8930
3829.253749 0.8930 0.8930 0.8930 0.8930 0.8930
3835.900734 0.8930 0.8930 0.8930 0.8930 0.8930
3842.547719 0.8930 0.8930 0.8930 0.8930 0.8930
3849.194704 0.8930 0.8930 0.8930 0.8930 0.8930
3855.841689 0.8930 0.8930 0.8930 0.8930 0.8930
3862.488673 0.8924 0.8914 0.8910 0.8910 0.8907
3869.135658 0.8902 0.8900 0.8900 0.8900 0.8900
3875.782643 0.8900 0.8900 0.8900 0.8900 0.8900
3882.429628 0.8900 0.8900 0.8900 0.8900 0.8900
3889.076613 0.8900 0.8900 0.8900 0.8900 0.8900
3895.723598 0.8900 0.8900 0.8900 0.8900 0.8900
3902.370583 0.8897 0.8892 0.8890 0.8890 0.8890
3909.017568 0.8890 0.8890 0.8890 0.8890 0.8890
3915.664553 0.8890 0.8890 0.8890 0.8890 0.8890
3922.311537 0.8890 0.8890 0.8890 0.8890 0.8890
3928.958522 0.8890 0.8890 0.8890 0.8890 0.8884
3935.605507 0.8874 0.8870 0.8870 0.8870 0.8870
3942.252492 0.8870 0.8870 0.8870 0.8870 0.8870
3948.899477 0.8870 0.8870 0.8870 0.8870 0.8870
3955.546462 0.8870 0.8870 0.8870 0.8870 0.8867
3962.193447 0.8862 0.8860 0.8860 0.8860 0.8860
3968.840432 0.8860 0.8860 0.8860 0.8860 0.8860
3975.487417 0.8860 0.8857 0.8852 0.8850 0.8850
3982.134401 0.8850 0.8850
##END=
