##TITLE=15,16-DIHYDROXY TRIACONTANE
##JCAMP-DX=4.24
##DATA TYPE=INFRARED SPECTRUM
##CLASS=COBLENTZ
##ORIGIN=HORMEL INSTITUTE
##OWNER=COBLENTZ SOCIETY
Collection (C) 2018 copyright by the U.S. Secretary of Commerce
on behalf of the United States of America. All rights reserved.
##DATE=Not specified, most likely prior to 1970
##NAMES=14,16-triacontanediol
##MOLFORM=C30 H62 O2
##SOURCE REFERENCE=COBLENTZ NO. 2026
##$NIST ID=B6002026
##$NIST SOURCE=COBLENTZ
##$NIST IMAGE=cob2026
##SPECTROMETER/DATA SYSTEM=PERKIN-ELMER
##STATE=SOLID (SPLIT MULL, HEXACHLOROBUTADIENE FOR 2-6, 6.6-8, 13.2-14.4, AND MINERAL OIL FOR 6-6.6, 8-13.2, 14.4-15.6 MICRONS)
##PATH LENGTH=
$$THE SHARP SPECTRAL FEATURES AROUND 1665, 1508, 1249, 752, AND 694 CM^-^1 ARE ARTIFACTS CAUSED BY CHANGES
IN THE ABSORBANCE SCALE.
##SAMPLING PROCEDURE=TRANSMISSION
##RESOLUTION=4
##DATA PROCESSING=DIGITIZED BY NIST FROM HARD COPY
##XUNITS=MICROMETERS
##YUNITS=TRANSMITTANCE
##XFACTOR=1.000000
##YFACTOR=1
##DELTAX=000.006760
##FIRSTX=2.02
##LASTX=15.4798
##FIRSTY=0.716
##MAXX=15.4798
##MINX=2.02
##MAXY=0.95
##MINY=0.188
##NPOINTS=1992
##XYDATA=(X++(Y..Y))
2.020000 0.7160 0.7180 0.7180 0.7180 0.7180
2.053818 0.7180 0.7180 0.7180 0.7180 0.7180
2.088000 0.7180 0.7200 0.7180 0.7160 0.7160
2.121818 0.7160 0.7160 0.7160 0.7160 0.7160
2.155000 0.7160 0.7160 0.7180 0.7180 0.7180
2.188818 0.7200 0.7180 0.7180 0.7180 0.7200
2.223000 0.7200 0.7200 0.7180 0.7180 0.7180
2.256818 0.7180 0.7180 0.7180 0.7180 0.7160
2.291000 0.7160 0.7130 0.7110 0.7100 0.7100
2.324818 0.7080 0.7080 0.7080 0.7080 0.7060
2.358000 0.7060 0.7060 0.7060 0.7050 0.7050
2.391818 0.7050 0.7050 0.7050 0.7030 0.7030
2.426000 0.7030 0.7030 0.7030 0.7050 0.7050
2.459818 0.7060 0.7060 0.7060 0.7060 0.7080
2.493000 0.7080 0.7080 0.7080 0.7080 0.7080
2.526818 0.7100 0.7100 0.7110 0.7110 0.7110
2.561000 0.7110 0.7110 0.7110 0.7110 0.7110
2.594818 0.7130 0.7130 0.7130 0.7150 0.7150
2.629000 0.7150 0.7150 0.7150 0.7150 0.7160
2.662818 0.7160 0.7160 0.7160 0.7160 0.7160
2.696000 0.7160 0.7160 0.7160 0.7180 0.7180
2.729818 0.7180 0.7180 0.7180 0.7180 0.7180
2.764000 0.7180 0.7180 0.7180 0.7180 0.7180
2.797818 0.7160 0.7150 0.7150 0.7130 0.7110
2.832000 0.7110 0.7100 0.7100 0.7080 0.7080
2.865818 0.7060 0.7050 0.7030 0.7010 0.6980
2.899000 0.6980 0.6930 0.6930 0.6840 0.6790
2.932818 0.6740 0.6710 0.6690 0.6620 0.6540
2.967000 0.6470 0.6320 0.6200 0.6180 0.6080
3.000818 0.5960 0.5840 0.5690 0.5590 0.5540
3.034000 0.5320 0.5080 0.4880 0.4690 0.4590
3.067818 0.4470 0.4380 0.4370 0.4370 0.4370
3.102000 0.4370 0.4370 0.4380 0.4380 0.4380
3.135818 0.4370 0.4370 0.4370 0.4370 0.4370
3.170000 0.4370 0.4370 0.4380 0.4440 0.4590
3.203818 0.4690 0.4790 0.4890 0.5000 0.5050
3.237000 0.5110 0.5300 0.5400 0.5490 0.5520
3.270818 0.5610 0.5660 0.5710 0.5760 0.5790
3.305000 0.5790 0.5830 0.5860 0.5880 0.5890
3.338818 0.5890 0.5890 0.5860 0.5790 0.5540
3.372000 0.5100 0.4520 0.3810 0.3450 0.3150
3.405818 0.2810 0.2300 0.1890 0.1880 0.1880
3.440000 0.1890 0.2010 0.2130 0.2250 0.2370
3.473818 0.2450 0.2710 0.2880 0.3010 0.3010
3.508000 0.2330 0.2320 0.2350 0.3000 0.3540
3.541818 0.4100 0.4720 0.4930 0.5220 0.5520
3.575000 0.5890 0.5980 0.6080 0.6160 0.6220
3.608818 0.6350 0.6420 0.6470 0.6500 0.6520
3.643000 0.6540 0.6550 0.6570 0.6590 0.6610
3.676818 0.6620 0.6640 0.6660 0.6670 0.6670
3.710000 0.6690 0.6710 0.6710 0.6720 0.6720
3.743818 0.6720 0.6720 0.6760 0.6770 0.6770
3.778000 0.6770 0.6770 0.6790 0.6790 0.6810
3.811818 0.6810 0.6830 0.6830 0.6840 0.6860
3.846000 0.6880 0.6880 0.6890 0.6890 0.6890
3.879818 0.6910 0.6940 0.6980 0.7000 0.7000
3.913000 0.7010 0.7010 0.7030 0.7060 0.7060
3.946818 0.7060 0.7060 0.7080 0.7110 0.7150
3.981000 0.7180 0.7200 0.7200 0.7200 0.7200
4.014818 0.7200 0.7200 0.7200 0.7200 0.7200
4.048000 0.7200 0.7200 0.7220 0.7220 0.7220
4.081818 0.7220 0.7220 0.7220 0.7200 0.7200
4.116000 0.7200 0.7200 0.7200 0.7220 0.7220
4.149818 0.7220 0.7220 0.7220 0.7220 0.7220
4.184000 0.7200 0.7200 0.7200 0.7200 0.7180
4.217818 0.7160 0.7150 0.7150 0.7150 0.7150
4.251000 0.7150 0.7160 0.7180 0.7180 0.7180
4.284818 0.7180 0.7180 0.7180 0.7180 0.7180
4.319000 0.7180 0.7180 0.7200 0.7200 0.7220
4.352818 0.7220 0.7230 0.7230 0.7250 0.7250
4.386000 0.7250 0.7270 0.7270 0.7270 0.7270
4.419818 0.7270 0.7270 0.7270 0.7270 0.7270
4.454000 0.7270 0.7270 0.7270 0.7270 0.7250
4.487818 0.7230 0.7230 0.7250 0.7250 0.7250
4.522000 0.7250 0.7230 0.7220 0.7220 0.7220
4.555818 0.7200 0.7200 0.7200 0.7200 0.7200
4.589000 0.7200 0.7200 0.7200 0.7180 0.7180
4.622818 0.7180 0.7180 0.7200 0.7200 0.7180
4.657000 0.7160 0.7160 0.7130 0.7130 0.7130
4.690818 0.7130 0.7130 0.7130 0.7130 0.7130
4.724000 0.7130 0.7130 0.7130 0.7130 0.7130
4.757818 0.7130 0.7130 0.7130 0.7130 0.7130
4.792000 0.7130 0.7130 0.7130 0.7130 0.7130
4.825818 0.7130 0.7130 0.7130 0.7110 0.7110
4.860000 0.7110 0.7100 0.7080 0.7080 0.7080
4.893818 0.7080 0.7100 0.7100 0.7100 0.7100
4.927000 0.7100 0.7100 0.7100 0.7100 0.7080
4.960818 0.7080 0.7080 0.7080 0.7080 0.7080
4.995000 0.7080 0.7080 0.7080 0.7080 0.7080
5.028818 0.7080 0.7080 0.7080 0.7080 0.7080
5.062000 0.7080 0.7080 0.7060 0.7060 0.7060
5.095818 0.7080 0.7080 0.7080 0.7080 0.7080
5.130000 0.7080 0.7080 0.7080 0.7080 0.7080
5.163818 0.7060 0.7060 0.7060 0.7060 0.7060
5.198000 0.7080 0.7080 0.7080 0.7080 0.7050
5.231818 0.7050 0.7050 0.7050 0.7030 0.7030
5.265000 0.7030 0.7010 0.7010 0.7010 0.7010
5.298818 0.7010 0.7010 0.7010 0.7010 0.7000
5.333000 0.6980 0.6960 0.6960 0.6960 0.6960
5.366818 0.6960 0.6960 0.6960 0.6960 0.6960
5.400000 0.6930 0.6930 0.6930 0.6930 0.6930
5.433818 0.6930 0.6930 0.6930 0.6930 0.6930
5.468000 0.6910 0.6930 0.6930 0.6930 0.6930
5.501818 0.6930 0.6930 0.6930 0.6930 0.6930
5.536000 0.6930 0.6930 0.6930 0.6930 0.6930
5.569818 0.6930 0.6930 0.6930 0.6930 0.6930
5.603000 0.6930 0.6930 0.6930 0.6930 0.6930
5.636818 0.6930 0.6930 0.6940 0.6930 0.6940
5.671000 0.6930 0.6930 0.6930 0.6910 0.6910
5.704818 0.6890 0.6890 0.6890 0.6890 0.6890
5.738000 0.6890 0.6880 0.6880 0.6880 0.6880
5.771818 0.6880 0.6880 0.6880 0.6860 0.6840
5.806000 0.6830 0.6830 0.6830 0.6830 0.6830
5.839818 0.6830 0.6830 0.6830 0.6810 0.6830
5.874000 0.6830 0.6830 0.6830 0.6830 0.6830
5.907818 0.6830 0.6810 0.6810 0.6810 0.6830
5.941000 0.6830 0.6830 0.6830 0.6830 0.6830
5.974818 0.6830 0.6830 0.6830 0.6830 0.7200
6.009000 0.8400 0.8790 0.9500 0.9500 0.9500
6.042818 0.9500 0.9500 0.9500 0.9500 0.9500
6.076000 0.9500 0.9500 0.9500 0.9490 0.9490
6.109818 0.9470 0.9470 0.9470 0.9470 0.9470
6.144000 0.9470 0.9470 0.9450 0.9450 0.9450
6.177818 0.9450 0.9450 0.9440 0.9440 0.9440
6.212000 0.9440 0.9440 0.9440 0.9440 0.9380
6.245818 0.9370 0.9330 0.9330 0.9330 0.9330
6.279000 0.9330 0.9330 0.9330 0.9330 0.9330
6.312818 0.9330 0.9330 0.9330 0.9320 0.9320
6.347000 0.9320 0.9320 0.9320 0.9320 0.9320
6.380818 0.9320 0.9320 0.9320 0.9330 0.9330
6.414000 0.9320 0.9300 0.9280 0.9250 0.9180
6.447818 0.9110 0.9100 0.9100 0.9110 0.9110
6.482000 0.9110 0.9100 0.9100 0.9080 0.9010
6.515818 0.9000 0.9000 0.8980 0.8940 0.8910
6.550000 0.8910 0.8890 0.8880 0.8790 0.8710
6.583818 0.8710 0.8710 0.8610 0.8470 0.8320
6.617000 0.8320 0.8300 0.6280 0.6100 0.5930
6.650818 0.5830 0.5790 0.5790 0.5770 0.5770
6.685000 0.5760 0.5760 0.5760 0.5790 0.5830
6.718818 0.5890 0.5910 0.5910 0.5930 0.5940
6.752000 0.5940 0.5890 0.5770 0.5590 0.5220
6.785818 0.4690 0.4440 0.4180 0.4150 0.4150
6.820000 0.4150 0.4180 0.4540 0.4790 0.5060
6.853818 0.5320 0.5400 0.5540 0.5590 0.5640
6.888000 0.5720 0.5810 0.5910 0.5930 0.6000
6.921818 0.6000 0.6030 0.6060 0.6080 0.6110
6.955000 0.6150 0.6180 0.6180 0.6200 0.6220
6.988818 0.6220 0.6220 0.6220 0.6220 0.6220
7.023000 0.6230 0.6270 0.6300 0.6330 0.6350
7.056818 0.6350 0.6370 0.6380 0.6400 0.6420
7.090000 0.6420 0.6440 0.6450 0.6450 0.6450
7.123818 0.6450 0.6450 0.6450 0.6450 0.6450
7.158000 0.6450 0.6450 0.6440 0.6420 0.6400
7.191818 0.6400 0.6400 0.6380 0.6320 0.6280
7.226000 0.6270 0.6250 0.6200 0.6200 0.6200
7.259818 0.6220 0.6230 0.6280 0.6280 0.6300
7.293000 0.6320 0.6320 0.6320 0.6320 0.6320
7.326818 0.6330 0.6330 0.6380 0.6380 0.6350
7.361000 0.6350 0.6350 0.6350 0.6350 0.6350
7.394818 0.6330 0.6330 0.6320 0.6300 0.6270
7.428000 0.6230 0.6230 0.6230 0.6250 0.6270
7.461818 0.6270 0.6230 0.6220 0.6200 0.6180
7.496000 0.6180 0.6160 0.6160 0.6160 0.6160
7.529818 0.6180 0.6200 0.6220 0.6220 0.6200
7.564000 0.6180 0.6160 0.6130 0.6130 0.6130
7.597818 0.6130 0.6130 0.6130 0.6150 0.6150
7.631000 0.6130 0.6130 0.6130 0.6110 0.6110
7.664818 0.6100 0.6050 0.5980 0.5890 0.5880
7.699000 0.5880 0.5890 0.5910 0.5910 0.6010
7.732818 0.6030 0.6050 0.6060 0.6100 0.6100
7.767000 0.6110 0.6110 0.6100 0.6100 0.6100
7.800818 0.6110 0.6110 0.6130 0.6130 0.6150
7.834000 0.6150 0.6150 0.6150 0.6150 0.6150
7.867818 0.6160 0.6160 0.6160 0.6160 0.6160
7.902000 0.6130 0.6110 0.6100 0.6080 0.6080
7.935818 0.6080 0.6080 0.6080 0.6100 0.6100
7.969000 0.6100 0.6110 0.6130 0.6130 0.6220
8.002818 0.6810 0.7940 0.7940 0.7960 0.7960
8.037000 0.7980 0.8000 0.8000 0.8010 0.8030
8.070818 0.8030 0.8060 0.8080 0.8080 0.8060
8.105000 0.8060 0.8060 0.8060 0.8060 0.8060
8.138818 0.8080 0.8100 0.8100 0.8110 0.8160
8.172000 0.8200 0.8200 0.8230 0.8300 0.8320
8.205818 0.8320 0.8300 0.8280 0.8280 0.8220
8.240000 0.8150 0.8100 0.8010 0.8010 0.8010
8.273818 0.8010 0.8050 0.8060 0.8080 0.8110
8.307000 0.8130 0.8230 0.8280 0.8320 0.8330
8.340818 0.8370 0.8380 0.8380 0.8400 0.8400
8.375000 0.8380 0.8380 0.8370 0.8350 0.8300
8.408818 0.8300 0.8320 0.8320 0.8330 0.8330
8.443000 0.8350 0.8370 0.8400 0.8420 0.8420
8.476818 0.8420 0.8440 0.8440 0.8440 0.8440
8.510000 0.8440 0.8400 0.8350 0.8350 0.8320
8.543818 0.8320 0.8300 0.8270 0.8230 0.8230
8.578000 0.8230 0.8230 0.8280 0.8280 0.8300
8.611818 0.8300 0.8300 0.8300 0.8300 0.8300
8.645000 0.8280 0.8280 0.8280 0.8280 0.8280
8.678818 0.8280 0.8280 0.8280 0.8280 0.8300
8.713000 0.8300 0.8300 0.8320 0.8330 0.8330
8.746818 0.8370 0.8380 0.8400 0.8420 0.8420
8.781000 0.8420 0.8420 0.8420 0.8420 0.8440
8.814818 0.8440 0.8440 0.8420 0.8420 0.8220
8.848000 0.8150 0.8080 0.8080 0.8080 0.8100
8.881818 0.8110 0.8180 0.8220 0.8270 0.8380
8.916000 0.8420 0.8420 0.8400 0.8380 0.8350
8.949818 0.8320 0.8280 0.8230 0.8180 0.8000
8.983000 0.7910 0.7660 0.7420 0.7400 0.7230
9.016818 0.7220 0.7230 0.7300 0.7370 0.7440
9.051000 0.7570 0.7960 0.8000 0.8110 0.8150
9.084818 0.8220 0.8320 0.8350 0.8380 0.8380
9.119000 0.8380 0.8370 0.8330 0.8300 0.8300
9.152818 0.8280 0.8250 0.8230 0.8200 0.8130
9.186000 0.8010 0.7880 0.7760 0.7640 0.7590
9.219818 0.7500 0.7400 0.7250 0.7010 0.6860
9.254000 0.6620 0.6320 0.5910 0.5860 0.5320
9.287818 0.4910 0.4540 0.4320 0.4100 0.4080
9.321000 0.4100 0.4220 0.4400 0.4640 0.4960
9.354818 0.5450 0.5860 0.6270 0.6660 0.6840
9.389000 0.7110 0.7200 0.7300 0.7370 0.7440
9.422818 0.7500 0.7520 0.7550 0.7590 0.7610
9.457000 0.7620 0.7620 0.7620 0.7620 0.7620
9.490818 0.7620 0.7620 0.7660 0.7690 0.7720
9.524000 0.7790 0.7860 0.7910 0.7940 0.8010
9.557818 0.8080 0.8080 0.8030 0.7930 0.7890
9.592000 0.7740 0.7590 0.7420 0.7320 0.7230
9.625818 0.7230 0.7230 0.7230 0.7280 0.7380
9.659000 0.7500 0.7610 0.7710 0.7830 0.7940
9.692818 0.8030 0.8100 0.8110 0.8150 0.8200
9.727000 0.8200 0.8150 0.8100 0.7940 0.7860
9.760818 0.7760 0.7640 0.7540 0.7500 0.7490
9.795000 0.7490 0.7520 0.7610 0.7710 0.7790
9.828818 0.7830 0.7910 0.8000 0.8100 0.8180
9.862000 0.8200 0.8230 0.8300 0.8300 0.8350
9.895818 0.8380 0.8380 0.8400 0.8420 0.8450
9.930000 0.8470 0.8470 0.8490 0.8500 0.8500
9.963818 0.8500 0.8500 0.8500 0.8500 0.8490
9.997000 0.8470 0.8440 0.8320 0.8300 0.8270
10.030818 0.8230 0.8230 0.8230 0.8230 0.8230
10.065000 0.8230 0.8300 0.8330 0.8400 0.8420
10.098818 0.8440 0.8440 0.8450 0.8450 0.8470
10.133000 0.8470 0.8440 0.8400 0.8350 0.8330
10.166818 0.8200 0.8110 0.8100 0.8100 0.8080
10.200000 0.8080 0.8080 0.8100 0.8100 0.8110
10.233818 0.8130 0.8130 0.8130 0.8130 0.8130
10.268000 0.8130 0.8150 0.8150 0.8180 0.8200
10.301818 0.8200 0.8200 0.8250 0.8300 0.8320
10.335000 0.8330 0.8330 0.8330 0.8350 0.8370
10.368818 0.8370 0.8370 0.8370 0.8380 0.8400
10.403000 0.8400 0.8400 0.8400 0.8400 0.8400
10.436818 0.8400 0.8420 0.8420 0.8440 0.8440
10.471000 0.8440 0.8440 0.8450 0.8470 0.8470
10.504818 0.8470 0.8470 0.8470 0.8450 0.8440
10.538000 0.8440 0.8420 0.8400 0.8370 0.8330
10.571818 0.8320 0.8300 0.8220 0.8060 0.8050
10.606000 0.7860 0.7830 0.7790 0.7720 0.7720
10.639818 0.7710 0.7720 0.7760 0.7790 0.7880
10.673000 0.7910 0.8000 0.8060 0.8150 0.8200
10.706818 0.8220 0.8280 0.8300 0.8350 0.8380
10.741000 0.8420 0.8450 0.8490 0.8500 0.8500
10.774818 0.8520 0.8520 0.8520 0.8540 0.8540
10.809000 0.8550 0.8570 0.8570 0.8550 0.8550
10.842818 0.8520 0.8500 0.8500 0.8500 0.8500
10.876000 0.8500 0.8490 0.8420 0.8400 0.8330
10.909818 0.8280 0.8160 0.8030 0.8000 0.7910
10.944000 0.7790 0.7610 0.7540 0.7500 0.7490
10.977818 0.7490 0.7500 0.7520 0.7640 0.7830
11.011000 0.7940 0.8050 0.8110 0.8180 0.8280
11.044818 0.8500 0.8610 0.8660 0.8670 0.8690
11.079000 0.8690 0.8710 0.8740 0.8770 0.8790
11.112818 0.8790 0.8790 0.8810 0.8810 0.8810
11.147000 0.8810 0.8810 0.8810 0.8790 0.8790
11.180818 0.8770 0.8720 0.8720 0.8720 0.8720
11.214000 0.8710 0.8710 0.8690 0.8670 0.8640
11.247818 0.8640 0.8620 0.8620 0.8620 0.8620
11.282000 0.8620 0.8610 0.8590 0.8590 0.8550
11.315818 0.8450 0.8320 0.8300 0.8220 0.8220
11.349000 0.8220 0.8230 0.8280 0.8350 0.8400
11.382818 0.8440 0.8550 0.8590 0.8710 0.8760
11.417000 0.8770 0.8790 0.8810 0.8840 0.8890
11.450818 0.8910 0.8910 0.8940 0.8940 0.8960
11.485000 0.8960 0.8980 0.8980 0.9000 0.9000
11.518818 0.9030 0.9060 0.9060 0.9060 0.9060
11.552000 0.9060 0.9060 0.9080 0.9080 0.9080
11.585818 0.9060 0.9060 0.9060 0.9060 0.9060
11.620000 0.9060 0.9060 0.9080 0.9080 0.9080
11.653818 0.9080 0.9080 0.9080 0.9080 0.9080
11.687000 0.9080 0.9080 0.9100 0.9100 0.9100
11.720818 0.9080 0.9080 0.9060 0.9060 0.9060
11.755000 0.9060 0.9050 0.9030 0.9010 0.9010
11.788818 0.9000 0.8960 0.8930 0.8910 0.8890
11.823000 0.8890 0.8880 0.8880 0.8880 0.8880
11.856818 0.8880 0.8890 0.8890 0.8910 0.8910
11.890000 0.8930 0.8930 0.8940 0.8940 0.8960
11.923818 0.8960 0.8960 0.8980 0.8980 0.8980
11.958000 0.9000 0.9000 0.9010 0.9010 0.9010
11.991818 0.9010 0.9030 0.9030 0.9030 0.9030
12.025000 0.9050 0.9050 0.9060 0.9060 0.9080
12.058818 0.9080 0.9080 0.9080 0.9080 0.9080
12.093000 0.9080 0.9080 0.9080 0.9080 0.9100
12.126818 0.9100 0.9100 0.9100 0.9100 0.9110
12.161000 0.9110 0.9110 0.9110 0.9100 0.9100
12.194818 0.9100 0.9100 0.9100 0.9080 0.9080
12.228000 0.9060 0.9050 0.9030 0.9010 0.9010
12.261818 0.9010 0.9010 0.9010 0.9010 0.9010
12.296000 0.9010 0.9010 0.9010 0.8980 0.8960
12.329818 0.8960 0.8960 0.8960 0.8960 0.8960
12.363000 0.8960 0.8960 0.8960 0.8960 0.8960
12.396818 0.8980 0.8980 0.8980 0.8980 0.8980
12.431000 0.8980 0.8980 0.8980 0.8980 0.8980
12.464818 0.8980 0.8980 0.8980 0.8980 0.8960
12.499000 0.8960 0.8960 0.8940 0.8940 0.8940
12.532818 0.8940 0.8940 0.8930 0.8930 0.8930
12.566000 0.8930 0.8930 0.8910 0.8910 0.8910
12.599818 0.8910 0.8910 0.8910 0.8890 0.8880
12.634000 0.8880 0.8880 0.8840 0.8830 0.8830
12.667818 0.8810 0.8810 0.8790 0.8790 0.8790
12.702000 0.8770 0.8760 0.8740 0.8710 0.8660
12.735818 0.8640 0.8620 0.8620 0.8620 0.8610
12.769000 0.8550 0.8550 0.8540 0.8540 0.8520
12.802818 0.8500 0.8490 0.8490 0.8450 0.8420
12.837000 0.8400 0.8330 0.8320 0.8320 0.8320
12.870818 0.8320 0.8320 0.8320 0.8320 0.8320
12.904000 0.8300 0.8300 0.8280 0.8250 0.8230
12.937818 0.8220 0.8200 0.8200 0.8180 0.8150
12.972000 0.8130 0.8110 0.8100 0.8100 0.8100
13.005818 0.8080 0.8080 0.8060 0.8060 0.8050
13.040000 0.8030 0.8010 0.8010 0.8010 0.8000
13.073818 0.8000 0.7980 0.7940 0.7930 0.7930
13.107000 0.7910 0.7890 0.7860 0.7840 0.7810
13.140818 0.7810 0.7810 0.7790 0.7790 0.7790
13.175000 0.7790 0.7770 0.7760 0.7740 0.7720
13.208818 0.7720 0.7710 0.7690 0.7690 0.7660
13.242000 0.7640 0.7640 0.7640 0.7620 0.4910
13.275818 0.4840 0.4790 0.4770 0.4740 0.4740
13.310000 0.4740 0.4720 0.4720 0.4720 0.4710
13.343818 0.4710 0.4690 0.4690 0.4670 0.4640
13.378000 0.4640 0.4640 0.4620 0.4610 0.4590
13.411818 0.4590 0.4590 0.4570 0.4540 0.4540
13.445000 0.4520 0.4520 0.4500 0.4500 0.4500
13.478818 0.4500 0.4500 0.4500 0.4500 0.4500
13.513000 0.4490 0.4490 0.4470 0.4450 0.4440
13.546818 0.4420 0.4420 0.4400 0.4400 0.4380
13.580000 0.4380 0.4380 0.4380 0.4380 0.4380
13.613818 0.4370 0.4370 0.4370 0.4370 0.4330
13.648000 0.4330 0.4320 0.4320 0.4320 0.4320
13.681818 0.4320 0.4320 0.4300 0.4300 0.4250
13.716000 0.4220 0.4200 0.4180 0.4130 0.4100
13.749818 0.4010 0.3930 0.3890 0.3830 0.3810
13.783000 0.3790 0.3790 0.3770 0.3740 0.3720
13.816818 0.3710 0.3690 0.3670 0.3660 0.3640
13.851000 0.3610 0.3610 0.3590 0.3550 0.3500
13.884818 0.3470 0.3450 0.3420 0.3420 0.3400
13.918000 0.3400 0.3400 0.3400 0.3420 0.3420
13.951818 0.3490 0.3520 0.3610 0.3670 0.3720
13.986000 0.3770 0.3830 0.3890 0.3930 0.3980
14.019818 0.4010 0.4050 0.4060 0.4060 0.4100
14.054000 0.4130 0.4160 0.4180 0.4180 0.4200
14.087818 0.4220 0.4220 0.4220 0.4220 0.4230
14.121000 0.4230 0.4270 0.4280 0.4300 0.4320
14.154818 0.4330 0.4330 0.4330 0.4370 0.4370
14.189000 0.4380 0.4380 0.4400 0.4420 0.4420
14.222818 0.4420 0.4420 0.4420 0.4420 0.4420
14.256000 0.4440 0.4440 0.4470 0.4470 0.4470
14.289818 0.4490 0.4490 0.4490 0.4500 0.4500
14.324000 0.4520 0.4520 0.4520 0.4540 0.4550
14.357818 0.4550 0.4570 0.4570 0.4590 0.4590
14.392000 0.4620 0.7420 0.7420 0.7450 0.7450
14.425818 0.7470 0.7470 0.7490 0.7490 0.7490
14.459000 0.7490 0.7490 0.7500 0.7500 0.7490
14.492818 0.7490 0.7490 0.7490 0.7490 0.7490
14.527000 0.7490 0.7490 0.7490 0.7490 0.7490
14.560818 0.7470 0.7470 0.7450 0.7440 0.7400
14.594000 0.7400 0.7400 0.7400 0.7400 0.7400
14.627818 0.7400 0.7400 0.7400 0.7400 0.7400
14.662000 0.7400 0.7400 0.7400 0.7400 0.7380
14.695818 0.7380 0.7380 0.7370 0.7370 0.7370
14.730000 0.7350 0.7330 0.7330 0.7330 0.7320
14.763818 0.7320 0.7300 0.7280 0.7280 0.7250
14.797000 0.7250 0.7250 0.7250 0.7230 0.7230
14.830818 0.7220 0.7220 0.7200 0.7200 0.7200
14.865000 0.7200 0.7200 0.7180 0.7180 0.7180
14.898818 0.7180 0.7180 0.7180 0.7180 0.7180
14.932000 0.7200 0.7200 0.7230 0.7230 0.7300
14.965818 0.7330 0.7370 0.7380 0.7380 0.7370
15.000000 0.7250 0.7180 0.7080 0.6910 0.6880
15.033818 0.6810 0.6770 0.6770 0.6770 0.6790
15.068000 0.6790 0.6810 0.6830 0.6840 0.6860
15.101818 0.6860 0.6860 0.6880 0.6880 0.6880
15.135000 0.6880 0.6880 0.6880 0.6880 0.6890
15.168818 0.6890 0.6910 0.6910 0.6890 0.6890
15.203000 0.6890 0.6890 0.6890 0.6890 0.6890
15.236818 0.6880 0.6840 0.6840 0.6810 0.6810
15.270000 0.6810 0.6810 0.6830 0.6830 0.6810
15.303818 0.6810 0.6810 0.6810 0.6810 0.6810
15.338000 0.6810 0.6810 0.6810 0.6810 0.6830
15.371818 0.6810 0.6810 0.6810 0.6810 0.6810
15.406000 0.6810 0.6810 0.6790 0.6790 0.6790
15.439818 0.6790 0.6770 0.6770 0.6770 0.6770
15.473000 0.6790 0.6790
##END=
