##TITLE=2,4,5-TRICHLOROPHENYL SALICYLATE
##JCAMP-DX=4.24
##DATA TYPE=INFRARED SPECTRUM
##CLASS=COBLENTZ
##ORIGIN=DOW CHEMICAL COMPANY
##OWNER=COBLENTZ SOCIETY
Collection (C) 2018 copyright by the U.S. Secretary of Commerce
on behalf of the United States of America. All rights reserved.
##DATE=Not specified, most likely prior to 1970
##MOLFORM=C13 H7 Cl3 O3
##SOURCE REFERENCE=COBLENTZ NO. 4192
##$NIST ID=B6004192
##$NIST SOURCE=COBLENTZ
##$NIST IMAGE=cob4192
##SPECTROMETER/DATA SYSTEM=Not specified, most likely a prism, grating, or hybrid spectrometer.
##STATE=SOLID (MINERAL OIL MULL)
##PATH LENGTH=
$$SPECTRAL CONTAMINATION DUE TO OIL AROUND 2940 CM^-^1
##SAMPLING PROCEDURE=TRANSMISSION
##RESOLUTION=4
##DATA PROCESSING=DIGITIZED BY NIST FROM HARD COPY
##XUNITS=MICROMETERS
##YUNITS=TRANSMITTANCE
##XFACTOR=1.000000
##YFACTOR=1
##DELTAX=000.006523
##FIRSTX=2.022
##LASTX=15.9476
##FIRSTY=0.524
##MAXX=15.9476
##MINX=2.022
##MAXY=0.826
##MINY=0.168
##NPOINTS=2136
##XYDATA=(X++(Y..Y))
2.022000 0.5240 0.5250 0.5270 0.5290 0.5290
2.054629 0.5300 0.5300 0.5300 0.5320 0.5340
2.087000 0.5340 0.5350 0.5380 0.5380 0.5400
2.119629 0.5400 0.5400 0.5420 0.5420 0.5430
2.152000 0.5450 0.5480 0.5480 0.5480 0.5500
2.184629 0.5500 0.5510 0.5510 0.5510 0.5510
2.217000 0.5510 0.5530 0.5530 0.5530 0.5530
2.249629 0.5530 0.5550 0.5550 0.5550 0.5560
2.282000 0.5560 0.5580 0.5580 0.5600 0.5600
2.314629 0.5610 0.5610 0.5630 0.5640 0.5660
2.348000 0.5680 0.5680 0.5690 0.5690 0.5710
2.380629 0.5710 0.5730 0.5740 0.5740 0.5770
2.413000 0.5790 0.5810 0.5810 0.5810 0.5820
2.445629 0.5840 0.5860 0.5890 0.5890 0.5900
2.478000 0.5900 0.5920 0.5940 0.5940 0.5940
2.510629 0.5940 0.5950 0.5950 0.5950 0.5950
2.543000 0.5970 0.5970 0.5990 0.5990 0.6000
2.575629 0.6000 0.6000 0.6020 0.6020 0.6020
2.609000 0.6030 0.6050 0.6050 0.6070 0.6070
2.641629 0.6080 0.6080 0.6100 0.6100 0.6120
2.674000 0.6120 0.6120 0.6130 0.6130 0.6130
2.706629 0.6150 0.6160 0.6160 0.6160 0.6160
2.739000 0.6180 0.6180 0.6180 0.6200 0.6200
2.771629 0.6200 0.6200 0.6210 0.6210 0.6210
2.804000 0.6210 0.6230 0.6230 0.6230 0.6230
2.836629 0.6230 0.6230 0.6230 0.6230 0.6210
2.870000 0.6210 0.6200 0.6200 0.6200 0.6150
2.902629 0.6130 0.6050 0.5970 0.5900 0.5820
2.935000 0.5730 0.5580 0.5480 0.5290 0.5120
2.967629 0.4960 0.4830 0.4820 0.4850 0.5040
3.000000 0.5210 0.5350 0.5560 0.5860 0.5950
3.032629 0.6020 0.6080 0.6120 0.6160 0.6200
3.065000 0.6210 0.6280 0.6290 0.6310 0.6330
3.097629 0.6360 0.6370 0.6390 0.6390 0.6390
3.130000 0.6390 0.6410 0.6410 0.6410 0.6410
3.162629 0.6410 0.6420 0.6420 0.6420 0.6420
3.196000 0.6370 0.6260 0.6180 0.6070 0.5970
3.228629 0.5940 0.5840 0.5790 0.5770 0.5810
3.261000 0.5890 0.5990 0.6050 0.6180 0.6210
3.293629 0.6210 0.6180 0.6100 0.6030 0.5950
3.326000 0.5840 0.5600 0.5420 0.5010 0.4510
3.358629 0.3990 0.3340 0.2800 0.2350 0.2270
3.391000 0.2170 0.1700 0.1680 0.1700 0.2040
3.423629 0.2200 0.2510 0.2840 0.3050 0.3190
3.457000 0.3290 0.3310 0.3320 0.3360 0.3390
3.489629 0.3600 0.3910 0.4460 0.5060 0.5550
3.522000 0.5950 0.6250 0.6460 0.6540 0.6620
3.554629 0.6680 0.6700 0.6750 0.6800 0.6860
3.587000 0.6890 0.6910 0.6930 0.6930 0.6940
3.619629 0.6940 0.6960 0.6960 0.6980 0.6980
3.652000 0.6990 0.6990 0.6990 0.6990 0.7010
3.684629 0.7020 0.7020 0.7020 0.7020 0.7020
3.718000 0.7040 0.7040 0.7060 0.7060 0.7070
3.750629 0.7090 0.7090 0.7110 0.7110 0.7120
3.783000 0.7120 0.7140 0.7140 0.7150 0.7170
3.815629 0.7170 0.7190 0.7200 0.7200 0.7220
3.848000 0.7220 0.7250 0.7250 0.7280 0.7300
3.880629 0.7300 0.7330 0.7330 0.7330 0.7350
3.913000 0.7350 0.7370 0.7370 0.7370 0.7380
3.945629 0.7380 0.7380 0.7410 0.7410 0.7410
3.978000 0.7430 0.7430 0.7450 0.7450 0.7460
4.010629 0.7480 0.7480 0.7480 0.7480 0.7500
4.044000 0.7500 0.7500 0.7500 0.7510 0.7510
4.076629 0.7510 0.7510 0.7530 0.7530 0.7530
4.109000 0.7540 0.7540 0.7540 0.7540 0.7560
4.141629 0.7560 0.7580 0.7580 0.7590 0.7590
4.174000 0.7580 0.7580 0.7580 0.7580 0.7560
4.206629 0.7560 0.7560 0.7560 0.7580 0.7580
4.239000 0.7580 0.7580 0.7590 0.7610 0.7620
4.271629 0.7640 0.7660 0.7660 0.7660 0.7660
4.305000 0.7670 0.7670 0.7670 0.7670 0.7670
4.337629 0.7670 0.7690 0.7690 0.7690 0.7710
4.370000 0.7710 0.7710 0.7720 0.7740 0.7750
4.402629 0.7770 0.7790 0.7790 0.7790 0.7790
4.435000 0.7790 0.7790 0.7800 0.7800 0.7800
4.467629 0.7800 0.7800 0.7800 0.7820 0.7820
4.500000 0.7820 0.7820 0.7820 0.7840 0.7840
4.532629 0.7840 0.7840 0.7840 0.7840 0.7850
4.565000 0.7850 0.7850 0.7850 0.7850 0.7850
4.597629 0.7850 0.7870 0.7870 0.7870 0.7870
4.631000 0.7870 0.7870 0.7870 0.7870 0.7870
4.663629 0.7880 0.7900 0.7900 0.7900 0.7920
4.696000 0.7920 0.7920 0.7920 0.7920 0.7920
4.728629 0.7920 0.7930 0.7930 0.7930 0.7930
4.761000 0.7930 0.7930 0.7950 0.7970 0.7970
4.793629 0.7970 0.7970 0.7980 0.7980 0.8000
4.826000 0.8000 0.8010 0.8010 0.8030 0.8030
4.858629 0.8050 0.8060 0.8080 0.8080 0.8080
4.892000 0.8080 0.8080 0.8100 0.8100 0.8100
4.924629 0.8100 0.8100 0.8100 0.8100 0.8110
4.957000 0.8110 0.8110 0.8110 0.8110 0.8110
4.989629 0.8110 0.8110 0.8110 0.8110 0.8110
5.022000 0.8100 0.8100 0.8100 0.8100 0.8100
5.054629 0.8100 0.8100 0.8100 0.8100 0.8100
5.087000 0.8100 0.8100 0.8100 0.8100 0.8100
5.119629 0.8100 0.8100 0.8100 0.8100 0.8100
5.153000 0.8100 0.8110 0.8110 0.8130 0.8130
5.185629 0.8140 0.8140 0.8160 0.8160 0.8160
5.218000 0.8160 0.8180 0.8180 0.8190 0.8190
5.250629 0.8190 0.8190 0.8190 0.8210 0.8210
5.283000 0.8210 0.8210 0.8210 0.8210 0.8210
5.315629 0.8190 0.8190 0.8190 0.8190 0.8190
5.348000 0.8210 0.8210 0.8210 0.8210 0.8210
5.380629 0.8210 0.8230 0.8230 0.8230 0.8230
5.413000 0.8230 0.8230 0.8230 0.8230 0.8230
5.445629 0.8230 0.8230 0.8230 0.8210 0.8210
5.479000 0.8210 0.8210 0.8190 0.8190 0.8190
5.511629 0.8190 0.8190 0.8180 0.8180 0.8180
5.544000 0.8180 0.8180 0.8180 0.8180 0.8180
5.576629 0.8180 0.8180 0.8160 0.8160 0.8160
5.609000 0.8140 0.8140 0.8140 0.8130 0.8130
5.641629 0.8130 0.8110 0.8110 0.8110 0.8060
5.674000 0.8050 0.8010 0.8000 0.7980 0.7970
5.706629 0.7880 0.7870 0.7800 0.7770 0.7690
5.740000 0.7590 0.7500 0.7350 0.7240 0.7120
5.772629 0.6930 0.6730 0.6600 0.6230 0.5810
5.805000 0.5340 0.4900 0.4360 0.4020 0.3600
5.837629 0.3060 0.2710 0.2580 0.2580 0.2770
5.870000 0.3260 0.3860 0.4650 0.5340 0.5840
5.902629 0.6340 0.6720 0.6990 0.7190 0.7320
5.935000 0.7400 0.7460 0.7500 0.7540 0.7580
5.967629 0.7610 0.7670 0.7710 0.7740 0.7770
6.001000 0.7800 0.7850 0.7900 0.7950 0.7970
6.033629 0.7980 0.8000 0.8030 0.8100 0.8140
6.066000 0.8140 0.8160 0.8130 0.8050 0.8010
6.098629 0.7950 0.7880 0.7750 0.7640 0.7500
6.131000 0.7240 0.7090 0.6850 0.6650 0.6490
6.163629 0.6460 0.6470 0.6700 0.6940 0.7220
6.196000 0.7610 0.7710 0.7710 0.7690 0.7640
6.228629 0.7540 0.7500 0.7330 0.7170 0.6960
6.261000 0.6700 0.6460 0.6250 0.5990 0.5900
6.293629 0.5900 0.5990 0.6290 0.6680 0.7090
6.327000 0.7450 0.7790 0.7950 0.8000 0.8030
6.359629 0.8030 0.8030 0.8030 0.8050 0.8050
6.392000 0.8060 0.8100 0.8130 0.8160 0.8190
6.424629 0.8190 0.8190 0.8190 0.8190 0.8190
6.457000 0.8190 0.8190 0.8210 0.8210 0.8240
6.489629 0.8260 0.8260 0.8240 0.8240 0.8210
6.522000 0.8180 0.8130 0.8100 0.8010 0.8000
6.554629 0.7950 0.7880 0.7820 0.7770 0.7720
6.588000 0.7690 0.7670 0.7660 0.7640 0.7620
6.620629 0.7590 0.7540 0.7480 0.7380 0.7240
6.653000 0.7040 0.6800 0.6370 0.5900 0.5450
6.685629 0.4960 0.4520 0.4220 0.4090 0.4090
6.718000 0.4180 0.4490 0.4770 0.5080 0.5120
6.750629 0.5120 0.5030 0.4700 0.4460 0.4100
6.783000 0.3660 0.3190 0.2790 0.2530 0.2330
6.815629 0.2350 0.2560 0.2900 0.3340 0.3940
6.848000 0.4540 0.4950 0.5250 0.5530 0.5740
6.880629 0.5950 0.6120 0.6310 0.6500 0.6670
6.914000 0.6860 0.7040 0.7190 0.7280 0.7380
6.946629 0.7480 0.7540 0.7590 0.7620 0.7660
6.979000 0.7670 0.7670 0.7670 0.7670 0.7670
7.011629 0.7670 0.7670 0.7690 0.7690 0.7720
7.044000 0.7720 0.7740 0.7740 0.7740 0.7720
7.076629 0.7720 0.7690 0.7670 0.7670 0.7640
7.109000 0.7620 0.7610 0.7590 0.7540 0.7510
7.141629 0.7480 0.7410 0.7380 0.7320 0.7250
7.175000 0.7110 0.6960 0.6810 0.6680 0.6540
7.207629 0.6420 0.6290 0.6180 0.6070 0.5970
7.240000 0.5860 0.5770 0.5680 0.5600 0.5510
7.272629 0.5450 0.5350 0.5250 0.5120 0.5010
7.305000 0.4930 0.4850 0.4780 0.4740 0.4690
7.337629 0.4670 0.4590 0.4490 0.4410 0.4390
7.370000 0.4380 0.4390 0.4520 0.4750 0.5120
7.402629 0.5370 0.5370 0.5370 0.5290 0.5120
7.436000 0.4910 0.4700 0.4690 0.4700 0.4950
7.468629 0.5290 0.5600 0.5920 0.6130 0.6280
7.501000 0.6370 0.6410 0.6370 0.6290 0.6230
7.533629 0.6050 0.5840 0.5660 0.5450 0.5160
7.566000 0.4800 0.4560 0.4360 0.4070 0.3550
7.598629 0.3030 0.2820 0.2640 0.2540 0.2510
7.631000 0.2540 0.2740 0.2920 0.3050 0.3190
7.663629 0.3360 0.3550 0.3750 0.3940 0.4150
7.696000 0.4350 0.4520 0.4640 0.4830 0.5040
7.728629 0.5250 0.5430 0.5610 0.5760 0.5890
7.762000 0.5990 0.6020 0.6130 0.6230 0.6250
7.794629 0.6370 0.6390 0.6390 0.6330 0.6280
7.827000 0.6180 0.6130 0.5950 0.5760 0.5530
7.859629 0.5320 0.5120 0.4960 0.4820 0.4670
7.892000 0.4520 0.4380 0.4220 0.4070 0.3940
7.924629 0.3840 0.3710 0.3600 0.3470 0.3390
7.957000 0.3290 0.3270 0.3270 0.3390 0.3490
7.989629 0.3700 0.3910 0.4090 0.4280 0.4390
8.023000 0.4520 0.4570 0.4610 0.4620 0.4670
8.055629 0.4700 0.4770 0.4800 0.4880 0.5000
8.088000 0.5110 0.5250 0.5420 0.5580 0.5840
8.120629 0.5950 0.6150 0.6290 0.6420 0.6490
8.153000 0.6540 0.6590 0.6600 0.6620 0.6630
8.185629 0.6620 0.6600 0.6590 0.6550 0.6520
8.218000 0.6440 0.6410 0.6340 0.6250 0.6160
8.250629 0.6050 0.5940 0.5840 0.5740 0.5640
8.283000 0.5550 0.5480 0.5370 0.5300 0.5270
8.315629 0.5220 0.5210 0.5210 0.5210 0.5210
8.349000 0.5210 0.5220 0.5220 0.5220 0.5220
8.381629 0.5210 0.5210 0.5170 0.5110 0.5040
8.414000 0.5010 0.4950 0.4870 0.4750 0.4640
8.446629 0.4510 0.4350 0.4230 0.4100 0.4040
8.479000 0.3970 0.3960 0.3970 0.4040 0.4150
8.511629 0.4300 0.4540 0.4740 0.4930 0.5140
8.544000 0.5250 0.5380 0.5420 0.5400 0.5250
8.576629 0.5090 0.5010 0.4960 0.4700 0.4690
8.610000 0.4490 0.4510 0.4850 0.5120 0.5580
8.642629 0.5950 0.6340 0.6590 0.6880 0.7040
8.675000 0.7170 0.7240 0.7270 0.7240 0.7170
8.707629 0.7110 0.7020 0.6960 0.6860 0.6750
8.740000 0.6670 0.6600 0.6540 0.6490 0.6410
8.772629 0.6340 0.6250 0.6180 0.5970 0.5730
8.805000 0.5450 0.5170 0.4880 0.4590 0.4330
8.837629 0.4070 0.3840 0.3650 0.3490 0.3470
8.871000 0.3490 0.3550 0.3600 0.3680 0.3730
8.903629 0.3780 0.3830 0.3910 0.4000 0.4150
8.936000 0.4380 0.4620 0.4900 0.5190 0.5480
8.968629 0.5740 0.5990 0.6160 0.6280 0.6340
9.001000 0.6490 0.6700 0.6930 0.7120 0.7250
9.033629 0.7250 0.7280 0.7300 0.7370 0.7380
9.066000 0.7410 0.7430 0.7430 0.7450 0.7450
9.098629 0.7430 0.7410 0.7370 0.7280 0.7150
9.131000 0.7020 0.6830 0.6590 0.6360 0.6080
9.163629 0.5760 0.5380 0.5040 0.4750 0.4640
9.197000 0.4330 0.3960 0.3840 0.3830 0.3840
9.229629 0.3860 0.4020 0.4180 0.4350 0.4540
9.262000 0.4720 0.4910 0.5090 0.5270 0.5450
9.294629 0.5640 0.5820 0.5950 0.6100 0.6200
9.327000 0.6340 0.6470 0.6490 0.6520 0.6500
9.359629 0.6440 0.6290 0.6130 0.5890 0.5740
9.392000 0.5240 0.4820 0.4230 0.3600 0.3400
9.424629 0.3050 0.2800 0.2720 0.2720 0.2800
9.458000 0.3180 0.3530 0.3910 0.4280 0.4640
9.490629 0.4950 0.5240 0.5480 0.5660 0.5900
9.523000 0.6030 0.6160 0.6280 0.6370 0.6440
9.555629 0.6490 0.6500 0.6520 0.6490 0.6460
9.588000 0.6330 0.6260 0.6200 0.6070 0.6000
9.620629 0.5990 0.6020 0.6150 0.6280 0.6460
9.653000 0.6650 0.6850 0.7040 0.7200 0.7320
9.685629 0.7400 0.7460 0.7480 0.7500 0.7510
9.719000 0.7560 0.7580 0.7580 0.7590 0.7610
9.751629 0.7620 0.7640 0.7660 0.7670 0.7690
9.784000 0.7720 0.7740 0.7750 0.7770 0.7790
9.816629 0.7800 0.7820 0.7840 0.7850 0.7850
9.849000 0.7870 0.7880 0.7900 0.7920 0.7920
9.881629 0.7930 0.7950 0.7970 0.7980 0.7980
9.914000 0.8000 0.8000 0.8000 0.8000 0.8000
9.946629 0.8010 0.8010 0.8010 0.8010 0.8010
9.979000 0.8030 0.8030 0.8030 0.8050 0.8050
10.011629 0.8060 0.8060 0.8080 0.8100 0.8100
10.045000 0.8100 0.8110 0.8110 0.8130 0.8130
10.077629 0.8130 0.8140 0.8140 0.8140 0.8140
10.110000 0.8140 0.8140 0.8130 0.8130 0.8130
10.142629 0.8110 0.8110 0.8110 0.8110 0.8130
10.175000 0.8130 0.8130 0.8140 0.8160 0.8160
10.207629 0.8180 0.8180 0.8180 0.8180 0.8180
10.240000 0.8180 0.8180 0.8180 0.8190 0.8190
10.272629 0.8190 0.8190 0.8190 0.8190 0.8190
10.306000 0.8190 0.8190 0.8190 0.8190 0.8190
10.338629 0.8180 0.8180 0.8180 0.8140 0.8130
10.371000 0.8100 0.8080 0.8060 0.8030 0.8010
10.403629 0.8000 0.8000 0.8010 0.8030 0.8060
10.436000 0.8110 0.8130 0.8140 0.8160 0.8190
10.468629 0.8190 0.8190 0.8210 0.8210 0.8210
10.501000 0.8210 0.8210 0.8210 0.8210 0.8210
10.533629 0.8210 0.8210 0.8210 0.8210 0.8230
10.566000 0.8230 0.8230 0.8230 0.8210 0.8210
10.598629 0.8210 0.8190 0.8190 0.8180 0.8180
10.632000 0.8180 0.8140 0.8140 0.8130 0.8130
10.664629 0.8110 0.8100 0.8100 0.8060 0.8010
10.697000 0.8000 0.7950 0.7880 0.7790 0.7710
10.729629 0.7620 0.7540 0.7500 0.7460 0.7410
10.762000 0.7400 0.7410 0.7480 0.7500 0.7540
10.794629 0.7620 0.7710 0.7790 0.7840 0.7850
10.827000 0.7880 0.7900 0.7950 0.7970 0.7980
10.859629 0.7980 0.8000 0.8000 0.8000 0.8000
10.893000 0.8010 0.8010 0.8010 0.8010 0.8010
10.925629 0.8010 0.8010 0.8010 0.8000 0.8000
10.958000 0.7980 0.7980 0.7970 0.7920 0.7920
10.990629 0.7900 0.7880 0.7840 0.7770 0.7690
11.023000 0.7620 0.7590 0.7510 0.7450 0.7270
11.055629 0.7110 0.6880 0.6600 0.6310 0.6020
11.088000 0.5710 0.5430 0.5190 0.5000 0.4850
11.120629 0.4690 0.4620 0.4620 0.4770 0.5010
11.154000 0.5270 0.5600 0.5920 0.6250 0.6520
11.186629 0.6760 0.6940 0.7120 0.7320 0.7480
11.219000 0.7620 0.7690 0.7720 0.7770 0.7790
11.251629 0.7840 0.7880 0.7900 0.7920 0.7950
11.284000 0.7980 0.8000 0.8000 0.8010 0.8030
11.316629 0.8050 0.8050 0.8050 0.8060 0.8080
11.349000 0.8080 0.8080 0.8080 0.8080 0.8080
11.381629 0.8080 0.8060 0.8050 0.8010 0.8000
11.414000 0.7980 0.7950 0.7930 0.7880 0.7820
11.446629 0.7790 0.7690 0.7590 0.7460 0.7370
11.480000 0.7300 0.7200 0.7110 0.7020 0.6960
11.512629 0.6930 0.6910 0.6930 0.6940 0.6980
11.545000 0.6990 0.7010 0.7010 0.6990 0.6850
11.577629 0.6750 0.6620 0.6550 0.6440 0.6310
11.610000 0.6260 0.6210 0.6230 0.6290 0.6410
11.642629 0.6540 0.6720 0.6890 0.7060 0.7240
11.675000 0.7410 0.7580 0.7690 0.7770 0.7820
11.707629 0.7870 0.7880 0.7900 0.7920 0.7970
11.741000 0.7980 0.8000 0.8000 0.8030 0.8060
11.773629 0.8080 0.8100 0.8100 0.8100 0.8100
11.806000 0.8100 0.8110 0.8110 0.8110 0.8110
11.838629 0.8110 0.8110 0.8110 0.8130 0.8130
11.871000 0.8140 0.8140 0.8160 0.8160 0.8160
11.903629 0.8160 0.8160 0.8160 0.8160 0.8160
11.936000 0.8160 0.8160 0.8160 0.8160 0.8160
11.968629 0.8160 0.8160 0.8160 0.8160 0.8140
12.002000 0.8140 0.8130 0.8110 0.8100 0.8080
12.034629 0.8060 0.8030 0.8000 0.7980 0.7970
12.067000 0.7970 0.7930 0.7900 0.7870 0.7870
12.099629 0.7870 0.7880 0.7900 0.7950 0.7970
12.132000 0.7980 0.8000 0.8030 0.8060 0.8080
12.164629 0.8100 0.8100 0.8110 0.8110 0.8130
12.197000 0.8130 0.8140 0.8140 0.8140 0.8140
12.229629 0.8140 0.8140 0.8140 0.8160 0.8160
12.262000 0.8140 0.8140 0.8160 0.8160 0.8160
12.294629 0.8160 0.8140 0.8140 0.8140 0.8130
12.328000 0.8110 0.8100 0.8100 0.8100 0.8100
12.360629 0.8100 0.8100 0.8100 0.8100 0.8100
12.393000 0.8080 0.8060 0.8060 0.8080 0.8080
12.425629 0.8100 0.8100 0.8100 0.8080 0.8080
12.458000 0.8080 0.8080 0.8080 0.8080 0.8080
12.490629 0.8080 0.8080 0.8060 0.8060 0.8050
12.523000 0.8030 0.8030 0.8030 0.8030 0.8030
12.555629 0.8010 0.8010 0.8010 0.8030 0.8030
12.589000 0.8050 0.8050 0.8050 0.8050 0.8050
12.621629 0.8050 0.8050 0.8050 0.8050 0.8030
12.654000 0.8030 0.8030 0.8000 0.8000 0.7970
12.686629 0.7970 0.7950 0.7930 0.7880 0.7870
12.719000 0.7870 0.7870 0.7850 0.7850 0.7850
12.751629 0.7850 0.7850 0.7870 0.7870 0.7880
12.784000 0.7880 0.7900 0.7920 0.7930 0.7950
12.816629 0.7970 0.7970 0.7970 0.7970 0.7980
12.849000 0.7980 0.7980 0.7980 0.7980 0.7980
12.881629 0.7980 0.7980 0.7980 0.7980 0.7970
12.915000 0.7970 0.7950 0.7950 0.7930 0.7930
12.947629 0.7920 0.7920 0.7900 0.7880 0.7880
12.980000 0.7870 0.7870 0.7840 0.7820 0.7800
13.012629 0.7770 0.7750 0.7740 0.7720 0.7710
13.045000 0.7690 0.7670 0.7660 0.7610 0.7580
13.077629 0.7530 0.7510 0.7500 0.7460 0.7400
13.110000 0.7370 0.7280 0.7200 0.7110 0.6990
13.142629 0.6880 0.6750 0.6600 0.6440 0.6260
13.176000 0.6070 0.5860 0.5600 0.5320 0.5000
13.208629 0.4670 0.4360 0.4120 0.3940 0.3630
13.241000 0.3440 0.3180 0.3050 0.2950 0.2880
13.273629 0.2870 0.2880 0.2920 0.3000 0.3110
13.306000 0.3240 0.3390 0.3530 0.3650 0.3830
13.338629 0.3990 0.4250 0.4460 0.4700 0.4910
13.371000 0.5090 0.5270 0.5430 0.5600 0.5790
13.403629 0.6000 0.6250 0.6340 0.6440 0.6500
13.437000 0.6590 0.6670 0.6750 0.6850 0.6910
13.469629 0.6980 0.7010 0.7010 0.7070 0.7090
13.502000 0.7110 0.7170 0.7190 0.7200 0.7220
13.534629 0.7220 0.7240 0.7240 0.7250 0.7270
13.567000 0.7270 0.7280 0.7300 0.7320 0.7330
13.599629 0.7370 0.7370 0.7370 0.7350 0.7330
13.632000 0.7320 0.7320 0.7300 0.7300 0.7300
13.664629 0.7300 0.7300 0.7300 0.7300 0.7280
13.697000 0.7280 0.7280 0.7270 0.7270 0.7270
13.729629 0.7250 0.7250 0.7240 0.7240 0.7240
13.763000 0.7220 0.7220 0.7220 0.7200 0.7200
13.795629 0.7190 0.7190 0.7190 0.7170 0.7170
13.828000 0.7170 0.7150 0.7150 0.7150 0.7140
13.860629 0.7140 0.7120 0.7120 0.7120 0.7120
13.893000 0.7120 0.7120 0.7120 0.7120 0.7120
13.925629 0.7110 0.7110 0.7110 0.7110 0.7110
13.958000 0.7090 0.7070 0.7070 0.7070 0.7060
13.990629 0.7060 0.7040 0.7040 0.7040 0.7020
14.024000 0.7020 0.7010 0.6990 0.6990 0.6980
14.056629 0.6960 0.6940 0.6930 0.6910 0.6890
14.089000 0.6880 0.6860 0.6850 0.6830 0.6800
14.121629 0.6780 0.6780 0.6760 0.6720 0.6700
14.154000 0.6680 0.6630 0.6620 0.6590 0.6550
14.186629 0.6500 0.6460 0.6390 0.6330 0.6250
14.219000 0.6200 0.6130 0.6050 0.5990 0.5900
14.251629 0.5810 0.5710 0.5610 0.5500 0.5400
14.284000 0.5270 0.5160 0.5010 0.4870 0.4700
14.316629 0.4560 0.4440 0.4350 0.4250 0.4150
14.350000 0.4090 0.4000 0.3990 0.3990 0.3990
14.382629 0.4000 0.4070 0.4130 0.4250 0.4360
14.415000 0.4460 0.4540 0.4640 0.4720 0.4820
14.447629 0.4900 0.4980 0.5060 0.5160 0.5220
14.480000 0.5290 0.5320 0.5380 0.5400 0.5420
14.512629 0.5420 0.5420 0.5420 0.5400 0.5400
14.545000 0.5380 0.5370 0.5320 0.5290 0.5220
14.577629 0.5210 0.5160 0.5140 0.5110 0.5040
14.611000 0.4980 0.4910 0.4870 0.4830 0.4780
14.643629 0.4750 0.4720 0.4700 0.4690 0.4670
14.676000 0.4650 0.4640 0.4620 0.4620 0.4620
14.708629 0.4640 0.4650 0.4690 0.4700 0.4740
14.741000 0.4770 0.4780 0.4820 0.4850 0.4880
14.773629 0.4880 0.4900 0.4900 0.4900 0.4900
14.806000 0.4900 0.4880 0.4870 0.4830 0.4820
14.838629 0.4800 0.4780 0.4740 0.4720 0.4700
14.872000 0.4690 0.4620 0.4610 0.4570 0.4520
14.904629 0.4510 0.4460 0.4410 0.4390 0.4330
14.937000 0.4300 0.4250 0.4220 0.4170 0.4100
14.969629 0.4050 0.4000 0.3940 0.3890 0.3860
15.002000 0.3810 0.3710 0.3630 0.3620 0.3550
15.034629 0.3520 0.3500 0.3470 0.3420 0.3400
15.067000 0.3370 0.3320 0.3310 0.3290 0.3270
15.099629 0.3230 0.3210 0.3190 0.3180 0.3160
15.132000 0.3160 0.3140 0.3130 0.3110 0.3110
15.164629 0.3100 0.3100 0.3100 0.3100 0.3100
15.198000 0.3100 0.3100 0.3100 0.3110 0.3110
15.230629 0.3110 0.3130 0.3140 0.3140 0.3160
15.263000 0.3160 0.3180 0.3190 0.3190 0.3210
15.295629 0.3230 0.3240 0.3260 0.3270 0.3270
15.328000 0.3290 0.3310 0.3320 0.3340 0.3360
15.360629 0.3360 0.3370 0.3370 0.3390 0.3400
15.393000 0.3420 0.3440 0.3440 0.3450 0.3470
15.425629 0.3470 0.3490 0.3500 0.3500 0.3520
15.459000 0.3520 0.3530 0.3550 0.3550 0.3550
15.491629 0.3570 0.3570 0.3570 0.3570 0.3580
15.524000 0.3580 0.3580 0.3600 0.3600 0.3600
15.556629 0.3600 0.3600 0.3600 0.3600 0.3600
15.589000 0.3600 0.3600 0.3600 0.3600 0.3620
15.621629 0.3620 0.3620 0.3620 0.3630 0.3630
15.654000 0.3630 0.3630 0.3630 0.3630 0.3630
15.686629 0.3620 0.3620 0.3600 0.3600 0.3600
15.720000 0.3580 0.3580 0.3570 0.3570 0.3570
15.752629 0.3550 0.3550 0.3530 0.3530 0.3530
15.785000 0.3530 0.3530 0.3530 0.3530 0.3520
15.817629 0.3520 0.3520 0.3500 0.3500 0.3500
15.850000 0.3500 0.3500 0.3500 0.3500 0.3500
15.882629 0.3500 0.3500 0.3500 0.3500 0.3500
15.915000 0.3520 0.3520 0.3520 0.3520 0.3520
15.947629 0.3520
##END=
