##TITLE=SODIUM METABISULFITE
##JCAMP-DX=4.24
##DATA TYPE=INFRARED SPECTRUM
##CLASS=COBLENTZ
##ORIGIN=MELLON INSTITUTE
##OWNER=COBLENTZ SOCIETY
Collection (C) 2018 copyright by the U.S. Secretary of Commerce
on behalf of the United States of America. All rights reserved.
##DATE=Not specified, most likely prior to 1970
##MOLFORM=Na2 S2 O5
##SOURCE REFERENCE=COBLENTZ NO. 561
##$NIST ID=B6000561
##$NIST SOURCE=COBLENTZ
##$NIST IMAGE=cob561
##SPECTROMETER/DATA SYSTEM=Not specified, most likely a prism, grating, or hybrid spectrometer.
##STATE=SOLID (NUJOL MULL)
$$ PURITY UNKNOWN
##PATH LENGTH=
$$SPECTRAL CONTAMINATION DUE TO OIL AROUND 2900, 1450, 1380 CM^-^1
##SAMPLING PROCEDURE=TRANSMISSION
##RESOLUTION=4
##DATA PROCESSING=DIGITIZED BY NIST FROM HARD COPY
##XUNITS=MICROMETERS
##YUNITS=TRANSMITTANCE
##XFACTOR=1.000000
##YFACTOR=1
##DELTAX=000.006647
##FIRSTX=2.03
##LASTX=16.0136
##FIRSTY=0.782
##MAXX=16.0136
##MINX=2.03
##MAXY=0.978
##MINY=0.043
##NPOINTS=2105
##XYDATA=(X++(Y..Y))
2.030000 0.7820 0.7820 0.7820 0.7820 0.7830
2.063248 0.7830 0.7830 0.7830 0.7830 0.7830
2.096000 0.7830 0.7830 0.7850 0.7850 0.7850
2.129248 0.7850 0.7850 0.7850 0.7850 0.7870
2.163000 0.7870 0.7870 0.7880 0.7880 0.7880
2.196248 0.7880 0.7900 0.7900 0.7900 0.7900
2.229000 0.7900 0.7900 0.7900 0.7900 0.7920
2.262248 0.7920 0.7920 0.7920 0.7920 0.7920
2.295000 0.7920 0.7920 0.7920 0.7930 0.7930
2.328248 0.7930 0.7930 0.7930 0.7930 0.7950
2.362000 0.7950 0.7950 0.7970 0.7970 0.7970
2.395248 0.7970 0.7970 0.7970 0.7980 0.7980
2.428000 0.7980 0.7980 0.8000 0.8000 0.8000
2.461248 0.8000 0.8020 0.8020 0.8020 0.8020
2.495000 0.8040 0.8040 0.8040 0.8040 0.8040
2.528248 0.8040 0.8070 0.8070 0.8090 0.8090
2.561000 0.8090 0.8100 0.8100 0.8100 0.8100
2.594248 0.8100 0.8100 0.8100 0.8100 0.8120
2.628000 0.8120 0.8120 0.8120 0.8120 0.8140
2.661248 0.8140 0.8150 0.8150 0.8150 0.8140
2.694000 0.8150 0.8150 0.8150 0.8150 0.8150
2.727248 0.8150 0.8150 0.8150 0.8150 0.8170
2.761000 0.8170 0.8170 0.8170 0.8170 0.8190
2.794248 0.8170 0.8170 0.8170 0.8170 0.8170
2.827000 0.8190 0.8190 0.8190 0.8190 0.8190
2.860248 0.8190 0.8190 0.8190 0.8190 0.8190
2.894000 0.8190 0.8190 0.8190 0.8170 0.8170
2.927248 0.8170 0.8170 0.8170 0.8170 0.8170
2.960000 0.8170 0.8170 0.8170 0.8170 0.8190
2.993248 0.8190 0.8190 0.8190 0.8190 0.8200
3.027000 0.8200 0.8200 0.8200 0.8200 0.8200
3.060248 0.8200 0.8200 0.8220 0.8220 0.8220
3.093000 0.8240 0.8240 0.8250 0.8250 0.8270
3.126248 0.8270 0.8290 0.8290 0.8290 0.8300
3.160000 0.8320 0.8320 0.8340 0.8350 0.8350
3.193248 0.8370 0.8390 0.8400 0.8400 0.8420
3.226000 0.8420 0.8420 0.8440 0.8440 0.8440
3.259248 0.8420 0.8420 0.8370 0.8340 0.8250
3.292000 0.8220 0.8050 0.7870 0.7670 0.7300
3.325248 0.6960 0.6610 0.5040 0.4900 0.4400
3.359000 0.3830 0.3600 0.3460 0.3310 0.3290
3.392248 0.3330 0.3930 0.4080 0.4220 0.4370
3.425000 0.4500 0.4670 0.4790 0.4790 0.4740
3.458248 0.4700 0.4670 0.4690 0.4820 0.5200
3.492000 0.5760 0.6210 0.7570 0.7820 0.8090
3.525248 0.8220 0.8340 0.8420 0.8450 0.8500
3.558000 0.8550 0.8600 0.8650 0.8690 0.8720
3.591248 0.8740 0.8770 0.8810 0.8840 0.8860
3.625000 0.8870 0.8870 0.8890 0.8890 0.8910
3.658248 0.8910 0.8910 0.8920 0.8940 0.8940
3.691000 0.8960 0.8960 0.8960 0.8970 0.8970
3.724248 0.8970 0.8970 0.8970 0.8990 0.8990
3.758000 0.8990 0.8990 0.8990 0.8990 0.8990
3.791248 0.9010 0.9010 0.9010 0.9010 0.9020
3.824000 0.9020 0.9020 0.9020 0.9020 0.9020
3.857248 0.9020 0.9040 0.9040 0.9040 0.9040
3.891000 0.9040 0.9040 0.9040 0.9040 0.9040
3.924248 0.9060 0.9060 0.9060 0.9060 0.9060
3.957000 0.9060 0.9060 0.9060 0.9060 0.9060
3.990248 0.9060 0.9060 0.9060 0.9060 0.9060
4.024000 0.9060 0.9060 0.9060 0.9060 0.9060
4.057248 0.9060 0.9060 0.9060 0.9060 0.9060
4.090000 0.9060 0.9060 0.9060 0.9060 0.9060
4.123248 0.9060 0.9060 0.9060 0.9060 0.9060
4.156000 0.9060 0.9060 0.9060 0.9060 0.9060
4.189248 0.9060 0.9060 0.9060 0.9060 0.9060
4.223000 0.9060 0.9060 0.9060 0.9060 0.9060
4.256248 0.9040 0.9060 0.9060 0.9060 0.9040
4.289000 0.9040 0.9040 0.9040 0.9040 0.9040
4.322248 0.9040 0.9040 0.9040 0.9040 0.9040
4.356000 0.9040 0.9040 0.9040 0.9040 0.9040
4.389248 0.9040 0.9040 0.9040 0.9040 0.9040
4.422000 0.9040 0.9040 0.9040 0.9020 0.9020
4.455248 0.9020 0.9040 0.9040 0.9040 0.9040
4.489000 0.9020 0.9020 0.9020 0.9020 0.9020
4.522248 0.9020 0.9020 0.9020 0.9020 0.9020
4.555000 0.9020 0.9020 0.9020 0.9020 0.9020
4.588248 0.9020 0.9020 0.9020 0.9020 0.9020
4.622000 0.9020 0.9020 0.9020 0.9020 0.9020
4.655248 0.9020 0.9020 0.9020 0.9020 0.9020
4.688000 0.9020 0.9020 0.9020 0.9020 0.9020
4.721248 0.9020 0.9020 0.9020 0.9020 0.9020
4.755000 0.9020 0.9020 0.9020 0.9020 0.9020
4.788248 0.9020 0.9020 0.9020 0.9020 0.9040
4.821000 0.9040 0.9040 0.9040 0.9040 0.9060
4.854248 0.9060 0.9060 0.9060 0.9060 0.9060
4.888000 0.9060 0.9060 0.9060 0.9060 0.9060
4.921248 0.9060 0.9060 0.9060 0.9060 0.9040
4.954000 0.9040 0.9040 0.9040 0.9040 0.9040
4.987248 0.9040 0.9040 0.9040 0.9040 0.9060
5.021000 0.9060 0.9060 0.9060 0.9060 0.9060
5.054248 0.9070 0.9070 0.9070 0.9070 0.9070
5.087000 0.9110 0.9110 0.9110 0.9120 0.9120
5.120248 0.9120 0.9120 0.9120 0.9120 0.9140
5.153000 0.9120 0.9120 0.9140 0.9140 0.9140
5.186248 0.9140 0.9160 0.9160 0.9160 0.9160
5.220000 0.9160 0.9170 0.9170 0.9170 0.9170
5.253248 0.9170 0.9170 0.9170 0.9190 0.9190
5.286000 0.9190 0.9190 0.9210 0.9210 0.9210
5.319248 0.9210 0.9210 0.9210 0.9210 0.9210
5.353000 0.9210 0.9210 0.9210 0.9210 0.9220
5.386248 0.9220 0.9220 0.9210 0.9220 0.9220
5.419000 0.9220 0.9220 0.9220 0.9220 0.9220
5.452248 0.9220 0.9220 0.9220 0.9220 0.9240
5.486000 0.9240 0.9240 0.9240 0.9260 0.9260
5.519248 0.9260 0.9260 0.9270 0.9270 0.9290
5.552000 0.9290 0.9290 0.9290 0.9290 0.9310
5.585248 0.9310 0.9320 0.9320 0.9320 0.9340
5.619000 0.9340 0.9340 0.9360 0.9360 0.9380
5.652248 0.9380 0.9380 0.9380 0.9390 0.9410
5.685000 0.9430 0.9430 0.9430 0.9440 0.9440
5.718248 0.9440 0.9440 0.9440 0.9460 0.9460
5.752000 0.9460 0.9460 0.9480 0.9480 0.9480
5.785248 0.9490 0.9490 0.9490 0.9510 0.9510
5.818000 0.9510 0.9510 0.9510 0.9510 0.9530
5.851248 0.9530 0.9530 0.9530 0.9530 0.9530
5.885000 0.9530 0.9540 0.9540 0.9540 0.9540
5.918248 0.9540 0.9540 0.9540 0.9540 0.9540
5.951000 0.9540 0.9540 0.9560 0.9560 0.9560
5.984248 0.9560 0.9560 0.9540 0.9540 0.9540
6.018000 0.9540 0.9540 0.9540 0.9540 0.9540
6.051248 0.9540 0.9540 0.9540 0.9540 0.9540
6.084000 0.9540 0.9540 0.9540 0.9560 0.9560
6.117248 0.9560 0.9560 0.9560 0.9560 0.9560
6.150000 0.9560 0.9580 0.9580 0.9590 0.9590
6.183248 0.9610 0.9610 0.9610 0.9610 0.9630
6.217000 0.9630 0.9630 0.9630 0.9630 0.9630
6.250248 0.9630 0.9630 0.9630 0.9630 0.9610
6.283000 0.9610 0.9610 0.9610 0.9590 0.9590
6.316248 0.9560 0.9560 0.9560 0.9560 0.9560
6.350000 0.9540 0.9540 0.9530 0.9530 0.9530
6.383248 0.9530 0.9510 0.9510 0.9510 0.9510
6.416000 0.9510 0.9510 0.9510 0.9510 0.9510
6.449248 0.9510 0.9510 0.9510 0.9530 0.9530
6.483000 0.9530 0.9530 0.9530 0.9530 0.9530
6.516248 0.9530 0.9530 0.9530 0.9530 0.9530
6.549000 0.9530 0.9530 0.9510 0.9510 0.9510
6.582248 0.9490 0.9490 0.9480 0.9480 0.9480
6.616000 0.9480 0.9480 0.9480 0.9460 0.9480
6.649248 0.9490 0.9490 0.9480 0.9480 0.9480
6.682000 0.9480 0.9460 0.9460 0.9440 0.9440
6.715248 0.9430 0.9390 0.9360 0.9290 0.9240
6.749000 0.9110 0.9020 0.8860 0.8640 0.8420
6.782248 0.8170 0.7850 0.7720 0.7630 0.7580
6.815000 0.7550 0.7550 0.7550 0.7570 0.7580
6.848248 0.7630 0.7670 0.7680 0.7750 0.7820
6.882000 0.7920 0.8040 0.8140 0.8200 0.8250
6.915248 0.8390 0.8450 0.8520 0.8600 0.8710
6.948000 0.8740 0.8820 0.8920 0.8960 0.9020
6.981248 0.9090 0.9120 0.9160 0.9170 0.9190
7.015000 0.9220 0.9240 0.9260 0.9270 0.9270
7.048248 0.9290 0.9290 0.9310 0.9320 0.9340
7.081000 0.9360 0.9360 0.9360 0.9380 0.9380
7.114248 0.9380 0.9360 0.9340 0.9340 0.9270
7.147000 0.9260 0.9220 0.9160 0.9070 0.8960
7.180248 0.8870 0.8720 0.8590 0.8470 0.8450
7.214000 0.8420 0.8390 0.8370 0.8370 0.8390
7.247248 0.8400 0.8450 0.8520 0.8570 0.8620
7.280000 0.8650 0.8710 0.8770 0.8820 0.8870
7.313248 0.8910 0.8920 0.8960 0.8990 0.9020
7.347000 0.9040 0.9070 0.9110 0.9110 0.9120
7.380248 0.9120 0.9140 0.9140 0.9160 0.9160
7.413000 0.9160 0.9160 0.9160 0.9170 0.9170
7.446248 0.9170 0.9170 0.9170 0.9170 0.9170
7.480000 0.9160 0.9160 0.9160 0.9160 0.9160
7.513248 0.9160 0.9160 0.9160 0.9160 0.9160
7.546000 0.9160 0.9160 0.9140 0.9140 0.9140
7.579248 0.9140 0.9140 0.9120 0.9120 0.9120
7.613000 0.9090 0.9070 0.9070 0.9060 0.9060
7.646248 0.9040 0.9040 0.9020 0.9010 0.8990
7.679000 0.8970 0.8970 0.8960 0.8960 0.8940
7.712248 0.8920 0.8910 0.8890 0.8870 0.8870
7.746000 0.8860 0.8840 0.8820 0.8810 0.8790
7.779248 0.8770 0.8760 0.8740 0.8720 0.8690
7.812000 0.8640 0.8590 0.8540 0.8520 0.8470
7.845248 0.8400 0.8370 0.8320 0.8270 0.8220
7.879000 0.8120 0.8090 0.8050 0.8040 0.8040
7.912248 0.8020 0.8000 0.7970 0.7950 0.7930
7.945000 0.7920 0.7880 0.7850 0.7830 0.7800
7.978248 0.7780 0.7770 0.7720 0.7670 0.7620
8.011000 0.7570 0.7520 0.7430 0.7350 0.7280
8.044248 0.7160 0.7100 0.7000 0.6880 0.6800
8.078000 0.6730 0.6660 0.6510 0.6310 0.6190
8.111248 0.6060 0.5940 0.5770 0.5660 0.5440
8.144000 0.5240 0.5040 0.4890 0.4700 0.4500
8.177248 0.4230 0.3900 0.3450 0.3260 0.3060
8.211000 0.2910 0.2730 0.2510 0.2370 0.2120
8.244248 0.1990 0.1700 0.1350 0.1230 0.1170
8.277000 0.1120 0.1030 0.0980 0.0900 0.0870
8.310248 0.0800 0.0750 0.0730 0.0700 0.0680
8.344000 0.0650 0.0650 0.0630 0.0610 0.0600
8.377248 0.0580 0.0560 0.0550 0.0550 0.0530
8.410000 0.0510 0.0510 0.0500 0.0500 0.0480
8.443248 0.0480 0.0460 0.0460 0.0450 0.0450
8.477000 0.0450 0.0430 0.0430 0.0450 0.0450
8.510248 0.0450 0.0460 0.0460 0.0500 0.0500
8.543000 0.0510 0.0550 0.0560 0.0700 0.0770
8.576248 0.0930 0.1080 0.1200 0.1350 0.1590
8.610000 0.1820 0.1990 0.2270 0.2440 0.2570
8.643248 0.2740 0.2880 0.3040 0.3190 0.3480
8.676000 0.3600 0.3800 0.4000 0.4080 0.4280
8.709248 0.4400 0.4520 0.4740 0.4840 0.5020
8.743000 0.5120 0.5320 0.5490 0.5670 0.5840
8.776248 0.5940 0.6010 0.6080 0.6180 0.6310
8.809000 0.6410 0.6490 0.6590 0.6760 0.6810
8.842248 0.6830 0.6900 0.6950 0.7000 0.7010
8.876000 0.7050 0.7060 0.7060 0.7080 0.7100
8.909248 0.7100 0.7100 0.7110 0.7110 0.7130
8.942000 0.7150 0.7160 0.7180 0.7210 0.7230
8.975248 0.7260 0.7300 0.7330 0.7380 0.7420
9.008000 0.7470 0.7480 0.7530 0.7530 0.7530
9.041248 0.7530 0.7530 0.7530 0.7520 0.7500
9.075000 0.7500 0.7470 0.7420 0.7380 0.7280
9.108248 0.7210 0.7050 0.7030 0.6880 0.6780
9.141000 0.6660 0.6130 0.5890 0.5390 0.5290
9.174248 0.5090 0.4840 0.4450 0.4180 0.3980
9.208000 0.3830 0.3780 0.3730 0.3700 0.3650
9.241248 0.3600 0.3510 0.3450 0.3400 0.3330
9.274000 0.3180 0.3130 0.2810 0.2690 0.2490
9.307248 0.2390 0.2290 0.2220 0.2140 0.2040
9.341000 0.1920 0.1850 0.1750 0.1700 0.1670
9.374248 0.1620 0.1600 0.1550 0.1550 0.1500
9.407000 0.1500 0.1490 0.1450 0.1440 0.1440
9.440248 0.1440 0.1440 0.1440 0.1470 0.1500
9.474000 0.1550 0.1740 0.1990 0.2160 0.2370
9.507248 0.2620 0.2860 0.3160 0.3560 0.4120
9.540000 0.4320 0.4400 0.4620 0.4750 0.4900
9.573248 0.5070 0.5170 0.5250 0.5320 0.5420
9.607000 0.5560 0.5690 0.5810 0.5920 0.5990
9.640248 0.6040 0.6130 0.6180 0.6260 0.6310
9.673000 0.6340 0.6410 0.6480 0.6510 0.6540
9.706248 0.6540 0.6610 0.6640 0.6660 0.6700
9.740000 0.6710 0.6730 0.6750 0.6750 0.6750
9.773248 0.6750 0.6750 0.6750 0.6750 0.6730
9.806000 0.6710 0.6700 0.6680 0.6660 0.6640
9.839248 0.6590 0.6560 0.6510 0.6490 0.6430
9.873000 0.6390 0.6310 0.6230 0.6190 0.6140
9.906248 0.6090 0.6010 0.5990 0.5870 0.5770
9.939000 0.5590 0.5520 0.5460 0.5320 0.5270
9.972248 0.5170 0.4950 0.4820 0.4620 0.4430
10.005000 0.4270 0.4120 0.4000 0.3810 0.3750
10.038248 0.3600 0.3460 0.3330 0.3280 0.3090
10.072000 0.2810 0.2690 0.2520 0.2320 0.2220
10.105248 0.2070 0.2020 0.1950 0.1790 0.1700
10.138000 0.1620 0.1540 0.1500 0.1490 0.1440
10.171248 0.1420 0.1390 0.1370 0.1340 0.1320
10.205000 0.1270 0.1270 0.1250 0.1230 0.1220
10.238248 0.1220 0.1200 0.1200 0.1200 0.1200
10.271000 0.1220 0.1230 0.1250 0.1270 0.1300
10.304248 0.1340 0.1370 0.1450 0.1520 0.1650
10.338000 0.1770 0.1840 0.1950 0.2070 0.2160
10.371248 0.2220 0.2410 0.2710 0.2780 0.2940
10.404000 0.3180 0.3680 0.3950 0.4080 0.4250
10.437248 0.4420 0.4550 0.4630 0.4770 0.4890
10.471000 0.5000 0.5140 0.5250 0.5420 0.5510
10.504248 0.5640 0.5910 0.6040 0.6080 0.6190
10.537000 0.6290 0.6410 0.6530 0.6590 0.6750
10.570248 0.6830 0.6950 0.7030 0.7080 0.7110
10.604000 0.7130 0.7150 0.7180 0.7250 0.7300
10.637248 0.7330 0.7380 0.7430 0.7470 0.7520
10.670000 0.7530 0.7570 0.7600 0.7650 0.7670
10.703248 0.7720 0.7730 0.7770 0.7800 0.7830
10.737000 0.7870 0.7880 0.7930 0.7970 0.8000
10.770248 0.8020 0.8040 0.8040 0.8050 0.8050
10.803000 0.8090 0.8100 0.8170 0.8190 0.8220
10.836248 0.8240 0.8250 0.8270 0.8290 0.8300
10.869000 0.8320 0.8340 0.8350 0.8370 0.8390
10.902248 0.8420 0.8440 0.8470 0.8490 0.8500
10.936000 0.8520 0.8550 0.8570 0.8570 0.8600
10.969248 0.8640 0.8650 0.8670 0.8690 0.8710
11.002000 0.8720 0.8740 0.8760 0.8820 0.8820
11.035248 0.8840 0.8860 0.8870 0.8910 0.8920
11.069000 0.8940 0.8960 0.8970 0.8990 0.8990
11.102248 0.9020 0.9020 0.9040 0.9060 0.9060
11.135000 0.9060 0.9070 0.9070 0.9090 0.9120
11.168248 0.9140 0.9140 0.9160 0.9160 0.9170
11.202000 0.9170 0.9190 0.9210 0.9220 0.9240
11.235248 0.9240 0.9260 0.9260 0.9270 0.9270
11.268000 0.9270 0.9290 0.9290 0.9310 0.9310
11.301248 0.9320 0.9320 0.9320 0.9340 0.9340
11.335000 0.9340 0.9360 0.9360 0.9380 0.9380
11.368248 0.9380 0.9380 0.9380 0.9380 0.9380
11.401000 0.9380 0.9380 0.9380 0.9380 0.9390
11.434248 0.9410 0.9410 0.9410 0.9410 0.9430
11.468000 0.9430 0.9430 0.9430 0.9440 0.9440
11.501248 0.9440 0.9440 0.9460 0.9460 0.9460
11.534000 0.9460 0.9480 0.9480 0.9480 0.9480
11.567248 0.9480 0.9490 0.9490 0.9510 0.9510
11.601000 0.9530 0.9510 0.9510 0.9530 0.9530
11.634248 0.9540 0.9540 0.9540 0.9560 0.9560
11.667000 0.9560 0.9560 0.9560 0.9560 0.9560
11.700248 0.9580 0.9580 0.9580 0.9580 0.9580
11.734000 0.9580 0.9610 0.9610 0.9610 0.9630
11.767248 0.9630 0.9630 0.9630 0.9630 0.9630
11.800000 0.9630 0.9630 0.9640 0.9640 0.9640
11.833248 0.9640 0.9640 0.9640 0.9640 0.9640
11.866000 0.9660 0.9660 0.9660 0.9660 0.9660
11.899248 0.9660 0.9660 0.9660 0.9660 0.9660
11.933000 0.9660 0.9660 0.9660 0.9660 0.9680
11.966248 0.9680 0.9690 0.9680 0.9680 0.9680
11.999000 0.9680 0.9680 0.9680 0.9680 0.9680
12.032248 0.9680 0.9680 0.9680 0.9680 0.9690
12.066000 0.9690 0.9690 0.9690 0.9690 0.9690
12.099248 0.9690 0.9710 0.9710 0.9710 0.9710
12.132000 0.9710 0.9710 0.9710 0.9730 0.9730
12.165248 0.9730 0.9730 0.9740 0.9740 0.9740
12.199000 0.9740 0.9740 0.9740 0.9740 0.9740
12.232248 0.9740 0.9740 0.9740 0.9740 0.9740
12.265000 0.9740 0.9740 0.9740 0.9740 0.9740
12.298248 0.9740 0.9760 0.9760 0.9760 0.9760
12.332000 0.9760 0.9760 0.9760 0.9760 0.9760
12.365248 0.9760 0.9780 0.9780 0.9780 0.9780
12.398000 0.9780 0.9780 0.9780 0.9780 0.9780
12.431248 0.9780 0.9780 0.9780 0.9780 0.9780
12.465000 0.9780 0.9780 0.9780 0.9780 0.9760
12.498248 0.9760 0.9760 0.9760 0.9760 0.9760
12.531000 0.9760 0.9740 0.9740 0.9740 0.9740
12.564248 0.9740 0.9740 0.9740 0.9740 0.9740
12.598000 0.9740 0.9730 0.9730 0.9730 0.9730
12.631248 0.9730 0.9730 0.9730 0.9730 0.9730
12.664000 0.9730 0.9710 0.9710 0.9710 0.9710
12.697248 0.9710 0.9690 0.9690 0.9680 0.9680
12.731000 0.9680 0.9680 0.9680 0.9680 0.9660
12.764248 0.9660 0.9660 0.9640 0.9640 0.9640
12.797000 0.9640 0.9640 0.9640 0.9640 0.9630
12.830248 0.9630 0.9630 0.9630 0.9630 0.9630
12.863000 0.9630 0.9630 0.9610 0.9610 0.9580
12.896248 0.9590 0.9580 0.9580 0.9580 0.9580
12.930000 0.9580 0.9580 0.9580 0.9580 0.9560
12.963248 0.9560 0.9560 0.9540 0.9540 0.9540
12.996000 0.9540 0.9530 0.9530 0.9530 0.9510
13.029248 0.9510 0.9490 0.9490 0.9490 0.9490
13.063000 0.9480 0.9480 0.9480 0.9480 0.9460
13.096248 0.9460 0.9460 0.9440 0.9440 0.9440
13.129000 0.9440 0.9440 0.9440 0.9430 0.9430
13.162248 0.9410 0.9410 0.9410 0.9410 0.9390
13.196000 0.9390 0.9380 0.9380 0.9360 0.9360
13.229248 0.9360 0.9380 0.9380 0.9380 0.9380
13.262000 0.9360 0.9360 0.9360 0.9360 0.9340
13.295248 0.9340 0.9340 0.9320 0.9320 0.9310
13.329000 0.9310 0.9310 0.9290 0.9290 0.9290
13.362248 0.9270 0.9270 0.9260 0.9260 0.9260
13.395000 0.9260 0.9240 0.9240 0.9240 0.9220
13.428248 0.9240 0.9220 0.9220 0.9220 0.9220
13.462000 0.9210 0.9210 0.9190 0.9190 0.9190
13.495248 0.9170 0.9170 0.9170 0.9170 0.9160
13.528000 0.9160 0.9160 0.9140 0.9140 0.9140
13.561248 0.9120 0.9120 0.9120 0.9110 0.9110
13.595000 0.9110 0.9090 0.9090 0.9070 0.9070
13.628248 0.9060 0.9060 0.9040 0.9040 0.9020
13.661000 0.9020 0.9020 0.9010 0.9010 0.9010
13.694248 0.8990 0.8990 0.8990 0.8990 0.8970
13.727000 0.8970 0.8970 0.8970 0.8960 0.8960
13.760248 0.8940 0.8940 0.8940 0.8940 0.8920
13.794000 0.8910 0.8910 0.8890 0.8890 0.8890
13.827248 0.8870 0.8860 0.8860 0.8860 0.8840
13.860000 0.8840 0.8820 0.8820 0.8810 0.8790
13.893248 0.8770 0.8760 0.8760 0.8760 0.8760
13.927000 0.8740 0.8740 0.8740 0.8720 0.8720
13.960248 0.8720 0.8720 0.8710 0.8710 0.8720
13.993000 0.8720 0.8720 0.8710 0.8690 0.8670
14.026248 0.8670 0.8670 0.8650 0.8650 0.8640
14.060000 0.8640 0.8620 0.8620 0.8590 0.8570
14.093248 0.8570 0.8570 0.8550 0.8550 0.8550
14.126000 0.8550 0.8540 0.8520 0.8520 0.8520
14.159248 0.8490 0.8470 0.8470 0.8470 0.8450
14.193000 0.8450 0.8440 0.8420 0.8420 0.8400
14.226248 0.8390 0.8370 0.8370 0.8350 0.8350
14.259000 0.8340 0.8340 0.8320 0.8320 0.8300
14.292248 0.8290 0.8270 0.8270 0.8250 0.8250
14.326000 0.8250 0.8240 0.8220 0.8220 0.8200
14.359248 0.8190 0.8170 0.8170 0.8150 0.8140
14.392000 0.8100 0.8070 0.8070 0.8050 0.8050
14.425248 0.8050 0.8040 0.8040 0.8020 0.8000
14.459000 0.8020 0.7970 0.7970 0.7950 0.7950
14.492248 0.7920 0.7920 0.7900 0.7900 0.7880
14.525000 0.7870 0.7870 0.7850 0.7830 0.7820
14.558248 0.7820 0.7800 0.7800 0.7780 0.7770
14.592000 0.7770 0.7750 0.7730 0.7720 0.7720
14.625248 0.7700 0.7680 0.7670 0.7670 0.7650
14.658000 0.7650 0.7650 0.7630 0.7620 0.7620
14.691248 0.7580 0.7550 0.7550 0.7550 0.7530
14.724000 0.7530 0.7520 0.7500 0.7480 0.7470
14.757248 0.7450 0.7430 0.7400 0.7370 0.7330
14.791000 0.7310 0.7280 0.7250 0.7200 0.7160
14.824248 0.7110 0.7030 0.7000 0.6880 0.6780
14.857000 0.6710 0.6640 0.6490 0.6390 0.6290
14.890248 0.6130 0.5970 0.5860 0.5760 0.5670
14.924000 0.5540 0.5440 0.5370 0.5300 0.5200
14.957248 0.5140 0.5100 0.5100 0.5090 0.5070
14.990000 0.5070 0.5050 0.5050 0.5050 0.5050
15.023248 0.5050 0.5050 0.5050 0.5050 0.5040
15.057000 0.5040 0.5040 0.5020 0.5020 0.5000
15.090248 0.5000 0.4990 0.4990 0.4950 0.4950
15.123000 0.4940 0.4940 0.4920 0.4920 0.4920
15.156248 0.4900 0.4900 0.4890 0.4890 0.4890
15.190000 0.4900 0.4920 0.4940 0.4950 0.4970
15.223248 0.5000 0.5020 0.5040 0.5050 0.5100
15.256000 0.5150 0.5190 0.5240 0.5270 0.5320
15.289248 0.5370 0.5420 0.5460 0.5490 0.5510
15.323000 0.5560 0.5590 0.5620 0.5640 0.5670
15.356248 0.5710 0.5720 0.5760 0.5810 0.5870
15.389000 0.5910 0.5970 0.5990 0.6010 0.6030
15.422248 0.6040 0.6060 0.6080 0.6090 0.6110
15.456000 0.6130 0.6140 0.6180 0.6190 0.6210
15.489248 0.6230 0.6240 0.6260 0.6280 0.6290
15.522000 0.6310 0.6330 0.6340 0.6340 0.6360
15.555248 0.6380 0.6380 0.6390 0.6390 0.6410
15.589000 0.6430 0.6440 0.6440 0.6460 0.6480
15.622248 0.6490 0.6510 0.6530 0.6530 0.6530
15.655000 0.6540 0.6540 0.6540 0.6580 0.6590
15.688248 0.6610 0.6630 0.6630 0.6640 0.6640
15.721000 0.6640 0.6660 0.6680 0.6700 0.6700
15.754248 0.6700 0.6700 0.6710 0.6710 0.6710
15.788000 0.6730 0.6730 0.6750 0.6760 0.6780
15.821248 0.6800 0.6810 0.6830 0.6830 0.6850
15.854000 0.6850 0.6850 0.6860 0.6860 0.6880
15.887248 0.6900 0.6900 0.6910 0.6930 0.6930
15.921000 0.6950 0.6960 0.6960 0.6960 0.6980
15.954248 0.7000 0.7010 0.7050 0.7060 0.7080
15.987000 0.7080 0.7080 0.7100 0.7080 0.7080
##END=
