##TITLE=POTASSIUM IODATE
##JCAMP-DX=4.24
##DATA TYPE=INFRARED SPECTRUM
##CLASS=COBLENTZ
##ORIGIN=MELLON INSTITUTE
##OWNER=COBLENTZ SOCIETY
Collection (C) 2018 copyright by the U.S. Secretary of Commerce
on behalf of the United States of America. All rights reserved.
##DATE=Not specified, most likely prior to 1970
##MOLFORM=K I O3
##SOURCE REFERENCE=COBLENTZ NO. 518
##$NIST ID=B6000518
##$NIST SOURCE=COBLENTZ
##$NIST IMAGE=cob518
##SPECTROMETER/DATA SYSTEM=Not specified, most likely a prism, grating, or hybrid spectrometer.
##STATE=SOLID (NUJOL MULL)
$$PURITY UNKNOWN
##PATH LENGTH=
$$SPECTRAL CONTAMINATION DUE TO OIL AROUND 2900, 1450, 1380 CM^-^1
##SAMPLING PROCEDURE=TRANSMISSION
##RESOLUTION=4
##DATA PROCESSING=DIGITIZED BY NIST FROM HARD COPY
##XUNITS=MICROMETERS
##YUNITS=TRANSMITTANCE
##XFACTOR=1.000000
##YFACTOR=1
##DELTAX=000.006828
##FIRSTX=2.024
##LASTX=15.994
##FIRSTY=0.682
##MAXX=15.994
##MINX=2.024
##MAXY=0.939
##MINY=0.087
##NPOINTS=2047
##XYDATA=(X++(Y..Y))
2.024000 0.6820 0.6820 0.6820 0.6820 0.6840
2.058157 0.6820 0.6820 0.6820 0.6820 0.6820
2.092000 0.6820 0.6820 0.6820 0.6820 0.6820
2.126157 0.6820 0.6820 0.6820 0.6820 0.6820
2.160000 0.6800 0.6800 0.6820 0.6820 0.6800
2.194157 0.6800 0.6800 0.6800 0.6800 0.6800
2.228000 0.6800 0.6800 0.6800 0.6800 0.6800
2.262157 0.6800 0.6820 0.6820 0.6800 0.6800
2.297000 0.6800 0.6800 0.6800 0.6800 0.6800
2.331157 0.6820 0.6800 0.6800 0.6800 0.6800
2.365000 0.6800 0.6800 0.6800 0.6800 0.6800
2.399157 0.6800 0.6820 0.6840 0.6820 0.6820
2.433000 0.6820 0.6820 0.6840 0.6840 0.6840
2.467157 0.6840 0.6860 0.6870 0.6870 0.6870
2.502000 0.6870 0.6870 0.6890 0.6890 0.6890
2.536157 0.6890 0.6890 0.6890 0.6890 0.6870
2.570000 0.6870 0.6870 0.6890 0.6890 0.6890
2.604157 0.6910 0.6920 0.6920 0.6920 0.6920
2.638000 0.6920 0.6920 0.6940 0.6940 0.6940
2.672157 0.6960 0.6960 0.6960 0.6980 0.6980
2.706000 0.6990 0.6990 0.6990 0.6990 0.7010
2.740157 0.6990 0.6990 0.6990 0.6990 0.6990
2.775000 0.6990 0.6980 0.6980 0.6980 0.6980
2.809157 0.6980 0.6980 0.6980 0.6980 0.6980
2.843000 0.6980 0.6960 0.6960 0.6960 0.6960
2.877157 0.6960 0.6960 0.6960 0.6960 0.6960
2.911000 0.6960 0.6960 0.6960 0.6960 0.6960
2.945157 0.6960 0.6960 0.6960 0.6960 0.6960
2.980000 0.6960 0.6960 0.6940 0.6940 0.6940
3.014157 0.6940 0.6940 0.6940 0.6940 0.6940
3.048000 0.6940 0.6940 0.6960 0.6960 0.6960
3.082157 0.6980 0.6980 0.6980 0.6980 0.6980
3.116000 0.6980 0.6980 0.6980 0.6980 0.6990
3.150157 0.6990 0.6990 0.6990 0.6990 0.6990
3.184000 0.6990 0.7010 0.7010 0.7010 0.7010
3.218157 0.7030 0.7030 0.7030 0.7040 0.7040
3.253000 0.7060 0.7080 0.7080 0.7080 0.7080
3.287157 0.7080 0.7080 0.7080 0.7040 0.6990
3.321000 0.6980 0.6870 0.6720 0.6340 0.5840
3.355157 0.5540 0.5350 0.5040 0.4750 0.4590
3.389000 0.4570 0.4590 0.4610 0.4750 0.4900
3.423157 0.5040 0.5120 0.5070 0.5020 0.5020
3.457000 0.5060 0.5300 0.5520 0.5620 0.5760
3.491157 0.6000 0.6240 0.6550 0.6700 0.6860
3.526000 0.6990 0.7040 0.7150 0.7200 0.7250
3.560157 0.7280 0.7320 0.7350 0.7390 0.7400
3.594000 0.7420 0.7440 0.7460 0.7470 0.7490
3.628157 0.7510 0.7510 0.7530 0.7540 0.7540
3.662000 0.7560 0.7580 0.7590 0.7610 0.7610
3.696157 0.7630 0.7630 0.7630 0.7650 0.7660
3.731000 0.7680 0.7680 0.7680 0.7700 0.7700
3.765157 0.7700 0.7710 0.7710 0.7710 0.7710
3.799000 0.7730 0.7730 0.7730 0.7750 0.7750
3.833157 0.7750 0.7770 0.7770 0.7770 0.7770
3.867000 0.7780 0.7780 0.7780 0.7780 0.7780
3.901157 0.7780 0.7800 0.7800 0.7800 0.7820
3.935000 0.7820 0.7820 0.7830 0.7830 0.7830
3.969157 0.7830 0.7830 0.7830 0.7830 0.7830
4.004000 0.7830 0.7830 0.7830 0.7830 0.7830
4.038157 0.7830 0.7830 0.7830 0.7830 0.7830
4.072000 0.7830 0.7830 0.7830 0.7830 0.7830
4.106157 0.7830 0.7820 0.7820 0.7820 0.7800
4.140000 0.7800 0.7800 0.7800 0.7780 0.7780
4.174157 0.7780 0.7780 0.7780 0.7780 0.7780
4.209000 0.7780 0.7780 0.7780 0.7780 0.7780
4.243157 0.7780 0.7780 0.7780 0.7780 0.7780
4.277000 0.7780 0.7780 0.7780 0.7780 0.7780
4.311157 0.7780 0.7780 0.7780 0.7800 0.7800
4.345000 0.7780 0.7780 0.7780 0.7780 0.7780
4.379157 0.7770 0.7770 0.7780 0.7780 0.7780
4.413000 0.7780 0.7780 0.7780 0.7780 0.7780
4.447157 0.7780 0.7780 0.7780 0.7780 0.7780
4.482000 0.7780 0.7800 0.7800 0.7800 0.7800
4.516157 0.7800 0.7800 0.7800 0.7820 0.7820
4.550000 0.7830 0.7830 0.7830 0.7830 0.7830
4.584157 0.7830 0.7830 0.7830 0.7830 0.7830
4.618000 0.7830 0.7830 0.7830 0.7830 0.7830
4.652157 0.7830 0.7830 0.7830 0.7830 0.7830
4.687000 0.7830 0.7830 0.7830 0.7830 0.7830
4.721157 0.7830 0.7830 0.7830 0.7830 0.7830
4.755000 0.7830 0.7830 0.7830 0.7830 0.7830
4.789157 0.7830 0.7830 0.7830 0.7830 0.7850
4.823000 0.7870 0.7870 0.7870 0.7870 0.7890
4.857157 0.7870 0.7870 0.7870 0.7890 0.7890
4.891000 0.7890 0.7890 0.7890 0.7890 0.7890
4.925157 0.7900 0.7900 0.7900 0.7900 0.7900
4.960000 0.7900 0.7900 0.7900 0.7900 0.7940
4.994157 0.7940 0.7940 0.7940 0.7950 0.7950
5.028000 0.7950 0.7950 0.7950 0.7950 0.7970
5.062157 0.7970 0.7970 0.7970 0.7970 0.7990
5.096000 0.7990 0.7990 0.7990 0.8010 0.8020
5.130157 0.8020 0.8020 0.8040 0.8060 0.8060
5.164000 0.8070 0.8070 0.8090 0.8090 0.8090
5.198157 0.8090 0.8110 0.8110 0.8130 0.8130
5.233000 0.8140 0.8140 0.8160 0.8180 0.8190
5.267157 0.8190 0.8190 0.8190 0.8210 0.8230
5.301000 0.8230 0.8230 0.8230 0.8230 0.8250
5.335157 0.8250 0.8260 0.8260 0.8280 0.8280
5.369000 0.8300 0.8300 0.8300 0.8300 0.8300
5.403157 0.8310 0.8310 0.8330 0.8310 0.8330
5.438000 0.8330 0.8330 0.8330 0.8330 0.8350
5.472157 0.8350 0.8350 0.8370 0.8370 0.8380
5.506000 0.8380 0.8380 0.8400 0.8400 0.8420
5.540157 0.8420 0.8420 0.8430 0.8430 0.8450
5.574000 0.8450 0.8450 0.8450 0.8490 0.8490
5.608157 0.8500 0.8520 0.8520 0.8520 0.8520
5.642000 0.8540 0.8540 0.8540 0.8540 0.8570
5.676157 0.8570 0.8590 0.8590 0.8610 0.8610
5.711000 0.8620 0.8640 0.8640 0.8640 0.8660
5.745157 0.8660 0.8670 0.8690 0.8690 0.8710
5.779000 0.8710 0.8710 0.8730 0.8730 0.8740
5.813157 0.8740 0.8740 0.8740 0.8760 0.8780
5.847000 0.8780 0.8790 0.8790 0.8810 0.8810
5.881157 0.8810 0.8810 0.8830 0.8830 0.8830
5.916000 0.8830 0.8850 0.8850 0.8850 0.8850
5.950157 0.8850 0.8850 0.8850 0.8850 0.8860
5.984000 0.8860 0.8860 0.8880 0.8880 0.8860
6.018157 0.8860 0.8880 0.8880 0.8880 0.8860
6.052000 0.8850 0.8850 0.8860 0.8860 0.8860
6.086157 0.8850 0.8850 0.8860 0.8860 0.8860
6.120000 0.8850 0.8850 0.8850 0.8850 0.8850
6.154157 0.8850 0.8850 0.8850 0.8850 0.8850
6.189000 0.8850 0.8850 0.8850 0.8850 0.8830
6.223157 0.8830 0.8850 0.8850 0.8850 0.8850
6.257000 0.8850 0.8850 0.8850 0.8850 0.8850
6.291157 0.8850 0.8850 0.8850 0.8850 0.8850
6.325000 0.8860 0.8860 0.8860 0.8860 0.8860
6.359157 0.8860 0.8860 0.8860 0.8860 0.8860
6.394000 0.8850 0.8850 0.8860 0.8860 0.8860
6.428157 0.8860 0.8860 0.8860 0.8880 0.8880
6.462000 0.8880 0.8880 0.8880 0.8880 0.8880
6.496157 0.8900 0.8900 0.8900 0.8900 0.8900
6.530000 0.8900 0.8900 0.8900 0.8900 0.8900
6.564157 0.8900 0.8910 0.8910 0.8910 0.8930
6.598000 0.8930 0.8930 0.8930 0.8930 0.8950
6.632157 0.8950 0.8950 0.8950 0.8970 0.8970
6.667000 0.8970 0.8980 0.8980 0.8980 0.8980
6.701157 0.8980 0.8970 0.8950 0.8950 0.8950
6.735000 0.8930 0.8930 0.8910 0.8900 0.8860
6.769157 0.8830 0.8780 0.8690 0.8640 0.8500
6.803000 0.8300 0.8110 0.8060 0.8020 0.8010
6.837157 0.8010 0.7990 0.7990 0.7990 0.7990
6.872000 0.7990 0.8010 0.8010 0.8020 0.8040
6.906157 0.8090 0.8140 0.8210 0.8260 0.8310
6.940000 0.8350 0.8420 0.8500 0.8540 0.8590
6.974157 0.8620 0.8660 0.8690 0.8710 0.8740
7.008000 0.8780 0.8810 0.8830 0.8830 0.8850
7.042157 0.8860 0.8880 0.8900 0.8900 0.8900
7.076000 0.8910 0.8930 0.8930 0.8950 0.8950
7.110157 0.8970 0.8980 0.9000 0.9000 0.9000
7.145000 0.9000 0.9000 0.8980 0.8950 0.8910
7.179157 0.8900 0.8830 0.8760 0.8690 0.8660
7.213000 0.8620 0.8610 0.8610 0.8620 0.8620
7.247157 0.8620 0.8640 0.8640 0.8660 0.8660
7.281000 0.8710 0.8730 0.8740 0.8760 0.8790
7.315157 0.8810 0.8830 0.8850 0.8880 0.8900
7.349000 0.8910 0.8930 0.8950 0.8950 0.8980
7.383157 0.9000 0.9020 0.9020 0.9020 0.9030
7.418000 0.9030 0.9050 0.9050 0.9050 0.9050
7.452157 0.9070 0.9070 0.9090 0.9090 0.9100
7.486000 0.9100 0.9100 0.9100 0.9120 0.9120
7.520157 0.9120 0.9120 0.9120 0.9120 0.9120
7.554000 0.9120 0.9120 0.9120 0.9140 0.9140
7.588157 0.9140 0.9140 0.9140 0.9140 0.9150
7.623000 0.9150 0.9150 0.9150 0.9140 0.9140
7.657157 0.9140 0.9140 0.9140 0.9150 0.9150
7.691000 0.9150 0.9150 0.9150 0.9150 0.9150
7.725157 0.9170 0.9150 0.9150 0.9150 0.9150
7.759000 0.9150 0.9150 0.9150 0.9150 0.9150
7.793157 0.9150 0.9170 0.9150 0.9150 0.9150
7.827000 0.9150 0.9150 0.9150 0.9150 0.9150
7.861157 0.9150 0.9150 0.9150 0.9150 0.9150
7.896000 0.9150 0.9150 0.9150 0.9150 0.9170
7.930157 0.9170 0.9170 0.9170 0.9170 0.9170
7.964000 0.9170 0.9150 0.9150 0.9150 0.9150
7.998157 0.9170 0.9170 0.9170 0.9170 0.9170
8.032000 0.9170 0.9170 0.9170 0.9170 0.9170
8.066157 0.9190 0.9190 0.9170 0.9170 0.9170
8.101000 0.9170 0.9190 0.9190 0.9190 0.9190
8.135157 0.9190 0.9190 0.9190 0.9190 0.9190
8.169000 0.9190 0.9190 0.9190 0.9190 0.9190
8.203157 0.9190 0.9190 0.9190 0.9190 0.9190
8.237000 0.9190 0.9210 0.9210 0.9210 0.9210
8.271157 0.9210 0.9210 0.9210 0.9220 0.9220
8.305000 0.9220 0.9220 0.9220 0.9220 0.9220
8.339157 0.9220 0.9220 0.9220 0.9220 0.9240
8.374000 0.9240 0.9240 0.9240 0.9240 0.9240
8.408157 0.9240 0.9240 0.9240 0.9240 0.9240
8.442000 0.9240 0.9240 0.9240 0.9240 0.9240
8.476157 0.9240 0.9240 0.9240 0.9220 0.9220
8.510000 0.9220 0.9220 0.9220 0.9210 0.9210
8.544157 0.9210 0.9210 0.9210 0.9210 0.9210
8.579000 0.9210 0.9210 0.9220 0.9220 0.9220
8.613157 0.9220 0.9220 0.9220 0.9220 0.9220
8.647000 0.9220 0.9220 0.9220 0.9220 0.9220
8.681157 0.9240 0.9240 0.9240 0.9240 0.9240
8.715000 0.9240 0.9240 0.9240 0.9240 0.9260
8.749157 0.9240 0.9240 0.9240 0.9240 0.9240
8.783000 0.9240 0.9240 0.9240 0.9240 0.9240
8.817157 0.9220 0.9220 0.9220 0.9240 0.9240
8.852000 0.9240 0.9240 0.9220 0.9220 0.9220
8.886157 0.9210 0.9210 0.9210 0.9210 0.9210
8.920000 0.9210 0.9210 0.9190 0.9190 0.9190
8.954157 0.9190 0.9190 0.9190 0.9190 0.9190
8.988000 0.9190 0.9190 0.9190 0.9190 0.9190
9.022157 0.9190 0.9190 0.9190 0.9190 0.9190
9.056000 0.9190 0.9190 0.9190 0.9190 0.9190
9.090157 0.9190 0.9190 0.9190 0.9190 0.9190
9.125000 0.9190 0.9210 0.9210 0.9210 0.9210
9.159157 0.9210 0.9210 0.9210 0.9220 0.9220
9.193000 0.9220 0.9220 0.9220 0.9220 0.9220
9.227157 0.9220 0.9220 0.9240 0.9240 0.9220
9.261000 0.9220 0.9220 0.9240 0.9220 0.9220
9.295157 0.9220 0.9220 0.9220 0.9220 0.9220
9.330000 0.9220 0.9220 0.9220 0.9220 0.9220
9.364157 0.9220 0.9220 0.9220 0.9220 0.9220
9.398000 0.9220 0.9210 0.9210 0.9210 0.9220
9.432157 0.9220 0.9220 0.9220 0.9220 0.9220
9.466000 0.9220 0.9240 0.9240 0.9240 0.9240
9.500157 0.9240 0.9240 0.9240 0.9240 0.9240
9.534000 0.9240 0.9260 0.9260 0.9260 0.9260
9.568157 0.9240 0.9260 0.9260 0.9260 0.9240
9.603000 0.9260 0.9260 0.9270 0.9270 0.9270
9.637157 0.9290 0.9290 0.9270 0.9270 0.9290
9.671000 0.9290 0.9290 0.9290 0.9290 0.9290
9.705157 0.9290 0.9290 0.9290 0.9290 0.9290
9.739000 0.9290 0.9290 0.9290 0.9310 0.9310
9.773157 0.9310 0.9310 0.9310 0.9310 0.9310
9.808000 0.9310 0.9310 0.9310 0.9310 0.9310
9.842157 0.9310 0.9310 0.9310 0.9310 0.9330
9.876000 0.9330 0.9330 0.9330 0.9330 0.9330
9.910157 0.9330 0.9330 0.9330 0.9330 0.9330
9.944000 0.9340 0.9340 0.9340 0.9340 0.9340
9.978157 0.9340 0.9340 0.9330 0.9340 0.9340
10.012000 0.9340 0.9340 0.9340 0.9340 0.9340
10.046157 0.9340 0.9340 0.9340 0.9340 0.9340
10.081000 0.9340 0.9340 0.9360 0.9360 0.9340
10.115157 0.9340 0.9360 0.9360 0.9360 0.9360
10.149000 0.9380 0.9380 0.9360 0.9360 0.9360
10.183157 0.9360 0.9360 0.9360 0.9360 0.9380
10.217000 0.9380 0.9380 0.9380 0.9380 0.9380
10.251157 0.9380 0.9390 0.9390 0.9380 0.9380
10.286000 0.9380 0.9380 0.9380 0.9380 0.9380
10.320157 0.9380 0.9380 0.9380 0.9380 0.9380
10.354000 0.9380 0.9380 0.9380 0.9380 0.9380
10.388157 0.9380 0.9380 0.9380 0.9380 0.9380
10.422000 0.9380 0.9380 0.9380 0.9380 0.9380
10.456157 0.9380 0.9380 0.9390 0.9380 0.9380
10.490000 0.9380 0.9390 0.9380 0.9380 0.9390
10.524157 0.9380 0.9380 0.9380 0.9380 0.9380
10.559000 0.9360 0.9360 0.9360 0.9340 0.9340
10.593157 0.9340 0.9360 0.9360 0.9340 0.9340
10.627000 0.9340 0.9330 0.9330 0.9340 0.9340
10.661157 0.9340 0.9330 0.9330 0.9330 0.9330
10.695000 0.9330 0.9330 0.9330 0.9330 0.9330
10.729157 0.9310 0.9310 0.9310 0.9290 0.9290
10.764000 0.9290 0.9290 0.9290 0.9310 0.9310
10.798157 0.9310 0.9290 0.9290 0.9290 0.9270
10.832000 0.9270 0.9270 0.9270 0.9270 0.9270
10.866157 0.9270 0.9290 0.9290 0.9290 0.9290
10.900000 0.9290 0.9310 0.9310 0.9310 0.9310
10.934157 0.9310 0.9310 0.9310 0.9310 0.9310
10.968000 0.9310 0.9330 0.9330 0.9330 0.9340
11.002157 0.9340 0.9340 0.9340 0.9340 0.9340
11.037000 0.9340 0.9340 0.9340 0.9340 0.9360
11.071157 0.9360 0.9360 0.9360 0.9340 0.9340
11.105000 0.9340 0.9340 0.9340 0.9340 0.9340
11.139157 0.9340 0.9340 0.9340 0.9340 0.9340
11.173000 0.9340 0.9340 0.9340 0.9340 0.9340
11.207157 0.9340 0.9340 0.9340 0.9330 0.9330
11.241000 0.9330 0.9330 0.9330 0.9330 0.9330
11.275157 0.9330 0.9330 0.9330 0.9330 0.9330
11.310000 0.9330 0.9330 0.9330 0.9330 0.9330
11.344157 0.9340 0.9340 0.9340 0.9340 0.9340
11.378000 0.9340 0.9340 0.9340 0.9340 0.9340
11.412157 0.9360 0.9360 0.9360 0.9360 0.9360
11.446000 0.9360 0.9360 0.9360 0.9360 0.9360
11.480157 0.9360 0.9360 0.9360 0.9360 0.9380
11.515000 0.9360 0.9360 0.9380 0.9380 0.9380
11.549157 0.9380 0.9380 0.9380 0.9380 0.9380
11.583000 0.9380 0.9380 0.9380 0.9360 0.9360
11.617157 0.9340 0.9340 0.9340 0.9340 0.9330
11.651000 0.9340 0.9340 0.9340 0.9330 0.9330
11.685157 0.9330 0.9330 0.9330 0.9310 0.9310
11.719000 0.9310 0.9310 0.9310 0.9310 0.9310
11.753157 0.9310 0.9310 0.9310 0.9310 0.9290
11.788000 0.9290 0.9310 0.9290 0.9310 0.9290
11.822157 0.9270 0.9270 0.9290 0.9290 0.9290
11.856000 0.9270 0.9270 0.9270 0.9290 0.9270
11.890157 0.9270 0.9260 0.9260 0.9240 0.9260
11.924000 0.9260 0.9260 0.9260 0.9240 0.9240
11.958157 0.9240 0.9240 0.9240 0.9240 0.9240
11.993000 0.9240 0.9220 0.9220 0.9210 0.9190
12.027157 0.9190 0.9170 0.9170 0.9170 0.9170
12.061000 0.9140 0.9140 0.9140 0.9120 0.9120
12.095157 0.9100 0.9100 0.9090 0.9050 0.9030
12.129000 0.9030 0.9020 0.9020 0.9000 0.8980
12.163157 0.8930 0.8910 0.8880 0.8850 0.8830
12.197000 0.8760 0.8710 0.8640 0.8590 0.8540
12.231157 0.8490 0.8430 0.8370 0.8310 0.8260
12.266000 0.8230 0.8130 0.8070 0.8020 0.7950
12.300157 0.7870 0.7770 0.7710 0.7610 0.7530
12.334000 0.7420 0.7320 0.7220 0.7130 0.7040
12.368157 0.7010 0.6980 0.6940 0.6910 0.6860
12.402000 0.6720 0.6620 0.6560 0.6510 0.6460
12.436157 0.6390 0.6320 0.6260 0.6170 0.6080
12.471000 0.5950 0.5830 0.5810 0.5790 0.5790
12.505157 0.5790 0.5790 0.5810 0.5810 0.5810
12.539000 0.5830 0.5840 0.5860 0.5860 0.5880
12.573157 0.5880 0.5880 0.5880 0.5880 0.5830
12.607000 0.5790 0.5740 0.5710 0.5640 0.5590
12.641157 0.5520 0.5470 0.5400 0.5330 0.5240
12.675000 0.5160 0.5090 0.5020 0.4920 0.4870
12.709157 0.4780 0.4750 0.4680 0.4610 0.4540
12.744000 0.4470 0.4420 0.4370 0.4300 0.4250
12.778157 0.4180 0.4160 0.4040 0.3990 0.3910
12.812000 0.3820 0.3750 0.3720 0.3630 0.3600
12.846157 0.3510 0.3480 0.3360 0.3310 0.3250
12.880000 0.3190 0.3130 0.3080 0.3030 0.3000
12.914157 0.2950 0.2910 0.2840 0.2760 0.2720
12.948000 0.2650 0.2600 0.2570 0.2520 0.2460
12.982157 0.2410 0.2340 0.2340 0.2310 0.2240
13.017000 0.2120 0.2050 0.2020 0.1980 0.1920
13.051157 0.1860 0.1810 0.1730 0.1680 0.1620
13.085000 0.1590 0.1540 0.1540 0.1520 0.1490
13.119157 0.1470 0.1420 0.1370 0.1320 0.1300
13.153000 0.1260 0.1250 0.1230 0.1200 0.1140
13.187157 0.1140 0.1130 0.1090 0.1060 0.1020
13.222000 0.1020 0.1020 0.1020 0.1020 0.1020
13.256157 0.1020 0.1020 0.1020 0.1010 0.1010
13.290000 0.1010 0.1020 0.1020 0.1020 0.1020
13.324157 0.1020 0.1020 0.1020 0.1020 0.1020
13.358000 0.1020 0.1020 0.1010 0.1010 0.1010
13.392157 0.1010 0.1010 0.0990 0.0990 0.0990
13.426000 0.0970 0.0960 0.0940 0.0940 0.0940
13.460157 0.0920 0.0920 0.0900 0.0900 0.0900
13.495000 0.0890 0.0890 0.0890 0.0890 0.0890
13.529157 0.0870 0.0870 0.0870 0.0890 0.0890
13.563000 0.0890 0.0920 0.0940 0.0970 0.0990
13.597157 0.1040 0.1130 0.1180 0.1370 0.1500
13.631000 0.1660 0.1760 0.1830 0.2020 0.2020
13.665157 0.2310 0.2430 0.2550 0.2790 0.3000
13.700000 0.3100 0.3250 0.3390 0.3600 0.3670
13.734157 0.3850 0.3940 0.4030 0.4110 0.4200
13.768000 0.4250 0.4330 0.4390 0.4450 0.4510
13.802157 0.4610 0.4690 0.4760 0.4830 0.4870
13.836000 0.4920 0.4990 0.5020 0.5060 0.5140
13.870157 0.5230 0.5310 0.5330 0.5380 0.5430
13.904000 0.5450 0.5500 0.5520 0.5540 0.5590
13.938157 0.5620 0.5660 0.5710 0.5760 0.5790
13.973000 0.5840 0.5880 0.5900 0.5900 0.5950
14.007157 0.5980 0.6000 0.6020 0.6050 0.6080
14.041000 0.6100 0.6140 0.6150 0.6170 0.6190
14.075157 0.6200 0.6200 0.6220 0.6240 0.6260
14.109000 0.6260 0.6290 0.6290 0.6290 0.6310
14.143157 0.6320 0.6320 0.6320 0.6340 0.6360
14.178000 0.6380 0.6380 0.6380 0.6380 0.6390
14.212157 0.6390 0.6390 0.6390 0.6390 0.6390
14.246000 0.6410 0.6410 0.6410 0.6410 0.6410
14.280157 0.6430 0.6430 0.6430 0.6430 0.6430
14.314000 0.6430 0.6430 0.6430 0.6410 0.6430
14.348157 0.6410 0.6410 0.6410 0.6410 0.6410
14.382000 0.6410 0.6410 0.6390 0.6390 0.6390
14.416157 0.6390 0.6380 0.6380 0.6380 0.6380
14.451000 0.6380 0.6380 0.6380 0.6380 0.6360
14.485157 0.6360 0.6360 0.6360 0.6360 0.6360
14.519000 0.6360 0.6360 0.6340 0.6340 0.6320
14.553157 0.6320 0.6320 0.6340 0.6320 0.6320
14.587000 0.6320 0.6320 0.6310 0.6320 0.6310
14.621157 0.6310 0.6290 0.6290 0.6290 0.6290
14.655000 0.6290 0.6270 0.6270 0.6270 0.6270
14.689157 0.6260 0.6260 0.6260 0.6220 0.6220
14.724000 0.6220 0.6220 0.6220 0.6220 0.6220
14.758157 0.6220 0.6200 0.6200 0.6200 0.6200
14.792000 0.6200 0.6190 0.6190 0.6190 0.6190
14.826157 0.6170 0.6170 0.6170 0.6170 0.6170
14.860000 0.6150 0.6170 0.6170 0.6150 0.6150
14.894157 0.6150 0.6150 0.6140 0.6140 0.6140
14.929000 0.6140 0.6120 0.6120 0.6120 0.6100
14.963157 0.6100 0.6100 0.6100 0.6100 0.6080
14.997000 0.6070 0.6070 0.6070 0.6070 0.6070
15.031157 0.6070 0.6050 0.6050 0.6050 0.6050
15.065000 0.6050 0.6050 0.6030 0.6030 0.6030
15.099157 0.6030 0.6020 0.6020 0.6020 0.6020
15.133000 0.6000 0.6020 0.6020 0.6000 0.6000
15.167157 0.6000 0.6000 0.6000 0.6000 0.6000
15.202000 0.5980 0.5980 0.5980 0.5980 0.5980
15.236157 0.5980 0.5980 0.5980 0.5980 0.5960
15.270000 0.5960 0.5960 0.5960 0.5950 0.5960
15.304157 0.5960 0.5960 0.5980 0.5960 0.5960
15.338000 0.5980 0.5960 0.5960 0.5960 0.5960
15.372157 0.5960 0.5960 0.5960 0.5960 0.5960
15.407000 0.5960 0.5960 0.5980 0.5960 0.5960
15.441157 0.5960 0.5960 0.5960 0.5960 0.5960
15.475000 0.5960 0.5960 0.5960 0.5960 0.5980
15.509157 0.5960 0.5960 0.5960 0.5960 0.5960
15.543000 0.5960 0.5960 0.5960 0.5960 0.5960
15.577157 0.5980 0.5980 0.5980 0.5980 0.6000
15.611000 0.6000 0.6000 0.6000 0.6000 0.6000
15.645157 0.6000 0.6000 0.6000 0.6000 0.6000
15.680000 0.6020 0.6020 0.6020 0.6020 0.6020
15.714157 0.6020 0.6020 0.6030 0.6050 0.6050
15.748000 0.6050 0.6050 0.6070 0.6070 0.6070
15.782157 0.6080 0.6080 0.6080 0.6100 0.6100
15.816000 0.6100 0.6100 0.6120 0.6140 0.6140
15.850157 0.6150 0.6150 0.6170 0.6170 0.6170
15.885000 0.6170 0.6190 0.6190 0.6200 0.6220
15.919157 0.6220 0.6220 0.6240 0.6240 0.6240
15.953000 0.6260 0.6270 0.6270 0.6290 0.6290
15.987157 0.6310 0.6310
##END=
