##TITLE=epi-Isopulegol (methyl axial)
##JCAMP-DX=4.24
##DATA TYPE=INFRARED SPECTRUM
##CLASS=COBLENTZ III
##ORIGIN=WESTERN REGIONAL RES. USDA
##OWNER=Copyright (C) 1987 by the Coblentz Society
Collection (C) 2018 copyright by the U.S. Secretary of Commerce
on behalf of the United States of America. All rights reserved.
##DATE=1966/04/26
##NAMES=2-isopropenyl-5-methylcyclohexanol
##MOLFORM=C10 H18 O
##SOURCE REFERENCE=COBLENTZ NO. 9881
##$NIST ID=B6009881
##$NIST SOURCE=COBLENTZ
##$NIST IMAGE=cob9881
##SPECTROMETER/DATA SYSTEM=CARY 90 (GRATING)
##INSTRUMENT PARAMETERS=GRATING CHANGES: 3000, 2000, 1200 CM^-^1
##STATE=SOLUTION (10% CCl4 FOR 4000-450 CM^-^1) VS SOLVENT
##PATH LENGTH=0.01 CM
$$SPECTRA IN THE 700-830 CM^-^1 REGION IS DEAD
##SAMPLING PROCEDURE=TRANSMISSION
##RESOLUTION=2
##DATA PROCESSING=DIGITIZED BY COBLENTZ SOCIETY (BATCH II) FROM HARD COPY
##XUNITS=1/CM
##YUNITS=TRANSMITTANCE
##XFACTOR=1.0
##YFACTOR=1
##FIRSTX=508
##LASTX=4000
##FIRSTY=0.8905
##MAXX=4000
##MINX=508
##MAXY=0.9274
##MINY=0.0489
##NPOINTS=3493
##XYDATA=(X++(Y..Y))
508.000000 0.8905 0.8923 0.8939 0.8952 0.9046
513.000000 0.8979 0.8990 0.8998 0.9001 0.8999
518.000000 0.8998 0.8996 0.8992 0.8986 0.8980
523.000000 0.8974 0.8968 0.8957 0.8945 0.8933
528.000000 0.8922 0.8910 0.8897 0.8883 0.8869
533.000000 0.8856 0.8842 0.8832 0.8822 0.8812
538.000000 0.8802 0.8798 0.8797 0.8796 0.8797
543.000000 0.8799 0.8800 0.8802 0.8803 0.8795
548.000000 0.8788 0.8776 0.8757 0.8737 0.8717
553.000000 0.8706 0.8698 0.8708 0.8733 0.8759
558.000000 0.8787 0.8815 0.8840 0.8862 0.8882
563.000000 0.8895 0.8906 0.8906 0.8906 0.8907
568.000000 0.8906 0.8920 0.8904 0.8902 0.8901
573.000000 0.8899 0.8895 0.8890 0.8886 0.8882
578.000000 0.8877 0.8871 0.8864 0.8857 0.8850
583.000000 0.8843 0.8835 0.8823 0.8811 0.8797
588.000000 0.8756 0.8711 0.8660 0.8608 0.8536
593.000000 0.8510 0.8494 0.8496 0.8496 0.8520
598.000000 0.8584 0.8684 0.8762 0.8809 0.8829
603.000000 0.8845 0.8851 0.8850 0.8858 0.8847
608.000000 0.8843 0.8839 0.8830 0.8817 0.8794
613.000000 0.8756 0.8698 0.8594 0.8535 0.8476
618.000000 0.8416 0.8347 0.8277 0.8071 0.7819
623.000000 0.7567 0.7334 0.7334 0.7376 0.7640
628.000000 0.7903 0.8167 0.8240 0.8309 0.8381
633.000000 0.8439 0.8493 0.8535 0.8557 0.8578
638.000000 0.8593 0.8596 0.8600 0.8600 0.8595
643.000000 0.8591 0.8586 0.8581 0.8577 0.8573
648.000000 0.8569 0.8566 0.8572 0.8559 0.8556
653.000000 0.8552 0.8549 0.8548 0.8548 0.8547
658.000000 0.8547 0.8546 0.8546 0.8546 0.8545
663.000000 0.8456 0.8342 0.8228 0.8114 0.8021
668.000000 0.8036 0.8144 0.8253 0.8337 0.8200
673.000000 0.8003 0.7806 0.7608 0.7411 0.7303
678.000000 0.7305 0.7482 0.7659 0.7836 0.8014
683.000000 0.8191 0.8329 0.8387 0.8421 0.8447
688.000000 0.8473 0.8495 0.8516 0.8528 0.8536
693.000000 0.8544 0.8548 0.8549 0.8550 0.8527
698.000000 0.8553 0.8554 0.8554 0.8553 0.8552
703.000000 0.8550 0.8546 0.8542 0.8537 0.8533
708.000000 0.8529 0.8525 0.8521 0.8517 0.8513
713.000000 0.8508 0.8504 0.8500 0.8496 0.8492
718.000000 0.8488 0.8483 0.8479 0.8475 0.8471
723.000000 0.8467 0.8463 0.8459 0.8454 0.8450
728.000000 0.8446 0.8442 0.8438 0.8434 0.8429
733.000000 0.8425 0.8421 0.8417 0.8413 0.8409
738.000000 0.8405 0.8400 0.8396 0.8392 0.8388
743.000000 0.8384 0.8380 0.8376 0.8371 0.8367
748.000000 0.8363 0.8359 0.8355 0.8351 0.8346
753.000000 0.8342 0.8338 0.8334 0.8330 0.8326
758.000000 0.8322 0.8317 0.8313 0.8309 0.8305
763.000000 0.8301 0.8297 0.8292 0.8288 0.8284
768.000000 0.8280 0.8276 0.8272 0.8268 0.8263
773.000000 0.8259 0.8255 0.8251 0.8247 0.8243
778.000000 0.8238 0.8234 0.8230 0.8226 0.8222
783.000000 0.8218 0.8214 0.8209 0.8205 0.8201
788.000000 0.8197 0.8193 0.8189 0.8185 0.8180
793.000000 0.8176 0.8172 0.8168 0.8164 0.8160
798.000000 0.8155 0.8151 0.8147 0.8143 0.8139
803.000000 0.8135 0.8131 0.8126 0.8122 0.8118
808.000000 0.8114 0.8110 0.8106 0.8101 0.8097
813.000000 0.8093 0.8089 0.8085 0.8081 0.8077
818.000000 0.8072 0.8068 0.8064 0.8060 0.8056
823.000000 0.8052 0.8048 0.8036 0.8024 0.8007
828.000000 0.8032 0.7951 0.7790 0.7517 0.7244
833.000000 0.6971 0.6698 0.6425 0.6152 0.5879
838.000000 0.5397 0.5533 0.6161 0.6789 0.7417
843.000000 0.7961 0.8070 0.8156 0.8260 0.8419
848.000000 0.8554 0.8673 0.8762 0.8811 0.8830
853.000000 0.8849 0.8869 0.8883 0.8892 0.8895
858.000000 0.8884 0.8869 0.8850 0.8811 0.8751
863.000000 0.8680 0.8612 0.8555 0.8500 0.8445
868.000000 0.8389 0.8353 0.8355 0.8376 0.8405
873.000000 0.8440 0.8461 0.8461 0.8437 0.8253
878.000000 0.8076 0.7910 0.7636 0.7227 0.6819
883.000000 0.6410 0.6002 0.5593 0.5184 0.4769
888.000000 0.4458 0.4224 0.4030 0.3873 0.3789
893.000000 0.3663 0.3368 0.3073 0.2779 0.2484
898.000000 0.2098 0.2061 0.2070 0.2579 0.3124
903.000000 0.3669 0.4214 0.4759 0.5304 0.6423
908.000000 0.6810 0.7038 0.7172 0.7307 0.7432
913.000000 0.7555 0.7678 0.7831 0.7986 0.8087
918.000000 0.8183 0.8280 0.8403 0.8522 0.8591
923.000000 0.8623 0.8638 0.8634 0.8619 0.8592
928.000000 0.8537 0.8496 0.8455 0.8413 0.8376
933.000000 0.8341 0.8324 0.8310 0.8297 0.8275
938.000000 0.8155 0.7930 0.7705 0.7481 0.7256
943.000000 0.7031 0.6806 0.6671 0.6681 0.6821
948.000000 0.7100 0.7380 0.7659 0.7755 0.7758
953.000000 0.7683 0.7614 0.7560 0.7520 0.7493
958.000000 0.7425 0.6988 0.6551 0.6114 0.5678
963.000000 0.5241 0.4804 0.4701 0.4735 0.5181
968.000000 0.5627 0.6072 0.6518 0.6964 0.7171
973.000000 0.7190 0.7190 0.7186 0.7160 0.7019
978.000000 0.6783 0.6546 0.6310 0.6074 0.6040
983.000000 0.6180 0.6531 0.6883 0.7234 0.7586
988.000000 0.7937 0.8161 0.8193 0.8202 0.8203
993.000000 0.8206 0.8188 0.8173 0.8141 0.8054
998.000000 0.7774 0.7498 0.7222 0.6945 0.6669
1003.000000 0.6393 0.6117 0.5841 0.5841 0.5885
1008.000000 0.5929 0.5973 0.5943 0.5610 0.5277
1013.000000 0.4944 0.4612 0.4513 0.4595 0.4990
1018.000000 0.5386 0.5504 0.5535 0.5347 0.5230
1023.000000 0.5114 0.4998 0.4882 0.4766 0.4735
1028.000000 0.4743 0.4787 0.5006 0.5225 0.5444
1033.000000 0.5664 0.5883 0.6102 0.6322 0.6541
1038.000000 0.6674 0.6649 0.6562 0.6462 0.6362
1043.000000 0.6261 0.6161 0.6061 0.5963 0.5973
1048.000000 0.6027 0.6200 0.6374 0.6547 0.6668
1053.000000 0.6625 0.6537 0.6449 0.6465 0.6520
1058.000000 0.6575 0.6631 0.6665 0.6624 0.6549
1063.000000 0.6475 0.6413 0.6413 0.6533 0.6683
1068.000000 0.6833 0.6983 0.7133 0.7283 0.7302
1073.000000 0.7309 0.7318 0.7336 0.7396 0.7497
1078.000000 0.7713 0.7964 0.8072 0.8118 0.8129
1083.000000 0.8138 0.8144 0.8081 0.8012 0.7943
1088.000000 0.7875 0.7806 0.7737 0.7668 0.7600
1093.000000 0.7539 0.7484 0.7421 0.7389 0.7389
1098.000000 0.7376 0.7463 0.7725 0.7969 0.8029
1103.000000 0.8069 0.8094 0.8105 0.8105 0.8125
1108.000000 0.8046 0.8011 0.7981 0.7965 0.7952
1113.000000 0.7993 0.8065 0.8138 0.8210 0.8283
1118.000000 0.8293 0.8290 0.8284 0.8107 0.7899
1123.000000 0.7692 0.7485 0.7277 0.7070 0.6863
1128.000000 0.6655 0.6479 0.6469 0.6902 0.7301
1133.000000 0.7701 0.8101 0.8500 0.8824 0.8865
1138.000000 0.8886 0.8899 0.8906 0.8913 0.8918
1143.000000 0.8920 0.8918 0.8916 0.8912 0.8899
1148.000000 0.8886 0.8873 0.8865 0.8858 0.8848
1153.000000 0.8837 0.8827 0.8819 0.8813 0.8782
1158.000000 0.8760 0.8724 0.8675 0.8607 0.8539
1163.000000 0.8480 0.8416 0.8327 0.8221 0.8119
1168.000000 0.8035 0.7951 0.7848 0.7738 0.7623
1173.000000 0.7485 0.7108 0.6516 0.5925 0.5333
1178.000000 0.4741 0.4150 0.3479 0.3461 0.3759
1183.000000 0.4164 0.4569 0.4974 0.5379 0.5784
1188.000000 0.6189 0.6595 0.7000 0.7405 0.7719
1193.000000 0.7867 0.7959 0.7979 0.7985 0.7992
1198.000000 0.7982 0.7969 0.7936 0.7903 0.7869
1203.000000 0.7836 0.7803 0.7770 0.7737 0.7703
1208.000000 0.7670 0.7643 0.7620 0.7596 0.7573
1213.000000 0.7550 0.7528 0.7495 0.7447 0.7380
1218.000000 0.7293 0.7198 0.7014 0.6692 0.6498
1223.000000 0.6303 0.6109 0.5915 0.5720 0.5526
1228.000000 0.5332 0.5290 0.5299 0.5391 0.5482
1233.000000 0.5594 0.5580 0.5542 0.5494 0.5446
1238.000000 0.5398 0.5382 0.5380 0.5591 0.5728
1243.000000 0.5865 0.6224 0.6343 0.6427 0.6481
1248.000000 0.6531 0.6566 0.6601 0.6630 0.6652
1253.000000 0.6675 0.6686 0.6696 0.6705 0.6713
1258.000000 0.6719 0.6725 0.6783 0.6879 0.6981
1263.000000 0.7091 0.7232 0.7360 0.7464 0.7538
1268.000000 0.7589 0.7620 0.7641 0.7651 0.7656
1273.000000 0.7677 0.7622 0.7543 0.7464 0.7386
1278.000000 0.7307 0.7228 0.7149 0.7070 0.7048
1283.000000 0.7064 0.7080 0.7118 0.7179 0.7255
1288.000000 0.7353 0.7449 0.7557 0.7616 0.7662
1293.000000 0.7707 0.7745 0.7783 0.7808 0.7828
1298.000000 0.7844 0.7851 0.7849 0.7851 0.7838
1303.000000 0.7822 0.7805 0.7789 0.7774 0.7762
1308.000000 0.7749 0.7739 0.7728 0.7716 0.7700
1313.000000 0.7640 0.7509 0.7357 0.7161 0.6936
1318.000000 0.6711 0.6485 0.6260 0.6035 0.5810
1323.000000 0.5585 0.5359 0.5134 0.4909 0.4684
1328.000000 0.4412 0.4420 0.4587 0.4816 0.5045
1333.000000 0.5274 0.5502 0.5731 0.5960 0.6189
1338.000000 0.6418 0.6646 0.6868 0.6866 0.6868
1343.000000 0.6733 0.6639 0.6545 0.6451 0.6442
1348.000000 0.6408 0.6579 0.6766 0.6953 0.7140
1353.000000 0.7231 0.7275 0.7318 0.7351 0.7377
1358.000000 0.7385 0.7380 0.7373 0.7376 0.7315
1363.000000 0.7233 0.7108 0.7036 0.6964 0.6850
1368.000000 0.6532 0.6220 0.5729 0.5239 0.4748
1373.000000 0.4730 0.4795 0.4860 0.4875 0.4791
1378.000000 0.4707 0.4583 0.4568 0.4783 0.5040
1383.000000 0.5297 0.5553 0.5675 0.5671 0.5665
1388.000000 0.5551 0.5439 0.5327 0.5215 0.5103
1393.000000 0.4991 0.4896 0.4883 0.5056 0.5366
1398.000000 0.5676 0.5986 0.6296 0.6735 0.6891
1403.000000 0.7023 0.7107 0.7186 0.7248 0.7309
1408.000000 0.7371 0.7423 0.7474 0.7525 0.7553
1413.000000 0.7573 0.7592 0.7612 0.7622 0.7595
1418.000000 0.7623 0.7615 0.7607 0.7572 0.7497
1423.000000 0.7409 0.7317 0.7217 0.6964 0.6695
1428.000000 0.6425 0.6155 0.5885 0.5615 0.5370
1433.000000 0.5350 0.5318 0.5178 0.5025 0.4872
1438.000000 0.4718 0.4565 0.4412 0.4281 0.4283
1443.000000 0.4332 0.4395 0.4457 0.4520 0.4563
1448.000000 0.4551 0.4538 0.4390 0.4108 0.3826
1453.000000 0.3544 0.3262 0.2981 0.2783 0.2806
1458.000000 0.2858 0.3250 0.3642 0.4034 0.4425
1463.000000 0.4817 0.4995 0.5073 0.5230 0.5515
1468.000000 0.5800 0.6085 0.6371 0.6656 0.6941
1473.000000 0.7392 0.7668 0.7786 0.7887 0.7954
1478.000000 0.8013 0.8073 0.8133 0.8194 0.8254
1483.000000 0.8313 0.8371 0.8430 0.8468 0.8500
1488.000000 0.8532 0.8564 0.8588 0.8609 0.8629
1493.000000 0.8650 0.8671 0.8691 0.8707 0.8721
1498.000000 0.8735 0.8750 0.8759 0.8760 0.8761
1503.000000 0.8792 0.8764 0.8765 0.8765 0.8765
1508.000000 0.8769 0.8775 0.8781 0.8788 0.8796
1513.000000 0.8804 0.8810 0.8811 0.8812 0.8813
1518.000000 0.8813 0.8812 0.8811 0.8809 0.8808
1523.000000 0.8806 0.8800 0.8794 0.8787 0.8781
1528.000000 0.8775 0.8764 0.8751 0.8738 0.8724
1533.000000 0.8702 0.8678 0.8654 0.8630 0.8607
1538.000000 0.8587 0.8566 0.8557 0.8552 0.8548
1543.000000 0.8546 0.8546 0.8546 0.8529 0.8547
1548.000000 0.8549 0.8550 0.8551 0.8552 0.8553
1553.000000 0.8558 0.8567 0.8575 0.8583 0.8591
1558.000000 0.8600 0.8611 0.8622 0.8633 0.8644
1563.000000 0.8654 0.8658 0.8663 0.8667 0.8671
1568.000000 0.8673 0.8670 0.8666 0.8662 0.8656
1573.000000 0.8651 0.8645 0.8639 0.8642 0.8650
1578.000000 0.8657 0.8665 0.8673 0.8682 0.8691
1583.000000 0.8701 0.8711 0.8720 0.8730 0.8740
1588.000000 0.8750 0.8760 0.8770 0.8780 0.8786
1593.000000 0.8789 0.8792 0.8795 0.8798 0.8801
1598.000000 0.8796 0.8785 0.8774 0.8763 0.8752
1603.000000 0.8737 0.8722 0.8707 0.8692 0.8676
1608.000000 0.8661 0.8645 0.8628 0.8605 0.8583
1613.000000 0.8560 0.8537 0.8515 0.8487 0.8459
1618.000000 0.8431 0.8403 0.8375 0.8335 0.8294
1623.000000 0.8252 0.8199 0.8147 0.8095 0.8037
1628.000000 0.7974 0.7912 0.7849 0.7668 0.7462
1633.000000 0.7277 0.7116 0.6923 0.6526 0.5972
1638.000000 0.5418 0.4864 0.4310 0.4036 0.4033
1643.000000 0.4024 0.4295 0.4760 0.5224 0.5688
1648.000000 0.6153 0.6617 0.7082 0.7546 0.8011
1653.000000 0.8269 0.8427 0.8520 0.8587 0.8646
1658.000000 0.8687 0.8718 0.8749 0.8778 0.8794
1663.000000 0.8809 0.8825 0.8829 0.8830 0.8832
1668.000000 0.8834 0.8836 0.8837 0.8836 0.8835
1673.000000 0.8834 0.8832 0.8831 0.8845 0.8827
1678.000000 0.8825 0.8822 0.8820 0.8818 0.8816
1683.000000 0.8814 0.8812 0.8810 0.8808 0.8816
1688.000000 0.8825 0.8833 0.8842 0.8850 0.8858
1693.000000 0.8866 0.8874 0.8882 0.8890 0.8897
1698.000000 0.8904 0.8905 0.8899 0.8894 0.8889
1703.000000 0.8883 0.8876 0.8868 0.8860 0.8849
1708.000000 0.8835 0.8821 0.8807 0.8777 0.8738
1713.000000 0.8699 0.8654 0.8610 0.8565 0.8490
1718.000000 0.8409 0.8329 0.8248 0.8167 0.8086
1723.000000 0.8006 0.7925 0.7844 0.7801 0.7794
1728.000000 0.7792 0.7786 0.7844 0.7940 0.8035
1733.000000 0.8130 0.8225 0.8320 0.8415 0.8510
1738.000000 0.8606 0.8701 0.8747 0.8775 0.8798
1743.000000 0.8813 0.8828 0.8841 0.8851 0.8861
1748.000000 0.8872 0.8884 0.8895 0.8907 0.8919
1753.000000 0.8931 0.8943 0.8954 0.8965 0.8977
1758.000000 0.8988 0.8999 0.9005 0.9008 0.9011
1763.000000 0.9072 0.9016 0.9017 0.9016 0.9015
1768.000000 0.9014 0.9013 0.9013 0.9012 0.9010
1773.000000 0.9004 0.8999 0.8994 0.8989 0.8983
1778.000000 0.8978 0.8971 0.8965 0.8959 0.8953
1783.000000 0.8947 0.8941 0.8935 0.8927 0.8920
1788.000000 0.8912 0.8905 0.8897 0.8890 0.8882
1793.000000 0.8875 0.8868 0.8860 0.8853 0.8845
1798.000000 0.8838 0.8831 0.8823 0.8816 0.8809
1803.000000 0.8801 0.8794 0.8787 0.8775 0.8774
1808.000000 0.8774 0.8778 0.8786 0.8796 0.8806
1813.000000 0.8819 0.8831 0.8843 0.8854 0.8865
1818.000000 0.8876 0.8887 0.8900 0.8913 0.8925
1823.000000 0.8938 0.8953 0.8968 0.8982 0.8993
1828.000000 0.9003 0.9012 0.9022 0.9032 0.9038
1833.000000 0.9045 0.9051 0.9057 0.9064 0.9072
1838.000000 0.9080 0.9088 0.9095 0.9102 0.9108
1843.000000 0.9114 0.9121 0.9124 0.9126 0.9129
1848.000000 0.9131 0.9134 0.9137 0.9139 0.9142
1853.000000 0.9143 0.9144 0.9145 0.9146 0.9147
1858.000000 0.9149 0.9150 0.9151 0.9152 0.9153
1863.000000 0.9154 0.9155 0.9155 0.9156 0.9157
1868.000000 0.9158 0.9159 0.9160 0.9160 0.9161
1873.000000 0.9162 0.9163 0.9164 0.9164 0.9165
1878.000000 0.9165 0.9165 0.9165 0.9165 0.9165
1883.000000 0.9165 0.9165 0.9165 0.9165 0.9165
1888.000000 0.9165 0.9165 0.9166 0.9166 0.9167
1893.000000 0.9168 0.9169 0.9169 0.9170 0.9171
1898.000000 0.9171 0.9172 0.9173 0.9173 0.9174
1903.000000 0.9175 0.9176 0.9176 0.9176 0.9176
1908.000000 0.9176 0.9175 0.9175 0.9175 0.9174
1913.000000 0.9174 0.9174 0.9173 0.9173 0.9173
1918.000000 0.9172 0.9172 0.9172 0.9171 0.9171
1923.000000 0.9171 0.9170 0.9170 0.9170 0.9169
1928.000000 0.9169 0.9169 0.9168 0.9169 0.9169
1933.000000 0.9170 0.9171 0.9171 0.9172 0.9173
1938.000000 0.9174 0.9174 0.9175 0.9176 0.9177
1943.000000 0.9177 0.9178 0.9179 0.9180 0.9181
1948.000000 0.9182 0.9183 0.9184 0.9185 0.9186
1953.000000 0.9187 0.9188 0.9189 0.9191 0.9192
1958.000000 0.9193 0.9194 0.9195 0.9196 0.9197
1963.000000 0.9198 0.9199 0.9200 0.9202 0.9204
1968.000000 0.9206 0.9209 0.9211 0.9213 0.9216
1973.000000 0.9218 0.9220 0.9223 0.9225 0.9227
1978.000000 0.9230 0.9232 0.9234 0.9236 0.9239
1983.000000 0.9241 0.9243 0.9245 0.9247 0.9250
1988.000000 0.9254 0.9259 0.9264 0.9269 0.9274
1993.000000 0.9266 0.9223 0.9180 0.9138 0.9095
1998.000000 0.9052 0.9009 0.8966 0.8923 0.8880
2003.000000 0.8858 0.8837 0.8834 0.8832 0.8831
2008.000000 0.8831 0.8830 0.8829 0.8827 0.8825
2013.000000 0.8823 0.8822 0.8820 0.8819 0.8817
2018.000000 0.8816 0.8814 0.8813 0.8812 0.8811
2023.000000 0.8809 0.8808 0.8807 0.8806 0.8804
2028.000000 0.8803 0.8803 0.8803 0.8803 0.8803
2033.000000 0.8803 0.8803 0.8803 0.8803 0.8803
2038.000000 0.8803 0.8803 0.8804 0.8805 0.8806
2043.000000 0.8807 0.8808 0.8809 0.8810 0.8811
2048.000000 0.8812 0.8813 0.8814 0.8815 0.8816
2053.000000 0.8817 0.8818 0.8819 0.8820 0.8820
2058.000000 0.8821 0.8821 0.8822 0.8822 0.8823
2063.000000 0.8823 0.8823 0.8823 0.8824 0.8824
2068.000000 0.8825 0.8825 0.8826 0.8826 0.8827
2073.000000 0.8827 0.8828 0.8828 0.8828 0.8828
2078.000000 0.8829 0.8829 0.8830 0.8830 0.8831
2083.000000 0.8831 0.8832 0.8832 0.8833 0.8833
2088.000000 0.8834 0.8834 0.8835 0.8835 0.8836
2093.000000 0.8837 0.8838 0.8839 0.8840 0.8841
2098.000000 0.8842 0.8842 0.8843 0.8844 0.8845
2103.000000 0.8846 0.8847 0.8848 0.8849 0.8850
2108.000000 0.8851 0.8851 0.8852 0.8853 0.8854
2113.000000 0.8855 0.8856 0.8857 0.8858 0.8858
2118.000000 0.8874 0.8859 0.8860 0.8860 0.8861
2123.000000 0.8861 0.8862 0.8862 0.8862 0.8862
2128.000000 0.8863 0.8863 0.8863 0.8863 0.8864
2133.000000 0.8864 0.8864 0.8864 0.8865 0.8865
2138.000000 0.8866 0.8866 0.8866 0.8866 0.8867
2143.000000 0.8867 0.8867 0.8867 0.8868 0.8868
2148.000000 0.8868 0.8868 0.8869 0.8869 0.8869
2153.000000 0.8869 0.8869 0.8869 0.8870 0.8870
2158.000000 0.8870 0.8870 0.8870 0.8870 0.8870
2163.000000 0.8870 0.8871 0.8871 0.8871 0.8871
2168.000000 0.8871 0.8871 0.8872 0.8872 0.8872
2173.000000 0.8872 0.8873 0.8873 0.8874 0.8874
2178.000000 0.8874 0.8874 0.8875 0.8875 0.8876
2183.000000 0.8876 0.8877 0.8877 0.8877 0.8877
2188.000000 0.8878 0.8878 0.8879 0.8879 0.8880
2193.000000 0.8880 0.8880 0.8880 0.8881 0.8881
2198.000000 0.8882 0.8882 0.8883 0.8883 0.8884
2203.000000 0.8884 0.8884 0.8884 0.8885 0.8885
2208.000000 0.8885 0.8885 0.8886 0.8886 0.8886
2213.000000 0.8886 0.8887 0.8887 0.8888 0.8888
2218.000000 0.8888 0.8888 0.8889 0.8889 0.8889
2223.000000 0.8889 0.8890 0.8890 0.8891 0.8891
2228.000000 0.8891 0.8890 0.8890 0.8889 0.8889
2233.000000 0.8888 0.8888 0.8887 0.8887 0.8886
2238.000000 0.8886 0.8885 0.8885 0.8884 0.8884
2243.000000 0.8883 0.8883 0.8882 0.8882 0.8881
2248.000000 0.8881 0.8880 0.8880 0.8879 0.8879
2253.000000 0.8878 0.8878 0.8877 0.8877 0.8876
2258.000000 0.8876 0.8875 0.8875 0.8875 0.8875
2263.000000 0.8874 0.8874 0.8874 0.8874 0.8874
2268.000000 0.8874 0.8874 0.8874 0.8873 0.8873
2273.000000 0.8873 0.8873 0.8873 0.8873 0.8872
2278.000000 0.8872 0.8872 0.8872 0.8871 0.8871
2283.000000 0.8870 0.8870 0.8869 0.8869 0.8868
2288.000000 0.8868 0.8867 0.8867 0.8866 0.8866
2293.000000 0.8865 0.8865 0.8864 0.8864 0.8863
2298.000000 0.8863 0.8859 0.8856 0.8852 0.8849
2303.000000 0.8845 0.8842 0.8839 0.8836 0.8832
2308.000000 0.8829 0.8825 0.8822 0.8818 0.8814
2313.000000 0.8807 0.8801 0.8794 0.8787 0.8780
2318.000000 0.8774 0.8767 0.8760 0.8753 0.8747
2323.000000 0.8738 0.8729 0.8718 0.8708 0.8697
2328.000000 0.8687 0.8677 0.8667 0.8657 0.8647
2333.000000 0.8639 0.8631 0.8623 0.8616 0.8608
2338.000000 0.8601 0.8593 0.8585 0.8579 0.8574
2343.000000 0.8569 0.8564 0.8563 0.8563 0.8562
2348.000000 0.8562 0.8564 0.8592 0.8569 0.8571
2353.000000 0.8573 0.8576 0.8578 0.8581 0.8583
2358.000000 0.8586 0.8588 0.8591 0.8593 0.8596
2363.000000 0.8599 0.8602 0.8606 0.8610 0.8614
2368.000000 0.8619 0.8623 0.8627 0.8638 0.8650
2373.000000 0.8673 0.8697 0.8714 0.8732 0.8745
2378.000000 0.8758 0.8771 0.8785 0.8798 0.8812
2383.000000 0.8825 0.8838 0.8846 0.8855 0.8863
2388.000000 0.8871 0.8879 0.8888 0.8896 0.8905
2393.000000 0.8912 0.8919 0.8925 0.8931 0.8931
2398.000000 0.8932 0.8932 0.8933 0.8933 0.8934
2403.000000 0.8934 0.8935 0.8935 0.8936 0.8937
2408.000000 0.8938 0.8938 0.8939 0.8939 0.8939
2413.000000 0.8939 0.8940 0.8940 0.8941 0.8941
2418.000000 0.8941 0.8941 0.8942 0.8942 0.8942
2423.000000 0.8942 0.8942 0.8942 0.8942 0.8942
2428.000000 0.8942 0.8942 0.8942 0.8942 0.8943
2433.000000 0.8943 0.8943 0.8943 0.8944 0.8944
2438.000000 0.8945 0.8945 0.8946 0.8946 0.8947
2443.000000 0.8947 0.8947 0.8947 0.8948 0.8948
2448.000000 0.8949 0.8949 0.8950 0.8950 0.8950
2453.000000 0.8950 0.8950 0.8950 0.8950 0.8950
2458.000000 0.8950 0.8950 0.8950 0.8950 0.8950
2463.000000 0.8950 0.8950 0.8950 0.8950 0.8950
2468.000000 0.8950 0.8950 0.8950 0.8950 0.8926
2473.000000 0.8949 0.8949 0.8948 0.8948 0.8947
2478.000000 0.8946 0.8945 0.8945 0.8944 0.8944
2483.000000 0.8943 0.8943 0.8942 0.8942 0.8941
2488.000000 0.8941 0.8940 0.8940 0.8939 0.8938
2493.000000 0.8937 0.8937 0.8937 0.8937 0.8936
2498.000000 0.8936 0.8936 0.8936 0.8936 0.8936
2503.000000 0.8935 0.8935 0.8935 0.8935 0.8934
2508.000000 0.8934 0.8934 0.8934 0.8933 0.8933
2513.000000 0.8933 0.8933 0.8932 0.8932 0.8932
2518.000000 0.8932 0.8932 0.8932 0.8931 0.8931
2523.000000 0.8930 0.8930 0.8930 0.8930 0.8929
2528.000000 0.8929 0.8929 0.8929 0.8928 0.8928
2533.000000 0.8927 0.8927 0.8927 0.8927 0.8926
2538.000000 0.8926 0.8926 0.8926 0.8925 0.8925
2543.000000 0.8924 0.8924 0.8924 0.8924 0.8923
2548.000000 0.8923 0.8922 0.8922 0.8921 0.8920
2553.000000 0.8918 0.8917 0.8915 0.8914 0.8912
2558.000000 0.8911 0.8909 0.8907 0.8905 0.8904
2563.000000 0.8902 0.8901 0.8899 0.8898 0.8896
2568.000000 0.8895 0.8893 0.8891 0.8889 0.8888
2573.000000 0.8886 0.8885 0.8883 0.8881 0.8879
2578.000000 0.8878 0.8876 0.8875 0.8873 0.8871
2583.000000 0.8869 0.8868 0.8866 0.8864 0.8862
2588.000000 0.8861 0.8859 0.8857 0.8855 0.8854
2593.000000 0.8852 0.8851 0.8848 0.8845 0.8841
2598.000000 0.8838 0.8834 0.8831 0.8827 0.8824
2603.000000 0.8820 0.8816 0.8812 0.8809 0.8805
2608.000000 0.8802 0.8793 0.8784 0.8775 0.8766
2613.000000 0.8756 0.8747 0.8738 0.8729 0.8719
2618.000000 0.8710 0.8699 0.8689 0.8678 0.8668
2623.000000 0.8657 0.8647 0.8636 0.8625 0.8616
2628.000000 0.8608 0.8600 0.8592 0.8584 0.8577
2633.000000 0.8573 0.8570 0.8567 0.8564 0.8560
2638.000000 0.8557 0.8555 0.8553 0.8551 0.8550
2643.000000 0.8548 0.8547 0.8545 0.8544 0.8539
2648.000000 0.8535 0.8530 0.8526 0.8521 0.8517
2653.000000 0.8510 0.8504 0.8496 0.8489 0.8481
2658.000000 0.8474 0.8466 0.8459 0.8451 0.8444
2663.000000 0.8436 0.8428 0.8420 0.8412 0.8404
2668.000000 0.8396 0.8388 0.8380 0.8372 0.8364
2673.000000 0.8356 0.8348 0.8340 0.8332 0.8325
2678.000000 0.8318 0.8314 0.8311 0.8307 0.8303
2683.000000 0.8299 0.8296 0.8292 0.8288 0.8286
2688.000000 0.8285 0.8288 0.8292 0.8295 0.8299
2693.000000 0.8305 0.8312 0.8318 0.8324 0.8331
2698.000000 0.8339 0.8348 0.8357 0.8365 0.8374
2703.000000 0.8381 0.8388 0.8389 0.8391 0.8391
2708.000000 0.8392 0.8392 0.8392 0.8391 0.8391
2713.000000 0.8389 0.8387 0.8382 0.8377 0.8369
2718.000000 0.8361 0.8352 0.8343 0.8328 0.8313
2723.000000 0.8291 0.8269 0.8229 0.8189 0.8167
2728.000000 0.8146 0.8139 0.8133 0.8130 0.8128
2733.000000 0.8129 0.8131 0.8138 0.8094 0.8165
2738.000000 0.8185 0.8216 0.8247 0.8269 0.8291
2743.000000 0.8306 0.8322 0.8329 0.8337 0.8342
2748.000000 0.8348 0.8352 0.8356 0.8359 0.8362
2753.000000 0.8363 0.8364 0.8364 0.8364 0.8364
2758.000000 0.8364 0.8363 0.8425 0.8360 0.8359
2763.000000 0.8356 0.8353 0.8346 0.8340 0.8330
2768.000000 0.8320 0.8310 0.8300 0.8282 0.8265
2773.000000 0.8246 0.8227 0.8212 0.8197 0.8183
2778.000000 0.8169 0.8155 0.8142 0.8137 0.8132
2783.000000 0.8127 0.8122 0.8116 0.8111 0.8114
2788.000000 0.8118 0.8123 0.8128 0.8133 0.8139
2793.000000 0.8151 0.8164 0.8170 0.8177 0.8174
2798.000000 0.8172 0.8166 0.8161 0.8150 0.8139
2803.000000 0.8122 0.8106 0.8089 0.8073 0.8055
2808.000000 0.8038 0.8011 0.7985 0.7952 0.7920
2813.000000 0.7890 0.7860 0.7828 0.7797 0.7760
2818.000000 0.7724 0.7685 0.7646 0.7612 0.7578
2823.000000 0.7544 0.7511 0.7460 0.7409 0.7357
2828.000000 0.7305 0.7220 0.7135 0.7066 0.6998
2833.000000 0.6928 0.6858 0.6728 0.6598 0.6294
2838.000000 0.5990 0.5744 0.5498 0.5252 0.5007
2843.000000 0.4761 0.4515 0.4269 0.4023 0.3777
2848.000000 0.3531 0.3285 0.3039 0.2793 0.2547
2853.000000 0.2410 0.2273 0.2235 0.2198 0.2205
2858.000000 0.2213 0.2242 0.2271 0.2298 0.2326
2863.000000 0.2318 0.2310 0.2303 0.2296 0.2253
2868.000000 0.2211 0.2093 0.1975 0.1857 0.1739
2873.000000 0.1631 0.1524 0.1464 0.1405 0.1372
2878.000000 0.1339 0.1329 0.1320 0.1321 0.1316
2883.000000 0.1328 0.1333 0.1350 0.1367 0.1396
2888.000000 0.1425 0.1464 0.1503 0.1540 0.1577
2893.000000 0.1596 0.1615 0.1633 0.1651 0.1656
2898.000000 0.1661 0.1662 0.1681 0.1657 0.1651
2903.000000 0.1577 0.1504 0.1430 0.1357 0.1283
2908.000000 0.1210 0.1136 0.1062 0.0988 0.0915
2913.000000 0.0841 0.0768 0.0723 0.0679 0.0666
2918.000000 0.0653 0.0649 0.0645 0.0640 0.0636
2923.000000 0.0629 0.0623 0.0614 0.0605 0.0591
2928.000000 0.0577 0.0559 0.0541 0.0522 0.0504
2933.000000 0.0498 0.0493 0.0491 0.0489 0.0491
2938.000000 0.0491 0.0499 0.0505 0.0567 0.0630
2943.000000 0.0693 0.0756 0.0818 0.0881 0.0943
2948.000000 0.1006 0.1069 0.1132 0.1194 0.1257
2953.000000 0.1312 0.1367 0.1381 0.1395 0.1411
2958.000000 0.1427 0.1502 0.1578 0.1698 0.1818
2963.000000 0.1938 0.2059 0.2179 0.2299 0.2419
2968.000000 0.2540 0.2660 0.2781 0.2901 0.3021
2973.000000 0.3141 0.3262 0.3382 0.3502 0.3622
2978.000000 0.3743 0.3863 0.3983 0.4085 0.4188
2983.000000 0.4177 0.4167 0.4125 0.4083 0.4041
2988.000000 0.3999 0.3979 0.3960 0.4055 0.4150
2993.000000 0.4364 0.4579 0.4794 0.5009 0.5223
2998.000000 0.5438 0.5652 0.5867 0.6082 0.6297
3003.000000 0.6511 0.6726 0.6827 0.6929 0.7058
3008.000000 0.7188 0.7275 0.7363 0.7417 0.7472
3013.000000 0.7521 0.7571 0.7612 0.7654 0.7697
3018.000000 0.7740 0.7784 0.7829 0.7867 0.7905
3023.000000 0.7933 0.7962 0.7991 0.8020 0.8045
3028.000000 0.8071 0.8087 0.8104 0.8120 0.8137
3033.000000 0.8153 0.8170 0.8185 0.8201 0.8213
3038.000000 0.8226 0.8238 0.8250 0.8262 0.8274
3043.000000 0.8285 0.8296 0.8299 0.8303 0.8306
3048.000000 0.8310 0.8312 0.8326 0.8314 0.8313
3053.000000 0.8311 0.8310 0.8309 0.8308 0.8305
3058.000000 0.8302 0.8295 0.8288 0.8281 0.8274
3063.000000 0.8258 0.8243 0.8225 0.8208 0.8161
3068.000000 0.8115 0.8073 0.8031 0.7988 0.7946
3073.000000 0.7899 0.7853 0.7801 0.7749 0.7681
3078.000000 0.7614 0.7526 0.7438 0.7350 0.7263
3083.000000 0.7175 0.7087 0.6999 0.6912 0.6889
3088.000000 0.6867 0.6869 0.6850 0.6914 0.6957
3093.000000 0.7030 0.7103 0.7175 0.7248 0.7320
3098.000000 0.7393 0.7465 0.7538 0.7610 0.7683
3103.000000 0.7756 0.7829 0.7901 0.7974 0.8046
3108.000000 0.8119 0.8191 0.8264 0.8317 0.8371
3113.000000 0.8400 0.8430 0.8459 0.8488 0.8517
3118.000000 0.8546 0.8574 0.8602 0.8627 0.8652
3123.000000 0.8675 0.8698 0.8720 0.8742 0.8764
3128.000000 0.8786 0.8798 0.8810 0.8818 0.8826
3133.000000 0.8834 0.8842 0.8847 0.8852 0.8854
3138.000000 0.8857 0.8859 0.8861 0.8863 0.8866
3143.000000 0.8867 0.8868 0.8869 0.8870 0.8870
3148.000000 0.8871 0.8872 0.8873 0.8873 0.8874
3153.000000 0.8874 0.8874 0.8874 0.8874 0.8874
3158.000000 0.8874 0.8874 0.8875 0.8875 0.8875
3163.000000 0.8875 0.8875 0.8875 0.8875 0.8875
3168.000000 0.8875 0.8875 0.8875 0.8875 0.8875
3173.000000 0.8875 0.8875 0.8874 0.8874 0.8874
3178.000000 0.8874 0.8874 0.8874 0.8874 0.8874
3183.000000 0.8874 0.8874 0.8874 0.8874 0.8873
3188.000000 0.8873 0.8873 0.8873 0.8873 0.8873
3193.000000 0.8873 0.8873 0.8873 0.8873 0.8872
3198.000000 0.8872 0.8872 0.8872 0.8871 0.8871
3203.000000 0.8870 0.8870 0.8870 0.8870 0.8869
3208.000000 0.8866 0.8868 0.8868 0.8868 0.8868
3213.000000 0.8867 0.8867 0.8866 0.8866 0.8866
3218.000000 0.8866 0.8865 0.8865 0.8864 0.8864
3223.000000 0.8864 0.8864 0.8863 0.8863 0.8862
3228.000000 0.8862 0.8861 0.8861 0.8860 0.8860
3233.000000 0.8859 0.8859 0.8858 0.8858 0.8857
3238.000000 0.8857 0.8856 0.8856 0.8855 0.8855
3243.000000 0.8854 0.8854 0.8853 0.8853 0.8852
3248.000000 0.8852 0.8852 0.8852 0.8851 0.8851
3253.000000 0.8850 0.8850 0.8849 0.8849 0.8848
3258.000000 0.8848 0.8847 0.8847 0.8846 0.8846
3263.000000 0.8845 0.8845 0.8844 0.8844 0.8843
3268.000000 0.8843 0.8842 0.8842 0.8841 0.8841
3273.000000 0.8840 0.8840 0.8839 0.8839 0.8838
3278.000000 0.8838 0.8838 0.8838 0.8837 0.8837
3283.000000 0.8836 0.8836 0.8835 0.8835 0.8833
3288.000000 0.8832 0.8830 0.8829 0.8828 0.8827
3293.000000 0.8825 0.8824 0.8822 0.8821 0.8819
3298.000000 0.8818 0.8816 0.8815 0.8813 0.8812
3303.000000 0.8810 0.8809 0.8807 0.8806 0.8804
3308.000000 0.8803 0.8801 0.8800 0.8797 0.8794
3313.000000 0.8790 0.8787 0.8784 0.8781 0.8778
3318.000000 0.8775 0.8772 0.8769 0.8766 0.8763
3323.000000 0.8760 0.8757 0.8753 0.8750 0.8747
3328.000000 0.8744 0.8740 0.8736 0.8731 0.8727
3333.000000 0.8722 0.8718 0.8713 0.8709 0.8704
3338.000000 0.8700 0.8695 0.8691 0.8686 0.8682
3343.000000 0.8678 0.8674 0.8669 0.8665 0.8659
3348.000000 0.8654 0.8649 0.8644 0.8639 0.8634
3353.000000 0.8629 0.8624 0.8619 0.8614 0.8608
3358.000000 0.8603 0.8598 0.8593 0.8588 0.8583
3363.000000 0.8578 0.8573 0.8568 0.8563 0.8558
3368.000000 0.8554 0.8549 0.8544 0.8539 0.8535
3373.000000 0.8530 0.8525 0.8520 0.8516 0.8511
3378.000000 0.8506 0.8501 0.8497 0.8492 0.8488
3383.000000 0.8483 0.8478 0.8473 0.8469 0.8464
3388.000000 0.8459 0.8454 0.8450 0.8445 0.8440
3393.000000 0.8435 0.8430 0.8424 0.8419 0.8414
3398.000000 0.8409 0.8403 0.8398 0.8392 0.8387
3403.000000 0.8381 0.8376 0.8370 0.8365 0.8358
3408.000000 0.8352 0.8344 0.8337 0.8330 0.8323
3413.000000 0.8315 0.8308 0.8301 0.8294 0.8286
3418.000000 0.8279 0.8272 0.8265 0.8257 0.8250
3423.000000 0.8243 0.8236 0.8228 0.8221 0.8214
3428.000000 0.8207 0.8197 0.8187 0.8177 0.8167
3433.000000 0.8157 0.8147 0.8137 0.8127 0.8117
3438.000000 0.8107 0.8097 0.8087 0.8077 0.8067
3443.000000 0.8057 0.8047 0.8035 0.8024 0.8012
3448.000000 0.8001 0.7989 0.7977 0.7965 0.7954
3453.000000 0.7942 0.7931 0.7919 0.7908 0.7896
3458.000000 0.7884 0.7872 0.7860 0.7845 0.7830
3463.000000 0.7815 0.7801 0.7786 0.7772 0.7757
3468.000000 0.7742 0.7728 0.7715 0.7705 0.7695
3473.000000 0.7685 0.7675 0.7665 0.7655 0.7645
3478.000000 0.7635 0.7629 0.7623 0.7618 0.7613
3483.000000 0.7607 0.7602 0.7596 0.7591 0.7588
3488.000000 0.7586 0.7585 0.7584 0.7582 0.7581
3493.000000 0.7579 0.7578 0.7576 0.7568 0.7576
3498.000000 0.7577 0.7578 0.7579 0.7580 0.7581
3503.000000 0.7582 0.7584 0.7585 0.7586 0.7587
3508.000000 0.7588 0.7589 0.7591 0.7592 0.7594
3513.000000 0.7595 0.7597 0.7598 0.7599 0.7596
3518.000000 0.7594 0.7591 0.7589 0.7586 0.7583
3523.000000 0.7580 0.7578 0.7571 0.7565 0.7556
3528.000000 0.7547 0.7538 0.7529 0.7520 0.7511
3533.000000 0.7497 0.7483 0.7463 0.7443 0.7418
3538.000000 0.7394 0.7366 0.7338 0.7274 0.7211
3543.000000 0.7140 0.7070 0.7000 0.6930 0.6859
3548.000000 0.6789 0.6718 0.6648 0.6577 0.6507
3553.000000 0.6436 0.6366 0.6295 0.6225 0.6154
3558.000000 0.6084 0.6013 0.5943 0.5873 0.5803
3563.000000 0.5732 0.5662 0.5629 0.5596 0.5569
3568.000000 0.5543 0.5528 0.5513 0.5508 0.5493
3573.000000 0.5509 0.5514 0.5558 0.5603 0.5667
3578.000000 0.5731 0.5794 0.5858 0.5921 0.5985
3583.000000 0.6049 0.6113 0.6176 0.6240 0.6303
3588.000000 0.6367 0.6430 0.6494 0.6558 0.6622
3593.000000 0.6685 0.6749 0.6812 0.6876 0.6941
3598.000000 0.7007 0.7041 0.7076 0.7121 0.7167
3603.000000 0.7213 0.7259 0.7305 0.7352 0.7430
3608.000000 0.7509 0.7556 0.7603 0.7636 0.7670
3613.000000 0.7684 0.7699 0.7711 0.7723 0.7735
3618.000000 0.7747 0.7748 0.7750 0.7750 0.7751
3623.000000 0.7751 0.7752 0.7748 0.7745 0.7739
3628.000000 0.7733 0.7726 0.7720 0.7716 0.7713
3633.000000 0.7710 0.7708 0.7706 0.7704 0.7702
3638.000000 0.7700 0.7715 0.7731 0.7794 0.7857
3643.000000 0.7918 0.7979 0.8017 0.8055 0.8090
3648.000000 0.8126 0.8156 0.8187 0.8216 0.8246
3653.000000 0.8274 0.8303 0.8330 0.8357 0.8384
3658.000000 0.8412 0.8434 0.8456 0.8472 0.8488
3663.000000 0.8503 0.8519 0.8533 0.8548 0.8556
3668.000000 0.8564 0.8572 0.8580 0.8588 0.8596
3673.000000 0.8601 0.8607 0.8608 0.8609 0.8610
3678.000000 0.8611 0.8612 0.8613 0.8614 0.8615
3683.000000 0.8615 0.8615 0.8613 0.8611 0.8608
3688.000000 0.8606 0.8604 0.8602 0.8599 0.8597
3693.000000 0.8595 0.8593 0.8590 0.8588 0.8585
3698.000000 0.8583 0.8584 0.8585 0.8586 0.8588
3703.000000 0.8589 0.8591 0.8592 0.8594 0.8595
3708.000000 0.8596 0.8603 0.8611 0.8619 0.8627
3713.000000 0.8635 0.8643 0.8651 0.8659 0.8667
3718.000000 0.8675 0.8683 0.8691 0.8698 0.8706
3723.000000 0.8713 0.8720 0.8727 0.8734 0.8741
3728.000000 0.8748 0.8755 0.8762 0.8769 0.8776
3733.000000 0.8782 0.8789 0.8790 0.8792 0.8794
3738.000000 0.8796 0.8797 0.8799 0.8800 0.8802
3743.000000 0.8804 0.8806 0.8807 0.8809 0.8810
3748.000000 0.8812 0.8810 0.8808 0.8806 0.8804
3753.000000 0.8801 0.8799 0.8797 0.8795 0.8793
3758.000000 0.8791 0.8790 0.8789 0.8789 0.8789
3763.000000 0.8789 0.8789 0.8789 0.8789 0.8789
3768.000000 0.8789 0.8789 0.8789 0.8789 0.8789
3773.000000 0.8790 0.8792 0.8794 0.8797 0.8799
3778.000000 0.8802 0.8804 0.8807 0.8810 0.8813
3783.000000 0.8815 0.8818 0.8819 0.8821 0.8821
3788.000000 0.8821 0.8821 0.8821 0.8821 0.8822
3793.000000 0.8822 0.8822 0.8822 0.8822 0.8822
3798.000000 0.8823 0.8823 0.8823 0.8823 0.8824
3803.000000 0.8824 0.8824 0.8824 0.8824 0.8824
3808.000000 0.8825 0.8824 0.8824 0.8823 0.8823
3813.000000 0.8822 0.8822 0.8821 0.8821 0.8820
3818.000000 0.8819 0.8818 0.8818 0.8817 0.8817
3823.000000 0.8816 0.8816 0.8815 0.8815 0.8814
3828.000000 0.8814 0.8813 0.8812 0.8811 0.8811
3833.000000 0.8810 0.8810 0.8809 0.8809 0.8808
3838.000000 0.8807 0.8805 0.8804 0.8803 0.8802
3843.000000 0.8800 0.8799 0.8798 0.8797 0.8795
3848.000000 0.8794 0.8793 0.8792 0.8790 0.8789
3853.000000 0.8788 0.8787 0.8785 0.8784 0.8783
3858.000000 0.8782 0.8780 0.8779 0.8778 0.8777
3863.000000 0.8775 0.8774 0.8773 0.8772 0.8770
3868.000000 0.8769 0.8768 0.8767 0.8765 0.8764
3873.000000 0.8763 0.8762 0.8761 0.8760 0.8759
3878.000000 0.8758 0.8756 0.8755 0.8754 0.8753
3883.000000 0.8752 0.8751 0.8749 0.8748 0.8747
3888.000000 0.8684 0.8745 0.8744 0.8743 0.8742
3893.000000 0.8740 0.8739 0.8738 0.8737 0.8736
3898.000000 0.8735 0.8734 0.8734 0.8733 0.8733
3903.000000 0.8733 0.8733 0.8732 0.8732 0.8731
3908.000000 0.8731 0.8730 0.8730 0.8729 0.8729
3913.000000 0.8728 0.8728 0.8727 0.8727 0.8727
3918.000000 0.8728 0.8730 0.8733 0.8736 0.8739
3923.000000 0.8741 0.8744 0.8747 0.8750 0.8752
3928.000000 0.8755 0.8758 0.8761 0.8763 0.8766
3933.000000 0.8768 0.8771 0.8773 0.8776 0.8778
3938.000000 0.8780 0.8782 0.8785 0.8787 0.8789
3943.000000 0.8791 0.8793 0.8795 0.8798 0.8800
3948.000000 0.8802 0.8802 0.8803 0.8803 0.8803
3953.000000 0.8803 0.8804 0.8804 0.8805 0.8805
3958.000000 0.8805 0.8805 0.8806 0.8805 0.8804
3963.000000 0.8803 0.8803 0.8802 0.8802 0.8801
3968.000000 0.8800 0.8799 0.8799 0.8798 0.8798
3973.000000 0.8797 0.8796 0.8795 0.8795 0.8794
3978.000000 0.8793 0.8792 0.8792 0.8791 0.8790
3983.000000 0.8789 0.8789 0.8788 0.8787 0.8786
3988.000000 0.8785 0.8784 0.8784 0.8783 0.8782
3993.000000 0.8781 0.8781 0.8780 0.8779 0.8778
3998.000000 0.8778 0.8777 0.8777
##END=
