##TITLE=FERRIC OXALATE
##JCAMP-DX=4.24
##DATA TYPE=INFRARED SPECTRUM
##CLASS=COBLENTZ
##OWNER=COBLENTZ SOCIETY
Collection (C) 2018 copyright by the U.S. Secretary of Commerce
on behalf of the United States of America. All rights reserved.
##DATE=Not specified, most likely prior to 1970
##MOLFORM=Fe2 ( C2 O4)3  * 5 H2 O
##SOURCE REFERENCE=COBLENTZ NO. 84
##$NIST ID=B6000084
##$NIST SOURCE=COBLENTZ
##$NIST IMAGE=cob84
##SPECTROMETER/DATA SYSTEM=Not specified, most likely a prism, grating, or hybrid spectrometer.
##STATE=SOLID (KBr DISC)
##SAMPLING PROCEDURE=TRANSMISSION
##RESOLUTION=4
##DATA PROCESSING=DIGITIZED BY NIST FROM HARD COPY
##XUNITS=MICROMETERS
##YUNITS=TRANSMITTANCE
##XFACTOR=1.000000
##YFACTOR=1
##DELTAX=000.007582
##FIRSTX=1.998
##LASTX=14.9487
##FIRSTY=0.676
##MAXX=14.9487
##MINX=1.998
##MAXY=0.939
##MINY=0.126
##NPOINTS=1709
##XYDATA=(X++(Y..Y))
1.998000 0.6760 0.6760 0.6760 0.6760 0.6760
2.035933 0.6760 0.6760 0.6780 0.6790 0.6810
2.074000 0.6820 0.6830 0.6850 0.6860 0.6880
2.111933 0.6910 0.6920 0.6940 0.6950 0.6970
2.150000 0.6980 0.7010 0.7030 0.7060 0.7070
2.187933 0.7100 0.7120 0.7150 0.7180 0.7190
2.226000 0.7210 0.7220 0.7250 0.7280 0.7310
2.263933 0.7340 0.7380 0.7410 0.7430 0.7440
2.302000 0.7460 0.7490 0.7490 0.7520 0.7530
2.339933 0.7560 0.7580 0.7610 0.7650 0.7680
2.377000 0.7700 0.7720 0.7750 0.7770 0.7780
2.414933 0.7800 0.7830 0.7830 0.7840 0.7860
2.453000 0.7870 0.7890 0.7900 0.7930 0.7950
2.490933 0.7960 0.7960 0.7980 0.8010 0.8020
2.529000 0.8020 0.8040 0.8040 0.8050 0.8050
2.566933 0.8080 0.8100 0.8130 0.8160 0.8170
2.605000 0.8180 0.8210 0.8240 0.8270 0.8300
2.642933 0.8360 0.8380 0.8390 0.8410 0.8420
2.681000 0.8440 0.8450 0.8500 0.8530 0.8560
2.718933 0.8560 0.8570 0.8570 0.8570 0.8560
2.757000 0.8540 0.8240 0.8080 0.7780 0.7400
2.794933 0.6980 0.6720 0.6020 0.5770 0.5440
2.832000 0.4860 0.4640 0.4480 0.4360 0.4250
2.869933 0.4150 0.4080 0.4000 0.3940 0.3880
2.908000 0.3790 0.3750 0.3690 0.3640 0.3560
2.945933 0.3530 0.3500 0.3470 0.3450 0.3420
2.984000 0.3410 0.3410 0.3440 0.3530 0.3540
3.021933 0.3570 0.3630 0.3690 0.3760 0.3810
3.060000 0.3850 0.3880 0.3910 0.3960 0.4000
3.097933 0.4030 0.4060 0.4100 0.4150 0.4190
3.136000 0.4220 0.4270 0.4300 0.4330 0.4330
3.173933 0.4360 0.4400 0.4430 0.4460 0.4490
3.211000 0.4520 0.4540 0.4550 0.4580 0.4590
3.248933 0.4610 0.4620 0.4650 0.4680 0.4730
3.287000 0.4760 0.4770 0.4770 0.4770 0.4790
3.324933 0.4790 0.4800 0.4820 0.4850 0.4890
3.363000 0.4920 0.4940 0.4970 0.4980 0.5000
3.400933 0.5020 0.5040 0.5080 0.5110 0.5140
3.439000 0.5170 0.5200 0.5220 0.5260 0.5310
3.476933 0.5340 0.5370 0.5400 0.5450 0.5480
3.515000 0.5510 0.5560 0.5590 0.5650 0.5680
3.552933 0.5720 0.5740 0.5780 0.5810 0.5870
3.591000 0.5910 0.5960 0.5990 0.6020 0.6050
3.628933 0.6080 0.6110 0.6140 0.6170 0.6200
3.666000 0.6240 0.6270 0.6330 0.6400 0.6460
3.703933 0.6490 0.6540 0.6550 0.6570 0.6580
3.742000 0.6610 0.6640 0.6660 0.6670 0.6720
3.779933 0.6750 0.6790 0.6830 0.6850 0.6880
3.818000 0.6890 0.6910 0.6920 0.6940 0.6950
3.855933 0.7000 0.7010 0.7030 0.7060 0.7100
3.894000 0.7130 0.7180 0.7240 0.7250 0.7280
3.931933 0.7290 0.7320 0.7370 0.7410 0.7440
3.970000 0.7470 0.7470 0.7490 0.7500 0.7520
4.007933 0.7530 0.7530 0.7560 0.7590 0.7620
4.045000 0.7650 0.7670 0.7680 0.7710 0.7740
4.082933 0.7750 0.7770 0.7770 0.7780 0.7780
4.121000 0.7780 0.7780 0.7780 0.7800 0.7810
4.158933 0.7810 0.7830 0.7830 0.7860 0.7890
4.197000 0.7890 0.7900 0.7900 0.7900 0.7900
4.234933 0.7900 0.7900 0.7900 0.7890 0.7890
4.273000 0.7890 0.7890 0.7890 0.7890 0.7890
4.310933 0.7900 0.7900 0.7920 0.7930 0.7950
4.349000 0.7980 0.8010 0.8040 0.8070 0.8100
4.386933 0.8130 0.8160 0.8200 0.8230 0.8240
4.425000 0.8260 0.8290 0.8300 0.8320 0.8350
4.462933 0.8360 0.8390 0.8410 0.8410 0.8440
4.500000 0.8470 0.8500 0.8530 0.8540 0.8560
4.537933 0.8570 0.8590 0.8620 0.8630 0.8640
4.576000 0.8660 0.8660 0.8730 0.8760 0.8780
4.613933 0.8780 0.8780 0.8780 0.8790 0.8810
4.652000 0.8840 0.8850 0.8870 0.8870 0.8900
4.689933 0.8910 0.8930 0.8960 0.8960 0.8990
4.728000 0.9000 0.9020 0.9030 0.9030 0.9050
4.765933 0.9050 0.9060 0.9080 0.9090 0.9100
4.804000 0.9120 0.9130 0.9150 0.9160 0.9160
4.841933 0.9180 0.9190 0.9210 0.9220 0.9240
4.880000 0.9240 0.9250 0.9250 0.9250 0.9270
4.917933 0.9270 0.9280 0.9280 0.9300 0.9310
4.955000 0.9310 0.9330 0.9330 0.9340 0.9360
4.992933 0.9360 0.9370 0.9370 0.9370 0.9370
5.031000 0.9370 0.9370 0.9370 0.9390 0.9390
5.068933 0.9390 0.9370 0.9370 0.9360 0.9340
5.107000 0.9330 0.9330 0.9310 0.9300 0.9300
5.144933 0.9300 0.9300 0.9300 0.9300 0.9300
5.183000 0.9300 0.9280 0.9280 0.9280 0.9270
5.220933 0.9250 0.9250 0.9240 0.9220 0.9210
5.259000 0.9190 0.9160 0.9150 0.9150 0.9130
5.296933 0.9100 0.9090 0.9080 0.9060 0.9050
5.334000 0.9050 0.9030 0.8990 0.8960 0.8900
5.371933 0.8840 0.8810 0.8790 0.8780 0.8760
5.410000 0.8720 0.8670 0.8630 0.8560 0.8540
5.447933 0.8510 0.8500 0.8390 0.8350 0.8300
5.486000 0.8230 0.8080 0.8020 0.7990 0.7950
5.523933 0.7890 0.7840 0.7810 0.7770 0.7680
5.562000 0.7610 0.7550 0.7410 0.7250 0.7090
5.599933 0.6950 0.6890 0.6820 0.6730 0.6670
5.638000 0.6420 0.6300 0.6030 0.5770 0.5600
5.675933 0.5450 0.5250 0.5000 0.4820 0.4590
5.714000 0.4270 0.4090 0.3470 0.2750 0.2680
5.751933 0.2580 0.2460 0.2430 0.2410 0.2410
5.789000 0.2410 0.2410 0.2410 0.2370 0.2340
5.826933 0.2280 0.2270 0.2270 0.2270 0.2250
5.865000 0.2250 0.2240 0.2210 0.2150 0.2070
5.902933 0.2040 0.2010 0.2000 0.1940 0.1830
5.941000 0.1670 0.1570 0.1540 0.1480 0.1450
5.978933 0.1360 0.1350 0.1330 0.1330 0.1330
6.017000 0.1320 0.1320 0.1320 0.1320 0.1320
6.054933 0.1330 0.1330 0.1360 0.1390 0.1420
6.093000 0.1420 0.1430 0.1430 0.1430 0.1420
6.130933 0.1390 0.1390 0.1360 0.1350 0.1320
6.168000 0.1290 0.1270 0.1260 0.1260 0.1260
6.205933 0.1260 0.1260 0.1270 0.1350 0.1400
6.244000 0.1480 0.1520 0.1630 0.1690 0.1760
6.281933 0.1880 0.1950 0.2010 0.2100 0.2220
6.320000 0.2320 0.2460 0.2620 0.2750 0.2890
6.357933 0.2980 0.3100 0.3170 0.3290 0.3330
6.396000 0.3360 0.3470 0.3590 0.3750 0.3870
6.433933 0.3960 0.4060 0.4150 0.4180 0.4210
6.472000 0.4240 0.4270 0.4310 0.4420 0.4560
6.509933 0.4760 0.4890 0.4950 0.5000 0.5020
6.548000 0.5070 0.5140 0.5200 0.5290 0.5380
6.585933 0.5500 0.5530 0.5560 0.5590 0.5620
6.623000 0.5630 0.5680 0.5780 0.5890 0.5930
6.660933 0.5990 0.6030 0.6080 0.6110 0.6120
6.699000 0.6150 0.6180 0.6200 0.6200 0.6200
6.736933 0.6180 0.6180 0.6180 0.6180 0.6170
6.775000 0.6150 0.6080 0.5930 0.5890 0.5870
6.812933 0.5860 0.5800 0.5720 0.5690 0.5680
6.851000 0.5680 0.5620 0.5540 0.5480 0.5400
6.888933 0.5310 0.5260 0.5230 0.5200 0.5170
6.927000 0.5170 0.5160 0.5160 0.5140 0.5140
6.964933 0.5140 0.5140 0.5140 0.5140 0.5140
7.003000 0.5160 0.5160 0.5170 0.5170 0.5200
7.040933 0.5230 0.5260 0.5290 0.5310 0.5310
7.078000 0.5320 0.5320 0.5340 0.5340 0.5340
7.115933 0.5340 0.5340 0.5340 0.5340 0.5340
7.154000 0.5340 0.5340 0.5340 0.5350 0.5350
7.191933 0.5370 0.5380 0.5410 0.5440 0.5510
7.230000 0.5540 0.5620 0.5650 0.5710 0.5720
7.267933 0.5750 0.5800 0.5840 0.5840 0.5860
7.306000 0.5860 0.5860 0.5870 0.5870 0.5860
7.343933 0.5840 0.5810 0.5770 0.5690 0.5620
7.382000 0.5510 0.5440 0.5370 0.5320 0.5290
7.419933 0.5250 0.5250 0.5320 0.5400 0.5480
7.457000 0.5540 0.5660 0.5830 0.5910 0.5960
7.494933 0.5990 0.6000 0.6000 0.6000 0.5990
7.533000 0.5900 0.5860 0.5810 0.5750 0.5720
7.570933 0.5690 0.5650 0.5620 0.5590 0.5560
7.609000 0.5530 0.5500 0.5480 0.5470 0.5430
7.646933 0.5410 0.5380 0.5370 0.5320 0.5290
7.685000 0.5280 0.5260 0.5260 0.5260 0.5230
7.722933 0.5230 0.5220 0.5200 0.5190 0.5110
7.761000 0.5070 0.4950 0.4800 0.4700 0.4590
7.798933 0.4480 0.4340 0.4210 0.4060 0.3940
7.837000 0.3900 0.3790 0.3670 0.3620 0.3560
7.874933 0.3540 0.3530 0.3510 0.3510 0.3510
7.912000 0.3510 0.3510 0.3500 0.3500 0.3500
7.949933 0.3500 0.3500 0.3510 0.3530 0.3590
7.988000 0.3660 0.3760 0.3840 0.3910 0.3990
8.025933 0.4090 0.4190 0.4240 0.4330 0.4400
8.064000 0.4460 0.4550 0.4620 0.4730 0.4820
8.101933 0.4920 0.5000 0.5080 0.5130 0.5190
8.140000 0.5250 0.5340 0.5400 0.5450 0.5510
8.177933 0.5570 0.5660 0.5710 0.5800 0.5860
8.216000 0.5900 0.5970 0.6020 0.6060 0.6090
8.253933 0.6140 0.6200 0.6240 0.6320 0.6370
8.291000 0.6390 0.6460 0.6510 0.6550 0.6580
8.328933 0.6600 0.6610 0.6640 0.6670 0.6690
8.367000 0.6730 0.6750 0.6780 0.6820 0.6850
8.404933 0.6860 0.6860 0.6880 0.6910 0.6950
8.443000 0.6980 0.7010 0.7030 0.7040 0.7090
8.480933 0.7120 0.7150 0.7150 0.7180 0.7190
8.519000 0.7190 0.7210 0.7220 0.7240 0.7250
8.556933 0.7270 0.7270 0.7290 0.7310 0.7320
8.595000 0.7340 0.7370 0.7370 0.7380 0.7400
8.632933 0.7410 0.7410 0.7440 0.7440 0.7460
8.671000 0.7470 0.7470 0.7490 0.7520 0.7530
8.708933 0.7560 0.7590 0.7610 0.7620 0.7620
8.746000 0.7640 0.7640 0.7650 0.7650 0.7670
8.783933 0.7670 0.7670 0.7680 0.7680 0.7700
8.822000 0.7710 0.7710 0.7710 0.7720 0.7720
8.859933 0.7720 0.7740 0.7750 0.7750 0.7750
8.898000 0.7750 0.7770 0.7770 0.7770 0.7780
8.935933 0.7780 0.7780 0.7800 0.7800 0.7800
8.974000 0.7800 0.7810 0.7810 0.7810 0.7810
9.011933 0.7830 0.7840 0.7860 0.7860 0.7860
9.050000 0.7870 0.7870 0.7870 0.7870 0.7870
9.087933 0.7890 0.7890 0.7890 0.7890 0.7890
9.126000 0.7890 0.7890 0.7890 0.7890 0.7890
9.163933 0.7890 0.7900 0.7900 0.7900 0.7900
9.201000 0.7900 0.7900 0.7900 0.7900 0.7920
9.238933 0.7920 0.7930 0.7930 0.7950 0.7930
9.277000 0.7930 0.7950 0.7950 0.7950 0.7960
9.314933 0.7980 0.7990 0.7990 0.8010 0.8020
9.353000 0.8040 0.8040 0.8040 0.8050 0.8050
9.390933 0.8050 0.8070 0.8070 0.8080 0.8080
9.429000 0.8080 0.8100 0.8100 0.8100 0.8110
9.466933 0.8110 0.8130 0.8140 0.8140 0.8160
9.505000 0.8160 0.8170 0.8170 0.8170 0.8170
9.542933 0.8170 0.8180 0.8180 0.8180 0.8200
9.580000 0.8200 0.8210 0.8230 0.8240 0.8240
9.617933 0.8260 0.8260 0.8260 0.8260 0.8260
9.656000 0.8260 0.8270 0.8270 0.8270 0.8290
9.693933 0.8290 0.8290 0.8290 0.8300 0.8300
9.732000 0.8320 0.8320 0.8320 0.8330 0.8330
9.769933 0.8330 0.8330 0.8330 0.8350 0.8350
9.808000 0.8360 0.8360 0.8360 0.8380 0.8380
9.845933 0.8390 0.8390 0.8390 0.8410 0.8410
9.884000 0.8420 0.8420 0.8420 0.8420 0.8440
9.921933 0.8440 0.8450 0.8450 0.8450 0.8450
9.960000 0.8470 0.8470 0.8470 0.8470 0.8470
9.997933 0.8470 0.8470 0.8470 0.8450 0.8470
10.035000 0.8470 0.8470 0.8470 0.8470 0.8470
10.072933 0.8480 0.8480 0.8500 0.8500 0.8500
10.111000 0.8500 0.8510 0.8510 0.8530 0.8530
10.148933 0.8540 0.8540 0.8540 0.8540 0.8540
10.187000 0.8540 0.8540 0.8560 0.8560 0.8560
10.224933 0.8560 0.8560 0.8560 0.8560 0.8560
10.263000 0.8570 0.8570 0.8570 0.8570 0.8590
10.300933 0.8590 0.8590 0.8590 0.8590 0.8590
10.339000 0.8590 0.8590 0.8590 0.8600 0.8600
10.376933 0.8600 0.8600 0.8600 0.8600 0.8620
10.414000 0.8620 0.8620 0.8620 0.8620 0.8620
10.451933 0.8620 0.8620 0.8620 0.8620 0.8620
10.490000 0.8620 0.8620 0.8620 0.8620 0.8620
10.527933 0.8620 0.8620 0.8620 0.8620 0.8620
10.566000 0.8620 0.8620 0.8620 0.8620 0.8620
10.603933 0.8620 0.8620 0.8620 0.8620 0.8620
10.642000 0.8620 0.8620 0.8620 0.8620 0.8620
10.679933 0.8620 0.8600 0.8590 0.8570 0.8560
10.718000 0.8540 0.8540 0.8530 0.8530 0.8510
10.755933 0.8510 0.8500 0.8470 0.8450 0.8420
10.794000 0.8410 0.8380 0.8360 0.8350 0.8320
10.831933 0.8290 0.8260 0.8240 0.8230 0.8180
10.869000 0.8160 0.8130 0.8110 0.8070 0.8040
10.906933 0.7990 0.7960 0.7950 0.7920 0.7900
10.945000 0.7890 0.7870 0.7860 0.7840 0.7840
10.982933 0.7830 0.7810 0.7810 0.7800 0.7800
11.021000 0.7800 0.7780 0.7780 0.7780 0.7780
11.058933 0.7780 0.7780 0.7800 0.7800 0.7800
11.097000 0.7800 0.7800 0.7800 0.7800 0.7800
11.134933 0.7800 0.7810 0.7810 0.7830 0.7840
11.173000 0.7860 0.7870 0.7870 0.7890 0.7890
11.210933 0.7900 0.7900 0.7900 0.7900 0.7900
11.249000 0.7900 0.7920 0.7920 0.7920 0.7920
11.286933 0.7920 0.7920 0.7920 0.7920 0.7930
11.324000 0.7930 0.7930 0.7920 0.7920 0.7920
11.361933 0.7920 0.7920 0.7920 0.7920 0.7920
11.400000 0.7920 0.7920 0.7920 0.7920 0.7920
11.437933 0.7920 0.7920 0.7920 0.7920 0.7920
11.476000 0.7900 0.7900 0.7900 0.7890 0.7890
11.513933 0.7890 0.7870 0.7860 0.7860 0.7840
11.552000 0.7830 0.7810 0.7800 0.7800 0.7800
11.589933 0.7780 0.7780 0.7780 0.7770 0.7770
11.628000 0.7770 0.7750 0.7740 0.7720 0.7710
11.665933 0.7700 0.7680 0.7680 0.7670 0.7640
11.703000 0.7620 0.7610 0.7590 0.7580 0.7560
11.740933 0.7560 0.7550 0.7530 0.7520 0.7500
11.779000 0.7470 0.7460 0.7440 0.7430 0.7400
11.816933 0.7380 0.7370 0.7350 0.7350 0.7340
11.855000 0.7340 0.7340 0.7340 0.7340 0.7320
11.892933 0.7310 0.7310 0.7290 0.7250 0.7210
11.931000 0.7190 0.7160 0.7160 0.7150 0.7120
11.968933 0.7090 0.7070 0.7040 0.7010 0.6980
12.007000 0.6950 0.6910 0.6880 0.6820 0.6810
12.044933 0.6780 0.6720 0.6690 0.6570 0.6540
12.083000 0.6460 0.6430 0.6360 0.6300 0.6270
12.120933 0.6240 0.6180 0.6120 0.6060 0.5990
12.158000 0.5910 0.5890 0.5750 0.5680 0.5630
12.195933 0.5600 0.5530 0.5500 0.5440 0.5400
12.234000 0.5350 0.5290 0.5230 0.5200 0.5110
12.271933 0.5100 0.5080 0.5020 0.4980 0.4950
12.310000 0.4910 0.4860 0.4850 0.4820 0.4800
12.347933 0.4790 0.4770 0.4760 0.4740 0.4730
12.386000 0.4710 0.4680 0.4650 0.4640 0.4610
12.423933 0.4590 0.4580 0.4560 0.4560 0.4550
12.462000 0.4540 0.4520 0.4490 0.4480 0.4480
12.499933 0.4460 0.4460 0.4450 0.4450 0.4450
12.537000 0.4430 0.4420 0.4420 0.4400 0.4400
12.574933 0.4400 0.4400 0.4400 0.4400 0.4400
12.613000 0.4400 0.4400 0.4400 0.4420 0.4450
12.650933 0.4480 0.4510 0.4550 0.4590 0.4640
12.689000 0.4700 0.4760 0.4820 0.4890 0.4950
12.726933 0.5020 0.5080 0.5160 0.5230 0.5290
12.765000 0.5370 0.5430 0.5500 0.5560 0.5600
12.802933 0.5630 0.5690 0.5720 0.5750 0.5800
12.841000 0.5830 0.5860 0.5900 0.5930 0.5970
12.878933 0.6000 0.6020 0.6030 0.6060 0.6110
12.917000 0.6150 0.6170 0.6180 0.6180 0.6180
12.954933 0.6180 0.6180 0.6180 0.6180 0.6180
12.992000 0.6180 0.6180 0.6180 0.6170 0.6150
13.029933 0.6140 0.6120 0.6090 0.6060 0.6050
13.068000 0.6020 0.5970 0.5940 0.5910 0.5860
13.105933 0.5800 0.5720 0.5690 0.5630 0.5590
13.144000 0.5560 0.5510 0.5500 0.5470 0.5440
13.181933 0.5440 0.5440 0.5430 0.5430 0.5430
13.220000 0.5440 0.5500 0.5560 0.5590 0.5680
13.257933 0.5740 0.5830 0.5940 0.6030 0.6120
13.296000 0.6170 0.6210 0.6270 0.6320 0.6330
13.333933 0.6370 0.6400 0.6430 0.6450 0.6480
13.372000 0.6490 0.6510 0.6520 0.6540 0.6550
13.409933 0.6550 0.6550 0.6570 0.6570 0.6570
13.447000 0.6580 0.6580 0.6610 0.6630 0.6640
13.484933 0.6640 0.6640 0.6660 0.6660 0.6660
13.523000 0.6660 0.6660 0.6660 0.6660 0.6660
13.560933 0.6660 0.6660 0.6660 0.6660 0.6660
13.599000 0.6660 0.6660 0.6660 0.6660 0.6660
13.636933 0.6660 0.6660 0.6660 0.6660 0.6660
13.675000 0.6660 0.6660 0.6660 0.6660 0.6670
13.712933 0.6670 0.6670 0.6670 0.6670 0.6670
13.751000 0.6670 0.6670 0.6660 0.6660 0.6660
13.788933 0.6660 0.6640 0.6640 0.6640 0.6640
13.826000 0.6640 0.6640 0.6640 0.6640 0.6640
13.863933 0.6640 0.6640 0.6640 0.6640 0.6640
13.902000 0.6640 0.6640 0.6640 0.6640 0.6640
13.939933 0.6630 0.6630 0.6630 0.6610 0.6610
13.978000 0.6610 0.6610 0.6610 0.6600 0.6600
14.015933 0.6600 0.6600 0.6600 0.6610 0.6610
14.054000 0.6600 0.6600 0.6600 0.6600 0.6600
14.091933 0.6600 0.6600 0.6600 0.6600 0.6600
14.130000 0.6600 0.6600 0.6600 0.6580 0.6580
14.167933 0.6580 0.6580 0.6580 0.6570 0.6570
14.206000 0.6570 0.6570 0.6570 0.6570 0.6570
14.243933 0.6570 0.6570 0.6570 0.6570 0.6570
14.281000 0.6570 0.6570 0.6570 0.6570 0.6570
14.318933 0.6580 0.6580 0.6580 0.6580 0.6580
14.357000 0.6580 0.6580 0.6580 0.6580 0.6580
14.394933 0.6580 0.6580 0.6580 0.6600 0.6600
14.433000 0.6600 0.6600 0.6600 0.6600 0.6600
14.470933 0.6600 0.6600 0.6610 0.6610 0.6610
14.509000 0.6600 0.6600 0.6600 0.6600 0.6600
14.546933 0.6600 0.6600 0.6600 0.6610 0.6610
14.585000 0.6610 0.6610 0.6610 0.6610 0.6610
14.622933 0.6610 0.6610 0.6630 0.6630 0.6630
14.660000 0.6630 0.6630 0.6630 0.6640 0.6640
14.697933 0.6660 0.6660 0.6660 0.6670 0.6670
14.736000 0.6690 0.6690 0.6690 0.6690 0.6690
14.773933 0.6690 0.6690 0.6690 0.6690 0.6690
14.812000 0.6690 0.6670 0.6690 0.6690 0.6690
14.849933 0.6690 0.6690 0.6690 0.6690 0.6690
14.888000 0.6690 0.6690 0.6690 0.6700 0.6700
14.925933 0.6720 0.6730 0.6760 0.6780
##END=
