##TITLE=HIPPURIC ACID SODIUM SALT
$$ E.K. (W.L.)
##JCAMP-DX=4.24
##DATA TYPE=INFRARED SPECTRUM
##CLASS=COBLENTZ
##ORIGIN=WYANDOTTE CHEMICALS CORP., WYANDOTTE, MICHIGAN, USA
##OWNER=COBLENTZ SOCIETY
Collection (C) 2018 copyright by the U.S. Secretary of Commerce
on behalf of the United States of America. All rights reserved.
##DATE=Not specified, most likely prior to 1970
##MOLFORM=C9 H8 N O3 Na
##SOURCE REFERENCE=COBLENTZ NO. 598
##$NIST ID=B6000598
##$NIST SOURCE=COBLENTZ
##$NIST IMAGE=cob598
##SPECTROMETER/DATA SYSTEM=Not specified, most likely a prism, grating, or hybrid spectrometer.
##STATE=SOLID (OIL MULL)
##SAMPLING PROCEDURE=TRANSMISSION
##RESOLUTION=4
##DATA PROCESSING=DIGITIZED BY NIST FROM HARD COPY
##XUNITS=MICROMETERS
##YUNITS=TRANSMITTANCE
##XFACTOR=1.000000
##YFACTOR=1
##DELTAX=000.006655
##FIRSTX=2.042
##LASTX=16.0099
##FIRSTY=0.791
##MAXX=16.0099
##MINX=2.042
##MAXY=0.996
##MINY=0.031
##NPOINTS=2100
##XYDATA=(X++(Y..Y))
2.042000 0.7910 0.7920 0.7920 0.7920 0.7920
2.075289 0.7920 0.7920 0.7920 0.7920 0.7940
2.108000 0.7960 0.7970 0.7970 0.8000 0.8000
2.141289 0.8020 0.8020 0.8040 0.8040 0.8020
2.175000 0.8020 0.8000 0.7990 0.7960 0.7920
2.208289 0.7910 0.7870 0.7840 0.7820 0.7820
2.241000 0.7840 0.7840 0.7870 0.7870 0.7890
2.274289 0.7910 0.7920 0.7970 0.7990 0.7990
2.308000 0.7990 0.7990 0.7990 0.8000 0.8000
2.341289 0.8000 0.8000 0.8000 0.8000 0.7990
2.374000 0.7990 0.7970 0.7940 0.7940 0.7990
2.407289 0.8000 0.8020 0.8020 0.8050 0.8100
2.441000 0.8140 0.8150 0.8170 0.8170 0.8190
2.474289 0.8200 0.8220 0.8220 0.8220 0.8220
2.508000 0.8240 0.8270 0.8290 0.8300 0.8320
2.541289 0.8340 0.8390 0.8420 0.8420 0.8440
2.574000 0.8440 0.8450 0.8450 0.8440 0.8440
2.607289 0.8400 0.8350 0.8340 0.8350 0.8390
2.641000 0.8420 0.8450 0.8470 0.8470 0.8470
2.674289 0.8470 0.8420 0.8400 0.8370 0.8250
2.707000 0.8120 0.7990 0.7990 0.7870 0.7820
2.740289 0.7770 0.7770 0.7760 0.7760 0.7740
2.774000 0.7670 0.7610 0.7490 0.7390 0.7280
2.807289 0.7190 0.7110 0.6980 0.6890 0.6780
2.840000 0.6710 0.6680 0.6610 0.6530 0.6410
2.873289 0.6330 0.6210 0.6180 0.6130 0.6000
2.907000 0.5970 0.5780 0.5680 0.5520 0.5380
2.940289 0.5200 0.5020 0.4850 0.4510 0.4270
2.973000 0.4110 0.4070 0.4020 0.4020 0.3360
3.006289 0.3130 0.2900 0.2470 0.2180 0.2070
3.040000 0.2130 0.2270 0.2700 0.2680 0.2630
3.073289 0.2420 0.2280 0.2250 0.2220 0.2250
3.106000 0.2320 0.2570 0.2960 0.3310 0.3730
3.139289 0.3840 0.4070 0.4260 0.4410 0.4590
3.173000 0.4740 0.4840 0.5000 0.5070 0.5100
3.206289 0.5150 0.5150 0.4920 0.4700 0.4320
3.240000 0.4190 0.4110 0.4090 0.4070 0.4090
3.273289 0.4140 0.4340 0.4570 0.4720 0.4770
3.306000 0.4800 0.4770 0.4690 0.4210 0.3740
3.339289 0.3490 0.3250 0.2100 0.1370 0.0640
3.373000 0.0490 0.0460 0.0430 0.0390 0.0390
3.406289 0.0360 0.0360 0.0380 0.0390 0.0430
3.439000 0.0460 0.0510 0.0560 0.0670 0.0810
3.472289 0.0870 0.0890 0.0890 0.0870 0.0820
3.506000 0.0790 0.0790 0.0910 0.1520 0.2300
3.539289 0.3100 0.4700 0.5500 0.6100 0.6580
3.572000 0.7060 0.7230 0.7440 0.7570 0.7710
3.605289 0.7840 0.7970 0.8100 0.8300 0.8370
3.639000 0.8370 0.8370 0.8370 0.8370 0.8350
3.672289 0.8340 0.8320 0.8320 0.8350 0.8370
3.705000 0.8440 0.8470 0.8520 0.8540 0.8570
3.738289 0.8600 0.8600 0.8600 0.8600 0.8600
3.772000 0.8640 0.8640 0.8680 0.8700 0.8700
3.805289 0.8700 0.8700 0.8700 0.8700 0.8720
3.838000 0.8730 0.8750 0.8770 0.8780 0.8800
3.871289 0.8820 0.8830 0.8880 0.8920 0.8950
3.905000 0.9000 0.9000 0.9020 0.9020 0.9050
3.938289 0.9120 0.9130 0.9200 0.9220 0.9220
3.972000 0.9230 0.9230 0.9230 0.9250 0.9230
4.005289 0.9230 0.9230 0.9230 0.9230 0.9250
4.038000 0.9250 0.9270 0.9270 0.9280 0.9320
4.071289 0.9330 0.9330 0.9330 0.9350 0.9350
4.105000 0.9350 0.9350 0.9350 0.9350 0.9350
4.138289 0.9350 0.9360 0.9360 0.9360 0.9360
4.171000 0.9360 0.9360 0.9360 0.9360 0.9350
4.204289 0.9350 0.9350 0.9330 0.9330 0.9330
4.238000 0.9320 0.9280 0.9270 0.9250 0.9230
4.271289 0.9230 0.9270 0.9280 0.9320 0.9360
4.304000 0.9400 0.9430 0.9450 0.9450 0.9450
4.337289 0.9450 0.9480 0.9500 0.9530 0.9580
4.371000 0.9630 0.9650 0.9650 0.9680 0.9700
4.404289 0.9700 0.9700 0.9680 0.9660 0.9660
4.437000 0.9650 0.9610 0.9600 0.9600 0.9600
4.470289 0.9600 0.9600 0.9610 0.9610 0.9600
4.504000 0.9600 0.9610 0.9610 0.9610 0.9610
4.537289 0.9610 0.9610 0.9610 0.9610 0.9610
4.570000 0.9610 0.9630 0.9630 0.9660 0.9680
4.603289 0.9700 0.9750 0.9750 0.9750 0.9750
4.637000 0.9780 0.9780 0.9780 0.9780 0.9780
4.670289 0.9780 0.9800 0.9800 0.9800 0.9780
4.704000 0.9800 0.9800 0.9800 0.9810 0.9810
4.737289 0.9810 0.9810 0.9810 0.9830 0.9830
4.770000 0.9830 0.9850 0.9880 0.9900 0.9900
4.803289 0.9900 0.9900 0.9910 0.9910 0.9910
4.837000 0.9910 0.9910 0.9910 0.9910 0.9910
4.870289 0.9910 0.9910 0.9910 0.9910 0.9910
4.903000 0.9910 0.9910 0.9910 0.9910 0.9910
4.936289 0.9910 0.9910 0.9930 0.9900 0.9900
4.970000 0.9910 0.9910 0.9910 0.9930 0.9950
5.003289 0.9950 0.9950 0.9960 0.9960 0.9960
5.036000 0.9930 0.9910 0.9900 0.9860 0.9830
5.069289 0.9810 0.9800 0.9800 0.9780 0.9780
5.103000 0.9750 0.9730 0.9700 0.9650 0.9610
5.136289 0.9600 0.9600 0.9600 0.9600 0.9600
5.169000 0.9600 0.9610 0.9630 0.9710 0.9810
5.202289 0.9860 0.9850 0.9850 0.9850 0.9830
5.236000 0.9810 0.9780 0.9730 0.9710 0.9680
5.269289 0.9660 0.9650 0.9610 0.9610 0.9610
5.302000 0.9610 0.9610 0.9650 0.9680 0.9680
5.335289 0.9730 0.9800 0.9830 0.9830 0.9810
5.369000 0.9810 0.9850 0.9850 0.9850 0.9830
5.402289 0.9830 0.9810 0.9810 0.9810 0.9800
5.436000 0.9780 0.9750 0.9750 0.9750 0.9760
5.469289 0.9760 0.9700 0.9630 0.9580 0.9560
5.502000 0.9550 0.9530 0.9510 0.9480 0.9410
5.535289 0.9380 0.9330 0.9350 0.9380 0.9400
5.569000 0.9400 0.9400 0.9400 0.9380 0.9330
5.602289 0.9320 0.9280 0.9230 0.9170 0.9120
5.635000 0.9100 0.9080 0.9030 0.9020 0.9000
5.668289 0.9030 0.9080 0.9100 0.9050 0.9000
5.702000 0.8980 0.8920 0.8880 0.8830 0.8780
5.735289 0.8750 0.8620 0.8500 0.8390 0.8300
5.768000 0.8220 0.8150 0.8000 0.7940 0.7790
5.801289 0.7720 0.7660 0.7570 0.7490 0.7290
5.835000 0.7210 0.7060 0.6910 0.6830 0.6690
5.868289 0.6650 0.6600 0.6480 0.6360 0.6260
5.901000 0.6110 0.6010 0.5870 0.5620 0.5370
5.934289 0.5120 0.4870 0.4620 0.4370 0.4120
5.968000 0.3880 0.3630 0.3610 0.2020 0.0410
6.001289 0.0390 0.0390 0.0390 0.0410 0.0410
6.034000 0.0430 0.0430 0.0390 0.0380 0.0360
6.067289 0.0340 0.0340 0.0340 0.0340 0.0340
6.101000 0.0340 0.0330 0.0330 0.0330 0.0330
6.134289 0.0340 0.0340 0.0330 0.0330 0.0330
6.168000 0.0330 0.0330 0.0330 0.0310 0.0330
6.201289 0.0330 0.0330 0.0330 0.0310 0.0330
6.234000 0.0340 0.0380 0.0410 0.0480 0.0540
6.267289 0.0590 0.0660 0.0580 0.0510 0.0440
6.301000 0.0390 0.0390 0.0410 0.0410 0.0390
6.334289 0.0390 0.0390 0.0410 0.0410 0.0390
6.367000 0.0390 0.0380 0.0380 0.0360 0.0330
6.400289 0.0330 0.0340 0.0340 0.0360 0.0360
6.434000 0.0380 0.0380 0.0410 0.0460 0.0510
6.467289 0.0560 0.0580 0.0580 0.0630 0.0670
6.500000 0.0770 0.0870 0.0990 0.1090 0.1390
6.533289 0.1550 0.1790 0.2000 0.2220 0.2480
6.567000 0.2620 0.2800 0.2860 0.3030 0.3180
6.600289 0.3280 0.3860 0.4010 0.4090 0.4090
6.633000 0.3980 0.3610 0.3330 0.3030 0.2400
6.666289 0.1920 0.1770 0.1750 0.1790 0.1820
6.700000 0.1950 0.2170 0.2380 0.2530 0.2650
6.733289 0.2750 0.2810 0.2810 0.2600 0.2380
6.766000 0.2030 0.1850 0.1720 0.1550 0.1490
6.799289 0.1470 0.1450 0.1450 0.1450 0.1450
6.833000 0.1450 0.1420 0.1290 0.1210 0.1170
6.866289 0.1120 0.1110 0.1020 0.1020 0.1120
6.900000 0.1190 0.1260 0.1290 0.1310 0.1310
6.933289 0.1170 0.1040 0.0910 0.0840 0.0790
6.966000 0.0760 0.0710 0.0670 0.0590 0.0530
6.999289 0.0510 0.0510 0.0510 0.0510 0.0490
7.033000 0.0460 0.0410 0.0410 0.0410 0.0410
7.066289 0.0410 0.0410 0.0410 0.0410 0.0430
7.099000 0.0440 0.0480 0.0490 0.0510 0.0530
7.132289 0.0530 0.0540 0.0660 0.0710 0.0770
7.166000 0.0820 0.0870 0.0990 0.1060 0.1140
7.199289 0.1220 0.1340 0.1450 0.1550 0.1650
7.232000 0.1700 0.1750 0.1800 0.1970 0.2150
7.265289 0.2400 0.2680 0.2910 0.3200 0.3480
7.299000 0.3590 0.3760 0.3880 0.4070 0.4310
7.332289 0.4660 0.4790 0.4840 0.4920 0.4970
7.365000 0.5000 0.4990 0.4940 0.4870 0.4670
7.398289 0.4410 0.4240 0.4070 0.3960 0.3760
7.432000 0.3610 0.3540 0.3480 0.3380 0.3340
7.465289 0.3300 0.3300 0.3510 0.3640 0.3780
7.498000 0.3910 0.3990 0.4160 0.4410 0.4410
7.531289 0.4270 0.4110 0.3680 0.3380 0.3260
7.565000 0.3130 0.2910 0.2780 0.2480 0.2200
7.598289 0.1920 0.1640 0.1550 0.1420 0.1420
7.632000 0.1640 0.1920 0.2230 0.2600 0.2760
7.665289 0.2900 0.2960 0.3010 0.3010 0.2930
7.698000 0.2910 0.2810 0.2760 0.2700 0.2600
7.731289 0.2470 0.2330 0.2330 0.2150 0.2150
7.765000 0.2200 0.2380 0.2550 0.2700 0.2980
7.798289 0.3260 0.3830 0.4110 0.4340 0.4520
7.831000 0.4670 0.4770 0.4870 0.4920 0.4870
7.864289 0.4820 0.4590 0.4260 0.4170 0.4010
7.898000 0.3990 0.3940 0.4010 0.4090 0.4260
7.931289 0.4360 0.4520 0.4570 0.4620 0.4720
7.964000 0.4740 0.4750 0.4770 0.4790 0.4900
7.997289 0.5240 0.5320 0.5530 0.5680 0.5830
8.031000 0.5950 0.6050 0.6110 0.6200 0.6210
8.064289 0.6250 0.6250 0.6180 0.6110 0.6050
8.097000 0.6000 0.5980 0.5850 0.5670 0.5430
8.130289 0.5220 0.5220 0.5370 0.5520 0.5950
8.164000 0.6180 0.6310 0.6530 0.6860 0.6990
8.197289 0.7140 0.7280 0.7330 0.7360 0.7390
8.230000 0.7440 0.7460 0.7470 0.7490 0.7510
8.263289 0.7520 0.7520 0.7560 0.7590 0.7610
8.297000 0.7620 0.7660 0.7670 0.7690 0.7690
8.330289 0.7690 0.7670 0.7620 0.7610 0.7590
8.364000 0.7540 0.7460 0.7370 0.7240 0.7080
8.397289 0.6990 0.6960 0.6940 0.6930 0.6910
8.430000 0.6910 0.6980 0.6980 0.6990 0.7030
8.463289 0.7080 0.7080 0.7080 0.7080 0.7060
8.497000 0.7010 0.6960 0.6810 0.6730 0.6710
8.530289 0.6710 0.6780 0.6810 0.6980 0.6990
8.563000 0.7010 0.7030 0.7090 0.7160 0.7190
8.596289 0.7280 0.7310 0.7340 0.7360 0.7360
8.630000 0.7370 0.7370 0.7370 0.7340 0.7310
8.663289 0.7330 0.7340 0.7370 0.7460 0.7620
8.696000 0.7670 0.7770 0.7870 0.7960 0.7990
8.729289 0.8020 0.8050 0.8100 0.8170 0.8190
8.763000 0.8220 0.8270 0.8290 0.8300 0.8320
8.796289 0.8340 0.8340 0.8340 0.8340 0.8350
8.829000 0.8350 0.8390 0.8400 0.8400 0.8400
8.862289 0.8420 0.8400 0.8400 0.8400 0.8400
8.896000 0.8400 0.8400 0.8400 0.8390 0.8390
8.929289 0.8390 0.8370 0.8340 0.8320 0.8300
8.962000 0.8300 0.8270 0.8250 0.8200 0.8150
8.995289 0.8100 0.8070 0.8040 0.8020 0.8000
9.029000 0.7960 0.7920 0.7910 0.7890 0.7890
9.062289 0.7910 0.7920 0.7940 0.7960 0.7990
9.096000 0.7990 0.7990 0.7970 0.7940 0.7790
9.129289 0.7710 0.7540 0.7330 0.7080 0.6810
9.162000 0.6710 0.6600 0.6430 0.6310 0.6200
9.195289 0.6030 0.5870 0.5720 0.5630 0.5600
9.229000 0.5570 0.5580 0.5620 0.5700 0.5850
9.262289 0.5980 0.6000 0.6080 0.6180 0.6330
9.295000 0.6450 0.6450 0.6430 0.6410 0.6380
9.328289 0.6310 0.6260 0.6260 0.6330 0.6500
9.362000 0.6600 0.6910 0.7040 0.7190 0.7330
9.395289 0.7460 0.7520 0.7560 0.7610 0.7640
9.428000 0.7670 0.7690 0.7760 0.7810 0.7890
9.461289 0.7990 0.8000 0.8040 0.8090 0.8170
9.495000 0.8240 0.8300 0.8320 0.8350 0.8350
9.528289 0.8370 0.8370 0.8390 0.8390 0.8400
9.561000 0.8420 0.8420 0.8420 0.8420 0.8420
9.594289 0.8420 0.8420 0.8400 0.8390 0.8340
9.628000 0.8290 0.8250 0.8170 0.8100 0.8000
9.661289 0.7840 0.7520 0.7210 0.6890 0.6680
9.694000 0.6450 0.6130 0.6110 0.6100 0.6110
9.727289 0.6180 0.6330 0.6600 0.7040 0.7160
9.761000 0.7280 0.7370 0.7460 0.7590 0.7690
9.794289 0.7820 0.7960 0.8020 0.8040 0.8070
9.828000 0.8100 0.8120 0.8150 0.8140 0.8100
9.861289 0.8040 0.7990 0.7870 0.7770 0.7540
9.894000 0.7140 0.6860 0.6560 0.5880 0.5320
9.927289 0.4840 0.4660 0.4640 0.4670 0.4720
9.961000 0.4840 0.4940 0.4940 0.4900 0.4890
9.994289 0.4870 0.4850 0.4870 0.5270 0.5450
10.027000 0.5620 0.5800 0.6010 0.6250 0.6460
10.060289 0.6890 0.7040 0.7240 0.7290 0.7410
10.094000 0.7540 0.7660 0.7710 0.7770 0.7940
10.127289 0.7990 0.8000 0.8000 0.8070 0.8120
10.160000 0.8150 0.8200 0.8200 0.8200 0.8200
10.193289 0.8190 0.8140 0.8100 0.8070 0.8020
10.227000 0.7990 0.7970 0.7920 0.7890 0.7860
10.260289 0.7840 0.7820 0.7820 0.7860 0.7890
10.293000 0.7910 0.7970 0.7970 0.8000 0.8000
10.326289 0.8040 0.8070 0.8120 0.8120 0.8140
10.360000 0.8140 0.8150 0.8150 0.8140 0.8090
10.393289 0.8000 0.7990 0.7940 0.7860 0.7770
10.426000 0.7690 0.7610 0.7490 0.7370 0.7290
10.459289 0.7230 0.7210 0.7210 0.7210 0.7230
10.493000 0.7240 0.7310 0.7390 0.7470 0.7510
10.526289 0.7520 0.7590 0.7620 0.7640 0.7690
10.560000 0.7720 0.7720 0.7740 0.7740 0.7740
10.593289 0.7740 0.7740 0.7740 0.7740 0.7720
10.626000 0.7670 0.7670 0.7610 0.7560 0.7470
10.659289 0.7390 0.7260 0.7130 0.7010 0.6840
10.693000 0.6710 0.6680 0.6630 0.6610 0.6600
10.726289 0.6610 0.6610 0.6630 0.6650 0.6690
10.759000 0.6690 0.6690 0.6680 0.6650 0.6610
10.792289 0.6580 0.6560 0.6560 0.6580 0.6610
10.826000 0.6660 0.6880 0.6980 0.7040 0.7160
10.859289 0.7190 0.7230 0.7230 0.7240 0.7280
10.892000 0.7310 0.7330 0.7340 0.7410 0.7420
10.925289 0.7490 0.7490 0.7520 0.7620 0.7690
10.959000 0.7790 0.7910 0.7970 0.8020 0.8100
10.992289 0.8190 0.8250 0.8320 0.8340 0.8350
11.025000 0.8390 0.8450 0.8450 0.8490 0.8500
11.058289 0.8520 0.8540 0.8550 0.8590 0.8600
11.092000 0.8600 0.8620 0.8640 0.8650 0.8650
11.125289 0.8650 0.8650 0.8650 0.8650 0.8650
11.158000 0.8650 0.8650 0.8650 0.8650 0.8650
11.191289 0.8650 0.8650 0.8650 0.8650 0.8650
11.225000 0.8650 0.8640 0.8640 0.8640 0.8640
11.258289 0.8640 0.8670 0.8670 0.8650 0.8640
11.292000 0.8640 0.8670 0.8680 0.8700 0.8720
11.325289 0.8720 0.8720 0.8720 0.8720 0.8720
11.358000 0.8720 0.8720 0.8720 0.8720 0.8700
11.391289 0.8700 0.8700 0.8680 0.8670 0.8670
11.425000 0.8650 0.8650 0.8670 0.8650 0.8640
11.458289 0.8640 0.8640 0.8640 0.8620 0.8620
11.491000 0.8590 0.8550 0.8540 0.8540 0.8520
11.524289 0.8500 0.8470 0.8440 0.8440 0.8420
11.558000 0.8400 0.8390 0.8390 0.8390 0.8400
11.591289 0.8400 0.8400 0.8400 0.8400 0.8400
11.624000 0.8390 0.8350 0.8340 0.8300 0.8290
11.657289 0.8240 0.8240 0.8220 0.8220 0.8220
11.691000 0.8200 0.8150 0.8100 0.8050 0.8000
11.724289 0.7990 0.7890 0.7860 0.7810 0.7710
11.757000 0.7660 0.7590 0.7560 0.7420 0.7340
11.790289 0.7160 0.7040 0.6890 0.6710 0.6630
11.824000 0.6550 0.6400 0.6230 0.6160 0.6010
11.857289 0.5980 0.5870 0.5780 0.5720 0.5700
11.891000 0.5700 0.5680 0.5700 0.5700 0.5820
11.924289 0.5980 0.6180 0.6400 0.6600 0.6960
11.957000 0.7060 0.7260 0.7340 0.7440 0.7470
11.990289 0.7540 0.7590 0.7610 0.7610 0.7610
12.024000 0.7620 0.7640 0.7670 0.7710 0.7810
12.057289 0.7870 0.7960 0.7990 0.8000 0.8020
12.090000 0.8040 0.8050 0.8100 0.8120 0.8140
12.123289 0.8140 0.8140 0.8120 0.8120 0.8150
12.157000 0.8170 0.8170 0.8170 0.8150 0.8100
12.190289 0.8050 0.8000 0.7870 0.7770 0.7660
12.223000 0.7520 0.7510 0.7510 0.7510 0.7620
12.256289 0.7660 0.7690 0.7760 0.7810 0.7820
12.290000 0.7820 0.7860 0.7860 0.7810 0.7740
12.323289 0.7670 0.7610 0.7570 0.7490 0.7390
12.356000 0.7310 0.7190 0.7180 0.7140 0.7010
12.389289 0.6840 0.6680 0.6580 0.6480 0.6410
12.423000 0.6350 0.6310 0.6310 0.6310 0.6330
12.456289 0.6400 0.6430 0.6560 0.6790 0.6840
12.489000 0.6890 0.6980 0.7010 0.7010 0.7010
12.522289 0.7030 0.7060 0.7110 0.7160 0.7230
12.556000 0.7280 0.7410 0.7490 0.7570 0.7610
12.589289 0.7690 0.7770 0.7810 0.7890 0.7910
12.623000 0.7960 0.8000 0.8020 0.8020 0.8050
12.656289 0.8090 0.8100 0.8120 0.8140 0.8140
12.689000 0.8140 0.8140 0.8120 0.8120 0.8120
12.722289 0.8100 0.8100 0.8100 0.8100 0.8090
12.756000 0.8050 0.8020 0.8000 0.8000 0.8000
12.789289 0.8000 0.7990 0.7970 0.7970 0.7960
12.822000 0.7910 0.7910 0.7910 0.7890 0.7870
12.855289 0.7860 0.7810 0.7790 0.7790 0.7770
12.889000 0.7770 0.7720 0.7710 0.7690 0.7640
12.922289 0.7620 0.7610 0.7590 0.7570 0.7520
12.955000 0.7520 0.7490 0.7470 0.7460 0.7440
12.988289 0.7420 0.7410 0.7390 0.7370 0.7340
13.022000 0.7310 0.7310 0.7310 0.7310 0.7290
13.055289 0.7290 0.7260 0.7230 0.7230 0.7190
13.088000 0.7180 0.7140 0.7130 0.7110 0.7090
13.121289 0.7060 0.7030 0.7010 0.6980 0.6980
13.155000 0.6910 0.6910 0.6880 0.6830 0.6780
13.188289 0.6730 0.6680 0.6660 0.6650 0.6600
13.221000 0.6550 0.6500 0.6460 0.6400 0.6360
13.254289 0.6300 0.6180 0.6110 0.6050 0.6000
13.288000 0.5950 0.5820 0.5730 0.5700 0.5600
13.321289 0.5520 0.5500 0.5450 0.5420 0.5420
13.355000 0.5400 0.5370 0.5330 0.5320 0.5300
13.388289 0.5300 0.5320 0.5320 0.5320 0.5320
13.421000 0.5320 0.5330 0.5330 0.5330 0.5330
13.454289 0.5330 0.5320 0.5300 0.5300 0.5320
13.488000 0.5320 0.5320 0.5320 0.5320 0.5300
13.521289 0.5270 0.5220 0.5200 0.5170 0.5150
13.554000 0.5140 0.5120 0.5090 0.5020 0.5000
13.587289 0.5000 0.4990 0.4970 0.4920 0.4900
13.621000 0.4890 0.4870 0.4870 0.4840 0.4800
13.654289 0.4750 0.4720 0.4720 0.4700 0.4690
13.687000 0.4670 0.4660 0.4620 0.4560 0.4510
13.720289 0.4490 0.4460 0.4420 0.4390 0.4310
13.754000 0.4260 0.4210 0.4110 0.4010 0.3980
13.787289 0.3860 0.3740 0.3630 0.3530 0.3380
13.820000 0.3330 0.3280 0.3160 0.3030 0.2900
13.853289 0.2830 0.2750 0.2660 0.2620 0.2550
13.887000 0.2470 0.2420 0.2350 0.2320 0.2230
13.920289 0.2120 0.2070 0.2020 0.1970 0.1890
13.953000 0.1820 0.1700 0.1590 0.1500 0.1440
13.986289 0.1390 0.1350 0.1310 0.1210 0.1160
14.020000 0.1090 0.1040 0.1020 0.1020 0.1020
14.053289 0.1020 0.1010 0.1020 0.1020 0.1020
14.087000 0.1020 0.1040 0.1070 0.1070 0.1090
14.120289 0.1110 0.1120 0.1120 0.1120 0.1120
14.153000 0.1140 0.1160 0.1160 0.1160 0.1160
14.186289 0.1160 0.1160 0.1170 0.1210 0.1220
14.220000 0.1220 0.1220 0.1220 0.1220 0.1220
14.253289 0.1220 0.1240 0.1240 0.1240 0.1260
14.286000 0.1260 0.1270 0.1270 0.1290 0.1320
14.319289 0.1340 0.1350 0.1390 0.1390 0.1400
14.353000 0.1440 0.1470 0.1500 0.1520 0.1540
14.386289 0.1590 0.1600 0.1620 0.1640 0.1650
14.419000 0.1650 0.1650 0.1650 0.1650 0.1650
14.452289 0.1640 0.1620 0.1590 0.1570 0.1550
14.486000 0.1550 0.1550 0.1550 0.1590 0.1620
14.519289 0.1620 0.1650 0.1670 0.1700 0.1740
14.552000 0.1800 0.1890 0.1990 0.2000 0.2120
14.585289 0.2170 0.2230 0.2300 0.2400 0.2520
14.619000 0.2660 0.2730 0.2760 0.2810 0.2860
14.652289 0.2900 0.2980 0.3010 0.3060 0.3110
14.685000 0.3180 0.3250 0.3300 0.3380 0.3390
14.718289 0.3460 0.3510 0.3540 0.3590 0.3590
14.752000 0.3630 0.3680 0.3710 0.3730 0.3760
14.785289 0.3810 0.3840 0.3860 0.3860 0.3880
14.819000 0.3890 0.3890 0.3890 0.3940 0.3980
14.852289 0.4010 0.4040 0.4110 0.4140 0.4190
14.885000 0.4240 0.4290 0.4310 0.4360 0.4370
14.918289 0.4420 0.4440 0.4470 0.4510 0.4520
14.952000 0.4520 0.4570 0.4610 0.4660 0.4670
14.985289 0.4690 0.4720 0.4750 0.4790 0.4820
15.018000 0.4850 0.4870 0.4890 0.4890 0.4900
15.051289 0.4920 0.4990 0.4990 0.5000 0.5020
15.085000 0.5020 0.5020 0.5020 0.5020 0.5020
15.118289 0.5020 0.5020 0.5020 0.5020 0.5020
15.151000 0.5040 0.5040 0.5040 0.5050 0.5050
15.184289 0.5050 0.5050 0.5050 0.5050 0.5050
15.218000 0.5050 0.5050 0.5050 0.5070 0.5070
15.251289 0.5090 0.5100 0.5120 0.5120 0.5120
15.284000 0.5120 0.5120 0.5140 0.5150 0.5170
15.317289 0.5220 0.5240 0.5270 0.5290 0.5320
15.351000 0.5350 0.5380 0.5420 0.5430 0.5430
15.384289 0.5470 0.5480 0.5480 0.5500 0.5520
15.417000 0.5570 0.5600 0.5630 0.5680 0.5700
15.450289 0.5720 0.5730 0.5730 0.5750 0.5770
15.484000 0.5800 0.5820 0.5820 0.5830 0.5850
15.517289 0.5870 0.5920 0.5930 0.5950 0.5950
15.551000 0.5950 0.5950 0.5930 0.5920 0.5920
15.584289 0.5930 0.5950 0.5980 0.6010 0.6030
15.617000 0.6030 0.6050 0.6060 0.6060 0.6060
15.650289 0.6060 0.6080 0.6080 0.6080 0.6080
15.684000 0.6080 0.6080 0.6080 0.6080 0.6080
15.717289 0.6080 0.6060 0.6060 0.6030 0.6000
15.750000 0.6000 0.6000 0.6010 0.6010 0.6010
15.783289 0.6000 0.6000 0.6000 0.5980 0.5980
15.817000 0.5980 0.5980 0.5980 0.6000 0.6000
15.850289 0.6000 0.6000 0.6000 0.6000 0.5980
15.883000 0.5970 0.5950 0.5920 0.5900 0.5880
15.916289 0.5880 0.5880 0.5870 0.5850 0.5850
15.950000 0.5850 0.5850 0.5830 0.5830 0.5830
15.983289 0.5820 0.5820 0.5820 0.5820 0.5820
##END=
