##TITLE=GLYCOLIC ACID, SODIUM SALT
##JCAMP-DX=4.24
$$ By DXEDIT 1.05 (RS McDonald)
##DATA TYPE=INFRARED SPECTRUM
##CLASS=COBLENTZ III
##ORIGIN=WYANDOTTE CHEMICALS CORP.
##OWNER=COBLENTZ SOC.
Collection (C) 2018 copyright by the U.S. Secretary of Commerce
on behalf of the United States of America. All rights reserved.
##DATE=Not specified, most likely prior to 1970
##MOLFORM=C2 H3 Na O3
##SOURCE REFERENCE=COBLENTZ NO. 05978
##$NIST ID=B6005978
##$NIST SOURCE=COBLENTZ
##$NIST IMAGE=cob5978
##SPECTROMETER/DATA SYSTEM=BAIRD (GRATING)
##INSTRUMENT PARAMETERS=NaCl PRISM
##STATE=SOLID (OIL MULL)
##PATH LENGTH=CAPILLARY
$$SPECTRAL CONTAMINATION DUE TO OIL AROUND 2900 CM^-^1
##SAMPLING PROCEDURE=TRANSMISSION
##RESOLUTION=2
##DATA PROCESSING=DIGITIZED BY COBLENTZ SOCIETY (BATCH I) FROM HARD COPY
##XUNITS=1/CM
##YUNITS=TRANSMITTANCE
##XLABEL=Wavenumbers (cm-1)
##YLABEL=Transmittance
##XFACTOR=1
##YFACTOR=1
##DELTAX=1
##FIRSTX=4000
##LASTX=625
##FIRSTY=0.9528
##MAXX=4000
##MINX=625
##MAXY=0.9736
##MINY=0.0149
##NPOINTS=3376
##XYDATA=(X++(Y..Y))
4000.000000 0.9528 0.9531 0.9533 0.9535 0.9537
3995.000000 0.9539 0.9541 0.9544 0.9549 0.9553
3990.000000 0.9558 0.9562 0.9567 0.9571 0.9577
3985.000000 0.9582 0.9587 0.9593 0.9598 0.9603
3980.000000 0.9608 0.9612 0.9617 0.9621 0.9627
3975.000000 0.9631 0.9635 0.9637 0.9640 0.9642
3970.000000 0.9644 0.9647 0.9649 0.9651 0.9654
3965.000000 0.9656 0.9658 0.9660 0.9662 0.9665
3960.000000 0.9667 0.9668 0.9671 0.9674 0.9675
3955.000000 0.9678 0.9680 0.9682 0.9684 0.9686
3950.000000 0.9688 0.9690 0.9693 0.9695 0.9697
3945.000000 0.9699 0.9701 0.9703 0.9705 0.9707
3940.000000 0.9709 0.9711 0.9713 0.9716 0.9717
3935.000000 0.9718 0.9718 0.9721 0.9721 0.9723
3930.000000 0.9724 0.9725 0.9725 0.9727 0.9728
3925.000000 0.9728 0.9730 0.9731 0.9732 0.9733
3920.000000 0.9734 0.9735 0.9736 0.9736 0.9736
3915.000000 0.9736 0.9736 0.9736 0.9735 0.9734
3910.000000 0.9734 0.9733 0.9732 0.9731 0.9730
3905.000000 0.9725 0.9723 0.9720 0.9717 0.9713
3900.000000 0.9710 0.9705 0.9701 0.9696 0.9691
3895.000000 0.9687 0.9682 0.9677 0.9671 0.9666
3890.000000 0.9660 0.9655 0.9649 0.9645 0.9640
3885.000000 0.9635 0.9631 0.9625 0.9621 0.9618
3880.000000 0.9614 0.9610 0.9606 0.9602 0.9598
3875.000000 0.9597 0.9596 0.9595 0.9594 0.9593
3870.000000 0.9592 0.9591 0.9590 0.9590 0.9589
3865.000000 0.9588 0.9588 0.9587 0.9587 0.9587
3860.000000 0.9587 0.9587 0.9587 0.9587 0.9587
3855.000000 0.9588 0.9588 0.9588 0.9589 0.9591
3850.000000 0.9592 0.9594 0.9596 0.9598 0.9600
3845.000000 0.9602 0.9604 0.9605 0.9607 0.9609
3840.000000 0.9611 0.9614 0.9616 0.9618 0.9621
3835.000000 0.9624 0.9627 0.9630 0.9633 0.9636
3830.000000 0.9640 0.9643 0.9646 0.9648 0.9650
3825.000000 0.9653 0.9655 0.9658 0.9659 0.9659
3820.000000 0.9660 0.9660 0.9661 0.9661 0.9662
3815.000000 0.9662 0.9663 0.9663 0.9664 0.9664
3810.000000 0.9665 0.9666 0.9666 0.9667 0.9668
3805.000000 0.9668 0.9668 0.9668 0.9668 0.9670
3800.000000 0.9670 0.9671 0.9671 0.9671 0.9671
3795.000000 0.9673 0.9673 0.9673 0.9673 0.9673
3790.000000 0.9671 0.9671 0.9671 0.9671 0.9671
3785.000000 0.9670 0.9668 0.9668 0.9668 0.9668
3780.000000 0.9668 0.9667 0.9667 0.9667 0.9666
3775.000000 0.9666 0.9665 0.9665 0.9664 0.9664
3770.000000 0.9663 0.9663 0.9662 0.9662 0.9661
3765.000000 0.9660 0.9660 0.9659 0.9659 0.9658
3760.000000 0.9658 0.9657 0.9657 0.9656 0.9656
3755.000000 0.9655 0.9655 0.9653 0.9652 0.9651
3750.000000 0.9649 0.9648 0.9646 0.9644 0.9642
3745.000000 0.9640 0.9638 0.9636 0.9634 0.9633
3740.000000 0.9631 0.9628 0.9627 0.9625 0.9623
3735.000000 0.9621 0.9618 0.9617 0.9615 0.9613
3730.000000 0.9611 0.9609 0.9607 0.9605 0.9603
3725.000000 0.9601 0.9599 0.9597 0.9595 0.9593
3720.000000 0.9591 0.9589 0.9587 0.9585 0.9583
3715.000000 0.9581 0.9578 0.9577 0.9575 0.9573
3710.000000 0.9571 0.9568 0.9564 0.9560 0.9556
3705.000000 0.9552 0.9548 0.9544 0.9539 0.9535
3700.000000 0.9531 0.9527 0.9523 0.9518 0.9514
3695.000000 0.9510 0.9506 0.9502 0.9497 0.9493
3690.000000 0.9489 0.9485 0.9480 0.9475 0.9471
3685.000000 0.9468 0.9463 0.9459 0.9455 0.9450
3680.000000 0.9444 0.9439 0.9434 0.9428 0.9423
3675.000000 0.9418 0.9412 0.9407 0.9401 0.9396
3670.000000 0.9391 0.9385 0.9378 0.9374 0.9368
3665.000000 0.9363 0.9357 0.9351 0.9346 0.9340
3660.000000 0.9335 0.9328 0.9324 0.9318 0.9313
3655.000000 0.9308 0.9302 0.9296 0.9291 0.9285
3650.000000 0.9280 0.9271 0.9261 0.9251 0.9241
3645.000000 0.9231 0.9221 0.9210 0.9199 0.9188
3640.000000 0.9177 0.9166 0.9155 0.9144 0.9133
3635.000000 0.9123 0.9112 0.9101 0.9090 0.9078
3630.000000 0.9068 0.9057 0.9047 0.9038 0.9030
3625.000000 0.9021 0.9012 0.9004 0.8996 0.8988
3620.000000 0.8980 0.8971 0.8964 0.8956 0.8948
3615.000000 0.8940 0.8933 0.8925 0.8917 0.8909
3610.000000 0.8901 0.8893 0.8885 0.8875 0.8868
3605.000000 0.8860 0.8852 0.8844 0.8836 0.8827
3600.000000 0.8818 0.8810 0.8802 0.8793 0.8785
3595.000000 0.8775 0.8768 0.8759 0.8751 0.8743
3590.000000 0.8734 0.8725 0.8718 0.8709 0.8701
3585.000000 0.8692 0.8684 0.8675 0.8666 0.8658
3580.000000 0.8649 0.8640 0.8631 0.8621 0.8613
3575.000000 0.8604 0.8595 0.8586 0.8577 0.8568
3570.000000 0.8559 0.8550 0.8541 0.8532 0.8521
3565.000000 0.8512 0.8502 0.8492 0.8482 0.8471
3560.000000 0.8458 0.8445 0.8431 0.8418 0.8405
3555.000000 0.8392 0.8378 0.8366 0.8353 0.8340
3550.000000 0.8325 0.8313 0.8300 0.8286 0.8273
3545.000000 0.8260 0.8246 0.8233 0.8220 0.8207
3540.000000 0.8195 0.8184 0.8171 0.8161 0.8150
3535.000000 0.8139 0.8126 0.8115 0.8105 0.8094
3530.000000 0.8082 0.8071 0.8058 0.8048 0.8036
3525.000000 0.8025 0.8012 0.8001 0.7991 0.7978
3520.000000 0.7967 0.7955 0.7943 0.7931 0.7918
3515.000000 0.7906 0.7893 0.7880 0.7867 0.7854
3510.000000 0.7841 0.7828 0.7815 0.7801 0.7788
3505.000000 0.7775 0.7761 0.7749 0.7736 0.7725
3500.000000 0.7715 0.7705 0.7695 0.7685 0.7675
3495.000000 0.7668 0.7661 0.7653 0.7645 0.7637
3490.000000 0.7628 0.7621 0.7612 0.7605 0.7597
3485.000000 0.7589 0.7581 0.7572 0.7565 0.7557
3480.000000 0.7549 0.7541 0.7533 0.7525 0.7517
3475.000000 0.7508 0.7501 0.7493 0.7485 0.7476
3470.000000 0.7468 0.7460 0.7451 0.7443 0.7431
3465.000000 0.7418 0.7407 0.7395 0.7383 0.7369
3460.000000 0.7357 0.7344 0.7331 0.7318 0.7305
3455.000000 0.7293 0.7280 0.7267 0.7251 0.7238
3450.000000 0.7222 0.7208 0.7193 0.7175 0.7157
3445.000000 0.7140 0.7121 0.7104 0.7086 0.7068
3440.000000 0.7051 0.7033 0.7015 0.6998 0.6980
3435.000000 0.6962 0.6945 0.6924 0.6904 0.6883
3430.000000 0.6861 0.6839 0.6811 0.6785 0.6758
3425.000000 0.6731 0.6708 0.6690 0.6671 0.6651
3420.000000 0.6633 0.6617 0.6601 0.6585 0.6568
3415.000000 0.6553 0.6537 0.6521 0.6505 0.6489
3410.000000 0.6471 0.6455 0.6437 0.6419 0.6403
3405.000000 0.6383 0.6362 0.6343 0.6323 0.6303
3400.000000 0.6283 0.6264 0.6244 0.6224 0.6207
3395.000000 0.6191 0.6175 0.6158 0.6143 0.6130
3390.000000 0.6117 0.6104 0.6091 0.6077 0.6064
3385.000000 0.6051 0.6037 0.6024 0.6010 0.5998
3380.000000 0.5985 0.5972 0.5959 0.5945 0.5932
3375.000000 0.5919 0.5906 0.5892 0.5878 0.5864
3370.000000 0.5850 0.5836 0.5822 0.5807 0.5793
3365.000000 0.5779 0.5765 0.5751 0.5737 0.5723
3360.000000 0.5708 0.5694 0.5680 0.5666 0.5652
3355.000000 0.5609 0.5555 0.5500 0.5446 0.5390
3350.000000 0.5328 0.5266 0.5205 0.5143 0.5079
3345.000000 0.5015 0.4951 0.4887 0.4834 0.4816
3340.000000 0.4799 0.4781 0.4762 0.4746 0.4728
3335.000000 0.4710 0.4692 0.4675 0.4657 0.4639
3330.000000 0.4622 0.4604 0.4587 0.4569 0.4551
3325.000000 0.4533 0.4515 0.4497 0.4479 0.4460
3320.000000 0.4444 0.4426 0.4408 0.4390 0.4372
3315.000000 0.4354 0.4336 0.4318 0.4300 0.4282
3310.000000 0.4264 0.4246 0.4228 0.4210 0.4192
3305.000000 0.4174 0.4155 0.4137 0.4119 0.4101
3300.000000 0.4082 0.4064 0.4047 0.4029 0.4009
3295.000000 0.3992 0.3974 0.3950 0.3926 0.3902
3290.000000 0.3877 0.3849 0.3816 0.3784 0.3752
3285.000000 0.3721 0.3699 0.3678 0.3656 0.3634
3280.000000 0.3612 0.3590 0.3568 0.3547 0.3522
3275.000000 0.3494 0.3466 0.3438 0.3410 0.3382
3270.000000 0.3355 0.3327 0.3299 0.3268 0.3239
3265.000000 0.3209 0.3179 0.3149 0.3119 0.3088
3260.000000 0.3058 0.3029 0.3003 0.2976 0.2950
3255.000000 0.2923 0.2897 0.2870 0.2844 0.2817
3250.000000 0.2792 0.2766 0.2741 0.2716 0.2694
3245.000000 0.2674 0.2653 0.2633 0.2613 0.2592
3240.000000 0.2572 0.2552 0.2532 0.2513 0.2493
3235.000000 0.2474 0.2455 0.2440 0.2425 0.2409
3230.000000 0.2394 0.2378 0.2363 0.2347 0.2332
3225.000000 0.2316 0.2300 0.2284 0.2269 0.2250
3220.000000 0.2229 0.2208 0.2187 0.2164 0.2139
3215.000000 0.2114 0.2089 0.2064 0.2040 0.2015
3210.000000 0.1990 0.1966 0.1944 0.1922 0.1901
3205.000000 0.1879 0.1856 0.1834 0.1812 0.1790
3200.000000 0.1770 0.1750 0.1731 0.1711 0.1699
3195.000000 0.1689 0.1678 0.1667 0.1657 0.1645
3190.000000 0.1634 0.1625 0.1614 0.1603 0.1592
3185.000000 0.1582 0.1571 0.1560 0.1550 0.1539
3180.000000 0.1528 0.1516 0.1504 0.1492 0.1480
3175.000000 0.1468 0.1456 0.1444 0.1431 0.1419
3170.000000 0.1406 0.1394 0.1382 0.1369 0.1357
3165.000000 0.1345 0.1333 0.1322 0.1310 0.1299
3160.000000 0.1288 0.1277 0.1266 0.1255 0.1244
3155.000000 0.1234 0.1223 0.1212 0.1201 0.1190
3150.000000 0.1180 0.1169 0.1159 0.1149 0.1140
3145.000000 0.1131 0.1122 0.1114 0.1105 0.1096
3140.000000 0.1088 0.1080 0.1071 0.1063 0.1054
3135.000000 0.1044 0.1035 0.1026 0.1016 0.1007
3130.000000 0.0996 0.0987 0.0978 0.0968 0.0958
3125.000000 0.0949 0.0939 0.0930 0.0920 0.0911
3120.000000 0.0902 0.0892 0.0884 0.0874 0.0862
3115.000000 0.0850 0.0838 0.0829 0.0826 0.0822
3110.000000 0.0820 0.0818 0.0817 0.0815 0.0814
3105.000000 0.0813 0.0813 0.0812 0.0812 0.0811
3100.000000 0.0811 0.0810 0.0810 0.0809 0.0809
3095.000000 0.0808 0.0807 0.0807 0.0806 0.0806
3090.000000 0.0805 0.0804 0.0803 0.0802 0.0801
3085.000000 0.0800 0.0800 0.0799 0.0797 0.0794
3080.000000 0.0791 0.0788 0.0785 0.0783 0.0780
3075.000000 0.0777 0.0774 0.0771 0.0768 0.0764
3070.000000 0.0758 0.0752 0.0747 0.0740 0.0734
3065.000000 0.0727 0.0720 0.0713 0.0704 0.0696
3060.000000 0.0688 0.0677 0.0667 0.0656 0.0648
3055.000000 0.0644 0.0640 0.0635 0.0632 0.0630
3050.000000 0.0627 0.0659 0.0624 0.0623 0.0622
3045.000000 0.0622 0.0624 0.0627 0.0629 0.0631
3040.000000 0.0634 0.0637 0.0640 0.0642 0.0645
3035.000000 0.0648 0.0650 0.0653 0.0656 0.0659
3030.000000 0.0662 0.0665 0.0668 0.0671 0.0673
3025.000000 0.0674 0.0676 0.0677 0.0678 0.0678
3020.000000 0.0678 0.0677 0.0677 0.0676 0.0676
3015.000000 0.0674 0.0671 0.0668 0.0665 0.0663
3010.000000 0.0660 0.0658 0.0655 0.0651 0.0646
3005.000000 0.0642 0.0636 0.0630 0.0624 0.0617
3000.000000 0.0611 0.0604 0.0598 0.0587 0.0574
2995.000000 0.0560 0.0546 0.0533 0.0519 0.0505
2990.000000 0.0491 0.0477 0.0463 0.0449 0.0434
2985.000000 0.0419 0.0403 0.0383 0.0351 0.0318
2980.000000 0.0287 0.0262 0.0240 0.0217 0.0199
2975.000000 0.0192 0.0183 0.0177 0.0174 0.0174
2970.000000 0.0174 0.0173 0.0173 0.0172 0.0172
2965.000000 0.0171 0.0171 0.0170 0.0169 0.0169
2960.000000 0.0168 0.0168 0.0167 0.0167 0.0166
2955.000000 0.0165 0.0165 0.0164 0.0163 0.0162
2950.000000 0.0162 0.0161 0.0160 0.0160 0.0159
2945.000000 0.0159 0.0158 0.0157 0.0156 0.0155
2940.000000 0.0155 0.0154 0.0154 0.0154 0.0154
2935.000000 0.0154 0.0153 0.0153 0.0153 0.0153
2930.000000 0.0152 0.0152 0.0152 0.0151 0.0151
2925.000000 0.0151 0.0151 0.0151 0.0151 0.0151
2920.000000 0.0150 0.0150 0.0150 0.0149 0.0149
2915.000000 0.0149 0.0149 0.0149 0.0149 0.0149
2910.000000 0.0149 0.0149 0.0149 0.0149 0.0149
2905.000000 0.0149 0.0149 0.0150 0.0150 0.0150
2900.000000 0.0150 0.0150 0.0150 0.0150 0.0150
2895.000000 0.0150 0.0150 0.0151 0.0151 0.0152
2890.000000 0.0153 0.0153 0.0154 0.0154 0.0155
2885.000000 0.0156 0.0156 0.0159 0.0163 0.0167
2880.000000 0.0171 0.0176 0.0180 0.0184 0.0189
2875.000000 0.0193 0.0198 0.0203 0.0208 0.0215
2870.000000 0.0223 0.0230 0.0237 0.0245 0.0253
2865.000000 0.0261 0.0267 0.0276 0.0283 0.0291
2860.000000 0.0300 0.0310 0.0321 0.0331 0.0342
2855.000000 0.0354 0.0365 0.0377 0.0388 0.0400
2850.000000 0.0412 0.0423 0.0435 0.0448 0.0463
2845.000000 0.0477 0.0492 0.0506 0.0521 0.0535
2840.000000 0.0550 0.0564 0.0579 0.0593 0.0608
2835.000000 0.0623 0.0637 0.0652 0.0666 0.0680
2830.000000 0.0694 0.0708 0.0722 0.0739 0.0756
2825.000000 0.0772 0.0791 0.0810 0.0829 0.0850
2820.000000 0.0872 0.0892 0.0919 0.0947 0.0976
2815.000000 0.1005 0.1031 0.1058 0.1083 0.1103
2810.000000 0.1123 0.1142 0.1174 0.1204 0.1235
2805.000000 0.1268 0.1303 0.1338 0.1362 0.1381
2800.000000 0.1400 0.1419 0.1438 0.1457 0.1476
2795.000000 0.1495 0.1514 0.1533 0.1552 0.1572
2790.000000 0.1591 0.1610 0.1629 0.1649 0.1668
2785.000000 0.1686 0.1706 0.1725 0.1744 0.1764
2780.000000 0.1783 0.1803 0.1822 0.1842 0.1861
2775.000000 0.1881 0.1900 0.1919 0.1937 0.1945
2770.000000 0.1946 0.1946 0.1948 0.1948 0.1948
2765.000000 0.1946 0.1946 0.1945 0.1944 0.1944
2760.000000 0.1944 0.1934 0.1910 0.1885 0.1858
2755.000000 0.1822 0.1785 0.1750 0.1714 0.1678
2750.000000 0.1641 0.1604 0.1569 0.1532 0.1496
2745.000000 0.1460 0.1430 0.1418 0.1381 0.1399
2740.000000 0.1407 0.1415 0.1428 0.1462 0.1496
2735.000000 0.1530 0.1564 0.1598 0.1632 0.1666
2730.000000 0.1700 0.1734 0.1768 0.1802 0.1835
2725.000000 0.1871 0.1904 0.1939 0.1973 0.2007
2720.000000 0.2042 0.2076 0.2110 0.2145 0.2179
2715.000000 0.2213 0.2248 0.2282 0.2317 0.2340
2710.000000 0.2351 0.2362 0.2363 0.2364 0.2363
2705.000000 0.2362 0.2361 0.2360 0.2359 0.2358
2700.000000 0.2364 0.2356 0.2355 0.2354 0.2354
2695.000000 0.2355 0.2356 0.2357 0.2359 0.2360
2690.000000 0.2361 0.2362 0.2363 0.2364 0.2366
2685.000000 0.2355 0.2315 0.2275 0.2234 0.2193
2680.000000 0.2152 0.2111 0.2070 0.2029 0.1987
2675.000000 0.1946 0.1906 0.1865 0.1823 0.1782
2670.000000 0.1741 0.1699 0.1659 0.1626 0.1592
2665.000000 0.1569 0.1569 0.1569 0.1569 0.1569
2660.000000 0.1583 0.1572 0.1575 0.1578 0.1615
2655.000000 0.1664 0.1713 0.1795 0.1882 0.1967
2650.000000 0.2053 0.2139 0.2225 0.2311 0.2397
2645.000000 0.2483 0.2569 0.2655 0.2739 0.2823
2640.000000 0.2906 0.2928 0.2943 0.2964 0.3019
2635.000000 0.3074 0.3122 0.3156 0.3191 0.3226
2630.000000 0.3259 0.3295 0.3330 0.3364 0.3399
2625.000000 0.3434 0.3468 0.3504 0.3539 0.3574
2620.000000 0.3609 0.3644 0.3679 0.3714 0.3749
2615.000000 0.3784 0.3818 0.3854 0.3889 0.3924
2610.000000 0.3959 0.3995 0.4030 0.4064 0.4101
2605.000000 0.4136 0.4170 0.4194 0.4219 0.4237
2600.000000 0.4245 0.4254 0.4258 0.4260 0.4262
2595.000000 0.4262 0.4265 0.4266 0.4266 0.4266
2590.000000 0.4262 0.4259 0.4291 0.4218 0.4181
2585.000000 0.4144 0.4106 0.4068 0.4030 0.3994
2580.000000 0.3956 0.3918 0.3880 0.3843 0.3806
2575.000000 0.3768 0.3730 0.3693 0.3655 0.3616
2570.000000 0.3579 0.3541 0.3503 0.3466 0.3443
2565.000000 0.3425 0.3409 0.3404 0.3400 0.3396
2560.000000 0.3396 0.3395 0.3396 0.3403 0.3428
2555.000000 0.3516 0.3604 0.3692 0.3779 0.3866
2550.000000 0.3953 0.4039 0.4103 0.4136 0.4170
2545.000000 0.4192 0.4212 0.4232 0.4252 0.4272
2540.000000 0.4290 0.4308 0.4326 0.4342 0.4357
2535.000000 0.4374 0.4390 0.4406 0.4423 0.4441
2530.000000 0.4459 0.4480 0.4501 0.4522 0.4543
2525.000000 0.4564 0.4585 0.4605 0.4626 0.4646
2520.000000 0.4666 0.4684 0.4701 0.4718 0.4735
2515.000000 0.4752 0.4769 0.4786 0.4803 0.4821
2510.000000 0.4838 0.4857 0.4875 0.4896 0.4921
2505.000000 0.4946 0.4970 0.4995 0.5020 0.5045
2500.000000 0.5070 0.5093 0.5117 0.5138 0.5157
2495.000000 0.5177 0.5196 0.5216 0.5236 0.5255
2490.000000 0.5274 0.5294 0.5312 0.5333 0.5352
2485.000000 0.5372 0.5393 0.5415 0.5436 0.5457
2480.000000 0.5478 0.5499 0.5520 0.5541 0.5562
2475.000000 0.5584 0.5605 0.5626 0.5651 0.5678
2470.000000 0.5705 0.5733 0.5762 0.5790 0.5819
2465.000000 0.5847 0.5876 0.5904 0.5931 0.5958
2460.000000 0.5981 0.6001 0.6022 0.6043 0.6064
2455.000000 0.6085 0.6106 0.6126 0.6143 0.6159
2450.000000 0.6175 0.6192 0.6208 0.6224 0.6239
2445.000000 0.6253 0.6268 0.6282 0.6297 0.6310
2440.000000 0.6326 0.6340 0.6354 0.6368 0.6382
2435.000000 0.6394 0.6407 0.6418 0.6430 0.6442
2430.000000 0.6453 0.6465 0.6476 0.6489 0.6500
2425.000000 0.6511 0.6521 0.6532 0.6543 0.6553
2420.000000 0.6564 0.6575 0.6586 0.6598 0.6610
2415.000000 0.6621 0.6633 0.6645 0.6655 0.6665
2410.000000 0.6674 0.6684 0.6692 0.6700 0.6708
2405.000000 0.6715 0.6721 0.6730 0.6737 0.6744
2400.000000 0.6751 0.6758 0.6765 0.6771 0.6775
2395.000000 0.6776 0.6778 0.6782 0.6784 0.6786
2390.000000 0.6789 0.6791 0.6793 0.6794 0.6818
2385.000000 0.6796 0.6796 0.6797 0.6797 0.6797
2380.000000 0.6787 0.6775 0.6755 0.6730 0.6701
2375.000000 0.6667 0.6634 0.6607 0.6581 0.6561
2370.000000 0.6542 0.6528 0.6518 0.6511 0.6510
2365.000000 0.6507 0.6505 0.6503 0.6500 0.6498
2360.000000 0.6498 0.6500 0.6501 0.6485 0.6507
2355.000000 0.6510 0.6512 0.6521 0.6531 0.6541
2350.000000 0.6551 0.6564 0.6578 0.6594 0.6611
2345.000000 0.6630 0.6649 0.6667 0.6684 0.6701
2340.000000 0.6718 0.6735 0.6749 0.6761 0.6771
2335.000000 0.6781 0.6790 0.6799 0.6808 0.6815
2330.000000 0.6824 0.6828 0.6833 0.6838 0.6843
2325.000000 0.6847 0.6853 0.6857 0.6861 0.6867
2320.000000 0.6871 0.6876 0.6882 0.6886 0.6891
2315.000000 0.6896 0.6903 0.6910 0.6918 0.6928
2310.000000 0.6960 0.7010 0.7061 0.7111 0.7157
2305.000000 0.7182 0.7207 0.7228 0.7248 0.7268
2300.000000 0.7289 0.7308 0.7328 0.7348 0.7367
2295.000000 0.7382 0.7396 0.7411 0.7425 0.7439
2290.000000 0.7454 0.7469 0.7489 0.7508 0.7530
2285.000000 0.7551 0.7572 0.7593 0.7608 0.7622
2280.000000 0.7638 0.7653 0.7667 0.7682 0.7691
2275.000000 0.7700 0.7706 0.7712 0.7718 0.7725
2270.000000 0.7732 0.7739 0.7746 0.7755 0.7762
2265.000000 0.7771 0.7780 0.7788 0.7797 0.7806
2260.000000 0.7815 0.7826 0.7838 0.7849 0.7860
2255.000000 0.7871 0.7883 0.7893 0.7904 0.7915
2250.000000 0.7925 0.7935 0.7944 0.7953 0.7961
2245.000000 0.7971 0.7980 0.7989 0.7999 0.8008
2240.000000 0.8017 0.8025 0.8035 0.8044 0.8054
2235.000000 0.8062 0.8071 0.8081 0.8090 0.8098
2230.000000 0.8107 0.8115 0.8125 0.8133 0.8142
2225.000000 0.8151 0.8158 0.8168 0.8175 0.8184
2220.000000 0.8194 0.8207 0.8220 0.8234 0.8248
2215.000000 0.8261 0.8274 0.8288 0.8302 0.8315
2210.000000 0.8328 0.8342 0.8355 0.8368 0.8383
2205.000000 0.8396 0.8410 0.8424 0.8437 0.8451
2200.000000 0.8458 0.8462 0.8465 0.8466 0.8467
2195.000000 0.8467 0.8466 0.8466 0.8465 0.8465
2190.000000 0.8464 0.8463 0.8462 0.8459 0.8449
2185.000000 0.8439 0.8428 0.8418 0.8407 0.8396
2180.000000 0.8387 0.8380 0.8375 0.8371 0.8367
2175.000000 0.8363 0.8362 0.8362 0.8366 0.8370
2170.000000 0.8375 0.8384 0.8393 0.8401 0.8408
2165.000000 0.8410 0.8413 0.8416 0.8418 0.8421
2160.000000 0.8420 0.8418 0.8415 0.8412 0.8410
2155.000000 0.8407 0.8401 0.8392 0.8378 0.8368
2150.000000 0.8360 0.8353 0.8346 0.8343 0.8341
2145.000000 0.8341 0.8341 0.8341 0.8343 0.8348
2140.000000 0.8357 0.8370 0.8386 0.8405 0.8428
2135.000000 0.8453 0.8475 0.8499 0.8520 0.8539
2130.000000 0.8556 0.8571 0.8583 0.8589 0.8593
2125.000000 0.8596 0.8600 0.8602 0.8605 0.8608
2120.000000 0.8608 0.8607 0.8605 0.8603 0.8591
2115.000000 0.8577 0.8555 0.8530 0.8497 0.8461
2110.000000 0.8421 0.8381 0.8341 0.8301 0.8261
2105.000000 0.8221 0.8181 0.8141 0.8101 0.8060
2100.000000 0.8044 0.8034 0.8034 0.8034 0.8039
2095.000000 0.8055 0.8050 0.8138 0.8207 0.8251
2090.000000 0.8296 0.8343 0.8389 0.8436 0.8482
2085.000000 0.8528 0.8561 0.8588 0.8604 0.8613
2080.000000 0.8617 0.8620 0.8623 0.8625 0.8627
2075.000000 0.8628 0.8631 0.8633 0.8635 0.8638
2070.000000 0.8642 0.8646 0.8651 0.8655 0.8660
2065.000000 0.8667 0.8677 0.8690 0.8703 0.8716
2060.000000 0.8728 0.8741 0.8754 0.8766 0.8778
2055.000000 0.8788 0.8795 0.8799 0.8802 0.8806
2050.000000 0.8810 0.8813 0.8815 0.8816 0.8816
2045.000000 0.8815 0.8815 0.8815 0.8815 0.8815
2040.000000 0.8814 0.8813 0.8812 0.8811 0.8811
2035.000000 0.8809 0.8808 0.8807 0.8806 0.8806
2030.000000 0.8806 0.8805 0.8805 0.8805 0.8805
2025.000000 0.8805 0.8805 0.8805 0.8806 0.8808
2020.000000 0.8809 0.8810 0.8811 0.8812 0.8814
2015.000000 0.8821 0.8828 0.8836 0.8843 0.8851
2010.000000 0.8861 0.8871 0.8881 0.8891 0.8901
2005.000000 0.8909 0.8917 0.8924 0.8932 0.8939
2000.000000 0.8944 0.8947 0.8950 0.8953 0.8956
1995.000000 0.8958 0.8961 0.8961 0.8962 0.8962
1990.000000 0.8961 0.8961 0.8955 0.8947 0.8935
1985.000000 0.8923 0.8910 0.8898 0.8880 0.8858
1980.000000 0.8821 0.8783 0.8744 0.8705 0.8671
1975.000000 0.8654 0.8637 0.8620 0.8602 0.8589
1970.000000 0.8578 0.8573 0.8567 0.8561 0.8558
1965.000000 0.8558 0.8558 0.8560 0.8562 0.8563
1960.000000 0.8565 0.8566 0.8570 0.8573 0.8575
1955.000000 0.8578 0.8582 0.8585 0.8588 0.8587
1950.000000 0.8587 0.8586 0.8585 0.8584 0.8583
1945.000000 0.8582 0.8581 0.8578 0.8573 0.8565
1940.000000 0.8556 0.8548 0.8540 0.8531 0.8523
1935.000000 0.8515 0.8507 0.8499 0.8492 0.8484
1930.000000 0.8477 0.8468 0.8461 0.8454 0.8446
1925.000000 0.8440 0.8436 0.8432 0.8428 0.8425
1920.000000 0.8421 0.8418 0.8415 0.8412 0.8408
1915.000000 0.8406 0.8403 0.8400 0.8398 0.8396
1910.000000 0.8393 0.8391 0.8371 0.8325 0.8290
1905.000000 0.8254 0.8218 0.8184 0.8149 0.8114
1900.000000 0.8078 0.8043 0.8003 0.7949 0.7887
1895.000000 0.7830 0.7784 0.7761 0.7741 0.7719
1890.000000 0.7698 0.7678 0.7658 0.7639 0.7621
1885.000000 0.7603 0.7585 0.7569 0.7555 0.7540
1880.000000 0.7524 0.7511 0.7501 0.7495 0.7489
1875.000000 0.7483 0.7476 0.7471 0.7465 0.7460
1870.000000 0.7454 0.7451 0.7448 0.7445 0.7443
1865.000000 0.7441 0.7438 0.7431 0.7418 0.7403
1860.000000 0.7389 0.7374 0.7355 0.7334 0.7312
1855.000000 0.7292 0.7272 0.7256 0.7238 0.7221
1850.000000 0.7203 0.7187 0.7168 0.7151 0.7134
1845.000000 0.7117 0.7096 0.7072 0.7051 0.7028
1840.000000 0.7005 0.6982 0.6958 0.6936 0.6912
1835.000000 0.6890 0.6865 0.6839 0.6810 0.6781
1830.000000 0.6753 0.6724 0.6695 0.6665 0.6637
1825.000000 0.6607 0.6576 0.6547 0.6517 0.6487
1820.000000 0.6456 0.6425 0.6396 0.6365 0.6334
1815.000000 0.6302 0.6269 0.6235 0.6201 0.6167
1810.000000 0.6133 0.6099 0.6065 0.6031 0.5996
1805.000000 0.5958 0.5915 0.5872 0.5829 0.5786
1800.000000 0.5744 0.5700 0.5657 0.5614 0.5571
1795.000000 0.5529 0.5486 0.5443 0.5401 0.5358
1790.000000 0.5315 0.5272 0.5229 0.5186 0.5134
1785.000000 0.5089 0.5056 0.5031 0.5007 0.4983
1780.000000 0.4959 0.4934 0.4907 0.4877 0.4846
1775.000000 0.4815 0.4785 0.4755 0.4725 0.4643
1770.000000 0.4547 0.4452 0.4365 0.4283 0.4240
1765.000000 0.4208 0.4175 0.4142 0.4110 0.4077
1760.000000 0.4044 0.4010 0.3978 0.3945 0.3912
1755.000000 0.3879 0.3839 0.3787 0.3729 0.3684
1750.000000 0.3647 0.3612 0.3577 0.3541 0.3506
1745.000000 0.3471 0.3436 0.3400 0.3366 0.3334
1740.000000 0.3300 0.3266 0.3232 0.3200 0.3166
1735.000000 0.3132 0.3097 0.3061 0.3025 0.2989
1730.000000 0.2953 0.2917 0.2880 0.2844 0.2808
1725.000000 0.2772 0.2737 0.2700 0.2665 0.2622
1720.000000 0.2571 0.2515 0.2463 0.2422 0.2388
1715.000000 0.2354 0.2318 0.2283 0.2252 0.2233
1710.000000 0.2218 0.2201 0.2184 0.2166 0.2149
1705.000000 0.2122 0.2075 0.2014 0.1929 0.1848
1700.000000 0.1775 0.1722 0.1683 0.1644 0.1608
1695.000000 0.1573 0.1537 0.1503 0.1470 0.1436
1690.000000 0.1400 0.1362 0.1324 0.1287 0.1251
1685.000000 0.1223 0.1202 0.1184 0.1167 0.1153
1680.000000 0.1144 0.1139 0.1133 0.1133 0.1140
1675.000000 0.1152 0.1165 0.1177 0.1190 0.1203
1670.000000 0.1216 0.1212 0.1207 0.1196 0.1183
1665.000000 0.1166 0.1149 0.1130 0.1108 0.1086
1660.000000 0.1057 0.1025 0.0983 0.0925 0.0857
1655.000000 0.0788 0.0723 0.0662 0.0600 0.0539
1650.000000 0.0479 0.0431 0.0417 0.0406 0.0393
1645.000000 0.0382 0.0373 0.0363 0.0354 0.0345
1640.000000 0.0336 0.0327 0.0317 0.0310 0.0301
1635.000000 0.0293 0.0286 0.0280 0.0275 0.0270
1630.000000 0.0265 0.0260 0.0255 0.0250 0.0245
1625.000000 0.0240 0.0234 0.0231 0.0227 0.0222
1620.000000 0.0217 0.0213 0.0209 0.0208 0.0208
1615.000000 0.0208 0.0207 0.0206 0.0206 0.0205
1610.000000 0.0205 0.0205 0.0206 0.0208 0.0208
1605.000000 0.0210 0.0211 0.0213 0.0214 0.0217
1600.000000 0.0223 0.0228 0.0233 0.0237 0.0243
1595.000000 0.0247 0.0252 0.0257 0.0263 0.0272
1590.000000 0.0283 0.0295 0.0306 0.0317 0.0329
1585.000000 0.0341 0.0352 0.0365 0.0381 0.0401
1580.000000 0.0421 0.0441 0.0461 0.0486 0.0518
1575.000000 0.0550 0.0582 0.0616 0.0653 0.0691
1570.000000 0.0729 0.0768 0.0808 0.0846 0.0880
1565.000000 0.0908 0.0928 0.0936 0.0942 0.0946
1560.000000 0.0947 0.0950 0.0952 0.0958 0.0966
1555.000000 0.0989 0.1038 0.1099 0.1154 0.1205
1550.000000 0.1256 0.1299 0.1335 0.1370 0.1403
1545.000000 0.1429 0.1445 0.1454 0.1459 0.1463
1540.000000 0.1468 0.1474 0.1484 0.1495 0.1514
1535.000000 0.1538 0.1564 0.1600 0.1639 0.1664
1530.000000 0.1682 0.1699 0.1707 0.1713 0.1713
1525.000000 0.1713 0.1729 0.1729 0.1729 0.1729
1520.000000 0.1724 0.1714 0.1698 0.1657 0.1559
1515.000000 0.1485 0.1412 0.1338 0.1264 0.1190
1510.000000 0.1116 0.1041 0.0966 0.0892 0.0818
1505.000000 0.0743 0.0668 0.0607 0.0587 0.0563
1500.000000 0.0577 0.0606 0.0656 0.0709 0.0761
1495.000000 0.0814 0.0866 0.0919 0.0972 0.1025
1490.000000 0.1078 0.1130 0.1183 0.1236 0.1339
1485.000000 0.1319 0.1312 0.1254 0.1159 0.1059
1480.000000 0.0959 0.0859 0.0759 0.0686 0.0641
1475.000000 0.0614 0.0592 0.0543 0.0569 0.0563
1470.000000 0.0565 0.0580 0.0603 0.0636 0.0676
1465.000000 0.0714 0.0738 0.0750 0.0758 0.0767
1460.000000 0.0767 0.0766 0.0755 0.0739 0.0718
1455.000000 0.0696 0.0662 0.0624 0.0583 0.0542
1450.000000 0.0502 0.0461 0.0430 0.0430 0.0430
1445.000000 0.0483 0.0584 0.0680 0.0776 0.0872
1440.000000 0.0968 0.1065 0.1162 0.1258 0.1348
1435.000000 0.1374 0.1390 0.1403 0.1416 0.1431
1430.000000 0.1449 0.1512 0.1656 0.1807 0.1957
1425.000000 0.2108 0.2258 0.2384 0.2453 0.2408
1420.000000 0.2409 0.2395 0.2361 0.2272 0.2171
1415.000000 0.2049 0.1926 0.1804 0.1682 0.1559
1410.000000 0.1436 0.1312 0.1189 0.1066 0.0942
1405.000000 0.0818 0.0694 0.0570 0.0446 0.0331
1400.000000 0.0265 0.0243 0.0226 0.0214 0.0210
1395.000000 0.0207 0.0203 0.0199 0.0197 0.0194
1390.000000 0.0193 0.0193 0.0193 0.0194 0.0198
1385.000000 0.0202 0.0207 0.0217 0.0231 0.0246
1380.000000 0.0272 0.0300 0.0329 0.0365 0.0403
1375.000000 0.0444 0.0497 0.0552 0.0629 0.0744
1370.000000 0.0839 0.0924 0.1022 0.1135 0.1244
1365.000000 0.1353 0.1462 0.1571 0.1679 0.1790
1360.000000 0.1900 0.2009 0.2119 0.2230 0.2340
1355.000000 0.2450 0.2560 0.2672 0.2783 0.2893
1350.000000 0.3004 0.3116 0.3228 0.3340 0.3450
1345.000000 0.3562 0.3676 0.3788 0.3900 0.3984
1340.000000 0.4055 0.4126 0.4199 0.4274 0.4347
1335.000000 0.4417 0.4486 0.4560 0.4615 0.4662
1330.000000 0.4707 0.4748 0.4771 0.4788 0.4801
1325.000000 0.4812 0.4822 0.4822 0.4823 0.4787
1320.000000 0.4699 0.4597 0.4475 0.4040 0.3792
1315.000000 0.3544 0.3296 0.3047 0.2799 0.2550
1310.000000 0.2299 0.2049 0.1799 0.1548 0.1296
1305.000000 0.1045 0.0813 0.0730 0.0616 0.0413
1300.000000 0.0326 0.0306 0.0295 0.0284 0.0282
1295.000000 0.0279 0.0278 0.0299 0.0331 0.0363
1290.000000 0.0383 0.0402 0.0421 0.0500 0.0606
1285.000000 0.0734 0.0860 0.0986 0.1107 0.1217
1280.000000 0.1336 0.1456 0.1576 0.1695 0.1817
1275.000000 0.1936 0.2058 0.2179 0.2299 0.2421
1270.000000 0.2542 0.2664 0.2785 0.2908 0.3030
1265.000000 0.3152 0.3275 0.3398 0.3521 0.3644
1260.000000 0.3766 0.3891 0.3980 0.4049 0.4109
1255.000000 0.4168 0.4221 0.4274 0.4321 0.4365
1250.000000 0.4409 0.4453 0.4495 0.4533 0.4567
1245.000000 0.4587 0.4603 0.4603 0.4531 0.4297
1240.000000 0.3900 0.3899 0.3899 0.4118 0.4599
1235.000000 0.5081 0.5562 0.5741 0.5788 0.5830
1230.000000 0.5866 0.5902 0.5934 0.5959 0.5984
1225.000000 0.6008 0.6032 0.6050 0.6068 0.6077
1220.000000 0.6079 0.6081 0.6077 0.6074 0.6073
1215.000000 0.6073 0.6072 0.6075 0.6078 0.6081
1210.000000 0.6086 0.6089 0.6093 0.6158 0.6231
1205.000000 0.6288 0.6345 0.6401 0.6461 0.6530
1200.000000 0.6603 0.6660 0.6665 0.6667 0.6667
1195.000000 0.6671 0.6693 0.6719 0.6782 0.6838
1190.000000 0.6874 0.6907 0.6941 0.6972 0.7000
1185.000000 0.7025 0.7053 0.7078 0.7096 0.7104
1180.000000 0.7111 0.7121 0.7135 0.7148 0.7161
1175.000000 0.7175 0.7189 0.7201 0.7215 0.7235
1170.000000 0.7256 0.7276 0.7298 0.7318 0.7340
1165.000000 0.7362 0.7384 0.7410 0.7440 0.7468
1160.000000 0.7498 0.7526 0.7556 0.7585 0.7615
1155.000000 0.7649 0.7682 0.7722 0.7768 0.7815
1150.000000 0.7871 0.7933 0.8014 0.8105 0.8185
1145.000000 0.8225 0.8264 0.8304 0.8345 0.8386
1140.000000 0.8424 0.8455 0.8485 0.8506 0.8523
1135.000000 0.8525 0.8525 0.8525 0.8525 0.8525
1130.000000 0.8527 0.8533 0.8567 0.8600 0.8621
1125.000000 0.8628 0.8625 0.8634 0.8635 0.8636
1120.000000 0.8637 0.8637 0.8635 0.8633 0.8618
1115.000000 0.8602 0.8573 0.8538 0.8501 0.8478
1110.000000 0.8484 0.8505 0.8510 0.8515 0.8515
1105.000000 0.8504 0.8491 0.8461 0.8424 0.8387
1100.000000 0.8343 0.8277 0.8209 0.8117 0.8003
1095.000000 0.7875 0.7746 0.7588 0.7410 0.7211
1090.000000 0.7008 0.6590 0.6126 0.5801 0.5703
1085.000000 0.5582 0.5248 0.4687 0.4125 0.3560
1080.000000 0.2997 0.2432 0.1866 0.1299 0.0782
1075.000000 0.0588 0.0471 0.0386 0.0338 0.0313
1070.000000 0.0295 0.0279 0.0272 0.0268 0.0286
1065.000000 0.0277 0.0305 0.0365 0.0430 0.0487
1060.000000 0.0566 0.0682 0.0799 0.0947 0.1124
1055.000000 0.1301 0.1478 0.1654 0.1833 0.2011
1050.000000 0.2190 0.2368 0.2547 0.2727 0.2904
1045.000000 0.3022 0.3132 0.3230 0.3325 0.3444
1040.000000 0.3575 0.3672 0.3768 0.3862 0.3958
1035.000000 0.4053 0.4172 0.4283 0.4367 0.4450
1030.000000 0.4525 0.4582 0.4680 0.4647 0.4662
1025.000000 0.4658 0.4652 0.4633 0.4329 0.3855
1020.000000 0.3380 0.3174 0.3150 0.3730 0.4647
1015.000000 0.5553 0.5815 0.6014 0.6160 0.6312
1010.000000 0.6422 0.6490 0.6556 0.6596 0.6619
1005.000000 0.6637 0.6650 0.6656 0.6661 0.6665
1000.000000 0.6668 0.6668 0.6668 0.6667 0.6664
995.000000 0.6661 0.6658 0.6658 0.6657 0.6674
990.000000 0.6692 0.6705 0.6715 0.6715 0.6711
985.000000 0.6708 0.6701 0.6691 0.6680 0.6668
980.000000 0.6658 0.6649 0.6640 0.6632 0.6628
975.000000 0.6622 0.6618 0.6619 0.6625 0.6631
970.000000 0.6636 0.6641 0.6647 0.6651 0.6657
965.000000 0.6662 0.6668 0.6674 0.6680 0.6687
960.000000 0.6694 0.6700 0.6704 0.6708 0.6711
955.000000 0.6711 0.6698 0.6681 0.6668 0.6658
950.000000 0.6651 0.6644 0.6637 0.6630 0.6622
945.000000 0.6615 0.6608 0.6599 0.6591 0.6583
940.000000 0.6575 0.6568 0.6561 0.6555 0.6550
935.000000 0.6543 0.6536 0.6528 0.6522 0.6515
930.000000 0.6508 0.6497 0.6487 0.6475 0.6465
925.000000 0.6451 0.6436 0.6421 0.6401 0.6376
920.000000 0.6347 0.6292 0.6236 0.6133 0.6037
915.000000 0.5935 0.5760 0.5143 0.4482 0.3820
910.000000 0.3156 0.2690 0.2685 0.2978 0.3479
905.000000 0.3960 0.4217 0.4499 0.4617 0.4683
900.000000 0.4732 0.4772 0.4807 0.4831 0.4852
895.000000 0.4825 0.4805 0.4753 0.4692 0.4632
890.000000 0.4576 0.4520 0.4457 0.4377 0.4298
885.000000 0.4212 0.4117 0.4022 0.3928 0.3837
880.000000 0.3743 0.3634 0.3526 0.3407 0.3290
875.000000 0.3183 0.3073 0.2955 0.2724 0.2457
870.000000 0.2298 0.2140 0.1981 0.1820 0.1660
865.000000 0.1521 0.1416 0.1269 0.1116 0.1040
860.000000 0.0964 0.0891 0.0821 0.0755 0.0714
855.000000 0.0679 0.0657 0.0628 0.0636 0.0637
850.000000 0.0642 0.0663 0.0689 0.0735 0.0781
845.000000 0.0865 0.0985 0.1130 0.1288 0.1430
840.000000 0.1569 0.1706 0.1873 0.2076 0.2229
835.000000 0.2384 0.2588 0.2772 0.2956 0.3150
830.000000 0.3287 0.3470 0.3722 0.3977 0.4232
825.000000 0.4487 0.4744 0.5001 0.5212 0.5373
820.000000 0.5524 0.5666 0.5806 0.5943 0.6067
815.000000 0.6168 0.6268 0.6378 0.6499 0.6665
810.000000 0.6714 0.6742 0.6819 0.6893 0.6957
805.000000 0.7008 0.7057 0.7078 0.7099 0.7107
800.000000 0.7114 0.7114 0.7114 0.7121 0.7151
795.000000 0.7175 0.7198 0.7218 0.7253 0.7288
790.000000 0.7330 0.7380 0.7431 0.7483 0.7535
785.000000 0.7592 0.7661 0.7732 0.7804 0.7881
780.000000 0.7958 0.8041 0.8133 0.8221 0.8301
775.000000 0.8383 0.8463 0.8541 0.8620 0.8696
770.000000 0.8771 0.8846 0.8915 0.8980 0.9047
765.000000 0.9106 0.9159 0.9209 0.9259 0.9307
760.000000 0.9354 0.9398 0.9443 0.9473 0.9471
755.000000 0.9454 0.9447 0.9450 0.9461 0.9484
750.000000 0.9507 0.9525 0.9538 0.9547 0.9486
745.000000 0.9452 0.9449 0.9398 0.9328 0.9258
740.000000 0.9187 0.9109 0.9031 0.8950 0.8862
735.000000 0.8775 0.8677 0.8563 0.8449 0.8318
730.000000 0.8185 0.8051 0.7910 0.7748 0.7574
725.000000 0.7381 0.7168 0.6987 0.6815 0.6648
720.000000 0.6485 0.6322 0.6118 0.5897 0.5716
715.000000 0.5534 0.5312 0.5056 0.4675 0.4347
710.000000 0.4046 0.3609 0.3209 0.2932 0.2597
705.000000 0.2340 0.2098 0.1721 0.1558 0.1455
700.000000 0.1364 0.1298 0.1246 0.1214 0.1214
695.000000 0.1292 0.1446 0.1644 0.1926 0.2197
690.000000 0.2467 0.2718 0.2985 0.3298 0.3610
685.000000 0.3925 0.4239 0.4554 0.4845 0.5054
680.000000 0.5268 0.5496 0.5697 0.5882 0.6090
675.000000 0.6292 0.6464 0.6603 0.6733 0.6876
670.000000 0.7021 0.7132 0.7137 0.7076 0.6869
665.000000 0.6886 0.6962 0.7136 0.7289 0.7432
660.000000 0.7571 0.7703 0.7791 0.7799 0.7730
655.000000 0.7689 0.7718 0.7678 0.7645 0.7645
650.000000 0.7634 0.7612 0.7578 0.7540 0.7500
645.000000 0.7453 0.7407 0.7358 0.7317 0.7275
640.000000 0.7236 0.7193 0.7149 0.7099 0.7034
635.000000 0.6950 0.6864 0.6798 0.6738 0.6680
630.000000 0.6621 0.6554 0.6468 0.6381 0.6300
625.000000 0.6239
##END=
