##TITLE=MANGANESE TETRABORATE
$$ C. P.
##JCAMP-DX=4.24
##DATA TYPE=INFRARED SPECTRUM
##CLASS=COBLENTZ
##ORIGIN=MELLON INSTITUTE
##OWNER=COBLENTZ SOCIETY
Collection (C) 2018 copyright by the U.S. Secretary of Commerce
on behalf of the United States of America. All rights reserved.
##DATE=Not specified, most likely prior to 1970
##MOLFORM=Mn B4 O7  * 8 H2 O
##SOURCE REFERENCE=COBLENTZ NO. 450
##$NIST ID=B6000450
##$NIST SOURCE=COBLENTZ
##$NIST IMAGE=cob450
##SPECTROMETER/DATA SYSTEM=Not specified, most likely a prism, grating, or hybrid spectrometer.
##STATE=SOLID (NUJOL MULL)
##PATH LENGTH=
$$SPECTRAL CONTAMINATION DUE TO OIL AROUND 2900 CM^-^1
##SAMPLING PROCEDURE=TRANSMISSION
##RESOLUTION=4
##DATA PROCESSING=DIGITIZED BY NIST FROM HARD COPY
##XUNITS=MICROMETERS
##YUNITS=TRANSMITTANCE
##XFACTOR=1.000000
##YFACTOR=1
##DELTAX=000.006639
##FIRSTX=2.057
##LASTX=16.0179
##FIRSTY=0.974
##MAXX=16.0179
##MINX=2.057
##MAXY=0.988
##MINY=0.125
##NPOINTS=2104
##XYDATA=(X++(Y..Y))
2.057000 0.9740 0.9740 0.9760 0.9760 0.9760
2.090208 0.9760 0.9780 0.9780 0.9780 0.9780
2.124000 0.9780 0.9760 0.9760 0.9780 0.9790
2.157208 0.9790 0.9790 0.9790 0.9810 0.9810
2.190000 0.9810 0.9830 0.9830 0.9840 0.9840
2.223208 0.9860 0.9860 0.9880 0.9860 0.9840
2.256000 0.9840 0.9840 0.9830 0.9810 0.9780
2.289208 0.9740 0.9730 0.9690 0.9690 0.9690
2.323000 0.9690 0.9710 0.9730 0.9730 0.9730
2.356208 0.9730 0.9740 0.9740 0.9760 0.9760
2.389000 0.9760 0.9760 0.9760 0.9780 0.9780
2.422208 0.9760 0.9760 0.9760 0.9760 0.9760
2.456000 0.9780 0.9780 0.9790 0.9810 0.9810
2.489208 0.9810 0.9810 0.9790 0.9790 0.9790
2.522000 0.9790 0.9790 0.9790 0.9790 0.9790
2.555208 0.9790 0.9780 0.9780 0.9780 0.9780
2.588000 0.9810 0.9830 0.9830 0.9830 0.9810
2.621208 0.9810 0.9810 0.9790 0.9740 0.9690
2.655000 0.9610 0.9580 0.9590 0.9590 0.9610
2.688208 0.9610 0.9580 0.9530 0.9440 0.9210
2.721000 0.9080 0.8840 0.8620 0.8470 0.8310
2.754208 0.8020 0.7690 0.7220 0.7170 0.6970
2.788000 0.6770 0.6330 0.6050 0.5830 0.5750
2.821208 0.5660 0.5400 0.5200 0.5030 0.4890
2.854000 0.4780 0.4680 0.4560 0.4510 0.4390
2.887208 0.4340 0.4310 0.4280 0.4230 0.4160
2.920000 0.4130 0.4080 0.4060 0.4030 0.4030
2.953208 0.4010 0.4010 0.4010 0.4010 0.4030
2.987000 0.4040 0.4060 0.4130 0.4140 0.4190
3.020208 0.4230 0.4280 0.4330 0.4380 0.4410
3.053000 0.4480 0.4530 0.4560 0.4610 0.4730
3.086208 0.4780 0.4840 0.4910 0.5030 0.5100
3.119000 0.5150 0.5200 0.5250 0.5400 0.5460
3.152208 0.5530 0.5660 0.5860 0.5910 0.6000
3.186000 0.6020 0.6030 0.6180 0.6250 0.6280
3.219208 0.6380 0.6430 0.6480 0.6530 0.6580
3.252000 0.6620 0.6670 0.6700 0.6700 0.6600
3.285208 0.6400 0.6250 0.5950 0.5580 0.5200
3.319000 0.4240 0.3290 0.2600 0.1920 0.1720
3.352208 0.1550 0.1430 0.1320 0.1280 0.1250
3.385000 0.1280 0.1400 0.2120 0.2570 0.2840
3.418208 0.3170 0.3170 0.3120 0.2970 0.2900
3.451000 0.2850 0.2900 0.3290 0.3540 0.4190
3.484208 0.5160 0.5480 0.6350 0.7120 0.7770
3.518000 0.7990 0.8170 0.8340 0.8520 0.8720
3.551208 0.8770 0.8840 0.8910 0.8990 0.9040
3.584000 0.9090 0.9140 0.9180 0.9190 0.9230
3.617208 0.9240 0.9240 0.9260 0.9280 0.9290
3.651000 0.9310 0.9310 0.9330 0.9360 0.9380
3.684208 0.9390 0.9390 0.9390 0.9390 0.9410
3.717000 0.9410 0.9430 0.9440 0.9460 0.9460
3.750208 0.9480 0.9490 0.9490 0.9490 0.9510
3.783000 0.9530 0.9540 0.9540 0.9560 0.9580
3.816208 0.9580 0.9590 0.9610 0.9610 0.9630
3.850000 0.9630 0.9630 0.9610 0.9630 0.9630
3.883208 0.9660 0.9680 0.9690 0.9690 0.9680
3.916000 0.9660 0.9610 0.9610 0.9660 0.9690
3.949208 0.9710 0.9730 0.9740 0.9740 0.9740
3.982000 0.9730 0.9730 0.9710 0.9710 0.9710
4.015208 0.9710 0.9710 0.9710 0.9690 0.9690
4.049000 0.9680 0.9680 0.9660 0.9660 0.9680
4.082208 0.9680 0.9680 0.9640 0.9630 0.9660
4.115000 0.9680 0.9730 0.9730 0.9710 0.9710
4.148208 0.9690 0.9690 0.9660 0.9660 0.9640
4.182000 0.9610 0.9580 0.9560 0.9510 0.9480
4.215208 0.9440 0.9430 0.9390 0.9380 0.9380
4.248000 0.9380 0.9380 0.9360 0.9340 0.9330
4.281208 0.9310 0.9310 0.9310 0.9310 0.9340
4.314000 0.9360 0.9360 0.9380 0.9390 0.9410
4.347208 0.9430 0.9440 0.9460 0.9490 0.9530
4.381000 0.9560 0.9580 0.9610 0.9630 0.9630
4.414208 0.9630 0.9590 0.9580 0.9560 0.9580
4.447000 0.9580 0.9590 0.9580 0.9560 0.9540
4.480208 0.9540 0.9560 0.9580 0.9580 0.9580
4.514000 0.9580 0.9540 0.9530 0.9530 0.9530
4.547208 0.9510 0.9510 0.9530 0.9530 0.9530
4.580000 0.9530 0.9530 0.9530 0.9530 0.9530
4.613208 0.9510 0.9490 0.9480 0.9480 0.9460
4.646000 0.9460 0.9480 0.9490 0.9490 0.9490
4.679208 0.9490 0.9490 0.9510 0.9510 0.9530
4.713000 0.9530 0.9490 0.9510 0.9510 0.9530
4.746208 0.9530 0.9530 0.9530 0.9530 0.9530
4.779000 0.9510 0.9530 0.9530 0.9540 0.9540
4.812208 0.9530 0.9510 0.9490 0.9490 0.9510
4.846000 0.9510 0.9510 0.9510 0.9490 0.9460
4.879208 0.9460 0.9490 0.9490 0.9510 0.9530
4.912000 0.9530 0.9540 0.9540 0.9540 0.9540
4.945208 0.9560 0.9580 0.9580 0.9590 0.9590
4.978000 0.9590 0.9590 0.9590 0.9590 0.9590
5.011208 0.9590 0.9590 0.9610 0.9610 0.9610
5.045000 0.9610 0.9590 0.9610 0.9610 0.9610
5.078208 0.9610 0.9610 0.9610 0.9610 0.9610
5.111000 0.9610 0.9630 0.9640 0.9640 0.9640
5.144208 0.9660 0.9690 0.9690 0.9630 0.9630
5.177000 0.9630 0.9630 0.9640 0.9640 0.9610
5.210208 0.9590 0.9580 0.9580 0.9580 0.9580
5.244000 0.9580 0.9580 0.9590 0.9590 0.9630
5.277208 0.9630 0.9630 0.9630 0.9630 0.9610
5.310000 0.9610 0.9610 0.9610 0.9610 0.9610
5.343208 0.9610 0.9610 0.9610 0.9610 0.9610
5.377000 0.9610 0.9610 0.9610 0.9610 0.9610
5.410208 0.9610 0.9610 0.9610 0.9610 0.9590
5.443000 0.9580 0.9580 0.9580 0.9560 0.9560
5.476208 0.9560 0.9560 0.9560 0.9560 0.9560
5.509000 0.9540 0.9540 0.9540 0.9560 0.9580
5.542208 0.9580 0.9580 0.9580 0.9580 0.9560
5.576000 0.9560 0.9540 0.9540 0.9530 0.9540
5.609208 0.9540 0.9560 0.9560 0.9560 0.9540
5.642000 0.9530 0.9530 0.9510 0.9480 0.9440
5.675208 0.9440 0.9480 0.9480 0.9490 0.9490
5.709000 0.9480 0.9480 0.9460 0.9430 0.9410
5.742208 0.9410 0.9360 0.9360 0.9360 0.9380
5.775000 0.9380 0.9380 0.9380 0.9380 0.9380
5.808208 0.9380 0.9360 0.9330 0.9310 0.9290
5.841000 0.9280 0.9280 0.9260 0.9240 0.9230
5.874208 0.9180 0.9160 0.9090 0.8990 0.8970
5.908000 0.8960 0.8960 0.8940 0.8910 0.8890
5.941208 0.8860 0.8840 0.8810 0.8790 0.8770
5.974000 0.8720 0.8710 0.8640 0.8560 0.8510
6.007208 0.8460 0.8410 0.8370 0.8340 0.8310
6.040000 0.8260 0.8240 0.8220 0.8190 0.8170
6.073208 0.8160 0.8140 0.8120 0.8120 0.8140
6.107000 0.8160 0.8160 0.8190 0.8210 0.8240
6.140208 0.8290 0.8340 0.8370 0.8420 0.8470
6.173000 0.8520 0.8610 0.8660 0.8740 0.8770
6.206208 0.8810 0.8840 0.8840 0.8870 0.8890
6.240000 0.8910 0.8940 0.8960 0.8960 0.8960
6.273208 0.8960 0.8970 0.8970 0.8990 0.8990
6.306000 0.8990 0.8970 0.8960 0.8940 0.8920
6.339208 0.8920 0.8960 0.8960 0.8970 0.8970
6.372000 0.8960 0.8960 0.8940 0.8920 0.8910
6.405208 0.8890 0.8890 0.8890 0.8870 0.8890
6.439000 0.8890 0.8890 0.8860 0.8840 0.8840
6.472208 0.8820 0.8820 0.8810 0.8810 0.8810
6.505000 0.8770 0.8740 0.8710 0.8690 0.8670
6.538208 0.8660 0.8620 0.8590 0.8570 0.8570
6.572000 0.8560 0.8540 0.8540 0.8510 0.8490
6.605208 0.8460 0.8440 0.8370 0.8310 0.8240
6.638000 0.8170 0.8120 0.8020 0.8010 0.7990
6.671208 0.7790 0.7740 0.7640 0.7500 0.7340
6.704000 0.7250 0.7140 0.7000 0.6820 0.6670
6.737208 0.6500 0.6380 0.6120 0.5980 0.5860
6.771000 0.5710 0.5560 0.5210 0.4660 0.4360
6.804208 0.4330 0.4280 0.4230 0.4180 0.4140
6.837000 0.4130 0.4090 0.4060 0.4040 0.4030
6.870208 0.4010 0.3990 0.3970 0.3970 0.3960
6.903000 0.3970 0.3970 0.3970 0.3970 0.3990
6.936208 0.4010 0.4010 0.4010 0.4010 0.4030
6.970000 0.4030 0.4040 0.4060 0.4080 0.4110
7.003208 0.4110 0.4110 0.4110 0.4090 0.4090
7.036000 0.4110 0.4090 0.4090 0.4040 0.4040
7.069208 0.4030 0.4030 0.4030 0.4010 0.3990
7.103000 0.3990 0.3990 0.3970 0.3940 0.3920
7.136208 0.3890 0.3870 0.3840 0.3770 0.3720
7.169000 0.3670 0.3620 0.3570 0.3520 0.3460
7.202208 0.3360 0.3260 0.3190 0.3120 0.3090
7.235000 0.3060 0.3020 0.3020 0.3010 0.2990
7.268208 0.2990 0.2990 0.2990 0.2990 0.3010
7.302000 0.3020 0.3020 0.3020 0.3040 0.3040
7.335208 0.3090 0.3110 0.3120 0.3140 0.3140
7.368000 0.3140 0.3140 0.3140 0.3160 0.3190
7.401208 0.3190 0.3210 0.3220 0.3240 0.3260
7.435000 0.3270 0.3310 0.3320 0.3360 0.3390
7.468208 0.3410 0.3440 0.3470 0.3510 0.3520
7.501000 0.3570 0.3590 0.3640 0.3670 0.3710
7.534208 0.3740 0.3790 0.3810 0.3860 0.3910
7.567000 0.3970 0.4010 0.4060 0.4110 0.4160
7.600208 0.4210 0.4280 0.4380 0.4410 0.4460
7.634000 0.4490 0.4540 0.4580 0.4610 0.4680
7.667208 0.4730 0.4780 0.4840 0.4860 0.4930
7.700000 0.4980 0.5010 0.5060 0.5110 0.5160
7.733208 0.5200 0.5230 0.5260 0.5300 0.5330
7.766000 0.5360 0.5400 0.5430 0.5460 0.5500
7.799208 0.5530 0.5550 0.5600 0.5610 0.5660
7.833000 0.5680 0.5700 0.5730 0.5750 0.5750
7.866208 0.5760 0.5760 0.5780 0.5800 0.5800
7.899000 0.5800 0.5800 0.5800 0.5810 0.5800
7.932208 0.5800 0.5800 0.5780 0.5780 0.5780
7.966000 0.5760 0.5760 0.5750 0.5750 0.5730
7.999208 0.5730 0.5710 0.5710 0.5710 0.5710
8.032000 0.5700 0.5700 0.5680 0.5680 0.5650
8.065208 0.5630 0.5610 0.5610 0.5580 0.5550
8.098000 0.5530 0.5500 0.5480 0.5460 0.5430
8.131208 0.5410 0.5400 0.5380 0.5360 0.5330
8.165000 0.5310 0.5300 0.5280 0.5280 0.5250
8.198208 0.5230 0.5210 0.5180 0.5150 0.5130
8.231000 0.5100 0.5050 0.5010 0.4940 0.4880
8.264208 0.4790 0.4760 0.4690 0.4640 0.4630
8.298000 0.4580 0.4540 0.4490 0.4430 0.4390
8.331208 0.4340 0.4310 0.4260 0.4180 0.4130
8.364000 0.4060 0.4010 0.4010 0.3990 0.3920
8.397208 0.3840 0.3790 0.3760 0.3720 0.3690
8.430000 0.3660 0.3640 0.3610 0.3590 0.3570
8.463208 0.3540 0.3520 0.3490 0.3440 0.3390
8.497000 0.3360 0.3320 0.3270 0.3240 0.3210
8.530208 0.3170 0.3140 0.3110 0.3060 0.3020
8.563000 0.3010 0.2970 0.2940 0.2900 0.2870
8.596208 0.2850 0.2850 0.2850 0.2850 0.2840
8.629000 0.2820 0.2820 0.2800 0.2790 0.2790
8.662208 0.2790 0.2790 0.2770 0.2750 0.2750
8.696000 0.2750 0.2740 0.2750 0.2750 0.2750
8.729208 0.2750 0.2740 0.2740 0.2740 0.2740
8.762000 0.2740 0.2740 0.2740 0.2750 0.2750
8.795208 0.2750 0.2740 0.2740 0.2740 0.2740
8.829000 0.2740 0.2720 0.2720 0.2700 0.2690
8.862208 0.2690 0.2670 0.2650 0.2650 0.2640
8.895000 0.2640 0.2640 0.2640 0.2640 0.2640
8.928208 0.2620 0.2620 0.2620 0.2620 0.2600
8.961000 0.2600 0.2600 0.2600 0.2600 0.2590
8.994208 0.2590 0.2590 0.2590 0.2590 0.2590
9.028000 0.2570 0.2570 0.2570 0.2550 0.2540
9.061208 0.2540 0.2540 0.2520 0.2520 0.2500
9.094000 0.2490 0.2490 0.2490 0.2470 0.2470
9.127208 0.2450 0.2440 0.2420 0.2420 0.2400
9.161000 0.2400 0.2390 0.2370 0.2350 0.2350
9.194208 0.2340 0.2320 0.2300 0.2300 0.2290
9.227000 0.2270 0.2270 0.2250 0.2240 0.2240
9.260208 0.2240 0.2220 0.2220 0.2220 0.2200
9.293000 0.2220 0.2220 0.2200 0.2200 0.2200
9.326208 0.2200 0.2200 0.2200 0.2200 0.2200
9.360000 0.2220 0.2240 0.2240 0.2240 0.2220
9.393208 0.2220 0.2240 0.2240 0.2240 0.2240
9.426000 0.2250 0.2250 0.2250 0.2250 0.2250
9.459208 0.2250 0.2250 0.2270 0.2290 0.2290
9.492000 0.2300 0.2300 0.2320 0.2320 0.2340
9.525208 0.2350 0.2370 0.2390 0.2400 0.2400
9.559000 0.2420 0.2440 0.2440 0.2440 0.2440
9.592208 0.2440 0.2440 0.2440 0.2450 0.2450
9.625000 0.2450 0.2470 0.2490 0.2490 0.2490
9.658208 0.2490 0.2490 0.2500 0.2500 0.2500
9.692000 0.2520 0.2520 0.2520 0.2520 0.2520
9.725208 0.2520 0.2520 0.2520 0.2520 0.2540
9.758000 0.2540 0.2540 0.2520 0.2540 0.2540
9.791208 0.2540 0.2520 0.2520 0.2540 0.2540
9.824000 0.2540 0.2540 0.2540 0.2550 0.2550
9.857208 0.2550 0.2550 0.2570 0.2550 0.2550
9.891000 0.2550 0.2550 0.2550 0.2550 0.2570
9.924208 0.2570 0.2570 0.2590 0.2590 0.2590
9.957000 0.2590 0.2590 0.2590 0.2590 0.2570
9.990208 0.2570 0.2570 0.2570 0.2570 0.2570
10.024000 0.2550 0.2550 0.2550 0.2550 0.2540
10.057208 0.2540 0.2540 0.2540 0.2550 0.2550
10.090000 0.2550 0.2550 0.2570 0.2570 0.2570
10.123208 0.2570 0.2570 0.2570 0.2570 0.2590
10.156000 0.2590 0.2590 0.2590 0.2570 0.2570
10.189208 0.2590 0.2600 0.2620 0.2620 0.2620
10.223000 0.2640 0.2650 0.2670 0.2690 0.2690
10.256208 0.2690 0.2700 0.2720 0.2720 0.2740
10.289000 0.2750 0.2750 0.2770 0.2790 0.2790
10.322208 0.2800 0.2820 0.2820 0.2840 0.2870
10.355000 0.2890 0.2900 0.2900 0.2900 0.2920
10.388208 0.2950 0.2970 0.2990 0.2990 0.2990
10.422000 0.3010 0.3010 0.3020 0.3040 0.3040
10.455208 0.3040 0.3060 0.3070 0.3070 0.3090
10.488000 0.3090 0.3110 0.3160 0.3210 0.3220
10.521208 0.3240 0.3260 0.3270 0.3270 0.3290
10.555000 0.3290 0.3310 0.3310 0.3310 0.3310
10.588208 0.3310 0.3320 0.3320 0.3340 0.3360
10.621000 0.3360 0.3370 0.3370 0.3410 0.3410
10.654208 0.3420 0.3440 0.3440 0.3440 0.3460
10.687000 0.3460 0.3460 0.3470 0.3490 0.3490
10.720208 0.3520 0.3540 0.3540 0.3540 0.3560
10.754000 0.3570 0.3590 0.3610 0.3610 0.3620
10.787208 0.3640 0.3640 0.3660 0.3670 0.3710
10.820000 0.3720 0.3740 0.3760 0.3760 0.3790
10.853208 0.3810 0.3820 0.3840 0.3860 0.3870
10.887000 0.3920 0.3940 0.3970 0.3970 0.3990
10.920208 0.3990 0.4010 0.4010 0.4090 0.4090
10.953000 0.4130 0.4130 0.4140 0.4160 0.4180
10.986208 0.4190 0.4210 0.4230 0.4230 0.4240
11.019000 0.4240 0.4240 0.4240 0.4240 0.4260
11.052208 0.4260 0.4280 0.4280 0.4290 0.4330
11.086000 0.4330 0.4340 0.4340 0.4360 0.4380
11.119208 0.4380 0.4380 0.4390 0.4390 0.4410
11.152000 0.4430 0.4430 0.4430 0.4430 0.4440
11.185208 0.4440 0.4440 0.4440 0.4460 0.4440
11.218000 0.4460 0.4480 0.4480 0.4490 0.4490
11.251208 0.4510 0.4510 0.4510 0.4530 0.4540
11.285000 0.4540 0.4580 0.4590 0.4590 0.4610
11.318208 0.4630 0.4630 0.4640 0.4660 0.4660
11.351000 0.4680 0.4680 0.4690 0.4690 0.4710
11.384208 0.4730 0.4730 0.4730 0.4740 0.4740
11.418000 0.4760 0.4760 0.4780 0.4790 0.4790
11.451208 0.4810 0.4830 0.4830 0.4830 0.4830
11.484000 0.4840 0.4860 0.4880 0.4890 0.4890
11.517208 0.4910 0.4910 0.4930 0.4930 0.4940
11.550000 0.4980 0.5000 0.5000 0.5010 0.5030
11.583208 0.5030 0.5050 0.5060 0.5080 0.5100
11.617000 0.5110 0.5110 0.5110 0.5110 0.5150
11.650208 0.5180 0.5180 0.5210 0.5230 0.5250
11.683000 0.5250 0.5260 0.5300 0.5300 0.5310
11.716208 0.5330 0.5350 0.5350 0.5360 0.5380
11.750000 0.5400 0.5410 0.5450 0.5460 0.5500
11.783208 0.5530 0.5550 0.5580 0.5610 0.5660
11.816000 0.5680 0.5760 0.5780 0.5810 0.5830
11.849208 0.5850 0.5860 0.5880 0.5900 0.5910
11.882000 0.5930 0.5950 0.5980 0.6000 0.6000
11.915208 0.6020 0.6030 0.6050 0.6080 0.6120
11.949000 0.6130 0.6170 0.6180 0.6200 0.6230
11.982208 0.6250 0.6250 0.6280 0.6320 0.6370
12.015000 0.6370 0.6380 0.6420 0.6430 0.6450
12.048208 0.6480 0.6500 0.6520 0.6530 0.6570
12.081000 0.6580 0.6600 0.6620 0.6620 0.6650
12.114208 0.6670 0.6680 0.6720 0.6730 0.6730
12.148000 0.6750 0.6770 0.6770 0.6770 0.6770
12.181208 0.6780 0.6780 0.6800 0.6800 0.6800
12.214000 0.6820 0.6820 0.6820 0.6850 0.6850
12.247208 0.6850 0.6850 0.6870 0.6880 0.6880
12.281000 0.6900 0.6900 0.6900 0.6920 0.6930
12.314208 0.6930 0.6930 0.6930 0.6950 0.6950
12.347000 0.6950 0.6970 0.6970 0.6970 0.6980
12.380208 0.6980 0.7000 0.7000 0.7000 0.7020
12.413000 0.7020 0.7040 0.7040 0.7040 0.7040
12.446208 0.7040 0.7040 0.7070 0.7070 0.7070
12.480000 0.7090 0.7090 0.7090 0.7100 0.7100
12.513208 0.7100 0.7100 0.7100 0.7100 0.7100
12.546000 0.7100 0.7120 0.7120 0.7140 0.7150
12.579208 0.7170 0.7170 0.7190 0.7190 0.7200
12.613000 0.7200 0.7220 0.7220 0.7220 0.7240
12.646208 0.7240 0.7250 0.7250 0.7250 0.7250
12.679000 0.7270 0.7270 0.7290 0.7290 0.7290
12.712208 0.7300 0.7300 0.7300 0.7320 0.7320
12.745000 0.7320 0.7320 0.7340 0.7350 0.7350
12.778208 0.7350 0.7350 0.7350 0.7370 0.7390
12.812000 0.7400 0.7400 0.7400 0.7400 0.7400
12.845208 0.7400 0.7400 0.7400 0.7420 0.7420
12.878000 0.7420 0.7420 0.7420 0.7420 0.7420
12.911208 0.7420 0.7420 0.7420 0.7420 0.7420
12.944000 0.7420 0.7420 0.7420 0.7420 0.7420
12.977208 0.7420 0.7420 0.7420 0.7420 0.7420
13.011000 0.7420 0.7420 0.7420 0.7420 0.7420
13.044208 0.7420 0.7420 0.7420 0.7420 0.7420
13.077000 0.7420 0.7420 0.7420 0.7420 0.7420
13.110208 0.7420 0.7420 0.7420 0.7420 0.7420
13.144000 0.7400 0.7400 0.7400 0.7420 0.7400
13.177208 0.7400 0.7400 0.7390 0.7390 0.7390
13.210000 0.7390 0.7390 0.7390 0.7390 0.7390
13.243208 0.7390 0.7390 0.7390 0.7390 0.7390
13.276000 0.7390 0.7390 0.7370 0.7370 0.7370
13.309208 0.7370 0.7390 0.7390 0.7390 0.7390
13.343000 0.7390 0.7390 0.7390 0.7390 0.7390
13.376208 0.7390 0.7400 0.7400 0.7420 0.7420
13.409000 0.7400 0.7400 0.7400 0.7400 0.7400
13.442208 0.7400 0.7400 0.7400 0.7400 0.7400
13.476000 0.7390 0.7390 0.7400 0.7400 0.7390
13.509208 0.7390 0.7390 0.7390 0.7400 0.7400
13.542000 0.7400 0.7400 0.7400 0.7390 0.7390
13.575208 0.7400 0.7400 0.7400 0.7390 0.7390
13.608000 0.7390 0.7390 0.7390 0.7390 0.7390
13.641208 0.7390 0.7390 0.7370 0.7370 0.7370
13.675000 0.7370 0.7370 0.7370 0.7370 0.7370
13.708208 0.7350 0.7350 0.7350 0.7350 0.7350
13.741000 0.7350 0.7350 0.7350 0.7350 0.7350
13.774208 0.7340 0.7340 0.7340 0.7350 0.7340
13.807000 0.7340 0.7340 0.7340 0.7340 0.7340
13.840208 0.7340 0.7340 0.7340 0.7340 0.7340
13.874000 0.7340 0.7340 0.7340 0.7340 0.7320
13.907208 0.7340 0.7340 0.7340 0.7340 0.7350
13.940000 0.7350 0.7350 0.7350 0.7370 0.7370
13.973208 0.7370 0.7370 0.7390 0.7370 0.7390
14.007000 0.7390 0.7390 0.7370 0.7390 0.7390
14.040208 0.7390 0.7390 0.7390 0.7400 0.7400
14.073000 0.7400 0.7400 0.7400 0.7400 0.7400
14.106208 0.7400 0.7400 0.7400 0.7400 0.7390
14.139000 0.7390 0.7390 0.7390 0.7390 0.7390
14.172208 0.7390 0.7390 0.7370 0.7370 0.7350
14.206000 0.7370 0.7370 0.7370 0.7370 0.7390
14.239208 0.7390 0.7390 0.7370 0.7370 0.7370
14.272000 0.7350 0.7370 0.7370 0.7370 0.7370
14.305208 0.7370 0.7350 0.7350 0.7340 0.7320
14.339000 0.7320 0.7320 0.7300 0.7300 0.7300
14.372208 0.7300 0.7290 0.7270 0.7270 0.7270
14.405000 0.7250 0.7270 0.7270 0.7270 0.7270
14.438208 0.7250 0.7250 0.7240 0.7240 0.7240
14.471000 0.7240 0.7240 0.7250 0.7250 0.7250
14.504208 0.7250 0.7250 0.7250 0.7250 0.7270
14.538000 0.7270 0.7290 0.7290 0.7300 0.7300
14.571208 0.7290 0.7290 0.7290 0.7270 0.7290
14.604000 0.7290 0.7290 0.7270 0.7270 0.7270
14.637208 0.7270 0.7270 0.7270 0.7270 0.7270
14.670000 0.7250 0.7250 0.7250 0.7250 0.7250
14.703208 0.7250 0.7240 0.7240 0.7240 0.7240
14.737000 0.7240 0.7220 0.7200 0.7200 0.7200
14.770208 0.7200 0.7200 0.7190 0.7190 0.7190
14.803000 0.7200 0.7190 0.7200 0.7170 0.7190
14.836208 0.7190 0.7190 0.7190 0.7190 0.7190
14.870000 0.7190 0.7190 0.7190 0.7190 0.7190
14.903208 0.7190 0.7200 0.7200 0.7200 0.7190
14.936000 0.7200 0.7200 0.7200 0.7200 0.7190
14.969208 0.7190 0.7200 0.7190 0.7190 0.7190
15.002000 0.7170 0.7190 0.7190 0.7190 0.7190
15.035208 0.7190 0.7190 0.7170 0.7170 0.7170
15.069000 0.7170 0.7170 0.7170 0.7170 0.7170
15.102208 0.7170 0.7150 0.7150 0.7170 0.7170
15.135000 0.7150 0.7150 0.7150 0.7150 0.7150
15.168208 0.7150 0.7150 0.7150 0.7150 0.7150
15.202000 0.7140 0.7140 0.7140 0.7140 0.7140
15.235208 0.7140 0.7140 0.7140 0.7140 0.7120
15.268000 0.7120 0.7120 0.7120 0.7120 0.7120
15.301208 0.7100 0.7100 0.7100 0.7100 0.7100
15.334000 0.7090 0.7070 0.7050 0.7070 0.7050
15.367208 0.7050 0.7040 0.7040 0.7040 0.7020
15.401000 0.7040 0.7020 0.7020 0.7020 0.7000
15.434208 0.7000 0.7000 0.6980 0.6980 0.6970
15.467000 0.6970 0.6970 0.6950 0.6950 0.6930
15.500208 0.6920 0.6920 0.6920 0.6920 0.6900
15.533000 0.6900 0.6900 0.6880 0.6880 0.6870
15.566208 0.6870 0.6870 0.6870 0.6870 0.6850
15.600000 0.6850 0.6830 0.6830 0.6820 0.6820
15.633208 0.6820 0.6820 0.6820 0.6820 0.6800
15.666000 0.6800 0.6800 0.6800 0.6780 0.6780
15.699208 0.6770 0.6780 0.6780 0.6780 0.6780
15.733000 0.6770 0.6770 0.6770 0.6770 0.6770
15.766208 0.6770 0.6770 0.6770 0.6770 0.6750
15.799000 0.6770 0.6770 0.6770 0.6770 0.6770
15.832208 0.6770 0.6770 0.6780 0.6780 0.6780
15.865000 0.6780 0.6780 0.6780 0.6780 0.6780
15.898208 0.6780 0.6780 0.6780 0.6780 0.6780
15.932000 0.6780 0.6780 0.6780 0.6800 0.6780
15.965208 0.6780 0.6780 0.6800 0.6800 0.6800
15.998000 0.6780 0.6780 0.6800 0.6800
##END=
