##TITLE=1H-NAPHTH[1,2-d]IMIDAZOLE, 1-(P-ANISIDINO)-2-(P-METHOXYPHENYL)-
##JCAMP-DX=4.24
##DATA TYPE=INFRARED SPECTRUM
##CLASS=COBLENTZ III
##ORIGIN=HUNGARIAN ACAD. OF SCI., VIA SCIENTIFIC DOC. CENTRE LTD.
##OWNER=COBLENTZ SOCIETY
Collection (C) 2018 copyright by the U.S. Secretary of Commerce
on behalf of the United States of America. All rights reserved.
##DATE=1967
##MOLFORM=C25 H20 N3 O2
##SOURCE REFERENCE=COBLENTZ NO. 5836
##$NIST ID=B6005836
##$NIST SOURCE=COBLENTZ
##$NIST IMAGE=cob5836
##SPECTROMETER/DATA SYSTEM=UNICAM SP-200
##STATE=SOLID (KBr DISC)
##SAMPLING PROCEDURE=TRANSMISSION
##RESOLUTION=4
##DATA PROCESSING=DIGITIZED BY NIST FROM HARD COPY (FROM TWO SEGMENTS)
##XUNITS=1/CM
##YUNITS=TRANSMITTANCE
##XFACTOR=1.000000
##YFACTOR=1
##DELTAX=0.795523
##FIRSTX=650
##LASTX=4961.73
##FIRSTY=0.755
##MAXX=4961.73
##MINX=650
##MAXY=0.826
##MINY=0.131
##NPOINTS=5421
##XYDATA=(X++(Y..Y))
650.000000 0.7550 0.7540 0.7540 0.7520 0.7520
653.977613 0.7510 0.7510 0.7510 0.7500 0.7500
657.955226 0.7500 0.7500 0.7500 0.7490 0.7490
661.932839 0.7480 0.7480 0.7470 0.7470 0.7460
665.910452 0.7450 0.7450 0.7440 0.7440 0.7440
669.888065 0.7450 0.7450 0.7470 0.7490 0.7510
673.865678 0.7520 0.7540 0.7540 0.7540 0.7550
677.843291 0.7560 0.7560 0.7560 0.7550 0.7540
681.820904 0.7520 0.7500 0.7450 0.7360 0.7290
685.798516 0.7190 0.7120 0.7060 0.7030 0.6990
689.776129 0.6960 0.6950 0.6940 0.6950 0.6960
693.753742 0.7060 0.7170 0.7280 0.7390 0.7519
697.731355 0.7650 0.7730 0.7780 0.7820 0.7840
701.708968 0.7860 0.7870 0.7880 0.7890 0.7890
705.686581 0.7900 0.7900 0.7900 0.7900 0.7890
709.664194 0.7890 0.7890 0.7870 0.7840 0.7780
713.641807 0.7750 0.7660 0.7590 0.7530 0.7470
717.619420 0.7380 0.7330 0.7330 0.7320 0.7320
721.597033 0.7330 0.7360 0.7380 0.7470 0.7560
725.574646 0.7660 0.7660 0.7660 0.7660 0.7660
729.552259 0.7650 0.7560 0.7370 0.7210 0.7010
733.529872 0.6840 0.6710 0.6710 0.6820 0.6920
737.507485 0.7100 0.7190 0.7270 0.7390 0.7470
741.485098 0.7470 0.7450 0.7450 0.7380 0.7241
745.462711 0.7150 0.7010 0.6920 0.6760 0.6680
749.440323 0.6481 0.6311 0.6200 0.6071 0.5931
753.417936 0.5920 0.5880 0.5820 0.5810 0.5800
757.395549 0.5810 0.5820 0.5860 0.6019 0.6219
761.373162 0.6430 0.6730 0.6910 0.7140 0.7310
765.350775 0.7430 0.7490 0.7560 0.7610 0.7650
769.328388 0.7660 0.7660 0.7670 0.7680 0.7690
773.306001 0.7700 0.7740 0.7750 0.7760 0.7770
777.283614 0.7800 0.7820 0.7850 0.7870 0.7890
781.261227 0.7910 0.7920 0.7930 0.7940 0.7950
785.238840 0.7960 0.7960 0.7960 0.7970 0.7970
789.216453 0.7980 0.8000 0.8000 0.7990 0.7920
793.194066 0.7910 0.7750 0.7680 0.7470 0.7270
797.171679 0.7220 0.7170 0.6991 0.6831 0.6621
801.149292 0.6390 0.6250 0.6160 0.6120 0.6080
805.126905 0.6010 0.5811 0.5571 0.5182 0.4891
809.104518 0.4600 0.3860 0.3390 0.2970 0.2930
813.082130 0.2930 0.3030 0.3170 0.3190 0.3260
817.059743 0.3260 0.3270 0.3270 0.3230 0.3140
821.037356 0.3120 0.3130 0.3190 0.3230 0.3270
825.014969 0.3280 0.3290 0.3320 0.3420 0.3580
828.992582 0.3789 0.3989 0.4139 0.4289 0.4419
832.970195 0.4500 0.4560 0.4580 0.4580 0.4590
836.947808 0.4580 0.4560 0.4490 0.4371 0.4251
840.925421 0.4230 0.4220 0.4360 0.4450 0.4560
844.903034 0.4760 0.5159 0.5379 0.5609 0.5809
848.880647 0.5900 0.6060 0.6260 0.6390 0.6490
852.858260 0.6620 0.6710 0.6850 0.6960 0.7060
856.835873 0.7150 0.7190 0.7220 0.7260 0.7290
860.813486 0.7310 0.7330 0.7350 0.7350 0.7350
864.791099 0.7340 0.7330 0.7310 0.7290 0.7290
868.768712 0.7300 0.7300 0.7310 0.7310 0.7340
872.746325 0.7370 0.7410 0.7430 0.7450 0.7460
876.723937 0.7480 0.7500 0.7520 0.7550 0.7560
880.701550 0.7580 0.7610 0.7650 0.7650 0.7680
884.679163 0.7710 0.7750 0.7770 0.7800 0.7820
888.656776 0.7850 0.7860 0.7890 0.7900 0.7910
892.634389 0.7950 0.7960 0.7960 0.7980 0.8010
896.612002 0.8010 0.8020 0.8030 0.8020 0.8020
900.589615 0.8020 0.8010 0.8000 0.8000 0.8010
904.567228 0.8020 0.8030 0.8040 0.8050 0.8050
908.544841 0.8050 0.8050 0.8060 0.8070 0.8070
912.522454 0.8100 0.8100 0.8110 0.8110 0.8110
916.500067 0.8120 0.8130 0.8140 0.8140 0.8150
920.477680 0.8160 0.8170 0.8170 0.8170 0.8180
924.455293 0.8190 0.8190 0.8200 0.8210 0.8210
928.432906 0.8220 0.8240 0.8250 0.8250 0.8250
932.410519 0.8260 0.8260 0.8260 0.8260 0.8250
936.388132 0.8240 0.8220 0.8220 0.8210 0.8200
940.365744 0.8190 0.8180 0.8170 0.8120 0.8090
944.343357 0.8060 0.8040 0.8030 0.8030 0.8010
948.320970 0.8000 0.8000 0.7990 0.7980 0.7970
952.298583 0.7960 0.7950 0.7930 0.7930 0.7930
956.276196 0.7930 0.7940 0.7950 0.7960 0.7960
960.253809 0.7980 0.8000 0.8020 0.8030 0.8030
964.231422 0.8050 0.8050 0.8050 0.8050 0.8050
968.209035 0.8060 0.8060 0.8060 0.8070 0.8070
972.186648 0.8070 0.8070 0.8100 0.8100 0.8100
976.164261 0.8100 0.8100 0.8100 0.8100 0.8120
980.141874 0.8120 0.8100 0.8100 0.8070 0.8070
984.119487 0.8060 0.8050 0.8050 0.8050 0.8050
988.097100 0.8050 0.8050 0.8050 0.8050 0.8050
992.074713 0.8020 0.8010 0.7980 0.7970 0.7910
996.052326 0.7850 0.7800 0.7750 0.7680 0.7610
1000.029939 0.7540 0.7450 0.7430 0.7360 0.7260
1004.007551 0.7220 0.7200 0.7200 0.7190 0.7190
1007.985164 0.7160 0.7150 0.7060 0.6910 0.6870
1011.962777 0.6850 0.6780 0.6750 0.6730 0.6720
1015.940390 0.6700 0.6670 0.6640 0.6550 0.6271
1019.918003 0.6011 0.5741 0.5391 0.5071 0.4961
1023.895616 0.4840 0.4510 0.4330 0.4120 0.3910
1027.873229 0.3880 0.3860 0.3810 0.3790 0.3700
1031.850842 0.3660 0.3590 0.3480 0.3440 0.3380
1035.828455 0.3380 0.3470 0.3500 0.3620 0.3749
1039.806068 0.3870 0.4060 0.4280 0.4520 0.4670
1043.783681 0.5129 0.5319 0.5549 0.5689 0.5849
1047.761294 0.6050 0.6220 0.6360 0.6520 0.6660
1051.738907 0.6780 0.6949 0.6990 0.7070 0.7120
1055.716520 0.7170 0.7220 0.7260 0.7290 0.7310
1059.694133 0.7330 0.7340 0.7360 0.7360 0.7360
1063.671746 0.7360 0.7360 0.7350 0.7350 0.7360
1067.649358 0.7370 0.7370 0.7380 0.7400 0.7410
1071.626971 0.7460 0.7470 0.7500 0.7520 0.7550
1075.604584 0.7550 0.7560 0.7570 0.7580 0.7580
1079.582197 0.7580 0.7580 0.7570 0.7570 0.7560
1083.559810 0.7560 0.7560 0.7560 0.7540 0.7540
1087.537423 0.7540 0.7530 0.7530 0.7520 0.7520
1091.515036 0.7510 0.7490 0.7470 0.7450 0.7450
1095.492649 0.7420 0.7410 0.7360 0.7350 0.7260
1099.470262 0.7220 0.7070 0.6851 0.6671 0.6491
1103.447875 0.6420 0.6270 0.6110 0.6050 0.5970
1107.425488 0.5950 0.5950 0.5960 0.5990 0.6020
1111.403101 0.6050 0.6080 0.6140 0.6170 0.6190
1115.380714 0.6230 0.6260 0.6290 0.6310 0.6370
1119.358327 0.6460 0.6570 0.6620 0.6660 0.6720
1123.335940 0.6770 0.6810 0.6870 0.6950 0.6960
1127.313553 0.6980 0.7000 0.7030 0.7060 0.7070
1131.291165 0.7080 0.7100 0.7120 0.7150 0.7160
1135.268778 0.7160 0.7180 0.7190 0.7190 0.7190
1139.246391 0.7200 0.7210 0.7210 0.7200 0.7200
1143.224004 0.7210 0.7210 0.7200 0.7200 0.7190
1147.201617 0.7190 0.7170 0.7170 0.7170 0.7170
1151.179230 0.7160 0.7160 0.7150 0.7150 0.7150
1155.156843 0.7140 0.7140 0.7130 0.7130 0.7110
1159.134456 0.6990 0.6720 0.6570 0.6410 0.6190
1163.112069 0.5591 0.5371 0.5181 0.4981 0.4403
1167.089682 0.4100 0.3740 0.3550 0.3400 0.3300
1171.067295 0.3170 0.3010 0.3000 0.2990 0.2980
1175.044908 0.2990 0.3010 0.3030 0.3060 0.3100
1179.022521 0.3170 0.3280 0.3499 0.3719 0.3959
1183.000134 0.4190 0.4520 0.5090 0.5410 0.5680
1186.977747 0.5820 0.6109 0.6250 0.6370 0.6519
1190.955360 0.6570 0.6600 0.6700 0.6750 0.6780
1194.932972 0.6800 0.6830 0.6840 0.6830 0.6800
1198.910585 0.6760 0.6710 0.6660 0.6560 0.6490
1202.888198 0.6460 0.6400 0.6370 0.6360 0.6310
1206.865811 0.6280 0.6260 0.6190 0.6160 0.6080
1210.843424 0.6050 0.5980 0.5900 0.5840 0.5671
1214.821037 0.5570 0.5410 0.5280 0.5220 0.5100
1218.798650 0.4970 0.4790 0.4561 0.4371 0.4300
1222.776263 0.4250 0.4120 0.3900 0.3770 0.3580
1226.753876 0.3490 0.3291 0.3190 0.3100 0.2981
1230.731489 0.2870 0.2770 0.2610 0.2380 0.2100
1234.709102 0.1990 0.1890 0.1810 0.1780 0.1750
1238.686715 0.1680 0.1630 0.1590 0.1550 0.1500
1242.664328 0.1480 0.1400 0.1380 0.1360 0.1330
1246.641941 0.1330 0.1320 0.1310 0.1310 0.1310
1250.619554 0.1310 0.1320 0.1340 0.1370 0.1460
1254.597167 0.1570 0.1690 0.1870 0.2010 0.2200
1258.574779 0.2390 0.2699 0.3039 0.3349 0.3699
1262.552392 0.3950 0.4170 0.4450 0.4640 0.5069
1266.530005 0.5180 0.5320 0.5380 0.5460 0.5480
1270.507618 0.5500 0.5510 0.5500 0.5480 0.5390
1274.485231 0.5320 0.5190 0.5070 0.5000 0.4910
1278.462844 0.4820 0.4690 0.4660 0.4580 0.4540
1282.440457 0.4480 0.4390 0.4250 0.4071 0.4050
1286.418070 0.4000 0.3980 0.3950 0.3950 0.3970
1290.395683 0.4020 0.4070 0.4090 0.4190 0.4270
1294.373296 0.4380 0.4440 0.4510 0.4560 0.4590
1298.350909 0.4620 0.4620 0.4630 0.4630 0.4620
1302.328522 0.4620 0.4610 0.4600 0.4600 0.4600
1306.306135 0.4600 0.4620 0.4650 0.4720 0.4780
1310.283748 0.4870 0.5150 0.5250 0.5370 0.5510
1314.261361 0.5660 0.5790 0.5890 0.5990 0.6100
1318.238974 0.6250 0.6380 0.6520 0.6590 0.6620
1322.216586 0.6680 0.6750 0.6790 0.6870 0.6960
1326.194199 0.6980 0.7020 0.7070 0.7080 0.7120
1330.171812 0.7170 0.7170 0.7190 0.7220 0.7240
1334.149425 0.7260 0.7260 0.7260 0.7260 0.7260
1338.127038 0.7250 0.7250 0.7260 0.7280 0.7290
1342.104651 0.7310 0.7330 0.7360 0.7390 0.7420
1346.082264 0.7450 0.7490 0.7520 0.7550 0.7560
1350.059877 0.7570 0.7590 0.7590 0.7590 0.7600
1354.037490 0.7600 0.7610 0.7610 0.7570 0.7520
1358.015103 0.7470 0.7400 0.7350 0.7190 0.7030
1361.992716 0.6920 0.6750 0.6580 0.6421 0.6271
1365.970329 0.6100 0.5900 0.5630 0.5460 0.5380
1369.947942 0.5340 0.5330 0.5320 0.5330 0.5340
1373.925555 0.5390 0.5470 0.5580 0.5680 0.5810
1377.903168 0.5970 0.6100 0.6220 0.6399 0.6500
1381.880781 0.6570 0.6640 0.6680 0.6770 0.6790
1385.858394 0.6820 0.6870 0.6880 0.6910 0.6920
1389.836006 0.6940 0.6950 0.6960 0.6960 0.6960
1393.813619 0.6970 0.6980 0.6980 0.6990 0.7000
1397.791232 0.7010 0.7050 0.7110 0.7130 0.7140
1401.768845 0.7150 0.7160 0.7170 0.7180 0.7180
1405.746458 0.7180 0.7170 0.7150 0.7110 0.7020
1409.724071 0.6940 0.6870 0.6830 0.6800 0.6760
1413.701684 0.6720 0.6710 0.6710 0.6690 0.6690
1417.679297 0.6680 0.6660 0.6570 0.6470 0.6410
1421.656910 0.6330 0.6150 0.5870 0.5780 0.5630
1425.634523 0.5380 0.5270 0.5180 0.5060 0.4980
1429.612136 0.4900 0.4860 0.4790 0.4770 0.4740
1433.589749 0.4720 0.4690 0.4540 0.4390 0.4261
1437.567362 0.4250 0.4230 0.4230 0.4240 0.4250
1441.544975 0.4290 0.4300 0.4370 0.4400 0.4490
1445.522588 0.4580 0.4660 0.4710 0.4770 0.4790
1449.500201 0.4810 0.4830 0.4840 0.4840 0.4830
1453.477813 0.4780 0.4730 0.4670 0.4600 0.4390
1457.455426 0.4210 0.4100 0.3731 0.3680 0.3600
1461.433039 0.3580 0.3570 0.3560 0.3560 0.3560
1465.410652 0.3560 0.3570 0.3580 0.3580 0.3580
1469.388265 0.3580 0.3560 0.3510 0.3330 0.3210
1473.365878 0.3080 0.2860 0.2800 0.2750 0.2740
1477.343491 0.2740 0.2750 0.2760 0.2860 0.3000
1481.321104 0.3120 0.3240 0.3370 0.3559 0.3729
1485.298717 0.3840 0.3980 0.4200 0.4370 0.4470
1489.276330 0.4600 0.4899 0.4980 0.5070 0.5090
1493.253943 0.5100 0.5130 0.5130 0.5090 0.5000
1497.231556 0.4900 0.4561 0.4121 0.3791 0.3541
1501.209169 0.3340 0.3170 0.2990 0.2930 0.2610
1505.186782 0.2330 0.2031 0.1711 0.1521 0.1420
1509.164395 0.1410 0.1420 0.1430 0.1460 0.1550
1513.142008 0.1710 0.1890 0.1990 0.2169 0.2349
1517.119620 0.2460 0.2621 0.2980 0.3240 0.3450
1521.097233 0.3630 0.3730 0.3870 0.4030 0.4180
1525.074846 0.4320 0.4440 0.4550 0.4640 0.4730
1529.052459 0.4800 0.4870 0.4890 0.4970 0.4990
1533.030072 0.5030 0.5080 0.5100 0.5180 0.5230
1537.007685 0.5300 0.5480 0.5650 0.5859 0.6149
1540.985298 0.6310 0.6470 0.6540 0.6730 0.6870
1544.962911 0.6980 0.7090 0.7180 0.7220 0.7300
1548.940524 0.7360 0.7380 0.7430 0.7470 0.7480
1552.918137 0.7520 0.7560 0.7580 0.7590 0.7620
1556.895750 0.7670 0.7670 0.7680 0.7690 0.7700
1560.873363 0.7690 0.7680 0.7660 0.7600 0.7510
1564.850976 0.7400 0.7300 0.7190 0.7080 0.7010
1568.828589 0.6960 0.6870 0.6780 0.6770 0.6780
1572.806202 0.6780 0.6840 0.6900 0.6980 0.7070
1576.783815 0.7110 0.7170 0.7170 0.7190 0.7190
1580.761427 0.7170 0.7060 0.7000 0.6960 0.6890
1584.739040 0.6790 0.6740 0.6720 0.6690 0.6680
1588.716653 0.6680 0.6570 0.6470 0.6360 0.6240
1592.694266 0.6130 0.5990 0.5850 0.5710 0.5570
1596.671879 0.5430 0.5290 0.5150 0.5010 0.4930
1600.649492 0.4840 0.4611 0.4171 0.4160 0.4150
1604.627105 0.4160 0.4200 0.4290 0.4420 0.4540
1608.604718 0.4670 0.4680 0.4770 0.5179 0.5369
1612.582331 0.5580 0.5780 0.5990 0.6130 0.6240
1616.559944 0.6320 0.6390 0.6480 0.6580 0.6729
1620.537557 0.6870 0.6940 0.6980 0.7010 0.7070
1624.515170 0.7110 0.7190 0.7270 0.7290 0.7380
1628.492783 0.7430 0.7500 0.7560 0.7610 0.7670
1632.470396 0.7690 0.7720 0.7770 0.7780 0.7810
1636.448009 0.7830 0.7860 0.7860 0.7870 0.7870
1640.425622 0.7880 0.7890 0.7910 0.7920 0.7930
1644.403234 0.7970 0.7980 0.7980 0.7980 0.8000
1648.380847 0.8000 0.8070 0.8070 0.8080 0.8100
1652.358460 0.8100 0.8110 0.8110 0.8120 0.8120
1656.336073 0.8110 0.8100 0.8100 0.8090 0.8080
1660.313686 0.8070 0.8070 0.8070 0.8070 0.8070
1664.291299 0.8060 0.8060 0.8060 0.8060 0.8060
1668.268912 0.8050 0.8050 0.8050 0.8050 0.8050
1672.246525 0.8050 0.8050 0.8050 0.8040 0.8030
1676.224138 0.8040 0.8040 0.8040 0.8050 0.8050
1680.201751 0.8050 0.8050 0.8040 0.8030 0.8030
1684.179364 0.8030 0.8030 0.8020 0.8020 0.8020
1688.156977 0.8010 0.8010 0.8010 0.8010 0.8020
1692.134590 0.8020 0.8030 0.8030 0.8030 0.8030
1696.112203 0.8030 0.8040 0.8050 0.8050 0.8030
1700.089816 0.8030 0.8020 0.8010 0.8010 0.8010
1704.067429 0.8000 0.8000 0.8000 0.8000 0.8000
1708.045041 0.8000 0.8000 0.8000 0.8000 0.8000
1712.022654 0.8000 0.8000 0.8000 0.8000 0.8000
1716.000267 0.7980 0.7980 0.7980 0.7980 0.7980
1719.977880 0.7980 0.7970 0.7970 0.7960 0.7960
1723.955493 0.7960 0.7960 0.7960 0.7960 0.7960
1727.933106 0.7950 0.7940 0.7940 0.7930 0.7930
1731.910719 0.7930 0.7930 0.7940 0.7950 0.7960
1735.888332 0.7960 0.7960 0.7970 0.7980 0.7980
1739.865945 0.7990 0.8000 0.8000 0.8000 0.8000
1743.843558 0.8000 0.8020 0.8020 0.8030 0.8040
1747.821171 0.8050 0.8050 0.8050 0.8060 0.8070
1751.798784 0.8070 0.8070 0.8080 0.8090 0.8100
1755.776397 0.8100 0.8100 0.8100 0.8100 0.8110
1759.754010 0.8120 0.8120 0.8140 0.8150 0.8160
1763.731623 0.8160 0.8170 0.8180 0.8180 0.8190
1767.709236 0.8190 0.8210 0.8210 0.8210 0.8210
1771.686848 0.8210 0.8210 0.8210 0.8210 0.8210
1775.664461 0.8210 0.8210 0.8220 0.8220 0.8230
1779.642074 0.8230 0.8230 0.8230 0.8240 0.8240
1783.619687 0.8240 0.8240 0.8240 0.8240 0.8230
1787.597300 0.8230 0.8230 0.8220 0.8220 0.8210
1791.574913 0.8210 0.8200 0.8190 0.8190 0.8180
1795.552526 0.8170 0.8170 0.8170 0.8170 0.8160
1799.530139 0.8160 0.8150 0.8140 0.8140 0.8140
1803.507752 0.8140 0.8130 0.8130 0.8130 0.8130
1807.485365 0.8130 0.8130 0.8130 0.8120 0.8120
1811.462978 0.8110 0.8090 0.8080 0.8070 0.8060
1815.440591 0.8050 0.8050 0.8050 0.8040 0.8040
1819.418204 0.8030 0.8030 0.8030 0.8020 0.8010
1823.395817 0.8010 0.8000 0.8000 0.8000 0.8000
1827.373430 0.8000 0.8000 0.8000 0.8000 0.8000
1831.351043 0.8000 0.8000 0.8000 0.8000 0.8000
1835.328655 0.8000 0.7990 0.7990 0.7990 0.7980
1839.306268 0.7980 0.7990 0.8000 0.8000 0.8000
1843.283881 0.8000 0.8020 0.8020 0.8030 0.8030
1847.261494 0.8040 0.8050 0.8050 0.8050 0.8050
1851.239107 0.8050 0.8050 0.8050 0.8050 0.8050
1855.216720 0.8050 0.8050 0.8050 0.8050 0.8040
1859.194333 0.8040 0.8040 0.8030 0.8030 0.8030
1863.171946 0.8020 0.8020 0.8010 0.8010 0.8000
1867.149559 0.8000 0.8000 0.8000 0.7990 0.7990
1871.127172 0.7980 0.7980 0.7970 0.7960 0.7960
1875.104785 0.7950 0.7930 0.7910 0.7890 0.7890
1879.082398 0.7890 0.7880 0.7870 0.7860 0.7850
1883.060011 0.7850 0.7860 0.7870 0.7870 0.7870
1887.037624 0.7870 0.7880 0.7880 0.7880 0.7890
1891.015237 0.7890 0.7890 0.7890 0.7890 0.7890
1894.992850 0.7890 0.7890 0.7890 0.7900 0.7900
1898.970462 0.7900 0.7910 0.7910 0.7920 0.7930
1902.948075 0.7950 0.7960 0.7960 0.7960 0.7970
1906.925688 0.7970 0.7970 0.7970 0.7970 0.7970
1910.903301 0.7980 0.7980 0.7980 0.7980 0.7970
1914.880914 0.7960 0.7960 0.7960 0.7960 0.7960
1918.858527 0.7970 0.7970 0.7980 0.7980 0.7980
1922.836140 0.7980 0.7980 0.7980 0.7990 0.7990
1926.813753 0.7980 0.7980 0.7990 0.8000 0.8000
1930.791366 0.8000 0.8000 0.8000 0.8000 0.7990
1934.768979 0.7980 0.7980 0.7980 0.7970 0.7960
1938.746592 0.7970 0.7970 0.7970 0.7970 0.7960
1942.724205 0.7960 0.7960 0.7960 0.7960 0.7960
1946.701818 0.7960 0.7960 0.7960 0.7960 0.7970
1950.679431 0.7980 0.7980 0.7980 0.7980 0.7980
1954.657044 0.7980 0.7980 0.7980 0.7980 0.7980
1958.634657 0.7980 0.7990 0.7990 0.7990 0.7990
1962.612269 0.7980 0.7980 0.7980 0.7980 0.7980
1966.589882 0.7980 0.7980 0.7980 0.7980 0.7970
1970.567495 0.7970 0.7960 0.7960 0.7960 0.7950
1974.545108 0.7950 0.7950 0.7950 0.7950 0.7950
1978.522721 0.7950 0.7950 0.7960 0.7960 0.7960
1982.500334 0.7960 0.7960 0.7960 0.7940 0.7930
1986.477947 0.7910 0.7910 0.7900 0.7900 0.7890
1990.455560 0.7890 0.7880 0.7870 0.7870 0.7870
1994.433173 0.7880 0.7880 0.7880 0.7890 0.7890
1998.410786 0.7890 0.7890 0.7860 0.7860 0.7860
2002.388399 0.7860 0.7860 0.7857 0.7855 0.7852
2006.366012 0.7850 0.7847 0.7845 0.7842 0.7840
2010.343625 0.7837 0.7835 0.7832 0.7830 0.7827
2014.321238 0.7825 0.7822 0.7820 0.7817 0.7815
2018.298851 0.7812 0.7809 0.7804 0.7799 0.7794
2022.276464 0.7789 0.7784 0.7779 0.7774 0.7768
2026.254076 0.7760 0.7753 0.7745 0.7734 0.7717
2030.231689 0.7699 0.7681 0.7669 0.7666 0.7664
2034.209302 0.7661 0.7659 0.7656 0.7654 0.7651
2038.186915 0.7650 0.7650 0.7650 0.7650 0.7650
2042.164528 0.7650 0.7650 0.7650 0.7650 0.7650
2046.142141 0.7650 0.7650 0.7651 0.7654 0.7656
2050.119754 0.7659 0.7660 0.7660 0.7660 0.7660
2054.097367 0.7662 0.7664 0.7667 0.7669 0.7672
2058.074980 0.7674 0.7677 0.7679 0.7682 0.7684
2062.052593 0.7687 0.7689 0.7692 0.7694 0.7697
2066.030206 0.7700 0.7704 0.7709 0.7714 0.7719
2070.007819 0.7724 0.7729 0.7734 0.7739 0.7742
2073.985432 0.7745 0.7747 0.7750 0.7750 0.7750
2077.963045 0.7750 0.7750 0.7755 0.7760 0.7765
2081.940658 0.7770 0.7770 0.7770 0.7770 0.7770
2085.918271 0.7775 0.7780 0.7785 0.7790 0.7790
2089.895884 0.7790 0.7790 0.7790 0.7796 0.7801
2093.873496 0.7806 0.7810 0.7810 0.7810 0.7810
2097.851109 0.7810 0.7810 0.7810 0.7810 0.7811
2101.828722 0.7813 0.7816 0.7818 0.7820 0.7820
2105.806335 0.7820 0.7820 0.7820 0.7820 0.7820
2109.783948 0.7820 0.7819 0.7817 0.7814 0.7812
2113.761561 0.7810 0.7810 0.7810 0.7810 0.7810
2117.739174 0.7810 0.7810 0.7810 0.7810 0.7810
2121.716787 0.7810 0.7810 0.7810 0.7810 0.7810
2125.694400 0.7810 0.7809 0.7806 0.7804 0.7801
2129.672013 0.7800 0.7800 0.7800 0.7800 0.7798
2133.649626 0.7796 0.7793 0.7791 0.7790 0.7790
2137.627239 0.7790 0.7790 0.7788 0.7786 0.7783
2141.604852 0.7781 0.7780 0.7780 0.7780 0.7780
2145.582465 0.7780 0.7780 0.7780 0.7780 0.7780
2149.560078 0.7780 0.7780 0.7780 0.7778 0.7775
2153.537691 0.7773 0.7770 0.7759 0.7746 0.7734
2157.515303 0.7721 0.7718 0.7715 0.7713 0.7710
2161.492916 0.7703 0.7695 0.7688 0.7680 0.7677
2165.470529 0.7675 0.7672 0.7670 0.7670 0.7670
2169.448142 0.7670 0.7670 0.7670 0.7670 0.7670
2173.425755 0.7670 0.7673 0.7675 0.7678 0.7680
2177.403368 0.7683 0.7685 0.7688 0.7690 0.7693
2181.380981 0.7695 0.7698 0.7700 0.7700 0.7700
2185.358594 0.7700 0.7701 0.7703 0.7706 0.7708
2189.336207 0.7710 0.7710 0.7710 0.7710 0.7709
2193.313820 0.7707 0.7704 0.7702 0.7700 0.7700
2197.291433 0.7700 0.7700 0.7700 0.7700 0.7700
2201.269046 0.7700 0.7699 0.7696 0.7694 0.7691
2205.246659 0.7689 0.7686 0.7684 0.7681 0.7680
2209.224272 0.7680 0.7680 0.7680 0.7680 0.7680
2213.201885 0.7680 0.7680 0.7678 0.7676 0.7673
2217.179498 0.7671 0.7670 0.7670 0.7670 0.7670
2221.157110 0.7670 0.7670 0.7670 0.7670 0.7670
2225.134723 0.7670 0.7670 0.7670 0.7670 0.7670
2229.112336 0.7670 0.7670 0.7670 0.7670 0.7670
2233.089949 0.7670 0.7668 0.7665 0.7663 0.7660
2237.067562 0.7658 0.7655 0.7653 0.7650 0.7648
2241.045175 0.7645 0.7643 0.7640 0.7638 0.7635
2245.022788 0.7633 0.7630 0.7628 0.7625 0.7622
2249.000401 0.7620 0.7615 0.7610 0.7605 0.7600
2252.978014 0.7597 0.7595 0.7592 0.7590 0.7587
2256.955627 0.7585 0.7582 0.7580 0.7577 0.7575
2260.933240 0.7572 0.7570 0.7570 0.7570 0.7570
2264.910853 0.7570 0.7570 0.7570 0.7570 0.7570
2268.888466 0.7570 0.7570 0.7570 0.7571 0.7573
2272.866079 0.7576 0.7578 0.7580 0.7580 0.7580
2276.843692 0.7580 0.7580 0.7580 0.7580 0.7580
2280.821305 0.7580 0.7580 0.7580 0.7580 0.7580
2284.798917 0.7580 0.7580 0.7580 0.7580 0.7580
2288.776530 0.7580 0.7580 0.7580 0.7580 0.7580
2292.754143 0.7580 0.7580 0.7580 0.7580 0.7580
2296.731756 0.7580 0.7580 0.7580 0.7580 0.7580
2300.709369 0.7580 0.7580 0.7580 0.7582 0.7584
2304.686982 0.7587 0.7589 0.7590 0.7590 0.7590
2308.664595 0.7590 0.7590 0.7590 0.7590 0.7590
2312.642208 0.7590 0.7590 0.7590 0.7590 0.7590
2316.619821 0.7590 0.7590 0.7590 0.7590 0.7590
2320.597434 0.7590 0.7590 0.7590 0.7590 0.7590
2324.575047 0.7590 0.7588 0.7585 0.7582 0.7580
2328.552660 0.7580 0.7580 0.7580 0.7580 0.7580
2332.530273 0.7580 0.7580 0.7580 0.7580 0.7580
2336.507886 0.7580 0.7580 0.7580 0.7580 0.7580
2340.485499 0.7580 0.7577 0.7575 0.7572 0.7570
2344.463112 0.7567 0.7564 0.7562 0.7560 0.7560
2348.440724 0.7560 0.7560 0.7558 0.7550 0.7543
2352.418337 0.7535 0.7528 0.7523 0.7518 0.7513
2356.395950 0.7510 0.7510 0.7510 0.7510 0.7510
2360.373563 0.7510 0.7510 0.7510 0.7510 0.7510
2364.351176 0.7510 0.7510 0.7510 0.7510 0.7510
2368.328789 0.7510 0.7506 0.7499 0.7491 0.7483
2372.306402 0.7479 0.7476 0.7474 0.7471 0.7469
2376.284015 0.7466 0.7463 0.7461 0.7457 0.7452
2380.261628 0.7447 0.7442 0.7437 0.7431 0.7426
2384.239241 0.7421 0.7420 0.7420 0.7420 0.7420
2388.216854 0.7418 0.7416 0.7413 0.7411 0.7408
2392.194467 0.7405 0.7403 0.7400 0.7400 0.7400
2396.172080 0.7400 0.7400 0.7396 0.7391 0.7386
2400.149693 0.7381 0.7378 0.7375 0.7373 0.7370
2404.127306 0.7368 0.7365 0.7363 0.7360 0.7358
2408.104919 0.7355 0.7352 0.7350 0.7350 0.7350
2412.082531 0.7350 0.7350 0.7350 0.7350 0.7350
2416.060144 0.7350 0.7350 0.7350 0.7350 0.7350
2420.037757 0.7350 0.7350 0.7350 0.7350 0.7350
2424.015370 0.7350 0.7350 0.7350 0.7350 0.7350
2427.992983 0.7350 0.7349 0.7347 0.7344 0.7342
2431.970596 0.7340 0.7340 0.7340 0.7340 0.7339
2435.948209 0.7337 0.7334 0.7332 0.7328 0.7323
2439.925822 0.7318 0.7313 0.7307 0.7299 0.7292
2443.903435 0.7284 0.7280 0.7280 0.7280 0.7280
2447.881048 0.7279 0.7276 0.7274 0.7271 0.7269
2451.858661 0.7266 0.7264 0.7261 0.7257 0.7252
2455.836274 0.7247 0.7242 0.7240 0.7240 0.7240
2459.813887 0.7240 0.7240 0.7240 0.7240 0.7240
2463.791500 0.7238 0.7236 0.7233 0.7231 0.7230
2467.769113 0.7230 0.7230 0.7230 0.7228 0.7226
2471.746726 0.7223 0.7220 0.7220 0.7220 0.7220
2475.724338 0.7220 0.7220 0.7220 0.7220 0.7220
2479.701951 0.7222 0.7225 0.7227 0.7230 0.7230
2483.679564 0.7230 0.7230 0.7230 0.7228 0.7225
2487.657177 0.7223 0.7220 0.7220 0.7220 0.7220
2491.634790 0.7220 0.7217 0.7215 0.7212 0.7210
2495.612403 0.7205 0.7200 0.7195 0.7190 0.7190
2499.590016 0.7190 0.7190 0.7189 0.7184 0.7179
2503.567629 0.7174 0.7168 0.7158 0.7148 0.7138
2507.545242 0.7129 0.7127 0.7124 0.7122 0.7119
2511.522855 0.7117 0.7114 0.7112 0.7109 0.7107
2515.500468 0.7104 0.7102 0.7099 0.7097 0.7094
2519.478081 0.7092 0.7090 0.7090 0.7090 0.7090
2523.455694 0.7089 0.7086 0.7084 0.7081 0.7080
2527.433307 0.7080 0.7080 0.7080 0.7080 0.7080
2531.410920 0.7080 0.7080 0.7079 0.7076 0.7074
2535.388533 0.7071 0.7069 0.7066 0.7063 0.7061
2539.366145 0.7058 0.7056 0.7053 0.7051 0.7050
2543.343758 0.7050 0.7050 0.7050 0.7050 0.7050
2547.321371 0.7050 0.7050 0.7050 0.7050 0.7050
2551.298984 0.7050 0.7052 0.7054 0.7057 0.7059
2555.276597 0.7060 0.7060 0.7060 0.7060 0.7060
2559.254210 0.7060 0.7060 0.7060 0.7060 0.7060
2563.231823 0.7060 0.7060 0.7060 0.7060 0.7060
2567.209436 0.7060 0.7058 0.7055 0.7052 0.7050
2571.187049 0.7045 0.7040 0.7035 0.7030 0.7030
2575.164662 0.7030 0.7030 0.7030 0.7030 0.7030
2579.142275 0.7030 0.7030 0.7027 0.7025 0.7022
2583.119888 0.7020 0.7020 0.7020 0.7020 0.7020
2587.097501 0.7020 0.7020 0.7020 0.7021 0.7023
2591.075114 0.7026 0.7028 0.7030 0.7030 0.7030
2595.052727 0.7030 0.7030 0.7030 0.7030 0.7030
2599.030340 0.7030 0.7030 0.7030 0.7030 0.7030
2603.007952 0.7030 0.7030 0.7030 0.7031 0.7034
2606.985565 0.7036 0.7039 0.7040 0.7040 0.7040
2610.963178 0.7040 0.7040 0.7040 0.7040 0.7040
2614.940791 0.7040 0.7040 0.7040 0.7040 0.7039
2618.918404 0.7036 0.7034 0.7031 0.7030 0.7030
2622.896017 0.7030 0.7030 0.7028 0.7026 0.7023
2626.873630 0.7021 0.7018 0.7016 0.7013 0.7011
2630.851243 0.7010 0.7010 0.7010 0.7010 0.7010
2634.828856 0.7010 0.7010 0.7010 0.7006 0.7001
2638.806469 0.6996 0.6991 0.6988 0.6985 0.6983
2642.784082 0.6980 0.6969 0.6956 0.6944 0.6931
2646.761695 0.6925 0.6920 0.6915 0.6910 0.6905
2650.739308 0.6900 0.6895 0.6890 0.6887 0.6885
2654.716921 0.6882 0.6880 0.6880 0.6880 0.6880
2658.694534 0.6880 0.6877 0.6875 0.6872 0.6870
2662.672147 0.6870 0.6870 0.6870 0.6870 0.6870
2666.649759 0.6870 0.6870 0.6869 0.6867 0.6864
2670.627372 0.6862 0.6858 0.6851 0.6843 0.6835
2674.604985 0.6828 0.6820 0.6813 0.6805 0.6798
2678.582598 0.6793 0.6788 0.6783 0.6778 0.6773
2682.560211 0.6768 0.6763 0.6759 0.6757 0.6754
2686.537824 0.6751 0.6750 0.6750 0.6750 0.6750
2690.515437 0.6750 0.6750 0.6750 0.6750 0.6750
2694.493050 0.6750 0.6750 0.6750 0.6749 0.6746
2698.470663 0.6744 0.6741 0.6738 0.6736 0.6733
2702.448276 0.6731 0.6730 0.6730 0.6730 0.6730
2706.425889 0.6730 0.6730 0.6730 0.6730 0.6730
2710.403502 0.6730 0.6730 0.6730 0.6726 0.6721
2714.381115 0.6716 0.6711 0.6706 0.6701 0.6696
2718.358728 0.6691 0.6686 0.6681 0.6676 0.6671
2722.336341 0.6655 0.6637 0.6619 0.6602 0.6593
2726.313954 0.6586 0.6578 0.6570 0.6570 0.6570
2730.291567 0.6570 0.6570 0.6555 0.6540 0.6525
2734.269179 0.6510 0.6502 0.6495 0.6487 0.6479
2738.246792 0.6467 0.6454 0.6441 0.6428 0.6400
2742.224405 0.6372 0.6344 0.6313 0.6258 0.6202
2746.202018 0.6147 0.6095 0.6065 0.6035 0.6004
2750.179631 0.5975 0.5950 0.5925 0.5900 0.5875
2754.157244 0.5852 0.5829 0.5806 0.5782 0.5757
2758.134857 0.5732 0.5707 0.5685 0.5670 0.5655
2762.112470 0.5639 0.5626 0.5616 0.5606 0.5596
2766.090083 0.5589 0.5586 0.5584 0.5581 0.5580
2770.067696 0.5580 0.5580 0.5580 0.5580 0.5580
2774.045309 0.5580 0.5580 0.5583 0.5588 0.5593
2778.022922 0.5598 0.5600 0.5600 0.5600 0.5600
2782.000535 0.5604 0.5612 0.5620 0.5627 0.5630
2785.978148 0.5630 0.5630 0.5630 0.5632 0.5634
2789.955761 0.5637 0.5639 0.5642 0.5644 0.5647
2793.933374 0.5649 0.5656 0.5663 0.5671 0.5678
2797.910986 0.5680 0.5680 0.5680 0.5680 0.5676
2801.888599 0.5671 0.5666 0.5661 0.5647 0.5632
2805.866212 0.5617 0.5602 0.5591 0.5581 0.5571
2809.843825 0.5561 0.5544 0.5526 0.5508 0.5491
2813.821438 0.5461 0.5430 0.5400 0.5370 0.5352
2817.799051 0.5334 0.5316 0.5298 0.5273 0.5248
2821.776664 0.5222 0.5196 0.5164 0.5131 0.5098
2825.754277 0.5067 0.5044 0.5021 0.4999 0.4977
2829.731890 0.4962 0.4947 0.4932 0.4918 0.4908
2833.709503 0.4898 0.4888 0.4879 0.4877 0.4874
2837.687116 0.4872 0.4865 0.4847 0.4830 0.4812
2841.664729 0.4795 0.4780 0.4765 0.4750 0.4736
2845.642342 0.4726 0.4716 0.4706 0.4688 0.4658
2849.619955 0.4627 0.4596 0.4579 0.4576 0.4574
2853.597568 0.4571 0.4564 0.4551 0.4538 0.4526
2857.575181 0.4517 0.4512 0.4507 0.4502 0.4497
2861.552793 0.4492 0.4487 0.4482 0.4475 0.4468
2865.530406 0.4460 0.4453 0.4447 0.4442 0.4437
2869.508019 0.4432 0.4428 0.4426 0.4423 0.4421
2873.485632 0.4418 0.4416 0.4413 0.4411 0.4408
2877.463245 0.4406 0.4403 0.4401 0.4398 0.4395
2881.440858 0.4393 0.4390 0.4390 0.4390 0.4390
2885.418471 0.4390 0.4390 0.4390 0.4390 0.4390
2889.396084 0.4392 0.4395 0.4397 0.4400 0.4400
2893.373697 0.4400 0.4400 0.4400 0.4403 0.4405
2897.351310 0.4408 0.4410 0.4410 0.4410 0.4410
2901.328923 0.4410 0.4413 0.4415 0.4418 0.4420
2905.306536 0.4420 0.4420 0.4420 0.4420 0.4417
2909.284149 0.4415 0.4412 0.4410 0.4410 0.4410
2913.261762 0.4410 0.4409 0.4407 0.4404 0.4402
2917.239375 0.4399 0.4397 0.4394 0.4392 0.4390
2921.216988 0.4390 0.4390 0.4390 0.4390 0.4390
2925.194600 0.4390 0.4390 0.4390 0.4390 0.4390
2929.172213 0.4390 0.4391 0.4394 0.4396 0.4399
2933.149826 0.4401 0.4404 0.4406 0.4409 0.4412
2937.127439 0.4417 0.4423 0.4428 0.4433 0.4438
2941.105052 0.4443 0.4448 0.4451 0.4454 0.4457
2945.082665 0.4459 0.4465 0.4472 0.4480 0.4487
2949.060278 0.4497 0.4507 0.4517 0.4527 0.4541
2953.037891 0.4556 0.4571 0.4586 0.4599 0.4612
2957.015504 0.4624 0.4637 0.4648 0.4658 0.4668
2960.993117 0.4678 0.4690 0.4703 0.4715 0.4728
2964.970730 0.4741 0.4753 0.4766 0.4778 0.4784
2968.948343 0.4789 0.4794 0.4800 0.4805 0.4810
2972.925956 0.4815 0.4820 0.4827 0.4835 0.4842
2976.903569 0.4850 0.4855 0.4860 0.4865 0.4870
2980.881182 0.4875 0.4880 0.4885 0.4891 0.4901
2984.858795 0.4911 0.4921 0.4931 0.4938 0.4946
2988.836407 0.4954 0.4961 0.4966 0.4971 0.4976
2992.814020 0.4980 0.4983 0.4986 0.4988 0.4991
2996.791633 0.4996 0.5001 0.5006 0.5013 0.5023
3000.769246 0.5033 0.5043 0.5051 0.5057 0.5062
3004.746859 0.5067 0.5072 0.5077 0.5082 0.5087
3008.724472 0.5091 0.5094 0.5096 0.5099 0.5101
3012.702085 0.5104 0.5106 0.5109 0.5111 0.5114
3016.679698 0.5116 0.5119 0.5121 0.5124 0.5126
3020.657311 0.5129 0.5134 0.5142 0.5149 0.5157
3024.634924 0.5161 0.5164 0.5166 0.5169 0.5170
3028.612537 0.5170 0.5170 0.5170 0.5173 0.5178
3032.590150 0.5183 0.5188 0.5190 0.5190 0.5190
3036.567763 0.5190 0.5192 0.5194 0.5197 0.5199
3040.545376 0.5202 0.5205 0.5207 0.5210 0.5212
3044.522989 0.5215 0.5217 0.5220 0.5220 0.5220
3048.500602 0.5220 0.5220 0.5218 0.5215 0.5213
3052.478214 0.5210 0.5210 0.5210 0.5210 0.5210
3056.455827 0.5210 0.5210 0.5210 0.5210 0.5207
3060.433440 0.5205 0.5202 0.5200 0.5197 0.5195
3064.411053 0.5192 0.5189 0.5171 0.5154 0.5136
3068.388666 0.5119 0.5112 0.5104 0.5096 0.5090
3072.366279 0.5087 0.5085 0.5082 0.5079 0.5077
3076.343892 0.5074 0.5072 0.5068 0.5061 0.5053
3080.321505 0.5045 0.5037 0.5027 0.5017 0.5007
3084.299118 0.4998 0.4990 0.4982 0.4975 0.4966
3088.276731 0.4956 0.4946 0.4936 0.4928 0.4923
3092.254344 0.4918 0.4913 0.4908 0.4903 0.4898
3096.231957 0.4893 0.4888 0.4883 0.4878 0.4873
3100.209570 0.4866 0.4859 0.4851 0.4843 0.4836
3104.187183 0.4828 0.4821 0.4813 0.4807 0.4802
3108.164796 0.4797 0.4792 0.4787 0.4782 0.4777
3112.142409 0.4772 0.4768 0.4766 0.4763 0.4761
3116.120021 0.4758 0.4756 0.4753 0.4751 0.4750
3120.097634 0.4750 0.4750 0.4750 0.4752 0.4754
3124.075247 0.4757 0.4760 0.4762 0.4765 0.4767
3128.052860 0.4770 0.4772 0.4775 0.4777 0.4780
3132.030473 0.4784 0.4790 0.4795 0.4800 0.4805
3136.008086 0.4810 0.4815 0.4820 0.4822 0.4825
3139.985699 0.4828 0.4830 0.4833 0.4835 0.4838
3143.963312 0.4841 0.4853 0.4866 0.4879 0.4891
3147.940925 0.4898 0.4906 0.4913 0.4922 0.4937
3151.918538 0.4952 0.4967 0.4980 0.4983 0.4985
3155.896151 0.4988 0.4992 0.5005 0.5018 0.5030
3159.873764 0.5042 0.5049 0.5057 0.5064 0.5075
3163.851377 0.5093 0.5110 0.5128 0.5143 0.5154
3167.828990 0.5164 0.5174 0.5183 0.5190 0.5198
3171.806603 0.5206 0.5216 0.5231 0.5246 0.5262
3175.784216 0.5271 0.5274 0.5276 0.5279 0.5290
3179.761828 0.5310 0.5330 0.5350 0.5368 0.5383
3183.739441 0.5398 0.5413 0.5427 0.5440 0.5452
3187.717054 0.5465 0.5473 0.5478 0.5483 0.5488
3191.694667 0.5496 0.5506 0.5516 0.5526 0.5537
3195.672280 0.5547 0.5557 0.5567 0.5576 0.5583
3199.649893 0.5591 0.5598 0.5606 0.5613 0.5621
3203.627506 0.5628 0.5634 0.5639 0.5644 0.5649
3207.605119 0.5654 0.5659 0.5664 0.5669 0.5674
3211.582732 0.5679 0.5684 0.5690 0.5697 0.5704
3215.560345 0.5712 0.5720 0.5725 0.5730 0.5735
3219.537958 0.5740 0.5742 0.5745 0.5747 0.5750
3223.515571 0.5755 0.5760 0.5765 0.5770 0.5775
3227.493184 0.5780 0.5785 0.5791 0.5798 0.5806
3231.470797 0.5814 0.5820 0.5823 0.5825 0.5828
3235.448410 0.5831 0.5839 0.5847 0.5854 0.5861
3239.426023 0.5863 0.5866 0.5868 0.5871 0.5873
3243.403635 0.5876 0.5878 0.5882 0.5890 0.5897
3247.381248 0.5905 0.5912 0.5917 0.5922 0.5927
3251.358861 0.5934 0.5944 0.5954 0.5964 0.5970
3255.336474 0.5970 0.5970 0.5970 0.5970 0.5970
3259.314087 0.5970 0.5970 0.5971 0.5974 0.5976
3263.291700 0.5979 0.5981 0.5984 0.5986 0.5989
3267.269313 0.5994 0.6002 0.6009 0.6017 0.6023
3271.246926 0.6028 0.6033 0.6038 0.6045 0.6052
3275.224539 0.6060 0.6068 0.6072 0.6074 0.6077
3279.202152 0.6079 0.6082 0.6084 0.6087 0.6089
3283.179765 0.6096 0.6103 0.6111 0.6118 0.6122
3287.157378 0.6124 0.6127 0.6130 0.6132 0.6135
3291.134991 0.6137 0.6140 0.6147 0.6154 0.6162
3295.112604 0.6169 0.6175 0.6180 0.6185 0.6190
3299.090217 0.6197 0.6205 0.6212 0.6220 0.6233
3303.067830 0.6245 0.6258 0.6270 0.6275 0.6280
3307.045442 0.6285 0.6290 0.6293 0.6295 0.6298
3311.023055 0.6301 0.6306 0.6311 0.6316 0.6321
3315.000668 0.6326 0.6331 0.6336 0.6341 0.6346
3318.978281 0.6351 0.6356 0.6360 0.6360 0.6360
3322.955894 0.6360 0.6361 0.6366 0.6371 0.6377
3326.933507 0.6382 0.6387 0.6392 0.6397 0.6402
3330.911120 0.6407 0.6412 0.6417 0.6422 0.6427
3334.888733 0.6432 0.6437 0.6443 0.6451 0.6458
3338.866346 0.6466 0.6470 0.6470 0.6470 0.6470
3342.843959 0.6471 0.6474 0.6476 0.6479 0.6480
3346.821572 0.6480 0.6480 0.6480 0.6480 0.6480
3350.799185 0.6480 0.6480 0.6482 0.6484 0.6487
3354.776798 0.6489 0.6492 0.6494 0.6497 0.6499
3358.754411 0.6502 0.6504 0.6507 0.6509 0.6512
3362.732024 0.6514 0.6517 0.6519 0.6520 0.6520
3366.709637 0.6520 0.6520 0.6522 0.6525 0.6527
3370.687249 0.6530 0.6530 0.6530 0.6530 0.6530
3374.664862 0.6532 0.6535 0.6537 0.6540 0.6545
3378.642475 0.6550 0.6555 0.6560 0.6560 0.6560
3382.620088 0.6560 0.6560 0.6562 0.6565 0.6568
3386.597701 0.6570 0.6570 0.6570 0.6570 0.6570
3390.575314 0.6570 0.6570 0.6570 0.6570 0.6570
3394.552927 0.6570 0.6570 0.6570 0.6570 0.6570
3398.530540 0.6570 0.6570 0.6570 0.6570 0.6570
3402.508153 0.6571 0.6573 0.6576 0.6578 0.6580
3406.485766 0.6580 0.6580 0.6580 0.6580 0.6580
3410.463379 0.6580 0.6580 0.6580 0.6580 0.6580
3414.440992 0.6580 0.6580 0.6580 0.6580 0.6580
3418.418605 0.6579 0.6576 0.6574 0.6571 0.6570
3422.396218 0.6570 0.6570 0.6570 0.6570 0.6570
3426.373831 0.6570 0.6570 0.6570 0.6570 0.6570
3430.351444 0.6570 0.6570 0.6570 0.6570 0.6570
3434.329057 0.6570 0.6570 0.6570 0.6570 0.6570
3438.306669 0.6570 0.6570 0.6570 0.6568 0.6566
3442.284282 0.6563 0.6561 0.6560 0.6560 0.6560
3446.261895 0.6560 0.6560 0.6560 0.6560 0.6560
3450.239508 0.6558 0.6555 0.6553 0.6550 0.6550
3454.217121 0.6550 0.6550 0.6550 0.6550 0.6550
3458.194734 0.6550 0.6550 0.6550 0.6550 0.6550
3462.172347 0.6550 0.6550 0.6550 0.6550 0.6550
3466.149960 0.6550 0.6550 0.6550 0.6550 0.6550
3470.127573 0.6550 0.6550 0.6550 0.6550 0.6550
3474.105186 0.6550 0.6550 0.6550 0.6550 0.6550
3478.082799 0.6550 0.6547 0.6545 0.6542 0.6540
3482.060412 0.6540 0.6540 0.6540 0.6539 0.6537
3486.038025 0.6534 0.6532 0.6529 0.6527 0.6524
3490.015638 0.6522 0.6520 0.6520 0.6520 0.6520
3493.993251 0.6519 0.6517 0.6514 0.6512 0.6510
3497.970864 0.6510 0.6510 0.6510 0.6510 0.6510
3501.948476 0.6510 0.6510 0.6509 0.6506 0.6504
3505.926089 0.6501 0.6500 0.6500 0.6500 0.6500
3509.903702 0.6500 0.6500 0.6500 0.6500 0.6498
3513.881315 0.6496 0.6493 0.6491 0.6484 0.6473
3517.858928 0.6463 0.6453 0.6447 0.6442 0.6437
3521.836541 0.6431 0.6430 0.6430 0.6430 0.6430
3525.814154 0.6430 0.6430 0.6430 0.6430 0.6430
3529.791767 0.6430 0.6430 0.6430 0.6430 0.6430
3533.769380 0.6430 0.6430 0.6430 0.6430 0.6430
3537.746993 0.6430 0.6432 0.6435 0.6437 0.6440
3541.724606 0.6440 0.6440 0.6440 0.6440 0.6440
3545.702219 0.6440 0.6440 0.6440 0.6440 0.6440
3549.679832 0.6440 0.6440 0.6440 0.6440 0.6440
3553.657445 0.6440 0.6440 0.6440 0.6440 0.6440
3557.635058 0.6440 0.6440 0.6440 0.6440 0.6440
3561.612671 0.6440 0.6440 0.6440 0.6437 0.6434
3565.590283 0.6432 0.6430 0.6430 0.6430 0.6430
3569.567896 0.6431 0.6433 0.6436 0.6438 0.6440
3573.545509 0.6440 0.6440 0.6440 0.6440 0.6440
3577.523122 0.6440 0.6440 0.6440 0.6440 0.6440
3581.500735 0.6440 0.6440 0.6440 0.6440 0.6440
3585.478348 0.6441 0.6444 0.6446 0.6449 0.6450
3589.455961 0.6450 0.6450 0.6450 0.6450 0.6450
3593.433574 0.6450 0.6450 0.6451 0.6454 0.6457
3597.411187 0.6459 0.6460 0.6460 0.6460 0.6460
3601.388800 0.6462 0.6464 0.6467 0.6469 0.6470
3605.366413 0.6470 0.6470 0.6470 0.6470 0.6470
3609.344026 0.6470 0.6470 0.6470 0.6470 0.6470
3613.321639 0.6470 0.6468 0.6465 0.6463 0.6460
3617.299252 0.6460 0.6460 0.6460 0.6460 0.6460
3621.276865 0.6460 0.6460 0.6460 0.6458 0.6455
3625.254478 0.6453 0.6450 0.6448 0.6445 0.6442
3629.232090 0.6440 0.6437 0.6435 0.6432 0.6430
3633.209703 0.6425 0.6420 0.6415 0.6410 0.6405
3637.187316 0.6399 0.6394 0.6390 0.6390 0.6390
3641.164929 0.6390 0.6390 0.6390 0.6390 0.6390
3645.142542 0.6389 0.6387 0.6384 0.6382 0.6380
3649.120155 0.6380 0.6380 0.6380 0.6380 0.6380
3653.097768 0.6380 0.6380 0.6381 0.6383 0.6386
3657.075381 0.6388 0.6390 0.6390 0.6390 0.6390
3661.052994 0.6390 0.6390 0.6390 0.6390 0.6390
3665.030607 0.6390 0.6390 0.6390 0.6390 0.6390
3669.008220 0.6390 0.6390 0.6390 0.6390 0.6390
3672.985833 0.6390 0.6390 0.6390 0.6390 0.6390
3676.963446 0.6390 0.6390 0.6390 0.6390 0.6390
3680.941059 0.6390 0.6390 0.6390 0.6390 0.6390
3684.918672 0.6390 0.6390 0.6390 0.6390 0.6390
3688.896285 0.6390 0.6392 0.6394 0.6397 0.6399
3692.873897 0.6400 0.6400 0.6400 0.6400 0.6398
3696.851510 0.6395 0.6393 0.6390 0.6390 0.6390
3700.829123 0.6390 0.6390 0.6390 0.6390 0.6390
3704.806736 0.6390 0.6390 0.6390 0.6390 0.6390
3708.784349 0.6390 0.6390 0.6390 0.6390 0.6387
3712.761962 0.6385 0.6382 0.6380 0.6380 0.6380
3716.739575 0.6380 0.6380 0.6377 0.6375 0.6372
3720.717188 0.6370 0.6370 0.6370 0.6370 0.6370
3724.694801 0.6367 0.6365 0.6362 0.6360 0.6360
3728.672414 0.6360 0.6360 0.6360 0.6360 0.6360
3732.650027 0.6360 0.6358 0.6353 0.6348 0.6343
3736.627640 0.6337 0.6330 0.6322 0.6315 0.6308
3740.605253 0.6303 0.6298 0.6293 0.6290 0.6290
3744.582866 0.6290 0.6290 0.6290 0.6290 0.6290
3748.560479 0.6290 0.6290 0.6290 0.6290 0.6290
3752.538092 0.6290 0.6290 0.6290 0.6290 0.6290
3756.515704 0.6290 0.6290 0.6290 0.6289 0.6286
3760.493317 0.6283 0.6281 0.6280 0.6280 0.6280
3764.470930 0.6280 0.6273 0.6263 0.6253 0.6243
3768.448543 0.6236 0.6231 0.6226 0.6221 0.6218
3772.426156 0.6216 0.6213 0.6210 0.6210 0.6210
3776.403769 0.6210 0.6210 0.6210 0.6210 0.6210
3780.381382 0.6210 0.6212 0.6215 0.6217 0.6220
3784.358995 0.6220 0.6220 0.6220 0.6220 0.6220
3788.336608 0.6220 0.6220 0.6220 0.6220 0.6220
3792.314221 0.6220 0.6220 0.6220 0.6220 0.6220
3796.291834 0.6220 0.6223 0.6225 0.6228 0.6230
3800.269447 0.6230 0.6230 0.6230 0.6230 0.6230
3804.247060 0.6230 0.6230 0.6230 0.6230 0.6230
3808.224673 0.6230 0.6230 0.6230 0.6230 0.6230
3812.202286 0.6230 0.6230 0.6230 0.6230 0.6229
3816.179899 0.6227 0.6224 0.6222 0.6220 0.6220
3820.157511 0.6220 0.6220 0.6220 0.6220 0.6220
3824.135124 0.6220 0.6220 0.6220 0.6220 0.6220
3828.112737 0.6220 0.6220 0.6220 0.6220 0.6219
3832.090350 0.6216 0.6214 0.6211 0.6210 0.6210
3836.067963 0.6210 0.6210 0.6210 0.6210 0.6210
3840.045576 0.6210 0.6208 0.6206 0.6203 0.6201
3844.023189 0.6198 0.6196 0.6193 0.6191 0.6188
3848.000802 0.6186 0.6183 0.6181 0.6180 0.6180
3851.978415 0.6180 0.6180 0.6178 0.6176 0.6173
3855.956028 0.6171 0.6168 0.6165 0.6163 0.6160
3859.933641 0.6160 0.6160 0.6160 0.6160 0.6158
3863.911254 0.6155 0.6153 0.6150 0.6148 0.6145
3867.888867 0.6143 0.6140 0.6140 0.6140 0.6140
3871.866480 0.6140 0.6140 0.6140 0.6140 0.6140
3875.844093 0.6140 0.6140 0.6140 0.6140 0.6140
3879.821706 0.6140 0.6140 0.6140 0.6143 0.6145
3883.799318 0.6148 0.6150 0.6150 0.6150 0.6150
3887.776931 0.6150 0.6150 0.6150 0.6150 0.6150
3891.754544 0.6150 0.6150 0.6150 0.6151 0.6153
3895.732157 0.6156 0.6158 0.6160 0.6160 0.6160
3899.709770 0.6160 0.6159 0.6157 0.6154 0.6152
3903.687383 0.6150 0.6150 0.6150 0.6150 0.6149
3907.664996 0.6146 0.6144 0.6141 0.6139 0.6136
3911.642609 0.6134 0.6131 0.6130 0.6130 0.6130
3915.620222 0.6130 0.6130 0.6130 0.6130 0.6130
3919.597835 0.6130 0.6130 0.6130 0.6130 0.6130
3923.575448 0.6130 0.6130 0.6130 0.6130 0.6130
3927.553061 0.6130 0.6130 0.6128 0.6126 0.6123
3931.530674 0.6121 0.6120 0.6120 0.6120 0.6120
3935.508287 0.6118 0.6116 0.6113 0.6110 0.6110
3939.485900 0.6110 0.6110 0.6110 0.6108 0.6105
3943.463513 0.6103 0.6100 0.6098 0.6095 0.6093
3947.441125 0.6090 0.6090 0.6090 0.6090 0.6090
3951.418738 0.6090 0.6090 0.6090 0.6090 0.6090
3955.396351 0.6090 0.6090 0.6090 0.6087 0.6085
3959.373964 0.6082 0.6080 0.6080 0.6080 0.6080
3963.351577 0.6080 0.6077 0.6075 0.6072 0.6070
3967.329190 0.6070 0.6070 0.6070 0.6069 0.6067
3971.306803 0.6064 0.6062 0.6060 0.6060 0.6060
3975.284416 0.6060 0.6060 0.6060 0.6060 0.6060
3979.262029 0.6060 0.6060 0.6060 0.6060 0.6060
3983.239642 0.6060 0.6060 0.6060 0.6060 0.6060
3987.217255 0.6060 0.6060 0.6060 0.6060 0.6060
3991.194868 0.6060 0.6059 0.6056 0.6054 0.6051
3995.172481 0.6049 0.6046 0.6044 0.6041 0.6037
3999.150094 0.6032 0.6027 0.6022 0.6019 0.6016
4003.127707 0.6013 0.6011 0.6008 0.6006 0.6003
4007.105320 0.6001 0.6000 0.6000 0.6000 0.6000
4011.082932 0.6000 0.6000 0.6000 0.6000 0.6000
4015.060545 0.6000 0.6000 0.6000 0.6000 0.6000
4019.038158 0.6000 0.6000 0.6000 0.6000 0.6000
4023.015771 0.6000 0.6000 0.6000 0.6000 0.6000
4026.993384 0.5998 0.5995 0.5993 0.5990 0.5990
4030.970997 0.5990 0.5990 0.5990 0.5990 0.5990
4034.948610 0.5990 0.5990 0.5990 0.5990 0.5990
4038.926223 0.5990 0.5990 0.5990 0.5990 0.5990
4042.903836 0.5990 0.5990 0.5990 0.5990 0.5993
4046.881449 0.5995 0.5998 0.6000 0.6000 0.6000
4050.859062 0.6000 0.6000 0.6000 0.6000 0.6000
4054.836675 0.6000 0.6000 0.6000 0.6000 0.6000
4058.814288 0.6000 0.6000 0.6000 0.6001 0.6003
4062.791901 0.6006 0.6008 0.6010 0.6010 0.6010
4066.769514 0.6010 0.6010 0.6010 0.6010 0.6010
4070.747127 0.6010 0.6010 0.6010 0.6010 0.6010
4074.724739 0.6010 0.6010 0.6010 0.6010 0.6010
4078.702352 0.6010 0.6010 0.6010 0.6010 0.6010
4082.679965 0.6010 0.6010 0.6010 0.6010 0.6010
4086.657578 0.6010 0.6010 0.6010 0.6010 0.6008
4090.635191 0.6006 0.6003 0.6001 0.6000 0.6000
4094.612804 0.6000 0.6000 0.6000 0.6000 0.6000
4098.590417 0.6000 0.6000 0.6000 0.6000 0.6000
4102.568030 0.6000 0.6000 0.6000 0.6000 0.6000
4106.545643 0.6000 0.6000 0.6000 0.5998 0.5995
4110.523256 0.5993 0.5990 0.5988 0.5985 0.5983
4114.500869 0.5980 0.5977 0.5975 0.5972 0.5970
4118.478482 0.5970 0.5970 0.5970 0.5970 0.5967
4122.456095 0.5965 0.5962 0.5959 0.5954 0.5949
4126.433708 0.5944 0.5940 0.5937 0.5935 0.5932
4130.411321 0.5929 0.5924 0.5919 0.5914 0.5910
4134.388934 0.5910 0.5910 0.5910 0.5909 0.5907
4138.366547 0.5904 0.5902 0.5900 0.5900 0.5900
4142.344159 0.5900 0.5900 0.5900 0.5900 0.5900
4146.321772 0.5900 0.5900 0.5900 0.5900 0.5900
4150.299385 0.5900 0.5900 0.5900 0.5900 0.5900
4154.276998 0.5900 0.5900 0.5900 0.5900 0.5900
4158.254611 0.5900 0.5901 0.5904 0.5906 0.5909
4162.232224 0.5913 0.5918 0.5923 0.5928 0.5930
4166.209837 0.5930 0.5930 0.5930 0.5930 0.5930
4170.187450 0.5930 0.5930 0.5930 0.5930 0.5930
4174.165063 0.5930 0.5928 0.5926 0.5923 0.5921
4178.142676 0.5916 0.5911 0.5906 0.5901 0.5900
4182.120289 0.5900 0.5900 0.5900 0.5898 0.5895
4186.097902 0.5893 0.5890 0.5890 0.5890 0.5890
4190.075515 0.5890 0.5890 0.5890 0.5890 0.5890
4194.053128 0.5892 0.5895 0.5897 0.5900 0.5900
4198.030741 0.5900 0.5900 0.5900 0.5900 0.5900
4202.008354 0.5900 0.5900 0.5900 0.5900 0.5900
4205.985966 0.5900 0.5900 0.5900 0.5900 0.5900
4209.963579 0.5900 0.5900 0.5900 0.5900 0.5900
4213.941192 0.5900 0.5900 0.5899 0.5897 0.5894
4217.918805 0.5892 0.5890 0.5890 0.5890 0.5890
4221.896418 0.5890 0.5890 0.5890 0.5890 0.5890
4225.874031 0.5890 0.5890 0.5890 0.5889 0.5887
4229.851644 0.5884 0.5881 0.5880 0.5880 0.5880
4233.829257 0.5880 0.5880 0.5880 0.5880 0.5880
4237.806870 0.5880 0.5880 0.5880 0.5880 0.5880
4241.784483 0.5880 0.5880 0.5880 0.5879 0.5876
4245.762096 0.5873 0.5871 0.5868 0.5866 0.5863
4249.739709 0.5861 0.5860 0.5860 0.5860 0.5860
4253.717322 0.5860 0.5860 0.5860 0.5860 0.5860
4257.694935 0.5860 0.5860 0.5860 0.5858 0.5856
4261.672548 0.5853 0.5851 0.5850 0.5850 0.5850
4265.650161 0.5850 0.5848 0.5845 0.5843 0.5840
4269.627773 0.5840 0.5840 0.5840 0.5840 0.5840
4273.605386 0.5840 0.5840 0.5840 0.5838 0.5835
4277.582999 0.5833 0.5830 0.5827 0.5825 0.5822
4281.560612 0.5820 0.5817 0.5815 0.5812 0.5810
4285.538225 0.5810 0.5810 0.5810 0.5810 0.5813
4289.515838 0.5815 0.5818 0.5820 0.5820 0.5820
4293.493451 0.5820 0.5820 0.5820 0.5820 0.5820
4297.471064 0.5820 0.5820 0.5820 0.5820 0.5819
4301.448677 0.5817 0.5814 0.5812 0.5810 0.5810
4305.426290 0.5810 0.5810 0.5810 0.5810 0.5810
4309.403903 0.5810 0.5808 0.5803 0.5798 0.5793
4313.381516 0.5790 0.5790 0.5790 0.5790 0.5790
4317.359129 0.5790 0.5790 0.5790 0.5789 0.5786
4321.336742 0.5784 0.5781 0.5779 0.5776 0.5774
4325.314355 0.5771 0.5770 0.5770 0.5770 0.5770
4329.291968 0.5770 0.5770 0.5770 0.5770 0.5770
4333.269580 0.5770 0.5770 0.5770 0.5768 0.5766
4337.247193 0.5763 0.5761 0.5760 0.5760 0.5760
4341.224806 0.5760 0.5762 0.5765 0.5767 0.5770
4345.202419 0.5770 0.5770 0.5770 0.5770 0.5770
4349.180032 0.5770 0.5770 0.5770 0.5770 0.5770
4353.157645 0.5770 0.5770 0.5770 0.5770 0.5770
4357.135258 0.5770 0.5770 0.5770 0.5770 0.5770
4361.112871 0.5770 0.5770 0.5770 0.5770 0.5770
4365.090484 0.5770 0.5770 0.5770 0.5770 0.5770
4369.068097 0.5770 0.5770 0.5770 0.5770 0.5770
4373.045710 0.5770 0.5770 0.5770 0.5770 0.5771
4377.023323 0.5776 0.5781 0.5786 0.5790 0.5790
4381.000936 0.5790 0.5790 0.5790 0.5790 0.5790
4384.978549 0.5790 0.5790 0.5790 0.5790 0.5790
4388.956162 0.5791 0.5793 0.5796 0.5798 0.5800
4392.933775 0.5800 0.5800 0.5800 0.5800 0.5800
4396.911387 0.5800 0.5800 0.5799 0.5796 0.5794
4400.889000 0.5791 0.5783 0.5771 0.5758 0.5746
4404.866613 0.5739 0.5736 0.5734 0.5731 0.5729
4408.844226 0.5726 0.5723 0.5721 0.5720 0.5720
4412.821839 0.5720 0.5720 0.5720 0.5720 0.5720
4416.799452 0.5720 0.5720 0.5720 0.5720 0.5720
4420.777065 0.5720 0.5720 0.5720 0.5720 0.5720
4424.754678 0.5720 0.5720 0.5720 0.5720 0.5720
4428.732291 0.5720 0.5720 0.5720 0.5720 0.5720
4432.709904 0.5720 0.5720 0.5720 0.5720 0.5720
4436.687517 0.5718 0.5715 0.5713 0.5710 0.5708
4440.665130 0.5705 0.5702 0.5700 0.5697 0.5695
4444.642743 0.5692 0.5690 0.5687 0.5685 0.5682
4448.620356 0.5680 0.5677 0.5675 0.5672 0.5670
4452.597969 0.5667 0.5665 0.5662 0.5660 0.5657
4456.575582 0.5655 0.5652 0.5650 0.5650 0.5650
4460.553194 0.5650 0.5650 0.5650 0.5650 0.5650
4464.530807 0.5650 0.5650 0.5650 0.5650 0.5650
4468.508420 0.5650 0.5650 0.5650 0.5651 0.5653
4472.486033 0.5656 0.5659 0.5661 0.5664 0.5666
4476.463646 0.5669 0.5670 0.5670 0.5670 0.5670
4480.441259 0.5670 0.5670 0.5670 0.5670 0.5670
4484.418872 0.5670 0.5670 0.5670 0.5670 0.5670
4488.396485 0.5670 0.5670 0.5670 0.5670 0.5670
4492.374098 0.5670 0.5670 0.5670 0.5670 0.5670
4496.351711 0.5670 0.5670 0.5670 0.5670 0.5668
4500.329324 0.5666 0.5663 0.5661 0.5658 0.5656
4504.306937 0.5653 0.5651 0.5646 0.5641 0.5636
4508.284550 0.5631 0.5630 0.5630 0.5630 0.5630
4512.262163 0.5630 0.5630 0.5630 0.5630 0.5628
4516.239776 0.5625 0.5623 0.5620 0.5620 0.5620
4520.217389 0.5620 0.5620 0.5620 0.5620 0.5620
4524.195001 0.5620 0.5620 0.5620 0.5620 0.5620
4528.172614 0.5620 0.5620 0.5620 0.5620 0.5620
4532.150227 0.5620 0.5620 0.5620 0.5620 0.5620
4536.127840 0.5620 0.5620 0.5620 0.5620 0.5620
4540.105453 0.5619 0.5617 0.5614 0.5612 0.5610
4544.083066 0.5610 0.5610 0.5610 0.5609 0.5607
4548.060679 0.5604 0.5602 0.5600 0.5600 0.5600
4552.038292 0.5600 0.5600 0.5600 0.5600 0.5600
4556.015905 0.5600 0.5600 0.5600 0.5600 0.5600
4559.993518 0.5600 0.5600 0.5600 0.5600 0.5600
4563.971131 0.5600 0.5600 0.5600 0.5600 0.5600
4567.948744 0.5600 0.5600 0.5600 0.5600 0.5600
4571.926357 0.5600 0.5600 0.5600 0.5600 0.5600
4575.903970 0.5600 0.5600 0.5600 0.5600 0.5600
4579.881583 0.5600 0.5600 0.5600 0.5600 0.5600
4583.859196 0.5600 0.5600 0.5600 0.5600 0.5600
4587.836808 0.5600 0.5600 0.5600 0.5600 0.5602
4591.814421 0.5605 0.5607 0.5610 0.5610 0.5610
4595.792034 0.5610 0.5610 0.5610 0.5610 0.5610
4599.769647 0.5610 0.5610 0.5610 0.5610 0.5610
4603.747260 0.5608 0.5605 0.5602 0.5600 0.5600
4607.724873 0.5600 0.5600 0.5600 0.5597 0.5595
4611.702486 0.5592 0.5590 0.5587 0.5585 0.5582
4615.680099 0.5580 0.5580 0.5580 0.5580 0.5580
4619.657712 0.5580 0.5580 0.5580 0.5580 0.5580
4623.635325 0.5580 0.5580 0.5580 0.5580 0.5580
4627.612938 0.5580 0.5580 0.5580 0.5580 0.5580
4631.590551 0.5580 0.5580 0.5580 0.5580 0.5579
4635.568164 0.5577 0.5574 0.5571 0.5570 0.5570
4639.545777 0.5570 0.5570 0.5570 0.5570 0.5570
4643.523390 0.5570 0.5571 0.5574 0.5576 0.5579
4647.501003 0.5580 0.5580 0.5580 0.5580 0.5580
4651.478615 0.5580 0.5580 0.5580 0.5580 0.5580
4655.456228 0.5580 0.5580 0.5580 0.5580 0.5580
4659.433841 0.5580 0.5580 0.5580 0.5580 0.5580
4663.411454 0.5578 0.5576 0.5573 0.5571 0.5570
4667.389067 0.5570 0.5570 0.5570 0.5568 0.5565
4671.366680 0.5563 0.5560 0.5558 0.5555 0.5553
4675.344293 0.5550 0.5550 0.5550 0.5550 0.5550
4679.321906 0.5548 0.5545 0.5543 0.5540 0.5540
4683.299519 0.5540 0.5540 0.5540 0.5540 0.5540
4687.277132 0.5540 0.5540 0.5540 0.5540 0.5540
4691.254745 0.5540 0.5540 0.5540 0.5540 0.5540
4695.232358 0.5543 0.5545 0.5548 0.5550 0.5550
4699.209971 0.5550 0.5550 0.5550 0.5553 0.5556
4703.187584 0.5558 0.5560 0.5560 0.5560 0.5560
4707.165197 0.5560 0.5560 0.5560 0.5560 0.5560
4711.142810 0.5560 0.5560 0.5560 0.5560 0.5560
4715.120422 0.5560 0.5560 0.5560 0.5560 0.5560
4719.098035 0.5560 0.5560 0.5560 0.5560 0.5560
4723.075648 0.5560 0.5560 0.5560 0.5560 0.5560
4727.053261 0.5560 0.5560 0.5560 0.5560 0.5560
4731.030874 0.5560 0.5560 0.5559 0.5556 0.5554
4735.008487 0.5551 0.5548 0.5546 0.5543 0.5541
4738.986100 0.5537 0.5532 0.5527 0.5521 0.5518
4742.963713 0.5516 0.5513 0.5511 0.5510 0.5510
4746.941326 0.5510 0.5510 0.5508 0.5505 0.5503
4750.918939 0.5500 0.5498 0.5495 0.5493 0.5490
4754.896552 0.5490 0.5490 0.5490 0.5490 0.5492
4758.874165 0.5495 0.5497 0.5500 0.5500 0.5500
4762.851778 0.5500 0.5500 0.5500 0.5500 0.5500
4766.829391 0.5500 0.5503 0.5505 0.5508 0.5510
4770.807004 0.5510 0.5510 0.5510 0.5510 0.5513
4774.784617 0.5515 0.5518 0.5520 0.5520 0.5520
4778.762229 0.5520 0.5520 0.5520 0.5520 0.5520
4782.739842 0.5519 0.5517 0.5514 0.5512 0.5510
4786.717455 0.5510 0.5510 0.5510 0.5510 0.5510
4790.695068 0.5510 0.5510 0.5510 0.5510 0.5510
4794.672681 0.5510 0.5509 0.5507 0.5504 0.5502
4798.650294 0.5500 0.5500 0.5500 0.5500 0.5500
4802.627907 0.5500 0.5500 0.5500 0.5500 0.5500
4806.605520 0.5500 0.5500 0.5501 0.5504 0.5506
4810.583133 0.5509 0.5509 0.5506 0.5504 0.5501
4814.560746 0.5500 0.5500 0.5500 0.5500 0.5498
4818.538359 0.5496 0.5493 0.5491 0.5490 0.5490
4822.515972 0.5490 0.5490 0.5490 0.5490 0.5490
4826.493585 0.5490 0.5490 0.5490 0.5490 0.5490
4830.471198 0.5490 0.5490 0.5490 0.5490 0.5488
4834.448811 0.5485 0.5483 0.5480 0.5478 0.5475
4838.426424 0.5473 0.5470 0.5470 0.5470 0.5470
4842.404037 0.5470 0.5470 0.5470 0.5470 0.5470
4846.381649 0.5470 0.5470 0.5470 0.5470 0.5470
4850.359262 0.5470 0.5470 0.5470 0.5470 0.5470
4854.336875 0.5470 0.5470 0.5470 0.5470 0.5470
4858.314488 0.5470 0.5470 0.5470 0.5470 0.5470
4862.292101 0.5470 0.5470 0.5470 0.5470 0.5470
4866.269714 0.5470 0.5470 0.5469 0.5467 0.5464
4870.247327 0.5462 0.5460 0.5460 0.5460 0.5460
4874.224940 0.5459 0.5457 0.5454 0.5452 0.5449
4878.202553 0.5447 0.5444 0.5442 0.5440 0.5440
4882.180166 0.5440 0.5440 0.5438 0.5433 0.5428
4886.157779 0.5423 0.5420 0.5420 0.5420 0.5420
4890.135392 0.5420 0.5420 0.5420 0.5420 0.5420
4894.113005 0.5420 0.5420 0.5420 0.5420 0.5420
4898.090618 0.5420 0.5420 0.5420 0.5420 0.5420
4902.068231 0.5420 0.5420 0.5420 0.5420 0.5420
4906.045844 0.5418 0.5416 0.5413 0.5411 0.5408
4910.023456 0.5406 0.5403 0.5401 0.5400 0.5400
4914.001069 0.5400 0.5400 0.5400 0.5400 0.5400
4917.978682 0.5400 0.5400 0.5400 0.5400 0.5400
4921.956295 0.5400 0.5400 0.5400 0.5400 0.5398
4925.933908 0.5395 0.5393 0.5390 0.5390 0.5390
4929.911521 0.5390 0.5390 0.5385 0.5380 0.5375
4933.889134 0.5370 0.5370 0.5370 0.5370 0.5370
4937.866747 0.5370 0.5370 0.5370 0.5370 0.5370
4941.844360 0.5370 0.5370 0.5370 0.5367 0.5365
4945.821973 0.5362 0.5359 0.5357 0.5354 0.5352
4949.799586 0.5350 0.5350 0.5350 0.5350 0.5350
4953.777199 0.5350 0.5350 0.5350 0.5349 0.5347
4957.754812 0.5344 0.5342 0.5339 0.5337 0.5334
4961.732425 0.5331
##END=
