##TITLE=Aniline, 2-tert-butyl-N-sec-butyl-
##JCAMP-DX=4.24
##DATA TYPE=INFRARED SPECTRUM
##CLASS=COBLENTZ III
##ORIGIN=MONSANTO (J. FREEMAN)
##OWNER=Copyright (C) 1987 by the Coblentz Society
Collection (C) 2018 copyright by the U.S. Secretary of Commerce
on behalf of the United States of America. All rights reserved.
##DATE=1960/01/04
##NAMES=N-(sec-butyl)-N-(2-tert-butylphenyl)amine
N-(sec-butyl)-2-tert-butylaniline
##MOLFORM=C14 H23 N
##SOURCE REFERENCE=COBLENTZ NO. 9272
##$NIST ID=B6009272
##$NIST SOURCE=COBLENTZ
##$NIST IMAGE=cob9272
##SPECTROMETER/DATA SYSTEM=BECKMAN IR-4 (HYBRID PRISM-GRATING)
##INSTRUMENT PARAMETERS=NaCl PRISM
##STATE=LIQUID (NEAT)
##PATH LENGTH=CAPILLARY
##SAMPLING PROCEDURE=TRANSMISSION
##RESOLUTION=2
##DATA PROCESSING=DIGITIZED BY COBLENTZ SOCIETY (BATCH II) FROM HARD COPY
##XUNITS=1/CM
##YUNITS=TRANSMITTANCE
##XFACTOR=1.0
##YFACTOR=1
##FIRSTX=627
##LASTX=4000
##FIRSTY=0.7786
##MAXX=4000
##MINX=627
##MAXY=0.9631
##MINY=0.1135
##NPOINTS=3374
##XYDATA=(X++(Y..Y))
627.000000 0.7786 0.7793 0.7778 0.7770 0.7768
632.000000 0.7773 0.7770 0.7802 0.7836 0.7854
637.000000 0.7832 0.7798 0.7766 0.7743 0.7721
642.000000 0.7739 0.7757 0.7764 0.7740 0.7713
647.000000 0.7678 0.7649 0.7619 0.7589 0.7577
652.000000 0.7565 0.7552 0.7535 0.7519 0.7509
657.000000 0.7512 0.7527 0.7606 0.7641 0.7625
662.000000 0.7602 0.7567 0.7535 0.7529 0.7526
667.000000 0.7534 0.7564 0.7632 0.7732 0.7741
672.000000 0.7742 0.7751 0.7756 0.7762 0.7765
677.000000 0.7768 0.7772 0.7785 0.7799 0.7814
682.000000 0.7834 0.7856 0.7877 0.7895 0.7906
687.000000 0.7909 0.7913 0.7916 0.7911 0.7896
692.000000 0.7867 0.7835 0.7807 0.7783 0.7761
697.000000 0.7747 0.7731 0.7735 0.7737 0.7748
702.000000 0.7763 0.7781 0.7803 0.7828 0.7861
707.000000 0.7910 0.7953 0.7974 0.7980 0.7971
712.000000 0.7961 0.7947 0.7933 0.7914 0.7892
717.000000 0.7867 0.7839 0.7802 0.7752 0.7696
722.000000 0.7605 0.7487 0.7341 0.7178 0.6969
727.000000 0.6757 0.6463 0.6197 0.5873 0.5280
732.000000 0.4689 0.4100 0.3513 0.2926 0.2397
737.000000 0.2053 0.1668 0.1432 0.1250 0.1160
742.000000 0.1135 0.1194 0.1317 0.1540 0.1825
747.000000 0.2063 0.2242 0.3012 0.3438 0.3863
752.000000 0.4286 0.4707 0.5048 0.5916 0.6149
757.000000 0.6388 0.6696 0.6950 0.7301 0.7601
762.000000 0.7761 0.7873 0.7928 0.7979 0.7997
767.000000 0.7992 0.7975 0.7903 0.7801 0.7672
772.000000 0.7551 0.7446 0.7368 0.7344 0.7398
777.000000 0.7438 0.7514 0.7618 0.7718 0.7870
782.000000 0.8055 0.8205 0.8332 0.8429 0.8487
787.000000 0.8545 0.8599 0.8642 0.8672 0.8677
792.000000 0.8679 0.8681 0.8658 0.8673 0.8666
797.000000 0.8658 0.8644 0.8630 0.8617 0.8597
802.000000 0.8574 0.8550 0.8521 0.8486 0.8450
807.000000 0.8389 0.8324 0.8229 0.8112 0.7994
812.000000 0.7876 0.7752 0.7629 0.7529 0.7478
817.000000 0.7484 0.7578 0.7876 0.8020 0.8136
822.000000 0.8269 0.8400 0.8525 0.8604 0.8625
827.000000 0.8640 0.8645 0.8643 0.8636 0.8623
832.000000 0.8590 0.8522 0.8447 0.8364 0.8277
837.000000 0.8187 0.8098 0.8015 0.7987 0.7961
842.000000 0.7934 0.7912 0.7899 0.7876 0.7894
847.000000 0.8004 0.8144 0.8252 0.8419 0.8785
852.000000 0.8989 0.9111 0.9186 0.9238 0.9283
857.000000 0.9320 0.9354 0.9380 0.9400 0.9411
862.000000 0.9425 0.9440 0.9457 0.9474 0.9489
867.000000 0.9504 0.9519 0.9534 0.9547 0.9555
872.000000 0.9563 0.9570 0.9575 0.9580 0.9586
877.000000 0.9591 0.9624 0.9602 0.9606 0.9607
882.000000 0.9607 0.9607 0.9607 0.9607 0.9603
887.000000 0.9599 0.9594 0.9590 0.9585 0.9580
892.000000 0.9575 0.9571 0.9565 0.9560 0.9553
897.000000 0.9546 0.9538 0.9530 0.9521 0.9512
902.000000 0.9501 0.9487 0.9472 0.9455 0.9436
907.000000 0.9417 0.9397 0.9365 0.9325 0.9234
912.000000 0.9150 0.9072 0.8994 0.8915 0.8833
917.000000 0.8739 0.8641 0.8508 0.8272 0.8035
922.000000 0.7799 0.7603 0.7497 0.7438 0.7525
927.000000 0.7583 0.7706 0.7829 0.7951 0.8073
932.000000 0.8190 0.8261 0.8346 0.8423 0.8455
937.000000 0.8455 0.8452 0.8454 0.8481 0.8563
942.000000 0.8654 0.8767 0.8871 0.8935 0.8988
947.000000 0.9019 0.9019 0.9019 0.9034 0.9017
952.000000 0.9016 0.9007 0.8998 0.8990 0.8981
957.000000 0.8971 0.8962 0.8947 0.8930 0.8902
962.000000 0.8857 0.8803 0.8742 0.8678 0.8622
967.000000 0.8577 0.8542 0.8509 0.8484 0.8470
972.000000 0.8464 0.8457 0.8435 0.8466 0.8501
977.000000 0.8549 0.8618 0.8723 0.8820 0.8906
982.000000 0.8959 0.8994 0.8999 0.8970 0.8990
987.000000 0.8886 0.8750 0.8615 0.8480 0.8346
992.000000 0.8211 0.8078 0.7943 0.7810 0.7677
997.000000 0.7544 0.7388 0.7235 0.7058 0.6917
1002.000000 0.6785 0.6648 0.6589 0.6582 0.6585
1007.000000 0.6627 0.6704 0.6795 0.6812 0.6823
1012.000000 0.6961 0.7178 0.7395 0.7610 0.7825
1017.000000 0.8041 0.8094 0.8089 0.8079 0.8053
1022.000000 0.8015 0.7965 0.7900 0.7837 0.7780
1027.000000 0.7724 0.7688 0.7634 0.7661 0.7688
1032.000000 0.7732 0.7798 0.7842 0.7879 0.7916
1037.000000 0.7940 0.7908 0.7855 0.7778 0.7661
1042.000000 0.7466 0.7292 0.7158 0.7020 0.6815
1047.000000 0.6140 0.5457 0.4775 0.4095 0.3457
1052.000000 0.3354 0.3811 0.4476 0.5141 0.5804
1057.000000 0.6408 0.6841 0.7265 0.7979 0.8277
1062.000000 0.8443 0.8560 0.8654 0.8716 0.8770
1067.000000 0.8806 0.8843 0.8870 0.8890 0.8905
1072.000000 0.8941 0.8904 0.8860 0.8809 0.8749
1077.000000 0.8640 0.8529 0.8418 0.8308 0.8199
1082.000000 0.8101 0.8084 0.8061 0.8174 0.8251
1087.000000 0.8310 0.8334 0.8320 0.8241 0.8090
1092.000000 0.7939 0.7789 0.7638 0.7489 0.7339
1097.000000 0.7190 0.7079 0.7027 0.7020 0.7051
1102.000000 0.7128 0.7180 0.7195 0.7195 0.7146
1107.000000 0.6954 0.6753 0.6552 0.6351 0.6160
1112.000000 0.6073 0.6027 0.6018 0.6034 0.6063
1117.000000 0.6002 0.6166 0.6220 0.6299 0.6386
1122.000000 0.6480 0.6614 0.6760 0.6904 0.7040
1127.000000 0.7161 0.7247 0.7331 0.7398 0.7460
1132.000000 0.7511 0.7554 0.7563 0.7580 0.7565
1137.000000 0.7540 0.7499 0.7356 0.7086 0.6817
1142.000000 0.6549 0.6281 0.6014 0.5747 0.5481
1147.000000 0.5215 0.4950 0.4684 0.4417 0.4200
1152.000000 0.4086 0.4010 0.3937 0.3884 0.3839
1157.000000 0.3795 0.3746 0.3693 0.3634 0.3538
1162.000000 0.3422 0.3302 0.3216 0.3145 0.3060
1167.000000 0.3024 0.3017 0.3015 0.3103 0.3319
1172.000000 0.3678 0.4039 0.4401 0.4761 0.5121
1177.000000 0.5481 0.5839 0.6197 0.6516 0.6526
1182.000000 0.6501 0.6262 0.6016 0.5771 0.5525
1187.000000 0.5281 0.5037 0.4821 0.4787 0.4854
1192.000000 0.5195 0.5546 0.5895 0.6244 0.6592
1197.000000 0.6939 0.7286 0.7633 0.7889 0.8013
1202.000000 0.8132 0.8217 0.8261 0.8283 0.8293
1207.000000 0.8299 0.8310 0.8302 0.8299 0.8290
1212.000000 0.8276 0.8247 0.8190 0.8121 0.8020
1217.000000 0.7925 0.7778 0.7532 0.7287 0.7042
1222.000000 0.6797 0.6553 0.6308 0.6065 0.5822
1227.000000 0.5579 0.5337 0.5095 0.4853 0.4619
1232.000000 0.4515 0.4541 0.4494 0.4506 0.4602
1237.000000 0.4765 0.4927 0.5089 0.5268 0.5293
1242.000000 0.5298 0.5294 0.5245 0.5194 0.4958
1247.000000 0.4720 0.4482 0.4244 0.4008 0.3680
1252.000000 0.3574 0.3504 0.3471 0.3450 0.3442
1257.000000 0.3506 0.3455 0.3465 0.3476 0.3491
1262.000000 0.3507 0.3524 0.3541 0.3564 0.3592
1267.000000 0.3627 0.3686 0.3869 0.4018 0.4163
1272.000000 0.4308 0.4453 0.4598 0.4743 0.4886
1277.000000 0.4923 0.4929 0.4893 0.4796 0.4700
1282.000000 0.4603 0.4564 0.4567 0.4605 0.4739
1287.000000 0.4887 0.5033 0.5256 0.5271 0.5271
1292.000000 0.5227 0.5034 0.4841 0.4648 0.4456
1297.000000 0.4264 0.4073 0.3881 0.3690 0.3500
1302.000000 0.3308 0.3118 0.2928 0.2728 0.2530
1307.000000 0.2400 0.2331 0.2303 0.2292 0.2309
1312.000000 0.2318 0.2333 0.2449 0.2664 0.2866
1317.000000 0.3210 0.3471 0.3762 0.4053 0.4342
1322.000000 0.4632 0.4921 0.5210 0.5498 0.5787
1327.000000 0.6074 0.6339 0.6476 0.6527 0.6565
1332.000000 0.6580 0.6580 0.6580 0.6579 0.6575
1337.000000 0.6574 0.6579 0.6594 0.6617 0.6635
1342.000000 0.6654 0.6668 0.6672 0.6665 0.6656
1347.000000 0.6641 0.6616 0.6509 0.6408 0.6369
1352.000000 0.6339 0.6315 0.6292 0.6269 0.6243
1357.000000 0.6114 0.5832 0.5532 0.5233 0.4933
1362.000000 0.4634 0.4336 0.4127 0.4020 0.3931
1367.000000 0.3845 0.3762 0.3695 0.3656 0.3616
1372.000000 0.3643 0.3645 0.3665 0.3693 0.3759
1377.000000 0.4063 0.4366 0.4670 0.4972 0.5274
1382.000000 0.5576 0.5878 0.6087 0.6131 0.6120
1387.000000 0.5906 0.5749 0.5591 0.5434 0.5277
1392.000000 0.5121 0.4964 0.4813 0.4770 0.4742
1397.000000 0.5228 0.5694 0.6159 0.6589 0.6795
1402.000000 0.6847 0.6875 0.6888 0.6893 0.6875
1407.000000 0.6892 0.6888 0.6882 0.6871 0.6835
1412.000000 0.6741 0.6601 0.6457 0.6314 0.6170
1417.000000 0.6028 0.5885 0.5742 0.5600 0.5458
1422.000000 0.5316 0.5174 0.5033 0.4891 0.4749
1427.000000 0.4608 0.4476 0.4393 0.4334 0.4269
1432.000000 0.4199 0.4110 0.3935 0.3536 0.3345
1437.000000 0.3235 0.3130 0.2953 0.2638 0.2051
1442.000000 0.1898 0.1789 0.1734 0.1707 0.1660
1447.000000 0.1685 0.1687 0.1704 0.1766 0.1868
1452.000000 0.1987 0.2107 0.2227 0.2346 0.2465
1457.000000 0.2584 0.2703 0.2822 0.2940 0.3059
1462.000000 0.3177 0.3294 0.3412 0.3530 0.3647
1467.000000 0.3765 0.3882 0.3988 0.4015 0.4004
1472.000000 0.4015 0.3996 0.3953 0.3907 0.3860
1477.000000 0.3813 0.3766 0.3730 0.3718 0.3723
1482.000000 0.3784 0.3876 0.3968 0.4060 0.4152
1487.000000 0.4205 0.4209 0.4201 0.4080 0.3937
1492.000000 0.3794 0.3652 0.3509 0.3367 0.3226
1497.000000 0.3084 0.2943 0.2801 0.2660 0.2519
1502.000000 0.2378 0.2238 0.2007 0.1900 0.1853
1507.000000 0.1777 0.1748 0.1704 0.1729 0.1734
1512.000000 0.1748 0.1804 0.1959 0.2148 0.2336
1517.000000 0.2524 0.2712 0.2900 0.3087 0.3274
1522.000000 0.3461 0.3648 0.3834 0.4020 0.4551
1527.000000 0.4842 0.4997 0.5152 0.5307 0.5462
1532.000000 0.5617 0.5771 0.5925 0.6079 0.6233
1537.000000 0.6386 0.6540 0.6693 0.6846 0.7082
1542.000000 0.7284 0.7451 0.7551 0.7646 0.7779
1547.000000 0.7843 0.7888 0.7898 0.7911 0.7918
1552.000000 0.7919 0.7917 0.7904 0.7809 0.7539
1557.000000 0.7295 0.7052 0.6809 0.6567 0.6324
1562.000000 0.6082 0.5841 0.5599 0.5357 0.5117
1567.000000 0.4876 0.4636 0.4396 0.4157 0.3917
1572.000000 0.3679 0.3440 0.3202 0.3024 0.3030
1577.000000 0.3033 0.3212 0.3511 0.3829 0.4146
1582.000000 0.4463 0.4775 0.4863 0.4863 0.4756
1587.000000 0.4870 0.4354 0.4146 0.3937 0.3729
1592.000000 0.3521 0.3314 0.3106 0.2899 0.2692
1597.000000 0.2538 0.2503 0.2488 0.2541 0.2827
1602.000000 0.3305 0.3782 0.4259 0.5171 0.6252
1607.000000 0.6327 0.6440 0.6588 0.6736 0.6883
1612.000000 0.7031 0.7178 0.7324 0.7470 0.7617
1617.000000 0.7768 0.7844 0.7896 0.7946 0.7994
1622.000000 0.8043 0.8096 0.8159 0.8223 0.8283
1627.000000 0.8347 0.8423 0.8497 0.8548 0.8592
1632.000000 0.8632 0.8653 0.8675 0.8696 0.8711
1637.000000 0.8718 0.8725 0.8731 0.8737 0.8739
1642.000000 0.8739 0.8735 0.8768 0.8715 0.8697
1647.000000 0.8677 0.8651 0.8622 0.8589 0.8556
1652.000000 0.8529 0.8508 0.8500 0.8500 0.8500
1657.000000 0.8500 0.8478 0.8501 0.8501 0.8503
1662.000000 0.8515 0.8529 0.8551 0.8597 0.8651
1667.000000 0.8700 0.8754 0.8803 0.8841 0.8863
1672.000000 0.8884 0.8904 0.8922 0.8964 0.9017
1677.000000 0.9050 0.9075 0.9095 0.9104 0.9111
1682.000000 0.9117 0.9123 0.9130 0.9139 0.9148
1687.000000 0.9156 0.9165 0.9177 0.9190 0.9203
1692.000000 0.9216 0.9228 0.9242 0.9255 0.9267
1697.000000 0.9280 0.9293 0.9306 0.9318 0.9331
1702.000000 0.9344 0.9357 0.9369 0.9380 0.9391
1707.000000 0.9402 0.9412 0.9423 0.9434 0.9445
1712.000000 0.9455 0.9466 0.9477 0.9488 0.9498
1717.000000 0.9509 0.9520 0.9530 0.9535 0.9538
1722.000000 0.9541 0.9545 0.9547 0.9550 0.9549
1727.000000 0.9548 0.9551 0.9544 0.9543 0.9540
1732.000000 0.9534 0.9527 0.9519 0.9509 0.9497
1737.000000 0.9484 0.9471 0.9458 0.9445 0.9433
1742.000000 0.9416 0.9399 0.9382 0.9367 0.9353
1747.000000 0.9339 0.9325 0.9311 0.9297 0.9284
1752.000000 0.9271 0.9258 0.9245 0.9232 0.9219
1757.000000 0.9207 0.9198 0.9203 0.9208 0.9214
1762.000000 0.9183 0.9225 0.9230 0.9235 0.9241
1767.000000 0.9246 0.9251 0.9261 0.9271 0.9283
1772.000000 0.9294 0.9305 0.9317 0.9328 0.9336
1777.000000 0.9339 0.9342 0.9345 0.9343 0.9339
1782.000000 0.9333 0.9327 0.9322 0.9316 0.9311
1787.000000 0.9305 0.9300 0.9295 0.9289 0.9283
1792.000000 0.9277 0.9272 0.9268 0.9268 0.9276
1797.000000 0.9283 0.9290 0.9298 0.9305 0.9313
1802.000000 0.9322 0.9331 0.9340 0.9349 0.9358
1807.000000 0.9367 0.9377 0.9388 0.9400 0.9412
1812.000000 0.9424 0.9437 0.9449 0.9460 0.9468
1817.000000 0.9472 0.9476 0.9526 0.9478 0.9468
1822.000000 0.9458 0.9449 0.9439 0.9428 0.9415
1827.000000 0.9402 0.9389 0.9376 0.9361 0.9345
1832.000000 0.9329 0.9316 0.9308 0.9299 0.9291
1837.000000 0.9283 0.9274 0.9266 0.9260 0.9256
1842.000000 0.9253 0.9249 0.9245 0.9241 0.9237
1847.000000 0.9233 0.9230 0.9226 0.9220 0.9215
1852.000000 0.9210 0.9205 0.9200 0.9194 0.9188
1857.000000 0.9165 0.9143 0.9120 0.9097 0.9075
1862.000000 0.9052 0.9030 0.9011 0.8992 0.8972
1867.000000 0.8953 0.8933 0.8912 0.8890 0.8868
1872.000000 0.8857 0.8852 0.8852 0.8851 0.8876
1877.000000 0.8854 0.8856 0.8868 0.8888 0.8918
1882.000000 0.8963 0.9017 0.9078 0.9147 0.9186
1887.000000 0.9205 0.9214 0.9222 0.9228 0.9228
1892.000000 0.9225 0.9222 0.9219 0.9214 0.9209
1897.000000 0.9202 0.9196 0.9189 0.9182 0.9175
1902.000000 0.9167 0.9160 0.9153 0.9145 0.9136
1907.000000 0.9124 0.9112 0.9103 0.9097 0.9093
1912.000000 0.9092 0.9095 0.9104 0.9115 0.9126
1917.000000 0.9138 0.9151 0.9164 0.9176 0.9187
1922.000000 0.9198 0.9210 0.9221 0.9233 0.9244
1927.000000 0.9256 0.9275 0.9301 0.9342 0.9373
1932.000000 0.9394 0.9406 0.9415 0.9420 0.9424
1937.000000 0.9428 0.9432 0.9436 0.9442 0.9449
1942.000000 0.9455 0.9461 0.9467 0.9474 0.9481
1947.000000 0.9487 0.9494 0.9501 0.9508 0.9518
1952.000000 0.9527 0.9537 0.9547 0.9555 0.9560
1957.000000 0.9563 0.9566 0.9570 0.9573 0.9576
1962.000000 0.9579 0.9582 0.9585 0.9587 0.9589
1967.000000 0.9591 0.9593 0.9594 0.9595 0.9597
1972.000000 0.9599 0.9600 0.9602 0.9604 0.9605
1977.000000 0.9607 0.9609 0.9609 0.9609 0.9609
1982.000000 0.9609 0.9609 0.9609 0.9609 0.9631
1987.000000 0.9609 0.9609 0.9609 0.9609 0.9609
1992.000000 0.9609 0.9609 0.9609 0.9609 0.9610
1997.000000 0.9611 0.9611 0.9612 0.9612 0.9612
2002.000000 0.9612 0.9611 0.9610 0.9608 0.9607
2007.000000 0.9606 0.9605 0.9603 0.9602 0.9601
2012.000000 0.9600 0.9598 0.9596 0.9595 0.9594
2017.000000 0.9592 0.9591 0.9590 0.9589 0.9588
2022.000000 0.9586 0.9585 0.9583 0.9582 0.9580
2027.000000 0.9579 0.9577 0.9576 0.9574 0.9572
2032.000000 0.9571 0.9570 0.9568 0.9567 0.9565
2037.000000 0.9563 0.9562 0.9561 0.9559 0.9557
2042.000000 0.9556 0.9555 0.9553 0.9551 0.9550
2047.000000 0.9548 0.9547 0.9546 0.9544 0.9542
2052.000000 0.9541 0.9540 0.9538 0.9537 0.9535
2057.000000 0.9534 0.9533 0.9532 0.9531 0.9530
2062.000000 0.9529 0.9528 0.9527 0.9526 0.9525
2067.000000 0.9523 0.9522 0.9522 0.9521 0.9520
2072.000000 0.9519 0.9517 0.9516 0.9515 0.9515
2077.000000 0.9513 0.9512 0.9511 0.9509 0.9508
2082.000000 0.9506 0.9505 0.9503 0.9502 0.9500
2087.000000 0.9498 0.9497 0.9495 0.9493 0.9491
2092.000000 0.9490 0.9487 0.9485 0.9483 0.9481
2097.000000 0.9479 0.9477 0.9475 0.9472 0.9470
2102.000000 0.9469 0.9467 0.9464 0.9462 0.9460
2107.000000 0.9459 0.9457 0.9456 0.9455 0.9453
2112.000000 0.9452 0.9451 0.9449 0.9448 0.9446
2117.000000 0.9445 0.9444 0.9442 0.9441 0.9440
2122.000000 0.9439 0.9439 0.9439 0.9440 0.9441
2127.000000 0.9441 0.9442 0.9442 0.9442 0.9442
2132.000000 0.9443 0.9444 0.9445 0.9447 0.9448
2137.000000 0.9449 0.9450 0.9451 0.9452 0.9453
2142.000000 0.9454 0.9455 0.9456 0.9458 0.9460
2147.000000 0.9461 0.9462 0.9463 0.9464 0.9465
2152.000000 0.9466 0.9466 0.9467 0.9468 0.9469
2157.000000 0.9469 0.9471 0.9472 0.9472 0.9473
2162.000000 0.9474 0.9475 0.9476 0.9477 0.9477
2167.000000 0.9478 0.9479 0.9480 0.9480 0.9481
2172.000000 0.9482 0.9483 0.9484 0.9485 0.9486
2177.000000 0.9486 0.9487 0.9487 0.9488 0.9488
2182.000000 0.9489 0.9489 0.9490 0.9490 0.9490
2187.000000 0.9490 0.9491 0.9491 0.9492 0.9492
2192.000000 0.9492 0.9493 0.9493 0.9493 0.9493
2197.000000 0.9494 0.9494 0.9495 0.9495 0.9495
2202.000000 0.9495 0.9496 0.9496 0.9497 0.9497
2207.000000 0.9497 0.9497 0.9498 0.9498 0.9499
2212.000000 0.9499 0.9499 0.9499 0.9500 0.9500
2217.000000 0.9501 0.9501 0.9501 0.9501 0.9502
2222.000000 0.9502 0.9503 0.9503 0.9504 0.9504
2227.000000 0.9504 0.9504 0.9505 0.9505 0.9506
2232.000000 0.9506 0.9507 0.9507 0.9506 0.9506
2237.000000 0.9504 0.9503 0.9501 0.9500 0.9498
2242.000000 0.9497 0.9495 0.9493 0.9491 0.9490
2247.000000 0.9487 0.9485 0.9483 0.9480 0.9478
2252.000000 0.9475 0.9473 0.9470 0.9468 0.9465
2257.000000 0.9463 0.9460 0.9458 0.9455 0.9452
2262.000000 0.9449 0.9446 0.9443 0.9440 0.9438
2267.000000 0.9435 0.9432 0.9429 0.9426 0.9424
2272.000000 0.9421 0.9418 0.9415 0.9412 0.9410
2277.000000 0.9408 0.9406 0.9404 0.9402 0.9401
2282.000000 0.9399 0.9397 0.9395 0.9393 0.9394
2287.000000 0.9396 0.9398 0.9401 0.9403 0.9405
2292.000000 0.9408 0.9412 0.9415 0.9419 0.9423
2297.000000 0.9426 0.9430 0.9434 0.9438 0.9442
2302.000000 0.9445 0.9449 0.9453 0.9457 0.9460
2307.000000 0.9464 0.9468 0.9472 0.9476 0.9481
2312.000000 0.9485 0.9490 0.9495 0.9500 0.9505
2317.000000 0.9510 0.9515 0.9520 0.9525 0.9529
2322.000000 0.9534 0.9539 0.9543 0.9548 0.9552
2327.000000 0.9556 0.9561 0.9565 0.9570 0.9574
2332.000000 0.9578 0.9582 0.9586 0.9589 0.9593
2337.000000 0.9597 0.9600 0.9604 0.9607 0.9611
2342.000000 0.9615 0.9618 0.9620 0.9622 0.9624
2347.000000 0.9625 0.9627 0.9628 0.9629 0.9626
2352.000000 0.9624 0.9621 0.9619 0.9615 0.9612
2357.000000 0.9605 0.9597 0.9588 0.9580 0.9572
2362.000000 0.9562 0.9552 0.9542 0.9531 0.9520
2367.000000 0.9509 0.9498 0.9487 0.9474 0.9458
2372.000000 0.9441 0.9426 0.9411 0.9397 0.9383
2377.000000 0.9370 0.9357 0.9344 0.9333 0.9322
2382.000000 0.9315 0.9308 0.9303 0.9298 0.9293
2387.000000 0.9288 0.9282 0.9278 0.9273 0.9266
2392.000000 0.9259 0.9256 0.9255 0.9255 0.9255
2397.000000 0.9256 0.9256 0.9256 0.9256 0.9256
2402.000000 0.9257 0.9257 0.9258 0.9258 0.9258
2407.000000 0.9259 0.9259 0.9260 0.9260 0.9260
2412.000000 0.9260 0.9260 0.9261 0.9261 0.9262
2417.000000 0.9262 0.9262 0.9262 0.9262 0.9263
2422.000000 0.9263 0.9264 0.9264 0.9265 0.9265
2427.000000 0.9265 0.9265 0.9265 0.9266 0.9266
2432.000000 0.9265 0.9265 0.9265 0.9265 0.9265
2437.000000 0.9265 0.9265 0.9265 0.9264 0.9264
2442.000000 0.9264 0.9264 0.9264 0.9264 0.9264
2447.000000 0.9263 0.9263 0.9263 0.9263 0.9262
2452.000000 0.9262 0.9262 0.9261 0.9259 0.9258
2457.000000 0.9257 0.9256 0.9255 0.9253 0.9252
2462.000000 0.9251 0.9250 0.9248 0.9247 0.9246
2467.000000 0.9245 0.9243 0.9242 0.9240 0.9239
2472.000000 0.9237 0.9236 0.9235 0.9234 0.9231
2477.000000 0.9227 0.9223 0.9220 0.9216 0.9212
2482.000000 0.9207 0.9202 0.9196 0.9190 0.9184
2487.000000 0.9177 0.9171 0.9165 0.9159 0.9153
2492.000000 0.9147 0.9142 0.9136 0.9131 0.9124
2497.000000 0.9117 0.9110 0.9102 0.9095 0.9087
2502.000000 0.9079 0.9072 0.9064 0.9057 0.9050
2507.000000 0.9044 0.9038 0.9032 0.9027 0.9022
2512.000000 0.9016 0.9011 0.9006 0.9000 0.8995
2517.000000 0.8990 0.8985 0.8980 0.8975 0.8971
2522.000000 0.8967 0.8963 0.8959 0.8955 0.8952
2527.000000 0.8948 0.8945 0.8941 0.8937 0.8933
2532.000000 0.8929 0.8925 0.8923 0.8920 0.8917
2537.000000 0.8914 0.8912 0.8909 0.8907 0.8905
2542.000000 0.8902 0.8899 0.8896 0.8894 0.8891
2547.000000 0.8889 0.8886 0.8884 0.8881 0.8879
2552.000000 0.8877 0.8875 0.8873 0.8871 0.8869
2557.000000 0.8867 0.8865 0.8863 0.8861 0.8859
2562.000000 0.8857 0.8855 0.8853 0.8851 0.8849
2567.000000 0.8847 0.8845 0.8843 0.8841 0.8839
2572.000000 0.8838 0.8836 0.8834 0.8832 0.8830
2577.000000 0.8828 0.8826 0.8824 0.8822 0.8821
2582.000000 0.8819 0.8817 0.8815 0.8813 0.8811
2587.000000 0.8809 0.8807 0.8806 0.8805 0.8803
2592.000000 0.8802 0.8800 0.8799 0.8798 0.8797
2597.000000 0.8795 0.8794 0.8793 0.8793 0.8793
2602.000000 0.8796 0.8800 0.8804 0.8808 0.8812
2607.000000 0.8816 0.8819 0.8823 0.8826 0.8829
2612.000000 0.8832 0.8834 0.8837 0.8840 0.8843
2617.000000 0.8846 0.8849 0.8852 0.8855 0.8858
2622.000000 0.8860 0.8863 0.8865 0.8866 0.8867
2627.000000 0.8869 0.8870 0.8872 0.8872 0.8873
2632.000000 0.8873 0.8872 0.8872 0.8871 0.8870
2637.000000 0.8870 0.8869 0.8868 0.8867 0.8867
2642.000000 0.8866 0.8865 0.8865 0.8864 0.8863
2647.000000 0.8862 0.8862 0.8861 0.8860 0.8859
2652.000000 0.8858 0.8857 0.8856 0.8855 0.8854
2657.000000 0.8852 0.8851 0.8849 0.8848 0.8846
2662.000000 0.8845 0.8844 0.8842 0.8841 0.8839
2667.000000 0.8838 0.8837 0.8835 0.8833 0.8831
2672.000000 0.8830 0.8829 0.8827 0.8824 0.8821
2677.000000 0.8819 0.8816 0.8814 0.8810 0.8805
2682.000000 0.8800 0.8794 0.8788 0.8782 0.8776
2687.000000 0.8769 0.8763 0.8755 0.8748 0.8741
2692.000000 0.8734 0.8726 0.8719 0.8712 0.8705
2697.000000 0.8697 0.8690 0.8682 0.8674 0.8666
2702.000000 0.8658 0.8650 0.8643 0.8635 0.8628
2707.000000 0.8621 0.8614 0.8607 0.8600 0.8593
2712.000000 0.8586 0.8578 0.8570 0.8563 0.8557
2717.000000 0.8551 0.8546 0.8541 0.8536 0.8532
2722.000000 0.8528 0.8525 0.8521 0.8517 0.8513
2727.000000 0.8509 0.8505 0.8501 0.8498 0.8493
2732.000000 0.8489 0.8487 0.8484 0.8482 0.8480
2737.000000 0.8478 0.8476 0.8474 0.8471 0.8469
2742.000000 0.8467 0.8466 0.8464 0.8463 0.8462
2747.000000 0.8461 0.8460 0.8458 0.8457 0.8456
2752.000000 0.8454 0.8453 0.8451 0.8450 0.8448
2757.000000 0.8445 0.8442 0.8439 0.8434 0.8429
2762.000000 0.8424 0.8417 0.8409 0.8400 0.8390
2767.000000 0.8378 0.8365 0.8352 0.8339 0.8326
2772.000000 0.8312 0.8299 0.8285 0.8271 0.8257
2777.000000 0.8243 0.8229 0.8215 0.8200 0.8186
2782.000000 0.8171 0.8156 0.8141 0.8124 0.8107
2787.000000 0.8091 0.8065 0.8039 0.8013 0.7981
2792.000000 0.7947 0.7913 0.7876 0.7837 0.7798
2797.000000 0.7770 0.7750 0.7730 0.7710 0.7690
2802.000000 0.7670 0.7649 0.7628 0.7607 0.7586
2807.000000 0.7565 0.7544 0.7522 0.7499 0.7477
2812.000000 0.7454 0.7428 0.7401 0.7374 0.7347
2817.000000 0.7320 0.7293 0.7266 0.7239 0.7212
2822.000000 0.7095 0.6792 0.6489 0.6213 0.6106
2827.000000 0.5998 0.5890 0.5783 0.5675 0.5568
2832.000000 0.5461 0.5354 0.5247 0.5141 0.5034
2837.000000 0.4927 0.4820 0.4714 0.4607 0.4501
2842.000000 0.4394 0.4288 0.4181 0.4076 0.3970
2847.000000 0.3864 0.3758 0.3652 0.3546 0.3440
2852.000000 0.3334 0.3229 0.3123 0.3021 0.2918
2857.000000 0.2815 0.2801 0.2801 0.2801 0.2802
2862.000000 0.2804 0.2806 0.2811 0.2822 0.2833
2867.000000 0.2844 0.2855 0.2866 0.2878 0.2889
2872.000000 0.2900 0.2911 0.2919 0.2924 0.2928
2877.000000 0.2932 0.2932 0.2932 0.2932 0.2932
2882.000000 0.2932 0.2932 0.2920 0.2897 0.2873
2887.000000 0.2849 0.2822 0.2794 0.2767 0.2740
2892.000000 0.2712 0.2685 0.2657 0.2630 0.2602
2897.000000 0.2575 0.2548 0.2520 0.2493 0.2466
2902.000000 0.2438 0.2411 0.2384 0.2357 0.2330
2907.000000 0.2303 0.2276 0.2248 0.2221 0.2193
2912.000000 0.2165 0.2137 0.2113 0.2103 0.2093
2917.000000 0.2083 0.2075 0.2066 0.2058 0.2050
2922.000000 0.2042 0.2034 0.2026 0.2012 0.1999
2927.000000 0.1985 0.1954 0.1912 0.1870 0.1828
2932.000000 0.1787 0.1745 0.1703 0.1661 0.1619
2937.000000 0.1578 0.1536 0.1494 0.1453 0.1411
2942.000000 0.1379 0.1349 0.1319 0.1299 0.1298
2947.000000 0.1297 0.1297 0.1296 0.1295 0.1295
2952.000000 0.1276 0.1294 0.1294 0.1294 0.1367
2957.000000 0.1447 0.1527 0.1629 0.1762 0.1895
2962.000000 0.2028 0.2161 0.2293 0.2426 0.2559
2967.000000 0.2691 0.2824 0.2956 0.3089 0.3221
2972.000000 0.3353 0.3484 0.3616 0.3748 0.3879
2977.000000 0.4011 0.4142 0.4274 0.4405 0.4536
2982.000000 0.4667 0.4798 0.4929 0.5060 0.5190
2987.000000 0.5321 0.5451 0.5582 0.5712 0.5809
2992.000000 0.5881 0.5952 0.6024 0.6027 0.6030
2997.000000 0.6033 0.6035 0.6037 0.6038 0.6040
3002.000000 0.6041 0.6042 0.6044 0.6045 0.6046
3007.000000 0.6047 0.6048 0.6049 0.6050 0.6051
3012.000000 0.6052 0.6043 0.6033 0.6023 0.6013
3017.000000 0.6003 0.5993 0.5983 0.5973 0.5963
3022.000000 0.5952 0.5942 0.5932 0.5922 0.5912
3027.000000 0.5902 0.5892 0.5882 0.5872 0.5861
3032.000000 0.5851 0.5841 0.5831 0.5825 0.5818
3037.000000 0.5811 0.5807 0.5808 0.5808 0.5809
3042.000000 0.5810 0.5812 0.5813 0.5814 0.5860
3047.000000 0.5908 0.5957 0.6005 0.6053 0.6101
3052.000000 0.6149 0.6197 0.6246 0.6294 0.6342
3057.000000 0.6390 0.6438 0.6487 0.6535 0.6582
3062.000000 0.6630 0.6678 0.6726 0.6774 0.6821
3067.000000 0.6869 0.6917 0.6965 0.7013 0.7060
3072.000000 0.7108 0.7155 0.7203 0.7250 0.7298
3077.000000 0.7345 0.7393 0.7440 0.7488 0.7535
3082.000000 0.7582 0.7630 0.7677 0.7724 0.7771
3087.000000 0.7818 0.7865 0.7912 0.7959 0.8007
3092.000000 0.8054 0.8101 0.8148 0.8185 0.8221
3097.000000 0.8257 0.8290 0.8300 0.8309 0.8319
3102.000000 0.8327 0.8332 0.8338 0.8343 0.8348
3107.000000 0.8352 0.8356 0.8361 0.8365 0.8369
3112.000000 0.8373 0.8377 0.8380 0.8381 0.8383
3117.000000 0.8384 0.8386 0.8387 0.8388 0.8389
3122.000000 0.8391 0.8392 0.8394 0.8396 0.8397
3127.000000 0.8399 0.8401 0.8403 0.8404 0.8406
3132.000000 0.8408 0.8410 0.8412 0.8413 0.8415
3137.000000 0.8417 0.8419 0.8422 0.8424 0.8427
3142.000000 0.8433 0.8438 0.8444 0.8450 0.8456
3147.000000 0.8463 0.8469 0.8477 0.8486 0.8495
3152.000000 0.8504 0.8513 0.8522 0.8531 0.8540
3157.000000 0.8550 0.8560 0.8571 0.8581 0.8589
3162.000000 0.8595 0.8601 0.8607 0.8612 0.8617
3167.000000 0.8621 0.8625 0.8629 0.8632 0.8635
3172.000000 0.8638 0.8640 0.8642 0.8643 0.8645
3177.000000 0.8646 0.8647 0.8648 0.8650 0.8651
3182.000000 0.8652 0.8654 0.8655 0.8657 0.8658
3187.000000 0.8659 0.8661 0.8662 0.8662 0.8663
3192.000000 0.8664 0.8665 0.8665 0.8666 0.8667
3197.000000 0.8668 0.8668 0.8669 0.8670 0.8670
3202.000000 0.8671 0.8671 0.8672 0.8672 0.8673
3207.000000 0.8673 0.8673 0.8673 0.8674 0.8674
3212.000000 0.8674 0.8674 0.8674 0.8674 0.8674
3217.000000 0.8674 0.8703 0.8674 0.8674 0.8674
3222.000000 0.8674 0.8674 0.8674 0.8674 0.8673
3227.000000 0.8673 0.8672 0.8672 0.8671 0.8671
3232.000000 0.8671 0.8670 0.8670 0.8669 0.8669
3237.000000 0.8668 0.8668 0.8667 0.8666 0.8666
3242.000000 0.8665 0.8664 0.8664 0.8663 0.8663
3247.000000 0.8662 0.8662 0.8661 0.8661 0.8660
3252.000000 0.8660 0.8659 0.8658 0.8658 0.8657
3257.000000 0.8656 0.8656 0.8655 0.8654 0.8653
3262.000000 0.8652 0.8651 0.8650 0.8649 0.8648
3267.000000 0.8647 0.8646 0.8645 0.8644 0.8643
3272.000000 0.8642 0.8641 0.8639 0.8638 0.8637
3277.000000 0.8636 0.8634 0.8632 0.8631 0.8629
3282.000000 0.8628 0.8626 0.8624 0.8623 0.8621
3287.000000 0.8620 0.8618 0.8616 0.8615 0.8613
3292.000000 0.8611 0.8610 0.8608 0.8606 0.8604
3297.000000 0.8603 0.8601 0.8599 0.8596 0.8594
3302.000000 0.8592 0.8589 0.8587 0.8585 0.8583
3307.000000 0.8580 0.8578 0.8576 0.8573 0.8571
3312.000000 0.8569 0.8567 0.8564 0.8562 0.8560
3317.000000 0.8557 0.8555 0.8552 0.8550 0.8546
3322.000000 0.8543 0.8540 0.8537 0.8534 0.8531
3327.000000 0.8528 0.8525 0.8522 0.8519 0.8516
3332.000000 0.8513 0.8510 0.8507 0.8504 0.8501
3337.000000 0.8499 0.8496 0.8493 0.8491 0.8488
3342.000000 0.8485 0.8482 0.8480 0.8477 0.8474
3347.000000 0.8472 0.8469 0.8466 0.8464 0.8461
3352.000000 0.8458 0.8456 0.8453 0.8450 0.8448
3357.000000 0.8445 0.8442 0.8439 0.8436 0.8433
3362.000000 0.8431 0.8428 0.8425 0.8421 0.8410
3367.000000 0.8400 0.8389 0.8378 0.8351 0.8317
3372.000000 0.8283 0.8249 0.8215 0.8182 0.8148
3377.000000 0.8115 0.8081 0.8048 0.8014 0.7981
3382.000000 0.7947 0.7914 0.7880 0.7847 0.7814
3387.000000 0.7780 0.7747 0.7713 0.7680 0.7646
3392.000000 0.7613 0.7580 0.7546 0.7513 0.7480
3397.000000 0.7447 0.7414 0.7381 0.7348 0.7314
3402.000000 0.7281 0.7248 0.7215 0.7182 0.7149
3407.000000 0.7116 0.7083 0.7051 0.7018 0.6985
3412.000000 0.6952 0.6919 0.6885 0.6852 0.6820
3417.000000 0.6787 0.6754 0.6721 0.6689 0.6656
3422.000000 0.6623 0.6591 0.6558 0.6525 0.6493
3427.000000 0.6460 0.6428 0.6395 0.6363 0.6330
3432.000000 0.6298 0.6265 0.6233 0.6200 0.6167
3437.000000 0.6135 0.6102 0.6072 0.6049 0.6026
3442.000000 0.6003 0.5980 0.5968 0.5968 0.5968
3447.000000 0.5968 0.5968 0.5968 0.5969 0.5970
3452.000000 0.5971 0.5971 0.6046 0.6123 0.6200
3457.000000 0.6278 0.5968 0.6433 0.6512 0.6590
3462.000000 0.6668 0.6746 0.6825 0.6903 0.6981
3467.000000 0.7059 0.7137 0.7215 0.7292 0.7370
3472.000000 0.7448 0.7526 0.7604 0.7681 0.7759
3477.000000 0.7837 0.7921 0.8005 0.8090 0.8175
3482.000000 0.8252 0.8268 0.8285 0.8301 0.8317
3487.000000 0.8332 0.8341 0.8351 0.8360 0.8370
3492.000000 0.8379 0.8387 0.8395 0.8403 0.8411
3497.000000 0.8419 0.8425 0.8431 0.8437 0.8443
3502.000000 0.8448 0.8453 0.8458 0.8463 0.8468
3507.000000 0.8473 0.8478 0.8483 0.8488 0.8493
3512.000000 0.8498 0.8503 0.8508 0.8513 0.8518
3517.000000 0.8521 0.8525 0.8528 0.8532 0.8535
3522.000000 0.8538 0.8541 0.8544 0.8546 0.8549
3527.000000 0.8552 0.8554 0.8557 0.8560 0.8562
3532.000000 0.8565 0.8568 0.8570 0.8573 0.8575
3537.000000 0.8578 0.8581 0.8583 0.8586 0.8588
3542.000000 0.8590 0.8592 0.8594 0.8596 0.8597
3547.000000 0.8599 0.8600 0.8602 0.8603 0.8604
3552.000000 0.8606 0.8607 0.8608 0.8609 0.8610
3557.000000 0.8611 0.8613 0.8614 0.8615 0.8616
3562.000000 0.8618 0.8619 0.8620 0.8622 0.8623
3567.000000 0.8624 0.8624 0.8625 0.8625 0.8625
3572.000000 0.8626 0.8626 0.8627 0.8627 0.8627
3577.000000 0.8628 0.8628 0.8628 0.8629 0.8629
3582.000000 0.8630 0.8630 0.8630 0.8630 0.8630
3587.000000 0.8629 0.8629 0.8628 0.8627 0.8626
3592.000000 0.8625 0.8625 0.8624 0.8623 0.8622
3597.000000 0.8622 0.8621 0.8620 0.8619 0.8619
3602.000000 0.8618 0.8617 0.8616 0.8614 0.8613
3607.000000 0.8612 0.8611 0.8609 0.8608 0.8606
3612.000000 0.8605 0.8603 0.8602 0.8600 0.8599
3617.000000 0.8598 0.8596 0.8595 0.8594 0.8593
3622.000000 0.8592 0.8591 0.8590 0.8590 0.8589
3627.000000 0.8589 0.8589 0.8588 0.8588 0.8588
3632.000000 0.8587 0.8587 0.8586 0.8586 0.8586
3637.000000 0.8585 0.8585 0.8585 0.8586 0.8587
3642.000000 0.8588 0.8589 0.8590 0.8592 0.8593
3647.000000 0.8595 0.8597 0.8598 0.8600 0.8602
3652.000000 0.8604 0.8606 0.8608 0.8610 0.8611
3657.000000 0.8613 0.8615 0.8617 0.8619 0.8639
3662.000000 0.8623 0.8625 0.8627 0.8629 0.8631
3667.000000 0.8633 0.8635 0.8637 0.8639 0.8640
3672.000000 0.8642 0.8643 0.8644 0.8645 0.8646
3677.000000 0.8647 0.8648 0.8650 0.8651 0.8652
3682.000000 0.8654 0.8654 0.8655 0.8656 0.8657
3687.000000 0.8657 0.8657 0.8657 0.8657 0.8657
3692.000000 0.8657 0.8656 0.8655 0.8653 0.8652
3697.000000 0.8650 0.8649 0.8648 0.8646 0.8645
3702.000000 0.8644 0.8642 0.8641 0.8639 0.8637
3707.000000 0.8636 0.8634 0.8632 0.8630 0.8627
3712.000000 0.8625 0.8623 0.8620 0.8618 0.8615
3717.000000 0.8613 0.8610 0.8608 0.8605 0.8603
3722.000000 0.8600 0.8598 0.8595 0.8592 0.8590
3727.000000 0.8588 0.8585 0.8583 0.8581 0.8578
3732.000000 0.8576 0.8573 0.8571 0.8568 0.8566
3737.000000 0.8563 0.8561 0.8559 0.8556 0.8554
3742.000000 0.8552 0.8549 0.8547 0.8544 0.8542
3747.000000 0.8539 0.8537 0.8535 0.8534 0.8532
3752.000000 0.8530 0.8529 0.8527 0.8526 0.8525
3757.000000 0.8523 0.8522 0.8521 0.8520 0.8518
3762.000000 0.8517 0.8515 0.8514 0.8513 0.8511
3767.000000 0.8510 0.8508 0.8507 0.8506 0.8504
3772.000000 0.8503 0.8501 0.8500 0.8499 0.8497
3777.000000 0.8496 0.8494 0.8493 0.8492 0.8490
3782.000000 0.8489 0.8487 0.8486 0.8484 0.8482
3787.000000 0.8481 0.8479 0.8478 0.8477 0.8475
3792.000000 0.8474 0.8472 0.8471 0.8469 0.8468
3797.000000 0.8466 0.8465 0.8463 0.8462 0.8460
3802.000000 0.8458 0.8457 0.8455 0.8454 0.8452
3807.000000 0.8450 0.8449 0.8447 0.8445 0.8443
3812.000000 0.8442 0.8440 0.8438 0.8437 0.8435
3817.000000 0.8433 0.8432 0.8430 0.8429 0.8427
3822.000000 0.8425 0.8424 0.8423 0.8421 0.8420
3827.000000 0.8419 0.8417 0.8416 0.8414 0.8413
3832.000000 0.8412 0.8410 0.8409 0.8408 0.8406
3837.000000 0.8405 0.8404 0.8402 0.8401 0.8399
3842.000000 0.8398 0.8397 0.8395 0.8394 0.8393
3847.000000 0.8392 0.8390 0.8389 0.8388 0.8387
3852.000000 0.8386 0.8384 0.8383 0.8382 0.8380
3857.000000 0.8379 0.8378 0.8376 0.8375 0.8374
3862.000000 0.8372 0.8371 0.8369 0.8368 0.8367
3867.000000 0.8365 0.8364 0.8363 0.8361 0.8360
3872.000000 0.8359 0.8358 0.8357 0.8356 0.8354
3877.000000 0.8353 0.8352 0.8350 0.8349 0.8348
3882.000000 0.8346 0.8345 0.8344 0.8343 0.8341
3887.000000 0.8340 0.8339 0.8337 0.8336 0.8335
3892.000000 0.8333 0.8332 0.8331 0.8329 0.8328
3897.000000 0.8327 0.8325 0.8324 0.8323 0.8322
3902.000000 0.8320 0.8319 0.8318 0.8317 0.8316
3907.000000 0.8315 0.8313 0.8312 0.8311 0.8309
3912.000000 0.8308 0.8307 0.8305 0.8304 0.8303
3917.000000 0.8301 0.8300 0.8299 0.8298 0.8296
3922.000000 0.8295 0.8294 0.8292 0.8291 0.8290
3927.000000 0.8288 0.8287 0.8286 0.8285 0.8283
3932.000000 0.8282 0.8281 0.8279 0.8278 0.8277
3937.000000 0.8276 0.8274 0.8273 0.8272 0.8270
3942.000000 0.8269 0.8268 0.8266 0.8265 0.8263
3947.000000 0.8262 0.8261 0.8259 0.8258 0.8257
3952.000000 0.8255 0.8254 0.8253 0.8251 0.8250
3957.000000 0.8249 0.8248 0.8246 0.8245 0.8244
3962.000000 0.8242 0.8241 0.8240 0.8239 0.8237
3967.000000 0.8236 0.8235 0.8234 0.8232 0.8231
3972.000000 0.8230 0.8228 0.8227 0.8226 0.8225
3977.000000 0.8223 0.8222 0.8221 0.8220 0.8218
3982.000000 0.8217 0.8216 0.8215 0.8213 0.8212
3987.000000 0.8211 0.8210 0.8208 0.8207 0.8206
3992.000000 0.8205 0.8203 0.8202 0.8201 0.8200
3997.000000 0.8199 0.8198 0.8197 0.8196
##END=
