##TITLE=Cyclohexanemalonic acid, 4,4-dimethyl-Alpha-hydroxy-2-(1-hydroxyethyl)-,Gamma,Delta-dilactone
##JCAMP-DX=4.24
##DATA TYPE=INFRARED SPECTRUM
##CLASS=COBLENTZ
##ORIGIN=ABBOTT LABORATORIES
##OWNER=Copyright (C) 1987 by the Coblentz Society
Collection (C) 2018 copyright by the U.S. Secretary of Commerce
on behalf of the United States of America. All rights reserved.
##DATE=1962/08/16
##MOLFORM=C13 H18 O4
##MP=190-191 C
##SOURCE REFERENCE=COBLENTZ NO. 5267
##$NIST ID=B6005267
##$NIST SOURCE=COBLENTZ
##$NIST IMAGE=cob5267
##SPECTROMETER/DATA SYSTEM=PERKIN-ELMER 21 (GRATING)
$$ INACTIVE (CHCl3) AROUND 650-800 AND 1200-1250 CM^-^1
##INSTRUMENT PARAMETERS=FILTER AT ABOUT 10 MICRONS
##STATE=SOLUTION 7% (CHCl3 FOR 2.5-12.5 microns)
##PATH LENGTH=0.01 CM
##RESOLUTION=2
##XUNITS=1/CM
##YUNITS=TRANSMITTANCE
##XFACTOR=1.0
##YFACTOR=1
##FIRSTX=797
##LASTX=4000
##FIRSTY=0.9707
##MAXX=4000
##MINX=797
##MAXY=0.968
##MINY=0.0102
##NPOINTS=3204
##XYDATA=(X++(Y..Y))
797.000000 0.9707 0.9676 0.9680 0.9621 0.9593
802.000000 0.9565 0.9541 0.9519 0.9496 0.9469
807.000000 0.9432 0.9376 0.9321 0.9266 0.9211
812.000000 0.9155 0.9096 0.9014 0.8932 0.8835
817.000000 0.8730 0.8628 0.8529 0.8430 0.8331
822.000000 0.8203 0.8072 0.7940 0.7776 0.7602
827.000000 0.7426 0.7270 0.7217 0.7240 0.7325
832.000000 0.7665 0.7944 0.8182 0.8202 0.8221
837.000000 0.8280 0.8379 0.8403 0.8408 0.8352
842.000000 0.8082 0.7745 0.7409 0.7073 0.6738
847.000000 0.6422 0.6340 0.6357 0.6639 0.7150
852.000000 0.7660 0.8168 0.8670 0.8865 0.8925
857.000000 0.8938 0.8934 0.8909 0.8870 0.8825
862.000000 0.8772 0.8738 0.8702 0.8583 0.8335
867.000000 0.8087 0.7840 0.7594 0.7379 0.7350
872.000000 0.7378 0.7628 0.7917 0.8206 0.8494
877.000000 0.8829 0.8935 0.8966 0.8982 0.8988
882.000000 0.8975 0.8983 0.8973 0.8963 0.8953
887.000000 0.8927 0.8893 0.8835 0.8744 0.8591
892.000000 0.8307 0.8024 0.7741 0.7459 0.7346
897.000000 0.7344 0.7674 0.8104 0.8534 0.8839
902.000000 0.8885 0.8907 0.8907 0.8879 0.8874
907.000000 0.8839 0.8787 0.8729 0.8653 0.8569
912.000000 0.8445 0.8285 0.7991 0.7586 0.7183
917.000000 0.6777 0.6582 0.6495 0.6463 0.6549
922.000000 0.6859 0.7168 0.7293 0.7256 0.7197
927.000000 0.7064 0.6536 0.5859 0.5183 0.4509
932.000000 0.3836 0.3164 0.2696 0.2538 0.2470
937.000000 0.2457 0.2466 0.3287 0.3952 0.4616
942.000000 0.5277 0.5939 0.6162 0.6168 0.5818
947.000000 0.5367 0.4918 0.4469 0.4081 0.4075
952.000000 0.4887 0.5563 0.6238 0.6911 0.7583
957.000000 0.8127 0.8279 0.8380 0.8439 0.8490
962.000000 0.8508 0.8498 0.8492 0.8456 0.8420
967.000000 0.8356 0.8189 0.8019 0.7850 0.7680
972.000000 0.7512 0.7343 0.7176 0.7034 0.7006
977.000000 0.7057 0.7294 0.7551 0.7664 0.7660
982.000000 0.7310 0.6981 0.6654 0.6326 0.6000
987.000000 0.5673 0.5349 0.5024 0.4700 0.4521
992.000000 0.4530 0.4895 0.5293 0.5691 0.6087
997.000000 0.6291 0.6276 0.6249 0.6211 0.6187
1002.000000 0.6191 0.6732 0.7318 0.7903 0.8421
1007.000000 0.8474 0.8495 0.8507 0.8461 0.8394
1012.000000 0.8313 0.8238 0.8182 0.8204 0.8303
1017.000000 0.8454 0.8605 0.8756 0.8900 0.8966
1022.000000 0.8986 0.8993 0.8995 0.8996 0.8997
1027.000000 0.9004 0.8998 0.8997 0.8993 0.8989
1032.000000 0.8986 0.8983 0.8970 0.8950 0.8930
1037.000000 0.8897 0.8869 0.8850 0.8830 0.8810
1042.000000 0.8791 0.8769 0.8733 0.8697 0.8660
1047.000000 0.8613 0.8542 0.8471 0.8391 0.8300
1052.000000 0.8170 0.8007 0.7817 0.7683 0.7596
1057.000000 0.7586 0.7595 0.7652 0.7756 0.7849
1062.000000 0.7925 0.7965 0.8122 0.8318 0.8443
1067.000000 0.8439 0.7609 0.7065 0.6522 0.6037
1072.000000 0.5330 0.4170 0.4032 0.4059 0.4220
1077.000000 0.4851 0.5482 0.6113 0.6742 0.7208
1082.000000 0.7213 0.7214 0.7120 0.6552 0.5937
1087.000000 0.5323 0.4710 0.4098 0.3802 0.3795
1092.000000 0.3963 0.4524 0.5089 0.5651 0.6213
1097.000000 0.6774 0.7261 0.7306 0.7315 0.7316
1102.000000 0.7296 0.7255 0.7190 0.7099 0.6977
1107.000000 0.6786 0.6442 0.6069 0.5698 0.5327
1112.000000 0.4956 0.4588 0.4261 0.3627 0.2856
1117.000000 0.2086 0.1319 0.0955 0.0781 0.0666
1122.000000 0.0654 0.0657 0.0918 0.1363 0.1807
1127.000000 0.2250 0.2692 0.3133 0.3574 0.4014
1132.000000 0.4453 0.4892 0.5330 0.5767 0.6147
1137.000000 0.6188 0.6200 0.6191 0.6193 0.6165
1142.000000 0.6114 0.6038 0.5928 0.5765 0.5521
1147.000000 0.4987 0.4440 0.3893 0.3348 0.2804
1152.000000 0.2262 0.1719 0.1258 0.1196 0.1205
1157.000000 0.1228 0.1484 0.1883 0.2280 0.2677
1162.000000 0.3073 0.3469 0.3865 0.4259 0.4653
1167.000000 0.5046 0.5252 0.5256 0.5215 0.5014
1172.000000 0.4770 0.4526 0.4283 0.4074 0.4049
1177.000000 0.4056 0.4300 0.4572 0.4843 0.5098
1182.000000 0.5113 0.5086 0.4900 0.4662 0.4424
1187.000000 0.4187 0.3950 0.3713 0.3477 0.3241
1192.000000 0.3216 0.3211 0.3209 0.3209 0.3208
1197.000000 0.3210 0.3212 0.3212 0.3211 0.3211
1202.000000 0.3210 0.3209 0.3207 0.3205 0.3203
1207.000000 0.3201 0.3197 0.3193 0.3190 0.3186
1212.000000 0.3182 0.3178 0.3172 0.3167 0.3162
1217.000000 0.3157 0.3152 0.3148 0.3143 0.3137
1222.000000 0.3127 0.3118 0.3108 0.3099 0.3089
1227.000000 0.3084 0.3087 0.3091 0.3106 0.3127
1232.000000 0.3164 0.3219 0.3281 0.3357 0.3449
1237.000000 0.3526 0.3548 0.3529 0.3542 0.3520
1242.000000 0.3478 0.3424 0.3362 0.3251 0.3127
1247.000000 0.3003 0.2880 0.2779 0.2770 0.2783
1252.000000 0.2879 0.3086 0.3294 0.3500 0.3707
1257.000000 0.3886 0.3884 0.3880 0.3875 0.3825
1262.000000 0.3601 0.3336 0.3072 0.2809 0.2546
1267.000000 0.2283 0.2021 0.1760 0.1674 0.1672
1272.000000 0.1821 0.1940 0.2059 0.2088 0.2066
1277.000000 0.2025 0.1938 0.1851 0.1764 0.1738
1282.000000 0.1740 0.1758 0.1776 0.1827 0.1932
1287.000000 0.2088 0.2307 0.2515 0.2877 0.3240
1292.000000 0.3601 0.3962 0.4322 0.4682 0.5041
1297.000000 0.5365 0.5431 0.5453 0.5393 0.5262
1302.000000 0.5130 0.4997 0.4887 0.4896 0.5003
1307.000000 0.5294 0.5593 0.5892 0.6191 0.6487
1312.000000 0.6666 0.6679 0.6670 0.6598 0.6363
1317.000000 0.6116 0.5869 0.5622 0.5462 0.5457
1322.000000 0.5500 0.5579 0.5647 0.5623 0.5361
1327.000000 0.5065 0.4769 0.4474 0.4223 0.4179
1332.000000 0.4197 0.4611 0.5072 0.5533 0.5994
1337.000000 0.6453 0.6857 0.6958 0.6954 0.6896
1342.000000 0.6709 0.6493 0.6278 0.6063 0.5849
1347.000000 0.5637 0.5584 0.5583 0.5802 0.6147
1352.000000 0.6491 0.6798 0.6868 0.6899 0.6798
1357.000000 0.6719 0.6647 0.6583 0.6525 0.6270
1362.000000 0.5846 0.5422 0.4999 0.4576 0.4366
1367.000000 0.4321 0.4239 0.4114 0.3990 0.3866
1372.000000 0.3741 0.3668 0.3666 0.3852 0.3656
1377.000000 0.4996 0.5542 0.5622 0.5536 0.5451
1382.000000 0.5365 0.5297 0.5289 0.6009 0.7017
1387.000000 0.7911 0.8241 0.8344 0.8442 0.8529
1392.000000 0.8608 0.8651 0.8692 0.8733 0.8763
1397.000000 0.8790 0.8817 0.8843 0.8865 0.8878
1402.000000 0.8892 0.8905 0.8918 0.8925 0.8927
1407.000000 0.8922 0.8920 0.8918 0.8915 0.8900
1412.000000 0.8886 0.8869 0.8831 0.8786 0.8738
1417.000000 0.8689 0.8639 0.8554 0.8457 0.8379
1422.000000 0.8308 0.8237 0.8170 0.8103 0.8037
1427.000000 0.7988 0.7947 0.7919 0.7891 0.7855
1432.000000 0.7783 0.7535 0.7169 0.6804 0.6439
1437.000000 0.6075 0.5711 0.5443 0.5386 0.5379
1442.000000 0.5380 0.5446 0.5625 0.5821 0.6018
1447.000000 0.6214 0.6409 0.6605 0.6812 0.6964
1452.000000 0.7055 0.7173 0.7398 0.7565 0.7675
1457.000000 0.7760 0.7843 0.7930 0.8027 0.8128
1462.000000 0.8228 0.8290 0.8350 0.8407 0.8453
1467.000000 0.8491 0.8531 0.8569 0.8607 0.8644
1472.000000 0.8685 0.8733 0.8784 0.8841 0.8902
1477.000000 0.8953 0.8977 0.8995 0.9013 0.9031
1482.000000 0.9047 0.9060 0.9073 0.9085 0.9097
1487.000000 0.9113 0.9138 0.9164 0.9191 0.9220
1492.000000 0.9262 0.9304 0.9346 0.9396 0.9448
1497.000000 0.9501 0.9536 0.9538 0.9540 0.9542
1502.000000 0.9545 0.9547 0.9550 0.9552 0.9555
1507.000000 0.9558 0.9560 0.9562 0.9559 0.9565
1512.000000 0.9567 0.9568 0.9569 0.9570 0.9567
1517.000000 0.9564 0.9561 0.9559 0.9556 0.9551
1522.000000 0.9543 0.9534 0.9526 0.9517 0.9503
1527.000000 0.9485 0.9468 0.9456 0.9446 0.9444
1532.000000 0.9441 0.9439 0.9437 0.9434 0.9432
1537.000000 0.9429 0.9427 0.9425 0.9424 0.9422
1542.000000 0.9421 0.9419 0.9418 0.9416 0.9414
1547.000000 0.9413 0.9410 0.9409 0.9407 0.9406
1552.000000 0.9404 0.9403 0.9401 0.9401 0.9400
1557.000000 0.9400 0.9400 0.9399 0.9399 0.9398
1562.000000 0.9398 0.9398 0.9397 0.9397 0.9396
1567.000000 0.9395 0.9393 0.9391 0.9389 0.9387
1572.000000 0.9385 0.9383 0.9381 0.9379 0.9376
1577.000000 0.9374 0.9371 0.9359 0.9343 0.9324
1582.000000 0.9306 0.9287 0.9268 0.9249 0.9230
1587.000000 0.9216 0.9206 0.9196 0.9186 0.9177
1592.000000 0.9168 0.9161 0.9154 0.9148 0.9141
1597.000000 0.9135 0.9128 0.9123 0.9119 0.9114
1602.000000 0.9109 0.9105 0.9101 0.9096 0.9092
1607.000000 0.9087 0.9082 0.9079 0.9076 0.9074
1612.000000 0.9071 0.9069 0.9067 0.9064 0.9063
1617.000000 0.9060 0.9056 0.9053 0.9049 0.9046
1622.000000 0.9042 0.9039 0.9030 0.9019 0.9007
1627.000000 0.8995 0.8982 0.8968 0.8955 0.8941
1632.000000 0.8927 0.8912 0.8894 0.8876 0.8860
1637.000000 0.8842 0.8825 0.8808 0.8792 0.8775
1642.000000 0.8758 0.8741 0.8723 0.8701 0.8680
1647.000000 0.8656 0.8625 0.8589 0.8553 0.8513
1652.000000 0.8470 0.8426 0.8382 0.8338 0.8290
1657.000000 0.8238 0.8184 0.8130 0.8077 0.8028
1662.000000 0.7982 0.7937 0.7891 0.7842 0.7786
1667.000000 0.7737 0.7701 0.7634 0.7516 0.7398
1672.000000 0.7281 0.7163 0.7045 0.6928 0.6811
1677.000000 0.6694 0.6579 0.6477 0.6422 0.6362
1682.000000 0.6300 0.6240 0.6183 0.6125 0.6017
1687.000000 0.5762 0.5432 0.5102 0.4773 0.4444
1692.000000 0.4115 0.3804 0.3587 0.3585 0.3589
1697.000000 0.3594 0.3606 0.3626 0.3658 0.3690
1702.000000 0.3705 0.3715 0.3724 0.3728 0.3728
1707.000000 0.3724 0.3716 0.3707 0.3695 0.3673
1712.000000 0.3641 0.3598 0.3529 0.3437 0.3342
1717.000000 0.3235 0.3010 0.2782 0.2554 0.2326
1722.000000 0.2099 0.1871 0.1644 0.1418 0.1191
1727.000000 0.0965 0.0755 0.0593 0.0503 0.0371
1732.000000 0.0281 0.0228 0.0194 0.0167 0.0151
1737.000000 0.0136 0.0128 0.0124 0.0124 0.0102
1742.000000 0.0126 0.0129 0.0133 0.0142 0.0162
1747.000000 0.0207 0.0391 0.0495 0.0569 0.0643
1752.000000 0.0720 0.0772 0.0813 0.0938 0.1214
1757.000000 0.1651 0.2087 0.2523 0.2958 0.3393
1762.000000 0.3828 0.4261 0.4695 0.5127 0.5559
1767.000000 0.5965 0.6280 0.6345 0.6391 0.6430
1772.000000 0.6466 0.6503 0.6540 0.6940 0.7344
1777.000000 0.7540 0.7724 0.7800 0.7865 0.7931
1782.000000 0.7994 0.8050 0.8103 0.8155 0.8209
1787.000000 0.8265 0.8340 0.8415 0.8473 0.8507
1792.000000 0.8528 0.8549 0.8570 0.8590 0.8611
1797.000000 0.8625 0.8638 0.8650 0.8662 0.8675
1802.000000 0.8688 0.8698 0.8707 0.8715 0.8723
1807.000000 0.8731 0.8739 0.8748 0.8756 0.8765
1812.000000 0.8773 0.8782 0.8792 0.8803 0.8813
1817.000000 0.8823 0.8833 0.8843 0.8853 0.8863
1822.000000 0.8872 0.8880 0.8887 0.8894 0.8901
1827.000000 0.8908 0.8917 0.8926 0.8937 0.8947
1832.000000 0.8957 0.8967 0.8978 0.8988 0.8998
1837.000000 0.9009 0.9026 0.9054 0.9084 0.9115
1842.000000 0.9145 0.9176 0.9207 0.9237 0.9268
1847.000000 0.9287 0.9297 0.9303 0.9306 0.9309
1852.000000 0.9312 0.9315 0.9318 0.9321 0.9324
1857.000000 0.9326 0.9328 0.9331 0.9335 0.9340
1862.000000 0.9345 0.9350 0.9357 0.9364 0.9372
1867.000000 0.9381 0.9387 0.9391 0.9394 0.9397
1872.000000 0.9400 0.9402 0.9405 0.9406 0.9407
1877.000000 0.9408 0.9408 0.9409 0.9410 0.9410
1882.000000 0.9411 0.9412 0.9414 0.9414 0.9415
1887.000000 0.9416 0.9416 0.9417 0.9418 0.9418
1892.000000 0.9419 0.9420 0.9421 0.9421 0.9422
1897.000000 0.9423 0.9423 0.9425 0.9427 0.9429
1902.000000 0.9431 0.9433 0.9434 0.9436 0.9439
1907.000000 0.9441 0.9443 0.9445 0.9447 0.9448
1912.000000 0.9450 0.9452 0.9454 0.9456 0.9458
1917.000000 0.9459 0.9461 0.9462 0.9463 0.9465
1922.000000 0.9466 0.9468 0.9470 0.9471 0.9472
1927.000000 0.9474 0.9475 0.9476 0.9478 0.9480
1932.000000 0.9482 0.9483 0.9484 0.9485 0.9486
1937.000000 0.9487 0.9488 0.9488 0.9489 0.9490
1942.000000 0.9490 0.9491 0.9491 0.9492 0.9493
1947.000000 0.9493 0.9494 0.9495 0.9495 0.9496
1952.000000 0.9497 0.9497 0.9498 0.9499 0.9499
1957.000000 0.9501 0.9502 0.9502 0.9503 0.9504
1962.000000 0.9504 0.9505 0.9506 0.9506 0.9506
1967.000000 0.9506 0.9506 0.9506 0.9506 0.9506
1972.000000 0.9506 0.9506 0.9506 0.9507 0.9507
1977.000000 0.9507 0.9507 0.9507 0.9507 0.9507
1982.000000 0.9507 0.9507 0.9507 0.9507 0.9507
1987.000000 0.9507 0.9507 0.9507 0.9507 0.9507
1992.000000 0.9507 0.9507 0.9507 0.9507 0.9507
1997.000000 0.9507 0.9507 0.9507 0.9507 0.9507
2002.000000 0.9507 0.9507 0.9507 0.9507 0.9507
2007.000000 0.9507 0.9507 0.9508 0.9508 0.9508
2012.000000 0.9508 0.9508 0.9508 0.9508 0.9508
2017.000000 0.9508 0.9509 0.9509 0.9510 0.9510
2022.000000 0.9510 0.9511 0.9511 0.9512 0.9512
2027.000000 0.9512 0.9513 0.9513 0.9514 0.9514
2032.000000 0.9514 0.9515 0.9515 0.9516 0.9516
2037.000000 0.9516 0.9517 0.9517 0.9518 0.9518
2042.000000 0.9518 0.9519 0.9519 0.9520 0.9520
2047.000000 0.9520 0.9521 0.9521 0.9522 0.9522
2052.000000 0.9522 0.9523 0.9523 0.9524 0.9524
2057.000000 0.9524 0.9525 0.9525 0.9525 0.9525
2062.000000 0.9526 0.9527 0.9527 0.9527 0.9527
2067.000000 0.9528 0.9528 0.9528 0.9529 0.9529
2072.000000 0.9530 0.9530 0.9530 0.9531 0.9531
2077.000000 0.9531 0.9531 0.9532 0.9532 0.9532
2082.000000 0.9533 0.9533 0.9533 0.9533 0.9534
2087.000000 0.9535 0.9535 0.9535 0.9535 0.9536
2092.000000 0.9536 0.9536 0.9537 0.9537 0.9537
2097.000000 0.9537 0.9538 0.9538 0.9538 0.9539
2102.000000 0.9539 0.9539 0.9539 0.9540 0.9540
2107.000000 0.9541 0.9541 0.9541 0.9542 0.9542
2112.000000 0.9541 0.9541 0.9540 0.9540 0.9538
2117.000000 0.9537 0.9537 0.9536 0.9536 0.9535
2122.000000 0.9535 0.9534 0.9534 0.9533 0.9532
2127.000000 0.9531 0.9530 0.9530 0.9529 0.9529
2132.000000 0.9528 0.9528 0.9527 0.9526 0.9525
2137.000000 0.9524 0.9523 0.9522 0.9521 0.9520
2142.000000 0.9519 0.9518 0.9517 0.9516 0.9514
2147.000000 0.9513 0.9512 0.9511 0.9510 0.9509
2152.000000 0.9508 0.9507 0.9506 0.9505 0.9504
2157.000000 0.9503 0.9501 0.9500 0.9499 0.9498
2162.000000 0.9497 0.9496 0.9496 0.9495 0.9495
2167.000000 0.9495 0.9495 0.9494 0.9494 0.9494
2172.000000 0.9494 0.9493 0.9492 0.9492 0.9492
2177.000000 0.9492 0.9491 0.9491 0.9491 0.9491
2182.000000 0.9490 0.9490 0.9489 0.9489 0.9489
2187.000000 0.9489 0.9488 0.9488 0.9488 0.9488
2192.000000 0.9487 0.9486 0.9486 0.9485 0.9485
2197.000000 0.9485 0.9485 0.9484 0.9484 0.9483
2202.000000 0.9483 0.9483 0.9483 0.9482 0.9482
2207.000000 0.9481 0.9481 0.9480 0.9480 0.9480
2212.000000 0.9480 0.9479 0.9479 0.9478 0.9478
2217.000000 0.9478 0.9478 0.9477 0.9477 0.9476
2222.000000 0.9476 0.9476 0.9476 0.9475 0.9475
2227.000000 0.9474 0.9474 0.9473 0.9473 0.9472
2232.000000 0.9472 0.9471 0.9470 0.9469 0.9469
2237.000000 0.9468 0.9467 0.9466 0.9466 0.9465
2242.000000 0.9464 0.9463 0.9463 0.9462 0.9461
2247.000000 0.9460 0.9460 0.9459 0.9458 0.9457
2252.000000 0.9457 0.9456 0.9455 0.9454 0.9454
2257.000000 0.9453 0.9452 0.9451 0.9451 0.9450
2262.000000 0.9449 0.9448 0.9448 0.9447 0.9446
2267.000000 0.9445 0.9445 0.9444 0.9443 0.9442
2272.000000 0.9442 0.9441 0.9440 0.9439 0.9439
2277.000000 0.9438 0.9438 0.9438 0.9438 0.9438
2282.000000 0.9439 0.9439 0.9440 0.9440 0.9441
2287.000000 0.9441 0.9442 0.9442 0.9443 0.9443
2292.000000 0.9444 0.9444 0.9445 0.9445 0.9446
2297.000000 0.9446 0.9447 0.9447 0.9448 0.9448
2302.000000 0.9448 0.9449 0.9449 0.9450 0.9450
2307.000000 0.9451 0.9451 0.9452 0.9452 0.9453
2312.000000 0.9453 0.9454 0.9454 0.9455 0.9455
2317.000000 0.9456 0.9456 0.9456 0.9457 0.9457
2322.000000 0.9458 0.9458 0.9458 0.9458 0.9457
2327.000000 0.9456 0.9455 0.9455 0.9454 0.9454
2332.000000 0.9454 0.9453 0.9452 0.9451 0.9451
2337.000000 0.9450 0.9450 0.9449 0.9448 0.9447
2342.000000 0.9447 0.9447 0.9446 0.9446 0.9445
2347.000000 0.9444 0.9443 0.9443 0.9442 0.9442
2352.000000 0.9441 0.9441 0.9441 0.9440 0.9439
2357.000000 0.9438 0.9438 0.9437 0.9437 0.9435
2362.000000 0.9431 0.9427 0.9423 0.9418 0.9414
2367.000000 0.9410 0.9406 0.9401 0.9397 0.9393
2372.000000 0.9388 0.9384 0.9380 0.9376 0.9371
2377.000000 0.9367 0.9363 0.9358 0.9354 0.9350
2382.000000 0.9346 0.9341 0.9337 0.9333 0.9329
2387.000000 0.9325 0.9321 0.9316 0.9312 0.9307
2392.000000 0.9303 0.9299 0.9296 0.9293 0.9293
2397.000000 0.9292 0.9292 0.9292 0.9291 0.9290
2402.000000 0.9289 0.9289 0.9288 0.9288 0.9288
2407.000000 0.9287 0.9286 0.9285 0.9285 0.9284
2412.000000 0.9283 0.9283 0.9282 0.9282 0.9282
2417.000000 0.9283 0.9285 0.9286 0.9287 0.9289
2422.000000 0.9291 0.9292 0.9293 0.9295 0.9296
2427.000000 0.9298 0.9272 0.9301 0.9302 0.9304
2432.000000 0.9306 0.9307 0.9308 0.9310 0.9311
2437.000000 0.9313 0.9314 0.9315 0.9317 0.9319
2442.000000 0.9320 0.9322 0.9323 0.9324 0.9325
2447.000000 0.9326 0.9327 0.9328 0.9329 0.9331
2452.000000 0.9332 0.9333 0.9334 0.9336 0.9337
2457.000000 0.9338 0.9339 0.9340 0.9342 0.9343
2462.000000 0.9344 0.9345 0.9347 0.9348 0.9349
2467.000000 0.9350 0.9352 0.9353 0.9354 0.9355
2472.000000 0.9357 0.9358 0.9359 0.9360 0.9361
2477.000000 0.9363 0.9364 0.9366 0.9368 0.9370
2482.000000 0.9371 0.9373 0.9375 0.9377 0.9379
2487.000000 0.9381 0.9382 0.9384 0.9386 0.9388
2492.000000 0.9390 0.9391 0.9393 0.9395 0.9397
2497.000000 0.9399 0.9400 0.9402 0.9405 0.9406
2502.000000 0.9408 0.9409 0.9411 0.9412 0.9414
2507.000000 0.9416 0.9418 0.9419 0.9420 0.9422
2512.000000 0.9424 0.9425 0.9426 0.9427 0.9429
2517.000000 0.9431 0.9432 0.9433 0.9434 0.9435
2522.000000 0.9437 0.9438 0.9440 0.9441 0.9442
2527.000000 0.9444 0.9445 0.9446 0.9448 0.9449
2532.000000 0.9450 0.9452 0.9453 0.9455 0.9456
2537.000000 0.9457 0.9458 0.9460 0.9461 0.9462
2542.000000 0.9464 0.9465 0.9466 0.9468 0.9469
2547.000000 0.9470 0.9471 0.9472 0.9473 0.9474
2552.000000 0.9475 0.9476 0.9477 0.9478 0.9479
2557.000000 0.9480 0.9482 0.9483 0.9483 0.9484
2562.000000 0.9485 0.9486 0.9487 0.9488 0.9489
2567.000000 0.9490 0.9491 0.9492 0.9493 0.9494
2572.000000 0.9495 0.9496 0.9497 0.9498 0.9499
2577.000000 0.9500 0.9501 0.9501 0.9502 0.9502
2582.000000 0.9502 0.9503 0.9503 0.9503 0.9504
2587.000000 0.9504 0.9504 0.9504 0.9504 0.9505
2592.000000 0.9505 0.9505 0.9506 0.9506 0.9506
2597.000000 0.9507 0.9507 0.9508 0.9508 0.9508
2602.000000 0.9509 0.9509 0.9509 0.9509 0.9509
2607.000000 0.9509 0.9508 0.9506 0.9505 0.9503
2612.000000 0.9502 0.9500 0.9498 0.9497 0.9536
2617.000000 0.9494 0.9492 0.9490 0.9488 0.9487
2622.000000 0.9486 0.9485 0.9483 0.9482 0.9481
2627.000000 0.9481 0.9481 0.9481 0.9484 0.9487
2632.000000 0.9490 0.9492 0.9495 0.9497 0.9500
2637.000000 0.9503 0.9506 0.9508 0.9511 0.9514
2642.000000 0.9516 0.9519 0.9522 0.9524 0.9525
2647.000000 0.9525 0.9525 0.9524 0.9523 0.9523
2652.000000 0.9522 0.9521 0.9520 0.9520 0.9519
2657.000000 0.9518 0.9518 0.9517 0.9516 0.9514
2662.000000 0.9513 0.9511 0.9510 0.9508 0.9506
2667.000000 0.9505 0.9504 0.9502 0.9500 0.9498
2672.000000 0.9497 0.9495 0.9493 0.9491 0.9490
2677.000000 0.9488 0.9486 0.9484 0.9483 0.9480
2682.000000 0.9478 0.9476 0.9474 0.9472 0.9470
2687.000000 0.9468 0.9466 0.9464 0.9462 0.9460
2692.000000 0.9458 0.9455 0.9453 0.9452 0.9451
2697.000000 0.9449 0.9448 0.9447 0.9446 0.9446
2702.000000 0.9445 0.9444 0.9443 0.9442 0.9441
2707.000000 0.9441 0.9440 0.9439 0.9439 0.9438
2712.000000 0.9437 0.9436 0.9435 0.9434 0.9433
2717.000000 0.9433 0.9432 0.9431 0.9430 0.9428
2722.000000 0.9427 0.9425 0.9424 0.9422 0.9421
2727.000000 0.9419 0.9418 0.9416 0.9414 0.9413
2732.000000 0.9411 0.9409 0.9408 0.9406 0.9404
2737.000000 0.9403 0.9401 0.9399 0.9398 0.9397
2742.000000 0.9395 0.9394 0.9392 0.9388 0.9383
2747.000000 0.9378 0.9372 0.9365 0.9358 0.9351
2752.000000 0.9342 0.9334 0.9326 0.9318 0.9310
2757.000000 0.9302 0.9294 0.9286 0.9277 0.9269
2762.000000 0.9261 0.9253 0.9244 0.9236 0.9227
2767.000000 0.9219 0.9210 0.9202 0.9193 0.9184
2772.000000 0.9176 0.9169 0.9161 0.9156 0.9153
2777.000000 0.9151 0.9148 0.9145 0.9143 0.9140
2782.000000 0.9135 0.9131 0.9126 0.9118 0.9111
2787.000000 0.9103 0.9095 0.9088 0.9080 0.9072
2792.000000 0.9065 0.9058 0.9051 0.9044 0.9036
2797.000000 0.9029 0.9022 0.9015 0.9000 0.8976
2802.000000 0.8953 0.8929 0.8906 0.8882 0.8857
2807.000000 0.8824 0.8792 0.8759 0.8726 0.8692
2812.000000 0.8658 0.8623 0.8587 0.8551 0.8515
2817.000000 0.8479 0.8443 0.8407 0.8372 0.8336
2822.000000 0.8301 0.8265 0.8229 0.8193 0.8158
2827.000000 0.8122 0.8086 0.8051 0.8015 0.7980
2832.000000 0.7944 0.7909 0.7873 0.7838 0.7802
2837.000000 0.7767 0.7731 0.7696 0.7661 0.7625
2842.000000 0.7590 0.7555 0.7519 0.7484 0.7449
2847.000000 0.7414 0.7379 0.7344 0.7309 0.7275
2852.000000 0.7243 0.7212 0.7183 0.7172 0.7160
2857.000000 0.7149 0.7138 0.7127 0.7116 0.7105
2862.000000 0.7093 0.7081 0.7070 0.7057 0.7045
2867.000000 0.7031 0.6995 0.6958 0.6921 0.6853
2872.000000 0.6774 0.6694 0.6615 0.6535 0.6456
2877.000000 0.6376 0.6297 0.6217 0.6138 0.6059
2882.000000 0.5980 0.5901 0.5829 0.5766 0.5703
2887.000000 0.5648 0.5631 0.5614 0.5596 0.5576
2892.000000 0.5554 0.5533 0.5502 0.5461 0.5421
2897.000000 0.5383 0.5364 0.5344 0.5325 0.5310
2902.000000 0.5296 0.5283 0.5270 0.5258 0.5245
2907.000000 0.5233 0.5224 0.5216 0.5207 0.5200
2912.000000 0.5194 0.5188 0.5183 0.5179 0.5176
2917.000000 0.5172 0.5187 0.5202 0.5219 0.5238
2922.000000 0.5260 0.5282 0.5304 0.5326 0.5347
2927.000000 0.5369 0.5388 0.5405 0.5421 0.5435
2932.000000 0.5435 0.5435 0.5435 0.5433 0.5432
2937.000000 0.5431 0.5422 0.5409 0.5393 0.5377
2942.000000 0.5361 0.5346 0.5330 0.5314 0.5298
2947.000000 0.5283 0.5267 0.5251 0.5236 0.5220
2952.000000 0.5204 0.5188 0.5173 0.5157 0.5142
2957.000000 0.5128 0.5114 0.5105 0.5103 0.5102
2962.000000 0.5101 0.5099 0.5098 0.5096 0.5085
2967.000000 0.5094 0.5093 0.5093 0.5152 0.5219
2972.000000 0.5287 0.5358 0.5437 0.5516 0.5595
2977.000000 0.5674 0.5753 0.5832 0.5911 0.5990
2982.000000 0.6069 0.6147 0.6226 0.6305 0.6383
2987.000000 0.6462 0.6540 0.6618 0.6697 0.6775
2992.000000 0.6853 0.6931 0.7010 0.7087 0.7165
2997.000000 0.7243 0.7320 0.7398 0.7476 0.7554
3002.000000 0.7632 0.7709 0.7787 0.7864 0.7942
3007.000000 0.8019 0.8097 0.8174 0.8251 0.8329
3012.000000 0.8406 0.8517 0.8630 0.8743 0.8826
3017.000000 0.8843 0.8861 0.8878 0.8895 0.8913
3022.000000 0.8930 0.8948 0.8959 0.8970 0.8981
3027.000000 0.8991 0.9001 0.9010 0.9020 0.9029
3032.000000 0.9039 0.9048 0.9058 0.9067 0.9076
3037.000000 0.9085 0.9095 0.9104 0.9114 0.9123
3042.000000 0.9133 0.9142 0.9151 0.9161 0.9170
3047.000000 0.9180 0.9189 0.9199 0.9208 0.9217
3052.000000 0.9226 0.9235 0.9244 0.9253 0.9262
3057.000000 0.9272 0.9281 0.9290 0.9300 0.9306
3062.000000 0.9312 0.9318 0.9324 0.9328 0.9332
3067.000000 0.9336 0.9340 0.9344 0.9348 0.9352
3072.000000 0.9356 0.9360 0.9364 0.9368 0.9372
3077.000000 0.9376 0.9380 0.9384 0.9388 0.9393
3082.000000 0.9397 0.9401 0.9405 0.9409 0.9413
3087.000000 0.9417 0.9421 0.9425 0.9430 0.9433
3092.000000 0.9435 0.9438 0.9440 0.9443 0.9446
3097.000000 0.9448 0.9451 0.9453 0.9455 0.9458
3102.000000 0.9460 0.9463 0.9465 0.9468 0.9470
3107.000000 0.9472 0.9474 0.9476 0.9477 0.9478
3112.000000 0.9479 0.9480 0.9481 0.9483 0.9484
3117.000000 0.9485 0.9487 0.9488 0.9489 0.9490
3122.000000 0.9492 0.9493 0.9494 0.9496 0.9497
3127.000000 0.9498 0.9499 0.9500 0.9501 0.9502
3132.000000 0.9503 0.9505 0.9506 0.9507 0.9509
3137.000000 0.9510 0.9511 0.9512 0.9514 0.9515
3142.000000 0.9515 0.9515 0.9515 0.9515 0.9515
3147.000000 0.9515 0.9515 0.9515 0.9515 0.9515
3152.000000 0.9515 0.9516 0.9516 0.9516 0.9516
3157.000000 0.9516 0.9516 0.9516 0.9516 0.9516
3162.000000 0.9516 0.9516 0.9516 0.9516 0.9516
3167.000000 0.9516 0.9516 0.9516 0.9516 0.9516
3172.000000 0.9516 0.9516 0.9516 0.9516 0.9516
3177.000000 0.9517 0.9517 0.9517 0.9517 0.9517
3182.000000 0.9517 0.9517 0.9517 0.9516 0.9516
3187.000000 0.9516 0.9516 0.9516 0.9516 0.9516
3192.000000 0.9516 0.9515 0.9515 0.9515 0.9515
3197.000000 0.9515 0.9515 0.9515 0.9515 0.9515
3202.000000 0.9515 0.9515 0.9515 0.9515 0.9514
3207.000000 0.9514 0.9514 0.9514 0.9514 0.9514
3212.000000 0.9514 0.9514 0.9513 0.9513 0.9513
3217.000000 0.9513 0.9513 0.9513 0.9513 0.9513
3222.000000 0.9512 0.9512 0.9512 0.9512 0.9512
3227.000000 0.9512 0.9512 0.9512 0.9511 0.9511
3232.000000 0.9511 0.9511 0.9511 0.9510 0.9509
3237.000000 0.9508 0.9507 0.9506 0.9505 0.9504
3242.000000 0.9503 0.9502 0.9501 0.9500 0.9499
3247.000000 0.9498 0.9498 0.9497 0.9496 0.9495
3252.000000 0.9495 0.9494 0.9493 0.9492 0.9491
3257.000000 0.9490 0.9489 0.9488 0.9487 0.9486
3262.000000 0.9485 0.9484 0.9483 0.9482 0.9481
3267.000000 0.9480 0.9479 0.9479 0.9478 0.9477
3272.000000 0.9476 0.9475 0.9474 0.9473 0.9472
3277.000000 0.9471 0.9470 0.9470 0.9469 0.9468
3282.000000 0.9467 0.9466 0.9465 0.9464 0.9463
3287.000000 0.9461 0.9460 0.9459 0.9458 0.9457
3292.000000 0.9456 0.9454 0.9453 0.9452 0.9451
3297.000000 0.9450 0.9449 0.9448 0.9446 0.9445
3302.000000 0.9444 0.9443 0.9442 0.9441 0.9440
3307.000000 0.9438 0.9437 0.9436 0.9435 0.9434
3312.000000 0.9433 0.9432 0.9430 0.9429 0.9428
3317.000000 0.9427 0.9426 0.9425 0.9424 0.9422
3322.000000 0.9421 0.9420 0.9419 0.9418 0.9418
3327.000000 0.9417 0.9417 0.9416 0.9416 0.9416
3332.000000 0.9416 0.9416 0.9415 0.9415 0.9414
3337.000000 0.9414 0.9413 0.9413 0.9413 0.9413
3342.000000 0.9413 0.9412 0.9412 0.9412 0.9412
3347.000000 0.9411 0.9411 0.9411 0.9411 0.9411
3352.000000 0.9410 0.9410 0.9409 0.9409 0.9408
3357.000000 0.9408 0.9408 0.9408 0.9408 0.9408
3362.000000 0.9408 0.9409 0.9409 0.9410 0.9410
3367.000000 0.9410 0.9410 0.9410 0.9411 0.9411
3372.000000 0.9411 0.9411 0.9412 0.9412 0.9412
3377.000000 0.9412 0.9412 0.9413 0.9413 0.9413
3382.000000 0.9413 0.9414 0.9414 0.9414 0.9415
3387.000000 0.9415 0.9416 0.9416 0.9416 0.9416
3392.000000 0.9416 0.9417 0.9417 0.9417 0.9417
3397.000000 0.9418 0.9418 0.9418 0.9418 0.9418
3402.000000 0.9419 0.9419 0.9419 0.9419 0.9420
3407.000000 0.9420 0.9421 0.9421 0.9422 0.9423
3412.000000 0.9423 0.9424 0.9424 0.9424 0.9425
3417.000000 0.9426 0.9426 0.9427 0.9428 0.9428
3422.000000 0.9429 0.9429 0.9430 0.9431 0.9431
3427.000000 0.9432 0.9433 0.9433 0.9434 0.9435
3432.000000 0.9435 0.9436 0.9436 0.9437 0.9438
3437.000000 0.9438 0.9439 0.9440 0.9440 0.9441
3442.000000 0.9442 0.9442 0.9443 0.9443 0.9444
3447.000000 0.9444 0.9444 0.9445 0.9446 0.9447
3452.000000 0.9448 0.9449 0.9451 0.9453 0.9455
3457.000000 0.9457 0.9459 0.9461 0.9463 0.9464
3462.000000 0.9466 0.9468 0.9470 0.9472 0.9474
3467.000000 0.9476 0.9478 0.9479 0.9481 0.9483
3472.000000 0.9485 0.9487 0.9489 0.9491 0.9493
3477.000000 0.9495 0.9497 0.9500 0.9502 0.9504
3482.000000 0.9506 0.9509 0.9513 0.9516 0.9520
3487.000000 0.9523 0.9527 0.9530 0.9534 0.9537
3492.000000 0.9541 0.9544 0.9548 0.9551 0.9555
3497.000000 0.9558 0.9561 0.9565 0.9568 0.9571
3502.000000 0.9574 0.9576 0.9578 0.9581 0.9583
3507.000000 0.9584 0.9586 0.9587 0.9589 0.9590
3512.000000 0.9592 0.9593 0.9594 0.9596 0.9597
3517.000000 0.9599 0.9600 0.9601 0.9603 0.9604
3522.000000 0.9605 0.9605 0.9605 0.9605 0.9605
3527.000000 0.9605 0.9605 0.9605 0.9605 0.9605
3532.000000 0.9605 0.9605 0.9605 0.9605 0.9605
3537.000000 0.9605 0.9605 0.9605 0.9605 0.9605
3542.000000 0.9605 0.9605 0.9605 0.9605 0.9605
3547.000000 0.9606 0.9606 0.9606 0.9606 0.9606
3552.000000 0.9606 0.9606 0.9606 0.9606 0.9606
3557.000000 0.9606 0.9606 0.9606 0.9606 0.9606
3562.000000 0.9606 0.9606 0.9606 0.9606 0.9606
3567.000000 0.9606 0.9606 0.9606 0.9606 0.9606
3572.000000 0.9606 0.9606 0.9606 0.9606 0.9606
3577.000000 0.9606 0.9606 0.9606 0.9606 0.9606
3582.000000 0.9607 0.9607 0.9607 0.9607 0.9607
3587.000000 0.9607 0.9607 0.9607 0.9607 0.9607
3592.000000 0.9607 0.9607 0.9607 0.9607 0.9607
3597.000000 0.9607 0.9608 0.9608 0.9608 0.9608
3602.000000 0.9608 0.9609 0.9609 0.9609 0.9609
3607.000000 0.9609 0.9609 0.9609 0.9609 0.9609
3612.000000 0.9609 0.9610 0.9610 0.9610 0.9610
3617.000000 0.9610 0.9610 0.9610 0.9610 0.9610
3622.000000 0.9610 0.9610 0.9611 0.9611 0.9611
3627.000000 0.9611 0.9611 0.9612 0.9612 0.9612
3632.000000 0.9612 0.9612 0.9612 0.9612 0.9612
3637.000000 0.9612 0.9612 0.9612 0.9613 0.9613
3642.000000 0.9613 0.9613 0.9613 0.9613 0.9613
3647.000000 0.9613 0.9613 0.9613 0.9614 0.9614
3652.000000 0.9614 0.9614 0.9614 0.9615 0.9615
3657.000000 0.9615 0.9615 0.9615 0.9615 0.9615
3662.000000 0.9615 0.9615 0.9615 0.9615 0.9616
3667.000000 0.9616 0.9616 0.9616 0.9616 0.9616
3672.000000 0.9616 0.9616 0.9616 0.9616 0.9616
3677.000000 0.9616 0.9616 0.9616 0.9616 0.9616
3682.000000 0.9616 0.9616 0.9616 0.9616 0.9616
3687.000000 0.9616 0.9615 0.9615 0.9615 0.9615
3692.000000 0.9615 0.9615 0.9615 0.9615 0.9615
3697.000000 0.9615 0.9615 0.9615 0.9615 0.9615
3702.000000 0.9615 0.9615 0.9614 0.9614 0.9614
3707.000000 0.9614 0.9614 0.9614 0.9614 0.9614
3712.000000 0.9614 0.9614 0.9614 0.9614 0.9614
3717.000000 0.9614 0.9614 0.9614 0.9614 0.9613
3722.000000 0.9613 0.9613 0.9613 0.9613 0.9613
3727.000000 0.9613 0.9613 0.9613 0.9613 0.9613
3732.000000 0.9613 0.9613 0.9613 0.9613 0.9613
3737.000000 0.9612 0.9612 0.9612 0.9612 0.9612
3742.000000 0.9612 0.9612 0.9612 0.9612 0.9612
3747.000000 0.9612 0.9612 0.9612 0.9612 0.9612
3752.000000 0.9612 0.9612 0.9612 0.9612 0.9612
3757.000000 0.9612 0.9612 0.9612 0.9612 0.9612
3762.000000 0.9612 0.9612 0.9612 0.9612 0.9612
3767.000000 0.9612 0.9612 0.9612 0.9612 0.9612
3772.000000 0.9612 0.9612 0.9612 0.9612 0.9612
3777.000000 0.9612 0.9612 0.9612 0.9612 0.9612
3782.000000 0.9612 0.9612 0.9612 0.9612 0.9612
3787.000000 0.9612 0.9612 0.9612 0.9612 0.9612
3792.000000 0.9612 0.9612 0.9611 0.9611 0.9611
3797.000000 0.9611 0.9611 0.9611 0.9611 0.9611
3802.000000 0.9611 0.9611 0.9611 0.9611 0.9611
3807.000000 0.9611 0.9611 0.9611 0.9611 0.9611
3812.000000 0.9611 0.9611 0.9611 0.9611 0.9611
3817.000000 0.9611 0.9611 0.9611 0.9611 0.9611
3822.000000 0.9611 0.9611 0.9611 0.9611 0.9611
3827.000000 0.9611 0.9611 0.9611 0.9611 0.9611
3832.000000 0.9611 0.9611 0.9611 0.9611 0.9611
3837.000000 0.9611 0.9611 0.9611 0.9611 0.9611
3842.000000 0.9611 0.9611 0.9611 0.9611 0.9611
3847.000000 0.9611 0.9611 0.9611 0.9611 0.9611
3852.000000 0.9611 0.9611 0.9611 0.9611 0.9611
3857.000000 0.9611 0.9611 0.9611 0.9611 0.9611
3862.000000 0.9611 0.9611 0.9611 0.9611 0.9611
3867.000000 0.9611 0.9611 0.9611 0.9611 0.9611
3872.000000 0.9611 0.9611 0.9611 0.9611 0.9610
3877.000000 0.9610 0.9610 0.9610 0.9610 0.9610
3882.000000 0.9610 0.9610 0.9610 0.9610 0.9610
3887.000000 0.9610 0.9610 0.9610 0.9610 0.9610
3892.000000 0.9610 0.9610 0.9610 0.9610 0.9610
3897.000000 0.9610 0.9610 0.9610 0.9610 0.9610
3902.000000 0.9610 0.9610 0.9610 0.9610 0.9610
3907.000000 0.9610 0.9610 0.9610 0.9610 0.9610
3912.000000 0.9610 0.9609 0.9609 0.9609 0.9609
3917.000000 0.9609 0.9609 0.9609 0.9609 0.9609
3922.000000 0.9609 0.9609 0.9609 0.9609 0.9609
3927.000000 0.9609 0.9609 0.9609 0.9609 0.9609
3932.000000 0.9609 0.9609 0.9609 0.9609 0.9609
3937.000000 0.9609 0.9609 0.9609 0.9609 0.9609
3942.000000 0.9609 0.9609 0.9609 0.9609 0.9609
3947.000000 0.9609 0.9609 0.9609 0.9609 0.9609
3952.000000 0.9609 0.9609 0.9609 0.9609 0.9608
3957.000000 0.9608 0.9608 0.9608 0.9608 0.9608
3962.000000 0.9608 0.9608 0.9608 0.9608 0.9608
3967.000000 0.9608 0.9608 0.9608 0.9608 0.9608
3972.000000 0.9608 0.9608 0.9608 0.9608 0.9608
3977.000000 0.9608 0.9608 0.9608 0.9608 0.9608
3982.000000 0.9608 0.9608 0.9608 0.9608 0.9608
3987.000000 0.9608 0.9608 0.9608 0.9608 0.9608
3992.000000 0.9608 0.9608 0.9608 0.9608 0.9608
3997.000000 0.9608 0.9608 0.9608 0.9608
##END=
