##TITLE=NEOMYCIN PALMITATE
##JCAMP-DX=4.24
##DATA TYPE=INFRARED SPECTRUM
##CLASS=COBLENTZ
##OWNER=COBLENTZ SOCIETY
Collection (C) 2018 copyright by the U.S. Secretary of Commerce
on behalf of the United States of America. All rights reserved.
##DATE=Not specified, most likely prior to 1970
##MOLFORM=C28 H57 N4 O8
##SOURCE REFERENCE=COBLENTZ NO. 3643
##$NIST ID=B6003643
##$NIST SOURCE=COBLENTZ
##$NIST IMAGE=cob3643
##SPECTROMETER/DATA SYSTEM=PERKIN-ELMER
##STATE=SOLID (ARNEEL C MULL); COMPENSATED
##SAMPLING PROCEDURE=TRANSMISSION
##RESOLUTION=4
##DATA PROCESSING=DIGITIZED BY NIST FROM HARD COPY
##XUNITS=MICROMETERS
##YUNITS=TRANSMITTANCE
##XFACTOR=1.000000
##YFACTOR=1
##DELTAX=000.006118
##FIRSTX=2.031
##LASTX=15.416
##FIRSTY=0.978
##MAXX=15.416
##MINX=2.031
##MAXY=1.035
##MINY=0.14
##NPOINTS=2189
##XYDATA=(X++(Y..Y))
2.031000 0.9780 0.9780 0.9800 0.9810 0.9830
2.061602 0.9830 0.9830 0.9840 0.9840 0.9860
2.092000 0.9860 0.9860 0.9870 0.9890 0.9890
2.122602 0.9890 0.9890 0.9890 0.9890 0.9890
2.153000 0.9890 0.9900 0.9920 0.9930 0.9950
2.183602 0.9980 0.9980 0.9980 1.0000 1.0010
2.214000 1.0010 1.0010 1.0010 1.0010 1.0010
2.244602 1.0010 1.0010 1.0010 1.0010 1.0010
2.275000 1.0000 1.0000 1.0000 1.0000 0.9980
2.305602 0.9920 0.9870 0.9860 0.9860 0.9860
2.336000 0.9860 0.9840 0.9840 0.9840 0.9840
2.366602 0.9860 0.9870 0.9870 0.9890 0.9890
2.398000 0.9890 0.9890 0.9890 0.9900 0.9900
2.428602 0.9920 0.9920 0.9930 0.9950 0.9950
2.459000 0.9980 1.0000 1.0010 1.0040 1.0070
2.489602 1.0120 1.0180 1.0240 1.0300 1.0330
2.520000 1.0350 1.0350 1.0350 1.0350 1.0350
2.550602 1.0350 1.0350 1.0350 1.0350 1.0350
2.581000 1.0350 1.0350 1.0350 1.0350 1.0350
2.611602 1.0350 1.0350 1.0350 1.0350 1.0350
2.642000 1.0350 1.0350 1.0350 1.0350 1.0350
2.672602 1.0350 1.0350 1.0350 1.0350 1.0350
2.704000 1.0350 1.0350 1.0350 1.0350 1.0330
2.734602 1.0320 1.0290 1.0270 1.0180 1.0120
2.765000 1.0030 0.9950 0.9860 0.9670 0.9580
2.795602 0.9430 0.9120 0.8890 0.8710 0.8570
2.826000 0.8400 0.8240 0.7980 0.7750 0.7610
2.856602 0.7320 0.7210 0.6920 0.6770 0.6600
2.887000 0.6450 0.6290 0.6160 0.5990 0.5930
2.917602 0.5820 0.5740 0.5700 0.5640 0.5530
2.948000 0.5470 0.5410 0.5290 0.5130 0.5100
2.978602 0.5040 0.5010 0.4900 0.4840 0.4780
3.009000 0.4720 0.4640 0.4540 0.4440 0.4370
3.039602 0.4340 0.4310 0.4280 0.4170 0.4140
3.071000 0.4090 0.4050 0.3970 0.3940 0.3890
3.101602 0.3830 0.3760 0.3730 0.3600 0.3540
3.132000 0.3530 0.3530 0.3480 0.3440 0.3420
3.162602 0.3390 0.3360 0.3330 0.3300 0.3280
3.193000 0.3270 0.3220 0.3210 0.3180 0.3160
3.223602 0.3140 0.3140 0.3140 0.3130 0.3130
3.254000 0.3130 0.3130 0.3110 0.3110 0.3100
3.284602 0.3080 0.3070 0.3040 0.3040 0.3020
3.315000 0.3020 0.3010 0.2990 0.2990 0.2960
3.345602 0.2900 0.2880 0.2850 0.2810 0.2750
3.376000 0.2720 0.2690 0.2670 0.2660 0.2620
3.406602 0.2590 0.2580 0.2560 0.2550 0.2520
3.438000 0.2470 0.2440 0.2380 0.2270 0.2240
3.468602 0.2210 0.2170 0.2150 0.2150 0.2150
3.499000 0.2140 0.2120 0.2090 0.2090 0.2090
3.529602 0.2110 0.2120 0.2150 0.2260 0.2370
3.560000 0.2440 0.2520 0.2700 0.2730 0.2780
3.590602 0.2920 0.2950 0.3040 0.3180 0.3300
3.621000 0.3370 0.3440 0.3540 0.3620 0.3660
3.651602 0.3710 0.3740 0.3760 0.3770 0.3800
3.682000 0.3850 0.3880 0.3910 0.3970 0.3990
3.712602 0.3990 0.4020 0.4050 0.4080 0.4120
3.744000 0.4150 0.4150 0.4150 0.4150 0.4150
3.774602 0.4170 0.4170 0.4200 0.4230 0.4250
3.805000 0.4250 0.4280 0.4290 0.4320 0.4350
3.835602 0.4350 0.4370 0.4400 0.4430 0.4430
3.866000 0.4440 0.4460 0.4480 0.4510 0.4550
3.896602 0.4570 0.4600 0.4660 0.4660 0.4670
3.927000 0.4690 0.4720 0.4750 0.4780 0.4800
3.957602 0.4840 0.4860 0.4890 0.4920 0.4950
3.988000 0.5000 0.5030 0.5060 0.5120 0.5160
4.018602 0.5180 0.5240 0.5270 0.5350 0.5390
4.049000 0.5410 0.5560 0.5680 0.5790 0.5820
4.079602 0.5840 0.5870 0.5880 0.5910 0.6050
4.111000 0.6080 0.6110 0.6140 0.6160 0.6190
4.141602 0.6230 0.6290 0.6330 0.6340 0.6420
4.172000 0.6480 0.6520 0.6540 0.6590 0.6620
4.202602 0.6630 0.6650 0.6660 0.6660 0.6660
4.233000 0.6660 0.6680 0.6690 0.6770 0.6800
4.263602 0.6810 0.6850 0.6880 0.6910 0.6920
4.294000 0.6980 0.7030 0.7060 0.7120 0.7170
4.324602 0.7230 0.7260 0.7330 0.7410 0.7440
4.355000 0.7560 0.7590 0.7640 0.7700 0.7730
4.385602 0.7760 0.7810 0.7850 0.7880 0.7900
4.416000 0.7920 0.7930 0.7950 0.7980 0.7990
4.446602 0.8010 0.8040 0.8130 0.8180 0.8220
4.478000 0.8250 0.8270 0.8280 0.8330 0.8360
4.508602 0.8370 0.8390 0.8400 0.8420 0.8420
4.539000 0.8420 0.8420 0.8420 0.8420 0.8420
4.569602 0.8440 0.8440 0.8450 0.8450 0.8450
4.600000 0.8450 0.8450 0.8450 0.8450 0.8450
4.630602 0.8450 0.8440 0.8440 0.8420 0.8420
4.661000 0.8400 0.8370 0.8370 0.8370 0.8370
4.691602 0.8370 0.8360 0.8330 0.8330 0.8330
4.722000 0.8310 0.8300 0.8300 0.8300 0.8300
4.752602 0.8310 0.8310 0.8310 0.8300 0.8300
4.784000 0.8300 0.8300 0.8300 0.8300 0.8300
4.814602 0.8300 0.8310 0.8310 0.8310 0.8310
4.845000 0.8310 0.8330 0.8340 0.8340 0.8340
4.875602 0.8360 0.8360 0.8360 0.8360 0.8360
4.906000 0.8340 0.8340 0.8340 0.8360 0.8370
4.936602 0.8370 0.8370 0.8390 0.8390 0.8420
4.967000 0.8420 0.8420 0.8420 0.8440 0.8450
4.997602 0.8470 0.8480 0.8500 0.8500 0.8500
5.028000 0.8500 0.8500 0.8500 0.8510 0.8570
5.058602 0.8570 0.8570 0.8570 0.8570 0.8570
5.089000 0.8570 0.8590 0.8590 0.8600 0.8620
5.119602 0.8620 0.8620 0.8620 0.8620 0.8630
5.151000 0.8650 0.8660 0.8660 0.8680 0.8680
5.181602 0.8710 0.8710 0.8730 0.8730 0.8740
5.212000 0.8740 0.8760 0.8770 0.8770 0.8770
5.242602 0.8790 0.8800 0.8800 0.8820 0.8820
5.273000 0.8820 0.8820 0.8820 0.8830 0.8860
5.303602 0.8890 0.8910 0.8920 0.8960 0.8990
5.334000 0.8990 0.9000 0.9000 0.9020 0.9030
5.364602 0.9050 0.9050 0.9060 0.9080 0.9080
5.395000 0.9090 0.9090 0.9110 0.9110 0.9110
5.425602 0.9110 0.9110 0.9110 0.9110 0.9110
5.456000 0.9110 0.9110 0.9110 0.9110 0.9110
5.486602 0.9110 0.9110 0.9110 0.9090 0.9080
5.518000 0.9080 0.9080 0.9080 0.9060 0.9020
5.548602 0.9000 0.8990 0.8960 0.8920 0.8910
5.579000 0.8910 0.8890 0.8890 0.8880 0.8860
5.609602 0.8850 0.8830 0.8800 0.8760 0.8710
5.640000 0.8650 0.8530 0.8400 0.8310 0.8240
5.670602 0.8140 0.8100 0.8050 0.7960 0.7850
5.701000 0.7700 0.7410 0.7170 0.7070 0.6940
5.731602 0.6770 0.6750 0.6170 0.5820 0.5620
5.762000 0.5420 0.5240 0.5130 0.5070 0.5040
5.792602 0.5030 0.5040 0.5060 0.5060 0.5040
5.824000 0.5030 0.5010 0.4960 0.4960 0.4980
5.854602 0.4980 0.4980 0.4980 0.4980 0.5000
5.885000 0.5000 0.5010 0.5010 0.5040 0.5060
5.915602 0.5100 0.5120 0.5130 0.5150 0.5150
5.946000 0.5160 0.5160 0.5160 0.5160 0.5160
5.976602 0.5150 0.5130 0.5130 0.5120 0.5100
6.007000 0.5070 0.5040 0.5030 0.5030 0.5010
6.037602 0.5000 0.4960 0.4920 0.4810 0.4690
6.068000 0.4510 0.4460 0.4460 0.4430 0.4380
6.098602 0.4310 0.4230 0.4140 0.4110 0.4080
6.129000 0.4060 0.4050 0.4030 0.4020 0.3990
6.159602 0.3970 0.3960 0.3940 0.3920 0.3920
6.191000 0.3910 0.3860 0.3850 0.3820 0.3800
6.221602 0.3790 0.3740 0.3700 0.3650 0.3570
6.252000 0.3540 0.3470 0.3440 0.3310 0.3160
6.282602 0.3100 0.3020 0.2850 0.2810 0.2760
6.313000 0.2700 0.2660 0.2530 0.2430 0.2210
6.343602 0.2140 0.2030 0.1980 0.1890 0.1830
6.374000 0.1750 0.1710 0.1710 0.1710 0.1690
6.404602 0.1680 0.1630 0.1620 0.1590 0.1510
6.435000 0.1430 0.1420 0.1420 0.1430 0.1430
6.465602 0.1450 0.1460 0.1460 0.1450 0.1450
6.496000 0.1430 0.1430 0.1420 0.1420 0.1400
6.526602 0.1400 0.1400 0.1400 0.1400 0.1420
6.558000 0.1430 0.1450 0.1460 0.1490 0.1570
6.588602 0.1570 0.1600 0.1650 0.1710 0.1720
6.619000 0.1750 0.1800 0.1970 0.2070 0.2140
6.649602 0.2200 0.2370 0.2410 0.2520 0.2590
6.680000 0.2700 0.2810 0.2850 0.2870 0.2930
6.710602 0.2990 0.3050 0.3270 0.3280 0.3310
6.741000 0.3330 0.3340 0.3330 0.3300 0.3220
6.771602 0.3140 0.2990 0.2760 0.2550 0.2200
6.802000 0.2120 0.2010 0.2000 0.2000 0.2010
6.832602 0.2010 0.2030 0.2090 0.2120 0.2180
6.864000 0.2240 0.2370 0.2560 0.2750 0.2840
6.894602 0.2900 0.2960 0.3050 0.3140 0.3160
6.925000 0.3180 0.3190 0.3240 0.3240 0.3220
6.955602 0.3210 0.3190 0.3180 0.3160 0.3160
6.986000 0.3140 0.3130 0.3080 0.3040 0.3010
7.016602 0.2960 0.2950 0.2880 0.2820 0.2750
7.047000 0.2620 0.2560 0.2460 0.2330 0.2170
7.077602 0.2140 0.2120 0.2110 0.2070 0.2030
7.108000 0.2060 0.2060 0.2110 0.2140 0.2170
7.138602 0.2180 0.2210 0.2240 0.2290 0.2330
7.169000 0.2400 0.2490 0.2580 0.2670 0.2720
7.199602 0.2750 0.2780 0.2790 0.2810 0.2900
7.231000 0.2930 0.2960 0.2980 0.3010 0.3050
7.261602 0.3140 0.3180 0.3220 0.3390 0.3480
7.292000 0.3540 0.3570 0.3760 0.3850 0.3890
7.322602 0.3920 0.3990 0.4030 0.4060 0.4080
7.353000 0.4120 0.4170 0.4200 0.4250 0.4260
7.383602 0.4280 0.4280 0.4260 0.4250 0.4230
7.414000 0.4230 0.4230 0.4250 0.4310 0.4320
7.444602 0.4350 0.4370 0.4400 0.4460 0.4460
7.475000 0.4490 0.4510 0.4520 0.4520 0.4520
7.505602 0.4520 0.4520 0.4520 0.4540 0.4550
7.536000 0.4570 0.4570 0.4580 0.4580 0.4580
7.566602 0.4570 0.4550 0.4510 0.4480 0.4430
7.598000 0.4350 0.4260 0.4220 0.4200 0.4180
7.628602 0.4180 0.4180 0.4180 0.4180 0.4200
7.659000 0.4230 0.4230 0.4250 0.4250 0.4250
7.689602 0.4260 0.4260 0.4250 0.4220 0.4200
7.720000 0.4180 0.4180 0.4150 0.4140 0.4120
7.750602 0.4110 0.4090 0.4090 0.4090 0.4090
7.781000 0.4110 0.4150 0.4180 0.4200 0.4220
7.811602 0.4220 0.4230 0.4230 0.4230 0.4200
7.842000 0.4180 0.4180 0.4180 0.4170 0.4150
7.872602 0.4150 0.4150 0.4150 0.4170 0.4180
7.904000 0.4220 0.4290 0.4290 0.4320 0.4400
7.934602 0.4410 0.4430 0.4430 0.4440 0.4460
7.965000 0.4460 0.4460 0.4440 0.4410 0.4380
7.995602 0.4370 0.4380 0.4400 0.4430 0.4460
8.026000 0.4480 0.4510 0.4540 0.4600 0.4670
8.056602 0.4720 0.4770 0.4780 0.4800 0.4830
8.087000 0.4840 0.4860 0.4870 0.4860 0.4830
8.117602 0.4810 0.4810 0.4810 0.4810 0.4840
8.148000 0.4840 0.4860 0.4890 0.4920 0.4930
8.178602 0.5010 0.5060 0.5130 0.5160 0.5190
8.209000 0.5240 0.5240 0.5250 0.5290 0.5300
8.239602 0.5320 0.5300 0.5250 0.5240 0.5220
8.271000 0.5210 0.5210 0.5210 0.5210 0.5210
8.301602 0.5220 0.5220 0.5240 0.5220 0.5220
8.332000 0.5220 0.5220 0.5240 0.5240 0.5240
8.362602 0.5220 0.5220 0.5220 0.5210 0.5190
8.393000 0.5160 0.5120 0.5070 0.5030 0.5010
8.423602 0.5010 0.5010 0.5000 0.4980 0.4950
8.454000 0.4900 0.4860 0.4840 0.4840 0.4840
8.484602 0.4840 0.4860 0.4840 0.4830 0.4830
8.515000 0.4810 0.4810 0.4800 0.4780 0.4770
8.545602 0.4720 0.4670 0.4670 0.4660 0.4640
8.576000 0.4630 0.4610 0.4610 0.4600 0.4570
8.606602 0.4520 0.4520 0.4520 0.4520 0.4520
8.638000 0.4540 0.4550 0.4550 0.4550 0.4550
8.668602 0.4550 0.4570 0.4570 0.4550 0.4540
8.699000 0.4510 0.4490 0.4480 0.4480 0.4480
8.729602 0.4460 0.4440 0.4430 0.4410 0.4410
8.760000 0.4410 0.4400 0.4400 0.4400 0.4380
8.790602 0.4370 0.4370 0.4370 0.4350 0.4350
8.821000 0.4340 0.4320 0.4310 0.4290 0.4280
8.851602 0.4260 0.4250 0.4230 0.4220 0.4200
8.882000 0.4200 0.4180 0.4180 0.4180 0.4180
8.912602 0.4180 0.4180 0.4180 0.4170 0.4170
8.944000 0.4140 0.4110 0.4080 0.4020 0.4000
8.974602 0.3970 0.3910 0.3880 0.3880 0.3860
9.005000 0.3830 0.3820 0.3800 0.3790 0.3770
9.035602 0.3760 0.3760 0.3730 0.3680 0.3650
9.066000 0.3620 0.3600 0.3560 0.3540 0.3540
9.096602 0.3530 0.3500 0.3500 0.3500 0.3510
9.127000 0.3530 0.3530 0.3530 0.3530 0.3530
9.157602 0.3540 0.3560 0.3590 0.3600 0.3620
9.188000 0.3630 0.3630 0.3630 0.3630 0.3630
9.218602 0.3630 0.3630 0.3630 0.3630 0.3630
9.249000 0.3630 0.3620 0.3600 0.3600 0.3600
9.279602 0.3600 0.3590 0.3570 0.3560 0.3470
9.311000 0.3210 0.3110 0.3160 0.3300 0.3310
9.341602 0.3340 0.3360 0.3390 0.3450 0.3470
9.372000 0.3470 0.3480 0.3480 0.3480 0.3480
9.402602 0.3500 0.3510 0.3530 0.3500 0.3480
9.433000 0.3470 0.3470 0.3450 0.3470 0.3470
9.463602 0.3440 0.3420 0.3370 0.3340 0.3330
9.494000 0.3310 0.3310 0.3310 0.3300 0.3270
9.524602 0.3270 0.3250 0.3250 0.3240 0.3240
9.555000 0.3180 0.3160 0.3140 0.3140 0.3140
9.585602 0.3140 0.3140 0.3130 0.3130 0.3130
9.616000 0.3110 0.3100 0.3080 0.3070 0.3070
9.646602 0.3070 0.3070 0.3080 0.3080 0.3070
9.678000 0.3070 0.3070 0.3050 0.3040 0.3020
9.708602 0.3020 0.3010 0.3020 0.3040 0.3050
9.739000 0.3050 0.3080 0.3130 0.3160 0.3160
9.769602 0.3180 0.3190 0.3220 0.3220 0.3250
9.800000 0.3300 0.3330 0.3370 0.3370 0.3390
9.830602 0.3390 0.3450 0.3470 0.3480 0.3480
9.861000 0.3480 0.3530 0.3540 0.3570 0.3590
9.891602 0.3590 0.3590 0.3600 0.3620 0.3650
9.922000 0.3700 0.3730 0.3790 0.3850 0.3940
9.952602 0.4050 0.4110 0.4150 0.4250 0.4290
9.984000 0.4350 0.4380 0.4440 0.4550 0.4670
10.014602 0.4720 0.4770 0.4810 0.4870 0.4900
10.045000 0.4930 0.5010 0.5040 0.5070 0.5090
10.075602 0.5120 0.5180 0.5240 0.5270 0.5290
10.106000 0.5470 0.5500 0.5510 0.5530 0.5550
10.136602 0.5610 0.5620 0.5640 0.5670 0.5680
10.167000 0.5700 0.5710 0.5730 0.5740 0.5740
10.197602 0.5760 0.5770 0.5790 0.5810 0.5840
10.228000 0.5870 0.5880 0.5880 0.5900 0.5940
10.258602 0.5960 0.5990 0.6030 0.6070 0.6130
10.289000 0.6160 0.6170 0.6220 0.6250 0.6290
10.319602 0.6310 0.6360 0.6400 0.6430 0.6460
10.351000 0.6490 0.6510 0.6520 0.6540 0.6550
10.381602 0.6650 0.6680 0.6750 0.6780 0.6780
10.412000 0.6780 0.6800 0.6810 0.6850 0.6850
10.442602 0.6850 0.6850 0.6860 0.6880 0.6880
10.473000 0.6880 0.6890 0.6890 0.6890 0.6890
10.503602 0.6890 0.6910 0.6910 0.6910 0.6940
10.534000 0.6950 0.6950 0.6950 0.6970 0.6980
10.564602 0.7000 0.7010 0.7010 0.7010 0.7010
10.595000 0.7000 0.6980 0.6980 0.6980 0.6970
10.625602 0.6970 0.6970 0.6970 0.6950 0.6940
10.656000 0.6940 0.6940 0.6940 0.6940 0.6940
10.686602 0.6940 0.6940 0.6920 0.6920 0.6910
10.718000 0.6910 0.6920 0.6920 0.6940 0.6940
10.748602 0.6950 0.6970 0.6970 0.6980 0.7010
10.779000 0.7030 0.7070 0.7110 0.7170 0.7240
10.809602 0.7320 0.7330 0.7370 0.7410 0.7440
10.840000 0.7490 0.7530 0.7640 0.7750 0.7780
10.870602 0.7810 0.7840 0.7850 0.7870 0.7930
10.901000 0.7950 0.7930 0.7930 0.7930 0.7930
10.931602 0.7950 0.7950 0.7950 0.7950 0.7950
10.962000 0.7960 0.7960 0.7960 0.7960 0.7960
10.992602 0.7960 0.7950 0.7930 0.7930 0.7880
11.024000 0.7880 0.7870 0.7840 0.7820 0.7810
11.054602 0.7780 0.7730 0.7720 0.7720 0.7700
11.085000 0.7690 0.7640 0.7590 0.7580 0.7580
11.115602 0.7560 0.7560 0.7530 0.7490 0.7460
11.146000 0.7430 0.7410 0.7410 0.7410 0.7400
11.176602 0.7380 0.7380 0.7370 0.7370 0.7300
11.207000 0.7270 0.7260 0.7240 0.7240 0.7230
11.237602 0.7230 0.7230 0.7230 0.7230 0.7240
11.268000 0.7240 0.7240 0.7260 0.7260 0.7270
11.298602 0.7290 0.7290 0.7300 0.7300 0.7300
11.329000 0.7270 0.7270 0.7290 0.7300 0.7320
11.359602 0.7330 0.7330 0.7330 0.7350 0.7350
11.391000 0.7350 0.7350 0.7350 0.7370 0.7370
11.421602 0.7400 0.7410 0.7410 0.7430 0.7430
11.452000 0.7430 0.7440 0.7440 0.7460 0.7460
11.482602 0.7460 0.7460 0.7470 0.7470 0.7470
11.513000 0.7470 0.7470 0.7470 0.7490 0.7490
11.543602 0.7490 0.7490 0.7490 0.7490 0.7500
11.574000 0.7520 0.7520 0.7530 0.7530 0.7550
11.604602 0.7550 0.7550 0.7550 0.7550 0.7550
11.635000 0.7530 0.7530 0.7530 0.7530 0.7530
11.665602 0.7530 0.7520 0.7500 0.7500 0.7500
11.696000 0.7500 0.7520 0.7520 0.7530 0.7530
11.726602 0.7530 0.7530 0.7530 0.7530 0.7530
11.758000 0.7550 0.7530 0.7530 0.7550 0.7550
11.788602 0.7550 0.7550 0.7550 0.7560 0.7560
11.819000 0.7580 0.7590 0.7620 0.7660 0.7670
11.849602 0.7690 0.7700 0.7730 0.7760 0.7810
11.880000 0.7820 0.7870 0.7880 0.7950 0.7950
11.910602 0.7950 0.7960 0.7980 0.7990 0.8010
11.941000 0.8010 0.8020 0.8020 0.8020 0.8040
11.971602 0.8040 0.8040 0.8050 0.8050 0.8070
12.002000 0.8080 0.8100 0.8080 0.8080 0.8080
12.032602 0.8080 0.8080 0.8080 0.8100 0.8110
12.064000 0.8110 0.8100 0.8100 0.8080 0.8080
12.094602 0.8080 0.8100 0.8100 0.8100 0.8100
12.125000 0.8100 0.8080 0.8080 0.8070 0.8050
12.155602 0.8050 0.8070 0.8070 0.8070 0.8080
12.186000 0.8080 0.8100 0.8100 0.8110 0.8110
12.216602 0.8110 0.8110 0.8110 0.8130 0.8130
12.247000 0.8130 0.8130 0.8130 0.8130 0.8130
12.277602 0.8130 0.8130 0.8130 0.8130 0.8140
12.308000 0.8140 0.8140 0.8130 0.8130 0.8140
12.338602 0.8140 0.8140 0.8160 0.8180 0.8190
12.369000 0.8190 0.8190 0.8210 0.8210 0.8220
12.399602 0.8220 0.8210 0.8220 0.8220 0.8240
12.431000 0.8240 0.8240 0.8240 0.8240 0.8240
12.461602 0.8240 0.8240 0.8240 0.8250 0.8250
12.492000 0.8250 0.8250 0.8270 0.8270 0.8250
12.522602 0.8240 0.8240 0.8210 0.8190 0.8190
12.553000 0.8210 0.8210 0.8190 0.8190 0.8190
12.583602 0.8190 0.8190 0.8190 0.8180 0.8140
12.614000 0.8130 0.8110 0.8100 0.8100 0.8080
12.644602 0.8080 0.8070 0.8050 0.8040 0.8040
12.675000 0.8020 0.8010 0.7980 0.7960 0.7950
12.705602 0.7950 0.7930 0.7920 0.7900 0.7870
12.736000 0.7850 0.7840 0.7840 0.7820 0.7790
12.766602 0.7750 0.7730 0.7730 0.7720 0.7700
12.798000 0.7690 0.7670 0.7670 0.7670 0.7660
12.828602 0.7640 0.7620 0.7620 0.7620 0.7640
12.859000 0.7660 0.7670 0.7670 0.7670 0.7690
12.889602 0.7700 0.7720 0.7720 0.7720 0.7730
12.920000 0.7750 0.7750 0.7760 0.7760 0.7780
12.950602 0.7780 0.7760 0.7760 0.7750 0.7750
12.981000 0.7750 0.7750 0.7750 0.7750 0.7730
13.011602 0.7730 0.7720 0.7720 0.7720 0.7720
13.042000 0.7720 0.7720 0.7720 0.7700 0.7690
13.072602 0.7640 0.7640 0.7640 0.7660 0.7670
13.104000 0.7690 0.7700 0.7700 0.7700 0.7700
13.134602 0.7700 0.7700 0.7700 0.7720 0.7760
13.165000 0.7760 0.7780 0.7780 0.7780 0.7780
13.195602 0.7790 0.7790 0.7760 0.7760 0.7760
13.226000 0.7760 0.7750 0.7730 0.7730 0.7750
13.256602 0.7750 0.7750 0.7750 0.7750 0.7760
13.287000 0.7760 0.7760 0.7750 0.7750 0.7750
13.317602 0.7750 0.7750 0.7730 0.7720 0.7700
13.348000 0.7670 0.7670 0.7670 0.7660 0.7660
13.378602 0.7640 0.7640 0.7640 0.7620 0.7590
13.409000 0.7590 0.7580 0.7560 0.7550 0.7530
13.439602 0.7530 0.7530 0.7530 0.7530 0.7530
13.471000 0.7530 0.7520 0.7500 0.7500 0.7500
13.501602 0.7490 0.7470 0.7470 0.7460 0.7440
13.532000 0.7440 0.7410 0.7400 0.7350 0.7350
13.562602 0.7300 0.7290 0.7270 0.7270 0.7270
13.593000 0.7260 0.7260 0.7260 0.7230 0.7230
13.623602 0.7230 0.7230 0.7200 0.7180 0.7120
13.654000 0.7090 0.7010 0.7000 0.6980 0.6970
13.684602 0.6950 0.6940 0.6850 0.6720 0.6680
13.715000 0.6660 0.6620 0.6570 0.6510 0.6460
13.745602 0.6390 0.6330 0.6250 0.6160 0.6050
13.776000 0.5990 0.5930 0.5880 0.5730 0.5620
13.806602 0.5530 0.5440 0.5320 0.5220 0.5130
13.838000 0.4890 0.4720 0.4670 0.4570 0.4510
13.868602 0.4460 0.4370 0.4340 0.4340 0.4320
13.899000 0.4320 0.4340 0.4340 0.4350 0.4350
13.929602 0.4380 0.4440 0.4460 0.4490 0.4520
13.960000 0.4600 0.4690 0.4810 0.4890 0.5000
13.990602 0.5070 0.5130 0.5210 0.5350 0.5470
14.021000 0.5650 0.5740 0.5810 0.5900 0.6000
14.051602 0.6070 0.6140 0.6250 0.6330 0.6360
14.082000 0.6420 0.6460 0.6510 0.6520 0.6570
14.112602 0.6600 0.6600 0.6620 0.6650 0.6660
14.144000 0.6680 0.6690 0.6710 0.6750 0.6750
14.174602 0.6770 0.6780 0.6800 0.6850 0.6880
14.205000 0.6890 0.6890 0.6890 0.6910 0.6910
14.235602 0.6910 0.6920 0.6940 0.6950 0.6950
14.266000 0.6950 0.6950 0.6950 0.6950 0.6950
14.296602 0.6970 0.6980 0.7000 0.7000 0.7000
14.327000 0.7010 0.7030 0.7060 0.7070 0.7090
14.357602 0.7090 0.7090 0.7110 0.7110 0.7110
14.388000 0.7110 0.7120 0.7120 0.7120 0.7140
14.418602 0.7140 0.7140 0.7140 0.7150 0.7150
14.449000 0.7150 0.7150 0.7150 0.7150 0.7150
14.479602 0.7150 0.7150 0.7150 0.7150 0.7140
14.511000 0.7140 0.7140 0.7150 0.7150 0.7170
14.541602 0.7180 0.7180 0.7200 0.7200 0.7200
14.572000 0.7200 0.7210 0.7210 0.7210 0.7200
14.602602 0.7180 0.7180 0.7180 0.7170 0.7170
14.633000 0.7170 0.7170 0.7170 0.7150 0.7150
14.663602 0.7150 0.7150 0.7150 0.7150 0.7170
14.694000 0.7180 0.7200 0.7230 0.7240 0.7240
14.724602 0.7260 0.7260 0.7260 0.7260 0.7260
14.755000 0.7260 0.7260 0.7270 0.7270 0.7270
14.785602 0.7270 0.7270 0.7270 0.7290 0.7300
14.816000 0.7300 0.7320 0.7320 0.7320 0.7320
14.846602 0.7300 0.7300 0.7300 0.7320 0.7330
14.878000 0.7330 0.7350 0.7370 0.7370 0.7370
14.908602 0.7370 0.7370 0.7370 0.7370 0.7380
14.939000 0.7400 0.7410 0.7430 0.7430 0.7440
14.969602 0.7460 0.7490 0.7520 0.7530 0.7560
15.000000 0.7580 0.7580 0.7560 0.7530 0.7500
15.030602 0.7470 0.7400 0.7380 0.7330 0.7320
15.061000 0.7320 0.7320 0.7320 0.7320 0.7330
15.091602 0.7330 0.7330 0.7350 0.7350 0.7350
15.122000 0.7350 0.7350 0.7370 0.7370 0.7380
15.152602 0.7400 0.7400 0.7400 0.7400 0.7400
15.184000 0.7400 0.7400 0.7400 0.7400 0.7400
15.214602 0.7400 0.7400 0.7410 0.7410 0.7410
15.245000 0.7410 0.7410 0.7430 0.7430 0.7430
15.275602 0.7440 0.7440 0.7440 0.7460 0.7470
15.306000 0.7470 0.7470 0.7470 0.7470 0.7470
15.336602 0.7470 0.7490 0.7500 0.7500 0.7500
15.367000 0.7520 0.7520 0.7520 0.7520 0.7500
15.397602 0.7500 0.7490 0.7470 0.7490
##END=
