##TITLE=8-QUINOLINOL, MAGNESIUM SALT
##JCAMP-DX=4.24
##DATA TYPE=INFRARED SPECTRUM
##CLASS=COBLENTZ
##ORIGIN=DOW CHEMICAL COMPANY
##OWNER=COBLENTZ SOCIETY
Collection (C) 2018 copyright by the U.S. Secretary of Commerce
on behalf of the United States of America. All rights reserved.
##DATE=Not specified, most likely prior to 1970
##MOLFORM=C18 H12 Mg N2 O2
##SOURCE REFERENCE=COBLENTZ NO. 1497
##$NIST ID=B6001497
##$NIST SOURCE=COBLENTZ
##$NIST IMAGE=cob1497
##SPECTROMETER/DATA SYSTEM=Not specified, most likely a prism, grating, or hybrid spectrometer.
##STATE=SOLID (MINERAL OIL MULL)
##SAMPLING PROCEDURE=TRANSMISSION
##RESOLUTION=4
##DATA PROCESSING=DIGITIZED BY NIST FROM HARD COPY
##XUNITS=MICROMETERS
##YUNITS=TRANSMITTANCE
##XFACTOR=1.000000
##YFACTOR=1
##DELTAX=000.006856
##FIRSTX=2.021
##LASTX=15.8906
##FIRSTY=0.618
##MAXX=15.8906
##MINX=2.021
##MAXY=0.912
##MINY=0.003
##NPOINTS=2024
##XYDATA=(X++(Y..Y))
2.021000 0.6180 0.6200 0.6220 0.6230 0.6230
2.055297 0.6250 0.6250 0.6290 0.6290 0.6300
2.089000 0.6320 0.6320 0.6340 0.6340 0.6350
2.123297 0.6370 0.6370 0.6390 0.6390 0.6410
2.158000 0.6410 0.6410 0.6410 0.6410 0.6410
2.192297 0.6420 0.6420 0.6420 0.6420 0.6420
2.226000 0.6420 0.6410 0.6410 0.6390 0.6370
2.260297 0.6370 0.6320 0.6320 0.6320 0.6320
2.295000 0.6320 0.6320 0.6320 0.6320 0.6320
2.329297 0.6320 0.6320 0.6320 0.6320 0.6320
2.363000 0.6370 0.6410 0.6410 0.6420 0.6460
2.397297 0.6470 0.6510 0.6520 0.6540 0.6560
2.432000 0.6590 0.6610 0.6640 0.6700 0.6750
2.466297 0.6800 0.6830 0.6870 0.6900 0.6940
2.500000 0.6970 0.6990 0.7000 0.7020 0.7040
2.534297 0.7050 0.7050 0.7070 0.7070 0.7090
2.569000 0.7090 0.7110 0.7110 0.7120 0.7140
2.603297 0.7140 0.7170 0.7170 0.7170 0.7170
2.638000 0.7170 0.7170 0.7190 0.7190 0.7210
2.672297 0.7210 0.7230 0.7230 0.7230 0.7230
2.706000 0.7230 0.7230 0.7230 0.7210 0.7170
2.740297 0.7140 0.7120 0.7110 0.7110 0.7110
2.775000 0.7110 0.7110 0.7110 0.7110 0.7110
2.809297 0.7110 0.7110 0.7110 0.7110 0.7110
2.843000 0.7110 0.7110 0.7110 0.7110 0.7110
2.877297 0.7110 0.7110 0.7110 0.7110 0.7110
2.912000 0.7110 0.7120 0.7120 0.7120 0.7110
2.946297 0.7110 0.7090 0.7090 0.7070 0.7050
2.980000 0.7050 0.7050 0.7050 0.7070 0.7070
3.014297 0.7050 0.7050 0.7050 0.7050 0.7040
3.049000 0.7040 0.7040 0.7040 0.7040 0.7020
3.083297 0.7020 0.6990 0.6990 0.6990 0.6970
3.118000 0.6970 0.6970 0.6950 0.6950 0.6950
3.152297 0.6940 0.6940 0.6940 0.6940 0.6940
3.186000 0.6940 0.6940 0.6940 0.6940 0.6900
3.220297 0.6870 0.6820 0.6750 0.6660 0.6520
3.255000 0.6420 0.6270 0.6150 0.6080 0.6000
3.289297 0.5820 0.5770 0.5720 0.5670 0.5570
3.323000 0.5480 0.5330 0.5050 0.4590 0.3880
3.357297 0.2830 0.1960 0.1120 0.0100 0.0060
3.392000 0.0030 0.0060 0.0100 0.0270 0.0320
3.426297 0.0370 0.0440 0.0560 0.0630 0.0660
3.460000 0.0710 0.0750 0.0820 0.0920 0.1160
3.494297 0.2010 0.2710 0.3120 0.3570 0.4350
3.529000 0.5740 0.6170 0.6440 0.6610 0.6710
3.563297 0.6870 0.6950 0.7020 0.7110 0.7160
3.597000 0.7230 0.7280 0.7310 0.7330 0.7330
3.631297 0.7330 0.7330 0.7310 0.7310 0.7280
3.666000 0.7260 0.7260 0.7260 0.7260 0.7260
3.700297 0.7260 0.7280 0.7280 0.7290 0.7290
3.735000 0.7310 0.7330 0.7350 0.7350 0.7360
3.769297 0.7380 0.7430 0.7480 0.7500 0.7500
3.803000 0.7520 0.7520 0.7530 0.7570 0.7580
3.837297 0.7600 0.7620 0.7640 0.7700 0.7720
3.872000 0.7760 0.7790 0.7810 0.7840 0.7880
3.906297 0.7910 0.7930 0.7940 0.7960 0.7980
3.940000 0.7980 0.8010 0.8010 0.8030 0.8050
3.974297 0.8050 0.8060 0.8080 0.8080 0.8100
4.009000 0.8100 0.8130 0.8130 0.8150 0.8200
4.043297 0.8220 0.8220 0.8220 0.8220 0.8230
4.077000 0.8230 0.8250 0.8250 0.8250 0.8250
4.111297 0.8250 0.8250 0.8230 0.8250 0.8250
4.146000 0.8250 0.8250 0.8250 0.8250 0.8290
4.180297 0.8300 0.8300 0.8300 0.8290 0.8270
4.214000 0.8250 0.8250 0.8250 0.8250 0.8250
4.248297 0.8250 0.8250 0.8270 0.8270 0.8270
4.283000 0.8290 0.8300 0.8340 0.8340 0.8340
4.317297 0.8340 0.8350 0.8350 0.8390 0.8410
4.352000 0.8420 0.8440 0.8440 0.8440 0.8440
4.386297 0.8440 0.8440 0.8440 0.8440 0.8420
4.420000 0.8420 0.8420 0.8420 0.8420 0.8420
4.454297 0.8420 0.8420 0.8420 0.8420 0.8420
4.489000 0.8420 0.8440 0.8460 0.8460 0.8460
4.523297 0.8440 0.8460 0.8470 0.8470 0.8490
4.557000 0.8490 0.8510 0.8510 0.8540 0.8560
4.591297 0.8560 0.8560 0.8580 0.8580 0.8580
4.626000 0.8580 0.8580 0.8580 0.8580 0.8580
4.660297 0.8580 0.8580 0.8580 0.8590 0.8610
4.694000 0.8610 0.8610 0.8610 0.8610 0.8610
4.728297 0.8610 0.8610 0.8610 0.8610 0.8610
4.763000 0.8610 0.8610 0.8610 0.8610 0.8610
4.797297 0.8630 0.8630 0.8630 0.8630 0.8630
4.832000 0.8630 0.8640 0.8660 0.8700 0.8710
4.866297 0.8730 0.8730 0.8750 0.8750 0.8750
4.900000 0.8760 0.8780 0.8780 0.8780 0.8780
4.934297 0.8780 0.8780 0.8780 0.8780 0.8780
4.969000 0.8780 0.8800 0.8800 0.8820 0.8830
5.003297 0.8830 0.8830 0.8830 0.8830 0.8830
5.037000 0.8820 0.8820 0.8820 0.8820 0.8820
5.071297 0.8800 0.8800 0.8800 0.8800 0.8800
5.106000 0.8780 0.8760 0.8760 0.8750 0.8750
5.140297 0.8730 0.8730 0.8710 0.8710 0.8700
5.174000 0.8680 0.8660 0.8640 0.8630 0.8630
5.208297 0.8610 0.8610 0.8590 0.8590 0.8590
5.243000 0.8590 0.8590 0.8610 0.8630 0.8660
5.277297 0.8680 0.8700 0.8710 0.8730 0.8750
5.311000 0.8750 0.8750 0.8760 0.8760 0.8760
5.345297 0.8780 0.8780 0.8780 0.8780 0.8800
5.380000 0.8800 0.8800 0.8820 0.8830 0.8850
5.414297 0.8880 0.8900 0.8900 0.8900 0.8900
5.449000 0.8900 0.8900 0.8830 0.8830 0.8830
5.483297 0.8830 0.8830 0.8820 0.8820 0.8820
5.517000 0.8850 0.8870 0.8870 0.8870 0.8870
5.551297 0.8870 0.8880 0.8880 0.8880 0.8870
5.586000 0.8870 0.8870 0.8870 0.8870 0.8870
5.620297 0.8880 0.8880 0.8880 0.8880 0.8880
5.654000 0.8880 0.8880 0.8880 0.8880 0.8880
5.688297 0.8880 0.8880 0.8880 0.8880 0.8880
5.723000 0.8880 0.8880 0.8880 0.8880 0.8880
5.757297 0.8880 0.8880 0.8880 0.8880 0.8880
5.791000 0.8880 0.8900 0.8880 0.8900 0.8880
5.825297 0.8880 0.8870 0.8880 0.8870 0.8830
5.860000 0.8830 0.8820 0.8820 0.8800 0.8800
5.894297 0.8800 0.8800 0.8800 0.8800 0.8780
5.929000 0.8780 0.8760 0.8730 0.8730 0.8710
5.963297 0.8700 0.8680 0.8680 0.8680 0.8640
5.997000 0.8630 0.8630 0.8610 0.8580 0.8540
6.031297 0.8520 0.8510 0.8490 0.8490 0.8490
6.066000 0.8490 0.8490 0.8510 0.8510 0.8490
6.100297 0.8490 0.8470 0.8440 0.8420 0.8390
6.134000 0.8350 0.8290 0.8230 0.8080 0.8000
6.168297 0.7820 0.7600 0.7400 0.7260 0.6990
6.203000 0.6640 0.6470 0.6220 0.6180 0.6220
6.237297 0.6320 0.6410 0.6700 0.6800 0.6800
6.271000 0.6800 0.6730 0.6050 0.5700 0.5160
6.305297 0.4710 0.4200 0.4110 0.4110 0.4110
6.340000 0.4410 0.5570 0.6300 0.6820 0.7110
6.374297 0.7410 0.7640 0.7910 0.8110 0.8230
6.408000 0.8340 0.8420 0.8440 0.8440 0.8420
6.442297 0.8390 0.8370 0.8350 0.8350 0.8350
6.477000 0.8350 0.8350 0.8350 0.8370 0.8370
6.511297 0.8370 0.8370 0.8370 0.8350 0.8340
6.546000 0.8300 0.8220 0.8220 0.8200 0.8060
6.580297 0.8010 0.7890 0.7500 0.7190 0.6520
6.614000 0.5960 0.5450 0.4870 0.4180 0.3280
6.648297 0.2490 0.2110 0.2010 0.2100 0.2710
6.683000 0.3020 0.4710 0.5840 0.6230 0.6230
6.717297 0.6220 0.5880 0.5310 0.4920 0.4580
6.751000 0.4010 0.3600 0.3210 0.1810 0.1160
6.785297 0.0920 0.0420 0.0410 0.0410 0.0490
6.820000 0.0610 0.0830 0.1160 0.1520 0.1880
6.854297 0.2320 0.2680 0.2990 0.3240 0.3480
6.888000 0.3740 0.4010 0.4350 0.4760 0.5160
6.922297 0.5400 0.5700 0.5890 0.6080 0.6200
6.957000 0.6290 0.6300 0.6320 0.6320 0.6320
6.991297 0.6300 0.6300 0.6300 0.6510 0.6970
7.025000 0.7110 0.7310 0.7520 0.7700 0.7790
7.059297 0.7790 0.7790 0.7790 0.7790 0.7690
7.094000 0.7550 0.7350 0.7110 0.6870 0.6590
7.128297 0.6320 0.6000 0.5570 0.5040 0.4220
7.163000 0.3400 0.2870 0.2300 0.2110 0.1500
7.197297 0.1330 0.1330 0.1330 0.1330 0.1330
7.231000 0.1330 0.1400 0.1410 0.1480 0.1640
7.265297 0.1810 0.2050 0.2350 0.2750 0.3230
7.300000 0.3480 0.4410 0.4950 0.5470 0.5880
7.334297 0.6220 0.6470 0.6680 0.6820 0.6940
7.368000 0.7000 0.7050 0.7120 0.7160 0.7190
7.402297 0.7190 0.7160 0.6950 0.6820 0.6520
7.437000 0.6300 0.5890 0.5530 0.5160 0.4920
7.471297 0.4560 0.4100 0.3670 0.3520 0.2900
7.505000 0.2580 0.2220 0.2130 0.2180 0.2200
7.539297 0.2520 0.3110 0.3960 0.4470 0.4920
7.574000 0.5600 0.5910 0.6050 0.6150 0.6440
7.608297 0.7070 0.7160 0.7240 0.7360 0.7470
7.643000 0.7580 0.7650 0.7700 0.7740 0.7790
7.677297 0.7790 0.7810 0.7820 0.7810 0.7790
7.711000 0.7740 0.7620 0.7500 0.7360 0.7190
7.745297 0.6990 0.6710 0.6370 0.6200 0.6050
7.780000 0.5910 0.5700 0.5700 0.5720 0.5930
7.814297 0.6110 0.6350 0.6630 0.6870 0.7070
7.848000 0.7190 0.7260 0.7350 0.7410 0.7430
7.882297 0.7480 0.7520 0.7550 0.7650 0.7760
7.917000 0.7880 0.7960 0.8060 0.8110 0.8170
7.951297 0.8180 0.8200 0.8220 0.8230 0.8230
7.985000 0.8230 0.8220 0.8200 0.8150 0.8080
8.019297 0.8000 0.7930 0.7860 0.7770 0.7700
8.054000 0.7640 0.7550 0.7520 0.7470 0.7410
8.088297 0.7410 0.7450 0.7470 0.7520 0.7580
8.122000 0.7700 0.7860 0.8000 0.8100 0.8220
8.156297 0.8420 0.8510 0.8560 0.8590 0.8590
8.191000 0.8630 0.8680 0.8700 0.8700 0.8680
8.225297 0.8680 0.8630 0.8610 0.8580 0.8540
8.260000 0.8520 0.8510 0.8520 0.8540 0.8610
8.294297 0.8640 0.8680 0.8710 0.8760 0.8800
8.328000 0.8830 0.8880 0.8880 0.8880 0.8880
8.362297 0.8880 0.8880 0.8880 0.8880 0.8880
8.397000 0.8880 0.8880 0.8710 0.8630 0.8560
8.431297 0.8520 0.8510 0.8470 0.8420 0.8420
8.465000 0.8410 0.8410 0.8410 0.8410 0.8410
8.499297 0.8410 0.8420 0.8470 0.8520 0.8560
8.534000 0.8610 0.8660 0.8700 0.8750 0.8780
8.568297 0.8780 0.8780 0.8780 0.8780 0.8780
8.602000 0.8780 0.8800 0.8710 0.8710 0.8710
8.636297 0.8710 0.8710 0.8710 0.8710 0.8710
8.671000 0.8710 0.8760 0.8780 0.8800 0.8800
8.705297 0.8820 0.8820 0.8830 0.8880 0.8880
8.739000 0.8880 0.8880 0.8880 0.8880 0.8830
8.773297 0.8800 0.8780 0.8750 0.8750 0.8730
8.808000 0.8730 0.8710 0.8700 0.8700 0.8710
8.842297 0.8730 0.8750 0.8780 0.8780 0.8780
8.877000 0.8780 0.8780 0.8700 0.8540 0.8410
8.911297 0.8220 0.8010 0.7700 0.7470 0.7230
8.945000 0.7070 0.6830 0.6390 0.5960 0.5530
8.979297 0.5110 0.4680 0.4230 0.3720 0.3430
9.014000 0.2880 0.2700 0.2680 0.2660 0.2700
9.048297 0.4030 0.4800 0.5410 0.5890 0.6290
9.082000 0.6580 0.6800 0.6970 0.7110 0.7190
9.116297 0.7260 0.7310 0.7360 0.7430 0.7500
9.151000 0.7550 0.7640 0.7700 0.7790 0.7840
9.185297 0.7910 0.7980 0.8060 0.8130 0.8220
9.219000 0.8290 0.8340 0.8390 0.8410 0.8440
9.253297 0.8490 0.8510 0.8520 0.8560 0.8580
9.288000 0.8590 0.8590 0.8610 0.8610 0.8610
9.322297 0.8610 0.8610 0.8610 0.8590 0.8580
9.357000 0.8540 0.8510 0.8470 0.8420 0.8420
9.391297 0.8410 0.8410 0.8410 0.8410 0.8410
9.425000 0.8390 0.8390 0.8390 0.8370 0.8390
9.459297 0.8390 0.8390 0.8410 0.8460 0.8520
9.494000 0.8590 0.8630 0.8700 0.8760 0.8820
9.528297 0.8830 0.8870 0.8880 0.8880 0.8880
9.562000 0.8880 0.8880 0.8870 0.8850 0.8830
9.596297 0.8800 0.8750 0.8660 0.8490 0.8390
9.631000 0.8340 0.8270 0.8220 0.8170 0.8110
9.665297 0.8100 0.8110 0.8180 0.8250 0.8300
9.699000 0.8370 0.8420 0.8510 0.8520 0.8590
9.733297 0.8680 0.8710 0.8750 0.8780 0.8800
9.768000 0.8830 0.8850 0.8830 0.8870 0.8900
9.802297 0.8920 0.8940 0.8940 0.8950 0.8950
9.836000 0.8950 0.8950 0.8950 0.8950 0.8970
9.870297 0.8970 0.8990 0.8990 0.9000 0.9000
9.905000 0.9000 0.9000 0.9000 0.9000 0.9020
9.939297 0.9020 0.9020 0.9050 0.9050 0.9070
9.974000 0.9090 0.9090 0.9090 0.9090 0.9090
10.008297 0.9090 0.9090 0.9090 0.9070 0.9070
10.042000 0.9070 0.9070 0.9050 0.9050 0.9040
10.076297 0.9040 0.9040 0.9020 0.9000 0.9000
10.111000 0.8990 0.8970 0.8950 0.8970 0.8970
10.145297 0.8940 0.8940 0.8920 0.8900 0.8870
10.179000 0.8870 0.8830 0.8830 0.8820 0.8800
10.213297 0.8780 0.8780 0.8750 0.8730 0.8710
10.248000 0.8700 0.8680 0.8660 0.8660 0.8660
10.282297 0.8660 0.8680 0.8680 0.8700 0.8700
10.316000 0.8710 0.8730 0.8780 0.8780 0.8780
10.350297 0.8780 0.8780 0.8780 0.8780 0.8780
10.385000 0.8780 0.8760 0.8760 0.8760 0.8760
10.419297 0.8760 0.8760 0.8750 0.8750 0.8750
10.453000 0.8750 0.8730 0.8730 0.8730 0.8730
10.487297 0.8730 0.8750 0.8760 0.8780 0.8820
10.522000 0.8830 0.8830 0.8850 0.8850 0.8850
10.556297 0.8850 0.8850 0.8850 0.8850 0.8850
10.591000 0.8850 0.8880 0.8880 0.8880 0.8880
10.625297 0.8880 0.8880 0.8880 0.8880 0.8880
10.659000 0.8880 0.8880 0.8880 0.8900 0.8920
10.693297 0.8920 0.8920 0.8940 0.8940 0.8940
10.728000 0.8950 0.8950 0.8950 0.8970 0.8970
10.762297 0.8970 0.8970 0.8990 0.8990 0.8990
10.796000 0.8990 0.8990 0.8990 0.9000 0.9020
10.830297 0.9020 0.9020 0.9020 0.9020 0.9020
10.865000 0.9020 0.9020 0.9000 0.9000 0.9000
10.899297 0.8990 0.8990 0.8950 0.8940 0.8880
10.933000 0.8850 0.8780 0.8710 0.8640 0.8580
10.967297 0.8510 0.8440 0.8370 0.8300 0.8250
11.002000 0.8180 0.8110 0.8000 0.7930 0.7910
11.036297 0.7910 0.7910 0.7910 0.7910 0.7960
11.071000 0.8100 0.8200 0.8300 0.8410 0.8470
11.105297 0.8540 0.8590 0.8640 0.8700 0.8730
11.139000 0.8760 0.8780 0.8800 0.8820 0.8830
11.173297 0.8830 0.8850 0.8850 0.8870 0.8870
11.208000 0.8880 0.8880 0.8880 0.8880 0.8870
11.242297 0.8870 0.8850 0.8850 0.8830 0.8820
11.276000 0.8800 0.8800 0.8800 0.8800 0.8800
11.310297 0.8800 0.8800 0.8800 0.8800 0.8800
11.345000 0.8800 0.8800 0.8800 0.8800 0.8800
11.379297 0.8780 0.8780 0.8780 0.8780 0.8780
11.413000 0.8780 0.8780 0.8780 0.8800 0.8800
11.447297 0.8800 0.8800 0.8800 0.8800 0.8800
11.482000 0.8800 0.8800 0.8820 0.8820 0.8820
11.516297 0.8820 0.8820 0.8850 0.8850 0.8870
11.550000 0.8880 0.8920 0.8920 0.8940 0.8950
11.584297 0.8970 0.8990 0.8990 0.9020 0.9020
11.619000 0.9040 0.9040 0.9040 0.9040 0.9040
11.653297 0.9040 0.9040 0.9040 0.9040 0.9040
11.688000 0.9040 0.9040 0.9070 0.9070 0.9070
11.722297 0.9070 0.9070 0.9070 0.9070 0.9090
11.756000 0.9090 0.9090 0.9090 0.9090 0.9090
11.790297 0.9090 0.9090 0.9090 0.9110 0.9120
11.825000 0.9120 0.9120 0.9120 0.9120 0.9120
11.859297 0.9120 0.9120 0.9120 0.9120 0.9120
11.893000 0.9120 0.9110 0.9090 0.9090 0.9070
11.927297 0.9040 0.9020 0.9000 0.8990 0.8950
11.962000 0.8880 0.8830 0.8800 0.8750 0.8700
11.996297 0.8640 0.8560 0.8440 0.8300 0.8110
12.030000 0.7860 0.7690 0.7520 0.7350 0.7160
12.064297 0.6950 0.6750 0.6540 0.6320 0.6080
12.099000 0.5690 0.5430 0.5190 0.4990 0.4800
12.133297 0.4640 0.4540 0.4470 0.4440 0.4460
12.167000 0.4470 0.4630 0.4990 0.5500 0.6060
12.201297 0.6640 0.7140 0.7670 0.8000 0.8220
12.236000 0.8340 0.8440 0.8540 0.8590 0.8630
12.270297 0.8660 0.8680 0.8700 0.8700 0.8700
12.305000 0.8680 0.8630 0.8540 0.8410 0.8220
12.339297 0.8030 0.7810 0.7550 0.7290 0.7020
12.373000 0.6700 0.6490 0.6230 0.5980 0.5700
12.407297 0.5480 0.5230 0.5090 0.5090 0.5090
12.442000 0.5110 0.5290 0.5450 0.5720 0.6030
12.476297 0.6340 0.6630 0.6800 0.6940 0.6970
12.510000 0.7000 0.7000 0.6990 0.6940 0.6830
12.544297 0.6680 0.6540 0.6370 0.6220 0.6030
12.579000 0.5840 0.5650 0.5480 0.5290 0.5110
12.613297 0.4850 0.4660 0.4540 0.4440 0.4340
12.647000 0.4150 0.4030 0.3960 0.3930 0.3880
12.681297 0.3880 0.3930 0.3960 0.4010 0.4130
12.716000 0.4290 0.4470 0.4680 0.4920 0.5140
12.750297 0.5470 0.5720 0.6100 0.6370 0.6630
12.785000 0.6830 0.6970 0.7160 0.7260 0.7470
12.819297 0.7670 0.7820 0.7860 0.7890 0.7960
12.853000 0.8030 0.8100 0.8110 0.8130 0.8150
12.887297 0.8170 0.8180 0.8180 0.8180 0.8200
12.922000 0.8220 0.8220 0.8220 0.8220 0.8220
12.956297 0.8230 0.8230 0.8230 0.8230 0.8230
12.990000 0.8230 0.8230 0.8220 0.8200 0.8180
13.024297 0.8170 0.8170 0.8150 0.8150 0.8100
13.059000 0.8060 0.8030 0.8000 0.7980 0.7960
13.093297 0.7930 0.7880 0.7820 0.7770 0.7720
13.127000 0.7650 0.7600 0.7530 0.7470 0.7400
13.161297 0.7330 0.7260 0.7190 0.7120 0.7040
13.196000 0.6970 0.6900 0.6830 0.6760 0.6700
13.230297 0.6630 0.6560 0.6470 0.6410 0.6320
13.264000 0.6250 0.6180 0.6100 0.6010 0.5930
13.298297 0.5840 0.5740 0.5620 0.5530 0.5430
13.333000 0.5330 0.5230 0.5140 0.5070 0.4990
13.367297 0.4950 0.4900 0.4850 0.4830 0.4820
13.402000 0.4800 0.4760 0.4730 0.4700 0.4700
13.436297 0.4680 0.4680 0.4680 0.4680 0.4660
13.470000 0.4660 0.4660 0.4640 0.4590 0.4590
13.504297 0.4540 0.4470 0.4440 0.4390 0.4340
13.539000 0.4290 0.4220 0.4130 0.4030 0.3980
13.573297 0.3930 0.3880 0.3770 0.3670 0.3580
13.607000 0.3430 0.3350 0.3210 0.3210 0.3120
13.641297 0.3090 0.3050 0.3000 0.2970 0.2970
13.676000 0.2970 0.2970 0.2990 0.3170 0.3260
13.710297 0.3410 0.3600 0.3720 0.3930 0.4130
13.744000 0.4320 0.4510 0.4680 0.4900 0.5050
13.778297 0.5120 0.5210 0.5330 0.5480 0.5640
13.813000 0.5810 0.5930 0.6010 0.6100 0.6170
13.847297 0.6230 0.6340 0.6420 0.6470 0.6490
13.881000 0.6580 0.6630 0.6660 0.6700 0.6760
13.915297 0.6800 0.6870 0.6880 0.6950 0.6990
13.950000 0.6990 0.7020 0.7050 0.7070 0.7090
13.984297 0.7110 0.7120 0.7140 0.7160 0.7160
14.019000 0.7160 0.7160 0.7170 0.7170 0.7170
14.053297 0.7190 0.7210 0.7210 0.7230 0.7240
14.087000 0.7240 0.7240 0.7240 0.7240 0.7240
14.121297 0.7240 0.7240 0.7240 0.7240 0.7240
14.156000 0.7240 0.7240 0.7240 0.7230 0.7210
14.190297 0.7210 0.7190 0.7190 0.7170 0.7170
14.224000 0.7160 0.7160 0.7140 0.7140 0.7120
14.258297 0.7110 0.7110 0.7090 0.7050 0.7050
14.293000 0.7040 0.7020 0.7000 0.7000 0.6990
14.327297 0.6970 0.6950 0.6940 0.6900 0.6880
14.361000 0.6880 0.6880 0.6880 0.6880 0.6870
14.395297 0.6870 0.6850 0.6820 0.6800 0.6780
14.430000 0.6760 0.6760 0.6750 0.6750 0.6730
14.464297 0.6730 0.6710 0.6700 0.6680 0.6660
14.499000 0.6640 0.6610 0.6590 0.6580 0.6560
14.533297 0.6560 0.6560 0.6510 0.6490 0.6510
14.567000 0.6490 0.6470 0.6470 0.6440 0.6440
14.601297 0.6410 0.6420 0.6410 0.6410 0.6410
14.636000 0.6390 0.6370 0.6350 0.6350 0.6340
14.670297 0.6300 0.6290 0.6270 0.6250 0.6250
14.704000 0.6230 0.6220 0.6200 0.6180 0.6180
14.738297 0.6180 0.6170 0.6150 0.6130 0.6110
14.773000 0.6100 0.6080 0.6060 0.6060 0.6060
14.807297 0.6030 0.6030 0.6010 0.6010 0.6000
14.841000 0.6000 0.5980 0.5960 0.5940 0.5930
14.875297 0.5890 0.5880 0.5820 0.5810 0.5790
14.910000 0.5740 0.5740 0.5720 0.5700 0.5690
14.944297 0.5690 0.5690 0.5690 0.5690 0.5690
14.978000 0.5690 0.5690 0.5690 0.5690 0.5690
15.012297 0.5690 0.5690 0.5690 0.5670 0.5670
15.047000 0.5650 0.5640 0.5620 0.5600 0.5570
15.081297 0.5530 0.5520 0.5500 0.5480 0.5430
15.116000 0.5410 0.5380 0.5360 0.5310 0.5290
15.150297 0.5280 0.5260 0.5260 0.5240 0.5230
15.184000 0.5210 0.5170 0.5160 0.5110 0.5050
15.218297 0.5040 0.5000 0.4990 0.4990 0.4970
15.253000 0.4940 0.4880 0.4870 0.4830 0.4800
15.287297 0.4780 0.4750 0.4710 0.4700 0.4680
15.321000 0.4630 0.4590 0.4580 0.4510 0.4490
15.355297 0.4470 0.4440 0.4420 0.4410 0.4370
15.390000 0.4350 0.4320 0.4290 0.4290 0.4270
15.424297 0.4270 0.4250 0.4250 0.4230 0.4230
15.458000 0.4230 0.4230 0.4230 0.4230 0.4220
15.492297 0.4220 0.4220 0.4220 0.4230 0.4230
15.527000 0.4230 0.4230 0.4230 0.4230 0.4250
15.561297 0.4250 0.4250 0.4250 0.4250 0.4250
15.595000 0.4250 0.4250 0.4250 0.4270 0.4270
15.629297 0.4270 0.4270 0.4270 0.4270 0.4270
15.664000 0.4270 0.4270 0.4270 0.4250 0.4250
15.698297 0.4230 0.4250 0.4250 0.4250 0.4250
15.733000 0.4230 0.4230 0.4220 0.4220 0.4220
15.767297 0.4200 0.4200 0.4200 0.4180 0.4170
15.801000 0.4170 0.4170 0.4170 0.4170 0.4150
15.835297 0.4150 0.4150 0.4150 0.4150 0.4150
15.870000 0.4150 0.4150 0.4150 0.4150
##END=
