##TITLE=ANDROSTANE-3,17-DIONE, (5Alpha), 2,2,4,4,16,16-HEXADEUTERIO-
##JCAMP-DX=4.24
##DATA TYPE=INFRARED SPECTRUM
##CLASS=COBLENTZ III
##ORIGIN=N. L. McNIVEN- THE WORCESTER FOUNDATION FOR EXPERIMENTAL BIOLOGY
##OWNER=COBLENTZ SOCIETY
Collection (C) 2018 copyright by the U.S. Secretary of Commerce
on behalf of the United States of America. All rights reserved.
##DATE=1963/03/20
##MOLFORM=C19 H22 O2 D6
##SOURCE REFERENCE=COBLENTZ NO. 9861
##$NIST ID=B6009861
##$NIST SOURCE=COBLENTZ
##$NIST IMAGE=cob9861
##SPECTROMETER/DATA SYSTEM=BECKMAN IR-7
##STATE=SOLID (KBr DISC)
##SAMPLING PROCEDURE=TRANSMISSION
##RESOLUTION=4
##DATA PROCESSING=DIGITIZED BY NIST FROM HARD COPY (FROM TWO SEGMENTS)
##XUNITS=1/CM
##YUNITS=TRANSMITTANCE
##XFACTOR=1.000000
##YFACTOR=1
##DELTAX=0.660794
##FIRSTX=640.088
##LASTX=3990.98
##FIRSTY=0.69
##MAXX=3990.98
##MINX=640.088
##MAXY=0.95
##MINY=0.06
##NPOINTS=5072
##XYDATA=(X++(Y..Y))
640.088000 0.6900 0.6900 0.6940 0.6960 0.7000
643.391972 0.7020 0.7060 0.7090 0.7110 0.7130
646.695944 0.7140 0.7140 0.7150 0.7170 0.7200
649.999916 0.7230 0.7270 0.7320 0.7370 0.7430
653.303888 0.7490 0.7540 0.7610 0.7670 0.7780
656.607860 0.7830 0.7870 0.7910 0.7950 0.7950
659.911833 0.7960 0.7960 0.7970 0.7970 0.7970
663.215805 0.7990 0.8020 0.8070 0.8110 0.8170
666.519777 0.8220 0.8260 0.8270 0.8290 0.8290
669.823749 0.8200 0.8090 0.7990 0.7831 0.7760
673.127721 0.7690 0.7810 0.7910 0.8040 0.8160
676.431693 0.8220 0.8320 0.8320 0.8320 0.8320
679.735665 0.8310 0.8300 0.8300 0.8300 0.8290
683.039637 0.8270 0.8260 0.8240 0.8230 0.8220
686.343609 0.8230 0.8260 0.8300 0.8340 0.8370
689.647581 0.8420 0.8430 0.8440 0.8470 0.8480
692.951553 0.8490 0.8480 0.8450 0.8420 0.8390
696.255526 0.8360 0.8330 0.8300 0.8270 0.8240
699.559498 0.8220 0.8160 0.8010 0.7880 0.7770
702.863470 0.7750 0.7770 0.7890 0.8000 0.8090
706.167442 0.8160 0.8220 0.8260 0.8280 0.8300
709.471414 0.8320 0.8320 0.8330 0.8320 0.8320
712.775386 0.8320 0.8310 0.8320 0.8330 0.8360
716.079358 0.8380 0.8390 0.8420 0.8440 0.8460
719.383330 0.8460 0.8480 0.8480 0.8480 0.8500
722.687302 0.8510 0.8520 0.8560 0.8590 0.8620
725.991274 0.8640 0.8670 0.8700 0.8710 0.8710
729.295247 0.8700 0.8660 0.8610 0.8560 0.8520
732.599219 0.8480 0.8440 0.8400 0.8360 0.8320
735.903191 0.8280 0.8240 0.8200 0.8140 0.8100
739.207163 0.8040 0.7980 0.7930 0.7860 0.7790
742.511135 0.7760 0.7730 0.7670 0.7670 0.7809
745.815107 0.7850 0.7970 0.8060 0.8140 0.8210
749.119079 0.8280 0.8340 0.8400 0.8420 0.8450
752.423051 0.8470 0.8490 0.8520 0.8530 0.8550
755.727023 0.8570 0.8590 0.8610 0.8630 0.8660
759.030995 0.8680 0.8700 0.8730 0.8750 0.8780
762.334967 0.8790 0.8790 0.8800 0.8800 0.8800
765.638940 0.8800 0.8750 0.8750 0.8740 0.8740
768.942912 0.8740 0.8750 0.8790 0.8810 0.8850
772.246884 0.8870 0.8890 0.8890 0.8900 0.8900
775.550856 0.8890 0.8890 0.8890 0.8880 0.8880
778.854828 0.8870 0.8870 0.8870 0.8860 0.8860
782.158800 0.8870 0.8890 0.8890 0.8910 0.8910
785.462772 0.8910 0.8920 0.8920 0.8910 0.8910
788.766744 0.8910 0.8910 0.8900 0.8900 0.8900
792.070716 0.8900 0.8900 0.8910 0.8910 0.8910
795.374688 0.8910 0.8920 0.8920 0.8880 0.8810
798.678660 0.8770 0.8730 0.8660 0.8600 0.8520
801.982633 0.8510 0.8520 0.8580 0.8620 0.8660
805.286605 0.8700 0.8740 0.8770 0.8800 0.8830
808.590577 0.8870 0.8920 0.8930 0.8950 0.8950
811.894549 0.8950 0.8860 0.8840 0.8780 0.8740
815.198521 0.8570 0.8420 0.8310 0.8200 0.8120
818.502493 0.8030 0.7900 0.7800 0.7790 0.7810
821.806465 0.7840 0.7970 0.8100 0.8260 0.8370
825.110437 0.8460 0.8510 0.8550 0.8580 0.8610
828.414409 0.8660 0.8720 0.8750 0.8790 0.8830
831.718381 0.8850 0.8880 0.8890 0.8910 0.8950
835.022353 0.8970 0.8990 0.8990 0.9000 0.9010
838.326326 0.9010 0.9010 0.9020 0.9030 0.9030
841.630298 0.9030 0.9030 0.9020 0.8990 0.8960
844.934270 0.8910 0.8850 0.8790 0.8750 0.8700
848.238242 0.8660 0.8610 0.8550 0.8510 0.8500
851.542214 0.8500 0.8610 0.8670 0.8750 0.8770
854.846186 0.8740 0.8620 0.8600 0.8570 0.8500
858.150158 0.8500 0.8500 0.8500 0.8530 0.8550
861.454130 0.8610 0.8660 0.8700 0.8720 0.8740
864.758102 0.8740 0.8760 0.8750 0.8750 0.8740
868.062074 0.8710 0.8700 0.8700 0.8700 0.8730
871.366047 0.8750 0.8770 0.8790 0.8820 0.8840
874.670019 0.8850 0.8870 0.8870 0.8880 0.8880
877.973991 0.8860 0.8810 0.8740 0.8680 0.8560
881.277963 0.8440 0.8380 0.8360 0.8360 0.8360
884.581935 0.8360 0.8360 0.8350 0.8250 0.8130
887.885907 0.8000 0.7850 0.7770 0.7690 0.7680
891.189879 0.7770 0.8020 0.8100 0.8270 0.8360
894.493851 0.8420 0.8500 0.8580 0.8650 0.8680
897.797823 0.8700 0.8720 0.8730 0.8740 0.8740
901.101795 0.8730 0.8730 0.8710 0.8690 0.8650
904.405767 0.8600 0.8540 0.8480 0.8400 0.8380
907.709740 0.8390 0.8480 0.8560 0.8640 0.8700
911.013712 0.8750 0.8790 0.8830 0.8860 0.8870
914.317684 0.8880 0.8880 0.8880 0.8870 0.8860
917.621656 0.8830 0.8830 0.8790 0.8760 0.8720
920.925628 0.8670 0.8650 0.8570 0.8560 0.8560
924.229600 0.8560 0.8570 0.8580 0.8600 0.8670
927.533572 0.8700 0.8700 0.8710 0.8700 0.8710
930.837544 0.8700 0.8680 0.8620 0.8580 0.8520
934.141516 0.8420 0.8141 0.8100 0.8100 0.8120
937.445488 0.8140 0.8220 0.8280 0.8310 0.8340
940.749460 0.8380 0.8420 0.8460 0.8490 0.8500
944.053433 0.8510 0.8520 0.8520 0.8500 0.8430
947.357405 0.8390 0.8280 0.8220 0.8090 0.8030
950.661377 0.8010 0.7940 0.7860 0.7780 0.7760
953.965349 0.7730 0.7730 0.7790 0.7910 0.7990
957.269321 0.8060 0.8120 0.8180 0.8240 0.8300
960.573293 0.8300 0.8300 0.8300 0.8290 0.8180
963.877265 0.8080 0.7980 0.7870 0.7780 0.7730
967.181237 0.7690 0.7610 0.7600 0.7610 0.7660
970.485209 0.7820 0.7890 0.7920 0.8020 0.8040
973.789181 0.8040 0.8030 0.8030 0.7940 0.7920
977.093153 0.7830 0.7830 0.7830 0.7890 0.7960
980.397126 0.8040 0.8160 0.8220 0.8260 0.8260
983.701098 0.8270 0.8280 0.8300 0.8300 0.8310
987.005070 0.8300 0.8290 0.8280 0.8260 0.8240
990.309042 0.8210 0.8140 0.8090 0.8030 0.7830
993.613014 0.7770 0.7690 0.7580 0.7271 0.7001
996.916986 0.6780 0.6570 0.6560 0.6550 0.6570
1000.220958 0.6710 0.6850 0.6930 0.7020 0.7100
1003.524930 0.7180 0.7260 0.7320 0.7380 0.7420
1006.828902 0.7440 0.7470 0.7530 0.7530 0.7530
1010.132874 0.7530 0.7460 0.7400 0.7120 0.6610
1013.436846 0.6160 0.5821 0.5531 0.5510 0.5530
1016.740819 0.5570 0.5640 0.5760 0.5840 0.5900
1020.044791 0.6010 0.6030 0.6050 0.6050 0.5900
1023.348763 0.5920 0.5940 0.5980 0.6060 0.6120
1026.652735 0.6190 0.6290 0.6400 0.6480 0.6540
1029.956707 0.6620 0.6730 0.6730 0.6720 0.6630
1033.260679 0.6610 0.6490 0.6370 0.6240 0.6140
1036.564651 0.5940 0.5540 0.5520 0.5520 0.5530
1039.868623 0.5620 0.5700 0.5840 0.6019 0.6169
1043.172595 0.6310 0.6420 0.6520 0.6590 0.6640
1046.476567 0.6710 0.6730 0.6730 0.6630 0.6570
1049.780540 0.6520 0.6480 0.6430 0.6350 0.6300
1053.084512 0.6290 0.6290 0.6290 0.6290 0.6290
1056.388484 0.6230 0.6100 0.5930 0.5640 0.5360
1059.692456 0.4312 0.3542 0.3530 0.3530 0.3679
1062.996428 0.3820 0.3890 0.4230 0.4490 0.4780
1066.300400 0.5069 0.5619 0.5869 0.6099 0.6289
1069.604372 0.6450 0.6570 0.6630 0.6790 0.6920
1072.908344 0.7050 0.7140 0.7200 0.7200 0.7240
1076.212316 0.7260 0.7290 0.7320 0.7340 0.7370
1079.516288 0.7400 0.7430 0.7470 0.7510 0.7570
1082.820260 0.7640 0.7800 0.7900 0.7950 0.7990
1086.124233 0.8070 0.8070 0.8080 0.8090 0.8090
1089.428205 0.8100 0.8090 0.8090 0.8070 0.8070
1092.732177 0.8050 0.8030 0.8010 0.7970 0.7930
1096.036149 0.7910 0.7900 0.7890 0.7890 0.7890
1099.340121 0.7880 0.7870 0.7870 0.7870 0.7870
1102.644093 0.7870 0.7880 0.7890 0.7890 0.7900
1105.948065 0.7910 0.7920 0.7930 0.7930 0.7930
1109.252037 0.7940 0.7950 0.7950 0.7940 0.7930
1112.556009 0.7930 0.7910 0.7890 0.7890 0.7880
1115.859981 0.7820 0.7770 0.7730 0.7670 0.7540
1119.163953 0.7430 0.7380 0.7280 0.7190 0.7030
1122.467926 0.7020 0.7020 0.7020 0.7030 0.7060
1125.771898 0.7120 0.7150 0.7190 0.7240 0.7260
1129.075870 0.7280 0.7320 0.7350 0.7360 0.7360
1132.379842 0.7350 0.7320 0.7260 0.7210 0.7160
1135.683814 0.7120 0.7080 0.7030 0.6970 0.6920
1138.987786 0.6880 0.6880 0.6900 0.6960 0.7020
1142.291758 0.7140 0.7230 0.7340 0.7420 0.7500
1145.595730 0.7560 0.7610 0.7670 0.7750 0.7790
1148.899702 0.7820 0.7850 0.7850 0.7840 0.7830
1152.203674 0.7810 0.7790 0.7730 0.7650 0.7481
1155.507646 0.7380 0.7300 0.7190 0.7180 0.7180
1158.811619 0.7400 0.7540 0.7620 0.7750 0.7810
1162.115591 0.7840 0.7910 0.7920 0.7930 0.7970
1165.419563 0.7990 0.8000 0.7980 0.7950 0.7910
1168.723535 0.7870 0.7830 0.7790 0.7750 0.7710
1172.027507 0.7570 0.7360 0.7030 0.6571 0.5971
1175.331479 0.5760 0.5550 0.5460 0.5370 0.5060
1178.635451 0.4760 0.4440 0.4430 0.4440 0.4540
1181.939423 0.4842 0.5561 0.5870 0.6160 0.6430
1185.243395 0.6670 0.6880 0.7080 0.7260 0.7420
1188.547367 0.7551 0.7790 0.7890 0.7980 0.8050
1191.851340 0.8120 0.8180 0.8230 0.8280 0.8320
1195.155312 0.8360 0.8380 0.8380 0.8380 0.8350
1198.459284 0.8310 0.8280 0.8160 0.7970 0.7770
1201.763256 0.7680 0.7590 0.7400 0.7220 0.7050
1205.067228 0.6900 0.6750 0.6610 0.6560 0.6550
1208.371200 0.6640 0.6750 0.6870 0.6970 0.7080
1211.675172 0.7190 0.7290 0.7390 0.7490 0.7570
1214.979144 0.7660 0.7800 0.7860 0.7910 0.7920
1218.283116 0.7920 0.7900 0.7870 0.7780 0.7730
1221.587088 0.7690 0.7540 0.7410 0.7270 0.7140
1224.891060 0.6980 0.6970 0.6980 0.7090 0.7270
1228.195033 0.7420 0.7550 0.7750 0.7840 0.7920
1231.499005 0.8000 0.8080 0.8160 0.8200 0.8210
1234.802977 0.8220 0.8230 0.8230 0.8230 0.8210
1238.106949 0.8200 0.8160 0.8130 0.8100 0.7990
1241.410921 0.7830 0.7750 0.7670 0.7510 0.7170
1244.714893 0.6720 0.6001 0.5661 0.5331 0.5290
1248.018865 0.5330 0.5590 0.5710 0.5810 0.5880
1251.322837 0.5930 0.5970 0.6010 0.6040 0.6060
1254.626809 0.6100 0.6140 0.6200 0.6250 0.6310
1257.930781 0.6370 0.6430 0.6510 0.6580 0.6650
1261.234753 0.6670 0.6680 0.6650 0.6600 0.6530
1264.538726 0.6510 0.6520 0.6749 0.6850 0.6940
1267.842698 0.7050 0.7210 0.7350 0.7480 0.7580
1271.146670 0.7770 0.7850 0.7910 0.7950 0.8010
1274.450642 0.8110 0.8190 0.8260 0.8290 0.8320
1277.754614 0.8320 0.8330 0.8340 0.8330 0.8290
1281.058586 0.8200 0.8070 0.7880 0.7790 0.7690
1284.362558 0.7610 0.7440 0.7100 0.7100 0.7100
1287.666530 0.7100 0.7100 0.7100 0.7110 0.7120
1290.970502 0.7120 0.7120 0.7120 0.7120 0.7130
1294.274474 0.7200 0.7280 0.7360 0.7460 0.7570
1297.578446 0.7810 0.7920 0.8040 0.8160 0.8270
1300.882419 0.8370 0.8470 0.8520 0.8540 0.8540
1304.186391 0.8560 0.8570 0.8580 0.8600 0.8610
1307.490363 0.8620 0.8640 0.8650 0.8660 0.8680
1310.794335 0.8690 0.8700 0.8710 0.8720 0.8720
1314.098307 0.8720 0.8710 0.8700 0.8670 0.8620
1317.402279 0.8570 0.8500 0.8420 0.8320 0.8260
1320.706251 0.8190 0.8120 0.8030 0.7950 0.7870
1324.010223 0.7790 0.7760 0.7730 0.7670 0.7620
1327.314195 0.7530 0.7530 0.7570 0.7580 0.7630
1330.618167 0.7670 0.7790 0.7790 0.7790 0.7760
1333.922140 0.7730 0.7710 0.7590 0.7560 0.7510
1337.226112 0.7480 0.7460 0.7450 0.7460 0.7500
1340.530084 0.7570 0.7760 0.7870 0.7980 0.8090
1343.834056 0.8170 0.8230 0.8260 0.8290 0.8300
1347.138028 0.8300 0.8300 0.8310 0.8310 0.8310
1350.442000 0.8310 0.8310 0.8310 0.8310 0.8310
1353.745972 0.8300 0.8260 0.8270 0.8260 0.8220
1357.049944 0.8170 0.8110 0.8040 0.7970 0.7890
1360.353916 0.7810 0.7770 0.7730 0.7550 0.7430
1363.657888 0.7420 0.7420 0.7500 0.7570 0.7630
1366.961860 0.7690 0.7780 0.7810 0.7850 0.7870
1370.265833 0.7870 0.7870 0.7830 0.7770 0.7700
1373.569805 0.7379 0.7109 0.6839 0.6119 0.5390
1376.873777 0.5370 0.5530 0.5670 0.5820 0.5960
1380.177749 0.6091 0.6411 0.6750 0.6770 0.6730
1383.481721 0.6570 0.6410 0.6240 0.6080 0.5900
1386.785693 0.5740 0.5580 0.5500 0.5420 0.5260
1390.089665 0.5260 0.5600 0.5760 0.6239 0.6589
1393.393637 0.6840 0.7000 0.7130 0.7240 0.7350
1396.697609 0.7480 0.7590 0.7770 0.7830 0.7890
1400.001581 0.7950 0.7990 0.8030 0.8050 0.8080
1403.305553 0.8100 0.8120 0.8140 0.8160 0.8180
1406.609526 0.8200 0.8220 0.8230 0.8240 0.8240
1409.913498 0.8240 0.8240 0.8250 0.8250 0.8260
1413.217470 0.8260 0.8260 0.8260 0.8260 0.8260
1416.521442 0.8250 0.8250 0.8250 0.8240 0.8240
1419.825414 0.8240 0.8240 0.8240 0.8220 0.8220
1423.129386 0.8200 0.8190 0.8180 0.8170 0.8140
1426.433358 0.8100 0.8050 0.7970 0.7870 0.7800
1429.737330 0.7730 0.7570 0.7360 0.7100 0.6801
1433.041302 0.6429 0.6089 0.5740 0.5610 0.5470
1436.345274 0.5230 0.5210 0.5200 0.5190 0.5080
1439.649246 0.4980 0.4800 0.4790 0.4800 0.4870
1442.953219 0.4970 0.5330 0.5330 0.5310 0.5300
1446.257191 0.5210 0.5150 0.4980 0.4820 0.4660
1449.561163 0.4470 0.4460 0.4460 0.4540 0.4900
1452.865135 0.5211 0.5640 0.5780 0.5900 0.5990
1456.169107 0.6070 0.6150 0.6240 0.6340 0.6470
1459.473079 0.6641 0.6860 0.6940 0.7110 0.7180
1462.777051 0.7180 0.7100 0.7020 0.7000 0.7010
1466.081023 0.7040 0.7080 0.7140 0.7180 0.7200
1469.384995 0.7220 0.7240 0.7260 0.7290 0.7340
1472.688967 0.7410 0.7501 0.7790 0.7870 0.7940
1475.992939 0.8010 0.8080 0.8150 0.8210 0.8280
1479.296912 0.8340 0.8400 0.8450 0.8510 0.8560
1482.600884 0.8620 0.8670 0.8720 0.8740 0.8760
1485.904856 0.8770 0.8770 0.8790 0.8790 0.8800
1489.208828 0.8810 0.8820 0.8840 0.8890 0.8910
1492.512800 0.8930 0.8950 0.8950 0.8950 0.8960
1495.816772 0.8960 0.8970 0.8970 0.8970 0.8980
1499.120744 0.8980 0.8990 0.8990 0.8990 0.8990
1502.424716 0.9000 0.9000 0.9000 0.9000 0.9010
1505.728688 0.9010 0.9010 0.9010 0.9010 0.9020
1509.032660 0.9020 0.9020 0.9030 0.9030 0.9030
1512.336633 0.9030 0.9030 0.9030 0.9040 0.9040
1515.640605 0.9040 0.9050 0.9050 0.9050 0.9050
1518.944577 0.9050 0.9050 0.9050 0.9060 0.9060
1522.248549 0.9070 0.9070 0.9070 0.9070 0.9070
1525.552521 0.9080 0.9080 0.9090 0.9090 0.9090
1528.856493 0.9090 0.9090 0.9100 0.9100 0.9100
1532.160465 0.9100 0.9100 0.9100 0.9100 0.9100
1535.464437 0.9100 0.9100 0.9100 0.9100 0.9100
1538.768409 0.9100 0.9100 0.9100 0.9090 0.9090
1542.072381 0.9090 0.9090 0.9090 0.9090 0.9080
1545.376353 0.9080 0.9070 0.9070 0.9070 0.9070
1548.680326 0.9070 0.9060 0.9060 0.9060 0.9050
1551.984298 0.9050 0.9050 0.9050 0.9050 0.9040
1555.288270 0.9040 0.9030 0.9030 0.9030 0.9030
1558.592242 0.9020 0.9020 0.9010 0.9010 0.9010
1561.896214 0.9010 0.9010 0.9000 0.9000 0.8990
1565.200186 0.8990 0.8990 0.8990 0.8980 0.8970
1568.504158 0.8970 0.8970 0.8960 0.8950 0.8950
1571.808130 0.8950 0.8940 0.8940 0.8930 0.8930
1575.112102 0.8930 0.8920 0.8910 0.8910 0.8910
1578.416074 0.8910 0.8910 0.8900 0.8890 0.8890
1581.720046 0.8880 0.8870 0.8860 0.8850 0.8830
1585.024019 0.8830 0.8820 0.8810 0.8800 0.8790
1588.327991 0.8790 0.8790 0.8770 0.8760 0.8740
1591.631963 0.8730 0.8720 0.8710 0.8710 0.8700
1594.935935 0.8700 0.8690 0.8680 0.8680 0.8670
1598.239907 0.8660 0.8660 0.8650 0.8640 0.8640
1601.543879 0.8630 0.8610 0.8600 0.8580 0.8560
1604.847851 0.8560 0.8550 0.8540 0.8530 0.8520
1608.151823 0.8510 0.8500 0.8480 0.8470 0.8450
1611.455795 0.8430 0.8400 0.8360 0.8320 0.8300
1614.759767 0.8240 0.8220 0.8230 0.8250 0.8270
1618.063739 0.8280 0.8290 0.8290 0.8300 0.8300
1621.367712 0.8300 0.8300 0.8300 0.8310 0.8310
1624.671684 0.8310 0.8310 0.8310 0.8310 0.8310
1627.975656 0.8310 0.8310 0.8300 0.8300 0.8290
1631.279628 0.8280 0.8270 0.8260 0.8250 0.8240
1634.583600 0.8230 0.8220 0.8220 0.8210 0.8200
1637.887572 0.8200 0.8180 0.8120 0.8080 0.8070
1641.191544 0.8070 0.8050 0.8050 0.8030 0.8030
1644.495516 0.8020 0.8010 0.8000 0.7990 0.7980
1647.799488 0.7970 0.7950 0.7930 0.7930 0.7910
1651.103460 0.7900 0.7890 0.7880 0.7870 0.7850
1654.407433 0.7840 0.7830 0.7790 0.7770 0.7740
1657.711405 0.7700 0.7670 0.7650 0.7620 0.7590
1661.015377 0.7560 0.7510 0.7440 0.7360 0.7340
1664.319349 0.7280 0.7220 0.7160 0.7120 0.7100
1667.623321 0.7100 0.7100 0.7090 0.7090 0.7060
1670.927293 0.7050 0.7000 0.6970 0.6940 0.6870
1674.231265 0.6850 0.6790 0.6710 0.6610 0.6490
1677.535237 0.6350 0.6220 0.6100 0.5970 0.5860
1680.839209 0.5780 0.5700 0.5580 0.5510 0.5430
1684.143181 0.5259 0.5069 0.4880 0.4690 0.4500
1687.447153 0.4350 0.4200 0.4090 0.4030 0.4010
1690.751126 0.3830 0.3720 0.3720 0.3700 0.3680
1694.055098 0.3650 0.3440 0.3220 0.2830 0.2790
1697.359070 0.2760 0.2729 0.2379 0.2029 0.1699
1700.663042 0.1070 0.1020 0.0960 0.0880 0.0860
1703.967014 0.0780 0.0720 0.0670 0.0660 0.0640
1707.270986 0.0610 0.0610 0.0600 0.0600 0.0610
1710.574958 0.0620 0.0650 0.0820 0.0820 0.0840
1713.878930 0.1010 0.1170 0.1310 0.1360 0.1420
1717.182902 0.1430 0.1510 0.1600 0.1690 0.1770
1720.486874 0.1850 0.1940 0.2020 0.2080 0.2070
1723.790846 0.2050 0.1990 0.1980 0.1950 0.1920
1727.094819 0.1890 0.1880 0.1890 0.1900 0.1920
1730.398791 0.1960 0.1990 0.1990 0.1970 0.1940
1733.702763 0.1880 0.1830 0.1790 0.1750 0.1710
1737.006735 0.1670 0.1650 0.1620 0.1590 0.1560
1740.310707 0.1490 0.1450 0.1430 0.1420 0.1430
1743.614679 0.1510 0.1571 0.1741 0.1941 0.2171
1746.918651 0.2430 0.2691 0.3240 0.3500 0.3750
1750.222623 0.3951 0.4131 0.4290 0.4350 0.4370
1753.526595 0.4450 0.4560 0.4680 0.4810 0.4940
1756.830567 0.5050 0.5130 0.5201 0.5490 0.5680
1760.134539 0.5880 0.6070 0.6210 0.6310 0.6330
1763.438512 0.6451 0.6591 0.6750 0.6900 0.7040
1766.742484 0.7160 0.7230 0.7240 0.7320 0.7380
1770.046456 0.7460 0.7530 0.7610 0.7770 0.7850
1773.350428 0.7930 0.7950 0.7960 0.7970 0.7990
1776.654400 0.8010 0.8040 0.8070 0.8080 0.8110
1779.958372 0.8140 0.8160 0.8200 0.8220 0.8250
1783.262344 0.8280 0.8310 0.8340 0.8360 0.8390
1786.566316 0.8420 0.8450 0.8480 0.8500 0.8540
1789.870288 0.8570 0.8600 0.8640 0.8670 0.8700
1793.174260 0.8740 0.8750 0.8750 0.8750 0.8760
1796.478233 0.8760 0.8760 0.8760 0.8760 0.8750
1799.782205 0.8750 0.8750 0.8740 0.8680 0.8670
1803.086177 0.8670 0.8680 0.8690 0.8700 0.8720
1806.390149 0.8740 0.8760 0.8790 0.8830 0.8860
1809.694121 0.8900 0.8950 0.8990 0.9010 0.9030
1812.998093 0.9040 0.9050 0.9050 0.9060 0.9070
1816.302065 0.9070 0.9080 0.9090 0.9100 0.9110
1819.606037 0.9130 0.9140 0.9150 0.9170 0.9180
1822.910009 0.9190 0.9200 0.9210 0.9220 0.9220
1826.213981 0.9230 0.9230 0.9240 0.9260 0.9270
1829.517953 0.9290 0.9290 0.9290 0.9300 0.9300
1832.821926 0.9310 0.9310 0.9310 0.9310 0.9310
1836.125898 0.9320 0.9320 0.9320 0.9330 0.9330
1839.429870 0.9330 0.9330 0.9330 0.9330 0.9340
1842.733842 0.9350 0.9370 0.9380 0.9380 0.9380
1846.037814 0.9380 0.9380 0.9390 0.9390 0.9390
1849.341786 0.9390 0.9390 0.9390 0.9390 0.9390
1852.645758 0.9390 0.9390 0.9400 0.9400 0.9400
1855.949730 0.9400 0.9400 0.9400 0.9400 0.9400
1859.253702 0.9400 0.9400 0.9410 0.9410 0.9410
1862.557674 0.9410 0.9410 0.9420 0.9420 0.9420
1865.861646 0.9420 0.9420 0.9420 0.9420 0.9420
1869.165619 0.9430 0.9430 0.9430 0.9440 0.9440
1872.469591 0.9440 0.9440 0.9440 0.9450 0.9450
1875.773563 0.9450 0.9450 0.9450 0.9450 0.9450
1879.077535 0.9450 0.9450 0.9450 0.9450 0.9450
1882.381507 0.9450 0.9450 0.9450 0.9450 0.9450
1885.685479 0.9450 0.9450 0.9450 0.9450 0.9450
1888.989451 0.9450 0.9450 0.9450 0.9450 0.9450
1892.293423 0.9450 0.9450 0.9450 0.9450 0.9450
1895.597395 0.9450 0.9460 0.9460 0.9460 0.9460
1898.901367 0.9460 0.9460 0.9460 0.9460 0.9460
1902.205339 0.9460 0.9460 0.9460 0.9460 0.9460
1905.509312 0.9460 0.9460 0.9460 0.9460 0.9460
1908.813284 0.9460 0.9460 0.9460 0.9460 0.9460
1912.117256 0.9460 0.9460 0.9460 0.9460 0.9460
1915.421228 0.9460 0.9460 0.9460 0.9460 0.9470
1918.725200 0.9470 0.9470 0.9470 0.9470 0.9470
1922.029172 0.9470 0.9470 0.9470 0.9470 0.9470
1925.333144 0.9470 0.9470 0.9470 0.9470 0.9470
1928.637116 0.9470 0.9470 0.9470 0.9470 0.9470
1931.941088 0.9470 0.9470 0.9470 0.9470 0.9470
1935.245060 0.9470 0.9480 0.9480 0.9480 0.9480
1938.549032 0.9480 0.9480 0.9480 0.9480 0.9480
1941.853005 0.9480 0.9480 0.9480 0.9480 0.9480
1945.156977 0.9480 0.9480 0.9480 0.9480 0.9480
1948.460949 0.9480 0.9480 0.9480 0.9480 0.9470
1951.764921 0.9470 0.9460 0.9460 0.9460 0.9460
1955.068893 0.9460 0.9460 0.9460 0.9460 0.9460
1958.372865 0.9460 0.9470 0.9470 0.9480 0.9480
1961.676837 0.9480 0.9480 0.9490 0.9490 0.9490
1964.980809 0.9490 0.9490 0.9490 0.9490 0.9490
1968.284781 0.9500 0.9500 0.9500 0.9500 0.9500
1971.588753 0.9500 0.9490 0.9490 0.9490 0.9490
1974.892726 0.9490 0.9490 0.9490 0.9490 0.9490
1978.196698 0.9490 0.9490 0.9490 0.9490 0.9490
1981.500670 0.9490 0.9490 0.9490 0.9500 0.9500
1984.804642 0.9500 0.9500 0.9500 0.9500 0.9500
1988.108614 0.9500 0.9500 0.9500 0.9500 0.9500
1991.412586 0.9500 0.9500 0.9500 0.9500 0.9500
1994.716558 0.9500 0.9500 0.9500 0.9500 0.9500
1998.020530 0.9500 0.9500 0.9500 0.9500 0.9500
2001.324502 0.9500 0.9500 0.9500 0.9500 0.9500
2004.628474 0.9500 0.9500 0.9500 0.9500 0.9500
2007.932446 0.9500 0.9500 0.9500 0.9500 0.9500
2011.236419 0.9500 0.9500 0.9500 0.9500 0.9500
2014.540391 0.9500 0.9500 0.9500 0.9500 0.9500
2017.844363 0.9500 0.9500 0.9500 0.9500 0.9500
2021.148335 0.9500 0.9500 0.9500 0.9500 0.9500
2024.452307 0.9500 0.9500 0.9500 0.9500 0.9500
2027.756279 0.9500 0.9500 0.9500 0.9500 0.9500
2031.060251 0.9500 0.9500 0.9500 0.9500 0.9500
2034.364223 0.9500 0.9500 0.9500 0.9500 0.9500
2037.668195 0.9500 0.9500 0.9500 0.9500 0.9500
2040.972167 0.9500 0.9500 0.9500 0.9500 0.9500
2044.276139 0.9499 0.9497 0.9494 0.9492 0.9490
2047.580112 0.9490 0.9490 0.9490 0.9490 0.9490
2050.884084 0.9490 0.9490 0.9489 0.9486 0.9484
2054.188056 0.9481 0.9480 0.9480 0.9480 0.9480
2057.492028 0.9480 0.9480 0.9480 0.9480 0.9480
2060.796000 0.9480 0.9480 0.9480 0.9480 0.9480
2064.099972 0.9480 0.9480 0.9478 0.9475 0.9473
2067.403944 0.9470 0.9470 0.9470 0.9470 0.9470
2070.707916 0.9467 0.9465 0.9462 0.9460 0.9460
2074.011888 0.9460 0.9460 0.9460 0.9457 0.9454
2077.315860 0.9452 0.9450 0.9450 0.9450 0.9450
2080.619832 0.9449 0.9447 0.9444 0.9441 0.9440
2083.923805 0.9440 0.9440 0.9440 0.9439 0.9436
2087.227777 0.9434 0.9431 0.9429 0.9426 0.9424
2090.531749 0.9421 0.9420 0.9420 0.9420 0.9420
2093.835721 0.9416 0.9411 0.9406 0.9401 0.9396
2097.139693 0.9391 0.9386 0.9381 0.9376 0.9371
2100.443665 0.9366 0.9360 0.9355 0.9350 0.9345
2103.747637 0.9340 0.9332 0.9325 0.9317 0.9309
2107.051609 0.9304 0.9299 0.9294 0.9289 0.9281
2110.355581 0.9273 0.9266 0.9258 0.9251 0.9243
2113.659553 0.9235 0.9228 0.9223 0.9218 0.9213
2116.963526 0.9208 0.9203 0.9198 0.9193 0.9187
2120.267498 0.9179 0.9171 0.9164 0.9157 0.9152
2123.571470 0.9147 0.9142 0.9135 0.9128 0.9120
2126.875442 0.9113 0.9107 0.9101 0.9096 0.9091
2130.179414 0.9086 0.9081 0.9076 0.9071 0.9068
2133.483386 0.9065 0.9063 0.9060 0.9055 0.9050
2136.787358 0.9045 0.9040 0.9037 0.9035 0.9032
2140.091330 0.9030 0.9025 0.9019 0.9014 0.9009
2143.395302 0.9004 0.8999 0.8994 0.8990 0.8990
2146.699274 0.8990 0.8990 0.8990 0.8990 0.8990
2150.003246 0.8990 0.8990 0.8990 0.8990 0.8990
2153.307219 0.8990 0.8990 0.8990 0.8990 0.8991
2156.611191 0.8994 0.8996 0.8999 0.9002 0.9004
2159.915163 0.9007 0.9009 0.9013 0.9019 0.9024
2163.219135 0.9029 0.9032 0.9034 0.9037 0.9040
2166.523107 0.9042 0.9045 0.9047 0.9050 0.9055
2169.827079 0.9060 0.9065 0.9070 0.9072 0.9075
2173.131051 0.9078 0.9080 0.9083 0.9085 0.9088
2176.435023 0.9090 0.9093 0.9095 0.9098 0.9100
2179.738995 0.9103 0.9106 0.9108 0.9112 0.9117
2183.042967 0.9122 0.9127 0.9130 0.9130 0.9130
2186.346939 0.9130 0.9131 0.9134 0.9136 0.9139
2189.650912 0.9141 0.9144 0.9146 0.9149 0.9150
2192.954884 0.9150 0.9150 0.9150 0.9150 0.9150
2196.258856 0.9150 0.9150 0.9150 0.9150 0.9150
2199.562828 0.9150 0.9146 0.9141 0.9136 0.9131
2202.866800 0.9128 0.9125 0.9123 0.9120 0.9113
2206.170772 0.9105 0.9097 0.9088 0.9060 0.9032
2209.474744 0.9004 0.8971 0.8900 0.8828 0.8757
2212.778716 0.8692 0.8654 0.8616 0.8578 0.8545
2216.082688 0.8527 0.8510 0.8492 0.8473 0.8453
2219.386660 0.8432 0.8412 0.8392 0.8371 0.8351
2222.690632 0.8331 0.8319 0.8316 0.8314 0.8311
2225.994605 0.8311 0.8314 0.8316 0.8319 0.8339
2229.298577 0.8370 0.8400 0.8431 0.8465 0.8501
2232.602549 0.8537 0.8573 0.8605 0.8635 0.8666
2235.906521 0.8696 0.8722 0.8748 0.8773 0.8799
2239.210493 0.8822 0.8845 0.8868 0.8891 0.8913
2242.514465 0.8936 0.8959 0.8982 0.9000 0.9017
2245.818437 0.9035 0.9053 0.9068 0.9083 0.9098
2249.122409 0.9113 0.9126 0.9138 0.9151 0.9163
2252.426381 0.9173 0.9183 0.9194 0.9204 0.9214
2255.730353 0.9224 0.9234 0.9243 0.9251 0.9259
2259.034326 0.9267 0.9273 0.9278 0.9283 0.9288
2262.338298 0.9293 0.9298 0.9303 0.9309 0.9312
2265.642270 0.9314 0.9317 0.9319 0.9322 0.9325
2268.946242 0.9327 0.9330 0.9330 0.9330 0.9330
2272.250214 0.9330 0.9330 0.9330 0.9330 0.9330
2275.554186 0.9333 0.9335 0.9338 0.9340 0.9340
2278.858158 0.9340 0.9340 0.9340 0.9340 0.9340
2282.162130 0.9340 0.9340 0.9340 0.9340 0.9340
2285.466102 0.9340 0.9340 0.9340 0.9340 0.9341
2288.770074 0.9344 0.9346 0.9349 0.9350 0.9350
2292.074046 0.9350 0.9350 0.9351 0.9354 0.9356
2295.378019 0.9359 0.9362 0.9364 0.9367 0.9369
2298.681991 0.9370 0.9370 0.9370 0.9370 0.9370
2301.985963 0.9370 0.9370 0.9370 0.9372 0.9375
2305.289935 0.9377 0.9380 0.9380 0.9380 0.9380
2308.593907 0.9380 0.9382 0.9385 0.9388 0.9390
2311.897879 0.9393 0.9395 0.9398 0.9400 0.9400
2315.201851 0.9400 0.9400 0.9400 0.9400 0.9400
2318.505823 0.9400 0.9401 0.9403 0.9406 0.9408
2321.809795 0.9411 0.9413 0.9416 0.9419 0.9420
2325.113767 0.9420 0.9420 0.9420 0.9420 0.9420
2328.417739 0.9420 0.9420 0.9421 0.9424 0.9427
2331.721712 0.9429 0.9432 0.9434 0.9437 0.9439
2335.025684 0.9440 0.9440 0.9440 0.9440 0.9440
2338.329656 0.9440 0.9440 0.9440 0.9440 0.9440
2341.633628 0.9440 0.9440 0.9442 0.9445 0.9448
2344.937600 0.9450 0.9450 0.9450 0.9450 0.9450
2348.241572 0.9453 0.9455 0.9458 0.9460 0.9460
2351.545544 0.9460 0.9460 0.9460 0.9460 0.9460
2354.849516 0.9460 0.9460 0.9460 0.9460 0.9460
2358.153488 0.9460 0.9460 0.9460 0.9460 0.9460
2361.457460 0.9460 0.9460 0.9460 0.9458 0.9456
2364.761432 0.9453 0.9451 0.9450 0.9450 0.9450
2368.065405 0.9450 0.9450 0.9450 0.9450 0.9450
2371.369377 0.9448 0.9445 0.9443 0.9440 0.9440
2374.673349 0.9440 0.9440 0.9440 0.9440 0.9440
2377.977321 0.9440 0.9440 0.9440 0.9440 0.9440
2381.281293 0.9440 0.9437 0.9435 0.9432 0.9430
2384.585265 0.9430 0.9430 0.9430 0.9429 0.9427
2387.889237 0.9424 0.9422 0.9420 0.9420 0.9420
2391.193209 0.9420 0.9420 0.9420 0.9420 0.9420
2394.497181 0.9419 0.9416 0.9414 0.9411 0.9410
2397.801153 0.9410 0.9410 0.9410 0.9408 0.9406
2401.105126 0.9403 0.9401 0.9400 0.9400 0.9400
2404.409098 0.9400 0.9400 0.9400 0.9400 0.9400
2407.713070 0.9396 0.9391 0.9386 0.9380 0.9380
2411.017042 0.9380 0.9380 0.9380 0.9377 0.9375
2414.321014 0.9372 0.9370 0.9370 0.9370 0.9370
2417.624986 0.9370 0.9370 0.9370 0.9370 0.9370
2420.928958 0.9370 0.9370 0.9370 0.9370 0.9370
2424.232930 0.9370 0.9370 0.9370 0.9370 0.9370
2427.536902 0.9370 0.9369 0.9366 0.9364 0.9361
2430.840874 0.9360 0.9360 0.9360 0.9360 0.9360
2434.144846 0.9360 0.9360 0.9360 0.9358 0.9356
2437.448819 0.9353 0.9351 0.9350 0.9350 0.9350
2440.752791 0.9350 0.9350 0.9350 0.9350 0.9350
2444.056763 0.9350 0.9350 0.9350 0.9350 0.9350
2447.360735 0.9350 0.9350 0.9350 0.9347 0.9345
2450.664707 0.9342 0.9340 0.9340 0.9340 0.9340
2453.968679 0.9340 0.9340 0.9340 0.9340 0.9339
2457.272651 0.9337 0.9334 0.9332 0.9330 0.9330
2460.576623 0.9330 0.9330 0.9330 0.9330 0.9330
2463.880595 0.9330 0.9330 0.9330 0.9330 0.9330
2467.184567 0.9330 0.9330 0.9330 0.9330 0.9330
2470.488539 0.9330 0.9330 0.9330 0.9330 0.9330
2473.792512 0.9330 0.9330 0.9330 0.9330 0.9330
2477.096484 0.9330 0.9330 0.9330 0.9330 0.9330
2480.400456 0.9330 0.9330 0.9330 0.9330 0.9327
2483.704428 0.9325 0.9322 0.9320 0.9320 0.9320
2487.008400 0.9320 0.9320 0.9317 0.9314 0.9312
2490.312372 0.9310 0.9310 0.9310 0.9310 0.9310
2493.616344 0.9310 0.9310 0.9310 0.9310 0.9310
2496.920316 0.9310 0.9310 0.9310 0.9310 0.9310
2500.224288 0.9310 0.9310 0.9310 0.9310 0.9310
2503.528260 0.9307 0.9302 0.9296 0.9291 0.9290
2506.832232 0.9290 0.9290 0.9290 0.9286 0.9281
2510.136205 0.9276 0.9271 0.9268 0.9265 0.9263
2513.440177 0.9260 0.9258 0.9255 0.9253 0.9250
2516.744149 0.9247 0.9245 0.9242 0.9240 0.9237
2520.048121 0.9235 0.9232 0.9229 0.9227 0.9224
2523.352093 0.9222 0.9219 0.9217 0.9214 0.9212
2526.656065 0.9210 0.9210 0.9210 0.9210 0.9210
2529.960037 0.9210 0.9210 0.9210 0.9210 0.9210
2533.264009 0.9210 0.9210 0.9210 0.9210 0.9210
2536.567981 0.9210 0.9208 0.9206 0.9203 0.9201
2539.871953 0.9200 0.9200 0.9200 0.9200 0.9198
2543.175925 0.9195 0.9193 0.9190 0.9188 0.9185
2546.479898 0.9183 0.9180 0.9178 0.9175 0.9172
2549.783870 0.9170 0.9170 0.9170 0.9170 0.9170
2553.087842 0.9167 0.9165 0.9162 0.9160 0.9160
2556.391814 0.9160 0.9160 0.9159 0.9157 0.9154
2559.695786 0.9152 0.9150 0.9150 0.9150 0.9150
2562.999758 0.9149 0.9146 0.9144 0.9141 0.9139
2566.303730 0.9136 0.9134 0.9131 0.9130 0.9130
2569.607702 0.9130 0.9130 0.9130 0.9130 0.9130
2572.911674 0.9130 0.9126 0.9121 0.9116 0.9111
2576.215646 0.9106 0.9101 0.9096 0.9091 0.9088
2579.519619 0.9085 0.9083 0.9080 0.9078 0.9075
2582.823591 0.9073 0.9070 0.9070 0.9070 0.9070
2586.127563 0.9070 0.9070 0.9070 0.9070 0.9070
2589.431535 0.9067 0.9065 0.9062 0.9059 0.9057
2592.735507 0.9054 0.9052 0.9050 0.9050 0.9050
2596.039479 0.9050 0.9049 0.9046 0.9044 0.9041
2599.343451 0.9039 0.9036 0.9034 0.9031 0.9030
2602.647423 0.9030 0.9030 0.9030 0.9030 0.9030
2605.951395 0.9030 0.9030 0.9028 0.9026 0.9023
2609.255367 0.9021 0.9018 0.9016 0.9013 0.9010
2612.559339 0.9008 0.9005 0.9003 0.9000 0.8998
2615.863312 0.8995 0.8993 0.8990 0.8985 0.8980
2619.167284 0.8975 0.8970 0.8965 0.8959 0.8954
2622.471256 0.8949 0.8944 0.8939 0.8934 0.8929
2625.775228 0.8924 0.8919 0.8914 0.8910 0.8910
2629.079200 0.8910 0.8910 0.8908 0.8903 0.8898
2632.383172 0.8893 0.8890 0.8890 0.8890 0.8890
2635.687144 0.8889 0.8886 0.8884 0.8881 0.8879
2638.991116 0.8876 0.8873 0.8871 0.8870 0.8870
2642.295088 0.8870 0.8870 0.8870 0.8870 0.8870
2645.599060 0.8870 0.8870 0.8870 0.8870 0.8870
2648.903032 0.8870 0.8870 0.8870 0.8870 0.8867
2652.207005 0.8865 0.8862 0.8860 0.8860 0.8860
2655.510977 0.8860 0.8860 0.8860 0.8860 0.8860
2658.814949 0.8860 0.8860 0.8860 0.8860 0.8859
2662.118921 0.8857 0.8854 0.8852 0.8850 0.8850
2665.422893 0.8850 0.8850 0.8850 0.8850 0.8850
2668.726865 0.8850 0.8850 0.8850 0.8850 0.8850
2672.030837 0.8850 0.8850 0.8850 0.8850 0.8850
2675.334809 0.8850 0.8850 0.8850 0.8850 0.8850
2678.638781 0.8850 0.8850 0.8850 0.8850 0.8850
2681.942753 0.8850 0.8850 0.8850 0.8850 0.8850
2685.246725 0.8848 0.8845 0.8842 0.8840 0.8840
2688.550698 0.8840 0.8840 0.8840 0.8840 0.8840
2691.854670 0.8840 0.8840 0.8840 0.8840 0.8840
2695.158642 0.8840 0.8840 0.8840 0.8840 0.8839
2698.462614 0.8837 0.8834 0.8831 0.8830 0.8830
2701.766586 0.8830 0.8830 0.8830 0.8830 0.8830
2705.070558 0.8830 0.8829 0.8826 0.8823 0.8821
2708.374530 0.8818 0.8816 0.8813 0.8811 0.8810
2711.678502 0.8810 0.8810 0.8810 0.8808 0.8805
2714.982474 0.8803 0.8800 0.8798 0.8795 0.8793
2718.286446 0.8790 0.8788 0.8785 0.8783 0.8780
2721.590419 0.8775 0.8770 0.8765 0.8760 0.8757
2724.894391 0.8755 0.8752 0.8750 0.8747 0.8744
2728.198363 0.8742 0.8740 0.8740 0.8740 0.8740
2731.502335 0.8739 0.8737 0.8734 0.8732 0.8730
2734.806307 0.8730 0.8730 0.8730 0.8730 0.8730
2738.110279 0.8730 0.8730 0.8731 0.8734 0.8736
2741.414251 0.8739 0.8740 0.8740 0.8740 0.8740
2744.718223 0.8742 0.8744 0.8747 0.8749 0.8750
2748.022195 0.8750 0.8750 0.8750 0.8750 0.8750
2751.326167 0.8750 0.8750 0.8750 0.8750 0.8750
2754.630139 0.8750 0.8750 0.8750 0.8750 0.8750
2757.934112 0.8747 0.8745 0.8742 0.8740 0.8740
2761.238084 0.8740 0.8740 0.8739 0.8734 0.8729
2764.542056 0.8724 0.8719 0.8713 0.8708 0.8703
2767.846028 0.8698 0.8693 0.8688 0.8683 0.8678
2771.150000 0.8673 0.8668 0.8663 0.8656 0.8649
2774.453972 0.8641 0.8633 0.8629 0.8626 0.8623
2777.757944 0.8621 0.8620 0.8620 0.8620 0.8620
2781.061916 0.8614 0.8607 0.8599 0.8591 0.8584
2784.365888 0.8576 0.8568 0.8561 0.8555 0.8550
2787.669860 0.8545 0.8540 0.8535 0.8530 0.8525
2790.973832 0.8520 0.8515 0.8510 0.8504 0.8498
2794.277805 0.8477 0.8457 0.8436 0.8417 0.8399
2797.581777 0.8381 0.8363 0.8345 0.8328 0.8310
2800.885749 0.8292 0.8275 0.8259 0.8244 0.8228
2804.189721 0.8213 0.8198 0.8183 0.8167 0.8152
2807.493693 0.8137 0.8121 0.8106 0.8091 0.8076
2810.797665 0.8060 0.8045 0.8028 0.8010 0.7993
2814.101637 0.7975 0.7959 0.7944 0.7928 0.7913
2817.405609 0.7898 0.7882 0.7867 0.7852 0.7837
2820.709581 0.7821 0.7806 0.7791 0.7766 0.7740
2824.013553 0.7715 0.7690 0.7662 0.7634 0.7606
2827.317525 0.7564 0.7381 0.7198 0.7015 0.6858
2830.621498 0.6802 0.6746 0.6690 0.6632 0.6569
2833.925470 0.6505 0.6441 0.6379 0.6317 0.6256
2837.229442 0.6195 0.6134 0.6073 0.6012 0.5951
2840.533414 0.5772 0.5472 0.5172 0.4871 0.4572
2843.837386 0.4275 0.3977 0.3679 0.3559 0.3541
2847.141358 0.3523 0.3505 0.3500 0.3500 0.3500
2850.445330 0.3500 0.3532 0.3572 0.3613 0.3654
2853.749302 0.3686 0.3717 0.3748 0.3779 0.3780
2857.053274 0.3780 0.3780 0.3778 0.3717 0.3656
2860.357246 0.3595 0.3535 0.3484 0.3433 0.3382
2863.661219 0.3340 0.3340 0.3340 0.3340 0.3354
2866.965191 0.3410 0.3466 0.3522 0.3570 0.3600
2870.269163 0.3631 0.3661 0.3701 0.3754 0.3808
2873.573135 0.3861 0.3974 0.4158 0.4341 0.4524
2876.877107 0.4665 0.4770 0.4874 0.4978 0.5020
2880.181079 0.5020 0.5020 0.5020 0.5013 0.5002
2883.485051 0.4992 0.4982 0.4950 0.4912 0.4873
2886.789023 0.4835 0.4757 0.4673 0.4590 0.4506
2890.092995 0.4443 0.4382 0.4321 0.4260 0.4219
2893.396967 0.4178 0.4138 0.4098 0.4067 0.4037
2896.700939 0.4006 0.3977 0.3954 0.3931 0.3908
2900.004912 0.3886 0.3865 0.3845 0.3825 0.3797
2903.308884 0.3751 0.3705 0.3659 0.3614 0.3570
2906.612856 0.3527 0.3483 0.3443 0.3407 0.3372
2909.916828 0.3336 0.3298 0.3257 0.3216 0.3175
2913.220800 0.3133 0.3090 0.3047 0.3003 0.2916
2916.524772 0.2809 0.2702 0.2595 0.2487 0.2377
2919.828744 0.2268 0.2158 0.2070 0.1986 0.1902
2923.132716 0.1818 0.1778 0.1742 0.1707 0.1671
2926.436688 0.1665 0.1660 0.1655 0.1650 0.1650
2929.740660 0.1650 0.1650 0.1650 0.1650 0.1650
2933.044632 0.1650 0.1651 0.1653 0.1656 0.1658
2936.348605 0.1661 0.1663 0.1666 0.1668 0.1675
2939.652577 0.1688 0.1700 0.1713 0.1726 0.1738
2942.956549 0.1751 0.1764 0.1778 0.1793 0.1808
2946.260521 0.1824 0.1860 0.1911 0.1962 0.2013
2949.564493 0.2064 0.2114 0.2165 0.2216 0.2269
2952.868465 0.2322 0.2376 0.2429 0.2483 0.2536
2956.172437 0.2590 0.2643 0.2708 0.2775 0.2843
2959.476409 0.2910 0.3044 0.3179 0.3314 0.3444
2962.780381 0.3510 0.3577 0.3643 0.3701 0.3706
2966.084353 0.3711 0.3716 0.3710 0.3662 0.3613
2969.388325 0.3565 0.3514 0.3455 0.3397 0.3338
2972.692298 0.3300 0.3300 0.3300 0.3300 0.3300
2975.996270 0.3300 0.3300 0.3300 0.3342 0.3429
2979.300242 0.3515 0.3602 0.3656 0.3684 0.3712
2982.604214 0.3740 0.3884 0.4098 0.4312 0.4526
2985.908186 0.4860 0.5234 0.5609 0.5983 0.6104
2989.212158 0.6170 0.6237 0.6303 0.6335 0.6363
2992.516130 0.6391 0.6419 0.6510 0.6605 0.6699
2995.820102 0.6793 0.6877 0.6961 0.7045 0.7127
2999.124074 0.7193 0.7259 0.7325 0.7396 0.7490
3002.428046 0.7585 0.7679 0.7757 0.7788 0.7819
3005.732018 0.7849 0.7878 0.7903 0.7929 0.7954
3009.035991 0.7976 0.7991 0.8007 0.8022 0.8036
3012.339963 0.8049 0.8062 0.8075 0.8086 0.8096
3015.643935 0.8106 0.8116 0.8127 0.8137 0.8147
3018.947907 0.8157 0.8167 0.8177 0.8188 0.8198
3022.251879 0.8208 0.8218 0.8228 0.8239 0.8244
3025.555851 0.8249 0.8255 0.8260 0.8262 0.8265
3028.859823 0.8267 0.8270 0.8273 0.8275 0.8278
3032.163795 0.8280 0.8280 0.8280 0.8280 0.8281
3035.467767 0.8286 0.8291 0.8296 0.8301 0.8306
3038.771739 0.8312 0.8317 0.8321 0.8323 0.8326
3042.075712 0.8328 0.8332 0.8337 0.8342 0.8347
3045.379684 0.8351 0.8354 0.8356 0.8359 0.8360
3048.683656 0.8360 0.8360 0.8360 0.8363 0.8368
3051.987628 0.8373 0.8378 0.8383 0.8389 0.8394
3055.291600 0.8399 0.8400 0.8400 0.8400 0.8400
3058.595572 0.8400 0.8400 0.8400 0.8400 0.8400
3061.899544 0.8400 0.8400 0.8400 0.8403 0.8405
3065.203516 0.8408 0.8410 0.8410 0.8410 0.8410
3068.507488 0.8410 0.8410 0.8410 0.8410 0.8410
3071.811460 0.8410 0.8410 0.8410 0.8410 0.8410
3075.115432 0.8410 0.8410 0.8409 0.8407 0.8404
3078.419405 0.8401 0.8400 0.8400 0.8400 0.8400
3081.723377 0.8400 0.8400 0.8400 0.8400 0.8399
3085.027349 0.8396 0.8393 0.8391 0.8388 0.8386
3088.331321 0.8383 0.8381 0.8380 0.8380 0.8380
3091.635293 0.8380 0.8378 0.8375 0.8373 0.8370
3094.939265 0.8368 0.8365 0.8363 0.8360 0.8360
3098.243237 0.8360 0.8360 0.8360 0.8357 0.8355
3101.547209 0.8352 0.8350 0.8350 0.8350 0.8350
3104.851181 0.8350 0.8350 0.8350 0.8350 0.8349
3108.155153 0.8347 0.8344 0.8342 0.8340 0.8340
3111.459125 0.8340 0.8340 0.8340 0.8340 0.8340
3114.763098 0.8340 0.8340 0.8340 0.8340 0.8340
3118.067070 0.8340 0.8340 0.8340 0.8340 0.8340
3121.371042 0.8340 0.8340 0.8340 0.8340 0.8340
3124.675014 0.8340 0.8340 0.8340 0.8340 0.8340
3127.978986 0.8340 0.8340 0.8340 0.8340 0.8340
3131.282958 0.8340 0.8340 0.8340 0.8340 0.8340
3134.586930 0.8340 0.8340 0.8340 0.8340 0.8340
3137.890902 0.8340 0.8340 0.8340 0.8340 0.8340
3141.194874 0.8340 0.8340 0.8340 0.8340 0.8340
3144.498846 0.8340 0.8340 0.8340 0.8339 0.8336
3147.802818 0.8334 0.8331 0.8330 0.8330 0.8330
3151.106791 0.8330 0.8330 0.8330 0.8330 0.8330
3154.410763 0.8328 0.8326 0.8323 0.8321 0.8320
3157.714735 0.8320 0.8320 0.8320 0.8320 0.8320
3161.018707 0.8320 0.8320 0.8320 0.8320 0.8320
3164.322679 0.8320 0.8318 0.8315 0.8312 0.8310
3167.626651 0.8310 0.8310 0.8310 0.8310 0.8307
3170.930623 0.8305 0.8302 0.8300 0.8300 0.8300
3174.234595 0.8300 0.8300 0.8300 0.8300 0.8300
3177.538567 0.8300 0.8300 0.8300 0.8300 0.8300
3180.842539 0.8300 0.8300 0.8300 0.8300 0.8300
3184.146512 0.8300 0.8300 0.8300 0.8300 0.8300
3187.450484 0.8300 0.8298 0.8296 0.8293 0.8291
3190.754456 0.8290 0.8290 0.8290 0.8290 0.8290
3194.058428 0.8290 0.8290 0.8290 0.8290 0.8290
3197.362400 0.8290 0.8290 0.8290 0.8290 0.8290
3200.666372 0.8290 0.8290 0.8290 0.8290 0.8290
3203.970344 0.8290 0.8290 0.8290 0.8290 0.8287
3207.274316 0.8285 0.8282 0.8280 0.8280 0.8280
3210.578288 0.8280 0.8280 0.8280 0.8280 0.8280
3213.882260 0.8280 0.8280 0.8280 0.8280 0.8280
3217.186232 0.8280 0.8280 0.8280 0.8280 0.8280
3220.490205 0.8280 0.8280 0.8278 0.8276 0.8273
3223.794177 0.8271 0.8268 0.8266 0.8263 0.8261
3227.098149 0.8258 0.8256 0.8253 0.8250 0.8246
3230.402121 0.8241 0.8236 0.8230 0.8228 0.8225
3233.706093 0.8223 0.8220 0.8218 0.8215 0.8212
3237.010065 0.8210 0.8207 0.8205 0.8202 0.8200
3240.314037 0.8200 0.8200 0.8200 0.8200 0.8200
3243.618009 0.8200 0.8200 0.8200 0.8200 0.8200
3246.921981 0.8200 0.8200 0.8200 0.8200 0.8200
3250.225953 0.8199 0.8196 0.8194 0.8191 0.8190
3253.529925 0.8190 0.8190 0.8190 0.8188 0.8186
3256.833898 0.8183 0.8181 0.8178 0.8176 0.8173
3260.137870 0.8171 0.8168 0.8166 0.8163 0.8160
3263.441842 0.8156 0.8151 0.8146 0.8141 0.8136
3266.745814 0.8130 0.8125 0.8120 0.8118 0.8115
3270.049786 0.8112 0.8110 0.8105 0.8099 0.8094
3273.353758 0.8090 0.8090 0.8090 0.8090 0.8089
3276.657730 0.8087 0.8084 0.8082 0.8079 0.8077
3279.961702 0.8074 0.8072 0.8070 0.8070 0.8070
3283.265674 0.8070 0.8069 0.8066 0.8064 0.8061
3286.569646 0.8059 0.8056 0.8054 0.8051 0.8050
3289.873618 0.8050 0.8050 0.8050 0.8048 0.8046
3293.177591 0.8043 0.8041 0.8038 0.8036 0.8033
3296.481563 0.8030 0.8030 0.8030 0.8030 0.8030
3299.785535 0.8028 0.8025 0.8023 0.8020 0.8018
3303.089507 0.8015 0.8012 0.8010 0.8010 0.8010
3306.393479 0.8010 0.8010 0.8007 0.8005 0.8002
3309.697451 0.8000 0.8000 0.8000 0.8000 0.7999
3313.001423 0.7997 0.7994 0.7992 0.7989 0.7987
3316.305395 0.7984 0.7982 0.7978 0.7973 0.7968
3319.609367 0.7963 0.7959 0.7956 0.7954 0.7951
3322.913339 0.7950 0.7950 0.7950 0.7950 0.7948
3326.217312 0.7946 0.7943 0.7941 0.7940 0.7940
3329.521284 0.7940 0.7940 0.7938 0.7935 0.7933
3332.825256 0.7930 0.7928 0.7925 0.7923 0.7920
3336.129228 0.7915 0.7910 0.7905 0.7900 0.7895
3339.433200 0.7890 0.7885 0.7880 0.7875 0.7869
3342.737172 0.7864 0.7859 0.7854 0.7849 0.7844
3346.041144 0.7839 0.7834 0.7829 0.7823 0.7818
3349.345116 0.7813 0.7808 0.7803 0.7797 0.7789
3352.649088 0.7782 0.7774 0.7768 0.7762 0.7757
3355.953060 0.7752 0.7750 0.7750 0.7750 0.7750
3359.257032 0.7747 0.7742 0.7737 0.7732 0.7726
3362.561005 0.7721 0.7716 0.7711 0.7706 0.7701
3365.864977 0.7696 0.7691 0.7686 0.7681 0.7676
3369.168949 0.7670 0.7663 0.7655 0.7648 0.7640
3372.472921 0.7635 0.7630 0.7625 0.7619 0.7612
3375.776893 0.7604 0.7596 0.7589 0.7584 0.7579
3379.080865 0.7574 0.7569 0.7564 0.7559 0.7554
3382.384837 0.7548 0.7540 0.7532 0.7525 0.7518
3385.688809 0.7513 0.7508 0.7503 0.7497 0.7489
3388.992781 0.7481 0.7474 0.7466 0.7458 0.7451
3392.296753 0.7443 0.7435 0.7428 0.7420 0.7413
3395.600725 0.7407 0.7402 0.7396 0.7391 0.7386
3398.904698 0.7381 0.7376 0.7371 0.7368 0.7365
3402.208670 0.7363 0.7360 0.7362 0.7365 0.7367
3405.512642 0.7370 0.7378 0.7385 0.7393 0.7401
3408.816614 0.7411 0.7421 0.7431 0.7440 0.7443
3412.120586 0.7445 0.7448 0.7451 0.7453 0.7456
3415.424558 0.7458 0.7460 0.7460 0.7460 0.7460
3418.728530 0.7461 0.7463 0.7466 0.7469 0.7471
3422.032502 0.7474 0.7476 0.7479 0.7480 0.7480
3425.336474 0.7480 0.7480 0.7478 0.7476 0.7473
3428.640446 0.7471 0.7468 0.7466 0.7463 0.7461
3431.944418 0.7456 0.7451 0.7446 0.7441 0.7436
3435.248391 0.7431 0.7426 0.7421 0.7411 0.7401
3438.552363 0.7391 0.7380 0.7373 0.7365 0.7357
3441.856335 0.7350 0.7347 0.7345 0.7342 0.7339
3445.160307 0.7334 0.7329 0.7324 0.7320 0.7323
3448.464279 0.7326 0.7328 0.7334 0.7349 0.7365
3451.768251 0.7380 0.7397 0.7414 0.7432 0.7450
3455.072223 0.7463 0.7471 0.7479 0.7486 0.7494
3458.376195 0.7501 0.7509 0.7517 0.7527 0.7540
3461.680167 0.7553 0.7566 0.7573 0.7578 0.7583
3464.984139 0.7589 0.7599 0.7612 0.7625 0.7637
3468.288112 0.7646 0.7654 0.7661 0.7669 0.7674
3471.592084 0.7679 0.7685 0.7690 0.7695 0.7700
3474.896056 0.7705 0.7710 0.7713 0.7715 0.7718
3478.200028 0.7721 0.7729 0.7736 0.7744 0.7751
3481.504000 0.7756 0.7761 0.7766 0.7771 0.7773
3484.807972 0.7776 0.7778 0.7780 0.7780 0.7780
3488.111944 0.7780 0.7777 0.7769 0.7762 0.7754
3491.415916 0.7749 0.7746 0.7744 0.7741 0.7739
3494.719888 0.7736 0.7734 0.7731 0.7728 0.7726
3498.023860 0.7723 0.7721 0.7718 0.7716 0.7713
3501.327832 0.7711 0.7718 0.7728 0.7738 0.7749
3504.631805 0.7754 0.7760 0.7765 0.7770 0.7784
3507.935777 0.7800 0.7815 0.7830 0.7840 0.7851
3511.239749 0.7861 0.7871 0.7878 0.7886 0.7894
3514.543721 0.7901 0.7909 0.7916 0.7924 0.7932
3517.847693 0.7939 0.7947 0.7955 0.7961 0.7963
3521.151665 0.7966 0.7968 0.7972 0.7977 0.7982
3524.455637 0.7987 0.7990 0.7990 0.7990 0.7990
3527.759609 0.7990 0.7990 0.7990 0.7990 0.7995
3531.063581 0.8002 0.8010 0.8018 0.8025 0.8033
3534.367553 0.8041 0.8048 0.8050 0.8050 0.8050
3537.671525 0.8050 0.8052 0.8055 0.8057 0.8060
3540.975498 0.8062 0.8065 0.8067 0.8070 0.8075
3544.279470 0.8080 0.8085 0.8090 0.8095 0.8100
3547.583442 0.8106 0.8111 0.8119 0.8126 0.8134
3550.887414 0.8141 0.8146 0.8151 0.8156 0.8161
3554.191386 0.8167 0.8172 0.8177 0.8182 0.8187
3557.495358 0.8192 0.8197 0.8202 0.8207 0.8213
3560.799330 0.8218 0.8221 0.8224 0.8226 0.8229
3564.103302 0.8232 0.8234 0.8237 0.8239 0.8245
3567.407274 0.8253 0.8260 0.8268 0.8274 0.8279
3570.711246 0.8284 0.8289 0.8292 0.8295 0.8297
3574.015218 0.8300 0.8305 0.8310 0.8315 0.8320
3577.319191 0.8322 0.8325 0.8328 0.8330 0.8333
3580.623163 0.8335 0.8338 0.8340 0.8343 0.8345
3583.927135 0.8348 0.8351 0.8353 0.8356 0.8358
3587.231107 0.8361 0.8367 0.8372 0.8377 0.8382
3590.535079 0.8387 0.8392 0.8397 0.8404 0.8415
3593.839051 0.8425 0.8435 0.8440 0.8440 0.8440
3597.143023 0.8440 0.8440 0.8440 0.8440 0.8440
3600.446995 0.8442 0.8444 0.8447 0.8449 0.8450
3603.750967 0.8450 0.8450 0.8450 0.8452 0.8455
3607.054939 0.8457 0.8460 0.8460 0.8460 0.8460
3610.358911 0.8460 0.8462 0.8465 0.8468 0.8470
3613.662884 0.8473 0.8475 0.8478 0.8481 0.8486
3616.966856 0.8491 0.8496 0.8500 0.8503 0.8506
3620.270828 0.8508 0.8511 0.8513 0.8516 0.8518
3623.574800 0.8521 0.8523 0.8526 0.8528 0.8531
3626.878772 0.8534 0.8536 0.8539 0.8541 0.8544
3630.182744 0.8546 0.8549 0.8551 0.8554 0.8557
3633.486716 0.8559 0.8563 0.8568 0.8574 0.8579
3636.790688 0.8582 0.8584 0.8587 0.8590 0.8590
3640.094660 0.8590 0.8590 0.8590 0.8592 0.8595
3643.398632 0.8597 0.8600 0.8600 0.8600 0.8600
3646.702605 0.8600 0.8600 0.8600 0.8600 0.8600
3650.006577 0.8600 0.8600 0.8600 0.8600 0.8600
3653.310549 0.8600 0.8600 0.8600 0.8600 0.8600
3656.614521 0.8600 0.8601 0.8603 0.8606 0.8609
3659.918493 0.8610 0.8610 0.8610 0.8610 0.8610
3663.222465 0.8610 0.8610 0.8610 0.8611 0.8614
3666.526437 0.8617 0.8619 0.8620 0.8620 0.8620
3669.830409 0.8620 0.8620 0.8620 0.8620 0.8620
3673.134381 0.8620 0.8620 0.8620 0.8620 0.8620
3676.438353 0.8620 0.8620 0.8620 0.8620 0.8620
3679.742325 0.8620 0.8620 0.8620 0.8620 0.8620
3683.046298 0.8620 0.8623 0.8625 0.8628 0.8630
3686.350270 0.8630 0.8630 0.8630 0.8630 0.8630
3689.654242 0.8630 0.8630 0.8630 0.8630 0.8630
3692.958214 0.8630 0.8631 0.8634 0.8636 0.8639
3696.262186 0.8640 0.8640 0.8640 0.8640 0.8640
3699.566158 0.8640 0.8640 0.8640 0.8640 0.8640
3702.870130 0.8640 0.8640 0.8640 0.8640 0.8640
3706.174102 0.8640 0.8640 0.8640 0.8640 0.8640
3709.478074 0.8642 0.8645 0.8647 0.8650 0.8650
3712.782046 0.8650 0.8650 0.8650 0.8647 0.8645
3716.086018 0.8642 0.8640 0.8645 0.8651 0.8656
3719.389991 0.8660 0.8657 0.8655 0.8652 0.8650
3722.693963 0.8650 0.8650 0.8650 0.8650 0.8650
3725.997935 0.8650 0.8650 0.8650 0.8650 0.8650
3729.301907 0.8650 0.8650 0.8650 0.8650 0.8650
3732.605879 0.8650 0.8650 0.8650 0.8650 0.8650
3735.909851 0.8650 0.8650 0.8650 0.8650 0.8650
3739.213823 0.8650 0.8650 0.8650 0.8650 0.8650
3742.517795 0.8650 0.8648 0.8645 0.8643 0.8640
3745.821767 0.8640 0.8640 0.8640 0.8640 0.8640
3749.125739 0.8640 0.8640 0.8640 0.8640 0.8640
3752.429711 0.8640 0.8640 0.8640 0.8640 0.8640
3755.733684 0.8640 0.8640 0.8640 0.8640 0.8640
3759.037656 0.8640 0.8640 0.8640 0.8640 0.8640
3762.341628 0.8640 0.8640 0.8640 0.8640 0.8640
3765.645600 0.8640 0.8640 0.8640 0.8640 0.8640
3768.949572 0.8639 0.8636 0.8633 0.8631 0.8630
3772.253544 0.8630 0.8630 0.8630 0.8630 0.8630
3775.557516 0.8630 0.8630 0.8630 0.8630 0.8630
3778.861488 0.8630 0.8628 0.8625 0.8623 0.8620
3782.165460 0.8620 0.8620 0.8620 0.8620 0.8620
3785.469432 0.8620 0.8620 0.8620 0.8620 0.8620
3788.773405 0.8620 0.8620 0.8620 0.8620 0.8620
3792.077377 0.8620 0.8620 0.8620 0.8620 0.8620
3795.381349 0.8620 0.8620 0.8620 0.8620 0.8620
3798.685321 0.8620 0.8620 0.8619 0.8616 0.8614
3801.989293 0.8611 0.8610 0.8610 0.8610 0.8610
3805.293265 0.8610 0.8610 0.8610 0.8610 0.8610
3808.597237 0.8610 0.8610 0.8610 0.8610 0.8610
3811.901209 0.8610 0.8610 0.8608 0.8605 0.8603
3815.205181 0.8600 0.8600 0.8600 0.8600 0.8600
3818.509153 0.8600 0.8600 0.8600 0.8600 0.8600
3821.813125 0.8600 0.8600 0.8600 0.8600 0.8600
3825.117098 0.8600 0.8600 0.8600 0.8600 0.8600
3828.421070 0.8600 0.8600 0.8600 0.8600 0.8600
3831.725042 0.8600 0.8600 0.8600 0.8600 0.8600
3835.029014 0.8600 0.8600 0.8599 0.8596 0.8594
3838.332986 0.8591 0.8590 0.8590 0.8590 0.8590
3841.636958 0.8590 0.8590 0.8590 0.8590 0.8590
3844.940930 0.8590 0.8590 0.8590 0.8588 0.8585
3848.244902 0.8583 0.8580 0.8580 0.8580 0.8580
3851.548874 0.8580 0.8580 0.8580 0.8580 0.8580
3854.852846 0.8580 0.8580 0.8580 0.8580 0.8580
3858.156818 0.8580 0.8580 0.8580 0.8580 0.8580
3861.460791 0.8580 0.8580 0.8580 0.8580 0.8580
3864.764763 0.8579 0.8577 0.8574 0.8571 0.8570
3868.068735 0.8570 0.8570 0.8570 0.8570 0.8570
3871.372707 0.8570 0.8570 0.8570 0.8570 0.8570
3874.676679 0.8570 0.8570 0.8570 0.8570 0.8570
3877.980651 0.8568 0.8566 0.8563 0.8560 0.8560
3881.284623 0.8560 0.8560 0.8560 0.8560 0.8560
3884.588595 0.8560 0.8560 0.8560 0.8560 0.8560
3887.892567 0.8560 0.8560 0.8560 0.8560 0.8560
3891.196539 0.8560 0.8560 0.8560 0.8560 0.8560
3894.500511 0.8560 0.8560 0.8560 0.8560 0.8560
3897.804484 0.8560 0.8559 0.8557 0.8554 0.8551
3901.108456 0.8550 0.8550 0.8550 0.8550 0.8550
3904.412428 0.8550 0.8550 0.8550 0.8549 0.8546
3907.716400 0.8543 0.8541 0.8540 0.8540 0.8540
3911.020372 0.8540 0.8540 0.8540 0.8540 0.8540
3914.324344 0.8540 0.8540 0.8540 0.8540 0.8540
3917.628316 0.8540 0.8540 0.8540 0.8540 0.8540
3920.932288 0.8540 0.8540 0.8540 0.8540 0.8540
3924.236260 0.8540 0.8540 0.8540 0.8540 0.8540
3927.540232 0.8540 0.8540 0.8540 0.8540 0.8540
3930.844205 0.8540 0.8540 0.8540 0.8540 0.8540
3934.148177 0.8540 0.8539 0.8536 0.8534 0.8531
3937.452149 0.8530 0.8530 0.8530 0.8530 0.8530
3940.756121 0.8530 0.8530 0.8530 0.8530 0.8530
3944.060093 0.8530 0.8530 0.8530 0.8530 0.8530
3947.364065 0.8530 0.8530 0.8530 0.8530 0.8530
3950.668037 0.8528 0.8525 0.8523 0.8520 0.8520
3953.972009 0.8520 0.8520 0.8520 0.8520 0.8520
3957.275981 0.8520 0.8520 0.8520 0.8520 0.8520
3960.579953 0.8520 0.8520 0.8520 0.8520 0.8520
3963.883925 0.8520 0.8520 0.8520 0.8520 0.8520
3967.187898 0.8520 0.8520 0.8520 0.8520 0.8520
3970.491870 0.8520 0.8520 0.8520 0.8520 0.8520
3973.795842 0.8520 0.8520 0.8520 0.8520 0.8520
3977.099814 0.8520 0.8520 0.8520 0.8520 0.8520
3980.403786 0.8520 0.8520 0.8520 0.8520 0.8520
3983.707758 0.8520 0.8520 0.8520 0.8520 0.8520
3987.011730 0.8520 0.8520 0.8520 0.8520 0.8520
3990.315702 0.8520 0.8520
##END=
