##TITLE=2,4-DI-TERT-BUTYL-6-CHLOROPHENYL-2,2-DICHLOROPROPIONATE
##JCAMP-DX=4.24
##DATA TYPE=INFRARED SPECTRUM
##CLASS=COBLENTZ
##ORIGIN=DOW CHEMICAL COMPANY
##OWNER=COBLENTZ SOCIETY
Collection (C) 2018 copyright by the U.S. Secretary of Commerce
on behalf of the United States of America. All rights reserved.
##DATE=Not specified, most likely prior to 1970
##NAMES=2,4-ditert-butyl-6-chlorophenyl 2,2-dichloropropanoate
##MOLFORM=C17 H23 Cl3 O2
##SOURCE REFERENCE=COBLENTZ NO. 3950
##$NIST ID=B6003950
##$NIST SOURCE=COBLENTZ
##$NIST IMAGE=cob3950
##SPECTROMETER/DATA SYSTEM=Not specified, most likely a prism, grating, or hybrid spectrometer.
##STATE=SOLUTION (10% CCl4 FOR 5000-1300, 10% CS2 FOR 1300-625 CM^-^1)
##PATH LENGTH=0.01 CM, 0.01 CM
##SAMPLING PROCEDURE=TRANSMISSION
##RESOLUTION=4
##DATA PROCESSING=DIGITIZED BY NIST FROM HARD COPY
##XUNITS=MICROMETERS
##YUNITS=TRANSMITTANCE
##XFACTOR=1.000000
##YFACTOR=1
##DELTAX=000.006796
##FIRSTX=2.007
##LASTX=15.9866
##FIRSTY=0.846
##MAXX=15.9866
##MINX=2.007
##MAXY=0.907
##MINY=0.077
##NPOINTS=2058
##XYDATA=(X++(Y..Y))
2.007000 0.8460 0.8460 0.8480 0.8480 0.8490
2.040997 0.8490 0.8510 0.8510 0.8510 0.8530
2.075000 0.8530 0.8530 0.8530 0.8530 0.8530
2.108997 0.8530 0.8530 0.8540 0.8540 0.8540
2.143000 0.8560 0.8560 0.8560 0.8580 0.8580
2.176997 0.8600 0.8600 0.8600 0.8580 0.8560
2.211000 0.8540 0.8510 0.8490 0.8480 0.8440
2.244997 0.8410 0.8390 0.8380 0.8360 0.8360
2.279000 0.8360 0.8380 0.8390 0.8430 0.8480
2.312997 0.8480 0.8490 0.8490 0.8510 0.8510
2.347000 0.8510 0.8510 0.8510 0.8510 0.8530
2.380997 0.8530 0.8530 0.8540 0.8540 0.8540
2.415000 0.8560 0.8560 0.8560 0.8580 0.8580
2.448997 0.8580 0.8580 0.8600 0.8610 0.8610
2.483000 0.8610 0.8630 0.8650 0.8650 0.8650
2.516997 0.8660 0.8660 0.8660 0.8660 0.8660
2.550000 0.8660 0.8660 0.8660 0.8660 0.8660
2.583997 0.8650 0.8650 0.8650 0.8650 0.8650
2.618000 0.8660 0.8660 0.8660 0.8660 0.8680
2.651997 0.8680 0.8680 0.8680 0.8680 0.8680
2.686000 0.8680 0.8680 0.8680 0.8680 0.8680
2.719997 0.8680 0.8680 0.8680 0.8680 0.8660
2.754000 0.8660 0.8660 0.8650 0.8630 0.8610
2.787997 0.8580 0.8540 0.8490 0.8460 0.8390
2.822000 0.8360 0.8330 0.8310 0.8270 0.8270
2.855997 0.8260 0.8260 0.8270 0.8270 0.8290
2.890000 0.8310 0.8310 0.8310 0.8310 0.8310
2.923997 0.8290 0.8270 0.8270 0.8260 0.8240
2.958000 0.8240 0.8240 0.8240 0.8240 0.8240
2.991997 0.8240 0.8260 0.8270 0.8270 0.8270
3.026000 0.8270 0.8270 0.8270 0.8270 0.8270
3.059997 0.8270 0.8270 0.8270 0.8270 0.8270
3.094000 0.8270 0.8270 0.8270 0.8270 0.8270
3.127997 0.8290 0.8290 0.8290 0.8290 0.8310
3.162000 0.8310 0.8330 0.8360 0.8380 0.8380
3.195997 0.8380 0.8380 0.8340 0.8310 0.8290
3.230000 0.8270 0.8240 0.8220 0.8220 0.8210
3.263997 0.8210 0.8210 0.8170 0.8140 0.8070
3.298000 0.7940 0.7770 0.7520 0.7180 0.6840
3.331997 0.6390 0.5340 0.4530 0.3720 0.3100
3.366000 0.2470 0.2460 0.1900 0.1900 0.2290
3.399997 0.3010 0.3570 0.3970 0.4260 0.4460
3.434000 0.4600 0.4680 0.4750 0.4830 0.4970
3.467997 0.5140 0.5410 0.5690 0.6050 0.6440
3.502000 0.6990 0.7430 0.7800 0.8020 0.8110
3.535997 0.8120 0.8160 0.8170 0.8190 0.8220
3.570000 0.8270 0.8290 0.8310 0.8340 0.8390
3.603997 0.8430 0.8440 0.8460 0.8460 0.8430
3.638000 0.8430 0.8410 0.8390 0.8390 0.8390
3.671997 0.8390 0.8410 0.8430 0.8440 0.8480
3.706000 0.8510 0.8580 0.8600 0.8610 0.8610
3.739997 0.8610 0.8610 0.8610 0.8630 0.8630
3.774000 0.8660 0.8660 0.8680 0.8680 0.8700
3.807997 0.8710 0.8710 0.8710 0.8730 0.8730
3.842000 0.8730 0.8750 0.8750 0.8750 0.8730
3.875997 0.8730 0.8730 0.8730 0.8710 0.8710
3.910000 0.8710 0.8710 0.8710 0.8730 0.8730
3.943997 0.8730 0.8750 0.8760 0.8760 0.8760
3.978000 0.8760 0.8760 0.8750 0.8750 0.8750
4.011997 0.8750 0.8750 0.8750 0.8750 0.8750
4.046000 0.8750 0.8760 0.8760 0.8760 0.8780
4.079997 0.8780 0.8780 0.8780 0.8780 0.8780
4.114000 0.8780 0.8780 0.8780 0.8780 0.8800
4.147997 0.8800 0.8800 0.8800 0.8800 0.8800
4.182000 0.8800 0.8810 0.8810 0.8810 0.8800
4.215997 0.8800 0.8780 0.8780 0.8780 0.8760
4.250000 0.8760 0.8730 0.8710 0.8700 0.8700
4.283997 0.8700 0.8680 0.8680 0.8660 0.8660
4.317000 0.8660 0.8660 0.8660 0.8660 0.8680
4.350997 0.8680 0.8700 0.8710 0.8730 0.8760
4.385000 0.8780 0.8800 0.8810 0.8850 0.8880
4.418997 0.8900 0.8900 0.8920 0.8920 0.8930
4.453000 0.8950 0.8950 0.8950 0.8970 0.8970
4.486997 0.8970 0.8970 0.8970 0.8970 0.8970
4.521000 0.8970 0.8970 0.8980 0.8980 0.8980
4.554997 0.8980 0.8980 0.8980 0.8980 0.8980
4.589000 0.8980 0.9000 0.9000 0.9000 0.8980
4.622997 0.8980 0.8980 0.8980 0.8980 0.8980
4.657000 0.8970 0.8950 0.8950 0.8930 0.8900
4.690997 0.8900 0.8880 0.8880 0.8870 0.8870
4.725000 0.8870 0.8870 0.8880 0.8880 0.8900
4.758997 0.8920 0.8920 0.8930 0.8930 0.8930
4.793000 0.8950 0.8950 0.8970 0.8980 0.8980
4.826997 0.8980 0.9000 0.9000 0.9000 0.8980
4.861000 0.8980 0.8980 0.8980 0.8970 0.8970
4.894997 0.8950 0.8930 0.8920 0.8920 0.8920
4.929000 0.8920 0.8920 0.8920 0.8920 0.8920
4.962997 0.8900 0.8900 0.8880 0.8870 0.8870
4.997000 0.8850 0.8830 0.8830 0.8850 0.8850
5.030997 0.8870 0.8880 0.8900 0.8900 0.8900
5.065000 0.8920 0.8930 0.8930 0.8950 0.8950
5.098997 0.8970 0.8970 0.8980 0.8980 0.8980
5.133000 0.8980 0.8980 0.8980 0.8980 0.8970
5.166997 0.8970 0.8970 0.8970 0.8950 0.8950
5.201000 0.8950 0.8930 0.8930 0.8930 0.8930
5.234997 0.8930 0.8930 0.8930 0.8920 0.8920
5.269000 0.8920 0.8920 0.8920 0.8920 0.8920
5.302997 0.8920 0.8900 0.8900 0.8900 0.8880
5.337000 0.8880 0.8880 0.8870 0.8870 0.8850
5.370997 0.8850 0.8830 0.8830 0.8830 0.8810
5.405000 0.8810 0.8810 0.8800 0.8800 0.8780
5.438997 0.8780 0.8760 0.8730 0.8700 0.8630
5.473000 0.8610 0.8580 0.8530 0.8460 0.8360
5.506997 0.8220 0.8060 0.7870 0.7620 0.7350
5.541000 0.7010 0.6640 0.6220 0.5750 0.5210
5.574997 0.4750 0.4400 0.4130 0.3820 0.3370
5.609000 0.3180 0.3000 0.2790 0.2510 0.2370
5.642997 0.2120 0.1980 0.1850 0.1850 0.2460
5.677000 0.2760 0.4330 0.4700 0.6000 0.6450
5.710997 0.6810 0.7090 0.7350 0.7550 0.7740
5.745000 0.7870 0.7950 0.8010 0.8040 0.8110
5.778997 0.8170 0.8210 0.8260 0.8310 0.8360
5.813000 0.8410 0.8430 0.8480 0.8490 0.8530
5.846997 0.8600 0.8650 0.8660 0.8680 0.8680
5.881000 0.8680 0.8680 0.8680 0.8680 0.8680
5.914997 0.8680 0.8660 0.8630 0.8610 0.8610
5.949000 0.8610 0.8610 0.8610 0.8610 0.8600
5.982997 0.8600 0.8600 0.8580 0.8580 0.8610
6.017000 0.8610 0.8610 0.8610 0.8610 0.8610
6.050997 0.8610 0.8600 0.8600 0.8600 0.8580
6.084000 0.8580 0.8580 0.8530 0.8510 0.8490
6.117997 0.8480 0.8410 0.8340 0.8270 0.8210
6.152000 0.8140 0.8040 0.7990 0.7920 0.7750
6.185997 0.7650 0.7470 0.7250 0.7010 0.6740
6.220000 0.6470 0.6200 0.5960 0.5750 0.5580
6.253997 0.5480 0.5430 0.5430 0.5440 0.5460
6.288000 0.5480 0.5460 0.5410 0.5340 0.5160
6.321997 0.4780 0.4650 0.4500 0.4330 0.4180
6.356000 0.4010 0.3990 0.4010 0.4040 0.4130
6.389997 0.4190 0.4240 0.4300 0.4310 0.4330
6.424000 0.4330 0.4330 0.4330 0.4330 0.4350
6.457997 0.4400 0.4480 0.4560 0.4750 0.4820
6.492000 0.5050 0.5260 0.5410 0.5530 0.5610
6.525997 0.5690 0.5750 0.5800 0.5860 0.5910
6.560000 0.5980 0.6020 0.6150 0.6250 0.6270
6.593997 0.6370 0.6450 0.6590 0.6660 0.6740
6.628000 0.6890 0.6960 0.6990 0.7040 0.7110
6.661997 0.7150 0.7160 0.7160 0.7090 0.6890
6.696000 0.6610 0.6230 0.5810 0.5390 0.4990
6.729997 0.4600 0.4300 0.4080 0.3970 0.3920
6.764000 0.3870 0.3860 0.3870 0.3970 0.4010
6.797997 0.4040 0.4110 0.4130 0.4140 0.4190
6.832000 0.4190 0.4210 0.4210 0.4210 0.4190
6.865997 0.4060 0.3960 0.3760 0.3500 0.3300
6.900000 0.3110 0.2930 0.2910 0.2930 0.3270
6.933997 0.3760 0.4360 0.5000 0.5560 0.6220
6.968000 0.6550 0.6690 0.6810 0.6930 0.7010
7.001997 0.7080 0.7110 0.7150 0.7180 0.7180
7.036000 0.7180 0.7090 0.6960 0.6860 0.6710
7.069997 0.6450 0.6200 0.5800 0.5510 0.5160
7.104000 0.4620 0.4400 0.4160 0.3920 0.3870
7.137997 0.3920 0.4300 0.4600 0.4990 0.5610
7.172000 0.5810 0.6030 0.6200 0.6200 0.6100
7.205997 0.5910 0.5690 0.5430 0.5430 0.5510
7.240000 0.5630 0.5780 0.5930 0.6080 0.6080
7.273997 0.6030 0.5120 0.4870 0.4500 0.4460
7.308000 0.4080 0.4090 0.4700 0.5530 0.6450
7.341997 0.6790 0.7890 0.7940 0.7970 0.7990
7.376000 0.7990 0.7990 0.7950 0.7900 0.7890
7.409997 0.7850 0.7840 0.7820 0.7790 0.7740
7.444000 0.7670 0.7600 0.7570 0.7550 0.7550
7.477997 0.7580 0.7630 0.7650 0.7720 0.7770
7.512000 0.7840 0.7890 0.7970 0.7990 0.8010
7.545997 0.8020 0.8040 0.8060 0.8060 0.8070
7.580000 0.8070 0.8070 0.8070 0.8070 0.8040
7.613997 0.8010 0.7950 0.7900 0.7840 0.7770
7.648000 0.7620 0.7620 0.7580 0.7500 0.7360
7.681997 0.7200 0.7030 0.6690 0.6400 0.6170
7.716000 0.5910 0.5630 0.5260 0.4990 0.4700
7.749997 0.4510 0.4410 0.4310 0.4300 0.4310
7.783000 0.4360 0.4480 0.4680 0.4750 0.4800
7.816997 0.4820 0.4820 0.4830 0.4950 0.5050
7.851000 0.5170 0.5270 0.5390 0.5640 0.5710
7.884997 0.5750 0.5750 0.5690 0.5490 0.5220
7.919000 0.4970 0.4730 0.4510 0.4310 0.4160
7.952997 0.4060 0.4010 0.3990 0.3940 0.3860
7.987000 0.3810 0.3590 0.3370 0.3100 0.2810
8.020997 0.2510 0.2220 0.1950 0.1720 0.1510
8.055000 0.1310 0.1110 0.0970 0.0870 0.0790
8.088997 0.0770 0.0790 0.0890 0.1020 0.1160
8.123000 0.1430 0.1610 0.1780 0.1900 0.1970
8.156997 0.1980 0.1980 0.1950 0.1850 0.1680
8.191000 0.1510 0.1360 0.1160 0.0960 0.0920
8.224997 0.0960 0.1060 0.1140 0.1280 0.1460
8.259000 0.1630 0.1820 0.1980 0.2190 0.2370
8.292997 0.2590 0.2830 0.3100 0.3380 0.3690
8.327000 0.4040 0.4430 0.4850 0.5320 0.5800
8.360997 0.6100 0.6300 0.6400 0.6450 0.6450
8.395000 0.6520 0.6670 0.6820 0.6910 0.6980
8.428997 0.7010 0.7080 0.7150 0.7200 0.7250
8.463000 0.7310 0.7380 0.7470 0.7500 0.7520
8.496997 0.7550 0.7550 0.7570 0.7570 0.7570
8.531000 0.7570 0.7550 0.7530 0.7520 0.7520
8.564997 0.7500 0.7480 0.7480 0.7470 0.7450
8.599000 0.7450 0.7380 0.7360 0.7300 0.7260
8.632997 0.7230 0.7200 0.7130 0.7080 0.7030
8.667000 0.6990 0.6980 0.6930 0.6910 0.6890
8.700997 0.6880 0.6860 0.6840 0.6840 0.6820
8.735000 0.6820 0.6820 0.6840 0.6860 0.6880
8.768997 0.6880 0.6880 0.6860 0.6860 0.6790
8.803000 0.6790 0.6710 0.6590 0.6500 0.6470
8.836997 0.6440 0.6390 0.6250 0.6170 0.6050
8.871000 0.6000 0.5960 0.5880 0.5810 0.5730
8.904997 0.5710 0.5640 0.5610 0.5530 0.5410
8.939000 0.5290 0.5120 0.4940 0.4700 0.4450
8.972997 0.4160 0.3810 0.3540 0.3080 0.2540
9.007000 0.2000 0.1580 0.1340 0.1110 0.1010
9.040997 0.0840 0.0800 0.0840 0.1010 0.1110
9.075000 0.1210 0.1360 0.1430 0.1450 0.1460
9.108997 0.1460 0.1450 0.1450 0.1430 0.1430
9.143000 0.1450 0.1480 0.1510 0.1650 0.1880
9.176997 0.2020 0.2150 0.2310 0.2540 0.2900
9.211000 0.2930 0.2960 0.2980 0.2980 0.2950
9.244997 0.2930 0.2860 0.2760 0.2660 0.2560
9.279000 0.2510 0.2490 0.2490 0.2510 0.2580
9.312997 0.2680 0.2810 0.2980 0.3180 0.3380
9.347000 0.3600 0.3840 0.4040 0.4240 0.4400
9.380997 0.4500 0.4580 0.4670 0.4800 0.4990
9.415000 0.5140 0.5220 0.5310 0.5390 0.5510
9.448997 0.5640 0.5730 0.5900 0.6050 0.6150
9.483000 0.6250 0.6320 0.6400 0.6500 0.6610
9.516997 0.6690 0.6740 0.6810 0.6840 0.6890
9.550000 0.6930 0.6980 0.7010 0.7040 0.7150
9.583997 0.7200 0.7280 0.7360 0.7480 0.7580
9.618000 0.7700 0.7790 0.7850 0.7890 0.7950
9.651997 0.8010 0.8040 0.8090 0.8120 0.8170
9.686000 0.8190 0.8210 0.8240 0.8270 0.8270
9.719997 0.8290 0.8290 0.8310 0.8340 0.8360
9.754000 0.8380 0.8390 0.8390 0.8410 0.8430
9.787997 0.8460 0.8490 0.8560 0.8610 0.8660
9.822000 0.8680 0.8700 0.8700 0.8710 0.8710
9.855997 0.8730 0.8730 0.8730 0.8750 0.8760
9.890000 0.8760 0.8780 0.8780 0.8800 0.8800
9.923997 0.8800 0.8800 0.8810 0.8830 0.8830
9.958000 0.8830 0.8830 0.8830 0.8830 0.8830
9.991997 0.8810 0.8810 0.8780 0.8780 0.8760
10.026000 0.8750 0.8730 0.8730 0.8710 0.8710
10.059997 0.8710 0.8710 0.8710 0.8710 0.8730
10.094000 0.8730 0.8750 0.8760 0.8780 0.8780
10.127997 0.8800 0.8800 0.8800 0.8800 0.8800
10.162000 0.8800 0.8780 0.8780 0.8750 0.8730
10.195997 0.8710 0.8700 0.8700 0.8700 0.8710
10.230000 0.8730 0.8780 0.8810 0.8850 0.8880
10.263997 0.8880 0.8950 0.8980 0.8980 0.9000
10.298000 0.9000 0.9020 0.9020 0.9030 0.9030
10.331997 0.9030 0.9030 0.9030 0.9030 0.9020
10.366000 0.9020 0.9020 0.9020 0.9020 0.9030
10.399997 0.9050 0.9050 0.9050 0.9070 0.9070
10.434000 0.9070 0.9070 0.9070 0.9070 0.9050
10.467997 0.9050 0.9030 0.9020 0.9000 0.8980
10.502000 0.8980 0.8980 0.8970 0.8970 0.8970
10.535997 0.8950 0.8930 0.8920 0.8920 0.8900
10.570000 0.8880 0.8880 0.8870 0.8830 0.8810
10.603997 0.8800 0.8760 0.8750 0.8700 0.8660
10.638000 0.8610 0.8580 0.8540 0.8490 0.8440
10.671997 0.8360 0.8240 0.8140 0.8040 0.7990
10.706000 0.7940 0.7840 0.7800 0.7770 0.7750
10.739997 0.7740 0.7750 0.7770 0.7820 0.7870
10.774000 0.7900 0.7950 0.7990 0.8040 0.8070
10.807997 0.8140 0.8210 0.8240 0.8260 0.8270
10.842000 0.8270 0.8290 0.8290 0.8290 0.8290
10.875997 0.8270 0.8240 0.8210 0.8160 0.8110
10.910000 0.8090 0.8060 0.8040 0.7990 0.7970
10.943997 0.7970 0.7990 0.8010 0.8040 0.8160
10.978000 0.8210 0.8210 0.8260 0.8270 0.8270
11.011997 0.8290 0.8290 0.8270 0.8260 0.8240
11.046000 0.8210 0.8170 0.8140 0.8040 0.7950
11.079997 0.7870 0.7740 0.7630 0.7470 0.7400
11.114000 0.7250 0.7150 0.7040 0.6930 0.6810
11.147997 0.6720 0.6660 0.6620 0.6590 0.6550
11.182000 0.6540 0.6520 0.6500 0.6500 0.6490
11.215997 0.6490 0.6500 0.6520 0.6590 0.6620
11.250000 0.6690 0.6740 0.6820 0.6890 0.6940
11.283997 0.6990 0.7010 0.7030 0.7040 0.7060
11.317000 0.7060 0.7040 0.6990 0.6960 0.6880
11.350997 0.6790 0.6710 0.6620 0.6500 0.6350
11.385000 0.6180 0.5950 0.5640 0.5340 0.5160
11.418997 0.4800 0.4230 0.4080 0.3700 0.3520
11.453000 0.3420 0.3280 0.3270 0.3300 0.3640
11.486997 0.3650 0.3960 0.4300 0.4460 0.4650
11.521000 0.4720 0.4730 0.4730 0.4700 0.4510
11.554997 0.4400 0.4140 0.4010 0.3790 0.3620
11.589000 0.3550 0.3320 0.3300 0.3320 0.3650
11.622997 0.3760 0.3870 0.4040 0.4240 0.4510
11.657000 0.4800 0.5000 0.5260 0.5410 0.5560
11.690997 0.5660 0.5780 0.5850 0.5910 0.5960
11.725000 0.6030 0.6130 0.6250 0.6300 0.6390
11.758997 0.6470 0.6520 0.6590 0.6640 0.6690
11.793000 0.6740 0.6790 0.6890 0.6930 0.6960
11.826997 0.6980 0.7010 0.7030 0.7080 0.7090
11.861000 0.7110 0.7130 0.7130 0.7130 0.7130
11.894997 0.7110 0.7090 0.7080 0.7040 0.6980
11.929000 0.6940 0.6840 0.6760 0.6660 0.6590
11.962997 0.6540 0.6440 0.6350 0.6320 0.6270
11.997000 0.6220 0.6130 0.6050 0.6000 0.5980
12.030997 0.5930 0.5880 0.5780 0.5710 0.5640
12.065000 0.5610 0.5560 0.5530 0.5510 0.5530
12.098997 0.5560 0.5640 0.5730 0.5900 0.6050
12.133000 0.6200 0.6400 0.6570 0.6720 0.6840
12.166997 0.6940 0.7040 0.7130 0.7200 0.7260
12.201000 0.7330 0.7400 0.7470 0.7530 0.7550
12.234997 0.7550 0.7570 0.7570 0.7570 0.7570
12.269000 0.7570 0.7570 0.7570 0.7570 0.7570
12.302997 0.7570 0.7570 0.7570 0.7570 0.7550
12.337000 0.7550 0.7550 0.7550 0.7550 0.7550
12.370997 0.7550 0.7550 0.7550 0.7550 0.7550
12.405000 0.7550 0.7530 0.7530 0.7530 0.7520
12.438997 0.7520 0.7500 0.7500 0.7480 0.7480
12.473000 0.7480 0.7470 0.7470 0.7450 0.7430
12.506997 0.7410 0.7400 0.7380 0.7350 0.7310
12.541000 0.7280 0.7260 0.7200 0.7130 0.7040
12.574997 0.6990 0.6940 0.6890 0.6770 0.6670
12.609000 0.6520 0.6400 0.6270 0.6130 0.6000
12.642997 0.5880 0.5760 0.5640 0.5510 0.5410
12.677000 0.5290 0.5170 0.5050 0.4990 0.4950
12.710997 0.4890 0.4830 0.4780 0.4770 0.4730
12.745000 0.4720 0.4700 0.4680 0.4670 0.4630
12.778997 0.4620 0.4600 0.4580 0.4560 0.4510
12.813000 0.4460 0.4350 0.4240 0.4240 0.4160
12.846997 0.4080 0.4040 0.3990 0.3940 0.3910
12.881000 0.3890 0.3890 0.3910 0.3970 0.4040
12.914997 0.4140 0.4240 0.4360 0.4480 0.4560
12.949000 0.4620 0.4720 0.4820 0.4920 0.4970
12.982997 0.5040 0.5120 0.5210 0.5290 0.5390
13.017000 0.5510 0.5610 0.5730 0.5850 0.5950
13.050997 0.6070 0.6170 0.6270 0.6370 0.6440
13.084000 0.6520 0.6610 0.6670 0.6760 0.6820
13.117997 0.6890 0.6960 0.7010 0.7040 0.7090
13.152000 0.7130 0.7180 0.7230 0.7280 0.7310
13.185997 0.7330 0.7380 0.7410 0.7430 0.7430
13.220000 0.7450 0.7480 0.7480 0.7480 0.7500
13.253997 0.7500 0.7500 0.7500 0.7520 0.7530
13.288000 0.7530 0.7530 0.7550 0.7550 0.7550
13.321997 0.7550 0.7570 0.7570 0.7570 0.7570
13.356000 0.7570 0.7570 0.7570 0.7570 0.7570
13.389997 0.7570 0.7570 0.7570 0.7570 0.7570
13.424000 0.7570 0.7570 0.7570 0.7550 0.7550
13.457997 0.7550 0.7530 0.7530 0.7530 0.7520
13.492000 0.7520 0.7520 0.7520 0.7500 0.7500
13.525997 0.7480 0.7470 0.7470 0.7470 0.7450
13.560000 0.7450 0.7430 0.7400 0.7400 0.7380
13.593997 0.7360 0.7350 0.7310 0.7300 0.7260
13.628000 0.7230 0.7200 0.7160 0.7130 0.7080
13.661997 0.7040 0.6980 0.6930 0.6860 0.6790
13.696000 0.6710 0.6670 0.6550 0.6470 0.6390
13.729997 0.6300 0.6200 0.6120 0.6030 0.5950
13.764000 0.5880 0.5810 0.5730 0.5690 0.5680
13.797997 0.5660 0.5660 0.5680 0.5690 0.5750
13.832000 0.5830 0.5880 0.5950 0.6000 0.6080
13.865997 0.6150 0.6200 0.6270 0.6320 0.6340
13.900000 0.6390 0.6400 0.6420 0.6440 0.6450
13.933997 0.6450 0.6450 0.6450 0.6450 0.6440
13.968000 0.6420 0.6420 0.6400 0.6390 0.6340
14.001997 0.6320 0.6270 0.6230 0.6180 0.6150
14.036000 0.6120 0.6100 0.6030 0.6020 0.6000
14.069997 0.5980 0.5980 0.5960 0.5960 0.5960
14.104000 0.5960 0.5960 0.5980 0.6000 0.6030
14.137997 0.6070 0.6100 0.6120 0.6150 0.6150
14.172000 0.6170 0.6170 0.6180 0.6200 0.6220
14.205997 0.6220 0.6220 0.6220 0.6220 0.6220
14.240000 0.6200 0.6200 0.6180 0.6170 0.6130
14.273997 0.6120 0.6100 0.6050 0.6050 0.6020
14.308000 0.5960 0.5960 0.5930 0.5900 0.5880
14.341997 0.5800 0.5750 0.5750 0.5680 0.5640
14.376000 0.5610 0.5590 0.5560 0.5530 0.5480
14.409997 0.5440 0.5410 0.5390 0.5370 0.5360
14.444000 0.5360 0.5340 0.5340 0.5340 0.5340
14.477997 0.5360 0.5360 0.5370 0.5390 0.5430
14.512000 0.5440 0.5440 0.5480 0.5510 0.5510
14.545997 0.5530 0.5530 0.5530 0.5540 0.5540
14.580000 0.5560 0.5560 0.5560 0.5580 0.5580
14.613997 0.5580 0.5560 0.5560 0.5560 0.5540
14.648000 0.5540 0.5530 0.5510 0.5490 0.5480
14.681997 0.5460 0.5460 0.5440 0.5440 0.5430
14.716000 0.5410 0.5390 0.5370 0.5360 0.5340
14.749997 0.5320 0.5310 0.5310 0.5290 0.5270
14.783000 0.5260 0.5240 0.5210 0.5190 0.5170
14.816997 0.5160 0.5140 0.5120 0.5100 0.5090
14.851000 0.5050 0.5050 0.5020 0.5000 0.4990
14.884997 0.4950 0.4920 0.4870 0.4850 0.4820
14.919000 0.4800 0.4770 0.4730 0.4680 0.4650
14.952997 0.4600 0.4560 0.4510 0.4460 0.4430
14.987000 0.4380 0.4330 0.4280 0.4210 0.4160
15.020997 0.4110 0.4040 0.3970 0.3910 0.3840
15.055000 0.3770 0.3690 0.3620 0.3540 0.3450
15.088997 0.3350 0.3280 0.3220 0.3150 0.3100
15.123000 0.3030 0.2980 0.2910 0.2840 0.2760
15.156997 0.2710 0.2680 0.2640 0.2610 0.2590
15.191000 0.2540 0.2510 0.2490 0.2470 0.2470
15.224997 0.2460 0.2460 0.2460 0.2460 0.2460
15.259000 0.2470 0.2470 0.2470 0.2490 0.2490
15.292997 0.2510 0.2520 0.2520 0.2540 0.2540
15.327000 0.2580 0.2580 0.2590 0.2610 0.2630
15.360997 0.2640 0.2660 0.2690 0.2710 0.2760
15.395000 0.2790 0.2840 0.2900 0.2910 0.2950
15.428997 0.2980 0.3010 0.3050 0.3150 0.3230
15.463000 0.3300 0.3350 0.3400 0.3450 0.3500
15.496997 0.3550 0.3590 0.3640 0.3670 0.3720
15.531000 0.3760 0.3810 0.3840 0.3870 0.3890
15.564997 0.3910 0.3910 0.3940 0.3970 0.3970
15.599000 0.3990 0.3990 0.3990 0.3990 0.3990
15.632997 0.3990 0.4010 0.4010 0.4030 0.4030
15.667000 0.4030 0.4030 0.4030 0.4030 0.4030
15.700997 0.4030 0.4030 0.4030 0.4030 0.4030
15.735000 0.4030 0.4030 0.4030 0.4030 0.4030
15.768997 0.4030 0.4030 0.4030 0.4030 0.4030
15.803000 0.4030 0.4010 0.3990 0.3990 0.3990
15.836997 0.3990 0.3990 0.3990 0.3990 0.3990
15.871000 0.3990 0.3990 0.3990 0.3990 0.3990
15.904997 0.3990 0.3990 0.3990 0.3990 0.3990
15.939000 0.3990 0.3990 0.3990 0.3990 0.3990
15.972997 0.4010 0.4010 0.4010
##END=
