##TITLE=10-[3-(1-METHYL-4-PIPERAZINYL)-2-METHYLPROPYL]-2-TRIFLUOROMETHYLPHENOTHIAZINE, DIHYDROCHLORIDE
##JCAMP-DX=4.24
##DATA TYPE=INFRARED SPECTRUM
##CLASS=COBLENTZ III
##ORIGIN=SMITH KLINE & FRENCH LABS.
##OWNER=COBLENTZ SOCIETY
Collection (C) 2018 copyright by the U.S. Secretary of Commerce
on behalf of the United States of America. All rights reserved.
##DATE=1957/03/01
##MOLFORM=C22 H28 Cl2 F3 N3 S
##SOURCE REFERENCE=COBLENTZ NO. 9133
##$NIST ID=B6009133
##$NIST SOURCE=COBLENTZ
##$NIST IMAGE=cob9133
##SPECTROMETER/DATA SYSTEM=Not specified, most likely a prism spectrometer.
##INSTRUMENT PARAMETERS=NaCl PRISM
##STATE=SOLID (KBr DISC)
##SAMPLING PROCEDURE=TRANSMISSION
##RESOLUTION=2
##DATA PROCESSING=DIGITIZED BY NIST FROM HARD COPY
##XUNITS=MICROMETERS
##YUNITS=TRANSMITTANCE
##XFACTOR=1.000000
##YFACTOR=1
##DELTAX=000.004904
##FIRSTX=2
##LASTX=14.7745
##FIRSTY=0.601
##MAXX=14.7745
##MINX=2
##MAXY=0.821
##MINY=0.046
##NPOINTS=2606
##XYDATA=(X++(Y..Y))
2.000000 0.6010 0.6010 0.6010 0.6010 0.6010
2.024529 0.6010 0.6020 0.6020 0.6020 0.6020
2.049000 0.6030 0.6030 0.6030 0.6040 0.6040
2.073529 0.6040 0.6040 0.6070 0.6070 0.6080
2.098000 0.6080 0.6090 0.6100 0.6100 0.6120
2.122529 0.6120 0.6140 0.6150 0.6170 0.6180
2.147000 0.6190 0.6190 0.6210 0.6230 0.6240
2.171529 0.6250 0.6260 0.6280 0.6290 0.6300
2.196000 0.6310 0.6320 0.6320 0.6320 0.6310
2.220529 0.6310 0.6310 0.6300 0.6300 0.6290
2.245000 0.6290 0.6280 0.6260 0.6240 0.6200
2.269529 0.6150 0.6130 0.6100 0.6120 0.6140
2.294000 0.6170 0.6200 0.6250 0.6280 0.6300
2.318529 0.6310 0.6320 0.6350 0.6360 0.6370
2.343000 0.6390 0.6400 0.6410 0.6410 0.6430
2.367529 0.6450 0.6450 0.6460 0.6470 0.6480
2.392000 0.6480 0.6500 0.6510 0.6520 0.6520
2.416529 0.6530 0.6540 0.6540 0.6570 0.6580
2.441000 0.6590 0.6600 0.6620 0.6630 0.6640
2.465529 0.6650 0.6670 0.6670 0.6680 0.6690
2.490000 0.6700 0.6710 0.6730 0.6740 0.6760
2.514529 0.6760 0.6780 0.6790 0.6790 0.6800
2.539000 0.6800 0.6800 0.6810 0.6810 0.6810
2.563529 0.6810 0.6810 0.6810 0.6810 0.6810
2.588000 0.6810 0.6810 0.6840 0.6870 0.6930
2.612529 0.6960 0.6980 0.7000 0.7020 0.7030
2.637000 0.7040 0.7070 0.7080 0.7090 0.7120
2.661529 0.7130 0.7140 0.7150 0.7150 0.7150
2.686000 0.7150 0.7150 0.7150 0.7150 0.7150
2.710529 0.7150 0.7150 0.7150 0.7150 0.7150
2.735000 0.7140 0.7140 0.7130 0.7130 0.7120
2.759529 0.7120 0.7100 0.7100 0.7090 0.7090
2.784000 0.7080 0.7080 0.7070 0.7040 0.7020
2.808529 0.7000 0.6960 0.6920 0.6910 0.6910
2.833000 0.6910 0.6900 0.6870 0.6850 0.6820
2.857529 0.6800 0.6780 0.6750 0.6730 0.6710
2.882000 0.6700 0.6690 0.6680 0.6680 0.6670
2.906529 0.6650 0.6650 0.6650 0.6650 0.6650
2.931000 0.6650 0.6670 0.6670 0.6670 0.6680
2.955529 0.6680 0.6690 0.6690 0.6710 0.6800
2.980000 0.6870 0.6930 0.7000 0.7030 0.7080
3.004529 0.7100 0.7130 0.7150 0.7170 0.7180
3.029000 0.7190 0.7210 0.7230 0.7250 0.7280
3.053529 0.7310 0.7340 0.7360 0.7360 0.7370
3.078000 0.7370 0.7390 0.7390 0.7400 0.7400
3.102529 0.7410 0.7410 0.7410 0.7410 0.7410
3.128000 0.7410 0.7410 0.7410 0.7410 0.7410
3.152529 0.7410 0.7410 0.7410 0.7410 0.7410
3.177000 0.7400 0.7400 0.7400 0.7390 0.7390
3.201529 0.7390 0.7370 0.7360 0.7350 0.7340
3.226000 0.7320 0.7310 0.7300 0.7130 0.7120
3.250529 0.6970 0.6900 0.6790 0.6420 0.6210
3.275000 0.6100 0.6030 0.6020 0.6040 0.6200
3.299529 0.6340 0.6340 0.6310 0.6240 0.6170
3.324000 0.6040 0.5850 0.5620 0.5350 0.5060
3.348529 0.4310 0.3890 0.3410 0.2670 0.2460
3.373000 0.2450 0.2470 0.2900 0.3150 0.3400
3.397529 0.3460 0.3540 0.3590 0.3690 0.3750
3.422000 0.3810 0.3890 0.3950 0.3980 0.4040
3.446529 0.4080 0.4120 0.4130 0.4170 0.4280
3.471000 0.4300 0.4340 0.4370 0.4410 0.4460
3.495529 0.4510 0.4560 0.4600 0.4840 0.5000
3.520000 0.5140 0.5320 0.5420 0.5530 0.5630
3.544529 0.5730 0.5800 0.5850 0.5980 0.6030
3.569000 0.6030 0.6040 0.6070 0.6090 0.6100
3.593529 0.6130 0.6130 0.6080 0.6030 0.6000
3.618000 0.5920 0.5860 0.5850 0.5810 0.5790
3.642529 0.5670 0.5620 0.5430 0.5420 0.5410
3.667000 0.5400 0.5370 0.5360 0.5260 0.5210
3.691529 0.5180 0.5090 0.5060 0.4800 0.4690
3.716000 0.4690 0.4670 0.4600 0.4510 0.4400
3.740529 0.4280 0.4130 0.3970 0.3800 0.3710
3.765000 0.3570 0.3510 0.3360 0.3210 0.3190
3.789529 0.3180 0.3180 0.3170 0.3170 0.3140
3.814000 0.3130 0.3130 0.3130 0.3130 0.3150
3.838529 0.3250 0.3340 0.3350 0.3180 0.2960
3.863000 0.2900 0.2760 0.2690 0.2580 0.2460
3.887529 0.2340 0.2250 0.2200 0.2120 0.2080
3.912000 0.2040 0.2010 0.1980 0.1980 0.1980
3.936529 0.1980 0.2000 0.2030 0.2100 0.2120
3.961000 0.2080 0.2040 0.2030 0.2020 0.2010
3.985529 0.2000 0.2000 0.1980 0.1980 0.2000
4.010000 0.2000 0.2000 0.2000 0.2020 0.2070
4.034529 0.2080 0.2080 0.2080 0.2080 0.2030
4.059000 0.2010 0.1980 0.1960 0.1950 0.1890
4.083529 0.1860 0.1800 0.1690 0.1670 0.1590
4.108000 0.1570 0.1580 0.1590 0.1590 0.1590
4.132529 0.1590 0.1590 0.1590 0.1590 0.1590
4.157000 0.1590 0.1580 0.1580 0.1580 0.1580
4.181529 0.1580 0.1580 0.1570 0.1560 0.1500
4.206000 0.1420 0.1370 0.1310 0.1260 0.1190
4.230529 0.1180 0.1180 0.1180 0.1180 0.1180
4.255000 0.1190 0.1250 0.1320 0.1360 0.1410
4.279529 0.1580 0.1640 0.1670 0.1680 0.1690
4.304000 0.1690 0.1710 0.1750 0.1840 0.1960
4.328529 0.2000 0.2030 0.2060 0.2090 0.2150
4.353000 0.2190 0.2210 0.2260 0.2300 0.2310
4.377529 0.2320 0.2340 0.2350 0.2370 0.2530
4.403000 0.2650 0.2740 0.2810 0.2860 0.2910
4.427529 0.2950 0.2980 0.3020 0.3060 0.3120
4.452000 0.3190 0.3290 0.3310 0.3350 0.3390
4.476529 0.3460 0.3500 0.3510 0.3530 0.3540
4.501000 0.3560 0.3560 0.3580 0.3630 0.3690
4.525529 0.3760 0.3820 0.3900 0.3960 0.4010
4.550000 0.4030 0.4040 0.4070 0.4140 0.4250
4.574529 0.4340 0.4360 0.4400 0.4520 0.4590
4.599000 0.4630 0.4690 0.4760 0.4810 0.4910
4.623529 0.4960 0.4980 0.5040 0.5090 0.5180
4.648000 0.5240 0.5290 0.5320 0.5370 0.5420
4.672529 0.5470 0.5520 0.5560 0.5590 0.5620
4.697000 0.5650 0.5670 0.5710 0.5730 0.5750
4.721529 0.5780 0.5840 0.5920 0.5970 0.5980
4.746000 0.6010 0.6020 0.6060 0.6100 0.6120
4.770529 0.6150 0.6180 0.6210 0.6250 0.6300
4.795000 0.6340 0.6370 0.6400 0.6420 0.6430
4.819529 0.6460 0.6480 0.6510 0.6530 0.6590
4.844000 0.6640 0.6650 0.6670 0.6670 0.6690
4.868529 0.6710 0.6740 0.6760 0.6780 0.6800
4.893000 0.6820 0.6850 0.6870 0.6920 0.6960
4.917529 0.6980 0.7010 0.7040 0.7070 0.7100
4.942000 0.7120 0.7130 0.7140 0.7170 0.7190
4.966529 0.7200 0.7210 0.7230 0.7240 0.7260
4.991000 0.7280 0.7290 0.7300 0.7310 0.7320
5.015529 0.7350 0.7350 0.7360 0.7360 0.7370
5.040000 0.7370 0.7390 0.7390 0.7390 0.7390
5.064529 0.7400 0.7410 0.7410 0.7410 0.7420
5.089000 0.7420 0.7420 0.7430 0.7430 0.7430
5.113529 0.7450 0.7450 0.7450 0.7470 0.7510
5.138000 0.7510 0.7520 0.7520 0.7530 0.7530
5.162529 0.7540 0.7560 0.7560 0.7570 0.7570
5.187000 0.7580 0.7580 0.7590 0.7590 0.7600
5.211529 0.7600 0.7620 0.7620 0.7620 0.7600
5.236000 0.7590 0.7580 0.7560 0.7540 0.7530
5.260529 0.7510 0.7500 0.7480 0.7480 0.7480
5.285000 0.7480 0.7480 0.7510 0.7540 0.7570
5.309529 0.7630 0.7680 0.7710 0.7730 0.7740
5.334000 0.7750 0.7760 0.7780 0.7790 0.7800
5.358529 0.7810 0.7820 0.7840 0.7850 0.7850
5.383000 0.7870 0.7900 0.7910 0.7920 0.7930
5.407529 0.7950 0.7960 0.7970 0.7970 0.7980
5.432000 0.7980 0.7980 0.7980 0.7980 0.8000
5.456529 0.8000 0.8000 0.8000 0.8010 0.8010
5.481000 0.8010 0.8010 0.8010 0.8010 0.8010
5.505529 0.8010 0.8010 0.8010 0.8010 0.8010
5.530000 0.8010 0.8010 0.8010 0.8010 0.8000
5.554529 0.7980 0.7970 0.7960 0.7950 0.7930
5.579000 0.7930 0.7930 0.7960 0.7950 0.7950
5.603529 0.7960 0.7960 0.7960 0.7960 0.7970
5.629000 0.7970 0.7970 0.7970 0.7980 0.7980
5.653529 0.7980 0.7980 0.7980 0.7980 0.7970
5.678000 0.7970 0.7960 0.7960 0.7950 0.7950
5.702529 0.7930 0.7920 0.7920 0.7920 0.7920
5.727000 0.7930 0.7930 0.7930 0.7950 0.7950
5.751529 0.7950 0.7970 0.7980 0.8000 0.8010
5.776000 0.8020 0.8030 0.8030 0.8060 0.8070
5.800529 0.8080 0.8090 0.8090 0.8100 0.8100
5.825000 0.8120 0.8120 0.8130 0.8130 0.8140
5.849529 0.8140 0.8140 0.8150 0.8150 0.8150
5.874000 0.8150 0.8150 0.8170 0.8170 0.8170
5.898529 0.8170 0.8170 0.8170 0.8170 0.8170
5.923000 0.8170 0.8170 0.8170 0.8170 0.8150
5.947529 0.8150 0.8150 0.8140 0.8140 0.8140
5.972000 0.8130 0.8130 0.8130 0.8120 0.8120
5.996529 0.8120 0.8100 0.8100 0.8100 0.8090
6.021000 0.8090 0.8090 0.8090 0.8080 0.8070
6.045529 0.8030 0.8000 0.7970 0.7920 0.7920
6.070000 0.7910 0.7900 0.7890 0.7870 0.7860
6.094529 0.7860 0.7860 0.7860 0.7850 0.7850
6.119000 0.7850 0.7870 0.7930 0.7960 0.7950
6.143529 0.7930 0.7850 0.7800 0.7700 0.7690
6.168000 0.7650 0.7630 0.7600 0.7560 0.7460
6.192529 0.7390 0.7360 0.7070 0.6820 0.6190
6.217000 0.5840 0.5510 0.5190 0.4600 0.4350
6.241529 0.4340 0.4360 0.4390 0.4750 0.5100
6.266000 0.6010 0.6430 0.6570 0.6710 0.6850
6.290529 0.6970 0.7130 0.7200 0.7280 0.7260
6.315000 0.7250 0.7230 0.7120 0.7090 0.7010
6.339529 0.6910 0.6800 0.6410 0.6280 0.6190
6.364000 0.6140 0.6090 0.6080 0.6070 0.6250
6.388529 0.6460 0.6600 0.6670 0.6730 0.6910
6.413000 0.7130 0.7320 0.7520 0.7640 0.7690
6.437529 0.7700 0.7730 0.7750 0.7750 0.7760
6.462000 0.7780 0.7780 0.7760 0.7760 0.7780
6.486529 0.7810 0.7840 0.7860 0.7860 0.7870
6.511000 0.7870 0.7870 0.7890 0.7890 0.7890
6.535529 0.7870 0.7860 0.7860 0.7850 0.7850
6.560000 0.7840 0.7820 0.7800 0.7730 0.7690
6.584529 0.7650 0.7630 0.7620 0.7600 0.7590
6.609000 0.7580 0.7570 0.7570 0.7570 0.7540
6.633529 0.7450 0.7240 0.7130 0.7040 0.6980
6.658000 0.6920 0.6850 0.6730 0.6320 0.6000
6.682529 0.5560 0.5120 0.4600 0.4390 0.4350
6.707000 0.4360 0.4410 0.4560 0.4710 0.4740
6.731529 0.4800 0.4710 0.4520 0.4210 0.3910
6.756000 0.3600 0.3340 0.2820 0.2590 0.2370
6.780529 0.2180 0.2180 0.2170 0.2150 0.2130
6.805000 0.1760 0.1390 0.1370 0.1400 0.1570
6.829529 0.1730 0.2030 0.2100 0.2190 0.2240
6.855000 0.2290 0.2230 0.2210 0.2190 0.2170
6.879529 0.2140 0.2120 0.2080 0.2060 0.2030
6.904000 0.2010 0.1980 0.1960 0.1920 0.1920
6.928529 0.1950 0.2560 0.2860 0.3190 0.3370
6.953000 0.3560 0.3560 0.3520 0.3340 0.2970
6.977529 0.2780 0.2580 0.2570 0.2460 0.2280
7.002000 0.2010 0.0920 0.0500 0.0470 0.0500
7.026529 0.0690 0.0710 0.0900 0.1040 0.1060
7.051000 0.1080 0.1500 0.1860 0.2210 0.2580
7.075529 0.2790 0.2950 0.3090 0.3250 0.3430
7.100000 0.3620 0.3860 0.3930 0.4080 0.4170
7.124529 0.4210 0.4300 0.4300 0.4180 0.4060
7.149000 0.3970 0.3890 0.3800 0.3790 0.3760
7.173529 0.3740 0.3700 0.3680 0.3640 0.3600
7.198000 0.3530 0.3520 0.3540 0.3540 0.3680
7.222529 0.3800 0.3950 0.4170 0.4280 0.4390
7.247000 0.4500 0.4570 0.4910 0.5250 0.5580
7.271529 0.5650 0.5870 0.5960 0.6020 0.6120
7.296000 0.6210 0.6510 0.6510 0.6510 0.6510
7.320529 0.6510 0.6460 0.6400 0.6340 0.6290
7.345000 0.6230 0.6170 0.6120 0.6070 0.6020
7.369529 0.5960 0.5950 0.5500 0.5210 0.4650
7.394000 0.4640 0.4530 0.3740 0.2960 0.2790
7.418529 0.2650 0.2420 0.2290 0.2030 0.1790
7.443000 0.1760 0.1100 0.0870 0.0860 0.0700
7.467529 0.0590 0.0470 0.0460 0.0460 0.0460
7.492000 0.0460 0.0470 0.0480 0.0570 0.0640
7.516529 0.0730 0.0800 0.0870 0.0960 0.1030
7.541000 0.1120 0.1420 0.1710 0.1740 0.1670
7.565529 0.1590 0.1580 0.1590 0.1690 0.1790
7.590000 0.1920 0.2070 0.2240 0.2450 0.2670
7.614529 0.2910 0.3190 0.3350 0.3500 0.3630
7.639000 0.3700 0.3760 0.3760 0.3790 0.3820
7.663529 0.3860 0.3920 0.3960 0.3970 0.4020
7.688000 0.4020 0.4010 0.3410 0.2600 0.2340
7.712529 0.2120 0.1900 0.1650 0.1690 0.1710
7.737000 0.1930 0.2170 0.2420 0.2630 0.2780
7.761529 0.3040 0.3310 0.3430 0.3540 0.3760
7.786000 0.3960 0.4130 0.4280 0.4410 0.4530
7.810529 0.4600 0.4810 0.4820 0.4820 0.4820
7.835000 0.4810 0.4560 0.4530 0.4420 0.4240
7.859529 0.4000 0.3730 0.3420 0.3100 0.3090
7.884000 0.3090 0.3100 0.3580 0.4040 0.4500
7.908529 0.4740 0.4900 0.4950 0.5000 0.5000
7.933000 0.5000 0.5000 0.5000 0.4710 0.4580
7.957529 0.4460 0.4320 0.4200 0.4070 0.3950
7.982000 0.3730 0.3480 0.3230 0.3090 0.2320
8.006529 0.1040 0.0700 0.0640 0.0640 0.0640
8.031000 0.0640 0.0640 0.0640 0.0670 0.0840
8.055529 0.0980 0.1130 0.1300 0.1590 0.1870
8.081000 0.2120 0.2190 0.2190 0.2190 0.2120
8.105529 0.2100 0.2100 0.2100 0.2100 0.2130
8.130000 0.2470 0.2810 0.3140 0.3300 0.3450
8.154529 0.3750 0.4040 0.4310 0.4540 0.4760
8.179000 0.4960 0.5040 0.5120 0.5230 0.5420
8.203529 0.5570 0.5700 0.5800 0.5890 0.5960
8.228000 0.6030 0.6100 0.6170 0.6240 0.6350
8.252529 0.6400 0.6430 0.6450 0.6460 0.6460
8.277000 0.6430 0.6410 0.6370 0.6350 0.6320
8.301529 0.6290 0.6260 0.6240 0.6200 0.6180
8.326000 0.6140 0.6140 0.6170 0.6500 0.6510
8.350529 0.6400 0.6370 0.6290 0.6210 0.6130
8.375000 0.6120 0.6130 0.6130 0.6130 0.6130
8.399529 0.6150 0.6190 0.6290 0.6350 0.6390
8.424000 0.6410 0.6450 0.6450 0.6360 0.6320
8.448529 0.6310 0.6310 0.6260 0.6180 0.6080
8.473000 0.5970 0.5850 0.5750 0.5650 0.5580
8.497529 0.5480 0.5360 0.5230 0.5090 0.4780
8.522000 0.4600 0.4430 0.4240 0.4060 0.3860
8.546529 0.3650 0.3450 0.3030 0.2810 0.2590
8.571000 0.2390 0.2170 0.1950 0.1740 0.1320
8.595529 0.1120 0.0900 0.0700 0.0560 0.0530
8.620000 0.0540 0.0640 0.0650 0.0680 0.0900
8.644529 0.1100 0.1280 0.1460 0.1650 0.1790
8.669000 0.1920 0.2250 0.2420 0.2480 0.2530
8.693529 0.2530 0.2520 0.2410 0.2300 0.2130
8.718000 0.1950 0.1760 0.1560 0.1540 0.1540
8.742529 0.1540 0.1540 0.1540 0.1540 0.1540
8.767000 0.1570 0.1590 0.1600 0.1640 0.1670
8.791529 0.1790 0.1910 0.2020 0.2190 0.2320
8.816000 0.2400 0.2400 0.2400 0.2390 0.2260
8.840529 0.2230 0.2150 0.2090 0.2070 0.2030
8.865000 0.2000 0.2000 0.1900 0.1890 0.1810
8.889529 0.1740 0.1690 0.1620 0.1590 0.1560
8.914000 0.1500 0.1420 0.1310 0.1300 0.1200
8.938529 0.1070 0.0920 0.0800 0.0740 0.0680
8.963000 0.0620 0.0590 0.0590 0.0580 0.0520
8.987529 0.0480 0.0470 0.0470 0.0470 0.0470
9.012000 0.0470 0.0470 0.0470 0.0470 0.0470
9.036529 0.0470 0.0480 0.0500 0.0500 0.0510
9.061000 0.0690 0.0900 0.1100 0.1310 0.1510
9.085529 0.1620 0.1710 0.1910 0.2120 0.2290
9.110000 0.2450 0.2540 0.2810 0.3030 0.3210
9.134529 0.3320 0.3430 0.3570 0.3630 0.3630
9.159000 0.3520 0.3430 0.3400 0.3350 0.3340
9.183529 0.3300 0.3260 0.3180 0.3080 0.3070
9.208000 0.3030 0.3020 0.3010 0.2980 0.2970
9.232529 0.2960 0.2930 0.2910 0.2640 0.2350
9.257000 0.2150 0.2090 0.2000 0.1900 0.1810
9.281529 0.1730 0.1680 0.1670 0.1640 0.1630
9.306000 0.1580 0.1540 0.1560 0.1560 0.1560
9.330529 0.1560 0.1570 0.1590 0.1700 0.1800
9.356000 0.2000 0.2190 0.2400 0.2590 0.2800
9.380529 0.3000 0.3180 0.3280 0.3360 0.3530
9.405000 0.3680 0.3820 0.3950 0.4060 0.4140
9.429529 0.4530 0.4730 0.4730 0.4750 0.4790
9.454000 0.4800 0.4890 0.4920 0.4960 0.5000
9.478529 0.5030 0.5080 0.5120 0.5190 0.5260
9.503000 0.5260 0.5260 0.5180 0.5020 0.4570
9.527529 0.4570 0.4580 0.4690 0.4790 0.4900
9.552000 0.4970 0.5200 0.5420 0.5590 0.5690
9.576529 0.5800 0.5920 0.6040 0.6150 0.6260
9.601000 0.6360 0.6420 0.6430 0.6420 0.6230
9.625529 0.6020 0.5780 0.5520 0.5360 0.5030
9.650000 0.4430 0.4260 0.4230 0.4260 0.4420
9.674529 0.4590 0.4810 0.5010 0.5190 0.5540
9.699000 0.5670 0.5910 0.5920 0.6070 0.6150
9.723529 0.6170 0.6170 0.6150 0.5920 0.5680
9.748000 0.5450 0.5200 0.4520 0.4030 0.3800
9.772529 0.3570 0.3410 0.3320 0.3340 0.3340
9.797000 0.3360 0.3520 0.3920 0.4190 0.4480
9.821529 0.4960 0.5070 0.5180 0.5360 0.5690
9.846000 0.5870 0.6010 0.6150 0.6230 0.6240
9.870529 0.6260 0.6300 0.6400 0.6590 0.6640
9.895000 0.6690 0.6780 0.6840 0.6890 0.6930
9.919529 0.6970 0.7000 0.7030 0.7080 0.7120
9.944000 0.7130 0.7140 0.7180 0.7180 0.7230
9.968529 0.7290 0.7310 0.7340 0.7360 0.7370
9.993000 0.7390 0.7400 0.7420 0.7430 0.7430
10.017529 0.7430 0.7450 0.7450 0.7460 0.7470
10.042000 0.7500 0.7520 0.7540 0.7560 0.7560
10.066529 0.7570 0.7570 0.7570 0.7570 0.7570
10.091000 0.7570 0.7570 0.7560 0.7560 0.7540
10.115529 0.7540 0.7530 0.7520 0.7500 0.7480
10.140000 0.7470 0.7470 0.7460 0.7450 0.7420
10.164529 0.7420 0.7410 0.7400 0.7390 0.7360
10.189000 0.7350 0.7340 0.7320 0.7280 0.7180
10.213529 0.7060 0.7030 0.6920 0.6900 0.6730
10.238000 0.6400 0.6230 0.6060 0.5860 0.5640
10.262529 0.5420 0.5190 0.4700 0.4430 0.4170
10.287000 0.3900 0.3600 0.3020 0.2740 0.2420
10.311529 0.2230 0.2230 0.2040 0.2030 0.2020
10.336000 0.2010 0.2000 0.1980 0.2010 0.2320
10.360529 0.2350 0.2370 0.2370 0.2690 0.2960
10.385000 0.3120 0.3300 0.3370 0.3430 0.3590
10.409529 0.3760 0.3840 0.3890 0.3870 0.3840
10.434000 0.3760 0.3710 0.3640 0.3560 0.3480
10.458529 0.3470 0.3500 0.3560 0.3620 0.3680
10.483000 0.3740 0.3810 0.4520 0.4670 0.4950
10.507529 0.5210 0.5390 0.5650 0.5710 0.5780
10.532000 0.5910 0.5970 0.6070 0.6230 0.6340
10.556529 0.6340 0.6260 0.6210 0.6150 0.6140
10.582000 0.6170 0.6340 0.6500 0.6570 0.6600
10.606529 0.6640 0.6680 0.6700 0.6710 0.6730
10.631000 0.6750 0.6760 0.6760 0.6760 0.6760
10.655529 0.6760 0.6760 0.6750 0.6750 0.6730
10.680000 0.6700 0.6670 0.6510 0.6460 0.6390
10.704529 0.6210 0.5900 0.5400 0.5230 0.5140
10.729000 0.5150 0.5170 0.5240 0.5320 0.5530
10.753529 0.5620 0.5690 0.5780 0.5890 0.6000
10.778000 0.6130 0.6280 0.6450 0.6630 0.6690
10.802529 0.6740 0.6810 0.6780 0.6740 0.6700
10.827000 0.6600 0.6580 0.6480 0.6400 0.6240
10.851529 0.6020 0.5690 0.5570 0.5370 0.5150
10.876000 0.4690 0.4480 0.4310 0.4180 0.4080
10.900529 0.4070 0.4060 0.4080 0.4280 0.4520
10.925000 0.4700 0.4890 0.4980 0.5080 0.5260
10.949529 0.5420 0.5580 0.5730 0.5860 0.5980
10.974000 0.6090 0.6200 0.6300 0.6400 0.6480
10.998529 0.6560 0.6630 0.6670 0.6700 0.6750
11.023000 0.6780 0.6860 0.6900 0.6910 0.6840
11.047529 0.6800 0.6750 0.6690 0.6520 0.6170
11.072000 0.6080 0.6090 0.6100 0.6130 0.6150
11.096529 0.6240 0.6310 0.6410 0.6530 0.6590
11.121000 0.6650 0.6680 0.6700 0.6810 0.7010
11.145529 0.7080 0.7150 0.7200 0.7250 0.7260
11.170000 0.7310 0.7340 0.7350 0.7370 0.7410
11.194529 0.7430 0.7450 0.7460 0.7470 0.7480
11.219000 0.7500 0.7500 0.7510 0.7510 0.7510
11.243529 0.7520 0.7520 0.7520 0.7530 0.7530
11.268000 0.7530 0.7530 0.7530 0.7530 0.7530
11.292529 0.7530 0.7530 0.7530 0.7530 0.7530
11.317000 0.7520 0.7510 0.7500 0.7470 0.7460
11.341529 0.7450 0.7430 0.7410 0.7360 0.7310
11.366000 0.7190 0.7080 0.7020 0.6840 0.6450
11.390529 0.6260 0.6150 0.6070 0.5020 0.4090
11.415000 0.3420 0.3390 0.3370 0.2800 0.2790
11.439529 0.2800 0.3190 0.3430 0.3680 0.4080
11.464000 0.4520 0.4970 0.5200 0.5420 0.5840
11.488529 0.6180 0.6450 0.6580 0.6570 0.6650
11.513000 0.6690 0.6730 0.6810 0.6900 0.6980
11.537529 0.7070 0.7150 0.7240 0.7300 0.7360
11.562000 0.7420 0.7460 0.7470 0.7500 0.7510
11.586529 0.7510 0.7480 0.7480 0.7400 0.7350
11.611000 0.7260 0.7090 0.6930 0.6920 0.6950
11.635529 0.7020 0.7180 0.7320 0.7410 0.7460
11.660000 0.7470 0.7500 0.7520 0.7520 0.7540
11.684529 0.7570 0.7570 0.7580 0.7570 0.7560
11.709000 0.7530 0.7510 0.7470 0.7430 0.7350
11.733529 0.7340 0.7250 0.7130 0.7010 0.6920
11.758000 0.6910 0.6920 0.7020 0.7170 0.7260
11.782529 0.7350 0.7400 0.7450 0.7500 0.7530
11.808000 0.7560 0.7570 0.7590 0.7630 0.7650
11.832529 0.7680 0.7730 0.7760 0.7780 0.7790
11.857000 0.7800 0.7800 0.7800 0.7800 0.7800
11.881529 0.7800 0.7800 0.7790 0.7780 0.7750
11.906000 0.7730 0.7690 0.7650 0.7620 0.7560
11.930529 0.7480 0.7390 0.7280 0.7250 0.7250
11.955000 0.7280 0.7400 0.7450 0.7500 0.7500
11.979529 0.7470 0.7370 0.7360 0.7360 0.7360
12.004000 0.7360 0.7360 0.7360 0.7360 0.7390
12.028529 0.7480 0.7520 0.7520 0.7450 0.7430
12.053000 0.7420 0.7360 0.7280 0.7170 0.7070
12.077529 0.6980 0.6920 0.6810 0.6450 0.6210
12.102000 0.5960 0.5700 0.5420 0.5150 0.4640
12.126529 0.4400 0.4100 0.3730 0.2600 0.2080
12.151000 0.1930 0.1950 0.1960 0.1970 0.1980
12.175529 0.2010 0.2190 0.2390 0.2840 0.3120
12.200000 0.3260 0.3400 0.3690 0.4120 0.4320
12.224529 0.4540 0.4840 0.5130 0.5620 0.5740
12.249000 0.5860 0.5980 0.6120 0.6350 0.6470
12.273529 0.6580 0.6640 0.6700 0.6810 0.7000
12.298000 0.7150 0.7200 0.7230 0.7230 0.7290
12.322529 0.7410 0.7470 0.7480 0.7500 0.7520
12.347000 0.7520 0.7530 0.7560 0.7580 0.7600
12.371529 0.7650 0.7730 0.7740 0.7750 0.7760
12.396000 0.7800 0.7860 0.7900 0.7930 0.7950
12.420529 0.7960 0.7970 0.7970 0.7980 0.8000
12.445000 0.8010 0.8010 0.8010 0.8010 0.8000
12.469529 0.8000 0.8000 0.8010 0.8010 0.8010
12.494000 0.8000 0.8000 0.7980 0.7980 0.7970
12.518529 0.7920 0.7900 0.7860 0.7840 0.7800
12.543000 0.7780 0.7740 0.7730 0.7710 0.7740
12.567529 0.7760 0.7790 0.7810 0.7840 0.7870
12.592000 0.7890 0.7900 0.7950 0.7980 0.8000
12.616529 0.8010 0.8010 0.8010 0.8020 0.8040
12.641000 0.8040 0.8070 0.8080 0.8090 0.8100
12.665529 0.8120 0.8130 0.8140 0.8150 0.8170
12.690000 0.8170 0.8180 0.8180 0.8180 0.8190
12.714529 0.8190 0.8200 0.8200 0.8210 0.8210
12.739000 0.8210 0.8210 0.8210 0.8210 0.8200
12.763529 0.8200 0.8200 0.8190 0.8190 0.8190
12.788000 0.8180 0.8180 0.8180 0.8170 0.8150
12.812529 0.8140 0.8130 0.8130 0.8090 0.8070
12.837000 0.8040 0.8020 0.8000 0.7970 0.7950
12.861529 0.7930 0.7920 0.7900 0.7890 0.7890
12.886000 0.7900 0.7910 0.7910 0.7930 0.7960
12.910529 0.7970 0.7980 0.7980 0.8000 0.8000
12.935000 0.8000 0.8000 0.8000 0.8000 0.8000
12.959529 0.8000 0.7980 0.7970 0.7960 0.7930
12.984000 0.7920 0.7920 0.7920 0.7900 0.7870
13.008529 0.7840 0.7810 0.7760 0.7760 0.7750
13.034000 0.7710 0.7670 0.7620 0.7560 0.7480
13.058529 0.7410 0.7320 0.7240 0.7140 0.7060
13.083000 0.6970 0.6870 0.6800 0.6450 0.6210
13.107529 0.5950 0.5650 0.5360 0.5080 0.4560
13.132000 0.4350 0.4280 0.4140 0.4010 0.3980
13.156529 0.4010 0.4230 0.4420 0.4630 0.4890
13.181000 0.5020 0.5140 0.5320 0.5430 0.5470
13.205529 0.5500 0.5530 0.5560 0.5620 0.5630
13.230000 0.5640 0.5640 0.5640 0.5630 0.5570
13.254529 0.5530 0.5500 0.5420 0.5290 0.5060
13.279000 0.4730 0.4560 0.4370 0.4190 0.4000
13.303529 0.3790 0.3590 0.3390 0.2960 0.2740
13.328000 0.2520 0.2300 0.2070 0.1850 0.1810
13.352529 0.1510 0.1430 0.1360 0.1280 0.1180
13.377000 0.1090 0.1070 0.1070 0.1070 0.1070
13.401529 0.1080 0.1680 0.2280 0.2450 0.2620
13.426000 0.2790 0.2960 0.3130 0.3300 0.3400
13.450529 0.3480 0.4140 0.4630 0.4810 0.5000
13.475000 0.5280 0.5470 0.5620 0.5760 0.5910
13.499529 0.6080 0.6200 0.6280 0.6360 0.6430
13.524000 0.6560 0.6640 0.6710 0.6890 0.6960
13.548529 0.7060 0.7120 0.7040 0.7030 0.7030
13.573000 0.7040 0.7060 0.7080 0.7040 0.6960
13.597529 0.6870 0.6700 0.6340 0.6200 0.6130
13.622000 0.6040 0.6020 0.6040 0.6140 0.6240
13.646529 0.6360 0.6510 0.6650 0.6740 0.6820
13.671000 0.6980 0.7120 0.7250 0.7340 0.7370
13.695529 0.7390 0.7400 0.7400 0.7420 0.7460
13.720000 0.7480 0.7500 0.7530 0.7590 0.7600
13.744529 0.7630 0.7640 0.7650 0.7680 0.7750
13.769000 0.7790 0.7790 0.7800 0.7800 0.7810
13.793529 0.7810 0.7790 0.7630 0.7400 0.7280
13.818000 0.7190 0.7090 0.6900 0.5960 0.5870
13.842529 0.5760 0.5650 0.5530 0.5520 0.5540
13.867000 0.5780 0.5900 0.6010 0.6060 0.6400
13.891529 0.6690 0.6980 0.7060 0.7170 0.7250
13.916000 0.7340 0.7400 0.7470 0.7540 0.7600
13.940529 0.7680 0.7750 0.7780 0.7810 0.7810
13.965000 0.7820 0.7820 0.7820 0.7840 0.7840
13.989529 0.7840 0.7850 0.7850 0.7860 0.7890
14.014000 0.7910 0.7910 0.7920 0.7930 0.7930
14.038529 0.7950 0.7960 0.7970 0.7980 0.8000
14.063000 0.8010 0.8010 0.8020 0.8020 0.8020
14.087529 0.8020 0.8020 0.8020 0.8020 0.8020
14.112000 0.8020 0.8010 0.8020 0.8020 0.8020
14.136529 0.8020 0.8020 0.8020 0.8010 0.8010
14.161000 0.8000 0.8000 0.7970 0.7950 0.7930
14.185529 0.7920 0.7920 0.7900 0.7840 0.7740
14.210000 0.7570 0.7500 0.7460 0.7460 0.7450
14.234529 0.7450 0.7420 0.7410 0.7420 0.7420
14.260000 0.7420 0.7420 0.7420 0.7430 0.7450
14.284529 0.7460 0.7480 0.7500 0.7520 0.7590
14.309000 0.7620 0.7640 0.7640 0.7650 0.7680
14.333529 0.7710 0.7780 0.7840 0.7910 0.7930
14.358000 0.7960 0.7970 0.7980 0.8000 0.8000
14.382529 0.8000 0.8000 0.8000 0.8000 0.8000
14.407000 0.8000 0.8000 0.8000 0.8000 0.8000
14.431529 0.8000 0.8000 0.8000 0.8020 0.8040
14.456000 0.8090 0.8100 0.8130 0.8130 0.8130
14.480529 0.8140 0.8140 0.8140 0.8150 0.8150
14.505000 0.8150 0.8150 0.8150 0.8150 0.8140
14.529529 0.8140 0.8140 0.8140 0.8140 0.8130
14.554000 0.8120 0.8120 0.8100 0.8090 0.8090
14.578529 0.8080 0.8070 0.8060 0.8060 0.8040
14.603000 0.8040 0.8030 0.8030 0.8030 0.8030
14.627529 0.8020 0.8020 0.8020 0.8010 0.8000
14.652000 0.7980 0.7970 0.7970 0.7950 0.7910
14.676529 0.7890 0.7860 0.7840 0.7800 0.7790
14.701000 0.7780 0.7760 0.7730 0.7680 0.7630
14.725529 0.7600 0.7570 0.7540 0.7510 0.7480
14.750000 0.7470 0.7470 0.7460 0.7450 0.7450
14.774529 0.7430
##END=
