##TITLE=PIPECOLOXYLIDIDE, 1-METHYL-,HYDROCHLORIDE
##JCAMP-DX=4.24
$$ By DXEDIT 1.05 (RS McDonald)
##DATA TYPE=INFRARED SPECTRUM
##CLASS=COBLENTZ III
##OWNER=COBLENTZ SOC.
Collection (C) 2018 copyright by the U.S. Secretary of Commerce
on behalf of the United States of America. All rights reserved.
##DATE=1962/07/09
##NAMES=N-(2,6-dimethylphenyl)-1-methyl-2-piperidinecarboxamide hydrochloride
CARBOCAIN HYDROCHLORIDE
##MOLFORM=C15 H23 Cl N2 O
##SOURCE REFERENCE=COBLENTZ NO. 05224
##$NIST ID=B6005224
##$NIST SOURCE=COBLENTZ
##$NIST IMAGE=cob5224
##SPECTROMETER/DATA SYSTEM=PERKIN-ELMER 21 (GRATING)
##INSTRUMENT PARAMETERS=FILTER AT ABOUT 10 MICRONS
##STATE=SOLID (KCl DISC) VS KCl
##SAMPLING PROCEDURE=TRANSMISSION
##RESOLUTION=2
##DATA PROCESSING=DIGITIZED BY COBLENTZ SOCIETY (BATCH I) FROM HARD COPY
##XUNITS=1/CM
##YUNITS=TRANSMITTANCE
##XLABEL=Wavenumbers (cm-1)
##YLABEL=Transmittance
##XFACTOR=1
##YFACTOR=1
##DELTAX=1
##FIRSTX=4000
##LASTX=672
##FIRSTY=0.7372
##MAXX=4000
##MINX=672
##MAXY=0.9193
##MINY=0.0731
##NPOINTS=3329
##XYDATA=(X++(Y..Y))
4000.000000 0.7372 0.7374 0.7375 0.7375 0.7378
3995.000000 0.7378 0.7380 0.7381 0.7383 0.7384
3990.000000 0.7385 0.7386 0.7388 0.7389 0.7390
3985.000000 0.7391 0.7393 0.7394 0.7395 0.7396
3980.000000 0.7398 0.7399 0.7400 0.7401 0.7403
3975.000000 0.7404 0.7405 0.7407 0.7408 0.7410
3970.000000 0.7411 0.7411 0.7414 0.7415 0.7415
3965.000000 0.7418 0.7418 0.7419 0.7421 0.7422
3960.000000 0.7424 0.7425 0.7426 0.7428 0.7428
3955.000000 0.7430 0.7432 0.7433 0.7434 0.7436
3950.000000 0.7437 0.7438 0.7439 0.7441 0.7442
3945.000000 0.7443 0.7444 0.7446 0.7447 0.7448
3940.000000 0.7450 0.7451 0.7451 0.7454 0.7455
3935.000000 0.7456 0.7457 0.7458 0.7460 0.7461
3930.000000 0.7462 0.7464 0.7465 0.7465 0.7468
3925.000000 0.7468 0.7469 0.7471 0.7472 0.7475
3920.000000 0.7475 0.7478 0.7478 0.7480 0.7482
3915.000000 0.7483 0.7484 0.7486 0.7487 0.7488
3910.000000 0.7490 0.7491 0.7492 0.7494 0.7495
3905.000000 0.7496 0.7498 0.7499 0.7501 0.7501
3900.000000 0.7504 0.7505 0.7506 0.7508 0.7508
3895.000000 0.7510 0.7511 0.7512 0.7514 0.7515
3890.000000 0.7517 0.7518 0.7519 0.7521 0.7522
3885.000000 0.7524 0.7525 0.7526 0.7528 0.7530
3880.000000 0.7531 0.7532 0.7534 0.7535 0.7536
3875.000000 0.7538 0.7539 0.7541 0.7542 0.7544
3870.000000 0.7545 0.7547 0.7548 0.7549 0.7551
3865.000000 0.7551 0.7553 0.7555 0.7556 0.7558
3860.000000 0.7558 0.7560 0.7561 0.7562 0.7565
3855.000000 0.7565 0.7568 0.7568 0.7571 0.7571
3850.000000 0.7574 0.7575 0.7576 0.7578 0.7581
3845.000000 0.7582 0.7584 0.7586 0.7588 0.7589
3840.000000 0.7591 0.7593 0.7594 0.7596 0.7598
3835.000000 0.7599 0.7601 0.7603 0.7605 0.7606
3830.000000 0.7608 0.7610 0.7611 0.7612 0.7615
3825.000000 0.7617 0.7618 0.7621 0.7622 0.7624
3820.000000 0.7625 0.7628 0.7628 0.7631 0.7633
3815.000000 0.7635 0.7636 0.7638 0.7640 0.7641
3810.000000 0.7643 0.7645 0.7647 0.7648 0.7650
3805.000000 0.7651 0.7654 0.7655 0.7657 0.7658
3800.000000 0.7660 0.7661 0.7664 0.7665 0.7667
3795.000000 0.7668 0.7671 0.7672 0.7674 0.7675
3790.000000 0.7678 0.7680 0.7681 0.7683 0.7684
3785.000000 0.7686 0.7687 0.7688 0.7690 0.7691
3780.000000 0.7692 0.7693 0.7695 0.7696 0.7697
3775.000000 0.7699 0.7700 0.7701 0.7703 0.7704
3770.000000 0.7705 0.7707 0.7708 0.7708 0.7710
3765.000000 0.7711 0.7712 0.7714 0.7715 0.7717
3760.000000 0.7718 0.7719 0.7721 0.7721 0.7724
3755.000000 0.7725 0.7725 0.7728 0.7728 0.7730
3750.000000 0.7732 0.7733 0.7735 0.7736 0.7737
3745.000000 0.7738 0.7739 0.7740 0.7741 0.7742
3740.000000 0.7744 0.7745 0.7746 0.7747 0.7748
3735.000000 0.7750 0.7751 0.7751 0.7753 0.7754
3730.000000 0.7755 0.7756 0.7757 0.7758 0.7758
3725.000000 0.7760 0.7761 0.7762 0.7764 0.7765
3720.000000 0.7765 0.7767 0.7768 0.7768 0.7769
3715.000000 0.7771 0.7771 0.7772 0.7774 0.7775
3710.000000 0.7776 0.7778 0.7778 0.7780 0.7780
3705.000000 0.7781 0.7782 0.7783 0.7784 0.7785
3700.000000 0.7786 0.7787 0.7788 0.7789 0.7790
3695.000000 0.7790 0.7791 0.7792 0.7793 0.7794
3690.000000 0.7795 0.7796 0.7797 0.7798 0.7799
3685.000000 0.7800 0.7801 0.7801 0.7801 0.7803
3680.000000 0.7804 0.7805 0.7806 0.7807 0.7808
3675.000000 0.7808 0.7808 0.7808 0.7808 0.7810
3670.000000 0.7810 0.7810 0.7810 0.7810 0.7810
3665.000000 0.7811 0.7811 0.7811 0.7811 0.7811
3660.000000 0.7811 0.7811 0.7811 0.7811 0.7811
3655.000000 0.7811 0.7810 0.7808 0.7808 0.7808
3650.000000 0.7807 0.7806 0.7805 0.7805 0.7804
3645.000000 0.7803 0.7801 0.7801 0.7800 0.7799
3640.000000 0.7798 0.7797 0.7797 0.7796 0.7795
3635.000000 0.7794 0.7794 0.7793 0.7791 0.7790
3630.000000 0.7789 0.7787 0.7785 0.7783 0.7780
3625.000000 0.7778 0.7775 0.7772 0.7771 0.7768
3620.000000 0.7765 0.7764 0.7761 0.7758 0.7757
3615.000000 0.7754 0.7751 0.7749 0.7745 0.7741
3610.000000 0.7736 0.7731 0.7726 0.7721 0.7715
3605.000000 0.7711 0.7705 0.7699 0.7693 0.7686
3600.000000 0.7678 0.7671 0.7662 0.7655 0.7639
3595.000000 0.7622 0.7607 0.7591 0.7575 0.7558
3590.000000 0.7543 0.7526 0.7511 0.7495 0.7483
3585.000000 0.7471 0.7460 0.7449 0.7438 0.7428
3580.000000 0.7421 0.7412 0.7405 0.7397 0.7389
3575.000000 0.7381 0.7372 0.7364 0.7356 0.7348
3570.000000 0.7340 0.7332 0.7324 0.7315 0.7308
3565.000000 0.7300 0.7292 0.7284 0.7275 0.7267
3560.000000 0.7258 0.7251 0.7243 0.7235 0.7226
3555.000000 0.7218 0.7211 0.7203 0.7195 0.7186
3550.000000 0.7178 0.7169 0.7161 0.7154 0.7146
3545.000000 0.7138 0.7130 0.7121 0.7114 0.7106
3540.000000 0.7098 0.7090 0.7082 0.7074 0.7065
3535.000000 0.7058 0.7050 0.7043 0.7035 0.7026
3530.000000 0.7018 0.7011 0.7003 0.6995 0.6987
3525.000000 0.6978 0.6971 0.6962 0.6955 0.6947
3520.000000 0.6939 0.6931 0.6922 0.6915 0.6907
3515.000000 0.6899 0.6891 0.6883 0.6875 0.6867
3510.000000 0.6858 0.6851 0.6843 0.6835 0.6826
3505.000000 0.6818 0.6811 0.6803 0.6794 0.6788
3500.000000 0.6783 0.6778 0.6772 0.6768 0.6762
3495.000000 0.6758 0.6755 0.6750 0.6746 0.6742
3490.000000 0.6737 0.6733 0.6728 0.6724 0.6718
3485.000000 0.6715 0.6710 0.6706 0.6701 0.6696
3480.000000 0.6692 0.6687 0.6683 0.6678 0.6674
3475.000000 0.6668 0.6665 0.6660 0.6655 0.6651
3470.000000 0.6646 0.6642 0.6637 0.6633 0.6628
3465.000000 0.6622 0.6618 0.6614 0.6610 0.6605
3460.000000 0.6601 0.6596 0.6591 0.6587 0.6583
3455.000000 0.6578 0.6574 0.6568 0.6564 0.6558
3450.000000 0.6551 0.6547 0.6541 0.6535 0.6528
3445.000000 0.6522 0.6517 0.6511 0.6506 0.6500
3440.000000 0.6494 0.6489 0.6483 0.6476 0.6471
3435.000000 0.6465 0.6458 0.6454 0.6449 0.6444
3430.000000 0.6439 0.6434 0.6428 0.6422 0.6418
3425.000000 0.6411 0.6408 0.6404 0.6400 0.6396
3420.000000 0.6393 0.6392 0.6391 0.6390 0.6389
3415.000000 0.6388 0.6388 0.6387 0.6386 0.6386
3410.000000 0.6386 0.6386 0.6386 0.6386 0.6387
3405.000000 0.6387 0.6388 0.6389 0.6391 0.6392
3400.000000 0.6393 0.6394 0.6395 0.6396 0.6397
3395.000000 0.6398 0.6399 0.6401 0.6401 0.6403
3390.000000 0.6404 0.6406 0.6407 0.6408 0.6412
3385.000000 0.6417 0.6421 0.6424 0.6428 0.6433
3380.000000 0.6437 0.6442 0.6446 0.6451 0.6455
3375.000000 0.6458 0.6464 0.6468 0.6474 0.6478
3370.000000 0.6485 0.6490 0.6496 0.6501 0.6507
3365.000000 0.6511 0.6517 0.6522 0.6528 0.6533
3360.000000 0.6539 0.6544 0.6550 0.6555 0.6561
3355.000000 0.6565 0.6571 0.6576 0.6582 0.6588
3350.000000 0.6593 0.6598 0.6604 0.6608 0.6615
3345.000000 0.6622 0.6630 0.6637 0.6644 0.6651
3340.000000 0.6658 0.6665 0.6672 0.6680 0.6687
3335.000000 0.6695 0.6701 0.6708 0.6715 0.6722
3330.000000 0.6730 0.6737 0.6744 0.6751 0.6758
3325.000000 0.6765 0.6772 0.6778 0.6786 0.6793
3320.000000 0.6800 0.6807 0.6814 0.6821 0.6828
3315.000000 0.6835 0.6842 0.6849 0.6855 0.6861
3310.000000 0.6865 0.6868 0.6871 0.6875 0.6878
3305.000000 0.6880 0.6883 0.6885 0.6888 0.6891
3300.000000 0.6893 0.6896 0.6899 0.6901 0.6904
3295.000000 0.6907 0.6910 0.6911 0.6914 0.6915
3290.000000 0.6918 0.6919 0.6921 0.6924 0.6925
3285.000000 0.6926 0.6928 0.6928 0.6931 0.6932
3280.000000 0.6933 0.6935 0.6936 0.6937 0.6937
3275.000000 0.6937 0.6937 0.6937 0.6936 0.6936
3270.000000 0.6936 0.6936 0.6936 0.6936 0.6936
3265.000000 0.6936 0.6936 0.6935 0.6935 0.6935
3260.000000 0.6935 0.6934 0.6934 0.6934 0.6934
3255.000000 0.6933 0.6928 0.6925 0.6921 0.6918
3250.000000 0.6914 0.6910 0.6906 0.6901 0.6898
3245.000000 0.6894 0.6890 0.6886 0.6878 0.6865
3240.000000 0.6854 0.6841 0.6828 0.6812 0.6798
3235.000000 0.6782 0.6767 0.6751 0.6737 0.6721
3230.000000 0.6706 0.6691 0.6676 0.6661 0.6647
3225.000000 0.6633 0.6618 0.6603 0.6589 0.6571
3220.000000 0.6551 0.6531 0.6511 0.6489 0.6464
3215.000000 0.6440 0.6415 0.6387 0.6355 0.6322
3210.000000 0.6289 0.6257 0.6224 0.6191 0.6159
3205.000000 0.6126 0.6094 0.6060 0.6028 0.5996
3200.000000 0.5962 0.5930 0.5897 0.5864 0.5831
3195.000000 0.5798 0.5765 0.5732 0.5699 0.5666
3190.000000 0.5633 0.5600 0.5567 0.5534 0.5501
3185.000000 0.5468 0.5435 0.5402 0.5369 0.5336
3180.000000 0.5302 0.5269 0.5236 0.5202 0.5172
3175.000000 0.5144 0.5115 0.5087 0.5065 0.5046
3170.000000 0.5027 0.5009 0.4990 0.4970 0.4951
3165.000000 0.4932 0.4912 0.4895 0.4877 0.4859
3160.000000 0.4841 0.4825 0.4808 0.4792 0.4773
3155.000000 0.4754 0.4734 0.4715 0.4697 0.4680
3150.000000 0.4664 0.4647 0.4634 0.4625 0.4615
3145.000000 0.4605 0.4595 0.4585 0.4575 0.4565
3140.000000 0.4557 0.4548 0.4540 0.4531 0.4525
3135.000000 0.4518 0.4512 0.4506 0.4501 0.4497
3130.000000 0.4492 0.4462 0.4485 0.4482 0.4479
3125.000000 0.4476 0.4474 0.4473 0.4472 0.4471
3120.000000 0.4471 0.4470 0.4469 0.4469 0.4469
3115.000000 0.4470 0.4471 0.4477 0.4492 0.4508
3110.000000 0.4524 0.4540 0.4555 0.4571 0.4586
3105.000000 0.4602 0.4618 0.4634 0.4649 0.4665
3100.000000 0.4681 0.4697 0.4712 0.4728 0.4744
3095.000000 0.4760 0.4775 0.4791 0.4807 0.4823
3090.000000 0.4839 0.4855 0.4871 0.4887 0.4903
3085.000000 0.4919 0.4935 0.4950 0.4966 0.4982
3080.000000 0.4999 0.5015 0.5031 0.5047 0.5062
3075.000000 0.5079 0.5095 0.5110 0.5127 0.5143
3070.000000 0.5159 0.5175 0.5206 0.5206 0.5205
3065.000000 0.5209 0.5212 0.5212 0.5212 0.5212
3060.000000 0.5212 0.5205 0.5198 0.5191 0.5179
3055.000000 0.5149 0.5120 0.5091 0.5059 0.5024
3050.000000 0.4990 0.4955 0.4920 0.4885 0.4850
3045.000000 0.4815 0.4780 0.4746 0.4710 0.4676
3040.000000 0.4641 0.4605 0.4570 0.4535 0.4500
3035.000000 0.4465 0.4430 0.4395 0.4360 0.4325
3030.000000 0.4290 0.4254 0.4219 0.4183 0.4148
3025.000000 0.4112 0.4078 0.4042 0.4007 0.3971
3020.000000 0.3936 0.3900 0.3864 0.3829 0.3794
3015.000000 0.3758 0.3722 0.3687 0.3650 0.3614
3010.000000 0.3580 0.3544 0.3508 0.3473 0.3437
3005.000000 0.3400 0.3364 0.3329 0.3293 0.3257
3000.000000 0.3221 0.3185 0.3150 0.3114 0.3077
2995.000000 0.3041 0.3005 0.2969 0.2933 0.2897
2990.000000 0.2861 0.2825 0.2789 0.2753 0.2716
2985.000000 0.2680 0.2643 0.2607 0.2571 0.2534
2980.000000 0.2498 0.2461 0.2425 0.2388 0.2352
2975.000000 0.2315 0.2279 0.2242 0.2206 0.2169
2970.000000 0.2132 0.2097 0.2080 0.2062 0.2044
2965.000000 0.2034 0.2027 0.2020 0.2014 0.2010
2960.000000 0.2004 0.2000 0.1996 0.1994 0.1993
2955.000000 0.1991 0.1990 0.1987 0.1985 0.1984
2950.000000 0.1982 0.1975 0.1976 0.1977 0.1975
2945.000000 0.1973 0.1972 0.1971 0.1969 0.1968
2940.000000 0.1967 0.1965 0.1964 0.1964 0.1964
2935.000000 0.1964 0.1964 0.1964 0.1964 0.1964
2930.000000 0.1964 0.1964 0.1964 0.1964 0.1966
2925.000000 0.1968 0.1970 0.1973 0.1976 0.1978
2920.000000 0.1981 0.1984 0.1985 0.1989 0.1994
2915.000000 0.1999 0.2003 0.2016 0.2031 0.2045
2910.000000 0.2061 0.2076 0.2091 0.2106 0.2128
2905.000000 0.2151 0.2174 0.2196 0.2218 0.2240
2900.000000 0.2262 0.2282 0.2302 0.2322 0.2341
2895.000000 0.2360 0.2378 0.2397 0.2416 0.2434
2890.000000 0.2454 0.2483 0.2511 0.2539 0.2568
2885.000000 0.2598 0.2628 0.2656 0.2684 0.2711
2880.000000 0.2738 0.2765 0.2791 0.2818 0.2844
2875.000000 0.2871 0.2897 0.2923 0.2949 0.2975
2870.000000 0.3001 0.3026 0.3051 0.3076 0.3100
2865.000000 0.3125 0.3150 0.3177 0.3204 0.3232
2860.000000 0.3266 0.3309 0.3350 0.3393 0.3434
2855.000000 0.3477 0.3518 0.3559 0.3600 0.3641
2850.000000 0.3679 0.3714 0.3750 0.3782 0.3810
2845.000000 0.3840 0.3868 0.3897 0.3925 0.3954
2840.000000 0.3966 0.3977 0.3987 0.3998 0.4008
2835.000000 0.4018 0.4030 0.4040 0.4050 0.4062
2830.000000 0.4073 0.4082 0.4094 0.4105 0.4115
2825.000000 0.4126 0.4137 0.4147 0.4158 0.4169
2820.000000 0.4180 0.4191 0.4202 0.4212 0.4224
2815.000000 0.4235 0.4246 0.4256 0.4267 0.4278
2810.000000 0.4289 0.4300 0.4310 0.4321 0.4331
2805.000000 0.4340 0.4349 0.4358 0.4367 0.4376
2800.000000 0.4385 0.4394 0.4403 0.4412 0.4421
2795.000000 0.4428 0.4436 0.4444 0.4451 0.4458
2790.000000 0.4465 0.4471 0.4478 0.4485 0.4492
2785.000000 0.4498 0.4505 0.4510 0.4514 0.4518
2780.000000 0.4522 0.4527 0.4531 0.4536 0.4540
2775.000000 0.4544 0.4548 0.4553 0.4557 0.4560
2770.000000 0.4564 0.4568 0.4571 0.4573 0.4575
2765.000000 0.4578 0.4580 0.4583 0.4585 0.4588
2760.000000 0.4590 0.4592 0.4595 0.4597 0.4599
2755.000000 0.4602 0.4605 0.4607 0.4608 0.4609
2750.000000 0.4610 0.4610 0.4612 0.4612 0.4614
2745.000000 0.4615 0.4617 0.4618 0.4619 0.4620
2740.000000 0.4620 0.4620 0.4619 0.4619 0.4619
2735.000000 0.4618 0.4618 0.4618 0.4617 0.4616
2730.000000 0.4614 0.4612 0.4612 0.4600 0.4609
2725.000000 0.4606 0.4603 0.4599 0.4593 0.4587
2720.000000 0.4581 0.4576 0.4570 0.4564 0.4558
2715.000000 0.4553 0.4545 0.4535 0.4525 0.4515
2710.000000 0.4504 0.4492 0.4481 0.4470 0.4460
2705.000000 0.4448 0.4437 0.4426 0.4415 0.4403
2700.000000 0.4392 0.4379 0.4366 0.4353 0.4340
2695.000000 0.4326 0.4312 0.4300 0.4287 0.4274
2690.000000 0.4260 0.4247 0.4233 0.4218 0.4202
2685.000000 0.4186 0.4167 0.4148 0.4129 0.4110
2680.000000 0.4091 0.4072 0.4054 0.4036 0.4018
2675.000000 0.4002 0.3986 0.3968 0.3952 0.3936
2670.000000 0.3922 0.3909 0.3897 0.3891 0.3886
2665.000000 0.3880 0.3877 0.3873 0.3868 0.3864
2660.000000 0.3860 0.3857 0.3854 0.3850 0.3846
2655.000000 0.3840 0.3834 0.3830 0.3824 0.3818
2650.000000 0.3812 0.3807 0.3802 0.3797 0.3791
2645.000000 0.3784 0.3776 0.3766 0.3758 0.3749
2640.000000 0.3740 0.3730 0.3722 0.3712 0.3704
2635.000000 0.3695 0.3686 0.3676 0.3666 0.3656
2630.000000 0.3646 0.3634 0.3627 0.3620 0.3612
2625.000000 0.3606 0.3600 0.3594 0.3587 0.3580
2620.000000 0.3574 0.3568 0.3562 0.3557 0.3553
2615.000000 0.3549 0.3545 0.3541 0.3537 0.3532
2610.000000 0.3529 0.3527 0.3525 0.3524 0.3522
2605.000000 0.3521 0.3518 0.3518 0.3516 0.3516
2600.000000 0.3514 0.3514 0.3512 0.3514 0.3516
2595.000000 0.3516 0.3518 0.3520 0.3521 0.3522
2590.000000 0.3524 0.3525 0.3526 0.3530 0.3532
2585.000000 0.3537 0.3542 0.3547 0.3552 0.3557
2580.000000 0.3560 0.3572 0.3582 0.3594 0.3606
2575.000000 0.3618 0.3630 0.3644 0.3658 0.3674
2570.000000 0.3690 0.3705 0.3718 0.3732 0.3740
2565.000000 0.3747 0.3753 0.3759 0.3766 0.3771
2560.000000 0.3773 0.3776 0.3778 0.3779 0.3780
2555.000000 0.3782 0.3782 0.3784 0.3786 0.3788
2550.000000 0.3791 0.3794 0.3797 0.3800 0.3804
2545.000000 0.3809 0.3816 0.3823 0.3834 0.3846
2540.000000 0.3857 0.3868 0.3878 0.3884 0.3891
2535.000000 0.3898 0.3904 0.3909 0.3914 0.3918
2530.000000 0.3923 0.3928 0.3932 0.3937 0.3942
2525.000000 0.3945 0.3945 0.3944 0.3943 0.3937
2520.000000 0.3932 0.3926 0.3921 0.3914 0.3909
2515.000000 0.3904 0.3896 0.3889 0.3880 0.3871
2510.000000 0.3860 0.3852 0.3842 0.3832 0.3824
2505.000000 0.3814 0.3808 0.3800 0.3794 0.3787
2500.000000 0.3780 0.3773 0.3766 0.3759 0.3752
2495.000000 0.3745 0.3741 0.3737 0.3732 0.3727
2490.000000 0.3722 0.3720 0.3716 0.3714 0.3679
2485.000000 0.3709 0.3708 0.3705 0.3703 0.3700
2480.000000 0.3699 0.3699 0.3699 0.3698 0.3698
2475.000000 0.3698 0.3698 0.3698 0.3700 0.3706
2470.000000 0.3710 0.3716 0.3720 0.3730 0.3742
2465.000000 0.3753 0.3764 0.3775 0.3791 0.3808
2460.000000 0.3827 0.3849 0.3871 0.3892 0.3912
2455.000000 0.3934 0.3954 0.3976 0.4000 0.4024
2450.000000 0.4053 0.4082 0.4109 0.4135 0.4160
2445.000000 0.4186 0.4210 0.4237 0.4262 0.4289
2440.000000 0.4315 0.4340 0.4366 0.4391 0.4417
2435.000000 0.4443 0.4469 0.4494 0.4520 0.4546
2430.000000 0.4573 0.4599 0.4624 0.4650 0.4676
2425.000000 0.4702 0.4728 0.4754 0.4780 0.4806
2420.000000 0.4832 0.4859 0.4885 0.4910 0.4937
2415.000000 0.4964 0.4990 0.5016 0.5042 0.5068
2410.000000 0.5095 0.5121 0.5147 0.5174 0.5201
2405.000000 0.5227 0.5253 0.5280 0.5306 0.5333
2400.000000 0.5359 0.5386 0.5412 0.5439 0.5466
2395.000000 0.5493 0.5519 0.5546 0.5573 0.5599
2390.000000 0.5626 0.5653 0.5679 0.5707 0.5734
2385.000000 0.5760 0.5788 0.5814 0.5841 0.5868
2380.000000 0.5876 0.5883 0.5888 0.5892 0.5896
2375.000000 0.5900 0.5904 0.5909 0.5912 0.5918
2370.000000 0.5924 0.5929 0.5934 0.5939 0.5943
2365.000000 0.5948 0.5954 0.5959 0.5965 0.5970
2360.000000 0.5976 0.5983 0.5990 0.5997 0.6004
2355.000000 0.6010 0.6018 0.6025 0.6031 0.6038
2350.000000 0.6045 0.6052 0.6059 0.6066 0.6075
2345.000000 0.6085 0.6094 0.6104 0.6114 0.6124
2340.000000 0.6133 0.6143 0.6153 0.6162 0.6172
2335.000000 0.6181 0.6191 0.6201 0.6210 0.6225
2330.000000 0.6239 0.6259 0.6279 0.6299 0.6319
2325.000000 0.6339 0.6360 0.6384 0.6412 0.6444
2320.000000 0.6480 0.6515 0.6550 0.6583 0.6615
2315.000000 0.6648 0.6681 0.6714 0.6747 0.6778
2310.000000 0.6806 0.6826 0.6846 0.6861 0.6878
2305.000000 0.6893 0.6908 0.6924 0.6940 0.6955
2300.000000 0.6971 0.6987 0.7003 0.7018 0.7035
2295.000000 0.7050 0.7065 0.7078 0.7092 0.7105
2290.000000 0.7118 0.7131 0.7144 0.7157 0.7171
2285.000000 0.7184 0.7197 0.7210 0.7222 0.7237
2280.000000 0.7250 0.7262 0.7274 0.7286 0.7296
2275.000000 0.7306 0.7317 0.7326 0.7337 0.7347
2270.000000 0.7357 0.7367 0.7378 0.7388 0.7398
2265.000000 0.7408 0.7418 0.7428 0.7439 0.7449
2260.000000 0.7458 0.7468 0.7478 0.7488 0.7497
2255.000000 0.7507 0.7515 0.7525 0.7535 0.7544
2250.000000 0.7554 0.7562 0.7571 0.7582 0.7591
2245.000000 0.7601 0.7610 0.7618 0.7628 0.7638
2240.000000 0.7647 0.7656 0.7665 0.7675 0.7685
2235.000000 0.7692 0.7700 0.7707 0.7715 0.7721
2230.000000 0.7730 0.7737 0.7744 0.7751 0.7758
2225.000000 0.7765 0.7774 0.7782 0.7789 0.7796
2220.000000 0.7803 0.7811 0.7818 0.7825 0.7834
2215.000000 0.7841 0.7848 0.7856 0.7862 0.7871
2210.000000 0.7878 0.7886 0.7893 0.7899 0.7906
2205.000000 0.7914 0.7919 0.7926 0.7934 0.7941
2200.000000 0.7947 0.7954 0.7961 0.7967 0.7974
2195.000000 0.7981 0.7988 0.7994 0.8001 0.8008
2190.000000 0.8015 0.8021 0.8028 0.8035 0.8042
2185.000000 0.8048 0.8053 0.8058 0.8065 0.8069
2180.000000 0.8075 0.8081 0.8086 0.8092 0.8097
2175.000000 0.8103 0.8108 0.8114 0.8119 0.8125
2170.000000 0.8130 0.8136 0.8141 0.8147 0.8151
2165.000000 0.8157 0.8161 0.8168 0.8172 0.8176
2160.000000 0.8183 0.8188 0.8193 0.8198 0.8202
2155.000000 0.8207 0.8213 0.8218 0.8223 0.8228
2150.000000 0.8233 0.8238 0.8243 0.8249 0.8254
2145.000000 0.8259 0.8264 0.8268 0.8274 0.8278
2140.000000 0.8285 0.8289 0.8294 0.8299 0.8305
2135.000000 0.8310 0.8315 0.8320 0.8325 0.8331
2130.000000 0.8336 0.8341 0.8346 0.8351 0.8356
2125.000000 0.8360 0.8365 0.8368 0.8373 0.8377
2120.000000 0.8381 0.8386 0.8390 0.8395 0.8399
2115.000000 0.8403 0.8407 0.8412 0.8416 0.8420
2110.000000 0.8424 0.8428 0.8433 0.8438 0.8442
2105.000000 0.8446 0.8449 0.8449 0.8450 0.8450
2100.000000 0.8451 0.8452 0.8452 0.8453 0.8453
2095.000000 0.8454 0.8454 0.8455 0.8455 0.8455
2090.000000 0.8454 0.8454 0.8453 0.8453 0.8452
2085.000000 0.8451 0.8450 0.8449 0.8449 0.8449
2080.000000 0.8449 0.8450 0.8450 0.8450 0.8451
2075.000000 0.8451 0.8451 0.8451 0.8452 0.8453
2070.000000 0.8455 0.8457 0.8461 0.8464 0.8468
2065.000000 0.8471 0.8475 0.8478 0.8483 0.8487
2060.000000 0.8491 0.8495 0.8500 0.8504 0.8508
2055.000000 0.8513 0.8518 0.8521 0.8527 0.8531
2050.000000 0.8536 0.8540 0.8544 0.8549 0.8554
2045.000000 0.8557 0.8561 0.8565 0.8568 0.8573
2040.000000 0.8575 0.8580 0.8584 0.8588 0.8592
2035.000000 0.8596 0.8599 0.8603 0.8607 0.8611
2030.000000 0.8614 0.8617 0.8620 0.8623 0.8625
2025.000000 0.8628 0.8631 0.8634 0.8637 0.8640
2020.000000 0.8643 0.8646 0.8649 0.8651 0.8654
2015.000000 0.8657 0.8660 0.8663 0.8666 0.8668
2010.000000 0.8671 0.8675 0.8678 0.8680 0.8683
2005.000000 0.8686 0.8689 0.8692 0.8695 0.8698
2000.000000 0.8701 0.8704 0.8707 0.8710 0.8713
1995.000000 0.8716 0.8718 0.8721 0.8725 0.8728
1990.000000 0.8731 0.8734 0.8737 0.8739 0.8743
1985.000000 0.8744 0.8745 0.8746 0.8747 0.8747
1980.000000 0.8749 0.8750 0.8750 0.8751 0.8752
1975.000000 0.8753 0.8754 0.8755 0.8755 0.8756
1970.000000 0.8758 0.8758 0.8759 0.8760 0.8761
1965.000000 0.8762 0.8762 0.8763 0.8764 0.8764
1960.000000 0.8765 0.8766 0.8766 0.8767 0.8768
1955.000000 0.8768 0.8770 0.8771 0.8771 0.8771
1950.000000 0.8773 0.8774 0.8775 0.8778 0.8780
1945.000000 0.8783 0.8785 0.8787 0.8789 0.8791
1940.000000 0.8794 0.8799 0.8806 0.8814 0.8821
1935.000000 0.8828 0.8836 0.8843 0.8851 0.8859
1930.000000 0.8867 0.8875 0.8883 0.8889 0.8893
1925.000000 0.8897 0.8902 0.8906 0.8907 0.8908
1920.000000 0.8910 0.8912 0.8913 0.8915 0.8916
1915.000000 0.8920 0.8924 0.8928 0.8933 0.8938
1910.000000 0.8942 0.8947 0.8951 0.8955 0.8960
1905.000000 0.8963 0.8964 0.8965 0.8966 0.8967
1900.000000 0.8967 0.8967 0.8966 0.8966 0.8966
1895.000000 0.8966 0.8966 0.8966 0.8965 0.8965
1890.000000 0.8965 0.8965 0.8964 0.8964 0.8964
1885.000000 0.8964 0.8964 0.8966 0.8967 0.8968
1880.000000 0.8968 0.8970 0.8971 0.8973 0.8974
1875.000000 0.8975 0.8977 0.8978 0.8980 0.8983
1870.000000 0.8985 0.8988 0.8991 0.8994 0.8997
1865.000000 0.9002 0.9007 0.9012 0.9016 0.9021
1860.000000 0.9025 0.9031 0.9037 0.9042 0.9047
1855.000000 0.9052 0.9058 0.9063 0.9068 0.9074
1850.000000 0.9080 0.9086 0.9092 0.9098 0.9103
1845.000000 0.9106 0.9108 0.9109 0.9111 0.9113
1840.000000 0.9114 0.9115 0.9115 0.9115 0.9115
1835.000000 0.9115 0.9115 0.9115 0.9115 0.9115
1830.000000 0.9115 0.9115 0.9116 0.9116 0.9117
1825.000000 0.9117 0.9117 0.9117 0.9118 0.9118
1820.000000 0.9118 0.9118 0.9118 0.9118 0.9118
1815.000000 0.9118 0.9118 0.9118 0.9118 0.9118
1810.000000 0.9120 0.9120 0.9120 0.9121 0.9121
1805.000000 0.9121 0.9121 0.9123 0.9123 0.9124
1800.000000 0.9124 0.9125 0.9125 0.9125 0.9125
1795.000000 0.9127 0.9128 0.9128 0.9131 0.9131
1790.000000 0.9133 0.9134 0.9136 0.9137 0.9138
1785.000000 0.9140 0.9141 0.9141 0.9141 0.9140
1780.000000 0.9139 0.9139 0.9138 0.9138 0.9137
1775.000000 0.9137 0.9136 0.9135 0.9135 0.9135
1770.000000 0.9134 0.9132 0.9130 0.9130 0.9128
1765.000000 0.9127 0.9125 0.9124 0.9124 0.9121
1760.000000 0.9121 0.9118 0.9118 0.9117 0.9115
1755.000000 0.9113 0.9111 0.9108 0.9107 0.9104
1750.000000 0.9102 0.9099 0.9097 0.9094 0.9092
1745.000000 0.9089 0.9086 0.9082 0.9078 0.9075
1740.000000 0.9071 0.9068 0.9066 0.9062 0.9058
1735.000000 0.9053 0.9048 0.9044 0.9039 0.9034
1730.000000 0.9028 0.9018 0.9008 0.8999 0.8989
1725.000000 0.8977 0.8964 0.8946 0.8905 0.8862
1720.000000 0.8801 0.8725 0.8634 0.8486 0.8356
1715.000000 0.8250 0.8160 0.8080 0.8003 0.7918
1710.000000 0.7798 0.7685 0.7465 0.7160 0.6821
1705.000000 0.6483 0.6144 0.5804 0.5465 0.5124
1700.000000 0.4784 0.4443 0.4101 0.3759 0.3416
1695.000000 0.3074 0.2731 0.2387 0.2043 0.1699
1690.000000 0.1354 0.1042 0.0880 0.0813 0.0775
1685.000000 0.0743 0.0739 0.0731 0.0731 0.0745
1680.000000 0.0819 0.1092 0.1313 0.1532 0.1751
1675.000000 0.1971 0.2190 0.2411 0.2631 0.2852
1670.000000 0.3072 0.3293 0.3514 0.3993 0.4271
1665.000000 0.4364 0.4446 0.4570 0.4707 0.4844
1660.000000 0.4982 0.5120 0.5258 0.5396 0.5534
1655.000000 0.5673 0.5812 0.5951 0.6090 0.6229
1650.000000 0.6364 0.6476 0.6518 0.6549 0.6578
1645.000000 0.6608 0.6639 0.6665 0.6691 0.6717
1640.000000 0.6745 0.6778 0.6817 0.6855 0.6895
1635.000000 0.6943 0.6997 0.7051 0.7106 0.7156
1630.000000 0.7200 0.7242 0.7281 0.7318 0.7354
1625.000000 0.7388 0.7418 0.7446 0.7471 0.7491
1620.000000 0.7498 0.7505 0.7511 0.7515 0.7521
1615.000000 0.7551 0.7525 0.7508 0.7460 0.7391
1610.000000 0.7290 0.7004 0.6901 0.6883 0.6871
1605.000000 0.6862 0.6857 0.6853 0.6850 0.6851
1600.000000 0.6851 0.6858 0.6880 0.6924 0.6984
1595.000000 0.7049 0.7112 0.7178 0.7234 0.7271
1590.000000 0.7297 0.7307 0.7315 0.7321 0.7325
1585.000000 0.7328 0.7328 0.7330 0.7326 0.7324
1580.000000 0.7319 0.7312 0.7296 0.7276 0.7237
1575.000000 0.7157 0.7068 0.6971 0.6883 0.6814
1570.000000 0.6745 0.6668 0.6576 0.6482 0.6392
1565.000000 0.6310 0.6214 0.6012 0.5686 0.5338
1560.000000 0.4989 0.4639 0.4289 0.3939 0.3588
1555.000000 0.3321 0.3230 0.3192 0.3162 0.3137
1550.000000 0.3110 0.3076 0.3031 0.2955 0.2847
1545.000000 0.2708 0.2667 0.2639 0.2651 0.2647
1540.000000 0.2668 0.2755 0.2875 0.2973 0.3041
1535.000000 0.3097 0.3154 0.3212 0.3273 0.3328
1530.000000 0.3380 0.3430 0.3500 0.3727 0.3952
1525.000000 0.4178 0.4405 0.4631 0.4858 0.4994
1520.000000 0.5040 0.5066 0.5089 0.5114 0.5167
1515.000000 0.5242 0.5285 0.5386 0.5489 0.5591
1510.000000 0.5694 0.5796 0.5899 0.5975 0.5998
1505.000000 0.6023 0.6017 0.6018 0.6018 0.6017
1500.000000 0.6006 0.5992 0.5971 0.5948 0.5915
1495.000000 0.5858 0.5769 0.5579 0.5288 0.4955
1490.000000 0.4622 0.4290 0.3956 0.3621 0.3287
1485.000000 0.3039 0.2946 0.2887 0.2824 0.2758
1480.000000 0.2663 0.2543 0.2531 0.2495 0.2520
1475.000000 0.2521 0.2523 0.2543 0.2655 0.2987
1470.000000 0.3360 0.3491 0.3548 0.3577 0.3600
1465.000000 0.3626 0.3641 0.3650 0.3658 0.3666
1460.000000 0.3674 0.3680 0.3684 0.3702 0.3695
1455.000000 0.3697 0.3697 0.3682 0.3650 0.3600
1450.000000 0.3580 0.3571 0.3559 0.3574 0.3592
1445.000000 0.3634 0.3758 0.3916 0.4095 0.4275
1440.000000 0.4450 0.4562 0.4605 0.4644 0.4666
1435.000000 0.4679 0.4693 0.4705 0.4715 0.4723
1430.000000 0.4775 0.4881 0.4987 0.5093 0.5199
1425.000000 0.5306 0.5412 0.5519 0.5625 0.5732
1420.000000 0.5840 0.5898 0.5905 0.5876 0.5718
1415.000000 0.5550 0.5384 0.5216 0.5048 0.4880
1410.000000 0.4712 0.4543 0.4375 0.4206 0.4058
1405.000000 0.3949 0.3818 0.3653 0.3510 0.3476
1400.000000 0.3460 0.3480 0.3480 0.3482 0.3520
1395.000000 0.3592 0.3686 0.3780 0.3874 0.3968
1390.000000 0.4041 0.4064 0.4084 0.4070 0.4062
1385.000000 0.4049 0.4036 0.4021 0.4005 0.3984
1380.000000 0.3960 0.3937 0.3924 0.3914 0.3916
1375.000000 0.3916 0.3918 0.3984 0.4132 0.4289
1370.000000 0.4447 0.4604 0.4762 0.4878 0.4916
1365.000000 0.4945 0.4974 0.5004 0.5036 0.5067
1360.000000 0.5115 0.5165 0.5215 0.5324 0.5455
1355.000000 0.5630 0.5819 0.6009 0.6199 0.6388
1350.000000 0.6578 0.6769 0.6895 0.6915 0.6928
1345.000000 0.6940 0.6953 0.6967 0.6980 0.6996
1340.000000 0.7024 0.7056 0.7128 0.7224 0.7276
1335.000000 0.7330 0.7381 0.7430 0.7458 0.7468
1330.000000 0.7475 0.7476 0.7468 0.7433 0.7358
1325.000000 0.7157 0.6861 0.6558 0.6255 0.6006
1320.000000 0.5931 0.5890 0.5853 0.5839 0.5829
1315.000000 0.5828 0.5844 0.5897 0.6015 0.6132
1310.000000 0.6250 0.6368 0.6486 0.6604 0.6715
1305.000000 0.6768 0.6778 0.6780 0.6780 0.6765
1300.000000 0.6736 0.6660 0.6364 0.6054 0.5743
1295.000000 0.5432 0.5120 0.4808 0.4495 0.4181
1290.000000 0.3868 0.3599 0.3529 0.3528 0.3528
1285.000000 0.3562 0.3604 0.3737 0.3896 0.4030
1280.000000 0.4206 0.4382 0.4558 0.4735 0.4912
1275.000000 0.5090 0.5268 0.5445 0.5623 0.5802
1270.000000 0.5981 0.6160 0.6285 0.6310 0.6328
1265.000000 0.6353 0.6430 0.6526 0.6625 0.6722
1260.000000 0.6821 0.6919 0.7018 0.7117 0.7215
1255.000000 0.7315 0.7387 0.7411 0.7430 0.7434
1250.000000 0.7436 0.7421 0.7380 0.7255 0.6897
1245.000000 0.6511 0.6124 0.5737 0.5349 0.4960
1240.000000 0.4684 0.4673 0.4665 0.4775 0.4976
1235.000000 0.5177 0.5379 0.5581 0.5673 0.5679
1230.000000 0.5644 0.5579 0.5512 0.5452 0.5445
1225.000000 0.5446 0.5554 0.5777 0.5987 0.6198
1220.000000 0.6408 0.6618 0.6828 0.7028 0.7205
1215.000000 0.7351 0.7443 0.7533 0.7624 0.7715
1210.000000 0.7810 0.7901 0.7965 0.8024 0.8074
1205.000000 0.8108 0.8126 0.8137 0.8136 0.8151
1200.000000 0.8149 0.8118 0.8096 0.8083 0.8071
1195.000000 0.8078 0.8087 0.8088 0.8089 0.8047
1190.000000 0.7954 0.7808 0.7825 0.7818 0.7815
1185.000000 0.7843 0.7890 0.7972 0.8053 0.8118
1180.000000 0.8183 0.8243 0.8299 0.8337 0.8361
1175.000000 0.8406 0.8371 0.8355 0.8318 0.8228
1170.000000 0.8008 0.7701 0.7589 0.7528 0.7525
1165.000000 0.7532 0.7590 0.7690 0.7791 0.7851
1160.000000 0.7889 0.7918 0.7958 0.8032 0.8141
1155.000000 0.8242 0.8321 0.8387 0.8446 0.8496
1150.000000 0.8538 0.8580 0.8607 0.8631 0.8649
1145.000000 0.8665 0.8677 0.8683 0.8689 0.8691
1140.000000 0.8671 0.8686 0.8670 0.8640 0.8596
1135.000000 0.8518 0.8346 0.8171 0.8057 0.7815
1130.000000 0.7337 0.6858 0.6378 0.5944 0.5829
1125.000000 0.5784 0.5748 0.5767 0.5802 0.5870
1120.000000 0.5988 0.6327 0.6675 0.7025 0.7375
1115.000000 0.7722 0.7884 0.7951 0.8011 0.8071
1110.000000 0.8131 0.8175 0.8200 0.8215 0.8211
1105.000000 0.8233 0.8232 0.8217 0.8195 0.8161
1100.000000 0.8099 0.7981 0.7810 0.7349 0.7022
1095.000000 0.6821 0.6725 0.6661 0.6582 0.6362
1090.000000 0.6122 0.5881 0.5668 0.5604 0.5651
1085.000000 0.5906 0.6162 0.6418 0.6675 0.6882
1080.000000 0.7037 0.7181 0.7276 0.7343 0.7382
1075.000000 0.7390 0.7389 0.7383 0.7387 0.7393
1070.000000 0.7411 0.7471 0.7555 0.7637 0.7732
1065.000000 0.7847 0.7972 0.8093 0.8175 0.8230
1060.000000 0.8268 0.8303 0.8331 0.8359 0.8377
1055.000000 0.8391 0.8404 0.8413 0.8416 0.8409
1050.000000 0.8388 0.8315 0.8221 0.8100 0.7845
1045.000000 0.7575 0.7306 0.7037 0.6765 0.6526
1040.000000 0.6460 0.6411 0.6426 0.6468 0.6550
1035.000000 0.6675 0.6822 0.6969 0.7118 0.7265
1030.000000 0.7414 0.7562 0.7711 0.7860 0.8008
1025.000000 0.8158 0.8252 0.8299 0.8336 0.8368
1020.000000 0.8390 0.8418 0.8410 0.8382 0.8332
1015.000000 0.8253 0.8036 0.7742 0.7447 0.7151
1010.000000 0.6857 0.6614 0.6600 0.6628 0.6842
1005.000000 0.7107 0.7372 0.7593 0.7631 0.7711
1000.000000 0.8019 0.8259 0.8330 0.7898 0.7387
995.000000 0.6875 0.6376 0.6289 0.6259 0.6259
990.000000 0.6260 0.6380 0.6538 0.6769 0.7022
985.000000 0.7275 0.7530 0.7784 0.8038 0.8192
980.000000 0.8296 0.8380 0.8446 0.8490 0.8525
975.000000 0.8553 0.8581 0.8608 0.8630 0.8651
970.000000 0.8671 0.8692 0.8709 0.8723 0.8731
965.000000 0.8737 0.8755 0.8747 0.8732 0.8702
960.000000 0.8632 0.8494 0.8244 0.7401 0.7044
955.000000 0.6390 0.5625 0.4857 0.4089 0.3500
950.000000 0.3300 0.3300 0.3300 0.3422 0.3889
945.000000 0.4399 0.4910 0.5424 0.5736 0.5830
940.000000 0.5908 0.5979 0.6181 0.6440 0.6700
935.000000 0.6960 0.7221 0.7483 0.7745 0.8003
930.000000 0.8136 0.8245 0.8336 0.8375 0.8406
925.000000 0.8418 0.8391 0.8310 0.8206 0.8075
920.000000 0.7937 0.7789 0.7814 0.7868 0.7975
915.000000 0.8084 0.8193 0.8311 0.8434 0.8535
910.000000 0.8635 0.8725 0.8775 0.8795 0.8813
905.000000 0.8828 0.8843 0.8857 0.8868 0.8880
900.000000 0.8892 0.8904 0.8908 0.8920 0.8916
895.000000 0.8871 0.8789 0.8705 0.8652 0.8664
890.000000 0.8668 0.8682 0.8696 0.8711 0.8737
885.000000 0.8762 0.8787 0.8857 0.8836 0.8833
880.000000 0.8813 0.8787 0.8764 0.8750 0.8733
875.000000 0.8744 0.8756 0.8778 0.8812 0.8846
870.000000 0.8883 0.8918 0.8956 0.8992 0.9027
865.000000 0.9055 0.9083 0.9100 0.9113 0.9125
860.000000 0.9139 0.9141 0.9141 0.9142 0.9153
855.000000 0.9134 0.9128 0.9116 0.9103 0.9081
850.000000 0.9041 0.8968 0.8864 0.8739 0.8625
845.000000 0.8501 0.8394 0.8362 0.8384 0.8433
840.000000 0.8521 0.8625 0.8721 0.8795 0.8865
835.000000 0.8918 0.8955 0.8983 0.9012 0.9042
830.000000 0.9071 0.9104 0.9132 0.9145 0.9160
825.000000 0.9164 0.9165 0.9165 0.9166 0.9167
820.000000 0.9167 0.9168 0.9163 0.9193 0.9155
815.000000 0.9150 0.9145 0.9138 0.9133 0.9127
810.000000 0.9121 0.9107 0.9088 0.9068 0.9043
805.000000 0.9007 0.8960 0.8912 0.8856 0.8786
800.000000 0.8703 0.8578 0.8433 0.8260 0.8100
795.000000 0.7926 0.7701 0.7381 0.7006 0.6637
790.000000 0.6267 0.5896 0.5524 0.5150 0.4777
785.000000 0.4457 0.4394 0.4382 0.4371 0.4368
780.000000 0.4377 0.4420 0.4473 0.4491 0.4508
775.000000 0.4590 0.4749 0.5004 0.5421 0.5719
770.000000 0.5979 0.6280 0.6425 0.6578 0.6764
765.000000 0.6946 0.7124 0.7283 0.7457 0.7642
760.000000 0.7688 0.7725 0.7782 0.7821 0.7828
755.000000 0.7838 0.7858 0.7884 0.7915 0.7955
750.000000 0.8005 0.8075 0.8137 0.8175 0.8206
745.000000 0.8239 0.8301 0.8370 0.8390 0.8427
740.000000 0.8468 0.8499 0.8507 0.8542 0.8513
735.000000 0.8507 0.8445 0.8321 0.8126 0.7854
730.000000 0.7439 0.6998 0.6556 0.6112 0.6031
725.000000 0.5991 0.5960 0.5923 0.5938 0.6000
720.000000 0.6096 0.6238 0.6417 0.6636 0.6805
715.000000 0.6944 0.7058 0.7180 0.7324 0.7430
710.000000 0.7458 0.7499 0.7554 0.7628 0.7705
705.000000 0.7783 0.7865 0.7946 0.7875 0.7788
700.000000 0.7734 0.7698 0.7611 0.7633 0.7646
695.000000 0.7761 0.7815 0.7889 0.7978 0.8088
690.000000 0.8130 0.8156 0.8180 0.8207 0.8235
685.000000 0.8270 0.8245 0.8213 0.8174 0.8133
680.000000 0.7985 0.7634 0.7417 0.7337 0.7315
675.000000 0.7289 0.7332 0.7484 0.7699
##END=
