##TITLE=Alpha-CHLOROETHANE SULFONIC ACID
##JCAMP-DX=4.24
##DATA TYPE=INFRARED SPECTRUM
##CLASS=COBLENTZ
##ORIGIN=DOW CHEMICAL COMPANY
##OWNER=COBLENTZ SOCIETY
Collection (C) 2018 copyright by the U.S. Secretary of Commerce
on behalf of the United States of America. All rights reserved.
##DATE=Not specified, most likely prior to 1970
##MOLFORM=C2 H4 Cl Na O3 S
##SOURCE REFERENCE=COBLENTZ NO. 3234
##$NIST ID=B6003234
##$NIST SOURCE=COBLENTZ
##$NIST IMAGE=cob3234
##SPECTROMETER/DATA SYSTEM=Not specified, most likely a prism, grating, or hybrid spectrometer.
##STATE=SOLID (MINERAL OIL MULL)
##PATH LENGTH=
$$SPECTRAL CONTAMINATION DUE TO OIL AROUND 2900, 1450, 1380 CM^-^1
##SAMPLING PROCEDURE=TRANSMISSION
##RESOLUTION=4
##DATA PROCESSING=DIGITIZED BY NIST FROM HARD COPY
##XUNITS=MICROMETERS
##YUNITS=TRANSMITTANCE
##XFACTOR=1.000000
##YFACTOR=1
##DELTAX=000.006843
##FIRSTX=2.048
##LASTX=15.8974
##FIRSTY=0.731
##MAXX=15.8974
##MINX=2.048
##MAXY=0.905
##MINY=0.034
##NPOINTS=2025
##XYDATA=(X++(Y..Y))
2.048000 0.7310 0.7310 0.7310 0.7310 0.7310
2.082230 0.7310 0.7310 0.7330 0.7330 0.7330
2.116000 0.7330 0.7330 0.7360 0.7380 0.7380
2.150230 0.7400 0.7410 0.7410 0.7430 0.7430
2.185000 0.7430 0.7410 0.7400 0.7380 0.7360
2.219230 0.7330 0.7330 0.7290 0.7280 0.7260
2.253000 0.7240 0.7230 0.7210 0.7190 0.7190
2.287230 0.7190 0.7170 0.7190 0.7190 0.7210
2.322000 0.7210 0.7230 0.7230 0.7240 0.7280
2.356230 0.7280 0.7310 0.7310 0.7330 0.7350
2.390000 0.7350 0.7360 0.7360 0.7360 0.7360
2.424230 0.7360 0.7380 0.7410 0.7430 0.7450
2.458000 0.7470 0.7480 0.7520 0.7520 0.7530
2.492230 0.7530 0.7500 0.7500 0.7500 0.7500
2.527000 0.7500 0.7500 0.7520 0.7520 0.7530
2.561230 0.7550 0.7550 0.7570 0.7570 0.7580
2.595000 0.7600 0.7640 0.7640 0.7640 0.7640
2.629230 0.7640 0.7620 0.7600 0.7580 0.7580
2.664000 0.7580 0.7580 0.7600 0.7640 0.7640
2.698230 0.7620 0.7580 0.7570 0.7500 0.7450
2.732000 0.7360 0.7290 0.7210 0.7050 0.7020
2.766230 0.6950 0.6850 0.6750 0.6660 0.6560
2.801000 0.6440 0.6350 0.6250 0.6150 0.6050
2.835230 0.5960 0.5890 0.5810 0.5790 0.5770
2.869000 0.5760 0.5720 0.5700 0.5700 0.5700
2.903230 0.5760 0.5810 0.5890 0.5910 0.5930
2.937000 0.5940 0.5980 0.6000 0.6010 0.6030
2.971230 0.6050 0.6080 0.6170 0.6250 0.6340
3.006000 0.6440 0.6560 0.6630 0.6700 0.6730
3.040230 0.6780 0.6830 0.6900 0.6940 0.6940
3.074000 0.6990 0.7000 0.7020 0.7020 0.7050
3.108230 0.7090 0.7120 0.7140 0.7140 0.7140
3.143000 0.7160 0.7170 0.7190 0.7190 0.7190
3.177230 0.7210 0.7210 0.7210 0.7210 0.7190
3.211000 0.7190 0.7190 0.7170 0.7140 0.7120
3.245230 0.7090 0.7050 0.7000 0.6970 0.6880
3.280000 0.6800 0.6610 0.6370 0.6060 0.5700
3.314230 0.5330 0.4920 0.4510 0.4100 0.3600
3.348000 0.2940 0.2700 0.1670 0.1310 0.0970
3.382230 0.0850 0.0510 0.0490 0.0490 0.0490
3.416000 0.0510 0.0660 0.0780 0.0950 0.1050
3.450230 0.1210 0.1290 0.1330 0.1400 0.1470
3.485000 0.1600 0.1910 0.2340 0.2920 0.3790
3.519230 0.4660 0.5230 0.6290 0.6750 0.6970
3.553000 0.7050 0.7160 0.7350 0.7430 0.7520
3.587230 0.7600 0.7670 0.7720 0.7740 0.7740
3.622000 0.7760 0.7760 0.7760 0.7760 0.7740
3.656230 0.7720 0.7700 0.7720 0.7760 0.7810
3.690000 0.7840 0.7860 0.7880 0.7880 0.7860
3.724230 0.7820 0.7820 0.7880 0.7910 0.7960
3.759000 0.8000 0.8000 0.8000 0.8000 0.8010
3.793230 0.8010 0.8030 0.8050 0.8100 0.8100
3.827000 0.8110 0.8130 0.8170 0.8200 0.8200
3.861230 0.8220 0.8220 0.8230 0.8230 0.8250
3.895000 0.8270 0.8290 0.8290 0.8300 0.8300
3.929230 0.8300 0.8300 0.8320 0.8340 0.8340
3.964000 0.8350 0.8340 0.8340 0.8340 0.8340
3.998230 0.8340 0.8340 0.8340 0.8320 0.8320
4.032000 0.8300 0.8290 0.8270 0.8270 0.8290
4.066230 0.8300 0.8320 0.8350 0.8370 0.8390
4.101000 0.8410 0.8420 0.8440 0.8460 0.8490
4.135230 0.8490 0.8490 0.8490 0.8490 0.8460
4.169000 0.8440 0.8420 0.8410 0.8410 0.8390
4.203230 0.8390 0.8410 0.8410 0.8410 0.8420
4.238000 0.8420 0.8440 0.8440 0.8490 0.8490
4.272230 0.8510 0.8510 0.8540 0.8580 0.8590
4.306000 0.8590 0.8590 0.8590 0.8580 0.8540
4.340230 0.8490 0.8470 0.8440 0.8440 0.8440
4.374000 0.8440 0.8420 0.8420 0.8410 0.8410
4.408230 0.8410 0.8420 0.8460 0.8490 0.8510
4.443000 0.8520 0.8540 0.8590 0.8590 0.8590
4.477230 0.8610 0.8630 0.8640 0.8700 0.8700
4.511000 0.8700 0.8700 0.8700 0.8710 0.8710
4.545230 0.8730 0.8730 0.8730 0.8710 0.8710
4.580000 0.8710 0.8730 0.8730 0.8760 0.8760
4.614230 0.8750 0.8750 0.8750 0.8750 0.8750
4.648000 0.8750 0.8750 0.8750 0.8730 0.8710
4.682230 0.8730 0.8730 0.8750 0.8760 0.8780
4.717000 0.8800 0.8800 0.8800 0.8780 0.8750
4.751230 0.8750 0.8760 0.8800 0.8800 0.8800
4.785000 0.8800 0.8800 0.8820 0.8800 0.8800
4.819230 0.8800 0.8800 0.8800 0.8800 0.8800
4.853000 0.8820 0.8820 0.8830 0.8830 0.8820
4.887230 0.8830 0.8830 0.8830 0.8830 0.8830
4.922000 0.8850 0.8870 0.8880 0.8880 0.8870
4.956230 0.8870 0.8870 0.8880 0.8880 0.8880
4.990000 0.8880 0.8880 0.8880 0.8880 0.8880
5.024230 0.8880 0.8920 0.8920 0.8940 0.8940
5.059000 0.8920 0.8920 0.8920 0.8920 0.8920
5.093230 0.8920 0.8920 0.8920 0.8940 0.8950
5.127000 0.8950 0.8950 0.8950 0.8970 0.8970
5.161230 0.8970 0.8970 0.8970 0.8970 0.8990
5.196000 0.8990 0.8990 0.8990 0.9000 0.9000
5.230230 0.9000 0.9000 0.9000 0.9000 0.9000
5.264000 0.9020 0.9000 0.9000 0.9000 0.9000
5.298230 0.9000 0.9000 0.8990 0.8990 0.8990
5.332000 0.9000 0.9020 0.9020 0.9040 0.9040
5.366230 0.9040 0.9050 0.9040 0.9050 0.9050
5.401000 0.9050 0.9050 0.9040 0.9040 0.9040
5.435230 0.9040 0.9040 0.9040 0.9040 0.9040
5.469000 0.9040 0.9040 0.9020 0.9020 0.9020
5.503230 0.9040 0.9040 0.9020 0.9020 0.9000
5.538000 0.9000 0.9020 0.9020 0.9020 0.9020
5.572230 0.9020 0.9020 0.9050 0.9050 0.9050
5.606000 0.9050 0.9050 0.9050 0.9050 0.9050
5.640230 0.9040 0.9040 0.9040 0.9040 0.9020
5.674000 0.8990 0.8990 0.8970 0.8970 0.8950
5.708230 0.8950 0.8950 0.8950 0.8950 0.8950
5.743000 0.8940 0.8940 0.8940 0.8940 0.8940
5.777230 0.8940 0.8940 0.8940 0.8920 0.8920
5.811000 0.8900 0.8900 0.8900 0.8880 0.8880
5.845230 0.8870 0.8830 0.8820 0.8820 0.8800
5.880000 0.8800 0.8800 0.8760 0.8750 0.8730
5.914230 0.8700 0.8700 0.8680 0.8640 0.8610
5.948000 0.8590 0.8560 0.8520 0.8470 0.8390
5.982230 0.8350 0.8320 0.8220 0.8200 0.8200
6.017000 0.8200 0.8200 0.8220 0.8290 0.8300
6.051230 0.8320 0.8370 0.8390 0.8410 0.8410
6.085000 0.8410 0.8410 0.8410 0.8410 0.8420
6.119230 0.8420 0.8440 0.8470 0.8490 0.8510
6.153000 0.8510 0.8540 0.8610 0.8640 0.8640
6.187230 0.8680 0.8700 0.8700 0.8700 0.8700
6.222000 0.8710 0.8700 0.8700 0.8710 0.8710
6.256230 0.8710 0.8730 0.8730 0.8730 0.8730
6.290000 0.8730 0.8730 0.8730 0.8730 0.8730
6.324230 0.8730 0.8730 0.8730 0.8730 0.8730
6.359000 0.8730 0.8730 0.8710 0.8710 0.8710
6.393230 0.8730 0.8750 0.8750 0.8760 0.8780
6.427000 0.8760 0.8750 0.8730 0.8730 0.8710
6.461230 0.8730 0.8750 0.8780 0.8800 0.8800
6.496000 0.8800 0.8780 0.8750 0.8710 0.8700
6.530230 0.8700 0.8680 0.8680 0.8680 0.8700
6.564000 0.8700 0.8700 0.8700 0.8700 0.8700
6.598230 0.8680 0.8660 0.8630 0.8610 0.8590
6.632000 0.8560 0.8540 0.8510 0.8470 0.8410
6.666230 0.8370 0.8270 0.8200 0.8150 0.8030
6.701000 0.7980 0.7880 0.7720 0.7530 0.7310
6.735230 0.7050 0.6760 0.6440 0.6100 0.5740
6.769000 0.5360 0.4950 0.4710 0.4350 0.3960
6.803230 0.3570 0.3290 0.3170 0.3120 0.3050
6.838000 0.3000 0.2950 0.2870 0.2800 0.2780
6.872230 0.2800 0.2950 0.3110 0.3450 0.3690
6.906000 0.4270 0.4340 0.5400 0.5740 0.6050
6.940230 0.6350 0.6640 0.7000 0.7230 0.7350
6.975000 0.7410 0.7470 0.7480 0.7480 0.7520
7.009230 0.7520 0.7570 0.7600 0.7600 0.7620
7.043000 0.7640 0.7640 0.7640 0.7640 0.7620
7.077230 0.7600 0.7600 0.7600 0.7600 0.7600
7.111000 0.7600 0.7600 0.7580 0.7530 0.7500
7.145230 0.7450 0.7380 0.7260 0.7090 0.6850
7.180000 0.6520 0.6270 0.5930 0.5580 0.5210
7.214230 0.4880 0.4590 0.4460 0.4220 0.4180
7.248000 0.4180 0.4270 0.4520 0.4870 0.5140
7.282230 0.5500 0.5720 0.5890 0.6050 0.6200
7.317000 0.6340 0.6470 0.6580 0.6700 0.6800
7.351230 0.6820 0.6820 0.6820 0.6820 0.6820
7.385000 0.6820 0.6820 0.6800 0.6780 0.6760
7.419230 0.6730 0.6710 0.6730 0.6730 0.6710
7.454000 0.6710 0.6700 0.6700 0.6680 0.6680
7.488230 0.6640 0.6630 0.6590 0.6520 0.6510
7.522000 0.6470 0.6420 0.6390 0.6340 0.6290
7.556230 0.6220 0.6150 0.6050 0.6010 0.5980
7.590000 0.5930 0.5810 0.5700 0.5650 0.5550
7.624230 0.5500 0.5380 0.5260 0.5160 0.5050
7.659000 0.4970 0.4880 0.4800 0.4730 0.4680
7.693230 0.4630 0.4590 0.4520 0.4490 0.4460
7.727000 0.4320 0.4220 0.4060 0.3980 0.3820
7.761230 0.3700 0.3550 0.3400 0.3210 0.3050
7.796000 0.2900 0.2660 0.2490 0.2320 0.2270
7.830230 0.2200 0.2170 0.2180 0.2300 0.2370
7.864000 0.2510 0.2520 0.2540 0.2520 0.2370
7.898230 0.2270 0.2030 0.1860 0.1570 0.1360
7.933000 0.1210 0.1050 0.0940 0.0920 0.0900
7.967230 0.0920 0.1000 0.1160 0.1230 0.1400
8.001000 0.1500 0.1600 0.1670 0.1760 0.1760
8.035230 0.1720 0.1690 0.1600 0.1500 0.1360
8.069000 0.1230 0.1090 0.0950 0.0830 0.0750
8.103230 0.0660 0.0610 0.0540 0.0520 0.0510
8.138000 0.0470 0.0420 0.0410 0.0410 0.0410
8.172230 0.0410 0.0410 0.0410 0.0420 0.0440
8.206000 0.0460 0.0470 0.0490 0.0490 0.0490
8.240230 0.0490 0.0460 0.0440 0.0420 0.0410
8.275000 0.0370 0.0350 0.0340 0.0340 0.0350
8.309230 0.0350 0.0390 0.0410 0.0410 0.0440
8.343000 0.0490 0.0520 0.0580 0.0610 0.0710
8.377230 0.0750 0.0800 0.0830 0.0900 0.0970
8.412000 0.1070 0.1160 0.1190 0.1260 0.1330
8.446230 0.1400 0.1480 0.1570 0.1690 0.1820
8.480000 0.1960 0.2100 0.2230 0.2370 0.2510
8.514230 0.2640 0.2760 0.2900 0.3040 0.3170
8.548000 0.3310 0.3450 0.3580 0.3700 0.3820
8.582230 0.3960 0.4080 0.4180 0.4300 0.4410
8.617000 0.4460 0.4520 0.4590 0.4660 0.4710
8.651230 0.4760 0.4830 0.4900 0.4990 0.5050
8.685000 0.5120 0.5210 0.5240 0.5290 0.5330
8.719230 0.5380 0.5410 0.5430 0.5450 0.5470
8.754000 0.5480 0.5500 0.5500 0.5520 0.5520
8.788230 0.5530 0.5550 0.5580 0.5620 0.5640
8.822000 0.5670 0.5690 0.5690 0.5720 0.5740
8.856230 0.5770 0.5790 0.5790 0.5810 0.5820
8.891000 0.5860 0.5890 0.5910 0.5930 0.5940
8.925230 0.5960 0.5960 0.5980 0.6000 0.6000
8.959000 0.6000 0.6010 0.6030 0.6080 0.6110
8.993230 0.6170 0.6220 0.6290 0.6350 0.6440
9.027000 0.6510 0.6520 0.6560 0.6590 0.6610
9.061230 0.6610 0.6610 0.6590 0.6510 0.6440
9.096000 0.6340 0.6230 0.6010 0.5880 0.5690
9.130230 0.5470 0.5240 0.5020 0.4820 0.4630
9.164000 0.4490 0.4420 0.4420 0.4510 0.4710
9.198230 0.4970 0.5290 0.5580 0.5720 0.5880
9.233000 0.5890 0.5890 0.5890 0.5810 0.5760
9.267230 0.5600 0.5430 0.5210 0.4920 0.4580
9.301000 0.4250 0.3910 0.3600 0.3310 0.3020
9.335230 0.2970 0.2970 0.3000 0.3380 0.3760
9.370000 0.4060 0.4370 0.4610 0.4680 0.4820
9.404230 0.5070 0.5090 0.5090 0.5090 0.5020
9.438000 0.4850 0.4750 0.4510 0.4300 0.3960
9.472230 0.3580 0.3210 0.2830 0.2490 0.2180
9.506000 0.1890 0.1620 0.1400 0.1210 0.1090
9.540230 0.1050 0.1040 0.1040 0.1070 0.1070
9.575000 0.1110 0.1140 0.1190 0.1210 0.1230
9.609230 0.1260 0.1360 0.1520 0.1720 0.1960
9.643000 0.2420 0.2760 0.3160 0.3470 0.3840
9.677230 0.4150 0.4420 0.4680 0.4880 0.5040
9.712000 0.5190 0.5290 0.5360 0.5480 0.5550
9.746230 0.5620 0.5690 0.5720 0.5790 0.5820
9.780000 0.5890 0.5960 0.6060 0.6180 0.6290
9.814230 0.6410 0.6490 0.6540 0.6660 0.6760
9.848000 0.6870 0.6970 0.7050 0.7160 0.7230
9.882230 0.7310 0.7360 0.7470 0.7520 0.7570
9.917000 0.7600 0.7620 0.7640 0.7650 0.7650
9.951230 0.7670 0.7690 0.7690 0.7700 0.7700
9.985000 0.7700 0.7700 0.7720 0.7720 0.7720
10.019230 0.7720 0.7720 0.7720 0.7720 0.7720
10.054000 0.7720 0.7720 0.7700 0.7670 0.7640
10.088230 0.7600 0.7580 0.7520 0.7500 0.7410
10.122000 0.7360 0.7260 0.7190 0.7110 0.7040
10.156230 0.6970 0.6900 0.6850 0.6820 0.6800
10.191000 0.6780 0.6800 0.6830 0.6900 0.6950
10.225230 0.7040 0.7120 0.7260 0.7360 0.7500
10.259000 0.7570 0.7690 0.7760 0.7820 0.7910
10.293230 0.7980 0.8010 0.8100 0.8150 0.8200
10.327000 0.8230 0.8290 0.8290 0.8300 0.8320
10.361230 0.8350 0.8390 0.8390 0.8390 0.8390
10.396000 0.8410 0.8460 0.8490 0.8510 0.8510
10.430230 0.8510 0.8510 0.8510 0.8520 0.8520
10.464000 0.8540 0.8560 0.8580 0.8590 0.8590
10.498230 0.8590 0.8610 0.8610 0.8630 0.8630
10.533000 0.8610 0.8630 0.8630 0.8630 0.8640
10.567230 0.8640 0.8640 0.8660 0.8660 0.8660
10.601000 0.8640 0.8660 0.8680 0.8680 0.8680
10.635230 0.8680 0.8680 0.8640 0.8630 0.8610
10.670000 0.8610 0.8630 0.8630 0.8640 0.8640
10.704230 0.8640 0.8640 0.8660 0.8680 0.8660
10.738000 0.8660 0.8660 0.8660 0.8660 0.8660
10.772230 0.8680 0.8680 0.8680 0.8700 0.8700
10.806000 0.8700 0.8700 0.8680 0.8680 0.8680
10.840230 0.8680 0.8640 0.8640 0.8630 0.8630
10.875000 0.8630 0.8610 0.8610 0.8590 0.8590
10.909230 0.8590 0.8590 0.8580 0.8540 0.8520
10.943000 0.8520 0.8510 0.8510 0.8490 0.8490
10.977230 0.8490 0.8470 0.8470 0.8470 0.8470
11.012000 0.8470 0.8470 0.8470 0.8460 0.8460
11.046230 0.8460 0.8460 0.8460 0.8460 0.8460
11.080000 0.8470 0.8470 0.8470 0.8470 0.8470
11.114230 0.8470 0.8470 0.8460 0.8460 0.8460
11.149000 0.8460 0.8470 0.8470 0.8520 0.8540
11.183230 0.8590 0.8610 0.8630 0.8660 0.8700
11.217000 0.8710 0.8710 0.8730 0.8730 0.8750
11.251230 0.8750 0.8750 0.8760 0.8780 0.8780
11.285000 0.8800 0.8800 0.8800 0.8820 0.8820
11.319230 0.8820 0.8830 0.8850 0.8850 0.8850
11.354000 0.8870 0.8870 0.8870 0.8870 0.8870
11.388230 0.8870 0.8870 0.8870 0.8870 0.8870
11.422000 0.8870 0.8870 0.8870 0.8880 0.8870
11.456230 0.8870 0.8870 0.8870 0.8870 0.8870
11.491000 0.8870 0.8870 0.8870 0.8870 0.8870
11.525230 0.8870 0.8870 0.8870 0.8870 0.8870
11.559000 0.8870 0.8870 0.8870 0.8870 0.8870
11.593230 0.8880 0.8880 0.8880 0.8870 0.8880
11.628000 0.8880 0.8880 0.8880 0.8880 0.8870
11.662230 0.8870 0.8870 0.8870 0.8870 0.8870
11.696000 0.8870 0.8870 0.8850 0.8850 0.8830
11.730230 0.8830 0.8820 0.8800 0.8820 0.8800
11.764000 0.8800 0.8800 0.8780 0.8780 0.8780
11.798230 0.8760 0.8760 0.8780 0.8780 0.8780
11.833000 0.8780 0.8780 0.8780 0.8780 0.8780
11.867230 0.8780 0.8780 0.8780 0.8780 0.8780
11.901000 0.8780 0.8780 0.8780 0.8780 0.8780
11.935230 0.8780 0.8780 0.8780 0.8780 0.8760
11.970000 0.8760 0.8760 0.8760 0.8760 0.8760
12.004230 0.8760 0.8760 0.8780 0.8780 0.8780
12.038000 0.8780 0.8760 0.8760 0.8760 0.8760
12.072230 0.8760 0.8760 0.8760 0.8760 0.8760
12.107000 0.8760 0.8760 0.8760 0.8760 0.8750
12.141230 0.8760 0.8760 0.8760 0.8730 0.8730
12.175000 0.8710 0.8710 0.8700 0.8700 0.8700
12.209230 0.8700 0.8700 0.8700 0.8700 0.8700
12.243000 0.8700 0.8700 0.8700 0.8700 0.8680
12.277230 0.8680 0.8680 0.8680 0.8680 0.8660
12.312000 0.8660 0.8660 0.8640 0.8630 0.8630
12.346230 0.8630 0.8610 0.8610 0.8610 0.8610
12.380000 0.8610 0.8610 0.8610 0.8610 0.8590
12.414230 0.8590 0.8580 0.8580 0.8580 0.8560
12.449000 0.8540 0.8540 0.8520 0.8520 0.8490
12.483230 0.8490 0.8470 0.8470 0.8470 0.8470
12.517000 0.8470 0.8460 0.8460 0.8440 0.8440
12.551230 0.8420 0.8410 0.8410 0.8410 0.8390
12.586000 0.8370 0.8370 0.8390 0.8390 0.8370
12.620230 0.8370 0.8350 0.8350 0.8340 0.8320
12.654000 0.8300 0.8300 0.8300 0.8290 0.8270
12.688230 0.8250 0.8250 0.8230 0.8220 0.8220
12.722000 0.8220 0.8200 0.8200 0.8180 0.8170
12.756230 0.8150 0.8130 0.8110 0.8100 0.8080
12.791000 0.8060 0.8050 0.8010 0.8000 0.7980
12.825230 0.7960 0.7930 0.7910 0.7880 0.7820
12.859000 0.7790 0.7770 0.7720 0.7690 0.7640
12.893230 0.7580 0.7530 0.7480 0.7450 0.7360
12.928000 0.7290 0.7210 0.7120 0.7020 0.6900
12.962230 0.6780 0.6630 0.6490 0.6340 0.6170
12.996000 0.6000 0.5810 0.5620 0.5430 0.5230
13.030230 0.5020 0.4800 0.4590 0.4410 0.4200
13.065000 0.4010 0.3860 0.3740 0.3640 0.3500
13.099230 0.3480 0.3470 0.3470 0.3500 0.3620
13.133000 0.3760 0.3910 0.4080 0.4270 0.4470
13.167230 0.4660 0.4850 0.5050 0.5230 0.5380
13.201000 0.5520 0.5720 0.5860 0.5980 0.6050
13.235230 0.6150 0.6250 0.6350 0.6420 0.6510
13.270000 0.6540 0.6610 0.6680 0.6710 0.6760
13.304230 0.6760 0.6780 0.6780 0.6800 0.6800
13.338000 0.6780 0.6780 0.6780 0.6760 0.6760
13.372230 0.6750 0.6750 0.6730 0.6710 0.6710
13.407000 0.6710 0.6710 0.6710 0.6710 0.6710
13.441230 0.6700 0.6680 0.6680 0.6660 0.6630
13.475000 0.6590 0.6590 0.6580 0.6540 0.6510
13.509230 0.6490 0.6470 0.6460 0.6460 0.6420
13.543000 0.6410 0.6410 0.6410 0.6410 0.6420
13.577230 0.6490 0.6520 0.6580 0.6630 0.6680
13.612000 0.6710 0.6780 0.6800 0.6820 0.6870
13.646230 0.6870 0.6880 0.6900 0.6920 0.6940
13.680000 0.6940 0.6950 0.6970 0.6970 0.6990
13.714230 0.6990 0.6990 0.6990 0.6990 0.6990
13.749000 0.6970 0.6970 0.6950 0.6940 0.6940
13.783230 0.6940 0.6920 0.6920 0.6900 0.6900
13.817000 0.6900 0.6900 0.6900 0.6920 0.6920
13.851230 0.6920 0.6920 0.6940 0.6940 0.6950
13.886000 0.6970 0.6970 0.6990 0.6990 0.6990
13.920230 0.7000 0.7000 0.7020 0.7020 0.7020
13.954000 0.7020 0.7020 0.7020 0.7020 0.7020
13.988230 0.7020 0.7020 0.7020 0.7000 0.7000
14.022000 0.6990 0.6990 0.6970 0.6950 0.6950
14.056230 0.6940 0.6920 0.6900 0.6880 0.6870
14.091000 0.6870 0.6820 0.6820 0.6800 0.6780
14.125230 0.6780 0.6730 0.6710 0.6700 0.6680
14.159000 0.6680 0.6640 0.6610 0.6590 0.6560
14.193230 0.6520 0.6490 0.6460 0.6390 0.6370
14.228000 0.6320 0.6290 0.6250 0.6180 0.6110
14.262230 0.6050 0.6010 0.5940 0.5890 0.5820
14.296000 0.5760 0.5700 0.5640 0.5580 0.5500
14.330230 0.5430 0.5350 0.5240 0.5120 0.4990
14.365000 0.4880 0.4760 0.4680 0.4580 0.4470
14.399230 0.4340 0.4180 0.3980 0.3820 0.3670
14.433000 0.3520 0.3350 0.3210 0.3040 0.2880
14.467230 0.2730 0.2560 0.2460 0.2350 0.2230
14.501000 0.2100 0.1980 0.1880 0.1760 0.1670
14.535230 0.1600 0.1520 0.1450 0.1400 0.1330
14.570000 0.1290 0.1260 0.1210 0.1210 0.1190
14.604230 0.1210 0.1230 0.1240 0.1280 0.1290
14.638000 0.1350 0.1410 0.1500 0.1550 0.1650
14.672230 0.1760 0.1880 0.1980 0.2150 0.2300
14.707000 0.2440 0.2580 0.2700 0.2830 0.2970
14.741230 0.3090 0.3210 0.3330 0.3450 0.3550
14.775000 0.3650 0.3740 0.3760 0.3910 0.3980
14.809230 0.4030 0.4150 0.4200 0.4230 0.4290
14.844000 0.4320 0.4370 0.4390 0.4420 0.4460
14.878230 0.4490 0.4510 0.4520 0.4540 0.4580
14.912000 0.4590 0.4630 0.4660 0.4680 0.4700
14.946230 0.4730 0.4760 0.4800 0.4820 0.4850
14.980000 0.4870 0.4880 0.4880 0.4920 0.4940
15.014230 0.4940 0.4950 0.4950 0.4950 0.4950
15.049000 0.4950 0.4950 0.4950 0.4940 0.4900
15.083230 0.4900 0.4880 0.4880 0.4880 0.4880
15.117000 0.4880 0.4870 0.4850 0.4830 0.4830
15.151230 0.4830 0.4820 0.4820 0.4820 0.4820
15.186000 0.4820 0.4800 0.4800 0.4780 0.4780
15.220230 0.4780 0.4780 0.4760 0.4750 0.4730
15.254000 0.4710 0.4710 0.4700 0.4680 0.4660
15.288230 0.4660 0.4640 0.4640 0.4630 0.4610
15.323000 0.4610 0.4590 0.4580 0.4560 0.4540
15.357230 0.4540 0.4520 0.4520 0.4510 0.4510
15.391000 0.4510 0.4490 0.4470 0.4470 0.4440
15.425230 0.4420 0.4410 0.4390 0.4390 0.4370
15.459000 0.4320 0.4320 0.4300 0.4290 0.4290
15.493230 0.4270 0.4230 0.4220 0.4200 0.4180
15.528000 0.4180 0.4180 0.4130 0.4110 0.4100
15.562230 0.4080 0.4060 0.4060 0.4060 0.4030
15.596000 0.4030 0.4010 0.4000 0.4000 0.3980
15.630230 0.3960 0.3930 0.3910 0.3890 0.3890
15.665000 0.3880 0.3880 0.3820 0.3820 0.3810
15.699230 0.3810 0.3790 0.3790 0.3760 0.3760
15.733000 0.3740 0.3740 0.3720 0.3700 0.3690
15.767230 0.3690 0.3670 0.3650 0.3650 0.3640
15.802000 0.3640 0.3620 0.3600 0.3580 0.3580
15.836230 0.3570 0.3570 0.3570 0.3570 0.3570
15.870000 0.3580 0.3600 0.3600 0.3650 0.3670
##END=
