##TITLE=n-Butyrohydroxamic acid, 2-amino-
##JCAMP-DX=4.24
##DATA TYPE=INFRARED SPECTRUM
##CLASS=COBLENTZ III
##ORIGIN=SOUTHERN RESEARCH INSTITUTE
##OWNER=Copyright (C) 1987 by the Coblentz Society
Collection (C) 2018 copyright by the U.S. Secretary of Commerce
on behalf of the United States of America. All rights reserved.
##DATE=1956/11/06
##NAMES=2-amino-N-hydroxybutanamide
##MOLFORM=C4 H10 N2 O2
##SOURCE REFERENCE=COBLENTZ NO. 6874
##$NIST ID=B6006874
##$NIST SOURCE=COBLENTZ
##$NIST IMAGE=cob6874
##SPECTROMETER/DATA SYSTEM=PERKIN-ELMER 21 (GRATING)
##INSTRUMENT PARAMETERS=FILTER CHANGE ABOUT 1070 CM^-^1
##STATE=SOLID (0.4 mg / 650 mg KBr DISC)
$$ SPECTRAL FEATURE AT 1068 CM^-^1 IS AN ARTIFACT CAUSED BY FILTER CHANGE
##RESOLUTION=2
##XUNITS=1/CM
##YUNITS=TRANSMITTANCE
##XFACTOR=1.0
##YFACTOR=1
##FIRSTX=692
##LASTX=3900
##FIRSTY=0.999
##MAXX=3900
##MINX=692
##MAXY=0.9259
##MINY=0.2152
##NPOINTS=3209
##XYDATA=(X++(Y..Y))
692.000000 0.9990 0.9956 0.9908 0.9867 0.9826
697.000000 0.9785 0.9731 0.9669 0.9608 0.9519
702.000000 0.9429 0.9355 0.9281 0.9223 0.9169
707.000000 0.9088 0.9007 0.8926 0.8845 0.8764
712.000000 0.8727 0.8722 0.8717 0.8712 0.8707
717.000000 0.8702 0.8698 0.8694 0.8689 0.8684
722.000000 0.8680 0.8642 0.8612 0.8584 0.8556
727.000000 0.8527 0.8485 0.8442 0.8385 0.8317
732.000000 0.8226 0.8116 0.8029 0.7974 0.7968
737.000000 0.7962 0.7957 0.7951 0.7948 0.7946
742.000000 0.7943 0.7940 0.7937 0.7935 0.7932
747.000000 0.7928 0.7925 0.7921 0.7917 0.7914
752.000000 0.7901 0.7910 0.7914 0.7918 0.7923
757.000000 0.7929 0.7940 0.7962 0.7984 0.8011
762.000000 0.8042 0.8072 0.8100 0.8129 0.8160
767.000000 0.8200 0.8231 0.8240 0.8249 0.8259
772.000000 0.8259 0.8267 0.8258 0.8256 0.8253
777.000000 0.8247 0.8228 0.8209 0.8171 0.8114
782.000000 0.8060 0.8030 0.8021 0.8013 0.8009
787.000000 0.8008 0.8007 0.7996 0.8057 0.8113
792.000000 0.8189 0.8232 0.8273 0.8298 0.8315
797.000000 0.8325 0.8330 0.8335 0.8364 0.8336
802.000000 0.8334 0.8332 0.8330 0.8320 0.8309
807.000000 0.8294 0.8277 0.8257 0.8238 0.8230
812.000000 0.8226 0.8224 0.8219 0.8250 0.8310
817.000000 0.8347 0.8384 0.8424 0.8454 0.8477
822.000000 0.8501 0.8507 0.8512 0.8516 0.8514
827.000000 0.8532 0.8505 0.8498 0.8488 0.8479
832.000000 0.8469 0.8451 0.8429 0.8405 0.8379
837.000000 0.8353 0.8326 0.8291 0.8255 0.8219
842.000000 0.8174 0.8124 0.8075 0.8025 0.7975
847.000000 0.7925 0.7873 0.7817 0.7761 0.7701
852.000000 0.7626 0.7553 0.7485 0.7228 0.6972
857.000000 0.6716 0.6460 0.6204 0.5946 0.5963
862.000000 0.5966 0.6183 0.6536 0.6888 0.7240
867.000000 0.7592 0.7870 0.7931 0.8270 0.8421
872.000000 0.8497 0.8565 0.8616 0.8635 0.8647
877.000000 0.8647 0.8648 0.8665 0.8633 0.8620
882.000000 0.8601 0.8560 0.8534 0.8511 0.8495
887.000000 0.8479 0.8463 0.8444 0.8424 0.8395
892.000000 0.8363 0.8331 0.8298 0.8259 0.8220
897.000000 0.8181 0.8144 0.8109 0.8074 0.8039
902.000000 0.7999 0.7957 0.7916 0.7875 0.7834
907.000000 0.7774 0.7709 0.7645 0.7574 0.7498
912.000000 0.7423 0.7342 0.7249 0.7153 0.7034
917.000000 0.6882 0.6561 0.6181 0.5800 0.5420
922.000000 0.5061 0.4940 0.4833 0.4721 0.4513
927.000000 0.4515 0.4519 0.4528 0.4564 0.5118
932.000000 0.5809 0.6501 0.6991 0.7116 0.8013
937.000000 0.8205 0.8265 0.8320 0.8357 0.8375
942.000000 0.8383 0.8390 0.8393 0.8392 0.8391
947.000000 0.8389 0.8386 0.8384 0.8381 0.8382
952.000000 0.8384 0.8386 0.8387 0.8395 0.8416
957.000000 0.8441 0.8467 0.8493 0.8518 0.8544
962.000000 0.8565 0.8577 0.8588 0.8599 0.8651
967.000000 0.8608 0.8609 0.8595 0.8580 0.8558
972.000000 0.8537 0.8488 0.8438 0.8383 0.8326
977.000000 0.8267 0.8237 0.8211 0.8190 0.8207
982.000000 0.8179 0.8180 0.8194 0.8213 0.8233
987.000000 0.8265 0.8298 0.8330 0.8365 0.8439
992.000000 0.8483 0.8533 0.8589 0.8619 0.8640
997.000000 0.8640 0.8640 0.8682 0.8635 0.8630
1002.000000 0.8625 0.8621 0.8609 0.8595 0.8576
1007.000000 0.8547 0.8518 0.8496 0.8474 0.8452
1012.000000 0.8442 0.8436 0.8431 0.8425 0.8420
1017.000000 0.8418 0.8416 0.8415 0.8414 0.8413
1022.000000 0.8410 0.8406 0.8388 0.8341 0.8290
1027.000000 0.8231 0.8174 0.8120 0.8066 0.8029
1032.000000 0.7992 0.7979 0.7974 0.7969 0.7965
1037.000000 0.7991 0.8011 0.8049 0.8115 0.8148
1042.000000 0.8182 0.8228 0.8275 0.8316 0.8355
1047.000000 0.8394 0.8418 0.8437 0.8455 0.8468
1052.000000 0.8470 0.8471 0.8470 0.8493 0.8465
1057.000000 0.8462 0.8456 0.8451 0.8445 0.8440
1062.000000 0.8434 0.8427 0.8420 0.8413 0.8384
1067.000000 0.8030 0.7986 0.8079 0.8375 0.8792
1072.000000 0.8794 0.8780 0.8632 0.8484 0.8352
1077.000000 0.8338 0.8322 0.8300 0.8277 0.8251
1082.000000 0.8219 0.8187 0.8154 0.8121 0.8086
1087.000000 0.8049 0.8012 0.7970 0.7919 0.7869
1092.000000 0.7765 0.7625 0.7555 0.7486 0.7417
1097.000000 0.7372 0.7377 0.7390 0.7348 0.7452
1102.000000 0.7482 0.7524 0.7566 0.7602 0.7638
1107.000000 0.7693 0.7753 0.7850 0.7934 0.7954
1112.000000 0.7950 0.7944 0.7977 0.7927 0.7899
1117.000000 0.7855 0.7806 0.7753 0.7697 0.7632
1122.000000 0.7568 0.7503 0.7404 0.7304 0.7218
1127.000000 0.7135 0.7041 0.6941 0.6935 0.6934
1132.000000 0.6939 0.6943 0.6894 0.6968 0.6998
1137.000000 0.7064 0.7149 0.7227 0.7301 0.7417
1142.000000 0.7514 0.7596 0.7700 0.7815 0.7929
1147.000000 0.8075 0.8191 0.8288 0.8298 0.8309
1152.000000 0.8322 0.8336 0.8351 0.8368 0.8391
1157.000000 0.8415 0.8439 0.8462 0.8478 0.8492
1162.000000 0.8505 0.8510 0.8515 0.8521 0.8526
1167.000000 0.8525 0.8523 0.8522 0.8548 0.8519
1172.000000 0.8518 0.8516 0.8514 0.8511 0.8509
1177.000000 0.8507 0.8504 0.8502 0.8499 0.8497
1182.000000 0.8495 0.8491 0.8486 0.8482 0.8477
1187.000000 0.8473 0.8468 0.8464 0.8459 0.8452
1192.000000 0.8443 0.8434 0.8425 0.8416 0.8407
1197.000000 0.8398 0.8394 0.8390 0.8364 0.8405
1202.000000 0.8415 0.8426 0.8440 0.8458 0.8477
1207.000000 0.8498 0.8521 0.8544 0.8566 0.8588
1212.000000 0.8588 0.8588 0.8588 0.8589 0.8589
1217.000000 0.8589 0.8589 0.8585 0.8581 0.8578
1222.000000 0.8597 0.8570 0.8566 0.8561 0.8555
1227.000000 0.8549 0.8544 0.8538 0.8533 0.8527
1232.000000 0.8519 0.8512 0.8504 0.8496 0.8489
1237.000000 0.8471 0.8450 0.8429 0.8408 0.8384
1242.000000 0.8358 0.8333 0.8307 0.8281 0.8256
1247.000000 0.8229 0.8203 0.8177 0.8151 0.8125
1252.000000 0.8099 0.8068 0.8032 0.7997 0.7941
1257.000000 0.7861 0.7748 0.7648 0.7637 0.7655
1262.000000 0.7661 0.7694 0.7746 0.7817 0.7884
1267.000000 0.7990 0.8060 0.8067 0.8074 0.8086
1272.000000 0.8075 0.8072 0.8069 0.8052 0.8034
1277.000000 0.8006 0.7966 0.7923 0.7879 0.7831
1282.000000 0.7766 0.7701 0.7639 0.7580 0.7508
1287.000000 0.7418 0.7342 0.7270 0.7123 0.7046
1292.000000 0.6961 0.6905 0.6899 0.6903 0.6863
1297.000000 0.6926 0.6949 0.6999 0.7064 0.7179
1302.000000 0.7276 0.7371 0.7399 0.7410 0.7421
1307.000000 0.7394 0.7378 0.7346 0.7299 0.7249
1312.000000 0.7144 0.7078 0.7009 0.6930 0.6847
1317.000000 0.6776 0.6750 0.6747 0.6742 0.6777
1322.000000 0.6809 0.6864 0.6926 0.7098 0.7308
1327.000000 0.7392 0.7559 0.7630 0.7643 0.7651
1332.000000 0.7648 0.7644 0.7649 0.7610 0.7584
1337.000000 0.7540 0.7505 0.7426 0.7332 0.7313
1342.000000 0.7296 0.7285 0.7274 0.7229 0.7130
1347.000000 0.7032 0.6934 0.6853 0.6757 0.6673
1352.000000 0.6597 0.6428 0.6334 0.6210 0.5916
1357.000000 0.5799 0.5726 0.5653 0.5407 0.5295
1362.000000 0.5192 0.5119 0.5055 0.4984 0.4818
1367.000000 0.4573 0.4328 0.4090 0.4043 0.3957
1372.000000 0.3834 0.3803 0.3796 0.3800 0.3809
1377.000000 0.4018 0.4193 0.4369 0.4544 0.4719
1382.000000 0.4873 0.4927 0.4983 0.5045 0.5121
1387.000000 0.5219 0.5318 0.5418 0.5522 0.5635
1392.000000 0.5835 0.6271 0.6475 0.6578 0.6676
1397.000000 0.6807 0.6940 0.7058 0.7183 0.7308
1402.000000 0.7383 0.7479 0.7621 0.7739 0.7883
1407.000000 0.7948 0.7956 0.7964 0.7987 0.7966
1412.000000 0.7963 0.7960 0.7957 0.7951 0.7943
1417.000000 0.7935 0.7927 0.7919 0.7909 0.7900
1422.000000 0.7890 0.7874 0.7856 0.7838 0.7817
1427.000000 0.7778 0.7690 0.7627 0.7566 0.7508
1432.000000 0.7451 0.7394 0.7337 0.7267 0.7193
1437.000000 0.7144 0.7111 0.7084 0.7062 0.7050
1442.000000 0.7038 0.7025 0.6983 0.6888 0.6831
1447.000000 0.6776 0.6664 0.6612 0.6561 0.6512
1452.000000 0.6462 0.6376 0.6231 0.6085 0.5939
1457.000000 0.5793 0.5677 0.5638 0.5612 0.5640
1462.000000 0.5646 0.5666 0.5694 0.5733 0.5783
1467.000000 0.5834 0.5878 0.5910 0.5940 0.5964
1472.000000 0.5980 0.5996 0.6007 0.6017 0.6027
1477.000000 0.6038 0.6048 0.6059 0.6069 0.6087
1482.000000 0.6119 0.6207 0.6346 0.6412 0.6451
1487.000000 0.6489 0.6520 0.6551 0.6582 0.6609
1492.000000 0.6636 0.6663 0.6681 0.6699 0.6716
1497.000000 0.6721 0.6724 0.6720 0.6714 0.6708
1502.000000 0.6666 0.6729 0.6506 0.6403 0.6242
1507.000000 0.6166 0.6140 0.6130 0.6124 0.6118
1512.000000 0.6112 0.6099 0.6084 0.6069 0.5979
1517.000000 0.5892 0.5807 0.5761 0.5750 0.5740
1522.000000 0.5731 0.5721 0.5713 0.5705 0.5690
1527.000000 0.5666 0.5630 0.5594 0.5558 0.5523
1532.000000 0.5514 0.5493 0.5522 0.5750 0.6030
1537.000000 0.6310 0.6590 0.6663 0.6703 0.6745
1542.000000 0.6793 0.6855 0.6928 0.7021 0.7249
1547.000000 0.7340 0.7370 0.7392 0.7411 0.7411
1552.000000 0.7411 0.7411 0.7410 0.7407 0.7426
1557.000000 0.7399 0.7390 0.7382 0.7369 0.7355
1562.000000 0.7327 0.7291 0.7248 0.7204 0.7159
1567.000000 0.7114 0.7062 0.7004 0.6945 0.6888
1572.000000 0.6836 0.6784 0.6731 0.6683 0.6642
1577.000000 0.6600 0.6559 0.6518 0.6476 0.6434
1582.000000 0.6392 0.6329 0.6219 0.6109 0.5998
1587.000000 0.5888 0.5778 0.5668 0.5564 0.5545
1592.000000 0.5523 0.5494 0.5464 0.5425 0.5348
1597.000000 0.5285 0.5199 0.5120 0.5056 0.4991
1602.000000 0.4884 0.4783 0.4694 0.4621 0.4547
1607.000000 0.4453 0.4176 0.4023 0.3797 0.3539
1612.000000 0.3366 0.3280 0.3195 0.3102 0.3000
1617.000000 0.2884 0.2482 0.2351 0.2256 0.2186
1622.000000 0.2168 0.2153 0.2152 0.2170 0.2177
1627.000000 0.2245 0.2373 0.2500 0.2627 0.2739
1632.000000 0.2807 0.2865 0.2908 0.2950 0.2989
1637.000000 0.3025 0.3055 0.3098 0.3356 0.3614
1642.000000 0.3871 0.4108 0.4141 0.4371 0.4649
1647.000000 0.4927 0.5205 0.5301 0.5327 0.5352
1652.000000 0.5384 0.5417 0.5458 0.5587 0.5685
1657.000000 0.5759 0.5821 0.5883 0.5951 0.6022
1662.000000 0.6099 0.6198 0.6298 0.6397 0.6480
1667.000000 0.6561 0.6643 0.6737 0.6837 0.6930
1672.000000 0.7007 0.7084 0.7160 0.7252 0.7344
1677.000000 0.7393 0.7437 0.7481 0.7524 0.7568
1682.000000 0.7631 0.7694 0.7756 0.7818 0.7879
1687.000000 0.7940 0.8020 0.8107 0.8175 0.8243
1692.000000 0.8291 0.8314 0.8337 0.8361 0.8384
1697.000000 0.8407 0.8431 0.8454 0.8476 0.8496
1702.000000 0.8515 0.8535 0.8555 0.8574 0.8594
1707.000000 0.8613 0.8631 0.8642 0.8654 0.8665
1712.000000 0.8677 0.8688 0.8699 0.8710 0.8718
1717.000000 0.8727 0.8735 0.8744 0.8752 0.8761
1722.000000 0.8769 0.8779 0.8789 0.8798 0.8808
1727.000000 0.8818 0.8827 0.8837 0.8847 0.8856
1732.000000 0.8866 0.8874 0.8882 0.8889 0.8897
1737.000000 0.8905 0.8912 0.8920 0.8928 0.8935
1742.000000 0.8941 0.8946 0.8950 0.8955 0.8960
1747.000000 0.8965 0.8970 0.8975 0.8980 0.8985
1752.000000 0.8988 0.8992 0.8995 0.8999 0.9002
1757.000000 0.9006 0.9010 0.9013 0.9017 0.9019
1762.000000 0.9021 0.9022 0.9024 0.9025 0.9027
1767.000000 0.9028 0.9030 0.9032 0.9033 0.9035
1772.000000 0.9036 0.9038 0.9039 0.9040 0.9041
1777.000000 0.9043 0.9044 0.9045 0.9046 0.9048
1782.000000 0.9053 0.9058 0.9064 0.9069 0.9082
1787.000000 0.9095 0.9108 0.9121 0.9131 0.9140
1792.000000 0.9150 0.9159 0.9163 0.9167 0.9171
1797.000000 0.9174 0.9177 0.9180 0.9184 0.9187
1802.000000 0.9190 0.9193 0.9197 0.9200 0.9203
1807.000000 0.9207 0.9210 0.9212 0.9213 0.9214
1812.000000 0.9215 0.9216 0.9216 0.9217 0.9217
1817.000000 0.9218 0.9218 0.9219 0.9219 0.9220
1822.000000 0.9221 0.9222 0.9223 0.9224 0.9225
1827.000000 0.9226 0.9228 0.9229 0.9230 0.9231
1832.000000 0.9232 0.9233 0.9235 0.9236 0.9237
1837.000000 0.9238 0.9239 0.9239 0.9240 0.9240
1842.000000 0.9241 0.9242 0.9242 0.9243 0.9244
1847.000000 0.9244 0.9245 0.9246 0.9246 0.9247
1852.000000 0.9248 0.9248 0.9249 0.9250 0.9250
1857.000000 0.9251 0.9251 0.9252 0.9253 0.9253
1862.000000 0.9253 0.9253 0.9254 0.9254 0.9254
1867.000000 0.9254 0.9254 0.9255 0.9255 0.9255
1872.000000 0.9255 0.9255 0.9256 0.9256 0.9256
1877.000000 0.9256 0.9256 0.9257 0.9257 0.9257
1882.000000 0.9257 0.9257 0.9258 0.9258 0.9258
1887.000000 0.9258 0.9258 0.9259 0.9258 0.9258
1892.000000 0.9257 0.9256 0.9255 0.9254 0.9253
1897.000000 0.9252 0.9251 0.9251 0.9250 0.9249
1902.000000 0.9248 0.9247 0.9246 0.9245 0.9244
1907.000000 0.9243 0.9242 0.9241 0.9240 0.9239
1912.000000 0.9237 0.9236 0.9235 0.9234 0.9233
1917.000000 0.9232 0.9231 0.9230 0.9229 0.9228
1922.000000 0.9227 0.9226 0.9225 0.9224 0.9224
1927.000000 0.9225 0.9225 0.9226 0.9227 0.9227
1932.000000 0.9228 0.9229 0.9229 0.9230 0.9231
1937.000000 0.9232 0.9233 0.9233 0.9234 0.9235
1942.000000 0.9236 0.9237 0.9238 0.9239 0.9241
1947.000000 0.9243 0.9245 0.9247 0.9248 0.9249
1952.000000 0.9246 0.9242 0.9239 0.9235 0.9232
1957.000000 0.9225 0.9216 0.9206 0.9197 0.9187
1962.000000 0.9181 0.9179 0.9177 0.9175 0.9173
1967.000000 0.9171 0.9170 0.9168 0.9167 0.9165
1972.000000 0.9164 0.9162 0.9161 0.9159 0.9158
1977.000000 0.9155 0.9148 0.9142 0.9135 0.9129
1982.000000 0.9122 0.9116 0.9109 0.9103 0.9097
1987.000000 0.9094 0.9090 0.9086 0.9083 0.9079
1992.000000 0.9075 0.9072 0.9068 0.9064 0.9061
1997.000000 0.9057 0.9053 0.9050 0.9046 0.9042
2002.000000 0.9037 0.9033 0.9028 0.9024 0.9019
2007.000000 0.9015 0.9010 0.9006 0.9002 0.8997
2012.000000 0.8993 0.8988 0.8983 0.8978 0.8974
2017.000000 0.8969 0.8964 0.8959 0.8955 0.8950
2022.000000 0.8945 0.8940 0.8936 0.8931 0.8926
2027.000000 0.8922 0.8917 0.8912 0.8907 0.8903
2032.000000 0.8898 0.8893 0.8888 0.8881 0.8875
2037.000000 0.8868 0.8861 0.8855 0.8848 0.8842
2042.000000 0.8835 0.8829 0.8822 0.8816 0.8809
2047.000000 0.8802 0.8794 0.8786 0.8777 0.8768
2052.000000 0.8760 0.8751 0.8742 0.8734 0.8725
2057.000000 0.8716 0.8708 0.8696 0.8684 0.8672
2062.000000 0.8660 0.8649 0.8637 0.8625 0.8613
2067.000000 0.8601 0.8590 0.8578 0.8566 0.8554
2072.000000 0.8542 0.8530 0.8520 0.8511 0.8501
2077.000000 0.8492 0.8483 0.8474 0.8465 0.8455
2082.000000 0.8446 0.8437 0.8430 0.8427 0.8423
2087.000000 0.8419 0.8415 0.8411 0.8407 0.8404
2092.000000 0.8400 0.8396 0.8393 0.8391 0.8388
2097.000000 0.8386 0.8383 0.8381 0.8378 0.8376
2102.000000 0.8373 0.8371 0.8369 0.8367 0.8365
2107.000000 0.8363 0.8361 0.8359 0.8356 0.8354
2112.000000 0.8352 0.8350 0.8349 0.8348 0.8347
2117.000000 0.8348 0.8334 0.8348 0.8348 0.8349
2122.000000 0.8350 0.8351 0.8352 0.8352 0.8352
2127.000000 0.8349 0.8347 0.8344 0.8344 0.8346
2132.000000 0.8348 0.8350 0.8355 0.8361 0.8368
2137.000000 0.8374 0.8380 0.8386 0.8398 0.8411
2142.000000 0.8424 0.8437 0.8451 0.8464 0.8477
2147.000000 0.8490 0.8500 0.8510 0.8520 0.8530
2152.000000 0.8539 0.8549 0.8557 0.8562 0.8567
2157.000000 0.8572 0.8577 0.8582 0.8584 0.8583
2162.000000 0.8581 0.8580 0.8578 0.8577 0.8576
2167.000000 0.8586 0.8595 0.8604 0.8612 0.8620
2172.000000 0.8626 0.8632 0.8638 0.8644 0.8646
2177.000000 0.8649 0.8651 0.8653 0.8655 0.8657
2182.000000 0.8659 0.8661 0.8663 0.8665 0.8667
2187.000000 0.8668 0.8668 0.8669 0.8647 0.8670
2192.000000 0.8670 0.8670 0.8671 0.8671 0.8672
2197.000000 0.8672 0.8673 0.8673 0.8673 0.8674
2202.000000 0.8674 0.8673 0.8672 0.8670 0.8669
2207.000000 0.8668 0.8667 0.8665 0.8664 0.8663
2212.000000 0.8662 0.8660 0.8659 0.8658 0.8656
2217.000000 0.8655 0.8654 0.8653 0.8651 0.8650
2222.000000 0.8649 0.8648 0.8646 0.8644 0.8642
2227.000000 0.8640 0.8638 0.8636 0.8633 0.8631
2232.000000 0.8629 0.8627 0.8625 0.8623 0.8621
2237.000000 0.8619 0.8617 0.8615 0.8613 0.8610
2242.000000 0.8607 0.8604 0.8601 0.8598 0.8595
2247.000000 0.8592 0.8589 0.8586 0.8583 0.8580
2252.000000 0.8577 0.8574 0.8572 0.8569 0.8566
2257.000000 0.8563 0.8560 0.8556 0.8552 0.8548
2262.000000 0.8544 0.8540 0.8536 0.8533 0.8529
2267.000000 0.8525 0.8521 0.8517 0.8513 0.8509
2272.000000 0.8505 0.8501 0.8498 0.8493 0.8489
2277.000000 0.8485 0.8481 0.8477 0.8473 0.8469
2282.000000 0.8465 0.8460 0.8456 0.8452 0.8448
2287.000000 0.8443 0.8438 0.8433 0.8428 0.8423
2292.000000 0.8418 0.8413 0.8408 0.8404 0.8399
2297.000000 0.8394 0.8389 0.8384 0.8379 0.8374
2302.000000 0.8369 0.8364 0.8359 0.8354 0.8349
2307.000000 0.8343 0.8337 0.8332 0.8326 0.8320
2312.000000 0.8314 0.8309 0.8303 0.8297 0.8292
2317.000000 0.8286 0.8280 0.8275 0.8269 0.8263
2322.000000 0.8258 0.8252 0.8246 0.8239 0.8232
2327.000000 0.8225 0.8218 0.8211 0.8204 0.8198
2332.000000 0.8191 0.8184 0.8177 0.8170 0.8163
2337.000000 0.8156 0.8149 0.8143 0.8136 0.8129
2342.000000 0.8122 0.8115 0.8108 0.8103 0.8097
2347.000000 0.8091 0.8086 0.8080 0.8075 0.8069
2352.000000 0.8064 0.8058 0.8052 0.8047 0.8041
2357.000000 0.8036 0.8030 0.8025 0.8019 0.8014
2362.000000 0.8008 0.8002 0.7996 0.7990 0.7984
2367.000000 0.7978 0.7973 0.7967 0.7961 0.7955
2372.000000 0.7949 0.7943 0.7937 0.7932 0.7926
2377.000000 0.7920 0.7915 0.7909 0.7904 0.7898
2382.000000 0.7893 0.7887 0.7882 0.7877 0.7871
2387.000000 0.7866 0.7860 0.7855 0.7849 0.7843
2392.000000 0.7837 0.7831 0.7825 0.7819 0.7813
2397.000000 0.7807 0.7801 0.7795 0.7789 0.7783
2402.000000 0.7775 0.7765 0.7755 0.7745 0.7734
2407.000000 0.7724 0.7704 0.7676 0.7650 0.7626
2412.000000 0.7605 0.7584 0.7565 0.7548 0.7530
2417.000000 0.7512 0.7495 0.7480 0.7467 0.7455
2422.000000 0.7442 0.7429 0.7417 0.7407 0.7399
2427.000000 0.7390 0.7381 0.7372 0.7362 0.7352
2432.000000 0.7344 0.7335 0.7327 0.7318 0.7310
2437.000000 0.7301 0.7291 0.7280 0.7269 0.7258
2442.000000 0.7247 0.7236 0.7225 0.7211 0.7196
2447.000000 0.7181 0.7166 0.7151 0.7136 0.7121
2452.000000 0.7106 0.7091 0.7076 0.7064 0.7055
2457.000000 0.7046 0.7037 0.7028 0.7019 0.7013
2462.000000 0.7008 0.6996 0.6965 0.6935 0.6908
2467.000000 0.6892 0.6876 0.6860 0.6857 0.6853
2472.000000 0.6850 0.6846 0.6843 0.6838 0.6831
2477.000000 0.6824 0.6817 0.6810 0.6803 0.6796
2482.000000 0.6777 0.6748 0.6718 0.6688 0.6657
2487.000000 0.6625 0.6594 0.6567 0.6545 0.6524
2492.000000 0.6509 0.6493 0.6478 0.6463 0.6448
2497.000000 0.6433 0.6418 0.6403 0.6389 0.6374
2502.000000 0.6368 0.6361 0.6355 0.6349 0.6343
2507.000000 0.6337 0.6330 0.6324 0.6318 0.6312
2512.000000 0.6305 0.6299 0.6293 0.6287 0.6281
2517.000000 0.6276 0.6272 0.6268 0.6264 0.6259
2522.000000 0.6255 0.6251 0.6247 0.6243 0.6239
2527.000000 0.6235 0.6231 0.6227 0.6223 0.6218
2532.000000 0.6214 0.6210 0.6206 0.6202 0.6198
2537.000000 0.6194 0.6190 0.6185 0.6181 0.6177
2542.000000 0.6172 0.6168 0.6163 0.6159 0.6154
2547.000000 0.6149 0.6145 0.6140 0.6136 0.6131
2552.000000 0.6126 0.6122 0.6117 0.6111 0.6103
2557.000000 0.6094 0.6086 0.6077 0.6069 0.6060
2562.000000 0.6052 0.6043 0.6035 0.6026 0.6018
2567.000000 0.6009 0.6001 0.5992 0.5984 0.5973
2572.000000 0.5960 0.5948 0.5935 0.5922 0.5910
2577.000000 0.5897 0.5885 0.5872 0.5860 0.5847
2582.000000 0.5835 0.5822 0.5809 0.5797 0.5784
2587.000000 0.5770 0.5751 0.5732 0.5713 0.5702
2592.000000 0.5696 0.5690 0.5684 0.5678 0.5672
2597.000000 0.5666 0.5660 0.5654 0.5648 0.5644
2602.000000 0.5640 0.5636 0.5631 0.5627 0.5623
2607.000000 0.5619 0.5615 0.5611 0.5607 0.5603
2612.000000 0.5599 0.5595 0.5591 0.5588 0.5586
2617.000000 0.5584 0.5583 0.5581 0.5579 0.5577
2622.000000 0.5576 0.5575 0.5574 0.5574 0.5573
2627.000000 0.5573 0.5579 0.5584 0.5590 0.5595
2632.000000 0.5601 0.5606 0.5612 0.5614 0.5615
2637.000000 0.5616 0.5617 0.5614 0.5607 0.5601
2642.000000 0.5591 0.5573 0.5556 0.5539 0.5525
2647.000000 0.5511 0.5497 0.5484 0.5472 0.5462
2652.000000 0.5452 0.5443 0.5433 0.5424 0.5414
2657.000000 0.5404 0.5396 0.5390 0.5384 0.5378
2662.000000 0.5372 0.5366 0.5360 0.5354 0.5347
2667.000000 0.5341 0.5334 0.5324 0.5314 0.5305
2672.000000 0.5295 0.5285 0.5276 0.5266 0.5254
2677.000000 0.5240 0.5227 0.5213 0.5199 0.5185
2682.000000 0.5170 0.5154 0.5139 0.5130 0.5123
2687.000000 0.5115 0.5108 0.5100 0.5093 0.5085
2692.000000 0.5077 0.5071 0.5068 0.5065 0.5062
2697.000000 0.5058 0.5055 0.5052 0.5049 0.5045
2702.000000 0.5042 0.5032 0.5023 0.5014 0.5005
2707.000000 0.4996 0.4987 0.4978 0.4964 0.4949
2712.000000 0.4934 0.4919 0.4903 0.4885 0.4866
2717.000000 0.4847 0.4830 0.4814 0.4798 0.4782
2722.000000 0.4766 0.4750 0.4734 0.4718 0.4702
2727.000000 0.4686 0.4671 0.4655 0.4639 0.4623
2732.000000 0.4608 0.4598 0.4591 0.4584 0.4578
2737.000000 0.4571 0.4559 0.4546 0.4533 0.4521
2742.000000 0.4508 0.4495 0.4482 0.4467 0.4452
2747.000000 0.4437 0.4422 0.4407 0.4392 0.4377
2752.000000 0.4362 0.4347 0.4332 0.4317 0.4302
2757.000000 0.4288 0.4273 0.4258 0.4244 0.4229
2762.000000 0.4215 0.4200 0.4186 0.4171 0.4156
2767.000000 0.4142 0.4127 0.4113 0.4098 0.4084
2772.000000 0.4069 0.4054 0.4037 0.4020 0.4004
2777.000000 0.3987 0.3971 0.3954 0.3938 0.3921
2782.000000 0.3905 0.3888 0.3872 0.3857 0.3841
2787.000000 0.3826 0.3810 0.3795 0.3779 0.3764
2792.000000 0.3740 0.3716 0.3692 0.3667 0.3643
2797.000000 0.3619 0.3594 0.3572 0.3549 0.3527
2802.000000 0.3504 0.3482 0.3460 0.3444 0.3429
2807.000000 0.3413 0.3398 0.3383 0.3373 0.3362
2812.000000 0.3352 0.3340 0.3329 0.3317 0.3306
2817.000000 0.3294 0.3283 0.3271 0.3260 0.3248
2822.000000 0.3236 0.3225 0.3216 0.3207 0.3197
2827.000000 0.3188 0.3179 0.3170 0.3160 0.3151
2832.000000 0.3142 0.3133 0.3116 0.3098 0.3080
2837.000000 0.3064 0.3058 0.3052 0.3048 0.3042
2842.000000 0.3038 0.3033 0.3028 0.3023 0.3022
2847.000000 0.3025 0.3035 0.3031 0.3033 0.3036
2852.000000 0.3039 0.3042 0.3047 0.3053 0.3059
2857.000000 0.3065 0.3072 0.3078 0.3084 0.3091
2862.000000 0.3097 0.3104 0.3112 0.3119 0.3127
2867.000000 0.3134 0.3142 0.3152 0.3165 0.3178
2872.000000 0.3190 0.3203 0.3215 0.3228 0.3241
2877.000000 0.3255 0.3271 0.3287 0.3304 0.3320
2882.000000 0.3333 0.3344 0.3356 0.3367 0.3378
2887.000000 0.3387 0.3392 0.3398 0.3404 0.3409
2892.000000 0.3415 0.3421 0.3427 0.3430 0.3432
2897.000000 0.3434 0.3436 0.3438 0.3441 0.3443
2902.000000 0.3452 0.3464 0.3476 0.3489 0.3503
2907.000000 0.3516 0.3530 0.3539 0.3545 0.3550
2912.000000 0.3556 0.3561 0.3567 0.3572 0.3573
2917.000000 0.3574 0.3574 0.3575 0.3575 0.3576
2922.000000 0.3576 0.3577 0.3578 0.3578 0.3577
2927.000000 0.3574 0.3571 0.3600 0.3564 0.3561
2932.000000 0.3558 0.3555 0.3551 0.3548 0.3545
2937.000000 0.3541 0.3538 0.3534 0.3531 0.3527
2942.000000 0.3523 0.3520 0.3516 0.3513 0.3510
2947.000000 0.3506 0.3503 0.3502 0.3502 0.3503
2952.000000 0.3503 0.3510 0.3518 0.3525 0.3532
2957.000000 0.3539 0.3557 0.3587 0.3625 0.3657
2962.000000 0.3673 0.3686 0.3688 0.3688 0.3689
2967.000000 0.3684 0.3674 0.3663 0.3653 0.3639
2972.000000 0.3620 0.3601 0.3581 0.3563 0.3549
2977.000000 0.3536 0.3522 0.3508 0.3495 0.3481
2982.000000 0.3468 0.3459 0.3450 0.3441 0.3431
2987.000000 0.3422 0.3413 0.3404 0.3394 0.3385
2992.000000 0.3376 0.3367 0.3358 0.3349 0.3340
2997.000000 0.3331 0.3322 0.3319 0.3316 0.3313
3002.000000 0.3311 0.3308 0.3305 0.3302 0.3299
3007.000000 0.3293 0.3287 0.3280 0.3273 0.3263
3012.000000 0.3244 0.3224 0.3204 0.3185 0.3171
3017.000000 0.3157 0.3144 0.3137 0.3131 0.3124
3022.000000 0.3118 0.3112 0.3105 0.3100 0.3097
3027.000000 0.3094 0.3090 0.3087 0.3083 0.3080
3032.000000 0.3076 0.3072 0.3068 0.3064 0.3060
3037.000000 0.3057 0.3053 0.3049 0.3047 0.3044
3042.000000 0.3042 0.3040 0.3038 0.3036 0.3033
3047.000000 0.3031 0.3029 0.3027 0.3025 0.3023
3052.000000 0.3021 0.3019 0.3018 0.3016 0.3015
3057.000000 0.3014 0.3016 0.3019 0.3021 0.3007
3062.000000 0.3025 0.3034 0.3045 0.3056 0.3067
3067.000000 0.3081 0.3095 0.3113 0.3140 0.3167
3072.000000 0.3196 0.3225 0.3254 0.3283 0.3312
3077.000000 0.3342 0.3372 0.3403 0.3435 0.3475
3082.000000 0.3515 0.3621 0.3644 0.3651 0.3657
3087.000000 0.3664 0.3670 0.3681 0.3693 0.3713
3092.000000 0.3760 0.3788 0.3816 0.3838 0.3859
3097.000000 0.3880 0.3901 0.3915 0.3926 0.3938
3102.000000 0.3950 0.3962 0.3973 0.3985 0.3997
3107.000000 0.4007 0.4018 0.4028 0.4039 0.4049
3112.000000 0.4059 0.4070 0.4080 0.4091 0.4098
3117.000000 0.4105 0.4112 0.4119 0.4126 0.4133
3122.000000 0.4139 0.4146 0.4153 0.4157 0.4157
3127.000000 0.4157 0.4157 0.4157 0.4179 0.4202
3132.000000 0.4225 0.4247 0.4266 0.4274 0.4283
3137.000000 0.4291 0.4299 0.4307 0.4308 0.4309
3142.000000 0.4310 0.4311 0.4314 0.4319 0.4323
3147.000000 0.4328 0.4333 0.4337 0.4342 0.4344
3152.000000 0.4347 0.4389 0.4456 0.4505 0.4524
3157.000000 0.4551 0.4583 0.4615 0.4643 0.4659
3162.000000 0.4676 0.4692 0.4709 0.4723 0.4736
3167.000000 0.4748 0.4761 0.4773 0.4785 0.4798
3172.000000 0.4810 0.4823 0.4829 0.4834 0.4839
3177.000000 0.4844 0.4849 0.4854 0.4859 0.4864
3182.000000 0.4869 0.4874 0.4891 0.4910 0.4961
3187.000000 0.5031 0.5044 0.5056 0.5064 0.5067
3192.000000 0.5069 0.5084 0.5124 0.5170 0.5215
3197.000000 0.5258 0.5292 0.5325 0.5358 0.5382
3202.000000 0.5403 0.5404 0.5404 0.5404 0.5404
3207.000000 0.5395 0.5386 0.5376 0.5367 0.5359
3212.000000 0.5351 0.5363 0.5389 0.5548 0.5641
3217.000000 0.5656 0.5671 0.5681 0.5690 0.5699
3222.000000 0.5702 0.5704 0.5706 0.5711 0.5717
3227.000000 0.5721 0.5726 0.5745 0.5785 0.5805
3232.000000 0.5825 0.5840 0.5853 0.5866 0.5878
3237.000000 0.5890 0.5896 0.5902 0.5908 0.5914
3242.000000 0.5919 0.5925 0.5931 0.5937 0.5944
3247.000000 0.5951 0.5958 0.5964 0.5971 0.5978
3252.000000 0.5985 0.5991 0.5998 0.6005 0.6012
3257.000000 0.6018 0.6023 0.6028 0.6034 0.6038
3262.000000 0.6037 0.6037 0.6036 0.6036 0.6036
3267.000000 0.6035 0.6034 0.6033 0.6032 0.6031
3272.000000 0.6030 0.6031 0.6033 0.6036 0.6039
3277.000000 0.6041 0.6054 0.6067 0.6082 0.6102
3282.000000 0.6122 0.6142 0.6167 0.6193 0.6212
3287.000000 0.6225 0.6238 0.6252 0.6265 0.6277
3292.000000 0.6287 0.6297 0.6307 0.6315 0.6324
3297.000000 0.6333 0.6342 0.6351 0.6361 0.6371
3302.000000 0.6381 0.6390 0.6400 0.6409 0.6419
3307.000000 0.6429 0.6435 0.6440 0.6480 0.6444
3312.000000 0.6446 0.6448 0.6449 0.6449 0.6449
3317.000000 0.6448 0.6448 0.6448 0.6447 0.6446
3322.000000 0.6445 0.6444 0.6443 0.6442 0.6442
3327.000000 0.6441 0.6440 0.6439 0.6438 0.6436
3332.000000 0.6435 0.6433 0.6432 0.6430 0.6429
3337.000000 0.6427 0.6426 0.6426 0.6425 0.6425
3342.000000 0.6424 0.6424 0.6423 0.6423 0.6422
3347.000000 0.6422 0.6421 0.6422 0.6422 0.6423
3352.000000 0.6424 0.6424 0.6425 0.6425 0.6426
3357.000000 0.6426 0.6425 0.6423 0.6421 0.6414
3362.000000 0.6390 0.6362 0.6332 0.6314 0.6297
3367.000000 0.6281 0.6276 0.6271 0.6266 0.6262
3372.000000 0.6260 0.6258 0.6257 0.6256 0.6255
3377.000000 0.6253 0.6252 0.6251 0.6250 0.6249
3382.000000 0.6248 0.6248 0.6248 0.6248 0.6248
3387.000000 0.6248 0.6248 0.6248 0.6240 0.6248
3392.000000 0.6248 0.6248 0.6248 0.6248 0.6249
3397.000000 0.6252 0.6254 0.6257 0.6260 0.6262
3402.000000 0.6265 0.6268 0.6271 0.6273 0.6276
3407.000000 0.6279 0.6281 0.6284 0.6287 0.6290
3412.000000 0.6292 0.6295 0.6298 0.6300 0.6304
3417.000000 0.6308 0.6312 0.6316 0.6320 0.6323
3422.000000 0.6327 0.6331 0.6338 0.6345 0.6351
3427.000000 0.6358 0.6365 0.6371 0.6378 0.6384
3432.000000 0.6390 0.6396 0.6401 0.6407 0.6412
3437.000000 0.6412 0.6408 0.6404 0.6402 0.6399
3442.000000 0.6400 0.6411 0.6425 0.6439 0.6453
3447.000000 0.6470 0.6487 0.6509 0.6536 0.6557
3452.000000 0.6575 0.6594 0.6597 0.6600 0.6603
3457.000000 0.6605 0.6606 0.6607 0.6608 0.6609
3462.000000 0.6610 0.6615 0.6619 0.6623 0.6627
3467.000000 0.6631 0.6638 0.6645 0.6652 0.6659
3472.000000 0.6666 0.6675 0.6685 0.6694 0.6704
3477.000000 0.6716 0.6728 0.6739 0.6751 0.6763
3482.000000 0.6778 0.6793 0.6809 0.6831 0.6862
3487.000000 0.6893 0.6917 0.6934 0.6950 0.6971
3492.000000 0.6998 0.7032 0.7063 0.7095 0.7126
3497.000000 0.7156 0.7177 0.7198 0.7212 0.7222
3502.000000 0.7233 0.7243 0.7253 0.7261 0.7268
3507.000000 0.7276 0.7283 0.7290 0.7297 0.7305
3512.000000 0.7317 0.7329 0.7342 0.7354 0.7367
3517.000000 0.7381 0.7395 0.7409 0.7423 0.7425
3522.000000 0.7427 0.7429 0.7432 0.7436 0.7441
3527.000000 0.7446 0.7462 0.7477 0.7493 0.7509
3532.000000 0.7526 0.7543 0.7558 0.7566 0.7574
3537.000000 0.7574 0.7574 0.7575 0.7574 0.7573
3542.000000 0.7572 0.7571 0.7570 0.7569 0.7567
3547.000000 0.7566 0.7563 0.7558 0.7552 0.7547
3552.000000 0.7541 0.7536 0.7530 0.7525 0.7515
3557.000000 0.7506 0.7496 0.7487 0.7476 0.7465
3562.000000 0.7455 0.7447 0.7442 0.7525 0.7783
3567.000000 0.8038 0.8126 0.8177 0.8208 0.8239
3572.000000 0.8269 0.8292 0.8316 0.8340 0.8364
3577.000000 0.8387 0.8410 0.8432 0.8449 0.8465
3582.000000 0.8482 0.8498 0.8514 0.8527 0.8540
3587.000000 0.8553 0.8566 0.8580 0.8593 0.8606
3592.000000 0.8619 0.8632 0.8646 0.8659 0.8672
3597.000000 0.8685 0.8698 0.8711 0.8724 0.8737
3602.000000 0.8750 0.8763 0.8775 0.8785 0.8796
3607.000000 0.8807 0.8818 0.8829 0.8840 0.8851
3612.000000 0.8860 0.8864 0.8867 0.8871 0.8875
3617.000000 0.8878 0.8882 0.8886 0.8889 0.8889
3622.000000 0.8889 0.8889 0.8890 0.8890 0.8890
3627.000000 0.8890 0.8890 0.8890 0.8888 0.8886
3632.000000 0.8885 0.8883 0.8881 0.8879 0.8877
3637.000000 0.8876 0.8874 0.8873 0.8871 0.8870
3642.000000 0.8869 0.8867 0.8866 0.8865 0.8864
3647.000000 0.8862 0.8861 0.8860 0.8859 0.8858
3652.000000 0.8856 0.8854 0.8851 0.8848 0.8845
3657.000000 0.8843 0.8840 0.8837 0.8835 0.8832
3662.000000 0.8829 0.8826 0.8823 0.8820 0.8817
3667.000000 0.8815 0.8812 0.8809 0.8806 0.8803
3672.000000 0.8801 0.8800 0.8800 0.8800 0.8799
3677.000000 0.8799 0.8799 0.8801 0.8807 0.8821
3682.000000 0.8847 0.8874 0.8913 0.8951 0.8976
3687.000000 0.9000 0.9024 0.9044 0.9064 0.9085
3692.000000 0.9104 0.9123 0.9142 0.9156 0.9163
3697.000000 0.9170 0.9175 0.9176 0.9176 0.9176
3702.000000 0.9176 0.9176 0.9177 0.9177 0.9177
3707.000000 0.9177 0.9177 0.9178 0.9178 0.9192
3712.000000 0.9206 0.9217 0.9216 0.9215 0.9215
3717.000000 0.9215 0.9216 0.9216 0.9217 0.9218
3722.000000 0.9219 0.9219 0.9219 0.9220 0.9220
3727.000000 0.9220 0.9220 0.9220 0.9221 0.9221
3732.000000 0.9221 0.9225 0.9221 0.9222 0.9222
3737.000000 0.9222 0.9222 0.9222 0.9223 0.9223
3742.000000 0.9223 0.9223 0.9223 0.9224 0.9224
3747.000000 0.9224 0.9224 0.9225 0.9226 0.9227
3752.000000 0.9228 0.9229 0.9230 0.9231 0.9232
3757.000000 0.9233 0.9233 0.9234 0.9235 0.9236
3762.000000 0.9237 0.9238 0.9239 0.9240 0.9241
3767.000000 0.9242 0.9243 0.9243 0.9243 0.9244
3772.000000 0.9244 0.9245 0.9245 0.9245 0.9246
3777.000000 0.9246 0.9247 0.9247 0.9248 0.9248
3782.000000 0.9248 0.9249 0.9249 0.9249 0.9249
3787.000000 0.9249 0.9249 0.9248 0.9248 0.9248
3792.000000 0.9248 0.9248 0.9248 0.9248 0.9248
3797.000000 0.9248 0.9248 0.9247 0.9246 0.9245
3802.000000 0.9245 0.9244 0.9243 0.9242 0.9241
3807.000000 0.9241 0.9240 0.9239 0.9238 0.9238
3812.000000 0.9237 0.9236 0.9235 0.9234 0.9234
3817.000000 0.9233 0.9232 0.9231 0.9231 0.9230
3822.000000 0.9229 0.9227 0.9223 0.9219 0.9216
3827.000000 0.9212 0.9208 0.9204 0.9200 0.9196
3832.000000 0.9189 0.9182 0.9175 0.9168 0.9161
3837.000000 0.9154 0.9154 0.9154 0.9153 0.9153
3842.000000 0.9153 0.9153 0.9153 0.9153 0.9152
3847.000000 0.9152 0.9152 0.9152 0.9152 0.9152
3852.000000 0.9151 0.9151 0.9151 0.9151 0.9151
3857.000000 0.9152 0.9152 0.9153 0.9153 0.9154
3862.000000 0.9154 0.9155 0.9155 0.9156 0.9156
3867.000000 0.9157 0.9157 0.9157 0.9157 0.9157
3872.000000 0.9158 0.9158 0.9160 0.9164 0.9169
3877.000000 0.9173 0.9177 0.9182 0.9189 0.9198
3882.000000 0.9206 0.9215 0.9224 0.9230 0.9234
3887.000000 0.9238 0.9241 0.9238 0.9235 0.9232
3892.000000 0.9230 0.9224 0.9216 0.9211 0.9206
3897.000000 0.9201 0.9195 0.9190 0.9188
##END=
