##TITLE=BERYLLIUM OXALATE
##JCAMP-DX=4.24
##DATA TYPE=INFRARED SPECTRUM
##CLASS=COBLENTZ
##OWNER=COBLENTZ SOCIETY
Collection (C) 2018 copyright by the U.S. Secretary of Commerce
on behalf of the United States of America. All rights reserved.
##DATE=Not specified, most likely prior to 1970
##MOLFORM=Be C2 O4  * 3 H2 O
##SOURCE REFERENCE=COBLENTZ NO. 73
##$NIST ID=B6000073
##$NIST SOURCE=COBLENTZ
##$NIST IMAGE=cob73
##SPECTROMETER/DATA SYSTEM=Not specified, most likely a prism, grating, or hybrid spectrometer.
##STATE=SOLID (KBr DISC)
##SAMPLING PROCEDURE=TRANSMISSION
##RESOLUTION=4
##DATA PROCESSING=DIGITIZED BY NIST FROM HARD COPY
##XUNITS=MICROMETERS
##YUNITS=TRANSMITTANCE
##XFACTOR=1.000000
##YFACTOR=1
##DELTAX=000.007601
##FIRSTX=2.031
##LASTX=15.0072
##FIRSTY=0.806
##MAXX=15.0072
##MINX=2.031
##MAXY=0.82
##MINY=0.259
##NPOINTS=1708
##XYDATA=(X++(Y..Y))
2.031000 0.8060 0.8060 0.8060 0.8060 0.8060
2.069029 0.8060 0.8060 0.8040 0.8040 0.8040
2.107000 0.8030 0.8010 0.8010 0.8000 0.8000
2.145029 0.7980 0.7950 0.7940 0.7940 0.7920
2.183000 0.7910 0.7910 0.7900 0.7900 0.7870
2.221029 0.7850 0.7840 0.7820 0.7810 0.7790
2.259000 0.7780 0.7760 0.7750 0.7730 0.7720
2.297029 0.7700 0.7700 0.7690 0.7670 0.7670
2.335000 0.7670 0.7660 0.7660 0.7650 0.7620
2.373029 0.7600 0.7570 0.7540 0.7530 0.7480
2.411000 0.7470 0.7440 0.7430 0.7400 0.7380
2.449029 0.7340 0.7310 0.7280 0.7200 0.7180
2.487000 0.7150 0.7100 0.7060 0.7010 0.7000
2.525029 0.6980 0.6960 0.6930 0.6900 0.6850
2.563000 0.6840 0.6810 0.6760 0.6720 0.6690
2.601029 0.6620 0.6560 0.6470 0.6430 0.6350
2.639000 0.6270 0.6180 0.6150 0.6130 0.6090
2.677029 0.6020 0.5970 0.5910 0.5780 0.5620
2.715000 0.5470 0.5280 0.5060 0.4810 0.4580
2.753029 0.4330 0.4150 0.4020 0.3870 0.3710
2.791000 0.3560 0.3400 0.3280 0.3230 0.3150
2.829029 0.3020 0.2890 0.2790 0.2790 0.2760
2.867000 0.2710 0.2680 0.2670 0.2670 0.2650
2.905029 0.2640 0.2640 0.2620 0.2610 0.2610
2.943000 0.2590 0.2590 0.2590 0.2620 0.2650
2.981029 0.2700 0.2740 0.2830 0.2890 0.2990
3.019000 0.3030 0.3110 0.3180 0.3230 0.3280
3.057029 0.3370 0.3420 0.3460 0.3520 0.3560
3.095000 0.3620 0.3670 0.3710 0.3750 0.3800
3.133029 0.3840 0.3890 0.3920 0.3930 0.3990
3.171000 0.4050 0.4090 0.4150 0.4250 0.4280
3.209029 0.4330 0.4340 0.4370 0.4400 0.4410
3.247000 0.4460 0.4490 0.4530 0.4590 0.4640
3.285029 0.4690 0.4750 0.4800 0.4840 0.4880
3.323000 0.4990 0.5020 0.5090 0.5120 0.5160
3.361029 0.5210 0.5270 0.5300 0.5340 0.5380
3.399000 0.5430 0.5470 0.5530 0.5590 0.5680
3.437029 0.5740 0.5800 0.5870 0.5900 0.5960
3.476000 0.6070 0.6100 0.6160 0.6240 0.6270
3.514029 0.6350 0.6410 0.6460 0.6510 0.6540
3.552000 0.6600 0.6650 0.6690 0.6750 0.6810
3.590029 0.6870 0.6930 0.6980 0.7040 0.7090
3.628000 0.7130 0.7180 0.7230 0.7280 0.7320
3.666029 0.7380 0.7430 0.7450 0.7500 0.7570
3.704000 0.7600 0.7650 0.7660 0.7690 0.7720
3.742029 0.7750 0.7780 0.7790 0.7810 0.7840
3.780000 0.7850 0.7870 0.7880 0.7900 0.7900
3.818029 0.7910 0.7910 0.7920 0.7940 0.7940
3.856000 0.7940 0.7950 0.7970 0.7980 0.8010
3.894029 0.8030 0.8030 0.8040 0.8040 0.8060
3.932000 0.8060 0.8060 0.8070 0.8070 0.8090
3.970029 0.8100 0.8100 0.8130 0.8130 0.8140
4.008000 0.8140 0.8160 0.8160 0.8160 0.8170
4.046029 0.8170 0.8170 0.8170 0.8190 0.8190
4.084000 0.8190 0.8190 0.8190 0.8190 0.8190
4.122029 0.8200 0.8200 0.8190 0.8190 0.8190
4.160000 0.8190 0.8200 0.8200 0.8200 0.8190
4.198029 0.8190 0.8190 0.8190 0.8190 0.8190
4.236000 0.8190 0.8190 0.8190 0.8190 0.8190
4.274029 0.8170 0.8170 0.8170 0.8170 0.8170
4.312000 0.8170 0.8190 0.8190 0.8190 0.8190
4.350029 0.8190 0.8190 0.8190 0.8190 0.8190
4.388000 0.8190 0.8190 0.8190 0.8190 0.8190
4.426029 0.8190 0.8190 0.8190 0.8190 0.8190
4.464000 0.8190 0.8170 0.8170 0.8160 0.8160
4.502029 0.8160 0.8160 0.8140 0.8140 0.8140
4.540000 0.8130 0.8120 0.8120 0.8120 0.8100
4.578029 0.8100 0.8090 0.8070 0.8070 0.8060
4.616000 0.8060 0.8060 0.8040 0.8030 0.8030
4.654029 0.8030 0.8030 0.8010 0.8010 0.8010
4.692000 0.8000 0.8000 0.8000 0.7980 0.7980
4.730029 0.7980 0.7980 0.7970 0.7970 0.7950
4.768000 0.7950 0.7950 0.7920 0.7910 0.7880
4.806029 0.7870 0.7850 0.7840 0.7840 0.7840
4.844000 0.7820 0.7820 0.7820 0.7820 0.7810
4.882029 0.7810 0.7790 0.7780 0.7760 0.7760
4.920000 0.7760 0.7750 0.7730 0.7730 0.7720
4.958029 0.7700 0.7700 0.7690 0.7690 0.7690
4.996000 0.7690 0.7670 0.7670 0.7660 0.7660
5.034029 0.7650 0.7650 0.7630 0.7600 0.7590
5.072000 0.7570 0.7540 0.7540 0.7530 0.7510
5.110029 0.7500 0.7470 0.7430 0.7410 0.7410
5.148000 0.7410 0.7400 0.7370 0.7320 0.7280
5.186029 0.7260 0.7230 0.7230 0.7220 0.7220
5.224000 0.7180 0.7150 0.7120 0.7060 0.7010
5.262029 0.7000 0.6980 0.6970 0.6940 0.6900
5.300000 0.6870 0.6820 0.6790 0.6780 0.6760
5.338029 0.6750 0.6720 0.6650 0.6630 0.6570
5.376000 0.6540 0.6530 0.6510 0.6490 0.6470
5.414029 0.6440 0.6410 0.6400 0.6380 0.6370
5.452000 0.6340 0.6310 0.6280 0.6250 0.6220
5.490029 0.6160 0.6130 0.6090 0.6060 0.6020
5.528000 0.5990 0.5940 0.5910 0.5880 0.5820
5.566029 0.5800 0.5740 0.5630 0.5590 0.5530
5.604000 0.5410 0.5340 0.5270 0.5190 0.5120
5.642029 0.5030 0.4870 0.4720 0.4610 0.4470
5.680000 0.4360 0.4220 0.4080 0.4030 0.3990
5.718029 0.3810 0.3450 0.2980 0.2870 0.2740
5.756000 0.2670 0.2610 0.2610 0.2620 0.2640
5.794029 0.2640 0.2700 0.2680 0.2650 0.2620
5.832000 0.2610 0.2610 0.2610 0.2610 0.2640
5.870029 0.2730 0.2800 0.2960 0.3110 0.3200
5.908000 0.3250 0.3340 0.3420 0.3530 0.3610
5.946029 0.3640 0.3700 0.3710 0.3740 0.3800
5.984000 0.3870 0.3900 0.3970 0.4060 0.4110
6.022029 0.4140 0.4210 0.4270 0.4360 0.4390
6.060000 0.4490 0.4530 0.4550 0.4590 0.4660
6.098029 0.4750 0.4840 0.4900 0.4970 0.5030
6.136000 0.5130 0.5190 0.5310 0.5400 0.5500
6.174029 0.5590 0.5710 0.5780 0.5910 0.6060
6.212000 0.6100 0.6160 0.6240 0.6350 0.6410
6.250029 0.6490 0.6560 0.6650 0.6690 0.6750
6.288000 0.6810 0.6840 0.6870 0.6900 0.6960
6.326029 0.6980 0.7010 0.7040 0.7070 0.7120
6.364000 0.7130 0.7160 0.7180 0.7180 0.7190
6.402029 0.7190 0.7220 0.7250 0.7280 0.7290
6.440000 0.7310 0.7310 0.7310 0.7320 0.7320
6.478029 0.7320 0.7320 0.7320 0.7320 0.7320
6.516000 0.7320 0.7310 0.7310 0.7310 0.7310
6.554029 0.7310 0.7310 0.7310 0.7310 0.7260
6.592000 0.7220 0.7190 0.7160 0.7160 0.7150
6.630029 0.7120 0.7070 0.7030 0.6980 0.6960
6.668000 0.6930 0.6900 0.6790 0.6780 0.6760
6.706029 0.6740 0.6680 0.6630 0.6570 0.6540
6.744000 0.6510 0.6470 0.6440 0.6430 0.6410
6.782029 0.6370 0.6320 0.6250 0.6210 0.6160
6.820000 0.6120 0.6090 0.6070 0.6060 0.6000
6.858029 0.5970 0.5930 0.5850 0.5750 0.5660
6.896000 0.5560 0.5430 0.5240 0.5120 0.5050
6.934029 0.4960 0.4870 0.4830 0.4780 0.4740
6.972000 0.4680 0.4620 0.4580 0.4580 0.4560
7.010029 0.4560 0.4560 0.4560 0.4580 0.4590
7.048000 0.4720 0.4910 0.5020 0.5120 0.5270
7.086029 0.5350 0.5440 0.5530 0.5690 0.5840
7.124000 0.5970 0.6120 0.6180 0.6270 0.6320
7.162029 0.6380 0.6460 0.6530 0.6600 0.6600
7.200000 0.6620 0.6620 0.6630 0.6630 0.6620
7.238029 0.6600 0.6590 0.6570 0.6560 0.6530
7.276000 0.6470 0.6440 0.6380 0.6350 0.6290
7.314029 0.6270 0.6240 0.6220 0.6190 0.6150
7.352000 0.6120 0.6090 0.6060 0.6030 0.6020
7.390029 0.6000 0.5990 0.5990 0.5960 0.5940
7.428000 0.5930 0.5910 0.5880 0.5880 0.5870
7.466029 0.5850 0.5840 0.5800 0.5770 0.5740
7.504000 0.5650 0.5620 0.5580 0.5550 0.5500
7.542029 0.5440 0.5400 0.5340 0.5280 0.5250
7.580000 0.5210 0.5160 0.5110 0.5030 0.4930
7.618029 0.4830 0.4780 0.4660 0.4580 0.4470
7.656000 0.4330 0.4280 0.4240 0.4220 0.4190
7.694029 0.4170 0.4170 0.4170 0.4170 0.4150
7.732000 0.4150 0.4180 0.4210 0.4280 0.4330
7.770029 0.4410 0.4520 0.4620 0.4680 0.4780
7.808000 0.4840 0.4970 0.5090 0.5220 0.5330
7.846029 0.5370 0.5470 0.5500 0.5550 0.5600
7.884000 0.5650 0.5680 0.5710 0.5720 0.5720
7.922029 0.5740 0.5740 0.5740 0.5720 0.5690
7.960000 0.5630 0.5590 0.5530 0.5490 0.5440
7.998029 0.5400 0.5350 0.5330 0.5300 0.5220
8.036000 0.5180 0.5130 0.5090 0.5030 0.4970
8.074029 0.4960 0.4930 0.4880 0.4860 0.4800
8.112000 0.4770 0.4720 0.4660 0.4610 0.4580
8.150029 0.4550 0.4520 0.4470 0.4430 0.4410
8.188000 0.4400 0.4390 0.4370 0.4280 0.4250
8.226029 0.4250 0.4220 0.4180 0.4150 0.4110
8.264000 0.4090 0.4080 0.4050 0.4020 0.4000
8.302029 0.3990 0.3970 0.3960 0.3930 0.3890
8.340000 0.3860 0.3810 0.3770 0.3740 0.3720
8.378029 0.3720 0.3710 0.3700 0.3680 0.3650
8.416000 0.3640 0.3620 0.3590 0.3590 0.3580
8.454029 0.3560 0.3550 0.3520 0.3490 0.3490
8.492000 0.3480 0.3480 0.3450 0.3430 0.3420
8.530029 0.3390 0.3370 0.3360 0.3340 0.3330
8.568000 0.3310 0.3300 0.3280 0.3270 0.3270
8.606029 0.3250 0.3240 0.3240 0.3230 0.3210
8.644000 0.3200 0.3200 0.3180 0.3180 0.3170
8.682029 0.3150 0.3150 0.3150 0.3150 0.3140
8.720000 0.3140 0.3140 0.3140 0.3150 0.3150
8.758029 0.3150 0.3150 0.3150 0.3150 0.3150
8.796000 0.3150 0.3150 0.3150 0.3150 0.3150
8.834029 0.3150 0.3150 0.3150 0.3170 0.3170
8.872000 0.3170 0.3170 0.3170 0.3150 0.3150
8.910029 0.3170 0.3170 0.3170 0.3170 0.3180
8.948000 0.3180 0.3180 0.3200 0.3200 0.3210
8.986029 0.3230 0.3230 0.3230 0.3240 0.3240
9.024000 0.3240 0.3240 0.3240 0.3240 0.3250
9.062029 0.3270 0.3280 0.3280 0.3280 0.3300
9.101000 0.3310 0.3310 0.3330 0.3330 0.3330
9.139029 0.3330 0.3340 0.3340 0.3340 0.3340
9.177000 0.3340 0.3340 0.3340 0.3340 0.3340
9.215029 0.3340 0.3340 0.3340 0.3340 0.3340
9.253000 0.3340 0.3340 0.3360 0.3340 0.3340
9.291029 0.3340 0.3340 0.3340 0.3340 0.3330
9.329000 0.3330 0.3330 0.3330 0.3330 0.3310
9.367029 0.3310 0.3330 0.3330 0.3330 0.3330
9.405000 0.3340 0.3340 0.3340 0.3360 0.3370
9.443029 0.3390 0.3390 0.3400 0.3430 0.3450
9.481000 0.3480 0.3500 0.3520 0.3530 0.3560
9.519029 0.3580 0.3590 0.3640 0.3650 0.3670
9.557000 0.3680 0.3710 0.3720 0.3740 0.3800
9.595029 0.3830 0.3860 0.3890 0.3900 0.3930
9.633000 0.3960 0.4000 0.4060 0.4110 0.4120
9.671029 0.4150 0.4180 0.4210 0.4220 0.4240
9.709000 0.4250 0.4280 0.4280 0.4310 0.4310
9.747029 0.4330 0.4340 0.4340 0.4360 0.4360
9.785000 0.4360 0.4370 0.4390 0.4390 0.4400
9.823029 0.4410 0.4410 0.4410 0.4410 0.4410
9.861000 0.4430 0.4430 0.4430 0.4440 0.4440
9.899029 0.4430 0.4430 0.4430 0.4430 0.4430
9.937000 0.4410 0.4410 0.4410 0.4410 0.4410
9.975029 0.4410 0.4410 0.4400 0.4400 0.4400
10.013000 0.4400 0.4390 0.4390 0.4390 0.4390
10.051029 0.4390 0.4390 0.4390 0.4370 0.4370
10.089000 0.4360 0.4360 0.4360 0.4340 0.4340
10.127029 0.4340 0.4340 0.4340 0.4330 0.4330
10.165000 0.4330 0.4330 0.4330 0.4330 0.4330
10.203029 0.4310 0.4310 0.4300 0.4300 0.4300
10.241000 0.4300 0.4280 0.4280 0.4280 0.4280
10.279029 0.4280 0.4270 0.4250 0.4240 0.4240
10.317000 0.4220 0.4220 0.4210 0.4210 0.4190
10.355029 0.4180 0.4170 0.4150 0.4150 0.4140
10.393000 0.4120 0.4120 0.4110 0.4090 0.4080
10.431029 0.4060 0.4030 0.4020 0.4000 0.3990
10.469000 0.3970 0.3960 0.3950 0.3930 0.3920
10.507029 0.3900 0.3890 0.3870 0.3860 0.3840
10.545000 0.3830 0.3810 0.3800 0.3770 0.3740
10.583029 0.3740 0.3720 0.3720 0.3710 0.3700
10.621000 0.3680 0.3680 0.3670 0.3670 0.3650
10.659029 0.3610 0.3580 0.3580 0.3560 0.3560
10.697000 0.3560 0.3550 0.3550 0.3530 0.3520
10.735029 0.3500 0.3490 0.3480 0.3480 0.3460
10.773000 0.3460 0.3460 0.3430 0.3430 0.3420
10.811029 0.3400 0.3400 0.3400 0.3400 0.3390
10.849000 0.3370 0.3360 0.3360 0.3340 0.3340
10.887029 0.3340 0.3340 0.3340 0.3330 0.3330
10.925000 0.3310 0.3300 0.3300 0.3300 0.3280
10.963029 0.3280 0.3270 0.3270 0.3270 0.3270
11.001000 0.3270 0.3270 0.3250 0.3250 0.3250
11.039029 0.3250 0.3270 0.3270 0.3270 0.3270
11.077000 0.3270 0.3270 0.3250 0.3250 0.3270
11.115029 0.3270 0.3250 0.3250 0.3270 0.3270
11.153000 0.3270 0.3270 0.3270 0.3270 0.3270
11.191029 0.3270 0.3270 0.3270 0.3270 0.3270
11.229000 0.3280 0.3280 0.3280 0.3280 0.3280
11.267029 0.3270 0.3270 0.3270 0.3270 0.3270
11.305000 0.3270 0.3270 0.3270 0.3270 0.3270
11.343029 0.3270 0.3270 0.3270 0.3270 0.3270
11.381000 0.3270 0.3270 0.3270 0.3270 0.3270
11.419029 0.3270 0.3270 0.3270 0.3270 0.3270
11.457000 0.3270 0.3270 0.3270 0.3270 0.3250
11.495029 0.3250 0.3250 0.3250 0.3250 0.3250
11.533000 0.3240 0.3240 0.3230 0.3210 0.3210
11.571029 0.3200 0.3200 0.3180 0.3180 0.3180
11.609000 0.3170 0.3170 0.3170 0.3170 0.3150
11.647029 0.3150 0.3150 0.3150 0.3150 0.3150
11.685000 0.3150 0.3140 0.3140 0.3140 0.3140
11.723029 0.3140 0.3120 0.3120 0.3110 0.3110
11.761000 0.3110 0.3090 0.3090 0.3080 0.3060
11.799029 0.3060 0.3050 0.3030 0.3030 0.3020
11.837000 0.3010 0.2990 0.2980 0.2980 0.2980
11.875029 0.2980 0.2960 0.2960 0.2950 0.2930
11.913000 0.2920 0.2890 0.2870 0.2870 0.2870
11.951029 0.2870 0.2870 0.2860 0.2860 0.2840
11.989000 0.2840 0.2840 0.2840 0.2840 0.2840
12.027029 0.2840 0.2830 0.2830 0.2830 0.2830
12.065000 0.2840 0.2840 0.2840 0.2830 0.2830
12.103029 0.2830 0.2810 0.2810 0.2810 0.2810
12.141000 0.2810 0.2810 0.2810 0.2830 0.2810
12.179029 0.2830 0.2830 0.2830 0.2830 0.2830
12.217000 0.2830 0.2840 0.2840 0.2860 0.2860
12.255029 0.2870 0.2870 0.2900 0.2900 0.2920
12.293000 0.2920 0.2930 0.2930 0.2930 0.2930
12.331029 0.2950 0.2950 0.2950 0.2950 0.2960
12.369000 0.2960 0.2980 0.2980 0.2980 0.2990
12.407029 0.2990 0.2990 0.3010 0.3010 0.3010
12.445000 0.3020 0.3020 0.3020 0.3030 0.3030
12.483029 0.3030 0.3050 0.3050 0.3050 0.3050
12.521000 0.3050 0.3050 0.3050 0.3050 0.3060
12.559029 0.3060 0.3060 0.3060 0.3060 0.3080
12.597000 0.3080 0.3080 0.3080 0.3080 0.3080
12.635029 0.3080 0.3080 0.3080 0.3090 0.3090
12.673000 0.3080 0.3080 0.3080 0.3090 0.3080
12.711029 0.3080 0.3090 0.3090 0.3090 0.3080
12.749000 0.3080 0.3080 0.3090 0.3090 0.3090
12.787029 0.3090 0.3110 0.3110 0.3110 0.3120
12.825000 0.3140 0.3140 0.3140 0.3140 0.3140
12.863029 0.3140 0.3140 0.3140 0.3150 0.3150
12.901000 0.3150 0.3170 0.3170 0.3170 0.3170
12.939029 0.3180 0.3180 0.3180 0.3180 0.3200
12.977000 0.3200 0.3210 0.3230 0.3230 0.3230
13.015029 0.3240 0.3240 0.3240 0.3240 0.3240
13.053000 0.3250 0.3250 0.3250 0.3250 0.3270
13.091029 0.3280 0.3280 0.3280 0.3300 0.3310
13.129000 0.3310 0.3330 0.3340 0.3360 0.3360
13.167029 0.3370 0.3370 0.3370 0.3370 0.3370
13.205000 0.3370 0.3370 0.3370 0.3390 0.3400
13.243029 0.3400 0.3420 0.3420 0.3430 0.3430
13.281000 0.3450 0.3460 0.3460 0.3480 0.3480
13.319029 0.3490 0.3490 0.3490 0.3490 0.3490
13.357000 0.3490 0.3490 0.3500 0.3530 0.3530
13.395029 0.3550 0.3560 0.3560 0.3580 0.3590
13.433000 0.3590 0.3590 0.3590 0.3610 0.3610
13.471029 0.3610 0.3620 0.3620 0.3620 0.3640
13.509000 0.3640 0.3640 0.3640 0.3650 0.3650
13.547029 0.3650 0.3670 0.3670 0.3670 0.3680
13.585000 0.3680 0.3700 0.3710 0.3720 0.3720
13.623029 0.3740 0.3740 0.3740 0.3740 0.3750
13.661000 0.3750 0.3750 0.3770 0.3770 0.3770
13.699029 0.3780 0.3780 0.3780 0.3780 0.3780
13.737000 0.3780 0.3780 0.3800 0.3800 0.3800
13.775029 0.3800 0.3810 0.3810 0.3810 0.3810
13.813000 0.3810 0.3810 0.3830 0.3830 0.3830
13.851029 0.3840 0.3860 0.3860 0.3870 0.3890
13.889000 0.3890 0.3890 0.3890 0.3900 0.3900
13.927029 0.3920 0.3920 0.3920 0.3920 0.3930
13.965000 0.3930 0.3930 0.3930 0.3950 0.3950
14.003029 0.3950 0.3950 0.3950 0.3950 0.3960
14.041000 0.3950 0.3950 0.3950 0.3960 0.3960
14.079029 0.3960 0.3960 0.3970 0.3970 0.3990
14.117000 0.3990 0.3990 0.4000 0.4020 0.4020
14.155029 0.4030 0.4030 0.4030 0.4030 0.4030
14.193000 0.4050 0.4060 0.4060 0.4060 0.4060
14.231029 0.4060 0.4080 0.4080 0.4080 0.4080
14.269000 0.4080 0.4080 0.4080 0.4080 0.4090
14.307029 0.4090 0.4090 0.4120 0.4150 0.4170
14.345000 0.4170 0.4170 0.4170 0.4170 0.4180
14.383029 0.4180 0.4180 0.4180 0.4180 0.4190
14.421000 0.4190 0.4210 0.4210 0.4220 0.4220
14.459029 0.4220 0.4220 0.4240 0.4240 0.4240
14.497000 0.4240 0.4240 0.4240 0.4250 0.4250
14.535029 0.4270 0.4280 0.4300 0.4310 0.4310
14.573000 0.4310 0.4330 0.4330 0.4330 0.4330
14.611029 0.4330 0.4330 0.4340 0.4340 0.4340
14.649000 0.4360 0.4360 0.4370 0.4370 0.4370
14.687029 0.4370 0.4370 0.4400 0.4400 0.4410
14.726000 0.4430 0.4430 0.4440 0.4440 0.4460
14.764029 0.4460 0.4460 0.4470 0.4470 0.4470
14.802000 0.4490 0.4490 0.4490 0.4470 0.4470
14.840029 0.4490 0.4490 0.4490 0.4500 0.4500
14.878000 0.4520 0.4530 0.4550 0.4550 0.4560
14.916029 0.4560 0.4590 0.4610 0.4620 0.4640
14.954000 0.4650 0.4710 0.4740 0.4740 0.4770
14.992029 0.4800 0.4740 0.4770
##END=
