##TITLE=SODIUM PERMANGANATE
$$ C.P.
##JCAMP-DX=4.24
##DATA TYPE=INFRARED SPECTRUM
##CLASS=COBLENTZ
##ORIGIN=MELLON INSTITUTE
##OWNER=COBLENTZ SOCIETY
Collection (C) 2018 copyright by the U.S. Secretary of Commerce
on behalf of the United States of America. All rights reserved.
##DATE=Not specified, most likely prior to 1970
##MOLFORM=Na Mn O4  * 3 H2 O
##SOURCE REFERENCE=COBLENTZ NO. 494
##$NIST ID=B6000494
##$NIST SOURCE=COBLENTZ
##$NIST IMAGE=cob494
##SPECTROMETER/DATA SYSTEM=Not specified, most likely a prism, grating, or hybrid spectrometer.
##STATE=SOLID (NUJOL MULL)
##PATH LENGTH=
$$SPECTRAL CONTAMINATION DUE TO OIL AROUND 2900, 1450, 1380 CM^-^1
##SAMPLING PROCEDURE=TRANSMISSION
##RESOLUTION=4
##DATA PROCESSING=DIGITIZED BY NIST FROM HARD COPY
##XUNITS=MICROMETERS
##YUNITS=TRANSMITTANCE
##XFACTOR=1.000000
##YFACTOR=1
##DELTAX=000.006811
##FIRSTX=1.999
##LASTX=15.9543
##FIRSTY=0.85
##MAXX=15.9543
##MINX=1.999
##MAXY=0.953
##MINY=0.158
##NPOINTS=2050
##XYDATA=(X++(Y..Y))
1.999000 0.8500 0.8570 0.8670 0.8500 0.8570
2.033072 0.8670 0.8690 0.8720 0.8780 0.8790
2.067000 0.8830 0.8830 0.8830 0.8840 0.8840
2.101072 0.8840 0.8860 0.8860 0.8860 0.8880
2.135000 0.8880 0.8880 0.8880 0.8880 0.8880
2.169072 0.8860 0.8860 0.8860 0.8860 0.8860
2.203000 0.8860 0.8860 0.8860 0.8840 0.8830
2.237072 0.8840 0.8840 0.8840 0.8840 0.8810
2.271000 0.8780 0.8760 0.8720 0.8690 0.8670
2.305072 0.8670 0.8670 0.8710 0.8720 0.8740
2.339000 0.8720 0.8740 0.8760 0.8760 0.8780
2.373072 0.8790 0.8830 0.8840 0.8840 0.8860
2.407000 0.8860 0.8830 0.8810 0.8790 0.8740
2.441072 0.8710 0.8690 0.8670 0.8620 0.8600
2.476000 0.8570 0.8530 0.8520 0.8500 0.8500
2.510072 0.8480 0.8500 0.8520 0.8530 0.8530
2.544000 0.8550 0.8570 0.8600 0.8650 0.8720
2.578072 0.8810 0.8840 0.8860 0.8900 0.8960
2.612000 0.9000 0.9030 0.9080 0.9100 0.9100
2.646072 0.9100 0.9070 0.9020 0.8930 0.8880
2.680000 0.8880 0.8900 0.8960 0.8950 0.8860
2.714072 0.8780 0.8640 0.8520 0.8380 0.8160
2.748000 0.7930 0.7660 0.6900 0.6490 0.6090
2.782072 0.5720 0.5420 0.5220 0.5120 0.4500
2.816000 0.4290 0.4020 0.3860 0.3740 0.3670
2.850072 0.3600 0.3590 0.3600 0.3650 0.3740
2.884000 0.3830 0.3980 0.4100 0.4340 0.4450
2.918072 0.4600 0.4770 0.4930 0.5000 0.5060
2.952000 0.5220 0.5360 0.5460 0.5560 0.5650
2.986072 0.5680 0.5730 0.5750 0.5790 0.5890
3.020000 0.5960 0.6010 0.6090 0.6180 0.6320
3.054072 0.6390 0.6470 0.6560 0.6710 0.6780
3.089000 0.6850 0.6940 0.6990 0.7090 0.7190
3.123072 0.7230 0.7300 0.7350 0.7420 0.7490
3.157000 0.7500 0.7520 0.7540 0.7560 0.7570
3.191072 0.7610 0.7620 0.7640 0.7660 0.7660
3.225000 0.7680 0.7680 0.7690 0.7690 0.7710
3.259072 0.7760 0.7760 0.7740 0.7710 0.7660
3.293000 0.7610 0.7540 0.7210 0.6940 0.6560
3.327072 0.6040 0.5250 0.3840 0.3240 0.2800
3.361000 0.2520 0.2090 0.1610 0.1580 0.1590
3.395072 0.2060 0.2470 0.2640 0.2810 0.3290
3.429000 0.3760 0.3810 0.3790 0.3720 0.3500
3.463072 0.3310 0.3280 0.3310 0.4340 0.4720
3.497000 0.5100 0.5870 0.6630 0.7330 0.7660
3.531072 0.7970 0.8120 0.8280 0.8380 0.8480
3.565000 0.8590 0.8620 0.8690 0.8760 0.8790
3.599072 0.8830 0.8860 0.8860 0.8860 0.8880
3.633000 0.8880 0.8880 0.8880 0.8880 0.8880
3.667072 0.8880 0.8900 0.8900 0.8900 0.8900
3.702000 0.8900 0.8900 0.8900 0.8900 0.8900
3.736072 0.8900 0.8900 0.8900 0.8910 0.8910
3.770000 0.8930 0.8930 0.8930 0.8930 0.8930
3.804072 0.8930 0.8930 0.8930 0.8930 0.8950
3.838000 0.8960 0.8980 0.9000 0.9000 0.9000
3.872072 0.9000 0.9020 0.9020 0.9050 0.9050
3.906000 0.9050 0.9050 0.9070 0.9070 0.9070
3.940072 0.9070 0.9080 0.9080 0.9080 0.9100
3.974000 0.9100 0.9100 0.9120 0.9120 0.9120
4.008072 0.9120 0.9140 0.9140 0.9140 0.9140
4.042000 0.9120 0.9120 0.9120 0.9120 0.9120
4.076072 0.9120 0.9140 0.9140 0.9140 0.9140
4.110000 0.9150 0.9150 0.9140 0.9140 0.9140
4.144072 0.9140 0.9140 0.9150 0.9150 0.9150
4.178000 0.9170 0.9170 0.9150 0.9120 0.9020
4.212072 0.8980 0.8960 0.8930 0.8880 0.8830
4.246000 0.8830 0.8830 0.8840 0.8840 0.8860
4.280072 0.8880 0.8860 0.8840 0.8840 0.8840
4.315000 0.8840 0.8840 0.8840 0.8840 0.8880
4.349072 0.8900 0.8930 0.8960 0.8980 0.9020
4.383000 0.9030 0.9070 0.9050 0.9050 0.9030
4.417072 0.9020 0.9020 0.9020 0.9020 0.9000
4.451000 0.9000 0.9000 0.9000 0.8980 0.8960
4.485072 0.8950 0.8950 0.8930 0.8950 0.8950
4.519000 0.8950 0.8950 0.8950 0.8950 0.8930
4.553072 0.8880 0.8860 0.8860 0.8860 0.8860
4.587000 0.8840 0.8840 0.8840 0.8830 0.8830
4.621072 0.8810 0.8810 0.8810 0.8780 0.8760
4.655000 0.8740 0.8720 0.8720 0.8710 0.8690
4.689072 0.8650 0.8640 0.8640 0.8620 0.8620
4.723000 0.8600 0.8590 0.8570 0.8550 0.8520
4.757072 0.8500 0.8500 0.8470 0.8450 0.8450
4.791000 0.8430 0.8400 0.8360 0.8350 0.8350
4.825072 0.8330 0.8310 0.8310 0.8290 0.8290
4.859000 0.8280 0.8280 0.8280 0.8290 0.8310
4.893072 0.8310 0.8310 0.8330 0.8350 0.8360
4.928000 0.8360 0.8380 0.8380 0.8400 0.8410
4.962072 0.8410 0.8430 0.8430 0.8430 0.8430
4.996000 0.8430 0.8410 0.8360 0.8360 0.8380
5.030072 0.8380 0.8400 0.8400 0.8400 0.8430
5.064000 0.8450 0.8480 0.8520 0.8550 0.8590
5.098072 0.8600 0.8650 0.8710 0.8780 0.8810
5.132000 0.8840 0.8880 0.8930 0.8980 0.9000
5.166072 0.9020 0.9020 0.9030 0.9050 0.9070
5.200000 0.9100 0.9140 0.9150 0.9140 0.9170
5.234072 0.9170 0.9190 0.9190 0.9200 0.9200
5.268000 0.9200 0.9200 0.9200 0.9200 0.9200
5.302072 0.9200 0.9200 0.9200 0.9200 0.9200
5.336000 0.9200 0.9200 0.9200 0.9200 0.9200
5.370072 0.9200 0.9220 0.9220 0.9220 0.9220
5.404000 0.9220 0.9200 0.9200 0.9200 0.9220
5.438072 0.9220 0.9220 0.9220 0.9200 0.9220
5.472000 0.9220 0.9220 0.9220 0.9220 0.9220
5.506072 0.9200 0.9200 0.9170 0.9150 0.9080
5.541000 0.9020 0.8960 0.8950 0.8980 0.9030
5.575072 0.9100 0.9190 0.9260 0.9290 0.9290
5.609000 0.9290 0.9290 0.9310 0.9320 0.9380
5.643072 0.9430 0.9450 0.9460 0.9480 0.9500
5.677000 0.9510 0.9530 0.9530 0.9500 0.9480
5.711072 0.9480 0.9460 0.9410 0.9380 0.9360
5.745000 0.9340 0.9310 0.9290 0.9270 0.9240
5.779072 0.9140 0.9100 0.9120 0.9140 0.9150
5.813000 0.9170 0.9200 0.9220 0.9240 0.9260
5.847072 0.9260 0.9270 0.9270 0.9270 0.9270
5.881000 0.9260 0.9260 0.9240 0.9220 0.9220
5.915072 0.9220 0.9200 0.9190 0.9170 0.9140
5.949000 0.9080 0.9080 0.9100 0.9120 0.9140
5.983072 0.9150 0.9140 0.9120 0.9080 0.9080
6.017000 0.9050 0.9030 0.8980 0.8930 0.8860
6.051072 0.8720 0.8600 0.8430 0.8090 0.7780
6.085000 0.6970 0.6540 0.6080 0.5340 0.4380
6.119072 0.4080 0.3960 0.3860 0.3720 0.3690
6.154000 0.3670 0.3710 0.3950 0.4140 0.4480
6.188072 0.4750 0.5130 0.5510 0.6110 0.6580
6.222000 0.6940 0.7210 0.7420 0.7500 0.7590
6.256072 0.7740 0.7900 0.7980 0.8000 0.8000
6.290000 0.8040 0.8140 0.8240 0.8280 0.8400
6.324072 0.8410 0.8410 0.8410 0.8410 0.8400
6.358000 0.8410 0.8550 0.8640 0.8690 0.8690
6.392072 0.8670 0.8670 0.8690 0.8670 0.8670
6.426000 0.8690 0.8740 0.8830 0.8910 0.8950
6.460072 0.8980 0.9020 0.9030 0.9030 0.9030
6.494000 0.9030 0.9030 0.9020 0.8980 0.8980
6.528072 0.8950 0.8950 0.8980 0.8980 0.9000
6.562000 0.9030 0.9050 0.9080 0.9120 0.9140
6.596072 0.9140 0.9150 0.9120 0.9080 0.9080
6.630000 0.9120 0.9150 0.9190 0.9240 0.9260
6.664072 0.9260 0.9260 0.9240 0.9240 0.9220
6.698000 0.9200 0.9150 0.9140 0.9100 0.9080
6.732072 0.9050 0.9030 0.8960 0.8840 0.8690
6.767000 0.8530 0.8400 0.8240 0.7930 0.7590
6.801072 0.6970 0.6750 0.6640 0.6560 0.6540
6.835000 0.6510 0.6490 0.6470 0.6510 0.6590
6.869072 0.6730 0.6830 0.6950 0.7140 0.7300
6.903000 0.7470 0.7540 0.7610 0.7740 0.7860
6.937072 0.7970 0.8050 0.8120 0.8290 0.8450
6.971000 0.8570 0.8690 0.8810 0.8930 0.9050
7.005072 0.9100 0.9120 0.9120 0.9120 0.9140
7.039000 0.9150 0.9200 0.9240 0.9260 0.9270
7.073072 0.9260 0.9270 0.9270 0.9290 0.9290
7.107000 0.9310 0.9320 0.9320 0.9360 0.9380
7.141072 0.9360 0.9320 0.9320 0.9290 0.9190
7.175000 0.9120 0.9020 0.8910 0.8710 0.8550
7.209072 0.8470 0.8330 0.8120 0.7980 0.7850
7.243000 0.7800 0.7800 0.7830 0.8000 0.8120
7.277072 0.8290 0.8400 0.8480 0.8500 0.8520
7.311000 0.8550 0.8650 0.8860 0.8950 0.9000
7.345072 0.9030 0.9050 0.9080 0.9100 0.9120
7.380000 0.9120 0.9120 0.9120 0.9120 0.9140
7.414072 0.9120 0.9120 0.9120 0.9140 0.9150
7.448000 0.9170 0.9220 0.9240 0.9260 0.9260
7.482072 0.9270 0.9290 0.9320 0.9340 0.9360
7.516000 0.9380 0.9380 0.9390 0.9380 0.9360
7.550072 0.9340 0.9320 0.9320 0.9320 0.9340
7.584000 0.9340 0.9380 0.9390 0.9390 0.9380
7.618072 0.9380 0.9380 0.9360 0.9340 0.9340
7.652000 0.9340 0.9340 0.9340 0.9320 0.9320
7.686072 0.9310 0.9320 0.9320 0.9360 0.9360
7.720000 0.9390 0.9390 0.9360 0.9360 0.9340
7.754072 0.9340 0.9310 0.9290 0.9290 0.9320
7.788000 0.9340 0.9340 0.9360 0.9360 0.9340
7.822072 0.9340 0.9360 0.9380 0.9380 0.9360
7.856000 0.9340 0.9320 0.9320 0.9310 0.9270
7.890072 0.9260 0.9260 0.9260 0.9260 0.9260
7.924000 0.9260 0.9270 0.9290 0.9270 0.9290
7.958072 0.9290 0.9290 0.9310 0.9290 0.9290
7.993000 0.9270 0.9270 0.9260 0.9260 0.9260
8.027072 0.9260 0.9270 0.9270 0.9260 0.9240
8.061000 0.9220 0.9220 0.9220 0.9260 0.9260
8.095072 0.9260 0.9260 0.9260 0.9260 0.9260
8.129000 0.9260 0.9260 0.9240 0.9240 0.9240
8.163072 0.9220 0.9200 0.9190 0.9190 0.9170
8.197000 0.9190 0.9190 0.9170 0.9170 0.9150
8.231072 0.9150 0.9150 0.9140 0.9140 0.9120
8.265000 0.9140 0.9100 0.9140 0.9120 0.9120
8.299072 0.9120 0.9120 0.9120 0.9120 0.9120
8.333000 0.9120 0.9120 0.9120 0.9120 0.9120
8.367072 0.9120 0.9120 0.9150 0.9150 0.9140
8.401000 0.9140 0.9120 0.9120 0.9100 0.9100
8.435072 0.9080 0.9080 0.9080 0.9080 0.9080
8.469000 0.9080 0.9080 0.9070 0.9080 0.9070
8.503072 0.9070 0.9050 0.9030 0.9020 0.9020
8.537000 0.9020 0.9000 0.9030 0.9030 0.9020
8.571072 0.9020 0.9020 0.9000 0.8980 0.8960
8.606000 0.8960 0.8960 0.8950 0.8950 0.8930
8.640072 0.8910 0.8910 0.8930 0.8930 0.8930
8.674000 0.8900 0.8900 0.8900 0.8900 0.8880
8.708072 0.8880 0.8880 0.8880 0.8880 0.8900
8.742000 0.8880 0.8860 0.8860 0.8860 0.8860
8.776072 0.8860 0.8880 0.8880 0.8880 0.8880
8.810000 0.8860 0.8860 0.8840 0.8830 0.8830
8.844072 0.8860 0.8860 0.8860 0.8880 0.8880
8.878000 0.8880 0.8880 0.8880 0.8880 0.8900
8.912072 0.8860 0.8860 0.8840 0.8840 0.8830
8.946000 0.8810 0.8830 0.8840 0.8840 0.8840
8.980072 0.8830 0.8830 0.8830 0.8810 0.8830
9.014000 0.8840 0.8830 0.8840 0.8840 0.8860
9.048072 0.8860 0.8860 0.8880 0.8880 0.8860
9.082000 0.8860 0.8860 0.8860 0.8840 0.8840
9.116072 0.8840 0.8880 0.8880 0.8880 0.8880
9.150000 0.8860 0.8860 0.8860 0.8860 0.8840
9.184072 0.8840 0.8830 0.8840 0.8840 0.8830
9.219000 0.8830 0.8830 0.8830 0.8840 0.8840
9.253072 0.8840 0.8840 0.8840 0.8840 0.8840
9.287000 0.8840 0.8840 0.8840 0.8830 0.8840
9.321072 0.8860 0.8860 0.8830 0.8810 0.8830
9.355000 0.8830 0.8840 0.8840 0.8840 0.8840
9.389072 0.8860 0.8860 0.8860 0.8860 0.8880
9.423000 0.8880 0.8900 0.8880 0.8860 0.8840
9.457072 0.8860 0.8860 0.8860 0.8880 0.8880
9.491000 0.8900 0.8910 0.8910 0.8910 0.8880
9.525072 0.8860 0.8860 0.8840 0.8840 0.8840
9.559000 0.8860 0.8900 0.8930 0.8910 0.8840
9.593072 0.8840 0.8840 0.8840 0.8840 0.8840
9.627000 0.8840 0.8840 0.8840 0.8840 0.8840
9.661072 0.8840 0.8840 0.8840 0.8840 0.8900
9.695000 0.8900 0.8900 0.8900 0.8880 0.8840
9.729072 0.8840 0.8830 0.8880 0.8880 0.8840
9.763000 0.8830 0.8810 0.8810 0.8810 0.8790
9.797072 0.8790 0.8810 0.8810 0.8810 0.8830
9.832000 0.8860 0.8880 0.8880 0.8860 0.8880
9.866072 0.8880 0.8880 0.8900 0.8900 0.8900
9.900000 0.8860 0.8840 0.8840 0.8840 0.8880
9.934072 0.8880 0.8880 0.8860 0.8840 0.8830
9.968000 0.8830 0.8840 0.8860 0.8900 0.8910
10.002072 0.8910 0.8860 0.8840 0.8840 0.8860
10.036000 0.8860 0.8860 0.8860 0.8860 0.8840
10.070072 0.8860 0.8860 0.8880 0.8880 0.8860
10.104000 0.8840 0.8840 0.8830 0.8780 0.8760
10.138072 0.8760 0.8740 0.8720 0.8740 0.8710
10.172000 0.8720 0.8740 0.8720 0.8710 0.8690
10.206072 0.8670 0.8640 0.8600 0.8590 0.8590
10.240000 0.8590 0.8590 0.8620 0.8620 0.8600
10.274072 0.8590 0.8590 0.8550 0.8530 0.8550
10.308000 0.8530 0.8530 0.8520 0.8500 0.8480
10.342072 0.8470 0.8470 0.8430 0.8410 0.8410
10.376000 0.8400 0.8400 0.8400 0.8380 0.8360
10.410072 0.8360 0.8350 0.8330 0.8330 0.8310
10.445000 0.8280 0.8280 0.8240 0.8240 0.8230
10.479072 0.8240 0.8230 0.8230 0.8190 0.8170
10.513000 0.8140 0.8140 0.8120 0.8120 0.8090
10.547072 0.8070 0.8050 0.8040 0.8020 0.7980
10.581000 0.7930 0.7860 0.7800 0.7680 0.7610
10.615072 0.7610 0.7520 0.7350 0.7260 0.7190
10.649000 0.7130 0.7010 0.6940 0.6800 0.6750
10.683072 0.6640 0.6540 0.6440 0.6340 0.6130
10.717000 0.6040 0.6010 0.5970 0.5840 0.5750
10.751072 0.5580 0.5480 0.5370 0.5270 0.5130
10.785000 0.5000 0.4740 0.4580 0.4500 0.4480
10.819072 0.4360 0.4260 0.4150 0.4050 0.4020
10.853000 0.3960 0.3860 0.3690 0.3570 0.3530
10.887072 0.3410 0.3350 0.3290 0.3190 0.3100
10.921000 0.3040 0.3000 0.2970 0.2930 0.2880
10.955072 0.2830 0.2740 0.2680 0.2620 0.2420
10.989000 0.2380 0.2350 0.2310 0.2230 0.2160
11.023072 0.2110 0.2070 0.2040 0.2040 0.2020
11.058000 0.2010 0.2010 0.1940 0.1920 0.1920
11.092072 0.1900 0.1890 0.1890 0.1890 0.1890
11.126000 0.1870 0.1870 0.1870 0.1870 0.1870
11.160072 0.1890 0.1890 0.1890 0.1900 0.1920
11.194000 0.1940 0.1970 0.2020 0.2040 0.2060
11.228072 0.2110 0.2160 0.2210 0.2250 0.2300
11.262000 0.2350 0.2380 0.2450 0.2490 0.2500
11.296072 0.2570 0.2660 0.2760 0.2880 0.3040
11.330000 0.3100 0.3140 0.3210 0.3260 0.3360
11.364072 0.3470 0.3520 0.3570 0.3620 0.3690
11.398000 0.3780 0.3840 0.3930 0.4020 0.4080
11.432072 0.4150 0.4220 0.4290 0.4380 0.4480
11.466000 0.4530 0.4600 0.4720 0.4810 0.4930
11.500072 0.4980 0.5010 0.5030 0.5130 0.5180
11.534000 0.5240 0.5250 0.5300 0.5370 0.5440
11.568072 0.5510 0.5560 0.5610 0.5700 0.5750
11.602000 0.5790 0.5820 0.5890 0.5960 0.6030
11.636072 0.6060 0.6060 0.6150 0.6180 0.6210
11.671000 0.6250 0.6320 0.6350 0.6390 0.6400
11.705072 0.6420 0.6440 0.6470 0.6490 0.6510
11.739000 0.6540 0.6580 0.6610 0.6640 0.6680
11.773072 0.6710 0.6750 0.6800 0.6830 0.6870
11.807000 0.6900 0.6940 0.6950 0.6990 0.7020
11.841072 0.7040 0.7040 0.7090 0.7110 0.7110
11.875000 0.7110 0.7110 0.7110 0.7110 0.7090
11.909072 0.7090 0.7110 0.7140 0.7190 0.7250
11.943000 0.7280 0.7310 0.7350 0.7420 0.7430
11.977072 0.7470 0.7500 0.7560 0.7590 0.7640
12.011000 0.7680 0.7690 0.7730 0.7740 0.7760
12.045072 0.7800 0.7830 0.7850 0.7860 0.7900
12.079000 0.7930 0.7950 0.7970 0.7970 0.7980
12.113072 0.7980 0.8020 0.8020 0.8020 0.8050
12.147000 0.8050 0.8070 0.8100 0.8120 0.8140
12.181072 0.8140 0.8160 0.8170 0.8190 0.8210
12.215000 0.8210 0.8230 0.8230 0.8230 0.8240
12.249072 0.8240 0.8260 0.8280 0.8280 0.8310
12.284000 0.8350 0.8350 0.8350 0.8350 0.8360
12.318072 0.8380 0.8400 0.8400 0.8400 0.8400
12.352000 0.8400 0.8400 0.8400 0.8410 0.8430
12.386072 0.8430 0.8450 0.8470 0.8470 0.8480
12.420000 0.8480 0.8500 0.8520 0.8530 0.8530
12.454072 0.8530 0.8530 0.8550 0.8550 0.8570
12.488000 0.8570 0.8590 0.8600 0.8640 0.8650
12.522072 0.8650 0.8670 0.8670 0.8670 0.8650
12.556000 0.8650 0.8650 0.8650 0.8650 0.8670
12.590072 0.8710 0.8720 0.8720 0.8740 0.8740
12.624000 0.8760 0.8780 0.8780 0.8780 0.8760
12.658072 0.8760 0.8760 0.8760 0.8760 0.8760
12.692000 0.8760 0.8760 0.8760 0.8760 0.8760
12.726072 0.8760 0.8740 0.8740 0.8740 0.8740
12.760000 0.8740 0.8740 0.8740 0.8740 0.8740
12.794072 0.8740 0.8720 0.8740 0.8740 0.8740
12.828000 0.8740 0.8740 0.8760 0.8760 0.8760
12.862072 0.8760 0.8760 0.8760 0.8760 0.8740
12.897000 0.8740 0.8740 0.8740 0.8740 0.8740
12.931072 0.8740 0.8740 0.8740 0.8740 0.8760
12.965000 0.8760 0.8780 0.8760 0.8760 0.8780
12.999072 0.8780 0.8780 0.8790 0.8790 0.8790
13.033000 0.8790 0.8780 0.8780 0.8780 0.8780
13.067072 0.8780 0.8780 0.8780 0.8780 0.8780
13.101000 0.8780 0.8780 0.8780 0.8780 0.8780
13.135072 0.8780 0.8780 0.8780 0.8780 0.8780
13.169000 0.8760 0.8760 0.8760 0.8740 0.8740
13.203072 0.8740 0.8740 0.8740 0.8740 0.8740
13.237000 0.8740 0.8740 0.8740 0.8740 0.8740
13.271072 0.8740 0.8740 0.8740 0.8740 0.8740
13.305000 0.8740 0.8740 0.8740 0.8740 0.8740
13.339072 0.8720 0.8720 0.8720 0.8720 0.8710
13.373000 0.8710 0.8710 0.8710 0.8690 0.8690
13.407072 0.8690 0.8670 0.8650 0.8640 0.8620
13.441000 0.8600 0.8600 0.8590 0.8570 0.8550
13.475072 0.8550 0.8550 0.8530 0.8530 0.8530
13.510000 0.8520 0.8520 0.8500 0.8500 0.8480
13.544072 0.8480 0.8470 0.8470 0.8450 0.8450
13.578000 0.8430 0.8430 0.8430 0.8430 0.8410
13.612072 0.8410 0.8410 0.8400 0.8400 0.8380
13.646000 0.8360 0.8360 0.8360 0.8360 0.8360
13.680072 0.8360 0.8360 0.8360 0.8350 0.8330
13.714000 0.8310 0.8310 0.8290 0.8290 0.8290
13.748072 0.8280 0.8280 0.8260 0.8240 0.8240
13.782000 0.8240 0.8230 0.8230 0.8230 0.8230
13.816072 0.8230 0.8230 0.8230 0.8210 0.8210
13.850000 0.8210 0.8190 0.8190 0.8190 0.8190
13.884072 0.8190 0.8190 0.8190 0.8190 0.8190
13.918000 0.8190 0.8190 0.8190 0.8190 0.8190
13.952072 0.8190 0.8170 0.8170 0.8170 0.8170
13.986000 0.8170 0.8170 0.8170 0.8170 0.8160
14.020072 0.8140 0.8140 0.8120 0.8120 0.8120
14.054000 0.8100 0.8100 0.8100 0.8100 0.8090
14.088072 0.8090 0.8090 0.8090 0.8090 0.8090
14.123000 0.8090 0.8070 0.8070 0.8070 0.8070
14.157072 0.8050 0.8050 0.8040 0.8040 0.8020
14.191000 0.8000 0.8000 0.7980 0.7980 0.7970
14.225072 0.7970 0.7950 0.7950 0.7930 0.7920
14.259000 0.7920 0.7900 0.7900 0.7880 0.7860
14.293072 0.7860 0.7850 0.7830 0.7830 0.7810
14.327000 0.7800 0.7780 0.7760 0.7740 0.7740
14.361072 0.7740 0.7730 0.7730 0.7730 0.7730
14.395000 0.7730 0.7730 0.7730 0.7730 0.7730
14.429072 0.7730 0.7710 0.7690 0.7680 0.7680
14.463000 0.7660 0.7660 0.7620 0.7610 0.7590
14.497072 0.7590 0.7590 0.7570 0.7570 0.7560
14.531000 0.7560 0.7540 0.7540 0.7520 0.7520
14.565072 0.7520 0.7520 0.7500 0.7500 0.7500
14.599000 0.7500 0.7470 0.7470 0.7470 0.7450
14.633072 0.7430 0.7430 0.7420 0.7420 0.7400
14.667000 0.7400 0.7380 0.7380 0.7350 0.7330
14.701072 0.7300 0.7300 0.7260 0.7260 0.7260
14.736000 0.7250 0.7230 0.7210 0.7230 0.7210
14.770072 0.7190 0.7190 0.7180 0.7180 0.7180
14.804000 0.7180 0.7160 0.7160 0.7160 0.7160
14.838072 0.7160 0.7140 0.7140 0.7140 0.7140
14.872000 0.7130 0.7130 0.7110 0.7090 0.7060
14.906072 0.7060 0.7040 0.7040 0.7020 0.6970
14.940000 0.6950 0.6940 0.6940 0.6940 0.6940
14.974072 0.6940 0.6950 0.6950 0.6940 0.6940
15.008000 0.6920 0.6900 0.6900 0.6900 0.6900
15.042072 0.6900 0.6890 0.6890 0.6870 0.6870
15.076000 0.6850 0.6830 0.6830 0.6820 0.6800
15.110072 0.6800 0.6800 0.6800 0.6800 0.6780
15.144000 0.6780 0.6760 0.6760 0.6760 0.6760
15.178072 0.6750 0.6750 0.6730 0.6730 0.6710
15.212000 0.6710 0.6700 0.6700 0.6700 0.6680
15.246072 0.6660 0.6660 0.6660 0.6640 0.6630
15.280000 0.6630 0.6630 0.6630 0.6630 0.6630
15.314072 0.6630 0.6640 0.6630 0.6630 0.6630
15.349000 0.6640 0.6640 0.6630 0.6630 0.6610
15.383072 0.6590 0.6590 0.6590 0.6580 0.6580
15.417000 0.6560 0.6560 0.6560 0.6560 0.6560
15.451072 0.6560 0.6580 0.6580 0.6580 0.6580
15.485000 0.6560 0.6540 0.6540 0.6520 0.6520
15.519072 0.6520 0.6520 0.6520 0.6520 0.6520
15.553000 0.6520 0.6520 0.6520 0.6540 0.6540
15.587072 0.6520 0.6520 0.6510 0.6470 0.6470
15.621000 0.6470 0.6490 0.6490 0.6490 0.6520
15.655072 0.6520 0.6520 0.6520 0.6520 0.6510
15.689000 0.6510 0.6510 0.6510 0.6520 0.6520
15.723072 0.6520 0.6520 0.6540 0.6540 0.6540
15.757000 0.6540 0.6540 0.6540 0.6540 0.6540
15.791072 0.6540 0.6520 0.6520 0.6520 0.6520
15.825000 0.6520 0.6520 0.6520 0.6520 0.6540
15.859072 0.6540 0.6540 0.6540 0.6540 0.6560
15.893000 0.6560 0.6560 0.6560 0.6560 0.6560
15.927072 0.6560 0.6560 0.6560 0.6560 0.6560
##END=
