##TITLE=Cyclohexanemalonic acid, 5-hydroxy-2-(1-hydroxyethyl)-4,4-dimethyl-Alpha-[1-(dimethylamino)prop-2-yl]-Gamma,Delta-dilactone
##JCAMP-DX=4.24
##DATA TYPE=INFRARED SPECTRUM
##CLASS=COBLENTZ
##ORIGIN=ABBOTT LABORATORIES
##OWNER=Copyright (C) 1987 by the Coblentz Society
Collection (C) 2018 copyright by the U.S. Secretary of Commerce
on behalf of the United States of America. All rights reserved.
##DATE=1962/09/26
##MOLFORM=C18 H29 N O4
##MP=171-172 C
##SOURCE REFERENCE=COBLENTZ NO. 5279
##$NIST ID=B6005279
##$NIST SOURCE=COBLENTZ
##$NIST IMAGE=cob5279
##SPECTROMETER/DATA SYSTEM=PERKIN-ELMER 21 (GRATING)
$$ INACTIVE (CHCl3) AROUND 650-800 AND 1200-1250 CM^-^1
##INSTRUMENT PARAMETERS=FILTER AT ABOUT 10 MICRONS
##STATE=SOLUTION 7% (CHCl3 FOR 2.5-12.5 microns)
##PATH LENGTH=0.01 CM
##RESOLUTION=2
##XUNITS=1/CM
##YUNITS=TRANSMITTANCE
##XFACTOR=1.0
##YFACTOR=1
##FIRSTX=799
##LASTX=4000
##FIRSTY=0.958
##MAXX=4000
##MINX=799
##MAXY=0.941
##MINY=0.0267
##NPOINTS=3202
##XYDATA=(X++(Y..Y))
799.000000 0.9580 0.9554 0.9538 0.9526 0.9520
804.000000 0.9513 0.9503 0.9489 0.9462 0.9416
809.000000 0.9339 0.9248 0.9178 0.9120 0.9066
814.000000 0.9025 0.8985 0.8944 0.8902 0.8859
819.000000 0.8822 0.8787 0.8752 0.8717 0.8681
824.000000 0.8635 0.8589 0.8453 0.8376 0.8368
829.000000 0.8370 0.8371 0.8383 0.8396 0.8384
834.000000 0.8361 0.8332 0.8324 0.8312 0.8542
839.000000 0.8660 0.8747 0.8828 0.8903 0.8993
844.000000 0.9087 0.9146 0.9175 0.9192 0.9196
849.000000 0.9184 0.9194 0.9156 0.9140 0.9100
854.000000 0.9059 0.9017 0.8997 0.8995 0.8982
859.000000 0.8927 0.8870 0.8811 0.8748 0.8720
864.000000 0.8720 0.8720 0.8722 0.8724 0.8722
869.000000 0.8719 0.8648 0.8575 0.8553 0.8536
874.000000 0.8427 0.8221 0.8028 0.7840 0.7576
879.000000 0.7263 0.6877 0.6846 0.6918 0.7265
884.000000 0.7622 0.7979 0.8191 0.8309 0.8377
889.000000 0.8412 0.8421 0.8424 0.8396 0.8361
894.000000 0.8322 0.8264 0.8203 0.8128 0.8042
899.000000 0.7942 0.7836 0.7710 0.7496 0.7285
904.000000 0.7267 0.7346 0.7609 0.7813 0.7985
909.000000 0.8063 0.8065 0.8090 0.8021 0.7892
914.000000 0.7594 0.7271 0.6948 0.6627 0.6306
919.000000 0.5985 0.5638 0.5539 0.5537 0.5534
924.000000 0.5961 0.6354 0.6747 0.6911 0.6916
929.000000 0.6878 0.6652 0.6403 0.6155 0.5907
934.000000 0.5660 0.5419 0.5118 0.4690 0.4263
939.000000 0.3523 0.3139 0.3076 0.3075 0.3549
944.000000 0.4278 0.5004 0.5664 0.5972 0.6306
949.000000 0.6505 0.6594 0.6832 0.7014 0.7094
954.000000 0.7093 0.7089 0.7030 0.6900 0.6736
959.000000 0.6495 0.6044 0.6032 0.6025 0.6163
964.000000 0.6704 0.7277 0.7590 0.7750 0.7822
969.000000 0.7844 0.7840 0.7853 0.7823 0.7789
974.000000 0.7626 0.7568 0.7512 0.7227 0.6930
979.000000 0.6634 0.6381 0.6253 0.6240 0.6410
984.000000 0.6637 0.6723 0.6707 0.6699 0.6374
989.000000 0.6241 0.6234 0.6662 0.7166 0.7669
994.000000 0.8111 0.8108 0.7899 0.7651 0.7507
999.000000 0.7419 0.7344 0.7145 0.6662 0.6173
1004.000000 0.5850 0.5837 0.5859 0.6106 0.6584
1009.000000 0.7060 0.7390 0.7416 0.7415 0.7428
1014.000000 0.7287 0.7279 0.7260 0.7316 0.7375
1019.000000 0.7408 0.7415 0.7399 0.7369 0.7328
1024.000000 0.7301 0.7287 0.7341 0.7374 0.7404
1029.000000 0.7416 0.7420 0.7407 0.7358 0.7286
1034.000000 0.7125 0.6917 0.6710 0.6502 0.6295
1039.000000 0.6088 0.5938 0.5947 0.5935 0.6030
1044.000000 0.6254 0.6506 0.6756 0.7006 0.7264
1049.000000 0.7387 0.7406 0.7408 0.7403 0.7391
1054.000000 0.7384 0.7363 0.7342 0.7313 0.7278
1059.000000 0.7234 0.7166 0.7006 0.6548 0.6144
1064.000000 0.5741 0.5339 0.4937 0.4536 0.4187
1069.000000 0.4109 0.4131 0.4377 0.4715 0.5053
1074.000000 0.5389 0.5725 0.5877 0.5878 0.5855
1079.000000 0.5842 0.5590 0.5274 0.4960 0.4645
1084.000000 0.4331 0.4018 0.3705 0.3391 0.3199
1089.000000 0.2951 0.2929 0.2933 0.2943 0.3630
1094.000000 0.4250 0.4867 0.5485 0.6096 0.6318
1099.000000 0.6326 0.6313 0.6294 0.6216 0.6026
1104.000000 0.5832 0.5630 0.5552 0.5550 0.5546
1109.000000 0.5634 0.5799 0.5966 0.6084 0.6100
1114.000000 0.6085 0.6088 0.6054 0.5991 0.5911
1119.000000 0.5807 0.5616 0.5262 0.4901 0.4553
1124.000000 0.4205 0.3858 0.3511 0.3164 0.2819
1129.000000 0.2475 0.2130 0.1787 0.1488 0.1311
1134.000000 0.1265 0.1282 0.1299 0.1373 0.1393
1139.000000 0.1391 0.1345 0.1164 0.0984 0.0811
1144.000000 0.0794 0.0800 0.0839 0.1002 0.1247
1149.000000 0.1493 0.1738 0.1973 0.2222 0.2321
1154.000000 0.2377 0.2385 0.2401 0.2306 0.2223
1159.000000 0.2080 0.1940 0.1936 0.1928 0.1979
1164.000000 0.2144 0.2322 0.2686 0.3282 0.3882
1169.000000 0.4481 0.5079 0.5671 0.5999 0.6043
1174.000000 0.6050 0.6040 0.6021 0.6002 0.5966
1179.000000 0.5927 0.5880 0.5819 0.5746 0.5659
1184.000000 0.5539 0.5345 0.5147 0.4950 0.4753
1189.000000 0.4559 0.4428 0.4353 0.4303 0.4292
1194.000000 0.4301 0.4351 0.4419 0.4481 0.4537
1199.000000 0.4595 0.4665 0.4728 0.4753 0.4774
1204.000000 0.4795 0.4776 0.4743 0.4711 0.4679
1209.000000 0.4646 0.4615 0.4582 0.4550 0.4518
1214.000000 0.4479 0.4449 0.4423 0.4407 0.4393
1219.000000 0.4379 0.4377 0.4376 0.4374 0.4373
1224.000000 0.4372 0.4375 0.4385 0.4409 0.4470
1229.000000 0.4537 0.4637 0.4737 0.4825 0.4851
1234.000000 0.4863 0.4863 0.4862 0.4861 0.4848
1239.000000 0.4810 0.4735 0.4653 0.4571 0.4492
1244.000000 0.4372 0.4181 0.3991 0.3801 0.3612
1249.000000 0.3423 0.3235 0.3046 0.2857 0.2593
1254.000000 0.2394 0.2289 0.2300 0.2292 0.2370
1259.000000 0.2491 0.2614 0.2735 0.2856 0.2974
1264.000000 0.3072 0.3275 0.3513 0.3749 0.3986
1269.000000 0.4223 0.4459 0.4694 0.4866 0.4879
1274.000000 0.4863 0.4678 0.4450 0.4223 0.3996
1279.000000 0.3769 0.3543 0.3451 0.3491 0.3463
1284.000000 0.3492 0.3522 0.3549 0.3582 0.3695
1289.000000 0.4046 0.4396 0.4746 0.5095 0.5444
1294.000000 0.5792 0.6140 0.6487 0.6591 0.6624
1299.000000 0.6647 0.6679 0.6669 0.6671 0.6619
1304.000000 0.6514 0.6410 0.6305 0.6203 0.6153
1309.000000 0.6131 0.6158 0.6211 0.6279 0.6347
1314.000000 0.6414 0.6443 0.6440 0.6424 0.6403
1319.000000 0.6362 0.6295 0.6033 0.5666 0.5630
1324.000000 0.5680 0.5804 0.5934 0.6063 0.6192
1329.000000 0.6321 0.6362 0.6302 0.6177 0.6042
1334.000000 0.5908 0.5774 0.5667 0.5670 0.5741
1339.000000 0.5978 0.6192 0.6242 0.6238 0.6173
1344.000000 0.6053 0.5937 0.5883 0.5887 0.5969
1349.000000 0.5897 0.6198 0.6312 0.6425 0.6539
1354.000000 0.6649 0.6696 0.6704 0.6701 0.6698
1359.000000 0.6691 0.6627 0.6458 0.6275 0.6092
1364.000000 0.5911 0.5729 0.5547 0.5365 0.5185
1369.000000 0.5045 0.4998 0.4982 0.4965 0.4946
1374.000000 0.4888 0.4630 0.4287 0.3944 0.3605
1379.000000 0.3574 0.3547 0.3724 0.4120 0.4536
1384.000000 0.4951 0.5365 0.5778 0.6192 0.6604
1389.000000 0.7016 0.7436 0.7687 0.7794 0.7900
1394.000000 0.8002 0.8063 0.8106 0.8140 0.8168
1399.000000 0.8193 0.8207 0.8220 0.8225 0.8228
1404.000000 0.8230 0.8209 0.8231 0.8225 0.8220
1409.000000 0.8215 0.8199 0.8171 0.8123 0.8046
1414.000000 0.7985 0.7929 0.7870 0.7812 0.7773
1419.000000 0.7735 0.7674 0.7517 0.7351 0.7259
1424.000000 0.7193 0.7127 0.7043 0.6951 0.6874
1429.000000 0.6815 0.6757 0.6709 0.6673 0.6638
1434.000000 0.6598 0.6553 0.6508 0.6404 0.6145
1439.000000 0.5822 0.5498 0.5175 0.4854 0.4532
1444.000000 0.4210 0.4023 0.3975 0.4006 0.3968
1449.000000 0.3981 0.4007 0.4170 0.4279 0.4395
1454.000000 0.4587 0.4730 0.4774 0.4788 0.4801
1459.000000 0.4895 0.5114 0.5345 0.5576 0.5806
1464.000000 0.6037 0.6267 0.6496 0.6840 0.7000
1469.000000 0.7031 0.7060 0.7083 0.7106 0.7129
1474.000000 0.7174 0.7208 0.7249 0.7330 0.7432
1479.000000 0.7525 0.7612 0.7774 0.8029 0.8212
1484.000000 0.8316 0.8391 0.8454 0.8515 0.8571
1489.000000 0.8627 0.8682 0.8735 0.8786 0.8837
1494.000000 0.8884 0.8921 0.8954 0.8987 0.9019
1499.000000 0.9048 0.9074 0.9098 0.9116 0.9130
1504.000000 0.9144 0.9154 0.9162 0.9171 0.9179
1509.000000 0.9187 0.9193 0.9194 0.9195 0.9197
1514.000000 0.9198 0.9179 0.9198 0.9196 0.9194
1519.000000 0.9192 0.9190 0.9189 0.9187 0.9183
1524.000000 0.9177 0.9171 0.9165 0.9159 0.9153
1529.000000 0.9148 0.9141 0.9135 0.9128 0.9121
1534.000000 0.9114 0.9107 0.9100 0.9093 0.9086
1539.000000 0.9080 0.9072 0.9065 0.9058 0.9052
1544.000000 0.9045 0.9038 0.9031 0.9025 0.9020
1549.000000 0.9015 0.9011 0.9007 0.9002 0.8997
1554.000000 0.8993 0.8990 0.8989 0.8988 0.8988
1559.000000 0.8987 0.8986 0.8985 0.8985 0.8984
1564.000000 0.8983 0.8982 0.8982 0.8981 0.8980
1569.000000 0.8979 0.8979 0.8978 0.8978 0.8978
1574.000000 0.8978 0.8978 0.8978 0.8978 0.8978
1579.000000 0.8978 0.8978 0.8978 0.8976 0.8972
1584.000000 0.8968 0.8963 0.8952 0.8936 0.8920
1589.000000 0.8904 0.8888 0.8872 0.8858 0.8845
1594.000000 0.8831 0.8818 0.8805 0.8793 0.8784
1599.000000 0.8775 0.8767 0.8758 0.8749 0.8741
1604.000000 0.8734 0.8727 0.8721 0.8714 0.8708
1609.000000 0.8701 0.8694 0.8688 0.8682 0.8679
1614.000000 0.8676 0.8674 0.8672 0.8670 0.8667
1619.000000 0.8665 0.8662 0.8660 0.8658 0.8658
1624.000000 0.8658 0.8659 0.8659 0.8660 0.8660
1629.000000 0.8661 0.8661 0.8660 0.8658 0.8657
1634.000000 0.8655 0.8654 0.8653 0.8651 0.8647
1639.000000 0.8641 0.8636 0.8627 0.8615 0.8602
1644.000000 0.8588 0.8572 0.8553 0.8532 0.8506
1649.000000 0.8480 0.8462 0.8450 0.8438 0.8427
1654.000000 0.8418 0.8413 0.8406 0.8401 0.8392
1659.000000 0.8372 0.8348 0.8312 0.8260 0.8207
1664.000000 0.8154 0.8106 0.8062 0.8017 0.7973
1669.000000 0.7928 0.7882 0.7835 0.7785 0.7726
1674.000000 0.7659 0.7552 0.7444 0.7383 0.7325
1679.000000 0.7268 0.7212 0.7102 0.6975 0.6843
1684.000000 0.6712 0.6582 0.6452 0.6321 0.6191
1689.000000 0.6061 0.5931 0.5801 0.5672 0.5542
1694.000000 0.5412 0.5264 0.4907 0.4812 0.4750
1699.000000 0.4709 0.4687 0.4674 0.4662 0.4653
1704.000000 0.4647 0.4642 0.4636 0.4631 0.4625
1709.000000 0.4620 0.4614 0.4609 0.4603 0.4597
1714.000000 0.4590 0.4580 0.4563 0.4542 0.4478
1719.000000 0.4388 0.4288 0.4203 0.4130 0.4027
1724.000000 0.3910 0.3680 0.3430 0.3179 0.2929
1729.000000 0.2678 0.2428 0.2178 0.1929 0.1679
1734.000000 0.1431 0.1182 0.0934 0.0570 0.0376
1739.000000 0.0302 0.0274 0.0269 0.0267 0.0267
1744.000000 0.0281 0.0268 0.0270 0.0272 0.0277
1749.000000 0.0286 0.0299 0.0328 0.0398 0.0596
1754.000000 0.0726 0.0826 0.0899 0.0952 0.1027
1759.000000 0.1229 0.1803 0.2581 0.3399 0.4216
1764.000000 0.5616 0.6079 0.6147 0.6218 0.6307
1769.000000 0.6499 0.6679 0.6840 0.6984 0.7118
1774.000000 0.7202 0.7283 0.7363 0.7446 0.7542
1779.000000 0.7648 0.7758 0.7873 0.7997 0.8130
1784.000000 0.8250 0.8334 0.8389 0.8441 0.8473
1789.000000 0.8504 0.8536 0.8567 0.8596 0.8619
1794.000000 0.8641 0.8663 0.8685 0.8707 0.8729
1799.000000 0.8749 0.8766 0.8784 0.8802 0.8819
1804.000000 0.8833 0.8839 0.8845 0.8851 0.8858
1809.000000 0.8865 0.8871 0.8877 0.8883 0.8889
1814.000000 0.8893 0.8898 0.8903 0.8907 0.8911
1819.000000 0.8915 0.8919 0.8923 0.8927 0.8937
1824.000000 0.8950 0.8965 0.8980 0.8996 0.9012
1829.000000 0.9028 0.9045 0.9061 0.9076 0.9089
1834.000000 0.9100 0.9111 0.9121 0.9129 0.9133
1839.000000 0.9136 0.9140 0.9144 0.9146 0.9148
1844.000000 0.9149 0.9149 0.9151 0.9152 0.9154
1849.000000 0.9155 0.9156 0.9157 0.9158 0.9158
1854.000000 0.9158 0.9158 0.9159 0.9159 0.9159
1859.000000 0.9160 0.9160 0.9160 0.9161 0.9161
1864.000000 0.9161 0.9162 0.9162 0.9162 0.9163
1869.000000 0.9164 0.9165 0.9165 0.9165 0.9166
1874.000000 0.9166 0.9167 0.9168 0.9168 0.9169
1879.000000 0.9171 0.9173 0.9175 0.9177 0.9179
1884.000000 0.9182 0.9184 0.9186 0.9188 0.9190
1889.000000 0.9197 0.9205 0.9213 0.9221 0.9229
1894.000000 0.9237 0.9246 0.9255 0.9262 0.9264
1899.000000 0.9266 0.9268 0.9269 0.9271 0.9272
1904.000000 0.9273 0.9275 0.9277 0.9278 0.9278
1909.000000 0.9278 0.9278 0.9278 0.9278 0.9278
1914.000000 0.9278 0.9278 0.9278 0.9278 0.9278
1919.000000 0.9278 0.9278 0.9277 0.9277 0.9277
1924.000000 0.9277 0.9276 0.9276 0.9276 0.9276
1929.000000 0.9276 0.9275 0.9275 0.9275 0.9275
1934.000000 0.9276 0.9276 0.9276 0.9276 0.9276
1939.000000 0.9276 0.9277 0.9277 0.9277 0.9277
1944.000000 0.9277 0.9278 0.9278 0.9278 0.9278
1949.000000 0.9278 0.9278 0.9279 0.9279 0.9279
1954.000000 0.9279 0.9279 0.9279 0.9280 0.9280
1959.000000 0.9280 0.9281 0.9282 0.9282 0.9283
1964.000000 0.9284 0.9285 0.9286 0.9287 0.9287
1969.000000 0.9288 0.9288 0.9289 0.9290 0.9290
1974.000000 0.9291 0.9292 0.9292 0.9293 0.9295
1979.000000 0.9295 0.9296 0.9297 0.9297 0.9298
1984.000000 0.9298 0.9299 0.9299 0.9299 0.9299
1989.000000 0.9299 0.9299 0.9299 0.9299 0.9302
1994.000000 0.9307 0.9312 0.9318 0.9324 0.9330
1999.000000 0.9337 0.9345 0.9352 0.9359 0.9367
2004.000000 0.9370 0.9372 0.9372 0.9372 0.9372
2009.000000 0.9373 0.9374 0.9374 0.9374 0.9375
2014.000000 0.9375 0.9375 0.9375 0.9374 0.9374
2019.000000 0.9374 0.9373 0.9373 0.9373 0.9372
2024.000000 0.9372 0.9372 0.9371 0.9371 0.9371
2029.000000 0.9371 0.9371 0.9370 0.9370 0.9370
2034.000000 0.9370 0.9369 0.9369 0.9369 0.9369
2039.000000 0.9369 0.9362 0.9371 0.9371 0.9372
2044.000000 0.9372 0.9374 0.9375 0.9375 0.9376
2049.000000 0.9376 0.9377 0.9378 0.9378 0.9379
2054.000000 0.9379 0.9380 0.9381 0.9381 0.9382
2059.000000 0.9383 0.9384 0.9384 0.9385 0.9386
2064.000000 0.9386 0.9387 0.9387 0.9388 0.9389
2069.000000 0.9389 0.9390 0.9390 0.9391 0.9392
2074.000000 0.9393 0.9394 0.9394 0.9395 0.9395
2079.000000 0.9396 0.9397 0.9397 0.9398 0.9398
2084.000000 0.9399 0.9399 0.9400 0.9401 0.9401
2089.000000 0.9402 0.9402 0.9403 0.9403 0.9404
2094.000000 0.9405 0.9405 0.9406 0.9406 0.9407
2099.000000 0.9407 0.9408 0.9409 0.9409 0.9410
2104.000000 0.9410 0.9410 0.9410 0.9409 0.9408
2109.000000 0.9408 0.9407 0.9407 0.9406 0.9406
2114.000000 0.9405 0.9405 0.9404 0.9403 0.9403
2119.000000 0.9402 0.9402 0.9402 0.9402 0.9401
2124.000000 0.9401 0.9400 0.9399 0.9399 0.9398
2129.000000 0.9398 0.9397 0.9397 0.9396 0.9396
2134.000000 0.9395 0.9394 0.9394 0.9393 0.9393
2139.000000 0.9392 0.9392 0.9392 0.9392 0.9391
2144.000000 0.9391 0.9390 0.9389 0.9389 0.9388
2149.000000 0.9388 0.9387 0.9387 0.9386 0.9386
2154.000000 0.9385 0.9385 0.9385 0.9385 0.9384
2159.000000 0.9383 0.9383 0.9382 0.9382 0.9381
2164.000000 0.9381 0.9380 0.9380 0.9379 0.9379
2169.000000 0.9379 0.9379 0.9378 0.9378 0.9378
2174.000000 0.9378 0.9379 0.9381 0.9382 0.9383
2179.000000 0.9384 0.9385 0.9386 0.9387 0.9388
2184.000000 0.9389 0.9391 0.9392 0.9393 0.9394
2189.000000 0.9395 0.9396 0.9397 0.9398 0.9400
2194.000000 0.9401 0.9402 0.9402 0.9403 0.9404
2199.000000 0.9405 0.9406 0.9406 0.9404 0.9402
2204.000000 0.9400 0.9399 0.9397 0.9396 0.9394
2209.000000 0.9393 0.9391 0.9390 0.9388 0.9387
2214.000000 0.9385 0.9384 0.9382 0.9379 0.9376
2219.000000 0.9373 0.9370 0.9367 0.9364 0.9361
2224.000000 0.9358 0.9355 0.9352 0.9349 0.9346
2229.000000 0.9343 0.9340 0.9337 0.9334 0.9331
2234.000000 0.9329 0.9328 0.9327 0.9326 0.9325
2239.000000 0.9324 0.9323 0.9322 0.9322 0.9321
2244.000000 0.9320 0.9319 0.9318 0.9318 0.9318
2249.000000 0.9319 0.9319 0.9319 0.9319 0.9319
2254.000000 0.9319 0.9317 0.9315 0.9312 0.9309
2259.000000 0.9305 0.9302 0.9298 0.9295 0.9291
2264.000000 0.9286 0.9280 0.9274 0.9268 0.9261
2269.000000 0.9257 0.9255 0.9254 0.9253 0.9251
2274.000000 0.9250 0.9249 0.9248 0.9246 0.9245
2279.000000 0.9243 0.9242 0.9241 0.9241 0.9241
2284.000000 0.9241 0.9241 0.9241 0.9241 0.9241
2289.000000 0.9241 0.9241 0.9241 0.9241 0.9241
2294.000000 0.9241 0.9241 0.9241 0.9241 0.9241
2299.000000 0.9241 0.9241 0.9241 0.9241 0.9242
2304.000000 0.9243 0.9244 0.9244 0.9245 0.9245
2309.000000 0.9246 0.9246 0.9247 0.9247 0.9248
2314.000000 0.9248 0.9249 0.9250 0.9251 0.9251
2319.000000 0.9251 0.9252 0.9252 0.9253 0.9253
2324.000000 0.9254 0.9254 0.9255 0.9256 0.9257
2329.000000 0.9257 0.9258 0.9258 0.9258 0.9259
2334.000000 0.9260 0.9261 0.9261 0.9262 0.9262
2339.000000 0.9263 0.9263 0.9264 0.9265 0.9265
2344.000000 0.9266 0.9266 0.9268 0.9269 0.9271
2349.000000 0.9273 0.9275 0.9278 0.9280 0.9282
2354.000000 0.9284 0.9287 0.9289 0.9291 0.9293
2359.000000 0.9296 0.9298 0.9300 0.9304 0.9307
2364.000000 0.9310 0.9313 0.9316 0.9320 0.9323
2369.000000 0.9326 0.9330 0.9333 0.9336 0.9336
2374.000000 0.9337 0.9339 0.9340 0.9341 0.9342
2379.000000 0.9343 0.9344 0.9345 0.9345 0.9346
2384.000000 0.9345 0.9343 0.9340 0.9338 0.9335
2389.000000 0.9332 0.9330 0.9327 0.9324 0.9315
2394.000000 0.9303 0.9291 0.9277 0.9264 0.9251
2399.000000 0.9238 0.9227 0.9215 0.9203 0.9191
2404.000000 0.9180 0.9168 0.9156 0.9145 0.9134
2409.000000 0.9124 0.9114 0.9106 0.9105 0.9104
2414.000000 0.9105 0.9108 0.9109 0.9111 0.9113
2419.000000 0.9115 0.9117 0.9119 0.9121 0.9124
2424.000000 0.9126 0.9129 0.9131 0.9133 0.9135
2429.000000 0.9137 0.9139 0.9142 0.9144 0.9146
2434.000000 0.9148 0.9150 0.9151 0.9153 0.9155
2439.000000 0.9156 0.9158 0.9160 0.9161 0.9163
2444.000000 0.9165 0.9167 0.9168 0.9170 0.9172
2449.000000 0.9173 0.9175 0.9177 0.9178 0.9180
2454.000000 0.9181 0.9181 0.9182 0.9182 0.9182
2459.000000 0.9183 0.9183 0.9184 0.9184 0.9184
2464.000000 0.9185 0.9185 0.9186 0.9187 0.9188
2469.000000 0.9188 0.9188 0.9188 0.9188 0.9188
2474.000000 0.9188 0.9188 0.9188 0.9188 0.9188
2479.000000 0.9188 0.9188 0.9188 0.9188 0.9188
2484.000000 0.9188 0.9188 0.9190 0.9191 0.9192
2489.000000 0.9194 0.9195 0.9197 0.9198 0.9201
2494.000000 0.9207 0.9213 0.9220 0.9226 0.9232
2499.000000 0.9237 0.9243 0.9248 0.9254 0.9259
2504.000000 0.9264 0.9268 0.9271 0.9273 0.9276
2509.000000 0.9279 0.9281 0.9283 0.9285 0.9286
2514.000000 0.9286 0.9286 0.9287 0.9287 0.9288
2519.000000 0.9288 0.9288 0.9288 0.9288 0.9289
2524.000000 0.9289 0.9289 0.9290 0.9290 0.9289
2529.000000 0.9289 0.9289 0.9289 0.9289 0.9288
2534.000000 0.9288 0.9288 0.9288 0.9288 0.9288
2539.000000 0.9287 0.9287 0.9287 0.9287 0.9287
2544.000000 0.9286 0.9286 0.9285 0.9285 0.9285
2549.000000 0.9284 0.9284 0.9284 0.9283 0.9283
2554.000000 0.9282 0.9282 0.9282 0.9281 0.9281
2559.000000 0.9280 0.9280 0.9280 0.9279 0.9279
2564.000000 0.9279 0.9278 0.9278 0.9277 0.9277
2569.000000 0.9277 0.9276 0.9276 0.9276 0.9275
2574.000000 0.9274 0.9273 0.9272 0.9272 0.9271
2579.000000 0.9270 0.9269 0.9269 0.9268 0.9267
2584.000000 0.9266 0.9266 0.9265 0.9264 0.9263
2589.000000 0.9263 0.9262 0.9261 0.9261 0.9260
2594.000000 0.9259 0.9258 0.9258 0.9257 0.9257
2599.000000 0.9256 0.9256 0.9255 0.9254 0.9254
2604.000000 0.9254 0.9253 0.9252 0.9251 0.9251
2609.000000 0.9251 0.9250 0.9249 0.9249 0.9248
2614.000000 0.9247 0.9247 0.9246 0.9246 0.9245
2619.000000 0.9244 0.9243 0.9242 0.9240 0.9239
2624.000000 0.9237 0.9236 0.9235 0.9233 0.9232
2629.000000 0.9231 0.9230 0.9228 0.9227 0.9225
2634.000000 0.9224 0.9222 0.9221 0.9219 0.9217
2639.000000 0.9215 0.9213 0.9211 0.9209 0.9207
2644.000000 0.9205 0.9203 0.9200 0.9196 0.9191
2649.000000 0.9186 0.9182 0.9177 0.9172 0.9168
2654.000000 0.9163 0.9159 0.9154 0.9149 0.9144
2659.000000 0.9139 0.9134 0.9128 0.9122 0.9116
2664.000000 0.9111 0.9105 0.9099 0.9094 0.9088
2669.000000 0.9082 0.9075 0.9069 0.9062 0.9055
2674.000000 0.9048 0.9041 0.9033 0.9026 0.9019
2679.000000 0.9012 0.9005 0.8998 0.8991 0.8984
2684.000000 0.8977 0.8970 0.8962 0.8954 0.8947
2689.000000 0.8939 0.8932 0.8924 0.8916 0.8909
2694.000000 0.8901 0.8894 0.8886 0.8879 0.8871
2699.000000 0.8863 0.8856 0.8848 0.8841 0.8833
2704.000000 0.8823 0.8814 0.8803 0.8792 0.8780
2709.000000 0.8768 0.8756 0.8744 0.8733 0.8721
2714.000000 0.8710 0.8698 0.8687 0.8675 0.8661
2719.000000 0.8644 0.8628 0.8610 0.8592 0.8573
2724.000000 0.8555 0.8536 0.8518 0.8499 0.8481
2729.000000 0.8462 0.8442 0.8422 0.8401 0.8381
2734.000000 0.8361 0.8340 0.8320 0.8299 0.8279
2739.000000 0.8259 0.8238 0.8217 0.8185 0.8150
2744.000000 0.8115 0.8076 0.8036 0.7997 0.7963
2749.000000 0.7931 0.7899 0.7864 0.7827 0.7790
2754.000000 0.7743 0.7691 0.7640 0.7589 0.7537
2759.000000 0.7486 0.7435 0.7384 0.7333 0.7281
2764.000000 0.7230 0.7179 0.7128 0.7077 0.7026
2769.000000 0.6976 0.6925 0.6874 0.6835 0.6814
2774.000000 0.6793 0.6776 0.6767 0.6759 0.6751
2779.000000 0.6745 0.6739 0.6733 0.6733 0.6732
2784.000000 0.6731 0.6731 0.6730 0.6730 0.6747
2789.000000 0.6765 0.6783 0.6806 0.6830 0.6853
2794.000000 0.6877 0.6901 0.6925 0.6939 0.6947
2799.000000 0.6955 0.6960 0.6960 0.6960 0.6960
2804.000000 0.6960 0.6960 0.6954 0.6918 0.6882
2809.000000 0.6846 0.6801 0.6755 0.6710 0.6665
2814.000000 0.6619 0.6574 0.6528 0.6483 0.6438
2819.000000 0.6393 0.6348 0.6303 0.6272 0.6268
2824.000000 0.6265 0.6261 0.6259 0.6256 0.6254
2829.000000 0.6252 0.6250 0.6249 0.6248 0.6248
2834.000000 0.6248 0.6247 0.6247 0.6247 0.6247
2839.000000 0.6247 0.6247 0.6247 0.6244 0.6241
2844.000000 0.6238 0.6235 0.6232 0.6229 0.6218
2849.000000 0.6203 0.6188 0.6169 0.6143 0.6118
2854.000000 0.6094 0.6078 0.6062 0.6047 0.6019
2859.000000 0.5988 0.5958 0.5928 0.5898 0.5868
2864.000000 0.5840 0.5814 0.5789 0.5764 0.5740
2869.000000 0.5716 0.5692 0.5666 0.5639 0.5612
2874.000000 0.5585 0.5557 0.5530 0.5503 0.5476
2879.000000 0.5449 0.5422 0.5396 0.5369 0.5342
2884.000000 0.5315 0.5288 0.5261 0.5234 0.5207
2889.000000 0.5181 0.5154 0.5127 0.5100 0.5073
2894.000000 0.5047 0.5020 0.4994 0.4967 0.4940
2899.000000 0.4913 0.4887 0.4860 0.4834 0.4807
2904.000000 0.4781 0.4754 0.4728 0.4701 0.4675
2909.000000 0.4648 0.4622 0.4596 0.4569 0.4542
2914.000000 0.4516 0.4490 0.4464 0.4438 0.4411
2919.000000 0.4385 0.4358 0.4332 0.4306 0.4280
2924.000000 0.4254 0.4231 0.4209 0.4187 0.4168
2929.000000 0.4153 0.4138 0.4125 0.4121 0.4118
2934.000000 0.4114 0.4120 0.4116 0.4117 0.4118
2939.000000 0.4120 0.4122 0.4124 0.4128 0.4132
2944.000000 0.4137 0.4144 0.4158 0.4171 0.4185
2949.000000 0.4206 0.4228 0.4250 0.4271 0.4290
2954.000000 0.4309 0.4328 0.4339 0.4350 0.4361
2959.000000 0.4370 0.4378 0.4385 0.4392 0.4398
2964.000000 0.4403 0.4409 0.4415 0.4421 0.4427
2969.000000 0.4433 0.4438 0.4443 0.4447 0.4452
2974.000000 0.4457 0.4461 0.4466 0.4502 0.4546
2979.000000 0.4590 0.4653 0.4768 0.4884 0.5000
2984.000000 0.5086 0.5160 0.5235 0.5309 0.5383
2989.000000 0.5457 0.5531 0.5605 0.5679 0.5753
2994.000000 0.5827 0.5900 0.5974 0.6047 0.6121
2999.000000 0.6194 0.6267 0.6341 0.6414 0.6488
3004.000000 0.6561 0.6635 0.6708 0.6781 0.6854
3009.000000 0.6927 0.7000 0.7073 0.7146 0.7191
3014.000000 0.7234 0.7278 0.7316 0.7343 0.7369
3019.000000 0.7396 0.7421 0.7446 0.7471 0.7496
3024.000000 0.7520 0.7544 0.7568 0.7592 0.7614
3029.000000 0.7636 0.7659 0.7681 0.7703 0.7726
3034.000000 0.7749 0.7805 0.7861 0.7917 0.7969
3039.000000 0.8012 0.8055 0.8098 0.8132 0.8161
3044.000000 0.8190 0.8220 0.8249 0.8278 0.8308
3049.000000 0.8341 0.8387 0.8433 0.8479 0.8525
3054.000000 0.8571 0.8616 0.8662 0.8699 0.8733
3059.000000 0.8768 0.8802 0.8832 0.8861 0.8891
3064.000000 0.8918 0.8940 0.8962 0.8983 0.9003
3069.000000 0.9022 0.9041 0.9060 0.9075 0.9089
3074.000000 0.9103 0.9117 0.9122 0.9126 0.9131
3079.000000 0.9135 0.9139 0.9144 0.9148 0.9151
3084.000000 0.9154 0.9156 0.9159 0.9161 0.9163
3089.000000 0.9166 0.9168 0.9170 0.9173 0.9175
3094.000000 0.9177 0.9180 0.9183 0.9185 0.9188
3099.000000 0.9190 0.9191 0.9193 0.9195 0.9197
3104.000000 0.9199 0.9200 0.9202 0.9204 0.9205
3109.000000 0.9207 0.9208 0.9210 0.9212 0.9214
3114.000000 0.9216 0.9218 0.9219 0.9221 0.9223
3119.000000 0.9224 0.9226 0.9227 0.9229 0.9230
3124.000000 0.9232 0.9234 0.9235 0.9237 0.9238
3129.000000 0.9240 0.9241 0.9243 0.9245 0.9247
3134.000000 0.9248 0.9250 0.9251 0.9253 0.9254
3139.000000 0.9255 0.9257 0.9258 0.9259 0.9260
3144.000000 0.9262 0.9263 0.9264 0.9265 0.9267
3149.000000 0.9268 0.9269 0.9271 0.9272 0.9273
3154.000000 0.9274 0.9276 0.9277 0.9278 0.9280
3159.000000 0.9281 0.9283 0.9284 0.9285 0.9287
3164.000000 0.9288 0.9289 0.9290 0.9292 0.9293
3169.000000 0.9294 0.9295 0.9297 0.9298 0.9299
3174.000000 0.9300 0.9301 0.9302 0.9303 0.9303
3179.000000 0.9303 0.9303 0.9304 0.9304 0.9305
3184.000000 0.9305 0.9306 0.9306 0.9307 0.9307
3189.000000 0.9308 0.9308 0.9309 0.9309 0.9310
3194.000000 0.9310 0.9311 0.9311 0.9312 0.9312
3199.000000 0.9313 0.9313 0.9313 0.9314 0.9314
3204.000000 0.9314 0.9314 0.9315 0.9315 0.9316
3209.000000 0.9316 0.9317 0.9317 0.9318 0.9318
3214.000000 0.9319 0.9319 0.9320 0.9320 0.9321
3219.000000 0.9321 0.9322 0.9322 0.9323 0.9323
3224.000000 0.9323 0.9323 0.9346 0.9323 0.9322
3229.000000 0.9322 0.9321 0.9321 0.9321 0.9321
3234.000000 0.9321 0.9320 0.9320 0.9319 0.9319
3239.000000 0.9318 0.9318 0.9317 0.9317 0.9316
3244.000000 0.9316 0.9315 0.9315 0.9314 0.9313
3249.000000 0.9312 0.9311 0.9309 0.9308 0.9307
3254.000000 0.9306 0.9305 0.9303 0.9302 0.9301
3259.000000 0.9299 0.9298 0.9296 0.9295 0.9293
3264.000000 0.9292 0.9291 0.9289 0.9288 0.9286
3269.000000 0.9285 0.9284 0.9282 0.9281 0.9280
3274.000000 0.9278 0.9277 0.9276 0.9275 0.9274
3279.000000 0.9273 0.9271 0.9270 0.9269 0.9268
3284.000000 0.9267 0.9266 0.9265 0.9263 0.9262
3289.000000 0.9261 0.9260 0.9259 0.9258 0.9256
3294.000000 0.9255 0.9254 0.9253 0.9252 0.9251
3299.000000 0.9250 0.9248 0.9247 0.9246 0.9245
3304.000000 0.9243 0.9242 0.9241 0.9239 0.9239
3309.000000 0.9239 0.9238 0.9238 0.9237 0.9237
3314.000000 0.9236 0.9236 0.9235 0.9235 0.9234
3319.000000 0.9233 0.9233 0.9232 0.9232 0.9231
3324.000000 0.9231 0.9230 0.9230 0.9229 0.9229
3329.000000 0.9228 0.9228 0.9228 0.9227 0.9227
3334.000000 0.9226 0.9226 0.9225 0.9225 0.9224
3339.000000 0.9224 0.9224 0.9223 0.9223 0.9222
3344.000000 0.9222 0.9221 0.9221 0.9220 0.9220
3349.000000 0.9219 0.9218 0.9218 0.9217 0.9217
3354.000000 0.9217 0.9217 0.9216 0.9216 0.9216
3359.000000 0.9216 0.9216 0.9215 0.9215 0.9215
3364.000000 0.9215 0.9214 0.9214 0.9214 0.9214
3369.000000 0.9214 0.9213 0.9213 0.9213 0.9213
3374.000000 0.9212 0.9212 0.9212 0.9212 0.9212
3379.000000 0.9211 0.9211 0.9211 0.9211 0.9210
3384.000000 0.9210 0.9210 0.9210 0.9210 0.9209
3389.000000 0.9209 0.9209 0.9209 0.9209 0.9209
3394.000000 0.9209 0.9209 0.9209 0.9209 0.9209
3399.000000 0.9209 0.9209 0.9209 0.9210 0.9210
3404.000000 0.9210 0.9210 0.9211 0.9211 0.9211
3409.000000 0.9211 0.9211 0.9212 0.9212 0.9213
3414.000000 0.9213 0.9213 0.9214 0.9214 0.9214
3419.000000 0.9214 0.9215 0.9215 0.9215 0.9215
3424.000000 0.9215 0.9216 0.9216 0.9216 0.9217
3429.000000 0.9217 0.9218 0.9218 0.9218 0.9218
3434.000000 0.9218 0.9219 0.9220 0.9220 0.9221
3439.000000 0.9222 0.9223 0.9223 0.9224 0.9225
3444.000000 0.9226 0.9227 0.9228 0.9229 0.9230
3449.000000 0.9231 0.9232 0.9233 0.9234 0.9234
3454.000000 0.9235 0.9236 0.9237 0.9238 0.9239
3459.000000 0.9240 0.9241 0.9242 0.9243 0.9244
3464.000000 0.9245 0.9245 0.9246 0.9247 0.9248
3469.000000 0.9249 0.9250 0.9250 0.9251 0.9254
3474.000000 0.9257 0.9260 0.9262 0.9265 0.9268
3479.000000 0.9271 0.9273 0.9276 0.9279 0.9282
3484.000000 0.9285 0.9287 0.9290 0.9293 0.9296
3489.000000 0.9299 0.9302 0.9305 0.9308 0.9310
3494.000000 0.9313 0.9315 0.9318 0.9320 0.9322
3499.000000 0.9324 0.9325 0.9327 0.9328 0.9330
3504.000000 0.9332 0.9333 0.9335 0.9337 0.9338
3509.000000 0.9340 0.9341 0.9343 0.9345 0.9346
3514.000000 0.9348 0.9350 0.9351 0.9352 0.9353
3519.000000 0.9354 0.9355 0.9356 0.9357 0.9357
3524.000000 0.9357 0.9357 0.9357 0.9357 0.9357
3529.000000 0.9357 0.9357 0.9357 0.9357 0.9357
3534.000000 0.9357 0.9357 0.9357 0.9357 0.9357
3539.000000 0.9357 0.9357 0.9357 0.9357 0.9357
3544.000000 0.9357 0.9357 0.9357 0.9356 0.9356
3549.000000 0.9356 0.9356 0.9356 0.9355 0.9355
3554.000000 0.9355 0.9355 0.9355 0.9354 0.9354
3559.000000 0.9354 0.9354 0.9354 0.9353 0.9353
3564.000000 0.9353 0.9353 0.9353 0.9352 0.9352
3569.000000 0.9352 0.9352 0.9352 0.9351 0.9351
3574.000000 0.9350 0.9350 0.9350 0.9349 0.9349
3579.000000 0.9349 0.9349 0.9349 0.9348 0.9348
3584.000000 0.9348 0.9348 0.9348 0.9347 0.9347
3589.000000 0.9347 0.9347 0.9347 0.9347 0.9347
3594.000000 0.9347 0.9347 0.9347 0.9347 0.9347
3599.000000 0.9347 0.9347 0.9347 0.9347 0.9347
3604.000000 0.9347 0.9347 0.9347 0.9347 0.9347
3609.000000 0.9347 0.9347 0.9347 0.9347 0.9347
3614.000000 0.9347 0.9347 0.9347 0.9347 0.9347
3619.000000 0.9347 0.9347 0.9347 0.9347 0.9347
3624.000000 0.9347 0.9347 0.9347 0.9347 0.9347
3629.000000 0.9347 0.9347 0.9347 0.9347 0.9347
3634.000000 0.9348 0.9348 0.9348 0.9348 0.9348
3639.000000 0.9348 0.9348 0.9348 0.9348 0.9348
3644.000000 0.9348 0.9348 0.9348 0.9348 0.9348
3649.000000 0.9348 0.9348 0.9348 0.9348 0.9348
3654.000000 0.9348 0.9348 0.9348 0.9348 0.9348
3659.000000 0.9348 0.9348 0.9348 0.9348 0.9348
3664.000000 0.9348 0.9348 0.9348 0.9348 0.9348
3669.000000 0.9348 0.9348 0.9348 0.9348 0.9348
3674.000000 0.9348 0.9348 0.9348 0.9348 0.9348
3679.000000 0.9348 0.9348 0.9348 0.9348 0.9348
3684.000000 0.9348 0.9348 0.9348 0.9348 0.9348
3689.000000 0.9348 0.9348 0.9348 0.9348 0.9348
3694.000000 0.9348 0.9348 0.9348 0.9348 0.9348
3699.000000 0.9348 0.9348 0.9348 0.9348 0.9348
3704.000000 0.9348 0.9348 0.9348 0.9348 0.9348
3709.000000 0.9348 0.9348 0.9348 0.9348 0.9348
3714.000000 0.9348 0.9348 0.9348 0.9348 0.9348
3719.000000 0.9348 0.9348 0.9348 0.9348 0.9348
3724.000000 0.9348 0.9348 0.9348 0.9348 0.9348
3729.000000 0.9348 0.9348 0.9348 0.9347 0.9347
3734.000000 0.9347 0.9347 0.9347 0.9347 0.9347
3739.000000 0.9347 0.9347 0.9347 0.9347 0.9347
3744.000000 0.9347 0.9347 0.9347 0.9347 0.9347
3749.000000 0.9347 0.9347 0.9347 0.9347 0.9347
3754.000000 0.9347 0.9347 0.9347 0.9347 0.9347
3759.000000 0.9347 0.9347 0.9347 0.9347 0.9347
3764.000000 0.9347 0.9347 0.9347 0.9347 0.9347
3769.000000 0.9347 0.9347 0.9347 0.9347 0.9347
3774.000000 0.9347 0.9347 0.9347 0.9347 0.9347
3779.000000 0.9347 0.9347 0.9347 0.9347 0.9346
3784.000000 0.9346 0.9346 0.9346 0.9346 0.9346
3789.000000 0.9346 0.9346 0.9346 0.9346 0.9346
3794.000000 0.9346 0.9346 0.9346 0.9346 0.9346
3799.000000 0.9346 0.9346 0.9346 0.9346 0.9346
3804.000000 0.9346 0.9346 0.9346 0.9346 0.9346
3809.000000 0.9346 0.9346 0.9346 0.9346 0.9346
3814.000000 0.9346 0.9346 0.9346 0.9346 0.9346
3819.000000 0.9346 0.9346 0.9346 0.9346 0.9346
3824.000000 0.9346 0.9346 0.9346 0.9346 0.9346
3829.000000 0.9346 0.9346 0.9346 0.9346 0.9346
3834.000000 0.9346 0.9346 0.9346 0.9346 0.9346
3839.000000 0.9346 0.9346 0.9346 0.9346 0.9346
3844.000000 0.9346 0.9346 0.9346 0.9346 0.9346
3849.000000 0.9346 0.9346 0.9346 0.9346 0.9346
3854.000000 0.9346 0.9346 0.9346 0.9346 0.9346
3859.000000 0.9346 0.9346 0.9346 0.9346 0.9346
3864.000000 0.9346 0.9346 0.9346 0.9346 0.9346
3869.000000 0.9346 0.9346 0.9346 0.9346 0.9346
3874.000000 0.9346 0.9346 0.9347 0.9347 0.9347
3879.000000 0.9347 0.9347 0.9347 0.9347 0.9347
3884.000000 0.9347 0.9347 0.9347 0.9347 0.9347
3889.000000 0.9347 0.9347 0.9347 0.9347 0.9347
3894.000000 0.9347 0.9347 0.9347 0.9347 0.9347
3899.000000 0.9347 0.9347 0.9347 0.9347 0.9347
3904.000000 0.9347 0.9347 0.9347 0.9347 0.9347
3909.000000 0.9347 0.9347 0.9347 0.9347 0.9348
3914.000000 0.9348 0.9348 0.9348 0.9348 0.9348
3919.000000 0.9349 0.9349 0.9349 0.9349 0.9349
3924.000000 0.9349 0.9350 0.9350 0.9350 0.9350
3929.000000 0.9350 0.9350 0.9351 0.9351 0.9351
3934.000000 0.9351 0.9351 0.9351 0.9351 0.9352
3939.000000 0.9352 0.9352 0.9352 0.9352 0.9352
3944.000000 0.9353 0.9353 0.9353 0.9353 0.9353
3949.000000 0.9353 0.9354 0.9354 0.9354 0.9355
3954.000000 0.9355 0.9355 0.9356 0.9356 0.9356
3959.000000 0.9356 0.9356 0.9356 0.9357 0.9357
3964.000000 0.9357 0.9357 0.9357 0.9357 0.9357
3969.000000 0.9358 0.9358 0.9358 0.9358 0.9358
3974.000000 0.9358 0.9359 0.9359 0.9359 0.9359
3979.000000 0.9359 0.9359 0.9360 0.9360 0.9360
3984.000000 0.9360 0.9360 0.9360 0.9360 0.9361
3989.000000 0.9361 0.9361 0.9361 0.9361 0.9361
3994.000000 0.9362 0.9362 0.9362 0.9362 0.9362
3999.000000 0.9362 0.9362
##END=
