##TITLE=10-METHOXY-14-METHYL-5-OXO-5,7,8,14-TETRAHYDROINDOLO[2,3-c]-QUINAZO-[3,2-a]-PYRIDINE TARTRATE SESQUIHYDRATE
##JCAMP-DX=4.24
##DATA TYPE=INFRARED SPECTRUM
##CLASS=COBLENTZ III
##ORIGIN=SMITH KLINE & FRENCH LABS.
##OWNER=COBLENTZ SOCIETY
Collection (C) 2018 copyright by the U.S. Secretary of Commerce
on behalf of the United States of America. All rights reserved.
##DATE=1959/09/16
##MOLFORM=C24 H23 N3 O8
##SOURCE REFERENCE=COBLENTZ NO. 9128
##$NIST ID=B6009128
##$NIST SOURCE=COBLENTZ
##$NIST IMAGE=cob9128
##SPECTROMETER/DATA SYSTEM=Not specified, most likely a prism spectrometer.
##INSTRUMENT PARAMETERS=NaCl PRISM
##STATE=SOLID (OIL MULL)
$$SPECTRAL CONTAMINATION DUE TO OIL AROUND 2900, 1380 CM^-^1
##SAMPLING PROCEDURE=TRANSMISSION
##RESOLUTION=2
##DATA PROCESSING=DIGITIZED BY NIST FROM HARD COPY
##XUNITS=MICROMETERS
##YUNITS=TRANSMITTANCE
##XFACTOR=1.000000
##YFACTOR=1
##DELTAX=000.004892
##FIRSTX=2.017
##LASTX=15.1368
##FIRSTY=0.259
##MAXX=15.1368
##MINX=2.017
##MAXY=0.84
##MINY=0.032
##NPOINTS=2683
##XYDATA=(X++(Y..Y))
2.017000 0.2590 0.2590 0.2600 0.2620 0.2620
2.041469 0.2630 0.2630 0.2640 0.2650 0.2650
2.066000 0.2650 0.2660 0.2680 0.2710 0.2780
2.090469 0.2800 0.2820 0.2830 0.2860 0.2870
2.115000 0.2890 0.2920 0.2940 0.2970 0.2990
2.139469 0.3010 0.3030 0.3060 0.3070 0.3100
2.163000 0.3100 0.3110 0.3120 0.3140 0.3160
2.187469 0.3170 0.3180 0.3200 0.3210 0.3230
2.212000 0.3290 0.3300 0.3320 0.3340 0.3350
2.236469 0.3380 0.3390 0.3400 0.3420 0.3450
2.261000 0.3490 0.3510 0.3520 0.3520 0.3530
2.285469 0.3550 0.3550 0.3550 0.3550 0.3550
2.310000 0.3550 0.3560 0.3560 0.3570 0.3590
2.334469 0.3620 0.3640 0.3650 0.3680 0.3690
2.359000 0.3700 0.3710 0.3730 0.3750 0.3780
2.383469 0.3780 0.3790 0.3800 0.3870 0.3910
2.408000 0.3920 0.3930 0.3940 0.3970 0.3990
2.432469 0.3990 0.4000 0.4000 0.4020 0.4050
2.457000 0.4090 0.4130 0.4140 0.4140 0.4140
2.481469 0.4150 0.4190 0.4230 0.4260 0.4280
2.506000 0.4310 0.4320 0.4340 0.4380 0.4400
2.530469 0.4430 0.4440 0.4450 0.4460 0.4480
2.555000 0.4490 0.4510 0.4520 0.4540 0.4550
2.579469 0.4560 0.4570 0.4580 0.4600 0.4620
2.604000 0.4670 0.4720 0.4770 0.4790 0.4800
2.628469 0.4810 0.4830 0.4850 0.4870 0.4890
2.653000 0.4890 0.4890 0.4890 0.4910 0.4910
2.677469 0.4930 0.4980 0.5010 0.5030 0.5070
2.702000 0.5120 0.5140 0.5140 0.5150 0.5160
2.726469 0.5180 0.5190 0.5200 0.5210 0.5240
2.751000 0.5280 0.5330 0.5350 0.5380 0.5390
2.775469 0.5410 0.5420 0.5420 0.5430 0.5430
2.799000 0.5440 0.5440 0.5410 0.5380 0.5370
2.823469 0.5330 0.5310 0.5270 0.5260 0.5200
2.848000 0.5150 0.5140 0.5080 0.5060 0.4870
2.872469 0.4770 0.4670 0.4580 0.4490 0.4400
2.897000 0.4310 0.4200 0.4080 0.3930 0.3790
2.921469 0.3550 0.3500 0.3420 0.3350 0.3350
2.946000 0.3350 0.3360 0.3380 0.3390 0.3400
2.970469 0.3400 0.3400 0.3400 0.3400 0.3400
2.995000 0.3400 0.3380 0.3400 0.3500 0.3590
3.019469 0.3630 0.3670 0.3710 0.3790 0.3850
3.044000 0.3920 0.3980 0.4030 0.4070 0.4090
3.068469 0.4100 0.4140 0.4160 0.4200 0.4210
3.093000 0.4220 0.4230 0.4230 0.4250 0.4250
3.117469 0.4250 0.4250 0.4250 0.4230 0.4220
3.142000 0.4210 0.4170 0.4130 0.4050 0.4000
3.166469 0.3990 0.3990 0.3990 0.3980 0.3980
3.191000 0.3980 0.3970 0.3970 0.3960 0.3960
3.215469 0.3940 0.3930 0.3930 0.3920 0.3920
3.240000 0.3910 0.3900 0.3880 0.3870 0.3860
3.264469 0.3860 0.3850 0.3850 0.3840 0.3810
3.289000 0.3800 0.3780 0.3780 0.3750 0.3740
3.313469 0.3740 0.3730 0.3700 0.3700 0.3690
3.338000 0.3680 0.3630 0.3620 0.3580 0.3520
3.362469 0.3410 0.3260 0.3040 0.2740 0.2580
3.386000 0.2390 0.2140 0.1900 0.1640 0.1370
3.410469 0.1110 0.0850 0.0620 0.0420 0.0410
3.435000 0.0390 0.0380 0.0370 0.0360 0.0350
3.459469 0.0330 0.0330 0.0320 0.0320 0.0320
3.484000 0.0320 0.0320 0.0320 0.0350 0.0430
3.508469 0.0490 0.0530 0.0530 0.0540 0.0540
3.533000 0.0550 0.0550 0.0570 0.0710 0.0950
3.557469 0.1300 0.1730 0.2250 0.2830 0.3470
3.582000 0.4100 0.4500 0.4770 0.4930 0.5020
3.606469 0.5100 0.5320 0.5350 0.5390 0.5480
3.631000 0.5560 0.5650 0.5730 0.5740 0.5780
3.655469 0.5820 0.5850 0.5890 0.5910 0.5950
3.680000 0.5990 0.6020 0.6070 0.6070 0.6070
3.704469 0.6070 0.6070 0.6070 0.6060 0.6060
3.729000 0.6060 0.6070 0.6090 0.6110 0.6120
3.753469 0.6130 0.6150 0.6170 0.6180 0.6190
3.778000 0.6210 0.6230 0.6240 0.6240 0.6280
3.802469 0.6310 0.6350 0.6380 0.6420 0.6440
3.827000 0.6470 0.6490 0.6500 0.6530 0.6540
3.851469 0.6550 0.6570 0.6580 0.6590 0.6600
3.876000 0.6610 0.6630 0.6640 0.6660 0.6690
3.900469 0.6720 0.6770 0.6780 0.6790 0.6810
3.925000 0.6820 0.6830 0.6850 0.6880 0.6900
3.949469 0.6930 0.6940 0.6950 0.6960 0.6980
3.974000 0.6990 0.7010 0.7040 0.7050 0.7060
3.998469 0.7070 0.7100 0.7120 0.7140 0.7170
4.022000 0.7190 0.7210 0.7210 0.7210 0.7220
4.046469 0.7220 0.7220 0.7220 0.7220 0.7220
4.071000 0.7240 0.7270 0.7290 0.7300 0.7310
4.095469 0.7330 0.7340 0.7350 0.7360 0.7360
4.120000 0.7370 0.7370 0.7370 0.7370 0.7390
4.144469 0.7390 0.7390 0.7390 0.7390 0.7400
4.169000 0.7410 0.7410 0.7420 0.7420 0.7430
4.193469 0.7430 0.7430 0.7460 0.7460 0.7500
4.218000 0.7520 0.7520 0.7520 0.7540 0.7540
4.242469 0.7540 0.7540 0.7540 0.7540 0.7540
4.267000 0.7560 0.7570 0.7580 0.7590 0.7620
4.291469 0.7640 0.7660 0.7680 0.7700 0.7700
4.316000 0.7700 0.7700 0.7700 0.7700 0.7650
4.340469 0.7650 0.7660 0.7700 0.7740 0.7750
4.365000 0.7770 0.7780 0.7810 0.7820 0.7850
4.389469 0.7860 0.7890 0.7920 0.7930 0.7930
4.414000 0.7940 0.7940 0.7950 0.7950 0.7970
4.438469 0.7970 0.7980 0.7980 0.7990 0.7990
4.463000 0.8000 0.8000 0.8010 0.8010 0.8030
4.487469 0.8040 0.8050 0.8050 0.8050 0.8050
4.512000 0.8030 0.8040 0.8040 0.8040 0.8040
4.536469 0.8040 0.8050 0.8060 0.8060 0.8060
4.561000 0.8070 0.8070 0.8070 0.8090 0.8090
4.585469 0.8090 0.8100 0.8110 0.8140 0.8160
4.609000 0.8170 0.8180 0.8200 0.8200 0.8200
4.633469 0.8200 0.8200 0.8200 0.8200 0.8200
4.658000 0.8210 0.8210 0.8230 0.8240 0.8260
4.682469 0.8270 0.8290 0.8290 0.8290 0.8300
4.707000 0.8300 0.8300 0.8320 0.8320 0.8320
4.731469 0.8320 0.8330 0.8330 0.8330 0.8330
4.756000 0.8330 0.8330 0.8330 0.8330 0.8340
4.780469 0.8350 0.8350 0.8360 0.8360 0.8360
4.805000 0.8360 0.8380 0.8380 0.8390 0.8390
4.829469 0.8400 0.8400 0.8400 0.8400 0.8400
4.854000 0.8400 0.8400 0.8400 0.8400 0.8400
4.878469 0.8400 0.8400 0.8390 0.8390 0.8390
4.903000 0.8390 0.8380 0.8380 0.8360 0.8360
4.927469 0.8360 0.8350 0.8330 0.8330 0.8320
4.952000 0.8300 0.8290 0.8290 0.8290 0.8290
4.976469 0.8290 0.8290 0.8300 0.8320 0.8340
5.001000 0.8350 0.8350 0.8350 0.8350 0.8350
5.025469 0.8350 0.8340 0.8340 0.8340 0.8340
5.050000 0.8340 0.8340 0.8340 0.8340 0.8340
5.074469 0.8340 0.8340 0.8340 0.8340 0.8340
5.099000 0.8340 0.8340 0.8340 0.8340 0.8340
5.123469 0.8340 0.8340 0.8340 0.8340 0.8340
5.148000 0.8340 0.8340 0.8330 0.8330 0.8330
5.172469 0.8320 0.8300 0.8290 0.8280 0.8270
5.196000 0.8260 0.8240 0.8230 0.8230 0.8220
5.220469 0.8210 0.8200 0.8200 0.8200 0.8200
5.245000 0.8200 0.8200 0.8180 0.8180 0.8180
5.269469 0.8180 0.8200 0.8200 0.8200 0.8200
5.294000 0.8200 0.8210 0.8220 0.8230 0.8230
5.318469 0.8240 0.8240 0.8260 0.8270 0.8270
5.343000 0.8280 0.8280 0.8280 0.8280 0.8280
5.367469 0.8270 0.8270 0.8260 0.8260 0.8240
5.392000 0.8240 0.8230 0.8230 0.8220 0.8220
5.416469 0.8210 0.8210 0.8180 0.8170 0.8170
5.441000 0.8160 0.8160 0.8150 0.8150 0.8140
5.465469 0.8100 0.8090 0.8070 0.8070 0.8060
5.490000 0.8060 0.8060 0.8050 0.8050 0.8040
5.514469 0.8040 0.8030 0.8010 0.7990 0.7980
5.539000 0.7940 0.7910 0.7860 0.7810 0.7740
5.563469 0.7720 0.7720 0.7720 0.7700 0.7690
5.588000 0.7650 0.7630 0.7590 0.7560 0.7520
5.612469 0.7500 0.7460 0.7430 0.7420 0.7400
5.637000 0.7370 0.7330 0.7280 0.7210 0.7140
5.661469 0.7070 0.7000 0.6920 0.6850 0.6780
5.686000 0.6720 0.6660 0.6590 0.6530 0.6460
5.710469 0.6400 0.6320 0.6260 0.6200 0.6130
5.735000 0.6070 0.6000 0.5940 0.5860 0.5790
5.759469 0.5720 0.5640 0.5550 0.5470 0.5370
5.784000 0.5270 0.5180 0.5060 0.4810 0.4680
5.808469 0.4540 0.4480 0.4370 0.4210 0.4020
5.832000 0.3810 0.3580 0.3350 0.3110 0.2890
5.856469 0.2690 0.2510 0.2360 0.2250 0.2220
5.881000 0.2210 0.2210 0.2210 0.2210 0.2220
5.905469 0.2280 0.2340 0.2400 0.2430 0.2640
5.930000 0.2760 0.2940 0.3160 0.3230 0.3520
5.954469 0.3590 0.3690 0.3730 0.3740 0.3750
5.979000 0.3790 0.3810 0.3840 0.3860 0.3880
6.003469 0.3910 0.3960 0.4000 0.4020 0.4040
6.028000 0.4070 0.4110 0.4160 0.4210 0.4270
6.052469 0.4330 0.4400 0.4490 0.4580 0.4680
6.077000 0.4800 0.4930 0.5080 0.5220 0.5350
6.101469 0.5380 0.5410 0.5440 0.5470 0.5480
6.126000 0.5490 0.5500 0.5510 0.5510 0.5510
6.150469 0.5510 0.5500 0.5390 0.5310 0.5220
6.175000 0.5210 0.5210 0.5210 0.5160 0.4260
6.199469 0.4070 0.3850 0.3840 0.3860 0.4140
6.224000 0.4380 0.4660 0.4830 0.4960 0.5080
6.248469 0.5330 0.5590 0.5840 0.6080 0.6290
6.273000 0.6470 0.6600 0.6670 0.6790 0.6830
6.297469 0.6920 0.6950 0.6980 0.7000 0.7020
6.322000 0.7060 0.7080 0.7110 0.7100 0.7080
6.346469 0.7060 0.7000 0.6950 0.6890 0.6780
6.371000 0.6650 0.6520 0.6380 0.6250 0.6130
6.395469 0.6120 0.5730 0.5490 0.5310 0.4400
6.419000 0.3910 0.3550 0.2970 0.2400 0.2400
6.443469 0.2040 0.1950 0.1940 0.1890 0.1880
6.468000 0.1810 0.1770 0.1720 0.1710 0.1700
6.492469 0.1710 0.1730 0.2020 0.2270 0.2520
6.517000 0.2760 0.3010 0.4270 0.4890 0.5180
6.541469 0.5470 0.5490 0.5500 0.5510 0.5510
6.566000 0.5500 0.5490 0.5450 0.5220 0.5090
6.590469 0.4780 0.4450 0.3910 0.3060 0.1830
6.615000 0.1790 0.1730 0.1660 0.1600 0.1530
6.639469 0.1520 0.1520 0.1520 0.1530 0.1640
6.664000 0.1760 0.1870 0.1990 0.2070 0.2520
6.688469 0.2910 0.3270 0.3560 0.3740 0.3780
6.713000 0.3780 0.3780 0.3750 0.3740 0.3700
6.737469 0.3650 0.3570 0.3460 0.3420 0.3410
6.762000 0.3410 0.3410 0.3410 0.3410 0.3400
6.786469 0.3390 0.3340 0.3240 0.3060 0.3000
6.811000 0.2770 0.2480 0.2190 0.2000 0.1980
6.835469 0.1920 0.1840 0.1770 0.1710 0.1640
6.860000 0.1570 0.1480 0.1400 0.1300 0.1180
6.884469 0.1110 0.1090 0.1110 0.1150 0.1250
6.909000 0.1380 0.1780 0.1950 0.2000 0.2110
6.933469 0.2110 0.2100 0.2050 0.2040 0.2010
6.958000 0.2000 0.1990 0.1990 0.1990 0.1990
6.982469 0.2010 0.2160 0.2310 0.2390 0.2470
7.007000 0.2510 0.2540 0.2540 0.2540 0.2560
7.031469 0.2570 0.2570 0.2580 0.2660 0.2750
7.055000 0.2920 0.3100 0.3290 0.3510 0.3730
7.079469 0.3970 0.4200 0.4430 0.4660 0.4720
7.104000 0.4830 0.4930 0.5040 0.5200 0.5320
7.128469 0.5410 0.5480 0.5510 0.5550 0.5610
7.153000 0.5700 0.5760 0.5820 0.5840 0.5900
7.177469 0.5910 0.5920 0.5950 0.5950 0.5950
7.202000 0.5790 0.5650 0.5440 0.5220 0.5010
7.226469 0.4570 0.4350 0.4140 0.4020 0.3880
7.251000 0.3760 0.3630 0.3490 0.3360 0.3230
7.275469 0.3070 0.2980 0.2980 0.3000 0.3200
7.300000 0.3300 0.3410 0.3530 0.3840 0.4110
7.324469 0.4130 0.4130 0.4140 0.4150 0.4160
7.349000 0.4190 0.4210 0.4250 0.4330 0.4390
7.373469 0.4460 0.4540 0.4630 0.4680 0.4730
7.398000 0.4780 0.4830 0.4840 0.4930 0.4980
7.422469 0.5020 0.5070 0.5090 0.5130 0.5120
7.447000 0.5100 0.5080 0.5040 0.4900 0.4770
7.471469 0.4680 0.4600 0.4510 0.4480 0.4440
7.496000 0.4440 0.4440 0.4450 0.4580 0.4660
7.520469 0.4770 0.4850 0.4920 0.4970 0.5000
7.545000 0.5010 0.4900 0.4890 0.4830 0.4720
7.569469 0.4570 0.4390 0.4200 0.3980 0.3740
7.594000 0.3490 0.3230 0.2980 0.2740 0.2500
7.618469 0.2270 0.2220 0.2190 0.2180 0.2190
7.642000 0.2400 0.2570 0.2750 0.2910 0.3060
7.666469 0.3220 0.3400 0.3610 0.3760 0.3860
7.691000 0.3920 0.3930 0.3940 0.3940 0.3940
7.715469 0.3930 0.3910 0.3900 0.3910 0.3980
7.740000 0.4070 0.4130 0.4210 0.4270 0.4320
7.764469 0.4380 0.4500 0.4670 0.4740 0.4750
7.789000 0.4750 0.4750 0.4750 0.4740 0.4730
7.813469 0.4720 0.4710 0.4640 0.4610 0.4570
7.838000 0.4540 0.4500 0.4490 0.4440 0.4330
7.862469 0.4220 0.4130 0.4000 0.3880 0.3740
7.887000 0.3700 0.3700 0.3700 0.3700 0.3700
7.911469 0.3700 0.3750 0.3820 0.3820 0.3820
7.936000 0.3820 0.3800 0.3640 0.3560 0.3460
7.960469 0.3350 0.3240 0.3160 0.3120 0.3120
7.985000 0.3120 0.3140 0.3400 0.3500 0.3580
8.009469 0.3990 0.4350 0.4450 0.4500 0.4550
8.034000 0.4600 0.4640 0.4680 0.4690 0.4690
8.058469 0.4690 0.4690 0.4680 0.4660 0.4640
8.083000 0.4630 0.4620 0.4620 0.4620 0.4620
8.107469 0.4640 0.4660 0.4670 0.4680 0.4690
8.132000 0.4690 0.4690 0.4690 0.4680 0.4660
8.156469 0.4560 0.4430 0.4280 0.4110 0.3930
8.181000 0.3740 0.3530 0.3300 0.3070 0.2830
8.205469 0.2590 0.2340 0.2080 0.2000 0.1890
8.230000 0.1780 0.1650 0.1490 0.1300 0.1120
8.254469 0.0940 0.0860 0.0790 0.0780 0.0780
8.278000 0.0780 0.0800 0.0890 0.0910 0.1030
8.302469 0.1410 0.1810 0.2100 0.2310 0.2510
8.327000 0.2680 0.2880 0.3120 0.3450 0.3670
8.351469 0.3860 0.4020 0.4140 0.4250 0.4330
8.376000 0.4400 0.4450 0.4500 0.4540 0.4560
8.400469 0.4600 0.4620 0.4660 0.4710 0.4750
8.425000 0.4770 0.4790 0.4790 0.4790 0.4790
8.449469 0.4790 0.4780 0.4770 0.4750 0.4750
8.474000 0.4750 0.4770 0.4800 0.4830 0.4870
8.498469 0.4920 0.4950 0.4970 0.5010 0.5040
8.523000 0.5060 0.5060 0.5040 0.5010 0.4980
8.547469 0.4950 0.4920 0.4890 0.4870 0.4870
8.572000 0.4870 0.4890 0.4930 0.4970 0.5010
8.596469 0.5130 0.5190 0.5250 0.5330 0.5420
8.621000 0.5510 0.5610 0.5680 0.5760 0.5830
8.645469 0.5880 0.5950 0.5990 0.6080 0.6110
8.670000 0.6120 0.6120 0.6120 0.6120 0.6120
8.694469 0.6120 0.6090 0.6080 0.6030 0.5990
8.719000 0.5920 0.5850 0.5800 0.5740 0.5700
8.743469 0.5640 0.5550 0.5440 0.5300 0.5100
8.768000 0.4860 0.4730 0.4600 0.4460 0.4340
8.792469 0.4220 0.4130 0.4030 0.3960 0.3930
8.817000 0.3930 0.3910 0.3910 0.3880 0.3880
8.841469 0.3870 0.3860 0.3860 0.3850 0.3840
8.865000 0.3840 0.3820 0.3810 0.3790 0.3750
8.889469 0.3730 0.3690 0.3680 0.3670 0.3680
8.914000 0.3690 0.3710 0.3840 0.3910 0.3920
8.938469 0.3940 0.3960 0.3970 0.4020 0.4090
8.963000 0.4230 0.4450 0.4560 0.4660 0.4780
8.987469 0.4920 0.5010 0.5080 0.5270 0.5490
9.012000 0.5500 0.5490 0.5490 0.5470 0.5440
9.036469 0.5440 0.5420 0.5410 0.5380 0.5350
9.061000 0.5280 0.5220 0.5140 0.5040 0.4830
9.085469 0.4720 0.4580 0.4500 0.4480 0.4450
9.110000 0.4450 0.4450 0.4450 0.4450 0.4480
9.134469 0.4580 0.4690 0.4810 0.4920 0.4970
9.159000 0.5020 0.5070 0.5090 0.5150 0.5180
9.183469 0.5190 0.5190 0.5190 0.5160 0.5100
9.208000 0.5040 0.5020 0.4900 0.4840 0.4810
9.232469 0.4780 0.4780 0.4770 0.4750 0.4750
9.257000 0.4750 0.4730 0.4730 0.4740 0.4740
9.281469 0.4740 0.4750 0.4770 0.4770 0.4780
9.306000 0.4790 0.4810 0.4830 0.4850 0.4860
9.330469 0.4890 0.4900 0.4970 0.5030 0.5090
9.355000 0.5090 0.5200 0.5260 0.5320 0.5390
9.379469 0.5470 0.5560 0.5650 0.5730 0.5800
9.404000 0.5880 0.5940 0.5990 0.6010 0.6050
9.428469 0.6090 0.6170 0.6200 0.6230 0.6250
9.453000 0.6290 0.6290 0.6290 0.6260 0.6230
9.477469 0.6190 0.6140 0.6110 0.6070 0.6030
9.501000 0.6000 0.5960 0.5920 0.5890 0.5850
9.525469 0.5820 0.5780 0.5740 0.5730 0.5700
9.550000 0.5640 0.5570 0.5510 0.5500 0.5500
9.574469 0.5500 0.5500 0.5510 0.5640 0.5730
9.599000 0.5840 0.5940 0.6030 0.6130 0.6210
9.623469 0.6290 0.6310 0.6320 0.6320 0.6320
9.648000 0.6340 0.6340 0.6340 0.6340 0.6340
9.672469 0.6340 0.6340 0.6340 0.6350 0.6360
9.697000 0.6370 0.6380 0.6410 0.6430 0.6460
9.721469 0.6470 0.6470 0.6470 0.6470 0.6470
9.746000 0.6470 0.6470 0.6370 0.6320 0.6280
9.770469 0.6230 0.6180 0.6120 0.6070 0.6010
9.795000 0.5950 0.5890 0.5820 0.5760 0.5680
9.819469 0.5610 0.5540 0.5480 0.5470 0.5470
9.844000 0.5470 0.5470 0.5470 0.5470 0.5450
9.868469 0.5450 0.5450 0.5470 0.5470 0.5480
9.893000 0.5490 0.5510 0.5540 0.5570 0.5610
9.917469 0.5650 0.5700 0.5740 0.5780 0.5800
9.942000 0.5840 0.5850 0.5890 0.5910 0.5950
9.966469 0.5990 0.6000 0.6000 0.6030 0.6050
9.991000 0.6060 0.6070 0.6080 0.6090 0.6110
10.015469 0.6130 0.6180 0.6230 0.6290 0.6340
10.040000 0.6380 0.6410 0.6430 0.6440 0.6470
10.064469 0.6490 0.6530 0.6550 0.6580 0.6600
10.088000 0.6630 0.6640 0.6650 0.6670 0.6690
10.112469 0.6700 0.6720 0.6750 0.6760 0.6770
10.137000 0.6780 0.6780 0.6780 0.6780 0.6780
10.161469 0.6780 0.6780 0.6780 0.6780 0.6780
10.186000 0.6780 0.6770 0.6770 0.6760 0.6760
10.210469 0.6750 0.6710 0.6690 0.6660 0.6650
10.235000 0.6630 0.6600 0.6590 0.6570 0.6550
10.259469 0.6530 0.6520 0.6520 0.6520 0.6520
10.284000 0.6520 0.6520 0.6520 0.6520 0.6520
10.308469 0.6520 0.6520 0.6540 0.6590 0.6600
10.333000 0.6650 0.6690 0.6690 0.6700 0.6700
10.357469 0.6700 0.6700 0.6710 0.6710 0.6710
10.382000 0.6720 0.6720 0.6730 0.6750 0.6750
10.406469 0.6760 0.6760 0.6760 0.6760 0.6760
10.431000 0.6750 0.6730 0.6730 0.6720 0.6720
10.455469 0.6710 0.6700 0.6700 0.6700 0.6710
10.480000 0.6710 0.6710 0.6720 0.6720 0.6720
10.504469 0.6730 0.6750 0.6760 0.6770 0.6770
10.529000 0.6770 0.6780 0.6790 0.6810 0.6780
10.553469 0.6780 0.6770 0.6790 0.6810 0.6850
10.578000 0.6890 0.6890 0.6880 0.6850 0.6840
10.602469 0.6840 0.6830 0.6840 0.6850 0.6870
10.627000 0.6870 0.6880 0.6880 0.6890 0.6890
10.651469 0.6890 0.6890 0.6890 0.6890 0.6900
10.675000 0.6900 0.6900 0.6900 0.6930 0.6930
10.699469 0.6940 0.6950 0.6950 0.6950 0.6950
10.724000 0.6940 0.6930 0.6920 0.6920 0.6900
10.748469 0.6890 0.6900 0.6900 0.6920 0.6920
10.773000 0.6920 0.6930 0.6930 0.6930 0.6930
10.797469 0.6930 0.6950 0.6960 0.6960 0.6980
10.822000 0.6980 0.6990 0.7010 0.7020 0.7040
10.846469 0.7050 0.7060 0.7080 0.7120 0.7130
10.871000 0.7130 0.7130 0.7100 0.7100 0.7100
10.895469 0.7110 0.7170 0.7180 0.7190 0.7220
10.920000 0.7230 0.7230 0.7240 0.7240 0.7250
10.944469 0.7270 0.7270 0.7280 0.7280 0.7290
10.969000 0.7290 0.7290 0.7290 0.7290 0.7290
10.993469 0.7290 0.7290 0.7280 0.7280 0.7250
11.018000 0.7230 0.7220 0.7210 0.7180 0.7160
11.042469 0.7160 0.7130 0.7110 0.7080 0.7060
11.067000 0.7020 0.6990 0.6940 0.6880 0.6790
11.091469 0.6700 0.6690 0.6590 0.6580 0.6550
11.116000 0.6530 0.6480 0.6410 0.6290 0.6120
11.140469 0.6030 0.6000 0.5900 0.5790 0.5680
11.165000 0.5660 0.5660 0.5660 0.5660 0.5660
11.189469 0.5660 0.5670 0.5670 0.5670 0.5680
11.214000 0.5680 0.5700 0.5700 0.5710 0.5710
11.238469 0.5720 0.5720 0.5730 0.5730 0.5760
11.263000 0.5760 0.5770 0.5780 0.5790 0.5800
11.287469 0.5820 0.5830 0.5850 0.5880 0.5900
11.311000 0.5920 0.5960 0.6000 0.6050 0.6090
11.335469 0.6090 0.6110 0.6120 0.6140 0.6150
11.360000 0.6180 0.6200 0.6230 0.6240 0.6240
11.384469 0.6250 0.6250 0.6250 0.6250 0.6250
11.409000 0.6250 0.6250 0.6250 0.6260 0.6280
11.433469 0.6280 0.6290 0.6290 0.6290 0.6290
11.458000 0.6290 0.6280 0.6260 0.6260 0.6250
11.482469 0.6250 0.6250 0.6260 0.6260 0.6280
11.507000 0.6300 0.6310 0.6320 0.6320 0.6340
11.531469 0.6340 0.6340 0.6340 0.6340 0.6340
11.556000 0.6340 0.6340 0.6340 0.6340 0.6340
11.580469 0.6320 0.6320 0.6320 0.6320 0.6310
11.605000 0.6310 0.6310 0.6300 0.6290 0.6290
11.629469 0.6280 0.6260 0.6240 0.6210 0.6180
11.654000 0.6170 0.6150 0.6130 0.6090 0.6050
11.678469 0.6000 0.5950 0.5900 0.5830 0.5740
11.703000 0.5720 0.5680 0.5660 0.5640 0.5640
11.727469 0.5620 0.5610 0.5610 0.5600 0.5600
11.752000 0.5600 0.5600 0.5600 0.5610 0.5610
11.776469 0.5640 0.5650 0.5660 0.5680 0.5710
11.801000 0.5740 0.5770 0.5790 0.5790 0.5790
11.825469 0.5800 0.5820 0.5820 0.5820 0.5820
11.850000 0.5800 0.5800 0.5790 0.5770 0.5740
11.874469 0.5710 0.5680 0.5660 0.5640 0.5590
11.898000 0.5550 0.5540 0.5510 0.5510 0.5500
11.922469 0.5490 0.5480 0.5470 0.5420 0.5370
11.947000 0.5330 0.5310 0.5270 0.5240 0.5200
11.971469 0.5150 0.5090 0.5060 0.5030 0.5010
11.996000 0.4970 0.4910 0.4810 0.4690 0.4580
12.020469 0.4490 0.4430 0.4400 0.4340 0.4330
12.045000 0.4320 0.4310 0.4290 0.4280 0.4280
12.069469 0.4280 0.4270 0.4270 0.4260 0.4270
12.094000 0.4270 0.4280 0.4290 0.4320 0.4340
12.118469 0.4390 0.4450 0.4570 0.4640 0.4710
12.143000 0.4730 0.4770 0.4790 0.4800 0.4830
12.167469 0.4830 0.4830 0.4800 0.4790 0.4710
12.192000 0.4490 0.4460 0.4370 0.4330 0.4310
12.216469 0.4270 0.4260 0.4260 0.4250 0.4250
12.241000 0.4250 0.4270 0.4270 0.4340 0.4520
12.265469 0.4540 0.4550 0.4550 0.4570 0.4750
12.290000 0.4920 0.5000 0.5060 0.5130 0.5130
12.314469 0.5130 0.5150 0.5160 0.5160 0.5180
12.339000 0.5180 0.5190 0.5210 0.5260 0.5330
12.363469 0.5390 0.5420 0.5420 0.5430 0.5470
12.388000 0.5500 0.5540 0.5590 0.5640 0.5670
12.412469 0.5710 0.5720 0.5740 0.5790 0.5830
12.437000 0.5860 0.5890 0.5900 0.5910 0.5910
12.461469 0.5900 0.5900 0.5890 0.5890 0.5890
12.486000 0.5900 0.5900 0.5910 0.5910 0.5920
12.510469 0.5920 0.5950 0.5960 0.5970 0.5990
12.534000 0.6000 0.6010 0.6030 0.6050 0.6060
12.558469 0.6070 0.6080 0.6090 0.6090 0.6110
12.583000 0.6120 0.6120 0.6130 0.6130 0.6130
12.607469 0.6120 0.6120 0.6110 0.6090 0.6070
12.632000 0.6060 0.6060 0.6060 0.6060 0.6060
12.656469 0.6060 0.6070 0.6130 0.6150 0.6200
12.681000 0.6230 0.6250 0.6260 0.6290 0.6300
12.705469 0.6310 0.6320 0.6350 0.6370 0.6370
12.730000 0.6380 0.6400 0.6410 0.6430 0.6460
12.754469 0.6470 0.6480 0.6480 0.6480 0.6480
12.779000 0.6480 0.6480 0.6480 0.6480 0.6470
12.803469 0.6440 0.6420 0.6410 0.6380 0.6350
12.828000 0.6320 0.6310 0.6300 0.6280 0.6240
12.852469 0.6210 0.6180 0.6140 0.6130 0.6120
12.877000 0.6110 0.6090 0.6080 0.6070 0.6060
12.901469 0.6050 0.6020 0.6020 0.6020 0.6020
12.926000 0.6010 0.6010 0.6000 0.6000 0.5990
12.950469 0.5970 0.5960 0.5950 0.5920 0.5900
12.975000 0.5850 0.5800 0.5760 0.5700 0.5620
12.999469 0.5550 0.5480 0.5390 0.5320 0.5240
13.024000 0.5150 0.5070 0.4900 0.4810 0.4740
13.048469 0.4660 0.4610 0.4520 0.4430 0.4310
13.073000 0.4170 0.4030 0.3880 0.3810 0.3800
13.097469 0.3790 0.3790 0.3790 0.3790 0.3800
13.121000 0.3810 0.3810 0.3900 0.3960 0.4020
13.145469 0.4070 0.4100 0.4200 0.4280 0.4350
13.170000 0.4430 0.4490 0.4560 0.4640 0.4750
13.194469 0.4890 0.4950 0.5010 0.5090 0.5150
13.219000 0.5270 0.5350 0.5390 0.5430 0.5470
13.243469 0.5490 0.5540 0.5610 0.5700 0.5720
13.268000 0.5730 0.5760 0.5780 0.5800 0.5820
13.292469 0.5800 0.5820 0.5840 0.5880 0.5940
13.317000 0.5950 0.5970 0.6010 0.6030 0.6060
13.341469 0.6070 0.6080 0.6120 0.6130 0.6140
13.366000 0.6150 0.6180 0.6190 0.6190 0.6190
13.390469 0.6200 0.6210 0.6230 0.6240 0.6250
13.415000 0.6260 0.6290 0.6300 0.6300 0.6310
13.439469 0.6310 0.6340 0.6350 0.6350 0.6350
13.464000 0.6360 0.6360 0.6370 0.6370 0.6370
13.488469 0.6370 0.6370 0.6370 0.6370 0.6360
13.513000 0.6360 0.6350 0.6350 0.6340 0.6340
13.537469 0.6320 0.6320 0.6320 0.6320 0.6320
13.562000 0.6320 0.6310 0.6310 0.6300 0.6290
13.586469 0.6280 0.6280 0.6260 0.6260 0.6250
13.611000 0.6240 0.6240 0.6240 0.6240 0.6250
13.635469 0.6250 0.6260 0.6260 0.6280 0.6280
13.660000 0.6280 0.6280 0.6280 0.6290 0.6290
13.684469 0.6290 0.6290 0.6300 0.6310 0.6320
13.709000 0.6340 0.6350 0.6360 0.6370 0.6380
13.733469 0.6400 0.6410 0.6410 0.6410 0.6420
13.757000 0.6420 0.6430 0.6430 0.6440 0.6440
13.781469 0.6460 0.6460 0.6470 0.6470 0.6480
13.806000 0.6490 0.6490 0.6490 0.6500 0.6500
13.830469 0.6500 0.6520 0.6520 0.6520 0.6520
13.855000 0.6520 0.6520 0.6520 0.6520 0.6520
13.879469 0.6520 0.6520 0.6520 0.6520 0.6520
13.904000 0.6520 0.6520 0.6520 0.6520 0.6520
13.928469 0.6520 0.6520 0.6520 0.6520 0.6520
13.953000 0.6530 0.6530 0.6530 0.6540 0.6540
13.977469 0.6540 0.6540 0.6540 0.6550 0.6570
14.002000 0.6570 0.6580 0.6580 0.6590 0.6590
14.026469 0.6590 0.6610 0.6610 0.6630 0.6640
14.051000 0.6640 0.6650 0.6660 0.6660 0.6670
14.075469 0.6670 0.6700 0.6710 0.6710 0.6720
14.100000 0.6720 0.6710 0.6700 0.6710 0.6720
14.124469 0.6720 0.6730 0.6730 0.6750 0.6750
14.149000 0.6760 0.6770 0.6770 0.6780 0.6780
14.173469 0.6790 0.6790 0.6810 0.6810 0.6810
14.198000 0.6820 0.6820 0.6820 0.6820 0.6820
14.222469 0.6830 0.6830 0.6830 0.6830 0.6830
14.247000 0.6840 0.6840 0.6840 0.6840 0.6840
14.271469 0.6840 0.6840 0.6840 0.6840 0.6840
14.296000 0.6840 0.6840 0.6840 0.6840 0.6840
14.320469 0.6840 0.6840 0.6830 0.6830 0.6830
14.344000 0.6820 0.6820 0.6810 0.6790 0.6780
14.368469 0.6770 0.6760 0.6730 0.6720 0.6700
14.393000 0.6670 0.6650 0.6630 0.6610 0.6590
14.417469 0.6580 0.6550 0.6540 0.6520 0.6500
14.442000 0.6480 0.6470 0.6430 0.6420 0.6400
14.466469 0.6350 0.6300 0.6260 0.6230 0.6190
14.491000 0.6170 0.6130 0.6090 0.6050 0.6000
14.515469 0.5950 0.5880 0.5800 0.5710 0.5600
14.540000 0.5530 0.5450 0.5430 0.5390 0.5330
14.564469 0.5270 0.5210 0.5150 0.5080 0.5010
14.589000 0.4900 0.4860 0.4830 0.4810 0.4810
14.613469 0.4810 0.4810 0.4830 0.4850 0.4870
14.638000 0.4890 0.4920 0.4980 0.5010 0.5030
14.662469 0.5060 0.5090 0.5140 0.5200 0.5210
14.687000 0.5240 0.5250 0.5260 0.5280 0.5310
14.711469 0.5320 0.5330 0.5360 0.5370 0.5380
14.736000 0.5410 0.5440 0.5470 0.5480 0.5490
14.760469 0.5490 0.5490 0.5490 0.5490 0.5490
14.785000 0.5490 0.5490 0.5490 0.5490 0.5490
14.809469 0.5490 0.5490 0.5490 0.5490 0.5490
14.834000 0.5490 0.5490 0.5490 0.5490 0.5480
14.858469 0.5470 0.5470 0.5450 0.5450 0.5440
14.883000 0.5440 0.5430 0.5430 0.5420 0.5420
14.907469 0.5410 0.5410 0.5390 0.5390 0.5380
14.932000 0.5380 0.5370 0.5360 0.5360 0.5350
14.956469 0.5350 0.5330 0.5330 0.5330 0.5330
14.980000 0.5330 0.5330 0.5320 0.5320 0.5320
15.004469 0.5320 0.5310 0.5320 0.5330 0.5330
15.029000 0.5350 0.5350 0.5360 0.5360 0.5380
15.053469 0.5390 0.5410 0.5420 0.5430 0.5430
15.078000 0.5440 0.5450 0.5450 0.5470 0.5470
15.102469 0.5480 0.5480 0.5490 0.5490 0.5490
15.127000 0.5490 0.5490 0.5490
##END=
