##TITLE=ULTRAMARINE BLUE
##JCAMP-DX=4.24
##DATA TYPE=INFRARED SPECTRUM
##CLASS=COBLENTZ
##ORIGIN=DESOTO CHEMICAL COATINGS, INC.
##OWNER=COBLENTZ SOCIETY
Collection (C) 2018 copyright by the U.S. Secretary of Commerce
on behalf of the United States of America. All rights reserved.
##DATE=Not specified, most likely prior to 1970
##MOLFORM=Si O2
$$ SiO2 37-50%, Al2O3 2.3-2.9%, Na2O 19-23%, S 10-14%
##SOURCE REFERENCE=COBLENTZ NO. 4706
##$NIST ID=B6004706
##$NIST SOURCE=COBLENTZ
##$NIST IMAGE=cob4706
##SPECTROMETER/DATA SYSTEM=Not specified, most likely a grating spectrometer.
##STATE=SOLID (0.8 mg / 300 mg CsI DISC)
##SAMPLING PROCEDURE=TRANSMISSION
##RESOLUTION=4
##DATA PROCESSING=DIGITIZED BY NIST FROM HARD COPY (FROM TWO SEGMENTS)
##XUNITS=1/CM
##YUNITS=TRANSMITTANCE
##XFACTOR=1.000000
##YFACTOR=1
##DELTAX=1.331362
##FIRSTX=200
##LASTX=3989.06
##FIRSTY=0.757
##MAXX=3989.06
##MINX=200
##MAXY=0.953
##MINY=0.133
##NPOINTS=2847
##XYDATA=(X++(Y..Y))
200.000000 0.7570 0.7570 0.7560 0.7560 0.7540
206.656811 0.7540 0.7540 0.7540 0.7540 0.7560
213.313622 0.7570 0.7580 0.7580 0.7600 0.7600
219.970433 0.7600 0.7620 0.7640 0.7650 0.7680
226.627244 0.7690 0.7700 0.7700 0.7720 0.7730
233.284055 0.7740 0.7780 0.7810 0.7820 0.7850
239.940866 0.7880 0.7930 0.7940 0.7970 0.7980
246.597677 0.8000 0.8000 0.8010 0.8010 0.8020
253.254488 0.8040 0.8050 0.8050 0.8050 0.8050
259.911299 0.8050 0.8060 0.8080 0.8080 0.8090
266.568110 0.8090 0.8090 0.8090 0.8090 0.8090
273.224921 0.8100 0.8120 0.8130 0.8130 0.8130
279.881732 0.8120 0.8120 0.8100 0.8100 0.8120
286.538543 0.8120 0.8130 0.8130 0.8130 0.8130
293.195354 0.8130 0.8130 0.8130 0.8130 0.8130
299.852165 0.8130 0.8130 0.8120 0.8120 0.8100
306.508976 0.8090 0.8090 0.8080 0.8060 0.8050
313.165787 0.8050 0.8060 0.8060 0.8060 0.8060
319.822598 0.8060 0.8060 0.8050 0.8040 0.8040
326.479409 0.8040 0.8020 0.8020 0.8020 0.8020
333.136220 0.8010 0.8010 0.8010 0.8000 0.8000
339.793031 0.7980 0.7960 0.7940 0.7940 0.7940
346.449842 0.7930 0.7920 0.7900 0.7890 0.7880
353.106653 0.7860 0.7850 0.7840 0.7820 0.7820
359.763464 0.7810 0.7810 0.7810 0.7800 0.7780
366.420275 0.7770 0.7760 0.7740 0.7700 0.7680
373.077086 0.7660 0.7620 0.7580 0.7540 0.7520
379.733897 0.7490 0.7440 0.7370 0.7330 0.7290
386.390708 0.7240 0.7190 0.7130 0.7070 0.7000
393.047519 0.6930 0.6840 0.6750 0.6680 0.6561
399.704330 0.6490 0.6410 0.6390 0.6330 0.6250
406.361141 0.6210 0.6110 0.6040 0.5970 0.5871
413.017952 0.5760 0.5670 0.5530 0.5440 0.5370
419.674763 0.5290 0.5240 0.5190 0.5110 0.5080
426.331574 0.5040 0.5010 0.4990 0.4920 0.4870
432.988385 0.4790 0.4680 0.4590 0.4441 0.4301
439.645196 0.4120 0.3910 0.3780 0.3640 0.3480
446.302007 0.3390 0.3320 0.3270 0.3260 0.3270
452.958818 0.3300 0.3340 0.3500 0.3670 0.3780
459.615629 0.3860 0.3999 0.4119 0.4309 0.4499
466.272440 0.4700 0.4920 0.5080 0.5320 0.5649
472.929251 0.5889 0.6209 0.6449 0.6689 0.6909
479.586062 0.7130 0.7320 0.7500 0.7650 0.7770
486.242873 0.7890 0.7940 0.8049 0.8219 0.8329
492.899684 0.8440 0.8500 0.8530 0.8600 0.8690
499.556495 0.8760 0.8820 0.8860 0.8900 0.8930
506.213306 0.8960 0.9000 0.9000 0.9010 0.9010
512.870117 0.9020 0.9040 0.9060 0.9060 0.9080
519.526928 0.9100 0.9100 0.9120 0.9140 0.9170
526.183739 0.9180 0.9180 0.9180 0.9180 0.9200
532.840550 0.9200 0.9210 0.9210 0.9210 0.9210
539.497361 0.9210 0.9210 0.9200 0.9200 0.9200
546.154172 0.9180 0.9170 0.9170 0.9180 0.9180
552.810983 0.9160 0.9160 0.9160 0.9170 0.9200
559.467794 0.9210 0.9210 0.9210 0.9210 0.9210
566.124605 0.9220 0.9220 0.9210 0.9200 0.9180
572.781416 0.9170 0.9170 0.9140 0.9100 0.9080
579.438227 0.9050 0.8980 0.8940 0.8930 0.8900
586.095038 0.8900 0.8900 0.8920 0.8930 0.8940
592.751849 0.9000 0.9010 0.9010 0.9020 0.9040
599.408660 0.9080 0.9100 0.9130 0.9130 0.9140
606.065471 0.9140 0.9140 0.9140 0.9160 0.9170
612.722282 0.9180 0.9180 0.9200 0.9210 0.9200
619.379093 0.9180 0.9170 0.9170 0.9170 0.9170
626.035904 0.9180 0.9180 0.9180 0.9180 0.9180
632.692715 0.9200 0.9210 0.9210 0.9180 0.9160
639.349526 0.9130 0.9120 0.9120 0.9090 0.9060
646.006337 0.8930 0.8890 0.8800 0.8681 0.8571
652.663148 0.8460 0.8330 0.8220 0.8100 0.8010
659.319959 0.7900 0.7840 0.7810 0.7810 0.7820
665.976770 0.7840 0.7850 0.7860 0.7880 0.7900
672.633581 0.7930 0.8000 0.8000 0.8020 0.8040
679.290392 0.8060 0.8060 0.8050 0.8020 0.8000
685.947203 0.8000 0.7960 0.7930 0.7890 0.7811
692.604014 0.7770 0.7740 0.7730 0.7730 0.7730
699.260825 0.7730 0.7740 0.7760 0.7760 0.7770
705.917636 0.7780 0.7800 0.7810 0.7840 0.7890
712.574447 0.7900 0.7920 0.7930 0.7940 0.7980
719.231258 0.8000 0.8010 0.8020 0.8050 0.8090
725.888069 0.8130 0.8200 0.8250 0.8320 0.8399
732.544880 0.8420 0.8490 0.8500 0.8560 0.8620
739.201691 0.8680 0.8730 0.8800 0.8800 0.8850
745.858502 0.8890 0.8900 0.8930 0.8930 0.8970
752.515313 0.9000 0.9010 0.9010 0.9050 0.9080
759.172124 0.9100 0.9100 0.9130 0.9170 0.9200
765.828935 0.9210 0.9220 0.9240 0.9250 0.9260
772.485745 0.9280 0.9290 0.9300 0.9320 0.9330
779.142556 0.9360 0.9370 0.9380 0.9410 0.9420
785.799367 0.9420 0.9440 0.9450 0.9450 0.9450
792.456178 0.9480 0.9490 0.9500 0.9520 0.9520
799.112989 0.9520 0.9520 0.9520 0.9500 0.9500
805.769800 0.9490 0.9480 0.9480 0.9480 0.9480
812.426611 0.9490 0.9500 0.9500 0.9500 0.9500
819.083422 0.9520 0.9520 0.9530 0.9530 0.9530
825.740233 0.9520 0.9520 0.9530 0.9530 0.9520
832.397044 0.9500 0.9480 0.9460 0.9460 0.9460
839.053855 0.9460 0.9460 0.9460 0.9450 0.9450
845.710666 0.9450 0.9420 0.9410 0.9410 0.9400
852.367477 0.9380 0.9370 0.9370 0.9370 0.9370
859.024288 0.9360 0.9360 0.9340 0.9330 0.9320
865.681099 0.9300 0.9300 0.9300 0.9300 0.9300
872.337910 0.9290 0.9280 0.9280 0.9280 0.9280
878.994721 0.9280 0.9260 0.9260 0.9260 0.9250
885.651532 0.9250 0.9250 0.9250 0.9240 0.9240
892.308343 0.9220 0.9220 0.9220 0.9210 0.9210
898.965154 0.9210 0.9200 0.9200 0.9180 0.9170
905.621965 0.9160 0.9160 0.9160 0.9160 0.9140
912.278776 0.9130 0.9120 0.9090 0.9060 0.9040
918.935587 0.9010 0.9000 0.8940 0.8930 0.8920
925.592398 0.8900 0.8880 0.8850 0.8810 0.8770
932.249209 0.8740 0.8720 0.8640 0.8560 0.8500
938.906020 0.8450 0.8410 0.8370 0.8330 0.8280
945.562831 0.8210 0.8050 0.7970 0.7880 0.7770
952.219642 0.7601 0.7401 0.7290 0.7091 0.6921
958.876453 0.6790 0.6610 0.6290 0.6050 0.5870
965.533264 0.5691 0.5481 0.5241 0.5001 0.4752
972.190075 0.4520 0.4300 0.4110 0.3960 0.3750
978.846886 0.3580 0.3421 0.3221 0.3041 0.2960
985.503697 0.2840 0.2680 0.2600 0.2460 0.2340
992.160508 0.2171 0.2110 0.1931 0.1831 0.1820
998.817319 0.1740 0.1670 0.1610 0.1550 0.1500
1005.474130 0.1460 0.1420 0.1380 0.1350 0.1340
1012.130941 0.1330 0.1330 0.1340 0.1340 0.1350
1018.787752 0.1350 0.1370 0.1370 0.1390 0.1410
1025.444563 0.1430 0.1450 0.1500 0.1530 0.1550
1032.101374 0.1590 0.1610 0.1650 0.1710 0.1790
1038.758185 0.1820 0.1890 0.1930 0.1990 0.2020
1045.414996 0.2050 0.2110 0.2190 0.2270 0.2330
1052.071807 0.2410 0.2510 0.2630 0.2710 0.2840
1058.728618 0.2990 0.3080 0.3150 0.3319 0.3419
1065.385429 0.3550 0.3670 0.3790 0.3860 0.3950
1072.042240 0.4020 0.4140 0.4190 0.4299 0.4389
1078.699051 0.4500 0.4580 0.4660 0.4790 0.4840
1085.355862 0.4940 0.5010 0.5080 0.5130 0.5170
1092.012673 0.5200 0.5270 0.5310 0.5390 0.5410
1098.669484 0.5480 0.5550 0.5630 0.5670 0.5690
1105.326295 0.5720 0.5810 0.5840 0.5870 0.5890
1111.983106 0.5930 0.6000 0.6050 0.6090 0.6120
1118.639917 0.6190 0.6230 0.6270 0.6320 0.6390
1125.296728 0.6410 0.6440 0.6490 0.6520 0.6550
1131.953539 0.6610 0.6650 0.6690 0.6730 0.6790
1138.610350 0.6810 0.6880 0.6930 0.6990 0.7000
1145.267161 0.7000 0.7030 0.7080 0.7110 0.7120
1151.923972 0.7190 0.7230 0.7250 0.7290 0.7330
1158.580783 0.7400 0.7430 0.7490 0.7500 0.7530
1165.237594 0.7610 0.7660 0.7700 0.7760 0.7810
1171.894405 0.7840 0.7890 0.7920 0.8000 0.8010
1178.551216 0.8020 0.8090 0.8120 0.8200 0.8250
1185.208027 0.8290 0.8320 0.8370 0.8400 0.8420
1191.864838 0.8460 0.8500 0.8520 0.8560 0.8580
1198.521649 0.8610 0.8650 0.8680 0.8690 0.8700
1205.178460 0.8700 0.8720 0.8740 0.8770 0.8780
1211.835271 0.8800 0.8820 0.8840 0.8860 0.8880
1218.492082 0.8880 0.8890 0.8890 0.8900 0.8920
1225.148893 0.8930 0.8930 0.8940 0.8960 0.8960
1231.805704 0.8970 0.8980 0.8980 0.9000 0.9010
1238.462515 0.9010 0.9010 0.9010 0.9020 0.9020
1245.119326 0.9040 0.9040 0.9040 0.9040 0.9050
1251.776137 0.9050 0.9050 0.9060 0.9080 0.9080
1258.432948 0.9100 0.9100 0.9120 0.9130 0.9130
1265.089759 0.9130 0.9130 0.9120 0.9120 0.9120
1271.746570 0.9120 0.9130 0.9130 0.9140 0.9160
1278.403381 0.9160 0.9140 0.9140 0.9130 0.9130
1285.060192 0.9130 0.9130 0.9140 0.9160 0.9170
1291.717003 0.9200 0.9200 0.9170 0.9160 0.9160
1298.373814 0.9160 0.9170 0.9180 0.9180 0.9170
1305.030625 0.9160 0.9140 0.9140 0.9140 0.9140
1311.687436 0.9160 0.9160 0.9170 0.9170 0.9170
1318.344247 0.9180 0.9180 0.9170 0.9170 0.9160
1325.001058 0.9140 0.9130 0.9120 0.9100 0.9120
1331.657869 0.9130 0.9160 0.9160 0.9170 0.9170
1338.314680 0.9170 0.9170 0.9160 0.9160 0.9160
1344.971491 0.9140 0.9130 0.9130 0.9140 0.9160
1351.628302 0.9160 0.9170 0.9170 0.9170 0.9170
1358.285113 0.9170 0.9160 0.9160 0.9140 0.9140
1364.941924 0.9130 0.9130 0.9130 0.9140 0.9140
1371.598735 0.9140 0.9140 0.9140 0.9140 0.9140
1378.255546 0.9160 0.9160 0.9160 0.9160 0.9160
1384.912357 0.9160 0.9160 0.9160 0.9160 0.9170
1391.569168 0.9170 0.9170 0.9170 0.9160 0.9140
1398.225979 0.9140 0.9140 0.9140 0.9140 0.9140
1404.882790 0.9140 0.9140 0.9140 0.9130 0.9130
1411.539601 0.9130 0.9130 0.9130 0.9130 0.9130
1418.196412 0.9130 0.9120 0.9120 0.9100 0.9100
1424.853223 0.9100 0.9100 0.9120 0.9130 0.9130
1431.510034 0.9130 0.9140 0.9140 0.9140 0.9130
1438.166845 0.9120 0.9130 0.9130 0.9130 0.9140
1444.823656 0.9160 0.9140 0.9140 0.9130 0.9130
1451.480467 0.9120 0.9100 0.9100 0.9120 0.9120
1458.137278 0.9120 0.9120 0.9130 0.9140 0.9140
1464.794089 0.9160 0.9160 0.9160 0.9160 0.9160
1471.450900 0.9170 0.9170 0.9170 0.9170 0.9170
1478.107711 0.9170 0.9170 0.9170 0.9160 0.9160
1484.764522 0.9140 0.9140 0.9140 0.9160 0.9160
1491.421333 0.9170 0.9180 0.9180 0.9180 0.9180
1498.078144 0.9170 0.9170 0.9170 0.9170 0.9160
1504.734955 0.9140 0.9140 0.9140 0.9130 0.9120
1511.391766 0.9120 0.9120 0.9120 0.9120 0.9120
1518.048577 0.9120 0.9120 0.9120 0.9120 0.9120
1524.705388 0.9120 0.9130 0.9140 0.9140 0.9130
1531.362199 0.9130 0.9130 0.9120 0.9120 0.9090
1538.019010 0.9080 0.9080 0.9060 0.9060 0.9080
1544.675821 0.9090 0.9090 0.9090 0.9080 0.9060
1551.332632 0.9060 0.9060 0.9050 0.9040 0.9040
1557.989443 0.9020 0.9020 0.9020 0.9010 0.9010
1564.646254 0.9010 0.9010 0.9010 0.9020 0.9020
1571.303065 0.9010 0.9000 0.8980 0.8970 0.8960
1577.959876 0.8930 0.8930 0.8920 0.8900 0.8890
1584.616687 0.8890 0.8880 0.8860 0.8850 0.8850
1591.273498 0.8820 0.8810 0.8800 0.8770 0.8730
1597.930309 0.8700 0.8690 0.8680 0.8690 0.8650
1604.587120 0.8610 0.8570 0.8570 0.8540 0.8540
1611.243931 0.8530 0.8520 0.8520 0.8500 0.8480
1617.900742 0.8460 0.8450 0.8450 0.8450 0.8460
1624.557553 0.8460 0.8480 0.8480 0.8490 0.8500
1631.214364 0.8520 0.8530 0.8540 0.8570 0.8600
1637.871175 0.8610 0.8610 0.8620 0.8640 0.8640
1644.527986 0.8640 0.8640 0.8650 0.8680 0.8700
1651.184797 0.8700 0.8720 0.8720 0.8720 0.8720
1657.841608 0.8740 0.8760 0.8760 0.8780 0.8780
1664.498419 0.8780 0.8800 0.8810 0.8810 0.8810
1671.155230 0.8820 0.8820 0.8840 0.8850 0.8850
1677.812041 0.8850 0.8850 0.8860 0.8860 0.8880
1684.468852 0.8880 0.8880 0.8880 0.8890 0.8900
1691.125663 0.8900 0.8900 0.8900 0.8900 0.8900
1697.782474 0.8900 0.8900 0.8900 0.8920 0.8920
1704.439285 0.8900 0.8900 0.8920 0.8920 0.8920
1711.096096 0.8930 0.8960 0.8960 0.8970 0.8970
1717.752907 0.8970 0.8970 0.8970 0.8970 0.8970
1724.409718 0.8970 0.8980 0.9000 0.9000 0.9010
1731.066529 0.9010 0.9000 0.8980 0.9000 0.9010
1737.723340 0.9010 0.9020 0.9040 0.9040 0.9040
1744.380151 0.9020 0.9020 0.9010 0.9010 0.9010
1751.036962 0.9020 0.9020 0.9020 0.9010 0.9010
1757.693773 0.9010 0.9010 0.9010 0.9010 0.9010
1764.350584 0.9010 0.9010 0.9010 0.9010 0.9010
1771.007395 0.9010 0.9010 0.9010 0.9010 0.9010
1777.664206 0.9010 0.9010 0.9010 0.9010 0.9010
1784.321017 0.9020 0.9020 0.9020 0.9020 0.9020
1790.977828 0.9020 0.9020 0.9020 0.9010 0.9010
1797.634639 0.9010 0.9010 0.9010 0.9010 0.9010
1804.291450 0.9010 0.9010 0.9000 0.9000 0.9000
1810.948261 0.8980 0.9000 0.9010 0.9010 0.9010
1817.605072 0.9020 0.9020 0.9020 0.9020 0.9010
1824.261883 0.9010 0.9020 0.9010 0.9010 0.9000
1830.918694 0.9000 0.9000 0.9000 0.9000 0.9000
1837.575505 0.9000 0.9010 0.9010 0.9020 0.9020
1844.232316 0.9020 0.9020 0.9020 0.9020 0.9020
1850.889127 0.9020 0.9020 0.9020 0.8980 0.8960
1857.545938 0.8940 0.8940 0.8940 0.8960 0.8970
1864.202749 0.8980 0.9000 0.9010 0.9020 0.9020
1870.859560 0.9020 0.9000 0.8980 0.8980 0.8970
1877.516371 0.8970 0.8970 0.8970 0.8970 0.8980
1884.173182 0.8980 0.8980 0.8980 0.8980 0.8980
1890.829993 0.8980 0.8980 0.8980 0.8980 0.8980
1897.486804 0.8980 0.8980 0.8980 0.8970 0.8960
1904.143615 0.8960 0.8970 0.8970 0.8980 0.8980
1910.800425 0.8980 0.8970 0.8970 0.8970 0.8970
1917.457236 0.8940 0.8940 0.8930 0.8930 0.8930
1924.114047 0.8930 0.8930 0.8930 0.8940 0.8940
1930.770858 0.8960 0.8960 0.8940 0.8940 0.8940
1937.427669 0.8940 0.8930 0.8930 0.8930 0.8930
1944.084480 0.8920 0.8920 0.8920 0.8920 0.8930
1950.741291 0.8940 0.8940 0.8930 0.8930 0.8920
1957.398102 0.8920 0.8900 0.8900 0.8900 0.8920
1964.054913 0.8930 0.8930 0.8940 0.8940 0.8940
1970.711724 0.8940 0.8940 0.8930 0.8930 0.8920
1977.368535 0.8920 0.8920 0.8920 0.8930 0.8930
1984.025346 0.8920 0.8920 0.8920 0.8900 0.8900
1990.682157 0.8900 0.8890 0.8880 0.8880 0.8890
1997.338968 0.8900 0.8900 0.8920 0.8920 0.8920
2003.995779 0.8925 0.8930 0.8935 0.8940 0.8940
2010.652590 0.8940 0.8940 0.8940 0.8940 0.8940
2017.309401 0.8950 0.8960 0.8960 0.8960 0.8950
2023.966212 0.8940 0.8940 0.8940 0.8935 0.8930
2030.623023 0.8930 0.8930 0.8930 0.8930 0.8930
2037.279834 0.8930 0.8935 0.8940 0.8950 0.8960
2043.936645 0.8960 0.8960 0.8960 0.8960 0.8960
2050.593456 0.8960 0.8950 0.8940 0.8940 0.8940
2057.250267 0.8940 0.8940 0.8940 0.8940 0.8935
2063.907078 0.8930 0.8930 0.8930 0.8930 0.8930
2070.563889 0.8925 0.8920 0.8920 0.8920 0.8920
2077.220700 0.8920 0.8909 0.8900 0.8900 0.8900
2083.877511 0.8900 0.8900 0.8895 0.8890 0.8890
2090.534322 0.8890 0.8890 0.8890 0.8890 0.8890
2097.191133 0.8890 0.8890 0.8890 0.8890 0.8890
2103.847944 0.8890 0.8890 0.8890 0.8885 0.8880
2110.504755 0.8880 0.8880 0.8880 0.8880 0.8885
2117.161566 0.8890 0.8890 0.8890 0.8885 0.8880
2123.818377 0.8880 0.8880 0.8880 0.8880 0.8885
2130.475188 0.8890 0.8890 0.8890 0.8890 0.8890
2137.131999 0.8890 0.8891 0.8896 0.8900 0.8900
2143.788810 0.8900 0.8900 0.8900 0.8900 0.8901
2150.445621 0.8911 0.8920 0.8920 0.8920 0.8920
2157.102432 0.8920 0.8920 0.8920 0.8920 0.8920
2163.759243 0.8920 0.8920 0.8920 0.8919 0.8909
2170.416054 0.8900 0.8900 0.8900 0.8900 0.8900
2177.072865 0.8900 0.8900 0.8900 0.8900 0.8900
2183.729676 0.8900 0.8900 0.8900 0.8900 0.8899
2190.386487 0.8894 0.8890 0.8890 0.8890 0.8890
2197.043298 0.8890 0.8890 0.8890 0.8890 0.8889
2203.700109 0.8884 0.8880 0.8880 0.8880 0.8880
2210.356920 0.8880 0.8880 0.8880 0.8880 0.8880
2217.013731 0.8880 0.8880 0.8880 0.8880 0.8880
2223.670542 0.8880 0.8880 0.8880 0.8880 0.8880
2230.327353 0.8880 0.8880 0.8880 0.8880 0.8880
2236.984164 0.8881 0.8886 0.8890 0.8890 0.8890
2243.640975 0.8890 0.8889 0.8884 0.8880 0.8880
2250.297786 0.8878 0.8868 0.8860 0.8860 0.8859
2256.954597 0.8854 0.8850 0.8850 0.8849 0.8844
2263.611408 0.8840 0.8840 0.8838 0.8828 0.8820
2270.268219 0.8820 0.8820 0.8820 0.8820 0.8820
2276.925030 0.8822 0.8832 0.8840 0.8840 0.8840
2283.581841 0.8840 0.8841 0.8846 0.8850 0.8850
2290.238652 0.8851 0.8856 0.8860 0.8860 0.8860
2296.895463 0.8860 0.8860 0.8860 0.8859 0.8854
2303.552274 0.8850 0.8850 0.8850 0.8850 0.8850
2310.209085 0.8850 0.8849 0.8844 0.8837 0.8827
2316.865896 0.8820 0.8820 0.8820 0.8820 0.8820
2323.522707 0.8820 0.8823 0.8833 0.8840 0.8840
2330.179518 0.8840 0.8840 0.8840 0.8840 0.8836
2336.836329 0.8821 0.8810 0.8810 0.8810 0.8810
2343.493140 0.8810 0.8810 0.8810 0.8810 0.8812
2350.149951 0.8817 0.8820 0.8820 0.8825 0.8840
2356.806762 0.8850 0.8850 0.8850 0.8850 0.8848
2363.463573 0.8843 0.8837 0.8827 0.8818 0.8813
2370.120384 0.8810 0.8810 0.8808 0.8803 0.8797
2376.777195 0.8787 0.8785 0.8800 0.8815 0.8830
2383.434006 0.8840 0.8840 0.8835 0.8820 0.8810
2390.090817 0.8810 0.8810 0.8810 0.8808 0.8803
2396.747628 0.8797 0.8787 0.8778 0.8773 0.8768
2403.404439 0.8763 0.8756 0.8746 0.8740 0.8740
2410.061250 0.8740 0.8740 0.8738 0.8733 0.8730
2416.718061 0.8730 0.8728 0.8723 0.8720 0.8720
2423.374872 0.8720 0.8720 0.8722 0.8727 0.8730
2430.031683 0.8730 0.8732 0.8737 0.8740 0.8740
2436.688494 0.8740 0.8740 0.8736 0.8726 0.8716
2443.345305 0.8706 0.8700 0.8700 0.8704 0.8714
2450.002116 0.8722 0.8727 0.8730 0.8730 0.8724
2456.658927 0.8709 0.8700 0.8700 0.8696 0.8686
2463.315738 0.8676 0.8666 0.8660 0.8660 0.8660
2469.972549 0.8660 0.8664 0.8674 0.8682 0.8687
2476.629360 0.8690 0.8690 0.8688 0.8683 0.8676
2483.286171 0.8666 0.8660 0.8660 0.8660 0.8660
2489.942982 0.8660 0.8660 0.8660 0.8660 0.8660
2496.599793 0.8660 0.8660 0.8660 0.8664 0.8674
2503.256604 0.8676 0.8666 0.8660 0.8660 0.8660
2509.913415 0.8660 0.8660 0.8660 0.8658 0.8653
2516.570226 0.8650 0.8650 0.8650 0.8650 0.8650
2523.227037 0.8650 0.8652 0.8657 0.8660 0.8660
2529.883848 0.8658 0.8653 0.8650 0.8650 0.8650
2536.540659 0.8650 0.8648 0.8643 0.8640 0.8640
2543.197470 0.8635 0.8625 0.8615 0.8605 0.8600
2549.854281 0.8600 0.8600 0.8600 0.8600 0.8600
2556.511092 0.8595 0.8585 0.8580 0.8580 0.8585
2563.167903 0.8595 0.8600 0.8600 0.8600 0.8600
2569.824714 0.8595 0.8585 0.8580 0.8580 0.8585
2576.481525 0.8595 0.8600 0.8600 0.8595 0.8585
2583.138336 0.8585 0.8595 0.8600 0.8600 0.8600
2589.795147 0.8600 0.8600 0.8600 0.8600 0.8600
2596.451958 0.8603 0.8608 0.8610 0.8610 0.8610
2603.108769 0.8610 0.8607 0.8602 0.8600 0.8600
2609.765580 0.8600 0.8600 0.8600 0.8600 0.8600
2616.422391 0.8600 0.8595 0.8585 0.8585 0.8595
2623.079202 0.8595 0.8585 0.8577 0.8572 0.8567
2629.736013 0.8562 0.8560 0.8560 0.8560 0.8560
2636.392824 0.8560 0.8560 0.8560 0.8560 0.8560
2643.049635 0.8560 0.8560 0.8560 0.8563 0.8568
2649.706446 0.8570 0.8570 0.8567 0.8562 0.8560
2656.363257 0.8560 0.8551 0.8537 0.8530 0.8530
2663.020068 0.8530 0.8530 0.8530 0.8530 0.8533
2669.676879 0.8538 0.8540 0.8540 0.8540 0.8540
2676.333690 0.8540 0.8540 0.8540 0.8540 0.8537
2682.990501 0.8532 0.8530 0.8530 0.8527 0.8522
2689.647312 0.8520 0.8520 0.8514 0.8504 0.8497
2696.304123 0.8492 0.8490 0.8490 0.8487 0.8482
2702.960934 0.8480 0.8480 0.8483 0.8488 0.8499
2709.617745 0.8514 0.8523 0.8528 0.8530 0.8530
2716.274556 0.8527 0.8522 0.8510 0.8495 0.8487
2722.931367 0.8482 0.8474 0.8464 0.8460 0.8460
2729.588178 0.8460 0.8460 0.8460 0.8460 0.8457
2736.244989 0.8452 0.8450 0.8450 0.8450 0.8450
2742.901800 0.8450 0.8450 0.8450 0.8450 0.8450
2749.558611 0.8450 0.8450 0.8450 0.8450 0.8450
2756.215422 0.8450 0.8450 0.8450 0.8450 0.8450
2762.872233 0.8450 0.8450 0.8450 0.8450 0.8450
2769.529044 0.8450 0.8450 0.8450 0.8450 0.8450
2776.185855 0.8450 0.8450 0.8450 0.8447 0.8442
2782.842666 0.8440 0.8440 0.8433 0.8423 0.8420
2789.499477 0.8420 0.8417 0.8412 0.8410 0.8410
2796.156288 0.8413 0.8419 0.8416 0.8411 0.8410
2802.813099 0.8410 0.8410 0.8410 0.8414 0.8419
2809.469910 0.8420 0.8420 0.8416 0.8411 0.8410
2816.126721 0.8410 0.8406 0.8401 0.8400 0.8400
2822.783532 0.8400 0.8400 0.8400 0.8400 0.8393
2829.440343 0.8383 0.8380 0.8380 0.8380 0.8380
2836.097154 0.8380 0.8380 0.8376 0.8371 0.8366
2842.753965 0.8361 0.8360 0.8360 0.8360 0.8360
2849.410776 0.8353 0.8342 0.8340 0.8340 0.8340
2856.067587 0.8340 0.8336 0.8331 0.8326 0.8321
2862.724398 0.8320 0.8320 0.8320 0.8320 0.8312
2869.381209 0.8302 0.8300 0.8300 0.8296 0.8291
2876.038020 0.8290 0.8290 0.8290 0.8290 0.8290
2882.694831 0.8290 0.8286 0.8281 0.8280 0.8280
2889.351642 0.8272 0.8262 0.8260 0.8260 0.8260
2896.008453 0.8260 0.8256 0.8251 0.8250 0.8250
2902.665264 0.8250 0.8250 0.8246 0.8241 0.8240
2909.322075 0.8240 0.8240 0.8240 0.8232 0.8222
2915.978886 0.8220 0.8220 0.8216 0.8211 0.8210
2922.635697 0.8210 0.8206 0.8201 0.8192 0.8182
2929.292508 0.8176 0.8171 0.8166 0.8161 0.8160
2935.949319 0.8160 0.8164 0.8169 0.8170 0.8170
2942.606130 0.8174 0.8179 0.8180 0.8180 0.8176
2949.262941 0.8171 0.8170 0.8170 0.8166 0.8161
2955.919752 0.8160 0.8160 0.8151 0.8141 0.8140
2962.576563 0.8140 0.8149 0.8159 0.8160 0.8160
2969.233374 0.8164 0.8169 0.8170 0.8170 0.8170
2975.890185 0.8170 0.8170 0.8170 0.8170 0.8170
2982.546996 0.8170 0.8170 0.8170 0.8170 0.8166
2989.203807 0.8161 0.8160 0.8160 0.8160 0.8160
2995.860618 0.8160 0.8160 0.8160 0.8160 0.8151
3002.517429 0.8141 0.8140 0.8140 0.8140 0.8140
3009.174240 0.8140 0.8140 0.8136 0.8130 0.8130
3015.831051 0.8130 0.8125 0.8120 0.8120 0.8120
3022.487862 0.8111 0.8101 0.8100 0.8100 0.8100
3029.144673 0.8100 0.8096 0.8091 0.8090 0.8090
3035.801484 0.8090 0.8090 0.8090 0.8090 0.8085
3042.458295 0.8080 0.8071 0.8061 0.8060 0.8060
3049.115105 0.8060 0.8060 0.8060 0.8060 0.8055
3055.771916 0.8050 0.8050 0.8050 0.8050 0.8050
3062.428727 0.8045 0.8040 0.8040 0.8040 0.8031
3069.085538 0.8021 0.8020 0.8020 0.8020 0.8020
3075.742349 0.8015 0.8010 0.8010 0.8010 0.8010
3082.399160 0.8010 0.8005 0.8000 0.8000 0.8000
3089.055971 0.8000 0.8000 0.8000 0.8000 0.8005
3095.712782 0.8010 0.8010 0.8010 0.8005 0.8000
3102.369593 0.8000 0.8000 0.7990 0.7980 0.7980
3109.026404 0.7980 0.7975 0.7970 0.7970 0.7970
3115.683215 0.7970 0.7970 0.7970 0.7970 0.7970
3122.340026 0.7970 0.7970 0.7970 0.7965 0.7960
3128.996837 0.7950 0.7940 0.7940 0.7940 0.7935
3135.653648 0.7930 0.7925 0.7920 0.7910 0.7900
3142.310459 0.7900 0.7900 0.7900 0.7900 0.7895
3148.967270 0.7890 0.7890 0.7890 0.7890 0.7890
3155.624081 0.7885 0.7880 0.7880 0.7880 0.7880
3162.280892 0.7880 0.7880 0.7880 0.7870 0.7860
3168.937703 0.7860 0.7860 0.7860 0.7860 0.7860
3175.594514 0.7860 0.7850 0.7840 0.7840 0.7840
3182.251325 0.7840 0.7840 0.7830 0.7820 0.7820
3188.908136 0.7820 0.7815 0.7810 0.7810 0.7810
3195.564947 0.7805 0.7800 0.7800 0.7800 0.7800
3202.221758 0.7799 0.7784 0.7769 0.7754 0.7740
3208.878569 0.7740 0.7740 0.7735 0.7730 0.7730
3215.535380 0.7730 0.7730 0.7730 0.7725 0.7720
3222.192191 0.7720 0.7720 0.7720 0.7720 0.7720
3228.849002 0.7720 0.7720 0.7719 0.7709 0.7700
3235.505813 0.7695 0.7690 0.7685 0.7679 0.7664
3242.162624 0.7650 0.7645 0.7639 0.7629 0.7620
3248.819435 0.7620 0.7619 0.7614 0.7610 0.7610
3255.476246 0.7610 0.7610 0.7609 0.7604 0.7600
3262.133057 0.7600 0.7600 0.7600 0.7599 0.7589
3268.789868 0.7580 0.7580 0.7579 0.7574 0.7570
3275.446679 0.7570 0.7569 0.7564 0.7560 0.7560
3282.103490 0.7559 0.7549 0.7540 0.7540 0.7539
3288.760301 0.7529 0.7520 0.7520 0.7519 0.7509
3295.417112 0.7499 0.7494 0.7490 0.7490 0.7489
3302.073923 0.7484 0.7480 0.7480 0.7478 0.7463
3308.730734 0.7449 0.7444 0.7438 0.7423 0.7409
3315.387545 0.7404 0.7399 0.7394 0.7390 0.7390
3322.044356 0.7388 0.7378 0.7369 0.7364 0.7359
3328.701167 0.7354 0.7348 0.7338 0.7328 0.7318
3335.357978 0.7308 0.7298 0.7289 0.7284 0.7279
3342.014789 0.7274 0.7268 0.7258 0.7250 0.7250
3348.671600 0.7249 0.7244 0.7239 0.7234 0.7228
3355.328411 0.7218 0.7208 0.7198 0.7186 0.7166
3361.985222 0.7148 0.7138 0.7129 0.7124 0.7115
3368.642033 0.7090 0.7068 0.7058 0.7048 0.7038
3375.298844 0.7028 0.7018 0.7008 0.6998 0.6990
3381.955655 0.6990 0.6988 0.6978 0.6969 0.6964
3388.612466 0.6957 0.6942 0.6930 0.6930 0.6928
3395.269277 0.6918 0.6907 0.6892 0.6875 0.6855
3401.926088 0.6839 0.6834 0.6827 0.6812 0.6799
3408.582899 0.6794 0.6787 0.6777 0.6769 0.6764
3415.239710 0.6760 0.6760 0.6759 0.6754 0.6747
3421.896521 0.6737 0.6727 0.6717 0.6706 0.6691
3428.553332 0.6676 0.6661 0.6649 0.6644 0.6640
3435.210143 0.6640 0.6639 0.6634 0.6630 0.6630
3441.866954 0.6627 0.6617 0.6609 0.6604 0.6599
3448.523765 0.6594 0.6590 0.6590 0.6587 0.6577
3455.180576 0.6570 0.6570 0.6570 0.6570 0.6570
3461.837387 0.6570 0.6568 0.6563 0.6560 0.6560
3468.494198 0.6560 0.6560 0.6560 0.6560 0.6562
3475.151009 0.6567 0.6570 0.6570 0.6575 0.6590
3481.807820 0.6602 0.6606 0.6615 0.6630 0.6640
3488.464631 0.6640 0.6642 0.6647 0.6653 0.6663
3495.121442 0.6670 0.6670 0.6672 0.6677 0.6682
3501.778253 0.6687 0.6690 0.6690 0.6690 0.6690
3508.435064 0.6693 0.6703 0.6710 0.6710 0.6712
3515.091875 0.6717 0.6720 0.6720 0.6722 0.6727
3521.748686 0.6735 0.6750 0.6762 0.6767 0.6770
3528.405497 0.6770 0.6770 0.6770 0.6773 0.6783
3535.062308 0.6790 0.6790 0.6790 0.6790 0.6792
3541.719119 0.6797 0.6802 0.6807 0.6814 0.6824
3548.375930 0.6832 0.6837 0.6842 0.6847 0.6857
3555.032741 0.6877 0.6896 0.6911 0.6926 0.6941
3561.689552 0.6954 0.6964 0.6974 0.6984 0.6990
3568.346363 0.6990 0.6994 0.7004 0.7016 0.7031
3575.003174 0.7050 0.7075 0.7094 0.7104 0.7112
3581.659985 0.7117 0.7120 0.7120 0.7122 0.7127
3588.316796 0.7130 0.7130 0.7136 0.7151 0.7166
3594.973607 0.7181 0.7190 0.7190 0.7194 0.7204
3601.630418 0.7223 0.7253 0.7274 0.7284 0.7294
3608.287229 0.7304 0.7312 0.7317 0.7328 0.7348
3614.944040 0.7362 0.7367 0.7374 0.7384 0.7394
3621.600851 0.7404 0.7414 0.7424 0.7430 0.7430
3628.257662 0.7434 0.7444 0.7457 0.7472 0.7482
3634.914473 0.7487 0.7490 0.7490 0.7499 0.7519
3641.571284 0.7537 0.7552 0.7562 0.7567 0.7572
3648.228095 0.7577 0.7580 0.7580 0.7578 0.7573
3654.884906 0.7570 0.7570 0.7572 0.7577 0.7580
3661.541717 0.7580 0.7587 0.7602 0.7617 0.7632
3668.198528 0.7642 0.7647 0.7650 0.7650 0.7650
3674.855339 0.7650 0.7650 0.7650 0.7648 0.7643
3681.512150 0.7635 0.7625 0.7620 0.7620 0.7618
3688.168961 0.7613 0.7608 0.7603 0.7600 0.7600
3694.825772 0.7602 0.7607 0.7612 0.7617 0.7625
3701.482583 0.7635 0.7640 0.7640 0.7643 0.7648
3708.139394 0.7650 0.7650 0.7653 0.7658 0.7660
3714.796205 0.7660 0.7660 0.7660 0.7660 0.7660
3721.453016 0.7665 0.7675 0.7680 0.7680 0.7680
3728.109827 0.7680 0.7680 0.7680 0.7680 0.7680
3734.766638 0.7680 0.7680 0.7680 0.7680 0.7680
3741.423449 0.7680 0.7675 0.7665 0.7660 0.7660
3748.080260 0.7657 0.7652 0.7650 0.7650 0.7647
3754.737071 0.7642 0.7640 0.7640 0.7640 0.7640
3761.393882 0.7640 0.7640 0.7640 0.7640 0.7640
3768.050693 0.7640 0.7640 0.7640 0.7640 0.7640
3774.707504 0.7634 0.7624 0.7620 0.7620 0.7620
3781.364315 0.7620 0.7626 0.7636 0.7640 0.7640
3788.021126 0.7634 0.7624 0.7620 0.7620 0.7617
3794.677937 0.7612 0.7610 0.7610 0.7610 0.7610
3801.334748 0.7610 0.7610 0.7613 0.7618 0.7620
3807.991559 0.7620 0.7626 0.7636 0.7640 0.7640
3814.648370 0.7640 0.7640 0.7640 0.7640 0.7640
3821.305181 0.7640 0.7640 0.7640 0.7640 0.7640
3827.961992 0.7634 0.7624 0.7620 0.7620 0.7626
3834.618803 0.7636 0.7640 0.7640 0.7640 0.7640
3841.275614 0.7640 0.7640 0.7640 0.7640 0.7640
3847.932425 0.7640 0.7634 0.7624 0.7617 0.7612
3854.589236 0.7610 0.7610 0.7607 0.7602 0.7600
3861.246047 0.7600 0.7600 0.7600 0.7593 0.7583
3867.902858 0.7580 0.7580 0.7580 0.7580 0.7587
3874.559669 0.7597 0.7600 0.7600 0.7600 0.7600
3881.216480 0.7600 0.7600 0.7593 0.7583 0.7580
3887.873291 0.7580 0.7577 0.7572 0.7570 0.7570
3894.530102 0.7570 0.7570 0.7570 0.7570 0.7570
3901.186913 0.7570 0.7570 0.7570 0.7570 0.7570
3907.843724 0.7570 0.7570 0.7570 0.7570 0.7567
3914.500535 0.7561 0.7560 0.7560 0.7560 0.7560
3921.157346 0.7560 0.7560 0.7560 0.7560 0.7560
3927.814157 0.7560 0.7560 0.7560 0.7560 0.7560
3934.470968 0.7564 0.7569 0.7570 0.7570 0.7570
3941.127779 0.7570 0.7566 0.7561 0.7560 0.7560
3947.784590 0.7560 0.7560 0.7553 0.7543 0.7540
3954.441401 0.7540 0.7540 0.7540 0.7536 0.7531
3961.098212 0.7530 0.7530 0.7530 0.7530 0.7534
3967.755023 0.7539 0.7540 0.7540 0.7540 0.7540
3974.411834 0.7536 0.7531 0.7530 0.7530 0.7530
3981.068645 0.7530 0.7526 0.7521 0.7520 0.7520
3987.725456 0.7520 0.7520
##END=
