##TITLE=SODIUM SELENATE
$$ C.P.
##JCAMP-DX=4.24
##DATA TYPE=INFRARED SPECTRUM
##CLASS=COBLENTZ
##ORIGIN=MELLON INSTITUTE
##OWNER=COBLENTZ SOCIETY
Collection (C) 2018 copyright by the U.S. Secretary of Commerce
on behalf of the United States of America. All rights reserved.
##DATE=Not specified, most likely prior to 1970
##MOLFORM=Na2 Se O4  * 10 H2 O
##SOURCE REFERENCE=COBLENTZ NO. 475
##$NIST ID=B6000475
##$NIST SOURCE=COBLENTZ
##$NIST IMAGE=cob475
##SPECTROMETER/DATA SYSTEM=Not specified, most likely a prism, grating, or hybrid spectrometer.
##STATE=SOLID (NUJOL MULL)
##PATH LENGTH=
$$SPECTRAL CONTAMINATION DUE TO OIL AROUND 2900, 1450 CM^-^1
##SAMPLING PROCEDURE=TRANSMISSION
##RESOLUTION=4
##DATA PROCESSING=DIGITIZED BY NIST FROM HARD COPY
##XUNITS=MICROMETERS
##YUNITS=TRANSMITTANCE
##XFACTOR=1.000000
##YFACTOR=1
##DELTAX=000.006807
##FIRSTX=2.074
##LASTX=16.0009
##FIRSTY=0.823
##MAXX=16.0009
##MINX=2.074
##MAXY=0.988
##MINY=0.052
##NPOINTS=2047
##XYDATA=(X++(Y..Y))
2.074000 0.8230 0.8250 0.8270 0.8270 0.8290
2.108051 0.8300 0.8320 0.8350 0.8350 0.8370
2.142000 0.8390 0.8390 0.8390 0.8390 0.8410
2.176051 0.8420 0.8440 0.8470 0.8490 0.8490
2.210000 0.8490 0.8510 0.8510 0.8510 0.8520
2.244051 0.8520 0.8560 0.8580 0.8540 0.8520
2.278000 0.8520 0.8520 0.8510 0.8490 0.8490
2.312051 0.8490 0.8510 0.8510 0.8520 0.8520
2.347000 0.8520 0.8540 0.8540 0.8540 0.8540
2.381051 0.8540 0.8580 0.8580 0.8610 0.8610
2.415000 0.8630 0.8660 0.8660 0.8680 0.8700
2.449051 0.8730 0.8780 0.8820 0.8870 0.8940
2.483000 0.8970 0.8970 0.8990 0.9000 0.9000
2.517051 0.9000 0.9020 0.9040 0.9050 0.9050
2.551000 0.9050 0.9070 0.9070 0.9070 0.9070
2.585051 0.9050 0.9070 0.9090 0.9120 0.9160
2.619000 0.9190 0.9230 0.9240 0.9280 0.9260
2.653051 0.9110 0.9070 0.9000 0.8990 0.8990
2.687000 0.9110 0.9190 0.9260 0.9280 0.9240
2.721051 0.9160 0.9120 0.9070 0.9000 0.8950
2.755000 0.8900 0.8880 0.8850 0.8730 0.8540
2.789051 0.8250 0.7840 0.7550 0.7240 0.6850
2.823000 0.6440 0.5840 0.5430 0.5020 0.5000
2.857051 0.5020 0.5380 0.6080 0.6350 0.6560
2.891000 0.6850 0.7000 0.7110 0.7110 0.7090
2.925051 0.7070 0.7050 0.6990 0.6950 0.6850
2.959000 0.6750 0.6700 0.6630 0.6510 0.6370
2.993051 0.6220 0.6000 0.5880 0.5740 0.5670
3.027000 0.5620 0.5580 0.5550 0.5550 0.5530
3.061051 0.5480 0.5450 0.5400 0.5330 0.5310
3.095000 0.5290 0.5290 0.5290 0.5290 0.5310
3.129051 0.5330 0.5360 0.5400 0.5450 0.5480
3.163000 0.5480 0.5500 0.5500 0.5430 0.5410
3.197051 0.5400 0.5360 0.5330 0.5290 0.5280
3.231000 0.5240 0.5190 0.5140 0.5090 0.5040
3.265051 0.4950 0.4870 0.4710 0.4630 0.4460
3.300000 0.4410 0.4340 0.4050 0.3700 0.3380
3.334051 0.3040 0.2590 0.2130 0.1600 0.1070
3.368000 0.0940 0.0800 0.0630 0.0520 0.0520
3.402051 0.0580 0.0710 0.0830 0.0950 0.1280
3.436000 0.1380 0.1400 0.1400 0.1290 0.1190
3.470051 0.1170 0.1170 0.1230 0.1700 0.2100
3.504000 0.2760 0.3040 0.3280 0.3620 0.3760
3.538051 0.3880 0.3960 0.4030 0.4100 0.4150
3.572000 0.4200 0.4250 0.4300 0.4350 0.4390
3.606051 0.4420 0.4460 0.4490 0.4510 0.4540
3.640000 0.4590 0.4640 0.4700 0.4760 0.4850
3.674051 0.4920 0.5000 0.5090 0.5160 0.5230
3.708000 0.5290 0.5380 0.5470 0.5640 0.5720
3.742051 0.5820 0.5890 0.5940 0.5980 0.6010
3.776000 0.6100 0.6270 0.6300 0.6340 0.6390
3.810051 0.6440 0.6510 0.6580 0.6730 0.6750
3.844000 0.6800 0.6820 0.6900 0.6950 0.7000
3.878051 0.7070 0.7110 0.7140 0.7190 0.7210
3.912000 0.7240 0.7260 0.7280 0.7330 0.7330
3.946051 0.7330 0.7330 0.7310 0.7290 0.7290
3.980000 0.7260 0.7190 0.7140 0.7090 0.7040
4.014051 0.7020 0.7000 0.6850 0.6710 0.6660
4.048000 0.6590 0.6420 0.6250 0.6080 0.5910
4.082051 0.5760 0.5620 0.5570 0.5500 0.5400
4.116000 0.5330 0.5290 0.5240 0.5190 0.5140
4.150051 0.5040 0.5040 0.5020 0.5000 0.4950
4.184000 0.4950 0.4950 0.4950 0.4940 0.4920
4.218051 0.4900 0.4900 0.4900 0.4900 0.4900
4.252000 0.4900 0.4900 0.4920 0.4950 0.4970
4.286051 0.4990 0.4990 0.5000 0.5000 0.5000
4.321000 0.5000 0.5040 0.5090 0.5140 0.5170
4.355051 0.5350 0.5670 0.5770 0.5880 0.5960
4.389000 0.6050 0.6110 0.6220 0.6230 0.6270
4.423051 0.6340 0.6460 0.6560 0.6580 0.6590
4.457000 0.6610 0.6820 0.6870 0.6900 0.6940
4.491051 0.6950 0.6990 0.7020 0.7050 0.7140
4.525000 0.7160 0.7170 0.7190 0.7290 0.7310
4.559051 0.7330 0.7360 0.7360 0.7400 0.7410
4.593000 0.7430 0.7450 0.7480 0.7530 0.7550
4.627051 0.7580 0.7600 0.7620 0.7700 0.7760
4.661000 0.7790 0.7810 0.7820 0.7840 0.7880
4.695051 0.7960 0.7980 0.8010 0.8030 0.8030
4.729000 0.8050 0.8080 0.8100 0.8130 0.8180
4.763051 0.8220 0.8250 0.8270 0.8290 0.8300
4.797000 0.8320 0.8340 0.8350 0.8350 0.8370
4.831051 0.8390 0.8420 0.8420 0.8460 0.8470
4.865000 0.8490 0.8490 0.8510 0.8520 0.8540
4.899051 0.8540 0.8580 0.8590 0.8610 0.8630
4.933000 0.8640 0.8640 0.8660 0.8660 0.8680
4.967051 0.8700 0.8710 0.8730 0.8750 0.8760
5.001000 0.8780 0.8800 0.8820 0.8830 0.8850
5.035051 0.8830 0.8870 0.8900 0.8900 0.8920
5.069000 0.8940 0.8950 0.8950 0.8950 0.8970
5.103051 0.8970 0.8970 0.8970 0.8990 0.8990
5.137000 0.9000 0.9000 0.9000 0.9000 0.9000
5.171051 0.9000 0.8990 0.9000 0.9000 0.9000
5.205000 0.8990 0.8990 0.8990 0.8990 0.8990
5.239051 0.8990 0.8990 0.8970 0.8970 0.8970
5.274000 0.8970 0.8970 0.8970 0.8950 0.8970
5.308051 0.8950 0.8940 0.8950 0.8940 0.8940
5.342000 0.8920 0.8900 0.8900 0.8880 0.8880
5.376051 0.8880 0.8880 0.8880 0.8880 0.8880
5.410000 0.8870 0.8870 0.8870 0.8870 0.8870
5.444051 0.8850 0.8830 0.8830 0.8820 0.8800
5.478000 0.8780 0.8760 0.8750 0.8730 0.8710
5.512051 0.8680 0.8680 0.8660 0.8640 0.8630
5.546000 0.8610 0.8590 0.8590 0.8590 0.8630
5.580051 0.8630 0.8590 0.8560 0.8540 0.8520
5.614000 0.8510 0.8490 0.8490 0.8470 0.8470
5.648051 0.8460 0.8460 0.8440 0.8420 0.8410
5.682000 0.8390 0.8370 0.8350 0.8370 0.8370
5.716051 0.8350 0.8350 0.8390 0.8440 0.8440
5.750000 0.8420 0.8390 0.8350 0.8340 0.8320
5.784051 0.8320 0.8320 0.8320 0.8320 0.8320
5.818000 0.8350 0.8460 0.8470 0.8490 0.8440
5.852051 0.8300 0.8300 0.8300 0.8320 0.8460
5.886000 0.8490 0.8490 0.8490 0.8440 0.8410
5.920051 0.8370 0.8370 0.8370 0.8520 0.8520
5.954000 0.8370 0.8390 0.8390 0.8420 0.8440
5.988051 0.8420 0.8410 0.8370 0.8320 0.8270
6.022000 0.8220 0.8150 0.8080 0.8010 0.7960
6.056051 0.7940 0.7860 0.7810 0.7770 0.7770
6.090000 0.7740 0.7700 0.7640 0.7600 0.7600
6.124051 0.7620 0.7690 0.7890 0.8000 0.8050
6.158000 0.8230 0.8290 0.8370 0.8560 0.8830
6.192051 0.8940 0.8970 0.9000 0.9110 0.9170
6.226000 0.9210 0.9230 0.9240 0.9260 0.9310
6.260051 0.9400 0.9410 0.9410 0.9400 0.9190
6.295000 0.9190 0.9260 0.9290 0.9360 0.9380
6.329051 0.9380 0.9380 0.9350 0.9310 0.9290
6.363000 0.9310 0.9350 0.9410 0.9530 0.9550
6.397051 0.9550 0.9410 0.9330 0.9290 0.9330
6.431000 0.9350 0.9400 0.9430 0.9470 0.9480
6.465051 0.9570 0.9640 0.9690 0.9690 0.9640
6.499000 0.9620 0.9620 0.9550 0.9530 0.9500
6.533051 0.9530 0.9520 0.9500 0.9480 0.9470
6.567000 0.9500 0.9530 0.9550 0.9570 0.9570
6.601051 0.9570 0.9550 0.9480 0.9500 0.9530
6.635000 0.9570 0.9580 0.9580 0.9600 0.9600
6.669051 0.9580 0.9580 0.9550 0.9530 0.9480
6.703000 0.9400 0.9350 0.9330 0.9310 0.9310
6.737051 0.9280 0.9190 0.9000 0.8970 0.8850
6.771000 0.8710 0.8320 0.7790 0.7480 0.7160
6.805051 0.6820 0.6460 0.5720 0.5580 0.5430
6.839000 0.5350 0.5260 0.5210 0.5210 0.5190
6.873051 0.5190 0.5210 0.5430 0.5530 0.5740
6.907000 0.5880 0.6030 0.6220 0.6410 0.6590
6.941051 0.6850 0.6900 0.6920 0.6990 0.7090
6.975000 0.7210 0.7350 0.7470 0.7570 0.7620
7.009051 0.7770 0.7760 0.7720 0.7640 0.7470
7.043000 0.7230 0.6920 0.6780 0.6630 0.6200
7.077051 0.5720 0.5470 0.5210 0.4780 0.4440
7.111000 0.4350 0.4270 0.4180 0.4130 0.4110
7.145051 0.4100 0.4080 0.4010 0.3890 0.3740
7.179000 0.3600 0.3470 0.3380 0.3330 0.3260
7.213051 0.3230 0.3230 0.3310 0.3600 0.3720
7.248000 0.3880 0.4050 0.4270 0.4880 0.5310
7.282051 0.5500 0.5860 0.6030 0.6220 0.6390
7.316000 0.6580 0.6940 0.7120 0.7310 0.7500
7.350051 0.7700 0.8010 0.8110 0.8200 0.8250
7.384000 0.8320 0.8370 0.8410 0.8460 0.8560
7.418051 0.8580 0.8580 0.8590 0.8590 0.8610
7.452000 0.8660 0.8750 0.8830 0.9040 0.9120
7.486051 0.9140 0.9170 0.9230 0.9290 0.9330
7.520000 0.9380 0.9400 0.9410 0.9410 0.9430
7.554051 0.9430 0.9450 0.9450 0.9450 0.9470
7.588000 0.9470 0.9480 0.9520 0.9530 0.9530
7.622051 0.9530 0.9550 0.9550 0.9580 0.9600
7.656000 0.9600 0.9600 0.9600 0.9600 0.9600
7.690051 0.9600 0.9620 0.9620 0.9620 0.9620
7.724000 0.9620 0.9620 0.9640 0.9640 0.9650
7.758051 0.9690 0.9690 0.9690 0.9690 0.9690
7.792000 0.9670 0.9620 0.9580 0.9570 0.9530
7.826051 0.9520 0.9480 0.9410 0.9360 0.9290
7.860000 0.9260 0.9210 0.9190 0.9140 0.9120
7.894051 0.9120 0.9050 0.9020 0.8920 0.8870
7.928000 0.8820 0.8700 0.8610 0.8560 0.8560
7.962051 0.8470 0.8410 0.8340 0.8230 0.8130
7.996000 0.8110 0.8100 0.8100 0.8100 0.8100
8.030051 0.8060 0.8000 0.7980 0.7940 0.7940
8.064000 0.7940 0.7980 0.8000 0.8030 0.8050
8.098051 0.8050 0.8050 0.8080 0.8130 0.8200
8.132000 0.8250 0.8300 0.8370 0.8410 0.8460
8.166051 0.8520 0.8580 0.8630 0.8780 0.8850
8.200000 0.8870 0.8940 0.8950 0.8970 0.8970
8.234051 0.8990 0.9020 0.9090 0.9170 0.9190
8.269000 0.9210 0.9240 0.9280 0.9310 0.9360
8.303051 0.9400 0.9430 0.9470 0.9470 0.9520
8.337000 0.9530 0.9550 0.9550 0.9580 0.9580
8.371051 0.9600 0.9640 0.9650 0.9670 0.9690
8.405000 0.9690 0.9690 0.9690 0.9700 0.9700
8.439051 0.9700 0.9650 0.9620 0.9600 0.9600
8.473000 0.9570 0.9570 0.9550 0.9500 0.9400
8.507051 0.9330 0.9290 0.9260 0.9240 0.9230
8.541000 0.9190 0.9170 0.9160 0.9160 0.9160
8.575051 0.9140 0.9120 0.9120 0.9090 0.9070
8.609000 0.9070 0.9070 0.9050 0.9070 0.9090
8.643051 0.9110 0.9140 0.9160 0.9190 0.9190
8.677000 0.9210 0.9190 0.9210 0.9230 0.9240
8.711051 0.9280 0.9280 0.9290 0.9290 0.9310
8.745000 0.9330 0.9350 0.9360 0.9380 0.9380
8.779051 0.9400 0.9400 0.9400 0.9400 0.9400
8.813000 0.9400 0.9380 0.9380 0.9360 0.9350
8.847051 0.9330 0.9160 0.8990 0.8700 0.8410
8.881000 0.7980 0.7880 0.7760 0.7740 0.7880
8.915051 0.8060 0.8230 0.8370 0.8460 0.8540
8.949000 0.8580 0.8700 0.8750 0.8760 0.8520
8.983051 0.8390 0.8270 0.8130 0.8000 0.7840
9.017000 0.7770 0.7760 0.7720 0.7700 0.7820
9.051051 0.7810 0.7810 0.7770 0.7740 0.7690
9.085000 0.7670 0.7670 0.7670 0.7760 0.8060
9.119051 0.8180 0.8290 0.8390 0.8490 0.8580
9.153000 0.8660 0.8730 0.8800 0.8870 0.8990
9.187051 0.9040 0.9090 0.9120 0.9170 0.9210
9.222000 0.9260 0.9290 0.9330 0.9360 0.9400
9.256051 0.9410 0.9410 0.9410 0.9400 0.9410
9.290000 0.9410 0.9450 0.9470 0.9480 0.9480
9.324051 0.9500 0.9500 0.9520 0.9530 0.9570
9.358000 0.9600 0.9620 0.9650 0.9670 0.9670
9.392051 0.9690 0.9700 0.9700 0.9720 0.9760
9.426000 0.9760 0.9740 0.9720 0.9690 0.9690
9.460051 0.9650 0.9640 0.9640 0.9640 0.9670
9.494000 0.9670 0.9690 0.9700 0.9720 0.9740
9.528051 0.9760 0.9760 0.9760 0.9760 0.9760
9.562000 0.9700 0.9700 0.9720 0.9760 0.9770
9.596051 0.9810 0.9840 0.9840 0.9810 0.9810
9.630000 0.9810 0.9810 0.9770 0.9770 0.9790
9.664051 0.9820 0.9860 0.9880 0.9880 0.9860
9.698000 0.9820 0.9790 0.9770 0.9790 0.9790
9.732051 0.9840 0.9860 0.9860 0.9820 0.9740
9.766000 0.9700 0.9720 0.9720 0.9760 0.9770
9.800051 0.9770 0.9790 0.9770 0.9810 0.9810
9.834000 0.9820 0.9840 0.9840 0.9840 0.9840
9.868051 0.9820 0.9760 0.9670 0.9620 0.9600
9.902000 0.9640 0.9650 0.9700 0.9700 0.9700
9.936051 0.9690 0.9650 0.9640 0.9620 0.9600
9.970000 0.9570 0.9600 0.9580 0.9580 0.9580
10.004051 0.9580 0.9570 0.9570 0.9550 0.9530
10.038000 0.9520 0.9500 0.9480 0.9480 0.9470
10.072051 0.9470 0.9450 0.9450 0.9430 0.9430
10.106000 0.9410 0.9410 0.9400 0.9400 0.9380
10.140051 0.9380 0.9380 0.9380 0.9360 0.9360
10.175000 0.9360 0.9360 0.9330 0.9310 0.9290
10.209051 0.9290 0.9280 0.9290 0.9290 0.9280
10.243000 0.9260 0.9260 0.9240 0.9240 0.9260
10.277051 0.9260 0.9260 0.9240 0.9240 0.9240
10.311000 0.9230 0.9230 0.9230 0.9210 0.9160
10.345051 0.9140 0.9140 0.9120 0.9120 0.9090
10.379000 0.9090 0.9090 0.9070 0.9070 0.9070
10.413051 0.9050 0.9020 0.9020 0.9000 0.9000
10.447000 0.8990 0.8970 0.8950 0.8950 0.8940
10.481051 0.8920 0.8920 0.8940 0.8940 0.8950
10.515000 0.8950 0.8950 0.8950 0.8940 0.8940
10.549051 0.8940 0.8920 0.8900 0.8880 0.8880
10.583000 0.8880 0.8880 0.8870 0.8870 0.8850
10.617051 0.8830 0.8820 0.8820 0.8780 0.8760
10.651000 0.8730 0.8710 0.8700 0.8680 0.8640
10.685051 0.8540 0.8510 0.8470 0.8420 0.8410
10.719000 0.8390 0.8350 0.8350 0.8340 0.8340
10.753051 0.8320 0.8300 0.8290 0.8250 0.8230
10.787000 0.8220 0.8180 0.8130 0.8100 0.8030
10.821051 0.7960 0.7860 0.7810 0.7740 0.7650
10.855000 0.7600 0.7550 0.7480 0.7400 0.7310
10.889051 0.7210 0.7120 0.7020 0.6920 0.6820
10.923000 0.6710 0.6660 0.6610 0.6510 0.6390
10.957051 0.6230 0.6100 0.6000 0.5840 0.5650
10.991000 0.5500 0.5350 0.5160 0.4940 0.4750
11.025051 0.4540 0.4440 0.4320 0.4100 0.3890
11.059000 0.3690 0.3480 0.3330 0.3260 0.3190
11.093051 0.3070 0.2850 0.2630 0.2420 0.2250
11.127000 0.2180 0.2100 0.1980 0.1880 0.1820
11.161051 0.1790 0.1770 0.1740 0.1720 0.1700
11.196000 0.1670 0.1640 0.1600 0.1550 0.1520
11.230051 0.1470 0.1450 0.1430 0.1400 0.1380
11.264000 0.1350 0.1330 0.1310 0.1310 0.1290
11.298051 0.1290 0.1280 0.1240 0.1230 0.1190
11.332000 0.1140 0.1120 0.1090 0.1050 0.1020
11.366051 0.1000 0.0990 0.0990 0.0990 0.0970
11.400000 0.0950 0.0940 0.0920 0.0900 0.0900
11.434051 0.0880 0.0900 0.0950 0.0990 0.0990
11.468000 0.1000 0.1000 0.1020 0.1040 0.1280
11.502051 0.1400 0.1530 0.1690 0.1810 0.1910
11.536000 0.1940 0.2080 0.2340 0.2460 0.2590
11.570051 0.2700 0.2820 0.2920 0.3000 0.3110
11.604000 0.3170 0.3240 0.3280 0.3310 0.3350
11.638051 0.3360 0.3400 0.3410 0.3430 0.3450
11.672000 0.3470 0.3480 0.3500 0.3520 0.3530
11.706051 0.3550 0.3640 0.3670 0.3700 0.3700
11.740000 0.3720 0.3740 0.3720 0.3690 0.3650
11.774051 0.3600 0.3550 0.3470 0.3360 0.3310
11.808000 0.3240 0.3110 0.2950 0.2800 0.2640
11.842051 0.2490 0.2340 0.2270 0.2180 0.2050
11.876000 0.1890 0.1770 0.1670 0.1570 0.1480
11.910051 0.1430 0.1310 0.1290 0.1310 0.1310
11.944000 0.1310 0.1310 0.1310 0.1310 0.1330
11.978051 0.1380 0.1430 0.1480 0.1570 0.1640
12.012000 0.1700 0.1790 0.1840 0.1890 0.1940
12.046051 0.1980 0.2000 0.2010 0.2030 0.2060
12.080000 0.2100 0.2150 0.2290 0.2350 0.2440
12.114051 0.2540 0.2640 0.2750 0.2800 0.2920
12.149000 0.2990 0.3050 0.3090 0.3120 0.3170
12.183051 0.3190 0.3210 0.3240 0.3280 0.3290
12.217000 0.3310 0.3310 0.3310 0.3310 0.3290
12.251051 0.3290 0.3290 0.3280 0.3260 0.3230
12.285000 0.3190 0.3140 0.3050 0.3000 0.2940
12.319051 0.2920 0.2900 0.2880 0.2870 0.2850
12.353000 0.2850 0.2830 0.2800 0.2750 0.2640
12.387051 0.2560 0.2490 0.2440 0.2390 0.2350
12.421000 0.2290 0.2230 0.2200 0.2150 0.2080
12.455051 0.1980 0.1980 0.1940 0.1890 0.1820
12.489000 0.1720 0.1670 0.1620 0.1620 0.1600
12.523051 0.1570 0.1530 0.1480 0.1400 0.1380
12.557000 0.1330 0.1290 0.1260 0.1240 0.1240
12.591051 0.1240 0.1240 0.1240 0.1260 0.1280
12.625000 0.1280 0.1280 0.1290 0.1290 0.1280
12.659051 0.1280 0.1280 0.1280 0.1280 0.1280
12.693000 0.1290 0.1310 0.1350 0.1380 0.1380
12.727051 0.1410 0.1430 0.1430 0.1450 0.1450
12.761000 0.1450 0.1450 0.1430 0.1430 0.1430
12.795051 0.1400 0.1400 0.1410 0.1520 0.1570
12.829000 0.1620 0.1650 0.1700 0.1760 0.1810
12.863051 0.1880 0.1930 0.2000 0.2060 0.2130
12.897000 0.2300 0.2410 0.2510 0.2610 0.2730
12.931051 0.2870 0.3000 0.3160 0.3310 0.3480
12.965000 0.3570 0.3650 0.3740 0.3820 0.3910
12.999051 0.4000 0.4080 0.4150 0.4230 0.4300
13.033000 0.4370 0.4490 0.4520 0.4590 0.4660
13.067051 0.4750 0.4800 0.4870 0.4940 0.4990
13.101000 0.5040 0.5090 0.5120 0.5160 0.5170
13.135051 0.5190 0.5210 0.5240 0.5280 0.5310
13.170000 0.5350 0.5360 0.5400 0.5410 0.5430
13.204051 0.5470 0.5480 0.5500 0.5530 0.5600
13.238000 0.5650 0.5690 0.5700 0.5740 0.5760
13.272051 0.5790 0.5860 0.5860 0.5880 0.5880
13.306000 0.5880 0.5890 0.5910 0.5980 0.6010
13.340051 0.6030 0.6050 0.6060 0.6080 0.6080
13.374000 0.6100 0.6110 0.6130 0.6130 0.6150
13.408051 0.6150 0.6150 0.6170 0.6170 0.6170
13.442000 0.6180 0.6200 0.6220 0.6230 0.6230
13.476051 0.6250 0.6250 0.6250 0.6250 0.6250
13.510000 0.6270 0.6270 0.6270 0.6290 0.6290
13.544051 0.6290 0.6300 0.6290 0.6290 0.6290
13.578000 0.6290 0.6290 0.6320 0.6320 0.6340
13.612051 0.6340 0.6350 0.6350 0.6370 0.6370
13.646000 0.6390 0.6420 0.6440 0.6470 0.6470
13.680051 0.6490 0.6510 0.6540 0.6560 0.6590
13.714000 0.6610 0.6640 0.6680 0.6680 0.6680
13.748051 0.6700 0.6710 0.6710 0.6750 0.6750
13.782000 0.6780 0.6800 0.6820 0.6850 0.6870
13.816051 0.6880 0.6880 0.6900 0.6900 0.6920
13.850000 0.6970 0.7000 0.7020 0.7070 0.7090
13.884051 0.7120 0.7160 0.7170 0.7210 0.7240
13.918000 0.7260 0.7290 0.7310 0.7330 0.7330
13.952051 0.7360 0.7410 0.7450 0.7470 0.7500
13.986000 0.7520 0.7530 0.7550 0.7570 0.7580
14.020051 0.7580 0.7580 0.7600 0.7600 0.7600
14.054000 0.7620 0.7620 0.7640 0.7640 0.7640
14.088051 0.7650 0.7650 0.7650 0.7650 0.7670
14.123000 0.7690 0.7690 0.7700 0.7700 0.7700
14.157051 0.7700 0.7700 0.7700 0.7720 0.7740
14.191000 0.7740 0.7740 0.7740 0.7740 0.7740
14.225051 0.7740 0.7760 0.7760 0.7760 0.7760
14.259000 0.7760 0.7740 0.7720 0.7690 0.7690
14.293051 0.7670 0.7670 0.7670 0.7670 0.7700
14.327000 0.7700 0.7720 0.7700 0.7700 0.7700
14.361051 0.7700 0.7700 0.7690 0.7690 0.7690
14.395000 0.7670 0.7650 0.7620 0.7620 0.7600
14.429051 0.7580 0.7570 0.7550 0.7550 0.7530
14.463000 0.7520 0.7520 0.7520 0.7500 0.7480
14.497051 0.7480 0.7470 0.7450 0.7430 0.7410
14.531000 0.7430 0.7410 0.7400 0.7400 0.7380
14.565051 0.7380 0.7380 0.7380 0.7360 0.7360
14.599000 0.7350 0.7350 0.7310 0.7310 0.7310
14.633051 0.7290 0.7290 0.7310 0.7290 0.7290
14.667000 0.7290 0.7290 0.7290 0.7290 0.7290
14.701051 0.7280 0.7280 0.7260 0.7240 0.7240
14.735000 0.7210 0.7190 0.7170 0.7170 0.7160
14.769051 0.7120 0.7110 0.7090 0.7070 0.7070
14.803000 0.7050 0.7050 0.7040 0.7040 0.7020
14.837051 0.7020 0.7000 0.7000 0.6990 0.6970
14.871000 0.6950 0.6940 0.6920 0.6920 0.6920
14.905051 0.6920 0.6920 0.6900 0.6880 0.6850
14.939000 0.6830 0.6830 0.6830 0.6800 0.6780
14.973051 0.6760 0.6760 0.6760 0.6750 0.6730
15.007000 0.6710 0.6680 0.6660 0.6640 0.6630
15.041051 0.6610 0.6560 0.6520 0.6520 0.6490
15.075000 0.6470 0.6470 0.6440 0.6420 0.6410
15.109051 0.6410 0.6410 0.6410 0.6410 0.6410
15.144000 0.6370 0.6370 0.6340 0.6300 0.6290
15.178051 0.6270 0.6250 0.6220 0.6200 0.6170
15.212000 0.6150 0.6130 0.6130 0.6100 0.6080
15.246051 0.6060 0.6050 0.6050 0.6010 0.5980
15.280000 0.5960 0.5930 0.5910 0.5890 0.5860
15.314051 0.5840 0.5810 0.5770 0.5760 0.5760
15.348000 0.5720 0.5700 0.5670 0.5650 0.5620
15.382051 0.5600 0.5570 0.5550 0.5550 0.5530
15.416000 0.5530 0.5500 0.5480 0.5470 0.5430
15.450051 0.5400 0.5380 0.5380 0.5330 0.5290
15.484000 0.5260 0.5240 0.5190 0.5140 0.5090
15.518051 0.5050 0.5040 0.5000 0.4990 0.4990
15.552000 0.4950 0.4900 0.4880 0.4870 0.4850
15.586051 0.4830 0.4820 0.4820 0.4800 0.4780
15.620000 0.4760 0.4730 0.4710 0.4700 0.4680
15.654051 0.4660 0.4630 0.4610 0.4610 0.4590
15.688000 0.4580 0.4580 0.4560 0.4540 0.4510
15.722051 0.4510 0.4490 0.4490 0.4490 0.4490
15.756000 0.4490 0.4470 0.4470 0.4470 0.4470
15.790051 0.4460 0.4460 0.4460 0.4460 0.4460
15.824000 0.4460 0.4460 0.4460 0.4460 0.4460
15.858051 0.4460 0.4460 0.4460 0.4460 0.4460
15.892000 0.4460 0.4460 0.4460 0.4460 0.4470
15.926051 0.4470 0.4470 0.4470 0.4470 0.4470
15.960000 0.4490 0.4490 0.4490 0.5640 0.4470
15.994051 0.4490 0.4490
##END=
