##TITLE=2-NAPHTHYLAMINE, N-BENZYLIDENE-1-(PHENYLAZO)-, HYDROGEN TETRAFLUOROBORATE
##JCAMP-DX=4.24
##DATA TYPE=INFRARED SPECTRUM
##CLASS=COBLENTZ III
##ORIGIN=HUNGARIAN ACAD. OF SCI., VIA SCIENTIFIC DOC. CENTRE LTD.
##OWNER=COBLENTZ SOCIETY
Collection (C) 2018 copyright by the U.S. Secretary of Commerce
on behalf of the United States of America. All rights reserved.
##DATE=1967
##MOLFORM=C23 H18 B F4 N3
##SOURCE REFERENCE=COBLENTZ NO. 5833
##$NIST ID=B6005833
##$NIST SOURCE=COBLENTZ
##$NIST IMAGE=cob5833
##SPECTROMETER/DATA SYSTEM=UNICAM SP-200
##STATE=SOLID (KBr DISC)
##SAMPLING PROCEDURE=TRANSMISSION
##RESOLUTION=4
##DATA PROCESSING=DIGITIZED BY NIST FROM HARD COPY (FROM TWO SEGMENTS)
##XUNITS=1/CM
##YUNITS=TRANSMITTANCE
##XFACTOR=1.000000
##YFACTOR=1
##DELTAX=0.790864
##FIRSTX=650.791
##LASTX=4961
##FIRSTY=0.624
##MAXX=4961
##MINX=650.791
##MAXY=0.738
##MINY=0.0630012
##NPOINTS=5451
##XYDATA=(X++(Y..Y))
650.791000 0.6240 0.6270 0.6300 0.6330 0.6340
654.745318 0.6340 0.6420 0.6480 0.6520 0.6530
658.699636 0.6650 0.6680 0.6680 0.6670 0.6660
662.653954 0.6650 0.6650 0.6610 0.6590 0.6560
666.608272 0.6550 0.6540 0.6490 0.6470 0.6300
670.562590 0.6091 0.5970 0.5850 0.5601 0.5282
674.516908 0.4940 0.4820 0.4780 0.4770 0.4770
678.471227 0.4780 0.4800 0.4840 0.4870 0.4890
682.425545 0.4960 0.5030 0.5060 0.5120 0.5170
686.379863 0.5240 0.5290 0.5350 0.5390 0.5430
690.334181 0.5440 0.5450 0.5520 0.5540 0.5670
694.288499 0.5680 0.5690 0.5690 0.5660 0.5630
698.242817 0.5600 0.5560 0.5450 0.5380 0.5310
702.197135 0.5200 0.5100 0.5040 0.4960 0.4910
706.151453 0.4860 0.4850 0.4870 0.4890 0.4960
710.105771 0.5000 0.5080 0.5239 0.5340 0.5589
714.060089 0.5790 0.5840 0.6080 0.6200 0.6210
718.014407 0.6220 0.6310 0.6370 0.6420 0.6440
721.968725 0.6470 0.6480 0.6500 0.6510 0.6530
725.923043 0.6540 0.6540 0.6540 0.6530 0.6510
729.877362 0.6500 0.6490 0.6400 0.6280 0.6140
733.831680 0.6070 0.6010 0.5940 0.5781 0.5561
737.785998 0.5490 0.5330 0.5090 0.4840 0.4640
741.740316 0.4530 0.4430 0.4231 0.4031 0.3950
745.694634 0.3860 0.3720 0.3570 0.3280 0.2980
749.648952 0.2870 0.2671 0.2441 0.2211 0.2091
753.603270 0.1980 0.1770 0.1760 0.1750 0.1760
757.557588 0.1880 0.1910 0.2239 0.2539 0.2829
761.511906 0.2980 0.3080 0.3170 0.3310 0.3340
765.466224 0.3380 0.3420 0.3550 0.3749 0.4158
769.420542 0.4280 0.4380 0.4490 0.4560 0.4630
773.374860 0.4650 0.4790 0.5029 0.5259 0.5439
777.329178 0.5560 0.5650 0.5720 0.5780 0.5830
781.283497 0.5880 0.6000 0.6090 0.6190 0.6339
785.237815 0.6470 0.6610 0.6770 0.6830 0.6910
789.192133 0.6980 0.7040 0.7100 0.7140 0.7170
793.146451 0.7170 0.7210 0.7240 0.7260 0.7270
797.100769 0.7290 0.7300 0.7310 0.7340 0.7340
801.055087 0.7360 0.7360 0.7380 0.7380 0.7380
805.009405 0.7380 0.7380 0.7380 0.7380 0.7380
808.963723 0.7370 0.7370 0.7360 0.7360 0.7360
812.918041 0.7360 0.7350 0.7340 0.7290 0.7270
816.872359 0.7250 0.7240 0.7200 0.7100 0.7040
820.826677 0.6940 0.6810 0.6621 0.6441 0.6350
824.780995 0.6250 0.6040 0.5970 0.5890 0.5740
828.735313 0.5241 0.4921 0.4601 0.4441 0.4211
832.689631 0.4090 0.3960 0.3630 0.3320 0.3310
836.643950 0.3320 0.3450 0.3590 0.3690 0.3740
840.598268 0.4040 0.4230 0.4380 0.4450 0.4510
844.552586 0.4540 0.4560 0.4590 0.4630 0.4700
848.506904 0.4740 0.4840 0.4940 0.5030 0.5220
852.461222 0.5380 0.5590 0.5750 0.6019 0.6090
856.415540 0.6180 0.6220 0.6240 0.6290 0.6400
860.369858 0.6530 0.6630 0.6720 0.6770 0.6790
864.324176 0.6840 0.6860 0.6860 0.6850 0.6850
868.278494 0.6800 0.6720 0.6640 0.6570 0.6510
872.232812 0.6440 0.6340 0.6220 0.6060 0.6060
876.187130 0.6090 0.6150 0.6190 0.6310 0.6400
880.141448 0.6550 0.6630 0.6640 0.6640 0.6630
884.095766 0.6630 0.6600 0.6590 0.6560 0.6540
888.050085 0.6430 0.6340 0.6260 0.6180 0.6110
892.004403 0.6040 0.6040 0.6040 0.6040 0.6090
895.958721 0.6110 0.6170 0.6250 0.6330 0.6440
899.913039 0.6540 0.6600 0.6650 0.6700 0.6790
903.867357 0.6840 0.6850 0.6840 0.6840 0.6800
907.821675 0.6680 0.6680 0.6700 0.6720 0.6740
911.775993 0.6750 0.6800 0.6840 0.6890 0.6910
915.730311 0.6940 0.6940 0.6940 0.6940 0.6950
919.684629 0.6970 0.6990 0.7010 0.7030 0.7030
923.638947 0.7030 0.7040 0.7040 0.7050 0.7050
927.593265 0.7050 0.7050 0.7050 0.7040 0.7040
931.547583 0.7040 0.7030 0.7020 0.7010 0.7010
935.501901 0.7000 0.7000 0.7000 0.7010 0.7010
939.456220 0.7010 0.7010 0.7020 0.7020 0.7010
943.410538 0.7010 0.7000 0.6980 0.6960 0.6950
947.364856 0.6950 0.6940 0.6910 0.5833 0.4754
951.319174 0.4280 0.4280 0.4330 0.4380 0.4400
955.273492 0.4540 0.4650 0.4840 0.5189 0.5459
959.227810 0.5750 0.5930 0.5930 0.5890 0.5530
963.182128 0.5241 0.5190 0.5180 0.5190 0.5200
967.136446 0.5220 0.5230 0.5230 0.5220 0.5210
971.090764 0.5130 0.5120 0.5050 0.5030 0.4920
975.045082 0.4790 0.4580 0.4370 0.4220 0.4110
978.999400 0.4040 0.3980 0.3920 0.3741 0.3720
982.953718 0.3680 0.3620 0.3470 0.3410 0.3260
986.908036 0.3120 0.3020 0.2940 0.2920 0.2910
990.862355 0.2830 0.2820 0.2810 0.2800 0.2800
994.816673 0.2800 0.2800 0.2810 0.2810 0.2820
998.770991 0.2820 0.2820 0.2820 0.2820 0.2820
1002.725309 0.2820 0.2620 0.2620 0.2750 0.2889
1006.679627 0.2910 0.2930 0.3020 0.3110 0.3130
1010.633945 0.3170 0.3220 0.3240 0.3270 0.3290
1014.588263 0.3300 0.3310 0.3320 0.3350 0.3370
1018.542581 0.3410 0.3410 0.3420 0.3410 0.3350
1022.496899 0.3120 0.3070 0.3010 0.2770 0.2470
1026.451217 0.2380 0.2330 0.2260 0.2160 0.2100
1030.405535 0.2020 0.1960 0.1900 0.1760 0.1700
1034.359853 0.1670 0.1640 0.1590 0.1530 0.1500
1038.314171 0.1500 0.1490 0.1490 0.1500 0.1520
1042.268490 0.1540 0.1580 0.1640 0.1670 0.1690
1046.222808 0.1710 0.1730 0.1760 0.1760 0.1750
1050.177126 0.1740 0.1710 0.1690 0.1620 0.1590
1054.131444 0.1570 0.1520 0.1500 0.1480 0.1440
1058.085762 0.1380 0.1330 0.1320 0.1320 0.1310
1062.040080 0.1310 0.1310 0.1310 0.1300 0.1270
1065.994398 0.1250 0.1220 0.1200 0.1130 0.1100
1069.948716 0.1080 0.1070 0.1050 0.1050 0.1030
1073.903034 0.1020 0.1010 0.1000 0.0900 0.0820
1077.857352 0.0800 0.0770 0.0730 0.0680 0.0640
1081.811670 0.0630 0.0640 0.0650 0.0670 0.0680
1085.765988 0.0700 0.0720 0.0790 0.0820 0.0850
1089.720306 0.0870 0.0870 0.0890 0.0900 0.0910
1093.674625 0.0940 0.1000 0.1000 0.1010 0.1030
1097.628943 0.1050 0.1050 0.1060 0.1090 0.1100
1101.583261 0.1110 0.1120 0.1130 0.1150 0.1150
1105.537579 0.1160 0.1160 0.1150 0.1150 0.1150
1109.491897 0.1160 0.1170 0.1190 0.1200 0.1220
1113.446215 0.1260 0.1290 0.1320 0.1360 0.1400
1117.400533 0.1490 0.1560 0.1620 0.1640 0.1700
1121.354851 0.1720 0.1740 0.1790 0.1999 0.2040
1125.309169 0.2160 0.2190 0.2250 0.2300 0.2400
1129.263487 0.2510 0.2640 0.2720 0.2790 0.2850
1133.217805 0.2920 0.2990 0.3020 0.3050 0.3130
1137.172123 0.3150 0.3170 0.3150 0.3150 0.3110
1141.126441 0.3070 0.3030 0.2990 0.2980 0.2980
1145.080760 0.3000 0.3050 0.3180 0.3250 0.3399
1149.035078 0.3460 0.3640 0.3710 0.3740 0.3750
1152.989396 0.3760 0.3730 0.3670 0.3620 0.3600
1156.943714 0.3570 0.3570 0.3570 0.3600 0.3620
1160.898032 0.3650 0.3690 0.3710 0.3780 0.3860
1164.852350 0.4100 0.4210 0.4320 0.4430 0.4470
1168.806668 0.4490 0.4510 0.4540 0.4530 0.4510
1172.760986 0.4320 0.4130 0.3930 0.3710 0.3410
1176.715304 0.3300 0.3130 0.3100 0.3050 0.3030
1180.669622 0.3010 0.2960 0.2960 0.3010 0.3030
1184.623940 0.3100 0.3120 0.3240 0.3260 0.3280
1188.578258 0.3280 0.3250 0.3220 0.3210 0.3160
1192.532576 0.3120 0.2910 0.2680 0.2440 0.2410
1196.486894 0.2270 0.2090 0.1990 0.1890 0.1730
1200.441213 0.1710 0.1720 0.1850 0.1910 0.2219
1204.395531 0.2481 0.2780 0.3010 0.3200 0.3310
1208.349849 0.3610 0.3820 0.4119 0.4210 0.4210
1212.304167 0.4260 0.4300 0.4320 0.4330 0.4330
1216.258485 0.4290 0.4230 0.4180 0.4100 0.4080
1220.212803 0.4070 0.4080 0.4120 0.4230 0.4370
1224.167121 0.4530 0.4720 0.4860 0.4940 0.5040
1228.121439 0.5040 0.5050 0.5050 0.5070 0.5120
1232.075757 0.5130 0.5130 0.5110 0.5110 0.5050
1236.030075 0.4910 0.4820 0.4800 0.4750 0.4610
1239.984393 0.4550 0.4110 0.3671 0.3371 0.3121
1243.938711 0.2949 0.2630 0.2480 0.2180 0.2020
1247.893029 0.1860 0.1780 0.1670 0.1540 0.1420
1251.847348 0.1410 0.1410 0.1570 0.1640 0.2020
1255.801666 0.2200 0.2370 0.2560 0.2820 0.3109
1259.755984 0.3200 0.3390 0.3531 0.4040 0.4230
1263.710302 0.4310 0.4410 0.4420 0.4450 0.4510
1267.664620 0.4540 0.4580 0.4610 0.4650 0.4700
1271.618938 0.4750 0.4800 0.4810 0.4820 0.4810
1275.573256 0.4810 0.4810 0.4810 0.4800 0.4810
1279.527574 0.4800 0.4720 0.4650 0.4630 0.4560
1283.481892 0.4550 0.4550 0.4550 0.4560 0.4560
1287.436210 0.4560 0.4560 0.4570 0.4580 0.4580
1291.390528 0.4580 0.4570 0.4570 0.4570 0.4560
1295.344846 0.4560 0.4560 0.4560 0.4560 0.4580
1299.299164 0.4610 0.4630 0.4650 0.4660 0.4700
1303.253483 0.4720 0.4750 0.4750 0.4760 0.4760
1307.207801 0.4760 0.4750 0.4720 0.4630 0.4510
1311.162119 0.4440 0.4390 0.4360 0.4400 0.4410
1315.116437 0.4420 0.4470 0.4480 0.4500 0.4480
1319.070755 0.4470 0.4460 0.4430 0.4350 0.4280
1323.025073 0.4060 0.4010 0.3950 0.3900 0.3670
1326.979391 0.3640 0.3630 0.3640 0.3700 0.3760
1330.933709 0.3800 0.3880 0.4070 0.4210 0.4350
1334.888027 0.4410 0.4570 0.4640 0.4710 0.4820
1338.842345 0.4870 0.4910 0.4940 0.5010 0.5020
1342.796663 0.5050 0.5150 0.5180 0.5210 0.5240
1346.750981 0.5270 0.5290 0.5300 0.5320 0.5350
1350.705299 0.5360 0.5380 0.5410 0.5410 0.5430
1354.659618 0.5470 0.5530 0.5570 0.5720 0.5780
1358.613936 0.5840 0.6030 0.6060 0.6110 0.6110
1362.568254 0.6120 0.6180 0.6210 0.6220 0.6230
1366.522572 0.6240 0.6270 0.6290 0.6290 0.6300
1370.476890 0.6290 0.6280 0.6260 0.6250 0.6210
1374.431208 0.6160 0.6040 0.5920 0.5740 0.5470
1378.385526 0.5219 0.4930 0.4840 0.4779 0.4240
1382.339844 0.4010 0.3960 0.3910 0.3870 0.3750
1386.294162 0.3750 0.3790 0.4010 0.4110 0.4280
1390.248480 0.4510 0.4710 0.4910 0.5070 0.5170
1394.202798 0.5240 0.5310 0.5410 0.5510 0.5580
1398.157116 0.5620 0.5710 0.5730 0.5760 0.5790
1402.111434 0.5810 0.5810 0.5800 0.5720 0.5690
1406.065753 0.5620 0.5530 0.5440 0.5360 0.5140
1410.020071 0.4950 0.4830 0.4730 0.4530 0.4250
1413.974389 0.4070 0.3990 0.3900 0.3740 0.3630
1417.928707 0.3440 0.3320 0.3200 0.3100 0.2890
1421.883025 0.2550 0.2320 0.2100 0.1990 0.1870
1425.837343 0.1780 0.1750 0.1670 0.1590 0.1570
1429.791661 0.1570 0.1570 0.1580 0.1600 0.1650
1433.745979 0.1911 0.2120 0.2230 0.2260 0.2340
1437.700297 0.2510 0.2820 0.3100 0.3220 0.3340
1441.654615 0.3400 0.3460 0.3620 0.3710 0.3740
1445.608933 0.3800 0.3820 0.3820 0.3800 0.3620
1449.563251 0.3399 0.3009 0.2760 0.2510 0.2360
1453.517569 0.2210 0.2170 0.2000 0.2000 0.1990
1457.471888 0.2071 0.2220 0.2240 0.2330 0.2510
1461.426206 0.2700 0.2900 0.3100 0.3220 0.3260
1465.380524 0.3361 0.3631 0.4161 0.4430 0.4650
1469.334842 0.4750 0.4920 0.5020 0.5080 0.5140
1473.289160 0.5220 0.5310 0.5410 0.5500 0.5520
1477.243478 0.5640 0.5710 0.5740 0.5760 0.5740
1481.197796 0.5739 0.5579 0.5329 0.5100 0.4940
1485.152114 0.4760 0.4610 0.4400 0.4230 0.4110
1489.106432 0.4010 0.3910 0.3740 0.3550 0.3520
1493.060750 0.3460 0.3430 0.3430 0.3460 0.3600
1497.015068 0.3651 0.3801 0.4231 0.4451 0.4700
1500.969386 0.4910 0.5080 0.5240 0.5380 0.5570
1504.923704 0.5710 0.5830 0.5840 0.5880 0.5900
1508.878023 0.6010 0.6120 0.6180 0.6210 0.6250
1512.832341 0.6280 0.6320 0.6350 0.6420 0.6430
1516.786659 0.6440 0.6460 0.6470 0.6510 0.6510
1520.740977 0.6540 0.6560 0.6580 0.6580 0.6590
1524.695295 0.6600 0.6600 0.6610 0.6610 0.6620
1528.649613 0.6630 0.6660 0.6660 0.6660 0.6670
1532.603931 0.6670 0.6670 0.6660 0.6660 0.6650
1536.558249 0.6640 0.6640 0.6630 0.6610 0.6480
1540.512567 0.6330 0.6210 0.6020 0.5940 0.5850
1544.466885 0.5709 0.5519 0.5350 0.5210 0.5120
1548.421203 0.5030 0.4990 0.4960 0.4910 0.4910
1552.375521 0.4900 0.4900 0.4910 0.4940 0.4940
1556.329839 0.4960 0.4980 0.4990 0.5000 0.5030
1560.284157 0.5030 0.5040 0.5010 0.4850 0.4780
1564.238476 0.4610 0.4590 0.4490 0.4370 0.4260
1568.192794 0.4140 0.4040 0.4030 0.4040 0.4070
1572.147112 0.4100 0.4140 0.4150 0.4250 0.4260
1576.101430 0.4370 0.4390 0.4400 0.4410 0.4420
1580.055748 0.4440 0.4450 0.4470 0.4500 0.4500
1584.010066 0.4500 0.4490 0.4490 0.4450 0.4400
1587.964384 0.4350 0.4300 0.4140 0.4050 0.3950
1591.918702 0.3740 0.3599 0.3390 0.3250 0.3050
1595.873020 0.2830 0.2680 0.2400 0.2230 0.2190
1599.827338 0.2100 0.2030 0.1940 0.1850 0.1810
1603.781656 0.1800 0.1810 0.1890 0.2050 0.2130
1607.735974 0.2211 0.2350 0.2401 0.2750 0.2970
1611.690292 0.3290 0.3490 0.3620 0.4100 0.4350
1615.644611 0.4510 0.4561 0.4721 0.4990 0.5060
1619.598929 0.5160 0.5310 0.5450 0.5600 0.5820
1623.553247 0.5920 0.6000 0.6010 0.6030 0.6110
1627.507565 0.6120 0.6160 0.6210 0.6260 0.6300
1631.461883 0.6300 0.6330 0.6400 0.6430 0.6490
1635.416201 0.6500 0.6500 0.6510 0.6520 0.6540
1639.370519 0.6560 0.6570 0.6590 0.6600 0.6610
1643.324837 0.6620 0.6620 0.6630 0.6640 0.6650
1647.279155 0.6660 0.6680 0.6700 0.6730 0.6820
1651.233473 0.6820 0.6840 0.6850 0.6860 0.6850
1655.187791 0.6850 0.6840 0.6850 0.6860 0.6870
1659.142109 0.6890 0.6890 0.6900 0.6900 0.6900
1663.096427 0.6910 0.6910 0.6920 0.6940 0.6950
1667.050746 0.6960 0.6970 0.6980 0.6990 0.7000
1671.005064 0.7000 0.7000 0.6990 0.6980 0.6980
1674.959382 0.6980 0.6970 0.6980 0.6980 0.6980
1678.913700 0.7010 0.7030 0.7050 0.7060 0.7070
1682.868018 0.7080 0.7080 0.7080 0.7090 0.7080
1686.822336 0.7070 0.7070 0.7060 0.7050 0.7050
1690.776654 0.7040 0.7030 0.7030 0.7030 0.7040
1694.730972 0.7060 0.7060 0.7080 0.7080 0.7090
1698.685290 0.7100 0.7100 0.7100 0.7090 0.7090
1702.639608 0.7090 0.7080 0.7080 0.7080 0.7080
1706.593926 0.7080 0.7080 0.7100 0.7100 0.7100
1710.548244 0.7100 0.7100 0.7110 0.7120 0.7140
1714.502562 0.7150 0.7150 0.7150 0.7150 0.7150
1718.456881 0.7150 0.7150 0.7150 0.7170 0.7180
1722.411199 0.7190 0.7200 0.7200 0.7210 0.7220
1726.365517 0.7220 0.7220 0.7230 0.7240 0.7250
1730.319835 0.7250 0.7260 0.7260 0.7260 0.7250
1734.274153 0.7250 0.7250 0.7250 0.7250 0.7250
1738.228471 0.7260 0.7270 0.7270 0.7270 0.7270
1742.182789 0.7270 0.7270 0.7280 0.7280 0.7290
1746.137107 0.7290 0.7300 0.7310 0.7310 0.7320
1750.091425 0.7320 0.7310 0.7310 0.7310 0.7320
1754.045743 0.7320 0.7310 0.7310 0.7300 0.7300
1758.000061 0.7310 0.7310 0.7310 0.7310 0.7310
1761.954379 0.7300 0.7290 0.7270 0.7260 0.7250
1765.908697 0.7270 0.7270 0.7270 0.7280 0.7290
1769.863016 0.7300 0.7300 0.7310 0.7310 0.7310
1773.817334 0.7320 0.7310 0.7310 0.7310 0.7310
1777.771652 0.7300 0.7300 0.7290 0.7290 0.7290
1781.725970 0.7290 0.7300 0.7310 0.7310 0.7310
1785.680288 0.7310 0.7310 0.7300 0.7300 0.7300
1789.634606 0.7300 0.7300 0.7300 0.7300 0.7310
1793.588924 0.7310 0.7310 0.7300 0.7300 0.7290
1797.543242 0.7290 0.7300 0.7300 0.7310 0.7330
1801.497560 0.7330 0.7340 0.7340 0.7340 0.7340
1805.451878 0.7330 0.7330 0.7320 0.7320 0.7320
1809.406196 0.7310 0.7310 0.7320 0.7310 0.7310
1813.360514 0.7310 0.7310 0.7310 0.7310 0.7310
1817.314832 0.7320 0.7320 0.7320 0.7330 0.7330
1821.269151 0.7340 0.7340 0.7330 0.7330 0.7330
1825.223469 0.7320 0.7320 0.7320 0.7310 0.7310
1829.177787 0.7310 0.7310 0.7300 0.7290 0.7290
1833.132105 0.7290 0.7280 0.7280 0.7280 0.7280
1837.086423 0.7270 0.7270 0.7280 0.7290 0.7290
1841.040741 0.7300 0.7310 0.7310 0.7320 0.7320
1844.995059 0.7320 0.7320 0.7320 0.7320 0.7310
1848.949377 0.7310 0.7320 0.7330 0.7330 0.7310
1852.903695 0.7310 0.7300 0.7290 0.7270 0.7290
1856.858013 0.7300 0.7300 0.7280 0.7280 0.7270
1860.812331 0.7270 0.7270 0.7280 0.7300 0.7310
1864.766649 0.7310 0.7310 0.7310 0.7310 0.7310
1868.720967 0.7310 0.7320 0.7330 0.7320 0.7320
1872.675286 0.7320 0.7310 0.7310 0.7310 0.7310
1876.629604 0.7310 0.7310 0.7310 0.7310 0.7320
1880.583922 0.7320 0.7330 0.7330 0.7310 0.7310
1884.538240 0.7310 0.7310 0.7310 0.7310 0.7310
1888.492558 0.7310 0.7320 0.7320 0.7310 0.7310
1892.446876 0.7300 0.7290 0.7290 0.7290 0.7290
1896.401194 0.7290 0.7300 0.7300 0.7310 0.7310
1900.355512 0.7310 0.7300 0.7300 0.7290 0.7290
1904.309830 0.7290 0.7290 0.7280 0.7270 0.7270
1908.264148 0.7270 0.7270 0.7270 0.7270 0.7280
1912.218466 0.7280 0.7280 0.7280 0.7280 0.7270
1916.172784 0.7270 0.7270 0.7270 0.7260 0.7260
1920.127102 0.7250 0.7250 0.7240 0.7240 0.7240
1924.081420 0.7240 0.7230 0.7230 0.7230 0.7240
1928.035739 0.7230 0.7230 0.7230 0.7230 0.7220
1931.990057 0.7220 0.7220 0.7210 0.7210 0.7210
1935.944375 0.7210 0.7200 0.7200 0.7200 0.7200
1939.898693 0.7200 0.7200 0.7200 0.7200 0.7190
1943.853011 0.7190 0.7190 0.7190 0.7180 0.7180
1947.807329 0.7180 0.7170 0.7170 0.7170 0.7170
1951.761647 0.7170 0.7170 0.7170 0.7170 0.7170
1955.715965 0.7170 0.7170 0.7160 0.7150 0.7150
1959.670283 0.7150 0.7150 0.7150 0.7150 0.7150
1963.624601 0.7150 0.7150 0.7140 0.7140 0.7140
1967.578919 0.7140 0.7150 0.7150 0.7150 0.7160
1971.533237 0.7160 0.7170 0.7170 0.7170 0.7170
1975.487555 0.7170 0.7170 0.7170 0.7170 0.7170
1979.441874 0.7170 0.7170 0.7170 0.7170 0.7170
1983.396192 0.7170 0.7170 0.7170 0.7170 0.7160
1987.350510 0.7160 0.7160 0.7160 0.7150 0.7150
1991.304828 0.7150 0.7150 0.7150 0.7150 0.7150
1995.259146 0.7150 0.7150 0.7150 0.7150 0.7150
1999.213464 0.7150 0.7190 0.7192 0.7195 0.7197
2003.167782 0.7200 0.7200 0.7200 0.7200 0.7200
2007.122100 0.7202 0.7205 0.7207 0.7210 0.7210
2011.076418 0.7210 0.7210 0.7210 0.7210 0.7210
2015.030736 0.7210 0.7210 0.7212 0.7215 0.7217
2018.985054 0.7219 0.7220 0.7220 0.7220 0.7220
2022.939372 0.7220 0.7220 0.7220 0.7220 0.7222
2026.893690 0.7224 0.7227 0.7229 0.7232 0.7234
2030.848009 0.7237 0.7239 0.7240 0.7240 0.7240
2034.802327 0.7240 0.7240 0.7240 0.7240 0.7240
2038.756645 0.7238 0.7236 0.7234 0.7231 0.7230
2042.710963 0.7230 0.7230 0.7230 0.7230 0.7230
2046.665281 0.7230 0.7230 0.7230 0.7230 0.7230
2050.619599 0.7230 0.7230 0.7230 0.7230 0.7230
2054.573917 0.7229 0.7226 0.7224 0.7221 0.7220
2058.528235 0.7220 0.7220 0.7220 0.7220 0.7220
2062.482553 0.7220 0.7220 0.7219 0.7217 0.7214
2066.436871 0.7212 0.7210 0.7210 0.7210 0.7210
2070.391189 0.7210 0.7210 0.7210 0.7210 0.7209
2074.345507 0.7207 0.7204 0.7202 0.7200 0.7200
2078.299825 0.7200 0.7200 0.7199 0.7197 0.7195
2082.254144 0.7192 0.7190 0.7190 0.7190 0.7190
2086.208462 0.7190 0.7187 0.7185 0.7182 0.7180
2090.162780 0.7177 0.7175 0.7172 0.7170 0.7170
2094.117098 0.7170 0.7170 0.7170 0.7170 0.7170
2098.071416 0.7170 0.7170 0.7167 0.7165 0.7162
2102.025734 0.7160 0.7160 0.7160 0.7160 0.7160
2105.980052 0.7160 0.7160 0.7160 0.7160 0.7158
2109.934370 0.7155 0.7153 0.7150 0.7150 0.7150
2113.888688 0.7150 0.7150 0.7150 0.7150 0.7150
2117.843006 0.7150 0.7152 0.7155 0.7157 0.7159
2121.797324 0.7160 0.7160 0.7160 0.7160 0.7158
2125.751642 0.7156 0.7153 0.7151 0.7150 0.7150
2129.705960 0.7150 0.7150 0.7148 0.7146 0.7143
2133.660279 0.7141 0.7140 0.7140 0.7140 0.7140
2137.614597 0.7140 0.7140 0.7140 0.7140 0.7140
2141.568915 0.7140 0.7140 0.7140 0.7139 0.7136
2145.523233 0.7134 0.7131 0.7127 0.7122 0.7117
2149.477551 0.7112 0.7109 0.7106 0.7104 0.7101
2153.431869 0.7099 0.7096 0.7094 0.7091 0.7090
2157.386187 0.7090 0.7090 0.7090 0.7090 0.7090
2161.340505 0.7090 0.7090 0.7089 0.7087 0.7084
2165.294823 0.7082 0.7080 0.7080 0.7080 0.7080
2169.249141 0.7080 0.7080 0.7080 0.7080 0.7079
2173.203459 0.7077 0.7074 0.7072 0.7070 0.7070
2177.157777 0.7070 0.7070 0.7070 0.7070 0.7070
2181.112095 0.7070 0.7070 0.7070 0.7070 0.7070
2185.066414 0.7070 0.7067 0.7065 0.7062 0.7060
2189.020732 0.7060 0.7060 0.7060 0.7060 0.7057
2192.975050 0.7055 0.7052 0.7050 0.7050 0.7050
2196.929368 0.7050 0.7050 0.7050 0.7050 0.7050
2200.883686 0.7050 0.7047 0.7045 0.7042 0.7040
2204.838004 0.7040 0.7040 0.7040 0.7040 0.7038
2208.792322 0.7035 0.7033 0.7030 0.7028 0.7025
2212.746640 0.7023 0.7020 0.7020 0.7020 0.7020
2216.700958 0.7020 0.7020 0.7020 0.7020 0.7020
2220.655276 0.7018 0.7015 0.7013 0.7010 0.7010
2224.609594 0.7010 0.7010 0.7010 0.7008 0.7006
2228.563912 0.7003 0.7001 0.7000 0.7000 0.7000
2232.518230 0.7000 0.7000 0.7000 0.7000 0.7000
2236.472549 0.7000 0.7000 0.7000 0.7000 0.7000
2240.426867 0.7000 0.7000 0.7000 0.6998 0.6996
2244.381185 0.6994 0.6991 0.6990 0.6990 0.6990
2248.335503 0.6990 0.6986 0.6979 0.6971 0.6964
2252.289821 0.6957 0.6952 0.6947 0.6942 0.6936
2256.244139 0.6929 0.6921 0.6914 0.6906 0.6899
2260.198457 0.6892 0.6884 0.6880 0.6880 0.6880
2264.152775 0.6880 0.6880 0.6880 0.6880 0.6880
2268.107093 0.6879 0.6877 0.6874 0.6872 0.6869
2272.061411 0.6867 0.6864 0.6862 0.6859 0.6857
2276.015729 0.6854 0.6852 0.6850 0.6850 0.6850
2279.970047 0.6850 0.6850 0.6850 0.6850 0.6850
2283.924365 0.6850 0.6847 0.6845 0.6842 0.6840
2287.878683 0.6840 0.6840 0.6840 0.6840 0.6837
2291.833002 0.6835 0.6832 0.6830 0.6830 0.6830
2295.787320 0.6830 0.6830 0.6830 0.6830 0.6830
2299.741638 0.6830 0.6830 0.6830 0.6830 0.6830
2303.695956 0.6830 0.6830 0.6830 0.6830 0.6830
2307.650274 0.6830 0.6830 0.6830 0.6830 0.6830
2311.604592 0.6830 0.6830 0.6830 0.6830 0.6830
2315.558910 0.6830 0.6830 0.6830 0.6830 0.6830
2319.513228 0.6828 0.6825 0.6823 0.6820 0.6820
2323.467546 0.6820 0.6820 0.6820 0.6820 0.6820
2327.421864 0.6820 0.6820 0.6820 0.6820 0.6820
2331.376182 0.6820 0.6820 0.6820 0.6820 0.6820
2335.330500 0.6822 0.6824 0.6827 0.6829 0.6830
2339.284818 0.6830 0.6830 0.6830 0.6828 0.6826
2343.239137 0.6823 0.6821 0.6819 0.6816 0.6814
2347.193455 0.6811 0.6810 0.6810 0.6810 0.6810
2351.147773 0.6806 0.6798 0.6791 0.6783 0.6776
2355.102091 0.6769 0.6761 0.6754 0.6745 0.6735
2359.056409 0.6725 0.6715 0.6702 0.6684 0.6667
2363.010727 0.6650 0.6629 0.6604 0.6580 0.6555
2366.965045 0.6531 0.6509 0.6486 0.6464 0.6445
2370.919363 0.6433 0.6421 0.6408 0.6396 0.6384
2374.873681 0.6371 0.6359 0.6349 0.6347 0.6344
2378.827999 0.6342 0.6338 0.6331 0.6323 0.6316
2382.782317 0.6307 0.6297 0.6288 0.6278 0.6268
2386.736635 0.6261 0.6253 0.6246 0.6240 0.6237
2390.690953 0.6235 0.6232 0.6230 0.6230 0.6230
2394.645272 0.6230 0.6229 0.6222 0.6214 0.6207
2398.599590 0.6198 0.6181 0.6164 0.6146 0.6130
2402.553908 0.6125 0.6120 0.6115 0.6110 0.6097
2406.508226 0.6085 0.6073 0.6060 0.6058 0.6055
2410.462544 0.6053 0.6050 0.6045 0.6040 0.6035
2414.416862 0.6030 0.6025 0.6020 0.6015 0.6010
2418.371180 0.6003 0.5996 0.5988 0.5981 0.5973
2422.325498 0.5966 0.5959 0.5951 0.5946 0.5941
2426.279816 0.5936 0.5931 0.5928 0.5926 0.5923
2430.234134 0.5921 0.5918 0.5916 0.5913 0.5911
2434.188452 0.5899 0.5884 0.5869 0.5854 0.5845
2438.142770 0.5837 0.5830 0.5822 0.5817 0.5812
2442.097088 0.5807 0.5802 0.5790 0.5775 0.5760
2446.051407 0.5745 0.5735 0.5728 0.5720 0.5713
2450.005725 0.5704 0.5694 0.5684 0.5674 0.5664
2453.960043 0.5654 0.5645 0.5635 0.5623 0.5611
2457.914361 0.5599 0.5586 0.5571 0.5554 0.5537
2461.868679 0.5519 0.5504 0.5492 0.5479 0.5467
2465.822997 0.5458 0.5453 0.5448 0.5443 0.5438
2469.777315 0.5433 0.5428 0.5423 0.5419 0.5417
2473.731633 0.5414 0.5412 0.5409 0.5407 0.5404
2477.685951 0.5402 0.5400 0.5400 0.5400 0.5400
2481.640269 0.5399 0.5397 0.5394 0.5392 0.5390
2485.594587 0.5390 0.5390 0.5390 0.5388 0.5378
2489.548905 0.5368 0.5358 0.5349 0.5341 0.5334
2493.503223 0.5326 0.5319 0.5314 0.5309 0.5304
2497.457542 0.5299 0.5292 0.5284 0.5277 0.5269
2501.411860 0.5262 0.5255 0.5247 0.5240 0.5230
2505.366178 0.5220 0.5210 0.5200 0.5197 0.5195
2509.320496 0.5192 0.5190 0.5180 0.5170 0.5160
2513.274814 0.5150 0.5143 0.5135 0.5128 0.5120
2517.229132 0.5115 0.5110 0.5105 0.5100 0.5089
2521.183450 0.5076 0.5064 0.5052 0.5046 0.5041
2525.137768 0.5036 0.5031 0.5026 0.5021 0.5016
2529.092086 0.5011 0.5006 0.5001 0.4996 0.4991
2533.046404 0.4990 0.4990 0.4990 0.4990 0.4988
2537.000722 0.4986 0.4983 0.4981 0.4978 0.4976
2540.955040 0.4973 0.4971 0.4968 0.4966 0.4963
2544.909358 0.4961 0.4958 0.4956 0.4953 0.4951
2548.863677 0.4944 0.4934 0.4924 0.4914 0.4906
2552.817995 0.4898 0.4891 0.4883 0.4877 0.4872
2556.772313 0.4867 0.4862 0.4859 0.4856 0.4854
2560.726631 0.4851 0.4849 0.4846 0.4844 0.4841
2564.680949 0.4839 0.4836 0.4834 0.4831 0.4829
2568.635267 0.4826 0.4824 0.4822 0.4820 0.4820
2572.589585 0.4820 0.4820 0.4820 0.4820 0.4820
2576.543903 0.4820 0.4820 0.4820 0.4820 0.4820
2580.498221 0.4820 0.4820 0.4820 0.4820 0.4819
2584.452539 0.4817 0.4814 0.4812 0.4810 0.4810
2588.406857 0.4810 0.4810 0.4810 0.4810 0.4810
2592.361175 0.4810 0.4810 0.4807 0.4805 0.4802
2596.315493 0.4800 0.4797 0.4795 0.4792 0.4790
2600.269812 0.4790 0.4790 0.4790 0.4789 0.4782
2604.224130 0.4774 0.4767 0.4759 0.4752 0.4744
2608.178448 0.4737 0.4730 0.4727 0.4725 0.4722
2612.132766 0.4720 0.4717 0.4715 0.4713 0.4710
2616.087084 0.4708 0.4705 0.4703 0.4700 0.4688
2620.041402 0.4676 0.4664 0.4651 0.4646 0.4641
2623.995720 0.4636 0.4631 0.4628 0.4625 0.4623
2627.950038 0.4620 0.4618 0.4615 0.4613 0.4610
2631.904356 0.4610 0.4610 0.4610 0.4610 0.4608
2635.858674 0.4606 0.4603 0.4601 0.4600 0.4600
2639.812992 0.4600 0.4600 0.4600 0.4600 0.4600
2643.767310 0.4600 0.4602 0.4604 0.4607 0.4609
2647.721628 0.4610 0.4610 0.4610 0.4610 0.4612
2651.675946 0.4614 0.4617 0.4619 0.4620 0.4620
2655.630265 0.4620 0.4620 0.4620 0.4620 0.4620
2659.584583 0.4620 0.4623 0.4628 0.4633 0.4637
2663.538901 0.4641 0.4644 0.4646 0.4649 0.4651
2667.493219 0.4654 0.4656 0.4659 0.4661 0.4664
2671.447537 0.4666 0.4669 0.4671 0.4674 0.4676
2675.401855 0.4678 0.4681 0.4683 0.4686 0.4688
2679.356173 0.4690 0.4690 0.4690 0.4690 0.4690
2683.310491 0.4690 0.4690 0.4690 0.4691 0.4693
2687.264809 0.4696 0.4698 0.4700 0.4700 0.4700
2691.219127 0.4700 0.4700 0.4700 0.4700 0.4700
2695.173445 0.4700 0.4700 0.4700 0.4700 0.4700
2699.127763 0.4697 0.4695 0.4692 0.4690 0.4687
2703.082081 0.4685 0.4682 0.4680 0.4677 0.4675
2707.036400 0.4672 0.4670 0.4670 0.4670 0.4670
2710.990718 0.4670 0.4665 0.4660 0.4655 0.4650
2714.945036 0.4648 0.4645 0.4643 0.4640 0.4635
2718.899354 0.4630 0.4625 0.4620 0.4620 0.4620
2722.853672 0.4620 0.4620 0.4618 0.4615 0.4613
2726.807990 0.4610 0.4610 0.4610 0.4610 0.4610
2730.762308 0.4612 0.4615 0.4617 0.4620 0.4620
2734.716626 0.4620 0.4620 0.4620 0.4622 0.4624
2738.670944 0.4627 0.4629 0.4630 0.4630 0.4630
2742.625262 0.4630 0.4628 0.4626 0.4623 0.4621
2746.579580 0.4618 0.4616 0.4613 0.4611 0.4608
2750.533898 0.4606 0.4603 0.4601 0.4600 0.4600
2754.488216 0.4600 0.4600 0.4601 0.4604 0.4606
2758.442535 0.4609 0.4611 0.4614 0.4616 0.4619
2762.396853 0.4620 0.4620 0.4620 0.4620 0.4621
2766.351171 0.4624 0.4626 0.4629 0.4631 0.4634
2770.305489 0.4636 0.4639 0.4643 0.4651 0.4658
2774.259807 0.4666 0.4670 0.4670 0.4670 0.4670
2778.214125 0.4672 0.4677 0.4682 0.4687 0.4690
2782.168443 0.4690 0.4690 0.4690 0.4689 0.4687
2786.122761 0.4684 0.4682 0.4680 0.4680 0.4680
2790.077079 0.4680 0.4679 0.4677 0.4674 0.4672
2794.031397 0.4670 0.4670 0.4670 0.4670 0.4669
2797.985715 0.4667 0.4665 0.4662 0.4660 0.4657
2801.940033 0.4655 0.4652 0.4650 0.4653 0.4655
2805.894351 0.4658 0.4660 0.4660 0.4660 0.4660
2809.848670 0.4660 0.4663 0.4665 0.4668 0.4670
2813.802988 0.4673 0.4675 0.4678 0.4680 0.4682
2817.757306 0.4685 0.4687 0.4690 0.4690 0.4690
2821.711624 0.4690 0.4690 0.4692 0.4695 0.4697
2825.665942 0.4700 0.4700 0.4700 0.4700 0.4700
2829.620260 0.4700 0.4700 0.4700 0.4700 0.4700
2833.574578 0.4700 0.4700 0.4700 0.4700 0.4700
2837.528896 0.4700 0.4700 0.4700 0.4700 0.4700
2841.483214 0.4700 0.4700 0.4700 0.4700 0.4700
2845.437532 0.4700 0.4700 0.4700 0.4700 0.4700
2849.391850 0.4700 0.4700 0.4700 0.4700 0.4700
2853.346168 0.4700 0.4700 0.4698 0.4696 0.4694
2857.300486 0.4691 0.4690 0.4690 0.4690 0.4690
2861.254805 0.4690 0.4690 0.4690 0.4690 0.4689
2865.209123 0.4686 0.4684 0.4681 0.4680 0.4680
2869.163441 0.4680 0.4680 0.4679 0.4676 0.4674
2873.117759 0.4671 0.4670 0.4670 0.4670 0.4670
2877.072077 0.4669 0.4666 0.4664 0.4662 0.4660
2881.026395 0.4660 0.4660 0.4660 0.4659 0.4657
2884.980713 0.4654 0.4652 0.4650 0.4650 0.4650
2888.935031 0.4650 0.4651 0.4656 0.4661 0.4666
2892.889349 0.4671 0.4673 0.4676 0.4678 0.4681
2896.843667 0.4686 0.4691 0.4696 0.4701 0.4706
2900.797985 0.4711 0.4716 0.4720 0.4720 0.4720
2904.752303 0.4720 0.4720 0.4723 0.4725 0.4728
2908.706621 0.4730 0.4730 0.4730 0.4730 0.4730
2912.660940 0.4730 0.4730 0.4730 0.4730 0.4730
2916.615258 0.4730 0.4730 0.4730 0.4728 0.4725
2920.569576 0.4723 0.4720 0.4720 0.4720 0.4720
2924.523894 0.4720 0.4720 0.4720 0.4720 0.4720
2928.478212 0.4720 0.4720 0.4720 0.4720 0.4718
2932.432530 0.4715 0.4713 0.4710 0.4708 0.4705
2936.386848 0.4703 0.4700 0.4700 0.4700 0.4700
2940.341166 0.4700 0.4694 0.4687 0.4679 0.4672
2944.295484 0.4663 0.4653 0.4643 0.4633 0.4625
2948.249802 0.4617 0.4610 0.4602 0.4598 0.4596
2952.204120 0.4593 0.4591 0.4588 0.4586 0.4583
2956.158438 0.4581 0.4578 0.4576 0.4573 0.4571
2960.112756 0.4567 0.4562 0.4557 0.4552 0.4547
2964.067075 0.4542 0.4537 0.4532 0.4526 0.4518
2968.021393 0.4511 0.4504 0.4497 0.4492 0.4488
2971.975711 0.4483 0.4478 0.4473 0.4468 0.4463
2975.930029 0.4457 0.4449 0.4442 0.4434 0.4428
2979.884347 0.4423 0.4418 0.4413 0.4408 0.4403
2983.838665 0.4398 0.4393 0.4389 0.4387 0.4384
2987.792983 0.4382 0.4379 0.4377 0.4374 0.4372
2991.747301 0.4371 0.4373 0.4376 0.4378 0.4380
2995.701619 0.4380 0.4380 0.4380 0.4381 0.4386
2999.655937 0.4391 0.4396 0.4402 0.4412 0.4422
3003.610255 0.4432 0.4441 0.4449 0.4456 0.4464
3007.564573 0.4471 0.4478 0.4486 0.4493 0.4500
3011.518891 0.4505 0.4510 0.4515 0.4520 0.4523
3015.473209 0.4525 0.4528 0.4530 0.4535 0.4540
3019.427528 0.4545 0.4550 0.4553 0.4555 0.4558
3023.381846 0.4560 0.4570 0.4580 0.4590 0.4600
3027.336164 0.4605 0.4610 0.4615 0.4620 0.4632
3031.290482 0.4644 0.4656 0.4669 0.4677 0.4684
3035.244800 0.4692 0.4699 0.4704 0.4709 0.4714
3039.199118 0.4719 0.4722 0.4725 0.4727 0.4729
3043.153436 0.4734 0.4739 0.4744 0.4749 0.4757
3047.107754 0.4767 0.4777 0.4787 0.4792 0.4794
3051.062072 0.4797 0.4799 0.4802 0.4804 0.4807
3055.016390 0.4809 0.4812 0.4814 0.4817 0.4819
3058.970708 0.4820 0.4820 0.4820 0.4820 0.4822
3062.925026 0.4824 0.4826 0.4829 0.4830 0.4830
3066.879344 0.4830 0.4830 0.4831 0.4834 0.4836
3070.833663 0.4839 0.4840 0.4840 0.4840 0.4840
3074.787981 0.4840 0.4840 0.4840 0.4840 0.4840
3078.742299 0.4840 0.4840 0.4840 0.4840 0.4840
3082.696617 0.4840 0.4840 0.4840 0.4840 0.4840
3086.650935 0.4840 0.4840 0.4840 0.4840 0.4840
3090.605253 0.4839 0.4837 0.4834 0.4832 0.4829
3094.559571 0.4827 0.4824 0.4822 0.4820 0.4820
3098.513889 0.4820 0.4820 0.4819 0.4817 0.4814
3102.468207 0.4812 0.4809 0.4804 0.4799 0.4794
3106.422525 0.4790 0.4787 0.4785 0.4782 0.4780
3110.376843 0.4777 0.4775 0.4772 0.4770 0.4765
3114.331161 0.4760 0.4755 0.4749 0.4742 0.4734
3118.285479 0.4727 0.4720 0.4717 0.4715 0.4712
3122.239798 0.4710 0.4697 0.4685 0.4672 0.4660
3126.194116 0.4645 0.4630 0.4616 0.4601 0.4583
3130.148434 0.4566 0.4549 0.4531 0.4514 0.4497
3134.102752 0.4479 0.4462 0.4447 0.4432 0.4417
3138.057070 0.4402 0.4389 0.4377 0.4365 0.4352
3142.011388 0.4344 0.4336 0.4329 0.4322 0.4310
3145.965706 0.4298 0.4285 0.4273 0.4260 0.4248
3149.920024 0.4235 0.4223 0.4218 0.4216 0.4213
3153.874342 0.4211 0.4208 0.4206 0.4203 0.4201
3157.828660 0.4198 0.4196 0.4193 0.4191 0.4190
3161.782978 0.4190 0.4190 0.4190 0.4188 0.4186
3165.737296 0.4184 0.4181 0.4181 0.4184 0.4186
3169.691614 0.4189 0.4190 0.4190 0.4190 0.4190
3173.645933 0.4194 0.4201 0.4209 0.4216 0.4224
3177.600251 0.4231 0.4239 0.4246 0.4251 0.4254
3181.554569 0.4256 0.4259 0.4265 0.4278 0.4290
3185.508887 0.4303 0.4315 0.4327 0.4340 0.4352
3189.463205 0.4362 0.4367 0.4372 0.4377 0.4380
3193.417523 0.4380 0.4380 0.4380 0.4386 0.4406
3197.371841 0.4426 0.4445 0.4465 0.4482 0.4499
3201.326159 0.4517 0.4533 0.4548 0.4563 0.4578
3205.280477 0.4593 0.4608 0.4623 0.4637 0.4650
3209.234795 0.4653 0.4655 0.4658 0.4660 0.4663
3213.189113 0.4665 0.4668 0.4671 0.4678 0.4686
3217.143431 0.4693 0.4700 0.4700 0.4700 0.4700
3221.097749 0.4700 0.4708 0.4715 0.4723 0.4730
3225.052068 0.4738 0.4745 0.4752 0.4760 0.4772
3229.006386 0.4785 0.4797 0.4809 0.4817 0.4825
3232.960704 0.4832 0.4839 0.4845 0.4849 0.4854
3236.915022 0.4859 0.4867 0.4874 0.4881 0.4889
3240.869340 0.4892 0.4895 0.4897 0.4900 0.4902
3244.823658 0.4905 0.4907 0.4910 0.4910 0.4910
3248.777976 0.4910 0.4910 0.4912 0.4914 0.4917
3252.732294 0.4919 0.4922 0.4924 0.4927 0.4929
3256.686612 0.4932 0.4934 0.4937 0.4939 0.4945
3260.640930 0.4952 0.4960 0.4967 0.4972 0.4974
3264.595248 0.4977 0.4979 0.4981 0.4984 0.4986
3268.549566 0.4989 0.4991 0.4994 0.4996 0.4999
3272.503884 0.5001 0.5004 0.5006 0.5009 0.5010
3276.458203 0.5010 0.5010 0.5010 0.5009 0.5006
3280.412521 0.5004 0.5001 0.4999 0.4996 0.4994
3284.366839 0.4991 0.4989 0.4986 0.4984 0.4981
3288.321157 0.4980 0.4980 0.4980 0.4980 0.4978
3292.275475 0.4973 0.4968 0.4963 0.4959 0.4957
3296.229793 0.4954 0.4952 0.4949 0.4947 0.4944
3300.184111 0.4942 0.4939 0.4934 0.4929 0.4924
3304.138429 0.4919 0.4914 0.4909 0.4904 0.4899
3308.092747 0.4897 0.4894 0.4892 0.4890 0.4887
3312.047065 0.4885 0.4882 0.4879 0.4874 0.4869
3316.001383 0.4864 0.4860 0.4857 0.4855 0.4852
3319.955701 0.4850 0.4847 0.4845 0.4842 0.4840
3323.910019 0.4840 0.4840 0.4840 0.4840 0.4840
3327.864338 0.4840 0.4840 0.4840 0.4840 0.4840
3331.818656 0.4840 0.4840 0.4842 0.4845 0.4847
3335.772974 0.4850 0.4852 0.4855 0.4857 0.4860
3339.727292 0.4865 0.4870 0.4874 0.4879 0.4882
3343.681610 0.4885 0.4887 0.4890 0.4890 0.4890
3347.635928 0.4890 0.4890 0.4894 0.4899 0.4904
3351.590246 0.4909 0.4910 0.4910 0.4910 0.4910
3355.544564 0.4908 0.4906 0.4903 0.4901 0.4898
3359.498882 0.4896 0.4893 0.4891 0.4890 0.4890
3363.453200 0.4890 0.4890 0.4890 0.4890 0.4890
3367.407518 0.4890 0.4889 0.4886 0.4883 0.4881
3371.361836 0.4880 0.4880 0.4880 0.4880 0.4881
3375.316154 0.4884 0.4886 0.4889 0.4890 0.4890
3379.270472 0.4890 0.4890 0.4890 0.4890 0.4890
3383.224791 0.4890 0.4890 0.4890 0.4890 0.4890
3387.179109 0.4891 0.4894 0.4896 0.4899 0.4902
3391.133427 0.4907 0.4912 0.4917 0.4922 0.4927
3395.087745 0.4932 0.4937 0.4940 0.4940 0.4940
3399.042063 0.4940 0.4941 0.4946 0.4951 0.4956
3402.996381 0.4961 0.4966 0.4971 0.4976 0.4981
3406.950699 0.4983 0.4986 0.4988 0.4991 0.4996
3410.905017 0.5001 0.5006 0.5010 0.5013 0.5015
3414.859335 0.5018 0.5021 0.5026 0.5031 0.5036
3418.813653 0.5040 0.5043 0.5045 0.5048 0.5051
3422.767971 0.5058 0.5065 0.5073 0.5080 0.5080
3426.722289 0.5080 0.5080 0.5080 0.5095 0.5110
3430.676607 0.5125 0.5140 0.5155 0.5170 0.5185
3434.630926 0.5200 0.5200 0.5200 0.5200 0.5200
3438.585244 0.5205 0.5210 0.5215 0.5220 0.5227
3442.539562 0.5234 0.5242 0.5249 0.5252 0.5255
3446.493880 0.5257 0.5260 0.5268 0.5278 0.5288
3450.448198 0.5298 0.5304 0.5309 0.5314 0.5319
3454.402516 0.5331 0.5346 0.5361 0.5376 0.5385
3458.356834 0.5393 0.5400 0.5408 0.5413 0.5418
3462.311152 0.5423 0.5428 0.5440 0.5455 0.5470
3466.265470 0.5485 0.5492 0.5494 0.5497 0.5499
3470.219788 0.5509 0.5524 0.5539 0.5554 0.5567
3474.174106 0.5580 0.5592 0.5605 0.5611 0.5614
3478.128424 0.5616 0.5619 0.5621 0.5624 0.5626
3482.082742 0.5629 0.5635 0.5645 0.5655 0.5665
3486.037061 0.5672 0.5677 0.5682 0.5687 0.5691
3489.991379 0.5694 0.5696 0.5698 0.5701 0.5703
3493.945697 0.5706 0.5708 0.5712 0.5717 0.5722
3497.900015 0.5727 0.5733 0.5740 0.5748 0.5755
3501.854333 0.5762 0.5767 0.5772 0.5776 0.5781
3505.808651 0.5786 0.5791 0.5796 0.5801 0.5806
3509.762969 0.5811 0.5816 0.5821 0.5823 0.5826
3513.717287 0.5828 0.5831 0.5836 0.5841 0.5846
3517.671605 0.5850 0.5853 0.5855 0.5858 0.5861
3521.625923 0.5866 0.5870 0.5875 0.5880 0.5883
3525.580241 0.5885 0.5888 0.5890 0.5890 0.5890
3529.534559 0.5890 0.5890 0.5890 0.5890 0.5890
3533.488877 0.5890 0.5893 0.5895 0.5897 0.5900
3537.443196 0.5902 0.5905 0.5907 0.5910 0.5910
3541.397514 0.5910 0.5910 0.5910 0.5917 0.5924
3545.351832 0.5932 0.5939 0.5944 0.5949 0.5954
3549.306150 0.5959 0.5966 0.5974 0.5981 0.5989
3553.260468 0.5994 0.5999 0.6004 0.6009 0.6012
3557.214786 0.6014 0.6017 0.6019 0.6027 0.6037
3561.169104 0.6047 0.6057 0.6062 0.6064 0.6067
3565.123422 0.6069 0.6070 0.6070 0.6070 0.6070
3569.077740 0.6073 0.6078 0.6083 0.6088 0.6090
3573.032058 0.6090 0.6090 0.6090 0.6091 0.6094
3576.986376 0.6096 0.6099 0.6103 0.6108 0.6113
3580.940694 0.6118 0.6121 0.6124 0.6126 0.6129
3584.895012 0.6131 0.6134 0.6136 0.6139 0.6144
3588.849331 0.6154 0.6164 0.6174 0.6181 0.6184
3592.803649 0.6186 0.6189 0.6191 0.6194 0.6196
3596.757967 0.6198 0.6202 0.6207 0.6212 0.6217
3600.712285 0.6221 0.6223 0.6226 0.6228 0.6230
3604.666603 0.6230 0.6230 0.6230 0.6230 0.6230
3608.620921 0.6230 0.6230 0.6231 0.6233 0.6236
3612.575239 0.6238 0.6241 0.6243 0.6245 0.6248
3616.529557 0.6250 0.6250 0.6250 0.6250 0.6250
3620.483875 0.6250 0.6250 0.6250 0.6251 0.6256
3624.438193 0.6261 0.6266 0.6270 0.6273 0.6275
3628.392511 0.6278 0.6280 0.6283 0.6285 0.6288
3632.346829 0.6290 0.6293 0.6295 0.6298 0.6300
3636.301147 0.6300 0.6300 0.6300 0.6300 0.6305
3640.255466 0.6310 0.6315 0.6320 0.6329 0.6339
3644.209784 0.6349 0.6359 0.6362 0.6365 0.6367
3648.164102 0.6370 0.6370 0.6370 0.6370 0.6370
3652.118420 0.6368 0.6365 0.6363 0.6361 0.6356
3656.072738 0.6351 0.6346 0.6341 0.6338 0.6336
3660.027056 0.6333 0.6331 0.6330 0.6330 0.6330
3663.981374 0.6330 0.6326 0.6321 0.6316 0.6312
3667.935692 0.6307 0.6302 0.6297 0.6292 0.6288
3671.890010 0.6286 0.6283 0.6281 0.6278 0.6276
3675.844328 0.6274 0.6271 0.6269 0.6266 0.6264
3679.798646 0.6261 0.6261 0.6264 0.6266 0.6269
3683.752964 0.6271 0.6274 0.6276 0.6279 0.6281
3687.707282 0.6284 0.6286 0.6289 0.6290 0.6290
3691.661601 0.6290 0.6290 0.6291 0.6294 0.6296
3695.615919 0.6299 0.6301 0.6304 0.6306 0.6308
3699.570237 0.6311 0.6313 0.6316 0.6318 0.6320
3703.524555 0.6320 0.6320 0.6320 0.6321 0.6323
3707.478873 0.6326 0.6328 0.6330 0.6330 0.6330
3711.433191 0.6330 0.6330 0.6330 0.6330 0.6330
3715.387509 0.6330 0.6330 0.6330 0.6330 0.6330
3719.341827 0.6333 0.6335 0.6338 0.6340 0.6343
3723.296145 0.6345 0.6348 0.6350 0.6350 0.6350
3727.250463 0.6350 0.6350 0.6350 0.6350 0.6350
3731.204781 0.6350 0.6347 0.6345 0.6342 0.6340
3735.159099 0.6340 0.6340 0.6340 0.6340 0.6338
3739.113417 0.6335 0.6333 0.6330 0.6330 0.6330
3743.067735 0.6330 0.6330 0.6328 0.6325 0.6323
3747.022054 0.6320 0.6316 0.6311 0.6306 0.6301
3750.976372 0.6300 0.6300 0.6300 0.6300 0.6298
3754.930690 0.6295 0.6293 0.6290 0.6290 0.6290
3758.885008 0.6290 0.6290 0.6284 0.6277 0.6269
3762.839326 0.6262 0.6258 0.6256 0.6253 0.6251
3766.793644 0.6250 0.6250 0.6250 0.6250 0.6247
3770.747962 0.6242 0.6237 0.6232 0.6230 0.6230
3774.702280 0.6230 0.6230 0.6228 0.6226 0.6224
3778.656598 0.6221 0.6220 0.6220 0.6220 0.6220
3782.610916 0.6219 0.6216 0.6214 0.6211 0.6210
3786.565234 0.6210 0.6210 0.6210 0.6210 0.6210
3790.519552 0.6210 0.6210 0.6210 0.6210 0.6210
3794.473870 0.6210 0.6209 0.6206 0.6204 0.6201
3798.428189 0.6199 0.6197 0.6194 0.6192 0.6190
3802.382507 0.6190 0.6190 0.6190 0.6189 0.6187
3806.336825 0.6184 0.6182 0.6179 0.6177 0.6174
3810.291143 0.6172 0.6169 0.6167 0.6164 0.6162
3814.245461 0.6160 0.6160 0.6160 0.6160 0.6159
3818.199779 0.6157 0.6154 0.6152 0.6149 0.6144
3822.154097 0.6139 0.6134 0.6127 0.6110 0.6092
3826.108415 0.6075 0.6060 0.6060 0.6060 0.6060
3830.062733 0.6061 0.6068 0.6076 0.6083 0.6090
3834.017051 0.6093 0.6095 0.6098 0.6100 0.6103
3837.971369 0.6105 0.6108 0.6110 0.6110 0.6110
3841.925687 0.6110 0.6110 0.6110 0.6110 0.6110
3845.880005 0.6110 0.6112 0.6115 0.6117 0.6120
3849.834324 0.6122 0.6125 0.6127 0.6130 0.6130
3853.788642 0.6130 0.6130 0.6130 0.6130 0.6130
3857.742960 0.6130 0.6130 0.6128 0.6125 0.6123
3861.697278 0.6121 0.6118 0.6116 0.6113 0.6111
3865.651596 0.6106 0.6101 0.6096 0.6091 0.6088
3869.605914 0.6086 0.6083 0.6081 0.6080 0.6080
3873.560232 0.6080 0.6080 0.6082 0.6084 0.6087
3877.514550 0.6089 0.6092 0.6094 0.6097 0.6099
3881.468868 0.6102 0.6104 0.6106 0.6109 0.6110
3885.423186 0.6110 0.6110 0.6110 0.6111 0.6114
3889.377504 0.6116 0.6119 0.6120 0.6120 0.6120
3893.331822 0.6120 0.6121 0.6124 0.6126 0.6129
3897.286140 0.6130 0.6130 0.6130 0.6130 0.6130
3901.240459 0.6130 0.6130 0.6130 0.6129 0.6127
3905.194777 0.6124 0.6122 0.6119 0.6117 0.6114
3909.149095 0.6112 0.6110 0.6110 0.6110 0.6110
3913.103413 0.6108 0.6104 0.6099 0.6094 0.6090
3917.057731 0.6090 0.6090 0.6090 0.6090 0.6090
3921.012049 0.6090 0.6090 0.6090 0.6087 0.6085
3924.966367 0.6082 0.6079 0.6074 0.6069 0.6064
3928.920685 0.6060 0.6060 0.6060 0.6060 0.6060
3932.875003 0.6060 0.6060 0.6060 0.6060 0.6057
3936.829321 0.6055 0.6052 0.6050 0.6053 0.6055
3940.783639 0.6058 0.6060 0.6060 0.6060 0.6060
3944.737957 0.6060 0.6062 0.6065 0.6067 0.6070
3948.692275 0.6070 0.6070 0.6070 0.6070 0.6070
3952.646594 0.6070 0.6070 0.6070 0.6070 0.6070
3956.600912 0.6070 0.6070 0.6068 0.6065 0.6063
3960.555230 0.6060 0.6060 0.6060 0.6060 0.6060
3964.509548 0.6060 0.6060 0.6060 0.6060 0.6056
3968.463866 0.6051 0.6046 0.6041 0.6040 0.6040
3972.418184 0.6040 0.6040 0.6038 0.6036 0.6033
3976.372502 0.6031 0.6030 0.6030 0.6030 0.6030
3980.326820 0.6028 0.6026 0.6023 0.6021 0.6018
3984.281138 0.6016 0.6014 0.6011 0.6010 0.6010
3988.235456 0.6010 0.6010 0.6009 0.6006 0.6004
3992.189774 0.6001 0.6000 0.6000 0.6000 0.6000
3996.144092 0.6001 0.6004 0.6006 0.6009 0.6011
4000.098410 0.6014 0.6016 0.6019 0.6020 0.6020
4004.052729 0.6020 0.6020 0.6021 0.6023 0.6026
4008.007047 0.6028 0.6030 0.6030 0.6030 0.6030
4011.961365 0.6030 0.6030 0.6030 0.6030 0.6031
4015.915683 0.6033 0.6036 0.6038 0.6040 0.6040
4019.870001 0.6040 0.6040 0.6040 0.6040 0.6040
4023.824319 0.6040 0.6040 0.6040 0.6040 0.6040
4027.778637 0.6040 0.6037 0.6035 0.6032 0.6030
4031.732955 0.6030 0.6030 0.6030 0.6030 0.6025
4035.687273 0.6020 0.6015 0.6010 0.6010 0.6010
4039.641591 0.6010 0.6010 0.6010 0.6010 0.6010
4043.595909 0.6010 0.6010 0.6010 0.6010 0.6010
4047.550227 0.6010 0.6010 0.6010 0.6010 0.6012
4051.504545 0.6015 0.6017 0.6020 0.6020 0.6020
4055.458864 0.6020 0.6020 0.6024 0.6029 0.6034
4059.413182 0.6039 0.6044 0.6049 0.6054 0.6059
4063.367500 0.6060 0.6060 0.6060 0.6060 0.6056
4067.321818 0.6051 0.6046 0.6041 0.6038 0.6036
4071.276136 0.6033 0.6031 0.6028 0.6026 0.6023
4075.230454 0.6021 0.6020 0.6020 0.6020 0.6020
4079.184772 0.6018 0.6016 0.6013 0.6011 0.6010
4083.139090 0.6010 0.6010 0.6010 0.6008 0.6006
4087.093408 0.6004 0.6001 0.5999 0.5996 0.5994
4091.047726 0.5991 0.5990 0.5990 0.5990 0.5990
4095.002044 0.5990 0.5990 0.5990 0.5990 0.5989
4098.956362 0.5986 0.5984 0.5981 0.5980 0.5980
4102.910680 0.5980 0.5980 0.5979 0.5976 0.5974
4106.864998 0.5971 0.5970 0.5970 0.5970 0.5970
4110.819317 0.5970 0.5970 0.5970 0.5970 0.5971
4114.773635 0.5973 0.5976 0.5978 0.5980 0.5980
4118.727953 0.5980 0.5980 0.5979 0.5977 0.5974
4122.682271 0.5972 0.5970 0.5970 0.5970 0.5970
4126.636589 0.5970 0.5967 0.5965 0.5962 0.5960
4130.590907 0.5957 0.5955 0.5952 0.5950 0.5950
4134.545225 0.5950 0.5950 0.5950 0.5950 0.5950
4138.499543 0.5950 0.5950 0.5953 0.5955 0.5958
4142.453861 0.5960 0.5960 0.5960 0.5960 0.5960
4146.408179 0.5963 0.5965 0.5967 0.5970 0.5970
4150.362497 0.5970 0.5970 0.5970 0.5972 0.5975
4154.316815 0.5977 0.5980 0.5980 0.5980 0.5980
4158.271133 0.5980 0.5978 0.5975 0.5973 0.5970
4162.225452 0.5970 0.5970 0.5970 0.5970 0.5966
4166.179770 0.5961 0.5956 0.5951 0.5948 0.5945
4170.134088 0.5943 0.5941 0.5940 0.5940 0.5940
4174.088406 0.5940 0.5940 0.5940 0.5940 0.5940
4178.042724 0.5942 0.5944 0.5947 0.5949 0.5952
4181.997042 0.5954 0.5957 0.5959 0.5962 0.5964
4185.951360 0.5967 0.5969 0.5970 0.5970 0.5970
4189.905678 0.5970 0.5971 0.5974 0.5976 0.5979
4193.859996 0.5980 0.5980 0.5980 0.5980 0.5981
4197.814314 0.5984 0.5986 0.5989 0.5990 0.5990
4201.768632 0.5990 0.5990 0.5989 0.5986 0.5984
4205.722950 0.5981 0.5980 0.5980 0.5980 0.5980
4209.677268 0.5979 0.5977 0.5974 0.5972 0.5970
4213.631587 0.5970 0.5970 0.5970 0.5971 0.5973
4217.585905 0.5976 0.5978 0.5981 0.5983 0.5986
4221.540223 0.5988 0.5990 0.5990 0.5990 0.5990
4225.494541 0.5990 0.5990 0.5990 0.5990 0.5990
4229.448859 0.5990 0.5990 0.5990 0.5991 0.5996
4233.403177 0.6001 0.6006 0.6010 0.6010 0.6010
4237.357495 0.6010 0.6010 0.6007 0.6005 0.6002
4241.311813 0.6000 0.6000 0.6000 0.6000 0.6000
4245.266131 0.6000 0.6000 0.6000 0.6000 0.5997
4249.220449 0.5995 0.5993 0.5990 0.5990 0.5990
4253.174767 0.5990 0.5990 0.5990 0.5990 0.5990
4257.129085 0.5990 0.5988 0.5985 0.5983 0.5980
4261.083403 0.5978 0.5975 0.5973 0.5970 0.5966
4265.037722 0.5961 0.5956 0.5951 0.5946 0.5941
4268.992040 0.5936 0.5931 0.5924 0.5917 0.5909
4272.946358 0.5902 0.5898 0.5896 0.5893 0.5891
4276.900676 0.5890 0.5890 0.5890 0.5890 0.5890
4280.854994 0.5890 0.5890 0.5890 0.5890 0.5890
4284.809312 0.5890 0.5890 0.5892 0.5894 0.5897
4288.763630 0.5899 0.5901 0.5904 0.5906 0.5909
4292.717948 0.5910 0.5910 0.5910 0.5910 0.5911
4296.672266 0.5914 0.5916 0.5919 0.5920 0.5920
4300.626584 0.5920 0.5920 0.5920 0.5920 0.5920
4304.580902 0.5920 0.5920 0.5920 0.5920 0.5920
4308.535220 0.5920 0.5920 0.5920 0.5920 0.5920
4312.489538 0.5920 0.5920 0.5920 0.5920 0.5920
4316.443857 0.5920 0.5920 0.5920 0.5920 0.5920
4320.398175 0.5920 0.5920 0.5920 0.5920 0.5920
4324.352493 0.5919 0.5917 0.5914 0.5912 0.5910
4328.306811 0.5910 0.5910 0.5910 0.5911 0.5913
4332.261129 0.5916 0.5918 0.5920 0.5920 0.5920
4336.215447 0.5920 0.5920 0.5920 0.5920 0.5920
4340.169765 0.5920 0.5920 0.5920 0.5920 0.5920
4344.124083 0.5920 0.5920 0.5920 0.5920 0.5920
4348.078401 0.5920 0.5920 0.5920 0.5918 0.5915
4352.032719 0.5913 0.5910 0.5908 0.5905 0.5903
4355.987037 0.5900 0.5898 0.5895 0.5893 0.5890
4359.941355 0.5885 0.5880 0.5875 0.5870 0.5863
4363.895673 0.5856 0.5848 0.5841 0.5831 0.5821
4367.849992 0.5811 0.5802 0.5798 0.5795 0.5793
4371.804310 0.5790 0.5788 0.5786 0.5783 0.5781
4375.758628 0.5782 0.5784 0.5787 0.5789 0.5792
4379.712946 0.5794 0.5797 0.5799 0.5802 0.5804
4383.667264 0.5807 0.5809 0.5810 0.5810 0.5810
4387.621582 0.5810 0.5808 0.5806 0.5803 0.5801
4391.575900 0.5798 0.5796 0.5793 0.5791 0.5790
4395.530218 0.5790 0.5790 0.5790 0.5789 0.5786
4399.484536 0.5784 0.5781 0.5780 0.5780 0.5780
4403.438854 0.5780 0.5781 0.5784 0.5786 0.5789
4407.393172 0.5791 0.5794 0.5796 0.5799 0.5800
4411.347490 0.5800 0.5800 0.5800 0.5800 0.5800
4415.301808 0.5800 0.5800 0.5800 0.5800 0.5800
4419.256127 0.5800 0.5800 0.5800 0.5800 0.5800
4423.210445 0.5801 0.5803 0.5806 0.5808 0.5811
4427.164763 0.5813 0.5816 0.5818 0.5820 0.5820
4431.119081 0.5820 0.5820 0.5819 0.5814 0.5809
4435.073399 0.5804 0.5800 0.5800 0.5800 0.5800
4439.027717 0.5800 0.5800 0.5800 0.5800 0.5800
4442.982035 0.5800 0.5800 0.5800 0.5800 0.5800
4446.936353 0.5800 0.5800 0.5800 0.5800 0.5800
4450.890671 0.5800 0.5800 0.5800 0.5800 0.5800
4454.844989 0.5800 0.5800 0.5800 0.5800 0.5800
4458.799307 0.5802 0.5805 0.5807 0.5810 0.5810
4462.753625 0.5810 0.5810 0.5810 0.5812 0.5815
4466.707943 0.5817 0.5820 0.5820 0.5820 0.5820
4470.662261 0.5820 0.5820 0.5820 0.5820 0.5820
4474.616580 0.5816 0.5811 0.5806 0.5801 0.5796
4478.570898 0.5791 0.5786 0.5781 0.5778 0.5776
4482.525216 0.5773 0.5771 0.5767 0.5762 0.5757
4486.479534 0.5751 0.5750 0.5750 0.5750 0.5750
4490.433852 0.5748 0.5746 0.5743 0.5741 0.5738
4494.388170 0.5736 0.5733 0.5731 0.5730 0.5730
4498.342488 0.5730 0.5730 0.5731 0.5734 0.5736
4502.296806 0.5739 0.5740 0.5740 0.5740 0.5740
4506.251124 0.5741 0.5744 0.5746 0.5749 0.5750
4510.205442 0.5750 0.5750 0.5750 0.5750 0.5750
4514.159760 0.5750 0.5750 0.5750 0.5750 0.5750
4518.114078 0.5750 0.5750 0.5750 0.5750 0.5750
4522.068396 0.5750 0.5750 0.5750 0.5750 0.5749
4526.022715 0.5747 0.5744 0.5742 0.5740 0.5740
4529.977033 0.5740 0.5740 0.5740 0.5740 0.5740
4533.931351 0.5740 0.5739 0.5737 0.5735 0.5732
4537.885669 0.5730 0.5730 0.5730 0.5730 0.5730
4541.839987 0.5730 0.5730 0.5730 0.5730 0.5730
4545.794305 0.5730 0.5730 0.5730 0.5730 0.5730
4549.748623 0.5730 0.5730 0.5735 0.5740 0.5745
4553.702941 0.5750 0.5750 0.5750 0.5750 0.5750
4557.657259 0.5755 0.5760 0.5765 0.5770 0.5770
4561.611577 0.5770 0.5770 0.5770 0.5772 0.5775
4565.565895 0.5777 0.5780 0.5782 0.5785 0.5787
4569.520213 0.5790 0.5788 0.5785 0.5783 0.5780
4573.474531 0.5780 0.5780 0.5780 0.5780 0.5778
4577.428850 0.5776 0.5773 0.5771 0.5770 0.5770
4581.383168 0.5770 0.5770 0.5768 0.5766 0.5763
4585.337486 0.5761 0.5758 0.5756 0.5753 0.5751
4589.291804 0.5750 0.5750 0.5750 0.5750 0.5748
4593.246122 0.5746 0.5743 0.5741 0.5738 0.5736
4597.200440 0.5734 0.5731 0.5727 0.5722 0.5717
4601.154758 0.5712 0.5710 0.5710 0.5710 0.5710
4605.109076 0.5709 0.5706 0.5704 0.5701 0.5700
4609.063394 0.5700 0.5700 0.5700 0.5700 0.5700
4613.017712 0.5700 0.5700 0.5700 0.5700 0.5700
4616.972030 0.5700 0.5700 0.5700 0.5700 0.5700
4620.926348 0.5700 0.5700 0.5700 0.5700 0.5700
4624.880666 0.5700 0.5700 0.5700 0.5700 0.5700
4628.834985 0.5700 0.5700 0.5700 0.5700 0.5700
4632.789303 0.5700 0.5700 0.5700 0.5700 0.5700
4636.743621 0.5700 0.5700 0.5700 0.5700 0.5700
4640.697939 0.5700 0.5700 0.5700 0.5700 0.5700
4644.652257 0.5700 0.5700 0.5700 0.5700 0.5700
4648.606575 0.5700 0.5700 0.5700 0.5700 0.5700
4652.560893 0.5700 0.5697 0.5695 0.5692 0.5690
4656.515211 0.5690 0.5690 0.5690 0.5690 0.5688
4660.469529 0.5685 0.5683 0.5680 0.5680 0.5680
4664.423847 0.5680 0.5680 0.5680 0.5680 0.5680
4668.378165 0.5680 0.5680 0.5680 0.5680 0.5680
4672.332483 0.5680 0.5680 0.5680 0.5680 0.5676
4676.286801 0.5671 0.5666 0.5661 0.5660 0.5660
4680.241120 0.5660 0.5660 0.5658 0.5656 0.5653
4684.195438 0.5651 0.5646 0.5641 0.5636 0.5631
4688.149756 0.5630 0.5630 0.5630 0.5630 0.5630
4692.104074 0.5630 0.5630 0.5630 0.5630 0.5630
4696.058392 0.5630 0.5630 0.5633 0.5638 0.5643
4700.012710 0.5648 0.5651 0.5654 0.5656 0.5659
4703.967028 0.5660 0.5660 0.5660 0.5660 0.5661
4707.921346 0.5664 0.5666 0.5669 0.5671 0.5674
4711.875664 0.5676 0.5679 0.5680 0.5680 0.5680
4715.829982 0.5680 0.5680 0.5680 0.5680 0.5680
4719.784300 0.5680 0.5680 0.5680 0.5680 0.5680
4723.738618 0.5680 0.5680 0.5680 0.5680 0.5680
4727.692936 0.5680 0.5680 0.5680 0.5680 0.5680
4731.647255 0.5680 0.5680 0.5680 0.5680 0.5680
4735.601573 0.5680 0.5680 0.5680 0.5680 0.5680
4739.555891 0.5680 0.5680 0.5680 0.5680 0.5680
4743.510209 0.5680 0.5680 0.5680 0.5680 0.5680
4747.464527 0.5680 0.5680 0.5680 0.5680 0.5680
4751.418845 0.5680 0.5680 0.5680 0.5680 0.5680
4755.373163 0.5680 0.5680 0.5680 0.5680 0.5677
4759.327481 0.5675 0.5672 0.5670 0.5670 0.5670
4763.281799 0.5670 0.5670 0.5670 0.5670 0.5670
4767.236117 0.5670 0.5670 0.5670 0.5670 0.5670
4771.190435 0.5668 0.5665 0.5663 0.5660 0.5660
4775.144753 0.5660 0.5660 0.5660 0.5660 0.5660
4779.099071 0.5660 0.5660 0.5658 0.5655 0.5653
4783.053389 0.5651 0.5650 0.5650 0.5650 0.5650
4787.007708 0.5648 0.5646 0.5643 0.5641 0.5638
4790.962026 0.5636 0.5633 0.5631 0.5630 0.5630
4794.916344 0.5630 0.5630 0.5630 0.5630 0.5630
4798.870662 0.5630 0.5632 0.5634 0.5636 0.5639
4802.824980 0.5640 0.5640 0.5640 0.5640 0.5641
4806.779298 0.5644 0.5646 0.5649 0.5650 0.5650
4810.733616 0.5650 0.5650 0.5650 0.5650 0.5650
4814.687934 0.5650 0.5650 0.5650 0.5650 0.5650
4818.642252 0.5649 0.5646 0.5644 0.5641 0.5639
4822.596570 0.5637 0.5634 0.5632 0.5630 0.5630
4826.550888 0.5630 0.5630 0.5630 0.5630 0.5630
4830.505206 0.5630 0.5629 0.5627 0.5624 0.5622
4834.459524 0.5619 0.5614 0.5609 0.5604 0.5600
4838.413843 0.5600 0.5600 0.5600 0.5599 0.5597
4842.368161 0.5594 0.5592 0.5590 0.5587 0.5585
4846.322479 0.5582 0.5580 0.5577 0.5575 0.5572
4850.276797 0.5570 0.5570 0.5570 0.5570 0.5570
4854.231115 0.5567 0.5565 0.5562 0.5560 0.5560
4858.185433 0.5560 0.5560 0.5560 0.5560 0.5560
4862.139751 0.5560 0.5560 0.5560 0.5560 0.5560
4866.094069 0.5560 0.5555 0.5550 0.5545 0.5540
4870.048387 0.5538 0.5535 0.5533 0.5530 0.5530
4874.002705 0.5530 0.5530 0.5530 0.5530 0.5530
4877.957023 0.5530 0.5530 0.5530 0.5530 0.5530
4881.911341 0.5530 0.5530 0.5530 0.5530 0.5530
4885.865659 0.5530 0.5530 0.5530 0.5530 0.5530
4889.819978 0.5530 0.5530 0.5530 0.5530 0.5530
4893.774296 0.5530 0.5530 0.5528 0.5526 0.5523
4897.728614 0.5521 0.5520 0.5520 0.5520 0.5520
4901.682932 0.5520 0.5520 0.5520 0.5520 0.5518
4905.637250 0.5516 0.5514 0.5511 0.5510 0.5510
4909.591568 0.5510 0.5510 0.5509 0.5506 0.5504
4913.545886 0.5501 0.5500 0.5500 0.5500 0.5500
4917.500204 0.5501 0.5504 0.5506 0.5509 0.5510
4921.454522 0.5510 0.5510 0.5510 0.5512 0.5517
4925.408840 0.5522 0.5527 0.5531 0.5533 0.5536
4929.363158 0.5538 0.5541 0.5543 0.5546 0.5548
4933.317476 0.5551 0.5553 0.5556 0.5558 0.5559
4937.271794 0.5557 0.5554 0.5552 0.5550 0.5550
4941.226113 0.5550 0.5550 0.5549 0.5547 0.5544
4945.180431 0.5542 0.5540 0.5537 0.5535 0.5532
4949.134749 0.5530 0.5530 0.5530 0.5530 0.5530
4953.089067 0.5527 0.5525 0.5522 0.5520 0.5517
4957.043385 0.5515 0.5512 0.5510 0.5505 0.5500
4960.997703 0.5495
##END=
