##TITLE=O-(2-HYDROXY-3,6-DISULFO-1-NAPHTHYLAZO) BENZENE ARSONIC ACID, DISODIUM SALT
##JCAMP-DX=4.24
##DATA TYPE=INFRARED SPECTRUM
##CLASS=COBLENTZ
##ORIGIN=WYANDOTTE CHEMICALS CORP., WYANDOTTE, MICHIGAN, USA
##OWNER=COBLENTZ SOCIETY
Collection (C) 2018 copyright by the U.S. Secretary of Commerce
on behalf of the United States of America. All rights reserved.
##DATE=Not specified, most likely prior to 1970
##MOLFORM=C16 H11 N2 O10 S2 As Na2
##SOURCE REFERENCE=COBLENTZ NO. 1468
##$NIST ID=B6001468
##$NIST SOURCE=COBLENTZ
##$NIST IMAGE=cob1468
##SPECTROMETER/DATA SYSTEM=Not specified, most likely a prism, grating, or hybrid spectrometer.
##STATE=SOLID (MINERAL OIL MULL)
##PATH LENGTH=
$$SPECTRAL CONTAMINATION DUE TO OIL AROUND 2900, 1450, 1380 CM^-^1
##SAMPLING PROCEDURE=TRANSMISSION
##RESOLUTION=4
##DATA PROCESSING=DIGITIZED BY NIST FROM HARD COPY
##XUNITS=MICROMETERS
##YUNITS=TRANSMITTANCE
##XFACTOR=1.000000
##YFACTOR=1
##DELTAX=000.006829
##FIRSTX=2.027
##LASTX=16
##FIRSTY=0.415
##MAXX=16
##MINX=2.027
##MAXY=0.926
##MINY=0.035
##NPOINTS=2047
##XYDATA=(X++(Y..Y))
2.027000 0.4150 0.4170 0.4170 0.4210 0.4220
2.061163 0.4240 0.4270 0.4360 0.4380 0.4390
2.096000 0.4410 0.4430 0.4440 0.4460 0.4480
2.130163 0.4480 0.4490 0.4510 0.4510 0.4510
2.164000 0.4550 0.4550 0.4550 0.4550 0.4560
2.198163 0.4580 0.4580 0.4600 0.4600 0.4610
2.232000 0.4610 0.4630 0.4630 0.4660 0.4660
2.266163 0.4680 0.4680 0.4700 0.4700 0.4710
2.300000 0.4780 0.4900 0.4970 0.5000 0.5050
2.334163 0.5090 0.5110 0.5120 0.5160 0.5170
2.369000 0.5210 0.5240 0.5280 0.5310 0.5340
2.403163 0.5390 0.5440 0.5500 0.5550 0.5600
2.437000 0.5630 0.5680 0.5750 0.5780 0.5820
2.471163 0.5850 0.5870 0.5870 0.5890 0.5920
2.505000 0.5970 0.6110 0.6170 0.6240 0.6310
2.539163 0.6430 0.6500 0.6580 0.6630 0.6650
2.574000 0.6720 0.6750 0.6770 0.6790 0.6790
2.608163 0.6820 0.6940 0.7060 0.7210 0.7310
2.642000 0.7380 0.7430 0.7470 0.7500 0.7500
2.676163 0.7500 0.7410 0.7300 0.7180 0.7020
2.710000 0.6740 0.6160 0.6020 0.5870 0.5330
2.744163 0.5020 0.4460 0.3880 0.3250 0.3100
2.779000 0.2950 0.2860 0.2630 0.2510 0.2370
2.813163 0.2270 0.2130 0.2020 0.1930 0.1850
2.847000 0.1690 0.1590 0.1520 0.1440 0.1370
2.881163 0.1350 0.1340 0.1340 0.1320 0.1300
2.915000 0.1290 0.1230 0.1220 0.1200 0.1170
2.949163 0.1150 0.1150 0.1150 0.1150 0.1150
2.983000 0.1150 0.1170 0.1180 0.1220 0.1230
3.017163 0.1290 0.1290 0.1290 0.1320 0.1350
3.052000 0.1370 0.1370 0.1390 0.1390 0.1390
3.086163 0.1390 0.1390 0.1390 0.1390 0.1390
3.120000 0.1390 0.1390 0.1390 0.1390 0.1390
3.154163 0.1390 0.1400 0.1400 0.1440 0.1460
3.188000 0.1490 0.1490 0.1510 0.1510 0.1520
3.222163 0.1540 0.1540 0.1540 0.1540 0.1520
3.257000 0.1520 0.1520 0.1540 0.1540 0.1520
3.291163 0.1400 0.1270 0.1120 0.0950 0.0760
3.325000 0.0560 0.0390 0.0370 0.0370 0.0370
3.359163 0.0370 0.0370 0.0370 0.0370 0.0370
3.393000 0.0370 0.0370 0.0370 0.0370 0.0370
3.427163 0.0350 0.0350 0.0350 0.0350 0.0350
3.461000 0.0350 0.0350 0.0350 0.0350 0.0350
3.495163 0.0390 0.0570 0.0790 0.1010 0.1340
3.530000 0.1660 0.2490 0.2780 0.3000 0.3140
3.564163 0.3270 0.3370 0.3460 0.3580 0.3660
3.598000 0.3760 0.3850 0.3930 0.3970 0.3980
3.632163 0.4000 0.4020 0.4020 0.4020 0.4020
3.666000 0.4020 0.4050 0.4120 0.4150 0.4240
3.700163 0.4310 0.4320 0.4360 0.4390 0.4430
3.735000 0.4480 0.4510 0.4560 0.4580 0.4600
3.769163 0.4600 0.4610 0.4660 0.4750 0.4800
3.803000 0.4850 0.4920 0.4970 0.4990 0.5020
3.837163 0.5020 0.5040 0.5090 0.5120 0.5170
3.871000 0.5210 0.5280 0.5290 0.5310 0.5380
3.905163 0.5390 0.5410 0.5440 0.5480 0.5510
3.940000 0.5550 0.5550 0.5600 0.5650 0.5700
3.974163 0.5720 0.5720 0.5720 0.5720 0.5750
4.008000 0.5770 0.5780 0.5800 0.5800 0.5820
4.042163 0.5890 0.5920 0.5940 0.5950 0.5970
4.076000 0.5990 0.6010 0.6010 0.6020 0.6020
4.110163 0.6010 0.6010 0.6010 0.6010 0.6010
4.144000 0.6010 0.6010 0.6010 0.6010 0.6010
4.178163 0.6010 0.6010 0.6010 0.5990 0.5990
4.213000 0.5990 0.5970 0.5920 0.5850 0.5780
4.247163 0.5680 0.5610 0.5580 0.5580 0.5610
4.281000 0.5750 0.5820 0.5870 0.5890 0.5900
4.315163 0.5900 0.5920 0.5970 0.6160 0.6210
4.349000 0.6260 0.6290 0.6310 0.6330 0.6330
4.383163 0.6330 0.6310 0.6260 0.6240 0.6230
4.418000 0.6210 0.6210 0.6210 0.6230 0.6230
4.452163 0.6240 0.6240 0.6290 0.6330 0.6380
4.486000 0.6400 0.6410 0.6450 0.6460 0.6460
4.520163 0.6500 0.6500 0.6500 0.6500 0.6500
4.554000 0.6530 0.6530 0.6550 0.6570 0.6600
4.588163 0.6620 0.6670 0.6680 0.6680 0.6700
4.622000 0.6720 0.6720 0.6720 0.6700 0.6720
4.656163 0.6740 0.6770 0.6800 0.6870 0.6920
4.691000 0.6970 0.6990 0.7010 0.7010 0.7020
4.725163 0.7020 0.7040 0.7070 0.7130 0.7180
4.759000 0.7190 0.7230 0.7240 0.7260 0.7300
4.793163 0.7310 0.7330 0.7350 0.7360 0.7380
4.827000 0.7400 0.7410 0.7430 0.7450 0.7470
4.861163 0.7480 0.7480 0.7480 0.7520 0.7520
4.896000 0.7550 0.7640 0.7650 0.7670 0.7670
4.930163 0.7690 0.7690 0.7700 0.7700 0.7720
4.964000 0.7740 0.7770 0.7800 0.7820 0.7870
4.998163 0.7940 0.8060 0.8080 0.8090 0.8110
5.032000 0.8110 0.8130 0.8130 0.8140 0.8180
5.066163 0.8180 0.8230 0.8260 0.8280 0.8280
5.100000 0.8280 0.8300 0.8300 0.8300 0.8310
5.134163 0.8310 0.8310 0.8310 0.8330 0.8330
5.169000 0.8330 0.8370 0.8380 0.8430 0.8470
5.203163 0.8480 0.8520 0.8530 0.8570 0.8600
5.237000 0.8640 0.8650 0.8650 0.8690 0.8700
5.271163 0.8720 0.8740 0.8770 0.8770 0.8790
5.305000 0.8820 0.8870 0.8890 0.8890 0.8910
5.339163 0.8890 0.8890 0.8870 0.8890 0.8910
5.374000 0.8930 0.8940 0.8940 0.8960 0.8960
5.408163 0.8990 0.8990 0.9010 0.9010 0.9030
5.442000 0.9040 0.9060 0.9080 0.9080 0.9080
5.476163 0.9100 0.9100 0.9130 0.9130 0.9150
5.510000 0.9150 0.9150 0.9160 0.9160 0.9160
5.544163 0.9160 0.9160 0.9160 0.9160 0.9160
5.579000 0.9180 0.9200 0.9210 0.9230 0.9260
5.613163 0.9250 0.9230 0.9210 0.9210 0.9200
5.647000 0.9180 0.9180 0.9160 0.9150 0.9130
5.681163 0.9100 0.9080 0.9060 0.9040 0.9010
5.715000 0.8990 0.8980 0.8960 0.8930 0.8910
5.749163 0.8870 0.8860 0.8820 0.8740 0.8550
5.783000 0.8420 0.8260 0.8130 0.7990 0.7970
5.817163 0.7920 0.7720 0.7530 0.7400 0.7360
5.852000 0.7360 0.7360 0.7360 0.7350 0.7300
5.886163 0.7060 0.6970 0.6870 0.6720 0.6700
5.920000 0.6680 0.6650 0.6580 0.6460 0.6330
5.954163 0.6170 0.6040 0.5970 0.5890 0.5630
5.988000 0.5330 0.5020 0.4750 0.4560 0.4490
6.022163 0.4490 0.4600 0.4680 0.4700 0.4700
6.057000 0.4510 0.4530 0.4580 0.4700 0.4800
6.091163 0.4830 0.4820 0.4780 0.4750 0.4630
6.125000 0.4550 0.4430 0.4380 0.4390 0.4800
6.159163 0.5000 0.5280 0.5500 0.5730 0.5900
6.193000 0.6140 0.6240 0.6340 0.6410 0.6480
6.227163 0.6410 0.6240 0.6230 0.6240 0.6410
6.261000 0.6450 0.6450 0.6480 0.6510 0.6510
6.295163 0.6290 0.6110 0.5950 0.5800 0.5410
6.330000 0.5170 0.5120 0.5120 0.5170 0.5480
6.364163 0.5780 0.5990 0.5990 0.5990 0.5780
6.398000 0.5440 0.5280 0.5210 0.5210 0.5260
6.432163 0.5500 0.5680 0.6630 0.6750 0.6750
6.466000 0.6750 0.6720 0.6670 0.6670 0.6580
6.500163 0.6480 0.6330 0.6140 0.6010 0.5900
6.535000 0.5780 0.5530 0.4970 0.4210 0.4140
6.569163 0.3980 0.3820 0.3510 0.3320 0.3140
6.603000 0.2920 0.2710 0.2710 0.2800 0.2920
6.637163 0.3030 0.3150 0.3250 0.3340 0.3390
6.671000 0.3490 0.3590 0.3590 0.3580 0.3390
6.705163 0.3310 0.2950 0.2810 0.2490 0.2300
6.740000 0.2130 0.1950 0.1620 0.1170 0.0860
6.774163 0.0730 0.0670 0.0670 0.0730 0.0790
6.808000 0.0810 0.0810 0.0860 0.1000 0.1080
6.842163 0.1180 0.1290 0.1390 0.1510 0.1660
6.876000 0.1790 0.1960 0.2240 0.2410 0.2630
6.910163 0.2760 0.2920 0.3340 0.3750 0.4460
6.944000 0.4680 0.4990 0.5220 0.5460 0.5670
6.978163 0.5800 0.5850 0.5940 0.5970 0.6120
7.013000 0.6210 0.6280 0.6310 0.6340 0.6380
7.047163 0.6410 0.6460 0.6460 0.6450 0.6400
7.081000 0.6380 0.6360 0.6290 0.6190 0.6060
7.115163 0.6010 0.5940 0.5820 0.5730 0.5560
7.149000 0.5390 0.5120 0.4770 0.4360 0.4150
7.183163 0.3930 0.3490 0.3070 0.2660 0.2320
7.218000 0.2070 0.1980 0.1900 0.1850 0.1850
7.252163 0.1950 0.3050 0.3250 0.3780 0.3950
7.286000 0.4270 0.4380 0.4510 0.4680 0.4750
7.320163 0.5190 0.5630 0.5770 0.5770 0.5730
7.354000 0.5650 0.5600 0.5480 0.5430 0.5430
7.388163 0.5530 0.5630 0.5700 0.5750 0.5780
7.422000 0.5840 0.5920 0.5970 0.5950 0.5940
7.456163 0.5870 0.5770 0.5770 0.5800 0.5850
7.491000 0.5940 0.6160 0.6260 0.6360 0.6450
7.525163 0.6460 0.6530 0.6570 0.6600 0.6630
7.559000 0.6650 0.6650 0.6650 0.6670 0.6670
7.593163 0.6650 0.6630 0.6620 0.6600 0.6570
7.627000 0.6530 0.6480 0.6410 0.6360 0.6260
7.661163 0.6190 0.6120 0.6040 0.6020 0.5990
7.696000 0.5750 0.5630 0.5530 0.5440 0.5240
7.730163 0.5220 0.5240 0.5330 0.5410 0.5530
7.764000 0.5700 0.5850 0.5990 0.6090 0.6190
7.798163 0.6230 0.6190 0.6060 0.6010 0.5950
7.832000 0.5730 0.5630 0.5430 0.5240 0.5000
7.866163 0.4730 0.4440 0.4320 0.4100 0.3980
7.900000 0.3870 0.3610 0.3590 0.3590 0.3590
7.934163 0.3650 0.3900 0.4270 0.4480 0.4510
7.969000 0.4490 0.4390 0.4210 0.4050 0.3900
8.003163 0.3730 0.3540 0.3320 0.3270 0.3220
8.037000 0.3190 0.3140 0.3080 0.2980 0.2920
8.071163 0.2780 0.2730 0.2660 0.2630 0.2610
8.105000 0.2630 0.2640 0.2680 0.2680 0.2660
8.139163 0.2660 0.2610 0.2540 0.2420 0.2290
8.174000 0.2100 0.2050 0.1980 0.1950 0.1950
8.208163 0.1960 0.2130 0.2190 0.2240 0.2250
8.242000 0.2240 0.2150 0.2050 0.2000 0.1960
8.276163 0.1930 0.1810 0.1730 0.1590 0.1510
8.310000 0.1460 0.1350 0.1340 0.1340 0.1340
8.344163 0.1370 0.1400 0.1420 0.1470 0.1520
8.379000 0.1560 0.1740 0.1880 0.1960 0.1980
8.413163 0.2240 0.2370 0.2490 0.2590 0.2690
8.447000 0.2800 0.2880 0.2950 0.3050 0.3080
8.481163 0.3120 0.3170 0.3240 0.3270 0.3270
8.515000 0.3240 0.3190 0.3150 0.3120 0.3120
8.549163 0.3100 0.3080 0.3070 0.3030 0.3000
8.583000 0.2980 0.2950 0.2920 0.2880 0.2850
8.617163 0.2830 0.2810 0.2810 0.2830 0.2900
8.652000 0.2970 0.3070 0.3140 0.3290 0.3420
8.686163 0.3540 0.3650 0.3760 0.3870 0.3970
8.720000 0.4190 0.4320 0.4460 0.4610 0.4700
8.754163 0.4800 0.4870 0.4880 0.4880 0.4870
8.788000 0.4850 0.4850 0.4880 0.5000 0.5110
8.822163 0.5330 0.5510 0.5700 0.5750 0.5750
8.857000 0.5720 0.5530 0.5390 0.5190 0.5110
8.891163 0.5020 0.5070 0.5170 0.5340 0.5510
8.925000 0.5650 0.5680 0.5680 0.5610 0.5340
8.959163 0.5110 0.4770 0.4460 0.4190 0.4040
8.993000 0.3870 0.3850 0.3870 0.4560 0.4780
9.027163 0.4990 0.5190 0.5380 0.5580 0.5750
9.061000 0.5920 0.6230 0.6340 0.6450 0.6510
9.095163 0.6630 0.6680 0.6790 0.6820 0.6890
9.130000 0.6970 0.6970 0.7010 0.7020 0.7040
9.164163 0.7070 0.7110 0.7110 0.7110 0.7090
9.198000 0.7090 0.7090 0.7090 0.7090 0.7110
9.232163 0.7110 0.7110 0.7110 0.7130 0.7130
9.266000 0.7130 0.7110 0.7110 0.7090 0.7070
9.300163 0.7020 0.6940 0.6790 0.6630 0.6460
9.335000 0.6280 0.6110 0.6020 0.5920 0.5720
9.369163 0.5510 0.5290 0.5040 0.4170 0.4100
9.403000 0.4050 0.3820 0.3560 0.3190 0.2760
9.437163 0.2390 0.2030 0.1880 0.1710 0.1660
9.471000 0.1680 0.1860 0.2460 0.2850 0.3390
9.505163 0.3680 0.4290 0.4490 0.4610 0.4630
9.540000 0.4610 0.4480 0.4340 0.4020 0.3900
9.574163 0.3780 0.3360 0.2950 0.2610 0.2320
9.608000 0.2020 0.1910 0.1790 0.1790 0.1910
9.642163 0.2440 0.2680 0.2750 0.2750 0.2710
9.676000 0.2590 0.2540 0.2540 0.2680 0.3070
9.710163 0.3490 0.3870 0.4430 0.4710 0.4970
9.744000 0.5210 0.5440 0.5630 0.5820 0.5950
9.778163 0.6170 0.6230 0.6240 0.6410 0.6510
9.813000 0.6580 0.6630 0.6700 0.6790 0.6820
9.847163 0.6850 0.6890 0.6910 0.6920 0.6970
9.881000 0.6920 0.6840 0.6750 0.6630 0.6500
9.915163 0.6290 0.6140 0.5970 0.5770 0.5290
9.949000 0.4830 0.4430 0.4390 0.4410 0.4430
9.983163 0.4610 0.4710 0.4940 0.5140 0.5340
10.018000 0.5550 0.5730 0.5900 0.6170 0.6240
10.052163 0.6380 0.6500 0.6630 0.6740 0.6840
10.086000 0.6920 0.6990 0.7020 0.7090 0.7110
10.120163 0.7210 0.7260 0.7300 0.7310 0.7350
10.154000 0.7380 0.7400 0.7410 0.7410 0.7430
10.188163 0.7450 0.7450 0.7480 0.7500 0.7520
10.222000 0.7520 0.7530 0.7550 0.7570 0.7570
10.256163 0.7580 0.7600 0.7620 0.7620 0.7640
10.291000 0.7640 0.7650 0.7650 0.7650 0.7670
10.325163 0.7670 0.7670 0.7690 0.7690 0.7690
10.359000 0.7690 0.7700 0.7700 0.7700 0.7720
10.393163 0.7720 0.7720 0.7720 0.7740 0.7740
10.427000 0.7740 0.7740 0.7750 0.7750 0.7750
10.461163 0.7750 0.7750 0.7750 0.7770 0.7750
10.496000 0.7740 0.7750 0.7750 0.7750 0.7740
10.530163 0.7720 0.7720 0.7690 0.7650 0.7650
10.564000 0.7640 0.7620 0.7580 0.7530 0.7450
10.598163 0.7330 0.7160 0.7020 0.6890 0.6740
10.632000 0.6530 0.6280 0.6090 0.5900 0.5360
10.666163 0.4800 0.4770 0.4770 0.4800 0.5290
10.700000 0.5560 0.6290 0.6530 0.6680 0.6820
10.734163 0.6970 0.7020 0.7110 0.7210 0.7280
10.769000 0.7350 0.7380 0.7400 0.7410 0.7430
10.803163 0.7430 0.7430 0.7430 0.7430 0.7430
10.837000 0.7400 0.7380 0.7360 0.7350 0.7310
10.871163 0.7300 0.7260 0.7240 0.7210 0.7190
10.905000 0.7160 0.7110 0.7090 0.7060 0.7010
10.939163 0.6990 0.6920 0.6920 0.6910 0.6890
10.974000 0.6890 0.6870 0.6800 0.6720 0.6630
11.008163 0.6550 0.6480 0.6410 0.6310 0.6280
11.042000 0.6230 0.6090 0.6010 0.5970 0.5920
11.076163 0.5800 0.5630 0.5630 0.5610 0.5600
11.110000 0.5580 0.5460 0.5220 0.5050 0.4940
11.144163 0.4830 0.4730 0.4580 0.4440 0.4320
11.179000 0.4270 0.4150 0.4070 0.3970 0.3780
11.213163 0.3580 0.3440 0.3420 0.3420 0.3420
11.247000 0.3460 0.3510 0.3580 0.3630 0.3700
11.281163 0.3780 0.3880 0.4150 0.4270 0.4390
11.315000 0.4490 0.4580 0.4680 0.4770 0.4850
11.349163 0.4950 0.5040 0.5140 0.5170 0.5190
11.383000 0.5210 0.5220 0.5240 0.5290 0.5340
11.417163 0.5360 0.5360 0.5360 0.5360 0.5360
11.452000 0.5360 0.5360 0.5360 0.5340 0.5330
11.486163 0.5290 0.5220 0.5170 0.5140 0.5110
11.520000 0.5090 0.5070 0.5070 0.5020 0.4950
11.554163 0.4920 0.4850 0.4770 0.4650 0.4560
11.588000 0.4530 0.4490 0.4430 0.4340 0.4220
11.622163 0.4100 0.4040 0.3970 0.3830 0.3710
11.657000 0.3580 0.3460 0.3360 0.3200 0.3050
11.691163 0.2730 0.2590 0.2420 0.2240 0.2070
11.725000 0.2050 0.2050 0.2070 0.2080 0.2150
11.759163 0.2190 0.2220 0.2250 0.2290 0.2340
11.793000 0.2410 0.2510 0.2520 0.2520 0.2560
11.827163 0.2590 0.2680 0.2730 0.2780 0.2830
11.861000 0.2920 0.3000 0.3100 0.3200 0.3290
11.895163 0.3390 0.3490 0.3560 0.3650 0.3750
11.930000 0.3850 0.3930 0.4090 0.4140 0.4210
11.964163 0.4260 0.4290 0.4340 0.4390 0.4430
11.998000 0.4480 0.4530 0.4580 0.4630 0.4650
12.032163 0.4650 0.4660 0.4680 0.4710 0.4770
12.066000 0.4780 0.4820 0.4830 0.4850 0.4850
12.100163 0.4850 0.4850 0.4850 0.4850 0.4870
12.135000 0.4870 0.4880 0.4900 0.4900 0.4920
12.169163 0.4920 0.4920 0.4920 0.4920 0.4920
12.203000 0.4920 0.4940 0.4920 0.4920 0.4900
12.237163 0.4920 0.4920 0.4900 0.4900 0.4880
12.271000 0.4870 0.4870 0.4870 0.4830 0.4820
12.305163 0.4820 0.4820 0.4800 0.4800 0.4780
12.340000 0.4780 0.4780 0.4780 0.4780 0.4780
12.374163 0.4800 0.4820 0.4850 0.4870 0.4900
12.408000 0.4950 0.4970 0.4970 0.4970 0.4920
12.442163 0.4870 0.4850 0.4850 0.4870 0.4870
12.476000 0.4870 0.4900 0.4920 0.4920 0.4920
12.510163 0.4920 0.4920 0.4900 0.4900 0.4880
12.544000 0.4900 0.4880 0.4880 0.4870 0.4850
12.578163 0.4830 0.4820 0.4800 0.4800 0.4800
12.613000 0.4800 0.4800 0.4800 0.4800 0.4820
12.647163 0.4820 0.4820 0.4820 0.4800 0.4800
12.681000 0.4780 0.4770 0.4770 0.4750 0.4730
12.715163 0.4710 0.4730 0.4730 0.4730 0.4730
12.749000 0.4730 0.4730 0.4710 0.4700 0.4700
12.783163 0.4680 0.4680 0.4660 0.4680 0.4680
12.818000 0.4660 0.4660 0.4650 0.4660 0.4660
12.852163 0.4660 0.4660 0.4650 0.4630 0.4600
12.886000 0.4580 0.4560 0.4560 0.4560 0.4560
12.920163 0.4580 0.4610 0.4610 0.4580 0.4560
12.954000 0.4530 0.4510 0.4490 0.4490 0.4480
12.988163 0.4480 0.4460 0.4440 0.4430 0.4430
13.022000 0.4410 0.4380 0.4340 0.4310 0.4290
13.056163 0.4260 0.4240 0.4220 0.4190 0.4140
13.091000 0.4050 0.4020 0.3980 0.3930 0.3870
13.125163 0.3750 0.3630 0.3510 0.3420 0.3370
13.159000 0.3310 0.3240 0.3050 0.2930 0.2860
13.193163 0.2850 0.2860 0.2880 0.2900 0.2920
13.227000 0.2970 0.3020 0.3070 0.3150 0.3170
13.261163 0.3200 0.3270 0.3320 0.3410 0.3440
13.296000 0.3460 0.3480 0.3490 0.3510 0.3560
13.330163 0.3630 0.3650 0.3680 0.3750 0.3800
13.364000 0.3830 0.3870 0.3880 0.3900 0.3930
13.398163 0.3970 0.3980 0.4020 0.4040 0.4040
13.432000 0.4050 0.4090 0.4090 0.4090 0.4090
13.466163 0.4070 0.4070 0.4050 0.4040 0.4020
13.500000 0.4000 0.4000 0.3980 0.3970 0.3920
13.534163 0.3880 0.3850 0.3800 0.3780 0.3750
13.569000 0.3710 0.3700 0.3660 0.3630 0.3590
13.603163 0.3580 0.3560 0.3540 0.3510 0.3490
13.637000 0.3480 0.3480 0.3460 0.3460 0.3440
13.671163 0.3420 0.3420 0.3420 0.3420 0.3440
13.705000 0.3440 0.3440 0.3480 0.3480 0.3490
13.739163 0.3490 0.3510 0.3530 0.3540 0.3560
13.774000 0.3560 0.3560 0.3580 0.3580 0.3580
13.808163 0.3580 0.3560 0.3560 0.3540 0.3540
13.842000 0.3530 0.3510 0.3490 0.3490 0.3480
13.876163 0.3460 0.3440 0.3440 0.3420 0.3410
13.910000 0.3390 0.3370 0.3370 0.3370 0.3340
13.944163 0.3270 0.3140 0.3100 0.3070 0.3020
13.979000 0.3000 0.2980 0.2980 0.2970 0.2950
14.013163 0.2930 0.2920 0.2920 0.2920 0.2920
14.047000 0.2920 0.2950 0.3030 0.3080 0.3150
14.081163 0.3220 0.3310 0.3310 0.3320 0.3320
14.115000 0.3320 0.3340 0.3370 0.3410 0.3460
14.149163 0.3510 0.3510 0.3580 0.3660 0.3710
14.183000 0.3760 0.3800 0.3820 0.3850 0.3900
14.217163 0.3970 0.4050 0.4070 0.4090 0.4100
14.252000 0.4100 0.4120 0.4120 0.4120 0.4150
14.286163 0.4190 0.4220 0.4270 0.4310 0.4310
14.320000 0.4220 0.4190 0.4170 0.4150 0.4140
14.354163 0.4140 0.4120 0.4100 0.4000 0.4000
14.388000 0.3980 0.3970 0.3900 0.3820 0.3730
14.422163 0.3630 0.3580 0.3530 0.3490 0.3460
14.457000 0.3410 0.3360 0.3290 0.3250 0.3200
14.491163 0.3190 0.3170 0.3140 0.3120 0.3100
14.525000 0.3100 0.3080 0.3100 0.3120 0.3170
14.559163 0.3220 0.3270 0.3290 0.3320 0.3370
14.593000 0.3410 0.3440 0.3460 0.3510 0.3540
14.627163 0.3590 0.3630 0.3650 0.3660 0.3680
14.661000 0.3700 0.3700 0.3700 0.3710 0.3710
14.695163 0.3750 0.3760 0.3780 0.3820 0.3850
14.730000 0.3870 0.3880 0.3900 0.3930 0.3950
14.764163 0.3950 0.3950 0.3950 0.3950 0.3950
14.798000 0.3950 0.3950 0.3950 0.3950 0.3950
14.832163 0.3950 0.3950 0.3950 0.3950 0.3950
14.866000 0.3950 0.3950 0.3950 0.3950 0.3950
14.900163 0.3920 0.3920 0.3900 0.3850 0.3780
14.935000 0.3750 0.3750 0.3710 0.3700 0.3700
14.969163 0.3680 0.3660 0.3630 0.3580 0.3560
15.003000 0.3530 0.3510 0.3480 0.3460 0.3440
15.037163 0.3420 0.3390 0.3370 0.3360 0.3340
15.071000 0.3340 0.3320 0.3320 0.3310 0.3290
15.105163 0.3270 0.3270 0.3250 0.3240 0.3220
15.140000 0.3220 0.3220 0.3220 0.3220 0.3220
15.174163 0.3240 0.3240 0.3250 0.3250 0.3270
15.208000 0.3270 0.3290 0.3290 0.3310 0.3360
15.242163 0.3370 0.3390 0.3420 0.3480 0.3480
15.276000 0.3510 0.3530 0.3530 0.3530 0.3530
15.310163 0.3490 0.3480 0.3460 0.3460 0.3480
15.344000 0.3490 0.3510 0.3530 0.3580 0.3590
15.378163 0.3590 0.3590 0.3590 0.3590 0.3580
15.413000 0.3580 0.3580 0.3580 0.3580 0.3560
15.447163 0.3530 0.3510 0.3490 0.3490 0.3480
15.481000 0.3480 0.3440 0.3420 0.3410 0.3370
15.515163 0.3360 0.3320 0.3270 0.3200 0.3200
15.549000 0.3190 0.3170 0.3150 0.3140 0.3120
15.583163 0.3120 0.3120 0.3100 0.3100 0.3100
15.618000 0.3080 0.3070 0.3070 0.3050 0.3050
15.652163 0.3030 0.3030 0.3030 0.3050 0.3050
15.686000 0.3070 0.3070 0.3080 0.3080 0.3080
15.720163 0.3080 0.3100 0.3120 0.3140 0.3140
15.754000 0.3170 0.3200 0.3220 0.3240 0.3240
15.788163 0.3270 0.3310 0.3340 0.3370 0.3370
15.822000 0.3390 0.3390 0.3390 0.3410 0.3420
15.856163 0.3420 0.3440 0.3440 0.3460 0.3480
15.891000 0.3490 0.3490 0.3490 0.3490 0.3490
15.925163 0.3490 0.3490 0.3480 0.3440 0.3420
15.959000 0.3440 0.3480 0.3490 0.3490 0.3510
15.993163 0.3490 0.3510
##END=
