##TITLE=1-HYDROXY-2(1H)-PYRIDINETHIONE, MANGANESE SALT
##JCAMP-DX=4.24
##DATA TYPE=INFRARED SPECTRUM
##CLASS=COBLENTZ
##ORIGIN=WYANDOTTE CHEMICALS CORP., WYANDOTTE, MICHIGAN, USA
##OWNER=COBLENTZ SOCIETY
Collection (C) 2018 copyright by the U.S. Secretary of Commerce
on behalf of the United States of America. All rights reserved.
##DATE=Not specified, most likely prior to 1970
##MOLFORM=C10 H10 N2 O2 S2 Mn
##SOURCE REFERENCE=COBLENTZ NO. 3866
##$NIST ID=B6003866
##$NIST SOURCE=COBLENTZ
##$NIST IMAGE=cob3866
##SPECTROMETER/DATA SYSTEM=Not specified, most likely a prism, grating, or hybrid spectrometer.
##STATE=SOLID (MINERAL OIL MULL)
##PATH LENGTH=
$$SPECTRAL CONTAMINATION DUE TO OIL AROUND 2900 CM^-^1
##SAMPLING PROCEDURE=TRANSMISSION
##RESOLUTION=4
##DATA PROCESSING=DIGITIZED BY NIST FROM HARD COPY
##XUNITS=MICROMETERS
##YUNITS=TRANSMITTANCE
##XFACTOR=1.000000
##YFACTOR=1
##DELTAX=000.006208
##FIRSTX=2.025
##LASTX=15.9879
##FIRSTY=0.348
##MAXX=15.9879
##MINX=2.025
##MAXY=1.007
##MINY=0.031
##NPOINTS=2250
##XYDATA=(X++(Y..Y))
2.025000 0.3480 0.3500 0.3500 0.3500 0.3500
2.056056 0.3500 0.3500 0.3500 0.3500 0.3500
2.087000 0.3520 0.3530 0.3530 0.3550 0.3550
2.118056 0.3580 0.3590 0.3610 0.3620 0.3660
2.149000 0.3670 0.3690 0.3720 0.3760 0.3800
2.180056 0.3800 0.3810 0.3810 0.3810 0.3810
2.211000 0.3810 0.3810 0.3800 0.3800 0.3800
2.242056 0.3810 0.3810 0.3830 0.3840 0.3840
2.273000 0.3860 0.3870 0.3890 0.3900 0.3940
2.304056 0.3980 0.4000 0.4010 0.4010 0.4040
2.335000 0.4080 0.4080 0.4090 0.4110 0.4140
2.366056 0.4170 0.4170 0.4170 0.4190 0.4200
2.397000 0.4230 0.4260 0.4260 0.4280 0.4280
2.428056 0.4290 0.4290 0.4310 0.4310 0.4330
2.459000 0.4330 0.4340 0.4370 0.4390 0.4400
2.490056 0.4420 0.4430 0.4470 0.4470 0.4480
2.522000 0.4480 0.4480 0.4480 0.4500 0.4510
2.553056 0.4530 0.4560 0.4570 0.4610 0.4620
2.584000 0.4640 0.4670 0.4670 0.4680 0.4700
2.615056 0.4710 0.4730 0.4760 0.4760 0.4780
2.646000 0.4780 0.4790 0.4790 0.4810 0.4820
2.677056 0.4870 0.4890 0.4920 0.4930 0.4950
2.708000 0.4960 0.4980 0.4980 0.4980 0.4980
2.739056 0.4980 0.5000 0.5010 0.5010 0.5010
2.770000 0.5010 0.5010 0.5010 0.5030 0.5030
2.801056 0.5030 0.5030 0.5030 0.5000 0.5000
2.832000 0.5000 0.5000 0.5000 0.5000 0.5000
2.863056 0.5010 0.5010 0.5010 0.5010 0.5010
2.894000 0.5010 0.5010 0.5010 0.5010 0.5030
2.925056 0.5030 0.5030 0.5030 0.5030 0.5030
2.956000 0.5030 0.5030 0.5030 0.5030 0.5010
2.987056 0.5010 0.5010 0.5030 0.5040 0.5060
3.018000 0.5060 0.5070 0.5070 0.5070 0.5060
3.049056 0.5060 0.5070 0.5070 0.5090 0.5100
3.080000 0.5120 0.5140 0.5140 0.5150 0.5170
3.111056 0.5170 0.5150 0.5150 0.5150 0.5150
3.142000 0.5140 0.5140 0.5140 0.5120 0.5120
3.173056 0.5100 0.5100 0.5100 0.5100 0.5100
3.204000 0.5100 0.5090 0.5070 0.5070 0.4780
3.235056 0.4650 0.4500 0.4340 0.4190 0.4010
3.267000 0.4010 0.4040 0.4080 0.4150 0.4150
3.298056 0.4110 0.4030 0.3980 0.3950 0.3840
3.329000 0.3670 0.3450 0.3090 0.2780 0.2350
3.360056 0.1860 0.1380 0.0990 0.0730 0.0600
3.391000 0.0540 0.0480 0.0420 0.0350 0.0310
3.422056 0.0310 0.0340 0.0380 0.0430 0.0490
3.453000 0.0560 0.0680 0.0770 0.0820 0.0880
3.484056 0.0900 0.0910 0.0910 0.0910 0.0930
3.515000 0.0990 0.1050 0.1400 0.1820 0.2490
3.546056 0.3230 0.3810 0.4560 0.5090 0.5480
3.577000 0.5660 0.5840 0.5900 0.6020 0.6100
3.608056 0.6180 0.6260 0.6290 0.6330 0.6400
3.639000 0.6430 0.6430 0.6460 0.6470 0.6470
3.670056 0.6470 0.6470 0.6460 0.6440 0.6440
3.701000 0.6440 0.6460 0.6460 0.6470 0.6470
3.732056 0.6470 0.6490 0.6510 0.6520 0.6540
3.763000 0.6550 0.6570 0.6600 0.6630 0.6650
3.794056 0.6680 0.6710 0.6740 0.6770 0.6790
3.825000 0.6820 0.6820 0.6830 0.6830 0.6850
3.856056 0.6860 0.6860 0.6860 0.6860 0.6860
3.887000 0.6900 0.6930 0.6940 0.6960 0.6990
3.918056 0.7000 0.7000 0.7040 0.7040 0.7050
3.949000 0.7080 0.7100 0.7130 0.7190 0.7240
3.980056 0.7300 0.7320 0.7350 0.7360 0.7380
4.012000 0.7380 0.7380 0.7380 0.7380 0.7390
4.043056 0.7390 0.7410 0.7410 0.7410 0.7440
4.074000 0.7440 0.7460 0.7470 0.7470 0.7490
4.105056 0.7490 0.7490 0.7500 0.7500 0.7500
4.136000 0.7500 0.7500 0.7500 0.7500 0.7490
4.167056 0.7490 0.7490 0.7490 0.7490 0.7490
4.198000 0.7490 0.7490 0.7520 0.7530 0.7530
4.229056 0.7550 0.7550 0.7580 0.7580 0.7570
4.260000 0.7530 0.7520 0.7500 0.7500 0.7490
4.291056 0.7490 0.7500 0.7570 0.7600 0.7630
4.322000 0.7610 0.7610 0.7610 0.7610 0.7610
4.353056 0.7630 0.7670 0.7710 0.7780 0.7810
4.384000 0.7880 0.7880 0.7890 0.7950 0.7990
4.415056 0.8000 0.8000 0.8000 0.8020 0.8020
4.446000 0.8030 0.8030 0.8050 0.8060 0.8080
4.477056 0.8080 0.8080 0.8090 0.8110 0.8110
4.508000 0.8110 0.8110 0.8110 0.8130 0.8130
4.539056 0.8130 0.8130 0.8130 0.8130 0.8140
4.570000 0.8170 0.8200 0.8220 0.8230 0.8250
4.601056 0.8270 0.8280 0.8280 0.8280 0.8300
4.632000 0.8300 0.8300 0.8300 0.8300 0.8310
4.663056 0.8310 0.8310 0.8310 0.8310 0.8310
4.694000 0.8310 0.8310 0.8310 0.8330 0.8310
4.725056 0.8330 0.8340 0.8360 0.8380 0.8390
4.757000 0.8410 0.8450 0.8470 0.8500 0.8580
4.788056 0.8590 0.8610 0.8640 0.8640 0.8640
4.819000 0.8660 0.8660 0.8660 0.8660 0.8660
4.850056 0.8660 0.8690 0.8690 0.8670 0.8690
4.881000 0.8690 0.8690 0.8690 0.8700 0.8700
4.912056 0.8720 0.8730 0.8730 0.8730 0.8750
4.943000 0.8750 0.8760 0.8780 0.8780 0.8830
4.974056 0.8830 0.8840 0.8860 0.8860 0.8860
5.005000 0.8860 0.8840 0.8830 0.8810 0.8810
5.036056 0.8800 0.8800 0.8800 0.8760 0.8730
5.067000 0.8730 0.8750 0.8760 0.8800 0.8830
5.098056 0.8870 0.8890 0.8900 0.8900 0.8920
5.129000 0.8920 0.8920 0.8940 0.8970 0.9000
5.160056 0.9010 0.9030 0.9080 0.9090 0.9090
5.191000 0.9090 0.9080 0.9060 0.9060 0.9040
5.222056 0.9040 0.9060 0.9080 0.9090 0.9090
5.253000 0.9120 0.9120 0.9110 0.9120 0.9120
5.284056 0.9120 0.9140 0.9140 0.9120 0.9110
5.315000 0.9110 0.9110 0.9110 0.9110 0.9110
5.346056 0.9110 0.9090 0.9090 0.9090 0.9080
5.377000 0.9080 0.9080 0.9080 0.9090 0.9140
5.408056 0.9190 0.9220 0.9220 0.9260 0.9280
5.439000 0.9280 0.9260 0.9230 0.9230 0.9260
5.470056 0.9290 0.9290 0.9310 0.9310 0.9310
5.502000 0.9290 0.9310 0.9330 0.9370 0.9370
5.533056 0.9340 0.9330 0.9310 0.9290 0.9290
5.564000 0.9280 0.9230 0.9200 0.9170 0.9150
5.595056 0.9190 0.9220 0.9290 0.9340 0.9370
5.626000 0.9370 0.9370 0.9340 0.9340 0.9360
5.657056 0.9360 0.9390 0.9450 0.9480 0.9500
5.688000 0.9500 0.9510 0.9510 0.9510 0.9500
5.719056 0.9470 0.9470 0.9480 0.9480 0.9480
5.750000 0.9480 0.9480 0.9480 0.9500 0.9540
5.781056 0.9570 0.9590 0.9590 0.9560 0.9500
5.812000 0.9500 0.9500 0.9500 0.9540 0.9530
5.843056 0.9510 0.9500 0.9450 0.9390 0.9360
5.874000 0.9340 0.9340 0.9360 0.9360 0.9400
5.905056 0.9390 0.9330 0.9230 0.9200 0.9200
5.936000 0.9200 0.9220 0.9280 0.9290 0.9260
5.967056 0.9260 0.9260 0.9280 0.9280 0.9290
5.998000 0.9290 0.9290 0.9280 0.9200 0.9190
6.029056 0.9140 0.9120 0.9110 0.9140 0.9150
6.060000 0.9200 0.9200 0.9190 0.9140 0.9110
6.091056 0.9090 0.9090 0.9080 0.9030 0.8950
6.122000 0.8890 0.8860 0.8800 0.8730 0.8670
6.153056 0.8610 0.8580 0.8470 0.8310 0.7910
6.184000 0.7270 0.6880 0.5910 0.4840 0.4670
6.215056 0.4670 0.5540 0.6180 0.7000 0.7470
6.247000 0.7740 0.7940 0.8170 0.8360 0.8550
6.278056 0.8700 0.8840 0.8950 0.9030 0.9120
6.309000 0.9190 0.9250 0.9280 0.9310 0.9310
6.340056 0.9260 0.9220 0.9170 0.9080 0.9060
6.371000 0.9080 0.9080 0.9190 0.9200 0.9000
6.402056 0.8690 0.8020 0.7190 0.6550 0.5730
6.433000 0.5000 0.4430 0.3890 0.3660 0.3550
6.464056 0.3550 0.3640 0.4060 0.4620 0.5140
6.495000 0.5790 0.6290 0.6720 0.7040 0.7270
6.526056 0.7460 0.7640 0.7830 0.7990 0.8140
6.557000 0.8310 0.8450 0.8580 0.8620 0.8620
6.588056 0.8580 0.8580 0.8610 0.8720 0.8840
6.619000 0.8940 0.9010 0.9030 0.9010 0.8920
6.650056 0.8730 0.8580 0.8330 0.8130 0.7970
6.681000 0.7950 0.7990 0.8190 0.8330 0.8340
6.712056 0.8300 0.8080 0.7940 0.7580 0.7180
6.743000 0.6690 0.6130 0.5570 0.4850 0.3940
6.774056 0.3020 0.2300 0.1440 0.1230 0.0680
6.805000 0.0600 0.0620 0.0650 0.0700 0.0760
6.836056 0.0850 0.0980 0.1230 0.1630 0.1990
6.867000 0.2330 0.2670 0.2940 0.3330 0.3690
6.898056 0.4030 0.4430 0.4700 0.5010 0.5240
6.929000 0.5490 0.5710 0.6050 0.6240 0.6440
6.960056 0.6510 0.6570 0.6570 0.6570 0.6580
6.992000 0.6580 0.6520 0.6240 0.6020 0.5820
7.023056 0.5520 0.5090 0.4390 0.3480 0.2880
7.054000 0.2470 0.2470 0.2750 0.3280 0.3940
7.085056 0.4390 0.4790 0.5200 0.5490 0.5900
7.116000 0.6130 0.6350 0.6540 0.6660 0.6760
7.147056 0.6800 0.6860 0.6960 0.6970 0.6990
7.178000 0.6990 0.6970 0.6830 0.6580 0.6370
7.209056 0.6090 0.5790 0.5600 0.5400 0.5240
7.240000 0.5030 0.4840 0.4790 0.4790 0.4900
7.271056 0.5280 0.5630 0.6020 0.6190 0.6300
7.302000 0.6400 0.6470 0.6570 0.6660 0.6880
7.333056 0.7080 0.7380 0.7530 0.7690 0.7770
7.364000 0.7830 0.7880 0.7890 0.7970 0.8020
7.395056 0.8030 0.8060 0.8090 0.8140 0.8160
7.426000 0.8170 0.8170 0.8190 0.8200 0.8230
7.457056 0.8270 0.8280 0.8330 0.8380 0.8480
7.488000 0.8520 0.8550 0.8580 0.8620 0.8660
7.519056 0.8700 0.8780 0.8780 0.8780 0.8780
7.550000 0.8780 0.8780 0.8780 0.8780 0.8780
7.581056 0.8780 0.8780 0.8780 0.8800 0.8800
7.612000 0.8800 0.8800 0.8800 0.8810 0.8810
7.643056 0.8810 0.8810 0.8830 0.8870 0.8950
7.675000 0.9000 0.9040 0.9120 0.9170 0.9190
7.706056 0.9190 0.9200 0.9200 0.9220 0.9250
7.737000 0.9280 0.9280 0.9280 0.9250 0.9230
7.768056 0.9220 0.9190 0.9120 0.9000 0.8860
7.799000 0.8660 0.8360 0.7990 0.7810 0.7610
7.830056 0.7490 0.7470 0.7490 0.7520 0.7530
7.861000 0.7550 0.7530 0.7520 0.7410 0.7350
7.892056 0.7280 0.7360 0.7640 0.7910 0.8090
7.923000 0.8300 0.8450 0.8520 0.8580 0.8690
7.954056 0.8720 0.8750 0.8780 0.8800 0.8800
7.985000 0.8810 0.8810 0.8810 0.8810 0.8810
8.016056 0.8810 0.8830 0.8830 0.8840 0.8840
8.047000 0.8890 0.8920 0.8940 0.8950 0.8970
8.078056 0.8970 0.8890 0.8800 0.8670 0.8440
8.109000 0.8160 0.7800 0.7280 0.6900 0.6380
8.140056 0.5950 0.5660 0.5540 0.5560 0.5600
8.171000 0.5990 0.6240 0.6460 0.6540 0.6650
8.202056 0.6760 0.6790 0.6790 0.6800 0.6790
8.233000 0.6690 0.6490 0.6330 0.6300 0.6350
8.264056 0.6520 0.6790 0.7080 0.7300 0.7570
8.295000 0.7750 0.7860 0.7990 0.8030 0.8060
8.326056 0.8080 0.8060 0.8030 0.7940 0.7800
8.357000 0.7600 0.7300 0.7080 0.6540 0.5990
8.388056 0.5520 0.4560 0.3550 0.3090 0.2690
8.420000 0.2710 0.2800 0.3220 0.3450 0.3660
8.451056 0.3870 0.4040 0.4500 0.5000 0.5650
8.482000 0.6180 0.6510 0.6580 0.6570 0.6270
8.513056 0.5700 0.5090 0.4480 0.3780 0.3360
8.544000 0.3250 0.3250 0.3340 0.3580 0.3610
8.575056 0.3610 0.3580 0.3420 0.3220 0.3080
8.606000 0.2990 0.2860 0.2600 0.2470 0.2410
8.637056 0.2410 0.2490 0.2670 0.3020 0.3270
8.668000 0.3730 0.4200 0.4540 0.4840 0.5000
8.699056 0.5040 0.5060 0.5060 0.5060 0.5090
8.730000 0.5140 0.5310 0.5540 0.5800 0.6100
8.761056 0.6350 0.6550 0.6740 0.6860 0.6940
8.792000 0.7040 0.7100 0.7180 0.7250 0.7300
8.823056 0.7330 0.7380 0.7410 0.7490 0.7550
8.854000 0.7610 0.7690 0.7750 0.7850 0.7990
8.885056 0.8030 0.8130 0.8190 0.8230 0.8230
8.916000 0.8270 0.8280 0.8280 0.8280 0.8280
8.947056 0.8300 0.8330 0.8380 0.8390 0.8420
8.978000 0.8440 0.8440 0.8450 0.8450 0.8440
9.009056 0.8450 0.8450 0.8450 0.8470 0.8470
9.040000 0.8440 0.8420 0.8420 0.8420 0.8420
9.071056 0.8420 0.8390 0.8330 0.8220 0.8050
9.102000 0.7940 0.7750 0.7390 0.6940 0.6430
9.133056 0.5800 0.5040 0.4400 0.3590 0.2950
9.165000 0.2740 0.2580 0.2420 0.2530 0.2710
9.196056 0.3380 0.4040 0.4680 0.5180 0.5380
9.227000 0.5540 0.5760 0.5950 0.6020 0.6230
9.258056 0.6400 0.6570 0.6790 0.6900 0.6990
9.289000 0.7070 0.7130 0.7240 0.7280 0.7330
9.320056 0.7410 0.7440 0.7470 0.7520 0.7600
9.351000 0.7670 0.7670 0.7690 0.7710 0.7740
9.382056 0.7770 0.7800 0.7830 0.7860 0.7910
9.413000 0.7970 0.7990 0.7990 0.7990 0.8000
9.444056 0.8000 0.7990 0.7990 0.7970 0.7920
9.475000 0.7800 0.7710 0.7550 0.7440 0.7300
9.506056 0.7160 0.6990 0.6970 0.6990 0.7050
9.537000 0.7130 0.7240 0.7380 0.7490 0.7580
9.568056 0.7610 0.7610 0.7600 0.7570 0.7530
9.599000 0.7440 0.7210 0.7000 0.6800 0.6710
9.630056 0.6520 0.6300 0.6260 0.6260 0.6290
9.661000 0.6430 0.6540 0.6720 0.6940 0.7140
9.692056 0.7320 0.7460 0.7600 0.7670 0.7720
9.723000 0.7770 0.7830 0.7940 0.8020 0.8090
9.754056 0.8170 0.8220 0.8270 0.8300 0.8330
9.785000 0.8360 0.8380 0.8390 0.8440 0.8470
9.816056 0.8480 0.8480 0.8480 0.8500 0.8530
9.847000 0.8580 0.8620 0.8660 0.8690 0.8690
9.878056 0.8700 0.8730 0.8750 0.8780 0.8810
9.910000 0.8830 0.8840 0.8870 0.8900 0.8950
9.941056 0.8970 0.8980 0.9000 0.9010 0.9040
9.972000 0.9090 0.9110 0.9120 0.9140 0.9170
10.003056 0.9200 0.9230 0.9260 0.9280 0.9280
10.034000 0.9280 0.9280 0.9260 0.9260 0.9260
10.065056 0.9260 0.9280 0.9280 0.9260 0.9230
10.096000 0.9200 0.9170 0.9170 0.9170 0.9170
10.127056 0.9170 0.9190 0.9200 0.9230 0.9260
10.158000 0.9280 0.9280 0.9280 0.9280 0.9280
10.189056 0.9280 0.9260 0.9260 0.9250 0.9230
10.220000 0.9230 0.9230 0.9220 0.9200 0.9190
10.251056 0.9120 0.9080 0.9030 0.8980 0.8950
10.282000 0.8900 0.8840 0.8830 0.8810 0.8830
10.313056 0.8870 0.8940 0.8980 0.9040 0.9110
10.344000 0.9170 0.9230 0.9280 0.9290 0.9310
10.375056 0.9330 0.9370 0.9370 0.9390 0.9400
10.406000 0.9400 0.9400 0.9420 0.9420 0.9420
10.437056 0.9420 0.9430 0.9430 0.9430 0.9430
10.468000 0.9420 0.9420 0.9390 0.9340 0.9310
10.499056 0.9280 0.9230 0.9200 0.9190 0.9150
10.530000 0.9150 0.9140 0.9140 0.9170 0.9200
10.561056 0.9230 0.9250 0.9280 0.9310 0.9310
10.592000 0.9310 0.9330 0.9310 0.9290 0.9290
10.623056 0.9280 0.9230 0.9220 0.9170 0.9150
10.655000 0.9120 0.9120 0.9150 0.9220 0.9280
10.686056 0.9330 0.9330 0.9340 0.9340 0.9360
10.717000 0.9390 0.9420 0.9470 0.9500 0.9560
10.748056 0.9590 0.9610 0.9620 0.9620 0.9640
10.779000 0.9650 0.9650 0.9650 0.9670 0.9670
10.810056 0.9670 0.9670 0.9670 0.9680 0.9680
10.841000 0.9680 0.9680 0.9680 0.9680 0.9700
10.872056 0.9700 0.9710 0.9710 0.9730 0.9730
10.903000 0.9750 0.9750 0.9780 0.9780 0.9790
10.934056 0.9810 0.9810 0.9810 0.9810 0.9820
10.965000 0.9840 0.9870 0.9890 0.9890 0.9920
10.996056 0.9950 0.9960 0.9960 0.9980 0.9980
11.027000 0.9980 0.9980 1.0000 1.0000 1.0000
11.058056 1.0000 1.0000 1.0000 1.0000 1.0000
11.089000 1.0000 1.0000 1.0000 1.0000 1.0000
11.120056 1.0000 1.0000 1.0000 1.0000 1.0000
11.151000 1.0000 1.0010 1.0010 1.0010 1.0010
11.182056 1.0000 1.0000 1.0000 1.0000 1.0000
11.213000 1.0000 1.0000 1.0000 1.0010 1.0010
11.244056 1.0000 0.9980 1.0000 1.0000 1.0010
11.275000 1.0010 1.0010 1.0010 1.0000 1.0010
11.306056 1.0010 1.0010 1.0010 1.0010 1.0010
11.337000 1.0010 1.0010 1.0010 1.0010 1.0030
11.368056 1.0040 1.0030 1.0040 1.0040 1.0040
11.400000 1.0060 1.0060 1.0060 1.0060 1.0060
11.431056 1.0060 1.0040 1.0040 1.0040 1.0060
11.462000 1.0060 1.0060 1.0070 1.0070 1.0070
11.493056 1.0060 1.0060 1.0060 1.0040 1.0040
11.524000 1.0040 1.0040 1.0040 1.0030 1.0030
11.555056 1.0030 1.0030 1.0030 1.0030 1.0040
11.586000 1.0040 1.0040 1.0030 1.0040 1.0040
11.617056 1.0030 1.0030 1.0040 1.0040 1.0010
11.648000 1.0000 1.0000 1.0010 1.0010 1.0010
11.679056 1.0010 1.0010 1.0010 1.0010 1.0010
11.710000 1.0010 1.0010 1.0010 1.0000 1.0000
11.741056 1.0000 0.9980 0.9960 0.9950 0.9950
11.772000 0.9950 0.9930 0.9920 0.9930 0.9920
11.803056 0.9920 0.9900 0.9900 0.9920 0.9920
11.834000 0.9930 0.9920 0.9930 0.9930 0.9950
11.865056 0.9980 0.9980 0.9980 0.9960 0.9950
11.896000 0.9930 0.9920 0.9920 0.9920 0.9920
11.927056 0.9920 0.9920 0.9900 0.9870 0.9840
11.958000 0.9840 0.9820 0.9820 0.9810 0.9810
11.989056 0.9780 0.9750 0.9710 0.9670 0.9620
12.020000 0.9590 0.9540 0.9500 0.9430 0.9360
12.051056 0.9280 0.9190 0.9080 0.8940 0.8780
12.082000 0.8590 0.8380 0.8090 0.7770 0.7380
12.113056 0.6910 0.6540 0.6150 0.5730 0.5350
12.145000 0.4950 0.4570 0.4310 0.4030 0.3810
12.176056 0.3590 0.3410 0.3250 0.3130 0.3020
12.207000 0.3000 0.3030 0.3130 0.3220 0.3360
12.238056 0.3590 0.3840 0.4110 0.4390 0.4650
12.269000 0.5010 0.5260 0.5480 0.5760 0.5960
12.300056 0.6150 0.6320 0.6470 0.6630 0.6790
12.331000 0.6960 0.7130 0.7320 0.7440 0.7570
12.362056 0.7740 0.7850 0.7990 0.8050 0.8170
12.393000 0.8270 0.8380 0.8500 0.8590 0.8690
12.424056 0.8760 0.8860 0.8940 0.9010 0.9090
12.455000 0.9150 0.9200 0.9260 0.9310 0.9370
12.486056 0.9420 0.9480 0.9510 0.9510 0.9540
12.517000 0.9570 0.9610 0.9640 0.9670 0.9680
12.548056 0.9700 0.9730 0.9760 0.9790 0.9810
12.579000 0.9810 0.9820 0.9820 0.9840 0.9850
12.610056 0.9850 0.9870 0.9850 0.9870 0.9870
12.641000 0.9890 0.9890 0.9890 0.9890 0.9900
12.672056 0.9900 0.9900 0.9900 0.9900 0.9900
12.703000 0.9900 0.9900 0.9900 0.9900 0.9900
12.734056 0.9900 0.9900 0.9900 0.9890 0.9890
12.765000 0.9870 0.9890 0.9870 0.9870 0.9850
12.796056 0.9890 0.9890 0.9870 0.9850 0.9840
12.827000 0.9840 0.9840 0.9820 0.9820 0.9820
12.858056 0.9820 0.9810 0.9780 0.9750 0.9680
12.890000 0.9640 0.9570 0.9510 0.9500 0.9470
12.921056 0.9420 0.9400 0.9330 0.9280 0.9250
12.952000 0.9200 0.9140 0.9060 0.8970 0.8860
12.983056 0.8760 0.8640 0.8520 0.8200 0.7910
13.014000 0.7800 0.7580 0.7350 0.7100 0.6860
13.045056 0.6650 0.6460 0.6290 0.6150 0.6050
13.076000 0.5980 0.5950 0.5840 0.5740 0.5630
13.107056 0.5480 0.5290 0.5070 0.4760 0.4540
13.138000 0.4290 0.4000 0.3810 0.3620 0.3480
13.169056 0.3410 0.3410 0.3470 0.3620 0.3870
13.200000 0.4220 0.4590 0.5000 0.5400 0.5760
13.231056 0.6070 0.6270 0.6490 0.6680 0.6830
13.262000 0.6970 0.7070 0.7140 0.7240 0.7320
13.293056 0.7360 0.7360 0.7330 0.7270 0.7160
13.324000 0.7040 0.6850 0.6650 0.6400 0.6090
13.355056 0.5760 0.5350 0.5000 0.4640 0.4190
13.386000 0.3840 0.3640 0.3160 0.2750 0.2580
13.417056 0.2350 0.2320 0.2330 0.2420 0.2520
13.448000 0.2880 0.3140 0.3520 0.3980 0.4450
13.479056 0.4900 0.5350 0.5760 0.6130 0.6470
13.510000 0.6770 0.7000 0.7220 0.7420 0.7640
13.541056 0.7780 0.7920 0.8060 0.8190 0.8300
13.573000 0.8390 0.8470 0.8520 0.8520 0.8690
13.604056 0.8800 0.8890 0.8940 0.8980 0.9010
13.635000 0.9080 0.9080 0.9090 0.9110 0.9140
13.666056 0.9190 0.9190 0.9200 0.9200 0.9220
13.697000 0.9200 0.9220 0.9230 0.9250 0.9280
13.728056 0.9280 0.9290 0.9290 0.9310 0.9310
13.759000 0.9310 0.9330 0.9330 0.9340 0.9340
13.790056 0.9340 0.9340 0.9330 0.9330 0.9310
13.821000 0.9310 0.9310 0.9310 0.9290 0.9290
13.852056 0.9290 0.9290 0.9280 0.9280 0.9260
13.883000 0.9220 0.9200 0.9170 0.9150 0.9150
13.914056 0.9150 0.9140 0.9140 0.9120 0.9120
13.945000 0.9090 0.9080 0.9030 0.8980 0.8920
13.976056 0.8840 0.8760 0.8640 0.8500 0.8340
14.007000 0.8140 0.7890 0.7750 0.7530 0.7240
14.038056 0.6910 0.6550 0.6190 0.5840 0.5520
14.069000 0.5240 0.5040 0.4710 0.4430 0.4190
14.100056 0.4000 0.3760 0.3620 0.3470 0.3440
14.131000 0.3440 0.3480 0.3560 0.3800 0.4030
14.162056 0.4340 0.4610 0.4890 0.5180 0.5490
14.193000 0.5770 0.6050 0.6270 0.6460 0.6580
14.224056 0.6710 0.6790 0.6880 0.6940 0.7040
14.255000 0.7110 0.7180 0.7240 0.7270 0.7300
14.286056 0.7350 0.7420 0.7500 0.7600 0.7710
14.318000 0.7830 0.7940 0.8030 0.8130 0.8200
14.349056 0.8280 0.8420 0.8550 0.8620 0.8750
14.380000 0.8810 0.8870 0.8940 0.9000 0.9060
14.411056 0.9110 0.9170 0.9200 0.9250 0.9260
14.442000 0.9290 0.9340 0.9390 0.9430 0.9450
14.473056 0.9470 0.9480 0.9480 0.9510 0.9510
14.504000 0.9510 0.9510 0.9500 0.9480 0.9480
14.535056 0.9500 0.9500 0.9500 0.9500 0.9510
14.566000 0.9510 0.9510 0.9510 0.9510 0.9510
14.597056 0.9510 0.9500 0.9500 0.9500 0.9500
14.628000 0.9500 0.9500 0.9510 0.9510 0.9500
14.659056 0.9500 0.9500 0.9480 0.9480 0.9480
14.690000 0.9480 0.9470 0.9480 0.9480 0.9480
14.721056 0.9480 0.9470 0.9470 0.9450 0.9430
14.752000 0.9430 0.9420 0.9390 0.9360 0.9330
14.783056 0.9310 0.9290 0.9280 0.9260 0.9250
14.814000 0.9230 0.9220 0.9200 0.9190 0.9190
14.845056 0.9190 0.9170 0.9170 0.9190 0.9190
14.876000 0.9170 0.9170 0.9140 0.9140 0.9120
14.907056 0.9110 0.9110 0.9110 0.9090 0.9090
14.938000 0.9080 0.9080 0.9030 0.8980 0.8890
14.969056 0.8810 0.8720 0.8690 0.8560 0.8480
15.000000 0.8380 0.8250 0.8140 0.8020 0.7910
15.031056 0.7800 0.7720 0.7630 0.7530 0.7470
15.063000 0.7440 0.7380 0.7360 0.7380 0.7440
15.094056 0.7470 0.7530 0.7580 0.7640 0.7710
15.125000 0.7780 0.7850 0.7940 0.8030 0.8080
15.156056 0.8110 0.8110 0.8110 0.8110 0.8130
15.187000 0.8130 0.8130 0.8130 0.8140 0.8140
15.218056 0.8140 0.8140 0.8140 0.8140 0.8140
15.249000 0.8140 0.8130 0.8130 0.8110 0.8090
15.280056 0.8080 0.8030 0.8020 0.8000 0.7970
15.311000 0.7950 0.7890 0.7880 0.7880 0.7850
15.342056 0.7800 0.7750 0.7740 0.7740 0.7710
15.373000 0.7710 0.7690 0.7670 0.7660 0.7640
15.404056 0.7630 0.7610 0.7600 0.7580 0.7570
15.435000 0.7530 0.7500 0.7490 0.7490 0.7460
15.466056 0.7410 0.7360 0.7330 0.7320 0.7300
15.497000 0.7300 0.7280 0.7270 0.7270 0.7220
15.528056 0.7210 0.7190 0.7180 0.7130 0.7110
15.559000 0.7080 0.7050 0.7040 0.7020 0.7000
15.590056 0.6990 0.6970 0.6900 0.6830 0.6820
15.621000 0.6820 0.6800 0.6800 0.6790 0.6770
15.652056 0.6760 0.6710 0.6660 0.6630 0.6610
15.683000 0.6600 0.6580 0.6540 0.6510 0.6510
15.714056 0.6470 0.6460 0.6440 0.6410 0.6400
15.745000 0.6370 0.6330 0.6300 0.6290 0.6270
15.776056 0.6230 0.6210 0.6180 0.6150 0.6120
15.808000 0.6100 0.6090 0.6070 0.6020 0.6010
15.839056 0.5980 0.5950 0.5900 0.5880 0.5850
15.870000 0.5840 0.5820 0.5820 0.5820 0.5820
15.901056 0.5800 0.5800 0.5790 0.5770 0.5740
15.932000 0.5700 0.5660 0.5620 0.5590 0.5560
15.963056 0.5510 0.5450 0.5400 0.5400 0.5370
##END=
