##TITLE=SODIUM DICHLOROISOCYANURATE
$$ WESTVACO CHEMICALS
##JCAMP-DX=4.24
##DATA TYPE=INFRARED SPECTRUM
##CLASS=COBLENTZ
##ORIGIN=WYANDOTTE CHEMICALS CORP., WYANDOTTE, MICHIGAN, USA
##OWNER=COBLENTZ SOCIETY
Collection (C) 2018 copyright by the U.S. Secretary of Commerce
on behalf of the United States of America. All rights reserved.
##DATE=Not specified, most likely prior to 1970
##MOLFORM=C3 Cl2 N3 O3 Na
##SOURCE REFERENCE=COBLENTZ NO. 2902
##$NIST ID=B6002902
##$NIST SOURCE=COBLENTZ
##$NIST IMAGE=cob2902
##SPECTROMETER/DATA SYSTEM=Not specified, most likely a prism, grating, or hybrid spectrometer.
##STATE=SOLID (MINERAL OIL MULL)
$$ ALCOHOL SOLUBLE
##PATH LENGTH=
$$SPECTRAL CONTAMINATION DUE TO OIL AROUND 2900 CM^-^1
##SAMPLING PROCEDURE=TRANSMISSION
##RESOLUTION=4
##DATA PROCESSING=DIGITIZED BY NIST FROM HARD COPY
##XUNITS=MICROMETERS
##YUNITS=TRANSMITTANCE
##XFACTOR=1.000000
##YFACTOR=1
##DELTAX=000.006632
##FIRSTX=2.02
##LASTX=16.0001
##FIRSTY=0.613
##MAXX=16.0001
##MINX=2.02
##MAXY=0.943
##MINY=0.038
##NPOINTS=2109
##XYDATA=(X++(Y..Y))
2.020000 0.6130 0.6150 0.6170 0.6170 0.6220
2.053175 0.6270 0.6280 0.6280 0.6320 0.6350
2.086000 0.6370 0.6370 0.6400 0.6430 0.6450
2.119175 0.6470 0.6500 0.6520 0.6530 0.6550
2.153000 0.6570 0.6580 0.6600 0.6620 0.6630
2.186175 0.6650 0.6670 0.6670 0.6670 0.6670
2.219000 0.6670 0.6670 0.6680 0.6680 0.6680
2.252175 0.6700 0.6720 0.6730 0.6770 0.6780
2.285000 0.6780 0.6820 0.6850 0.6900 0.6950
2.318175 0.6980 0.7020 0.7050 0.7080 0.7100
2.351000 0.7120 0.7130 0.7180 0.7200 0.7220
2.384175 0.7230 0.7250 0.7280 0.7320 0.7330
2.418000 0.7350 0.7370 0.7380 0.7400 0.7420
2.451175 0.7430 0.7450 0.7450 0.7470 0.7470
2.484000 0.7480 0.7500 0.7530 0.7570 0.7580
2.517175 0.7620 0.7630 0.7670 0.7680 0.7700
2.550000 0.7720 0.7750 0.7800 0.7830 0.7850
2.583175 0.7880 0.7900 0.7920 0.7930 0.7950
2.617000 0.7970 0.7970 0.7980 0.7980 0.8010
2.650175 0.8050 0.8060 0.8080 0.8080 0.8080
2.683000 0.8080 0.8100 0.8100 0.8100 0.8080
2.716175 0.8030 0.8010 0.8000 0.7950 0.7880
2.749000 0.7820 0.7780 0.7720 0.7680 0.7670
2.782175 0.7600 0.7530 0.7450 0.7370 0.7280
2.816000 0.7170 0.7150 0.7100 0.7030 0.6930
2.849175 0.6730 0.6550 0.6430 0.6250 0.6070
2.882000 0.5870 0.5650 0.5470 0.5270 0.5120
2.915175 0.4970 0.4890 0.4820 0.4770 0.4700
2.948000 0.4690 0.4700 0.4770 0.4920 0.5090
2.981175 0.5290 0.5450 0.5620 0.5790 0.5900
3.015000 0.5970 0.5990 0.5990 0.5990 0.5890
3.048175 0.5600 0.5400 0.5150 0.4900 0.4620
3.081000 0.4350 0.4100 0.3860 0.3640 0.3440
3.114175 0.3210 0.3010 0.2810 0.2660 0.2560
3.147000 0.2490 0.2470 0.2470 0.2470 0.2470
3.180175 0.2460 0.2440 0.2410 0.2370 0.2320
3.214000 0.2290 0.2260 0.2220 0.2170 0.2140
3.247175 0.2120 0.2110 0.2070 0.2040 0.2010
3.280000 0.1890 0.1810 0.1730 0.1690 0.1680
3.313175 0.1630 0.1590 0.1540 0.1440 0.1310
3.346000 0.1090 0.0860 0.0640 0.0510 0.0460
3.379175 0.0430 0.0430 0.0390 0.0390 0.0380
3.413000 0.0380 0.0380 0.0390 0.0390 0.0390
3.446175 0.0410 0.0410 0.0410 0.0410 0.0430
3.479000 0.0430 0.0430 0.0430 0.0430 0.0430
3.512175 0.0430 0.0460 0.0530 0.0590 0.0710
3.545000 0.0890 0.1080 0.1280 0.1490 0.1660
3.578175 0.2090 0.2140 0.2190 0.2190 0.1690
3.612000 0.1230 0.0860 0.0840 0.0860 0.0910
3.645175 0.1060 0.1210 0.1290 0.1360 0.1460
3.678000 0.1580 0.1730 0.1860 0.1960 0.2060
3.711175 0.2170 0.2270 0.2360 0.2460 0.2560
3.744000 0.2660 0.2770 0.2920 0.3140 0.3260
3.777175 0.3440 0.3540 0.3640 0.3720 0.3820
3.811000 0.3910 0.3990 0.4070 0.4140 0.4200
3.844175 0.4250 0.4320 0.4390 0.4420 0.4470
3.877000 0.4520 0.4570 0.4600 0.4650 0.4700
3.910175 0.4770 0.4920 0.4990 0.5020 0.5040
3.943000 0.5070 0.5120 0.5200 0.5270 0.5390
3.976175 0.5450 0.5490 0.5520 0.5550 0.5640
4.009000 0.5740 0.5820 0.5850 0.5950 0.5990
4.042175 0.6020 0.6020 0.5990 0.5790 0.5600
4.076000 0.5400 0.5190 0.5100 0.5090 0.5100
4.109175 0.5350 0.5600 0.5770 0.5900 0.5990
4.142000 0.6050 0.6180 0.6250 0.6320 0.6430
4.175175 0.6520 0.6580 0.6580 0.6630 0.6680
4.208000 0.6720 0.6720 0.6730 0.6730 0.6750
4.241175 0.6780 0.6780 0.6780 0.6780 0.6800
4.275000 0.6800 0.6800 0.6820 0.6830 0.6880
4.308175 0.6900 0.6970 0.7000 0.7020 0.7020
4.341000 0.7080 0.7130 0.7180 0.7250 0.7320
4.374175 0.7420 0.7500 0.7550 0.7680 0.7720
4.407000 0.7700 0.7650 0.7620 0.7580 0.7570
4.440175 0.7580 0.7620 0.7650 0.7680 0.7700
4.474000 0.7730 0.7780 0.7820 0.7830 0.7850
4.507175 0.7900 0.7930 0.7980 0.8010 0.8030
4.540000 0.8050 0.8050 0.8060 0.8080 0.8080
4.573175 0.8110 0.8130 0.8150 0.8200 0.8260
4.606000 0.8310 0.8350 0.8360 0.8380 0.8380
4.639175 0.8380 0.8410 0.8450 0.8480 0.8500
4.673000 0.8530 0.8560 0.8580 0.8580 0.8580
4.706175 0.8580 0.8600 0.8610 0.8630 0.8660
4.739000 0.8700 0.8700 0.8680 0.8450 0.8210
4.772175 0.8080 0.7970 0.7950 0.7970 0.8060
4.805000 0.8160 0.8500 0.8660 0.8760 0.8850
4.838175 0.8900 0.8910 0.9000 0.9010 0.9050
4.872000 0.9050 0.9050 0.9010 0.9000 0.8960
4.905175 0.8900 0.8800 0.8710 0.8700 0.8680
4.938000 0.8660 0.8660 0.8660 0.8660 0.8700
4.971175 0.8860 0.9000 0.9100 0.9200 0.9250
5.004000 0.9300 0.9310 0.9310 0.9330 0.9350
5.037175 0.9380 0.9400 0.9400 0.9410 0.9410
5.071000 0.9410 0.9430 0.9430 0.9430 0.9430
5.104175 0.9410 0.9410 0.9400 0.9310 0.9300
5.137000 0.9210 0.9100 0.9010 0.8960 0.8860
5.170175 0.8750 0.8660 0.8600 0.8580 0.8580
5.203000 0.8600 0.8680 0.8850 0.8930 0.8960
5.236175 0.8960 0.8960 0.8930 0.8860 0.8850
5.270000 0.8850 0.8860 0.8860 0.8900 0.8880
5.303175 0.8810 0.8780 0.8700 0.8630 0.8600
5.336000 0.8580 0.8530 0.8480 0.8410 0.8350
5.369175 0.8260 0.8150 0.8000 0.7950 0.7900
5.402000 0.7830 0.7730 0.7620 0.7570 0.7450
5.435175 0.7370 0.7270 0.7170 0.7050 0.6950
5.468000 0.6850 0.6820 0.6800 0.6730 0.6570
5.501175 0.6400 0.6230 0.6080 0.5890 0.5670
5.535000 0.5440 0.5190 0.4950 0.4720 0.4490
5.568175 0.4300 0.4150 0.4040 0.3840 0.3570
5.601000 0.3240 0.2860 0.2660 0.2420 0.2170
5.634175 0.1990 0.1960 0.1940 0.1890 0.1840
5.667000 0.1810 0.1780 0.1680 0.1640 0.1640
5.700175 0.1690 0.1790 0.1810 0.1790 0.1630
5.734000 0.1430 0.1240 0.1090 0.0890 0.0740
5.767175 0.0680 0.0590 0.0540 0.0530 0.0490
5.800000 0.0440 0.0410 0.0410 0.0430 0.0440
5.833175 0.0440 0.0460 0.0460 0.0460 0.0440
5.866000 0.0440 0.0460 0.0490 0.0490 0.0510
5.899175 0.0540 0.0590 0.0610 0.0630 0.0640
5.933000 0.0680 0.0680 0.0730 0.0790 0.0830
5.966175 0.0860 0.0880 0.0890 0.0910 0.0940
5.999000 0.0980 0.1030 0.1060 0.1080 0.1080
6.032175 0.1080 0.1090 0.1090 0.1130 0.1180
6.065000 0.1190 0.1230 0.1310 0.1430 0.1480
6.098175 0.1510 0.1540 0.1630 0.1740 0.1830
6.132000 0.1890 0.1930 0.1980 0.1990 0.2010
6.165175 0.2010 0.1990 0.1890 0.1810 0.1760
6.198000 0.1690 0.1680 0.1680 0.1680 0.1680
6.231175 0.1690 0.1730 0.1730 0.1790 0.1890
6.264000 0.1980 0.2020 0.2090 0.2210 0.2320
6.297175 0.2390 0.2510 0.2590 0.2640 0.2720
6.331000 0.2860 0.3010 0.3120 0.3220 0.3290
6.364175 0.3340 0.3460 0.3520 0.3570 0.3610
6.397000 0.3670 0.3790 0.3910 0.4020 0.4170
6.430175 0.4200 0.4240 0.4290 0.4320 0.4390
6.463000 0.4400 0.4420 0.4470 0.4540 0.4620
6.496175 0.4700 0.4790 0.4940 0.5040 0.5140
6.530000 0.5190 0.5190 0.5170 0.5170 0.5100
6.563175 0.5020 0.4950 0.4850 0.4750 0.4590
6.596000 0.4400 0.4250 0.4100 0.3910 0.3740
6.629175 0.3160 0.2610 0.2120 0.1860 0.1780
6.662000 0.1730 0.1680 0.1480 0.1310 0.1160
6.695175 0.1080 0.1010 0.0990 0.0990 0.0990
6.729000 0.1010 0.1080 0.1080 0.1080 0.1130
6.762175 0.1160 0.1180 0.1190 0.1180 0.1130
6.795000 0.0960 0.0830 0.0780 0.0710 0.0690
6.828175 0.0680 0.0680 0.0680 0.0710 0.0830
6.861000 0.0930 0.1010 0.1080 0.1130 0.1180
6.894175 0.1210 0.1290 0.1490 0.1740 0.1880
6.928000 0.1960 0.2040 0.2110 0.2210 0.2310
6.961175 0.2470 0.2690 0.2860 0.3010 0.3140
6.994000 0.3170 0.3220 0.3270 0.3270 0.3220
7.027175 0.2920 0.2660 0.2410 0.2140 0.1810
7.060000 0.1380 0.0930 0.0710 0.0610 0.0580
7.093175 0.0530 0.0510 0.0490 0.0480 0.0480
7.126000 0.0490 0.0510 0.0510 0.0530 0.0580
7.159175 0.0610 0.0640 0.0740 0.0890 0.0980
7.193000 0.1090 0.1130 0.1130 0.1110 0.1110
7.226175 0.1090 0.1080 0.1060 0.1010 0.0990
7.259000 0.0930 0.0890 0.0880 0.0860 0.0860
7.292175 0.0880 0.0880 0.0910 0.0940 0.0960
7.325000 0.0960 0.0980 0.0990 0.1040 0.1110
7.358175 0.1180 0.1260 0.1340 0.1440 0.1510
7.392000 0.1590 0.1680 0.1780 0.1880 0.1960
7.425175 0.1990 0.2110 0.2220 0.2310 0.2370
7.458000 0.2420 0.2460 0.2510 0.2590 0.2670
7.491175 0.2720 0.2810 0.2890 0.3010 0.3040
7.524000 0.3090 0.3170 0.3220 0.3290 0.3320
7.557175 0.3420 0.3490 0.3510 0.3520 0.3590
7.591000 0.3660 0.3710 0.3770 0.3810 0.3820
7.624175 0.3840 0.3910 0.3990 0.4000 0.4020
7.657000 0.4020 0.4020 0.4050 0.4070 0.4150
7.690175 0.4200 0.4240 0.4290 0.4320 0.4350
7.723000 0.4390 0.4400 0.4440 0.4470 0.4470
7.756175 0.4500 0.4540 0.4600 0.4620 0.4620
7.790000 0.4670 0.4670 0.4690 0.4700 0.4700
7.823175 0.4720 0.4720 0.4740 0.4740 0.4770
7.856000 0.4800 0.4820 0.4850 0.4900 0.4970
7.889175 0.4990 0.5000 0.5000 0.4990 0.4990
7.922000 0.4970 0.4970 0.4950 0.4950 0.4970
7.955175 0.4970 0.4990 0.5000 0.5020 0.5040
7.989000 0.5050 0.5050 0.5090 0.5120 0.5140
8.022175 0.5150 0.5150 0.5170 0.5170 0.5170
8.055000 0.5190 0.5190 0.5200 0.5200 0.5220
8.088175 0.5220 0.5250 0.5270 0.5300 0.5350
8.121000 0.5390 0.5390 0.5400 0.5440 0.5470
8.154175 0.5490 0.5500 0.5500 0.5520 0.5520
8.188000 0.5550 0.5550 0.5590 0.5620 0.5640
8.221175 0.5650 0.5670 0.5690 0.5690 0.5700
8.254000 0.5720 0.5740 0.5750 0.5770 0.5790
8.287175 0.5790 0.5790 0.5790 0.5800 0.5820
8.320000 0.5840 0.5850 0.5870 0.5870 0.5890
8.353175 0.5920 0.5950 0.5970 0.5990 0.5990
8.387000 0.5990 0.6000 0.6000 0.6020 0.6030
8.420175 0.6050 0.6070 0.6080 0.6080 0.6080
8.453000 0.6080 0.6080 0.6100 0.6120 0.6130
8.486175 0.6170 0.6170 0.6170 0.6180 0.6180
8.519000 0.6180 0.6180 0.6180 0.6180 0.6180
8.552175 0.6180 0.6180 0.6200 0.6220 0.6230
8.586000 0.6250 0.6250 0.6280 0.6300 0.6300
8.619175 0.6320 0.6320 0.6350 0.6370 0.6380
8.652000 0.6380 0.6400 0.6420 0.6430 0.6470
8.685175 0.6480 0.6480 0.6500 0.6520 0.6520
8.718000 0.6530 0.6550 0.6580 0.6600 0.6620
8.751175 0.6680 0.6720 0.6730 0.6750 0.6750
8.784000 0.6770 0.6780 0.6800 0.6800 0.6820
8.817175 0.6830 0.6830 0.6850 0.6850 0.6880
8.851000 0.6900 0.6920 0.6920 0.6930 0.6930
8.884175 0.6950 0.6970 0.6970 0.6970 0.6970
8.917000 0.6970 0.6970 0.6980 0.6980 0.6980
8.950175 0.6980 0.6980 0.6980 0.6980 0.6980
8.983000 0.7000 0.7000 0.7020 0.7000 0.7000
9.016175 0.7000 0.7000 0.7000 0.7000 0.7000
9.050000 0.7000 0.7020 0.7020 0.7030 0.7030
9.083175 0.7050 0.7050 0.7050 0.7030 0.7020
9.116000 0.7000 0.6980 0.6980 0.6980 0.6970
9.149175 0.6970 0.6900 0.6830 0.6780 0.6730
9.182000 0.6650 0.6630 0.6650 0.6680 0.6750
9.215175 0.6780 0.6820 0.6820 0.6870 0.6870
9.249000 0.6870 0.6870 0.6800 0.6730 0.6670
9.282175 0.6570 0.6430 0.6300 0.6130 0.5950
9.315000 0.5750 0.5520 0.5290 0.5040 0.4750
9.348175 0.4450 0.4090 0.3740 0.3370 0.3040
9.381000 0.2790 0.2610 0.2510 0.2490 0.2520
9.414175 0.2710 0.2890 0.3070 0.3290 0.3440
9.448000 0.3620 0.3910 0.4050 0.4220 0.4340
9.481175 0.4420 0.4470 0.4490 0.4490 0.4470
9.514000 0.4420 0.4400 0.4390 0.4400 0.4540
9.547175 0.4690 0.4800 0.4950 0.5070 0.5150
9.580000 0.5240 0.5320 0.5390 0.5450 0.5490
9.613175 0.5540 0.5640 0.5700 0.5750 0.5800
9.647000 0.5840 0.5870 0.5870 0.5900 0.5940
9.680175 0.5970 0.5970 0.5990 0.6000 0.6030
9.713000 0.6080 0.6100 0.6120 0.6120 0.6130
9.746175 0.6130 0.6150 0.6150 0.6180 0.6200
9.779000 0.6220 0.6230 0.6230 0.6250 0.6250
9.812175 0.6270 0.6270 0.6300 0.6320 0.6330
9.846000 0.6350 0.6370 0.6380 0.6380 0.6380
9.879175 0.6380 0.6380 0.6400 0.6400 0.6400
9.912000 0.6400 0.6400 0.6400 0.6400 0.6400
9.945175 0.6400 0.6400 0.6380 0.6380 0.6380
9.978000 0.6370 0.6370 0.6350 0.6350 0.6350
10.011175 0.6320 0.6300 0.6280 0.6270 0.6270
10.045000 0.6230 0.6220 0.6200 0.6180 0.6180
10.078175 0.6170 0.6170 0.6170 0.6170 0.6170
10.111000 0.6170 0.6150 0.6150 0.6150 0.6170
10.144175 0.6170 0.6180 0.6180 0.6180 0.6180
10.177000 0.6180 0.6180 0.6200 0.6220 0.6230
10.210175 0.6230 0.6250 0.6270 0.6280 0.6320
10.243000 0.6320 0.6280 0.6280 0.6280 0.6300
10.276175 0.6300 0.6300 0.6300 0.6300 0.6320
10.310000 0.6330 0.6350 0.6370 0.6370 0.6370
10.343175 0.6370 0.6380 0.6400 0.6400 0.6400
10.376000 0.6400 0.6400 0.6400 0.6400 0.6400
10.409175 0.6400 0.6400 0.6400 0.6400 0.6420
10.442000 0.6420 0.6420 0.6420 0.6430 0.6430
10.475175 0.6450 0.6470 0.6470 0.6470 0.6470
10.509000 0.6480 0.6500 0.6500 0.6480 0.6450
10.542175 0.6450 0.6470 0.6470 0.6480 0.6520
10.575000 0.6570 0.6580 0.6600 0.6600 0.6580
10.608175 0.6530 0.6500 0.6480 0.6480 0.6500
10.641000 0.6550 0.6570 0.6580 0.6570 0.6550
10.674175 0.6550 0.6550 0.6520 0.6520 0.6520
10.708000 0.6520 0.6520 0.6500 0.6500 0.6500
10.741175 0.6500 0.6480 0.6480 0.6480 0.6500
10.774000 0.6500 0.6500 0.6520 0.6520 0.6520
10.807175 0.6520 0.6520 0.6520 0.6520 0.6530
10.840000 0.6530 0.6550 0.6570 0.6550 0.6530
10.873175 0.6480 0.6470 0.6470 0.6480 0.6480
10.907000 0.6480 0.6500 0.6500 0.6520 0.6500
10.940175 0.6480 0.6470 0.6470 0.6470 0.6470
10.973000 0.6470 0.6450 0.6450 0.6470 0.6500
11.006175 0.6530 0.6530 0.6520 0.6480 0.6480
11.039000 0.6450 0.6430 0.6420 0.6420 0.6430
11.072175 0.6480 0.6480 0.6480 0.6470 0.6430
11.106000 0.6430 0.6420 0.6420 0.6420 0.6420
11.139175 0.6400 0.6400 0.6400 0.6400 0.6400
11.172000 0.6380 0.6370 0.6370 0.6370 0.6350
11.205175 0.6350 0.6330 0.6330 0.6300 0.6280
11.238000 0.6270 0.6270 0.6250 0.6270 0.6250
11.271175 0.6230 0.6230 0.6220 0.6220 0.6220
11.305000 0.6200 0.6180 0.6180 0.6180 0.6170
11.338175 0.6150 0.6130 0.6130 0.6130 0.6130
11.371000 0.6130 0.6130 0.6120 0.6120 0.6100
11.404175 0.6100 0.6080 0.6030 0.6020 0.6020
11.437000 0.6000 0.6000 0.6000 0.5990 0.5970
11.470175 0.5900 0.5890 0.5870 0.5840 0.5820
11.504000 0.5820 0.5800 0.5770 0.5750 0.5750
11.537175 0.5750 0.5750 0.5740 0.5700 0.5670
11.570000 0.5640 0.5620 0.5600 0.5570 0.5540
11.603175 0.5470 0.5400 0.5400 0.5390 0.5390
11.636000 0.5390 0.5370 0.5350 0.5300 0.5270
11.669175 0.5200 0.5170 0.5140 0.5120 0.5100
11.703000 0.5090 0.5000 0.4990 0.4970 0.4970
11.736175 0.4920 0.4900 0.4870 0.4820 0.4790
11.769000 0.4740 0.4700 0.4690 0.4670 0.4640
11.802175 0.4620 0.4590 0.4570 0.4520 0.4520
11.835000 0.4500 0.4490 0.4440 0.4390 0.4370
11.868175 0.4340 0.4320 0.4300 0.4290 0.4270
11.901000 0.4250 0.4200 0.4170 0.4150 0.4140
11.934175 0.4090 0.4040 0.4020 0.4000 0.3990
11.968000 0.3970 0.3920 0.3910 0.3890 0.3820
12.001175 0.3790 0.3720 0.3670 0.3620 0.3610
12.034000 0.3570 0.3540 0.3510 0.3440 0.3410
12.067175 0.3390 0.3370 0.3310 0.3270 0.3210
12.100000 0.3140 0.3090 0.3020 0.3020 0.3010
12.133175 0.2990 0.2970 0.2940 0.2910 0.2860
12.167000 0.2790 0.2740 0.2720 0.2690 0.2620
12.200175 0.2590 0.2570 0.2540 0.2520 0.2510
12.233000 0.2490 0.2470 0.2440 0.2410 0.2390
12.266175 0.2340 0.2320 0.2290 0.2270 0.2270
12.299000 0.2260 0.2260 0.2220 0.2190 0.2190
12.332175 0.2160 0.2110 0.2090 0.2090 0.2070
12.366000 0.2070 0.2060 0.2040 0.2010 0.1990
12.399175 0.1980 0.1960 0.1940 0.1940 0.1930
12.432000 0.1910 0.1910 0.1910 0.1910 0.1930
12.465175 0.1930 0.1980 0.1990 0.2020 0.2110
12.498000 0.2160 0.2190 0.2220 0.2270 0.2320
12.531175 0.2370 0.2410 0.2510 0.2590 0.2640
12.565000 0.2710 0.2770 0.2840 0.2920 0.2990
12.598175 0.3040 0.3120 0.3190 0.3260 0.3270
12.631000 0.3320 0.3390 0.3410 0.3420 0.3440
12.664175 0.3490 0.3520 0.3540 0.3560 0.3560
12.697000 0.3540 0.3540 0.3520 0.3520 0.3520
12.730175 0.3520 0.3510 0.3470 0.3410 0.3370
12.764000 0.3320 0.3270 0.3220 0.3210 0.3190
12.797175 0.3170 0.3140 0.3070 0.3040 0.3010
12.830000 0.3010 0.3010 0.3010 0.3010 0.3020
12.863175 0.3020 0.3020 0.3060 0.3060 0.3070
12.896000 0.3070 0.3070 0.3070 0.3060 0.3040
12.929175 0.3020 0.3010 0.2960 0.2860 0.2770
12.963000 0.2710 0.2640 0.2490 0.2410 0.2370
12.996175 0.2360 0.2240 0.2190 0.2160 0.2120
13.029000 0.2070 0.2060 0.2070 0.2110 0.2160
13.062175 0.2210 0.2290 0.2340 0.2490 0.2570
13.095000 0.2640 0.2690 0.2790 0.2920 0.3010
13.128175 0.3110 0.3170 0.3270 0.3370 0.3490
13.162000 0.3570 0.3620 0.3690 0.3770 0.3840
13.195175 0.3910 0.3970 0.4000 0.4100 0.4170
13.228000 0.4190 0.4220 0.4270 0.4390 0.4470
13.261175 0.4540 0.4600 0.4700 0.4790 0.4870
13.294000 0.4940 0.5000 0.5070 0.5140 0.5190
13.327175 0.5240 0.5290 0.5350 0.5400 0.5420
13.360000 0.5490 0.5520 0.5590 0.5600 0.5640
13.393175 0.5640 0.5640 0.5640 0.5640 0.5620
13.427000 0.5620 0.5570 0.5550 0.5520 0.5500
13.460175 0.5500 0.5500 0.5500 0.5520 0.5550
13.493000 0.5640 0.5650 0.5700 0.5720 0.5770
13.526175 0.5770 0.5800 0.5840 0.5890 0.5970
13.559000 0.5990 0.6000 0.6020 0.6080 0.6080
13.592175 0.6120 0.6130 0.6180 0.6200 0.6220
13.626000 0.6250 0.6300 0.6320 0.6320 0.6330
13.659175 0.6330 0.6350 0.6350 0.6370 0.6370
13.692000 0.6400 0.6430 0.6430 0.6450 0.6450
13.725175 0.6450 0.6450 0.6450 0.6450 0.6450
13.758000 0.6450 0.6450 0.6450 0.6470 0.6470
13.791175 0.6470 0.6470 0.6470 0.6470 0.6470
13.825000 0.6480 0.6480 0.6480 0.6480 0.6500
13.858175 0.6500 0.6500 0.6500 0.6500 0.6520
13.891000 0.6520 0.6520 0.6520 0.6520 0.6530
13.924175 0.6530 0.6530 0.6530 0.6530 0.6550
13.957000 0.6570 0.6600 0.6630 0.6670 0.6670
13.990175 0.6680 0.6700 0.6730 0.6780 0.6830
14.024000 0.6850 0.6870 0.6880 0.6900 0.6930
14.057175 0.6950 0.6970 0.6980 0.7000 0.7020
14.090000 0.7020 0.7050 0.7080 0.7100 0.7120
14.123175 0.7150 0.7180 0.7200 0.7220 0.7230
14.156000 0.7280 0.7300 0.7320 0.7320 0.7330
14.189175 0.7350 0.7370 0.7370 0.7380 0.7400
14.223000 0.7400 0.7400 0.7400 0.7420 0.7420
14.256175 0.7420 0.7430 0.7480 0.7500 0.7500
14.289000 0.7520 0.7520 0.7530 0.7530 0.7550
14.322175 0.7550 0.7570 0.7580 0.7580 0.7580
14.355000 0.7580 0.7580 0.7580 0.7580 0.7580
14.388175 0.7580 0.7580 0.7580 0.7580 0.7580
14.422000 0.7570 0.7550 0.7530 0.7500 0.7500
14.455175 0.7470 0.7420 0.7370 0.7280 0.7200
14.488000 0.7150 0.7100 0.7030 0.6950 0.6880
14.521175 0.6830 0.6770 0.6700 0.6630 0.6600
14.554000 0.6580 0.6500 0.6480 0.6480 0.6500
14.587175 0.6500 0.6530 0.6570 0.6600 0.6650
14.621000 0.6700 0.6750 0.6770 0.6780 0.6820
14.654175 0.6880 0.6900 0.6970 0.7000 0.7020
14.687000 0.7030 0.7030 0.7030 0.7030 0.7050
14.720175 0.7050 0.7050 0.7050 0.7030 0.7030
14.753000 0.7020 0.7000 0.7000 0.7000 0.7000
14.786175 0.7000 0.7000 0.7000 0.7000 0.7000
14.820000 0.7000 0.7000 0.7000 0.7000 0.7020
14.853175 0.7020 0.7020 0.7000 0.7000 0.7000
14.886000 0.7000 0.7000 0.7020 0.7020 0.7020
14.919175 0.7020 0.7020 0.7020 0.7030 0.7030
14.952000 0.7030 0.7030 0.7020 0.7000 0.6980
14.985175 0.6980 0.6970 0.6970 0.6930 0.6880
15.018000 0.6820 0.6730 0.6670 0.6600 0.6520
15.051175 0.6480 0.6420 0.6350 0.6320 0.6280
15.085000 0.6280 0.6280 0.6300 0.6300 0.6320
15.118175 0.6380 0.6430 0.6500 0.6530 0.6580
15.151000 0.6650 0.6700 0.6730 0.6780 0.6800
15.184175 0.6800 0.6820 0.6820 0.6800 0.6780
15.217000 0.6770 0.6720 0.6680 0.6680 0.6650
15.250175 0.6620 0.6600 0.6600 0.6580 0.6570
15.284000 0.6530 0.6520 0.6500 0.6480 0.6480
15.317175 0.6430 0.6420 0.6400 0.6400 0.6380
15.350000 0.6370 0.6370 0.6350 0.6330 0.6320
15.383175 0.6320 0.6300 0.6300 0.6300 0.6280
15.416000 0.6270 0.6230 0.6220 0.6170 0.6100
15.449175 0.6080 0.6080 0.6050 0.6030 0.6000
15.483000 0.5990 0.5990 0.5970 0.5950 0.5940
15.516175 0.5920 0.5890 0.5890 0.5870 0.5870
15.549000 0.5840 0.5800 0.5800 0.5790 0.5750
15.582175 0.5720 0.5700 0.5690 0.5670 0.5650
15.615000 0.5640 0.5620 0.5600 0.5590 0.5570
15.648175 0.5550 0.5540 0.5500 0.5490 0.5440
15.682000 0.5420 0.5390 0.5350 0.5340 0.5340
15.715175 0.5320 0.5290 0.5250 0.5240 0.5220
15.748000 0.5200 0.5190 0.5170 0.5170 0.5150
15.781175 0.5100 0.5090 0.5090 0.5090 0.5050
15.814000 0.5020 0.5020 0.5000 0.4990 0.4970
15.847175 0.4970 0.4950 0.4940 0.4900 0.4900
15.881000 0.4870 0.4870 0.4870 0.4850 0.4840
15.914175 0.4820 0.4820 0.4820 0.4820 0.4800
15.947000 0.4790 0.4790 0.4790 0.4790 0.4790
15.980175 0.4790 0.4790 0.4770 0.4750
##END=
