##TITLE=CHLOROACETYL FERROCENE
##JCAMP-DX=4.24
##DATA TYPE=INFRARED SPECTRUM
##CLASS=COBLENTZ
##ORIGIN=WYANDOTTE CHEMICALS CORP., WYANDOTTE, MICHIGAN, USA
##OWNER=COBLENTZ SOCIETY
Collection (C) 2018 copyright by the U.S. Secretary of Commerce
on behalf of the United States of America. All rights reserved.
##DATE=Not specified, most likely prior to 1970
##MOLFORM=C12 H11 Cl Fe O
##SOURCE REFERENCE=COBLENTZ NO. 3014
##$NIST ID=B6003014
##$NIST SOURCE=COBLENTZ
##$NIST IMAGE=cob3014
##SPECTROMETER/DATA SYSTEM=Not specified, most likely a prism, grating, or hybrid spectrometer.
##STATE=SOLID (MINERAL OIL MULL)
##PATH LENGTH=
$$SPECTRAL CONTAMINATION DUE TO OIL AROUND 2900 CM^-^1
##SAMPLING PROCEDURE=TRANSMISSION
##RESOLUTION=4
##DATA PROCESSING=DIGITIZED BY NIST FROM HARD COPY
##XUNITS=MICROMETERS
##YUNITS=TRANSMITTANCE
##XFACTOR=1.000000
##YFACTOR=1
##DELTAX=000.006799
##FIRSTX=2.007
##LASTX=15.9868
##FIRSTY=0.402
##MAXX=15.9868
##MINX=2.007
##MAXY=0.873
##MINY=0.066
##NPOINTS=2057
##XYDATA=(X++(Y..Y))
2.007000 0.4020 0.4020 0.4020 0.4020 0.4050
2.041014 0.4070 0.4080 0.4080 0.4100 0.4100
2.075000 0.4120 0.4150 0.4150 0.4170 0.4190
2.109014 0.4190 0.4200 0.4220 0.4220 0.4220
2.143000 0.4240 0.4240 0.4250 0.4270 0.4270
2.177014 0.4270 0.4270 0.4270 0.4290 0.4290
2.211000 0.4290 0.4290 0.4290 0.4290 0.4310
2.245014 0.4310 0.4320 0.4340 0.4360 0.4370
2.279000 0.4390 0.4390 0.4410 0.4410 0.4410
2.313014 0.4420 0.4420 0.4440 0.4460 0.4460
2.347000 0.4480 0.4480 0.4490 0.4490 0.4510
2.381014 0.4540 0.4580 0.4610 0.4660 0.4730
2.415000 0.4750 0.4780 0.4770 0.4750 0.4710
2.449014 0.4710 0.4700 0.4710 0.4710 0.4700
2.483000 0.4700 0.4680 0.4660 0.4630 0.4590
2.517014 0.4590 0.4680 0.4750 0.4830 0.4870
2.551000 0.4900 0.4950 0.4970 0.4990 0.5000
2.585014 0.5000 0.5000 0.5020 0.5020 0.4990
2.619000 0.4990 0.4990 0.5000 0.5000 0.5070
2.653014 0.5120 0.5140 0.5160 0.5170 0.5170
2.687000 0.5190 0.5190 0.5190 0.5210 0.5190
2.721014 0.5170 0.5170 0.5170 0.5170 0.5170
2.755000 0.5190 0.5190 0.5190 0.5210 0.5210
2.789014 0.5220 0.5220 0.5260 0.5260 0.5240
2.823000 0.5240 0.5240 0.5220 0.5220 0.5220
2.857014 0.5210 0.5190 0.5170 0.5170 0.5160
2.891000 0.5160 0.5140 0.5160 0.5170 0.5190
2.925014 0.5210 0.5210 0.5210 0.5210 0.5210
2.959000 0.5190 0.5140 0.5110 0.5090 0.5090
2.993014 0.5070 0.5070 0.5070 0.5040 0.5020
3.027000 0.5040 0.5050 0.5090 0.5120 0.5160
3.061014 0.5170 0.5170 0.5170 0.5160 0.5160
3.095000 0.5160 0.5160 0.5160 0.5170 0.5170
3.129014 0.5170 0.5170 0.5160 0.5140 0.5110
3.163000 0.5040 0.4970 0.4990 0.4990 0.5000
3.197014 0.5020 0.5020 0.4850 0.4730 0.4580
3.231000 0.4420 0.4130 0.4100 0.4120 0.4310
3.265014 0.4480 0.4560 0.4680 0.4700 0.4710
3.299000 0.4700 0.4510 0.4310 0.4020 0.3660
3.333014 0.3330 0.2980 0.2380 0.1890 0.1550
3.367000 0.1320 0.1100 0.0970 0.0930 0.0830
3.401014 0.0730 0.0680 0.0660 0.0680 0.0690
3.435000 0.0740 0.0830 0.0970 0.1120 0.1320
3.469014 0.1600 0.1630 0.1630 0.1630 0.1610
3.503000 0.1510 0.1510 0.1530 0.1920 0.2570
3.537014 0.3390 0.4270 0.4660 0.5050 0.5510
3.571000 0.5970 0.6210 0.6300 0.6350 0.6420
3.605014 0.6500 0.6540 0.6550 0.6660 0.6690
3.639000 0.6720 0.6720 0.6710 0.6710 0.6690
3.673014 0.6690 0.6670 0.6660 0.6660 0.6660
3.707000 0.6670 0.6690 0.6690 0.6690 0.6690
3.741014 0.6690 0.6670 0.6670 0.6670 0.6670
3.775000 0.6690 0.6720 0.6740 0.6780 0.6810
3.809014 0.6840 0.6840 0.6840 0.6840 0.6860
3.843000 0.6860 0.6860 0.6860 0.6880 0.6890
3.877014 0.6910 0.6930 0.6930 0.6980 0.7010
3.911000 0.7010 0.7030 0.7030 0.7060 0.7060
3.945014 0.7080 0.7100 0.7120 0.7120 0.7120
3.979000 0.7120 0.7130 0.7130 0.7130 0.7130
4.013014 0.7120 0.7130 0.7150 0.7170 0.7180
4.047000 0.7180 0.7220 0.7220 0.7200 0.7180
4.081014 0.7170 0.7100 0.7060 0.7060 0.7100
4.115000 0.7120 0.7120 0.7130 0.7130 0.7150
4.149014 0.7170 0.7200 0.7220 0.7240 0.7270
4.183000 0.7320 0.7340 0.7320 0.7290 0.7270
4.217014 0.7270 0.7270 0.7270 0.7270 0.7270
4.251000 0.7270 0.7240 0.7240 0.7220 0.7200
4.285014 0.7180 0.7180 0.7180 0.7200 0.7240
4.319000 0.7250 0.7270 0.7270 0.7270 0.7290
4.353014 0.7290 0.7300 0.7320 0.7370 0.7390
4.387000 0.7420 0.7460 0.7490 0.7540 0.7610
4.421014 0.7630 0.7630 0.7630 0.7630 0.7630
4.455000 0.7630 0.7630 0.7630 0.7610 0.7610
4.489014 0.7610 0.7610 0.7610 0.7610 0.7610
4.523000 0.7610 0.7630 0.7630 0.7630 0.7640
4.557014 0.7640 0.7680 0.7710 0.7730 0.7750
4.591000 0.7760 0.7780 0.7800 0.7800 0.7800
4.625014 0.7810 0.7830 0.7830 0.7810 0.7810
4.659000 0.7800 0.7800 0.7780 0.7800 0.7800
4.693014 0.7830 0.7880 0.7920 0.7920 0.7970
4.727000 0.7970 0.7980 0.8000 0.8020 0.8050
4.761014 0.8120 0.8170 0.8210 0.8210 0.8220
4.795000 0.8220 0.8210 0.8190 0.8170 0.8160
4.829014 0.8120 0.8100 0.8100 0.8120 0.8140
4.863000 0.8170 0.8210 0.8220 0.8220 0.8220
4.897014 0.8220 0.8210 0.8190 0.8190 0.8190
4.931000 0.8190 0.8190 0.8190 0.8210 0.8240
4.965014 0.8270 0.8310 0.8330 0.8330 0.8310
4.999000 0.8310 0.8330 0.8330 0.8330 0.8340
5.033014 0.8360 0.8380 0.8380 0.8380 0.8380
5.067000 0.8380 0.8360 0.8330 0.8330 0.8360
5.101014 0.8360 0.8410 0.8430 0.8440 0.8440
5.135000 0.8440 0.8440 0.8440 0.8440 0.8440
5.169014 0.8440 0.8440 0.8440 0.8430 0.8430
5.203000 0.8430 0.8430 0.8430 0.8430 0.8460
5.237014 0.8460 0.8460 0.8480 0.8500 0.8500
5.271000 0.8510 0.8550 0.8600 0.8620 0.8630
5.305014 0.8650 0.8650 0.8630 0.8620 0.8620
5.339000 0.8620 0.8630 0.8700 0.8700 0.8680
5.373014 0.8670 0.8650 0.8650 0.8650 0.8650
5.407000 0.8650 0.8650 0.8650 0.8670 0.8670
5.441014 0.8670 0.8650 0.8650 0.8650 0.8670
5.475000 0.8730 0.8720 0.8670 0.8600 0.8530
5.509014 0.8530 0.8600 0.8600 0.8600 0.8600
5.542000 0.8580 0.8560 0.8560 0.8560 0.8560
5.576014 0.8560 0.8560 0.8550 0.8550 0.8530
5.610000 0.8510 0.8460 0.8440 0.8410 0.8340
5.644014 0.8290 0.8270 0.8260 0.8260 0.8240
5.678000 0.8210 0.8190 0.8160 0.8160 0.8160
5.712014 0.8140 0.8140 0.8140 0.8140 0.8140
5.746000 0.8140 0.8140 0.8160 0.8160 0.8140
5.780014 0.8140 0.8120 0.8070 0.7970 0.7870
5.814000 0.7760 0.7660 0.7520 0.7350 0.7080
5.848014 0.6690 0.6380 0.6140 0.5960 0.5800
5.882000 0.5680 0.5550 0.5410 0.5240 0.4050
5.916014 0.3470 0.2930 0.2580 0.2160 0.1850
5.950000 0.1530 0.1290 0.1220 0.1270 0.1580
5.984014 0.2160 0.2770 0.3350 0.3900 0.4360
6.018000 0.4730 0.4940 0.5000 0.5050 0.5240
6.052014 0.5460 0.5630 0.5750 0.5870 0.5890
6.086000 0.5960 0.6060 0.6330 0.6620 0.6950
6.120014 0.7030 0.7180 0.7270 0.7340 0.7410
6.154000 0.7490 0.7590 0.7730 0.7800 0.7830
6.188014 0.7830 0.7850 0.7900 0.7920 0.7930
6.222000 0.7980 0.8040 0.8090 0.8140 0.8160
6.256014 0.8190 0.8210 0.8220 0.8220 0.8240
6.290000 0.8240 0.8260 0.8260 0.8270 0.8290
6.324014 0.8290 0.8310 0.8310 0.8330 0.8330
6.358000 0.8310 0.8310 0.8290 0.8310 0.8330
6.392014 0.8360 0.8380 0.8410 0.8410 0.8390
6.426000 0.8390 0.8380 0.8360 0.8330 0.8310
6.460014 0.8290 0.8290 0.8310 0.8360 0.8380
6.494000 0.8390 0.8390 0.8390 0.8410 0.8390
6.528014 0.8380 0.8360 0.8360 0.8390 0.8410
6.562000 0.8440 0.8440 0.8480 0.8480 0.8500
6.596014 0.8500 0.8460 0.8460 0.8460 0.8460
6.630000 0.8440 0.8430 0.8390 0.8330 0.8260
6.664014 0.8240 0.8220 0.8190 0.8160 0.8090
6.698000 0.8000 0.7900 0.7830 0.7780 0.7700
6.732014 0.7560 0.7390 0.7220 0.7010 0.6740
6.766000 0.6420 0.6060 0.5670 0.5260 0.4340
6.800014 0.3850 0.3610 0.3450 0.3270 0.3080
6.834000 0.2940 0.2770 0.2470 0.2180 0.1900
6.868014 0.1820 0.1830 0.2060 0.2380 0.2690
6.902000 0.3080 0.3810 0.4150 0.4490 0.4780
6.936014 0.4920 0.5040 0.5340 0.5650 0.5970
6.970000 0.6280 0.6550 0.6760 0.6880 0.6910
7.004014 0.7010 0.7050 0.7060 0.7050 0.6960
7.038000 0.6830 0.6590 0.6300 0.5870 0.5500
7.072014 0.5050 0.3900 0.3450 0.3180 0.3010
7.106000 0.2990 0.3010 0.3150 0.3500 0.3960
7.140014 0.4310 0.4770 0.4950 0.5120 0.5600
7.174000 0.6010 0.6400 0.6490 0.6490 0.6430
7.208014 0.6180 0.6010 0.5530 0.5140 0.4190
7.242000 0.3780 0.3500 0.3490 0.3520 0.4080
7.276014 0.4530 0.4830 0.5160 0.5460 0.5960
7.310000 0.6200 0.6330 0.6470 0.6540 0.6660
7.344014 0.6760 0.6910 0.7000 0.7000 0.7000
7.378000 0.7000 0.6910 0.6860 0.6720 0.6520
7.412014 0.6520 0.6860 0.6930 0.6930 0.7010
7.446000 0.7050 0.7080 0.7100 0.7150 0.7220
7.480014 0.7340 0.7470 0.7610 0.7680 0.7710
7.514000 0.7800 0.7870 0.7880 0.7870 0.7800
7.548014 0.7730 0.7660 0.7590 0.7440 0.7180
7.582000 0.6960 0.6670 0.6380 0.6090 0.5840
7.616014 0.5600 0.5500 0.5380 0.5360 0.5400
7.650000 0.5570 0.5820 0.6090 0.6420 0.6590
7.684014 0.6890 0.7080 0.7270 0.7440 0.7580
7.718000 0.7640 0.7680 0.7700 0.7730 0.7800
7.752014 0.7850 0.7900 0.7950 0.7980 0.8020
7.786000 0.8050 0.8120 0.8190 0.8220 0.8220
7.820014 0.8260 0.8270 0.8290 0.8310 0.8330
7.854000 0.8330 0.8340 0.8340 0.8360 0.8360
7.888014 0.8340 0.8340 0.8340 0.8330 0.8330
7.922000 0.8290 0.8240 0.8140 0.8000 0.7900
7.956014 0.7800 0.7660 0.7520 0.7410 0.7340
7.990000 0.7150 0.6890 0.6570 0.6110 0.5580
8.024014 0.4370 0.3780 0.3200 0.2670 0.2240
8.058000 0.1900 0.1660 0.1580 0.1610 0.1900
8.092014 0.2280 0.2860 0.3450 0.3950 0.4320
8.126000 0.4680 0.5040 0.5410 0.5680 0.5940
8.160014 0.6140 0.6260 0.6300 0.6350 0.6420
8.194000 0.6500 0.6600 0.6710 0.6790 0.6890
8.228014 0.6980 0.7050 0.7200 0.7270 0.7320
8.262000 0.7370 0.7460 0.7490 0.7520 0.7540
8.296014 0.7560 0.7590 0.7610 0.7630 0.7630
8.330000 0.7660 0.7680 0.7700 0.7760 0.7780
8.364014 0.7800 0.7810 0.7810 0.7810 0.7810
8.398000 0.7830 0.7830 0.7850 0.7850 0.7830
8.432014 0.7830 0.7810 0.7810 0.7810 0.7810
8.466000 0.7810 0.7800 0.7800 0.7760 0.7710
8.500014 0.7630 0.7540 0.7460 0.7270 0.7170
8.534000 0.7080 0.7060 0.7080 0.7130 0.7180
8.568014 0.7270 0.7420 0.7560 0.7660 0.7730
8.602000 0.7780 0.7830 0.7870 0.7880 0.7900
8.636014 0.7930 0.7970 0.7970 0.8000 0.8000
8.670000 0.8000 0.8020 0.8040 0.8090 0.8100
8.704014 0.8140 0.8190 0.8240 0.8260 0.8310
8.738000 0.8330 0.8340 0.8360 0.8390 0.8430
8.772014 0.8480 0.8500 0.8510 0.8530 0.8550
8.806000 0.8560 0.8560 0.8560 0.8560 0.8580
8.840014 0.8580 0.8600 0.8620 0.8600 0.8580
8.874000 0.8550 0.8550 0.8530 0.8530 0.8510
8.908014 0.8510 0.8500 0.8500 0.8500 0.8500
8.942000 0.8500 0.8480 0.8440 0.8410 0.8380
8.976014 0.8340 0.8310 0.8220 0.8100 0.7880
9.010000 0.7580 0.7200 0.6720 0.6140 0.5510
9.044014 0.5450 0.5480 0.5890 0.6370 0.6810
9.078000 0.7180 0.7370 0.7510 0.7590 0.7660
9.112014 0.7750 0.7810 0.7850 0.7880 0.7930
9.146000 0.7950 0.7970 0.7970 0.7950 0.7930
9.180014 0.7900 0.7900 0.7880 0.7830 0.7810
9.214000 0.7800 0.7760 0.7710 0.7680 0.7630
9.248014 0.7520 0.7370 0.7200 0.7030 0.6790
9.282000 0.6540 0.6260 0.5970 0.5630 0.5240
9.316014 0.4340 0.3960 0.3610 0.3370 0.3160
9.350000 0.3130 0.3130 0.3200 0.3470 0.3740
9.384014 0.4030 0.4200 0.4580 0.4820 0.4940
9.418000 0.5050 0.5290 0.5460 0.5600 0.5670
9.452014 0.5700 0.5800 0.5890 0.6030 0.6140
9.486000 0.6230 0.6330 0.6400 0.6490 0.6550
9.520014 0.6640 0.6760 0.6880 0.7010 0.7120
9.554000 0.7180 0.7240 0.7250 0.7290 0.7290
9.588014 0.7290 0.7290 0.7290 0.7250 0.7170
9.622000 0.7050 0.6910 0.6690 0.6420 0.6030
9.656014 0.5580 0.5210 0.4540 0.4320 0.4270
9.690000 0.4310 0.4530 0.4950 0.5210 0.5460
9.724014 0.5870 0.6210 0.6490 0.6710 0.6890
9.758000 0.7010 0.7120 0.7200 0.7290 0.7350
9.792014 0.7420 0.7490 0.7520 0.7540 0.7580
9.826000 0.7590 0.7630 0.7640 0.7660 0.7700
9.860014 0.7730 0.7760 0.7760 0.7780 0.7780
9.894000 0.7760 0.7710 0.7630 0.7470 0.7270
9.928014 0.7010 0.6640 0.6260 0.5970 0.5650
9.962000 0.5360 0.5210 0.5040 0.4830 0.4770
9.996014 0.4770 0.4730 0.4750 0.4880 0.4990
10.030000 0.5070 0.5260 0.5360 0.5500 0.5680
10.064014 0.5860 0.6060 0.6330 0.6550 0.6780
10.098000 0.7000 0.7180 0.7290 0.7370 0.7460
10.132014 0.7510 0.7580 0.7630 0.7680 0.7710
10.166000 0.7750 0.7780 0.7810 0.7810 0.7830
10.200014 0.7880 0.7880 0.7880 0.7880 0.7900
10.234000 0.7900 0.7900 0.7920 0.7920 0.7920
10.268014 0.7920 0.7920 0.7920 0.7920 0.7920
10.302000 0.7920 0.7920 0.7920 0.7930 0.7930
10.336014 0.7950 0.7950 0.7950 0.7950 0.7970
10.370000 0.7970 0.7980 0.7980 0.7980 0.8000
10.404014 0.8020 0.8040 0.8050 0.8070 0.8090
10.438000 0.8090 0.8090 0.8090 0.8090 0.8090
10.472014 0.8070 0.8070 0.8070 0.8090 0.8120
10.506000 0.8140 0.8160 0.8160 0.8140 0.8120
10.540014 0.8100 0.8090 0.8090 0.8090 0.8090
10.574000 0.8090 0.8100 0.8120 0.8120 0.8120
10.608014 0.8120 0.8100 0.8100 0.8100 0.8100
10.642000 0.8100 0.8090 0.8090 0.8070 0.8070
10.676014 0.8050 0.8050 0.8020 0.8000 0.7980
10.710000 0.7970 0.7930 0.7920 0.7920 0.7900
10.744014 0.7900 0.7900 0.7880 0.7880 0.7870
10.778000 0.7810 0.7800 0.7800 0.7800 0.7780
10.812014 0.7760 0.7730 0.7700 0.7640 0.7610
10.846000 0.7580 0.7540 0.7470 0.7410 0.7300
10.880014 0.7200 0.7130 0.7050 0.6960 0.6930
10.914000 0.6930 0.6930 0.6950 0.7000 0.7010
10.948014 0.7120 0.7180 0.7270 0.7300 0.7320
10.982000 0.7390 0.7440 0.7490 0.7560 0.7610
11.016014 0.7640 0.7680 0.7680 0.7710 0.7730
11.050000 0.7760 0.7780 0.7780 0.7800 0.7810
11.084014 0.7810 0.7810 0.7830 0.7810 0.7810
11.118000 0.7800 0.7750 0.7680 0.7540 0.7410
11.152014 0.7200 0.7000 0.6760 0.6500 0.6260
11.186000 0.6090 0.5960 0.5790 0.5620 0.5480
11.220014 0.5410 0.5360 0.5340 0.5360 0.5510
11.254000 0.5720 0.5960 0.6200 0.6380 0.6570
11.288014 0.6780 0.6960 0.7130 0.7270 0.7340
11.322000 0.7410 0.7490 0.7540 0.7590 0.7630
11.356014 0.7680 0.7710 0.7730 0.7780 0.7880
11.390000 0.7920 0.7930 0.7970 0.7970 0.7970
11.424014 0.7970 0.7970 0.7980 0.7980 0.7980
11.458000 0.7980 0.7980 0.7970 0.7950 0.7930
11.492014 0.7900 0.7850 0.7830 0.7800 0.7780
11.526000 0.7780 0.7760 0.7760 0.7760 0.7780
11.560014 0.7780 0.7800 0.7830 0.7850 0.7850
11.594000 0.7870 0.7870 0.7870 0.7850 0.7830
11.628014 0.7780 0.7750 0.7710 0.7640 0.7610
11.662000 0.7590 0.7590 0.7590 0.7610 0.7610
11.696014 0.7630 0.7630 0.7640 0.7660 0.7660
11.730000 0.7680 0.7700 0.7700 0.7700 0.7700
11.764014 0.7700 0.7680 0.7680 0.7680 0.7660
11.798000 0.7660 0.7640 0.7630 0.7610 0.7580
11.832014 0.7560 0.7520 0.7470 0.7370 0.7250
11.866000 0.7170 0.7080 0.7000 0.6830 0.6640
11.900014 0.6490 0.6300 0.6090 0.5940 0.5580
11.934000 0.5310 0.5050 0.4630 0.4490 0.4390
11.968014 0.4360 0.4360 0.4390 0.4540 0.4680
12.002000 0.4850 0.4970 0.5070 0.5310 0.5570
12.036014 0.5790 0.5990 0.6090 0.6090 0.6060
12.070000 0.5940 0.5790 0.5620 0.5410 0.5140
12.104014 0.4730 0.4650 0.4540 0.4440 0.4320
12.138000 0.4190 0.4000 0.3780 0.3490 0.3200
12.172014 0.2960 0.2740 0.2570 0.2450 0.2400
12.206000 0.2410 0.2480 0.2650 0.2890 0.3160
12.240014 0.3490 0.3790 0.4120 0.4390 0.4780
12.274000 0.4920 0.5040 0.5240 0.5400 0.5570
12.308014 0.5750 0.5990 0.6130 0.6230 0.6320
12.342000 0.6370 0.6470 0.6570 0.6640 0.6710
12.376014 0.6720 0.6740 0.6740 0.6760 0.6790
12.410000 0.6810 0.6830 0.6860 0.6880 0.6910
12.444014 0.6930 0.6930 0.6980 0.7000 0.7030
12.478000 0.7050 0.7100 0.7130 0.7170 0.7180
12.512014 0.7200 0.7200 0.7220 0.7240 0.7290
12.546000 0.7350 0.7390 0.7390 0.7410 0.7410
12.580014 0.7420 0.7420 0.7420 0.7420 0.7420
12.614000 0.7420 0.7410 0.7390 0.7390 0.7370
12.648014 0.7340 0.7270 0.7170 0.7060 0.6950
12.682000 0.6830 0.6690 0.6540 0.6400 0.6300
12.716014 0.6130 0.5960 0.5790 0.5650 0.5570
12.750000 0.5430 0.5330 0.5190 0.5020 0.4880
12.784014 0.4880 0.4750 0.4510 0.4440 0.4440
12.818000 0.4440 0.4480 0.4510 0.4560 0.4610
12.852014 0.4730 0.4870 0.4990 0.5040 0.5070
12.886000 0.5210 0.5310 0.5450 0.5630 0.5790
12.920014 0.5970 0.6060 0.6230 0.6320 0.6430
12.954000 0.6540 0.6590 0.6690 0.6830 0.6930
12.988014 0.7010 0.7100 0.7180 0.7290 0.7350
13.022000 0.7410 0.7440 0.7490 0.7520 0.7580
13.056014 0.7630 0.7640 0.7660 0.7680 0.7680
13.090000 0.7700 0.7750 0.7800 0.7850 0.7900
13.124014 0.7980 0.8000 0.8000 0.8000 0.8000
13.158000 0.8000 0.8000 0.8020 0.8050 0.8090
13.192014 0.8120 0.8170 0.8190 0.8220 0.8220
13.226000 0.8240 0.8240 0.8260 0.8270 0.8270
13.260014 0.8290 0.8310 0.8310 0.8330 0.8330
13.294000 0.8330 0.8340 0.8340 0.8360 0.8360
13.328014 0.8360 0.8380 0.8390 0.8390 0.8390
13.362000 0.8390 0.8390 0.8390 0.8390 0.8390
13.396014 0.8390 0.8390 0.8390 0.8390 0.8390
13.430000 0.8390 0.8380 0.8380 0.8380 0.8380
13.464014 0.8380 0.8380 0.8380 0.8380 0.8380
13.498000 0.8380 0.8380 0.8390 0.8390 0.8410
13.532014 0.8390 0.8360 0.8360 0.8360 0.8360
13.566000 0.8360 0.8360 0.8360 0.8360 0.8360
13.600014 0.8340 0.8340 0.8340 0.8330 0.8310
13.634000 0.8290 0.8220 0.8190 0.8170 0.8160
13.668014 0.8140 0.8120 0.8090 0.8070 0.8020
13.702000 0.7970 0.7900 0.7830 0.7730 0.7700
13.736014 0.7640 0.7590 0.7520 0.7490 0.7370
13.770000 0.7240 0.7120 0.7000 0.6840 0.6690
13.804014 0.6490 0.6260 0.6060 0.5870 0.5580
13.838000 0.5310 0.5040 0.4480 0.4150 0.3980
13.872014 0.3790 0.3570 0.3370 0.3230 0.3100
13.906000 0.3060 0.3060 0.3060 0.3060 0.3100
13.940014 0.3160 0.3270 0.3390 0.3520 0.3690
13.974000 0.3880 0.4100 0.4310 0.4540 0.4750
14.008014 0.4970 0.5090 0.5210 0.5330 0.5500
14.042000 0.5650 0.5890 0.6010 0.6130 0.6280
14.076014 0.6400 0.6500 0.6590 0.6690 0.6760
14.110000 0.6830 0.6890 0.6980 0.7050 0.7100
14.144014 0.7170 0.7240 0.7290 0.7290 0.7320
14.178000 0.7350 0.7410 0.7470 0.7520 0.7630
14.212014 0.7750 0.7780 0.7870 0.7880 0.7920
14.246000 0.7920 0.7920 0.7920 0.7920 0.7930
14.280014 0.7950 0.7980 0.8000 0.8050 0.8070
14.314000 0.8090 0.8140 0.8190 0.8210 0.8210
14.348014 0.8210 0.8210 0.8210 0.8210 0.8210
14.382000 0.8220 0.8220 0.8240 0.8240 0.8240
14.416014 0.8260 0.8270 0.8310 0.8330 0.8330
14.450000 0.8340 0.8340 0.8340 0.8340 0.8330
14.484014 0.8330 0.8330 0.8340 0.8340 0.8340
14.518000 0.8360 0.8380 0.8380 0.8380 0.8380
14.552014 0.8380 0.8380 0.8380 0.8360 0.8360
14.586000 0.8340 0.8340 0.8340 0.8330 0.8330
14.620014 0.8330 0.8310 0.8310 0.8310 0.8290
14.654000 0.8290 0.8270 0.8240 0.8220 0.8220
14.688014 0.8220 0.8210 0.8210 0.8210 0.8210
14.722000 0.8220 0.8210 0.8210 0.8170 0.8160
14.756014 0.8140 0.8140 0.8120 0.8120 0.8120
14.790000 0.8120 0.8120 0.8140 0.8140 0.8120
14.824014 0.8100 0.8090 0.8050 0.8050 0.8050
14.858000 0.8050 0.8050 0.8050 0.8040 0.8020
14.892014 0.8020 0.8000 0.7980 0.7980 0.7980
14.926000 0.7980 0.7980 0.7920 0.7900 0.7880
14.960014 0.7880 0.7880 0.7880 0.7880 0.7870
14.994000 0.7870 0.7830 0.7800 0.7750 0.7700
15.028014 0.7610 0.7580 0.7510 0.7440 0.7370
15.062000 0.7290 0.7180 0.7100 0.7030 0.6960
15.096014 0.6830 0.6780 0.6740 0.6720 0.6720
15.130000 0.6720 0.6720 0.6720 0.6760 0.6780
15.164014 0.6790 0.6880 0.6930 0.6980 0.6980
15.198000 0.7000 0.7030 0.7100 0.7150 0.7170
15.232014 0.7170 0.7200 0.7240 0.7250 0.7270
15.266000 0.7290 0.7300 0.7300 0.7300 0.7320
15.300014 0.7340 0.7340 0.7340 0.7340 0.7340
15.334000 0.7320 0.7300 0.7300 0.7300 0.7300
15.368014 0.7290 0.7290 0.7290 0.7300 0.7320
15.402000 0.7300 0.7290 0.7270 0.7240 0.7180
15.436014 0.7130 0.7080 0.7060 0.7050 0.7030
15.470000 0.7010 0.7010 0.7010 0.7000 0.7000
15.504014 0.6910 0.6830 0.6790 0.6760 0.6760
15.538000 0.6740 0.6720 0.6720 0.6720 0.6720
15.572014 0.6710 0.6690 0.6620 0.6540 0.6520
15.606000 0.6490 0.6450 0.6430 0.6420 0.6400
15.640014 0.6400 0.6380 0.6380 0.6380 0.6380
15.674000 0.6370 0.6330 0.6300 0.6300 0.6320
15.708014 0.6320 0.6320 0.6320 0.6320 0.6320
15.742000 0.6320 0.6320 0.6320 0.6320 0.6330
15.776014 0.6330 0.6330 0.6330 0.6330 0.6350
15.810000 0.6350 0.6330 0.6300 0.6280 0.6280
15.844014 0.6260 0.6260 0.6260 0.6260 0.6260
15.878000 0.6280 0.6280 0.6250 0.6250 0.6250
15.912014 0.6230 0.6210 0.6210 0.6210 0.6210
15.946000 0.6200 0.6200 0.6180 0.6160 0.6140
15.980014 0.6110 0.6110
##END=
