##TITLE=SODIUM IODATE
$$ C.P.
##JCAMP-DX=4.24
##DATA TYPE=INFRARED SPECTRUM
##CLASS=COBLENTZ
##ORIGIN=MELLON INSTITUTE
##OWNER=COBLENTZ SOCIETY
Collection (C) 2018 copyright by the U.S. Secretary of Commerce
on behalf of the United States of America. All rights reserved.
##DATE=Not specified, most likely prior to 1970
##MOLFORM=Na I O3
##SOURCE REFERENCE=COBLENTZ NO. 517
##$NIST ID=B6000517
##$NIST SOURCE=COBLENTZ
##$NIST IMAGE=cob517
##SPECTROMETER/DATA SYSTEM=Not specified, most likely a prism, grating, or hybrid spectrometer.
##STATE=SOLID (NUJOL MULL)
##PATH LENGTH=
$$SPECTRAL CONTAMINATION DUE TO OIL AROUND 2900, 1450, 1380 CM^-^1
##SAMPLING PROCEDURE=TRANSMISSION
##RESOLUTION=4
##DATA PROCESSING=DIGITIZED BY NIST FROM HARD COPY
##XUNITS=MICROMETERS
##YUNITS=TRANSMITTANCE
##XFACTOR=1.000000
##YFACTOR=1
##DELTAX=000.006837
##FIRSTX=2.07
##LASTX=16.0238
##FIRSTY=0.71
##MAXX=16.0238
##MINX=2.07
##MAXY=0.953
##MINY=0.186
##NPOINTS=2042
##XYDATA=(X++(Y..Y))
2.070000 0.7100 0.7100 0.7120 0.7120 0.7120
2.104199 0.7120 0.7120 0.7120 0.7120 0.7120
2.139000 0.7120 0.7120 0.7140 0.7140 0.7140
2.173199 0.7140 0.7140 0.7140 0.7140 0.7140
2.207000 0.7140 0.7140 0.7140 0.7140 0.7140
2.241199 0.7140 0.7140 0.7140 0.7140 0.7140
2.275000 0.7140 0.7140 0.7140 0.7150 0.7150
2.309199 0.7150 0.7170 0.7170 0.7170 0.7190
2.344000 0.7190 0.7190 0.7190 0.7200 0.7220
2.378199 0.7220 0.7240 0.7240 0.7240 0.7240
2.412000 0.7240 0.7240 0.7240 0.7240 0.7260
2.446199 0.7270 0.7290 0.7310 0.7310 0.7310
2.480000 0.7310 0.7320 0.7320 0.7320 0.7340
2.514199 0.7340 0.7340 0.7340 0.7360 0.7380
2.549000 0.7380 0.7390 0.7390 0.7410 0.7410
2.583199 0.7430 0.7430 0.7430 0.7430 0.7440
2.617000 0.7460 0.7480 0.7480 0.7480 0.7500
2.651199 0.7500 0.7500 0.7500 0.7500 0.7500
2.686000 0.7510 0.7530 0.7530 0.7530 0.7530
2.720199 0.7530 0.7530 0.7530 0.7530 0.7550
2.754000 0.7550 0.7560 0.7550 0.7550 0.7560
2.788199 0.7550 0.7560 0.7560 0.7580 0.7580
2.822000 0.7580 0.7580 0.7600 0.7600 0.7600
2.856199 0.7600 0.7600 0.7600 0.7600 0.7610
2.891000 0.7610 0.7610 0.7610 0.7610 0.7610
2.925199 0.7610 0.7610 0.7610 0.7610 0.7630
2.959000 0.7630 0.7630 0.7630 0.7650 0.7650
2.993199 0.7650 0.7630 0.7650 0.7650 0.7650
3.027000 0.7650 0.7630 0.7630 0.7630 0.7630
3.061199 0.7630 0.7630 0.7630 0.7630 0.7650
3.096000 0.7650 0.7650 0.7630 0.7630 0.7650
3.130199 0.7650 0.7650 0.7650 0.7650 0.7650
3.164000 0.7650 0.7670 0.7670 0.7670 0.7680
3.198199 0.7670 0.7680 0.7680 0.7680 0.7680
3.232000 0.7700 0.7700 0.7700 0.7700 0.7700
3.266199 0.7680 0.7670 0.7650 0.7610 0.7550
3.301000 0.7500 0.7440 0.7360 0.7080 0.6980
3.335199 0.6860 0.6210 0.5540 0.5100 0.4640
3.369000 0.4210 0.3760 0.3690 0.3680 0.3680
3.403199 0.3710 0.4120 0.4260 0.4400 0.4500
3.438000 0.4500 0.4480 0.4380 0.4360 0.4380
3.472199 0.4430 0.4670 0.4760 0.4910 0.5220
3.506000 0.5510 0.5750 0.6570 0.6840 0.7150
3.540199 0.7270 0.7380 0.7500 0.7600 0.7700
3.574000 0.7800 0.7890 0.7960 0.7990 0.8060
3.608199 0.8090 0.8130 0.8150 0.8180 0.8210
3.643000 0.8230 0.8230 0.8250 0.8250 0.8270
3.677199 0.8280 0.8300 0.8320 0.8320 0.8330
3.711000 0.8330 0.8320 0.8320 0.8320 0.8320
3.745199 0.8330 0.8330 0.8350 0.8330 0.8330
3.779000 0.8330 0.8330 0.8330 0.8330 0.8350
3.813199 0.8350 0.8350 0.8350 0.8350 0.8370
3.848000 0.8390 0.8400 0.8400 0.8400 0.8420
3.882199 0.8420 0.8420 0.8420 0.8440 0.8440
3.916000 0.8440 0.8450 0.8450 0.8450 0.8490
3.950199 0.8490 0.8490 0.8490 0.8490 0.8490
3.984000 0.8490 0.8490 0.8490 0.8510 0.8510
4.018199 0.8510 0.8510 0.8510 0.8520 0.8520
4.053000 0.8520 0.8520 0.8520 0.8520 0.8520
4.087199 0.8540 0.8540 0.8560 0.8540 0.8570
4.121000 0.8570 0.8590 0.8570 0.8590 0.8570
4.155199 0.8570 0.8590 0.8570 0.8570 0.8590
4.190000 0.8590 0.8590 0.8590 0.8590 0.8590
4.224199 0.8590 0.8590 0.8590 0.8590 0.8590
4.258000 0.8590 0.8570 0.8570 0.8570 0.8570
4.292199 0.8570 0.8570 0.8570 0.8570 0.8570
4.326000 0.8570 0.8570 0.8560 0.8560 0.8560
4.360199 0.8560 0.8560 0.8560 0.8570 0.8570
4.395000 0.8570 0.8570 0.8560 0.8560 0.8560
4.429199 0.8560 0.8560 0.8560 0.8560 0.8560
4.463000 0.8560 0.8560 0.8560 0.8560 0.8560
4.497199 0.8540 0.8540 0.8540 0.8540 0.8540
4.531000 0.8540 0.8540 0.8520 0.8520 0.8520
4.565199 0.8520 0.8510 0.8510 0.8520 0.8510
4.600000 0.8510 0.8490 0.8510 0.8510 0.8520
4.634199 0.8520 0.8510 0.8510 0.8510 0.8510
4.668000 0.8510 0.8510 0.8510 0.8510 0.8510
4.702199 0.8510 0.8510 0.8510 0.8510 0.8510
4.736000 0.8520 0.8520 0.8520 0.8520 0.8520
4.770199 0.8520 0.8520 0.8520 0.8520 0.8520
4.805000 0.8520 0.8510 0.8510 0.8520 0.8520
4.839199 0.8520 0.8520 0.8520 0.8520 0.8540
4.873000 0.8540 0.8540 0.8540 0.8540 0.8540
4.907199 0.8560 0.8560 0.8560 0.8540 0.8560
4.942000 0.8560 0.8560 0.8570 0.8570 0.8590
4.976199 0.8610 0.8590 0.8590 0.8590 0.8610
5.010000 0.8610 0.8610 0.8610 0.8630 0.8630
5.044199 0.8640 0.8630 0.8630 0.8630 0.8640
5.078000 0.8640 0.8640 0.8660 0.8660 0.8680
5.112199 0.8690 0.8690 0.8690 0.8710 0.8710
5.147000 0.8730 0.8730 0.8730 0.8730 0.8730
5.181199 0.8730 0.8750 0.8730 0.8750 0.8750
5.215000 0.8760 0.8760 0.8750 0.8760 0.8780
5.249199 0.8780 0.8800 0.8800 0.8800 0.8800
5.283000 0.8810 0.8810 0.8810 0.8810 0.8810
5.317199 0.8810 0.8830 0.8830 0.8810 0.8810
5.352000 0.8830 0.8830 0.8830 0.8830 0.8830
5.386199 0.8830 0.8810 0.8810 0.8850 0.8830
5.420000 0.8830 0.8830 0.8830 0.8830 0.8830
5.454199 0.8830 0.8830 0.8830 0.8830 0.8850
5.489000 0.8850 0.8860 0.8880 0.8880 0.8880
5.523199 0.8900 0.8900 0.8900 0.8900 0.8900
5.557000 0.8930 0.8930 0.8930 0.8950 0.8950
5.591199 0.8970 0.8980 0.8980 0.8980 0.8980
5.625000 0.8980 0.8980 0.9000 0.9000 0.9000
5.659199 0.9000 0.9020 0.9020 0.9020 0.9020
5.694000 0.9020 0.9040 0.9040 0.9040 0.9040
5.728199 0.9050 0.9050 0.9050 0.9050 0.9070
5.762000 0.9070 0.9090 0.9090 0.9090 0.9090
5.796199 0.9090 0.9100 0.9100 0.9120 0.9120
5.830000 0.9140 0.9140 0.9160 0.9160 0.9160
5.864199 0.9170 0.9170 0.9170 0.9170 0.9170
5.899000 0.9170 0.9190 0.9190 0.9190 0.9210
5.933199 0.9210 0.9210 0.9210 0.9220 0.9220
5.967000 0.9220 0.9220 0.9210 0.9210 0.9210
6.001199 0.9210 0.9210 0.9210 0.9210 0.9210
6.035000 0.9220 0.9220 0.9220 0.9220 0.9210
6.069199 0.9210 0.9220 0.9220 0.9220 0.9210
6.104000 0.9210 0.9220 0.9220 0.9220 0.9220
6.138199 0.9220 0.9220 0.9220 0.9240 0.9240
6.172000 0.9240 0.9220 0.9220 0.9220 0.9220
6.206199 0.9220 0.9240 0.9240 0.9240 0.9220
6.241000 0.9220 0.9210 0.9210 0.9220 0.9220
6.275199 0.9210 0.9210 0.9210 0.9210 0.9210
6.309000 0.9210 0.9210 0.9210 0.9210 0.9210
6.343199 0.9210 0.9210 0.9210 0.9210 0.9190
6.377000 0.9190 0.9210 0.9190 0.9190 0.9170
6.411199 0.9210 0.9210 0.9220 0.9210 0.9210
6.446000 0.9210 0.9210 0.9210 0.9210 0.9210
6.480199 0.9210 0.9210 0.9210 0.9190 0.9190
6.514000 0.9190 0.9190 0.9190 0.9190 0.9170
6.548199 0.9170 0.9190 0.9170 0.9170 0.9170
6.582000 0.9170 0.9170 0.9170 0.9170 0.9170
6.616199 0.9170 0.9170 0.9160 0.9160 0.9160
6.651000 0.9140 0.9160 0.9140 0.9140 0.9140
6.685199 0.9140 0.9140 0.9140 0.9120 0.9120
6.719000 0.9090 0.9020 0.9000 0.8970 0.8860
6.753199 0.8690 0.8510 0.8330 0.8180 0.8080
6.787000 0.8040 0.7990 0.7840 0.7770 0.7610
6.821199 0.7550 0.7530 0.7530 0.7530 0.7530
6.856000 0.7550 0.7550 0.7580 0.7670 0.7680
6.890199 0.7720 0.7840 0.7990 0.8110 0.8160
6.924000 0.8250 0.8350 0.8440 0.8520 0.8610
6.958199 0.8680 0.8750 0.8780 0.8850 0.8860
6.993000 0.8900 0.8900 0.8930 0.8970 0.8980
7.027199 0.9020 0.9040 0.9040 0.9050 0.9100
7.061000 0.9120 0.9140 0.9160 0.9170 0.9170
7.095199 0.9190 0.9190 0.9210 0.9210 0.9220
7.129000 0.9220 0.9220 0.9220 0.9170 0.9100
7.163199 0.9000 0.8950 0.8900 0.8800 0.8680
7.198000 0.8570 0.8450 0.8420 0.8420 0.8420
7.232199 0.8450 0.8490 0.8540 0.8610 0.8660
7.266000 0.8710 0.8750 0.8780 0.8780 0.8860
7.300199 0.8880 0.8900 0.8970 0.8980 0.9020
7.334000 0.9040 0.9040 0.9050 0.9070 0.9090
7.368199 0.9100 0.9100 0.9100 0.9100 0.9100
7.403000 0.9100 0.9100 0.9100 0.9100 0.9120
7.437199 0.9120 0.9120 0.9140 0.9140 0.9170
7.471000 0.9170 0.9190 0.9210 0.9210 0.9210
7.505199 0.9220 0.9220 0.9240 0.9220 0.9220
7.539000 0.9210 0.9210 0.9210 0.9190 0.9220
7.573199 0.9210 0.9210 0.9210 0.9190 0.9210
7.608000 0.9210 0.9210 0.9210 0.9210 0.9220
7.642199 0.9220 0.9240 0.9240 0.9260 0.9260
7.676000 0.9280 0.9280 0.9290 0.9290 0.9290
7.710199 0.9310 0.9290 0.9290 0.9290 0.9290
7.745000 0.9290 0.9310 0.9310 0.9310 0.9290
7.779199 0.9290 0.9290 0.9290 0.9290 0.9310
7.813000 0.9310 0.9310 0.9290 0.9290 0.9280
7.847199 0.9290 0.9290 0.9290 0.9290 0.9290
7.881000 0.9290 0.9290 0.9290 0.9290 0.9290
7.915199 0.9290 0.9290 0.9290 0.9290 0.9290
7.950000 0.9290 0.9290 0.9290 0.9290 0.9290
7.984199 0.9290 0.9290 0.9290 0.9290 0.9290
8.018000 0.9280 0.9280 0.9280 0.9280 0.9280
8.052199 0.9280 0.9290 0.9290 0.9290 0.9290
8.086000 0.9280 0.9290 0.9290 0.9290 0.9280
8.120199 0.9280 0.9280 0.9290 0.9290 0.9310
8.155000 0.9290 0.9290 0.9310 0.9310 0.9290
8.189199 0.9290 0.9290 0.9290 0.9290 0.9290
8.223000 0.9290 0.9310 0.9310 0.9310 0.9310
8.257199 0.9310 0.9310 0.9310 0.9310 0.9290
8.291000 0.9290 0.9310 0.9310 0.9310 0.9290
8.325199 0.9290 0.9290 0.9310 0.9310 0.9310
8.360000 0.9290 0.9290 0.9290 0.9290 0.9290
8.394199 0.9290 0.9290 0.9290 0.9310 0.9310
8.428000 0.9310 0.9290 0.9290 0.9290 0.9290
8.462199 0.9290 0.9290 0.9290 0.9290 0.9290
8.497000 0.9290 0.9290 0.9290 0.9290 0.9290
8.531199 0.9290 0.9290 0.9280 0.9280 0.9310
8.565000 0.9290 0.9290 0.9290 0.9290 0.9290
8.599199 0.9290 0.9290 0.9290 0.9290 0.9310
8.633000 0.9290 0.9290 0.9280 0.9280 0.9280
8.667199 0.9280 0.9280 0.9280 0.9280 0.9280
8.702000 0.9280 0.9280 0.9280 0.9290 0.9290
8.736199 0.9290 0.9310 0.9310 0.9290 0.9290
8.770000 0.9290 0.9290 0.9290 0.9290 0.9290
8.804199 0.9290 0.9290 0.9290 0.9290 0.9290
8.838000 0.9290 0.9290 0.9290 0.9290 0.9290
8.872199 0.9290 0.9290 0.9290 0.9290 0.9290
8.907000 0.9290 0.9290 0.9290 0.9290 0.9290
8.941199 0.9290 0.9290 0.9290 0.9280 0.9280
8.975000 0.9280 0.9280 0.9280 0.9280 0.9280
9.009199 0.9280 0.9280 0.9280 0.9280 0.9280
9.044000 0.9280 0.9290 0.9290 0.9280 0.9280
9.078199 0.9290 0.9290 0.9290 0.9290 0.9290
9.112000 0.9280 0.9290 0.9290 0.9290 0.9290
9.146199 0.9290 0.9310 0.9330 0.9330 0.9330
9.180000 0.9330 0.9330 0.9330 0.9330 0.9330
9.214199 0.9330 0.9340 0.9330 0.9330 0.9330
9.249000 0.9330 0.9330 0.9330 0.9310 0.9330
9.283199 0.9330 0.9330 0.9330 0.9340 0.9360
9.317000 0.9380 0.9380 0.9380 0.9380 0.9380
9.351199 0.9380 0.9380 0.9380 0.9380 0.9380
9.385000 0.9380 0.9380 0.9400 0.9400 0.9400
9.419199 0.9410 0.9400 0.9400 0.9400 0.9410
9.454000 0.9410 0.9410 0.9410 0.9400 0.9400
9.488199 0.9410 0.9410 0.9410 0.9430 0.9430
9.522000 0.9450 0.9450 0.9450 0.9450 0.9450
9.556199 0.9450 0.9450 0.9450 0.9450 0.9450
9.590000 0.9450 0.9450 0.9450 0.9450 0.9450
9.624199 0.9450 0.9450 0.9450 0.9450 0.9450
9.659000 0.9450 0.9450 0.9450 0.9450 0.9450
9.693199 0.9450 0.9450 0.9450 0.9450 0.9460
9.727000 0.9460 0.9460 0.9460 0.9460 0.9480
9.761199 0.9480 0.9480 0.9480 0.9480 0.9480
9.796000 0.9500 0.9500 0.9500 0.9500 0.9500
9.830199 0.9500 0.9520 0.9480 0.9480 0.9500
9.864000 0.9500 0.9480 0.9500 0.9520 0.9520
9.898199 0.9520 0.9520 0.9520 0.9520 0.9520
9.932000 0.9520 0.9530 0.9530 0.9530 0.9530
9.966199 0.9530 0.9530 0.9530 0.9530 0.9530
10.001000 0.9530 0.9530 0.9530 0.9530 0.9530
10.035199 0.9530 0.9530 0.9530 0.9530 0.9530
10.069000 0.9530 0.9530 0.9530 0.9530 0.9530
10.103199 0.9530 0.9520 0.9520 0.9520 0.9520
10.137000 0.9520 0.9520 0.9520 0.9530 0.9520
10.171199 0.9520 0.9500 0.9500 0.9500 0.9500
10.206000 0.9500 0.9500 0.9520 0.9520 0.9520
10.240199 0.9520 0.9520 0.9520 0.9520 0.9520
10.274000 0.9500 0.9500 0.9500 0.9500 0.9500
10.308199 0.9500 0.9480 0.9480 0.9500 0.9500
10.342000 0.9500 0.9500 0.9500 0.9500 0.9500
10.376199 0.9480 0.9480 0.9480 0.9460 0.9460
10.411000 0.9480 0.9480 0.9460 0.9460 0.9460
10.445199 0.9450 0.9430 0.9450 0.9450 0.9450
10.479000 0.9450 0.9460 0.9460 0.9460 0.9460
10.513199 0.9460 0.9450 0.9450 0.9450 0.9450
10.548000 0.9450 0.9450 0.9450 0.9450 0.9460
10.582199 0.9450 0.9460 0.9450 0.9450 0.9450
10.616000 0.9430 0.9430 0.9430 0.9430 0.9430
10.650199 0.9430 0.9430 0.9430 0.9430 0.9430
10.684000 0.9430 0.9430 0.9430 0.9430 0.9430
10.718199 0.9430 0.9430 0.9430 0.9430 0.9430
10.753000 0.9410 0.9410 0.9400 0.9400 0.9400
10.787199 0.9400 0.9380 0.9400 0.9400 0.9400
10.821000 0.9400 0.9400 0.9400 0.9400 0.9400
10.855199 0.9400 0.9400 0.9400 0.9410 0.9410
10.889000 0.9410 0.9410 0.9410 0.9410 0.9410
10.923199 0.9430 0.9430 0.9430 0.9430 0.9430
10.958000 0.9450 0.9450 0.9450 0.9450 0.9460
10.992199 0.9450 0.9450 0.9460 0.9450 0.9450
11.026000 0.9430 0.9430 0.9450 0.9450 0.9430
11.060199 0.9430 0.9430 0.9430 0.9430 0.9430
11.094000 0.9430 0.9430 0.9430 0.9430 0.9430
11.128199 0.9430 0.9430 0.9430 0.9430 0.9430
11.163000 0.9430 0.9430 0.9430 0.9430 0.9430
11.197199 0.9430 0.9430 0.9430 0.9430 0.9430
11.231000 0.9430 0.9430 0.9430 0.9430 0.9430
11.265199 0.9430 0.9430 0.9430 0.9430 0.9430
11.300000 0.9430 0.9430 0.9430 0.9430 0.9430
11.334199 0.9430 0.9430 0.9430 0.9430 0.9430
11.368000 0.9430 0.9430 0.9430 0.9430 0.9430
11.402199 0.9430 0.9430 0.9430 0.9430 0.9430
11.436000 0.9430 0.9430 0.9430 0.9430 0.9410
11.470199 0.9410 0.9430 0.9430 0.9430 0.9430
11.505000 0.9430 0.9430 0.9410 0.9410 0.9430
11.539199 0.9430 0.9430 0.9430 0.9430 0.9430
11.573000 0.9450 0.9450 0.9450 0.9460 0.9480
11.607199 0.9480 0.9460 0.9480 0.9480 0.9450
11.641000 0.9450 0.9450 0.9450 0.9450 0.9430
11.675199 0.9430 0.9430 0.9430 0.9410 0.9410
11.710000 0.9410 0.9410 0.9400 0.9380 0.9360
11.744199 0.9360 0.9340 0.9360 0.9340 0.9340
11.778000 0.9330 0.9330 0.9330 0.9330 0.9330
11.812199 0.9330 0.9340 0.9330 0.9330 0.9330
11.846000 0.9330 0.9310 0.9310 0.9310 0.9310
11.880199 0.9310 0.9310 0.9310 0.9310 0.9310
11.915000 0.9310 0.9310 0.9310 0.9310 0.9290
11.949199 0.9290 0.9290 0.9290 0.9290 0.9280
11.983000 0.9280 0.9280 0.9280 0.9280 0.9280
12.017199 0.9260 0.9260 0.9240 0.9240 0.9240
12.052000 0.9220 0.9210 0.9190 0.9170 0.9140
12.086199 0.9100 0.9090 0.9020 0.9000 0.9000
12.120000 0.8980 0.8950 0.8900 0.8850 0.8800
12.154199 0.8780 0.8710 0.8640 0.8640 0.8520
12.188000 0.8450 0.8390 0.8350 0.8270 0.8200
12.222199 0.8080 0.8030 0.7970 0.7960 0.7790
12.257000 0.7650 0.7460 0.7270 0.7030 0.6950
12.291199 0.6860 0.6620 0.6540 0.6380 0.6230
12.325000 0.6110 0.6040 0.5970 0.5820 0.5590
12.359199 0.5340 0.5100 0.5000 0.4880 0.4690
12.393000 0.4640 0.4600 0.4580 0.4500 0.4360
12.427199 0.4280 0.4210 0.4160 0.4050 0.4020
12.462000 0.3980 0.3970 0.3930 0.3920 0.3920
12.496199 0.3920 0.3920 0.3920 0.3930 0.3950
12.530000 0.3970 0.3980 0.4090 0.4140 0.4170
12.564199 0.4220 0.4280 0.4330 0.4400 0.4400
12.599000 0.4410 0.4410 0.4410 0.4410 0.4410
12.633199 0.4400 0.4280 0.4170 0.4070 0.4020
12.667000 0.3950 0.3850 0.3710 0.3590 0.3450
12.701199 0.3390 0.3330 0.3210 0.3110 0.3030
12.735000 0.2970 0.2920 0.2840 0.2770 0.2650
12.769199 0.2500 0.2360 0.2310 0.2200 0.2120
12.804000 0.2070 0.2020 0.2000 0.2020 0.2000
12.838199 0.2000 0.2000 0.2000 0.2000 0.2020
12.872000 0.2000 0.2000 0.2000 0.2000 0.2000
12.906199 0.2020 0.2020 0.2020 0.2020 0.2000
12.940000 0.2000 0.2000 0.2000 0.2000 0.2000
12.974199 0.1980 0.1960 0.1930 0.1910 0.1910
13.009000 0.1900 0.1900 0.1880 0.1860 0.1860
13.043199 0.1860 0.1860 0.1880 0.1880 0.1880
13.077000 0.1900 0.1910 0.1950 0.1960 0.1960
13.111199 0.1980 0.2020 0.2080 0.2120 0.2150
13.145000 0.2190 0.2260 0.2270 0.2360 0.2390
13.179199 0.2460 0.2550 0.2560 0.2580 0.2610
13.214000 0.2720 0.2790 0.2890 0.3150 0.3230
13.248199 0.3300 0.3400 0.3470 0.3540 0.3630
13.282000 0.3760 0.3900 0.3950 0.4220 0.4330
13.316199 0.4480 0.4550 0.4670 0.4860 0.4960
13.351000 0.5150 0.5220 0.5290 0.5370 0.5440
13.385199 0.5540 0.5630 0.5730 0.5820 0.5900
13.419000 0.5990 0.6180 0.6210 0.6280 0.6380
13.453199 0.6450 0.6500 0.6540 0.6600 0.6640
13.487000 0.6670 0.6690 0.6720 0.6740 0.6780
13.521199 0.6810 0.6840 0.6860 0.6900 0.6950
13.556000 0.6960 0.6980 0.7030 0.7070 0.7070
13.590199 0.7080 0.7100 0.7120 0.7150 0.7170
13.624000 0.7190 0.7200 0.7200 0.7220 0.7220
13.658199 0.7240 0.7260 0.7260 0.7270 0.7270
13.692000 0.7270 0.7260 0.7260 0.7260 0.7260
13.726199 0.7260 0.7270 0.7270 0.7290 0.7270
13.761000 0.7270 0.7270 0.7270 0.7270 0.7290
13.795199 0.7290 0.7290 0.7310 0.7310 0.7310
13.829000 0.7310 0.7310 0.7310 0.7310 0.7320
13.863199 0.7320 0.7320 0.7320 0.7340 0.7340
13.897000 0.7340 0.7320 0.7320 0.7320 0.7320
13.931199 0.7320 0.7320 0.7340 0.7340 0.7340
13.966000 0.7340 0.7340 0.7340 0.7340 0.7340
14.000199 0.7340 0.7340 0.7360 0.7340 0.7340
14.034000 0.7360 0.7340 0.7340 0.7320 0.7310
14.068199 0.7310 0.7310 0.7310 0.7290 0.7290
14.103000 0.7290 0.7270 0.7270 0.7260 0.7240
14.137199 0.7240 0.7220 0.7220 0.7200 0.7190
14.171000 0.7190 0.7190 0.7170 0.7140 0.7120
14.205199 0.7100 0.7080 0.7070 0.7070 0.7030
14.239000 0.7020 0.7000 0.7020 0.7020 0.7000
14.273199 0.7000 0.7000 0.7000 0.7000 0.7000
14.308000 0.6980 0.6980 0.6980 0.6960 0.6950
14.342199 0.6930 0.6910 0.6910 0.6910 0.6900
14.376000 0.6880 0.6880 0.6880 0.6860 0.6860
14.410199 0.6840 0.6840 0.6830 0.6810 0.6810
14.444000 0.6790 0.6790 0.6790 0.6780 0.6760
14.478199 0.6740 0.6740 0.6740 0.6720 0.6720
14.513000 0.6710 0.6710 0.6710 0.6710 0.6710
14.547199 0.6690 0.6690 0.6670 0.6660 0.6660
14.581000 0.6640 0.6620 0.6600 0.6600 0.6590
14.615199 0.6590 0.6570 0.6570 0.6570 0.6550
14.649000 0.6540 0.6520 0.6520 0.6500 0.6500
14.683199 0.6500 0.6500 0.6480 0.6470 0.6470
14.718000 0.6470 0.6450 0.6450 0.6430 0.6430
14.752199 0.6420 0.6430 0.6420 0.6420 0.6430
14.786000 0.6420 0.6420 0.6400 0.6400 0.6380
14.820199 0.6380 0.6380 0.6360 0.6360 0.6350
14.855000 0.6350 0.6330 0.6330 0.6310 0.6300
14.889199 0.6300 0.6300 0.6300 0.6300 0.6280
14.923000 0.6280 0.6280 0.6280 0.6280 0.6260
14.957199 0.6260 0.6250 0.6250 0.6250 0.6230
14.991000 0.6210 0.6210 0.6210 0.6210 0.6210
15.025199 0.6210 0.6210 0.6190 0.6190 0.6190
15.060000 0.6180 0.6180 0.6160 0.6160 0.6140
15.094199 0.6140 0.6140 0.6140 0.6140 0.6130
15.128000 0.6130 0.6130 0.6130 0.6130 0.6130
15.162199 0.6130 0.6130 0.6110 0.6130 0.6130
15.196000 0.6110 0.6110 0.6110 0.6110 0.6110
15.230199 0.6110 0.6110 0.6110 0.6110 0.6110
15.265000 0.6110 0.6110 0.6090 0.6110 0.6110
15.299199 0.6110 0.6110 0.6110 0.6110 0.6110
15.333000 0.6090 0.6090 0.6090 0.6110 0.6110
15.367199 0.6110 0.6110 0.6110 0.6090 0.6090
15.401000 0.6090 0.6110 0.6110 0.6110 0.6110
15.435199 0.6110 0.6110 0.6110 0.6110 0.6130
15.470000 0.6130 0.6140 0.6130 0.6130 0.6130
15.504199 0.6130 0.6140 0.6140 0.6140 0.6140
15.538000 0.6140 0.6140 0.6140 0.6140 0.6140
15.572199 0.6140 0.6140 0.6160 0.6180 0.6180
15.607000 0.6180 0.6180 0.6180 0.6180 0.6180
15.641199 0.6190 0.6190 0.6190 0.6190 0.6210
15.675000 0.6210 0.6250 0.6250 0.6260 0.6260
15.709199 0.6280 0.6280 0.6280 0.6300 0.6300
15.743000 0.6300 0.6300 0.6300 0.6300 0.6310
15.777199 0.6330 0.6330 0.6350 0.6330 0.6350
15.812000 0.6350 0.6360 0.6360 0.6380 0.6380
15.846199 0.6380 0.6400 0.6400 0.6400 0.6420
15.880000 0.6430 0.6450 0.6450 0.6470 0.6470
15.914199 0.6470 0.6470 0.6480 0.6480 0.6480
15.948000 0.6520 0.6520 0.6540 0.6520 0.6520
15.982199 0.6540 0.6480 0.6520 0.6520 0.6540
16.017000 0.6520 0.6520
##END=
