##TITLE=SODIUM DIPHENYLAMINE-P-SULFONATE
$$ E.K. (W.L.)
##JCAMP-DX=4.24
##DATA TYPE=INFRARED SPECTRUM
##CLASS=COBLENTZ
##ORIGIN=WYANDOTTE CHEMICALS CORP., WYANDOTTE, MICHIGAN, USA
##OWNER=COBLENTZ SOCIETY
Collection (C) 2018 copyright by the U.S. Secretary of Commerce
on behalf of the United States of America. All rights reserved.
##DATE=Not specified, most likely prior to 1970
##MOLFORM=C12 H10 N O3 S Na
##SOURCE REFERENCE=COBLENTZ NO. 1460
##$NIST ID=B6001460
##$NIST SOURCE=COBLENTZ
##$NIST IMAGE=cob1460
##SPECTROMETER/DATA SYSTEM=Not specified, most likely a prism, grating, or hybrid spectrometer.
##STATE=SOLID (MINERAL OIL MULL)
##SAMPLING PROCEDURE=TRANSMISSION
##RESOLUTION=4
##DATA PROCESSING=DIGITIZED BY NIST FROM HARD COPY
##XUNITS=MICROMETERS
##YUNITS=TRANSMITTANCE
##XFACTOR=1.000000
##YFACTOR=1
##DELTAX=000.006809
##FIRSTX=2.034
##LASTX=15.9998
##FIRSTY=0.569
##MAXX=15.9998
##MINX=2.034
##MAXY=0.928
##MINY=0.03
##NPOINTS=2052
##XYDATA=(X++(Y..Y))
2.034000 0.5690 0.5710 0.5710 0.5690 0.5710
2.068063 0.5740 0.5740 0.5760 0.5760 0.5780
2.102000 0.5780 0.5810 0.5830 0.5830 0.5830
2.136063 0.5830 0.5850 0.5850 0.5850 0.5850
2.170000 0.5850 0.5850 0.5850 0.5850 0.5860
2.204063 0.5850 0.5850 0.5830 0.5810 0.5810
2.238000 0.5780 0.5760 0.5740 0.5740 0.5740
2.272063 0.5740 0.5740 0.5740 0.5740 0.5760
2.306000 0.5810 0.5830 0.5850 0.5860 0.5900
2.340063 0.5910 0.5930 0.5950 0.5950 0.5950
2.375000 0.5950 0.5930 0.5930 0.5930 0.5930
2.409063 0.5930 0.5950 0.5950 0.6000 0.6020
2.443000 0.6050 0.6120 0.6150 0.6150 0.6170
2.477063 0.6170 0.6170 0.6170 0.6170 0.6170
2.511000 0.6150 0.6150 0.6150 0.6150 0.6200
2.545063 0.6250 0.6340 0.6360 0.6370 0.6390
2.579000 0.6410 0.6410 0.6420 0.6440 0.6440
2.613063 0.6440 0.6420 0.6410 0.6410 0.6420
2.647000 0.6440 0.6440 0.6440 0.6440 0.6490
2.681063 0.6510 0.6510 0.6530 0.6540 0.6560
2.715000 0.6560 0.6580 0.6590 0.6590 0.6610
2.749063 0.6610 0.6610 0.6610 0.6590 0.6590
2.783000 0.6590 0.6590 0.6580 0.6590 0.6590
2.817063 0.6610 0.6610 0.6630 0.6630 0.6630
2.851000 0.6640 0.6630 0.6610 0.6610 0.6610
2.885063 0.6590 0.6590 0.6590 0.6590 0.6590
2.919000 0.6610 0.6590 0.6590 0.6530 0.6410
2.953063 0.6120 0.5910 0.5450 0.5110 0.4770
2.987000 0.4110 0.4090 0.4130 0.4520 0.5680
3.021063 0.5910 0.6020 0.6030 0.6070 0.6080
3.055000 0.6100 0.6120 0.6130 0.6150 0.6170
3.089063 0.6200 0.6200 0.6220 0.6240 0.6240
3.124000 0.6240 0.6220 0.6190 0.6130 0.6080
3.158063 0.6030 0.6020 0.6030 0.6050 0.6070
3.192000 0.6050 0.6020 0.6020 0.6020 0.5980
3.226063 0.5930 0.5790 0.5620 0.5610 0.5540
3.260000 0.5510 0.5420 0.5270 0.5110 0.5050
3.294063 0.4960 0.4770 0.4600 0.4480 0.4300
3.328000 0.3870 0.3550 0.2890 0.2090 0.1300
3.362063 0.0730 0.0510 0.0350 0.0340 0.0320
3.396000 0.0300 0.0300 0.0300 0.0300 0.0300
3.430063 0.0340 0.0390 0.0420 0.0490 0.0510
3.464000 0.0590 0.0640 0.0660 0.0680 0.0680
3.498063 0.0620 0.0620 0.0680 0.0910 0.1250
3.532000 0.1710 0.2550 0.2940 0.4110 0.4860
3.566063 0.6020 0.6340 0.6440 0.6540 0.6680
3.600000 0.6810 0.6950 0.7070 0.7120 0.7190
3.634063 0.7210 0.7220 0.7240 0.7260 0.7260
3.668000 0.7240 0.7220 0.7220 0.7190 0.7190
3.702063 0.7210 0.7220 0.7260 0.7270 0.7310
3.736000 0.7310 0.7310 0.7310 0.7340 0.7360
3.770063 0.7380 0.7390 0.7430 0.7440 0.7460
3.804000 0.7460 0.7460 0.7460 0.7460 0.7480
3.838063 0.7480 0.7500 0.7510 0.7530 0.7580
3.873000 0.7630 0.7680 0.7680 0.7680 0.7700
3.907063 0.7720 0.7730 0.7730 0.7750 0.7800
3.941000 0.7820 0.7820 0.7840 0.7820 0.7820
3.975063 0.7850 0.7870 0.7890 0.7900 0.7900
4.009000 0.7940 0.7970 0.7970 0.7990 0.7990
4.043063 0.8020 0.8020 0.8010 0.8010 0.8010
4.077000 0.8010 0.8010 0.8040 0.8040 0.8070
4.111063 0.8070 0.8110 0.8110 0.8120 0.8140
4.145000 0.8120 0.8140 0.8140 0.8160 0.8160
4.179063 0.8180 0.8180 0.8180 0.8180 0.8190
4.213000 0.8190 0.8190 0.8190 0.8190 0.8180
4.247063 0.8160 0.8140 0.8120 0.8090 0.8110
4.281000 0.8120 0.8140 0.8190 0.8190 0.8210
4.315063 0.8230 0.8240 0.8230 0.8230 0.8230
4.349000 0.8230 0.8240 0.8290 0.8350 0.8350
4.383063 0.8330 0.8330 0.8290 0.8280 0.8280
4.417000 0.8280 0.8280 0.8290 0.8290 0.8290
4.451063 0.8290 0.8310 0.8350 0.8360 0.8360
4.485000 0.8380 0.8380 0.8400 0.8400 0.8400
4.519063 0.8430 0.8450 0.8460 0.8460 0.8480
4.554000 0.8480 0.8480 0.8460 0.8460 0.8480
4.588063 0.8480 0.8500 0.8500 0.8520 0.8520
4.622000 0.8520 0.8530 0.8580 0.8580 0.8600
4.656063 0.8620 0.8620 0.8630 0.8630 0.8650
4.690000 0.8650 0.8690 0.8690 0.8700 0.8700
4.724063 0.8700 0.8700 0.8700 0.8720 0.8720
4.758000 0.8740 0.8740 0.8740 0.8770 0.8790
4.792063 0.8790 0.8790 0.8790 0.8800 0.8800
4.826000 0.8800 0.8790 0.8790 0.8790 0.8800
4.860063 0.8860 0.8870 0.8890 0.8870 0.8870
4.894000 0.8860 0.8860 0.8870 0.8890 0.8910
4.928063 0.8920 0.8940 0.8960 0.8960 0.8970
4.962000 0.8970 0.8970 0.8990 0.8970 0.8970
4.996063 0.8970 0.8990 0.8990 0.9010 0.9010
5.030000 0.9030 0.9030 0.9030 0.9010 0.9030
5.064063 0.9030 0.9030 0.9040 0.9080 0.9110
5.098000 0.9130 0.9110 0.9090 0.9090 0.9090
5.132063 0.9090 0.9080 0.9090 0.9080 0.9030
5.166000 0.9010 0.8990 0.9010 0.9010 0.9010
5.200063 0.9010 0.9030 0.9010 0.8990 0.8970
5.234000 0.8960 0.8920 0.8890 0.8790 0.8670
5.268063 0.8650 0.8670 0.8700 0.8740 0.8800
5.303000 0.8890 0.8920 0.8970 0.9010 0.9040
5.337063 0.9080 0.9130 0.9130 0.9180 0.9180
5.371000 0.9200 0.9200 0.9200 0.9200 0.9200
5.405063 0.9200 0.9200 0.9180 0.9180 0.9180
5.439000 0.9160 0.9140 0.9140 0.9140 0.9140
5.473063 0.9140 0.9160 0.9160 0.9180 0.9180
5.507000 0.9210 0.9230 0.9280 0.9280 0.9280
5.541063 0.9280 0.9280 0.9260 0.9250 0.9250
5.575000 0.9230 0.9210 0.9210 0.9210 0.9250
5.609063 0.9250 0.9230 0.9230 0.9230 0.9230
5.643000 0.9230 0.9230 0.9210 0.9200 0.9210
5.677063 0.9210 0.9210 0.9200 0.9200 0.9180
5.711000 0.9160 0.9140 0.9110 0.9110 0.9110
5.745063 0.9140 0.9200 0.9230 0.9230 0.9280
5.779000 0.9280 0.9280 0.9280 0.9250 0.9110
5.813063 0.9110 0.9110 0.9160 0.9210 0.9210
5.847000 0.9180 0.9140 0.9140 0.9180 0.9180
5.881063 0.9200 0.9210 0.9230 0.9230 0.9210
5.915000 0.9180 0.9180 0.9180 0.9180 0.9200
5.949063 0.9200 0.9180 0.9140 0.9130 0.9110
5.983000 0.9130 0.9130 0.9110 0.9090 0.9090
6.017063 0.9060 0.9010 0.8970 0.8990 0.9030
6.052000 0.9040 0.9080 0.9080 0.8990 0.8940
6.086063 0.8890 0.8840 0.8820 0.8770 0.8740
6.120000 0.8670 0.8570 0.8500 0.8290 0.8040
6.154063 0.7850 0.7630 0.7150 0.6680 0.6270
6.188000 0.5080 0.4670 0.4250 0.3740 0.3210
6.222063 0.2700 0.2700 0.2870 0.3550 0.3990
6.256000 0.4300 0.4480 0.4640 0.4710 0.4770
6.290063 0.4860 0.5440 0.5680 0.6390 0.6710
6.324000 0.6930 0.7170 0.7390 0.7550 0.7670
6.358063 0.7680 0.7720 0.7800 0.8040 0.8090
6.392000 0.8160 0.8190 0.8260 0.8280 0.8280
6.426063 0.8280 0.8280 0.8280 0.8210 0.8180
6.460000 0.8120 0.8090 0.7950 0.7730 0.7600
6.494063 0.7340 0.7090 0.6830 0.6390 0.5910
6.528000 0.5250 0.5080 0.4890 0.4300 0.3750
6.562063 0.3580 0.3580 0.3580 0.3650 0.3840
6.596000 0.4040 0.4370 0.4890 0.5370 0.5320
6.630063 0.5110 0.4890 0.4350 0.3870 0.3750
6.664000 0.3750 0.3790 0.4090 0.4430 0.4650
6.698063 0.4860 0.4980 0.5130 0.5080 0.5080
6.732000 0.5010 0.4940 0.4740 0.4500 0.4140
6.766063 0.3690 0.3060 0.2410 0.2190 0.2040
6.801000 0.1870 0.1850 0.1870 0.1880 0.2000
6.835063 0.2120 0.2290 0.2440 0.2630 0.2800
6.869000 0.2870 0.2940 0.2990 0.2990 0.3010
6.903063 0.3040 0.3260 0.3580 0.3990 0.4450
6.937000 0.4930 0.5860 0.6240 0.6530 0.6800
6.971063 0.7020 0.7270 0.7390 0.7550 0.7670
7.005000 0.7780 0.7900 0.7920 0.7940 0.7990
7.039063 0.8010 0.8070 0.8120 0.8180 0.8180
7.073000 0.8180 0.8120 0.8110 0.8040 0.7940
7.107063 0.7720 0.7530 0.7360 0.7020 0.6660
7.141000 0.6340 0.6000 0.5980 0.5980 0.6150
7.175063 0.6290 0.6300 0.6290 0.6120 0.5880
7.209000 0.5520 0.5230 0.5030 0.4820 0.4430
7.243063 0.4160 0.3870 0.3790 0.3790 0.3970
7.277000 0.4590 0.4940 0.5540 0.5640 0.5740
7.311063 0.5830 0.5960 0.6120 0.6340 0.6680
7.345000 0.6810 0.6870 0.6970 0.6970 0.6970
7.379063 0.6950 0.6920 0.6900 0.6870 0.6800
7.413000 0.6760 0.6750 0.6640 0.6540 0.6440
7.447063 0.6390 0.6360 0.6250 0.6120 0.5950
7.482000 0.5780 0.5590 0.5300 0.5080 0.4840
7.516063 0.4480 0.4180 0.3960 0.3820 0.3840
7.550000 0.3870 0.3960 0.3990 0.4110 0.4300
7.584063 0.4500 0.4710 0.4760 0.4840 0.5740
7.618000 0.5790 0.5850 0.5860 0.5880 0.5910
7.652063 0.5930 0.6120 0.6290 0.6410 0.6470
7.686000 0.6490 0.6490 0.6490 0.6530 0.6540
7.720063 0.6560 0.6590 0.6630 0.6700 0.6750
7.754000 0.6810 0.6870 0.7000 0.7000 0.7050
7.788063 0.7050 0.7040 0.6950 0.6880 0.6730
7.822000 0.6640 0.6510 0.6340 0.6150 0.5880
7.856063 0.5620 0.5390 0.5080 0.4930 0.4770
7.890000 0.4380 0.4300 0.4310 0.4400 0.4650
7.924063 0.4910 0.5270 0.5300 0.5270 0.5030
7.958000 0.4910 0.4790 0.4500 0.4230 0.3960
7.992063 0.3790 0.3480 0.3260 0.3120 0.3010
8.026000 0.2940 0.2870 0.2850 0.2770 0.2610
8.060063 0.2440 0.2260 0.2090 0.1920 0.1810
8.094000 0.1760 0.1700 0.1680 0.1680 0.1680
8.128063 0.1730 0.1810 0.1920 0.2020 0.2210
8.162000 0.2430 0.2680 0.2900 0.3120 0.3280
8.196063 0.3600 0.3770 0.3860 0.3920 0.4040
8.231000 0.4080 0.4060 0.4060 0.4060 0.4090
8.265063 0.4200 0.4280 0.4260 0.4130 0.3960
8.299000 0.3620 0.3380 0.3110 0.2890 0.2580
8.333063 0.2360 0.2100 0.1880 0.1660 0.1510
8.367000 0.1360 0.1340 0.1340 0.1340 0.1360
8.401063 0.1440 0.1640 0.1760 0.1870 0.1920
8.435000 0.2000 0.2090 0.2150 0.2170 0.2190
8.469063 0.2170 0.2100 0.2000 0.1920 0.1810
8.503000 0.1730 0.1680 0.1560 0.1540 0.1530
8.537063 0.1560 0.1710 0.1870 0.2020 0.2210
8.571000 0.2320 0.2430 0.2580 0.2730 0.2940
8.605063 0.3160 0.3350 0.3570 0.3670 0.3820
8.639000 0.3940 0.4030 0.4090 0.4160 0.4180
8.673063 0.4200 0.4200 0.4200 0.4250 0.4260
8.707000 0.4260 0.4250 0.4130 0.3970 0.3700
8.741063 0.3310 0.3020 0.2770 0.2560 0.2480
8.775000 0.2480 0.2560 0.2720 0.2870 0.3020
8.809063 0.3190 0.3310 0.3380 0.3450 0.3460
8.843000 0.3500 0.3550 0.3620 0.3700 0.3800
8.877063 0.3920 0.4010 0.4090 0.4200 0.4260
8.911000 0.4310 0.4380 0.4450 0.4480 0.4520
8.945063 0.4550 0.4590 0.4650 0.4720 0.4810
8.980000 0.4880 0.4960 0.5060 0.5170 0.5270
9.014063 0.5390 0.5560 0.5690 0.5850 0.5960
9.048000 0.6080 0.6200 0.6290 0.6390 0.6460
9.082063 0.6530 0.6590 0.6640 0.6660 0.6750
9.116000 0.6780 0.6850 0.6900 0.6900 0.6920
9.150063 0.6930 0.6930 0.6930 0.6970 0.6970
9.184000 0.7000 0.7000 0.7000 0.6970 0.6970
9.218063 0.6950 0.6930 0.6850 0.6780 0.6780
9.252000 0.6780 0.6780 0.6780 0.6870 0.6900
9.286063 0.6950 0.7100 0.7210 0.7260 0.7270
9.320000 0.7340 0.7340 0.7360 0.7390 0.7460
9.354063 0.7460 0.7460 0.7480 0.7480 0.7500
9.388000 0.7500 0.7500 0.7460 0.7390 0.7340
9.422063 0.7270 0.7220 0.7070 0.6870 0.6610
9.456000 0.6170 0.5690 0.5030 0.4710 0.4380
9.490063 0.3790 0.3240 0.3120 0.3120 0.3180
9.524000 0.3520 0.3920 0.4280 0.4570 0.4760
9.558063 0.4770 0.4770 0.4670 0.4450 0.4380
9.592000 0.4500 0.4590 0.4810 0.4960 0.5220
9.626063 0.5340 0.5420 0.5570 0.5680 0.5830
9.661000 0.5980 0.6080 0.6150 0.6190 0.6250
9.695063 0.6250 0.6270 0.6300 0.6370 0.6460
9.729000 0.6560 0.6680 0.6760 0.6920 0.7020
9.763063 0.7090 0.7150 0.7220 0.7270 0.7360
9.797000 0.7380 0.7390 0.7430 0.7430 0.7440
9.831063 0.7440 0.7290 0.7190 0.7120 0.7020
9.865000 0.6920 0.6760 0.6470 0.6340 0.6070
9.899063 0.6050 0.6080 0.6410 0.6580 0.6760
9.933000 0.6900 0.7020 0.7100 0.7210 0.7270
9.967063 0.7310 0.7360 0.7390 0.7430 0.7440
10.001000 0.7480 0.7530 0.7580 0.7580 0.7500
10.035063 0.7360 0.7270 0.7270 0.7320 0.7390
10.069000 0.7430 0.7460 0.7530 0.7650 0.7680
10.103063 0.7750 0.7770 0.7770 0.7780 0.7800
10.137000 0.7820 0.7820 0.7820 0.7850 0.7850
10.171063 0.7850 0.7800 0.7770 0.7700 0.7670
10.205000 0.7630 0.7600 0.7600 0.7580 0.7560
10.239063 0.7560 0.7580 0.7610 0.7650 0.7670
10.273000 0.7680 0.7680 0.7680 0.7700 0.7700
10.307063 0.7700 0.7700 0.7680 0.7700 0.7700
10.341000 0.7720 0.7750 0.7750 0.7780 0.7770
10.375063 0.7780 0.7780 0.7800 0.7800 0.7800
10.410000 0.7800 0.7820 0.7820 0.7800 0.7820
10.444063 0.7820 0.7850 0.7870 0.7890 0.7870
10.478000 0.7890 0.7890 0.7900 0.7900 0.7900
10.512063 0.7900 0.7900 0.7900 0.7900 0.7900
10.546000 0.7940 0.7940 0.7950 0.7970 0.7990
10.580063 0.8020 0.8040 0.8060 0.8060 0.8070
10.614000 0.8090 0.8110 0.8120 0.8120 0.8140
10.648063 0.8140 0.8140 0.8140 0.8140 0.8140
10.682000 0.8140 0.8160 0.8160 0.8160 0.8160
10.716063 0.8160 0.8160 0.8140 0.8140 0.8140
10.750000 0.8160 0.8160 0.8160 0.8160 0.8160
10.784063 0.8180 0.8180 0.8180 0.8180 0.8180
10.818000 0.8180 0.8180 0.8190 0.8190 0.8190
10.852063 0.8190 0.8190 0.8190 0.8210 0.8190
10.886000 0.8210 0.8230 0.8230 0.8240 0.8260
10.920063 0.8260 0.8280 0.8280 0.8290 0.8310
10.954000 0.8330 0.8350 0.8360 0.8380 0.8400
10.988063 0.8410 0.8430 0.8430 0.8450 0.8450
11.022000 0.8460 0.8460 0.8480 0.8500 0.8500
11.056063 0.8520 0.8520 0.8520 0.8530 0.8530
11.090000 0.8530 0.8530 0.8530 0.8530 0.8530
11.124063 0.8530 0.8520 0.8520 0.8500 0.8480
11.159000 0.8480 0.8380 0.8360 0.8350 0.8290
11.193063 0.8290 0.8260 0.8260 0.8240 0.8240
11.227000 0.8230 0.8240 0.8230 0.8210 0.8210
11.261063 0.8190 0.8190 0.8190 0.8190 0.8190
11.295000 0.8180 0.8180 0.8140 0.8140 0.8140
11.329063 0.8110 0.8090 0.8070 0.8070 0.8060
11.363000 0.8020 0.7990 0.7970 0.7920 0.7920
11.397063 0.7840 0.7750 0.7730 0.7730 0.7770
11.431000 0.7820 0.7890 0.7950 0.8010 0.8070
11.465063 0.8160 0.8260 0.8280 0.8290 0.8330
11.499000 0.8360 0.8380 0.8380 0.8400 0.8400
11.533063 0.8430 0.8450 0.8450 0.8450 0.8450
11.567000 0.8450 0.8460 0.8460 0.8450 0.8450
11.601063 0.8430 0.8430 0.8430 0.8450 0.8450
11.635000 0.8460 0.8450 0.8450 0.8450 0.8430
11.669063 0.8410 0.8400 0.8310 0.8230 0.8160
11.703000 0.8090 0.8070 0.8010 0.7900 0.7720
11.737063 0.7510 0.7440 0.7270 0.7150 0.7000
11.771000 0.6900 0.6800 0.6680 0.6580 0.6470
11.805063 0.6370 0.6240 0.6100 0.5930 0.5760
11.839000 0.5520 0.5400 0.5230 0.5060 0.5010
11.873063 0.4930 0.4840 0.4790 0.4760 0.4740
11.908000 0.4740 0.4760 0.4840 0.4930 0.5180
11.942063 0.5320 0.5400 0.5470 0.5510 0.5540
11.976000 0.5570 0.5590 0.5620 0.5660 0.5710
12.010063 0.5740 0.5760 0.5760 0.5780 0.5830
12.044000 0.5910 0.5950 0.5980 0.6020 0.6050
12.078063 0.6080 0.6170 0.6220 0.6270 0.6300
12.112000 0.6320 0.6360 0.6420 0.6470 0.6490
12.146063 0.6560 0.6630 0.6660 0.6680 0.6730
12.180000 0.6760 0.6800 0.6830 0.6850 0.6880
12.214063 0.6920 0.6950 0.6950 0.6950 0.6950
12.248000 0.6870 0.6830 0.6830 0.6850 0.6870
12.282063 0.6900 0.6920 0.6930 0.6930 0.6930
12.316000 0.6950 0.6970 0.7020 0.7050 0.7090
12.350063 0.7150 0.7170 0.7190 0.7190 0.7210
12.384000 0.7210 0.7210 0.7210 0.7210 0.7210
12.418063 0.7210 0.7210 0.7170 0.7170 0.7190
12.452000 0.7190 0.7210 0.7210 0.7190 0.7190
12.486063 0.7170 0.7140 0.7120 0.7120 0.7120
12.520000 0.7140 0.7140 0.7150 0.7210 0.7260
12.554063 0.7270 0.7340 0.7380 0.7390 0.7460
12.589000 0.7510 0.7550 0.7600 0.7650 0.7680
12.623063 0.7700 0.7750 0.7780 0.7850 0.7870
12.657000 0.7890 0.7950 0.7970 0.8020 0.8070
12.691063 0.8090 0.8090 0.8110 0.8120 0.8120
12.725000 0.8140 0.8160 0.8160 0.8180 0.8180
12.759063 0.8180 0.8190 0.8210 0.8210 0.8230
12.793000 0.8230 0.8230 0.8240 0.8260 0.8260
12.827063 0.8260 0.8280 0.8290 0.8290 0.8290
12.861000 0.8280 0.8260 0.8260 0.8280 0.8290
12.895063 0.8290 0.8310 0.8290 0.8260 0.8240
12.929000 0.8240 0.8280 0.8290 0.8310 0.8310
12.963063 0.8290 0.8260 0.8280 0.8240 0.8230
12.997000 0.8190 0.8190 0.8190 0.8230 0.8230
13.031063 0.8210 0.8210 0.8190 0.8180 0.8180
13.065000 0.8160 0.8140 0.8060 0.8020 0.7990
13.099063 0.7950 0.7900 0.7850 0.7750 0.7650
13.133000 0.7560 0.7500 0.7360 0.7210 0.7040
13.167063 0.6850 0.6640 0.6420 0.6220 0.6020
13.201000 0.5690 0.5400 0.5050 0.5010 0.4960
13.235063 0.4640 0.4370 0.4180 0.3960 0.3750
13.269000 0.3500 0.3350 0.3140 0.3020 0.2920
13.303063 0.2820 0.2750 0.2750 0.2730 0.2720
13.338000 0.2700 0.2680 0.2680 0.2680 0.2680
13.372063 0.2650 0.2610 0.2580 0.2530 0.2510
13.406000 0.2550 0.2610 0.2770 0.2870 0.3010
13.440063 0.3210 0.3430 0.3690 0.3920 0.4160
13.474000 0.4330 0.4570 0.4770 0.4910 0.5230
13.508063 0.5320 0.5390 0.5490 0.5610 0.5660
13.542000 0.5760 0.5790 0.5790 0.5790 0.5780
13.576063 0.5740 0.5690 0.5680 0.5680 0.5740
13.610000 0.5690 0.5680 0.5680 0.5660 0.5660
13.644063 0.5660 0.5660 0.5660 0.5660 0.5620
13.678000 0.5560 0.5520 0.5490 0.5440 0.5350
13.712063 0.5300 0.5280 0.5250 0.5170 0.5110
13.746000 0.5100 0.5080 0.5060 0.5060 0.5080
13.780063 0.5110 0.5170 0.5230 0.5270 0.5420
13.814000 0.5570 0.5620 0.5730 0.5850 0.5930
13.848063 0.6020 0.6150 0.6200 0.6320 0.6420
13.882000 0.6460 0.6470 0.6580 0.6640 0.6710
13.916063 0.6780 0.6850 0.6900 0.6950 0.6980
13.950000 0.7050 0.7050 0.7070 0.7050 0.7050
13.984063 0.7020 0.6980 0.6950 0.6830 0.6710
14.018000 0.6610 0.6530 0.6410 0.6250 0.6070
14.052063 0.5950 0.5790 0.5640 0.5540 0.5470
14.087000 0.5390 0.5300 0.5220 0.5180 0.5180
14.121063 0.5180 0.5180 0.5180 0.5180 0.5180
14.155000 0.5180 0.5180 0.5180 0.5200 0.5250
14.189063 0.5270 0.5270 0.5280 0.5280 0.5300
14.223000 0.5350 0.5370 0.5450 0.5470 0.5510
14.257063 0.5590 0.5620 0.5660 0.5660 0.5680
14.291000 0.5740 0.5790 0.5850 0.5850 0.5860
14.325063 0.5900 0.5960 0.5960 0.5910 0.5910
14.359000 0.5900 0.5880 0.5810 0.5760 0.5680
14.393063 0.5610 0.5520 0.5400 0.5280 0.5130
14.427000 0.5030 0.4930 0.4810 0.4650 0.4380
14.461063 0.4380 0.4260 0.4060 0.4030 0.3960
14.495000 0.3940 0.3920 0.3920 0.3940 0.3960
14.529063 0.3970 0.4030 0.4280 0.4420 0.4540
14.563000 0.4690 0.4930 0.5180 0.5300 0.5420
14.597063 0.5560 0.5690 0.5960 0.6130 0.6250
14.631000 0.6370 0.6460 0.6560 0.6630 0.6730
14.665063 0.6810 0.6880 0.6970 0.7000 0.7050
14.699000 0.7070 0.7150 0.7220 0.7240 0.7240
14.733063 0.7270 0.7290 0.7310 0.7320 0.7340
14.768000 0.7380 0.7390 0.7410 0.7430 0.7430
14.802063 0.7440 0.7440 0.7460 0.7460 0.7480
14.836000 0.7480 0.7500 0.7500 0.7500 0.7510
14.870063 0.7510 0.7500 0.7500 0.7500 0.7500
14.904000 0.7500 0.7500 0.7500 0.7500 0.7500
14.938063 0.7500 0.7480 0.7480 0.7480 0.7480
14.972000 0.7480 0.7410 0.7340 0.7270 0.7210
15.006063 0.7140 0.7070 0.7000 0.6950 0.6930
15.040000 0.6900 0.6900 0.6900 0.6900 0.6900
15.074063 0.6950 0.6980 0.7000 0.7040 0.7150
15.108000 0.7210 0.7260 0.7270 0.7310 0.7320
15.142063 0.7360 0.7360 0.7380 0.7380 0.7360
15.176000 0.7310 0.7290 0.7270 0.7260 0.7210
15.210063 0.7190 0.7190 0.7150 0.7140 0.7100
15.244000 0.7090 0.7070 0.7050 0.7050 0.7050
15.278063 0.7020 0.7000 0.6980 0.6970 0.6930
15.312000 0.6880 0.6830 0.6760 0.6750 0.6710
15.346063 0.6680 0.6660 0.6590 0.6530 0.6470
15.380000 0.6460 0.6370 0.6300 0.6200 0.6130
15.414063 0.6050 0.5980 0.5830 0.5760 0.5690
15.448000 0.5610 0.5520 0.5490 0.5400 0.5370
15.482063 0.5340 0.5300 0.5300 0.5270 0.5250
15.517000 0.5230 0.5220 0.5220 0.5230 0.5270
15.551063 0.5300 0.5370 0.5400 0.5470 0.5510
15.585000 0.5540 0.5590 0.5660 0.5710 0.5760
15.619063 0.5790 0.5830 0.5860 0.5910 0.5960
15.653000 0.6000 0.6000 0.6050 0.6070 0.6080
15.687063 0.6100 0.6100 0.6100 0.6120 0.6120
15.721000 0.6120 0.6120 0.6120 0.6120 0.6100
15.755063 0.6100 0.6080 0.6080 0.6070 0.6070
15.789000 0.6070 0.6050 0.6050 0.6030 0.6030
15.823063 0.6020 0.6020 0.6000 0.5980 0.5980
15.857000 0.5960 0.5910 0.5880 0.5810 0.5780
15.891063 0.5730 0.5680 0.5590 0.5570 0.5540
15.925000 0.5490 0.5450 0.5420 0.5390 0.5390
15.959063 0.5390 0.5370 0.5340 0.5340 0.5300
15.993000 0.5320 0.5300
##END=
