##TITLE=LEAD METABORATE
$$ C. P.
##JCAMP-DX=4.24
##DATA TYPE=INFRARED SPECTRUM
##CLASS=COBLENTZ
##ORIGIN=MELLON INSTITUTE
##OWNER=COBLENTZ SOCIETY
Collection (C) 2018 copyright by the U.S. Secretary of Commerce
on behalf of the United States of America. All rights reserved.
##DATE=Not specified, most likely prior to 1970
##MOLFORM=Pb ( B O2)2  * H2 O
##SOURCE REFERENCE=COBLENTZ NO. 452
##$NIST ID=B6000452
##$NIST SOURCE=COBLENTZ
##$NIST IMAGE=cob452
##SPECTROMETER/DATA SYSTEM=Not specified, most likely a prism, grating, or hybrid spectrometer.
##STATE=SOLID (NUJOL MULL)
##PATH LENGTH=
$$SPECTRAL CONTAMINATION DUE TO OIL AROUND 2900, 1450 CM^-^1
##SAMPLING PROCEDURE=TRANSMISSION
##RESOLUTION=4
##DATA PROCESSING=DIGITIZED BY NIST FROM HARD COPY
##XUNITS=MICROMETERS
##YUNITS=TRANSMITTANCE
##XFACTOR=1.000000
##YFACTOR=1
##DELTAX=000.006655
##FIRSTX=2.035
##LASTX=15.9829
##FIRSTY=0.826
##MAXX=15.9829
##MINX=2.035
##MAXY=0.946
##MINY=0.379
##NPOINTS=2097
##XYDATA=(X++(Y..Y))
2.035000 0.8260 0.8260 0.8260 0.8260 0.8260
2.068289 0.8240 0.8240 0.8260 0.8260 0.8270
2.102000 0.8270 0.8270 0.8290 0.8290 0.8290
2.135289 0.8310 0.8310 0.8310 0.8320 0.8320
2.168000 0.8320 0.8320 0.8320 0.8320 0.8320
2.201289 0.8320 0.8320 0.8320 0.8310 0.8310
2.235000 0.8310 0.8310 0.8320 0.8340 0.8340
2.268289 0.8320 0.8340 0.8340 0.8320 0.8320
2.301000 0.8320 0.8310 0.8310 0.8310 0.8310
2.334289 0.8310 0.8310 0.8310 0.8320 0.8320
2.368000 0.8320 0.8320 0.8320 0.8340 0.8340
2.401289 0.8340 0.8340 0.8360 0.8360 0.8360
2.434000 0.8360 0.8370 0.8390 0.8390 0.8410
2.467289 0.8410 0.8410 0.8420 0.8420 0.8440
2.501000 0.8440 0.8460 0.8460 0.8460 0.8460
2.534289 0.8440 0.8460 0.8460 0.8470 0.8470
2.567000 0.8490 0.8490 0.8510 0.8510 0.8520
2.600289 0.8520 0.8540 0.8540 0.8540 0.8540
2.634000 0.8560 0.8560 0.8560 0.8570 0.8570
2.667289 0.8570 0.8570 0.8590 0.8590 0.8590
2.701000 0.8590 0.8570 0.8570 0.8570 0.8560
2.734289 0.8540 0.8540 0.8510 0.8490 0.8470
2.767000 0.8470 0.8460 0.8410 0.8340 0.8270
2.800289 0.8170 0.8120 0.8040 0.8010 0.8010
2.834000 0.7970 0.7900 0.7870 0.7840 0.7820
2.867289 0.7800 0.7770 0.7740 0.7690 0.7650
2.900000 0.7600 0.7590 0.7570 0.7550 0.7540
2.933289 0.7520 0.7520 0.7500 0.7490 0.7490
2.967000 0.7450 0.7450 0.7440 0.7420 0.7400
3.000289 0.7400 0.7390 0.7370 0.7370 0.7370
3.033000 0.7390 0.7400 0.7400 0.7400 0.7400
3.066289 0.7400 0.7400 0.7400 0.7400 0.7400
3.100000 0.7390 0.7390 0.7390 0.7390 0.7390
3.133289 0.7390 0.7390 0.7390 0.7400 0.7400
3.166000 0.7400 0.7440 0.7450 0.7470 0.7500
3.199289 0.7500 0.7540 0.7570 0.7590 0.7600
3.233000 0.7620 0.7620 0.7620 0.7640 0.7640
3.266289 0.7600 0.7570 0.7520 0.7450 0.7300
3.299000 0.6980 0.6600 0.5810 0.5430 0.5280
3.332289 0.4910 0.3990 0.3870 0.3790 0.3790
3.366000 0.3990 0.4080 0.4330 0.4490 0.4710
3.399289 0.4910 0.5030 0.5250 0.5260 0.5260
3.433000 0.5260 0.5280 0.5530 0.5680 0.5800
3.466289 0.5900 0.6030 0.6480 0.7000 0.7250
3.499000 0.7690 0.7850 0.8040 0.8270 0.8320
3.532289 0.8470 0.8560 0.8660 0.8690 0.8720
3.566000 0.8720 0.8760 0.8770 0.8790 0.8810
3.599289 0.8820 0.8840 0.8840 0.8860 0.8860
3.632000 0.8870 0.8890 0.8890 0.8890 0.8910
3.665289 0.8910 0.8910 0.8920 0.8920 0.8920
3.699000 0.8940 0.8940 0.8960 0.8960 0.8960
3.732289 0.8960 0.8960 0.8960 0.8960 0.8960
3.765000 0.8970 0.8970 0.8970 0.8970 0.8970
3.798289 0.8970 0.8970 0.8970 0.8970 0.8970
3.832000 0.8970 0.8970 0.8990 0.8990 0.8990
3.865289 0.8990 0.9010 0.9010 0.9010 0.9030
3.898000 0.9030 0.9030 0.9030 0.9030 0.9030
3.931289 0.9060 0.9060 0.9060 0.9060 0.9060
3.965000 0.9060 0.9060 0.9060 0.9080 0.9080
3.998289 0.9080 0.9080 0.9080 0.9080 0.9080
4.031000 0.9080 0.9080 0.9080 0.9080 0.9080
4.064289 0.9080 0.9080 0.9080 0.9080 0.9080
4.098000 0.9080 0.9080 0.9080 0.9080 0.9080
4.131289 0.9080 0.9080 0.9080 0.9060 0.9060
4.165000 0.9040 0.9040 0.9040 0.9040 0.9040
4.198289 0.9040 0.9040 0.9060 0.9080 0.9080
4.231000 0.9090 0.9090 0.9090 0.9090 0.9090
4.264289 0.9090 0.9080 0.9080 0.9060 0.9060
4.298000 0.9040 0.9040 0.9030 0.9040 0.9040
4.331289 0.9060 0.9060 0.9060 0.9080 0.9080
4.364000 0.9080 0.9080 0.9080 0.9080 0.9080
4.397289 0.9080 0.9080 0.9080 0.9080 0.9080
4.431000 0.9080 0.9080 0.9080 0.9080 0.9080
4.464289 0.9080 0.9080 0.9080 0.9080 0.9080
4.497000 0.9080 0.9080 0.9060 0.9060 0.9060
4.530289 0.9060 0.9060 0.9060 0.9060 0.9060
4.564000 0.9060 0.9060 0.9060 0.9060 0.9060
4.597289 0.9060 0.9060 0.9060 0.9060 0.9060
4.630000 0.9060 0.9060 0.9060 0.9060 0.9060
4.663289 0.9060 0.9060 0.9060 0.9060 0.9060
4.697000 0.9060 0.9060 0.9060 0.9060 0.9060
4.730289 0.9060 0.9060 0.9060 0.9060 0.9060
4.763000 0.9060 0.9060 0.9060 0.9060 0.9060
4.796289 0.9060 0.9060 0.9060 0.9060 0.9060
4.830000 0.9060 0.9060 0.9060 0.9060 0.9060
4.863289 0.9080 0.9080 0.9080 0.9080 0.9080
4.897000 0.9080 0.9080 0.9080 0.9080 0.9080
4.930289 0.9080 0.9080 0.9080 0.9080 0.9080
4.963000 0.9090 0.9090 0.9090 0.9110 0.9110
4.996289 0.9130 0.9130 0.9130 0.9130 0.9140
5.030000 0.9140 0.9140 0.9140 0.9160 0.9160
5.063289 0.9180 0.9180 0.9180 0.9180 0.9180
5.096000 0.9180 0.9190 0.9190 0.9210 0.9210
5.129289 0.9210 0.9210 0.9210 0.9190 0.9190
5.163000 0.9180 0.9180 0.9180 0.9190 0.9190
5.196289 0.9180 0.9190 0.9190 0.9190 0.9190
5.229000 0.9210 0.9210 0.9210 0.9230 0.9230
5.262289 0.9230 0.9230 0.9240 0.9260 0.9260
5.296000 0.9260 0.9260 0.9260 0.9260 0.9260
5.329289 0.9260 0.9260 0.9260 0.9280 0.9280
5.362000 0.9280 0.9280 0.9280 0.9280 0.9280
5.395289 0.9290 0.9290 0.9290 0.9290 0.9290
5.429000 0.9290 0.9310 0.9310 0.9310 0.9310
5.462289 0.9310 0.9310 0.9330 0.9330 0.9330
5.495000 0.9330 0.9330 0.9330 0.9330 0.9330
5.528289 0.9330 0.9330 0.9330 0.9340 0.9340
5.562000 0.9330 0.9330 0.9340 0.9340 0.9360
5.595289 0.9360 0.9360 0.9360 0.9360 0.9360
5.629000 0.9380 0.9380 0.9380 0.9390 0.9390
5.662289 0.9390 0.9390 0.9390 0.9410 0.9410
5.695000 0.9410 0.9410 0.9410 0.9410 0.9410
5.728289 0.9410 0.9410 0.9410 0.9410 0.9410
5.762000 0.9410 0.9410 0.9430 0.9440 0.9440
5.795289 0.9440 0.9440 0.9440 0.9440 0.9440
5.828000 0.9440 0.9440 0.9460 0.9440 0.9440
5.861289 0.9440 0.9440 0.9440 0.9440 0.9440
5.895000 0.9430 0.9430 0.9430 0.9430 0.9430
5.928289 0.9410 0.9410 0.9410 0.9410 0.9390
5.961000 0.9390 0.9390 0.9390 0.9390 0.9390
5.994289 0.9380 0.9380 0.9380 0.9360 0.9340
6.028000 0.9340 0.9340 0.9340 0.9340 0.9340
6.061289 0.9340 0.9340 0.9340 0.9340 0.9340
6.094000 0.9340 0.9330 0.9330 0.9330 0.9330
6.127289 0.9340 0.9340 0.9340 0.9360 0.9380
6.161000 0.9390 0.9390 0.9390 0.9410 0.9390
6.194289 0.9390 0.9390 0.9390 0.9410 0.9410
6.227000 0.9410 0.9410 0.9410 0.9410 0.9410
6.260289 0.9390 0.9390 0.9380 0.9360 0.9340
6.294000 0.9330 0.9330 0.9310 0.9310 0.9310
6.327289 0.9290 0.9290 0.9290 0.9290 0.9290
6.361000 0.9290 0.9290 0.9290 0.9290 0.9290
6.394289 0.9290 0.9290 0.9290 0.9280 0.9280
6.427000 0.9280 0.9290 0.9290 0.9290 0.9290
6.460289 0.9290 0.9290 0.9290 0.9290 0.9280
6.494000 0.9260 0.9260 0.9240 0.9230 0.9210
6.527289 0.9210 0.9210 0.9210 0.9230 0.9230
6.560000 0.9210 0.9210 0.9210 0.9210 0.9210
6.593289 0.9190 0.9190 0.9190 0.9180 0.9180
6.627000 0.9180 0.9180 0.9190 0.9190 0.9190
6.660289 0.9190 0.9180 0.9140 0.9130 0.9110
6.693000 0.9080 0.9030 0.9010 0.8990 0.8920
6.726289 0.8870 0.8820 0.8740 0.8690 0.8590
6.760000 0.8340 0.8160 0.7970 0.7770 0.7690
6.793289 0.7520 0.7500 0.7490 0.7490 0.7470
6.826000 0.7450 0.7450 0.7440 0.7440 0.7450
6.859289 0.7450 0.7470 0.7470 0.7490 0.7500
6.893000 0.7520 0.7520 0.7520 0.7520 0.7520
6.926289 0.7520 0.7540 0.7540 0.7540 0.7540
6.959000 0.7520 0.7520 0.7500 0.7500 0.7470
6.992289 0.7450 0.7440 0.7400 0.7370 0.7370
7.026000 0.7340 0.7320 0.7300 0.7270 0.7240
7.059289 0.7220 0.7200 0.7190 0.7190 0.7170
7.093000 0.7150 0.7140 0.7100 0.7100 0.7090
7.126289 0.7020 0.7000 0.6930 0.6880 0.6830
7.159000 0.6750 0.6720 0.6630 0.6580 0.6530
7.192289 0.6530 0.6520 0.6520 0.6520 0.6520
7.226000 0.6530 0.6530 0.6550 0.6570 0.6580
7.259289 0.6580 0.6580 0.6600 0.6620 0.6620
7.292000 0.6620 0.6630 0.6630 0.6630 0.6630
7.325289 0.6650 0.6650 0.6650 0.6670 0.6670
7.359000 0.6670 0.6670 0.6670 0.6670 0.6650
7.392289 0.6650 0.6650 0.6630 0.6630 0.6630
7.425000 0.6630 0.6630 0.6630 0.6630 0.6630
7.458289 0.6630 0.6630 0.6650 0.6670 0.6670
7.492000 0.6680 0.6700 0.6720 0.6720 0.6730
7.525289 0.6800 0.6820 0.6830 0.6850 0.6880
7.558000 0.6900 0.6920 0.6950 0.6970 0.6980
7.591289 0.6980 0.7020 0.7040 0.7090 0.7100
7.625000 0.7140 0.7190 0.7220 0.7240 0.7250
7.658289 0.7300 0.7350 0.7390 0.7420 0.7450
7.691000 0.7490 0.7500 0.7520 0.7540 0.7590
7.724289 0.7620 0.7670 0.7690 0.7720 0.7740
7.758000 0.7770 0.7790 0.7800 0.7820 0.7840
7.791289 0.7840 0.7850 0.7870 0.7890 0.7900
7.825000 0.7920 0.7940 0.7950 0.7970 0.7970
7.858289 0.7970 0.7990 0.7990 0.8010 0.8010
7.891000 0.8020 0.8040 0.8090 0.8110 0.8140
7.924289 0.8140 0.8160 0.8160 0.8170 0.8170
7.958000 0.8190 0.8210 0.8210 0.8220 0.8220
7.991289 0.8240 0.8260 0.8260 0.8270 0.8270
8.024000 0.8270 0.8270 0.8310 0.8320 0.8320
8.057289 0.8320 0.8340 0.8340 0.8360 0.8370
8.091000 0.8370 0.8390 0.8390 0.8410 0.8410
8.124289 0.8420 0.8420 0.8440 0.8440 0.8460
8.157000 0.8460 0.8470 0.8470 0.8470 0.8470
8.190289 0.8470 0.8470 0.8490 0.8490 0.8490
8.224000 0.8490 0.8490 0.8490 0.8490 0.8490
8.257289 0.8490 0.8470 0.8470 0.8470 0.8470
8.290000 0.8460 0.8460 0.8460 0.8460 0.8460
8.323289 0.8440 0.8440 0.8440 0.8440 0.8440
8.357000 0.8440 0.8440 0.8440 0.8440 0.8420
8.390289 0.8420 0.8420 0.8420 0.8410 0.8410
8.423000 0.8410 0.8410 0.8390 0.8390 0.8390
8.456289 0.8390 0.8370 0.8370 0.8370 0.8370
8.490000 0.8360 0.8360 0.8360 0.8340 0.8340
8.523289 0.8320 0.8320 0.8320 0.8310 0.8310
8.557000 0.8290 0.8290 0.8260 0.8240 0.8220
8.590289 0.8210 0.8190 0.8170 0.8160 0.8120
8.623000 0.8110 0.8110 0.8090 0.8070 0.8040
8.656289 0.8020 0.8010 0.8010 0.8010 0.7990
8.690000 0.7990 0.7970 0.7970 0.7970 0.7970
8.723289 0.7970 0.7970 0.7950 0.7970 0.7970
8.756000 0.7940 0.7940 0.7920 0.7920 0.7900
8.789289 0.7900 0.7890 0.7850 0.7850 0.7840
8.823000 0.7820 0.7820 0.7800 0.7770 0.7750
8.856289 0.7740 0.7720 0.7700 0.7700 0.7690
8.889000 0.7670 0.7650 0.7650 0.7640 0.7620
8.922289 0.7620 0.7600 0.7590 0.7590 0.7570
8.956000 0.7570 0.7570 0.7550 0.7540 0.7520
8.989289 0.7520 0.7500 0.7490 0.7470 0.7440
9.022000 0.7420 0.7390 0.7370 0.7340 0.7320
9.055289 0.7290 0.7270 0.7250 0.7240 0.7200
9.089000 0.7200 0.7190 0.7170 0.7140 0.7140
9.122289 0.7120 0.7100 0.7090 0.7090 0.7040
9.155000 0.7020 0.7020 0.7020 0.7000 0.7000
9.188289 0.6980 0.6970 0.6930 0.6930 0.6920
9.222000 0.6920 0.6900 0.6880 0.6870 0.6870
9.255289 0.6850 0.6830 0.6820 0.6800 0.6780
9.289000 0.6770 0.6770 0.6730 0.6720 0.6700
9.322289 0.6680 0.6670 0.6650 0.6630 0.6620
9.355000 0.6600 0.6600 0.6580 0.6580 0.6580
9.388289 0.6580 0.6550 0.6530 0.6520 0.6520
9.422000 0.6520 0.6520 0.6520 0.6500 0.6500
9.455289 0.6480 0.6480 0.6470 0.6470 0.6470
9.488000 0.6450 0.6430 0.6420 0.6420 0.6400
9.521289 0.6380 0.6350 0.6350 0.6330 0.6320
9.555000 0.6320 0.6300 0.6300 0.6300 0.6300
9.588289 0.6280 0.6300 0.6300 0.6300 0.6300
9.621000 0.6280 0.6280 0.6280 0.6270 0.6270
9.654289 0.6250 0.6230 0.6230 0.6220 0.6220
9.688000 0.6200 0.6180 0.6180 0.6170 0.6170
9.721289 0.6170 0.6170 0.6170 0.6150 0.6170
9.754000 0.6170 0.6170 0.6170 0.6170 0.6170
9.787289 0.6150 0.6150 0.6150 0.6130 0.6130
9.821000 0.6120 0.6100 0.6100 0.6100 0.6100
9.854289 0.6100 0.6080 0.6080 0.6080 0.6080
9.887000 0.6100 0.6100 0.6080 0.6080 0.6070
9.920289 0.6080 0.6080 0.6080 0.6080 0.6080
9.954000 0.6100 0.6100 0.6100 0.6100 0.6100
9.987289 0.6100 0.6100 0.6080 0.6080 0.6080
10.021000 0.6080 0.6080 0.6080 0.6070 0.6070
10.054289 0.6070 0.6070 0.6070 0.6070 0.6070
10.087000 0.6070 0.6070 0.6070 0.6070 0.6070
10.120289 0.6050 0.6050 0.6050 0.6050 0.6050
10.154000 0.6050 0.6050 0.6050 0.6050 0.6050
10.187289 0.6050 0.6050 0.6050 0.6070 0.6070
10.220000 0.6070 0.6070 0.6070 0.6070 0.6070
10.253289 0.6070 0.6070 0.6070 0.6080 0.6080
10.287000 0.6080 0.6080 0.6080 0.6080 0.6080
10.320289 0.6080 0.6080 0.6100 0.6080 0.6080
10.353000 0.6080 0.6080 0.6080 0.6080 0.6080
10.386289 0.6080 0.6080 0.6100 0.6080 0.6080
10.420000 0.6080 0.6080 0.6080 0.6080 0.6070
10.453289 0.6070 0.6070 0.6070 0.6070 0.6070
10.486000 0.6050 0.6050 0.6050 0.6050 0.6050
10.519289 0.6050 0.6030 0.6030 0.6030 0.6030
10.553000 0.6030 0.6030 0.6030 0.6030 0.6030
10.586289 0.6030 0.6030 0.6030 0.6030 0.6050
10.619000 0.6050 0.6050 0.6050 0.6050 0.6070
10.652289 0.6070 0.6070 0.6070 0.6070 0.6070
10.686000 0.6070 0.6080 0.6080 0.6080 0.6080
10.719289 0.6080 0.6100 0.6100 0.6100 0.6100
10.753000 0.6100 0.6100 0.6100 0.6120 0.6130
10.786289 0.6130 0.6150 0.6150 0.6170 0.6170
10.819000 0.6170 0.6180 0.6180 0.6180 0.6180
10.852289 0.6200 0.6200 0.6200 0.6200 0.6200
10.886000 0.6220 0.6220 0.6230 0.6230 0.6230
10.919289 0.6230 0.6230 0.6250 0.6270 0.6270
10.952000 0.6280 0.6280 0.6300 0.6300 0.6300
10.985289 0.6320 0.6330 0.6370 0.6380 0.6380
11.019000 0.6380 0.6400 0.6400 0.6420 0.6420
11.052289 0.6430 0.6450 0.6450 0.6470 0.6470
11.085000 0.6480 0.6480 0.6480 0.6480 0.6500
11.118289 0.6500 0.6500 0.6520 0.6520 0.6520
11.152000 0.6520 0.6520 0.6530 0.6530 0.6530
11.185289 0.6530 0.6570 0.6580 0.6600 0.6600
11.218000 0.6620 0.6630 0.6650 0.6670 0.6680
11.251289 0.6700 0.6700 0.6700 0.6720 0.6720
11.285000 0.6730 0.6750 0.6750 0.6770 0.6780
11.318289 0.6800 0.6800 0.6800 0.6800 0.6820
11.351000 0.6820 0.6830 0.6850 0.6850 0.6850
11.384289 0.6870 0.6880 0.6880 0.6900 0.6900
11.418000 0.6900 0.6920 0.6920 0.6930 0.6950
11.451289 0.6970 0.6970 0.6980 0.6980 0.7000
11.485000 0.7020 0.7040 0.7040 0.7090 0.7090
11.518289 0.7100 0.7120 0.7140 0.7140 0.7150
11.551000 0.7170 0.7190 0.7190 0.7200 0.7220
11.584289 0.7220 0.7240 0.7250 0.7240 0.7250
11.618000 0.7250 0.7270 0.7290 0.7290 0.7290
11.651289 0.7300 0.7320 0.7320 0.7340 0.7350
11.684000 0.7370 0.7390 0.7400 0.7400 0.7420
11.717289 0.7420 0.7440 0.7450 0.7470 0.7470
11.751000 0.7470 0.7490 0.7500 0.7500 0.7520
11.784289 0.7520 0.7540 0.7540 0.7550 0.7570
11.817000 0.7550 0.7570 0.7570 0.7590 0.7600
11.850289 0.7620 0.7640 0.7650 0.7650 0.7670
11.884000 0.7690 0.7700 0.7700 0.7720 0.7740
11.917289 0.7750 0.7770 0.7790 0.7800 0.7820
11.950000 0.7840 0.7850 0.7870 0.7870 0.7890
11.983289 0.7890 0.7900 0.7920 0.7920 0.7940
12.017000 0.7970 0.7950 0.7970 0.7970 0.7990
12.050289 0.7990 0.7990 0.8010 0.8010 0.8020
12.083000 0.8020 0.8020 0.8020 0.8040 0.8070
12.116289 0.8070 0.8090 0.8110 0.8110 0.8120
12.150000 0.8140 0.8160 0.8170 0.8190 0.8210
12.183289 0.8210 0.8210 0.8220 0.8220 0.8220
12.217000 0.8240 0.8240 0.8260 0.8260 0.8260
12.250289 0.8290 0.8290 0.8310 0.8310 0.8310
12.283000 0.8310 0.8320 0.8320 0.8320 0.8340
12.316289 0.8340 0.8340 0.8340 0.8360 0.8360
12.350000 0.8360 0.8360 0.8360 0.8360 0.8360
12.383289 0.8360 0.8360 0.8360 0.8370 0.8370
12.416000 0.8370 0.8390 0.8390 0.8390 0.8390
12.449289 0.8390 0.8390 0.8390 0.8410 0.8410
12.483000 0.8420 0.8420 0.8420 0.8420 0.8420
12.516289 0.8420 0.8440 0.8440 0.8440 0.8460
12.549000 0.8470 0.8470 0.8490 0.8490 0.8490
12.582289 0.8490 0.8490 0.8510 0.8520 0.8520
12.616000 0.8520 0.8520 0.8520 0.8520 0.8540
12.649289 0.8540 0.8540 0.8540 0.8540 0.8540
12.682000 0.8560 0.8560 0.8560 0.8560 0.8560
12.715289 0.8560 0.8560 0.8570 0.8570 0.8570
12.749000 0.8570 0.8570 0.8590 0.8590 0.8590
12.782289 0.8590 0.8590 0.8590 0.8590 0.8610
12.815000 0.8610 0.8610 0.8610 0.8610 0.8610
12.848289 0.8610 0.8610 0.8610 0.8610 0.8610
12.882000 0.8610 0.8610 0.8610 0.8610 0.8610
12.915289 0.8620 0.8620 0.8620 0.8620 0.8620
12.949000 0.8620 0.8640 0.8640 0.8640 0.8640
12.982289 0.8640 0.8640 0.8640 0.8660 0.8660
13.015000 0.8660 0.8660 0.8660 0.8660 0.8660
13.048289 0.8670 0.8670 0.8670 0.8670 0.8670
13.082000 0.8670 0.8670 0.8670 0.8690 0.8690
13.115289 0.8690 0.8690 0.8690 0.8690 0.8690
13.148000 0.8690 0.8690 0.8690 0.8690 0.8690
13.181289 0.8690 0.8690 0.8690 0.8690 0.8690
13.215000 0.8690 0.8690 0.8690 0.8690 0.8690
13.248289 0.8690 0.8690 0.8690 0.8690 0.8690
13.281000 0.8670 0.8670 0.8670 0.8670 0.8670
13.314289 0.8670 0.8670 0.8670 0.8660 0.8640
13.348000 0.8640 0.8640 0.8640 0.8640 0.8640
13.381289 0.8640 0.8640 0.8640 0.8620 0.8610
13.414000 0.8610 0.8610 0.8610 0.8610 0.8590
13.447289 0.8590 0.8570 0.8560 0.8560 0.8560
13.481000 0.8540 0.8540 0.8540 0.8520 0.8520
13.514289 0.8510 0.8510 0.8490 0.8470 0.8470
13.547000 0.8460 0.8460 0.8440 0.8440 0.8440
13.580289 0.8420 0.8420 0.8420 0.8410 0.8390
13.614000 0.8390 0.8370 0.8370 0.8370 0.8370
13.647289 0.8370 0.8370 0.8340 0.8320 0.8320
13.681000 0.8320 0.8290 0.8290 0.8290 0.8270
13.714289 0.8270 0.8260 0.8260 0.8260 0.8260
13.747000 0.8260 0.8260 0.8240 0.8240 0.8240
13.780289 0.8240 0.8240 0.8240 0.8220 0.8210
13.814000 0.8190 0.8190 0.8190 0.8170 0.8170
13.847289 0.8160 0.8160 0.8160 0.8140 0.8120
13.880000 0.8120 0.8110 0.8090 0.8070 0.8070
13.913289 0.8040 0.8060 0.8020 0.8020 0.8020
13.947000 0.8020 0.8020 0.8020 0.8020 0.8010
13.980289 0.8020 0.8020 0.8020 0.8010 0.8010
14.013000 0.7990 0.7990 0.7990 0.7990 0.7970
14.046289 0.7970 0.7970 0.7950 0.7950 0.7950
14.080000 0.7940 0.7940 0.7940 0.7940 0.7920
14.113289 0.7900 0.7900 0.7890 0.7890 0.7890
14.146000 0.7870 0.7870 0.7870 0.7870 0.7850
14.179289 0.7850 0.7850 0.7850 0.7850 0.7850
14.213000 0.7840 0.7820 0.7820 0.7800 0.7800
14.246289 0.7800 0.7800 0.7790 0.7770 0.7770
14.279000 0.7770 0.7770 0.7740 0.7720 0.7720
14.312289 0.7720 0.7700 0.7700 0.7690 0.7690
14.346000 0.7690 0.7690 0.7670 0.7650 0.7650
14.379289 0.7640 0.7640 0.7640 0.7620 0.7600
14.413000 0.7600 0.7600 0.7600 0.7620 0.7620
14.446289 0.7620 0.7620 0.7620 0.7620 0.7600
14.479000 0.7600 0.7600 0.7600 0.7590 0.7590
14.512289 0.7570 0.7550 0.7550 0.7540 0.7520
14.546000 0.7520 0.7520 0.7520 0.7520 0.7520
14.579289 0.7520 0.7520 0.7520 0.7520 0.7500
14.612000 0.7520 0.7520 0.7520 0.7520 0.7520
14.645289 0.7520 0.7520 0.7520 0.7500 0.7500
14.679000 0.7500 0.7500 0.7500 0.7490 0.7490
14.712289 0.7490 0.7490 0.7490 0.7470 0.7470
14.745000 0.7470 0.7470 0.7470 0.7470 0.7450
14.778289 0.7450 0.7450 0.7450 0.7470 0.7470
14.812000 0.7470 0.7470 0.7470 0.7470 0.7470
14.845289 0.7470 0.7470 0.7470 0.7450 0.7450
14.878000 0.7450 0.7450 0.7450 0.7450 0.7450
14.911289 0.7440 0.7420 0.7420 0.7400 0.7400
14.945000 0.7390 0.7390 0.7390 0.7390 0.7370
14.978289 0.7350 0.7350 0.7370 0.7350 0.7350
15.011000 0.7340 0.7320 0.7320 0.7320 0.7320
15.044289 0.7320 0.7300 0.7300 0.7300 0.7300
15.078000 0.7300 0.7290 0.7290 0.7290 0.7290
15.111289 0.7270 0.7270 0.7270 0.7270 0.7250
15.145000 0.7250 0.7250 0.7250 0.7250 0.7240
15.178289 0.7240 0.7220 0.7220 0.7220 0.7220
15.211000 0.7220 0.7200 0.7200 0.7200 0.7200
15.244289 0.7200 0.7220 0.7200 0.7200 0.7200
15.278000 0.7200 0.7200 0.7200 0.7220 0.7200
15.311289 0.7200 0.7200 0.7200 0.7200 0.7200
15.344000 0.7200 0.7200 0.7200 0.7200 0.7200
15.377289 0.7200 0.7200 0.7200 0.7200 0.7190
15.411000 0.7190 0.7200 0.7200 0.7200 0.7200
15.444289 0.7200 0.7200 0.7200 0.7200 0.7200
15.477000 0.7200 0.7200 0.7200 0.7200 0.7200
15.510289 0.7190 0.7190 0.7200 0.7220 0.7220
15.544000 0.7220 0.7220 0.7240 0.7240 0.7220
15.577289 0.7240 0.7240 0.7240 0.7240 0.7250
15.610000 0.7250 0.7240 0.7240 0.7240 0.7240
15.643289 0.7250 0.7250 0.7250 0.7250 0.7250
15.677000 0.7250 0.7250 0.7250 0.7250 0.7250
15.710289 0.7250 0.7250 0.7250 0.7240 0.7250
15.743000 0.7250 0.7240 0.7240 0.7240 0.7240
15.776289 0.7240 0.7240 0.7240 0.7220 0.7220
15.810000 0.7240 0.7240 0.7240 0.7240 0.7250
15.843289 0.7240 0.7250 0.7270 0.7270 0.7270
15.877000 0.7270 0.7270 0.7270 0.7290 0.7290
15.910289 0.7290 0.7300 0.7300 0.7320 0.7340
15.943000 0.7340 0.7340 0.7340 0.7350 0.7350
15.976289 0.7350 0.7350
##END=
