##TITLE=1,4-BUTANEDISULFONIC ACID, 1,4-DITHIO-, S,S'-BIS(2-AMINOETHYL ESTER), DIHYDROBROMIDE
##JCAMP-DX=4.24
##DATA TYPE=INFRARED SPECTRUM
##CLASS=COBLENTZ III
##ORIGIN=SOUTHERN RESEARCH INSTITUTE
##OWNER=COBLENTZ SOCIETY
Collection (C) 2018 copyright by the U.S. Secretary of Commerce
on behalf of the United States of America. All rights reserved.
##DATE=1962/07/02
##MOLFORM=C8 H22 Br2 N2 O4 S4
##SOURCE REFERENCE=COBLENTZ NO. 7415
##$NIST ID=B6007415
##$NIST SOURCE=COBLENTZ
##$NIST IMAGE=cob7415
##SPECTROMETER/DATA SYSTEM=PERKIN-ELMER 221 (GRATING)
##INSTRUMENT PARAMETERS=FILTER AT 980 CM^-^1. GRATING 4000-1428 CM^-^1, NaCl PRISM 1428-650 CM^-^1
##STATE=SOLID (1 mg / 650 mg, KBr DISC)
$$SPECTRAL CONTAMINATION DUE TO H2O AROUND 3450 CM^-^1
##SAMPLING PROCEDURE=TRANSMISSION
##RESOLUTION=2
##DATA PROCESSING=DIGITIZED BY NIST FROM HARD COPY (FROM TWO SEGMENTS)
##XUNITS=1/CM
##YUNITS=TRANSMITTANCE
##XFACTOR=1.000000
##YFACTOR=1
##DELTAX=1.248699
##FIRSTX=649.372
##LASTX=4040.84
##FIRSTY=0.959
##MAXX=4040.84
##MINX=649.372
##MAXY=0.975
##MINY=0.223
##NPOINTS=2717
##XYDATA=(X++(Y..Y))
649.372000 0.9590 0.9590 0.9570 0.9570 0.9570
655.615495 0.9570 0.9560 0.9560 0.9560 0.9551
661.858990 0.9541 0.9540 0.9521 0.9511 0.9510
668.102485 0.9501 0.9491 0.9472 0.9461 0.9460
674.345980 0.9451 0.9450 0.9441 0.9422 0.9420
680.589475 0.9411 0.9410 0.9401 0.9400 0.9400
686.832970 0.9392 0.9373 0.9370 0.9362 0.9360
693.076465 0.9352 0.9318 0.9302 0.9276 0.9262
699.319960 0.9244 0.9240 0.9217 0.9202 0.9169
705.563455 0.9145 0.9110 0.9070 0.9045 0.9011
711.806950 0.8985 0.8951 0.8838 0.8757 0.8697
718.050445 0.8602 0.8535 0.8304 0.8086 0.7907
724.293940 0.7651 0.7362 0.7074 0.6779 0.6481
730.537435 0.6183 0.5885 0.5580 0.5732 0.6658
736.780930 0.7534 0.8258 0.8540 0.8509 0.8270
743.024425 0.7906 0.7544 0.7181 0.6825 0.6477
749.267920 0.6127 0.5772 0.5357 0.4900 0.4437
755.511415 0.4457 0.5356 0.6534 0.7035 0.7315
761.754910 0.7565 0.7565 0.7539 0.7443 0.7619
767.998405 0.8086 0.8647 0.9098 0.9355 0.9553
774.241900 0.9624 0.9664 0.9694 0.9715 0.9720
780.485395 0.9720 0.9724 0.9739 0.9750 0.9750
786.728890 0.9750 0.9750 0.9750 0.9750 0.9750
792.972385 0.9750 0.9750 0.9750 0.9750 0.9743
799.215880 0.9730 0.9730 0.9730 0.9726 0.9720
805.459375 0.9720 0.9717 0.9710 0.9710 0.9710
811.702870 0.9707 0.9700 0.9694 0.9680 0.9680
817.946365 0.9677 0.9670 0.9667 0.9660 0.9657
824.189860 0.9650 0.9650 0.9645 0.9630 0.9628
830.433355 0.9620 0.9618 0.9608 0.9600 0.9598
836.676850 0.9590 0.9586 0.9570 0.9568 0.9558
842.920345 0.9544 0.9518 0.9508 0.9493 0.9457
849.163840 0.9435 0.9408 0.9398 0.9387 0.9369
855.407335 0.9357 0.9340 0.9334 0.9284 0.9233
861.650830 0.9169 0.9065 0.8924 0.8760 0.8452
867.894325 0.8127 0.7629 0.7136 0.6806 0.6603
874.137820 0.8490 0.8540 0.9358 0.9510 0.9520
880.381315 0.9520 0.9520 0.9520 0.9520 0.9520
886.624810 0.9510 0.9510 0.9510 0.9510 0.9500
892.868305 0.9500 0.9500 0.9490 0.9471 0.9460
899.111800 0.9450 0.9440 0.9421 0.9401 0.9372
905.355295 0.9351 0.9313 0.9255 0.9204 0.9155
911.598790 0.9060 0.8987 0.8908 0.8847 0.8708
917.842285 0.8558 0.8270 0.8100 0.7943 0.7656
924.085780 0.7483 0.7324 0.7173 0.7016 0.7522
930.329275 0.7828 0.8280 0.8468 0.8498 0.8500
936.572770 0.8325 0.8105 0.7878 0.7830 0.8134
942.816265 0.8359 0.8868 0.9375 0.9498 0.9530
949.059760 0.9577 0.9597 0.9607 0.9610 0.9595
955.303255 0.9590 0.9590 0.9576 0.9570 0.9563
961.546750 0.9553 0.9550 0.9543 0.9526 0.9513
967.790245 0.9503 0.9480 0.9470 0.9463 0.9447
974.033740 0.9421 0.9404 0.9394 0.9365 0.9331
980.277235 0.9308 0.9282 0.9252 0.9222 0.9198
986.520730 0.9184 0.9168 0.9148 0.9134 0.9107
992.764225 0.9067 0.9039 0.9013 0.8989 0.8964
999.007720 0.8945 0.8913 0.8847 0.8799 0.8769
1005.251215 0.8709 0.8629 0.8540 0.8445 0.8395
1011.494710 0.8395 0.8458 0.8554 0.8637 0.8709
1017.738205 0.8735 0.8745 0.8772 0.8804 0.8819
1023.981700 0.8834 0.8840 0.8840 0.8840 0.8840
1030.225195 0.8840 0.8840 0.8844 0.8850 0.8850
1036.468690 0.8850 0.8846 0.8840 0.8840 0.8836
1042.712185 0.8830 0.8823 0.8807 0.8800 0.8797
1048.955680 0.8787 0.8777 0.8757 0.8717 0.8684
1055.199175 0.8661 0.8613 0.8535 0.8494 0.8458
1061.442670 0.8348 0.8186 0.8093 0.7969 0.7760
1067.686165 0.7486 0.7211 0.6970 0.6719 0.6460
1073.929660 0.6325 0.6681 0.7198 0.7445 0.7751
1080.173155 0.7868 0.7844 0.7757 0.7638 0.7508
1086.416650 0.7322 0.7102 0.6871 0.6643 0.6433
1092.660145 0.6324 0.6230 0.6267 0.6570 0.7038
1098.903640 0.7102 0.7192 0.7190 0.7033 0.6972
1105.147135 0.6865 0.6506 0.6138 0.5769 0.5392
1111.390630 0.5143 0.4884 0.4623 0.4355 0.4095
1117.634125 0.3818 0.3559 0.3291 0.3033 0.2758
1123.877620 0.2230 0.2241 0.3409 0.4144 0.4890
1130.121115 0.5258 0.5941 0.6519 0.6696 0.6991
1136.364610 0.7048 0.7031 0.6992 0.6790 0.7093
1142.608105 0.7251 0.7747 0.8375 0.8697 0.8793
1148.851600 0.8928 0.9031 0.9094 0.9145 0.9177
1155.095095 0.9198 0.9209 0.9219 0.9246 0.9250
1161.338590 0.9259 0.9260 0.9260 0.9260 0.9260
1167.582085 0.9260 0.9260 0.9260 0.9260 0.9260
1173.825580 0.9252 0.9250 0.9250 0.9242 0.9224
1180.069075 0.9212 0.9202 0.9185 0.9149 0.9117
1186.312570 0.9095 0.9068 0.9038 0.8978 0.8938
1192.556065 0.8893 0.8851 0.8804 0.8747 0.8624
1198.799560 0.8432 0.8224 0.7881 0.7621 0.7416
1205.043055 0.7214 0.7008 0.6666 0.6895 0.8059
1211.286550 0.8635 0.8792 0.8912 0.8985 0.9137
1217.530045 0.9216 0.9232 0.9240 0.9228 0.9220
1223.773540 0.9214 0.9210 0.9198 0.9184 0.9162
1230.017035 0.9138 0.9113 0.9089 0.9063 0.9039
1236.260530 0.9008 0.8963 0.8918 0.8895 0.8890
1242.504025 0.8874 0.8850 0.8825 0.8805 0.8795
1248.747520 0.8780 0.8658 0.8452 0.8311 0.8198
1254.991015 0.8073 0.7879 0.7670 0.7536 0.7460
1261.234510 0.7566 0.7752 0.7877 0.8002 0.8130
1267.478005 0.8273 0.8427 0.8565 0.8638 0.8638
1273.721500 0.8460 0.8160 0.8034 0.7880 0.7701
1279.964995 0.7601 0.7552 0.7413 0.7153 0.6978
1286.208490 0.6826 0.6613 0.6400 0.6459 0.6642
1292.451985 0.6888 0.7218 0.7390 0.7291 0.6966
1298.695480 0.6685 0.6497 0.6260 0.5894 0.5560
1304.938975 0.5341 0.5066 0.4687 0.4476 0.4257
1311.182470 0.4038 0.3767 0.3420 0.3569 0.4225
1317.425965 0.4875 0.5462 0.5970 0.6704 0.7170
1323.669460 0.7340 0.7335 0.7282 0.7126 0.6997
1329.912955 0.6915 0.6814 0.6643 0.6489 0.6483
1336.156450 0.6531 0.6797 0.7213 0.7322 0.7459
1342.399945 0.7889 0.8420 0.8860 0.8953 0.8998
1348.643440 0.9192 0.9223 0.9263 0.9303 0.9341
1354.886935 0.9351 0.9360 0.9360 0.9359 0.9339
1361.130430 0.9319 0.9299 0.9270 0.9239 0.9189
1367.373925 0.9140 0.9100 0.9050 0.9040 0.9040
1373.617420 0.8982 0.8912 0.8814 0.8723 0.8547
1379.860915 0.8378 0.8342 0.8312 0.8282 0.8261
1386.104410 0.8168 0.8050 0.7931 0.7792 0.7735
1392.347905 0.7658 0.7650 0.7872 0.8183 0.8738
1398.591400 0.8932 0.9045 0.9086 0.9202 0.9246
1404.834895 0.9284 0.9315 0.9354 0.9360 0.9360
1411.078390 0.9360 0.9360 0.9360 0.9360 0.9352
1417.321885 0.9350 0.9350 0.9350 0.9350 0.9342
1423.565380 0.9325 0.9320 0.9312 0.9302 0.9300
1429.808875 0.9293 0.9260 0.9243 0.9218 0.9174
1436.052370 0.9117 0.9072 0.9053 0.9015 0.8965
1442.295865 0.8915 0.8866 0.8775 0.8666 0.8463
1448.539360 0.8241 0.8032 0.7810 0.7587 0.7231
1454.782855 0.7080 0.7233 0.7515 0.7655 0.7670
1461.026350 0.7664 0.7527 0.7296 0.7056 0.6799
1467.269845 0.6902 0.7576 0.8042 0.8121 0.8119
1473.513340 0.7869 0.7448 0.7079 0.6744 0.6416
1479.756835 0.6087 0.5760 0.5431 0.5270 0.5887
1486.000330 0.6876 0.7742 0.8235 0.8319 0.8454
1492.243825 0.8564 0.8624 0.8669 0.8807 0.8968
1498.487320 0.9027 0.9078 0.9127 0.9169 0.9198
1504.730815 0.9233 0.9259 0.9278 0.9290 0.9290
1510.974310 0.9290 0.9290 0.9282 0.9270 0.9270
1517.217805 0.9270 0.9266 0.9256 0.9246 0.9233
1523.461300 0.9220 0.9220 0.9220 0.9217 0.9210
1529.704795 0.9213 0.9220 0.9217 0.9210 0.9207
1535.948290 0.9200 0.9197 0.9190 0.9190 0.9187
1542.191785 0.9180 0.9175 0.9160 0.9157 0.9150
1548.435280 0.9148 0.9140 0.9138 0.9130 0.9125
1554.678775 0.9110 0.9108 0.9100 0.9098 0.9084
1560.922270 0.9056 0.9034 0.9006 0.8985 0.8956
1567.165765 0.8933 0.8892 0.8842 0.8795 0.8764
1573.409260 0.8717 0.8625 0.8517 0.8411 0.8271
1579.652755 0.8200 0.8113 0.7964 0.7814 0.7673
1585.896250 0.7604 0.7528 0.7400 0.7427 0.7773
1592.139745 0.7955 0.8294 0.8520 0.8841 0.8851
1598.383240 0.8880 0.8890 0.8890 0.8890 0.8890
1604.626735 0.8890 0.8890 0.8890 0.8890 0.8890
1610.870230 0.8890 0.8890 0.8880 0.8890 0.8890
1617.113725 0.8890 0.8880 0.8880 0.8861 0.8851
1623.357220 0.8850 0.8850 0.8850 0.8850 0.8850
1629.600715 0.8850 0.8841 0.8849 0.8859 0.8860
1635.844210 0.8878 0.8889 0.8890 0.8899 0.8900
1642.087705 0.8909 0.8927 0.8930 0.8938 0.8940
1648.331200 0.8948 0.8950 0.8950 0.8958 0.8960
1654.574695 0.8960 0.8960 0.8960 0.8976 0.8980
1660.818190 0.8980 0.8980 0.8988 0.8998 0.9000
1667.061685 0.9008 0.9010 0.9025 0.9030 0.9037
1673.305180 0.9040 0.9047 0.9050 0.9057 0.9060
1679.548675 0.9060 0.9060 0.9060 0.9060 0.9074
1685.792170 0.9080 0.9080 0.9080 0.9080 0.9080
1692.035665 0.9080 0.9080 0.9080 0.9080 0.9086
1698.279160 0.9090 0.9090 0.9090 0.9090 0.9090
1704.522655 0.9090 0.9096 0.9100 0.9100 0.9100
1710.766150 0.9100 0.9100 0.9100 0.9106 0.9110
1717.009645 0.9110 0.9110 0.9110 0.9110 0.9110
1723.253140 0.9110 0.9110 0.9120 0.9130 0.9130
1729.496635 0.9130 0.9130 0.9130 0.9130 0.9130
1735.740130 0.9130 0.9135 0.9140 0.9140 0.9140
1741.983625 0.9140 0.9140 0.9140 0.9140 0.9140
1748.227120 0.9140 0.9140 0.9140 0.9140 0.9140
1754.470615 0.9140 0.9140 0.9140 0.9140 0.9140
1760.714110 0.9140 0.9140 0.9140 0.9140 0.9137
1766.957605 0.9130 0.9130 0.9123 0.9110 0.9110
1773.201100 0.9107 0.9100 0.9097 0.9090 0.9090
1779.444595 0.9093 0.9100 0.9100 0.9100 0.9100
1785.688090 0.9100 0.9100 0.9100 0.9100 0.9098
1791.931585 0.9090 0.9090 0.9088 0.9080 0.9080
1798.175080 0.9080 0.9080 0.9080 0.9076 0.9060
1804.418575 0.9060 0.9060 0.9060 0.9060 0.9060
1810.662070 0.9060 0.9060 0.9060 0.9060 0.9060
1816.905565 0.9060 0.9060 0.9060 0.9060 0.9060
1823.149060 0.9060 0.9060 0.9060 0.9060 0.9059
1829.392555 0.9050 0.9050 0.9050 0.9050 0.9050
1835.636050 0.9050 0.9050 0.9060 0.9060 0.9060
1841.879545 0.9060 0.9060 0.9050 0.9050 0.9040
1848.123040 0.9040 0.9010 0.9000 0.8990 0.8961
1854.366535 0.8940 0.8911 0.8910 0.8910 0.8910
1860.610030 0.8910 0.8910 0.8929 0.8930 0.8930
1866.853525 0.8930 0.8930 0.8930 0.8939 0.8940
1873.097020 0.8940 0.8940 0.8940 0.8949 0.8950
1879.340515 0.8950 0.8950 0.8950 0.8950 0.8950
1885.584010 0.8950 0.8950 0.8950 0.8950 0.8950
1891.827505 0.8942 0.8940 0.8940 0.8940 0.8940
1898.071000 0.8940 0.8932 0.8930 0.8930 0.8930
1904.314495 0.8930 0.8930 0.8915 0.8910 0.8910
1910.557990 0.8910 0.8910 0.8910 0.8903 0.8900
1916.801485 0.8900 0.8893 0.8890 0.8890 0.8883
1923.044980 0.8880 0.8880 0.8866 0.8860 0.8853
1929.288475 0.8843 0.8840 0.8833 0.8817 0.8810
1935.531970 0.8804 0.8800 0.8794 0.8790 0.8784
1941.775465 0.8774 0.8770 0.8758 0.8744 0.8746
1948.018960 0.8744 0.8740 0.8740 0.8740 0.8740
1954.262455 0.8740 0.8740 0.8740 0.8740 0.8740
1960.505950 0.8740 0.8740 0.8740 0.8730 0.8705
1966.749445 0.8685 0.8675 0.8660 0.8645 0.8635
1972.992940 0.8625 0.8611 0.8595 0.8585 0.8575
1979.236435 0.8561 0.8536 0.8484 0.8418 0.8381
1985.479930 0.8357 0.8340 0.8336 0.8330 0.8322
1991.723425 0.8302 0.8282 0.8254 0.8226 0.8209
1997.966920 0.8171 0.8129 0.8091 0.8045 0.8001
2004.210415 0.7955 0.7912 0.7873 0.7845 0.7816
2010.453910 0.7799 0.7776 0.7763 0.7743 0.7719
2016.697405 0.7689 0.7648 0.7606 0.7600 0.7596
2022.940900 0.7594 0.7600 0.7607 0.7639 0.7718
2029.184395 0.7800 0.7811 0.7841 0.7864 0.7881
2035.427890 0.7907 0.7920 0.7942 0.7999 0.8034
2041.671385 0.8047 0.8064 0.8088 0.8124 0.8130
2047.914880 0.8134 0.8140 0.8170 0.8220 0.8220
2054.158375 0.8224 0.8230 0.8230 0.8230 0.8234
2060.401870 0.8269 0.8324 0.8330 0.8334 0.8340
2066.645365 0.8340 0.8347 0.8360 0.8364 0.8370
2072.888860 0.8370 0.8377 0.8394 0.8407 0.8424
2079.132355 0.8437 0.8457 0.8481 0.8511 0.8537
2085.375850 0.8557 0.8574 0.8584 0.8590 0.8590
2091.619345 0.8590 0.8594 0.8607 0.8620 0.8624
2097.862840 0.8634 0.8640 0.8644 0.8650 0.8657
2104.106335 0.8670 0.8670 0.8670 0.8674 0.8680
2110.349830 0.8680 0.8684 0.8690 0.8690 0.8690
2116.593325 0.8690 0.8690 0.8690 0.8690 0.8690
2122.836820 0.8690 0.8690 0.8690 0.8690 0.8690
2129.080315 0.8690 0.8690 0.8690 0.8690 0.8686
2135.323810 0.8680 0.8680 0.8680 0.8680 0.8676
2141.567305 0.8670 0.8670 0.8670 0.8670 0.8670
2147.810800 0.8670 0.8670 0.8670 0.8670 0.8670
2154.054295 0.8670 0.8670 0.8670 0.8674 0.8680
2160.297790 0.8680 0.8680 0.8684 0.8690 0.8690
2166.541285 0.8690 0.8690 0.8690 0.8686 0.8680
2172.784780 0.8676 0.8670 0.8663 0.8646 0.8640
2179.028275 0.8636 0.8626 0.8620 0.8613 0.8596
2185.271770 0.8590 0.8586 0.8569 0.8550 0.8546
2191.515265 0.8540 0.8540 0.8544 0.8550 0.8550
2197.758760 0.8550 0.8550 0.8557 0.8570 0.8574
2204.002255 0.8580 0.8580 0.8580 0.8580 0.8576
2210.245750 0.8563 0.8550 0.8550 0.8546 0.8540
2216.489245 0.8540 0.8536 0.8526 0.8520 0.8520
2222.732740 0.8513 0.8500 0.8496 0.8490 0.8490
2228.976235 0.8486 0.8480 0.8476 0.8463 0.8457
2235.219730 0.8470 0.8470 0.8470 0.8470 0.8470
2241.463225 0.8470 0.8470 0.8470 0.8463 0.8446
2247.706720 0.8440 0.8440 0.8436 0.8430 0.8426
2253.950215 0.8420 0.8413 0.8396 0.8390 0.8390
2260.193710 0.8390 0.8390 0.8390 0.8390 0.8386
2266.437205 0.8380 0.8380 0.8380 0.8380 0.8376
2272.680700 0.8370 0.8370 0.8370 0.8374 0.8380
2278.924195 0.8380 0.8376 0.8370 0.8370 0.8370
2285.167690 0.8366 0.8364 0.8370 0.8370 0.8370
2291.411185 0.8370 0.8370 0.8370 0.8370 0.8370
2297.654680 0.8370 0.8370 0.8370 0.8370 0.8366
2303.898175 0.8360 0.8353 0.8340 0.8336 0.8326
2310.141670 0.8320 0.8316 0.8303 0.8290 0.8286
2316.385165 0.8276 0.8270 0.8266 0.8253 0.8240
2322.628660 0.8236 0.8226 0.8216 0.8203 0.8186
2328.872155 0.8176 0.8166 0.8153 0.8133 0.8120
2335.115650 0.8120 0.8116 0.8103 0.8090 0.8090
2341.359145 0.8086 0.8076 0.8074 0.8080 0.8080
2347.602640 0.8080 0.8080 0.8080 0.8080 0.8076
2353.846135 0.8070 0.8070 0.8066 0.8053 0.8036
2360.089630 0.8034 0.8036 0.8023 0.7999 0.7976
2366.333125 0.7970 0.7963 0.7950 0.7943 0.7926
2372.576620 0.7916 0.7906 0.7889 0.7866 0.7856
2378.820115 0.7843 0.7826 0.7813 0.7782 0.7735
2385.063610 0.7681 0.7615 0.7571 0.7477 0.7359
2391.307105 0.7325 0.7278 0.7233 0.7213 0.7196
2397.550600 0.7179 0.7160 0.7160 0.7156 0.7150
2403.794095 0.7150 0.7154 0.7171 0.7190 0.7216
2410.037590 0.7308 0.7430 0.7507 0.7557 0.7657
2416.281085 0.7735 0.7775 0.7811 0.7845 0.7874
2422.524580 0.7880 0.7887 0.7900 0.7904 0.7910
2428.768075 0.7914 0.7920 0.7920 0.7920 0.7920
2435.011570 0.7920 0.7920 0.7920 0.7920 0.7920
2441.255065 0.7920 0.7920 0.7920 0.7920 0.7916
2447.498560 0.7906 0.7893 0.7880 0.7876 0.7866
2453.742055 0.7860 0.7856 0.7843 0.7830 0.7826
2459.985550 0.7816 0.7806 0.7793 0.7776 0.7770
2466.229045 0.7766 0.7760 0.7756 0.7743 0.7723
2472.472540 0.7706 0.7693 0.7676 0.7666 0.7660
2478.716035 0.7660 0.7660 0.7664 0.7674 0.7680
2484.959530 0.7687 0.7700 0.7700 0.7700 0.7693
2491.203025 0.7676 0.7655 0.7619 0.7582 0.7539
2497.446520 0.7516 0.7495 0.7451 0.7413 0.7396
2503.690015 0.7379 0.7345 0.7302 0.7248 0.7188
2509.933510 0.7132 0.7085 0.7053 0.7036 0.7023
2516.177005 0.7010 0.7010 0.7017 0.7034 0.7044
2522.420500 0.7054 0.7067 0.7080 0.7080 0.7080
2528.663995 0.7080 0.7080 0.7073 0.7056 0.7050
2534.907490 0.7046 0.7036 0.7030 0.7030 0.7023
2541.150985 0.7010 0.7010 0.7017 0.7034 0.7044
2547.394480 0.7065 0.7097 0.7121 0.7144 0.7161
2553.637975 0.7187 0.7207 0.7231 0.7250 0.7254
2559.881470 0.7264 0.7270 0.7270 0.7270 0.7277
2566.124965 0.7290 0.7290 0.7290 0.7290 0.7290
2572.368460 0.7290 0.7283 0.7270 0.7266 0.7260
2578.611955 0.7260 0.7260 0.7245 0.7220 0.7213
2584.855450 0.7193 0.7173 0.7130 0.7050 0.6996
2591.098945 0.6986 0.6965 0.6925 0.6893 0.6873
2597.342440 0.6860 0.6856 0.6850 0.6850 0.6850
2603.585935 0.6854 0.6867 0.6880 0.6884 0.6894
2609.829430 0.6904 0.6921 0.6944 0.6954 0.6960
2616.072925 0.6967 0.6980 0.6980 0.6980 0.6980
2622.316420 0.6973 0.6960 0.6956 0.6950 0.6950
2628.559915 0.6950 0.6950 0.6950 0.6946 0.6940
2634.803410 0.6936 0.6923 0.6910 0.6906 0.6896
2641.046905 0.6890 0.6886 0.6873 0.6856 0.6850
2647.290400 0.6843 0.6815 0.6771 0.6725 0.6693
2653.533895 0.6665 0.6625 0.6593 0.6569 0.6543
2659.777390 0.6526 0.6513 0.6500 0.6493 0.6480
2666.020885 0.6480 0.6480 0.6476 0.6470 0.6470
2672.264380 0.6463 0.6450 0.6446 0.6440 0.6433
2678.507875 0.6420 0.6413 0.6396 0.6386 0.6373
2684.751370 0.6349 0.6326 0.6316 0.6299 0.6273
2690.994865 0.6253 0.6229 0.6199 0.6165 0.6129
2697.238360 0.6084 0.6018 0.5958 0.5894 0.5835
2703.481855 0.5795 0.5737 0.5654 0.5577 0.5494
2709.725350 0.5421 0.5348 0.5288 0.5231 0.5193
2715.968845 0.5169 0.5135 0.5106 0.5096 0.5090
2722.212340 0.5090 0.5094 0.5137 0.5215 0.5277
2728.455835 0.5381 0.5476 0.5553 0.5643 0.5704
2734.699330 0.5710 0.5714 0.5724 0.5730 0.5737
2740.942825 0.5768 0.5804 0.5810 0.5810 0.5810
2747.186320 0.5806 0.5800 0.5793 0.5776 0.5766
2753.429815 0.5756 0.5750 0.5720 0.5663 0.5639
2759.673310 0.5609 0.5579 0.5553 0.5529 0.5506
2765.916805 0.5496 0.5490 0.5483 0.5466 0.5456
2772.160300 0.5450 0.5446 0.5433 0.5416 0.5406
2778.403795 0.5400 0.5396 0.5383 0.5363 0.5339
2784.647290 0.5309 0.5279 0.5253 0.5225 0.5196
2790.890785 0.5179 0.5153 0.5125 0.5093 0.5069
2797.134280 0.5046 0.5040 0.5040 0.5040 0.5036
2803.377775 0.5030 0.5023 0.5010 0.5010 0.5010
2809.621270 0.5006 0.5000 0.4996 0.4990 0.4990
2815.864765 0.4986 0.4954 0.4903 0.4879 0.4853
2822.108260 0.4840 0.4836 0.4823 0.4806 0.4763
2828.351755 0.4693 0.4665 0.4633 0.4583 0.4476
2834.595250 0.4393 0.4376 0.4366 0.4345 0.4287
2840.838745 0.4186 0.4095 0.4066 0.4060 0.4053
2847.082240 0.4040 0.4036 0.4026 0.4016 0.4006
2853.325735 0.4000 0.3993 0.3976 0.3966 0.3960
2859.569230 0.3956 0.3943 0.3904 0.3841 0.3806
2865.812725 0.3800 0.3800 0.3793 0.3776 0.3770
2872.056220 0.3693 0.3553 0.3533 0.3516 0.3506
2878.299715 0.3496 0.3479 0.3453 0.3425 0.3382
2884.543210 0.3339 0.3320 0.3316 0.3310 0.3310
2890.786705 0.3306 0.3300 0.3296 0.3290 0.3283
2897.030200 0.3270 0.3266 0.3260 0.3260 0.3256
2903.273695 0.3235 0.3199 0.3169 0.3143 0.3119
2909.517190 0.3093 0.3069 0.3046 0.3036 0.3023
2915.760685 0.3010 0.3010 0.3010 0.3010 0.3017
2922.004180 0.3030 0.3030 0.3030 0.3030 0.3030
2928.247675 0.3023 0.3006 0.2985 0.2953 0.2925
2934.491170 0.2874 0.2801 0.2720 0.2659 0.2633
2940.734665 0.2609 0.2583 0.2555 0.2519 0.2493
2946.978160 0.2476 0.2459 0.2444 0.2446 0.2440
2953.221655 0.2440 0.2444 0.2457 0.2481 0.2507
2959.465150 0.2520 0.2524 0.2537 0.2565 0.2594
2965.708645 0.2600 0.2607 0.2620 0.2620 0.2620
2971.952140 0.2624 0.2630 0.2630 0.2634 0.2640
2978.195635 0.2644 0.2650 0.2650 0.2657 0.2674
2984.439130 0.2687 0.2711 0.2734 0.2762 0.2815
2990.682625 0.2844 0.2850 0.2850 0.2843 0.2819
2996.926120 0.2793 0.2769 0.2746 0.2707 0.2646
3003.169615 0.2644 0.2657 0.2677 0.2705 0.2774
3009.413110 0.2872 0.2943 0.3019 0.3065 0.3094
3015.656605 0.3104 0.3117 0.3141 0.3171 0.3197
3021.900100 0.3225 0.3257 0.3285 0.3321 0.3362
3028.143595 0.3415 0.3458 0.3501 0.3531 0.3565
3034.387090 0.3601 0.3635 0.3675 0.3711 0.3741
3040.630585 0.3779 0.3825 0.3861 0.3898 0.3959
3046.874080 0.4028 0.4071 0.4105 0.4149 0.4195
3053.117575 0.4235 0.4278 0.4321 0.4358 0.4405
3059.361070 0.4448 0.4495 0.4550 0.4619 0.4665
3065.604565 0.4708 0.4758 0.4805 0.4848 0.4891
3071.848060 0.4928 0.4975 0.5019 0.5069 0.5115
3078.091555 0.5170 0.5238 0.5285 0.5314 0.5327
3084.335050 0.5344 0.5368 0.5419 0.5469 0.5519
3090.578545 0.5568 0.5607 0.5620 0.5624 0.5703
3096.822040 0.5841 0.5878 0.5929 0.5979 0.6047
3103.065535 0.6140 0.6197 0.6217 0.6241 0.6267
3109.309030 0.6284 0.6301 0.6324 0.6334 0.6370
3115.552525 0.6431 0.6457 0.6496 0.6573 0.6692
3121.796020 0.6804 0.6825 0.6861 0.6887 0.6911
3128.039515 0.6948 0.6991 0.7021 0.7047 0.7075
3134.283010 0.7115 0.7144 0.7154 0.7167 0.7180
3140.526505 0.7191 0.7225 0.7265 0.7301 0.7335
3146.770000 0.7378 0.7421 0.7447 0.7471 0.7501
3153.013495 0.7531 0.7554 0.7560 0.7560 0.7564
3159.256990 0.7570 0.7570 0.7570 0.7570 0.7570
3165.500485 0.7570 0.7570 0.7570 0.7570 0.7570
3171.743980 0.7570 0.7570 0.7570 0.7570 0.7570
3177.987475 0.7570 0.7570 0.7570 0.7570 0.7570
3184.230970 0.7570 0.7570 0.7570 0.7577 0.7594
3190.474465 0.7600 0.7600 0.7604 0.7610 0.7614
3196.717960 0.7620 0.7620 0.7624 0.7630 0.7630
3202.961455 0.7630 0.7630 0.7637 0.7650 0.7650
3209.204950 0.7650 0.7654 0.7660 0.7667 0.7687
3215.448445 0.7707 0.7724 0.7737 0.7757 0.7774
3221.691940 0.7787 0.7811 0.7841 0.7867 0.7891
3227.935435 0.7917 0.7937 0.7957 0.7974 0.7991
3234.178930 0.8014 0.8027 0.8047 0.8064 0.8074
3240.422425 0.8080 0.8084 0.8097 0.8110 0.8114
3246.665920 0.8120 0.8120 0.8120 0.8120 0.8120
3252.909415 0.8120 0.8120 0.8120 0.8120 0.8120
3259.152910 0.8120 0.8120 0.8120 0.8120 0.8116
3265.396405 0.8110 0.8110 0.8110 0.8114 0.8120
3271.639900 0.8120 0.8120 0.8120 0.8120 0.8120
3277.883395 0.8120 0.8120 0.8120 0.8120 0.8120
3284.126890 0.8120 0.8116 0.8110 0.8103 0.8090
3290.370385 0.8090 0.8086 0.8080 0.8073 0.8053
3296.613880 0.8036 0.8026 0.8016 0.8006 0.7993
3302.857375 0.7980 0.7980 0.7976 0.7970 0.7970
3309.100870 0.7966 0.7960 0.7960 0.7956 0.7950
3315.344365 0.7950 0.7943 0.7926 0.7920 0.7916
3321.587860 0.7910 0.7906 0.7893 0.7880 0.7876
3327.831355 0.7870 0.7866 0.7856 0.7850 0.7843
3334.074850 0.7830 0.7830 0.7826 0.7820 0.7816
3340.318345 0.7806 0.7800 0.7800 0.7800 0.7800
3346.561840 0.7800 0.7793 0.7776 0.7766 0.7760
3352.805335 0.7760 0.7756 0.7743 0.7726 0.7716
3359.048830 0.7699 0.7676 0.7666 0.7656 0.7639
3365.292325 0.7616 0.7606 0.7600 0.7600 0.7596
3371.535820 0.7583 0.7570 0.7566 0.7556 0.7546
3377.779315 0.7533 0.7520 0.7516 0.7510 0.7506
3384.022810 0.7500 0.7496 0.7490 0.7483 0.7470
3390.266305 0.7466 0.7460 0.7456 0.7450 0.7446
3396.509800 0.7433 0.7416 0.7406 0.7389 0.7363
3402.753295 0.7346 0.7333 0.7313 0.7296 0.7290
3408.996790 0.7283 0.7270 0.7270 0.7266 0.7260
3415.240285 0.7256 0.7250 0.7250 0.7246 0.7240
3421.483780 0.7240 0.7233 0.7220 0.7220 0.7220
3427.727275 0.7220 0.7216 0.7210 0.7210 0.7210
3433.970770 0.7210 0.7214 0.7220 0.7220 0.7220
3440.214265 0.7220 0.7220 0.7220 0.7220 0.7220
3446.457760 0.7220 0.7220 0.7220 0.7220 0.7220
3452.701255 0.7220 0.7220 0.7220 0.7220 0.7220
3458.944750 0.7220 0.7220 0.7220 0.7220 0.7220
3465.188245 0.7220 0.7220 0.7220 0.7220 0.7220
3471.431740 0.7220 0.7220 0.7220 0.7227 0.7240
3477.675235 0.7240 0.7240 0.7240 0.7240 0.7240
3483.918730 0.7244 0.7250 0.7250 0.7250 0.7250
3490.162225 0.7250 0.7250 0.7254 0.7260 0.7260
3496.405720 0.7260 0.7260 0.7260 0.7260 0.7264
3502.649215 0.7270 0.7270 0.7277 0.7290 0.7290
3508.892710 0.7294 0.7300 0.7300 0.7304 0.7310
3515.136205 0.7314 0.7320 0.7327 0.7344 0.7350
3521.379700 0.7350 0.7354 0.7360 0.7360 0.7364
3527.623195 0.7370 0.7377 0.7390 0.7390 0.7394
3533.866690 0.7400 0.7404 0.7410 0.7410 0.7414
3540.110185 0.7420 0.7420 0.7427 0.7440 0.7444
3546.353680 0.7450 0.7450 0.7454 0.7460 0.7460
3552.597175 0.7464 0.7470 0.7477 0.7490 0.7494
3558.840670 0.7500 0.7504 0.7510 0.7510 0.7514
3565.084165 0.7520 0.7527 0.7540 0.7544 0.7550
3571.327660 0.7550 0.7554 0.7560 0.7564 0.7570
3577.571155 0.7577 0.7590 0.7594 0.7600 0.7604
3583.814650 0.7610 0.7610 0.7614 0.7620 0.7624
3590.058145 0.7630 0.7630 0.7637 0.7650 0.7654
3596.301640 0.7660 0.7660 0.7667 0.7680 0.7687
3602.545135 0.7700 0.7704 0.7710 0.7714 0.7720
3608.788630 0.7724 0.7730 0.7737 0.7750 0.7754
3615.032125 0.7760 0.7764 0.7770 0.7770 0.7774
3621.275620 0.7780 0.7787 0.7800 0.7804 0.7810
3627.519115 0.7814 0.7820 0.7824 0.7830 0.7837
3633.762610 0.7850 0.7854 0.7860 0.7860 0.7860
3640.006105 0.7860 0.7864 0.7870 0.7870 0.7870
3646.249600 0.7870 0.7870 0.7870 0.7870 0.7870
3652.493095 0.7874 0.7880 0.7880 0.7880 0.7880
3658.736590 0.7880 0.7880 0.7880 0.7880 0.7880
3664.980085 0.7880 0.7880 0.7880 0.7880 0.7880
3671.223580 0.7880 0.7880 0.7880 0.7880 0.7880
3677.467075 0.7880 0.7880 0.7880 0.7887 0.7900
3683.710570 0.7900 0.7900 0.7900 0.7900 0.7900
3689.954065 0.7900 0.7900 0.7900 0.7900 0.7900
3696.197560 0.7900 0.7900 0.7900 0.7900 0.7900
3702.441055 0.7893 0.7880 0.7880 0.7880 0.7880
3708.684550 0.7880 0.7880 0.7880 0.7880 0.7880
3714.928045 0.7880 0.7880 0.7880 0.7880 0.7880
3721.171540 0.7876 0.7870 0.7870 0.7870 0.7870
3727.415035 0.7870 0.7870 0.7870 0.7870 0.7870
3733.658530 0.7870 0.7870 0.7870 0.7870 0.7870
3739.902025 0.7870 0.7870 0.7870 0.7870 0.7874
3746.145520 0.7880 0.7880 0.7880 0.7880 0.7880
3752.389015 0.7880 0.7887 0.7900 0.7900 0.7900
3758.632510 0.7900 0.7900 0.7900 0.7900 0.7904
3764.876005 0.7910 0.7906 0.7900 0.7900 0.7900
3771.119500 0.7893 0.7880 0.7880 0.7876 0.7870
3777.362995 0.7866 0.7860 0.7860 0.7860 0.7860
3783.606490 0.7860 0.7856 0.7850 0.7850 0.7850
3789.849985 0.7850 0.7843 0.7830 0.7830 0.7830
3796.093480 0.7830 0.7826 0.7820 0.7820 0.7816
3802.336975 0.7810 0.7810 0.7810 0.7810 0.7810
3808.580470 0.7810 0.7810 0.7806 0.7800 0.7800
3814.823965 0.7800 0.7800 0.7800 0.7800 0.7793
3821.067460 0.7780 0.7780 0.7780 0.7780 0.7780
3827.310955 0.7776 0.7770 0.7770 0.7770 0.7770
3833.554450 0.7770 0.7766 0.7760 0.7760 0.7760
3839.797945 0.7760 0.7756 0.7750 0.7750 0.7743
3846.041440 0.7737 0.7750 0.7750 0.7750 0.7750
3852.284935 0.7750 0.7743 0.7730 0.7730 0.7730
3858.528430 0.7730 0.7730 0.7730 0.7726 0.7720
3864.771925 0.7720 0.7720 0.7720 0.7720 0.7716
3871.015420 0.7710 0.7710 0.7710 0.7710 0.7710
3877.258915 0.7710 0.7710 0.7710 0.7710 0.7710
3883.502410 0.7710 0.7710 0.7710 0.7710 0.7710
3889.745905 0.7710 0.7710 0.7710 0.7710 0.7706
3895.989400 0.7700 0.7700 0.7700 0.7700 0.7700
3902.232895 0.7700 0.7700 0.7700 0.7700 0.7700
3908.476390 0.7693 0.7680 0.7680 0.7680 0.7680
3914.719885 0.7680 0.7680 0.7680 0.7680 0.7680
3920.963380 0.7680 0.7680 0.7680 0.7676 0.7670
3927.206875 0.7670 0.7670 0.7670 0.7666 0.7660
3933.450370 0.7660 0.7660 0.7660 0.7660 0.7660
3939.693865 0.7660 0.7660 0.7660 0.7660 0.7660
3945.937360 0.7656 0.7650 0.7643 0.7630 0.7626
3952.180855 0.7620 0.7613 0.7600 0.7600 0.7600
3958.424350 0.7600 0.7600 0.7600 0.7600 0.7600
3964.667845 0.7600 0.7600 0.7600 0.7600 0.7600
3970.911340 0.7600 0.7600 0.7600 0.7600 0.7600
3977.154835 0.7600 0.7600 0.7600 0.7600 0.7600
3983.398330 0.7600 0.7600 0.7600 0.7600 0.7596
3989.641825 0.7590 0.7590 0.7590 0.7590 0.7590
3995.885320 0.7590 0.7590 0.7590 0.7590 0.7583
4002.128815 0.7570 0.7570 0.7570 0.7570 0.7570
4008.372310 0.7570 0.7570 0.7570 0.7566 0.7564
4014.615805 0.7570 0.7570 0.7570 0.7570 0.7570
4020.859300 0.7570 0.7570 0.7570 0.7577 0.7590
4027.102795 0.7594 0.7600 0.7589 0.7570 0.7570
4033.346290 0.7570 0.7570 0.7570 0.7577 0.7590
4039.589785 0.7590 0.7594
##END=
