##TITLE=Pyrazole-3-amine, 4-phenyl-, hydrochloride
##JCAMP-DX=4.24
##DATA TYPE=INFRARED SPECTRUM
##CLASS=COBLENTZ III
##ORIGIN=SMITH, KLINE & FRENCH LABS.
##OWNER=Copyright (C) 1987 by the Coblentz Society
Collection (C) 2018 copyright by the U.S. Secretary of Commerce
on behalf of the United States of America. All rights reserved.
##DATE=1959/07/03
##NAMES=4-phenyl-4H-pyrazol-3-amine hydrochloride
Pyrazole-, 3-amino-4-phenyl-, monohydrochloride
##MOLFORM=C9 H10 Cl N3
##SOURCE REFERENCE=COBLENTZ NO. 9839
##$NIST ID=B6009839
##$NIST SOURCE=COBLENTZ
##$NIST IMAGE=cob9839
##SPECTROMETER/DATA SYSTEM=PERKIN-ELMER 21 (GRATING)
##INSTRUMENT PARAMETERS=NaCl PRISM
##STATE=SOLID (KBr)
##SAMPLING PROCEDURE=TRANSMISSION
##RESOLUTION=2
##DATA PROCESSING=DIGITIZED BY COBLENTZ SOCIETY (BATCH II) FROM HARD COPY
##XUNITS=1/CM
##YUNITS=TRANSMITTANCE
##XFACTOR=1.0
##YFACTOR=1
##FIRSTX=626
##LASTX=4000
##FIRSTY=0.3963
##MAXX=4000
##MINX=626
##MAXY=0.7705
##MINY=0.0605
##NPOINTS=3375
##XYDATA=(X++(Y..Y))
626.000000 0.3963 0.3872 0.3679 0.3682 0.3824
631.000000 0.3874 0.4020 0.4177 0.4323 0.4501
636.000000 0.4725 0.5124 0.5647 0.5927 0.6122
641.000000 0.6131 0.6120 0.6139 0.6288 0.6352
646.000000 0.6372 0.6349 0.6309 0.6329 0.6313
651.000000 0.6278 0.6226 0.6096 0.6029 0.5993
656.000000 0.5941 0.5810 0.5649 0.5382 0.5115
661.000000 0.4817 0.4374 0.3741 0.3313 0.3105
666.000000 0.3075 0.3266 0.3526 0.3907 0.4459
671.000000 0.4833 0.5094 0.5305 0.5333 0.5284
676.000000 0.5163 0.4626 0.4489 0.4520 0.4568
681.000000 0.4740 0.5232 0.5527 0.5507 0.5418
686.000000 0.5191 0.4997 0.4757 0.4579 0.4167
691.000000 0.3195 0.2613 0.1637 0.1328 0.1086
696.000000 0.1066 0.1073 0.1753 0.2192 0.2632
701.000000 0.3069 0.3379 0.3707 0.4058 0.4483
706.000000 0.4762 0.4850 0.4837 0.4864 0.4679
711.000000 0.4556 0.4009 0.3524 0.3138 0.2847
716.000000 0.2629 0.2528 0.2503 0.2519 0.2542
721.000000 0.2597 0.2685 0.2783 0.2881 0.2979
726.000000 0.3094 0.3209 0.3310 0.3418 0.3600
731.000000 0.3814 0.4224 0.4641 0.4904 0.5158
736.000000 0.5450 0.5585 0.5656 0.5711 0.5740
741.000000 0.5734 0.5727 0.5723 0.5732 0.5489
746.000000 0.5448 0.5246 0.5095 0.5008 0.4764
751.000000 0.4531 0.4082 0.3442 0.2804 0.2129
756.000000 0.1462 0.1095 0.0755 0.0605 0.0622
761.000000 0.0857 0.0917 0.1684 0.2342 0.2439
766.000000 0.2514 0.2640 0.3494 0.3764 0.3948
771.000000 0.4071 0.4157 0.4188 0.4199 0.4011
776.000000 0.3820 0.3715 0.3632 0.3567 0.3513
781.000000 0.3495 0.3468 0.3415 0.3422 0.3465
786.000000 0.3489 0.3549 0.3772 0.4209 0.4401
791.000000 0.4589 0.4798 0.5111 0.5486 0.5717
796.000000 0.5847 0.5971 0.6087 0.6203 0.6320
801.000000 0.6436 0.6550 0.6641 0.6728 0.6807
806.000000 0.6870 0.6916 0.6955 0.6988 0.7017
811.000000 0.7044 0.7071 0.7168 0.7206 0.7220
816.000000 0.7221 0.7221 0.7225 0.7230 0.7267
821.000000 0.7298 0.7308 0.7304 0.7300 0.7302
826.000000 0.7306 0.7311 0.7327 0.7365 0.7404
831.000000 0.7402 0.7385 0.7369 0.7353 0.7331
836.000000 0.7297 0.7260 0.7203 0.7131 0.7044
841.000000 0.6947 0.6834 0.6673 0.6406 0.5942
846.000000 0.5257 0.4502 0.3927 0.3828 0.3841
851.000000 0.4031 0.4684 0.5335 0.5986 0.6635
856.000000 0.7009 0.7058 0.7075 0.7087 0.7101
861.000000 0.7122 0.7150 0.7305 0.7539 0.7640
866.000000 0.7656 0.7654 0.7631 0.7607 0.7606
871.000000 0.7606 0.7607 0.7608 0.7610 0.7616
876.000000 0.7624 0.7630 0.7662 0.7697 0.7696
881.000000 0.7691 0.7679 0.7649 0.7625 0.7625
886.000000 0.7643 0.7664 0.7686 0.7705 0.7689
891.000000 0.7660 0.7636 0.7624 0.7642 0.7677
896.000000 0.7700 0.7688 0.7665 0.7632 0.7585
901.000000 0.7530 0.7454 0.7380 0.7308 0.7236
906.000000 0.7166 0.7096 0.7010 0.6907 0.6780
911.000000 0.6706 0.6697 0.6677 0.6722 0.6782
916.000000 0.6959 0.7155 0.7218 0.7256 0.7297
921.000000 0.7344 0.7390 0.7433 0.7433 0.7445
926.000000 0.7436 0.7411 0.7388 0.7361 0.7330
931.000000 0.7289 0.7218 0.7067 0.6875 0.6709
936.000000 0.6684 0.6730 0.6912 0.7047 0.7200
941.000000 0.7462 0.7476 0.7480 0.7503 0.7564
946.000000 0.7551 0.7522 0.7503 0.7504 0.7503
951.000000 0.7492 0.7481 0.7470 0.7458 0.7436
956.000000 0.7412 0.7389 0.7377 0.7375 0.7376
961.000000 0.7375 0.7348 0.7286 0.7216 0.7147
966.000000 0.7057 0.7020 0.7027 0.7049 0.7090
971.000000 0.7171 0.7180 0.7149 0.7098 0.7064
976.000000 0.7056 0.7047 0.7035 0.7004 0.6957
981.000000 0.6900 0.6826 0.6746 0.6635 0.6484
986.000000 0.6319 0.6156 0.6000 0.5838 0.5650
991.000000 0.4828 0.4019 0.3643 0.3642 0.4460
996.000000 0.5330 0.6198 0.6621 0.6646 0.6650
1001.000000 0.6502 0.6246 0.5990 0.5737 0.4817
1006.000000 0.3990 0.2879 0.2711 0.2653 0.3845
1011.000000 0.4426 0.5006 0.5363 0.5655 0.6066
1016.000000 0.6349 0.6483 0.6513 0.6517 0.6508
1021.000000 0.6506 0.6497 0.6488 0.6479 0.6459
1026.000000 0.6423 0.6321 0.6214 0.6117 0.5858
1031.000000 0.5633 0.5366 0.5228 0.5231 0.5253
1036.000000 0.5364 0.5635 0.5751 0.5773 0.5743
1041.000000 0.5770 0.5756 0.5702 0.5601 0.5512
1046.000000 0.5419 0.5284 0.5124 0.5021 0.4991
1051.000000 0.5001 0.5001 0.5018 0.5054 0.5100
1056.000000 0.5152 0.5198 0.5219 0.5213 0.5201
1061.000000 0.5178 0.5129 0.5057 0.4974 0.4876
1066.000000 0.4753 0.4611 0.4192 0.4170 0.4156
1071.000000 0.4077 0.3956 0.4008 0.4166 0.4295
1076.000000 0.4287 0.4273 0.4243 0.4170 0.3925
1081.000000 0.3613 0.3302 0.2991 0.2763 0.2681
1086.000000 0.2647 0.2552 0.2223 0.1917 0.1910
1091.000000 0.1906 0.1931 0.1972 0.2065 0.2289
1096.000000 0.2484 0.2700 0.2934 0.3168 0.3401
1101.000000 0.3636 0.3775 0.3841 0.3872 0.3895
1106.000000 0.4132 0.4262 0.4325 0.4360 0.4372
1111.000000 0.4363 0.4359 0.4343 0.4322 0.4295
1116.000000 0.4251 0.4196 0.4110 0.3914 0.3666
1121.000000 0.3605 0.3575 0.3570 0.3573 0.3554
1126.000000 0.3646 0.3722 0.3815 0.3918 0.4058
1131.000000 0.4240 0.4435 0.4630 0.4754 0.5026
1136.000000 0.5413 0.5538 0.5595 0.5637 0.5661
1141.000000 0.5688 0.5775 0.5855 0.5901 0.5923
1146.000000 0.5929 0.5928 0.5917 0.5902 0.5874
1151.000000 0.5828 0.5741 0.5653 0.5532 0.5383
1156.000000 0.5197 0.5005 0.4967 0.4958 0.4850
1161.000000 0.4675 0.4502 0.4129 0.3335 0.2659
1166.000000 0.2375 0.2179 0.2143 0.2175 0.2209
1171.000000 0.2252 0.2325 0.2452 0.2557 0.2548
1176.000000 0.2483 0.2418 0.2381 0.2441 0.2779
1181.000000 0.3170 0.3560 0.3949 0.4338 0.4727
1186.000000 0.5115 0.5502 0.5945 0.6073 0.6188
1191.000000 0.6311 0.6422 0.6519 0.6600 0.6659
1196.000000 0.6689 0.6708 0.6715 0.6722 0.6729
1201.000000 0.6726 0.6723 0.6689 0.6625 0.6539
1206.000000 0.6396 0.6237 0.6120 0.6006 0.5852
1211.000000 0.5701 0.5558 0.5246 0.4786 0.4327
1216.000000 0.4045 0.4051 0.4331 0.4640 0.4949
1221.000000 0.5258 0.5529 0.5669 0.5812 0.6559
1226.000000 0.6693 0.6764 0.6808 0.6829 0.6828
1231.000000 0.6825 0.6817 0.6804 0.6782 0.6758
1236.000000 0.6746 0.6736 0.6740 0.6759 0.6788
1241.000000 0.6825 0.6866 0.6903 0.6934 0.6964
1246.000000 0.6993 0.7021 0.7038 0.7050 0.7053
1251.000000 0.7047 0.7041 0.7034 0.7013 0.6992
1256.000000 0.6981 0.6975 0.6970 0.6967 0.6962
1261.000000 0.6957 0.6952 0.6899 0.6860 0.6854
1266.000000 0.6846 0.6846 0.6851 0.6849 0.6740
1271.000000 0.6684 0.6647 0.6608 0.6551 0.6462
1276.000000 0.6204 0.6136 0.6138 0.6329 0.6762
1281.000000 0.6887 0.6906 0.6907 0.6904 0.6897
1286.000000 0.6915 0.6884 0.6875 0.6866 0.6851
1291.000000 0.6835 0.6819 0.6803 0.6786 0.6786
1296.000000 0.6815 0.6842 0.6837 0.6696 0.6621
1301.000000 0.6571 0.6537 0.6507 0.6480 0.6454
1306.000000 0.6346 0.6262 0.6217 0.6193 0.6170
1311.000000 0.6118 0.5989 0.5891 0.5832 0.5804
1316.000000 0.5778 0.5727 0.5603 0.5536 0.5463
1321.000000 0.5416 0.5367 0.5318 0.5305 0.5296
1326.000000 0.5328 0.5408 0.5536 0.5572 0.5583
1331.000000 0.5582 0.5576 0.5568 0.5555 0.5528
1336.000000 0.5563 0.5708 0.5773 0.5816 0.5843
1341.000000 0.5854 0.5862 0.5869 0.5874 0.5879
1346.000000 0.5878 0.5878 0.5877 0.5875 0.5873
1351.000000 0.5867 0.5857 0.5848 0.5838 0.5825
1356.000000 0.5808 0.5790 0.5774 0.5756 0.5736
1361.000000 0.5714 0.5691 0.5668 0.5638 0.5606
1366.000000 0.5573 0.5542 0.5499 0.5447 0.5380
1371.000000 0.5092 0.4772 0.4551 0.4354 0.4257
1376.000000 0.4217 0.3998 0.3601 0.3381 0.3196
1381.000000 0.3027 0.2878 0.2783 0.2658 0.2441
1386.000000 0.2318 0.2286 0.2296 0.2272 0.2281
1391.000000 0.2298 0.2324 0.2352 0.2412 0.2504
1396.000000 0.2770 0.3074 0.3378 0.3681 0.3983
1401.000000 0.4285 0.4491 0.4561 0.4623 0.4676
1406.000000 0.4719 0.4756 0.4777 0.4792 0.4800
1411.000000 0.4758 0.4788 0.4780 0.4772 0.4751
1416.000000 0.4718 0.4682 0.4650 0.4616 0.4575
1421.000000 0.4532 0.4484 0.4433 0.4370 0.4294
1426.000000 0.4204 0.4108 0.3992 0.3836 0.3661
1431.000000 0.3494 0.3325 0.3157 0.2990 0.2853
1436.000000 0.2764 0.2677 0.2629 0.2604 0.2583
1441.000000 0.2503 0.2306 0.2155 0.2129 0.2140
1446.000000 0.3240 0.3882 0.4161 0.4250 0.4309
1451.000000 0.4363 0.4409 0.4437 0.4460 0.4482
1456.000000 0.4500 0.4516 0.4501 0.4481 0.4458
1461.000000 0.4414 0.4213 0.4090 0.3967 0.3844
1466.000000 0.3721 0.3598 0.3476 0.3353 0.3232
1471.000000 0.3110 0.2988 0.2872 0.2813 0.2790
1476.000000 0.2768 0.2743 0.2712 0.2675 0.2626
1481.000000 0.2568 0.2508 0.2442 0.2326 0.2099
1486.000000 0.1819 0.1562 0.1460 0.1406 0.1327
1491.000000 0.1264 0.1234 0.1202 0.1157 0.1049
1496.000000 0.0875 0.0784 0.0736 0.0715 0.0696
1501.000000 0.0684 0.0679 0.0682 0.0659 0.0717
1506.000000 0.1517 0.1720 0.1813 0.1904 0.2000
1511.000000 0.2090 0.2169 0.2223 0.2267 0.2313
1516.000000 0.2448 0.2861 0.3294 0.3687 0.3878
1521.000000 0.4028 0.4142 0.4221 0.4279 0.4324
1526.000000 0.4350 0.4368 0.4380 0.4383 0.4372
1531.000000 0.4373 0.4356 0.4303 0.4114 0.3909
1536.000000 0.3705 0.3501 0.3297 0.3093 0.2890
1541.000000 0.2688 0.2512 0.2461 0.2460 0.2464
1546.000000 0.2467 0.2475 0.2482 0.2488 0.2499
1551.000000 0.2511 0.2565 0.2646 0.2727 0.2796
1556.000000 0.2826 0.2839 0.2852 0.2859 0.2858
1561.000000 0.2855 0.2853 0.2842 0.2822 0.2803
1566.000000 0.2785 0.2774 0.2772 0.2776 0.2793
1571.000000 0.2822 0.2863 0.2925 0.3015 0.3146
1576.000000 0.3281 0.3406 0.3525 0.3621 0.3671
1581.000000 0.3703 0.3716 0.3718 0.3712 0.3685
1586.000000 0.3653 0.3588 0.3529 0.3476 0.3275
1591.000000 0.3033 0.2917 0.2866 0.2823 0.2791
1596.000000 0.2766 0.2744 0.2725 0.2706 0.2686
1601.000000 0.2664 0.2639 0.2612 0.2580 0.2538
1606.000000 0.2491 0.2440 0.2393 0.2371 0.2360
1611.000000 0.2357 0.2374 0.2370 0.2390 0.2432
1616.000000 0.2563 0.2751 0.2941 0.3130 0.3320
1621.000000 0.3508 0.3697 0.3863 0.3961 0.4056
1626.000000 0.4181 0.4286 0.4343 0.4374 0.4399
1631.000000 0.4411 0.4415 0.4420 0.4425 0.4429
1636.000000 0.4681 0.4907 0.5004 0.5071 0.5132
1641.000000 0.5187 0.5311 0.5471 0.5580 0.5673
1646.000000 0.5785 0.5903 0.5976 0.6103 0.6135
1651.000000 0.6160 0.6194 0.6231 0.6260 0.6280
1656.000000 0.6295 0.6310 0.6325 0.6340 0.6354
1661.000000 0.6370 0.6386 0.6410 0.6434 0.6465
1666.000000 0.6580 0.6741 0.6788 0.6795 0.6801
1671.000000 0.6804 0.6804 0.6800 0.6796 0.6791
1676.000000 0.6783 0.6768 0.6753 0.6736 0.6732
1681.000000 0.6752 0.6800 0.6848 0.6888 0.6916
1686.000000 0.6931 0.6941 0.6946 0.6935 0.6920
1691.000000 0.6906 0.6894 0.6888 0.6887 0.6886
1696.000000 0.6886 0.6898 0.6913 0.6935 0.6959
1701.000000 0.6985 0.7016 0.7044 0.7057 0.7072
1706.000000 0.7079 0.7079 0.7075 0.7071 0.7062
1711.000000 0.7048 0.7049 0.7065 0.7090 0.7116
1716.000000 0.7139 0.7153 0.7167 0.7175 0.7172
1721.000000 0.7161 0.7148 0.7131 0.7114 0.7099
1726.000000 0.7102 0.7115 0.7128 0.7142 0.7160
1731.000000 0.7183 0.7204 0.7220 0.7232 0.7244
1736.000000 0.7256 0.7199 0.7247 0.7231 0.7211
1741.000000 0.7191 0.7172 0.7155 0.7140 0.7127
1746.000000 0.7114 0.7097 0.7087 0.7083 0.7080
1751.000000 0.7078 0.7075 0.7074 0.7071 0.7070
1756.000000 0.7067 0.7064 0.7058 0.7052 0.7046
1761.000000 0.7038 0.7025 0.7008 0.6988 0.6968
1766.000000 0.6957 0.6954 0.6955 0.6957 0.6959
1771.000000 0.6964 0.6974 0.6985 0.7014 0.7044
1776.000000 0.7072 0.7093 0.7101 0.7106 0.7108
1781.000000 0.7108 0.7107 0.7107 0.7105 0.7104
1786.000000 0.7103 0.7102 0.7100 0.7097 0.7094
1791.000000 0.7092 0.7089 0.7086 0.7083 0.7081
1796.000000 0.7077 0.7074 0.7070 0.7064 0.7054
1801.000000 0.7037 0.7020 0.7003 0.6986 0.6969
1806.000000 0.6953 0.6932 0.6908 0.6880 0.6860
1811.000000 0.6846 0.6840 0.6840 0.6840 0.6841
1816.000000 0.6843 0.6845 0.6846 0.6848 0.6849
1821.000000 0.6851 0.6853 0.6855 0.6857 0.6859
1826.000000 0.6860 0.6862 0.6865 0.6867 0.6869
1831.000000 0.6872 0.6875 0.6877 0.6877 0.6878
1836.000000 0.6879 0.6880 0.6880 0.6882 0.6883
1841.000000 0.6885 0.6886 0.6888 0.6887 0.6885
1846.000000 0.6882 0.6880 0.6877 0.6874 0.6870
1851.000000 0.6864 0.6855 0.6845 0.6835 0.6824
1856.000000 0.6813 0.6802 0.6792 0.6782 0.6771
1861.000000 0.6761 0.6750 0.6739 0.6729 0.6718
1866.000000 0.6703 0.6677 0.6651 0.6624 0.6597
1871.000000 0.6576 0.6556 0.6537 0.6518 0.6496
1876.000000 0.6469 0.6440 0.6427 0.6414 0.6402
1881.000000 0.6390 0.6382 0.6374 0.6367 0.6359
1886.000000 0.6353 0.6346 0.6342 0.6338 0.6335
1891.000000 0.6332 0.6329 0.6326 0.6323 0.6320
1896.000000 0.6317 0.6315 0.6315 0.6318 0.6321
1901.000000 0.6324 0.6327 0.6331 0.6336 0.6342
1906.000000 0.6347 0.6353 0.6360 0.6367 0.6374
1911.000000 0.6381 0.6387 0.6386 0.6368 0.6349
1916.000000 0.6331 0.6317 0.6304 0.6292 0.6280
1921.000000 0.6268 0.6256 0.6243 0.6234 0.6226
1926.000000 0.6217 0.6209 0.6206 0.6206 0.6207
1931.000000 0.6207 0.6206 0.6206 0.6203 0.6198
1936.000000 0.6193 0.6188 0.6183 0.6167 0.6149
1941.000000 0.6130 0.6111 0.6091 0.6070 0.6044
1946.000000 0.6018 0.5993 0.5955 0.5911 0.5860
1951.000000 0.5763 0.5698 0.5690 0.5687 0.5685
1956.000000 0.5682 0.5679 0.5677 0.5679 0.5682
1961.000000 0.5686 0.5689 0.5694 0.5699 0.5705
1966.000000 0.5711 0.5718 0.5724 0.5730 0.5736
1971.000000 0.5749 0.5766 0.5790 0.5814 0.5837
1976.000000 0.5857 0.5869 0.5877 0.5879 0.5879
1981.000000 0.5877 0.5865 0.5851 0.5835 0.5819
1986.000000 0.5803 0.5787 0.5771 0.5755 0.5743
1991.000000 0.5732 0.5722 0.5712 0.5702 0.5692
1996.000000 0.5689 0.5689 0.5689 0.5690 0.5691
2001.000000 0.5691 0.5667 0.5695 0.5704 0.5716
2006.000000 0.5727 0.5741 0.5757 0.5775 0.5793
2011.000000 0.5811 0.5826 0.5840 0.5854 0.5868
2016.000000 0.5882 0.5895 0.5909 0.5923 0.5935
2021.000000 0.5945 0.5953 0.5958 0.5961 0.5963
2026.000000 0.5965 0.5969 0.5993 0.6044 0.6091
2031.000000 0.6135 0.6172 0.6199 0.6216 0.6224
2036.000000 0.6231 0.6238 0.6245 0.6251 0.6258
2041.000000 0.6265 0.6271 0.6278 0.6285 0.6292
2046.000000 0.6309 0.6305 0.6310 0.6314 0.6318
2051.000000 0.6322 0.6321 0.6319 0.6317 0.6314
2056.000000 0.6311 0.6304 0.6297 0.6289 0.6279
2061.000000 0.6269 0.6259 0.6245 0.6224 0.6206
2066.000000 0.6190 0.6186 0.6183 0.6179 0.6178
2071.000000 0.6178 0.6179 0.6181 0.6181 0.6182
2076.000000 0.6183 0.6184 0.6185 0.6187 0.6190
2081.000000 0.6191 0.6194 0.6198 0.6202 0.6206
2086.000000 0.6210 0.6214 0.6216 0.6217 0.6218
2091.000000 0.6219 0.6219 0.6213 0.6207 0.6202
2096.000000 0.6197 0.6190 0.6182 0.6172 0.6162
2101.000000 0.6152 0.6146 0.6139 0.6133 0.6126
2106.000000 0.6120 0.6114 0.6108 0.6105 0.6102
2111.000000 0.6099 0.6095 0.6090 0.6084 0.6078
2116.000000 0.6072 0.6065 0.6058 0.6050 0.6041
2121.000000 0.6031 0.6020 0.6010 0.6000 0.5989
2126.000000 0.5979 0.5969 0.5959 0.5951 0.5942
2131.000000 0.5933 0.5924 0.5914 0.5906 0.5898
2136.000000 0.5890 0.5880 0.5868 0.5851 0.5829
2141.000000 0.5819 0.5817 0.5815 0.5813 0.5812
2146.000000 0.5810 0.5810 0.5810 0.5810 0.5810
2151.000000 0.5810 0.5812 0.5815 0.5819 0.5822
2156.000000 0.5819 0.5815 0.5809 0.5804 0.5799
2161.000000 0.5794 0.5786 0.5779 0.5771 0.5764
2166.000000 0.5756 0.5748 0.5740 0.5730 0.5719
2171.000000 0.5708 0.5698 0.5687 0.5676 0.5662
2176.000000 0.5648 0.5633 0.5621 0.5614 0.5607
2181.000000 0.5599 0.5594 0.5590 0.5588 0.5587
2186.000000 0.5586 0.5585 0.5584 0.5583 0.5582
2191.000000 0.5581 0.5581 0.5582 0.5583 0.5585
2196.000000 0.5586 0.5587 0.5588 0.5590 0.5591
2201.000000 0.5591 0.5589 0.5588 0.5586 0.5585
2206.000000 0.5583 0.5582 0.5580 0.5576 0.5569
2211.000000 0.5558 0.5544 0.5529 0.5515 0.5492
2216.000000 0.5464 0.5439 0.5415 0.5397 0.5381
2221.000000 0.5363 0.5345 0.5330 0.5315 0.5303
2226.000000 0.5292 0.5284 0.5277 0.5270 0.5264
2231.000000 0.5259 0.5253 0.5248 0.5242 0.5238
2236.000000 0.5234 0.5231 0.5229 0.5226 0.5224
2241.000000 0.5222 0.5220 0.5217 0.5214 0.5211
2246.000000 0.5207 0.5204 0.5201 0.5193 0.5184
2251.000000 0.5171 0.5157 0.5149 0.5142 0.5137
2256.000000 0.5131 0.5127 0.5124 0.5120 0.5117
2261.000000 0.5113 0.5110 0.5106 0.5102 0.5096
2266.000000 0.5088 0.5080 0.5073 0.5066 0.5058
2271.000000 0.5051 0.5042 0.5033 0.5023 0.5014
2276.000000 0.5004 0.4995 0.4985 0.4975 0.4963
2281.000000 0.4952 0.4940 0.4929 0.4917 0.4905
2286.000000 0.4893 0.4882 0.4870 0.4859 0.4847
2291.000000 0.4836 0.4825 0.4814 0.4803 0.4793
2296.000000 0.4782 0.4771 0.4760 0.4750 0.4740
2301.000000 0.4729 0.4718 0.4706 0.4695 0.4683
2306.000000 0.4670 0.4658 0.4645 0.4633 0.4621
2311.000000 0.4609 0.4598 0.4587 0.4576 0.4566
2316.000000 0.4555 0.4544 0.4533 0.4523 0.4512
2321.000000 0.4501 0.4491 0.4480 0.4470 0.4461
2326.000000 0.4452 0.4443 0.4434 0.4426 0.4418
2331.000000 0.4409 0.4400 0.4392 0.4383 0.4374
2336.000000 0.4365 0.4357 0.4349 0.4342 0.4335
2341.000000 0.4327 0.4320 0.4313 0.4305 0.4298
2346.000000 0.4291 0.4284 0.4277 0.4272 0.4267
2351.000000 0.4262 0.4257 0.4254 0.4251 0.4249
2356.000000 0.4247 0.4245 0.4243 0.4241 0.4239
2361.000000 0.4237 0.4235 0.4233 0.4232 0.4230
2366.000000 0.4228 0.4226 0.4224 0.4223 0.4221
2371.000000 0.4219 0.4217 0.4216 0.4214 0.4209
2376.000000 0.4204 0.4195 0.4183 0.4169 0.4153
2381.000000 0.4137 0.4122 0.4107 0.4092 0.4078
2386.000000 0.4063 0.4047 0.4031 0.4014 0.3997
2391.000000 0.3981 0.3965 0.3949 0.3933 0.3918
2396.000000 0.3906 0.3895 0.3881 0.3867 0.3853
2401.000000 0.3839 0.3822 0.3802 0.3782 0.3762
2406.000000 0.3741 0.3721 0.3701 0.3681 0.3662
2411.000000 0.3636 0.3585 0.3533 0.3524 0.3520
2416.000000 0.3516 0.3513 0.3509 0.3505 0.3502
2421.000000 0.3499 0.3495 0.3492 0.3488 0.3485
2426.000000 0.3480 0.3475 0.3471 0.3466 0.3461
2431.000000 0.3457 0.3451 0.3439 0.3426 0.3413
2436.000000 0.3399 0.3382 0.3359 0.3336 0.3308
2441.000000 0.3281 0.3251 0.3219 0.3189 0.3167
2446.000000 0.3145 0.3122 0.3100 0.3075 0.3045
2451.000000 0.3015 0.2980 0.2946 0.2909 0.2870
2456.000000 0.2828 0.2771 0.2714 0.2699 0.2694
2461.000000 0.2690 0.2686 0.2682 0.2680 0.2677
2466.000000 0.2675 0.2673 0.2671 0.2668 0.2666
2471.000000 0.2659 0.2650 0.2633 0.2586 0.2538
2476.000000 0.2516 0.2501 0.2488 0.2477 0.2466
2481.000000 0.2458 0.2451 0.2444 0.2436 0.2429
2486.000000 0.2423 0.2417 0.2411 0.2406 0.2401
2491.000000 0.2396 0.2391 0.2386 0.2381 0.2376
2496.000000 0.2371 0.2366 0.2360 0.2352 0.2344
2501.000000 0.2333 0.2322 0.2311 0.2301 0.2291
2506.000000 0.2262 0.2233 0.2206 0.2183 0.2160
2511.000000 0.2139 0.2118 0.2100 0.2088 0.2076
2516.000000 0.2068 0.2060 0.2055 0.2053 0.2051
2521.000000 0.2049 0.2048 0.2046 0.2044 0.2042
2526.000000 0.2040 0.2038 0.2036 0.2035 0.2033
2531.000000 0.2032 0.2031 0.2029 0.2028 0.2026
2536.000000 0.2025 0.2024 0.2023 0.2021 0.2020
2541.000000 0.2018 0.2017 0.2016 0.2014 0.2013
2546.000000 0.2011 0.2010 0.2009 0.2008 0.2007
2551.000000 0.2007 0.2005 0.2004 0.2003 0.2002
2556.000000 0.2002 0.2001 0.2000 0.1999 0.1999
2561.000000 0.1998 0.1997 0.1996 0.1996 0.1995
2566.000000 0.1994 0.1993 0.1993 0.1992 0.1992
2571.000000 0.1992 0.1992 0.1992 0.1992 0.1991
2576.000000 0.1991 0.1991 0.1991 0.1991 0.1991
2581.000000 0.1991 0.1991 0.1991 0.1991 0.1991
2586.000000 0.1990 0.1990 0.1990 0.1990 0.1990
2591.000000 0.1991 0.1991 0.1991 0.1991 0.1991
2596.000000 0.1991 0.1991 0.1991 0.1991 0.1991
2601.000000 0.1991 0.1990 0.1990 0.1990 0.1990
2606.000000 0.1990 0.1989 0.1989 0.1989 0.1989
2611.000000 0.1989 0.1989 0.1988 0.1987 0.1987
2616.000000 0.1984 0.1982 0.1980 0.1978 0.1976
2621.000000 0.1973 0.1969 0.1966 0.1962 0.1958
2626.000000 0.1954 0.1945 0.1935 0.1926 0.1916
2631.000000 0.1906 0.1896 0.1886 0.1876 0.1866
2636.000000 0.1856 0.1846 0.1836 0.1826 0.1817
2641.000000 0.1807 0.1797 0.1787 0.1777 0.1767
2646.000000 0.1754 0.1739 0.1724 0.1706 0.1686
2651.000000 0.1667 0.1652 0.1637 0.1623 0.1622
2656.000000 0.1620 0.1618 0.1616 0.1615 0.1613
2661.000000 0.1612 0.1612 0.1611 0.1610 0.1610
2666.000000 0.1609 0.1608 0.1608 0.1607 0.1607
2671.000000 0.1607 0.1607 0.1607 0.1606 0.1599
2676.000000 0.1591 0.1584 0.1576 0.1569 0.1561
2681.000000 0.1553 0.1546 0.1537 0.1529 0.1520
2686.000000 0.1512 0.1503 0.1495 0.1487 0.1480
2691.000000 0.1472 0.1464 0.1456 0.1448 0.1440
2696.000000 0.1432 0.1423 0.1416 0.1408 0.1400
2701.000000 0.1392 0.1384 0.1376 0.1367 0.1358
2706.000000 0.1349 0.1341 0.1332 0.1324 0.1315
2711.000000 0.1307 0.1298 0.1289 0.1280 0.1272
2716.000000 0.1263 0.1255 0.1245 0.1234 0.1223
2721.000000 0.1212 0.1199 0.1187 0.1175 0.1164
2726.000000 0.1152 0.1143 0.1136 0.1128 0.1121
2731.000000 0.1114 0.1106 0.1099 0.1092 0.1084
2736.000000 0.1079 0.1074 0.1069 0.1065 0.1063
2741.000000 0.1060 0.1058 0.1055 0.1053 0.1051
2746.000000 0.1048 0.1046 0.1044 0.1041 0.1038
2751.000000 0.1036 0.1034 0.1031 0.1029 0.1027
2756.000000 0.1025 0.1023 0.1021 0.1018 0.1017
2761.000000 0.1017 0.1017 0.1017 0.1019 0.1021
2766.000000 0.1023 0.1026 0.1030 0.1033 0.1037
2771.000000 0.1040 0.1043 0.1046 0.1048 0.1050
2776.000000 0.1052 0.1055 0.1056 0.1051 0.1047
2781.000000 0.1043 0.1037 0.1030 0.1024 0.1018
2786.000000 0.1011 0.1005 0.0996 0.0986 0.0976
2791.000000 0.0964 0.0951 0.0938 0.0928 0.0919
2796.000000 0.0910 0.0903 0.0897 0.0892 0.0886
2801.000000 0.0880 0.0874 0.0870 0.0868 0.0865
2806.000000 0.0863 0.0861 0.0859 0.0842 0.0857
2811.000000 0.0856 0.0856 0.0855 0.0855 0.0855
2816.000000 0.0854 0.0854 0.0854 0.0854 0.0856
2821.000000 0.0857 0.0860 0.0863 0.0866 0.0869
2826.000000 0.0872 0.0875 0.0877 0.0880 0.0883
2831.000000 0.0886 0.0888 0.0891 0.0893 0.0896
2836.000000 0.0898 0.0900 0.0902 0.0904 0.0905
2841.000000 0.0907 0.0907 0.0908 0.0908 0.0909
2846.000000 0.0909 0.0909 0.0909 0.0909 0.0909
2851.000000 0.0909 0.0909 0.0909 0.0908 0.0908
2856.000000 0.0908 0.0908 0.0908 0.0908 0.0908
2861.000000 0.0907 0.0907 0.0907 0.0907 0.0907
2866.000000 0.0907 0.0906 0.0906 0.0906 0.0906
2871.000000 0.0905 0.0905 0.0905 0.0907 0.0913
2876.000000 0.0919 0.0926 0.0936 0.0947 0.0958
2881.000000 0.0969 0.0980 0.0992 0.1001 0.1008
2886.000000 0.1015 0.1022 0.1025 0.1028 0.1031
2891.000000 0.1034 0.1036 0.1039 0.1041 0.1041
2896.000000 0.1042 0.1043 0.1043 0.1044 0.1044
2901.000000 0.1045 0.1046 0.1046 0.1047 0.1047
2906.000000 0.1048 0.1049 0.1049 0.1050 0.1050
2911.000000 0.1051 0.1051 0.1052 0.1053 0.1053
2916.000000 0.1053 0.1053 0.1054 0.1055 0.1055
2921.000000 0.1056 0.1056 0.1056 0.1056 0.1056
2926.000000 0.1056 0.1056 0.1056 0.1056 0.1056
2931.000000 0.1055 0.1055 0.1055 0.1055 0.1055
2936.000000 0.1055 0.1055 0.1055 0.1055 0.1055
2941.000000 0.1055 0.1054 0.1054 0.1054 0.1054
2946.000000 0.1054 0.1054 0.1054 0.1055 0.1055
2951.000000 0.1055 0.1055 0.1055 0.1055 0.1055
2956.000000 0.1055 0.1055 0.1055 0.1055 0.1057
2961.000000 0.1059 0.1060 0.1063 0.1066 0.1069
2966.000000 0.1072 0.1075 0.1078 0.1081 0.1083
2971.000000 0.1086 0.1088 0.1090 0.1093 0.1095
2976.000000 0.1097 0.1099 0.1100 0.1101 0.1102
2981.000000 0.1101 0.1099 0.1098 0.1097 0.1096
2986.000000 0.1094 0.1093 0.1092 0.1091 0.1089
2991.000000 0.1088 0.1086 0.1084 0.1083 0.1081
2996.000000 0.1079 0.1077 0.1075 0.1073 0.1071
3001.000000 0.1069 0.1067 0.1065 0.1063 0.1061
3006.000000 0.1060 0.1058 0.1057 0.1056 0.1055
3011.000000 0.1054 0.1054 0.1054 0.1054 0.1054
3016.000000 0.1055 0.1060 0.1066 0.1071 0.1082
3021.000000 0.1095 0.1109 0.1123 0.1134 0.1145
3026.000000 0.1156 0.1164 0.1166 0.1167 0.1169
3031.000000 0.1170 0.1171 0.1172 0.1174 0.1174
3036.000000 0.1175 0.1175 0.1176 0.1176 0.1176
3041.000000 0.1176 0.1175 0.1175 0.1175 0.1175
3046.000000 0.1174 0.1174 0.1174 0.1174 0.1174
3051.000000 0.1175 0.1176 0.1178 0.1181 0.1184
3056.000000 0.1187 0.1191 0.1196 0.1200 0.1205
3061.000000 0.1209 0.1213 0.1217 0.1222 0.1226
3066.000000 0.1230 0.1234 0.1237 0.1240 0.1243
3071.000000 0.1246 0.1247 0.1247 0.1247 0.1247
3076.000000 0.1247 0.1247 0.1247 0.1248 0.1248
3081.000000 0.1248 0.1248 0.1247 0.1247 0.1247
3086.000000 0.1247 0.1247 0.1247 0.1247 0.1247
3091.000000 0.1246 0.1246 0.1246 0.1246 0.1246
3096.000000 0.1246 0.1246 0.1245 0.1245 0.1245
3101.000000 0.1245 0.1245 0.1245 0.1245 0.1245
3106.000000 0.1246 0.1246 0.1246 0.1246 0.1247
3111.000000 0.1247 0.1247 0.1247 0.1248 0.1248
3116.000000 0.1248 0.1248 0.1249 0.1249 0.1249
3121.000000 0.1249 0.1249 0.1249 0.1249 0.1250
3126.000000 0.1251 0.1252 0.1253 0.1255 0.1256
3131.000000 0.1257 0.1258 0.1260 0.1261 0.1263
3136.000000 0.1264 0.1266 0.1267 0.1268 0.1270
3141.000000 0.1271 0.1272 0.1273 0.1275 0.1274
3146.000000 0.1268 0.1262 0.1257 0.1251 0.1245
3151.000000 0.1238 0.1232 0.1224 0.1214 0.1204
3156.000000 0.1193 0.1182 0.1169 0.1156 0.1143
3161.000000 0.1131 0.1119 0.1108 0.1097 0.1086
3166.000000 0.1075 0.1064 0.1054 0.1043 0.1034
3171.000000 0.1024 0.1014 0.1005 0.0997 0.0989
3176.000000 0.0981 0.0972 0.0965 0.0957 0.0949
3181.000000 0.0942 0.0936 0.0930 0.0925 0.0919
3186.000000 0.0913 0.0908 0.0902 0.0896 0.0891
3191.000000 0.0885 0.0879 0.0874 0.0872 0.0870
3196.000000 0.0868 0.0865 0.0864 0.0863 0.0863
3201.000000 0.0862 0.0861 0.0861 0.0860 0.0860
3206.000000 0.0859 0.0859 0.0859 0.0859 0.0854
3211.000000 0.0859 0.0860 0.0860 0.0861 0.0862
3216.000000 0.0863 0.0864 0.0873 0.0889 0.0906
3221.000000 0.0923 0.0959 0.1031 0.1103 0.1175
3226.000000 0.1247 0.1319 0.1391 0.1463 0.1534
3231.000000 0.1605 0.1676 0.1746 0.1817 0.1839
3236.000000 0.1852 0.1865 0.1878 0.1902 0.1931
3241.000000 0.1960 0.1990 0.2010 0.2021 0.2031
3246.000000 0.2042 0.2052 0.2062 0.2071 0.2081
3251.000000 0.2091 0.2098 0.2104 0.2111 0.2118
3256.000000 0.2121 0.2122 0.2124 0.2126 0.2127
3261.000000 0.2129 0.2131 0.2132 0.2134 0.2134
3266.000000 0.2134 0.2134 0.2134 0.2134 0.2134
3271.000000 0.2134 0.2134 0.2138 0.2134 0.2134
3276.000000 0.2134 0.2133 0.2132 0.2132 0.2131
3281.000000 0.2130 0.2129 0.2127 0.2126 0.2125
3286.000000 0.2123 0.2122 0.2121 0.2119 0.2118
3291.000000 0.2116 0.2115 0.2114 0.2111 0.2105
3296.000000 0.2099 0.2093 0.2087 0.2081 0.2075
3301.000000 0.2069 0.2063 0.2053 0.2041 0.2029
3306.000000 0.2016 0.2004 0.1988 0.1973 0.1957
3311.000000 0.1942 0.1931 0.1922 0.1913 0.1904
3316.000000 0.1895 0.1887 0.1878 0.1870 0.1861
3321.000000 0.1857 0.1854 0.1850 0.1847 0.1845
3326.000000 0.1843 0.1842 0.1841 0.1824 0.1840
3331.000000 0.1840 0.1841 0.1841 0.1845 0.1850
3336.000000 0.1855 0.1860 0.1866 0.1877 0.1888
3341.000000 0.1899 0.1910 0.1923 0.1938 0.1953
3346.000000 0.1967 0.1981 0.1994 0.2006 0.2019
3351.000000 0.2032 0.2045 0.2059 0.2073 0.2087
3356.000000 0.2099 0.2106 0.2114 0.2121 0.2129
3361.000000 0.2146 0.2165 0.2185 0.2204 0.2229
3366.000000 0.2271 0.2312 0.2353 0.2394 0.2435
3371.000000 0.2476 0.2516 0.2557 0.2599 0.2647
3376.000000 0.2695 0.2743 0.2790 0.2838 0.2885
3381.000000 0.2932 0.2980 0.3026 0.3061 0.3097
3386.000000 0.3132 0.3167 0.3190 0.3200 0.3210
3391.000000 0.3219 0.3229 0.3239 0.3248 0.3257
3396.000000 0.3267 0.3276 0.3283 0.3291 0.3299
3401.000000 0.3307 0.3314 0.3322 0.3329 0.3337
3406.000000 0.3345 0.3352 0.3360 0.3368 0.3376
3411.000000 0.3383 0.3391 0.3399 0.3407 0.3415
3416.000000 0.3423 0.3432 0.3440 0.3448 0.3457
3421.000000 0.3465 0.3473 0.3481 0.3489 0.3497
3426.000000 0.3505 0.3513 0.3522 0.3530 0.3539
3431.000000 0.3549 0.3559 0.3569 0.3579 0.3591
3436.000000 0.3604 0.3617 0.3629 0.3642 0.3655
3441.000000 0.3668 0.3680 0.3693 0.3706 0.3720
3446.000000 0.3734 0.3748 0.3762 0.3777 0.3793
3451.000000 0.3808 0.3824 0.3840 0.3855 0.3871
3456.000000 0.3886 0.3902 0.3918 0.3934 0.3950
3461.000000 0.3966 0.3983 0.3999 0.4016 0.4033
3466.000000 0.4050 0.4068 0.4084 0.4101 0.4118
3471.000000 0.4134 0.4151 0.4164 0.4177 0.4189
3476.000000 0.4201 0.4214 0.4226 0.4239 0.4251
3481.000000 0.4263 0.4276 0.4287 0.4299 0.4311
3486.000000 0.4323 0.4334 0.4344 0.4353 0.4363
3491.000000 0.4373 0.4382 0.4392 0.4401 0.4411
3496.000000 0.4421 0.4430 0.4440 0.4449 0.4459
3501.000000 0.4469 0.4478 0.4487 0.4497 0.4506
3506.000000 0.4516 0.4525 0.4536 0.4546 0.4556
3511.000000 0.4566 0.4578 0.4590 0.4602 0.4613
3516.000000 0.4625 0.4637 0.4649 0.4661 0.4673
3521.000000 0.4685 0.4697 0.4709 0.4721 0.4733
3526.000000 0.4745 0.4754 0.4762 0.4770 0.4779
3531.000000 0.4787 0.4793 0.4800 0.4806 0.4813
3536.000000 0.4819 0.4825 0.4831 0.4838 0.4844
3541.000000 0.4850 0.4856 0.4863 0.4869 0.4875
3546.000000 0.4882 0.4888 0.4894 0.4900 0.4907
3551.000000 0.4913 0.4919 0.4925 0.4932 0.4938
3556.000000 0.4944 0.4950 0.4957 0.4963 0.4969
3561.000000 0.4975 0.4983 0.4992 0.5001 0.5010
3566.000000 0.5019 0.5029 0.5039 0.5049 0.5058
3571.000000 0.5068 0.5078 0.5088 0.5098 0.5107
3576.000000 0.5117 0.5127 0.5137 0.5147 0.5156
3581.000000 0.5166 0.5176 0.5188 0.5199 0.5210
3586.000000 0.5221 0.5233 0.5246 0.5259 0.5272
3591.000000 0.5285 0.5298 0.5311 0.5324 0.5337
3596.000000 0.5350 0.5363 0.5381 0.5400 0.5419
3601.000000 0.5438 0.5457 0.5474 0.5491 0.5508
3606.000000 0.5525 0.5542 0.5553 0.5559 0.5565
3611.000000 0.5571 0.5577 0.5583 0.5586 0.5590
3616.000000 0.5593 0.5597 0.5601 0.5604 0.5608
3621.000000 0.5612 0.5615 0.5619 0.5622 0.5625
3626.000000 0.5628 0.5631 0.5634 0.5636 0.5638
3631.000000 0.5639 0.5641 0.5642 0.5644 0.5645
3636.000000 0.5647 0.5648 0.5649 0.5650 0.5652
3641.000000 0.5653 0.5654 0.5656 0.5657 0.5658
3646.000000 0.5659 0.5661 0.5662 0.5663 0.5664
3651.000000 0.5665 0.5666 0.5667 0.5668 0.5669
3656.000000 0.5670 0.5671 0.5672 0.5673 0.5674
3661.000000 0.5677 0.5680 0.5683 0.5686 0.5689
3666.000000 0.5693 0.5697 0.5701 0.5704 0.5708
3671.000000 0.5712 0.5716 0.5719 0.5723 0.5726
3676.000000 0.5730 0.5733 0.5736 0.5739 0.5742
3681.000000 0.5745 0.5748 0.5751 0.5754 0.5757
3686.000000 0.5760 0.5763 0.5766 0.5768 0.5771
3691.000000 0.5774 0.5777 0.5780 0.5781 0.5782
3696.000000 0.5783 0.5784 0.5785 0.5786 0.5787
3701.000000 0.5789 0.5790 0.5791 0.5792 0.5793
3706.000000 0.5794 0.5796 0.5797 0.5798 0.5799
3711.000000 0.5800 0.5802 0.5803 0.5804 0.5805
3716.000000 0.5806 0.5807 0.5808 0.5809 0.5810
3721.000000 0.5811 0.5812 0.5812 0.5813 0.5814
3726.000000 0.5815 0.5815 0.5816 0.5817 0.5818
3731.000000 0.5818 0.5819 0.5820 0.5820 0.5821
3736.000000 0.5822 0.5823 0.5826 0.5829 0.5832
3741.000000 0.5836 0.5839 0.5842 0.5846 0.5849
3746.000000 0.5853 0.5856 0.5860 0.5860 0.5859
3751.000000 0.5858 0.5858 0.5857 0.5855 0.5851
3756.000000 0.5847 0.5843 0.5838 0.5834 0.5861
3761.000000 0.5823 0.5817 0.5811 0.5805 0.5799
3766.000000 0.5791 0.5783 0.5776 0.5768 0.5760
3771.000000 0.5752 0.5743 0.5735 0.5726 0.5717
3776.000000 0.5708 0.5702 0.5696 0.5691 0.5686
3781.000000 0.5681 0.5675 0.5673 0.5670 0.5668
3786.000000 0.5666 0.5663 0.5661 0.5661 0.5660
3791.000000 0.5659 0.5658 0.5657 0.5656 0.5655
3796.000000 0.5654 0.5654 0.5653 0.5652 0.5651
3801.000000 0.5650 0.5649 0.5648 0.5647 0.5646
3806.000000 0.5642 0.5637 0.5633 0.5628 0.5624
3811.000000 0.5619 0.5614 0.5608 0.5602 0.5597
3816.000000 0.5591 0.5586 0.5582 0.5578 0.5574
3821.000000 0.5570 0.5566 0.5563 0.5560 0.5558
3826.000000 0.5556 0.5554 0.5552 0.5550 0.5549
3831.000000 0.5548 0.5547 0.5546 0.5545 0.5544
3836.000000 0.5543 0.5542 0.5541 0.5540 0.5539
3841.000000 0.5538 0.5538 0.5538 0.5537 0.5537
3846.000000 0.5537 0.5536 0.5536 0.5536 0.5536
3851.000000 0.5536 0.5536 0.5535 0.5535 0.5535
3856.000000 0.5535 0.5535 0.5535 0.5534 0.5534
3861.000000 0.5534 0.5534 0.5534 0.5534 0.5534
3866.000000 0.5534 0.5534 0.5534 0.5534 0.5535
3871.000000 0.5535 0.5535 0.5535 0.5535 0.5535
3876.000000 0.5536 0.5536 0.5536 0.5536 0.5536
3881.000000 0.5536 0.5537 0.5537 0.5537 0.5537
3886.000000 0.5537 0.5537 0.5537 0.5538 0.5538
3891.000000 0.5538 0.5538 0.5538 0.5538 0.5538
3896.000000 0.5538 0.5538 0.5538 0.5538 0.5538
3901.000000 0.5537 0.5537 0.5537 0.5537 0.5537
3906.000000 0.5537 0.5536 0.5536 0.5536 0.5536
3911.000000 0.5536 0.5536 0.5534 0.5533 0.5531
3916.000000 0.5530 0.5528 0.5526 0.5525 0.5523
3921.000000 0.5521 0.5519 0.5517 0.5516 0.5514
3926.000000 0.5512 0.5510 0.5509 0.5507 0.5505
3931.000000 0.5503 0.5501 0.5500 0.5498 0.5496
3936.000000 0.5494 0.5493 0.5491 0.5489 0.5488
3941.000000 0.5486 0.5484 0.5483 0.5480 0.5477
3946.000000 0.5474 0.5472 0.5469 0.5466 0.5462
3951.000000 0.5457 0.5452 0.5447 0.5442 0.5437
3956.000000 0.5432 0.5427 0.5422 0.5418 0.5413
3961.000000 0.5408 0.5403 0.5399 0.5395 0.5390
3966.000000 0.5386 0.5382 0.5378 0.5373 0.5369
3971.000000 0.5365 0.5360 0.5356 0.5352 0.5348
3976.000000 0.5343 0.5339 0.5335 0.5331 0.5326
3981.000000 0.5322 0.5322 0.5321 0.5320 0.5319
3986.000000 0.5318 0.5318 0.5317 0.5316 0.5316
3991.000000 0.5315 0.5315 0.5314 0.5313 0.5312
3996.000000 0.5312 0.5311 0.5310 0.5309 0.5309
##END=
