##TITLE=SODIUM TRIPOLYPHOSPHATE, FORM I
##JCAMP-DX=4.24
##DATA TYPE=INFRARED SPECTRUM
##CLASS=COBLENTZ
##ORIGIN=PROCTER AND GAMBLE CO.
##OWNER=COBLENTZ SOCIETY
Collection (C) 2018 copyright by the U.S. Secretary of Commerce
on behalf of the United States of America. All rights reserved.
##DATE=Not specified, most likely prior to 1970
##NAMES=TRIPHOSPHORIC ACID, SODIUM SALT
##MOLFORM=Na5 P3 O10
##SOURCE REFERENCE=COBLENTZ NO. 2080
##$NIST ID=B6002080
##$NIST SOURCE=COBLENTZ
##$NIST IMAGE=cob2080
##SPECTROMETER/DATA SYSTEM=PERKIN-ELMER
##STATE=SOLID (1.3 mg / 400 mg KBr PELLET)
##SAMPLING PROCEDURE=TRANSMISSION
##RESOLUTION=4
##DATA PROCESSING=DIGITIZED BY NIST FROM HARD COPY (FROM TWO SEGMENTS)
##XUNITS=1/CM
##YUNITS=TRANSMITTANCE
##XFACTOR=1.000000
##YFACTOR=1
##DELTAX=1.127823
##FIRSTX=538.346
##LASTX=3994
##FIRSTY=0.465
##MAXX=3994
##MINX=538.346
##MAXY=0.87
##MINY=0.136
##NPOINTS=3065
##XYDATA=(X++(Y..Y))
538.346000 0.4650 0.4650 0.4650 0.4650 0.4650
543.985117 0.4650 0.4650 0.4650 0.4640 0.4620
549.624234 0.4590 0.4530 0.4470 0.4430 0.4360
555.263351 0.4280 0.4161 0.4070 0.3990 0.3970
560.902468 0.3950 0.3950 0.3950 0.3950 0.3970
566.541585 0.4020 0.4040 0.4110 0.4209 0.4299
572.180702 0.4400 0.4450 0.4480 0.4530 0.4590
577.819819 0.4640 0.4769 0.4929 0.5049 0.5130
583.458937 0.5170 0.5320 0.5460 0.5590 0.5710
589.098054 0.5810 0.5929 0.6020 0.6100 0.6160
594.737171 0.6210 0.6290 0.6290 0.6290 0.6270
600.376288 0.6240 0.6170 0.6041 0.5881 0.5810
606.015405 0.5780 0.5780 0.5760 0.5730 0.5690
611.654522 0.5590 0.5490 0.5390 0.5291 0.5250
617.293639 0.5250 0.5250 0.5320 0.5490 0.5709
622.932756 0.5899 0.6049 0.6269 0.6429 0.6559
628.571873 0.6680 0.6840 0.6990 0.7110 0.7200
634.210990 0.7230 0.7250 0.7330 0.7350 0.7380
639.850107 0.7400 0.7400 0.7400 0.7400 0.7420
645.489224 0.7420 0.7420 0.7420 0.7420 0.7420
651.128341 0.7420 0.7400 0.7400 0.7400 0.7380
656.767458 0.7350 0.7300 0.7250 0.7210 0.7180
662.406575 0.7130 0.7090 0.7080 0.7060 0.7060
668.045692 0.7060 0.7040 0.7040 0.7040 0.7040
673.684810 0.7040 0.7040 0.7040 0.7030 0.7030
679.323927 0.7010 0.7010 0.6990 0.6990 0.6970
684.963044 0.6960 0.6920 0.6910 0.6890 0.6870
690.602161 0.6820 0.6770 0.6720 0.6700 0.6601
696.241278 0.6460 0.6360 0.6240 0.6160 0.6040
701.880395 0.5920 0.5810 0.5691 0.5581 0.5491
707.519512 0.5400 0.5340 0.5320 0.5320 0.5320
713.158629 0.5320 0.5320 0.5340 0.5370 0.5440
718.797746 0.5490 0.5520 0.5630 0.5800 0.5850
724.436863 0.5920 0.6020 0.6040 0.6070 0.6159
730.075980 0.6270 0.6360 0.6390 0.6410 0.6430
735.715097 0.6450 0.6510 0.6600 0.6739 0.6909
741.354214 0.7080 0.7160 0.7260 0.7350 0.7380
746.993331 0.7380 0.7380 0.7350 0.7260 0.7081
752.632448 0.6910 0.6870 0.6870 0.6910 0.7109
758.271565 0.7210 0.7250 0.7280 0.7399 0.7420
763.910683 0.7420 0.7400 0.7400 0.7380 0.7380
769.549800 0.7380 0.7420 0.7440 0.7450 0.7500
775.188917 0.7520 0.7570 0.7590 0.7610 0.7610
780.828034 0.7660 0.7690 0.7730 0.7740 0.7760
786.467151 0.7810 0.7840 0.7840 0.7840 0.7840
792.106268 0.7840 0.7840 0.7840 0.7840 0.7830
797.745385 0.7830 0.7810 0.7810 0.7810 0.7810
803.384502 0.7810 0.7810 0.7810 0.7810 0.7810
809.023619 0.7810 0.7810 0.7810 0.7810 0.7810
814.662736 0.7810 0.7810 0.7810 0.7810 0.7810
820.301853 0.7810 0.7780 0.7780 0.7780 0.7780
825.940970 0.7780 0.7760 0.7760 0.7740 0.7740
831.580087 0.7740 0.7710 0.7690 0.7690 0.7640
837.219204 0.7610 0.7570 0.7570 0.7550 0.7470
842.858321 0.7420 0.7380 0.7300 0.7250 0.7230
848.497438 0.7200 0.7080 0.6941 0.6821 0.6770
854.136556 0.6720 0.6650 0.6530 0.6360 0.6240
859.775673 0.6090 0.5931 0.5711 0.5461 0.5301
865.414790 0.5110 0.4840 0.4590 0.4360 0.4061
871.053907 0.3821 0.3631 0.3481 0.3371 0.3291
876.693024 0.3240 0.3170 0.3080 0.2960 0.2910
882.332141 0.2900 0.2880 0.2860 0.2860 0.2840
887.971258 0.2840 0.2840 0.2840 0.2840 0.2840
893.610375 0.2840 0.2840 0.2840 0.2840 0.2860
899.249492 0.2860 0.2880 0.2900 0.2900 0.2910
904.888609 0.2910 0.2930 0.2960 0.2980 0.3050
910.527726 0.3130 0.3150 0.3170 0.3190 0.3240
916.166843 0.3320 0.3410 0.3480 0.3560 0.3650
921.805960 0.3730 0.3800 0.3900 0.3970 0.4070
927.445077 0.4180 0.4280 0.4360 0.4430 0.4519
933.084194 0.4600 0.4720 0.4840 0.4980 0.5010
938.723311 0.5100 0.5200 0.5270 0.5350 0.5420
944.362429 0.5470 0.5560 0.5640 0.5730 0.5730
950.001546 0.5760 0.5800 0.5800 0.5800 0.5800
955.640663 0.5800 0.5780 0.5780 0.5780 0.5780
961.279780 0.5800 0.5870 0.5920 0.6039 0.6159
966.918897 0.6220 0.6290 0.6380 0.6430 0.6550
972.558014 0.6620 0.6650 0.6740 0.6840 0.6910
978.197131 0.7030 0.7080 0.7130 0.7180 0.7200
983.836248 0.7200 0.7160 0.7130 0.7130 0.7180
989.475365 0.7260 0.7320 0.7380 0.7450 0.7540
995.114482 0.7620 0.7760 0.7909 0.7960 0.8020
1000.753599 0.8080 0.8150 0.8190 0.8200 0.8200
1006.392716 0.8200 0.8190 0.8190 0.8170 0.8150
1012.031833 0.8150 0.8150 0.8150 0.8150 0.8150
1017.670950 0.8150 0.8130 0.8120 0.8100 0.8080
1023.310067 0.8070 0.8030 0.8000 0.7950 0.7900
1028.949184 0.7880 0.7900 0.7910 0.7930 0.7930
1034.588302 0.7930 0.7880 0.7810 0.7760 0.7730
1040.227419 0.7710 0.7690 0.7620 0.7610 0.7540
1045.866536 0.7470 0.7380 0.7320 0.7210 0.7110
1051.505653 0.7010 0.6870 0.6701 0.6650 0.6551
1057.144770 0.6450 0.6330 0.6220 0.6140 0.5930
1062.783887 0.5750 0.5660 0.5441 0.5321 0.5151
1068.423004 0.5030 0.4880 0.4700 0.4520 0.4310
1074.062121 0.4120 0.3950 0.3801 0.3661 0.3541
1079.701238 0.3530 0.3530 0.3530 0.3530 0.3530
1085.340355 0.3530 0.3530 0.3530 0.3530 0.3530
1090.979472 0.3540 0.3540 0.3540 0.3540 0.3530
1096.618589 0.3530 0.3430 0.3390 0.3430 0.3609
1102.257706 0.3780 0.3970 0.4120 0.4180 0.4180
1107.896823 0.4140 0.4060 0.3940 0.3771 0.3601
1113.535940 0.3410 0.3190 0.2980 0.2810 0.2610
1119.175057 0.2371 0.2041 0.1910 0.1651 0.1580
1124.814175 0.1580 0.1580 0.1580 0.1600 0.1600
1130.453292 0.1600 0.1600 0.1630 0.1650 0.1680
1136.092409 0.1750 0.1770 0.1770 0.1770 0.1770
1141.731526 0.1740 0.1680 0.1630 0.1580 0.1560
1147.370643 0.1500 0.1450 0.1390 0.1380 0.1380
1153.009760 0.1360 0.1360 0.1380 0.1450 0.1530
1158.648877 0.1580 0.1670 0.1700 0.1720 0.1790
1164.287994 0.1920 0.2030 0.2150 0.2230 0.2320
1169.927111 0.2470 0.2550 0.2620 0.2730 0.2860
1175.566228 0.3000 0.3150 0.3309 0.3439 0.3559
1181.205345 0.3700 0.3800 0.3900 0.3970 0.4090
1186.844462 0.4210 0.4260 0.4350 0.4430 0.4480
1192.483579 0.4500 0.4500 0.4500 0.4500 0.4480
1198.122696 0.4430 0.4380 0.4041 0.3781 0.3601
1203.761813 0.3359 0.2929 0.2490 0.2180 0.2150
1209.400930 0.2150 0.2160 0.2200 0.2280 0.2320
1215.040048 0.2380 0.2490 0.2670 0.2780 0.2910
1220.679165 0.3120 0.3200 0.3359 0.3489 0.3599
1226.318282 0.3770 0.3940 0.4110 0.4240 0.4360
1231.957399 0.4480 0.4590 0.4670 0.4770 0.4889
1237.596516 0.5000 0.5050 0.5170 0.5250 0.5350
1243.235633 0.5390 0.5470 0.5580 0.5640 0.5660
1248.874750 0.5730 0.5810 0.5880 0.5930 0.5980
1254.513867 0.6000 0.6040 0.6120 0.6210 0.6270
1260.152984 0.6290 0.6340 0.6380 0.6390 0.6410
1265.792101 0.6430 0.6510 0.6580 0.6600 0.6630
1271.431218 0.6650 0.6680 0.6700 0.6770 0.6790
1277.070335 0.6840 0.6840 0.6860 0.6870 0.6920
1282.709452 0.6940 0.6960 0.6970 0.6990 0.7040
1288.348569 0.7060 0.7060 0.7080 0.7090 0.7090
1293.987686 0.7130 0.7130 0.7160 0.7200 0.7210
1299.626803 0.7210 0.7230 0.7250 0.7260 0.7280
1305.265921 0.7300 0.7320 0.7320 0.7330 0.7370
1310.905038 0.7370 0.7380 0.7400 0.7400 0.7400
1316.544155 0.7450 0.7470 0.7470 0.7490 0.7500
1322.183272 0.7520 0.7540 0.7540 0.7550 0.7550
1327.822389 0.7550 0.7550 0.7570 0.7570 0.7570
1333.461506 0.7570 0.7610 0.7620 0.7620 0.7620
1339.100623 0.7640 0.7640 0.7640 0.7660 0.7660
1344.739740 0.7670 0.7690 0.7690 0.7690 0.7690
1350.378857 0.7710 0.7710 0.7710 0.7710 0.7710
1356.017974 0.7730 0.7730 0.7730 0.7730 0.7730
1361.657091 0.7740 0.7740 0.7740 0.7740 0.7740
1367.296208 0.7740 0.7740 0.7730 0.7730 0.7730
1372.935325 0.7710 0.7710 0.7710 0.7710 0.7690
1378.574442 0.7690 0.7690 0.7690 0.7690 0.7690
1384.213559 0.7690 0.7690 0.7690 0.7690 0.7690
1389.852676 0.7690 0.7690 0.7710 0.7710 0.7710
1395.491794 0.7710 0.7710 0.7710 0.7690 0.7690
1401.130911 0.7670 0.7670 0.7670 0.7670 0.7670
1406.770028 0.7690 0.7690 0.7690 0.7710 0.7710
1412.409145 0.7710 0.7710 0.7710 0.7710 0.7690
1418.048262 0.7690 0.7710 0.7730 0.7760 0.7780
1423.687379 0.7790 0.7810 0.7810 0.7810 0.7810
1429.326496 0.7790 0.7790 0.7780 0.7780 0.7790
1434.965613 0.7790 0.7810 0.7810 0.7810 0.7810
1440.604730 0.7810 0.7810 0.7810 0.7790 0.7780
1446.243847 0.7780 0.7760 0.7760 0.7760 0.7760
1451.882964 0.7760 0.7760 0.7760 0.7760 0.7760
1457.522081 0.7760 0.7740 0.7740 0.7740 0.7760
1463.161198 0.7760 0.7760 0.7760 0.7760 0.7760
1468.800315 0.7810 0.7840 0.7860 0.7860 0.7880
1474.439432 0.7900 0.7910 0.7910 0.7910 0.7910
1480.078549 0.7910 0.7910 0.7910 0.7910 0.7930
1485.717667 0.7930 0.7930 0.7930 0.7930 0.7930
1491.356784 0.7930 0.7930 0.7930 0.7930 0.7950
1496.995901 0.7980 0.8000 0.8000 0.8000 0.8000
1502.635018 0.8000 0.8000 0.7980 0.7980 0.7980
1508.274135 0.7980 0.7980 0.8000 0.8020 0.8020
1513.913252 0.8020 0.8030 0.8030 0.8050 0.8050
1519.552369 0.8030 0.8030 0.8030 0.8050 0.8050
1525.191486 0.8030 0.8020 0.8020 0.8020 0.8030
1530.830603 0.8050 0.8050 0.8070 0.8100 0.8100
1536.469720 0.8100 0.8100 0.8100 0.8100 0.8100
1542.108837 0.8100 0.8100 0.8080 0.8070 0.8050
1547.747954 0.8030 0.8020 0.8000 0.7980 0.7960
1553.387071 0.7950 0.7930 0.7930 0.7930 0.7910
1559.026188 0.7910 0.7910 0.7900 0.7900 0.7880
1564.665305 0.7880 0.7860 0.7860 0.7860 0.7840
1570.304422 0.7840 0.7840 0.7840 0.7840 0.7830
1575.943540 0.7830 0.7830 0.7810 0.7810 0.7810
1581.582657 0.7790 0.7790 0.7790 0.7780 0.7760
1587.221774 0.7760 0.7740 0.7730 0.7710 0.7710
1592.860891 0.7690 0.7690 0.7660 0.7660 0.7660
1598.500008 0.7640 0.7640 0.7620 0.7610 0.7610
1604.139125 0.7590 0.7570 0.7550 0.7550 0.7520
1609.778242 0.7500 0.7450 0.7420 0.7380 0.7370
1615.417359 0.7350 0.7330 0.7320 0.7280 0.7260
1621.056476 0.7230 0.7180 0.7160 0.7150 0.7110
1626.695593 0.7080 0.7040 0.7010 0.6990 0.6970
1632.334710 0.6940 0.6910 0.6890 0.6870 0.6770
1637.973827 0.6720 0.6700 0.6680 0.6670 0.6600
1643.612944 0.6560 0.6510 0.6450 0.6430 0.6410
1649.252061 0.6410 0.6430 0.6430 0.6430 0.6430
1654.891178 0.6430 0.6450 0.6480 0.6480 0.6480
1660.530295 0.6500 0.6500 0.6510 0.6510 0.6510
1666.169413 0.6530 0.6530 0.6530 0.6530 0.6530
1671.808530 0.6550 0.6550 0.6550 0.6550 0.6550
1677.447647 0.6560 0.6560 0.6560 0.6560 0.6580
1683.086764 0.6580 0.6620 0.6630 0.6670 0.6740
1688.725881 0.6750 0.6770 0.6820 0.6870 0.6940
1694.364998 0.7040 0.7060 0.7080 0.7090 0.7150
1700.004115 0.7210 0.7280 0.7320 0.7350 0.7380
1705.643232 0.7440 0.7470 0.7490 0.7500 0.7550
1711.282349 0.7570 0.7610 0.7610 0.7660 0.7670
1716.921466 0.7730 0.7740 0.7740 0.7780 0.7790
1722.560583 0.7810 0.7810 0.7810 0.7830 0.7860
1728.199700 0.7910 0.7930 0.7950 0.7980 0.7980
1733.838817 0.7980 0.8000 0.8000 0.8020 0.8020
1739.477934 0.8030 0.8030 0.8050 0.8070 0.8070
1745.117051 0.8080 0.8080 0.8100 0.8100 0.8120
1750.756168 0.8130 0.8130 0.8130 0.8150 0.8150
1756.395286 0.8170 0.8190 0.8190 0.8190 0.8200
1762.034403 0.8200 0.8200 0.8220 0.8240 0.8240
1767.673520 0.8250 0.8270 0.8270 0.8270 0.8270
1773.312637 0.8250 0.8250 0.8250 0.8250 0.8290
1778.951754 0.8290 0.8290 0.8290 0.8310 0.8310
1784.590871 0.8310 0.8320 0.8320 0.8320 0.8320
1790.229988 0.8340 0.8360 0.8360 0.8340 0.8340
1795.869105 0.8340 0.8360 0.8370 0.8370 0.8370
1801.508222 0.8390 0.8390 0.8390 0.8390 0.8410
1807.147339 0.8410 0.8430 0.8430 0.8430 0.8440
1812.786456 0.8460 0.8460 0.8460 0.8460 0.8480
1818.425573 0.8480 0.8480 0.8460 0.8460 0.8460
1824.064690 0.8460 0.8460 0.8460 0.8460 0.8480
1829.703807 0.8480 0.8480 0.8480 0.8480 0.8480
1835.342924 0.8480 0.8490 0.8490 0.8510 0.8510
1840.982041 0.8510 0.8510 0.8510 0.8510 0.8510
1846.621159 0.8530 0.8530 0.8530 0.8530 0.8530
1852.260276 0.8530 0.8530 0.8530 0.8510 0.8510
1857.899393 0.8510 0.8510 0.8510 0.8510 0.8530
1863.538510 0.8530 0.8540 0.8540 0.8560 0.8560
1869.177627 0.8560 0.8560 0.8560 0.8560 0.8560
1874.816744 0.8580 0.8600 0.8600 0.8600 0.8600
1880.455861 0.8580 0.8580 0.8580 0.8580 0.8580
1886.094978 0.8580 0.8580 0.8580 0.8580 0.8580
1891.734095 0.8600 0.8600 0.8600 0.8600 0.8600
1897.373212 0.8600 0.8600 0.8600 0.8610 0.8610
1903.012329 0.8610 0.8600 0.8600 0.8600 0.8600
1908.651446 0.8600 0.8600 0.8600 0.8600 0.8600
1914.290563 0.8600 0.8600 0.8600 0.8600 0.8600
1919.929680 0.8610 0.8610 0.8600 0.8600 0.8600
1925.568797 0.8600 0.8610 0.8630 0.8630 0.8630
1931.207914 0.8630 0.8630 0.8630 0.8630 0.8630
1936.847032 0.8630 0.8630 0.8630 0.8630 0.8630
1942.486149 0.8630 0.8630 0.8650 0.8650 0.8650
1948.125266 0.8650 0.8650 0.8650 0.8650 0.8630
1953.764383 0.8630 0.8610 0.8610 0.8610 0.8610
1959.403500 0.8610 0.8610 0.8610 0.8610 0.8610
1965.042617 0.8610 0.8610 0.8610 0.8610 0.8610
1970.681734 0.8610 0.8610 0.8610 0.8610 0.8630
1976.320851 0.8610 0.8610 0.8610 0.8610 0.8610
1981.959968 0.8610 0.8610 0.8610 0.8610 0.8610
1987.599085 0.8610 0.8610 0.8610 0.8610 0.8610
1993.238202 0.8610 0.8630 0.8630 0.8630 0.8630
1998.877319 0.8650 0.8650 0.8650 0.8650 0.8650
2004.516436 0.8650 0.8650 0.8654 0.8658 0.8660
2010.155553 0.8660 0.8660 0.8660 0.8660 0.8660
2015.794670 0.8660 0.8660 0.8668 0.8676 0.8680
2021.433787 0.8680 0.8680 0.8680 0.8680 0.8680
2027.072905 0.8680 0.8680 0.8680 0.8680 0.8680
2032.712022 0.8680 0.8680 0.8680 0.8680 0.8684
2038.351139 0.8692 0.8700 0.8700 0.8700 0.8700
2043.990256 0.8700 0.8700 0.8700 0.8700 0.8700
2049.629373 0.8700 0.8700 0.8700 0.8700 0.8700
2055.268490 0.8700 0.8700 0.8700 0.8700 0.8696
2060.907607 0.8688 0.8680 0.8668 0.8656 0.8646
2066.546724 0.8638 0.8630 0.8622 0.8614 0.8608
2072.185841 0.8604 0.8600 0.8592 0.8584 0.8580
2077.824958 0.8580 0.8580 0.8572 0.8564 0.8564
2083.464075 0.8572 0.8580 0.8580 0.8580 0.8576
2089.103192 0.8568 0.8560 0.8552 0.8544 0.8540
2094.742309 0.8540 0.8540 0.8540 0.8540 0.8540
2100.381426 0.8540 0.8540 0.8540 0.8540 0.8538
2106.020543 0.8534 0.8530 0.8530 0.8530 0.8530
2111.659660 0.8530 0.8530 0.8530 0.8530 0.8530
2117.298778 0.8530 0.8530 0.8530 0.8530 0.8530
2122.937895 0.8530 0.8530 0.8530 0.8530 0.8530
2128.577012 0.8530 0.8530 0.8530 0.8530 0.8530
2134.216129 0.8530 0.8530 0.8530 0.8530 0.8530
2139.855246 0.8530 0.8530 0.8530 0.8530 0.8530
2145.494363 0.8530 0.8530 0.8530 0.8530 0.8530
2151.133480 0.8530 0.8530 0.8530 0.8530 0.8530
2156.772597 0.8530 0.8530 0.8530 0.8530 0.8530
2162.411714 0.8530 0.8530 0.8530 0.8530 0.8530
2168.050831 0.8530 0.8530 0.8530 0.8530 0.8530
2173.689948 0.8530 0.8530 0.8530 0.8530 0.8530
2179.329065 0.8530 0.8530 0.8530 0.8530 0.8530
2184.968182 0.8530 0.8530 0.8530 0.8530 0.8530
2190.607299 0.8530 0.8530 0.8530 0.8530 0.8530
2196.246416 0.8530 0.8530 0.8530 0.8530 0.8530
2201.885533 0.8530 0.8530 0.8530 0.8530 0.8530
2207.524651 0.8530 0.8530 0.8530 0.8530 0.8527
2213.163768 0.8519 0.8511 0.8510 0.8510 0.8510
2218.802885 0.8510 0.8510 0.8503 0.8495 0.8490
2224.442002 0.8490 0.8490 0.8490 0.8490 0.8490
2230.081119 0.8490 0.8490 0.8497 0.8505 0.8510
2235.720236 0.8510 0.8510 0.8510 0.8510 0.8507
2241.359353 0.8499 0.8491 0.8490 0.8490 0.8485
2246.998470 0.8473 0.8462 0.8460 0.8460 0.8460
2252.637587 0.8460 0.8460 0.8460 0.8460 0.8463
2258.276704 0.8471 0.8479 0.8480 0.8480 0.8480
2263.915821 0.8480 0.8480 0.8480 0.8480 0.8477
2269.554938 0.8469 0.8461 0.8460 0.8460 0.8460
2275.194055 0.8460 0.8460 0.8460 0.8460 0.8460
2280.833172 0.8460 0.8460 0.8460 0.8460 0.8463
2286.472289 0.8471 0.8479 0.8480 0.8480 0.8480
2292.111406 0.8480 0.8480 0.8473 0.8465 0.8460
2297.750524 0.8460 0.8460 0.8467 0.8475 0.8480
2303.389641 0.8480 0.8480 0.8480 0.8480 0.8477
2309.028758 0.8469 0.8461 0.8460 0.8460 0.8460
2314.667875 0.8460 0.8460 0.8460 0.8460 0.8460
2320.306992 0.8460 0.8460 0.8453 0.8445 0.8440
2325.946109 0.8440 0.8440 0.8440 0.8440 0.8440
2331.585226 0.8440 0.8440 0.8440 0.8440 0.8443
2337.224343 0.8451 0.8459 0.8460 0.8460 0.8460
2342.863460 0.8460 0.8460 0.8460 0.8460 0.8457
2348.502577 0.8449 0.8441 0.8440 0.8440 0.8440
2354.141694 0.8440 0.8440 0.8440 0.8440 0.8440
2359.780811 0.8440 0.8440 0.8453 0.8469 0.8480
2365.419928 0.8480 0.8480 0.8480 0.8480 0.8480
2371.059045 0.8480 0.8480 0.8473 0.8465 0.8460
2376.698162 0.8460 0.8460 0.8460 0.8460 0.8460
2382.337279 0.8460 0.8460 0.8460 0.8460 0.8460
2387.976397 0.8460 0.8460 0.8460 0.8460 0.8457
2393.615514 0.8449 0.8441 0.8440 0.8440 0.8443
2399.254631 0.8451 0.8459 0.8453 0.8445 0.8440
2404.893748 0.8440 0.8440 0.8440 0.8440 0.8440
2410.532865 0.8440 0.8440 0.8440 0.8440 0.8440
2416.171982 0.8440 0.8440 0.8440 0.8440 0.8436
2421.811099 0.8424 0.8412 0.8410 0.8410 0.8410
2427.450216 0.8410 0.8410 0.8410 0.8410 0.8413
2433.089333 0.8420 0.8428 0.8433 0.8437 0.8442
2438.728450 0.8450 0.8458 0.8460 0.8460 0.8460
2444.367567 0.8460 0.8460 0.8460 0.8460 0.8460
2450.006684 0.8460 0.8460 0.8460 0.8460 0.8460
2455.645801 0.8460 0.8460 0.8460 0.8460 0.8460
2461.284918 0.8460 0.8460 0.8460 0.8460 0.8460
2466.924035 0.8460 0.8460 0.8460 0.8460 0.8460
2472.563152 0.8460 0.8460 0.8460 0.8460 0.8460
2478.202270 0.8460 0.8460 0.8460 0.8460 0.8460
2483.841387 0.8460 0.8460 0.8460 0.8460 0.8458
2489.480504 0.8450 0.8442 0.8440 0.8440 0.8439
2495.119621 0.8435 0.8431 0.8430 0.8430 0.8430
2500.758738 0.8430 0.8430 0.8424 0.8416 0.8410
2506.397855 0.8410 0.8410 0.8404 0.8396 0.8390
2512.036972 0.8390 0.8390 0.8390 0.8390 0.8390
2517.676089 0.8390 0.8390 0.8390 0.8390 0.8390
2523.315206 0.8390 0.8390 0.8390 0.8390 0.8390
2528.954323 0.8390 0.8390 0.8390 0.8390 0.8390
2534.593440 0.8390 0.8390 0.8396 0.8404 0.8410
2540.232557 0.8410 0.8410 0.8410 0.8410 0.8410
2545.871674 0.8410 0.8410 0.8410 0.8410 0.8410
2551.510791 0.8410 0.8410 0.8410 0.8410 0.8410
2557.149908 0.8410 0.8410 0.8410 0.8410 0.8410
2562.789025 0.8410 0.8410 0.8410 0.8410 0.8410
2568.428143 0.8410 0.8410 0.8410 0.8410 0.8410
2574.067260 0.8410 0.8410 0.8410 0.8410 0.8408
2579.706377 0.8400 0.8392 0.8390 0.8390 0.8390
2585.345494 0.8390 0.8390 0.8390 0.8390 0.8388
2590.984611 0.8380 0.8372 0.8370 0.8370 0.8370
2596.623728 0.8370 0.8370 0.8370 0.8370 0.8369
2602.262845 0.8365 0.8361 0.8360 0.8360 0.8360
2607.901962 0.8360 0.8360 0.8363 0.8367 0.8370
2613.541079 0.8370 0.8370 0.8370 0.8370 0.8370
2619.180196 0.8370 0.8370 0.8370 0.8370 0.8370
2624.819313 0.8370 0.8370 0.8370 0.8370 0.8369
2630.458430 0.8365 0.8361 0.8360 0.8360 0.8358
2636.097547 0.8350 0.8342 0.8340 0.8340 0.8338
2641.736664 0.8330 0.8322 0.8320 0.8320 0.8320
2647.375781 0.8320 0.8320 0.8320 0.8320 0.8320
2653.014898 0.8320 0.8320 0.8320 0.8320 0.8320
2658.654016 0.8320 0.8320 0.8320 0.8320 0.8319
2664.293133 0.8315 0.8311 0.8310 0.8310 0.8310
2669.932250 0.8310 0.8310 0.8304 0.8296 0.8290
2675.571367 0.8290 0.8290 0.8290 0.8290 0.8290
2681.210484 0.8290 0.8290 0.8296 0.8304 0.8310
2686.849601 0.8310 0.8310 0.8310 0.8310 0.8310
2692.488718 0.8310 0.8310 0.8310 0.8310 0.8310
2698.127835 0.8310 0.8310 0.8310 0.8310 0.8309
2703.766952 0.8300 0.8292 0.8290 0.8290 0.8288
2709.406069 0.8280 0.8272 0.8264 0.8256 0.8250
2715.045186 0.8250 0.8250 0.8250 0.8250 0.8252
2720.684303 0.8259 0.8267 0.8265 0.8257 0.8249
2726.323420 0.8245 0.8241 0.8235 0.8227 0.8220
2731.962537 0.8220 0.8220 0.8214 0.8206 0.8200
2737.601654 0.8200 0.8200 0.8200 0.8200 0.8199
2743.240771 0.8195 0.8191 0.8190 0.8190 0.8190
2748.879889 0.8190 0.8190 0.8190 0.8190 0.8190
2754.519006 0.8190 0.8190 0.8185 0.8177 0.8170
2760.158123 0.8170 0.8170 0.8164 0.8157 0.8148
2765.797240 0.8136 0.8124 0.8115 0.8107 0.8100
2771.436357 0.8100 0.8100 0.8100 0.8100 0.8100
2777.075474 0.8100 0.8100 0.8095 0.8087 0.8079
2782.714591 0.8075 0.8071 0.8070 0.8070 0.8069
2788.353708 0.8061 0.8053 0.8050 0.8050 0.8050
2793.992825 0.8050 0.8050 0.8045 0.8037 0.8030
2799.631942 0.8030 0.8030 0.8027 0.8023 0.8019
2805.271059 0.8011 0.8003 0.7995 0.7987 0.7978
2810.910176 0.7966 0.7954 0.7945 0.7937 0.7929
2816.549293 0.7921 0.7913 0.7902 0.7890 0.7879
2822.188410 0.7871 0.7863 0.7860 0.7860 0.7859
2827.827527 0.7851 0.7843 0.7840 0.7840 0.7839
2833.466644 0.7835 0.7831 0.7820 0.7804 0.7787
2839.105762 0.7767 0.7747 0.7727 0.7708 0.7686
2844.744879 0.7654 0.7621 0.7594 0.7570 0.7548
2850.383996 0.7536 0.7524 0.7520 0.7520 0.7520
2856.023113 0.7520 0.7520 0.7520 0.7520 0.7520
2861.662230 0.7520 0.7520 0.7520 0.7520 0.7519
2867.301347 0.7511 0.7503 0.7500 0.7500 0.7500
2872.940464 0.7495 0.7491 0.7490 0.7490 0.7487
2878.579581 0.7467 0.7447 0.7440 0.7440 0.7439
2884.218698 0.7431 0.7423 0.7415 0.7407 0.7400
2889.857815 0.7400 0.7400 0.7395 0.7387 0.7379
2895.496932 0.7367 0.7355 0.7345 0.7337 0.7328
2901.136049 0.7308 0.7287 0.7267 0.7247 0.7226
2906.775166 0.7199 0.7171 0.7140 0.7108 0.7074
2912.414283 0.7026 0.6979 0.6936 0.6896 0.6857
2918.053400 0.6829 0.6801 0.6785 0.6777 0.6770
2923.692517 0.6770 0.6770 0.6775 0.6783 0.6790
2929.331635 0.6794 0.6798 0.6805 0.6813 0.6821
2934.970752 0.6829 0.6837 0.6845 0.6853 0.6860
2940.609869 0.6860 0.6860 0.6860 0.6860 0.6860
2946.248986 0.6860 0.6860 0.6855 0.6847 0.6839
2951.888103 0.6831 0.6823 0.6813 0.6801 0.6789
2957.527220 0.6781 0.6773 0.6770 0.6770 0.6770
2963.166337 0.6770 0.6770 0.6770 0.6770 0.6770
2968.805454 0.6770 0.6770 0.6765 0.6757 0.6750
2974.444571 0.6750 0.6750 0.6748 0.6744 0.6739
2980.083688 0.6723 0.6707 0.6695 0.6687 0.6680
2985.722805 0.6676 0.6672 0.6665 0.6657 0.6649
2991.361922 0.6641 0.6633 0.6618 0.6598 0.6579
2997.001039 0.6567 0.6555 0.6541 0.6525 0.6509
3002.640156 0.6489 0.6469 0.6449 0.6429 0.6409
3008.279273 0.6397 0.6385 0.6369 0.6349 0.6330
3013.918390 0.6321 0.6313 0.6305 0.6297 0.6286
3019.557508 0.6238 0.6190 0.6159 0.6139 0.6119
3025.196625 0.6107 0.6095 0.6081 0.6065 0.6049
3030.835742 0.6029 0.6009 0.5989 0.5969 0.5949
3036.474859 0.5937 0.5925 0.5911 0.5895 0.5879
3042.113976 0.5859 0.5839 0.5819 0.5799 0.5779
3047.753093 0.5759 0.5739 0.5710 0.5674 0.5639
3053.392210 0.5627 0.5615 0.5606 0.5598 0.5589
3059.031327 0.5569 0.5549 0.5518 0.5478 0.5440
3064.670444 0.5432 0.5424 0.5420 0.5420 0.5420
3070.309561 0.5412 0.5404 0.5389 0.5369 0.5350
3075.948678 0.5346 0.5342 0.5336 0.5328 0.5319
3081.587795 0.5307 0.5295 0.5281 0.5265 0.5250
3087.226912 0.5238 0.5226 0.5216 0.5208 0.5200
3092.866029 0.5192 0.5184 0.5178 0.5174 0.5170
3098.505146 0.5162 0.5154 0.5141 0.5125 0.5109
3104.144263 0.5097 0.5086 0.5076 0.5068 0.5060
3109.783381 0.5048 0.5036 0.5026 0.5018 0.5010
3115.422498 0.5006 0.5002 0.5000 0.5000 0.5000
3121.061615 0.4992 0.4984 0.4980 0.4980 0.4980
3126.700732 0.4972 0.4964 0.4954 0.4942 0.4929
3132.339849 0.4914 0.4898 0.4884 0.4872 0.4859
3137.978966 0.4831 0.4803 0.4780 0.4760 0.4740
3143.618083 0.4724 0.4708 0.4698 0.4694 0.4690
3149.257200 0.4690 0.4690 0.4680 0.4660 0.4640
3154.896317 0.4620 0.4600 0.4586 0.4578 0.4570
3160.535434 0.4554 0.4538 0.4520 0.4500 0.4480
3166.174551 0.4468 0.4456 0.4446 0.4438 0.4430
3171.813668 0.4402 0.4374 0.4358 0.4354 0.4350
3177.452785 0.4350 0.4350 0.4340 0.4320 0.4300
3183.091902 0.4256 0.4212 0.4169 0.4130 0.4090
3188.731019 0.4082 0.4074 0.4068 0.4064 0.4060
3194.370136 0.4052 0.4044 0.4034 0.4022 0.4010
3200.009254 0.3986 0.3962 0.3934 0.3903 0.3871
3205.648371 0.3843 0.3815 0.3794 0.3782 0.3770
3211.287488 0.3754 0.3738 0.3724 0.3712 0.3700
3216.926605 0.3684 0.3668 0.3648 0.3624 0.3600
3222.565722 0.3572 0.3544 0.3522 0.3506 0.3490
3228.204839 0.3478 0.3466 0.3454 0.3442 0.3430
3233.843956 0.3403 0.3375 0.3353 0.3337 0.3321
3239.483073 0.3308 0.3296 0.3290 0.3290 0.3290
3245.122190 0.3282 0.3274 0.3266 0.3258 0.3250
3250.761307 0.3227 0.3203 0.3182 0.3166 0.3151
3256.400424 0.3150 0.3150 0.3146 0.3138 0.3130
3262.039541 0.3119 0.3107 0.3086 0.3054 0.3022
3267.678658 0.3005 0.2988 0.2980 0.2980 0.2980
3273.317775 0.2972 0.2964 0.2960 0.2960 0.2960
3278.956892 0.2960 0.2960 0.2960 0.2960 0.2960
3284.596009 0.2960 0.2960 0.2960 0.2960 0.2960
3290.235127 0.2960 0.2960 0.2958 0.2954 0.2950
3295.874244 0.2942 0.2934 0.2926 0.2918 0.2910
3301.513361 0.2906 0.2902 0.2896 0.2888 0.2880
3307.152478 0.2872 0.2864 0.2856 0.2848 0.2840
3312.791595 0.2836 0.2832 0.2826 0.2819 0.2811
3318.430712 0.2799 0.2787 0.2771 0.2751 0.2731
3324.069829 0.2722 0.2714 0.2706 0.2698 0.2690
3329.708946 0.2682 0.2674 0.2668 0.2664 0.2660
3335.348063 0.2652 0.2644 0.2637 0.2629 0.2621
3340.987180 0.2609 0.2597 0.2587 0.2579 0.2571
3346.626297 0.2559 0.2547 0.2533 0.2517 0.2501
3352.265414 0.2496 0.2492 0.2486 0.2478 0.2470
3357.904531 0.2463 0.2455 0.2445 0.2433 0.2421
3363.543648 0.2394 0.2366 0.2342 0.2322 0.2302
3369.182765 0.2293 0.2285 0.2280 0.2280 0.2280
3374.821882 0.2273 0.2265 0.2260 0.2260 0.2260
3380.461000 0.2256 0.2252 0.2250 0.2250 0.2250
3386.100117 0.2250 0.2250 0.2252 0.2256 0.2260
3391.739234 0.2260 0.2260 0.2260 0.2260 0.2260
3397.378351 0.2260 0.2260 0.2260 0.2260 0.2260
3403.017468 0.2260 0.2260 0.2263 0.2271 0.2279
3408.656585 0.2280 0.2280 0.2280 0.2280 0.2280
3414.295702 0.2280 0.2280 0.2280 0.2280 0.2280
3419.934819 0.2280 0.2280 0.2283 0.2291 0.2299
3425.573936 0.2300 0.2300 0.2303 0.2311 0.2319
3431.213053 0.2320 0.2320 0.2322 0.2326 0.2330
3436.852170 0.2337 0.2345 0.2353 0.2361 0.2369
3442.491287 0.2370 0.2370 0.2372 0.2376 0.2380
3448.130404 0.2380 0.2380 0.2386 0.2402 0.2418
3453.769521 0.2420 0.2420 0.2425 0.2437 0.2449
3459.408638 0.2457 0.2465 0.2473 0.2481 0.2489
3465.047755 0.2501 0.2513 0.2523 0.2531 0.2539
3470.686873 0.2544 0.2548 0.2550 0.2550 0.2550
3476.325990 0.2557 0.2565 0.2576 0.2592 0.2608
3481.965107 0.2620 0.2632 0.2647 0.2667 0.2687
3487.604224 0.2697 0.2705 0.2713 0.2721 0.2729
3493.243341 0.2733 0.2738 0.2746 0.2762 0.2778
3498.882458 0.2801 0.2825 0.2846 0.2862 0.2878
3504.521575 0.2890 0.2902 0.2913 0.2921 0.2929
3510.160692 0.2940 0.2952 0.2969 0.2993 0.3016
3515.799809 0.3037 0.3057 0.3077 0.3097 0.3117
3521.438926 0.3123 0.3127 0.3133 0.3141 0.3149
3527.078043 0.3157 0.3165 0.3177 0.3197 0.3217
3532.717160 0.3230 0.3242 0.3263 0.3299 0.3335
3538.356277 0.3371 0.3407 0.3437 0.3457 0.3477
3543.995394 0.3490 0.3502 0.3514 0.3526 0.3538
3549.634511 0.3553 0.3570 0.3584 0.3596 0.3608
3555.273628 0.3634 0.3662 0.3694 0.3734 0.3774
3560.912746 0.3797 0.3817 0.3840 0.3868 0.3896
3566.551863 0.3913 0.3929 0.3947 0.3967 0.3987
3572.190980 0.4000 0.4012 0.4026 0.4046 0.4066
3577.830097 0.4083 0.4099 0.4120 0.4148 0.4176
3583.469214 0.4183 0.4187 0.4193 0.4201 0.4209
3589.108331 0.4240 0.4276 0.4313 0.4353 0.4393
3594.747448 0.4417 0.4436 0.4463 0.4503 0.4543
3600.386565 0.4557 0.4565 0.4570 0.4570 0.4570
3606.025682 0.4570 0.4570 0.4570 0.4570 0.4570
3611.664799 0.4563 0.4555 0.4530 0.4470 0.4410
3617.303916 0.4327 0.4240 0.4144 0.4032 0.3921
3622.943033 0.3874 0.3842 0.3820 0.3820 0.3820
3628.582150 0.3830 0.3842 0.3867 0.3923 0.3979
3634.221267 0.4051 0.4128 0.4200 0.4260 0.4319
3639.860384 0.4386 0.4454 0.4524 0.4600 0.4676
3645.499501 0.4768 0.4864 0.4946 0.4998 0.5050
3651.138619 0.5099 0.5146 0.5191 0.5227 0.5263
3656.777736 0.5308 0.5356 0.5410 0.5478 0.5545
3662.416853 0.5601 0.5654 0.5708 0.5764 0.5819
3668.055970 0.5862 0.5902 0.5935 0.5951 0.5967
3673.695087 0.5986 0.6006 0.6022 0.6030 0.6038
3679.334204 0.6049 0.6061 0.6072 0.6080 0.6088
3684.973321 0.6093 0.6097 0.6104 0.6120 0.6136
3690.612438 0.6146 0.6154 0.6161 0.6165 0.6169
3696.251555 0.6183 0.6199 0.6211 0.6215 0.6219
3701.890672 0.6233 0.6249 0.6261 0.6265 0.6269
3707.529789 0.6282 0.6298 0.6310 0.6310 0.6310
3713.168906 0.6316 0.6324 0.6333 0.6345 0.6357
3718.808023 0.6369 0.6381 0.6395 0.6411 0.6427
3724.447140 0.6439 0.6451 0.6462 0.6470 0.6478
3730.086257 0.6486 0.6494 0.6501 0.6505 0.6509
3735.725374 0.6516 0.6524 0.6532 0.6540 0.6548
3741.364492 0.6550 0.6550 0.6551 0.6555 0.6559
3747.003609 0.6566 0.6574 0.6580 0.6580 0.6580
3752.642726 0.6580 0.6580 0.6580 0.6580 0.6580
3758.281843 0.6580 0.6580 0.6582 0.6590 0.6598
3763.920960 0.6600 0.6600 0.6600 0.6600 0.6600
3769.560077 0.6600 0.6600 0.6602 0.6610 0.6618
3775.199194 0.6620 0.6620 0.6621 0.6625 0.6629
3780.838311 0.6630 0.6630 0.6632 0.6640 0.6648
3786.477428 0.6650 0.6650 0.6652 0.6660 0.6668
3792.116545 0.6670 0.6670 0.6671 0.6675 0.6679
3797.755662 0.6686 0.6694 0.6700 0.6700 0.6700
3803.394779 0.6700 0.6700 0.6700 0.6700 0.6700
3809.033896 0.6700 0.6700 0.6700 0.6700 0.6700
3814.673013 0.6700 0.6700 0.6702 0.6710 0.6718
3820.312130 0.6720 0.6720 0.6722 0.6730 0.6738
3825.951247 0.6743 0.6747 0.6752 0.6760 0.6768
3831.590365 0.6776 0.6784 0.6790 0.6790 0.6790
3837.229482 0.6790 0.6790 0.6790 0.6790 0.6790
3842.868599 0.6790 0.6790 0.6790 0.6790 0.6790
3848.507716 0.6784 0.6776 0.6770 0.6770 0.6770
3854.146833 0.6764 0.6756 0.6750 0.6750 0.6750
3859.785950 0.6750 0.6750 0.6750 0.6750 0.6750
3865.425067 0.6756 0.6764 0.6770 0.6770 0.6770
3871.064184 0.6776 0.6784 0.6790 0.6790 0.6790
3876.703301 0.6790 0.6790 0.6790 0.6790 0.6790
3882.342418 0.6790 0.6790 0.6790 0.6790 0.6790
3887.981535 0.6793 0.6797 0.6800 0.6800 0.6800
3893.620652 0.6806 0.6814 0.6822 0.6830 0.6838
3899.259769 0.6840 0.6840 0.6840 0.6840 0.6840
3904.898886 0.6840 0.6840 0.6840 0.6840 0.6840
3910.538003 0.6840 0.6840 0.6840 0.6840 0.6840
3916.177120 0.6840 0.6840 0.6840 0.6840 0.6840
3921.816238 0.6846 0.6854 0.6860 0.6860 0.6860
3927.455355 0.6860 0.6860 0.6858 0.6850 0.6843
3933.094472 0.6840 0.6840 0.6841 0.6849 0.6857
3938.733589 0.6860 0.6860 0.6860 0.6860 0.6860
3944.372706 0.6860 0.6860 0.6860 0.6860 0.6860
3950.011823 0.6863 0.6867 0.6869 0.6865 0.6861
3955.650940 0.6860 0.6860 0.6860 0.6860 0.6860
3961.290057 0.6860 0.6860 0.6860 0.6860 0.6860
3966.929174 0.6860 0.6860 0.6860 0.6860 0.6860
3972.568291 0.6860 0.6860 0.6860 0.6860 0.6860
3978.207408 0.6860 0.6860 0.6860 0.6860 0.6860
3983.846525 0.6860 0.6860 0.6860 0.6860 0.6860
3989.485642 0.6860 0.6860 0.6860 0.6860 0.6860
##END=
