##TITLE=Thymine, 1-Alpha-L-rhamnopyranosyl-
##JCAMP-DX=4.24
##DATA TYPE=INFRARED SPECTRUM
##CLASS=COBLENTZ III
##ORIGIN=SOUTHERN RESEARCH INSTITUTE
##OWNER=Copyright (C) 1987 by the Coblentz Society
Collection (C) 2018 copyright by the U.S. Secretary of Commerce
on behalf of the United States of America. All rights reserved.
##DATE=1956/02/09
##MOLFORM=C11 H16 N2 O6
##SOURCE REFERENCE=COBLENTZ NO. 7818
##$NIST ID=B6007818
##$NIST SOURCE=COBLENTZ
##$NIST IMAGE=cob7818
##SPECTROMETER/DATA SYSTEM=PERKIN-ELMER 21 (GRATING)
##INSTRUMENT PARAMETERS=FILTER CHANGE ABOUT 1070 CM^-^1
##STATE=SOLID (0.8 mg / 650 mg KBr DISC)
$$ PURITY - ANALYTICAL
$$ SPECTRAL FEATURE AT 1071 CM^-^1 IS AN ARTIFACT CAUSED BY FILTER CHANGE
##SAMPLING PROCEDURE=TRANSMISSION
##RESOLUTION=2
##DATA PROCESSING=DIGITIZED BY COBLENTZ SOCIETY (BATCH II) FROM HARD COPY
##XUNITS=1/CM
##YUNITS=TRANSMITTANCE
##XFACTOR=1.0
##YFACTOR=1
##FIRSTX=623
##LASTX=4000
##FIRSTY=0.9288
##MAXX=4000
##MINX=623
##MAXY=0.9759
##MINY=0.1739
##NPOINTS=3378
##XYDATA=(X++(Y..Y))
623.000000 0.9288 0.9283 0.9277 0.9269 0.9262
628.000000 0.9257 0.9252 0.9247 0.9240 0.9233
633.000000 0.9226 0.9220 0.9209 0.9215 0.9213
638.000000 0.9211 0.9208 0.9206 0.9203 0.9199
643.000000 0.9196 0.9193 0.9189 0.9186 0.9183
648.000000 0.9180 0.9175 0.9171 0.9167 0.9163
653.000000 0.9159 0.9155 0.9151 0.9146 0.9142
658.000000 0.9138 0.9134 0.9130 0.9126 0.9123
663.000000 0.9119 0.9115 0.9111 0.9108 0.9104
668.000000 0.9100 0.9097 0.9095 0.9093 0.9091
673.000000 0.9089 0.9087 0.9085 0.9084 0.9083
678.000000 0.9082 0.9081 0.9080 0.9079 0.9078
683.000000 0.9077 0.9074 0.9069 0.9064 0.9059
688.000000 0.9054 0.9049 0.9044 0.9038 0.9031
693.000000 0.9023 0.9015 0.9007 0.8999 0.8991
698.000000 0.8981 0.8969 0.8958 0.8946 0.8935
703.000000 0.8923 0.8912 0.8900 0.8888 0.8865
708.000000 0.8842 0.8818 0.8792 0.8765 0.8739
713.000000 0.8712 0.8686 0.8640 0.8618 0.8605
718.000000 0.8597 0.8562 0.8599 0.8602 0.8607
723.000000 0.8620 0.8642 0.8671 0.8769 0.8812
728.000000 0.8833 0.8845 0.8848 0.8836 0.8846
733.000000 0.8845 0.8841 0.8835 0.8828 0.8813
738.000000 0.8799 0.8781 0.8761 0.8738 0.8707
743.000000 0.8676 0.8641 0.8605 0.8568 0.8528
748.000000 0.8488 0.8446 0.8369 0.8292 0.8218
753.000000 0.8166 0.8137 0.8109 0.8081 0.8056
758.000000 0.8036 0.8015 0.7995 0.7975 0.7961
763.000000 0.7947 0.7934 0.7922 0.7911 0.7899
768.000000 0.7881 0.7842 0.7768 0.7528 0.7501
773.000000 0.7497 0.7499 0.7492 0.7492 0.7492
778.000000 0.7496 0.7501 0.7506 0.7511 0.7515
783.000000 0.7519 0.7523 0.7526 0.7530 0.7536
788.000000 0.7544 0.7552 0.7561 0.7568 0.7576
793.000000 0.7583 0.7590 0.7603 0.7619 0.7635
798.000000 0.7651 0.7667 0.7683 0.7699 0.7714
803.000000 0.7730 0.7746 0.7764 0.7782 0.7796
808.000000 0.7807 0.7818 0.7830 0.7841 0.7853
813.000000 0.7864 0.7873 0.7878 0.7882 0.7887
818.000000 0.7891 0.7895 0.7900 0.7905 0.7917
823.000000 0.7929 0.7942 0.7961 0.7995 0.8040
828.000000 0.8088 0.8116 0.8144 0.8166 0.8186
833.000000 0.8206 0.8226 0.8244 0.8257 0.8269
838.000000 0.8282 0.8295 0.8302 0.8306 0.8310
843.000000 0.8314 0.8318 0.8319 0.8319 0.8320
848.000000 0.8320 0.8320 0.8316 0.8309 0.8344
853.000000 0.8296 0.8290 0.8278 0.8266 0.8254
858.000000 0.8242 0.8225 0.8193 0.8159 0.8114
863.000000 0.8068 0.8024 0.7985 0.7946 0.7907
868.000000 0.7868 0.7826 0.7770 0.7714 0.7658
873.000000 0.7602 0.7546 0.7490 0.7434 0.7369
878.000000 0.7304 0.7251 0.7225 0.7202 0.7187
883.000000 0.7195 0.7189 0.7196 0.7224 0.7251
888.000000 0.7280 0.7309 0.7338 0.7373 0.7413
893.000000 0.7453 0.7486 0.7520 0.7556 0.7617
898.000000 0.7688 0.7742 0.7875 0.7949 0.7981
903.000000 0.8013 0.8035 0.8055 0.8068 0.8076
908.000000 0.8085 0.8090 0.8095 0.8100 0.8105
913.000000 0.8109 0.8113 0.8117 0.8120 0.8124
918.000000 0.8128 0.8132 0.8134 0.8136 0.8138
923.000000 0.8150 0.8141 0.8143 0.8145 0.8145
928.000000 0.8131 0.8118 0.8106 0.8094 0.8081
933.000000 0.8069 0.8046 0.8020 0.7994 0.7968
938.000000 0.7941 0.7917 0.7894 0.7872 0.7850
943.000000 0.7828 0.7809 0.7799 0.7790 0.7780
948.000000 0.7782 0.7790 0.7777 0.7882 0.7948
953.000000 0.8027 0.8156 0.8338 0.8376 0.8381
958.000000 0.8386 0.8388 0.8381 0.8385 0.8377
963.000000 0.8369 0.8357 0.8332 0.8286 0.8245
968.000000 0.8203 0.8160 0.8118 0.8077 0.8041
973.000000 0.8009 0.7977 0.7950 0.7924 0.7898
978.000000 0.7872 0.7846 0.7820 0.7795 0.7769
983.000000 0.7744 0.7719 0.7694 0.7668 0.7624
988.000000 0.7565 0.7470 0.7294 0.7209 0.7140
993.000000 0.7075 0.7022 0.6969 0.6926 0.6887
998.000000 0.6846 0.6804 0.6762 0.6719 0.6703
1003.000000 0.6690 0.6679 0.6676 0.6674 0.6672
1008.000000 0.6670 0.6668 0.6666 0.6663 0.6650
1013.000000 0.6635 0.6585 0.6531 0.6478 0.6420
1018.000000 0.6348 0.6279 0.6214 0.6144 0.6066
1023.000000 0.5987 0.5920 0.5859 0.5799 0.5738
1028.000000 0.5650 0.5508 0.5423 0.5349 0.5273
1033.000000 0.5177 0.5081 0.4987 0.4893 0.4792
1038.000000 0.4690 0.4579 0.4439 0.4349 0.4260
1043.000000 0.4202 0.4179 0.4163 0.4153 0.4162
1048.000000 0.4167 0.4171 0.4179 0.4193 0.4208
1053.000000 0.4222 0.4241 0.4262 0.4284 0.4309
1058.000000 0.4347 0.4398 0.4448 0.4497 0.4561
1063.000000 0.4619 0.4667 0.4715 0.4764 0.4817
1068.000000 0.4870 0.4920 0.4976 0.5505 0.5458
1073.000000 0.5346 0.5235 0.5147 0.5157 0.5168
1078.000000 0.5175 0.5181 0.5187 0.5193 0.5194
1083.000000 0.5195 0.5197 0.5197 0.5197 0.5198
1088.000000 0.5198 0.5199 0.5202 0.5218 0.5270
1093.000000 0.5303 0.5334 0.5359 0.5383 0.5406
1098.000000 0.5418 0.5429 0.5441 0.5447 0.5450
1103.000000 0.5453 0.5456 0.5459 0.5457 0.5465
1108.000000 0.5463 0.5461 0.5459 0.5456 0.5449
1113.000000 0.5443 0.5435 0.5428 0.5420 0.5413
1118.000000 0.5398 0.5382 0.5366 0.5349 0.5332
1123.000000 0.5304 0.5274 0.5241 0.5206 0.5182
1128.000000 0.5158 0.5153 0.5148 0.5147 0.5147
1133.000000 0.5161 0.5173 0.5216 0.5261 0.5339
1138.000000 0.5582 0.5792 0.5915 0.6038 0.6157
1143.000000 0.6268 0.6351 0.6435 0.6518 0.6593
1148.000000 0.6658 0.6724 0.6789 0.6857 0.6930
1153.000000 0.7003 0.7077 0.7154 0.7268 0.7375
1158.000000 0.7440 0.7505 0.7571 0.7632 0.7694
1163.000000 0.7749 0.7780 0.7810 0.7841 0.7863
1168.000000 0.7876 0.7888 0.7901 0.7914 0.7921
1173.000000 0.7923 0.7926 0.7928 0.7931 0.7932
1178.000000 0.7960 0.7932 0.7933 0.7933 0.7933
1183.000000 0.7933 0.7933 0.7934 0.7930 0.7926
1188.000000 0.7922 0.7918 0.7913 0.7906 0.7898
1193.000000 0.7890 0.7874 0.7859 0.7843 0.7828
1198.000000 0.7812 0.7789 0.7766 0.7740 0.7701
1203.000000 0.7662 0.7623 0.7584 0.7544 0.7502
1208.000000 0.7458 0.7415 0.7371 0.7327 0.7283
1213.000000 0.7239 0.7195 0.7152 0.7112 0.7072
1218.000000 0.7031 0.6991 0.6943 0.6882 0.6820
1223.000000 0.6765 0.6725 0.6686 0.6646 0.6606
1228.000000 0.6566 0.6524 0.6482 0.6439 0.6397
1233.000000 0.6355 0.6313 0.6271 0.6230 0.6189
1238.000000 0.6149 0.6108 0.6067 0.6027 0.5985
1243.000000 0.5943 0.5901 0.5859 0.5817 0.5775
1248.000000 0.5733 0.5675 0.5603 0.5580 0.5556
1253.000000 0.5532 0.5509 0.5506 0.5508 0.5510
1258.000000 0.5522 0.5538 0.5554 0.5569 0.5585
1263.000000 0.5600 0.5616 0.5631 0.5647 0.5664
1268.000000 0.5680 0.5697 0.5714 0.5731 0.5748
1273.000000 0.5766 0.5783 0.5800 0.5816 0.5832
1278.000000 0.5848 0.5864 0.5879 0.5895 0.5911
1283.000000 0.5927 0.5943 0.5961 0.5983 0.6004
1288.000000 0.6026 0.6047 0.6068 0.6090 0.6116
1293.000000 0.6145 0.6173 0.6202 0.6265 0.6357
1298.000000 0.6449 0.6760 0.6857 0.6954 0.7076
1303.000000 0.7191 0.7268 0.7345 0.7401 0.7433
1308.000000 0.7465 0.7497 0.7521 0.7535 0.7548
1313.000000 0.7562 0.7576 0.7589 0.7600 0.7604
1318.000000 0.7608 0.7613 0.7617 0.7621 0.7626
1323.000000 0.7625 0.7622 0.7620 0.7618 0.7662
1328.000000 0.7614 0.7611 0.7609 0.7605 0.7599
1333.000000 0.7594 0.7588 0.7582 0.7572 0.7562
1338.000000 0.7551 0.7541 0.7527 0.7509 0.7492
1343.000000 0.7475 0.7450 0.7425 0.7400 0.7374
1348.000000 0.7347 0.7320 0.7293 0.7266 0.7229
1353.000000 0.7190 0.7144 0.7096 0.7048 0.6997
1358.000000 0.6940 0.6883 0.6826 0.6775 0.6723
1363.000000 0.6672 0.6622 0.6579 0.6536 0.6493
1368.000000 0.6450 0.6407 0.6357 0.6285 0.6213
1373.000000 0.6139 0.6082 0.6061 0.6043 0.6032
1378.000000 0.6022 0.6012 0.6014 0.5977 0.6020
1383.000000 0.6029 0.6040 0.6066 0.6092 0.6126
1388.000000 0.6168 0.6219 0.6258 0.6289 0.6319
1393.000000 0.6350 0.6380 0.6409 0.6433 0.6457
1398.000000 0.6480 0.6504 0.6519 0.6528 0.6538
1403.000000 0.6547 0.6557 0.6566 0.6576 0.6585
1408.000000 0.6594 0.6605 0.6616 0.6627 0.6638
1413.000000 0.6649 0.6660 0.6673 0.6690 0.6707
1418.000000 0.6725 0.6739 0.6753 0.6767 0.6781
1423.000000 0.6796 0.6803 0.6806 0.6810 0.6812
1428.000000 0.6808 0.6804 0.6832 0.6797 0.6793
1433.000000 0.6787 0.6778 0.6768 0.6756 0.6743
1438.000000 0.6731 0.6714 0.6698 0.6672 0.6642
1443.000000 0.6612 0.6578 0.6540 0.6502 0.6464
1448.000000 0.6424 0.6382 0.6340 0.6298 0.6264
1453.000000 0.6235 0.6207 0.6178 0.6150 0.6131
1458.000000 0.6116 0.6102 0.6087 0.6072 0.6063
1463.000000 0.6060 0.6057 0.6054 0.6059 0.6064
1468.000000 0.6038 0.6075 0.6090 0.6123 0.6172
1473.000000 0.6228 0.6335 0.6417 0.6491 0.6554
1478.000000 0.6618 0.6681 0.6771 0.6864 0.6956
1483.000000 0.7049 0.7141 0.7233 0.7337 0.7450
1488.000000 0.7578 0.7750 0.7891 0.8020 0.8135
1493.000000 0.8280 0.8363 0.8407 0.8452 0.8487
1498.000000 0.8509 0.8531 0.8552 0.8574 0.8589
1503.000000 0.8598 0.8607 0.8615 0.8624 0.8633
1508.000000 0.8642 0.8649 0.8652 0.8656 0.8659
1513.000000 0.8662 0.8665 0.8664 0.8663 0.8663
1518.000000 0.8662 0.8661 0.8662 0.8660 0.8659
1523.000000 0.8659 0.8653 0.8648 0.8642 0.8636
1528.000000 0.8630 0.8624 0.8618 0.8612 0.8607
1533.000000 0.8597 0.8588 0.8578 0.8568 0.8559
1538.000000 0.8549 0.8539 0.8531 0.8522 0.8514
1543.000000 0.8505 0.8496 0.8488 0.8479 0.8473
1548.000000 0.8467 0.8461 0.8455 0.8455 0.8456
1553.000000 0.8458 0.8460 0.8462 0.8454 0.8442
1558.000000 0.8428 0.8414 0.8398 0.8379 0.8361
1563.000000 0.8343 0.8324 0.8302 0.8280 0.8258
1568.000000 0.8236 0.8214 0.8192 0.8168 0.8144
1573.000000 0.8119 0.8095 0.8070 0.8046 0.8021
1578.000000 0.7988 0.7948 0.7908 0.7868 0.7829
1583.000000 0.7790 0.7751 0.7713 0.7676 0.7645
1588.000000 0.7614 0.7601 0.7591 0.7582 0.7572
1593.000000 0.7436 0.7368 0.7321 0.7273 0.7223
1598.000000 0.7173 0.7122 0.7068 0.7013 0.6958
1603.000000 0.6902 0.6838 0.6774 0.6710 0.6646
1608.000000 0.6582 0.6501 0.6416 0.6331 0.6247
1613.000000 0.6179 0.6115 0.6052 0.5988 0.5924
1618.000000 0.5861 0.5797 0.5732 0.5665 0.5597
1623.000000 0.5530 0.5462 0.5395 0.5308 0.5173
1628.000000 0.5037 0.4920 0.4849 0.4778 0.4707
1633.000000 0.4636 0.4566 0.4489 0.4355 0.4220
1638.000000 0.4086 0.3958 0.3834 0.3711 0.3570
1643.000000 0.3312 0.3150 0.3013 0.2881 0.2758
1648.000000 0.2636 0.2567 0.2510 0.2452 0.2395
1653.000000 0.2341 0.2290 0.2239 0.2189 0.2138
1658.000000 0.2098 0.2060 0.2023 0.1985 0.1947
1663.000000 0.1913 0.1885 0.1856 0.1828 0.1799
1668.000000 0.1776 0.1753 0.1747 0.1741 0.1740
1673.000000 0.1739 0.1739 0.1761 0.1740 0.1743
1678.000000 0.1749 0.1759 0.1783 0.1829 0.1878
1683.000000 0.1933 0.1989 0.2045 0.2101 0.2156
1688.000000 0.2212 0.2268 0.2323 0.2370 0.2405
1693.000000 0.2441 0.2481 0.2548 0.2616 0.2684
1698.000000 0.2773 0.2862 0.2944 0.3026 0.3119
1703.000000 0.3242 0.3313 0.3382 0.3451 0.3521
1708.000000 0.3595 0.3670 0.3745 0.3820 0.3906
1713.000000 0.4013 0.4121 0.4229 0.4348 0.4484
1718.000000 0.4614 0.4714 0.4813 0.4906 0.4965
1723.000000 0.5023 0.5081 0.5140 0.5198 0.5268
1728.000000 0.5393 0.5518 0.5689 0.5878 0.6086
1733.000000 0.6164 0.6237 0.6309 0.6381 0.6439
1738.000000 0.6494 0.6549 0.6604 0.6658 0.6742
1743.000000 0.6856 0.6971 0.7029 0.7080 0.7131
1748.000000 0.7183 0.7228 0.7267 0.7307 0.7347
1753.000000 0.7386 0.7426 0.7465 0.7497 0.7524
1758.000000 0.7551 0.7579 0.7606 0.7633 0.7661
1763.000000 0.7690 0.7720 0.7749 0.7778 0.7807
1768.000000 0.7837 0.7861 0.7884 0.7906 0.7929
1773.000000 0.7952 0.7974 0.7997 0.8020 0.8042
1778.000000 0.8065 0.8088 0.8112 0.8135 0.8158
1783.000000 0.8181 0.8205 0.8225 0.8244 0.8263
1788.000000 0.8282 0.8302 0.8321 0.8340 0.8359
1793.000000 0.8378 0.8393 0.8406 0.8418 0.8431
1798.000000 0.8443 0.8456 0.8468 0.8481 0.8493
1803.000000 0.8506 0.8519 0.8531 0.8544 0.8558
1808.000000 0.8572 0.8587 0.8601 0.8615 0.8630
1813.000000 0.8644 0.8658 0.8673 0.8687 0.8701
1818.000000 0.8716 0.8729 0.8740 0.8751 0.8762
1823.000000 0.8773 0.8784 0.8795 0.8806 0.8817
1828.000000 0.8829 0.8840 0.8851 0.8862 0.8873
1833.000000 0.8884 0.8895 0.8906 0.8917 0.8928
1838.000000 0.8939 0.8950 0.8961 0.8972 0.8983
1843.000000 0.8992 0.9000 0.9008 0.9016 0.9024
1848.000000 0.9032 0.9041 0.9049 0.9057 0.9065
1853.000000 0.9073 0.9081 0.9089 0.9097 0.9105
1858.000000 0.9113 0.9120 0.9126 0.9133 0.9140
1863.000000 0.9147 0.9154 0.9161 0.9167 0.9174
1868.000000 0.9181 0.9188 0.9195 0.9202 0.9208
1873.000000 0.9215 0.9222 0.9229 0.9236 0.9243
1878.000000 0.9249 0.9254 0.9260 0.9266 0.9272
1883.000000 0.9278 0.9284 0.9289 0.9295 0.9301
1888.000000 0.9307 0.9312 0.9318 0.9324 0.9329
1893.000000 0.9335 0.9341 0.9347 0.9353 0.9358
1898.000000 0.9364 0.9370 0.9376 0.9381 0.9387
1903.000000 0.9392 0.9398 0.9404 0.9409 0.9415
1908.000000 0.9421 0.9427 0.9433 0.9439 0.9445
1913.000000 0.9451 0.9457 0.9463 0.9469 0.9475
1918.000000 0.9481 0.9487 0.9492 0.9497 0.9501
1923.000000 0.9506 0.9511 0.9515 0.9520 0.9523
1928.000000 0.9527 0.9531 0.9534 0.9538 0.9542
1933.000000 0.9546 0.9549 0.9553 0.9557 0.9560
1938.000000 0.9564 0.9568 0.9570 0.9572 0.9574
1943.000000 0.9576 0.9578 0.9579 0.9581 0.9582
1948.000000 0.9584 0.9585 0.9585 0.9585 0.9584
1953.000000 0.9584 0.9584 0.9584 0.9584 0.9583
1958.000000 0.9583 0.9583 0.9583 0.9584 0.9584
1963.000000 0.9585 0.9586 0.9586 0.9587 0.9588
1968.000000 0.9588 0.9589 0.9590 0.9590 0.9591
1973.000000 0.9592 0.9592 0.9593 0.9595 0.9597
1978.000000 0.9599 0.9602 0.9604 0.9606 0.9609
1983.000000 0.9611 0.9613 0.9616 0.9619 0.9622
1988.000000 0.9625 0.9628 0.9631 0.9634 0.9636
1993.000000 0.9639 0.9642 0.9643 0.9643 0.9644
1998.000000 0.9644 0.9644 0.9644 0.9642 0.9640
2003.000000 0.9638 0.9637 0.9635 0.9633 0.9628
2008.000000 0.9623 0.9618 0.9613 0.9608 0.9603
2013.000000 0.9598 0.9592 0.9586 0.9579 0.9573
2018.000000 0.9566 0.9560 0.9557 0.9555 0.9554
2023.000000 0.9553 0.9551 0.9550 0.9548 0.9548
2028.000000 0.9550 0.9551 0.9553 0.9555 0.9556
2033.000000 0.9558 0.9560 0.9561 0.9563 0.9565
2038.000000 0.9568 0.9573 0.9577 0.9581 0.9585
2043.000000 0.9589 0.9593 0.9598 0.9602 0.9607
2048.000000 0.9613 0.9619 0.9626 0.9632 0.9638
2053.000000 0.9643 0.9649 0.9654 0.9659 0.9664
2058.000000 0.9665 0.9666 0.9666 0.9666 0.9660
2063.000000 0.9649 0.9637 0.9626 0.9615 0.9605
2068.000000 0.9596 0.9587 0.9578 0.9570 0.9561
2073.000000 0.9552 0.9543 0.9534 0.9525 0.9515
2078.000000 0.9506 0.9511 0.9517 0.9525 0.9535
2083.000000 0.9545 0.9556 0.9566 0.9576 0.9587
2088.000000 0.9597 0.9604 0.9609 0.9613 0.9618
2093.000000 0.9623 0.9628 0.9630 0.9631 0.9633
2098.000000 0.9634 0.9636 0.9637 0.9637 0.9637
2103.000000 0.9637 0.9637 0.9637 0.9637 0.9637
2108.000000 0.9637 0.9637 0.9637 0.9637 0.9637
2113.000000 0.9637 0.9637 0.9637 0.9637 0.9637
2118.000000 0.9636 0.9636 0.9636 0.9635 0.9635
2123.000000 0.9635 0.9634 0.9634 0.9633 0.9633
2128.000000 0.9632 0.9632 0.9631 0.9631 0.9630
2133.000000 0.9629 0.9629 0.9628 0.9628 0.9628
2138.000000 0.9628 0.9628 0.9628 0.9627 0.9627
2143.000000 0.9627 0.9664 0.9627 0.9627 0.9627
2148.000000 0.9627 0.9627 0.9627 0.9627 0.9629
2153.000000 0.9633 0.9636 0.9640 0.9643 0.9647
2158.000000 0.9650 0.9654 0.9657 0.9660 0.9664
2163.000000 0.9667 0.9671 0.9674 0.9678 0.9682
2168.000000 0.9687 0.9693 0.9698 0.9704 0.9709
2173.000000 0.9715 0.9724 0.9735 0.9741 0.9744
2178.000000 0.9747 0.9745 0.9743 0.9740 0.9732
2183.000000 0.9725 0.9717 0.9712 0.9709 0.9705
2188.000000 0.9702 0.9699 0.9695 0.9692 0.9690
2193.000000 0.9689 0.9688 0.9686 0.9685 0.9684
2198.000000 0.9682 0.9682 0.9685 0.9688 0.9691
2203.000000 0.9694 0.9697 0.9700 0.9703 0.9706
2208.000000 0.9708 0.9711 0.9713 0.9716 0.9718
2213.000000 0.9723 0.9728 0.9732 0.9737 0.9741
2218.000000 0.9746 0.9750 0.9755 0.9759 0.9758
2223.000000 0.9757 0.9756 0.9756 0.9753 0.9750
2228.000000 0.9748 0.9745 0.9740 0.9734 0.9729
2233.000000 0.9724 0.9719 0.9714 0.9709 0.9704
2238.000000 0.9698 0.9693 0.9688 0.9684 0.9681
2243.000000 0.9677 0.9673 0.9670 0.9666 0.9662
2248.000000 0.9658 0.9655 0.9654 0.9653 0.9652
2253.000000 0.9651 0.9650 0.9649 0.9648 0.9647
2258.000000 0.9646 0.9645 0.9644 0.9643 0.9642
2263.000000 0.9642 0.9642 0.9642 0.9642 0.9642
2268.000000 0.9642 0.9643 0.9643 0.9643 0.9643
2273.000000 0.9643 0.9643 0.9644 0.9644 0.9644
2278.000000 0.9644 0.9643 0.9639 0.9636 0.9633
2283.000000 0.9630 0.9627 0.9624 0.9621 0.9617
2288.000000 0.9613 0.9610 0.9606 0.9602 0.9598
2293.000000 0.9594 0.9591 0.9587 0.9583 0.9579
2298.000000 0.9575 0.9572 0.9568 0.9564 0.9561
2303.000000 0.9558 0.9555 0.9552 0.9549 0.9545
2308.000000 0.9542 0.9539 0.9536 0.9533 0.9530
2313.000000 0.9526 0.9523 0.9520 0.9518 0.9516
2318.000000 0.9514 0.9513 0.9511 0.9510 0.9508
2323.000000 0.9507 0.9505 0.9503 0.9502 0.9500
2328.000000 0.9499 0.9497 0.9496 0.9494 0.9494
2333.000000 0.9493 0.9493 0.9493 0.9493 0.9492
2338.000000 0.9492 0.9492 0.9492 0.9492 0.9495
2343.000000 0.9497 0.9500 0.9503 0.9505 0.9508
2348.000000 0.9511 0.9513 0.9516 0.9519 0.9521
2353.000000 0.9522 0.9523 0.9524 0.9525 0.9526
2358.000000 0.9527 0.9528 0.9529 0.9530 0.9531
2363.000000 0.9532 0.9533 0.9534 0.9535 0.9536
2368.000000 0.9537 0.9538 0.9539 0.9539 0.9539
2373.000000 0.9539 0.9539 0.9538 0.9538 0.9538
2378.000000 0.9538 0.9538 0.9538 0.9537 0.9537
2383.000000 0.9537 0.9537 0.9537 0.9536 0.9536
2388.000000 0.9536 0.9536 0.9536 0.9535 0.9535
2393.000000 0.9535 0.9535 0.9534 0.9534 0.9534
2398.000000 0.9534 0.9533 0.9533 0.9533 0.9533
2403.000000 0.9532 0.9532 0.9532 0.9532 0.9531
2408.000000 0.9531 0.9531 0.9531 0.9530 0.9528
2413.000000 0.9527 0.9525 0.9524 0.9522 0.9521
2418.000000 0.9519 0.9518 0.9516 0.9515 0.9513
2423.000000 0.9512 0.9510 0.9508 0.9507 0.9505
2428.000000 0.9504 0.9502 0.9501 0.9499 0.9498
2433.000000 0.9496 0.9495 0.9493 0.9492 0.9490
2438.000000 0.9488 0.9487 0.9485 0.9484 0.9482
2443.000000 0.9481 0.9479 0.9478 0.9476 0.9475
2448.000000 0.9473 0.9472 0.9470 0.9468 0.9467
2453.000000 0.9465 0.9464 0.9462 0.9461 0.9461
2458.000000 0.9461 0.9461 0.9461 0.9461 0.9461
2463.000000 0.9462 0.9462 0.9462 0.9462 0.9462
2468.000000 0.9462 0.9463 0.9463 0.9463 0.9463
2473.000000 0.9463 0.9463 0.9464 0.9464 0.9464
2478.000000 0.9464 0.9464 0.9464 0.9464 0.9464
2483.000000 0.9464 0.9464 0.9464 0.9463 0.9463
2488.000000 0.9463 0.9463 0.9463 0.9463 0.9463
2493.000000 0.9463 0.9463 0.9463 0.9462 0.9459
2498.000000 0.9457 0.9454 0.9452 0.9449 0.9447
2503.000000 0.9444 0.9442 0.9439 0.9437 0.9434
2508.000000 0.9432 0.9429 0.9427 0.9424 0.9422
2513.000000 0.9421 0.9419 0.9418 0.9416 0.9415
2518.000000 0.9413 0.9411 0.9410 0.9408 0.9407
2523.000000 0.9405 0.9404 0.9402 0.9401 0.9399
2528.000000 0.9397 0.9395 0.9392 0.9390 0.9387
2533.000000 0.9385 0.9383 0.9380 0.9378 0.9375
2538.000000 0.9373 0.9371 0.9368 0.9366 0.9363
2543.000000 0.9361 0.9358 0.9356 0.9354 0.9351
2548.000000 0.9349 0.9346 0.9343 0.9340 0.9337
2553.000000 0.9334 0.9331 0.9327 0.9324 0.9321
2558.000000 0.9318 0.9315 0.9312 0.9309 0.9306
2563.000000 0.9303 0.9300 0.9297 0.9294 0.9291
2568.000000 0.9289 0.9286 0.9283 0.9281 0.9278
2573.000000 0.9276 0.9273 0.9270 0.9268 0.9265
2578.000000 0.9262 0.9260 0.9257 0.9255 0.9253
2583.000000 0.9251 0.9249 0.9248 0.9246 0.9244
2588.000000 0.9242 0.9240 0.9238 0.9237 0.9235
2593.000000 0.9233 0.9231 0.9229 0.9227 0.9226
2598.000000 0.9224 0.9222 0.9220 0.9218 0.9217
2603.000000 0.9215 0.9213 0.9211 0.9209 0.9208
2608.000000 0.9206 0.9204 0.9203 0.9201 0.9199
2613.000000 0.9198 0.9196 0.9194 0.9193 0.9191
2618.000000 0.9189 0.9188 0.9186 0.9185 0.9183
2623.000000 0.9181 0.9180 0.9178 0.9176 0.9175
2628.000000 0.9173 0.9171 0.9170 0.9168 0.9166
2633.000000 0.9164 0.9162 0.9160 0.9158 0.9156
2638.000000 0.9154 0.9152 0.9150 0.9147 0.9145
2643.000000 0.9143 0.9141 0.9139 0.9137 0.9135
2648.000000 0.9133 0.9131 0.9129 0.9127 0.9125
2653.000000 0.9122 0.9120 0.9118 0.9116 0.9115
2658.000000 0.9113 0.9112 0.9110 0.9109 0.9107
2663.000000 0.9106 0.9104 0.9103 0.9101 0.9100
2668.000000 0.9098 0.9097 0.9095 0.9094 0.9092
2673.000000 0.9091 0.9089 0.9087 0.9086 0.9084
2678.000000 0.9083 0.9081 0.9079 0.9078 0.9076
2683.000000 0.9074 0.9072 0.9071 0.9069 0.9067
2688.000000 0.9065 0.9064 0.9062 0.9060 0.9058
2693.000000 0.9057 0.9055 0.9053 0.9051 0.9050
2698.000000 0.9048 0.9046 0.9044 0.9042 0.9041
2703.000000 0.9039 0.9035 0.9032 0.9029 0.9026
2708.000000 0.9023 0.9020 0.9016 0.9013 0.9010
2713.000000 0.9007 0.9004 0.9001 0.8998 0.8994
2718.000000 0.8991 0.8988 0.8985 0.8982 0.8979
2723.000000 0.8975 0.8972 0.8968 0.8964 0.8960
2728.000000 0.8956 0.8952 0.8948 0.8944 0.8940
2733.000000 0.8937 0.8933 0.8929 0.8925 0.8921
2738.000000 0.8917 0.8913 0.8908 0.8899 0.8889
2743.000000 0.8880 0.8871 0.8862 0.8853 0.8844
2748.000000 0.8834 0.8825 0.8816 0.8807 0.8798
2753.000000 0.8789 0.8780 0.8769 0.8759 0.8748
2758.000000 0.8737 0.8727 0.8716 0.8706 0.8695
2763.000000 0.8685 0.8676 0.8667 0.8657 0.8648
2768.000000 0.8638 0.8629 0.8620 0.8610 0.8601
2773.000000 0.8592 0.8582 0.8572 0.8561 0.8549
2778.000000 0.8538 0.8527 0.8516 0.8504 0.8493
2783.000000 0.8482 0.8471 0.8459 0.8448 0.8437
2788.000000 0.8426 0.8414 0.8403 0.8392 0.8382
2793.000000 0.8374 0.8365 0.8357 0.8348 0.8340
2798.000000 0.8331 0.8324 0.8317 0.8310 0.8304
2803.000000 0.8297 0.8290 0.8284 0.8277 0.8270
2808.000000 0.8264 0.8257 0.8250 0.8244 0.8237
2813.000000 0.8231 0.8226 0.8220 0.8215 0.8210
2818.000000 0.8204 0.8199 0.8194 0.8188 0.8183
2823.000000 0.8178 0.8172 0.8166 0.8159 0.8152
2828.000000 0.8146 0.8139 0.8132 0.8126 0.8119
2833.000000 0.8113 0.8106 0.8099 0.8093 0.8086
2838.000000 0.8080 0.8071 0.8060 0.8049 0.8037
2843.000000 0.8026 0.8015 0.8004 0.7992 0.7981
2848.000000 0.7970 0.7958 0.7947 0.7937 0.7927
2853.000000 0.7917 0.7908 0.7898 0.7888 0.7879
2858.000000 0.7869 0.7859 0.7850 0.7840 0.7830
2863.000000 0.7821 0.7811 0.7801 0.7791 0.7781
2868.000000 0.7771 0.7761 0.7751 0.7740 0.7730
2873.000000 0.7720 0.7710 0.7699 0.7689 0.7679
2878.000000 0.7669 0.7658 0.7648 0.7638 0.7628
2883.000000 0.7617 0.7607 0.7597 0.7587 0.7576
2888.000000 0.7566 0.7556 0.7545 0.7535 0.7525
2893.000000 0.7515 0.7505 0.7496 0.7486 0.7476
2898.000000 0.7467 0.7457 0.7447 0.7442 0.7439
2903.000000 0.7435 0.7432 0.7428 0.7424 0.7423
2908.000000 0.7431 0.7426 0.7427 0.7428 0.7430
2913.000000 0.7431 0.7435 0.7441 0.7446 0.7452
2918.000000 0.7462 0.7471 0.7481 0.7490 0.7500
2923.000000 0.7511 0.7521 0.7531 0.7542 0.7552
2928.000000 0.7562 0.7569 0.7576 0.7583 0.7589
2933.000000 0.7596 0.7603 0.7609 0.7616 0.7622
2938.000000 0.7628 0.7634 0.7640 0.7661 0.7642
2943.000000 0.7643 0.7643 0.7640 0.7638 0.7635
2948.000000 0.7632 0.7630 0.7627 0.7624 0.7621
2953.000000 0.7618 0.7615 0.7613 0.7612 0.7611
2958.000000 0.7610 0.7609 0.7608 0.7608 0.7607
2963.000000 0.7606 0.7606 0.7605 0.7604 0.7604
2968.000000 0.7604 0.7604 0.7604 0.7604 0.7603
2973.000000 0.7603 0.7602 0.7602 0.7601 0.7600
2978.000000 0.7599 0.7598 0.7597 0.7597 0.7596
2983.000000 0.7595 0.7594 0.7593 0.7592 0.7590
2988.000000 0.7588 0.7585 0.7583 0.7580 0.7578
2993.000000 0.7575 0.7571 0.7567 0.7563 0.7559
2998.000000 0.7555 0.7551 0.7546 0.7539 0.7532
3003.000000 0.7524 0.7517 0.7510 0.7503 0.7495
3008.000000 0.7488 0.7481 0.7474 0.7466 0.7456
3013.000000 0.7447 0.7437 0.7427 0.7418 0.7408
3018.000000 0.7398 0.7391 0.7383 0.7376 0.7368
3023.000000 0.7361 0.7353 0.7345 0.7338 0.7330
3028.000000 0.7323 0.7315 0.7308 0.7300 0.7292
3033.000000 0.7284 0.7276 0.7268 0.7260 0.7252
3038.000000 0.7245 0.7239 0.7232 0.7226 0.7219
3043.000000 0.7212 0.7206 0.7199 0.7193 0.7186
3048.000000 0.7179 0.7173 0.7166 0.7160 0.7153
3053.000000 0.7147 0.7140 0.7134 0.7130 0.7126
3058.000000 0.7121 0.7117 0.7113 0.7108 0.7104
3063.000000 0.7099 0.7095 0.7093 0.7090 0.7088
3068.000000 0.7085 0.7082 0.7080 0.7077 0.7075
3073.000000 0.7072 0.7069 0.7067 0.7068 0.7069
3078.000000 0.7070 0.7072 0.7073 0.7074 0.7076
3083.000000 0.7077 0.7079 0.7080 0.7081 0.7083
3088.000000 0.7084 0.7085 0.7085 0.7086 0.7087
3093.000000 0.7087 0.7088 0.7089 0.7089 0.7088
3098.000000 0.7084 0.7081 0.7077 0.7074 0.7070
3103.000000 0.7067 0.7063 0.7057 0.7050 0.7044
3108.000000 0.7035 0.7023 0.7012 0.7001 0.6989
3113.000000 0.6973 0.6955 0.6937 0.6920 0.6902
3118.000000 0.6884 0.6866 0.6848 0.6832 0.6817
3123.000000 0.6801 0.6785 0.6769 0.6754 0.6738
3128.000000 0.6722 0.6707 0.6691 0.6675 0.6659
3133.000000 0.6644 0.6628 0.6612 0.6596 0.6581
3138.000000 0.6565 0.6549 0.6533 0.6517 0.6502
3143.000000 0.6486 0.6470 0.6457 0.6445 0.6432
3148.000000 0.6419 0.6407 0.6394 0.6382 0.6369
3153.000000 0.6356 0.6344 0.6331 0.6319 0.6306
3158.000000 0.6295 0.6285 0.6275 0.6265 0.6255
3163.000000 0.6245 0.6234 0.6224 0.6214 0.6204
3168.000000 0.6194 0.6184 0.6173 0.6163 0.6153
3173.000000 0.6143 0.6133 0.6124 0.6114 0.6104
3178.000000 0.6095 0.6085 0.6075 0.6065 0.6056
3183.000000 0.6046 0.6036 0.6027 0.6017 0.6007
3188.000000 0.5997 0.5988 0.5978 0.5968 0.5958
3193.000000 0.5948 0.5938 0.5928 0.5919 0.5909
3198.000000 0.5899 0.5889 0.5879 0.5869 0.5860
3203.000000 0.5850 0.5840 0.5830 0.5820 0.5810
3208.000000 0.5801 0.5791 0.5782 0.5772 0.5763
3213.000000 0.5754 0.5744 0.5735 0.5726 0.5716
3218.000000 0.5707 0.5698 0.5688 0.5679 0.5670
3223.000000 0.5660 0.5651 0.5642 0.5632 0.5623
3228.000000 0.5614 0.5604 0.5595 0.5586 0.5578
3233.000000 0.5570 0.5562 0.5554 0.5546 0.5538
3238.000000 0.5529 0.5521 0.5513 0.5505 0.5497
3243.000000 0.5489 0.5481 0.5473 0.5465 0.5457
3248.000000 0.5449 0.5441 0.5433 0.5424 0.5416
3253.000000 0.5408 0.5400 0.5392 0.5383 0.5375
3258.000000 0.5366 0.5357 0.5349 0.5340 0.5331
3263.000000 0.5323 0.5314 0.5305 0.5297 0.5288
3268.000000 0.5279 0.5271 0.5262 0.5254 0.5245
3273.000000 0.5236 0.5228 0.5219 0.5210 0.5202
3278.000000 0.5193 0.5184 0.5176 0.5167 0.5158
3283.000000 0.5150 0.5141 0.5132 0.5123 0.5115
3288.000000 0.5106 0.5097 0.5088 0.5080 0.5071
3293.000000 0.5062 0.5053 0.5045 0.5036 0.5027
3298.000000 0.5019 0.5010 0.5001 0.4992 0.4981
3303.000000 0.4970 0.4960 0.4949 0.4938 0.4928
3308.000000 0.4917 0.4906 0.4895 0.4885 0.4874
3313.000000 0.4863 0.4853 0.4842 0.4829 0.4815
3318.000000 0.4801 0.4786 0.4772 0.4758 0.4744
3323.000000 0.4730 0.4715 0.4701 0.4687 0.4673
3328.000000 0.4658 0.4644 0.4629 0.4612 0.4595
3333.000000 0.4579 0.4562 0.4545 0.4528 0.4511
3338.000000 0.4494 0.4477 0.4460 0.4444 0.4427
3343.000000 0.4410 0.4393 0.4376 0.4359 0.4342
3348.000000 0.4325 0.4308 0.4290 0.4273 0.4256
3353.000000 0.4239 0.4222 0.4205 0.4191 0.4177
3358.000000 0.4162 0.4148 0.4134 0.4120 0.4105
3363.000000 0.4091 0.4077 0.4062 0.4048 0.4034
3368.000000 0.4023 0.4012 0.4002 0.3992 0.3982
3373.000000 0.3972 0.3962 0.3951 0.3945 0.3939
3378.000000 0.3933 0.3927 0.3921 0.3915 0.3909
3383.000000 0.3903 0.3897 0.3892 0.3887 0.3882
3388.000000 0.3878 0.3873 0.3868 0.3864 0.3859
3393.000000 0.3855 0.3850 0.3845 0.3841 0.3841
3398.000000 0.3840 0.3840 0.3839 0.3839 0.3839
3403.000000 0.3842 0.3845 0.3823 0.3852 0.3855
3408.000000 0.3858 0.3862 0.3866 0.3870 0.3874
3413.000000 0.3879 0.3883 0.3887 0.3892 0.3898
3418.000000 0.3904 0.3910 0.3917 0.3923 0.3930
3423.000000 0.3941 0.3951 0.3960 0.3970 0.3980
3428.000000 0.3989 0.3999 0.4008 0.4017 0.4026
3433.000000 0.4035 0.4044 0.4053 0.4062 0.4071
3438.000000 0.4080 0.4089 0.4097 0.4108 0.4121
3443.000000 0.4133 0.4146 0.4158 0.4169 0.4181
3448.000000 0.4193 0.4205 0.4217 0.4229 0.4240
3453.000000 0.4270 0.4291 0.4305 0.4319 0.4332
3458.000000 0.4346 0.4360 0.4373 0.4387 0.4402
3463.000000 0.4419 0.4437 0.4454 0.4472 0.4490
3468.000000 0.4507 0.4524 0.4541 0.4559 0.4576
3473.000000 0.4593 0.4610 0.4628 0.4645 0.4662
3478.000000 0.4679 0.4697 0.4717 0.4736 0.4755
3483.000000 0.4775 0.4794 0.4814 0.4833 0.4853
3488.000000 0.4872 0.4892 0.4911 0.4932 0.4953
3493.000000 0.4975 0.4996 0.5017 0.5038 0.5059
3498.000000 0.5081 0.5102 0.5123 0.5144 0.5165
3503.000000 0.5186 0.5208 0.5229 0.5251 0.5272
3508.000000 0.5294 0.5316 0.5337 0.5359 0.5381
3513.000000 0.5402 0.5424 0.5445 0.5469 0.5492
3518.000000 0.5515 0.5539 0.5562 0.5585 0.5609
3523.000000 0.5632 0.5655 0.5679 0.5702 0.5727
3528.000000 0.5757 0.5787 0.5816 0.5846 0.5876
3533.000000 0.5905 0.5935 0.5965 0.5994 0.6024
3538.000000 0.6054 0.6083 0.6113 0.6143 0.6173
3543.000000 0.6203 0.6232 0.6262 0.6292 0.6322
3548.000000 0.6352 0.6384 0.6420 0.6455 0.6491
3553.000000 0.6526 0.6562 0.6597 0.6632 0.6668
3558.000000 0.6700 0.6727 0.6753 0.6780 0.6807
3563.000000 0.6834 0.6860 0.6887 0.6914 0.6941
3568.000000 0.6967 0.6994 0.7022 0.7053 0.7085
3573.000000 0.7117 0.7149 0.7180 0.7212 0.7244
3578.000000 0.7268 0.7288 0.7309 0.7330 0.7351
3583.000000 0.7372 0.7393 0.7414 0.7436 0.7459
3588.000000 0.7482 0.7506 0.7529 0.7552 0.7575
3593.000000 0.7598 0.7621 0.7643 0.7666 0.7689
3598.000000 0.7711 0.7734 0.7756 0.7778 0.7800
3603.000000 0.7822 0.7843 0.7865 0.7887 0.7909
3608.000000 0.7931 0.7965 0.7998 0.8037 0.8077
3613.000000 0.8117 0.8154 0.8183 0.8212 0.8241
3618.000000 0.8270 0.8301 0.8333 0.8362 0.8383
3623.000000 0.8403 0.8424 0.8444 0.8464 0.8485
3628.000000 0.8505 0.8526 0.8561 0.8608 0.8656
3633.000000 0.8697 0.8734 0.8771 0.8792 0.8807
3638.000000 0.8822 0.8837 0.8852 0.8867 0.8882
3643.000000 0.8892 0.8901 0.8911 0.8921 0.8930
3648.000000 0.8940 0.8949 0.8959 0.8969 0.8978
3653.000000 0.8988 0.8996 0.9004 0.9012 0.9020
3658.000000 0.9028 0.9037 0.9045 0.9053 0.9061
3663.000000 0.9069 0.9077 0.9085 0.9092 0.9097
3668.000000 0.9102 0.9107 0.9112 0.9117 0.9122
3673.000000 0.9127 0.9132 0.9138 0.9143 0.9148
3678.000000 0.9153 0.9158 0.9163 0.9167 0.9170
3683.000000 0.9173 0.9176 0.9179 0.9181 0.9184
3688.000000 0.9187 0.9190 0.9193 0.9196 0.9199
3693.000000 0.9202 0.9205 0.9208 0.9211 0.9217
3698.000000 0.9223 0.9229 0.9235 0.9241 0.9247
3703.000000 0.9252 0.9258 0.9264 0.9270 0.9276
3708.000000 0.9282 0.9288 0.9293 0.9299 0.9305
3713.000000 0.9311 0.9318 0.9327 0.9336 0.9345
3718.000000 0.9355 0.9364 0.9373 0.9382 0.9391
3723.000000 0.9400 0.9409 0.9418 0.9424 0.9428
3728.000000 0.9433 0.9437 0.9442 0.9446 0.9450
3733.000000 0.9455 0.9459 0.9464 0.9468 0.9472
3738.000000 0.9477 0.9481 0.9486 0.9486 0.9486
3743.000000 0.9485 0.9485 0.9485 0.9485 0.9485
3748.000000 0.9485 0.9485 0.9485 0.9485 0.9484
3753.000000 0.9484 0.9483 0.9482 0.9480 0.9478
3758.000000 0.9477 0.9475 0.9474 0.9472 0.9471
3763.000000 0.9469 0.9467 0.9466 0.9464 0.9463
3768.000000 0.9461 0.9460 0.9458 0.9457 0.9455
3773.000000 0.9453 0.9452 0.9450 0.9448 0.9447
3778.000000 0.9445 0.9443 0.9441 0.9440 0.9438
3783.000000 0.9436 0.9434 0.9433 0.9431 0.9429
3788.000000 0.9427 0.9426 0.9424 0.9422 0.9420
3793.000000 0.9418 0.9417 0.9415 0.9414 0.9412
3798.000000 0.9410 0.9409 0.9407 0.9406 0.9404
3803.000000 0.9402 0.9401 0.9399 0.9398 0.9396
3808.000000 0.9394 0.9393 0.9391 0.9389 0.9389
3813.000000 0.9389 0.9390 0.9390 0.9390 0.9390
3818.000000 0.9390 0.9390 0.9391 0.9391 0.9391
3823.000000 0.9391 0.9391 0.9391 0.9392 0.9392
3828.000000 0.9393 0.9394 0.9395 0.9396 0.9397
3833.000000 0.9400 0.9403 0.9406 0.9409 0.9411
3838.000000 0.9414 0.9417 0.9420 0.9423 0.9426
3843.000000 0.9429 0.9432 0.9435 0.9438 0.9441
3848.000000 0.9444 0.9447 0.9449 0.9452 0.9455
3853.000000 0.9458 0.9461 0.9464 0.9469 0.9473
3858.000000 0.9477 0.9482 0.9486 0.9491 0.9495
3863.000000 0.9500 0.9504 0.9508 0.9513 0.9517
3868.000000 0.9522 0.9526 0.9531 0.9535 0.9540
3873.000000 0.9544 0.9549 0.9553 0.9557 0.9559
3878.000000 0.9561 0.9563 0.9565 0.9567 0.9570
3883.000000 0.9572 0.9572 0.9572 0.9573 0.9573
3888.000000 0.9573 0.9573 0.9573 0.9573 0.9574
3893.000000 0.9574 0.9574 0.9575 0.9575 0.9576
3898.000000 0.9576 0.9577 0.9577 0.9578 0.9578
3903.000000 0.9579 0.9579 0.9580 0.9580 0.9580
3908.000000 0.9579 0.9579 0.9579 0.9579 0.9579
3913.000000 0.9579 0.9579 0.9578 0.9578 0.9578
3918.000000 0.9578 0.9559 0.9578 0.9579 0.9579
3923.000000 0.9579 0.9579 0.9579 0.9579 0.9580
3928.000000 0.9580 0.9580 0.9580 0.9580 0.9580
3933.000000 0.9581 0.9581 0.9581 0.9581 0.9581
3938.000000 0.9581 0.9582 0.9582 0.9582 0.9582
3943.000000 0.9582 0.9582 0.9583 0.9583 0.9583
3948.000000 0.9583 0.9582 0.9581 0.9581 0.9580
3953.000000 0.9579 0.9578 0.9577 0.9576 0.9575
3958.000000 0.9574 0.9573 0.9572 0.9571 0.9570
3963.000000 0.9569 0.9568 0.9567 0.9566 0.9565
3968.000000 0.9565 0.9564 0.9563 0.9563 0.9562
3973.000000 0.9561 0.9561 0.9560 0.9559 0.9559
3978.000000 0.9558 0.9557 0.9556 0.9555 0.9554
3983.000000 0.9553 0.9551 0.9550 0.9549 0.9548
3988.000000 0.9547 0.9545 0.9544 0.9543 0.9542
3993.000000 0.9541 0.9540 0.9538 0.9537 0.9536
3998.000000 0.9535 0.9534 0.9533
##END=
