##TITLE=DISULFIDE,BIS(4-AMINOPHENYL)-,DIHYDROCHLORIDE
##JCAMP-DX=4.24
##DATA TYPE=INFRARED SPECTRUM
##CLASS=COBLENTZ III
##ORIGIN=BRITISH PETROLEUM CO. LTD., ENGLAND
##OWNER=Copyright (C) 1987 by the Coblentz Society
Collection (C) 2018 copyright by the U.S. Secretary of Commerce
on behalf of the United States of America. All rights reserved.
##DATE=1972/06/02
##NAMES=Aniline, 4,4'-dithiodi-, dihydrochloride
##MOLFORM=C12 H14 Cl2 N2 S2
##SOURCE REFERENCE=COBLENTZ NO. 9357
##$NIST ID=B6009357
##$NIST SOURCE=COBLENTZ
##$NIST IMAGE=cob9357
##SPECTROMETER/DATA SYSTEM=PERKIN-ELMER 157
##STATE=SOLID (KBr DISC, 0.8% WT.)
$$ HCl RUN IN KBr MAY CONTAIN SOME HBr
$$ REF. Can. J. Spec., 18,4,101, '73 C. S. DOUSE and P. B. TOOKE
##SAMPLING PROCEDURE=TRANSMISSION
##RESOLUTION=2
##DATA PROCESSING=DIGITIZED BY COBLENTZ SOCIETY (BATCH II) FROM HARD COPY
##XUNITS=1/CM
##YUNITS=TRANSMITTANCE
##XFACTOR=1.0
##YFACTOR=1
##FIRSTX=667
##LASTX=4000
##FIRSTY=0.8553
##MAXX=4000
##MINX=667
##MAXY=0.8567
##MINY=0.0086
##NPOINTS=3334
##XYDATA=(X++(Y..Y))
667.000000 0.8553 0.8554 0.8555 0.8558 0.8567
672.000000 0.8557 0.8550 0.8536 0.8522 0.8506
677.000000 0.8488 0.8469 0.8458 0.8447 0.8436
682.000000 0.8421 0.8374 0.8319 0.8250 0.8181
687.000000 0.8119 0.8070 0.8023 0.7980 0.7958
692.000000 0.7939 0.7925 0.7913 0.7909 0.7907
697.000000 0.7912 0.7906 0.7901 0.7895 0.7892
702.000000 0.7931 0.8091 0.8247 0.8377 0.8451
707.000000 0.8477 0.8493 0.8493 0.8491 0.8495
712.000000 0.8487 0.8486 0.8486 0.8484 0.8481
717.000000 0.8478 0.8475 0.8466 0.8449 0.8424
722.000000 0.8390 0.8347 0.8309 0.8289 0.8286
727.000000 0.8282 0.8280 0.8278 0.8273 0.8268
732.000000 0.8263 0.8258 0.8244 0.8210 0.8174
737.000000 0.8153 0.8136 0.8129 0.8127 0.8124
742.000000 0.8118 0.8109 0.8100 0.8092 0.8080
747.000000 0.8067 0.8054 0.8038 0.8020 0.8003
752.000000 0.7984 0.7962 0.7941 0.7919 0.7897
757.000000 0.7870 0.7843 0.7817 0.7801 0.7790
762.000000 0.7778 0.7766 0.7753 0.7741 0.7726
767.000000 0.7705 0.7685 0.7654 0.7615 0.7576
772.000000 0.7536 0.7494 0.7452 0.7410 0.7390
777.000000 0.7371 0.7312 0.7253 0.7192 0.7128
782.000000 0.7062 0.6995 0.6925 0.6812 0.6699
787.000000 0.6601 0.6490 0.6333 0.6208 0.6094
792.000000 0.5990 0.5838 0.5617 0.5398 0.4985
797.000000 0.4655 0.4319 0.3993 0.3747 0.3463
802.000000 0.3207 0.2973 0.2680 0.2330 0.1318
807.000000 0.0759 0.0425 0.0248 0.0168 0.0162
812.000000 0.0153 0.0197 0.0222 0.0247 0.0282
817.000000 0.0397 0.0551 0.1271 0.1856 0.2440
822.000000 0.3022 0.3658 0.3957 0.3969 0.3978
827.000000 0.4036 0.4365 0.4895 0.5366 0.5541
832.000000 0.5994 0.6359 0.6596 0.6786 0.6914
837.000000 0.6976 0.7000 0.7006 0.6987 0.6962
842.000000 0.6972 0.7016 0.7091 0.7169 0.7167
847.000000 0.7188 0.7052 0.6883 0.6715 0.6506
852.000000 0.6463 0.6474 0.6481 0.6900 0.7252
857.000000 0.7635 0.7825 0.7922 0.7971 0.7983
862.000000 0.7996 0.8003 0.8009 0.8015 0.8018
867.000000 0.8020 0.8021 0.8023 0.8023 0.8024
872.000000 0.8023 0.8022 0.8020 0.8019 0.8025
877.000000 0.8032 0.8038 0.8038 0.8038 0.8049
882.000000 0.8031 0.8025 0.8011 0.8003 0.8002
887.000000 0.8004 0.8006 0.8006 0.8004 0.8002
892.000000 0.8000 0.7998 0.7996 0.7994 0.7992
897.000000 0.7990 0.7987 0.7985 0.7983 0.7981
902.000000 0.7979 0.7976 0.7974 0.7971 0.7969
907.000000 0.7966 0.7964 0.7962 0.7960 0.7958
912.000000 0.7956 0.7955 0.7953 0.7951 0.7949
917.000000 0.7947 0.7945 0.7943 0.7935 0.7915
922.000000 0.7880 0.7848 0.7823 0.7810 0.7804
927.000000 0.7801 0.7797 0.7794 0.7790 0.7783
932.000000 0.7775 0.7751 0.7596 0.7346 0.7096
937.000000 0.6823 0.6770 0.6769 0.7036 0.7348
942.000000 0.7548 0.7583 0.7601 0.7623 0.7646
947.000000 0.7666 0.7683 0.7699 0.7712 0.7721
952.000000 0.7730 0.7738 0.7746 0.7730 0.7716
957.000000 0.7697 0.7674 0.7650 0.7622 0.7594
962.000000 0.7566 0.7526 0.7467 0.7384 0.7331
967.000000 0.7322 0.7317 0.7314 0.7316 0.7319
972.000000 0.7312 0.7328 0.7333 0.7334 0.7334
977.000000 0.7326 0.7319 0.7338 0.7381 0.7407
982.000000 0.7412 0.7414 0.7410 0.7433 0.7353
987.000000 0.7332 0.7321 0.7295 0.7224 0.7174
992.000000 0.7127 0.7081 0.7035 0.6990 0.6946
997.000000 0.6903 0.6860 0.6809 0.6744 0.6674
1002.000000 0.6592 0.6501 0.6362 0.6128 0.5753
1007.000000 0.5581 0.5176 0.4985 0.4795 0.3920
1012.000000 0.3065 0.2212 0.1362 0.0969 0.0977
1017.000000 0.2194 0.3097 0.4006 0.4548 0.5016
1022.000000 0.5484 0.5951 0.6416 0.6893 0.6980
1027.000000 0.6998 0.6995 0.6999 0.6986 0.6960
1032.000000 0.6913 0.6810 0.6738 0.6668 0.6599
1037.000000 0.6531 0.6461 0.6392 0.6324 0.6256
1042.000000 0.6187 0.6119 0.6051 0.5983 0.5915
1047.000000 0.5848 0.5780 0.5716 0.5616 0.5497
1052.000000 0.5409 0.5342 0.5283 0.5230 0.5173
1057.000000 0.5123 0.5110 0.5098 0.5096 0.5096
1062.000000 0.5097 0.5095 0.5089 0.5083 0.5067
1067.000000 0.5042 0.5011 0.4948 0.4866 0.4776
1072.000000 0.4670 0.4228 0.3733 0.3239 0.2746
1077.000000 0.2253 0.1883 0.1865 0.2206 0.2696
1082.000000 0.3186 0.3675 0.4043 0.4115 0.4169
1087.000000 0.4206 0.4235 0.4217 0.4168 0.4110
1092.000000 0.4066 0.4023 0.3977 0.3930 0.3882
1097.000000 0.3847 0.3749 0.3613 0.3477 0.3342
1102.000000 0.3207 0.3073 0.2939 0.2804 0.2670
1107.000000 0.2571 0.2500 0.2440 0.2386 0.2349
1112.000000 0.2279 0.2188 0.2115 0.2001 0.1574
1117.000000 0.1149 0.1121 0.1123 0.1379 0.1875
1122.000000 0.2370 0.2864 0.3357 0.3732 0.3806
1127.000000 0.3903 0.4072 0.4202 0.4312 0.4406
1132.000000 0.4498 0.4590 0.4682 0.4789 0.4964
1137.000000 0.5049 0.5129 0.5199 0.5263 0.5301
1142.000000 0.5318 0.5335 0.5370 0.5414 0.5464
1147.000000 0.5515 0.5567 0.5606 0.5638 0.5667
1152.000000 0.5693 0.5720 0.5762 0.5801 0.5825
1157.000000 0.5844 0.5849 0.5847 0.5831 0.5817
1162.000000 0.5794 0.5742 0.5596 0.5427 0.5258
1167.000000 0.5090 0.4989 0.5024 0.5066 0.5108
1172.000000 0.5126 0.5106 0.4950 0.4772 0.4596
1177.000000 0.4473 0.4462 0.4516 0.4685 0.4856
1182.000000 0.5027 0.5198 0.5353 0.5410 0.5431
1187.000000 0.5441 0.5450 0.5456 0.5461 0.5466
1192.000000 0.5472 0.5410 0.5343 0.5286 0.5214
1197.000000 0.4976 0.4638 0.4379 0.4120 0.3862
1202.000000 0.3604 0.3346 0.3089 0.2832 0.2576
1207.000000 0.2320 0.2211 0.2203 0.2208 0.2206
1212.000000 0.3408 0.4132 0.4861 0.5093 0.5229
1217.000000 0.5347 0.5456 0.5627 0.5748 0.5837
1222.000000 0.5910 0.5971 0.5995 0.6012 0.6011
1227.000000 0.6008 0.6009 0.6007 0.6005 0.6003
1232.000000 0.6000 0.5996 0.5991 0.5987 0.5984
1237.000000 0.5982 0.5979 0.5974 0.5957 0.5935
1242.000000 0.5908 0.5884 0.5867 0.5850 0.5829
1247.000000 0.5801 0.5775 0.5749 0.5725 0.5706
1252.000000 0.5693 0.5681 0.5669 0.5657 0.5654
1257.000000 0.5654 0.5642 0.5624 0.5588 0.5575
1262.000000 0.5568 0.5569 0.5571 0.5572 0.5565
1267.000000 0.5556 0.5521 0.5481 0.5438 0.5387
1272.000000 0.5312 0.5232 0.5148 0.5020 0.4900
1277.000000 0.4809 0.4790 0.4785 0.4784 0.4779
1282.000000 0.4819 0.4905 0.4990 0.5034 0.5044
1287.000000 0.5045 0.5060 0.5042 0.5030 0.4988
1292.000000 0.4943 0.4895 0.4826 0.4668 0.4450
1297.000000 0.4202 0.3955 0.3708 0.3460 0.3304
1302.000000 0.3258 0.3200 0.3087 0.2952 0.2831
1307.000000 0.2739 0.2659 0.2332 0.2272 0.2269
1312.000000 0.2274 0.2292 0.2404 0.2923 0.3576
1317.000000 0.4229 0.4828 0.5023 0.5148 0.5207
1322.000000 0.5265 0.5338 0.5426 0.5512 0.5552
1327.000000 0.5569 0.5577 0.5582 0.5587 0.5592
1332.000000 0.5595 0.5597 0.5598 0.5598 0.5596
1337.000000 0.5593 0.5591 0.5590 0.5587 0.5585
1342.000000 0.5583 0.5581 0.5586 0.5577 0.5575
1347.000000 0.5572 0.5571 0.5568 0.5565 0.5562
1352.000000 0.5559 0.5556 0.5553 0.5549 0.5535
1357.000000 0.5522 0.5496 0.5467 0.5434 0.5419
1362.000000 0.5413 0.5406 0.5400 0.5394 0.5388
1367.000000 0.5381 0.5365 0.5339 0.5282 0.5232
1372.000000 0.5175 0.5092 0.5016 0.4978 0.4940
1377.000000 0.4903 0.4868 0.4835 0.4803 0.4771
1382.000000 0.4739 0.4692 0.4641 0.4593 0.4555
1387.000000 0.4518 0.4480 0.4441 0.4403 0.4349
1392.000000 0.4279 0.4208 0.4088 0.3964 0.3885
1397.000000 0.3821 0.3762 0.3704 0.3503 0.3379
1402.000000 0.3208 0.2885 0.2602 0.2320 0.2038
1407.000000 0.1757 0.1559 0.1540 0.1540 0.1535
1412.000000 0.1873 0.2255 0.2636 0.3016 0.3396
1417.000000 0.3606 0.3633 0.3647 0.3637 0.3636
1422.000000 0.3633 0.3618 0.3582 0.3543 0.3503
1427.000000 0.3464 0.3425 0.3386 0.3347 0.3308
1432.000000 0.3269 0.3230 0.3192 0.3153 0.3112
1437.000000 0.3073 0.3036 0.3001 0.2964 0.2928
1442.000000 0.2896 0.2842 0.2782 0.2743 0.2701
1447.000000 0.2624 0.2556 0.2507 0.2459 0.2414
1452.000000 0.2372 0.2338 0.2278 0.2134 0.2013
1457.000000 0.1854 0.1694 0.1640 0.1607 0.1591
1462.000000 0.1577 0.1573 0.1482 0.1275 0.1169
1467.000000 0.1061 0.0952 0.0849 0.0768 0.0680
1472.000000 0.0602 0.0556 0.0521 0.0485 0.0444
1477.000000 0.0388 0.0358 0.0339 0.0287 0.0251
1482.000000 0.0237 0.0230 0.0229 0.0229 0.0231
1487.000000 0.0234 0.0233 0.0242 0.0249 0.0257
1492.000000 0.0269 0.0283 0.0302 0.0346 0.0420
1497.000000 0.0519 0.0635 0.0664 0.0674 0.0680
1502.000000 0.0686 0.0694 0.0702 0.0821 0.0844
1507.000000 0.0851 0.0853 0.0851 0.0849 0.0846
1512.000000 0.0843 0.0840 0.0836 0.0840 0.0845
1517.000000 0.1100 0.1162 0.1211 0.1254 0.1280
1522.000000 0.1300 0.1317 0.1331 0.1339 0.1343
1527.000000 0.1348 0.1349 0.1350 0.1353 0.1354
1532.000000 0.1355 0.1355 0.1354 0.1357 0.1346
1537.000000 0.1338 0.1329 0.1315 0.1298 0.1273
1542.000000 0.1242 0.1212 0.1184 0.1157 0.1134
1547.000000 0.1112 0.1090 0.1063 0.1026 0.0989
1552.000000 0.0949 0.0910 0.0878 0.0849 0.0821
1557.000000 0.0790 0.0755 0.0729 0.0715 0.0702
1562.000000 0.0693 0.0688 0.0684 0.0681 0.0678
1567.000000 0.0675 0.0673 0.0669 0.0682 0.0763
1572.000000 0.0846 0.0902 0.0977 0.1112 0.1270
1577.000000 0.1428 0.1586 0.1743 0.1933 0.2051
1582.000000 0.2115 0.2139 0.2151 0.2157 0.2159
1587.000000 0.2158 0.2178 0.2134 0.2081 0.2019
1592.000000 0.1957 0.1895 0.1833 0.1771 0.1709
1597.000000 0.1647 0.1608 0.1590 0.1579 0.1574
1602.000000 0.1568 0.1529 0.1428 0.1296 0.1163
1607.000000 0.1031 0.0924 0.0890 0.0876 0.0871
1612.000000 0.0866 0.0860 0.0860 0.0865 0.0889
1617.000000 0.1029 0.1174 0.1318 0.1462 0.1606
1622.000000 0.1749 0.1893 0.2036 0.2317 0.2620
1627.000000 0.2786 0.2884 0.2982 0.3079 0.3177
1632.000000 0.3275 0.3372 0.3469 0.3566 0.3663
1637.000000 0.3760 0.3857 0.3953 0.4077 0.4225
1642.000000 0.4347 0.4493 0.4667 0.4765 0.4898
1647.000000 0.4990 0.5060 0.5096 0.5132 0.5169
1652.000000 0.5219 0.5267 0.5301 0.5320 0.5333
1657.000000 0.5344 0.5354 0.5366 0.5381 0.5404
1662.000000 0.5448 0.5517 0.5587 0.5639 0.5679
1667.000000 0.5721 0.5756 0.5767 0.5778 0.5783
1672.000000 0.5786 0.5782 0.5787 0.5785 0.5781
1677.000000 0.5777 0.5773 0.5768 0.5762 0.5754
1682.000000 0.5745 0.5737 0.5730 0.5724 0.5723
1687.000000 0.5722 0.5721 0.5721 0.5722 0.5723
1692.000000 0.5720 0.5715 0.5710 0.5706 0.5705
1697.000000 0.5704 0.5702 0.5700 0.5699 0.5697
1702.000000 0.5696 0.5697 0.5698 0.5700 0.5702
1707.000000 0.5703 0.5705 0.5704 0.5703 0.5703
1712.000000 0.5702 0.5700 0.5698 0.5694 0.5691
1717.000000 0.5688 0.5683 0.5680 0.5674 0.5667
1722.000000 0.5657 0.5648 0.5639 0.5630 0.5619
1727.000000 0.5606 0.5591 0.5577 0.5564 0.5550
1732.000000 0.5536 0.5521 0.5507 0.5490 0.5473
1737.000000 0.5457 0.5440 0.5422 0.5403 0.5385
1742.000000 0.5366 0.5338 0.5300 0.5262 0.5230
1747.000000 0.5206 0.5199 0.5193 0.5186 0.5180
1752.000000 0.5173 0.5170 0.5168 0.5167 0.5165
1757.000000 0.5163 0.5163 0.5161 0.5157 0.5146
1762.000000 0.5128 0.5108 0.5088 0.5068 0.5047
1767.000000 0.5027 0.5009 0.4995 0.4982 0.4968
1772.000000 0.4955 0.4943 0.4931 0.4919 0.4908
1777.000000 0.4896 0.4885 0.4873 0.4861 0.4849
1782.000000 0.4836 0.4824 0.4813 0.4801 0.4789
1787.000000 0.4775 0.4761 0.4748 0.4735 0.4721
1792.000000 0.4708 0.4695 0.4676 0.4652 0.4628
1797.000000 0.4609 0.4597 0.4586 0.4576 0.4565
1802.000000 0.4556 0.4547 0.4538 0.4529 0.4521
1807.000000 0.4513 0.4505 0.4496 0.4488 0.4479
1812.000000 0.4471 0.4462 0.4449 0.4436 0.4424
1817.000000 0.4411 0.4399 0.4386 0.4374 0.4363
1822.000000 0.4352 0.4342 0.4331 0.4322 0.4311
1827.000000 0.4301 0.4280 0.4254 0.4242 0.4234
1832.000000 0.4225 0.4216 0.4208 0.4196 0.4183
1837.000000 0.4170 0.4157 0.4151 0.4146 0.4141
1842.000000 0.4136 0.4131 0.4127 0.4122 0.4116
1847.000000 0.4110 0.4104 0.4097 0.4091 0.4083
1852.000000 0.4072 0.4053 0.4033 0.4015 0.3998
1857.000000 0.3981 0.3963 0.3938 0.3893 0.3861
1862.000000 0.3837 0.3819 0.3801 0.3783 0.3765
1867.000000 0.3747 0.3725 0.3702 0.3679 0.3664
1872.000000 0.3654 0.3644 0.3633 0.3617 0.3598
1877.000000 0.3577 0.3553 0.3530 0.3507 0.3485
1882.000000 0.3464 0.3444 0.3423 0.3403 0.3380
1887.000000 0.3357 0.3334 0.3311 0.3290 0.3269
1892.000000 0.3248 0.3220 0.3185 0.3142 0.3073
1897.000000 0.2998 0.2961 0.2929 0.2904 0.2890
1902.000000 0.2876 0.2868 0.2868 0.2870 0.2872
1907.000000 0.2874 0.2876 0.2869 0.2881 0.2882
1912.000000 0.2884 0.2887 0.2889 0.2892 0.2894
1917.000000 0.2898 0.2901 0.2904 0.2907 0.2910
1922.000000 0.2914 0.2917 0.2921 0.2924 0.2928
1927.000000 0.2933 0.2938 0.2942 0.2949 0.2956
1932.000000 0.2962 0.2971 0.2981 0.2991 0.3000
1937.000000 0.3010 0.3020 0.3032 0.3044 0.3058
1942.000000 0.3069 0.3079 0.3089 0.3099 0.3109
1947.000000 0.3119 0.3129 0.3139 0.3148 0.3158
1952.000000 0.3170 0.3183 0.3196 0.3209 0.3222
1957.000000 0.3238 0.3254 0.3271 0.3288 0.3305
1962.000000 0.3321 0.3338 0.3356 0.3376 0.3395
1967.000000 0.3413 0.3433 0.3451 0.3470 0.3488
1972.000000 0.3506 0.3524 0.3541 0.3560 0.3582
1977.000000 0.3605 0.3626 0.3645 0.3660 0.3672
1982.000000 0.3683 0.3695 0.3707 0.3718 0.3732
1987.000000 0.3755 0.3798 0.3845 0.3863 0.3873
1992.000000 0.3876 0.3879 0.3881 0.3882 0.3883
1997.000000 0.3884 0.3885 0.3891 0.3900 0.3918
2002.000000 0.3939 0.3964 0.3985 0.4004 0.4023
2007.000000 0.4042 0.4060 0.4069 0.4078 0.4086
2012.000000 0.4091 0.4095 0.4099 0.4102 0.4106
2017.000000 0.4110 0.4113 0.4117 0.4121 0.4124
2022.000000 0.4128 0.4131 0.4134 0.4136 0.4139
2027.000000 0.4142 0.4145 0.4147 0.4149 0.4152
2032.000000 0.4153 0.4154 0.4154 0.4155 0.4156
2037.000000 0.4156 0.4157 0.4157 0.4158 0.4159
2042.000000 0.4159 0.4160 0.4160 0.4161 0.4161
2047.000000 0.4161 0.4161 0.4161 0.4161 0.4162
2052.000000 0.4162 0.4166 0.4162 0.4162 0.4162
2057.000000 0.4162 0.4162 0.4162 0.4160 0.4159
2062.000000 0.4157 0.4155 0.4154 0.4152 0.4151
2067.000000 0.4149 0.4147 0.4146 0.4144 0.4141
2072.000000 0.4139 0.4136 0.4134 0.4131 0.4128
2077.000000 0.4125 0.4123 0.4117 0.4110 0.4103
2082.000000 0.4095 0.4087 0.4077 0.4065 0.4053
2087.000000 0.4041 0.4029 0.4017 0.4006 0.3994
2092.000000 0.3981 0.3963 0.3945 0.3927 0.3912
2097.000000 0.3900 0.3889 0.3877 0.3866 0.3854
2102.000000 0.3844 0.3835 0.3824 0.3815 0.3807
2107.000000 0.3801 0.3796 0.3790 0.3785 0.3780
2112.000000 0.3775 0.3769 0.3765 0.3763 0.3760
2117.000000 0.3757 0.3754 0.3752 0.3749 0.3744
2122.000000 0.3738 0.3729 0.3720 0.3709 0.3699
2127.000000 0.3688 0.3677 0.3667 0.3657 0.3647
2132.000000 0.3638 0.3628 0.3619 0.3609 0.3598
2137.000000 0.3587 0.3574 0.3562 0.3550 0.3538
2142.000000 0.3526 0.3514 0.3502 0.3492 0.3481
2147.000000 0.3470 0.3459 0.3449 0.3438 0.3428
2152.000000 0.3417 0.3407 0.3396 0.3386 0.3376
2157.000000 0.3367 0.3357 0.3346 0.3337 0.3327
2162.000000 0.3318 0.3308 0.3298 0.3289 0.3280
2167.000000 0.3271 0.3262 0.3255 0.3248 0.3242
2172.000000 0.3236 0.3229 0.3223 0.3217 0.3211
2177.000000 0.3206 0.3200 0.3194 0.3188 0.3182
2182.000000 0.3176 0.3170 0.3164 0.3158 0.3152
2187.000000 0.3146 0.3139 0.3132 0.3126 0.3119
2192.000000 0.3112 0.3104 0.3098 0.3091 0.3084
2197.000000 0.3077 0.3071 0.3064 0.3058 0.3052
2202.000000 0.3046 0.3040 0.3034 0.3028 0.3022
2207.000000 0.3016 0.3009 0.3004 0.2998 0.2993
2212.000000 0.2987 0.2982 0.2976 0.2971 0.2966
2217.000000 0.2961 0.2957 0.2953 0.2949 0.2945
2222.000000 0.2941 0.2938 0.2934 0.2931 0.2927
2227.000000 0.2923 0.2919 0.2916 0.2912 0.2908
2232.000000 0.2903 0.2899 0.2895 0.2891 0.2886
2237.000000 0.2882 0.2878 0.2874 0.2869 0.2865
2242.000000 0.2861 0.2857 0.2852 0.2848 0.2843
2247.000000 0.2838 0.2832 0.2826 0.2821 0.2815
2252.000000 0.2809 0.2803 0.2797 0.2792 0.2786
2257.000000 0.2780 0.2775 0.2768 0.2762 0.2755
2262.000000 0.2747 0.2739 0.2732 0.2725 0.2717
2267.000000 0.2710 0.2702 0.2695 0.2687 0.2679
2272.000000 0.2670 0.2659 0.2647 0.2635 0.2624
2277.000000 0.2612 0.2601 0.2590 0.2579 0.2569
2282.000000 0.2558 0.2548 0.2537 0.2527 0.2517
2287.000000 0.2506 0.2496 0.2485 0.2475 0.2464
2292.000000 0.2455 0.2446 0.2437 0.2428 0.2419
2297.000000 0.2410 0.2401 0.2392 0.2383 0.2374
2302.000000 0.2365 0.2355 0.2346 0.2337 0.2328
2307.000000 0.2319 0.2310 0.2301 0.2292 0.2283
2312.000000 0.2274 0.2266 0.2257 0.2248 0.2239
2317.000000 0.2230 0.2221 0.2212 0.2204 0.2195
2322.000000 0.2186 0.2177 0.2168 0.2160 0.2150
2327.000000 0.2141 0.2131 0.2121 0.2112 0.2102
2332.000000 0.2092 0.2082 0.2072 0.2062 0.2053
2337.000000 0.2043 0.2034 0.2024 0.2014 0.2005
2342.000000 0.1996 0.1987 0.1978 0.1968 0.1959
2347.000000 0.1950 0.1941 0.1932 0.1923 0.1914
2352.000000 0.1905 0.1895 0.1886 0.1876 0.1867
2357.000000 0.1858 0.1848 0.1839 0.1829 0.1820
2362.000000 0.1810 0.1801 0.1791 0.1781 0.1765
2367.000000 0.1746 0.1728 0.1710 0.1691 0.1671
2372.000000 0.1652 0.1634 0.1617 0.1604 0.1592
2377.000000 0.1581 0.1571 0.1561 0.1552 0.1543
2382.000000 0.1535 0.1526 0.1517 0.1507 0.1497
2387.000000 0.1485 0.1474 0.1462 0.1450 0.1439
2392.000000 0.1427 0.1411 0.1392 0.1374 0.1354
2397.000000 0.1335 0.1321 0.1306 0.1293 0.1280
2402.000000 0.1268 0.1255 0.1243 0.1230 0.1218
2407.000000 0.1205 0.1192 0.1180 0.1167 0.1155
2412.000000 0.1143 0.1131 0.1119 0.1107 0.1095
2417.000000 0.1083 0.1071 0.1059 0.1047 0.1036
2422.000000 0.1024 0.1013 0.1001 0.0990 0.0978
2427.000000 0.0967 0.0956 0.0944 0.0933 0.0922
2432.000000 0.0910 0.0899 0.0888 0.0877 0.0866
2437.000000 0.0855 0.0844 0.0834 0.0823 0.0813
2442.000000 0.0803 0.0792 0.0782 0.0772 0.0761
2447.000000 0.0751 0.0741 0.0731 0.0720 0.0709
2452.000000 0.0698 0.0688 0.0677 0.0666 0.0655
2457.000000 0.0643 0.0631 0.0617 0.0603 0.0588
2462.000000 0.0574 0.0560 0.0547 0.0535 0.0522
2467.000000 0.0510 0.0499 0.0487 0.0475 0.0463
2472.000000 0.0450 0.0439 0.0429 0.0419 0.0410
2477.000000 0.0401 0.0394 0.0388 0.0382 0.0378
2482.000000 0.0375 0.0372 0.0370 0.0368 0.0367
2487.000000 0.0366 0.0365 0.0364 0.0364 0.0363
2492.000000 0.0363 0.0362 0.0361 0.0360 0.0357
2497.000000 0.0354 0.0350 0.0346 0.0342 0.0337
2502.000000 0.0332 0.0325 0.0315 0.0305 0.0295
2507.000000 0.0285 0.0275 0.0265 0.0256 0.0243
2512.000000 0.0231 0.0218 0.0205 0.0193 0.0182
2517.000000 0.0172 0.0162 0.0154 0.0145 0.0141
2522.000000 0.0137 0.0134 0.0131 0.0128 0.0126
2527.000000 0.0125 0.0123 0.0122 0.0121 0.0120
2532.000000 0.0120 0.0119 0.0119 0.0119 0.0118
2537.000000 0.0118 0.0118 0.0117 0.0117 0.0117
2542.000000 0.0117 0.0117 0.0117 0.0117 0.0118
2547.000000 0.0118 0.0118 0.0118 0.0118 0.0118
2552.000000 0.0118 0.0118 0.0118 0.0118 0.0118
2557.000000 0.0119 0.0119 0.0119 0.0119 0.0119
2562.000000 0.0120 0.0120 0.0120 0.0120 0.0120
2567.000000 0.0120 0.0120 0.0120 0.0121 0.0121
2572.000000 0.0121 0.0121 0.0121 0.0122 0.0122
2577.000000 0.0122 0.0122 0.0122 0.0122 0.0122
2582.000000 0.0122 0.0122 0.0122 0.0122 0.0122
2587.000000 0.0122 0.0122 0.0122 0.0122 0.0122
2592.000000 0.0122 0.0122 0.0123 0.0123 0.0123
2597.000000 0.0122 0.0122 0.0122 0.0122 0.0122
2602.000000 0.0122 0.0122 0.0122 0.0122 0.0122
2607.000000 0.0122 0.0122 0.0122 0.0122 0.0122
2612.000000 0.0122 0.0122 0.0122 0.0122 0.0122
2617.000000 0.0122 0.0121 0.0121 0.0121 0.0121
2622.000000 0.0121 0.0121 0.0121 0.0121 0.0121
2627.000000 0.0121 0.0121 0.0120 0.0120 0.0120
2632.000000 0.0120 0.0120 0.0120 0.0120 0.0120
2637.000000 0.0120 0.0120 0.0120 0.0119 0.0119
2642.000000 0.0119 0.0119 0.0119 0.0119 0.0119
2647.000000 0.0119 0.0119 0.0118 0.0118 0.0118
2652.000000 0.0117 0.0117 0.0117 0.0117 0.0117
2657.000000 0.0116 0.0116 0.0116 0.0115 0.0115
2662.000000 0.0115 0.0115 0.0115 0.0115 0.0114
2667.000000 0.0114 0.0114 0.0113 0.0113 0.0113
2672.000000 0.0113 0.0113 0.0112 0.0112 0.0112
2677.000000 0.0111 0.0111 0.0111 0.0111 0.0111
2682.000000 0.0111 0.0110 0.0110 0.0110 0.0109
2687.000000 0.0109 0.0109 0.0108 0.0108 0.0108
2692.000000 0.0107 0.0107 0.0106 0.0106 0.0106
2697.000000 0.0105 0.0105 0.0105 0.0104 0.0104
2702.000000 0.0104 0.0103 0.0103 0.0102 0.0101
2707.000000 0.0101 0.0101 0.0100 0.0100 0.0100
2712.000000 0.0099 0.0099 0.0099 0.0098 0.0098
2717.000000 0.0098 0.0091 0.0097 0.0097 0.0096
2722.000000 0.0096 0.0096 0.0095 0.0095 0.0095
2727.000000 0.0094 0.0094 0.0094 0.0093 0.0093
2732.000000 0.0093 0.0092 0.0092 0.0092 0.0091
2737.000000 0.0091 0.0091 0.0090 0.0090 0.0090
2742.000000 0.0089 0.0089 0.0089 0.0088 0.0088
2747.000000 0.0088 0.0087 0.0087 0.0087 0.0086
2752.000000 0.0086 0.0086 0.0086 0.0086 0.0086
2757.000000 0.0087 0.0087 0.0087 0.0087 0.0087
2762.000000 0.0087 0.0088 0.0088 0.0088 0.0089
2767.000000 0.0089 0.0089 0.0089 0.0089 0.0089
2772.000000 0.0090 0.0090 0.0090 0.0091 0.0091
2777.000000 0.0091 0.0091 0.0091 0.0091 0.0092
2782.000000 0.0092 0.0092 0.0093 0.0093 0.0093
2787.000000 0.0093 0.0093 0.0093 0.0093 0.0094
2792.000000 0.0094 0.0094 0.0095 0.0095 0.0095
2797.000000 0.0096 0.0097 0.0097 0.0098 0.0098
2802.000000 0.0099 0.0100 0.0100 0.0100 0.0101
2807.000000 0.0101 0.0102 0.0103 0.0103 0.0104
2812.000000 0.0104 0.0105 0.0105 0.0105 0.0106
2817.000000 0.0107 0.0107 0.0108 0.0108 0.0109
2822.000000 0.0110 0.0110 0.0110 0.0111 0.0111
2827.000000 0.0112 0.0112 0.0113 0.0114 0.0115
2832.000000 0.0116 0.0117 0.0118 0.0119 0.0120
2837.000000 0.0121 0.0122 0.0123 0.0124 0.0125
2842.000000 0.0126 0.0127 0.0128 0.0130 0.0133
2847.000000 0.0135 0.0137 0.0139 0.0141 0.0144
2852.000000 0.0148 0.0152 0.0156 0.0160 0.0164
2857.000000 0.0168 0.0172 0.0176 0.0180 0.0184
2862.000000 0.0189 0.0193 0.0198 0.0203 0.0208
2867.000000 0.0213 0.0217 0.0222 0.0227 0.0233
2872.000000 0.0238 0.0243 0.0248 0.0252 0.0255
2877.000000 0.0259 0.0261 0.0263 0.0265 0.0266
2882.000000 0.0267 0.0267 0.0268 0.0268 0.0268
2887.000000 0.0269 0.0269 0.0270 0.0270 0.0271
2892.000000 0.0271 0.0271 0.0272 0.0272 0.0272
2897.000000 0.0273 0.0273 0.0273 0.0273 0.0273
2902.000000 0.0273 0.0273 0.0274 0.0274 0.0274
2907.000000 0.0275 0.0275 0.0275 0.0275 0.0276
2912.000000 0.0276 0.0276 0.0276 0.0276 0.0276
2917.000000 0.0276 0.0277 0.0277 0.0277 0.0278
2922.000000 0.0278 0.0278 0.0279 0.0279 0.0279
2927.000000 0.0279 0.0280 0.0280 0.0280 0.0281
2932.000000 0.0281 0.0281 0.0281 0.0282 0.0282
2937.000000 0.0282 0.0282 0.0282 0.0282 0.0282
2942.000000 0.0283 0.0283 0.0283 0.0284 0.0284
2947.000000 0.0284 0.0284 0.0285 0.0285 0.0285
2952.000000 0.0286 0.0286 0.0286 0.0286 0.0287
2957.000000 0.0287 0.0287 0.0287 0.0287 0.0287
2962.000000 0.0287 0.0288 0.0288 0.0288 0.0289
2967.000000 0.0289 0.0290 0.0290 0.0291 0.0292
2972.000000 0.0292 0.0293 0.0294 0.0294 0.0295
2977.000000 0.0296 0.0297 0.0297 0.0298 0.0299
2982.000000 0.0299 0.0300 0.0301 0.0302 0.0303
2987.000000 0.0304 0.0304 0.0305 0.0306 0.0307
2992.000000 0.0308 0.0309 0.0309 0.0310 0.0311
2997.000000 0.0312 0.0313 0.0314 0.0314 0.0315
3002.000000 0.0316 0.0317 0.0318 0.0319 0.0319
3007.000000 0.0320 0.0321 0.0322 0.0323 0.0324
3012.000000 0.0325 0.0327 0.0328 0.0329 0.0330
3017.000000 0.0331 0.0332 0.0333 0.0335 0.0336
3022.000000 0.0338 0.0340 0.0341 0.0343 0.0345
3027.000000 0.0347 0.0349 0.0351 0.0353 0.0356
3032.000000 0.0359 0.0362 0.0366 0.0370 0.0374
3037.000000 0.0378 0.0382 0.0387 0.0391 0.0396
3042.000000 0.0401 0.0405 0.0410 0.0415 0.0420
3047.000000 0.0424 0.0429 0.0434 0.0438 0.0443
3052.000000 0.0448 0.0453 0.0458 0.0463 0.0467
3057.000000 0.0472 0.0477 0.0482 0.0487 0.0491
3062.000000 0.0496 0.0500 0.0505 0.0511 0.0516
3067.000000 0.0522 0.0527 0.0533 0.0539 0.0544
3072.000000 0.0552 0.0561 0.0570 0.0579 0.0588
3077.000000 0.0597 0.0606 0.0615 0.0624 0.0632
3082.000000 0.0641 0.0649 0.0657 0.0665 0.0672
3087.000000 0.0679 0.0686 0.0693 0.0700 0.0723
3092.000000 0.0752 0.0780 0.0809 0.0823 0.0836
3097.000000 0.0849 0.0862 0.0874 0.0886 0.0898
3102.000000 0.0909 0.0919 0.0929 0.0939 0.0948
3107.000000 0.0957 0.0966 0.0975 0.0982 0.0989
3112.000000 0.0996 0.1002 0.1009 0.1016 0.1022
3117.000000 0.1029 0.1037 0.1046 0.1054 0.1063
3122.000000 0.1073 0.1084 0.1095 0.1106 0.1116
3127.000000 0.1127 0.1138 0.1149 0.1160 0.1171
3132.000000 0.1183 0.1195 0.1210 0.1224 0.1239
3137.000000 0.1254 0.1270 0.1286 0.1302 0.1318
3142.000000 0.1334 0.1350 0.1366 0.1382 0.1398
3147.000000 0.1414 0.1431 0.1447 0.1462 0.1478
3152.000000 0.1494 0.1510 0.1526 0.1542 0.1558
3157.000000 0.1573 0.1589 0.1605 0.1621 0.1635
3162.000000 0.1646 0.1658 0.1670 0.1688 0.1714
3167.000000 0.1740 0.1767 0.1797 0.1832 0.1867
3172.000000 0.1902 0.1926 0.1936 0.1946 0.1956
3177.000000 0.1965 0.1973 0.1982 0.1990 0.1998
3182.000000 0.2006 0.2014 0.2022 0.2029 0.2036
3187.000000 0.2043 0.2049 0.2056 0.2063 0.2070
3192.000000 0.2077 0.2083 0.2087 0.2090 0.2094
3197.000000 0.2098 0.2100 0.2103 0.2106 0.2108
3202.000000 0.2111 0.2114 0.2116 0.2119 0.2120
3207.000000 0.2121 0.2122 0.2123 0.2124 0.2125
3212.000000 0.2126 0.2127 0.2128 0.2129 0.2129
3217.000000 0.2130 0.2131 0.2131 0.2131 0.2131
3222.000000 0.2131 0.2131 0.2131 0.2131 0.2131
3227.000000 0.2131 0.2131 0.2131 0.2139 0.2130
3232.000000 0.2129 0.2128 0.2128 0.2127 0.2127
3237.000000 0.2126 0.2126 0.2125 0.2124 0.2124
3242.000000 0.2123 0.2122 0.2120 0.2119 0.2118
3247.000000 0.2116 0.2114 0.2112 0.2110 0.2108
3252.000000 0.2107 0.2105 0.2103 0.2101 0.2099
3257.000000 0.2096 0.2094 0.2092 0.2089 0.2086
3262.000000 0.2083 0.2080 0.2078 0.2075 0.2073
3267.000000 0.2070 0.2067 0.2065 0.2062 0.2059
3272.000000 0.2056 0.2054 0.2051 0.2048 0.2046
3277.000000 0.2043 0.2040 0.2038 0.2035 0.2032
3282.000000 0.2030 0.2027 0.2024 0.2022 0.2019
3287.000000 0.2016 0.2014 0.2011 0.2008 0.2005
3292.000000 0.2003 0.2000 0.1997 0.1994 0.1992
3297.000000 0.1989 0.1987 0.1984 0.1981 0.1979
3302.000000 0.1976 0.1973 0.1971 0.1968 0.1966
3307.000000 0.1963 0.1961 0.1958 0.1956 0.1953
3312.000000 0.1951 0.1948 0.1946 0.1943 0.1941
3317.000000 0.1938 0.1936 0.1933 0.1931 0.1929
3322.000000 0.1927 0.1924 0.1922 0.1920 0.1918
3327.000000 0.1916 0.1914 0.1912 0.1911 0.1909
3332.000000 0.1907 0.1905 0.1902 0.1899 0.1895
3337.000000 0.1891 0.1887 0.1883 0.1878 0.1873
3342.000000 0.1869 0.1864 0.1858 0.1853 0.1848
3347.000000 0.1843 0.1835 0.1828 0.1821 0.1814
3352.000000 0.1807 0.1800 0.1793 0.1786 0.1778
3357.000000 0.1772 0.1765 0.1758 0.1751 0.1743
3362.000000 0.1736 0.1728 0.1720 0.1713 0.1705
3367.000000 0.1698 0.1691 0.1683 0.1677 0.1670
3372.000000 0.1663 0.1656 0.1649 0.1642 0.1636
3377.000000 0.1629 0.1622 0.1617 0.1612 0.1607
3382.000000 0.1602 0.1597 0.1595 0.1593 0.1591
3387.000000 0.1589 0.1586 0.1584 0.1582 0.1580
3392.000000 0.1578 0.1576 0.1575 0.1573 0.1572
3397.000000 0.1570 0.1569 0.1568 0.1566 0.1565
3402.000000 0.1564 0.1562 0.1561 0.1560 0.1559
3407.000000 0.1559 0.1559 0.1559 0.1559 0.1558
3412.000000 0.1558 0.1558 0.1558 0.1558 0.1558
3417.000000 0.1558 0.1558 0.1558 0.1558 0.1558
3422.000000 0.1558 0.1558 0.1558 0.1559 0.1559
3427.000000 0.1559 0.1560 0.1560 0.1556 0.1561
3432.000000 0.1562 0.1562 0.1562 0.1563 0.1563
3437.000000 0.1564 0.1564 0.1565 0.1566 0.1567
3442.000000 0.1569 0.1570 0.1571 0.1573 0.1575
3447.000000 0.1577 0.1579 0.1581 0.1583 0.1586
3452.000000 0.1588 0.1590 0.1594 0.1598 0.1602
3457.000000 0.1605 0.1609 0.1614 0.1618 0.1622
3462.000000 0.1627 0.1631 0.1636 0.1640 0.1644
3467.000000 0.1649 0.1653 0.1657 0.1662 0.1666
3472.000000 0.1671 0.1675 0.1679 0.1684 0.1688
3477.000000 0.1692 0.1697 0.1702 0.1707 0.1711
3482.000000 0.1716 0.1721 0.1725 0.1730 0.1734
3487.000000 0.1739 0.1743 0.1747 0.1751 0.1755
3492.000000 0.1759 0.1763 0.1767 0.1771 0.1775
3497.000000 0.1788 0.1811 0.1834 0.1856 0.1879
3502.000000 0.1905 0.1932 0.1959 0.1986 0.2013
3507.000000 0.2032 0.2047 0.2062 0.2078 0.2093
3512.000000 0.2110 0.2127 0.2145 0.2162 0.2179
3517.000000 0.2191 0.2201 0.2212 0.2222 0.2232
3522.000000 0.2241 0.2250 0.2260 0.2269 0.2278
3527.000000 0.2285 0.2293 0.2300 0.2308 0.2315
3532.000000 0.2323 0.2331 0.2339 0.2347 0.2355
3537.000000 0.2363 0.2372 0.2380 0.2388 0.2397
3542.000000 0.2404 0.2412 0.2420 0.2427 0.2435
3547.000000 0.2442 0.2449 0.2456 0.2463 0.2470
3552.000000 0.2475 0.2481 0.2487 0.2493 0.2498
3557.000000 0.2503 0.2506 0.2510 0.2514 0.2518
3562.000000 0.2521 0.2525 0.2528 0.2532 0.2535
3567.000000 0.2540 0.2546 0.2551 0.2557 0.2562
3572.000000 0.2570 0.2580 0.2590 0.2600 0.2610
3577.000000 0.2634 0.2674 0.2714 0.2753 0.2793
3582.000000 0.2836 0.2886 0.2936 0.2986 0.3036
3587.000000 0.3081 0.3102 0.3123 0.3144 0.3165
3592.000000 0.3186 0.3201 0.3216 0.3230 0.3245
3597.000000 0.3260 0.3274 0.3287 0.3301 0.3315
3602.000000 0.3328 0.3349 0.3372 0.3395 0.3419
3607.000000 0.3442 0.3462 0.3480 0.3499 0.3517
3612.000000 0.3535 0.3550 0.3559 0.3568 0.3578
3617.000000 0.3587 0.3596 0.3598 0.3601 0.3604
3622.000000 0.3606 0.3609 0.3612 0.3614 0.3617
3627.000000 0.3620 0.3622 0.3624 0.3626 0.3628
3632.000000 0.3630 0.3631 0.3633 0.3634 0.3636
3637.000000 0.3637 0.3638 0.3639 0.3641 0.3642
3642.000000 0.3643 0.3644 0.3645 0.3646 0.3647
3647.000000 0.3648 0.3649 0.3650 0.3651 0.3652
3652.000000 0.3653 0.3654 0.3655 0.3656 0.3656
3657.000000 0.3657 0.3657 0.3658 0.3658 0.3659
3662.000000 0.3660 0.3660 0.3661 0.3662 0.3663
3667.000000 0.3663 0.3664 0.3664 0.3665 0.3665
3672.000000 0.3666 0.3667 0.3668 0.3668 0.3669
3677.000000 0.3670 0.3670 0.3670 0.3671 0.3671
3682.000000 0.3672 0.3672 0.3672 0.3673 0.3673
3687.000000 0.3673 0.3674 0.3674 0.3674 0.3674
3692.000000 0.3674 0.3679 0.3675 0.3675 0.3675
3697.000000 0.3675 0.3675 0.3675 0.3675 0.3675
3702.000000 0.3675 0.3675 0.3674 0.3674 0.3674
3707.000000 0.3674 0.3674 0.3674 0.3673 0.3673
3712.000000 0.3672 0.3672 0.3672 0.3671 0.3670
3717.000000 0.3668 0.3667 0.3665 0.3664 0.3662
3722.000000 0.3659 0.3657 0.3655 0.3652 0.3650
3727.000000 0.3646 0.3643 0.3640 0.3636 0.3633
3732.000000 0.3629 0.3626 0.3623 0.3620 0.3616
3737.000000 0.3613 0.3610 0.3606 0.3603 0.3600
3742.000000 0.3596 0.3593 0.3589 0.3586 0.3582
3747.000000 0.3579 0.3575 0.3571 0.3568 0.3564
3752.000000 0.3561 0.3557 0.3554 0.3550 0.3547
3757.000000 0.3544 0.3540 0.3537 0.3534 0.3530
3762.000000 0.3527 0.3524 0.3521 0.3518 0.3514
3767.000000 0.3511 0.3508 0.3504 0.3501 0.3498
3772.000000 0.3495 0.3492 0.3489 0.3487 0.3484
3777.000000 0.3481 0.3479 0.3476 0.3474 0.3471
3782.000000 0.3469 0.3466 0.3464 0.3461 0.3458
3787.000000 0.3456 0.3453 0.3451 0.3448 0.3446
3792.000000 0.3443 0.3441 0.3439 0.3436 0.3434
3797.000000 0.3431 0.3429 0.3426 0.3424 0.3421
3802.000000 0.3419 0.3416 0.3414 0.3411 0.3408
3807.000000 0.3405 0.3403 0.3400 0.3397 0.3394
3812.000000 0.3392 0.3389 0.3386 0.3383 0.3381
3817.000000 0.3378 0.3375 0.3372 0.3370 0.3367
3822.000000 0.3364 0.3361 0.3358 0.3355 0.3352
3827.000000 0.3348 0.3345 0.3342 0.3339 0.3335
3832.000000 0.3332 0.3329 0.3326 0.3322 0.3319
3837.000000 0.3316 0.3313 0.3310 0.3306 0.3304
3842.000000 0.3301 0.3299 0.3296 0.3293 0.3291
3847.000000 0.3289 0.3286 0.3284 0.3281 0.3279
3852.000000 0.3277 0.3274 0.3272 0.3270 0.3267
3857.000000 0.3265 0.3263 0.3260 0.3258 0.3255
3862.000000 0.3252 0.3250 0.3247 0.3245 0.3243
3867.000000 0.3241 0.3239 0.3237 0.3234 0.3233
3872.000000 0.3231 0.3229 0.3227 0.3225 0.3223
3877.000000 0.3222 0.3220 0.3218 0.3216 0.3214
3882.000000 0.3212 0.3211 0.3209 0.3208 0.3206
3887.000000 0.3204 0.3203 0.3201 0.3199 0.3197
3892.000000 0.3195 0.3193 0.3192 0.3190 0.3188
3897.000000 0.3186 0.3184 0.3183 0.3181 0.3179
3902.000000 0.3177 0.3176 0.3174 0.3173 0.3171
3907.000000 0.3169 0.3166 0.3164 0.3162 0.3160
3912.000000 0.3157 0.3155 0.3153 0.3150 0.3148
3917.000000 0.3146 0.3144 0.3141 0.3139 0.3137
3922.000000 0.3135 0.3133 0.3131 0.3129 0.3128
3927.000000 0.3126 0.3125 0.3123 0.3122 0.3120
3932.000000 0.3119 0.3117 0.3116 0.3114 0.3113
3937.000000 0.3112 0.3110 0.3109 0.3107 0.3106
3942.000000 0.3104 0.3103 0.3101 0.3100 0.3098
3947.000000 0.3097 0.3096 0.3094 0.3093 0.3091
3952.000000 0.3090 0.3088 0.3087 0.3086 0.3084
3957.000000 0.3083 0.3082 0.3080 0.3079 0.3078
3962.000000 0.3076 0.3075 0.3074 0.3073 0.3071
3967.000000 0.3070 0.3069 0.3068 0.3066 0.3065
3972.000000 0.3064 0.3062 0.3061 0.3060 0.3059
3977.000000 0.3057 0.3056 0.3055 0.3054 0.3052
3982.000000 0.3051 0.3050 0.3049 0.3047 0.3046
3987.000000 0.3045 0.3044 0.3043 0.3041 0.3040
3992.000000 0.3039 0.3038 0.3037 0.3036 0.3035
3997.000000 0.3033 0.3032 0.3031 0.3030
##END=
