##TITLE=3,4-DICHLORO-Alpha-METHOXYBENZYLPENICILLIN, POTASSIUM SALT
##JCAMP-DX=4.24
##DATA TYPE=INFRARED SPECTRUM
##CLASS=COBLENTZ III
##ORIGIN=SMITH KLINE & FRENCH LABS.
##OWNER=Copyright (C) 1987 by the Coblentz Society
Collection (C) 2018 copyright by the U.S. Secretary of Commerce
on behalf of the United States of America. All rights reserved.
##DATE=1962/05/03
##NAMES=4-Thia-1-azabicyclo(3.2.0)heptane-2-carboxylic acid, 6-(2-(3,4-dichlorophenyl)-2-methoxyacetamido) -3,3-dimethyl-7-oxo-, potassium salt
##MOLFORM=C17 H17 Cl2 N2 O5 S K
##SOURCE REFERENCE=COBLENTZ NO. 9077
##$NIST ID=B6009077
##$NIST SOURCE=COBLENTZ
##$NIST IMAGE=cob9077
##SPECTROMETER/DATA SYSTEM=PERKIN-ELMER 21 (GRATING)
##INSTRUMENT PARAMETERS=NaCl PRISM
##STATE=SOLID (MULL)
$$SPECTRAL CONTAMINATION DUE TO OIL AROUND 2900, 1450, 1380 CM^-^1
##SAMPLING PROCEDURE=TRANSMISSION
##RESOLUTION=2
##DATA PROCESSING=DIGITIZED BY COBLENTZ SOCIETY (BATCH II) FROM HARD COPY
##XUNITS=1/CM
##YUNITS=TRANSMITTANCE
##XFACTOR=1.0
##YFACTOR=1
##FIRSTX=666
##LASTX=4000
##FIRSTY=0.5842
##MAXX=4000
##MINX=666
##MAXY=0.8674
##MINY=0.0697
##NPOINTS=3335
##XYDATA=(X++(Y..Y))
666.000000 0.5842 0.5903 0.5982 0.6083 0.6222
671.000000 0.6423 0.6569 0.6631 0.6752 0.6754
676.000000 0.6789 0.6754 0.6727 0.6631 0.6499
681.000000 0.6299 0.6251 0.6367 0.6487 0.6652
686.000000 0.6974 0.7222 0.7335 0.7400 0.7425
691.000000 0.7442 0.7389 0.7349 0.7313 0.7259
696.000000 0.7199 0.7153 0.7125 0.7150 0.7164
701.000000 0.7155 0.7140 0.7117 0.7112 0.7110
706.000000 0.7109 0.7107 0.7101 0.7069 0.6999
711.000000 0.6859 0.6624 0.6361 0.6099 0.5838
716.000000 0.5577 0.5317 0.5077 0.4973 0.4997
721.000000 0.5251 0.5547 0.5840 0.6064 0.6255
726.000000 0.6412 0.6573 0.6681 0.6752 0.6803
731.000000 0.6847 0.6917 0.6955 0.6959 0.6995
736.000000 0.7059 0.7092 0.7077 0.7133 0.7236
741.000000 0.7268 0.7329 0.7244 0.7211 0.7171
746.000000 0.7101 0.7020 0.6921 0.6774 0.6593
751.000000 0.6392 0.6143 0.5724 0.5519 0.5483
756.000000 0.5598 0.5801 0.6125 0.6170 0.6025
761.000000 0.5832 0.5510 0.4963 0.4618 0.4517
766.000000 0.4665 0.5093 0.5520 0.5947 0.6403
771.000000 0.6814 0.7029 0.7213 0.7368 0.7465
776.000000 0.7507 0.7522 0.7525 0.7546 0.7475
781.000000 0.7427 0.7369 0.7283 0.7256 0.7202
786.000000 0.7049 0.6804 0.6334 0.5717 0.5103
791.000000 0.4491 0.3844 0.3812 0.4021 0.4534
796.000000 0.5046 0.5407 0.5645 0.6038 0.6431
801.000000 0.6821 0.7170 0.7209 0.7226 0.7259
806.000000 0.7461 0.7662 0.7744 0.7745 0.7742
811.000000 0.7729 0.7718 0.7714 0.7754 0.7776
816.000000 0.7796 0.7790 0.7782 0.7774 0.7764
821.000000 0.7754 0.7742 0.7713 0.7643 0.7518
826.000000 0.7338 0.7072 0.6928 0.6906 0.6899
831.000000 0.6998 0.7287 0.7572 0.7682 0.7741
836.000000 0.7777 0.7797 0.7814 0.7822 0.7825
841.000000 0.7827 0.7827 0.7824 0.7822 0.7821
846.000000 0.7820 0.7833 0.7820 0.7823 0.7807
851.000000 0.7776 0.7764 0.7791 0.7844 0.7885
856.000000 0.7867 0.7832 0.7789 0.7737 0.7678
861.000000 0.7619 0.7564 0.7485 0.7359 0.7102
866.000000 0.7054 0.7051 0.7079 0.7208 0.7323
871.000000 0.7334 0.7332 0.7303 0.7180 0.7015
876.000000 0.6849 0.6686 0.6575 0.6531 0.6522
881.000000 0.6522 0.6529 0.6561 0.6628 0.6659
886.000000 0.6628 0.6411 0.6177 0.5943 0.5775
891.000000 0.5791 0.6526 0.6965 0.7191 0.7291
896.000000 0.7337 0.7368 0.7267 0.7190 0.7103
901.000000 0.6955 0.6771 0.6586 0.6402 0.6218
906.000000 0.6035 0.5853 0.5644 0.5541 0.5582
911.000000 0.5957 0.6473 0.6719 0.6949 0.7078
916.000000 0.7162 0.7221 0.7270 0.7304 0.7326
921.000000 0.7336 0.7339 0.7341 0.7342 0.7295
926.000000 0.7205 0.7170 0.7168 0.7173 0.7152
931.000000 0.7077 0.6996 0.6976 0.6963 0.6952
936.000000 0.6941 0.6927 0.6880 0.6739 0.6598
941.000000 0.6500 0.6427 0.6295 0.6263 0.6239
946.000000 0.6213 0.6042 0.5899 0.5828 0.5839
951.000000 0.5833 0.5845 0.5869 0.5891 0.5910
956.000000 0.5940 0.5991 0.6056 0.6137 0.6245
961.000000 0.6372 0.6530 0.6583 0.6604 0.6638
966.000000 0.6630 0.6600 0.6557 0.6528 0.6499
971.000000 0.6465 0.6437 0.6406 0.6372 0.6296
976.000000 0.6067 0.5917 0.5754 0.5489 0.5217
981.000000 0.5085 0.5087 0.5375 0.5620 0.5864
986.000000 0.6025 0.5986 0.5948 0.5856 0.5814
991.000000 0.5808 0.5879 0.5905 0.5897 0.5885
996.000000 0.5694 0.5490 0.5260 0.4894 0.4530
1001.000000 0.4166 0.3803 0.3548 0.3551 0.3553
1006.000000 0.3995 0.4294 0.4765 0.5235 0.5704
1011.000000 0.6095 0.6110 0.5938 0.5803 0.5668
1016.000000 0.5599 0.5606 0.5613 0.5602 0.5565
1021.000000 0.5304 0.4648 0.4035 0.3944 0.3936
1026.000000 0.3942 0.4609 0.5113 0.5305 0.5764
1031.000000 0.6212 0.6465 0.6680 0.6795 0.6860
1036.000000 0.6902 0.6933 0.6947 0.6962 0.6970
1041.000000 0.6976 0.6982 0.6983 0.6983 0.6982
1046.000000 0.6982 0.6992 0.6967 0.6958 0.6950
1051.000000 0.6939 0.6927 0.6914 0.6901 0.6885
1056.000000 0.6869 0.6851 0.6828 0.6805 0.6781
1061.000000 0.6758 0.6726 0.6692 0.6659 0.6616
1066.000000 0.6565 0.6514 0.6446 0.6369 0.6277
1071.000000 0.6173 0.6070 0.5919 0.5750 0.5546
1076.000000 0.5313 0.5081 0.4729 0.4364 0.3999
1081.000000 0.3635 0.3416 0.3447 0.3585 0.3739
1086.000000 0.3855 0.3800 0.3569 0.3337 0.3105
1091.000000 0.2874 0.2644 0.2414 0.2184 0.1940
1096.000000 0.1921 0.1945 0.1959 0.2008 0.2220
1101.000000 0.3095 0.3323 0.3657 0.4041 0.4325
1106.000000 0.4377 0.4413 0.4407 0.4322 0.4237
1111.000000 0.4152 0.4087 0.4134 0.4225 0.4315
1116.000000 0.4405 0.4444 0.4473 0.4506 0.4554
1121.000000 0.4676 0.4967 0.5108 0.5261 0.5379
1126.000000 0.5423 0.5432 0.5420 0.5383 0.5326
1131.000000 0.5210 0.5117 0.5036 0.4974 0.4938
1136.000000 0.4920 0.4901 0.4832 0.4740 0.4533
1141.000000 0.4404 0.4281 0.4171 0.4072 0.4034
1146.000000 0.4033 0.4057 0.4085 0.4121 0.4295
1151.000000 0.4591 0.4887 0.5181 0.5476 0.5646
1156.000000 0.5698 0.5707 0.5702 0.5693 0.5713
1161.000000 0.5649 0.5615 0.5587 0.5561 0.5535
1166.000000 0.5508 0.5480 0.5451 0.5418 0.5383
1171.000000 0.5339 0.5291 0.5173 0.5030 0.4886
1176.000000 0.4743 0.4599 0.4457 0.4315 0.4260
1181.000000 0.4232 0.4205 0.4180 0.4153 0.4125
1186.000000 0.4099 0.4088 0.3881 0.3650 0.3421
1191.000000 0.3192 0.2963 0.2735 0.2589 0.2607
1196.000000 0.2931 0.3191 0.3451 0.3710 0.3969
1201.000000 0.4227 0.4485 0.4743 0.5000 0.5257
1206.000000 0.5465 0.5557 0.5661 0.5732 0.5738
1211.000000 0.5731 0.5703 0.5649 0.5602 0.5555
1216.000000 0.5507 0.5462 0.5418 0.5376 0.5338
1221.000000 0.5301 0.5263 0.5221 0.5176 0.5130
1226.000000 0.5080 0.5030 0.4971 0.4874 0.4730
1231.000000 0.4576 0.4454 0.4358 0.4285 0.4063
1236.000000 0.3686 0.3305 0.3240 0.3249 0.3672
1241.000000 0.4013 0.4353 0.4693 0.4866 0.4862
1246.000000 0.4850 0.4796 0.4735 0.4682 0.4671
1251.000000 0.4733 0.4840 0.4946 0.5053 0.5130
1256.000000 0.5153 0.5159 0.5153 0.5139 0.5130
1261.000000 0.5085 0.4990 0.4879 0.4769 0.4659
1266.000000 0.4549 0.4439 0.4333 0.4298 0.4308
1271.000000 0.4322 0.4341 0.4355 0.4359 0.4355
1276.000000 0.4348 0.4336 0.4293 0.4119 0.3930
1281.000000 0.3741 0.3553 0.3365 0.3177 0.2990
1286.000000 0.2802 0.2616 0.2429 0.2243 0.2057
1291.000000 0.1870 0.1684 0.1443 0.1247 0.1080
1296.000000 0.1007 0.1000 0.1001 0.1017 0.1315
1301.000000 0.1422 0.1604 0.1733 0.1829 0.1925
1306.000000 0.2021 0.2116 0.2212 0.2307 0.2403
1311.000000 0.2497 0.2593 0.2687 0.2782 0.2876
1316.000000 0.2971 0.3065 0.3160 0.3254 0.3347
1321.000000 0.3441 0.3512 0.3533 0.3546 0.3554
1326.000000 0.3565 0.3623 0.3743 0.3864 0.3984
1331.000000 0.4104 0.4224 0.4344 0.4463 0.4586
1336.000000 0.4664 0.4682 0.4685 0.4706 0.4680
1341.000000 0.4672 0.4662 0.4652 0.4638 0.4620
1346.000000 0.4601 0.4579 0.4540 0.4400 0.4210
1351.000000 0.4021 0.3832 0.3642 0.3454 0.3186
1356.000000 0.3032 0.2918 0.2825 0.2657 0.2453
1361.000000 0.2362 0.2275 0.2192 0.2127 0.2076
1366.000000 0.2026 0.1981 0.1943 0.1919 0.1913
1371.000000 0.1916 0.1928 0.1951 0.1983 0.2025
1376.000000 0.2071 0.2134 0.2222 0.2355 0.2424
1381.000000 0.2489 0.2555 0.2630 0.2703 0.2794
1386.000000 0.2896 0.3005 0.3092 0.3154 0.3173
1391.000000 0.3182 0.3163 0.3171 0.3152 0.3109
1396.000000 0.2995 0.2874 0.2754 0.2634 0.2514
1401.000000 0.2394 0.2284 0.2247 0.2235 0.2238
1406.000000 0.2206 0.2490 0.2737 0.2984 0.3230
1411.000000 0.3476 0.3722 0.3968 0.4086 0.4086
1416.000000 0.4102 0.4075 0.4066 0.4043 0.3951
1421.000000 0.3772 0.3595 0.3437 0.3280 0.3123
1426.000000 0.2965 0.2808 0.2652 0.2522 0.2448
1431.000000 0.2381 0.2168 0.1900 0.1725 0.1633
1436.000000 0.1515 0.1377 0.1299 0.1225 0.1170
1441.000000 0.1120 0.1078 0.1047 0.1016 0.0985
1446.000000 0.0955 0.0925 0.0894 0.0860 0.0822
1451.000000 0.0797 0.0778 0.0760 0.0749 0.0747
1456.000000 0.0745 0.0748 0.0753 0.0762 0.0782
1461.000000 0.0890 0.1029 0.1168 0.1307 0.1446
1466.000000 0.1584 0.1723 0.1861 0.1999 0.2137
1471.000000 0.2274 0.2412 0.2546 0.2638 0.2670
1476.000000 0.2674 0.2676 0.2678 0.2669 0.2661
1481.000000 0.2645 0.2602 0.2529 0.2468 0.2393
1486.000000 0.2312 0.2238 0.2106 0.1928 0.1747
1491.000000 0.1567 0.1386 0.1209 0.1125 0.1116
1496.000000 0.1129 0.1145 0.1173 0.1221 0.1275
1501.000000 0.1337 0.1403 0.1471 0.1537 0.1604
1506.000000 0.1705 0.1851 0.1967 0.2127 0.2369
1511.000000 0.2645 0.2920 0.3195 0.3470 0.3744
1516.000000 0.3909 0.3963 0.4011 0.4059 0.4140
1521.000000 0.4317 0.4494 0.4670 0.4847 0.5022
1526.000000 0.5198 0.5374 0.5490 0.5669 0.5762
1531.000000 0.5813 0.5849 0.5863 0.5875 0.5880
1536.000000 0.5878 0.5876 0.5872 0.5866 0.5885
1541.000000 0.5845 0.5831 0.5797 0.5676 0.5533
1546.000000 0.5392 0.5250 0.5123 0.5064 0.5017
1551.000000 0.4996 0.4986 0.4978 0.4970 0.4964
1556.000000 0.4951 0.4894 0.4785 0.4677 0.4569
1561.000000 0.4460 0.4352 0.4288 0.4281 0.4288
1566.000000 0.4304 0.4327 0.4349 0.4371 0.4385
1571.000000 0.4389 0.4281 0.4084 0.3870 0.3656
1576.000000 0.3443 0.3230 0.3017 0.2808 0.2692
1581.000000 0.2636 0.2594 0.2558 0.2506 0.2353
1586.000000 0.2163 0.1974 0.1785 0.1596 0.1407
1591.000000 0.1188 0.1029 0.0910 0.0797 0.0727
1596.000000 0.0700 0.0697 0.0706 0.0722 0.0718
1601.000000 0.0796 0.0853 0.0922 0.0992 0.1041
1606.000000 0.1096 0.1170 0.1290 0.1508 0.1810
1611.000000 0.2176 0.2541 0.2907 0.3271 0.3635
1616.000000 0.3998 0.4362 0.4725 0.4908 0.5078
1621.000000 0.5316 0.5556 0.5742 0.5945 0.6173
1626.000000 0.6350 0.6432 0.6455 0.6472 0.6482
1631.000000 0.6489 0.6489 0.6490 0.6491 0.6491
1636.000000 0.6489 0.6490 0.6488 0.6485 0.6480
1641.000000 0.6474 0.6468 0.6461 0.6452 0.6435
1646.000000 0.6399 0.6338 0.6285 0.6222 0.6138
1651.000000 0.5992 0.5868 0.5768 0.5686 0.5616
1656.000000 0.5547 0.5473 0.5386 0.5302 0.5249
1661.000000 0.5195 0.5127 0.5020 0.4766 0.4443
1666.000000 0.4120 0.3798 0.3476 0.3155 0.2834
1671.000000 0.2512 0.2192 0.1872 0.1552 0.1265
1676.000000 0.1077 0.1000 0.0943 0.0897 0.0878
1681.000000 0.0877 0.0891 0.0894 0.0928 0.1172
1686.000000 0.1779 0.2446 0.3111 0.3776 0.4440
1691.000000 0.5043 0.5434 0.5603 0.5678 0.5775
1696.000000 0.6121 0.6255 0.6355 0.6451 0.6547
1701.000000 0.6629 0.6676 0.6679 0.6679 0.6671
1706.000000 0.6661 0.6645 0.6608 0.6539 0.6465
1711.000000 0.6393 0.6320 0.6248 0.6175 0.6102
1716.000000 0.6030 0.5958 0.5885 0.5813 0.5741
1721.000000 0.5669 0.5597 0.5525 0.5453 0.5382
1726.000000 0.5310 0.5238 0.5171 0.5116 0.5089
1731.000000 0.5063 0.4985 0.4851 0.4683 0.4515
1736.000000 0.4348 0.4181 0.4013 0.3846 0.3679
1741.000000 0.3513 0.3346 0.3181 0.3015 0.2849
1746.000000 0.2697 0.2606 0.2426 0.2216 0.1999
1751.000000 0.1781 0.1564 0.1346 0.1157 0.1062
1756.000000 0.1032 0.1018 0.1011 0.1011 0.1038
1761.000000 0.1046 0.1112 0.1231 0.1350 0.1469
1766.000000 0.1587 0.1705 0.1823 0.1942 0.2060
1771.000000 0.2178 0.2295 0.2413 0.2530 0.2648
1776.000000 0.2765 0.2879 0.2981 0.3040 0.3221
1781.000000 0.3542 0.3979 0.4415 0.4850 0.5286
1786.000000 0.5721 0.6154 0.6548 0.6680 0.6726
1791.000000 0.6785 0.6852 0.6959 0.7087 0.7236
1796.000000 0.7411 0.7527 0.7603 0.7665 0.7731
1801.000000 0.7798 0.7833 0.7863 0.7890 0.7909
1806.000000 0.7921 0.7931 0.7939 0.7947 0.7954
1811.000000 0.7963 0.7971 0.7979 0.7987 0.7995
1816.000000 0.8003 0.8012 0.8020 0.8030 0.8039
1821.000000 0.8051 0.8073 0.8095 0.8126 0.8165
1826.000000 0.8208 0.8257 0.8312 0.8372 0.8441
1831.000000 0.8476 0.8496 0.8504 0.8502 0.8499
1836.000000 0.8496 0.8494 0.8492 0.8490 0.8488
1841.000000 0.8485 0.8482 0.8480 0.8479 0.8479
1846.000000 0.8479 0.8480 0.8481 0.8481 0.8484
1851.000000 0.8487 0.8491 0.8496 0.8499 0.8505
1856.000000 0.8514 0.8522 0.8525 0.8524 0.8524
1861.000000 0.8520 0.8515 0.8507 0.8500 0.8492
1866.000000 0.8484 0.8477 0.8468 0.8460 0.8451
1871.000000 0.8443 0.8434 0.8426 0.8417 0.8412
1876.000000 0.8411 0.8415 0.8436 0.8455 0.8473
1881.000000 0.8490 0.8508 0.8529 0.8555 0.8580
1886.000000 0.8597 0.8608 0.8617 0.8627 0.8635
1891.000000 0.8640 0.8646 0.8651 0.8657 0.8662
1896.000000 0.8665 0.8667 0.8667 0.8668 0.8669
1901.000000 0.8669 0.8670 0.8671 0.8671 0.8660
1906.000000 0.8673 0.8674 0.8674 0.8671 0.8668
1911.000000 0.8665 0.8662 0.8659 0.8655 0.8652
1916.000000 0.8650 0.8646 0.8643 0.8639 0.8634
1921.000000 0.8630 0.8626 0.8622 0.8617 0.8613
1926.000000 0.8609 0.8604 0.8600 0.8597 0.8595
1931.000000 0.8592 0.8589 0.8587 0.8587 0.8587
1936.000000 0.8589 0.8590 0.8592 0.8597 0.8603
1941.000000 0.8610 0.8616 0.8620 0.8621 0.8622
1946.000000 0.8622 0.8621 0.8618 0.8615 0.8612
1951.000000 0.8607 0.8601 0.8593 0.8586 0.8578
1956.000000 0.8570 0.8562 0.8554 0.8546 0.8539
1961.000000 0.8531 0.8522 0.8515 0.8508 0.8502
1966.000000 0.8496 0.8489 0.8485 0.8483 0.8485
1971.000000 0.8487 0.8488 0.8490 0.8493 0.8496
1976.000000 0.8500 0.8505 0.8510 0.8515 0.8518
1981.000000 0.8520 0.8511 0.8501 0.8489 0.8476
1986.000000 0.8464 0.8452 0.8439 0.8427 0.8418
1991.000000 0.8410 0.8403 0.8399 0.8397 0.8395
1996.000000 0.8394 0.8392 0.8390 0.8389 0.8389
2001.000000 0.8389 0.8388 0.8388 0.8388 0.8387
2006.000000 0.8387 0.8387 0.8387 0.8386 0.8386
2011.000000 0.8386 0.8386 0.8387 0.8387 0.8387
2016.000000 0.8387 0.8387 0.8387 0.8387 0.8387
2021.000000 0.8387 0.8387 0.8386 0.8385 0.8384
2026.000000 0.8383 0.8382 0.8381 0.8380 0.8377
2031.000000 0.8374 0.8371 0.8368 0.8364 0.8361
2036.000000 0.8358 0.8355 0.8352 0.8349 0.8341
2041.000000 0.8333 0.8323 0.8313 0.8303 0.8293
2046.000000 0.8283 0.8272 0.8262 0.8253 0.8248
2051.000000 0.8244 0.8246 0.8247 0.8249 0.8251
2056.000000 0.8253 0.8256 0.8261 0.8266 0.8271
2061.000000 0.8276 0.8282 0.8288 0.8295 0.8301
2066.000000 0.8308 0.8314 0.8320 0.8320 0.8317
2071.000000 0.8313 0.8308 0.8303 0.8300 0.8297
2076.000000 0.8294 0.8291 0.8288 0.8285 0.8281
2081.000000 0.8278 0.8275 0.8272 0.8270 0.8267
2086.000000 0.8264 0.8261 0.8258 0.8255 0.8252
2091.000000 0.8250 0.8248 0.8246 0.8245 0.8244
2096.000000 0.8243 0.8242 0.8241 0.8240 0.8238
2101.000000 0.8237 0.8237 0.8236 0.8235 0.8234
2106.000000 0.8233 0.8232 0.8230 0.8229 0.8228
2111.000000 0.8227 0.8226 0.8225 0.8224 0.8223
2116.000000 0.8221 0.8220 0.8219 0.8218 0.8217
2121.000000 0.8216 0.8215 0.8214 0.8214 0.8214
2126.000000 0.8214 0.8214 0.8214 0.8214 0.8215
2131.000000 0.8215 0.8215 0.8215 0.8215 0.8215
2136.000000 0.8216 0.8217 0.8219 0.8220 0.8221
2141.000000 0.8222 0.8223 0.8224 0.8225 0.8226
2146.000000 0.8228 0.8228 0.8228 0.8227 0.8226
2151.000000 0.8225 0.8224 0.8223 0.8222 0.8221
2156.000000 0.8220 0.8219 0.8217 0.8216 0.8215
2161.000000 0.8213 0.8210 0.8206 0.8203 0.8200
2166.000000 0.8198 0.8195 0.8191 0.8188 0.8185
2171.000000 0.8182 0.8179 0.8175 0.8172 0.8169
2176.000000 0.8165 0.8160 0.8155 0.8148 0.8142
2181.000000 0.8136 0.8131 0.8125 0.8119 0.8113
2186.000000 0.8108 0.8102 0.8096 0.8090 0.8085
2191.000000 0.8079 0.8073 0.8067 0.8062 0.8056
2196.000000 0.8050 0.8045 0.8039 0.8033 0.8028
2201.000000 0.8022 0.8016 0.8011 0.8006 0.8000
2206.000000 0.7995 0.7989 0.7984 0.7979 0.7974
2211.000000 0.7968 0.7963 0.7957 0.7952 0.7947
2216.000000 0.7941 0.7936 0.7931 0.7925 0.7920
2221.000000 0.7915 0.7910 0.7905 0.7900 0.7895
2226.000000 0.7891 0.7887 0.7882 0.7878 0.7874
2231.000000 0.7870 0.7866 0.7862 0.7858 0.7855
2236.000000 0.7853 0.7850 0.7847 0.7844 0.7841
2241.000000 0.7838 0.7836 0.7833 0.7830 0.7827
2246.000000 0.7824 0.7821 0.7819 0.7817 0.7816
2251.000000 0.7814 0.7813 0.7811 0.7809 0.7807
2256.000000 0.7806 0.7804 0.7802 0.7801 0.7799
2261.000000 0.7798 0.7796 0.7794 0.7792 0.7791
2266.000000 0.7789 0.7788 0.7786 0.7784 0.7782
2271.000000 0.7782 0.7782 0.7782 0.7782 0.7782
2276.000000 0.7782 0.7782 0.7782 0.7782 0.7782
2281.000000 0.7782 0.7782 0.7782 0.7782 0.7782
2286.000000 0.7782 0.7782 0.7782 0.7782 0.7783
2291.000000 0.7784 0.7785 0.7786 0.7787 0.7787
2296.000000 0.7788 0.7789 0.7790 0.7791 0.7792
2301.000000 0.7792 0.7792 0.7793 0.7794 0.7795
2306.000000 0.7796 0.7797 0.7797 0.7798 0.7799
2311.000000 0.7800 0.7801 0.7802 0.7802 0.7802
2316.000000 0.7802 0.7803 0.7803 0.7803 0.7804
2321.000000 0.7804 0.7804 0.7804 0.7805 0.7805
2326.000000 0.7804 0.7803 0.7801 0.7800 0.7799
2331.000000 0.7798 0.7797 0.7796 0.7795 0.7793
2336.000000 0.7792 0.7791 0.7790 0.7788 0.7785
2341.000000 0.7782 0.7776 0.7771 0.7765 0.7759
2346.000000 0.7753 0.7748 0.7742 0.7736 0.7730
2351.000000 0.7725 0.7720 0.7715 0.7711 0.7706
2356.000000 0.7702 0.7697 0.7692 0.7687 0.7683
2361.000000 0.7678 0.7674 0.7669 0.7664 0.7659
2366.000000 0.7657 0.7655 0.7654 0.7654 0.7654
2371.000000 0.7654 0.7654 0.7654 0.7654 0.7653
2376.000000 0.7653 0.7653 0.7653 0.7653 0.7653
2381.000000 0.7652 0.7652 0.7652 0.7652 0.7652
2386.000000 0.7652 0.7652 0.7651 0.7651 0.7651
2391.000000 0.7651 0.7651 0.7651 0.7651 0.7650
2396.000000 0.7650 0.7650 0.7650 0.7650 0.7649
2401.000000 0.7649 0.7649 0.7649 0.7649 0.7649
2406.000000 0.7649 0.7648 0.7648 0.7648 0.7648
2411.000000 0.7647 0.7647 0.7647 0.7647 0.7647
2416.000000 0.7647 0.7647 0.7646 0.7646 0.7646
2421.000000 0.7646 0.7646 0.7647 0.7649 0.7652
2426.000000 0.7654 0.7656 0.7659 0.7661 0.7663
2431.000000 0.7666 0.7667 0.7666 0.7665 0.7664
2436.000000 0.7662 0.7661 0.7659 0.7658 0.7656
2441.000000 0.7655 0.7653 0.7650 0.7647 0.7643
2446.000000 0.7639 0.7635 0.7632 0.7628 0.7624
2451.000000 0.7620 0.7617 0.7613 0.7606 0.7598
2456.000000 0.7590 0.7580 0.7571 0.7556 0.7541
2461.000000 0.7524 0.7506 0.7487 0.7474 0.7462
2466.000000 0.7450 0.7438 0.7427 0.7415 0.7403
2471.000000 0.7391 0.7380 0.7368 0.7358 0.7347
2476.000000 0.7336 0.7325 0.7315 0.7307 0.7299
2481.000000 0.7292 0.7285 0.7278 0.7270 0.7263
2486.000000 0.7256 0.7249 0.7242 0.7235 0.7228
2491.000000 0.7221 0.7215 0.7209 0.7204 0.7200
2496.000000 0.7195 0.7191 0.7186 0.7182 0.7178
2501.000000 0.7173 0.7169 0.7164 0.7160 0.7156
2506.000000 0.7152 0.7148 0.7143 0.7139 0.7135
2511.000000 0.7131 0.7127 0.7123 0.7118 0.7114
2516.000000 0.7110 0.7106 0.7102 0.7097 0.7092
2521.000000 0.7087 0.7082 0.7077 0.7072 0.7067
2526.000000 0.7062 0.7057 0.7052 0.7046 0.7041
2531.000000 0.7036 0.7031 0.7026 0.7021 0.7016
2536.000000 0.7011 0.7006 0.7002 0.6997 0.6992
2541.000000 0.6986 0.6981 0.6975 0.6963 0.6950
2546.000000 0.6937 0.6925 0.6912 0.6899 0.6886
2551.000000 0.6874 0.6852 0.6831 0.6810 0.6791
2556.000000 0.6771 0.6754 0.6737 0.6721 0.6709
2561.000000 0.6698 0.6688 0.6679 0.6669 0.6662
2566.000000 0.6656 0.6649 0.6645 0.6640 0.6636
2571.000000 0.6631 0.6627 0.6622 0.6618 0.6613
2576.000000 0.6608 0.6604 0.6600 0.6596 0.6591
2581.000000 0.6587 0.6583 0.6579 0.6574 0.6570
2586.000000 0.6566 0.6562 0.6557 0.6553 0.6549
2591.000000 0.6545 0.6542 0.6538 0.6535 0.6533
2596.000000 0.6532 0.6530 0.6528 0.6526 0.6524
2601.000000 0.6522 0.6519 0.6518 0.6516 0.6514
2606.000000 0.6512 0.6510 0.6508 0.6507 0.6505
2611.000000 0.6503 0.6502 0.6501 0.6501 0.6501
2616.000000 0.6501 0.6501 0.6500 0.6500 0.6500
2621.000000 0.6500 0.6500 0.6500 0.6500 0.6500
2626.000000 0.6500 0.6499 0.6499 0.6499 0.6499
2631.000000 0.6499 0.6498 0.6497 0.6497 0.6496
2636.000000 0.6495 0.6494 0.6493 0.6491 0.6490
2641.000000 0.6489 0.6488 0.6487 0.6486 0.6484
2646.000000 0.6483 0.6482 0.6481 0.6477 0.6471
2651.000000 0.6466 0.6460 0.6455 0.6449 0.6444
2656.000000 0.6438 0.6431 0.6415 0.6400 0.6386
2661.000000 0.6372 0.6359 0.6347 0.6336 0.6324
2666.000000 0.6313 0.6302 0.6291 0.6280 0.6269
2671.000000 0.6258 0.6251 0.6245 0.6238 0.6231
2676.000000 0.6224 0.6219 0.6218 0.6216 0.6215
2681.000000 0.6214 0.6214 0.6214 0.6215 0.6215
2686.000000 0.6216 0.6218 0.6219 0.6221 0.6222
2691.000000 0.6223 0.6225 0.6227 0.6229 0.6231
2696.000000 0.6233 0.6236 0.6236 0.6236 0.6236
2701.000000 0.6235 0.6233 0.6231 0.6226 0.6221
2706.000000 0.6212 0.6196 0.6180 0.6160 0.6134
2711.000000 0.6108 0.6077 0.6043 0.6009 0.5975
2716.000000 0.5940 0.5904 0.5868 0.5832 0.5796
2721.000000 0.5756 0.5714 0.5672 0.5602 0.5520
2726.000000 0.5438 0.5387 0.5350 0.5312 0.5271
2731.000000 0.5229 0.5187 0.5136 0.5083 0.5031
2736.000000 0.4954 0.4871 0.4787 0.4740 0.4703
2741.000000 0.4666 0.4623 0.4579 0.4534 0.4486
2746.000000 0.4436 0.4386 0.4347 0.4312 0.4276
2751.000000 0.4238 0.4198 0.4159 0.4119 0.4080
2756.000000 0.4041 0.4014 0.3993 0.3972 0.3950
2761.000000 0.3927 0.3904 0.3865 0.3814 0.3764
2766.000000 0.3686 0.3581 0.3476 0.3371 0.3267
2771.000000 0.3163 0.3059 0.2954 0.2850 0.2746
2776.000000 0.2642 0.2538 0.2434 0.2331 0.2227
2781.000000 0.2124 0.2020 0.1916 0.1813 0.1710
2786.000000 0.1607 0.1503 0.1440 0.1378 0.1317
2791.000000 0.1273 0.1232 0.1191 0.1156 0.1123
2796.000000 0.1091 0.1057 0.1022 0.0986 0.0940
2801.000000 0.0881 0.0822 0.0776 0.0757 0.0738
2806.000000 0.0721 0.0714 0.0706 0.0699 0.0699
2811.000000 0.0700 0.0700 0.0702 0.0704 0.0706
2816.000000 0.0708 0.0710 0.0712 0.0714 0.0716
2821.000000 0.0718 0.0720 0.0722 0.0724 0.0726
2826.000000 0.0727 0.0729 0.0730 0.0732 0.0734
2831.000000 0.0735 0.0737 0.0738 0.0740 0.0741
2836.000000 0.0743 0.0744 0.0746 0.0748 0.0749
2841.000000 0.0751 0.0752 0.0754 0.0755 0.0757
2846.000000 0.0758 0.0760 0.0761 0.0763 0.0765
2851.000000 0.0766 0.0768 0.0770 0.0772 0.0773
2856.000000 0.0775 0.0776 0.0778 0.0779 0.0781
2861.000000 0.0782 0.0784 0.0785 0.0787 0.0788
2866.000000 0.0789 0.0791 0.0792 0.0794 0.0795
2871.000000 0.0797 0.0798 0.0800 0.0801 0.0802
2876.000000 0.0803 0.0805 0.0806 0.0808 0.0809
2881.000000 0.0811 0.0813 0.0815 0.0816 0.0818
2886.000000 0.0820 0.0822 0.0824 0.0825 0.0827
2891.000000 0.0833 0.0840 0.0846 0.0856 0.0871
2896.000000 0.0885 0.0900 0.0917 0.0934 0.0951
2901.000000 0.0969 0.0988 0.1006 0.1029 0.1056
2906.000000 0.1084 0.1113 0.1161 0.1209 0.1257
2911.000000 0.1323 0.1399 0.1474 0.1550 0.1627
2916.000000 0.1704 0.1781 0.1857 0.1933 0.2010
2921.000000 0.2086 0.2162 0.2238 0.2314 0.2391
2926.000000 0.2467 0.2543 0.2619 0.2695 0.2770
2931.000000 0.2846 0.2922 0.2998 0.3074 0.3149
2936.000000 0.3225 0.3300 0.3376 0.3451 0.3526
2941.000000 0.3601 0.3671 0.3739 0.3808 0.3862
2946.000000 0.3892 0.3921 0.3951 0.3979 0.4006
2951.000000 0.4033 0.4068 0.4114 0.4159 0.4205
2956.000000 0.4255 0.4306 0.4357 0.4407 0.4456
2961.000000 0.4505 0.4553 0.4584 0.4613 0.4641
2966.000000 0.4669 0.4695 0.4721 0.4747 0.4773
2971.000000 0.4799 0.4826 0.4853 0.4881 0.4910
2976.000000 0.4939 0.4968 0.4996 0.5024 0.5052
2981.000000 0.5075 0.5099 0.5123 0.5142 0.5160
2986.000000 0.5177 0.5195 0.5213 0.5230 0.5248
2991.000000 0.5264 0.5279 0.5294 0.5309 0.5321
2996.000000 0.5332 0.5343 0.5354 0.5365 0.5376
3001.000000 0.5387 0.5398 0.5408 0.5419 0.5429
3006.000000 0.5438 0.5446 0.5455 0.5462 0.5469
3011.000000 0.5476 0.5482 0.5486 0.5489 0.5493
3016.000000 0.5496 0.5496 0.5496 0.5496 0.5495
3021.000000 0.5495 0.5495 0.5494 0.5494 0.5493
3026.000000 0.5492 0.5491 0.5490 0.5490 0.5489
3031.000000 0.5488 0.5487 0.5486 0.5485 0.5485
3036.000000 0.5484 0.5483 0.5482 0.5481 0.5480
3041.000000 0.5479 0.5478 0.5477 0.5476 0.5476
3046.000000 0.5474 0.5473 0.5472 0.5471 0.5470
3051.000000 0.5469 0.5467 0.5466 0.5464 0.5462
3056.000000 0.5460 0.5458 0.5457 0.5455 0.5453
3061.000000 0.5452 0.5450 0.5449 0.5447 0.5445
3066.000000 0.5444 0.5442 0.5441 0.5439 0.5437
3071.000000 0.5435 0.5433 0.5432 0.5430 0.5429
3076.000000 0.5427 0.5425 0.5423 0.5421 0.5420
3081.000000 0.5418 0.5416 0.5415 0.5413 0.5411
3086.000000 0.5409 0.5408 0.5406 0.5404 0.5403
3091.000000 0.5401 0.5399 0.5397 0.5396 0.5394
3096.000000 0.5392 0.5391 0.5389 0.5387 0.5385
3101.000000 0.5383 0.5381 0.5379 0.5376 0.5374
3106.000000 0.5372 0.5370 0.5368 0.5365 0.5363
3111.000000 0.5361 0.5359 0.5356 0.5354 0.5352
3116.000000 0.5350 0.5348 0.5346 0.5344 0.5342
3121.000000 0.5340 0.5337 0.5335 0.5333 0.5331
3126.000000 0.5328 0.5326 0.5324 0.5322 0.5319
3131.000000 0.5316 0.5312 0.5309 0.5305 0.5302
3136.000000 0.5298 0.5295 0.5291 0.5288 0.5285
3141.000000 0.5281 0.5278 0.5274 0.5271 0.5267
3146.000000 0.5264 0.5260 0.5257 0.5253 0.5250
3151.000000 0.5246 0.5243 0.5239 0.5236 0.5233
3156.000000 0.5229 0.5226 0.5222 0.5219 0.5215
3161.000000 0.5212 0.5208 0.5204 0.5200 0.5196
3166.000000 0.5191 0.5187 0.5183 0.5179 0.5174
3171.000000 0.5170 0.5165 0.5161 0.5157 0.5152
3176.000000 0.5148 0.5144 0.5140 0.5135 0.5131
3181.000000 0.5127 0.5123 0.5118 0.5114 0.5109
3186.000000 0.5105 0.5101 0.5097 0.5092 0.5087
3191.000000 0.5082 0.5077 0.5072 0.5067 0.5062
3196.000000 0.5057 0.5052 0.5047 0.5042 0.5037
3201.000000 0.5032 0.5027 0.5021 0.5016 0.5011
3206.000000 0.5006 0.5001 0.4996 0.4991 0.4986
3211.000000 0.4981 0.4975 0.4970 0.4965 0.4960
3216.000000 0.4955 0.4950 0.4943 0.4935 0.4926
3221.000000 0.4918 0.4909 0.4900 0.4892 0.4883
3226.000000 0.4874 0.4865 0.4856 0.4847 0.4838
3231.000000 0.4829 0.4820 0.4811 0.4802 0.4793
3236.000000 0.4784 0.4775 0.4767 0.4758 0.4748
3241.000000 0.4739 0.4730 0.4721 0.4713 0.4704
3246.000000 0.4695 0.4686 0.4677 0.4667 0.4658
3251.000000 0.4648 0.4639 0.4629 0.4620 0.4610
3256.000000 0.4601 0.4591 0.4582 0.4572 0.4562
3261.000000 0.4553 0.4544 0.4535 0.4527 0.4523
3266.000000 0.4519 0.4515 0.4511 0.4511 0.4511
3271.000000 0.4512 0.4512 0.4513 0.4515 0.4516
3276.000000 0.4517 0.4507 0.4523 0.4527 0.4530
3281.000000 0.4535 0.4544 0.4553 0.4562 0.4571
3286.000000 0.4584 0.4597 0.4610 0.4623 0.4655
3291.000000 0.4703 0.4752 0.4800 0.4846 0.4881
3296.000000 0.4917 0.4952 0.4987 0.5021 0.5056
3301.000000 0.5090 0.5124 0.5159 0.5195 0.5232
3306.000000 0.5268 0.5304 0.5340 0.5376 0.5412
3311.000000 0.5448 0.5484 0.5520 0.5556 0.5592
3316.000000 0.5628 0.5664 0.5700 0.5736 0.5772
3321.000000 0.5803 0.5835 0.5866 0.5898 0.5913
3326.000000 0.5913 0.5913 0.5913 0.5913 0.5913
3331.000000 0.5913 0.5913 0.5913 0.5913 0.5913
3336.000000 0.5913 0.5913 0.5913 0.5913 0.5913
3341.000000 0.5913 0.5913 0.5913 0.5913 0.5913
3346.000000 0.5913 0.5913 0.5913 0.5913 0.5913
3351.000000 0.5913 0.5912 0.5912 0.5912 0.5912
3356.000000 0.5912 0.5912 0.5912 0.5912 0.5912
3361.000000 0.5911 0.5911 0.5911 0.5911 0.5910
3366.000000 0.5910 0.5910 0.5910 0.5910 0.5909
3371.000000 0.5908 0.5908 0.5907 0.5907 0.5906
3376.000000 0.5906 0.5905 0.5905 0.5904 0.5904
3381.000000 0.5903 0.5903 0.5902 0.5902 0.5901
3386.000000 0.5901 0.5900 0.5899 0.5899 0.5898
3391.000000 0.5897 0.5897 0.5896 0.5895 0.5894
3396.000000 0.5893 0.5892 0.5891 0.5891 0.5890
3401.000000 0.5889 0.5888 0.5887 0.5886 0.5885
3406.000000 0.5884 0.5884 0.5883 0.5883 0.5882
3411.000000 0.5881 0.5880 0.5878 0.5877 0.5876
3416.000000 0.5875 0.5873 0.5872 0.5871 0.5869
3421.000000 0.5868 0.5866 0.5865 0.5863 0.5862
3426.000000 0.5861 0.5860 0.5858 0.5857 0.5856
3431.000000 0.5854 0.5853 0.5852 0.5851 0.5849
3436.000000 0.5848 0.5847 0.5846 0.5844 0.5843
3441.000000 0.5842 0.5840 0.5839 0.5838 0.5836
3446.000000 0.5835 0.5833 0.5832 0.5830 0.5828
3451.000000 0.5826 0.5824 0.5823 0.5821 0.5819
3456.000000 0.5817 0.5815 0.5813 0.5811 0.5809
3461.000000 0.5808 0.5806 0.5804 0.5802 0.5800
3466.000000 0.5798 0.5796 0.5794 0.5793 0.5791
3471.000000 0.5789 0.5787 0.5785 0.5784 0.5782
3476.000000 0.5780 0.5779 0.5777 0.5775 0.5774
3481.000000 0.5772 0.5770 0.5769 0.5767 0.5765
3486.000000 0.5764 0.5762 0.5760 0.5758 0.5756
3491.000000 0.5755 0.5753 0.5751 0.5750 0.5748
3496.000000 0.5746 0.5745 0.5743 0.5741 0.5740
3501.000000 0.5738 0.5737 0.5735 0.5733 0.5732
3506.000000 0.5730 0.5728 0.5726 0.5725 0.5723
3511.000000 0.5721 0.5719 0.5718 0.5716 0.5714
3516.000000 0.5713 0.5711 0.5710 0.5708 0.5706
3521.000000 0.5705 0.5703 0.5701 0.5700 0.5698
3526.000000 0.5697 0.5695 0.5693 0.5691 0.5689
3531.000000 0.5688 0.5686 0.5684 0.5683 0.5681
3536.000000 0.5680 0.5678 0.5676 0.5675 0.5673
3541.000000 0.5672 0.5670 0.5668 0.5666 0.5664
3546.000000 0.5663 0.5661 0.5659 0.5658 0.5656
3551.000000 0.5655 0.5653 0.5651 0.5649 0.5648
3556.000000 0.5646 0.5643 0.5640 0.5637 0.5634
3561.000000 0.5631 0.5628 0.5626 0.5623 0.5620
3566.000000 0.5617 0.5615 0.5612 0.5609 0.5606
3571.000000 0.5604 0.5601 0.5598 0.5595 0.5592
3576.000000 0.5589 0.5586 0.5584 0.5581 0.5578
3581.000000 0.5575 0.5573 0.5570 0.5567 0.5564
3586.000000 0.5562 0.5559 0.5556 0.5554 0.5551
3591.000000 0.5549 0.5546 0.5544 0.5541 0.5539
3596.000000 0.5536 0.5534 0.5531 0.5529 0.5526
3601.000000 0.5524 0.5521 0.5519 0.5516 0.5514
3606.000000 0.5511 0.5509 0.5506 0.5504 0.5502
3611.000000 0.5500 0.5498 0.5496 0.5495 0.5493
3616.000000 0.5491 0.5490 0.5488 0.5487 0.5485
3621.000000 0.5484 0.5482 0.5481 0.5479 0.5478
3626.000000 0.5477 0.5475 0.5474 0.5473 0.5471
3631.000000 0.5470 0.5468 0.5467 0.5465 0.5464
3636.000000 0.5462 0.5461 0.5459 0.5458 0.5457
3641.000000 0.5456 0.5455 0.5454 0.5453 0.5452
3646.000000 0.5451 0.5450 0.5449 0.5448 0.5447
3651.000000 0.5446 0.5445 0.5444 0.5443 0.5442
3656.000000 0.5442 0.5441 0.5440 0.5439 0.5438
3661.000000 0.5437 0.5436 0.5436 0.5435 0.5434
3666.000000 0.5433 0.5433 0.5433 0.5432 0.5432
3671.000000 0.5432 0.5431 0.5431 0.5430 0.5430
3676.000000 0.5430 0.5429 0.5429 0.5429 0.5429
3681.000000 0.5429 0.5428 0.5428 0.5428 0.5428
3686.000000 0.5428 0.5428 0.5427 0.5427 0.5427
3691.000000 0.5426 0.5426 0.5425 0.5425 0.5425
3696.000000 0.5425 0.5425 0.5425 0.5424 0.5424
3701.000000 0.5424 0.5424 0.5424 0.5423 0.5423
3706.000000 0.5423 0.5423 0.5423 0.5423 0.5422
3711.000000 0.5422 0.5422 0.5422 0.5422 0.5421
3716.000000 0.5421 0.5421 0.5421 0.5421 0.5421
3721.000000 0.5420 0.5420 0.5420 0.5420 0.5420
3726.000000 0.5419 0.5419 0.5419 0.5419 0.5419
3731.000000 0.5419 0.5418 0.5418 0.5418 0.5417
3736.000000 0.5417 0.5416 0.5416 0.5415 0.5415
3741.000000 0.5414 0.5414 0.5413 0.5412 0.5412
3746.000000 0.5411 0.5410 0.5410 0.5409 0.5409
3751.000000 0.5408 0.5407 0.5407 0.5406 0.5406
3756.000000 0.5405 0.5405 0.5404 0.5404 0.5403
3761.000000 0.5403 0.5402 0.5402 0.5401 0.5401
3766.000000 0.5400 0.5399 0.5399 0.5398 0.5398
3771.000000 0.5397 0.5397 0.5396 0.5395 0.5395
3776.000000 0.5394 0.5393 0.5391 0.5389 0.5387
3781.000000 0.5386 0.5384 0.5382 0.5381 0.5379
3786.000000 0.5377 0.5376 0.5374 0.5373 0.5371
3791.000000 0.5369 0.5367 0.5366 0.5364 0.5362
3796.000000 0.5360 0.5359 0.5357 0.5355 0.5354
3801.000000 0.5352 0.5350 0.5349 0.5347 0.5346
3806.000000 0.5344 0.5343 0.5342 0.5340 0.5339
3811.000000 0.5337 0.5336 0.5335 0.5333 0.5332
3816.000000 0.5331 0.5329 0.5328 0.5326 0.5325
3821.000000 0.5324 0.5322 0.5321 0.5320 0.5318
3826.000000 0.5317 0.5316 0.5314 0.5313 0.5312
3831.000000 0.5312 0.5311 0.5310 0.5310 0.5309
3836.000000 0.5308 0.5308 0.5307 0.5306 0.5306
3841.000000 0.5305 0.5304 0.5303 0.5302 0.5301
3846.000000 0.5301 0.5300 0.5299 0.5299 0.5298
3851.000000 0.5297 0.5297 0.5296 0.5295 0.5294
3856.000000 0.5293 0.5292 0.5291 0.5290 0.5289
3861.000000 0.5288 0.5286 0.5285 0.5284 0.5283
3866.000000 0.5282 0.5281 0.5280 0.5279 0.5278
3871.000000 0.5277 0.5276 0.5275 0.5274 0.5273
3876.000000 0.5272 0.5271 0.5270 0.5269 0.5268
3881.000000 0.5267 0.5266 0.5265 0.5264 0.5264
3886.000000 0.5263 0.5262 0.5261 0.5259 0.5258
3891.000000 0.5257 0.5256 0.5255 0.5254 0.5252
3896.000000 0.5251 0.5249 0.5248 0.5246 0.5245
3901.000000 0.5243 0.5242 0.5240 0.5239 0.5237
3906.000000 0.5236 0.5234 0.5233 0.5231 0.5230
3911.000000 0.5229 0.5227 0.5225 0.5224 0.5222
3916.000000 0.5221 0.5219 0.5217 0.5215 0.5212
3921.000000 0.5210 0.5207 0.5204 0.5201 0.5199
3926.000000 0.5196 0.5193 0.5190 0.5188 0.5185
3931.000000 0.5182 0.5179 0.5176 0.5173 0.5170
3936.000000 0.5167 0.5165 0.5161 0.5157 0.5153
3941.000000 0.5150 0.5146 0.5142 0.5139 0.5135
3946.000000 0.5131 0.5128 0.5124 0.5120 0.5116
3951.000000 0.5113 0.5109 0.5105 0.5102 0.5098
3956.000000 0.5094 0.5091 0.5087 0.5083 0.5080
3961.000000 0.5076 0.5072 0.5069 0.5065 0.5062
3966.000000 0.5058 0.5055 0.5051 0.5048 0.5045
3971.000000 0.5041 0.5038 0.5035 0.5031 0.5028
3976.000000 0.5025 0.5022 0.5019 0.5015 0.5012
3981.000000 0.5009 0.5006 0.5003 0.4999 0.4996
3986.000000 0.4993 0.4989 0.4987 0.4985 0.4983
3991.000000 0.4981 0.4980 0.4978 0.4976 0.4974
3996.000000 0.4972 0.4971 0.4969 0.4967 0.4966
##END=
