##TITLE=9-Octadecenoic acid, tetrahydrofurfuryl ester
##JCAMP-DX=4.24
$$ By DXEDIT 1.05 (RS McDonald)
##DATA TYPE=INFRARED SPECTRUM
##CLASS=COBLENTZ III
##ORIGIN=DOW CHEMICAL COMPANY
##OWNER=COPYRIGHT (C) 1988 by COBLENTZ SOCIETY INC.
Collection (C) 2018 copyright by the U.S. Secretary of Commerce
on behalf of the United States of America. All rights reserved.
##DATE=1970/01/27
##NAMES=tetrahydro-2-furanylmethyl (9E)-9-octadecenoate
Plastolein 9250 (Emery)
##MOLFORM=C23 H42 O3
##SOURCE REFERENCE=COBLENTZ NO. 09542
##$NIST ID=B6009542
##$NIST SOURCE=COBLENTZ
##$NIST IMAGE=cob9542
##SPECTROMETER/DATA SYSTEM=DOW KBr FOREPRISM-GRATING
##INSTRUMENT PARAMETERS=BLAZED AT 3.5, 12.0, 20.0 MICRON AND CHANGED AT 5.0, 7.5, 14.9 MICRON
##STATE=SOLUTION (10% CCl4 FOR 2.7-7.5, 10% CS2 FOR 7.5-26 MICRON) VS SOLVENT
##PATH LENGTH=0.011 CM, 0.011 CM
##SAMPLING PROCEDURE=TRANSMISSION
##RESOLUTION=2
##DATA PROCESSING=DIGITIZED BY COBLENTZ SOCIETY (BATCH I) FROM HARD COPY
##XUNITS=1/CM
##YUNITS=TRANSMITTANCE
##XFACTOR=1
##YFACTOR=1
##DELTAX=1
##FIRSTX=3794
##LASTX=393
##FIRSTY=0.8605
##MAXX=3794
##MINX=393
##MAXY=0.8953
##MINY=0.0118
##NPOINTS=3402
##XYDATA=(X++(Y..Y))
3794.000000 0.8605 0.8605 0.8605 0.8606 0.8608
3789.000000 0.8609 0.8610 0.8611 0.8612 0.8613
3784.000000 0.8615 0.8616 0.8617 0.8618 0.8618
3779.000000 0.8620 0.8621 0.8621 0.8623 0.8624
3774.000000 0.8625 0.8627 0.8628 0.8628 0.8630
3769.000000 0.8631 0.8633 0.8634 0.8636 0.8637
3764.000000 0.8639 0.8640 0.8641 0.8641 0.8642
3759.000000 0.8642 0.8642 0.8642 0.8643 0.8643
3754.000000 0.8643 0.8643 0.8643 0.8643 0.8642
3749.000000 0.8640 0.8639 0.8637 0.8635 0.8624
3744.000000 0.8614 0.8604 0.8594 0.8586 0.8578
3739.000000 0.8571 0.8564 0.8566 0.8568 0.8570
3734.000000 0.8571 0.8574 0.8575 0.8578 0.8580
3729.000000 0.8582 0.8584 0.8589 0.8594 0.8599
3724.000000 0.8604 0.8609 0.8614 0.8618 0.8624
3719.000000 0.8628 0.8634 0.8637 0.8640 0.8642
3714.000000 0.8644 0.8646 0.8649 0.8651 0.8653
3709.000000 0.8654 0.8655 0.8655 0.8656 0.8656
3704.000000 0.8657 0.8657 0.8658 0.8658 0.8659
3699.000000 0.8659 0.8660 0.8660 0.8661 0.8661
3694.000000 0.8662 0.8662 0.8662 0.8662 0.8663
3689.000000 0.8663 0.8664 0.8659 0.8654 0.8649
3684.000000 0.8645 0.8633 0.8621 0.8608 0.8596
3679.000000 0.8590 0.8584 0.8578 0.8573 0.8570
3674.000000 0.8567 0.8564 0.8562 0.8559 0.8557
3669.000000 0.8554 0.8552 0.8552 0.8553 0.8553
3664.000000 0.8554 0.8555 0.8556 0.8556 0.8557
3659.000000 0.8560 0.8564 0.8570 0.8577 0.8584
3654.000000 0.8591 0.8597 0.8604 0.8611 0.8618
3649.000000 0.8623 0.8628 0.8631 0.8635 0.8638
3644.000000 0.8637 0.8636 0.8632 0.8625 0.8621
3639.000000 0.8614 0.8608 0.8601 0.8594 0.8588
3634.000000 0.8582 0.8578 0.8577 0.8575 0.8575
3629.000000 0.8578 0.8583 0.8587 0.8591 0.8594
3624.000000 0.8598 0.8601 0.8605 0.8604 0.8604
3619.000000 0.8600 0.8596 0.8592 0.8588 0.8580
3614.000000 0.8571 0.8564 0.8557 0.8552 0.8548
3609.000000 0.8543 0.8538 0.8533 0.8528 0.8524
3604.000000 0.8520 0.8515 0.8511 0.8508 0.8506
3599.000000 0.8504 0.8502 0.8500 0.8498 0.8495
3594.000000 0.8493 0.8492 0.8492 0.8492 0.8493
3589.000000 0.8493 0.8494 0.8494 0.8495 0.8495
3584.000000 0.8496 0.8496 0.8497 0.8498 0.8500
3579.000000 0.8506 0.8513 0.8518 0.8525 0.8531
3574.000000 0.8538 0.8541 0.8545 0.8546 0.8547
3569.000000 0.8548 0.8550 0.8551 0.8551 0.8552
3564.000000 0.8552 0.8550 0.8549 0.8547 0.8546
3559.000000 0.8544 0.8543 0.8541 0.8540 0.8538
3554.000000 0.8537 0.8535 0.8533 0.8531 0.8528
3549.000000 0.8527 0.8525 0.8523 0.8521 0.8520
3544.000000 0.8518 0.8516 0.8514 0.8511 0.8508
3539.000000 0.8504 0.8501 0.8497 0.8494 0.8491
3534.000000 0.8488 0.8484 0.8481 0.8478 0.8475
3529.000000 0.8471 0.8468 0.8465 0.8462 0.8459
3524.000000 0.8456 0.8453 0.8450 0.8448 0.8447
3519.000000 0.8447 0.8448 0.8448 0.8448 0.8448
3514.000000 0.8449 0.8449 0.8450 0.8450 0.8451
3509.000000 0.8451 0.8452 0.8452 0.8452 0.8452
3504.000000 0.8452 0.8452 0.8452 0.8452 0.8452
3499.000000 0.8452 0.8452 0.8451 0.8451 0.8451
3494.000000 0.8451 0.8449 0.8448 0.8446 0.8444
3489.000000 0.8442 0.8441 0.8439 0.8438 0.8436
3484.000000 0.8434 0.8432 0.8430 0.8427 0.8424
3479.000000 0.8421 0.8418 0.8415 0.8413 0.8410
3474.000000 0.8407 0.8404 0.8401 0.8397 0.8393
3469.000000 0.8389 0.8385 0.8381 0.8377 0.8371
3464.000000 0.8368 0.8364 0.8360 0.8356 0.8353
3459.000000 0.8349 0.8346 0.8342 0.8339 0.8335
3454.000000 0.8332 0.8328 0.8327 0.8324 0.8321
3449.000000 0.8318 0.8317 0.8316 0.8316 0.8316
3444.000000 0.8317 0.8317 0.8317 0.8317 0.8318
3439.000000 0.8318 0.8320 0.8321 0.8324 0.8325
3434.000000 0.8327 0.8328 0.8330 0.8333 0.8336
3429.000000 0.8340 0.8345 0.8349 0.8353 0.8357
3424.000000 0.8361 0.8365 0.8368 0.8373 0.8378
3419.000000 0.8382 0.8386 0.8389 0.8393 0.8396
3414.000000 0.8399 0.8402 0.8405 0.8408 0.8411
3409.000000 0.8414 0.8417 0.8420 0.8423 0.8425
3404.000000 0.8430 0.8433 0.8436 0.8439 0.8442
3399.000000 0.8444 0.8446 0.8448 0.8451 0.8453
3394.000000 0.8455 0.8457 0.8459 0.8461 0.8463
3389.000000 0.8465 0.8467 0.8468 0.8471 0.8474
3384.000000 0.8475 0.8478 0.8480 0.8482 0.8484
3379.000000 0.8486 0.8488 0.8490 0.8492 0.8494
3374.000000 0.8497 0.8499 0.8501 0.8502 0.8503
3369.000000 0.8504 0.8506 0.8507 0.8508 0.8509
3364.000000 0.8510 0.8511 0.8513 0.8514 0.8515
3359.000000 0.8516 0.8517 0.8518 0.8520 0.8521
3354.000000 0.8521 0.8523 0.8524 0.8525 0.8527
3349.000000 0.8528 0.8528 0.8530 0.8531 0.8532
3344.000000 0.8533 0.8534 0.8536 0.8536 0.8537
3339.000000 0.8538 0.8539 0.8540 0.8541 0.8542
3334.000000 0.8543 0.8543 0.8544 0.8545 0.8546
3329.000000 0.8547 0.8548 0.8549 0.8550 0.8550
3324.000000 0.8551 0.8552 0.8553 0.8554 0.8555
3319.000000 0.8556 0.8557 0.8557 0.8558 0.8558
3314.000000 0.8559 0.8560 0.8561 0.8561 0.8562
3309.000000 0.8562 0.8563 0.8564 0.8565 0.8565
3304.000000 0.8566 0.8566 0.8567 0.8567 0.8568
3299.000000 0.8568 0.8570 0.8570 0.8571 0.8571
3294.000000 0.8571 0.8571 0.8573 0.8574 0.8575
3289.000000 0.8575 0.8575 0.8575 0.8577 0.8577
3284.000000 0.8578 0.8578 0.8580 0.8580 0.8581
3279.000000 0.8582 0.8583 0.8583 0.8584 0.8585
3274.000000 0.8586 0.8586 0.8587 0.8588 0.8589
3269.000000 0.8590 0.8591 0.8591 0.8592 0.8593
3264.000000 0.8594 0.8594 0.8595 0.8596 0.8597
3259.000000 0.8598 0.8599 0.8599 0.8600 0.8601
3254.000000 0.8602 0.8603 0.8604 0.8604 0.8605
3249.000000 0.8605 0.8605 0.8604 0.8604 0.8604
3244.000000 0.8604 0.8603 0.8603 0.8602 0.8602
3239.000000 0.8602 0.8602 0.8601 0.8601 0.8601
3234.000000 0.8601 0.8598 0.8596 0.8593 0.8591
3229.000000 0.8588 0.8586 0.8583 0.8581 0.8578
3224.000000 0.8575 0.8573 0.8570 0.8567 0.8565
3219.000000 0.8562 0.8560 0.8557 0.8555 0.8552
3214.000000 0.8550 0.8547 0.8544 0.8540 0.8537
3209.000000 0.8533 0.8530 0.8525 0.8523 0.8518
3204.000000 0.8516 0.8513 0.8511 0.8509 0.8508
3199.000000 0.8506 0.8505 0.8503 0.8502 0.8500
3194.000000 0.8499 0.8497 0.8496 0.8494 0.8493
3189.000000 0.8491 0.8490 0.8489 0.8488 0.8487
3184.000000 0.8487 0.8486 0.8485 0.8484 0.8483
3179.000000 0.8482 0.8481 0.8480 0.8478 0.8478
3174.000000 0.8478 0.8477 0.8475 0.8475 0.8474
3169.000000 0.8473 0.8471 0.8471 0.8471 0.8470
3164.000000 0.8468 0.8468 0.8467 0.8466 0.8465
3159.000000 0.8464 0.8463 0.8461 0.8460 0.8459
3154.000000 0.8458 0.8456 0.8455 0.8454 0.8453
3149.000000 0.8451 0.8450 0.8449 0.8448 0.8447
3144.000000 0.8446 0.8444 0.8443 0.8442 0.8441
3139.000000 0.8439 0.8437 0.8435 0.8433 0.8430
3134.000000 0.8428 0.8425 0.8424 0.8421 0.8418
3129.000000 0.8417 0.8415 0.8412 0.8410 0.8407
3124.000000 0.8405 0.8403 0.8401 0.8398 0.8395
3119.000000 0.8391 0.8388 0.8384 0.8381 0.8377
3114.000000 0.8374 0.8370 0.8367 0.8363 0.8359
3109.000000 0.8355 0.8351 0.8346 0.8342 0.8338
3104.000000 0.8334 0.8330 0.8325 0.8321 0.8317
3099.000000 0.8313 0.8309 0.8304 0.8300 0.8295
3094.000000 0.8290 0.8285 0.8281 0.8275 0.8271
3089.000000 0.8267 0.8262 0.8257 0.8253 0.8248
3084.000000 0.8244 0.8239 0.8234 0.8227 0.8221
3079.000000 0.8214 0.8208 0.8201 0.8195 0.8188
3074.000000 0.8182 0.8175 0.8168 0.8161 0.8154
3069.000000 0.8144 0.8135 0.8125 0.8115 0.8107
3064.000000 0.8098 0.8088 0.8078 0.8069 0.8061
3059.000000 0.8050 0.8040 0.8028 0.8018 0.8008
3054.000000 0.7998 0.7987 0.7975 0.7965 0.7954
3049.000000 0.7943 0.7932 0.7921 0.7910 0.7899
3044.000000 0.7888 0.7875 0.7865 0.7850 0.7836
3039.000000 0.7821 0.7806 0.7791 0.7776 0.7761
3034.000000 0.7748 0.7731 0.7714 0.7696 0.7678
3029.000000 0.7658 0.7641 0.7622 0.7605 0.7587
3024.000000 0.7568 0.7510 0.7451 0.7385 0.7318
3019.000000 0.7238 0.7157 0.7048 0.6939 0.6790
3014.000000 0.6641 0.6341 0.6041 0.5600 0.5159
3009.000000 0.5129 0.5100 0.5091 0.5082 0.5069
3004.000000 0.5057 0.5048 0.5040 0.5031 0.5023
2999.000000 0.4982 0.4942 0.4862 0.4785 0.4707
2994.000000 0.4629 0.4551 0.4473 0.4394 0.4316
2989.000000 0.3979 0.3643 0.3312 0.2983 0.2745
2984.000000 0.2508 0.2457 0.2406 0.2348 0.2291
2979.000000 0.2226 0.2161 0.2083 0.2004 0.1923
2974.000000 0.1841 0.1766 0.1692 0.1580 0.1468
2969.000000 0.1368 0.1268 0.1215 0.1162 0.1120
2964.000000 0.1078 0.1037 0.0996 0.0972 0.0950
2959.000000 0.0938 0.0926 0.0915 0.0904 0.0896
2954.000000 0.0888 0.0881 0.0874 0.0861 0.0847
2949.000000 0.0826 0.0804 0.0778 0.0753 0.0706
2944.000000 0.0659 0.0612 0.0565 0.0515 0.0466
2939.000000 0.0383 0.0301 0.0255 0.0208 0.0188
2934.000000 0.0168 0.0156 0.0144 0.0137 0.0131
2929.000000 0.0125 0.0120 0.0119 0.0118 0.0122
2924.000000 0.0127 0.0135 0.0146 0.0155 0.0165
2919.000000 0.0198 0.0231 0.0264 0.0298 0.0337
2914.000000 0.0377 0.0416 0.0456 0.0490 0.0524
2909.000000 0.0557 0.0590 0.0623 0.0656 0.0707
2904.000000 0.0759 0.0819 0.0879 0.0978 0.1077
2899.000000 0.1184 0.1292 0.1399 0.1506 0.1613
2894.000000 0.1721 0.1828 0.1935 0.2043 0.2151
2889.000000 0.2258 0.2366 0.2415 0.2464 0.2464
2884.000000 0.2487 0.2425 0.2385 0.2308 0.2230
2879.000000 0.2152 0.2074 0.1995 0.1918 0.1840
2874.000000 0.1762 0.1684 0.1606 0.1528 0.1450
2869.000000 0.1372 0.1294 0.1216 0.1138 0.1060
2864.000000 0.0982 0.0904 0.0826 0.0748 0.0670
2859.000000 0.0592 0.0514 0.0483 0.0449 0.0453
2854.000000 0.0453 0.0603 0.0753 0.1022 0.1291
2849.000000 0.1560 0.1829 0.2098 0.2367 0.2635
2844.000000 0.2905 0.3464 0.4025 0.4125 0.4225
2839.000000 0.4308 0.4391 0.4475 0.4560 0.4651
2834.000000 0.4743 0.4854 0.4966 0.5115 0.5265
2829.000000 0.5436 0.5608 0.5793 0.5978 0.6130
2824.000000 0.6282 0.6322 0.6362 0.6403 0.6444
2819.000000 0.6504 0.6564 0.6694 0.6825 0.6875
2814.000000 0.6926 0.6978 0.7028 0.7068 0.7108
2809.000000 0.7142 0.7175 0.7208 0.7241 0.7272
2804.000000 0.7306 0.7334 0.7362 0.7391 0.7419
2799.000000 0.7448 0.7476 0.7505 0.7533 0.7556
2794.000000 0.7578 0.7599 0.7619 0.7641 0.7661
2789.000000 0.7682 0.7703 0.7722 0.7744 0.7765
2784.000000 0.7786 0.7806 0.7826 0.7843 0.7860
2779.000000 0.7871 0.7884 0.7896 0.7908 0.7919
2774.000000 0.7933 0.7944 0.7955 0.7964 0.7974
2769.000000 0.7983 0.7993 0.8001 0.8011 0.8021
2764.000000 0.8031 0.8040 0.8049 0.8058 0.8068
2759.000000 0.8076 0.8087 0.8089 0.8091 0.8093
2754.000000 0.8095 0.8097 0.8099 0.8101 0.8104
2749.000000 0.8106 0.8108 0.8108 0.8111 0.8111
2744.000000 0.8111 0.8111 0.8112 0.8112 0.8114
2739.000000 0.8115 0.8115 0.8115 0.8117 0.8117
2734.000000 0.8118 0.8118 0.8118 0.8119 0.8121
2729.000000 0.8121 0.8122 0.8124 0.8125 0.8125
2724.000000 0.8126 0.8128 0.8128 0.8130 0.8131
2719.000000 0.8132 0.8133 0.8134 0.8135 0.8136
2714.000000 0.8137 0.8137 0.8137 0.8137 0.8138
2709.000000 0.8138 0.8139 0.8139 0.8140 0.8140
2704.000000 0.8141 0.8141 0.8141 0.8141 0.8142
2699.000000 0.8142 0.8143 0.8143 0.8143 0.8143
2694.000000 0.8144 0.8144 0.8144 0.8144 0.8144
2689.000000 0.8144 0.8144 0.8143 0.8143 0.8142
2684.000000 0.8141 0.8140 0.8140 0.8139 0.8138
2679.000000 0.8137 0.8137 0.8136 0.8135 0.8134
2674.000000 0.8134 0.8134 0.8134 0.8135 0.8136
2669.000000 0.8137 0.8138 0.8139 0.8140 0.8141
2664.000000 0.8142 0.8143 0.8144 0.8145 0.8146
2659.000000 0.8149 0.8153 0.8156 0.8160 0.8164
2654.000000 0.8168 0.8171 0.8175 0.8178 0.8183
2649.000000 0.8186 0.8190 0.8194 0.8198 0.8201
2644.000000 0.8205 0.8209 0.8213 0.8216 0.8220
2639.000000 0.8224 0.8228 0.8233 0.8237 0.8241
2634.000000 0.8245 0.8249 0.8253 0.8257 0.8261
2629.000000 0.8265 0.8270 0.8274 0.8278 0.8282
2624.000000 0.8286 0.8290 0.8294 0.8298 0.8303
2619.000000 0.8307 0.8311 0.8315 0.8318 0.8323
2614.000000 0.8327 0.8331 0.8335 0.8339 0.8344
2609.000000 0.8348 0.8352 0.8356 0.8360 0.8364
2604.000000 0.8368 0.8371 0.8375 0.8380 0.8384
2599.000000 0.8388 0.8392 0.8396 0.8400 0.8404
2594.000000 0.8408 0.8411 0.8415 0.8418 0.8423
2589.000000 0.8427 0.8431 0.8435 0.8439 0.8443
2584.000000 0.8447 0.8451 0.8455 0.8459 0.8463
2579.000000 0.8467 0.8471 0.8475 0.8478 0.8483
2574.000000 0.8487 0.8491 0.8495 0.8498 0.8502
2569.000000 0.8506 0.8510 0.8514 0.8518 0.8521
2564.000000 0.8524 0.8527 0.8531 0.8534 0.8538
2559.000000 0.8541 0.8544 0.8547 0.8551 0.8554
2554.000000 0.8557 0.8560 0.8564 0.8567 0.8570
2549.000000 0.8573 0.8577 0.8580 0.8583 0.8586
2544.000000 0.8590 0.8593 0.8596 0.8599 0.8603
2539.000000 0.8606 0.8610 0.8613 0.8616 0.8618
2534.000000 0.8623 0.8625 0.8628 0.8632 0.8636
2529.000000 0.8639 0.8642 0.8645 0.8649 0.8652
2524.000000 0.8655 0.8657 0.8660 0.8663 0.8666
2519.000000 0.8668 0.8671 0.8675 0.8678 0.8680
2514.000000 0.8683 0.8686 0.8689 0.8692 0.8695
2509.000000 0.8698 0.8701 0.8704 0.8707 0.8709
2504.000000 0.8712 0.8715 0.8718 0.8721 0.8724
2499.000000 0.8727 0.8730 0.8732 0.8735 0.8738
2494.000000 0.8741 0.8744 0.8747 0.8750 0.8753
2489.000000 0.8755 0.8757 0.8759 0.8761 0.8762
2484.000000 0.8764 0.8765 0.8767 0.8768 0.8770
2479.000000 0.8771 0.8774 0.8775 0.8777 0.8778
2474.000000 0.8780 0.8782 0.8784 0.8785 0.8787
2469.000000 0.8788 0.8790 0.8791 0.8793 0.8795
2464.000000 0.8797 0.8798 0.8800 0.8801 0.8803
2459.000000 0.8805 0.8807 0.8808 0.8810 0.8811
2454.000000 0.8813 0.8813 0.8813 0.8812 0.8812
2449.000000 0.8811 0.8811 0.8811 0.8811 0.8810
2444.000000 0.8810 0.8810 0.8810 0.8809 0.8809
2439.000000 0.8808 0.8808 0.8808 0.8808 0.8807
2434.000000 0.8807 0.8806 0.8805 0.8804 0.8804
2429.000000 0.8803 0.8803 0.8802 0.8802 0.8801
2424.000000 0.8801 0.8800 0.8800 0.8799 0.8798
2419.000000 0.8797 0.8797 0.8796 0.8795 0.8794
2414.000000 0.8794 0.8793 0.8792 0.8791 0.8791
2409.000000 0.8790 0.8789 0.8788 0.8788 0.8787
2404.000000 0.8786 0.8785 0.8785 0.8784 0.8784
2399.000000 0.8783 0.8783 0.8783 0.8783 0.8783
2394.000000 0.8783 0.8783 0.8783 0.8783 0.8783
2389.000000 0.8783 0.8783 0.8782 0.8782 0.8784
2384.000000 0.8786 0.8788 0.8790 0.8792 0.8794
2379.000000 0.8796 0.8798 0.8800 0.8802 0.8803
2374.000000 0.8805 0.8806 0.8808 0.8809 0.8811
2369.000000 0.8812 0.8814 0.8814 0.8814 0.8814
2364.000000 0.8813 0.8811 0.8810 0.8809 0.8808
2359.000000 0.8806 0.8805 0.8804 0.8803 0.8802
2354.000000 0.8801 0.8800 0.8799 0.8799 0.8798
2349.000000 0.8798 0.8799 0.8799 0.8800 0.8801
2344.000000 0.8802 0.8802 0.8803 0.8803 0.8804
2339.000000 0.8804 0.8805 0.8805 0.8805 0.8805
2334.000000 0.8806 0.8806 0.8807 0.8807 0.8808
2329.000000 0.8808 0.8808 0.8808 0.8807 0.8803
2324.000000 0.8799 0.8794 0.8790 0.8784 0.8778
2319.000000 0.8773 0.8767 0.8761 0.8756 0.8752
2314.000000 0.8748 0.8744 0.8741 0.8737 0.8733
2309.000000 0.8731 0.8728 0.8728 0.8728 0.8727
2304.000000 0.8727 0.8725 0.8725 0.8725 0.8725
2299.000000 0.8728 0.8731 0.8734 0.8737 0.8739
2294.000000 0.8742 0.8745 0.8748 0.8751 0.8754
2289.000000 0.8756 0.8759 0.8762 0.8765 0.8768
2284.000000 0.8771 0.8773 0.8775 0.8778 0.8780
2279.000000 0.8782 0.8785 0.8787 0.8789 0.8791
2274.000000 0.8793 0.8795 0.8797 0.8798 0.8799
2269.000000 0.8800 0.8802 0.8803 0.8805 0.8806
2264.000000 0.8808 0.8808 0.8809 0.8809 0.8810
2259.000000 0.8810 0.8811 0.8812 0.8813 0.8813
2254.000000 0.8814 0.8814 0.8815 0.8815 0.8816
2249.000000 0.8816 0.8817 0.8818 0.8818 0.8818
2244.000000 0.8820 0.8821 0.8821 0.8823 0.8824
2239.000000 0.8824 0.8825 0.8825 0.8827 0.8827
2234.000000 0.8828 0.8828 0.8830 0.8830 0.8831
2229.000000 0.8831 0.8832 0.8832 0.8832 0.8832
2224.000000 0.8833 0.8833 0.8834 0.8834 0.8835
2219.000000 0.8835 0.8836 0.8836 0.8836 0.8836
2214.000000 0.8837 0.8837 0.8837 0.8837 0.8837
2209.000000 0.8837 0.8838 0.8838 0.8838 0.8838
2204.000000 0.8838 0.8839 0.8841 0.8842 0.8843
2199.000000 0.8844 0.8846 0.8847 0.8849 0.8850
2194.000000 0.8852 0.8852 0.8853 0.8853 0.8854
2189.000000 0.8855 0.8857 0.8868 0.8880 0.8892
2184.000000 0.8904 0.8915 0.8925 0.8936 0.8947
2179.000000 0.8952 0.8952 0.8953 0.8948 0.8935
2174.000000 0.8923 0.8912 0.8901 0.8892 0.8884
2169.000000 0.8875 0.8867 0.8858 0.8850 0.8847
2164.000000 0.8846 0.8846 0.8848 0.8850 0.8852
2159.000000 0.8854 0.8856 0.8858 0.8860 0.8862
2154.000000 0.8864 0.8865 0.8866 0.8867 0.8868
2149.000000 0.8868 0.8871 0.8871 0.8873 0.8874
2144.000000 0.8874 0.8874 0.8874 0.8871 0.8871
2139.000000 0.8870 0.8868 0.8867 0.8866 0.8864
2134.000000 0.8863 0.8862 0.8861 0.8859 0.8858
2129.000000 0.8857 0.8857 0.8857 0.8857 0.8857
2124.000000 0.8857 0.8857 0.8857 0.8856 0.8856
2119.000000 0.8856 0.8856 0.8856 0.8856 0.8856
2114.000000 0.8856 0.8855 0.8854 0.8853 0.8853
2109.000000 0.8852 0.8851 0.8850 0.8850 0.8849
2104.000000 0.8848 0.8847 0.8847 0.8846 0.8845
2099.000000 0.8844 0.8844 0.8843 0.8842 0.8841
2094.000000 0.8840 0.8839 0.8839 0.8838 0.8837
2089.000000 0.8836 0.8836 0.8836 0.8836 0.8835
2084.000000 0.8835 0.8835 0.8835 0.8835 0.8835
2079.000000 0.8835 0.8835 0.8835 0.8835 0.8835
2074.000000 0.8835 0.8834 0.8834 0.8834 0.8834
2069.000000 0.8834 0.8834 0.8834 0.8834 0.8834
2064.000000 0.8834 0.8833 0.8833 0.8833 0.8833
2059.000000 0.8832 0.8832 0.8832 0.8832 0.8831
2054.000000 0.8831 0.8831 0.8831 0.8830 0.8830
2049.000000 0.8830 0.8830 0.8828 0.8828 0.8828
2044.000000 0.8828 0.8828 0.8828 0.8827 0.8825
2039.000000 0.8825 0.8824 0.8821 0.8821 0.8820
2034.000000 0.8818 0.8818 0.8817 0.8815 0.8814
2029.000000 0.8813 0.8812 0.8811 0.8810 0.8808
2024.000000 0.8807 0.8806 0.8805 0.8805 0.8805
2019.000000 0.8805 0.8805 0.8805 0.8805 0.8806
2014.000000 0.8807 0.8811 0.8816 0.8820 0.8825
2009.000000 0.8827 0.8828 0.8831 0.8833 0.8835
2004.000000 0.8837 0.8838 0.8839 0.8839 0.8839
1999.000000 0.8839 0.8839 0.8839 0.8838 0.8838
1994.000000 0.8838 0.8838 0.8838 0.8838 0.8838
1989.000000 0.8839 0.8840 0.8841 0.8843 0.8844
1984.000000 0.8845 0.8847 0.8848 0.8849 0.8851
1979.000000 0.8852 0.8853 0.8854 0.8856 0.8857
1974.000000 0.8858 0.8860 0.8860 0.8861 0.8861
1969.000000 0.8862 0.8863 0.8863 0.8864 0.8865
1964.000000 0.8865 0.8866 0.8866 0.8867 0.8868
1959.000000 0.8868 0.8868 0.8868 0.8868 0.8870
1954.000000 0.8870 0.8871 0.8871 0.8871 0.8871
1949.000000 0.8871 0.8873 0.8873 0.8873 0.8874
1944.000000 0.8874 0.8875 0.8875 0.8875 0.8875
1939.000000 0.8875 0.8875 0.8875 0.8875 0.8875
1934.000000 0.8875 0.8875 0.8875 0.8875 0.8875
1929.000000 0.8875 0.8875 0.8875 0.8875 0.8875
1924.000000 0.8875 0.8875 0.8875 0.8875 0.8875
1919.000000 0.8875 0.8875 0.8875 0.8874 0.8874
1914.000000 0.8874 0.8873 0.8873 0.8873 0.8871
1909.000000 0.8871 0.8871 0.8871 0.8871 0.8871
1904.000000 0.8870 0.8870 0.8870 0.8868 0.8868
1899.000000 0.8868 0.8868 0.8867 0.8866 0.8865
1894.000000 0.8864 0.8863 0.8863 0.8862 0.8861
1889.000000 0.8860 0.8859 0.8858 0.8857 0.8856
1884.000000 0.8855 0.8854 0.8854 0.8853 0.8852
1879.000000 0.8851 0.8850 0.8849 0.8848 0.8847
1874.000000 0.8846 0.8846 0.8846 0.8846 0.8846
1869.000000 0.8846 0.8845 0.8845 0.8845 0.8845
1864.000000 0.8845 0.8845 0.8844 0.8844 0.8844
1859.000000 0.8844 0.8844 0.8843 0.8841 0.8838
1854.000000 0.8836 0.8834 0.8831 0.8828 0.8825
1849.000000 0.8824 0.8821 0.8818 0.8816 0.8814
1844.000000 0.8811 0.8809 0.8807 0.8804 0.8802
1839.000000 0.8799 0.8796 0.8792 0.8787 0.8783
1834.000000 0.8778 0.8774 0.8768 0.8765 0.8760
1829.000000 0.8756 0.8751 0.8745 0.8737 0.8728
1824.000000 0.8721 0.8714 0.8706 0.8698 0.8691
1819.000000 0.8683 0.8675 0.8668 0.8663 0.8656
1814.000000 0.8649 0.8643 0.8636 0.8627 0.8618
1809.000000 0.8609 0.8601 0.8592 0.8583 0.8567
1804.000000 0.8550 0.8532 0.8510 0.8487 0.8465
1799.000000 0.8443 0.8420 0.8398 0.8367 0.8331
1794.000000 0.8295 0.8259 0.8221 0.8191 0.8160
1789.000000 0.8128 0.8098 0.8067 0.8036 0.8005
1784.000000 0.7974 0.7947 0.7919 0.7894 0.7867
1779.000000 0.7840 0.7812 0.7787 0.7761 0.7736
1774.000000 0.7711 0.7689 0.7667 0.7644 0.7621
1769.000000 0.7597 0.7571 0.7545 0.7508 0.7468
1764.000000 0.7428 0.7381 0.7335 0.7264 0.7158
1759.000000 0.6926 0.6758 0.6601 0.6476 0.6345
1754.000000 0.6156 0.5799 0.5068 0.4337 0.3606
1749.000000 0.2874 0.2143 0.1942 0.1820 0.1694
1744.000000 0.1494 0.1305 0.1145 0.1030 0.0870
1739.000000 0.0529 0.0480 0.0452 0.0429 0.0411
1734.000000 0.0415 0.0391 0.0408 0.0457 0.0528
1729.000000 0.0601 0.0675 0.0748 0.0919 0.1606
1724.000000 0.1812 0.2010 0.2187 0.2364 0.2643
1719.000000 0.2897 0.3089 0.3288 0.3507 0.3725
1714.000000 0.3909 0.4026 0.4076 0.4126 0.4176
1709.000000 0.4232 0.4288 0.4345 0.4401 0.4493
1704.000000 0.4634 0.4721 0.4805 0.4906 0.5041
1699.000000 0.5209 0.5377 0.5546 0.5714 0.5883
1694.000000 0.6051 0.6236 0.6449 0.6645 0.6821
1689.000000 0.6968 0.7058 0.7149 0.7239 0.7328
1684.000000 0.7403 0.7467 0.7530 0.7594 0.7640
1679.000000 0.7669 0.7701 0.7731 0.7761 0.7792
1674.000000 0.7821 0.7847 0.7869 0.7892 0.7914
1669.000000 0.7937 0.7958 0.7978 0.7997 0.8015
1664.000000 0.8033 0.8051 0.8068 0.8088 0.8105
1659.000000 0.8108 0.8111 0.8115 0.8118 0.8122
1654.000000 0.8126 0.8132 0.8137 0.8142 0.8146
1649.000000 0.8151 0.8156 0.8169 0.8185 0.8201
1644.000000 0.8216 0.8231 0.8246 0.8261 0.8275
1639.000000 0.8289 0.8302 0.8316 0.8330 0.8344
1634.000000 0.8358 0.8371 0.8385 0.8396 0.8407
1629.000000 0.8418 0.8428 0.8440 0.8451 0.8461
1624.000000 0.8471 0.8483 0.8494 0.8505 0.8516
1619.000000 0.8527 0.8538 0.8549 0.8559 0.8568
1614.000000 0.8577 0.8585 0.8594 0.8603 0.8611
1609.000000 0.8620 0.8628 0.8637 0.8646 0.8655
1604.000000 0.8661 0.8664 0.8668 0.8671 0.8675
1599.000000 0.8678 0.8682 0.8686 0.8689 0.8693
1594.000000 0.8697 0.8701 0.8706 0.8711 0.8716
1589.000000 0.8721 0.8725 0.8731 0.8737 0.8742
1584.000000 0.8747 0.8752 0.8757 0.8762 0.8767
1579.000000 0.8771 0.8774 0.8775 0.8778 0.8782
1574.000000 0.8785 0.8788 0.8790 0.8793 0.8796
1569.000000 0.8799 0.8800 0.8802 0.8803 0.8805
1564.000000 0.8807 0.8808 0.8810 0.8811 0.8813
1559.000000 0.8814 0.8816 0.8817 0.8818 0.8818
1554.000000 0.8820 0.8821 0.8821 0.8823 0.8823
1549.000000 0.8824 0.8824 0.8824 0.8823 0.8823
1544.000000 0.8823 0.8823 0.8823 0.8820 0.8817
1539.000000 0.8814 0.8811 0.8808 0.8805 0.8799
1534.000000 0.8789 0.8780 0.8770 0.8763 0.8756
1529.000000 0.8749 0.8742 0.8735 0.8728 0.8723
1524.000000 0.8717 0.8710 0.8704 0.8698 0.8692
1519.000000 0.8686 0.8680 0.8674 0.8667 0.8657
1514.000000 0.8646 0.8635 0.8625 0.8614 0.8604
1509.000000 0.8593 0.8581 0.8565 0.8548 0.8532
1504.000000 0.8515 0.8499 0.8483 0.8466 0.8449
1499.000000 0.8427 0.8404 0.8382 0.8360 0.8338
1494.000000 0.8316 0.8286 0.8256 0.8225 0.8195
1489.000000 0.8165 0.8134 0.8096 0.8058 0.8021
1484.000000 0.7981 0.7935 0.7889 0.7843 0.7797
1479.000000 0.7715 0.7632 0.7545 0.7380 0.7210
1474.000000 0.6845 0.5977 0.5160 0.4344 0.3527
1469.000000 0.3279 0.3274 0.3290 0.3321 0.3344
1464.000000 0.3362 0.3379 0.3397 0.3414 0.3432
1459.000000 0.3450 0.3470 0.3550 0.3766 0.3868
1454.000000 0.3954 0.4041 0.4142 0.4279 0.4425
1449.000000 0.4596 0.4701 0.4807 0.4879 0.4940
1444.000000 0.5008 0.5091 0.5174 0.5257 0.5340
1439.000000 0.5423 0.5506 0.5589 0.5672 0.5755
1434.000000 0.5838 0.5922 0.6005 0.6094 0.6198
1429.000000 0.6346 0.6417 0.6475 0.6455 0.6455
1424.000000 0.6451 0.6428 0.6382 0.6292 0.6218
1419.000000 0.6189 0.6195 0.6198 0.6253 0.6384
1414.000000 0.6461 0.6526 0.6590 0.6628 0.6665
1409.000000 0.6694 0.6694 0.6695 0.6684 0.6671
1404.000000 0.6660 0.6622 0.6587 0.6550 0.6514
1399.000000 0.6475 0.6437 0.6399 0.6359 0.6295
1394.000000 0.6222 0.6101 0.6055 0.6009 0.5970
1389.000000 0.5950 0.5930 0.5910 0.5874 0.5837
1384.000000 0.5775 0.5699 0.5550 0.5400 0.5251
1379.000000 0.5224 0.5245 0.5307 0.5368 0.5429
1374.000000 0.5491 0.5505 0.5481 0.5424 0.5368
1369.000000 0.5312 0.5255 0.5199 0.5173 0.5176
1364.000000 0.5178 0.5157 0.5190 0.5201 0.5242
1359.000000 0.5283 0.5325 0.5368 0.5410 0.5453
1354.000000 0.5489 0.5522 0.5555 0.5588 0.5621
1349.000000 0.5653 0.5686 0.5716 0.5747 0.5777
1344.000000 0.5808 0.5835 0.5859 0.5883 0.5908
1339.000000 0.5929 0.5949 0.5968 0.5971 0.5971
1334.000000 0.5971 0.5971 0.5975 0.5978 0.5989
1329.000000 0.6001 0.6012 0.6024 0.6032 0.6038
1324.000000 0.6038 0.6034 0.6022 0.5982 0.5937
1319.000000 0.5899 0.5864 0.5829 0.5797 0.5766
1314.000000 0.5736 0.5705 0.5674 0.5646 0.5621
1309.000000 0.5596 0.5572 0.5547 0.5522 0.5497
1304.000000 0.5473 0.5452 0.5433 0.5414 0.5394
1299.000000 0.5375 0.5356 0.5342 0.5333 0.5325
1294.000000 0.5317 0.5309 0.5300 0.5290 0.5281
1289.000000 0.5271 0.5250 0.5226 0.5201 0.5162
1284.000000 0.5110 0.5059 0.5022 0.4985 0.4956
1279.000000 0.4930 0.4917 0.4914 0.4914 0.4912
1274.000000 0.4912 0.4910 0.4910 0.4909 0.4907
1269.000000 0.4905 0.4903 0.4894 0.4879 0.4864
1264.000000 0.4849 0.4834 0.4802 0.4769 0.4736
1259.000000 0.4704 0.4672 0.4641 0.4609 0.4577
1254.000000 0.4542 0.4506 0.4470 0.4433 0.4392
1249.000000 0.4344 0.4297 0.4249 0.4205 0.4162
1244.000000 0.4121 0.4084 0.4049 0.4034 0.4023
1239.000000 0.4012 0.4000 0.4000 0.3988 0.4037
1234.000000 0.4062 0.4089 0.4115 0.4149 0.4182
1229.000000 0.4216 0.4247 0.4272 0.4297 0.4322
1224.000000 0.4340 0.4357 0.4374 0.4391 0.4395
1219.000000 0.4399 0.4403 0.4406 0.4406 0.4406
1214.000000 0.4444 0.4402 0.4392 0.4380 0.4367
1209.000000 0.4355 0.4342 0.4330 0.4318 0.4306
1204.000000 0.4294 0.4271 0.4227 0.4179 0.4105
1199.000000 0.4030 0.3982 0.3922 0.3862 0.3803
1194.000000 0.3743 0.3684 0.3624 0.3564 0.3505
1189.000000 0.3445 0.3384 0.3326 0.3266 0.3206
1184.000000 0.3147 0.3087 0.3027 0.2968 0.2908
1179.000000 0.2848 0.2789 0.2729 0.2620 0.2524
1174.000000 0.2477 0.2429 0.2389 0.2350 0.2312
1169.000000 0.2299 0.2269 0.2284 0.2291 0.2298
1164.000000 0.2305 0.2331 0.2367 0.2413 0.2487
1159.000000 0.2562 0.2642 0.2722 0.2817 0.2923
1154.000000 0.3013 0.3093 0.3221 0.3353 0.3484
1149.000000 0.3616 0.3747 0.3879 0.4009 0.4142
1144.000000 0.4273 0.4355 0.4410 0.4458 0.4497
1139.000000 0.4536 0.4580 0.4625 0.4670 0.4715
1134.000000 0.4762 0.4812 0.4864 0.4915 0.4977
1129.000000 0.5039 0.5125 0.5210 0.5259 0.5310
1124.000000 0.5279 0.5280 0.5269 0.5231 0.5146
1119.000000 0.5092 0.5062 0.5033 0.5004 0.4995
1114.000000 0.4990 0.4986 0.4982 0.4976 0.4968
1109.000000 0.4960 0.4953 0.4941 0.4898 0.4855
1104.000000 0.4804 0.4707 0.4610 0.4460 0.4340
1099.000000 0.4244 0.4016 0.3918 0.3834 0.3755
1094.000000 0.3673 0.3564 0.3456 0.3347 0.3238
1089.000000 0.3129 0.3020 0.3003 0.2976 0.2997
1084.000000 0.3006 0.3017 0.3027 0.3037 0.3047
1079.000000 0.3067 0.3098 0.3128 0.3158 0.3202
1074.000000 0.3259 0.3320 0.3387 0.3454 0.3547
1069.000000 0.3709 0.3932 0.4155 0.4377 0.4599
1064.000000 0.4821 0.4959 0.5068 0.5173 0.5259
1059.000000 0.5346 0.5410 0.5467 0.5519 0.5560
1054.000000 0.5600 0.5641 0.5682 0.5731 0.5779
1049.000000 0.5814 0.5840 0.5856 0.5884 0.5881
1044.000000 0.5887 0.5893 0.5872 0.5843 0.5781
1039.000000 0.5665 0.5590 0.5515 0.5450 0.5395
1034.000000 0.5340 0.5285 0.5221 0.5140 0.5059
1029.000000 0.4978 0.4900 0.4821 0.4562 0.4260
1024.000000 0.4230 0.4217 0.4209 0.4212 0.4222
1019.000000 0.4255 0.4338 0.4460 0.4577 0.4694
1014.000000 0.4810 0.4928 0.5045 0.5162 0.5279
1009.000000 0.5397 0.5514 0.5595 0.5652 0.5694
1004.000000 0.5717 0.5739 0.5749 0.5759 0.5766
999.000000 0.5766 0.5760 0.5748 0.5734 0.5712
994.000000 0.5693 0.5683 0.5674 0.5664 0.5657
989.000000 0.5654 0.5651 0.5668 0.5705 0.5749
984.000000 0.5805 0.5858 0.5902 0.5946 0.5989
979.000000 0.6033 0.6082 0.6133 0.6172 0.6199
974.000000 0.6226 0.6232 0.6235 0.6235 0.6235
969.000000 0.6235 0.6236 0.6238 0.6240 0.6246
964.000000 0.6260 0.6310 0.6404 0.6487 0.6551
959.000000 0.6615 0.6681 0.6744 0.6808 0.6871
954.000000 0.6912 0.6937 0.6961 0.6987 0.7011
949.000000 0.7032 0.7051 0.7071 0.7092 0.7101
944.000000 0.7111 0.7150 0.7118 0.7118 0.7119
939.000000 0.7119 0.7119 0.7119 0.7118 0.7117
934.000000 0.7115 0.7114 0.7112 0.7111 0.7110
929.000000 0.7106 0.7099 0.7093 0.7086 0.7078
924.000000 0.7054 0.7031 0.6993 0.6922 0.6851
919.000000 0.6760 0.6703 0.6683 0.6675 0.6669
914.000000 0.6671 0.6686 0.6711 0.6736 0.6761
909.000000 0.6787 0.6812 0.6839 0.6861 0.6878
904.000000 0.6897 0.6915 0.6933 0.6945 0.6955
899.000000 0.6964 0.6974 0.6984 0.6994 0.7004
894.000000 0.7014 0.7021 0.7026 0.7032 0.7037
889.000000 0.7043 0.7048 0.7053 0.7058 0.7062
884.000000 0.7068 0.7072 0.7078 0.7084 0.7089
879.000000 0.7094 0.7099 0.7105 0.7110 0.7115
874.000000 0.7121 0.7128 0.7135 0.7142 0.7149
869.000000 0.7156 0.7161 0.7168 0.7175 0.7185
864.000000 0.7196 0.7206 0.7215 0.7225 0.7236
859.000000 0.7254 0.7275 0.7296 0.7318 0.7339
854.000000 0.7365 0.7396 0.7425 0.7456 0.7486
849.000000 0.7515 0.7533 0.7550 0.7568 0.7586
844.000000 0.7604 0.7621 0.7636 0.7651 0.7667
839.000000 0.7678 0.7675 0.7674 0.7669 0.7665
834.000000 0.7661 0.7657 0.7653 0.7649 0.7650
829.000000 0.7651 0.7654 0.7656 0.7658 0.7661
824.000000 0.7668 0.7681 0.7694 0.7707 0.7730
819.000000 0.7755 0.7778 0.7804 0.7825 0.7845
814.000000 0.7865 0.7885 0.7905 0.7925 0.7945
809.000000 0.7965 0.7983 0.8000 0.8017 0.8034
804.000000 0.8051 0.8068 0.8085 0.8101 0.8114
799.000000 0.8128 0.8141 0.8155 0.8168 0.8182
794.000000 0.8195 0.8206 0.8213 0.8221 0.8228
789.000000 0.8236 0.8244 0.8252 0.8259 0.8264
784.000000 0.8268 0.8271 0.8277 0.8285 0.8271
779.000000 0.8267 0.8263 0.8259 0.8244 0.8228
774.000000 0.8214 0.8200 0.8185 0.8175 0.8168
769.000000 0.8161 0.8155 0.8149 0.8142 0.8135
764.000000 0.8128 0.8121 0.8112 0.8105 0.8097
759.000000 0.8090 0.8082 0.8074 0.8065 0.8058
754.000000 0.8050 0.8042 0.8034 0.8015 0.7997
749.000000 0.7978 0.7961 0.7942 0.7917 0.7888
744.000000 0.7860 0.7831 0.7799 0.7753 0.7707
739.000000 0.7661 0.7615 0.7568 0.7518 0.7467
734.000000 0.7404 0.7337 0.7269 0.7208 0.7147
729.000000 0.7056 0.6951 0.6847 0.6743 0.6638
724.000000 0.6534 0.6430 0.6333 0.6326 0.6319
719.000000 0.6340 0.6372 0.6490 0.6653 0.6815
714.000000 0.6931 0.6993 0.7055 0.7111 0.7168
709.000000 0.7224 0.7281 0.7317 0.7351 0.7388
704.000000 0.7424 0.7442 0.7460 0.7478 0.7496
699.000000 0.7514 0.7531 0.7548 0.7564 0.7581
694.000000 0.7597 0.7614 0.7630 0.7647 0.7662
689.000000 0.7678 0.7695 0.7711 0.7726 0.7743
684.000000 0.7764 0.7786 0.7808 0.7830 0.7851
679.000000 0.7875 0.7898 0.7921 0.7939 0.7956
674.000000 0.7972 0.7988 0.8001 0.8042 0.8087
669.000000 0.8132 0.8175 0.8221 0.8266 0.8310
664.000000 0.8318 0.8305 0.8292 0.8275 0.8282
659.000000 0.8288 0.8293 0.8299 0.8301 0.8289
654.000000 0.8278 0.8266 0.8254 0.8255 0.8258
649.000000 0.8261 0.8263 0.8266 0.8268 0.8273
644.000000 0.8278 0.8285 0.8291 0.8296 0.8302
639.000000 0.8308 0.8314 0.8318 0.8325 0.8330
634.000000 0.8335 0.8341 0.8346 0.8351 0.8352
629.000000 0.8352 0.8352 0.8347 0.8342 0.8337
624.000000 0.8333 0.8328 0.8320 0.8313 0.8305
619.000000 0.8297 0.8290 0.8282 0.8274 0.8267
614.000000 0.8259 0.8251 0.8247 0.8243 0.8239
609.000000 0.8235 0.8231 0.8228 0.8224 0.8220
604.000000 0.8216 0.8212 0.8208 0.8205 0.8201
599.000000 0.8197 0.8193 0.8191 0.8188 0.8186
594.000000 0.8183 0.8181 0.8178 0.8175 0.8172
589.000000 0.8171 0.8168 0.8167 0.8165 0.8165
584.000000 0.8165 0.8165 0.8164 0.8164 0.8162
579.000000 0.8162 0.8161 0.8165 0.8171 0.8178
574.000000 0.8185 0.8191 0.8198 0.8205 0.8212
569.000000 0.8218 0.8227 0.8234 0.8241 0.8249
564.000000 0.8256 0.8264 0.8271 0.8278 0.8286
559.000000 0.8293 0.8299 0.8306 0.8312 0.8318
554.000000 0.8325 0.8332 0.8338 0.8344 0.8347
549.000000 0.8350 0.8354 0.8357 0.8360 0.8363
544.000000 0.8367 0.8367 0.8367 0.8364 0.8361
539.000000 0.8357 0.8353 0.8342 0.8331 0.8321
534.000000 0.8310 0.8300 0.8293 0.8287 0.8280
529.000000 0.8275 0.8273 0.8270 0.8266 0.8263
524.000000 0.8260 0.8257 0.8256 0.8256 0.8256
519.000000 0.8255 0.8255 0.8255 0.8255 0.8255
514.000000 0.8256 0.8257 0.8258 0.8260 0.8261
509.000000 0.8262 0.8263 0.8264 0.8266 0.8267
504.000000 0.8268 0.8268 0.8270 0.8264 0.8257
499.000000 0.8251 0.8241 0.8217 0.8187 0.8144
494.000000 0.8093 0.8040 0.7997 0.7975 0.7960
489.000000 0.7971 0.7981 0.7991 0.7996 0.7999
484.000000 0.8001 0.8005 0.8008 0.8008 0.8007
479.000000 0.8004 0.8001 0.7998 0.7996 0.7992
474.000000 0.7989 0.7985 0.7982 0.7978 0.7975
469.000000 0.7971 0.7968 0.7968 0.7968 0.7969
464.000000 0.7971 0.7974 0.7975 0.7978 0.7981
459.000000 0.7987 0.7992 0.7997 0.8001 0.8007
454.000000 0.8011 0.8017 0.8021 0.8028 0.8033
449.000000 0.8038 0.8042 0.8044 0.8047 0.8049
444.000000 0.8051 0.8054 0.8057 0.8060 0.8075
439.000000 0.8065 0.8067 0.8069 0.8071 0.8075
434.000000 0.8076 0.8080 0.8083 0.8084 0.8085
429.000000 0.8086 0.8087 0.8088 0.8089 0.8090
424.000000 0.8091 0.8092 0.8093 0.8094 0.8095
419.000000 0.8096 0.8097 0.8098 0.8099 0.8100
414.000000 0.8101 0.8101 0.8103 0.8104 0.8104
409.000000 0.8106 0.8108 0.8111 0.8115 0.8118
404.000000 0.8121 0.8124 0.8126 0.8130 0.8133
399.000000 0.8137 0.8140 0.8143 0.8146 0.8150
394.000000 0.8149 0.8149
##END=
