##TITLE=Urea, 1-(2',4'-di-tert-butylphenyl)-3,3-diethyl-
##JCAMP-DX=4.24
##DATA TYPE=INFRARED SPECTRUM
##CLASS=COBLENTZ III
##ORIGIN=MONSANTO (J. FREEMAN)
##OWNER=Copyright (C) 1987 by the Coblentz Society
Collection (C) 2018 copyright by the U.S. Secretary of Commerce
on behalf of the United States of America. All rights reserved.
##DATE=1959/03/31
##NAMES=N'-(2,4-ditert-butylphenyl)-N,N-diethylurea
Urea, 1-(2,4-di-tert-butylphenyl)-1,1-diethyl-
##MOLFORM=C19 H32 N2 O
##MP=205 C
##SOURCE REFERENCE=COBLENTZ NO. 9302
##$NIST ID=B6009302
##$NIST SOURCE=COBLENTZ
##$NIST IMAGE=cob9302
##SPECTROMETER/DATA SYSTEM=BECKMAN IR-4 (HYBRID PRISM-GRATING)
##INSTRUMENT PARAMETERS=NaCl PRISM
##STATE=SOLID (NUJOL MULL)
$$SPECTRAL CONTAMINATION DUE TO OIL AROUND 2900, 1450, 720 CM^-^1
##SAMPLING PROCEDURE=TRANSMISSION
##RESOLUTION=2
##DATA PROCESSING=DIGITIZED BY COBLENTZ SOCIETY (BATCH II) FROM HARD COPY
##XUNITS=1/CM
##YUNITS=TRANSMITTANCE
##XFACTOR=1.0
##YFACTOR=1
##FIRSTX=626
##LASTX=4000
##FIRSTY=0.8577
##MAXX=4000
##MINX=626
##MAXY=0.994
##MINY=0.0009
##NPOINTS=3375
##XYDATA=(X++(Y..Y))
626.000000 0.8577 0.8658 0.8737 0.8794 0.8843
631.000000 0.8893 0.8935 0.8973 0.9010 0.9060
636.000000 0.9105 0.9138 0.9168 0.9185 0.9202
641.000000 0.9222 0.9243 0.9277 0.9346 0.9404
646.000000 0.9433 0.9479 0.9458 0.9425 0.9359
651.000000 0.9285 0.9204 0.9153 0.9133 0.9211
656.000000 0.9273 0.9346 0.9431 0.9516 0.9587
661.000000 0.9657 0.9716 0.9774 0.9828 0.9872
666.000000 0.9886 0.9900 0.9907 0.9930 0.9901
671.000000 0.9896 0.9881 0.9867 0.9848 0.9817
676.000000 0.9776 0.9725 0.9684 0.9655 0.9666
681.000000 0.9687 0.9720 0.9764 0.9819 0.9861
686.000000 0.9895 0.9918 0.9932 0.9939 0.9940
691.000000 0.9939 0.9931 0.9923 0.9916 0.9911
696.000000 0.9905 0.9900 0.9885 0.9866 0.9847
701.000000 0.9823 0.9791 0.9760 0.9727 0.9696
706.000000 0.9659 0.9619 0.9579 0.9532 0.9487
711.000000 0.9439 0.9365 0.9286 0.9196 0.9106
716.000000 0.9013 0.8909 0.8806 0.8663 0.8559
721.000000 0.8503 0.8483 0.8478 0.8486 0.8502
726.000000 0.8531 0.8570 0.8613 0.8659 0.8705
731.000000 0.8668 0.8593 0.8533 0.8478 0.8482
736.000000 0.8529 0.8590 0.8662 0.8742 0.8830
741.000000 0.8900 0.8967 0.8927 0.8886 0.8820
746.000000 0.8736 0.8767 0.8827 0.9006 0.9126
751.000000 0.9163 0.9184 0.9154 0.9105 0.8995
756.000000 0.8589 0.8166 0.7745 0.7300 0.7208
761.000000 0.7544 0.7970 0.8396 0.8788 0.9036
766.000000 0.9155 0.9203 0.9230 0.9243 0.9247
771.000000 0.9260 0.9248 0.9237 0.9211 0.9178
776.000000 0.8992 0.8758 0.8523 0.8300 0.8194
781.000000 0.8164 0.8348 0.8515 0.8682 0.8847
786.000000 0.9013 0.9122 0.9138 0.9134 0.9123
791.000000 0.9062 0.9018 0.9030 0.9084 0.9168
796.000000 0.9290 0.9391 0.9429 0.9443 0.9440
801.000000 0.9410 0.9414 0.9392 0.9348 0.9285
806.000000 0.9201 0.9075 0.8721 0.8069 0.7394
811.000000 0.6720 0.6048 0.5116 0.5108 0.5427
816.000000 0.5591 0.5768 0.6229 0.6713 0.7196
821.000000 0.7661 0.8041 0.8463 0.8775 0.9064
826.000000 0.9199 0.9274 0.9333 0.9378 0.9413
831.000000 0.9438 0.9457 0.9461 0.9466 0.9470
836.000000 0.9474 0.9480 0.9487 0.9494 0.9500
841.000000 0.9503 0.9504 0.9506 0.9506 0.9504
846.000000 0.9503 0.9512 0.9503 0.9506 0.9508
851.000000 0.9510 0.9513 0.9518 0.9522 0.9526
856.000000 0.9530 0.9532 0.9531 0.9530 0.9528
861.000000 0.9527 0.9526 0.9524 0.9521 0.9518
866.000000 0.9514 0.9511 0.9508 0.9504 0.9499
871.000000 0.9494 0.9488 0.9483 0.9473 0.9460
876.000000 0.9444 0.9417 0.9390 0.9357 0.9311
881.000000 0.9253 0.9123 0.8950 0.8741 0.8256
886.000000 0.7755 0.7427 0.7416 0.7696 0.8088
891.000000 0.8479 0.8859 0.9006 0.9134 0.9183
896.000000 0.9207 0.9221 0.9232 0.9237 0.9239
901.000000 0.9244 0.9235 0.9226 0.9206 0.9177
906.000000 0.9147 0.9097 0.9010 0.8899 0.8770
911.000000 0.8616 0.8410 0.8414 0.8434 0.8514
916.000000 0.8651 0.8760 0.8806 0.8816 0.8832
921.000000 0.8802 0.8784 0.8761 0.8733 0.8696
926.000000 0.8654 0.8611 0.8596 0.8598 0.8590
931.000000 0.8451 0.8286 0.8122 0.7958 0.7795
936.000000 0.7741 0.7778 0.7942 0.8106 0.8269
941.000000 0.8434 0.8579 0.8710 0.8816 0.8861
946.000000 0.8894 0.8919 0.8936 0.8950 0.8958
951.000000 0.8963 0.8968 0.8974 0.8982 0.8982
956.000000 0.8981 0.8979 0.8976 0.8969 0.8962
961.000000 0.8951 0.8934 0.8917 0.8898 0.8869
966.000000 0.8832 0.8751 0.8670 0.8575 0.8477
971.000000 0.8379 0.8267 0.8143 0.7979 0.7730
976.000000 0.7713 0.7749 0.7970 0.8140 0.8310
981.000000 0.8468 0.8564 0.8633 0.8704 0.8761
986.000000 0.8811 0.8847 0.8882 0.8915 0.8938
991.000000 0.8961 0.8984 0.9005 0.9020 0.9035
996.000000 0.9051 0.9062 0.9074 0.9085 0.9095
1001.000000 0.9100 0.9105 0.9111 0.9116 0.9121
1006.000000 0.9121 0.9086 0.9122 0.9123 0.9120
1011.000000 0.9115 0.9109 0.9104 0.9098 0.9093
1016.000000 0.9086 0.9080 0.9074 0.9068 0.9065
1021.000000 0.9062 0.9058 0.9052 0.9046 0.9041
1026.000000 0.9034 0.9028 0.9013 0.8999 0.8985
1031.000000 0.8970 0.8954 0.8938 0.8922 0.8906
1036.000000 0.8886 0.8860 0.8833 0.8797 0.8760
1041.000000 0.8708 0.8593 0.8456 0.8311 0.8131
1046.000000 0.7898 0.7493 0.7302 0.7162 0.7136
1051.000000 0.7154 0.7173 0.7247 0.7436 0.7630
1056.000000 0.7824 0.8017 0.8210 0.8342 0.8367
1061.000000 0.8373 0.8382 0.8379 0.8375 0.8358
1066.000000 0.8242 0.8093 0.7945 0.7796 0.7648
1071.000000 0.7500 0.7352 0.7187 0.7071 0.7012
1076.000000 0.6944 0.6819 0.6373 0.6256 0.6300
1081.000000 0.6588 0.6896 0.7205 0.7512 0.7818
1086.000000 0.8024 0.7975 0.8014 0.7854 0.7678
1091.000000 0.7503 0.7328 0.7153 0.6978 0.6804
1096.000000 0.6630 0.6457 0.6282 0.6155 0.6132
1101.000000 0.6146 0.6676 0.7053 0.7428 0.7803
1106.000000 0.8059 0.8112 0.8132 0.8146 0.8150
1111.000000 0.8146 0.8103 0.8093 0.8032 0.7949
1116.000000 0.7860 0.7635 0.7339 0.7043 0.6748
1121.000000 0.6453 0.6160 0.6024 0.6006 0.6619
1126.000000 0.7233 0.7845 0.8074 0.8179 0.8261
1131.000000 0.8303 0.8325 0.8342 0.8347 0.8356
1136.000000 0.8351 0.8348 0.8336 0.8320 0.8290
1141.000000 0.8249 0.8206 0.8138 0.8051 0.7972
1146.000000 0.7902 0.7829 0.7741 0.7660 0.7587
1151.000000 0.7528 0.7518 0.7524 0.7547 0.7579
1156.000000 0.7595 0.7607 0.7609 0.7609 0.7599
1161.000000 0.7584 0.7549 0.7491 0.7394 0.7160
1166.000000 0.6845 0.6529 0.6215 0.5901 0.5587
1171.000000 0.5274 0.4962 0.4650 0.4595 0.4603
1176.000000 0.4585 0.5617 0.6358 0.7001 0.7344
1181.000000 0.7485 0.7635 0.7803 0.7919 0.8023
1186.000000 0.8094 0.8150 0.8167 0.8180 0.8193
1191.000000 0.8270 0.8198 0.8190 0.8163 0.8082
1196.000000 0.7979 0.7904 0.7829 0.7744 0.7656
1201.000000 0.7553 0.7450 0.7388 0.7383 0.7333
1206.000000 0.7438 0.7561 0.7672 0.7760 0.7818
1211.000000 0.7851 0.7861 0.7867 0.7887 0.7859
1216.000000 0.7843 0.7813 0.7746 0.7631 0.7501
1221.000000 0.7131 0.6736 0.6341 0.6250 0.6248
1226.000000 0.6247 0.6311 0.6489 0.6674 0.6858
1231.000000 0.7042 0.7215 0.7255 0.7248 0.7248
1236.000000 0.7237 0.7176 0.6987 0.6796 0.6605
1241.000000 0.6415 0.6225 0.6035 0.5845 0.5656
1246.000000 0.5468 0.5286 0.5230 0.5221 0.5299
1251.000000 0.5466 0.5633 0.5800 0.5966 0.6032
1256.000000 0.6027 0.6020 0.6010 0.6080 0.5971
1261.000000 0.5906 0.5753 0.5572 0.5379 0.5179
1266.000000 0.4962 0.4640 0.4319 0.3997 0.3676
1271.000000 0.3356 0.3036 0.2718 0.2325 0.2084
1276.000000 0.1991 0.1951 0.1924 0.1912 0.2134
1281.000000 0.2488 0.2842 0.3195 0.3548 0.3901
1286.000000 0.4253 0.4604 0.4954 0.5304 0.5654
1291.000000 0.6003 0.6251 0.6520 0.6627 0.6649
1296.000000 0.6659 0.6665 0.6699 0.6648 0.6618
1301.000000 0.6572 0.6504 0.6434 0.6361 0.6280
1306.000000 0.6162 0.6030 0.5899 0.5773 0.5727
1311.000000 0.5701 0.5775 0.5924 0.6088 0.6251
1316.000000 0.6414 0.6577 0.6740 0.6891 0.7036
1321.000000 0.7219 0.7408 0.7498 0.7581 0.7642
1326.000000 0.7699 0.7744 0.7765 0.7785 0.7806
1331.000000 0.7823 0.7831 0.7838 0.7873 0.7836
1336.000000 0.7829 0.7821 0.7807 0.7789 0.7772
1341.000000 0.7746 0.7688 0.7623 0.7553 0.7471
1346.000000 0.7305 0.7047 0.6946 0.6883 0.6852
1351.000000 0.6851 0.6875 0.6941 0.7011 0.7076
1356.000000 0.7067 0.7054 0.6946 0.6644 0.6342
1361.000000 0.6040 0.5739 0.5439 0.5138 0.4838
1366.000000 0.4539 0.4241 0.3942 0.3644 0.3470
1371.000000 0.3483 0.3667 0.3936 0.4204 0.4473
1376.000000 0.4592 0.4597 0.4464 0.4197 0.3922
1381.000000 0.3648 0.3374 0.3100 0.2826 0.2554
1386.000000 0.2564 0.2704 0.2544 0.3187 0.3428
1391.000000 0.3669 0.3911 0.3933 0.3955 0.3978
1396.000000 0.4002 0.4025 0.4048 0.4075 0.4124
1401.000000 0.4281 0.4474 0.4667 0.4859 0.5052
1406.000000 0.5155 0.5202 0.5242 0.5278 0.5308
1411.000000 0.5345 0.5390 0.5892 0.6293 0.6448
1416.000000 0.6598 0.6804 0.6939 0.7054 0.7167
1421.000000 0.7223 0.7252 0.7268 0.7278 0.7281
1426.000000 0.7259 0.7278 0.7270 0.7255 0.7232
1431.000000 0.7207 0.7155 0.6998 0.6814 0.6631
1436.000000 0.6449 0.6266 0.6083 0.5900 0.5718
1441.000000 0.5536 0.5356 0.5174 0.4993 0.4812
1446.000000 0.4632 0.4452 0.4272 0.4092 0.3912
1451.000000 0.3733 0.3555 0.3376 0.3197 0.3019
1456.000000 0.2840 0.2664 0.2486 0.2313 0.2061
1461.000000 0.1834 0.1684 0.1578 0.1494 0.1410
1466.000000 0.1325 0.1237 0.1191 0.1160 0.1164
1471.000000 0.1171 0.1182 0.1197 0.1225 0.1263
1476.000000 0.1324 0.1401 0.1502 0.1605 0.1730
1481.000000 0.1792 0.1837 0.1858 0.1858 0.1853
1486.000000 0.1837 0.1814 0.1789 0.1752 0.1717
1491.000000 0.1686 0.1655 0.1626 0.1599 0.1575
1496.000000 0.1543 0.1503 0.1463 0.1414 0.1335
1501.000000 0.1274 0.1217 0.1161 0.1107 0.1051
1506.000000 0.0997 0.0942 0.0880 0.0818 0.0767
1511.000000 0.0735 0.0711 0.0696 0.0689 0.0688
1516.000000 0.0689 0.0707 0.0720 0.0740 0.0767
1521.000000 0.0821 0.0912 0.1008 0.1099 0.1281
1526.000000 0.1456 0.1582 0.1663 0.1736 0.1856
1531.000000 0.2058 0.2850 0.3187 0.3422 0.3642
1536.000000 0.3860 0.4078 0.4296 0.4514 0.4732
1541.000000 0.4949 0.5166 0.5382 0.5598 0.5998
1546.000000 0.6197 0.6305 0.6409 0.6512 0.6619
1551.000000 0.6752 0.6892 0.7077 0.7310 0.7513
1556.000000 0.7634 0.7706 0.7777 0.7836 0.7869
1561.000000 0.7894 0.7920 0.7945 0.7958 0.7961
1566.000000 0.7964 0.7967 0.7968 0.7968 0.7970
1571.000000 0.7974 0.7978 0.7982 0.7989 0.8016
1576.000000 0.8053 0.8122 0.8195 0.8256 0.8314
1581.000000 0.8356 0.8387 0.8416 0.8429 0.8432
1586.000000 0.8435 0.8435 0.8434 0.8476 0.8421
1591.000000 0.8397 0.8347 0.8284 0.8219 0.8161
1596.000000 0.8105 0.8050 0.7979 0.7872 0.7744
1601.000000 0.7617 0.7489 0.7362 0.7235 0.7107
1606.000000 0.6980 0.6853 0.6727 0.6600 0.6474
1611.000000 0.6347 0.6221 0.6098 0.6009 0.6008
1616.000000 0.6015 0.6143 0.6277 0.6412 0.6546
1621.000000 0.6674 0.6709 0.6713 0.6709 0.6561
1626.000000 0.6283 0.5988 0.5693 0.5398 0.5104
1631.000000 0.4809 0.4516 0.4223 0.3930 0.3638
1636.000000 0.3345 0.3053 0.2762 0.2471 0.2180
1641.000000 0.1889 0.1599 0.1309 0.1073 0.0971
1646.000000 0.0968 0.0964 0.0984 0.1240 0.1527
1651.000000 0.1817 0.2106 0.2395 0.2684 0.2972
1656.000000 0.3259 0.3547 0.3834 0.4121 0.4408
1661.000000 0.4694 0.4980 0.5265 0.5550 0.5835
1666.000000 0.6119 0.6403 0.6687 0.6970 0.7254
1671.000000 0.7537 0.7684 0.7788 0.7883 0.7976
1676.000000 0.8062 0.8144 0.8236 0.8340 0.8426
1681.000000 0.8486 0.8542 0.8598 0.8654 0.8707
1686.000000 0.8754 0.8802 0.8850 0.8898 0.8941
1691.000000 0.8976 0.9008 0.9040 0.9072 0.9103
1696.000000 0.9134 0.9159 0.9179 0.9197 0.9215
1701.000000 0.9233 0.9251 0.9270 0.9283 0.9293
1706.000000 0.9303 0.9312 0.9322 0.9331 0.9340
1711.000000 0.9349 0.9358 0.9366 0.9374 0.9382
1716.000000 0.9390 0.9397 0.9405 0.9412 0.9420
1721.000000 0.9428 0.9437 0.9446 0.9455 0.9464
1726.000000 0.9473 0.9482 0.9491 0.9499 0.9509
1731.000000 0.9516 0.9524 0.9531 0.9539 0.9546
1736.000000 0.9553 0.9560 0.9566 0.9571 0.9575
1741.000000 0.9579 0.9583 0.9586 0.9590 0.9594
1746.000000 0.9622 0.9601 0.9603 0.9603 0.9602
1751.000000 0.9602 0.9601 0.9601 0.9600 0.9599
1756.000000 0.9598 0.9597 0.9593 0.9590 0.9586
1761.000000 0.9583 0.9579 0.9576 0.9572 0.9568
1766.000000 0.9565 0.9561 0.9557 0.9553 0.9549
1771.000000 0.9545 0.9541 0.9537 0.9533 0.9530
1776.000000 0.9528 0.9527 0.9527 0.9526 0.9525
1781.000000 0.9524 0.9523 0.9523 0.9524 0.9527
1786.000000 0.9530 0.9533 0.9536 0.9538 0.9541
1791.000000 0.9544 0.9546 0.9549 0.9552 0.9554
1796.000000 0.9558 0.9560 0.9561 0.9562 0.9563
1801.000000 0.9564 0.9565 0.9566 0.9567 0.9567
1806.000000 0.9569 0.9570 0.9571 0.9572 0.9572
1811.000000 0.9573 0.9573 0.9573 0.9573 0.9573
1816.000000 0.9572 0.9572 0.9572 0.9572 0.9572
1821.000000 0.9571 0.9571 0.9570 0.9569 0.9568
1826.000000 0.9567 0.9566 0.9565 0.9564 0.9563
1831.000000 0.9562 0.9561 0.9559 0.9559 0.9558
1836.000000 0.9557 0.9555 0.9555 0.9553 0.9552
1841.000000 0.9551 0.9550 0.9548 0.9547 0.9546
1846.000000 0.9544 0.9543 0.9541 0.9540 0.9538
1851.000000 0.9537 0.9535 0.9534 0.9532 0.9531
1856.000000 0.9529 0.9528 0.9527 0.9525 0.9524
1861.000000 0.9522 0.9521 0.9519 0.9518 0.9516
1866.000000 0.9515 0.9515 0.9513 0.9512 0.9510
1871.000000 0.9509 0.9508 0.9507 0.9506 0.9504
1876.000000 0.9503 0.9501 0.9501 0.9499 0.9498
1881.000000 0.9497 0.9496 0.9495 0.9493 0.9492
1886.000000 0.9491 0.9489 0.9488 0.9486 0.9485
1891.000000 0.9484 0.9482 0.9481 0.9479 0.9478
1896.000000 0.9477 0.9475 0.9474 0.9472 0.9471
1901.000000 0.9469 0.9467 0.9466 0.9465 0.9463
1906.000000 0.9464 0.9466 0.9469 0.9472 0.9475
1911.000000 0.9478 0.9481 0.9484 0.9489 0.9493
1916.000000 0.9497 0.9501 0.9504 0.9508 0.9512
1921.000000 0.9516 0.9520 0.9524 0.9528 0.9531
1926.000000 0.9535 0.9539 0.9542 0.9544 0.9544
1931.000000 0.9543 0.9542 0.9542 0.9541 0.9541
1936.000000 0.9541 0.9540 0.9539 0.9539 0.9538
1941.000000 0.9538 0.9538 0.9537 0.9537 0.9536
1946.000000 0.9535 0.9535 0.9534 0.9533 0.9533
1951.000000 0.9532 0.9531 0.9531 0.9530 0.9529
1956.000000 0.9529 0.9528 0.9527 0.9527 0.9526
1961.000000 0.9525 0.9525 0.9524 0.9523 0.9523
1966.000000 0.9522 0.9521 0.9521 0.9520 0.9520
1971.000000 0.9518 0.9517 0.9517 0.9517 0.9516
1976.000000 0.9516 0.9516 0.9515 0.9515 0.9514
1981.000000 0.9514 0.9514 0.9513 0.9513 0.9512
1986.000000 0.9512 0.9512 0.9511 0.9511 0.9511
1991.000000 0.9510 0.9510 0.9509 0.9509 0.9509
1996.000000 0.9508 0.9507 0.9507 0.9507 0.9507
2001.000000 0.9506 0.9506 0.9506 0.9505 0.9504
2006.000000 0.9504 0.9504 0.9504 0.9503 0.9502
2011.000000 0.9502 0.9502 0.9501 0.9501 0.9501
2016.000000 0.9501 0.9500 0.9499 0.9499 0.9499
2021.000000 0.9499 0.9498 0.9497 0.9497 0.9496
2026.000000 0.9496 0.9496 0.9495 0.9495 0.9494
2031.000000 0.9494 0.9494 0.9493 0.9493 0.9492
2036.000000 0.9492 0.9492 0.9491 0.9491 0.9490
2041.000000 0.9490 0.9490 0.9489 0.9489 0.9488
2046.000000 0.9487 0.9487 0.9487 0.9487 0.9486
2051.000000 0.9485 0.9485 0.9485 0.9485 0.9484
2056.000000 0.9483 0.9483 0.9483 0.9483 0.9482
2061.000000 0.9482 0.9481 0.9481 0.9481 0.9480
2066.000000 0.9480 0.9479 0.9479 0.9479 0.9478
2071.000000 0.9478 0.9477 0.9477 0.9477 0.9477
2076.000000 0.9477 0.9476 0.9476 0.9476 0.9476
2081.000000 0.9476 0.9475 0.9475 0.9475 0.9475
2086.000000 0.9474 0.9474 0.9474 0.9474 0.9474
2091.000000 0.9473 0.9473 0.9473 0.9473 0.9473
2096.000000 0.9472 0.9472 0.9472 0.9472 0.9471
2101.000000 0.9471 0.9471 0.9471 0.9471 0.9470
2106.000000 0.9470 0.9470 0.9470 0.9470 0.9469
2111.000000 0.9469 0.9469 0.9469 0.9469 0.9469
2116.000000 0.9468 0.9468 0.9468 0.9467 0.9467
2121.000000 0.9466 0.9466 0.9465 0.9465 0.9464
2126.000000 0.9463 0.9463 0.9462 0.9462 0.9461
2131.000000 0.9461 0.9461 0.9461 0.9460 0.9459
2136.000000 0.9459 0.9458 0.9458 0.9457 0.9457
2141.000000 0.9456 0.9456 0.9455 0.9455 0.9454
2146.000000 0.9453 0.9453 0.9452 0.9452 0.9452
2151.000000 0.9452 0.9451 0.9451 0.9450 0.9450
2156.000000 0.9449 0.9449 0.9448 0.9447 0.9447
2161.000000 0.9446 0.9446 0.9445 0.9445 0.9444
2166.000000 0.9444 0.9443 0.9443 0.9442 0.9441
2171.000000 0.9440 0.9439 0.9437 0.9436 0.9435
2176.000000 0.9434 0.9433 0.9431 0.9430 0.9429
2181.000000 0.9428 0.9427 0.9426 0.9425 0.9424
2186.000000 0.9422 0.9421 0.9420 0.9419 0.9418
2191.000000 0.9417 0.9416 0.9414 0.9413 0.9412
2196.000000 0.9411 0.9409 0.9408 0.9407 0.9406
2201.000000 0.9405 0.9404 0.9403 0.9402 0.9401
2206.000000 0.9400 0.9399 0.9397 0.9396 0.9395
2211.000000 0.9394 0.9393 0.9392 0.9391 0.9390
2216.000000 0.9389 0.9387 0.9386 0.9385 0.9384
2221.000000 0.9383 0.9382 0.9381 0.9380 0.9379
2226.000000 0.9378 0.9376 0.9375 0.9374 0.9373
2231.000000 0.9372 0.9371 0.9370 0.9369 0.9368
2236.000000 0.9367 0.9366 0.9365 0.9363 0.9362
2241.000000 0.9361 0.9360 0.9359 0.9358 0.9356
2246.000000 0.9355 0.9354 0.9353 0.9352 0.9351
2251.000000 0.9349 0.9348 0.9347 0.9346 0.9344
2256.000000 0.9343 0.9342 0.9341 0.9340 0.9339
2261.000000 0.9338 0.9336 0.9335 0.9334 0.9333
2266.000000 0.9331 0.9330 0.9329 0.9328 0.9327
2271.000000 0.9326 0.9325 0.9323 0.9322 0.9321
2276.000000 0.9320 0.9318 0.9317 0.9316 0.9315
2281.000000 0.9315 0.9313 0.9312 0.9311 0.9310
2286.000000 0.9308 0.9307 0.9306 0.9305 0.9304
2291.000000 0.9303 0.9302 0.9300 0.9299 0.9298
2296.000000 0.9297 0.9296 0.9294 0.9293 0.9292
2301.000000 0.9291 0.9291 0.9289 0.9288 0.9287
2306.000000 0.9287 0.9287 0.9287 0.9288 0.9289
2311.000000 0.9290 0.9290 0.9291 0.9292 0.9293
2316.000000 0.9293 0.9294 0.9294 0.9295 0.9296
2321.000000 0.9296 0.9297 0.9298 0.9299 0.9299
2326.000000 0.9300 0.9301 0.9302 0.9302 0.9303
2331.000000 0.9303 0.9303 0.9303 0.9303 0.9303
2336.000000 0.9303 0.9303 0.9303 0.9303 0.9303
2341.000000 0.9304 0.9304 0.9304 0.9304 0.9304
2346.000000 0.9304 0.9304 0.9302 0.9301 0.9299
2351.000000 0.9297 0.9295 0.9294 0.9293 0.9291
2356.000000 0.9289 0.9287 0.9285 0.9282 0.9280
2361.000000 0.9278 0.9276 0.9273 0.9271 0.9268
2366.000000 0.9266 0.9263 0.9261 0.9259 0.9257
2371.000000 0.9255 0.9252 0.9250 0.9247 0.9243
2376.000000 0.9238 0.9233 0.9227 0.9222 0.9215
2381.000000 0.9209 0.9203 0.9198 0.9192 0.9186
2386.000000 0.9180 0.9174 0.9168 0.9164 0.9159
2391.000000 0.9154 0.9149 0.9144 0.9139 0.9135
2396.000000 0.9133 0.9131 0.9131 0.9131 0.9132
2401.000000 0.9132 0.9132 0.9132 0.9132 0.9132
2406.000000 0.9132 0.9132 0.9132 0.9132 0.9132
2411.000000 0.9132 0.9132 0.9132 0.9133 0.9133
2416.000000 0.9133 0.9133 0.9133 0.9133 0.9133
2421.000000 0.9133 0.9133 0.9133 0.9133 0.9133
2426.000000 0.9133 0.9133 0.9134 0.9134 0.9134
2431.000000 0.9134 0.9133 0.9133 0.9133 0.9133
2436.000000 0.9133 0.9132 0.9132 0.9132 0.9131
2441.000000 0.9131 0.9131 0.9131 0.9130 0.9130
2446.000000 0.9130 0.9129 0.9129 0.9129 0.9129
2451.000000 0.9128 0.9128 0.9128 0.9127 0.9127
2456.000000 0.9126 0.9126 0.9125 0.9124 0.9124
2461.000000 0.9123 0.9123 0.9123 0.9122 0.9122
2466.000000 0.9121 0.9121 0.9120 0.9120 0.9119
2471.000000 0.9118 0.9118 0.9117 0.9117 0.9117
2476.000000 0.9116 0.9116 0.9115 0.9114 0.9113
2481.000000 0.9111 0.9110 0.9109 0.9108 0.9107
2486.000000 0.9105 0.9104 0.9103 0.9102 0.9101
2491.000000 0.9100 0.9099 0.9098 0.9097 0.9096
2496.000000 0.9094 0.9093 0.9092 0.9091 0.9090
2501.000000 0.9088 0.9087 0.9086 0.9085 0.9084
2506.000000 0.9082 0.9080 0.9077 0.9074 0.9072
2511.000000 0.9068 0.9065 0.9062 0.9060 0.9057
2516.000000 0.9054 0.9050 0.9047 0.9045 0.9042
2521.000000 0.9039 0.9036 0.9033 0.9029 0.9026
2526.000000 0.9023 0.9019 0.9016 0.9012 0.9009
2531.000000 0.9005 0.9002 0.8998 0.8994 0.8990
2536.000000 0.8987 0.8983 0.8980 0.8976 0.8973
2541.000000 0.8969 0.8966 0.8962 0.8959 0.8955
2546.000000 0.8952 0.8947 0.8942 0.8938 0.8933
2551.000000 0.8929 0.8924 0.8919 0.8914 0.8909
2556.000000 0.8905 0.8900 0.8895 0.8891 0.8886
2561.000000 0.8881 0.8876 0.8872 0.8867 0.8862
2566.000000 0.8858 0.8853 0.8848 0.8843 0.8839
2571.000000 0.8834 0.8830 0.8825 0.8821 0.8816
2576.000000 0.8811 0.8807 0.8802 0.8798 0.8793
2581.000000 0.8789 0.8785 0.8781 0.8776 0.8772
2586.000000 0.8767 0.8763 0.8758 0.8754 0.8750
2591.000000 0.8745 0.8741 0.8737 0.8733 0.8728
2596.000000 0.8724 0.8719 0.8715 0.8710 0.8706
2601.000000 0.8702 0.8697 0.8693 0.8689 0.8685
2606.000000 0.8680 0.8676 0.8672 0.8667 0.8663
2611.000000 0.8658 0.8654 0.8650 0.8645 0.8641
2616.000000 0.8636 0.8631 0.8627 0.8622 0.8617
2621.000000 0.8612 0.8608 0.8603 0.8598 0.8593
2626.000000 0.8589 0.8584 0.8579 0.8575 0.8570
2631.000000 0.8565 0.8561 0.8556 0.8551 0.8546
2636.000000 0.8542 0.8537 0.8532 0.8528 0.8523
2641.000000 0.8518 0.8514 0.8509 0.8504 0.8499
2646.000000 0.8494 0.8490 0.8485 0.8480 0.8475
2651.000000 0.8470 0.8465 0.8461 0.8456 0.8452
2656.000000 0.8447 0.8442 0.8437 0.8432 0.8428
2661.000000 0.8423 0.8418 0.8414 0.8409 0.8404
2666.000000 0.8399 0.8394 0.8390 0.8385 0.8381
2671.000000 0.8376 0.8371 0.8366 0.8362 0.8357
2676.000000 0.8352 0.8348 0.8343 0.8338 0.8333
2681.000000 0.8329 0.8324 0.8320 0.8315 0.8311
2686.000000 0.8306 0.8302 0.8297 0.8293 0.8289
2691.000000 0.8285 0.8280 0.8276 0.8271 0.8267
2696.000000 0.8262 0.8258 0.8254 0.8250 0.8246
2701.000000 0.8241 0.8237 0.8232 0.8228 0.8224
2706.000000 0.8221 0.8220 0.8218 0.8217 0.8216
2711.000000 0.8214 0.8213 0.8212 0.8211 0.8210
2716.000000 0.8208 0.8207 0.8206 0.8204 0.8203
2721.000000 0.8202 0.8201 0.8200 0.8198 0.8196
2726.000000 0.8194 0.8192 0.8189 0.8186 0.8184
2731.000000 0.8181 0.8178 0.8174 0.8169 0.8164
2736.000000 0.8158 0.8152 0.8147 0.8141 0.8135
2741.000000 0.8130 0.8124 0.8119 0.8114 0.8109
2746.000000 0.8104 0.8099 0.8094 0.8089 0.8085
2751.000000 0.8083 0.8082 0.8081 0.8080 0.8079
2756.000000 0.8078 0.8077 0.8076 0.8076 0.8075
2761.000000 0.8074 0.8073 0.8072 0.8071 0.8070
2766.000000 0.8069 0.8068 0.8067 0.8067 0.8067
2771.000000 0.8067 0.8067 0.8067 0.8067 0.8068
2776.000000 0.8068 0.8068 0.8068 0.8068 0.8068
2781.000000 0.8069 0.8070 0.8071 0.8072 0.8072
2786.000000 0.8073 0.8073 0.8074 0.8075 0.8076
2791.000000 0.8077 0.8078 0.8078 0.8073 0.8065
2796.000000 0.8057 0.8048 0.8037 0.8027 0.8014
2801.000000 0.7998 0.7982 0.7966 0.7949 0.7931
2806.000000 0.7913 0.7894 0.7875 0.7856 0.7836
2811.000000 0.7815 0.7795 0.7763 0.7730 0.7696
2816.000000 0.7627 0.7541 0.7455 0.7388 0.7340
2821.000000 0.7293 0.7246 0.7203 0.7159 0.7116
2826.000000 0.7075 0.7034 0.6993 0.6950 0.6908
2831.000000 0.6865 0.6821 0.6776 0.6731 0.6687
2836.000000 0.6642 0.6597 0.6552 0.6508 0.6463
2841.000000 0.6418 0.6374 0.6329 0.6285 0.6240
2846.000000 0.6196 0.6151 0.6106 0.6061 0.6016
2851.000000 0.5970 0.5923 0.5876 0.5817 0.5671
2856.000000 0.5524 0.5377 0.5179 0.4972 0.4766
2861.000000 0.4559 0.4353 0.4147 0.3940 0.3734
2866.000000 0.3529 0.3323 0.3117 0.2912 0.2707
2871.000000 0.2502 0.2297 0.2092 0.1887 0.1683
2876.000000 0.1478 0.1274 0.1070 0.0866 0.0662
2881.000000 0.0596 0.0561 0.0525 0.0501 0.0487
2886.000000 0.0474 0.0460 0.0448 0.0435 0.0422
2891.000000 0.0417 0.0413 0.0409 0.0408 0.0408
2896.000000 0.0409 0.0410 0.0411 0.0413 0.0414
2901.000000 0.0416 0.0417 0.0419 0.0421 0.0424
2906.000000 0.0428 0.0432 0.0435 0.0439 0.0442
2911.000000 0.0444 0.0444 0.0444 0.0445 0.0445
2916.000000 0.0445 0.0445 0.0443 0.0441 0.0439
2921.000000 0.0436 0.0432 0.0428 0.0424 0.0421
2926.000000 0.0417 0.0414 0.0408 0.0402 0.0395
2931.000000 0.0385 0.0361 0.0337 0.0313 0.0291
2936.000000 0.0270 0.0250 0.0228 0.0206 0.0184
2941.000000 0.0162 0.0140 0.0118 0.0097 0.0075
2946.000000 0.0054 0.0034 0.0013 0.0011 0.0011
2951.000000 0.0011 0.0010 0.0010 0.0010 0.0010
2956.000000 0.0010 0.0010 0.0010 0.0010 0.0010
2961.000000 0.0010 0.0010 0.0010 0.0010 0.0010
2966.000000 0.0010 0.0010 0.0010 0.0010 0.0010
2971.000000 0.0010 0.0010 0.0010 0.0010 0.0010
2976.000000 0.0010 0.0010 0.0010 0.0010 0.0010
2981.000000 0.0010 0.0010 0.0010 0.0010 0.0010
2986.000000 0.0010 0.0010 0.0010 0.0010 0.0010
2991.000000 0.0010 0.0010 0.0010 0.0010 0.0009
2996.000000 0.0009 0.0009 0.0049 0.0151 0.0254
3001.000000 0.0356 0.0464 0.0573 0.0682 0.0791
3006.000000 0.0900 0.1009 0.1118 0.1227 0.1335
3011.000000 0.1444 0.1552 0.1661 0.1769 0.1878
3016.000000 0.1986 0.2094 0.2202 0.2311 0.2418
3021.000000 0.2526 0.2634 0.2741 0.2849 0.2957
3026.000000 0.3064 0.3172 0.3279 0.3387 0.3494
3031.000000 0.3601 0.3708 0.3815 0.3923 0.4029
3036.000000 0.4136 0.4242 0.4349 0.4456 0.4562
3041.000000 0.4669 0.4775 0.4882 0.4988 0.5094
3046.000000 0.5200 0.5306 0.5412 0.5518 0.5624
3051.000000 0.5729 0.5835 0.5941 0.6047 0.6152
3056.000000 0.6258 0.6363 0.6468 0.6573 0.6678
3061.000000 0.6783 0.6888 0.6993 0.7097 0.7196
3066.000000 0.7295 0.7394 0.7454 0.7478 0.7502
3071.000000 0.7525 0.7548 0.7569 0.7590 0.7612
3076.000000 0.7622 0.7633 0.7643 0.7653 0.7664
3081.000000 0.7674 0.7684 0.7694 0.7705 0.7715
3086.000000 0.7725 0.7735 0.7746 0.7756 0.7766
3091.000000 0.7776 0.7787 0.7797 0.7807 0.7814
3096.000000 0.7822 0.7829 0.7836 0.7842 0.7849
3101.000000 0.7855 0.7861 0.7868 0.7874 0.7881
3106.000000 0.7887 0.7893 0.7899 0.7906 0.7912
3111.000000 0.7918 0.7924 0.7930 0.7937 0.7943
3116.000000 0.7949 0.7955 0.7961 0.7966 0.7972
3121.000000 0.7977 0.7981 0.7984 0.7988 0.7992
3126.000000 0.7995 0.7999 0.8002 0.8006 0.8009
3131.000000 0.8013 0.8017 0.8020 0.8024 0.8027
3136.000000 0.8031 0.8034 0.8038 0.8041 0.8045
3141.000000 0.8049 0.8052 0.8056 0.8059 0.8063
3146.000000 0.8066 0.8069 0.8072 0.8075 0.8077
3151.000000 0.8080 0.8083 0.8086 0.8088 0.8091
3156.000000 0.8094 0.8097 0.8099 0.8102 0.8105
3161.000000 0.8108 0.8111 0.8114 0.8117 0.8120
3166.000000 0.8122 0.8125 0.8128 0.8131 0.8133
3171.000000 0.8136 0.8139 0.8142 0.8145 0.8148
3176.000000 0.8151 0.8153 0.8156 0.8158 0.8160
3181.000000 0.8162 0.8163 0.8164 0.8166 0.8167
3186.000000 0.8168 0.8169 0.8171 0.8172 0.8173
3191.000000 0.8174 0.8175 0.8177 0.8178 0.8179
3196.000000 0.8180 0.8182 0.8183 0.8184 0.8185
3201.000000 0.8186 0.8187 0.8187 0.8187 0.8187
3206.000000 0.8185 0.8184 0.8182 0.8181 0.8179
3211.000000 0.8178 0.8176 0.8175 0.8172 0.8173
3216.000000 0.8171 0.8170 0.8168 0.8164 0.8160
3221.000000 0.8156 0.8152 0.8148 0.8143 0.8139
3226.000000 0.8134 0.8126 0.8119 0.8111 0.8103
3231.000000 0.8080 0.8057 0.8035 0.8012 0.7973
3236.000000 0.7932 0.7890 0.7849 0.7807 0.7766
3241.000000 0.7725 0.7684 0.7643 0.7601 0.7560
3246.000000 0.7519 0.7477 0.7436 0.7395 0.7354
3251.000000 0.7313 0.7272 0.7231 0.7190 0.7149
3256.000000 0.7108 0.7067 0.7027 0.6986 0.6945
3261.000000 0.6904 0.6863 0.6822 0.6782 0.6741
3266.000000 0.6701 0.6660 0.6619 0.6579 0.6538
3271.000000 0.6497 0.6457 0.6416 0.6376 0.6336
3276.000000 0.6295 0.6255 0.6214 0.6174 0.6133
3281.000000 0.6093 0.6053 0.6012 0.5972 0.5932
3286.000000 0.5892 0.5851 0.5811 0.5771 0.5731
3291.000000 0.5691 0.5651 0.5611 0.5571 0.5531
3296.000000 0.5491 0.5451 0.5412 0.5372 0.5332
3301.000000 0.5292 0.5252 0.5212 0.5172 0.5133
3306.000000 0.5093 0.5054 0.5014 0.4974 0.4934
3311.000000 0.4895 0.4855 0.4816 0.4776 0.4737
3316.000000 0.4698 0.4658 0.4619 0.4579 0.4540
3321.000000 0.4500 0.4461 0.4422 0.4383 0.4344
3326.000000 0.4304 0.4265 0.4226 0.4186 0.4147
3331.000000 0.4108 0.4069 0.4030 0.3991 0.3952
3336.000000 0.3913 0.3874 0.3835 0.3796 0.3757
3341.000000 0.3718 0.3679 0.3640 0.3602 0.3563
3346.000000 0.3524 0.3493 0.3479 0.3466 0.3453
3351.000000 0.3439 0.3436 0.3436 0.3435 0.3435
3356.000000 0.3427 0.3668 0.3848 0.4029 0.4209
3361.000000 0.4422 0.4644 0.4866 0.5089 0.5311
3366.000000 0.5532 0.5753 0.5975 0.6196 0.6417
3371.000000 0.6638 0.6859 0.7080 0.7283 0.7404
3376.000000 0.7525 0.7646 0.7767 0.7826 0.7847
3381.000000 0.7868 0.7889 0.7909 0.7928 0.7947
3386.000000 0.7966 0.7984 0.8008 0.8036 0.8064
3391.000000 0.8093 0.8121 0.8149 0.8176 0.8204
3396.000000 0.8232 0.8259 0.8285 0.8311 0.8337
3401.000000 0.8363 0.8385 0.8404 0.8423 0.8442
3406.000000 0.8461 0.8474 0.8488 0.8502 0.8516
3411.000000 0.8529 0.8543 0.8556 0.8570 0.8583
3416.000000 0.8597 0.8610 0.8623 0.8637 0.8650
3421.000000 0.8662 0.8674 0.8686 0.8699 0.8711
3426.000000 0.8723 0.8735 0.8748 0.8760 0.8771
3431.000000 0.8782 0.8792 0.8802 0.8813 0.8819
3436.000000 0.8826 0.8832 0.8838 0.8845 0.8851
3441.000000 0.8857 0.8863 0.8869 0.8875 0.8882
3446.000000 0.8888 0.8894 0.8901 0.8907 0.8913
3451.000000 0.8920 0.8926 0.8932 0.8936 0.8940
3456.000000 0.8944 0.8948 0.8952 0.8955 0.8958
3461.000000 0.8961 0.8964 0.8967 0.8970 0.8972
3466.000000 0.8975 0.8978 0.8981 0.8984 0.8987
3471.000000 0.8990 0.8993 0.8996 0.8999 0.9002
3476.000000 0.9004 0.9007 0.9010 0.9013 0.9016
3481.000000 0.9019 0.9022 0.9022 0.9023 0.9024
3486.000000 0.9025 0.9026 0.9026 0.9027 0.9028
3491.000000 0.9028 0.9029 0.9030 0.9030 0.9031
3496.000000 0.9032 0.9033 0.9034 0.9035 0.9035
3501.000000 0.9036 0.9037 0.9038 0.9039 0.9039
3506.000000 0.9040 0.9041 0.9042 0.9042 0.9043
3511.000000 0.9043 0.9044 0.9045 0.9046 0.9047
3516.000000 0.9047 0.9048 0.9049 0.9050 0.9051
3521.000000 0.9051 0.9052 0.9052 0.9052 0.9052
3526.000000 0.9052 0.9051 0.9051 0.9051 0.9051
3531.000000 0.9051 0.9051 0.9051 0.9051 0.9051
3536.000000 0.9051 0.9050 0.9050 0.9050 0.9050
3541.000000 0.9050 0.9049 0.9049 0.9049 0.9049
3546.000000 0.9049 0.9049 0.9049 0.9049 0.9049
3551.000000 0.9049 0.9048 0.9048 0.9048 0.9048
3556.000000 0.9048 0.9048 0.9048 0.9048 0.9048
3561.000000 0.9048 0.9047 0.9047 0.9047 0.9047
3566.000000 0.9047 0.9046 0.9046 0.9046 0.9046
3571.000000 0.9046 0.9045 0.9045 0.9044 0.9044
3576.000000 0.9044 0.9047 0.9043 0.9043 0.9042
3581.000000 0.9042 0.9041 0.9041 0.9041 0.9040
3586.000000 0.9040 0.9039 0.9039 0.9039 0.9039
3591.000000 0.9039 0.9038 0.9038 0.9038 0.9037
3596.000000 0.9037 0.9037 0.9036 0.9036 0.9035
3601.000000 0.9035 0.9035 0.9034 0.9034 0.9033
3606.000000 0.9033 0.9033 0.9032 0.9032 0.9032
3611.000000 0.9032 0.9032 0.9031 0.9031 0.9031
3616.000000 0.9030 0.9030 0.9029 0.9029 0.9029
3621.000000 0.9028 0.9028 0.9028 0.9027 0.9027
3626.000000 0.9026 0.9026 0.9026 0.9025 0.9025
3631.000000 0.9025 0.9025 0.9025 0.9024 0.9024
3636.000000 0.9024 0.9023 0.9023 0.9023 0.9022
3641.000000 0.9022 0.9021 0.9021 0.9021 0.9020
3646.000000 0.9020 0.9019 0.9019 0.9019 0.9018
3651.000000 0.9018 0.9018 0.9018 0.9018 0.9017
3656.000000 0.9017 0.9017 0.9016 0.9016 0.9016
3661.000000 0.9015 0.9015 0.9015 0.9014 0.9014
3666.000000 0.9013 0.9013 0.9013 0.9012 0.9012
3671.000000 0.9012 0.9011 0.9011 0.9011 0.9011
3676.000000 0.9011 0.9010 0.9010 0.9009 0.9009
3681.000000 0.9008 0.9007 0.9007 0.9006 0.9006
3686.000000 0.9005 0.9005 0.9004 0.9004 0.9004
3691.000000 0.9003 0.9003 0.9002 0.9002 0.9001
3696.000000 0.9001 0.9000 0.9000 0.8999 0.8999
3701.000000 0.8998 0.8998 0.8998 0.8997 0.8997
3706.000000 0.8996 0.8996 0.8995 0.8995 0.8994
3711.000000 0.8994 0.8993 0.8992 0.8992 0.8991
3716.000000 0.8991 0.8991 0.8990 0.8990 0.8990
3721.000000 0.8989 0.8989 0.8988 0.8987 0.8987
3726.000000 0.8986 0.8986 0.8985 0.8985 0.8984
3731.000000 0.8984 0.8983 0.8983 0.8983 0.8982
3736.000000 0.8982 0.8981 0.8981 0.8980 0.8979
3741.000000 0.8978 0.8977 0.8976 0.8975 0.8974
3746.000000 0.8973 0.8972 0.8971 0.8969 0.8968
3751.000000 0.8967 0.8966 0.8964 0.8963 0.8962
3756.000000 0.8961 0.8960 0.8959 0.8958 0.8957
3761.000000 0.8956 0.8955 0.8954 0.8953 0.8952
3766.000000 0.8950 0.8949 0.8948 0.8947 0.8945
3771.000000 0.8944 0.8943 0.8942 0.8941 0.8940
3776.000000 0.8939 0.8938 0.8937 0.8936 0.8935
3781.000000 0.8934 0.8933 0.8931 0.8930 0.8929
3786.000000 0.8928 0.8927 0.8925 0.8924 0.8923
3791.000000 0.8922 0.8921 0.8920 0.8919 0.8918
3796.000000 0.8917 0.8916 0.8915 0.8914 0.8913
3801.000000 0.8912 0.8910 0.8909 0.8908 0.8907
3806.000000 0.8906 0.8905 0.8904 0.8903 0.8902
3811.000000 0.8900 0.8899 0.8898 0.8897 0.8896
3816.000000 0.8894 0.8893 0.8892 0.8891 0.8890
3821.000000 0.8889 0.8888 0.8887 0.8886 0.8884
3826.000000 0.8883 0.8882 0.8880 0.8879 0.8877
3831.000000 0.8876 0.8874 0.8873 0.8871 0.8870
3836.000000 0.8868 0.8866 0.8865 0.8863 0.8862
3841.000000 0.8860 0.8859 0.8857 0.8856 0.8854
3846.000000 0.8853 0.8851 0.8850 0.8848 0.8847
3851.000000 0.8845 0.8844 0.8842 0.8841 0.8839
3856.000000 0.8838 0.8836 0.8835 0.8833 0.8832
3861.000000 0.8830 0.8828 0.8827 0.8825 0.8824
3866.000000 0.8822 0.8821 0.8819 0.8818 0.8816
3871.000000 0.8815 0.8813 0.8812 0.8810 0.8809
3876.000000 0.8807 0.8806 0.8804 0.8803 0.8801
3881.000000 0.8800 0.8798 0.8797 0.8795 0.8794
3886.000000 0.8793 0.8791 0.8790 0.8788 0.8787
3891.000000 0.8785 0.8784 0.8782 0.8781 0.8779
3896.000000 0.8778 0.8776 0.8775 0.8773 0.8772
3901.000000 0.8770 0.8769 0.8768 0.8766 0.8765
3906.000000 0.8764 0.8762 0.8761 0.8759 0.8758
3911.000000 0.8757 0.8755 0.8754 0.8752 0.8751
3916.000000 0.8749 0.8748 0.8746 0.8745 0.8743
3921.000000 0.8742 0.8740 0.8739 0.8737 0.8736
3926.000000 0.8735 0.8733 0.8732 0.8731 0.8730
3931.000000 0.8728 0.8727 0.8725 0.8724 0.8722
3936.000000 0.8721 0.8720 0.8718 0.8717 0.8715
3941.000000 0.8714 0.8712 0.8711 0.8709 0.8708
3946.000000 0.8706 0.8705 0.8704 0.8702 0.8701
3951.000000 0.8699 0.8698 0.8696 0.8695 0.8694
3956.000000 0.8692 0.8691 0.8690 0.8688 0.8687
3961.000000 0.8686 0.8684 0.8683 0.8682 0.8680
3966.000000 0.8679 0.8677 0.8676 0.8674 0.8673
3971.000000 0.8672 0.8670 0.8669 0.8667 0.8666
3976.000000 0.8664 0.8663 0.8662 0.8660 0.8659
3981.000000 0.8657 0.8656 0.8655 0.8654 0.8652
3986.000000 0.8651 0.8650 0.8648 0.8647 0.8646
3991.000000 0.8644 0.8643 0.8641 0.8640 0.8638
3996.000000 0.8637 0.8635 0.8634 0.8632 0.8631
##END=
