##TITLE=o-Toluenesulfonic acid, 4-nitro-, sodium salt
##JCAMP-DX=4.24
##DATA TYPE=INFRARED SPECTRUM
##CLASS=COBLENTZ III
##ORIGIN=WYANDOTTE CHEMICALS CORP.
##OWNER=Copyright (C) 1987 by the Coblentz Society
Collection (C) 2018 copyright by the U.S. Secretary of Commerce
on behalf of the United States of America. All rights reserved.
##DATE=Not specified, most likely prior to 1970
##MOLFORM=C7 H6 N Na O5 S
##SOURCE REFERENCE=COBLENTZ NO. 5907
##$NIST ID=B6005907
##$NIST SOURCE=COBLENTZ
##$NIST IMAGE=cob5907
##SPECTROMETER/DATA SYSTEM=BAIRD (GRATING)
##INSTRUMENT PARAMETERS=NaCl PRISM
##STATE=SOLID (OIL MULL)
##PATH LENGTH=
$$SPECTRAL CONTAMINATION DUE TO OIL AROUND 1470 AND 2900 CM^-^1
##RESOLUTION=2
##XUNITS=1/CM
##YUNITS=TRANSMITTANCE
##XFACTOR=1.0
##YFACTOR=1
##FIRSTX=626
##LASTX=4000
##FIRSTY=0.6755
##MAXX=4000
##MINX=626
##MAXY=0.9814
##MINY=0.0233
##NPOINTS=3375
##XYDATA=(X++(Y..Y))
626.000000 0.6755 0.6771 0.6790 0.6825 0.6909
631.000000 0.7032 0.7092 0.7103 0.7107 0.7112
636.000000 0.7092 0.7105 0.7107 0.7136 0.7209
641.000000 0.7308 0.7430 0.7539 0.7645 0.7742
646.000000 0.7839 0.7936 0.8041 0.8145 0.8230
651.000000 0.8293 0.8360 0.8447 0.8532 0.8570
656.000000 0.8594 0.8624 0.8720 0.8736 0.8731
661.000000 0.8720 0.8707 0.8684 0.8660 0.8651
666.000000 0.8691 0.8796 0.8931 0.9041 0.9082
671.000000 0.9092 0.9100 0.9102 0.9101 0.9091
676.000000 0.9084 0.9087 0.9099 0.9119 0.9143
681.000000 0.9167 0.9207 0.9238 0.9260 0.9273
686.000000 0.9286 0.9293 0.9302 0.9307 0.9305
691.000000 0.9302 0.9302 0.9284 0.9258 0.9225
696.000000 0.9158 0.9080 0.8975 0.8867 0.8765
701.000000 0.8701 0.8658 0.8810 0.8949 0.9083
706.000000 0.9107 0.9101 0.9117 0.9066 0.9030
711.000000 0.8976 0.8892 0.8769 0.8633 0.8459
716.000000 0.8275 0.8084 0.7892 0.7704 0.7538
721.000000 0.7414 0.7378 0.7368 0.7409 0.7486
726.000000 0.7617 0.7748 0.7918 0.8064 0.8127
731.000000 0.8116 0.8085 0.7961 0.7660 0.7050
736.000000 0.6325 0.6208 0.6503 0.7022 0.7542
741.000000 0.7833 0.8200 0.8536 0.8718 0.8840
746.000000 0.8998 0.9145 0.9249 0.9319 0.9372
751.000000 0.9416 0.9456 0.9492 0.9525 0.9552
756.000000 0.9578 0.9586 0.9594 0.9601 0.9604
761.000000 0.9606 0.9609 0.9610 0.9611 0.9613
766.000000 0.9614 0.9614 0.9607 0.9600 0.9597
771.000000 0.9596 0.9595 0.9594 0.9593 0.9605
776.000000 0.9626 0.9650 0.9679 0.9706 0.9732
781.000000 0.9744 0.9754 0.9749 0.9759 0.9755
786.000000 0.9751 0.9742 0.9730 0.9711 0.9670
791.000000 0.9630 0.9540 0.9435 0.9296 0.9148
796.000000 0.8979 0.8716 0.8568 0.8650 0.8859
801.000000 0.9062 0.9219 0.9331 0.9423 0.9489
806.000000 0.9554 0.9601 0.9643 0.9684 0.9716
811.000000 0.9743 0.9766 0.9783 0.9781 0.9805
816.000000 0.9810 0.9809 0.9804 0.9799 0.9785
821.000000 0.9769 0.9736 0.9681 0.9582 0.9461
826.000000 0.9252 0.8553 0.8079 0.8080 0.8422
831.000000 0.8815 0.9207 0.9513 0.9612 0.9682
836.000000 0.9731 0.9770 0.9792 0.9805 0.9814
841.000000 0.9810 0.9808 0.9806 0.9804 0.9800
846.000000 0.9797 0.9792 0.9783 0.9772 0.9762
851.000000 0.9752 0.9730 0.9732 0.9732 0.9731
856.000000 0.9732 0.9734 0.9736 0.9736 0.9730
861.000000 0.9726 0.9722 0.9716 0.9712 0.9707
866.000000 0.9701 0.9697 0.9690 0.9682 0.9675
871.000000 0.9666 0.9649 0.9632 0.9615 0.9597
876.000000 0.9578 0.9559 0.9534 0.9498 0.9462
881.000000 0.9427 0.9379 0.9329 0.9279 0.9221
886.000000 0.9161 0.9101 0.9039 0.9023 0.9027
891.000000 0.9037 0.9048 0.9055 0.9063 0.9058
896.000000 0.9052 0.9099 0.9156 0.9244 0.9354
901.000000 0.9408 0.9405 0.9437 0.9424 0.9411
906.000000 0.9390 0.9367 0.9337 0.9301 0.9229
911.000000 0.8952 0.8662 0.8372 0.8130 0.7989
916.000000 0.7903 0.7883 0.8182 0.8508 0.8746
921.000000 0.8731 0.8493 0.8276 0.8089 0.8078
926.000000 0.8471 0.8740 0.8946 0.9014 0.9045
931.000000 0.9070 0.9046 0.9041 0.9029 0.9017
936.000000 0.9012 0.9011 0.9016 0.9020 0.9018
941.000000 0.9017 0.9016 0.9015 0.9014 0.9013
946.000000 0.9012 0.9009 0.9006 0.9003 0.9000
951.000000 0.8996 0.8992 0.8985 0.8979 0.8972
956.000000 0.8965 0.8958 0.8948 0.8939 0.8929
961.000000 0.8919 0.8907 0.8895 0.8882 0.8870
966.000000 0.8859 0.8850 0.8839 0.8835 0.8835
971.000000 0.8834 0.8833 0.8833 0.8845 0.8858
976.000000 0.8872 0.8890 0.8908 0.8926 0.8944
981.000000 0.8963 0.8980 0.8995 0.9006 0.9010
986.000000 0.9015 0.9020 0.9024 0.9024 0.9020
991.000000 0.8992 0.9012 0.9007 0.8996 0.8984
996.000000 0.8973 0.8960 0.8949 0.8931 0.8914
1001.000000 0.8896 0.8878 0.8860 0.8841 0.8818
1006.000000 0.8795 0.8772 0.8750 0.8728 0.8701
1011.000000 0.8672 0.8644 0.8615 0.8583 0.8542
1016.000000 0.8502 0.8461 0.8421 0.8372 0.8313
1021.000000 0.8253 0.8185 0.8116 0.8040 0.7940
1026.000000 0.7840 0.7737 0.7631 0.7519 0.7338
1031.000000 0.7130 0.6856 0.6361 0.5964 0.5816
1036.000000 0.5752 0.5744 0.5733 0.5748 0.5770
1041.000000 0.5830 0.6094 0.6478 0.6861 0.7237
1046.000000 0.7749 0.7963 0.8118 0.8242 0.8317
1051.000000 0.8384 0.8422 0.8458 0.8473 0.8480
1056.000000 0.8488 0.8490 0.8488 0.8487 0.8504
1061.000000 0.8469 0.8457 0.8444 0.8424 0.8399
1066.000000 0.8359 0.8317 0.8261 0.8205 0.8142
1071.000000 0.8072 0.7989 0.7906 0.7819 0.7727
1076.000000 0.7604 0.7458 0.7247 0.6958 0.6667
1081.000000 0.6378 0.6089 0.5801 0.5572 0.5458
1086.000000 0.5428 0.5416 0.5440 0.5455 0.5480
1091.000000 0.5571 0.5695 0.6141 0.6726 0.7311
1096.000000 0.7895 0.8606 0.8768 0.8909 0.9053
1101.000000 0.9140 0.9213 0.9255 0.9288 0.9311
1106.000000 0.9319 0.9321 0.9313 0.9308 0.9295
1111.000000 0.9283 0.9265 0.9248 0.9228 0.9207
1116.000000 0.9185 0.9158 0.9130 0.9102 0.9066
1121.000000 0.9028 0.8991 0.8950 0.8909 0.8867
1126.000000 0.8825 0.8782 0.8738 0.8694 0.8645
1131.000000 0.8588 0.8531 0.8474 0.8415 0.8356
1136.000000 0.8306 0.8260 0.8220 0.8185 0.8142
1141.000000 0.8095 0.8032 0.7957 0.7865 0.7743
1146.000000 0.7582 0.7460 0.7179 0.6848 0.6621
1151.000000 0.6536 0.6515 0.6515 0.6524 0.6832
1156.000000 0.7043 0.7253 0.7458 0.7536 0.7549
1161.000000 0.7559 0.7552 0.7546 0.7535 0.7524
1166.000000 0.7501 0.7472 0.7440 0.7404 0.7364
1171.000000 0.7308 0.7251 0.7194 0.7135 0.7075
1176.000000 0.6999 0.6920 0.6838 0.6756 0.6673
1181.000000 0.6592 0.6509 0.6421 0.6331 0.6214
1186.000000 0.6072 0.5921 0.5768 0.5610 0.5431
1191.000000 0.5270 0.5117 0.4963 0.4794 0.4580
1196.000000 0.4352 0.4137 0.3987 0.3867 0.3742
1201.000000 0.3625 0.3564 0.3541 0.3537 0.3556
1206.000000 0.3599 0.3716 0.3902 0.4089 0.4275
1211.000000 0.4461 0.4647 0.4832 0.5017 0.5202
1216.000000 0.5386 0.5571 0.5755 0.5930 0.5978
1221.000000 0.5989 0.5987 0.5991 0.5973 0.5960
1226.000000 0.5943 0.5916 0.5854 0.5704 0.5603
1231.000000 0.5552 0.5521 0.5498 0.5478 0.5459
1236.000000 0.5426 0.5288 0.5106 0.4925 0.4746
1241.000000 0.4565 0.4480 0.4472 0.4464 0.4647
1246.000000 0.4837 0.5028 0.5218 0.5408 0.5598
1251.000000 0.5786 0.5976 0.6164 0.6352 0.6540
1256.000000 0.6728 0.6915 0.7102 0.7289 0.7444
1261.000000 0.7457 0.7452 0.7444 0.7452 0.7266
1266.000000 0.7099 0.6933 0.6768 0.6658 0.6653
1271.000000 0.6711 0.6929 0.7148 0.7366 0.7583
1276.000000 0.7801 0.8005 0.8097 0.8120 0.8129
1281.000000 0.8133 0.8142 0.8132 0.8130 0.8122
1286.000000 0.8114 0.8105 0.8090 0.8073 0.8048
1291.000000 0.8018 0.7984 0.7949 0.7909 0.7857
1296.000000 0.7804 0.7750 0.7697 0.7644 0.7592
1301.000000 0.7543 0.7494 0.7447 0.7409 0.7375
1306.000000 0.7362 0.7354 0.7353 0.7343 0.7331
1311.000000 0.7318 0.7307 0.7297 0.7286 0.7278
1316.000000 0.7259 0.7267 0.7266 0.7272 0.7278
1321.000000 0.7293 0.7313 0.7339 0.7368 0.7399
1326.000000 0.7424 0.7436 0.7441 0.7436 0.7431
1331.000000 0.7429 0.7404 0.7381 0.7348 0.7309
1336.000000 0.7256 0.7176 0.7032 0.6904 0.6792
1341.000000 0.6658 0.6350 0.6001 0.5651 0.5302
1346.000000 0.4954 0.4606 0.4260 0.3913 0.3571
1351.000000 0.3368 0.3351 0.3350 0.3355 0.3350
1356.000000 0.3590 0.3903 0.4215 0.4527 0.4838
1361.000000 0.5149 0.5459 0.5656 0.5666 0.5655
1366.000000 0.5642 0.5679 0.5546 0.5449 0.5339
1371.000000 0.5218 0.5124 0.5044 0.4977 0.4911
1376.000000 0.4792 0.4529 0.4267 0.4005 0.3744
1381.000000 0.3483 0.3282 0.3293 0.3294 0.3501
1386.000000 0.3876 0.4256 0.4635 0.5014 0.5392
1391.000000 0.5769 0.6146 0.6523 0.6899 0.7274
1396.000000 0.7617 0.7811 0.7964 0.8102 0.8232
1401.000000 0.8345 0.8423 0.8492 0.8542 0.8566
1406.000000 0.8591 0.8614 0.8628 0.8636 0.8644
1411.000000 0.8647 0.8686 0.8649 0.8647 0.8643
1416.000000 0.8638 0.8633 0.8623 0.8611 0.8599
1421.000000 0.8585 0.8567 0.8548 0.8527 0.8500
1426.000000 0.8473 0.8438 0.8401 0.8359 0.8310
1431.000000 0.8256 0.8170 0.8084 0.7997 0.7912
1436.000000 0.7825 0.7678 0.7411 0.7145 0.6879
1441.000000 0.6613 0.6348 0.6083 0.5818 0.5574
1446.000000 0.5269 0.4983 0.4669 0.4464 0.4294
1451.000000 0.4125 0.3956 0.3787 0.3619 0.3450
1456.000000 0.3282 0.3115 0.2947 0.2779 0.2612
1461.000000 0.2445 0.2279 0.2154 0.2045 0.2004
1466.000000 0.1996 0.1994 0.1991 0.1991 0.1994
1471.000000 0.2008 0.2023 0.2050 0.2084 0.2126
1476.000000 0.2295 0.2586 0.2875 0.3164 0.3453
1481.000000 0.3741 0.4029 0.4317 0.4604 0.4891
1486.000000 0.5170 0.5536 0.6178 0.6371 0.6511
1491.000000 0.6649 0.6788 0.6927 0.7065 0.7204
1496.000000 0.7341 0.7480 0.7617 0.7755 0.7892
1501.000000 0.8015 0.8086 0.8114 0.8126 0.8133
1506.000000 0.8137 0.8130 0.8127 0.8122 0.8115
1511.000000 0.8104 0.8087 0.8056 0.8018 0.7967
1516.000000 0.7915 0.7865 0.7809 0.7736 0.7667
1521.000000 0.7610 0.7554 0.7498 0.7445 0.7393
1526.000000 0.7331 0.7248 0.7162 0.7075 0.6988
1531.000000 0.6902 0.6817 0.6730 0.6644 0.6558
1536.000000 0.6472 0.6413 0.6401 0.6401 0.6404
1541.000000 0.6384 0.6469 0.6628 0.6815 0.7002
1546.000000 0.7188 0.7374 0.7560 0.7745 0.7930
1551.000000 0.8115 0.8300 0.8484 0.8662 0.8792
1556.000000 0.8846 0.8877 0.8907 0.8937 0.8964
1561.000000 0.8982 0.8994 0.9005 0.9011 0.9014
1566.000000 0.9017 0.9019 0.9022 0.9023 0.9024
1571.000000 0.9025 0.9026 0.9045 0.9024 0.9023
1576.000000 0.9022 0.9020 0.9019 0.9016 0.9012
1581.000000 0.9007 0.9002 0.8997 0.8987 0.8972
1586.000000 0.8949 0.8911 0.8868 0.8824 0.8779
1591.000000 0.8724 0.8665 0.8605 0.8545 0.8485
1596.000000 0.8425 0.8364 0.8304 0.8245 0.8196
1601.000000 0.8176 0.8173 0.8173 0.8200 0.8264
1606.000000 0.8328 0.8391 0.8455 0.8518 0.8571
1611.000000 0.8578 0.8568 0.8506 0.8413 0.8320
1616.000000 0.8228 0.8136 0.8118 0.8117 0.8106
1621.000000 0.8180 0.8294 0.8420 0.8546 0.8672
1626.000000 0.8797 0.8920 0.9001 0.9020 0.9037
1631.000000 0.9043 0.9044 0.9053 0.9033 0.9026
1636.000000 0.9018 0.9006 0.8986 0.8964 0.8941
1641.000000 0.8917 0.8893 0.8870 0.8847 0.8825
1646.000000 0.8804 0.8782 0.8761 0.8741 0.8723
1651.000000 0.8714 0.8705 0.8702 0.8700 0.8699
1656.000000 0.8694 0.8684 0.8669 0.8652 0.8630
1661.000000 0.8609 0.8588 0.8567 0.8552 0.8540
1666.000000 0.8529 0.8518 0.8507 0.8502 0.8503
1671.000000 0.8505 0.8488 0.8508 0.8512 0.8520
1676.000000 0.8530 0.8540 0.8550 0.8563 0.8587
1681.000000 0.8611 0.8676 0.8761 0.8850 0.8931
1686.000000 0.9000 0.9068 0.9130 0.9189 0.9238
1691.000000 0.9272 0.9300 0.9326 0.9347 0.9363
1696.000000 0.9378 0.9392 0.9404 0.9415 0.9426
1701.000000 0.9436 0.9445 0.9452 0.9459 0.9467
1706.000000 0.9474 0.9481 0.9485 0.9488 0.9492
1711.000000 0.9494 0.9497 0.9499 0.9502 0.9504
1716.000000 0.9507 0.9510 0.9512 0.9514 0.9517
1721.000000 0.9518 0.9520 0.9523 0.9524 0.9523
1726.000000 0.9521 0.9520 0.9518 0.9516 0.9516
1731.000000 0.9517 0.9518 0.9519 0.9521 0.9522
1736.000000 0.9523 0.9524 0.9526 0.9527 0.9528
1741.000000 0.9530 0.9533 0.9536 0.9540 0.9543
1746.000000 0.9545 0.9548 0.9556 0.9562 0.9570
1751.000000 0.9579 0.9588 0.9596 0.9605 0.9616
1756.000000 0.9629 0.9642 0.9655 0.9665 0.9673
1761.000000 0.9680 0.9687 0.9693 0.9700 0.9703
1766.000000 0.9705 0.9710 0.9708 0.9710 0.9712
1771.000000 0.9714 0.9715 0.9715 0.9716 0.9716
1776.000000 0.9716 0.9717 0.9717 0.9717 0.9717
1781.000000 0.9718 0.9718 0.9718 0.9718 0.9718
1786.000000 0.9719 0.9719 0.9719 0.9719 0.9718
1791.000000 0.9718 0.9718 0.9718 0.9718 0.9718
1796.000000 0.9717 0.9717 0.9717 0.9717 0.9717
1801.000000 0.9717 0.9717 0.9716 0.9716 0.9716
1806.000000 0.9716 0.9715 0.9715 0.9714 0.9714
1811.000000 0.9714 0.9714 0.9713 0.9713 0.9713
1816.000000 0.9712 0.9712 0.9712 0.9712 0.9711
1821.000000 0.9711 0.9711 0.9710 0.9710 0.9709
1826.000000 0.9709 0.9708 0.9707 0.9706 0.9706
1831.000000 0.9705 0.9704 0.9703 0.9703 0.9701
1836.000000 0.9700 0.9699 0.9699 0.9698 0.9697
1841.000000 0.9696 0.9696 0.9695 0.9694 0.9694
1846.000000 0.9693 0.9692 0.9691 0.9691 0.9690
1851.000000 0.9689 0.9687 0.9686 0.9684 0.9683
1856.000000 0.9682 0.9681 0.9680 0.9678 0.9677
1861.000000 0.9675 0.9674 0.9673 0.9672 0.9670
1866.000000 0.9669 0.9667 0.9665 0.9663 0.9661
1871.000000 0.9659 0.9657 0.9655 0.9653 0.9651
1876.000000 0.9648 0.9646 0.9644 0.9642 0.9640
1881.000000 0.9638 0.9636 0.9634 0.9631 0.9629
1886.000000 0.9627 0.9625 0.9623 0.9621 0.9620
1891.000000 0.9618 0.9616 0.9613 0.9611 0.9609
1896.000000 0.9608 0.9606 0.9604 0.9602 0.9601
1901.000000 0.9599 0.9597 0.9595 0.9594 0.9592
1906.000000 0.9590 0.9588 0.9586 0.9585 0.9583
1911.000000 0.9581 0.9579 0.9577 0.9576 0.9574
1916.000000 0.9572 0.9571 0.9569 0.9567 0.9565
1921.000000 0.9563 0.9562 0.9560 0.9558 0.9557
1926.000000 0.9555 0.9553 0.9552 0.9550 0.9548
1931.000000 0.9546 0.9544 0.9543 0.9542 0.9540
1936.000000 0.9538 0.9537 0.9535 0.9534 0.9533
1941.000000 0.9531 0.9529 0.9528 0.9527 0.9525
1946.000000 0.9524 0.9523 0.9521 0.9519 0.9518
1951.000000 0.9516 0.9515 0.9514 0.9512 0.9510
1956.000000 0.9509 0.9507 0.9506 0.9505 0.9503
1961.000000 0.9501 0.9500 0.9499 0.9497 0.9495
1966.000000 0.9494 0.9492 0.9491 0.9490 0.9489
1971.000000 0.9487 0.9485 0.9484 0.9482 0.9481
1976.000000 0.9479 0.9478 0.9476 0.9474 0.9473
1981.000000 0.9471 0.9470 0.9468 0.9467 0.9465
1986.000000 0.9463 0.9462 0.9460 0.9458 0.9457
1991.000000 0.9455 0.9454 0.9452 0.9451 0.9449
1996.000000 0.9448 0.9446 0.9444 0.9442 0.9441
2001.000000 0.9439 0.9437 0.9435 0.9433 0.9431
2006.000000 0.9429 0.9426 0.9425 0.9423 0.9421
2011.000000 0.9418 0.9416 0.9414 0.9412 0.9410
2016.000000 0.9408 0.9406 0.9404 0.9402 0.9400
2021.000000 0.9398 0.9396 0.9394 0.9391 0.9389
2026.000000 0.9387 0.9385 0.9382 0.9380 0.9378
2031.000000 0.9376 0.9374 0.9371 0.9369 0.9367
2036.000000 0.9364 0.9362 0.9360 0.9358 0.9355
2041.000000 0.9353 0.9351 0.9349 0.9347 0.9344
2046.000000 0.9342 0.9340 0.9339 0.9337 0.9336
2051.000000 0.9335 0.9334 0.9333 0.9333 0.9332
2056.000000 0.9330 0.9330 0.9329 0.9328 0.9327
2061.000000 0.9327 0.9326 0.9325 0.9324 0.9323
2066.000000 0.9323 0.9321 0.9320 0.9320 0.9319
2071.000000 0.9318 0.9317 0.9316 0.9315 0.9314
2076.000000 0.9313 0.9311 0.9310 0.9309 0.9307
2081.000000 0.9306 0.9305 0.9304 0.9302 0.9301
2086.000000 0.9299 0.9298 0.9297 0.9296 0.9295
2091.000000 0.9293 0.9292 0.9290 0.9289 0.9287
2096.000000 0.9285 0.9282 0.9280 0.9277 0.9274
2101.000000 0.9271 0.9269 0.9266 0.9264 0.9261
2106.000000 0.9258 0.9255 0.9252 0.9249 0.9247
2111.000000 0.9244 0.9241 0.9238 0.9235 0.9233
2116.000000 0.9230 0.9227 0.9225 0.9223 0.9220
2121.000000 0.9217 0.9215 0.9212 0.9210 0.9207
2126.000000 0.9205 0.9202 0.9200 0.9198 0.9195
2131.000000 0.9192 0.9190 0.9188 0.9185 0.9182
2136.000000 0.9180 0.9178 0.9175 0.9173 0.9173
2141.000000 0.9173 0.9173 0.9173 0.9173 0.9173
2146.000000 0.9173 0.9173 0.9173 0.9173 0.9173
2151.000000 0.9173 0.9173 0.9173 0.9173 0.9173
2156.000000 0.9173 0.9173 0.9173 0.9173 0.9173
2161.000000 0.9172 0.9172 0.9172 0.9172 0.9171
2166.000000 0.9171 0.9171 0.9171 0.9171 0.9171
2171.000000 0.9170 0.9170 0.9170 0.9169 0.9169
2176.000000 0.9168 0.9168 0.9167 0.9164 0.9161
2181.000000 0.9159 0.9156 0.9154 0.9151 0.9148
2186.000000 0.9146 0.9143 0.9140 0.9138 0.9135
2191.000000 0.9133 0.9130 0.9127 0.9125 0.9122
2196.000000 0.9120 0.9117 0.9114 0.9112 0.9109
2201.000000 0.9107 0.9104 0.9102 0.9099 0.9097
2206.000000 0.9096 0.9095 0.9094 0.9093 0.9092
2211.000000 0.9091 0.9090 0.9089 0.9088 0.9087
2216.000000 0.9086 0.9085 0.9084 0.9083 0.9082
2221.000000 0.9081 0.9080 0.9079 0.9078 0.9077
2226.000000 0.9076 0.9075 0.9074 0.9073 0.9072
2231.000000 0.9071 0.9070 0.9069 0.9068 0.9067
2236.000000 0.9066 0.9065 0.9064 0.9063 0.9063
2241.000000 0.9062 0.9061 0.9060 0.9059 0.9058
2246.000000 0.9058 0.9057 0.9056 0.9055 0.9054
2251.000000 0.9053 0.9052 0.9051 0.9051 0.9050
2256.000000 0.9049 0.9048 0.9047 0.9046 0.9046
2261.000000 0.9044 0.9042 0.9040 0.9038 0.9035
2266.000000 0.9033 0.9030 0.9027 0.9025 0.9022
2271.000000 0.9020 0.9017 0.9015 0.9012 0.9009
2276.000000 0.9007 0.9004 0.9001 0.8997 0.8994
2281.000000 0.8991 0.8987 0.8984 0.8980 0.8977
2286.000000 0.8974 0.8970 0.8967 0.8963 0.8959
2291.000000 0.8956 0.8953 0.8949 0.8946 0.8943
2296.000000 0.8939 0.8936 0.8933 0.8929 0.8925
2301.000000 0.8922 0.8919 0.8915 0.8912 0.8909
2306.000000 0.8905 0.8902 0.8899 0.8896 0.8892
2311.000000 0.8889 0.8885 0.8882 0.8879 0.8876
2316.000000 0.8875 0.8873 0.8872 0.8871 0.8869
2321.000000 0.8867 0.8865 0.8864 0.8862 0.8861
2326.000000 0.8859 0.8858 0.8856 0.8855 0.8853
2331.000000 0.8852 0.8850 0.8848 0.8847 0.8845
2336.000000 0.8843 0.8842 0.8840 0.8839 0.8837
2341.000000 0.8835 0.8834 0.8833 0.8831 0.8830
2346.000000 0.8828 0.8826 0.8825 0.8823 0.8822
2351.000000 0.8821 0.8819 0.8818 0.8817 0.8815
2356.000000 0.8814 0.8813 0.8811 0.8810 0.8808
2361.000000 0.8807 0.8806 0.8804 0.8803 0.8801
2366.000000 0.8799 0.8798 0.8797 0.8795 0.8794
2371.000000 0.8793 0.8791 0.8790 0.8789 0.8787
2376.000000 0.8786 0.8785 0.8783 0.8782 0.8781
2381.000000 0.8779 0.8778 0.8776 0.8774 0.8773
2386.000000 0.8772 0.8771 0.8769 0.8767 0.8766
2391.000000 0.8764 0.8763 0.8762 0.8760 0.8759
2396.000000 0.8757 0.8755 0.8754 0.8753 0.8751
2401.000000 0.8749 0.8748 0.8747 0.8745 0.8744
2406.000000 0.8742 0.8740 0.8739 0.8738 0.8736
2411.000000 0.8734 0.8733 0.8732 0.8730 0.8729
2416.000000 0.8728 0.8726 0.8724 0.8723 0.8722
2421.000000 0.8720 0.8718 0.8717 0.8716 0.8714
2426.000000 0.8713 0.8711 0.8709 0.8708 0.8707
2431.000000 0.8705 0.8703 0.8702 0.8701 0.8700
2436.000000 0.8698 0.8697 0.8695 0.8694 0.8692
2441.000000 0.8691 0.8690 0.8688 0.8687 0.8686
2446.000000 0.8685 0.8683 0.8682 0.8681 0.8680
2451.000000 0.8678 0.8677 0.8676 0.8675 0.8673
2456.000000 0.8672 0.8671 0.8670 0.8669 0.8667
2461.000000 0.8666 0.8665 0.8664 0.8662 0.8661
2466.000000 0.8660 0.8659 0.8657 0.8656 0.8655
2471.000000 0.8653 0.8650 0.8648 0.8645 0.8642
2476.000000 0.8639 0.8636 0.8634 0.8631 0.8628
2481.000000 0.8625 0.8622 0.8619 0.8616 0.8613
2486.000000 0.8610 0.8607 0.8604 0.8601 0.8599
2491.000000 0.8596 0.8593 0.8590 0.8587 0.8585
2496.000000 0.8581 0.8577 0.8573 0.8568 0.8563
2501.000000 0.8558 0.8553 0.8548 0.8543 0.8538
2506.000000 0.8533 0.8528 0.8523 0.8518 0.8513
2511.000000 0.8507 0.8502 0.8496 0.8490 0.8484
2516.000000 0.8478 0.8472 0.8466 0.8460 0.8454
2521.000000 0.8449 0.8443 0.8437 0.8431 0.8425
2526.000000 0.8419 0.8413 0.8407 0.8401 0.8396
2531.000000 0.8390 0.8384 0.8378 0.8372 0.8366
2536.000000 0.8361 0.8355 0.8349 0.8343 0.8337
2541.000000 0.8331 0.8325 0.8318 0.8311 0.8305
2546.000000 0.8298 0.8292 0.8285 0.8279 0.8273
2551.000000 0.8267 0.8260 0.8254 0.8247 0.8241
2556.000000 0.8234 0.8228 0.8221 0.8215 0.8208
2561.000000 0.8202 0.8195 0.8189 0.8183 0.8176
2566.000000 0.8170 0.8163 0.8156 0.8150 0.8143
2571.000000 0.8137 0.8131 0.8124 0.8117 0.8110
2576.000000 0.8104 0.8098 0.8091 0.8085 0.8078
2581.000000 0.8072 0.8065 0.8058 0.8052 0.8046
2586.000000 0.8039 0.8032 0.8025 0.8019 0.8013
2591.000000 0.8006 0.8000 0.7994 0.7987 0.7981
2596.000000 0.7974 0.7967 0.7961 0.7954 0.7947
2601.000000 0.7941 0.7934 0.7928 0.7922 0.7915
2606.000000 0.7908 0.7902 0.7895 0.7888 0.7882
2611.000000 0.7875 0.7869 0.7862 0.7856 0.7850
2616.000000 0.7843 0.7837 0.7830 0.7824 0.7817
2621.000000 0.7811 0.7804 0.7797 0.7791 0.7785
2626.000000 0.7779 0.7772 0.7766 0.7759 0.7754
2631.000000 0.7748 0.7742 0.7736 0.7731 0.7725
2636.000000 0.7720 0.7714 0.7709 0.7703 0.7698
2641.000000 0.7692 0.7687 0.7681 0.7676 0.7670
2646.000000 0.7665 0.7659 0.7653 0.7648 0.7642
2651.000000 0.7637 0.7632 0.7626 0.7621 0.7615
2656.000000 0.7610 0.7604 0.7599 0.7594 0.7590
2661.000000 0.7586 0.7583 0.7580 0.7576 0.7573
2666.000000 0.7570 0.7567 0.7564 0.7561 0.7557
2671.000000 0.7554 0.7551 0.7548 0.7545 0.7542
2676.000000 0.7539 0.7535 0.7532 0.7529 0.7526
2681.000000 0.7523 0.7520 0.7517 0.7514 0.7510
2686.000000 0.7507 0.7504 0.7501 0.7498 0.7495
2691.000000 0.7493 0.7491 0.7489 0.7487 0.7486
2696.000000 0.7484 0.7482 0.7480 0.7478 0.7476
2701.000000 0.7474 0.7473 0.7471 0.7469 0.7468
2706.000000 0.7466 0.7464 0.7462 0.7461 0.7460
2711.000000 0.7458 0.7457 0.7455 0.7454 0.7453
2716.000000 0.7451 0.7450 0.7449 0.7447 0.7446
2721.000000 0.7445 0.7443 0.7442 0.7441 0.7439
2726.000000 0.7438 0.7437 0.7435 0.7434 0.7433
2731.000000 0.7431 0.7430 0.7427 0.7424 0.7420
2736.000000 0.7417 0.7414 0.7411 0.7408 0.7405
2741.000000 0.7402 0.7399 0.7396 0.7392 0.7389
2746.000000 0.7385 0.7381 0.7375 0.7368 0.7361
2751.000000 0.7354 0.7348 0.7341 0.7333 0.7325
2756.000000 0.7317 0.7306 0.7293 0.7280 0.7266
2761.000000 0.7253 0.7239 0.7226 0.7213 0.7200
2766.000000 0.7187 0.7174 0.7161 0.7149 0.7136
2771.000000 0.7123 0.7084 0.7002 0.6920 0.6830
2776.000000 0.6721 0.6613 0.6505 0.6397 0.6289
2781.000000 0.6181 0.6073 0.5966 0.5858 0.5750
2786.000000 0.5642 0.5535 0.5427 0.5320 0.5213
2791.000000 0.5106 0.4999 0.4892 0.4785 0.4678
2796.000000 0.4571 0.4465 0.4358 0.4251 0.4145
2801.000000 0.4038 0.3932 0.3826 0.3719 0.3613
2806.000000 0.3507 0.3402 0.3296 0.3190 0.3085
2811.000000 0.2979 0.2873 0.2768 0.2662 0.2557
2816.000000 0.2451 0.2346 0.2241 0.2136 0.2031
2821.000000 0.1926 0.1821 0.1717 0.1612 0.1508
2826.000000 0.1403 0.1299 0.1194 0.1068 0.0941
2831.000000 0.0813 0.0754 0.0719 0.0683 0.0653
2836.000000 0.0629 0.0604 0.0580 0.0555 0.0531
2841.000000 0.0507 0.0489 0.0472 0.0454 0.0441
2846.000000 0.0428 0.0415 0.0403 0.0390 0.0377
2851.000000 0.0366 0.0355 0.0345 0.0335 0.0330
2856.000000 0.0326 0.0321 0.0317 0.0312 0.0307
2861.000000 0.0303 0.0298 0.0294 0.0289 0.0286
2866.000000 0.0283 0.0279 0.0278 0.0276 0.0275
2871.000000 0.0273 0.0272 0.0270 0.0269 0.0267
2876.000000 0.0266 0.0264 0.0263 0.0261 0.0260
2881.000000 0.0258 0.0257 0.0255 0.0254 0.0252
2886.000000 0.0251 0.0249 0.0248 0.0246 0.0245
2891.000000 0.0243 0.0242 0.0240 0.0239 0.0237
2896.000000 0.0236 0.0234 0.0234 0.0234 0.0234
2901.000000 0.0234 0.0234 0.0234 0.0234 0.0234
2906.000000 0.0234 0.0233 0.0233 0.0233 0.0233
2911.000000 0.0233 0.0233 0.0233 0.0233 0.0233
2916.000000 0.0234 0.0234 0.0236 0.0237 0.0239
2921.000000 0.0240 0.0242 0.0243 0.0245 0.0246
2926.000000 0.0248 0.0250 0.0252 0.0254 0.0256
2931.000000 0.0258 0.0260 0.0261 0.0263 0.0266
2936.000000 0.0269 0.0272 0.0276 0.0281 0.0286
2941.000000 0.0292 0.0304 0.0317 0.0331 0.0353
2946.000000 0.0389 0.0426 0.0462 0.0527 0.0594
2951.000000 0.0662 0.0730 0.0798 0.0865 0.0933
2956.000000 0.1000 0.1068 0.1135 0.1203 0.1270
2961.000000 0.1337 0.1405 0.1472 0.1539 0.1606
2966.000000 0.1673 0.1740 0.1807 0.1874 0.1941
2971.000000 0.2008 0.2075 0.2142 0.2208 0.2275
2976.000000 0.2342 0.2408 0.2475 0.2541 0.2608
2981.000000 0.2674 0.2741 0.2807 0.2873 0.2939
2986.000000 0.3006 0.3072 0.3138 0.3205 0.3271
2991.000000 0.3337 0.3403 0.3469 0.3535 0.3600
2996.000000 0.3666 0.3732 0.3798 0.3863 0.3929
3001.000000 0.3994 0.4060 0.4125 0.4191 0.4256
3006.000000 0.4321 0.4387 0.4452 0.4517 0.4582
3011.000000 0.4647 0.4712 0.4777 0.4842 0.4907
3016.000000 0.4972 0.5037 0.5102 0.5167 0.5231
3021.000000 0.5296 0.5361 0.5425 0.5490 0.5554
3026.000000 0.5619 0.5683 0.5747 0.5812 0.5876
3031.000000 0.5940 0.6003 0.6066 0.6130 0.6206
3036.000000 0.6283 0.6359 0.6424 0.6464 0.6505
3041.000000 0.6545 0.6582 0.6618 0.6653 0.6689
3046.000000 0.6721 0.6752 0.6784 0.6813 0.6832
3051.000000 0.6852 0.6872 0.6888 0.6902 0.6916
3056.000000 0.6929 0.6943 0.6956 0.6969 0.6983
3061.000000 0.6992 0.7000 0.7009 0.7018 0.7025
3066.000000 0.7033 0.7041 0.7048 0.7056 0.7064
3071.000000 0.7072 0.7079 0.7087 0.7095 0.7102
3076.000000 0.7110 0.7117 0.7124 0.7132 0.7139
3081.000000 0.7146 0.7153 0.7160 0.7167 0.7174
3086.000000 0.7182 0.7189 0.7196 0.7203 0.7210
3091.000000 0.7217 0.7224 0.7230 0.7237 0.7244
3096.000000 0.7251 0.7257 0.7264 0.7270 0.7276
3101.000000 0.7282 0.7288 0.7294 0.7299 0.7305
3106.000000 0.7311 0.7317 0.7323 0.7329 0.7334
3111.000000 0.7339 0.7344 0.7349 0.7351 0.7352
3116.000000 0.7353 0.7353 0.7354 0.7354 0.7355
3121.000000 0.7355 0.7356 0.7357 0.7358 0.7359
3126.000000 0.7359 0.7360 0.7361 0.7362 0.7362
3131.000000 0.7362 0.7362 0.7361 0.7361 0.7361
3136.000000 0.7361 0.7360 0.7360 0.7360 0.7360
3141.000000 0.7360 0.7360 0.7360 0.7360 0.7359
3146.000000 0.7359 0.7359 0.7359 0.7358 0.7358
3151.000000 0.7358 0.7358 0.7358 0.7358 0.7358
3156.000000 0.7358 0.7357 0.7357 0.7357 0.7357
3161.000000 0.7356 0.7356 0.7356 0.7356 0.7355
3166.000000 0.7355 0.7355 0.7355 0.7354 0.7354
3171.000000 0.7353 0.7353 0.7352 0.7352 0.7352
3176.000000 0.7352 0.7351 0.7351 0.7351 0.7351
3181.000000 0.7350 0.7350 0.7350 0.7350 0.7349
3186.000000 0.7349 0.7349 0.7349 0.7393 0.7348
3191.000000 0.7348 0.7348 0.7347 0.7347 0.7347
3196.000000 0.7347 0.7346 0.7346 0.7346 0.7346
3201.000000 0.7346 0.7345 0.7345 0.7344 0.7344
3206.000000 0.7343 0.7343 0.7343 0.7343 0.7342
3211.000000 0.7342 0.7342 0.7342 0.7341 0.7341
3216.000000 0.7341 0.7341 0.7340 0.7340 0.7340
3221.000000 0.7340 0.7339 0.7339 0.7339 0.7339
3226.000000 0.7338 0.7337 0.7336 0.7335 0.7334
3231.000000 0.7333 0.7331 0.7329 0.7327 0.7325
3236.000000 0.7323 0.7321 0.7319 0.7317 0.7315
3241.000000 0.7313 0.7312 0.7310 0.7308 0.7306
3246.000000 0.7304 0.7302 0.7299 0.7296 0.7293
3251.000000 0.7289 0.7285 0.7280 0.7275 0.7270
3256.000000 0.7266 0.7261 0.7257 0.7253 0.7248
3261.000000 0.7243 0.7239 0.7234 0.7229 0.7223
3266.000000 0.7217 0.7210 0.7204 0.7198 0.7192
3271.000000 0.7186 0.7180 0.7174 0.7167 0.7161
3276.000000 0.7155 0.7149 0.7143 0.7137 0.7131
3281.000000 0.7124 0.7117 0.7110 0.7103 0.7096
3286.000000 0.7088 0.7081 0.7074 0.7067 0.7060
3291.000000 0.7053 0.7045 0.7038 0.7031 0.7024
3296.000000 0.7017 0.7010 0.7003 0.6995 0.6988
3301.000000 0.6981 0.6974 0.6967 0.6961 0.6954
3306.000000 0.6947 0.6941 0.6934 0.6928 0.6922
3311.000000 0.6915 0.6909 0.6902 0.6895 0.6889
3316.000000 0.6882 0.6876 0.6870 0.6863 0.6857
3321.000000 0.6850 0.6844 0.6837 0.6831 0.6823
3326.000000 0.6815 0.6807 0.6800 0.6791 0.6781
3331.000000 0.6770 0.6759 0.6748 0.6737 0.6727
3336.000000 0.6716 0.6705 0.6694 0.6683 0.6672
3341.000000 0.6661 0.6650 0.6639 0.6629 0.6618
3346.000000 0.6607 0.6597 0.6586 0.6575 0.6564
3351.000000 0.6554 0.6543 0.6532 0.6521 0.6510
3356.000000 0.6499 0.6489 0.6478 0.6467 0.6457
3361.000000 0.6446 0.6435 0.6424 0.6413 0.6403
3366.000000 0.6392 0.6382 0.6371 0.6360 0.6351
3371.000000 0.6343 0.6335 0.6326 0.6318 0.6310
3376.000000 0.6301 0.6293 0.6285 0.6276 0.6268
3381.000000 0.6260 0.6252 0.6244 0.6236 0.6228
3386.000000 0.6219 0.6211 0.6203 0.6195 0.6187
3391.000000 0.6179 0.6171 0.6163 0.6155 0.6148
3396.000000 0.6140 0.6133 0.6128 0.6123 0.6118
3401.000000 0.6112 0.6107 0.6102 0.6097 0.6092
3406.000000 0.6086 0.6084 0.6081 0.6078 0.6075
3411.000000 0.6073 0.6073 0.6072 0.6072 0.6072
3416.000000 0.6071 0.6071 0.6070 0.6070 0.6069
3421.000000 0.6069 0.6069 0.6069 0.6069 0.6069
3426.000000 0.6070 0.6071 0.6073 0.6074 0.6075
3431.000000 0.6077 0.6078 0.6079 0.6080 0.6069
3436.000000 0.6083 0.6084 0.6085 0.6087 0.6088
3441.000000 0.6089 0.6090 0.6091 0.6093 0.6096
3446.000000 0.6098 0.6101 0.6104 0.6107 0.6111
3451.000000 0.6115 0.6119 0.6122 0.6126 0.6130
3456.000000 0.6134 0.6138 0.6142 0.6147 0.6152
3461.000000 0.6156 0.6161 0.6167 0.6177 0.6186
3466.000000 0.6195 0.6205 0.6214 0.6224 0.6233
3471.000000 0.6243 0.6252 0.6262 0.6271 0.6281
3476.000000 0.6290 0.6300 0.6310 0.6319 0.6329
3481.000000 0.6339 0.6349 0.6358 0.6368 0.6378
3486.000000 0.6387 0.6397 0.6407 0.6416 0.6426
3491.000000 0.6436 0.6445 0.6455 0.6465 0.6475
3496.000000 0.6485 0.6498 0.6515 0.6533 0.6550
3501.000000 0.6568 0.6585 0.6604 0.6622 0.6640
3506.000000 0.6659 0.6677 0.6695 0.6713 0.6731
3511.000000 0.6749 0.6767 0.6786 0.6804 0.6822
3516.000000 0.6840 0.6861 0.6882 0.6903 0.6925
3521.000000 0.6946 0.6967 0.6988 0.7010 0.7031
3526.000000 0.7053 0.7074 0.7095 0.7117 0.7138
3531.000000 0.7160 0.7177 0.7194 0.7211 0.7228
3536.000000 0.7245 0.7258 0.7270 0.7283 0.7295
3541.000000 0.7308 0.7320 0.7332 0.7345 0.7357
3546.000000 0.7369 0.7382 0.7394 0.7406 0.7419
3551.000000 0.7431 0.7442 0.7454 0.7465 0.7476
3556.000000 0.7487 0.7496 0.7504 0.7512 0.7520
3561.000000 0.7527 0.7535 0.7543 0.7551 0.7559
3566.000000 0.7567 0.7575 0.7583 0.7591 0.7599
3571.000000 0.7607 0.7615 0.7623 0.7631 0.7638
3576.000000 0.7646 0.7653 0.7660 0.7666 0.7672
3581.000000 0.7678 0.7684 0.7688 0.7692 0.7695
3586.000000 0.7699 0.7703 0.7707 0.7711 0.7714
3591.000000 0.7718 0.7722 0.7723 0.7723 0.7724
3596.000000 0.7725 0.7726 0.7727 0.7728 0.7729
3601.000000 0.7730 0.7731 0.7732 0.7732 0.7733
3606.000000 0.7733 0.7733 0.7734 0.7734 0.7734
3611.000000 0.7734 0.7734 0.7735 0.7735 0.7735
3616.000000 0.7735 0.7735 0.7736 0.7736 0.7736
3621.000000 0.7737 0.7737 0.7737 0.7738 0.7739
3626.000000 0.7739 0.7740 0.7740 0.7741 0.7743
3631.000000 0.7744 0.7746 0.7747 0.7749 0.7750
3636.000000 0.7752 0.7753 0.7755 0.7756 0.7759
3641.000000 0.7761 0.7763 0.7765 0.7767 0.7772
3646.000000 0.7778 0.7784 0.7790 0.7796 0.7802
3651.000000 0.7808 0.7814 0.7820 0.7826 0.7832
3656.000000 0.7840 0.7848 0.7856 0.7865 0.7873
3661.000000 0.7882 0.7891 0.7899 0.7908 0.7917
3666.000000 0.7926 0.7935 0.7944 0.7952 0.7961
3671.000000 0.7970 0.7977 0.7983 0.7990 0.7997
3676.000000 0.8003 0.8010 0.8017 0.8023 0.8030
3681.000000 0.8037 0.8043 0.8050 0.8057 0.8063
3686.000000 0.8070 0.8076 0.8083 0.8090 0.8096
3691.000000 0.8103 0.8109 0.8115 0.8119 0.8122
3696.000000 0.8126 0.8129 0.8133 0.8135 0.8138
3701.000000 0.8140 0.8142 0.8145 0.8147 0.8150
3706.000000 0.8152 0.8155 0.8157 0.8160 0.8185
3711.000000 0.8165 0.8168 0.8170 0.8173 0.8174
3716.000000 0.8174 0.8174 0.8174 0.8174 0.8174
3721.000000 0.8173 0.8173 0.8173 0.8173 0.8173
3726.000000 0.8172 0.8172 0.8172 0.8172 0.8172
3731.000000 0.8172 0.8171 0.8170 0.8169 0.8168
3736.000000 0.8166 0.8165 0.8164 0.8163 0.8162
3741.000000 0.8160 0.8159 0.8158 0.8157 0.8156
3746.000000 0.8155 0.8154 0.8153 0.8151 0.8150
3751.000000 0.8148 0.8146 0.8145 0.8143 0.8141
3756.000000 0.8139 0.8137 0.8134 0.8132 0.8130
3761.000000 0.8128 0.8126 0.8124 0.8122 0.8120
3766.000000 0.8118 0.8115 0.8113 0.8111 0.8109
3771.000000 0.8107 0.8105 0.8103 0.8101 0.8099
3776.000000 0.8096 0.8094 0.8092 0.8090 0.8088
3781.000000 0.8086 0.8084 0.8082 0.8080 0.8078
3786.000000 0.8075 0.8073 0.8071 0.8069 0.8067
3791.000000 0.8065 0.8063 0.8061 0.8059 0.8057
3796.000000 0.8055 0.8052 0.8050 0.8048 0.8046
3801.000000 0.8044 0.8042 0.8040 0.8038 0.8036
3806.000000 0.8034 0.8032 0.8030 0.8028 0.8026
3811.000000 0.8023 0.8021 0.8019 0.8017 0.8015
3816.000000 0.8013 0.8011 0.8009 0.8007 0.8005
3821.000000 0.8003 0.8001 0.7999 0.7997 0.7995
3826.000000 0.7993 0.7991 0.7989 0.7988 0.7986
3831.000000 0.7984 0.7982 0.7980 0.7978 0.7976
3836.000000 0.7975 0.7973 0.7971 0.7970 0.7968
3841.000000 0.7966 0.7964 0.7962 0.7961 0.7959
3846.000000 0.7957 0.7955 0.7953 0.7951 0.7949
3851.000000 0.7948 0.7946 0.7944 0.7942 0.7940
3856.000000 0.7938 0.7936 0.7935 0.7933 0.7931
3861.000000 0.7930 0.7928 0.7926 0.7924 0.7923
3866.000000 0.7921 0.7919 0.7917 0.7915 0.7913
3871.000000 0.7912 0.7911 0.7910 0.7909 0.7908
3876.000000 0.7906 0.7905 0.7904 0.7903 0.7902
3881.000000 0.7901 0.7899 0.7898 0.7897 0.7896
3886.000000 0.7894 0.7893 0.7892 0.7890 0.7889
3891.000000 0.7888 0.7887 0.7886 0.7885 0.7883
3896.000000 0.7882 0.7881 0.7880 0.7879 0.7878
3901.000000 0.7877 0.7875 0.7874 0.7873 0.7872
3906.000000 0.7871 0.7870 0.7868 0.7867 0.7866
3911.000000 0.7864 0.7863 0.7862 0.7861 0.7859
3916.000000 0.7858 0.7857 0.7856 0.7855 0.7854
3921.000000 0.7853 0.7852 0.7850 0.7849 0.7848
3926.000000 0.7847 0.7846 0.7845 0.7844 0.7842
3931.000000 0.7841 0.7840 0.7839 0.7838 0.7837
3936.000000 0.7836 0.7836 0.7835 0.7834 0.7833
3941.000000 0.7832 0.7831 0.7830 0.7829 0.7828
3946.000000 0.7827 0.7826 0.7825 0.7824 0.7823
3951.000000 0.7822 0.7821 0.7821 0.7820 0.7819
3956.000000 0.7818 0.7817 0.7816 0.7815 0.7814
3961.000000 0.7813 0.7812 0.7812 0.7811 0.7810
3966.000000 0.7809 0.7808 0.7807 0.7806 0.7805
3971.000000 0.7804 0.7803 0.7802 0.7801 0.7800
3976.000000 0.7799 0.7799 0.7798 0.7797 0.7796
3981.000000 0.7795 0.7794 0.7794 0.7793 0.7792
3986.000000 0.7791 0.7790 0.7789 0.7788 0.7787
3991.000000 0.7786 0.7785 0.7784 0.7783 0.7782
3996.000000 0.7781 0.7780 0.7779 0.7778 0.7778
##END=
