##TITLE=2-PROPANAMINE, 2,N-DIMETHYL-1-PHENYL-, SULFATE
##JCAMP-DX=4.24
##DATA TYPE=INFRARED SPECTRUM
##CLASS=COBLENTZ III
##ORIGIN=SMITH KLINE & FRENCH LABS.
##OWNER=Copyright (C) 1987 by the Coblentz Society
Collection (C) 2018 copyright by the U.S. Secretary of Commerce
on behalf of the United States of America. All rights reserved.
##DATE=1970/06/15
##NAMES=Phenethylamine, N,Alpha,Alpha-trimethyl-, sulfate (2 to1) (salt)
##MOLFORM=C22 H36 N2 O4 S
##SOURCE REFERENCE=COBLENTZ NO. 9825
##$NIST ID=B6009825
##$NIST SOURCE=COBLENTZ
##$NIST IMAGE=cob9825
##SPECTROMETER/DATA SYSTEM=PERKIN-ELMER 521 (GRATING)
##INSTRUMENT PARAMETERS=FILTERS AT 3130, 2475, 2000, 1150, 700, 410. GRATING CHANGES: 1999, 690 CM^-^1
##STATE=SOLID (OIL MULL)
$$SPECTRAL CONTAMINATION DUE TO OIL AROUND 2900, 1458 CM^-^1
##SAMPLING PROCEDURE=TRANSMISSION
##RESOLUTION=2
##DATA PROCESSING=DIGITIZED BY COBLENTZ SOCIETY (BATCH II) FROM HARD COPY
##XUNITS=1/CM
##YUNITS=TRANSMITTANCE
##XFACTOR=1.0
##YFACTOR=1
##FIRSTX=315
##LASTX=4000
##FIRSTY=0.3613
##MAXX=4000
##MINX=315
##MAXY=0.8909
##MINY=0.138
##NPOINTS=3686
##XYDATA=(X++(Y..Y))
315.000000 0.3613 0.3670 0.3724 0.3760 0.3766
320.000000 0.3769 0.3772 0.3774 0.3775 0.3777
325.000000 0.3778 0.3778 0.3778 0.3784 0.3825
330.000000 0.4135 0.4228 0.4310 0.4376 0.4432
335.000000 0.4456 0.4480 0.4498 0.4510 0.4631
340.000000 0.4808 0.4984 0.5160 0.5337 0.5503
345.000000 0.5506 0.5509 0.5513 0.5520 0.5527
350.000000 0.5538 0.5549 0.5560 0.5571 0.5639
355.000000 0.5750 0.5860 0.5970 0.6080 0.6161
360.000000 0.6231 0.6294 0.6347 0.6399 0.6448
365.000000 0.6489 0.6522 0.6541 0.6555 0.6559
370.000000 0.6563 0.6564 0.6562 0.6591 0.6687
375.000000 0.6818 0.6909 0.6995 0.7045 0.7068
380.000000 0.7077 0.7085 0.7099 0.7160 0.7267
385.000000 0.7359 0.7464 0.7481 0.7484 0.7489
390.000000 0.7472 0.7449 0.7418 0.7392 0.7359
395.000000 0.7327 0.7298 0.7257 0.7178 0.7113
400.000000 0.7097 0.7082 0.7077 0.7075 0.7079
405.000000 0.7090 0.7179 0.7421 0.7663 0.7904
410.000000 0.8034 0.8063 0.8077 0.8080 0.8084
415.000000 0.8078 0.8077 0.8074 0.8070 0.8063
420.000000 0.8055 0.8040 0.8019 0.7993 0.7892
425.000000 0.7781 0.7602 0.7386 0.7170 0.6955
430.000000 0.6739 0.6640 0.6707 0.7081 0.7454
435.000000 0.7827 0.8105 0.8212 0.8267 0.8294
440.000000 0.8313 0.8333 0.8405 0.8447 0.8466
445.000000 0.8478 0.8491 0.8507 0.8524 0.8535
450.000000 0.8544 0.8554 0.8564 0.8573 0.8583
455.000000 0.8592 0.8601 0.8608 0.8614 0.8620
460.000000 0.8638 0.8618 0.8607 0.8590 0.8570
465.000000 0.8546 0.8515 0.8451 0.8390 0.8298
470.000000 0.8201 0.8068 0.7910 0.7751 0.7593
475.000000 0.7478 0.7483 0.7479 0.7817 0.8050
480.000000 0.8282 0.8515 0.8628 0.8651 0.8692
485.000000 0.8663 0.8660 0.8648 0.8619 0.8584
490.000000 0.8550 0.8519 0.8477 0.8417 0.8306
495.000000 0.8196 0.8085 0.7975 0.7889 0.7853
500.000000 0.7859 0.7909 0.8112 0.8314 0.8516
505.000000 0.8718 0.8854 0.8891 0.8906 0.8893
510.000000 0.8909 0.8909 0.8909 0.8909 0.8908
515.000000 0.8905 0.8902 0.8899 0.8896 0.8894
520.000000 0.8892 0.8890 0.8887 0.8886 0.8886
525.000000 0.8885 0.8884 0.8883 0.8882 0.8880
530.000000 0.8879 0.8878 0.8876 0.8873 0.8870
535.000000 0.8866 0.8863 0.8859 0.8853 0.8847
540.000000 0.8840 0.8834 0.8828 0.8821 0.8812
545.000000 0.8803 0.8795 0.8785 0.8768 0.8752
550.000000 0.8735 0.8719 0.8700 0.8680 0.8661
555.000000 0.8657 0.8656 0.8673 0.8695 0.8717
560.000000 0.8721 0.8721 0.8722 0.8717 0.8711
565.000000 0.8705 0.8699 0.8691 0.8680 0.8670
570.000000 0.8659 0.8648 0.8637 0.8625 0.8610
575.000000 0.8595 0.8580 0.8565 0.8547 0.8527
580.000000 0.8504 0.8481 0.8458 0.8432 0.8398
585.000000 0.8364 0.8330 0.8284 0.8232 0.8167
590.000000 0.8077 0.7976 0.7850 0.7710 0.7595
595.000000 0.7481 0.7344 0.7045 0.6652 0.6258
600.000000 0.5865 0.5657 0.5643 0.5392 0.4958
605.000000 0.4523 0.4089 0.3655 0.3221 0.3022
610.000000 0.2873 0.2782 0.2781 0.2802 0.3081
615.000000 0.3518 0.3955 0.4393 0.4830 0.5267
620.000000 0.5704 0.6141 0.6579 0.8039 0.8223
625.000000 0.8335 0.8446 0.8537 0.8604 0.8645
630.000000 0.8687 0.8707 0.8720 0.8732 0.8743
635.000000 0.8755 0.8769 0.8790 0.8798 0.8801
640.000000 0.8786 0.8795 0.8789 0.8780 0.8772
645.000000 0.8763 0.8754 0.8746 0.8738 0.8730
650.000000 0.8722 0.8714 0.8707 0.8699 0.8692
655.000000 0.8685 0.8678 0.8672 0.8666 0.8660
660.000000 0.8654 0.8647 0.8639 0.8630 0.8617
665.000000 0.8600 0.8583 0.8566 0.8549 0.8525
670.000000 0.8498 0.8471 0.8437 0.8400 0.8364
675.000000 0.8302 0.8235 0.8166 0.8083 0.8000
680.000000 0.7885 0.7762 0.7644 0.7527 0.7407
685.000000 0.6758 0.6057 0.5356 0.4655 0.3953
690.000000 0.3252 0.2946 0.2945 0.3558 0.4417
695.000000 0.5277 0.6136 0.6740 0.6751 0.6766
700.000000 0.6670 0.6126 0.5583 0.5040 0.4497
705.000000 0.3953 0.3410 0.2867 0.2520 0.2536
710.000000 0.3311 0.4794 0.6278 0.6605 0.6928
715.000000 0.7106 0.7277 0.7421 0.7684 0.7830
720.000000 0.7904 0.7978 0.8043 0.8105 0.8144
725.000000 0.8182 0.8212 0.8234 0.8256 0.8277
730.000000 0.8292 0.8307 0.8323 0.8328 0.8334
735.000000 0.8339 0.8344 0.8347 0.8355 0.8349
740.000000 0.8345 0.8341 0.8334 0.8325 0.8317
745.000000 0.8306 0.8294 0.8265 0.8235 0.8193
750.000000 0.8135 0.8062 0.7974 0.7557 0.7127
755.000000 0.6696 0.6266 0.5835 0.5405 0.4975
760.000000 0.4544 0.4356 0.4361 0.4995 0.6034
765.000000 0.7870 0.8168 0.8464 0.8530 0.8588
770.000000 0.8625 0.8650 0.8675 0.8694 0.8711
775.000000 0.8727 0.8737 0.8746 0.8755 0.8759
780.000000 0.8758 0.8757 0.8756 0.8755 0.8754
785.000000 0.8754 0.8753 0.8752 0.8750 0.8748
790.000000 0.8746 0.8744 0.8743 0.8741 0.8739
795.000000 0.8736 0.8731 0.8726 0.8721 0.8716
800.000000 0.8711 0.8707 0.8708 0.8727 0.8709
805.000000 0.8710 0.8711 0.8712 0.8717 0.8723
810.000000 0.8728 0.8754 0.8783 0.8812 0.8835
815.000000 0.8855 0.8864 0.8866 0.8867 0.8867
820.000000 0.8867 0.8865 0.8863 0.8862 0.8860
825.000000 0.8858 0.8855 0.8852 0.8849 0.8846
830.000000 0.8841 0.8832 0.8824 0.8815 0.8806
835.000000 0.8787 0.8767 0.8757 0.8748 0.8739
840.000000 0.8736 0.8734 0.8732 0.8731 0.8730
845.000000 0.8729 0.8729 0.8728 0.8727 0.8725
850.000000 0.8724 0.8722 0.8721 0.8720 0.8720
855.000000 0.8719 0.8718 0.8718 0.8717 0.8718
860.000000 0.8718 0.8718 0.8718 0.8718 0.8718
865.000000 0.8718 0.8717 0.8717 0.8717 0.8716
870.000000 0.8716 0.8715 0.8714 0.8712 0.8711
875.000000 0.8709 0.8706 0.8692 0.8679 0.8665
880.000000 0.8642 0.8622 0.8612 0.8606 0.8606
885.000000 0.8606 0.8611 0.8616 0.8626 0.8639
890.000000 0.8645 0.8642 0.8639 0.8636 0.8633
895.000000 0.8626 0.8619 0.8611 0.8601 0.8587
900.000000 0.8563 0.8510 0.8346 0.8264 0.8229
905.000000 0.8222 0.8225 0.8229 0.8402 0.8495
910.000000 0.8573 0.8592 0.8592 0.8589 0.8586
915.000000 0.8583 0.8580 0.8576 0.8571 0.8567
920.000000 0.8562 0.8560 0.8557 0.8554 0.8550
925.000000 0.8545 0.8541 0.8537 0.8532 0.8527
930.000000 0.8521 0.8516 0.8511 0.8504 0.8498
935.000000 0.8491 0.8485 0.8475 0.8463 0.8451
940.000000 0.8439 0.8426 0.8418 0.8411 0.8403
945.000000 0.8395 0.8386 0.8378 0.8371 0.8364
950.000000 0.8357 0.8350 0.8342 0.8333 0.8322
955.000000 0.8307 0.8292 0.8277 0.8262 0.8248
960.000000 0.8230 0.8210 0.8191 0.8171 0.8149
965.000000 0.8127 0.8105 0.8074 0.8029 0.7973
970.000000 0.7911 0.7833 0.7672 0.7475 0.7278
975.000000 0.7099 0.7018 0.6987 0.6977 0.6978
980.000000 0.7374 0.7614 0.7853 0.8038 0.8061
985.000000 0.8045 0.8039 0.8024 0.8008 0.7986
990.000000 0.7935 0.7887 0.7831 0.7741 0.7654
995.000000 0.7545 0.7421 0.7282 0.7116 0.6937
1000.000000 0.6758 0.6578 0.6530 0.6542 0.6615
1005.000000 0.6771 0.6927 0.7083 0.7239 0.7311
1010.000000 0.7325 0.7321 0.7313 0.7300 0.7284
1015.000000 0.7264 0.7241 0.7214 0.7157 0.7080
1020.000000 0.6905 0.6681 0.6457 0.6232 0.6008
1025.000000 0.5784 0.5560 0.5336 0.5164 0.5142
1030.000000 0.5169 0.5492 0.5814 0.6137 0.6459
1035.000000 0.6522 0.6522 0.6526 0.6506 0.6494
1040.000000 0.6473 0.6454 0.6431 0.6397 0.6361
1045.000000 0.6308 0.6248 0.6203 0.6159 0.6116
1050.000000 0.6059 0.5981 0.5903 0.5824 0.5746
1055.000000 0.5667 0.5589 0.5510 0.5428 0.5345
1060.000000 0.5218 0.5012 0.4772 0.4633 0.4459
1065.000000 0.4207 0.4083 0.3949 0.3843 0.3744
1070.000000 0.3631 0.3512 0.3413 0.3315 0.3223
1075.000000 0.3131 0.3038 0.2943 0.2848 0.2769
1080.000000 0.2696 0.2623 0.2554 0.2485 0.2416
1085.000000 0.2349 0.2283 0.2218 0.2154 0.2090
1090.000000 0.2026 0.1963 0.1899 0.1847 0.1799
1095.000000 0.1775 0.1755 0.1740 0.1729 0.1741
1100.000000 0.1721 0.1725 0.1730 0.1742 0.1755
1105.000000 0.1769 0.1791 0.1812 0.1833 0.1855
1110.000000 0.1876 0.1898 0.1906 0.1914 0.1919
1115.000000 0.1922 0.1925 0.1925 0.1925 0.1925
1120.000000 0.1933 0.1941 0.1949 0.1961 0.1976
1125.000000 0.1991 0.2009 0.2032 0.2055 0.2079
1130.000000 0.2105 0.2132 0.2158 0.2185 0.2213
1135.000000 0.2241 0.2270 0.2310 0.2350 0.2395
1140.000000 0.2443 0.2490 0.2538 0.2581 0.2621
1145.000000 0.2664 0.2718 0.2773 0.2828 0.2882
1150.000000 0.2932 0.2994 0.3092 0.3137 0.3158
1155.000000 0.3168 0.3174 0.3180 0.3193 0.3323
1160.000000 0.3466 0.3609 0.3752 0.3895 0.4038
1165.000000 0.4181 0.4324 0.4452 0.4490 0.4532
1170.000000 0.4560 0.4574 0.4587 0.4602 0.4624
1175.000000 0.4665 0.4827 0.5000 0.5173 0.5345
1180.000000 0.5464 0.5584 0.5711 0.5804 0.5865
1185.000000 0.5926 0.5987 0.6040 0.6087 0.6131
1190.000000 0.6151 0.6172 0.6192 0.6209 0.6220
1195.000000 0.6232 0.6243 0.6257 0.6270 0.6284
1200.000000 0.6298 0.6317 0.6339 0.6361 0.6385
1205.000000 0.6410 0.6435 0.6466 0.6498 0.6536
1210.000000 0.6568 0.6580 0.6583 0.6587 0.6590
1215.000000 0.6593 0.6597 0.6601 0.6611 0.6607
1220.000000 0.6609 0.6611 0.6610 0.6609 0.6608
1225.000000 0.6603 0.6594 0.6583 0.6571 0.6560
1230.000000 0.6548 0.6530 0.6512 0.6486 0.6453
1235.000000 0.6420 0.6368 0.6310 0.6240 0.6167
1240.000000 0.6092 0.6013 0.5986 0.5962 0.5991
1245.000000 0.6028 0.6076 0.6170 0.6312 0.6454
1250.000000 0.6595 0.6737 0.6898 0.6958 0.6998
1255.000000 0.7027 0.7042 0.7046 0.7047 0.7040
1260.000000 0.7033 0.7018 0.6982 0.6946 0.6917
1265.000000 0.6924 0.6931 0.6939 0.6954 0.6968
1270.000000 0.6999 0.7041 0.7089 0.7133 0.7169
1275.000000 0.7181 0.7190 0.7196 0.7198 0.7201
1280.000000 0.7203 0.7205 0.7207 0.7209 0.7211
1285.000000 0.7211 0.7209 0.7212 0.7205 0.7200
1290.000000 0.7195 0.7190 0.7188 0.7186 0.7185
1295.000000 0.7184 0.7183 0.7182 0.7187 0.7193
1300.000000 0.7198 0.7203 0.7208 0.7219 0.7232
1305.000000 0.7244 0.7243 0.7241 0.7238 0.7224
1310.000000 0.7210 0.7194 0.7177 0.7160 0.7143
1315.000000 0.7125 0.7105 0.7085 0.7061 0.7037
1320.000000 0.7012 0.6972 0.6894 0.6773 0.6653
1325.000000 0.6533 0.6436 0.6384 0.6360 0.6348
1330.000000 0.6336 0.6314 0.6256 0.6150 0.6129
1335.000000 0.6123 0.6115 0.6138 0.6493 0.6891
1340.000000 0.6942 0.6962 0.6951 0.6940 0.6923
1345.000000 0.6904 0.6884 0.6865 0.6842 0.6820
1350.000000 0.6796 0.6770 0.6743 0.6705 0.6662
1355.000000 0.6573 0.6471 0.6364 0.6269 0.6175
1360.000000 0.6096 0.6018 0.5806 0.5569 0.5421
1365.000000 0.5312 0.5109 0.5002 0.4799 0.4534
1370.000000 0.4002 0.3470 0.2938 0.2872 0.2880
1375.000000 0.3931 0.4734 0.5037 0.5152 0.5266
1380.000000 0.5385 0.5389 0.5402 0.5372 0.5331
1385.000000 0.5093 0.4817 0.4542 0.4266 0.3991
1390.000000 0.3976 0.4899 0.5842 0.6584 0.6617
1395.000000 0.6635 0.6641 0.6644 0.6646 0.6648
1400.000000 0.6654 0.6756 0.6907 0.7059 0.7168
1405.000000 0.7217 0.7234 0.7242 0.7222 0.7237
1410.000000 0.7227 0.7138 0.7013 0.6887 0.6762
1415.000000 0.6636 0.6511 0.6386 0.6260 0.6236
1420.000000 0.6273 0.6340 0.6399 0.6403 0.6405
1425.000000 0.6315 0.6164 0.6012 0.5860 0.5709
1430.000000 0.5557 0.5405 0.5253 0.5102 0.4950
1435.000000 0.4798 0.4647 0.4495 0.4343 0.4191
1440.000000 0.4040 0.3888 0.3736 0.3585 0.3433
1445.000000 0.3240 0.3139 0.3045 0.2955 0.2875
1450.000000 0.2804 0.2743 0.2704 0.2689 0.2684
1455.000000 0.2685 0.2688 0.2691 0.2696 0.2704
1460.000000 0.2722 0.2741 0.2767 0.2796 0.2836
1465.000000 0.2935 0.3067 0.3200 0.3332 0.3497
1470.000000 0.3520 0.3530 0.3539 0.3555 0.3942
1475.000000 0.4347 0.4752 0.5157 0.5561 0.5983
1480.000000 0.6106 0.6155 0.6180 0.6194 0.6204
1485.000000 0.6212 0.6219 0.6225 0.6257 0.6424
1490.000000 0.6568 0.6711 0.6854 0.6998 0.7141
1495.000000 0.7284 0.7428 0.7589 0.7692 0.7761
1500.000000 0.7809 0.7830 0.7851 0.7862 0.7871
1505.000000 0.7877 0.7881 0.7885 0.7890 0.7894
1510.000000 0.7896 0.7887 0.7899 0.7901 0.7902
1515.000000 0.7899 0.7896 0.7892 0.7889 0.7882
1520.000000 0.7874 0.7866 0.7856 0.7844 0.7833
1525.000000 0.7822 0.7810 0.7798 0.7786 0.7774
1530.000000 0.7761 0.7749 0.7738 0.7726 0.7715
1535.000000 0.7703 0.7692 0.7684 0.7678 0.7672
1540.000000 0.7666 0.7660 0.7660 0.7664 0.7668
1545.000000 0.7672 0.7675 0.7676 0.7676 0.7670
1550.000000 0.7664 0.7658 0.7652 0.7644 0.7637
1555.000000 0.7629 0.7621 0.7612 0.7602 0.7592
1560.000000 0.7574 0.7556 0.7530 0.7494 0.7380
1565.000000 0.7260 0.7080 0.6911 0.6653 0.6394
1570.000000 0.6136 0.5878 0.5619 0.5361 0.5103
1575.000000 0.4845 0.4586 0.4328 0.4082 0.4046
1580.000000 0.4035 0.4050 0.4153 0.4270 0.4782
1585.000000 0.5235 0.5687 0.6139 0.6591 0.7043
1590.000000 0.7143 0.7126 0.7105 0.7081 0.7070
1595.000000 0.7122 0.7212 0.7302 0.7393 0.7483
1600.000000 0.7573 0.7663 0.7753 0.7763 0.7763
1605.000000 0.7747 0.7731 0.7717 0.7704 0.7691
1610.000000 0.7693 0.7698 0.7704 0.7718 0.7737
1615.000000 0.7754 0.7770 0.7782 0.7791 0.7791
1620.000000 0.7774 0.7759 0.7744 0.7742 0.7750
1625.000000 0.7765 0.7794 0.7841 0.7953 0.7988
1630.000000 0.7957 0.7907 0.7849 0.7718 0.7645
1635.000000 0.7656 0.7693 0.7729 0.7765 0.7801
1640.000000 0.7838 0.7874 0.7962 0.7946 0.7958
1645.000000 0.7957 0.7956 0.7954 0.7950 0.7947
1650.000000 0.7941 0.7935 0.7929 0.7923 0.7917
1655.000000 0.7911 0.7904 0.7903 0.7902 0.7901
1660.000000 0.7901 0.7904 0.7907 0.7913 0.7928
1665.000000 0.7936 0.7941 0.7946 0.7948 0.7945
1670.000000 0.7942 0.7938 0.7934 0.7929 0.7924
1675.000000 0.7920 0.7915 0.7910 0.7906 0.7901
1680.000000 0.7897 0.7904 0.7924 0.7939 0.7953
1685.000000 0.7967 0.7986 0.8005 0.8029 0.8057
1690.000000 0.8088 0.8122 0.8150 0.8175 0.8181
1695.000000 0.8175 0.8169 0.8154 0.8126 0.8093
1700.000000 0.8053 0.8015 0.7985 0.7954 0.7925
1705.000000 0.7896 0.7880 0.7868 0.7862 0.7861
1710.000000 0.7860 0.7859 0.7859 0.7859 0.7861
1715.000000 0.7864 0.7867 0.7870 0.7869 0.7865
1720.000000 0.7838 0.7809 0.7770 0.7721 0.7706
1725.000000 0.7691 0.7683 0.7677 0.7672 0.7667
1730.000000 0.7662 0.7657 0.7652 0.7641 0.7648
1735.000000 0.7645 0.7651 0.7658 0.7671 0.7688
1740.000000 0.7708 0.7729 0.7749 0.7767 0.7785
1745.000000 0.7802 0.7817 0.7832 0.7847 0.7857
1750.000000 0.7865 0.7873 0.7882 0.7897 0.7913
1755.000000 0.7928 0.7955 0.7982 0.8011 0.8046
1760.000000 0.8081 0.8108 0.8131 0.8148 0.8159
1765.000000 0.8170 0.8174 0.8179 0.8183 0.8186
1770.000000 0.8187 0.8188 0.8189 0.8190 0.8191
1775.000000 0.8191 0.8147 0.8191 0.8191 0.8189
1780.000000 0.8187 0.8185 0.8184 0.8182 0.8180
1785.000000 0.8175 0.8169 0.8164 0.8158 0.8153
1790.000000 0.8147 0.8142 0.8135 0.8127 0.8120
1795.000000 0.8112 0.8105 0.8098 0.8090 0.8084
1800.000000 0.8078 0.8073 0.8067 0.8062 0.8056
1805.000000 0.8051 0.8047 0.8045 0.8043 0.8040
1810.000000 0.8038 0.8036 0.8034 0.8032 0.8031
1815.000000 0.8030 0.8029 0.8028 0.8027 0.8026
1820.000000 0.8028 0.8029 0.8030 0.8031 0.8032
1825.000000 0.8034 0.8035 0.8038 0.8041 0.8044
1830.000000 0.8047 0.8050 0.8053 0.8056 0.8056
1835.000000 0.8057 0.8058 0.8059 0.8060 0.8060
1840.000000 0.8059 0.8057 0.8056 0.8052 0.8049
1845.000000 0.8046 0.8043 0.8037 0.8028 0.8018
1850.000000 0.8009 0.8000 0.7991 0.7982 0.7972
1855.000000 0.7963 0.7954 0.7945 0.7936 0.7927
1860.000000 0.7917 0.7908 0.7899 0.7890 0.7881
1865.000000 0.7873 0.7863 0.7841 0.7818 0.7787
1870.000000 0.7755 0.7714 0.7661 0.7610 0.7567
1875.000000 0.7567 0.7547 0.7567 0.7571 0.7582
1880.000000 0.7602 0.7636 0.7708 0.7795 0.7894
1885.000000 0.7952 0.7978 0.7988 0.7990 0.7988
1890.000000 0.7985 0.7982 0.7978 0.7975 0.7973
1895.000000 0.7970 0.7968 0.7966 0.7964 0.7965
1900.000000 0.7965 0.7965 0.7973 0.7964 0.7962
1905.000000 0.7960 0.7955 0.7949 0.7940 0.7923
1910.000000 0.7907 0.7893 0.7878 0.7860 0.7843
1915.000000 0.7825 0.7806 0.7783 0.7761 0.7738
1920.000000 0.7713 0.7658 0.7604 0.7563 0.7523
1925.000000 0.7482 0.7443 0.7404 0.7365 0.7341
1930.000000 0.7325 0.7313 0.7329 0.7351 0.7379
1935.000000 0.7409 0.7449 0.7488 0.7524 0.7554
1940.000000 0.7568 0.7570 0.7570 0.7569 0.7567
1945.000000 0.7567 0.7567 0.7567 0.7602 0.7638
1950.000000 0.7692 0.7747 0.7798 0.7836 0.7855
1955.000000 0.7861 0.7865 0.7869 0.7869 0.7869
1960.000000 0.7868 0.7868 0.7867 0.7866 0.7864
1965.000000 0.7861 0.7858 0.7856 0.7853 0.7849
1970.000000 0.7845 0.7841 0.7836 0.7825 0.7811
1975.000000 0.7790 0.7770 0.7753 0.7735 0.7718
1980.000000 0.7703 0.7692 0.7681 0.7671 0.7672
1985.000000 0.7674 0.7679 0.7686 0.7694 0.7701
1990.000000 0.7709 0.7717 0.7729 0.7747 0.7768
1995.000000 0.7789 0.7783 0.7769 0.7722 0.7671
2000.000000 0.7628 0.7589 0.7550 0.7535 0.7521
2005.000000 0.7509 0.7497 0.7498 0.7500 0.7504
2010.000000 0.7508 0.7515 0.7523 0.7532 0.7542
2015.000000 0.7553 0.7565 0.7575 0.7585 0.7595
2020.000000 0.7605 0.7614 0.7624 0.7633 0.7642
2025.000000 0.7651 0.7660 0.7665 0.7671 0.7675
2030.000000 0.7680 0.7683 0.7687 0.7688 0.7690
2035.000000 0.7688 0.7686 0.7683 0.7680 0.7677
2040.000000 0.7674 0.7671 0.7668 0.7664 0.7660
2045.000000 0.7656 0.7652 0.7648 0.7644 0.7639
2050.000000 0.7634 0.7627 0.7620 0.7611 0.7602
2055.000000 0.7592 0.7582 0.7571 0.7561 0.7549
2060.000000 0.7537 0.7520 0.7504 0.7488 0.7472
2065.000000 0.7461 0.7450 0.7439 0.7429 0.7422
2070.000000 0.7416 0.7415 0.7415 0.7414 0.7413
2075.000000 0.7401 0.7390 0.7376 0.7363 0.7354
2080.000000 0.7346 0.7344 0.7342 0.7349 0.7356
2085.000000 0.7367 0.7379 0.7390 0.7402 0.7414
2090.000000 0.7427 0.7439 0.7452 0.7463 0.7474
2095.000000 0.7485 0.7497 0.7505 0.7514 0.7515
2100.000000 0.7517 0.7516 0.7516 0.7515 0.7515
2105.000000 0.7514 0.7513 0.7512 0.7512 0.7511
2110.000000 0.7510 0.7509 0.7508 0.7507 0.7506
2115.000000 0.7504 0.7503 0.7502 0.7501 0.7499
2120.000000 0.7498 0.7497 0.7496 0.7494 0.7493
2125.000000 0.7491 0.7490 0.7489 0.7488 0.7486
2130.000000 0.7485 0.7483 0.7482 0.7481 0.7481
2135.000000 0.7480 0.7479 0.7478 0.7477 0.7476
2140.000000 0.7476 0.7475 0.7474 0.7472 0.7471
2145.000000 0.7470 0.7469 0.7468 0.7467 0.7465
2150.000000 0.7464 0.7459 0.7454 0.7449 0.7444
2155.000000 0.7439 0.7434 0.7429 0.7424 0.7419
2160.000000 0.7414 0.7410 0.7407 0.7403 0.7400
2165.000000 0.7396 0.7393 0.7389 0.7385 0.7381
2170.000000 0.7378 0.7374 0.7371 0.7367 0.7364
2175.000000 0.7361 0.7359 0.7356 0.7354 0.7351
2180.000000 0.7349 0.7347 0.7345 0.7342 0.7340
2185.000000 0.7337 0.7335 0.7333 0.7331 0.7329
2190.000000 0.7327 0.7326 0.7326 0.7325 0.7324
2195.000000 0.7323 0.7322 0.7321 0.7320 0.7319
2200.000000 0.7319 0.7318 0.7317 0.7316 0.7315
2205.000000 0.7314 0.7314 0.7314 0.7315 0.7316
2210.000000 0.7317 0.7318 0.7319 0.7320 0.7321
2215.000000 0.7322 0.7324 0.7326 0.7329 0.7332
2220.000000 0.7335 0.7337 0.7340 0.7343 0.7346
2225.000000 0.7348 0.7351 0.7354 0.7357 0.7357
2230.000000 0.7358 0.7358 0.7358 0.7351 0.7345
2235.000000 0.7336 0.7327 0.7299 0.7271 0.7252
2240.000000 0.7233 0.7204 0.7176 0.7157 0.7139
2245.000000 0.7125 0.7111 0.7095 0.7080 0.7065
2250.000000 0.7050 0.7042 0.7035 0.7033 0.7032
2255.000000 0.7032 0.7032 0.7033 0.7035 0.7038
2260.000000 0.7041 0.7043 0.7045 0.7046 0.7048
2265.000000 0.7045 0.7043 0.7039 0.7036 0.7031
2270.000000 0.7026 0.7020 0.7014 0.7002 0.6991
2275.000000 0.6978 0.6966 0.6958 0.6950 0.6941
2280.000000 0.6933 0.6925 0.6917 0.6908 0.6900
2285.000000 0.6891 0.6883 0.6874 0.6866 0.6860
2290.000000 0.6855 0.6849 0.6843 0.6837 0.6832
2295.000000 0.6826 0.6821 0.6815 0.6809 0.6803
2300.000000 0.6797 0.6790 0.6784 0.6775 0.6766
2305.000000 0.6756 0.6746 0.6736 0.6726 0.6715
2310.000000 0.6705 0.6693 0.6681 0.6669 0.6657
2315.000000 0.6644 0.6632 0.6621 0.6611 0.6601
2320.000000 0.6591 0.6580 0.6570 0.6558 0.6546
2325.000000 0.6533 0.6520 0.6507 0.6494 0.6481
2330.000000 0.6468 0.6454 0.6441 0.6427 0.6413
2335.000000 0.6399 0.6385 0.6371 0.6357 0.6344
2340.000000 0.6331 0.6321 0.6312 0.6302 0.6293
2345.000000 0.6283 0.6274 0.6263 0.6252 0.6238
2350.000000 0.6225 0.6211 0.6198 0.6182 0.6166
2355.000000 0.6150 0.6134 0.6118 0.6102 0.6085
2360.000000 0.6068 0.6051 0.6034 0.6017 0.6001
2365.000000 0.5984 0.5967 0.5941 0.5916 0.5885
2370.000000 0.5855 0.5825 0.5795 0.5754 0.5714
2375.000000 0.5667 0.5621 0.5557 0.5494 0.5426
2380.000000 0.5358 0.5318 0.5279 0.5241 0.5203
2385.000000 0.5175 0.5148 0.5120 0.5093 0.5069
2390.000000 0.5045 0.5024 0.5003 0.4983 0.4964
2395.000000 0.4948 0.4932 0.4914 0.4896 0.4802
2400.000000 0.4708 0.4565 0.4423 0.4342 0.4262
2405.000000 0.4198 0.4135 0.4045 0.3955 0.3827
2410.000000 0.3700 0.3572 0.3445 0.3317 0.3189
2415.000000 0.3061 0.2934 0.2826 0.2718 0.2678
2420.000000 0.2638 0.2629 0.2621 0.2622 0.2637
2425.000000 0.2653 0.2684 0.2912 0.3140 0.3368
2430.000000 0.3596 0.3824 0.4052 0.4280 0.4508
2435.000000 0.4736 0.4964 0.5196 0.5429 0.5478
2440.000000 0.5528 0.5571 0.5615 0.5663 0.5711
2445.000000 0.5762 0.5814 0.5870 0.5927 0.5978
2450.000000 0.6029 0.6083 0.6138 0.6177 0.6217
2455.000000 0.6237 0.6258 0.6269 0.6281 0.6283
2460.000000 0.6286 0.6285 0.6290 0.6280 0.6277
2465.000000 0.6272 0.6267 0.6259 0.6251 0.6242
2470.000000 0.6234 0.6226 0.6219 0.6215 0.6212
2475.000000 0.6204 0.6197 0.6186 0.6175 0.6161
2480.000000 0.6148 0.6130 0.6113 0.6094 0.6075
2485.000000 0.6056 0.6037 0.6019 0.6001 0.5983
2490.000000 0.5965 0.5933 0.5901 0.5870 0.5840
2495.000000 0.5809 0.5779 0.5755 0.5732 0.5729
2500.000000 0.5727 0.5728 0.5730 0.5742 0.5754
2505.000000 0.5786 0.5818 0.5827 0.5837 0.5839
2510.000000 0.5842 0.5842 0.5842 0.5841 0.5841
2515.000000 0.5836 0.5831 0.5825 0.5820 0.5809
2520.000000 0.5799 0.5778 0.5758 0.5735 0.5713
2525.000000 0.5670 0.5627 0.5594 0.5562 0.5522
2530.000000 0.5482 0.5442 0.5402 0.5365 0.5328
2535.000000 0.5289 0.5250 0.5211 0.5172 0.5141
2540.000000 0.5111 0.5083 0.5055 0.5044 0.5034
2545.000000 0.5025 0.5016 0.5010 0.5005 0.5000
2550.000000 0.4995 0.4965 0.4935 0.4905 0.4875
2555.000000 0.4843 0.4811 0.4776 0.4741 0.4707
2560.000000 0.4674 0.4649 0.4624 0.4607 0.4591
2565.000000 0.4580 0.4569 0.4568 0.4567 0.4566
2570.000000 0.4569 0.4569 0.4572 0.4585 0.4598
2575.000000 0.4620 0.4643 0.4676 0.4709 0.4748
2580.000000 0.4788 0.4831 0.4875 0.4931 0.4988
2585.000000 0.5024 0.5061 0.5070 0.5080 0.5078
2590.000000 0.5077 0.5074 0.5065 0.5070 0.5068
2595.000000 0.5063 0.5058 0.5047 0.5036 0.5021
2600.000000 0.5007 0.4988 0.4970 0.4941 0.4912
2605.000000 0.4880 0.4848 0.4817 0.4787 0.4756
2610.000000 0.4726 0.4695 0.4665 0.4634 0.4604
2615.000000 0.4573 0.4542 0.4511 0.4481 0.4450
2620.000000 0.4420 0.4389 0.4359 0.4328 0.4297
2625.000000 0.4266 0.4236 0.4205 0.4175 0.4144
2630.000000 0.4114 0.4083 0.4053 0.4022 0.3991
2635.000000 0.3960 0.3930 0.3899 0.3869 0.3838
2640.000000 0.3808 0.3777 0.3746 0.3715 0.3685
2645.000000 0.3655 0.3626 0.3601 0.3577 0.3553
2650.000000 0.3530 0.3502 0.3474 0.3447 0.3420
2655.000000 0.3391 0.3363 0.3321 0.3279 0.3227
2660.000000 0.3175 0.3102 0.3030 0.2929 0.2828
2665.000000 0.2786 0.2744 0.2710 0.2676 0.2640
2670.000000 0.2604 0.2574 0.2545 0.2523 0.2501
2675.000000 0.2472 0.2444 0.2435 0.2426 0.2424
2680.000000 0.2423 0.2428 0.2434 0.2446 0.2459
2685.000000 0.2498 0.2537 0.2554 0.2572 0.2577
2690.000000 0.2583 0.2584 0.2585 0.2584 0.2584
2695.000000 0.2577 0.2570 0.2541 0.2512 0.2462
2700.000000 0.2413 0.2364 0.2315 0.2265 0.2216
2705.000000 0.2166 0.2117 0.2068 0.2019 0.1974
2710.000000 0.1929 0.1904 0.1880 0.1859 0.1838
2715.000000 0.1818 0.1799 0.1779 0.1760 0.1742
2720.000000 0.1724 0.1706 0.1689 0.1675 0.1661
2725.000000 0.1654 0.1647 0.1643 0.1640 0.1637
2730.000000 0.1634 0.1631 0.1629 0.1626 0.1624
2735.000000 0.1621 0.1618 0.1615 0.1612 0.1607
2740.000000 0.1602 0.1594 0.1586 0.1574 0.1562
2745.000000 0.1550 0.1539 0.1528 0.1517 0.1502
2750.000000 0.1487 0.1480 0.1473 0.1472 0.1471
2755.000000 0.1469 0.1495 0.1470 0.1472 0.1475
2760.000000 0.1478 0.1483 0.1489 0.1496 0.1503
2765.000000 0.1512 0.1521 0.1529 0.1538 0.1553
2770.000000 0.1568 0.1585 0.1603 0.1619 0.1635
2775.000000 0.1652 0.1670 0.1689 0.1708 0.1728
2780.000000 0.1749 0.1769 0.1790 0.1811 0.1833
2785.000000 0.1852 0.1872 0.1887 0.1902 0.1907
2790.000000 0.1912 0.1914 0.1916 0.1917 0.1918
2795.000000 0.1918 0.1919 0.1918 0.1918 0.1917
2800.000000 0.1917 0.1912 0.1907 0.1896 0.1886
2805.000000 0.1869 0.1852 0.1832 0.1812 0.1789
2810.000000 0.1767 0.1748 0.1729 0.1710 0.1691
2815.000000 0.1675 0.1659 0.1645 0.1631 0.1620
2820.000000 0.1609 0.1601 0.1593 0.1587 0.1581
2825.000000 0.1569 0.1557 0.1537 0.1517 0.1497
2830.000000 0.1477 0.1457 0.1437 0.1426 0.1415
2835.000000 0.1412 0.1409 0.1407 0.1405 0.1405
2840.000000 0.1405 0.1405 0.1405 0.1406 0.1407
2845.000000 0.1408 0.1410 0.1411 0.1413 0.1415
2850.000000 0.1417 0.1418 0.1420 0.1422 0.1425
2855.000000 0.1427 0.1429 0.1431 0.1434 0.1434
2860.000000 0.1435 0.1436 0.1437 0.1437 0.1437
2865.000000 0.1435 0.1433 0.1431 0.1430 0.1428
2870.000000 0.1426 0.1423 0.1420 0.1417 0.1414
2875.000000 0.1411 0.1408 0.1405 0.1402 0.1399
2880.000000 0.1396 0.1393 0.1390 0.1387 0.1384
2885.000000 0.1382 0.1380 0.1380 0.1380 0.1380
2890.000000 0.1380 0.1380 0.1381 0.1381 0.1382
2895.000000 0.1382 0.1383 0.1383 0.1384 0.1386
2900.000000 0.1388 0.1391 0.1394 0.1397 0.1401
2905.000000 0.1404 0.1408 0.1411 0.1415 0.1418
2910.000000 0.1421 0.1425 0.1429 0.1433 0.1437
2915.000000 0.1440 0.1443 0.1445 0.1447 0.1448
2920.000000 0.1450 0.1452 0.1454 0.1455 0.1457
2925.000000 0.1458 0.1460 0.1462 0.1464 0.1465
2930.000000 0.1467 0.1468 0.1469 0.1470 0.1471
2935.000000 0.1472 0.1473 0.1474 0.1475 0.1476
2940.000000 0.1477 0.1478 0.1480 0.1482 0.1485
2945.000000 0.1487 0.1490 0.1492 0.1495 0.1498
2950.000000 0.1501 0.1505 0.1509 0.1513 0.1517
2955.000000 0.1521 0.1525 0.1533 0.1541 0.1549
2960.000000 0.1557 0.1585 0.1613 0.1670 0.1728
2965.000000 0.1785 0.1842 0.1888 0.1935 0.1983
2970.000000 0.2032 0.2087 0.2142 0.2361 0.2580
2975.000000 0.2709 0.2838 0.2930 0.3023 0.3082
2980.000000 0.3141 0.3202 0.3264 0.3325 0.3387
2985.000000 0.3448 0.3509 0.3570 0.3632 0.3693
2990.000000 0.3755 0.3816 0.3877 0.3938 0.4000
2995.000000 0.4061 0.4123 0.4194 0.4265 0.4308
3000.000000 0.4351 0.4379 0.4407 0.4420 0.4434
3005.000000 0.4440 0.4446 0.4449 0.4452 0.4455
3010.000000 0.4458 0.4460 0.4463 0.4465 0.4468
3015.000000 0.4471 0.4474 0.4477 0.4480 0.4493
3020.000000 0.4507 0.4586 0.4666 0.4746 0.4826
3025.000000 0.4905 0.4985 0.5065 0.5145 0.5224
3030.000000 0.5304 0.5384 0.5464 0.5558 0.5652
3035.000000 0.5689 0.5727 0.5746 0.5765 0.5776
3040.000000 0.5787 0.5797 0.5807 0.5812 0.5818
3045.000000 0.5823 0.5829 0.5837 0.5845 0.5853
3050.000000 0.5861 0.5881 0.5901 0.5928 0.5956
3055.000000 0.5970 0.5984 0.5991 0.5998 0.6002
3060.000000 0.6007 0.6009 0.6011 0.6012 0.6014
3065.000000 0.6015 0.6016 0.6017 0.6019 0.6020
3070.000000 0.6021 0.6022 0.6024 0.6025 0.6026
3075.000000 0.6031 0.6037 0.6042 0.6048 0.6086
3080.000000 0.6124 0.6195 0.6266 0.6351 0.6436
3085.000000 0.6501 0.6566 0.6594 0.6623 0.6640
3090.000000 0.6657 0.6670 0.6683 0.6686 0.6690
3095.000000 0.6693 0.6696 0.6697 0.6699 0.6699
3100.000000 0.6699 0.6699 0.6699 0.6699 0.6699
3105.000000 0.6699 0.6699 0.6699 0.6700 0.6700
3110.000000 0.6700 0.6700 0.6700 0.6700 0.6700
3115.000000 0.6700 0.6700 0.6701 0.6702 0.6702
3120.000000 0.6703 0.6703 0.6704 0.6704 0.6704
3125.000000 0.6711 0.6718 0.6740 0.6763 0.6773
3130.000000 0.6783 0.6786 0.6789 0.6772 0.6755
3135.000000 0.6706 0.6776 0.6609 0.6561 0.6512
3140.000000 0.6464 0.6415 0.6367 0.6318 0.6270
3145.000000 0.6218 0.6166 0.6158 0.6150 0.6148
3150.000000 0.6146 0.6149 0.6173 0.6158 0.6165
3155.000000 0.6227 0.6290 0.6353 0.6416 0.6478
3160.000000 0.6541 0.6577 0.6614 0.6619 0.6625
3165.000000 0.6626 0.6627 0.6627 0.6628 0.6627
3170.000000 0.6627 0.6626 0.6636 0.6624 0.6624
3175.000000 0.6623 0.6623 0.6623 0.6623 0.6622
3180.000000 0.6622 0.6621 0.6621 0.6618 0.6616
3185.000000 0.6613 0.6611 0.6608 0.6606 0.6600
3190.000000 0.6595 0.6589 0.6583 0.6577 0.6571
3195.000000 0.6565 0.6560 0.6554 0.6549 0.6543
3200.000000 0.6538 0.6535 0.6532 0.6530 0.6528
3205.000000 0.6528 0.6528 0.6528 0.6528 0.6528
3210.000000 0.6528 0.6528 0.6529 0.6530 0.6531
3215.000000 0.6532 0.6533 0.6534 0.6536 0.6537
3220.000000 0.6539 0.6535 0.6531 0.6524 0.6517
3225.000000 0.6504 0.6492 0.6479 0.6467 0.6450
3230.000000 0.6433 0.6420 0.6407 0.6397 0.6388
3235.000000 0.6379 0.6370 0.6365 0.6360 0.6356
3240.000000 0.6352 0.6347 0.6343 0.6340 0.6337
3245.000000 0.6335 0.6333 0.6330 0.6328 0.6326
3250.000000 0.6324 0.6322 0.6320 0.6317 0.6315
3255.000000 0.6313 0.6311 0.6308 0.6306 0.6304
3260.000000 0.6302 0.6300 0.6298 0.6295 0.6293
3265.000000 0.6291 0.6289 0.6286 0.6284 0.6282
3270.000000 0.6280 0.6277 0.6275 0.6272 0.6270
3275.000000 0.6267 0.6265 0.6262 0.6260 0.6257
3280.000000 0.6254 0.6250 0.6246 0.6242 0.6239
3285.000000 0.6235 0.6231 0.6227 0.6224 0.6220
3290.000000 0.6217 0.6213 0.6209 0.6205 0.6202
3295.000000 0.6197 0.6193 0.6189 0.6185 0.6181
3300.000000 0.6177 0.6172 0.6168 0.6164 0.6160
3305.000000 0.6156 0.6152 0.6149 0.6147 0.6144
3310.000000 0.6142 0.6139 0.6136 0.6133 0.6131
3315.000000 0.6128 0.6126 0.6120 0.6115 0.6107
3320.000000 0.6100 0.6093 0.6086 0.6077 0.6069
3325.000000 0.6059 0.6049 0.6039 0.6030 0.6023
3330.000000 0.6016 0.6010 0.6005 0.5999 0.5994
3335.000000 0.5988 0.5982 0.5976 0.5971 0.5965
3340.000000 0.5960 0.5954 0.5949 0.5944 0.5939
3345.000000 0.5933 0.5928 0.5923 0.5918 0.5913
3350.000000 0.5908 0.5903 0.5898 0.5893 0.5888
3355.000000 0.5883 0.5878 0.5873 0.5868 0.5863
3360.000000 0.5858 0.5853 0.5849 0.5844 0.5839
3365.000000 0.5834 0.5830 0.5825 0.5820 0.5815
3370.000000 0.5811 0.5806 0.5801 0.5796 0.5792
3375.000000 0.5788 0.5784 0.5780 0.5776 0.5772
3380.000000 0.5768 0.5764 0.5760 0.5756 0.5752
3385.000000 0.5747 0.5743 0.5739 0.5735 0.5730
3390.000000 0.5725 0.5720 0.5715 0.5709 0.5704
3395.000000 0.5698 0.5693 0.5687 0.5682 0.5676
3400.000000 0.5671 0.5668 0.5665 0.5662 0.5660
3405.000000 0.5659 0.5659 0.5659 0.5660 0.5660
3410.000000 0.5660 0.5660 0.5661 0.5661 0.5662
3415.000000 0.5662 0.5691 0.5662 0.5663 0.5663
3420.000000 0.5664 0.5664 0.5665 0.5665 0.5666
3425.000000 0.5666 0.5667 0.5667 0.5668 0.5669
3430.000000 0.5670 0.5671 0.5673 0.5674 0.5676
3435.000000 0.5677 0.5679 0.5681 0.5683 0.5684
3440.000000 0.5686 0.5687 0.5689 0.5690 0.5692
3445.000000 0.5693 0.5695 0.5696 0.5698 0.5699
3450.000000 0.5701 0.5702 0.5704 0.5706 0.5708
3455.000000 0.5709 0.5711 0.5712 0.5714 0.5716
3460.000000 0.5718 0.5719 0.5721 0.5722 0.5724
3465.000000 0.5725 0.5727 0.5729 0.5731 0.5732
3470.000000 0.5734 0.5735 0.5737 0.5739 0.5741
3475.000000 0.5743 0.5746 0.5748 0.5751 0.5753
3480.000000 0.5756 0.5759 0.5762 0.5764 0.5767
3485.000000 0.5770 0.5773 0.5775 0.5778 0.5781
3490.000000 0.5784 0.5786 0.5789 0.5792 0.5795
3495.000000 0.5797 0.5800 0.5803 0.5806 0.5808
3500.000000 0.5811 0.5814 0.5817 0.5819 0.5822
3505.000000 0.5824 0.5827 0.5830 0.5833 0.5835
3510.000000 0.5838 0.5840 0.5843 0.5846 0.5849
3515.000000 0.5851 0.5854 0.5857 0.5860 0.5862
3520.000000 0.5865 0.5867 0.5870 0.5873 0.5876
3525.000000 0.5879 0.5882 0.5886 0.5891 0.5895
3530.000000 0.5900 0.5904 0.5909 0.5913 0.5918
3535.000000 0.5922 0.5927 0.5931 0.5936 0.5940
3540.000000 0.5944 0.5948 0.5953 0.5957 0.5962
3545.000000 0.5968 0.5975 0.5981 0.5988 0.5995
3550.000000 0.6002 0.6008 0.6015 0.6021 0.6028
3555.000000 0.6035 0.6042 0.6049 0.6056 0.6063
3560.000000 0.6071 0.6078 0.6085 0.6092 0.6100
3565.000000 0.6107 0.6114 0.6121 0.6129 0.6135
3570.000000 0.6142 0.6148 0.6154 0.6160 0.6166
3575.000000 0.6172 0.6178 0.6184 0.6190 0.6196
3580.000000 0.6202 0.6208 0.6214 0.6217 0.6221
3585.000000 0.6224 0.6228 0.6231 0.6235 0.6238
3590.000000 0.6242 0.6245 0.6249 0.6252 0.6256
3595.000000 0.6259 0.6263 0.6265 0.6268 0.6270
3600.000000 0.6273 0.6275 0.6277 0.6279 0.6282
3605.000000 0.6284 0.6287 0.6289 0.6291 0.6293
3610.000000 0.6296 0.6298 0.6300 0.6302 0.6305
3615.000000 0.6307 0.6309 0.6311 0.6314 0.6316
3620.000000 0.6318 0.6319 0.6321 0.6323 0.6325
3625.000000 0.6327 0.6329 0.6331 0.6333 0.6335
3630.000000 0.6337 0.6338 0.6340 0.6342 0.6344
3635.000000 0.6346 0.6348 0.6350 0.6352 0.6353
3640.000000 0.6355 0.6357 0.6359 0.6361 0.6363
3645.000000 0.6364 0.6365 0.6366 0.6367 0.6368
3650.000000 0.6369 0.6370 0.6380 0.6372 0.6373
3655.000000 0.6374 0.6375 0.6375 0.6376 0.6377
3660.000000 0.6378 0.6379 0.6380 0.6381 0.6382
3665.000000 0.6383 0.6384 0.6384 0.6385 0.6384
3670.000000 0.6384 0.6383 0.6382 0.6381 0.6381
3675.000000 0.6380 0.6380 0.6379 0.6378 0.6377
3680.000000 0.6377 0.6376 0.6376 0.6375 0.6375
3685.000000 0.6373 0.6372 0.6371 0.6370 0.6368
3690.000000 0.6367 0.6365 0.6364 0.6363 0.6362
3695.000000 0.6360 0.6359 0.6358 0.6357 0.6355
3700.000000 0.6354 0.6353 0.6352 0.6351 0.6350
3705.000000 0.6348 0.6347 0.6346 0.6345 0.6344
3710.000000 0.6343 0.6342 0.6341 0.6340 0.6339
3715.000000 0.6337 0.6336 0.6335 0.6334 0.6333
3720.000000 0.6332 0.6331 0.6330 0.6328 0.6326
3725.000000 0.6324 0.6322 0.6320 0.6319 0.6317
3730.000000 0.6315 0.6313 0.6311 0.6309 0.6307
3735.000000 0.6305 0.6303 0.6301 0.6299 0.6297
3740.000000 0.6295 0.6293 0.6292 0.6290 0.6288
3745.000000 0.6286 0.6285 0.6283 0.6281 0.6279
3750.000000 0.6278 0.6276 0.6274 0.6272 0.6271
3755.000000 0.6269 0.6268 0.6267 0.6267 0.6266
3760.000000 0.6266 0.6266 0.6266 0.6265 0.6265
3765.000000 0.6264 0.6264 0.6263 0.6263 0.6263
3770.000000 0.6263 0.6262 0.6262 0.6261 0.6261
3775.000000 0.6260 0.6260 0.6259 0.6259 0.6258
3780.000000 0.6258 0.6257 0.6257 0.6256 0.6255
3785.000000 0.6254 0.6254 0.6253 0.6252 0.6251
3790.000000 0.6250 0.6249 0.6249 0.6248 0.6247
3795.000000 0.6246 0.6245 0.6244 0.6243 0.6242
3800.000000 0.6241 0.6240 0.6239 0.6238 0.6237
3805.000000 0.6235 0.6234 0.6232 0.6231 0.6229
3810.000000 0.6228 0.6226 0.6225 0.6224 0.6223
3815.000000 0.6221 0.6220 0.6218 0.6217 0.6215
3820.000000 0.6214 0.6212 0.6211 0.6209 0.6208
3825.000000 0.6206 0.6205 0.6203 0.6202 0.6200
3830.000000 0.6199 0.6197 0.6196 0.6194 0.6193
3835.000000 0.6191 0.6190 0.6187 0.6185 0.6183
3840.000000 0.6181 0.6179 0.6177 0.6174 0.6172
3845.000000 0.6170 0.6168 0.6166 0.6164 0.6161
3850.000000 0.6159 0.6157 0.6155 0.6153 0.6151
3855.000000 0.6148 0.6146 0.6144 0.6142 0.6140
3860.000000 0.6138 0.6135 0.6132 0.6129 0.6126
3865.000000 0.6123 0.6121 0.6118 0.6115 0.6112
3870.000000 0.6109 0.6106 0.6103 0.6100 0.6097
3875.000000 0.6094 0.6091 0.6088 0.6085 0.6082
3880.000000 0.6080 0.6077 0.6075 0.6073 0.6071
3885.000000 0.6069 0.6067 0.6065 0.6063 0.6060
3890.000000 0.6058 0.6056 0.6054 0.6052 0.6050
3895.000000 0.6048 0.6046 0.6044 0.6042 0.6040
3900.000000 0.6038 0.6036 0.6035 0.6034 0.6033
3905.000000 0.6031 0.6030 0.6028 0.6027 0.6025
3910.000000 0.6024 0.6022 0.6021 0.6019 0.6018
3915.000000 0.6016 0.6014 0.6012 0.6010 0.6008
3920.000000 0.6006 0.6004 0.6003 0.6001 0.6000
3925.000000 0.5999 0.5998 0.5997 0.5996 0.5994
3930.000000 0.5993 0.5992 0.5991 0.5990 0.5989
3935.000000 0.5988 0.5987 0.5986 0.5986 0.5985
3940.000000 0.6002 0.5983 0.5982 0.5981 0.5981
3945.000000 0.5980 0.5979 0.5978 0.5977 0.5976
3950.000000 0.5975 0.5974 0.5973 0.5971 0.5970
3955.000000 0.5969 0.5968 0.5967 0.5967 0.5967
3960.000000 0.5967 0.5966 0.5966 0.5966 0.5966
3965.000000 0.5965 0.5965 0.5965 0.5965 0.5965
3970.000000 0.5965 0.5965 0.5965 0.5965 0.5965
3975.000000 0.5965 0.5965 0.5967 0.5969 0.5972
3980.000000 0.5976 0.5980 0.5984 0.5989 0.5994
3985.000000 0.5998 0.6003 0.6008 0.6013 0.6017
3990.000000 0.6022 0.6027 0.6032 0.6036 0.6041
3995.000000 0.6046 0.6051 0.6055 0.6060 0.6060
4000.000000 0.6061
##END=
