##TITLE=AMMONIUM METAVANADATE
$$ C.P.
##JCAMP-DX=4.24
##DATA TYPE=INFRARED SPECTRUM
##CLASS=COBLENTZ
##ORIGIN=MELLON INSTITUTE
##OWNER=COBLENTZ SOCIETY
Collection (C) 2018 copyright by the U.S. Secretary of Commerce
on behalf of the United States of America. All rights reserved.
##DATE=Not specified, most likely prior to 1970
##MOLFORM=N H4 V O3
##SOURCE REFERENCE=COBLENTZ NO. 471
##$NIST ID=B6000471
##$NIST SOURCE=COBLENTZ
##$NIST IMAGE=cob471
##SPECTROMETER/DATA SYSTEM=Not specified, most likely a prism, grating, or hybrid spectrometer.
##STATE=SOLID (NUJOL MULL)
##PATH LENGTH=
$$SPECTRAL CONTAMINATION DUE TO OIL AROUND 2900, 1450, 1380 CM^-^1
##SAMPLING PROCEDURE=TRANSMISSION
##RESOLUTION=4
##DATA PROCESSING=DIGITIZED BY NIST FROM HARD COPY
##XUNITS=MICROMETERS
##YUNITS=TRANSMITTANCE
##XFACTOR=1.000000
##YFACTOR=1
##DELTAX=000.006820
##FIRSTX=2.011
##LASTX=15.9978
##FIRSTY=0.67
##MAXX=15.9978
##MINX=2.011
##MAXY=0.998
##MINY=0.121
##NPOINTS=2052
##XYDATA=(X++(Y..Y))
2.011000 0.6700 0.6710 0.6730 0.6750 0.6760
2.045115 0.6780 0.6780 0.6800 0.6820 0.6820
2.079000 0.6830 0.6830 0.6850 0.6870 0.6890
2.113115 0.6900 0.6920 0.6940 0.6950 0.6950
2.148000 0.6970 0.6990 0.7010 0.7010 0.7020
2.182115 0.7020 0.7040 0.7040 0.7040 0.7070
2.216000 0.7090 0.7090 0.7090 0.7110 0.7130
2.250115 0.7140 0.7140 0.7160 0.7180 0.7190
2.284000 0.7210 0.7230 0.7230 0.7260 0.7280
2.318115 0.7300 0.7310 0.7310 0.7330 0.7350
2.352000 0.7370 0.7380 0.7380 0.7400 0.7420
2.386115 0.7430 0.7450 0.7470 0.7490 0.7500
2.420000 0.7500 0.7540 0.7560 0.7560 0.7570
2.454115 0.7590 0.7610 0.7620 0.7640 0.7660
2.489000 0.7690 0.7710 0.7730 0.7730 0.7740
2.523115 0.7760 0.7780 0.7800 0.7810 0.7810
2.557000 0.7830 0.7850 0.7860 0.7860 0.7900
2.591115 0.7900 0.7920 0.7930 0.7970 0.7980
2.625000 0.7980 0.8000 0.8000 0.8000 0.8020
2.659115 0.8040 0.8040 0.8040 0.8070 0.8070
2.693000 0.8090 0.8100 0.8100 0.8120 0.8120
2.727115 0.8140 0.8160 0.8160 0.8160 0.8170
2.761000 0.8190 0.8190 0.8190 0.8210 0.8210
2.795115 0.8210 0.8210 0.8210 0.8210 0.8210
2.830000 0.8230 0.8230 0.8230 0.8230 0.8240
2.864115 0.8240 0.8230 0.8230 0.8230 0.8230
2.898000 0.8230 0.8240 0.8240 0.8240 0.8240
2.932115 0.8260 0.8260 0.8260 0.8260 0.8260
2.966000 0.8260 0.8260 0.8260 0.8260 0.8260
3.000115 0.8230 0.8170 0.8090 0.8040 0.7980
3.034000 0.7920 0.7690 0.7660 0.7490 0.7280
3.068115 0.6990 0.6680 0.6320 0.5290 0.4960
3.102000 0.4480 0.4170 0.4000 0.3400 0.3330
3.136115 0.3310 0.3330 0.3450 0.3780 0.4140
3.170000 0.4480 0.4630 0.4840 0.5010 0.5200
3.204115 0.5340 0.5530 0.5610 0.5650 0.5670
3.239000 0.5670 0.5670 0.5670 0.5650 0.5580
3.273115 0.5510 0.5460 0.5390 0.5320 0.5180
3.307000 0.5010 0.4910 0.4790 0.4530 0.4360
3.341115 0.3960 0.3310 0.3120 0.3070 0.2310
3.375000 0.2010 0.1520 0.1340 0.1230 0.1210
3.409115 0.1250 0.1490 0.1700 0.1900 0.2130
3.443000 0.2620 0.2800 0.3070 0.3070 0.2970
3.477115 0.2830 0.2730 0.2710 0.2740 0.3090
3.511000 0.3400 0.3720 0.4190 0.4460 0.4750
3.545115 0.5030 0.5170 0.5290 0.5420 0.5510
3.580000 0.5600 0.5720 0.5790 0.5910 0.6030
3.614115 0.6130 0.6210 0.6350 0.6460 0.6560
3.648000 0.6640 0.6750 0.6870 0.6990 0.7040
3.682115 0.7130 0.7190 0.7250 0.7300 0.7350
3.716000 0.7400 0.7470 0.7500 0.7560 0.7610
3.750115 0.7660 0.7690 0.7740 0.7760 0.7810
3.784000 0.7830 0.7850 0.7880 0.7900 0.7950
3.818115 0.7970 0.7980 0.8000 0.8020 0.8020
3.852000 0.8070 0.8100 0.8140 0.8160 0.8170
3.886115 0.8210 0.8230 0.8260 0.8280 0.8290
3.921000 0.8330 0.8350 0.8380 0.8400 0.8410
3.955115 0.8430 0.8450 0.8470 0.8480 0.8500
3.989000 0.8520 0.8530 0.8550 0.8570 0.8600
4.023115 0.8600 0.8600 0.8620 0.8640 0.8650
4.057000 0.8670 0.8690 0.8710 0.8720 0.8740
4.091115 0.8740 0.8760 0.8780 0.8790 0.8810
4.125000 0.8830 0.8830 0.8840 0.8840 0.8860
4.159115 0.8860 0.8860 0.8880 0.8880 0.8880
4.193000 0.8900 0.8900 0.8910 0.8910 0.8930
4.227115 0.8930 0.8950 0.8950 0.8950 0.8960
4.262000 0.8960 0.8960 0.8960 0.8980 0.8980
4.296115 0.8980 0.9000 0.9000 0.9000 0.9000
4.330000 0.9000 0.9000 0.9000 0.9020 0.9020
4.364115 0.9020 0.9020 0.9020 0.9020 0.9020
4.398000 0.9030 0.9030 0.9030 0.9030 0.9030
4.432115 0.9030 0.9030 0.9050 0.9050 0.9050
4.466000 0.9050 0.9050 0.9050 0.9050 0.9070
4.500115 0.9070 0.9070 0.9070 0.9070 0.9080
4.534000 0.9080 0.9080 0.9080 0.9080 0.9080
4.568115 0.9080 0.9080 0.9100 0.9100 0.9100
4.603000 0.9120 0.9120 0.9100 0.9100 0.9100
4.637115 0.9120 0.9120 0.9120 0.9120 0.9120
4.671000 0.9140 0.9140 0.9140 0.9140 0.9140
4.705115 0.9140 0.9140 0.9140 0.9150 0.9150
4.739000 0.9150 0.9150 0.9150 0.9150 0.9150
4.773115 0.9170 0.9170 0.9170 0.9170 0.9150
4.807000 0.9170 0.9190 0.9190 0.9190 0.9190
4.841115 0.9190 0.9190 0.9190 0.9190 0.9190
4.875000 0.9190 0.9190 0.9200 0.9190 0.9190
4.909115 0.9200 0.9200 0.9200 0.9200 0.9190
4.944000 0.9190 0.9190 0.9190 0.9190 0.9190
4.978115 0.9190 0.9190 0.9200 0.9200 0.9200
5.012000 0.9200 0.9200 0.9200 0.9200 0.9200
5.046115 0.9200 0.9200 0.9200 0.9200 0.9200
5.080000 0.9200 0.9200 0.9200 0.9200 0.9200
5.114115 0.9200 0.9200 0.9200 0.9200 0.9220
5.148000 0.9220 0.9220 0.9220 0.9220 0.9240
5.182115 0.9240 0.9240 0.9240 0.9240 0.9240
5.216000 0.9240 0.9240 0.9240 0.9260 0.9260
5.250115 0.9260 0.9260 0.9260 0.9270 0.9270
5.285000 0.9270 0.9290 0.9310 0.9310 0.9310
5.319115 0.9310 0.9310 0.9320 0.9320 0.9340
5.353000 0.9340 0.9340 0.9360 0.9360 0.9360
5.387115 0.9380 0.9380 0.9390 0.9390 0.9380
5.421000 0.9380 0.9390 0.9390 0.9390 0.9380
5.455115 0.9380 0.9380 0.9380 0.9380 0.9380
5.489000 0.9380 0.9380 0.9380 0.9380 0.9360
5.523115 0.9360 0.9360 0.9340 0.9320 0.9320
5.557000 0.9320 0.9310 0.9310 0.9310 0.9310
5.591115 0.9310 0.9310 0.9310 0.9310 0.9310
5.626000 0.9290 0.9290 0.9290 0.9290 0.9290
5.660115 0.9270 0.9270 0.9270 0.9270 0.9260
5.694000 0.9260 0.9260 0.9260 0.9260 0.9260
5.728115 0.9260 0.9260 0.9240 0.9240 0.9240
5.762000 0.9240 0.9240 0.9240 0.9240 0.9240
5.796115 0.9240 0.9240 0.9240 0.9240 0.9240
5.830000 0.9240 0.9240 0.9260 0.9260 0.9260
5.864115 0.9270 0.9270 0.9270 0.9290 0.9290
5.898000 0.9310 0.9310 0.9310 0.9310 0.9320
5.932115 0.9320 0.9320 0.9340 0.9340 0.9340
5.967000 0.9340 0.9360 0.9360 0.9360 0.9380
6.001115 0.9380 0.9380 0.9380 0.9380 0.9390
6.035000 0.9390 0.9390 0.9410 0.9410 0.9410
6.069115 0.9430 0.9430 0.9450 0.9460 0.9460
6.103000 0.9480 0.9500 0.9500 0.9510 0.9530
6.137115 0.9550 0.9570 0.9570 0.9600 0.9620
6.171000 0.9620 0.9650 0.9650 0.9670 0.9670
6.205115 0.9700 0.9700 0.9700 0.9720 0.9740
6.239000 0.9750 0.9750 0.9770 0.9770 0.9790
6.273115 0.9790 0.9790 0.9790 0.9790 0.9790
6.308000 0.9790 0.9790 0.9770 0.9770 0.9770
6.342115 0.9770 0.9770 0.9770 0.9790 0.9770
6.376000 0.9770 0.9770 0.9790 0.9790 0.9790
6.410115 0.9810 0.9810 0.9790 0.9790 0.9810
6.444000 0.9810 0.9810 0.9810 0.9790 0.9790
6.478115 0.9790 0.9790 0.9790 0.9770 0.9750
6.512000 0.9750 0.9750 0.9750 0.9750 0.9750
6.546115 0.9750 0.9750 0.9740 0.9740 0.9740
6.580000 0.9720 0.9720 0.9700 0.9700 0.9700
6.614115 0.9690 0.9700 0.9690 0.9690 0.9670
6.648000 0.9670 0.9670 0.9670 0.9670 0.9650
6.682115 0.9650 0.9650 0.9630 0.9630 0.9620
6.717000 0.9600 0.9600 0.9580 0.9580 0.9570
6.751115 0.9550 0.9510 0.9390 0.9320 0.9260
6.785000 0.9070 0.8980 0.8590 0.8160 0.7780
6.819115 0.7520 0.7380 0.7230 0.7090 0.7010
6.853000 0.6920 0.6850 0.6820 0.6780 0.6760
6.887115 0.6760 0.6760 0.6760 0.6760 0.6760
6.921000 0.6750 0.6730 0.6660 0.6560 0.6370
6.955115 0.6130 0.5920 0.5670 0.5360 0.5220
6.989000 0.4890 0.4580 0.4240 0.3530 0.3020
7.023115 0.2730 0.2640 0.2590 0.2520 0.2470
7.058000 0.2380 0.2310 0.2210 0.2190 0.2210
7.092115 0.2260 0.2810 0.3470 0.3690 0.4200
7.126000 0.4550 0.4980 0.5300 0.5510 0.5770
7.160115 0.5960 0.6180 0.6370 0.6520 0.6730
7.194000 0.6920 0.6990 0.7110 0.7190 0.7160
7.228115 0.7140 0.7130 0.7040 0.7040 0.7060
7.262000 0.7110 0.7160 0.7300 0.7470 0.7590
7.296115 0.7780 0.7900 0.8020 0.8070 0.8170
7.330000 0.8240 0.8330 0.8500 0.8550 0.8570
7.364115 0.8650 0.8710 0.8760 0.8810 0.8830
7.399000 0.8860 0.8910 0.9020 0.9020 0.9050
7.433115 0.9070 0.9120 0.9140 0.9150 0.9190
7.467000 0.9200 0.9240 0.9260 0.9270 0.9290
7.501115 0.9290 0.9310 0.9320 0.9340 0.9360
7.535000 0.9360 0.9380 0.9390 0.9410 0.9410
7.569115 0.9430 0.9450 0.9450 0.9460 0.9460
7.603000 0.9500 0.9510 0.9510 0.9510 0.9510
7.637115 0.9530 0.9530 0.9530 0.9550 0.9550
7.671000 0.9570 0.9570 0.9570 0.9580 0.9580
7.705115 0.9600 0.9600 0.9620 0.9620 0.9630
7.740000 0.9630 0.9630 0.9650 0.9650 0.9670
7.774115 0.9670 0.9690 0.9690 0.9690 0.9700
7.808000 0.9700 0.9720 0.9720 0.9720 0.9740
7.842115 0.9740 0.9740 0.9740 0.9750 0.9750
7.876000 0.9750 0.9770 0.9770 0.9770 0.9790
7.910115 0.9790 0.9810 0.9810 0.9810 0.9810
7.944000 0.9820 0.9820 0.9820 0.9820 0.9820
7.978115 0.9820 0.9840 0.9840 0.9860 0.9860
8.012000 0.9860 0.9860 0.9860 0.9860 0.9860
8.046115 0.9860 0.9860 0.9870 0.9870 0.9870
8.081000 0.9870 0.9890 0.9890 0.9890 0.9890
8.115115 0.9910 0.9910 0.9930 0.9930 0.9930
8.149000 0.9930 0.9930 0.9940 0.9940 0.9940
8.183115 0.9940 0.9960 0.9960 0.9960 0.9980
8.217000 0.9980 0.9980 0.9980 0.9980 0.9980
8.251115 0.9980 0.9980 0.9980 0.9980 0.9980
8.285000 0.9980 0.9980 0.9980 0.9980 0.9960
8.319115 0.9960 0.9960 0.9960 0.9960 0.9960
8.353000 0.9960 0.9960 0.9960 0.9960 0.9960
8.387115 0.9960 0.9960 0.9960 0.9940 0.9940
8.422000 0.9940 0.9940 0.9940 0.9940 0.9940
8.456115 0.9940 0.9940 0.9940 0.9940 0.9940
8.490000 0.9930 0.9930 0.9930 0.9930 0.9930
8.524115 0.9910 0.9910 0.9910 0.9910 0.9910
8.558000 0.9910 0.9890 0.9890 0.9890 0.9890
8.592115 0.9890 0.9890 0.9870 0.9870 0.9890
8.626000 0.9890 0.9870 0.9870 0.9870 0.9870
8.660115 0.9870 0.9870 0.9860 0.9860 0.9860
8.694000 0.9840 0.9840 0.9840 0.9840 0.9840
8.728115 0.9840 0.9840 0.9840 0.9840 0.9840
8.763000 0.9840 0.9840 0.9840 0.9840 0.9840
8.797115 0.9840 0.9840 0.9840 0.9840 0.9840
8.831000 0.9840 0.9840 0.9860 0.9860 0.9840
8.865115 0.9840 0.9860 0.9860 0.9860 0.9860
8.899000 0.9860 0.9860 0.9860 0.9860 0.9860
8.933115 0.9870 0.9870 0.9870 0.9870 0.9870
8.967000 0.9870 0.9870 0.9890 0.9890 0.9890
9.001115 0.9890 0.9890 0.9890 0.9890 0.9890
9.035000 0.9890 0.9890 0.9890 0.9890 0.9890
9.069115 0.9890 0.9890 0.9890 0.9890 0.9890
9.104000 0.9890 0.9890 0.9890 0.9890 0.9890
9.138115 0.9890 0.9890 0.9890 0.9890 0.9890
9.172000 0.9910 0.9910 0.9910 0.9910 0.9910
9.206115 0.9910 0.9910 0.9910 0.9910 0.9910
9.240000 0.9910 0.9910 0.9910 0.9910 0.9910
9.274115 0.9910 0.9910 0.9910 0.9910 0.9910
9.308000 0.9910 0.9910 0.9910 0.9910 0.9910
9.342115 0.9910 0.9930 0.9930 0.9930 0.9930
9.376000 0.9930 0.9930 0.9930 0.9940 0.9930
9.410115 0.9940 0.9930 0.9930 0.9930 0.9930
9.445000 0.9930 0.9930 0.9930 0.9930 0.9930
9.479115 0.9930 0.9930 0.9930 0.9940 0.9930
9.513000 0.9930 0.9930 0.9930 0.9930 0.9930
9.547115 0.9930 0.9930 0.9930 0.9930 0.9930
9.581000 0.9930 0.9930 0.9930 0.9930 0.9910
9.615115 0.9910 0.9910 0.9910 0.9910 0.9910
9.649000 0.9910 0.9910 0.9910 0.9910 0.9910
9.683115 0.9910 0.9910 0.9910 0.9910 0.9910
9.717000 0.9890 0.9890 0.9890 0.9890 0.9890
9.751115 0.9910 0.9910 0.9910 0.9910 0.9910
9.785000 0.9910 0.9910 0.9910 0.9910 0.9910
9.819115 0.9910 0.9910 0.9910 0.9910 0.9910
9.854000 0.9910 0.9910 0.9910 0.9910 0.9910
9.888115 0.9910 0.9910 0.9910 0.9910 0.9910
9.922000 0.9910 0.9910 0.9910 0.9910 0.9910
9.956115 0.9910 0.9910 0.9910 0.9910 0.9910
9.990000 0.9910 0.9910 0.9910 0.9890 0.9870
10.024115 0.9870 0.9870 0.9860 0.9860 0.9860
10.058000 0.9840 0.9840 0.9820 0.9810 0.9810
10.092115 0.9790 0.9790 0.9750 0.9750 0.9740
10.126000 0.9720 0.9700 0.9690 0.9670 0.9670
10.160115 0.9650 0.9650 0.9630 0.9630 0.9630
10.195000 0.9620 0.9570 0.9570 0.9570 0.9570
10.229115 0.9550 0.9530 0.9510 0.9500 0.9480
10.263000 0.9480 0.9460 0.9430 0.9430 0.9390
10.297115 0.9380 0.9360 0.9320 0.9290 0.9260
10.331000 0.9220 0.9150 0.9070 0.9020 0.8930
10.365115 0.8880 0.8810 0.8760 0.8670 0.8570
10.399000 0.8430 0.8240 0.8160 0.8000 0.7930
10.433115 0.7730 0.7540 0.7350 0.7190 0.7040
10.467000 0.6940 0.6820 0.6700 0.6540 0.6320
10.501115 0.6110 0.5910 0.5680 0.5580 0.5390
10.536000 0.5240 0.5130 0.5030 0.4910 0.4770
10.570115 0.4700 0.4620 0.4600 0.4550 0.4480
10.604000 0.4450 0.4410 0.4390 0.4340 0.4320
10.638115 0.4320 0.4320 0.4310 0.4290 0.4290
10.672000 0.4290 0.4270 0.4260 0.4260 0.4240
10.706115 0.4240 0.4220 0.4220 0.4220 0.4200
10.740000 0.4220 0.4200 0.4200 0.4200 0.4200
10.774115 0.4200 0.4200 0.4220 0.4240 0.4270
10.808000 0.4270 0.4290 0.4320 0.4340 0.4380
10.842115 0.4410 0.4450 0.4500 0.4510 0.4550
10.877000 0.4570 0.4600 0.4650 0.4670 0.4700
10.911115 0.4720 0.4740 0.4740 0.4770 0.4770
10.945000 0.4770 0.4770 0.4770 0.4750 0.4750
10.979115 0.4700 0.4690 0.4630 0.4570 0.4480
11.013000 0.4390 0.4360 0.4320 0.4290 0.4260
11.047115 0.4200 0.4140 0.4050 0.4020 0.4000
11.081000 0.3910 0.3840 0.3830 0.3740 0.3710
11.115115 0.3640 0.3590 0.3530 0.3450 0.3400
11.149000 0.3330 0.3280 0.3240 0.3230 0.3190
11.183115 0.3160 0.3140 0.3140 0.3070 0.3070
11.218000 0.3050 0.3050 0.3040 0.3040 0.3040
11.252115 0.3050 0.3050 0.3090 0.3090 0.3100
11.286000 0.3120 0.3160 0.3240 0.3330 0.3400
11.320115 0.3480 0.3590 0.3710 0.3860 0.4080
11.354000 0.4380 0.4500 0.4620 0.4790 0.4910
11.388115 0.5010 0.5100 0.5250 0.5390 0.5560
11.422000 0.5720 0.5790 0.5890 0.5960 0.6030
11.456115 0.6040 0.6060 0.6090 0.6160 0.6160
11.490000 0.6180 0.6200 0.6200 0.6200 0.6200
11.524115 0.6160 0.6130 0.6080 0.6040 0.6010
11.559000 0.5920 0.5840 0.5750 0.5680 0.5600
11.593115 0.5490 0.5370 0.5320 0.5220 0.5130
11.627000 0.5060 0.5010 0.4960 0.4890 0.4820
11.661115 0.4700 0.4650 0.4550 0.4480 0.4450
11.695000 0.4380 0.4310 0.4240 0.4200 0.4170
11.729115 0.4150 0.4100 0.4070 0.4050 0.4030
11.763000 0.4020 0.4000 0.3960 0.3950 0.3930
11.797115 0.3910 0.3880 0.3880 0.3860 0.3860
11.831000 0.3860 0.3840 0.3840 0.3840 0.3840
11.865115 0.3860 0.3860 0.3880 0.3900 0.3930
11.900000 0.3950 0.4020 0.4020 0.4050 0.4080
11.934115 0.4140 0.4170 0.4220 0.4290 0.4320
11.968000 0.4380 0.4390 0.4450 0.4500 0.4570
12.002115 0.4630 0.4720 0.4790 0.4840 0.4910
12.036000 0.4980 0.5060 0.5170 0.5220 0.5360
12.070115 0.5440 0.5540 0.5610 0.5720 0.5820
12.104000 0.5870 0.6030 0.6040 0.6160 0.6250
12.138115 0.6390 0.6510 0.6560 0.6630 0.6660
12.172000 0.6730 0.6820 0.6870 0.6950 0.7020
12.206115 0.7070 0.7130 0.7180 0.7230 0.7260
12.241000 0.7310 0.7370 0.7420 0.7430 0.7490
12.275115 0.7500 0.7520 0.7540 0.7560 0.7570
12.309000 0.7620 0.7640 0.7660 0.7680 0.7730
12.343115 0.7740 0.7760 0.7780 0.7830 0.7850
12.377000 0.7860 0.7900 0.7930 0.7950 0.7970
12.411115 0.7980 0.8020 0.8040 0.8040 0.8040
12.445000 0.8050 0.8050 0.8070 0.8070 0.8070
12.479115 0.8070 0.8070 0.8120 0.8120 0.8120
12.513000 0.8140 0.8140 0.8140 0.8140 0.8140
12.547115 0.8140 0.8140 0.8140 0.8140 0.8140
12.582000 0.8140 0.8160 0.8140 0.8140 0.8140
12.616115 0.8140 0.8140 0.8120 0.8100 0.8100
12.650000 0.8070 0.8070 0.8070 0.8070 0.8050
12.684115 0.8040 0.8020 0.8000 0.7980 0.7970
12.718000 0.7970 0.7970 0.7950 0.7930 0.7900
12.752115 0.7880 0.7860 0.7850 0.7830 0.7810
12.786000 0.7800 0.7780 0.7760 0.7740 0.7730
12.820115 0.7710 0.7690 0.7680 0.7660 0.7620
12.854000 0.7610 0.7570 0.7560 0.7540 0.7520
12.888115 0.7490 0.7450 0.7430 0.7400 0.7370
12.923000 0.7330 0.7310 0.7280 0.7250 0.7210
12.957115 0.7190 0.7180 0.7160 0.7140 0.7070
12.991000 0.7060 0.7020 0.6970 0.6940 0.6890
13.025115 0.6850 0.6800 0.6760 0.6730 0.6700
13.059000 0.6660 0.6640 0.6580 0.6580 0.6540
13.093115 0.6520 0.6490 0.6470 0.6440 0.6420
13.127000 0.6390 0.6370 0.6340 0.6300 0.6250
13.161115 0.6230 0.6200 0.6160 0.6150 0.6090
13.195000 0.6080 0.6040 0.6030 0.5940 0.5920
13.229115 0.5890 0.5870 0.5820 0.5790 0.5770
13.263000 0.5720 0.5680 0.5670 0.5670 0.5630
13.297115 0.5600 0.5580 0.5560 0.5530 0.5510
13.332000 0.5480 0.5440 0.5410 0.5390 0.5370
13.366115 0.5340 0.5290 0.5270 0.5250 0.5240
13.400000 0.5180 0.5150 0.5100 0.5080 0.5060
13.434115 0.5050 0.5050 0.5010 0.5000 0.4980
13.468000 0.4960 0.4940 0.4890 0.4870 0.4860
13.502115 0.4820 0.4790 0.4770 0.4740 0.4700
13.536000 0.4670 0.4650 0.4620 0.4570 0.4550
13.570115 0.4550 0.4510 0.4480 0.4450 0.4430
13.604000 0.4360 0.4320 0.4310 0.4270 0.4260
13.638115 0.4240 0.4190 0.4150 0.4140 0.4080
13.673000 0.4050 0.4050 0.4030 0.4020 0.4000
13.707115 0.3960 0.3950 0.3910 0.3900 0.3880
13.741000 0.3840 0.3810 0.3790 0.3760 0.3740
13.775115 0.3720 0.3710 0.3670 0.3650 0.3620
13.809000 0.3600 0.3590 0.3550 0.3550 0.3530
13.843115 0.3530 0.3520 0.3500 0.3470 0.3450
13.877000 0.3450 0.3430 0.3410 0.3400 0.3380
13.911115 0.3360 0.3350 0.3330 0.3310 0.3290
13.945000 0.3280 0.3260 0.3260 0.3240 0.3230
13.979115 0.3210 0.3190 0.3170 0.3140 0.3100
14.014000 0.3100 0.3090 0.3070 0.3070 0.3050
14.048115 0.3050 0.3040 0.3040 0.3040 0.3020
14.082000 0.3020 0.3020 0.3000 0.3000 0.2980
14.116115 0.2980 0.2970 0.2950 0.2950 0.2930
14.150000 0.2930 0.2930 0.2920 0.2920 0.2920
14.184115 0.2900 0.2900 0.2880 0.2880 0.2860
14.218000 0.2880 0.2860 0.2860 0.2860 0.2850
14.252115 0.2850 0.2850 0.2830 0.2830 0.2830
14.286000 0.2830 0.2830 0.2830 0.2810 0.2810
14.320115 0.2810 0.2810 0.2800 0.2800 0.2800
14.355000 0.2800 0.2780 0.2780 0.2780 0.2780
14.389115 0.2780 0.2780 0.2780 0.2760 0.2760
14.423000 0.2760 0.2760 0.2760 0.2760 0.2760
14.457115 0.2760 0.2760 0.2760 0.2760 0.2760
14.491000 0.2780 0.2780 0.2780 0.2760 0.2760
14.525115 0.2760 0.2780 0.2780 0.2780 0.2760
14.559000 0.2780 0.2800 0.2780 0.2800 0.2800
14.593115 0.2800 0.2800 0.2810 0.2800 0.2810
14.627000 0.2810 0.2810 0.2830 0.2830 0.2830
14.661115 0.2850 0.2850 0.2860 0.2860 0.2860
14.696000 0.2880 0.2900 0.2920 0.2920 0.2930
14.730115 0.2950 0.2950 0.2950 0.2950 0.2970
14.764000 0.2970 0.2980 0.3000 0.3020 0.3020
14.798115 0.3040 0.3040 0.3040 0.3040 0.3050
14.832000 0.3090 0.3090 0.3100 0.3120 0.3120
14.866115 0.3140 0.3140 0.3160 0.3160 0.3170
14.900000 0.3190 0.3190 0.3210 0.3210 0.3230
14.934115 0.3230 0.3240 0.3240 0.3260 0.3280
14.968000 0.3290 0.3310 0.3330 0.3350 0.3350
15.002115 0.3350 0.3360 0.3360 0.3360 0.3400
15.037000 0.3410 0.3430 0.3470 0.3480 0.3500
15.071115 0.3500 0.3520 0.3530 0.3550 0.3550
15.105000 0.3570 0.3600 0.3600 0.3620 0.3640
15.139115 0.3650 0.3670 0.3690 0.3710 0.3710
15.173000 0.3720 0.3740 0.3760 0.3780 0.3790
15.207115 0.3810 0.3840 0.3860 0.3880 0.3910
15.241000 0.3930 0.3950 0.4000 0.4000 0.4020
15.275115 0.4030 0.4030 0.4050 0.4050 0.4080
15.309000 0.4100 0.4150 0.4150 0.4190 0.4200
15.343115 0.4240 0.4260 0.4270 0.4290 0.4310
15.378000 0.4320 0.4340 0.4340 0.4360 0.4360
15.412115 0.4380 0.4410 0.4430 0.4460 0.4460
15.446000 0.4480 0.4500 0.4510 0.4530 0.4550
15.480115 0.4570 0.4570 0.4580 0.4600 0.4630
15.514000 0.4650 0.4670 0.4690 0.4720 0.4740
15.548115 0.4750 0.4770 0.4790 0.4810 0.4820
15.582000 0.4840 0.4840 0.4860 0.4860 0.4910
15.616115 0.4930 0.4930 0.4940 0.4960 0.4980
15.650000 0.5000 0.5000 0.5010 0.5030 0.5030
15.684115 0.5050 0.5050 0.5060 0.5080 0.5100
15.719000 0.5120 0.5120 0.5130 0.5150 0.5170
15.753115 0.5180 0.5200 0.5220 0.5220 0.5240
15.787000 0.5240 0.5250 0.5270 0.5270 0.5290
15.821115 0.5300 0.5300 0.5300 0.5320 0.5320
15.855000 0.5340 0.5340 0.5360 0.5360 0.5370
15.889115 0.5370 0.5390 0.5390 0.5410 0.5410
15.923000 0.5420 0.5420 0.5420 0.5440 0.5440
15.957115 0.5460 0.5460 0.5490 0.5490 0.5490
15.991000 0.5490 0.5490
##END=
