##TITLE=3-(N-METHYLANILINO)-2-METHYL-5-(n-HEPTYL)PYRAZINE
##JCAMP-DX=4.24
##DATA TYPE=INFRARED SPECTRUM
##CLASS=COBLENTZ
##ORIGIN=WYANDOTTE CHEMICALS CORP., WYANDOTTE, MICHIGAN, USA
##OWNER=COBLENTZ SOCIETY
Collection (C) 2018 copyright by the U.S. Secretary of Commerce
on behalf of the United States of America. All rights reserved.
##DATE=Not specified, most likely prior to 1970
##NAMES=N-(6-heptyl-3-methyl-2-pyrazinyl)-N-methyl-N-phenylamine
6-heptyl-N,3-dimethyl-N-phenyl-2-pyrazinamine
##MOLFORM=C19 H27 N3
##SOURCE REFERENCE=COBLENTZ NO. 2659
##$NIST ID=B6002659
##$NIST SOURCE=COBLENTZ
##$NIST IMAGE=cob2659
##SPECTROMETER/DATA SYSTEM=Not specified, most likely a prism, grating, or hybrid spectrometer.
##STATE=LIQUID
##PATH LENGTH=0.003 CM
##SAMPLING PROCEDURE=TRANSMISSION
##RESOLUTION=4
##DATA PROCESSING=DIGITIZED BY NIST FROM HARD COPY
##XUNITS=MICROMETERS
##YUNITS=TRANSMITTANCE
##XFACTOR=1.000000
##YFACTOR=1
##DELTAX=000.006629
##FIRSTX=2.04
##LASTX=15.9998
##FIRSTY=0.983
##MAXX=15.9998
##MINX=2.04
##MAXY=0.973
##MINY=0.049
##NPOINTS=2107
##XYDATA=(X++(Y..Y))
2.040000 0.9830 0.9800 0.9780 0.9730 0.9730
2.073160 0.9700 0.9630 0.9610 0.9600 0.9600
2.106000 0.9580 0.9550 0.9510 0.9500 0.9430
2.139160 0.9430 0.9400 0.9350 0.9320 0.9250
2.172000 0.9230 0.9170 0.8980 0.8970 0.8970
2.205160 0.8970 0.8980 0.9000 0.9000 0.9020
2.239000 0.9030 0.9030 0.9000 0.8980 0.8980
2.272160 0.8980 0.9000 0.9000 0.9000 0.9000
2.305000 0.9000 0.9030 0.9070 0.9130 0.9150
2.338160 0.9130 0.9100 0.9070 0.9050 0.9020
2.371000 0.9000 0.9000 0.9000 0.9000 0.9030
2.404160 0.9100 0.9130 0.9130 0.9130 0.9130
2.437000 0.9130 0.9130 0.9170 0.9170 0.9200
2.470160 0.9230 0.9280 0.9320 0.9360 0.9360
2.504000 0.9360 0.9330 0.9330 0.9320 0.9320
2.537160 0.9320 0.9320 0.9400 0.9400 0.9400
2.570000 0.9400 0.9400 0.9410 0.9410 0.9450
2.603160 0.9460 0.9480 0.9480 0.9480 0.9480
2.636000 0.9480 0.9480 0.9460 0.9430 0.9410
2.669160 0.9320 0.9300 0.9300 0.9300 0.9300
2.703000 0.9320 0.9380 0.9380 0.9380 0.9300
2.736160 0.9230 0.9220 0.9220 0.9200 0.9200
2.769000 0.9220 0.9250 0.9250 0.9220 0.9200
2.802160 0.9100 0.9080 0.9030 0.9020 0.9020
2.835000 0.9000 0.8980 0.8950 0.8920 0.8900
2.868160 0.8870 0.8850 0.8800 0.8750 0.8700
2.902000 0.8640 0.8640 0.8620 0.8590 0.8570
2.935160 0.8570 0.8540 0.8540 0.8540 0.8540
2.968000 0.8540 0.8540 0.8550 0.8550 0.8590
3.001160 0.8590 0.8600 0.8600 0.8620 0.8640
3.034000 0.8640 0.8640 0.8620 0.8600 0.8590
3.067160 0.8550 0.8540 0.8520 0.8520 0.8500
3.100000 0.8490 0.8440 0.8400 0.8320 0.8290
3.133160 0.8250 0.8200 0.8170 0.8150 0.8140
3.167000 0.8120 0.8040 0.8000 0.7970 0.7890
3.200160 0.7640 0.7330 0.6990 0.6610 0.6250
3.233000 0.5900 0.5400 0.5150 0.4900 0.4510
3.266160 0.4110 0.3810 0.3790 0.3810 0.3990
3.299000 0.3990 0.3930 0.3740 0.3310 0.2830
3.332160 0.2070 0.1450 0.1060 0.0810 0.0510
3.366000 0.0490 0.0490 0.0490 0.0490 0.0530
3.399160 0.0540 0.0580 0.0610 0.0720 0.0810
3.432000 0.0910 0.1010 0.1110 0.1120 0.1120
3.465160 0.1020 0.0960 0.0920 0.0920 0.1010
3.498000 0.1520 0.2000 0.2530 0.2960 0.3680
3.531160 0.4290 0.4840 0.5720 0.6060 0.6360
3.564000 0.6610 0.6830 0.6990 0.7140 0.7240
3.597160 0.7340 0.7410 0.7420 0.7510 0.7570
3.631000 0.7610 0.7640 0.7660 0.7670 0.7690
3.664160 0.7690 0.7720 0.7810 0.7890 0.7910
3.697000 0.7910 0.7960 0.8000 0.8000 0.8020
3.730160 0.8020 0.8020 0.8020 0.8040 0.8040
3.763000 0.8040 0.8040 0.8070 0.8090 0.8090
3.796160 0.8120 0.8170 0.8190 0.8200 0.8220
3.830000 0.8240 0.8250 0.8290 0.8300 0.8290
3.863160 0.8250 0.8220 0.8220 0.8220 0.8250
3.896000 0.8290 0.8290 0.8290 0.8300 0.8300
3.929160 0.8320 0.8390 0.8440 0.8490 0.8520
3.962000 0.8550 0.8600 0.8640 0.8670 0.8680
3.995160 0.8680 0.8700 0.8700 0.8700 0.8700
4.028000 0.8700 0.8720 0.8720 0.8720 0.8720
4.061160 0.8780 0.8780 0.8780 0.8780 0.8750
4.095000 0.8730 0.8720 0.8680 0.8670 0.8620
4.128160 0.8620 0.8700 0.8700 0.8680 0.8570
4.161000 0.8570 0.8620 0.8650 0.8680 0.8680
4.194160 0.8680 0.8680 0.8680 0.8680 0.8640
4.227000 0.8590 0.8590 0.8590 0.8590 0.8600
4.260160 0.8620 0.8700 0.8700 0.8700 0.8680
4.294000 0.8640 0.8620 0.8620 0.8620 0.8620
4.327160 0.8640 0.8680 0.8680 0.8700 0.8720
4.360000 0.8780 0.8820 0.8830 0.8850 0.8850
4.393160 0.8870 0.8880 0.8880 0.8880 0.8900
4.426000 0.8930 0.9000 0.9030 0.9020 0.9000
4.459160 0.8980 0.8980 0.9000 0.9000 0.9020
4.492000 0.9000 0.8950 0.8950 0.9000 0.9020
4.525160 0.9080 0.9080 0.9080 0.9080 0.9080
4.559000 0.9120 0.9120 0.9080 0.9080 0.9070
4.592160 0.9080 0.9100 0.9120 0.9130 0.9130
4.625000 0.9120 0.9100 0.9100 0.9150 0.9150
4.658160 0.9150 0.9150 0.9150 0.9130 0.9120
4.691000 0.9120 0.9100 0.9070 0.9050 0.9020
4.724160 0.9020 0.9000 0.9000 0.8980 0.8980
4.758000 0.9000 0.9000 0.9000 0.9000 0.9020
4.791160 0.9020 0.9020 0.9020 0.9020 0.9020
4.824000 0.9020 0.9020 0.9020 0.9020 0.9020
4.857160 0.9020 0.9020 0.9000 0.9000 0.9020
4.890000 0.9030 0.9050 0.9070 0.9080 0.9100
4.923160 0.9120 0.9120 0.9130 0.9130 0.9130
4.956000 0.9180 0.9180 0.9180 0.9180 0.9180
4.989160 0.9170 0.9150 0.9120 0.9100 0.9100
5.023000 0.9120 0.9120 0.9120 0.9120 0.9120
5.056160 0.9120 0.9120 0.9120 0.9120 0.9120
5.089000 0.9100 0.9080 0.9050 0.9030 0.9020
5.122160 0.9000 0.8980 0.8980 0.8920 0.8880
5.155000 0.8770 0.8680 0.8650 0.8620 0.8590
5.188160 0.8570 0.8550 0.8540 0.8540 0.8540
5.222000 0.8570 0.8590 0.8620 0.8680 0.8700
5.255160 0.8770 0.8870 0.8920 0.8970 0.8980
5.288000 0.9020 0.9020 0.9020 0.9000 0.9000
5.321160 0.8980 0.8920 0.8900 0.8870 0.8780
5.354000 0.8770 0.8770 0.8750 0.8730 0.8720
5.387160 0.8720 0.8720 0.8720 0.8720 0.8750
5.420000 0.8770 0.8830 0.8870 0.8870 0.8830
5.453160 0.8800 0.8780 0.8780 0.8800 0.8800
5.487000 0.8780 0.8780 0.8720 0.8640 0.8590
5.520160 0.8570 0.8570 0.8570 0.8570 0.8540
5.553000 0.8500 0.8450 0.8420 0.8400 0.8390
5.586160 0.8350 0.8350 0.8320 0.8300 0.8290
5.619000 0.8250 0.8220 0.8220 0.8200 0.8200
5.652160 0.8190 0.8170 0.8120 0.8100 0.8090
5.686000 0.8020 0.7990 0.7890 0.7770 0.7610
5.719160 0.7360 0.7230 0.7180 0.7130 0.7090
5.752000 0.6980 0.6760 0.6250 0.5630 0.5240
5.785160 0.5070 0.4900 0.4590 0.3960 0.3940
5.818000 0.3980 0.4520 0.4840 0.5900 0.6210
5.851160 0.6460 0.6690 0.6890 0.7090 0.7260
5.884000 0.7370 0.7490 0.7570 0.7570 0.7570
5.917160 0.7570 0.7420 0.7410 0.7310 0.7280
5.951000 0.7240 0.7230 0.7230 0.7210 0.7210
5.984160 0.7210 0.7210 0.7210 0.7230 0.7230
6.017000 0.7240 0.7240 0.7230 0.7230 0.7190
6.050160 0.7180 0.7180 0.7130 0.7130 0.7110
6.083000 0.7090 0.7030 0.6940 0.6790 0.6660
6.116160 0.6460 0.6310 0.6200 0.6000 0.5320
6.150000 0.4990 0.4660 0.3980 0.3410 0.3000
6.183160 0.2180 0.1670 0.0890 0.0860 0.0890
6.216000 0.1090 0.1350 0.2270 0.2580 0.2680
6.249160 0.2800 0.2900 0.3030 0.3130 0.3160
6.282000 0.3430 0.3760 0.4090 0.4190 0.4190
6.315160 0.4010 0.3610 0.3430 0.3310 0.3300
6.348000 0.3310 0.3410 0.3560 0.3990 0.4310
6.381160 0.4570 0.4720 0.4840 0.4850 0.4790
6.415000 0.4720 0.4640 0.4510 0.4390 0.4240
6.448160 0.3890 0.3300 0.2650 0.2170 0.1790
6.481000 0.1060 0.0820 0.0760 0.0760 0.0810
6.514160 0.0910 0.1010 0.1160 0.1570 0.1870
6.547000 0.2250 0.2500 0.2630 0.2730 0.2780
6.580160 0.2800 0.2810 0.2200 0.2020 0.1770
6.614000 0.0820 0.0630 0.0610 0.0580 0.0580
6.647160 0.0580 0.0590 0.0710 0.0870 0.0970
6.680000 0.1220 0.1420 0.1590 0.1750 0.1800
6.713160 0.1820 0.1800 0.1740 0.1700 0.1700
6.746000 0.1640 0.1500 0.1140 0.0860 0.0720
6.779160 0.0670 0.0660 0.0660 0.0660 0.0670
6.812000 0.0670 0.0690 0.0710 0.0710 0.0690
6.845160 0.0660 0.0640 0.0610 0.0590 0.0560
6.879000 0.0560 0.0560 0.0540 0.0540 0.0540
6.912160 0.0540 0.0540 0.0560 0.0560 0.0560
6.945000 0.0560 0.0590 0.0610 0.0610 0.0630
6.978160 0.0760 0.0910 0.1110 0.1310 0.1570
7.011000 0.1820 0.1990 0.2220 0.2520 0.2700
7.044160 0.2730 0.2750 0.2730 0.2650 0.2600
7.078000 0.2520 0.2400 0.2170 0.1990 0.1800
7.111160 0.1590 0.1400 0.1290 0.1210 0.1040
7.144000 0.0860 0.0710 0.0540 0.0510 0.0510
7.177160 0.0510 0.0530 0.0530 0.0530 0.0530
7.210000 0.0530 0.0530 0.0540 0.0540 0.0540
7.243160 0.0540 0.0560 0.0560 0.0580 0.0580
7.277000 0.0590 0.0590 0.0630 0.0630 0.0640
7.310160 0.0690 0.0840 0.0920 0.1060 0.1140
7.343000 0.1210 0.1270 0.1370 0.1470 0.1600
7.376160 0.1720 0.1920 0.2100 0.2370 0.2550
7.409000 0.2570 0.2730 0.2860 0.2910 0.3000
7.442160 0.3010 0.3030 0.3050 0.3060 0.3060
7.475000 0.3100 0.3110 0.3160 0.3180 0.3180
7.508160 0.3160 0.3160 0.3150 0.3150 0.3130
7.542000 0.3110 0.3100 0.3050 0.3030 0.3010
7.575160 0.3000 0.2980 0.2960 0.2900 0.2800
7.608000 0.2780 0.2780 0.2730 0.2700 0.2680
7.641160 0.2650 0.2650 0.2630 0.2630 0.2650
7.674000 0.2660 0.2700 0.2730 0.2750 0.2800
7.707160 0.2810 0.2850 0.2880 0.2880 0.2880
7.741000 0.2910 0.2950 0.2980 0.3010 0.3100
7.774160 0.3100 0.3100 0.3080 0.3050 0.3030
7.807000 0.3010 0.2910 0.2700 0.2620 0.2570
7.840160 0.2430 0.2230 0.2120 0.2000 0.1790
7.873000 0.1720 0.1540 0.1500 0.1440 0.1400
7.906160 0.1400 0.1390 0.1390 0.1390 0.1450
7.939000 0.1540 0.1600 0.1720 0.1800 0.1870
7.972160 0.2020 0.2150 0.2230 0.2270 0.2580
8.006000 0.2950 0.3210 0.3300 0.3380 0.3560
8.039160 0.3760 0.3940 0.4090 0.4210 0.4320
8.072000 0.4470 0.4560 0.4620 0.4720 0.4890
8.105160 0.4920 0.5090 0.5120 0.5140 0.5120
8.138000 0.5050 0.4950 0.4840 0.4520 0.4170
8.171160 0.3880 0.3580 0.3480 0.3330 0.3200
8.205000 0.3160 0.3180 0.3580 0.3710 0.3760
8.238160 0.3810 0.3890 0.3890 0.3890 0.3740
8.271000 0.3560 0.3360 0.3200 0.2900 0.2780
8.304160 0.2650 0.2520 0.2370 0.2130 0.1900
8.337000 0.1740 0.1640 0.1600 0.1500 0.1400
8.370160 0.1340 0.1310 0.1240 0.1190 0.1160
8.403000 0.1120 0.1120 0.1120 0.1120 0.1140
8.436160 0.1170 0.1210 0.1240 0.1320 0.1350
8.470000 0.1390 0.1400 0.1440 0.1500 0.1500
8.503160 0.1520 0.1550 0.1590 0.1600 0.1600
8.536000 0.1620 0.1640 0.1640 0.1620 0.1620
8.569160 0.1620 0.1600 0.1600 0.1600 0.1600
8.602000 0.1600 0.1620 0.1620 0.1640 0.1640
8.635160 0.1650 0.1700 0.1800 0.1970 0.2200
8.669000 0.2230 0.2520 0.2660 0.2900 0.3010
8.702160 0.3030 0.3030 0.3030 0.3000 0.2910
8.735000 0.2810 0.2650 0.2380 0.2180 0.1920
8.768160 0.1600 0.1270 0.1090 0.0960 0.0810
8.801000 0.0720 0.0690 0.0660 0.0630 0.0630
8.834160 0.0630 0.0670 0.0740 0.0770 0.0810
8.867000 0.0870 0.0960 0.1070 0.1190 0.1190
8.900160 0.1210 0.1210 0.1240 0.1320 0.1320
8.934000 0.1500 0.1600 0.1770 0.1970 0.2070
8.967160 0.2280 0.2470 0.2520 0.2650 0.2780
9.000000 0.2910 0.3010 0.3110 0.3180 0.3200
9.033160 0.3230 0.3300 0.3360 0.3440 0.3510
9.066000 0.3590 0.3640 0.3710 0.3710 0.3790
9.099160 0.3830 0.3890 0.3910 0.4010 0.4110
9.133000 0.4190 0.4210 0.4240 0.4290 0.4290
9.166160 0.4310 0.4390 0.4490 0.4490 0.4510
9.199000 0.4510 0.4490 0.4490 0.4440 0.4310
9.232160 0.4190 0.4170 0.4120 0.4120 0.4170
9.265000 0.4260 0.4360 0.4520 0.4640 0.4740
9.298160 0.4850 0.5150 0.5300 0.5380 0.5470
9.331000 0.5530 0.5580 0.5620 0.5630 0.5630
9.364160 0.5630 0.5620 0.5570 0.5470 0.5380
9.398000 0.5370 0.5330 0.5250 0.5070 0.5000
9.431160 0.4970 0.4920 0.4890 0.4820 0.4790
9.464000 0.4790 0.4820 0.4900 0.5220 0.5330
9.497160 0.5470 0.5530 0.5680 0.5780 0.5900
9.530000 0.5930 0.5980 0.6000 0.6000 0.6010
9.563160 0.6010 0.6000 0.6000 0.5930 0.5850
9.597000 0.5780 0.5650 0.5570 0.5480 0.5320
9.630160 0.5050 0.4950 0.4840 0.4510 0.4460
9.663000 0.4010 0.3790 0.3560 0.3360 0.3200
9.696160 0.3010 0.2900 0.2860 0.2860 0.2900
9.729000 0.2960 0.3080 0.3260 0.3460 0.3610
9.762160 0.3880 0.4160 0.4460 0.4560 0.4700
9.795000 0.4790 0.4940 0.5090 0.5140 0.5150
9.828160 0.5140 0.5100 0.5020 0.4990 0.4950
9.862000 0.4920 0.4700 0.4590 0.4410 0.4220
9.895160 0.3990 0.3860 0.3710 0.3510 0.3310
9.928000 0.3210 0.3100 0.3030 0.3010 0.3000
9.961160 0.2950 0.2930 0.2930 0.2960 0.3050
9.994000 0.3060 0.3100 0.3100 0.3110 0.3130
10.027160 0.3150 0.3200 0.3230 0.3330 0.3390
10.061000 0.3510 0.3610 0.3680 0.3890 0.3990
10.094160 0.4190 0.4390 0.4490 0.4590 0.4720
10.127000 0.4800 0.4890 0.4950 0.5140 0.5200
10.160160 0.5290 0.5350 0.5450 0.5530 0.5620
10.193000 0.5700 0.5730 0.5820 0.5980 0.6000
10.226160 0.6030 0.6100 0.6180 0.6210 0.6250
10.259000 0.6300 0.6330 0.6350 0.6350 0.6400
10.292160 0.6410 0.6450 0.6500 0.6510 0.6530
10.326000 0.6550 0.6580 0.6600 0.6600 0.6610
10.359160 0.6630 0.6650 0.6680 0.6740 0.6790
10.392000 0.6810 0.6830 0.6840 0.6840 0.6880
10.425160 0.6880 0.6910 0.6960 0.6990 0.7010
10.458000 0.7030 0.7090 0.7110 0.7140 0.7190
10.491160 0.7230 0.7310 0.7330 0.7340 0.7360
10.525000 0.7390 0.7420 0.7470 0.7490 0.7510
10.558160 0.7520 0.7540 0.7560 0.7570 0.7590
10.591000 0.7620 0.7640 0.7670 0.7690 0.7690
10.624160 0.7690 0.7690 0.7690 0.7710 0.7710
10.657000 0.7710 0.7710 0.7710 0.7720 0.7720
10.690160 0.7740 0.7740 0.7740 0.7740 0.7710
10.723000 0.7690 0.7690 0.7690 0.7690 0.7690
10.756160 0.7690 0.7690 0.7710 0.7710 0.7690
10.790000 0.7690 0.7690 0.7670 0.7670 0.7670
10.823160 0.7670 0.7660 0.7620 0.7590 0.7570
10.856000 0.7570 0.7570 0.7520 0.7510 0.7510
10.889160 0.7470 0.7440 0.7420 0.7420 0.7420
10.922000 0.7410 0.7330 0.7280 0.7190 0.7110
10.955160 0.7060 0.6990 0.6980 0.6980 0.6960
10.989000 0.6930 0.6890 0.6840 0.6810 0.6790
11.022160 0.6780 0.6730 0.6630 0.6610 0.6600
11.055000 0.6580 0.6500 0.6400 0.6380 0.6360
11.088160 0.6350 0.6330 0.6300 0.6200 0.6110
11.121000 0.6110 0.6110 0.6110 0.6100 0.6100
11.154160 0.6110 0.6110 0.6100 0.6100 0.6080
11.188000 0.6080 0.6050 0.6010 0.6000 0.6000
11.221160 0.5980 0.5980 0.5980 0.6000 0.6050
11.254000 0.6050 0.6050 0.6030 0.6030 0.6010
11.287160 0.6000 0.6000 0.6000 0.6000 0.6010
11.320000 0.6030 0.6050 0.6050 0.6010 0.6000
11.353160 0.6000 0.6000 0.6010 0.6010 0.6030
11.386000 0.6100 0.6130 0.6200 0.6230 0.6230
11.419160 0.6250 0.6300 0.6310 0.6400 0.6450
11.453000 0.6500 0.6510 0.6530 0.6600 0.6650
11.486160 0.6760 0.6810 0.6860 0.6910 0.7030
11.519000 0.7140 0.7210 0.7230 0.7240 0.7260
11.552160 0.7330 0.7460 0.7520 0.7540 0.7570
11.585000 0.7590 0.7590 0.7620 0.7690 0.7760
11.618160 0.7790 0.7810 0.7820 0.7910 0.7920
11.652000 0.7940 0.7960 0.7970 0.7970 0.7970
11.685160 0.7990 0.7990 0.7990 0.7990 0.8000
11.718000 0.8020 0.8070 0.8090 0.8090 0.8070
11.751160 0.8020 0.8000 0.7990 0.7970 0.7970
11.784000 0.7960 0.7960 0.7940 0.7920 0.7910
11.817160 0.7890 0.7890 0.7860 0.7840 0.7820
11.850000 0.7810 0.7760 0.7710 0.7660 0.7610
11.883160 0.7590 0.7570 0.7570 0.7570 0.7570
11.917000 0.7560 0.7510 0.7490 0.7460 0.7410
11.950160 0.7390 0.7340 0.7340 0.7310 0.7240
11.983000 0.7230 0.7180 0.7090 0.7010 0.6910
12.016160 0.6890 0.6880 0.6840 0.6830 0.6830
12.049000 0.6830 0.6860 0.6860 0.6890 0.6890
12.082160 0.6890 0.6930 0.6990 0.7010 0.7090
12.116000 0.7110 0.7140 0.7190 0.7210 0.7230
12.149160 0.7310 0.7390 0.7410 0.7460 0.7490
12.182000 0.7510 0.7520 0.7540 0.7570 0.7640
12.215160 0.7660 0.7660 0.7690 0.7690 0.7710
12.248000 0.7740 0.7790 0.7790 0.7810 0.7840
12.281160 0.7860 0.7890 0.7890 0.7890 0.7920
12.314000 0.7940 0.7940 0.7960 0.7960 0.7970
12.347160 0.7970 0.7990 0.7990 0.7990 0.7990
12.381000 0.7990 0.7990 0.7990 0.7990 0.7990
12.414160 0.7990 0.7970 0.7970 0.7960 0.7940
12.447000 0.7940 0.7920 0.7890 0.7860 0.7840
12.480160 0.7840 0.7820 0.7790 0.7790 0.7760
12.513000 0.7720 0.7670 0.7610 0.7590 0.7560
12.546160 0.7560 0.7560 0.7560 0.7560 0.7540
12.580000 0.7540 0.7510 0.7470 0.7440 0.7420
12.613160 0.7420 0.7420 0.7390 0.7390 0.7370
12.646000 0.7360 0.7340 0.7330 0.7330 0.7310
12.679160 0.7290 0.7260 0.7240 0.7240 0.7230
12.712000 0.7190 0.7130 0.7090 0.7060 0.7010
12.745160 0.6930 0.6910 0.6890 0.6840 0.6790
12.778000 0.6680 0.6650 0.6560 0.6500 0.6400
12.811160 0.6300 0.6250 0.6160 0.6010 0.5920
12.845000 0.5880 0.5830 0.5780 0.5700 0.5620
12.878160 0.5530 0.5470 0.5380 0.5330 0.5300
12.911000 0.5190 0.5120 0.5020 0.4990 0.4940
12.944160 0.4840 0.4790 0.4740 0.4700 0.4520
12.977000 0.4420 0.4320 0.4240 0.4060 0.3880
13.010160 0.3740 0.3630 0.3540 0.3410 0.3300
13.044000 0.3150 0.3060 0.2930 0.2800 0.2700
13.077160 0.2620 0.2500 0.2400 0.2330 0.2220
13.110000 0.2080 0.2000 0.1920 0.1840 0.1740
13.143160 0.1690 0.1650 0.1620 0.1570 0.1550
13.176000 0.1540 0.1500 0.1490 0.1470 0.1470
13.209160 0.1450 0.1440 0.1440 0.1420 0.1400
13.242000 0.1390 0.1390 0.1390 0.1390 0.1420
13.275160 0.1440 0.1500 0.1500 0.1550 0.1590
13.309000 0.1590 0.1590 0.1600 0.1640 0.1790
13.342160 0.1920 0.2020 0.2100 0.2200 0.2300
13.375000 0.2430 0.2600 0.2700 0.2730 0.2850
13.408160 0.2980 0.3110 0.3250 0.3380 0.3640
13.441000 0.3810 0.4010 0.4210 0.4290 0.4310
13.474160 0.4410 0.4570 0.4720 0.4800 0.4890
13.508000 0.4940 0.4990 0.4990 0.5100 0.5200
13.541160 0.5290 0.5320 0.5320 0.5320 0.5330
13.574000 0.5380 0.5430 0.5430 0.5470 0.5500
13.607160 0.5500 0.5500 0.5520 0.5530 0.5530
13.640000 0.5550 0.5570 0.5570 0.5580 0.5620
13.673160 0.5620 0.5630 0.5680 0.5680 0.5700
13.706000 0.5720 0.5720 0.5720 0.5720 0.5720
13.739160 0.5730 0.5730 0.5730 0.5700 0.5650
13.773000 0.5620 0.5530 0.5500 0.5500 0.5500
13.806160 0.5500 0.5500 0.5480 0.5480 0.5400
13.839000 0.5400 0.5380 0.5380 0.5380 0.5350
13.872160 0.5350 0.5370 0.5420 0.5450 0.5480
13.905000 0.5500 0.5550 0.5580 0.5600 0.5600
13.938160 0.5600 0.5670 0.5700 0.5720 0.5780
13.972000 0.5800 0.5820 0.5830 0.5830 0.5850
14.005160 0.5880 0.5880 0.5870 0.5830 0.5830
14.038000 0.5820 0.5820 0.5780 0.5700 0.5630
14.071160 0.5580 0.5580 0.5570 0.5550 0.5500
14.104000 0.5370 0.5240 0.5120 0.5050 0.5000
14.137160 0.4950 0.4800 0.4690 0.4370 0.4320
14.170000 0.4190 0.3990 0.3710 0.3580 0.3360
14.203160 0.3150 0.2980 0.2800 0.2570 0.2330
14.237000 0.2220 0.2180 0.2050 0.1900 0.1720
14.270160 0.1640 0.1540 0.1490 0.1440 0.1390
14.303000 0.1340 0.1290 0.1270 0.1210 0.1140
14.336160 0.1120 0.1120 0.1120 0.1170 0.1190
14.369000 0.1190 0.1170 0.1170 0.1190 0.1220
14.402160 0.1320 0.1340 0.1350 0.1390 0.1390
14.436000 0.1440 0.1470 0.1520 0.1590 0.1690
14.469160 0.1790 0.1890 0.1920 0.1970 0.1990
14.502000 0.2030 0.2200 0.2300 0.2400 0.2450
14.535160 0.2520 0.2660 0.2760 0.2900 0.3030
14.568000 0.3110 0.3200 0.3330 0.3430 0.3580
14.601160 0.3690 0.3860 0.4010 0.4070 0.4160
14.634000 0.4290 0.4410 0.4540 0.4610 0.4740
14.667160 0.4850 0.4970 0.5090 0.5200 0.5300
14.701000 0.5430 0.5520 0.5580 0.5620 0.5700
14.734160 0.5770 0.5780 0.5800 0.5830 0.5900
14.767000 0.5950 0.5980 0.6000 0.6000 0.6030
14.800160 0.6050 0.6060 0.6080 0.6100 0.6100
14.833000 0.6110 0.6110 0.6110 0.6110 0.6130
14.866160 0.6130 0.6130 0.6130 0.6150 0.6150
14.900000 0.6160 0.6160 0.6130 0.6130 0.6110
14.933160 0.6080 0.6050 0.6030 0.6030 0.6030
14.966000 0.6060 0.6100 0.6110 0.6110 0.6110
14.999160 0.6100 0.6080 0.6050 0.6000 0.5980
15.032000 0.5880 0.5820 0.5780 0.5680 0.5580
15.065160 0.5470 0.5380 0.5290 0.5200 0.5120
15.098000 0.5050 0.5040 0.5040 0.5040 0.5070
15.131160 0.5090 0.5120 0.5150 0.5200 0.5270
15.165000 0.5300 0.5370 0.5420 0.5480 0.5480
15.198160 0.5520 0.5580 0.5620 0.5670 0.5680
15.231000 0.5720 0.5730 0.5770 0.5780 0.5820
15.264160 0.5830 0.5830 0.5830 0.5850 0.5850
15.297000 0.5850 0.5850 0.5870 0.5880 0.5900
15.330160 0.5900 0.5900 0.5900 0.5900 0.5900
15.364000 0.5900 0.5880 0.5880 0.5880 0.5880
15.397160 0.5870 0.5870 0.5870 0.5870 0.5880
15.430000 0.5880 0.5880 0.5870 0.5870 0.5870
15.463160 0.5820 0.5800 0.5780 0.5780 0.5780
15.496000 0.5780 0.5770 0.5680 0.5680 0.5670
15.529160 0.5650 0.5650 0.5630 0.5630 0.5630
15.563000 0.5630 0.5650 0.5650 0.5650 0.5650
15.596160 0.5630 0.5580 0.5570 0.5550 0.5570
15.629000 0.5570 0.5550 0.5550 0.5550 0.5530
15.662160 0.5430 0.5380 0.5370 0.5370 0.5330
15.695000 0.5320 0.5320 0.5290 0.5240 0.5200
15.728160 0.5190 0.5190 0.5190 0.5150 0.5100
15.761000 0.5090 0.5090 0.5090 0.5100 0.5120
15.794160 0.5120 0.5120 0.5120 0.5100 0.5090
15.828000 0.5020 0.5000 0.4990 0.4970 0.4970
15.861160 0.4920 0.4890 0.4870 0.4870 0.4870
15.894000 0.4870 0.4870 0.4870 0.4870 0.4850
15.927160 0.4840 0.4820 0.4800 0.4800 0.4800
15.960000 0.4800 0.4790 0.4790 0.4790 0.4790
15.993160 0.4800 0.4800
##END=
