##TITLE=PROMETHAZINE HYDROCHLORIDE
##JCAMP-DX=4.24
$$ By DXEDIT 1.05 (RS McDonald)
##DATA TYPE=INFRARED SPECTRUM
##CLASS=COBLENTZ III
##OWNER=COPYRIGHT (C) 1988 by COBLENTZ SOCIETY INC.
Collection (C) 2018 copyright by the U.S. Secretary of Commerce
on behalf of the United States of America. All rights reserved.
##DATE=Not specified, most likely prior to 1970
##NAMES=N,N-dimethyl-1-(10H-phenothiazin-10-yl)-2-propanamine hydrochloride
10-(2-DIMETHYLAMINOPROPYL)PHENOTHIAZINE HYDROCHLORIDE
##MOLFORM=C17 H21 Cl N2 S
##MP=230-232 C (SOME DECOMP.)
##SOURCE REFERENCE=COBLENTZ NO. 5163
##$NIST ID=B6005163
##$NIST SOURCE=COBLENTZ
##$NIST IMAGE=cob5163
##SPECTROMETER/DATA SYSTEM=PERKIN-ELMER 21 (GRATING)
##INSTRUMENT PARAMETERS=FILTER AT ABOUT 10 MICRONS
##STATE=SOLID (KCl DISC)
##SAMPLING PROCEDURE=TRANSMISSION
##RESOLUTION=2
##DATA PROCESSING=DIGITIZED BY COBLENTZ SOCIETY (BATCH I) FROM HARD COPY
##XUNITS=1/CM
##YUNITS=TRANSMITTANCE
##XFACTOR=1
##YFACTOR=1
##DELTAX=1
##FIRSTX=4000
##LASTX=674
##FIRSTY=0.917
##MAXX=4000
##MINX=674
##MAXY=0.9375
##MINY=0.3043
##NPOINTS=3327
##XYDATA=(X++(Y..Y))
4000.000000 0.9170 0.9170 0.9171 0.9171 0.9172
3995.000000 0.9173 0.9173 0.9173 0.9175 0.9175
3990.000000 0.9177 0.9177 0.9177 0.9179 0.9179
3985.000000 0.9181 0.9181 0.9183 0.9183 0.9183
3980.000000 0.9185 0.9185 0.9187 0.9187 0.9187
3975.000000 0.9189 0.9189 0.9189 0.9191 0.9190
3970.000000 0.9192 0.9193 0.9193 0.9194 0.9195
3965.000000 0.9196 0.9197 0.9197 0.9198 0.9199
3960.000000 0.9200 0.9200 0.9201 0.9202 0.9202
3955.000000 0.9202 0.9204 0.9204 0.9204 0.9206
3950.000000 0.9206 0.9207 0.9207 0.9208 0.9209
3945.000000 0.9209 0.9209 0.9211 0.9211 0.9211
3940.000000 0.9213 0.9213 0.9214 0.9215 0.9215
3935.000000 0.9216 0.9215 0.9216 0.9218 0.9218
3930.000000 0.9220 0.9220 0.9221 0.9222 0.9223
3925.000000 0.9224 0.9225 0.9225 0.9227 0.9227
3920.000000 0.9229 0.9230 0.9230 0.9232 0.9233
3915.000000 0.9234 0.9235 0.9236 0.9237 0.9239
3910.000000 0.9239 0.9240 0.9242 0.9242 0.9244
3905.000000 0.9245 0.9245 0.9247 0.9246 0.9248
3900.000000 0.9250 0.9253 0.9257 0.9260 0.9263
3895.000000 0.9266 0.9270 0.9274 0.9279 0.9284
3890.000000 0.9288 0.9293 0.9298 0.9302 0.9306
3885.000000 0.9310 0.9314 0.9318 0.9322 0.9326
3880.000000 0.9328 0.9332 0.9335 0.9339 0.9341
3875.000000 0.9344 0.9348 0.9351 0.9354 0.9357
3870.000000 0.9360 0.9363 0.9365 0.9368 0.9371
3865.000000 0.9373 0.9375 0.9375 0.9374 0.9373
3860.000000 0.9372 0.9371 0.9369 0.9368 0.9367
3855.000000 0.9366 0.9365 0.9364 0.9362 0.9361
3850.000000 0.9360 0.9358 0.9357 0.9357 0.9354
3845.000000 0.9353 0.9353 0.9352 0.9351 0.9350
3840.000000 0.9348 0.9347 0.9346 0.9344 0.9343
3835.000000 0.9342 0.9340 0.9339 0.9338 0.9337
3830.000000 0.9336 0.9335 0.9334 0.9333 0.9332
3825.000000 0.9333 0.9332 0.9331 0.9331 0.9330
3820.000000 0.9329 0.9329 0.9329 0.9328 0.9328
3815.000000 0.9327 0.9326 0.9325 0.9324 0.9323
3810.000000 0.9324 0.9323 0.9323 0.9322 0.9321
3805.000000 0.9321 0.9320 0.9319 0.9320 0.9319
3800.000000 0.9318 0.9318 0.9318 0.9319 0.9318
3795.000000 0.9318 0.9318 0.9319 0.9320 0.9320
3790.000000 0.9322 0.9322 0.9321 0.9323 0.9324
3785.000000 0.9325 0.9326 0.9326 0.9327 0.9328
3780.000000 0.9329 0.9329 0.9330 0.9331 0.9331
3775.000000 0.9333 0.9333 0.9335 0.9336 0.9336
3770.000000 0.9338 0.9339 0.9339 0.9341 0.9342
3765.000000 0.9344 0.9344 0.9346 0.9347 0.9348
3760.000000 0.9349 0.9350 0.9352 0.9352 0.9353
3755.000000 0.9355 0.9356 0.9358 0.9359 0.9359
3750.000000 0.9361 0.9362 0.9364 0.9364 0.9365
3745.000000 0.9366 0.9366 0.9367 0.9367 0.9368
3740.000000 0.9369 0.9369 0.9370 0.9370 0.9370
3735.000000 0.9372 0.9372 0.9372 0.9372 0.9373
3730.000000 0.9373 0.9373 0.9373 0.9372 0.9373
3725.000000 0.9373 0.9373 0.9373 0.9374 0.9374
3720.000000 0.9374 0.9374 0.9375 0.9374 0.9373
3715.000000 0.9374 0.9373 0.9375 0.9374 0.9374
3710.000000 0.9374 0.9375 0.9375 0.9375 0.9374
3705.000000 0.9374 0.9375 0.9375 0.9375 0.9374
3700.000000 0.9374 0.9375 0.9375 0.9374 0.9374
3695.000000 0.9373 0.9374 0.9373 0.9373 0.9372
3690.000000 0.9372 0.9371 0.9370 0.9371 0.9370
3685.000000 0.9370 0.9369 0.9369 0.9368 0.9369
3680.000000 0.9368 0.9367 0.9366 0.9365 0.9365
3675.000000 0.9364 0.9363 0.9362 0.9361 0.9362
3670.000000 0.9361 0.9360 0.9359 0.9358 0.9357
3665.000000 0.9356 0.9355 0.9354 0.9353 0.9354
3660.000000 0.9353 0.9352 0.9351 0.9350 0.9349
3655.000000 0.9348 0.9347 0.9346 0.9345 0.9344
3650.000000 0.9343 0.9342 0.9342 0.9341 0.9340
3645.000000 0.9339 0.9337 0.9336 0.9334 0.9332
3640.000000 0.9329 0.9327 0.9326 0.9324 0.9322
3635.000000 0.9320 0.9318 0.9316 0.9314 0.9312
3630.000000 0.9311 0.9309 0.9307 0.9305 0.9303
3625.000000 0.9301 0.9298 0.9296 0.9295 0.9293
3620.000000 0.9291 0.9289 0.9288 0.9286 0.9283
3615.000000 0.9282 0.9279 0.9278 0.9276 0.9273
3610.000000 0.9270 0.9268 0.9265 0.9263 0.9260
3605.000000 0.9258 0.9255 0.9252 0.9249 0.9246
3600.000000 0.9244 0.9241 0.9239 0.9235 0.9233
3595.000000 0.9230 0.9227 0.9224 0.9222 0.9216
3590.000000 0.9210 0.9206 0.9199 0.9195 0.9189
3585.000000 0.9184 0.9178 0.9172 0.9166 0.9161
3580.000000 0.9155 0.9150 0.9143 0.9137 0.9131
3575.000000 0.9125 0.9118 0.9111 0.9104 0.9097
3570.000000 0.9091 0.9083 0.9076 0.9068 0.9062
3565.000000 0.9054 0.9047 0.9039 0.9033 0.9025
3560.000000 0.9019 0.9013 0.9006 0.8998 0.8994
3555.000000 0.8988 0.8982 0.8976 0.8971 0.8965
3550.000000 0.8960 0.8954 0.8948 0.8942 0.8937
3545.000000 0.8930 0.8926 0.8920 0.8915 0.8909
3540.000000 0.8904 0.8898 0.8893 0.8886 0.8881
3535.000000 0.8875 0.8869 0.8862 0.8858 0.8851
3530.000000 0.8844 0.8838 0.8830 0.8823 0.8817
3525.000000 0.8810 0.8804 0.8796 0.8789 0.8783
3520.000000 0.8776 0.8768 0.8762 0.8755 0.8749
3515.000000 0.8741 0.8734 0.8728 0.8721 0.8713
3510.000000 0.8707 0.8701 0.8695 0.8688 0.8682
3505.000000 0.8675 0.8670 0.8662 0.8656 0.8651
3500.000000 0.8644 0.8638 0.8631 0.8625 0.8618
3495.000000 0.8612 0.8605 0.8599 0.8592 0.8585
3490.000000 0.8580 0.8573 0.8567 0.8560 0.8554
3485.000000 0.8547 0.8541 0.8535 0.8529 0.8521
3480.000000 0.8512 0.8505 0.8497 0.8488 0.8480
3475.000000 0.8472 0.8464 0.8455 0.8447 0.8440
3470.000000 0.8431 0.8423 0.8415 0.8406 0.8398
3465.000000 0.8390 0.8383 0.8374 0.8367 0.8361
3460.000000 0.8356 0.8350 0.8344 0.8338 0.8332
3455.000000 0.8327 0.8320 0.8314 0.8308 0.8302
3450.000000 0.8295 0.8290 0.8283 0.8278 0.8272
3445.000000 0.8266 0.8261 0.8256 0.8250 0.8245
3440.000000 0.8240 0.8234 0.8231 0.8228 0.8225
3435.000000 0.8221 0.8218 0.8215 0.8212 0.8209
3430.000000 0.8206 0.8202 0.8199 0.8196 0.8193
3425.000000 0.8190 0.8187 0.8184 0.8181 0.8178
3420.000000 0.8176 0.8173 0.8170 0.8167 0.8165
3415.000000 0.8162 0.8159 0.8157 0.8154 0.8151
3410.000000 0.8148 0.8145 0.8142 0.8139 0.8137
3405.000000 0.8133 0.8129 0.8126 0.8124 0.8121
3400.000000 0.8118 0.8115 0.8112 0.8109 0.8108
3395.000000 0.8107 0.8106 0.8105 0.8106 0.8106
3390.000000 0.8107 0.8107 0.8107 0.8108 0.8108
3385.000000 0.8108 0.8109 0.8109 0.8109 0.8111
3380.000000 0.8110 0.8112 0.8112 0.8112 0.8113
3375.000000 0.8113 0.8113 0.8121 0.8129 0.8137
3370.000000 0.8145 0.8154 0.8163 0.8172 0.8181
3365.000000 0.8190 0.8197 0.8202 0.8207 0.8214
3360.000000 0.8220 0.8226 0.8231 0.8237 0.8243
3355.000000 0.8247 0.8253 0.8258 0.8264 0.8270
3350.000000 0.8275 0.8281 0.8287 0.8293 0.8299
3345.000000 0.8304 0.8310 0.8316 0.8321 0.8326
3340.000000 0.8331 0.8336 0.8340 0.8344 0.8349
3335.000000 0.8354 0.8359 0.8364 0.8369 0.8373
3330.000000 0.8378 0.8383 0.8388 0.8393 0.8397
3325.000000 0.8402 0.8407 0.8412 0.8417 0.8421
3320.000000 0.8426 0.8431 0.8436 0.8441 0.8445
3315.000000 0.8449 0.8454 0.8459 0.8462 0.8467
3310.000000 0.8471 0.8474 0.8478 0.8482 0.8485
3305.000000 0.8489 0.8493 0.8496 0.8500 0.8504
3300.000000 0.8507 0.8511 0.8515 0.8518 0.8522
3295.000000 0.8527 0.8530 0.8534 0.8538 0.8541
3290.000000 0.8544 0.8548 0.8553 0.8557 0.8560
3285.000000 0.8564 0.8568 0.8571 0.8576 0.8580
3280.000000 0.8583 0.8587 0.8590 0.8594 0.8598
3275.000000 0.8604 0.8609 0.8613 0.8619 0.8624
3270.000000 0.8630 0.8634 0.8639 0.8645 0.8651
3265.000000 0.8656 0.8661 0.8666 0.8672 0.8678
3260.000000 0.8683 0.8688 0.8693 0.8698 0.8702
3255.000000 0.8707 0.8712 0.8716 0.8719 0.8723
3250.000000 0.8727 0.8730 0.8735 0.8738 0.8743
3245.000000 0.8746 0.8750 0.8755 0.8758 0.8762
3240.000000 0.8766 0.8770 0.8774 0.8777 0.8782
3235.000000 0.8786 0.8789 0.8793 0.8796 0.8800
3230.000000 0.8802 0.8806 0.8810 0.8812 0.8816
3225.000000 0.8818 0.8822 0.8825 0.8828 0.8831
3220.000000 0.8835 0.8838 0.8842 0.8844 0.8848
3215.000000 0.8852 0.8854 0.8858 0.8861 0.8864
3210.000000 0.8868 0.8871 0.8874 0.8878 0.8880
3205.000000 0.8884 0.8887 0.8891 0.8894 0.8898
3200.000000 0.8900 0.8904 0.8908 0.8909 0.8914
3195.000000 0.8917 0.8919 0.8923 0.8925 0.8928
3190.000000 0.8930 0.8933 0.8935 0.8938 0.8940
3185.000000 0.8944 0.8946 0.8948 0.8951 0.8952
3180.000000 0.8955 0.8957 0.8959 0.8962 0.8964
3175.000000 0.8967 0.8969 0.8972 0.8974 0.8976
3170.000000 0.8979 0.8981 0.8984 0.8986 0.8989
3165.000000 0.8991 0.8993 0.8996 0.8998 0.9001
3160.000000 0.9003 0.9005 0.9008 0.9009 0.9012
3155.000000 0.9014 0.9016 0.9019 0.9021 0.9024
3150.000000 0.9026 0.9027 0.9030 0.9033 0.9036
3145.000000 0.9038 0.9040 0.9041 0.9043 0.9045
3140.000000 0.9047 0.9048 0.9050 0.9052 0.9053
3135.000000 0.9055 0.9057 0.9058 0.9059 0.9062
3130.000000 0.9063 0.9064 0.9067 0.9067 0.9069
3125.000000 0.9072 0.9072 0.9073 0.9076 0.9076
3120.000000 0.9078 0.9080 0.9082 0.9083 0.9085
3115.000000 0.9085 0.9086 0.9087 0.9089 0.9089
3110.000000 0.9090 0.9090 0.9092 0.9092 0.9094
3105.000000 0.9094 0.9096 0.9096 0.9097 0.9097
3100.000000 0.9098 0.9100 0.9099 0.9100 0.9099
3095.000000 0.9100 0.9099 0.9098 0.9097 0.9096
3090.000000 0.9095 0.9093 0.9090 0.9089 0.9087
3085.000000 0.9084 0.9083 0.9081 0.9077 0.9072
3080.000000 0.9066 0.9059 0.9046 0.9032 0.9017
3075.000000 0.9004 0.8983 0.8964 0.8945 0.8926
3070.000000 0.8906 0.8887 0.8868 0.8849 0.8830
3065.000000 0.8810 0.8791 0.8772 0.8752 0.8733
3060.000000 0.8714 0.8701 0.8689 0.8677 0.8667
3055.000000 0.8664 0.8661 0.8658 0.8654 0.8651
3050.000000 0.8647 0.8644 0.8642 0.8640 0.8638
3045.000000 0.8637 0.8637 0.8639 0.8639 0.8640
3040.000000 0.8643 0.8644 0.8647 0.8648 0.8649
3035.000000 0.8651 0.8652 0.8654 0.8656 0.8656
3030.000000 0.8659 0.8664 0.8668 0.8674 0.8679
3025.000000 0.8683 0.8689 0.8693 0.8698 0.8701
3020.000000 0.8706 0.8710 0.8713 0.8715 0.8718
3015.000000 0.8721 0.8725 0.8727 0.8730 0.8733
3010.000000 0.8736 0.8739 0.8741 0.8742 0.8743
3005.000000 0.8744 0.8743 0.8745 0.8746 0.8746
3000.000000 0.8746 0.8745 0.8746 0.8746 0.8746
2995.000000 0.8756 0.8746 0.8746 0.8745 0.8744
2990.000000 0.8739 0.8730 0.8721 0.8713 0.8701
2985.000000 0.8690 0.8679 0.8666 0.8647 0.8628
2980.000000 0.8610 0.8592 0.8575 0.8557 0.8540
2975.000000 0.8524 0.8510 0.8494 0.8485 0.8480
2970.000000 0.8475 0.8470 0.8466 0.8462 0.8459
2965.000000 0.8455 0.8451 0.8447 0.8443 0.8442
2960.000000 0.8440 0.8439 0.8436 0.8436 0.8433
2955.000000 0.8432 0.8431 0.8429 0.8428 0.8427
2950.000000 0.8425 0.8423 0.8421 0.8420 0.8418
2945.000000 0.8417 0.8416 0.8415 0.8414 0.8413
2940.000000 0.8413 0.8414 0.8414 0.8414 0.8414
2935.000000 0.8416 0.8415 0.8416 0.8415 0.8417
2930.000000 0.8417 0.8418 0.8419 0.8419 0.8419
2925.000000 0.8419 0.8420 0.8424 0.8428 0.8431
2920.000000 0.8435 0.8438 0.8443 0.8446 0.8449
2915.000000 0.8453 0.8456 0.8461 0.8465 0.8470
2910.000000 0.8474 0.8480 0.8484 0.8489 0.8494
2905.000000 0.8498 0.8503 0.8509 0.8514 0.8518
2900.000000 0.8524 0.8528 0.8533 0.8538 0.8543
2895.000000 0.8547 0.8552 0.8556 0.8561 0.8565
2890.000000 0.8570 0.8574 0.8580 0.8584 0.8588
2885.000000 0.8593 0.8597 0.8602 0.8606 0.8611
2880.000000 0.8616 0.8621 0.8625 0.8631 0.8635
2875.000000 0.8642 0.8648 0.8654 0.8660 0.8666
2870.000000 0.8672 0.8678 0.8685 0.8690 0.8697
2865.000000 0.8702 0.8709 0.8714 0.8720 0.8726
2860.000000 0.8732 0.8737 0.8743 0.8748 0.8755
2855.000000 0.8760 0.8767 0.8773 0.8779 0.8783
2850.000000 0.8789 0.8797 0.8802 0.8808 0.8815
2845.000000 0.8821 0.8829 0.8838 0.8846 0.8856
2840.000000 0.8865 0.8874 0.8882 0.8893 0.8902
2835.000000 0.8911 0.8920 0.8926 0.8935 0.8943
2830.000000 0.8951 0.8959 0.8966 0.8973 0.8981
2825.000000 0.8989 0.8996 0.9004 0.9010 0.9017
2820.000000 0.9022 0.9028 0.9033 0.9038 0.9044
2815.000000 0.9049 0.9055 0.9059 0.9065 0.9069
2810.000000 0.9073 0.9077 0.9079 0.9081 0.9083
2805.000000 0.9086 0.9087 0.9088 0.9090 0.9093
2800.000000 0.9095 0.9096 0.9098 0.9101 0.9103
2795.000000 0.9106 0.9106 0.9110 0.9112 0.9113
2790.000000 0.9115 0.9117 0.9119 0.9121 0.9122
2785.000000 0.9124 0.9126 0.9128 0.9129 0.9131
2780.000000 0.9134 0.9134 0.9136 0.9138 0.9140
2775.000000 0.9142 0.9143 0.9145 0.9146 0.9147
2770.000000 0.9149 0.9150 0.9151 0.9152 0.9152
2765.000000 0.9153 0.9155 0.9156 0.9156 0.9159
2760.000000 0.9160 0.9161 0.9163 0.9162 0.9164
2755.000000 0.9163 0.9163 0.9163 0.9164 0.9164
2750.000000 0.9163 0.9162 0.9162 0.9163 0.9162
2745.000000 0.9163 0.9164 0.9163 0.9163 0.9162
2740.000000 0.9161 0.9161 0.9163 0.9162 0.9163
2735.000000 0.9163 0.9162 0.9162 0.9162 0.9161
2730.000000 0.9161 0.9161 0.9160 0.9160 0.9160
2725.000000 0.9159 0.9158 0.9156 0.9152 0.9147
2720.000000 0.9144 0.9141 0.9137 0.9133 0.9131
2715.000000 0.9127 0.9123 0.9119 0.9117 0.9110
2710.000000 0.9101 0.9091 0.9081 0.9071 0.9061
2705.000000 0.9053 0.9046 0.9039 0.9034 0.9028
2700.000000 0.9022 0.9021 0.9019 0.9016 0.9014
2695.000000 0.9013 0.9010 0.9008 0.9006 0.9003
2690.000000 0.9002 0.9002 0.9001 0.9000 0.8999
2685.000000 0.8998 0.8994 0.8992 0.8988 0.8984
2680.000000 0.8979 0.8975 0.8971 0.8967 0.8962
2675.000000 0.8958 0.8954 0.8949 0.8945 0.8940
2670.000000 0.8936 0.8931 0.8926 0.8920 0.8913
2665.000000 0.8907 0.8900 0.8894 0.8886 0.8880
2660.000000 0.8875 0.8868 0.8862 0.8856 0.8849
2655.000000 0.8843 0.8836 0.8829 0.8822 0.8816
2650.000000 0.8809 0.8802 0.8795 0.8787 0.8780
2645.000000 0.8770 0.8763 0.8757 0.8750 0.8742
2640.000000 0.8735 0.8728 0.8721 0.8714 0.8705
2635.000000 0.8699 0.8691 0.8684 0.8677 0.8670
2630.000000 0.8662 0.8654 0.8644 0.8635 0.8626
2625.000000 0.8617 0.8607 0.8598 0.8587 0.8578
2620.000000 0.8568 0.8560 0.8549 0.8539 0.8530
2615.000000 0.8520 0.8511 0.8501 0.8491 0.8479
2610.000000 0.8466 0.8455 0.8442 0.8430 0.8417
2605.000000 0.8404 0.8392 0.8378 0.8365 0.8352
2600.000000 0.8339 0.8326 0.8311 0.8295 0.8280
2595.000000 0.8264 0.8247 0.8231 0.8216 0.8200
2590.000000 0.8184 0.8169 0.8153 0.8137 0.8121
2585.000000 0.8106 0.8093 0.8078 0.8064 0.8051
2580.000000 0.8037 0.8023 0.8009 0.7995 0.7981
2575.000000 0.7968 0.7954 0.7940 0.7925 0.7912
2570.000000 0.7898 0.7883 0.7867 0.7851 0.7835
2565.000000 0.7818 0.7803 0.7786 0.7770 0.7755
2560.000000 0.7742 0.7729 0.7718 0.7708 0.7698
2555.000000 0.7688 0.7677 0.7667 0.7656 0.7647
2550.000000 0.7638 0.7628 0.7620 0.7611 0.7601
2545.000000 0.7592 0.7583 0.7574 0.7568 0.7561
2540.000000 0.7554 0.7547 0.7542 0.7535 0.7528
2535.000000 0.7523 0.7518 0.7514 0.7510 0.7505
2530.000000 0.7502 0.7500 0.7497 0.7494 0.7491
2525.000000 0.7487 0.7484 0.7482 0.7480 0.7477
2520.000000 0.7474 0.7472 0.7468 0.7466 0.7464
2515.000000 0.7462 0.7461 0.7459 0.7458 0.7456
2510.000000 0.7454 0.7454 0.7453 0.7451 0.7449
2505.000000 0.7449 0.7448 0.7447 0.7447 0.7446
2500.000000 0.7445 0.7445 0.7444 0.7444 0.7445
2495.000000 0.7445 0.7444 0.7444 0.7444 0.7443
2490.000000 0.7443 0.7442 0.7441 0.7440 0.7440
2485.000000 0.7439 0.7438 0.7438 0.7437 0.7436
2480.000000 0.7437 0.7437 0.7438 0.7439 0.7440
2475.000000 0.7440 0.7442 0.7442 0.7443 0.7444
2470.000000 0.7445 0.7444 0.7444 0.7441 0.7438
2465.000000 0.7436 0.7435 0.7432 0.7430 0.7429
2460.000000 0.7427 0.7424 0.7420 0.7400 0.7381
2455.000000 0.7346 0.7308 0.7267 0.7220 0.7173
2450.000000 0.7132 0.7093 0.7009 0.6895 0.6793
2445.000000 0.6752 0.6713 0.6672 0.6632 0.6591
2440.000000 0.6552 0.6512 0.6471 0.6431 0.6391
2435.000000 0.6350 0.6311 0.6269 0.6230 0.6189
2430.000000 0.6149 0.6109 0.6068 0.6028 0.5987
2425.000000 0.5947 0.5906 0.5865 0.5824 0.5782
2420.000000 0.5743 0.5701 0.5661 0.5621 0.5580
2415.000000 0.5540 0.5499 0.5458 0.5416 0.5377
2410.000000 0.5336 0.5295 0.5254 0.5212 0.5172
2405.000000 0.5130 0.5089 0.5048 0.5007 0.4966
2400.000000 0.4925 0.4884 0.4843 0.4801 0.4760
2395.000000 0.4719 0.4677 0.4636 0.4595 0.4554
2390.000000 0.4513 0.4472 0.4430 0.4389 0.4348
2385.000000 0.4315 0.4289 0.4265 0.4245 0.4224
2380.000000 0.4221 0.4217 0.4212 0.4200 0.4207
2375.000000 0.4205 0.4203 0.4203 0.4203 0.4203
2370.000000 0.4202 0.4202 0.4202 0.4202 0.4206
2365.000000 0.4209 0.4213 0.4217 0.4222 0.4226
2360.000000 0.4230 0.4234 0.4240 0.4246 0.4253
2355.000000 0.4261 0.4269 0.4277 0.4285 0.4295
2350.000000 0.4305 0.4318 0.4333 0.4348 0.4362
2345.000000 0.4378 0.4392 0.4407 0.4421 0.4437
2340.000000 0.4453 0.4470 0.4487 0.4506 0.4524
2335.000000 0.4543 0.4561 0.4579 0.4598 0.4621
2330.000000 0.4643 0.4674 0.4704 0.4739 0.4774
2325.000000 0.4823 0.4880 0.4940 0.5001 0.5059
2320.000000 0.5108 0.5157 0.5210 0.5265 0.5310
2315.000000 0.5354 0.5398 0.5442 0.5486 0.5530
2310.000000 0.5574 0.5617 0.5662 0.5707 0.5751
2305.000000 0.5795 0.5839 0.5882 0.5927 0.5971
2300.000000 0.6016 0.6061 0.6105 0.6149 0.6193
2295.000000 0.6238 0.6282 0.6327 0.6371 0.6416
2290.000000 0.6461 0.6505 0.6550 0.6594 0.6639
2285.000000 0.6682 0.6724 0.6764 0.6792 0.6820
2280.000000 0.6849 0.6877 0.6913 0.6948 0.6984
2275.000000 0.7022 0.7061 0.7099 0.7138 0.7178
2270.000000 0.7217 0.7256 0.7296 0.7337 0.7377
2265.000000 0.7416 0.7457 0.7497 0.7536 0.7571
2260.000000 0.7603 0.7628 0.7653 0.7677 0.7703
2255.000000 0.7727 0.7749 0.7764 0.7780 0.7794
2250.000000 0.7809 0.7824 0.7840 0.7855 0.7869
2245.000000 0.7884 0.7900 0.7915 0.7929 0.7943
2240.000000 0.7956 0.7968 0.7981 0.7994 0.8006
2235.000000 0.8020 0.8033 0.8046 0.8060 0.8073
2230.000000 0.8086 0.8099 0.8112 0.8126 0.8139
2225.000000 0.8153 0.8166 0.8180 0.8194 0.8206
2220.000000 0.8221 0.8236 0.8249 0.8262 0.8276
2215.000000 0.8290 0.8303 0.8318 0.8331 0.8345
2210.000000 0.8358 0.8371 0.8384 0.8395 0.8406
2205.000000 0.8419 0.8431 0.8443 0.8456 0.8468
2200.000000 0.8480 0.8491 0.8504 0.8516 0.8528
2195.000000 0.8538 0.8550 0.8560 0.8570 0.8582
2190.000000 0.8593 0.8604 0.8615 0.8624 0.8636
2185.000000 0.8647 0.8658 0.8667 0.8676 0.8684
2180.000000 0.8692 0.8700 0.8707 0.8713 0.8722
2175.000000 0.8729 0.8737 0.8745 0.8752 0.8759
2170.000000 0.8767 0.8774 0.8782 0.8789 0.8795
2165.000000 0.8801 0.8807 0.8813 0.8819 0.8824
2160.000000 0.8828 0.8833 0.8839 0.8844 0.8850
2155.000000 0.8854 0.8858 0.8862 0.8865 0.8868
2150.000000 0.8873 0.8876 0.8879 0.8882 0.8886
2145.000000 0.8889 0.8892 0.8895 0.8897 0.8900
2140.000000 0.8902 0.8905 0.8908 0.8911 0.8913
2135.000000 0.8916 0.8918 0.8920 0.8923 0.8923
2130.000000 0.8924 0.8923 0.8923 0.8924 0.8924
2125.000000 0.8924 0.8925 0.8925 0.8925 0.8925
2120.000000 0.8926 0.8928 0.8929 0.8931 0.8932
2115.000000 0.8933 0.8935 0.8937 0.8938 0.8942
2110.000000 0.8948 0.8956 0.8963 0.8970 0.8977
2105.000000 0.8983 0.8989 0.8997 0.9004 0.9011
2100.000000 0.9016 0.9022 0.9028 0.9031 0.9036
2095.000000 0.9041 0.9045 0.9050 0.9054 0.9058
2090.000000 0.9062 0.9065 0.9070 0.9075 0.9080
2085.000000 0.9084 0.9089 0.9093 0.9096 0.9102
2080.000000 0.9107 0.9111 0.9116 0.9121 0.9126
2075.000000 0.9130 0.9134 0.9138 0.9142 0.9148
2070.000000 0.9153 0.9160 0.9166 0.9173 0.9178
2065.000000 0.9186 0.9191 0.9197 0.9203 0.9209
2060.000000 0.9213 0.9216 0.9220 0.9224 0.9229
2055.000000 0.9232 0.9238 0.9242 0.9245 0.9250
2050.000000 0.9254 0.9258 0.9261 0.9263 0.9265
2045.000000 0.9265 0.9267 0.9269 0.9271 0.9271
2040.000000 0.9273 0.9275 0.9277 0.9278 0.9279
2035.000000 0.9281 0.9282 0.9282 0.9282 0.9283
2030.000000 0.9284 0.9285 0.9285 0.9285 0.9285
2025.000000 0.9286 0.9286 0.9286 0.9286 0.9287
2020.000000 0.9286 0.9288 0.9287 0.9287 0.9289
2015.000000 0.9288 0.9289 0.9288 0.9288 0.9288
2010.000000 0.9287 0.9288 0.9288 0.9287 0.9288
2005.000000 0.9288 0.9287 0.9286 0.9285 0.9284
2000.000000 0.9283 0.9280 0.9278 0.9273 0.9269
1995.000000 0.9266 0.9262 0.9257 0.9253 0.9249
1990.000000 0.9245 0.9241 0.9238 0.9235 0.9230
1985.000000 0.9227 0.9223 0.9220 0.9216 0.9212
1980.000000 0.9208 0.9205 0.9203 0.9199 0.9196
1975.000000 0.9193 0.9190 0.9186 0.9183 0.9180
1970.000000 0.9177 0.9181 0.9184 0.9190 0.9196
1965.000000 0.9201 0.9210 0.9219 0.9226 0.9235
1960.000000 0.9238 0.9237 0.9236 0.9235 0.9233
1955.000000 0.9230 0.9228 0.9227 0.9227 0.9227
1950.000000 0.9228 0.9227 0.9229 0.9232 0.9237
1945.000000 0.9242 0.9247 0.9253 0.9260 0.9266
1940.000000 0.9273 0.9282 0.9288 0.9296 0.9300
1935.000000 0.9300 0.9301 0.9302 0.9302 0.9304
1930.000000 0.9304 0.9303 0.9303 0.9301 0.9297
1925.000000 0.9296 0.9295 0.9291 0.9290 0.9289
1920.000000 0.9286 0.9283 0.9280 0.9278 0.9276
1915.000000 0.9274 0.9271 0.9269 0.9266 0.9264
1910.000000 0.9263 0.9260 0.9258 0.9257 0.9256
1905.000000 0.9259 0.9264 0.9266 0.9272 0.9277
1900.000000 0.9282 0.9285 0.9293 0.9306 0.9323
1895.000000 0.9340 0.9352 0.9358 0.9362 0.9366
1890.000000 0.9368 0.9370 0.9369 0.9368 0.9367
1885.000000 0.9365 0.9361 0.9355 0.9351 0.9346
1880.000000 0.9344 0.9338 0.9332 0.9325 0.9317
1875.000000 0.9310 0.9304 0.9301 0.9295 0.9290
1870.000000 0.9287 0.9284 0.9281 0.9278 0.9277
1865.000000 0.9278 0.9281 0.9286 0.9291 0.9293
1860.000000 0.9299 0.9303 0.9307 0.9312 0.9316
1855.000000 0.9321 0.9324 0.9330 0.9333 0.9337
1850.000000 0.9340 0.9343 0.9346 0.9349 0.9352
1845.000000 0.9355 0.9356 0.9356 0.9355 0.9354
1840.000000 0.9354 0.9353 0.9353 0.9352 0.9351
1835.000000 0.9350 0.9348 0.9346 0.9343 0.9340
1830.000000 0.9337 0.9337 0.9336 0.9336 0.9336
1825.000000 0.9338 0.9338 0.9338 0.9338 0.9340
1820.000000 0.9340 0.9341 0.9341 0.9343 0.9345
1815.000000 0.9348 0.9350 0.9352 0.9353 0.9353
1810.000000 0.9354 0.9353 0.9354 0.9355 0.9356
1805.000000 0.9356 0.9355 0.9354 0.9352 0.9351
1800.000000 0.9350 0.9345 0.9338 0.9329 0.9321
1795.000000 0.9312 0.9304 0.9295 0.9286 0.9276
1790.000000 0.9269 0.9267 0.9265 0.9264 0.9263
1785.000000 0.9264 0.9269 0.9275 0.9280 0.9285
1780.000000 0.9290 0.9293 0.9296 0.9299 0.9301
1775.000000 0.9304 0.9307 0.9310 0.9314 0.9315
1770.000000 0.9316 0.9316 0.9315 0.9315 0.9314
1765.000000 0.9315 0.9314 0.9314 0.9313 0.9312
1760.000000 0.9314 0.9313 0.9313 0.9312 0.9310
1755.000000 0.9308 0.9308 0.9304 0.9304 0.9301
1750.000000 0.9300 0.9299 0.9295 0.9294 0.9291
1745.000000 0.9290 0.9289 0.9286 0.9283 0.9282
1740.000000 0.9280 0.9277 0.9276 0.9274 0.9270
1735.000000 0.9269 0.9266 0.9264 0.9262 0.9258
1730.000000 0.9255 0.9252 0.9248 0.9244 0.9241
1725.000000 0.9237 0.9233 0.9230 0.9226 0.9223
1720.000000 0.9218 0.9214 0.9211 0.9207 0.9202
1715.000000 0.9198 0.9194 0.9191 0.9187 0.9183
1710.000000 0.9182 0.9179 0.9175 0.9172 0.9170
1705.000000 0.9167 0.9164 0.9162 0.9159 0.9157
1700.000000 0.9155 0.9154 0.9152 0.9151 0.9149
1695.000000 0.9148 0.9147 0.9145 0.9143 0.9142
1690.000000 0.9140 0.9138 0.9135 0.9132 0.9128
1685.000000 0.9123 0.9117 0.9111 0.9105 0.9099
1680.000000 0.9093 0.9087 0.9080 0.9076 0.9070
1675.000000 0.9063 0.9058 0.9052 0.9046 0.9040
1670.000000 0.9033 0.9029 0.9023 0.9017 0.9011
1665.000000 0.9005 0.8999 0.8993 0.8987 0.8981
1660.000000 0.8976 0.8970 0.8964 0.8958 0.8953
1655.000000 0.8947 0.8943 0.8939 0.8935 0.8932
1650.000000 0.8927 0.8922 0.8920 0.8917 0.8914
1645.000000 0.8910 0.8908 0.8905 0.8902 0.8900
1640.000000 0.8899 0.8899 0.8900 0.8901 0.8901
1635.000000 0.8902 0.8903 0.8904 0.8905 0.8907
1630.000000 0.8908 0.8908 0.8911 0.8911 0.8913
1625.000000 0.8913 0.8914 0.8914 0.8914 0.8914
1620.000000 0.8914 0.8915 0.8915 0.8918 0.8920
1615.000000 0.8919 0.8922 0.8923 0.8924 0.8926
1610.000000 0.8926 0.8924 0.8921 0.8918 0.8915
1605.000000 0.8906 0.8893 0.8879 0.8776 0.8580
1600.000000 0.8359 0.8140 0.7918 0.7734 0.7672
1595.000000 0.7648 0.7681 0.7779 0.7886 0.7993
1590.000000 0.8100 0.8207 0.8313 0.8418 0.8485
1585.000000 0.8485 0.8484 0.8472 0.8458 0.8432
1580.000000 0.8400 0.8367 0.8280 0.8070 0.7852
1575.000000 0.7635 0.7434 0.7328 0.7314 0.7311
1570.000000 0.7370 0.7535 0.7700 0.7866 0.8032
1565.000000 0.8197 0.8356 0.8457 0.8501 0.8540
1560.000000 0.8579 0.8620 0.8660 0.8702 0.8743
1555.000000 0.8778 0.8812 0.8837 0.8851 0.8862
1550.000000 0.8870 0.8879 0.8885 0.8893 0.8898
1545.000000 0.8902 0.8904 0.8907 0.8909 0.8912
1540.000000 0.8916 0.8918 0.8922 0.8923 0.8924
1535.000000 0.8924 0.8925 0.8925 0.8926 0.8952
1530.000000 0.8921 0.8918 0.8915 0.8911 0.8909
1525.000000 0.8904 0.8900 0.8895 0.8889 0.8883
1520.000000 0.8876 0.8870 0.8863 0.8857 0.8849
1515.000000 0.8840 0.8831 0.8822 0.8809 0.8794
1510.000000 0.8775 0.8745 0.8710 0.8665 0.8565
1505.000000 0.8489 0.8445 0.8400 0.8354 0.8303
1500.000000 0.8196 0.7990 0.7757 0.7525 0.7291
1495.000000 0.7058 0.6824 0.6589 0.6356 0.6121
1490.000000 0.5891 0.5873 0.5852 0.5852 0.5851
1485.000000 0.5891 0.5980 0.6069 0.6158 0.6247
1480.000000 0.6335 0.6417 0.6461 0.6476 0.6504
1475.000000 0.6492 0.6487 0.6477 0.6466 0.6428
1470.000000 0.6211 0.5895 0.5576 0.5256 0.4937
1465.000000 0.4618 0.4298 0.3978 0.3657 0.3354
1460.000000 0.3203 0.3118 0.3057 0.3049 0.3043
1455.000000 0.3048 0.3064 0.3157 0.3424 0.3754
1450.000000 0.4086 0.4418 0.4705 0.4855 0.5002
1445.000000 0.5165 0.5329 0.5494 0.5658 0.5823
1440.000000 0.5987 0.6153 0.6317 0.6483 0.6649
1435.000000 0.6815 0.6982 0.7147 0.7314 0.7481
1430.000000 0.7648 0.7815 0.7940 0.7994 0.8032
1425.000000 0.8062 0.8087 0.8101 0.8110 0.8118
1420.000000 0.8126 0.8128 0.8128 0.8128 0.8128
1415.000000 0.8130 0.8129 0.8130 0.8129 0.8129
1410.000000 0.8128 0.8128 0.8129 0.8130 0.8132
1405.000000 0.8132 0.8135 0.8137 0.8140 0.8141
1400.000000 0.8144 0.8138 0.8126 0.8113 0.8091
1395.000000 0.8066 0.8033 0.8003 0.7973 0.7966
1390.000000 0.7966 0.7964 0.7973 0.8015 0.8044
1385.000000 0.8052 0.8046 0.7977 0.7879 0.7781
1380.000000 0.7682 0.7686 0.7638 0.7677 0.7807
1375.000000 0.7957 0.8108 0.8258 0.8409 0.8559
1370.000000 0.8645 0.8659 0.8665 0.8678 0.8674
1365.000000 0.8673 0.8672 0.8653 0.8539 0.8404
1360.000000 0.8270 0.8135 0.7999 0.7863 0.7728
1355.000000 0.7655 0.7660 0.7665 0.7747 0.7842
1350.000000 0.7936 0.8026 0.8052 0.8055 0.8006
1345.000000 0.7795 0.7549 0.7302 0.7054 0.6882
1340.000000 0.6680 0.6367 0.6053 0.5739 0.5657
1335.000000 0.5636 0.5642 0.5682 0.5861 0.6095
1330.000000 0.6330 0.6565 0.6800 0.7035 0.7272
1325.000000 0.7508 0.7761 0.8016 0.8137 0.8222
1320.000000 0.8310 0.8400 0.8476 0.8541 0.8596
1315.000000 0.8641 0.8673 0.8703 0.8720 0.8738
1310.000000 0.8744 0.8746 0.8751 0.8741 0.8734
1305.000000 0.8722 0.8710 0.8694 0.8677 0.8659
1300.000000 0.8640 0.8622 0.8600 0.8570 0.8543
1295.000000 0.8513 0.8471 0.8426 0.8366 0.8294
1290.000000 0.8176 0.7901 0.7613 0.7326 0.7039
1285.000000 0.6793 0.6751 0.6714 0.6773 0.6909
1280.000000 0.7046 0.7184 0.7317 0.7351 0.7362
1275.000000 0.7285 0.7176 0.7065 0.6954 0.6843
1270.000000 0.6799 0.6770 0.6830 0.6966 0.7102
1265.000000 0.7239 0.7375 0.7472 0.7472 0.7463
1260.000000 0.7279 0.7033 0.6788 0.6588 0.6565
1255.000000 0.6577 0.6731 0.6885 0.7038 0.7193
1250.000000 0.7346 0.7332 0.7317 0.7315 0.7315
1245.000000 0.7328 0.7415 0.7660 0.7919 0.8179
1240.000000 0.8314 0.8309 0.8325 0.8326 0.8321
1235.000000 0.8122 0.7721 0.7320 0.6918 0.6516
1230.000000 0.6113 0.5709 0.5305 0.5078 0.5068
1225.000000 0.5195 0.5545 0.5909 0.6274 0.6638
1220.000000 0.7004 0.7370 0.7575 0.7742 0.7893
1215.000000 0.8034 0.8125 0.8207 0.8288 0.8363
1210.000000 0.8434 0.8483 0.8515 0.8547 0.8567
1205.000000 0.8583 0.8598 0.8613 0.8620 0.8625
1200.000000 0.8630 0.8636 0.8640 0.8645 0.8648
1195.000000 0.8652 0.8653 0.8656 0.8658 0.8660
1190.000000 0.8662 0.8662 0.8661 0.8655 0.8649
1185.000000 0.8639 0.8623 0.8603 0.8585 0.8561
1180.000000 0.8522 0.8457 0.8311 0.8181 0.7857
1175.000000 0.7709 0.7649 0.7598 0.7545 0.7505
1170.000000 0.7482 0.7465 0.7471 0.7486 0.7584
1165.000000 0.7767 0.7875 0.7911 0.7914 0.7918
1160.000000 0.7945 0.7992 0.8085 0.8184 0.8314
1155.000000 0.8437 0.8532 0.8575 0.8589 0.8590
1150.000000 0.8590 0.8571 0.8543 0.8503 0.8454
1145.000000 0.8389 0.8313 0.8247 0.8211 0.8229
1140.000000 0.8255 0.8273 0.8284 0.8284 0.8273
1135.000000 0.8240 0.8174 0.7931 0.7562 0.7192
1130.000000 0.6823 0.6452 0.6241 0.6279 0.6360
1125.000000 0.6631 0.6903 0.7176 0.7448 0.7717
1120.000000 0.7880 0.7939 0.7979 0.7988 0.7993
1115.000000 0.7993 0.7992 0.7986 0.7974 0.7937
1110.000000 0.7893 0.7820 0.7713 0.7583 0.7508
1105.000000 0.7528 0.7564 0.7652 0.7772 0.7892
1100.000000 0.8013 0.8116 0.8172 0.8230 0.8278
1095.000000 0.8324 0.8369 0.8417 0.8467 0.8526
1090.000000 0.8585 0.8617 0.8641 0.8665 0.8684
1085.000000 0.8701 0.8718 0.8735 0.8751 0.8767
1080.000000 0.8784 0.8800 0.8814 0.8830 0.8842
1075.000000 0.8851 0.8853 0.8865 0.8841 0.8825
1070.000000 0.8787 0.8724 0.8635 0.8566 0.8523
1065.000000 0.8509 0.8534 0.8550 0.8518 0.8487
1060.000000 0.8459 0.8458 0.8478 0.8492 0.8498
1055.000000 0.8485 0.8473 0.8427 0.8354 0.8278
1050.000000 0.8210 0.8160 0.8100 0.7909 0.7644
1045.000000 0.7321 0.6996 0.6755 0.6761 0.6952
1040.000000 0.7158 0.7330 0.7343 0.7221 0.6954
1035.000000 0.6714 0.6697 0.6964 0.7336 0.7709
1030.000000 0.8082 0.8376 0.8544 0.8630 0.8685
1025.000000 0.8731 0.8763 0.8796 0.8833 0.8860
1020.000000 0.8882 0.8893 0.8905 0.8900 0.8895
1015.000000 0.8847 0.8786 0.8720 0.8658 0.8600
1010.000000 0.8556 0.8509 0.8453 0.8393 0.8332
1005.000000 0.8247 0.8268 0.8271 0.8330 0.8433
1000.000000 0.8551 0.8703 0.8872 0.8951 0.8963
995.000000 0.8975 0.9001 0.9016 0.9018 0.9021
990.000000 0.9029 0.9044 0.9058 0.9071 0.9110
985.000000 0.9156 0.9193 0.9217 0.9218 0.9194
980.000000 0.9142 0.9066 0.8991 0.8907 0.8919
975.000000 0.8926 0.8942 0.8999 0.9049 0.9094
970.000000 0.9133 0.9154 0.9175 0.9196 0.9212
965.000000 0.9219 0.9234 0.9226 0.9226 0.9225
960.000000 0.9223 0.9217 0.9199 0.9142 0.9098
955.000000 0.9083 0.9038 0.8946 0.8900 0.8880
950.000000 0.8875 0.8883 0.8917 0.8949 0.8979
945.000000 0.9008 0.9035 0.9053 0.9050 0.9017
940.000000 0.8962 0.8880 0.8794 0.8729 0.8662
935.000000 0.8549 0.8288 0.8021 0.7754 0.7606
930.000000 0.7590 0.7609 0.7819 0.8045 0.8272
925.000000 0.8499 0.8717 0.8826 0.8930 0.9042
920.000000 0.9115 0.9154 0.9182 0.9202 0.9212
915.000000 0.9222 0.9225 0.9224 0.9223 0.9216
910.000000 0.9208 0.9200 0.9182 0.9157 0.9101
905.000000 0.8987 0.8649 0.8579 0.8577 0.8628
900.000000 0.8756 0.8870 0.8978 0.9060 0.9130
895.000000 0.9167 0.9201 0.9230 0.9246 0.9264
890.000000 0.9272 0.9281 0.9284 0.9298 0.9269
885.000000 0.9245 0.9229 0.9225 0.9221 0.9216
880.000000 0.9210 0.9193 0.9173 0.9146 0.9114
875.000000 0.9096 0.9087 0.9090 0.9093 0.9099
870.000000 0.9108 0.9104 0.9092 0.9067 0.9010
865.000000 0.8921 0.8819 0.8645 0.8434 0.8222
860.000000 0.8079 0.8098 0.8091 0.8106 0.8185
855.000000 0.8277 0.8262 0.8175 0.8120 0.8188
850.000000 0.8536 0.8921 0.9036 0.9100 0.9141
845.000000 0.9178 0.9196 0.9211 0.9228 0.9245
840.000000 0.9261 0.9274 0.9281 0.9288 0.9295
835.000000 0.9304 0.9307 0.9312 0.9315 0.9319
830.000000 0.9322 0.9324 0.9327 0.9329 0.9332
825.000000 0.9333 0.9335 0.9337 0.9338 0.9340
820.000000 0.9342 0.9346 0.9349 0.9351 0.9355
815.000000 0.9359 0.9362 0.9360 0.9359 0.9358
810.000000 0.9355 0.9354 0.9352 0.9349 0.9347
805.000000 0.9344 0.9342 0.9339 0.9336 0.9331
800.000000 0.9328 0.9318 0.9313 0.9306 0.9300
795.000000 0.9292 0.9286 0.9275 0.9262 0.9249
790.000000 0.9234 0.9227 0.9227 0.9209 0.9140
785.000000 0.9063 0.8976 0.8890 0.8802 0.8700
780.000000 0.8613 0.8585 0.8564 0.8539 0.8492
775.000000 0.8379 0.8156 0.7568 0.7182 0.6924
770.000000 0.6797 0.6717 0.6640 0.6578 0.6352
765.000000 0.5572 0.4763 0.3967 0.3662 0.3558
760.000000 0.3473 0.3318 0.3318 0.3440 0.4296
755.000000 0.5119 0.6045 0.6594 0.7080 0.7386
750.000000 0.7632 0.7851 0.8040 0.8172 0.8311
745.000000 0.8449 0.8551 0.8630 0.8717 0.8766
740.000000 0.8795 0.8805 0.8787 0.8384 0.7874
735.000000 0.7364 0.6613 0.6646 0.6815 0.7378
730.000000 0.8058 0.8449 0.8596 0.8770 0.8838
725.000000 0.8876 0.8901 0.8937 0.8981 0.9016
720.000000 0.9029 0.9043 0.9056 0.9067 0.9079
715.000000 0.9089 0.9100 0.9110 0.9121 0.9112
710.000000 0.9112 0.9138 0.9189 0.9192 0.9172
705.000000 0.9136 0.9138 0.9143 0.9147 0.9147
700.000000 0.9146 0.9125 0.9099 0.9069 0.9009
695.000000 0.8993 0.8970 0.9006 0.9041 0.9067
690.000000 0.9086 0.9104 0.9115 0.9122 0.9128
685.000000 0.9130 0.9131 0.9130 0.9124 0.9116
680.000000 0.9099 0.9063 0.9013 0.8949 0.8924
675.000000 0.8938 0.8951
##END=
