##TITLE=3-(4-ANILINO-1-NAPHTHYLAZO)-2,7-NAPHTHALENEDISULFONIC ACID, MONOAMMONIUM SALT
##JCAMP-DX=4.24
##DATA TYPE=INFRARED SPECTRUM
##CLASS=COBLENTZ
##ORIGIN=WYANDOTTE CHEMICALS CORP., WYANDOTTE, MICHIGAN, USA
##OWNER=COBLENTZ SOCIETY
Collection (C) 2018 copyright by the U.S. Secretary of Commerce
on behalf of the United States of America. All rights reserved.
##DATE=Not specified, most likely prior to 1970
##MOLFORM=C26 H22 N4 S6 S2
##SOURCE REFERENCE=COBLENTZ NO. 3817
##$NIST ID=B6003817
##$NIST SOURCE=COBLENTZ
##$NIST IMAGE=cob3817
##SPECTROMETER/DATA SYSTEM=Not specified, most likely a prism, grating, or hybrid spectrometer.
##STATE=SOLID (MINERAL OIL MULL)
##PATH LENGTH=
$$SPECTRAL CONTAMINATION DUE TO OIL AROUND 2900 CM^-^1
##SAMPLING PROCEDURE=TRANSMISSION
##RESOLUTION=4
##DATA PROCESSING=DIGITIZED BY NIST FROM HARD COPY
##XUNITS=MICROMETERS
##YUNITS=TRANSMITTANCE
##XFACTOR=1.000000
##YFACTOR=1
##DELTAX=000.006192
##FIRSTX=2.012
##LASTX=15.9874
##FIRSTY=0.381
##MAXX=15.9874
##MINX=2.012
##MAXY=0.967
##MINY=0.013
##NPOINTS=2258
##XYDATA=(X++(Y..Y))
2.012000 0.3810 0.3840 0.3880 0.3900 0.3960
2.042973 0.3990 0.4020 0.4050 0.4070 0.4070
2.074000 0.4100 0.4120 0.4130 0.4150 0.4180
2.104973 0.4190 0.4190 0.4150 0.4100 0.4100
2.136000 0.4090 0.4100 0.4130 0.4180 0.4190
2.166973 0.4210 0.4230 0.4270 0.4290 0.4290
2.198000 0.4290 0.4290 0.4290 0.4290 0.4270
2.228973 0.4270 0.4260 0.4270 0.4270 0.4290
2.260000 0.4290 0.4290 0.4290 0.4270 0.4270
2.290973 0.4290 0.4290 0.4300 0.4320 0.4330
2.322000 0.4380 0.4440 0.4460 0.4490 0.4510
2.352973 0.4470 0.4490 0.4510 0.4540 0.4600
2.384000 0.4630 0.4650 0.4660 0.4680 0.4710
2.414973 0.4750 0.4790 0.4830 0.4880 0.4890
2.446000 0.4930 0.4940 0.4960 0.4990 0.5050
2.476973 0.5100 0.5110 0.5130 0.5140 0.5140
2.508000 0.5160 0.5160 0.5170 0.5200 0.5220
2.538973 0.5220 0.5250 0.5280 0.5300 0.5310
2.570000 0.5330 0.5390 0.5470 0.5480 0.5530
2.600973 0.5580 0.5610 0.5610 0.5620 0.5640
2.632000 0.5670 0.5690 0.5700 0.5760 0.5800
2.662973 0.5830 0.5840 0.5840 0.5840 0.5840
2.693000 0.5840 0.5840 0.5810 0.5700 0.5620
2.723973 0.5580 0.5500 0.5420 0.5360 0.5240
2.755000 0.5000 0.4860 0.4690 0.4550 0.4440
2.785973 0.4210 0.4070 0.3950 0.3740 0.3650
2.817000 0.3560 0.3490 0.3400 0.3260 0.3170
2.847973 0.3010 0.2900 0.2830 0.2780 0.2720
2.879000 0.2650 0.2610 0.2530 0.2480 0.2410
2.909973 0.2390 0.2310 0.2280 0.2220 0.2190
2.941000 0.2140 0.2110 0.2080 0.2050 0.2020
2.971973 0.2000 0.2000 0.2000 0.2000 0.2020
3.003000 0.2090 0.2090 0.2080 0.2030 0.1990
3.033973 0.1950 0.1920 0.1890 0.1850 0.1850
3.065000 0.1830 0.1810 0.1780 0.1740 0.1720
3.095973 0.1710 0.1670 0.1610 0.1530 0.1490
3.127000 0.1430 0.1350 0.1290 0.1270 0.1250
3.157973 0.1220 0.1210 0.1210 0.1210 0.1240
3.189000 0.1270 0.1290 0.1300 0.1320 0.1320
3.219973 0.1320 0.1330 0.1350 0.1330 0.1300
3.251000 0.1210 0.1180 0.1180 0.1150 0.1080
3.281973 0.1050 0.1020 0.0960 0.0930 0.0910
3.313000 0.0930 0.0930 0.0900 0.0710 0.0600
3.343973 0.0590 0.0430 0.0320 0.0270 0.0230
3.375000 0.0180 0.0170 0.0130 0.0130 0.0130
3.405973 0.0130 0.0150 0.0150 0.0170 0.0180
3.437000 0.0180 0.0180 0.0200 0.0200 0.0200
3.467973 0.0200 0.0200 0.0200 0.0200 0.0180
3.498000 0.0180 0.0180 0.0200 0.0210 0.0240
3.528973 0.0270 0.0380 0.0540 0.0820 0.1190
3.560000 0.1490 0.1750 0.2160 0.2410 0.2560
3.590973 0.2780 0.2980 0.3120 0.3290 0.3460
3.622000 0.3620 0.3730 0.3850 0.3980 0.3990
3.652973 0.4010 0.4040 0.4090 0.4130 0.4150
3.684000 0.4150 0.4160 0.4180 0.4230 0.4290
3.714973 0.4330 0.4440 0.4550 0.4630 0.4680
3.746000 0.4720 0.4740 0.4790 0.4790 0.4800
3.776973 0.4820 0.4850 0.4880 0.4960 0.5030
3.808000 0.5080 0.5100 0.5140 0.5200 0.5270
3.838973 0.5310 0.5330 0.5390 0.5410 0.5440
3.870000 0.5450 0.5520 0.5590 0.5640 0.5700
3.900973 0.5750 0.5800 0.5810 0.5830 0.5840
3.932000 0.5890 0.5940 0.6000 0.6010 0.6040
3.962973 0.6090 0.6110 0.6110 0.6120 0.6120
3.994000 0.6180 0.6200 0.6290 0.6320 0.6360
4.024973 0.6390 0.6390 0.6390 0.6420 0.6430
4.056000 0.6500 0.6500 0.6510 0.6530 0.6560
4.086973 0.6560 0.6590 0.6600 0.6620 0.6620
4.118000 0.6640 0.6650 0.6680 0.6710 0.6730
4.148973 0.6740 0.6760 0.6790 0.6820 0.6840
4.180000 0.6840 0.6840 0.6780 0.6780 0.6810
4.210973 0.6880 0.6900 0.6900 0.6900 0.6900
4.241000 0.6880 0.6880 0.6820 0.6790 0.6780
4.271973 0.6780 0.6790 0.6820 0.6840 0.6850
4.303000 0.6850 0.6880 0.6900 0.6920 0.6950
4.333973 0.6990 0.7020 0.7060 0.7090 0.7130
4.365000 0.7180 0.7230 0.7320 0.7410 0.7460
4.395973 0.7490 0.7490 0.7510 0.7510 0.7510
4.427000 0.7520 0.7520 0.7570 0.7570 0.7540
4.457973 0.7480 0.7440 0.7440 0.7480 0.7490
4.489000 0.7540 0.7600 0.7620 0.7620 0.7570
4.519973 0.7550 0.7570 0.7600 0.7620 0.7630
4.551000 0.7620 0.7630 0.7630 0.7650 0.7660
4.581973 0.7630 0.7660 0.7660 0.7690 0.7690
4.613000 0.7650 0.7650 0.7660 0.7660 0.7680
4.643973 0.7690 0.7690 0.7680 0.7690 0.7690
4.675000 0.7720 0.7760 0.7800 0.7820 0.7830
4.705973 0.7850 0.7860 0.7880 0.7900 0.7910
4.737000 0.7970 0.7990 0.8000 0.8040 0.8020
4.767973 0.8020 0.8000 0.8020 0.8020 0.8050
4.799000 0.8080 0.8110 0.8130 0.8110 0.8130
4.829973 0.8140 0.8140 0.8140 0.8140 0.8140
4.861000 0.8190 0.8190 0.8190 0.8160 0.8140
4.891973 0.8140 0.8160 0.8160 0.8180 0.8160
4.923000 0.8160 0.8160 0.8160 0.8190 0.8190
4.953973 0.8220 0.8270 0.8280 0.8280 0.8300
4.985000 0.8320 0.8320 0.8330 0.8380 0.8420
5.015973 0.8440 0.8460 0.8500 0.8500 0.8530
5.046000 0.8560 0.8600 0.8630 0.8660 0.8690
5.076973 0.8720 0.8740 0.8750 0.8750 0.8750
5.108000 0.8770 0.8770 0.8770 0.8750 0.8750
5.138973 0.8800 0.8830 0.8860 0.8860 0.8830
5.170000 0.8830 0.8830 0.8840 0.8840 0.8830
5.200973 0.8750 0.8720 0.8720 0.8800 0.8860
5.232000 0.8880 0.8840 0.8800 0.8780 0.8770
5.262973 0.8770 0.8810 0.8880 0.8890 0.8910
5.294000 0.8950 0.8980 0.8970 0.8950 0.8940
5.324973 0.8920 0.8920 0.8920 0.8920 0.8970
5.356000 0.9000 0.9030 0.9060 0.9020 0.9050
5.386973 0.9060 0.9090 0.9120 0.9140 0.9170
5.418000 0.9190 0.9250 0.9250 0.9220 0.9200
5.448973 0.9110 0.9020 0.9060 0.9120 0.9200
5.480000 0.9230 0.9260 0.9230 0.9190 0.9110
5.510973 0.9090 0.9110 0.9190 0.9200 0.9160
5.542000 0.9140 0.9110 0.9110 0.9120 0.9190
5.572973 0.9190 0.9120 0.9090 0.9020 0.9000
5.604000 0.9020 0.9160 0.9190 0.9200 0.9220
5.634973 0.9230 0.9230 0.9230 0.9250 0.9250
5.666000 0.9190 0.9220 0.9360 0.9400 0.9450
5.696973 0.9450 0.9450 0.9450 0.9440 0.9440
5.728000 0.9420 0.9450 0.9500 0.9510 0.9530
5.758973 0.9530 0.9480 0.9480 0.9530 0.9650
5.789000 0.9670 0.9610 0.9530 0.9420 0.9330
5.819973 0.9330 0.9330 0.9390 0.9390 0.9330
5.851000 0.9200 0.9120 0.8970 0.8940 0.8950
5.881973 0.8970 0.9000 0.9020 0.9050 0.9050
5.913000 0.9000 0.8880 0.8780 0.8690 0.8670
5.943973 0.8690 0.8690 0.8750 0.8700 0.8600
5.975000 0.8520 0.8420 0.8490 0.8420 0.8360
6.005973 0.8280 0.8130 0.8070 0.8050 0.8000
6.037000 0.7940 0.7910 0.7900 0.7880 0.7880
6.067973 0.7850 0.7800 0.7650 0.7510 0.7440
6.099000 0.7400 0.7300 0.7200 0.7060 0.6810
6.129973 0.6640 0.6480 0.6290 0.6250 0.6230
6.161000 0.6310 0.6510 0.6570 0.6590 0.6400
6.191973 0.6150 0.5690 0.5170 0.4940 0.4820
6.223000 0.4740 0.4690 0.4630 0.4630 0.4690
6.253973 0.4930 0.5060 0.5160 0.5160 0.5000
6.285000 0.4720 0.4270 0.3810 0.3510 0.2840
6.315973 0.2440 0.2000 0.1950 0.2000 0.2480
6.347000 0.2810 0.3250 0.3370 0.3620 0.3840
6.377973 0.4040 0.4210 0.4370 0.4410 0.4410
6.409000 0.4300 0.4020 0.3960 0.3810 0.3710
6.439973 0.3590 0.3490 0.3350 0.3290 0.3170
6.471000 0.2890 0.2670 0.2420 0.2220 0.2170
6.501973 0.2220 0.2470 0.2860 0.3110 0.3420
6.533000 0.3710 0.4040 0.4470 0.4800 0.5160
6.563973 0.5500 0.5700 0.5940 0.6030 0.6040
6.594000 0.6040 0.5810 0.5450 0.5160 0.4830
6.624973 0.4240 0.3770 0.3460 0.3390 0.3400
6.656000 0.3420 0.3450 0.3480 0.3480 0.3430
6.686973 0.3400 0.3290 0.3180 0.3000 0.2810
6.718000 0.2670 0.2580 0.2500 0.2340 0.2250
6.748973 0.2130 0.2000 0.1880 0.1710 0.1430
6.780000 0.1220 0.0850 0.0690 0.0540 0.0400
6.810973 0.0320 0.0320 0.0350 0.0350 0.0380
6.842000 0.0400 0.0410 0.0430 0.0430 0.0410
6.872973 0.0410 0.0450 0.0480 0.0490 0.0510
6.904000 0.0620 0.0710 0.0790 0.0900 0.0990
6.934973 0.1080 0.1210 0.1320 0.1470 0.1670
6.966000 0.1800 0.1950 0.2080 0.2130 0.2220
6.996973 0.2330 0.2510 0.2550 0.2550 0.2500
7.028000 0.2480 0.2420 0.2330 0.2300 0.2230
7.058973 0.2110 0.2020 0.1970 0.1890 0.1880
7.090000 0.1850 0.1810 0.1780 0.1770 0.1740
7.120973 0.1720 0.1720 0.1740 0.1750 0.1780
7.152000 0.1800 0.1830 0.1880 0.1890 0.1910
7.182973 0.1920 0.1920 0.1910 0.1890 0.1850
7.214000 0.1780 0.1670 0.1600 0.1430 0.1270
7.244973 0.1150 0.1070 0.1010 0.1010 0.1070
7.276000 0.1220 0.1490 0.1810 0.2190 0.2410
7.306973 0.2620 0.2730 0.2890 0.3000 0.3260
7.337000 0.3680 0.4120 0.4550 0.4800 0.4990
7.367973 0.5020 0.5030 0.5050 0.5080 0.5080
7.399000 0.4990 0.4890 0.4690 0.4460 0.4210
7.429973 0.4040 0.3880 0.3730 0.3700 0.3600
7.461000 0.3570 0.3570 0.3620 0.3700 0.3700
7.491973 0.3680 0.3650 0.3590 0.3530 0.3430
7.523000 0.3260 0.3110 0.2830 0.2700 0.2450
7.553973 0.2230 0.2110 0.2030 0.2000 0.1990
7.585000 0.1990 0.1970 0.1920 0.1850 0.1800
7.615973 0.1750 0.1690 0.1670 0.1690 0.1770
7.647000 0.1910 0.2190 0.2450 0.2690 0.3040
7.677973 0.3200 0.3400 0.3570 0.3700 0.3790
7.709000 0.3980 0.4090 0.4210 0.4300 0.4410
7.739973 0.4470 0.4490 0.4440 0.4300 0.4190
7.771000 0.3990 0.3670 0.3490 0.3230 0.2970
7.801973 0.2500 0.2220 0.1770 0.1600 0.1490
7.833000 0.1330 0.1220 0.1100 0.1010 0.0990
7.863973 0.1010 0.1050 0.1240 0.1550 0.1860
7.895000 0.2360 0.2700 0.3040 0.3350 0.3490
7.925973 0.3510 0.3490 0.3400 0.3320 0.3210
7.957000 0.3180 0.3110 0.2950 0.2950 0.2980
7.987973 0.3010 0.3070 0.3090 0.3120 0.3140
8.019000 0.3120 0.3040 0.3000 0.2930 0.2890
8.049973 0.2790 0.2640 0.2560 0.2440 0.2340
8.080000 0.2300 0.2200 0.2170 0.2110 0.2020
8.110973 0.1950 0.1910 0.1890 0.1830 0.1780
8.142000 0.1720 0.1660 0.1470 0.1430 0.1380
8.172973 0.1290 0.1220 0.1130 0.1050 0.1020
8.204000 0.0960 0.0880 0.0880 0.0870 0.0820
8.234973 0.0790 0.0790 0.0790 0.0800 0.0800
8.266000 0.0830 0.0880 0.0900 0.0940 0.0960
8.296973 0.0930 0.0910 0.0910 0.0900 0.0910
8.328000 0.0910 0.0990 0.0990 0.0930 0.0910
8.358973 0.0910 0.0900 0.0880 0.0830 0.0820
8.390000 0.0770 0.0740 0.0710 0.0680 0.0680
8.420973 0.0660 0.0660 0.0660 0.0660 0.0660
8.452000 0.0680 0.0680 0.0660 0.0660 0.0650
8.482973 0.0620 0.0600 0.0590 0.0540 0.0510
8.514000 0.0490 0.0460 0.0460 0.0450 0.0450
8.544973 0.0460 0.0490 0.0510 0.0540 0.0590
8.576000 0.0590 0.0620 0.0660 0.0690 0.0710
8.606973 0.0730 0.0770 0.0880 0.0970 0.1010
8.638000 0.1020 0.1020 0.1040 0.1040 0.1100
8.668973 0.1180 0.1220 0.1290 0.1320 0.1390
8.700000 0.1490 0.1580 0.1670 0.1770 0.1830
8.730973 0.2000 0.2190 0.2280 0.2410 0.2510
8.762000 0.2730 0.2980 0.3010 0.3200 0.3340
8.792973 0.3460 0.3590 0.3700 0.3790 0.3820
8.824000 0.3880 0.3880 0.3900 0.3880 0.3870
8.854973 0.3870 0.3870 0.3880 0.3960 0.4010
8.885000 0.4100 0.4230 0.4370 0.4540 0.4660
8.915973 0.4750 0.4830 0.4890 0.4930 0.4970
8.947000 0.5000 0.5020 0.5020 0.4990 0.4960
8.977973 0.4860 0.4740 0.4550 0.4320 0.4040
9.009000 0.3680 0.3280 0.2810 0.2510 0.2230
9.039973 0.1830 0.1600 0.1390 0.1130 0.1010
9.071000 0.0910 0.0880 0.0910 0.0930 0.0990
9.101973 0.1010 0.1080 0.1240 0.1390 0.1610
9.133000 0.1830 0.2050 0.2190 0.2450 0.2590
9.163973 0.2780 0.2860 0.2950 0.3000 0.3030
9.195000 0.3060 0.3170 0.3260 0.3340 0.3400
9.225973 0.3400 0.3390 0.3370 0.3310 0.3210
9.257000 0.3150 0.3010 0.2860 0.2790 0.2620
9.287973 0.2500 0.2330 0.2190 0.2000 0.1810
9.319000 0.1740 0.1690 0.1630 0.1610 0.1610
9.349973 0.1670 0.1800 0.1950 0.2300 0.2500
9.381000 0.2700 0.2890 0.3040 0.3290 0.3510
9.411973 0.3670 0.3820 0.3880 0.3910 0.3980
9.443000 0.3980 0.3960 0.3930 0.3880 0.3730
9.473973 0.3620 0.3540 0.3490 0.3350 0.3280
9.505000 0.3150 0.3060 0.2900 0.2760 0.2700
9.535973 0.2590 0.2500 0.2410 0.2270 0.2200
9.567000 0.2190 0.2190 0.2140 0.2110 0.2090
9.597973 0.2060 0.2030 0.2020 0.1990 0.1950
9.628000 0.1890 0.1810 0.1710 0.1520 0.1360
9.658973 0.1190 0.1050 0.0970 0.0850 0.0790
9.690000 0.0690 0.0620 0.0620 0.0660 0.0710
9.720973 0.0740 0.0800 0.0850 0.0990 0.1080
9.752000 0.1220 0.1360 0.1490 0.1570 0.1710
9.782973 0.1890 0.2000 0.2060 0.2200 0.2330
9.814000 0.2390 0.2420 0.2450 0.2450 0.2470
9.844973 0.2480 0.2480 0.2510 0.2550 0.2550
9.876000 0.2510 0.2500 0.2470 0.2420 0.2410
9.906973 0.2410 0.2420 0.2510 0.2640 0.2790
9.938000 0.2900 0.3040 0.3290 0.3430 0.3600
9.968973 0.3650 0.3850 0.4050 0.4150 0.4210
10.000000 0.4300 0.4400 0.4430 0.4460 0.4750
10.030973 0.4800 0.4890 0.4960 0.5050 0.5130
10.062000 0.5200 0.5280 0.5340 0.5410 0.5480
10.092973 0.5530 0.5580 0.5610 0.5670 0.5730
10.124000 0.5800 0.5810 0.5890 0.5900 0.5900
10.154973 0.5900 0.5920 0.5950 0.6010 0.6030
10.186000 0.6110 0.6140 0.6140 0.6110 0.6110
10.216973 0.6080 0.6080 0.6040 0.6040 0.6030
10.248000 0.6030 0.6030 0.6030 0.6030 0.6030
10.278973 0.6040 0.6040 0.6040 0.6060 0.6080
10.310000 0.6110 0.6150 0.6230 0.6250 0.6290
10.340973 0.6310 0.6340 0.6360 0.6390 0.6390
10.372000 0.6390 0.6390 0.6370 0.6370 0.6400
10.402973 0.6460 0.6540 0.6540 0.6540 0.6560
10.433000 0.6560 0.6590 0.6590 0.6560 0.6540
10.463973 0.6500 0.6460 0.6390 0.6320 0.6310
10.495000 0.6230 0.6180 0.6090 0.6000 0.5970
10.525973 0.5830 0.5750 0.5720 0.5640 0.5610
10.557000 0.5530 0.5500 0.5480 0.5480 0.5520
10.587973 0.5560 0.5580 0.5700 0.5800 0.5920
10.619000 0.6000 0.6010 0.6030 0.6040 0.6080
10.649973 0.6090 0.6110 0.6180 0.6230 0.6310
10.681000 0.6400 0.6460 0.6530 0.6570 0.6620
10.711973 0.6700 0.6740 0.6780 0.6810 0.6820
10.743000 0.6870 0.6920 0.6980 0.7020 0.7070
10.773973 0.7090 0.7100 0.7120 0.7150 0.7180
10.805000 0.7230 0.7240 0.7270 0.7290 0.7300
10.835973 0.7320 0.7320 0.7340 0.7340 0.7370
10.867000 0.7400 0.7400 0.7410 0.7440 0.7410
10.897973 0.7400 0.7350 0.7320 0.7290 0.7290
10.929000 0.7320 0.7340 0.7350 0.7370 0.7410
10.959973 0.7460 0.7510 0.7580 0.7620 0.7660
10.991000 0.7690 0.7680 0.7660 0.7630 0.7630
11.021973 0.7630 0.7620 0.7580 0.7540 0.7520
11.053000 0.7490 0.7460 0.7430 0.7410 0.7430
11.083973 0.7460 0.7510 0.7580 0.7620 0.7650
11.115000 0.7680 0.7710 0.7760 0.7820 0.7900
11.145973 0.7930 0.7940 0.7940 0.7910 0.7860
11.176000 0.7820 0.7790 0.7760 0.7710 0.7650
11.206973 0.7550 0.7480 0.7380 0.7300 0.7240
11.238000 0.7230 0.7210 0.7200 0.7200 0.7180
11.268973 0.7150 0.7120 0.7100 0.7100 0.7090
11.300000 0.7020 0.6990 0.6980 0.6930 0.6920
11.330973 0.6880 0.6810 0.6760 0.6640 0.6530
11.362000 0.6460 0.6390 0.6320 0.6280 0.6220
11.392973 0.6200 0.6180 0.6170 0.6180 0.6180
11.424000 0.6200 0.6230 0.6290 0.6370 0.6400
11.454973 0.6420 0.6460 0.6510 0.6590 0.6650
11.486000 0.6710 0.6810 0.6930 0.7040 0.7120
11.516973 0.7210 0.7320 0.7460 0.7580 0.7690
11.548000 0.7770 0.7830 0.7910 0.7990 0.8020
11.578973 0.8080 0.8160 0.8190 0.8210 0.8240
11.610000 0.8250 0.8250 0.8270 0.8270 0.8270
11.640973 0.8270 0.8270 0.8280 0.8320 0.8380
11.672000 0.8460 0.8520 0.8580 0.8600 0.8610
11.702973 0.8610 0.8630 0.8640 0.8640 0.8640
11.734000 0.8630 0.8630 0.8630 0.8630 0.8610
11.764973 0.8610 0.8610 0.8600 0.8560 0.8530
11.796000 0.8530 0.8500 0.8470 0.8470 0.8440
11.826973 0.8410 0.8390 0.8390 0.8380 0.8390
11.858000 0.8380 0.8320 0.8280 0.8270 0.8240
11.888973 0.8270 0.8250 0.8220 0.8210 0.8140
11.920000 0.8100 0.8080 0.8000 0.7970 0.7900
11.950973 0.7820 0.7770 0.7680 0.7600 0.7570
11.981000 0.7570 0.7580 0.7620 0.7660 0.7720
12.011973 0.7790 0.7830 0.7830 0.7850 0.7880
12.043000 0.7930 0.7910 0.7880 0.7820 0.7740
12.073973 0.7650 0.7460 0.7300 0.7150 0.7010
12.105000 0.6850 0.6700 0.6500 0.6280 0.6120
12.135973 0.5950 0.5830 0.5800 0.5720 0.5690
12.167000 0.5660 0.5670 0.5700 0.5760 0.5830
12.197973 0.5890 0.5900 0.5980 0.6010 0.6030
12.229000 0.6040 0.6060 0.6080 0.6150 0.6260
12.259973 0.6390 0.6400 0.6480 0.6510 0.6590
12.291000 0.6670 0.6760 0.6820 0.6840 0.6880
12.321973 0.6930 0.6980 0.6990 0.7010 0.7100
12.353000 0.7210 0.7270 0.7300 0.7380 0.7460
12.383973 0.7490 0.7520 0.7570 0.7600 0.7630
12.415000 0.7660 0.7660 0.7680 0.7690 0.7690
12.445973 0.7690 0.7690 0.7690 0.7710 0.7720
12.477000 0.7770 0.7830 0.7830 0.7800 0.7800
12.507973 0.7800 0.7800 0.7830 0.7850 0.7880
12.539000 0.7990 0.8020 0.7960 0.7960 0.7970
12.569973 0.7990 0.8070 0.8130 0.8130 0.8110
12.601000 0.8070 0.7990 0.7990 0.7970 0.7960
12.631973 0.7900 0.7820 0.7770 0.7710 0.7680
12.663000 0.7680 0.7620 0.7600 0.7600 0.7650
12.693973 0.7680 0.7770 0.7850 0.7860 0.7880
12.724000 0.7910 0.7970 0.7990 0.7990 0.7990
12.754973 0.7990 0.7990 0.8000 0.8000 0.8000
12.786000 0.8020 0.8020 0.8050 0.8070 0.8070
12.816973 0.8070 0.8070 0.8020 0.7960 0.7860
12.848000 0.7820 0.7790 0.7740 0.7690 0.7580
12.878973 0.7550 0.7550 0.7570 0.7600 0.7630
12.910000 0.7660 0.7680 0.7710 0.7720 0.7720
12.940973 0.7720 0.7740 0.7740 0.7690 0.7660
12.972000 0.7600 0.7520 0.7490 0.7430 0.7340
13.002973 0.7230 0.7100 0.7020 0.6870 0.6790
13.034000 0.6700 0.6570 0.6480 0.6400 0.6290
13.064973 0.6150 0.6000 0.5860 0.5720 0.5620
13.096000 0.5580 0.5440 0.5200 0.5020 0.4890
13.126973 0.4820 0.4720 0.4570 0.4380 0.4260
13.158000 0.4180 0.4090 0.4010 0.3900 0.3790
13.188973 0.3730 0.3680 0.3670 0.3650 0.3650
13.220000 0.3650 0.3670 0.3700 0.3730 0.3810
13.250973 0.3880 0.3980 0.3990 0.3990 0.4020
13.282000 0.4040 0.4040 0.4040 0.4020 0.4020
13.312973 0.4020 0.4010 0.3990 0.3990 0.4010
13.344000 0.4070 0.4210 0.4270 0.4410 0.4520
13.374973 0.4740 0.4990 0.5190 0.5340 0.5470
13.406000 0.5580 0.5670 0.5840 0.5890 0.5980
13.436973 0.6040 0.6110 0.6170 0.6180 0.6200
13.467000 0.6230 0.6250 0.6260 0.6280 0.6250
13.497973 0.6230 0.6200 0.6120 0.6000 0.5890
13.529000 0.5810 0.5730 0.5660 0.5470 0.5250
13.559973 0.5060 0.4880 0.4740 0.4630 0.4460
13.591000 0.4380 0.4240 0.4070 0.3960 0.3850
13.621973 0.3850 0.3880 0.3910 0.3950 0.3980
13.653000 0.4040 0.4120 0.4210 0.4320 0.4440
13.683973 0.4600 0.4710 0.4790 0.4940 0.5020
13.715000 0.5110 0.5250 0.5310 0.5420 0.5560
13.745973 0.5690 0.5720 0.5800 0.5830 0.5870
13.777000 0.5950 0.5980 0.6000 0.6010 0.6030
13.807973 0.6060 0.6110 0.6120 0.6150 0.6180
13.839000 0.6180 0.6140 0.6120 0.6110 0.6090
13.869973 0.6030 0.5980 0.5900 0.5810 0.5760
13.901000 0.5700 0.5660 0.5590 0.5500 0.5410
13.931973 0.5310 0.5280 0.5220 0.5190 0.5160
13.963000 0.5110 0.5110 0.5140 0.5190 0.5220
13.993973 0.5310 0.5380 0.5450 0.5500 0.5550
14.025000 0.5580 0.5590 0.5590 0.5620 0.5690
14.055973 0.5720 0.5780 0.5830 0.5860 0.5870
14.087000 0.5870 0.5860 0.5870 0.5890 0.5890
14.117973 0.5900 0.5890 0.5870 0.5830 0.5760
14.149000 0.5660 0.5590 0.5500 0.5380 0.5250
14.179973 0.5080 0.4910 0.4740 0.4600 0.4570
14.211000 0.4490 0.4330 0.4100 0.3900 0.3670
14.241973 0.3530 0.3390 0.3290 0.3150 0.3010
14.272000 0.2890 0.2720 0.2650 0.2590 0.2510
14.302973 0.2450 0.2390 0.2310 0.2190 0.2130
14.334000 0.2090 0.2020 0.2000 0.1990 0.1970
14.364973 0.1940 0.1910 0.1890 0.1890 0.1890
14.396000 0.1910 0.1910 0.1910 0.1920 0.1920
14.426973 0.1940 0.1970 0.1990 0.2020 0.2090
14.458000 0.2190 0.2310 0.2390 0.2470 0.2530
14.488973 0.2610 0.2700 0.2730 0.2790 0.2830
14.520000 0.2890 0.2970 0.3040 0.3180 0.3290
14.550973 0.3400 0.3560 0.3680 0.3730 0.3810
14.582000 0.3870 0.3960 0.4090 0.4240 0.4380
14.612973 0.4550 0.4720 0.4800 0.4910 0.4970
14.644000 0.5050 0.5140 0.5220 0.5280 0.5310
14.674973 0.5380 0.5440 0.5500 0.5560 0.5620
14.706000 0.5690 0.5700 0.5720 0.5780 0.5780
14.736973 0.5800 0.5800 0.5810 0.5810 0.5840
14.768000 0.5830 0.5810 0.5800 0.5760 0.5760
14.798973 0.5750 0.5750 0.5730 0.5720 0.5690
14.830000 0.5690 0.5620 0.5530 0.5470 0.5390
14.860973 0.5340 0.5250 0.5170 0.5130 0.5080
14.892000 0.5000 0.4940 0.4820 0.4710 0.4570
14.922973 0.4460 0.4380 0.4300 0.4270 0.4230
14.954000 0.4180 0.4120 0.4010 0.3910 0.3880
14.984973 0.3870 0.3850 0.3810 0.3700 0.3680
15.015000 0.3650 0.3600 0.3600 0.3620 0.3620
15.045973 0.3620 0.3600 0.3590 0.3590 0.3570
15.077000 0.3570 0.3560 0.3560 0.3560 0.3560
15.107973 0.3560 0.3540 0.3530 0.3530 0.3530
15.139000 0.3540 0.3540 0.3560 0.3590 0.3600
15.169973 0.3650 0.3730 0.3810 0.3850 0.3880
15.201000 0.3960 0.4020 0.4130 0.4230 0.4290
15.231973 0.4350 0.4410 0.4490 0.4520 0.4570
15.263000 0.4600 0.4630 0.4680 0.4690 0.4740
15.293973 0.4790 0.4790 0.4800 0.4820 0.4830
15.325000 0.4830 0.4830 0.4850 0.4860 0.4910
15.355973 0.4970 0.4990 0.5000 0.5050 0.5130
15.387000 0.5190 0.5200 0.5280 0.5330 0.5360
15.417973 0.5390 0.5410 0.5410 0.5410 0.5420
15.449000 0.5440 0.5480 0.5480 0.5520 0.5530
15.479973 0.5550 0.5580 0.5580 0.5590 0.5610
15.511000 0.5620 0.5640 0.5620 0.5610 0.5590
15.541973 0.5580 0.5560 0.5560 0.5580 0.5590
15.573000 0.5590 0.5580 0.5590 0.5590 0.5590
15.603973 0.5610 0.5620 0.5660 0.5660 0.5610
15.635000 0.5560 0.5480 0.5450 0.5440 0.5410
15.665973 0.5380 0.5340 0.5330 0.5310 0.5310
15.697000 0.5280 0.5270 0.5270 0.5240 0.5240
15.727973 0.5220 0.5220 0.5200 0.5190 0.5190
15.759000 0.5190 0.5170 0.5170 0.5160 0.5140
15.789973 0.5140 0.5130 0.5110 0.5080 0.5050
15.820000 0.5020 0.5000 0.4990 0.4960 0.4910
15.850973 0.4910 0.4890 0.4890 0.4910 0.4930
15.882000 0.4910 0.4910 0.4880 0.4850 0.4830
15.912973 0.4790 0.4750 0.4710 0.4660 0.4610
15.944000 0.4600 0.4600 0.4580 0.4540 0.4510
15.974973 0.4510 0.4510 0.4490
##END=
