##TITLE=Phosphate, tris(2-diethylaminoethyl)-, trihydrochloride
##JCAMP-DX=4.24
##DATA TYPE=INFRARED SPECTRUM
##CLASS=COBLENTZ III
##ORIGIN=SMITH KLINE & FRENCH LABS.
##OWNER=Copyright (C) 1987 by the Coblentz Society
Collection (C) 2018 copyright by the U.S. Secretary of Commerce
on behalf of the United States of America. All rights reserved.
##DATE=1962/12/11
##NAMES=Phosphoric aicd, tris(2-diethylaminoethyl)ester, trihydrochloride
##MOLFORM=C18 H45 Cl3 N3 O4 P
##SOURCE REFERENCE=COBLENTZ NO. 9102
##$NIST ID=B6009102
##$NIST SOURCE=COBLENTZ
##$NIST IMAGE=cob9102
##SPECTROMETER/DATA SYSTEM=PERKIN-ELMER 21 (GRATING)
##INSTRUMENT PARAMETERS=NaCl PRISM
##STATE=SOLID (OIL MULL)
$$SPECTRAL CONTAMINATION DUE TO OIL AROUND 2900, 1450 CM^-^1
##SAMPLING PROCEDURE=TRANSMISSION
##RESOLUTION=2
##DATA PROCESSING=DIGITIZED BY COBLENTZ SOCIETY (BATCH II) FROM HARD COPY
##XUNITS=1/CM
##YUNITS=TRANSMITTANCE
##XFACTOR=1.0
##YFACTOR=1
##FIRSTX=667
##LASTX=4000
##FIRSTY=0.7847
##MAXX=4000
##MINX=667
##MAXY=0.916
##MINY=0.0729
##NPOINTS=3334
##XYDATA=(X++(Y..Y))
667.000000 0.7847 0.7899 0.7937 0.7965 0.7986
672.000000 0.8009 0.8036 0.8059 0.8065 0.8070
677.000000 0.8061 0.8053 0.8089 0.8149 0.8176
682.000000 0.8154 0.8167 0.8114 0.8155 0.8260
687.000000 0.8314 0.8349 0.8360 0.8368 0.8345
692.000000 0.8336 0.8338 0.8356 0.8386 0.8411
697.000000 0.8435 0.8426 0.8455 0.8497 0.8482
702.000000 0.8418 0.8469 0.8500 0.8447 0.8419
707.000000 0.8408 0.8411 0.8431 0.8438 0.8353
712.000000 0.8301 0.8365 0.8291 0.8205 0.8162
717.000000 0.8162 0.8072 0.8007 0.7994 0.7998
722.000000 0.8003 0.8008 0.8012 0.8017 0.8021
727.000000 0.8026 0.8029 0.8034 0.8039 0.8028
732.000000 0.8004 0.7946 0.7874 0.7803 0.7730
737.000000 0.7630 0.7530 0.7416 0.7278 0.7137
742.000000 0.6963 0.6791 0.6592 0.6332 0.5963
747.000000 0.5698 0.5803 0.6089 0.6301 0.6471
752.000000 0.6629 0.6734 0.6799 0.6841 0.6931
757.000000 0.6943 0.6964 0.6883 0.6781 0.6639
762.000000 0.6640 0.6820 0.7002 0.7208 0.7573
767.000000 0.7923 0.8046 0.8214 0.8338 0.8446
772.000000 0.8516 0.8555 0.8576 0.8578 0.8580
777.000000 0.8582 0.8588 0.8600 0.8645 0.8595
782.000000 0.8577 0.8561 0.8545 0.8528 0.8505
787.000000 0.8462 0.8417 0.8348 0.8277 0.8206
792.000000 0.8107 0.8005 0.7903 0.7757 0.7543
797.000000 0.7321 0.6841 0.6480 0.6204 0.5785
802.000000 0.5470 0.5316 0.5310 0.5387 0.5522
807.000000 0.5699 0.5910 0.5946 0.5851 0.5709
812.000000 0.5719 0.5758 0.6058 0.6622 0.7023
817.000000 0.7279 0.7589 0.7893 0.7990 0.8012
822.000000 0.8026 0.8029 0.8032 0.8012 0.7904
827.000000 0.7673 0.7375 0.7053 0.6821 0.6605
832.000000 0.6421 0.6258 0.6126 0.6006 0.5824
837.000000 0.5393 0.5283 0.5202 0.5013 0.4898
842.000000 0.4927 0.5216 0.5683 0.6569 0.6951
847.000000 0.7319 0.7603 0.7771 0.7893 0.8001
852.000000 0.8095 0.8171 0.8246 0.8320 0.8373
857.000000 0.8425 0.8463 0.8486 0.8509 0.8530
862.000000 0.8553 0.8562 0.8566 0.8570 0.8573
867.000000 0.8611 0.8558 0.8553 0.8553 0.8554
872.000000 0.8556 0.8596 0.8610 0.8468 0.8404
877.000000 0.8370 0.8334 0.8296 0.8220 0.8122
882.000000 0.8023 0.7923 0.7845 0.7802 0.7760
887.000000 0.7722 0.7581 0.7464 0.7354 0.7260
892.000000 0.7153 0.7041 0.6927 0.6812 0.6706
897.000000 0.6615 0.6524 0.6440 0.6358 0.6299
902.000000 0.6255 0.6223 0.6284 0.6407 0.6711
907.000000 0.6927 0.7123 0.7279 0.7439 0.7636
912.000000 0.7812 0.7887 0.7903 0.7917 0.7931
917.000000 0.7945 0.7956 0.7963 0.7970 0.7976
922.000000 0.7980 0.7980 0.7979 0.7979 0.8028
927.000000 0.7978 0.7973 0.7965 0.7957 0.7949
932.000000 0.7941 0.7918 0.7886 0.7853 0.7821
937.000000 0.7788 0.7752 0.7697 0.7639 0.7582
942.000000 0.7530 0.7496 0.7459 0.7418 0.7376
947.000000 0.7312 0.7232 0.7121 0.6889 0.6595
952.000000 0.6294 0.6090 0.5924 0.5747 0.5410
957.000000 0.5061 0.4713 0.4360 0.4017 0.3829
962.000000 0.3787 0.3794 0.3860 0.3986 0.4099
967.000000 0.4213 0.4306 0.4357 0.4362 0.4268
972.000000 0.4216 0.4114 0.3841 0.3506 0.3042
977.000000 0.2806 0.2524 0.2440 0.2551 0.2426
982.000000 0.2212 0.2462 0.2497 0.2295 0.2300
987.000000 0.2317 0.2366 0.2551 0.2691 0.3022
992.000000 0.3370 0.3717 0.4063 0.4253 0.4254
997.000000 0.4258 0.4236 0.3998 0.3661 0.3323
1002.000000 0.2987 0.2766 0.2711 0.2376 0.1449
1007.000000 0.1307 0.1251 0.1164 0.1033 0.0943
1012.000000 0.0904 0.0892 0.0889 0.0892 0.0897
1017.000000 0.0909 0.0910 0.0918 0.0926 0.0933
1022.000000 0.0941 0.0947 0.0954 0.0961 0.0973
1027.000000 0.1013 0.1055 0.1157 0.1278 0.1409
1032.000000 0.1553 0.1872 0.2030 0.2100 0.2134
1037.000000 0.2165 0.2138 0.2070 0.1983 0.1883
1042.000000 0.1750 0.1615 0.1496 0.1384 0.1274
1047.000000 0.1209 0.1156 0.1117 0.1102 0.1087
1052.000000 0.1085 0.1040 0.1180 0.1261 0.1342
1057.000000 0.1410 0.1445 0.1338 0.1245 0.1239
1062.000000 0.1270 0.1677 0.1978 0.2262 0.2400
1067.000000 0.2434 0.2446 0.2454 0.2433 0.2420
1072.000000 0.2394 0.2357 0.2316 0.2269 0.2212
1077.000000 0.2107 0.1901 0.1479 0.1298 0.1207
1082.000000 0.1142 0.1087 0.1055 0.1027 0.0993
1087.000000 0.1020 0.1078 0.1355 0.1833 0.2068
1092.000000 0.2601 0.3846 0.4083 0.4206 0.4343
1097.000000 0.4464 0.4557 0.4629 0.4672 0.4737
1102.000000 0.5202 0.5805 0.6075 0.6289 0.6560
1107.000000 0.6861 0.7052 0.7226 0.7362 0.7455
1112.000000 0.7509 0.7522 0.7531 0.7540 0.7546
1117.000000 0.7581 0.7673 0.7712 0.7709 0.7698
1122.000000 0.7683 0.7661 0.7641 0.7624 0.7623
1127.000000 0.7645 0.7713 0.7806 0.7879 0.7911
1132.000000 0.7942 0.7966 0.7987 0.7996 0.7970
1137.000000 0.7875 0.7771 0.7656 0.7637 0.7603
1142.000000 0.7690 0.7773 0.7819 0.7862 0.7902
1147.000000 0.7927 0.7932 0.7905 0.7800 0.7701
1152.000000 0.7605 0.7574 0.7544 0.7488 0.7281
1157.000000 0.7155 0.7071 0.6996 0.6934 0.6877
1162.000000 0.6826 0.6772 0.6708 0.6559 0.6407
1167.000000 0.6380 0.6380 0.6353 0.6619 0.6745
1172.000000 0.6737 0.6761 0.6706 0.6641 0.6476
1177.000000 0.6250 0.6022 0.5793 0.5689 0.5830
1182.000000 0.6444 0.7058 0.7639 0.7842 0.7992
1187.000000 0.8059 0.8125 0.8181 0.8218 0.8251
1192.000000 0.8264 0.8276 0.8279 0.8279 0.8301
1197.000000 0.8272 0.8257 0.8243 0.8224 0.8205
1202.000000 0.8186 0.8169 0.8154 0.8139 0.8125
1207.000000 0.8135 0.8148 0.8162 0.8176 0.8185
1212.000000 0.8193 0.8192 0.8186 0.8172 0.8159
1217.000000 0.8145 0.8125 0.8106 0.8086 0.8067
1222.000000 0.8046 0.8023 0.7997 0.7971 0.7945
1227.000000 0.7917 0.7884 0.7852 0.7820 0.7787
1232.000000 0.7738 0.7690 0.7640 0.7568 0.7481
1237.000000 0.7389 0.7281 0.7164 0.7019 0.6943
1242.000000 0.6881 0.6821 0.6764 0.6706 0.6606
1247.000000 0.6222 0.4659 0.4178 0.3756 0.3332
1252.000000 0.2911 0.2490 0.2277 0.2307 0.2359
1257.000000 0.2407 0.2404 0.2317 0.2043 0.1691
1262.000000 0.1467 0.1324 0.1216 0.1174 0.1161
1267.000000 0.1164 0.1122 0.1298 0.1515 0.1780
1272.000000 0.1978 0.2094 0.2208 0.2351 0.2535
1277.000000 0.2805 0.3084 0.3363 0.3641 0.3919
1282.000000 0.4196 0.4474 0.4750 0.5027 0.5302
1287.000000 0.5578 0.5853 0.6128 0.6281 0.6374
1292.000000 0.6593 0.6683 0.6710 0.6709 0.6702
1297.000000 0.6676 0.6650 0.6609 0.6568 0.6527
1302.000000 0.6483 0.6438 0.6362 0.6253 0.6157
1307.000000 0.6117 0.6068 0.6150 0.6202 0.6309
1312.000000 0.6443 0.6577 0.6711 0.6845 0.6956
1317.000000 0.7011 0.7048 0.7098 0.7067 0.7042
1322.000000 0.7014 0.6984 0.6944 0.6896 0.6844
1327.000000 0.6787 0.6732 0.6685 0.6644 0.6623
1332.000000 0.6613 0.6648 0.6709 0.6744 0.6781
1337.000000 0.6814 0.6836 0.6837 0.6830 0.6820
1342.000000 0.6809 0.6791 0.6773 0.6745 0.6717
1347.000000 0.6689 0.6658 0.6627 0.6595 0.6563
1352.000000 0.6525 0.6485 0.6445 0.6391 0.6319
1357.000000 0.6246 0.6159 0.6046 0.5901 0.5660
1362.000000 0.5404 0.5148 0.4894 0.4653 0.4459
1367.000000 0.4279 0.4084 0.3881 0.3656 0.3434
1372.000000 0.3249 0.3088 0.2995 0.2938 0.2882
1377.000000 0.2829 0.2796 0.2774 0.2753 0.2741
1382.000000 0.2709 0.2738 0.2740 0.2742 0.2748
1387.000000 0.2783 0.3002 0.3310 0.3618 0.3924
1392.000000 0.4230 0.4487 0.4551 0.4403 0.4165
1397.000000 0.3923 0.3681 0.3440 0.3249 0.3241
1402.000000 0.3248 0.3509 0.3957 0.4404 0.4850
1407.000000 0.5296 0.5726 0.6086 0.6343 0.6550
1412.000000 0.6647 0.6743 0.6838 0.6933 0.7001
1417.000000 0.7025 0.7049 0.7076 0.7059 0.7061
1422.000000 0.7062 0.7052 0.7038 0.7010 0.6970
1427.000000 0.6837 0.6552 0.6279 0.6007 0.5735
1432.000000 0.5464 0.5193 0.4922 0.4652 0.4383
1437.000000 0.4113 0.3844 0.3575 0.3307 0.2772
1442.000000 0.2617 0.2524 0.2461 0.2427 0.2394
1447.000000 0.2360 0.2331 0.2309 0.2289 0.2268
1452.000000 0.2235 0.2186 0.2120 0.2040 0.1913
1457.000000 0.1765 0.1643 0.1551 0.1498 0.1446
1462.000000 0.1400 0.1358 0.1316 0.1281 0.1268
1467.000000 0.1268 0.1271 0.1281 0.1319 0.1447
1472.000000 0.1581 0.1743 0.1937 0.2028 0.2111
1477.000000 0.2182 0.2231 0.2281 0.2329 0.2369
1482.000000 0.2406 0.2444 0.2493 0.2652 0.2921
1487.000000 0.3189 0.3458 0.3725 0.3994 0.4260
1492.000000 0.4528 0.4794 0.5060 0.5326 0.5591
1497.000000 0.5857 0.6121 0.6388 0.6735 0.7140
1502.000000 0.7323 0.7454 0.7561 0.7656 0.7741
1507.000000 0.7790 0.7838 0.7887 0.7925 0.7945
1512.000000 0.7966 0.7985 0.8005 0.8025 0.8045
1517.000000 0.8065 0.8078 0.8091 0.8104 0.8121
1522.000000 0.8141 0.8161 0.8180 0.8199 0.8219
1527.000000 0.8238 0.8247 0.8250 0.8254 0.8257
1532.000000 0.8260 0.8262 0.8257 0.8253 0.8248
1537.000000 0.8244 0.8239 0.8234 0.8226 0.8213
1542.000000 0.8199 0.8185 0.8171 0.8160 0.8151
1547.000000 0.8167 0.8194 0.8221 0.8251 0.8281
1552.000000 0.8311 0.8339 0.8357 0.8355 0.8351
1557.000000 0.8344 0.8331 0.8319 0.8306 0.8292
1562.000000 0.8276 0.8259 0.8243 0.8232 0.8229
1567.000000 0.8234 0.8243 0.8253 0.8262 0.8275
1572.000000 0.8296 0.8322 0.8357 0.8399 0.8443
1577.000000 0.8487 0.8527 0.8566 0.8589 0.8608
1582.000000 0.8626 0.8645 0.8663 0.8682 0.8700
1587.000000 0.8714 0.8727 0.8740 0.8753 0.8766
1592.000000 0.8780 0.8793 0.8806 0.8818 0.8866
1597.000000 0.8842 0.8854 0.8865 0.8873 0.8879
1602.000000 0.8888 0.8899 0.8909 0.8919 0.8929
1607.000000 0.8941 0.8962 0.8996 0.9012 0.9021
1612.000000 0.9030 0.9038 0.9048 0.9049 0.9048
1617.000000 0.9047 0.9045 0.9043 0.9041 0.9040
1622.000000 0.9038 0.9037 0.9036 0.9035 0.9034
1627.000000 0.9032 0.9031 0.9031 0.9037 0.9059
1632.000000 0.9075 0.9090 0.9106 0.9122 0.9133
1637.000000 0.9132 0.9129 0.9126 0.9124 0.9121
1642.000000 0.9119 0.9116 0.9114 0.9111 0.9109
1647.000000 0.9106 0.9104 0.9102 0.9099 0.9097
1652.000000 0.9094 0.9094 0.9095 0.9098 0.9100
1657.000000 0.9102 0.9105 0.9107 0.9109 0.9112
1662.000000 0.9114 0.9117 0.9116 0.9114 0.9111
1667.000000 0.9109 0.9106 0.9103 0.9101 0.9098
1672.000000 0.9095 0.9092 0.9091 0.9091 0.9092
1677.000000 0.9092 0.9093 0.9093 0.9093 0.9093
1682.000000 0.9092 0.9091 0.9091 0.9097 0.9113
1687.000000 0.9129 0.9145 0.9144 0.9140 0.9135
1692.000000 0.9130 0.9126 0.9121 0.9116 0.9112
1697.000000 0.9106 0.9098 0.9091 0.9083 0.9075
1702.000000 0.9068 0.9070 0.9075 0.9079 0.9083
1707.000000 0.9088 0.9094 0.9102 0.9110 0.9117
1712.000000 0.9121 0.9123 0.9125 0.9127 0.9129
1717.000000 0.9130 0.9132 0.9134 0.9135 0.9136
1722.000000 0.9137 0.9138 0.9138 0.9139 0.9139
1727.000000 0.9140 0.9141 0.9142 0.9142 0.9142
1732.000000 0.9143 0.9144 0.9145 0.9146 0.9146
1737.000000 0.9146 0.9147 0.9148 0.9148 0.9148
1742.000000 0.9148 0.9149 0.9149 0.9149 0.9150
1747.000000 0.9150 0.9150 0.9150 0.9151 0.9151
1752.000000 0.9150 0.9148 0.9145 0.9141 0.9137
1757.000000 0.9134 0.9131 0.9128 0.9124 0.9120
1762.000000 0.9117 0.9114 0.9113 0.9115 0.9118
1767.000000 0.9120 0.9122 0.9126 0.9128 0.9138
1772.000000 0.9128 0.9128 0.9127 0.9126 0.9125
1777.000000 0.9124 0.9124 0.9122 0.9121 0.9120
1782.000000 0.9119 0.9119 0.9118 0.9117 0.9115
1787.000000 0.9114 0.9114 0.9115 0.9119 0.9126
1792.000000 0.9133 0.9140 0.9148 0.9153 0.9157
1797.000000 0.9157 0.9158 0.9158 0.9159 0.9159
1802.000000 0.9159 0.9160 0.9160 0.9160 0.9157
1807.000000 0.9156 0.9154 0.9151 0.9150 0.9148
1812.000000 0.9146 0.9143 0.9142 0.9140 0.9138
1817.000000 0.9136 0.9134 0.9132 0.9130 0.9128
1822.000000 0.9127 0.9123 0.9119 0.9114 0.9108
1827.000000 0.9103 0.9098 0.9093 0.9087 0.9082
1832.000000 0.9077 0.9072 0.9069 0.9070 0.9072
1837.000000 0.9074 0.9076 0.9078 0.9079 0.9082
1842.000000 0.9083 0.9085 0.9087 0.9088 0.9090
1847.000000 0.9091 0.9092 0.9093 0.9095 0.9096
1852.000000 0.9098 0.9099 0.9101 0.9102 0.9104
1857.000000 0.9104 0.9103 0.9102 0.9101 0.9099
1862.000000 0.9098 0.9097 0.9096 0.9095 0.9094
1867.000000 0.9093 0.9092 0.9090 0.9088 0.9086
1872.000000 0.9083 0.9081 0.9078 0.9075 0.9072
1877.000000 0.9070 0.9067 0.9064 0.9062 0.9059
1882.000000 0.9057 0.9054 0.9051 0.9049 0.9046
1887.000000 0.9044 0.9040 0.9037 0.9034 0.9031
1892.000000 0.9027 0.9024 0.9020 0.9018 0.9014
1897.000000 0.9011 0.9008 0.9005 0.9001 0.8998
1902.000000 0.8995 0.8992 0.8989 0.8985 0.8982
1907.000000 0.8978 0.8971 0.8964 0.8957 0.8950
1912.000000 0.8943 0.8936 0.8929 0.8922 0.8916
1917.000000 0.8909 0.8901 0.8894 0.8887 0.8887
1922.000000 0.8888 0.8888 0.8890 0.8891 0.8891
1927.000000 0.8892 0.8893 0.8893 0.8895 0.8896
1932.000000 0.8897 0.8897 0.8896 0.8894 0.8892
1937.000000 0.8889 0.8886 0.8884 0.8882 0.8879
1942.000000 0.8877 0.8874 0.8872 0.8869 0.8868
1947.000000 0.8868 0.8869 0.8870 0.8872 0.8874
1952.000000 0.8878 0.8885 0.8896 0.8909 0.8921
1957.000000 0.8934 0.8947 0.8963 0.8981 0.8998
1962.000000 0.9015 0.9022 0.9025 0.9027 0.9030
1967.000000 0.9032 0.9034 0.9034 0.9034 0.9030
1972.000000 0.9026 0.9023 0.9020 0.9017 0.9013
1977.000000 0.9010 0.9007 0.9004 0.9000 0.8996
1982.000000 0.8993 0.8989 0.8985 0.8981 0.8977
1987.000000 0.8974 0.8970 0.8966 0.8962 0.8958
1992.000000 0.8955 0.8950 0.8946 0.8941 0.8937
1997.000000 0.8933 0.8929 0.8926 0.8923 0.8924
2002.000000 0.8926 0.8928 0.8930 0.8932 0.8934
2007.000000 0.8936 0.8937 0.8939 0.8941 0.8943
2012.000000 0.8945 0.8946 0.8944 0.8942 0.8938
2017.000000 0.8935 0.8932 0.8929 0.8925 0.8922
2022.000000 0.8918 0.8915 0.8912 0.8909 0.8905
2027.000000 0.8894 0.8882 0.8868 0.8856 0.8842
2032.000000 0.8827 0.8809 0.8790 0.8771 0.8751
2037.000000 0.8732 0.8715 0.8701 0.8692 0.8685
2042.000000 0.8679 0.8672 0.8665 0.8658 0.8651
2047.000000 0.8644 0.8638 0.8632 0.8630 0.8629
2052.000000 0.8628 0.8627 0.8627 0.8626 0.8624
2057.000000 0.8624 0.8623 0.8622 0.8621 0.8621
2062.000000 0.8620 0.8619 0.8618 0.8617 0.8617
2067.000000 0.8615 0.8614 0.8613 0.8611 0.8607
2072.000000 0.8604 0.8601 0.8598 0.8594 0.8591
2077.000000 0.8587 0.8584 0.8581 0.8577 0.8574
2082.000000 0.8569 0.8563 0.8557 0.8551 0.8544
2087.000000 0.8537 0.8531 0.8525 0.8518 0.8512
2092.000000 0.8505 0.8499 0.8494 0.8496 0.8498
2097.000000 0.8502 0.8506 0.8510 0.8518 0.8526
2102.000000 0.8538 0.8545 0.8545 0.8542 0.8538
2107.000000 0.8533 0.8528 0.8516 0.8505 0.8494
2112.000000 0.8471 0.8437 0.8400 0.8362 0.8333
2117.000000 0.8308 0.8301 0.8295 0.8289 0.8283
2122.000000 0.8278 0.8272 0.8267 0.8263 0.8259
2127.000000 0.8256 0.8252 0.8248 0.8245 0.8241
2132.000000 0.8238 0.8234 0.8231 0.8227 0.8224
2137.000000 0.8221 0.8218 0.8215 0.8213 0.8210
2142.000000 0.8207 0.8204 0.8201 0.8198 0.8195
2147.000000 0.8193 0.8190 0.8187 0.8184 0.8181
2152.000000 0.8178 0.8175 0.8173 0.8171 0.8169
2157.000000 0.8168 0.8166 0.8164 0.8163 0.8161
2162.000000 0.8160 0.8158 0.8156 0.8154 0.8150
2167.000000 0.8146 0.8142 0.8137 0.8132 0.8128
2172.000000 0.8124 0.8119 0.8114 0.8109 0.8104
2177.000000 0.8095 0.8086 0.8076 0.8065 0.8053
2182.000000 0.8038 0.8020 0.8001 0.7982 0.7964
2187.000000 0.7946 0.7927 0.7909 0.7893 0.7876
2192.000000 0.7860 0.7843 0.7827 0.7811 0.7795
2197.000000 0.7779 0.7762 0.7746 0.7730 0.7713
2202.000000 0.7695 0.7677 0.7658 0.7639 0.7620
2207.000000 0.7602 0.7583 0.7564 0.7545 0.7527
2212.000000 0.7509 0.7494 0.7482 0.7470 0.7459
2217.000000 0.7448 0.7437 0.7427 0.7416 0.7407
2222.000000 0.7398 0.7392 0.7386 0.7380 0.7374
2227.000000 0.7369 0.7362 0.7351 0.7337 0.7312
2232.000000 0.7285 0.7233 0.7176 0.7123 0.7071
2237.000000 0.7036 0.7005 0.6989 0.6976 0.6963
2242.000000 0.6950 0.6938 0.6925 0.6911 0.6897
2247.000000 0.6883 0.6869 0.6855 0.6840 0.6822
2252.000000 0.6803 0.6785 0.6766 0.6747 0.6728
2257.000000 0.6710 0.6691 0.6673 0.6656 0.6639
2262.000000 0.6622 0.6605 0.6588 0.6570 0.6552
2267.000000 0.6533 0.6511 0.6490 0.6468 0.6446
2272.000000 0.6424 0.6402 0.6380 0.6358 0.6336
2277.000000 0.6315 0.6292 0.6270 0.6248 0.6226
2282.000000 0.6204 0.6182 0.6159 0.6137 0.6115
2287.000000 0.6093 0.6070 0.6048 0.6026 0.6003
2292.000000 0.5972 0.5934 0.5893 0.5848 0.5804
2297.000000 0.5763 0.5721 0.5680 0.5640 0.5599
2302.000000 0.5559 0.5511 0.5463 0.5413 0.5363
2307.000000 0.5319 0.5277 0.5241 0.5210 0.5177
2312.000000 0.5144 0.5118 0.5108 0.5099 0.5088
2317.000000 0.5078 0.5068 0.5059 0.5050 0.5041
2322.000000 0.5028 0.5014 0.4998 0.4980 0.4957
2327.000000 0.4924 0.4887 0.4838 0.4787 0.4718
2332.000000 0.4650 0.4587 0.4526 0.4404 0.4260
2337.000000 0.4165 0.4110 0.4064 0.4034 0.4003
2342.000000 0.3975 0.3946 0.3917 0.3889 0.3861
2347.000000 0.3833 0.3808 0.3786 0.3763 0.3740
2352.000000 0.3718 0.3695 0.3673 0.3650 0.3628
2357.000000 0.3605 0.3583 0.3563 0.3548 0.3534
2362.000000 0.3523 0.3513 0.3503 0.3493 0.3489
2367.000000 0.3485 0.3482 0.3479 0.3475 0.3472
2372.000000 0.3469 0.3466 0.3463 0.3460 0.3457
2377.000000 0.3454 0.3452 0.3450 0.3448 0.3445
2382.000000 0.3443 0.3441 0.3432 0.3422 0.3410
2387.000000 0.3396 0.3382 0.3367 0.3352 0.3337
2392.000000 0.3322 0.3305 0.3287 0.3269 0.3250
2397.000000 0.3231 0.3213 0.3194 0.3174 0.3153
2402.000000 0.3133 0.3113 0.3093 0.3074 0.3054
2407.000000 0.3037 0.3021 0.3005 0.2990 0.2974
2412.000000 0.2959 0.2944 0.2929 0.2914 0.2895
2417.000000 0.2874 0.2851 0.2821 0.2791 0.2760
2422.000000 0.2730 0.2700 0.2670 0.2639 0.2610
2427.000000 0.2580 0.2551 0.2523 0.2495 0.2466
2432.000000 0.2438 0.2410 0.2381 0.2353 0.2325
2437.000000 0.2296 0.2268 0.2239 0.2211 0.2183
2442.000000 0.2155 0.2126 0.2098 0.2069 0.2040
2447.000000 0.2009 0.1978 0.1947 0.1916 0.1885
2452.000000 0.1854 0.1823 0.1792 0.1761 0.1731
2457.000000 0.1703 0.1675 0.1649 0.1623 0.1597
2462.000000 0.1570 0.1544 0.1518 0.1491 0.1465
2467.000000 0.1439 0.1412 0.1375 0.1339 0.1302
2472.000000 0.1264 0.1228 0.1198 0.1168 0.1143
2477.000000 0.1120 0.1098 0.1074 0.1051 0.1035
2482.000000 0.1019 0.1009 0.1006 0.1004 0.1004
2487.000000 0.1004 0.1002 0.1006 0.1007 0.1011
2492.000000 0.1014 0.1017 0.1021 0.1024 0.1034
2497.000000 0.1044 0.1069 0.1110 0.1151 0.1184
2502.000000 0.1217 0.1255 0.1298 0.1341 0.1373
2507.000000 0.1405 0.1433 0.1458 0.1483 0.1503
2512.000000 0.1523 0.1543 0.1563 0.1583 0.1595
2517.000000 0.1607 0.1619 0.1630 0.1642 0.1646
2522.000000 0.1650 0.1653 0.1654 0.1654 0.1653
2527.000000 0.1652 0.1650 0.1648 0.1646 0.1645
2532.000000 0.1643 0.1641 0.1639 0.1637 0.1661
2537.000000 0.1633 0.1631 0.1628 0.1626 0.1624
2542.000000 0.1621 0.1619 0.1616 0.1612 0.1608
2547.000000 0.1603 0.1598 0.1592 0.1587 0.1582
2552.000000 0.1569 0.1556 0.1544 0.1531 0.1518
2557.000000 0.1504 0.1491 0.1478 0.1464 0.1451
2562.000000 0.1438 0.1426 0.1414 0.1404 0.1394
2567.000000 0.1385 0.1376 0.1367 0.1358 0.1349
2572.000000 0.1340 0.1330 0.1321 0.1311 0.1300
2577.000000 0.1289 0.1278 0.1267 0.1255 0.1244
2582.000000 0.1233 0.1222 0.1210 0.1199 0.1192
2587.000000 0.1186 0.1180 0.1179 0.1177 0.1176
2592.000000 0.1179 0.1182 0.1188 0.1194 0.1201
2597.000000 0.1156 0.1219 0.1230 0.1246 0.1263
2602.000000 0.1279 0.1296 0.1312 0.1329 0.1346
2607.000000 0.1363 0.1381 0.1400 0.1419 0.1437
2612.000000 0.1455 0.1474 0.1493 0.1512 0.1532
2617.000000 0.1551 0.1570 0.1590 0.1609 0.1628
2622.000000 0.1648 0.1667 0.1684 0.1700 0.1716
2627.000000 0.1731 0.1746 0.1761 0.1777 0.1792
2632.000000 0.1806 0.1820 0.1835 0.1848 0.1861
2637.000000 0.1875 0.1888 0.1901 0.1915 0.1928
2642.000000 0.1942 0.1955 0.1969 0.1983 0.1996
2647.000000 0.2010 0.2023 0.2037 0.2050 0.2063
2652.000000 0.2076 0.2089 0.2102 0.2116 0.2129
2657.000000 0.2143 0.2159 0.2176 0.2197 0.2223
2662.000000 0.2249 0.2305 0.2381 0.2457 0.2526
2667.000000 0.2593 0.2660 0.2728 0.2795 0.2862
2672.000000 0.2929 0.2996 0.3063 0.3130 0.3197
2677.000000 0.3263 0.3330 0.3396 0.3463 0.3529
2682.000000 0.3596 0.3662 0.3729 0.3796 0.3862
2687.000000 0.3928 0.3994 0.4027 0.4053 0.4079
2692.000000 0.4108 0.4137 0.4166 0.4183 0.4201
2697.000000 0.4249 0.4226 0.4236 0.4244 0.4246
2702.000000 0.4248 0.4250 0.4253 0.4255 0.4257
2707.000000 0.4257 0.4257 0.4256 0.4254 0.4252
2712.000000 0.4242 0.4225 0.4209 0.4194 0.4181
2717.000000 0.4169 0.4157 0.4147 0.4136 0.4127
2722.000000 0.4117 0.4108 0.4102 0.4096 0.4091
2727.000000 0.4089 0.4088 0.4088 0.4088 0.4089
2732.000000 0.4090 0.4094 0.4098 0.4102 0.4111
2737.000000 0.4121 0.4132 0.4154 0.4178 0.4203
2742.000000 0.4233 0.4264 0.4295 0.4335 0.4378
2747.000000 0.4422 0.4447 0.4466 0.4485 0.4497
2752.000000 0.4506 0.4515 0.4520 0.4525 0.4529
2757.000000 0.4533 0.4537 0.4541 0.4543 0.4544
2762.000000 0.4545 0.4546 0.4547 0.4548 0.4549
2767.000000 0.4550 0.4552 0.4552 0.4552 0.4552
2772.000000 0.4551 0.4551 0.4550 0.4540 0.4511
2777.000000 0.4481 0.4449 0.4407 0.4364 0.4322
2782.000000 0.4279 0.4237 0.4194 0.4152 0.4110
2787.000000 0.4067 0.4025 0.3983 0.3941 0.3904
2792.000000 0.3868 0.3832 0.3815 0.3805 0.3795
2797.000000 0.3789 0.3785 0.3782 0.3779 0.3776
2802.000000 0.3773 0.3762 0.3731 0.3700 0.3665
2807.000000 0.3608 0.3550 0.3493 0.3436 0.3378
2812.000000 0.3321 0.3264 0.3207 0.3150 0.3092
2817.000000 0.3035 0.2978 0.2921 0.2865 0.2808
2822.000000 0.2751 0.2694 0.2637 0.2580 0.2524
2827.000000 0.2467 0.2411 0.2354 0.2298 0.2242
2832.000000 0.2186 0.2129 0.2073 0.2017 0.1960
2837.000000 0.1904 0.1848 0.1792 0.1736 0.1679
2842.000000 0.1623 0.1567 0.1511 0.1455 0.1400
2847.000000 0.1344 0.1288 0.1232 0.1176 0.1127
2852.000000 0.1087 0.1048 0.1011 0.0988 0.0965
2857.000000 0.0943 0.0924 0.0905 0.0887 0.0874
2862.000000 0.0864 0.0855 0.0845 0.0836 0.0826
2867.000000 0.0816 0.0807 0.0797 0.0788 0.0781
2872.000000 0.0774 0.0768 0.0762 0.0755 0.0749
2877.000000 0.0743 0.0741 0.0738 0.0736 0.0735
2882.000000 0.0733 0.0732 0.0731 0.0730 0.0729
2887.000000 0.0729 0.0729 0.0729 0.0729 0.0729
2892.000000 0.0729 0.0729 0.0730 0.0730 0.0731
2897.000000 0.0732 0.0733 0.0733 0.0734 0.0735
2902.000000 0.0737 0.0738 0.0739 0.0740 0.0741
2907.000000 0.0743 0.0744 0.0745 0.0746 0.0747
2912.000000 0.0748 0.0749 0.0750 0.0751 0.0753
2917.000000 0.0754 0.0756 0.0759 0.0761 0.0764
2922.000000 0.0766 0.0769 0.0772 0.0774 0.0777
2927.000000 0.0780 0.0784 0.0788 0.0793 0.0797
2932.000000 0.0802 0.0806 0.0810 0.0815 0.0819
2937.000000 0.0823 0.0828 0.0832 0.0836 0.0841
2942.000000 0.0847 0.0855 0.0862 0.0869 0.0877
2947.000000 0.0885 0.0893 0.0902 0.0911 0.0920
2952.000000 0.0929 0.0939 0.0948 0.0958 0.0975
2957.000000 0.0992 0.1009 0.1051 0.1126 0.1202
2962.000000 0.1277 0.1371 0.1468 0.1564 0.1660
2967.000000 0.1756 0.1852 0.1948 0.2044 0.2139
2972.000000 0.2235 0.2331 0.2426 0.2521 0.2616
2977.000000 0.2712 0.2807 0.2902 0.2997 0.3092
2982.000000 0.3188 0.3283 0.3378 0.3472 0.3567
2987.000000 0.3662 0.3757 0.3851 0.3946 0.4040
2992.000000 0.4134 0.4228 0.4322 0.4417 0.4511
2997.000000 0.4605 0.4699 0.4793 0.4887 0.4981
3002.000000 0.5074 0.5168 0.5262 0.5357 0.5461
3007.000000 0.5564 0.5668 0.5763 0.5853 0.5943
3012.000000 0.6032 0.6078 0.6121 0.6164 0.6221
3017.000000 0.6305 0.6390 0.6475 0.6532 0.6576
3022.000000 0.6621 0.6665 0.6705 0.6745 0.6785
3027.000000 0.6824 0.6863 0.6901 0.6939 0.6972
3032.000000 0.7004 0.7035 0.7066 0.7097 0.7128
3037.000000 0.7160 0.7189 0.7216 0.7243 0.7270
3042.000000 0.7295 0.7318 0.7342 0.7366 0.7390
3047.000000 0.7413 0.7437 0.7461 0.7484 0.7508
3052.000000 0.7532 0.7567 0.7613 0.7659 0.7706
3057.000000 0.7749 0.7791 0.7833 0.7874 0.7901
3062.000000 0.7927 0.7953 0.7980 0.8006 0.8033
3067.000000 0.8060 0.8081 0.8097 0.8114 0.8130
3072.000000 0.8143 0.8154 0.8166 0.8177 0.8188
3077.000000 0.8199 0.8210 0.8222 0.8233 0.8244
3082.000000 0.8256 0.8267 0.8278 0.8289 0.8301
3087.000000 0.8309 0.8316 0.8322 0.8329 0.8334
3092.000000 0.8337 0.8341 0.8345 0.8349 0.8353
3097.000000 0.8357 0.8361 0.8365 0.8369 0.8373
3102.000000 0.8378 0.8381 0.8385 0.8389 0.8393
3107.000000 0.8397 0.8401 0.8405 0.8408 0.8412
3112.000000 0.8416 0.8419 0.8423 0.8427 0.8430
3117.000000 0.8434 0.8437 0.8441 0.8445 0.8448
3122.000000 0.8452 0.8455 0.8459 0.8463 0.8466
3127.000000 0.8470 0.8473 0.8477 0.8480 0.8484
3132.000000 0.8488 0.8491 0.8495 0.8498 0.8502
3137.000000 0.8506 0.8514 0.8522 0.8529 0.8537
3142.000000 0.8544 0.8552 0.8560 0.8567 0.8575
3147.000000 0.8583 0.8591 0.8598 0.8606 0.8614
3152.000000 0.8621 0.8627 0.8632 0.8636 0.8641
3157.000000 0.8645 0.8648 0.8651 0.8654 0.8657
3162.000000 0.8660 0.8663 0.8666 0.8669 0.8672
3167.000000 0.8675 0.8679 0.8693 0.8685 0.8688
3172.000000 0.8691 0.8693 0.8693 0.8693 0.8693
3177.000000 0.8694 0.8694 0.8694 0.8694 0.8695
3182.000000 0.8695 0.8695 0.8695 0.8696 0.8696
3187.000000 0.8696 0.8696 0.8696 0.8696 0.8695
3192.000000 0.8694 0.8693 0.8692 0.8690 0.8689
3197.000000 0.8687 0.8686 0.8684 0.8683 0.8682
3202.000000 0.8680 0.8679 0.8677 0.8676 0.8674
3207.000000 0.8673 0.8671 0.8670 0.8668 0.8667
3212.000000 0.8665 0.8664 0.8663 0.8661 0.8660
3217.000000 0.8658 0.8657 0.8655 0.8654 0.8652
3222.000000 0.8651 0.8650 0.8649 0.8647 0.8647
3227.000000 0.8647 0.8647 0.8647 0.8648 0.8648
3232.000000 0.8648 0.8648 0.8648 0.8648 0.8648
3237.000000 0.8648 0.8648 0.8649 0.8649 0.8649
3242.000000 0.8649 0.8649 0.8649 0.8649 0.8649
3247.000000 0.8650 0.8650 0.8650 0.8650 0.8650
3252.000000 0.8650 0.8650 0.8650 0.8650 0.8648
3257.000000 0.8645 0.8643 0.8640 0.8637 0.8633
3262.000000 0.8630 0.8627 0.8624 0.8620 0.8617
3267.000000 0.8614 0.8610 0.8607 0.8604 0.8601
3272.000000 0.8597 0.8595 0.8592 0.8589 0.8587
3277.000000 0.8585 0.8582 0.8580 0.8578 0.8576
3282.000000 0.8574 0.8572 0.8571 0.8569 0.8567
3287.000000 0.8565 0.8563 0.8561 0.8559 0.8557
3292.000000 0.8555 0.8553 0.8551 0.8549 0.8547
3297.000000 0.8546 0.8544 0.8542 0.8541 0.8539
3302.000000 0.8537 0.8536 0.8534 0.8532 0.8530
3307.000000 0.8528 0.8527 0.8525 0.8524 0.8522
3312.000000 0.8520 0.8518 0.8517 0.8515 0.8513
3317.000000 0.8510 0.8507 0.8504 0.8502 0.8498
3322.000000 0.8495 0.8491 0.8488 0.8485 0.8482
3327.000000 0.8478 0.8475 0.8472 0.8469 0.8465
3332.000000 0.8462 0.8459 0.8456 0.8453 0.8450
3337.000000 0.8448 0.8446 0.8446 0.8446 0.8446
3342.000000 0.8446 0.8446 0.8446 0.8446 0.8446
3347.000000 0.8446 0.8446 0.8446 0.8446 0.8446
3352.000000 0.8446 0.8446 0.8446 0.8446 0.8446
3357.000000 0.8450 0.8453 0.8456 0.8459 0.8462
3362.000000 0.8466 0.8470 0.8474 0.8478 0.8482
3367.000000 0.8486 0.8490 0.8494 0.8499 0.8503
3372.000000 0.8508 0.8513 0.8517 0.8522 0.8528
3377.000000 0.8533 0.8538 0.8544 0.8551 0.8558
3382.000000 0.8565 0.8572 0.8579 0.8586 0.8593
3387.000000 0.8600 0.8605 0.8608 0.8611 0.8614
3392.000000 0.8617 0.8620 0.8623 0.8626 0.8628
3397.000000 0.8631 0.8634 0.8637 0.8640 0.8642
3402.000000 0.8644 0.8646 0.8647 0.8649 0.8650
3407.000000 0.8649 0.8648 0.8647 0.8646 0.8645
3412.000000 0.8644 0.8642 0.8641 0.8640 0.8639
3417.000000 0.8638 0.8637 0.8636 0.8634 0.8634
3422.000000 0.8633 0.8632 0.8631 0.8630 0.8630
3427.000000 0.8629 0.8628 0.8628 0.8631 0.8636
3432.000000 0.8641 0.8646 0.8651 0.8657 0.8663
3437.000000 0.8669 0.8675 0.8681 0.8689 0.8696
3442.000000 0.8704 0.8712 0.8719 0.8728 0.8736
3447.000000 0.8744 0.8752 0.8759 0.8764 0.8770
3452.000000 0.8776 0.8781 0.8785 0.8788 0.8792
3457.000000 0.8796 0.8799 0.8803 0.8806 0.8810
3462.000000 0.8813 0.8817 0.8820 0.8824 0.8828
3467.000000 0.8831 0.8835 0.8838 0.8842 0.8845
3472.000000 0.8849 0.8851 0.8853 0.8855 0.8857
3477.000000 0.8858 0.8860 0.8862 0.8863 0.8865
3482.000000 0.8867 0.8868 0.8870 0.8872 0.8873
3487.000000 0.8875 0.8876 0.8878 0.8879 0.8881
3492.000000 0.8882 0.8884 0.8885 0.8887 0.8889
3497.000000 0.8890 0.8892 0.8894 0.8895 0.8897
3502.000000 0.8898 0.8900 0.8902 0.8903 0.8905
3507.000000 0.8906 0.8907 0.8908 0.8908 0.8909
3512.000000 0.8910 0.8911 0.8911 0.8912 0.8912
3517.000000 0.8913 0.8914 0.8914 0.8915 0.8915
3522.000000 0.8916 0.8917 0.8917 0.8918 0.8918
3527.000000 0.8919 0.8920 0.8920 0.8921 0.8921
3532.000000 0.8903 0.8923 0.8923 0.8924 0.8924
3537.000000 0.8925 0.8926 0.8926 0.8927 0.8927
3542.000000 0.8927 0.8926 0.8925 0.8924 0.8924
3547.000000 0.8923 0.8922 0.8921 0.8920 0.8920
3552.000000 0.8919 0.8918 0.8917 0.8916 0.8916
3557.000000 0.8915 0.8914 0.8913 0.8912 0.8912
3562.000000 0.8910 0.8908 0.8906 0.8904 0.8902
3567.000000 0.8900 0.8897 0.8895 0.8892 0.8890
3572.000000 0.8887 0.8884 0.8881 0.8879 0.8876
3577.000000 0.8873 0.8871 0.8868 0.8866 0.8863
3582.000000 0.8861 0.8858 0.8855 0.8852 0.8850
3587.000000 0.8847 0.8844 0.8842 0.8839 0.8837
3592.000000 0.8834 0.8832 0.8829 0.8826 0.8824
3597.000000 0.8821 0.8818 0.8816 0.8813 0.8811
3602.000000 0.8808 0.8806 0.8803 0.8800 0.8798
3607.000000 0.8795 0.8792 0.8789 0.8786 0.8783
3612.000000 0.8781 0.8778 0.8775 0.8772 0.8768
3617.000000 0.8765 0.8762 0.8759 0.8756 0.8753
3622.000000 0.8750 0.8747 0.8744 0.8741 0.8738
3627.000000 0.8736 0.8733 0.8730 0.8727 0.8724
3632.000000 0.8721 0.8718 0.8715 0.8715 0.8715
3637.000000 0.8714 0.8714 0.8714 0.8713 0.8713
3642.000000 0.8712 0.8712 0.8712 0.8711 0.8711
3647.000000 0.8710 0.8710 0.8710 0.8709 0.8709
3652.000000 0.8708 0.8708 0.8707 0.8706 0.8706
3657.000000 0.8706 0.8705 0.8705 0.8705 0.8704
3662.000000 0.8704 0.8704 0.8703 0.8703 0.8703
3667.000000 0.8705 0.8708 0.8710 0.8712 0.8714
3672.000000 0.8717 0.8720 0.8722 0.8725 0.8727
3677.000000 0.8730 0.8732 0.8735 0.8738 0.8740
3682.000000 0.8743 0.8745 0.8748 0.8750 0.8752
3687.000000 0.8755 0.8757 0.8759 0.8761 0.8764
3692.000000 0.8766 0.8768 0.8769 0.8770 0.8771
3697.000000 0.8772 0.8773 0.8774 0.8775 0.8777
3702.000000 0.8778 0.8779 0.8780 0.8781 0.8782
3707.000000 0.8783 0.8784 0.8785 0.8786 0.8786
3712.000000 0.8786 0.8786 0.8786 0.8786 0.8786
3717.000000 0.8785 0.8784 0.8783 0.8783 0.8782
3722.000000 0.8781 0.8781 0.8780 0.8779 0.8778
3727.000000 0.8778 0.8777 0.8776 0.8775 0.8775
3732.000000 0.8774 0.8773 0.8773 0.8772 0.8771
3737.000000 0.8770 0.8770 0.8769 0.8768 0.8768
3742.000000 0.8767 0.8766 0.8765 0.8764 0.8763
3747.000000 0.8763 0.8762 0.8760 0.8759 0.8757
3752.000000 0.8755 0.8754 0.8752 0.8750 0.8749
3757.000000 0.8747 0.8745 0.8743 0.8742 0.8740
3762.000000 0.8738 0.8737 0.8735 0.8734 0.8732
3767.000000 0.8730 0.8729 0.8727 0.8726 0.8724
3772.000000 0.8723 0.8721 0.8719 0.8718 0.8716
3777.000000 0.8715 0.8713 0.8711 0.8709 0.8708
3782.000000 0.8706 0.8705 0.8705 0.8705 0.8704
3787.000000 0.8704 0.8704 0.8704 0.8704 0.8704
3792.000000 0.8704 0.8704 0.8704 0.8704 0.8704
3797.000000 0.8704 0.8704 0.8704 0.8705 0.8705
3802.000000 0.8705 0.8705 0.8705 0.8705 0.8706
3807.000000 0.8706 0.8706 0.8706 0.8706 0.8706
3812.000000 0.8706 0.8706 0.8706 0.8706 0.8706
3817.000000 0.8707 0.8707 0.8707 0.8707 0.8707
3822.000000 0.8707 0.8708 0.8709 0.8710 0.8712
3827.000000 0.8713 0.8714 0.8715 0.8716 0.8717
3832.000000 0.8718 0.8719 0.8720 0.8721 0.8722
3837.000000 0.8724 0.8725 0.8726 0.8727 0.8728
3842.000000 0.8729 0.8730 0.8731 0.8732 0.8733
3847.000000 0.8734 0.8736 0.8737 0.8738 0.8739
3852.000000 0.8740 0.8741 0.8742 0.8743 0.8744
3857.000000 0.8745 0.8746 0.8744 0.8741 0.8739
3862.000000 0.8736 0.8733 0.8730 0.8727 0.8724
3867.000000 0.8721 0.8718 0.8715 0.8712 0.8709
3872.000000 0.8706 0.8702 0.8699 0.8696 0.8692
3877.000000 0.8689 0.8686 0.8683 0.8680 0.8677
3882.000000 0.8673 0.8670 0.8667 0.8664 0.8661
3887.000000 0.8658 0.8655 0.8650 0.8646 0.8641
3892.000000 0.8637 0.8632 0.8628 0.8622 0.8616
3897.000000 0.8610 0.8604 0.8598 0.8592 0.8587
3902.000000 0.8581 0.8575 0.8569 0.8563 0.8557
3907.000000 0.8552 0.8548 0.8543 0.8539 0.8535
3912.000000 0.8530 0.8526 0.8522 0.8518 0.8514
3917.000000 0.8510 0.8506 0.8502 0.8498 0.8494
3922.000000 0.8490 0.8486 0.8482 0.8478 0.8474
3927.000000 0.8470 0.8466 0.8463 0.8459 0.8455
3932.000000 0.8451 0.8447 0.8443 0.8439 0.8435
3937.000000 0.8432 0.8428 0.8423 0.8419 0.8415
3942.000000 0.8411 0.8407 0.8404 0.8401 0.8398
3947.000000 0.8396 0.8393 0.8390 0.8387 0.8384
3952.000000 0.8382 0.8379 0.8376 0.8373 0.8371
3957.000000 0.8368 0.8365 0.8362 0.8359 0.8356
3962.000000 0.8353 0.8351 0.8348 0.8345 0.8343
3967.000000 0.8340 0.8337 0.8334 0.8332 0.8329
3972.000000 0.8326 0.8324 0.8321 0.8319 0.8317
3977.000000 0.8316 0.8315 0.8313 0.8312 0.8310
3982.000000 0.8310 0.8309 0.8309 0.8308 0.8307
3987.000000 0.8307 0.8306 0.8305 0.8304 0.8304
3992.000000 0.8303 0.8302 0.8301 0.8300 0.8300
3997.000000 0.8299 0.8298 0.8297 0.8297
##END=
