##TITLE=Barbituric acid, 5-hydroxy-5-thiosemicarbazido-
##JCAMP-DX=4.24
##DATA TYPE=INFRARED SPECTRUM
##CLASS=COBLENTZ III
##ORIGIN=SOUTHERN RESEARCH INSTITUTE
##OWNER=Copyright (C) 1987 by the Coblentz Society
Collection (C) 2018 copyright by the U.S. Secretary of Commerce
on behalf of the United States of America. All rights reserved.
##DATE=1957/12/12
##NAMES=2-(5-hydroxy-2,4,6-trioxohexahydro-5-pyrimidinyl)hydrazinecarbothioamide
##MOLFORM=C5 H7 N5 O4 S
##SOURCE REFERENCE=COBLENTZ NO. 8719
##$NIST ID=B6008719
##$NIST SOURCE=COBLENTZ
##$NIST IMAGE=cob8719
##SPECTROMETER/DATA SYSTEM=PERKIN-ELMER 21 (GRATING)
##INSTRUMENT PARAMETERS=FILTER CHANGE ABOUT 1090 CM^-^1
##STATE=SOLID (0.6 mg / 650 mg KBr DISC)
##SAMPLING PROCEDURE=TRANSMISSION
##RESOLUTION=2
##DATA PROCESSING=DIGITIZED BY COBLENTZ SOCIETY (BATCH II) FROM HARD COPY (ADJUSTED \addcm-1\10-8-2\)
##XUNITS=1/CM
##YUNITS=TRANSMITTANCE
##XFACTOR=1.0
##YFACTOR=1
##DELTAX=1.003372
##FIRSTX=603.55
##LASTX=4010
##FIRSTY=0.6789
##MAXX=4010
##MINX=603.55
##MAXY=0.86045
##MINY=0.107673
##NPOINTS=3396
##XYDATA=(X++(Y..Y))
603.550000 0.6789 0.6789 0.6787 0.6784 0.6780
608.566858 0.6775 0.6770 0.6765 0.6760 0.6751
613.583716 0.6736 0.6722 0.6707 0.6693 0.6678
618.600574 0.6663 0.6647 0.6630 0.6614 0.6597
623.617432 0.6580 0.6571 0.6567 0.6563 0.6560
628.634290 0.6557 0.6574 0.6573 0.6579 0.6587
633.651148 0.6595 0.6622 0.6656 0.6690 0.6724
638.668006 0.6758 0.6792 0.6826 0.6865 0.6917
643.684865 0.6972 0.7028 0.7084 0.7243 0.7365
648.701723 0.7450 0.7534 0.7604 0.7649 0.7664
653.718581 0.7667 0.7670 0.7672 0.7675 0.7678
658.735439 0.7686 0.7703 0.7726 0.7754 0.7788
663.752297 0.7826 0.7857 0.7880 0.7900 0.7911
668.769155 0.7916 0.7919 0.7918 0.7917 0.7916
673.786013 0.7923 0.7920 0.7909 0.7901 0.7893
678.802871 0.7883 0.7864 0.7837 0.7810 0.7784
683.819729 0.7762 0.7748 0.7743 0.7737 0.7729
688.836587 0.7715 0.7698 0.7669 0.7624 0.7578
693.853445 0.7532 0.7484 0.7436 0.7387 0.7338
698.870303 0.7284 0.7220 0.7155 0.7090 0.7021
703.887161 0.6944 0.6871 0.6808 0.6765 0.6756
708.904019 0.6752 0.6744 0.6735 0.6725 0.6702
713.920878 0.6659 0.6590 0.6461 0.6337 0.6159
718.937736 0.5968 0.5628 0.4980 0.4894 0.4804
723.954594 0.4709 0.4629 0.4579 0.4534 0.4512
728.971452 0.4516 0.4523 0.4526 0.4564 0.4632
733.988310 0.4937 0.5154 0.5370 0.5586 0.5802
739.005168 0.6019 0.6234 0.6451 0.6667 0.6883
744.022026 0.7100 0.7300 0.7313 0.7327 0.7342
749.038884 0.7360 0.7380 0.7422 0.7471 0.7545
754.055742 0.7645 0.7732 0.7775 0.7805 0.7819
759.072600 0.7833 0.7847 0.7845 0.7844 0.7847
764.089458 0.7841 0.7833 0.7812 0.7791 0.7767
769.106316 0.7741 0.7715 0.7689 0.7664 0.7638
774.123174 0.7611 0.7585 0.7542 0.7471 0.7419
779.140032 0.7400 0.7382 0.7388 0.7407 0.7444
784.156890 0.7491 0.7526 0.7558 0.7580 0.7589
789.173749 0.7597 0.7607 0.7606 0.7594 0.7570
794.190607 0.7544 0.7520 0.7496 0.7472 0.7440
799.207465 0.7405 0.7371 0.7334 0.7294 0.7252
804.224323 0.7211 0.7169 0.7125 0.7082 0.7025
809.241181 0.6941 0.6734 0.6574 0.6500 0.6475
814.258039 0.6466 0.6467 0.6471 0.6476 0.6481
819.274897 0.6486 0.6477 0.6463 0.6445 0.6424
824.291755 0.6379 0.6281 0.6158 0.6035 0.5914
829.308613 0.5794 0.5673 0.5552 0.5503 0.5499
834.325471 0.5517 0.5528 0.5559 0.5728 0.5967
839.342329 0.6207 0.6385 0.6449 0.6466 0.6479
844.359187 0.6483 0.6481 0.6474 0.6461 0.6422
849.376045 0.6348 0.6261 0.6175 0.6089 0.6002
854.392903 0.5916 0.5830 0.5744 0.5657 0.5571
859.409761 0.5454 0.5346 0.5265 0.5204 0.5180
864.426620 0.5178 0.5185 0.5193 0.5193 0.5213
869.443478 0.5311 0.5421 0.5478 0.5517 0.5546
874.460336 0.5568 0.5589 0.5622 0.5669 0.5711
879.477194 0.5743 0.5771 0.5799 0.5827 0.5856
884.494052 0.5884 0.5911 0.5936 0.5960 0.5984
889.510910 0.6008 0.6032 0.6058 0.6086 0.6112
894.527768 0.6140 0.6168 0.6195 0.6222 0.6261
899.544626 0.6324 0.6397 0.6568 0.6843 0.6952
904.561484 0.7021 0.7064 0.7106 0.7145 0.7177
909.578342 0.7209 0.7263 0.7377 0.7481 0.7517
914.595200 0.7549 0.7567 0.7580 0.7593 0.7606
919.612058 0.7620 0.7641 0.7668 0.7692 0.7710
924.628916 0.7721 0.7733 0.7751 0.7776 0.7799
929.645774 0.7814 0.7827 0.7835 0.7841 0.7846
934.662633 0.7852 0.7858 0.7863 0.7868 0.7868
939.679491 0.7869 0.7869 0.7869 0.7869 0.7870
944.696349 0.7870 0.7870 0.7870 0.7870 0.7878
949.713207 0.7868 0.7867 0.7867 0.7866 0.7865
954.730065 0.7865 0.7864 0.7863 0.7863 0.7862
959.746923 0.7861 0.7861 0.7860 0.7859 0.7858
964.763781 0.7857 0.7856 0.7850 0.7841 0.7833
969.780639 0.7824 0.7813 0.7799 0.7784 0.7769
974.797497 0.7746 0.7719 0.7692 0.7666 0.7639
979.814355 0.7611 0.7577 0.7544 0.7510 0.7476
984.831213 0.7442 0.7405 0.7369 0.7332 0.7295
989.848071 0.7258 0.7214 0.7166 0.7117 0.7069
994.864929 0.7015 0.6959 0.6902 0.6834 0.6743
999.881787 0.6638 0.6499 0.6468 0.6457 0.6462
1004.898645 0.6470 0.6478 0.6498 0.6521 0.6548
1009.915504 0.6574 0.6592 0.6608 0.6621 0.6626
1014.932362 0.6628 0.6626 0.6624 0.6628 0.6622
1019.949220 0.6619 0.6616 0.6612 0.6608 0.6597
1024.966078 0.6581 0.6562 0.6536 0.6509 0.6467
1029.982936 0.6406 0.6338 0.6269 0.6201 0.6133
1034.999794 0.6065 0.6000 0.5938 0.5870 0.5795
1040.016652 0.5736 0.5692 0.5655 0.5639 0.5639
1045.033510 0.5641 0.5645 0.5654 0.5671 0.5700
1050.050368 0.5741 0.5787 0.5830 0.5872 0.5916
1055.067226 0.5962 0.5995 0.6010 0.6020 0.6023
1060.084084 0.6025 0.6029 0.6024 0.5999 0.5984
1065.100942 0.5967 0.5948 0.5929 0.5909 0.5882
1070.117800 0.5845 0.5805 0.5757 0.5705 0.5654
1075.134658 0.5606 0.5561 0.5523 0.5509 0.5504
1080.151516 0.5499 0.5501 0.5531 0.5624 0.5740
1085.168375 0.5854 0.5944 0.5946 0.5902 0.5726
1090.185233 0.5566 0.5552 0.5596 0.5694 0.5791
1095.202091 0.5889 0.5987 0.6046 0.6074 0.6100
1100.218949 0.6123 0.6147 0.6158 0.6162 0.6167
1105.235807 0.6171 0.6180 0.6180 0.6170 0.6160
1110.252665 0.6149 0.6139 0.6129 0.6116 0.6104
1115.269523 0.6091 0.6073 0.6052 0.6031 0.6010
1120.286381 0.5990 0.5968 0.5940 0.5900 0.5857
1125.303239 0.5811 0.5756 0.5700 0.5645 0.5591
1130.320097 0.5549 0.5517 0.5487 0.5458 0.5427
1135.336955 0.5395 0.5365 0.5343 0.5323 0.5303
1140.353813 0.5283 0.5263 0.5243 0.5227 0.5216
1145.370671 0.5206 0.5195 0.5184 0.5168 0.5148
1150.387529 0.5128 0.5061 0.4952 0.4841 0.4728
1155.404388 0.4587 0.4414 0.4235 0.4055 0.3877
1160.421246 0.3700 0.3539 0.3337 0.2957 0.2505
1165.438104 0.2262 0.2194 0.2145 0.2123 0.2122
1170.454962 0.2146 0.2271 0.2524 0.2814 0.3104
1175.471820 0.3395 0.3686 0.3976 0.4267 0.4557
1180.488678 0.4924 0.5372 0.5537 0.5674 0.5788
1185.505536 0.5882 0.5967 0.6023 0.6077 0.6129
1190.522394 0.6173 0.6199 0.6223 0.6246 0.6254
1195.539252 0.6260 0.6265 0.6271 0.6276 0.6276
1200.556110 0.6274 0.6276 0.6271 0.6268 0.6258
1205.572968 0.6249 0.6233 0.6214 0.6195 0.6171
1210.589826 0.6145 0.6118 0.6088 0.6059 0.6030
1215.606684 0.6000 0.5968 0.5929 0.5889 0.5850
1220.623542 0.5809 0.5768 0.5728 0.5687 0.5634
1225.640400 0.5527 0.5413 0.5299 0.5185 0.5071
1230.657259 0.4956 0.4842 0.4728 0.4614 0.4517
1235.674117 0.4436 0.4372 0.4313 0.4252 0.4181
1240.690975 0.4138 0.4128 0.4131 0.4166 0.4157
1245.707833 0.4157 0.4172 0.4200 0.4240 0.4355
1250.724691 0.4510 0.4667 0.4823 0.4981 0.5138
1255.741549 0.5294 0.5451 0.5608 0.5759 0.5842
1260.758407 0.5864 0.5870 0.5893 0.5888 0.5864
1265.775265 0.5858 0.5847 0.5829 0.5811 0.5792
1270.792123 0.5773 0.5755 0.5737 0.5719 0.5701
1275.808981 0.5684 0.5667 0.5650 0.5635 0.5614
1280.825839 0.5597 0.5601 0.5604 0.5615 0.5627
1285.842697 0.5639 0.5651 0.5662 0.5674 0.5686
1290.859555 0.5700 0.5718 0.5736 0.5757 0.5792
1295.876413 0.5840 0.5891 0.5952 0.6025 0.6127
1300.893271 0.6256 0.6358 0.6446 0.6523 0.6588
1305.910130 0.6642 0.6669 0.6696 0.6723 0.6748
1310.926988 0.6765 0.6778 0.6792 0.6806 0.6819
1315.943846 0.6825 0.6829 0.6831 0.6841 0.6824
1320.960704 0.6819 0.6813 0.6802 0.6789 0.6774
1325.977562 0.6756 0.6731 0.6687 0.6631 0.6571
1330.994420 0.6492 0.6411 0.6330 0.6250 0.6168
1336.011278 0.6088 0.6007 0.5927 0.5845 0.5765
1341.028136 0.5684 0.5592 0.5523 0.5478 0.5444
1346.044994 0.5406 0.5363 0.5303 0.5238 0.5175
1351.061852 0.5141 0.5134 0.5131 0.5132 0.5139
1356.078710 0.5151 0.5180 0.5212 0.5238 0.5258
1361.095568 0.5261 0.5256 0.5251 0.5220 0.5116
1366.112426 0.4978 0.4840 0.4703 0.4564 0.4426
1371.129284 0.4288 0.4151 0.4013 0.3875 0.3737
1376.146143 0.3600 0.3420 0.3225 0.3086 0.3011
1381.163001 0.2988 0.2982 0.2984 0.3012 0.3125
1386.179859 0.3308 0.3422 0.3467 0.3701 0.4192
1391.196717 0.4505 0.4586 0.4675 0.4772 0.4845
1396.213575 0.4891 0.4921 0.4935 0.4930 0.4913
1401.230433 0.4935 0.4916 0.4859 0.4755 0.4658
1406.247291 0.4571 0.4469 0.4310 0.4124 0.3940
1411.264149 0.3754 0.3570 0.3398 0.3269 0.3138
1416.281007 0.3000 0.2938 0.2918 0.2923 0.2958
1421.297865 0.3062 0.3131 0.3215 0.3399 0.3643
1426.314723 0.3887 0.4131 0.4375 0.4619 0.4863
1431.331581 0.5084 0.5293 0.5770 0.6188 0.6233
1436.348439 0.6272 0.6287 0.6287 0.6285 0.6278
1441.365297 0.6247 0.6202 0.6110 0.6011 0.5912
1446.382155 0.5813 0.5714 0.5620 0.5554 0.5520
1451.399014 0.5479 0.5436 0.5392 0.5344 0.5295
1456.415872 0.5239 0.5182 0.5121 0.5044 0.4962
1461.432730 0.4856 0.4747 0.4639 0.4566 0.4531
1466.449588 0.4526 0.4503 0.4508 0.4560 0.4860
1471.466446 0.5194 0.5379 0.5450 0.5492 0.5525
1476.483304 0.5556 0.5575 0.5584 0.5594 0.5603
1481.500162 0.5611 0.5619 0.5626 0.5635 0.5649
1486.517020 0.5670 0.5737 0.5821 0.5915 0.6012
1491.533878 0.6109 0.6202 0.6296 0.6408 0.6579
1496.550736 0.6742 0.6832 0.6923 0.7014 0.7106
1501.567594 0.7220 0.7341 0.7407 0.7464 0.7519
1506.584452 0.7549 0.7571 0.7582 0.7585 0.7587
1511.601310 0.7592 0.7608 0.7591 0.7588 0.7584
1516.618168 0.7576 0.7568 0.7557 0.7541 0.7511
1521.635027 0.7459 0.7383 0.7342 0.7302 0.7263
1526.651885 0.7224 0.7185 0.7145 0.7102 0.7058
1531.668743 0.7015 0.6972 0.6927 0.6880 0.6832
1536.685601 0.6785 0.6737 0.6664 0.6550 0.6437
1541.702459 0.6323 0.6210 0.6097 0.5983 0.5870
1546.719317 0.5756 0.5642 0.5530 0.5416 0.5302
1551.736175 0.5202 0.5138 0.5074 0.4988 0.4897
1556.753033 0.4824 0.4760 0.4743 0.4733 0.4747
1561.769891 0.4760 0.4852 0.5004 0.5072 0.5138
1566.786749 0.5200 0.5259 0.5318 0.5843 0.6024
1571.803607 0.6075 0.6108 0.6113 0.6118 0.6119
1576.820465 0.6116 0.6125 0.6109 0.6105 0.6087
1581.837323 0.6053 0.5997 0.5928 0.5874 0.5822
1586.854181 0.5769 0.5698 0.5623 0.5547 0.5447
1591.871039 0.5340 0.5233 0.5134 0.5035 0.4906
1596.887898 0.4658 0.4357 0.4052 0.3749 0.3444
1601.904756 0.3215 0.2988 0.2881 0.2754 0.2569
1606.921614 0.2431 0.2323 0.2249 0.2228 0.2218
1611.938472 0.2239 0.2258 0.2333 0.2503 0.2671
1616.955330 0.2728 0.3058 0.3644 0.4241 0.4712
1621.972188 0.4846 0.4879 0.4911 0.4942 0.4975
1626.989046 0.5046 0.5167 0.5628 0.5698 0.5766
1632.005904 0.5793 0.5818 0.5843 0.5863 0.5871
1637.022762 0.5878 0.5886 0.5894 0.5890 0.5891
1642.039620 0.5889 0.5881 0.5874 0.5865 0.5854
1647.056478 0.5834 0.5814 0.5794 0.5769 0.5719
1652.073336 0.5661 0.5607 0.5554 0.5500 0.5439
1657.090194 0.5376 0.5315 0.5253 0.5189 0.5121
1662.107052 0.5051 0.4963 0.4858 0.4753 0.4646
1667.123910 0.4541 0.4435 0.4329 0.4223 0.4117
1672.140769 0.4011 0.3906 0.3800 0.3694 0.3589
1677.157627 0.3482 0.3377 0.3271 0.3165 0.3059
1682.174485 0.2954 0.2851 0.2768 0.2676 0.2542
1687.191343 0.2414 0.2318 0.2225 0.2145 0.2080
1692.208201 0.2016 0.1951 0.1886 0.1822 0.1759
1697.225059 0.1695 0.1633 0.1571 0.1518 0.1473
1702.241917 0.1427 0.1382 0.1336 0.1289 0.1241
1707.258775 0.1193 0.1147 0.1113 0.1090 0.1077
1712.275633 0.1092 0.1118 0.1086 0.1104 0.1123
1717.292491 0.1144 0.1167 0.1195 0.1229 0.1274
1722.309349 0.1345 0.1418 0.1454 0.1490 0.1531
1727.326207 0.1590 0.1666 0.1746 0.1980 0.2379
1732.343065 0.2496 0.2552 0.2592 0.2633 0.2668
1737.359923 0.2692 0.2714 0.2735 0.2757 0.2778
1742.376782 0.2797 0.2814 0.2832 0.2849 0.2865
1747.393640 0.2882 0.2921 0.3029 0.3185 0.3318
1752.410498 0.3403 0.3444 0.3510 0.3617 0.3703
1757.427356 0.3753 0.3804 0.3864 0.3997 0.4196
1762.444214 0.4414 0.4634 0.4799 0.4953 0.5097
1767.461072 0.5208 0.5285 0.5362 0.5438 0.5515
1772.477930 0.5591 0.5667 0.5742 0.5818 0.5908
1777.494788 0.6019 0.6140 0.6271 0.6407 0.6506
1782.511646 0.6566 0.6626 0.6686 0.6731 0.6761
1787.528504 0.6791 0.6821 0.6852 0.6882 0.6913
1792.545362 0.6943 0.6976 0.7013 0.7051 0.7089
1797.562220 0.7127 0.7164 0.7196 0.7226 0.7257
1802.579078 0.7287 0.7313 0.7331 0.7348 0.7365
1807.595936 0.7381 0.7398 0.7415 0.7431 0.7448
1812.612794 0.7465 0.7480 0.7493 0.7505 0.7517
1817.629653 0.7529 0.7540 0.7555 0.7572 0.7591
1822.646511 0.7610 0.7629 0.7647 0.7665 0.7682
1827.663369 0.7699 0.7717 0.7734 0.7752 0.7770
1832.680227 0.7787 0.7804 0.7822 0.7839 0.7856
1837.697085 0.7874 0.7891 0.7907 0.7920 0.7934
1842.713943 0.7948 0.7961 0.7974 0.7988 0.8001
1847.730801 0.8016 0.8030 0.8044 0.8056 0.8069
1852.747659 0.8082 0.8095 0.8107 0.8118 0.8128
1857.764517 0.8138 0.8148 0.8158 0.8168 0.8178
1862.781375 0.8184 0.8188 0.8191 0.8195 0.8198
1867.798233 0.8201 0.8203 0.8205 0.8207 0.8210
1872.815091 0.8218 0.8229 0.8239 0.8250 0.8261
1877.831949 0.8271 0.8282 0.8292 0.8301 0.8311
1882.848807 0.8321 0.8328 0.8330 0.8333 0.8335
1887.865665 0.8338 0.8340 0.8343 0.8345 0.8348
1892.882524 0.8349 0.8349 0.8349 0.8348 0.8348
1897.899382 0.8348 0.8348 0.8348 0.8349 0.8351
1902.916240 0.8353 0.8355 0.8357 0.8358 0.8360
1907.933098 0.8364 0.8368 0.8373 0.8377 0.8381
1912.949956 0.8386 0.8393 0.8400 0.8407 0.8414
1917.966814 0.8422 0.8429 0.8436 0.8444 0.8451
1922.983672 0.8458 0.8466 0.8473 0.8478 0.8480
1928.000530 0.8482 0.8484 0.8487 0.8489 0.8491
1933.017388 0.8494 0.8495 0.8494 0.8494 0.8494
1938.034246 0.8494 0.8494 0.8494 0.8494 0.8493
1943.051104 0.8496 0.8501 0.8506 0.8512 0.8517
1948.067962 0.8523 0.8529 0.8535 0.8542 0.8548
1953.084820 0.8554 0.8560 0.8566 0.8571 0.8577
1958.101678 0.8581 0.8584 0.8586 0.8589 0.8590
1963.118537 0.8590 0.8591 0.8591 0.8592 0.8593
1968.135395 0.8593 0.8594 0.8594 0.8595 0.8595
1973.152253 0.8596 0.8597 0.8597 0.8596 0.8596
1978.169111 0.8595 0.8594 0.8593 0.8593 0.8592
1983.185969 0.8591 0.8590 0.8590 0.8589 0.8588
1988.202827 0.8587 0.8587 0.8586 0.8585 0.8585
1993.219685 0.8584 0.8583 0.8583 0.8582 0.8581
1998.236543 0.8581 0.8580 0.8579 0.8579 0.8578
2003.253401 0.8577 0.8576 0.8574 0.8573 0.8571
2008.270259 0.8570 0.8568 0.8567 0.8565 0.8564
2013.287117 0.8562 0.8561 0.8557 0.8552 0.8547
2018.303975 0.8543 0.8538 0.8533 0.8529 0.8524
2023.320833 0.8519 0.8514 0.8509 0.8503 0.8497
2028.337691 0.8491 0.8485 0.8479 0.8474 0.8468
2033.354549 0.8462 0.8456 0.8454 0.8452 0.8451
2038.371408 0.8449 0.8447 0.8445 0.8444 0.8443
2043.388266 0.8442 0.8441 0.8440 0.8439 0.8438
2048.405124 0.8437 0.8436 0.8437 0.8437 0.8437
2053.421982 0.8437 0.8438 0.8433 0.8426 0.8419
2058.438840 0.8412 0.8405 0.8398 0.8445 0.8386
2063.455698 0.8378 0.8371 0.8365 0.8358 0.8351
2068.472556 0.8345 0.8338 0.8332 0.8325 0.8319
2073.489414 0.8314 0.8308 0.8302 0.8297 0.8291
2078.506272 0.8289 0.8288 0.8287 0.8286 0.8285
2083.523130 0.8284 0.8283 0.8281 0.8282 0.8285
2088.539988 0.8287 0.8289 0.8292 0.8294 0.8297
2093.556846 0.8301 0.8305 0.8309 0.8313 0.8317
2098.573704 0.8321 0.8326 0.8332 0.8337 0.8342
2103.590562 0.8350 0.8361 0.8372 0.8382 0.8393
2108.607420 0.8403 0.8413 0.8423 0.8432 0.8435
2113.624279 0.8436 0.8437 0.8438 0.8441 0.8450
2118.641137 0.8459 0.8467 0.8475 0.8481 0.8484
2123.657995 0.8486 0.8489 0.8486 0.8484 0.8482
2128.674853 0.8478 0.8472 0.8463 0.8454 0.8445
2133.691711 0.8436 0.8427 0.8421 0.8419 0.8417
2138.708569 0.8415 0.8412 0.8409 0.8407 0.8404
2143.725427 0.8401 0.8399 0.8396 0.8394 0.8391
2148.742285 0.8389 0.8386 0.8384 0.8381 0.8379
2153.759143 0.8377 0.8375 0.8373 0.8371 0.8368
2158.776001 0.8366 0.8364 0.8363 0.8362 0.8360
2163.792859 0.8359 0.8357 0.8356 0.8355 0.8353
2168.809717 0.8352 0.8353 0.8355 0.8359 0.8364
2173.826575 0.8369 0.8375 0.8380 0.8386 0.8389
2178.843433 0.8390 0.8391 0.8392 0.8393 0.8393
2183.860292 0.8394 0.8395 0.8395 0.8394 0.8392
2188.877150 0.8391 0.8389 0.8388 0.8387 0.8385
2193.894008 0.8384 0.8383 0.8382 0.8381 0.8380
2198.910866 0.8378 0.8377 0.8376 0.8375 0.8374
2203.927724 0.8373 0.8374 0.8374 0.8375 0.8375
2208.944582 0.8376 0.8376 0.8377 0.8377 0.8378
2213.961440 0.8378 0.8379 0.8379 0.8380 0.8380
2218.978298 0.8381 0.8381 0.8382 0.8382 0.8383
2223.995156 0.8384 0.8384 0.8385 0.8386 0.8386
2229.012014 0.8387 0.8387 0.8388 0.8389 0.8389
2234.028872 0.8389 0.8389 0.8390 0.8390 0.8389
2239.045730 0.8387 0.8384 0.8382 0.8379 0.8377
2244.062588 0.8375 0.8372 0.8370 0.8367 0.8365
2249.079446 0.8363 0.8360 0.8358 0.8356 0.8353
2254.096304 0.8351 0.8348 0.8346 0.8343 0.8341
2259.113163 0.8338 0.8336 0.8333 0.8330 0.8328
2264.130021 0.8325 0.8323 0.8320 0.8317 0.8315
2269.146879 0.8312 0.8310 0.8307 0.8304 0.8302
2274.163737 0.8299 0.8297 0.8294 0.8290 0.8286
2279.180595 0.8282 0.8278 0.8274 0.8270 0.8266
2284.197453 0.8262 0.8259 0.8255 0.8251 0.8247
2289.214311 0.8244 0.8240 0.8236 0.8233 0.8229
2294.231169 0.8225 0.8221 0.8217 0.8213 0.8210
2299.248027 0.8206 0.8202 0.8199 0.8196 0.8193
2304.264885 0.8191 0.8189 0.8187 0.8185 0.8183
2309.281743 0.8181 0.8179 0.8177 0.8175 0.8173
2314.298601 0.8171 0.8169 0.8168 0.8168 0.8168
2319.315459 0.8167 0.8167 0.8167 0.8167 0.8167
2324.332317 0.8167 0.8167 0.8166 0.8161 0.8152
2329.349176 0.8143 0.8134 0.8125 0.8116 0.8106
2334.366034 0.8095 0.8083 0.8072 0.8061 0.8050
2339.382892 0.8038 0.8027 0.8016 0.8007 0.7998
2344.399750 0.7989 0.7980 0.7972 0.7963 0.7954
2349.416608 0.7945 0.7937 0.7928 0.7920 0.7913
2354.433466 0.7906 0.7899 0.7892 0.7885 0.7881
2359.450324 0.7880 0.7880 0.7881 0.7881 0.7881
2364.467182 0.7882 0.7882 0.7885 0.7891 0.7900
2369.484040 0.7909 0.7919 0.7928 0.7937 0.7947
2374.500898 0.7955 0.7963 0.7971 0.7979 0.7987
2379.517756 0.7994 0.8002 0.8006 0.8004 0.8001
2384.534614 0.7998 0.7992 0.7984 0.7975 0.7967
2389.551472 0.7958 0.7949 0.7940 0.7931 0.7922
2394.568330 0.7913 0.7900 0.7886 0.7881 0.7880
2399.585188 0.7879 0.7878 0.7877 0.7877 0.7878
2404.602047 0.7879 0.7880 0.7881 0.7882 0.7880
2409.618905 0.7875 0.7870 0.7864 0.7859 0.7853
2414.635763 0.7846 0.7840 0.7834 0.7828 0.7821
2419.652621 0.7811 0.7800 0.7786 0.7769 0.7752
2424.669479 0.7742 0.7737 0.7733 0.7728 0.7723
2429.686337 0.7718 0.7714 0.7709 0.7704 0.7700
2434.703195 0.7695 0.7692 0.7689 0.7687 0.7685
2439.720053 0.7683 0.7681 0.7679 0.7676 0.7674
2444.736911 0.7671 0.7669 0.7666 0.7664 0.7661
2449.753769 0.7658 0.7645 0.7627 0.7616 0.7609
2454.770627 0.7602 0.7595 0.7588 0.7581 0.7574
2459.787485 0.7567 0.7560 0.7553 0.7549 0.7546
2464.804343 0.7543 0.7541 0.7538 0.7535 0.7533
2469.821201 0.7530 0.7527 0.7524 0.7522 0.7519
2474.838059 0.7516 0.7515 0.7516 0.7518 0.7519
2479.854918 0.7521 0.7522 0.7523 0.7525 0.7526
2484.871776 0.7528 0.7529 0.7530 0.7530 0.7530
2489.888634 0.7530 0.7531 0.7530 0.7530 0.7529
2494.905492 0.7529 0.7528 0.7528 0.7527 0.7525
2499.922350 0.7523 0.7520 0.7517 0.7514 0.7511
2504.939208 0.7507 0.7503 0.7499 0.7494 0.7490
2509.956066 0.7486 0.7482 0.7477 0.7472 0.7468
2514.972924 0.7463 0.7458 0.7453 0.7448 0.7443
2519.989782 0.7438 0.7433 0.7429 0.7424 0.7419
2525.006640 0.7414 0.7409 0.7404 0.7399 0.7394
2530.023498 0.7389 0.7385 0.7380 0.7375 0.7370
2535.040356 0.7365 0.7360 0.7355 0.7350 0.7345
2540.057214 0.7342 0.7338 0.7335 0.7332 0.7329
2545.074072 0.7326 0.7322 0.7319 0.7313 0.7305
2550.090931 0.7298 0.7291 0.7284 0.7277 0.7270
2555.107789 0.7263 0.7256 0.7247 0.7230 0.7212
2560.124647 0.7195 0.7178 0.7174 0.7172 0.7169
2565.141505 0.7166 0.7163 0.7160 0.7158 0.7155
2570.158363 0.7152 0.7148 0.7141 0.7134 0.7127
2575.175221 0.7120 0.7113 0.7106 0.7098 0.7086
2580.192079 0.7075 0.7064 0.7053 0.7042 0.7030
2585.208937 0.7022 0.7014 0.7007 0.7000 0.6993
2590.225795 0.6986 0.6980 0.6975 0.6972 0.6969
2595.242653 0.6966 0.6962 0.6959 0.6953 0.6940
2600.259511 0.6926 0.6913 0.6901 0.6892 0.6882
2605.276369 0.6872 0.6863 0.6854 0.6849 0.6844
2610.293227 0.6840 0.6835 0.6831 0.6826 0.6822
2615.310085 0.6817 0.6811 0.6805 0.6798 0.6792
2620.326943 0.6785 0.6778 0.6772 0.6765 0.6759
2625.343802 0.6748 0.6735 0.6720 0.6706 0.6691
2630.360660 0.6676 0.6661 0.6644 0.6631 0.6617
2635.377518 0.6603 0.6589 0.6576 0.6562 0.6549
2640.394376 0.6536 0.6522 0.6509 0.6495 0.6483
2645.411234 0.6472 0.6460 0.6449 0.6437 0.6426
2650.428092 0.6414 0.6403 0.6391 0.6380 0.6368
2655.444950 0.6357 0.6346 0.6334 0.6323 0.6312
2660.461808 0.6303 0.6294 0.6285 0.6276 0.6267
2665.478666 0.6257 0.6248 0.6239 0.6230 0.6221
2670.495524 0.6214 0.6209 0.6204 0.6199 0.6194
2675.512382 0.6189 0.6184 0.6179 0.6181 0.6182
2680.529240 0.6184 0.6185 0.6187 0.6188 0.6191
2685.546098 0.6195 0.6200 0.6204 0.6209 0.6209
2690.562956 0.6209 0.6208 0.6206 0.6189 0.6169
2695.579814 0.6146 0.6119 0.6090 0.6059 0.6027
2700.596673 0.5995 0.5968 0.5942 0.5919 0.5904
2705.613531 0.5889 0.5875 0.5860 0.5846 0.5831
2710.630389 0.5810 0.5790 0.5770 0.5750 0.5730
2715.647247 0.5709 0.5689 0.5667 0.5633 0.5597
2720.664105 0.5563 0.5541 0.5518 0.5496 0.5474
2725.680963 0.5451 0.5430 0.5409 0.5389 0.5368
2730.697821 0.5347 0.5326 0.5304 0.5282 0.5260
2735.714679 0.5237 0.5215 0.5193 0.5174 0.5158
2740.731537 0.5142 0.5125 0.5109 0.5091 0.5062
2745.748395 0.5021 0.4980 0.4938 0.4899 0.4867
2750.765253 0.4835 0.4802 0.4770 0.4738 0.4706
2755.782111 0.4674 0.4642 0.4610 0.4578 0.4546
2760.798969 0.4513 0.4476 0.4439 0.4401 0.4363
2765.815827 0.4327 0.4291 0.4257 0.4223 0.4190
2770.832686 0.4156 0.4121 0.4083 0.4045 0.4007
2775.849544 0.3968 0.3934 0.3913 0.3894 0.3877
2780.866402 0.3868 0.3865 0.3860 0.3851 0.3843
2785.883260 0.3834 0.3827 0.3829 0.3830 0.3831
2790.900118 0.3850 0.3860 0.3870 0.3880 0.3891
2795.916976 0.3902 0.3914 0.3926 0.3936 0.3946
2800.933834 0.3956 0.3966 0.3976 0.3985 0.3990
2805.950692 0.3996 0.4002 0.4008 0.4013 0.4018
2810.967550 0.4023 0.4027 0.4031 0.4035 0.4038
2815.984408 0.4042 0.4046 0.4050 0.4054 0.4057
2821.001266 0.4061 0.4065 0.4068 0.4072 0.4076
2826.018124 0.4084 0.4106 0.4133 0.4157 0.4180
2831.034982 0.4201 0.4218 0.4233 0.4247 0.4261
2836.051840 0.4275 0.4289 0.4304 0.4318 0.4333
2841.068698 0.4347 0.4361 0.4376 0.4390 0.4404
2846.085557 0.4417 0.4429 0.4440 0.4447 0.4453
2851.102415 0.4458 0.4464 0.4470 0.4475 0.4484
2856.119273 0.4502 0.4529 0.4555 0.4582 0.4608
2861.136131 0.4634 0.4665 0.4699 0.4728 0.4753
2866.152989 0.4777 0.4802 0.4826 0.4852 0.4881
2871.169847 0.4909 0.4938 0.4967 0.4996 0.5025
2876.186705 0.5052 0.5078 0.5104 0.5131 0.5157
2881.203563 0.5183 0.5210 0.5241 0.5271 0.5296
2886.220421 0.5312 0.5327 0.5341 0.5354 0.5365
2891.237279 0.5372 0.5380 0.5388 0.5392 0.5392
2896.254137 0.5397 0.5398 0.5390 0.5390 0.5386
2901.270995 0.5379 0.5372 0.5365 0.5355 0.5339
2906.287853 0.5323 0.5307 0.5290 0.5270 0.5248
2911.304711 0.5227 0.5203 0.5175 0.5143 0.5112
2916.321569 0.5081 0.5052 0.5023 0.4995 0.4968
2921.338428 0.4946 0.4927 0.4908 0.4889 0.4870
2926.355286 0.4852 0.4833 0.4816 0.4799 0.4781
2931.372144 0.4764 0.4746 0.4728 0.4711 0.4693
2936.389002 0.4676 0.4658 0.4641 0.4623 0.4606
2941.405860 0.4588 0.4570 0.4553 0.4536 0.4520
2946.422718 0.4504 0.4488 0.4472 0.4456 0.4440
2951.439576 0.4424 0.4408 0.4392 0.4376 0.4357
2956.456434 0.4337 0.4316 0.4296 0.4272 0.4244
2961.473292 0.4215 0.4186 0.4157 0.4126 0.4092
2966.490150 0.4059 0.4025 0.3994 0.3963 0.3932
2971.507008 0.3909 0.3894 0.3883 0.3871 0.3861
2976.523866 0.3855 0.3850 0.3844 0.3841 0.3845
2981.540724 0.3846 0.3846 0.3849 0.3856 0.3864
2986.557582 0.3871 0.3877 0.3883 0.3888 0.3894
2991.574441 0.3897 0.3899 0.3900 0.3901 0.3933
2996.591299 0.3923 0.3902 0.3899 0.3895 0.3891
3001.608157 0.3888 0.3884 0.3880 0.3875 0.3871
3006.625015 0.3867 0.3867 0.3865 0.3864 0.3872
3011.641873 0.3883 0.3895 0.3906 0.3917 0.3930
3016.658731 0.3944 0.3958 0.3973 0.3989 0.4006
3021.675589 0.4023 0.4040 0.4057 0.4072 0.4085
3026.692447 0.4096 0.4108 0.4119 0.4133 0.4147
3031.709305 0.4162 0.4176 0.4190 0.4212 0.4243
3036.726163 0.4276 0.4311 0.4347 0.4384 0.4421
3041.743021 0.4448 0.4468 0.4486 0.4505 0.4524
3046.759879 0.4543 0.4561 0.4577 0.4591 0.4605
3051.776737 0.4619 0.4633 0.4648 0.4662 0.4676
3056.793595 0.4689 0.4701 0.4711 0.4722 0.4733
3061.810453 0.4743 0.4754 0.4766 0.4789 0.4814
3066.827312 0.4843 0.4873 0.4903 0.4922 0.4939
3071.844170 0.4956 0.4974 0.4993 0.5012 0.5031
3076.861028 0.5050 0.5076 0.5106 0.5136 0.5166
3081.877886 0.5197 0.5228 0.5255 0.5266 0.5275
3086.894744 0.5279 0.5283 0.5286 0.5289 0.5293
3091.911602 0.5296 0.5299 0.5305 0.5326 0.5352
3096.928460 0.5386 0.5421 0.5461 0.5507 0.5554
3101.945318 0.5596 0.5626 0.5657 0.5686 0.5716
3106.962176 0.5746 0.5776 0.5809 0.5842 0.5875
3111.979034 0.5901 0.5927 0.5943 0.5947 0.5950
3116.995892 0.5953 0.5956 0.5955 0.5957 0.5954
3122.012750 0.5951 0.5948 0.5945 0.5943 0.5936
3127.029608 0.5926 0.5917 0.5907 0.5895 0.5880
3132.046466 0.5865 0.5849 0.5834 0.5819 0.5803
3137.063324 0.5783 0.5761 0.5738 0.5716 0.5694
3142.080183 0.5671 0.5648 0.5625 0.5603 0.5580
3147.097041 0.5557 0.5534 0.5510 0.5485 0.5461
3152.113899 0.5437 0.5413 0.5386 0.5341 0.5296
3157.130757 0.5250 0.5196 0.5148 0.5131 0.5114
3162.147615 0.5097 0.5081 0.5067 0.5052 0.5038
3167.164473 0.5023 0.5006 0.4985 0.4964 0.4943
3172.181331 0.4922 0.4901 0.4879 0.4853 0.4826
3177.198189 0.4799 0.4772 0.4744 0.4714 0.4682
3182.215047 0.4651 0.4620 0.4590 0.4558 0.4522
3187.231905 0.4480 0.4439 0.4397 0.4356 0.4314
3192.248763 0.4273 0.4235 0.4204 0.4172 0.4141
3197.265621 0.4108 0.4077 0.4045 0.4013 0.3982
3202.282479 0.3950 0.3916 0.3875 0.3828 0.3781
3207.299337 0.3734 0.3688 0.3642 0.3601 0.3562
3212.316196 0.3523 0.3484 0.3444 0.3406 0.3367
3217.333054 0.3331 0.3298 0.3265 0.3232 0.3201
3222.349912 0.3178 0.3162 0.3146 0.3130 0.3114
3227.366770 0.3101 0.3093 0.3089 0.3089 0.3090
3232.383628 0.3092 0.3094 0.3091 0.3093 0.3110
3237.400486 0.3117 0.3128 0.3147 0.3165 0.3184
3242.417344 0.3207 0.3235 0.3261 0.3285 0.3309
3247.434202 0.3333 0.3358 0.3422 0.3535 0.3652
3252.451060 0.3742 0.3797 0.3852 0.3908 0.3965
3257.467918 0.4025 0.4084 0.4143 0.4201 0.4258
3262.484776 0.4301 0.4336 0.4370 0.4400 0.4423
3267.501634 0.4444 0.4465 0.4480 0.4486 0.4488
3272.518492 0.4490 0.4488 0.4487 0.4486 0.4481
3277.535350 0.4475 0.4470 0.4460 0.4446 0.4430
3282.552208 0.4415 0.4399 0.4384 0.4366 0.4346
3287.569067 0.4326 0.4305 0.4283 0.4261 0.4239
3292.585925 0.4217 0.4194 0.4164 0.4132 0.4098
3297.602783 0.4056 0.4009 0.3964 0.3922 0.3881
3302.619641 0.3840 0.3798 0.3752 0.3700 0.3646
3307.636499 0.3593 0.3539 0.3486 0.3432 0.3371
3312.653357 0.3303 0.3241 0.3199 0.3166 0.3133
3317.670215 0.3118 0.3090 0.3105 0.3122 0.3129
3322.687073 0.3137 0.3157 0.3188 0.3222 0.3265
3327.703931 0.3312 0.3360 0.3412 0.3467 0.3512
3332.720789 0.3533 0.3529 0.3522 0.3517 0.3512
3337.737647 0.3507 0.3496 0.3483 0.3470 0.3457
3342.754505 0.3443 0.3425 0.3402 0.3378 0.3342
3347.771363 0.3303 0.3270 0.3244 0.3218 0.3197
3352.788221 0.3181 0.3166 0.3152 0.3138 0.3124
3357.805080 0.3109 0.3093 0.3075 0.3058 0.3036
3362.821938 0.3004 0.2971 0.2936 0.2899 0.2862
3367.838796 0.2824 0.2787 0.2750 0.2711 0.2670
3372.855654 0.2630 0.2589 0.2537 0.2487 0.2469
3377.872512 0.2455 0.2442 0.2428 0.2419 0.2419
3382.889370 0.2418 0.2422 0.2423 0.2427 0.2432
3387.906228 0.2438 0.2446 0.2462 0.2483 0.2509
3392.923086 0.2535 0.2562 0.2590 0.2624 0.2663
3397.939944 0.2704 0.2742 0.2779 0.2816 0.2853
3402.956802 0.2901 0.2953 0.3004 0.3060 0.3117
3407.973660 0.3174 0.3214 0.3254 0.3294 0.3321
3412.990518 0.3345 0.3368 0.3392 0.3413 0.3430
3418.007376 0.3448 0.3465 0.3479 0.3485 0.3491
3423.024234 0.3497 0.3504 0.3511 0.3541 0.3500
3428.041092 0.3492 0.3485 0.3477 0.3466 0.3449
3433.057951 0.3416 0.3382 0.3360 0.3337 0.3315
3438.074809 0.3292 0.3270 0.3247 0.3206 0.3157
3443.091667 0.3109 0.3081 0.3054 0.3028 0.3001
3448.108525 0.2975 0.2950 0.2928 0.2911 0.2900
3453.125383 0.2895 0.2891 0.2887 0.2884 0.2881
3458.142241 0.2878 0.2875 0.2872 0.2868 0.2864
3463.159099 0.2858 0.2852 0.2846 0.2840 0.2834
3468.175957 0.2828 0.2824 0.2820 0.2816 0.2812
3473.192815 0.2809 0.2807 0.2809 0.2806 0.2790
3478.209673 0.2815 0.2823 0.2846 0.2865 0.2884
3483.226531 0.2905 0.2934 0.2964 0.2995 0.3031
3488.243389 0.3068 0.3101 0.3125 0.3149 0.3180
3493.260247 0.3235 0.3286 0.3304 0.3321 0.3337
3498.277105 0.3351 0.3366 0.3378 0.3392 0.3416
3503.293963 0.3459 0.3494 0.3527 0.3559 0.3592
3508.310822 0.3630 0.3668 0.3706 0.3744 0.3782
3513.327680 0.3828 0.3893 0.3974 0.4055 0.4112
3518.344538 0.4161 0.4208 0.4249 0.4278 0.4308
3523.361396 0.4350 0.4410 0.4464 0.4502 0.4531
3528.378254 0.4559 0.4587 0.4615 0.4643 0.4671
3533.395112 0.4700 0.4729 0.4758 0.4787 0.4815
3538.411970 0.4841 0.4863 0.4885 0.4907 0.4929
3543.428828 0.4951 0.4974 0.4996 0.5018 0.5040
3548.445686 0.5066 0.5097 0.5128 0.5158 0.5189
3553.462544 0.5220 0.5249 0.5277 0.5304 0.5330
3558.479402 0.5357 0.5384 0.5411 0.5440 0.5473
3563.496260 0.5505 0.5537 0.5570 0.5602 0.5635
3568.513118 0.5667 0.5700 0.5733 0.5768 0.5804
3573.529976 0.5840 0.5877 0.5913 0.5953 0.5999
3578.546835 0.6047 0.6095 0.6144 0.6192 0.6240
3583.563693 0.6286 0.6330 0.6373 0.6411 0.6440
3588.580551 0.6466 0.6492 0.6518 0.6544 0.6569
3593.597409 0.6593 0.6616 0.6640 0.6663 0.6688
3598.614267 0.6715 0.6742 0.6769 0.6795 0.6818
3603.631125 0.6839 0.6860 0.6880 0.6903 0.6929
3608.647983 0.6956 0.6982 0.7008 0.7033 0.7057
3613.664841 0.7078 0.7100 0.7121 0.7143 0.7165
3618.681699 0.7186 0.7208 0.7229 0.7253 0.7278
3623.698557 0.7304 0.7326 0.7343 0.7358 0.7374
3628.715415 0.7390 0.7407 0.7422 0.7438 0.7454
3633.732273 0.7473 0.7494 0.7515 0.7536 0.7557
3638.749131 0.7578 0.7600 0.7621 0.7643 0.7664
3643.765989 0.7683 0.7698 0.7713 0.7727 0.7742
3648.782847 0.7757 0.7771 0.7786 0.7800 0.7815
3653.799706 0.7829 0.7845 0.7863 0.7882 0.7900
3658.816564 0.7914 0.7927 0.7940 0.7953 0.7966
3663.833422 0.7979 0.7993 0.8006 0.8019 0.8032
3668.850280 0.8045 0.8058 0.8071 0.8084 0.8097
3673.867138 0.8110 0.8122 0.8132 0.8143 0.8153
3678.883996 0.8163 0.8174 0.8184 0.8194 0.8204
3683.900854 0.8215 0.8225 0.8235 0.8246 0.8255
3688.917712 0.8264 0.8273 0.8283 0.8292 0.8301
3693.934570 0.8311 0.8320 0.8329 0.8339 0.8349
3698.951428 0.8358 0.8365 0.8371 0.8378 0.8384
3703.968286 0.8390 0.8396 0.8403 0.8409 0.8415
3708.985144 0.8420 0.8423 0.8426 0.8429 0.8432
3714.002002 0.8435 0.8439 0.8442 0.8444 0.8446
3719.018860 0.8447 0.8449 0.8450 0.8452 0.8453
3724.035718 0.8455 0.8456 0.8458 0.8459 0.8461
3729.052577 0.8462 0.8464 0.8466 0.8467 0.8469
3734.069435 0.8470 0.8472 0.8471 0.8469 0.8467
3739.086293 0.8465 0.8462 0.8460 0.8458 0.8456
3744.103151 0.8458 0.8461 0.8464 0.8468 0.8472
3749.120009 0.8482 0.8495 0.8508 0.8521 0.8535
3754.136867 0.8551 0.8567 0.8582 0.8590 0.8594
3759.153725 0.8593 0.8596 0.8595 0.8591 0.8584
3764.170583 0.8577 0.8570 0.8564 0.8558 0.8553
3769.187441 0.8547 0.8542 0.8537 0.8534 0.8534
3774.204299 0.8535 0.8535 0.8538 0.8543 0.8547
3779.221157 0.8554 0.8560 0.8566 0.8573 0.8582
3784.238015 0.8589 0.8595 0.8601 0.8605 0.8602
3789.254873 0.8600 0.8598 0.8596 0.8593 0.8590
3794.271731 0.8587 0.8584 0.8581 0.8578 0.8575
3799.288590 0.8572 0.8569 0.8566 0.8563 0.8560
3804.305448 0.8557 0.8554 0.8552 0.8549 0.8546
3809.322306 0.8543 0.8540 0.8538 0.8535 0.8533
3814.339164 0.8531 0.8528 0.8526 0.8523 0.8518
3819.356022 0.8511 0.8503 0.8496 0.8489 0.8483
3824.372880 0.8479 0.8477 0.8474 0.8472 0.8469
3829.389738 0.8468 0.8470 0.8472 0.8475 0.8479
3834.406596 0.8487 0.8494 0.8502 0.8511 0.8522
3839.423454 0.8532 0.8537 0.8537 0.8534 0.8526
3844.440312 0.8517 0.8510 0.8504 0.8501 0.8498
3849.457170 0.8496 0.8493 0.8491 0.8488 0.8487
3854.474028 0.8487 0.8488 0.8490 0.8491 0.8492
3859.490886 0.8493 0.8494 0.8496 0.8497 0.8498
3864.507744 0.8499 0.8500 0.8501 0.8498 0.8493
3869.524602 0.8488 0.8482 0.8476 0.8466 0.8451
3874.541461 0.8438 0.8425 0.8413 0.8404 0.8400
3879.558319 0.8398 0.8397 0.8395 0.8393 0.8392
3884.575177 0.8392 0.8392 0.8393 0.8393 0.8393
3889.592035 0.8393 0.8393 0.8391 0.8388 0.8384
3894.608893 0.8380 0.8376 0.8370 0.8365 0.8360
3899.625751 0.8356 0.8354 0.8352 0.8349 0.8347
3904.642609 0.8350 0.8356 0.8362 0.8368 0.8375
3909.659467 0.8384 0.8392 0.8401 0.8410 0.8416
3914.676325 0.8422 0.8428 0.8434 0.8439 0.8437
3919.693183 0.8433 0.8429 0.8425 0.8421 0.8416
3924.710041 0.8408 0.8399 0.8391 0.8383 0.8375
3929.726899 0.8369 0.8364 0.8358 0.8354 0.8352
3934.743757 0.8350 0.8348 0.8345 0.8342 0.8340
3939.760615 0.8339 0.8337 0.8335 0.8333 0.8323
3944.777473 0.8312 0.8302 0.8289 0.8276 0.8263
3949.794332 0.8258 0.8257 0.8267 0.8262 0.8262
3954.811190 0.8264 0.8267 0.8271 0.8274 0.8278
3959.828048 0.8284 0.8291 0.8297 0.8305 0.8314
3964.844906 0.8323 0.8331 0.8335 0.8337 0.8340
3969.861764 0.8343 0.8345 0.8348 0.8350 0.8353
3974.878622 0.8355 0.8357 0.8360 0.8362 0.8362
3979.895480 0.8362 0.8361 0.8360 0.8359 0.8358
3984.912338 0.8357 0.8355 0.8353 0.8350 0.8348
3989.929196 0.8345 0.8343 0.8338 0.8333 0.8327
3994.946054 0.8322 0.8317 0.8311 0.8303 0.8292
3999.962912 0.8282 0.8271 0.8261 0.8250 0.8240
4004.979770 0.8228 0.8215 0.8201 0.8188 0.8175
4009.996628 0.8167
##END=
