##TITLE=POTASSIUM OXALATE
##JCAMP-DX=4.24
##DATA TYPE=INFRARED SPECTRUM
##CLASS=COBLENTZ
##OWNER=COBLENTZ SOCIETY
Collection (C) 2018 copyright by the U.S. Secretary of Commerce
on behalf of the United States of America. All rights reserved.
##DATE=Not specified, most likely prior to 1970
##MOLFORM=K2 C2 O4  * H2 O
##SOURCE REFERENCE=COBLENTZ NO. 57
##$NIST ID=B6000057
##$NIST SOURCE=COBLENTZ
##$NIST IMAGE=cob57
##SPECTROMETER/DATA SYSTEM=Not specified, most likely a prism, grating, or hybrid spectrometer.
##STATE=SOLID (KBr DISC)
##SAMPLING PROCEDURE=TRANSMISSION
##RESOLUTION=4
##DATA PROCESSING=DIGITIZED BY NIST FROM HARD COPY
##XUNITS=MICROMETERS
##YUNITS=TRANSMITTANCE
##XFACTOR=1.000000
##YFACTOR=1
##DELTAX=000.007595
##FIRSTX=2.01
##LASTX=14.997
##FIRSTY=0.789
##MAXX=14.997
##MINX=2.01
##MAXY=0.889
##MINY=0.225
##NPOINTS=1711
##XYDATA=(X++(Y..Y))
2.010000 0.7890 0.7890 0.7890 0.7890 0.7890
2.047997 0.7890 0.7910 0.7910 0.7910 0.7920
2.086000 0.7920 0.7940 0.7940 0.7950 0.7950
2.123997 0.7970 0.7980 0.7980 0.7980 0.8000
2.162000 0.8000 0.8010 0.8040 0.8060 0.8070
2.199997 0.8090 0.8100 0.8120 0.8130 0.8150
2.238000 0.8150 0.8160 0.8160 0.8180 0.8180
2.275997 0.8190 0.8190 0.8190 0.8210 0.8220
2.314000 0.8220 0.8240 0.8240 0.8250 0.8250
2.351997 0.8270 0.8270 0.8280 0.8280 0.8280
2.390000 0.8280 0.8300 0.8310 0.8310 0.8330
2.427997 0.8340 0.8360 0.8370 0.8370 0.8370
2.466000 0.8390 0.8390 0.8390 0.8390 0.8400
2.503997 0.8400 0.8400 0.8400 0.8400 0.8400
2.542000 0.8400 0.8420 0.8420 0.8420 0.8420
2.579997 0.8420 0.8420 0.8420 0.8400 0.8400
2.618000 0.8420 0.8420 0.8430 0.8430 0.8450
2.655997 0.8460 0.8470 0.8490 0.8490 0.8470
2.694000 0.8450 0.8430 0.8430 0.8450 0.8450
2.731997 0.8450 0.8430 0.8420 0.8420 0.8400
2.770000 0.8390 0.8360 0.8240 0.8190 0.8120
2.807997 0.8060 0.7970 0.7880 0.7790 0.7690
2.846000 0.7460 0.7180 0.6980 0.6880 0.6700
2.883997 0.6580 0.6420 0.6360 0.6220 0.6110
2.922000 0.5960 0.5870 0.5730 0.5640 0.5550
2.959997 0.5460 0.5380 0.5300 0.5230 0.5200
2.997000 0.5180 0.5170 0.5170 0.5170 0.5170
3.034997 0.5180 0.5200 0.5290 0.5390 0.5400
3.073000 0.5430 0.5490 0.5550 0.5580 0.5630
3.110997 0.5640 0.5670 0.5790 0.5810 0.5900
3.149000 0.5960 0.6080 0.6140 0.6210 0.6330
3.186997 0.6370 0.6450 0.6510 0.6610 0.6660
3.225000 0.6750 0.6780 0.6850 0.6940 0.6980
3.262997 0.7040 0.7090 0.7150 0.7180 0.7220
3.301000 0.7250 0.7310 0.7360 0.7390 0.7400
3.338997 0.7450 0.7460 0.7510 0.7570 0.7600
3.377000 0.7640 0.7690 0.7740 0.7790 0.7820
3.414997 0.7850 0.7890 0.7940 0.7950 0.7950
3.453000 0.7970 0.7980 0.7980 0.8000 0.8000
3.490997 0.8000 0.8000 0.8060 0.8120 0.8160
3.529000 0.8240 0.8250 0.8310 0.8330 0.8360
3.566997 0.8390 0.8400 0.8400 0.8420 0.8420
3.605000 0.8450 0.8460 0.8470 0.8470 0.8500
3.642997 0.8520 0.8520 0.8530 0.8530 0.8530
3.681000 0.8550 0.8550 0.8550 0.8550 0.8550
3.718997 0.8560 0.8580 0.8580 0.8590 0.8610
3.757000 0.8620 0.8640 0.8640 0.8650 0.8670
3.794997 0.8680 0.8680 0.8700 0.8710 0.8710
3.833000 0.8730 0.8730 0.8730 0.8730 0.8740
3.870997 0.8740 0.8760 0.8760 0.8770 0.8770
3.909000 0.8770 0.8790 0.8790 0.8790 0.8800
3.946997 0.8800 0.8820 0.8830 0.8830 0.8830
3.985000 0.8830 0.8830 0.8820 0.8820 0.8820
4.022997 0.8820 0.8830 0.8820 0.8820 0.8800
4.061000 0.8800 0.8800 0.8820 0.8820 0.8820
4.098997 0.8820 0.8820 0.8830 0.8830 0.8830
4.137000 0.8830 0.8830 0.8830 0.8830 0.8830
4.174997 0.8850 0.8850 0.8850 0.8850 0.8830
4.213000 0.8830 0.8830 0.8820 0.8820 0.8800
4.250997 0.8800 0.8800 0.8820 0.8820 0.8830
4.289000 0.8850 0.8850 0.8860 0.8860 0.8860
4.326997 0.8860 0.8880 0.8880 0.8880 0.8880
4.365000 0.8880 0.8890 0.8890 0.8890 0.8860
4.402997 0.8850 0.8820 0.8800 0.8770 0.8770
4.441000 0.8740 0.8740 0.8740 0.8730 0.8730
4.478997 0.8740 0.8740 0.8740 0.8740 0.8740
4.516000 0.8740 0.8760 0.8760 0.8770 0.8770
4.553997 0.8790 0.8790 0.8790 0.8790 0.8800
4.592000 0.8800 0.8800 0.8800 0.8790 0.8790
4.629997 0.8800 0.8800 0.8790 0.8790 0.8790
4.668000 0.8790 0.8790 0.8800 0.8800 0.8800
4.705997 0.8800 0.8800 0.8800 0.8800 0.8800
4.744000 0.8820 0.8800 0.8800 0.8800 0.8800
4.781997 0.8800 0.8800 0.8800 0.8800 0.8800
4.820000 0.8800 0.8800 0.8800 0.8800 0.8790
4.857997 0.8770 0.8770 0.8770 0.8770 0.8770
4.896000 0.8760 0.8760 0.8760 0.8760 0.8760
4.933997 0.8760 0.8740 0.8740 0.8740 0.8740
4.972000 0.8740 0.8740 0.8740 0.8740 0.8730
5.009997 0.8730 0.8730 0.8710 0.8710 0.8710
5.048000 0.8710 0.8710 0.8700 0.8680 0.8670
5.085997 0.8650 0.8650 0.8650 0.8640 0.8640
5.124000 0.8620 0.8590 0.8590 0.8580 0.8580
5.161997 0.8580 0.8560 0.8560 0.8550 0.8550
5.200000 0.8530 0.8520 0.8500 0.8500 0.8490
5.237997 0.8490 0.8470 0.8460 0.8450 0.8430
5.276000 0.8430 0.8420 0.8400 0.8390 0.8370
5.313997 0.8340 0.8330 0.8330 0.8280 0.8240
5.352000 0.8220 0.8210 0.8210 0.8210 0.8190
5.389997 0.8190 0.8180 0.8180 0.8180 0.8180
5.428000 0.8180 0.8160 0.8130 0.8130 0.8100
5.465997 0.8090 0.8070 0.8060 0.8060 0.8040
5.504000 0.8000 0.7970 0.7950 0.7940 0.7940
5.541997 0.7910 0.7880 0.7860 0.7850 0.7820
5.580000 0.7800 0.7790 0.7770 0.7740 0.7700
5.617997 0.7660 0.7630 0.7610 0.7580 0.7570
5.656000 0.7550 0.7550 0.7520 0.7490 0.7460
5.693997 0.7450 0.7390 0.7360 0.7330 0.7330
5.732000 0.7310 0.7310 0.7300 0.7270 0.7220
5.769997 0.7220 0.7210 0.7130 0.7100 0.7000
5.808000 0.6900 0.6850 0.6850 0.6850 0.6840
5.845997 0.6820 0.6750 0.6700 0.6640 0.6600
5.884000 0.6520 0.6450 0.6370 0.6250 0.6120
5.921997 0.6050 0.5850 0.5760 0.5700 0.5570
5.959000 0.5450 0.5060 0.4760 0.4510 0.4330
5.996997 0.4140 0.3870 0.3620 0.3360 0.3010
6.035000 0.2920 0.2840 0.2810 0.2810 0.2830
6.072997 0.2840 0.2930 0.3120 0.3180 0.3300
6.111000 0.3300 0.3260 0.3180 0.3010 0.2740
6.148997 0.2350 0.2250 0.2280 0.2300 0.2420
6.187000 0.2530 0.2630 0.2720 0.2770 0.2870
6.224997 0.2950 0.2980 0.3010 0.3040 0.3020
6.263000 0.3020 0.3040 0.3040 0.3040 0.3040
6.300997 0.3050 0.3090 0.3230 0.3350 0.3570
6.339000 0.3680 0.3870 0.4120 0.4210 0.4300
6.376997 0.4380 0.4540 0.4640 0.4730 0.4850
6.415000 0.4880 0.4900 0.4960 0.4970 0.5260
6.452997 0.5360 0.5480 0.5570 0.5630 0.5700
6.491000 0.5730 0.5750 0.5790 0.5900 0.5990
6.528997 0.6030 0.6150 0.6240 0.6270 0.6310
6.567000 0.6330 0.6340 0.6360 0.6370 0.6390
6.604997 0.6450 0.6480 0.6520 0.6570 0.6610
6.643000 0.6610 0.6670 0.6720 0.6780 0.6820
6.680997 0.6850 0.6870 0.6880 0.6880 0.6910
6.719000 0.6950 0.6980 0.7000 0.7030 0.7060
6.756997 0.7090 0.7130 0.7150 0.7160 0.7180
6.795000 0.7210 0.7220 0.7240 0.7300 0.7340
6.832997 0.7360 0.7360 0.7370 0.7370 0.7390
6.871000 0.7400 0.7420 0.7450 0.7490 0.7510
6.908997 0.7510 0.7520 0.7520 0.7520 0.7540
6.947000 0.7540 0.7540 0.7550 0.7550 0.7550
6.984997 0.7550 0.7570 0.7580 0.7580 0.7580
7.023000 0.7580 0.7600 0.7600 0.7600 0.7600
7.060997 0.7600 0.7600 0.7600 0.7600 0.7580
7.099000 0.7570 0.7550 0.7510 0.7480 0.7450
7.136997 0.7420 0.7420 0.7420 0.7400 0.7400
7.175000 0.7400 0.7420 0.7430 0.7450 0.7460
7.212997 0.7490 0.7520 0.7550 0.7570 0.7600
7.251000 0.7600 0.7610 0.7630 0.7630 0.7640
7.288997 0.7640 0.7640 0.7660 0.7670 0.7670
7.327000 0.7670 0.7670 0.7670 0.7670 0.7670
7.364997 0.7670 0.7690 0.7670 0.7660 0.7660
7.403000 0.7660 0.7660 0.7660 0.7640 0.7630
7.440997 0.7610 0.7600 0.7570 0.7540 0.7520
7.478000 0.7480 0.7420 0.7400 0.7240 0.7130
7.515997 0.7000 0.6810 0.6520 0.6360 0.6210
7.554000 0.5940 0.5700 0.5430 0.4880 0.4700
7.591997 0.4410 0.4200 0.4050 0.4000 0.3930
7.630000 0.3800 0.3650 0.3480 0.3050 0.2930
7.667997 0.2870 0.2860 0.2840 0.2870 0.3020
7.706000 0.3210 0.3360 0.3720 0.4300 0.4590
7.743997 0.4810 0.5080 0.5260 0.5540 0.5610
7.782000 0.5730 0.5820 0.5960 0.6090 0.6240
7.819997 0.6340 0.6400 0.6460 0.6520 0.6550
7.858000 0.6580 0.6700 0.6750 0.6810 0.6910
7.895997 0.6950 0.7000 0.7070 0.7100 0.7150
7.934000 0.7160 0.7210 0.7250 0.7280 0.7310
7.971997 0.7340 0.7390 0.7400 0.7430 0.7460
8.010000 0.7480 0.7510 0.7510 0.7520 0.7540
8.047997 0.7540 0.7550 0.7580 0.7600 0.7610
8.086000 0.7630 0.7640 0.7660 0.7670 0.7690
8.123997 0.7690 0.7700 0.7730 0.7730 0.7740
8.162000 0.7740 0.7740 0.7760 0.7790 0.7790
8.199997 0.7800 0.7820 0.7820 0.7830 0.7850
8.238000 0.7880 0.7890 0.7910 0.7920 0.7940
8.275997 0.7950 0.7950 0.7950 0.7970 0.7970
8.314000 0.7970 0.7970 0.7980 0.7980 0.8000
8.351997 0.8010 0.8030 0.8040 0.8060 0.8070
8.390000 0.8070 0.8090 0.8100 0.8100 0.8120
8.427997 0.8130 0.8130 0.8150 0.8150 0.8160
8.466000 0.8180 0.8190 0.8190 0.8210 0.8210
8.503997 0.8210 0.8210 0.8210 0.8210 0.8220
8.542000 0.8220 0.8220 0.8240 0.8240 0.8240
8.579997 0.8240 0.8250 0.8250 0.8270 0.8280
8.618000 0.8300 0.8310 0.8310 0.8310 0.8310
8.655997 0.8330 0.8340 0.8340 0.8360 0.8370
8.694000 0.8370 0.8390 0.8400 0.8400 0.8400
8.731997 0.8420 0.8420 0.8420 0.8420 0.8420
8.770000 0.8420 0.8420 0.8420 0.8420 0.8430
8.807997 0.8430 0.8450 0.8450 0.8460 0.8460
8.846000 0.8460 0.8460 0.8460 0.8460 0.8460
8.883997 0.8470 0.8470 0.8490 0.8490 0.8490
8.922000 0.8490 0.8500 0.8500 0.8500 0.8500
8.959997 0.8500 0.8500 0.8520 0.8520 0.8520
8.997000 0.8520 0.8520 0.8530 0.8530 0.8530
9.034997 0.8530 0.8530 0.8530 0.8530 0.8530
9.073000 0.8530 0.8530 0.8550 0.8560 0.8580
9.110997 0.8580 0.8590 0.8590 0.8610 0.8620
9.149000 0.8620 0.8620 0.8620 0.8620 0.8620
9.186997 0.8620 0.8640 0.8640 0.8640 0.8640
9.225000 0.8640 0.8640 0.8640 0.8640 0.8650
9.262997 0.8650 0.8650 0.8650 0.8650 0.8650
9.301000 0.8650 0.8650 0.8670 0.8650 0.8650
9.338997 0.8650 0.8670 0.8670 0.8670 0.8670
9.377000 0.8670 0.8670 0.8670 0.8670 0.8670
9.414997 0.8680 0.8680 0.8680 0.8700 0.8700
9.453000 0.8700 0.8700 0.8700 0.8710 0.8710
9.490997 0.8710 0.8710 0.8710 0.8710 0.8710
9.529000 0.8710 0.8710 0.8710 0.8710 0.8710
9.566997 0.8710 0.8710 0.8710 0.8710 0.8710
9.605000 0.8710 0.8710 0.8730 0.8710 0.8700
9.642997 0.8700 0.8700 0.8710 0.8710 0.8710
9.681000 0.8710 0.8710 0.8710 0.8730 0.8730
9.718997 0.8730 0.8730 0.8740 0.8740 0.8740
9.757000 0.8740 0.8740 0.8740 0.8760 0.8760
9.794997 0.8760 0.8760 0.8760 0.8760 0.8760
9.833000 0.8760 0.8760 0.8760 0.8760 0.8760
9.870997 0.8760 0.8770 0.8770 0.8760 0.8760
9.909000 0.8760 0.8770 0.8770 0.8770 0.8770
9.946997 0.8770 0.8770 0.8770 0.8770 0.8770
9.985000 0.8790 0.8790 0.8790 0.8790 0.8800
10.022997 0.8790 0.8790 0.8790 0.8790 0.8790
10.061000 0.8790 0.8790 0.8790 0.8790 0.8790
10.098997 0.8800 0.8800 0.8800 0.8800 0.8800
10.137000 0.8800 0.8800 0.8800 0.8800 0.8800
10.174997 0.8800 0.8820 0.8820 0.8820 0.8820
10.213000 0.8820 0.8820 0.8830 0.8830 0.8830
10.250997 0.8830 0.8830 0.8830 0.8830 0.8830
10.289000 0.8830 0.8830 0.8830 0.8830 0.8850
10.326997 0.8830 0.8850 0.8850 0.8850 0.8830
10.365000 0.8830 0.8830 0.8830 0.8830 0.8830
10.402997 0.8830 0.8830 0.8830 0.8850 0.8830
10.441000 0.8830 0.8830 0.8850 0.8850 0.8850
10.478997 0.8850 0.8860 0.8860 0.8860 0.8860
10.516000 0.8860 0.8860 0.8860 0.8860 0.8860
10.553997 0.8860 0.8860 0.8860 0.8860 0.8860
10.592000 0.8860 0.8860 0.8860 0.8860 0.8860
10.629997 0.8860 0.8860 0.8860 0.8860 0.8860
10.668000 0.8880 0.8880 0.8880 0.8880 0.8880
10.705997 0.8880 0.8880 0.8880 0.8880 0.8890
10.744000 0.8880 0.8860 0.8860 0.8860 0.8860
10.781997 0.8860 0.8880 0.8880 0.8880 0.8880
10.820000 0.8880 0.8880 0.8880 0.8880 0.8880
10.857997 0.8880 0.8880 0.8880 0.8880 0.8880
10.896000 0.8880 0.8880 0.8880 0.8880 0.8880
10.933997 0.8890 0.8890 0.8890 0.8890 0.8890
10.972000 0.8890 0.8890 0.8890 0.8890 0.8890
11.009997 0.8880 0.8880 0.8880 0.8880 0.8890
11.048000 0.8880 0.8880 0.8880 0.8880 0.8880
11.085997 0.8880 0.8880 0.8880 0.8880 0.8880
11.124000 0.8880 0.8880 0.8880 0.8880 0.8880
11.161997 0.8880 0.8880 0.8880 0.8880 0.8880
11.200000 0.8880 0.8880 0.8890 0.8890 0.8880
11.237997 0.8880 0.8880 0.8880 0.8880 0.8880
11.276000 0.8880 0.8880 0.8880 0.8880 0.8880
11.313997 0.8880 0.8880 0.8880 0.8880 0.8880
11.352000 0.8880 0.8880 0.8880 0.8880 0.8880
11.389997 0.8880 0.8880 0.8880 0.8880 0.8880
11.428000 0.8880 0.8880 0.8880 0.8880 0.8860
11.465997 0.8860 0.8860 0.8860 0.8860 0.8860
11.504000 0.8860 0.8850 0.8850 0.8860 0.8850
11.541997 0.8850 0.8850 0.8860 0.8860 0.8860
11.580000 0.8860 0.8860 0.8850 0.8850 0.8850
11.617997 0.8850 0.8850 0.8830 0.8830 0.8830
11.656000 0.8830 0.8830 0.8830 0.8820 0.8820
11.693997 0.8820 0.8820 0.8820 0.8800 0.8800
11.732000 0.8800 0.8800 0.8800 0.8800 0.8800
11.769997 0.8800 0.8800 0.8800 0.8790 0.8790
11.808000 0.8790 0.8790 0.8790 0.8770 0.8770
11.845997 0.8770 0.8770 0.8770 0.8770 0.8760
11.884000 0.8760 0.8760 0.8760 0.8740 0.8740
11.921997 0.8740 0.8730 0.8730 0.8730 0.8730
11.959000 0.8710 0.8710 0.8710 0.8710 0.8710
11.996997 0.8710 0.8700 0.8700 0.8680 0.8680
12.035000 0.8680 0.8670 0.8650 0.8650 0.8650
12.072997 0.8650 0.8650 0.8640 0.8640 0.8650
12.111000 0.8640 0.8640 0.8640 0.8640 0.8620
12.148997 0.8620 0.8620 0.8610 0.8590 0.8590
12.187000 0.8590 0.8590 0.8590 0.8590 0.8610
12.224997 0.8610 0.8590 0.8590 0.8580 0.8580
12.263000 0.8580 0.8560 0.8550 0.8550 0.8530
12.300997 0.8520 0.8500 0.8500 0.8500 0.8500
12.339000 0.8490 0.8490 0.8490 0.8470 0.8470
12.376997 0.8470 0.8470 0.8460 0.8460 0.8460
12.415000 0.8460 0.8460 0.8460 0.8450 0.8450
12.452997 0.8430 0.8420 0.8400 0.8400 0.8400
12.491000 0.8390 0.8390 0.8370 0.8340 0.8330
12.528997 0.8310 0.8300 0.8280 0.8280 0.8270
12.567000 0.8250 0.8220 0.8210 0.8190 0.8160
12.604997 0.8160 0.8150 0.8120 0.8090 0.8060
12.643000 0.8030 0.8010 0.8000 0.7970 0.7940
12.680997 0.7910 0.7890 0.7880 0.7850 0.7770
12.719000 0.7730 0.7700 0.7670 0.7640 0.7630
12.756997 0.7600 0.7570 0.7520 0.7480 0.7420
12.795000 0.7370 0.7330 0.7280 0.7270 0.7190
12.832997 0.7160 0.7130 0.7090 0.7040 0.7010
12.871000 0.6940 0.6900 0.6870 0.6790 0.6720
12.908997 0.6610 0.6490 0.6450 0.6360 0.6090
12.947000 0.5850 0.5670 0.5540 0.5360 0.5300
12.984997 0.5270 0.5290 0.5330 0.5420 0.5480
13.023000 0.5480 0.5450 0.5430 0.5350 0.5180
13.060997 0.4910 0.4700 0.4660 0.4600 0.4600
13.099000 0.4630 0.4840 0.5000 0.5330 0.5600
13.136997 0.5900 0.6050 0.6190 0.6390 0.6580
13.175000 0.6790 0.6810 0.6820 0.6880 0.7000
13.212997 0.7030 0.7040 0.7150 0.7180 0.7210
13.251000 0.7220 0.7280 0.7330 0.7360 0.7370
13.288997 0.7390 0.7400 0.7420 0.7430 0.7450
13.327000 0.7450 0.7460 0.7450 0.7460 0.7480
13.364997 0.7480 0.7480 0.7490 0.7510 0.7510
13.403000 0.7520 0.7520 0.7510 0.7520 0.7520
13.440997 0.7540 0.7520 0.7520 0.7520 0.7520
13.478000 0.7540 0.7540 0.7540 0.7540 0.7540
13.515997 0.7540 0.7540 0.7540 0.7550 0.7540
13.554000 0.7540 0.7540 0.7540 0.7540 0.7540
13.591997 0.7540 0.7540 0.7540 0.7540 0.7540
13.630000 0.7520 0.7520 0.7510 0.7510 0.7510
13.667997 0.7510 0.7510 0.7510 0.7510 0.7490
13.706000 0.7490 0.7490 0.7480 0.7480 0.7480
13.743997 0.7480 0.7480 0.7480 0.7480 0.7480
13.782000 0.7460 0.7450 0.7450 0.7430 0.7430
13.819997 0.7430 0.7430 0.7430 0.7430 0.7430
13.858000 0.7430 0.7430 0.7430 0.7430 0.7430
13.895997 0.7450 0.7430 0.7430 0.7430 0.7430
13.934000 0.7430 0.7430 0.7430 0.7430 0.7430
13.971997 0.7430 0.7430 0.7430 0.7430 0.7430
14.010000 0.7430 0.7430 0.7430 0.7430 0.7450
14.047997 0.7450 0.7450 0.7450 0.7450 0.7450
14.086000 0.7450 0.7450 0.7450 0.7450 0.7450
14.123997 0.7460 0.7450 0.7450 0.7450 0.7450
14.162000 0.7450 0.7450 0.7450 0.7450 0.7450
14.199997 0.7450 0.7450 0.7450 0.7450 0.7450
14.238000 0.7450 0.7450 0.7460 0.7460 0.7460
14.275997 0.7480 0.7490 0.7490 0.7510 0.7510
14.314000 0.7520 0.7520 0.7520 0.7520 0.7520
14.351997 0.7520 0.7520 0.7540 0.7540 0.7540
14.390000 0.7540 0.7550 0.7550 0.7550 0.7550
14.427997 0.7550 0.7570 0.7570 0.7570 0.7580
14.466000 0.7580 0.7580 0.7580 0.7580 0.7580
14.503997 0.7580 0.7600 0.7600 0.7600 0.7600
14.542000 0.7600 0.7600 0.7610 0.7610 0.7610
14.579997 0.7610 0.7610 0.7610 0.7610 0.7610
14.618000 0.7610 0.7630 0.7630 0.7630 0.7630
14.655997 0.7630 0.7640 0.7640 0.7640 0.7640
14.694000 0.7640 0.7640 0.7660 0.7660 0.7660
14.731997 0.7660 0.7660 0.7660 0.7660 0.7660
14.770000 0.7660 0.7660 0.7660 0.7670 0.7670
14.807997 0.7670 0.7690 0.7690 0.7690 0.7690
14.846000 0.7690 0.7690 0.7690 0.7690 0.7690
14.883997 0.7690 0.7690 0.7690 0.7700 0.7700
14.922000 0.7700 0.7700 0.7700 0.7700 0.7700
14.959997 0.7710 0.7710 0.7710 0.7710 0.7730
14.997000 0.7740
##END=
