##TITLE=Pregn-4-ene-3,20-dione, 9Alpha-fluoro-11,17Alpha,21-trihydroxy-, 21- acetate
##JCAMP-DX=4.24
##DATA TYPE=INFRARED SPECTRUM
##CLASS=COBLENTZ III
##ORIGIN=THE SQUIBB INSTITUTE FOR MEDICAL RESEARCH
##OWNER=Copyright (C) 1987 by the Coblentz Society
Collection (C) 2018 copyright by the U.S. Secretary of Commerce
on behalf of the United States of America. All rights reserved.
##DATE=1954/12/21
##MOLFORM=C23 H31 F O
##SOURCE REFERENCE=COBLENTZ NO. 5401
##$NIST ID=B6005401
##$NIST SOURCE=COBLENTZ
##$NIST IMAGE=cob5401
##SPECTROMETER/DATA SYSTEM=PERKIN-ELMER 21 (GRATING)
$$SPECTRAL CONTAMINATION DUE TO OIL AROUND 2900 CM^-^1
##STATE=SOLID (NUJOL MULL) VS NUJOL
##RESOLUTION=2
##XUNITS=1/CM
##YUNITS=TRANSMITTANCE
##XFACTOR=1.0
##YFACTOR=1
##FIRSTX=663
##LASTX=4000
##FIRSTY=0.6047
##MAXX=4000
##MINX=663
##MAXY=0.9825
##MINY=0.0192
##NPOINTS=3338
##XYDATA=(X++(Y..Y))
663.000000 0.6047 0.6209 0.6377 0.6454 0.6510
668.000000 0.6564 0.6607 0.6645 0.6683 0.6720
673.000000 0.6750 0.6821 0.6760 0.6723 0.6649
678.000000 0.6539 0.6436 0.6399 0.6523 0.6867
683.000000 0.7389 0.7640 0.7778 0.7885 0.7989
688.000000 0.8077 0.8138 0.8178 0.8201 0.8219
693.000000 0.8233 0.8293 0.8237 0.8232 0.8221
698.000000 0.8204 0.8192 0.8179 0.8159 0.8138
703.000000 0.8118 0.8118 0.8142 0.8236 0.8314
708.000000 0.8400 0.8502 0.8573 0.8633 0.8648
713.000000 0.8692 0.8663 0.8671 0.8681 0.8695
718.000000 0.8712 0.8728 0.8748 0.8769 0.8789
723.000000 0.8810 0.8832 0.8866 0.8900 0.8924
728.000000 0.8907 0.8943 0.8938 0.8931 0.8920
733.000000 0.8904 0.8882 0.8859 0.8835 0.8809
738.000000 0.8783 0.8751 0.8715 0.8666 0.8599
743.000000 0.8501 0.8364 0.8100 0.7836 0.7562
748.000000 0.7460 0.7744 0.8068 0.8390 0.8648
753.000000 0.8769 0.8774 0.8755 0.8716 0.8661
758.000000 0.8576 0.8415 0.8216 0.7952 0.7658
763.000000 0.7286 0.6970 0.6662 0.6636 0.6662
768.000000 0.6837 0.7099 0.7086 0.7058 0.6993
773.000000 0.6843 0.6701 0.6660 0.6516 0.6476
778.000000 0.6510 0.6496 0.6581 0.6920 0.7343
783.000000 0.7763 0.8053 0.8191 0.8362 0.8544
788.000000 0.8649 0.8764 0.8845 0.8873 0.8885
793.000000 0.8864 0.8850 0.8830 0.8816 0.8806
798.000000 0.8797 0.8785 0.8752 0.8676 0.8596
803.000000 0.8457 0.8254 0.8006 0.7793 0.7745
808.000000 0.7731 0.7788 0.7878 0.8070 0.8356
813.000000 0.8876 0.9114 0.9166 0.9179 0.9215
818.000000 0.9183 0.9177 0.9159 0.9140 0.9118
823.000000 0.9076 0.9023 0.8958 0.8904 0.8881
828.000000 0.8875 0.8882 0.8896 0.8911 0.8924
833.000000 0.8932 0.8879 0.8790 0.8685 0.8567
838.000000 0.8397 0.8196 0.8000 0.7766 0.7506
843.000000 0.6936 0.6292 0.5912 0.5864 0.5871
848.000000 0.6387 0.7050 0.7591 0.7714 0.7810
853.000000 0.7932 0.8065 0.8194 0.8276 0.8258
858.000000 0.8241 0.8185 0.8130 0.8079 0.8014
863.000000 0.7941 0.7863 0.7787 0.7717 0.7614
868.000000 0.7394 0.7059 0.6543 0.6029 0.5515
873.000000 0.4925 0.4537 0.4153 0.3772 0.3597
878.000000 0.3605 0.3951 0.4382 0.4754 0.5646
883.000000 0.6144 0.6156 0.6034 0.5494 0.4955
888.000000 0.4417 0.3881 0.3492 0.3513 0.3588
893.000000 0.4022 0.4842 0.4957 0.4739 0.4394
898.000000 0.4048 0.3705 0.3391 0.3340 0.4091
903.000000 0.4599 0.5106 0.5612 0.5986 0.5979
908.000000 0.5972 0.5944 0.5921 0.5915 0.5920
913.000000 0.6074 0.5942 0.6809 0.7074 0.7344
918.000000 0.7442 0.7444 0.7450 0.7395 0.7344
923.000000 0.7208 0.6604 0.5957 0.5311 0.4666
928.000000 0.4464 0.4542 0.4758 0.5192 0.5625
933.000000 0.6057 0.6359 0.6524 0.6555 0.6550
938.000000 0.6547 0.6568 0.6646 0.6823 0.6992
943.000000 0.7029 0.6996 0.6989 0.6947 0.6916
948.000000 0.6887 0.6850 0.6779 0.6680 0.6567
953.000000 0.6480 0.6409 0.6378 0.6406 0.6489
958.000000 0.6860 0.7184 0.7279 0.7324 0.7343
963.000000 0.7428 0.7571 0.7678 0.7720 0.7722
968.000000 0.7719 0.7683 0.7599 0.7483 0.7238
973.000000 0.6760 0.6378 0.6364 0.6446 0.6964
978.000000 0.7340 0.7336 0.7337 0.7228 0.6832
983.000000 0.6434 0.6038 0.5642 0.5438 0.5414
988.000000 0.5456 0.5618 0.5846 0.6272 0.6815
993.000000 0.7349 0.7687 0.7752 0.7764 0.7770
998.000000 0.7728 0.7677 0.7600 0.7477 0.7344
1003.000000 0.7219 0.7107 0.7007 0.6915 0.6829
1008.000000 0.6745 0.6661 0.6580 0.6483 0.6399
1013.000000 0.6389 0.6386 0.6384 0.6344 0.6383
1018.000000 0.6384 0.6394 0.6489 0.6624 0.6727
1023.000000 0.6790 0.6804 0.6794 0.6798 0.6681
1028.000000 0.6503 0.6338 0.6110 0.5493 0.4658
1033.000000 0.3859 0.3365 0.2888 0.2411 0.1935
1038.000000 0.1459 0.0985 0.0891 0.0947 0.0976
1043.000000 0.1511 0.2162 0.2812 0.3461 0.4062
1048.000000 0.4123 0.4133 0.4030 0.3928 0.3826
1053.000000 0.3762 0.3763 0.3780 0.4499 0.4954
1058.000000 0.5408 0.5861 0.6217 0.6346 0.6417
1063.000000 0.6478 0.6552 0.6608 0.6636 0.6655
1068.000000 0.6661 0.6654 0.6609 0.6572 0.6399
1073.000000 0.6200 0.5806 0.5351 0.4897 0.4543
1078.000000 0.4421 0.4297 0.4170 0.4043 0.3920
1083.000000 0.3847 0.3736 0.3537 0.3268 0.3032
1088.000000 0.2963 0.2976 0.3027 0.3532 0.4210
1093.000000 0.4886 0.5562 0.6167 0.6207 0.6214
1098.000000 0.6214 0.6216 0.6217 0.6217 0.6215
1103.000000 0.6193 0.6211 0.6208 0.6204 0.6201
1108.000000 0.6197 0.6194 0.6191 0.6185 0.6175
1113.000000 0.6042 0.5702 0.5358 0.5013 0.4670
1118.000000 0.4328 0.4243 0.4256 0.4257 0.4209
1123.000000 0.3888 0.3546 0.3205 0.2864 0.2524
1128.000000 0.2249 0.2228 0.2215 0.2909 0.3356
1133.000000 0.3802 0.4247 0.4691 0.5135 0.5545
1138.000000 0.5615 0.5623 0.5632 0.5639 0.5644
1143.000000 0.5649 0.5657 0.5667 0.5680 0.5703
1148.000000 0.5745 0.5780 0.5741 0.5807 0.5718
1153.000000 0.5532 0.5345 0.5159 0.4973 0.4788
1158.000000 0.4603 0.4419 0.4302 0.4289 0.4394
1163.000000 0.4501 0.4575 0.4566 0.4532 0.4294
1168.000000 0.4071 0.3850 0.3628 0.3407 0.3186
1173.000000 0.2965 0.2935 0.3277 0.3716 0.4154
1178.000000 0.4592 0.5028 0.5376 0.5360 0.5353
1183.000000 0.5268 0.5155 0.5042 0.4966 0.4952
1188.000000 0.4954 0.4978 0.5008 0.5039 0.5053
1193.000000 0.5055 0.5045 0.5010 0.4949 0.4908
1198.000000 0.4895 0.4894 0.4896 0.4909 0.4934
1203.000000 0.4968 0.4999 0.5018 0.5012 0.5007
1208.000000 0.4993 0.4952 0.4907 0.4880 0.4860
1213.000000 0.4841 0.4821 0.4785 0.4730 0.4652
1218.000000 0.4556 0.4429 0.4343 0.4319 0.4300
1223.000000 0.4276 0.4226 0.4044 0.3901 0.3526
1228.000000 0.2987 0.2450 0.2118 0.2001 0.1848
1233.000000 0.1605 0.1460 0.1328 0.1235 0.1173
1238.000000 0.1109 0.1028 0.0926 0.0891 0.0884
1243.000000 0.0885 0.0911 0.0943 0.1023 0.1134
1248.000000 0.1379 0.1766 0.2157 0.2546 0.2935
1253.000000 0.3232 0.3226 0.3244 0.3215 0.3153
1258.000000 0.2877 0.2485 0.2092 0.1701 0.1310
1263.000000 0.0920 0.0543 0.0348 0.0297 0.0288
1268.000000 0.0271 0.0298 0.0316 0.0370 0.0547
1273.000000 0.0725 0.0903 0.1081 0.1258 0.1405
1278.000000 0.1475 0.1524 0.1538 0.1547 0.1553
1283.000000 0.1563 0.1577 0.1653 0.1792 0.1894
1288.000000 0.1974 0.2046 0.2215 0.2549 0.2883
1293.000000 0.3216 0.3548 0.3881 0.4212 0.4543
1298.000000 0.4874 0.5192 0.5320 0.5328 0.5287
1303.000000 0.5274 0.5162 0.5051 0.4940 0.4829
1308.000000 0.4762 0.4772 0.4794 0.5251 0.5542
1313.000000 0.5833 0.6078 0.6315 0.6416 0.6472
1318.000000 0.6499 0.6518 0.6528 0.6530 0.6494
1323.000000 0.6517 0.6500 0.6466 0.6416 0.6346
1328.000000 0.6253 0.6155 0.5943 0.5704 0.5466
1333.000000 0.5228 0.4989 0.4752 0.4595 0.4582
1338.000000 0.4623 0.4682 0.4740 0.4771 0.4761
1343.000000 0.4648 0.4369 0.4085 0.3802 0.3519
1348.000000 0.3236 0.2955 0.2673 0.2392 0.2112
1353.000000 0.1830 0.1657 0.1645 0.1649 0.1680
1358.000000 0.1660 0.1746 0.1780 0.1812 0.1846
1363.000000 0.1879 0.1887 0.1883 0.1875 0.1863
1368.000000 0.1853 0.1843 0.1837 0.1834 0.1840
1373.000000 0.1968 0.2229 0.2488 0.2748 0.3006
1378.000000 0.3265 0.3524 0.3781 0.4039 0.4296
1383.000000 0.4560 0.4768 0.4835 0.4877 0.4913
1388.000000 0.4947 0.5060 0.5241 0.5422 0.5589
1393.000000 0.5586 0.5579 0.5590 0.5530 0.5471
1398.000000 0.5376 0.5151 0.4893 0.4637 0.4381
1403.000000 0.4125 0.3869 0.3614 0.3359 0.3240
1408.000000 0.3245 0.3227 0.3277 0.3392 0.3490
1413.000000 0.3537 0.3567 0.3589 0.3602 0.3611
1418.000000 0.3634 0.3672 0.3716 0.3748 0.3767
1423.000000 0.3772 0.3770 0.3767 0.3768 0.3755
1428.000000 0.3742 0.3726 0.3708 0.3630 0.3483
1433.000000 0.3337 0.3190 0.3044 0.2897 0.2755
1438.000000 0.2664 0.2630 0.2606 0.2586 0.2570
1443.000000 0.2557 0.2545 0.2535 0.2526 0.2514
1448.000000 0.2492 0.2458 0.2419 0.2391 0.2415
1453.000000 0.2408 0.2518 0.2687 0.2856 0.3024
1458.000000 0.3194 0.3362 0.3517 0.3651 0.3757
1463.000000 0.3814 0.3878 0.3956 0.4034 0.4111
1468.000000 0.4177 0.4234 0.4335 0.4752 0.5359
1473.000000 0.5590 0.5694 0.5747 0.5790 0.5820
1478.000000 0.5841 0.5856 0.5864 0.5868 0.5876
1483.000000 0.5939 0.6242 0.6564 0.6886 0.7207
1488.000000 0.7414 0.7542 0.7706 0.7847 0.7940
1493.000000 0.8006 0.8068 0.8126 0.8183 0.8219
1498.000000 0.8254 0.8287 0.8319 0.8343 0.8368
1503.000000 0.8391 0.8415 0.8437 0.8456 0.8476
1508.000000 0.8495 0.8514 0.8533 0.8549 0.8562
1513.000000 0.8575 0.8588 0.8602 0.8612 0.8619
1518.000000 0.8625 0.8631 0.8637 0.8641 0.8645
1523.000000 0.8648 0.8652 0.8655 0.8658 0.8660
1528.000000 0.8663 0.8702 0.8668 0.8670 0.8670
1533.000000 0.8670 0.8671 0.8671 0.8671 0.8670
1538.000000 0.8667 0.8664 0.8662 0.8659 0.8656
1543.000000 0.8654 0.8651 0.8648 0.8646 0.8643
1548.000000 0.8640 0.8637 0.8635 0.8632 0.8625
1553.000000 0.8618 0.8611 0.8604 0.8598 0.8594
1558.000000 0.8592 0.8590 0.8588 0.8587 0.8585
1563.000000 0.8582 0.8581 0.8580 0.8580 0.8579
1568.000000 0.8577 0.8575 0.8564 0.8548 0.8530
1573.000000 0.8512 0.8493 0.8474 0.8456 0.8438
1578.000000 0.8420 0.8402 0.8383 0.8362 0.8341
1583.000000 0.8328 0.8321 0.8315 0.8309 0.8296
1588.000000 0.8255 0.8215 0.8182 0.8152 0.8122
1593.000000 0.8091 0.8055 0.8018 0.7982 0.7946
1598.000000 0.7910 0.7874 0.7839 0.7801 0.7756
1603.000000 0.7709 0.7661 0.7566 0.7385 0.7196
1608.000000 0.7055 0.6974 0.6897 0.6805 0.6647
1613.000000 0.6500 0.6380 0.6260 0.6149 0.6044
1618.000000 0.5908 0.5729 0.5577 0.5470 0.5284
1623.000000 0.5040 0.4786 0.4532 0.4279 0.4025
1628.000000 0.3772 0.3585 0.3541 0.3535 0.3531
1633.000000 0.3525 0.3516 0.3474 0.3221 0.2955
1638.000000 0.2690 0.2425 0.2161 0.1898 0.1634
1643.000000 0.1371 0.1108 0.0797 0.0407 0.0280
1648.000000 0.0232 0.0214 0.0205 0.0200 0.0196
1653.000000 0.0194 0.0192 0.0220 0.0194 0.0197
1658.000000 0.0205 0.0218 0.0252 0.0305 0.0400
1663.000000 0.0482 0.0554 0.0678 0.0799 0.0863
1668.000000 0.0989 0.1302 0.1616 0.1929 0.2241
1673.000000 0.2554 0.2866 0.3177 0.3489 0.3799
1678.000000 0.4110 0.4420 0.4730 0.5039 0.5348
1683.000000 0.5532 0.5587 0.5571 0.5581 0.5577
1688.000000 0.5570 0.5559 0.5543 0.5518 0.5486
1693.000000 0.5450 0.5411 0.5366 0.5311 0.5248
1698.000000 0.5194 0.5030 0.4746 0.4401 0.4057
1703.000000 0.3713 0.3370 0.3027 0.2684 0.2342
1708.000000 0.2000 0.1659 0.1318 0.0978 0.0691
1713.000000 0.0597 0.0595 0.0599 0.0608 0.0622
1718.000000 0.0638 0.0658 0.0682 0.0568 0.0769
1723.000000 0.0869 0.0992 0.1116 0.1239 0.1363
1728.000000 0.1482 0.1576 0.1574 0.1569 0.1528
1733.000000 0.1375 0.1262 0.1149 0.1035 0.0922
1738.000000 0.0824 0.0777 0.0781 0.0776 0.0793
1743.000000 0.0974 0.1251 0.1566 0.1879 0.2192
1748.000000 0.2505 0.2817 0.3129 0.3441 0.3752
1753.000000 0.4063 0.4374 0.4684 0.4994 0.5303
1758.000000 0.5613 0.5921 0.6230 0.6538 0.6846
1763.000000 0.7153 0.7461 0.7729 0.7910 0.8003
1768.000000 0.8065 0.8111 0.8155 0.8203 0.8258
1773.000000 0.8325 0.8393 0.8473 0.8565 0.8672
1778.000000 0.8821 0.8905 0.8965 0.9014 0.9060
1783.000000 0.9086 0.9113 0.9139 0.9164 0.9188
1788.000000 0.9205 0.9223 0.9240 0.9257 0.9275
1793.000000 0.9292 0.9308 0.9325 0.9342 0.9359
1798.000000 0.9373 0.9384 0.9395 0.9405 0.9415
1803.000000 0.9425 0.9436 0.9446 0.9457 0.9467
1808.000000 0.9477 0.9489 0.9502 0.9515 0.9528
1813.000000 0.9541 0.9554 0.9568 0.9580 0.9593
1818.000000 0.9606 0.9618 0.9627 0.9635 0.9642
1823.000000 0.9650 0.9657 0.9665 0.9673 0.9681
1828.000000 0.9688 0.9696 0.9703 0.9710 0.9717
1833.000000 0.9724 0.9730 0.9737 0.9744 0.9751
1838.000000 0.9758 0.9765 0.9770 0.9774 0.9777
1843.000000 0.9780 0.9784 0.9787 0.9825 0.9791
1848.000000 0.9792 0.9792 0.9793 0.9794 0.9796
1853.000000 0.9796 0.9797 0.9798 0.9798 0.9798
1858.000000 0.9798 0.9798 0.9798 0.9798 0.9798
1863.000000 0.9799 0.9799 0.9800 0.9801 0.9801
1868.000000 0.9802 0.9803 0.9805 0.9805 0.9806
1873.000000 0.9807 0.9807 0.9808 0.9809 0.9810
1878.000000 0.9810 0.9810 0.9811 0.9811 0.9811
1883.000000 0.9812 0.9812 0.9812 0.9813 0.9813
1888.000000 0.9813 0.9813 0.9814 0.9814 0.9814
1893.000000 0.9815 0.9815 0.9815 0.9816 0.9816
1898.000000 0.9816 0.9817 0.9817 0.9817 0.9817
1903.000000 0.9816 0.9816 0.9815 0.9814 0.9814
1908.000000 0.9814 0.9813 0.9812 0.9812 0.9811
1913.000000 0.9811 0.9811 0.9810 0.9809 0.9809
1918.000000 0.9808 0.9807 0.9807 0.9806 0.9806
1923.000000 0.9806 0.9805 0.9804 0.9804 0.9803
1928.000000 0.9802 0.9802 0.9801 0.9800 0.9799
1933.000000 0.9799 0.9798 0.9797 0.9797 0.9796
1938.000000 0.9795 0.9794 0.9793 0.9792 0.9792
1943.000000 0.9791 0.9791 0.9790 0.9789 0.9788
1948.000000 0.9787 0.9786 0.9786 0.9785 0.9784
1953.000000 0.9784 0.9782 0.9782 0.9782 0.9781
1958.000000 0.9781 0.9781 0.9781 0.9780 0.9780
1963.000000 0.9780 0.9780 0.9780 0.9779 0.9779
1968.000000 0.9779 0.9778 0.9776 0.9774 0.9773
1973.000000 0.9771 0.9769 0.9768 0.9766 0.9765
1978.000000 0.9763 0.9761 0.9759 0.9757 0.9756
1983.000000 0.9755 0.9753 0.9751 0.9750 0.9748
1988.000000 0.9745 0.9742 0.9739 0.9736 0.9733
1993.000000 0.9729 0.9726 0.9722 0.9719 0.9716
1998.000000 0.9713 0.9710 0.9708 0.9705 0.9703
2003.000000 0.9700 0.9697 0.9694 0.9692 0.9689
2008.000000 0.9687 0.9684 0.9682 0.9679 0.9677
2013.000000 0.9675 0.9674 0.9673 0.9672 0.9671
2018.000000 0.9670 0.9669 0.9669 0.9670 0.9672
2023.000000 0.9673 0.9674 0.9675 0.9677 0.9677
2028.000000 0.9678 0.9679 0.9680 0.9682 0.9683
2033.000000 0.9684 0.9685 0.9686 0.9688 0.9688
2038.000000 0.9689 0.9690 0.9691 0.9692 0.9693
2043.000000 0.9694 0.9694 0.9696 0.9697 0.9697
2048.000000 0.9697 0.9695 0.9693 0.9691 0.9689
2053.000000 0.9688 0.9686 0.9685 0.9683 0.9682
2058.000000 0.9680 0.9677 0.9673 0.9669 0.9664
2063.000000 0.9659 0.9654 0.9650 0.9645 0.9638
2068.000000 0.9630 0.9623 0.9616 0.9609 0.9602
2073.000000 0.9595 0.9588 0.9581 0.9574 0.9568
2078.000000 0.9563 0.9558 0.9553 0.9548 0.9542
2083.000000 0.9537 0.9535 0.9535 0.9535 0.9535
2088.000000 0.9535 0.9536 0.9536 0.9536 0.9536
2093.000000 0.9537 0.9538 0.9538 0.9539 0.9540
2098.000000 0.9541 0.9541 0.9542 0.9543 0.9543
2103.000000 0.9544 0.9544 0.9545 0.9545 0.9546
2108.000000 0.9547 0.9547 0.9548 0.9548 0.9549
2113.000000 0.9549 0.9550 0.9550 0.9551 0.9551
2118.000000 0.9551 0.9551 0.9551 0.9551 0.9551
2123.000000 0.9551 0.9551 0.9551 0.9551 0.9551
2128.000000 0.9551 0.9551 0.9551 0.9551 0.9551
2133.000000 0.9551 0.9551 0.9551 0.9551 0.9550
2138.000000 0.9550 0.9550 0.9550 0.9550 0.9550
2143.000000 0.9550 0.9550 0.9549 0.9549 0.9549
2148.000000 0.9549 0.9549 0.9549 0.9549 0.9548
2153.000000 0.9547 0.9545 0.9544 0.9542 0.9541
2158.000000 0.9539 0.9537 0.9536 0.9534 0.9532
2163.000000 0.9530 0.9528 0.9527 0.9525 0.9524
2168.000000 0.9522 0.9520 0.9519 0.9517 0.9516
2173.000000 0.9514 0.9512 0.9511 0.9509 0.9508
2178.000000 0.9506 0.9503 0.9501 0.9499 0.9496
2183.000000 0.9494 0.9491 0.9489 0.9487 0.9484
2188.000000 0.9482 0.9480 0.9478 0.9476 0.9473
2193.000000 0.9470 0.9467 0.9464 0.9462 0.9459
2198.000000 0.9456 0.9454 0.9451 0.9448 0.9445
2203.000000 0.9443 0.9440 0.9437 0.9434 0.9431
2208.000000 0.9429 0.9426 0.9423 0.9420 0.9417
2213.000000 0.9415 0.9412 0.9409 0.9405 0.9402
2218.000000 0.9399 0.9396 0.9392 0.9389 0.9386
2223.000000 0.9383 0.9380 0.9377 0.9374 0.9371
2228.000000 0.9367 0.9364 0.9361 0.9358 0.9355
2233.000000 0.9352 0.9349 0.9345 0.9342 0.9339
2238.000000 0.9336 0.9333 0.9330 0.9327 0.9324
2243.000000 0.9321 0.9317 0.9314 0.9311 0.9307
2248.000000 0.9303 0.9299 0.9295 0.9291 0.9287
2253.000000 0.9283 0.9279 0.9274 0.9270 0.9266
2258.000000 0.9262 0.9258 0.9254 0.9250 0.9245
2263.000000 0.9241 0.9237 0.9234 0.9230 0.9226
2268.000000 0.9221 0.9217 0.9213 0.9209 0.9205
2273.000000 0.9200 0.9196 0.9192 0.9187 0.9183
2278.000000 0.9179 0.9174 0.9170 0.9166 0.9161
2283.000000 0.9157 0.9153 0.9148 0.9144 0.9140
2288.000000 0.9135 0.9131 0.9127 0.9123 0.9118
2293.000000 0.9114 0.9110 0.9105 0.9101 0.9097
2298.000000 0.9093 0.9088 0.9084 0.9080 0.9076
2303.000000 0.9071 0.9067 0.9063 0.9059 0.9054
2308.000000 0.9049 0.9045 0.9040 0.9036 0.9031
2313.000000 0.9027 0.9022 0.9018 0.9013 0.9008
2318.000000 0.9007 0.9005 0.9005 0.9005 0.9005
2323.000000 0.9005 0.9005 0.9006 0.9007 0.9010
2328.000000 0.9012 0.9014 0.9016 0.9018 0.9020
2333.000000 0.9023 0.9025 0.9027 0.9029 0.9031
2338.000000 0.9033 0.9035 0.9038 0.9040 0.9042
2343.000000 0.9043 0.9046 0.9049 0.9052 0.9055
2348.000000 0.9058 0.9061 0.9064 0.9067 0.9070
2353.000000 0.9073 0.9076 0.9080 0.9083 0.9086
2358.000000 0.9089 0.9092 0.9095 0.9098 0.9100
2363.000000 0.9103 0.9104 0.9105 0.9107 0.9109
2368.000000 0.9111 0.9112 0.9114 0.9115 0.9117
2373.000000 0.9118 0.9120 0.9122 0.9123 0.9125
2378.000000 0.9126 0.9128 0.9130 0.9132 0.9134
2383.000000 0.9137 0.9139 0.9141 0.9144 0.9146
2388.000000 0.9148 0.9151 0.9153 0.9156 0.9159
2393.000000 0.9161 0.9164 0.9166 0.9169 0.9171
2398.000000 0.9171 0.9170 0.9169 0.9169 0.9168
2403.000000 0.9167 0.9165 0.9164 0.9162 0.9160
2408.000000 0.9159 0.9158 0.9156 0.9154 0.9152
2413.000000 0.9151 0.9149 0.9147 0.9146 0.9145
2418.000000 0.9143 0.9141 0.9139 0.9136 0.9134
2423.000000 0.9131 0.9128 0.9125 0.9123 0.9120
2428.000000 0.9117 0.9115 0.9112 0.9110 0.9107
2433.000000 0.9104 0.9101 0.9099 0.9096 0.9094
2438.000000 0.9091 0.9089 0.9086 0.9083 0.9080
2443.000000 0.9077 0.9075 0.9072 0.9069 0.9066
2448.000000 0.9064 0.9061 0.9058 0.9055 0.9053
2453.000000 0.9050 0.9048 0.9045 0.9042 0.9040
2458.000000 0.9037 0.9034 0.9031 0.9029 0.9026
2463.000000 0.9024 0.9021 0.9018 0.9015 0.9012
2468.000000 0.9009 0.9006 0.9003 0.8999 0.8996
2473.000000 0.8993 0.8990 0.8987 0.8984 0.8981
2478.000000 0.8978 0.8975 0.8972 0.8969 0.8966
2483.000000 0.8962 0.8960 0.8957 0.8954 0.8950
2488.000000 0.8947 0.8944 0.8941 0.8938 0.8935
2493.000000 0.8932 0.8929 0.8926 0.8922 0.8919
2498.000000 0.8916 0.8912 0.8909 0.8905 0.8902
2503.000000 0.8899 0.8895 0.8892 0.8888 0.8884
2508.000000 0.8881 0.8877 0.8874 0.8870 0.8867
2513.000000 0.8864 0.8860 0.8857 0.8853 0.8850
2518.000000 0.8846 0.8843 0.8840 0.8837 0.8833
2523.000000 0.8829 0.8826 0.8822 0.8819 0.8815
2528.000000 0.8812 0.8809 0.8806 0.8802 0.8799
2533.000000 0.8795 0.8792 0.8788 0.8785 0.8781
2538.000000 0.8778 0.8775 0.8772 0.8768 0.8765
2543.000000 0.8761 0.8758 0.8754 0.8751 0.8747
2548.000000 0.8744 0.8740 0.8737 0.8734 0.8730
2553.000000 0.8727 0.8723 0.8720 0.8717 0.8714
2558.000000 0.8710 0.8707 0.8704 0.8700 0.8697
2563.000000 0.8693 0.8690 0.8686 0.8683 0.8680
2568.000000 0.8677 0.8674 0.8670 0.8667 0.8664
2573.000000 0.8659 0.8655 0.8651 0.8645 0.8640
2578.000000 0.8635 0.8630 0.8625 0.8620 0.8615
2583.000000 0.8610 0.8605 0.8600 0.8595 0.8590
2588.000000 0.8585 0.8580 0.8575 0.8570 0.8565
2593.000000 0.8560 0.8555 0.8550 0.8545 0.8540
2598.000000 0.8535 0.8530 0.8525 0.8520 0.8515
2603.000000 0.8510 0.8505 0.8500 0.8495 0.8490
2608.000000 0.8485 0.8480 0.8476 0.8471 0.8466
2613.000000 0.8461 0.8456 0.8451 0.8446 0.8441
2618.000000 0.8436 0.8431 0.8426 0.8421 0.8417
2623.000000 0.8412 0.8407 0.8402 0.8397 0.8392
2628.000000 0.8387 0.8382 0.8377 0.8372 0.8367
2633.000000 0.8362 0.8357 0.8352 0.8347 0.8342
2638.000000 0.8337 0.8332 0.8327 0.8322 0.8318
2643.000000 0.8313 0.8308 0.8303 0.8298 0.8293
2648.000000 0.8288 0.8283 0.8278 0.8273 0.8268
2653.000000 0.8263 0.8258 0.8254 0.8249 0.8244
2658.000000 0.8239 0.8234 0.8229 0.8224 0.8220
2663.000000 0.8215 0.8211 0.8207 0.8202 0.8198
2668.000000 0.8194 0.8190 0.8186 0.8182 0.8178
2673.000000 0.8174 0.8170 0.8165 0.8161 0.8157
2678.000000 0.8153 0.8149 0.8145 0.8142 0.8140
2683.000000 0.8138 0.8137 0.8137 0.8136 0.8135
2688.000000 0.8134 0.8133 0.8132 0.8132 0.8131
2693.000000 0.8130 0.8129 0.8128 0.8127 0.8127
2698.000000 0.8127 0.8127 0.8127 0.8128 0.8129
2703.000000 0.8130 0.8131 0.8132 0.8133 0.8133
2708.000000 0.8134 0.8135 0.8136 0.8137 0.8138
2713.000000 0.8139 0.8140 0.8141 0.8142 0.8142
2718.000000 0.8141 0.8144 0.8145 0.8146 0.8147
2723.000000 0.8148 0.8149 0.8150 0.8151 0.8152
2728.000000 0.8153 0.8153 0.8154 0.8155 0.8156
2733.000000 0.8157 0.8158 0.8159 0.8161 0.8162
2738.000000 0.8163 0.8164 0.8165 0.8166 0.8167
2743.000000 0.8167 0.8167 0.8166 0.8165 0.8164
2748.000000 0.8163 0.8162 0.8161 0.8158 0.8155
2753.000000 0.8152 0.8145 0.8136 0.8127 0.8116
2758.000000 0.8104 0.8093 0.8081 0.8068 0.8055
2763.000000 0.8042 0.8029 0.8016 0.8001 0.7984
2768.000000 0.7968 0.7949 0.7928 0.7907 0.7886
2773.000000 0.7863 0.7840 0.7817 0.7794 0.7771
2778.000000 0.7746 0.7719 0.7691 0.7664 0.7635
2783.000000 0.7606 0.7576 0.7531 0.7486 0.7442
2788.000000 0.7410 0.7380 0.7350 0.7326 0.7304
2793.000000 0.7282 0.7225 0.7153 0.7082 0.6977
2798.000000 0.6849 0.6720 0.6592 0.6464 0.6336
2803.000000 0.6208 0.6081 0.5953 0.5826 0.5698
2808.000000 0.5571 0.5443 0.5316 0.5189 0.5062
2813.000000 0.4935 0.4808 0.4682 0.4555 0.4428
2818.000000 0.4301 0.4175 0.4049 0.3923 0.3795
2823.000000 0.3664 0.3533 0.3417 0.3393 0.3368
2828.000000 0.3344 0.3332 0.3320 0.3308 0.3299
2833.000000 0.3291 0.3282 0.3275 0.3268 0.3261
2838.000000 0.3255 0.3248 0.3242 0.3236 0.3234
2843.000000 0.3232 0.3230 0.3228 0.3226 0.3224
2848.000000 0.3222 0.3221 0.3219 0.3217 0.3215
2853.000000 0.3213 0.3211 0.3209 0.3208 0.3206
2858.000000 0.3204 0.3202 0.3200 0.3198 0.3197
2863.000000 0.3195 0.3193 0.3192 0.3191 0.3190
2868.000000 0.3190 0.3190 0.3190 0.3189 0.3189
2873.000000 0.3189 0.3188 0.3188 0.3188 0.3188
2878.000000 0.3188 0.3188 0.3188 0.3189 0.3190
2883.000000 0.3190 0.3191 0.3191 0.3191 0.3192
2888.000000 0.3193 0.3193 0.3194 0.3195 0.3196
2893.000000 0.3196 0.3197 0.3197 0.3198 0.3199
2898.000000 0.3200 0.3201 0.3202 0.3203 0.3204
2903.000000 0.3205 0.3206 0.3207 0.3208 0.3210
2908.000000 0.3211 0.3212 0.3213 0.3214 0.3216
2913.000000 0.3217 0.3219 0.3220 0.3221 0.3222
2918.000000 0.3224 0.3227 0.3229 0.3232 0.3234
2923.000000 0.3237 0.3240 0.3242 0.3245 0.3247
2928.000000 0.3250 0.3253 0.3255 0.3258 0.3264
2933.000000 0.3269 0.3275 0.3281 0.3286 0.3292
2938.000000 0.3297 0.3303 0.3308 0.3314 0.3320
2943.000000 0.3327 0.3333 0.3340 0.3348 0.3356
2948.000000 0.3364 0.3372 0.3380 0.3388 0.3396
2953.000000 0.3405 0.3414 0.3423 0.3431 0.3440
2958.000000 0.3449 0.3457 0.3466 0.3476 0.3485
2963.000000 0.3495 0.3505 0.3515 0.3526 0.3536
2968.000000 0.3546 0.3556 0.3566 0.3577 0.3587
2973.000000 0.3597 0.3607 0.3617 0.3627 0.3647
2978.000000 0.3670 0.3693 0.3740 0.3852 0.3964
2983.000000 0.4076 0.4187 0.4299 0.4410 0.4521
2988.000000 0.4633 0.4744 0.4856 0.4967 0.5077
2993.000000 0.5188 0.5299 0.5410 0.5520 0.5631
2998.000000 0.5728 0.5805 0.5882 0.5959 0.6023
3003.000000 0.6085 0.6146 0.6212 0.6299 0.6386
3008.000000 0.6473 0.6540 0.6593 0.6645 0.6698
3013.000000 0.6748 0.6798 0.6848 0.6897 0.6946
3018.000000 0.6995 0.7044 0.7080 0.7111 0.7142
3023.000000 0.7173 0.7202 0.7232 0.7261 0.7286
3028.000000 0.7303 0.7319 0.7336 0.7353 0.7369
3033.000000 0.7385 0.7401 0.7414 0.7427 0.7441
3038.000000 0.7453 0.7462 0.7472 0.7482 0.7490
3043.000000 0.7496 0.7503 0.7509 0.7515 0.7521
3048.000000 0.7528 0.7533 0.7536 0.7540 0.7543
3053.000000 0.7546 0.7549 0.7552 0.7555 0.7557
3058.000000 0.7558 0.7560 0.7562 0.7563 0.7564
3063.000000 0.7565 0.7566 0.7567 0.7568 0.7569
3068.000000 0.7563 0.7569 0.7569 0.7569 0.7568
3073.000000 0.7568 0.7567 0.7567 0.7566 0.7565
3078.000000 0.7565 0.7564 0.7564 0.7563 0.7563
3083.000000 0.7562 0.7560 0.7559 0.7557 0.7556
3088.000000 0.7554 0.7553 0.7552 0.7550 0.7549
3093.000000 0.7547 0.7546 0.7544 0.7541 0.7539
3098.000000 0.7537 0.7535 0.7532 0.7529 0.7527
3103.000000 0.7524 0.7522 0.7519 0.7516 0.7514
3108.000000 0.7511 0.7509 0.7506 0.7502 0.7498
3113.000000 0.7495 0.7491 0.7487 0.7483 0.7479
3118.000000 0.7475 0.7472 0.7468 0.7464 0.7460
3123.000000 0.7456 0.7452 0.7448 0.7443 0.7438
3128.000000 0.7433 0.7428 0.7423 0.7418 0.7414
3133.000000 0.7409 0.7404 0.7400 0.7395 0.7390
3138.000000 0.7385 0.7380 0.7375 0.7370 0.7363
3143.000000 0.7356 0.7350 0.7343 0.7337 0.7331
3148.000000 0.7324 0.7318 0.7311 0.7305 0.7298
3153.000000 0.7292 0.7285 0.7278 0.7271 0.7264
3158.000000 0.7255 0.7247 0.7238 0.7230 0.7221
3163.000000 0.7212 0.7203 0.7195 0.7186 0.7178
3168.000000 0.7169 0.7161 0.7152 0.7144 0.7135
3173.000000 0.7126 0.7116 0.7107 0.7097 0.7086
3178.000000 0.7075 0.7065 0.7054 0.7043 0.7032
3183.000000 0.7021 0.7010 0.6999 0.6988 0.6977
3188.000000 0.6966 0.6955 0.6944 0.6933 0.6923
3193.000000 0.6911 0.6895 0.6879 0.6863 0.6846
3198.000000 0.6829 0.6811 0.6794 0.6776 0.6758
3203.000000 0.6741 0.6723 0.6706 0.6690 0.6674
3208.000000 0.6659 0.6643 0.6628 0.6613 0.6597
3213.000000 0.6582 0.6567 0.6552 0.6536 0.6521
3218.000000 0.6506 0.6490 0.6474 0.6458 0.6441
3223.000000 0.6422 0.6403 0.6385 0.6366 0.6347
3228.000000 0.6328 0.6309 0.6290 0.6263 0.6237
3233.000000 0.6210 0.6184 0.6151 0.6118 0.6084
3238.000000 0.6051 0.5950 0.5815 0.5679 0.5544
3243.000000 0.5460 0.5438 0.5416 0.5394 0.5372
3248.000000 0.5350 0.5328 0.5306 0.5283 0.5231
3253.000000 0.5179 0.5127 0.5074 0.4982 0.4879
3258.000000 0.4775 0.4672 0.4613 0.4591 0.4568
3263.000000 0.4545 0.4520 0.4486 0.4453 0.4420
3268.000000 0.4386 0.4340 0.4293 0.4246 0.4199
3273.000000 0.4151 0.4103 0.4055 0.4007 0.3958
3278.000000 0.3911 0.3863 0.3815 0.3767 0.3719
3283.000000 0.3671 0.3623 0.3575 0.3527 0.3479
3288.000000 0.3431 0.3383 0.3335 0.3288 0.3240
3293.000000 0.3193 0.3145 0.3098 0.3050 0.3002
3298.000000 0.2955 0.2907 0.2860 0.2812 0.2765
3303.000000 0.2717 0.2670 0.2622 0.2575 0.2528
3308.000000 0.2481 0.2434 0.2387 0.2340 0.2293
3313.000000 0.2245 0.2198 0.2151 0.2104 0.2057
3318.000000 0.2010 0.1963 0.1916 0.1869 0.1823
3323.000000 0.1776 0.1729 0.1683 0.1636 0.1589
3328.000000 0.1542 0.1498 0.1471 0.1445 0.1419
3333.000000 0.1392 0.1379 0.1372 0.1365 0.1358
3338.000000 0.1165 0.1349 0.1346 0.1342 0.1339
3343.000000 0.1337 0.1335 0.1333 0.1331 0.1330
3348.000000 0.1330 0.1331 0.1331 0.1331 0.1332
3353.000000 0.1332 0.1333 0.1333 0.1336 0.1345
3358.000000 0.1354 0.1363 0.1373 0.1383 0.1393
3363.000000 0.1404 0.1415 0.1425 0.1436 0.1447
3368.000000 0.1458 0.1469 0.1474 0.1477 0.1480
3373.000000 0.1484 0.1487 0.1488 0.1489 0.1490
3378.000000 0.1491 0.1492 0.1492 0.1492 0.1492
3383.000000 0.1488 0.1491 0.1491 0.1490 0.1490
3388.000000 0.1487 0.1482 0.1478 0.1473 0.1468
3393.000000 0.1456 0.1442 0.1429 0.1415 0.1402
3398.000000 0.1389 0.1375 0.1362 0.1348 0.1335
3403.000000 0.1322 0.1309 0.1296 0.1282 0.1269
3408.000000 0.1256 0.1242 0.1229 0.1216 0.1202
3413.000000 0.1189 0.1176 0.1162 0.1149 0.1136
3418.000000 0.1123 0.1109 0.1096 0.1083 0.1070
3423.000000 0.1057 0.1044 0.1035 0.1035 0.1035
3428.000000 0.1034 0.1034 0.1034 0.1034 0.1034
3433.000000 0.1034 0.1034 0.1034 0.1034 0.1034
3438.000000 0.1034 0.1034 0.1035 0.1036 0.1037
3443.000000 0.1038 0.1044 0.1055 0.1066 0.1077
3448.000000 0.1088 0.1145 0.1220 0.1294 0.1368
3453.000000 0.1443 0.0992 0.1591 0.1665 0.1739
3458.000000 0.1813 0.1887 0.1961 0.2035 0.2109
3463.000000 0.2183 0.2256 0.2330 0.2403 0.2477
3468.000000 0.2550 0.2624 0.2697 0.2771 0.2844
3473.000000 0.2918 0.2991 0.3064 0.3137 0.3211
3478.000000 0.3284 0.3357 0.3430 0.3503 0.3576
3483.000000 0.3649 0.3722 0.3795 0.3868 0.3941
3488.000000 0.4013 0.4086 0.4158 0.4231 0.4303
3493.000000 0.4376 0.4448 0.4521 0.4593 0.4665
3498.000000 0.4738 0.4810 0.4882 0.4955 0.5027
3503.000000 0.5099 0.5171 0.5243 0.5315 0.5387
3508.000000 0.5459 0.5530 0.5602 0.5674 0.5745
3513.000000 0.5817 0.5889 0.5960 0.6032 0.6104
3518.000000 0.6175 0.6246 0.6318 0.6389 0.6461
3523.000000 0.6532 0.6603 0.6675 0.6746 0.6817
3528.000000 0.6888 0.6959 0.7030 0.7101 0.7218
3533.000000 0.7338 0.7458 0.7577 0.7697 0.7731
3538.000000 0.7758 0.7785 0.7812 0.7839 0.7861
3543.000000 0.7882 0.7904 0.7925 0.7946 0.7966
3548.000000 0.7986 0.8006 0.8025 0.8045 0.8063
3553.000000 0.8081 0.8099 0.8117 0.8135 0.8153
3558.000000 0.8171 0.8189 0.8207 0.8225 0.8250
3563.000000 0.8277 0.8305 0.8332 0.8359 0.8386
3568.000000 0.8412 0.8439 0.8465 0.8491 0.8515
3573.000000 0.8538 0.8561 0.8584 0.8606 0.8624
3578.000000 0.8634 0.8645 0.8656 0.8667 0.8676
3583.000000 0.8680 0.8685 0.8689 0.8693 0.8697
3588.000000 0.8700 0.8702 0.8705 0.8707 0.8710
3593.000000 0.8710 0.8711 0.8712 0.8713 0.8713
3598.000000 0.8714 0.8714 0.8714 0.8714 0.8714
3603.000000 0.8714 0.8714 0.8714 0.8714 0.8714
3608.000000 0.8717 0.8713 0.8713 0.8713 0.8713
3613.000000 0.8712 0.8712 0.8712 0.8712 0.8712
3618.000000 0.8711 0.8711 0.8711 0.8711 0.8711
3623.000000 0.8711 0.8710 0.8710 0.8709 0.8709
3628.000000 0.8709 0.8708 0.8708 0.8707 0.8706
3633.000000 0.8706 0.8705 0.8705 0.8704 0.8703
3638.000000 0.8702 0.8702 0.8701 0.8700 0.8700
3643.000000 0.8699 0.8699 0.8698 0.8697 0.8695
3648.000000 0.8694 0.8693 0.8692 0.8691 0.8690
3653.000000 0.8689 0.8688 0.8687 0.8687 0.8686
3658.000000 0.8685 0.8684 0.8683 0.8682 0.8681
3663.000000 0.8680 0.8678 0.8677 0.8676 0.8675
3668.000000 0.8674 0.8673 0.8672 0.8671 0.8669
3673.000000 0.8668 0.8667 0.8665 0.8664 0.8663
3678.000000 0.8662 0.8660 0.8659 0.8658 0.8656
3683.000000 0.8655 0.8654 0.8653 0.8652 0.8651
3688.000000 0.8649 0.8648 0.8647 0.8645 0.8644
3693.000000 0.8642 0.8641 0.8639 0.8638 0.8636
3698.000000 0.8635 0.8633 0.8632 0.8630 0.8629
3703.000000 0.8628 0.8626 0.8624 0.8623 0.8621
3708.000000 0.8619 0.8618 0.8616 0.8615 0.8613
3713.000000 0.8612 0.8611 0.8609 0.8607 0.8606
3718.000000 0.8604 0.8603 0.8601 0.8599 0.8597
3723.000000 0.8595 0.8593 0.8591 0.8589 0.8587
3728.000000 0.8585 0.8583 0.8581 0.8579 0.8577
3733.000000 0.8575 0.8573 0.8571 0.8569 0.8567
3738.000000 0.8565 0.8563 0.8561 0.8559 0.8558
3743.000000 0.8556 0.8554 0.8552 0.8550 0.8548
3748.000000 0.8546 0.8544 0.8542 0.8539 0.8537
3753.000000 0.8535 0.8533 0.8531 0.8529 0.8527
3758.000000 0.8524 0.8522 0.8520 0.8518 0.8516
3763.000000 0.8514 0.8512 0.8510 0.8508 0.8505
3768.000000 0.8503 0.8501 0.8499 0.8497 0.8495
3773.000000 0.8493 0.8491 0.8489 0.8486 0.8484
3778.000000 0.8482 0.8480 0.8478 0.8476 0.8474
3783.000000 0.8472 0.8470 0.8468 0.8465 0.8463
3788.000000 0.8461 0.8459 0.8457 0.8454 0.8452
3793.000000 0.8450 0.8448 0.8445 0.8443 0.8441
3798.000000 0.8439 0.8436 0.8434 0.8432 0.8430
3803.000000 0.8427 0.8425 0.8423 0.8421 0.8418
3808.000000 0.8416 0.8414 0.8412 0.8409 0.8407
3813.000000 0.8405 0.8403 0.8401 0.8398 0.8396
3818.000000 0.8394 0.8391 0.8389 0.8386 0.8384
3823.000000 0.8382 0.8379 0.8377 0.8375 0.8373
3828.000000 0.8371 0.8368 0.8366 0.8364 0.8362
3833.000000 0.8360 0.8357 0.8355 0.8353 0.8351
3838.000000 0.8348 0.8346 0.8344 0.8342 0.8340
3843.000000 0.8337 0.8335 0.8333 0.8331 0.8329
3848.000000 0.8326 0.8324 0.8322 0.8320 0.8318
3853.000000 0.8315 0.8313 0.8311 0.8308 0.8306
3858.000000 0.8304 0.8301 0.8299 0.8297 0.8295
3863.000000 0.8293 0.8290 0.8288 0.8286 0.8284
3868.000000 0.8282 0.8280 0.8277 0.8275 0.8273
3873.000000 0.8271 0.8269 0.8267 0.8264 0.8262
3878.000000 0.8260 0.8258 0.8256 0.8254 0.8251
3883.000000 0.8249 0.8247 0.8246 0.8244 0.8242
3888.000000 0.8240 0.8238 0.8236 0.8234 0.8232
3893.000000 0.8230 0.8229 0.8227 0.8225 0.8224
3898.000000 0.8222 0.8220 0.8219 0.8217 0.8215
3903.000000 0.8213 0.8212 0.8210 0.8208 0.8206
3908.000000 0.8205 0.8203 0.8201 0.8200 0.8198
3913.000000 0.8196 0.8195 0.8193 0.8191 0.8189
3918.000000 0.8187 0.8186 0.8184 0.8182 0.8181
3923.000000 0.8179 0.8178 0.8176 0.8174 0.8172
3928.000000 0.8171 0.8169 0.8167 0.8165 0.8164
3933.000000 0.8162 0.8160 0.8159 0.8157 0.8156
3938.000000 0.8154 0.8152 0.8150 0.8148 0.8147
3943.000000 0.8145 0.8143 0.8142 0.8140 0.8138
3948.000000 0.8137 0.8135 0.8133 0.8132 0.8130
3953.000000 0.8128 0.8126 0.8124 0.8122 0.8120
3958.000000 0.8118 0.8116 0.8114 0.8112 0.8110
3963.000000 0.8109 0.8107 0.8105 0.8103 0.8101
3968.000000 0.8099 0.8097 0.8095 0.8093 0.8091
3973.000000 0.8089 0.8088 0.8086 0.8084 0.8082
3978.000000 0.8081 0.8079 0.8077 0.8075 0.8073
3983.000000 0.8072 0.8070 0.8068 0.8066 0.8064
3988.000000 0.8062 0.8060 0.8058 0.8056 0.8055
3993.000000 0.8053 0.8051 0.8049 0.8047 0.8045
3998.000000 0.8043 0.8041 0.8040
##END=
