##TITLE=OPHTHAINE
##JCAMP-DX=4.24
##DATA TYPE=INFRARED SPECTRUM
##CLASS=COBLENTZ III
##ORIGIN=THE SQUIBB INSTITUTE FOR MEDICAL RESEARCH
##OWNER=Copyright (C) 1987 by the Coblentz Society
Collection (C) 2018 copyright by the U.S. Secretary of Commerce
on behalf of the United States of America. All rights reserved.
##DATE=1953/12/28
##NAMES=2-(diethylamino)ethyl 3-amino-4-propoxybenzoate hydrochloride
Benzoic acid, 3-amino-4-n-propoxy-,2-(diethylamino) ethyl ester, hydrochloride
##MOLFORM=C16 H27 Cl N2 O3
##SOURCE REFERENCE=COBLENTZ NO. 5424
##$NIST ID=B6005424
##$NIST SOURCE=COBLENTZ
##$NIST IMAGE=cob5424
##SPECTROMETER/DATA SYSTEM=PERKIN-ELMER 21 (GRATING)
$$SPECTRAL CONTAMINATION DUE TO OIL AROUND 2900 CM^-^1
##INSTRUMENT PARAMETERS=FILTER AT ABOUT 10 MICRONS
##STATE=SOLID (NUJOL MULL)
##RESOLUTION=2
##XUNITS=1/CM
##YUNITS=TRANSMITTANCE
##XFACTOR=1.0
##YFACTOR=1
##FIRSTX=661
##LASTX=4000
##FIRSTY=0.8283
##MAXX=4000
##MINX=661
##MAXY=0.9955
##MINY=0
##NPOINTS=3340
##XYDATA=(X++(Y..Y))
661.000000 0.8283 0.8292 0.8282 0.8246 0.8172
666.000000 0.8090 0.8044 0.8175 0.8264 0.8364
671.000000 0.8445 0.8464 0.8467 0.8469 0.8476
676.000000 0.8482 0.8488 0.8499 0.8513 0.8527
681.000000 0.8540 0.8554 0.8569 0.8584 0.8593
686.000000 0.8599 0.8605 0.8612 0.8618 0.8623
691.000000 0.8627 0.8631 0.8623 0.8614 0.8606
696.000000 0.8600 0.8599 0.8605 0.8637 0.8671
701.000000 0.8708 0.8743 0.8775 0.8804 0.8826
706.000000 0.8847 0.8861 0.8869 0.8877 0.8884
711.000000 0.8892 0.8899 0.8901 0.8902 0.8903
716.000000 0.8904 0.8901 0.8919 0.8894 0.8883
721.000000 0.8871 0.8857 0.8839 0.8820 0.8776
726.000000 0.8727 0.8657 0.8569 0.8439 0.8228
731.000000 0.7943 0.7367 0.6687 0.6369 0.6372
736.000000 0.6779 0.7161 0.7490 0.7803 0.8073
741.000000 0.8213 0.8275 0.8301 0.8304 0.8288
746.000000 0.8279 0.8254 0.8198 0.8100 0.7956
751.000000 0.7870 0.7835 0.7846 0.7838 0.7829
756.000000 0.7816 0.7789 0.7669 0.7455 0.6950
761.000000 0.6482 0.5448 0.4324 0.3203 0.2568
766.000000 0.2342 0.1809 0.1230 0.1161 0.1157
771.000000 0.3046 0.4237 0.5060 0.5966 0.6728
776.000000 0.7270 0.7920 0.8176 0.8348 0.8426
781.000000 0.8447 0.8545 0.8568 0.8581 0.8590
786.000000 0.8609 0.8597 0.8596 0.8580 0.8564
791.000000 0.8524 0.8466 0.8402 0.8329 0.8307
796.000000 0.8217 0.7987 0.7748 0.7510 0.7273
801.000000 0.7035 0.6800 0.6614 0.6588 0.6575
806.000000 0.6991 0.7387 0.7796 0.8224 0.8342
811.000000 0.8365 0.8372 0.8342 0.8312 0.8255
816.000000 0.8134 0.7915 0.7543 0.7333 0.6532
821.000000 0.5582 0.5207 0.5193 0.6289 0.7239
826.000000 0.7625 0.7628 0.7628 0.7776 0.8154
831.000000 0.8176 0.8132 0.7957 0.7794 0.7658
836.000000 0.7621 0.7605 0.7865 0.8077 0.8288
841.000000 0.8438 0.8480 0.8478 0.8486 0.8469
846.000000 0.8453 0.8434 0.8417 0.8402 0.8396
851.000000 0.8389 0.8502 0.8656 0.8820 0.8923
856.000000 0.8983 0.9002 0.9011 0.9016 0.9021
861.000000 0.9024 0.9026 0.9024 0.9029 0.9029
866.000000 0.9030 0.9028 0.9024 0.9019 0.9014
871.000000 0.8996 0.8976 0.8957 0.8934 0.8912
876.000000 0.8890 0.8858 0.8821 0.8783 0.8739
881.000000 0.8676 0.8613 0.8539 0.8427 0.8251
886.000000 0.8044 0.7678 0.6841 0.6245 0.5572
891.000000 0.4721 0.3907 0.3775 0.3812 0.4928
896.000000 0.5695 0.6460 0.7040 0.7134 0.7226
901.000000 0.7324 0.7528 0.7789 0.8139 0.8183
906.000000 0.8181 0.8150 0.8131 0.8105 0.8002
911.000000 0.7978 0.7979 0.7988 0.7982 0.7992
916.000000 0.7982 0.7966 0.7929 0.7894 0.7867
921.000000 0.7846 0.7851 0.7849 0.7795 0.7721
926.000000 0.7707 0.7718 0.7703 0.7850 0.7925
931.000000 0.7984 0.7996 0.7986 0.7967 0.7926
936.000000 0.7871 0.7818 0.7752 0.7687 0.7623
941.000000 0.7562 0.7528 0.7499 0.7479 0.7456
946.000000 0.7410 0.7320 0.7130 0.6580 0.6082
951.000000 0.5592 0.5152 0.4986 0.4933 0.4939
956.000000 0.4927 0.5526 0.5940 0.6353 0.6766
961.000000 0.7175 0.7374 0.7448 0.7449 0.7458
966.000000 0.7440 0.7396 0.7307 0.7182 0.7019
971.000000 0.6812 0.6353 0.5851 0.4929 0.3964
976.000000 0.3000 0.2433 0.2383 0.2423 0.3001
981.000000 0.3980 0.4955 0.5929 0.6901 0.7553
986.000000 0.7769 0.7902 0.7967 0.7996 0.8009
991.000000 0.8012 0.8020 0.7994 0.7971 0.7919
996.000000 0.7873 0.7822 0.7770 0.7710 0.7636
1001.000000 0.7558 0.7476 0.7388 0.7277 0.7169
1006.000000 0.7051 0.6873 0.6697 0.6509 0.6286
1011.000000 0.6065 0.5630 0.4950 0.4419 0.3889
1016.000000 0.3355 0.3043 0.3001 0.3037 0.3193
1021.000000 0.3475 0.3972 0.4468 0.4963 0.5458
1026.000000 0.5717 0.5743 0.5598 0.5525 0.5494
1031.000000 0.5494 0.5490 0.5920 0.6173 0.6425
1036.000000 0.6677 0.6921 0.7114 0.7201 0.7215
1041.000000 0.7214 0.7210 0.7233 0.7189 0.7167
1046.000000 0.7125 0.7064 0.6979 0.6861 0.6609
1051.000000 0.6281 0.5953 0.5626 0.5299 0.4974
1056.000000 0.4652 0.4566 0.4540 0.4506 0.4353
1061.000000 0.3936 0.3520 0.3127 0.3068 0.3057
1066.000000 0.3513 0.4280 0.5046 0.5822 0.6407
1071.000000 0.6632 0.6802 0.6870 0.6872 0.6862
1076.000000 0.6847 0.6829 0.6799 0.6764 0.6707
1081.000000 0.6606 0.6438 0.6293 0.6086 0.5865
1086.000000 0.5643 0.5423 0.5203 0.4983 0.4766
1091.000000 0.4539 0.4278 0.3776 0.3615 0.3242
1096.000000 0.2842 0.2443 0.2046 0.1649 0.1253
1101.000000 0.0811 0.0560 0.0537 0.0545 0.0597
1106.000000 0.0745 0.0991 0.1237 0.1482 0.1727
1111.000000 0.1966 0.2154 0.2336 0.2490 0.2628
1116.000000 0.2855 0.3137 0.3527 0.3915 0.4149
1121.000000 0.4210 0.4223 0.4228 0.4241 0.4113
1126.000000 0.4003 0.3869 0.3800 0.3799 0.3802
1131.000000 0.4038 0.4148 0.4143 0.4185 0.3946
1136.000000 0.3827 0.3613 0.3326 0.3040 0.2754
1141.000000 0.2468 0.2208 0.2067 0.2033 0.1995
1146.000000 0.2134 0.2355 0.2574 0.2855 0.3298
1151.000000 0.3747 0.4194 0.4640 0.5086 0.5531
1156.000000 0.6050 0.6455 0.6641 0.6793 0.6848
1161.000000 0.6849 0.6850 0.6850 0.6845 0.6839
1166.000000 0.6851 0.6793 0.6736 0.6657 0.6554
1171.000000 0.6411 0.6252 0.6101 0.5959 0.5765
1176.000000 0.5747 0.5747 0.5902 0.5971 0.5972
1181.000000 0.5957 0.5919 0.5863 0.5795 0.5699
1186.000000 0.5581 0.5406 0.5268 0.5102 0.4920
1191.000000 0.4819 0.4718 0.4583 0.4417 0.4213
1196.000000 0.3793 0.3417 0.3068 0.2719 0.2404
1201.000000 0.2227 0.1876 0.1600 0.1432 0.1261
1206.000000 0.0278 0.0131 0.0051 0.0001 0.0001
1211.000000 0.0000 0.0000 0.0000 0.0000 0.0000
1216.000000 0.0007 0.0052 0.0125 0.0316 0.0473
1221.000000 0.0697 0.1026 0.1358 0.1689 0.2020
1226.000000 0.2350 0.2680 0.3009 0.3337 0.3665
1231.000000 0.3993 0.4320 0.4646 0.4969 0.5140
1236.000000 0.5167 0.5167 0.5188 0.5114 0.5017
1241.000000 0.4901 0.4690 0.4429 0.4183 0.4101
1246.000000 0.4092 0.4086 0.4077 0.4067 0.4053
1251.000000 0.4155 0.4314 0.4333 0.4352 0.4297
1256.000000 0.4235 0.4160 0.4165 0.4218 0.4415
1261.000000 0.4744 0.5083 0.5421 0.5734 0.5775
1266.000000 0.5779 0.5751 0.5693 0.5538 0.5383
1271.000000 0.5228 0.5073 0.4933 0.4899 0.4884
1276.000000 0.4874 0.4860 0.4819 0.4737 0.4667
1281.000000 0.4508 0.4241 0.3974 0.3709 0.3442
1286.000000 0.3177 0.2912 0.2647 0.2383 0.2119
1291.000000 0.1856 0.1625 0.1463 0.1369 0.1275
1296.000000 0.1173 0.1003 0.0534 0.0270 0.0164
1301.000000 0.0091 0.0047 0.0035 0.0035 0.0020
1306.000000 0.0223 0.0340 0.0467 0.0656 0.0993
1311.000000 0.1330 0.1667 0.2003 0.2339 0.2674
1316.000000 0.3008 0.3342 0.3676 0.4009 0.4342
1321.000000 0.4673 0.4930 0.5271 0.5725 0.5978
1326.000000 0.6231 0.6431 0.6591 0.6686 0.6778
1331.000000 0.6856 0.6900 0.6940 0.6962 0.6969
1336.000000 0.6970 0.6967 0.6963 0.6959 0.6947
1341.000000 0.6935 0.6922 0.6898 0.6873 0.6828
1346.000000 0.6760 0.6672 0.6550 0.6344 0.6128
1351.000000 0.5915 0.5701 0.5487 0.5274 0.5061
1356.000000 0.4848 0.4702 0.4673 0.4666 0.4662
1361.000000 0.4726 0.4884 0.5041 0.5198 0.5355
1366.000000 0.5483 0.5512 0.5483 0.5419 0.5164
1371.000000 0.4887 0.4611 0.4381 0.4367 0.4357
1376.000000 0.4462 0.4591 0.4697 0.4705 0.4727
1381.000000 0.4670 0.4531 0.4433 0.4386 0.4354
1386.000000 0.4327 0.4310 0.4217 0.3994 0.3760
1391.000000 0.3527 0.3359 0.3309 0.3287 0.3281
1396.000000 0.3321 0.3330 0.3646 0.4137 0.4627
1401.000000 0.5117 0.5605 0.6093 0.6581 0.7068
1406.000000 0.7448 0.7570 0.7658 0.7692 0.7698
1411.000000 0.7683 0.7693 0.7685 0.7675 0.7654
1416.000000 0.7619 0.7565 0.7493 0.7413 0.7317
1421.000000 0.7206 0.7086 0.6966 0.6826 0.6333
1426.000000 0.5955 0.5829 0.5245 0.4567 0.3890
1431.000000 0.3213 0.2620 0.2521 0.2517 0.2598
1436.000000 0.2898 0.3227 0.3556 0.3883 0.4210
1441.000000 0.4538 0.4813 0.4902 0.4923 0.4939
1446.000000 0.4923 0.4882 0.4696 0.4445 0.4194
1451.000000 0.3944 0.3693 0.3444 0.3195 0.2945
1456.000000 0.2741 0.2681 0.2644 0.2627 0.2619
1461.000000 0.2615 0.2612 0.2604 0.2618 0.2621
1466.000000 0.2666 0.2768 0.3035 0.3325 0.3616
1471.000000 0.3906 0.4195 0.4484 0.4773 0.5063
1476.000000 0.5333 0.5488 0.5735 0.6135 0.6574
1481.000000 0.7011 0.7376 0.7451 0.7503 0.7532
1486.000000 0.7543 0.7553 0.7558 0.7564 0.7550
1491.000000 0.7536 0.7520 0.7487 0.7440 0.7384
1496.000000 0.7263 0.7125 0.6987 0.6849 0.6712
1501.000000 0.6574 0.6437 0.6300 0.6164 0.6027
1506.000000 0.5829 0.4700 0.3584 0.2856 0.2766
1511.000000 0.2685 0.2613 0.2541 0.2468 0.2395
1516.000000 0.2337 0.2307 0.2279 0.2258 0.2245
1521.000000 0.2250 0.2254 0.2260 0.2273 0.2296
1526.000000 0.2339 0.2592 0.3077 0.3599 0.4120
1531.000000 0.4641 0.5161 0.5680 0.6199 0.6717
1536.000000 0.7234 0.7645 0.7851 0.7963 0.8035
1541.000000 0.8088 0.8118 0.8138 0.8158 0.8178
1546.000000 0.8197 0.8216 0.8228 0.8218 0.8208
1551.000000 0.8189 0.8167 0.8142 0.8110 0.8076
1556.000000 0.8042 0.8016 0.8000 0.7991 0.7986
1561.000000 0.7981 0.7978 0.7976 0.7954 0.7900
1566.000000 0.7831 0.7754 0.7673 0.7599 0.7530
1571.000000 0.7462 0.7384 0.7296 0.7089 0.6729
1576.000000 0.6324 0.5919 0.5516 0.5112 0.4709
1581.000000 0.4306 0.3904 0.3503 0.3102 0.2702
1586.000000 0.2318 0.2118 0.1881 0.1599 0.1344
1591.000000 0.1264 0.1269 0.1264 0.1492 0.1911
1596.000000 0.2386 0.2861 0.3335 0.3809 0.4281
1601.000000 0.4753 0.5225 0.5566 0.5678 0.5695
1606.000000 0.5693 0.5705 0.5660 0.5632 0.5527
1611.000000 0.5222 0.4917 0.4613 0.4309 0.4006
1616.000000 0.3702 0.3400 0.3098 0.2827 0.2782
1621.000000 0.2769 0.2824 0.3136 0.3575 0.4013
1626.000000 0.4451 0.4888 0.5324 0.5761 0.6196
1631.000000 0.6631 0.7065 0.7481 0.7685 0.7921
1636.000000 0.8063 0.8125 0.8176 0.8226 0.8262
1641.000000 0.8286 0.8307 0.8328 0.8345 0.8354
1646.000000 0.8361 0.8367 0.8374 0.8377 0.8378
1651.000000 0.8380 0.8370 0.8382 0.8384 0.8382
1656.000000 0.8378 0.8373 0.8369 0.8364 0.8358
1661.000000 0.8349 0.8340 0.8323 0.8302 0.8279
1666.000000 0.8257 0.8234 0.8211 0.8188 0.8165
1671.000000 0.8142 0.8118 0.8092 0.8066 0.8035
1676.000000 0.7992 0.7938 0.7885 0.7832 0.7781
1681.000000 0.7730 0.7678 0.7623 0.7555 0.7476
1686.000000 0.7396 0.7318 0.7242 0.7168 0.7093
1691.000000 0.7014 0.6869 0.6471 0.5881 0.5712
1696.000000 0.5571 0.4866 0.4042 0.3194 0.2348
1701.000000 0.1502 0.0741 0.0409 0.0365 0.0329
1706.000000 0.0299 0.0282 0.0274 0.0268 0.0271
1711.000000 0.0277 0.0319 0.0372 0.0577 0.0979
1716.000000 0.1476 0.1972 0.2468 0.2963 0.3457
1721.000000 0.3951 0.4444 0.4937 0.5430 0.5921
1726.000000 0.6413 0.6903 0.7392 0.7853 0.8026
1731.000000 0.8101 0.8165 0.8445 0.8818 0.8889
1736.000000 0.8960 0.9031 0.9099 0.9157 0.9206
1741.000000 0.9254 0.9283 0.9304 0.9324 0.9340
1746.000000 0.9349 0.9359 0.9369 0.9379 0.9387
1751.000000 0.9394 0.9411 0.9404 0.9409 0.9414
1756.000000 0.9420 0.9425 0.9431 0.9438 0.9445
1761.000000 0.9453 0.9462 0.9475 0.9489 0.9494
1766.000000 0.9495 0.9492 0.9488 0.9481 0.9474
1771.000000 0.9468 0.9462 0.9457 0.9451 0.9447
1776.000000 0.9444 0.9442 0.9440 0.9442 0.9445
1781.000000 0.9451 0.9463 0.9475 0.9490 0.9518
1786.000000 0.9559 0.9608 0.9692 0.9752 0.9801
1791.000000 0.9845 0.9877 0.9895 0.9907 0.9916
1796.000000 0.9923 0.9926 0.9930 0.9933 0.9937
1801.000000 0.9940 0.9942 0.9945 0.9947 0.9948
1806.000000 0.9951 0.9953 0.9955 0.9955 0.9955
1811.000000 0.9955 0.9955 0.9955 0.9955 0.9954
1816.000000 0.9954 0.9954 0.9954 0.9954 0.9943
1821.000000 0.9953 0.9953 0.9952 0.9951 0.9950
1826.000000 0.9950 0.9950 0.9949 0.9948 0.9948
1831.000000 0.9946 0.9943 0.9941 0.9938 0.9936
1836.000000 0.9933 0.9930 0.9928 0.9925 0.9922
1841.000000 0.9919 0.9912 0.9906 0.9899 0.9892
1846.000000 0.9885 0.9878 0.9872 0.9865 0.9858
1851.000000 0.9851 0.9845 0.9838 0.9833 0.9828
1856.000000 0.9823 0.9818 0.9814 0.9809 0.9805
1861.000000 0.9800 0.9796 0.9793 0.9791 0.9789
1866.000000 0.9787 0.9786 0.9783 0.9781 0.9779
1871.000000 0.9779 0.9779 0.9780 0.9780 0.9781
1876.000000 0.9781 0.9782 0.9782 0.9790 0.9801
1881.000000 0.9814 0.9854 0.9827 0.9829 0.9830
1886.000000 0.9831 0.9832 0.9829 0.9826 0.9824
1891.000000 0.9821 0.9818 0.9815 0.9812 0.9810
1896.000000 0.9808 0.9806 0.9803 0.9801 0.9799
1901.000000 0.9797 0.9795 0.9792 0.9790 0.9788
1906.000000 0.9785 0.9782 0.9780 0.9777 0.9775
1911.000000 0.9772 0.9770 0.9767 0.9764 0.9762
1916.000000 0.9760 0.9757 0.9754 0.9752 0.9750
1921.000000 0.9747 0.9743 0.9738 0.9733 0.9728
1926.000000 0.9724 0.9719 0.9714 0.9710 0.9703
1931.000000 0.9696 0.9688 0.9681 0.9674 0.9667
1936.000000 0.9660 0.9653 0.9646 0.9638 0.9626
1941.000000 0.9609 0.9593 0.9577 0.9561 0.9538
1946.000000 0.9509 0.9475 0.9432 0.9334 0.9168
1951.000000 0.9079 0.9012 0.8970 0.8957 0.8962
1956.000000 0.8991 0.8952 0.9279 0.9435 0.9590
1961.000000 0.9724 0.9781 0.9801 0.9803 0.9805
1966.000000 0.9807 0.9809 0.9809 0.9809 0.9809
1971.000000 0.9809 0.9808 0.9808 0.9802 0.9804
1976.000000 0.9802 0.9800 0.9798 0.9796 0.9793
1981.000000 0.9791 0.9790 0.9787 0.9785 0.9782
1986.000000 0.9780 0.9777 0.9775 0.9772 0.9770
1991.000000 0.9768 0.9766 0.9763 0.9760 0.9757
1996.000000 0.9754 0.9750 0.9747 0.9743 0.9740
2001.000000 0.9736 0.9733 0.9730 0.9727 0.9723
2006.000000 0.9720 0.9717 0.9715 0.9713 0.9711
2011.000000 0.9710 0.9709 0.9707 0.9706 0.9705
2016.000000 0.9703 0.9701 0.9700 0.9699 0.9697
2021.000000 0.9696 0.9698 0.9701 0.9707 0.9715
2026.000000 0.9724 0.9727 0.9729 0.9729 0.9730
2031.000000 0.9731 0.9731 0.9730 0.9729 0.9728
2036.000000 0.9727 0.9726 0.9725 0.9723 0.9721
2041.000000 0.9719 0.9717 0.9715 0.9713 0.9711
2046.000000 0.9710 0.9709 0.9708 0.9707 0.9706
2051.000000 0.9704 0.9703 0.9702 0.9701 0.9700
2056.000000 0.9699 0.9698 0.9697 0.9696 0.9695
2061.000000 0.9694 0.9692 0.9691 0.9690 0.9689
2066.000000 0.9688 0.9686 0.9685 0.9683 0.9682
2071.000000 0.9681 0.9680 0.9678 0.9677 0.9676
2076.000000 0.9675 0.9674 0.9673 0.9672 0.9670
2081.000000 0.9669 0.9668 0.9666 0.9665 0.9664
2086.000000 0.9662 0.9660 0.9659 0.9658 0.9656
2091.000000 0.9655 0.9654 0.9652 0.9650 0.9648
2096.000000 0.9647 0.9646 0.9644 0.9643 0.9641
2101.000000 0.9640 0.9639 0.9637 0.9636 0.9634
2106.000000 0.9633 0.9631 0.9629 0.9627 0.9625
2111.000000 0.9623 0.9620 0.9618 0.9616 0.9614
2116.000000 0.9611 0.9609 0.9607 0.9605 0.9602
2121.000000 0.9600 0.9598 0.9596 0.9594 0.9591
2126.000000 0.9589 0.9587 0.9585 0.9583 0.9580
2131.000000 0.9578 0.9576 0.9574 0.9572 0.9569
2136.000000 0.9568 0.9566 0.9565 0.9564 0.9563
2141.000000 0.9562 0.9560 0.9559 0.9558 0.9557
2146.000000 0.9555 0.9554 0.9553 0.9551 0.9550
2151.000000 0.9549 0.9548 0.9547 0.9545 0.9544
2156.000000 0.9543 0.9542 0.9541 0.9540 0.9540
2161.000000 0.9539 0.9539 0.9538 0.9538 0.9537
2166.000000 0.9537 0.9536 0.9536 0.9535 0.9535
2171.000000 0.9534 0.9533 0.9529 0.9526 0.9523
2176.000000 0.9520 0.9517 0.9514 0.9511 0.9508
2181.000000 0.9504 0.9499 0.9493 0.9487 0.9481
2186.000000 0.9476 0.9471 0.9465 0.9459 0.9454
2191.000000 0.9449 0.9443 0.9437 0.9432 0.9426
2196.000000 0.9420 0.9414 0.9408 0.9402 0.9396
2201.000000 0.9390 0.9383 0.9377 0.9372 0.9366
2206.000000 0.9360 0.9354 0.9347 0.9342 0.9336
2211.000000 0.9329 0.9321 0.9313 0.9305 0.9298
2216.000000 0.9290 0.9282 0.9275 0.9267 0.9259
2221.000000 0.9253 0.9248 0.9244 0.9241 0.9238
2226.000000 0.9235 0.9232 0.9229 0.9226 0.9223
2231.000000 0.9220 0.9216 0.9212 0.9209 0.9205
2236.000000 0.9202 0.9198 0.9195 0.9191 0.9186
2241.000000 0.9181 0.9175 0.9170 0.9164 0.9159
2246.000000 0.9153 0.9148 0.9142 0.9136 0.9130
2251.000000 0.9124 0.9118 0.9112 0.9105 0.9099
2256.000000 0.9093 0.9087 0.9081 0.9075 0.9069
2261.000000 0.9062 0.9055 0.9047 0.9040 0.9033
2266.000000 0.9025 0.9018 0.9011 0.9004 0.8996
2271.000000 0.8987 0.8973 0.8958 0.8943 0.8927
2276.000000 0.8912 0.8896 0.8880 0.8864 0.8847
2281.000000 0.8830 0.8814 0.8797 0.8780 0.8763
2286.000000 0.8742 0.8721 0.8700 0.8679 0.8658
2291.000000 0.8637 0.8617 0.8596 0.8573 0.8547
2296.000000 0.8519 0.8488 0.8456 0.8425 0.8396
2301.000000 0.8383 0.8369 0.8355 0.8342 0.8328
2306.000000 0.8315 0.8310 0.8309 0.8307 0.8306
2311.000000 0.8302 0.8302 0.8301 0.8299 0.8297
2316.000000 0.8295 0.8293 0.8292 0.8291 0.8289
2321.000000 0.8287 0.8285 0.8283 0.8281 0.8280
2326.000000 0.8278 0.8277 0.8275 0.8273 0.8271
2331.000000 0.8270 0.8269 0.8268 0.8267 0.8265
2336.000000 0.8264 0.8263 0.8261 0.8260 0.8259
2341.000000 0.8258 0.8257 0.8256 0.8254 0.8253
2346.000000 0.8252 0.8251 0.8250 0.8249 0.8248
2351.000000 0.8247 0.8246 0.8246 0.8246 0.8245
2356.000000 0.8245 0.8244 0.8244 0.8243 0.8242
2361.000000 0.8241 0.8241 0.8240 0.8240 0.8240
2366.000000 0.8239 0.8238 0.8237 0.8237 0.8235
2371.000000 0.8231 0.8227 0.8224 0.8220 0.8214
2376.000000 0.8208 0.8198 0.8185 0.8172 0.8159
2381.000000 0.8146 0.8128 0.8110 0.8092 0.8074
2386.000000 0.8054 0.8032 0.8009 0.7984 0.7960
2391.000000 0.7935 0.7909 0.7883 0.7857 0.7831
2396.000000 0.7805 0.7779 0.7751 0.7724 0.7691
2401.000000 0.7655 0.7620 0.7586 0.7551 0.7514
2406.000000 0.7476 0.7432 0.7387 0.7342 0.7297
2411.000000 0.7253 0.7215 0.7176 0.7143 0.7110
2416.000000 0.7077 0.7044 0.7011 0.6978 0.6945
2421.000000 0.6898 0.6850 0.6801 0.6751 0.6697
2426.000000 0.6624 0.6550 0.6412 0.6260 0.6142
2431.000000 0.6064 0.5982 0.5854 0.5726 0.5617
2436.000000 0.5517 0.5427 0.5356 0.5285 0.5215
2441.000000 0.5144 0.5074 0.5003 0.4933 0.4863
2446.000000 0.4793 0.4723 0.4653 0.4583 0.4513
2451.000000 0.4443 0.4374 0.4304 0.4235 0.4165
2456.000000 0.4095 0.4026 0.3956 0.3887 0.3817
2461.000000 0.3756 0.3709 0.3661 0.3658 0.3658
2466.000000 0.3657 0.3657 0.3657 0.3657 0.3657
2471.000000 0.3649 0.3792 0.3878 0.3981 0.4084
2476.000000 0.4187 0.4289 0.4391 0.4494 0.4596
2481.000000 0.4698 0.4800 0.4902 0.5004 0.5106
2486.000000 0.5208 0.5309 0.5379 0.5406 0.5433
2491.000000 0.5432 0.5429 0.5426 0.5423 0.5420
2496.000000 0.5411 0.5414 0.5410 0.5404 0.5398
2501.000000 0.5386 0.5374 0.5360 0.5346 0.5332
2506.000000 0.5315 0.5299 0.5283 0.5266 0.5249
2511.000000 0.5234 0.5218 0.5203 0.5187 0.5172
2516.000000 0.5156 0.5141 0.5126 0.5110 0.5094
2521.000000 0.5079 0.5065 0.5051 0.5037 0.5024
2526.000000 0.5011 0.4997 0.4984 0.4971 0.4957
2531.000000 0.4937 0.4912 0.4887 0.4861 0.4835
2536.000000 0.4808 0.4779 0.4750 0.4720 0.4691
2541.000000 0.4661 0.4632 0.4602 0.4570 0.4536
2546.000000 0.4502 0.4468 0.4434 0.4341 0.4207
2551.000000 0.4072 0.3933 0.3793 0.3653 0.3514
2556.000000 0.3375 0.3235 0.3096 0.2957 0.2818
2561.000000 0.2679 0.2545 0.2416 0.2286 0.2237
2566.000000 0.2197 0.2162 0.2142 0.2122 0.2109
2571.000000 0.2100 0.2092 0.2089 0.2086 0.2083
2576.000000 0.2082 0.2081 0.2080 0.2080 0.2080
2581.000000 0.2080 0.2080 0.2073 0.2081 0.2081
2586.000000 0.2082 0.2082 0.2083 0.2084 0.2085
2591.000000 0.2086 0.2088 0.2091 0.2096 0.2102
2596.000000 0.2108 0.2120 0.2132 0.2146 0.2168
2601.000000 0.2190 0.2217 0.2247 0.2277 0.2311
2606.000000 0.2346 0.2380 0.2405 0.2431 0.2453
2611.000000 0.2469 0.2485 0.2499 0.2512 0.2526
2616.000000 0.2539 0.2552 0.2567 0.2590 0.2612
2621.000000 0.2635 0.2659 0.2683 0.2710 0.2738
2626.000000 0.2767 0.2846 0.2927 0.3008 0.3089
2631.000000 0.3170 0.3251 0.3331 0.3412 0.3493
2636.000000 0.3573 0.3654 0.3734 0.3815 0.3895
2641.000000 0.3976 0.4056 0.4136 0.4216 0.4296
2646.000000 0.4376 0.4456 0.4536 0.4616 0.4696
2651.000000 0.4775 0.4855 0.4935 0.5014 0.5094
2656.000000 0.5173 0.5253 0.5332 0.5412 0.5480
2661.000000 0.5535 0.5589 0.5610 0.5609 0.5608
2666.000000 0.5605 0.5603 0.5600 0.5596 0.5592
2671.000000 0.5588 0.5584 0.5581 0.5576 0.5570
2676.000000 0.5564 0.5559 0.5554 0.5549 0.5546
2681.000000 0.5545 0.5545 0.5544 0.5543 0.5543
2686.000000 0.5542 0.5541 0.5541 0.5543 0.5546
2691.000000 0.5548 0.5558 0.5568 0.5578 0.5595
2696.000000 0.5611 0.5628 0.5648 0.5667 0.5687
2701.000000 0.5710 0.5732 0.5759 0.5797 0.5835
2706.000000 0.5875 0.5915 0.5956 0.5994 0.6030
2711.000000 0.6065 0.6100 0.6136 0.6171 0.6200
2716.000000 0.6225 0.6249 0.6271 0.6292 0.6312
2721.000000 0.6333 0.6354 0.6375 0.6393 0.6409
2726.000000 0.6426 0.6440 0.6454 0.6468 0.6482
2731.000000 0.6495 0.6509 0.6523 0.6536 0.6549
2736.000000 0.6564 0.6579 0.6593 0.6609 0.6625
2741.000000 0.6641 0.6651 0.6660 0.6668 0.6675
2746.000000 0.6682 0.6688 0.6691 0.6692 0.6694
2751.000000 0.6695 0.6695 0.6695 0.6695 0.6695
2756.000000 0.6695 0.6681 0.6695 0.6695 0.6695
2761.000000 0.6695 0.6695 0.6694 0.6692 0.6690
2766.000000 0.6688 0.6687 0.6685 0.6682 0.6680
2771.000000 0.6678 0.6675 0.6671 0.6667 0.6663
2776.000000 0.6658 0.6653 0.6647 0.6642 0.6637
2781.000000 0.6631 0.6623 0.6614 0.6605 0.6588
2786.000000 0.6572 0.6556 0.6536 0.6517 0.6497
2791.000000 0.6477 0.6457 0.6437 0.6418 0.6398
2796.000000 0.6379 0.6359 0.6339 0.6319 0.6300
2801.000000 0.6279 0.6259 0.6230 0.6179 0.6129
2806.000000 0.6059 0.5894 0.5729 0.5564 0.5399
2811.000000 0.5234 0.5070 0.4906 0.4741 0.4577
2816.000000 0.4413 0.4249 0.4086 0.3969 0.3899
2821.000000 0.3828 0.3780 0.3779 0.3778 0.3776
2826.000000 0.3775 0.3774 0.3773 0.3771 0.3770
2831.000000 0.3769 0.3769 0.3769 0.3769 0.3769
2836.000000 0.3769 0.3769 0.3769 0.3769 0.3769
2841.000000 0.3770 0.3771 0.3771 0.3772 0.3773
2846.000000 0.3774 0.3775 0.3776 0.3777 0.3779
2851.000000 0.3780 0.3781 0.3782 0.3783 0.3785
2856.000000 0.3787 0.3789 0.3792 0.3795 0.3798
2861.000000 0.3801 0.3804 0.3807 0.3809 0.3812
2866.000000 0.3814 0.3817 0.3819 0.3821 0.3824
2871.000000 0.3826 0.3828 0.3830 0.3833 0.3835
2876.000000 0.3837 0.3840 0.3842 0.3845 0.3847
2881.000000 0.3849 0.3851 0.3853 0.3854 0.3856
2886.000000 0.3857 0.3859 0.3861 0.3862 0.3864
2891.000000 0.3866 0.3867 0.3869 0.3870 0.3871
2896.000000 0.3872 0.3874 0.3874 0.3875 0.3875
2901.000000 0.3876 0.3876 0.3876 0.3877 0.3877
2906.000000 0.3877 0.3878 0.3878 0.3878 0.3878
2911.000000 0.3879 0.3879 0.3880 0.3881 0.3881
2916.000000 0.3881 0.3881 0.3882 0.3882 0.3882
2921.000000 0.3883 0.3883 0.3883 0.3883 0.3883
2926.000000 0.3883 0.3883 0.3883 0.3883 0.3883
2931.000000 0.3883 0.3883 0.3883 0.3883 0.3883
2936.000000 0.3883 0.3883 0.3893 0.3930 0.3968
2941.000000 0.4005 0.4065 0.4131 0.4197 0.4262
2946.000000 0.4327 0.4392 0.4457 0.4522 0.4588
2951.000000 0.4653 0.4718 0.4783 0.4847 0.4912
2956.000000 0.4977 0.5042 0.5107 0.5172 0.5236
2961.000000 0.5301 0.5365 0.5430 0.5494 0.5559
2966.000000 0.5623 0.5687 0.5752 0.5816 0.5880
2971.000000 0.5944 0.6009 0.6073 0.6137 0.6200
2976.000000 0.6264 0.6328 0.6392 0.6456 0.6520
2981.000000 0.6584 0.6647 0.6711 0.6763 0.6811
2986.000000 0.6859 0.6903 0.6919 0.6935 0.6951
2991.000000 0.6966 0.6982 0.6998 0.7013 0.7025
2996.000000 0.7036 0.7047 0.7056 0.7062 0.7069
3001.000000 0.7075 0.7082 0.7088 0.7095 0.7101
3006.000000 0.7103 0.7106 0.7108 0.7110 0.7112
3011.000000 0.7113 0.7114 0.7116 0.7117 0.7119
3016.000000 0.7120 0.7121 0.7123 0.7124 0.7125
3021.000000 0.7125 0.7125 0.7125 0.7125 0.7125
3026.000000 0.7125 0.7124 0.7124 0.7124 0.7124
3031.000000 0.7123 0.7123 0.7122 0.7131 0.7121
3036.000000 0.7121 0.7121 0.7120 0.7120 0.7120
3041.000000 0.7120 0.7119 0.7119 0.7119 0.7119
3046.000000 0.7118 0.7117 0.7116 0.7115 0.7112
3051.000000 0.7109 0.7106 0.7103 0.7100 0.7097
3056.000000 0.7094 0.7090 0.7085 0.7081 0.7076
3061.000000 0.7071 0.7066 0.7061 0.7056 0.7052
3066.000000 0.7048 0.7044 0.7039 0.7035 0.7031
3071.000000 0.7028 0.7023 0.7019 0.7015 0.7011
3076.000000 0.7003 0.6995 0.6988 0.6980 0.6971
3081.000000 0.6963 0.6954 0.6943 0.6928 0.6913
3086.000000 0.6899 0.6882 0.6863 0.6844 0.6826
3091.000000 0.6805 0.6783 0.6761 0.6740 0.6710
3096.000000 0.6680 0.6650 0.6623 0.6614 0.6606
3101.000000 0.6598 0.6590 0.6586 0.6582 0.6578
3106.000000 0.6574 0.6570 0.6566 0.6561 0.6557
3111.000000 0.6551 0.6546 0.6540 0.6535 0.6530
3116.000000 0.6525 0.6520 0.6500 0.6476 0.6452
3121.000000 0.6429 0.6388 0.6345 0.6302 0.6259
3126.000000 0.6215 0.6172 0.6129 0.6086 0.6043
3131.000000 0.6000 0.5957 0.5914 0.5872 0.5829
3136.000000 0.5786 0.5743 0.5700 0.5658 0.5615
3141.000000 0.5572 0.5529 0.5487 0.5444 0.5404
3146.000000 0.5369 0.5333 0.5297 0.5276 0.5276
3151.000000 0.5276 0.5276 0.5277 0.5278 0.5280
3156.000000 0.5281 0.5297 0.5320 0.5347 0.5374
3161.000000 0.5404 0.5440 0.5476 0.5512 0.5547
3166.000000 0.5583 0.5619 0.5654 0.5684 0.5705
3171.000000 0.5726 0.5747 0.5760 0.5762 0.5764
3176.000000 0.5765 0.5767 0.5769 0.5771 0.5772
3181.000000 0.5774 0.5776 0.5779 0.5781 0.5783
3186.000000 0.5784 0.5785 0.5786 0.5787 0.5787
3191.000000 0.5787 0.5787 0.5788 0.5788 0.5789
3196.000000 0.5789 0.5789 0.5789 0.5788 0.5788
3201.000000 0.5788 0.5787 0.5787 0.5786 0.5786
3206.000000 0.5785 0.5784 0.5783 0.5783 0.5722
3211.000000 0.5642 0.5563 0.5483 0.5777 0.5322
3216.000000 0.5242 0.5162 0.5082 0.5002 0.4922
3221.000000 0.4842 0.4763 0.4683 0.4603 0.4524
3226.000000 0.4444 0.4365 0.4285 0.4206 0.4126
3231.000000 0.4047 0.3968 0.3889 0.3810 0.3730
3236.000000 0.3651 0.3572 0.3493 0.3414 0.3335
3241.000000 0.3256 0.3177 0.3108 0.3049 0.2990
3246.000000 0.2931 0.2887 0.2888 0.2889 0.2890
3251.000000 0.2891 0.2908 0.2925 0.2943 0.2960
3256.000000 0.2900 0.3148 0.3250 0.3353 0.3456
3261.000000 0.3558 0.3661 0.3763 0.3865 0.3968
3266.000000 0.4070 0.4172 0.4274 0.4376 0.4478
3271.000000 0.4580 0.4682 0.4784 0.4885 0.4987
3276.000000 0.5089 0.5190 0.5292 0.5393 0.5494
3281.000000 0.5596 0.5697 0.5798 0.5899 0.6000
3286.000000 0.6101 0.6202 0.6303 0.6404 0.6504
3291.000000 0.6605 0.6706 0.6806 0.6906 0.7005
3296.000000 0.7103 0.7202 0.7300 0.7317 0.7318
3301.000000 0.7320 0.7322 0.7323 0.7325 0.7327
3306.000000 0.7329 0.7331 0.7331 0.7331 0.7331
3311.000000 0.7331 0.7331 0.7331 0.7330 0.7330
3316.000000 0.7345 0.7328 0.7327 0.7326 0.7326
3321.000000 0.7323 0.7320 0.7317 0.7314 0.7311
3326.000000 0.7308 0.7306 0.7303 0.7300 0.7297
3331.000000 0.7293 0.7290 0.7287 0.7283 0.7279
3336.000000 0.7275 0.7271 0.7267 0.7261 0.7254
3341.000000 0.7248 0.7241 0.7234 0.7227 0.7219
3346.000000 0.7212 0.7205 0.7198 0.7191 0.7185
3351.000000 0.7178 0.7171 0.7164 0.7157 0.7150
3356.000000 0.7143 0.7137 0.7130 0.7123 0.7116
3361.000000 0.7109 0.7101 0.7094 0.7087 0.7080
3366.000000 0.7072 0.7065 0.7057 0.7050 0.7042
3371.000000 0.7034 0.7027 0.7019 0.7011 0.7004
3376.000000 0.6996 0.6989 0.6981 0.6948 0.6900
3381.000000 0.6851 0.6803 0.6751 0.6646 0.6540
3386.000000 0.6434 0.6329 0.6223 0.6118 0.6012
3391.000000 0.5907 0.5801 0.5696 0.5591 0.5485
3396.000000 0.5380 0.5275 0.5170 0.5065 0.4960
3401.000000 0.4855 0.4776 0.4712 0.4647 0.4583
3406.000000 0.4519 0.4519 0.4519 0.4519 0.4519
3411.000000 0.4568 0.4705 0.4842 0.4979 0.5116
3416.000000 0.5256 0.5397 0.5538 0.5679 0.4534
3421.000000 0.5961 0.6102 0.6242 0.6383 0.6524
3426.000000 0.6664 0.6804 0.6944 0.7085 0.7225
3431.000000 0.7365 0.7505 0.7645 0.7785 0.7855
3436.000000 0.7919 0.7984 0.8049 0.8102 0.8112
3441.000000 0.8121 0.8131 0.8141 0.8149 0.8155
3446.000000 0.8161 0.8166 0.8172 0.8176 0.8180
3451.000000 0.8183 0.8187 0.8190 0.8193 0.8195
3456.000000 0.8197 0.8199 0.8201 0.8202 0.8203
3461.000000 0.8204 0.8205 0.8206 0.8207 0.8208
3466.000000 0.8209 0.8210 0.8211 0.8211 0.8212
3471.000000 0.8213 0.8213 0.8214 0.8214 0.8214
3476.000000 0.8214 0.8214 0.8214 0.8214 0.8214
3481.000000 0.8214 0.8214 0.8214 0.8214 0.8214
3486.000000 0.8214 0.8214 0.8214 0.8214 0.8214
3491.000000 0.8214 0.8213 0.8213 0.8213 0.8213
3496.000000 0.8213 0.8212 0.8212 0.8211 0.8211
3501.000000 0.8211 0.8225 0.8210 0.8210 0.8210
3506.000000 0.8210 0.8209 0.8209 0.8208 0.8208
3511.000000 0.8208 0.8207 0.8207 0.8206 0.8206
3516.000000 0.8206 0.8205 0.8205 0.8204 0.8204
3521.000000 0.8204 0.8203 0.8202 0.8201 0.8200
3526.000000 0.8199 0.8198 0.8197 0.8196 0.8195
3531.000000 0.8194 0.8193 0.8192 0.8191 0.8190
3536.000000 0.8189 0.8188 0.8187 0.8186 0.8185
3541.000000 0.8184 0.8183 0.8182 0.8181 0.8180
3546.000000 0.8179 0.8177 0.8175 0.8173 0.8172
3551.000000 0.8170 0.8168 0.8167 0.8165 0.8163
3556.000000 0.8162 0.8160 0.8158 0.8157 0.8155
3561.000000 0.8153 0.8151 0.8149 0.8148 0.8146
3566.000000 0.8144 0.8142 0.8141 0.8139 0.8137
3571.000000 0.8135 0.8133 0.8132 0.8130 0.8128
3576.000000 0.8126 0.8125 0.8123 0.8121 0.8119
3581.000000 0.8118 0.8116 0.8114 0.8112 0.8110
3586.000000 0.8108 0.8106 0.8104 0.8103 0.8101
3591.000000 0.8099 0.8097 0.8096 0.8094 0.8092
3596.000000 0.8090 0.8089 0.8087 0.8085 0.8084
3601.000000 0.8082 0.8080 0.8078 0.8076 0.8074
3606.000000 0.8072 0.8070 0.8069 0.8067 0.8065
3611.000000 0.8063 0.8062 0.8060 0.8058 0.8057
3616.000000 0.8055 0.8053 0.8051 0.8049 0.8047
3621.000000 0.8045 0.8043 0.8041 0.8039 0.8037
3626.000000 0.8035 0.8033 0.8030 0.8028 0.8026
3631.000000 0.8024 0.8022 0.8020 0.8018 0.8016
3636.000000 0.8013 0.8011 0.8009 0.8007 0.8004
3641.000000 0.8002 0.8000 0.7998 0.7996 0.7994
3646.000000 0.7992 0.7989 0.7987 0.7985 0.7983
3651.000000 0.7981 0.7979 0.7977 0.7975 0.7972
3656.000000 0.7970 0.7968 0.7966 0.7963 0.7961
3661.000000 0.7959 0.7957 0.7955 0.7953 0.7951
3666.000000 0.7949 0.7947 0.7945 0.7943 0.7941
3671.000000 0.7939 0.7937 0.7935 0.7933 0.7930
3676.000000 0.7928 0.7926 0.7924 0.7922 0.7920
3681.000000 0.7918 0.7916 0.7914 0.7912 0.7910
3686.000000 0.7908 0.7906 0.7904 0.7902 0.7900
3691.000000 0.7897 0.7895 0.7893 0.7891 0.7889
3696.000000 0.7887 0.7885 0.7883 0.7881 0.7879
3701.000000 0.7877 0.7875 0.7873 0.7871 0.7869
3706.000000 0.7867 0.7865 0.7863 0.7861 0.7859
3711.000000 0.7857 0.7855 0.7853 0.7851 0.7849
3716.000000 0.7847 0.7845 0.7842 0.7840 0.7838
3721.000000 0.7836 0.7834 0.7832 0.7830 0.7828
3726.000000 0.7826 0.7824 0.7822 0.7820 0.7818
3731.000000 0.7816 0.7814 0.7812 0.7810 0.7808
3736.000000 0.7805 0.7803 0.7801 0.7799 0.7797
3741.000000 0.7795 0.7793 0.7790 0.7788 0.7786
3746.000000 0.7783 0.7781 0.7779 0.7777 0.7775
3751.000000 0.7772 0.7770 0.7768 0.7766 0.7764
3756.000000 0.7762 0.7760 0.7757 0.7755 0.7753
3761.000000 0.7751 0.7749 0.7747 0.7745 0.7743
3766.000000 0.7741 0.7738 0.7736 0.7734 0.7732
3771.000000 0.7730 0.7728 0.7725 0.7723 0.7721
3776.000000 0.7718 0.7716 0.7714 0.7712 0.7710
3781.000000 0.7708 0.7706 0.7704 0.7702 0.7700
3786.000000 0.7697 0.7695 0.7693 0.7691 0.7689
3791.000000 0.7687 0.7685 0.7683 0.7681 0.7679
3796.000000 0.7677 0.7674 0.7672 0.7670 0.7668
3801.000000 0.7666 0.7664 0.7661 0.7659 0.7657
3806.000000 0.7655 0.7653 0.7651 0.7649 0.7647
3811.000000 0.7644 0.7642 0.7640 0.7638 0.7636
3816.000000 0.7634 0.7632 0.7630 0.7628 0.7626
3821.000000 0.7624 0.7622 0.7620 0.7618 0.7616
3826.000000 0.7614 0.7612 0.7609 0.7608 0.7606
3831.000000 0.7604 0.7602 0.7600 0.7598 0.7596
3836.000000 0.7594 0.7592 0.7590 0.7588 0.7586
3841.000000 0.7584 0.7582 0.7580 0.7578 0.7576
3846.000000 0.7574 0.7572 0.7570 0.7568 0.7566
3851.000000 0.7564 0.7562 0.7560 0.7558 0.7556
3856.000000 0.7554 0.7552 0.7551 0.7549 0.7547
3861.000000 0.7545 0.7542 0.7540 0.7538 0.7536
3866.000000 0.7534 0.7532 0.7530 0.7528 0.7526
3871.000000 0.7525 0.7523 0.7521 0.7519 0.7517
3876.000000 0.7515 0.7513 0.7511 0.7509 0.7507
3881.000000 0.7505 0.7503 0.7501 0.7499 0.7498
3886.000000 0.7496 0.7494 0.7492 0.7490 0.7488
3891.000000 0.7486 0.7484 0.7482 0.7481 0.7479
3896.000000 0.7477 0.7475 0.7473 0.7471 0.7469
3901.000000 0.7467 0.7465 0.7463 0.7461 0.7459
3906.000000 0.7457 0.7455 0.7453 0.7452 0.7450
3911.000000 0.7448 0.7446 0.7444 0.7442 0.7440
3916.000000 0.7438 0.7436 0.7434 0.7433 0.7431
3921.000000 0.7429 0.7427 0.7425 0.7424 0.7422
3926.000000 0.7420 0.7418 0.7417 0.7415 0.7413
3931.000000 0.7411 0.7409 0.7408 0.7406 0.7404
3936.000000 0.7402 0.7401 0.7399 0.7397 0.7396
3941.000000 0.7394 0.7392 0.7391 0.7389 0.7387
3946.000000 0.7386 0.7384 0.7382 0.7380 0.7379
3951.000000 0.7377 0.7375 0.7373 0.7371 0.7370
3956.000000 0.7368 0.7366 0.7364 0.7363 0.7361
3961.000000 0.7359 0.7357 0.7356 0.7354 0.7353
3966.000000 0.7351 0.7349 0.7348 0.7346 0.7344
3971.000000 0.7343 0.7341 0.7339 0.7337 0.7336
3976.000000 0.7334 0.7332 0.7331 0.7329 0.7327
3981.000000 0.7325 0.7324 0.7322 0.7320 0.7318
3986.000000 0.7317 0.7315 0.7313 0.7312 0.7310
3991.000000 0.7309 0.7307 0.7305 0.7304 0.7302
3996.000000 0.7300 0.7299 0.7297 0.7295 0.7294
##END=
