##TITLE=EVANS BLUE
##JCAMP-DX=4.24
$$ By DXEDIT 1.05 (RS McDonald)
##DATA TYPE=INFRARED SPECTRUM
##CLASS=COBLENTZ III
##OWNER=COPYRIGHT (C) 1988 by COBLENTZ SOCIETY INC.
Collection (C) 2018 copyright by the U.S. Secretary of Commerce
on behalf of the United States of America. All rights reserved.
##DATE=1961/06/29
##NAMES=4,4'-BIS[7-(1-AMINO-8-HYDROXY-2,4-DISULFO)-NAPHTHYLAZO]-3,3'-BITOLYL TETRASODIUM SALT
##MOLFORM=C34 H24 N6 Na4 O14 S4
##SOURCE REFERENCE=COBLENTZ NO. 5088
##$NIST ID=B6005088
##$NIST SOURCE=COBLENTZ
##$NIST IMAGE=cob5088
##SPECTROMETER/DATA SYSTEM=PERKIN-ELMER 21 (GRATING)
##INSTRUMENT PARAMETERS=FILTER AT ABOUT 10 MICRONS
##STATE=SOLID (0.72 mg / 200 mg KBr DISC)
##SAMPLING PROCEDURE=TRANSMISSION
##RESOLUTION=2
##DATA PROCESSING=DIGITIZED BY COBLENTZ SOCIETY (BATCH I) FROM HARD COPY
##XUNITS=1/CM
##YUNITS=TRANSMITTANCE
##XFACTOR=1
##YFACTOR=1
##DELTAX=1
##FIRSTX=4000
##LASTX=653
##FIRSTY=0.8963
##MAXX=4000
##MINX=653
##MAXY=0.9471
##MINY=0.3481
##NPOINTS=3348
##XYDATA=(X++(Y..Y))
4000.000000 0.8963 0.8964 0.8966 0.8967 0.8968
3995.000000 0.8970 0.8973 0.8973 0.8974 0.8975
3990.000000 0.8977 0.8981 0.8982 0.8983 0.8985
3985.000000 0.8988 0.8987 0.8992 0.8993 0.8994
3980.000000 0.8996 0.8998 0.9000 0.9001 0.9002
3975.000000 0.9005 0.9007 0.9008 0.9011 0.9010
3970.000000 0.9012 0.9016 0.9017 0.9019 0.9021
3965.000000 0.9023 0.9024 0.9025 0.9027 0.9029
3960.000000 0.9031 0.9032 0.9033 0.9036 0.9037
3955.000000 0.9039 0.9041 0.9043 0.9044 0.9047
3950.000000 0.9048 0.9048 0.9052 0.9053 0.9054
3945.000000 0.9056 0.9057 0.9058 0.9060 0.9061
3940.000000 0.9062 0.9063 0.9065 0.9066 0.9066
3935.000000 0.9067 0.9068 0.9070 0.9071 0.9072
3930.000000 0.9073 0.9075 0.9076 0.9076 0.9077
3925.000000 0.9078 0.9079 0.9081 0.9082 0.9083
3920.000000 0.9084 0.9086 0.9086 0.9087 0.9088
3915.000000 0.9089 0.9091 0.9092 0.9093 0.9094
3910.000000 0.9096 0.9097 0.9097 0.9098 0.9099
3905.000000 0.9100 0.9102 0.9103 0.9104 0.9105
3900.000000 0.9106 0.9108 0.9109 0.9110 0.9111
3895.000000 0.9113 0.9114 0.9114 0.9115 0.9116
3890.000000 0.9117 0.9118 0.9120 0.9121 0.9122
3885.000000 0.9123 0.9123 0.9124 0.9126 0.9127
3880.000000 0.9128 0.9129 0.9130 0.9132 0.9133
3875.000000 0.9134 0.9135 0.9136 0.9138 0.9139
3870.000000 0.9137 0.9140 0.9141 0.9142 0.9143
3865.000000 0.9145 0.9146 0.9147 0.9148 0.9149
3860.000000 0.9150 0.9152 0.9153 0.9154 0.9155
3855.000000 0.9156 0.9158 0.9159 0.9160 0.9161
3850.000000 0.9161 0.9162 0.9163 0.9164 0.9166
3845.000000 0.9167 0.9168 0.9169 0.9170 0.9171
3840.000000 0.9173 0.9174 0.9175 0.9176 0.9176
3835.000000 0.9177 0.9178 0.9179 0.9181 0.9182
3830.000000 0.9183 0.9184 0.9185 0.9186 0.9187
3825.000000 0.9189 0.9190 0.9191 0.9192 0.9193
3820.000000 0.9193 0.9194 0.9195 0.9196 0.9197
3815.000000 0.9199 0.9200 0.9201 0.9202 0.9203
3810.000000 0.9204 0.9205 0.9207 0.9208 0.9209
3805.000000 0.9210 0.9211 0.9212 0.9213 0.9213
3800.000000 0.9214 0.9215 0.9216 0.9218 0.9219
3795.000000 0.9220 0.9220 0.9221 0.9223 0.9224
3790.000000 0.9224 0.9225 0.9226 0.9227 0.9228
3785.000000 0.9230 0.9229 0.9230 0.9232 0.9233
3780.000000 0.9234 0.9235 0.9235 0.9236 0.9237
3775.000000 0.9238 0.9239 0.9240 0.9241 0.9242
3770.000000 0.9243 0.9244 0.9246 0.9247 0.9248
3765.000000 0.9249 0.9250 0.9251 0.9252 0.9253
3760.000000 0.9254 0.9255 0.9256 0.9259 0.9260
3755.000000 0.9261 0.9262 0.9263 0.9264 0.9265
3750.000000 0.9268 0.9269 0.9270 0.9271 0.9272
3745.000000 0.9273 0.9274 0.9275 0.9278 0.9279
3740.000000 0.9280 0.9281 0.9282 0.9283 0.9284
3735.000000 0.9287 0.9288 0.9289 0.9290 0.9291
3730.000000 0.9292 0.9294 0.9295 0.9296 0.9297
3725.000000 0.9298 0.9299 0.9302 0.9303 0.9304
3720.000000 0.9305 0.9306 0.9307 0.9309 0.9311
3715.000000 0.9312 0.9313 0.9315 0.9316 0.9317
3710.000000 0.9319 0.9320 0.9322 0.9323 0.9324
3705.000000 0.9326 0.9327 0.9328 0.9330 0.9331
3700.000000 0.9332 0.9335 0.9336 0.9337 0.9338
3695.000000 0.9340 0.9341 0.9342 0.9343 0.9344
3690.000000 0.9345 0.9346 0.9347 0.9348 0.9349
3685.000000 0.9349 0.9350 0.9351 0.9351 0.9350
3680.000000 0.9350 0.9350 0.9349 0.9349 0.9348
3675.000000 0.9347 0.9345 0.9343 0.9342 0.9341
3670.000000 0.9340 0.9338 0.9336 0.9335 0.9333
3665.000000 0.9332 0.9331 0.9329 0.9327 0.9326
3660.000000 0.9324 0.9321 0.9318 0.9315 0.9312
3655.000000 0.9309 0.9306 0.9303 0.9300 0.9295
3650.000000 0.9292 0.9289 0.9285 0.9282 0.9277
3645.000000 0.9274 0.9269 0.9263 0.9256 0.9250
3640.000000 0.9243 0.9236 0.9229 0.9222 0.9214
3635.000000 0.9207 0.9200 0.9191 0.9184 0.9177
3630.000000 0.9169 0.9162 0.9155 0.9147 0.9140
3625.000000 0.9132 0.9125 0.9114 0.9087 0.9060
3620.000000 0.9033 0.9006 0.8980 0.8952 0.8925
3615.000000 0.8898 0.8870 0.8844 0.8802 0.8755
3610.000000 0.8709 0.8662 0.8615 0.8568 0.8516
3605.000000 0.8465 0.8415 0.8363 0.8314 0.8267
3600.000000 0.8222 0.8174 0.8129 0.8084 0.8046
3595.000000 0.8008 0.7968 0.7928 0.7891 0.7865
3590.000000 0.7837 0.7812 0.7786 0.7759 0.7734
3585.000000 0.7708 0.7682 0.7654 0.7629 0.7599
3580.000000 0.7564 0.7531 0.7495 0.7462 0.7424
3575.000000 0.7381 0.7342 0.7300 0.7258 0.7214
3570.000000 0.7167 0.7119 0.7071 0.7024 0.6988
3565.000000 0.6971 0.6954 0.6939 0.6922 0.6905
3560.000000 0.6890 0.6873 0.6856 0.6839 0.6823
3555.000000 0.6806 0.6789 0.6770 0.6754 0.6736
3550.000000 0.6715 0.6691 0.6668 0.6646 0.6623
3545.000000 0.6600 0.6578 0.6555 0.6533 0.6510
3540.000000 0.6486 0.6460 0.6436 0.6411 0.6386
3535.000000 0.6361 0.6337 0.6313 0.6288 0.6265
3530.000000 0.6249 0.6233 0.6215 0.6198 0.6182
3525.000000 0.6166 0.6149 0.6133 0.6115 0.6099
3520.000000 0.6077 0.6056 0.6034 0.6014 0.5992
3515.000000 0.5969 0.5947 0.5924 0.5901 0.5880
3510.000000 0.5857 0.5834 0.5811 0.5789 0.5769
3505.000000 0.5752 0.5736 0.5720 0.5705 0.5688
3500.000000 0.5673 0.5657 0.5640 0.5623 0.5608
3495.000000 0.5592 0.5576 0.5560 0.5544 0.5527
3490.000000 0.5511 0.5496 0.5482 0.5466 0.5451
3485.000000 0.5433 0.5417 0.5403 0.5388 0.5372
3480.000000 0.5355 0.5340 0.5325 0.5309 0.5296
3475.000000 0.5284 0.5270 0.5258 0.5246 0.5233
3470.000000 0.5220 0.5210 0.5198 0.5184 0.5168
3465.000000 0.5151 0.5138 0.5122 0.5109 0.5095
3460.000000 0.5083 0.5071 0.5058 0.5051 0.5043
3455.000000 0.5037 0.5030 0.5023 0.5019 0.5016
3450.000000 0.5011 0.5007 0.5003 0.5000 0.4995
3445.000000 0.4992 0.4989 0.4985 0.4982 0.4977
3440.000000 0.4974 0.4970 0.4967 0.4964 0.4961
3435.000000 0.4958 0.4955 0.4954 0.4951 0.4951
3430.000000 0.4949 0.4947 0.4945 0.4944 0.4942
3425.000000 0.4940 0.4938 0.4936 0.4936 0.4934
3420.000000 0.4934 0.4932 0.4931 0.4929 0.4929
3415.000000 0.4927 0.4927 0.4926 0.4924 0.4923
3410.000000 0.4922 0.4922 0.4920 0.4919 0.4919
3405.000000 0.4917 0.4916 0.4916 0.4915 0.4914
3400.000000 0.4913 0.4913 0.4912 0.4912 0.4911
3395.000000 0.4911 0.4910 0.4910 0.4909 0.4917
3390.000000 0.4924 0.4931 0.4940 0.4946 0.4953
3385.000000 0.4960 0.4967 0.4974 0.4986 0.4998
3380.000000 0.5010 0.5022 0.5037 0.5055 0.5073
3375.000000 0.5091 0.5109 0.5127 0.5145 0.5162
3370.000000 0.5182 0.5200 0.5219 0.5238 0.5256
3365.000000 0.5276 0.5294 0.5315 0.5333 0.5353
3360.000000 0.5373 0.5392 0.5411 0.5431 0.5450
3355.000000 0.5470 0.5491 0.5511 0.5531 0.5552
3350.000000 0.5572 0.5592 0.5614 0.5634 0.5655
3345.000000 0.5675 0.5697 0.5717 0.5738 0.5759
3340.000000 0.5781 0.5803 0.5824 0.5853 0.5884
3335.000000 0.5914 0.5946 0.5978 0.6011 0.6044
3330.000000 0.6077 0.6110 0.6146 0.6184 0.6220
3325.000000 0.6257 0.6293 0.6328 0.6360 0.6396
3320.000000 0.6429 0.6451 0.6472 0.6493 0.6514
3315.000000 0.6529 0.6542 0.6553 0.6565 0.6576
3310.000000 0.6582 0.6587 0.6592 0.6600 0.6606
3305.000000 0.6613 0.6619 0.6625 0.6629 0.6633
3300.000000 0.6637 0.6640 0.6642 0.6646 0.6650
3295.000000 0.6653 0.6657 0.6659 0.6662 0.6666
3290.000000 0.6669 0.6671 0.6675 0.6678 0.6682
3285.000000 0.6684 0.6688 0.6690 0.6695 0.6699
3280.000000 0.6703 0.6706 0.6710 0.6714 0.6718
3275.000000 0.6721 0.6725 0.6728 0.6732 0.6736
3270.000000 0.6740 0.6745 0.6749 0.6756 0.6764
3265.000000 0.6771 0.6779 0.6786 0.6795 0.6802
3260.000000 0.6810 0.6817 0.6824 0.6832 0.6839
3255.000000 0.6847 0.6854 0.6862 0.6869 0.6876
3250.000000 0.6885 0.6891 0.6900 0.6908 0.6916
3245.000000 0.6922 0.6929 0.6938 0.6946 0.6955
3240.000000 0.6963 0.6972 0.6981 0.6993 0.7002
3235.000000 0.7015 0.7025 0.7035 0.7047 0.7057
3230.000000 0.7069 0.7080 0.7090 0.7102 0.7114
3225.000000 0.7125 0.7136 0.7146 0.7157 0.7168
3220.000000 0.7180 0.7191 0.7201 0.7214 0.7225
3215.000000 0.7235 0.7246 0.7257 0.7269 0.7281
3210.000000 0.7292 0.7302 0.7317 0.7329 0.7342
3205.000000 0.7354 0.7366 0.7379 0.7391 0.7404
3200.000000 0.7416 0.7429 0.7441 0.7454 0.7464
3195.000000 0.7477 0.7489 0.7502 0.7517 0.7531
3190.000000 0.7546 0.7560 0.7577 0.7592 0.7608
3185.000000 0.7623 0.7638 0.7654 0.7670 0.7684
3180.000000 0.7701 0.7716 0.7732 0.7748 0.7761
3175.000000 0.7772 0.7784 0.7795 0.7807 0.7818
3170.000000 0.7830 0.7840 0.7851 0.7862 0.7873
3165.000000 0.7883 0.7894 0.7905 0.7916 0.7927
3160.000000 0.7938 0.7949 0.7960 0.7971 0.7982
3155.000000 0.7993 0.8003 0.8014 0.8026 0.8036
3150.000000 0.8048 0.8057 0.8069 0.8077 0.8085
3145.000000 0.8094 0.8102 0.8110 0.8119 0.8127
3140.000000 0.8135 0.8143 0.8151 0.8160 0.8168
3135.000000 0.8176 0.8185 0.8193 0.8201 0.8208
3130.000000 0.8218 0.8226 0.8234 0.8243 0.8251
3125.000000 0.8260 0.8268 0.8276 0.8284 0.8291
3120.000000 0.8299 0.8305 0.8314 0.8321 0.8327
3115.000000 0.8334 0.8342 0.8349 0.8355 0.8362
3110.000000 0.8370 0.8377 0.8383 0.8390 0.8397
3105.000000 0.8403 0.8410 0.8417 0.8424 0.8431
3100.000000 0.8438 0.8444 0.8451 0.8458 0.8463
3095.000000 0.8470 0.8475 0.8479 0.8484 0.8488
3090.000000 0.8492 0.8495 0.8501 0.8505 0.8508
3085.000000 0.8513 0.8517 0.8521 0.8525 0.8530
3080.000000 0.8534 0.8538 0.8543 0.8547 0.8551
3075.000000 0.8555 0.8558 0.8563 0.8567 0.8571
3070.000000 0.8574 0.8579 0.8582 0.8586 0.8589
3065.000000 0.8593 0.8596 0.8601 0.8604 0.8607
3060.000000 0.8610 0.8614 0.8617 0.8620 0.8625
3055.000000 0.8629 0.8632 0.8635 0.8639 0.8642
3050.000000 0.8646 0.8649 0.8653 0.8656 0.8658
3045.000000 0.8664 0.8667 0.8671 0.8675 0.8678
3040.000000 0.8681 0.8684 0.8687 0.8690 0.8693
3035.000000 0.8696 0.8699 0.8703 0.8706 0.8709
3030.000000 0.8714 0.8717 0.8720 0.8723 0.8726
3025.000000 0.8729 0.8732 0.8735 0.8738 0.8742
3020.000000 0.8745 0.8748 0.8751 0.8755 0.8758
3015.000000 0.8761 0.8763 0.8764 0.8767 0.8769
3010.000000 0.8771 0.8772 0.8775 0.8777 0.8780
3005.000000 0.8781 0.8783 0.8785 0.8787 0.8789
3000.000000 0.8792 0.8793 0.8795 0.8797 0.8799
2995.000000 0.8801 0.8804 0.8803 0.8802 0.8802
2990.000000 0.8803 0.8804 0.8803 0.8803 0.8804
2985.000000 0.8803 0.8804 0.8803 0.8803 0.8804
2980.000000 0.8803 0.8803 0.8802 0.8803 0.8803
2975.000000 0.8802 0.8803 0.8802 0.8802 0.8801
2970.000000 0.8802 0.8802 0.8801 0.8801 0.8800
2965.000000 0.8800 0.8800 0.8799 0.8800 0.8799
2960.000000 0.8799 0.8798 0.8798 0.8798 0.8797
2955.000000 0.8797 0.8796 0.8796 0.8795 0.8794
2950.000000 0.8794 0.8793 0.8795 0.8794 0.8794
2945.000000 0.8793 0.8793 0.8792 0.8792 0.8792
2940.000000 0.8791 0.8791 0.8790 0.8790 0.8789
2935.000000 0.8790 0.8790 0.8789 0.8789 0.8788
2930.000000 0.8789 0.8788 0.8789 0.8789 0.8789
2925.000000 0.8790 0.8791 0.8791 0.8792 0.8793
2920.000000 0.8793 0.8794 0.8794 0.8795 0.8795
2915.000000 0.8795 0.8796 0.8797 0.8797 0.8798
2910.000000 0.8799 0.8799 0.8800 0.8800 0.8801
2905.000000 0.8802 0.8802 0.8803 0.8804 0.8804
2900.000000 0.8805 0.8806 0.8806 0.8807 0.8807
2895.000000 0.8808 0.8809 0.8810 0.8812 0.8813
2890.000000 0.8815 0.8816 0.8818 0.8820 0.8821
2885.000000 0.8822 0.8824 0.8825 0.8827 0.8829
2880.000000 0.8831 0.8832 0.8834 0.8836 0.8837
2875.000000 0.8839 0.8839 0.8841 0.8843 0.8845
2870.000000 0.8847 0.8848 0.8850 0.8852 0.8853
2865.000000 0.8855 0.8857 0.8858 0.8860 0.8862
2860.000000 0.8863 0.8865 0.8867 0.8868 0.8870
2855.000000 0.8871 0.8872 0.8874 0.8876 0.8877
2850.000000 0.8879 0.8882 0.8883 0.8885 0.8886
2845.000000 0.8887 0.8889 0.8891 0.8892 0.8894
2840.000000 0.8896 0.8898 0.8900 0.8903 0.8904
2835.000000 0.8906 0.8908 0.8910 0.8912 0.8914
2830.000000 0.8916 0.8918 0.8921 0.8922 0.8924
2825.000000 0.8926 0.8927 0.8930 0.8932 0.8934
2820.000000 0.8936 0.8938 0.8939 0.8941 0.8943
2815.000000 0.8943 0.8945 0.8945 0.8947 0.8948
2810.000000 0.8950 0.8951 0.8952 0.8954 0.8955
2805.000000 0.8957 0.8958 0.8959 0.8960 0.8961
2800.000000 0.8963 0.8965 0.8966 0.8968 0.8968
2795.000000 0.8969 0.8968 0.8969 0.8968 0.8968
2790.000000 0.8968 0.8968 0.8967 0.8967 0.8966
2785.000000 0.8965 0.8964 0.8963 0.8964 0.8962
2780.000000 0.8963 0.8962 0.8962 0.8962 0.8962
2775.000000 0.8961 0.8961 0.8960 0.8960 0.8959
2770.000000 0.8960 0.8959 0.8959 0.8958 0.8957
2765.000000 0.8957 0.8956 0.8957 0.8956 0.8958
2760.000000 0.8958 0.8959 0.8961 0.8961 0.8962
2755.000000 0.8963 0.8965 0.8965 0.8967 0.8967
2750.000000 0.8968 0.8968 0.8970 0.8970 0.8972
2745.000000 0.8972 0.8974 0.8974 0.8976 0.8976
2740.000000 0.8978 0.8978 0.8980 0.8981 0.8982
2735.000000 0.8983 0.8984 0.8985 0.8986 0.8986
2730.000000 0.8988 0.8989 0.8990 0.8992 0.8992
2725.000000 0.8994 0.8995 0.8997 0.8998 0.9001
2720.000000 0.9001 0.9003 0.9004 0.9006 0.9007
2715.000000 0.9009 0.9011 0.9011 0.9014 0.9015
2710.000000 0.9017 0.9017 0.9019 0.9020 0.9022
2705.000000 0.9023 0.9026 0.9027 0.9028 0.9029
2700.000000 0.9031 0.9032 0.9034 0.9035 0.9036
2695.000000 0.9038 0.9040 0.9041 0.9043 0.9044
2690.000000 0.9046 0.9047 0.9048 0.9050 0.9051
2685.000000 0.9052 0.9054 0.9056 0.9057 0.9058
2680.000000 0.9059 0.9060 0.9062 0.9064 0.9064
2675.000000 0.9066 0.9067 0.9069 0.9070 0.9071
2670.000000 0.9073 0.9074 0.9076 0.9077 0.9078
2665.000000 0.9079 0.9081 0.9082 0.9084 0.9085
2660.000000 0.9086 0.9088 0.9089 0.9091 0.9092
2655.000000 0.9093 0.9094 0.9096 0.9097 0.9098
2650.000000 0.9100 0.9101 0.9104 0.9105 0.9107
2645.000000 0.9109 0.9111 0.9113 0.9114 0.9116
2640.000000 0.9117 0.9119 0.9121 0.9123 0.9125
2635.000000 0.9126 0.9129 0.9130 0.9132 0.9133
2630.000000 0.9136 0.9137 0.9138 0.9140 0.9142
2625.000000 0.9144 0.9145 0.9147 0.9149 0.9151
2620.000000 0.9153 0.9155 0.9157 0.9158 0.9159
2615.000000 0.9162 0.9163 0.9165 0.9167 0.9168
2610.000000 0.9171 0.9172 0.9175 0.9176 0.9177
2605.000000 0.9179 0.9180 0.9181 0.9183 0.9184
2600.000000 0.9186 0.9187 0.9188 0.9190 0.9191
2595.000000 0.9191 0.9193 0.9194 0.9196 0.9197
2590.000000 0.9198 0.9199 0.9200 0.9201 0.9203
2585.000000 0.9204 0.9205 0.9206 0.9208 0.9209
2580.000000 0.9211 0.9212 0.9214 0.9214 0.9215
2575.000000 0.9217 0.9219 0.9220 0.9222 0.9223
2570.000000 0.9224 0.9225 0.9226 0.9226 0.9227
2565.000000 0.9226 0.9228 0.9229 0.9229 0.9230
2560.000000 0.9231 0.9231 0.9231 0.9233 0.9233
2555.000000 0.9233 0.9235 0.9235 0.9235 0.9237
2550.000000 0.9237 0.9238 0.9239 0.9240 0.9240
2545.000000 0.9240 0.9241 0.9241 0.9242 0.9244
2540.000000 0.9244 0.9244 0.9246 0.9246 0.9246
2535.000000 0.9247 0.9247 0.9247 0.9249 0.9249
2530.000000 0.9249 0.9249 0.9250 0.9250 0.9251
2525.000000 0.9252 0.9252 0.9253 0.9254 0.9254
2520.000000 0.9254 0.9254 0.9256 0.9256 0.9256
2515.000000 0.9257 0.9257 0.9257 0.9259 0.9259
2510.000000 0.9259 0.9259 0.9260 0.9261 0.9261
2505.000000 0.9263 0.9263 0.9263 0.9262 0.9263
2500.000000 0.9263 0.9263 0.9263 0.9263 0.9263
2495.000000 0.9264 0.9263 0.9263 0.9263 0.9264
2490.000000 0.9264 0.9263 0.9264 0.9263 0.9263
2485.000000 0.9263 0.9264 0.9264 0.9264 0.9264
2480.000000 0.9264 0.9264 0.9264 0.9265 0.9264
2475.000000 0.9264 0.9264 0.9264 0.9264 0.9264
2470.000000 0.9265 0.9264 0.9263 0.9264 0.9265
2465.000000 0.9264 0.9265 0.9267 0.9266 0.9265
2460.000000 0.9265 0.9267 0.9267 0.9267 0.9267
2455.000000 0.9268 0.9267 0.9267 0.9267 0.9268
2450.000000 0.9269 0.9269 0.9268 0.9269 0.9269
2445.000000 0.9269 0.9270 0.9269 0.9270 0.9269
2440.000000 0.9271 0.9270 0.9270 0.9271 0.9271
2435.000000 0.9272 0.9272 0.9274 0.9276 0.9278
2430.000000 0.9279 0.9280 0.9281 0.9283 0.9285
2425.000000 0.9286 0.9286 0.9289 0.9290 0.9293
2420.000000 0.9293 0.9295 0.9296 0.9297 0.9300
2415.000000 0.9301 0.9303 0.9304 0.9305 0.9307
2410.000000 0.9307 0.9309 0.9310 0.9312 0.9314
2405.000000 0.9315 0.9316 0.9318 0.9319 0.9320
2400.000000 0.9322 0.9323 0.9324 0.9325 0.9326
2395.000000 0.9327 0.9328 0.9329 0.9331 0.9332
2390.000000 0.9333 0.9334 0.9335 0.9335 0.9336
2385.000000 0.9337 0.9337 0.9339 0.9339 0.9339
2380.000000 0.9340 0.9340 0.9341 0.9340 0.9342
2375.000000 0.9342 0.9343 0.9343 0.9344 0.9345
2370.000000 0.9344 0.9345 0.9345 0.9346 0.9347
2365.000000 0.9348 0.9347 0.9346 0.9346 0.9345
2360.000000 0.9344 0.9344 0.9344 0.9343 0.9342
2355.000000 0.9341 0.9341 0.9339 0.9338 0.9338
2350.000000 0.9338 0.9337 0.9336 0.9335 0.9335
2345.000000 0.9333 0.9333 0.9332 0.9332 0.9331
2340.000000 0.9331 0.9331 0.9330 0.9330 0.9331
2335.000000 0.9332 0.9331 0.9331 0.9332 0.9332
2330.000000 0.9331 0.9331 0.9332 0.9332 0.9334
2325.000000 0.9334 0.9333 0.9333 0.9333 0.9333
2320.000000 0.9334 0.9334 0.9336 0.9337 0.9339
2315.000000 0.9341 0.9343 0.9344 0.9346 0.9349
2310.000000 0.9351 0.9353 0.9355 0.9357 0.9359
2305.000000 0.9362 0.9364 0.9365 0.9367 0.9368
2300.000000 0.9370 0.9372 0.9376 0.9378 0.9379
2295.000000 0.9381 0.9384 0.9385 0.9388 0.9388
2290.000000 0.9390 0.9393 0.9395 0.9397 0.9398
2285.000000 0.9400 0.9403 0.9405 0.9407 0.9409
2280.000000 0.9409 0.9412 0.9411 0.9409 0.9409
2275.000000 0.9407 0.9405 0.9403 0.9404 0.9402
2270.000000 0.9401 0.9399 0.9398 0.9396 0.9395
2265.000000 0.9393 0.9394 0.9392 0.9391 0.9389
2260.000000 0.9389 0.9388 0.9387 0.9385 0.9384
2255.000000 0.9382 0.9381 0.9379 0.9379 0.9378
2250.000000 0.9376 0.9374 0.9374 0.9374 0.9373
2245.000000 0.9371 0.9370 0.9371 0.9369 0.9369
2240.000000 0.9368 0.9367 0.9367 0.9366 0.9365
2235.000000 0.9364 0.9363 0.9363 0.9362 0.9361
2230.000000 0.9360 0.9359 0.9360 0.9359 0.9358
2225.000000 0.9357 0.9356 0.9356 0.9355 0.9354
2220.000000 0.9355 0.9355 0.9355 0.9355 0.9355
2215.000000 0.9356 0.9355 0.9356 0.9354 0.9355
2210.000000 0.9354 0.9355 0.9355 0.9357 0.9357
2205.000000 0.9357 0.9356 0.9356 0.9357 0.9358
2200.000000 0.9360 0.9362 0.9364 0.9365 0.9367
2195.000000 0.9368 0.9370 0.9373 0.9375 0.9376
2190.000000 0.9377 0.9379 0.9381 0.9383 0.9385
2185.000000 0.9388 0.9390 0.9392 0.9394 0.9395
2180.000000 0.9397 0.9398 0.9399 0.9398 0.9397
2175.000000 0.9397 0.9396 0.9395 0.9395 0.9395
2170.000000 0.9394 0.9393 0.9393 0.9392 0.9391
2165.000000 0.9392 0.9391 0.9390 0.9389 0.9389
2160.000000 0.9389 0.9388 0.9388 0.9387 0.9387
2155.000000 0.9386 0.9385 0.9386 0.9386 0.9386
2150.000000 0.9384 0.9383 0.9383 0.9384 0.9383
2145.000000 0.9382 0.9382 0.9383 0.9383 0.9383
2140.000000 0.9382 0.9383 0.9383 0.9383 0.9383
2135.000000 0.9383 0.9384 0.9384 0.9382 0.9383
2130.000000 0.9384 0.9384 0.9385 0.9384 0.9385
2125.000000 0.9385 0.9384 0.9385 0.9384 0.9385
2120.000000 0.9384 0.9386 0.9386 0.9386 0.9385
2115.000000 0.9385 0.9384 0.9383 0.9381 0.9380
2110.000000 0.9379 0.9379 0.9378 0.9377 0.9376
2105.000000 0.9375 0.9375 0.9373 0.9372 0.9371
2100.000000 0.9370 0.9370 0.9369 0.9367 0.9367
2095.000000 0.9366 0.9365 0.9364 0.9362 0.9360
2090.000000 0.9359 0.9358 0.9357 0.9355 0.9354
2085.000000 0.9353 0.9351 0.9349 0.9349 0.9348
2080.000000 0.9348 0.9349 0.9347 0.9347 0.9346
2075.000000 0.9347 0.9348 0.9347 0.9348 0.9348
2070.000000 0.9348 0.9348 0.9348 0.9348 0.9349
2065.000000 0.9349 0.9349 0.9349 0.9349 0.9350
2060.000000 0.9350 0.9350 0.9351 0.9351 0.9352
2055.000000 0.9354 0.9355 0.9358 0.9360 0.9361
2050.000000 0.9363 0.9365 0.9367 0.9369 0.9372
2045.000000 0.9374 0.9376 0.9378 0.9382 0.9384
2040.000000 0.9386 0.9389 0.9391 0.9394 0.9398
2035.000000 0.9398 0.9400 0.9401 0.9401 0.9400
2030.000000 0.9401 0.9402 0.9401 0.9402 0.9402
2025.000000 0.9403 0.9403 0.9404 0.9403 0.9403
2020.000000 0.9401 0.9400 0.9400 0.9399 0.9399
2015.000000 0.9398 0.9397 0.9396 0.9396 0.9394
2010.000000 0.9393 0.9394 0.9394 0.9394 0.9395
2005.000000 0.9394 0.9395 0.9395 0.9396 0.9397
2000.000000 0.9399 0.9399 0.9400 0.9401 0.9401
1995.000000 0.9401 0.9402 0.9403 0.9404 0.9405
1990.000000 0.9406 0.9408 0.9410 0.9411 0.9413
1985.000000 0.9416 0.9418 0.9419 0.9421 0.9424
1980.000000 0.9427 0.9431 0.9432 0.9436 0.9438
1975.000000 0.9442 0.9445 0.9448 0.9451 0.9454
1970.000000 0.9457 0.9459 0.9463 0.9465 0.9469
1965.000000 0.9471 0.9471 0.9470 0.9469 0.9467
1960.000000 0.9466 0.9464 0.9463 0.9462 0.9461
1955.000000 0.9459 0.9458 0.9457 0.9456 0.9455
1950.000000 0.9454 0.9452 0.9451 0.9450 0.9449
1945.000000 0.9448 0.9447 0.9445 0.9444 0.9442
1940.000000 0.9442 0.9442 0.9441 0.9441 0.9441
1935.000000 0.9441 0.9440 0.9440 0.9440 0.9440
1930.000000 0.9440 0.9439 0.9439 0.9440 0.9439
1925.000000 0.9438 0.9438 0.9439 0.9439 0.9438
1920.000000 0.9438 0.9438 0.9438 0.9438 0.9438
1915.000000 0.9437 0.9437 0.9437 0.9437 0.9437
1910.000000 0.9437 0.9437 0.9436 0.9436 0.9435
1905.000000 0.9437 0.9437 0.9436 0.9437 0.9437
1900.000000 0.9437 0.9437 0.9438 0.9439 0.9439
1895.000000 0.9440 0.9440 0.9439 0.9440 0.9441
1890.000000 0.9441 0.9441 0.9442 0.9442 0.9442
1885.000000 0.9442 0.9442 0.9443 0.9442 0.9443
1880.000000 0.9444 0.9443 0.9444 0.9444 0.9445
1875.000000 0.9446 0.9446 0.9447 0.9447 0.9446
1870.000000 0.9447 0.9446 0.9448 0.9449 0.9449
1865.000000 0.9448 0.9449 0.9449 0.9449 0.9450
1860.000000 0.9451 0.9451 0.9451 0.9452 0.9452
1855.000000 0.9453 0.9453 0.9453 0.9453 0.9453
1850.000000 0.9454 0.9453 0.9454 0.9454 0.9454
1845.000000 0.9454 0.9455 0.9454 0.9455 0.9456
1840.000000 0.9457 0.9460 0.9461 0.9462 0.9464
1835.000000 0.9464 0.9465 0.9467 0.9468 0.9469
1830.000000 0.9470 0.9471 0.9471 0.9470 0.9471
1825.000000 0.9470 0.9471 0.9470 0.9470 0.9471
1820.000000 0.9470 0.9470 0.9469 0.9468 0.9468
1815.000000 0.9467 0.9466 0.9464 0.9464 0.9463
1810.000000 0.9462 0.9461 0.9460 0.9460 0.9459
1805.000000 0.9458 0.9457 0.9456 0.9456 0.9455
1800.000000 0.9454 0.9453 0.9452 0.9451 0.9449
1795.000000 0.9449 0.9448 0.9446 0.9445 0.9443
1790.000000 0.9441 0.9440 0.9438 0.9436 0.9434
1785.000000 0.9432 0.9430 0.9427 0.9425 0.9423
1780.000000 0.9422 0.9420 0.9418 0.9416 0.9414
1775.000000 0.9411 0.9410 0.9407 0.9405 0.9404
1770.000000 0.9401 0.9399 0.9397 0.9395 0.9392
1765.000000 0.9390 0.9388 0.9385 0.9383 0.9382
1760.000000 0.9379 0.9377 0.9374 0.9372 0.9370
1755.000000 0.9367 0.9366 0.9363 0.9361 0.9359
1750.000000 0.9356 0.9353 0.9351 0.9348 0.9346
1745.000000 0.9344 0.9341 0.9341 0.9341 0.9341
1740.000000 0.9341 0.9340 0.9339 0.9326 0.9337
1735.000000 0.9337 0.9335 0.9333 0.9331 0.9325
1730.000000 0.9321 0.9316 0.9310 0.9305 0.9299
1725.000000 0.9296 0.9291 0.9287 0.9282 0.9277
1720.000000 0.9272 0.9267 0.9262 0.9257 0.9252
1715.000000 0.9247 0.9243 0.9238 0.9232 0.9225
1710.000000 0.9221 0.9215 0.9208 0.9201 0.9195
1705.000000 0.9188 0.9181 0.9175 0.9167 0.9155
1700.000000 0.9142 0.9128 0.9111 0.9096 0.9080
1695.000000 0.9059 0.9037 0.9016 0.8990 0.8963
1690.000000 0.8936 0.8908 0.8878 0.8849 0.8819
1685.000000 0.8789 0.8757 0.8728 0.8698 0.8667
1680.000000 0.8637 0.8608 0.8577 0.8546 0.8518
1675.000000 0.8488 0.8459 0.8429 0.8398 0.8369
1670.000000 0.8339 0.8310 0.8279 0.8250 0.8219
1665.000000 0.8187 0.8157 0.8126 0.8095 0.8063
1660.000000 0.8020 0.7975 0.7929 0.7885 0.7840
1655.000000 0.7795 0.7750 0.7705 0.7663 0.7631
1650.000000 0.7600 0.7572 0.7541 0.7511 0.7481
1645.000000 0.7451 0.7421 0.7388 0.7337 0.7274
1640.000000 0.7207 0.7135 0.6996 0.6725 0.6657
1635.000000 0.6588 0.6519 0.6449 0.6380 0.6312
1630.000000 0.6242 0.6172 0.6103 0.6033 0.5964
1625.000000 0.5893 0.5824 0.5760 0.5720 0.5674
1620.000000 0.5696 0.5693 0.5691 0.5697 0.5703
1615.000000 0.5708 0.5724 0.5746 0.5774 0.5802
1610.000000 0.5835 0.5869 0.5905 0.5950 0.6000
1605.000000 0.6050 0.6112 0.6182 0.6252 0.6323
1600.000000 0.6393 0.6464 0.6535 0.6607 0.6678
1595.000000 0.6749 0.6800 0.6815 0.6819 0.6812
1590.000000 0.6805 0.6730 0.6619 0.6508 0.6396
1585.000000 0.6286 0.6174 0.6062 0.5950 0.5839
1580.000000 0.5727 0.5614 0.5502 0.5390 0.5277
1575.000000 0.5164 0.5051 0.4938 0.4825 0.4715
1570.000000 0.4624 0.4640 0.4637 0.4636 0.4636
1565.000000 0.4644 0.4659 0.4682 0.4727 0.4882
1560.000000 0.5114 0.5347 0.5580 0.5815 0.6030
1555.000000 0.6138 0.6197 0.6251 0.6303 0.6344
1550.000000 0.6383 0.6422 0.6467 0.6514 0.6564
1545.000000 0.6609 0.6651 0.6705 0.6819 0.6972
1540.000000 0.7126 0.7280 0.7434 0.7584 0.7668
1535.000000 0.7689 0.7696 0.7698 0.7700 0.7701
1530.000000 0.7699 0.7695 0.7685 0.7673 0.7654
1525.000000 0.7633 0.7610 0.7576 0.7528 0.7479
1520.000000 0.7406 0.7306 0.7210 0.7121 0.7032
1515.000000 0.6931 0.6808 0.6677 0.6529 0.6205
1510.000000 0.5823 0.5525 0.5227 0.4928 0.4631
1505.000000 0.4433 0.4381 0.4333 0.4290 0.4246
1500.000000 0.4199 0.4160 0.4131 0.4116 0.4107
1495.000000 0.4103 0.4094 0.4096 0.4118 0.4182
1490.000000 0.4264 0.4348 0.4550 0.4814 0.4939
1485.000000 0.5064 0.5189 0.5314 0.5439 0.5565
1480.000000 0.5690 0.5815 0.5942 0.6069 0.6195
1475.000000 0.6322 0.6449 0.6576 0.6703 0.6831
1470.000000 0.7006 0.7023 0.7034 0.7039 0.7037
1465.000000 0.7030 0.7018 0.6999 0.6976 0.6940
1460.000000 0.6864 0.6787 0.6709 0.6632 0.6555
1455.000000 0.6490 0.6479 0.6474 0.6477 0.6508
1450.000000 0.6587 0.6668 0.6750 0.6831 0.6913
1445.000000 0.6994 0.7076 0.7157 0.7215 0.7251
1440.000000 0.7256 0.7263 0.7260 0.7242 0.7144
1435.000000 0.7016 0.6886 0.6756 0.6627 0.6497
1430.000000 0.6367 0.6237 0.6120 0.6010 0.5898
1425.000000 0.5834 0.5775 0.5720 0.5679 0.5658
1420.000000 0.5636 0.5614 0.5589 0.5600 0.5609
1415.000000 0.5632 0.5680 0.5771 0.5895 0.6019
1410.000000 0.6142 0.6266 0.6390 0.6514 0.6639
1405.000000 0.6764 0.6888 0.7014 0.7138 0.7265
1400.000000 0.7390 0.7516 0.7643 0.7768 0.7895
1395.000000 0.8022 0.8131 0.8181 0.8206 0.8214
1390.000000 0.8220 0.8224 0.8227 0.8230 0.8242
1385.000000 0.8267 0.8298 0.8334 0.8380 0.8429
1380.000000 0.8486 0.8540 0.8581 0.8616 0.8641
1375.000000 0.8664 0.8683 0.8704 0.8724 0.8746
1370.000000 0.8768 0.8789 0.8804 0.8814 0.8824
1365.000000 0.8828 0.8822 0.8835 0.8839 0.8839
1360.000000 0.8837 0.8835 0.8835 0.8827 0.8820
1355.000000 0.8810 0.8794 0.8778 0.8757 0.8725
1350.000000 0.8691 0.8612 0.8500 0.8366 0.8227
1345.000000 0.8113 0.8058 0.8010 0.7965 0.7909
1340.000000 0.7845 0.7779 0.7712 0.7634 0.7529
1335.000000 0.7312 0.7103 0.6975 0.6846 0.6714
1330.000000 0.6580 0.6448 0.6314 0.6181 0.6061
1325.000000 0.6005 0.5974 0.5952 0.5939 0.5932
1320.000000 0.5926 0.5918 0.5907 0.5894 0.5877
1315.000000 0.5859 0.5828 0.5793 0.5746 0.5702
1310.000000 0.5648 0.5610 0.5588 0.5594 0.5608
1305.000000 0.5679 0.5800 0.5908 0.5997 0.6082
1300.000000 0.6161 0.6237 0.6299 0.6362 0.6423
1295.000000 0.6487 0.6551 0.6613 0.6674 0.6729
1290.000000 0.6782 0.6834 0.6885 0.6909 0.6924
1285.000000 0.6932 0.6933 0.6933 0.6932 0.6927
1280.000000 0.6923 0.6918 0.6910 0.6901 0.6879
1275.000000 0.6842 0.6797 0.6745 0.6684 0.6623
1270.000000 0.6557 0.6487 0.6389 0.6275 0.6192
1265.000000 0.6108 0.6024 0.5941 0.5857 0.5773
1260.000000 0.5688 0.5604 0.5519 0.5434 0.5350
1255.000000 0.5264 0.5179 0.5093 0.5008 0.4922
1250.000000 0.4836 0.4750 0.4664 0.4577 0.4491
1245.000000 0.4405 0.4341 0.4258 0.4137 0.4037
1240.000000 0.3981 0.3931 0.3896 0.3871 0.3846
1235.000000 0.3830 0.3816 0.3802 0.3792 0.3779
1230.000000 0.3779 0.3776 0.3777 0.3782 0.3797
1225.000000 0.3811 0.3826 0.3843 0.3860 0.3877
1220.000000 0.3895 0.3913 0.3930 0.3943 0.3956
1215.000000 0.3966 0.3969 0.3972 0.3979 0.3976
1210.000000 0.3975 0.3975 0.3971 0.3969 0.3966
1205.000000 0.3961 0.3952 0.3943 0.3934 0.3926
1200.000000 0.3916 0.3906 0.3896 0.3886 0.3877
1195.000000 0.3867 0.3859 0.3851 0.3845 0.3842
1190.000000 0.3839 0.3836 0.3836 0.3835 0.3819
1185.000000 0.3833 0.3836 0.3841 0.3846 0.3852
1180.000000 0.3858 0.3867 0.3879 0.3897 0.3924
1175.000000 0.3957 0.3990 0.4027 0.4066 0.4108
1170.000000 0.4157 0.4207 0.4264 0.4328 0.4375
1165.000000 0.4414 0.4466 0.4453 0.4467 0.4482
1160.000000 0.4486 0.4476 0.4471 0.4467 0.4466
1155.000000 0.4479 0.4472 0.4487 0.4509 0.4543
1150.000000 0.4587 0.4649 0.4721 0.4798 0.4882
1145.000000 0.4987 0.5116 0.5231 0.5349 0.5466
1140.000000 0.5583 0.5702 0.5820 0.5938 0.6057
1135.000000 0.6176 0.6295 0.6414 0.6534 0.6654
1130.000000 0.6774 0.6894 0.7012 0.7069 0.7109
1125.000000 0.7141 0.7159 0.7182 0.7171 0.7135
1120.000000 0.6962 0.6775 0.6587 0.6399 0.6210
1115.000000 0.6021 0.5876 0.5824 0.5687 0.5727
1110.000000 0.5708 0.5722 0.5772 0.5889 0.6014
1105.000000 0.6139 0.6264 0.6390 0.6517 0.6644
1100.000000 0.6769 0.6896 0.7023 0.7146 0.7196
1095.000000 0.7244 0.7293 0.7342 0.7379 0.7408
1090.000000 0.7431 0.7448 0.7459 0.7474 0.7469
1085.000000 0.7468 0.7457 0.7443 0.7411 0.7363
1080.000000 0.7240 0.7129 0.7027 0.6878 0.6708
1075.000000 0.6537 0.6241 0.5928 0.5614 0.5300
1070.000000 0.4997 0.4744 0.4549 0.4441 0.4384
1065.000000 0.4331 0.4291 0.4251 0.4209 0.4164
1060.000000 0.4075 0.3992 0.3917 0.3842 0.3780
1055.000000 0.3722 0.3676 0.3630 0.3586 0.3551
1050.000000 0.3529 0.3516 0.3502 0.3491 0.3483
1045.000000 0.3482 0.3481 0.3482 0.3493 0.3511
1040.000000 0.3547 0.3605 0.3689 0.3796 0.3935
1035.000000 0.4100 0.4276 0.4382 0.4443 0.4488
1030.000000 0.4532 0.4583 0.4635 0.4701 0.4788
1025.000000 0.4884 0.4984 0.5116 0.5255 0.5385
1020.000000 0.5553 0.5802 0.5982 0.6129 0.6275
1015.000000 0.6420 0.6567 0.6714 0.6848 0.6947
1010.000000 0.7043 0.7129 0.7216 0.7299 0.7378
1005.000000 0.7455 0.7532 0.7600 0.7670 0.7739
1000.000000 0.7784 0.7822 0.7864 0.7902 0.7939
995.000000 0.7972 0.8005 0.8032 0.8059 0.8087
990.000000 0.8115 0.8156 0.8197 0.8239 0.8282
985.000000 0.8328 0.8374 0.8421 0.8467 0.8504
980.000000 0.8541 0.8578 0.8606 0.8632 0.8657
975.000000 0.8683 0.8708 0.8732 0.8751 0.8766
970.000000 0.8783 0.8799 0.8815 0.8830 0.8840
965.000000 0.8852 0.8863 0.8874 0.8885 0.8897
960.000000 0.8910 0.8923 0.8935 0.8948 0.8961
955.000000 0.8974 0.8985 0.8996 0.9009 0.9021
950.000000 0.9030 0.9037 0.9044 0.9052 0.9061
945.000000 0.9066 0.9071 0.9076 0.9080 0.9084
940.000000 0.9089 0.9090 0.9092 0.9094 0.9095
935.000000 0.9098 0.9099 0.9102 0.9102 0.9103
930.000000 0.9103 0.9096 0.9081 0.9054 0.9035
925.000000 0.9028 0.9030 0.9035 0.9044 0.9056
920.000000 0.9069 0.9081 0.9086 0.9090 0.9104
915.000000 0.9125 0.9145 0.9168 0.9188 0.9205
910.000000 0.9222 0.9237 0.9254 0.9268 0.9280
905.000000 0.9293 0.9305 0.9316 0.9325 0.9335
900.000000 0.9341 0.9349 0.9354 0.9359 0.9360
895.000000 0.9358 0.9356 0.9358 0.9359 0.9348
890.000000 0.9344 0.9332 0.9321 0.9292 0.9268
885.000000 0.9264 0.9258 0.9252 0.9241 0.9212
880.000000 0.9171 0.9127 0.9070 0.8973 0.8845
875.000000 0.8740 0.8651 0.8562 0.8396 0.8218
870.000000 0.8041 0.7881 0.7766 0.7770 0.7772
865.000000 0.7855 0.7992 0.8133 0.8256 0.8368
860.000000 0.8491 0.8582 0.8630 0.8653 0.8675
855.000000 0.8686 0.8699 0.8711 0.8715 0.8719
850.000000 0.8724 0.8730 0.8737 0.8743 0.8750
845.000000 0.8757 0.8765 0.8771 0.8773 0.8775
840.000000 0.8781 0.8787 0.8802 0.8811 0.8831
835.000000 0.8809 0.8800 0.8790 0.8771 0.8744
830.000000 0.8698 0.8645 0.8584 0.8500 0.8386
825.000000 0.8264 0.8082 0.7898 0.7711 0.7543
820.000000 0.7376 0.7146 0.7166 0.7180 0.7233
815.000000 0.7286 0.7330 0.7372 0.7408 0.7436
810.000000 0.7463 0.7522 0.7570 0.7603 0.7633
805.000000 0.7696 0.7788 0.7866 0.7926 0.7986
800.000000 0.8056 0.8125 0.8193 0.8260 0.8310
795.000000 0.8359 0.8397 0.8428 0.8455 0.8481
790.000000 0.8498 0.8501 0.8496 0.8489 0.8513
785.000000 0.8548 0.8554 0.8563 0.8574 0.8583
780.000000 0.8589 0.8594 0.8600 0.8628 0.8686
775.000000 0.8747 0.8802 0.8856 0.8903 0.8944
770.000000 0.8979 0.8997 0.9001 0.8995 0.8987
765.000000 0.9023 0.9056 0.9056 0.9058 0.9059
760.000000 0.9026 0.9016 0.9008 0.9002 0.8989
755.000000 0.8969 0.8943 0.8912 0.8870 0.8826
750.000000 0.8720 0.8601 0.8479 0.8298 0.8120
745.000000 0.7902 0.7659 0.7357 0.7144 0.7033
740.000000 0.6973 0.6979 0.7112 0.7288 0.7459
735.000000 0.7634 0.7779 0.7907 0.7998 0.8071
730.000000 0.8148 0.8190 0.8214 0.8227 0.8195
725.000000 0.8159 0.8145 0.8150 0.8161 0.8178
720.000000 0.8207 0.8263 0.8301 0.8328 0.8342
715.000000 0.8345 0.8367 0.8383 0.8398 0.8406
710.000000 0.8441 0.8402 0.8393 0.8374 0.8349
705.000000 0.8318 0.8284 0.8232 0.8177 0.8116
700.000000 0.8046 0.7961 0.7839 0.7645 0.7308
695.000000 0.7017 0.6757 0.6513 0.6264 0.6015
690.000000 0.5733 0.5551 0.5456 0.5392 0.5385
685.000000 0.5444 0.5655 0.5818 0.6002 0.6191
680.000000 0.6345 0.6500 0.6628 0.6717 0.6779
675.000000 0.6774 0.6777 0.6713 0.6557 0.6351
670.000000 0.6207 0.6032 0.5846 0.5519 0.4852
665.000000 0.4675 0.4516 0.4538 0.4559 0.4625
660.000000 0.4913 0.5216 0.5568 0.5845 0.6084
655.000000 0.6309 0.6512 0.6765
##END=
