##TITLE=SACCHARIN, SOLUBLE
##JCAMP-DX=4.24
$$ By DXEDIT 1.05 (RS McDonald)
##DATA TYPE=INFRARED SPECTRUM
##CLASS=COBLENTZ III
##ORIGIN=DOW CHEMICAL COMPANY
##OWNER=COBLENTZ SOC.
Collection (C) 2018 copyright by the U.S. Secretary of Commerce
on behalf of the United States of America. All rights reserved.
##DATE=1965/11/09
##NAMES=1,2-BENZISOTHIAZOLIN-3-ONE 1,1-DIOXIDE SODIUM SALT DIHYDRATE
##MOLFORM=C7 H4 N Na O3 S  * 2 H2 O
##SOURCE REFERENCE=COBLENTZ NO. 05752
##$NIST ID=B6005752
##$NIST SOURCE=COBLENTZ
##$NIST IMAGE=cob5752
##SPECTROMETER/DATA SYSTEM=BECKMAN IR-9 (GRATING)
##INSTRUMENT PARAMETERS=ORDER CHANGES: 670, 1200, 2000 CM^-^1
##STATE=SOLID (SPLIT MULL)
##SAMPLING PROCEDURE=TRANSMISSION
##RESOLUTION=2
##DATA PROCESSING=DIGITIZED BY COBLENTZ SOCIETY (BATCH I) FROM HARD COPY
##XUNITS=1/CM
##YUNITS=TRANSMITTANCE
##XLABEL=Wavenumbers (cm-1)
##YLABEL=% Transmission
##XFACTOR=1
##YFACTOR=1
##DELTAX=1
##FIRSTX=3800
##LASTX=401
##FIRSTY=0.6761
##MAXX=3800
##MINX=401
##MAXY=0.8956
##MINY=0.0232
##NPOINTS=3400
##XYDATA=(X++(Y..Y))
3800.000000 0.6761 0.6762 0.6764 0.6765 0.6768
3795.000000 0.6769 0.6771 0.6774 0.6775 0.6778
3790.000000 0.6780 0.6782 0.6784 0.6786 0.6788
3785.000000 0.6790 0.6792 0.6794 0.6796 0.6798
3780.000000 0.6800 0.6801 0.6801 0.6803 0.6804
3775.000000 0.6805 0.6806 0.6807 0.6808 0.6808
3770.000000 0.6810 0.6811 0.6811 0.6812 0.6814
3765.000000 0.6815 0.6815 0.6817 0.6818 0.6818
3760.000000 0.6819 0.6821 0.6821 0.6822 0.6825
3755.000000 0.6825 0.6826 0.6828 0.6828 0.6830
3750.000000 0.6832 0.6833 0.6834 0.6835 0.6836
3745.000000 0.6837 0.6838 0.6839 0.6841 0.6842
3740.000000 0.6843 0.6845 0.6848 0.6850 0.6853
3735.000000 0.6855 0.6857 0.6858 0.6861 0.6864
3730.000000 0.6867 0.6868 0.6871 0.6874 0.6876
3725.000000 0.6878 0.6881 0.6883 0.6886 0.6888
3720.000000 0.6890 0.6892 0.6894 0.6896 0.6899
3715.000000 0.6901 0.6903 0.6905 0.6907 0.6908
3710.000000 0.6911 0.6912 0.6915 0.6918 0.6919
3705.000000 0.6922 0.6926 0.6931 0.6935 0.6939
3700.000000 0.6943 0.6947 0.6951 0.6955 0.6958
3695.000000 0.6961 0.6965 0.6969 0.6974 0.6978
3690.000000 0.6984 0.6988 0.6993 0.6996 0.7000
3685.000000 0.7003 0.7006 0.7008 0.7011 0.7015
3680.000000 0.7018 0.7021 0.7025 0.7028 0.7031
3675.000000 0.7034 0.7037 0.7040 0.7044 0.7047
3670.000000 0.7050 0.7053 0.7056 0.7058 0.7061
3665.000000 0.7062 0.7065 0.7068 0.7071 0.7072
3660.000000 0.7075 0.7078 0.7081 0.7083 0.7086
3655.000000 0.7088 0.7091 0.7093 0.7096 0.7097
3650.000000 0.7098 0.7099 0.7100 0.7101 0.7101
3645.000000 0.7103 0.7104 0.7105 0.7107 0.7108
3640.000000 0.7108 0.7110 0.7111 0.7111 0.7112
3635.000000 0.7112 0.7112 0.7112 0.7112 0.7112
3630.000000 0.7112 0.7112 0.7112 0.7111 0.7111
3625.000000 0.7111 0.7111 0.7111 0.7111 0.7110
3620.000000 0.7108 0.7108 0.7108 0.7107 0.7106
3615.000000 0.7105 0.7104 0.7103 0.7103 0.7101
3610.000000 0.7101 0.7099 0.7098 0.7096 0.7094
3605.000000 0.7092 0.7091 0.7089 0.7087 0.7085
3600.000000 0.7083 0.7078 0.7075 0.7071 0.7068
3595.000000 0.7060 0.7051 0.7031 0.7011 0.6983
3590.000000 0.6956 0.6936 0.6917 0.6918 0.6918
3585.000000 0.6919 0.6919 0.6918 0.6918 0.6915
3580.000000 0.6915 0.6911 0.6908 0.6904 0.6900
3575.000000 0.6895 0.6891 0.6886 0.6882 0.6871
3570.000000 0.6861 0.6850 0.6840 0.6828 0.6818
3565.000000 0.6808 0.6797 0.6780 0.6762 0.6745
3560.000000 0.6728 0.6710 0.6692 0.6655 0.6618
3555.000000 0.6582 0.6545 0.6500 0.6455 0.6399
3550.000000 0.6344 0.6207 0.6071 0.5908 0.5745
3545.000000 0.5582 0.5419 0.5255 0.5092 0.4929
3540.000000 0.4766 0.4602 0.4439 0.4289 0.4139
3535.000000 0.4143 0.4147 0.4151 0.4134 0.4185
3530.000000 0.4214 0.4328 0.4443 0.4557 0.4672
3525.000000 0.4786 0.4900 0.5014 0.5129 0.5243
3520.000000 0.5358 0.5472 0.5586 0.5700 0.5815
3515.000000 0.5886 0.5958 0.5989 0.6021 0.6036
3510.000000 0.6051 0.6064 0.6077 0.6087 0.6097
3505.000000 0.6105 0.6112 0.6116 0.6120 0.6121
3500.000000 0.6123 0.6124 0.6126 0.6126 0.6126
3495.000000 0.6125 0.6124 0.6122 0.6142 0.6119
3490.000000 0.6118 0.6116 0.6115 0.6112 0.6112
3485.000000 0.6110 0.6109 0.6104 0.6099 0.6093
3480.000000 0.6088 0.6083 0.6078 0.6073 0.6068
3475.000000 0.6062 0.6057 0.6051 0.6046 0.6037
3470.000000 0.6028 0.6018 0.6009 0.6000 0.5991
3465.000000 0.5981 0.5972 0.5962 0.5953 0.5942
3460.000000 0.5932 0.5919 0.5906 0.5892 0.5879
3455.000000 0.5866 0.5853 0.5840 0.5827 0.5814
3450.000000 0.5801 0.5786 0.5772 0.5757 0.5743
3445.000000 0.5728 0.5712 0.5698 0.5684 0.5669
3440.000000 0.5654 0.5639 0.5625 0.5608 0.5591
3435.000000 0.5572 0.5553 0.5534 0.5515 0.5495
3430.000000 0.5476 0.5457 0.5438 0.5419 0.5400
3425.000000 0.5379 0.5358 0.5336 0.5315 0.5294
3420.000000 0.5273 0.5251 0.5230 0.5209 0.5188
3415.000000 0.5166 0.5145 0.5123 0.5102 0.5081
3410.000000 0.5060 0.5038 0.5017 0.4995 0.4974
3405.000000 0.4953 0.4932 0.4912 0.4892 0.4872
3400.000000 0.4852 0.4832 0.4812 0.4792 0.4772
3395.000000 0.4752 0.4732 0.4712 0.4694 0.4678
3390.000000 0.4662 0.4647 0.4632 0.4616 0.4601
3385.000000 0.4585 0.4570 0.4554 0.4539 0.4523
3380.000000 0.4508 0.4492 0.4477 0.4462 0.4447
3375.000000 0.4433 0.4420 0.4406 0.4392 0.4378
3370.000000 0.4364 0.4350 0.4336 0.4322 0.4309
3365.000000 0.4295 0.4281 0.4267 0.4254 0.4243
3360.000000 0.4232 0.4221 0.4210 0.4198 0.4187
3355.000000 0.4176 0.4165 0.4154 0.4143 0.4137
3350.000000 0.4131 0.4127 0.4124 0.4120 0.4117
3345.000000 0.4114 0.4112 0.4109 0.4107 0.4105
3340.000000 0.4103 0.4102 0.4101 0.4102 0.4105
3335.000000 0.4107 0.4110 0.4112 0.4115 0.4117
3330.000000 0.4119 0.4123 0.4127 0.4131 0.4136
3325.000000 0.4140 0.4145 0.4149 0.4153 0.4157
3320.000000 0.4162 0.4166 0.4171 0.4175 0.4179
3315.000000 0.4182 0.4185 0.4188 0.4192 0.4195
3310.000000 0.4198 0.4200 0.4203 0.4205 0.4208
3305.000000 0.4210 0.4212 0.4215 0.4218 0.4219
3300.000000 0.4221 0.4222 0.4223 0.4224 0.4224
3295.000000 0.4225 0.4225 0.4225 0.4225 0.4218
3290.000000 0.4210 0.4203 0.4196 0.4188 0.4180
3285.000000 0.4175 0.4171 0.4169 0.4168 0.4167
3280.000000 0.4166 0.4164 0.4162 0.4160 0.4160
3275.000000 0.4159 0.4158 0.4156 0.4156 0.4156
3270.000000 0.4157 0.4159 0.4162 0.4164 0.4167
3265.000000 0.4170 0.4173 0.4175 0.4178 0.4183
3260.000000 0.4189 0.4195 0.4202 0.4208 0.4215
3255.000000 0.4221 0.4227 0.4242 0.4257 0.4273
3250.000000 0.4289 0.4309 0.4329 0.4364 0.4399
3245.000000 0.4434 0.4469 0.4524 0.4580 0.4604
3240.000000 0.4629 0.4649 0.4669 0.4689 0.4710
3235.000000 0.4730 0.4751 0.4773 0.4795 0.4817
3230.000000 0.4840 0.4862 0.4886 0.4908 0.4931
3225.000000 0.4956 0.4981 0.5023 0.5066 0.5109
3220.000000 0.5152 0.5179 0.5206 0.5225 0.5244
3215.000000 0.5262 0.5282 0.5301 0.5320 0.5339
3210.000000 0.5359 0.5377 0.5396 0.5410 0.5427
3205.000000 0.5442 0.5458 0.5473 0.5489 0.5504
3200.000000 0.5520 0.5535 0.5551 0.5566 0.5582
3195.000000 0.5597 0.5612 0.5628 0.5644 0.5658
3190.000000 0.5673 0.5687 0.5701 0.5714 0.5728
3185.000000 0.5741 0.5755 0.5768 0.5782 0.5796
3180.000000 0.5810 0.5823 0.5837 0.5851 0.5866
3175.000000 0.5881 0.5896 0.5910 0.5927 0.5942
3170.000000 0.5958 0.5973 0.5988 0.6003 0.6019
3165.000000 0.6034 0.6049 0.6064 0.6080 0.6093
3160.000000 0.6106 0.6118 0.6130 0.6142 0.6155
3155.000000 0.6167 0.6179 0.6191 0.6204 0.6216
3150.000000 0.6228 0.6239 0.6251 0.6262 0.6275
3145.000000 0.6286 0.6298 0.6309 0.6321 0.6326
3140.000000 0.6331 0.6336 0.6342 0.6348 0.6354
3135.000000 0.6359 0.6365 0.6371 0.6377 0.6383
3130.000000 0.6389 0.6391 0.6394 0.6395 0.6396
3125.000000 0.6397 0.6398 0.6398 0.6399 0.6398
3120.000000 0.6393 0.6396 0.6395 0.6392 0.6390
3115.000000 0.6382 0.6374 0.6364 0.6355 0.6343
3110.000000 0.6331 0.6317 0.6304 0.6218 0.6133
3105.000000 0.6041 0.5950 0.5950 0.5943 0.5956
3100.000000 0.5960 0.6003 0.6045 0.6099 0.6153
3095.000000 0.6207 0.6262 0.6281 0.6300 0.6312
3090.000000 0.6326 0.6350 0.6375 0.6408 0.6442
3085.000000 0.6441 0.6440 0.6439 0.6419 0.6431
3080.000000 0.6425 0.6394 0.6364 0.6332 0.6301
3075.000000 0.6285 0.6270 0.6269 0.6268 0.6264
3070.000000 0.6260 0.6246 0.6233 0.6212 0.6194
3065.000000 0.6186 0.6180 0.6175 0.6173 0.6171
3060.000000 0.6169 0.6232 0.6295 0.6370 0.6446
3055.000000 0.6521 0.6596 0.6622 0.6650 0.6660
3050.000000 0.6669 0.6671 0.6675 0.6675 0.6678
3045.000000 0.6680 0.6682 0.6684 0.6686 0.6686
3040.000000 0.6687 0.6686 0.6684 0.6690 0.6696
3035.000000 0.6701 0.6708 0.6715 0.6724 0.6735
3030.000000 0.6746 0.6757 0.6768 0.6780 0.6791
3025.000000 0.6801 0.6812 0.6821 0.6830 0.6830
3020.000000 0.6830 0.6822 0.6817 0.6810 0.6803
3015.000000 0.6814 0.6825 0.6842 0.6860 0.6878
3010.000000 0.6896 0.6914 0.6932 0.6949 0.6967
3005.000000 0.6987 0.7008 0.7028 0.7050 0.7068
3000.000000 0.7086 0.7086 0.7087 0.7087 0.7088
2995.000000 0.7088 0.7088 0.7088 0.7111 0.7086
2990.000000 0.7085 0.7084 0.7083 0.7082 0.7081
2985.000000 0.7080 0.7078 0.7076 0.7075 0.7072
2980.000000 0.7071 0.7068 0.7065 0.7062 0.7061
2975.000000 0.7058 0.7056 0.7054 0.7053 0.7051
2970.000000 0.7051 0.7049 0.7048 0.7047 0.7046
2965.000000 0.7045 0.7044 0.7043 0.7042 0.7041
2960.000000 0.7041 0.7040 0.7039 0.7038 0.7037
2955.000000 0.7034 0.7032 0.7025 0.7021 0.7014
2950.000000 0.7008 0.6997 0.6987 0.6975 0.6965
2945.000000 0.6955 0.6945 0.6935 0.6925 0.6917
2940.000000 0.6910 0.6903 0.6896 0.6890 0.6885
2935.000000 0.6882 0.6880 0.6880 0.6878 0.6880
2930.000000 0.6880 0.6884 0.6887 0.6895 0.6903
2925.000000 0.6911 0.6918 0.6930 0.6941 0.6957
2920.000000 0.6974 0.6990 0.7007 0.7022 0.7039
2915.000000 0.7055 0.7071 0.7086 0.7101 0.7117
2910.000000 0.7133 0.7148 0.7162 0.7178 0.7193
2905.000000 0.7207 0.7221 0.7234 0.7301 0.7261
2900.000000 0.7275 0.7284 0.7294 0.7301 0.7308
2895.000000 0.7315 0.7322 0.7330 0.7338 0.7337
2890.000000 0.7336 0.7335 0.7335 0.7334 0.7333
2885.000000 0.7332 0.7331 0.7330 0.7330 0.7328
2880.000000 0.7326 0.7325 0.7325 0.7324 0.7322
2875.000000 0.7321 0.7321 0.7319 0.7318 0.7318
2870.000000 0.7317 0.7315 0.7315 0.7315 0.7317
2865.000000 0.7317 0.7318 0.7322 0.7355 0.7333
2860.000000 0.7339 0.7348 0.7358 0.7371 0.7384
2855.000000 0.7397 0.7411 0.7422 0.7436 0.7448
2850.000000 0.7461 0.7472 0.7486 0.7498 0.7511
2845.000000 0.7522 0.7536 0.7548 0.7561 0.7571
2840.000000 0.7582 0.7588 0.7595 0.7601 0.7607
2835.000000 0.7612 0.7619 0.7622 0.7625 0.7628
2830.000000 0.7631 0.7633 0.7636 0.7638 0.7641
2825.000000 0.7643 0.7646 0.7648 0.7651 0.7653
2820.000000 0.7656 0.7658 0.7661 0.7662 0.7665
2815.000000 0.7668 0.7672 0.7676 0.7681 0.7685
2810.000000 0.7689 0.7693 0.7697 0.7700 0.7704
2805.000000 0.7708 0.7711 0.7715 0.7719 0.7724
2800.000000 0.7728 0.7732 0.7736 0.7739 0.7743
2795.000000 0.7747 0.7751 0.7754 0.7758 0.7760
2790.000000 0.7762 0.7765 0.7768 0.7771 0.7775
2785.000000 0.7778 0.7781 0.7783 0.7786 0.7789
2780.000000 0.7792 0.7795 0.7798 0.7801 0.7804
2775.000000 0.7807 0.7810 0.7811 0.7814 0.7815
2770.000000 0.7815 0.7817 0.7818 0.7818 0.7819
2765.000000 0.7821 0.7821 0.7822 0.7824 0.7825
2760.000000 0.7826 0.7828 0.7828 0.7830 0.7832
2755.000000 0.7833 0.7834 0.7835 0.7836 0.7837
2750.000000 0.7839 0.7840 0.7841 0.7843 0.7845
2745.000000 0.7847 0.7849 0.7851 0.7853 0.7854
2740.000000 0.7855 0.7856 0.7857 0.7858 0.7858
2735.000000 0.7860 0.7861 0.7861 0.7862 0.7864
2730.000000 0.7865 0.7865 0.7867 0.7868 0.7868
2725.000000 0.7869 0.7871 0.7871 0.7872 0.7874
2720.000000 0.7875 0.7875 0.7876 0.7878 0.7881
2715.000000 0.7883 0.7886 0.7888 0.7890 0.7892
2710.000000 0.7895 0.7897 0.7899 0.7901 0.7904
2705.000000 0.7906 0.7908 0.7910 0.7912 0.7915
2700.000000 0.7917 0.7918 0.7921 0.7924 0.7926
2695.000000 0.7928 0.7931 0.7933 0.7936 0.7938
2690.000000 0.7940 0.7942 0.7944 0.7945 0.7947
2685.000000 0.7948 0.7950 0.7951 0.7953 0.7954
2680.000000 0.7956 0.7957 0.7958 0.7960 0.7961
2675.000000 0.7962 0.7965 0.7965 0.7967 0.7968
2670.000000 0.7969 0.7971 0.7972 0.7974 0.7975
2665.000000 0.7976 0.7978 0.7980 0.7982 0.7983
2660.000000 0.7985 0.7986 0.7988 0.7989 0.7991
2655.000000 0.7992 0.7993 0.7994 0.7996 0.7997
2650.000000 0.7999 0.8000 0.8001 0.8001 0.8004
2645.000000 0.8005 0.8007 0.8008 0.8008 0.8010
2640.000000 0.8011 0.8012 0.8015 0.8015 0.8018
2635.000000 0.8018 0.8021 0.8022 0.8025 0.8026
2630.000000 0.8028 0.8031 0.8033 0.8035 0.8037
2625.000000 0.8039 0.8041 0.8043 0.8045 0.8047
2620.000000 0.8049 0.8051 0.8053 0.8055 0.8057
2615.000000 0.8058 0.8060 0.8061 0.8064 0.8065
2610.000000 0.8068 0.8069 0.8071 0.8074 0.8075
2605.000000 0.8078 0.8080 0.8082 0.8084 0.8086
2600.000000 0.8088 0.8089 0.8091 0.8093 0.8095
2595.000000 0.8097 0.8099 0.8101 0.8103 0.8105
2590.000000 0.8107 0.8108 0.8111 0.8112 0.8115
2585.000000 0.8115 0.8118 0.8118 0.8121 0.8121
2580.000000 0.8124 0.8125 0.8125 0.8126 0.8128
2575.000000 0.8128 0.8131 0.8132 0.8133 0.8134
2570.000000 0.8135 0.8136 0.8138 0.8139 0.8140
2565.000000 0.8141 0.8142 0.8143 0.8145 0.8146
2560.000000 0.8147 0.8148 0.8149 0.8150 0.8151
2555.000000 0.8153 0.8154 0.8155 0.8156 0.8157
2550.000000 0.8158 0.8158 0.8158 0.8158 0.8160
2545.000000 0.8160 0.8161 0.8161 0.8161 0.8161
2540.000000 0.8161 0.8161 0.8162 0.8162 0.8164
2535.000000 0.8164 0.8164 0.8164 0.8165 0.8165
2530.000000 0.8165 0.8165 0.8167 0.8167 0.8167
2525.000000 0.8167 0.8168 0.8168 0.8168 0.8168
2520.000000 0.8169 0.8169 0.8169 0.8169 0.8169
2515.000000 0.8168 0.8167 0.8165 0.8165 0.8162
2510.000000 0.8161 0.8160 0.8158 0.8158 0.8157
2505.000000 0.8155 0.8154 0.8151 0.8151 0.8150
2500.000000 0.8149 0.8148 0.8148 0.8148 0.8148
2495.000000 0.8148 0.8148 0.8148 0.8148 0.8148
2490.000000 0.8148 0.8150 0.8153 0.8156 0.8158
2485.000000 0.8161 0.8165 0.8168 0.8171 0.8174
2480.000000 0.8176 0.8180 0.8183 0.8183 0.8184
2475.000000 0.8184 0.8185 0.8185 0.8185 0.8185
2470.000000 0.8186 0.8186 0.8186 0.8186 0.8186
2465.000000 0.8186 0.8186 0.8186 0.8186 0.8185
2460.000000 0.8185 0.8184 0.8184 0.8184 0.8184
2455.000000 0.8183 0.8183 0.8183 0.8183 0.8182
2450.000000 0.8182 0.8182 0.8182 0.8181 0.8181
2445.000000 0.8180 0.8180 0.8178 0.8178 0.8178
2440.000000 0.8178 0.8172 0.8168 0.8161 0.8154
2435.000000 0.8146 0.8138 0.8135 0.8132 0.8128
2430.000000 0.8125 0.8121 0.8118 0.8115 0.8112
2425.000000 0.8108 0.8106 0.8105 0.8105 0.8105
2420.000000 0.8105 0.8105 0.8105 0.8105 0.8105
2415.000000 0.8104 0.8104 0.8104 0.8104 0.8104
2410.000000 0.8104 0.8104 0.8104 0.8104 0.8105
2405.000000 0.8105 0.8106 0.8106 0.8107 0.8107
2400.000000 0.8108 0.8108 0.8108 0.8108 0.8110
2395.000000 0.8111 0.8111 0.8117 0.8122 0.8128
2390.000000 0.8133 0.8138 0.8143 0.8148 0.8153
2385.000000 0.8158 0.8165 0.8171 0.8176 0.8183
2380.000000 0.8190 0.8196 0.8202 0.8205 0.8208
2375.000000 0.8208 0.8209 0.8209 0.8210 0.8210
2370.000000 0.8211 0.8211 0.8212 0.8212 0.8213
2365.000000 0.8213 0.8214 0.8214 0.8214 0.8213
2360.000000 0.8213 0.8212 0.8212 0.8211 0.8211
2355.000000 0.8210 0.8210 0.8209 0.8209 0.8208
2350.000000 0.8208 0.8207 0.8206 0.8205 0.8205
2345.000000 0.8204 0.8204 0.8203 0.8203 0.8202
2340.000000 0.8202 0.8201 0.8200 0.8199 0.8198
2335.000000 0.8197 0.8196 0.8195 0.8194 0.8193
2330.000000 0.8192 0.8191 0.8190 0.8189 0.8188
2325.000000 0.8187 0.8186 0.8184 0.8183 0.8182
2320.000000 0.8181 0.8180 0.8178 0.8178 0.8176
2315.000000 0.8175 0.8175 0.8174 0.8172 0.8171
2310.000000 0.8171 0.8169 0.8168 0.8168 0.8167
2305.000000 0.8165 0.8165 0.8164 0.8162 0.8161
2300.000000 0.8161 0.8160 0.8158 0.8158 0.8157
2295.000000 0.8156 0.8156 0.8156 0.8156 0.8155
2290.000000 0.8155 0.8155 0.8155 0.8155 0.8155
2285.000000 0.8154 0.8154 0.8154 0.8154 0.8154
2280.000000 0.8154 0.8153 0.8153 0.8153 0.8153
2275.000000 0.8151 0.8151 0.8151 0.8151 0.8151
2270.000000 0.8151 0.8150 0.8150 0.8149 0.8149
2265.000000 0.8149 0.8149 0.8148 0.8148 0.8147
2260.000000 0.8147 0.8146 0.8146 0.8145 0.8145
2255.000000 0.8144 0.8144 0.8144 0.8144 0.8144
2250.000000 0.8145 0.8145 0.8146 0.8146 0.8147
2245.000000 0.8151 0.8157 0.8161 0.8167 0.8171
2240.000000 0.8176 0.8182 0.8187 0.8192 0.8197
2235.000000 0.8202 0.8208 0.8215 0.8221 0.8228
2230.000000 0.8235 0.8242 0.8249 0.8254 0.8260
2225.000000 0.8266 0.8271 0.8277 0.8283 0.8288
2220.000000 0.8294 0.8299 0.8305 0.8310 0.8316
2215.000000 0.8318 0.8321 0.8323 0.8325 0.8328
2210.000000 0.8331 0.8333 0.8336 0.8338 0.8341
2205.000000 0.8343 0.8346 0.8349 0.8352 0.8354
2200.000000 0.8357 0.8359 0.8362 0.8365 0.8368
2195.000000 0.8373 0.8377 0.8380 0.8384 0.8388
2190.000000 0.8392 0.8395 0.8399 0.8403 0.8407
2185.000000 0.8410 0.8414 0.8418 0.8421 0.8425
2180.000000 0.8428 0.8433 0.8437 0.8441 0.8445
2175.000000 0.8449 0.8454 0.8458 0.8462 0.8466
2170.000000 0.8471 0.8475 0.8478 0.8483 0.8488
2165.000000 0.8492 0.8496 0.8500 0.8505 0.8509
2160.000000 0.8513 0.8517 0.8521 0.8525 0.8530
2155.000000 0.8534 0.8539 0.8542 0.8546 0.8549
2150.000000 0.8553 0.8556 0.8560 0.8563 0.8567
2145.000000 0.8570 0.8574 0.8577 0.8581 0.8584
2140.000000 0.8588 0.8591 0.8595 0.8598 0.8601
2135.000000 0.8604 0.8607 0.8610 0.8614 0.8617
2130.000000 0.8620 0.8623 0.8627 0.8630 0.8633
2125.000000 0.8636 0.8639 0.8642 0.8646 0.8649
2120.000000 0.8652 0.8655 0.8658 0.8661 0.8665
2115.000000 0.8668 0.8671 0.8674 0.8677 0.8680
2110.000000 0.8683 0.8686 0.8689 0.8692 0.8695
2105.000000 0.8698 0.8701 0.8704 0.8707 0.8710
2100.000000 0.8713 0.8716 0.8718 0.8721 0.8725
2095.000000 0.8727 0.8730 0.8733 0.8736 0.8739
2090.000000 0.8742 0.8744 0.8747 0.8750 0.8753
2085.000000 0.8756 0.8759 0.8762 0.8765 0.8767
2080.000000 0.8770 0.8773 0.8775 0.8778 0.8782
2075.000000 0.8784 0.8786 0.8787 0.8788 0.8789
2070.000000 0.8791 0.8792 0.8794 0.8796 0.8799
2065.000000 0.8801 0.8803 0.8805 0.8808 0.8810
2060.000000 0.8813 0.8815 0.8818 0.8820 0.8821
2055.000000 0.8823 0.8825 0.8825 0.8827 0.8828
2050.000000 0.8828 0.8830 0.8831 0.8832 0.8833
2045.000000 0.8834 0.8835 0.8836 0.8837 0.8838
2040.000000 0.8839 0.8840 0.8842 0.8843 0.8844
2035.000000 0.8845 0.8846 0.8847 0.8848 0.8849
2030.000000 0.8850 0.8851 0.8852 0.8853 0.8854
2025.000000 0.8854 0.8854 0.8853 0.8853 0.8853
2020.000000 0.8853 0.8853 0.8853 0.8853 0.8853
2015.000000 0.8852 0.8852 0.8851 0.8850 0.8849
2010.000000 0.8848 0.8847 0.8846 0.8835 0.8825
2005.000000 0.8812 0.8800 0.8785 0.8771 0.8768
2000.000000 0.8767 0.8767 0.8768 0.8771 0.8773
1995.000000 0.8774 0.8775 0.8775 0.8777 0.8778
1990.000000 0.8778 0.8780 0.8781 0.8783 0.8784
1985.000000 0.8786 0.8787 0.8789 0.8790 0.8792
1980.000000 0.8792 0.8791 0.8790 0.8790 0.8789
1975.000000 0.8789 0.8789 0.8790 0.8792 0.8793
1970.000000 0.8794 0.8795 0.8799 0.8799 0.8800
1965.000000 0.8800 0.8801 0.8801 0.8796 0.8787
1960.000000 0.8778 0.8765 0.8753 0.8741 0.8733
1955.000000 0.8725 0.8717 0.8718 0.8718 0.8720
1950.000000 0.8721 0.8721 0.8720 0.8720 0.8720
1945.000000 0.8720 0.8718 0.8716 0.8714 0.8709
1940.000000 0.8702 0.8695 0.8689 0.8683 0.8685
1935.000000 0.8686 0.8687 0.8689 0.8690 0.8711
1930.000000 0.8734 0.8756 0.8768 0.8780 0.8792
1925.000000 0.8804 0.8811 0.8816 0.8820 0.8824
1920.000000 0.8828 0.8832 0.8837 0.8841 0.8844
1915.000000 0.8844 0.8845 0.8845 0.8845 0.8845
1910.000000 0.8845 0.8846 0.8846 0.8846 0.8846
1905.000000 0.8847 0.8847 0.8847 0.8846 0.8846
1900.000000 0.8846 0.8846 0.8846 0.8846 0.8846
1895.000000 0.8846 0.8846 0.8846 0.8845 0.8845
1890.000000 0.8845 0.8845 0.8845 0.8845 0.8845
1885.000000 0.8845 0.8845 0.8845 0.8845 0.8844
1880.000000 0.8844 0.8844 0.8844 0.8844 0.8843
1875.000000 0.8842 0.8841 0.8840 0.8839 0.8839
1870.000000 0.8838 0.8837 0.8835 0.8833 0.8831
1865.000000 0.8828 0.8827 0.8825 0.8823 0.8821
1860.000000 0.8821 0.8818 0.8818 0.8817 0.8815
1855.000000 0.8814 0.8813 0.8813 0.8813 0.8813
1850.000000 0.8812 0.8818 0.8827 0.8835 0.8840
1845.000000 0.8838 0.8835 0.8833 0.8831 0.8828
1840.000000 0.8828 0.8827 0.8825 0.8825 0.8825
1835.000000 0.8827 0.8827 0.8828 0.8828 0.8828
1830.000000 0.8828 0.8827 0.8825 0.8825 0.8825
1825.000000 0.8830 0.8843 0.8856 0.8868 0.8882
1820.000000 0.8895 0.8909 0.8913 0.8917 0.8921
1815.000000 0.8925 0.8928 0.8933 0.8937 0.8941
1810.000000 0.8945 0.8949 0.8953 0.8953 0.8954
1805.000000 0.8954 0.8954 0.8954 0.8955 0.8955
1800.000000 0.8955 0.8955 0.8956 0.8956 0.8955
1795.000000 0.8954 0.8953 0.8952 0.8951 0.8950
1790.000000 0.8949 0.8948 0.8947 0.8946 0.8945
1785.000000 0.8944 0.8943 0.8941 0.8939 0.8937
1780.000000 0.8935 0.8933 0.8930 0.8928 0.8927
1775.000000 0.8925 0.8924 0.8921 0.8921 0.8918
1770.000000 0.8918 0.8912 0.8904 0.8895 0.8887
1765.000000 0.8878 0.8870 0.8862 0.8852 0.8842
1760.000000 0.8832 0.8821 0.8812 0.8804 0.8797
1755.000000 0.8789 0.8784 0.8783 0.8781 0.8780
1750.000000 0.8778 0.8777 0.8775 0.8774 0.8773
1745.000000 0.8771 0.8770 0.8770 0.8770 0.8770
1740.000000 0.8771 0.8771 0.8771 0.8771 0.8771
1735.000000 0.8771 0.8771 0.8768 0.8766 0.8764
1730.000000 0.8761 0.8759 0.8756 0.8753 0.8750
1725.000000 0.8743 0.8764 0.8728 0.8721 0.8714
1720.000000 0.8707 0.8700 0.8678 0.8652 0.8625
1715.000000 0.8604 0.8582 0.8555 0.8517 0.8478
1710.000000 0.8428 0.8375 0.8337 0.8298 0.8260
1705.000000 0.8221 0.8168 0.8095 0.8019 0.7932
1700.000000 0.7822 0.7712 0.7458 0.7178 0.7078
1695.000000 0.6981 0.6912 0.6844 0.6775 0.6676
1690.000000 0.6572 0.6468 0.6366 0.6264 0.6160
1685.000000 0.6058 0.5955 0.5865 0.5778 0.5438
1680.000000 0.5291 0.5103 0.4905 0.4382 0.4208
1675.000000 0.4053 0.3948 0.3845 0.3725 0.3646
1670.000000 0.3590 0.3537 0.3500 0.3462 0.3425
1665.000000 0.3388 0.3350 0.3293 0.3212 0.3126
1660.000000 0.2957 0.2584 0.2293 0.1951 0.1629
1655.000000 0.1310 0.0989 0.0669 0.0551 0.0509
1650.000000 0.0488 0.0467 0.0460 0.0459 0.0458
1645.000000 0.0473 0.0516 0.0604 0.1860 0.2299
1640.000000 0.2738 0.3177 0.3616 0.4039 0.4040
1635.000000 0.4042 0.3932 0.3684 0.3436 0.3155
1630.000000 0.3178 0.3588 0.4030 0.4473 0.4915
1625.000000 0.5357 0.5815 0.6160 0.6290 0.6407
1620.000000 0.6521 0.6739 0.6958 0.7095 0.7181
1615.000000 0.7265 0.7325 0.7387 0.7451 0.7511
1610.000000 0.7562 0.7621 0.7658 0.7672 0.7672
1605.000000 0.7651 0.7651 0.7651 0.7621 0.7544
1600.000000 0.7428 0.7140 0.6628 0.6115 0.5603
1595.000000 0.5090 0.4578 0.4064 0.3553 0.3077
1590.000000 0.3057 0.3074 0.3178 0.3644 0.4145
1585.000000 0.4647 0.5149 0.5650 0.6152 0.6654
1580.000000 0.6981 0.7218 0.7333 0.7421 0.7508
1575.000000 0.7576 0.7628 0.7680 0.7731 0.7782
1570.000000 0.7821 0.7856 0.7891 0.7925 0.7958
1565.000000 0.7992 0.8025 0.8045 0.8061 0.8075
1560.000000 0.8078 0.8082 0.8085 0.8089 0.8093
1555.000000 0.8097 0.8101 0.8105 0.8111 0.8122
1550.000000 0.8134 0.8144 0.8162 0.8183 0.8213
1545.000000 0.8244 0.8274 0.8299 0.8321 0.8344
1540.000000 0.8364 0.8373 0.8383 0.8392 0.8401
1535.000000 0.8409 0.8412 0.8414 0.8416 0.8418
1530.000000 0.8418 0.8418 0.8418 0.8417 0.8416
1525.000000 0.8415 0.8414 0.8412 0.8410 0.8407
1520.000000 0.8405 0.8403 0.8401 0.8401 0.8401
1515.000000 0.8401 0.8402 0.8402 0.8403 0.8408
1510.000000 0.8415 0.8421 0.8428 0.8435 0.8442
1505.000000 0.8449 0.8453 0.8458 0.8462 0.8467
1500.000000 0.8471 0.8475 0.8481 0.8483 0.8486
1495.000000 0.8488 0.8491 0.8493 0.8496 0.8497
1490.000000 0.8497 0.8496 0.8494 0.8492 0.8490
1485.000000 0.8489 0.8486 0.8436 0.8473 0.8467
1480.000000 0.8460 0.8454 0.8443 0.8433 0.8423
1475.000000 0.8412 0.8396 0.8378 0.8341 0.8303
1470.000000 0.8237 0.8144 0.8030 0.7903 0.7760
1465.000000 0.6956 0.6750 0.6758 0.6334 0.5691
1460.000000 0.4971 0.4991 0.5439 0.6202 0.6964
1455.000000 0.7556 0.7568 0.7581 0.7606 0.7751
1450.000000 0.7918 0.8031 0.8128 0.8168 0.8200
1445.000000 0.8225 0.8245 0.8264 0.8277 0.8289
1440.000000 0.8302 0.8310 0.8294 0.8314 0.8313
1435.000000 0.8312 0.8308 0.8303 0.8299 0.8294
1430.000000 0.8290 0.8285 0.8277 0.8264 0.8252
1425.000000 0.8240 0.8228 0.8218 0.8207 0.8196
1420.000000 0.8185 0.8175 0.8167 0.8158 0.8151
1415.000000 0.8155 0.8158 0.8161 0.8165 0.8168
1410.000000 0.8172 0.8176 0.8181 0.8186 0.8190
1405.000000 0.8194 0.8198 0.8199 0.8199 0.8198
1400.000000 0.8197 0.8196 0.8195 0.8193 0.8192
1395.000000 0.8191 0.8190 0.8189 0.8185 0.8181
1390.000000 0.8176 0.8171 0.8168 0.8164 0.8158
1385.000000 0.8155 0.8150 0.8144 0.8137 0.8130
1380.000000 0.8124 0.8115 0.8101 0.8088 0.8075
1375.000000 0.8061 0.8048 0.8032 0.8010 0.7988
1370.000000 0.7965 0.7936 0.7869 0.7804 0.7738
1365.000000 0.7642 0.7544 0.7448 0.7333 0.7185
1360.000000 0.7104 0.7028 0.6915 0.6778 0.6718
1355.000000 0.6650 0.6608 0.6562 0.6456 0.5922
1350.000000 0.5812 0.5688 0.5572 0.5502 0.5464
1345.000000 0.5412 0.5403 0.5394 0.5383 0.5373
1340.000000 0.5251 0.4932 0.4612 0.4195 0.4228
1335.000000 0.4218 0.4312 0.4375 0.4640 0.4937
1330.000000 0.5235 0.5533 0.5831 0.6128 0.6425
1325.000000 0.6724 0.7021 0.7401 0.7417 0.7428
1320.000000 0.7425 0.7425 0.7426 0.7418 0.7391
1315.000000 0.7354 0.7317 0.7256 0.7181 0.7096
1310.000000 0.6994 0.6899 0.6807 0.6714 0.6561
1305.000000 0.6320 0.5710 0.5362 0.4907 0.4453
1300.000000 0.3998 0.3544 0.3270 0.3227 0.3174
1295.000000 0.3101 0.3118 0.3116 0.3122 0.3131
1290.000000 0.3140 0.3149 0.3159 0.3176 0.3654
1285.000000 0.4137 0.4621 0.5104 0.5588 0.5679
1280.000000 0.5660 0.5577 0.5237 0.4896 0.4555
1275.000000 0.4214 0.3874 0.3532 0.3192 0.2852
1270.000000 0.2511 0.2170 0.1829 0.1489 0.1148
1265.000000 0.0808 0.0467 0.0264 0.0232 0.0258
1260.000000 0.0265 0.0275 0.0296 0.0353 0.0400
1255.000000 0.0447 0.0495 0.0547 0.0600 0.0652
1250.000000 0.1154 0.1645 0.2138 0.2629 0.3121
1245.000000 0.3612 0.4105 0.4597 0.5088 0.5180
1240.000000 0.5243 0.5321 0.5415 0.5516 0.5619
1235.000000 0.5724 0.5830 0.5933 0.6034 0.6135
1230.000000 0.6514 0.6612 0.6657 0.6676 0.6697
1225.000000 0.6711 0.6721 0.6734 0.6746 0.6758
1220.000000 0.6768 0.6780 0.6791 0.6801 0.6810
1215.000000 0.6818 0.6833 0.6851 0.6868 0.6888
1210.000000 0.6974 0.7033 0.7075 0.7104 0.7133
1205.000000 0.7141 0.7139 0.7137 0.7125 0.7117
1200.000000 0.7111 0.7138 0.7101 0.7101 0.7101
1195.000000 0.7098 0.7085 0.7071 0.7058 0.7042
1190.000000 0.6999 0.6957 0.6899 0.6805 0.6718
1185.000000 0.6643 0.6568 0.6493 0.6362 0.6217
1180.000000 0.6112 0.6037 0.5962 0.5886 0.5793
1175.000000 0.5686 0.5579 0.5462 0.5343 0.5230
1170.000000 0.5128 0.5026 0.3920 0.2776 0.1976
1165.000000 0.2068 0.2120 0.2173 0.1873 0.1476
1160.000000 0.1079 0.0682 0.0285 0.0263 0.0256
1155.000000 0.0250 0.0247 0.0240 0.0242 0.0246
1150.000000 0.0250 0.0254 0.0266 0.0280 0.0293
1145.000000 0.0336 0.0406 0.0492 0.0584 0.0677
1140.000000 0.0863 0.1141 0.1834 0.2407 0.2980
1135.000000 0.3552 0.4124 0.4454 0.4453 0.4453
1130.000000 0.4064 0.3372 0.2678 0.1984 0.1363
1125.000000 0.1384 0.1421 0.1338 0.1499 0.1536
1120.000000 0.1574 0.1687 0.2085 0.2484 0.2882
1115.000000 0.3280 0.3679 0.4077 0.4475 0.4980
1110.000000 0.5343 0.5428 0.5443 0.5447 0.5450
1105.000000 0.5454 0.5457 0.5469 0.5484 0.5501
1100.000000 0.5560 0.5619 0.5679 0.5750 0.5820
1095.000000 0.5910 0.6002 0.6088 0.6158 0.6227
1090.000000 0.6296 0.6369 0.6441 0.6512 0.6558
1085.000000 0.6604 0.6650 0.6695 0.6741 0.6787
1080.000000 0.6832 0.6878 0.6915 0.6951 0.6986
1075.000000 0.7017 0.7044 0.7061 0.7068 0.7072
1070.000000 0.7082 0.7076 0.7075 0.7071 0.7056
1065.000000 0.7039 0.7022 0.6971 0.6901 0.6807
1060.000000 0.6498 0.6112 0.5725 0.5339 0.4952
1055.000000 0.4566 0.4153 0.4170 0.4171 0.4402
1050.000000 0.5042 0.5682 0.6323 0.6962 0.7371
1045.000000 0.7506 0.7599 0.7665 0.7718 0.7762
1040.000000 0.7799 0.7834 0.7857 0.7878 0.7900
1035.000000 0.7915 0.7926 0.7931 0.7932 0.7933
1030.000000 0.7931 0.7919 0.7899 0.7799 0.7592
1025.000000 0.7603 0.7604 0.7621 0.7661 0.7730
1020.000000 0.7895 0.7947 0.7958 0.7968 0.7975
1015.000000 0.7975 0.7975 0.7983 0.7996 0.8008
1010.000000 0.8017 0.8021 0.8026 0.8025 0.8025
1005.000000 0.8019 0.8014 0.8015 0.8015 0.8021
1000.000000 0.8025 0.8026 0.8028 0.8025 0.8015
995.000000 0.8000 0.7961 0.7919 0.7868 0.7798
990.000000 0.7724 0.7628 0.7493 0.7139 0.6786
985.000000 0.6432 0.6191 0.6174 0.6157 0.5423
980.000000 0.4687 0.3950 0.3214 0.2880 0.2691
975.000000 0.2456 0.2244 0.2233 0.2233 0.2767
970.000000 0.3327 0.3887 0.4447 0.5710 0.5567
965.000000 0.5683 0.5687 0.5553 0.5351 0.4970
960.000000 0.4980 0.5001 0.5218 0.5359 0.5350
955.000000 0.5370 0.4887 0.4466 0.4454 0.4609
950.000000 0.5167 0.5726 0.6285 0.6844 0.7195
945.000000 0.7428 0.7581 0.7725 0.7822 0.7886
940.000000 0.7949 0.8008 0.8057 0.8105 0.8154
935.000000 0.8196 0.8223 0.8251 0.8278 0.8306
930.000000 0.8327 0.8343 0.8359 0.8375 0.8392
925.000000 0.8408 0.8418 0.8425 0.8433 0.8441
920.000000 0.8449 0.8455 0.8457 0.8459 0.8461
915.000000 0.8463 0.8465 0.8467 0.8468 0.8468
910.000000 0.8468 0.8468 0.8468 0.8468 0.8467
905.000000 0.8466 0.8465 0.8464 0.8461 0.8474
900.000000 0.8455 0.8453 0.8452 0.8452 0.8445
895.000000 0.8438 0.8448 0.8459 0.8459 0.8459
890.000000 0.8455 0.8450 0.8442 0.8430 0.8412
885.000000 0.8386 0.8340 0.8263 0.8243 0.8287
880.000000 0.8343 0.8414 0.8507 0.8508 0.8512
875.000000 0.8516 0.8521 0.8540 0.8555 0.8563
870.000000 0.8571 0.8591 0.8567 0.8563 0.8560
865.000000 0.8557 0.8553 0.8550 0.8547 0.8544
860.000000 0.8541 0.8538 0.8535 0.8532 0.8528
855.000000 0.8525 0.8523 0.8520 0.8517 0.8514
850.000000 0.8511 0.8508 0.8505 0.8502 0.8498
845.000000 0.8493 0.8487 0.8481 0.8475 0.8468
840.000000 0.8463 0.8457 0.8451 0.8445 0.8439
835.000000 0.8433 0.8427 0.8421 0.8414 0.8407
830.000000 0.8400 0.8393 0.8386 0.8378 0.8371
825.000000 0.8365 0.8358 0.8351 0.8344 0.8337
820.000000 0.8330 0.8323 0.8311 0.8299 0.8287
815.000000 0.8275 0.8262 0.8250 0.8233 0.8214
810.000000 0.8196 0.8176 0.8158 0.8140 0.8119
805.000000 0.8100 0.8080 0.8065 0.8051 0.8037
800.000000 0.8015 0.7994 0.7972 0.7948 0.7906
795.000000 0.7862 0.6928 0.6926 0.6926 0.6996
790.000000 0.7193 0.7389 0.7431 0.7431 0.7404
785.000000 0.7058 0.6681 0.6304 0.5927 0.5550
780.000000 0.5173 0.4796 0.4419 0.4257 0.4257
775.000000 0.4250 0.5034 0.5476 0.5919 0.6362
770.000000 0.6805 0.7247 0.7383 0.7393 0.7397
765.000000 0.7375 0.7351 0.7257 0.6950 0.6643
760.000000 0.6533 0.6498 0.5933 0.4801 0.2897
755.000000 0.2872 0.2875 0.3423 0.4330 0.4345
750.000000 0.1400 0.1390 0.1395 0.1670 0.3188
745.000000 0.4705 0.6223 0.6471 0.6467 0.6462
740.000000 0.6456 0.6438 0.6404 0.6349 0.6281
735.000000 0.6212 0.6123 0.6039 0.5978 0.5923
730.000000 0.5879 0.5836 0.5798 0.5768 0.5752
725.000000 0.5755 0.5737 0.5737 0.5738 0.5762
720.000000 0.5793 0.5819 0.5860 0.5829 0.5810
715.000000 0.5777 0.5676 0.5606 0.5519 0.5310
710.000000 0.4964 0.4935 0.4943 0.5106 0.5385
705.000000 0.5662 0.5942 0.6220 0.6498 0.6776
700.000000 0.6978 0.7037 0.7064 0.7082 0.7094
695.000000 0.7096 0.7101 0.7098 0.7096 0.7075
690.000000 0.7053 0.7028 0.6958 0.6867 0.6755
685.000000 0.6658 0.6503 0.5686 0.4400 0.1729
680.000000 0.1829 0.1743 0.3466 0.4962 0.6456
675.000000 0.7254 0.7399 0.7481 0.7562 0.7622
670.000000 0.7674 0.7725 0.7772 0.7815 0.7848
665.000000 0.7868 0.7888 0.7900 0.7905 0.7908
660.000000 0.7914 0.7918 0.7918 0.7919 0.7921
655.000000 0.7921 0.7919 0.7905 0.7890 0.7875
650.000000 0.7861 0.7831 0.7783 0.7735 0.7672
645.000000 0.7604 0.7526 0.7399 0.7200 0.6987
640.000000 0.6710 0.6287 0.6290 0.6419 0.6601
635.000000 0.6782 0.6961 0.7018 0.7028 0.6947
630.000000 0.6721 0.6498 0.6274 0.6049 0.5825
625.000000 0.5601 0.5376 0.5152 0.4927 0.4703
620.000000 0.4479 0.4254 0.4030 0.3806 0.3647
615.000000 0.3662 0.3878 0.4160 0.4444 0.4728
610.000000 0.5010 0.5294 0.5578 0.5860 0.6144
605.000000 0.6418 0.6469 0.6518 0.6505 0.6504
600.000000 0.6503 0.6478 0.6439 0.6384 0.6329
595.000000 0.6260 0.6185 0.6121 0.6057 0.5939
590.000000 0.5903 0.5876 0.5866 0.5880 0.5854
585.000000 0.5862 0.5869 0.5877 0.5891 0.5905
580.000000 0.5934 0.5962 0.5984 0.5998 0.5998
575.000000 0.5998 0.5998 0.5998 0.5989 0.5978
570.000000 0.5968 0.5958 0.5947 0.5937 0.5927
565.000000 0.5917 0.5908 0.5900 0.5891 0.5883
560.000000 0.5874 0.5864 0.5853 0.5843 0.5832
555.000000 0.5797 0.5752 0.5649 0.5469 0.5106
550.000000 0.4781 0.4456 0.4131 0.3742 0.3756
545.000000 0.4053 0.4422 0.4792 0.4962 0.4939
540.000000 0.4939 0.4748 0.4492 0.4235 0.3979
535.000000 0.3723 0.3353 0.3340 0.3398 0.3687
530.000000 0.3977 0.4266 0.4555 0.4845 0.5134
525.000000 0.5424 0.5712 0.6002 0.6292 0.6581
520.000000 0.6784 0.6789 0.6794 0.6799 0.6805
515.000000 0.6821 0.6836 0.6851 0.6865 0.6894
510.000000 0.6928 0.6964 0.7000 0.7036 0.7072
505.000000 0.7108 0.7146 0.7169 0.7189 0.7207
500.000000 0.7225 0.7231 0.7237 0.7243 0.7248
495.000000 0.7254 0.7258 0.7258 0.7271 0.7261
490.000000 0.7261 0.7262 0.7264 0.7264 0.7265
485.000000 0.7265 0.7267 0.7267 0.7264 0.7261
480.000000 0.7258 0.7255 0.7251 0.7249 0.7245
475.000000 0.7241 0.7237 0.7233 0.7224 0.7201
470.000000 0.7178 0.7161 0.7155 0.7157 0.7158
465.000000 0.7161 0.7161 0.7164 0.7164 0.7162
460.000000 0.7161 0.7161 0.7161 0.7158 0.7155
455.000000 0.7150 0.7145 0.7140 0.7131 0.7118
450.000000 0.7106 0.7094 0.7082 0.7060 0.7037
445.000000 0.7014 0.6990 0.6965 0.6942 0.6918
440.000000 0.6895 0.6871 0.6844 0.6811 0.6778
435.000000 0.6745 0.6711 0.6680 0.6647 0.6608
430.000000 0.6535 0.6461 0.6349 0.6210 0.6079
425.000000 0.5972 0.5866 0.5760 0.5662 0.5566
420.000000 0.5456 0.5294 0.5126 0.4815 0.4497
415.000000 0.4416 0.4335 0.4279 0.4224 0.4215
410.000000 0.4208 0.4201 0.4196 0.4197 0.4198
405.000000 0.4199 0.4200 0.4200 0.4201 0.4202
##END=
