##TITLE=BARIUM CHLORATE
$$ C.P.
##JCAMP-DX=4.24
##DATA TYPE=INFRARED SPECTRUM
##CLASS=COBLENTZ
##ORIGIN=MELLON INSTITUTE
##OWNER=COBLENTZ SOCIETY
Collection (C) 2018 copyright by the U.S. Secretary of Commerce
on behalf of the United States of America. All rights reserved.
##DATE=Not specified, most likely prior to 1970
##MOLFORM=Ba ( Cl O3)2  * H2 O
##SOURCE REFERENCE=COBLENTZ NO. 527
##$NIST ID=B6000527
##$NIST SOURCE=COBLENTZ
##$NIST IMAGE=cob527
##SPECTROMETER/DATA SYSTEM=Not specified, most likely a prism, grating, or hybrid spectrometer.
##STATE=SOLID (NUJOL MULL)
##PATH LENGTH=
$$SPECTRAL CONTAMINATION DUE TO OIL AROUND 2900, 1450, 1380 CM^-^1
##SAMPLING PROCEDURE=TRANSMISSION
##RESOLUTION=4
##DATA PROCESSING=DIGITIZED BY NIST FROM HARD COPY
##XUNITS=MICROMETERS
##YUNITS=TRANSMITTANCE
##XFACTOR=1.000000
##YFACTOR=1
##DELTAX=000.006639
##FIRSTX=2.044
##LASTX=16.0182
##FIRSTY=0.889
##MAXX=16.0182
##MINX=2.044
##MAXY=0.954
##MINY=0.115
##NPOINTS=2106
##XYDATA=(X++(Y..Y))
2.044000 0.8890 0.8890 0.8910 0.8910 0.8920
2.077208 0.8940 0.8940 0.8940 0.8940 0.8960
2.110000 0.8960 0.8960 0.8960 0.8960 0.8970
2.143208 0.8970 0.8970 0.8970 0.8970 0.8990
2.177000 0.8990 0.9010 0.9020 0.9020 0.9020
2.210208 0.9040 0.9040 0.9020 0.9020 0.9020
2.243000 0.9040 0.9040 0.9040 0.9020 0.9020
2.276208 0.9010 0.9010 0.9010 0.9010 0.9010
2.310000 0.8990 0.8990 0.8990 0.8990 0.8990
2.343208 0.8990 0.8990 0.9010 0.9020 0.9020
2.376000 0.9020 0.9020 0.9020 0.9020 0.9020
2.409208 0.9020 0.9020 0.9020 0.9040 0.9040
2.442000 0.9040 0.9040 0.9060 0.9060 0.9060
2.475208 0.9060 0.9060 0.9070 0.9070 0.9110
2.509000 0.9120 0.9140 0.9160 0.9170 0.9170
2.542208 0.9190 0.9190 0.9210 0.9210 0.9190
2.575000 0.9190 0.9190 0.9170 0.9170 0.9170
2.608208 0.9140 0.9140 0.9120 0.9120 0.9140
2.642000 0.9190 0.9220 0.9240 0.9240 0.9220
2.675208 0.9210 0.9170 0.9160 0.9140 0.9140
2.708000 0.9140 0.9120 0.9090 0.9040 0.9010
2.741208 0.8920 0.8840 0.8710 0.8450 0.8140
2.774000 0.7750 0.7350 0.6110 0.4870 0.4380
2.807208 0.3880 0.3860 0.3900 0.5020 0.5470
2.841000 0.5440 0.4970 0.4940 0.4970 0.5520
2.874208 0.6610 0.7010 0.7370 0.7620 0.7820
2.907000 0.7970 0.8120 0.8190 0.8250 0.8300
2.940208 0.8340 0.8370 0.8400 0.8440 0.8470
2.973000 0.8500 0.8540 0.8570 0.8600 0.8650
3.006208 0.8690 0.8710 0.8720 0.8740 0.8760
3.040000 0.8770 0.8810 0.8820 0.8840 0.8860
3.073208 0.8860 0.8870 0.8890 0.8910 0.8910
3.106000 0.8910 0.8910 0.8890 0.8890 0.8840
3.139208 0.8790 0.8790 0.8810 0.8840 0.8870
3.173000 0.8910 0.8920 0.8940 0.8970 0.8970
3.206208 0.8970 0.8970 0.8970 0.8970 0.8970
3.239000 0.8970 0.8960 0.8960 0.8940 0.8940
3.272208 0.8920 0.8910 0.8890 0.8860 0.8790
3.305000 0.8710 0.8600 0.8440 0.8290 0.8120
3.338208 0.7950 0.7180 0.6010 0.5300 0.4580
3.372000 0.4100 0.3930 0.3760 0.3310 0.2940
3.405208 0.2930 0.2960 0.3430 0.3960 0.4790
3.438000 0.5050 0.5300 0.5390 0.5360 0.5300
3.471208 0.5190 0.5100 0.5070 0.5100 0.5510
3.505000 0.5940 0.7150 0.7750 0.8340 0.8490
3.538208 0.8690 0.8810 0.8910 0.8990 0.9010
3.571000 0.9090 0.9120 0.9160 0.9170 0.9190
3.604208 0.9210 0.9210 0.9220 0.9220 0.9220
3.637000 0.9220 0.9220 0.9240 0.9240 0.9260
3.670208 0.9260 0.9260 0.9260 0.9260 0.9260
3.704000 0.9260 0.9260 0.9260 0.9260 0.9270
3.737208 0.9270 0.9270 0.9270 0.9270 0.9270
3.770000 0.9290 0.9290 0.9290 0.9290 0.9290
3.803208 0.9290 0.9290 0.9310 0.9310 0.9310
3.836000 0.9310 0.9310 0.9310 0.9310 0.9310
3.869208 0.9310 0.9310 0.9310 0.9320 0.9320
3.903000 0.9320 0.9310 0.9320 0.9340 0.9340
3.936208 0.9340 0.9340 0.9340 0.9360 0.9360
3.969000 0.9380 0.9390 0.9390 0.9390 0.9390
4.002208 0.9390 0.9390 0.9390 0.9390 0.9390
4.036000 0.9390 0.9390 0.9390 0.9380 0.9380
4.069208 0.9380 0.9380 0.9380 0.9380 0.9380
4.102000 0.9380 0.9380 0.9380 0.9390 0.9380
4.135208 0.9380 0.9380 0.9380 0.9380 0.9380
4.168000 0.9380 0.9380 0.9390 0.9410 0.9410
4.201208 0.9410 0.9390 0.9390 0.9380 0.9360
4.235000 0.9320 0.9310 0.9290 0.9260 0.9240
4.268208 0.9220 0.9220 0.9220 0.9210 0.9210
4.301000 0.9190 0.9190 0.9170 0.9170 0.9170
4.334208 0.9170 0.9170 0.9190 0.9190 0.9210
4.368000 0.9210 0.9210 0.9240 0.9260 0.9290
4.401208 0.9310 0.9320 0.9340 0.9340 0.9360
4.434000 0.9360 0.9360 0.9360 0.9380 0.9380
4.467208 0.9380 0.9380 0.9340 0.9340 0.9320
4.500000 0.9320 0.9320 0.9320 0.9320 0.9340
4.533208 0.9360 0.9360 0.9360 0.9360 0.9360
4.567000 0.9340 0.9340 0.9360 0.9340 0.9340
4.600208 0.9340 0.9320 0.9340 0.9320 0.9320
4.633000 0.9320 0.9320 0.9340 0.9340 0.9340
4.666208 0.9340 0.9340 0.9320 0.9320 0.9320
4.699000 0.9320 0.9320 0.9320 0.9320 0.9320
4.732208 0.9310 0.9320 0.9320 0.9320 0.9310
4.766000 0.9310 0.9310 0.9290 0.9310 0.9310
4.799208 0.9290 0.9290 0.9270 0.9260 0.9270
4.832000 0.9270 0.9270 0.9270 0.9260 0.9260
4.865208 0.9240 0.9240 0.9220 0.9210 0.9190
4.899000 0.9170 0.9160 0.9140 0.9140 0.9140
4.932208 0.9170 0.9190 0.9210 0.9220 0.9240
4.965000 0.9240 0.9260 0.9260 0.9270 0.9270
4.998208 0.9270 0.9270 0.9270 0.9270 0.9270
5.031000 0.9290 0.9290 0.9290 0.9290 0.9290
5.064208 0.9290 0.9290 0.9290 0.9290 0.9290
5.098000 0.9290 0.9290 0.9290 0.9290 0.9290
5.131208 0.9290 0.9290 0.9290 0.9270 0.9270
5.164000 0.9290 0.9270 0.9270 0.9270 0.9260
5.197208 0.9240 0.9220 0.9220 0.9220 0.9210
5.231000 0.9210 0.9210 0.9210 0.9210 0.9210
5.264208 0.9190 0.9170 0.9170 0.9170 0.9170
5.297000 0.9160 0.9160 0.9160 0.9160 0.9140
5.330208 0.9140 0.9120 0.9120 0.9110 0.9090
5.363000 0.9090 0.9070 0.9060 0.9060 0.9040
5.396208 0.9040 0.9040 0.9020 0.9020 0.9020
5.430000 0.9020 0.9060 0.9060 0.9090 0.9120
5.463208 0.9140 0.9140 0.9160 0.9160 0.9170
5.496000 0.9190 0.9170 0.9170 0.9170 0.9160
5.529208 0.9140 0.9120 0.9120 0.9120 0.9120
5.562000 0.9140 0.9160 0.9170 0.9210 0.9220
5.595208 0.9240 0.9260 0.9260 0.9240 0.9260
5.629000 0.9260 0.9290 0.9320 0.9320 0.9340
5.662208 0.9360 0.9380 0.9380 0.9390 0.9390
5.695000 0.9380 0.9390 0.9390 0.9410 0.9440
5.728208 0.9430 0.9440 0.9440 0.9440 0.9460
5.762000 0.9460 0.9460 0.9460 0.9460 0.9440
5.795208 0.9440 0.9430 0.9430 0.9410 0.9410
5.828000 0.9440 0.9460 0.9480 0.9510 0.9490
5.861208 0.9440 0.9410 0.9410 0.9460 0.9490
5.894000 0.9510 0.9510 0.9510 0.9510 0.9490
5.927208 0.9410 0.9410 0.9440 0.9460 0.9490
5.961000 0.9490 0.9460 0.9410 0.9410 0.9430
5.994208 0.9460 0.9480 0.9480 0.9460 0.9480
6.027000 0.9480 0.9480 0.9490 0.9490 0.9480
6.060208 0.9440 0.9410 0.9390 0.9390 0.9390
6.094000 0.9410 0.9430 0.9430 0.9390 0.9390
6.127208 0.9390 0.9390 0.9380 0.9340 0.9290
6.160000 0.9210 0.9040 0.8740 0.8140 0.7920
6.193208 0.7700 0.7110 0.7100 0.7110 0.7480
6.226000 0.7920 0.8470 0.8690 0.8960 0.9090
6.259208 0.9170 0.9260 0.9320 0.9380 0.9410
6.293000 0.9390 0.9410 0.9410 0.9430 0.9430
6.326208 0.9440 0.9440 0.9440 0.9440 0.9410
6.359000 0.9410 0.9410 0.9410 0.9430 0.9430
6.392208 0.9430 0.9430 0.9430 0.9390 0.9380
6.425000 0.9380 0.9380 0.9380 0.9380 0.9390
6.458208 0.9390 0.9410 0.9430 0.9440 0.9440
6.492000 0.9440 0.9440 0.9440 0.9440 0.9430
6.525208 0.9410 0.9410 0.9410 0.9390 0.9390
6.558000 0.9390 0.9390 0.9390 0.9410 0.9410
6.591208 0.9430 0.9440 0.9460 0.9440 0.9440
6.625000 0.9410 0.9410 0.9410 0.9410 0.9430
6.658208 0.9430 0.9430 0.9440 0.9440 0.9460
6.691000 0.9460 0.9440 0.9440 0.9430 0.9440
6.724208 0.9430 0.9410 0.9430 0.9410 0.9410
6.757000 0.9380 0.9340 0.9310 0.9240 0.9160
6.790208 0.9040 0.8870 0.8650 0.8390 0.8270
6.824000 0.8100 0.8020 0.8000 0.7970 0.7920
6.857208 0.7880 0.7870 0.7830 0.7830 0.7820
6.890000 0.7830 0.7830 0.7870 0.7900 0.7930
6.923208 0.8100 0.8200 0.8300 0.8350 0.8420
6.957000 0.8440 0.8490 0.8540 0.8650 0.8740
6.990208 0.8790 0.8860 0.8920 0.9010 0.9110
7.023000 0.9110 0.9110 0.9120 0.9120 0.9120
7.056208 0.9140 0.9160 0.9170 0.9190 0.9220
7.089000 0.9240 0.9290 0.9310 0.9320 0.9340
7.122208 0.9360 0.9360 0.9360 0.9380 0.9380
7.156000 0.9380 0.9380 0.9380 0.9380 0.9360
7.189208 0.9340 0.9320 0.9260 0.9220 0.9160
7.222000 0.9070 0.8990 0.8890 0.8840 0.8790
7.255208 0.8740 0.8720 0.8720 0.8770 0.8810
7.288000 0.8840 0.8890 0.8940 0.8960 0.8970
7.321208 0.9020 0.9060 0.9110 0.9140 0.9160
7.355000 0.9190 0.9220 0.9260 0.9270 0.9310
7.388208 0.9310 0.9320 0.9340 0.9340 0.9340
7.421000 0.9340 0.9340 0.9360 0.9360 0.9360
7.454208 0.9360 0.9360 0.9380 0.9390 0.9390
7.488000 0.9390 0.9410 0.9410 0.9430 0.9430
7.521208 0.9440 0.9460 0.9480 0.9510 0.9510
7.554000 0.9510 0.9510 0.9510 0.9510 0.9510
7.587208 0.9480 0.9480 0.9480 0.9490 0.9510
7.620000 0.9510 0.9540 0.9540 0.9540 0.9540
7.653208 0.9540 0.9540 0.9540 0.9540 0.9540
7.687000 0.9530 0.9530 0.9530 0.9530 0.9530
7.720208 0.9530 0.9530 0.9530 0.9530 0.9530
7.753000 0.9530 0.9530 0.9530 0.9540 0.9530
7.786208 0.9530 0.9530 0.9530 0.9530 0.9530
7.820000 0.9530 0.9530 0.9530 0.9530 0.9530
7.853208 0.9540 0.9530 0.9530 0.9530 0.9530
7.886000 0.9530 0.9530 0.9530 0.9530 0.9530
7.919208 0.9530 0.9530 0.9530 0.9530 0.9530
7.952000 0.9530 0.9540 0.9540 0.9540 0.9530
7.985208 0.9530 0.9530 0.9530 0.9530 0.9530
8.019000 0.9540 0.9530 0.9530 0.9530 0.9530
8.052208 0.9510 0.9510 0.9510 0.9510 0.9510
8.085000 0.9510 0.9510 0.9510 0.9510 0.9510
8.118208 0.9510 0.9510 0.9510 0.9510 0.9510
8.151000 0.9510 0.9530 0.9530 0.9510 0.9510
8.184208 0.9510 0.9530 0.9530 0.9510 0.9510
8.218000 0.9510 0.9510 0.9510 0.9510 0.9510
8.251208 0.9530 0.9510 0.9510 0.9510 0.9510
8.284000 0.9510 0.9510 0.9510 0.9510 0.9510
8.317208 0.9510 0.9510 0.9510 0.9510 0.9510
8.351000 0.9510 0.9510 0.9490 0.9490 0.9490
8.384208 0.9510 0.9510 0.9510 0.9510 0.9530
8.417000 0.9530 0.9530 0.9510 0.9510 0.9510
8.450208 0.9510 0.9510 0.9510 0.9530 0.9530
8.483000 0.9530 0.9530 0.9530 0.9530 0.9540
8.516208 0.9540 0.9540 0.9530 0.9530 0.9530
8.550000 0.9530 0.9530 0.9530 0.9530 0.9510
8.583208 0.9510 0.9510 0.9530 0.9510 0.9510
8.616000 0.9510 0.9510 0.9510 0.9490 0.9480
8.649208 0.9460 0.9440 0.9430 0.9410 0.9410
8.683000 0.9430 0.9430 0.9430 0.9390 0.9390
8.716208 0.9390 0.9380 0.9380 0.9360 0.9340
8.749000 0.9340 0.9320 0.9310 0.9310 0.9310
8.782208 0.9290 0.9290 0.9290 0.9290 0.9270
8.815000 0.9270 0.9270 0.9270 0.9270 0.9270
8.848208 0.9260 0.9260 0.9240 0.9260 0.9260
8.882000 0.9240 0.9220 0.9240 0.9220 0.9220
8.915208 0.9210 0.9220 0.9210 0.9210 0.9210
8.948000 0.9210 0.9190 0.9190 0.9190 0.9190
8.981208 0.9190 0.9170 0.9170 0.9160 0.9160
9.014000 0.9140 0.9140 0.9140 0.9140 0.9140
9.047208 0.9140 0.9120 0.9120 0.9120 0.9120
9.081000 0.9120 0.9120 0.9120 0.9120 0.9120
9.114208 0.9120 0.9120 0.9120 0.9110 0.9110
9.147000 0.9090 0.9110 0.9090 0.9070 0.9060
9.180208 0.9060 0.9060 0.9040 0.9040 0.9040
9.214000 0.9020 0.9020 0.9020 0.9020 0.9010
9.247208 0.9010 0.9010 0.9010 0.8990 0.8990
9.280000 0.8990 0.8990 0.8990 0.8990 0.8970
9.313208 0.8960 0.8960 0.8940 0.8920 0.8940
9.346000 0.8920 0.8920 0.8910 0.8910 0.8910
9.379208 0.8910 0.8890 0.8890 0.8870 0.8870
9.413000 0.8860 0.8860 0.8840 0.8840 0.8840
9.446208 0.8840 0.8820 0.8820 0.8810 0.8810
9.479000 0.8790 0.8790 0.8790 0.8770 0.8770
9.512208 0.8760 0.8760 0.8740 0.8740 0.8720
9.546000 0.8710 0.8690 0.8690 0.8670 0.8670
9.579208 0.8650 0.8640 0.8620 0.8600 0.8570
9.612000 0.8550 0.8540 0.8520 0.8500 0.8490
9.645208 0.8470 0.8440 0.8400 0.8370 0.8340
9.678000 0.8320 0.8300 0.8270 0.8240 0.8200
9.711208 0.8170 0.8120 0.8050 0.8040 0.8020
9.745000 0.7980 0.7900 0.7800 0.7720 0.7630
9.778208 0.7520 0.7400 0.7280 0.7150 0.7000
9.811000 0.6860 0.6710 0.6560 0.6390 0.6240
9.844208 0.6080 0.6010 0.5920 0.5770 0.5610
9.877000 0.5460 0.5300 0.5150 0.5000 0.4850
9.910208 0.4720 0.4570 0.4400 0.4280 0.4170
9.944000 0.4020 0.3980 0.3950 0.3860 0.3680
9.977208 0.3560 0.3480 0.3380 0.3140 0.3060
10.010000 0.2940 0.2880 0.2790 0.2690 0.2620
10.043208 0.2590 0.2520 0.2460 0.2390 0.2320
10.077000 0.2270 0.2210 0.2170 0.2070 0.2060
10.110208 0.2020 0.2010 0.1990 0.1970 0.1940
10.143000 0.1900 0.1850 0.1820 0.1800 0.1770
10.176208 0.1720 0.1720 0.1670 0.1640 0.1600
10.209000 0.1570 0.1540 0.1520 0.1490 0.1450
10.242208 0.1450 0.1440 0.1420 0.1400 0.1400
10.276000 0.1390 0.1370 0.1370 0.1370 0.1350
10.309208 0.1340 0.1340 0.1340 0.1320 0.1320
10.342000 0.1300 0.1280 0.1300 0.1280 0.1280
10.375208 0.1280 0.1270 0.1270 0.1270 0.1270
10.409000 0.1250 0.1250 0.1250 0.1250 0.1230
10.442208 0.1230 0.1230 0.1220 0.1220 0.1220
10.475000 0.1220 0.1220 0.1200 0.1200 0.1200
10.508208 0.1180 0.1180 0.1180 0.1180 0.1180
10.541000 0.1170 0.1170 0.1170 0.1170 0.1170
10.574208 0.1170 0.1150 0.1150 0.1150 0.1150
10.608000 0.1150 0.1150 0.1150 0.1150 0.1170
10.641208 0.1170 0.1180 0.1200 0.1230 0.1280
10.674000 0.1340 0.1370 0.1390 0.1420 0.1450
10.707208 0.1490 0.1520 0.1550 0.1600 0.1640
10.740000 0.1670 0.1700 0.1740 0.1770 0.1800
10.773208 0.1820 0.1840 0.1850 0.1850 0.1850
10.807000 0.1850 0.1850 0.1850 0.1850 0.1850
10.840208 0.1850 0.1850 0.1840 0.1840 0.1800
10.873000 0.1750 0.1740 0.1720 0.1700 0.1690
10.906208 0.1690 0.1670 0.1650 0.1650 0.1640
10.940000 0.1620 0.1620 0.1620 0.1620 0.1620
10.973208 0.1620 0.1620 0.1620 0.1620 0.1620
11.006000 0.1620 0.1640 0.1640 0.1650 0.1670
11.039208 0.1720 0.1770 0.1840 0.1940 0.1990
11.072000 0.2160 0.2260 0.2390 0.2520 0.2680
11.105208 0.2830 0.2990 0.3140 0.3290 0.3430
11.139000 0.3650 0.3710 0.3900 0.3980 0.4270
11.172208 0.4370 0.4500 0.4580 0.4630 0.4770
11.205000 0.4920 0.5040 0.5140 0.5220 0.5340
11.238208 0.5420 0.5490 0.5570 0.5640 0.5690
11.272000 0.5770 0.5840 0.5920 0.5990 0.6130
11.305208 0.6180 0.6240 0.6310 0.6390 0.6440
11.338000 0.6510 0.6560 0.6610 0.6660 0.6710
11.371208 0.6760 0.6800 0.6850 0.6880 0.6910
11.404000 0.6950 0.6980 0.7010 0.7050 0.7050
11.437208 0.7060 0.7130 0.7150 0.7160 0.7180
11.471000 0.7210 0.7230 0.7250 0.7260 0.7300
11.504208 0.7300 0.7310 0.7310 0.7330 0.7350
11.537000 0.7370 0.7380 0.7400 0.7420 0.7430
11.570208 0.7450 0.7470 0.7470 0.7480 0.7500
11.604000 0.7520 0.7530 0.7550 0.7550 0.7570
11.637208 0.7570 0.7580 0.7580 0.7600 0.7620
11.670000 0.7630 0.7650 0.7670 0.7680 0.7680
11.703208 0.7700 0.7720 0.7730 0.7730 0.7730
11.736000 0.7750 0.7770 0.7770 0.7770 0.7780
11.769208 0.7800 0.7820 0.7830 0.7830 0.7850
11.803000 0.7870 0.7870 0.7880 0.7880 0.7880
11.836208 0.7900 0.7920 0.7920 0.7930 0.7950
11.869000 0.7970 0.7980 0.7980 0.8020 0.8000
11.902208 0.8020 0.8040 0.8050 0.8050 0.8070
11.935000 0.8090 0.8090 0.8090 0.8090 0.8100
11.968208 0.8100 0.8120 0.8120 0.8140 0.8150
12.002000 0.8170 0.8190 0.8200 0.8200 0.8200
12.035208 0.8200 0.8220 0.8220 0.8240 0.8240
12.068000 0.8240 0.8240 0.8250 0.8250 0.8270
12.101208 0.8290 0.8290 0.8300 0.8300 0.8300
12.135000 0.8320 0.8300 0.8320 0.8320 0.8340
12.168208 0.8340 0.8350 0.8350 0.8340 0.8350
12.201000 0.8370 0.8370 0.8390 0.8370 0.8390
12.234208 0.8390 0.8400 0.8400 0.8400 0.8400
12.267000 0.8420 0.8440 0.8440 0.8440 0.8450
12.300208 0.8450 0.8470 0.8450 0.8470 0.8470
12.334000 0.8470 0.8470 0.8490 0.8500 0.8500
12.367208 0.8500 0.8500 0.8500 0.8500 0.8490
12.400000 0.8500 0.8500 0.8500 0.8500 0.8500
12.433208 0.8520 0.8520 0.8540 0.8540 0.8520
12.467000 0.8540 0.8540 0.8540 0.8550 0.8550
12.500208 0.8540 0.8540 0.8540 0.8550 0.8550
12.533000 0.8570 0.8570 0.8570 0.8570 0.8570
12.566208 0.8590 0.8590 0.8600 0.8600 0.8600
12.599000 0.8600 0.8600 0.8600 0.8600 0.8620
12.632208 0.8600 0.8600 0.8600 0.8600 0.8600
12.666000 0.8600 0.8600 0.8600 0.8600 0.8620
12.699208 0.8620 0.8620 0.8620 0.8640 0.8640
12.732000 0.8640 0.8650 0.8640 0.8650 0.8670
12.765208 0.8670 0.8650 0.8670 0.8670 0.8690
12.798000 0.8690 0.8710 0.8710 0.8710 0.8710
12.831208 0.8710 0.8710 0.8710 0.8690 0.8690
12.865000 0.8710 0.8720 0.8720 0.8720 0.8720
12.898208 0.8710 0.8710 0.8710 0.8710 0.8710
12.931000 0.8710 0.8710 0.8710 0.8710 0.8720
12.964208 0.8720 0.8720 0.8720 0.8720 0.8740
12.998000 0.8740 0.8720 0.8740 0.8740 0.8740
13.031208 0.8720 0.8740 0.8740 0.8740 0.8740
13.064000 0.8760 0.8760 0.8760 0.8740 0.8760
13.097208 0.8760 0.8770 0.8770 0.8760 0.8770
13.130000 0.8770 0.8770 0.8770 0.8790 0.8790
13.163208 0.8810 0.8810 0.8810 0.8810 0.8810
13.197000 0.8820 0.8820 0.8840 0.8840 0.8840
13.230208 0.8840 0.8820 0.8820 0.8820 0.8820
13.263000 0.8840 0.8840 0.8860 0.8860 0.8860
13.296208 0.8860 0.8860 0.8860 0.8860 0.8840
13.330000 0.8840 0.8840 0.8840 0.8840 0.8860
13.363208 0.8860 0.8870 0.8870 0.8860 0.8860
13.396000 0.8860 0.8860 0.8860 0.8860 0.8870
13.429208 0.8840 0.8840 0.8860 0.8860 0.8860
13.462000 0.8860 0.8860 0.8870 0.8870 0.8860
13.495208 0.8860 0.8860 0.8860 0.8860 0.8860
13.529000 0.8860 0.8860 0.8860 0.8860 0.8860
13.562208 0.8860 0.8870 0.8890 0.8870 0.8870
13.595000 0.8870 0.8870 0.8870 0.8870 0.8870
13.628208 0.8870 0.8870 0.8890 0.8890 0.8890
13.661000 0.8890 0.8890 0.8890 0.8910 0.8910
13.694208 0.8910 0.8910 0.8910 0.8890 0.8890
13.728000 0.8890 0.8890 0.8910 0.8910 0.8920
13.761208 0.8920 0.8920 0.8920 0.8920 0.8920
13.794000 0.8920 0.8920 0.8910 0.8910 0.8910
13.827208 0.8910 0.8890 0.8890 0.8870 0.8870
13.861000 0.8870 0.8870 0.8890 0.8890 0.8910
13.894208 0.8910 0.8910 0.8910 0.8910 0.8910
13.927000 0.8910 0.8910 0.8910 0.8910 0.8920
13.960208 0.8920 0.8910 0.8920 0.8920 0.8920
13.993000 0.8940 0.8920 0.8940 0.8940 0.8920
14.026208 0.8920 0.8960 0.8960 0.8970 0.8970
14.060000 0.8970 0.8970 0.8970 0.8970 0.8970
14.093208 0.8970 0.8970 0.8970 0.8970 0.8970
14.126000 0.8970 0.8970 0.8970 0.8970 0.8970
14.159208 0.8970 0.8970 0.8970 0.8970 0.8970
14.193000 0.8970 0.8970 0.8970 0.8970 0.8970
14.226208 0.8970 0.8970 0.8970 0.8970 0.8960
14.259000 0.8960 0.8960 0.8960 0.8960 0.8960
14.292208 0.8960 0.8960 0.8960 0.8960 0.8960
14.325000 0.8960 0.8960 0.8940 0.8920 0.8910
14.358208 0.8890 0.8870 0.8870 0.8870 0.8870
14.392000 0.8870 0.8860 0.8860 0.8860 0.8860
14.425208 0.8860 0.8860 0.8860 0.8860 0.8860
14.458000 0.8860 0.8840 0.8840 0.8840 0.8840
14.491208 0.8840 0.8820 0.8840 0.8820 0.8820
14.524000 0.8810 0.8810 0.8790 0.8790 0.8770
14.557208 0.8760 0.8740 0.8740 0.8720 0.8720
14.591000 0.8720 0.8710 0.8720 0.8720 0.8720
14.624208 0.8710 0.8710 0.8710 0.8710 0.8710
14.657000 0.8710 0.8690 0.8690 0.8670 0.8650
14.690208 0.8640 0.8620 0.8600 0.8590 0.8590
14.724000 0.8590 0.8590 0.8570 0.8590 0.8590
14.757208 0.8570 0.8570 0.8570 0.8570 0.8550
14.790000 0.8550 0.8540 0.8520 0.8500 0.8490
14.823208 0.8470 0.8450 0.8450 0.8450 0.8440
14.856000 0.8440 0.8440 0.8420 0.8420 0.8400
14.889208 0.8390 0.8370 0.8370 0.8370 0.8370
14.923000 0.8370 0.8370 0.8370 0.8350 0.8350
14.956208 0.8350 0.8350 0.8350 0.8350 0.8350
14.989000 0.8350 0.8350 0.8350 0.8340 0.8340
15.022208 0.8340 0.8340 0.8320 0.8300 0.8300
15.056000 0.8290 0.8270 0.8250 0.8250 0.8250
15.089208 0.8240 0.8240 0.8220 0.8220 0.8220
15.122000 0.8200 0.8200 0.8190 0.8190 0.8170
15.155208 0.8150 0.8150 0.8150 0.8140 0.8120
15.188000 0.8120 0.8120 0.8120 0.8120 0.8120
15.221208 0.8120 0.8120 0.8120 0.8100 0.8100
15.255000 0.8100 0.8100 0.8100 0.8090 0.8100
15.288208 0.8100 0.8090 0.8090 0.8050 0.8050
15.321000 0.8050 0.8050 0.8050 0.8050 0.8070
15.354208 0.8070 0.8070 0.8070 0.8070 0.8050
15.387000 0.8050 0.8040 0.8040 0.8040 0.8020
15.420208 0.8020 0.8000 0.8000 0.8000 0.7980
15.454000 0.7980 0.7970 0.7970 0.7950 0.7950
15.487208 0.7930 0.7930 0.7950 0.7930 0.7930
15.520000 0.7920 0.7900 0.7900 0.7900 0.7880
15.553208 0.7880 0.7870 0.7870 0.7870 0.7870
15.587000 0.7870 0.7850 0.7850 0.7830 0.7820
15.620208 0.7820 0.7800 0.7800 0.7780 0.7770
15.653000 0.7770 0.7780 0.7770 0.7770 0.7770
15.686208 0.7750 0.7750 0.7730 0.7730 0.7720
15.719000 0.7720 0.7720 0.7720 0.7700 0.7700
15.752208 0.7680 0.7680 0.7670 0.7670 0.7670
15.786000 0.7630 0.7650 0.7630 0.7620 0.7600
15.819208 0.7580 0.7570 0.7530 0.7550 0.7530
15.852000 0.7520 0.7500 0.7470 0.7470 0.7450
15.885208 0.7470 0.7450 0.7450 0.7430 0.7430
15.919000 0.7430 0.7420 0.7420 0.7420 0.7400
15.952208 0.7400 0.7420 0.7400 0.7380 0.7370
15.985000 0.7350 0.7330 0.7310 0.7370 0.7350
16.018208 0.7330
##END=
