##TITLE=OUABAIN
##JCAMP-DX=4.24
$$ By DXEDIT 1.05 (RS McDonald)
##DATA TYPE=INFRARED SPECTRUM
##CLASS=COBLENTZ III
##OWNER=COBLENTZ SOC.
Collection (C) 2018 copyright by the U.S. Secretary of Commerce
on behalf of the United States of America. All rights reserved.
##DATE=1961/09/25
##NAMES=G-STROPHANTHIN
##MOLFORM=C29 H44 O12  * 8 H2 O
##MP=190 C
##SOURCE REFERENCE=COBLENTZ NO. 05050
##$NIST ID=B6005050
##$NIST SOURCE=COBLENTZ
##$NIST IMAGE=cob5050
##SPECTROMETER/DATA SYSTEM=PERKIN-ELMER 21 (GRATING)
$$INTERFERENCE FRINGES AROUND 700-775
##INSTRUMENT PARAMETERS=FILTER AT ABOUT 10 MICRONS
##STATE=SOLID (KBr DISC) VS KBr
##PATH LENGTH=0.055 CM (THICKNESS)
$$ SPECTRAL FEATURE AT 1000 CM^-^1 IS AN ARTIFACT CAUSED BY FILTER CHANGE
##SAMPLING PROCEDURE=TRANSMISSION
##RESOLUTION=2
##DATA PROCESSING=DIGITIZED BY COBLENTZ SOCIETY (BATCH I) FROM HARD COPY
##XUNITS=1/CM
##YUNITS=TRANSMITTANCE
##XLABEL=Wavenumbers (cm-1)
##YLABEL=Transmittance
##XFACTOR=1
##YFACTOR=1
##DELTAX=1
##FIRSTX=4000
##LASTX=654
##FIRSTY=0.9521
##MAXX=4000
##MINX=654
##MAXY=0.9534
##MINY=0.1588
##NPOINTS=3347
##XYDATA=(X++(Y..Y))
4000.000000 0.9521 0.9521 0.9520 0.9518 0.9518
3995.000000 0.9518 0.9517 0.9516 0.9515 0.9514
3990.000000 0.9514 0.9513 0.9512 0.9511 0.9511
3985.000000 0.9510 0.9509 0.9509 0.9508 0.9508
3980.000000 0.9507 0.9506 0.9506 0.9505 0.9504
3975.000000 0.9504 0.9503 0.9503 0.9502 0.9501
3970.000000 0.9501 0.9500 0.9499 0.9499 0.9498
3965.000000 0.9497 0.9497 0.9496 0.9496 0.9495
3960.000000 0.9495 0.9494 0.9494 0.9493 0.9493
3955.000000 0.9492 0.9491 0.9491 0.9490 0.9489
3950.000000 0.9489 0.9488 0.9488 0.9487 0.9486
3945.000000 0.9486 0.9485 0.9484 0.9484 0.9483
3940.000000 0.9482 0.9482 0.9481 0.9480 0.9480
3935.000000 0.9478 0.9478 0.9478 0.9477 0.9477
3930.000000 0.9475 0.9475 0.9475 0.9474 0.9473
3925.000000 0.9473 0.9471 0.9471 0.9471 0.9471
3920.000000 0.9470 0.9470 0.9468 0.9468 0.9468
3915.000000 0.9468 0.9468 0.9468 0.9467 0.9467
3910.000000 0.9467 0.9467 0.9467 0.9467 0.9466
3905.000000 0.9466 0.9466 0.9465 0.9465 0.9465
3900.000000 0.9464 0.9464 0.9464 0.9464 0.9464
3895.000000 0.9464 0.9463 0.9463 0.9463 0.9462
3890.000000 0.9462 0.9462 0.9461 0.9461 0.9461
3885.000000 0.9461 0.9461 0.9461 0.9461 0.9460
3880.000000 0.9460 0.9460 0.9459 0.9459 0.9459
3875.000000 0.9458 0.9458 0.9458 0.9458 0.9458
3870.000000 0.9458 0.9457 0.9457 0.9457 0.9456
3865.000000 0.9456 0.9456 0.9455 0.9455 0.9455
3860.000000 0.9455 0.9455 0.9454 0.9454 0.9454
3855.000000 0.9453 0.9453 0.9453 0.9452 0.9452
3850.000000 0.9452 0.9452 0.9452 0.9452 0.9451
3845.000000 0.9451 0.9451 0.9451 0.9451 0.9451
3840.000000 0.9450 0.9450 0.9450 0.9449 0.9449
3835.000000 0.9449 0.9448 0.9448 0.9448 0.9448
3830.000000 0.9448 0.9448 0.9447 0.9447 0.9447
3825.000000 0.9446 0.9446 0.9446 0.9445 0.9445
3820.000000 0.9445 0.9445 0.9445 0.9445 0.9445
3815.000000 0.9445 0.9446 0.9446 0.9447 0.9447
3810.000000 0.9448 0.9449 0.9450 0.9450 0.9451
3805.000000 0.9452 0.9452 0.9453 0.9454 0.9454
3800.000000 0.9455 0.9456 0.9456 0.9457 0.9458
3795.000000 0.9459 0.9459 0.9460 0.9461 0.9461
3790.000000 0.9462 0.9463 0.9463 0.9464 0.9465
3785.000000 0.9466 0.9467 0.9468 0.9468 0.9470
3780.000000 0.9470 0.9471 0.9471 0.9473 0.9474
3775.000000 0.9475 0.9475 0.9477 0.9477 0.9478
3770.000000 0.9478 0.9480 0.9481 0.9482 0.9484
3765.000000 0.9485 0.9485 0.9485 0.9486 0.9486
3760.000000 0.9486 0.9487 0.9487 0.9487 0.9487
3755.000000 0.9487 0.9487 0.9488 0.9488 0.9488
3750.000000 0.9488 0.9488 0.9487 0.9487 0.9486
3745.000000 0.9486 0.9485 0.9485 0.9484 0.9483
3740.000000 0.9483 0.9482 0.9481 0.9481 0.9480
3735.000000 0.9478 0.9478 0.9478 0.9478 0.9477
3730.000000 0.9475 0.9475 0.9474 0.9474 0.9473
3725.000000 0.9471 0.9471 0.9470 0.9468 0.9468
3720.000000 0.9467 0.9466 0.9465 0.9465 0.9464
3715.000000 0.9463 0.9462 0.9461 0.9460 0.9459
3710.000000 0.9458 0.9457 0.9456 0.9455 0.9455
3705.000000 0.9454 0.9453 0.9452 0.9451 0.9450
3700.000000 0.9449 0.9448 0.9447 0.9446 0.9445
3695.000000 0.9445 0.9444 0.9443 0.9442 0.9441
3690.000000 0.9440 0.9439 0.9438 0.9437 0.9436
3685.000000 0.9435 0.9434 0.9433 0.9432 0.9431
3680.000000 0.9428 0.9428 0.9427 0.9425 0.9425
3675.000000 0.9424 0.9423 0.9421 0.9421 0.9418
3670.000000 0.9418 0.9417 0.9416 0.9415 0.9414
3665.000000 0.9413 0.9412 0.9410 0.9409 0.9408
3660.000000 0.9407 0.9406 0.9404 0.9403 0.9402
3655.000000 0.9401 0.9399 0.9398 0.9397 0.9395
3650.000000 0.9394 0.9392 0.9391 0.9389 0.9387
3645.000000 0.9386 0.9384 0.9382 0.9380 0.9378
3640.000000 0.9375 0.9373 0.9371 0.9368 0.9365
3635.000000 0.9362 0.9359 0.9356 0.9353 0.9350
3630.000000 0.9347 0.9344 0.9341 0.9337 0.9334
3625.000000 0.9330 0.9325 0.9321 0.9317 0.9312
3620.000000 0.9306 0.9301 0.9296 0.9289 0.9282
3615.000000 0.9275 0.9268 0.9261 0.9251 0.9241
3610.000000 0.9230 0.9220 0.9210 0.9199 0.9189
3605.000000 0.9178 0.9168 0.9158 0.9144 0.9121
3600.000000 0.9100 0.9078 0.9056 0.9033 0.9008
3595.000000 0.8983 0.8957 0.8932 0.8907 0.8881
3590.000000 0.8855 0.8828 0.8803 0.8778 0.8750
3585.000000 0.8723 0.8695 0.8667 0.8640 0.8612
3580.000000 0.8583 0.8554 0.8525 0.8497 0.8467
3575.000000 0.8435 0.8404 0.8373 0.8341 0.8313
3570.000000 0.8290 0.8267 0.8243 0.8220 0.8198
3565.000000 0.8180 0.8161 0.8144 0.8125 0.8108
3560.000000 0.8090 0.8071 0.8053 0.8035 0.8014
3555.000000 0.7981 0.7948 0.7915 0.7882 0.7848
3550.000000 0.7808 0.7768 0.7728 0.7688 0.7649
3545.000000 0.7618 0.7586 0.7554 0.7522 0.7486
3540.000000 0.7386 0.7287 0.7187 0.7087 0.6988
3535.000000 0.6896 0.6804 0.6712 0.6621 0.6521
3530.000000 0.6342 0.6162 0.5982 0.5802 0.5634
3525.000000 0.5584 0.5534 0.5485 0.5435 0.5384
3520.000000 0.5322 0.5260 0.5199 0.5137 0.5072
3515.000000 0.4991 0.4910 0.4829 0.4748 0.4680
3510.000000 0.4654 0.4628 0.4602 0.4576 0.4554
3505.000000 0.4541 0.4528 0.4515 0.4501 0.4484
3500.000000 0.4460 0.4439 0.4416 0.4393 0.4370
3495.000000 0.4347 0.4324 0.4301 0.4278 0.4255
3490.000000 0.4232 0.4209 0.4186 0.4162 0.4140
3485.000000 0.4117 0.4094 0.4071 0.4048 0.4025
3480.000000 0.4000 0.3978 0.3955 0.3930 0.3908
3475.000000 0.3884 0.3862 0.3839 0.3814 0.3792
3470.000000 0.3768 0.3746 0.3722 0.3699 0.3676
3465.000000 0.3652 0.3629 0.3606 0.3582 0.3559
3460.000000 0.3534 0.3510 0.3488 0.3464 0.3441
3455.000000 0.3416 0.3394 0.3371 0.3346 0.3321
3450.000000 0.3297 0.3272 0.3247 0.3222 0.3196
3445.000000 0.3170 0.3145 0.3111 0.3071 0.3031
3440.000000 0.2990 0.2950 0.2910 0.2869 0.2829
3435.000000 0.2788 0.2749 0.2723 0.2697 0.2671
3430.000000 0.2645 0.2621 0.2600 0.2578 0.2557
3425.000000 0.2535 0.2501 0.2460 0.2418 0.2377
3420.000000 0.2335 0.2317 0.2300 0.2282 0.2265
3415.000000 0.2251 0.2244 0.2237 0.2231 0.2224
3410.000000 0.2217 0.2211 0.2204 0.2197 0.2191
3405.000000 0.2183 0.2175 0.2168 0.2160 0.2152
3400.000000 0.2144 0.2134 0.2126 0.2118 0.2111
3395.000000 0.2104 0.2097 0.2090 0.2084 0.2078
3390.000000 0.2072 0.2067 0.2061 0.2057 0.2053
3385.000000 0.2050 0.2045 0.2043 0.2039 0.2035
3380.000000 0.2032 0.2029 0.2025 0.2023 0.2020
3375.000000 0.2017 0.2014 0.2012 0.2011 0.2009
3370.000000 0.2008 0.2006 0.2006 0.2004 0.2004
3365.000000 0.2003 0.2003 0.2002 0.2002 0.2001
3360.000000 0.2000 0.2000 0.1999 0.1998 0.1998
3355.000000 0.1996 0.1995 0.1995 0.1994 0.1994
3350.000000 0.1993 0.1992 0.1992 0.1992 0.1992
3345.000000 0.1994 0.1996 0.2000 0.2003 0.2007
3340.000000 0.2011 0.2015 0.2019 0.2023 0.2027
3335.000000 0.2031 0.2034 0.2040 0.2045 0.2053
3330.000000 0.2059 0.2066 0.2076 0.2087 0.2097
3325.000000 0.2108 0.2119 0.2129 0.2140 0.2151
3320.000000 0.2162 0.2176 0.2189 0.2203 0.2217
3315.000000 0.2232 0.2247 0.2263 0.2278 0.2294
3310.000000 0.2309 0.2325 0.2341 0.2357 0.2372
3305.000000 0.2388 0.2403 0.2419 0.2434 0.2450
3300.000000 0.2465 0.2480 0.2496 0.2510 0.2524
3295.000000 0.2538 0.2552 0.2566 0.2580 0.2594
3290.000000 0.2608 0.2622 0.2637 0.2651 0.2665
3285.000000 0.2680 0.2695 0.2710 0.2725 0.2740
3280.000000 0.2759 0.2779 0.2799 0.2819 0.2839
3275.000000 0.2859 0.2879 0.2899 0.2918 0.2938
3270.000000 0.2957 0.2977 0.2996 0.3011 0.3026
3265.000000 0.3041 0.3056 0.3071 0.3085 0.3101
3260.000000 0.3116 0.3131 0.3146 0.3161 0.3176
3255.000000 0.3191 0.3206 0.3221 0.3236 0.3250
3250.000000 0.3266 0.3280 0.3297 0.3312 0.3328
3245.000000 0.3344 0.3359 0.3376 0.3393 0.3409
3240.000000 0.3426 0.3443 0.3459 0.3476 0.3493
3235.000000 0.3509 0.3527 0.3544 0.3560 0.3578
3230.000000 0.3595 0.3612 0.3632 0.3650 0.3668
3225.000000 0.3690 0.3712 0.3734 0.3756 0.3778
3220.000000 0.3800 0.3822 0.3844 0.3866 0.3889
3215.000000 0.3910 0.3932 0.3955 0.3980 0.4004
3210.000000 0.4029 0.4054 0.4079 0.4104 0.4129
3205.000000 0.4154 0.4179 0.4204 0.4230 0.4255
3200.000000 0.4272 0.4289 0.4305 0.4322 0.4339
3195.000000 0.4355 0.4371 0.4387 0.4403 0.4419
3190.000000 0.4435 0.4451 0.4476 0.4504 0.4532
3185.000000 0.4560 0.4588 0.4616 0.4645 0.4673
3180.000000 0.4701 0.4730 0.4759 0.4788 0.4816
3175.000000 0.4845 0.4874 0.4903 0.4931 0.4960
3170.000000 0.4989 0.5017 0.5046 0.5075 0.5104
3165.000000 0.5133 0.5162 0.5191 0.5220 0.5249
3160.000000 0.5278 0.5306 0.5335 0.5364 0.5393
3155.000000 0.5422 0.5451 0.5480 0.5510 0.5539
3150.000000 0.5568 0.5597 0.5626 0.5655 0.5684
3145.000000 0.5712 0.5743 0.5772 0.5801 0.5831
3140.000000 0.5860 0.5889 0.5918 0.5948 0.5977
3135.000000 0.6007 0.6036 0.6066 0.6095 0.6125
3130.000000 0.6154 0.6184 0.6212 0.6243 0.6272
3125.000000 0.6302 0.6331 0.6360 0.6391 0.6419
3120.000000 0.6450 0.6480 0.6510 0.6540 0.6568
3115.000000 0.6599 0.6628 0.6658 0.6688 0.6718
3110.000000 0.6748 0.6778 0.6808 0.6838 0.6868
3105.000000 0.6898 0.6928 0.6958 0.6988 0.7015
3100.000000 0.7044 0.7071 0.7101 0.7125 0.7150
3095.000000 0.7174 0.7199 0.7221 0.7244 0.7267
3090.000000 0.7290 0.7311 0.7334 0.7356 0.7376
3085.000000 0.7398 0.7418 0.7440 0.7461 0.7483
3080.000000 0.7504 0.7525 0.7547 0.7568 0.7590
3075.000000 0.7611 0.7628 0.7646 0.7662 0.7678
3070.000000 0.7691 0.7703 0.7714 0.7725 0.7738
3065.000000 0.7750 0.7761 0.7772 0.7784 0.7796
3060.000000 0.7807 0.7818 0.7831 0.7842 0.7853
3055.000000 0.7861 0.7869 0.7878 0.7887 0.7895
3050.000000 0.7903 0.7911 0.7919 0.7928 0.7937
3045.000000 0.7946 0.7955 0.7962 0.7971 0.7981
3040.000000 0.7992 0.8003 0.8014 0.8025 0.8035
3035.000000 0.8046 0.8056 0.8065 0.8075 0.8085
3030.000000 0.8094 0.8104 0.8112 0.8122 0.8131
3025.000000 0.8139 0.8147 0.8154 0.8160 0.8165
3020.000000 0.8169 0.8175 0.8180 0.8186 0.8191
3015.000000 0.8194 0.8196 0.8198 0.8201 0.8202
3010.000000 0.8204 0.8206 0.8207 0.8208 0.8209
3005.000000 0.8210 0.8210 0.8210 0.8210 0.8209
3000.000000 0.8209 0.8208 0.8208 0.8205 0.8202
2995.000000 0.8199 0.8195 0.8189 0.8183 0.8175
2990.000000 0.8165 0.8147 0.8128 0.8111 0.8088
2985.000000 0.8064 0.8040 0.8008 0.7958 0.7908
2980.000000 0.7858 0.7807 0.7756 0.7706 0.7655
2975.000000 0.7604 0.7554 0.7503 0.7451 0.7401
2970.000000 0.7350 0.7299 0.7249 0.7198 0.7147
2965.000000 0.7096 0.7045 0.6993 0.6942 0.6891
2960.000000 0.6839 0.6788 0.6737 0.6686 0.6634
2955.000000 0.6583 0.6532 0.6480 0.6428 0.6377
2950.000000 0.6325 0.6273 0.6222 0.6170 0.6119
2945.000000 0.6067 0.6015 0.5962 0.5910 0.5859
2940.000000 0.5807 0.5755 0.5703 0.5651 0.5599
2935.000000 0.5547 0.5495 0.5443 0.5391 0.5338
2930.000000 0.5286 0.5234 0.5182 0.5129 0.5077
2925.000000 0.5024 0.4972 0.4948 0.4926 0.4903
2920.000000 0.4890 0.4884 0.4878 0.4872 0.4867
2915.000000 0.4862 0.4857 0.4852 0.4846 0.4841
2910.000000 0.4837 0.4835 0.4833 0.4852 0.4828
2905.000000 0.4826 0.4824 0.4822 0.4820 0.4818
2900.000000 0.4818 0.4818 0.4820 0.4821 0.4825
2895.000000 0.4829 0.4833 0.4855 0.4893 0.4931
2890.000000 0.4970 0.5012 0.5057 0.5100 0.5139
2885.000000 0.5176 0.5214 0.5258 0.5307 0.5357
2880.000000 0.5404 0.5441 0.5478 0.5515 0.5537
2875.000000 0.5556 0.5576 0.5596 0.5617 0.5637
2870.000000 0.5660 0.5689 0.5717 0.5746 0.5770
2865.000000 0.5795 0.5819 0.5843 0.5866 0.5890
2860.000000 0.5914 0.5939 0.5964 0.5990 0.6019
2855.000000 0.6049 0.6079 0.6120 0.6162 0.6206
2850.000000 0.6248 0.6291 0.6334 0.6377 0.6418
2845.000000 0.6461 0.6505 0.6548 0.6591 0.6634
2840.000000 0.6675 0.6718 0.6761 0.6805 0.6848
2835.000000 0.6891 0.6935 0.6978 0.7021 0.7065
2830.000000 0.7108 0.7151 0.7194 0.7237 0.7281
2825.000000 0.7324 0.7368 0.7411 0.7454 0.7498
2820.000000 0.7541 0.7585 0.7628 0.7671 0.7715
2815.000000 0.7775 0.7869 0.7964 0.8049 0.8075
2810.000000 0.8104 0.8132 0.8155 0.8178 0.8201
2805.000000 0.8216 0.8228 0.8242 0.8256 0.8268
2800.000000 0.8282 0.8295 0.8308 0.8321 0.8335
2795.000000 0.8349 0.8362 0.8374 0.8382 0.8390
2790.000000 0.8398 0.8406 0.8414 0.8421 0.8430
2785.000000 0.8438 0.8446 0.8454 0.8462 0.8470
2780.000000 0.8478 0.8487 0.8495 0.8503 0.8511
2775.000000 0.8518 0.8527 0.8535 0.8543 0.8550
2770.000000 0.8557 0.8563 0.8568 0.8574 0.8580
2765.000000 0.8585 0.8591 0.8597 0.8603 0.8608
2760.000000 0.8614 0.8620 0.8625 0.8632 0.8637
2755.000000 0.8643 0.8649 0.8654 0.8660 0.8665
2750.000000 0.8671 0.8675 0.8678 0.8684 0.8687
2745.000000 0.8691 0.8696 0.8700 0.8704 0.8708
2740.000000 0.8713 0.8717 0.8721 0.8725 0.8728
2735.000000 0.8733 0.8738 0.8742 0.8746 0.8750
2730.000000 0.8754 0.8757 0.8760 0.8763 0.8765
2725.000000 0.8768 0.8771 0.8773 0.8775 0.8778
2720.000000 0.8781 0.8784 0.8787 0.8790 0.8792
2715.000000 0.8795 0.8798 0.8800 0.8803 0.8806
2710.000000 0.8809 0.8811 0.8814 0.8816 0.8818
2705.000000 0.8820 0.8821 0.8824 0.8825 0.8828
2700.000000 0.8830 0.8832 0.8834 0.8836 0.8839
2695.000000 0.8841 0.8843 0.8845 0.8848 0.8850
2690.000000 0.8852 0.8854 0.8856 0.8858 0.8860
2685.000000 0.8862 0.8864 0.8866 0.8868 0.8870
2680.000000 0.8873 0.8875 0.8877 0.8878 0.8881
2675.000000 0.8884 0.8887 0.8890 0.8893 0.8895
2670.000000 0.8898 0.8902 0.8905 0.8908 0.8910
2665.000000 0.8913 0.8916 0.8918 0.8921 0.8924
2660.000000 0.8927 0.8930 0.8933 0.8936 0.8939
2655.000000 0.8942 0.8945 0.8948 0.8951 0.8954
2650.000000 0.8957 0.8960 0.8962 0.8965 0.8968
2645.000000 0.8971 0.8974 0.8977 0.8980 0.8983
2640.000000 0.8986 0.8989 0.8992 0.8995 0.8998
2635.000000 0.9001 0.9004 0.9006 0.9009 0.9012
2630.000000 0.9015 0.9018 0.9021 0.9024 0.9027
2625.000000 0.9030 0.9032 0.9035 0.9038 0.9040
2620.000000 0.9043 0.9046 0.9049 0.9052 0.9055
2615.000000 0.9058 0.9061 0.9064 0.9066 0.9068
2610.000000 0.9071 0.9075 0.9078 0.9081 0.9084
2605.000000 0.9087 0.9090 0.9093 0.9096 0.9099
2600.000000 0.9101 0.9103 0.9105 0.9107 0.9110
2595.000000 0.9112 0.9114 0.9116 0.9118 0.9121
2590.000000 0.9123 0.9125 0.9127 0.9130 0.9132
2585.000000 0.9134 0.9136 0.9139 0.9141 0.9143
2580.000000 0.9145 0.9148 0.9150 0.9152 0.9154
2575.000000 0.9156 0.9158 0.9160 0.9163 0.9165
2570.000000 0.9167 0.9168 0.9171 0.9174 0.9175
2565.000000 0.9178 0.9181 0.9183 0.9185 0.9187
2560.000000 0.9189 0.9191 0.9193 0.9194 0.9196
2555.000000 0.9197 0.9199 0.9200 0.9202 0.9204
2550.000000 0.9205 0.9206 0.9207 0.9209 0.9210
2545.000000 0.9212 0.9213 0.9215 0.9216 0.9218
2540.000000 0.9220 0.9221 0.9223 0.9223 0.9223
2535.000000 0.9223 0.9223 0.9223 0.9224 0.9224
2530.000000 0.9224 0.9224 0.9224 0.9224 0.9224
2525.000000 0.9225 0.9225 0.9225 0.9225 0.9225
2520.000000 0.9225 0.9225 0.9225 0.9225 0.9225
2515.000000 0.9227 0.9227 0.9227 0.9228 0.9228
2510.000000 0.9228 0.9228 0.9228 0.9230 0.9230
2505.000000 0.9231 0.9232 0.9233 0.9234 0.9235
2500.000000 0.9237 0.9238 0.9239 0.9240 0.9241
2495.000000 0.9243 0.9244 0.9245 0.9246 0.9248
2490.000000 0.9250 0.9251 0.9252 0.9253 0.9254
2485.000000 0.9256 0.9257 0.9258 0.9259 0.9260
2480.000000 0.9262 0.9263 0.9264 0.9266 0.9268
2475.000000 0.9270 0.9271 0.9274 0.9275 0.9277
2470.000000 0.9278 0.9281 0.9283 0.9285 0.9287
2465.000000 0.9288 0.9291 0.9293 0.9295 0.9297
2460.000000 0.9299 0.9300 0.9302 0.9304 0.9306
2455.000000 0.9308 0.9309 0.9311 0.9313 0.9315
2450.000000 0.9317 0.9318 0.9321 0.9323 0.9325
2445.000000 0.9327 0.9328 0.9331 0.9333 0.9334
2440.000000 0.9336 0.9339 0.9341 0.9344 0.9346
2435.000000 0.9349 0.9351 0.9354 0.9356 0.9359
2430.000000 0.9361 0.9364 0.9366 0.9368 0.9371
2425.000000 0.9374 0.9377 0.9378 0.9382 0.9384
2420.000000 0.9387 0.9389 0.9392 0.9395 0.9397
2415.000000 0.9399 0.9402 0.9404 0.9406 0.9409
2410.000000 0.9412 0.9414 0.9417 0.9418 0.9421
2405.000000 0.9425 0.9427 0.9430 0.9432 0.9435
2400.000000 0.9438 0.9440 0.9442 0.9444 0.9447
2395.000000 0.9449 0.9451 0.9453 0.9455 0.9457
2390.000000 0.9460 0.9461 0.9463 0.9465 0.9467
2385.000000 0.9470 0.9471 0.9474 0.9475 0.9478
2380.000000 0.9481 0.9483 0.9485 0.9487 0.9489
2375.000000 0.9490 0.9492 0.9493 0.9494 0.9495
2370.000000 0.9496 0.9497 0.9499 0.9500 0.9501
2365.000000 0.9503 0.9504 0.9504 0.9506 0.9507
2360.000000 0.9508 0.9510 0.9511 0.9512 0.9513
2355.000000 0.9514 0.9515 0.9515 0.9516 0.9517
2350.000000 0.9518 0.9518 0.9520 0.9521 0.9521
2345.000000 0.9523 0.9524 0.9525 0.9525 0.9525
2340.000000 0.9527 0.9528 0.9528 0.9528 0.9528
2335.000000 0.9528 0.9530 0.9530 0.9530 0.9530
2330.000000 0.9530 0.9530 0.9530 0.9531 0.9531
2325.000000 0.9530 0.9528 0.9528 0.9525 0.9524
2320.000000 0.9521 0.9518 0.9517 0.9516 0.9513
2315.000000 0.9511 0.9509 0.9507 0.9505 0.9503
2310.000000 0.9500 0.9498 0.9496 0.9493 0.9491
2305.000000 0.9489 0.9487 0.9486 0.9484 0.9483
2300.000000 0.9481 0.9478 0.9478 0.9475 0.9475
2295.000000 0.9474 0.9471 0.9470 0.9468 0.9468
2290.000000 0.9468 0.9468 0.9470 0.9471 0.9474
2285.000000 0.9475 0.9477 0.9478 0.9481 0.9483
2280.000000 0.9484 0.9486 0.9488 0.9489 0.9491
2275.000000 0.9493 0.9495 0.9497 0.9499 0.9500
2270.000000 0.9501 0.9503 0.9504 0.9505 0.9506
2265.000000 0.9507 0.9508 0.9509 0.9510 0.9511
2260.000000 0.9512 0.9513 0.9514 0.9515 0.9516
2255.000000 0.9517 0.9518 0.9518 0.9520 0.9521
2250.000000 0.9521 0.9523 0.9524 0.9525 0.9525
2245.000000 0.9525 0.9527 0.9527 0.9528 0.9528
2240.000000 0.9530 0.9530 0.9531 0.9531 0.9532
2235.000000 0.9532 0.9533 0.9534 0.9534 0.9534
2230.000000 0.9533 0.9532 0.9530 0.9528 0.9528
2225.000000 0.9527 0.9525 0.9525 0.9523 0.9521
2220.000000 0.9521 0.9520 0.9518 0.9517 0.9515
2215.000000 0.9513 0.9512 0.9510 0.9508 0.9506
2210.000000 0.9505 0.9503 0.9501 0.9499 0.9497
2205.000000 0.9495 0.9494 0.9492 0.9490 0.9488
2200.000000 0.9486 0.9485 0.9483 0.9481 0.9478
2195.000000 0.9478 0.9475 0.9474 0.9473 0.9473
2190.000000 0.9473 0.9471 0.9471 0.9471 0.9471
2185.000000 0.9471 0.9471 0.9471 0.9471 0.9470
2180.000000 0.9470 0.9470 0.9470 0.9468 0.9468
2175.000000 0.9468 0.9468 0.9468 0.9468 0.9468
2170.000000 0.9467 0.9467 0.9467 0.9467 0.9467
2165.000000 0.9468 0.9470 0.9471 0.9474 0.9475
2160.000000 0.9477 0.9478 0.9481 0.9483 0.9485
2155.000000 0.9487 0.9490 0.9492 0.9494 0.9497
2150.000000 0.9499 0.9502 0.9505 0.9507 0.9509
2145.000000 0.9512 0.9515 0.9515 0.9514 0.9512
2140.000000 0.9510 0.9507 0.9506 0.9504 0.9502
2135.000000 0.9500 0.9497 0.9495 0.9494 0.9492
2130.000000 0.9490 0.9488 0.9486 0.9484 0.9482
2125.000000 0.9480 0.9478 0.9478 0.9478 0.9478
2120.000000 0.9477 0.9477 0.9475 0.9475 0.9475
2115.000000 0.9475 0.9475 0.9474 0.9474 0.9473
2110.000000 0.9473 0.9471 0.9471 0.9471 0.9471
2105.000000 0.9471 0.9470 0.9470 0.9468 0.9468
2100.000000 0.9468 0.9468 0.9468 0.9467 0.9467
2095.000000 0.9466 0.9466 0.9465 0.9465 0.9465
2090.000000 0.9464 0.9464 0.9463 0.9463 0.9462
2085.000000 0.9461 0.9461 0.9461 0.9461 0.9460
2080.000000 0.9460 0.9459 0.9458 0.9457 0.9456
2075.000000 0.9456 0.9455 0.9454 0.9453 0.9452
2070.000000 0.9451 0.9450 0.9449 0.9448 0.9447
2065.000000 0.9446 0.9445 0.9445 0.9444 0.9442
2060.000000 0.9441 0.9440 0.9440 0.9439 0.9438
2055.000000 0.9438 0.9438 0.9438 0.9438 0.9438
2050.000000 0.9437 0.9437 0.9437 0.9437 0.9437
2045.000000 0.9437 0.9436 0.9436 0.9436 0.9438
2040.000000 0.9441 0.9444 0.9446 0.9449 0.9451
2035.000000 0.9454 0.9456 0.9458 0.9461 0.9464
2030.000000 0.9467 0.9468 0.9473 0.9475 0.9478
2025.000000 0.9483 0.9486 0.9489 0.9493 0.9497
2020.000000 0.9500 0.9502 0.9504 0.9505 0.9507
2015.000000 0.9507 0.9508 0.9508 0.9510 0.9511
2010.000000 0.9511 0.9512 0.9513 0.9513 0.9513
2005.000000 0.9513 0.9513 0.9513 0.9513 0.9513
2000.000000 0.9513 0.9512 0.9512 0.9512 0.9512
1995.000000 0.9512 0.9512 0.9512 0.9511 0.9511
1990.000000 0.9511 0.9511 0.9511 0.9511 0.9511
1985.000000 0.9510 0.9510 0.9510 0.9511 0.9511
1980.000000 0.9511 0.9512 0.9512 0.9512 0.9512
1975.000000 0.9512 0.9513 0.9513 0.9513 0.9514
1970.000000 0.9514 0.9514 0.9515 0.9515 0.9514
1965.000000 0.9513 0.9513 0.9512 0.9511 0.9511
1960.000000 0.9510 0.9509 0.9509 0.9508 0.9507
1955.000000 0.9507 0.9506 0.9505 0.9505 0.9504
1950.000000 0.9503 0.9503 0.9502 0.9501 0.9501
1945.000000 0.9500 0.9499 0.9499 0.9498 0.9498
1940.000000 0.9497 0.9496 0.9496 0.9496 0.9496
1935.000000 0.9496 0.9496 0.9495 0.9495 0.9495
1930.000000 0.9495 0.9495 0.9495 0.9495 0.9494
1925.000000 0.9494 0.9494 0.9494 0.9494 0.9494
1920.000000 0.9493 0.9493 0.9493 0.9493 0.9493
1915.000000 0.9493 0.9492 0.9491 0.9490 0.9489
1910.000000 0.9488 0.9487 0.9486 0.9485 0.9484
1905.000000 0.9483 0.9481 0.9481 0.9480 0.9478
1900.000000 0.9478 0.9477 0.9475 0.9475 0.9473
1895.000000 0.9471 0.9471 0.9470 0.9468 0.9468
1890.000000 0.9467 0.9467 0.9468 0.9468 0.9468
1885.000000 0.9468 0.9468 0.9468 0.9468 0.9468
1880.000000 0.9468 0.9468 0.9468 0.9468 0.9468
1875.000000 0.9468 0.9468 0.9468 0.9468 0.9468
1870.000000 0.9468 0.9467 0.9467 0.9467 0.9467
1865.000000 0.9467 0.9467 0.9467 0.9466 0.9466
1860.000000 0.9465 0.9464 0.9462 0.9460 0.9459
1855.000000 0.9456 0.9452 0.9447 0.9438 0.9430
1850.000000 0.9421 0.9413 0.9405 0.9396 0.9387
1845.000000 0.9378 0.9371 0.9364 0.9356 0.9348
1840.000000 0.9345 0.9343 0.9343 0.9343 0.9342
1835.000000 0.9341 0.9339 0.9331 0.9321 0.9310
1830.000000 0.9299 0.9288 0.9277 0.9266 0.9254
1825.000000 0.9238 0.9221 0.9206 0.9190 0.9174
1820.000000 0.9158 0.9140 0.9118 0.9097 0.9075
1815.000000 0.9055 0.9034 0.9012 0.8990 0.8968
1810.000000 0.8946 0.8920 0.8893 0.8867 0.8840
1805.000000 0.8813 0.8789 0.8767 0.8747 0.8725
1800.000000 0.8705 0.8685 0.8665 0.8644 0.8623
1795.000000 0.8602 0.8577 0.8551 0.8523 0.8496
1790.000000 0.8468 0.8439 0.8406 0.8368 0.8332
1785.000000 0.8297 0.8263 0.8230 0.8197 0.8161
1780.000000 0.8126 0.8092 0.8056 0.8022 0.8000
1775.000000 0.7986 0.7981 0.7978 0.7975 0.7974
1770.000000 0.7968 0.7962 0.7955 0.7943 0.7912
1765.000000 0.7875 0.7834 0.7775 0.7530 0.7271
1760.000000 0.7010 0.6747 0.6485 0.6222 0.5958
1755.000000 0.5695 0.5431 0.5166 0.4902 0.4637
1750.000000 0.4372 0.4106 0.3841 0.3575 0.3308
1745.000000 0.3041 0.2774 0.2556 0.2425 0.2307
1740.000000 0.2229 0.2195 0.2179 0.2168 0.2162
1735.000000 0.2162 0.2163 0.2163 0.2163 0.2172
1730.000000 0.2189 0.2228 0.2305 0.2475 0.2631
1725.000000 0.2728 0.2799 0.2861 0.2918 0.2973
1720.000000 0.3026 0.3078 0.3130 0.3182 0.3255
1715.000000 0.3332 0.3460 0.3614 0.3771 0.3926
1710.000000 0.4080 0.4237 0.4394 0.4550 0.4706
1705.000000 0.4862 0.5019 0.5177 0.5334 0.5491
1700.000000 0.5649 0.5807 0.5981 0.6280 0.6897
1695.000000 0.7134 0.7251 0.7331 0.7403 0.7468
1690.000000 0.7521 0.7562 0.7605 0.7646 0.7681
1685.000000 0.7717 0.7756 0.7791 0.7818 0.7841
1680.000000 0.7864 0.7888 0.7898 0.7906 0.7912
1675.000000 0.7917 0.7918 0.7918 0.7926 0.7925
1670.000000 0.7922 0.7921 0.7915 0.7910 0.7905
1665.000000 0.7897 0.7884 0.7867 0.7848 0.7821
1660.000000 0.7796 0.7775 0.7771 0.7771 0.7771
1655.000000 0.7771 0.7771 0.7771 0.7769 0.7767
1650.000000 0.7758 0.7748 0.7739 0.7706 0.7669
1645.000000 0.7606 0.7539 0.7505 0.7493 0.7483
1640.000000 0.7469 0.7449 0.7403 0.7330 0.7206
1635.000000 0.7101 0.7018 0.6941 0.6865 0.6754
1630.000000 0.6654 0.6586 0.6535 0.6501 0.6485
1625.000000 0.6475 0.6469 0.6482 0.6482 0.6482
1620.000000 0.6504 0.6533 0.6594 0.6660 0.6758
1615.000000 0.6861 0.7021 0.7192 0.7393 0.7514
1610.000000 0.7607 0.7696 0.7785 0.7868 0.7950
1605.000000 0.8031 0.8112 0.8198 0.8284 0.8347
1600.000000 0.8388 0.8428 0.8467 0.8499 0.8523
1595.000000 0.8547 0.8571 0.8595 0.8618 0.8643
1590.000000 0.8665 0.8684 0.8702 0.8718 0.8737
1585.000000 0.8755 0.8773 0.8791 0.8807 0.8818
1580.000000 0.8830 0.8842 0.8853 0.8865 0.8875
1575.000000 0.8887 0.8899 0.8910 0.8918 0.8927
1570.000000 0.8936 0.8944 0.8953 0.8961 0.8968
1565.000000 0.8977 0.8986 0.8994 0.9002 0.9008
1560.000000 0.9013 0.9018 0.9023 0.9021 0.9021
1555.000000 0.9018 0.9018 0.9016 0.9015 0.9013
1550.000000 0.9011 0.9008 0.9004 0.8999 0.8996
1545.000000 0.8992 0.8993 0.8994 0.8999 0.9004
1540.000000 0.9008 0.9013 0.9016 0.9041 0.9021
1535.000000 0.9025 0.9028 0.9032 0.9035 0.9028
1530.000000 0.9018 0.9008 0.8999 0.8996 0.8994
1525.000000 0.8991 0.8989 0.8987 0.8984 0.8981
1520.000000 0.8978 0.8971 0.8967 0.8962 0.8955
1515.000000 0.8950 0.8944 0.8935 0.8918 0.8901
1510.000000 0.8883 0.8865 0.8847 0.8828 0.8807
1505.000000 0.8777 0.8748 0.8718 0.8689 0.8661
1500.000000 0.8634 0.8606 0.8578 0.8550 0.8523
1495.000000 0.8495 0.8457 0.8411 0.8365 0.8318
1490.000000 0.8271 0.8224 0.8176 0.8128 0.8081
1485.000000 0.8024 0.7945 0.7857 0.7767 0.7675
1480.000000 0.7582 0.7485 0.7389 0.7311 0.7261
1475.000000 0.7214 0.7168 0.7118 0.7065 0.7011
1470.000000 0.6930 0.6764 0.6643 0.6551 0.6500
1465.000000 0.6447 0.6417 0.6407 0.6394 0.6378
1460.000000 0.6364 0.6349 0.6330 0.6309 0.6284
1455.000000 0.6253 0.6218 0.6171 0.5818 0.5659
1450.000000 0.5633 0.5621 0.5609 0.5600 0.5597
1445.000000 0.5596 0.5596 0.5596 0.5596 0.5600
1440.000000 0.5614 0.5628 0.5644 0.5660 0.5678
1435.000000 0.5694 0.5712 0.5731 0.5750 0.5768
1430.000000 0.5781 0.5791 0.5799 0.5804 0.5809
1425.000000 0.5812 0.5818 0.5822 0.5827 0.5831
1420.000000 0.5836 0.5841 0.5845 0.5850 0.5856
1415.000000 0.5860 0.5868 0.5874 0.5880 0.5891
1410.000000 0.5903 0.5915 0.5927 0.5937 0.5947
1405.000000 0.5957 0.5968 0.5978 0.5988 0.5998
1400.000000 0.6006 0.6010 0.6014 0.6017 0.6018
1395.000000 0.6018 0.6012 0.6008 0.5995 0.5975
1390.000000 0.5956 0.5936 0.5914 0.5893 0.5874
1385.000000 0.5862 0.5852 0.5841 0.5792 0.5830
1380.000000 0.5829 0.5829 0.5830 0.5832 0.5837
1375.000000 0.5842 0.5849 0.5854 0.5860 0.5875
1370.000000 0.5910 0.5952 0.5989 0.6019 0.6049
1365.000000 0.6075 0.6083 0.6080 0.6074 0.6054
1360.000000 0.6029 0.6006 0.5982 0.5957 0.5933
1355.000000 0.5908 0.5884 0.5859 0.5835 0.5817
1350.000000 0.5804 0.5792 0.5796 0.5787 0.5785
1345.000000 0.5792 0.5806 0.5821 0.5848 0.5895
1340.000000 0.5931 0.5962 0.5988 0.5994 0.5998
1335.000000 0.6001 0.6010 0.6036 0.6062 0.6118
1330.000000 0.6180 0.6257 0.6285 0.6295 0.6301
1325.000000 0.6306 0.6306 0.6306 0.6306 0.6306
1320.000000 0.6307 0.6309 0.6310 0.6310 0.6310
1315.000000 0.6312 0.6312 0.6314 0.6315 0.6315
1310.000000 0.6316 0.6317 0.6318 0.6319 0.6320
1305.000000 0.6320 0.6321 0.6322 0.6323 0.6324
1300.000000 0.6325 0.6325 0.6326 0.6326 0.6326
1295.000000 0.6325 0.6324 0.6323 0.6322 0.6321
1290.000000 0.6320 0.6320 0.6320 0.6320 0.6324
1285.000000 0.6329 0.6334 0.6339 0.6345 0.6351
1280.000000 0.6359 0.6368 0.6378 0.6386 0.6394
1275.000000 0.6398 0.6400 0.6394 0.6385 0.6376
1270.000000 0.6366 0.6354 0.6340 0.6327 0.6314
1265.000000 0.6307 0.6300 0.6293 0.6286 0.6280
1260.000000 0.6276 0.6272 0.6272 0.6272 0.6275
1255.000000 0.6282 0.6290 0.6298 0.6306 0.6318
1250.000000 0.6333 0.6347 0.6362 0.6394 0.6426
1245.000000 0.6461 0.6499 0.6538 0.6575 0.6611
1240.000000 0.6648 0.6685 0.6721 0.6751 0.6775
1235.000000 0.6798 0.6806 0.6811 0.6819 0.6824
1230.000000 0.6824 0.6824 0.6822 0.6819 0.6818
1225.000000 0.6810 0.6797 0.6784 0.6771 0.6757
1220.000000 0.6742 0.6724 0.6707 0.6689 0.6669
1215.000000 0.6651 0.6633 0.6614 0.6594 0.6571
1210.000000 0.6550 0.6508 0.6462 0.6410 0.6360
1205.000000 0.6341 0.6331 0.6323 0.6312 0.6317
1200.000000 0.6317 0.6329 0.6339 0.6360 0.6386
1195.000000 0.6411 0.6435 0.6454 0.6465 0.6478
1190.000000 0.6485 0.6508 0.6494 0.6498 0.6487
1185.000000 0.6474 0.6444 0.6408 0.6375 0.6342
1180.000000 0.6309 0.6285 0.6264 0.6243 0.6221
1175.000000 0.6199 0.6178 0.6160 0.6145 0.6138
1170.000000 0.6130 0.6122 0.6117 0.6112 0.6106
1165.000000 0.6102 0.6099 0.6096 0.6094 0.6089
1160.000000 0.6082 0.6074 0.6066 0.6048 0.6028
1155.000000 0.5992 0.5934 0.5835 0.5679 0.5549
1150.000000 0.5418 0.5287 0.5155 0.5024 0.4892
1145.000000 0.4760 0.4628 0.4543 0.4474 0.4385
1140.000000 0.4299 0.4223 0.4165 0.4124 0.4115
1135.000000 0.4106 0.4098 0.4089 0.4080 0.4060
1130.000000 0.4027 0.3993 0.3966 0.3943 0.3920
1125.000000 0.3896 0.3876 0.3856 0.3837 0.3809
1120.000000 0.3810 0.3812 0.3816 0.3832 0.3849
1115.000000 0.3876 0.3916 0.3957 0.3995 0.4034
1110.000000 0.4070 0.4104 0.4132 0.4158 0.4138
1105.000000 0.4110 0.4043 0.3946 0.3855 0.3779
1100.000000 0.3690 0.3599 0.3549 0.3516 0.3492
1095.000000 0.3480 0.3482 0.3498 0.3523 0.3550
1090.000000 0.3574 0.3594 0.3608 0.3616 0.3621
1085.000000 0.3644 0.3607 0.3582 0.3514 0.3412
1080.000000 0.3309 0.3230 0.3147 0.3034 0.2935
1075.000000 0.2824 0.2734 0.2712 0.2703 0.2695
1070.000000 0.2687 0.2677 0.2665 0.2651 0.2638
1065.000000 0.2624 0.2611 0.2597 0.2583 0.2564
1060.000000 0.2544 0.2523 0.2468 0.2407 0.2321
1055.000000 0.2232 0.2132 0.2026 0.1914 0.1831
1050.000000 0.1744 0.1676 0.1635 0.1612 0.1601
1045.000000 0.1588 0.1596 0.1602 0.1628 0.1660
1040.000000 0.1704 0.1774 0.1853 0.1935 0.2018
1035.000000 0.2108 0.2204 0.2314 0.2438 0.2566
1030.000000 0.2683 0.2730 0.2781 0.2835 0.2890
1025.000000 0.2945 0.3014 0.3084 0.3170 0.3291
1020.000000 0.3412 0.3578 0.3768 0.4125 0.4428
1015.000000 0.4592 0.4740 0.4881 0.5014 0.5129
1010.000000 0.5215 0.5285 0.5344 0.5394 0.5439
1005.000000 0.5483 0.5523 0.5560 0.5597 0.5638
1000.000000 0.5692 0.6145 0.6149 0.6094 0.5989
995.000000 0.5868 0.5793 0.5724 0.5651 0.5571
990.000000 0.5483 0.5395 0.5309 0.5224 0.5119
985.000000 0.5026 0.4959 0.4915 0.4893 0.4888
980.000000 0.4957 0.5048 0.5127 0.5252 0.5399
975.000000 0.5548 0.5702 0.5844 0.5976 0.6101
970.000000 0.6219 0.6312 0.6395 0.6465 0.6497
965.000000 0.6515 0.6551 0.6543 0.6539 0.6481
960.000000 0.6430 0.6400 0.6381 0.6374 0.6366
955.000000 0.6365 0.6369 0.6467 0.6565 0.6658
950.000000 0.6743 0.6858 0.6999 0.7107 0.7206
945.000000 0.7282 0.7340 0.7368 0.7392 0.7408
940.000000 0.7419 0.7418 0.7432 0.7415 0.7415
935.000000 0.7418 0.7425 0.7425 0.7425 0.7408
930.000000 0.7391 0.7371 0.7337 0.7301 0.7265
925.000000 0.7226 0.7186 0.7146 0.7091 0.7022
920.000000 0.6957 0.6889 0.6815 0.6740 0.6658
915.000000 0.6568 0.6480 0.6382 0.6285 0.6185
910.000000 0.6075 0.5977 0.5912 0.5910 0.5905
905.000000 0.5941 0.6054 0.6141 0.6228 0.6332
900.000000 0.6458 0.6558 0.6664 0.6774 0.6832
895.000000 0.6840 0.6850 0.6875 0.6941 0.6995
890.000000 0.7025 0.7042 0.7011 0.7026 0.7055
885.000000 0.7036 0.6895 0.6839 0.6821 0.6811
880.000000 0.6803 0.6774 0.6811 0.6925 0.6958
875.000000 0.6964 0.6956 0.6996 0.7041 0.7068
870.000000 0.7097 0.7125 0.7151 0.7172 0.7193
865.000000 0.7214 0.7234 0.7253 0.7272 0.7292
860.000000 0.7308 0.7321 0.7339 0.7372 0.7431
855.000000 0.7478 0.7487 0.7491 0.7508 0.7548
850.000000 0.7655 0.7651 0.7625 0.7558 0.7521
845.000000 0.7511 0.7458 0.7350 0.7225 0.7162
840.000000 0.7125 0.7011 0.6850 0.6760 0.6738
835.000000 0.6742 0.6715 0.6656 0.6611 0.6593
830.000000 0.6587 0.6618 0.6642 0.6631 0.6615
825.000000 0.6610 0.6649 0.6710 0.6768 0.6828
820.000000 0.6887 0.6946 0.7005 0.7068 0.7138
815.000000 0.7206 0.7239 0.7301 0.7411 0.7478
810.000000 0.7492 0.7501 0.7524 0.7665 0.7669
805.000000 0.7648 0.7614 0.7593 0.7622 0.7641
800.000000 0.7601 0.7512 0.7469 0.7454 0.7415
795.000000 0.7338 0.7221 0.7228 0.7265 0.7289
790.000000 0.7304 0.7333 0.7410 0.7519 0.7575
785.000000 0.7588 0.7601 0.7617 0.7645 0.7719
780.000000 0.7703 0.7693 0.7631 0.7621 0.7661
775.000000 0.7697 0.7694 0.7643 0.7590 0.7562
770.000000 0.7544 0.7525 0.7511 0.7498 0.7501
765.000000 0.7518 0.7533 0.7506 0.7439 0.7408
760.000000 0.7367 0.7318 0.7246 0.7221 0.7208
755.000000 0.7215 0.7232 0.7210 0.7198 0.7215
750.000000 0.7231 0.7243 0.7203 0.7119 0.7121
745.000000 0.7121 0.7122 0.7125 0.7067 0.7006
740.000000 0.7021 0.7041 0.7054 0.7067 0.7080
735.000000 0.7094 0.7107 0.7103 0.7087 0.7071
730.000000 0.7040 0.7022 0.7018 0.7012 0.6965
725.000000 0.6945 0.6942 0.6930 0.6917 0.6881
720.000000 0.6840 0.6825 0.6812 0.6780 0.6728
715.000000 0.6668 0.6598 0.6605 0.6606 0.6584
710.000000 0.6525 0.6432 0.6412 0.6461 0.6448
705.000000 0.6421 0.6400 0.6394 0.6391 0.6389
700.000000 0.6384 0.6371 0.6360 0.6348 0.6337
695.000000 0.6332 0.6330 0.6327 0.6324 0.6321
690.000000 0.6318 0.6310 0.6297 0.6284 0.6272
685.000000 0.6253 0.6229 0.6204 0.6179 0.6149
680.000000 0.6117 0.6084 0.6052 0.6024 0.6032
675.000000 0.6032 0.5995 0.5955 0.5918 0.5921
670.000000 0.5938 0.5955 0.5978 0.5983 0.5971
665.000000 0.5958 0.5940 0.5921 0.5904 0.5904
660.000000 0.5905 0.5934 0.5936 0.5909 0.5883
655.000000 0.5889 0.5925
##END=
