##TITLE=Triazolo[4,5-d]pyrimidin-7-ol,3H-v-, 5-amino-3-(2',3'-o-isopropylidene-Beta-D-ribofuranosyl)-, 5'-diphenyl phosphate (keto form)
##JCAMP-DX=4.24
##DATA TYPE=INFRARED SPECTRUM
##CLASS=COBLENTZ III
##ORIGIN=SOUTHERN RESEARCH INSTITUTE
##OWNER=Copyright (C) 1987 by the Coblentz Society
Collection (C) 2018 copyright by the U.S. Secretary of Commerce
on behalf of the United States of America. All rights reserved.
##DATE=1959/12/03
##MOLFORM=C24 H25 N6 O8 P
##SOURCE REFERENCE=COBLENTZ NO. 8732
##$NIST ID=B6008732
##$NIST SOURCE=COBLENTZ
##$NIST IMAGE=cob8732
##SPECTROMETER/DATA SYSTEM=PERKIN-ELMER 21 (GRATING)
##INSTRUMENT PARAMETERS=FILTER CHANGE ABOUT 1020 CM^-^1
##STATE=SOLID (0.9 mg / 650 mg KBr DISC)
##SAMPLING PROCEDURE=TRANSMISSION
##RESOLUTION=2
##DATA PROCESSING=DIGITIZED BY COBLENTZ SOCIETY (BATCH II) FROM HARD COPY (ADJUSTED \addcm-1\15-12-3\)
##XUNITS=1/CM
##YUNITS=TRANSMITTANCE
##XFACTOR=1.0
##YFACTOR=1
##DELTAX=1.005404
##FIRSTX=601.741
##LASTX=4020.11
##FIRSTY=0.657
##MAXX=4020.11
##MINX=601.741
##MAXY=0.9116
##MINY=0.219658
##NPOINTS=3401
##XYDATA=(X++(Y..Y))
601.741478 0.6570 0.6572 0.6572 0.6572 0.6573
606.768497 0.6573 0.6573 0.6573 0.6549 0.6574
611.795517 0.6574 0.6574 0.6574 0.6574 0.6575
616.822536 0.6574 0.6574 0.6573 0.6572 0.6571
621.849556 0.6570 0.6569 0.6569 0.6564 0.6559
626.876575 0.6553 0.6548 0.6542 0.6536 0.6531
631.903595 0.6525 0.6519 0.6511 0.6503 0.6495
636.930615 0.6487 0.6478 0.6470 0.6462 0.6453
641.957634 0.6445 0.6431 0.6416 0.6401 0.6386
646.984654 0.6370 0.6351 0.6331 0.6312 0.6292
652.011673 0.6272 0.6247 0.6217 0.6187 0.6157
657.038693 0.6127 0.6097 0.6064 0.6027 0.5990
662.065712 0.5953 0.5917 0.5880 0.5845 0.5813
667.092732 0.5781 0.5749 0.5716 0.5684 0.5652
672.119751 0.5619 0.5581 0.5533 0.5484 0.5436
677.146771 0.5388 0.5336 0.5278 0.5221 0.5165
682.173791 0.5118 0.5075 0.5066 0.5056 0.5059
687.200810 0.5070 0.5038 0.5144 0.5225 0.5597
692.227830 0.5752 0.5912 0.6072 0.6232 0.6392
697.254849 0.6552 0.6740 0.6722 0.6737 0.6740
702.281869 0.6734 0.6722 0.6712 0.6703 0.6693
707.308888 0.6680 0.6665 0.6649 0.6634 0.6617
712.335908 0.6600 0.6582 0.6564 0.6547 0.6529
717.362928 0.6509 0.6489 0.6469 0.6449 0.6429
722.389947 0.6408 0.6388 0.6362 0.6336 0.6310
727.416967 0.6284 0.6258 0.6230 0.6200 0.6170
732.443986 0.6141 0.6111 0.6077 0.6043 0.6009
737.471006 0.5892 0.5763 0.5633 0.5489 0.5332
742.498025 0.5170 0.5018 0.4888 0.4785 0.4702
747.525045 0.4646 0.4590 0.4529 0.4469 0.4447
752.552064 0.4428 0.4422 0.4422 0.4423 0.4407
757.579084 0.4423 0.4423 0.4425 0.4427 0.4429
762.606104 0.4430 0.4432 0.4437 0.4442 0.4447
767.633123 0.4451 0.4459 0.4469 0.4478 0.4488
772.660143 0.4499 0.4514 0.4528 0.4586 0.4671
777.687162 0.4756 0.4842 0.4927 0.5013 0.5098
782.714182 0.5183 0.5269 0.5353 0.5439 0.5524
787.741201 0.5609 0.5695 0.5780 0.5866 0.5951
792.768221 0.6037 0.6122 0.6233 0.6316 0.6396
797.795240 0.6437 0.6474 0.6504 0.6519 0.6527
802.822260 0.6523 0.6519 0.6506 0.6499 0.6488
807.849280 0.6471 0.6447 0.6421 0.6394 0.6363
812.876299 0.6333 0.6303 0.6273 0.6243 0.6213
817.903319 0.6184 0.6164 0.6145 0.6129 0.6126
822.930338 0.6124 0.6122 0.6123 0.6126 0.6129
827.957358 0.6132 0.6135 0.6137 0.6140 0.6142
832.984377 0.6145 0.6147 0.6150 0.6152 0.6155
838.011397 0.6157 0.6159 0.6160 0.6157 0.6155
843.038417 0.6148 0.6125 0.6099 0.6063 0.6022
848.065436 0.5973 0.5918 0.5863 0.5814 0.5777
853.092456 0.5741 0.5704 0.5668 0.5632 0.5588
858.119475 0.5540 0.5511 0.5501 0.5473 0.5500
863.146495 0.5524 0.5548 0.5582 0.5655 0.5775
868.173514 0.5900 0.6026 0.6151 0.6276 0.6402
873.200534 0.6527 0.6653 0.6756 0.6813 0.6838
878.227553 0.6855 0.6864 0.6865 0.6892 0.6869
883.254573 0.6862 0.6857 0.6849 0.6835 0.6816
888.281593 0.6793 0.6767 0.6740 0.6711 0.6681
893.308612 0.6651 0.6621 0.6591 0.6561 0.6530
898.335632 0.6499 0.6473 0.6451 0.6429 0.6410
903.362651 0.6396 0.6384 0.6371 0.6360 0.6354
908.389671 0.6349 0.6344 0.6340 0.6333 0.6325
913.416690 0.6315 0.6300 0.6277 0.6253 0.6215
918.443710 0.6159 0.6096 0.6031 0.5949 0.5834
923.470729 0.5711 0.5589 0.5466 0.5343 0.5221
928.497749 0.5099 0.4957 0.4808 0.4659 0.4531
933.524769 0.4410 0.4254 0.4082 0.3924 0.3750
938.551788 0.3547 0.3436 0.3360 0.3283 0.3205
943.578808 0.3105 0.2995 0.2894 0.2807 0.2722
948.605827 0.2637 0.2554 0.2504 0.2488 0.2477
953.632847 0.2480 0.2487 0.2494 0.2505 0.2522
958.659866 0.2539 0.2564 0.2602 0.2639 0.2672
963.686886 0.2705 0.2738 0.2771 0.2804 0.2837
968.713905 0.2871 0.2907 0.2942 0.2977 0.3024
973.740925 0.3086 0.3507 0.4183 0.4552 0.4713
978.767945 0.4800 0.4845 0.4871 0.4889 0.4904
983.794964 0.4914 0.4922 0.4929 0.4936 0.4935
988.821984 0.4934 0.4928 0.4920 0.4913 0.4906
993.849003 0.4890 0.4869 0.4844 0.4816 0.4777
998.876023 0.4730 0.4676 0.4616 0.4540 0.4427
1003.903042 0.4297 0.4150 0.3984 0.3800 0.3621
1008.930062 0.3520 0.3463 0.3401 0.3332 0.3293
1013.957082 0.3286 0.3284 0.3282 0.3279 0.3252
1018.984101 0.3200 0.3092 0.2947 0.2878 0.2882
1024.011121 0.2891 0.2895 0.2901 0.2907 0.2914
1029.038140 0.2921 0.2941 0.2981 0.3026 0.3058
1034.065160 0.3077 0.3092 0.3106 0.3119 0.3133
1039.092179 0.3147 0.3158 0.3168 0.3177 0.3187
1044.119199 0.3199 0.3221 0.3251 0.3316 0.3386
1049.146218 0.3418 0.3441 0.3463 0.3485 0.3507
1054.173238 0.3529 0.3550 0.3571 0.3589 0.3604
1059.200258 0.3619 0.3634 0.3649 0.3664 0.3677
1064.227277 0.3688 0.3700 0.3711 0.3723 0.3735
1069.254297 0.3749 0.3769 0.3791 0.3814 0.3841
1074.281316 0.3873 0.3907 0.3970 0.4051 0.4107
1079.308336 0.4156 0.4214 0.4292 0.4360 0.4390
1084.335355 0.4413 0.4436 0.4459 0.4480 0.4501
1089.362375 0.4519 0.4531 0.4538 0.4544 0.4545
1094.389394 0.4546 0.4547 0.4548 0.4549 0.4548
1099.416414 0.4547 0.4546 0.4544 0.4543 0.4543
1104.443434 0.4544 0.4546 0.4555 0.4582 0.4613
1109.470453 0.4647 0.4682 0.4720 0.4765 0.4821
1114.497473 0.4876 0.4923 0.4964 0.5005 0.5044
1119.524492 0.5075 0.5097 0.5119 0.5141 0.5159
1124.551512 0.5175 0.5192 0.5213 0.5247 0.5289
1129.578531 0.5363 0.5479 0.5587 0.5652 0.5743
1134.605551 0.5920 0.6177 0.6235 0.6239 0.6243
1139.632570 0.6245 0.6251 0.6258 0.6238 0.6226
1144.659590 0.6190 0.6065 0.5911 0.5759 0.5605
1149.686610 0.5452 0.5299 0.5146 0.4993 0.4840
1154.713629 0.4687 0.4534 0.4384 0.4247 0.4110
1159.740649 0.4021 0.3993 0.3992 0.4004 0.3994
1164.767668 0.4027 0.4180 0.4336 0.4492 0.4646
1169.794688 0.4778 0.4785 0.4791 0.4789 0.4785
1174.821707 0.4764 0.4654 0.4480 0.4306 0.4133
1179.848727 0.3959 0.3785 0.3611 0.3437 0.3264
1184.875747 0.3092 0.2967 0.2932 0.2898 0.2889
1189.902766 0.2886 0.2861 0.2891 0.2895 0.2905
1194.929786 0.2960 0.3258 0.3557 0.3855 0.4152
1199.956805 0.4316 0.4377 0.4384 0.4386 0.4459
1204.983825 0.4384 0.4364 0.4301 0.4203 0.4131
1210.010844 0.4067 0.4005 0.3947 0.3880 0.3807
1215.037864 0.3749 0.3745 0.3745 0.3755 0.3727
1220.064883 0.3834 0.3898 0.3962 0.4023 0.4058
1225.091903 0.4092 0.4139 0.4203 0.4396 0.4840
1230.118923 0.4996 0.5043 0.5020 0.5021 0.5019
1235.145942 0.5015 0.5002 0.4986 0.4966 0.4947
1240.172962 0.4913 0.4897 0.4899 0.4900 0.4902
1245.199981 0.4903 0.4904 0.4907 0.4898 0.4870
1250.227001 0.4809 0.4745 0.4682 0.4613 0.4532
1255.254020 0.4458 0.4390 0.4330 0.4271 0.4214
1260.281040 0.4172 0.4130 0.4089 0.4073 0.4059
1265.308059 0.4044 0.4036 0.4030 0.4024 0.4018
1270.335079 0.4016 0.4015 0.4014 0.3991 0.4013
1275.362099 0.4016 0.4018 0.4024 0.4030 0.4039
1280.389118 0.4048 0.4057 0.4067 0.4085 0.4105
1285.416138 0.4126 0.4151 0.4176 0.4200 0.4241
1290.443157 0.4284 0.4327 0.4368 0.4409 0.4471
1295.470177 0.4544 0.4677 0.4876 0.4999 0.5112
1300.497196 0.5225 0.5339 0.5452 0.5565 0.5678
1305.524216 0.5790 0.5857 0.5918 0.5991 0.6071
1310.551235 0.6150 0.6241 0.6341 0.6447 0.6567
1315.578255 0.6669 0.6741 0.6809 0.6944 0.7058
1320.605275 0.7136 0.7182 0.7209 0.7223 0.7232
1325.632294 0.7239 0.7245 0.7250 0.7247 0.7255
1330.659314 0.7258 0.7257 0.7255 0.7251 0.7245
1335.686333 0.7239 0.7221 0.7197 0.7168 0.7138
1340.713353 0.7100 0.7059 0.7017 0.6976 0.6934
1345.740372 0.6887 0.6839 0.6791 0.6740 0.6685
1350.767392 0.6629 0.6559 0.6456 0.6350 0.6248
1355.794412 0.6145 0.6029 0.5927 0.5838 0.5751
1360.821431 0.5659 0.5566 0.5462 0.5363 0.5313
1365.848451 0.5273 0.5233 0.5194 0.5155 0.5115
1370.875470 0.5081 0.5035 0.5040 0.5045 0.5048
1375.902490 0.5059 0.5072 0.5089 0.5106 0.5136
1380.929509 0.5172 0.5241 0.5286 0.5321 0.5371
1385.956529 0.5425 0.5467 0.5567 0.5719 0.5881
1390.983548 0.6043 0.6205 0.6367 0.6529 0.6692
1396.010568 0.6854 0.7012 0.7143 0.7254 0.7337
1401.037588 0.7407 0.7461 0.7511 0.7546 0.7575
1406.064607 0.7601 0.7628 0.7654 0.7682 0.7712
1411.091627 0.7743 0.7774 0.7807 0.7841 0.7874
1416.118646 0.7907 0.7931 0.7951 0.7971 0.7986
1421.145666 0.8031 0.8013 0.8004 0.8004 0.8003
1426.172685 0.7994 0.7983 0.7972 0.7962 0.7951
1431.199705 0.7941 0.7930 0.7919 0.7908 0.7895
1436.226724 0.7879 0.7860 0.7838 0.7816 0.7790
1441.253744 0.7749 0.7700 0.7658 0.7618 0.7579
1446.280764 0.7501 0.7394 0.7280 0.7194 0.7108
1451.307783 0.7024 0.6952 0.6898 0.6868 0.6853
1456.334803 0.6840 0.6847 0.6864 0.6917 0.7001
1461.361822 0.7064 0.7115 0.7168 0.7195 0.7201
1466.388842 0.7183 0.7191 0.7194 0.7187 0.7170
1471.415861 0.7146 0.7121 0.7091 0.7058 0.7019
1476.442881 0.6971 0.6903 0.6824 0.6715 0.6454
1481.469901 0.6121 0.5789 0.5456 0.5125 0.4792
1486.496920 0.4460 0.4127 0.3813 0.3651 0.3609
1491.523940 0.3605 0.3606 0.3625 0.3725 0.3985
1496.550959 0.4316 0.4646 0.4976 0.5306 0.5637
1501.577979 0.5966 0.6297 0.6627 0.6926 0.7068
1506.604998 0.7113 0.7128 0.7147 0.7141 0.7127
1511.632018 0.7120 0.7111 0.7098 0.7077 0.7024
1516.659037 0.6921 0.6793 0.6664 0.6536 0.6407
1521.686057 0.6278 0.6150 0.6021 0.5893 0.5764
1526.713077 0.5636 0.5525 0.5444 0.5375 0.5350
1531.740096 0.5329 0.5318 0.5312 0.5314 0.5342
1536.767116 0.5447 0.5613 0.5777 0.5942 0.6107
1541.794135 0.6267 0.6388 0.6433 0.6467 0.6484
1546.821155 0.6487 0.6490 0.6483 0.6475 0.6486
1551.848174 0.6452 0.6438 0.6409 0.6293 0.6009
1556.875194 0.5718 0.5427 0.5137 0.4889 0.4818
1561.902213 0.4768 0.4717 0.4681 0.4646 0.4326
1566.929233 0.3921 0.3391 0.3206 0.2815 0.2634
1571.956253 0.2556 0.2482 0.2421 0.2366 0.2311
1576.983272 0.2272 0.2250 0.2234 0.2218 0.2202
1582.010292 0.2197 0.2199 0.2200 0.2201 0.2203
1587.037311 0.2207 0.2215 0.2226 0.2236 0.2254
1592.064331 0.2281 0.2314 0.2350 0.2432 0.2595
1597.091350 0.2772 0.2949 0.3125 0.3301 0.3478
1602.118370 0.3655 0.3831 0.4008 0.4184 0.4361
1607.145389 0.4537 0.4685 0.4721 0.4735 0.4746
1612.172409 0.4749 0.4753 0.4757 0.4760 0.4735
1617.199429 0.4700 0.4578 0.4397 0.4217 0.4036
1622.226448 0.3855 0.3674 0.3494 0.3313 0.3139
1627.253468 0.2996 0.2874 0.2803 0.2753 0.2719
1632.280487 0.2690 0.2678 0.2667 0.2659 0.2660
1637.307507 0.2658 0.2671 0.2687 0.2709 0.2731
1642.334526 0.2759 0.2816 0.2921 0.3064 0.3193
1647.361546 0.3323 0.3453 0.3582 0.3712 0.3841
1652.388566 0.3971 0.4101 0.4230 0.4359 0.4489
1657.415585 0.4619 0.4748 0.4878 0.5007 0.5137
1662.442605 0.5265 0.5375 0.5451 0.5540 0.5630
1667.469624 0.5676 0.5716 0.5740 0.5757 0.5754
1672.496644 0.5742 0.5766 0.5763 0.5756 0.5726
1677.523663 0.5622 0.5470 0.5317 0.5165 0.5013
1682.550683 0.4860 0.4708 0.4556 0.4403 0.4251
1687.577702 0.4099 0.3947 0.3794 0.3657 0.3565
1692.604722 0.3501 0.3440 0.3382 0.3299 0.3182
1697.631742 0.3105 0.3032 0.2949 0.2874 0.2837
1702.658761 0.2820 0.2803 0.2788 0.2778 0.2769
1707.685781 0.2761 0.2757 0.2754 0.2754 0.2753
1712.712800 0.2756 0.2765 0.2782 0.2814 0.2855
1717.739820 0.2969 0.3190 0.3369 0.3549 0.3729
1722.766839 0.3903 0.4036 0.4114 0.4190 0.4264
1727.793859 0.4348 0.4452 0.4577 0.4718 0.4849
1732.820878 0.4960 0.5055 0.5139 0.5217 0.5297
1737.847898 0.5380 0.5467 0.5560 0.5663 0.5790
1742.874918 0.6062 0.6354 0.6424 0.6494 0.6564
1747.901937 0.6656 0.6824 0.7003 0.7092 0.7152
1752.928957 0.7224 0.7324 0.7432 0.7521 0.7581
1757.955976 0.7613 0.7639 0.7660 0.7672 0.7681
1762.982996 0.7691 0.7701 0.7711 0.7727 0.7752
1768.010015 0.7776 0.7798 0.7821 0.7842 0.7860
1773.037035 0.7878 0.7897 0.7915 0.7932 0.7950
1778.064054 0.7968 0.7985 0.8003 0.8021 0.8039
1783.091074 0.8057 0.8081 0.8107 0.8133 0.8159
1788.118094 0.8186 0.8211 0.8235 0.8258 0.8281
1793.145113 0.8304 0.8327 0.8350 0.8373 0.8396
1798.172133 0.8418 0.8437 0.8454 0.8472 0.8489
1803.199152 0.8506 0.8524 0.8541 0.8559 0.8577
1808.226172 0.8594 0.8609 0.8623 0.8637 0.8650
1813.253191 0.8664 0.8678 0.8692 0.8705 0.8716
1818.280211 0.8726 0.8737 0.8748 0.8758 0.8769
1823.307231 0.8779 0.8788 0.8794 0.8799 0.8804
1828.334250 0.8809 0.8814 0.8819 0.8822 0.8823
1833.361270 0.8823 0.8823 0.8823 0.8824 0.8824
1838.388289 0.8823 0.8821 0.8819 0.8816 0.8814
1843.415309 0.8811 0.8807 0.8803 0.8797 0.8791
1848.442328 0.8786 0.8784 0.8782 0.8780 0.8779
1853.469348 0.8777 0.8775 0.8773 0.8775 0.8779
1858.496367 0.8784 0.8788 0.8792 0.8795 0.8800
1863.523387 0.8805 0.8811 0.8815 0.8818 0.8821
1868.550407 0.8824 0.8827 0.8830 0.8833 0.8836
1873.577426 0.8839 0.8841 0.8842 0.8844 0.8845
1878.604446 0.8847 0.8849 0.8850 0.8850 0.8851
1883.631465 0.8852 0.8852 0.8853 0.8854 0.8854
1888.658485 0.8853 0.8852 0.8851 0.8850 0.8849
1893.685504 0.8847 0.8846 0.8845 0.8844 0.8843
1898.712524 0.8842 0.8841 0.8839 0.8837 0.8835
1903.739543 0.8833 0.8831 0.8829 0.8827 0.8825
1908.766563 0.8823 0.8821 0.8818 0.8816 0.8814
1913.793583 0.8812 0.8810 0.8808 0.8806 0.8804
1918.820602 0.8803 0.8801 0.8799 0.8797 0.8795
1923.847622 0.8793 0.8791 0.8789 0.8787 0.8786
1928.874641 0.8786 0.8786 0.8786 0.8786 0.8786
1933.901661 0.8785 0.8785 0.8785 0.8785 0.8785
1938.928680 0.8786 0.8788 0.8790 0.8792 0.8794
1943.955700 0.8796 0.8798 0.8800 0.8802 0.8804
1948.982719 0.8806 0.8808 0.8811 0.8813 0.8816
1954.009739 0.8818 0.8821 0.8823 0.8826 0.8828
1959.036759 0.8831 0.8833 0.8836 0.8838 0.8841
1964.063778 0.8844 0.8846 0.8849 0.8851 0.8854
1969.090798 0.8856 0.8859 0.8861 0.8864 0.8867
1974.117817 0.8870 0.8873 0.8875 0.8878 0.8881
1979.144837 0.8884 0.8887 0.8889 0.8892 0.8895
1984.171856 0.8898 0.8900 0.8903 0.8906 0.8909
1989.198876 0.8912 0.8915 0.8918 0.8920 0.8923
1994.225896 0.8925 0.8926 0.8927 0.8928 0.8929
1999.252915 0.8930 0.8931 0.8932 0.8933 0.8934
2004.279935 0.8935 0.8935 0.8936 0.8937 0.8938
2009.306954 0.8939 0.8940 0.8941 0.8942 0.8943
2014.333974 0.8944 0.8946 0.8949 0.8953 0.8956
2019.360993 0.8959 0.8962 0.8965 0.8968 0.8971
2024.388013 0.8974 0.8978 0.8981 0.8984 0.8987
2029.415032 0.8990 0.8993 0.8996 0.9000 0.9003
2034.442052 0.9007 0.9009 0.9012 0.9014 0.9017
2039.469072 0.9020 0.9022 0.9025 0.9028 0.9030
2044.496091 0.9032 0.9035 0.9037 0.9039 0.9042
2049.523111 0.9044 0.9046 0.9049 0.9051 0.9053
2054.550130 0.9056 0.9058 0.9060 0.9063 0.9065
2059.577150 0.9067 0.9068 0.9070 0.9071 0.9072
2064.604169 0.9074 0.9075 0.9077 0.9078 0.9079
2069.631189 0.9081 0.9082 0.9084 0.9085 0.9086
2074.658208 0.9088 0.9089 0.9090 0.9092 0.9093
2079.685228 0.9095 0.9096 0.9097 0.9099 0.9100
2084.712248 0.9102 0.9103 0.9104 0.9104 0.9104
2089.739267 0.9104 0.9104 0.9105 0.9105 0.9105
2094.766287 0.9105 0.9105 0.9106 0.9106 0.9106
2099.793306 0.9106 0.9106 0.9107 0.9107 0.9107
2104.820326 0.9107 0.9107 0.9108 0.9108 0.9108
2109.847345 0.9108 0.9109 0.9109 0.9109 0.9109
2114.874365 0.9109 0.9109 0.9109 0.9109 0.9109
2119.901385 0.9109 0.9109 0.9109 0.9109 0.9109
2124.928404 0.9109 0.9109 0.9109 0.9109 0.9109
2129.955424 0.9109 0.9109 0.9109 0.9110 0.9111
2134.982443 0.9111 0.9111 0.9112 0.9112 0.9113
2140.009463 0.9113 0.9114 0.9114 0.9114 0.9115
2145.036482 0.9115 0.9116 0.9116 0.9116 0.9116
2150.063502 0.9115 0.9114 0.9114 0.9113 0.9113
2155.090521 0.9112 0.9112 0.9111 0.9111 0.9110
2160.117541 0.9110 0.9109 0.9108 0.9108 0.9107
2165.144561 0.9107 0.9107 0.9106 0.9106 0.9106
2170.171580 0.9105 0.9105 0.9105 0.9104 0.9104
2175.198600 0.9103 0.9103 0.9103 0.9102 0.9102
2180.225619 0.9102 0.9101 0.9101 0.9100 0.9100
2185.252639 0.9100 0.9099 0.9099 0.9098 0.9098
2190.279658 0.9097 0.9097 0.9096 0.9096 0.9095
2195.306678 0.9095 0.9094 0.9094 0.9098 0.9095
2200.333697 0.9093 0.9092 0.9092 0.9091 0.9091
2205.360717 0.9090 0.9090 0.9089 0.9089 0.9089
2210.387737 0.9088 0.9088 0.9088 0.9087 0.9087
2215.414756 0.9087 0.9086 0.9086 0.9085 0.9085
2220.441776 0.9085 0.9084 0.9084 0.9084 0.9083
2225.468795 0.9083 0.9083 0.9082 0.9082 0.9082
2230.495815 0.9081 0.9081 0.9080 0.9080 0.9079
2235.522834 0.9079 0.9078 0.9078 0.9077 0.9077
2240.549854 0.9076 0.9076 0.9075 0.9074 0.9074
2245.576873 0.9073 0.9073 0.9072 0.9072 0.9071
2250.603893 0.9071 0.9070 0.9070 0.9069 0.9069
2255.630913 0.9068 0.9067 0.9067 0.9066 0.9066
2260.657932 0.9065 0.9065 0.9064 0.9064 0.9063
2265.684952 0.9063 0.9062 0.9062 0.9062 0.9062
2270.711971 0.9063 0.9063 0.9064 0.9064 0.9065
2275.738991 0.9066 0.9066 0.9067 0.9067 0.9068
2280.766010 0.9068 0.9069 0.9070 0.9070 0.9071
2285.793030 0.9071 0.9072 0.9072 0.9073 0.9074
2290.820050 0.9074 0.9075 0.9075 0.9076 0.9076
2295.847069 0.9077 0.9078 0.9078 0.9079 0.9079
2300.874089 0.9080 0.9080 0.9080 0.9081 0.9081
2305.901108 0.9081 0.9081 0.9081 0.9082 0.9082
2310.928128 0.9082 0.9082 0.9083 0.9083 0.9083
2315.955147 0.9083 0.9083 0.9084 0.9084 0.9084
2320.982167 0.9084 0.9084 0.9085 0.9085 0.9085
2326.009186 0.9085 0.9086 0.9087 0.9088 0.9089
2331.036206 0.9090 0.9091 0.9092 0.9092 0.9093
2336.063226 0.9094 0.9095 0.9096 0.9096 0.9097
2341.090245 0.9098 0.9098 0.9099 0.9099 0.9100
2346.117265 0.9101 0.9101 0.9102 0.9102 0.9103
2351.144284 0.9103 0.9104 0.9105 0.9105 0.9106
2356.171304 0.9106 0.9107 0.9107 0.9108 0.9108
2361.198323 0.9107 0.9106 0.9105 0.9104 0.9102
2366.225343 0.9100 0.9096 0.9093 0.9088 0.9084
2371.252362 0.9081 0.9077 0.9073 0.9070 0.9066
2376.279382 0.9063 0.9059 0.9056 0.9052 0.9049
2381.306402 0.9046 0.9043 0.9041 0.9038 0.9036
2386.333421 0.9035 0.9034 0.9033 0.9033 0.9033
2391.360441 0.9032 0.9032 0.9032 0.9032 0.9032
2396.387460 0.9032 0.9032 0.9032 0.9033 0.9033
2401.414480 0.9033 0.9033 0.9033 0.9034 0.9034
2406.441499 0.9034 0.9034 0.9034 0.9035 0.9035
2411.468519 0.9035 0.9035 0.9034 0.9034 0.9034
2416.495538 0.9034 0.9034 0.9033 0.9033 0.9033
2421.522558 0.9033 0.9033 0.9034 0.9034 0.9034
2426.549578 0.9034 0.9034 0.9035 0.9035 0.9035
2431.576597 0.9035 0.9035 0.9036 0.9036 0.9036
2436.603617 0.9036 0.9036 0.9036 0.9036 0.9036
2441.630636 0.9036 0.9035 0.9035 0.9035 0.9035
2446.657656 0.9034 0.9034 0.9034 0.9034 0.9033
2451.684675 0.9033 0.9033 0.9033 0.9032 0.9032
2456.711695 0.9032 0.9032 0.9032 0.9032 0.9032
2461.738715 0.9032 0.9032 0.9032 0.9032 0.9032
2466.765734 0.9032 0.9032 0.9032 0.9032 0.9032
2471.792754 0.9032 0.9032 0.9033 0.9033 0.9033
2476.819773 0.9032 0.9031 0.9030 0.9029 0.9028
2481.846793 0.9026 0.9025 0.9024 0.9023 0.9022
2486.873812 0.9021 0.9020 0.9018 0.9017 0.9016
2491.900832 0.9015 0.9014 0.9013 0.9011 0.9009
2496.927851 0.9007 0.9005 0.9003 0.9001 0.8999
2501.954871 0.8997 0.8994 0.8993 0.8993 0.8992
2506.981891 0.8991 0.8990 0.8990 0.8989 0.8988
2512.008910 0.8987 0.8987 0.8986 0.8985 0.8985
2517.035930 0.8984 0.8983 0.8982 0.8982 0.8981
2522.062949 0.8981 0.8981 0.8981 0.8980 0.8980
2527.089969 0.8980 0.8980 0.8979 0.8979 0.8979
2532.116988 0.8979 0.8978 0.8978 0.8978 0.8978
2537.144008 0.8978 0.8977 0.8976 0.8974 0.8973
2542.171027 0.8971 0.8970 0.8969 0.8967 0.8966
2547.198047 0.8964 0.8963 0.8961 0.8960 0.8958
2552.225067 0.8957 0.8955 0.8954 0.8953 0.8951
2557.252086 0.8950 0.8948 0.8947 0.8946 0.8944
2562.279106 0.8943 0.8942 0.8941 0.8939 0.8938
2567.306125 0.8936 0.8935 0.8934 0.8932 0.8931
2572.333145 0.8930 0.8929 0.8929 0.8929 0.8929
2577.360164 0.8929 0.8930 0.8930 0.8930 0.8930
2582.387184 0.8930 0.8931 0.8931 0.8931 0.8931
2587.414203 0.8931 0.8932 0.8932 0.8932 0.8932
2592.441223 0.8932 0.8933 0.8933 0.8934 0.8935
2597.468243 0.8937 0.8938 0.8939 0.8940 0.8942
2602.495262 0.8943 0.8944 0.8945 0.8946 0.8948
2607.522282 0.8950 0.8952 0.8954 0.8956 0.8957
2612.549301 0.8959 0.8961 0.8963 0.8964 0.8965
2617.576321 0.8966 0.8966 0.8966 0.8967 0.8967
2622.603340 0.8967 0.8967 0.8966 0.8964 0.8962
2627.630360 0.8960 0.8958 0.8956 0.8955 0.8953
2632.657380 0.8951 0.8949 0.8947 0.8945 0.8943
2637.684399 0.8941 0.8939 0.8936 0.8934 0.8932
2642.711419 0.8930 0.8927 0.8925 0.8923 0.8920
2647.738438 0.8918 0.8915 0.8913 0.8910 0.8908
2652.765458 0.8905 0.8901 0.8897 0.8893 0.8888
2657.792477 0.8884 0.8880 0.8875 0.8871 0.8866
2662.819497 0.8860 0.8854 0.8847 0.8841 0.8834
2667.846516 0.8827 0.8821 0.8816 0.8810 0.8805
2672.873536 0.8800 0.8795 0.8790 0.8784 0.8778
2677.900556 0.8772 0.8766 0.8760 0.8754 0.8747
2682.927575 0.8741 0.8735 0.8729 0.8723 0.8716
2687.954595 0.8710 0.8704 0.8698 0.8691 0.8684
2692.981614 0.8677 0.8669 0.8662 0.8655 0.8648
2698.008634 0.8641 0.8634 0.8627 0.8620 0.8612
2703.035653 0.8605 0.8598 0.8590 0.8583 0.8576
2708.062673 0.8569 0.8562 0.8556 0.8550 0.8544
2713.089692 0.8538 0.8532 0.8526 0.8520 0.8514
2718.116712 0.8508 0.8502 0.8496 0.8489 0.8483
2723.143732 0.8477 0.8471 0.8465 0.8459 0.8453
2728.170751 0.8447 0.8440 0.8434 0.8427 0.8421
2733.197771 0.8414 0.8408 0.8402 0.8395 0.8389
2738.224790 0.8383 0.8377 0.8370 0.8364 0.8358
2743.251810 0.8352 0.8345 0.8339 0.8333 0.8327
2748.278829 0.8320 0.8314 0.8308 0.8303 0.8297
2753.305849 0.8291 0.8285 0.8279 0.8274 0.8268
2758.332869 0.8262 0.8256 0.8250 0.8245 0.8238
2763.359888 0.8232 0.8226 0.8221 0.8215 0.8209
2768.386908 0.8203 0.8198 0.8193 0.8189 0.8185
2773.413927 0.8180 0.8176 0.8172 0.8168 0.8163
2778.440947 0.8159 0.8155 0.8151 0.8147 0.8142
2783.467966 0.8138 0.8134 0.8129 0.8126 0.8122
2788.494986 0.8118 0.8114 0.8111 0.8107 0.8103
2793.522005 0.8100 0.8096 0.8092 0.8088 0.8085
2798.549025 0.8082 0.8080 0.8078 0.8075 0.8073
2803.576045 0.8071 0.8069 0.8067 0.8065 0.8063
2808.603064 0.8060 0.8058 0.8056 0.8054 0.8054
2813.630084 0.8053 0.8053 0.8053 0.8053 0.8053
2818.657103 0.8053 0.8053 0.8052 0.8052 0.8052
2823.684123 0.8052 0.8051 0.8051 0.8050 0.8049
2828.711142 0.8049 0.8048 0.8048 0.8047 0.8047
2833.738162 0.8046 0.8042 0.8038 0.8035 0.8031
2838.765181 0.8028 0.8024 0.8020 0.8015 0.8009
2843.792201 0.8003 0.7997 0.7991 0.7986 0.7980
2848.819221 0.7971 0.7962 0.7952 0.7943 0.7932
2853.846240 0.7923 0.7913 0.7904 0.7894 0.7885
2858.873260 0.7877 0.7869 0.7861 0.7853 0.7845
2863.900279 0.7836 0.7828 0.7820 0.7812 0.7803
2868.927299 0.7791 0.7780 0.7769 0.7758 0.7746
2873.954318 0.7734 0.7723 0.7712 0.7700 0.7689
2878.981338 0.7678 0.7666 0.7654 0.7642 0.7630
2884.008357 0.7618 0.7606 0.7593 0.7581 0.7569
2889.035377 0.7556 0.7544 0.7532 0.7520 0.7508
2894.062397 0.7496 0.7484 0.7472 0.7459 0.7447
2899.089416 0.7435 0.7421 0.7401 0.7383 0.7364
2904.116436 0.7346 0.7327 0.7308 0.7281 0.7250
2909.143455 0.7219 0.7187 0.7156 0.7124 0.7093
2914.170475 0.7061 0.7031 0.7006 0.6982 0.6958
2919.197494 0.6935 0.6912 0.6889 0.6865 0.6842
2924.224514 0.6819 0.6794 0.6774 0.6759 0.6745
2929.251534 0.6731 0.6717 0.6707 0.6701 0.6696
2934.278553 0.6690 0.6687 0.6686 0.6685 0.6685
2939.305573 0.6680 0.6673 0.6687 0.6688 0.6690
2944.332592 0.6692 0.6694 0.6696 0.6698 0.6699
2949.359612 0.6701 0.6703 0.6704 0.6706 0.6707
2954.386631 0.6709 0.6710 0.6712 0.6713 0.6715
2959.413651 0.6719 0.6726 0.6733 0.6737 0.6737
2964.440670 0.6738 0.6739 0.6740 0.6741 0.6741
2969.467690 0.6741 0.6741 0.6740 0.6739 0.6738
2974.494710 0.6738 0.6737 0.6736 0.6736 0.6736
2979.521729 0.6736 0.6736 0.6737 0.6738 0.6739
2984.548749 0.6739 0.6740 0.6741 0.6742 0.6743
2989.575768 0.6745 0.6748 0.6751 0.6754 0.6762
2994.602788 0.6774 0.6786 0.6797 0.6809 0.6821
2999.629807 0.6833 0.6846 0.6859 0.6872 0.6885
3004.656827 0.6897 0.6908 0.6917 0.6927 0.6937
3009.683846 0.6943 0.6948 0.6953 0.6957 0.6961
3014.710866 0.6965 0.6968 0.6968 0.6968 0.6973
3019.737886 0.6971 0.6969 0.6968 0.6965 0.6961
3024.764905 0.6957 0.6953 0.6950 0.6946 0.6942
3029.791925 0.6938 0.6935 0.6931 0.6924 0.6916
3034.818944 0.6909 0.6901 0.6894 0.6886 0.6879
3039.845964 0.6871 0.6864 0.6855 0.6846 0.6837
3044.872983 0.6828 0.6819 0.6809 0.6800 0.6791
3049.900003 0.6781 0.6769 0.6757 0.6745 0.6734
3054.927022 0.6722 0.6710 0.6698 0.6687 0.6675
3059.954042 0.6665 0.6654 0.6644 0.6633 0.6623
3064.981062 0.6612 0.6602 0.6594 0.6589 0.6584
3070.008081 0.6579 0.6573 0.6568 0.6563 0.6560
3075.035101 0.6558 0.6557 0.6556 0.6555 0.6555
3080.062120 0.6554 0.6553 0.6552 0.6550 0.6548
3085.089140 0.6546 0.6545 0.6543 0.6541 0.6539
3090.116159 0.6537 0.6536 0.6534 0.6532 0.6530
3095.143179 0.6529 0.6527 0.6526 0.6525 0.6523
3100.170199 0.6522 0.6520 0.6519 0.6516 0.6512
3105.197218 0.6508 0.6503 0.6498 0.6493 0.6488
3110.224238 0.6484 0.6478 0.6471 0.6463 0.6455
3115.251257 0.6446 0.6438 0.6430 0.6422 0.6414
3120.278277 0.6404 0.6391 0.6379 0.6367 0.6355
3125.305296 0.6342 0.6330 0.6317 0.6301 0.6283
3130.332316 0.6266 0.6249 0.6231 0.6214 0.6197
3135.359335 0.6179 0.6161 0.6141 0.6120 0.6099
3140.386355 0.6078 0.6057 0.6037 0.6018 0.5999
3145.413375 0.5981 0.5962 0.5943 0.5925 0.5906
3150.440394 0.5888 0.5869 0.5851 0.5832 0.5812
3155.467414 0.5793 0.5773 0.5754 0.5734 0.5715
3160.494433 0.5695 0.5678 0.5663 0.5649 0.5634
3165.521453 0.5620 0.5606 0.5592 0.5580 0.5571
3170.548472 0.5563 0.5554 0.5545 0.5536 0.5527
3175.575492 0.5518 0.5509 0.5501 0.5494 0.5488
3180.602511 0.5484 0.5480 0.5476 0.5471 0.5467
3185.629531 0.5463 0.5460 0.5456 0.5452 0.5448
3190.656551 0.5444 0.5441 0.5438 0.5435 0.5433
3195.683570 0.5430 0.5428 0.5425 0.5423 0.5420
3200.710590 0.5418 0.5415 0.5413 0.5411 0.5409
3205.737609 0.5407 0.5405 0.5403 0.5401 0.5399
3210.764629 0.5397 0.5395 0.5399 0.5403 0.5392
3215.791648 0.5393 0.5393 0.5394 0.5394 0.5395
3220.818668 0.5395 0.5395 0.5396 0.5396 0.5397
3225.845687 0.5397 0.5398 0.5398 0.5399 0.5401
3230.872707 0.5404 0.5408 0.5411 0.5415 0.5418
3235.899727 0.5422 0.5426 0.5429 0.5433 0.5436
3240.926746 0.5441 0.5446 0.5451 0.5457 0.5462
3245.953766 0.5467 0.5473 0.5478 0.5483 0.5488
3250.980785 0.5494 0.5501 0.5509 0.5517 0.5525
3256.007805 0.5534 0.5542 0.5550 0.5558 0.5566
3261.034824 0.5575 0.5583 0.5591 0.5600 0.5609
3266.061844 0.5618 0.5627 0.5636 0.5645 0.5655
3271.088864 0.5664 0.5671 0.5679 0.5687 0.5694
3276.115883 0.5701 0.5709 0.5712 0.5714 0.5717
3281.142903 0.5719 0.5722 0.5724 0.5727 0.5729
3286.169922 0.5731 0.5731 0.5730 0.5730 0.5729
3291.196942 0.5729 0.5729 0.5728 0.5723 0.5710
3296.223961 0.5719 0.5715 0.5712 0.5708 0.5703
3301.250981 0.5690 0.5677 0.5664 0.5651 0.5638
3306.278000 0.5621 0.5601 0.5579 0.5558 0.5537
3311.305020 0.5516 0.5494 0.5472 0.5450 0.5428
3316.332040 0.5406 0.5384 0.5362 0.5340 0.5317
3321.359059 0.5295 0.5273 0.5250 0.5228 0.5205
3326.386079 0.5183 0.5161 0.5138 0.5116 0.5094
3331.413098 0.5074 0.5053 0.5032 0.5012 0.4990
3336.440118 0.4969 0.4947 0.4925 0.4907 0.4898
3341.467137 0.4888 0.4878 0.4875 0.4871 0.4868
3346.494157 0.4866 0.4865 0.4865 0.4864 0.4865
3351.521176 0.4860 0.4867 0.4868 0.4869 0.4871
3356.548196 0.4872 0.4873 0.4875 0.4878 0.4880
3361.575216 0.4883 0.4885 0.4888 0.4890 0.4893
3366.602235 0.4895 0.4899 0.4902 0.4906 0.4909
3371.629255 0.4912 0.4916 0.4919 0.4924 0.4929
3376.656274 0.4935 0.4940 0.4946 0.4952 0.4957
3381.683294 0.4963 0.4968 0.4974 0.4980 0.4985
3386.710313 0.4992 0.4998 0.5004 0.5011 0.5017
3391.737333 0.5024 0.5031 0.5037 0.5043 0.5050
3396.764353 0.5057 0.5063 0.5068 0.5074 0.5080
3401.791372 0.5086 0.5092 0.5098 0.5103 0.5109
3406.818392 0.5115 0.5120 0.5125 0.5128 0.5131
3411.845411 0.5135 0.5138 0.5142 0.5145 0.5149
3416.872431 0.5153 0.5156 0.5159 0.5162 0.5165
3421.899450 0.5167 0.5170 0.5173 0.5176 0.5179
3426.926470 0.5180 0.5181 0.5182 0.5183 0.5184
3431.953489 0.5185 0.5186 0.5187 0.5188 0.5189
3436.980509 0.5190 0.5190 0.5190 0.5191 0.5191
3442.007529 0.5191 0.5191 0.5191 0.5192 0.5192
3447.034548 0.5195 0.5199 0.5203 0.5208 0.5212
3452.061568 0.5216 0.5220 0.5224 0.5228 0.5232
3457.088587 0.5236 0.5243 0.5252 0.5261 0.5271
3462.115607 0.5280 0.5290 0.5299 0.5309 0.5318
3467.142626 0.5328 0.5338 0.5349 0.5359 0.5369
3472.169646 0.5381 0.5394 0.5409 0.5424 0.5439
3477.196665 0.5454 0.5468 0.5485 0.5503 0.5522
3482.223685 0.5540 0.5560 0.5581 0.5602 0.5623
3487.250705 0.5648 0.5674 0.5699 0.5723 0.5746
3492.277724 0.5770 0.5794 0.5817 0.5841 0.5865
3497.304744 0.5888 0.5912 0.5937 0.5965 0.5993
3502.331763 0.6018 0.6038 0.6058 0.6077 0.6097
3507.358783 0.6116 0.6134 0.6152 0.6170 0.6188
3512.385802 0.6206 0.6224 0.6242 0.6260 0.6278
3517.412822 0.6296 0.6314 0.6333 0.6358 0.6388
3522.439841 0.6418 0.6446 0.6471 0.6493 0.6516
3527.466861 0.6538 0.6561 0.6583 0.6605 0.6626
3532.493881 0.6648 0.6670 0.6691 0.6713 0.6735
3537.520900 0.6755 0.6773 0.6791 0.6809 0.6828
3542.547920 0.6846 0.6863 0.6881 0.6900 0.6919
3547.574939 0.6940 0.6960 0.6980 0.7000 0.7020
3552.601959 0.7041 0.7061 0.7081 0.7101 0.7121
3557.628978 0.7141 0.7160 0.7180 0.7200 0.7219
3562.655998 0.7238 0.7256 0.7274 0.7292 0.7310
3567.683018 0.7327 0.7343 0.7359 0.7375 0.7392
3572.710037 0.7408 0.7427 0.7451 0.7474 0.7497
3577.737057 0.7516 0.7530 0.7543 0.7556 0.7568
3582.764076 0.7581 0.7594 0.7605 0.7615 0.7625
3587.791096 0.7636 0.7646 0.7657 0.7667 0.7677
3592.818115 0.7688 0.7697 0.7706 0.7714 0.7722
3597.845135 0.7731 0.7739 0.7747 0.7755 0.7764
3602.872154 0.7772 0.7780 0.7787 0.7794 0.7802
3607.899174 0.7809 0.7817 0.7824 0.7832 0.7839
3612.926194 0.7847 0.7854 0.7862 0.7869 0.7877
3617.953213 0.7885 0.7892 0.7900 0.7907 0.7914
3622.980233 0.7922 0.7931 0.7939 0.7948 0.7956
3628.007252 0.7965 0.7973 0.7981 0.7990 0.7998
3633.034272 0.8007 0.8020 0.8034 0.8048 0.8062
3638.061291 0.8076 0.8090 0.8105 0.8123 0.8144
3643.088311 0.8165 0.8186 0.8207 0.8225 0.8245
3648.115330 0.8264 0.8284 0.8303 0.8323 0.8343
3653.142350 0.8363 0.8381 0.8394 0.8405 0.8418
3658.169370 0.8430 0.8443 0.8455 0.8466 0.8478
3663.196389 0.8490 0.8501 0.8513 0.8524 0.8536
3668.223409 0.8546 0.8556 0.8566 0.8576 0.8586
3673.250428 0.8596 0.8606 0.8615 0.8624 0.8632
3678.277448 0.8640 0.8648 0.8656 0.8664 0.8672
3683.304467 0.8680 0.8688 0.8696 0.8704 0.8712
3688.331487 0.8717 0.8720 0.8724 0.8727 0.8731
3693.358506 0.8734 0.8737 0.8741 0.8744 0.8749
3698.385526 0.8754 0.8761 0.8771 0.8784 0.8796
3703.412546 0.8803 0.8805 0.8806 0.8808 0.8810
3708.439565 0.8811 0.8812 0.8813 0.8814 0.8814
3713.466585 0.8815 0.8816 0.8817 0.8818 0.8819
3718.493604 0.8821 0.8823 0.8825 0.8826 0.8828
3723.520624 0.8830 0.8832 0.8833 0.8835 0.8836
3728.547643 0.8837 0.8838 0.8839 0.8840 0.8840
3733.574663 0.8841 0.8842 0.8843 0.8844 0.8845
3738.601683 0.8846 0.8847 0.8848 0.8849 0.8850
3743.628702 0.8851 0.8852 0.8853 0.8854 0.8855
3748.655722 0.8856 0.8857 0.8859 0.8860 0.8862
3753.682741 0.8863 0.8865 0.8866 0.8868 0.8869
3758.709761 0.8871 0.8873 0.8874 0.8876 0.8877
3763.736780 0.8879 0.8880 0.8882 0.8884 0.8885
3768.763800 0.8887 0.8888 0.8890 0.8891 0.8893
3773.790819 0.8896 0.8899 0.8902 0.8904 0.8907
3778.817839 0.8910 0.8913 0.8916 0.8918 0.8921
3783.844859 0.8924 0.8927 0.8931 0.8935 0.8938
3788.871878 0.8942 0.8946 0.8950 0.8953 0.8957
3793.898898 0.8960 0.8961 0.8961 0.8961 0.8961
3798.925917 0.8961 0.8961 0.8961 0.8961 0.8961
3803.952937 0.8961 0.8961 0.8961 0.8961 0.8961
3808.979956 0.8961 0.8961 0.8961 0.8961 0.8961
3814.006976 0.8961 0.8962 0.8956 0.8960 0.8962
3819.033995 0.8962 0.8963 0.8963 0.8963 0.8963
3824.061015 0.8963 0.8963 0.8962 0.8961 0.8960
3829.088035 0.8959 0.8958 0.8957 0.8956 0.8955
3834.115054 0.8952 0.8950 0.8948 0.8946 0.8944
3839.142074 0.8940 0.8935 0.8930 0.8925 0.8920
3844.169093 0.8915 0.8911 0.8907 0.8904 0.8901
3849.196113 0.8898 0.8895 0.8891 0.8888 0.8885
3854.223132 0.8882 0.8878 0.8875 0.8872 0.8870
3859.250152 0.8868 0.8867 0.8866 0.8865 0.8864
3864.277171 0.8862 0.8861 0.8860 0.8859 0.8858
3869.304191 0.8857 0.8857 0.8857 0.8857 0.8858
3874.331211 0.8858 0.8858 0.8858 0.8858 0.8859
3879.358230 0.8859 0.8861 0.8862 0.8863 0.8865
3884.385250 0.8866 0.8867 0.8869 0.8870 0.8871
3889.412269 0.8873 0.8874 0.8875 0.8877 0.8878
3894.439289 0.8878 0.8878 0.8878 0.8878 0.8879
3899.466308 0.8879 0.8879 0.8879 0.8879 0.8880
3904.493328 0.8880 0.8880 0.8880 0.8880 0.8881
3909.520348 0.8881 0.8881 0.8881 0.8881 0.8880
3914.547367 0.8880 0.8880 0.8880 0.8880 0.8880
3919.574387 0.8880 0.8880 0.8880 0.8880 0.8880
3924.601406 0.8880 0.8880 0.8880 0.8881 0.8881
3929.628426 0.8881 0.8881 0.8880 0.8878 0.8875
3934.655445 0.8872 0.8868 0.8865 0.8862 0.8859
3939.682465 0.8855 0.8852 0.8849 0.8845 0.8839
3944.709484 0.8834 0.8828 0.8823 0.8817 0.8812
3949.736504 0.8807 0.8801 0.8797 0.8793 0.8789
3954.763524 0.8785 0.8781 0.8777 0.8773 0.8768
3959.790543 0.8764 0.8760 0.8756 0.8753 0.8752
3964.817563 0.8752 0.8751 0.8751 0.8751 0.8751
3969.844582 0.8751 0.8751 0.8751 0.8750 0.8750
3974.871602 0.8751 0.8751 0.8752 0.8753 0.8753
3979.898621 0.8754 0.8755 0.8755 0.8756 0.8756
3984.925641 0.8756 0.8756 0.8756 0.8756 0.8756
3989.952660 0.8756 0.8756 0.8756 0.8756 0.8756
3994.979680 0.8756 0.8756 0.8756 0.8756 0.8756
4000.006700 0.8756 0.8756 0.8756 0.8756 0.8756
4005.033719 0.8756 0.8756 0.8756 0.8756 0.8756
4010.060739 0.8756 0.8756 0.8756 0.8756 0.8756
4015.087758 0.8756 0.8756 0.8756 0.8756 0.8756
4020.114778 0.8756
##END=
