##TITLE=2,6-DIMETHYL 1,4,6(7)-OCTATRIENE (CIS-6(7))
##JCAMP-DX=4.24
##DATA TYPE=INFRARED SPECTRUM
##CLASS=COBLENTZ
##ORIGIN=INTERNATIONAL FLAVORS & FRAGRANCES, INC.
##OWNER=COBLENTZ SOCIETY
Collection (C) 2018 copyright by the U.S. Secretary of Commerce
on behalf of the United States of America. All rights reserved.
##DATE=Not specified, most likely prior to 1970
##NAMES=(4Z,6Z)-2,6-dimethyl-1,4,6-octatriene
##MOLFORM=C10 H16
##SOURCE REFERENCE=COBLENTZ NO. 4962
##$NIST ID=B6004962
##$NIST SOURCE=COBLENTZ
##$NIST IMAGE=cob4962
##SPECTROMETER/DATA SYSTEM=Not specified, most likely a prism, grating, or hybrid spectrometer.
##SAMPLING PROCEDURE=TRANSMISSION
##RESOLUTION=4
##DATA PROCESSING=DIGITIZED BY NIST FROM HARD COPY (FROM TWO SEGMENTS)
##XUNITS=MICROMETERS
##YUNITS=TRANSMITTANCE
##XFACTOR=1.000000
##YFACTOR=1
##DELTAX=0.004624
##FIRSTX=2.028
##LASTX=14.9937
##FIRSTY=0.928
##MAXX=14.9937
##MINX=2.028
##MAXY=0.981857
##MINY=0.079
##NPOINTS=2805
##XYDATA=(X++(Y..Y))
2.028000 0.9280 0.9280 0.9280 0.9280 0.9280
2.051120 0.9280 0.9280 0.9280 0.9280 0.9280
2.074240 0.9280 0.9279 0.9261 0.9279 0.9260
2.097360 0.9261 0.9279 0.9260 0.9250 0.9260
2.120480 0.9260 0.9259 0.9250 0.9250 0.9249
2.143600 0.9240 0.9240 0.9239 0.9230 0.9230
2.166720 0.9230 0.9230 0.9228 0.9218 0.9210
2.189840 0.9209 0.9200 0.9197 0.9180 0.9179
2.212960 0.9170 0.9170 0.9160 0.9160 0.9160
2.236080 0.9160 0.9150 0.9160 0.9150 0.9150
2.259200 0.9140 0.9140 0.9129 0.9110 0.9100
2.282320 0.9090 0.9079 0.9059 0.9039 0.9019
2.305440 0.8985 0.8836 0.8784 0.8623 0.8544
2.328560 0.8477 0.8446 0.8397 0.8369 0.8360
2.351680 0.8360 0.8361 0.8370 0.8374 0.8401
2.374800 0.8414 0.8447 0.8502 0.8588 0.8646
2.397920 0.8689 0.8729 0.8769 0.8790 0.8810
2.421040 0.8839 0.8869 0.8919 0.8939 0.8950
2.444160 0.8961 0.8980 0.8990 0.9000 0.9010
2.467280 0.9010 0.9010 0.9020 0.9020 0.9020
2.490400 0.9021 0.9030 0.9030 0.9030 0.9030
2.513520 0.9030 0.9030 0.9030 0.9031 0.9040
2.536640 0.9040 0.9040 0.9040 0.9040 0.9040
2.559760 0.9040 0.9040 0.9040 0.9040 0.9040
2.582880 0.9040 0.9040 0.9040 0.9040 0.9040
2.606000 0.9040 0.9040 0.9030 0.9030 0.9030
2.629120 0.9020 0.9020 0.9020 0.9020 0.9030
2.652240 0.9030 0.9030 0.9040 0.9040 0.9060
2.675360 0.9061 0.9071 0.9081 0.9091 0.9112
2.698480 0.9141 0.9160 0.9161 0.9170 0.9170
2.721600 0.9171 0.9183 0.9201 0.9214 0.9241
2.744720 0.9251 0.9260 0.9260 0.9260 0.9260
2.767840 0.9260 0.9260 0.9250 0.9250 0.9240
2.790960 0.9240 0.9230 0.9211 0.9200 0.9181
2.814080 0.9180 0.9170 0.9160 0.9160 0.9150
2.837200 0.9140 0.9130 0.9130 0.9110 0.9110
2.860320 0.9100 0.9100 0.9099 0.9090 0.9090
2.883440 0.9089 0.9080 0.9080 0.9080 0.9080
2.906560 0.9080 0.9080 0.9080 0.9080 0.9080
2.929680 0.9079 0.9070 0.9070 0.9070 0.9070
2.952800 0.9070 0.9060 0.9060 0.9060 0.9070
2.975920 0.9070 0.9070 0.9079 0.9080 0.9089
2.999040 0.9100 0.9100 0.9100 0.9100 0.9090
3.022160 0.9090 0.9080 0.9080 0.9080 0.9080
3.045280 0.9079 0.9070 0.9070 0.9069 0.9060
3.068400 0.9060 0.9060 0.9060 0.9060 0.9060
3.091520 0.9060 0.9060 0.9060 0.9060 0.9058
3.114640 0.9040 0.9040 0.9039 0.9030 0.9030
3.137760 0.9030 0.9021 0.9020 0.9011 0.8991
3.160880 0.8962 0.8960 0.8941 0.8931 0.8921
3.184000 0.8890 0.8870 0.8840 0.8760 0.8730
3.207120 0.8670 0.8571 0.8491 0.8470 0.8341
3.230240 0.7647 0.7011 0.6408 0.5383 0.4840
3.253360 0.4845 0.4956 0.5085 0.5190 0.5188
3.276480 0.5110 0.4721 0.4340 0.3959 0.3760
3.299600 0.3665 0.3619 0.3609 0.3600 0.3599
3.322720 0.3591 0.3552 0.3513 0.3136 0.2914
3.345840 0.2601 0.2300 0.2131 0.1925 0.1678
3.368960 0.1581 0.1550 0.1520 0.1510 0.1500
3.392080 0.1480 0.1470 0.1401 0.1331 0.1212
3.415200 0.1189 0.1169 0.1140 0.1130 0.1120
3.438320 0.1120 0.1130 0.1141 0.1171 0.1212
3.461440 0.1278 0.1358 0.1438 0.1529 0.1628
3.484560 0.1717 0.1797 0.1877 0.1962 0.2103
3.507680 0.2259 0.2456 0.2702 0.2961 0.3249
3.530800 0.3557 0.3866 0.4167 0.4466 0.4757
3.553920 0.5045 0.5295 0.5506 0.5676 0.5964
3.577040 0.6224 0.6454 0.6674 0.6884 0.7065
3.600160 0.7266 0.7425 0.7575 0.7725 0.7874
3.623280 0.8014 0.8144 0.8284 0.8423 0.8560
3.646400 0.8581 0.8588 0.8568 0.8546 0.8487
3.669520 0.8331 0.8227 0.8185 0.8120 0.8122
3.692640 0.8157 0.8272 0.8361 0.8439 0.8508
3.715760 0.8571 0.8650 0.8729 0.8796 0.8843
3.738880 0.8869 0.8919 0.8949 0.8989 0.9009
3.762000 0.9029 0.9059 0.9079 0.9099 0.9129
3.785120 0.9140 0.9150 0.9160 0.9170 0.9180
3.808240 0.9200 0.9210 0.9210 0.9230 0.9240
3.831360 0.9241 0.9251 0.9260 0.9261 0.9281
3.854480 0.9291 0.9301 0.9311 0.9320 0.9321
3.877600 0.9334 0.9360 0.9361 0.9371 0.9380
3.900720 0.9380 0.9381 0.9390 0.9390 0.9390
3.923840 0.9390 0.9390 0.9400 0.9400 0.9400
3.946960 0.9400 0.9400 0.9419 0.9420 0.9420
3.970080 0.9420 0.9420 0.9420 0.9420 0.9420
3.993200 0.9430 0.9430 0.9430 0.9430 0.9440
4.016320 0.9440 0.9440 0.9440 0.9441 0.9450
4.039440 0.9450 0.9450 0.9450 0.9450 0.9450
4.062560 0.9450 0.9450 0.9450 0.9450 0.9450
4.085680 0.9450 0.9450 0.9450 0.9450 0.9450
4.108800 0.9450 0.9450 0.9450 0.9450 0.9450
4.131920 0.9450 0.9459 0.9460 0.9460 0.9460
4.155040 0.9460 0.9460 0.9460 0.9460 0.9460
4.178160 0.9460 0.9470 0.9470 0.9470 0.9470
4.201280 0.9470 0.9471 0.9490 0.9491 0.9500
4.224400 0.9500 0.9500 0.9501 0.9510 0.9510
4.247520 0.9510 0.9510 0.9511 0.9520 0.9520
4.270640 0.9520 0.9520 0.9521 0.9530 0.9530
4.293760 0.9530 0.9530 0.9521 0.9520 0.9529
4.316880 0.9530 0.9530 0.9539 0.9540 0.9540
4.340000 0.9540 0.9540 0.9540 0.9550 0.9550
4.363120 0.9550 0.9550 0.9570 0.9570 0.9570
4.386240 0.9571 0.9580 0.9580 0.9580 0.9590
4.409360 0.9590 0.9590 0.9590 0.9590 0.9580
4.432480 0.9580 0.9580 0.9580 0.9580 0.9581
4.455600 0.9589 0.9580 0.9580 0.9579 0.9570
4.478720 0.9570 0.9570 0.9551 0.9550 0.9550
4.501840 0.9550 0.9550 0.9550 0.9550 0.9550
4.524960 0.9550 0.9550 0.9550 0.9550 0.9550
4.548080 0.9550 0.9550 0.9550 0.9550 0.9550
4.571200 0.9550 0.9551 0.9570 0.9570 0.9570
4.594320 0.9570 0.9580 0.9580 0.9580 0.9580
4.617440 0.9579 0.9571 0.9580 0.9580 0.9580
4.640560 0.9580 0.9580 0.9580 0.9580 0.9580
4.663680 0.9580 0.9580 0.9589 0.9590 0.9590
4.686800 0.9590 0.9590 0.9590 0.9599 0.9591
4.709920 0.9600 0.9600 0.9600 0.9600 0.9600
4.733040 0.9600 0.9600 0.9600 0.9610 0.9610
4.756160 0.9610 0.9610 0.9610 0.9600 0.9600
4.779280 0.9600 0.9590 0.9590 0.9600 0.9600
4.802400 0.9600 0.9601 0.9610 0.9610 0.9610
4.825520 0.9609 0.9600 0.9600 0.9600 0.9600
4.848640 0.9600 0.9600 0.9600 0.9600 0.9600
4.871760 0.9600 0.9600 0.9600 0.9600 0.9600
4.894880 0.9610 0.9610 0.9610 0.9600 0.9600
4.918000 0.9600 0.9600 0.9600 0.9600 0.9600
4.941120 0.9600 0.9600 0.9600 0.9600 0.9600
4.964240 0.9600 0.9600 0.9600 0.9600 0.9600
4.987360 0.9600 0.9601 0.9610 0.9610 0.9611
5.010480 0.9620 0.9620 0.9620 0.9620 0.9620
5.033600 0.9620 0.9638 0.9640 0.9640 0.9640
5.056720 0.9640 0.9640 0.9640 0.9649 0.9650
5.079840 0.9650 0.9650 0.9650 0.9650 0.9650
5.102960 0.9650 0.9650 0.9650 0.9650 0.9650
5.126080 0.9650 0.9640 0.9640 0.9640 0.9620
5.149200 0.9620 0.9610 0.9610 0.9610 0.9610
5.172320 0.9600 0.9599 0.9590 0.9590 0.9590
5.195440 0.9590 0.9590 0.9590 0.9590 0.9591
5.218560 0.9600 0.9600 0.9599 0.9590 0.9590
5.241680 0.9590 0.9590 0.9590 0.9591 0.9599
5.264800 0.9590 0.9580 0.9580 0.9580 0.9570
5.287920 0.9551 0.9550 0.9569 0.9570 0.9551
5.311040 0.9550 0.9540 0.9540 0.9540 0.9540
5.334160 0.9540 0.9530 0.9530 0.9530 0.9530
5.357280 0.9529 0.9520 0.9520 0.9520 0.9519
5.380400 0.9510 0.9509 0.9500 0.9500 0.9499
5.403520 0.9488 0.9470 0.9469 0.9460 0.9459
5.426640 0.9449 0.9439 0.9426 0.9387 0.9356
5.449760 0.9322 0.9292 0.9252 0.9212 0.9163
5.472880 0.9113 0.9072 0.9023 0.8992 0.8943
5.496000 0.8890 0.8860 0.8820 0.8790 0.8760
5.519120 0.8720 0.8710 0.8670 0.8640 0.8600
5.542240 0.8579 0.8558 0.8529 0.8499 0.8468
5.565360 0.8429 0.8408 0.8368 0.8329 0.8310
5.588480 0.8300 0.8299 0.8290 0.8290 0.8291
5.611600 0.8301 0.8312 0.8334 0.8374 0.8413
5.634720 0.8448 0.8488 0.8527 0.8586 0.8655
5.657840 0.8725 0.8786 0.8864 0.8935 0.9014
5.680960 0.9079 0.9100 0.9149 0.9160 0.9160
5.704080 0.9170 0.9180 0.9180 0.9180 0.9200
5.727200 0.9200 0.9210 0.9220 0.9230 0.9230
5.750320 0.9240 0.9240 0.9250 0.9250 0.9260
5.773440 0.9260 0.9260 0.9259 0.9250 0.9249
5.796560 0.9239 0.9230 0.9229 0.9219 0.9210
5.819680 0.9210 0.9210 0.9219 0.9220 0.9220
5.842800 0.9220 0.9211 0.9210 0.9201 0.9182
5.865920 0.9180 0.9170 0.9160 0.9160 0.9150
5.889040 0.9140 0.9101 0.9081 0.9061 0.9031
5.912160 0.8999 0.8979 0.8949 0.8919 0.8879
5.935280 0.8849 0.8809 0.8789 0.8759 0.8729
5.958400 0.8686 0.8634 0.8564 0.8498 0.8454
5.981520 0.8251 0.8010 0.7761 0.7514 0.7176
6.004640 0.5956 0.5047 0.4381 0.4341 0.4092
6.027760 0.3410 0.3189 0.3031 0.3001 0.3008
6.050880 0.3126 0.3296 0.3702 0.4002 0.4265
6.074000 0.4538 0.4799 0.5061 0.5334 0.5596
6.097120 0.5740 0.5867 0.6178 0.6508 0.6733
6.120240 0.6868 0.6949 0.7013 0.7082 0.7182
6.143360 0.7260 0.7304 0.7353 0.7398 0.7437
6.166480 0.7477 0.7516 0.7555 0.7595 0.7631
6.189600 0.7660 0.7693 0.7729 0.7759 0.7785
6.212720 0.7810 0.7854 0.7904 0.7922 0.7932
6.235840 0.7947 0.7982 0.7991 0.8004 0.8031
6.258960 0.8043 0.8072 0.8093 0.8141 0.8161
6.282080 0.8190 0.8210 0.8230 0.8259 0.8270
6.305200 0.8298 0.8328 0.8339 0.8358 0.8377
6.328320 0.8397 0.8408 0.8426 0.8438 0.8448
6.351440 0.8465 0.8478 0.8487 0.8497 0.8507
6.374560 0.8510 0.8517 0.8520 0.8520 0.8526
6.397680 0.8542 0.8550 0.8556 0.8566 0.8575
6.420800 0.8575 0.8575 0.8580 0.8585 0.8590
6.443920 0.8590 0.8590 0.8590 0.8590 0.8590
6.467040 0.8590 0.8586 0.8580 0.8580 0.8580
6.490160 0.8577 0.8570 0.8567 0.8560 0.8558
6.513280 0.8546 0.8528 0.8518 0.8508 0.8500
6.536400 0.8499 0.8490 0.8489 0.8480 0.8478
6.559520 0.8450 0.8439 0.8420 0.8410 0.8381
6.582640 0.8361 0.8341 0.8331 0.8312 0.8292
6.605760 0.8281 0.8263 0.8251 0.8217 0.8194
6.628880 0.8166 0.8136 0.8122 0.8097 0.8075
6.652000 0.8056 0.8036 0.8016 0.8003 0.8000
6.675120 0.7994 0.7978 0.7964 0.7942 0.7930
6.698240 0.7919 0.7883 0.7844 0.7804 0.7765
6.721360 0.7731 0.7692 0.7648 0.7599 0.7549
6.744480 0.7492 0.7423 0.7351 0.7261 0.7157
6.767600 0.7046 0.6863 0.6600 0.6407 0.6252
6.790720 0.6093 0.5877 0.5559 0.5091 0.4430
6.813840 0.3687 0.3539 0.3392 0.3247 0.3127
6.836960 0.2990 0.2852 0.2714 0.2576 0.2438
6.860080 0.2291 0.2124 0.2072 0.2051 0.2013
6.883200 0.1983 0.1944 0.1905 0.1883 0.1863
6.906320 0.1852 0.1817 0.1786 0.1749 0.1725
6.929440 0.1713 0.1703 0.1700 0.1707 0.1724
6.952560 0.1777 0.1833 0.1888 0.1922 0.1942
6.975680 0.2056 0.2250 0.2451 0.2600 0.2687
6.998800 0.2751 0.2790 0.2871 0.3019 0.3158
7.021920 0.3307 0.3496 0.3711 0.3949 0.4208
7.045040 0.4467 0.4706 0.4929 0.5134 0.5294
7.068160 0.5396 0.5482 0.5640 0.5764 0.5866
7.091280 0.5945 0.6022 0.6089 0.6147 0.6197
7.114400 0.6257 0.6324 0.6373 0.6413 0.6462
7.137520 0.6500 0.6510 0.6530 0.6530 0.6540
7.160640 0.6549 0.6569 0.6552 0.6541 0.6531
7.183760 0.6521 0.6478 0.6437 0.6373 0.6280
7.206880 0.6143 0.5942 0.5651 0.5247 0.4721
7.230000 0.4013 0.3205 0.2573 0.2318 0.2210
7.253120 0.2096 0.2038 0.2030 0.2041 0.2095
7.276240 0.2362 0.2701 0.2962 0.3198 0.3414
7.299360 0.3621 0.3809 0.3986 0.4155 0.4309
7.322480 0.4460 0.4611 0.4752 0.4899 0.5047
7.345600 0.5197 0.5357 0.5527 0.5707 0.5894
7.368720 0.6088 0.6308 0.6546 0.6763 0.6842
7.391840 0.6923 0.7020 0.7110 0.7209 0.7316
7.414960 0.7405 0.7493 0.7571 0.7630 0.7689
7.438080 0.7748 0.7788 0.7828 0.7858 0.7896
7.461200 0.7927 0.7965 0.7987 0.8007 0.8035
7.484320 0.8056 0.8068 0.8086 0.8105 0.8117
7.507440 0.8127 0.8144 0.8157 0.8174 0.8187
7.530560 0.8190 0.8196 0.8206 0.8216 0.8226
7.553680 0.8241 0.8250 0.8255 0.8260 0.8260
7.576800 0.8260 0.8260 0.8265 0.8270 0.8266
7.599920 0.8256 0.8250 0.8243 0.8226 0.8213
7.623040 0.8194 0.8161 0.8102 0.8038 0.7970
7.646160 0.7930 0.7882 0.7811 0.7778 0.7768
7.669280 0.7760 0.7761 0.7770 0.7771 0.7781
7.692400 0.7793 0.7821 0.7841 0.7850 0.7860
7.715520 0.7870 0.7890 0.7900 0.7910 0.7929
7.738640 0.7930 0.7957 0.7960 0.7960 0.7960
7.761760 0.7935 0.7930 0.7914 0.7839 0.7781
7.784880 0.7679 0.7531 0.7330 0.7206 0.7097
7.808000 0.6985 0.6897 0.6780 0.6642 0.6535
7.831120 0.6446 0.6357 0.6275 0.6235 0.6235
7.854240 0.6261 0.6305 0.6359 0.6399 0.6433
7.877360 0.6512 0.6618 0.6698 0.6779 0.6877
7.900480 0.6947 0.6963 0.6976 0.7002 0.7036
7.923600 0.7061 0.7098 0.7130 0.7165 0.7191
7.946720 0.7236 0.7271 0.7326 0.7364 0.7393
7.969840 0.7414 0.7454 0.7494 0.7543 0.7583
7.992960 0.7642 0.7701 0.7760 0.7829 0.7888
8.016080 0.7928 0.7967 0.8007 0.8046 0.8050
8.039200 0.8059 0.8069 0.8070 0.8062 0.8052
8.062320 0.8019 0.7971 0.7869 0.7751 0.7640
8.085440 0.7546 0.7472 0.7416 0.7374 0.7354
8.108560 0.7350 0.7356 0.7360 0.7360 0.7360
8.131680 0.7360 0.7355 0.7345 0.7320 0.7271
8.154800 0.7221 0.7151 0.7025 0.6831 0.6596
8.177920 0.6362 0.6179 0.6156 0.6153 0.6166
8.201040 0.6244 0.6445 0.6627 0.6789 0.6934
8.224160 0.7069 0.7193 0.7303 0.7417 0.7516
8.247280 0.7614 0.7711 0.7801 0.7899 0.7988
8.270400 0.8087 0.8195 0.8292 0.8351 0.8400
8.293520 0.8439 0.8478 0.8518 0.8567 0.8616
8.316640 0.8647 0.8694 0.8735 0.8774 0.8805
8.339760 0.8835 0.8856 0.8868 0.8878 0.8888
8.362880 0.8890 0.8883 0.8880 0.8873 0.8870
8.386000 0.8863 0.8854 0.8844 0.8828 0.8814
8.409120 0.8804 0.8789 0.8775 0.8765 0.8750
8.432240 0.8730 0.8715 0.8710 0.8706 0.8700
8.455360 0.8696 0.8690 0.8682 0.8670 0.8670
8.478480 0.8667 0.8660 0.8660 0.8657 0.8650
8.501600 0.8647 0.8638 0.8628 0.8614 0.8586
8.524720 0.8567 0.8544 0.8506 0.8475 0.8439
8.547840 0.8428 0.8409 0.8400 0.8400 0.8400
8.570960 0.8410 0.8420 0.8440 0.8479 0.8518
8.594080 0.8567 0.8597 0.8636 0.8693 0.8726
8.617200 0.8772 0.8797 0.8833 0.8856 0.8884
8.640320 0.8921 0.8953 0.8975 0.8980 0.8987
8.663440 0.8990 0.8990 0.8983 0.8967 0.8954
8.686560 0.8938 0.8918 0.8893 0.8874 0.8870
8.709680 0.8870 0.8875 0.8885 0.8890 0.8904
8.732800 0.8924 0.8934 0.8940 0.8940 0.8944
8.755920 0.8961 0.8987 0.9010 0.9043 0.9079
8.779040 0.9111 0.9143 0.9155 0.9177 0.9204
8.802160 0.9220 0.9222 0.9232 0.9242 0.9251
8.825280 0.9260 0.9260 0.9260 0.9260 0.9260
8.848400 0.9261 0.9280 0.9280 0.9280 0.9260
8.871520 0.9260 0.9260 0.9260 0.9260 0.9260
8.894640 0.9251 0.9241 0.9240 0.9232 0.9230
8.917760 0.9230 0.9222 0.9212 0.9188 0.9173
8.940880 0.9170 0.9163 0.9153 0.9143 0.9140
8.964000 0.9121 0.9104 0.9088 0.9068 0.9043
8.987120 0.9030 0.9025 0.9015 0.9005 0.8990
9.010240 0.8961 0.8917 0.8881 0.8866 0.8852
9.033360 0.8840 0.8832 0.8820 0.8820 0.8820
9.056480 0.8817 0.8807 0.8797 0.8787 0.8778
9.079600 0.8763 0.8736 0.8710 0.8665 0.8633
9.102720 0.8595 0.8562 0.8503 0.8441 0.8351
9.125840 0.8250 0.8110 0.7927 0.7857 0.7720
9.148960 0.7651 0.7572 0.7522 0.7464 0.7432
9.172080 0.7412 0.7401 0.7400 0.7409 0.7418
9.195200 0.7428 0.7463 0.7494 0.7531 0.7571
9.218320 0.7610 0.7642 0.7671 0.7687 0.7697
9.241440 0.7693 0.7690 0.7684 0.7680 0.7674
9.264560 0.7658 0.7644 0.7634 0.7625 0.7615
9.287680 0.7595 0.7575 0.7565 0.7560 0.7556
9.310800 0.7546 0.7536 0.7530 0.7534 0.7544
9.333920 0.7553 0.7563 0.7579 0.7612 0.7654
9.357040 0.7703 0.7745 0.7762 0.7774 0.7798
9.380160 0.7837 0.7880 0.7936 0.7973 0.7999
9.403280 0.8075 0.8122 0.8143 0.8191 0.8211
9.426400 0.8231 0.8270 0.8300 0.8329 0.8340
9.449520 0.8349 0.8359 0.8378 0.8380 0.8397
9.472640 0.8400 0.8400 0.8400 0.8400 0.8384
9.495760 0.8380 0.8372 0.8363 0.8345 0.8333
9.518880 0.8309 0.8286 0.8273 0.8257 0.8231
9.542000 0.8208 0.8188 0.8168 0.8149 0.8135
9.565120 0.8119 0.8100 0.8080 0.8065 0.8051
9.588240 0.8013 0.7963 0.7919 0.7842 0.7724
9.611360 0.7602 0.7428 0.7229 0.7137 0.7021
9.634480 0.6887 0.6789 0.6662 0.6593 0.6531
9.657600 0.6492 0.6458 0.6446 0.6430 0.6427
9.680720 0.6410 0.6410 0.6412 0.6431 0.6441
9.703840 0.6451 0.6470 0.6480 0.6500 0.6520
9.726960 0.6530 0.6540 0.6568 0.6598 0.6627
9.750080 0.6665 0.6687 0.6724 0.6755 0.6785
9.773200 0.6814 0.6836 0.6871 0.6903 0.6947
9.796320 0.6974 0.6987 0.7011 0.7020 0.7000
9.819440 0.6990 0.6977 0.6964 0.6948 0.6911
9.842560 0.6856 0.6797 0.6743 0.6668 0.6565
9.865680 0.6481 0.6413 0.6347 0.6316 0.6306
9.888800 0.6300 0.6300 0.6300 0.6300 0.6303
9.911920 0.6313 0.6320 0.6326 0.6351 0.6383
9.935040 0.6409 0.6501 0.6627 0.6704 0.6772
9.958160 0.6841 0.6909 0.6969 0.7038 0.7106
9.981280 0.7164 0.7214 0.7282 0.7332 0.7391
10.004400 0.7430 0.7489 0.7529 0.7577 0.7627
10.027520 0.7648 0.7677 0.7689 0.7690 0.7699
10.050640 0.7708 0.7718 0.7736 0.7740 0.7740
10.073760 0.7748 0.7750 0.7750 0.7750 0.7750
10.096880 0.7743 0.7727 0.7714 0.7704 0.7682
10.120000 0.7640 0.7591 0.7542 0.7493 0.7443
10.143120 0.7415 0.7405 0.7400 0.7395 0.7390
10.166240 0.7386 0.7380 0.7380 0.7372 0.7356
10.189360 0.7343 0.7323 0.7294 0.7257 0.7230
10.212480 0.7156 0.7065 0.6985 0.6966 0.6933
10.235600 0.6851 0.6753 0.6656 0.6566 0.6393
10.258720 0.5733 0.5300 0.4887 0.4678 0.3956
10.281840 0.3038 0.2637 0.2381 0.1851 0.1561
10.304960 0.1418 0.1187 0.1079 0.1034 0.1003
10.328080 0.0974 0.0927 0.0903 0.0892 0.0882
10.351200 0.0880 0.0880 0.0880 0.0880 0.0887
10.374320 0.0897 0.0934 0.1058 0.1208 0.1343
10.397440 0.1471 0.1599 0.1738 0.1880 0.2024
10.420560 0.2166 0.2309 0.2452 0.2624 0.2892
10.443680 0.3328 0.3692 0.3834 0.3978 0.4167
10.466800 0.4341 0.4389 0.4485 0.4623 0.4793
10.489920 0.4996 0.5215 0.5441 0.5667 0.5892
10.513040 0.6100 0.6273 0.6423 0.6532 0.6605
10.536160 0.6705 0.6811 0.6899 0.6991 0.7108
10.559280 0.7218 0.7345 0.7451 0.7501 0.7560
10.582400 0.7609 0.7677 0.7765 0.7816 0.7847
10.605520 0.7913 0.7929 0.7939 0.7957 0.7993
10.628640 0.8008 0.8034 0.8063 0.8101 0.8132
10.651760 0.8147 0.8157 0.8181 0.8197 0.8213
10.674880 0.8227 0.8243 0.8262 0.8276 0.8286
10.698000 0.8296 0.8306 0.8321 0.8330 0.8335
10.721120 0.8340 0.8345 0.8350 0.8350 0.8350
10.744240 0.8350 0.8350 0.8350 0.8350 0.8347
10.767360 0.8340 0.8337 0.8321 0.8297 0.8287
10.790480 0.8280 0.8278 0.8268 0.8258 0.8246
10.813600 0.8225 0.8198 0.8186 0.8158 0.8135
10.836720 0.8085 0.8026 0.7967 0.7917 0.7848
10.859840 0.7779 0.7671 0.7621 0.7553 0.7465
10.882960 0.7368 0.7269 0.7153 0.7052 0.6928
10.906080 0.6817 0.6626 0.6460 0.6215 0.5989
10.929200 0.5826 0.5693 0.5609 0.5561 0.5508
10.952320 0.5456 0.5420 0.5390 0.5367 0.5354
10.975440 0.5344 0.5334 0.5313 0.5294 0.5285
10.998560 0.5270 0.5240 0.5210 0.5195 0.5181
11.021680 0.5170 0.5162 0.5146 0.5136 0.5122
11.044800 0.5096 0.5053 0.5010 0.4968 0.4894
11.067920 0.4791 0.4656 0.4530 0.4412 0.4292
11.091040 0.4166 0.4045 0.3909 0.3775 0.3609
11.114160 0.3449 0.3269 0.3060 0.2837 0.2630
11.137280 0.2092 0.1876 0.1699 0.1552 0.1434
11.160400 0.1344 0.1274 0.1205 0.1136 0.1059
11.183520 0.1015 0.1001 0.0992 0.0924 0.0870
11.206640 0.0828 0.0820 0.0812 0.0795 0.0790
11.229760 0.0790 0.0790 0.0804 0.0817 0.0839
11.252880 0.0869 0.0929 0.1008 0.1093 0.1158
11.276000 0.1224 0.1319 0.1432 0.1530 0.1589
11.299120 0.1624 0.1649 0.1704 0.1777 0.1820
11.322240 0.1873 0.1936 0.2009 0.2091 0.2179
11.345360 0.2277 0.2392 0.2506 0.2639 0.2787
11.368480 0.2939 0.3089 0.3191 0.3358 0.3567
11.391600 0.3795 0.4031 0.4261 0.4445 0.4601
11.414720 0.4838 0.4955 0.5053 0.5132 0.5270
11.437840 0.5477 0.5586 0.5695 0.5784 0.5873
11.460960 0.5952 0.6022 0.6082 0.6133 0.6157
11.484080 0.6185 0.6222 0.6254 0.6299 0.6348
11.507200 0.6390 0.6436 0.6486 0.6528 0.6581
11.530320 0.6620 0.6662 0.6705 0.6732 0.6746
11.553440 0.6762 0.6781 0.6795 0.6795 0.6790
11.576560 0.6780 0.6765 0.6755 0.6736 0.6703
11.599680 0.6655 0.6600 0.6547 0.6488 0.6425
11.622800 0.6356 0.6300 0.6268 0.6231 0.6174
11.645920 0.6052 0.5960 0.5910 0.5821 0.5733
11.669040 0.5656 0.5638 0.5627 0.5609 0.5600
11.692160 0.5601 0.5612 0.5631 0.5641 0.5672
11.715280 0.5721 0.5770 0.5809 0.5868 0.5918
11.738400 0.5957 0.6006 0.6055 0.6104 0.6153
11.761520 0.6211 0.6253 0.6309 0.6360 0.6402
11.784640 0.6456 0.6508 0.6564 0.6609 0.6662
11.807760 0.6715 0.6757 0.6803 0.6852 0.6895
11.830880 0.6941 0.6978 0.7013 0.7053 0.7097
11.854000 0.7146 0.7185 0.7220 0.7254 0.7293
11.877120 0.7334 0.7363 0.7393 0.7426 0.7454
11.900240 0.7467 0.7494 0.7523 0.7536 0.7553
11.923360 0.7572 0.7600 0.7603 0.7612 0.7620
11.946480 0.7622 0.7630 0.7630 0.7628 0.7620
11.969600 0.7619 0.7610 0.7609 0.7600 0.7600
11.992720 0.7599 0.7579 0.7560 0.7530 0.7501
12.015840 0.7471 0.7451 0.7413 0.7392 0.7363
12.038960 0.7325 0.7277 0.7253 0.7183 0.7080
12.062080 0.6988 0.6907 0.6844 0.6770 0.6684
12.085200 0.6581 0.6472 0.6357 0.6233 0.6118
12.108320 0.5990 0.5859 0.5731 0.5603 0.5475
12.131440 0.5347 0.5225 0.5112 0.4999 0.4891
12.154560 0.4797 0.4704 0.4583 0.4466 0.4391
12.177680 0.4338 0.4301 0.4259 0.4223 0.4177
12.200800 0.4144 0.4127 0.4117 0.4107 0.4097
12.223920 0.4085 0.4070 0.4070 0.4074 0.4090
12.247040 0.4093 0.4118 0.4184 0.4289 0.4376
12.270160 0.4548 0.4659 0.4806 0.4953 0.5081
12.293280 0.5199 0.5298 0.5406 0.5486 0.5574
12.316400 0.5653 0.5732 0.5810 0.5906 0.5988
12.339520 0.6075 0.6164 0.6268 0.6368 0.6459
12.362640 0.6548 0.6636 0.6725 0.6806 0.6885
12.385760 0.6957 0.7013 0.7075 0.7119 0.7154
12.408880 0.7211 0.7263 0.7302 0.7336 0.7366
12.432000 0.7400 0.7445 0.7494 0.7548 0.7611
12.455120 0.7693 0.7762 0.7788 0.7808 0.7824
12.478240 0.7833 0.7843 0.7850 0.7850 0.7853
12.501360 0.7860 0.7863 0.7870 0.7870 0.7870
12.524480 0.7874 0.7890 0.7890 0.7890 0.7890
12.547600 0.7890 0.7890 0.7890 0.7890 0.7890
12.570720 0.7890 0.7890 0.7890 0.7890 0.7890
12.593840 0.7890 0.7890 0.7890 0.7872 0.7870
12.616960 0.7870 0.7862 0.7860 0.7860 0.7860
12.640080 0.7852 0.7850 0.7843 0.7833 0.7830
12.663200 0.7823 0.7793 0.7773 0.7770 0.7764
12.686320 0.7760 0.7760 0.7754 0.7750 0.7756
12.709440 0.7760 0.7765 0.7775 0.7790 0.7810
12.732560 0.7825 0.7839 0.7867 0.7898 0.7914
12.755680 0.7924 0.7934 0.7950 0.7973 0.7983
12.778800 0.7990 0.7990 0.7987 0.7978 0.7961
12.801920 0.7928 0.7918 0.7908 0.7890 0.7831
12.825040 0.7775 0.7727 0.7621 0.7535 0.7477
12.848160 0.7427 0.7379 0.7350 0.7350 0.7340
12.871280 0.7330 0.7330 0.7339 0.7349 0.7359
12.894400 0.7396 0.7444 0.7484 0.7532 0.7590
12.917520 0.7624 0.7670 0.7703 0.7748 0.7842
12.940640 0.7892 0.7914 0.7948 0.8015 0.8067
12.963760 0.8106 0.8145 0.8185 0.8230 0.8273
12.986880 0.8318 0.8362 0.8412 0.8476 0.8545
13.010000 0.8604 0.8644 0.8678 0.8718 0.8757
13.033120 0.8788 0.8816 0.8855 0.8894 0.8930
13.056240 0.8963 0.8999 0.9026 0.9048 0.9070
13.079360 0.9072 0.9082 0.9090 0.9092 0.9100
13.102480 0.9100 0.9101 0.9113 0.9130 0.9131
13.125600 0.9141 0.9151 0.9161 0.9181 0.9200
13.148720 0.9210 0.9220 0.9220 0.9230 0.9239
13.171840 0.9249 0.9259 0.9260 0.9286 0.9290
13.194960 0.9298 0.9308 0.9310 0.9318 0.9320
13.218080 0.9328 0.9345 0.9350 0.9357 0.9367
13.241200 0.9377 0.9387 0.9396 0.9419 0.9430
13.264320 0.9436 0.9446 0.9450 0.9450 0.9455
13.287440 0.9460 0.9465 0.9470 0.9479 0.9495
13.310560 0.9504 0.9518 0.9534 0.9544 0.9557
13.333680 0.9570 0.9573 0.9580 0.9583 0.9590
13.356800 0.9593 0.9600 0.9602 0.9610 0.9612
13.379920 0.9620 0.9624 0.9640 0.9641 0.9650
13.403040 0.9650 0.9651 0.9660 0.9660 0.9660
13.426160 0.9660 0.9670 0.9670 0.9670 0.9670
13.449280 0.9670 0.9679 0.9680 0.9680 0.9680
13.472400 0.9689 0.9690 0.9707 0.9710 0.9718
13.495520 0.9720 0.9720 0.9728 0.9737 0.9740
13.518640 0.9740 0.9754 0.9760 0.9767 0.9783
13.541760 0.9790 0.9790 0.9796 0.9800 0.9800
13.564880 0.9800 0.9800 0.9800 0.9805 0.9810
13.588000 0.9810 0.9810 0.9810 0.9810 0.9810
13.611120 0.9810 0.9810 0.9810 0.9807 0.9800
13.634240 0.9803 0.9810 0.9810 0.9807 0.9798
13.657360 0.9792 0.9800 0.9802 0.9810 0.9812
13.680480 0.9819 0.9810 0.9810 0.9809 0.9800
13.703600 0.9800 0.9800 0.9790 0.9790 0.9790
13.726720 0.9770 0.9770 0.9770 0.9770 0.9770
13.749840 0.9770 0.9770 0.9787 0.9790 0.9773
13.772960 0.9770 0.9770 0.9770 0.9770 0.9762
13.796080 0.9760 0.9753 0.9743 0.9740 0.9727
13.819200 0.9713 0.9697 0.9684 0.9680 0.9674
13.842320 0.9670 0.9670 0.9665 0.9660 0.9660
13.865440 0.9660 0.9660 0.9655 0.9650 0.9646
13.888560 0.9640 0.9632 0.9620 0.9616 0.9606
13.911680 0.9600 0.9597 0.9587 0.9580 0.9577
13.934800 0.9565 0.9548 0.9540 0.9538 0.9530
13.957920 0.9528 0.9518 0.9507 0.9488 0.9470
13.981040 0.9468 0.9450 0.9450 0.9450 0.9439
14.004160 0.9420 0.9400 0.9400 0.9390 0.9390
14.027280 0.9381 0.9380 0.9371 0.9370 0.9361
14.050400 0.9360 0.9360 0.9360 0.9360 0.9352
14.073520 0.9350 0.9350 0.9350 0.9350 0.9350
14.096640 0.9357 0.9360 0.9367 0.9370 0.9370
14.119760 0.9376 0.9380 0.9386 0.9390 0.9395
14.142880 0.9411 0.9425 0.9435 0.9450 0.9465
14.166000 0.9479 0.9494 0.9500 0.9504 0.9514
14.189120 0.9531 0.9560 0.9583 0.9593 0.9603
14.212240 0.9613 0.9625 0.9643 0.9652 0.9660
14.235360 0.9662 0.9670 0.9672 0.9682 0.9690
14.258480 0.9692 0.9710 0.9711 0.9721 0.9730
14.281600 0.9730 0.9730 0.9740 0.9750 0.9750
14.304720 0.9750 0.9750 0.9750 0.9750 0.9750
14.327840 0.9750 0.9750 0.9750 0.9758 0.9760
14.350960 0.9760 0.9760 0.9760 0.9768 0.9770
14.374080 0.9770 0.9770 0.9770 0.9770 0.9770
14.397200 0.9770 0.9770 0.9770 0.9770 0.9770
14.420320 0.9764 0.9760 0.9760 0.9760 0.9760
14.443440 0.9760 0.9760 0.9756 0.9750 0.9750
14.466560 0.9750 0.9750 0.9750 0.9750 0.9750
14.489680 0.9750 0.9750 0.9747 0.9740 0.9740
14.512800 0.9740 0.9738 0.9730 0.9730 0.9730
14.535920 0.9730 0.9729 0.9720 0.9719 0.9710
14.559040 0.9709 0.9689 0.9680 0.9680 0.9670
14.582160 0.9660 0.9650 0.9640 0.9640 0.9621
14.605280 0.9620 0.9611 0.9610 0.9601 0.9592
14.628400 0.9590 0.9582 0.9580 0.9580 0.9572
14.651520 0.9570 0.9570 0.9570 0.9570 0.9556
14.674640 0.9543 0.9540 0.9534 0.9530 0.9524
14.697760 0.9520 0.9514 0.9510 0.9510 0.9505
14.720880 0.9500 0.9500 0.9495 0.9490 0.9490
14.744000 0.9490 0.9482 0.9466 0.9456 0.9446
14.767120 0.9437 0.9430 0.9427 0.9414 0.9400
14.790240 0.9397 0.9390 0.9388 0.9378 0.9368
14.813360 0.9360 0.9358 0.9347 0.9330 0.9329
14.836480 0.9319 0.9309 0.9299 0.9290 0.9290
14.859600 0.9280 0.9260 0.9260 0.9250 0.9250
14.882720 0.9241 0.9240 0.9240 0.9231 0.9230
14.905840 0.9230 0.9222 0.9212 0.9202 0.9184
14.928960 0.9172 0.9162 0.9160 0.9153 0.9143
14.952080 0.9133 0.9130 0.9117 0.9110 0.9104
14.975200 0.9100 0.9094 0.9084 0.9069 0.9049
##END=
