##TITLE=4-NITROSORESORCINOL, SODIUM SALT
$$ E. K. CO. (WHITE LABEL)
##JCAMP-DX=4.24
##DATA TYPE=INFRARED SPECTRUM
##CLASS=COBLENTZ
##ORIGIN=WYANDOTTE CHEMICALS CORP., WYANDOTTE, MICHIGAN, USA
##OWNER=COBLENTZ SOCIETY
Collection (C) 2018 copyright by the U.S. Secretary of Commerce
on behalf of the United States of America. All rights reserved.
##DATE=Not specified, most likely prior to 1970
##MOLFORM=C6 H4 O3 N Na
##SOURCE REFERENCE=COBLENTZ NO. 2900
##$NIST ID=B6002900
##$NIST SOURCE=COBLENTZ
##$NIST IMAGE=cob2900
##SPECTROMETER/DATA SYSTEM=Not specified, most likely a prism, grating, or hybrid spectrometer.
##STATE=SOLID (MINERAL OIL MULL)
##PATH LENGTH=
$$SPECTRAL CONTAMINATION DUE TO OIL AROUND 2900 CM^-^1
##SAMPLING PROCEDURE=TRANSMISSION
##RESOLUTION=4
##DATA PROCESSING=DIGITIZED BY NIST FROM HARD COPY
##XUNITS=MICROMETERS
##YUNITS=TRANSMITTANCE
##XFACTOR=1.000000
##YFACTOR=1
##DELTAX=000.006632
##FIRSTX=2.027
##LASTX=15.9872
##FIRSTY=0.763
##MAXX=15.9872
##MINX=2.027
##MAXY=0.963
##MINY=0.087
##NPOINTS=2106
##XYDATA=(X++(Y..Y))
2.027000 0.7630 0.7640 0.7640 0.7640 0.7660
2.060175 0.7680 0.7690 0.7690 0.7690 0.7710
2.093000 0.7730 0.7760 0.7790 0.7810 0.7810
2.126175 0.7810 0.7810 0.7810 0.7830 0.7830
2.159000 0.7830 0.7840 0.7840 0.7840 0.7840
2.192175 0.7840 0.7830 0.7830 0.7830 0.7830
2.225000 0.7830 0.7830 0.7830 0.7840 0.7860
2.258175 0.7880 0.7880 0.7860 0.7860 0.7860
2.292000 0.7880 0.7890 0.7910 0.7980 0.7980
2.325175 0.7980 0.7990 0.8010 0.8010 0.8010
2.358000 0.8020 0.8040 0.8040 0.8040 0.8060
2.391175 0.8070 0.8090 0.8110 0.8110 0.8110
2.424000 0.8120 0.8120 0.8140 0.8160 0.8160
2.457175 0.8170 0.8170 0.8170 0.8170 0.8190
2.491000 0.8190 0.8210 0.8210 0.8190 0.8190
2.524175 0.8190 0.8210 0.8210 0.8220 0.8220
2.557000 0.8290 0.8360 0.8390 0.8420 0.8500
2.590175 0.8540 0.8520 0.8500 0.8460 0.8340
2.623000 0.8260 0.8240 0.8260 0.8320 0.8470
2.656175 0.8570 0.8600 0.8640 0.8620 0.8600
2.690000 0.8600 0.8590 0.8590 0.8570 0.8550
2.723175 0.8520 0.8490 0.8490 0.8470 0.8470
2.756000 0.8470 0.8490 0.8520 0.8540 0.8520
2.789175 0.8490 0.8470 0.8410 0.8390 0.8370
2.822000 0.8320 0.8270 0.8240 0.8210 0.8170
2.855175 0.8140 0.8120 0.8110 0.8070 0.8060
2.889000 0.8040 0.8040 0.8010 0.7980 0.7960
2.922175 0.7930 0.7910 0.7880 0.7860 0.7810
2.955000 0.7790 0.7780 0.7780 0.7780 0.7780
2.988175 0.7760 0.7730 0.7710 0.7660 0.7580
3.021000 0.7530 0.7510 0.7480 0.7430 0.7250
3.054175 0.7160 0.7160 0.7100 0.6980 0.6880
3.088000 0.6780 0.6680 0.6620 0.6530 0.6490
3.121175 0.6470 0.6390 0.6370 0.6270 0.6090
3.154000 0.5970 0.5870 0.5810 0.5770 0.5770
3.187175 0.5770 0.5770 0.5720 0.5640 0.5590
3.220000 0.5430 0.5240 0.5110 0.5090 0.5090
3.253175 0.5190 0.5310 0.5380 0.5480 0.5490
3.287000 0.5480 0.5280 0.5010 0.4960 0.4900
3.320175 0.4880 0.4860 0.4780 0.4630 0.4430
3.353000 0.3900 0.3390 0.2780 0.1500 0.1200
3.386175 0.1050 0.1020 0.0960 0.0910 0.0870
3.419000 0.0870 0.0910 0.1020 0.1140 0.1250
3.452175 0.1370 0.1440 0.1700 0.1770 0.1820
3.486000 0.1820 0.1780 0.1670 0.1550 0.1530
3.519175 0.1550 0.1730 0.2030 0.2360 0.2730
3.552000 0.2940 0.3090 0.3190 0.3270 0.3320
3.585175 0.3370 0.3390 0.3420 0.3440 0.3440
3.618000 0.3460 0.3490 0.3550 0.3600 0.3670
3.651175 0.3690 0.3700 0.3740 0.3800 0.3870
3.685000 0.3900 0.3970 0.3990 0.4000 0.4070
3.718175 0.4120 0.4220 0.4320 0.4420 0.4500
3.751000 0.4580 0.4680 0.4760 0.4830 0.4900
3.784175 0.4910 0.4930 0.4930 0.4930 0.4950
3.817000 0.4950 0.4960 0.5000 0.5080 0.5090
3.850175 0.5160 0.5210 0.5310 0.5380 0.5460
3.883000 0.5510 0.5570 0.5610 0.5670 0.5710
3.916175 0.5740 0.5760 0.5770 0.5790 0.5810
3.950000 0.5870 0.5910 0.5970 0.5970 0.5990
3.983175 0.6070 0.6120 0.6170 0.6220 0.6270
4.016000 0.6320 0.6390 0.6470 0.6490 0.6490
4.049175 0.6500 0.6520 0.6550 0.6580 0.6600
4.082000 0.6630 0.6680 0.6770 0.6780 0.6800
4.115175 0.6830 0.6870 0.6880 0.6950 0.6980
4.149000 0.7030 0.7100 0.7130 0.7130 0.7150
4.182175 0.7160 0.7180 0.7210 0.7280 0.7310
4.215000 0.7330 0.7330 0.7350 0.7350 0.7380
4.248175 0.7410 0.7430 0.7400 0.7350 0.7300
4.281000 0.7280 0.7280 0.7310 0.7400 0.7480
4.314175 0.7500 0.7510 0.7540 0.7580 0.7610
4.348000 0.7680 0.7740 0.7840 0.7930 0.8010
4.381175 0.8040 0.8140 0.8190 0.8240 0.8290
4.414000 0.8340 0.8360 0.8360 0.8340 0.8320
4.447175 0.8310 0.8290 0.8270 0.8270 0.8270
4.480000 0.8260 0.8260 0.8260 0.8260 0.8270
4.513175 0.8270 0.8290 0.8320 0.8340 0.8390
4.547000 0.8440 0.8490 0.8500 0.8520 0.8540
4.580175 0.8550 0.8570 0.8590 0.8600 0.8650
4.613000 0.8690 0.8700 0.8700 0.8740 0.8740
4.646175 0.8750 0.8770 0.8770 0.8800 0.8840
4.679000 0.8840 0.8850 0.8870 0.8870 0.8870
4.712175 0.8890 0.8920 0.8940 0.8970 0.8990
4.746000 0.8990 0.8990 0.9000 0.9020 0.9080
4.779175 0.9100 0.9120 0.9130 0.9150 0.9180
4.812000 0.9200 0.9200 0.9200 0.9200 0.9220
4.845175 0.9230 0.9280 0.9300 0.9320 0.9320
4.878000 0.9330 0.9330 0.9330 0.9330 0.9330
4.911175 0.9330 0.9330 0.9320 0.9320 0.9300
4.945000 0.9270 0.9200 0.9170 0.9150 0.9150
4.978175 0.9150 0.9130 0.9130 0.9130 0.9130
5.011000 0.9170 0.9180 0.9220 0.9280 0.9330
5.044175 0.9350 0.9370 0.9370 0.9330 0.9300
5.077000 0.9300 0.9280 0.9300 0.9330 0.9400
5.110175 0.9420 0.9420 0.9420 0.9420 0.9420
5.144000 0.9430 0.9480 0.9500 0.9510 0.9550
5.177175 0.9550 0.9530 0.9500 0.9470 0.9420
5.210000 0.9380 0.9380 0.9420 0.9450 0.9480
5.243175 0.9480 0.9480 0.9430 0.9450 0.9500
5.276000 0.9530 0.9560 0.9580 0.9580 0.9580
5.309175 0.9560 0.9560 0.9550 0.9510 0.9510
5.342000 0.9600 0.9630 0.9610 0.9600 0.9560
5.375175 0.9470 0.9370 0.9370 0.9450 0.9500
5.409000 0.9530 0.9530 0.9480 0.9420 0.9400
5.442175 0.9380 0.9380 0.9370 0.9370 0.9400
5.475000 0.9480 0.9560 0.9560 0.9510 0.9370
5.508175 0.9330 0.9330 0.9430 0.9500 0.9510
5.541000 0.9500 0.9450 0.9380 0.9370 0.9370
5.574175 0.9350 0.9320 0.9320 0.9300 0.9300
5.608000 0.9300 0.9370 0.9470 0.9470 0.9400
5.641175 0.9330 0.9280 0.9270 0.9180 0.9180
5.674000 0.9200 0.9300 0.9370 0.9380 0.9380
5.707175 0.9380 0.9370 0.9350 0.9320 0.9320
5.740000 0.9300 0.9300 0.9300 0.9300 0.9300
5.773175 0.9320 0.9350 0.9380 0.9380 0.9350
5.807000 0.9320 0.9170 0.9080 0.9100 0.9170
5.840175 0.9270 0.9250 0.9180 0.9150 0.9120
5.873000 0.9100 0.9080 0.9100 0.9120 0.9170
5.906175 0.9200 0.9200 0.9120 0.9000 0.8940
5.939000 0.8890 0.8820 0.8770 0.8700 0.8550
5.972175 0.8410 0.8260 0.8110 0.7980 0.7840
6.006000 0.7710 0.7560 0.7430 0.7300 0.7150
6.039175 0.6980 0.6830 0.6650 0.6290 0.5720
6.072000 0.5160 0.4900 0.4630 0.4200 0.3640
6.105175 0.2730 0.1490 0.0970 0.0960 0.0990
6.138000 0.1090 0.1290 0.1530 0.2000 0.2590
6.171175 0.3210 0.3750 0.4120 0.4450 0.4610
6.205000 0.5510 0.5810 0.5970 0.6090 0.6240
6.238175 0.6340 0.6450 0.6600 0.6730 0.6830
6.271000 0.6980 0.7060 0.7100 0.7160 0.7180
6.304175 0.7250 0.7310 0.7330 0.7310 0.7180
6.337000 0.7010 0.6820 0.6550 0.6290 0.6040
6.370175 0.5770 0.5520 0.5260 0.5060 0.4850
6.404000 0.4270 0.3390 0.2640 0.2100 0.1800
6.437175 0.1650 0.1600 0.1580 0.1580 0.1620
6.470000 0.1620 0.1600 0.1530 0.1470 0.1350
6.503175 0.1240 0.1170 0.1090 0.1050 0.1050
6.536000 0.1050 0.1070 0.1090 0.1140 0.1170
6.569175 0.1200 0.1270 0.1290 0.1300 0.1370
6.603000 0.1420 0.1490 0.1530 0.1570 0.1580
6.636175 0.1580 0.1620 0.1670 0.1730 0.1930
6.669000 0.2080 0.2260 0.2380 0.2560 0.2790
6.702175 0.3170 0.3590 0.3990 0.4170 0.4180
6.735000 0.4180 0.4170 0.4150 0.4080 0.4020
6.768175 0.3970 0.3790 0.3470 0.3090 0.2760
6.802000 0.2450 0.2280 0.2100 0.2080 0.2080
6.835175 0.2100 0.2250 0.2450 0.2790 0.3020
6.868000 0.3220 0.3340 0.3440 0.3690 0.3970
6.901175 0.4200 0.4400 0.4580 0.4750 0.4880
6.934000 0.5180 0.5340 0.5570 0.5870 0.6140
6.967175 0.6340 0.6440 0.6570 0.6650 0.6680
7.000000 0.6700 0.6670 0.6470 0.6300 0.6020
7.033175 0.5540 0.5260 0.4980 0.4630 0.3470
7.067000 0.2690 0.2200 0.2060 0.2060 0.2100
7.100175 0.2310 0.2540 0.2880 0.3270 0.3650
7.133000 0.4000 0.4230 0.4450 0.4510 0.4930
7.166175 0.5210 0.5260 0.5230 0.5180 0.5130
7.199000 0.5010 0.4950 0.4860 0.4750 0.4550
7.232175 0.4330 0.4230 0.4130 0.4070 0.4070
7.266000 0.4100 0.4250 0.4560 0.4960 0.5620
7.299175 0.5840 0.6000 0.6140 0.6190 0.6270
7.332000 0.6440 0.6670 0.6920 0.7150 0.7280
7.365175 0.7330 0.7380 0.7430 0.7500 0.7540
7.398000 0.7580 0.7590 0.7590 0.7580 0.7450
7.431175 0.7280 0.6980 0.6680 0.6390 0.6020
7.465000 0.5770 0.5460 0.5390 0.5390 0.5460
7.498175 0.5540 0.5740 0.5940 0.6050 0.6240
7.531000 0.6340 0.6440 0.6580 0.6720 0.6820
7.564175 0.6920 0.6980 0.7030 0.7080 0.7130
7.597000 0.7180 0.7210 0.7210 0.7210 0.7230
7.630175 0.7230 0.7230 0.7260 0.7330 0.7400
7.664000 0.7460 0.7500 0.7510 0.7560 0.7560
7.697175 0.7580 0.7640 0.7680 0.7680 0.7660
7.730000 0.7630 0.7610 0.7580 0.7480 0.7330
7.763175 0.7130 0.6650 0.6220 0.5490 0.5090
7.796000 0.4550 0.4000 0.3110 0.1900 0.1580
7.829175 0.1580 0.1600 0.1830 0.2030 0.2300
7.863000 0.2580 0.2960 0.3420 0.3940 0.4470
7.896175 0.4960 0.5790 0.6040 0.6240 0.6420
7.929000 0.6580 0.6770 0.6920 0.7030 0.7150
7.962175 0.7210 0.7250 0.7280 0.7350 0.7400
7.995000 0.7450 0.7480 0.7510 0.7530 0.7560
8.028175 0.7580 0.7580 0.7540 0.7530 0.7500
8.062000 0.7500 0.7530 0.7590 0.7690 0.7760
8.095175 0.7840 0.7910 0.7960 0.8010 0.8020
8.128000 0.8040 0.8060 0.8070 0.8070 0.8090
8.161175 0.8090 0.8090 0.8090 0.8090 0.7990
8.194000 0.7790 0.7500 0.7130 0.6730 0.6250
8.227175 0.6170 0.6170 0.6250 0.6550 0.6780
8.261000 0.6800 0.6780 0.6650 0.6490 0.6470
8.294175 0.6470 0.6680 0.7100 0.7480 0.7780
8.327000 0.8040 0.8190 0.8240 0.8360 0.8440
8.360175 0.8490 0.8540 0.8590 0.8600 0.8650
8.393000 0.8700 0.8720 0.8770 0.8770 0.8790
8.426175 0.8790 0.8790 0.8790 0.8770 0.8770
8.459000 0.8770 0.8790 0.8790 0.8800 0.8800
8.492175 0.8800 0.8800 0.8800 0.8800 0.8800
8.526000 0.8770 0.8770 0.8750 0.8750 0.8790
8.559175 0.8800 0.8840 0.8850 0.8870 0.8870
8.592000 0.8870 0.8890 0.8890 0.8890 0.8900
8.625175 0.8900 0.8900 0.8900 0.8890 0.8890
8.658000 0.8870 0.8840 0.8820 0.8790 0.8720
8.691175 0.8690 0.8600 0.8540 0.8440 0.8290
8.725000 0.8090 0.7880 0.7540 0.7310 0.6880
8.758175 0.6350 0.5770 0.5280 0.5090 0.4910
8.791000 0.4400 0.4030 0.3570 0.3060 0.2890
8.824175 0.2810 0.2810 0.2840 0.2960 0.3220
8.857000 0.3690 0.4220 0.4710 0.5610 0.6000
8.890175 0.6340 0.6630 0.6870 0.7030 0.7280
8.924000 0.7530 0.7740 0.7930 0.8020 0.8110
8.957175 0.8170 0.8190 0.8240 0.8270 0.8310
8.990000 0.8320 0.8370 0.8420 0.8470 0.8490
9.023175 0.8500 0.8540 0.8550 0.8590 0.8600
9.056000 0.8620 0.8650 0.8650 0.8650 0.8670
9.089175 0.8670 0.8670 0.8670 0.8670 0.8650
9.123000 0.8650 0.8650 0.8640 0.8640 0.8640
9.156175 0.8600 0.8600 0.8590 0.8570 0.8570
9.189000 0.8590 0.8600 0.8620 0.8640 0.8650
9.222175 0.8650 0.8650 0.8650 0.8650 0.8670
9.255000 0.8690 0.8690 0.8690 0.8700 0.8700
9.288175 0.8740 0.8750 0.8750 0.8700 0.8690
9.322000 0.8670 0.8640 0.8620 0.8620 0.8640
9.355175 0.8640 0.8620 0.8570 0.8570 0.8550
9.388000 0.8520 0.8460 0.8420 0.8390 0.8360
9.421175 0.8310 0.8260 0.8190 0.8120 0.8020
9.454000 0.7980 0.7910 0.7730 0.7640 0.7530
9.487175 0.7430 0.7310 0.7060 0.6800 0.6520
9.521000 0.6220 0.5920 0.5620 0.5310 0.5160
9.554175 0.5000 0.4660 0.4350 0.4030 0.3740
9.587000 0.3420 0.3120 0.2840 0.2560 0.2300
9.620175 0.2050 0.1930 0.1800 0.1750 0.1680
9.653000 0.1670 0.1630 0.1620 0.1620 0.1680
9.686175 0.1750 0.1800 0.1930 0.2000 0.2130
9.720000 0.2300 0.2450 0.2640 0.2860 0.3070
9.753175 0.3310 0.3520 0.3770 0.4000 0.4250
9.786000 0.4500 0.4730 0.4980 0.5460 0.5710
9.819175 0.5920 0.6040 0.6200 0.6340 0.6470
9.852000 0.6580 0.6720 0.6870 0.6970 0.7060
9.885175 0.7130 0.7200 0.7280 0.7360 0.7430
9.919000 0.7500 0.7590 0.7630 0.7660 0.7690
9.952175 0.7760 0.7790 0.7840 0.7880 0.7930
9.985000 0.7960 0.8010 0.8070 0.8110 0.8160
10.018175 0.8190 0.8260 0.8290 0.8320 0.8360
10.051000 0.8370 0.8390 0.8410 0.8440 0.8470
10.084175 0.8500 0.8540 0.8550 0.8550 0.8550
10.117000 0.8550 0.8550 0.8550 0.8550 0.8540
10.150175 0.8540 0.8520 0.8520 0.8500 0.8500
10.184000 0.8490 0.8490 0.8470 0.8470 0.8470
10.217175 0.8470 0.8490 0.8490 0.8490 0.8490
10.250000 0.8490 0.8490 0.8490 0.8490 0.8490
10.283175 0.8490 0.8490 0.8490 0.8490 0.8490
10.316000 0.8490 0.8500 0.8500 0.8500 0.8500
10.349175 0.8500 0.8520 0.8520 0.8550 0.8590
10.383000 0.8620 0.8670 0.8700 0.8700 0.8720
10.416175 0.8750 0.8750 0.8770 0.8770 0.8770
10.449000 0.8770 0.8770 0.8770 0.8770 0.8750
10.482175 0.8750 0.8750 0.8750 0.8770 0.8770
10.515000 0.8770 0.8750 0.8750 0.8740 0.8740
10.548175 0.8740 0.8740 0.8740 0.8740 0.8740
10.582000 0.8740 0.8740 0.8720 0.8720 0.8700
10.615175 0.8690 0.8670 0.8650 0.8650 0.8650
10.648000 0.8620 0.8590 0.8550 0.8500 0.8490
10.681175 0.8470 0.8410 0.8340 0.8220 0.8020
10.714000 0.7840 0.7730 0.7660 0.7590 0.7560
10.747175 0.7540 0.7540 0.7560 0.7610 0.7640
10.781000 0.7690 0.7760 0.7860 0.7980 0.8110
10.814175 0.8270 0.8370 0.8460 0.8500 0.8570
10.847000 0.8600 0.8620 0.8620 0.8670 0.8690
10.880175 0.8700 0.8720 0.8720 0.8750 0.8750
10.913000 0.8750 0.8770 0.8790 0.8790 0.8800
10.946175 0.8800 0.8800 0.8800 0.8790 0.8790
10.980000 0.8790 0.8790 0.8790 0.8790 0.8770
11.013175 0.8770 0.8770 0.8770 0.8770 0.8750
11.046000 0.8750 0.8700 0.8690 0.8690 0.8690
11.079175 0.8690 0.8670 0.8670 0.8670 0.8650
11.112000 0.8650 0.8640 0.8620 0.8600 0.8600
11.145175 0.8570 0.8540 0.8520 0.8520 0.8500
11.179000 0.8500 0.8470 0.8410 0.8390 0.8370
11.212175 0.8340 0.8320 0.8320 0.8310 0.8290
11.245000 0.8270 0.8260 0.8210 0.8170 0.8160
11.278175 0.8110 0.8070 0.8060 0.8040 0.8010
11.311000 0.7990 0.7980 0.7940 0.7860 0.7830
11.344175 0.7790 0.7730 0.7690 0.7680 0.7660
11.378000 0.7630 0.7610 0.7590 0.7560 0.7510
11.411175 0.7500 0.7400 0.7360 0.7350 0.7330
11.444000 0.7300 0.7280 0.7250 0.7210 0.7180
11.477175 0.7180 0.7160 0.7150 0.7130 0.7110
11.510000 0.7080 0.7060 0.7060 0.7030 0.7000
11.543175 0.6980 0.6970 0.6970 0.6950 0.6900
11.577000 0.6880 0.6880 0.6880 0.6900 0.6900
11.610175 0.6900 0.6900 0.6900 0.6920 0.6920
11.643000 0.6950 0.6970 0.7000 0.7010 0.7050
11.676175 0.7060 0.7080 0.7100 0.7110 0.7130
11.709000 0.7150 0.7160 0.7160 0.7180 0.7200
11.742175 0.7230 0.7260 0.7280 0.7300 0.7310
11.775000 0.7360 0.7380 0.7400 0.7430 0.7460
11.808175 0.7460 0.7460 0.7460 0.7460 0.7480
11.842000 0.7480 0.7480 0.7480 0.7500 0.7510
11.875175 0.7510 0.7510 0.7510 0.7510 0.7510
11.908000 0.7500 0.7480 0.7460 0.7400 0.7350
11.941175 0.7280 0.7230 0.7180 0.7130 0.7060
11.974000 0.6970 0.6850 0.6730 0.6600 0.6440
12.007175 0.6270 0.6100 0.5910 0.5690 0.5480
12.041000 0.5240 0.5110 0.4980 0.4710 0.4450
12.074175 0.4150 0.3850 0.3520 0.3260 0.3010
12.107000 0.2830 0.2680 0.2590 0.2540 0.2500
12.140175 0.2500 0.2560 0.2760 0.3020 0.3390
12.173000 0.3640 0.3940 0.4270 0.4580 0.4880
12.206175 0.5310 0.5460 0.5540 0.5660 0.5720
12.240000 0.5810 0.5870 0.5910 0.5970 0.6040
12.273175 0.6120 0.6190 0.6250 0.6290 0.6340
12.306000 0.6390 0.6420 0.6470 0.6470 0.6490
12.339175 0.6520 0.6500 0.6440 0.6370 0.6270
12.372000 0.6170 0.6070 0.5990 0.5870 0.5840
12.405175 0.5810 0.5810 0.5860 0.5890 0.5970
12.439000 0.6020 0.6100 0.6150 0.6150 0.6070
12.472175 0.5940 0.5760 0.5520 0.5280 0.5130
12.505000 0.5010 0.4900 0.4660 0.4450 0.4250
12.538175 0.4080 0.3920 0.3740 0.3640 0.3550
12.571000 0.3500 0.3470 0.3460 0.3460 0.3550
12.604175 0.3770 0.4000 0.4200 0.4350 0.4530
12.638000 0.4860 0.5460 0.5740 0.6000 0.6220
12.671175 0.6440 0.6630 0.6800 0.6970 0.7110
12.704000 0.7230 0.7350 0.7480 0.7580 0.7660
12.737175 0.7760 0.7860 0.7940 0.7980 0.8040
12.770000 0.8070 0.8110 0.8140 0.8170 0.8220
12.803175 0.8260 0.8270 0.8320 0.8340 0.8360
12.837000 0.8360 0.8360 0.8370 0.8390 0.8410
12.870175 0.8410 0.8440 0.8440 0.8460 0.8460
12.903000 0.8460 0.8470 0.8470 0.8500 0.8520
12.936175 0.8540 0.8540 0.8540 0.8540 0.8550
12.969000 0.8550 0.8550 0.8550 0.8550 0.8540
13.002175 0.8520 0.8520 0.8540 0.8540 0.8540
13.036000 0.8550 0.8550 0.8550 0.8550 0.8570
13.069175 0.8570 0.8570 0.8570 0.8570 0.8550
13.102000 0.8550 0.8520 0.8520 0.8500 0.8500
13.135175 0.8490 0.8470 0.8470 0.8470 0.8460
13.168000 0.8440 0.8420 0.8410 0.8360 0.8310
13.201175 0.8310 0.8270 0.8270 0.8270 0.8260
13.234000 0.8220 0.8190 0.8160 0.8140 0.8120
13.267175 0.8110 0.8110 0.8110 0.8110 0.8090
13.301000 0.8090 0.8070 0.8060 0.8060 0.8060
13.334175 0.8060 0.8060 0.8060 0.8070 0.8110
13.367000 0.8120 0.8120 0.8140 0.8160 0.8170
13.400175 0.8170 0.8160 0.8160 0.8140 0.8120
13.433000 0.8110 0.8090 0.8090 0.8070 0.8060
13.466175 0.8020 0.7980 0.7940 0.7860 0.7840
13.500000 0.7780 0.7730 0.7680 0.7630 0.7560
13.533175 0.7500 0.7460 0.7400 0.7380 0.7360
13.566000 0.7330 0.7310 0.7310 0.7300 0.7300
13.599175 0.7300 0.7310 0.7350 0.7360 0.7380
13.632000 0.7400 0.7450 0.7500 0.7510 0.7540
13.665175 0.7540 0.7510 0.7480 0.7460 0.7460
13.699000 0.7450 0.7400 0.7360 0.7310 0.7260
13.732175 0.7250 0.7230 0.7200 0.7180 0.7180
13.765000 0.7180 0.7200 0.7230 0.7280 0.7350
13.798175 0.7400 0.7460 0.7500 0.7560 0.7590
13.831000 0.7640 0.7710 0.7740 0.7760 0.7780
13.864175 0.7830 0.7860 0.7880 0.7890 0.7910
13.898000 0.7930 0.7960 0.7980 0.7990 0.8060
13.931175 0.8090 0.8110 0.8120 0.8160 0.8170
13.964000 0.8210 0.8240 0.8260 0.8290 0.8310
13.997175 0.8340 0.8360 0.8370 0.8420 0.8460
14.030000 0.8460 0.8470 0.8490 0.8550 0.8590
14.063175 0.8600 0.8620 0.8640 0.8640 0.8670
14.097000 0.8700 0.8720 0.8740 0.8750 0.8770
14.130175 0.8790 0.8790 0.8790 0.8800 0.8840
14.163000 0.8850 0.8870 0.8900 0.8920 0.8940
14.196175 0.8950 0.8950 0.8950 0.8970 0.8990
14.229000 0.9020 0.9030 0.9030 0.9030 0.9030
14.262175 0.9050 0.9050 0.9070 0.9070 0.9080
14.296000 0.9080 0.9120 0.9120 0.9120 0.9120
14.329175 0.9120 0.9120 0.9120 0.9120 0.9100
14.362000 0.9100 0.9100 0.9100 0.9080 0.9080
14.395175 0.9080 0.9080 0.9080 0.9080 0.9070
14.428000 0.9070 0.9050 0.9050 0.9030 0.9020
14.461175 0.9000 0.9000 0.8990 0.8990 0.8990
14.495000 0.8970 0.8950 0.8940 0.8940 0.8920
14.528175 0.8900 0.8870 0.8850 0.8850 0.8840
14.561000 0.8840 0.8820 0.8820 0.8800 0.8770
14.594175 0.8750 0.8740 0.8740 0.8740 0.8750
14.627000 0.8770 0.8770 0.8770 0.8750 0.8740
14.660175 0.8690 0.8670 0.8620 0.8590 0.8570
14.694000 0.8550 0.8520 0.8490 0.8460 0.8410
14.727175 0.8360 0.8290 0.8240 0.8170 0.8110
14.760000 0.8060 0.8010 0.7980 0.7960 0.7960
14.793175 0.7940 0.7930 0.7910 0.7910 0.7910
14.826000 0.7890 0.7890 0.7890 0.7910 0.7910
14.859175 0.7940 0.7980 0.7990 0.8060 0.8090
14.892000 0.8160 0.8170 0.8220 0.8270 0.8310
14.925175 0.8340 0.8370 0.8410 0.8420 0.8460
14.959000 0.8470 0.8490 0.8490 0.8470 0.8460
14.992175 0.8420 0.8370 0.8360 0.8360 0.8310
15.025000 0.8260 0.8220 0.8190 0.8170 0.8170
15.058175 0.8170 0.8190 0.8210 0.8270 0.8360
15.091000 0.8390 0.8440 0.8470 0.8500 0.8570
15.124175 0.8620 0.8650 0.8670 0.8690 0.8700
15.158000 0.8700 0.8720 0.8720 0.8720 0.8700
15.191175 0.8690 0.8670 0.8650 0.8650 0.8650
15.224000 0.8640 0.8640 0.8600 0.8590 0.8570
15.257175 0.8550 0.8550 0.8540 0.8500 0.8470
15.290000 0.8440 0.8390 0.8360 0.8320 0.8320
15.323175 0.8320 0.8310 0.8270 0.8240 0.8190
15.357000 0.8170 0.8160 0.8120 0.8090 0.8060
15.390175 0.8020 0.7990 0.7960 0.7880 0.7830
15.423000 0.7780 0.7730 0.7660 0.7590 0.7510
15.456175 0.7460 0.7400 0.7360 0.7330 0.7300
15.489000 0.7280 0.7250 0.7230 0.7200 0.7150
15.522175 0.7130 0.7110 0.7110 0.7130 0.7130
15.556000 0.7150 0.7160 0.7160 0.7180 0.7230
15.589175 0.7300 0.7330 0.7350 0.7360 0.7400
15.622000 0.7460 0.7500 0.7510 0.7530 0.7540
15.655175 0.7560 0.7580 0.7590 0.7590 0.7590
15.688000 0.7610 0.7610 0.7610 0.7610 0.7610
15.721175 0.7610 0.7610 0.7610 0.7590 0.7580
15.755000 0.7560 0.7560 0.7510 0.7510 0.7500
15.788175 0.7500 0.7480 0.7480 0.7460 0.7460
15.821000 0.7410 0.7400 0.7380 0.7360 0.7360
15.854175 0.7350 0.7330 0.7330 0.7330 0.7330
15.887000 0.7330 0.7330 0.7330 0.7310 0.7300
15.920175 0.7260 0.7250 0.7250 0.7250 0.7230
15.954000 0.7210 0.7210 0.7200 0.7200 0.7180
15.987175 0.7200
##END=
