##TITLE=Ethanol,2-[3-[4-(o-methoxyphenyl)piperazino]propoxy]-, dihydrochloride
##JCAMP-DX=4.24
##DATA TYPE=INFRARED SPECTRUM
##CLASS=COBLENTZ III
##ORIGIN=ABBOTT LABORATORIES
##OWNER=Copyright (C) 1987 by the Coblentz Society
Collection (C) 2018 copyright by the U.S. Secretary of Commerce
on behalf of the United States of America. All rights reserved.
##DATE=1962/05/14
##MOLFORM=C16 H28 Cl2 N2 O3
##SOURCE REFERENCE=COBLENTZ NO. 5380
##$NIST ID=B6005380
##$NIST SOURCE=COBLENTZ
##$NIST IMAGE=cob5380
##SPECTROMETER/DATA SYSTEM=PERKIN-ELMER 21 (GRATING)
$$SPECTRAL CONTAMINATION DUE TO OIL AROUND 1450 AND 2900 CM^-^1
##INSTRUMENT PARAMETERS=FILTER AT ABOUT 10 MICRONS
$$ SPECTRAL FEATURE AT 990 CM^-^1 IS AN ARTIFACT CAUSED BY FILTER CHANGE
##STATE=SOLID (NUJOL MULL)
##RESOLUTION=2
##XUNITS=1/CM
##YUNITS=TRANSMITTANCE
##XFACTOR=1.0
##YFACTOR=1
##FIRSTX=653
##LASTX=4000
##FIRSTY=0.6124
##MAXX=4000
##MINX=653
##MAXY=0.7526
##MINY=0.0249
##NPOINTS=3348
##XYDATA=(X++(Y..Y))
653.000000 0.6124 0.6152 0.6184 0.6216 0.6248
658.000000 0.6283 0.6319 0.6354 0.6379 0.6406
663.000000 0.6311 0.6139 0.6119 0.6105 0.6380
668.000000 0.6566 0.6610 0.6669 0.6712 0.6748
673.000000 0.6778 0.6809 0.6847 0.6883 0.6904
678.000000 0.6926 0.6947 0.6968 0.6989 0.7011
683.000000 0.7031 0.7053 0.7062 0.7073 0.7090
688.000000 0.7130 0.7158 0.7171 0.7179 0.7188
693.000000 0.7197 0.7202 0.7207 0.7212 0.7216
698.000000 0.7219 0.7222 0.7251 0.7226 0.7216
703.000000 0.7204 0.7195 0.7157 0.7117 0.7077
708.000000 0.7036 0.6992 0.6939 0.6883 0.6825
713.000000 0.6756 0.6681 0.6606 0.6526 0.6445
718.000000 0.6376 0.6352 0.6338 0.6334 0.6368
723.000000 0.6334 0.6332 0.6302 0.6221 0.6107
728.000000 0.5964 0.5797 0.5645 0.5600 0.5815
733.000000 0.6148 0.6346 0.6490 0.6550 0.6566
738.000000 0.6581 0.6535 0.6483 0.6427 0.6331
743.000000 0.6196 0.6065 0.5915 0.5700 0.5375
748.000000 0.4900 0.4410 0.4037 0.4011 0.4409
753.000000 0.4759 0.5084 0.5109 0.4736 0.4326
758.000000 0.3917 0.3509 0.3102 0.2697 0.2200
763.000000 0.2055 0.2035 0.2155 0.2463 0.3244
768.000000 0.4023 0.4800 0.6132 0.6425 0.6580
773.000000 0.6699 0.6797 0.6898 0.7000 0.7100
778.000000 0.7193 0.7276 0.7342 0.7384 0.7417
783.000000 0.7435 0.7451 0.7429 0.7445 0.7401
788.000000 0.7320 0.7161 0.6930 0.6666 0.6385
793.000000 0.6173 0.6049 0.6042 0.6418 0.6766
798.000000 0.7113 0.7261 0.7350 0.7432 0.7497
803.000000 0.7526 0.7468 0.7397 0.7326 0.7236
808.000000 0.7086 0.6722 0.6359 0.6336 0.6344
813.000000 0.6900 0.7176 0.7260 0.7327 0.7392
818.000000 0.7421 0.7417 0.7402 0.7387 0.7388
823.000000 0.7427 0.7451 0.7425 0.7410 0.7391
828.000000 0.7374 0.7353 0.7318 0.7262 0.7188
833.000000 0.7120 0.7087 0.7107 0.7131 0.7142
838.000000 0.7129 0.7099 0.7037 0.6930 0.6744
843.000000 0.6414 0.6023 0.5938 0.5897 0.6247
848.000000 0.6550 0.6786 0.6816 0.6812 0.6783
853.000000 0.6755 0.6743 0.6741 0.6747 0.6745
858.000000 0.6685 0.6611 0.6576 0.6586 0.6644
863.000000 0.6695 0.6704 0.6692 0.6621 0.6498
868.000000 0.6332 0.6105 0.5554 0.5004 0.4455
873.000000 0.3907 0.3637 0.3625 0.4299 0.4824
878.000000 0.5294 0.5349 0.5317 0.5237 0.5074
883.000000 0.4922 0.4908 0.4864 0.5034 0.5051
888.000000 0.4968 0.4968 0.4969 0.5393 0.5649
893.000000 0.5897 0.6113 0.6314 0.6441 0.6536
898.000000 0.6606 0.6665 0.6707 0.6736 0.6754
903.000000 0.6768 0.6803 0.6762 0.6735 0.6686
908.000000 0.6632 0.6566 0.6477 0.6380 0.6274
913.000000 0.6106 0.6028 0.6016 0.6157 0.6263
918.000000 0.6305 0.6308 0.6214 0.6055 0.5893
923.000000 0.5732 0.5629 0.5586 0.5872 0.6084
928.000000 0.6295 0.6507 0.6546 0.6551 0.6534
933.000000 0.6524 0.6507 0.6490 0.6473 0.6452
938.000000 0.6428 0.6394 0.6360 0.6323 0.6278
943.000000 0.6234 0.6184 0.6128 0.6059 0.5987
948.000000 0.5909 0.5791 0.5666 0.5528 0.5392
953.000000 0.5319 0.5306 0.5293 0.5279 0.5262
958.000000 0.5219 0.5141 0.5041 0.4835 0.4583
963.000000 0.4333 0.4082 0.3807 0.3597 0.3584
968.000000 0.3697 0.3977 0.4355 0.4732 0.5109
973.000000 0.5485 0.5878 0.6041 0.6169 0.6237
978.000000 0.6255 0.6262 0.6258 0.6259 0.6247
983.000000 0.6235 0.6223 0.6200 0.6166 0.6125
988.000000 0.6057 0.5984 0.5929 0.6076 0.6281
993.000000 0.6272 0.5855 0.5585 0.5523 0.5467
998.000000 0.5245 0.4980 0.4717 0.4492 0.4463
1003.000000 0.4444 0.4418 0.4300 0.4007 0.3714
1008.000000 0.3422 0.3130 0.2839 0.2612 0.2485
1013.000000 0.2394 0.2346 0.2355 0.2591 0.2831
1018.000000 0.3071 0.3231 0.3189 0.3060 0.2932
1023.000000 0.2826 0.3017 0.3479 0.3940 0.4400
1028.000000 0.4819 0.4846 0.4839 0.4834 0.4784
1033.000000 0.4730 0.4591 0.4386 0.4183 0.3980
1038.000000 0.3777 0.3575 0.3373 0.3183 0.3154
1043.000000 0.3151 0.3349 0.3488 0.3534 0.3528
1048.000000 0.3548 0.3457 0.3416 0.3375 0.3334
1053.000000 0.3294 0.3300 0.3307 0.3307 0.3305
1058.000000 0.3358 0.3504 0.3651 0.3771 0.3762
1063.000000 0.3639 0.3495 0.3353 0.3222 0.3213
1068.000000 0.3201 0.3745 0.4169 0.4353 0.4526
1073.000000 0.4699 0.4872 0.5012 0.5076 0.5111
1078.000000 0.5131 0.5133 0.5156 0.5105 0.5056
1083.000000 0.4934 0.4695 0.4454 0.4213 0.3973
1088.000000 0.3734 0.3495 0.3256 0.3020 0.2953
1093.000000 0.2934 0.3131 0.3417 0.3702 0.3986
1098.000000 0.4271 0.4554 0.4825 0.4896 0.4891
1103.000000 0.4928 0.4807 0.4659 0.4552 0.4425
1108.000000 0.4144 0.3841 0.3539 0.3237 0.2936
1113.000000 0.2667 0.2646 0.2620 0.2686 0.2983
1118.000000 0.3336 0.3687 0.4038 0.4389 0.4739
1123.000000 0.5088 0.5372 0.5526 0.5691 0.5821
1128.000000 0.5900 0.5973 0.6038 0.6077 0.6108
1133.000000 0.6109 0.6102 0.6084 0.6066 0.6043
1138.000000 0.6019 0.5995 0.5968 0.5939 0.5897
1143.000000 0.5834 0.5673 0.5428 0.5170 0.4912
1148.000000 0.4655 0.4398 0.4141 0.3885 0.3629
1153.000000 0.3572 0.3591 0.3934 0.4331 0.4727
1158.000000 0.5123 0.5518 0.5780 0.5845 0.5880
1163.000000 0.5901 0.5908 0.5911 0.5911 0.5902
1168.000000 0.5901 0.5904 0.5921 0.5945 0.5976
1173.000000 0.6012 0.6051 0.6088 0.6120 0.6129
1178.000000 0.6162 0.6135 0.6123 0.6082 0.6035
1183.000000 0.5997 0.5967 0.5963 0.5970 0.5977
1188.000000 0.5983 0.5989 0.5995 0.5990 0.5977
1193.000000 0.5957 0.5936 0.5911 0.5884 0.5852
1198.000000 0.5815 0.5761 0.5699 0.5632 0.5562
1203.000000 0.5488 0.5410 0.5315 0.5217 0.5025
1208.000000 0.4743 0.4463 0.4183 0.4039 0.3984
1213.000000 0.3988 0.3967 0.4205 0.4337 0.4467
1218.000000 0.4597 0.4709 0.4764 0.4808 0.4841
1223.000000 0.4872 0.4902 0.4932 0.4961 0.4989
1228.000000 0.5007 0.5023 0.5012 0.5025 0.5010
1233.000000 0.4989 0.4951 0.4912 0.4874 0.4829
1238.000000 0.4777 0.4703 0.4595 0.4490 0.4379
1243.000000 0.4265 0.4077 0.3913 0.3772 0.3641
1248.000000 0.3488 0.3001 0.2120 0.1423 0.1193
1253.000000 0.1072 0.0967 0.0932 0.0923 0.0952
1258.000000 0.1110 0.1381 0.1652 0.1921 0.2191
1263.000000 0.2460 0.2728 0.2997 0.3236 0.3288
1268.000000 0.3274 0.3214 0.3155 0.3097 0.3102
1273.000000 0.3162 0.3503 0.3823 0.4002 0.4161
1278.000000 0.4257 0.4303 0.4343 0.4369 0.4389
1283.000000 0.4409 0.4430 0.4449 0.4457 0.4477
1288.000000 0.4246 0.4130 0.4024 0.4006 0.4057
1293.000000 0.4106 0.4211 0.4406 0.4778 0.5149
1298.000000 0.5520 0.5570 0.5572 0.5571 0.5561
1303.000000 0.5545 0.5526 0.5507 0.5501 0.5554
1308.000000 0.5530 0.5552 0.5577 0.5595 0.5598
1313.000000 0.5600 0.5581 0.5558 0.5533 0.5504
1318.000000 0.5472 0.5440 0.5406 0.5371 0.5336
1323.000000 0.5306 0.5290 0.5292 0.5293 0.5296
1328.000000 0.5309 0.5329 0.5346 0.5356 0.5355
1333.000000 0.5344 0.5322 0.5300 0.5273 0.5237
1338.000000 0.5128 0.4996 0.4863 0.4731 0.4599
1343.000000 0.4467 0.4402 0.4383 0.4417 0.4486
1348.000000 0.4559 0.4632 0.4705 0.4771 0.4786
1353.000000 0.4769 0.4759 0.4636 0.4456 0.4276
1358.000000 0.4097 0.3918 0.3740 0.3561 0.3383
1363.000000 0.3205 0.3028 0.2850 0.2673 0.2496
1368.000000 0.2320 0.2205 0.2185 0.2198 0.2263
1373.000000 0.2410 0.2565 0.2720 0.2875 0.3029
1378.000000 0.3183 0.3261 0.3306 0.3365 0.3456
1383.000000 0.3590 0.3775 0.3972 0.4169 0.4365
1388.000000 0.4561 0.4659 0.4717 0.4761 0.4789
1393.000000 0.4812 0.4844 0.4842 0.4794 0.4731
1398.000000 0.4656 0.4579 0.4518 0.4503 0.4501
1403.000000 0.4507 0.4538 0.4573 0.4603 0.4609
1408.000000 0.4592 0.4468 0.4286 0.4104 0.3922
1413.000000 0.3739 0.3557 0.3376 0.3195 0.3015
1418.000000 0.2834 0.2658 0.2514 0.2385 0.2255
1423.000000 0.2142 0.2032 0.1917 0.1801 0.1688
1428.000000 0.1602 0.1545 0.1487 0.1445 0.1408
1433.000000 0.1374 0.1344 0.1313 0.1268 0.1222
1438.000000 0.1169 0.1108 0.1048 0.0986 0.0916
1443.000000 0.0830 0.0726 0.0640 0.0583 0.0554
1448.000000 0.0543 0.0538 0.0544 0.0553 0.0562
1453.000000 0.0576 0.0605 0.0663 0.0746 0.0957
1458.000000 0.1181 0.1406 0.1630 0.1854 0.2030
1463.000000 0.2082 0.2133 0.2207 0.2359 0.2542
1468.000000 0.2724 0.2907 0.3089 0.3271 0.3453
1473.000000 0.3592 0.3619 0.3615 0.3523 0.3419
1478.000000 0.3316 0.3212 0.3109 0.3005 0.2970
1483.000000 0.3012 0.3246 0.3601 0.3957 0.4312
1488.000000 0.4666 0.5018 0.5221 0.5233 0.5231
1493.000000 0.5223 0.5211 0.5172 0.5104 0.5025
1498.000000 0.4927 0.4829 0.4731 0.4633 0.4536
1503.000000 0.4438 0.4340 0.4243 0.4146 0.4049
1508.000000 0.3880 0.3880 0.3881 0.3955 0.4212
1513.000000 0.4552 0.4891 0.5230 0.5569 0.5907
1518.000000 0.6223 0.6316 0.6408 0.6473 0.6529
1523.000000 0.6569 0.6595 0.6607 0.6615 0.6621
1528.000000 0.6621 0.6620 0.6618 0.6617 0.6616
1533.000000 0.6615 0.6614 0.6613 0.6612 0.6611
1538.000000 0.6610 0.6609 0.6608 0.6607 0.6573
1543.000000 0.6606 0.6605 0.6605 0.6604 0.6603
1548.000000 0.6602 0.6601 0.6600 0.6599 0.6598
1553.000000 0.6597 0.6596 0.6593 0.6582 0.6563
1558.000000 0.6544 0.6523 0.6503 0.6485 0.6467
1563.000000 0.6449 0.6439 0.6436 0.6432 0.6426
1568.000000 0.6419 0.6413 0.6405 0.6387 0.6351
1573.000000 0.6310 0.6271 0.6226 0.6177 0.6127
1578.000000 0.6079 0.6031 0.5980 0.5906 0.5822
1583.000000 0.5757 0.5702 0.5650 0.5587 0.5470
1588.000000 0.5332 0.5194 0.5056 0.4919 0.4781
1593.000000 0.4644 0.4507 0.4370 0.4233 0.4096
1598.000000 0.3960 0.3824 0.3688 0.3552 0.3477
1603.000000 0.3475 0.3489 0.3482 0.4191 0.4682
1608.000000 0.5173 0.5664 0.6150 0.6538 0.6543
1613.000000 0.6548 0.6553 0.6557 0.6558 0.6559
1618.000000 0.6533 0.6561 0.6559 0.6556 0.6553
1623.000000 0.6549 0.6544 0.6537 0.6530 0.6522
1628.000000 0.6510 0.6490 0.6469 0.6460 0.6457
1633.000000 0.6454 0.6451 0.6449 0.6448 0.6447
1638.000000 0.6446 0.6446 0.6445 0.6445 0.6445
1643.000000 0.6445 0.6446 0.6447 0.6447 0.6448
1648.000000 0.6449 0.6449 0.6450 0.6450 0.6451
1653.000000 0.6452 0.6453 0.6454 0.6455 0.6455
1658.000000 0.6456 0.6458 0.6458 0.6459 0.6461
1663.000000 0.6462 0.6463 0.6464 0.6465 0.6467
1668.000000 0.6468 0.6469 0.6470 0.6471 0.6472
1673.000000 0.6474 0.6475 0.6476 0.6477 0.6478
1678.000000 0.6481 0.6483 0.6484 0.6487 0.6489
1683.000000 0.6491 0.6492 0.6494 0.6497 0.6500
1688.000000 0.6502 0.6505 0.6508 0.6510 0.6513
1693.000000 0.6515 0.6518 0.6520 0.6522 0.6525
1698.000000 0.6528 0.6530 0.6533 0.6535 0.6538
1703.000000 0.6541 0.6542 0.6544 0.6546 0.6548
1708.000000 0.6550 0.6552 0.6554 0.6555 0.6557
1713.000000 0.6559 0.6560 0.6562 0.6564 0.6565
1718.000000 0.6567 0.6569 0.6571 0.6572 0.6574
1723.000000 0.6576 0.6577 0.6579 0.6581 0.6582
1728.000000 0.6584 0.6585 0.6586 0.6588 0.6590
1733.000000 0.6591 0.6593 0.6593 0.6593 0.6594
1738.000000 0.6595 0.6596 0.6597 0.6597 0.6597
1743.000000 0.6598 0.6599 0.6600 0.6599 0.6598
1748.000000 0.6597 0.6595 0.6594 0.6593 0.6592
1753.000000 0.6591 0.6589 0.6587 0.6583 0.6580
1758.000000 0.6576 0.6573 0.6569 0.6566 0.6563
1763.000000 0.6559 0.6555 0.6552 0.6549 0.6545
1768.000000 0.6542 0.6538 0.6533 0.6528 0.6523
1773.000000 0.6518 0.6513 0.6508 0.6503 0.6499
1778.000000 0.6493 0.6488 0.6483 0.6479 0.6474
1783.000000 0.6469 0.6464 0.6459 0.6454 0.6448
1788.000000 0.6442 0.6436 0.6430 0.6423 0.6417
1793.000000 0.6411 0.6405 0.6399 0.6393 0.6387
1798.000000 0.6381 0.6375 0.6369 0.6362 0.6356
1803.000000 0.6350 0.6343 0.6337 0.6330 0.6323
1808.000000 0.6316 0.6309 0.6303 0.6297 0.6290
1813.000000 0.6283 0.6276 0.6270 0.6263 0.6257
1818.000000 0.6250 0.6243 0.6237 0.6230 0.6224
1823.000000 0.6217 0.6210 0.6203 0.6197 0.6191
1828.000000 0.6184 0.6177 0.6170 0.6162 0.6155
1833.000000 0.6148 0.6141 0.6134 0.6127 0.6120
1838.000000 0.6112 0.6105 0.6098 0.6091 0.6084
1843.000000 0.6077 0.6070 0.6063 0.6056 0.6049
1848.000000 0.6042 0.6034 0.6028 0.6020 0.6012
1853.000000 0.6004 0.5996 0.5988 0.5980 0.5972
1858.000000 0.5964 0.5956 0.5948 0.5941 0.5933
1863.000000 0.5925 0.5917 0.5909 0.5901 0.5893
1868.000000 0.5885 0.5877 0.5869 0.5862 0.5854
1873.000000 0.5846 0.5838 0.5830 0.5822 0.5814
1878.000000 0.5804 0.5793 0.5782 0.5772 0.5761
1883.000000 0.5751 0.5741 0.5730 0.5720 0.5709
1888.000000 0.5699 0.5689 0.5679 0.5668 0.5658
1893.000000 0.5648 0.5638 0.5628 0.5618 0.5608
1898.000000 0.5598 0.5588 0.5578 0.5568 0.5558
1903.000000 0.5548 0.5538 0.5528 0.5519 0.5509
1908.000000 0.5499 0.5489 0.5479 0.5469 0.5459
1913.000000 0.5449 0.5440 0.5430 0.5420 0.5410
1918.000000 0.5400 0.5390 0.5381 0.5371 0.5361
1923.000000 0.5351 0.5342 0.5332 0.5322 0.5311
1928.000000 0.5299 0.5288 0.5277 0.5266 0.5254
1933.000000 0.5243 0.5232 0.5220 0.5209 0.5198
1938.000000 0.5186 0.5176 0.5165 0.5153 0.5142
1943.000000 0.5131 0.5120 0.5108 0.5097 0.5087
1948.000000 0.5076 0.5065 0.5053 0.5042 0.5031
1953.000000 0.5020 0.5009 0.4997 0.4986 0.4974
1958.000000 0.4963 0.4952 0.4941 0.4930 0.4919
1963.000000 0.4908 0.4897 0.4886 0.4875 0.4863
1968.000000 0.4852 0.4841 0.4830 0.4819 0.4807
1973.000000 0.4795 0.4783 0.4771 0.4760 0.4748
1978.000000 0.4736 0.4724 0.4713 0.4701 0.4689
1983.000000 0.4677 0.4666 0.4655 0.4643 0.4631
1988.000000 0.4618 0.4605 0.4591 0.4577 0.4563
1993.000000 0.4550 0.4536 0.4522 0.4509 0.4496
1998.000000 0.4482 0.4469 0.4456 0.4442 0.4428
2003.000000 0.4414 0.4401 0.4388 0.4374 0.4361
2008.000000 0.4348 0.4336 0.4323 0.4312 0.4300
2013.000000 0.4288 0.4276 0.4264 0.4252 0.4240
2018.000000 0.4229 0.4216 0.4204 0.4193 0.4181
2023.000000 0.4169 0.4158 0.4146 0.4134 0.4123
2028.000000 0.4113 0.4104 0.4094 0.4085 0.4076
2033.000000 0.4067 0.4058 0.4050 0.4041 0.4032
2038.000000 0.4023 0.4014 0.4005 0.3996 0.3987
2043.000000 0.3978 0.3969 0.3960 0.3951 0.3942
2048.000000 0.3933 0.3924 0.3915 0.3906 0.3896
2053.000000 0.3886 0.3876 0.3866 0.3856 0.3846
2058.000000 0.3836 0.3826 0.3816 0.3806 0.3796
2063.000000 0.3786 0.3776 0.3765 0.3755 0.3745
2068.000000 0.3735 0.3725 0.3715 0.3705 0.3695
2073.000000 0.3685 0.3675 0.3665 0.3656 0.3646
2078.000000 0.3636 0.3625 0.3612 0.3597 0.3581
2083.000000 0.3566 0.3550 0.3534 0.3518 0.3503
2088.000000 0.3487 0.3472 0.3456 0.3441 0.3425
2093.000000 0.3410 0.3394 0.3378 0.3363 0.3347
2098.000000 0.3332 0.3317 0.3303 0.3289 0.3276
2103.000000 0.3262 0.3249 0.3236 0.3223 0.3209
2108.000000 0.3196 0.3183 0.3170 0.3156 0.3143
2113.000000 0.3130 0.3117 0.3103 0.3090 0.3077
2118.000000 0.3064 0.3051 0.3037 0.3022 0.3006
2123.000000 0.2987 0.2967 0.2947 0.2928 0.2908
2128.000000 0.2889 0.2869 0.2849 0.2829 0.2806
2133.000000 0.2782 0.2758 0.2736 0.2723 0.2710
2138.000000 0.2698 0.2685 0.2673 0.2660 0.2648
2143.000000 0.2635 0.2622 0.2615 0.2608 0.2601
2148.000000 0.2594 0.2587 0.2581 0.2575 0.2568
2153.000000 0.2561 0.2554 0.2548 0.2541 0.2535
2158.000000 0.2530 0.2525 0.2521 0.2517 0.2513
2163.000000 0.2444 0.2505 0.2503 0.2502 0.2502
2168.000000 0.2502 0.2503 0.2504 0.2505 0.2506
2173.000000 0.2508 0.2509 0.2510 0.2511 0.2512
2178.000000 0.2515 0.2518 0.2522 0.2526 0.2530
2183.000000 0.2536 0.2542 0.2548 0.2553 0.2559
2188.000000 0.2565 0.2572 0.2577 0.2583 0.2589
2193.000000 0.2596 0.2601 0.2607 0.2613 0.2620
2198.000000 0.2626 0.2632 0.2638 0.2644 0.2651
2203.000000 0.2657 0.2663 0.2669 0.2675 0.2682
2208.000000 0.2690 0.2697 0.2705 0.2713 0.2721
2213.000000 0.2729 0.2737 0.2745 0.2753 0.2760
2218.000000 0.2766 0.2772 0.2778 0.2784 0.2791
2223.000000 0.2797 0.2803 0.2810 0.2816 0.2823
2228.000000 0.2829 0.2836 0.2843 0.2850 0.2857
2233.000000 0.2864 0.2871 0.2878 0.2885 0.2892
2238.000000 0.2899 0.2905 0.2912 0.2918 0.2925
2243.000000 0.2932 0.2939 0.2946 0.2953 0.2960
2248.000000 0.2966 0.2973 0.2980 0.2987 0.2994
2253.000000 0.3001 0.3008 0.3014 0.3020 0.3027
2258.000000 0.3034 0.3041 0.3047 0.3052 0.3057
2263.000000 0.3061 0.3063 0.3065 0.3067 0.3069
2268.000000 0.3071 0.3059 0.3076 0.3078 0.3078
2273.000000 0.3078 0.3077 0.3075 0.3074 0.3072
2278.000000 0.3070 0.3068 0.3067 0.3066 0.3062
2283.000000 0.3059 0.3055 0.3051 0.3047 0.3044
2288.000000 0.3040 0.3037 0.3033 0.3029 0.3026
2293.000000 0.3022 0.3019 0.3016 0.3012 0.3009
2298.000000 0.3006 0.3003 0.2999 0.2996 0.2994
2303.000000 0.2991 0.2989 0.2986 0.2984 0.2982
2308.000000 0.2979 0.2977 0.2975 0.2972 0.2970
2313.000000 0.2968 0.2965 0.2963 0.2963 0.2963
2318.000000 0.2963 0.2963 0.2963 0.2963 0.2963
2323.000000 0.2963 0.2963 0.2963 0.2963 0.2963
2328.000000 0.2964 0.2964 0.2964 0.2964 0.2964
2333.000000 0.2965 0.2965 0.2965 0.2965 0.2966
2338.000000 0.2966 0.2966 0.2964 0.2962 0.2958
2343.000000 0.2955 0.2950 0.2945 0.2939 0.2932
2348.000000 0.2926 0.2920 0.2914 0.2908 0.2903
2353.000000 0.2897 0.2892 0.2886 0.2881 0.2876
2358.000000 0.2870 0.2865 0.2859 0.2854 0.2847
2363.000000 0.2840 0.2834 0.2828 0.2821 0.2814
2368.000000 0.2808 0.2802 0.2795 0.2789 0.2782
2373.000000 0.2776 0.2770 0.2763 0.2756 0.2750
2378.000000 0.2743 0.2736 0.2730 0.2723 0.2717
2383.000000 0.2710 0.2703 0.2697 0.2690 0.2684
2388.000000 0.2677 0.2671 0.2665 0.2660 0.2654
2393.000000 0.2649 0.2643 0.2638 0.2632 0.2627
2398.000000 0.2625 0.2622 0.2621 0.2621 0.2620
2403.000000 0.2620 0.2573 0.2620 0.2620 0.2620
2408.000000 0.2620 0.2621 0.2621 0.2622 0.2624
2413.000000 0.2625 0.2628 0.2631 0.2634 0.2638
2418.000000 0.2642 0.2647 0.2653 0.2661 0.2670
2423.000000 0.2680 0.2691 0.2703 0.2715 0.2728
2428.000000 0.2742 0.2757 0.2768 0.2776 0.2784
2433.000000 0.2788 0.2792 0.2796 0.2800 0.2829
2438.000000 0.2802 0.2802 0.2801 0.2801 0.2799
2443.000000 0.2796 0.2794 0.2790 0.2787 0.2783
2448.000000 0.2780 0.2776 0.2771 0.2766 0.2761
2453.000000 0.2755 0.2749 0.2744 0.2738 0.2733
2458.000000 0.2727 0.2722 0.2718 0.2714 0.2710
2463.000000 0.2707 0.2703 0.2699 0.2689 0.2692
2468.000000 0.2689 0.2692 0.2694 0.2697 0.2700
2473.000000 0.2702 0.2704 0.2706 0.2709 0.2713
2478.000000 0.2717 0.2723 0.2730 0.2738 0.2746
2483.000000 0.2755 0.2763 0.2771 0.2779 0.2787
2488.000000 0.2795 0.2803 0.2811 0.2820 0.2830
2493.000000 0.2840 0.2853 0.2865 0.2877 0.2889
2498.000000 0.2905 0.2925 0.2946 0.2967 0.2989
2503.000000 0.3010 0.3029 0.3047 0.3065 0.3082
2508.000000 0.3099 0.3114 0.3130 0.3145 0.3161
2513.000000 0.3176 0.3192 0.3207 0.3219 0.3231
2518.000000 0.3243 0.3253 0.3264 0.3273 0.3281
2523.000000 0.3290 0.3298 0.3306 0.3314 0.3322
2528.000000 0.3330 0.3336 0.3343 0.3349 0.3356
2533.000000 0.3362 0.3368 0.3374 0.3381 0.3387
2538.000000 0.3393 0.3399 0.3405 0.3412 0.3420
2543.000000 0.3429 0.3439 0.3450 0.3461 0.3473
2548.000000 0.3484 0.3498 0.3515 0.3531 0.3548
2553.000000 0.3566 0.3583 0.3601 0.3619 0.3637
2558.000000 0.3654 0.3672 0.3686 0.3700 0.3713
2563.000000 0.3724 0.3736 0.3746 0.3756 0.3764
2568.000000 0.3768 0.3771 0.3773 0.3775 0.3776
2573.000000 0.3778 0.3779 0.3781 0.3782 0.3783
2578.000000 0.3785 0.3786 0.3788 0.3789 0.3790
2583.000000 0.3792 0.3795 0.3798 0.3802 0.3807
2588.000000 0.3813 0.3826 0.3840 0.3855 0.3870
2593.000000 0.3886 0.3904 0.3923 0.3941 0.3956
2598.000000 0.3971 0.3984 0.3996 0.4008 0.4019
2603.000000 0.4030 0.4041 0.4048 0.4054 0.4060
2608.000000 0.4066 0.4072 0.4078 0.4084 0.4090
2613.000000 0.4097 0.4103 0.4109 0.4116 0.4122
2618.000000 0.4129 0.4139 0.4149 0.4161 0.4176
2623.000000 0.4191 0.4211 0.4233 0.4254 0.4280
2628.000000 0.4305 0.4330 0.4352 0.4374 0.4394
2633.000000 0.4413 0.4432 0.4451 0.4469 0.4488
2638.000000 0.4504 0.4519 0.4535 0.4550 0.4565
2643.000000 0.4577 0.4583 0.4589 0.4595 0.4601
2648.000000 0.4607 0.4612 0.4618 0.4623 0.4629
2653.000000 0.4634 0.4640 0.4646 0.4651 0.4657
2658.000000 0.4662 0.4667 0.4672 0.4677 0.4681
2663.000000 0.4685 0.4690 0.4694 0.4699 0.4703
2668.000000 0.4707 0.4712 0.4716 0.4721 0.4725
2673.000000 0.4730 0.4735 0.4740 0.4746 0.4752
2678.000000 0.4759 0.4766 0.4773 0.4780 0.4787
2683.000000 0.4797 0.4811 0.4824 0.4851 0.4883
2688.000000 0.4916 0.4948 0.4980 0.5011 0.5025
2693.000000 0.5037 0.5049 0.5057 0.5065 0.5086
2698.000000 0.5073 0.5074 0.5076 0.5078 0.5079
2703.000000 0.5081 0.5082 0.5084 0.5085 0.5086
2708.000000 0.5088 0.5088 0.5086 0.5084 0.5081
2713.000000 0.5079 0.5077 0.5075 0.5073 0.5072
2718.000000 0.5070 0.5069 0.5067 0.5063 0.5059
2723.000000 0.5054 0.5049 0.5043 0.5038 0.5030
2728.000000 0.5022 0.5014 0.5003 0.4992 0.4980
2733.000000 0.4968 0.4956 0.4943 0.4930 0.4917
2738.000000 0.4904 0.4891 0.4878 0.4865 0.4853
2743.000000 0.4840 0.4827 0.4815 0.4803 0.4792
2748.000000 0.4779 0.4767 0.4755 0.4745 0.4736
2753.000000 0.4726 0.4717 0.4708 0.4700 0.4692
2758.000000 0.4684 0.4676 0.4671 0.4666 0.4661
2763.000000 0.4637 0.4598 0.4559 0.4495 0.4407
2768.000000 0.4319 0.4231 0.4143 0.4055 0.3967
2773.000000 0.3880 0.3792 0.3705 0.3617 0.3530
2778.000000 0.3442 0.3355 0.3267 0.3180 0.3093
2783.000000 0.3006 0.2918 0.2831 0.2744 0.2657
2788.000000 0.2571 0.2484 0.2398 0.2311 0.2225
2793.000000 0.2138 0.2052 0.1965 0.1879 0.1793
2798.000000 0.1706 0.1620 0.1534 0.1448 0.1362
2803.000000 0.1276 0.1191 0.1105 0.1019 0.0934
2808.000000 0.0848 0.0763 0.0696 0.0629 0.0562
2813.000000 0.0524 0.0491 0.0458 0.0431 0.0407
2818.000000 0.0383 0.0366 0.0354 0.0342 0.0332
2823.000000 0.0325 0.0318 0.0311 0.0304 0.0298
2828.000000 0.0292 0.0290 0.0288 0.0286 0.0284
2833.000000 0.0282 0.0280 0.0279 0.0277 0.0275
2838.000000 0.0273 0.0271 0.0270 0.0268 0.0267
2843.000000 0.0265 0.0264 0.0262 0.0261 0.0259
2848.000000 0.0258 0.0257 0.0255 0.0254 0.0253
2853.000000 0.0252 0.0250 0.0250 0.0249 0.0249
2858.000000 0.0249 0.0249 0.0249 0.0250 0.0250
2863.000000 0.0250 0.0250 0.0250 0.0250 0.0250
2868.000000 0.0251 0.0253 0.0254 0.0256 0.0258
2873.000000 0.0260 0.0262 0.0264 0.0266 0.0268
2878.000000 0.0270 0.0273 0.0275 0.0277 0.0280
2883.000000 0.0282 0.0285 0.0288 0.0292 0.0295
2888.000000 0.0299 0.0303 0.0307 0.0311 0.0315
2893.000000 0.0319 0.0324 0.0328 0.0332 0.0336
2898.000000 0.0340 0.0344 0.0348 0.0351 0.0355
2903.000000 0.0359 0.0363 0.0366 0.0370 0.0374
2908.000000 0.0377 0.0381 0.0385 0.0389 0.0394
2913.000000 0.0398 0.0404 0.0414 0.0424 0.0434
2918.000000 0.0444 0.0454 0.0465 0.0480 0.0503
2923.000000 0.0525 0.0548 0.0599 0.0651 0.0703
2928.000000 0.0754 0.0806 0.0858 0.0909 0.0961
2933.000000 0.1012 0.1063 0.1115 0.1166 0.1218
2938.000000 0.1269 0.1320 0.1371 0.1422 0.1474
2943.000000 0.1525 0.1576 0.1627 0.1678 0.1729
2948.000000 0.1780 0.1831 0.1881 0.1932 0.1983
2953.000000 0.2034 0.2085 0.2135 0.2186 0.2237
2958.000000 0.2287 0.2338 0.2389 0.2439 0.2490
2963.000000 0.2541 0.2591 0.2641 0.2692 0.2742
2968.000000 0.2792 0.2842 0.2893 0.2943 0.2993
2973.000000 0.3043 0.3093 0.3143 0.3193 0.3279
2978.000000 0.3372 0.3466 0.3546 0.3588 0.3629
2983.000000 0.3670 0.3702 0.3729 0.3756 0.3783
2988.000000 0.3810 0.3837 0.3864 0.3888 0.3911
2993.000000 0.3933 0.3955 0.3978 0.4000 0.4022
2998.000000 0.4044 0.4067 0.4089 0.4111 0.4132
3003.000000 0.4152 0.4173 0.4192 0.4207 0.4222
3008.000000 0.4237 0.4252 0.4267 0.4282 0.4297
3013.000000 0.4312 0.4327 0.4341 0.4356 0.4371
3018.000000 0.4386 0.4401 0.4412 0.4422 0.4432
3023.000000 0.4442 0.4451 0.4461 0.4470 0.4480
3028.000000 0.4490 0.4500 0.4510 0.4519 0.4529
3033.000000 0.4538 0.4548 0.4553 0.4558 0.4564
3038.000000 0.4569 0.4573 0.4576 0.4580 0.4584
3043.000000 0.4588 0.4591 0.4595 0.4599 0.4603
3048.000000 0.4607 0.4610 0.4614 0.4618 0.4622
3053.000000 0.4624 0.4624 0.4624 0.4624 0.4625
3058.000000 0.4625 0.4625 0.4626 0.4626 0.4626
3063.000000 0.4626 0.4626 0.4626 0.4626 0.4626
3068.000000 0.4626 0.4626 0.4626 0.4626 0.4620
3073.000000 0.4625 0.4625 0.4625 0.4624 0.4623
3078.000000 0.4623 0.4622 0.4622 0.4621 0.4621
3083.000000 0.4620 0.4618 0.4617 0.4615 0.4613
3088.000000 0.4611 0.4608 0.4606 0.4604 0.4602
3093.000000 0.4600 0.4598 0.4596 0.4593 0.4591
3098.000000 0.4589 0.4587 0.4585 0.4582 0.4580
3103.000000 0.4578 0.4576 0.4574 0.4572 0.4570
3108.000000 0.4568 0.4565 0.4563 0.4561 0.4558
3113.000000 0.4555 0.4553 0.4550 0.4548 0.4545
3118.000000 0.4543 0.4540 0.4538 0.4536 0.4533
3123.000000 0.4531 0.4528 0.4526 0.4523 0.4520
3128.000000 0.4518 0.4515 0.4513 0.4510 0.4508
3133.000000 0.4505 0.4503 0.4500 0.4497 0.4495
3138.000000 0.4492 0.4489 0.4486 0.4484 0.4480
3143.000000 0.4477 0.4474 0.4470 0.4467 0.4464
3148.000000 0.4461 0.4457 0.4454 0.4451 0.4447
3153.000000 0.4444 0.4441 0.4438 0.4434 0.4431
3158.000000 0.4428 0.4425 0.4421 0.4418 0.4415
3163.000000 0.4412 0.4409 0.4406 0.4403 0.4400
3168.000000 0.4396 0.4393 0.4390 0.4387 0.4383
3173.000000 0.4380 0.4377 0.4374 0.4370 0.4367
3178.000000 0.4363 0.4358 0.4354 0.4350 0.4346
3183.000000 0.4342 0.4337 0.4333 0.4329 0.4325
3188.000000 0.4322 0.4318 0.4313 0.4309 0.4305
3193.000000 0.4301 0.4297 0.4293 0.4288 0.4284
3198.000000 0.4280 0.4276 0.4273 0.4269 0.4264
3203.000000 0.4260 0.4256 0.4252 0.4248 0.4244
3208.000000 0.4240 0.4236 0.4232 0.4228 0.4224
3213.000000 0.4220 0.4215 0.4210 0.4205 0.4200
3218.000000 0.4195 0.4189 0.4184 0.4178 0.4173
3223.000000 0.4167 0.4161 0.4156 0.4150 0.4145
3228.000000 0.4139 0.4133 0.4127 0.4122 0.4116
3233.000000 0.4111 0.4105 0.4100 0.4094 0.4089
3238.000000 0.4083 0.4076 0.4066 0.4057 0.4048
3243.000000 0.4039 0.4029 0.4018 0.4008 0.3998
3248.000000 0.3988 0.3978 0.3968 0.3958 0.3948
3253.000000 0.3937 0.3926 0.3916 0.3896 0.3873
3258.000000 0.3850 0.3828 0.3805 0.3783 0.3760
3263.000000 0.3737 0.3715 0.3692 0.3669 0.3647
3268.000000 0.3624 0.3601 0.3579 0.3557 0.3534
3273.000000 0.3512 0.3489 0.3467 0.3445 0.3422
3278.000000 0.3400 0.3378 0.3355 0.3333 0.3310
3283.000000 0.3288 0.3265 0.3243 0.3221 0.3198
3288.000000 0.3176 0.3154 0.3132 0.3110 0.3088
3293.000000 0.3065 0.3043 0.3021 0.2999 0.2976
3298.000000 0.2954 0.2932 0.2910 0.2888 0.2866
3303.000000 0.2844 0.2822 0.2800 0.2778 0.2756
3308.000000 0.2734 0.2712 0.2690 0.2668 0.2646
3313.000000 0.2624 0.2602 0.2580 0.2558 0.2536
3318.000000 0.2514 0.2492 0.2471 0.2449 0.2427
3323.000000 0.2405 0.2384 0.2362 0.2340 0.2319
3328.000000 0.2297 0.2276 0.2263 0.2250 0.2237
3333.000000 0.2224 0.2219 0.2217 0.2216 0.2215
3338.000000 0.2217 0.2233 0.2249 0.2265 0.2282
3343.000000 0.2320 0.2365 0.2410 0.2456 0.2206
3348.000000 0.2546 0.2592 0.2637 0.2682 0.2727
3353.000000 0.2773 0.2818 0.2864 0.2909 0.2954
3358.000000 0.2999 0.3044 0.3089 0.3134 0.3179
3363.000000 0.3224 0.3268 0.3313 0.3358 0.3403
3368.000000 0.3448 0.3492 0.3537 0.3582 0.3626
3373.000000 0.3671 0.3716 0.3760 0.3805 0.3849
3378.000000 0.3894 0.3938 0.3983 0.4027 0.4072
3383.000000 0.4117 0.4161 0.4205 0.4250 0.4294
3388.000000 0.4336 0.4377 0.4417 0.4458 0.4498
3393.000000 0.4511 0.4521 0.4530 0.4539 0.4548
3398.000000 0.4557 0.4566 0.4574 0.4583 0.4592
3403.000000 0.4601 0.4610 0.4619 0.4629 0.4638
3408.000000 0.4647 0.4656 0.4665 0.4674 0.4683
3413.000000 0.4692 0.4701 0.4710 0.4719 0.4728
3418.000000 0.4737 0.4747 0.4756 0.4760 0.4764
3423.000000 0.4768 0.4772 0.4776 0.4779 0.4782
3428.000000 0.4785 0.4788 0.4792 0.4795 0.4798
3433.000000 0.4802 0.4805 0.4808 0.4812 0.4815
3438.000000 0.4818 0.4821 0.4821 0.4822 0.4823
3443.000000 0.4823 0.4824 0.4824 0.4825 0.4825
3448.000000 0.4825 0.4826 0.4826 0.4826 0.4826
3453.000000 0.4826 0.4848 0.4827 0.4828 0.4828
3458.000000 0.4829 0.4829 0.4829 0.4829 0.4829
3463.000000 0.4828 0.4827 0.4827 0.4826 0.4825
3468.000000 0.4824 0.4823 0.4822 0.4821 0.4820
3473.000000 0.4819 0.4818 0.4817 0.4816 0.4815
3478.000000 0.4814 0.4813 0.4812 0.4811 0.4810
3483.000000 0.4809 0.4808 0.4807 0.4806 0.4805
3488.000000 0.4803 0.4801 0.4799 0.4798 0.4796
3493.000000 0.4793 0.4791 0.4789 0.4787 0.4784
3498.000000 0.4782 0.4780 0.4778 0.4776 0.4774
3503.000000 0.4772 0.4770 0.4767 0.4765 0.4763
3508.000000 0.4761 0.4758 0.4756 0.4754 0.4751
3513.000000 0.4749 0.4746 0.4744 0.4741 0.4738
3518.000000 0.4736 0.4733 0.4730 0.4728 0.4725
3523.000000 0.4723 0.4720 0.4717 0.4715 0.4712
3528.000000 0.4710 0.4707 0.4704 0.4702 0.4699
3533.000000 0.4696 0.4694 0.4691 0.4689 0.4686
3538.000000 0.4684 0.4682 0.4680 0.4678 0.4676
3543.000000 0.4674 0.4672 0.4670 0.4668 0.4666
3548.000000 0.4664 0.4662 0.4660 0.4658 0.4656
3553.000000 0.4654 0.4652 0.4650 0.4648 0.4646
3558.000000 0.4644 0.4642 0.4640 0.4638 0.4637
3563.000000 0.4635 0.4634 0.4633 0.4632 0.4631
3568.000000 0.4630 0.4629 0.4629 0.4628 0.4627
3573.000000 0.4627 0.4626 0.4625 0.4625 0.4624
3578.000000 0.4624 0.4623 0.4622 0.4622 0.4621
3583.000000 0.4621 0.4620 0.4620 0.4619 0.4618
3588.000000 0.4618 0.4617 0.4616 0.4615 0.4614
3593.000000 0.4614 0.4613 0.4613 0.4612 0.4612
3598.000000 0.4611 0.4610 0.4610 0.4609 0.4609
3603.000000 0.4608 0.4607 0.4606 0.4605 0.4604
3608.000000 0.4603 0.4602 0.4601 0.4599 0.4598
3613.000000 0.4597 0.4596 0.4595 0.4594 0.4593
3618.000000 0.4592 0.4591 0.4590 0.4589 0.4588
3623.000000 0.4587 0.4586 0.4585 0.4584 0.4583
3628.000000 0.4582 0.4581 0.4580 0.4579 0.4577
3633.000000 0.4576 0.4575 0.4574 0.4573 0.4572
3638.000000 0.4571 0.4571 0.4570 0.4569 0.4568
3643.000000 0.4567 0.4566 0.4565 0.4564 0.4562
3648.000000 0.4561 0.4560 0.4559 0.4558 0.4557
3653.000000 0.4556 0.4555 0.4554 0.4553 0.4551
3658.000000 0.4549 0.4548 0.4546 0.4544 0.4541
3663.000000 0.4539 0.4537 0.4534 0.4532 0.4529
3668.000000 0.4526 0.4524 0.4521 0.4519 0.4516
3673.000000 0.4514 0.4511 0.4509 0.4507 0.4504
3678.000000 0.4502 0.4499 0.4496 0.4494 0.4491
3683.000000 0.4489 0.4486 0.4484 0.4482 0.4479
3688.000000 0.4477 0.4474 0.4472 0.4470 0.4467
3693.000000 0.4465 0.4463 0.4460 0.4458 0.4455
3698.000000 0.4453 0.4451 0.4448 0.4446 0.4444
3703.000000 0.4441 0.4439 0.4436 0.4434 0.4432
3708.000000 0.4429 0.4427 0.4425 0.4423 0.4420
3713.000000 0.4418 0.4416 0.4414 0.4411 0.4409
3718.000000 0.4407 0.4404 0.4402 0.4400 0.4397
3723.000000 0.4395 0.4393 0.4390 0.4388 0.4386
3728.000000 0.4383 0.4381 0.4379 0.4376 0.4374
3733.000000 0.4372 0.4370 0.4368 0.4365 0.4363
3738.000000 0.4362 0.4360 0.4358 0.4356 0.4354
3743.000000 0.4353 0.4351 0.4350 0.4349 0.4347
3748.000000 0.4346 0.4344 0.4343 0.4341 0.4339
3753.000000 0.4338 0.4336 0.4335 0.4333 0.4331
3758.000000 0.4330 0.4328 0.4327 0.4325 0.4324
3763.000000 0.4322 0.4321 0.4320 0.4318 0.4316
3768.000000 0.4315 0.4313 0.4312 0.4310 0.4309
3773.000000 0.4307 0.4305 0.4304 0.4302 0.4301
3778.000000 0.4299 0.4298 0.4297 0.4295 0.4294
3783.000000 0.4292 0.4291 0.4289 0.4287 0.4286
3788.000000 0.4284 0.4283 0.4281 0.4280 0.4278
3793.000000 0.4276 0.4275 0.4274 0.4272 0.4271
3798.000000 0.4269 0.4268 0.4267 0.4265 0.4263
3803.000000 0.4262 0.4260 0.4259 0.4257 0.4256
3808.000000 0.4254 0.4253 0.4251 0.4249 0.4248
3813.000000 0.4247 0.4245 0.4244 0.4243 0.4241
3818.000000 0.4240 0.4238 0.4237 0.4235 0.4233
3823.000000 0.4232 0.4230 0.4228 0.4227 0.4225
3828.000000 0.4223 0.4222 0.4220 0.4218 0.4217
3833.000000 0.4215 0.4213 0.4211 0.4209 0.4208
3838.000000 0.4206 0.4204 0.4202 0.4200 0.4199
3843.000000 0.4197 0.4195 0.4193 0.4192 0.4190
3848.000000 0.4188 0.4186 0.4184 0.4183 0.4181
3853.000000 0.4179 0.4177 0.4176 0.4174 0.4172
3858.000000 0.4171 0.4169 0.4167 0.4165 0.4163
3863.000000 0.4161 0.4159 0.4158 0.4156 0.4154
3868.000000 0.4153 0.4151 0.4149 0.4148 0.4146
3873.000000 0.4144 0.4142 0.4140 0.4138 0.4137
3878.000000 0.4135 0.4133 0.4132 0.4130 0.4128
3883.000000 0.4127 0.4125 0.4123 0.4121 0.4119
3888.000000 0.4118 0.4116 0.4114 0.4113 0.4111
3893.000000 0.4109 0.4108 0.4106 0.4105 0.4104
3898.000000 0.4102 0.4101 0.4100 0.4098 0.4097
3903.000000 0.4095 0.4094 0.4092 0.4091 0.4090
3908.000000 0.4088 0.4087 0.4086 0.4084 0.4083
3913.000000 0.4082 0.4080 0.4079 0.4077 0.4076
3918.000000 0.4074 0.4073 0.4072 0.4070 0.4069
3923.000000 0.4068 0.4066 0.4065 0.4064 0.4062
3928.000000 0.4061 0.4059 0.4058 0.4056 0.4055
3933.000000 0.4054 0.4052 0.4051 0.4050 0.4049
3938.000000 0.4047 0.4046 0.4044 0.4043 0.4041
3943.000000 0.4040 0.4038 0.4037 0.4035 0.4034
3948.000000 0.4033 0.4031 0.4030 0.4029 0.4027
3953.000000 0.4026 0.4025 0.4023 0.4022 0.4021
3958.000000 0.4019 0.4018 0.4016 0.4015 0.4013
3963.000000 0.4012 0.4011 0.4010 0.4008 0.4007
3968.000000 0.4006 0.4004 0.4003 0.4002 0.4000
3973.000000 0.3999 0.3997 0.3996 0.3995 0.3993
3978.000000 0.3992 0.3991 0.3990 0.3988 0.3987
3983.000000 0.3986 0.3984 0.3983 0.3981 0.3980
3988.000000 0.3979 0.3977 0.3976 0.3975 0.3974
3993.000000 0.3972 0.3971 0.3971 0.3970 0.3969
3998.000000 0.3969 0.3968 0.3968
##END=
