##TITLE=o-CRESOL, 4,6-DINITRO-, SODIUM SALT
##JCAMP-DX=4.24
##DATA TYPE=INFRARED SPECTRUM
##CLASS=COBLENTZ
##ORIGIN=TENNESSEE EASTMAN COMPANY, RESEARCH LABORATORIES
##OWNER=COBLENTZ SOCIETY
Collection (C) 2018 copyright by the U.S. Secretary of Commerce
on behalf of the United States of America. All rights reserved.
##DATE=Not specified, most likely prior to 1970
##MOLFORM=C7 H5 N2 O5 Na
##SOURCE REFERENCE=COBLENTZ NO. 1781
##$NIST ID=B6001781
##$NIST SOURCE=COBLENTZ
##$NIST IMAGE=cob1781
##SPECTROMETER/DATA SYSTEM=Not specified, most likely a prism, grating, or hybrid spectrometer.
##STATE=SOLID (KBr PELLET)
##SAMPLING PROCEDURE=TRANSMISSION
##RESOLUTION=4
##DATA PROCESSING=DIGITIZED BY NIST FROM HARD COPY
##XUNITS=MICROMETERS
##YUNITS=TRANSMITTANCE
##XFACTOR=1.000000
##YFACTOR=1
##DELTAX=000.006809
##FIRSTX=2.034
##LASTX=15.9454
##FIRSTY=0.875
##MAXX=15.9454
##MINX=2.034
##MAXY=0.97
##MINY=0.023
##NPOINTS=2044
##XYDATA=(X++(Y..Y))
2.034000 0.8750 0.8760 0.8760 0.8760 0.8780
2.068063 0.8780 0.8800 0.8800 0.8800 0.8810
2.102000 0.8810 0.8810 0.8810 0.8830 0.8850
2.136063 0.8850 0.8850 0.8860 0.8860 0.8860
2.170000 0.8860 0.8880 0.8900 0.8900 0.8920
2.204063 0.8920 0.8930 0.8950 0.8950 0.8950
2.238000 0.8970 0.8970 0.8970 0.8980 0.8980
2.272063 0.8980 0.9000 0.9000 0.9000 0.9020
2.306000 0.9020 0.9020 0.9020 0.9040 0.9040
2.340063 0.9040 0.9050 0.9050 0.9070 0.9070
2.375000 0.9070 0.9090 0.9090 0.9090 0.9100
2.409063 0.9100 0.9100 0.9120 0.9120 0.9120
2.443000 0.9140 0.9140 0.9140 0.9140 0.9140
2.477063 0.9140 0.9140 0.9160 0.9160 0.9160
2.511000 0.9170 0.9170 0.9170 0.9170 0.9170
2.545063 0.9170 0.9190 0.9190 0.9190 0.9190
2.579000 0.9190 0.9190 0.9210 0.9210 0.9210
2.613063 0.9210 0.9220 0.9220 0.9220 0.9220
2.647000 0.9220 0.9240 0.9240 0.9240 0.9240
2.681063 0.9240 0.9240 0.9240 0.9240 0.9240
2.715000 0.9240 0.9220 0.9220 0.9210 0.9190
2.749063 0.9160 0.9090 0.9050 0.9000 0.8980
2.783000 0.8950 0.8930 0.8880 0.8850 0.8810
2.817063 0.8760 0.8730 0.8730 0.8690 0.8680
2.851000 0.8680 0.8660 0.8640 0.8630 0.8590
2.885063 0.8540 0.8540 0.8510 0.8490 0.8490
2.919000 0.8490 0.8490 0.8490 0.8490 0.8510
2.953063 0.8540 0.8570 0.8640 0.8680 0.8690
2.987000 0.8710 0.8750 0.8750 0.8780 0.8800
3.021063 0.8810 0.8830 0.8850 0.8860 0.8880
3.055000 0.8880 0.8900 0.8920 0.8930 0.8930
3.089063 0.8950 0.8970 0.8980 0.8980 0.8980
3.124000 0.8980 0.8980 0.8980 0.8980 0.8980
3.158063 0.8980 0.8980 0.8980 0.8980 0.8970
3.192000 0.8950 0.8900 0.8730 0.8450 0.8200
3.226063 0.7910 0.7790 0.7790 0.7870 0.8110
3.260000 0.8330 0.8540 0.8680 0.8690 0.8710
3.294063 0.8750 0.8800 0.8850 0.8860 0.8860
3.328000 0.8860 0.8830 0.8800 0.8750 0.8610
3.362063 0.8470 0.8390 0.8320 0.8250 0.8230
3.396000 0.8210 0.8230 0.8280 0.8400 0.8450
3.430063 0.8510 0.8540 0.8570 0.8590 0.8610
3.464000 0.8630 0.8630 0.8640 0.8640 0.8680
3.498063 0.8710 0.8760 0.8810 0.8850 0.8850
3.532000 0.8860 0.8860 0.8880 0.8900 0.8920
3.566063 0.8930 0.8930 0.8950 0.8950 0.8970
3.600000 0.8970 0.9000 0.9020 0.9020 0.9040
3.634063 0.9040 0.9040 0.9040 0.9050 0.9050
3.668000 0.9050 0.9050 0.9070 0.9090 0.9090
3.702063 0.9090 0.9090 0.9090 0.9090 0.9100
3.736000 0.9100 0.9120 0.9160 0.9170 0.9190
3.770063 0.9210 0.9220 0.9240 0.9260 0.9280
3.804000 0.9280 0.9290 0.9290 0.9310 0.9310
3.838063 0.9310 0.9310 0.9310 0.9310 0.9310
3.873000 0.9310 0.9290 0.9290 0.9290 0.9280
3.907063 0.9280 0.9280 0.9240 0.9220 0.9210
3.941000 0.9210 0.9210 0.9210 0.9190 0.9190
3.975063 0.9190 0.9170 0.9170 0.9170 0.9170
4.009000 0.9160 0.9160 0.9160 0.9170 0.9170
4.043063 0.9190 0.9220 0.9260 0.9290 0.9310
4.077000 0.9310 0.9330 0.9330 0.9330 0.9340
4.111063 0.9340 0.9340 0.9340 0.9340 0.9330
4.145000 0.9330 0.9310 0.9310 0.9310 0.9310
4.179063 0.9290 0.9290 0.9290 0.9290 0.9290
4.213000 0.9290 0.9310 0.9310 0.9340 0.9360
4.247063 0.9380 0.9380 0.9380 0.9380 0.9380
4.281000 0.9380 0.9380 0.9380 0.9380 0.9380
4.315063 0.9380 0.9380 0.9380 0.9380 0.9380
4.349000 0.9380 0.9400 0.9410 0.9430 0.9430
4.383063 0.9430 0.9430 0.9410 0.9400 0.9360
4.417000 0.9340 0.9310 0.9290 0.9290 0.9310
4.451063 0.9360 0.9410 0.9410 0.9430 0.9430
4.485000 0.9450 0.9450 0.9460 0.9480 0.9480
4.519063 0.9500 0.9500 0.9500 0.9500 0.9500
4.554000 0.9520 0.9520 0.9520 0.9530 0.9530
4.588063 0.9530 0.9550 0.9550 0.9550 0.9550
4.622000 0.9550 0.9550 0.9550 0.9550 0.9550
4.656063 0.9550 0.9550 0.9550 0.9550 0.9550
4.690000 0.9550 0.9570 0.9580 0.9580 0.9580
4.724063 0.9580 0.9580 0.9580 0.9580 0.9600
4.758000 0.9600 0.9600 0.9640 0.9640 0.9650
4.792063 0.9650 0.9650 0.9650 0.9650 0.9670
4.826000 0.9670 0.9670 0.9650 0.9640 0.9600
4.860063 0.9580 0.9580 0.9580 0.9600 0.9600
4.894000 0.9600 0.9570 0.9570 0.9570 0.9570
4.928063 0.9570 0.9570 0.9570 0.9570 0.9570
4.962000 0.9570 0.9580 0.9600 0.9600 0.9620
4.996063 0.9640 0.9670 0.9690 0.9690 0.9700
5.030000 0.9700 0.9700 0.9700 0.9700 0.9690
5.064063 0.9670 0.9650 0.9640 0.9640 0.9640
5.098000 0.9640 0.9640 0.9650 0.9650 0.9650
5.132063 0.9650 0.9650 0.9650 0.9650 0.9640
5.166000 0.9640 0.9620 0.9620 0.9620 0.9620
5.200063 0.9600 0.9580 0.9580 0.9600 0.9600
5.234000 0.9620 0.9620 0.9640 0.9640 0.9640
5.268063 0.9640 0.9620 0.9600 0.9580 0.9570
5.303000 0.9570 0.9600 0.9600 0.9620 0.9620
5.337063 0.9620 0.9640 0.9640 0.9640 0.9640
5.371000 0.9620 0.9600 0.9580 0.9570 0.9570
5.405063 0.9570 0.9550 0.9550 0.9550 0.9530
5.439000 0.9530 0.9480 0.9450 0.9430 0.9450
5.473063 0.9460 0.9480 0.9520 0.9530 0.9530
5.507000 0.9550 0.9550 0.9550 0.9550 0.9550
5.541063 0.9550 0.9550 0.9550 0.9550 0.9550
5.575000 0.9550 0.9550 0.9530 0.9530 0.9520
5.609063 0.9500 0.9430 0.9400 0.9380 0.9380
5.643000 0.9410 0.9450 0.9500 0.9530 0.9550
5.677063 0.9550 0.9570 0.9570 0.9570 0.9570
5.711000 0.9570 0.9550 0.9550 0.9530 0.9460
5.745063 0.9430 0.9400 0.9400 0.9360 0.9340
5.779000 0.9330 0.9290 0.9290 0.9280 0.9240
5.813063 0.9190 0.9140 0.9100 0.9100 0.9090
5.847000 0.9100 0.9120 0.9170 0.9190 0.9190
5.881063 0.9190 0.9190 0.9190 0.9190 0.9190
5.915000 0.9160 0.9140 0.9140 0.9100 0.9100
5.949063 0.9100 0.9040 0.9020 0.8950 0.8810
5.983000 0.8800 0.8750 0.8730 0.8660 0.8590
6.017063 0.8520 0.8470 0.8400 0.8350 0.8280
6.052000 0.8230 0.8200 0.8110 0.7990 0.7770
6.086063 0.7680 0.7560 0.7410 0.7320 0.7200
6.120000 0.7050 0.6900 0.6620 0.6470 0.6210
6.154063 0.5750 0.5230 0.4340 0.3060 0.2310
6.188000 0.1780 0.1360 0.0630 0.0510 0.0510
6.222063 0.0530 0.1020 0.1620 0.2000 0.2680
6.256000 0.3280 0.3860 0.4220 0.4670 0.4860
6.290063 0.5220 0.5340 0.5390 0.5390 0.5270
6.324000 0.5060 0.4740 0.3810 0.2840 0.2510
6.358063 0.1720 0.1330 0.1060 0.0870 0.0750
6.392000 0.0530 0.0510 0.0510 0.0510 0.0530
6.426063 0.0730 0.1070 0.1420 0.1830 0.2310
6.460000 0.2730 0.3230 0.3810 0.4240 0.4700
6.494063 0.5170 0.5420 0.5590 0.5770 0.5970
6.528000 0.6160 0.6360 0.6550 0.6640 0.6710
6.562063 0.6780 0.6810 0.6840 0.6840 0.6840
6.596000 0.6830 0.6790 0.6760 0.6690 0.6600
6.630063 0.6540 0.6500 0.6480 0.6450 0.6430
6.664000 0.6400 0.6400 0.6310 0.6160 0.5920
6.698063 0.5660 0.5250 0.4940 0.4620 0.4340
6.732000 0.3920 0.3450 0.3200 0.3010 0.2820
6.766063 0.2790 0.2820 0.3370 0.3660 0.3760
6.801000 0.4000 0.4020 0.4000 0.4000 0.3810
6.835063 0.3750 0.3730 0.3730 0.3690 0.3630
6.869000 0.3570 0.3570 0.3630 0.3970 0.4210
6.903063 0.4430 0.4580 0.4700 0.4740 0.4760
6.937000 0.4790 0.4820 0.4840 0.4890 0.4910
6.971063 0.4930 0.4940 0.4960 0.4960 0.4880
7.005000 0.4640 0.4280 0.4040 0.3270 0.2960
7.039063 0.2260 0.1930 0.1570 0.1310 0.1300
7.073000 0.1310 0.1620 0.1810 0.2030 0.2200
7.107063 0.3510 0.4100 0.4550 0.5170 0.5560
7.141000 0.5850 0.6130 0.6260 0.6470 0.6570
7.175063 0.6600 0.6600 0.6620 0.6620 0.6590
7.209000 0.6470 0.6330 0.6260 0.6070 0.5850
7.243063 0.5610 0.5410 0.5220 0.4880 0.4760
7.277000 0.4620 0.4460 0.4220 0.3970 0.3630
7.311063 0.3200 0.2720 0.2200 0.1720 0.1260
7.345000 0.0890 0.0610 0.0580 0.0580 0.0580
7.379063 0.0580 0.0580 0.0560 0.0540 0.0530
7.413000 0.0510 0.0440 0.0340 0.0320 0.0290
7.447063 0.0230 0.0230 0.0230 0.0230 0.0230
7.482000 0.0230 0.0230 0.0230 0.0230 0.0230
7.516063 0.0230 0.0270 0.0350 0.0410 0.0440
7.550000 0.0490 0.0540 0.0590 0.0680 0.0770
7.584063 0.0890 0.0990 0.1130 0.1260 0.1420
7.618000 0.1640 0.1780 0.1860 0.1900 0.1910
7.652063 0.1930 0.1930 0.1910 0.1720 0.1520
7.686000 0.1330 0.1130 0.0970 0.0850 0.0820
7.720063 0.0800 0.0750 0.0710 0.0710 0.0710
7.754000 0.0700 0.0610 0.0560 0.0490 0.0440
7.788063 0.0420 0.0410 0.0370 0.0370 0.0370
7.822000 0.0370 0.0390 0.0460 0.0540 0.0630
7.856063 0.0750 0.0900 0.1060 0.1250 0.1430
7.890000 0.1660 0.1900 0.2150 0.2430 0.2560
7.924063 0.2840 0.2940 0.3010 0.3160 0.3280
7.958000 0.3390 0.3510 0.3610 0.3760 0.3920
7.992063 0.4040 0.4220 0.4460 0.4700 0.4910
8.026000 0.5060 0.5080 0.5200 0.5350 0.5540
8.060063 0.5680 0.5780 0.5890 0.5970 0.6070
8.094000 0.6160 0.6260 0.6360 0.6470 0.6570
8.128063 0.6690 0.6790 0.6930 0.7050 0.7120
8.162000 0.7200 0.7290 0.7390 0.7390 0.7380
8.196063 0.7380 0.7360 0.7270 0.7020 0.6660
8.231000 0.6520 0.6310 0.6130 0.6070 0.6010
8.265063 0.6090 0.6470 0.6760 0.7080 0.7320
8.299000 0.7530 0.7770 0.8010 0.8130 0.8180
8.333063 0.8270 0.8300 0.8320 0.8330 0.8350
8.367000 0.8370 0.8390 0.8390 0.8390 0.8390
8.401063 0.8350 0.8270 0.8150 0.8030 0.7850
8.435000 0.7630 0.7310 0.6900 0.6430 0.6280
8.469063 0.5410 0.5000 0.4910 0.4910 0.5000
8.503000 0.5560 0.6430 0.6960 0.7460 0.7700
8.537063 0.7910 0.8060 0.8160 0.8270 0.8370
8.571000 0.8450 0.8510 0.8540 0.8610 0.8630
8.605063 0.8640 0.8680 0.8710 0.8710 0.8730
8.639000 0.8760 0.8800 0.8850 0.8880 0.8900
8.673063 0.8900 0.8920 0.8920 0.8930 0.8970
8.707000 0.9000 0.9020 0.9020 0.9040 0.9040
8.741063 0.9040 0.9040 0.9040 0.9040 0.9050
8.775000 0.9050 0.9050 0.9050 0.9050 0.9050
8.809063 0.9070 0.9070 0.9070 0.9070 0.9070
8.843000 0.9070 0.9070 0.9070 0.9070 0.9070
8.877063 0.9070 0.9090 0.9090 0.9090 0.9090
8.911000 0.9090 0.9100 0.9100 0.9100 0.9100
8.945063 0.9100 0.9100 0.9100 0.9120 0.9120
8.980000 0.9100 0.9100 0.9070 0.9050 0.9020
9.014063 0.8970 0.8900 0.8850 0.8850 0.8690
9.048000 0.8560 0.8450 0.8280 0.7920 0.7580
9.082063 0.7080 0.6550 0.6070 0.5650 0.5100
9.116000 0.5000 0.5000 0.5110 0.5800 0.6360
9.150063 0.6810 0.7190 0.7500 0.7730 0.7940
9.184000 0.8110 0.8250 0.8300 0.8370 0.8490
9.218063 0.8610 0.8730 0.8800 0.8830 0.8900
9.252000 0.8970 0.9050 0.9120 0.9170 0.9210
9.286063 0.9240 0.9280 0.9290 0.9310 0.9330
9.320000 0.9360 0.9380 0.9400 0.9400 0.9400
9.354063 0.9410 0.9410 0.9410 0.9410 0.9410
9.388000 0.9410 0.9410 0.9410 0.9410 0.9410
9.422063 0.9410 0.9400 0.9380 0.9380 0.9380
9.456000 0.9380 0.9380 0.9380 0.9380 0.9380
9.490063 0.9380 0.9380 0.9360 0.9360 0.9360
9.524000 0.9360 0.9340 0.9340 0.9330 0.9310
9.558063 0.9290 0.9260 0.9220 0.9210 0.9190
9.592000 0.9140 0.9070 0.9040 0.8970 0.8860
9.626063 0.8810 0.8810 0.8860 0.8920 0.8980
9.661000 0.9040 0.9100 0.9120 0.9160 0.9190
9.695063 0.9220 0.9240 0.9260 0.9280 0.9290
9.729000 0.9310 0.9330 0.9340 0.9360 0.9380
9.763063 0.9380 0.9380 0.9380 0.9380 0.9380
9.797000 0.9380 0.9360 0.9360 0.9340 0.9340
9.831063 0.9330 0.9310 0.9280 0.9220 0.9210
9.865000 0.9160 0.9100 0.9040 0.8970 0.8850
9.899063 0.8690 0.8590 0.8450 0.8350 0.8270
9.933000 0.8200 0.8110 0.8090 0.8080 0.8090
9.967063 0.8180 0.8270 0.8350 0.8470 0.8570
10.001000 0.8680 0.8730 0.8860 0.8950 0.9020
10.035063 0.9050 0.9120 0.9190 0.9220 0.9260
10.069000 0.9280 0.9310 0.9330 0.9340 0.9360
10.103063 0.9380 0.9380 0.9400 0.9400 0.9400
10.137000 0.9400 0.9400 0.9410 0.9430 0.9450
10.171063 0.9460 0.9480 0.9480 0.9500 0.9500
10.205000 0.9520 0.9520 0.9520 0.9520 0.9520
10.239063 0.9520 0.9520 0.9520 0.9520 0.9520
10.273000 0.9520 0.9520 0.9520 0.9520 0.9520
10.307063 0.9520 0.9520 0.9520 0.9500 0.9480
10.341000 0.9450 0.9430 0.9380 0.9310 0.9240
10.375063 0.9140 0.9020 0.8810 0.8640 0.8440
10.410000 0.8110 0.7770 0.7510 0.7310 0.7200
10.444063 0.7190 0.7200 0.7340 0.7530 0.7800
10.478000 0.8030 0.8200 0.8350 0.8470 0.8590
10.512063 0.8690 0.8800 0.8920 0.8980 0.9050
10.546000 0.9140 0.9190 0.9260 0.9310 0.9330
10.580063 0.9380 0.9400 0.9400 0.9410 0.9430
10.614000 0.9450 0.9460 0.9480 0.9480 0.9480
10.648063 0.9480 0.9480 0.9480 0.9480 0.9480
10.682000 0.9460 0.9430 0.9430 0.9400 0.9330
10.716063 0.9290 0.9190 0.9100 0.8930 0.8780
10.750000 0.8640 0.8490 0.8350 0.8210 0.8040
10.784063 0.7870 0.7670 0.7410 0.7320 0.7310
10.818000 0.7310 0.7320 0.7390 0.7560 0.7800
10.852063 0.7990 0.8090 0.8130 0.8200 0.8210
10.886000 0.8200 0.8060 0.7910 0.7720 0.7460
10.920063 0.7220 0.6980 0.6790 0.6600 0.6500
10.954000 0.6480 0.6500 0.6810 0.7100 0.7320
10.988063 0.7530 0.7720 0.7850 0.7990 0.8090
11.022000 0.8200 0.8280 0.8350 0.8440 0.8510
11.056063 0.8590 0.8680 0.8760 0.8850 0.8920
11.090000 0.8970 0.8980 0.9000 0.9020 0.9020
11.124063 0.9000 0.8970 0.8950 0.8930 0.8900
11.159000 0.8850 0.8710 0.8610 0.8540 0.8400
11.193063 0.8250 0.8060 0.7840 0.7670 0.7480
11.227000 0.7310 0.7140 0.7070 0.7050 0.7070
11.261063 0.7100 0.7260 0.7440 0.7670 0.7870
11.295000 0.8090 0.8270 0.8440 0.8560 0.8680
11.329063 0.8780 0.8900 0.8980 0.9090 0.9170
11.363000 0.9220 0.9290 0.9310 0.9310 0.9330
11.397063 0.9340 0.9380 0.9380 0.9410 0.9430
11.431000 0.9450 0.9450 0.9460 0.9460 0.9480
11.465063 0.9500 0.9500 0.9520 0.9520 0.9520
11.499000 0.9520 0.9520 0.9520 0.9520 0.9520
11.533063 0.9520 0.9520 0.9520 0.9520 0.9520
11.567000 0.9520 0.9520 0.9530 0.9530 0.9550
11.601063 0.9550 0.9550 0.9550 0.9550 0.9570
11.635000 0.9570 0.9570 0.9570 0.9570 0.9570
11.669063 0.9570 0.9570 0.9570 0.9570 0.9570
11.703000 0.9570 0.9570 0.9570 0.9570 0.9570
11.737063 0.9570 0.9570 0.9570 0.9570 0.9580
11.771000 0.9580 0.9580 0.9600 0.9600 0.9600
11.805063 0.9600 0.9600 0.9600 0.9620 0.9620
11.839000 0.9620 0.9620 0.9620 0.9620 0.9620
11.873063 0.9620 0.9600 0.9600 0.9600 0.9600
11.908000 0.9580 0.9580 0.9580 0.9580 0.9580
11.942063 0.9570 0.9550 0.9550 0.9530 0.9520
11.976000 0.9520 0.9500 0.9500 0.9500 0.9500
12.010063 0.9480 0.9480 0.9480 0.9460 0.9450
12.044000 0.9430 0.9400 0.9330 0.9260 0.9210
12.078063 0.9120 0.8980 0.8810 0.8570 0.8490
12.112000 0.8330 0.8160 0.8040 0.7960 0.7820
12.146063 0.7800 0.7820 0.7820 0.7960 0.8160
12.180000 0.8280 0.8470 0.8640 0.8750 0.8860
12.214063 0.9000 0.9100 0.9160 0.9240 0.9290
12.248000 0.9340 0.9400 0.9410 0.9430 0.9430
12.282063 0.9450 0.9450 0.9460 0.9460 0.9480
12.316000 0.9500 0.9500 0.9520 0.9520 0.9520
12.350063 0.9530 0.9530 0.9530 0.9530 0.9550
12.384000 0.9550 0.9570 0.9570 0.9570 0.9570
12.418063 0.9570 0.9570 0.9570 0.9550 0.9550
12.452000 0.9530 0.9530 0.9530 0.9520 0.9520
12.486063 0.9480 0.9450 0.9450 0.9410 0.9400
12.520000 0.9340 0.9310 0.9290 0.9220 0.9170
12.554063 0.9100 0.8980 0.8950 0.8800 0.8640
12.589000 0.8510 0.8370 0.8270 0.8160 0.8030
12.623063 0.7870 0.7820 0.7790 0.7770 0.7770
12.657000 0.7770 0.7790 0.7790 0.7800 0.7800
12.691063 0.7790 0.7560 0.7240 0.6900 0.6500
12.725000 0.6130 0.5590 0.5150 0.4530 0.4210
12.759063 0.4120 0.4120 0.4260 0.4650 0.5100
12.793000 0.5580 0.6060 0.6550 0.7030 0.7440
12.827063 0.7820 0.8090 0.8270 0.8440 0.8560
12.861000 0.8640 0.8710 0.8810 0.8920 0.8980
12.895063 0.9040 0.9100 0.9170 0.9210 0.9240
12.929000 0.9280 0.9290 0.9290 0.9310 0.9330
12.963063 0.9340 0.9340 0.9380 0.9380 0.9400
12.997000 0.9400 0.9410 0.9410 0.9410 0.9410
13.031063 0.9410 0.9410 0.9410 0.9410 0.9410
13.065000 0.9410 0.9400 0.9400 0.9380 0.9360
13.099063 0.9330 0.9290 0.9280 0.9240 0.9220
13.133000 0.9190 0.9120 0.9020 0.8950 0.8760
13.167063 0.8610 0.8440 0.8280 0.8110 0.7790
13.201000 0.7510 0.7070 0.6660 0.6450 0.6090
13.235063 0.5890 0.5660 0.5460 0.5410 0.5410
13.269000 0.5410 0.5510 0.5870 0.6140 0.6400
13.303063 0.6710 0.6980 0.7220 0.7430 0.7610
13.338000 0.7790 0.7940 0.8080 0.8200 0.8320
13.372063 0.8420 0.8520 0.8610 0.8610 0.8730
13.406000 0.8780 0.8830 0.8880 0.8880 0.8900
13.440063 0.8920 0.8950 0.8980 0.8980 0.9000
13.474000 0.9020 0.9020 0.9000 0.9000 0.8970
13.508063 0.8920 0.8880 0.8830 0.8800 0.8750
13.542000 0.8710 0.8630 0.8590 0.8540 0.8490
13.576063 0.8440 0.8390 0.8390 0.8330 0.8280
13.610000 0.8230 0.8210 0.8210 0.8200 0.8200
13.644063 0.8200 0.8180 0.8180 0.8180 0.8180
13.678000 0.8180 0.8180 0.8200 0.8210 0.8250
13.712063 0.8300 0.8350 0.8420 0.8470 0.8540
13.746000 0.8590 0.8630 0.8660 0.8680 0.8690
13.780063 0.8710 0.8760 0.8800 0.8800 0.8810
13.814000 0.8810 0.8830 0.8830 0.8810 0.8810
13.848063 0.8800 0.8780 0.8760 0.8750 0.8690
13.882000 0.8640 0.8630 0.8560 0.8520 0.8450
13.916063 0.8400 0.8330 0.8270 0.8160 0.8040
13.950000 0.7940 0.7850 0.7730 0.7650 0.7460
13.984063 0.7320 0.7220 0.7140 0.7030 0.6960
14.018000 0.6900 0.6810 0.6740 0.6720 0.6740
14.052063 0.6740 0.6780 0.6790 0.6840 0.6930
14.087000 0.7050 0.7120 0.7170 0.7220 0.7290
14.121063 0.7340 0.7410 0.7460 0.7510 0.7560
14.155000 0.7600 0.7670 0.7700 0.7730 0.7790
14.189063 0.7820 0.7890 0.7960 0.7960 0.8060
14.223000 0.8150 0.8180 0.8200 0.8230 0.8300
14.257063 0.8350 0.8400 0.8450 0.8490 0.8520
14.291000 0.8560 0.8610 0.8630 0.8660 0.8710
14.325063 0.8750 0.8760 0.8780 0.8800 0.8830
14.359000 0.8850 0.8850 0.8880 0.8900 0.8920
14.393063 0.8920 0.8920 0.8930 0.8950 0.8980
14.427000 0.9000 0.9000 0.9020 0.9020 0.9040
14.461063 0.9040 0.9040 0.9040 0.9040 0.9040
14.495000 0.9040 0.9040 0.9040 0.9050 0.9050
14.529063 0.9050 0.9050 0.9050 0.9070 0.9070
14.563000 0.9070 0.9070 0.9070 0.9070 0.9070
14.597063 0.9070 0.9070 0.9070 0.9070 0.9070
14.631000 0.9070 0.9050 0.9050 0.9050 0.9050
14.665063 0.9040 0.9040 0.9040 0.9040 0.9040
14.699000 0.9040 0.9040 0.9040 0.9040 0.9040
14.733063 0.9040 0.9040 0.9040 0.9040 0.9040
14.768000 0.9040 0.9040 0.9040 0.9040 0.9020
14.802063 0.9020 0.8980 0.8950 0.8920 0.8920
14.836000 0.8920 0.8920 0.8920 0.8920 0.8920
14.870063 0.8920 0.8920 0.8920 0.8920 0.8920
14.904000 0.8920 0.8920 0.8920 0.8920 0.8920
14.938063 0.8900 0.8880 0.8880 0.8860 0.8850
14.972000 0.8830 0.8830 0.8810 0.8780 0.8760
15.006063 0.8730 0.8690 0.8640 0.8590 0.8590
15.040000 0.8570 0.8570 0.8560 0.8540 0.8540
15.074063 0.8540 0.8520 0.8520 0.8520 0.8510
15.108000 0.8510 0.8510 0.8510 0.8510 0.8490
15.142063 0.8490 0.8470 0.8470 0.8450 0.8450
15.176000 0.8440 0.8420 0.8400 0.8370 0.8350
15.210063 0.8320 0.8280 0.8250 0.8230 0.8230
15.244000 0.8210 0.8180 0.8130 0.8090 0.8090
15.278063 0.8080 0.8080 0.8060 0.8060 0.8030
15.312000 0.8010 0.8010 0.7990 0.7970 0.7970
15.346063 0.7970 0.7960 0.7960 0.7940 0.7920
15.380000 0.7920 0.7920 0.7910 0.7910 0.7890
15.414063 0.7890 0.7890 0.7890 0.7890 0.7890
15.448000 0.7890 0.7890 0.7890 0.7890 0.7870
15.482063 0.7870 0.7870 0.7870 0.7850 0.7850
15.517000 0.7850 0.7850 0.7840 0.7840 0.7840
15.551063 0.7840 0.7820 0.7820 0.7800 0.7800
15.585000 0.7800 0.7790 0.7770 0.7770 0.7770
15.619063 0.7770 0.7770 0.7770 0.7770 0.7770
15.653000 0.7770 0.7750 0.7750 0.7730 0.7730
15.687063 0.7720 0.7700 0.7680 0.7680 0.7680
15.721000 0.7670 0.7650 0.7650 0.7630 0.7630
15.755063 0.7610 0.7610 0.7610 0.7600 0.7580
15.789000 0.7550 0.7550 0.7530 0.7530 0.7530
15.823063 0.7530 0.7530 0.7530 0.7550 0.7550
15.857000 0.7530 0.7530 0.7510 0.7510 0.7510
15.891063 0.7500 0.7500 0.7480 0.7480 0.7460
15.925000 0.7460 0.7440 0.7440 0.7440
##END=
