##TITLE=SODIUM FERROCYANIDE
$$ C.P.
##JCAMP-DX=4.24
##DATA TYPE=INFRARED SPECTRUM
##CLASS=COBLENTZ
##ORIGIN=MELLON INSTITUTE
##OWNER=COBLENTZ SOCIETY
Collection (C) 2018 copyright by the U.S. Secretary of Commerce
on behalf of the United States of America. All rights reserved.
##DATE=Not specified, most likely prior to 1970
##MOLFORM=Na4 Fe ( C N)6  * 10 H2 O
##SOURCE REFERENCE=COBLENTZ NO. 586
##$NIST ID=B6000586
##$NIST SOURCE=COBLENTZ
##$NIST IMAGE=cob586
##SPECTROMETER/DATA SYSTEM=Not specified, most likely a prism, grating, or hybrid spectrometer.
##STATE=SOLID (NUJOL MULL)
##PATH LENGTH=
$$SPECTRAL CONTAMINATION DUE TO OIL AROUND 2900, 1450, 1380 CM^-^1
##SAMPLING PROCEDURE=TRANSMISSION
##RESOLUTION=4
##DATA PROCESSING=DIGITIZED BY NIST FROM HARD COPY
##XUNITS=MICROMETERS
##YUNITS=TRANSMITTANCE
##XFACTOR=1.000000
##YFACTOR=1
##DELTAX=000.006659
##FIRSTX=2.054
##LASTX=16.0043
##FIRSTY=0.968
##MAXX=16.0043
##MINX=2.054
##MAXY=0.988
##MINY=0.078
##NPOINTS=2096
##XYDATA=(X++(Y..Y))
2.054000 0.9680 0.9690 0.9710 0.9730 0.9730
2.087309 0.9740 0.9740 0.9780 0.9780 0.9780
2.121000 0.9790 0.9810 0.9810 0.9810 0.9830
2.154309 0.9830 0.9830 0.9840 0.9860 0.9860
2.188000 0.9860 0.9880 0.9880 0.9880 0.9880
2.221309 0.9880 0.9880 0.9880 0.9880 0.9880
2.254000 0.9860 0.9840 0.9830 0.9810 0.9790
2.287309 0.9760 0.9740 0.9730 0.9690 0.9680
2.321000 0.9640 0.9640 0.9640 0.9630 0.9630
2.354309 0.9630 0.9630 0.9630 0.9630 0.9660
2.387000 0.9660 0.9660 0.9660 0.9640 0.9640
2.420309 0.9630 0.9630 0.9610 0.9610 0.9630
2.454000 0.9630 0.9630 0.9610 0.9630 0.9630
2.487309 0.9630 0.9640 0.9640 0.9660 0.9660
2.521000 0.9640 0.9640 0.9630 0.9630 0.9630
2.554309 0.9630 0.9610 0.9610 0.9610 0.9590
2.587000 0.9590 0.9580 0.9560 0.9540 0.9510
2.620309 0.9480 0.9460 0.9430 0.9380 0.9330
2.654000 0.9290 0.9230 0.9160 0.9060 0.8940
2.687309 0.8640 0.8290 0.7920 0.7710 0.7570
2.720000 0.7440 0.7240 0.6840 0.6490 0.5270
2.753309 0.4040 0.3200 0.2650 0.2550 0.2450
2.787000 0.2020 0.1580 0.1250 0.1110 0.0980
2.820309 0.0960 0.0860 0.0830 0.0810 0.0800
2.854000 0.0800 0.0810 0.0830 0.0850 0.0900
2.887309 0.0930 0.0960 0.1000 0.1010 0.1010
2.920000 0.1010 0.1000 0.1000 0.1010 0.1010
2.953309 0.1150 0.1330 0.1450 0.1530 0.1650
2.987000 0.1810 0.2000 0.2220 0.2400 0.2700
3.020309 0.2850 0.3000 0.3080 0.3220 0.3370
3.053000 0.3520 0.3580 0.3780 0.3900 0.4000
3.086309 0.4090 0.4200 0.4370 0.4490 0.4670
3.120000 0.4850 0.5200 0.5370 0.5550 0.5720
3.153309 0.5890 0.6060 0.6170 0.6270 0.6370
3.186000 0.6440 0.6570 0.6690 0.6770 0.6860
3.219309 0.6920 0.6960 0.6970 0.6970 0.6970
3.253000 0.6990 0.7010 0.7010 0.6990 0.6960
3.286309 0.6820 0.6670 0.6460 0.6220 0.5950
3.320000 0.5570 0.5090 0.4770 0.4450 0.3470
3.353309 0.2480 0.1560 0.1260 0.0960 0.0800
3.386000 0.0780 0.0810 0.1130 0.1300 0.1530
3.419309 0.1680 0.1830 0.1830 0.1810 0.1780
3.453000 0.1730 0.1700 0.1710 0.1950 0.2150
3.486309 0.2770 0.3130 0.3480 0.4540 0.4920
3.519000 0.6460 0.6760 0.7160 0.7490 0.8040
3.552309 0.8240 0.8430 0.8590 0.8740 0.8860
3.586000 0.8940 0.8990 0.9060 0.9090 0.9130
3.619309 0.9140 0.9160 0.9160 0.9160 0.9160
3.653000 0.9160 0.9160 0.9180 0.9180 0.9180
3.686309 0.9190 0.9180 0.9180 0.9190 0.9190
3.719000 0.9190 0.9190 0.9190 0.9190 0.9190
3.752309 0.9190 0.9210 0.9210 0.9210 0.9230
3.786000 0.9230 0.9240 0.9240 0.9260 0.9280
3.819309 0.9290 0.9310 0.9330 0.9330 0.9340
3.852000 0.9380 0.9390 0.9410 0.9410 0.9430
3.885309 0.9480 0.9480 0.9480 0.9490 0.9490
3.919000 0.9510 0.9510 0.9510 0.9530 0.9510
3.952309 0.9510 0.9510 0.9510 0.9490 0.9490
3.985000 0.9490 0.9480 0.9480 0.9460 0.9460
4.018309 0.9440 0.9440 0.9430 0.9430 0.9430
4.052000 0.9410 0.9390 0.9390 0.9390 0.9390
4.085309 0.9390 0.9410 0.9410 0.9440 0.9460
4.119000 0.9460 0.9460 0.9480 0.9490 0.9490
4.152309 0.9490 0.9490 0.9490 0.9490 0.9490
4.185000 0.9480 0.9480 0.9480 0.9480 0.9440
4.218309 0.9390 0.9380 0.9340 0.9330 0.9290
4.252000 0.9280 0.9260 0.9260 0.9240 0.9230
4.285309 0.9210 0.9210 0.9190 0.9190 0.9180
4.318000 0.9180 0.9160 0.9180 0.9180 0.9180
4.351309 0.9190 0.9190 0.9210 0.9210 0.9230
4.385000 0.9230 0.9260 0.9280 0.9290 0.9290
4.418309 0.9310 0.9310 0.9310 0.9310 0.9310
4.452000 0.9310 0.9310 0.9310 0.9290 0.9290
4.485309 0.9280 0.9280 0.9280 0.9280 0.9280
4.518000 0.9260 0.9240 0.9230 0.9190 0.9190
4.551309 0.9160 0.9140 0.9130 0.9130 0.9110
4.585000 0.9110 0.9110 0.9090 0.9060 0.9060
4.618309 0.9040 0.9040 0.9030 0.9030 0.9010
4.651000 0.8990 0.8980 0.8980 0.8930 0.8910
4.684309 0.8890 0.8860 0.8830 0.8810 0.8780
4.718000 0.8760 0.8730 0.8690 0.8660 0.8610
4.751309 0.8560 0.8530 0.8460 0.8410 0.8340
4.785000 0.8210 0.8040 0.7920 0.7720 0.7620
4.818309 0.7520 0.7390 0.7240 0.6770 0.6110
4.851000 0.5250 0.4720 0.4190 0.3500 0.2550
4.884309 0.2400 0.2230 0.1900 0.1630 0.1410
4.918000 0.1300 0.1280 0.1260 0.1250 0.1210
4.951309 0.1200 0.1160 0.1160 0.1100 0.1030
4.984000 0.0960 0.0930 0.0910 0.0930 0.0980
5.017309 0.1130 0.1380 0.1550 0.1710 0.1860
5.051000 0.2050 0.2270 0.2480 0.2970 0.3180
5.084309 0.3400 0.3580 0.3780 0.4000 0.4240
5.117000 0.4450 0.4690 0.4920 0.5340 0.5540
5.150309 0.5690 0.5820 0.5920 0.6140 0.6370
5.184000 0.6520 0.6640 0.6760 0.6860 0.6960
5.217309 0.7040 0.7090 0.7140 0.7190 0.7260
5.251000 0.7320 0.7390 0.7440 0.7560 0.7620
5.284309 0.7690 0.7740 0.7810 0.7860 0.7940
5.317000 0.7960 0.7990 0.8030 0.8040 0.8110
5.350309 0.8130 0.8180 0.8190 0.8230 0.8240
5.384000 0.8310 0.8330 0.8360 0.8390 0.8410
5.417309 0.8440 0.8490 0.8510 0.8510 0.8530
5.450000 0.8540 0.8560 0.8560 0.8580 0.8590
5.483309 0.8590 0.8610 0.8610 0.8630 0.8630
5.517000 0.8640 0.8660 0.8660 0.8680 0.8690
5.550309 0.8710 0.8730 0.8740 0.8780 0.8790
5.584000 0.8810 0.8830 0.8840 0.8880 0.8890
5.617309 0.8910 0.8930 0.8930 0.8960 0.8960
5.650000 0.8960 0.8980 0.8980 0.8990 0.8990
5.683309 0.9010 0.9010 0.9010 0.9030 0.9030
5.717000 0.9040 0.9030 0.9030 0.9030 0.9030
5.750309 0.9010 0.9010 0.9010 0.9010 0.9010
5.783000 0.9010 0.9010 0.9030 0.9040 0.9060
5.816309 0.9060 0.9060 0.9060 0.9060 0.9060
5.850000 0.9030 0.9040 0.9040 0.9040 0.9040
5.883309 0.9040 0.9030 0.9030 0.9030 0.9030
5.916000 0.9030 0.9030 0.9030 0.9010 0.8990
5.949309 0.8940 0.8910 0.8880 0.8860 0.8830
5.983000 0.8790 0.8640 0.8440 0.8160 0.8080
6.016309 0.7790 0.7520 0.7420 0.7310 0.7070
6.050000 0.6860 0.6620 0.6410 0.6170 0.5970
6.083309 0.5590 0.5120 0.4940 0.4740 0.4420
6.116000 0.4040 0.3700 0.3670 0.3670 0.3720
6.149309 0.3730 0.3920 0.4170 0.4490 0.4920
6.183000 0.5450 0.5950 0.6420 0.6720 0.6960
6.216309 0.7160 0.7320 0.7460 0.7670 0.7790
6.249000 0.7910 0.8030 0.8110 0.8160 0.8190
6.282309 0.8210 0.8240 0.8240 0.8260 0.8280
6.316000 0.8290 0.8310 0.8310 0.8310 0.8310
6.349309 0.8330 0.8330 0.8330 0.8330 0.8330
6.383000 0.8330 0.8310 0.8310 0.8310 0.8310
6.416309 0.8330 0.8330 0.8330 0.8340 0.8330
6.449000 0.8330 0.8340 0.8340 0.8340 0.8360
6.482309 0.8360 0.8380 0.8380 0.8390 0.8390
6.516000 0.8390 0.8390 0.8410 0.8410 0.8430
6.549309 0.8410 0.8410 0.8410 0.8390 0.8390
6.582000 0.8390 0.8390 0.8380 0.8380 0.8380
6.615309 0.8380 0.8380 0.8380 0.8380 0.8390
6.649000 0.8390 0.8390 0.8390 0.8390 0.8390
6.682309 0.8390 0.8390 0.8410 0.8410 0.8410
6.715000 0.8410 0.8410 0.8390 0.8390 0.8360
6.748309 0.8330 0.8280 0.8230 0.8210 0.8060
6.782000 0.7890 0.7620 0.7360 0.6990 0.6840
6.815309 0.6490 0.5990 0.5750 0.5550 0.5440
6.849000 0.5390 0.5320 0.5270 0.5250 0.5250
6.882309 0.5240 0.5220 0.5240 0.5250 0.5290
6.915000 0.5350 0.5440 0.5500 0.5590 0.5670
6.948309 0.5790 0.5920 0.5990 0.6090 0.6270
6.982000 0.6410 0.6540 0.6670 0.6810 0.6940
7.015309 0.7070 0.7240 0.7370 0.7420 0.7470
7.048000 0.7590 0.7660 0.7740 0.7810 0.7910
7.081309 0.7990 0.8060 0.8130 0.8180 0.8210
7.115000 0.8230 0.8240 0.8240 0.8280 0.8280
7.148309 0.8260 0.8260 0.8240 0.8230 0.8210
7.182000 0.8180 0.8140 0.8060 0.7890 0.7660
7.215309 0.7490 0.7320 0.7140 0.6990 0.6820
7.248000 0.6660 0.6590 0.6560 0.6540 0.6540
7.281309 0.6540 0.6540 0.6540 0.6540 0.6590
7.315000 0.6620 0.6670 0.6770 0.6860 0.6960
7.348309 0.7040 0.7110 0.7160 0.7220 0.7270
7.381000 0.7340 0.7390 0.7440 0.7520 0.7540
7.414309 0.7560 0.7560 0.7590 0.7610 0.7610
7.448000 0.7620 0.7640 0.7660 0.7670 0.7690
7.481309 0.7710 0.7710 0.7720 0.7720 0.7740
7.515000 0.7760 0.7760 0.7770 0.7790 0.7790
7.548309 0.7810 0.7810 0.7820 0.7840 0.7840
7.581000 0.7840 0.7840 0.7860 0.7860 0.7870
7.614309 0.7870 0.7870 0.7890 0.7890 0.7910
7.648000 0.7910 0.7910 0.7920 0.7920 0.7940
7.681309 0.7940 0.7940 0.7940 0.7960 0.7960
7.714000 0.7960 0.7960 0.7970 0.7970 0.7970
7.747309 0.7990 0.7990 0.7990 0.7990 0.8010
7.781000 0.8010 0.8010 0.8010 0.8030 0.8030
7.814309 0.8030 0.8030 0.8030 0.8040 0.8040
7.847000 0.8040 0.8040 0.8040 0.8060 0.8080
7.880309 0.8080 0.8080 0.8080 0.8080 0.8080
7.914000 0.8080 0.8090 0.8090 0.8090 0.8090
7.947309 0.8090 0.8090 0.8090 0.8090 0.8090
7.981000 0.8090 0.8090 0.8110 0.8110 0.8110
8.014309 0.8110 0.8110 0.8110 0.8110 0.8110
8.047000 0.8130 0.8130 0.8130 0.8130 0.8130
8.080309 0.8130 0.8130 0.8130 0.8130 0.8140
8.114000 0.8140 0.8140 0.8140 0.8140 0.8140
8.147309 0.8140 0.8140 0.8140 0.8140 0.8140
8.180000 0.8140 0.8140 0.8140 0.8130 0.8130
8.213309 0.8130 0.8130 0.8130 0.8130 0.8130
8.247000 0.8130 0.8130 0.8130 0.8130 0.8130
8.280309 0.8130 0.8130 0.8130 0.8130 0.8130
8.314000 0.8130 0.8130 0.8130 0.8130 0.8130
8.347309 0.8130 0.8130 0.8130 0.8140 0.8140
8.380000 0.8140 0.8140 0.8140 0.8140 0.8140
8.413309 0.8140 0.8140 0.8140 0.8140 0.8140
8.447000 0.8140 0.8140 0.8140 0.8140 0.8140
8.480309 0.8140 0.8140 0.8140 0.8140 0.8140
8.513000 0.8140 0.8140 0.8140 0.8140 0.8130
8.546309 0.8130 0.8130 0.8130 0.8130 0.8130
8.580000 0.8130 0.8130 0.8130 0.8130 0.8130
8.613309 0.8130 0.8130 0.8110 0.8110 0.8110
8.646000 0.8110 0.8110 0.8110 0.8110 0.8110
8.679309 0.8110 0.8110 0.8110 0.8110 0.8110
8.713000 0.8110 0.8090 0.8090 0.8090 0.8090
8.746309 0.8090 0.8090 0.8090 0.8080 0.8080
8.780000 0.8080 0.8080 0.8080 0.8080 0.8080
8.813309 0.8080 0.8080 0.8080 0.8080 0.8080
8.846000 0.8080 0.8080 0.8080 0.8080 0.8060
8.879309 0.8080 0.8060 0.8060 0.8060 0.8040
8.913000 0.8040 0.8040 0.8030 0.8030 0.8030
8.946309 0.8030 0.8030 0.8030 0.8030 0.8030
8.979000 0.8010 0.8030 0.8030 0.8010 0.8010
9.012309 0.8010 0.8010 0.7990 0.7990 0.7990
9.046000 0.7990 0.7990 0.8010 0.8010 0.8010
9.079309 0.7990 0.8010 0.8010 0.8010 0.8010
9.113000 0.8010 0.8010 0.8010 0.8010 0.7990
9.146309 0.7990 0.7990 0.7990 0.7990 0.7990
9.179000 0.7990 0.7990 0.7970 0.7970 0.7970
9.212309 0.7970 0.7970 0.7970 0.7970 0.7970
9.246000 0.7970 0.7970 0.7970 0.7960 0.7960
9.279309 0.7960 0.7960 0.7960 0.7960 0.7960
9.312000 0.7960 0.7960 0.7960 0.7960 0.7960
9.345309 0.7960 0.7960 0.7960 0.7960 0.7960
9.379000 0.7960 0.7960 0.7960 0.7960 0.7940
9.412309 0.7940 0.7940 0.7920 0.7920 0.7910
9.446000 0.7910 0.7910 0.7910 0.7910 0.7910
9.479309 0.7910 0.7910 0.7890 0.7890 0.7890
9.512000 0.7890 0.7910 0.7910 0.7910 0.7890
9.545309 0.7890 0.7890 0.7890 0.7890 0.7890
9.579000 0.7890 0.7890 0.7870 0.7870 0.7870
9.612309 0.7870 0.7870 0.7870 0.7870 0.7870
9.645000 0.7860 0.7860 0.7860 0.7860 0.7860
9.678309 0.7860 0.7860 0.7840 0.7840 0.7840
9.712000 0.7840 0.7840 0.7840 0.7840 0.7820
9.745309 0.7820 0.7820 0.7820 0.7820 0.7820
9.778000 0.7820 0.7810 0.7810 0.7810 0.7810
9.811309 0.7810 0.7810 0.7810 0.7810 0.7810
9.845000 0.7790 0.7790 0.7790 0.7790 0.7770
9.878309 0.7770 0.7770 0.7770 0.7770 0.7770
9.912000 0.7770 0.7770 0.7770 0.7770 0.7770
9.945309 0.7770 0.7770 0.7770 0.7770 0.7770
9.978000 0.7770 0.7770 0.7770 0.7770 0.7760
10.011309 0.7770 0.7760 0.7760 0.7770 0.7760
10.045000 0.7740 0.7760 0.7740 0.7740 0.7740
10.078309 0.7740 0.7740 0.7740 0.7740 0.7740
10.111000 0.7720 0.7740 0.7740 0.7740 0.7720
10.144309 0.7720 0.7720 0.7720 0.7720 0.7720
10.178000 0.7720 0.7720 0.7720 0.7720 0.7720
10.211309 0.7720 0.7720 0.7720 0.7720 0.7720
10.245000 0.7720 0.7720 0.7720 0.7720 0.7720
10.278309 0.7720 0.7720 0.7710 0.7710 0.7710
10.311000 0.7720 0.7740 0.7720 0.7720 0.7740
10.344309 0.7720 0.7720 0.7720 0.7720 0.7720
10.378000 0.7720 0.7720 0.7720 0.7720 0.7720
10.411309 0.7710 0.7710 0.7710 0.7710 0.7710
10.444000 0.7710 0.7710 0.7710 0.7710 0.7710
10.477309 0.7710 0.7710 0.7710 0.7710 0.7710
10.511000 0.7690 0.7690 0.7690 0.7670 0.7670
10.544309 0.7670 0.7660 0.7660 0.7660 0.7660
10.577000 0.7640 0.7640 0.7620 0.7620 0.7620
10.610309 0.7620 0.7620 0.7620 0.7620 0.7620
10.644000 0.7620 0.7620 0.7620 0.7620 0.7620
10.677309 0.7620 0.7620 0.7620 0.7610 0.7610
10.711000 0.7610 0.7610 0.7610 0.7610 0.7610
10.744309 0.7610 0.7610 0.7610 0.7610 0.7610
10.777000 0.7610 0.7610 0.7610 0.7610 0.7610
10.810309 0.7610 0.7610 0.7610 0.7610 0.7610
10.844000 0.7610 0.7610 0.7610 0.7610 0.7610
10.877309 0.7610 0.7610 0.7610 0.7610 0.7610
10.910000 0.7610 0.7610 0.7610 0.7610 0.7610
10.943309 0.7610 0.7610 0.7610 0.7610 0.7610
10.977000 0.7610 0.7610 0.7610 0.7610 0.7610
11.010309 0.7610 0.7610 0.7610 0.7610 0.7610
11.044000 0.7610 0.7610 0.7610 0.7610 0.7610
11.077309 0.7610 0.7590 0.7590 0.7590 0.7590
11.110000 0.7590 0.7590 0.7590 0.7590 0.7590
11.143309 0.7590 0.7570 0.7590 0.7590 0.7570
11.177000 0.7570 0.7570 0.7570 0.7570 0.7570
11.210309 0.7570 0.7570 0.7570 0.7570 0.7570
11.243000 0.7570 0.7570 0.7570 0.7570 0.7570
11.276309 0.7570 0.7570 0.7570 0.7570 0.7570
11.310000 0.7590 0.7590 0.7610 0.7610 0.7610
11.343309 0.7620 0.7620 0.7620 0.7640 0.7620
11.377000 0.7640 0.7640 0.7660 0.7660 0.7670
11.410309 0.7670 0.7670 0.7670 0.7690 0.7690
11.443000 0.7690 0.7690 0.7690 0.7690 0.7690
11.476309 0.7690 0.7710 0.7710 0.7710 0.7710
11.510000 0.7710 0.7720 0.7720 0.7760 0.7760
11.543309 0.7760 0.7740 0.7740 0.7740 0.7740
11.576000 0.7740 0.7740 0.7740 0.7740 0.7740
11.609309 0.7740 0.7740 0.7740 0.7740 0.7720
11.643000 0.7720 0.7720 0.7720 0.7720 0.7710
11.676309 0.7710 0.7710 0.7710 0.7710 0.7710
11.709000 0.7710 0.7710 0.7710 0.7710 0.7710
11.742309 0.7710 0.7710 0.7710 0.7710 0.7710
11.776000 0.7710 0.7710 0.7710 0.7710 0.7710
11.809309 0.7710 0.7710 0.7710 0.7710 0.7710
11.843000 0.7710 0.7710 0.7710 0.7710 0.7690
11.876309 0.7710 0.7710 0.7710 0.7710 0.7710
11.909000 0.7710 0.7710 0.7710 0.7710 0.7710
11.942309 0.7710 0.7710 0.7710 0.7710 0.7710
11.976000 0.7710 0.7710 0.7710 0.7710 0.7710
12.009309 0.7710 0.7710 0.7710 0.7710 0.7690
12.042000 0.7690 0.7690 0.7690 0.7690 0.7670
12.075309 0.7670 0.7670 0.7670 0.7660 0.7660
12.109000 0.7660 0.7660 0.7660 0.7660 0.7660
12.142309 0.7670 0.7660 0.7640 0.7640 0.7640
12.176000 0.7640 0.7640 0.7640 0.7620 0.7620
12.209309 0.7620 0.7620 0.7610 0.7610 0.7610
12.242000 0.7610 0.7610 0.7620 0.7610 0.7610
12.275309 0.7610 0.7590 0.7590 0.7590 0.7590
12.309000 0.7590 0.7590 0.7590 0.7570 0.7570
12.342309 0.7570 0.7570 0.7570 0.7570 0.7560
12.375000 0.7560 0.7560 0.7560 0.7560 0.7560
12.408309 0.7560 0.7560 0.7560 0.7570 0.7570
12.442000 0.7570 0.7570 0.7570 0.7570 0.7570
12.475309 0.7570 0.7560 0.7560 0.7560 0.7560
12.508000 0.7560 0.7560 0.7560 0.7560 0.7560
12.541309 0.7560 0.7560 0.7560 0.7560 0.7560
12.575000 0.7560 0.7560 0.7540 0.7540 0.7540
12.608309 0.7540 0.7540 0.7540 0.7540 0.7520
12.642000 0.7520 0.7520 0.7520 0.7520 0.7520
12.675309 0.7520 0.7510 0.7510 0.7510 0.7510
12.708000 0.7510 0.7510 0.7510 0.7510 0.7510
12.741309 0.7510 0.7510 0.7520 0.7520 0.7520
12.775000 0.7520 0.7520 0.7520 0.7520 0.7520
12.808309 0.7520 0.7510 0.7510 0.7510 0.7510
12.841000 0.7510 0.7510 0.7510 0.7490 0.7470
12.874309 0.7470 0.7460 0.7440 0.7440 0.7440
12.908000 0.7420 0.7420 0.7410 0.7410 0.7410
12.941309 0.7390 0.7390 0.7370 0.7370 0.7360
12.975000 0.7360 0.7360 0.7320 0.7310 0.7290
13.008309 0.7290 0.7270 0.7260 0.7240 0.7240
13.041000 0.7220 0.7220 0.7210 0.7210 0.7190
13.074309 0.7190 0.7170 0.7160 0.7140 0.7140
13.108000 0.7120 0.7120 0.7110 0.7110 0.7090
13.141309 0.7090 0.7070 0.7060 0.7070 0.7060
13.174000 0.7060 0.7040 0.7020 0.7020 0.7020
13.207309 0.7010 0.7010 0.6990 0.6990 0.6990
13.241000 0.6970 0.6970 0.6920 0.6920 0.6910
13.274309 0.6910 0.6910 0.6890 0.6890 0.6870
13.308000 0.6860 0.6840 0.6840 0.6840 0.6840
13.341309 0.6820 0.6810 0.6790 0.6790 0.6770
13.374000 0.6760 0.6740 0.6720 0.6720 0.6710
13.407309 0.6710 0.6710 0.6690 0.6690 0.6660
13.441000 0.6640 0.6620 0.6620 0.6610 0.6590
13.474309 0.6590 0.6570 0.6560 0.6540 0.6540
13.507000 0.6520 0.6520 0.6510 0.6510 0.6490
13.540309 0.6470 0.6470 0.6460 0.6470 0.6470
13.574000 0.6460 0.6440 0.6420 0.6420 0.6410
13.607309 0.6410 0.6390 0.6390 0.6370 0.6360
13.640000 0.6340 0.6320 0.6310 0.6310 0.6290
13.673309 0.6290 0.6270 0.6260 0.6240 0.6220
13.707000 0.6220 0.6220 0.6210 0.6190 0.6170
13.740309 0.6160 0.6140 0.6140 0.6120 0.6120
13.774000 0.6110 0.6110 0.6110 0.6090 0.6060
13.807309 0.6060 0.6040 0.6060 0.6040 0.6040
13.840000 0.6040 0.6040 0.6020 0.6010 0.5990
13.873309 0.5990 0.5990 0.5990 0.5970 0.5970
13.907000 0.5970 0.5950 0.5950 0.5940 0.5940
13.940309 0.5920 0.5920 0.5900 0.5900 0.5890
13.973000 0.5890 0.5870 0.5890 0.5890 0.5870
14.006309 0.5840 0.5840 0.5820 0.5820 0.5820
14.040000 0.5800 0.5800 0.5800 0.5800 0.5800
14.073309 0.5800 0.5800 0.5790 0.5790 0.5790
14.107000 0.5790 0.5790 0.5790 0.5790 0.5770
14.140309 0.5790 0.5790 0.5790 0.5790 0.5800
14.173000 0.5790 0.5790 0.5800 0.5790 0.5790
14.206309 0.5790 0.5770 0.5770 0.5750 0.5750
14.240000 0.5750 0.5750 0.5750 0.5750 0.5750
14.273309 0.5750 0.5750 0.5750 0.5750 0.5750
14.306000 0.5750 0.5750 0.5750 0.5740 0.5740
14.339309 0.5740 0.5720 0.5700 0.5690 0.5690
14.373000 0.5700 0.5700 0.5700 0.5690 0.5690
14.406309 0.5670 0.5670 0.5650 0.5650 0.5650
14.439000 0.5650 0.5650 0.5620 0.5620 0.5620
14.472309 0.5620 0.5620 0.5620 0.5620 0.5600
14.506000 0.5600 0.5600 0.5600 0.5590 0.5590
14.539309 0.5590 0.5590 0.5600 0.5590 0.5590
14.573000 0.5590 0.5590 0.5570 0.5570 0.5570
14.606309 0.5570 0.5570 0.5550 0.5550 0.5550
14.639000 0.5550 0.5550 0.5540 0.5550 0.5540
14.672309 0.5540 0.5550 0.5520 0.5520 0.5520
14.706000 0.5500 0.5500 0.5490 0.5490 0.5490
14.739309 0.5470 0.5490 0.5490 0.5470 0.5470
14.772000 0.5450 0.5450 0.5450 0.5450 0.5440
14.805309 0.5440 0.5440 0.5440 0.5420 0.5440
14.839000 0.5420 0.5420 0.5400 0.5400 0.5390
14.872309 0.5390 0.5390 0.5370 0.5370 0.5350
14.906000 0.5340 0.5320 0.5320 0.5300 0.5300
14.939309 0.5290 0.5290 0.5290 0.5270 0.5270
14.972000 0.5250 0.5250 0.5240 0.5240 0.5220
15.005309 0.5220 0.5200 0.5200 0.5190 0.5200
15.039000 0.5190 0.5170 0.5170 0.5170 0.5150
15.072309 0.5150 0.5150 0.5140 0.5140 0.5120
15.105000 0.5120 0.5120 0.5120 0.5120 0.5120
15.138309 0.5120 0.5120 0.5120 0.5120 0.5120
15.172000 0.5120 0.5120 0.5120 0.5120 0.5120
15.205309 0.5150 0.5140 0.5140 0.5120 0.5120
15.238000 0.5100 0.5100 0.5100 0.5100 0.5100
15.271309 0.5100 0.5100 0.5100 0.5100 0.5100
15.305000 0.5100 0.5090 0.5090 0.5100 0.5100
15.338309 0.5090 0.5090 0.5090 0.5090 0.5090
15.372000 0.5090 0.5090 0.5090 0.5090 0.5090
15.405309 0.5070 0.5070 0.5070 0.5070 0.5070
15.438000 0.5070 0.5070 0.5070 0.5090 0.5070
15.471309 0.5070 0.5070 0.5070 0.5050 0.5050
15.505000 0.5050 0.5050 0.5040 0.5040 0.5040
15.538309 0.5040 0.5020 0.5020 0.5020 0.5020
15.571000 0.5020 0.5020 0.5020 0.5020 0.5020
15.604309 0.5020 0.5020 0.5020 0.5000 0.5020
15.638000 0.5000 0.5000 0.5020 0.5000 0.5000
15.671309 0.4990 0.4990 0.4990 0.4990 0.4990
15.705000 0.4990 0.4990 0.4990 0.5000 0.5000
15.738309 0.5000 0.5020 0.5040 0.5040 0.5040
15.771000 0.5040 0.5020 0.5020 0.5020 0.5020
15.804309 0.5020 0.5020 0.5020 0.5020 0.5020
15.838000 0.5020 0.5020 0.5020 0.5020 0.5020
15.871309 0.5020 0.5020 0.5020 0.5020 0.5020
15.904000 0.5020 0.5020 0.5020 0.5020 0.5020
15.937309 0.5020 0.5040 0.5040 0.5040 0.5040
15.971000 0.5040 0.5040 0.5040 0.5040 0.6660
16.004309 0.5040
##END=
