##TITLE=N-ISO AMYL ANILINE
##JCAMP-DX=4.24
##DATA TYPE=INFRARED SPECTRUM
##CLASS=COBLENTZ
##ORIGIN=STANDARD OIL OF OHIO
##OWNER=COBLENTZ SOCIETY
Collection (C) 2018 copyright by the U.S. Secretary of Commerce
on behalf of the United States of America. All rights reserved.
##DATE=Not specified, most likely prior to 1970
##NAMES=N-(2-methylbutyl)aniline
N-(2-methylbutyl)-N-phenylamine
##MOLFORM=C11 H17 N
##SOURCE REFERENCE=COBLENTZ NO. 177
##$NIST ID=B6000177
##$NIST SOURCE=COBLENTZ
##$NIST IMAGE=cob177
##SPECTROMETER/DATA SYSTEM=Not specified, most likely a grating spectrometer.
##STATE=LIQUID
##PATH LENGTH=0.0032 CM
##SAMPLING PROCEDURE=TRANSMISSION
##RESOLUTION=4
##DATA PROCESSING=DIGITIZED BY NIST FROM HARD COPY
##XUNITS=MICROMETERS
##YUNITS=TRANSMITTANCE
##XFACTOR=1.000000
##YFACTOR=1
##DELTAX=000.006719
##FIRSTX=2.039
##LASTX=15.4035
##FIRSTY=0.989
##MAXX=15.4035
##MINX=2.039
##MAXY=0.989
##MINY=0.003
##NPOINTS=1990
##XYDATA=(X++(Y..Y))
2.039000 0.9890 0.9890 0.9880 0.9860 0.9840
2.072612 0.9840 0.9830 0.9830 0.9830 0.9830
2.106000 0.9840 0.9860 0.9880 0.9880 0.9880
2.139612 0.9880 0.9880 0.9880 0.9860 0.9810
2.174000 0.9790 0.9760 0.9740 0.9720 0.9720
2.207612 0.9720 0.9740 0.9760 0.9790 0.9860
2.241000 0.9860 0.9880 0.9880 0.9880 0.9840
2.274612 0.9830 0.9790 0.9710 0.9620 0.9540
2.308000 0.9490 0.9420 0.9320 0.9270 0.9250
2.341612 0.9250 0.9270 0.9270 0.9290 0.9320
2.375000 0.9350 0.9370 0.9400 0.9420 0.9450
2.408612 0.9470 0.9470 0.9470 0.9450 0.9440
2.442000 0.9400 0.9340 0.9250 0.9200 0.9120
2.475612 0.9070 0.9030 0.9020 0.9020 0.9030
2.510000 0.9200 0.9270 0.9350 0.9450 0.9520
2.543612 0.9590 0.9610 0.9640 0.9640 0.9640
2.577000 0.9660 0.9640 0.9640 0.9620 0.9620
2.610612 0.9620 0.9620 0.9620 0.9620 0.9620
2.644000 0.9620 0.9640 0.9640 0.9660 0.9670
2.677612 0.9690 0.9720 0.9740 0.9760 0.9760
2.711000 0.9760 0.9760 0.9760 0.9760 0.9740
2.744612 0.9710 0.9690 0.9670 0.9660 0.9640
2.778000 0.9620 0.9620 0.9620 0.9640 0.9640
2.811612 0.9640 0.9640 0.9640 0.9610 0.9590
2.845000 0.9560 0.9510 0.9490 0.9400 0.9300
2.878612 0.9200 0.9070 0.8860 0.8410 0.6870
2.913000 0.5330 0.3780 0.3340 0.2900 0.2610
2.946612 0.2610 0.2870 0.3510 0.4000 0.5280
2.980000 0.5520 0.5970 0.6410 0.6850 0.7310
3.013612 0.8260 0.8420 0.8590 0.8690 0.8850
3.047000 0.8980 0.9100 0.9150 0.9250 0.9290
3.080612 0.9320 0.9350 0.9370 0.9370 0.9350
3.114000 0.9290 0.9200 0.9150 0.9100 0.9080
3.147612 0.9070 0.9070 0.9070 0.9050 0.9050
3.181000 0.9030 0.9020 0.8800 0.8510 0.8240
3.214612 0.7970 0.7680 0.7360 0.7040 0.5810
3.249000 0.5180 0.4560 0.4250 0.3900 0.3540
3.282612 0.3510 0.3510 0.3530 0.3560 0.3610
3.316000 0.3780 0.4030 0.4320 0.4470 0.4490
3.349612 0.2950 0.1400 0.0670 0.0450 0.0280
3.383000 0.0210 0.0180 0.0180 0.0160 0.0160
3.416612 0.0150 0.0150 0.0150 0.0160 0.0210
3.450000 0.0330 0.0370 0.0380 0.0380 0.0400
3.483612 0.0430 0.0450 0.0480 0.0910 0.1310
3.517000 0.1460 0.1620 0.1870 0.3270 0.3490
3.550612 0.4340 0.5060 0.5300 0.5540 0.5790
3.585000 0.6060 0.6360 0.6670 0.7010 0.7710
3.618612 0.7780 0.7930 0.7980 0.8020 0.8070
3.652000 0.8100 0.8140 0.8150 0.8150 0.8140
3.685612 0.8140 0.8150 0.8170 0.8200 0.8320
3.719000 0.8390 0.8490 0.8530 0.8580 0.8630
3.752612 0.8680 0.8710 0.8750 0.8780 0.8780
3.786000 0.8780 0.8780 0.8800 0.8800 0.8800
3.819612 0.8810 0.8810 0.8830 0.8810 0.8780
3.853000 0.8710 0.8630 0.8590 0.8590 0.8580
3.886612 0.8560 0.8540 0.8540 0.8560 0.8580
3.920000 0.8610 0.8750 0.8880 0.8960 0.9030
3.953612 0.9130 0.9180 0.9230 0.9270 0.9300
3.988000 0.9320 0.9340 0.9340 0.9350 0.9370
4.021612 0.9370 0.9370 0.9370 0.9370 0.9370
4.055000 0.9370 0.9370 0.9390 0.9400 0.9400
4.088612 0.9420 0.9450 0.9510 0.9510 0.9510
4.122000 0.9520 0.9520 0.9520 0.9510 0.9510
4.155612 0.9470 0.9440 0.9420 0.9400 0.9400
4.189000 0.9400 0.9400 0.9400 0.9420 0.9440
4.222612 0.9440 0.9450 0.9440 0.9440 0.9440
4.256000 0.9420 0.9400 0.9400 0.9400 0.9400
4.289612 0.9400 0.9400 0.9400 0.9400 0.9400
4.324000 0.9400 0.9400 0.9400 0.9420 0.9420
4.357612 0.9420 0.9440 0.9440 0.9440 0.9450
4.391000 0.9450 0.9450 0.9490 0.9510 0.9510
4.424612 0.9520 0.9540 0.9560 0.9570 0.9570
4.458000 0.9590 0.9590 0.9590 0.9590 0.9590
4.491612 0.9590 0.9590 0.9570 0.9560 0.9560
4.525000 0.9560 0.9560 0.9570 0.9570 0.9570
4.558612 0.9570 0.9560 0.9520 0.9520 0.9510
4.592000 0.9510 0.9510 0.9490 0.9490 0.9490
4.625612 0.9490 0.9470 0.9450 0.9450 0.9440
4.660000 0.9420 0.9420 0.9400 0.9400 0.9390
4.693612 0.9390 0.9390 0.9390 0.9390 0.9390
4.727000 0.9400 0.9400 0.9400 0.9420 0.9420
4.760612 0.9420 0.9420 0.9440 0.9440 0.9440
4.794000 0.9440 0.9440 0.9440 0.9450 0.9440
4.827612 0.9440 0.9440 0.9440 0.9450 0.9450
4.861000 0.9450 0.9440 0.9440 0.9440 0.9440
4.894612 0.9440 0.9440 0.9440 0.9440 0.9440
4.928000 0.9420 0.9420 0.9420 0.9420 0.9420
4.961612 0.9420 0.9420 0.9420 0.9400 0.9400
4.996000 0.9400 0.9400 0.9400 0.9400 0.9400
5.029612 0.9420 0.9400 0.9400 0.9400 0.9390
5.063000 0.9390 0.9370 0.9370 0.9350 0.9340
5.096612 0.9300 0.9270 0.9230 0.9180 0.9130
5.130000 0.9050 0.9020 0.8980 0.8850 0.8610
5.163612 0.8510 0.8420 0.8320 0.8240 0.8150
5.197000 0.8050 0.7920 0.7880 0.7880 0.7920
5.230612 0.8040 0.8220 0.8340 0.8460 0.8540
5.264000 0.8680 0.8760 0.8880 0.9000 0.9020
5.297612 0.9050 0.9120 0.9130 0.9180 0.9180
5.331000 0.9200 0.9200 0.9180 0.9180 0.9170
5.364612 0.9150 0.9150 0.9120 0.9100 0.9050
5.399000 0.9030 0.9030 0.9000 0.8950 0.8900
5.432612 0.8810 0.8710 0.8630 0.8560 0.8530
5.466000 0.8490 0.8390 0.8360 0.8360 0.8390
5.499612 0.8490 0.8580 0.8610 0.8710 0.8800
5.533000 0.8850 0.8880 0.8950 0.8960 0.8980
5.566612 0.9020 0.9030 0.9030 0.9020 0.9000
5.600000 0.8960 0.8910 0.8850 0.8780 0.8710
5.633612 0.8660 0.8590 0.8510 0.8470 0.8470
5.667000 0.8460 0.8460 0.8470 0.8510 0.8540
5.700612 0.8610 0.8680 0.8710 0.8750 0.8780
5.735000 0.8800 0.8800 0.8810 0.8810 0.8800
5.768612 0.8760 0.8760 0.8750 0.8750 0.8760
5.802000 0.8760 0.8760 0.8750 0.8730 0.8690
5.835612 0.8660 0.8610 0.8580 0.8560 0.8530
5.869000 0.8490 0.8410 0.8320 0.8220 0.8090
5.902612 0.8040 0.8020 0.7930 0.7900 0.7800
5.936000 0.7710 0.7700 0.7700 0.7700 0.7710
5.969612 0.7770 0.7800 0.7850 0.7920 0.7930
6.003000 0.7950 0.7970 0.7970 0.7970 0.7920
6.036612 0.7780 0.7580 0.7480 0.7380 0.7340
6.071000 0.7310 0.7190 0.7060 0.6920 0.6140
6.104612 0.5940 0.5720 0.5350 0.4830 0.4120
6.138000 0.3390 0.2010 0.1680 0.1360 0.0670
6.171612 0.0230 0.0180 0.0100 0.0060 0.0050
6.205000 0.0030 0.0030 0.0030 0.0030 0.0050
6.238612 0.0060 0.0130 0.0280 0.0330 0.0550
6.272000 0.1130 0.1550 0.1920 0.2800 0.2980
6.305612 0.3290 0.3530 0.3780 0.4120 0.4610
6.339000 0.5010 0.5180 0.5380 0.5500 0.5520
6.372612 0.5550 0.5550 0.5550 0.5570 0.5570
6.406000 0.5570 0.5590 0.5590 0.5590 0.5590
6.439612 0.5590 0.5600 0.5600 0.5590 0.5550
6.474000 0.5430 0.5270 0.4960 0.4810 0.4640
6.507612 0.4300 0.3880 0.3470 0.3070 0.2660
6.541000 0.2260 0.2070 0.1890 0.1500 0.1140
6.574612 0.0770 0.0330 0.0130 0.0110 0.0110
6.608000 0.0100 0.0100 0.0080 0.0060 0.0050
6.641612 0.0030 0.0030 0.0050 0.0160 0.0270
6.675000 0.0370 0.0520 0.0770 0.0840 0.0970
6.708612 0.0960 0.0910 0.0790 0.0650 0.0590
6.742000 0.0550 0.0540 0.0520 0.0500 0.0480
6.775612 0.0450 0.0420 0.0380 0.0370 0.0370
6.810000 0.0380 0.0570 0.0790 0.1060 0.1380
6.843612 0.1620 0.1990 0.2440 0.2600 0.2780
6.877000 0.2970 0.3100 0.3340 0.3490 0.3730
6.910612 0.3880 0.3950 0.3980 0.3960 0.3640
6.944000 0.2750 0.2280 0.2090 0.1900 0.1850
6.977612 0.1520 0.1520 0.2730 0.3100 0.3460
7.011000 0.4000 0.4420 0.4490 0.5010 0.5280
7.044612 0.5540 0.5790 0.6080 0.6160 0.6280
7.078000 0.6350 0.6430 0.6500 0.6530 0.6580
7.111612 0.6600 0.6620 0.6620 0.6620 0.6580
7.146000 0.6460 0.6180 0.5960 0.5640 0.4960
7.179612 0.4670 0.4370 0.3200 0.2660 0.2630
7.213000 0.2660 0.2770 0.2820 0.2820 0.2850
7.246612 0.2870 0.2870 0.2800 0.2580 0.2340
7.280000 0.2310 0.2190 0.1970 0.1750 0.1750
7.313612 0.2650 0.3070 0.3510 0.4000 0.4620
7.347000 0.4960 0.5150 0.5210 0.5250 0.5280
7.380612 0.5300 0.5300 0.5130 0.4790 0.4640
7.414000 0.4490 0.3850 0.3410 0.2950 0.2440
7.447612 0.2060 0.1920 0.1790 0.1620 0.1500
7.482000 0.1430 0.1350 0.1260 0.1130 0.0770
7.515612 0.0590 0.0470 0.0320 0.0250 0.0210
7.549000 0.0150 0.0130 0.0110 0.0110 0.0130
7.582612 0.0180 0.0230 0.0350 0.0470 0.0620
7.616000 0.0820 0.1060 0.1280 0.1450 0.1500
7.649612 0.1570 0.1650 0.1730 0.1820 0.1870
7.683000 0.1890 0.1900 0.1920 0.1920 0.1940
7.716612 0.1950 0.2090 0.2190 0.2280 0.2410
7.750000 0.2430 0.2430 0.2340 0.2190 0.2120
7.783612 0.2110 0.2070 0.2040 0.2020 0.2010
7.817000 0.2010 0.1990 0.1920 0.1870 0.1730
7.850612 0.1650 0.1550 0.1480 0.1400 0.1350
7.885000 0.1310 0.1260 0.1210 0.1210 0.1190
7.918612 0.1190 0.1190 0.1180 0.1180 0.1180
7.952000 0.1160 0.1140 0.1110 0.1090 0.1060
7.985612 0.0870 0.0870 0.1080 0.1280 0.1480
8.019000 0.1680 0.1890 0.2290 0.2880 0.3360
8.052612 0.3760 0.4000 0.4400 0.4570 0.4780
8.086000 0.4840 0.4890 0.4930 0.4940 0.4980
8.119612 0.4940 0.4880 0.4710 0.4590 0.4450
8.153000 0.4320 0.4230 0.4170 0.4120 0.4100
8.186612 0.4100 0.4120 0.4250 0.4540 0.5050
8.221000 0.5470 0.5740 0.5770 0.5810 0.5920
8.254612 0.6030 0.6130 0.6230 0.6260 0.6300
8.288000 0.6360 0.6400 0.6410 0.6450 0.6480
8.321612 0.6520 0.6520 0.6500 0.6500 0.6480
8.355000 0.6430 0.6380 0.6280 0.6230 0.6130
8.388612 0.6010 0.5840 0.5500 0.5060 0.4790
8.422000 0.4520 0.3950 0.2680 0.2220 0.1750
8.455612 0.1460 0.1230 0.1210 0.1230 0.1260
8.489000 0.1360 0.1650 0.2430 0.2780 0.3040
8.522612 0.3100 0.3260 0.3490 0.3540 0.3710
8.557000 0.3800 0.3900 0.4020 0.4080 0.4180
8.590612 0.4230 0.4230 0.3900 0.3660 0.3370
8.624000 0.3050 0.2770 0.2310 0.2120 0.1940
8.657612 0.1620 0.1600 0.1620 0.1650 0.1790
8.691000 0.1970 0.2210 0.2340 0.2430 0.2580
8.724612 0.2850 0.3070 0.3390 0.3460 0.3690
8.758000 0.3900 0.4050 0.4250 0.4520 0.4910
8.791612 0.5200 0.5320 0.5380 0.5420 0.5480
8.825000 0.5520 0.5540 0.5590 0.5620 0.5670
8.858612 0.5770 0.5840 0.5990 0.6110 0.6260
8.892000 0.6410 0.6530 0.6650 0.6700 0.6770
8.925612 0.6840 0.6900 0.6950 0.6990 0.7010
8.960000 0.7010 0.6970 0.6900 0.6840 0.6790
8.993612 0.6790 0.6700 0.6600 0.6570 0.6550
9.027000 0.6520 0.6480 0.6410 0.6330 0.6210
9.060612 0.6090 0.5970 0.5740 0.5480 0.5230
9.094000 0.4930 0.4780 0.4610 0.4230 0.3960
9.127612 0.3590 0.3320 0.3050 0.2980 0.2970
9.161000 0.2980 0.3140 0.3290 0.3490 0.3710
9.194612 0.3850 0.4070 0.4270 0.4470 0.4960
9.228000 0.5270 0.5370 0.5480 0.5550 0.5640
9.261612 0.5640 0.5540 0.5430 0.5230 0.5160
9.296000 0.5100 0.4810 0.4720 0.4620 0.4520
9.329612 0.4510 0.4520 0.4740 0.5000 0.5250
9.363000 0.5430 0.5600 0.5760 0.5920 0.6080
9.396612 0.6310 0.6450 0.6650 0.6720 0.6800
9.430000 0.6890 0.6970 0.6990 0.7010 0.7020
9.463612 0.7020 0.7010 0.6970 0.6950 0.6870
9.497000 0.6770 0.6700 0.6650 0.6630 0.6630
9.530612 0.6630 0.6670 0.6730 0.6820 0.6920
9.564000 0.6990 0.7040 0.7090 0.7120 0.7160
9.597612 0.7190 0.7210 0.7210 0.7210 0.7210
9.632000 0.7190 0.7070 0.6870 0.6480 0.6060
9.665612 0.5920 0.5740 0.5590 0.5470 0.5420
9.699000 0.5420 0.5470 0.5550 0.5600 0.5770
9.732612 0.5910 0.6030 0.6280 0.6600 0.6850
9.766000 0.6990 0.7060 0.7110 0.7160 0.7210
9.799612 0.7220 0.7260 0.7280 0.7280 0.7280
9.833000 0.7260 0.7240 0.7210 0.7190 0.7170
9.866612 0.7160 0.7140 0.7140 0.7120 0.7120
9.900000 0.7110 0.7110 0.7090 0.7070 0.7040
9.933612 0.7010 0.6970 0.6900 0.6820 0.6700
9.968000 0.6570 0.6410 0.6210 0.5960 0.5650
10.001612 0.5300 0.4860 0.4590 0.4320 0.4080
10.035000 0.3810 0.3540 0.3540 0.3760 0.3980
10.068612 0.4220 0.4450 0.4890 0.5080 0.5520
10.102000 0.5740 0.5920 0.6030 0.6110 0.6210
10.135612 0.6330 0.6460 0.6520 0.6550 0.6620
10.169000 0.6650 0.6670 0.6700 0.6720 0.6770
10.202612 0.6820 0.6870 0.6940 0.7010 0.7020
10.236000 0.7060 0.7090 0.7120 0.7190 0.7210
10.269612 0.7240 0.7280 0.7290 0.7310 0.7340
10.303000 0.7340 0.7380 0.7390 0.7390 0.7430
10.336612 0.7500 0.7510 0.7530 0.7560 0.7580
10.371000 0.7610 0.7650 0.7660 0.7680 0.7700
10.404612 0.7700 0.7680 0.7680 0.7650 0.7630
10.438000 0.7610 0.7600 0.7560 0.7550 0.7530
10.471612 0.7530 0.7510 0.7480 0.7460 0.7430
10.505000 0.7410 0.7390 0.7380 0.7340 0.7330
10.538612 0.7330 0.7310 0.7290 0.7290 0.7280
10.572000 0.7280 0.7280 0.7280 0.7290 0.7290
10.605612 0.7290 0.7310 0.7380 0.7430 0.7440
10.639000 0.7460 0.7510 0.7530 0.7560 0.7630
10.672612 0.7680 0.7730 0.7770 0.7800 0.7820
10.707000 0.7830 0.7870 0.7900 0.7900 0.7920
10.740612 0.7920 0.7920 0.7900 0.7900 0.7880
10.774000 0.7870 0.7820 0.7750 0.7680 0.7650
10.807612 0.7600 0.7550 0.7480 0.7390 0.7340
10.841000 0.7330 0.7330 0.7310 0.7310 0.7330
10.874612 0.7360 0.7440 0.7500 0.7530 0.7560
10.908000 0.7630 0.7660 0.7680 0.7710 0.7750
10.941612 0.7770 0.7800 0.7820 0.7820 0.7830
10.975000 0.7830 0.7830 0.7850 0.7850 0.7870
11.008612 0.7870 0.7870 0.7880 0.7880 0.7900
11.043000 0.7900 0.7920 0.7950 0.7950 0.7980
11.076612 0.8020 0.8020 0.8040 0.8050 0.8070
11.110000 0.8100 0.8100 0.8120 0.8140 0.8150
11.143612 0.8170 0.8190 0.8190 0.8190 0.8190
11.177000 0.8200 0.8220 0.8220 0.8220 0.8220
11.210612 0.8220 0.8200 0.8200 0.8190 0.8150
11.244000 0.8120 0.8090 0.8070 0.8020 0.8000
11.277612 0.7950 0.7880 0.7830 0.7770 0.7680
11.311000 0.7630 0.7560 0.7530 0.7440 0.7380
11.344612 0.7310 0.7210 0.7070 0.7010 0.6790
11.378000 0.6550 0.6310 0.6080 0.5920 0.5650
11.411612 0.5500 0.5280 0.5080 0.4690 0.4450
11.446000 0.4200 0.4030 0.3850 0.3750 0.3640
11.479612 0.3580 0.3560 0.3490 0.3440 0.3410
11.513000 0.3390 0.3410 0.3420 0.3490 0.3590
11.546612 0.3950 0.4080 0.4290 0.4470 0.4640
11.580000 0.5030 0.5270 0.5470 0.5570 0.5740
11.613612 0.5920 0.5990 0.6130 0.6210 0.6300
11.647000 0.6350 0.6410 0.6480 0.6520 0.6550
11.680612 0.6580 0.6670 0.6700 0.6750 0.6820
11.714000 0.6870 0.6940 0.7020 0.7040 0.7120
11.747612 0.7170 0.7240 0.7310 0.7380 0.7410
11.782000 0.7410 0.7440 0.7480 0.7500 0.7510
11.815612 0.7530 0.7530 0.7550 0.7560 0.7580
11.849000 0.7600 0.7610 0.7630 0.7630 0.7650
11.882612 0.7650 0.7660 0.7680 0.7700 0.7700
11.916000 0.7710 0.7710 0.7710 0.7710 0.7730
11.949612 0.7750 0.7750 0.7750 0.7750 0.7750
11.983000 0.7750 0.7750 0.7750 0.7750 0.7750
12.016612 0.7730 0.7730 0.7710 0.7710 0.7700
12.050000 0.7700 0.7680 0.7660 0.7650 0.7630
12.083612 0.7580 0.7530 0.7510 0.7510 0.7440
12.118000 0.7410 0.7380 0.7330 0.7310 0.7290
12.151612 0.7280 0.7220 0.7190 0.7160 0.7120
12.185000 0.7090 0.7040 0.7040 0.7020 0.7020
12.218612 0.7010 0.6950 0.6940 0.6940 0.6920
12.252000 0.6900 0.6900 0.6890 0.6890 0.6890
12.285612 0.6890 0.6890 0.6890 0.6890 0.6890
12.319000 0.6890 0.6890 0.6870 0.6870 0.6870
12.352612 0.6870 0.6890 0.6900 0.6920 0.6940
12.386000 0.6950 0.6970 0.6990 0.6990 0.7010
12.419612 0.7020 0.7020 0.7040 0.7040 0.7060
12.454000 0.7060 0.7070 0.7070 0.7090 0.7090
12.487612 0.7110 0.7110 0.7110 0.7120 0.7120
12.521000 0.7140 0.7140 0.7140 0.7120 0.7120
12.554612 0.7110 0.7110 0.7090 0.7090 0.7090
12.588000 0.7070 0.7060 0.7040 0.7040 0.7020
12.621612 0.7010 0.6990 0.6970 0.6950 0.6900
12.655000 0.6890 0.6870 0.6850 0.6840 0.6840
12.688612 0.6800 0.6790 0.6750 0.6730 0.6720
12.722000 0.6680 0.6680 0.6670 0.6650 0.6630
12.755612 0.6620 0.6580 0.6570 0.6530 0.6520
12.789000 0.6500 0.6500 0.6450 0.6430 0.6400
12.822612 0.6350 0.6310 0.6280 0.6230 0.6210
12.857000 0.6180 0.6140 0.6130 0.6090 0.6090
12.890612 0.6040 0.6030 0.6010 0.5960 0.5890
12.924000 0.5810 0.5720 0.5650 0.5550 0.5500
12.957612 0.5470 0.5370 0.5320 0.5250 0.5210
12.991000 0.5150 0.5100 0.4980 0.4860 0.4720
13.024612 0.4670 0.4620 0.4560 0.4370 0.4270
13.058000 0.4100 0.3960 0.3850 0.3680 0.3540
13.091612 0.3360 0.3240 0.3090 0.2920 0.2750
13.125000 0.2580 0.2410 0.2220 0.2040 0.1950
13.158612 0.1870 0.1670 0.1480 0.1260 0.1190
13.193000 0.1040 0.0920 0.0790 0.0600 0.0450
13.226612 0.0300 0.0230 0.0210 0.0180 0.0150
13.260000 0.0150 0.0130 0.0110 0.0110 0.0100
13.293612 0.0080 0.0080 0.0060 0.0060 0.0060
13.327000 0.0060 0.0050 0.0050 0.0050 0.0050
13.360612 0.0030 0.0030 0.0030 0.0030 0.0050
13.394000 0.0050 0.0050 0.0050 0.0060 0.0060
13.427612 0.0080 0.0080 0.0100 0.0110 0.0130
13.461000 0.0180 0.0270 0.0430 0.0540 0.0690
13.494612 0.0840 0.0990 0.1140 0.1300 0.1430
13.529000 0.1580 0.1730 0.1890 0.2190 0.2340
13.562612 0.2510 0.2660 0.2830 0.3040 0.3200
13.596000 0.3420 0.3610 0.3690 0.3810 0.4050
13.629612 0.4230 0.4370 0.4440 0.4490 0.4540
13.663000 0.4620 0.4810 0.4890 0.4980 0.5000
13.696612 0.5030 0.5080 0.5130 0.5160 0.5210
13.730000 0.5270 0.5300 0.5350 0.5380 0.5450
13.763612 0.5480 0.5500 0.5500 0.5520 0.5540
13.797000 0.5550 0.5570 0.5590 0.5620 0.5620
13.830612 0.5640 0.5650 0.5670 0.5690 0.5690
13.865000 0.5700 0.5720 0.5740 0.5740 0.5740
13.898612 0.5760 0.5740 0.5740 0.5740 0.5740
13.932000 0.5760 0.5760 0.5760 0.5760 0.5760
13.965612 0.5760 0.5760 0.5760 0.5740 0.5740
13.999000 0.5740 0.5720 0.5700 0.5700 0.5690
14.032612 0.5670 0.5670 0.5650 0.5640 0.5620
14.066000 0.5600 0.5540 0.5520 0.5500 0.5480
14.099612 0.5430 0.5380 0.5350 0.5300 0.5270
14.133000 0.5210 0.5180 0.5150 0.5050 0.5010
14.166612 0.4980 0.4890 0.4740 0.4640 0.4540
14.200000 0.4390 0.4250 0.4170 0.3950 0.3810
14.233612 0.3680 0.3460 0.3270 0.3090 0.2950
14.268000 0.2850 0.2660 0.2480 0.2240 0.2170
14.301612 0.2020 0.1950 0.1890 0.1770 0.1620
14.335000 0.1460 0.1430 0.1300 0.1190 0.1060
14.368612 0.1010 0.0890 0.0820 0.0770 0.0650
14.402000 0.0540 0.0480 0.0400 0.0370 0.0350
14.435612 0.0320 0.0320 0.0300 0.0300 0.0300
14.469000 0.0300 0.0320 0.0350 0.0400 0.0430
14.502612 0.0550 0.0640 0.0700 0.0810 0.0940
14.536000 0.1140 0.1430 0.1500 0.1650 0.1750
14.569612 0.1940 0.2390 0.2650 0.2800 0.2930
14.604000 0.3040 0.3240 0.3320 0.3440 0.3530
14.637612 0.3610 0.3710 0.3760 0.3830 0.3930
14.671000 0.4020 0.4120 0.4170 0.4220 0.4270
14.704612 0.4300 0.4340 0.4390 0.4400 0.4440
14.738000 0.4490 0.4510 0.4540 0.4570 0.4610
14.771612 0.4640 0.4710 0.4740 0.4760 0.4790
14.805000 0.4830 0.4860 0.4890 0.4910 0.4940
14.838612 0.4980 0.4980 0.5000 0.5000 0.5010
14.872000 0.5010 0.5050 0.5080 0.5100 0.5110
14.905612 0.5110 0.5130 0.5150 0.5160 0.5180
14.940000 0.5200 0.5250 0.5280 0.5320 0.5350
14.973612 0.5370 0.5370 0.5370 0.5370 0.5350
15.007000 0.5330 0.5300 0.5280 0.5280 0.5270
15.040612 0.5270 0.5270 0.5250 0.5250 0.5250
15.074000 0.5250 0.5250 0.5250 0.5230 0.5230
15.107612 0.5230 0.5230 0.5230 0.5230 0.5230
15.141000 0.5230 0.5250 0.5230 0.5250 0.5250
15.174612 0.5250 0.5250 0.5250 0.5270 0.5270
15.208000 0.5270 0.5270 0.5270 0.5270 0.5270
15.241612 0.5270 0.5280 0.5280 0.5280 0.5300
15.275000 0.5300 0.5320 0.5320 0.5330 0.5330
15.308612 0.5330 0.5350 0.5350 0.5350 0.5370
15.343000 0.5370 0.5370 0.5370 0.5380 0.5380
15.376612 0.5400 0.5420 0.5420 0.5430 0.5420
##END=
