##TITLE=METHANE DISULFONIC ACID, DIPOTASSIUM SALT
##JCAMP-DX=4.24
##DATA TYPE=INFRARED SPECTRUM
##CLASS=COBLENTZ
##ORIGIN=DOW CHEMICAL COMPANY
##OWNER=COBLENTZ SOCIETY
Collection (C) 2018 copyright by the U.S. Secretary of Commerce
on behalf of the United States of America. All rights reserved.
##DATE=Not specified, most likely prior to 1970
##MOLFORM=C H2 K2 O6 S2
##SOURCE REFERENCE=COBLENTZ NO. 3233
##$NIST ID=B6003233
##$NIST SOURCE=COBLENTZ
##$NIST IMAGE=cob3233
##SPECTROMETER/DATA SYSTEM=Not specified, most likely a prism, grating, or hybrid spectrometer.
##STATE=SOLID (MINERAL OIL MULL)
##PATH LENGTH=
$$SPECTRAL CONTAMINATION DUE TO OIL AROUND 2900 CM^-^1
##SAMPLING PROCEDURE=TRANSMISSION
##RESOLUTION=4
##DATA PROCESSING=DIGITIZED BY NIST FROM HARD COPY
##XUNITS=MICROMETERS
##YUNITS=TRANSMITTANCE
##XFACTOR=1.000000
##YFACTOR=1
##DELTAX=000.006856
##FIRSTX=2.014
##LASTX=15.931
##FIRSTY=0.763
##MAXX=15.931
##MINX=2.014
##MAXY=0.88
##MINY=0.054
##NPOINTS=2031
##XYDATA=(X++(Y..Y))
2.014000 0.7630 0.7630 0.7630 0.7650 0.7650
2.048297 0.7650 0.7650 0.7650 0.7670 0.7670
2.082000 0.7680 0.7680 0.7680 0.7680 0.7680
2.116297 0.7680 0.7680 0.7700 0.7680 0.7680
2.151000 0.7680 0.7680 0.7680 0.7680 0.7680
2.185297 0.7680 0.7700 0.7700 0.7680 0.7680
2.219000 0.7670 0.7670 0.7650 0.7610 0.7600
2.253297 0.7600 0.7580 0.7560 0.7560 0.7560
2.288000 0.7550 0.7530 0.7530 0.7530 0.7530
2.322297 0.7530 0.7550 0.7560 0.7560 0.7560
2.357000 0.7580 0.7600 0.7610 0.7630 0.7650
2.391297 0.7650 0.7650 0.7670 0.7670 0.7680
2.425000 0.7680 0.7680 0.7680 0.7700 0.7700
2.459297 0.7700 0.7700 0.7720 0.7720 0.7750
2.494000 0.7780 0.7780 0.7780 0.7780 0.7780
2.528297 0.7780 0.7780 0.7780 0.7780 0.7780
2.562000 0.7780 0.7780 0.7780 0.7780 0.7780
2.596297 0.7800 0.7800 0.7820 0.7820 0.7820
2.631000 0.7840 0.7890 0.7890 0.7890 0.7890
2.665297 0.7850 0.7850 0.7840 0.7840 0.7850
2.699000 0.7850 0.7850 0.7850 0.7850 0.7850
2.733297 0.7840 0.7820 0.7800 0.7800 0.7780
2.768000 0.7780 0.7780 0.7750 0.7730 0.7730
2.802297 0.7720 0.7720 0.7700 0.7700 0.7680
2.836000 0.7680 0.7670 0.7650 0.7670 0.7650
2.870297 0.7650 0.7630 0.7610 0.7600 0.7600
2.905000 0.7560 0.7550 0.7550 0.7550 0.7550
2.939297 0.7560 0.7560 0.7580 0.7580 0.7600
2.974000 0.7600 0.7600 0.7600 0.7600 0.7600
3.008297 0.7610 0.7630 0.7630 0.7670 0.7680
3.042000 0.7680 0.7700 0.7720 0.7720 0.7720
3.076297 0.7720 0.7730 0.7730 0.7730 0.7730
3.111000 0.7730 0.7730 0.7730 0.7720 0.7720
3.145297 0.7700 0.7680 0.7680 0.7680 0.7670
3.179000 0.7670 0.7680 0.7680 0.7680 0.7680
3.213297 0.7670 0.7670 0.7650 0.7650 0.7650
3.248000 0.7630 0.7580 0.7510 0.7410 0.7290
3.282297 0.7150 0.6980 0.6760 0.6530 0.6240
3.316000 0.6050 0.6020 0.6000 0.5980 0.5830
3.350297 0.5560 0.4930 0.4500 0.3460 0.2630
3.385000 0.2380 0.1750 0.1270 0.1170 0.1120
3.419297 0.1120 0.1190 0.1340 0.1560 0.1920
3.453000 0.2150 0.2410 0.2530 0.2580 0.2600
3.487297 0.2610 0.2770 0.2970 0.3460 0.4040
3.522000 0.4670 0.4760 0.5250 0.7000 0.7290
3.556297 0.7410 0.7480 0.7530 0.7610 0.7670
3.591000 0.7750 0.7820 0.7890 0.7900 0.7940
3.625297 0.7950 0.7950 0.7990 0.7990 0.7990
3.659000 0.7950 0.7940 0.7940 0.7950 0.7950
3.693297 0.7990 0.8010 0.8010 0.8020 0.8020
3.728000 0.8040 0.8040 0.8040 0.8040 0.8040
3.762297 0.8040 0.8040 0.8060 0.8060 0.8070
3.796000 0.8070 0.8110 0.8110 0.8120 0.8120
3.830297 0.8120 0.8160 0.8190 0.8190 0.8190
3.865000 0.8190 0.8190 0.8210 0.8210 0.8230
3.899297 0.8230 0.8230 0.8230 0.8240 0.8280
3.933000 0.8280 0.8290 0.8290 0.8260 0.8260
3.967297 0.8280 0.8280 0.8290 0.8290 0.8310
4.002000 0.8310 0.8310 0.8310 0.8310 0.8310
4.036297 0.8310 0.8290 0.8290 0.8290 0.8290
4.071000 0.8290 0.8310 0.8310 0.8330 0.8330
4.105297 0.8330 0.8330 0.8330 0.8330 0.8330
4.139000 0.8330 0.8330 0.8330 0.8330 0.8330
4.173297 0.8330 0.8330 0.8330 0.8350 0.8350
4.208000 0.8350 0.8350 0.8330 0.8330 0.8330
4.242297 0.8330 0.8330 0.8330 0.8330 0.8330
4.276000 0.8330 0.8330 0.8330 0.8360 0.8400
4.310297 0.8400 0.8400 0.8400 0.8400 0.8350
4.345000 0.8330 0.8330 0.8330 0.8330 0.8330
4.379297 0.8330 0.8310 0.8310 0.8330 0.8350
4.413000 0.8380 0.8400 0.8400 0.8400 0.8400
4.447297 0.8400 0.8380 0.8360 0.8330 0.8330
4.482000 0.8310 0.8310 0.8290 0.8290 0.8290
4.516297 0.8310 0.8350 0.8400 0.8410 0.8480
4.550000 0.8500 0.8500 0.8500 0.8530 0.8580
4.584297 0.8580 0.8600 0.8600 0.8600 0.8600
4.619000 0.8580 0.8580 0.8580 0.8580 0.8570
4.653297 0.8580 0.8580 0.8580 0.8580 0.8600
4.688000 0.8620 0.8620 0.8620 0.8620 0.8620
4.722297 0.8620 0.8620 0.8620 0.8620 0.8620
4.756000 0.8620 0.8620 0.8620 0.8620 0.8600
4.790297 0.8600 0.8580 0.8580 0.8600 0.8620
4.825000 0.8620 0.8630 0.8630 0.8650 0.8650
4.859297 0.8690 0.8690 0.8690 0.8650 0.8650
4.893000 0.8650 0.8650 0.8630 0.8630 0.8690
4.927297 0.8690 0.8690 0.8690 0.8690 0.8690
4.962000 0.8690 0.8690 0.8690 0.8690 0.8690
4.996297 0.8690 0.8670 0.8670 0.8630 0.8650
5.030000 0.8650 0.8690 0.8700 0.8740 0.8740
5.064297 0.8740 0.8720 0.8700 0.8700 0.8720
5.099000 0.8740 0.8740 0.8740 0.8740 0.8740
5.133297 0.8740 0.8740 0.8740 0.8740 0.8740
5.167000 0.8740 0.8750 0.8750 0.8770 0.8770
5.201297 0.8790 0.8720 0.8720 0.8720 0.8720
5.236000 0.8720 0.8720 0.8720 0.8720 0.8720
5.270297 0.8720 0.8740 0.8740 0.8740 0.8750
5.305000 0.8750 0.8790 0.8790 0.8790 0.8770
5.339297 0.8750 0.8750 0.8750 0.8740 0.8740
5.373000 0.8770 0.8770 0.8770 0.8770 0.8770
5.407297 0.8740 0.8740 0.8750 0.8750 0.8770
5.442000 0.8770 0.8790 0.8790 0.8790 0.8790
5.476297 0.8790 0.8790 0.8790 0.8790 0.8790
5.510000 0.8790 0.8790 0.8790 0.8790 0.8790
5.544297 0.8800 0.8800 0.8800 0.8800 0.8800
5.579000 0.8790 0.8790 0.8790 0.8790 0.8770
5.613297 0.8790 0.8790 0.8790 0.8790 0.8790
5.647000 0.8790 0.8790 0.8790 0.8790 0.8790
5.681297 0.8790 0.8790 0.8790 0.8740 0.8740
5.716000 0.8720 0.8700 0.8700 0.8700 0.8690
5.750297 0.8690 0.8690 0.8690 0.8690 0.8690
5.785000 0.8700 0.8700 0.8720 0.8750 0.8750
5.819297 0.8720 0.8700 0.8700 0.8700 0.8700
5.853000 0.8720 0.8740 0.8740 0.8740 0.8720
5.887297 0.8720 0.8700 0.8720 0.8720 0.8740
5.922000 0.8750 0.8750 0.8750 0.8750 0.8750
5.956297 0.8750 0.8750 0.8750 0.8750 0.8720
5.990000 0.8720 0.8720 0.8720 0.8720 0.8720
6.024297 0.8720 0.8720 0.8720 0.8720 0.8720
6.059000 0.8720 0.8720 0.8740 0.8770 0.8790
6.093297 0.8790 0.8790 0.8750 0.8720 0.8700
6.127000 0.8700 0.8700 0.8700 0.8720 0.8720
6.161297 0.8720 0.8700 0.8690 0.8690 0.8690
6.196000 0.8700 0.8700 0.8700 0.8700 0.8700
6.230297 0.8690 0.8650 0.8630 0.8630 0.8620
6.264000 0.8620 0.8620 0.8620 0.8630 0.8690
6.298297 0.8690 0.8700 0.8700 0.8700 0.8700
6.333000 0.8700 0.8700 0.8700 0.8720 0.8720
6.367297 0.8740 0.8740 0.8740 0.8720 0.8700
6.402000 0.8700 0.8690 0.8670 0.8700 0.8700
6.436297 0.8720 0.8740 0.8740 0.8740 0.8720
6.470000 0.8700 0.8700 0.8690 0.8690 0.8700
6.504297 0.8720 0.8720 0.8740 0.8750 0.8740
6.539000 0.8700 0.8690 0.8690 0.8670 0.8670
6.573297 0.8670 0.8650 0.8630 0.8630 0.8670
6.607000 0.8690 0.8690 0.8670 0.8650 0.8620
6.641297 0.8600 0.8600 0.8580 0.8580 0.8580
6.676000 0.8550 0.8520 0.8500 0.8430 0.8400
6.710297 0.8310 0.8280 0.8210 0.8140 0.8040
6.744000 0.7950 0.7770 0.7560 0.7310 0.7070
6.778297 0.6800 0.6420 0.6250 0.5810 0.5450
6.813000 0.5250 0.5060 0.5000 0.4910 0.4890
6.847297 0.4880 0.4890 0.5000 0.5110 0.5270
6.881000 0.5400 0.5560 0.5740 0.5950 0.6130
6.915297 0.6320 0.6510 0.6680 0.6850 0.7040
6.950000 0.7210 0.7380 0.7550 0.7700 0.7820
6.984297 0.7900 0.7950 0.7990 0.8010 0.8040
7.019000 0.8090 0.8160 0.8160 0.8190 0.8190
7.053297 0.8190 0.8190 0.8210 0.8210 0.8210
7.087000 0.8210 0.8190 0.8190 0.8190 0.8190
7.121297 0.8180 0.8160 0.8120 0.8110 0.8090
7.156000 0.8020 0.8010 0.7900 0.7800 0.7720
7.190297 0.7530 0.7290 0.7020 0.6750 0.6460
7.224000 0.6240 0.6050 0.5950 0.5810 0.5730
7.258297 0.5710 0.5730 0.5810 0.5960 0.6150
7.293000 0.6360 0.6560 0.6710 0.6810 0.6950
7.327297 0.7050 0.7150 0.7260 0.7390 0.7500
7.361000 0.7580 0.7600 0.7610 0.7610 0.7610
7.395297 0.7610 0.7630 0.7630 0.7630 0.7610
7.430000 0.7600 0.7580 0.7580 0.7580 0.7580
7.464297 0.7560 0.7560 0.7560 0.7560 0.7580
7.499000 0.7580 0.7580 0.7580 0.7580 0.7550
7.533297 0.7530 0.7510 0.7500 0.7480 0.7460
7.567000 0.7440 0.7410 0.7390 0.7360 0.7340
7.601297 0.7290 0.7210 0.7070 0.6920 0.6920
7.636000 0.6980 0.7040 0.7050 0.7040 0.7000
7.670297 0.6930 0.6880 0.6830 0.6780 0.6730
7.704000 0.6700 0.6630 0.6590 0.6530 0.6490
7.738297 0.6420 0.6320 0.6220 0.6120 0.6020
7.773000 0.5900 0.5740 0.5570 0.5350 0.5080
7.807297 0.4760 0.4250 0.3820 0.3650 0.3260
7.841000 0.2870 0.2610 0.2410 0.2340 0.2340
7.875297 0.2430 0.2680 0.2870 0.3040 0.3120
7.910000 0.3190 0.3190 0.3140 0.3040 0.2920
7.944297 0.2770 0.2610 0.2460 0.2290 0.2150
7.978000 0.2000 0.1880 0.1750 0.1610 0.1460
8.012297 0.1320 0.1200 0.1080 0.1020 0.0980
8.047000 0.0910 0.0880 0.0850 0.0830 0.0810
8.081297 0.0740 0.0730 0.0710 0.0690 0.0690
8.116000 0.0680 0.0660 0.0660 0.0640 0.0620
8.150297 0.0610 0.0590 0.0590 0.0560 0.0560
8.184000 0.0540 0.0540 0.0560 0.0590 0.0620
8.218297 0.0690 0.0740 0.0810 0.0880 0.0980
8.253000 0.1070 0.1130 0.1190 0.1220 0.1220
8.287297 0.1240 0.1250 0.1290 0.1360 0.1490
8.321000 0.1680 0.1900 0.2120 0.2380 0.2630
8.355297 0.2870 0.3110 0.3330 0.3530 0.3720
8.390000 0.3910 0.4090 0.4310 0.4540 0.4740
8.424297 0.4930 0.5100 0.5250 0.5390 0.5510
8.458000 0.5610 0.5710 0.5810 0.5900 0.6000
8.492297 0.6080 0.6150 0.6240 0.6320 0.6420
8.527000 0.6490 0.6530 0.6590 0.6660 0.6710
8.561297 0.6780 0.6810 0.6880 0.6920 0.6980
8.595000 0.7000 0.7070 0.7090 0.7120 0.7190
8.629297 0.7210 0.7240 0.7290 0.7320 0.7380
8.664000 0.7390 0.7390 0.7430 0.7500 0.7510
8.698297 0.7530 0.7580 0.7580 0.7610 0.7630
8.733000 0.7630 0.7670 0.7670 0.7680 0.7680
8.767297 0.7680 0.7680 0.7680 0.7700 0.7700
8.801000 0.7700 0.7720 0.7720 0.7720 0.7720
8.835297 0.7720 0.7700 0.7680 0.7650 0.7610
8.870000 0.7600 0.7610 0.7680 0.7730 0.7780
8.904297 0.7820 0.7890 0.7950 0.7990 0.8010
8.938000 0.8020 0.8020 0.8020 0.8020 0.8040
8.972297 0.8020 0.8020 0.8020 0.8020 0.8020
9.007000 0.8010 0.8010 0.7990 0.8010 0.8010
9.041297 0.7990 0.7990 0.7990 0.7970 0.7970
9.075000 0.7990 0.7990 0.7990 0.7990 0.7990
9.109297 0.7970 0.7970 0.7950 0.7950 0.7940
9.144000 0.7920 0.7890 0.7890 0.7850 0.7820
9.178297 0.7800 0.7780 0.7780 0.7750 0.7720
9.213000 0.7680 0.7580 0.7500 0.7430 0.7310
9.247297 0.7140 0.6850 0.6510 0.6220 0.5980
9.281000 0.5740 0.5560 0.5370 0.5250 0.5170
9.315297 0.5110 0.5100 0.5110 0.5180 0.5250
9.350000 0.5320 0.5420 0.5520 0.5620 0.5760
9.384297 0.5950 0.6130 0.6360 0.6610 0.6870
9.418000 0.7120 0.7320 0.7410 0.7510 0.7550
9.452297 0.7610 0.7630 0.7650 0.7650 0.7630
9.487000 0.7600 0.7600 0.7580 0.7580 0.7530
9.521297 0.7500 0.7430 0.7380 0.7310 0.7220
9.555000 0.7190 0.7120 0.7050 0.6950 0.6850
9.589297 0.6800 0.6760 0.6710 0.6660 0.6560
9.624000 0.6460 0.6440 0.6300 0.6190 0.6050
9.658297 0.5910 0.5740 0.5540 0.5270 0.5010
9.692000 0.4740 0.4450 0.4110 0.3910 0.3720
9.726297 0.3210 0.2920 0.2610 0.2320 0.2070
9.761000 0.1870 0.1680 0.1530 0.1410 0.1320
9.795297 0.1240 0.1220 0.1220 0.1240 0.1440
9.830000 0.1660 0.1930 0.2290 0.2700 0.3190
9.864297 0.3720 0.4210 0.4540 0.4980 0.5270
9.898000 0.5510 0.5760 0.6020 0.6250 0.6530
9.932297 0.6750 0.6950 0.7090 0.7190 0.7290
9.967000 0.7380 0.7390 0.7430 0.7480 0.7480
10.001297 0.7480 0.7480 0.7460 0.7440 0.7430
10.035000 0.7410 0.7410 0.7390 0.7390 0.7390
10.069297 0.7410 0.7480 0.7500 0.7580 0.7600
10.104000 0.7680 0.7780 0.7820 0.7900 0.8010
10.138297 0.8110 0.8210 0.8280 0.8310 0.8350
10.172000 0.8380 0.8380 0.8400 0.8400 0.8410
10.206297 0.8460 0.8480 0.8500 0.8500 0.8500
10.241000 0.8520 0.8520 0.8530 0.8520 0.8530
10.275297 0.8550 0.8570 0.8580 0.8580 0.8600
10.310000 0.8600 0.8600 0.8600 0.8620 0.8620
10.344297 0.8620 0.8620 0.8620 0.8630 0.8620
10.378000 0.8630 0.8630 0.8630 0.8650 0.8650
10.412297 0.8690 0.8690 0.8670 0.8670 0.8690
10.447000 0.8690 0.8690 0.8690 0.8690 0.8690
10.481297 0.8690 0.8690 0.8690 0.8690 0.8690
10.515000 0.8690 0.8690 0.8690 0.8690 0.8670
10.549297 0.8670 0.8670 0.8670 0.8670 0.8670
10.584000 0.8670 0.8670 0.8670 0.8670 0.8670
10.618297 0.8650 0.8650 0.8650 0.8650 0.8630
10.652000 0.8630 0.8630 0.8630 0.8630 0.8620
10.686297 0.8620 0.8620 0.8620 0.8620 0.8620
10.721000 0.8620 0.8620 0.8620 0.8620 0.8620
10.755297 0.8620 0.8630 0.8630 0.8650 0.8650
10.789000 0.8650 0.8670 0.8670 0.8670 0.8670
10.823297 0.8670 0.8670 0.8670 0.8670 0.8650
10.858000 0.8670 0.8670 0.8670 0.8670 0.8670
10.892297 0.8670 0.8670 0.8670 0.8670 0.8670
10.927000 0.8670 0.8670 0.8670 0.8690 0.8690
10.961297 0.8690 0.8690 0.8690 0.8690 0.8690
10.995000 0.8690 0.8690 0.8690 0.8690 0.8690
11.029297 0.8690 0.8690 0.8690 0.8690 0.8690
11.064000 0.8690 0.8690 0.8690 0.8690 0.8690
11.098297 0.8690 0.8690 0.8670 0.8670 0.8670
11.132000 0.8670 0.8670 0.8670 0.8670 0.8670
11.166297 0.8670 0.8670 0.8670 0.8670 0.8650
11.201000 0.8650 0.8650 0.8650 0.8650 0.8650
11.235297 0.8650 0.8650 0.8650 0.8650 0.8650
11.269000 0.8650 0.8650 0.8670 0.8670 0.8670
11.303297 0.8670 0.8670 0.8670 0.8690 0.8690
11.338000 0.8690 0.8690 0.8690 0.8690 0.8690
11.372297 0.8690 0.8690 0.8700 0.8700 0.8700
11.406000 0.8700 0.8700 0.8700 0.8700 0.8700
11.440297 0.8700 0.8700 0.8700 0.8700 0.8700
11.475000 0.8700 0.8700 0.8700 0.8700 0.8700
11.509297 0.8700 0.8700 0.8700 0.8700 0.8690
11.544000 0.8690 0.8690 0.8670 0.8670 0.8670
11.578297 0.8670 0.8670 0.8670 0.8670 0.8670
11.612000 0.8670 0.8670 0.8670 0.8650 0.8670
11.646297 0.8650 0.8650 0.8630 0.8630 0.8620
11.681000 0.8620 0.8620 0.8600 0.8600 0.8600
11.715297 0.8600 0.8600 0.8600 0.8600 0.8600
11.749000 0.8600 0.8600 0.8620 0.8620 0.8600
11.783297 0.8620 0.8620 0.8620 0.8630 0.8630
11.818000 0.8630 0.8630 0.8620 0.8620 0.8620
11.852297 0.8600 0.8600 0.8600 0.8600 0.8600
11.886000 0.8600 0.8580 0.8580 0.8580 0.8580
11.920297 0.8570 0.8570 0.8570 0.8570 0.8570
11.955000 0.8530 0.8520 0.8480 0.8480 0.8460
11.989297 0.8400 0.8380 0.8330 0.8310 0.8260
12.024000 0.8210 0.8190 0.8160 0.8110 0.8090
12.058297 0.8070 0.8040 0.8010 0.7990 0.7970
12.092000 0.7940 0.7870 0.7820 0.7780 0.7770
12.126297 0.7680 0.7610 0.7530 0.7480 0.7380
12.161000 0.7270 0.7170 0.7000 0.6880 0.6750
12.195297 0.6540 0.6470 0.6250 0.6000 0.5790
12.229000 0.5540 0.5450 0.5250 0.5010 0.4840
12.263297 0.4590 0.4400 0.4200 0.3990 0.3750
12.298000 0.3580 0.3360 0.3210 0.3060 0.2940
12.332297 0.2870 0.2800 0.2800 0.2800 0.2820
12.366000 0.2900 0.3020 0.3210 0.3360 0.3520
12.400297 0.3800 0.4030 0.4200 0.4400 0.4640
12.435000 0.4860 0.5060 0.5200 0.5390 0.5510
12.469297 0.5640 0.5780 0.5880 0.6000 0.6070
12.503000 0.6190 0.6290 0.6440 0.6510 0.6590
12.537297 0.6680 0.6780 0.6870 0.6970 0.7000
12.572000 0.7090 0.7170 0.7210 0.7270 0.7310
12.606297 0.7380 0.7460 0.7510 0.7550 0.7580
12.641000 0.7580 0.7610 0.7650 0.7670 0.7680
12.675297 0.7700 0.7730 0.7750 0.7770 0.7780
12.709000 0.7780 0.7780 0.7780 0.7780 0.7800
12.743297 0.7800 0.7800 0.7780 0.7780 0.7770
12.778000 0.7750 0.7700 0.7670 0.7670 0.7600
12.812297 0.7530 0.7440 0.7260 0.7240 0.7140
12.846000 0.6980 0.6870 0.6700 0.6510 0.6390
12.880297 0.6190 0.6080 0.5980 0.5880 0.5780
12.915000 0.5760 0.5740 0.5740 0.5780 0.5860
12.949297 0.5980 0.6100 0.6270 0.6490 0.6730
12.983000 0.6930 0.7090 0.7170 0.7260 0.7380
13.017297 0.7550 0.7630 0.7700 0.7750 0.7770
13.052000 0.7780 0.7840 0.7870 0.7890 0.7950
13.086297 0.7970 0.7970 0.7970 0.7990 0.8010
13.120000 0.8020 0.8040 0.8060 0.8060 0.8060
13.154297 0.8060 0.8070 0.8070 0.8070 0.8070
13.189000 0.8090 0.8090 0.8090 0.8090 0.8090
13.223297 0.8090 0.8090 0.8090 0.8090 0.8090
13.258000 0.8090 0.8090 0.8090 0.8090 0.8090
13.292297 0.8090 0.8090 0.8070 0.8070 0.8070
13.326000 0.8070 0.8060 0.8060 0.8060 0.8040
13.360297 0.8040 0.8060 0.8040 0.8020 0.8010
13.395000 0.8010 0.7990 0.7990 0.7990 0.7970
13.429297 0.7970 0.7950 0.7950 0.7950 0.7950
13.463000 0.7940 0.7940 0.7920 0.7920 0.7900
13.497297 0.7900 0.7890 0.7870 0.7850 0.7850
13.532000 0.7850 0.7850 0.7840 0.7820 0.7800
13.566297 0.7800 0.7780 0.7780 0.7780 0.7780
13.600000 0.7770 0.7770 0.7750 0.7750 0.7750
13.634297 0.7730 0.7720 0.7700 0.7680 0.7680
13.669000 0.7680 0.7670 0.7670 0.7670 0.7650
13.703297 0.7650 0.7610 0.7600 0.7600 0.7580
13.738000 0.7580 0.7560 0.7560 0.7550 0.7550
13.772297 0.7510 0.7510 0.7500 0.7480 0.7480
13.806000 0.7460 0.7460 0.7440 0.7440 0.7440
13.840297 0.7440 0.7430 0.7430 0.7430 0.7410
13.875000 0.7390 0.7390 0.7390 0.7390 0.7390
13.909297 0.7390 0.7390 0.7390 0.7410 0.7410
13.943000 0.7410 0.7430 0.7430 0.7430 0.7440
13.977297 0.7460 0.7460 0.7460 0.7460 0.7460
14.012000 0.7460 0.7440 0.7440 0.7410 0.7410
14.046297 0.7390 0.7390 0.7390 0.7380 0.7380
14.080000 0.7380 0.7380 0.7380 0.7380 0.7360
14.114297 0.7360 0.7320 0.7310 0.7310 0.7290
14.149000 0.7290 0.7270 0.7270 0.7260 0.7260
14.183297 0.7260 0.7240 0.7220 0.7210 0.7210
14.217000 0.7190 0.7150 0.7150 0.7150 0.7120
14.251297 0.7100 0.7070 0.7070 0.7050 0.7040
14.286000 0.7020 0.6980 0.6970 0.6950 0.6930
14.320297 0.6930 0.6900 0.6870 0.6850 0.6850
14.355000 0.6810 0.6780 0.6760 0.6750 0.6710
14.389297 0.6700 0.6680 0.6660 0.6640 0.6610
14.423000 0.6590 0.6580 0.6580 0.6560 0.6560
14.457297 0.6540 0.6530 0.6510 0.6490 0.6490
14.492000 0.6490 0.6490 0.6490 0.6490 0.6490
14.526297 0.6490 0.6490 0.6490 0.6490 0.6490
14.560000 0.6490 0.6490 0.6490 0.6470 0.6470
14.594297 0.6470 0.6470 0.6470 0.6460 0.6440
14.629000 0.6440 0.6420 0.6410 0.6410 0.6390
14.663297 0.6390 0.6390 0.6370 0.6360 0.6360
14.697000 0.6360 0.6360 0.6320 0.6300 0.6290
14.731297 0.6270 0.6250 0.6250 0.6250 0.6220
14.766000 0.6200 0.6200 0.6190 0.6170 0.6170
14.800297 0.6150 0.6130 0.6120 0.6100 0.6100
14.834000 0.6100 0.6080 0.6080 0.6070 0.6050
14.868297 0.6050 0.6000 0.6000 0.5980 0.5960
14.903000 0.5950 0.5930 0.5880 0.5860 0.5850
14.937297 0.5810 0.5790 0.5790 0.5780 0.5780
14.972000 0.5760 0.5760 0.5760 0.5760 0.5740
15.006297 0.5730 0.5710 0.5690 0.5680 0.5660
15.040000 0.5660 0.5610 0.5590 0.5590 0.5570
15.074297 0.5570 0.5560 0.5560 0.5560 0.5510
15.109000 0.5510 0.5490 0.5490 0.5490 0.5470
15.143297 0.5470 0.5450 0.5450 0.5420 0.5400
15.177000 0.5400 0.5390 0.5390 0.5390 0.5390
15.211297 0.5370 0.5350 0.5320 0.5300 0.5280
15.246000 0.5280 0.5270 0.5270 0.5250 0.5220
15.280297 0.5200 0.5180 0.5180 0.5170 0.5150
15.314000 0.5130 0.5100 0.5080 0.5080 0.5060
15.348297 0.5060 0.5050 0.5000 0.5000 0.4980
15.383000 0.4980 0.4960 0.4940 0.4910 0.4880
15.417297 0.4840 0.4820 0.4810 0.4790 0.4770
15.452000 0.4760 0.4760 0.4710 0.4670 0.4650
15.486297 0.4650 0.4620 0.4590 0.4570 0.4570
15.520000 0.4520 0.4500 0.4470 0.4470 0.4470
15.554297 0.4420 0.4400 0.4380 0.4370 0.4350
15.589000 0.4330 0.4310 0.4300 0.4260 0.4210
15.623297 0.4180 0.4160 0.4160 0.4090 0.4080
15.657000 0.4060 0.3990 0.3970 0.3940 0.3870
15.691297 0.3860 0.3790 0.3770 0.3700 0.3670
15.726000 0.3670 0.3600 0.3570 0.3570 0.3520
15.760297 0.3480 0.3480 0.3460 0.3460 0.3450
15.794000 0.3430 0.3430 0.3410 0.3400 0.3400
15.828297 0.3400 0.3400 0.3400 0.3380 0.3380
15.863000 0.3380 0.3360 0.3360 0.3360 0.3350
15.897297 0.3360 0.3380 0.3400 0.3460 0.3480
15.931000 0.3500
##END=
