##TITLE=Formic acid, (phenylazo)thio-, 2-phenyl hydrazide, copper derivative
##JCAMP-DX=4.24
##DATA TYPE=INFRARED SPECTRUM
##CLASS=COBLENTZ III
##ORIGIN=DOW CHEMICAL COMPANY
##OWNER=COBLENTZ SOC.
Collection (C) 2018 copyright by the U.S. Secretary of Commerce
on behalf of the United States of America. All rights reserved.
##DATE=1966/01/05
##NAMES=bis[4-(2-([(E)-phenyldiazenyl]carbothioyl)hydrazino)phenyl]copper
##MOLFORM=C26 H22 Cu N8 S2
##SOURCE REFERENCE=COBLENTZ NO. 08640
##$NIST ID=B6008640
##$NIST SOURCE=COBLENTZ
##$NIST IMAGE=cob8640
##SPECTROMETER/DATA SYSTEM=DOW KBr FOREPRISM-GRATING
##INSTRUMENT PARAMETERS=BLAZED AT 3.5, 12.0, 20.0 MICRON AND CHANGED AT 5.0, 7.5, 14.9 MICRON
##STATE=SOLID (SPLIT MULL), FLUOROLUBE FOR 3800-1330 CM^-^1, NUJOL FOR 1330-460 CM^-^1
##SAMPLING PROCEDURE=TRANSMISSION
##RESOLUTION=2
##DATA PROCESSING=DIGITIZED BY COBLENTZ SOCIETY (BATCH I) FROM HARD COPY
##XUNITS=1/CM
##YUNITS=TRANSMITTANCE
##XLABEL=Wavenumbers (cm-1)
##YLABEL=% Transmission
##XFACTOR=1
##YFACTOR=1
##DELTAX=1
##FIRSTX=460
##LASTX=3800
##FIRSTY=0.7442
##MAXX=3800
##MINX=460
##MAXY=0.8951
##MINY=0.134
##NPOINTS=3341
##XYDATA=(X++(Y..Y))
460.000000 0.7442 0.7454 0.7465 0.7478 0.7490
465.000000 0.7521 0.7553 0.7576 0.7600 0.7615
470.000000 0.7615 0.7615 0.7631 0.7603 0.7593
475.000000 0.7584 0.7575 0.7562 0.7548 0.7533
480.000000 0.7518 0.7501 0.7480 0.7443 0.7405
485.000000 0.7368 0.7330 0.7276 0.7224 0.7171
490.000000 0.7107 0.6997 0.6887 0.6787 0.6687
495.000000 0.6538 0.6385 0.6138 0.5846 0.5839
500.000000 0.5840 0.6227 0.6468 0.6594 0.6593
505.000000 0.6592 0.6572 0.6549 0.6517 0.6478
510.000000 0.6447 0.6431 0.6442 0.6721 0.6903
515.000000 0.6951 0.6949 0.6944 0.6930 0.6912
520.000000 0.6824 0.6572 0.6522 0.6517 0.6518
525.000000 0.6519 0.6542 0.6585 0.6630 0.6675
530.000000 0.6721 0.6805 0.6895 0.7007 0.7124
535.000000 0.7218 0.7288 0.7301 0.7310 0.7315
540.000000 0.7319 0.7331 0.7353 0.7375 0.7397
545.000000 0.7412 0.7428 0.7439 0.7440 0.7440
550.000000 0.7441 0.7428 0.7415 0.7403 0.7391
555.000000 0.7378 0.7361 0.7336 0.7310 0.7258
560.000000 0.7169 0.7118 0.7101 0.7090 0.7124
565.000000 0.7343 0.7450 0.7508 0.7531 0.7539
570.000000 0.7534 0.7528 0.7515 0.7411 0.7308
575.000000 0.7258 0.7258 0.7418 0.7608 0.7757
580.000000 0.7868 0.7914 0.7917 0.7918 0.7918
585.000000 0.7918 0.7954 0.7915 0.7891 0.7818
590.000000 0.7721 0.7612 0.7489 0.7358 0.7311
595.000000 0.7305 0.7333 0.7369 0.7372 0.7367
600.000000 0.7297 0.6983 0.6669 0.6586 0.6593
605.000000 0.6662 0.6764 0.6854 0.6958 0.7103
610.000000 0.7142 0.7168 0.7132 0.7110 0.7087
615.000000 0.7060 0.7034 0.6951 0.6785 0.6618
620.000000 0.6591 0.6838 0.7081 0.7325 0.7568
625.000000 0.7826 0.8006 0.8081 0.8121 0.8156
630.000000 0.8187 0.8205 0.8224 0.8235 0.8241
635.000000 0.8247 0.8253 0.8259 0.8263 0.8267
640.000000 0.8270 0.8274 0.8277 0.8280 0.8281
645.000000 0.8282 0.8266 0.8278 0.8278 0.8271
650.000000 0.8260 0.8248 0.8233 0.8210 0.8187
655.000000 0.8164 0.8137 0.8100 0.8062 0.8025
660.000000 0.7989 0.7953 0.7915 0.7878 0.7843
665.000000 0.7806 0.7758 0.7708 0.7654 0.7580
670.000000 0.7505 0.7431 0.7351 0.7304 0.7294
675.000000 0.7188 0.6905 0.6487 0.6091 0.5694
680.000000 0.5298 0.4903 0.4730 0.4429 0.4052
685.000000 0.3674 0.3674 0.3688 0.4254 0.4599
690.000000 0.4945 0.5291 0.5637 0.5983 0.6329
695.000000 0.6675 0.7021 0.7318 0.7511 0.7704
700.000000 0.7855 0.7935 0.7958 0.7969 0.7972
705.000000 0.7978 0.7975 0.7961 0.7937 0.7891
710.000000 0.7683 0.7241 0.6799 0.6357 0.6183
715.000000 0.6191 0.6550 0.6908 0.7268 0.7498
720.000000 0.7549 0.7558 0.7558 0.7558 0.7557
725.000000 0.7554 0.7561 0.7549 0.7536 0.7507
730.000000 0.7433 0.7272 0.7145 0.7033 0.6925
735.000000 0.6819 0.6796 0.6772 0.6760 0.6746
740.000000 0.6694 0.6492 0.5837 0.5625 0.5480
745.000000 0.5335 0.4980 0.4608 0.4237 0.3864
750.000000 0.3493 0.3462 0.3477 0.4038 0.4471
755.000000 0.4904 0.4962 0.4962 0.4906 0.4850
760.000000 0.4794 0.4737 0.4686 0.4686 0.4671
765.000000 0.4895 0.5062 0.5229 0.5373 0.5512
770.000000 0.5665 0.5837 0.5939 0.6041 0.6312
775.000000 0.6464 0.6591 0.6692 0.6761 0.6818
780.000000 0.6872 0.6928 0.6975 0.7014 0.7053
785.000000 0.7092 0.7217 0.8557 0.8607 0.8640
790.000000 0.8656 0.8671 0.8687 0.8703 0.8717
795.000000 0.8728 0.8740 0.8749 0.8754 0.8758
800.000000 0.8763 0.8768 0.8773 0.8775 0.8778
805.000000 0.8790 0.8812 0.8835 0.8859 0.8828
810.000000 0.8813 0.8778 0.8743 0.8713 0.8699
815.000000 0.8686 0.8688 0.8689 0.8690 0.8690
820.000000 0.8691 0.8686 0.8666 0.8636 0.8606
825.000000 0.8574 0.8533 0.8492 0.8425 0.8425
830.000000 0.8430 0.8439 0.8460 0.8491 0.8525
835.000000 0.8556 0.8587 0.8618 0.8652 0.8687
840.000000 0.8721 0.8735 0.8749 0.8762 0.8775
845.000000 0.8789 0.8792 0.8795 0.8798 0.8800
850.000000 0.8787 0.8778 0.8768 0.8734 0.8688
855.000000 0.8639 0.8590 0.8454 0.8250 0.8223
860.000000 0.8314 0.8531 0.8742 0.8839 0.8900
865.000000 0.8944 0.8951 0.8934 0.8928 0.8905
870.000000 0.8882 0.8840 0.8791 0.8741 0.8713
875.000000 0.8695 0.8693 0.8691 0.8689 0.8680
880.000000 0.8671 0.8661 0.8632 0.8598 0.8556
885.000000 0.8511 0.8461 0.8394 0.8323 0.8004
890.000000 0.7830 0.7832 0.8584 0.8604 0.8608
895.000000 0.8608 0.8608 0.8628 0.8592 0.8502
900.000000 0.8375 0.8377 0.8390 0.8412 0.8435
905.000000 0.8452 0.8467 0.8480 0.8492 0.8504
910.000000 0.8508 0.8510 0.8501 0.8492 0.8453
915.000000 0.8414 0.8367 0.8315 0.8260 0.8187
920.000000 0.8114 0.8041 0.7835 0.7603 0.7397
925.000000 0.7191 0.7161 0.7405 0.7617 0.7828
930.000000 0.8041 0.8253 0.8475 0.8603 0.8721
935.000000 0.8793 0.8849 0.8865 0.8878 0.8891
940.000000 0.8892 0.8892 0.8889 0.8886 0.8905
945.000000 0.8880 0.8875 0.8870 0.8865 0.8861
950.000000 0.8856 0.8851 0.8824 0.8794 0.8739
955.000000 0.8678 0.8625 0.8615 0.8623 0.8661
960.000000 0.8707 0.8735 0.8748 0.8748 0.8748
965.000000 0.8745 0.8741 0.8737 0.8720 0.8703
970.000000 0.8678 0.8684 0.8689 0.8701 0.8717
975.000000 0.8728 0.8728 0.8728 0.8727 0.8724
980.000000 0.8714 0.8702 0.8670 0.8633 0.8585
985.000000 0.8533 0.8468 0.8401 0.8324 0.8246
990.000000 0.8178 0.8133 0.8111 0.8086 0.7983
995.000000 0.7941 0.7934 0.7930 0.7942 0.7958
1000.000000 0.7989 0.8030 0.8126 0.8303 0.8389
1005.000000 0.8425 0.8440 0.8454 0.8456 0.8487
1010.000000 0.8449 0.8435 0.8386 0.8330 0.8275
1015.000000 0.8221 0.8158 0.8094 0.8030 0.7965
1020.000000 0.7900 0.7835 0.7489 0.7519 0.7491
1025.000000 0.7497 0.7519 0.7561 0.7617 0.7688
1030.000000 0.7758 0.7811 0.7815 0.7815 0.7814
1035.000000 0.7812 0.7838 0.7797 0.7789 0.7769
1040.000000 0.7748 0.7725 0.7698 0.7680 0.7665
1045.000000 0.7650 0.7637 0.7628 0.7621 0.7597
1050.000000 0.7565 0.7514 0.7456 0.7385 0.7311
1055.000000 0.7238 0.7162 0.7089 0.7014 0.6939
1060.000000 0.6862 0.6772 0.6660 0.6547 0.6448
1065.000000 0.6359 0.6269 0.6157 0.5986 0.5609
1070.000000 0.5124 0.4787 0.4755 0.4774 0.4780
1075.000000 0.4975 0.5227 0.5478 0.5730 0.5860
1080.000000 0.5893 0.5876 0.5881 0.5864 0.5772
1085.000000 0.5685 0.5599 0.5512 0.5426 0.5339
1090.000000 0.5253 0.5166 0.5080 0.4993 0.4916
1095.000000 0.4862 0.4810 0.4752 0.4689 0.4631
1100.000000 0.4615 0.4609 0.4612 0.4615 0.4615
1105.000000 0.4615 0.4605 0.4584 0.4562 0.4529
1110.000000 0.4492 0.4449 0.4405 0.4338 0.4271
1115.000000 0.4198 0.4124 0.4041 0.3945 0.3849
1120.000000 0.3762 0.3678 0.3593 0.3512 0.3430
1125.000000 0.3368 0.3312 0.3259 0.3224 0.3189
1130.000000 0.3154 0.3119 0.3083 0.3046 0.3013
1135.000000 0.2990 0.2966 0.2942 0.2904 0.2853
1140.000000 0.2803 0.2723 0.2621 0.2562 0.2508
1145.000000 0.2476 0.2477 0.2453 0.2506 0.2524
1150.000000 0.2546 0.2582 0.2630 0.2727 0.2852
1155.000000 0.2983 0.3112 0.3241 0.3414 0.3766
1160.000000 0.4009 0.4068 0.4127 0.4133 0.4175
1165.000000 0.4126 0.4115 0.4004 0.3798 0.3593
1170.000000 0.3388 0.3183 0.3180 0.3192 0.3200
1175.000000 0.3307 0.3314 0.3318 0.3321 0.3382
1180.000000 0.3459 0.3538 0.3568 0.3564 0.3576
1185.000000 0.3529 0.3500 0.3445 0.3380 0.3264
1190.000000 0.3088 0.2997 0.2912 0.2865 0.2824
1195.000000 0.2800 0.2771 0.2684 0.2587 0.2471
1200.000000 0.2325 0.2208 0.2107 0.1994 0.1993
1205.000000 0.1994 0.1994 0.1985 0.1976 0.1958
1210.000000 0.1921 0.1879 0.1815 0.1751 0.1532
1215.000000 0.1358 0.1340 0.1364 0.1405 0.1488
1220.000000 0.1551 0.1569 0.1562 0.1522 0.1474
1225.000000 0.1474 0.1474 0.1474 0.1474 0.1673
1230.000000 0.1794 0.2029 0.2285 0.2542 0.2798
1235.000000 0.3054 0.3310 0.3566 0.3823 0.4079
1240.000000 0.4286 0.4428 0.4535 0.4627 0.4666
1245.000000 0.4700 0.4733 0.4765 0.4798 0.4831
1250.000000 0.4867 0.4903 0.4935 0.4959 0.4983
1255.000000 0.4992 0.4996 0.5000 0.5004 0.5007
1260.000000 0.5010 0.5012 0.5015 0.5018 0.5027
1265.000000 0.5058 0.5093 0.5135 0.5176 0.5191
1270.000000 0.5200 0.5210 0.5220 0.5233 0.5249
1275.000000 0.5275 0.5317 0.5324 0.5330 0.5316
1280.000000 0.5252 0.5183 0.5062 0.5016 0.4978
1285.000000 0.4978 0.4978 0.5145 0.5233 0.5318
1290.000000 0.5391 0.5435 0.5469 0.5475 0.5462
1295.000000 0.5480 0.5432 0.5339 0.5244 0.5149
1300.000000 0.5054 0.4959 0.4864 0.4769 0.4674
1305.000000 0.4579 0.4484 0.4399 0.4302 0.4181
1310.000000 0.4095 0.4010 0.3878 0.3834 0.3806
1315.000000 0.3770 0.3732 0.3670 0.3589 0.3473
1320.000000 0.3458 0.3445 0.3450 0.3477 0.3530
1325.000000 0.3589 0.3648 0.3692 0.3722 0.3722
1330.000000 0.3734 0.3696 0.3604 0.3514 0.3412
1335.000000 0.3149 0.2997 0.2850 0.2725 0.2662
1340.000000 0.2646 0.2637 0.2661 0.2677 0.2711
1345.000000 0.2805 0.2894 0.2967 0.3044 0.3124
1350.000000 0.3236 0.3473 0.4082 0.4221 0.4335
1355.000000 0.4403 0.4453 0.4481 0.4509 0.4537
1360.000000 0.4562 0.4607 0.4678 0.4916 0.5450
1365.000000 0.5662 0.5814 0.5959 0.6312 0.6525
1370.000000 0.6721 0.6801 0.6819 0.6840 0.6857
1375.000000 0.6871 0.6887 0.6901 0.6914 0.6925
1380.000000 0.6941 0.6965 0.7021 0.7358 0.7444
1385.000000 0.7496 0.7547 0.7582 0.7614 0.7646
1390.000000 0.7678 0.7698 0.7714 0.7742 0.7728
1395.000000 0.7734 0.7738 0.7741 0.7744 0.7746
1400.000000 0.7734 0.7721 0.7708 0.7696 0.7684
1405.000000 0.7668 0.7649 0.7628 0.7607 0.7586
1410.000000 0.7565 0.7544 0.7521 0.7499 0.7475
1415.000000 0.7451 0.7428 0.7405 0.7378 0.7344
1420.000000 0.7310 0.7275 0.7241 0.7203 0.7160
1425.000000 0.7117 0.7075 0.7026 0.6962 0.6899
1430.000000 0.6834 0.6728 0.6621 0.6445 0.6266
1435.000000 0.6075 0.5915 0.5866 0.5819 0.5804
1440.000000 0.5788 0.5842 0.6137 0.6432 0.6726
1445.000000 0.7021 0.7317 0.7374 0.7394 0.7358
1450.000000 0.7017 0.6657 0.6297 0.5938 0.5825
1455.000000 0.5774 0.5690 0.5273 0.5035 0.5038
1460.000000 0.5371 0.5762 0.6152 0.6525 0.6587
1465.000000 0.6595 0.6615 0.6591 0.6583 0.6553
1470.000000 0.6282 0.6010 0.5738 0.5666 0.5596
1475.000000 0.5515 0.5425 0.5334 0.5210 0.5087
1480.000000 0.4860 0.4887 0.4898 0.4940 0.5039
1485.000000 0.5139 0.5239 0.5317 0.5328 0.5325
1490.000000 0.5312 0.5260 0.5183 0.5105 0.5027
1495.000000 0.4949 0.4871 0.4793 0.4730 0.4725
1500.000000 0.4733 0.4920 0.5064 0.5208 0.5352
1505.000000 0.5496 0.5536 0.5554 0.5522 0.5508
1510.000000 0.5362 0.5205 0.5047 0.4889 0.4731
1515.000000 0.4573 0.4431 0.4338 0.4260 0.4184
1520.000000 0.4103 0.4040 0.4006 0.3995 0.3992
1525.000000 0.3962 0.3997 0.3999 0.4009 0.4018
1530.000000 0.4045 0.4101 0.4180 0.4441 0.4703
1535.000000 0.4965 0.5226 0.5488 0.5750 0.6010
1540.000000 0.6273 0.7030 0.7336 0.7455 0.7572
1545.000000 0.7692 0.7798 0.7903 0.8008 0.8125
1550.000000 0.8256 0.8357 0.8425 0.8470 0.8483
1555.000000 0.8496 0.8505 0.8506 0.8524 0.8509
1560.000000 0.8502 0.8490 0.8475 0.8454 0.8434
1565.000000 0.8414 0.8393 0.8367 0.8332 0.8297
1570.000000 0.8262 0.8221 0.8180 0.8138 0.8096
1575.000000 0.8054 0.8011 0.7953 0.7871 0.7792
1580.000000 0.7711 0.7574 0.7311 0.7033 0.6751
1585.000000 0.6551 0.6353 0.6154 0.5956 0.5758
1590.000000 0.5560 0.5362 0.5164 0.4966 0.4767
1595.000000 0.4606 0.4602 0.4685 0.4926 0.5168
1600.000000 0.5409 0.5651 0.5892 0.6134 0.6375
1605.000000 0.6617 0.6858 0.7100 0.7293 0.7418
1610.000000 0.7585 0.8171 0.8313 0.8384 0.8439
1615.000000 0.8471 0.8504 0.8532 0.8557 0.8582
1620.000000 0.8607 0.8630 0.8644 0.8659 0.8673
1625.000000 0.8687 0.8689 0.8690 0.8691 0.8691
1630.000000 0.8692 0.8696 0.8702 0.8707 0.8704
1635.000000 0.8720 0.8725 0.8717 0.8709 0.8700
1640.000000 0.8692 0.8683 0.8675 0.8666 0.8657
1645.000000 0.8648 0.8637 0.8625 0.8616 0.8605
1650.000000 0.8594 0.8583 0.8583 0.8583 0.8584
1655.000000 0.8586 0.8587 0.8588 0.8590 0.8591
1660.000000 0.8594 0.8599 0.8604 0.8608 0.8613
1665.000000 0.8617 0.8625 0.8636 0.8646 0.8656
1670.000000 0.8660 0.8665 0.8668 0.8674 0.8678
1675.000000 0.8682 0.8687 0.8689 0.8690 0.8690
1680.000000 0.8690 0.8690 0.8690 0.8690 0.8690
1685.000000 0.8688 0.8685 0.8683 0.8681 0.8678
1690.000000 0.8675 0.8673 0.8671 0.8668 0.8663
1695.000000 0.8658 0.8653 0.8648 0.8643 0.8638
1700.000000 0.8633 0.8628 0.8624 0.8623 0.8621
1705.000000 0.8620 0.8618 0.8616 0.8615 0.8615
1710.000000 0.8615 0.8615 0.8615 0.8615 0.8623
1715.000000 0.8634 0.8646 0.8657 0.8657 0.8656
1720.000000 0.8654 0.8652 0.8651 0.8650 0.8650
1725.000000 0.8650 0.8650 0.8650 0.8650 0.8650
1730.000000 0.8650 0.8650 0.8651 0.8652 0.8654
1735.000000 0.8655 0.8657 0.8657 0.8656 0.8654
1740.000000 0.8651 0.8649 0.8647 0.8644 0.8642
1745.000000 0.8639 0.8636 0.8633 0.8630 0.8627
1750.000000 0.8624 0.8621 0.8618 0.8617 0.8615
1755.000000 0.8613 0.8611 0.8610 0.8608 0.8606
1760.000000 0.8604 0.8603 0.8600 0.8597 0.8594
1765.000000 0.8590 0.8587 0.8584 0.8580 0.8577
1770.000000 0.8574 0.8570 0.8567 0.8564 0.8561
1775.000000 0.8557 0.8554 0.8551 0.8549 0.8546
1780.000000 0.8543 0.8541 0.8538 0.8535 0.8533
1785.000000 0.8530 0.8527 0.8525 0.8521 0.8518
1790.000000 0.8517 0.8514 0.8512 0.8509 0.8507
1795.000000 0.8504 0.8502 0.8499 0.8496 0.8494
1800.000000 0.8491 0.8489 0.8486 0.8484 0.8483
1805.000000 0.8482 0.8482 0.8481 0.8480 0.8478
1810.000000 0.8478 0.8478 0.8477 0.8475 0.8475
1815.000000 0.8475 0.8474 0.8473 0.8471 0.8471
1820.000000 0.8468 0.8468 0.8467 0.8466 0.8464
1825.000000 0.8463 0.8462 0.8461 0.8460 0.8458
1830.000000 0.8457 0.8455 0.8452 0.8449 0.8446
1835.000000 0.8444 0.8441 0.8438 0.8435 0.8433
1840.000000 0.8430 0.8427 0.8424 0.8421 0.8418
1845.000000 0.8414 0.8410 0.8406 0.8403 0.8399
1850.000000 0.8395 0.8391 0.8388 0.8384 0.8380
1855.000000 0.8375 0.8371 0.8368 0.8365 0.8361
1860.000000 0.8357 0.8354 0.8350 0.8346 0.8342
1865.000000 0.8339 0.8336 0.8334 0.8331 0.8328
1870.000000 0.8325 0.8321 0.8318 0.8316 0.8313
1875.000000 0.8311 0.8308 0.8305 0.8302 0.8299
1880.000000 0.8296 0.8293 0.8290 0.8288 0.8285
1885.000000 0.8281 0.8278 0.8275 0.8271 0.8268
1890.000000 0.8266 0.8262 0.8259 0.8256 0.8253
1895.000000 0.8250 0.8246 0.8243 0.8240 0.8237
1900.000000 0.8234 0.8231 0.8228 0.8225 0.8221
1905.000000 0.8218 0.8212 0.8207 0.8201 0.8195
1910.000000 0.8190 0.8189 0.8189 0.8190 0.8190
1915.000000 0.8191 0.8191 0.8191 0.8192 0.8192
1920.000000 0.8191 0.8183 0.8174 0.8165 0.8158
1925.000000 0.8150 0.8142 0.8133 0.8125 0.8119
1930.000000 0.8114 0.8108 0.8101 0.8096 0.8090
1935.000000 0.8085 0.8078 0.8072 0.8067 0.8061
1940.000000 0.8055 0.8049 0.8040 0.8039 0.8037
1945.000000 0.8036 0.8037 0.8037 0.8051 0.8054
1950.000000 0.8056 0.8058 0.8058 0.8050 0.8042
1955.000000 0.8034 0.8025 0.8018 0.8012 0.8094
1960.000000 0.8188 0.8188 0.8141 0.8094 0.8055
1965.000000 0.8021 0.7993 0.7986 0.7984 0.7982
1970.000000 0.7978 0.7978 0.7978 0.7978 0.7980
1975.000000 0.7984 0.7993 0.8001 0.8008 0.8014
1980.000000 0.8018 0.8021 0.8022 0.8025 0.8025
1985.000000 0.8028 0.8028 0.8030 0.8031 0.8032
1990.000000 0.8032 0.8033 0.8034 0.8039 0.8045
1995.000000 0.8051 0.8057 0.8062 0.8069 0.8075
2000.000000 0.8075 0.8075 0.8068 0.8065 0.8062
2005.000000 0.8060 0.8058 0.8055 0.8051 0.8049
2010.000000 0.8047 0.8044 0.8041 0.8038 0.8036
2015.000000 0.8033 0.8031 0.8028 0.8025 0.8021
2020.000000 0.8019 0.8017 0.8014 0.8011 0.8008
2025.000000 0.8005 0.8001 0.7999 0.7996 0.7993
2030.000000 0.7990 0.7985 0.7980 0.7974 0.7968
2035.000000 0.7964 0.7958 0.7953 0.7948 0.7941
2040.000000 0.7935 0.7928 0.7921 0.7915 0.7908
2045.000000 0.7903 0.7898 0.7894 0.7891 0.7887
2050.000000 0.7883 0.7878 0.7875 0.7871 0.7868
2055.000000 0.7864 0.7860 0.7856 0.7853 0.7849
2060.000000 0.7845 0.7841 0.7838 0.7834 0.7830
2065.000000 0.7825 0.7821 0.7818 0.7815 0.7811
2070.000000 0.7807 0.7803 0.7799 0.7795 0.7792
2075.000000 0.7788 0.7784 0.7780 0.7775 0.7772
2080.000000 0.7769 0.7767 0.7765 0.7761 0.7758
2085.000000 0.7756 0.7754 0.7751 0.7749 0.7746
2090.000000 0.7743 0.7740 0.7738 0.7735 0.7733
2095.000000 0.7730 0.7728 0.7725 0.7721 0.7718
2100.000000 0.7717 0.7714 0.7711 0.7708 0.7706
2105.000000 0.7703 0.7700 0.7697 0.7694 0.7691
2110.000000 0.7688 0.7685 0.7682 0.7678 0.7675
2115.000000 0.7672 0.7669 0.7665 0.7662 0.7660
2120.000000 0.7657 0.7654 0.7651 0.7648 0.7645
2125.000000 0.7642 0.7639 0.7636 0.7633 0.7628
2130.000000 0.7625 0.7622 0.7619 0.7617 0.7614
2135.000000 0.7611 0.7608 0.7605 0.7601 0.7598
2140.000000 0.7595 0.7592 0.7589 0.7585 0.7581
2145.000000 0.7575 0.7571 0.7568 0.7564 0.7558
2150.000000 0.7555 0.7551 0.7547 0.7542 0.7538
2155.000000 0.7534 0.7530 0.7525 0.7521 0.7515
2160.000000 0.7511 0.7508 0.7504 0.7499 0.7495
2165.000000 0.7491 0.7487 0.7482 0.7478 0.7474
2170.000000 0.7469 0.7465 0.7461 0.7456 0.7451
2175.000000 0.7448 0.7444 0.7440 0.7436 0.7432
2180.000000 0.7428 0.7424 0.7419 0.7415 0.7411
2185.000000 0.7408 0.7404 0.7399 0.7395 0.7391
2190.000000 0.7387 0.7383 0.7378 0.7375 0.7371
2195.000000 0.7367 0.7362 0.7358 0.7355 0.7351
2200.000000 0.7347 0.7343 0.7339 0.7335 0.7331
2205.000000 0.7326 0.7322 0.7318 0.7315 0.7311
2210.000000 0.7307 0.7303 0.7299 0.7295 0.7291
2215.000000 0.7287 0.7283 0.7278 0.7274 0.7269
2220.000000 0.7265 0.7261 0.7258 0.7253 0.7249
2225.000000 0.7245 0.7241 0.7237 0.7233 0.7228
2230.000000 0.7224 0.7219 0.7215 0.7211 0.7208
2235.000000 0.7204 0.7200 0.7195 0.7191 0.7187
2240.000000 0.7183 0.7178 0.7175 0.7169 0.7165
2245.000000 0.7161 0.7158 0.7155 0.7151 0.7147
2250.000000 0.7143 0.7139 0.7135 0.7131 0.7126
2255.000000 0.7122 0.7119 0.7115 0.7111 0.7108
2260.000000 0.7104 0.7100 0.7096 0.7092 0.7088
2265.000000 0.7084 0.7081 0.7076 0.7072 0.7068
2270.000000 0.7065 0.7061 0.7058 0.7054 0.7051
2275.000000 0.7047 0.7044 0.7040 0.7037 0.7033
2280.000000 0.7030 0.7025 0.7022 0.7018 0.7015
2285.000000 0.7012 0.7010 0.7006 0.7003 0.6999
2290.000000 0.6996 0.6992 0.6989 0.6981 0.6974
2295.000000 0.6965 0.6957 0.6948 0.6940 0.6931
2300.000000 0.6922 0.6914 0.6906 0.6897 0.6889
2305.000000 0.6880 0.6871 0.6862 0.6855 0.6846
2310.000000 0.6838 0.6830 0.6821 0.6812 0.6805
2315.000000 0.6796 0.6788 0.6778 0.6771 0.6761
2320.000000 0.6751 0.6742 0.6734 0.6732 0.6730
2325.000000 0.6726 0.6725 0.6722 0.6721 0.6718
2330.000000 0.6715 0.6712 0.6711 0.6710 0.6708
2335.000000 0.6708 0.6707 0.6706 0.6706 0.6705
2340.000000 0.6705 0.6704 0.6703 0.6701 0.6701
2345.000000 0.6701 0.6700 0.6699 0.6699 0.6698
2350.000000 0.6697 0.6696 0.6696 0.6695 0.6695
2355.000000 0.6694 0.6693 0.6692 0.6692 0.6691
2360.000000 0.6690 0.6689 0.6689 0.6688 0.6688
2365.000000 0.6687 0.6687 0.6686 0.6686 0.6685
2370.000000 0.6685 0.6684 0.6684 0.6683 0.6683
2375.000000 0.6683 0.6683 0.6682 0.6682 0.6681
2380.000000 0.6681 0.6680 0.6680 0.6678 0.6678
2385.000000 0.6678 0.6678 0.6676 0.6676 0.6675
2390.000000 0.6675 0.6674 0.6672 0.6671 0.6668
2395.000000 0.6667 0.6665 0.6662 0.6661 0.6658
2400.000000 0.6657 0.6655 0.6653 0.6651 0.6649
2405.000000 0.6647 0.6645 0.6643 0.6641 0.6639
2410.000000 0.6637 0.6635 0.6633 0.6628 0.6624
2415.000000 0.6618 0.6615 0.6610 0.6606 0.6601
2420.000000 0.6597 0.6592 0.6588 0.6583 0.6578
2425.000000 0.6572 0.6568 0.6564 0.6560 0.6555
2430.000000 0.6551 0.6546 0.6542 0.6539 0.6536
2435.000000 0.6533 0.6530 0.6526 0.6525 0.6521
2440.000000 0.6518 0.6515 0.6512 0.6510 0.6508
2445.000000 0.6505 0.6501 0.6499 0.6496 0.6493
2450.000000 0.6490 0.6487 0.6485 0.6482 0.6480
2455.000000 0.6480 0.6480 0.6480 0.6481 0.6481
2460.000000 0.6481 0.6481 0.6482 0.6482 0.6483
2465.000000 0.6483 0.6483 0.6483 0.6484 0.6484
2470.000000 0.6484 0.6485 0.6486 0.6486 0.6487
2475.000000 0.6488 0.6489 0.6489 0.6490 0.6491
2480.000000 0.6492 0.6493 0.6494 0.6494 0.6494
2485.000000 0.6494 0.6494 0.6492 0.6491 0.6489
2490.000000 0.6488 0.6486 0.6485 0.6483 0.6482
2495.000000 0.6480 0.6478 0.6476 0.6475 0.6474
2500.000000 0.6472 0.6471 0.6469 0.6468 0.6467
2505.000000 0.6465 0.6464 0.6461 0.6461 0.6458
2510.000000 0.6458 0.6456 0.6455 0.6451 0.6450
2515.000000 0.6447 0.6444 0.6441 0.6438 0.6435
2520.000000 0.6432 0.6428 0.6425 0.6422 0.6419
2525.000000 0.6417 0.6414 0.6411 0.6408 0.6405
2530.000000 0.6401 0.6399 0.6396 0.6392 0.6389
2535.000000 0.6386 0.6383 0.6380 0.6377 0.6373
2540.000000 0.6370 0.6366 0.6362 0.6359 0.6356
2545.000000 0.6352 0.6349 0.6346 0.6343 0.6339
2550.000000 0.6336 0.6332 0.6329 0.6325 0.6322
2555.000000 0.6318 0.6315 0.6310 0.6308 0.6304
2560.000000 0.6301 0.6298 0.6295 0.6291 0.6288
2565.000000 0.6284 0.6281 0.6277 0.6274 0.6270
2570.000000 0.6267 0.6262 0.6260 0.6256 0.6253
2575.000000 0.6250 0.6247 0.6244 0.6241 0.6238
2580.000000 0.6235 0.6232 0.6230 0.6227 0.6224
2585.000000 0.6221 0.6218 0.6215 0.6212 0.6209
2590.000000 0.6207 0.6204 0.6201 0.6198 0.6195
2595.000000 0.6192 0.6190 0.6187 0.6184 0.6181
2600.000000 0.6178 0.6175 0.6173 0.6170 0.6167
2605.000000 0.6164 0.6160 0.6158 0.6156 0.6153
2610.000000 0.6150 0.6147 0.6144 0.6141 0.6139
2615.000000 0.6136 0.6133 0.6130 0.6127 0.6124
2620.000000 0.6121 0.6118 0.6115 0.6112 0.6109
2625.000000 0.6106 0.6103 0.6100 0.6097 0.6094
2630.000000 0.6091 0.6088 0.6085 0.6082 0.6079
2635.000000 0.6076 0.6073 0.6070 0.6067 0.6064
2640.000000 0.6060 0.6058 0.6055 0.6052 0.6049
2645.000000 0.6046 0.6043 0.6040 0.6037 0.6034
2650.000000 0.6031 0.6028 0.6025 0.6021 0.6018
2655.000000 0.6014 0.6010 0.6007 0.6004 0.6000
2660.000000 0.5997 0.5994 0.5991 0.5987 0.5984
2665.000000 0.5980 0.5977 0.5973 0.5970 0.5966
2670.000000 0.5962 0.5960 0.5957 0.5953 0.5950
2675.000000 0.5946 0.5943 0.5939 0.5936 0.5933
2680.000000 0.5930 0.5926 0.5923 0.5919 0.5916
2685.000000 0.5912 0.5909 0.5905 0.5902 0.5899
2690.000000 0.5896 0.5892 0.5889 0.5885 0.5882
2695.000000 0.5878 0.5875 0.5871 0.5868 0.5865
2700.000000 0.5862 0.5858 0.5855 0.5851 0.5848
2705.000000 0.5844 0.5841 0.5837 0.5834 0.5831
2710.000000 0.5828 0.5825 0.5822 0.5819 0.5816
2715.000000 0.5812 0.5810 0.5807 0.5804 0.5801
2720.000000 0.5798 0.5795 0.5792 0.5789 0.5786
2725.000000 0.5783 0.5780 0.5777 0.5774 0.5771
2730.000000 0.5768 0.5765 0.5762 0.5759 0.5756
2735.000000 0.5753 0.5750 0.5747 0.5744 0.5741
2740.000000 0.5738 0.5734 0.5731 0.5728 0.5725
2745.000000 0.5722 0.5719 0.5716 0.5712 0.5710
2750.000000 0.5707 0.5702 0.5698 0.5694 0.5690
2755.000000 0.5686 0.5682 0.5677 0.5673 0.5669
2760.000000 0.5665 0.5660 0.5657 0.5652 0.5648
2765.000000 0.5644 0.5640 0.5636 0.5632 0.5627
2770.000000 0.5623 0.5619 0.5615 0.5610 0.5607
2775.000000 0.5602 0.5598 0.5594 0.5590 0.5586
2780.000000 0.5582 0.5577 0.5573 0.5569 0.5565
2785.000000 0.5560 0.5557 0.5552 0.5548 0.5544
2790.000000 0.5540 0.5536 0.5532 0.5527 0.5523
2795.000000 0.5519 0.5515 0.5510 0.5507 0.5503
2800.000000 0.5500 0.5496 0.5493 0.5489 0.5485
2805.000000 0.5481 0.5478 0.5474 0.5470 0.5466
2810.000000 0.5462 0.5459 0.5456 0.5452 0.5448
2815.000000 0.5444 0.5441 0.5437 0.5434 0.5430
2820.000000 0.5426 0.5422 0.5419 0.5415 0.5412
2825.000000 0.5408 0.5404 0.5400 0.5397 0.5393
2830.000000 0.5390 0.5386 0.5382 0.5378 0.5375
2835.000000 0.5371 0.5368 0.5364 0.5360 0.5356
2840.000000 0.5353 0.5349 0.5345 0.5341 0.5338
2845.000000 0.5334 0.5330 0.5326 0.5323 0.5319
2850.000000 0.5315 0.5310 0.5308 0.5304 0.5301
2855.000000 0.5297 0.5293 0.5289 0.5286 0.5282
2860.000000 0.5278 0.5274 0.5271 0.5267 0.5262
2865.000000 0.5259 0.5256 0.5252 0.5248 0.5244
2870.000000 0.5241 0.5237 0.5233 0.5229 0.5226
2875.000000 0.5222 0.5218 0.5214 0.5210 0.5207
2880.000000 0.5203 0.5199 0.5196 0.5192 0.5188
2885.000000 0.5184 0.5181 0.5177 0.5173 0.5169
2890.000000 0.5166 0.5162 0.5158 0.5154 0.5151
2895.000000 0.5147 0.5143 0.5139 0.5136 0.5132
2900.000000 0.5128 0.5124 0.5121 0.5117 0.5112
2905.000000 0.5109 0.5105 0.5101 0.5098 0.5094
2910.000000 0.5090 0.5086 0.5083 0.5079 0.5075
2915.000000 0.5071 0.5068 0.5065 0.5062 0.5058
2920.000000 0.5055 0.5051 0.5048 0.5044 0.5041
2925.000000 0.5038 0.5035 0.5031 0.5028 0.5024
2930.000000 0.5021 0.5018 0.5015 0.5010 0.5008
2935.000000 0.5004 0.5001 0.4998 0.4995 0.4987
2940.000000 0.4979 0.4969 0.4960 0.4950 0.4941
2945.000000 0.4931 0.4922 0.4912 0.4903 0.4887
2950.000000 0.4872 0.4862 0.4854 0.4851 0.4848
2955.000000 0.4845 0.4843 0.4840 0.4837 0.4834
2960.000000 0.4832 0.4830 0.4828 0.4828 0.4829
2965.000000 0.4829 0.4830 0.4830 0.4831 0.4831
2970.000000 0.4832 0.4833 0.4835 0.4836 0.4837
2975.000000 0.4838 0.4840 0.4841 0.4843 0.4844
2980.000000 0.4845 0.4846 0.4846 0.4846 0.4846
2985.000000 0.4845 0.4845 0.4841 0.4837 0.4827
2990.000000 0.4817 0.4807 0.4797 0.4787 0.4777
2995.000000 0.4766 0.4756 0.4745 0.4735 0.4723
3000.000000 0.4712 0.4701 0.4690 0.4679 0.4668
3005.000000 0.4657 0.4646 0.4635 0.4624 0.4614
3010.000000 0.4604 0.4594 0.4584 0.4574 0.4564
3015.000000 0.4554 0.4545 0.4535 0.4525 0.4515
3020.000000 0.4506 0.4498 0.4491 0.4483 0.4476
3025.000000 0.4469 0.4462 0.4454 0.4447 0.4439
3030.000000 0.4432 0.4425 0.4418 0.4410 0.4403
3035.000000 0.4396 0.4389 0.4383 0.4378 0.4372
3040.000000 0.4367 0.4360 0.4356 0.4351 0.4346
3045.000000 0.4337 0.4328 0.4310 0.4294 0.4277
3050.000000 0.4260 0.4195 0.4130 0.4084 0.4041
3055.000000 0.4032 0.4026 0.4026 0.4027 0.4032
3060.000000 0.4038 0.4057 0.4048 0.4101 0.4125
3065.000000 0.4149 0.4173 0.4197 0.4221 0.4237
3070.000000 0.4254 0.4267 0.4281 0.4294 0.4307
3075.000000 0.4320 0.4333 0.4342 0.4352 0.4360
3080.000000 0.4368 0.4376 0.4385 0.4393 0.4401
3085.000000 0.4409 0.4418 0.4423 0.4428 0.4433
3090.000000 0.4438 0.4443 0.4448 0.4453 0.4458
3095.000000 0.4462 0.4468 0.4473 0.4478 0.4482
3100.000000 0.4486 0.4489 0.4493 0.4496 0.4500
3105.000000 0.4503 0.4507 0.4510 0.4514 0.4516
3110.000000 0.4518 0.4520 0.4522 0.4524 0.4540
3115.000000 0.4527 0.4527 0.4527 0.4525 0.4523
3120.000000 0.4522 0.4520 0.4519 0.4517 0.4516
3125.000000 0.4514 0.4512 0.4508 0.4504 0.4499
3130.000000 0.4494 0.4489 0.4484 0.4479 0.4474
3135.000000 0.4469 0.4464 0.4459 0.4454 0.4449
3140.000000 0.4444 0.4438 0.4433 0.4427 0.4421
3145.000000 0.4415 0.4409 0.4403 0.4398 0.4392
3150.000000 0.4386 0.4379 0.4372 0.4365 0.4358
3155.000000 0.4350 0.4343 0.4336 0.4329 0.4322
3160.000000 0.4315 0.4307 0.4300 0.4293 0.4286
3165.000000 0.4278 0.4271 0.4264 0.4257 0.4249
3170.000000 0.4242 0.4235 0.4229 0.4223 0.4217
3175.000000 0.4210 0.4204 0.4198 0.4192 0.4186
3180.000000 0.4180 0.4173 0.4167 0.4160 0.4155
3185.000000 0.4149 0.4143 0.4136 0.4130 0.4124
3190.000000 0.4118 0.4110 0.4105 0.4098 0.4092
3195.000000 0.4084 0.4079 0.4072 0.4064 0.4058
3200.000000 0.4052 0.4045 0.4038 0.4030 0.4025
3205.000000 0.4018 0.4010 0.4004 0.3998 0.3991
3210.000000 0.3984 0.3978 0.3971 0.3962 0.3955
3215.000000 0.3947 0.3939 0.3930 0.3923 0.3914
3220.000000 0.3907 0.3880 0.3856 0.3802 0.3748
3225.000000 0.3710 0.3662 0.3671 0.3668 0.3666
3230.000000 0.3666 0.3666 0.3666 0.3688 0.3709
3235.000000 0.3734 0.3759 0.3806 0.3852 0.3893
3240.000000 0.3934 0.3979 0.4024 0.4068 0.4115
3245.000000 0.4123 0.4131 0.4132 0.4133 0.4134
3250.000000 0.4136 0.4137 0.4137 0.4136 0.4134
3255.000000 0.4131 0.4129 0.4127 0.4126 0.4124
3260.000000 0.4122 0.4120 0.4118 0.4116 0.4115
3265.000000 0.4112 0.4110 0.4109 0.4108 0.4107
3270.000000 0.4106 0.4105 0.4104 0.4103 0.4103
3275.000000 0.4102 0.4101 0.4100 0.4099 0.4098
3280.000000 0.4097 0.4096 0.4095 0.4094 0.4093
3285.000000 0.4092 0.4092 0.4093 0.4095 0.4096
3290.000000 0.4097 0.4098 0.4099 0.4100 0.4102
3295.000000 0.4103 0.4104 0.4105 0.4106 0.4107
3300.000000 0.4108 0.4109 0.4110 0.4112 0.4114
3305.000000 0.4115 0.4117 0.4118 0.4120 0.4122
3310.000000 0.4124 0.4125 0.4127 0.4128 0.4130
3315.000000 0.4131 0.4133 0.4135 0.4137 0.4138
3320.000000 0.4140 0.4141 0.4142 0.4142 0.4143
3325.000000 0.4143 0.4144 0.4144 0.4144 0.4144
3330.000000 0.4144 0.4143 0.4143 0.4142 0.4142
3335.000000 0.4141 0.4141 0.4140 0.4140 0.4139
3340.000000 0.4138 0.4136 0.4134 0.4132 0.4130
3345.000000 0.4128 0.4126 0.4124 0.4122 0.4120
3350.000000 0.4118 0.4116 0.4114 0.4112 0.4110
3355.000000 0.4108 0.4106 0.4104 0.4102 0.4099
3360.000000 0.4097 0.4094 0.4092 0.4089 0.4087
3365.000000 0.4084 0.4082 0.4080 0.4078 0.4075
3370.000000 0.4073 0.4070 0.4068 0.4064 0.4062
3375.000000 0.4059 0.4057 0.4054 0.4052 0.4049
3380.000000 0.4046 0.4043 0.4040 0.4037 0.4034
3385.000000 0.4030 0.4029 0.4026 0.4023 0.4020
3390.000000 0.4016 0.4014 0.4010 0.4008 0.4005
3395.000000 0.4002 0.4000 0.3997 0.3994 0.3991
3400.000000 0.3988 0.3984 0.3982 0.3979 0.3976
3405.000000 0.3973 0.3970 0.3966 0.3964 0.3960
3410.000000 0.3958 0.3955 0.3952 0.3949 0.3946
3415.000000 0.3943 0.3940 0.3937 0.3934 0.3930
3420.000000 0.3928 0.3925 0.3922 0.3918 0.3916
3425.000000 0.3912 0.3909 0.3907 0.3904 0.3900
3430.000000 0.3898 0.3895 0.3892 0.3889 0.3886
3435.000000 0.3882 0.3880 0.3877 0.3874 0.3871
3440.000000 0.3868 0.3864 0.3862 0.3859 0.3858
3445.000000 0.3855 0.3853 0.3850 0.3848 0.3845
3450.000000 0.3843 0.3840 0.3838 0.3834 0.3832
3455.000000 0.3830 0.3828 0.3825 0.3823 0.3820
3460.000000 0.3818 0.3814 0.3812 0.3809 0.3808
3465.000000 0.3806 0.3804 0.3800 0.3799 0.3796
3470.000000 0.3794 0.3791 0.3789 0.3786 0.3784
3475.000000 0.3780 0.3779 0.3776 0.3774 0.3771
3480.000000 0.3768 0.3766 0.3764 0.3760 0.3759
3485.000000 0.3756 0.3754 0.3750 0.3749 0.3746
3490.000000 0.3744 0.3741 0.3739 0.3736 0.3734
3495.000000 0.3730 0.3729 0.3726 0.3724 0.3721
3500.000000 0.3718 0.3716 0.3714 0.3712 0.3710
3505.000000 0.3708 0.3706 0.3704 0.3702 0.3700
3510.000000 0.3698 0.3696 0.3694 0.3692 0.3690
3515.000000 0.3687 0.3684 0.3682 0.3680 0.3679
3520.000000 0.3677 0.3675 0.3673 0.3670 0.3668
3525.000000 0.3666 0.3664 0.3662 0.3659 0.3658
3530.000000 0.3656 0.3653 0.3650 0.3649 0.3647
3535.000000 0.3645 0.3643 0.3641 0.3639 0.3636
3540.000000 0.3634 0.3632 0.3630 0.3628 0.3626
3545.000000 0.3624 0.3622 0.3618 0.3616 0.3614
3550.000000 0.3612 0.3610 0.3609 0.3607 0.3605
3555.000000 0.3603 0.3600 0.3598 0.3596 0.3594
3560.000000 0.3592 0.3590 0.3588 0.3584 0.3582
3565.000000 0.3580 0.3579 0.3577 0.3575 0.3573
3570.000000 0.3571 0.3568 0.3566 0.3564 0.3562
3575.000000 0.3559 0.3558 0.3556 0.3554 0.3550
3580.000000 0.3549 0.3547 0.3545 0.3543 0.3541
3585.000000 0.3538 0.3536 0.3534 0.3532 0.3530
3590.000000 0.3528 0.3526 0.3524 0.3521 0.3518
3595.000000 0.3516 0.3514 0.3512 0.3510 0.3509
3600.000000 0.3507 0.3504 0.3502 0.3500 0.3498
3605.000000 0.3496 0.3494 0.3491 0.3489 0.3487
3610.000000 0.3484 0.3482 0.3480 0.3479 0.3477
3615.000000 0.3474 0.3472 0.3470 0.3468 0.3464
3620.000000 0.3462 0.3459 0.3458 0.3455 0.3452
3625.000000 0.3449 0.3447 0.3444 0.3441 0.3438
3630.000000 0.3436 0.3432 0.3430 0.3427 0.3425
3635.000000 0.3422 0.3418 0.3416 0.3414 0.3410
3640.000000 0.3408 0.3405 0.3403 0.3400 0.3397
3645.000000 0.3394 0.3392 0.3389 0.3386 0.3382
3650.000000 0.3380 0.3378 0.3376 0.3373 0.3370
3655.000000 0.3366 0.3364 0.3362 0.3359 0.3356
3660.000000 0.3354 0.3350 0.3348 0.3345 0.3343
3665.000000 0.3340 0.3337 0.3334 0.3332 0.3329
3670.000000 0.3326 0.3323 0.3321 0.3318 0.3314
3675.000000 0.3312 0.3309 0.3307 0.3304 0.3300
3680.000000 0.3299 0.3296 0.3294 0.3291 0.3288
3685.000000 0.3284 0.3282 0.3280 0.3278 0.3275
3690.000000 0.3272 0.3268 0.3266 0.3264 0.3262
3695.000000 0.3259 0.3256 0.3253 0.3250 0.3248
3700.000000 0.3246 0.3243 0.3241 0.3238 0.3234
3705.000000 0.3232 0.3230 0.3227 0.3225 0.3222
3710.000000 0.3218 0.3216 0.3214 0.3210 0.3209
3715.000000 0.3206 0.3203 0.3200 0.3198 0.3195
3720.000000 0.3193 0.3190 0.3187 0.3184 0.3182
3725.000000 0.3179 0.3177 0.3174 0.3172 0.3170
3730.000000 0.3184 0.3165 0.3163 0.3161 0.3159
3735.000000 0.3157 0.3155 0.3153 0.3151 0.3149
3740.000000 0.3147 0.3144 0.3142 0.3140 0.3138
3745.000000 0.3135 0.3134 0.3132 0.3130 0.3128
3750.000000 0.3126 0.3123 0.3121 0.3119 0.3117
3755.000000 0.3115 0.3113 0.3111 0.3109 0.3107
3760.000000 0.3105 0.3102 0.3100 0.3098 0.3096
3765.000000 0.3093 0.3091 0.3088 0.3085 0.3084
3770.000000 0.3082 0.3079 0.3077 0.3074 0.3072
3775.000000 0.3069 0.3067 0.3065 0.3063 0.3060
3780.000000 0.3058 0.3055 0.3053 0.3051 0.3049
3785.000000 0.3046 0.3044 0.3041 0.3039 0.3035
3790.000000 0.3034 0.3031 0.3029 0.3026 0.3024
3795.000000 0.3021 0.3019 0.3016 0.3014 0.3012
3800.000000 0.3011
##END=
