##TITLE=P-PHENYLAZO CARBANILIC ACID, MENTHYL ESTER
##JCAMP-DX=4.24
##DATA TYPE=INFRARED SPECTRUM
##CLASS=COBLENTZ
##ORIGIN=CITRUS EXPERIMENT STATION, UNIVERSITY OF FLORIDA (G. EDWARDS)
##OWNER=COBLENTZ SOCIETY
Collection (C) 2018 copyright by the U.S. Secretary of Commerce
on behalf of the United States of America. All rights reserved.
##DATE=Not specified, most likely prior to 1970
##NAMES=5-isopropyl-2-methylcyclohexyl 4-(phenyldiazenyl)phenylcarbamate
##MOLFORM=C23 H29 N3 O2
##MP=152-154 C
##SOURCE REFERENCE=COBLENTZ NO. 2470
##$NIST ID=B6002470
##$NIST SOURCE=COBLENTZ
##$NIST IMAGE=cob2470
##SPECTROMETER/DATA SYSTEM=Not specified, most likely a grating spectrometer.
##STATE=SOLID (1.5 mg / 100 mg KBr)
##SAMPLING PROCEDURE=TRANSMISSION
##RESOLUTION=4
##DATA PROCESSING=DIGITIZED BY NIST FROM HARD COPY
##XUNITS=MICROMETERS
##YUNITS=TRANSMITTANCE
##XFACTOR=1.000000
##YFACTOR=1
##DELTAX=000.006632
##FIRSTX=2.027
##LASTX=15.0121
##FIRSTY=0.728
##MAXX=15.0121
##MINX=2.027
##MAXY=0.965
##MINY=0.284
##NPOINTS=1959
##XYDATA=(X++(Y..Y))
2.027000 0.7280 0.7280 0.7280 0.7280 0.7280
2.060177 0.7280 0.7290 0.7290 0.7300 0.7300
2.093000 0.7330 0.7360 0.7370 0.7370 0.7380
2.126177 0.7400 0.7400 0.7410 0.7410 0.7420
2.159000 0.7420 0.7440 0.7440 0.7440 0.7460
2.192177 0.7480 0.7490 0.7500 0.7520 0.7530
2.225000 0.7530 0.7560 0.7560 0.7570 0.7600
2.258177 0.7620 0.7620 0.7640 0.7640 0.7650
2.292000 0.7650 0.7660 0.7660 0.7660 0.7680
2.325177 0.7680 0.7680 0.7690 0.7690 0.7700
2.358000 0.7700 0.7720 0.7730 0.7730 0.7730
2.391177 0.7740 0.7740 0.7760 0.7760 0.7760
2.424000 0.7780 0.7800 0.7800 0.7850 0.7860
2.457177 0.7860 0.7880 0.7890 0.7890 0.7890
2.491000 0.7890 0.7890 0.7890 0.7890 0.7890
2.524177 0.7890 0.7900 0.7900 0.7930 0.7970
2.557000 0.7980 0.8000 0.8010 0.8020 0.8020
2.590177 0.8020 0.8020 0.8020 0.8020 0.8020
2.623000 0.8020 0.8020 0.8020 0.8020 0.8010
2.656177 0.8010 0.8010 0.8010 0.8010 0.8010
2.690000 0.8010 0.8010 0.8010 0.8010 0.8010
2.723177 0.8010 0.8020 0.8020 0.8020 0.8040
2.756000 0.8040 0.8050 0.8050 0.8050 0.8060
2.789177 0.8060 0.8080 0.8090 0.8100 0.8120
2.822000 0.8130 0.8140 0.8140 0.8140 0.8140
2.855177 0.8120 0.8060 0.8050 0.8020 0.8020
2.889000 0.8010 0.7980 0.7890 0.7810 0.7680
2.922177 0.7460 0.7100 0.6600 0.6280 0.6280
2.955000 0.6440 0.6820 0.7140 0.7500 0.7620
2.988177 0.7810 0.7940 0.8060 0.8120 0.8180
3.021000 0.8220 0.8290 0.8300 0.8330 0.8330
3.054177 0.8340 0.8340 0.8360 0.8380 0.8400
3.088000 0.8410 0.8420 0.8440 0.8450 0.8490
3.121177 0.8490 0.8500 0.8520 0.8530 0.8530
3.154000 0.8530 0.8530 0.8530 0.8530 0.8530
3.187177 0.8520 0.8520 0.8490 0.8440 0.8420
3.220000 0.8400 0.8300 0.8210 0.8210 0.8260
3.253177 0.8300 0.8330 0.8340 0.8380 0.8410
3.287000 0.8410 0.8400 0.8400 0.8330 0.8320
3.320177 0.8180 0.7960 0.7460 0.6880 0.5480
3.353000 0.5450 0.5480 0.5540 0.5680 0.5760
3.386177 0.5770 0.5920 0.6240 0.6560 0.6850
3.419000 0.7180 0.7220 0.7200 0.6890 0.6660
3.452177 0.6610 0.6650 0.6940 0.7250 0.7500
3.486000 0.7780 0.8080 0.8220 0.8360 0.8500
3.519177 0.8570 0.8620 0.8640 0.8640 0.8690
3.552000 0.8730 0.8760 0.8810 0.8840 0.8860
3.585177 0.8850 0.8840 0.8810 0.8800 0.8780
3.618000 0.8780 0.8780 0.8800 0.8810 0.8820
3.651177 0.8840 0.8850 0.8860 0.8880 0.8890
3.685000 0.8900 0.8920 0.8930 0.8930 0.8940
3.718177 0.8960 0.8960 0.8970 0.8970 0.8980
3.751000 0.8980 0.8980 0.8980 0.9000 0.9000
3.784177 0.9000 0.9010 0.9010 0.9020 0.9020
3.817000 0.9020 0.9040 0.9040 0.9040 0.9050
3.850177 0.9050 0.9050 0.9060 0.9060 0.9060
3.883000 0.9080 0.9080 0.9080 0.9080 0.9090
3.916177 0.9090 0.9090 0.9100 0.9100 0.9100
3.950000 0.9120 0.9120 0.9120 0.9130 0.9130
3.983177 0.9140 0.9140 0.9160 0.9160 0.9160
4.016000 0.9160 0.9170 0.9170 0.9170 0.9170
4.049177 0.9170 0.9170 0.9180 0.9180 0.9200
4.082000 0.9200 0.9210 0.9210 0.9220 0.9220
4.115177 0.9240 0.9240 0.9240 0.9240 0.9240
4.149000 0.9250 0.9250 0.9250 0.9250 0.9250
4.182177 0.9250 0.9250 0.9250 0.9240 0.9240
4.215000 0.9240 0.9220 0.9220 0.9220 0.9220
4.248177 0.9220 0.9220 0.9220 0.9220 0.9220
4.281000 0.9220 0.9240 0.9250 0.9280 0.9300
4.314177 0.9300 0.9300 0.9290 0.9290 0.9290
4.348000 0.9290 0.9280 0.9280 0.9280 0.9280
4.381177 0.9260 0.9260 0.9260 0.9280 0.9280
4.414000 0.9280 0.9280 0.9280 0.9290 0.9290
4.447177 0.9300 0.9300 0.9320 0.9320 0.9330
4.480000 0.9330 0.9330 0.9340 0.9340 0.9360
4.513177 0.9360 0.9360 0.9370 0.9370 0.9380
4.547000 0.9380 0.9380 0.9380 0.9400 0.9400
4.580177 0.9400 0.9400 0.9400 0.9400 0.9400
4.613000 0.9400 0.9400 0.9400 0.9400 0.9400
4.646177 0.9400 0.9400 0.9400 0.9400 0.9400
4.679000 0.9400 0.9400 0.9400 0.9400 0.9400
4.712177 0.9410 0.9410 0.9410 0.9410 0.9410
4.746000 0.9410 0.9410 0.9410 0.9410 0.9410
4.779177 0.9410 0.9420 0.9420 0.9420 0.9420
4.812000 0.9420 0.9420 0.9440 0.9440 0.9440
4.845177 0.9440 0.9440 0.9450 0.9450 0.9450
4.878000 0.9450 0.9450 0.9450 0.9450 0.9450
4.911177 0.9450 0.9450 0.9450 0.9450 0.9450
4.945000 0.9450 0.9450 0.9450 0.9450 0.9450
4.978177 0.9450 0.9450 0.9450 0.9450 0.9450
5.011000 0.9450 0.9440 0.9440 0.9440 0.9440
5.044177 0.9420 0.9420 0.9420 0.9420 0.9420
5.077000 0.9420 0.9420 0.9420 0.9420 0.9420
5.110177 0.9420 0.9420 0.9420 0.9420 0.9420
5.144000 0.9420 0.9420 0.9420 0.9420 0.9420
5.177177 0.9420 0.9420 0.9420 0.9420 0.9420
5.210000 0.9420 0.9420 0.9420 0.9420 0.9420
5.243177 0.9420 0.9420 0.9440 0.9440 0.9440
5.276000 0.9450 0.9450 0.9450 0.9460 0.9460
5.309177 0.9460 0.9480 0.9480 0.9480 0.9490
5.342000 0.9490 0.9500 0.9500 0.9520 0.9520
5.375177 0.9520 0.9520 0.9530 0.9530 0.9520
5.409000 0.9500 0.9500 0.9500 0.9500 0.9500
5.442177 0.9500 0.9500 0.9500 0.9490 0.9490
5.475000 0.9490 0.9480 0.9440 0.9440 0.9420
5.508177 0.9410 0.9400 0.9380 0.9360 0.9360
5.541000 0.9340 0.9330 0.9320 0.9300 0.9290
5.574177 0.9280 0.9280 0.9280 0.9280 0.9290
5.608000 0.9300 0.9320 0.9320 0.9320 0.9320
5.641177 0.9320 0.9300 0.9250 0.9210 0.9170
5.674000 0.9130 0.9040 0.8960 0.8880 0.8810
5.707177 0.8800 0.8740 0.8640 0.8520 0.8410
5.740000 0.8250 0.8080 0.8020 0.8010 0.8010
5.773177 0.7920 0.7650 0.7370 0.6760 0.6080
5.807000 0.5460 0.5160 0.4980 0.4530 0.4170
5.840177 0.4080 0.4060 0.4090 0.5080 0.5530
5.873000 0.6040 0.6530 0.6700 0.6970 0.7240
5.906177 0.7730 0.8160 0.8370 0.8600 0.8660
5.939000 0.8770 0.8860 0.8880 0.8960 0.9010
5.972177 0.9040 0.9050 0.9080 0.9080 0.9120
6.006000 0.9160 0.9200 0.9280 0.9290 0.9300
6.039177 0.9300 0.9300 0.9320 0.9320 0.9320
6.072000 0.9320 0.9330 0.9340 0.9340 0.9360
6.105177 0.9360 0.9360 0.9360 0.9320 0.9300
6.138000 0.9240 0.9160 0.9080 0.9010 0.8850
6.171177 0.8700 0.8640 0.8570 0.8320 0.8140
6.205000 0.7730 0.7260 0.7050 0.6920 0.6840
6.238177 0.6720 0.6090 0.5960 0.5940 0.5970
6.271000 0.6780 0.7130 0.7480 0.8000 0.8060
6.304177 0.8540 0.8690 0.8880 0.9000 0.9100
6.337000 0.9210 0.9220 0.9170 0.9120 0.9060
6.370177 0.9020 0.8840 0.8680 0.8500 0.8410
6.404000 0.8400 0.8410 0.8370 0.8300 0.8120
6.437177 0.7820 0.7450 0.6740 0.6330 0.6120
6.470000 0.6020 0.5970 0.5880 0.5650 0.5100
6.503177 0.4600 0.4170 0.3850 0.3540 0.3530
6.536000 0.3580 0.3780 0.3980 0.4220 0.4560
6.569177 0.4810 0.5120 0.5520 0.5940 0.6460
6.603000 0.6980 0.7180 0.7340 0.7410 0.7540
6.636177 0.7730 0.7900 0.8140 0.8220 0.8320
6.669000 0.8370 0.8370 0.8260 0.8120 0.8090
6.702177 0.8090 0.8130 0.8250 0.8340 0.8440
6.735000 0.8560 0.8640 0.8640 0.8440 0.8360
6.768177 0.8330 0.8330 0.8330 0.8280 0.8210
6.802000 0.8180 0.8160 0.8090 0.8040 0.7980
6.835177 0.7920 0.7800 0.7800 0.7850 0.7930
6.868000 0.8010 0.8100 0.8100 0.8020 0.7860
6.901177 0.7730 0.7580 0.7580 0.7690 0.7920
6.934000 0.8120 0.8520 0.8860 0.8930 0.9040
6.967177 0.9100 0.9130 0.9210 0.9240 0.9240
7.000000 0.9090 0.8980 0.8850 0.8680 0.8420
7.033177 0.7920 0.7530 0.7220 0.6840 0.5280
7.067000 0.5120 0.5100 0.5130 0.5680 0.6180
7.100177 0.6460 0.7450 0.7820 0.8040 0.8200
7.133000 0.8440 0.8540 0.8560 0.8570 0.8610
7.166177 0.8610 0.8520 0.8420 0.8410 0.8440
7.199000 0.8500 0.8530 0.8580 0.8620 0.8620
7.232177 0.8520 0.8280 0.8100 0.7900 0.7660
7.266000 0.7620 0.7680 0.7890 0.8080 0.8240
7.299177 0.8460 0.8570 0.8640 0.8720 0.8930
7.332000 0.9050 0.9100 0.9130 0.9130 0.9140
7.365177 0.9140 0.9160 0.9160 0.9160 0.9160
7.398000 0.9140 0.9140 0.9130 0.9130 0.9130
7.431177 0.9120 0.9100 0.9100 0.9100 0.9100
7.465000 0.9090 0.9080 0.9060 0.9020 0.8980
7.498177 0.8840 0.8720 0.8600 0.8450 0.8340
7.531000 0.8300 0.8240 0.8140 0.8040 0.7970
7.564177 0.7850 0.7810 0.7760 0.7730 0.7640
7.597000 0.7440 0.7240 0.6840 0.5770 0.5700
7.630177 0.5680 0.5660 0.5690 0.6060 0.6380
7.664000 0.6770 0.7080 0.7330 0.7600 0.7880
7.697177 0.8090 0.8300 0.8440 0.8520 0.8610
7.730000 0.8720 0.8820 0.8880 0.8900 0.8920
7.763177 0.8960 0.9020 0.9040 0.9040 0.9060
7.796000 0.9100 0.9140 0.9160 0.9140 0.9130
7.829177 0.9100 0.9020 0.8960 0.8930 0.8890
7.863000 0.8860 0.8850 0.8840 0.8820 0.8810
7.896177 0.8780 0.8760 0.8730 0.8690 0.8640
7.929000 0.8610 0.8520 0.8500 0.8490 0.8440
7.962177 0.8410 0.8400 0.8410 0.8330 0.8290
7.995000 0.8260 0.8200 0.8090 0.7890 0.7570
8.028177 0.7410 0.7250 0.7060 0.6770 0.6540
8.062000 0.6210 0.5980 0.5600 0.5240 0.4920
8.095177 0.4380 0.3850 0.3500 0.3080 0.2980
8.128000 0.2840 0.2840 0.2840 0.2970 0.3130
8.161177 0.3210 0.3340 0.3520 0.3680 0.3850
8.194000 0.4120 0.4440 0.4810 0.5170 0.5380
8.227177 0.5640 0.6010 0.6300 0.6530 0.6720
8.261000 0.6880 0.7080 0.7180 0.7250 0.7420
8.294177 0.7520 0.7690 0.7800 0.7880 0.7980
8.327000 0.8100 0.8200 0.8300 0.8340 0.8440
8.360177 0.8480 0.8480 0.8450 0.8420 0.8360
8.393000 0.8330 0.8210 0.8040 0.7820 0.7680
8.426177 0.7610 0.7530 0.7520 0.7500 0.7500
8.459000 0.7690 0.7820 0.7900 0.8050 0.8250
8.492177 0.8380 0.8490 0.8610 0.8700 0.8810
8.526000 0.8840 0.8890 0.8890 0.8890 0.8890
8.559177 0.8880 0.8850 0.8820 0.8810 0.8800
8.592000 0.8760 0.8680 0.8570 0.8340 0.8090
8.625177 0.7880 0.7490 0.7300 0.7240 0.7240
8.658000 0.7250 0.7300 0.7360 0.7570 0.7880
8.691177 0.8080 0.8250 0.8420 0.8450 0.8450
8.725000 0.8450 0.8450 0.8460 0.8520 0.8570
8.758177 0.8650 0.8770 0.8920 0.9010 0.9060
8.791000 0.9090 0.9120 0.9130 0.9160 0.9200
8.824177 0.9240 0.9250 0.9260 0.9280 0.9280
8.857000 0.9280 0.9280 0.9260 0.9260 0.9240
8.890177 0.9240 0.9220 0.9210 0.9210 0.9180
8.924000 0.9170 0.9140 0.9120 0.9050 0.9000
8.957177 0.8920 0.8840 0.8770 0.8690 0.8610
8.990000 0.8530 0.8460 0.8410 0.8290 0.8260
9.023177 0.8260 0.8290 0.8440 0.8480 0.8600
9.056000 0.8650 0.8660 0.8680 0.8660 0.8650
9.089177 0.8620 0.8610 0.8610 0.8620 0.8640
9.123000 0.8680 0.8800 0.8820 0.8860 0.8970
9.156177 0.9010 0.9050 0.9050 0.9020 0.9000
9.189000 0.8970 0.8970 0.8920 0.8730 0.8530
9.222177 0.8340 0.8180 0.7930 0.7890 0.7890
9.255000 0.8010 0.8260 0.8440 0.8620 0.8800
9.288177 0.8860 0.8960 0.9040 0.9050 0.9040
9.322000 0.8940 0.8770 0.8680 0.8640 0.8540
9.355177 0.8520 0.8520 0.8480 0.8410 0.8280
9.388000 0.8180 0.7980 0.7800 0.7570 0.7380
9.421177 0.7360 0.7380 0.7460 0.7520 0.7580
9.454000 0.7740 0.7720 0.7530 0.7450 0.7280
9.487177 0.6980 0.6600 0.6240 0.5810 0.5450
9.521000 0.5210 0.4980 0.4960 0.4970 0.5000
9.554177 0.5250 0.5520 0.5780 0.6080 0.6250
9.587000 0.6420 0.6600 0.6800 0.6940 0.7120
9.620177 0.7140 0.7200 0.7410 0.7600 0.7720
9.653000 0.7920 0.8050 0.8160 0.8360 0.8450
9.686177 0.8570 0.8660 0.8760 0.8840 0.8930
9.720000 0.9000 0.9010 0.9040 0.9040 0.9100
9.753177 0.9140 0.9160 0.9160 0.9130 0.9080
9.786000 0.9040 0.8940 0.8820 0.8620 0.8620
9.819177 0.8640 0.8640 0.8640 0.8650 0.8650
9.852000 0.8650 0.8650 0.8680 0.8740 0.8820
9.885177 0.8930 0.9020 0.9100 0.9140 0.9180
9.919000 0.9220 0.9240 0.9250 0.9260 0.9260
9.952177 0.9260 0.9260 0.9260 0.9280 0.9290
9.985000 0.9300 0.9300 0.9320 0.9320 0.9330
10.018177 0.9360 0.9400 0.9400 0.9400 0.9400
10.051000 0.9400 0.9380 0.9370 0.9320 0.9300
10.084177 0.9280 0.9260 0.9220 0.9180 0.9140
10.117000 0.9100 0.8980 0.8730 0.8570 0.8400
10.150177 0.8160 0.7930 0.7900 0.7890 0.7920
10.184000 0.8020 0.8130 0.8210 0.8420 0.8610
10.217177 0.8800 0.8940 0.9020 0.9060 0.9120
10.250000 0.9130 0.9080 0.9040 0.8940 0.8890
10.283177 0.8770 0.8640 0.8520 0.8260 0.8160
10.316000 0.8130 0.8120 0.8140 0.8260 0.8420
10.349177 0.8440 0.8530 0.8610 0.8730 0.8810
10.383000 0.8970 0.9020 0.9100 0.9140 0.9200
10.416177 0.9220 0.9240 0.9260 0.9280 0.9290
10.449000 0.9300 0.9340 0.9370 0.9410 0.9410
10.482177 0.9400 0.9380 0.9340 0.9330 0.9320
10.515000 0.9330 0.9340 0.9400 0.9420 0.9440
10.548177 0.9440 0.9460 0.9480 0.9480 0.9490
10.582000 0.9500 0.9500 0.9520 0.9520 0.9520
10.615177 0.9520 0.9520 0.9520 0.9520 0.9520
10.648000 0.9520 0.9520 0.9520 0.9520 0.9500
10.681177 0.9500 0.9500 0.9490 0.9490 0.9480
10.714000 0.9460 0.9450 0.9440 0.9420 0.9410
10.747177 0.9410 0.9380 0.9360 0.9340 0.9300
10.781000 0.9240 0.9220 0.9180 0.9120 0.9080
10.814177 0.9040 0.9020 0.9020 0.9040 0.9040
10.847000 0.9020 0.9000 0.8960 0.8920 0.8920
10.880177 0.8920 0.8920 0.8940 0.9010 0.9080
10.913000 0.9120 0.9220 0.9300 0.9330 0.9400
10.946177 0.9420 0.9450 0.9460 0.9490 0.9500
10.980000 0.9540 0.9560 0.9570 0.9580 0.9610
11.013177 0.9610 0.9610 0.9610 0.9620 0.9620
11.046000 0.9620 0.9620 0.9620 0.9610 0.9610
11.079177 0.9600 0.9600 0.9600 0.9600 0.9580
11.112000 0.9600 0.9600 0.9610 0.9610 0.9620
11.145177 0.9620 0.9640 0.9640 0.9640 0.9650
11.179000 0.9650 0.9650 0.9650 0.9650 0.9650
11.212177 0.9620 0.9600 0.9580 0.9560 0.9560
11.245000 0.9560 0.9560 0.9540 0.9540 0.9520
11.278177 0.9520 0.9490 0.9490 0.9450 0.9400
11.311000 0.9360 0.9330 0.9280 0.9180 0.9170
11.344177 0.9170 0.9170 0.9200 0.9250 0.9320
11.378000 0.9370 0.9420 0.9440 0.9460 0.9460
11.411177 0.9460 0.9460 0.9460 0.9450 0.9450
11.444000 0.9420 0.9360 0.9300 0.9280 0.9260
11.477177 0.9220 0.9170 0.9120 0.9060 0.9020
11.510000 0.8980 0.8980 0.8980 0.9010 0.9060
11.543177 0.9100 0.9140 0.9200 0.9220 0.9260
11.577000 0.9290 0.9290 0.9360 0.9420 0.9420
11.610177 0.9420 0.9420 0.9420 0.9420 0.9420
11.643000 0.9420 0.9410 0.9410 0.9380 0.9370
11.676177 0.9360 0.9340 0.9320 0.9290 0.9280
11.709000 0.9260 0.9250 0.9210 0.9140 0.9040
11.742177 0.9010 0.8970 0.8840 0.8730 0.8620
11.775000 0.8530 0.8480 0.8300 0.8120 0.7880
11.808177 0.7600 0.7400 0.7200 0.6820 0.6610
11.842000 0.6220 0.6020 0.5810 0.5620 0.5530
11.875177 0.5500 0.5490 0.5600 0.5720 0.5880
11.908000 0.6050 0.6200 0.6330 0.6490 0.6610
11.941177 0.6800 0.7000 0.7140 0.7340 0.7530
11.974000 0.7680 0.7800 0.7970 0.8000 0.8160
12.007177 0.8320 0.8400 0.8420 0.8540 0.8580
12.041000 0.8620 0.8740 0.8840 0.8920 0.8930
12.074177 0.8940 0.8960 0.9010 0.9040 0.9050
12.107000 0.9090 0.9100 0.9130 0.9160 0.9170
12.140177 0.9170 0.9180 0.9180 0.9200 0.9210
12.173000 0.9210 0.9210 0.9210 0.9210 0.9210
12.206177 0.9210 0.9210 0.9210 0.9210 0.9210
12.240000 0.9210 0.9210 0.9220 0.9220 0.9220
12.273177 0.9220 0.9220 0.9220 0.9220 0.9220
12.306000 0.9220 0.9210 0.9210 0.9210 0.9210
12.339177 0.9210 0.9210 0.9210 0.9210 0.9210
12.372000 0.9210 0.9210 0.9210 0.9210 0.9210
12.405177 0.9220 0.9220 0.9220 0.9240 0.9240
12.439000 0.9240 0.9240 0.9250 0.9250 0.9260
12.472177 0.9260 0.9260 0.9280 0.9280 0.9290
12.505000 0.9290 0.9280 0.9280 0.9260 0.9260
12.538177 0.9250 0.9240 0.9220 0.9210 0.9200
12.571000 0.9180 0.9160 0.9140 0.9130 0.9090
12.604177 0.9060 0.9050 0.9050 0.9040 0.9000
12.638000 0.8970 0.8960 0.8940 0.8930 0.8900
12.671177 0.8890 0.8880 0.8850 0.8840 0.8810
12.704000 0.8800 0.8780 0.8770 0.8760 0.8740
12.737177 0.8730 0.8720 0.8700 0.8690 0.8680
12.770000 0.8660 0.8650 0.8640 0.8640 0.8620
12.803177 0.8620 0.8610 0.8610 0.8620 0.8640
12.837000 0.8650 0.8660 0.8690 0.8720 0.8720
12.870177 0.8730 0.8730 0.8740 0.8770 0.8770
12.903000 0.8770 0.8770 0.8760 0.8740 0.8720
12.936177 0.8700 0.8620 0.8520 0.8450 0.8370
12.969000 0.8290 0.8220 0.8080 0.8010 0.7880
13.002177 0.7730 0.7580 0.7530 0.7380 0.7280
13.036000 0.7170 0.7040 0.6860 0.6700 0.6540
13.069177 0.6370 0.6300 0.6280 0.6260 0.6300
13.102000 0.6370 0.6490 0.6660 0.6820 0.7020
13.135177 0.7240 0.7450 0.7610 0.7800 0.7900
13.168000 0.7980 0.8130 0.8210 0.8260 0.8330
13.201177 0.8420 0.8520 0.8560 0.8580 0.8620
13.234000 0.8650 0.8700 0.8740 0.8770 0.8810
13.267177 0.8840 0.8850 0.8900 0.8940 0.8970
13.301000 0.8980 0.8980 0.9000 0.9000 0.9000
13.334177 0.9000 0.8980 0.8970 0.8960 0.8940
13.367000 0.8900 0.8850 0.8840 0.8820 0.8810
13.400177 0.8800 0.8800 0.8780 0.8780 0.8780
13.433000 0.8810 0.8840 0.8840 0.8860 0.8890
13.466177 0.8900 0.8940 0.8960 0.8970 0.9000
13.500000 0.9020 0.9040 0.9050 0.9050 0.9080
13.533177 0.9100 0.9100 0.9120 0.9120 0.9120
13.566000 0.9130 0.9130 0.9140 0.9140 0.9140
13.599177 0.9140 0.9140 0.9140 0.9140 0.9140
13.632000 0.9140 0.9140 0.9140 0.9140 0.9140
13.665177 0.9140 0.9140 0.9140 0.9140 0.9140
13.699000 0.9140 0.9140 0.9140 0.9140 0.9140
13.732177 0.9140 0.9140 0.9130 0.9130 0.9120
13.765000 0.9120 0.9100 0.9100 0.9090 0.9060
13.798177 0.9050 0.9050 0.9040 0.9020 0.9010
13.831000 0.9000 0.9000 0.8940 0.8880 0.8800
13.864177 0.8730 0.8640 0.8600 0.8560 0.8460
13.898000 0.8300 0.8210 0.8170 0.8140 0.8090
13.931177 0.8020 0.8010 0.8020 0.8080 0.8130
13.964000 0.8200 0.8250 0.8330 0.8400 0.8480
13.997177 0.8530 0.8560 0.8600 0.8610 0.8640
14.030000 0.8700 0.8760 0.8800 0.8810 0.8850
14.063177 0.8880 0.8920 0.8920 0.8930 0.8960
14.097000 0.8960 0.8960 0.8970 0.8970 0.8970
14.130177 0.8980 0.8980 0.8980 0.8980 0.8980
14.163000 0.8980 0.8980 0.8980 0.8980 0.8980
14.196177 0.8980 0.8970 0.8970 0.8960 0.8960
14.229000 0.8960 0.8940 0.8930 0.8920 0.8900
14.262177 0.8890 0.8880 0.8860 0.8850 0.8820
14.296000 0.8800 0.8770 0.8740 0.8730 0.8720
14.329177 0.8690 0.8680 0.8660 0.8650 0.8620
14.362000 0.8610 0.8560 0.8530 0.8500 0.8480
14.395177 0.8450 0.8440 0.8410 0.8360 0.8300
14.428000 0.8210 0.8200 0.8120 0.8060 0.8020
14.461177 0.7970 0.7900 0.7850 0.7780 0.7690
14.495000 0.7570 0.7450 0.7330 0.7180 0.7050
14.528177 0.6900 0.6800 0.6660 0.6500 0.6400
14.561000 0.6260 0.6170 0.6090 0.5920 0.5860
14.594177 0.5860 0.5900 0.6010 0.6060 0.6120
14.627000 0.6170 0.6280 0.6440 0.6560 0.6650
14.660177 0.6800 0.6930 0.7060 0.7170 0.7290
14.694000 0.7400 0.7490 0.7600 0.7690 0.7770
14.727177 0.7840 0.7860 0.7920 0.7930 0.7940
14.760000 0.8010 0.8050 0.8060 0.8100 0.8100
14.793177 0.8120 0.8120 0.8130 0.8140 0.8140
14.826000 0.8140 0.8140 0.8140 0.8140 0.8140
14.859177 0.8140 0.8140 0.8130 0.8120 0.8080
14.892000 0.7930 0.7920 0.7850 0.7810 0.7690
14.925177 0.7570 0.7500 0.7370 0.7340 0.7360
14.959000 0.7420 0.7450 0.7520 0.7610 0.7760
14.992177 0.7900 0.8080 0.8250 0.8400
##END=
