##TITLE=YTTRIUM OXALATE
##JCAMP-DX=4.24
##DATA TYPE=INFRARED SPECTRUM
##CLASS=COBLENTZ
##OWNER=COBLENTZ SOCIETY
Collection (C) 2018 copyright by the U.S. Secretary of Commerce
on behalf of the United States of America. All rights reserved.
##DATE=Not specified, most likely prior to 1970
##MOLFORM=Y2 ( C2 O4)3  * 9 H2 O
##SOURCE REFERENCE=COBLENTZ NO. 81
##$NIST ID=B6000081
##$NIST SOURCE=COBLENTZ
##$NIST IMAGE=cob81
##SPECTROMETER/DATA SYSTEM=Not specified, most likely a prism, grating, or hybrid spectrometer.
##STATE=SOLID (KBr DISC)
##SAMPLING PROCEDURE=TRANSMISSION
##RESOLUTION=4
##DATA PROCESSING=DIGITIZED BY NIST FROM HARD COPY
##XUNITS=MICROMETERS
##YUNITS=TRANSMITTANCE
##XFACTOR=1.000000
##YFACTOR=1
##DELTAX=000.007582
##FIRSTX=2.006
##LASTX=14.9491
##FIRSTY=0.947
##MAXX=14.9491
##MINX=2.006
##MAXY=0.988
##MINY=0.169
##NPOINTS=1708
##XYDATA=(X++(Y..Y))
2.006000 0.9470 0.9470 0.9470 0.9470 0.9470
2.043933 0.9490 0.9490 0.9490 0.9490 0.9490
2.082000 0.9490 0.9490 0.9490 0.9490 0.9500
2.119933 0.9500 0.9500 0.9500 0.9500 0.9500
2.158000 0.9500 0.9500 0.9500 0.9500 0.9500
2.195933 0.9500 0.9520 0.9520 0.9520 0.9520
2.233000 0.9520 0.9520 0.9530 0.9550 0.9550
2.270933 0.9550 0.9550 0.9560 0.9560 0.9560
2.309000 0.9560 0.9560 0.9560 0.9560 0.9580
2.346933 0.9580 0.9580 0.9590 0.9590 0.9590
2.385000 0.9590 0.9590 0.9590 0.9610 0.9610
2.422933 0.9610 0.9610 0.9610 0.9610 0.9610
2.461000 0.9610 0.9610 0.9610 0.9610 0.9620
2.498933 0.9620 0.9620 0.9620 0.9620 0.9620
2.537000 0.9620 0.9620 0.9620 0.9620 0.9640
2.574933 0.9640 0.9640 0.9640 0.9640 0.9640
2.612000 0.9640 0.9640 0.9640 0.9650 0.9650
2.649933 0.9650 0.9650 0.9650 0.9650 0.9650
2.688000 0.9650 0.9670 0.9670 0.9670 0.9680
2.725933 0.9680 0.9670 0.9670 0.9650 0.9650
2.764000 0.9640 0.9610 0.9490 0.9210 0.8940
2.801933 0.8660 0.8390 0.8260 0.8090 0.7930
2.840000 0.7750 0.7480 0.7380 0.7230 0.6930
2.877933 0.6700 0.6530 0.6350 0.6060 0.5850
2.916000 0.5750 0.5670 0.5550 0.5450 0.5370
2.953933 0.5330 0.5300 0.5280 0.5280 0.5270
2.992000 0.5270 0.5280 0.5280 0.5310 0.5340
3.029933 0.5390 0.5430 0.5520 0.5610 0.5760
3.067000 0.5850 0.5940 0.6030 0.6130 0.6240
3.104933 0.6270 0.6350 0.6410 0.6500 0.6620
3.143000 0.6710 0.6800 0.6860 0.6890 0.6990
3.180933 0.7050 0.7100 0.7260 0.7350 0.7410
3.219000 0.7500 0.7570 0.7630 0.7740 0.7830
3.256933 0.7890 0.7960 0.8050 0.8110 0.8180
3.295000 0.8240 0.8300 0.8350 0.8390 0.8430
3.332933 0.8490 0.8540 0.8570 0.8580 0.8610
3.371000 0.8640 0.8670 0.8690 0.8700 0.8720
3.408933 0.8720 0.8730 0.8760 0.8780 0.8790
3.447000 0.8820 0.8850 0.8880 0.8900 0.8940
3.484933 0.8980 0.9010 0.9010 0.9060 0.9090
3.522000 0.9120 0.9150 0.9160 0.9160 0.9180
3.559933 0.9190 0.9220 0.9240 0.9270 0.9300
3.598000 0.9300 0.9310 0.9330 0.9340 0.9340
3.635933 0.9360 0.9360 0.9370 0.9390 0.9420
3.674000 0.9430 0.9450 0.9460 0.9490 0.9500
3.711933 0.9500 0.9520 0.9530 0.9530 0.9550
3.750000 0.9560 0.9580 0.9590 0.9590 0.9590
3.787933 0.9610 0.9610 0.9610 0.9610 0.9610
3.826000 0.9610 0.9620 0.9620 0.9640 0.9640
3.863933 0.9640 0.9670 0.9700 0.9700 0.9710
3.901000 0.9710 0.9710 0.9730 0.9730 0.9740
3.938933 0.9740 0.9760 0.9760 0.9740 0.9760
3.977000 0.9760 0.9760 0.9760 0.9740 0.9740
4.014933 0.9760 0.9760 0.9760 0.9770 0.9770
4.053000 0.9770 0.9790 0.9790 0.9790 0.9800
4.090933 0.9800 0.9800 0.9800 0.9800 0.9800
4.129000 0.9800 0.9800 0.9800 0.9800 0.9800
4.166933 0.9800 0.9800 0.9820 0.9820 0.9800
4.205000 0.9800 0.9820 0.9820 0.9820 0.9820
4.242933 0.9820 0.9820 0.9820 0.9820 0.9820
4.281000 0.9820 0.9820 0.9820 0.9800 0.9800
4.318933 0.9800 0.9800 0.9800 0.9800 0.9800
4.356000 0.9800 0.9820 0.9820 0.9820 0.9820
4.393933 0.9820 0.9820 0.9820 0.9820 0.9820
4.432000 0.9820 0.9820 0.9820 0.9820 0.9820
4.469933 0.9820 0.9820 0.9820 0.9820 0.9820
4.508000 0.9820 0.9820 0.9820 0.9820 0.9820
4.545933 0.9830 0.9830 0.9830 0.9830 0.9830
4.584000 0.9830 0.9830 0.9830 0.9820 0.9820
4.621933 0.9820 0.9830 0.9830 0.9830 0.9830
4.660000 0.9830 0.9830 0.9830 0.9830 0.9830
4.697933 0.9830 0.9830 0.9830 0.9830 0.9830
4.735000 0.9830 0.9830 0.9830 0.9830 0.9830
4.772933 0.9830 0.9830 0.9830 0.9830 0.9830
4.811000 0.9830 0.9830 0.9830 0.9830 0.9830
4.848933 0.9850 0.9850 0.9850 0.9850 0.9850
4.887000 0.9850 0.9850 0.9850 0.9850 0.9850
4.924933 0.9850 0.9850 0.9850 0.9850 0.9850
4.963000 0.9850 0.9850 0.9850 0.9850 0.9860
5.000933 0.9860 0.9880 0.9860 0.9860 0.9880
5.039000 0.9860 0.9860 0.9860 0.9860 0.9860
5.076933 0.9860 0.9860 0.9860 0.9860 0.9860
5.115000 0.9860 0.9860 0.9860 0.9860 0.9860
5.152933 0.9860 0.9860 0.9860 0.9860 0.9860
5.190000 0.9860 0.9850 0.9850 0.9850 0.9830
5.227933 0.9820 0.9820 0.9800 0.9800 0.9800
5.266000 0.9790 0.9790 0.9790 0.9790 0.9800
5.303933 0.9800 0.9800 0.9800 0.9800 0.9800
5.342000 0.9800 0.9800 0.9800 0.9800 0.9800
5.379933 0.9800 0.9800 0.9800 0.9800 0.9790
5.418000 0.9790 0.9790 0.9770 0.9770 0.9770
5.455933 0.9770 0.9760 0.9740 0.9740 0.9730
5.494000 0.9710 0.9700 0.9680 0.9670 0.9640
5.531933 0.9640 0.9640 0.9640 0.9640 0.9640
5.570000 0.9620 0.9610 0.9590 0.9560 0.9550
5.607933 0.9520 0.9500 0.9470 0.9460 0.9450
5.645000 0.9430 0.9400 0.9340 0.9300 0.9270
5.682933 0.9240 0.9190 0.9160 0.9090 0.9010
5.721000 0.8980 0.8940 0.8910 0.8820 0.8750
5.758933 0.8690 0.8570 0.8260 0.7900 0.7480
5.797000 0.7340 0.7230 0.7110 0.7050 0.6860
5.834933 0.6500 0.6240 0.6130 0.6010 0.5690
5.873000 0.5510 0.5360 0.5210 0.5110 0.4660
5.910933 0.4450 0.4100 0.3980 0.3840 0.3770
5.949000 0.3710 0.3460 0.3340 0.2850 0.2600
5.986933 0.2360 0.2190 0.1970 0.1930 0.1880
6.024000 0.1870 0.1850 0.1850 0.1820 0.1820
6.061933 0.1790 0.1750 0.1730 0.1700 0.1690
6.100000 0.1690 0.1690 0.1690 0.1700 0.1700
6.137933 0.1750 0.1840 0.1910 0.2100 0.2280
6.176000 0.2510 0.2600 0.3030 0.3170 0.3290
6.213933 0.3520 0.3710 0.3950 0.4390 0.4680
6.252000 0.4760 0.5050 0.5200 0.5310 0.5520
6.289933 0.5720 0.5800 0.5980 0.6180 0.6240
6.328000 0.6280 0.6430 0.6470 0.6610 0.6890
6.365933 0.7080 0.7200 0.7260 0.7360 0.7380
6.404000 0.7390 0.7440 0.7540 0.7630 0.7720
6.441933 0.7780 0.7830 0.7900 0.7960 0.7970
6.479000 0.8000 0.8020 0.8060 0.8110 0.8210
6.516933 0.8320 0.8350 0.8410 0.8420 0.8430
6.555000 0.8430 0.8450 0.8460 0.8480 0.8480
6.592933 0.8540 0.8610 0.8630 0.8630 0.8640
6.631000 0.8660 0.8690 0.8760 0.8790 0.8840
6.668933 0.8850 0.8850 0.8850 0.8870 0.8870
6.707000 0.8850 0.8840 0.8840 0.8820 0.8760
6.744933 0.8700 0.8670 0.8660 0.8640 0.8630
6.783000 0.8630 0.8630 0.8610 0.8610 0.8610
6.820933 0.8610 0.8630 0.8640 0.8660 0.8670
6.858000 0.8690 0.8720 0.8760 0.8820 0.8840
6.895933 0.8880 0.8900 0.8910 0.8940 0.8950
6.934000 0.8970 0.8970 0.9000 0.9010 0.9030
6.971933 0.9040 0.9060 0.9070 0.9070 0.9070
7.010000 0.9090 0.9100 0.9100 0.9120 0.9120
7.047933 0.9120 0.9150 0.9160 0.9180 0.9180
7.086000 0.9190 0.9190 0.9210 0.9210 0.9210
7.123933 0.9210 0.9210 0.9210 0.9220 0.9220
7.162000 0.9220 0.9220 0.9220 0.9220 0.9220
7.199933 0.9220 0.9210 0.9210 0.9210 0.9180
7.238000 0.9130 0.9040 0.8980 0.8940 0.8910
7.275933 0.8790 0.8700 0.8600 0.8510 0.8410
7.313000 0.8320 0.8210 0.8060 0.7940 0.7870
7.350933 0.7800 0.7780 0.7750 0.7740 0.7740
7.389000 0.7720 0.7720 0.7710 0.7710 0.7710
7.426933 0.7710 0.7710 0.7720 0.7720 0.7720
7.465000 0.7720 0.7710 0.7680 0.7620 0.7510
7.502933 0.7390 0.7290 0.7160 0.7050 0.6890
7.541000 0.6740 0.6560 0.6340 0.6220 0.6030
7.578933 0.5920 0.5890 0.5880 0.5880 0.5860
7.617000 0.5860 0.5860 0.5890 0.5950 0.6010
7.654933 0.6070 0.6090 0.6130 0.6160 0.6210
7.693000 0.6240 0.6340 0.6550 0.6670 0.6820
7.730933 0.6950 0.7190 0.7410 0.7540 0.7690
7.768000 0.7780 0.7890 0.8020 0.8210 0.8260
7.805933 0.8390 0.8460 0.8550 0.8660 0.8720
7.844000 0.8760 0.8810 0.8840 0.8880 0.8940
7.881933 0.8950 0.8970 0.9000 0.9010 0.9030
7.920000 0.9060 0.9070 0.9120 0.9120 0.9130
7.957933 0.9130 0.9130 0.9150 0.9150 0.9150
7.996000 0.9150 0.9150 0.9150 0.9150 0.9160
8.033933 0.9180 0.9180 0.9190 0.9190 0.9190
8.072000 0.9210 0.9210 0.9220 0.9220 0.9240
8.109933 0.9250 0.9250 0.9250 0.9250 0.9270
8.147000 0.9270 0.9270 0.9270 0.9270 0.9270
8.184933 0.9270 0.9280 0.9280 0.9280 0.9280
8.223000 0.9300 0.9300 0.9300 0.9300 0.9300
8.260933 0.9300 0.9310 0.9310 0.9310 0.9330
8.299000 0.9330 0.9330 0.9340 0.9340 0.9340
8.336933 0.9340 0.9340 0.9360 0.9360 0.9360
8.375000 0.9370 0.9390 0.9390 0.9390 0.9390
8.412933 0.9390 0.9390 0.9390 0.9400 0.9400
8.451000 0.9400 0.9400 0.9400 0.9400 0.9400
8.488933 0.9400 0.9400 0.9400 0.9400 0.9400
8.527000 0.9400 0.9400 0.9400 0.9400 0.9400
8.564933 0.9400 0.9400 0.9400 0.9400 0.9400
8.602000 0.9400 0.9400 0.9400 0.9400 0.9400
8.639933 0.9400 0.9400 0.9400 0.9400 0.9400
8.678000 0.9400 0.9400 0.9400 0.9400 0.9420
8.715933 0.9420 0.9420 0.9420 0.9420 0.9420
8.754000 0.9420 0.9420 0.9400 0.9400 0.9400
8.791933 0.9420 0.9400 0.9400 0.9400 0.9420
8.830000 0.9420 0.9420 0.9420 0.9430 0.9430
8.867933 0.9420 0.9420 0.9420 0.9420 0.9420
8.906000 0.9430 0.9430 0.9430 0.9430 0.9450
8.943933 0.9450 0.9430 0.9430 0.9430 0.9430
8.981000 0.9430 0.9430 0.9430 0.9430 0.9450
9.018933 0.9450 0.9450 0.9450 0.9450 0.9450
9.057000 0.9450 0.9450 0.9450 0.9450 0.9450
9.094933 0.9450 0.9450 0.9450 0.9450 0.9450
9.133000 0.9450 0.9450 0.9450 0.9450 0.9450
9.170933 0.9450 0.9450 0.9430 0.9430 0.9430
9.209000 0.9430 0.9430 0.9430 0.9430 0.9430
9.246933 0.9430 0.9430 0.9430 0.9430 0.9430
9.285000 0.9430 0.9430 0.9430 0.9430 0.9430
9.322933 0.9430 0.9430 0.9430 0.9430 0.9430
9.361000 0.9430 0.9450 0.9450 0.9450 0.9450
9.398933 0.9450 0.9450 0.9450 0.9450 0.9450
9.436000 0.9450 0.9450 0.9450 0.9450 0.9450
9.473933 0.9450 0.9450 0.9450 0.9450 0.9450
9.512000 0.9450 0.9450 0.9460 0.9460 0.9460
9.549933 0.9460 0.9460 0.9450 0.9450 0.9450
9.588000 0.9450 0.9450 0.9450 0.9450 0.9450
9.625933 0.9450 0.9450 0.9450 0.9450 0.9450
9.664000 0.9450 0.9450 0.9450 0.9450 0.9450
9.701933 0.9450 0.9450 0.9450 0.9450 0.9450
9.740000 0.9450 0.9450 0.9450 0.9450 0.9460
9.777933 0.9460 0.9460 0.9460 0.9460 0.9460
9.816000 0.9450 0.9450 0.9450 0.9450 0.9450
9.853933 0.9460 0.9460 0.9450 0.9450 0.9450
9.891000 0.9450 0.9450 0.9460 0.9460 0.9450
9.928933 0.9450 0.9450 0.9450 0.9450 0.9450
9.967000 0.9450 0.9450 0.9450 0.9450 0.9450
10.004933 0.9430 0.9430 0.9430 0.9450 0.9450
10.043000 0.9450 0.9450 0.9450 0.9460 0.9450
10.080933 0.9450 0.9460 0.9460 0.9460 0.9460
10.119000 0.9460 0.9460 0.9460 0.9460 0.9470
10.156933 0.9470 0.9460 0.9460 0.9460 0.9460
10.195000 0.9470 0.9470 0.9470 0.9470 0.9470
10.232933 0.9470 0.9470 0.9470 0.9470 0.9470
10.270000 0.9470 0.9470 0.9470 0.9490 0.9490
10.307933 0.9490 0.9490 0.9490 0.9500 0.9490
10.346000 0.9490 0.9490 0.9490 0.9500 0.9500
10.383933 0.9500 0.9500 0.9500 0.9500 0.9500
10.422000 0.9520 0.9520 0.9520 0.9520 0.9520
10.459933 0.9520 0.9520 0.9520 0.9520 0.9520
10.498000 0.9520 0.9520 0.9520 0.9520 0.9520
10.535933 0.9520 0.9520 0.9520 0.9520 0.9520
10.574000 0.9520 0.9520 0.9520 0.9520 0.9520
10.611933 0.9520 0.9530 0.9530 0.9530 0.9530
10.650000 0.9530 0.9530 0.9530 0.9530 0.9530
10.687933 0.9530 0.9530 0.9530 0.9530 0.9530
10.725000 0.9550 0.9550 0.9550 0.9530 0.9530
10.762933 0.9530 0.9530 0.9530 0.9530 0.9520
10.801000 0.9530 0.9520 0.9520 0.9520 0.9520
10.838933 0.9500 0.9500 0.9490 0.9490 0.9470
10.877000 0.9470 0.9470 0.9470 0.9470 0.9470
10.914933 0.9470 0.9470 0.9460 0.9460 0.9460
10.953000 0.9460 0.9460 0.9450 0.9450 0.9450
10.990933 0.9460 0.9460 0.9460 0.9460 0.9460
11.029000 0.9460 0.9470 0.9470 0.9470 0.9470
11.066933 0.9470 0.9470 0.9470 0.9470 0.9470
11.104000 0.9470 0.9470 0.9490 0.9490 0.9470
11.141933 0.9470 0.9470 0.9490 0.9490 0.9490
11.180000 0.9490 0.9490 0.9490 0.9490 0.9470
11.217933 0.9470 0.9470 0.9470 0.9470 0.9470
11.256000 0.9470 0.9470 0.9490 0.9490 0.9470
11.293933 0.9470 0.9490 0.9490 0.9490 0.9490
11.332000 0.9490 0.9490 0.9490 0.9490 0.9490
11.369933 0.9490 0.9490 0.9490 0.9490 0.9490
11.408000 0.9490 0.9490 0.9490 0.9490 0.9490
11.445933 0.9490 0.9490 0.9490 0.9490 0.9500
11.484000 0.9500 0.9500 0.9500 0.9500 0.9500
11.521933 0.9500 0.9500 0.9500 0.9490 0.9490
11.559000 0.9470 0.9460 0.9450 0.9450 0.9450
11.596933 0.9450 0.9450 0.9450 0.9450 0.9450
11.635000 0.9450 0.9430 0.9430 0.9430 0.9430
11.672933 0.9430 0.9420 0.9420 0.9420 0.9420
11.711000 0.9430 0.9430 0.9430 0.9430 0.9430
11.748933 0.9430 0.9430 0.9430 0.9420 0.9420
11.787000 0.9420 0.9420 0.9420 0.9420 0.9420
11.824933 0.9420 0.9420 0.9420 0.9400 0.9400
11.863000 0.9400 0.9420 0.9420 0.9400 0.9400
11.900933 0.9390 0.9390 0.9390 0.9370 0.9370
11.939000 0.9370 0.9360 0.9360 0.9360 0.9340
11.976933 0.9340 0.9340 0.9330 0.9330 0.9330
12.014000 0.9300 0.9280 0.9270 0.9240 0.9190
12.051933 0.9180 0.9180 0.9160 0.9160 0.9150
12.090000 0.9120 0.9120 0.9090 0.9070 0.9030
12.127933 0.8980 0.8950 0.8930 0.8910 0.8870
12.166000 0.8810 0.8750 0.8700 0.8660 0.8610
12.203933 0.8520 0.8430 0.8320 0.8230 0.8120
12.242000 0.8060 0.8020 0.7910 0.7830 0.7780
12.279933 0.7690 0.7480 0.7440 0.7360 0.7350
12.318000 0.7260 0.7200 0.7110 0.7070 0.7040
12.355933 0.7010 0.6990 0.6930 0.6840 0.6800
12.393000 0.6760 0.6740 0.6710 0.6680 0.6670
12.430933 0.6650 0.6650 0.6620 0.6590 0.6580
12.469000 0.6560 0.6560 0.6560 0.6550 0.6550
12.506933 0.6550 0.6560 0.6560 0.6580 0.6610
12.545000 0.6620 0.6650 0.6730 0.6790 0.6920
12.582933 0.6960 0.7100 0.7230 0.7390 0.7470
12.621000 0.7500 0.7650 0.7720 0.7780 0.7860
12.658933 0.7890 0.8000 0.8030 0.8090 0.8120
12.697000 0.8170 0.8260 0.8290 0.8300 0.8350
12.734933 0.8380 0.8410 0.8420 0.8460 0.8480
12.773000 0.8510 0.8520 0.8540 0.8550 0.8570
12.810933 0.8580 0.8600 0.8610 0.8630 0.8640
12.848000 0.8640 0.8660 0.8660 0.8670 0.8690
12.885933 0.8700 0.8730 0.8760 0.8780 0.8780
12.924000 0.8780 0.8790 0.8790 0.8810 0.8810
12.961933 0.8810 0.8820 0.8820 0.8820 0.8840
13.000000 0.8840 0.8820 0.8820 0.8820 0.8820
13.037933 0.8820 0.8820 0.8820 0.8820 0.8820
13.076000 0.8820 0.8820 0.8820 0.8820 0.8820
13.113933 0.8820 0.8820 0.8820 0.8840 0.8840
13.152000 0.8840 0.8840 0.8840 0.8840 0.8840
13.189933 0.8840 0.8840 0.8840 0.8820 0.8820
13.227000 0.8820 0.8820 0.8820 0.8820 0.8820
13.264933 0.8820 0.8820 0.8810 0.8810 0.8810
13.303000 0.8810 0.8810 0.8810 0.8810 0.8810
13.340933 0.8810 0.8810 0.8810 0.8810 0.8810
13.379000 0.8790 0.8790 0.8790 0.8780 0.8780
13.416933 0.8760 0.8760 0.8760 0.8750 0.8750
13.455000 0.8750 0.8730 0.8750 0.8730 0.8730
13.492933 0.8730 0.8730 0.8730 0.8730 0.8730
13.531000 0.8730 0.8730 0.8730 0.8730 0.8730
13.568933 0.8720 0.8720 0.8720 0.8720 0.8700
13.607000 0.8700 0.8720 0.8720 0.8700 0.8700
13.644933 0.8690 0.8690 0.8690 0.8690 0.8690
13.682000 0.8690 0.8690 0.8690 0.8690 0.8690
13.719933 0.8690 0.8690 0.8690 0.8690 0.8670
13.758000 0.8670 0.8690 0.8690 0.8690 0.8690
13.795933 0.8690 0.8690 0.8670 0.8670 0.8690
13.834000 0.8690 0.8690 0.8690 0.8690 0.8690
13.871933 0.8690 0.8690 0.8690 0.8690 0.8690
13.910000 0.8670 0.8670 0.8670 0.8670 0.8660
13.947933 0.8660 0.8660 0.8640 0.8640 0.8640
13.986000 0.8640 0.8630 0.8630 0.8630 0.8630
14.023933 0.8630 0.8630 0.8630 0.8630 0.8630
14.061000 0.8630 0.8640 0.8640 0.8640 0.8640
14.098933 0.8640 0.8640 0.8640 0.8640 0.8630
14.137000 0.8630 0.8630 0.8630 0.8630 0.8630
14.174933 0.8630 0.8630 0.8630 0.8630 0.8630
14.213000 0.8630 0.8630 0.8630 0.8630 0.8630
14.250933 0.8630 0.8630 0.8630 0.8610 0.8610
14.289000 0.8610 0.8610 0.8600 0.8600 0.8600
14.326933 0.8600 0.8580 0.8580 0.8580 0.8580
14.365000 0.8580 0.8580 0.8580 0.8580 0.8570
14.402933 0.8570 0.8580 0.8580 0.8580 0.8580
14.441000 0.8580 0.8580 0.8580 0.8580 0.8580
14.478933 0.8580 0.8580 0.8570 0.8570 0.8570
14.516000 0.8570 0.8570 0.8570 0.8570 0.8570
14.553933 0.8570 0.8570 0.8570 0.8570 0.8570
14.592000 0.8570 0.8570 0.8570 0.8570 0.8570
14.629933 0.8570 0.8570 0.8570 0.8570 0.8570
14.668000 0.8570 0.8570 0.8570 0.8570 0.8570
14.705933 0.8570 0.8570 0.8570 0.8570 0.8570
14.744000 0.8570 0.8570 0.8570 0.8570 0.8570
14.781933 0.8570 0.8550 0.8550 0.8550 0.8550
14.820000 0.8550 0.8550 0.8550 0.8540 0.8540
14.857933 0.8540 0.8540 0.8540 0.8540 0.8540
14.896000 0.8520 0.8520 0.8540 0.8540 0.8540
14.933933 0.8550 0.8550 0.8550
##END=
