##TITLE=LEAD HYDROGEN PHOSPHITE
##JCAMP-DX=4.24
##DATA TYPE=INFRARED SPECTRUM
##CLASS=COBLENTZ
##OWNER=COBLENTZ SOCIETY
Collection (C) 2018 copyright by the U.S. Secretary of Commerce
on behalf of the United States of America. All rights reserved.
##DATE=Not specified, most likely prior to 1970
##MOLFORM=Pb H P O3
##SOURCE REFERENCE=COBLENTZ NO. 198
##$NIST ID=B6000198
##$NIST SOURCE=COBLENTZ
##$NIST IMAGE=cob198
##SPECTROMETER/DATA SYSTEM=Not specified, most likely a prism, grating, or hybrid spectrometer.
##STATE=SOLID (NUJOL MULL)
##SAMPLING PROCEDURE=TRANSMISSION
##RESOLUTION=4
##DATA PROCESSING=DIGITIZED BY NIST FROM HARD COPY
##XUNITS=MICROMETERS
##YUNITS=TRANSMITTANCE
##XFACTOR=1.000000
##YFACTOR=1
##DELTAX=000.006711
##FIRSTX=2.007
##LASTX=15.1946
##FIRSTY=0.609
##MAXX=15.1946
##MINX=2.007
##MAXY=0.963
##MINY=0.05
##NPOINTS=1966
##XYDATA=(X++(Y..Y))
2.007000 0.6090 0.6070 0.6050 0.6040 0.6020
2.040574 0.6020 0.6040 0.6050 0.6070 0.6090
2.074000 0.6100 0.6120 0.6120 0.6140 0.6140
2.107574 0.6150 0.6190 0.6190 0.6200 0.6200
2.141000 0.6200 0.6220 0.6220 0.6240 0.6240
2.174574 0.6250 0.6270 0.6290 0.6300 0.6340
2.208000 0.6370 0.6390 0.6400 0.6400 0.6420
2.241574 0.6420 0.6440 0.6450 0.6470 0.6490
2.275000 0.6490 0.6510 0.6510 0.6510 0.6520
2.308574 0.6520 0.6540 0.6540 0.6540 0.6540
2.342000 0.6540 0.6560 0.6560 0.6590 0.6610
2.375574 0.6620 0.6660 0.6690 0.6690 0.6710
2.409000 0.6710 0.6710 0.6720 0.6720 0.6720
2.442574 0.6740 0.6740 0.6740 0.6760 0.6770
2.477000 0.6790 0.6810 0.6870 0.6890 0.6910
2.510574 0.6910 0.6920 0.6920 0.6920 0.6910
2.544000 0.6910 0.6910 0.6910 0.6910 0.6910
2.577574 0.6920 0.6920 0.6940 0.6940 0.6960
2.611000 0.6970 0.6990 0.7010 0.7030 0.7040
2.644574 0.7060 0.7060 0.7090 0.7110 0.7130
2.678000 0.7140 0.7160 0.7180 0.7180 0.7190
2.711574 0.7190 0.7210 0.7210 0.7210 0.7210
2.745000 0.7210 0.7230 0.7230 0.7240 0.7260
2.778574 0.7280 0.7280 0.7280 0.7280 0.7290
2.812000 0.7310 0.7330 0.7340 0.7360 0.7380
2.845574 0.7380 0.7360 0.7360 0.7360 0.7340
2.879000 0.7340 0.7340 0.7340 0.7340 0.7340
2.912574 0.7330 0.7310 0.7290 0.7290 0.7290
2.946000 0.7280 0.7280 0.7290 0.7310 0.7290
2.979574 0.7310 0.7310 0.7310 0.7310 0.7310
3.013000 0.7310 0.7310 0.7310 0.7310 0.7310
3.046574 0.7310 0.7310 0.7310 0.7310 0.7330
3.081000 0.7340 0.7340 0.7360 0.7360 0.7360
3.114574 0.7380 0.7380 0.7380 0.7380 0.7380
3.148000 0.7380 0.7390 0.7390 0.7390 0.7390
3.181574 0.7390 0.7390 0.7390 0.7390 0.7390
3.215000 0.7390 0.7390 0.7390 0.7390 0.7390
3.248574 0.7390 0.7380 0.7380 0.7360 0.7340
3.282000 0.7330 0.7290 0.7280 0.7240 0.7230
3.315574 0.7210 0.7130 0.7030 0.6910 0.6820
3.349000 0.6520 0.6220 0.5820 0.5520 0.5210
3.382574 0.5010 0.4910 0.3590 0.2260 0.1390
3.416000 0.0950 0.0520 0.0500 0.0520 0.0730
3.449574 0.0930 0.1140 0.1300 0.1570 0.1660
3.483000 0.1710 0.1720 0.1720 0.1520 0.1520
3.516574 0.2380 0.3100 0.4680 0.4930 0.5210
3.550000 0.5720 0.6070 0.6400 0.6570 0.6870
3.583574 0.6920 0.7090 0.7130 0.7190 0.7260
3.617000 0.7310 0.7360 0.7390 0.7430 0.7440
3.650574 0.7480 0.7500 0.7530 0.7530 0.7550
3.685000 0.7550 0.7560 0.7560 0.7580 0.7580
3.718574 0.7600 0.7600 0.7610 0.7630 0.7630
3.752000 0.7630 0.7660 0.7660 0.7680 0.7680
3.785574 0.7680 0.7700 0.7700 0.7700 0.7710
3.819000 0.7730 0.7730 0.7760 0.7760 0.7780
3.852574 0.7800 0.7830 0.7860 0.7880 0.7910
3.886000 0.7930 0.7930 0.7950 0.7960 0.7980
3.919574 0.8000 0.8000 0.8030 0.8050 0.8070
3.953000 0.8080 0.8100 0.8120 0.8130 0.8130
3.986574 0.8150 0.8170 0.8180 0.8200 0.8200
4.020000 0.8220 0.8230 0.8230 0.8250 0.8250
4.053574 0.8250 0.8270 0.8270 0.8280 0.8280
4.087000 0.8300 0.8300 0.8320 0.8320 0.8320
4.120574 0.8320 0.8330 0.8330 0.8350 0.8370
4.154000 0.8380 0.8400 0.8400 0.8420 0.8420
4.187574 0.8420 0.8400 0.8400 0.8380 0.8380
4.221000 0.8370 0.8350 0.8330 0.8250 0.8120
4.254574 0.7900 0.7710 0.7600 0.7510 0.7310
4.289000 0.7290 0.7310 0.7500 0.7650 0.7680
4.322574 0.7810 0.7950 0.7980 0.8020 0.8050
4.356000 0.8080 0.8130 0.8180 0.8220 0.8270
4.389574 0.8300 0.8330 0.8370 0.8400 0.8430
4.423000 0.8470 0.8500 0.8540 0.8550 0.8570
4.456574 0.8590 0.8600 0.8620 0.8640 0.8650
4.490000 0.8690 0.8700 0.8700 0.8720 0.8720
4.523574 0.8740 0.8740 0.8750 0.8750 0.8770
4.557000 0.8770 0.8790 0.8800 0.8820 0.8820
4.590574 0.8840 0.8840 0.8850 0.8870 0.8890
4.624000 0.8890 0.8900 0.8900 0.8900 0.8920
4.657574 0.8920 0.8920 0.8940 0.8940 0.8940
4.691000 0.8950 0.8950 0.8950 0.8950 0.8950
4.724574 0.8950 0.8970 0.8970 0.8970 0.8970
4.758000 0.8970 0.8990 0.8990 0.8990 0.8990
4.791574 0.9010 0.9010 0.9010 0.9010 0.9010
4.826000 0.9020 0.9020 0.9020 0.9040 0.9040
4.859574 0.9040 0.9060 0.9090 0.9110 0.9120
4.893000 0.9140 0.9140 0.9140 0.9160 0.9160
4.926574 0.9120 0.9110 0.9110 0.9110 0.9090
4.960000 0.9090 0.9090 0.9090 0.9090 0.9110
4.993574 0.9120 0.9160 0.9170 0.9210 0.9210
5.027000 0.9210 0.9220 0.9220 0.9240 0.9260
5.060574 0.9260 0.9260 0.9260 0.9260 0.9270
5.094000 0.9270 0.9270 0.9270 0.9290 0.9290
5.127574 0.9290 0.9290 0.9310 0.9310 0.9310
5.161000 0.9310 0.9320 0.9320 0.9320 0.9320
5.194574 0.9320 0.9320 0.9320 0.9320 0.9320
5.228000 0.9320 0.9320 0.9320 0.9320 0.9320
5.261574 0.9320 0.9320 0.9320 0.9320 0.9320
5.295000 0.9320 0.9320 0.9320 0.9320 0.9340
5.328574 0.9340 0.9340 0.9360 0.9360 0.9390
5.362000 0.9410 0.9410 0.9410 0.9410 0.9410
5.395574 0.9440 0.9420 0.9420 0.9420 0.9420
5.430000 0.9420 0.9420 0.9420 0.9440 0.9440
5.463574 0.9440 0.9440 0.9440 0.9440 0.9440
5.497000 0.9440 0.9440 0.9440 0.9440 0.9460
5.530574 0.9440 0.9420 0.9420 0.9420 0.9420
5.564000 0.9420 0.9420 0.9420 0.9420 0.9420
5.597574 0.9420 0.9420 0.9420 0.9440 0.9440
5.631000 0.9440 0.9420 0.9440 0.9510 0.9510
5.664574 0.9510 0.9510 0.9510 0.9470 0.9440
5.698000 0.9440 0.9440 0.9420 0.9440 0.9440
5.731574 0.9420 0.9410 0.9420 0.9420 0.9410
5.765000 0.9410 0.9410 0.9410 0.9420 0.9420
5.798574 0.9420 0.9440 0.9440 0.9440 0.9440
5.832000 0.9440 0.9440 0.9420 0.9420 0.9420
5.865574 0.9420 0.9420 0.9420 0.9420 0.9420
5.899000 0.9440 0.9440 0.9460 0.9470 0.9470
5.932574 0.9460 0.9460 0.9440 0.9440 0.9420
5.966000 0.9440 0.9440 0.9440 0.9460 0.9460
5.999574 0.9420 0.9410 0.9390 0.9370 0.9370
6.034000 0.9390 0.9410 0.9420 0.9440 0.9440
6.067574 0.9460 0.9460 0.9460 0.9470 0.9470
6.101000 0.9490 0.9490 0.9490 0.9490 0.9470
6.134574 0.9490 0.9490 0.9490 0.9510 0.9510
6.168000 0.9530 0.9530 0.9530 0.9530 0.9510
6.201574 0.9490 0.9490 0.9490 0.9470 0.9470
6.235000 0.9470 0.9460 0.9440 0.9440 0.9440
6.268574 0.9440 0.9470 0.9510 0.9510 0.9510
6.302000 0.9490 0.9460 0.9460 0.9460 0.9440
6.335574 0.9440 0.9420 0.9440 0.9440 0.9390
6.369000 0.9360 0.9360 0.9360 0.9370 0.9390
6.402574 0.9410 0.9410 0.9410 0.9420 0.9420
6.436000 0.9420 0.9410 0.9390 0.9340 0.9320
6.469574 0.9320 0.9320 0.9320 0.9360 0.9340
6.503000 0.9340 0.9340 0.9340 0.9310 0.9260
6.536574 0.9240 0.9220 0.9220 0.9240 0.9260
6.570000 0.9260 0.9270 0.9270 0.9270 0.9270
6.603574 0.9270 0.9240 0.9220 0.9220 0.9220
6.638000 0.9220 0.9260 0.9260 0.9260 0.9220
6.671574 0.9210 0.9170 0.9070 0.9020 0.8990
6.705000 0.8940 0.8850 0.8770 0.8480 0.8450
6.738574 0.8330 0.8280 0.7900 0.7510 0.7130
6.772000 0.6760 0.6570 0.6390 0.6020 0.5670
6.805574 0.5300 0.4690 0.4560 0.4540 0.4560
6.839000 0.4710 0.4880 0.5050 0.5210 0.5380
6.872574 0.5550 0.5720 0.5900 0.5970 0.6190
6.906000 0.6320 0.6520 0.6960 0.7110 0.7130
6.939574 0.7340 0.7530 0.7800 0.8000 0.8080
6.973000 0.8200 0.8220 0.8280 0.8320 0.8350
7.006574 0.8400 0.8420 0.8420 0.8420 0.8470
7.040000 0.8480 0.8480 0.8520 0.8540 0.8540
7.073574 0.8550 0.8570 0.8590 0.8600 0.8620
7.107000 0.8640 0.8640 0.8650 0.8670 0.8670
7.140574 0.8690 0.8690 0.8670 0.8670 0.8600
7.174000 0.8430 0.8150 0.8020 0.7750 0.7460
7.207574 0.7330 0.7280 0.6940 0.6720 0.6490
7.242000 0.5970 0.5970 0.6220 0.6490 0.7110
7.275574 0.7210 0.7330 0.7440 0.7480 0.7510
7.309000 0.7660 0.7830 0.7960 0.8170 0.8300
7.342574 0.8320 0.8350 0.8400 0.8430 0.8470
7.376000 0.8500 0.8500 0.8520 0.8550 0.8550
7.409574 0.8570 0.8570 0.8590 0.8620 0.8650
7.443000 0.8670 0.8700 0.8740 0.8770 0.8800
7.476574 0.8820 0.8850 0.8850 0.8900 0.8900
7.510000 0.8920 0.8920 0.8920 0.8940 0.8940
7.543574 0.8940 0.8940 0.8940 0.8920 0.8920
7.577000 0.8920 0.8920 0.8920 0.8920 0.8920
7.610574 0.8920 0.8920 0.8920 0.8920 0.8920
7.644000 0.8900 0.8900 0.8900 0.8900 0.8900
7.677574 0.8920 0.8950 0.8990 0.8990 0.9010
7.711000 0.9040 0.9040 0.9060 0.9070 0.9090
7.744574 0.9110 0.9110 0.9120 0.9140 0.9140
7.779000 0.9140 0.9140 0.9140 0.9160 0.9160
7.812574 0.9160 0.9160 0.9170 0.9170 0.9170
7.846000 0.9170 0.9190 0.9190 0.9190 0.9210
7.879574 0.9210 0.9220 0.9220 0.9240 0.9240
7.913000 0.9260 0.9260 0.9260 0.9270 0.9270
7.946574 0.9270 0.9290 0.9290 0.9290 0.9310
7.980000 0.9310 0.9310 0.9320 0.9320 0.9320
8.013574 0.9340 0.9340 0.9340 0.9340 0.9340
8.047000 0.9360 0.9360 0.9360 0.9360 0.9360
8.080574 0.9370 0.9370 0.9370 0.9370 0.9370
8.114000 0.9370 0.9370 0.9370 0.9370 0.9370
8.147574 0.9370 0.9370 0.9370 0.9390 0.9390
8.181000 0.9390 0.9390 0.9390 0.9410 0.9410
8.214574 0.9410 0.9410 0.9410 0.9410 0.9390
8.248000 0.9390 0.9390 0.9390 0.9390 0.9390
8.281574 0.9390 0.9390 0.9410 0.9420 0.9420
8.315000 0.9440 0.9440 0.9440 0.9460 0.9460
8.348574 0.9460 0.9460 0.9460 0.9460 0.9460
8.383000 0.9460 0.9460 0.9460 0.9440 0.9440
8.416574 0.9420 0.9420 0.9440 0.9440 0.9460
8.450000 0.9460 0.9460 0.9440 0.9420 0.9410
8.483574 0.9410 0.9390 0.9390 0.9370 0.9340
8.517000 0.9320 0.9320 0.9290 0.9290 0.9270
8.550574 0.9260 0.9240 0.9240 0.9240 0.9240
8.584000 0.9240 0.9220 0.9220 0.9210 0.9210
8.617574 0.9190 0.9190 0.9190 0.9170 0.9160
8.651000 0.9160 0.9140 0.9140 0.9120 0.9120
8.684574 0.9110 0.9090 0.9090 0.9070 0.9070
8.718000 0.9060 0.9040 0.9040 0.9020 0.9020
8.751574 0.9020 0.9010 0.9010 0.8990 0.8970
8.785000 0.8970 0.8950 0.8940 0.8940 0.8920
8.818574 0.8900 0.8890 0.8870 0.8850 0.8800
8.852000 0.8770 0.8720 0.8650 0.8600 0.8550
8.885574 0.8480 0.8420 0.8370 0.8280 0.8220
8.919000 0.8150 0.8070 0.7980 0.7900 0.7800
8.952574 0.7700 0.7600 0.7500 0.7380 0.7260
8.987000 0.7130 0.6990 0.6840 0.6690 0.6620
9.020574 0.6540 0.6490 0.6440 0.6220 0.6120
9.054000 0.5900 0.5870 0.5780 0.5750 0.5580
9.087574 0.5520 0.5460 0.5450 0.5410 0.5400
9.121000 0.5360 0.5330 0.5300 0.5260 0.5250
9.154574 0.5210 0.5200 0.5180 0.5150 0.5130
9.188000 0.5110 0.5100 0.5060 0.5050 0.5050
9.221574 0.5030 0.5000 0.4980 0.4960 0.4890
9.255000 0.4860 0.4810 0.4760 0.4730 0.4680
9.288574 0.4640 0.4590 0.4540 0.4490 0.4460
9.322000 0.4410 0.4360 0.4310 0.4270 0.4260
9.355574 0.4240 0.4220 0.4240 0.4270 0.4310
9.389000 0.4340 0.4370 0.4420 0.4460 0.4530
9.422574 0.4580 0.4610 0.4660 0.4760 0.4890
9.456000 0.5100 0.5200 0.5280 0.5430 0.5680
9.489574 0.5870 0.5970 0.6000 0.6090 0.6150
9.523000 0.6290 0.6400 0.6520 0.6620 0.6840
9.556574 0.6920 0.7030 0.7110 0.7190 0.7280
9.591000 0.7360 0.7430 0.7500 0.7580 0.7650
9.624574 0.7700 0.7760 0.7830 0.7880 0.7900
9.658000 0.7910 0.7930 0.7950 0.7960 0.7980
9.691574 0.8000 0.8020 0.8030 0.8050 0.8100
9.725000 0.8100 0.8120 0.8120 0.8150 0.8180
9.758574 0.8220 0.8250 0.8270 0.8280 0.8280
9.792000 0.8250 0.8170 0.8020 0.7930 0.7860
9.825574 0.7850 0.7860 0.7950 0.8020 0.8080
9.859000 0.8150 0.8220 0.8280 0.8350 0.8380
9.892574 0.8420 0.8500 0.8500 0.8540 0.8550
9.926000 0.8550 0.8590 0.8600 0.8620 0.8640
9.959574 0.8670 0.8700 0.8700 0.8700 0.8740
9.993000 0.8750 0.8790 0.8790 0.8800 0.8800
10.026574 0.8820 0.8820 0.8820 0.8840 0.8840
10.060000 0.8840 0.8850 0.8850 0.8850 0.8840
10.093574 0.8840 0.8840 0.8840 0.8820 0.8840
10.128000 0.8850 0.8870 0.8870 0.8870 0.8890
10.161574 0.8890 0.8900 0.8890 0.8890 0.8890
10.195000 0.8870 0.8890 0.8890 0.8890 0.8870
10.228574 0.8870 0.8850 0.8840 0.8840 0.8820
10.262000 0.8800 0.8790 0.8770 0.8750 0.8720
10.295574 0.8670 0.8620 0.8570 0.8520 0.8370
10.329000 0.8280 0.8220 0.8170 0.7950 0.7500
10.362574 0.7460 0.7310 0.7130 0.6840 0.6560
10.396000 0.6320 0.6090 0.5750 0.5600 0.5380
10.429574 0.5380 0.5630 0.5870 0.6100 0.6340
10.463000 0.6570 0.7040 0.7280 0.7480 0.7910
10.496574 0.7980 0.8080 0.8230 0.8370 0.8480
10.530000 0.8540 0.8620 0.8640 0.8670 0.8690
10.563574 0.8770 0.8840 0.8890 0.8890 0.8940
10.597000 0.8950 0.8970 0.8970 0.8990 0.9010
10.630574 0.9010 0.9020 0.9040 0.9060 0.9070
10.664000 0.9090 0.9110 0.9120 0.9120 0.9140
10.697574 0.9160 0.9190 0.9210 0.9210 0.9210
10.732000 0.9210 0.9210 0.9210 0.9210 0.9220
10.765574 0.9240 0.9260 0.9260 0.9260 0.9270
10.799000 0.9270 0.9270 0.9270 0.9290 0.9270
10.832574 0.9270 0.9270 0.9270 0.9270 0.9290
10.866000 0.9290 0.9310 0.9310 0.9320 0.9340
10.899574 0.9340 0.9340 0.9340 0.9340 0.9340
10.933000 0.9320 0.9320 0.9340 0.9340 0.9340
10.966574 0.9340 0.9340 0.9340 0.9360 0.9370
11.000000 0.9370 0.9370 0.9370 0.9370 0.9370
11.033574 0.9370 0.9370 0.9390 0.9390 0.9390
11.067000 0.9390 0.9390 0.9390 0.9410 0.9410
11.100574 0.9420 0.9420 0.9420 0.9420 0.9420
11.134000 0.9420 0.9410 0.9410 0.9410 0.9410
11.167574 0.9410 0.9410 0.9410 0.9410 0.9410
11.201000 0.9420 0.9420 0.9420 0.9420 0.9410
11.234574 0.9420 0.9420 0.9440 0.9440 0.9440
11.268000 0.9460 0.9460 0.9460 0.9460 0.9460
11.301574 0.9460 0.9460 0.9460 0.9460 0.9460
11.336000 0.9460 0.9470 0.9470 0.9490 0.9490
11.369574 0.9490 0.9510 0.9510 0.9510 0.9510
11.403000 0.9530 0.9530 0.9530 0.9530 0.9540
11.436574 0.9540 0.9540 0.9540 0.9530 0.9530
11.470000 0.9530 0.9530 0.9530 0.9510 0.9510
11.503574 0.9510 0.9510 0.9510 0.9510 0.9510
11.537000 0.9510 0.9510 0.9510 0.9510 0.9510
11.570574 0.9510 0.9510 0.9510 0.9510 0.9510
11.604000 0.9510 0.9490 0.9510 0.9510 0.9510
11.637574 0.9510 0.9510 0.9510 0.9510 0.9510
11.671000 0.9490 0.9490 0.9490 0.9490 0.9490
11.704574 0.9490 0.9490 0.9490 0.9490 0.9510
11.738000 0.9510 0.9510 0.9510 0.9510 0.9510
11.771574 0.9510 0.9510 0.9510 0.9490 0.9510
11.805000 0.9510 0.9490 0.9490 0.9490 0.9490
11.838574 0.9490 0.9470 0.9470 0.9470 0.9470
11.872000 0.9470 0.9460 0.9460 0.9460 0.9460
11.905574 0.9460 0.9460 0.9460 0.9470 0.9470
11.940000 0.9470 0.9470 0.9490 0.9490 0.9490
11.973574 0.9490 0.9510 0.9510 0.9510 0.9510
12.007000 0.9510 0.9530 0.9530 0.9530 0.9530
12.040574 0.9530 0.9530 0.9530 0.9530 0.9530
12.074000 0.9530 0.9530 0.9530 0.9540 0.9540
12.107574 0.9540 0.9540 0.9540 0.9540 0.9540
12.141000 0.9540 0.9540 0.9540 0.9540 0.9540
12.174574 0.9530 0.9530 0.9530 0.9530 0.9530
12.208000 0.9530 0.9540 0.9540 0.9540 0.9560
12.241574 0.9560 0.9560 0.9560 0.9580 0.9580
12.275000 0.9610 0.9610 0.9610 0.9610 0.9610
12.308574 0.9610 0.9610 0.9610 0.9590 0.9590
12.342000 0.9590 0.9590 0.9610 0.9630 0.9630
12.375574 0.9610 0.9610 0.9610 0.9610 0.9610
12.409000 0.9610 0.9590 0.9580 0.9580 0.9580
12.442574 0.9580 0.9580 0.9560 0.9560 0.9560
12.477000 0.9560 0.9540 0.9540 0.9540 0.9540
12.510574 0.9540 0.9540 0.9540 0.9540 0.9540
12.544000 0.9540 0.9530 0.9530 0.9530 0.9510
12.577574 0.9490 0.9490 0.9490 0.9490 0.9490
12.611000 0.9490 0.9490 0.9470 0.9470 0.9460
12.644574 0.9460 0.9440 0.9440 0.9420 0.9420
12.678000 0.9410 0.9390 0.9370 0.9370 0.9370
12.711574 0.9370 0.9370 0.9360 0.9360 0.9360
12.745000 0.9360 0.9360 0.9360 0.9370 0.9370
12.778574 0.9370 0.9390 0.9410 0.9410 0.9410
12.812000 0.9390 0.9390 0.9370 0.9370 0.9370
12.845574 0.9360 0.9360 0.9370 0.9410 0.9410
12.879000 0.9410 0.9410 0.9390 0.9390 0.9370
12.912574 0.9370 0.9360 0.9360 0.9340 0.9340
12.946000 0.9340 0.9320 0.9320 0.9310 0.9310
12.979574 0.9310 0.9310 0.9310 0.9310 0.9310
13.013000 0.9310 0.9310 0.9310 0.9310 0.9310
13.046574 0.9320 0.9320 0.9310 0.9310 0.9310
13.081000 0.9320 0.9320 0.9310 0.9290 0.9270
13.114574 0.9270 0.9290 0.9270 0.9270 0.9270
13.148000 0.9270 0.9290 0.9290 0.9290 0.9290
13.181574 0.9310 0.9310 0.9310 0.9260 0.9260
13.215000 0.9260 0.9260 0.9260 0.9270 0.9270
13.248574 0.9270 0.9260 0.9240 0.9220 0.9220
13.282000 0.9190 0.9220 0.9210 0.9210 0.9210
13.315574 0.9210 0.9210 0.9210 0.9190 0.9190
13.349000 0.9190 0.9190 0.9190 0.9190 0.9170
13.382574 0.9170 0.9170 0.9170 0.9160 0.9160
13.416000 0.9160 0.9160 0.9140 0.9140 0.9120
13.449574 0.9120 0.9110 0.9110 0.9090 0.9090
13.483000 0.9070 0.9060 0.9040 0.9020 0.9020
13.516574 0.9010 0.9010 0.8990 0.9010 0.9010
13.550000 0.9010 0.9010 0.8990 0.8990 0.8990
13.583574 0.8970 0.8970 0.8950 0.8950 0.8940
13.617000 0.8940 0.8920 0.8920 0.8920 0.8900
13.650574 0.8900 0.8900 0.8890 0.8870 0.8870
13.685000 0.8870 0.8870 0.8850 0.8840 0.8840
13.718574 0.8820 0.8800 0.8800 0.8790 0.8790
13.752000 0.8750 0.8750 0.8740 0.8720 0.8690
13.785574 0.8690 0.8670 0.8670 0.8650 0.8640
13.819000 0.8640 0.8640 0.8620 0.8620 0.8620
13.852574 0.8620 0.8620 0.8600 0.8600 0.8600
13.886000 0.8600 0.8600 0.8620 0.8640 0.8640
13.919574 0.8670 0.8670 0.8690 0.8690 0.8700
13.953000 0.8700 0.8720 0.8740 0.8750 0.8770
13.986574 0.8770 0.8790 0.8800 0.8840 0.8840
14.020000 0.8850 0.8850 0.8850 0.8840 0.8820
14.053574 0.8820 0.8820 0.8820 0.8840 0.8850
14.087000 0.8850 0.8870 0.8890 0.8890 0.8890
14.120574 0.8890 0.8890 0.8890 0.8890 0.8900
14.154000 0.8900 0.8900 0.8900 0.8900 0.8920
14.187574 0.8920 0.8920 0.8920 0.8920 0.8900
14.221000 0.8900 0.8900 0.8900 0.8900 0.8900
14.254574 0.8900 0.8900 0.8900 0.8900 0.8900
14.289000 0.8890 0.8890 0.8890 0.8870 0.8850
14.322574 0.8850 0.8870 0.8850 0.8850 0.8850
14.356000 0.8840 0.8820 0.8800 0.8790 0.8790
14.389574 0.8790 0.8800 0.8820 0.8820 0.8820
14.423000 0.8800 0.8790 0.8770 0.8750 0.8720
14.456574 0.8700 0.8690 0.8690 0.8670 0.8670
14.490000 0.8650 0.8640 0.8620 0.8620 0.8620
14.523574 0.8620 0.8620 0.8600 0.8600 0.8590
14.557000 0.8590 0.8590 0.8590 0.8590 0.8590
14.590574 0.8590 0.8570 0.8570 0.8550 0.8540
14.624000 0.8540 0.8540 0.8520 0.8520 0.8480
14.657574 0.8470 0.8470 0.8470 0.8450 0.8450
14.691000 0.8450 0.8450 0.8430 0.8420 0.8420
14.724574 0.8420 0.8380 0.8370 0.8370 0.8370
14.758000 0.8370 0.8350 0.8350 0.8350 0.8370
14.791574 0.8370 0.8350 0.8330 0.8330 0.8330
14.826000 0.8320 0.8320 0.8320 0.8320 0.8320
14.859574 0.8300 0.8280 0.8280 0.8280 0.8270
14.893000 0.8250 0.8250 0.8250 0.8250 0.8230
14.926574 0.8220 0.8200 0.8200 0.8180 0.8170
14.960000 0.8150 0.8130 0.8130 0.8130 0.8130
14.993574 0.8130 0.8150 0.8170 0.8170 0.8180
15.027000 0.8180 0.8180 0.8150 0.8130 0.8120
15.060574 0.8120 0.8080 0.8080 0.8050 0.8050
15.094000 0.8030 0.8030 0.8020 0.8020 0.8000
15.127574 0.8000 0.7980 0.7950 0.7930 0.7910
15.161000 0.7910 0.7900 0.7900 0.7880 0.7900
15.194574 0.7900
##END=
