##TITLE=CINNAMIC ACID, SODIUM SALT
##JCAMP-DX=4.24
##DATA TYPE=INFRARED SPECTRUM
##CLASS=COBLENTZ III
##ORIGIN=WYANDOTTE CHEMICALS CORP.
##OWNER=COBLENTZ SOCIETY
Collection (C) 2018 copyright by the U.S. Secretary of Commerce
on behalf of the United States of America. All rights reserved.
##DATE=Not specified, most likely prior to 1970
##MOLFORM=C9 H7 Na O2
##SOURCE REFERENCE=COBLENTZ NO. 6297
##$NIST ID=B6006297
##$NIST SOURCE=COBLENTZ
##$NIST IMAGE=cob6297
##SPECTROMETER/DATA SYSTEM=BAIRD (PRISM)
##INSTRUMENT PARAMETERS=NaCl PRISM
##STATE=SOLID (OIL MULL)
$$SPECTRAL CONTAMINATION DUE TO OIL AROUND 2900 CM^-^1
##SAMPLING PROCEDURE=TRANSMISSION
##RESOLUTION=2
##DATA PROCESSING=DIGITIZED BY NIST FROM HARD COPY (FROM TWO SEGMENTS)
##XUNITS=MICROMETERS
##YUNITS=TRANSMITTANCE
##XFACTOR=1.000000
##YFACTOR=1
##DELTAX=0.004739
##FIRSTX=2.014
##LASTX=15.9656
##FIRSTY=0.526
##MAXX=15.9656
##MINX=2.014
##MAXY=0.955
##MINY=0.035
##NPOINTS=2945
##XYDATA=(X++(Y..Y))
2.014000 0.5260 0.5290 0.5320 0.5340 0.5380
2.037695 0.5410 0.5469 0.5510 0.5549 0.5580
2.061390 0.5615 0.5629 0.5647 0.5659 0.5686
2.085085 0.5707 0.5753 0.5777 0.5806 0.5827
2.108780 0.5858 0.5879 0.5899 0.5928 0.5958
2.132475 0.5979 0.5989 0.5999 0.6009 0.6019
2.156170 0.6041 0.6060 0.6060 0.6070 0.6070
2.179865 0.6081 0.6100 0.6100 0.6110 0.6110
2.203560 0.6110 0.6119 0.6120 0.6129 0.6130
2.227255 0.6130 0.6139 0.6140 0.6140 0.6158
2.250950 0.6160 0.6160 0.6170 0.6170 0.6170
2.274645 0.6180 0.6180 0.6180 0.6180 0.6180
2.298340 0.6189 0.6190 0.6190 0.6190 0.6190
2.322035 0.6199 0.6217 0.6220 0.6228 0.6230
2.345730 0.6230 0.6239 0.6249 0.6250 0.6259
2.369425 0.6260 0.6269 0.6270 0.6289 0.6290
2.393120 0.6300 0.6300 0.6310 0.6310 0.6310
2.416815 0.6330 0.6350 0.6350 0.6360 0.6370
2.440510 0.6379 0.6380 0.6389 0.6408 0.6410
2.464205 0.6428 0.6439 0.6449 0.6468 0.6479
2.487900 0.6490 0.6500 0.6529 0.6540 0.6540
2.511595 0.6550 0.6550 0.6560 0.6560 0.6570
2.535290 0.6587 0.6598 0.6608 0.6618 0.6628
2.558985 0.6630 0.6664 0.6678 0.6688 0.6707
2.582680 0.6719 0.6729 0.6749 0.6750 0.6769
2.606375 0.6770 0.6770 0.6770 0.6779 0.6789
2.630070 0.6800 0.6810 0.6840 0.6840 0.6840
2.653765 0.6860 0.6870 0.6900 0.6920 0.6930
2.677460 0.6930 0.6939 0.6940 0.6966 0.6979
2.701155 0.6989 0.6999 0.7000 0.7017 0.7029
2.724850 0.7030 0.7040 0.7040 0.7040 0.7050
2.748545 0.7050 0.7050 0.7060 0.7060 0.7060
2.772240 0.7060 0.7060 0.7060 0.7077 0.7088
2.795935 0.7090 0.7098 0.7100 0.7108 0.7110
2.819630 0.7110 0.7110 0.7110 0.7110 0.7110
2.843325 0.7110 0.7110 0.7110 0.7110 0.7110
2.867020 0.7110 0.7110 0.7110 0.7110 0.7110
2.890715 0.7110 0.7110 0.7110 0.7110 0.7110
2.914410 0.7101 0.7100 0.7100 0.7100 0.7100
2.938105 0.7100 0.7100 0.7100 0.7100 0.7091
2.961800 0.7090 0.7090 0.7090 0.7080 0.7080
2.985495 0.7080 0.7080 0.7080 0.7052 0.7050
3.009190 0.7050 0.7050 0.7040 0.7040 0.7040
3.032885 0.7040 0.7040 0.7040 0.7040 0.7040
3.056580 0.7040 0.7040 0.7040 0.7040 0.7040
3.080275 0.7040 0.7040 0.7031 0.7021 0.7020
3.103970 0.7000 0.7000 0.6990 0.6990 0.6980
3.127665 0.6980 0.6970 0.6970 0.6960 0.6960
3.151360 0.6942 0.6931 0.6930 0.6921 0.6911
3.175055 0.6910 0.6910 0.6910 0.6901 0.6883
3.198750 0.6880 0.6871 0.6870 0.6870 0.6870
3.222445 0.6870 0.6879 0.6880 0.6880 0.6880
3.246140 0.6880 0.6880 0.6870 0.6860 0.6849
3.269835 0.6810 0.6789 0.6739 0.6709 0.6619
3.293530 0.6565 0.6488 0.6381 0.6280 0.6181
3.317225 0.6081 0.6008 0.5947 0.5904 0.5501
3.340920 0.5332 0.5202 0.5082 0.4963 0.4950
3.364615 0.4238 0.4210 0.3579 0.3308 0.3039
3.388310 0.2795 0.2751 0.2418 0.2097 0.1787
3.412005 0.1478 0.1168 0.1112 0.0908 0.0660
3.435700 0.0555 0.0494 0.0462 0.0441 0.0412
3.459395 0.0391 0.0371 0.0351 0.0350 0.0368
3.483090 0.0381 0.0410 0.0430 0.0440 0.0450
3.506785 0.0450 0.0460 0.0470 0.0470 0.0470
3.530480 0.0488 0.0499 0.0544 0.0603 0.0690
3.554175 0.0797 0.0916 0.1035 0.1296 0.1645
3.577870 0.1729 0.2031 0.2340 0.3124 0.3507
3.601565 0.4639 0.5258 0.5482 0.5682 0.5872
3.625260 0.6052 0.6257 0.6374 0.6625 0.6846
3.648955 0.7005 0.7130 0.7217 0.7288 0.7350
3.672650 0.7443 0.7533 0.7577 0.7589 0.7590
3.696345 0.7599 0.7600 0.7600 0.7609 0.7610
3.720040 0.7610 0.7630 0.7630 0.7630 0.7640
3.743735 0.7640 0.7640 0.7650 0.7660 0.7660
3.767430 0.7660 0.7660 0.7669 0.7688 0.7690
3.791125 0.7699 0.7700 0.7709 0.7727 0.7730
3.814820 0.7749 0.7760 0.7760 0.7770 0.7770
3.838515 0.7780 0.7790 0.7790 0.7809 0.7810
3.862210 0.7827 0.7838 0.7848 0.7867 0.7878
3.885905 0.7888 0.7898 0.7908 0.7926 0.7938
3.909600 0.7949 0.7950 0.7959 0.7987 0.7999
3.933295 0.8018 0.8029 0.8048 0.8050 0.8059
3.956990 0.8060 0.8080 0.8080 0.8080 0.8090
3.980685 0.8110 0.8120 0.8130 0.8160 0.8189
4.004380 0.8208 0.8236 0.8249 0.8267 0.8279
4.028075 0.8297 0.8309 0.8327 0.8339 0.8357
4.051770 0.8369 0.8389 0.8399 0.8400 0.8419
4.075465 0.8429 0.8430 0.8430 0.8430 0.8430
4.099160 0.8430 0.8430 0.8430 0.8438 0.8440
4.122855 0.8448 0.8458 0.8476 0.8480 0.8488
4.146550 0.8481 0.8489 0.8490 0.8490 0.8490
4.170245 0.8490 0.8490 0.8499 0.8500 0.8491
4.193940 0.8500 0.8500 0.8500 0.8500 0.8510
4.217635 0.8510 0.8510 0.8520 0.8520 0.8520
4.241330 0.8520 0.8520 0.8537 0.8540 0.8540
4.265025 0.8540 0.8540 0.8548 0.8550 0.8550
4.288720 0.8559 0.8560 0.8560 0.8569 0.8570
4.312415 0.8570 0.8579 0.8580 0.8580 0.8599
4.336110 0.8600 0.8610 0.8620 0.8620 0.8630
4.359805 0.8630 0.8640 0.8640 0.8660 0.8670
4.383500 0.8670 0.8679 0.8680 0.8689 0.8690
4.407195 0.8699 0.8700 0.8700 0.8718 0.8729
4.430890 0.8730 0.8730 0.8730 0.8740 0.8740
4.454585 0.8740 0.8750 0.8750 0.8750 0.8760
4.478280 0.8769 0.8787 0.8798 0.8808 0.8818
4.501975 0.8828 0.8847 0.8858 0.8860 0.8868
4.525670 0.8870 0.8879 0.8880 0.8889 0.8890
4.549365 0.8908 0.8910 0.8910 0.8910 0.8919
4.573060 0.8920 0.8920 0.8930 0.8930 0.8940
4.596755 0.8940 0.8940 0.8950 0.8950 0.8950
4.620450 0.8968 0.8970 0.8970 0.8979 0.8980
4.644145 0.8980 0.8980 0.8980 0.8989 0.8990
4.667840 0.8990 0.8990 0.8990 0.9000 0.9000
4.691535 0.9000 0.9010 0.9010 0.9010 0.9010
4.715230 0.9027 0.9030 0.9038 0.9040 0.9040
4.738925 0.9040 0.9040 0.9040 0.9040 0.9040
4.762620 0.9040 0.9040 0.9049 0.9050 0.9059
4.786315 0.9060 0.9069 0.9070 0.9070 0.9088
4.810010 0.9090 0.9100 0.9110 0.9120 0.9120
4.833705 0.9150 0.9150 0.9150 0.9160 0.9160
4.857400 0.9169 0.9179 0.9189 0.9190 0.9190
4.881095 0.9207 0.9210 0.9210 0.9219 0.9220
4.904790 0.9230 0.9230 0.9230 0.9230 0.9230
4.928485 0.9230 0.9239 0.9240 0.9240 0.9240
4.952180 0.9240 0.9240 0.9240 0.9240 0.9240
4.975875 0.9248 0.9266 0.9278 0.9280 0.9280
4.999570 0.9280 0.9280 0.9280 0.9280 0.9289
5.023265 0.9290 0.9290 0.9290 0.9290 0.9290
5.046960 0.9290 0.9298 0.9300 0.9300 0.9300
5.070655 0.9300 0.9300 0.9307 0.9310 0.9324
5.094350 0.9330 0.9330 0.9330 0.9330 0.9330
5.118045 0.9330 0.9330 0.9330 0.9330 0.9330
5.141740 0.9335 0.9340 0.9335 0.9330 0.9320
5.165435 0.9310 0.9310 0.9301 0.9286 0.9276
5.189130 0.9262 0.9250 0.9250 0.9246 0.9240
5.212825 0.9240 0.9240 0.9240 0.9240 0.9240
5.236520 0.9243 0.9255 0.9273 0.9280 0.9285
5.260215 0.9302 0.9314 0.9330 0.9332 0.9340
5.283910 0.9340 0.9343 0.9350 0.9350 0.9350
5.307605 0.9350 0.9350 0.9350 0.9350 0.9350
5.331300 0.9350 0.9350 0.9348 0.9340 0.9338
5.354995 0.9330 0.9330 0.9331 0.9340 0.9341
5.378690 0.9349 0.9341 0.9351 0.9361 0.9370
5.402385 0.9370 0.9380 0.9380 0.9380 0.9400
5.426080 0.9400 0.9400 0.9400 0.9400 0.9409
5.449775 0.9410 0.9410 0.9410 0.9410 0.9410
5.473470 0.9410 0.9410 0.9410 0.9410 0.9410
5.497165 0.9410 0.9418 0.9420 0.9420 0.9427
5.520860 0.9437 0.9440 0.9440 0.9454 0.9460
5.544555 0.9460 0.9460 0.9460 0.9460 0.9460
5.568250 0.9466 0.9470 0.9470 0.9470 0.9470
5.591945 0.9475 0.9480 0.9485 0.9505 0.9525
5.615640 0.9530 0.9530 0.9534 0.9540 0.9540
5.639335 0.9540 0.9540 0.9540 0.9540 0.9540
5.663030 0.9540 0.9540 0.9540 0.9540 0.9543
5.686725 0.9550 0.9550 0.9550 0.9550 0.9550
5.710420 0.9548 0.9540 0.9540 0.9542 0.9550
5.734115 0.9550 0.9550 0.9550 0.9550 0.9550
5.757810 0.9549 0.9540 0.9540 0.9540 0.9540
5.781505 0.9540 0.9530 0.9530 0.9530 0.9530
5.805200 0.9540 0.9540 0.9540 0.9549 0.9550
5.828895 0.9541 0.9540 0.9531 0.9504 0.9449
5.852590 0.9415 0.9377 0.9349 0.9310 0.9280
5.876285 0.9241 0.9182 0.9161 0.9151 0.9122
5.899980 0.9055 0.9014 0.8957 0.8880 0.8801
5.923675 0.8705 0.8640 0.8589 0.8572 0.8570
5.947370 0.8570 0.8578 0.8595 0.8615 0.8635
5.971065 0.8662 0.8677 0.8708 0.8748 0.8767
5.994760 0.8783 0.8797 0.8819 0.8842 0.8856
6.018455 0.8860 0.8866 0.8870 0.8870 0.8859
6.042150 0.8839 0.8809 0.8754 0.8705 0.8627
6.065845 0.8456 0.8211 0.7899 0.7521 0.7099
6.089540 0.6645 0.6177 0.5705 0.5238 0.4901
6.113235 0.4830 0.4837 0.5017 0.5515 0.5965
6.136930 0.6375 0.6754 0.7078 0.7367 0.7632
6.160625 0.7849 0.8002 0.8056 0.8109 0.8267
6.184320 0.8427 0.8570 0.8571 0.8580 0.8579
6.208015 0.8560 0.8450 0.8319 0.8154 0.8044
6.231710 0.7904 0.7720 0.7710 0.7700 0.7690
6.255405 0.7690 0.7671 0.7670 0.7661 0.7422
6.279100 0.7237 0.7104 0.6958 0.6777 0.6496
6.302795 0.6291 0.6062 0.5809 0.5544 0.5269
6.326490 0.5008 0.4766 0.4567 0.4417 0.4330
6.350185 0.4098 0.3829 0.3586 0.3375 0.3184
6.373880 0.3016 0.2871 0.2738 0.2605 0.2473
6.397575 0.2350 0.2226 0.2092 0.1943 0.1774
6.421270 0.1585 0.1367 0.1135 0.0905 0.0756
6.444965 0.0713 0.0690 0.0667 0.0654 0.0656
6.468660 0.0660 0.0678 0.0725 0.0756 0.0787
6.492355 0.0869 0.1025 0.1253 0.1495 0.1718
6.516050 0.1925 0.2119 0.2302 0.2474 0.2629
6.539745 0.2775 0.2921 0.3050 0.3178 0.3303
6.563440 0.3422 0.3541 0.3659 0.3781 0.3902
6.587135 0.4016 0.4145 0.4276 0.4419 0.4577
6.610830 0.4736 0.4877 0.4954 0.5017 0.5053
6.634525 0.5073 0.5089 0.5080 0.5079 0.5068
6.658220 0.5030 0.4832 0.4738 0.4702 0.4575
6.681915 0.4435 0.4240 0.4220 0.4210 0.4220
6.705610 0.4239 0.4431 0.4601 0.4769 0.4935
6.729305 0.5085 0.5251 0.5419 0.5587 0.5746
6.753000 0.5846 0.5868 0.5862 0.5812 0.5729
6.776695 0.5648 0.5539 0.5405 0.5304 0.4910
6.800390 0.4456 0.4316 0.3937 0.3417 0.3019
6.824085 0.2701 0.2388 0.2208 0.2115 0.2062
6.847780 0.2050 0.2044 0.2034 0.2002 0.1900
6.871475 0.1789 0.1705 0.1606 0.1521 0.1452
6.895170 0.1401 0.1399 0.1480 0.1672 0.1904
6.918865 0.2129 0.2349 0.2557 0.2757 0.2945
6.942560 0.3130 0.3305 0.3466 0.3609 0.3737
6.966255 0.3859 0.3965 0.4057 0.4124 0.4185
6.989950 0.4254 0.4314 0.4335 0.4357 0.4296
7.013645 0.4041 0.3814 0.3577 0.3326 0.3086
7.037340 0.2841 0.2607 0.2379 0.2152 0.1930
7.061035 0.1725 0.1519 0.1298 0.1013 0.0868
7.084730 0.0757 0.0740 0.0737 0.0720 0.0720
7.108425 0.0723 0.0750 0.0751 0.0773 0.0834
7.132120 0.0923 0.1012 0.1121 0.1240 0.1368
7.155815 0.1505 0.1662 0.1820 0.1988 0.2165
7.179510 0.2343 0.2530 0.2576 0.2606 0.2644
7.203205 0.2692 0.2708 0.2710 0.2718 0.2728
7.226900 0.2746 0.2773 0.2788 0.2790 0.2805
7.250595 0.2817 0.2820 0.2820 0.2820 0.2800
7.274290 0.2777 0.2764 0.2766 0.2795 0.2852
7.297985 0.2944 0.3070 0.3241 0.3461 0.3730
7.321680 0.3959 0.4112 0.4245 0.4369 0.4487
7.345375 0.4605 0.4723 0.4846 0.4974 0.5115
7.369070 0.5281 0.5467 0.5676 0.5910 0.6084
7.392765 0.6117 0.6165 0.6276 0.6369 0.6401
7.416460 0.6441 0.6470 0.6472 0.6487 0.6519
7.440155 0.6554 0.6576 0.6603 0.6622 0.6633
7.463850 0.6651 0.6661 0.6670 0.6671 0.6681
7.487545 0.6692 0.6711 0.6720 0.6731 0.6751
7.511240 0.6780 0.6800 0.6840 0.6879 0.6919
7.534935 0.6958 0.6979 0.6998 0.7027 0.7048
7.558630 0.7077 0.7089 0.7099 0.7117 0.7137
7.582325 0.7140 0.7150 0.7170 0.7170 0.7180
7.606020 0.7180 0.7170 0.7170 0.7161 0.7160
7.629715 0.7151 0.7159 0.7151 0.7150 0.7150
7.653410 0.7142 0.7140 0.7124 0.7112 0.7102
7.677105 0.7092 0.7082 0.7065 0.7045 0.7026
7.700800 0.7020 0.7006 0.7000 0.7027 0.7040
7.724495 0.7040 0.7040 0.7034 0.7024 0.7008
7.748190 0.6994 0.6990 0.6990 0.6984 0.6980
7.771885 0.6980 0.6980 0.6985 0.6995 0.7028
7.795580 0.7088 0.7160 0.7241 0.7301 0.7351
7.819275 0.7392 0.7425 0.7461 0.7494 0.7527
7.842970 0.7553 0.7586 0.7609 0.7636 0.7653
7.866665 0.7668 0.7693 0.7705 0.7722 0.7736
7.890360 0.7762 0.7772 0.7782 0.7795 0.7822
7.914055 0.7831 0.7844 0.7871 0.7881 0.7890
7.937750 0.7891 0.7900 0.7901 0.7910 0.7910
7.961445 0.7910 0.7930 0.7930 0.7911 0.7900
7.985140 0.7890 0.7871 0.7824 0.7765 0.7670
8.008835 0.7544 0.7363 0.7297 0.7214 0.7075
8.032530 0.6927 0.6762 0.6578 0.6398 0.6228
8.056225 0.6075 0.5980 0.5945 0.5933 0.5937
8.079920 0.5954 0.6151 0.6408 0.6635 0.6833
8.103615 0.7015 0.7174 0.7321 0.7457 0.7568
8.127310 0.7667 0.7749 0.7818 0.7877 0.7926
8.151005 0.7970 0.8000 0.8022 0.8030 0.8043
8.174700 0.8056 0.8060 0.8066 0.8070 0.8070
8.198395 0.8076 0.8080 0.8080 0.8085 0.8090
8.222090 0.8090 0.8085 0.8080 0.8075 0.8065
8.245785 0.8055 0.8041 0.8030 0.8026 0.8012
8.269480 0.7980 0.7946 0.7929 0.7906 0.7900
8.293175 0.7893 0.7870 0.7847 0.7840 0.7834
8.316870 0.7820 0.7817 0.7803 0.7775 0.7758
8.340565 0.7742 0.7706 0.7684 0.7658 0.7648
8.364260 0.7639 0.7627 0.7610 0.7612 0.7632
8.387955 0.7652 0.7673 0.7713 0.7762 0.7811
8.411650 0.7851 0.7910 0.7960 0.8009 0.8058
8.435345 0.8089 0.8118 0.8129 0.8130 0.8139
8.459040 0.8149 0.8159 0.8160 0.8177 0.8180
8.482735 0.8188 0.8190 0.8198 0.8200 0.8208
8.506430 0.8210 0.8217 0.8220 0.8220 0.8241
8.530125 0.8285 0.8314 0.8327 0.8330 0.8336
8.553820 0.8353 0.8366 0.8370 0.8364 0.8342
8.577515 0.8319 0.8287 0.8259 0.8245 0.8230
8.601210 0.8220 0.8220 0.8230 0.8249 0.8278
8.624905 0.8309 0.8337 0.8364 0.8374 0.8388
8.648600 0.8400 0.8400 0.8407 0.8420 0.8423
8.672295 0.8433 0.8440 0.8440 0.8440 0.8440
8.695990 0.8443 0.8450 0.8450 0.8450 0.8450
8.719685 0.8450 0.8452 0.8463 0.8484 0.8507
8.743380 0.8530 0.8556 0.8579 0.8609 0.8633
8.767075 0.8645 0.8663 0.8673 0.8682 0.8692
8.790770 0.8704 0.8722 0.8732 0.8742 0.8752
8.814465 0.8764 0.8791 0.8801 0.8811 0.8821
8.838160 0.8832 0.8851 0.8861 0.8871 0.8891
8.861855 0.8930 0.8950 0.8970 0.8990 0.8990
8.885550 0.8990 0.8999 0.9000 0.9009 0.9010
8.909245 0.9037 0.9040 0.9049 0.9050 0.9058
8.932940 0.9060 0.9068 0.9070 0.9070 0.9070
8.956635 0.9070 0.9070 0.9085 0.9090 0.9090
8.980330 0.9090 0.9097 0.9093 0.9090 0.9096
9.004025 0.9100 0.9119 0.9142 0.9150 0.9156
9.027720 0.9166 0.9170 0.9181 0.9201 0.9210
9.051415 0.9215 0.9220 0.9225 0.9230 0.9248
9.075110 0.9274 0.9280 0.9284 0.9294 0.9300
9.098805 0.9304 0.9317 0.9334 0.9340 0.9340
9.122500 0.9343 0.9350 0.9350 0.9350 0.9350
9.146195 0.9350 0.9350 0.9350 0.9350 0.9350
9.169890 0.9350 0.9350 0.9348 0.9340 0.9339
9.193585 0.9330 0.9328 0.9308 0.9289 0.9279
9.217280 0.9268 0.9240 0.9229 0.9209 0.9180
9.240975 0.9150 0.9120 0.9091 0.9042 0.8992
9.264670 0.8932 0.8871 0.8790 0.8619 0.8416
9.288365 0.8169 0.7922 0.7676 0.7440 0.7235
9.312060 0.7089 0.6980 0.6960 0.6940 0.6940
9.335755 0.6969 0.7093 0.7156 0.7224 0.7366
9.359450 0.7460 0.7557 0.7648 0.7745 0.7836
9.383145 0.7933 0.7999 0.8260 0.8399 0.8475
9.406840 0.8543 0.8597 0.8647 0.8674 0.8709
9.430535 0.8727 0.8744 0.8757 0.8767 0.8783
9.454230 0.8796 0.8812 0.8826 0.8848 0.8872
9.477925 0.8886 0.8890 0.8901 0.8910 0.8910
9.501620 0.8910 0.8910 0.8910 0.8915 0.8920
9.525315 0.8920 0.8920 0.8920 0.8920 0.8924
9.549010 0.8930 0.8930 0.8930 0.8933 0.8940
9.572705 0.8943 0.8950 0.8950 0.8956 0.8970
9.596400 0.8970 0.8972 0.8980 0.8980 0.8980
9.620095 0.8980 0.8980 0.8980 0.8980 0.8980
9.643790 0.8980 0.8980 0.8980 0.8980 0.8980
9.667485 0.8979 0.8970 0.8970 0.8969 0.8950
9.691180 0.8930 0.8920 0.8910 0.8872 0.8851
9.714875 0.8812 0.8736 0.8639 0.8531 0.8458
9.738570 0.8424 0.8394 0.8382 0.8372 0.8370
9.762265 0.8378 0.8388 0.8398 0.8423 0.8438
9.785960 0.8455 0.8475 0.8487 0.8497 0.8507
9.809655 0.8537 0.8570 0.8593 0.8600 0.8606
9.833350 0.8616 0.8620 0.8628 0.8638 0.8656
9.857045 0.8668 0.8678 0.8695 0.8715 0.8734
9.880740 0.8754 0.8767 0.8790 0.8813 0.8839
9.904435 0.8863 0.8883 0.8908 0.8926 0.8936
9.928130 0.8940 0.8946 0.8950 0.8961 0.8975
9.951825 0.8980 0.8980 0.8980 0.8975 0.8970
9.975520 0.8961 0.8946 0.8936 0.8926 0.8908
9.999215 0.8882 0.8851 0.8816 0.8810 0.8810
10.022910 0.8813 0.8829 0.8856 0.8870 0.8875
10.046605 0.8895 0.8912 0.8920 0.8920 0.8920
10.070300 0.8920 0.8918 0.8905 0.8875 0.8843
10.093995 0.8792 0.8733 0.8672 0.8592 0.8501
10.117690 0.8393 0.8294 0.8185 0.8057 0.7928
10.141385 0.7770 0.7651 0.7572 0.7541 0.7483
10.165080 0.7414 0.7251 0.7222 0.7184 0.7162
10.188775 0.7151 0.7107 0.7091 0.7082 0.7063
10.212470 0.7052 0.7042 0.7009 0.6969 0.6915
10.236165 0.6848 0.6764 0.6660 0.6545 0.6412
10.259860 0.6253 0.6071 0.5872 0.5646 0.5383
10.283555 0.5094 0.4858 0.4667 0.4496 0.4344
10.307250 0.4190 0.4037 0.3864 0.3662 0.3429
10.330945 0.3148 0.2976 0.2922 0.2825 0.2733
10.354640 0.2683 0.2656 0.2654 0.2664 0.2681
10.378335 0.2718 0.2764 0.2845 0.3069 0.3415
10.402030 0.3741 0.4065 0.4396 0.4726 0.5003
10.425725 0.5266 0.5519 0.5762 0.5995 0.6210
10.449420 0.6412 0.6608 0.6778 0.6935 0.7086
10.473115 0.7218 0.7337 0.7450 0.7543 0.7616
10.496810 0.7684 0.7768 0.7834 0.7891 0.7936
10.520505 0.7968 0.8005 0.8035 0.8063 0.8086
10.544200 0.8123 0.8145 0.8183 0.8214 0.8264
10.567895 0.8311 0.8321 0.8330 0.8341 0.8370
10.591590 0.8380 0.8390 0.8420 0.8430 0.8439
10.615285 0.8449 0.8459 0.8460 0.8478 0.8489
10.638980 0.8508 0.8519 0.8520 0.8520 0.8520
10.662675 0.8536 0.8548 0.8558 0.8568 0.8570
10.686370 0.8578 0.8595 0.8607 0.8617 0.8620
10.710065 0.8627 0.8630 0.8637 0.8640 0.8653
10.733760 0.8660 0.8660 0.8666 0.8670 0.8676
10.757455 0.8680 0.8680 0.8685 0.8690 0.8695
10.781150 0.8700 0.8710 0.8720 0.8725 0.8730
10.804845 0.8734 0.8740 0.8740 0.8748 0.8760
10.828540 0.8771 0.8797 0.8817 0.8837 0.8853
10.852235 0.8863 0.8873 0.8883 0.8895 0.8913
10.875930 0.8922 0.8932 0.8940 0.8940 0.8940
10.899625 0.8940 0.8940 0.8938 0.8929 0.8920
10.923320 0.8919 0.8910 0.8907 0.8879 0.8869
10.947015 0.8860 0.8849 0.8830 0.8810 0.8800
10.970710 0.8790 0.8751 0.8740 0.8730 0.8730
10.994405 0.8731 0.8742 0.8763 0.8794 0.8833
11.018100 0.8873 0.8912 0.8951 0.8970 0.8980
11.041795 0.8990 0.9010 0.9049 0.9050 0.9060
11.065490 0.9069 0.9070 0.9070 0.9088 0.9099
11.089185 0.9100 0.9109 0.9110 0.9110 0.9118
11.112880 0.9120 0.9144 0.9158 0.9168 0.9170
11.136575 0.9177 0.9180 0.9180 0.9180 0.9187
11.160270 0.9190 0.9190 0.9203 0.9210 0.9210
11.183965 0.9210 0.9210 0.9210 0.9210 0.9210
11.207660 0.9210 0.9210 0.9210 0.9210 0.9210
11.231355 0.9210 0.9210 0.9210 0.9210 0.9210
11.255050 0.9210 0.9210 0.9210 0.9210 0.9210
11.278745 0.9210 0.9210 0.9210 0.9210 0.9210
11.302440 0.9210 0.9210 0.9210 0.9210 0.9210
11.326135 0.9205 0.9188 0.9178 0.9168 0.9158
11.349830 0.9145 0.9115 0.9082 0.9031 0.8971
11.373525 0.8899 0.8798 0.8678 0.8536 0.8363
11.397220 0.8251 0.8081 0.7873 0.7625 0.7348
11.420915 0.7045 0.6739 0.6433 0.6136 0.5848
11.444610 0.5589 0.5332 0.5292 0.5290 0.5308
11.468305 0.5584 0.5757 0.5913 0.6071 0.6221
11.492000 0.6386 0.6664 0.6839 0.6992 0.7135
11.515695 0.7294 0.7548 0.7736 0.7891 0.8056
11.539390 0.8237 0.8340 0.8399 0.8458 0.8518
11.563085 0.8555 0.8624 0.8703 0.8751 0.8806
11.586780 0.8850 0.8882 0.8919 0.8944 0.8964
11.610475 0.8977 0.8987 0.8990 0.8996 0.9006
11.634170 0.9010 0.9022 0.9030 0.9042 0.9056
11.657865 0.9060 0.9065 0.9070 0.9070 0.9070
11.681560 0.9070 0.9070 0.9070 0.9070 0.9070
11.705255 0.9066 0.9060 0.9056 0.9046 0.9036
11.728950 0.9023 0.9006 0.8997 0.8987 0.8970
11.752645 0.8950 0.8947 0.8937 0.8927 0.8917
11.776340 0.8905 0.8888 0.8880 0.8878 0.8868
11.800035 0.8858 0.8847 0.8830 0.8830 0.8830
11.823730 0.8830 0.8832 0.8850 0.8850 0.8850
11.847425 0.8851 0.8861 0.8880 0.8890 0.8910
11.871120 0.8920 0.8930 0.8949 0.8979 0.8989
11.894815 0.8999 0.9009 0.9028 0.9039 0.9049
11.918510 0.9059 0.9069 0.9095 0.9100 0.9108
11.942205 0.9110 0.9110 0.9118 0.9120 0.9120
11.965900 0.9127 0.9130 0.9144 0.9157 0.9167
11.989595 0.9177 0.9187 0.9203 0.9216 0.9226
12.013290 0.9236 0.9246 0.9250 0.9250 0.9261
12.036985 0.9270 0.9270 0.9275 0.9280 0.9280
12.060680 0.9285 0.9290 0.9290 0.9290 0.9290
12.084375 0.9290 0.9290 0.9294 0.9300 0.9304
12.108070 0.9310 0.9310 0.9317 0.9330 0.9330
12.131765 0.9330 0.9330 0.9330 0.9330 0.9330
12.155460 0.9330 0.9330 0.9330 0.9330 0.9330
12.179155 0.9330 0.9334 0.9340 0.9340 0.9343
12.202850 0.9350 0.9350 0.9353 0.9360 0.9360
12.226545 0.9360 0.9360 0.9360 0.9362 0.9370
12.250240 0.9370 0.9370 0.9370 0.9370 0.9370
12.273935 0.9370 0.9370 0.9370 0.9370 0.9370
12.297630 0.9370 0.9370 0.9380 0.9380 0.9380
12.321325 0.9380 0.9380 0.9380 0.9380 0.9380
12.345020 0.9380 0.9380 0.9380 0.9380 0.9380
12.368715 0.9380 0.9380 0.9380 0.9380 0.9380
12.392410 0.9380 0.9380 0.9380 0.9380 0.9380
12.416105 0.9380 0.9380 0.9380 0.9380 0.9380
12.439800 0.9380 0.9380 0.9380 0.9380 0.9380
12.463495 0.9380 0.9380 0.9380 0.9380 0.9380
12.487190 0.9380 0.9380 0.9380 0.9380 0.9380
12.510885 0.9390 0.9400 0.9400 0.9400 0.9400
12.534580 0.9400 0.9400 0.9400 0.9400 0.9400
12.558275 0.9400 0.9403 0.9410 0.9410 0.9410
12.581970 0.9410 0.9410 0.9410 0.9407 0.9400
12.605665 0.9400 0.9400 0.9400 0.9400 0.9400
12.629360 0.9400 0.9400 0.9400 0.9400 0.9400
12.653055 0.9400 0.9400 0.9400 0.9400 0.9400
12.676750 0.9400 0.9400 0.9400 0.9380 0.9380
12.700445 0.9380 0.9380 0.9380 0.9379 0.9370
12.724140 0.9370 0.9369 0.9360 0.9360 0.9359
12.747835 0.9349 0.9340 0.9329 0.9300 0.9290
12.771530 0.9270 0.9241 0.9221 0.9191 0.9171
12.795225 0.9133 0.9102 0.9064 0.9016 0.8975
12.818920 0.8918 0.8859 0.8800 0.8732 0.8647
12.842615 0.8566 0.8471 0.8364 0.8249 0.8101
12.866310 0.7862 0.7566 0.7217 0.6837 0.6438
12.890005 0.6026 0.5624 0.5242 0.4901 0.4607
12.913700 0.4373 0.4195 0.3984 0.3737 0.3490
12.937395 0.3243 0.3119 0.2989 0.2844 0.2785
12.961090 0.2741 0.2706 0.2672 0.2646 0.2644
12.984785 0.2658 0.2711 0.2802 0.2930 0.3133
13.008480 0.3337 0.3637 0.4078 0.4525 0.4938
13.032175 0.5123 0.5304 0.5492 0.5676 0.5855
13.055870 0.6043 0.6228 0.6410 0.6633 0.6927
13.079565 0.7075 0.7223 0.7375 0.7546 0.7727
13.103260 0.7786 0.7845 0.7904 0.7964 0.8023
13.126955 0.8082 0.8142 0.8201 0.8241 0.8377
13.150650 0.8487 0.8509 0.8538 0.8559 0.8569
13.174345 0.8579 0.8598 0.8609 0.8628 0.8639
13.198040 0.8657 0.8668 0.8678 0.8680 0.8688
13.221735 0.8690 0.8698 0.8700 0.8715 0.8729
13.245430 0.8739 0.8749 0.8768 0.8788 0.8799
13.269125 0.8809 0.8819 0.8828 0.8847 0.8850
13.292820 0.8858 0.8868 0.8878 0.8880 0.8888
13.316515 0.8890 0.8905 0.8910 0.8917 0.8920
13.340210 0.8927 0.8930 0.8930 0.8936 0.8940
13.363905 0.8940 0.8940 0.8940 0.8940 0.8940
13.387600 0.8940 0.8940 0.8940 0.8940 0.8940
13.411295 0.8935 0.8930 0.8930 0.8930 0.8930
13.434990 0.8930 0.8930 0.8930 0.8926 0.8920
13.458685 0.8920 0.8917 0.8910 0.8904 0.8890
13.482380 0.8890 0.8887 0.8880 0.8877 0.8865
13.506075 0.8850 0.8846 0.8828 0.8818 0.8808
13.529770 0.8798 0.8786 0.8759 0.8749 0.8739
13.553465 0.8729 0.8717 0.8688 0.8670 0.8669
13.577160 0.8659 0.8640 0.8620 0.8600 0.8570
13.600855 0.8550 0.8540 0.8521 0.8501 0.8481
13.624550 0.8453 0.8432 0.8395 0.8364 0.8308
13.648245 0.8249 0.8206 0.8150 0.8099 0.8018
13.671940 0.7961 0.7904 0.7852 0.7825 0.7703
13.695635 0.7552 0.7439 0.7242 0.6943 0.6732
13.719330 0.6588 0.6425 0.6247 0.6069 0.5891
13.743025 0.5707 0.5525 0.5347 0.4973 0.4658
13.766720 0.4505 0.4358 0.4210 0.4056 0.3903
13.790415 0.3811 0.3795 0.3781 0.3779 0.3845
13.814110 0.3991 0.4149 0.4286 0.4420 0.4558
13.837805 0.4697 0.4835 0.4974 0.5107 0.5245
13.861500 0.5359 0.5447 0.5555 0.5673 0.5796
13.885195 0.5925 0.6049 0.6168 0.6275 0.6360
13.908890 0.6421 0.6454 0.6487 0.6510 0.6533
13.932585 0.6546 0.6563 0.6575 0.6590 0.6590
13.956280 0.6583 0.6558 0.6548 0.6534 0.6503
13.979975 0.6455 0.6366 0.6276 0.6179 0.6099
14.003670 0.6011 0.5934 0.5863 0.5776 0.5706
14.027365 0.5637 0.5568 0.5499 0.5440 0.5380
14.051060 0.5311 0.5262 0.5203 0.5153 0.5095
14.074755 0.5044 0.5004 0.4964 0.4951 0.4950
14.098450 0.4950 0.4958 0.4968 0.4994 0.5064
14.122145 0.5135 0.5212 0.5291 0.5340 0.5387
14.145840 0.5473 0.5564 0.5708 0.5814 0.5907
14.169535 0.6052 0.6168 0.6257 0.6346 0.6435
14.193230 0.6524 0.6589 0.6712 0.6867 0.6995
14.216925 0.7103 0.7192 0.7266 0.7330 0.7379
14.240620 0.7424 0.7464 0.7502 0.7547 0.7595
14.264315 0.7634 0.7648 0.7664 0.7681 0.7704
14.288010 0.7717 0.7740 0.7763 0.7773 0.7783
14.311705 0.7796 0.7813 0.7820 0.7820 0.7820
14.335400 0.7820 0.7820 0.7820 0.7818 0.7807
14.359095 0.7789 0.7779 0.7769 0.7757 0.7728
14.382790 0.7708 0.7688 0.7662 0.7627 0.7575
14.406485 0.7518 0.7467 0.7405 0.7338 0.7277
14.430180 0.7210 0.7149 0.7080 0.7010 0.6931
14.453875 0.6853 0.6783 0.6704 0.6624 0.6545
14.477570 0.6466 0.6387 0.6309 0.6230 0.6141
14.501265 0.6062 0.5983 0.5894 0.5815 0.5726
14.524960 0.5656 0.5577 0.5499 0.5412 0.5340
14.548655 0.5262 0.5183 0.5104 0.5049 0.5016
14.572350 0.4978 0.4954 0.4942 0.4940 0.4925
14.596045 0.4920 0.4920 0.4920 0.4920 0.4934
14.619740 0.4940 0.4953 0.4985 0.5025 0.5070
14.643435 0.5132 0.5195 0.5271 0.5355 0.5434
14.667130 0.5524 0.5628 0.5726 0.5824 0.5933
14.690825 0.6041 0.6155 0.6264 0.6372 0.6486
14.714520 0.6595 0.6704 0.6808 0.6906 0.7002
14.738215 0.7094 0.7186 0.7269 0.7351 0.7421
14.761910 0.7490 0.7556 0.7615 0.7674 0.7731
14.785605 0.7783 0.7840 0.7889 0.7935 0.7967
14.809300 0.8005 0.8036 0.8075 0.8113 0.8142
14.832995 0.8163 0.8192 0.8222 0.8251 0.8271
14.856690 0.8300 0.8310 0.8330 0.8359 0.8379
14.880385 0.8390 0.8418 0.8429 0.8439 0.8440
14.904080 0.8449 0.8450 0.8459 0.8460 0.8477
14.927775 0.8480 0.8488 0.8490 0.8498 0.8508
14.951470 0.8518 0.8520 0.8535 0.8540 0.8549
14.975165 0.8550 0.8550 0.8550 0.8550 0.8550
14.998860 0.8541 0.8540 0.8523 0.8520 0.8512
15.022555 0.8502 0.8500 0.8492 0.8483 0.8465
15.046250 0.8445 0.8433 0.8409 0.8393 0.8390
15.069945 0.8390 0.8390 0.8384 0.8380 0.8380
15.093640 0.8380 0.8380 0.8380 0.8380 0.8385
15.117335 0.8390 0.8390 0.8395 0.8400 0.8400
15.141030 0.8409 0.8420 0.8420 0.8424 0.8434
15.164725 0.8440 0.8444 0.8450 0.8454 0.8460
15.188420 0.8467 0.8480 0.8483 0.8490 0.8493
15.212115 0.8503 0.8510 0.8513 0.8520 0.8520
15.235810 0.8520 0.8524 0.8540 0.8540 0.8540
15.259505 0.8541 0.8550 0.8550 0.8550 0.8550
15.283200 0.8550 0.8550 0.8550 0.8550 0.8550
15.306895 0.8550 0.8550 0.8550 0.8550 0.8550
15.330590 0.8550 0.8540 0.8540 0.8540 0.8540
15.354285 0.8540 0.8522 0.8520 0.8520 0.8512
15.377980 0.8510 0.8502 0.8500 0.8492 0.8490
15.401675 0.8482 0.8480 0.8465 0.8460 0.8453
15.425370 0.8450 0.8450 0.8443 0.8440 0.8433
15.449065 0.8430 0.8430 0.8424 0.8420 0.8408
15.472760 0.8394 0.8390 0.8384 0.8375 0.8370
15.496455 0.8365 0.8350 0.8340 0.8335 0.8325
15.520150 0.8320 0.8316 0.8306 0.8300 0.8290
15.543845 0.8280 0.8274 0.8264 0.8260 0.8255
15.567540 0.8245 0.8240 0.8230 0.8215 0.8210
15.591235 0.8205 0.8195 0.8190 0.8186 0.8172
15.614930 0.8156 0.8150 0.8150 0.8146 0.8140
15.638625 0.8137 0.8127 0.8120 0.8117 0.8110
15.662320 0.8104 0.8087 0.8080 0.8078 0.8070
15.686015 0.8068 0.8058 0.8046 0.8028 0.8018
15.709710 0.8008 0.7999 0.7987 0.7969 0.7959
15.733405 0.7949 0.7939 0.7929 0.7910 0.7900
15.757100 0.7890 0.7880 0.7870 0.7850 0.7840
15.780795 0.7840 0.7831 0.7821 0.7820 0.7811
15.804490 0.7792 0.7790 0.7781 0.7771 0.7770
15.828185 0.7762 0.7752 0.7750 0.7734 0.7722
15.851880 0.7720 0.7712 0.7702 0.7700 0.7693
15.875575 0.7690 0.7676 0.7663 0.7660 0.7653
15.899270 0.7644 0.7640 0.7634 0.7630 0.7618
15.922965 0.7604 0.7600 0.7594 0.7585 0.7580
15.946660 0.7575 0.7570 0.7560 0.7545 0.7540
##END=
