##TITLE=ALANINE, N,N'-(DITHIODIETHYLENE)DI-
##JCAMP-DX=4.24
##DATA TYPE=INFRARED SPECTRUM
##CLASS=COBLENTZ III
##ORIGIN=SOUTHERN RESEARCH INST.
##OWNER=COBLENTZ SOCIETY
Collection (C) 2018 copyright by the U.S. Secretary of Commerce
on behalf of the United States of America. All rights reserved.
##DATE=1964/10/06
##NAMES=N-[2-((2-[(1-carboxyethyl)amino]ethyl)disulfanyl)ethyl]alanine
##MOLFORM=C10 H20 N2 O4 S2
##SOURCE REFERENCE=COBLENTZ NO. 9914
##$NIST ID=B6009914
##$NIST SOURCE=COBLENTZ
##$NIST IMAGE=cob9914
##SPECTROMETER/DATA SYSTEM=PERKIN-ELMER 221 (GRATING)
##INSTRUMENT PARAMETERS=FILTER CHANGES AT 2490, 980 CM^-^1, GRATING FOR 4000-1428 CM^-^1, NaCl PRISM FOR 1428-650 CM^-^1
##STATE=SOLID (1 mg / 650 mg KBr DISC)
##SAMPLING PROCEDURE=TRANSMISSION
##RESOLUTION=4
##DATA PROCESSING=DIGITIZED BY NIST FROM HARD COPY
##XUNITS=1/CM
##YUNITS=TRANSMITTANCE
##XFACTOR=1.000000
##YFACTOR=1
##DELTAX=001.594283
##FIRSTX=597.966
##LASTX=3998.57
##FIRSTY=0.796
##MAXX=3998.57
##MINX=597.966
##MAXY=0.88
##MINY=0.104
##NPOINTS=2134
##XYDATA=(X++(Y..Y))
597.966000 0.7960 0.7950 0.7960 0.7950 0.7950
605.941152 0.7940 0.7940 0.7930 0.7930 0.7930
613.909000 0.7930 0.7900 0.7890 0.7870 0.7850
621.884152 0.7770 0.7690 0.7560 0.7420 0.7260
629.852000 0.7110 0.6980 0.6970 0.6970 0.6990
637.827152 0.7120 0.7280 0.7400 0.7630 0.7830
645.794000 0.8010 0.8140 0.8250 0.8340 0.8400
653.769152 0.8460 0.8500 0.8520 0.8540 0.8560
661.737000 0.8580 0.8600 0.8620 0.8660 0.8700
669.712152 0.8720 0.8730 0.8740 0.8740 0.8750
677.680000 0.8750 0.8750 0.8760 0.8770 0.8770
685.655152 0.8770 0.8780 0.8790 0.8790 0.8800
693.623000 0.8800 0.8800 0.8800 0.8790 0.8790
701.598152 0.8790 0.8780 0.8770 0.8760 0.8750
709.566000 0.8740 0.8720 0.8700 0.8690 0.8660
717.541152 0.8640 0.8620 0.8580 0.8540 0.8500
725.509000 0.8470 0.8460 0.8470 0.8490 0.8540
733.484152 0.8590 0.8620 0.8620 0.8630 0.8620
741.451000 0.8590 0.8520 0.8480 0.8380 0.8240
749.426152 0.8070 0.7900 0.7740 0.7630 0.7580
757.394000 0.7410 0.7330 0.7330 0.7560 0.7680
765.369152 0.7800 0.7940 0.7940 0.7780 0.7550
773.337000 0.7400 0.7380 0.7390 0.7500 0.7610
781.312152 0.7700 0.8090 0.8210 0.8340 0.8420
789.280000 0.8590 0.8630 0.8640 0.8630 0.8590
797.255152 0.8570 0.8410 0.8240 0.8050 0.7880
805.223000 0.7700 0.7700 0.7990 0.8280 0.8580
813.198152 0.8580 0.8570 0.8570 0.8520 0.8510
821.165000 0.8470 0.8440 0.8350 0.8280 0.8230
829.140152 0.8200 0.8170 0.8160 0.8120 0.8090
837.108000 0.8020 0.7930 0.7810 0.7640 0.7430
845.083152 0.7160 0.6830 0.6420 0.5450 0.5000
853.051000 0.4980 0.5000 0.5280 0.5550 0.6040
861.026152 0.6470 0.6840 0.7150 0.7400 0.7590
868.994000 0.7720 0.7920 0.8090 0.8420 0.8430
876.969152 0.8430 0.8430 0.8430 0.8390 0.8340
884.937000 0.8290 0.8240 0.8180 0.8110 0.8010
892.912152 0.7890 0.7730 0.7620 0.7590 0.7580
900.880000 0.7590 0.7670 0.7730 0.7780 0.8090
908.855152 0.8160 0.8220 0.8280 0.8320 0.8350
916.822000 0.8380 0.8410 0.8440 0.8470 0.8510
924.797152 0.8540 0.8590 0.8650 0.8660 0.8680
932.765000 0.8680 0.8680 0.8680 0.8670 0.8670
940.740152 0.8670 0.8670 0.8660 0.8660 0.8660
948.708000 0.8660 0.8660 0.8660 0.8660 0.8660
956.683152 0.8650 0.8650 0.8650 0.8640 0.8630
964.651000 0.8600 0.8570 0.8530 0.8490 0.8460
972.626152 0.8430 0.8410 0.8380 0.8380 0.8360
980.594000 0.8350 0.8330 0.8320 0.8300 0.8280
988.569152 0.8270 0.8270 0.8260 0.8240 0.8240
996.537000 0.8210 0.8190 0.8150 0.8100 0.8050
1004.512152 0.7970 0.7900 0.7800 0.7690 0.7480
1012.479000 0.7300 0.7290 0.7320 0.7480 0.7770
1020.454152 0.7940 0.8050 0.8100 0.8140 0.8190
1028.422000 0.8280 0.8320 0.8330 0.8320 0.8270
1036.397152 0.8240 0.8190 0.8110 0.8010 0.7910
1044.365000 0.7870 0.7810 0.7700 0.7610 0.7510
1052.340152 0.7410 0.7310 0.7320 0.7320 0.7400
1060.308000 0.7480 0.7540 0.7610 0.7670 0.7730
1068.283152 0.7770 0.8010 0.8020 0.8020 0.7700
1076.251000 0.7440 0.7120 0.6790 0.6630 0.6460
1084.226152 0.6220 0.6200 0.6210 0.6310 0.6400
1092.193000 0.6930 0.7250 0.7440 0.7530 0.7590
1100.168152 0.7670 0.7810 0.7910 0.7910 0.7920
1108.136000 0.7900 0.7900 0.7860 0.7800 0.7750
1116.111152 0.7650 0.7540 0.7410 0.7300 0.7140
1124.079000 0.7040 0.7040 0.7160 0.7180 0.7200
1132.054152 0.7210 0.7220 0.7240 0.7280 0.7490
1140.022000 0.7630 0.7730 0.7800 0.7860 0.7930
1147.997152 0.8010 0.8100 0.8140 0.8160 0.8160
1155.965000 0.8150 0.8140 0.8130 0.8120 0.8100
1163.940152 0.8040 0.7970 0.7900 0.7810 0.7720
1171.908000 0.7620 0.7500 0.7370 0.7220 0.7050
1179.883152 0.6670 0.6670 0.6710 0.6750 0.7130
1187.850000 0.7390 0.7560 0.7700 0.7840 0.8030
1195.825152 0.8090 0.8090 0.8090 0.8110 0.8110
1203.793000 0.8110 0.8100 0.8090 0.8070 0.8050
1211.768152 0.8050 0.8050 0.8030 0.8000 0.7900
1219.736000 0.7740 0.7630 0.7490 0.7360 0.7220
1227.711152 0.7090 0.6940 0.6930 0.6940 0.7080
1235.679000 0.7210 0.7300 0.7380 0.7470 0.7530
1243.654152 0.7590 0.7630 0.7640 0.7680 0.7670
1251.622000 0.7660 0.7640 0.7630 0.7530 0.7510
1259.597152 0.7410 0.7120 0.6830 0.6610 0.6400
1267.565000 0.5430 0.4910 0.4910 0.5600 0.6290
1275.540152 0.6290 0.6280 0.6250 0.6200 0.6170
1283.507000 0.6120 0.6100 0.6090 0.6070 0.6060
1291.482152 0.6030 0.6020 0.5920 0.5800 0.5680
1299.450000 0.5570 0.5570 0.5620 0.6200 0.6430
1307.425152 0.6570 0.6670 0.6940 0.6950 0.6950
1315.393000 0.6940 0.6450 0.6270 0.6100 0.5840
1323.368152 0.5680 0.5550 0.5530 0.5530 0.5540
1331.336000 0.5540 0.5540 0.5300 0.5120 0.4890
1339.311152 0.4580 0.4120 0.3480 0.2600 0.2060
1347.279000 0.1560 0.1540 0.1550 0.1770 0.1990
1355.254152 0.2200 0.2610 0.2830 0.2840 0.3480
1363.222000 0.3790 0.3800 0.4270 0.4760 0.4960
1371.197152 0.5150 0.5340 0.5340 0.5290 0.4870
1379.164000 0.4380 0.4010 0.3740 0.3510 0.3280
1387.139152 0.2980 0.2650 0.2630 0.2640 0.2780
1395.107000 0.2860 0.2930 0.3410 0.4000 0.4590
1403.082152 0.4970 0.5140 0.5300 0.5420 0.5460
1411.050000 0.5500 0.5500 0.5530 0.5570 0.5600
1419.025152 0.5630 0.5640 0.5650 0.5670 0.5710
1426.993000 0.5750 0.5790 0.5850 0.5860 0.6030
1434.968152 0.6190 0.6350 0.6370 0.6350 0.6340
1442.936000 0.6250 0.6120 0.5990 0.5450 0.5340
1450.911152 0.5270 0.5210 0.5100 0.5000 0.4990
1458.879000 0.4980 0.4990 0.5010 0.5020 0.5070
1466.854152 0.5130 0.5190 0.5250 0.5410 0.5570
1474.821000 0.5620 0.5630 0.5680 0.5950 0.6030
1482.796152 0.6100 0.6170 0.6400 0.6410 0.6400
1490.764000 0.6340 0.6270 0.6200 0.6180 0.6180
1498.739152 0.6130 0.6030 0.5920 0.5830 0.5740
1506.707000 0.5670 0.5600 0.5490 0.5450 0.5410
1514.682152 0.5390 0.5380 0.5350 0.5280 0.5190
1522.650000 0.5070 0.4930 0.4790 0.4640 0.4490
1530.625152 0.4350 0.4230 0.4140 0.3990 0.3910
1538.593000 0.3880 0.3870 0.3880 0.3900 0.3910
1546.568152 0.3930 0.3930 0.3930 0.3900 0.3860
1554.536000 0.3810 0.3690 0.3650 0.3510 0.3370
1562.511152 0.3280 0.3060 0.2800 0.2520 0.2240
1570.478000 0.1990 0.1790 0.1660 0.1630 0.1520
1578.453152 0.1460 0.1410 0.1350 0.1290 0.1240
1586.421000 0.1190 0.1180 0.1180 0.1180 0.1240
1594.396152 0.1270 0.1350 0.1430 0.1510 0.1620
1602.364000 0.1640 0.1650 0.1650 0.1640 0.1590
1610.339152 0.1520 0.1460 0.1410 0.1340 0.1280
1618.307000 0.1220 0.1160 0.1100 0.1040 0.1040
1626.282152 0.1220 0.1400 0.1580 0.1760 0.1930
1634.250000 0.2190 0.2430 0.2510 0.3050 0.3430
1642.225152 0.3760 0.4080 0.4380 0.4650 0.4900
1650.193000 0.5140 0.5350 0.5450 0.5560 0.5740
1658.168152 0.5910 0.6060 0.6200 0.6330 0.6450
1666.135000 0.6560 0.6660 0.6750 0.6830 0.6900
1674.110152 0.6980 0.7050 0.7110 0.7180 0.7250
1682.078000 0.7310 0.7370 0.7440 0.7510 0.7550
1690.053152 0.7570 0.7580 0.7600 0.7620 0.7630
1698.021000 0.7630 0.7640 0.7670 0.7710 0.7750
1705.996152 0.7770 0.7790 0.7820 0.7840 0.7860
1713.964000 0.7880 0.7890 0.7900 0.7900 0.7900
1721.939152 0.7950 0.7970 0.7990 0.8010 0.8050
1729.907000 0.8050 0.8060 0.8070 0.8070 0.8080
1737.882152 0.8080 0.8090 0.8100 0.8150 0.8180
1745.849000 0.8210 0.8240 0.8270 0.8290 0.8320
1753.824152 0.8330 0.8350 0.8380 0.8410 0.8430
1761.792000 0.8440 0.8450 0.8460 0.8460 0.8470
1769.767152 0.8470 0.8470 0.8470 0.8480 0.8480
1777.735000 0.8490 0.8490 0.8490 0.8490 0.8490
1785.710152 0.8490 0.8490 0.8490 0.8480 0.8470
1793.678000 0.8470 0.8470 0.8470 0.8470 0.8470
1801.653152 0.8470 0.8470 0.8470 0.8470 0.8470
1809.621000 0.8470 0.8470 0.8470 0.8470 0.8470
1817.596152 0.8470 0.8470 0.8470 0.8470 0.8470
1825.563000 0.8470 0.8470 0.8470 0.8470 0.8470
1833.538152 0.8470 0.8470 0.8470 0.8470 0.8460
1841.506000 0.8460 0.8460 0.8460 0.8460 0.8450
1849.481152 0.8450 0.8450 0.8450 0.8450 0.8450
1857.449000 0.8440 0.8440 0.8430 0.8430 0.8430
1865.424152 0.8430 0.8430 0.8430 0.8430 0.8430
1873.392000 0.8430 0.8420 0.8420 0.8410 0.8410
1881.367152 0.8410 0.8390 0.8380 0.8360 0.8350
1889.335000 0.8330 0.8320 0.8310 0.8300 0.8300
1897.310152 0.8290 0.8290 0.8280 0.8280 0.8270
1905.278000 0.8260 0.8250 0.8240 0.8240 0.8230
1913.253152 0.8220 0.8210 0.8200 0.8200 0.8190
1921.220000 0.8170 0.8170 0.8160 0.8160 0.8150
1929.195152 0.8140 0.8130 0.8120 0.8120 0.8110
1937.163000 0.8100 0.8090 0.8090 0.8080 0.8070
1945.138152 0.8060 0.8050 0.8050 0.8040 0.8030
1953.106000 0.8020 0.8010 0.8010 0.8000 0.7990
1961.081152 0.7980 0.7980 0.7970 0.7970 0.7970
1969.049000 0.7970 0.7960 0.7960 0.7960 0.7950
1977.024152 0.7950 0.7950 0.7940 0.7940 0.7930
1984.992000 0.7930 0.7930 0.7930 0.7930 0.7930
1992.967152 0.7930 0.7930 0.7930 0.7930 0.7930
2000.935000 0.7930 0.7920 0.7920 0.7900 0.7900
2008.910152 0.7900 0.7880 0.7870 0.7850 0.7820
2016.877000 0.7800 0.7780 0.7760 0.7740 0.7730
2024.852152 0.7710 0.7700 0.7680 0.7670 0.7670
2032.820000 0.7660 0.7650 0.7640 0.7640 0.7630
2040.795152 0.7630 0.7630 0.7620 0.7610 0.7610
2048.763000 0.7600 0.7600 0.7600 0.7600 0.7590
2056.738152 0.7590 0.7590 0.7590 0.7580 0.7550
2064.706000 0.7530 0.7510 0.7490 0.7480 0.7460
2072.681152 0.7450 0.7440 0.7440 0.7440 0.7430
2080.649000 0.7420 0.7410 0.7380 0.7340 0.7340
2088.624152 0.7330 0.7320 0.7320 0.7310 0.7300
2096.592000 0.7280 0.7250 0.7210 0.7180 0.7170
2104.567152 0.7140 0.7130 0.7120 0.7110 0.7100
2112.534000 0.7100 0.7090 0.7090 0.7090 0.7070
2120.509152 0.7060 0.7040 0.7030 0.7020 0.7010
2128.477000 0.6980 0.6970 0.6940 0.6920 0.6900
2136.452152 0.6870 0.6850 0.6820 0.6810 0.6800
2144.420000 0.6790 0.6750 0.6720 0.6690 0.6660
2152.395152 0.6640 0.6620 0.6600 0.6590 0.6580
2160.363000 0.6570 0.6560 0.6540 0.6540 0.6530
2168.338152 0.6530 0.6520 0.6520 0.6510 0.6500
2176.306000 0.6490 0.6480 0.6480 0.6480 0.6470
2184.281152 0.6460 0.6450 0.6450 0.6430 0.6420
2192.249000 0.6410 0.6390 0.6370 0.6360 0.6340
2200.224152 0.6330 0.6330 0.6320 0.6310 0.6290
2208.191000 0.6270 0.6250 0.6220 0.6220 0.6200
2216.166152 0.6190 0.6190 0.6180 0.6170 0.6150
2224.134000 0.6100 0.6060 0.6030 0.6000 0.5980
2232.109152 0.5960 0.5950 0.5940 0.5930 0.5920
2240.077000 0.5910 0.5890 0.5870 0.5860 0.5830
2248.052152 0.5800 0.5780 0.5750 0.5720 0.5700
2256.020000 0.5680 0.5680 0.5670 0.5670 0.5660
2263.995152 0.5660 0.5650 0.5650 0.5640 0.5640
2271.963000 0.5640 0.5640 0.5640 0.5640 0.5640
2279.938152 0.5640 0.5640 0.5630 0.5630 0.5630
2287.906000 0.5630 0.5630 0.5620 0.5620 0.5620
2295.881152 0.5610 0.5610 0.5600 0.5580 0.5570
2303.848000 0.5570 0.5490 0.5430 0.5390 0.5380
2311.823152 0.5360 0.5350 0.5340 0.5320 0.5300
2319.791000 0.5300 0.5280 0.5260 0.5230 0.5220
2327.766152 0.5210 0.5200 0.5200 0.5200 0.5200
2335.734000 0.5210 0.5210 0.5210 0.5210 0.5220
2343.709152 0.5220 0.5220 0.5220 0.5230 0.5240
2351.677000 0.5250 0.5250 0.5260 0.5260 0.5260
2359.652152 0.5270 0.5280 0.5290 0.5290 0.5300
2367.620000 0.5300 0.5310 0.5330 0.5340 0.5350
2375.595152 0.5360 0.5360 0.5370 0.5370 0.5380
2383.563000 0.5380 0.5390 0.5410 0.5420 0.5430
2391.538152 0.5450 0.5450 0.5450 0.5470 0.5480
2399.505000 0.5480 0.5490 0.5490 0.5490 0.5500
2407.480152 0.5500 0.5500 0.5520 0.5530 0.5530
2415.448000 0.5540 0.5550 0.5560 0.5570 0.5570
2423.423152 0.5570 0.5580 0.5580 0.5590 0.5590
2431.391000 0.5600 0.5600 0.5600 0.5610 0.5610
2439.366152 0.5610 0.5610 0.5620 0.5620 0.5630
2447.334000 0.5630 0.5640 0.5640 0.5640 0.5640
2455.309152 0.5650 0.5660 0.5670 0.5670 0.5680
2463.277000 0.5680 0.5690 0.5700 0.5720 0.5720
2471.252152 0.5720 0.5730 0.5730 0.5740 0.5750
2479.219000 0.5750 0.5760 0.5760 0.5760 0.5770
2487.194152 0.5770 0.5780 0.5780 0.5790 0.5800
2495.162000 0.5800 0.5810 0.5820 0.5830 0.5830
2503.137152 0.5840 0.5850 0.5850 0.5870 0.5880
2511.105000 0.5890 0.5900 0.5900 0.5910 0.5910
2519.080152 0.5910 0.5910 0.5910 0.5910 0.5900
2527.048000 0.5890 0.5880 0.5870 0.5870 0.5860
2535.023152 0.5840 0.5830 0.5810 0.5780 0.5760
2542.991000 0.5760 0.5740 0.5730 0.5710 0.5690
2550.966152 0.5680 0.5670 0.5660 0.5660 0.5660
2558.934000 0.5670 0.5670 0.5680 0.5680 0.5680
2566.909152 0.5680 0.5680 0.5690 0.5690 0.5690
2574.876000 0.5690 0.5700 0.5700 0.5710 0.5710
2582.851152 0.5710 0.5710 0.5710 0.5710 0.5710
2590.819000 0.5720 0.5720 0.5720 0.5720 0.5720
2598.794152 0.5720 0.5720 0.5720 0.5730 0.5730
2606.762000 0.5730 0.5730 0.5730 0.5740 0.5740
2614.737152 0.5740 0.5740 0.5740 0.5730 0.5730
2622.705000 0.5730 0.5730 0.5730 0.5730 0.5720
2630.680152 0.5720 0.5720 0.5720 0.5720 0.5710
2638.648000 0.5710 0.5710 0.5710 0.5720 0.5720
2646.623152 0.5720 0.5720 0.5720 0.5720 0.5720
2654.591000 0.5720 0.5720 0.5720 0.5720 0.5730
2662.566152 0.5750 0.5780 0.5830 0.5860 0.5900
2670.533000 0.5920 0.5950 0.5950 0.5970 0.5980
2678.508152 0.5990 0.5990 0.5980 0.5980 0.5970
2686.476000 0.5950 0.5930 0.5920 0.5910 0.5910
2694.451152 0.5910 0.5900 0.5890 0.5880 0.5870
2702.419000 0.5830 0.5800 0.5750 0.5720 0.5710
2710.394152 0.5700 0.5690 0.5670 0.5650 0.5630
2718.362000 0.5620 0.5610 0.5610 0.5610 0.5610
2726.337152 0.5630 0.5630 0.5630 0.5640 0.5640
2734.305000 0.5650 0.5660 0.5680 0.5690 0.5700
2742.280152 0.5710 0.5720 0.5720 0.5720 0.5720
2750.248000 0.5720 0.5720 0.5720 0.5720 0.5720
2758.223152 0.5720 0.5730 0.5730 0.5740 0.5740
2766.190000 0.5740 0.5750 0.5750 0.5750 0.5750
2774.165152 0.5750 0.5740 0.5740 0.5730 0.5730
2782.133000 0.5730 0.5720 0.5720 0.5720 0.5710
2790.108152 0.5700 0.5700 0.5690 0.5690 0.5680
2798.076000 0.5680 0.5680 0.5690 0.5690 0.5690
2806.051152 0.5690 0.5690 0.5690 0.5690 0.5680
2814.019000 0.5660 0.5610 0.5560 0.5470 0.5440
2821.994152 0.5410 0.5380 0.5360 0.5340 0.5310
2829.962000 0.5300 0.5270 0.5260 0.5230 0.5210
2837.937152 0.5180 0.5150 0.5110 0.5070 0.5020
2845.904000 0.4970 0.4920 0.4910 0.4910 0.4910
2853.879152 0.4910 0.4920 0.4920 0.4920 0.4930
2861.847000 0.4930 0.4930 0.4930 0.4930 0.4920
2869.822152 0.4920 0.4920 0.4920 0.4920 0.4930
2877.790000 0.4950 0.5040 0.5170 0.5260 0.5320
2885.765152 0.5370 0.5420 0.5480 0.5520 0.5560
2893.733000 0.5630 0.5630 0.5620 0.5570 0.5440
2901.708152 0.5380 0.5320 0.5220 0.5080 0.4840
2909.676000 0.4660 0.4640 0.4680 0.4760 0.4990
2917.651152 0.5190 0.5260 0.5340 0.5410 0.5450
2925.619000 0.5490 0.5490 0.5470 0.5450 0.5410
2933.594152 0.5380 0.5340 0.5280 0.5230 0.5180
2941.561000 0.5130 0.5080 0.5040 0.5010 0.4980
2949.536152 0.4970 0.4980 0.5030 0.5080 0.5140
2957.504000 0.5160 0.5220 0.5260 0.5290 0.5300
2965.479152 0.5310 0.5320 0.5340 0.5340 0.5350
2973.447000 0.5350 0.5340 0.5340 0.5340 0.5340
2981.422152 0.5360 0.5390 0.5400 0.5410 0.5410
2989.390000 0.5410 0.5430 0.5440 0.5450 0.5490
2997.365152 0.5510 0.5520 0.5540 0.5540 0.5540
3005.333000 0.5540 0.5530 0.5530 0.5530 0.5530
3013.308152 0.5490 0.5480 0.5450 0.5410 0.5380
3021.275000 0.5330 0.5280 0.5240 0.5200 0.5160
3029.250152 0.5140 0.5120 0.5090 0.5070 0.5020
3037.218000 0.4960 0.4920 0.4870 0.4820 0.4770
3045.193152 0.4740 0.4700 0.4670 0.4640 0.4610
3053.161000 0.4580 0.4570 0.4550 0.4540 0.4530
3061.136152 0.4520 0.4510 0.4500 0.4500 0.4500
3069.104000 0.4490 0.4490 0.4500 0.4510 0.4560
3077.079152 0.4610 0.4670 0.4730 0.4790 0.4850
3085.047000 0.4920 0.5000 0.5070 0.5140 0.5210
3093.022152 0.5280 0.5360 0.5430 0.5470 0.5500
3100.990000 0.5580 0.5640 0.5720 0.5780 0.5840
3108.965152 0.5910 0.5960 0.6010 0.6060 0.6100
3116.932000 0.6150 0.6210 0.6250 0.6300 0.6350
3124.907152 0.6400 0.6450 0.6490 0.6540 0.6580
3132.875000 0.6630 0.6670 0.6710 0.6750 0.6790
3140.850152 0.6830 0.6870 0.6900 0.6940 0.6970
3148.818000 0.7000 0.7040 0.7070 0.7100 0.7130
3156.793152 0.7160 0.7190 0.7210 0.7250 0.7270
3164.761000 0.7290 0.7320 0.7350 0.7360 0.7390
3172.736152 0.7410 0.7440 0.7450 0.7480 0.7490
3180.704000 0.7510 0.7530 0.7550 0.7560 0.7580
3188.679152 0.7590 0.7600 0.7620 0.7630 0.7660
3196.646000 0.7680 0.7700 0.7710 0.7730 0.7740
3204.621152 0.7740 0.7750 0.7760 0.7770 0.7780
3212.589000 0.7780 0.7780 0.7780 0.7770 0.7760
3220.564152 0.7760 0.7760 0.7750 0.7750 0.7750
3228.532000 0.7750 0.7740 0.7740 0.7740 0.7750
3236.507152 0.7750 0.7750 0.7750 0.7760 0.7760
3244.475000 0.7760 0.7760 0.7760 0.7760 0.7760
3252.450152 0.7760 0.7760 0.7760 0.7750 0.7750
3260.418000 0.7740 0.7740 0.7740 0.7740 0.7730
3268.393152 0.7730 0.7730 0.7720 0.7720 0.7710
3276.361000 0.7710 0.7700 0.7700 0.7700 0.7700
3284.336152 0.7700 0.7690 0.7690 0.7690 0.7680
3292.303000 0.7680 0.7680 0.7670 0.7660 0.7650
3300.278152 0.7650 0.7640 0.7640 0.7630 0.7630
3308.246000 0.7630 0.7630 0.7620 0.7620 0.7620
3316.221152 0.7620 0.7620 0.7620 0.7620 0.7610
3324.189000 0.7600 0.7600 0.7590 0.7590 0.7590
3332.164152 0.7580 0.7570 0.7560 0.7550 0.7550
3340.132000 0.7510 0.7480 0.7440 0.7410 0.7390
3348.107152 0.7380 0.7380 0.7370 0.7370 0.7360
3356.075000 0.7360 0.7340 0.7310 0.7280 0.7250
3364.050152 0.7230 0.7220 0.7210 0.7210 0.7190
3372.018000 0.7150 0.7140 0.7130 0.7110 0.7100
3379.993152 0.7090 0.7080 0.7050 0.7020 0.6980
3387.960000 0.6960 0.6940 0.6920 0.6900 0.6900
3395.935152 0.6900 0.6900 0.6890 0.6890 0.6880
3403.903000 0.6870 0.6870 0.6860 0.6860 0.6850
3411.878152 0.6840 0.6840 0.6830 0.6830 0.6830
3419.846000 0.6820 0.6810 0.6810 0.6810 0.6810
3427.821152 0.6810 0.6810 0.6820 0.6820 0.6830
3435.789000 0.6830 0.6830 0.6830 0.6840 0.6840
3443.764152 0.6840 0.6850 0.6850 0.6850 0.6860
3451.732000 0.6860 0.6860 0.6870 0.6870 0.6870
3459.707152 0.6900 0.6900 0.6900 0.6910 0.6920
3467.675000 0.6930 0.6940 0.6940 0.6950 0.6960
3475.650152 0.6970 0.6970 0.6980 0.6980 0.6990
3483.617000 0.7000 0.7010 0.7020 0.7020 0.7030
3491.592152 0.7040 0.7060 0.7060 0.7080 0.7090
3499.560000 0.7090 0.7110 0.7120 0.7120 0.7150
3507.535152 0.7170 0.7200 0.7210 0.7260 0.7290
3515.503000 0.7310 0.7330 0.7350 0.7360 0.7370
3523.478152 0.7390 0.7400 0.7400 0.7410 0.7420
3531.446000 0.7430 0.7440 0.7450 0.7460 0.7480
3539.421152 0.7500 0.7520 0.7550 0.7560 0.7580
3547.389000 0.7590 0.7590 0.7590 0.7590 0.7600
3555.364152 0.7610 0.7630 0.7660 0.7680 0.7700
3563.332000 0.7720 0.7740 0.7760 0.7780 0.7790
3571.307152 0.7810 0.7820 0.7840 0.7860 0.7860
3579.274000 0.7880 0.7900 0.7910 0.7930 0.7930
3587.249152 0.7950 0.7970 0.7980 0.8000 0.8010
3595.217000 0.8030 0.8050 0.8070 0.8090 0.8110
3603.192152 0.8120 0.8140 0.8150 0.8160 0.8160
3611.160000 0.8160 0.8160 0.8160 0.8200 0.8220
3619.135152 0.8240 0.8250 0.8270 0.8280 0.8300
3627.103000 0.8310 0.8320 0.8320 0.8330 0.8350
3635.078152 0.8370 0.8390 0.8410 0.8430 0.8430
3643.046000 0.8430 0.8440 0.8440 0.8440 0.8450
3651.021152 0.8450 0.8450 0.8460 0.8460 0.8460
3658.989000 0.8470 0.8470 0.8470 0.8470 0.8470
3666.964152 0.8470 0.8470 0.8480 0.8480 0.8480
3674.931000 0.8480 0.8480 0.8480 0.8480 0.8490
3682.906152 0.8490 0.8500 0.8500 0.8510 0.8510
3690.874000 0.8510 0.8510 0.8520 0.8520 0.8530
3698.849152 0.8530 0.8530 0.8530 0.8530 0.8530
3706.817000 0.8530 0.8530 0.8530 0.8530 0.8530
3714.792152 0.8530 0.8530 0.8530 0.8530 0.8530
3722.760000 0.8530 0.8530 0.8530 0.8530 0.8530
3730.735152 0.8530 0.8530 0.8540 0.8540 0.8540
3738.703000 0.8540 0.8540 0.8540 0.8540 0.8540
3746.678152 0.8540 0.8540 0.8540 0.8540 0.8540
3754.646000 0.8540 0.8540 0.8540 0.8550 0.8550
3762.621152 0.8550 0.8550 0.8550 0.8550 0.8550
3770.588000 0.8560 0.8560 0.8560 0.8560 0.8560
3778.563152 0.8560 0.8560 0.8560 0.8560 0.8560
3786.531000 0.8560 0.8560 0.8560 0.8560 0.8560
3794.506152 0.8560 0.8560 0.8560 0.8560 0.8550
3802.474000 0.8550 0.8550 0.8550 0.8550 0.8550
3810.449152 0.8550 0.8550 0.8550 0.8550 0.8540
3818.417000 0.8540 0.8540 0.8540 0.8540 0.8540
3826.392152 0.8540 0.8540 0.8540 0.8540 0.8540
3834.360000 0.8540 0.8540 0.8540 0.8540 0.8540
3842.335152 0.8540 0.8540 0.8540 0.8540 0.8540
3850.302000 0.8540 0.8540 0.8540 0.8540 0.8540
3858.277152 0.8540 0.8540 0.8540 0.8540 0.8540
3866.245000 0.8540 0.8540 0.8540 0.8540 0.8540
3874.220152 0.8540 0.8540 0.8540 0.8540 0.8540
3882.188000 0.8540 0.8540 0.8540 0.8540 0.8540
3890.163152 0.8540 0.8530 0.8530 0.8530 0.8530
3898.131000 0.8530 0.8530 0.8520 0.8520 0.8520
3906.106152 0.8520 0.8520 0.8520 0.8520 0.8520
3914.074000 0.8520 0.8520 0.8520 0.8520 0.8520
3922.049152 0.8520 0.8520 0.8520 0.8520 0.8520
3930.017000 0.8520 0.8520 0.8520 0.8520 0.8510
3937.992152 0.8510 0.8510 0.8510 0.8510 0.8510
3945.959000 0.8510 0.8510 0.8510 0.8510 0.8510
3953.934152 0.8510 0.8510 0.8510 0.8510 0.8510
3961.902000 0.8510 0.8510 0.8510 0.8510 0.8510
3969.877152 0.8510 0.8510 0.8510 0.8510 0.8510
3977.845000 0.8510 0.8510 0.8510 0.8510 0.8510
3985.820152 0.8510 0.8510 0.8510 0.8510 0.8510
3993.788000 0.8510 0.8510 0.8510 0.8510
##END=
