##TITLE=Polyethylene glycol
##JCAMP-DX=4.24
$$ By DXEDIT 1.05 (RS McDonald)
##DATA TYPE=INFRARED SPECTRUM
##CLASS=COBLENTZ
##ORIGIN=DOW CHEMICAL COMPANY
##OWNER=COPYRIGHT (C) 1988 by COBLENTZ SOCIETY INC.
Collection (C) 2018 copyright by the U.S. Secretary of Commerce
on behalf of the United States of America. All rights reserved.
##DATE=1970/02/03
##NAMES=ethylene glycol
Polyglycol E-600 (mol.wt. 600 avg. - Dow Chemical Co.)
##MOLFORM=C2 H6 O2
##SOURCE REFERENCE=COBLENTZ NO. 09513
##$NIST ID=B6009513
##$NIST SOURCE=COBLENTZ
##$NIST IMAGE=cob9513
##SPECTROMETER/DATA SYSTEM=DOW KBr FOREPRISM-GRATING
##INSTRUMENT PARAMETERS=BLAZED AT 3.5, 12.0, 20.0 MICRON AND CHANGED AT 5.0, 7.5, 14.9 MICRON
##STATE=LIQUID (NEAT)
##PATH LENGTH=CAPILLARY
##SAMPLING PROCEDURE=TRANSMISSION
##RESOLUTION=2
##DATA PROCESSING=DIGITIZED BY COBLENTZ SOCIETY (BATCH I) FROM HARD COPY
##XUNITS=1/CM
##YUNITS=TRANSMITTANCE
##XFACTOR=1
##YFACTOR=1
##DELTAX=1
##FIRSTX=3796
##LASTX=394
##FIRSTY=0.8397
##MAXX=3796
##MINX=394
##MAXY=0.8802
##MINY=0.1376
##NPOINTS=3403
##XYDATA=(X++(Y..Y))
3796.000000 0.8397 0.8397 0.8397 0.8397 0.8398
3791.000000 0.8398 0.8399 0.8399 0.8400 0.8400
3786.000000 0.8401 0.8401 0.8402 0.8402 0.8403
3781.000000 0.8403 0.8404 0.8405 0.8406 0.8407
3776.000000 0.8408 0.8409 0.8410 0.8411 0.8412
3771.000000 0.8413 0.8414 0.8415 0.8416 0.8417
3766.000000 0.8418 0.8418 0.8420 0.8421 0.8421
3761.000000 0.8423 0.8424 0.8425 0.8425 0.8427
3756.000000 0.8428 0.8428 0.8428 0.8430 0.8431
3751.000000 0.8432 0.8433 0.8434 0.8435 0.8436
3746.000000 0.8437 0.8437 0.8438 0.8439 0.8440
3741.000000 0.8441 0.8442 0.8443 0.8444 0.8444
3736.000000 0.8445 0.8445 0.8446 0.8446 0.8447
3731.000000 0.8447 0.8447 0.8447 0.8448 0.8448
3726.000000 0.8449 0.8449 0.8450 0.8450 0.8450
3721.000000 0.8450 0.8450 0.8451 0.8452 0.8452
3716.000000 0.8453 0.8453 0.8453 0.8453 0.8454
3711.000000 0.8454 0.8455 0.8455 0.8456 0.8456
3706.000000 0.8456 0.8456 0.8457 0.8457 0.8457
3701.000000 0.8457 0.8457 0.8457 0.8457 0.8457
3696.000000 0.8457 0.8457 0.8457 0.8457 0.8457
3691.000000 0.8457 0.8457 0.8457 0.8457 0.8457
3686.000000 0.8457 0.8457 0.8457 0.8457 0.8457
3681.000000 0.8457 0.8457 0.8457 0.8458 0.8458
3676.000000 0.8458 0.8457 0.8457 0.8456 0.8455
3671.000000 0.8454 0.8453 0.8452 0.8452 0.8451
3666.000000 0.8450 0.8449 0.8449 0.8448 0.8447
3661.000000 0.8446 0.8445 0.8444 0.8444 0.8443
3656.000000 0.8442 0.8441 0.8441 0.8440 0.8439
3651.000000 0.8438 0.8438 0.8437 0.8436 0.8435
3646.000000 0.8434 0.8433 0.8432 0.8431 0.8430
3641.000000 0.8428 0.8428 0.8427 0.8425 0.8425
3636.000000 0.8425 0.8424 0.8423 0.8421 0.8421
3631.000000 0.8420 0.8418 0.8418 0.8417 0.8416
3626.000000 0.8415 0.8414 0.8413 0.8412 0.8411
3621.000000 0.8410 0.8409 0.8408 0.8407 0.8405
3616.000000 0.8404 0.8403 0.8402 0.8401 0.8400
3611.000000 0.8398 0.8397 0.8396 0.8395 0.8393
3606.000000 0.8392 0.8387 0.8383 0.8378 0.8374
3601.000000 0.8368 0.8364 0.8359 0.8355 0.8350
3596.000000 0.8346 0.8341 0.8337 0.8328 0.8321
3591.000000 0.8311 0.8302 0.8293 0.8284 0.8274
3586.000000 0.8265 0.8256 0.8247 0.8237 0.8228
3581.000000 0.8218 0.8210 0.8200 0.8191 0.8182
3576.000000 0.8172 0.8165 0.8158 0.8150 0.8143
3571.000000 0.8135 0.8128 0.8119 0.8112 0.8105
3566.000000 0.8098 0.8090 0.8083 0.8075 0.8068
3561.000000 0.8060 0.8053 0.8045 0.8038 0.8031
3556.000000 0.8024 0.8015 0.8008 0.8001 0.7994
3551.000000 0.7986 0.7978 0.7971 0.7964 0.7956
3546.000000 0.7949 0.7941 0.7934 0.7925 0.7918
3541.000000 0.7911 0.7904 0.7897 0.7890 0.7881
3536.000000 0.7872 0.7864 0.7856 0.7847 0.7839
3531.000000 0.7831 0.7822 0.7814 0.7806 0.7797
3526.000000 0.7789 0.7780 0.7771 0.7762 0.7754
3521.000000 0.7741 0.7728 0.7715 0.7701 0.7689
3516.000000 0.7675 0.7662 0.7650 0.7637 0.7624
3511.000000 0.7610 0.7597 0.7584 0.7571 0.7558
3506.000000 0.7546 0.7533 0.7519 0.7507 0.7495
3501.000000 0.7482 0.7468 0.7456 0.7444 0.7431
3496.000000 0.7418 0.7405 0.7392 0.7378 0.7367
3491.000000 0.7354 0.7342 0.7328 0.7317 0.7304
3486.000000 0.7292 0.7278 0.7267 0.7254 0.7242
3481.000000 0.7228 0.7217 0.7205 0.7193 0.7181
3476.000000 0.7169 0.7158 0.7147 0.7135 0.7124
3471.000000 0.7111 0.7101 0.7092 0.7083 0.7075
3466.000000 0.7067 0.7058 0.7051 0.7042 0.7034
3461.000000 0.7025 0.7018 0.7010 0.7003 0.6996
3456.000000 0.6990 0.6983 0.6976 0.6969 0.6964
3451.000000 0.6957 0.6951 0.6944 0.6938 0.6932
3446.000000 0.6925 0.6918 0.6912 0.6906 0.6900
3441.000000 0.6893 0.6887 0.6881 0.6875 0.6868
3436.000000 0.6861 0.6856 0.6850 0.6844 0.6838
3431.000000 0.6832 0.6825 0.6819 0.6814 0.6808
3426.000000 0.6801 0.6794 0.6786 0.6778 0.6769
3421.000000 0.6761 0.6755 0.6745 0.6736 0.6725
3416.000000 0.6715 0.6706 0.6696 0.6686 0.6675
3411.000000 0.6665 0.6654 0.6642 0.6631 0.6618
3406.000000 0.6607 0.6595 0.6583 0.6571 0.6560
3401.000000 0.6547 0.6535 0.6521 0.6507 0.6493
3396.000000 0.6480 0.6465 0.6453 0.6440 0.6426
3391.000000 0.6414 0.6401 0.6389 0.6377 0.6364
3386.000000 0.6352 0.6339 0.6327 0.6314 0.6302
3381.000000 0.6289 0.6277 0.6264 0.6252 0.6240
3376.000000 0.6228 0.6216 0.6204 0.6192 0.6180
3371.000000 0.6168 0.6157 0.6145 0.6133 0.6121
3366.000000 0.6110 0.6098 0.6087 0.6076 0.6065
3361.000000 0.6054 0.6043 0.6032 0.6021 0.6009
3356.000000 0.5998 0.5987 0.5977 0.5967 0.5958
3351.000000 0.5948 0.5939 0.5929 0.5920 0.5910
3346.000000 0.5902 0.5892 0.5883 0.5873 0.5864
3341.000000 0.5853 0.5842 0.5831 0.5820 0.5809
3336.000000 0.5798 0.5790 0.5782 0.5776 0.5771
3331.000000 0.5765 0.5760 0.5756 0.5752 0.5750
3326.000000 0.5749 0.5747 0.5745 0.5743 0.5742
3321.000000 0.5740 0.5738 0.5737 0.5736 0.5736
3316.000000 0.5735 0.5735 0.5735 0.5734 0.5734
3311.000000 0.5734 0.5734 0.5737 0.5741 0.5745
3306.000000 0.5749 0.5752 0.5756 0.5759 0.5762
3301.000000 0.5770 0.5778 0.5786 0.5795 0.5803
3296.000000 0.5812 0.5820 0.5829 0.5839 0.5849
3291.000000 0.5862 0.5875 0.5887 0.5900 0.5912
3286.000000 0.5926 0.5939 0.5952 0.5964 0.5977
3281.000000 0.5990 0.6003 0.6016 0.6029 0.6041
3276.000000 0.6053 0.6065 0.6078 0.6090 0.6102
3271.000000 0.6114 0.6126 0.6138 0.6151 0.6162
3266.000000 0.6175 0.6187 0.6200 0.6217 0.6234
3261.000000 0.6254 0.6275 0.6295 0.6315 0.6335
3256.000000 0.6356 0.6376 0.6396 0.6415 0.6437
3251.000000 0.6457 0.6476 0.6493 0.6510 0.6525
3246.000000 0.6541 0.6557 0.6572 0.6588 0.6604
3241.000000 0.6619 0.6636 0.6651 0.6667 0.6682
3236.000000 0.6698 0.6712 0.6728 0.6744 0.6760
3231.000000 0.6775 0.6791 0.6806 0.6821 0.6837
3226.000000 0.6853 0.6868 0.6884 0.6899 0.6915
3221.000000 0.6931 0.6947 0.6962 0.6980 0.6996
3216.000000 0.7011 0.7028 0.7045 0.7061 0.7076
3211.000000 0.7093 0.7110 0.7125 0.7143 0.7157
3206.000000 0.7171 0.7185 0.7198 0.7211 0.7224
3201.000000 0.7237 0.7251 0.7264 0.7276 0.7290
3196.000000 0.7303 0.7315 0.7330 0.7343 0.7356
3191.000000 0.7368 0.7383 0.7395 0.7408 0.7419
3186.000000 0.7432 0.7444 0.7457 0.7468 0.7481
3181.000000 0.7493 0.7506 0.7518 0.7530 0.7542
3176.000000 0.7555 0.7567 0.7580 0.7592 0.7604
3171.000000 0.7615 0.7628 0.7641 0.7653 0.7665
3166.000000 0.7678 0.7689 0.7700 0.7710 0.7721
3161.000000 0.7732 0.7743 0.7754 0.7765 0.7775
3156.000000 0.7787 0.7797 0.7808 0.7818 0.7830
3151.000000 0.7841 0.7851 0.7862 0.7874 0.7884
3146.000000 0.7895 0.7906 0.7917 0.7925 0.7933
3141.000000 0.7940 0.7948 0.7956 0.7964 0.7971
3136.000000 0.7980 0.7988 0.7996 0.8004 0.8011
3131.000000 0.8019 0.8028 0.8036 0.8044 0.8051
3126.000000 0.8060 0.8067 0.8074 0.8081 0.8088
3121.000000 0.8095 0.8103 0.8110 0.8117 0.8124
3116.000000 0.8131 0.8138 0.8146 0.8153 0.8160
3111.000000 0.8167 0.8174 0.8181 0.8188 0.8193
3106.000000 0.8199 0.8204 0.8210 0.8215 0.8221
3101.000000 0.8225 0.8232 0.8237 0.8243 0.8249
3096.000000 0.8255 0.8260 0.8266 0.8270 0.8274
3091.000000 0.8277 0.8280 0.8283 0.8286 0.8289
3086.000000 0.8292 0.8294 0.8297 0.8300 0.8303
3081.000000 0.8306 0.8309 0.8312 0.8315 0.8318
3076.000000 0.8321 0.8324 0.8327 0.8330 0.8333
3071.000000 0.8336 0.8339 0.8342 0.8345 0.8347
3066.000000 0.8349 0.8349 0.8349 0.8349 0.8350
3061.000000 0.8350 0.8350 0.8350 0.8351 0.8351
3056.000000 0.8351 0.8351 0.8352 0.8352 0.8352
3051.000000 0.8352 0.8352 0.8352 0.8353 0.8353
3046.000000 0.8353 0.8352 0.8352 0.8351 0.8351
3041.000000 0.8350 0.8350 0.8349 0.8348 0.8347
3036.000000 0.8347 0.8346 0.8345 0.8344 0.8343
3031.000000 0.8343 0.8343 0.8342 0.8341 0.8340
3026.000000 0.8339 0.8338 0.8337 0.8336 0.8336
3021.000000 0.8335 0.8334 0.8333 0.8332 0.8331
3016.000000 0.8330 0.8328 0.8328 0.8325 0.8325
3011.000000 0.8323 0.8321 0.8320 0.8318 0.8318
3006.000000 0.8317 0.8315 0.8314 0.8309 0.8305
3001.000000 0.8298 0.8291 0.8283 0.8275 0.8268
2996.000000 0.8262 0.8254 0.8247 0.8234 0.8221
2991.000000 0.8206 0.8192 0.8178 0.8164 0.8150
2986.000000 0.8136 0.8121 0.8107 0.8093 0.8078
2981.000000 0.8047 0.8015 0.7981 0.7948 0.7908
2976.000000 0.7871 0.7819 0.7769 0.7718 0.7668
2971.000000 0.7618 0.7568 0.7517 0.7467 0.7336
2966.000000 0.7205 0.7128 0.7053 0.6915 0.6778
2961.000000 0.6640 0.6503 0.6366 0.6229 0.6091
2956.000000 0.5954 0.5817 0.5680 0.5542 0.5405
2951.000000 0.5268 0.5131 0.4993 0.4856 0.4769
2946.000000 0.4682 0.4609 0.4537 0.4462 0.4390
2941.000000 0.4343 0.4296 0.4273 0.4251 0.4228
2936.000000 0.4205 0.4181 0.4157 0.4127 0.4098
2931.000000 0.4068 0.4039 0.4009 0.3980 0.3930
2926.000000 0.3880 0.3826 0.3772 0.3739 0.3706
2921.000000 0.3673 0.3641 0.3608 0.3575 0.3545
2916.000000 0.3516 0.3487 0.3458 0.3429 0.3400
2911.000000 0.3378 0.3356 0.3338 0.3321 0.3304
2906.000000 0.3287 0.3270 0.3253 0.3234 0.3218
2901.000000 0.3200 0.3184 0.3163 0.3143 0.3120
2896.000000 0.3098 0.3075 0.3053 0.3030 0.3008
2891.000000 0.2984 0.2963 0.2941 0.2919 0.2897
2886.000000 0.2876 0.2854 0.2833 0.2810 0.2788
2881.000000 0.2764 0.2741 0.2717 0.2693 0.2665
2876.000000 0.2637 0.2608 0.2579 0.2565 0.2551
2871.000000 0.2535 0.2522 0.2517 0.2507 0.2511
2866.000000 0.2510 0.2509 0.2508 0.2516 0.2524
2861.000000 0.2535 0.2548 0.2579 0.2611 0.2646
2856.000000 0.2682 0.2725 0.2768 0.2865 0.2962
2851.000000 0.3079 0.3197 0.3314 0.3430 0.3548
2846.000000 0.3666 0.3782 0.3900 0.4016 0.4135
2841.000000 0.4252 0.4369 0.4486 0.4603 0.4720
2836.000000 0.4838 0.4912 0.4988 0.5066 0.5144
2831.000000 0.5221 0.5299 0.5338 0.5377 0.5416
2826.000000 0.5455 0.5493 0.5532 0.5571 0.5610
2821.000000 0.5649 0.5689 0.5729 0.5769 0.5809
2816.000000 0.5849 0.5889 0.5929 0.5972 0.6015
2811.000000 0.6058 0.6101 0.6144 0.6188 0.6224
2806.000000 0.6260 0.6295 0.6330 0.6365 0.6400
2801.000000 0.6435 0.6469 0.6504 0.6539 0.6571
2796.000000 0.6605 0.6638 0.6671 0.6705 0.6738
2791.000000 0.6771 0.6804 0.6834 0.6865 0.6893
2786.000000 0.6921 0.6949 0.6976 0.7005 0.7034
2781.000000 0.7061 0.7090 0.7115 0.7143 0.7168
2776.000000 0.7193 0.7218 0.7243 0.7268 0.7293
2771.000000 0.7317 0.7342 0.7360 0.7378 0.7396
2766.000000 0.7414 0.7432 0.7450 0.7465 0.7482
2761.000000 0.7496 0.7511 0.7525 0.7540 0.7554
2756.000000 0.7568 0.7581 0.7595 0.7607 0.7619
2751.000000 0.7630 0.7641 0.7643 0.7645 0.7647
2746.000000 0.7649 0.7650 0.7651 0.7654 0.7656
2741.000000 0.7658 0.7662 0.7667 0.7671 0.7675
2736.000000 0.7678 0.7683 0.7687 0.7691 0.7696
2731.000000 0.7701 0.7707 0.7711 0.7718 0.7722
2726.000000 0.7728 0.7734 0.7740 0.7745 0.7750
2721.000000 0.7755 0.7761 0.7765 0.7771 0.7776
2716.000000 0.7783 0.7788 0.7794 0.7801 0.7810
2711.000000 0.7817 0.7825 0.7832 0.7840 0.7848
2706.000000 0.7856 0.7862 0.7871 0.7878 0.7887
2701.000000 0.7894 0.7901 0.7910 0.7918 0.7926
2696.000000 0.7936 0.7944 0.7951 0.7960 0.7968
2691.000000 0.7976 0.7986 0.7997 0.8008 0.8019
2686.000000 0.8032 0.8044 0.8056 0.8068 0.8080
2681.000000 0.8093 0.8107 0.8122 0.8139 0.8154
2676.000000 0.8169 0.8185 0.8201 0.8216 0.8231
2671.000000 0.8242 0.8253 0.8264 0.8275 0.8287
2666.000000 0.8299 0.8309 0.8320 0.8327 0.8335
2661.000000 0.8342 0.8350 0.8357 0.8365 0.8371
2656.000000 0.8378 0.8386 0.8394 0.8401 0.8409
2651.000000 0.8416 0.8424 0.8428 0.8432 0.8433
2646.000000 0.8435 0.8436 0.8438 0.8439 0.8440
2641.000000 0.8441 0.8443 0.8444 0.8445 0.8446
2636.000000 0.8448 0.8449 0.8450 0.8451 0.8453
2631.000000 0.8454 0.8455 0.8456 0.8458 0.8459
2626.000000 0.8461 0.8462 0.8463 0.8464 0.8466
2621.000000 0.8467 0.8468 0.8470 0.8471 0.8473
2616.000000 0.8475 0.8475 0.8478 0.8478 0.8481
2611.000000 0.8482 0.8484 0.8485 0.8487 0.8488
2606.000000 0.8490 0.8491 0.8493 0.8494 0.8496
2601.000000 0.8497 0.8499 0.8500 0.8502 0.8503
2596.000000 0.8505 0.8506 0.8508 0.8509 0.8511
2591.000000 0.8513 0.8515 0.8516 0.8518 0.8518
2586.000000 0.8520 0.8521 0.8521 0.8523 0.8524
2581.000000 0.8525 0.8525 0.8527 0.8528 0.8528
2576.000000 0.8530 0.8531 0.8532 0.8533 0.8534
2571.000000 0.8535 0.8537 0.8538 0.8539 0.8540
2566.000000 0.8541 0.8542 0.8543 0.8544 0.8545
2561.000000 0.8546 0.8548 0.8549 0.8550 0.8551
2556.000000 0.8553 0.8554 0.8556 0.8557 0.8558
2551.000000 0.8559 0.8561 0.8562 0.8564 0.8565
2546.000000 0.8566 0.8567 0.8568 0.8570 0.8571
2541.000000 0.8573 0.8574 0.8574 0.8575 0.8575
2536.000000 0.8575 0.8577 0.8578 0.8578 0.8578
2531.000000 0.8580 0.8581 0.8581 0.8582 0.8583
2526.000000 0.8583 0.8583 0.8583 0.8582 0.8582
2521.000000 0.8581 0.8581 0.8580 0.8580 0.8578
2516.000000 0.8578 0.8578 0.8578 0.8577 0.8577
2511.000000 0.8575 0.8575 0.8575 0.8574 0.8574
2506.000000 0.8575 0.8575 0.8578 0.8578 0.8580
2501.000000 0.8581 0.8582 0.8583 0.8585 0.8586
2496.000000 0.8587 0.8588 0.8589 0.8590 0.8592
2491.000000 0.8593 0.8594 0.8595 0.8596 0.8597
2486.000000 0.8599 0.8600 0.8601 0.8602 0.8603
2481.000000 0.8604 0.8606 0.8607 0.8608 0.8609
2476.000000 0.8610 0.8611 0.8612 0.8613 0.8615
2471.000000 0.8616 0.8617 0.8618 0.8618 0.8620
2466.000000 0.8621 0.8621 0.8623 0.8623 0.8624
2461.000000 0.8624 0.8625 0.8625 0.8625 0.8625
2456.000000 0.8627 0.8627 0.8628 0.8628 0.8630
2451.000000 0.8630 0.8631 0.8631 0.8632 0.8632
2446.000000 0.8633 0.8633 0.8634 0.8634 0.8635
2441.000000 0.8635 0.8636 0.8636 0.8637 0.8638
2436.000000 0.8639 0.8639 0.8640 0.8640 0.8641
2431.000000 0.8641 0.8642 0.8642 0.8643 0.8643
2426.000000 0.8644 0.8645 0.8646 0.8646 0.8647
2421.000000 0.8647 0.8648 0.8648 0.8649 0.8649
2416.000000 0.8650 0.8651 0.8652 0.8652 0.8653
2411.000000 0.8654 0.8655 0.8656 0.8657 0.8658
2406.000000 0.8659 0.8661 0.8663 0.8665 0.8667
2401.000000 0.8668 0.8671 0.8671 0.8671 0.8668
2396.000000 0.8666 0.8664 0.8662 0.8659 0.8657
2391.000000 0.8655 0.8653 0.8653 0.8654 0.8655
2386.000000 0.8656 0.8656 0.8657 0.8658 0.8659
2381.000000 0.8659 0.8660 0.8661 0.8662 0.8662
2376.000000 0.8663 0.8664 0.8665 0.8665 0.8666
2371.000000 0.8667 0.8668 0.8670 0.8671 0.8673
2366.000000 0.8675 0.8675 0.8678 0.8678 0.8680
2361.000000 0.8681 0.8683 0.8684 0.8686 0.8687
2356.000000 0.8689 0.8690 0.8692 0.8693 0.8695
2351.000000 0.8696 0.8698 0.8699 0.8701 0.8702
2346.000000 0.8703 0.8704 0.8706 0.8706 0.8707
2341.000000 0.8707 0.8707 0.8707 0.8707 0.8706
2336.000000 0.8706 0.8703 0.8700 0.8697 0.8695
2331.000000 0.8692 0.8690 0.8687 0.8684 0.8681
2326.000000 0.8678 0.8675 0.8671 0.8668 0.8665
2321.000000 0.8661 0.8658 0.8655 0.8652 0.8648
2316.000000 0.8645 0.8642 0.8639 0.8635 0.8632
2311.000000 0.8628 0.8627 0.8625 0.8625 0.8624
2306.000000 0.8623 0.8621 0.8621 0.8621 0.8620
2301.000000 0.8618 0.8618 0.8617 0.8616 0.8615
2296.000000 0.8615 0.8614 0.8613 0.8612 0.8611
2291.000000 0.8610 0.8609 0.8608 0.8608 0.8607
2286.000000 0.8607 0.8607 0.8607 0.8607 0.8607
2281.000000 0.8607 0.8607 0.8607 0.8607 0.8607
2276.000000 0.8607 0.8607 0.8607 0.8607 0.8607
2271.000000 0.8607 0.8607 0.8607 0.8607 0.8607
2266.000000 0.8607 0.8608 0.8609 0.8610 0.8611
2261.000000 0.8612 0.8613 0.8614 0.8616 0.8617
2256.000000 0.8618 0.8618 0.8620 0.8621 0.8621
2251.000000 0.8623 0.8624 0.8625 0.8625 0.8627
2246.000000 0.8628 0.8630 0.8631 0.8632 0.8633
2241.000000 0.8634 0.8635 0.8636 0.8637 0.8638
2236.000000 0.8639 0.8640 0.8642 0.8643 0.8644
2231.000000 0.8645 0.8646 0.8647 0.8649 0.8650
2226.000000 0.8651 0.8652 0.8653 0.8654 0.8656
2221.000000 0.8657 0.8658 0.8659 0.8660 0.8661
2216.000000 0.8663 0.8664 0.8665 0.8666 0.8668
2211.000000 0.8668 0.8671 0.8671 0.8674 0.8675
2206.000000 0.8675 0.8677 0.8678 0.8678 0.8680
2201.000000 0.8680 0.8681 0.8681 0.8681 0.8681
2196.000000 0.8681 0.8681 0.8681 0.8681 0.8681
2191.000000 0.8681 0.8682 0.8682 0.8683 0.8683
2186.000000 0.8684 0.8685 0.8686 0.8688 0.8690
2181.000000 0.8692 0.8694 0.8703 0.8712 0.8725
2176.000000 0.8738 0.8749 0.8761 0.8757 0.8753
2171.000000 0.8747 0.8741 0.8736 0.8731 0.8730
2166.000000 0.8728 0.8728 0.8727 0.8725 0.8725
2161.000000 0.8724 0.8724 0.8723 0.8721 0.8721
2156.000000 0.8720 0.8718 0.8718 0.8717 0.8717
2151.000000 0.8716 0.8715 0.8714 0.8714 0.8714
2146.000000 0.8714 0.8714 0.8714 0.8714 0.8714
2141.000000 0.8714 0.8715 0.8715 0.8715 0.8715
2136.000000 0.8715 0.8715 0.8715 0.8715 0.8715
2131.000000 0.8715 0.8715 0.8715 0.8715 0.8715
2126.000000 0.8715 0.8715 0.8715 0.8715 0.8715
2121.000000 0.8715 0.8715 0.8714 0.8714 0.8713
2116.000000 0.8713 0.8713 0.8713 0.8712 0.8712
2111.000000 0.8711 0.8711 0.8711 0.8711 0.8710
2106.000000 0.8710 0.8709 0.8709 0.8708 0.8708
2101.000000 0.8708 0.8708 0.8707 0.8707 0.8706
2096.000000 0.8706 0.8706 0.8706 0.8705 0.8705
2091.000000 0.8704 0.8704 0.8704 0.8704 0.8703
2086.000000 0.8703 0.8703 0.8703 0.8702 0.8702
2081.000000 0.8701 0.8701 0.8701 0.8701 0.8700
2076.000000 0.8700 0.8700 0.8700 0.8699 0.8699
2071.000000 0.8699 0.8699 0.8698 0.8698 0.8697
2066.000000 0.8697 0.8697 0.8697 0.8696 0.8696
2061.000000 0.8695 0.8695 0.8694 0.8694 0.8693
2056.000000 0.8693 0.8692 0.8691 0.8690 0.8690
2051.000000 0.8689 0.8689 0.8688 0.8688 0.8687
2046.000000 0.8687 0.8686 0.8686 0.8685 0.8685
2041.000000 0.8684 0.8683 0.8683 0.8683 0.8683
2036.000000 0.8683 0.8683 0.8683 0.8683 0.8683
2031.000000 0.8683 0.8683 0.8683 0.8683 0.8684
2026.000000 0.8685 0.8686 0.8687 0.8687 0.8688
2021.000000 0.8689 0.8690 0.8690 0.8690 0.8689
2016.000000 0.8689 0.8688 0.8688 0.8687 0.8687
2011.000000 0.8686 0.8686 0.8686 0.8686 0.8685
2006.000000 0.8685 0.8685 0.8685 0.8685 0.8686
2001.000000 0.8687 0.8689 0.8691 0.8692 0.8694
1996.000000 0.8696 0.8698 0.8700 0.8703 0.8705
1991.000000 0.8707 0.8710 0.8704 0.8698 0.8693
1986.000000 0.8688 0.8684 0.8680 0.8675 0.8671
1981.000000 0.8663 0.8655 0.8647 0.8640 0.8632
1976.000000 0.8624 0.8616 0.8608 0.8603 0.8598
1971.000000 0.8593 0.8588 0.8583 0.8578 0.8575
1966.000000 0.8571 0.8568 0.8566 0.8564 0.8561
1961.000000 0.8558 0.8555 0.8553 0.8550 0.8547
1956.000000 0.8544 0.8542 0.8539 0.8536 0.8533
1951.000000 0.8531 0.8528 0.8528 0.8528 0.8531
1946.000000 0.8533 0.8536 0.8538 0.8541 0.8543
1941.000000 0.8546 0.8548 0.8551 0.8553 0.8556
1936.000000 0.8559 0.8561 0.8564 0.8567 0.8568
1931.000000 0.8571 0.8575 0.8577 0.8580 0.8582
1926.000000 0.8585 0.8588 0.8591 0.8594 0.8597
1921.000000 0.8600 0.8603 0.8606 0.8609 0.8612
1916.000000 0.8616 0.8618 0.8621 0.8625 0.8628
1911.000000 0.8631 0.8634 0.8637 0.8640 0.8643
1906.000000 0.8646 0.8649 0.8652 0.8655 0.8658
1901.000000 0.8661 0.8663 0.8666 0.8668 0.8671
1896.000000 0.8675 0.8678 0.8680 0.8683 0.8686
1891.000000 0.8689 0.8692 0.8695 0.8697 0.8700
1886.000000 0.8703 0.8706 0.8709 0.8711 0.8713
1881.000000 0.8715 0.8717 0.8718 0.8721 0.8723
1876.000000 0.8725 0.8725 0.8728 0.8730 0.8732
1871.000000 0.8734 0.8736 0.8738 0.8740 0.8742
1866.000000 0.8744 0.8746 0.8747 0.8749 0.8751
1861.000000 0.8753 0.8755 0.8756 0.8758 0.8759
1856.000000 0.8760 0.8762 0.8763 0.8765 0.8766
1851.000000 0.8767 0.8768 0.8770 0.8771 0.8773
1846.000000 0.8774 0.8775 0.8777 0.8778 0.8780
1841.000000 0.8781 0.8782 0.8784 0.8785 0.8785
1836.000000 0.8786 0.8786 0.8787 0.8788 0.8788
1831.000000 0.8789 0.8789 0.8790 0.8790 0.8791
1826.000000 0.8792 0.8792 0.8793 0.8793 0.8794
1821.000000 0.8795 0.8795 0.8796 0.8796 0.8797
1816.000000 0.8797 0.8797 0.8797 0.8797 0.8798
1811.000000 0.8798 0.8798 0.8798 0.8798 0.8799
1806.000000 0.8799 0.8799 0.8799 0.8800 0.8800
1801.000000 0.8800 0.8800 0.8800 0.8801 0.8801
1796.000000 0.8801 0.8801 0.8801 0.8802 0.8802
1791.000000 0.8802 0.8802 0.8801 0.8801 0.8801
1786.000000 0.8801 0.8801 0.8801 0.8801 0.8801
1781.000000 0.8801 0.8801 0.8801 0.8800 0.8800
1776.000000 0.8800 0.8800 0.8800 0.8800 0.8800
1771.000000 0.8800 0.8799 0.8799 0.8798 0.8798
1766.000000 0.8797 0.8797 0.8796 0.8796 0.8795
1761.000000 0.8794 0.8794 0.8793 0.8791 0.8789
1756.000000 0.8787 0.8785 0.8783 0.8782 0.8780
1751.000000 0.8778 0.8775 0.8774 0.8771 0.8770
1746.000000 0.8767 0.8764 0.8760 0.8756 0.8753
1741.000000 0.8749 0.8745 0.8741 0.8738 0.8734
1736.000000 0.8730 0.8725 0.8720 0.8710 0.8701
1731.000000 0.8692 0.8683 0.8673 0.8664 0.8654
1726.000000 0.8643 0.8631 0.8620 0.8608 0.8598
1721.000000 0.8591 0.8583 0.8575 0.8568 0.8560
1716.000000 0.8553 0.8548 0.8544 0.8544 0.8544
1711.000000 0.8544 0.8545 0.8545 0.8546 0.8546
1706.000000 0.8556 0.8567 0.8578 0.8590 0.8601
1701.000000 0.8611 0.8621 0.8632 0.8643 0.8654
1696.000000 0.8662 0.8667 0.8671 0.8678 0.8683
1691.000000 0.8688 0.8689 0.8690 0.8690 0.8691
1686.000000 0.8691 0.8692 0.8692 0.8693 0.8693
1681.000000 0.8692 0.8689 0.8687 0.8684 0.8682
1676.000000 0.8678 0.8677 0.8674 0.8671 0.8668
1671.000000 0.8666 0.8663 0.8659 0.8655 0.8651
1666.000000 0.8647 0.8642 0.8638 0.8634 0.8630
1661.000000 0.8625 0.8621 0.8616 0.8610 0.8605
1656.000000 0.8599 0.8594 0.8588 0.8583 0.8578
1651.000000 0.8573 0.8568 0.8562 0.8557 0.8552
1646.000000 0.8547 0.8542 0.8537 0.8536 0.8535
1641.000000 0.8535 0.8534 0.8533 0.8533 0.8532
1636.000000 0.8531 0.8530 0.8530 0.8528 0.8528
1631.000000 0.8527 0.8527 0.8527 0.8528 0.8528
1626.000000 0.8528 0.8528 0.8528 0.8528 0.8528
1621.000000 0.8528 0.8528 0.8528 0.8528 0.8528
1616.000000 0.8528 0.8528 0.8528 0.8530 0.8531
1611.000000 0.8532 0.8532 0.8533 0.8534 0.8535
1606.000000 0.8536 0.8537 0.8538 0.8539 0.8540
1601.000000 0.8540 0.8541 0.8542 0.8543 0.8544
1596.000000 0.8545 0.8546 0.8546 0.8547 0.8548
1591.000000 0.8548 0.8549 0.8550 0.8551 0.8551
1586.000000 0.8552 0.8553 0.8554 0.8554 0.8555
1581.000000 0.8555 0.8555 0.8555 0.8554 0.8554
1576.000000 0.8553 0.8553 0.8552 0.8552 0.8551
1571.000000 0.8551 0.8550 0.8550 0.8549 0.8549
1566.000000 0.8548 0.8548 0.8547 0.8547 0.8546
1561.000000 0.8546 0.8545 0.8544 0.8544 0.8543
1556.000000 0.8543 0.8542 0.8542 0.8541 0.8541
1551.000000 0.8540 0.8539 0.8539 0.8538 0.8538
1546.000000 0.8537 0.8537 0.8536 0.8536 0.8535
1541.000000 0.8534 0.8534 0.8533 0.8531 0.8530
1536.000000 0.8528 0.8528 0.8527 0.8525 0.8524
1531.000000 0.8523 0.8521 0.8520 0.8518 0.8518
1526.000000 0.8516 0.8514 0.8512 0.8510 0.8508
1521.000000 0.8506 0.8504 0.8502 0.8499 0.8496
1516.000000 0.8492 0.8488 0.8485 0.8481 0.8475
1511.000000 0.8467 0.8459 0.8451 0.8443 0.8435
1506.000000 0.8427 0.8418 0.8409 0.8399 0.8390
1501.000000 0.8380 0.8361 0.8339 0.8317 0.8292
1496.000000 0.8262 0.8233 0.8203 0.8174 0.8140
1491.000000 0.8107 0.8074 0.8041 0.8008 0.7975
1486.000000 0.7942 0.7882 0.7811 0.7743 0.7675
1481.000000 0.7607 0.7539 0.7469 0.7394 0.7318
1476.000000 0.7221 0.7106 0.7006 0.6933 0.6833
1471.000000 0.6778 0.6722 0.6668 0.6611 0.6557
1466.000000 0.6501 0.6474 0.6456 0.6438 0.6419
1461.000000 0.6399 0.6377 0.6356 0.6337 0.6324
1456.000000 0.6312 0.6300 0.6287 0.6292 0.6307
1451.000000 0.6323 0.6356 0.6404 0.6472 0.6547
1446.000000 0.6621 0.6697 0.6771 0.6846 0.6919
1441.000000 0.6995 0.7069 0.7144 0.7218 0.7294
1436.000000 0.7368 0.7443 0.7517 0.7592 0.7649
1431.000000 0.7669 0.7691 0.7707 0.7721 0.7733
1426.000000 0.7733 0.7732 0.7732 0.7731 0.7731
1421.000000 0.7730 0.7724 0.7715 0.7708 0.7701
1416.000000 0.7694 0.7687 0.7678 0.7671 0.7665
1411.000000 0.7661 0.7657 0.7653 0.7648 0.7644
1406.000000 0.7639 0.7635 0.7631 0.7625 0.7621
1401.000000 0.7617 0.7612 0.7608 0.7604 0.7599
1396.000000 0.7595 0.7590 0.7584 0.7578 0.7571
1391.000000 0.7565 0.7560 0.7554 0.7540 0.7524
1386.000000 0.7508 0.7480 0.7458 0.7450 0.7443
1381.000000 0.7435 0.7421 0.7405 0.7389 0.7374
1376.000000 0.7358 0.7342 0.7325 0.7288 0.7251
1371.000000 0.7214 0.7175 0.7131 0.7086 0.7041
1366.000000 0.6996 0.6948 0.6892 0.6835 0.6751
1361.000000 0.6661 0.6517 0.6324 0.6131 0.5939
1356.000000 0.5746 0.5553 0.5360 0.5252 0.5219
1351.000000 0.5197 0.5196 0.5196 0.5212 0.5237
1346.000000 0.5404 0.5689 0.5974 0.6259 0.6544
1341.000000 0.6830 0.7115 0.7289 0.7328 0.7354
1336.000000 0.7376 0.7390 0.7390 0.7391 0.7391
1331.000000 0.7383 0.7368 0.7356 0.7333 0.7300
1326.000000 0.7265 0.7234 0.7203 0.7172 0.7148
1321.000000 0.7130 0.7133 0.7135 0.7135 0.7135
1316.000000 0.7133 0.7130 0.7128 0.7122 0.7117
1311.000000 0.7110 0.7053 0.6986 0.6911 0.6835
1306.000000 0.6758 0.6682 0.6606 0.6530 0.6454
1301.000000 0.6378 0.6302 0.6242 0.6212 0.6190
1296.000000 0.6181 0.6172 0.6154 0.6160 0.6159
1291.000000 0.6158 0.6169 0.6182 0.6195 0.6208
1286.000000 0.6242 0.6275 0.6309 0.6346 0.6386
1281.000000 0.6425 0.6465 0.6504 0.6542 0.6576
1276.000000 0.6611 0.6648 0.6683 0.6717 0.6751
1271.000000 0.6786 0.6818 0.6851 0.6875 0.6908
1266.000000 0.6892 0.6894 0.6874 0.6855 0.6836
1261.000000 0.6775 0.6714 0.6658 0.6556 0.6455
1256.000000 0.6354 0.6252 0.6151 0.6050 0.5949
1251.000000 0.5847 0.5746 0.5681 0.5649 0.5641
1246.000000 0.5630 0.5635 0.5651 0.5710 0.5791
1241.000000 0.5885 0.5979 0.6073 0.6167 0.6260
1236.000000 0.6355 0.6449 0.6544 0.6638 0.6732
1231.000000 0.6825 0.6919 0.7014 0.7088 0.7137
1226.000000 0.7186 0.7228 0.7261 0.7294 0.7326
1221.000000 0.7360 0.7393 0.7425 0.7451 0.7478
1216.000000 0.7504 0.7528 0.7551 0.7572 0.7596
1211.000000 0.7618 0.7641 0.7661 0.7678 0.7696
1206.000000 0.7712 0.7728 0.7734 0.7739 0.7745
1201.000000 0.7750 0.7750 0.7750 0.7737 0.7733
1196.000000 0.7728 0.7719 0.7711 0.7701 0.7692
1191.000000 0.7683 0.7674 0.7664 0.7655 0.7637
1186.000000 0.7615 0.7594 0.7571 0.7549 0.7521
1181.000000 0.7493 0.7465 0.7437 0.7407 0.7376
1176.000000 0.7346 0.7315 0.7284 0.7254 0.7211
1171.000000 0.7161 0.7112 0.7064 0.6990 0.6888
1166.000000 0.6635 0.6510 0.6387 0.6270 0.6160
1161.000000 0.6069 0.5838 0.5539 0.5240 0.4941
1156.000000 0.4642 0.4343 0.4043 0.3759 0.3559
1151.000000 0.3382 0.3220 0.3104 0.2997 0.2913
1146.000000 0.2830 0.2750 0.2677 0.2605 0.2532
1141.000000 0.2463 0.2397 0.2331 0.2284 0.2245
1136.000000 0.2205 0.2165 0.2126 0.2092 0.2058
1131.000000 0.2024 0.1990 0.1956 0.1909 0.1859
1126.000000 0.1809 0.1760 0.1714 0.1667 0.1620
1121.000000 0.1579 0.1537 0.1503 0.1478 0.1452
1116.000000 0.1429 0.1417 0.1405 0.1392 0.1384
1111.000000 0.1381 0.1378 0.1377 0.1376 0.1379
1106.000000 0.1382 0.1385 0.1388 0.1391 0.1402
1101.000000 0.1419 0.1436 0.1454 0.1479 0.1514
1096.000000 0.1549 0.1584 0.1619 0.1654 0.1695
1091.000000 0.1739 0.1782 0.1824 0.1867 0.1924
1086.000000 0.1989 0.2055 0.2124 0.2219 0.2314
1081.000000 0.2409 0.2498 0.2582 0.2666 0.2751
1076.000000 0.2822 0.2892 0.2962 0.3033 0.3102
1071.000000 0.3168 0.3234 0.3300 0.3368 0.3422
1066.000000 0.3475 0.3528 0.3582 0.3634 0.3712
1061.000000 0.3849 0.3957 0.4057 0.4156 0.4256
1056.000000 0.4355 0.4455 0.4554 0.4654 0.4753
1051.000000 0.4853 0.4953 0.5052 0.5152 0.5241
1046.000000 0.5259 0.5277 0.5292 0.5303 0.5314
1041.000000 0.5325 0.5332 0.5338 0.5345 0.5351
1036.000000 0.5358 0.5367 0.5375 0.5383 0.5418
1031.000000 0.5458 0.5499 0.5540 0.5610 0.5680
1026.000000 0.5750 0.5820 0.5922 0.6032 0.6139
1021.000000 0.6221 0.6303 0.6385 0.6471 0.6560
1016.000000 0.6648 0.6755 0.6875 0.6924 0.6967
1011.000000 0.7010 0.7051 0.7091 0.7131 0.7165
1006.000000 0.7190 0.7215 0.7241 0.7265 0.7285
1001.000000 0.7290 0.7295 0.7299 0.7301 0.7304
996.000000 0.7306 0.7308 0.7311 0.7312 0.7317
991.000000 0.7321 0.7325 0.7328 0.7333 0.7338
986.000000 0.7351 0.7367 0.7382 0.7398 0.7421
981.000000 0.7446 0.7471 0.7500 0.7528 0.7558
976.000000 0.7572 0.7589 0.7601 0.7614 0.7600
971.000000 0.7605 0.7588 0.7562 0.7538 0.7512
966.000000 0.7488 0.7432 0.7375 0.7211 0.7068
961.000000 0.6800 0.6532 0.6264 0.5996 0.5650
956.000000 0.5566 0.5546 0.5526 0.5508 0.5447
951.000000 0.5486 0.5488 0.5498 0.5521 0.5571
946.000000 0.5610 0.5642 0.5673 0.5704 0.5735
941.000000 0.5776 0.5821 0.5865 0.5910 0.5955
936.000000 0.6000 0.6044 0.6089 0.6134 0.6178
931.000000 0.6223 0.6268 0.6312 0.6357 0.6401
926.000000 0.6446 0.6491 0.6536 0.6580 0.6625
921.000000 0.6669 0.6715 0.6758 0.6804 0.6849
916.000000 0.6893 0.6938 0.6983 0.7026 0.7071
911.000000 0.7117 0.7161 0.7206 0.7251 0.7295
906.000000 0.7340 0.7385 0.7430 0.7474 0.7518
901.000000 0.7564 0.7575 0.7601 0.7592 0.7594
896.000000 0.7585 0.7568 0.7553 0.7533 0.7512
891.000000 0.7492 0.7471 0.7454 0.7438 0.7421
886.000000 0.7404 0.7388 0.7381 0.7391 0.7393
881.000000 0.7397 0.7407 0.7417 0.7428 0.7438
876.000000 0.7448 0.7458 0.7469 0.7481 0.7486
871.000000 0.7488 0.7525 0.7478 0.7464 0.7449
866.000000 0.7435 0.7419 0.7401 0.7384 0.7365
861.000000 0.7348 0.7330 0.7311 0.7292 0.7271
856.000000 0.7251 0.7231 0.7211 0.7191 0.7171
851.000000 0.7153 0.7134 0.7115 0.7097 0.7084
846.000000 0.7069 0.7069 0.7069 0.7071 0.7075
841.000000 0.7080 0.7091 0.7103 0.7115 0.7128
836.000000 0.7141 0.7155 0.7168 0.7210 0.7256
831.000000 0.7314 0.7380 0.7445 0.7524 0.7598
826.000000 0.7661 0.7725 0.7754 0.7778 0.7803
821.000000 0.7828 0.7853 0.7878 0.7903 0.7928
816.000000 0.7946 0.7962 0.7980 0.7997 0.8014
811.000000 0.8031 0.8048 0.8065 0.8081 0.8098
806.000000 0.8115 0.8132 0.8150 0.8167 0.8184
801.000000 0.8202 0.8218 0.8237 0.8254 0.8271
796.000000 0.8289 0.8307 0.8324 0.8342 0.8359
791.000000 0.8377 0.8393 0.8408 0.8423 0.8439
786.000000 0.8454 0.8470 0.8485 0.8501 0.8516
781.000000 0.8528 0.8539 0.8549 0.8559 0.8568
776.000000 0.8578 0.8589 0.8592 0.8595 0.8597
771.000000 0.8600 0.8603 0.8605 0.8608 0.8611
766.000000 0.8611 0.8610 0.8610 0.8609 0.8609
761.000000 0.8608 0.8608 0.8608 0.8607 0.8607
756.000000 0.8606 0.8606 0.8605 0.8604 0.8603
751.000000 0.8602 0.8600 0.8599 0.8598 0.8597
746.000000 0.8595 0.8594 0.8593 0.8591 0.8590
741.000000 0.8589 0.8587 0.8586 0.8584 0.8583
736.000000 0.8581 0.8580 0.8578 0.8577 0.8575
731.000000 0.8574 0.8571 0.8571 0.8568 0.8568
726.000000 0.8566 0.8565 0.8562 0.8560 0.8557
721.000000 0.8554 0.8551 0.8548 0.8545 0.8542
716.000000 0.8540 0.8537 0.8534 0.8531 0.8528
711.000000 0.8513 0.8523 0.8520 0.8517 0.8514
706.000000 0.8512 0.8509 0.8506 0.8504 0.8501
701.000000 0.8498 0.8496 0.8493 0.8491 0.8488
696.000000 0.8485 0.8483 0.8477 0.8470 0.8464
691.000000 0.8458 0.8451 0.8444 0.8438 0.8431
686.000000 0.8427 0.8424 0.8421 0.8418 0.8415
681.000000 0.8410 0.8398 0.8386 0.8375 0.8363
676.000000 0.8351 0.8340 0.8328 0.8318 0.8318
671.000000 0.8318 0.8321 0.8325 0.8328 0.8337
666.000000 0.8346 0.8356 0.8363 0.8367 0.8371
661.000000 0.8375 0.8378 0.8384 0.8388 0.8390
656.000000 0.8391 0.8391 0.8392 0.8393 0.8393
651.000000 0.8383 0.8373 0.8362 0.8351 0.8341
646.000000 0.8330 0.8320 0.8309 0.8295 0.8280
641.000000 0.8266 0.8251 0.8237 0.8221 0.8207
636.000000 0.8193 0.8178 0.8164 0.8149 0.8135
631.000000 0.8121 0.8106 0.8092 0.8078 0.8062
626.000000 0.8049 0.8035 0.8019 0.8006 0.7992
621.000000 0.7976 0.7962 0.7949 0.7935 0.7919
616.000000 0.7907 0.7894 0.7882 0.7868 0.7856
611.000000 0.7844 0.7831 0.7818 0.7806 0.7794
606.000000 0.7781 0.7768 0.7756 0.7743 0.7728
601.000000 0.7715 0.7701 0.7688 0.7675 0.7661
596.000000 0.7647 0.7634 0.7621 0.7611 0.7603
591.000000 0.7594 0.7586 0.7576 0.7568 0.7558
586.000000 0.7550 0.7541 0.7532 0.7522 0.7518
581.000000 0.7512 0.7508 0.7503 0.7498 0.7493
576.000000 0.7488 0.7483 0.7478 0.7474 0.7468
571.000000 0.7464 0.7458 0.7454 0.7449 0.7445
566.000000 0.7442 0.7438 0.7434 0.7430 0.7425
561.000000 0.7422 0.7418 0.7415 0.7411 0.7410
556.000000 0.7408 0.7410 0.7410 0.7411 0.7411
551.000000 0.7412 0.7414 0.7415 0.7415 0.7415
546.000000 0.7417 0.7417 0.7418 0.7418 0.7418
541.000000 0.7411 0.7401 0.7390 0.7378 0.7368
536.000000 0.7358 0.7348 0.7340 0.7333 0.7325
531.000000 0.7318 0.7311 0.7304 0.7297 0.7290
526.000000 0.7283 0.7283 0.7283 0.7283 0.7283
521.000000 0.7283 0.7283 0.7283 0.7286 0.7289
516.000000 0.7293 0.7297 0.7301 0.7304 0.7308
511.000000 0.7311 0.7315 0.7319 0.7322 0.7326
506.000000 0.7331 0.7335 0.7341 0.7347 0.7353
501.000000 0.7358 0.7365 0.7371 0.7376 0.7383
496.000000 0.7389 0.7395 0.7400 0.7406 0.7411
491.000000 0.7421 0.7428 0.7437 0.7445 0.7454
486.000000 0.7461 0.7469 0.7478 0.7487 0.7493
481.000000 0.7497 0.7501 0.7506 0.7510 0.7514
476.000000 0.7518 0.7522 0.7526 0.7531 0.7536
471.000000 0.7539 0.7542 0.7546 0.7549 0.7551
466.000000 0.7555 0.7558 0.7561 0.7565 0.7565
461.000000 0.7565 0.7565 0.7564 0.7564 0.7562
456.000000 0.7561 0.7561 0.7560 0.7558 0.7558
451.000000 0.7555 0.7550 0.7545 0.7540 0.7535
446.000000 0.7528 0.7525 0.7521 0.7518 0.7514
441.000000 0.7510 0.7506 0.7503 0.7499 0.7495
436.000000 0.7491 0.7488 0.7484 0.7480 0.7475
431.000000 0.7472 0.7471 0.7471 0.7471 0.7469
426.000000 0.7468 0.7468 0.7467 0.7465 0.7465
421.000000 0.7465 0.7464 0.7462 0.7461 0.7461
416.000000 0.7460 0.7460 0.7460 0.7461 0.7461
411.000000 0.7461 0.7461 0.7461 0.7461 0.7461
406.000000 0.7461 0.7461 0.7461 0.7461 0.7462
401.000000 0.7464 0.7464 0.7465 0.7467 0.7468
396.000000 0.7471 0.7474 0.7475
##END=
