##TITLE=MAGNESIUM SILICATE
##JCAMP-DX=4.24
##DATA TYPE=INFRARED SPECTRUM
##CLASS=COBLENTZ III
##ORIGIN=DESOTO CHEMICAL COATINGS, INC.
##OWNER=COBLENTZ SOCIETY
Collection (C) 2018 copyright by the U.S. Secretary of Commerce
on behalf of the United States of America. All rights reserved.
##DATE=Not specified, most likely prior to 1970
##NAMES=TALC
##MOLFORM=O11 Mg3 Si4  * H2 O
##SOURCE REFERENCE=COBLENTZ NO. 4664
##$NIST ID=B6004664
##$NIST SOURCE=COBLENTZ
##$NIST IMAGE=cob4664
##SPECTROMETER/DATA SYSTEM=BECKMAN IR-12 (GRATING)
##INSTRUMENT PARAMETERS=GRATING BLAZED AT 3330, 1330, 445, 220 CM^-^1
##STATE=SOLID (0.5 mg / 300 mg CsI DISC)
##SAMPLING PROCEDURE=TRANSMISSION
##RESOLUTION=4
##DATA PROCESSING=DIGITIZED BY NIST FROM HARD COPY (FROM TWO SEGMENTS)
##XUNITS=1/CM
##YUNITS=TRANSMITTANCE
##XFACTOR=1.000000
##YFACTOR=1
##DELTAX=1.330378
##FIRSTX=201.33
##LASTX=3991.58
##FIRSTY=0.913
##MAXX=3991.58
##MINX=201.33
##MAXY=0.988
##MINY=0.094003
##NPOINTS=2850
##XYDATA=(X++(Y..Y))
201.330000 0.9130 0.9140 0.9130 0.9140 0.9140
207.981892 0.9160 0.9160 0.9160 0.9160 0.9160
214.633785 0.9160 0.9160 0.9160 0.9140 0.9140
221.285677 0.9140 0.9160 0.9160 0.9170 0.9180
227.937570 0.9180 0.9180 0.9180 0.9180 0.9180
234.589462 0.9180 0.9200 0.9200 0.9200 0.9200
241.241355 0.9200 0.9200 0.9180 0.9180 0.9180
247.893247 0.9180 0.9180 0.9200 0.9200 0.9200
254.545140 0.9200 0.9200 0.9200 0.9180 0.9180
261.197032 0.9180 0.9180 0.9170 0.9170 0.9170
267.848925 0.9170 0.9160 0.9160 0.9140 0.9130
274.500817 0.9130 0.9120 0.9100 0.9100 0.9090
281.152710 0.9080 0.9060 0.9080 0.9090 0.9090
287.804602 0.9100 0.9100 0.9100 0.9120 0.9120
294.456495 0.9120 0.9120 0.9100 0.9100 0.9100
301.108387 0.9090 0.9090 0.9090 0.9060 0.9060
307.760279 0.9060 0.9050 0.9050 0.9050 0.9040
314.412172 0.9040 0.9020 0.9020 0.9020 0.9020
321.064064 0.9020 0.9020 0.9010 0.9010 0.9000
327.715957 0.9000 0.8980 0.8980 0.8970 0.8970
334.367849 0.8960 0.8960 0.8930 0.8930 0.8930
341.019742 0.8920 0.8900 0.8860 0.8840 0.8810
347.671634 0.8780 0.8760 0.8750 0.8730 0.8730
354.323527 0.8730 0.8750 0.8750 0.8760 0.8760
360.975419 0.8760 0.8750 0.8750 0.8730 0.8730
367.627312 0.8720 0.8710 0.8690 0.8670 0.8640
374.279204 0.8600 0.8550 0.8440 0.8390 0.8320
380.931097 0.8131 0.7642 0.7431 0.7231 0.7151
387.582989 0.7120 0.7020 0.6910 0.6222 0.5791
394.234882 0.5790 0.6258 0.6708 0.6720 0.7793
400.886774 0.7810 0.8210 0.8330 0.8360 0.8390
407.538667 0.8410 0.8430 0.8430 0.8410 0.8370
414.190559 0.8350 0.8230 0.7881 0.7591 0.7072
420.842451 0.6921 0.6721 0.6511 0.6301 0.6300
427.494344 0.6590 0.6860 0.6990 0.6990 0.6910
434.146236 0.6711 0.6212 0.5653 0.5302 0.5091
440.798129 0.4850 0.4820 0.4780 0.3932 0.3681
447.450021 0.3401 0.3121 0.2841 0.2572 0.2570
454.101914 0.2960 0.3000 0.3839 0.3840 0.3631
460.753806 0.3092 0.2632 0.2511 0.2510 0.2828
467.405699 0.3190 0.3280 0.3899 0.4648 0.5218
474.057591 0.5539 0.5809 0.6098 0.6358 0.6598
480.709484 0.6840 0.7030 0.7100 0.7200 0.7340
487.361376 0.7420 0.7549 0.7640 0.7729 0.7760
494.013269 0.7810 0.7840 0.7890 0.7910 0.7930
500.665161 0.7960 0.7970 0.7990 0.8010 0.8109
507.317054 0.8230 0.8240 0.8330 0.8490 0.8530
513.968946 0.8560 0.8590 0.8610 0.8640 0.8640
520.620838 0.8640 0.8630 0.8600 0.8550 0.8520
527.272731 0.8450 0.8350 0.8201 0.8001 0.7831
533.924623 0.7800 0.7790 0.7800 0.7930 0.8070
540.576516 0.8199 0.8319 0.8410 0.8668 0.8799
547.228408 0.8860 0.8930 0.8970 0.9010 0.9060
553.880301 0.9100 0.9100 0.9120 0.9130 0.9200
560.532193 0.9240 0.9250 0.9260 0.9280 0.9280
567.184086 0.9290 0.9300 0.9320 0.9330 0.9340
573.835978 0.9360 0.9370 0.9380 0.9400 0.9410
580.487871 0.9410 0.9420 0.9440 0.9450 0.9450
587.139763 0.9460 0.9460 0.9460 0.9460 0.9480
593.791656 0.9480 0.9490 0.9490 0.9500 0.9500
600.443548 0.9520 0.9520 0.9520 0.9520 0.9520
607.095441 0.9520 0.9520 0.9520 0.9520 0.9520
613.747333 0.9520 0.9520 0.9520 0.9520 0.9520
620.399225 0.9520 0.9520 0.9520 0.9520 0.9520
627.051118 0.9500 0.9500 0.9500 0.9500 0.9500
633.703010 0.9490 0.9490 0.9490 0.9490 0.9490
640.354903 0.9490 0.9480 0.9480 0.9480 0.9460
647.006795 0.9450 0.9440 0.9440 0.9440 0.9420
653.658688 0.9420 0.9410 0.9410 0.9360 0.9340
660.310580 0.9320 0.9201 0.8981 0.8523 0.7835
666.962473 0.7400 0.7220 0.6920 0.6920 0.7199
673.614365 0.7340 0.7400 0.7908 0.8129 0.8239
680.266258 0.8520 0.8720 0.8770 0.8850 0.8960
686.918150 0.9000 0.9020 0.9050 0.9080 0.9080
693.570043 0.9120 0.9130 0.9160 0.9170 0.9200
700.221935 0.9240 0.9419 0.9480 0.9540 0.9560
706.873828 0.9580 0.9610 0.9610 0.9650 0.9660
713.525720 0.9660 0.9660 0.9680 0.9720 0.9730
720.177613 0.9730 0.9730 0.9740 0.9760 0.9770
726.829505 0.9770 0.9770 0.9780 0.9800 0.9800
733.481397 0.9800 0.9800 0.9810 0.9820 0.9820
740.133290 0.9820 0.9840 0.9820 0.9820 0.9820
746.785182 0.9820 0.9840 0.9840 0.9840 0.9840
753.437075 0.9840 0.9840 0.9840 0.9840 0.9840
760.088967 0.9820 0.9820 0.9820 0.9840 0.9840
766.740860 0.9840 0.9840 0.9840 0.9840 0.9840
773.392752 0.9840 0.9840 0.9840 0.9840 0.9840
780.044645 0.9840 0.9840 0.9820 0.9820 0.9820
786.696537 0.9820 0.9820 0.9820 0.9820 0.9820
793.348430 0.9820 0.9820 0.9820 0.9820 0.9820
800.000322 0.9820 0.9820 0.9810 0.9810 0.9810
806.652215 0.9820 0.9820 0.9840 0.9840 0.9850
813.304107 0.9850 0.9850 0.9850 0.9850 0.9850
819.956000 0.9860 0.9880 0.9880 0.9880 0.9880
826.607892 0.9860 0.9880 0.9880 0.9860 0.9860
833.259784 0.9860 0.9880 0.9880 0.9880 0.9880
839.911677 0.9880 0.9860 0.9840 0.9820 0.9820
846.563569 0.9820 0.9840 0.9840 0.9850 0.9850
853.215462 0.9840 0.9840 0.9840 0.9840 0.9840
859.867354 0.9840 0.9820 0.9810 0.9810 0.9810
866.519247 0.9810 0.9810 0.9810 0.9810 0.9800
873.171139 0.9800 0.9810 0.9810 0.9810 0.9800
879.823032 0.9800 0.9780 0.9770 0.9770 0.9770
886.474924 0.9770 0.9770 0.9770 0.9760 0.9760
893.126817 0.9740 0.9740 0.9740 0.9740 0.9740
899.778709 0.9740 0.9730 0.9730 0.9740 0.9740
906.430602 0.9740 0.9740 0.9740 0.9730 0.9720
913.082494 0.9720 0.9720 0.9720 0.9730 0.9730
919.734387 0.9720 0.9720 0.9720 0.9730 0.9730
926.386279 0.9720 0.9700 0.9690 0.9680 0.9650
933.038171 0.9640 0.9640 0.9640 0.9640 0.9640
939.690064 0.9620 0.9610 0.9600 0.9580 0.9580
946.341956 0.9560 0.9530 0.9520 0.9460 0.9420
952.993849 0.9410 0.9360 0.9330 0.9290 0.9280
959.645741 0.9250 0.9220 0.9160 0.9120 0.9090
966.297634 0.9060 0.9020 0.8940 0.8860 0.8820
972.949526 0.8750 0.8670 0.8610 0.8520 0.8450
979.601419 0.8410 0.8310 0.8031 0.7911 0.7811
986.253311 0.7710 0.7440 0.7280 0.7110 0.6940
992.905204 0.6721 0.6511 0.6251 0.6101 0.5385
999.557096 0.5350 0.5090 0.4920 0.4571 0.4261
1006.208989 0.3981 0.3552 0.3112 0.2802 0.1677
1012.860881 0.1510 0.1340 0.1180 0.1030 0.0950
1019.512774 0.0940 0.0950 0.0980 0.1060 0.1259
1026.164666 0.1280 0.1540 0.1720 0.1880 0.2040
1032.816558 0.2319 0.2569 0.2719 0.2909 0.2950
1039.468451 0.3010 0.3090 0.3160 0.3230 0.3240
1046.120343 0.3250 0.3310 0.3559 0.3848 0.4079
1052.772236 0.4600 0.5100 0.5330 0.5629 0.5909
1059.424128 0.6139 0.6349 0.6549 0.6838 0.7019
1066.076021 0.7100 0.7200 0.7310 0.7420 0.7510
1072.727913 0.7570 0.7630 0.7710 0.7809 0.7840
1079.379806 0.7870 0.7910 0.8010 0.8070 0.8110
1086.031698 0.8110 0.8150 0.8240 0.8310 0.8330
1092.683591 0.8360 0.8370 0.8410 0.8470 0.8480
1099.335483 0.8480 0.8510 0.8550 0.8600 0.8640
1105.987376 0.8650 0.8670 0.8710 0.8730 0.8750
1112.639268 0.8800 0.8810 0.8810 0.8820 0.8840
1119.291161 0.8840 0.8850 0.8880 0.8900 0.8930
1125.943053 0.8940 0.8960 0.8980 0.9000 0.9010
1132.594946 0.9010 0.9040 0.9080 0.9090 0.9100
1139.246838 0.9120 0.9130 0.9140 0.9180 0.9200
1145.898730 0.9210 0.9210 0.9220 0.9240 0.9240
1152.550623 0.9250 0.9250 0.9260 0.9280 0.9280
1159.202515 0.9300 0.9320 0.9320 0.9330 0.9340
1165.854408 0.9360 0.9360 0.9370 0.9380 0.9400
1172.506300 0.9400 0.9410 0.9410 0.9420 0.9420
1179.158193 0.9420 0.9440 0.9440 0.9450 0.9460
1185.810085 0.9460 0.9460 0.9480 0.9480 0.9480
1192.461978 0.9490 0.9490 0.9490 0.9500 0.9500
1199.113870 0.9500 0.9520 0.9520 0.9520 0.9530
1205.765763 0.9530 0.9540 0.9540 0.9540 0.9540
1212.417655 0.9560 0.9560 0.9560 0.9560 0.9560
1219.069548 0.9560 0.9560 0.9560 0.9560 0.9560
1225.721440 0.9560 0.9560 0.9570 0.9570 0.9570
1232.373333 0.9570 0.9570 0.9570 0.9570 0.9570
1239.025225 0.9570 0.9570 0.9570 0.9570 0.9570
1245.677117 0.9570 0.9580 0.9580 0.9580 0.9580
1252.329010 0.9580 0.9580 0.9580 0.9580 0.9580
1258.980902 0.9580 0.9580 0.9580 0.9580 0.9570
1265.632795 0.9570 0.9570 0.9560 0.9560 0.9560
1272.284687 0.9560 0.9570 0.9580 0.9580 0.9600
1278.936580 0.9600 0.9600 0.9600 0.9600 0.9600
1285.588472 0.9580 0.9580 0.9580 0.9580 0.9570
1292.240365 0.9570 0.9580 0.9600 0.9600 0.9600
1298.892257 0.9600 0.9600 0.9600 0.9580 0.9580
1305.544150 0.9560 0.9560 0.9540 0.9530 0.9530
1312.196042 0.9530 0.9540 0.9540 0.9540 0.9540
1318.847935 0.9540 0.9560 0.9560 0.9560 0.9540
1325.499827 0.9540 0.9540 0.9540 0.9540 0.9540
1332.151720 0.9530 0.9530 0.9530 0.9530 0.9540
1338.803612 0.9540 0.9540 0.9540 0.9540 0.9530
1345.455504 0.9530 0.9530 0.9530 0.9520 0.9520
1352.107397 0.9520 0.9520 0.9520 0.9500 0.9500
1358.759289 0.9500 0.9500 0.9500 0.9500 0.9500
1365.411182 0.9500 0.9500 0.9500 0.9500 0.9490
1372.063074 0.9490 0.9490 0.9490 0.9500 0.9500
1378.714967 0.9520 0.9520 0.9520 0.9520 0.9520
1385.366859 0.9520 0.9520 0.9520 0.9520 0.9500
1392.018752 0.9500 0.9500 0.9490 0.9490 0.9480
1398.670644 0.9480 0.9480 0.9480 0.9480 0.9490
1405.322537 0.9500 0.9500 0.9490 0.9480 0.9460
1411.974429 0.9460 0.9480 0.9480 0.9460 0.9460
1418.626322 0.9460 0.9460 0.9460 0.9450 0.9450
1425.278214 0.9450 0.9450 0.9450 0.9450 0.9450
1431.930107 0.9450 0.9450 0.9450 0.9450 0.9450
1438.581999 0.9450 0.9450 0.9450 0.9450 0.9450
1445.233892 0.9450 0.9450 0.9450 0.9450 0.9450
1451.885784 0.9450 0.9450 0.9450 0.9450 0.9450
1458.537676 0.9450 0.9450 0.9440 0.9440 0.9420
1465.189569 0.9420 0.9420 0.9420 0.9440 0.9440
1471.841461 0.9440 0.9440 0.9440 0.9440 0.9440
1478.493354 0.9440 0.9450 0.9460 0.9480 0.9480
1485.145246 0.9460 0.9460 0.9460 0.9460 0.9460
1491.797139 0.9460 0.9480 0.9480 0.9480 0.9460
1498.449031 0.9460 0.9460 0.9460 0.9480 0.9480
1505.100924 0.9480 0.9480 0.9480 0.9460 0.9460
1511.752816 0.9460 0.9450 0.9450 0.9450 0.9450
1518.404709 0.9450 0.9450 0.9450 0.9450 0.9450
1525.056601 0.9450 0.9450 0.9450 0.9450 0.9450
1531.708494 0.9450 0.9450 0.9450 0.9440 0.9440
1538.360386 0.9420 0.9420 0.9420 0.9420 0.9420
1545.012279 0.9420 0.9420 0.9410 0.9410 0.9410
1551.664171 0.9410 0.9410 0.9410 0.9410 0.9410
1558.316063 0.9410 0.9400 0.9400 0.9400 0.9400
1564.967956 0.9410 0.9400 0.9400 0.9380 0.9370
1571.619848 0.9370 0.9370 0.9360 0.9360 0.9340
1578.271741 0.9330 0.9330 0.9330 0.9330 0.9330
1584.923633 0.9330 0.9320 0.9320 0.9320 0.9300
1591.575526 0.9300 0.9290 0.9280 0.9260 0.9250
1598.227418 0.9240 0.9220 0.9220 0.9220 0.9240
1604.879311 0.9220 0.9220 0.9210 0.9210 0.9200
1611.531203 0.9180 0.9160 0.9160 0.9140 0.9140
1618.183096 0.9140 0.9140 0.9130 0.9130 0.9130
1624.834988 0.9140 0.9140 0.9140 0.9140 0.9140
1631.486881 0.9140 0.9160 0.9170 0.9170 0.9170
1638.138773 0.9180 0.9180 0.9170 0.9170 0.9170
1644.790666 0.9160 0.9160 0.9170 0.9170 0.9180
1651.442558 0.9180 0.9180 0.9180 0.9180 0.9180
1658.094450 0.9180 0.9180 0.9180 0.9170 0.9170
1664.746343 0.9170 0.9180 0.9180 0.9180 0.9180
1671.398235 0.9180 0.9180 0.9180 0.9180 0.9180
1678.050128 0.9180 0.9170 0.9170 0.9170 0.9180
1684.702020 0.9180 0.9180 0.9180 0.9200 0.9180
1691.353913 0.9180 0.9180 0.9180 0.9180 0.9180
1698.005805 0.9180 0.9180 0.9180 0.9180 0.9170
1704.657698 0.9170 0.9170 0.9170 0.9170 0.9170
1711.309590 0.9170 0.9170 0.9180 0.9180 0.9180
1717.961483 0.9180 0.9180 0.9180 0.9180 0.9200
1724.613375 0.9200 0.9200 0.9200 0.9200 0.9200
1731.265268 0.9200 0.9200 0.9200 0.9200 0.9180
1737.917160 0.9180 0.9180 0.9180 0.9180 0.9180
1744.569053 0.9180 0.9180 0.9180 0.9180 0.9180
1751.220945 0.9180 0.9180 0.9180 0.9170 0.9170
1757.872838 0.9170 0.9170 0.9170 0.9170 0.9170
1764.524730 0.9160 0.9160 0.9160 0.9160 0.9160
1771.176622 0.9160 0.9160 0.9160 0.9140 0.9140
1777.828515 0.9140 0.9140 0.9140 0.9140 0.9140
1784.480407 0.9140 0.9140 0.9130 0.9130 0.9130
1791.132300 0.9130 0.9130 0.9130 0.9130 0.9130
1797.784192 0.9130 0.9130 0.9130 0.9140 0.9130
1804.436085 0.9130 0.9120 0.9120 0.9120 0.9120
1811.087977 0.9120 0.9120 0.9120 0.9120 0.9120
1817.739870 0.9120 0.9120 0.9120 0.9100 0.9100
1824.391762 0.9100 0.9100 0.9090 0.9090 0.9100
1831.043655 0.9100 0.9100 0.9100 0.9100 0.9100
1837.695547 0.9100 0.9100 0.9100 0.9100 0.9100
1844.347440 0.9100 0.9100 0.9090 0.9090 0.9090
1850.999332 0.9090 0.9090 0.9080 0.9080 0.9080
1857.651225 0.9090 0.9080 0.9080 0.9080 0.9080
1864.303117 0.9080 0.9080 0.9080 0.9080 0.9060
1870.955009 0.9060 0.9060 0.9060 0.9060 0.9050
1877.606902 0.9050 0.9050 0.9040 0.9040 0.9040
1884.258794 0.9020 0.9020 0.9020 0.9020 0.9020
1890.910687 0.9020 0.9020 0.9020 0.9020 0.9020
1897.562579 0.9020 0.9020 0.9010 0.9010 0.9010
1904.214472 0.9010 0.9010 0.9010 0.9010 0.9010
1910.866364 0.9010 0.9010 0.9010 0.9010 0.9010
1917.518257 0.9010 0.9010 0.9010 0.9010 0.9010
1924.170149 0.9010 0.9010 0.9000 0.9000 0.9000
1930.822042 0.9000 0.8980 0.8980 0.8980 0.8980
1937.473934 0.8980 0.8970 0.8970 0.8970 0.8970
1944.125827 0.8970 0.8960 0.8960 0.8960 0.8960
1950.777719 0.8940 0.8940 0.8930 0.8930 0.8930
1957.429612 0.8930 0.8930 0.8930 0.8920 0.8920
1964.081504 0.8920 0.8920 0.8920 0.8920 0.8920
1970.733396 0.8920 0.8920 0.8930 0.8920 0.8920
1977.385289 0.8920 0.8900 0.8900 0.8900 0.8900
1984.037181 0.8900 0.8900 0.8900 0.8900 0.8900
1990.689074 0.8900 0.8900 0.8900 0.8900 0.8900
1997.340966 0.8900 0.8900 0.8900 0.8895 0.8890
2003.992859 0.8890 0.8890 0.8890 0.8890 0.8885
2010.644751 0.8880 0.8870 0.8860 0.8855 0.8850
2017.296644 0.8850 0.8850 0.8850 0.8850 0.8850
2023.948536 0.8850 0.8845 0.8840 0.8830 0.8820
2030.600429 0.8820 0.8820 0.8820 0.8820 0.8820
2037.252321 0.8820 0.8820 0.8820 0.8820 0.8820
2043.904214 0.8820 0.8820 0.8820 0.8820 0.8820
2050.556106 0.8820 0.8820 0.8820 0.8820 0.8820
2057.207999 0.8820 0.8820 0.8820 0.8820 0.8820
2063.859891 0.8820 0.8815 0.8810 0.8810 0.8810
2070.511784 0.8810 0.8810 0.8810 0.8810 0.8805
2077.163676 0.8800 0.8800 0.8800 0.8800 0.8799
2083.815568 0.8789 0.8780 0.8780 0.8780 0.8780
2090.467461 0.8779 0.8774 0.8770 0.8770 0.8769
2097.119353 0.8764 0.8760 0.8760 0.8760 0.8760
2103.771246 0.8759 0.8754 0.8750 0.8750 0.8749
2110.423138 0.8739 0.8730 0.8730 0.8729 0.8724
2117.075031 0.8720 0.8720 0.8720 0.8720 0.8720
2123.726923 0.8720 0.8720 0.8720 0.8720 0.8720
2130.378816 0.8719 0.8714 0.8710 0.8710 0.8710
2137.030708 0.8710 0.8710 0.8710 0.8708 0.8698
2143.682601 0.8690 0.8690 0.8690 0.8690 0.8689
2150.334493 0.8684 0.8680 0.8680 0.8680 0.8680
2156.986386 0.8680 0.8680 0.8679 0.8674 0.8670
2163.638278 0.8670 0.8670 0.8670 0.8670 0.8670
2170.290171 0.8668 0.8658 0.8650 0.8650 0.8650
2176.942063 0.8650 0.8649 0.8644 0.8640 0.8640
2183.593955 0.8640 0.8640 0.8639 0.8634 0.8630
2190.245848 0.8630 0.8630 0.8630 0.8627 0.8617
2196.897740 0.8610 0.8610 0.8610 0.8610 0.8610
2203.549633 0.8610 0.8609 0.8604 0.8600 0.8600
2210.201525 0.8600 0.8600 0.8600 0.8600 0.8596
2216.853418 0.8581 0.8570 0.8570 0.8570 0.8570
2223.505310 0.8569 0.8564 0.8559 0.8554 0.8550
2230.157203 0.8550 0.8550 0.8550 0.8547 0.8537
2236.809095 0.8530 0.8530 0.8528 0.8523 0.8520
2243.460988 0.8520 0.8520 0.8520 0.8520 0.8520
2250.112880 0.8520 0.8520 0.8520 0.8520 0.8520
2256.764773 0.8520 0.8520 0.8520 0.8518 0.8513
2263.416665 0.8507 0.8497 0.8490 0.8490 0.8483
2270.068558 0.8463 0.8448 0.8443 0.8438 0.8433
2276.720450 0.8430 0.8430 0.8430 0.8430 0.8430
2283.372342 0.8430 0.8430 0.8430 0.8430 0.8430
2290.024235 0.8430 0.8430 0.8430 0.8430 0.8430
2296.676127 0.8430 0.8430 0.8430 0.8430 0.8430
2303.328020 0.8426 0.8416 0.8410 0.8410 0.8408
2309.979912 0.8403 0.8400 0.8400 0.8398 0.8393
2316.631805 0.8390 0.8390 0.8386 0.8376 0.8370
2323.283697 0.8370 0.8368 0.8363 0.8360 0.8360
2329.935590 0.8360 0.8360 0.8354 0.8339 0.8328
2336.587482 0.8323 0.8320 0.8320 0.8313 0.8298
2343.239375 0.8290 0.8290 0.8290 0.8290 0.8290
2349.891267 0.8290 0.8288 0.8283 0.8280 0.8280
2356.543160 0.8280 0.8280 0.8278 0.8273 0.8265
2363.195052 0.8255 0.8245 0.8235 0.8230 0.8230
2369.846945 0.8230 0.8230 0.8225 0.8215 0.8210
2376.498837 0.8210 0.8210 0.8210 0.8210 0.8210
2383.150729 0.8215 0.8225 0.8230 0.8230 0.8230
2389.802622 0.8230 0.8230 0.8230 0.8230 0.8230
2396.454514 0.8230 0.8230 0.8225 0.8215 0.8207
2403.106407 0.8202 0.8200 0.8200 0.8197 0.8192
2409.758299 0.8185 0.8175 0.8167 0.8162 0.8160
2416.410192 0.8160 0.8163 0.8168 0.8175 0.8185
2423.062084 0.8190 0.8190 0.8184 0.8174 0.8167
2429.713977 0.8162 0.8157 0.8152 0.8144 0.8134
2436.365869 0.8127 0.8122 0.8120 0.8120 0.8120
2443.017762 0.8120 0.8120 0.8120 0.8117 0.8112
2449.669654 0.8110 0.8110 0.8110 0.8110 0.8110
2456.321547 0.8110 0.8110 0.8110 0.8110 0.8110
2462.973439 0.8110 0.8110 0.8110 0.8110 0.8110
2469.625332 0.8110 0.8104 0.8094 0.8087 0.8082
2476.277224 0.8071 0.8055 0.8050 0.8050 0.8044
2482.929117 0.8034 0.8024 0.8014 0.8010 0.8010
2489.581009 0.8007 0.8002 0.8000 0.8000 0.8000
2496.232901 0.8000 0.8000 0.8000 0.8000 0.8000
2502.884794 0.8000 0.8000 0.8000 0.8000 0.7997
2509.536686 0.7992 0.7990 0.7990 0.7990 0.7990
2516.188579 0.7990 0.7990 0.7990 0.7990 0.7983
2522.840471 0.7973 0.7967 0.7962 0.7960 0.7960
2529.492364 0.7957 0.7951 0.7950 0.7950 0.7943
2536.144256 0.7933 0.7926 0.7921 0.7920 0.7920
2542.796149 0.7920 0.7920 0.7916 0.7911 0.7910
2549.448041 0.7910 0.7903 0.7893 0.7890 0.7890
2556.099934 0.7890 0.7890 0.7890 0.7890 0.7886
2562.751826 0.7881 0.7880 0.7880 0.7880 0.7880
2569.403719 0.7880 0.7880 0.7880 0.7880 0.7876
2576.055611 0.7871 0.7870 0.7870 0.7862 0.7852
2582.707504 0.7846 0.7841 0.7836 0.7831 0.7830
2589.359396 0.7830 0.7830 0.7830 0.7830 0.7830
2596.011288 0.7830 0.7830 0.7822 0.7812 0.7810
2602.663181 0.7810 0.7818 0.7828 0.7822 0.7812
2609.315073 0.7810 0.7810 0.7810 0.7810 0.7806
2615.966966 0.7801 0.7800 0.7800 0.7796 0.7791
2622.618858 0.7790 0.7790 0.7782 0.7772 0.7770
2629.270751 0.7770 0.7766 0.7761 0.7760 0.7760
2635.922643 0.7756 0.7751 0.7741 0.7731 0.7726
2642.574536 0.7721 0.7720 0.7720 0.7720 0.7720
2649.226428 0.7720 0.7720 0.7720 0.7720 0.7720
2655.878321 0.7720 0.7716 0.7711 0.7710 0.7710
2662.530213 0.7701 0.7691 0.7690 0.7690 0.7686
2669.182106 0.7681 0.7680 0.7680 0.7680 0.7680
2675.833998 0.7680 0.7680 0.7680 0.7680 0.7680
2682.485891 0.7680 0.7680 0.7680 0.7676 0.7671
2689.137783 0.7670 0.7670 0.7670 0.7670 0.7661
2695.789675 0.7651 0.7645 0.7640 0.7640 0.7640
2702.441568 0.7626 0.7611 0.7605 0.7600 0.7600
2709.093460 0.7600 0.7600 0.7600 0.7600 0.7600
2715.745353 0.7595 0.7590 0.7590 0.7590 0.7590
2722.397245 0.7590 0.7580 0.7570 0.7570 0.7570
2729.049138 0.7565 0.7560 0.7560 0.7560 0.7546
2735.701030 0.7531 0.7530 0.7530 0.7530 0.7530
2742.352923 0.7525 0.7520 0.7520 0.7520 0.7515
2749.004815 0.7510 0.7510 0.7510 0.7505 0.7500
2755.656708 0.7500 0.7500 0.7490 0.7480 0.7480
2762.308600 0.7480 0.7475 0.7470 0.7470 0.7470
2768.960493 0.7455 0.7440 0.7440 0.7440 0.7440
2775.612385 0.7440 0.7440 0.7440 0.7440 0.7440
2782.264278 0.7440 0.7440 0.7440 0.7440 0.7440
2788.916170 0.7440 0.7440 0.7440 0.7435 0.7430
2795.568063 0.7430 0.7430 0.7430 0.7430 0.7430
2802.219955 0.7430 0.7425 0.7420 0.7420 0.7420
2808.871847 0.7420 0.7419 0.7409 0.7400 0.7395
2815.523740 0.7390 0.7390 0.7389 0.7369 0.7349
2822.175632 0.7334 0.7320 0.7320 0.7320 0.7320
2828.827525 0.7320 0.7320 0.7320 0.7320 0.7320
2835.479417 0.7320 0.7321 0.7331 0.7340 0.7340
2842.131310 0.7338 0.7323 0.7309 0.7304 0.7298
2848.783202 0.7283 0.7269 0.7264 0.7260 0.7260
2855.435095 0.7260 0.7260 0.7259 0.7249 0.7240
2862.086987 0.7240 0.7240 0.7240 0.7241 0.7251
2868.738880 0.7260 0.7260 0.7259 0.7249 0.7239
2875.390772 0.7228 0.7220 0.7220 0.7218 0.7208
2882.042665 0.7200 0.7200 0.7199 0.7194 0.7190
2888.694557 0.7190 0.7190 0.7190 0.7190 0.7190
2895.346450 0.7190 0.7190 0.7189 0.7184 0.7177
2901.998342 0.7162 0.7150 0.7150 0.7150 0.7150
2908.650234 0.7150 0.7150 0.7149 0.7144 0.7138
2915.302127 0.7128 0.7120 0.7120 0.7119 0.7114
2921.954019 0.7110 0.7110 0.7110 0.7110 0.7110
2928.605912 0.7110 0.7110 0.7110 0.7109 0.7104
2935.257804 0.7100 0.7100 0.7098 0.7088 0.7080
2941.909697 0.7080 0.7079 0.7074 0.7070 0.7070
2948.561589 0.7069 0.7064 0.7060 0.7060 0.7057
2955.213482 0.7047 0.7040 0.7040 0.7040 0.7040
2961.865374 0.7040 0.7040 0.7040 0.7040 0.7040
2968.517267 0.7040 0.7039 0.7034 0.7030 0.7030
2975.169159 0.7029 0.7024 0.7020 0.7020 0.7020
2981.821052 0.7020 0.7020 0.7020 0.7017 0.7007
2988.472944 0.7000 0.7000 0.6998 0.6993 0.6990
2995.124837 0.6990 0.6990 0.6990 0.6988 0.6983
3001.776729 0.6980 0.6980 0.6977 0.6967 0.6960
3008.428621 0.6960 0.6958 0.6953 0.6948 0.6943
3015.080514 0.6936 0.6926 0.6920 0.6920 0.6918
3021.732406 0.6913 0.6910 0.6910 0.6910 0.6910
3028.384299 0.6910 0.6910 0.6912 0.6917 0.6920
3035.036191 0.6920 0.6920 0.6920 0.6916 0.6906
3041.688084 0.6900 0.6900 0.6896 0.6886 0.6880
3048.339976 0.6880 0.6880 0.6880 0.6880 0.6880
3054.991869 0.6878 0.6873 0.6870 0.6870 0.6870
3061.643761 0.6870 0.6868 0.6863 0.6856 0.6846
3068.295654 0.6840 0.6840 0.6840 0.6840 0.6838
3074.947546 0.6833 0.6830 0.6830 0.6828 0.6823
3081.599439 0.6816 0.6806 0.6800 0.6800 0.6800
3088.251331 0.6800 0.6798 0.6793 0.6790 0.6790
3094.903224 0.6790 0.6790 0.6788 0.6783 0.6775
3101.555116 0.6765 0.6758 0.6753 0.6750 0.6750
3108.207009 0.6750 0.6750 0.6750 0.6750 0.6748
3114.858901 0.6743 0.6740 0.6740 0.6740 0.6740
3121.510793 0.6735 0.6725 0.6718 0.6713 0.6708
3128.162686 0.6703 0.6700 0.6700 0.6700 0.6700
3134.814578 0.6700 0.6700 0.6700 0.6700 0.6700
3141.466471 0.6700 0.6700 0.6700 0.6695 0.6685
3148.118363 0.6680 0.6680 0.6680 0.6680 0.6680
3154.770256 0.6680 0.6677 0.6672 0.6667 0.6662
3161.422148 0.6655 0.6645 0.6640 0.6640 0.6635
3168.074041 0.6624 0.6620 0.6620 0.6614 0.6604
3174.725933 0.6597 0.6592 0.6590 0.6590 0.6587
3181.377826 0.6582 0.6574 0.6564 0.6557 0.6552
3188.029718 0.6550 0.6550 0.6547 0.6542 0.6534
3194.681611 0.6524 0.6520 0.6520 0.6517 0.6512
3201.333503 0.6510 0.6510 0.6507 0.6502 0.6500
3207.985396 0.6500 0.6500 0.6500 0.6500 0.6500
3214.637288 0.6494 0.6484 0.6477 0.6472 0.6461
3221.289180 0.6446 0.6437 0.6432 0.6427 0.6422
3227.941073 0.6420 0.6420 0.6420 0.6420 0.6420
3234.592965 0.6420 0.6420 0.6420 0.6414 0.6404
3241.244858 0.6406 0.6416 0.6414 0.6404 0.6400
3247.896750 0.6400 0.6397 0.6392 0.6387 0.6382
3254.548643 0.6380 0.6380 0.6373 0.6363 0.6357
3261.200535 0.6352 0.6340 0.6325 0.6317 0.6312
3267.852428 0.6310 0.6310 0.6310 0.6310 0.6310
3274.504320 0.6310 0.6306 0.6301 0.6300 0.6300
3281.156213 0.6293 0.6283 0.6280 0.6280 0.6276
3287.808105 0.6271 0.6266 0.6261 0.6256 0.6251
3294.459998 0.6243 0.6233 0.6230 0.6230 0.6226
3301.111890 0.6221 0.6220 0.6220 0.6216 0.6211
3307.763783 0.6210 0.6210 0.6199 0.6184 0.6180
3314.415675 0.6180 0.6176 0.6171 0.6163 0.6153
3321.067567 0.6146 0.6141 0.6136 0.6131 0.6130
3327.719460 0.6130 0.6122 0.6112 0.6110 0.6110
3334.371352 0.6106 0.6101 0.6100 0.6100 0.6096
3341.023245 0.6091 0.6090 0.6090 0.6082 0.6072
3347.675137 0.6070 0.6070 0.6070 0.6070 0.6066
3354.327030 0.6061 0.6056 0.6051 0.6050 0.6050
3360.978922 0.6042 0.6032 0.6026 0.6021 0.6008
3367.630815 0.5993 0.5986 0.5981 0.5980 0.5980
3374.282707 0.5968 0.5953 0.5946 0.5941 0.5940
3380.934600 0.5940 0.5936 0.5931 0.5922 0.5912
3387.586492 0.5910 0.5910 0.5906 0.5901 0.5900
3394.238385 0.5900 0.5900 0.5900 0.5896 0.5891
3400.890277 0.5881 0.5871 0.5870 0.5870 0.5866
3407.542170 0.5861 0.5856 0.5851 0.5841 0.5831
3414.194062 0.5826 0.5821 0.5820 0.5820 0.5807
3420.845955 0.5792 0.5786 0.5781 0.5780 0.5780
3427.497847 0.5780 0.5780 0.5780 0.5780 0.5780
3434.149739 0.5780 0.5780 0.5780 0.5766 0.5751
3440.801632 0.5745 0.5740 0.5735 0.5730 0.5730
3447.453524 0.5730 0.5730 0.5730 0.5730 0.5730
3454.105417 0.5721 0.5711 0.5710 0.5710 0.5710
3460.757309 0.5710 0.5710 0.5710 0.5710 0.5710
3467.409202 0.5705 0.5700 0.5695 0.5690 0.5680
3474.061094 0.5670 0.5670 0.5670 0.5665 0.5660
3480.712987 0.5660 0.5660 0.5665 0.5670 0.5670
3487.364879 0.5670 0.5670 0.5670 0.5670 0.5670
3494.016772 0.5670 0.5670 0.5670 0.5670 0.5670
3500.668664 0.5670 0.5665 0.5660 0.5655 0.5650
3507.320557 0.5650 0.5650 0.5650 0.5650 0.5650
3513.972449 0.5650 0.5650 0.5650 0.5640 0.5630
3520.624342 0.5620 0.5610 0.5600 0.5590 0.5590
3527.276234 0.5590 0.5585 0.5580 0.5580 0.5580
3533.928126 0.5585 0.5590 0.5600 0.5610 0.5615
3540.580019 0.5620 0.5620 0.5620 0.5620 0.5620
3547.231911 0.5620 0.5620 0.5620 0.5620 0.5615
3553.883804 0.5610 0.5610 0.5610 0.5610 0.5609
3560.535696 0.5599 0.5590 0.5590 0.5590 0.5590
3567.187589 0.5590 0.5585 0.5580 0.5575 0.5570
3573.839481 0.5570 0.5570 0.5570 0.5570 0.5570
3580.491374 0.5570 0.5570 0.5570 0.5575 0.5580
3587.143266 0.5580 0.5580 0.5580 0.5580 0.5580
3593.795159 0.5581 0.5586 0.5590 0.5590 0.5590
3600.447051 0.5590 0.5590 0.5590 0.5590 0.5590
3607.098944 0.5589 0.5584 0.5580 0.5580 0.5580
3613.750836 0.5580 0.5580 0.5580 0.5580 0.5580
3620.402729 0.5580 0.5580 0.5579 0.5574 0.5570
3627.054621 0.5570 0.5570 0.5570 0.5571 0.5576
3633.706513 0.5580 0.5580 0.5580 0.5580 0.5580
3640.358406 0.5580 0.5579 0.5574 0.5568 0.5558
3647.010298 0.5550 0.5550 0.5550 0.5550 0.5550
3653.662191 0.5550 0.5549 0.5544 0.5540 0.5540
3660.314083 0.5540 0.5540 0.5540 0.5540 0.5539
3666.965976 0.5534 0.5524 0.5494 0.5465 0.5439
3673.617868 0.5392 0.5272 0.5155 0.5050 0.4970
3680.269761 0.4970 0.5015 0.5205 0.5355 0.5375
3686.921653 0.5392 0.5402 0.5411 0.5416 0.5420
3693.573546 0.5420 0.5421 0.5426 0.5430 0.5430
3700.225438 0.5434 0.5449 0.5460 0.5460 0.5460
3706.877331 0.5460 0.5460 0.5460 0.5460 0.5460
3713.529223 0.5459 0.5454 0.5450 0.5450 0.5447
3720.181116 0.5437 0.5430 0.5430 0.5429 0.5424
3726.833008 0.5420 0.5420 0.5420 0.5420 0.5420
3733.484900 0.5420 0.5420 0.5420 0.5420 0.5420
3740.136793 0.5418 0.5413 0.5410 0.5410 0.5410
3746.788685 0.5410 0.5410 0.5410 0.5410 0.5410
3753.440578 0.5410 0.5410 0.5407 0.5397 0.5388
3760.092470 0.5383 0.5378 0.5373 0.5370 0.5370
3766.744363 0.5370 0.5370 0.5370 0.5370 0.5370
3773.396255 0.5370 0.5367 0.5357 0.5348 0.5343
3780.048148 0.5340 0.5340 0.5340 0.5340 0.5340
3786.700040 0.5340 0.5340 0.5340 0.5340 0.5340
3793.351933 0.5340 0.5340 0.5338 0.5333 0.5326
3800.003825 0.5316 0.5310 0.5310 0.5308 0.5303
3806.655718 0.5300 0.5300 0.5300 0.5300 0.5300
3813.307610 0.5300 0.5298 0.5293 0.5290 0.5290
3819.959503 0.5290 0.5290 0.5286 0.5276 0.5268
3826.611395 0.5263 0.5260 0.5260 0.5260 0.5260
3833.263288 0.5258 0.5253 0.5250 0.5250 0.5246
3839.915180 0.5236 0.5228 0.5223 0.5220 0.5220
3846.567072 0.5220 0.5220 0.5220 0.5220 0.5220
3853.218965 0.5220 0.5220 0.5220 0.5218 0.5213
3859.870857 0.5205 0.5195 0.5190 0.5190 0.5190
3866.522750 0.5190 0.5188 0.5183 0.5178 0.5173
3873.174642 0.5170 0.5170 0.5170 0.5170 0.5170
3879.826535 0.5170 0.5165 0.5155 0.5148 0.5142
3886.478427 0.5140 0.5140 0.5140 0.5140 0.5137
3893.130320 0.5132 0.5130 0.5130 0.5125 0.5115
3899.782212 0.5110 0.5110 0.5107 0.5102 0.5100
3906.434105 0.5100 0.5097 0.5092 0.5085 0.5075
3913.085997 0.5070 0.5070 0.5070 0.5070 0.5067
3919.737890 0.5062 0.5060 0.5060 0.5060 0.5060
3926.389782 0.5057 0.5052 0.5050 0.5050 0.5042
3933.041675 0.5027 0.5020 0.5020 0.5020 0.5020
3939.693567 0.5017 0.5012 0.5010 0.5010 0.5007
3946.345459 0.5002 0.5000 0.5000 0.5000 0.5000
3952.997352 0.5000 0.5000 0.5000 0.5000 0.5000
3959.649244 0.5000 0.5000 0.5000 0.5000 0.5000
3966.301137 0.4994 0.4984 0.4980 0.4980 0.4980
3972.953029 0.4980 0.4980 0.4980 0.4977 0.4972
3979.604922 0.4970 0.4970 0.4970 0.4970 0.4967
3986.256814 0.4962 0.4960 0.4960 0.4954 0.4943
##END=
