##TITLE=o-HYDROXYBENZOYL OSMOCENE
##JCAMP-DX=4.24
##DATA TYPE=INFRARED SPECTRUM
##CLASS=COBLENTZ
##ORIGIN=WYANDOTTE CHEMICALS CORP., WYANDOTTE, MICHIGAN, USA
##OWNER=COBLENTZ SOCIETY
Collection (C) 2018 copyright by the U.S. Secretary of Commerce
on behalf of the United States of America. All rights reserved.
##DATE=Not specified, most likely prior to 1970
##MOLFORM=C17 H14 O2 Os
##SOURCE REFERENCE=COBLENTZ NO. 3135
##$NIST ID=B6003135
##$NIST SOURCE=COBLENTZ
##$NIST IMAGE=cob3135
##SPECTROMETER/DATA SYSTEM=Not specified, most likely a prism, grating, or hybrid spectrometer.
##STATE=SOLID (MINERAL OIL MULL)
##PATH LENGTH=
$$SPECTRAL CONTAMINATION DUE TO OIL AROUND 2900 CM^-^1
##SAMPLING PROCEDURE=TRANSMISSION
##RESOLUTION=4
##DATA PROCESSING=DIGITIZED BY NIST FROM HARD COPY
##XUNITS=MICROMETERS
##YUNITS=TRANSMITTANCE
##XFACTOR=1.000000
##YFACTOR=1
##DELTAX=000.006806
##FIRSTX=2.02
##LASTX=15.9934
##FIRSTY=0.679
##MAXX=15.9934
##MINX=2.02
##MAXY=0.908
##MINY=0.238
##NPOINTS=2054
##XYDATA=(X++(Y..Y))
2.020000 0.6790 0.6880 0.6930 0.6960 0.7000
2.054047 0.7010 0.7030 0.7050 0.7050 0.7050
2.088000 0.7060 0.7060 0.7080 0.7080 0.7100
2.122047 0.7120 0.7100 0.7100 0.7100 0.7100
2.157000 0.7100 0.7100 0.7100 0.7100 0.7120
2.191047 0.7120 0.7130 0.7130 0.7150 0.7150
2.225000 0.7170 0.7170 0.7180 0.7200 0.7220
2.259047 0.7220 0.7250 0.7250 0.7290 0.7300
2.293000 0.7300 0.7320 0.7320 0.7340 0.7340
2.327047 0.7370 0.7390 0.7390 0.7390 0.7410
2.361000 0.7410 0.7420 0.7420 0.7460 0.7460
2.395047 0.7470 0.7470 0.7470 0.7490 0.7490
2.429000 0.7510 0.7520 0.7540 0.7540 0.7540
2.463047 0.7540 0.7540 0.7540 0.7540 0.7560
2.497000 0.7560 0.7560 0.7580 0.7580 0.7590
2.531047 0.7610 0.7640 0.7640 0.7640 0.7660
2.565000 0.7660 0.7680 0.7680 0.7700 0.7710
2.599047 0.7730 0.7750 0.7760 0.7780 0.7780
2.633000 0.7780 0.7760 0.7750 0.7750 0.7750
2.667047 0.7760 0.7780 0.7780 0.7780 0.7800
2.701000 0.7800 0.7800 0.7800 0.7800 0.7780
2.735047 0.7760 0.7760 0.7750 0.7750 0.7750
2.769000 0.7750 0.7760 0.7760 0.7750 0.7750
2.803047 0.7750 0.7730 0.7730 0.7730 0.7750
2.837000 0.7750 0.7750 0.7760 0.7760 0.7780
2.871047 0.7760 0.7760 0.7760 0.7760 0.7760
2.905000 0.7750 0.7730 0.7730 0.7730 0.7750
2.939047 0.7760 0.7750 0.7750 0.7750 0.7750
2.973000 0.7730 0.7730 0.7710 0.7710 0.7710
3.007047 0.7710 0.7730 0.7730 0.7730 0.7710
3.041000 0.7710 0.7710 0.7710 0.7700 0.7660
3.075047 0.7590 0.7590 0.7560 0.7560 0.7540
3.109000 0.7540 0.7490 0.7460 0.7460 0.7420
3.143047 0.7410 0.7370 0.7350 0.7350 0.7320
3.177000 0.7320 0.7320 0.7320 0.7320 0.7300
3.211047 0.7300 0.7290 0.7240 0.7180 0.7080
3.246000 0.6950 0.6890 0.6790 0.6780 0.6790
3.280047 0.6840 0.6880 0.7000 0.7080 0.7080
3.314000 0.7060 0.7000 0.6890 0.6690 0.6570
3.348047 0.6250 0.5770 0.5210 0.4590 0.4000
3.382000 0.3440 0.2990 0.2700 0.2620 0.2450
3.416047 0.2380 0.2380 0.2400 0.2720 0.3080
3.450000 0.3450 0.3790 0.4100 0.4290 0.4390
3.484047 0.4410 0.4390 0.4100 0.4070 0.4070
3.518000 0.4190 0.4770 0.5450 0.6160 0.6790
3.552047 0.7270 0.7490 0.7660 0.7780 0.7880
3.586000 0.7950 0.8000 0.8040 0.8090 0.8100
3.620047 0.8140 0.8160 0.8210 0.8220 0.8240
3.654000 0.8260 0.8260 0.8260 0.8240 0.8240
3.688047 0.8240 0.8240 0.8240 0.8240 0.8240
3.722000 0.8240 0.8260 0.8260 0.8260 0.8270
3.756047 0.8290 0.8310 0.8330 0.8330 0.8330
3.790000 0.8310 0.8310 0.8310 0.8310 0.8330
3.824047 0.8330 0.8340 0.8340 0.8360 0.8380
3.858000 0.8380 0.8390 0.8410 0.8430 0.8440
3.892047 0.8480 0.8510 0.8560 0.8580 0.8580
3.926000 0.8600 0.8600 0.8600 0.8580 0.8600
3.960047 0.8600 0.8620 0.8620 0.8630 0.8630
3.994000 0.8630 0.8650 0.8650 0.8650 0.8630
4.028047 0.8630 0.8620 0.8600 0.8600 0.8600
4.062000 0.8600 0.8600 0.8600 0.8600 0.8600
4.096047 0.8600 0.8600 0.8630 0.8630 0.8650
4.130000 0.8650 0.8630 0.8630 0.8630 0.8630
4.164047 0.8630 0.8630 0.8620 0.8620 0.8620
4.198000 0.8630 0.8630 0.8630 0.8630 0.8630
4.232047 0.8630 0.8650 0.8650 0.8670 0.8670
4.266000 0.8650 0.8650 0.8650 0.8650 0.8650
4.300047 0.8650 0.8650 0.8630 0.8630 0.8620
4.334000 0.8620 0.8600 0.8580 0.8580 0.8600
4.368047 0.8600 0.8620 0.8620 0.8630 0.8650
4.403000 0.8700 0.8700 0.8720 0.8700 0.8720
4.437047 0.8720 0.8720 0.8700 0.8700 0.8720
4.471000 0.8730 0.8730 0.8730 0.8750 0.8750
4.505047 0.8730 0.8730 0.8730 0.8730 0.8730
4.539000 0.8730 0.8730 0.8750 0.8750 0.8770
4.573047 0.8790 0.8790 0.8800 0.8800 0.8820
4.607000 0.8840 0.8840 0.8850 0.8850 0.8890
4.641047 0.8900 0.8920 0.8940 0.8940 0.8940
4.675000 0.8920 0.8900 0.8900 0.8900 0.8900
4.709047 0.8900 0.8900 0.8900 0.8890 0.8890
4.743000 0.8900 0.8940 0.8970 0.8990 0.9010
4.777047 0.9010 0.9010 0.9010 0.9010 0.8990
4.811000 0.8970 0.8970 0.8970 0.8970 0.8960
4.845047 0.8960 0.8960 0.8960 0.8970 0.8970
4.879000 0.8970 0.8970 0.8970 0.8970 0.8970
4.913047 0.8970 0.9010 0.9010 0.9020 0.9020
4.947000 0.9010 0.9010 0.8970 0.8990 0.8990
4.981047 0.9020 0.9020 0.9020 0.9060 0.9040
5.015000 0.9040 0.9040 0.9040 0.9020 0.9020
5.049047 0.9020 0.9010 0.9010 0.8990 0.8960
5.083000 0.8960 0.8940 0.8940 0.8960 0.9010
5.117047 0.9010 0.8970 0.8970 0.8970 0.8970
5.151000 0.8990 0.8990 0.9020 0.9020 0.9010
5.185047 0.9010 0.8990 0.8960 0.8900 0.8890
5.219000 0.8890 0.8900 0.8990 0.8990 0.9010
5.253047 0.9010 0.9010 0.9010 0.9010 0.9010
5.287000 0.9010 0.9010 0.9010 0.9010 0.9010
5.321047 0.9010 0.9010 0.9010 0.9010 0.9010
5.355000 0.9010 0.8990 0.8990 0.8970 0.8970
5.389047 0.8990 0.8990 0.9020 0.9060 0.9080
5.423000 0.9080 0.9080 0.9040 0.9020 0.8970
5.457047 0.8970 0.8900 0.8900 0.8960 0.8990
5.491000 0.9020 0.9020 0.8990 0.8970 0.8940
5.525047 0.8900 0.8890 0.8870 0.8870 0.8870
5.560000 0.8850 0.8850 0.8870 0.8890 0.8900
5.594047 0.8920 0.8920 0.8940 0.8940 0.8940
5.628000 0.8920 0.8900 0.8890 0.8890 0.8870
5.662047 0.8850 0.8820 0.8800 0.8790 0.8790
5.696000 0.8790 0.8800 0.8800 0.8800 0.8800
5.730047 0.8800 0.8800 0.8790 0.8790 0.8790
5.764000 0.8790 0.8770 0.8770 0.8750 0.8750
5.798047 0.8730 0.8720 0.8720 0.8680 0.8670
5.832000 0.8670 0.8680 0.8720 0.8720 0.8720
5.866047 0.8680 0.8650 0.8620 0.8620 0.8680
5.900000 0.8680 0.8680 0.8680 0.8680 0.8680
5.934047 0.8680 0.8680 0.8680 0.8680 0.8680
5.968000 0.8680 0.8680 0.8680 0.8680 0.8680
6.002047 0.8620 0.8620 0.8630 0.8630 0.8650
6.036000 0.8650 0.8650 0.8630 0.8620 0.8630
6.070047 0.8630 0.8620 0.8600 0.8580 0.8560
6.104000 0.8500 0.8390 0.8140 0.7810 0.7410
6.138047 0.6950 0.6470 0.5860 0.5240 0.4710
6.172000 0.4650 0.4650 0.4900 0.5790 0.6500
6.206047 0.6550 0.6550 0.6490 0.6200 0.5910
6.240000 0.5530 0.5090 0.4590 0.4120 0.3500
6.274047 0.3420 0.3420 0.3500 0.4030 0.4440
6.308000 0.4820 0.5160 0.5450 0.5740 0.5970
6.342047 0.6200 0.6400 0.6570 0.6720 0.6880
6.376000 0.7000 0.7080 0.7150 0.7240 0.7350
6.410047 0.7460 0.7560 0.7610 0.7710 0.7780
6.444000 0.7800 0.7830 0.7850 0.7850 0.7850
6.478047 0.7870 0.7900 0.7950 0.8000 0.8050
6.512000 0.8050 0.8100 0.8120 0.8170 0.8190
6.546047 0.8190 0.8190 0.8210 0.8210 0.8190
6.580000 0.8170 0.8160 0.8160 0.8140 0.8160
6.614047 0.8160 0.8160 0.8140 0.8120 0.8120
6.649000 0.8070 0.8020 0.8000 0.7950 0.7850
6.683047 0.7700 0.7520 0.7350 0.7150 0.6910
6.717000 0.6540 0.5860 0.5290 0.5090 0.5090
6.751047 0.5190 0.5630 0.5960 0.6090 0.6230
6.785000 0.6280 0.6260 0.6260 0.6130 0.6010
6.819047 0.5920 0.5840 0.5770 0.5680 0.5670
6.853000 0.5670 0.5670 0.5650 0.5650 0.5630
6.887047 0.5620 0.5480 0.5290 0.5000 0.4710
6.921000 0.4410 0.4370 0.4410 0.4650 0.4900
6.955047 0.5190 0.5600 0.5920 0.6210 0.6490
6.989000 0.6720 0.6930 0.7120 0.7250 0.7350
7.023047 0.7420 0.7440 0.7490 0.7520 0.7560
7.057000 0.7610 0.7680 0.7710 0.7780 0.7810
7.091047 0.7810 0.7810 0.7810 0.7810 0.7780
7.125000 0.7700 0.7370 0.7180 0.6930 0.6910
7.159047 0.6930 0.7080 0.7290 0.7510 0.7700
7.193000 0.7780 0.7780 0.7800 0.7780 0.7540
7.227047 0.7300 0.7000 0.6760 0.6660 0.6590
7.261000 0.6590 0.6550 0.6450 0.6280 0.5910
7.295047 0.5860 0.5840 0.5890 0.6250 0.6520
7.329000 0.6790 0.6910 0.7010 0.7200 0.7250
7.363047 0.7420 0.7490 0.7580 0.7590 0.7590
7.397000 0.7580 0.7510 0.7420 0.7250 0.7180
7.431047 0.7150 0.7100 0.7030 0.7010 0.6960
7.465000 0.6950 0.6960 0.6960 0.6980 0.6980
7.499047 0.6910 0.6890 0.6880 0.6890 0.6910
7.533000 0.6950 0.6960 0.6880 0.6840 0.6720
7.567047 0.6500 0.6320 0.6260 0.6260 0.6400
7.601000 0.6600 0.6810 0.7000 0.7050 0.7130
7.635047 0.7180 0.7180 0.7130 0.7130 0.7060
7.669000 0.7010 0.6980 0.6890 0.6790 0.6640
7.703047 0.6500 0.6370 0.6110 0.5940 0.5700
7.737000 0.5680 0.5700 0.5860 0.6090 0.6300
7.771047 0.6500 0.6760 0.7000 0.7170 0.7290
7.806000 0.7410 0.7490 0.7580 0.7640 0.7700
7.840047 0.7710 0.7780 0.7810 0.7830 0.7850
7.874000 0.7850 0.7830 0.7810 0.7800 0.7800
7.908047 0.7750 0.7700 0.7640 0.7610 0.7540
7.942000 0.7460 0.7340 0.7100 0.6810 0.6450
7.976047 0.5940 0.5580 0.5340 0.5140 0.5020
8.010000 0.4800 0.4710 0.4710 0.4800 0.5090
8.044047 0.5340 0.5530 0.5700 0.5840 0.5960
8.078000 0.6090 0.6200 0.6320 0.6450 0.6590
8.112047 0.6740 0.6830 0.6880 0.6880 0.6880
8.146000 0.6840 0.6790 0.6710 0.6550 0.6450
8.180047 0.6210 0.5940 0.5650 0.5360 0.4970
8.214000 0.4730 0.4510 0.4480 0.4480 0.4510
8.248047 0.4900 0.5090 0.5340 0.5550 0.5650
8.282000 0.5770 0.5770 0.5740 0.5700 0.5700
8.316047 0.5720 0.5750 0.5800 0.5890 0.5970
8.350000 0.6110 0.6250 0.6350 0.6420 0.6490
8.384047 0.6550 0.6640 0.6740 0.6790 0.6860
8.418000 0.6950 0.6960 0.7050 0.7100 0.7120
8.452047 0.7120 0.7080 0.7080 0.7080 0.7080
8.486000 0.7100 0.7120 0.7130 0.7130 0.7150
8.520047 0.7150 0.7170 0.7180 0.7180 0.7200
8.554000 0.7200 0.7240 0.7250 0.7290 0.7320
8.588047 0.7370 0.7370 0.7390 0.7390 0.7370
8.622000 0.7370 0.7370 0.7340 0.7320 0.7300
8.656047 0.7290 0.7270 0.7180 0.7100 0.6950
8.690000 0.6760 0.6550 0.6260 0.5990 0.5700
8.724047 0.5450 0.5280 0.5110 0.5070 0.5070
8.758000 0.5110 0.5310 0.5650 0.5990 0.6280
8.792047 0.6400 0.6660 0.6860 0.6960 0.7060
8.826000 0.7120 0.7130 0.7150 0.7150 0.7170
8.860047 0.7180 0.7180 0.7180 0.7220 0.7270
8.895000 0.7320 0.7340 0.7340 0.7320 0.7320
8.929047 0.7320 0.7300 0.7300 0.7290 0.7290
8.963000 0.7290 0.7220 0.7130 0.7100 0.7050
8.997047 0.7000 0.6980 0.7000 0.7030 0.7060
9.031000 0.7080 0.7120 0.7150 0.7180 0.7220
9.065047 0.7270 0.7290 0.7300 0.7320 0.7320
9.099000 0.7300 0.7240 0.7060 0.6830 0.6550
9.133047 0.6200 0.6110 0.6110 0.6300 0.6600
9.167000 0.6830 0.6950 0.7010 0.7060 0.7060
9.201047 0.7080 0.7080 0.7080 0.7080 0.7080
9.235000 0.7100 0.7100 0.7100 0.7120 0.7120
9.269047 0.7170 0.7180 0.7180 0.7170 0.7150
9.303000 0.7130 0.7120 0.7130 0.7150 0.7170
9.337047 0.7180 0.7180 0.7180 0.7180 0.7180
9.371000 0.7180 0.7170 0.7170 0.7150 0.7170
9.405047 0.7170 0.7180 0.7200 0.7220 0.7220
9.439000 0.7240 0.7240 0.7240 0.7250 0.7250
9.473047 0.7290 0.7300 0.7300 0.7320 0.7300
9.507000 0.7290 0.7270 0.7220 0.7150 0.7050
9.541047 0.6980 0.6960 0.6950 0.6950 0.6960
9.575000 0.6960 0.6980 0.6980 0.6980 0.6760
9.609047 0.6500 0.6370 0.6330 0.6400 0.6670
9.643000 0.6910 0.7060 0.7220 0.7290 0.7300
9.677047 0.7290 0.7240 0.7180 0.7120 0.7100
9.711000 0.7120 0.7250 0.7300 0.7340 0.7370
9.745047 0.7420 0.7390 0.7270 0.7050 0.6790
9.779000 0.6430 0.6300 0.6140 0.6130 0.6160
9.813047 0.6710 0.7030 0.7240 0.7350 0.7460
9.847000 0.7510 0.7560 0.7580 0.7640 0.7700
9.881047 0.7710 0.7750 0.7780 0.7810 0.7810
9.915000 0.7830 0.7850 0.7850 0.7870 0.7880
9.949047 0.7880 0.7920 0.7950 0.7980 0.7980
9.983000 0.8000 0.8000 0.8040 0.8040 0.8000
10.017047 0.7930 0.7850 0.7760 0.7660 0.7520
10.052000 0.7300 0.7000 0.6980 0.6960 0.7000
10.086047 0.7200 0.7340 0.7460 0.7510 0.7580
10.120000 0.7540 0.7510 0.7460 0.7370 0.7350
10.154047 0.7370 0.7420 0.7540 0.7640 0.7710
10.188000 0.7780 0.7810 0.7880 0.7950 0.8050
10.222047 0.8090 0.8090 0.8090 0.8090 0.8090
10.256000 0.8070 0.8070 0.8050 0.8050 0.8070
10.290047 0.8070 0.8100 0.8100 0.8100 0.8100
10.324000 0.8100 0.8100 0.8100 0.8090 0.8090
10.358047 0.8090 0.8090 0.8100 0.8120 0.8100
10.392000 0.8090 0.8040 0.8020 0.7980 0.7970
10.426047 0.7920 0.7850 0.7810 0.7800 0.7780
10.460000 0.7760 0.7760 0.7800 0.7830 0.7870
10.494047 0.7880 0.7880 0.7900 0.7920 0.7930
10.528000 0.7930 0.7950 0.7930 0.7920 0.7800
10.562047 0.7640 0.7460 0.7270 0.7080 0.6930
10.596000 0.6780 0.6740 0.6760 0.6860 0.6930
10.630047 0.7080 0.7290 0.7460 0.7540 0.7610
10.664000 0.7630 0.7700 0.7710 0.7750 0.7780
10.698047 0.7800 0.7800 0.7810 0.7830 0.7830
10.732000 0.7850 0.7850 0.7850 0.7850 0.7850
10.766047 0.7850 0.7850 0.7830 0.7830 0.7830
10.800000 0.7850 0.7850 0.7830 0.7830 0.7810
10.834047 0.7830 0.7830 0.7810 0.7800 0.7800
10.868000 0.7800 0.7830 0.7830 0.7810 0.7800
10.902047 0.7780 0.7760 0.7760 0.7760 0.7780
10.936000 0.7780 0.7780 0.7780 0.7800 0.7780
10.970047 0.7780 0.7750 0.7730 0.7710 0.7710
11.004000 0.7700 0.7700 0.7680 0.7680 0.7660
11.038047 0.7660 0.7660 0.7680 0.7730 0.7760
11.072000 0.7780 0.7780 0.7810 0.7810 0.7810
11.106047 0.7800 0.7800 0.7800 0.7780 0.7780
11.140000 0.7780 0.7780 0.7780 0.7760 0.7750
11.174047 0.7750 0.7730 0.7730 0.7710 0.7710
11.209000 0.7710 0.7710 0.7710 0.7710 0.7730
11.243047 0.7750 0.7760 0.7780 0.7780 0.7780
11.277000 0.7780 0.7780 0.7750 0.7750 0.7750
11.311047 0.7730 0.7710 0.7710 0.7710 0.7700
11.345000 0.7700 0.7680 0.7630 0.7590 0.7580
11.379047 0.7540 0.7520 0.7520 0.7510 0.7510
11.413000 0.7520 0.7540 0.7560 0.7580 0.7580
11.447047 0.7590 0.7590 0.7590 0.7590 0.7580
11.481000 0.7580 0.7520 0.7520 0.7510 0.7490
11.515047 0.7420 0.7350 0.7250 0.7170 0.7060
11.549000 0.6960 0.6890 0.6880 0.6880 0.6890
11.583047 0.6960 0.7060 0.7120 0.7130 0.7170
11.617000 0.7180 0.7200 0.7220 0.7220 0.7250
11.651047 0.7290 0.7270 0.7170 0.7100 0.7010
11.685000 0.6960 0.6910 0.6890 0.6910 0.6960
11.719047 0.6980 0.6980 0.7010 0.7050 0.7120
11.753000 0.7180 0.7220 0.7290 0.7370 0.7440
11.787047 0.7490 0.7520 0.7540 0.7580 0.7610
11.821000 0.7640 0.7660 0.7680 0.7700 0.7710
11.855047 0.7730 0.7730 0.7710 0.7710 0.7700
11.889000 0.7680 0.7610 0.7560 0.7520 0.7470
11.923047 0.7420 0.7320 0.7250 0.7200 0.7130
11.957000 0.7080 0.7050 0.7010 0.6980 0.6930
11.991047 0.6880 0.6790 0.6660 0.6540 0.6350
12.025000 0.6210 0.6140 0.6060 0.5990 0.5940
12.059047 0.5910 0.5890 0.5890 0.5890 0.5910
12.093000 0.5960 0.5990 0.6010 0.6060 0.6090
12.127047 0.6160 0.6230 0.6330 0.6450 0.6500
12.161000 0.6600 0.6720 0.6790 0.6810 0.6830
12.195047 0.6880 0.7010 0.7150 0.7200 0.7300
12.229000 0.7350 0.7420 0.7460 0.7490 0.7490
12.263047 0.7510 0.7510 0.7520 0.7580 0.7580
12.298000 0.7610 0.7680 0.7700 0.7710 0.7710
12.332047 0.7730 0.7730 0.7710 0.7710 0.7700
12.366000 0.7680 0.7640 0.7540 0.7420 0.7270
12.400047 0.7250 0.7150 0.7050 0.6980 0.6960
12.434000 0.6980 0.7050 0.7130 0.7220 0.7290
12.468047 0.7350 0.7420 0.7470 0.7520 0.7580
12.502000 0.7610 0.7680 0.7710 0.7760 0.7780
12.536047 0.7800 0.7810 0.7830 0.7850 0.7880
12.570000 0.7880 0.7880 0.7880 0.7870 0.7870
12.604047 0.7870 0.7870 0.7870 0.7850 0.7850
12.638000 0.7830 0.7810 0.7800 0.7780 0.7730
12.672047 0.7680 0.7660 0.7630 0.7610 0.7590
12.706000 0.7610 0.7640 0.7700 0.7750 0.7780
12.740047 0.7810 0.7850 0.7880 0.7920 0.7950
12.774000 0.7980 0.8000 0.8020 0.8050 0.8090
12.808047 0.8100 0.8140 0.8170 0.8190 0.8190
12.842000 0.8190 0.8210 0.8220 0.8220 0.8220
12.876047 0.8220 0.8210 0.8210 0.8190 0.8140
12.910000 0.8120 0.8090 0.8020 0.7950 0.7830
12.944047 0.7730 0.7630 0.7490 0.7350 0.7200
12.978000 0.7060 0.6950 0.6860 0.6790 0.6740
13.012047 0.6690 0.6660 0.6640 0.6660 0.6710
13.046000 0.6740 0.6810 0.6950 0.7050 0.7120
13.080047 0.7130 0.7200 0.7240 0.7270 0.7290
13.114000 0.7320 0.7370 0.7420 0.7440 0.7460
13.148047 0.7490 0.7490 0.7490 0.7510 0.7510
13.182000 0.7520 0.7520 0.7510 0.7510 0.7510
13.216047 0.7470 0.7470 0.7490 0.7490 0.7490
13.250000 0.7490 0.7470 0.7470 0.7470 0.7490
13.284047 0.7510 0.7490 0.7470 0.7470 0.7470
13.318000 0.7470 0.7470 0.7510 0.7510 0.7490
13.352047 0.7490 0.7510 0.7520 0.7520 0.7510
13.386000 0.7510 0.7490 0.7460 0.7470 0.7470
13.420047 0.7490 0.7490 0.7470 0.7470 0.7460
13.455000 0.7440 0.7410 0.7390 0.7390 0.7340
13.489047 0.7300 0.7250 0.7220 0.7200 0.7180
13.523000 0.7130 0.7100 0.7080 0.7030 0.7010
13.557047 0.7000 0.6960 0.6930 0.6890 0.6860
13.591000 0.6840 0.6830 0.6790 0.6760 0.6740
13.625047 0.6740 0.6710 0.6690 0.6670 0.6670
13.659000 0.6670 0.6670 0.6670 0.6690 0.6690
13.693047 0.6710 0.6710 0.6720 0.6720 0.6740
13.727000 0.6760 0.6790 0.6840 0.6860 0.6890
13.761047 0.6950 0.6980 0.7010 0.7050 0.7080
13.795000 0.7120 0.7150 0.7220 0.7290 0.7340
13.829047 0.7350 0.7390 0.7410 0.7460 0.7490
13.863000 0.7510 0.7520 0.7540 0.7580 0.7610
13.897047 0.7640 0.7660 0.7700 0.7730 0.7760
13.931000 0.7800 0.7810 0.7810 0.7830 0.7850
13.965047 0.7870 0.7900 0.7930 0.7980 0.8000
13.999000 0.8040 0.8050 0.8090 0.8140 0.8170
14.033047 0.8190 0.8210 0.8240 0.8290 0.8310
14.067000 0.8310 0.8310 0.8290 0.8270 0.8240
14.101047 0.8190 0.8160 0.8070 0.7970 0.7830
14.135000 0.7700 0.7560 0.7420 0.7340 0.7270
14.169047 0.7240 0.7200 0.7180 0.7180 0.7200
14.203000 0.7220 0.7300 0.7390 0.7460 0.7520
14.237047 0.7580 0.7610 0.7660 0.7710 0.7760
14.271000 0.7850 0.7880 0.7920 0.7950 0.7980
14.305047 0.8020 0.8050 0.8090 0.8100 0.8140
14.339000 0.8160 0.8190 0.8210 0.8220 0.8220
14.373047 0.8220 0.8240 0.8260 0.8290 0.8290
14.407000 0.8310 0.8310 0.8330 0.8330 0.8340
14.441047 0.8340 0.8360 0.8360 0.8360 0.8380
14.475000 0.8380 0.8380 0.8380 0.8380 0.8380
14.509047 0.8380 0.8390 0.8390 0.8390 0.8410
14.544000 0.8430 0.8430 0.8430 0.8430 0.8440
14.578047 0.8440 0.8430 0.8410 0.8410 0.8390
14.612000 0.8390 0.8390 0.8390 0.8430 0.8430
14.646047 0.8430 0.8430 0.8430 0.8410 0.8410
14.680000 0.8390 0.8380 0.8340 0.8340 0.8330
14.714047 0.8330 0.8340 0.8360 0.8360 0.8340
14.748000 0.8310 0.8290 0.8270 0.8260 0.8270
14.782047 0.8270 0.8270 0.8270 0.8240 0.8220
14.816000 0.8210 0.8220 0.8220 0.8210 0.8210
14.850047 0.8170 0.8140 0.8120 0.8100 0.8100
14.884000 0.8050 0.8040 0.8020 0.8020 0.8000
14.918047 0.7980 0.7930 0.7920 0.7880 0.7850
14.952000 0.7810 0.7730 0.7640 0.7610 0.7590
14.986047 0.7580 0.7540 0.7520 0.7490 0.7460
15.020000 0.7410 0.7370 0.7320 0.7300 0.7290
15.054047 0.7250 0.7180 0.7150 0.7120 0.7100
15.088000 0.7080 0.7050 0.7010 0.7000 0.6980
15.122047 0.6910 0.6840 0.6810 0.6790 0.6760
15.156000 0.6740 0.6740 0.6760 0.6780 0.6810
15.190047 0.6890 0.6950 0.7000 0.7060 0.7120
15.224000 0.7170 0.7200 0.7220 0.7240 0.7270
15.258047 0.7320 0.7350 0.7410 0.7470 0.7490
15.292000 0.7510 0.7520 0.7520 0.7540 0.7540
15.326047 0.7580 0.7580 0.7580 0.7580 0.7580
15.360000 0.7580 0.7580 0.7580 0.7580 0.7580
15.394047 0.7580 0.7580 0.7560 0.7520 0.7510
15.428000 0.7490 0.7470 0.7460 0.7460 0.7460
15.462047 0.7440 0.7420 0.7420 0.7390 0.7340
15.496000 0.7320 0.7300 0.7300 0.7340 0.7340
15.530047 0.7340 0.7320 0.7320 0.7300 0.7300
15.564000 0.7290 0.7270 0.7240 0.7220 0.7200
15.598047 0.7200 0.7240 0.7240 0.7220 0.7200
15.632000 0.7180 0.7170 0.7150 0.7150 0.7130
15.666047 0.7120 0.7130 0.7130 0.7120 0.7100
15.701000 0.7060 0.7060 0.7050 0.7050 0.7030
15.735047 0.7000 0.7000 0.6960 0.6910 0.6890
15.769000 0.6910 0.6910 0.6890 0.6890 0.6880
15.803047 0.6860 0.6830 0.6830 0.6790 0.6790
15.837000 0.6780 0.6760 0.6710 0.6670 0.6640
15.871047 0.6620 0.6640 0.6670 0.6670 0.6670
15.905000 0.6660 0.6620 0.6600 0.6570 0.6550
15.939047 0.6540 0.6540 0.6520 0.6520 0.6520
15.973000 0.6490 0.6450 0.6470 0.6420
##END=
