##TITLE=Toluenesulfonamide, N-ethyl-, (mixture of o- and p-)
##JCAMP-DX=4.24
##DATA TYPE=INFRARED SPECTRUM
##CLASS=COBLENTZ
##ORIGIN=DOW CHEMICAL COMPANY
##OWNER=Copyright (C) 1987 by the Coblentz Society
Collection (C) 2018 copyright by the U.S. Secretary of Commerce
on behalf of the United States of America. All rights reserved.
##DATE=1970/01/19
##NAMES=SANTICIZER 8 (MONSANTO)
##MOLFORM=C9 H13 N O2 S
##SOURCE REFERENCE=COBLENTZ NO. 9651
##$NIST ID=B6009651
##$NIST SOURCE=COBLENTZ
##$NIST IMAGE=cob9651
##SPECTROMETER/DATA SYSTEM=DOW FOREPRISM-GRATING
##INSTRUMENT PARAMETERS=BLAZED AT 3.5, 12.0, 20.0 MICRON AND CHANGED AT 5.0, 7.5, 14.9 MICRON
##STATE=SOLUTION (10% CCl4 FOR 2.7-26 MICRON)
##PATH LENGTH=0.011 CM
$$SPECTRAL CONTAMINATION DUE TO CCl4 AROUND 1550, 1210, 1000, 720-830 CM^-^1
##SAMPLING PROCEDURE=TRANSMISSION
##RESOLUTION=2
##DATA PROCESSING=DIGITIZED BY COBLENTZ SOCIETY (BATCH II) FROM HARD COPY
##XUNITS=1/CM
##YUNITS=TRANSMITTANCE
##XFACTOR=1.0
##YFACTOR=1
##FIRSTX=388
##LASTX=3796
##FIRSTY=0.5773
##MAXX=3796
##MINX=388
##MAXY=0.8805
##MINY=0
##NPOINTS=3409
##XYDATA=(X++(Y..Y))
388.000000 0.5773 0.5779 0.5783 0.5784 0.5784
393.000000 0.5785 0.5785 0.5786 0.5787 0.5787
398.000000 0.5788 0.5786 0.5783 0.5780 0.5777
403.000000 0.5775 0.5772 0.5740 0.5766 0.5763
408.000000 0.5760 0.5757 0.5754 0.5748 0.5743
413.000000 0.5737 0.5731 0.5726 0.5720 0.5714
418.000000 0.5709 0.5703 0.5695 0.5687 0.5679
423.000000 0.5672 0.5664 0.5656 0.5648 0.5641
428.000000 0.5633 0.5619 0.5605 0.5591 0.5577
433.000000 0.5563 0.5549 0.5534 0.5520 0.5506
438.000000 0.5492 0.5478 0.5464 0.5449 0.5435
443.000000 0.5420 0.5404 0.5389 0.5374 0.5358
448.000000 0.5343 0.5328 0.5312 0.5297 0.5282
453.000000 0.5266 0.5251 0.5232 0.5212 0.5191
458.000000 0.5170 0.5150 0.5129 0.5109 0.5088
463.000000 0.5067 0.5042 0.5010 0.4979 0.4948
468.000000 0.4917 0.4886 0.4854 0.4823 0.4792
473.000000 0.4761 0.4728 0.4691 0.4653 0.4615
478.000000 0.4578 0.4540 0.4516 0.4504 0.4500
483.000000 0.4496 0.4500 0.4506 0.4521 0.4552
488.000000 0.4584 0.4616 0.4647 0.4682 0.4720
493.000000 0.4759 0.4797 0.4833 0.4865 0.4896
498.000000 0.4928 0.4971 0.5023 0.5090 0.5181
503.000000 0.5256 0.5322 0.5368 0.5388 0.5401
508.000000 0.5401 0.5401 0.5391 0.5391 0.5384
513.000000 0.5371 0.5357 0.5344 0.5330 0.5316
518.000000 0.5301 0.5287 0.5266 0.5242 0.5218
523.000000 0.5194 0.5170 0.5146 0.5121 0.5093
528.000000 0.5065 0.5036 0.5005 0.4975 0.4944
533.000000 0.4906 0.4850 0.4786 0.4709 0.4551
538.000000 0.4298 0.4056 0.3813 0.3571 0.3329
543.000000 0.3215 0.3142 0.3101 0.3066 0.2801
548.000000 0.2490 0.2179 0.1867 0.1747 0.1806
553.000000 0.1876 0.2204 0.2532 0.2860 0.3188
558.000000 0.3516 0.3750 0.3750 0.3740 0.3556
563.000000 0.3403 0.3250 0.3096 0.2943 0.2790
568.000000 0.2637 0.2483 0.2330 0.2238 0.2211
573.000000 0.2194 0.2202 0.2222 0.2283 0.2345
578.000000 0.2406 0.2455 0.2457 0.2457 0.2414
583.000000 0.2312 0.2211 0.2110 0.2008 0.1907
588.000000 0.1806 0.1608 0.1394 0.1181 0.1017
593.000000 0.1021 0.1027 0.1038 0.1151 0.1298
598.000000 0.1446 0.1696 0.2387 0.3078 0.3741
603.000000 0.3909 0.4075 0.4171 0.4257 0.4360
608.000000 0.4478 0.4537 0.4591 0.4645 0.4695
613.000000 0.4741 0.4787 0.4825 0.4859 0.4892
618.000000 0.4926 0.4946 0.4965 0.4982 0.4999
623.000000 0.5016 0.5043 0.5072 0.5125 0.5191
628.000000 0.5313 0.5502 0.5604 0.5677 0.5724
633.000000 0.5748 0.5755 0.5757 0.5755 0.5749
638.000000 0.5740 0.5730 0.5711 0.5683 0.5640
643.000000 0.5563 0.5478 0.5296 0.5042 0.4788
648.000000 0.4534 0.4280 0.4026 0.3772 0.3518
653.000000 0.3327 0.3111 0.2944 0.2879 0.2855
658.000000 0.2845 0.2836 0.2832 0.2835 0.2822
663.000000 0.2858 0.2919 0.3063 0.3208 0.3353
668.000000 0.3497 0.3577 0.3611 0.3648 0.3688
673.000000 0.3726 0.3758 0.3788 0.3810 0.3830
678.000000 0.3827 0.3810 0.3566 0.2958 0.2350
683.000000 0.2077 0.2075 0.2231 0.2351 0.2471
688.000000 0.2591 0.2711 0.2830 0.2950 0.3070
693.000000 0.3190 0.3310 0.3430 0.3549 0.3669
698.000000 0.3795 0.3769 0.3762 0.3711 0.3348
703.000000 0.2985 0.2663 0.2616 0.2445 0.1965
708.000000 0.1484 0.1356 0.1358 0.2168 0.2725
713.000000 0.3158 0.3153 0.3137 0.3070 0.2914
718.000000 0.2759 0.2603 0.2447 0.2292 0.2136
723.000000 0.1980 0.1779 0.1562 0.1344 0.1127
728.000000 0.0910 0.0692 0.0475 0.0258 0.0040
733.000000 0.0001 0.0001 0.0001 0.0001 0.0001
738.000000 0.0001 0.0001 0.0001 0.0001 0.0001
743.000000 0.0001 0.0001 0.0001 0.0001 0.0001
748.000000 0.0001 0.0000 0.0000 0.0000 0.0000
753.000000 0.0000 0.0000 0.0000 0.0000 0.0000
758.000000 0.0000 0.0000 0.0000 0.0000 0.0000
763.000000 0.0000 0.0000 0.0000 0.0000 0.0000
768.000000 0.0000 0.0000 0.0000 0.0000 0.0000
773.000000 0.0000 0.0000 0.0000 0.0000 0.0000
778.000000 0.0000 0.0000 0.0000 0.0000 0.0001
783.000000 0.0001 0.0001 0.0001 0.0001 0.0001
788.000000 0.0001 0.0001 0.0001 0.0001 0.0001
793.000000 0.0001 0.0001 0.0001 0.0001 0.0001
798.000000 0.0001 0.0002 0.0002 0.0002 0.0002
803.000000 0.0002 0.0002 0.0002 0.0002 0.0002
808.000000 0.0002 0.0107 0.0279 0.0451 0.0623
813.000000 0.0794 0.0966 0.1138 0.1310 0.1481
818.000000 0.1653 0.1825 0.1997 0.2168 0.2340
823.000000 0.2512 0.2683 0.2855 0.3027 0.3199
828.000000 0.3421 0.3708 0.3852 0.3973 0.4097
833.000000 0.4159 0.4205 0.4245 0.4271 0.4298
838.000000 0.4324 0.4344 0.4353 0.4360 0.4331
843.000000 0.4316 0.4296 0.4274 0.4241 0.4214
848.000000 0.4192 0.4173 0.4156 0.4143 0.4133
853.000000 0.4123 0.4118 0.4109 0.4112 0.4114
858.000000 0.4116 0.4124 0.4135 0.4151 0.4171
863.000000 0.4196 0.4224 0.4251 0.4282 0.4322
868.000000 0.4473 0.4626 0.4778 0.4930 0.5082
873.000000 0.5235 0.5386 0.5494 0.5598 0.5698
878.000000 0.5797 0.5901 0.6016 0.6125 0.6216
883.000000 0.6307 0.6384 0.6453 0.6523 0.6570
888.000000 0.6612 0.6653 0.6684 0.6707 0.6731
893.000000 0.6748 0.6761 0.6775 0.6788 0.6792
898.000000 0.6793 0.6791 0.6794 0.6785 0.6782
903.000000 0.6775 0.6764 0.6753 0.6738 0.6717
908.000000 0.6695 0.6674 0.6648 0.6615 0.6577
913.000000 0.6528 0.6455 0.6378 0.6294 0.6211
918.000000 0.6137 0.6063 0.5982 0.5847 0.5710
923.000000 0.5573 0.5436 0.5300 0.5163 0.5026
928.000000 0.4889 0.4753 0.4616 0.4479 0.4342
933.000000 0.4184 0.4054 0.3934 0.3862 0.3789
938.000000 0.3725 0.3666 0.3619 0.3588 0.3555
943.000000 0.3572 0.3578 0.3584 0.3611 0.3664
948.000000 0.3740 0.3874 0.4045 0.4217 0.4389
953.000000 0.4560 0.4732 0.4903 0.5075 0.5246
958.000000 0.5418 0.5590 0.5679 0.5708 0.5724
963.000000 0.5731 0.5731 0.5731 0.5731 0.5729
968.000000 0.5727 0.5725 0.5724 0.5723 0.5722
973.000000 0.5731 0.5760 0.5797 0.5841 0.5891
978.000000 0.5949 0.6010 0.6072 0.6110 0.6130
983.000000 0.6138 0.6140 0.6151 0.6129 0.6119
988.000000 0.6102 0.6073 0.6045 0.6008 0.5961
993.000000 0.5910 0.5856 0.5812 0.5780 0.5763
998.000000 0.5757 0.5752 0.5755 0.5764 0.5797
1003.000000 0.5839 0.5882 0.5929 0.5977 0.6028
1008.000000 0.6073 0.6087 0.6078 0.5998 0.5917
1013.000000 0.5861 0.5864 0.6072 0.6340 0.6609
1018.000000 0.6877 0.6890 0.6906 0.6888 0.6857
1023.000000 0.6793 0.6729 0.6664 0.6600 0.6536
1028.000000 0.6471 0.6407 0.6341 0.6278 0.6240
1033.000000 0.6202 0.6168 0.6135 0.6100 0.6030
1038.000000 0.5948 0.5865 0.5797 0.5730 0.5675
1043.000000 0.5619 0.5567 0.5522 0.5476 0.5419
1048.000000 0.5343 0.5237 0.4967 0.4726 0.4484
1053.000000 0.4243 0.4001 0.3760 0.3518 0.3277
1058.000000 0.3035 0.2793 0.2552 0.2310 0.2172
1063.000000 0.2172 0.2190 0.2295 0.2437 0.2578
1068.000000 0.2720 0.2861 0.3003 0.3145 0.3286
1073.000000 0.3428 0.3569 0.3711 0.3853 0.3994
1078.000000 0.4136 0.4218 0.4213 0.4238 0.4186
1083.000000 0.4162 0.3982 0.3638 0.3293 0.2948
1088.000000 0.2603 0.2259 0.1914 0.1765 0.1815
1093.000000 0.1990 0.2164 0.2338 0.2512 0.2686
1098.000000 0.2736 0.2733 0.2727 0.2720 0.2722
1103.000000 0.2761 0.2849 0.2925 0.2982 0.3016
1108.000000 0.3030 0.3039 0.3045 0.3074 0.3039
1113.000000 0.3033 0.3024 0.3014 0.3005 0.2996
1118.000000 0.2897 0.2775 0.2653 0.2530 0.2408
1123.000000 0.2286 0.2163 0.2050 0.1987 0.1941
1128.000000 0.1899 0.1918 0.2047 0.2354 0.2661
1133.000000 0.2968 0.3006 0.3010 0.3019 0.2994
1138.000000 0.2884 0.2708 0.2532 0.2356 0.2180
1143.000000 0.2004 0.1828 0.1652 0.1476 0.1300
1148.000000 0.1124 0.0948 0.0677 0.0163 0.0084
1153.000000 0.0031 0.0017 0.0015 0.0015 0.0015
1158.000000 0.0016 0.0022 0.0028 0.0052 0.0127
1163.000000 0.0191 0.0290 0.0390 0.0472 0.0600
1168.000000 0.1030 0.1443 0.1857 0.2270 0.2684
1173.000000 0.3097 0.3511 0.3924 0.4338 0.4751
1178.000000 0.4977 0.4984 0.4991 0.5029 0.5229
1183.000000 0.5429 0.5629 0.5839 0.5955 0.5982
1188.000000 0.5993 0.5990 0.5970 0.5907 0.5827
1193.000000 0.5761 0.5696 0.5645 0.5611 0.5606
1198.000000 0.5607 0.5618 0.5694 0.5778 0.5862
1203.000000 0.5917 0.5920 0.5923 0.5925 0.5928
1208.000000 0.5936 0.5953 0.5993 0.6036 0.6069
1213.000000 0.6101 0.6132 0.6159 0.6185 0.6212
1218.000000 0.6237 0.6261 0.6285 0.6309 0.6324
1223.000000 0.6334 0.6344 0.6365 0.6351 0.6348
1228.000000 0.6336 0.6324 0.6309 0.6282 0.6237
1233.000000 0.6192 0.6147 0.6102 0.6057 0.6013
1238.000000 0.5968 0.5923 0.5878 0.5833 0.5788
1243.000000 0.5743 0.5704 0.5687 0.5681 0.5675
1248.000000 0.5675 0.5675 0.5675 0.5678 0.5683
1253.000000 0.5690 0.5702 0.5713 0.5727 0.5744
1258.000000 0.5759 0.5766 0.5766 0.5759 0.5742
1263.000000 0.5721 0.5670 0.5601 0.5529 0.5450
1268.000000 0.5357 0.5135 0.4871 0.4607 0.4342
1273.000000 0.4078 0.3814 0.3762 0.3782 0.3852
1278.000000 0.3879 0.3782 0.3665 0.3549 0.3433
1283.000000 0.3317 0.3213 0.3195 0.3175 0.3281
1288.000000 0.3387 0.3492 0.3598 0.3703 0.3730
1293.000000 0.3726 0.3712 0.3679 0.3371 0.3062
1298.000000 0.2754 0.2446 0.2138 0.1830 0.1752
1303.000000 0.1677 0.1603 0.1523 0.1396 0.1269
1308.000000 0.1114 0.0949 0.0731 0.0554 0.0457
1313.000000 0.0414 0.0385 0.0356 0.0343 0.0336
1318.000000 0.0338 0.0301 0.0340 0.0344 0.0348
1323.000000 0.0354 0.0365 0.0384 0.0423 0.0486
1328.000000 0.0550 0.0613 0.0676 0.0740 0.0803
1333.000000 0.0870 0.0945 0.1021 0.1082 0.1142
1338.000000 0.1222 0.1356 0.1601 0.1845 0.2090
1343.000000 0.2334 0.2540 0.2620 0.2738 0.2865
1348.000000 0.3039 0.3227 0.3415 0.3603 0.3791
1353.000000 0.3979 0.4167 0.4360 0.4478 0.4648
1358.000000 0.4814 0.4956 0.5137 0.5389 0.5551
1363.000000 0.5619 0.5670 0.5686 0.5700 0.5704
1368.000000 0.5702 0.5669 0.5640 0.5604 0.5566
1373.000000 0.5455 0.5251 0.5047 0.4843 0.4639
1378.000000 0.4436 0.4232 0.4148 0.4151 0.4161
1383.000000 0.4346 0.4517 0.4688 0.4858 0.5029
1388.000000 0.5168 0.5169 0.5210 0.5026 0.4926
1393.000000 0.4825 0.4725 0.4625 0.4524 0.4424
1398.000000 0.4324 0.4223 0.4123 0.4023 0.3914
1403.000000 0.3859 0.3817 0.3776 0.3735 0.3693
1408.000000 0.3652 0.3610 0.3569 0.3528 0.3486
1413.000000 0.3445 0.3404 0.3362 0.3321 0.3280
1418.000000 0.3238 0.3197 0.3156 0.3114 0.3074
1423.000000 0.3056 0.3037 0.3056 0.3065 0.3084
1428.000000 0.3104 0.3125 0.3175 0.3259 0.3342
1433.000000 0.3426 0.3510 0.3593 0.3677 0.3761
1438.000000 0.3845 0.3930 0.3950 0.3953 0.3951
1443.000000 0.3842 0.3740 0.3638 0.3536 0.3434
1448.000000 0.3332 0.3230 0.3128 0.3033 0.3007
1453.000000 0.3004 0.2983 0.3017 0.3040 0.3191
1458.000000 0.3379 0.3568 0.3756 0.3945 0.4133
1463.000000 0.4229 0.4251 0.4241 0.4229 0.4120
1468.000000 0.4011 0.3902 0.3794 0.3765 0.3770
1473.000000 0.4075 0.4258 0.4442 0.4626 0.4810
1478.000000 0.4993 0.5295 0.5626 0.5932 0.6023
1483.000000 0.6042 0.6060 0.6067 0.6089 0.6068
1488.000000 0.5915 0.5751 0.5587 0.5423 0.5361
1493.000000 0.5343 0.5517 0.5781 0.6045 0.6173
1498.000000 0.6177 0.6162 0.6163 0.6144 0.6125
1503.000000 0.6106 0.6086 0.6067 0.6048 0.6028
1508.000000 0.6009 0.5984 0.5956 0.5928 0.5901
1513.000000 0.5873 0.5844 0.5810 0.5776 0.5742
1518.000000 0.5708 0.5674 0.5637 0.5591 0.5545
1523.000000 0.5499 0.5453 0.5403 0.5347 0.5290
1528.000000 0.5234 0.5161 0.5076 0.4991 0.4906
1533.000000 0.4821 0.4719 0.4577 0.4419 0.4299
1538.000000 0.4226 0.4157 0.4099 0.4065 0.4032
1543.000000 0.4008 0.3987 0.3974 0.3965 0.3975
1548.000000 0.3991 0.4007 0.4022 0.4043 0.4089
1553.000000 0.4136 0.4196 0.4261 0.4326 0.4392
1558.000000 0.4464 0.4540 0.4616 0.4733 0.4847
1563.000000 0.4919 0.4961 0.4986 0.5003 0.5019
1568.000000 0.5050 0.5131 0.5255 0.5331 0.5362
1573.000000 0.5392 0.5404 0.5417 0.5426 0.5430
1578.000000 0.5424 0.5413 0.5398 0.5384 0.5369
1583.000000 0.5351 0.5333 0.5315 0.5291 0.5260
1588.000000 0.5214 0.5143 0.5077 0.4929 0.4767
1593.000000 0.4605 0.4612 0.4573 0.4595 0.4670
1598.000000 0.5035 0.5859 0.6682 0.6882 0.7127
1603.000000 0.7199 0.7249 0.7286 0.7310 0.7335
1608.000000 0.7360 0.7382 0.7403 0.7424 0.7445
1613.000000 0.7469 0.7494 0.7518 0.7543 0.7567
1618.000000 0.7594 0.7624 0.7654 0.7683 0.7713
1623.000000 0.7744 0.7775 0.7806 0.7837 0.7865
1628.000000 0.7890 0.7915 0.7935 0.7949 0.7962
1633.000000 0.7976 0.7988 0.7992 0.7996 0.8000
1638.000000 0.8004 0.8008 0.8008 0.8005 0.8003
1643.000000 0.8000 0.8000 0.8000 0.8000 0.8016
1648.000000 0.8043 0.8072 0.8104 0.8140 0.8181
1653.000000 0.8198 0.8212 0.8226 0.8237 0.8248
1658.000000 0.8259 0.8271 0.8280 0.8287 0.8294
1663.000000 0.8301 0.8307 0.8311 0.8315 0.8318
1668.000000 0.8322 0.8326 0.8329 0.8331 0.8332
1673.000000 0.8333 0.8334 0.8335 0.8337 0.8338
1678.000000 0.8338 0.8337 0.8337 0.8337 0.8336
1683.000000 0.8336 0.8335 0.8335 0.8335 0.8334
1688.000000 0.8334 0.8333 0.8331 0.8328 0.8326
1693.000000 0.8323 0.8321 0.8318 0.8316 0.8314
1698.000000 0.8312 0.8314 0.8322 0.8330 0.8339
1703.000000 0.8351 0.8364 0.8366 0.8368 0.8370
1708.000000 0.8372 0.8370 0.8366 0.8363 0.8360
1713.000000 0.8356 0.8351 0.8347 0.8343 0.8338
1718.000000 0.8334 0.8330 0.8325 0.8323 0.8320
1723.000000 0.8322 0.8329 0.8337 0.8344 0.8351
1728.000000 0.8360 0.8370 0.8380 0.8390 0.8400
1733.000000 0.8410 0.8419 0.8428 0.8437 0.8444
1738.000000 0.8448 0.8453 0.8457 0.8462 0.8466
1743.000000 0.8469 0.8471 0.8473 0.8475 0.8477
1748.000000 0.8479 0.8483 0.8487 0.8491 0.8492
1753.000000 0.8493 0.8494 0.8496 0.8497 0.8498
1758.000000 0.8499 0.8499 0.8499 0.8499 0.8500
1763.000000 0.8499 0.8498 0.8498 0.8497 0.8497
1768.000000 0.8496 0.8495 0.8495 0.8492 0.8487
1773.000000 0.8481 0.8476 0.8470 0.8465 0.8458
1778.000000 0.8445 0.8431 0.8418 0.8405 0.8395
1783.000000 0.8385 0.8376 0.8366 0.8357 0.8347
1788.000000 0.8338 0.8329 0.8322 0.8314 0.8312
1793.000000 0.8313 0.8314 0.8315 0.8316 0.8315
1798.000000 0.8313 0.8311 0.8309 0.8307 0.8305
1803.000000 0.8302 0.8298 0.8294 0.8290 0.8289
1808.000000 0.8288 0.8288 0.8287 0.8292 0.8300
1813.000000 0.8312 0.8325 0.8337 0.8348 0.8360
1818.000000 0.8371 0.8382 0.8386 0.8388 0.8389
1823.000000 0.8389 0.8390 0.8391 0.8392 0.8392
1828.000000 0.8391 0.8387 0.8383 0.8380 0.8376
1833.000000 0.8373 0.8370 0.8367 0.8364 0.8360
1838.000000 0.8356 0.8353 0.8351 0.8361 0.8372
1843.000000 0.8387 0.8400 0.8406 0.8412 0.8418
1848.000000 0.8423 0.8428 0.8433 0.8438 0.8443
1853.000000 0.8446 0.8449 0.8451 0.8454 0.8457
1858.000000 0.8459 0.8458 0.8458 0.8458 0.8457
1863.000000 0.8457 0.8457 0.8457 0.8455 0.8452
1868.000000 0.8450 0.8447 0.8445 0.8441 0.8438
1873.000000 0.8434 0.8430 0.8426 0.8422 0.8417
1878.000000 0.8408 0.8400 0.8391 0.8382 0.8374
1883.000000 0.8365 0.8357 0.8347 0.8335 0.8323
1888.000000 0.8311 0.8299 0.8287 0.8275 0.8263
1893.000000 0.8252 0.8242 0.8231 0.8221 0.8210
1898.000000 0.8199 0.8189 0.8182 0.8178 0.8175
1903.000000 0.8185 0.8178 0.8179 0.8187 0.8197
1908.000000 0.8206 0.8216 0.8226 0.8237 0.8247
1913.000000 0.8253 0.8256 0.8257 0.8255 0.8252
1918.000000 0.8249 0.8245 0.8241 0.8236 0.8236
1923.000000 0.8238 0.8240 0.8251 0.8258 0.8266
1928.000000 0.8280 0.8295 0.8310 0.8326 0.8364
1933.000000 0.8395 0.8417 0.8422 0.8424 0.8426
1938.000000 0.8428 0.8429 0.8429 0.8429 0.8430
1943.000000 0.8430 0.8430 0.8428 0.8424 0.8420
1948.000000 0.8415 0.8411 0.8407 0.8404 0.8400
1953.000000 0.8397 0.8398 0.8404 0.8410 0.8433
1958.000000 0.8460 0.8479 0.8497 0.8506 0.8514
1963.000000 0.8522 0.8531 0.8534 0.8536 0.8538
1968.000000 0.8540 0.8542 0.8543 0.8545 0.8547
1973.000000 0.8548 0.8549 0.8551 0.8552 0.8555
1978.000000 0.8558 0.8562 0.8565 0.8568 0.8571
1983.000000 0.8575 0.8578 0.8578 0.8578 0.8577
1988.000000 0.8576 0.8575 0.8574 0.8573 0.8573
1993.000000 0.8572 0.8571 0.8573 0.8579 0.8585
1998.000000 0.8592 0.8600 0.8613 0.8624 0.8635
2003.000000 0.8639 0.8644 0.8649 0.8654 0.8659
2008.000000 0.8664 0.8670 0.8676 0.8681 0.8686
2013.000000 0.8690 0.8694 0.8698 0.8703 0.8707
2018.000000 0.8711 0.8712 0.8714 0.8715 0.8717
2023.000000 0.8718 0.8720 0.8721 0.8723 0.8723
2028.000000 0.8724 0.8724 0.8725 0.8726 0.8727
2033.000000 0.8727 0.8728 0.8729 0.8730 0.8730
2038.000000 0.8731 0.8732 0.8733 0.8733 0.8734
2043.000000 0.8735 0.8736 0.8736 0.8737 0.8738
2048.000000 0.8739 0.8739 0.8740 0.8740 0.8741
2053.000000 0.8742 0.8743 0.8743 0.8743 0.8743
2058.000000 0.8743 0.8743 0.8743 0.8743 0.8744
2063.000000 0.8744 0.8744 0.8744 0.8744 0.8744
2068.000000 0.8744 0.8744 0.8744 0.8744 0.8745
2073.000000 0.8744 0.8744 0.8744 0.8744 0.8743
2078.000000 0.8743 0.8743 0.8743 0.8742 0.8742
2083.000000 0.8742 0.8742 0.8741 0.8741 0.8740
2088.000000 0.8740 0.8740 0.8740 0.8739 0.8739
2093.000000 0.8739 0.8739 0.8738 0.8738 0.8737
2098.000000 0.8737 0.8737 0.8737 0.8737 0.8737
2103.000000 0.8737 0.8737 0.8737 0.8737 0.8737
2108.000000 0.8738 0.8738 0.8738 0.8738 0.8738
2113.000000 0.8738 0.8738 0.8738 0.8738 0.8738
2118.000000 0.8739 0.8739 0.8739 0.8739 0.8739
2123.000000 0.8739 0.8739 0.8739 0.8739 0.8739
2128.000000 0.8740 0.8740 0.8740 0.8740 0.8740
2133.000000 0.8740 0.8740 0.8740 0.8740 0.8740
2138.000000 0.8741 0.8741 0.8741 0.8741 0.8742
2143.000000 0.8742 0.8743 0.8743 0.8744 0.8744
2148.000000 0.8745 0.8745 0.8745 0.8745 0.8746
2153.000000 0.8746 0.8747 0.8747 0.8748 0.8748
2158.000000 0.8749 0.8749 0.8750 0.8753 0.8757
2163.000000 0.8762 0.8768 0.8776 0.8784 0.8794
2168.000000 0.8805 0.8796 0.8787 0.8774 0.8761
2173.000000 0.8747 0.8734 0.8729 0.8724 0.8722
2178.000000 0.8720 0.8716 0.8713 0.8709 0.8706
2183.000000 0.8704 0.8702 0.8701 0.8700 0.8699
2188.000000 0.8698 0.8697 0.8696 0.8694 0.8692
2193.000000 0.8690 0.8688 0.8685 0.8683 0.8681
2198.000000 0.8679 0.8676 0.8674 0.8672 0.8670
2203.000000 0.8667 0.8665 0.8662 0.8660 0.8657
2208.000000 0.8654 0.8651 0.8648 0.8645 0.8642
2213.000000 0.8639 0.8636 0.8633 0.8630 0.8627
2218.000000 0.8624 0.8620 0.8617 0.8613 0.8609
2223.000000 0.8605 0.8601 0.8596 0.8592 0.8588
2228.000000 0.8584 0.8580 0.8576 0.8572 0.8568
2233.000000 0.8563 0.8559 0.8554 0.8550 0.8545
2238.000000 0.8540 0.8535 0.8530 0.8525 0.8520
2243.000000 0.8515 0.8510 0.8505 0.8500 0.8495
2248.000000 0.8490 0.8485 0.8480 0.8475 0.8470
2253.000000 0.8465 0.8460 0.8454 0.8449 0.8443
2258.000000 0.8438 0.8432 0.8427 0.8421 0.8416
2263.000000 0.8411 0.8406 0.8400 0.8394 0.8389
2268.000000 0.8384 0.8378 0.8373 0.8370 0.8367
2273.000000 0.8364 0.8361 0.8358 0.8355 0.8352
2278.000000 0.8349 0.8346 0.8343 0.8340 0.8337
2283.000000 0.8334 0.8331 0.8328 0.8325 0.8322
2288.000000 0.8319 0.8316 0.8314 0.8313 0.8301
2293.000000 0.8311 0.8310 0.8313 0.8316 0.8323
2298.000000 0.8331 0.8336 0.8342 0.8348 0.8354
2303.000000 0.8359 0.8365 0.8375 0.8385 0.8396
2308.000000 0.8407 0.8418 0.8430 0.8442 0.8454
2313.000000 0.8466 0.8478 0.8490 0.8502 0.8516
2318.000000 0.8531 0.8545 0.8559 0.8567 0.8576
2323.000000 0.8583 0.8591 0.8598 0.8606 0.8610
2328.000000 0.8614 0.8617 0.8621 0.8625 0.8629
2333.000000 0.8632 0.8636 0.8638 0.8640 0.8642
2338.000000 0.8645 0.8647 0.8649 0.8651 0.8653
2343.000000 0.8654 0.8655 0.8655 0.8656 0.8656
2348.000000 0.8656 0.8656 0.8656 0.8656 0.8656
2353.000000 0.8656 0.8656 0.8656 0.8656 0.8654
2358.000000 0.8652 0.8650 0.8648 0.8646 0.8644
2363.000000 0.8641 0.8639 0.8637 0.8635 0.8633
2368.000000 0.8631 0.8629 0.8627 0.8625 0.8623
2373.000000 0.8621 0.8619 0.8617 0.8616 0.8614
2378.000000 0.8612 0.8610 0.8609 0.8607 0.8605
2383.000000 0.8603 0.8602 0.8600 0.8598 0.8596
2388.000000 0.8595 0.8593 0.8591 0.8589 0.8588
2393.000000 0.8586 0.8584 0.8583 0.8582 0.8581
2398.000000 0.8581 0.8581 0.8581 0.8580 0.8580
2403.000000 0.8579 0.8579 0.8578 0.8578 0.8577
2408.000000 0.8577 0.8576 0.8576 0.8575 0.8575
2413.000000 0.8575 0.8575 0.8574 0.8574 0.8573
2418.000000 0.8596 0.8572 0.8572 0.8571 0.8571
2423.000000 0.8571 0.8571 0.8570 0.8570 0.8569
2428.000000 0.8569 0.8569 0.8569 0.8568 0.8568
2433.000000 0.8568 0.8568 0.8568 0.8568 0.8568
2438.000000 0.8568 0.8568 0.8568 0.8568 0.8568
2443.000000 0.8568 0.8568 0.8568 0.8568 0.8568
2448.000000 0.8568 0.8568 0.8568 0.8568 0.8568
2453.000000 0.8568 0.8568 0.8568 0.8568 0.8568
2458.000000 0.8568 0.8568 0.8568 0.8568 0.8568
2463.000000 0.8568 0.8569 0.8569 0.8569 0.8569
2468.000000 0.8569 0.8569 0.8569 0.8569 0.8569
2473.000000 0.8570 0.8572 0.8574 0.8576 0.8577
2478.000000 0.8579 0.8581 0.8583 0.8584 0.8586
2483.000000 0.8588 0.8590 0.8591 0.8593 0.8595
2488.000000 0.8597 0.8599 0.8601 0.8604 0.8607
2493.000000 0.8610 0.8614 0.8617 0.8620 0.8623
2498.000000 0.8626 0.8629 0.8632 0.8632 0.8633
2503.000000 0.8633 0.8634 0.8634 0.8635 0.8635
2508.000000 0.8636 0.8636 0.8636 0.8635 0.8635
2513.000000 0.8634 0.8634 0.8633 0.8633 0.8632
2518.000000 0.8632 0.8632 0.8632 0.8631 0.8631
2523.000000 0.8627 0.8624 0.8620 0.8617 0.8614
2528.000000 0.8611 0.8607 0.8604 0.8601 0.8598
2533.000000 0.8594 0.8591 0.8587 0.8584 0.8581
2538.000000 0.8578 0.8573 0.8569 0.8565 0.8561
2543.000000 0.8556 0.8552 0.8547 0.8543 0.8538
2548.000000 0.8534 0.8529 0.8525 0.8521 0.8517
2553.000000 0.8512 0.8508 0.8503 0.8499 0.8494
2558.000000 0.8490 0.8488 0.8486 0.8483 0.8481
2563.000000 0.8479 0.8477 0.8474 0.8472 0.8470
2568.000000 0.8468 0.8466 0.8464 0.8461 0.8459
2573.000000 0.8458 0.8458 0.8461 0.8465 0.8469
2578.000000 0.8473 0.8476 0.8480 0.8484 0.8488
2583.000000 0.8492 0.8496 0.8500 0.8505 0.8507
2588.000000 0.8510 0.8510 0.8511 0.8511 0.8511
2593.000000 0.8511 0.8511 0.8511 0.8511 0.8511
2598.000000 0.8511 0.8511 0.8512 0.8512 0.8512
2603.000000 0.8512 0.8512 0.8512 0.8512 0.8512
2608.000000 0.8512 0.8512 0.8513 0.8513 0.8513
2613.000000 0.8513 0.8514 0.8514 0.8514 0.8514
2618.000000 0.8515 0.8515 0.8516 0.8516 0.8516
2623.000000 0.8516 0.8517 0.8517 0.8518 0.8517
2628.000000 0.8517 0.8516 0.8516 0.8515 0.8515
2633.000000 0.8514 0.8514 0.8513 0.8513 0.8512
2638.000000 0.8512 0.8511 0.8511 0.8510 0.8510
2643.000000 0.8509 0.8509 0.8508 0.8508 0.8507
2648.000000 0.8506 0.8505 0.8504 0.8501 0.8498
2653.000000 0.8495 0.8493 0.8490 0.8488 0.8485
2658.000000 0.8483 0.8480 0.8478 0.8475 0.8473
2663.000000 0.8470 0.8468 0.8464 0.8461 0.8456
2668.000000 0.8452 0.8448 0.8444 0.8439 0.8435
2673.000000 0.8430 0.8426 0.8422 0.8418 0.8413
2678.000000 0.8409 0.8404 0.8400 0.8396 0.8392
2683.000000 0.8387 0.8383 0.8381 0.8380 0.8379
2688.000000 0.8378 0.8376 0.8375 0.8373 0.8372
2693.000000 0.8371 0.8370 0.8368 0.8367 0.8364
2698.000000 0.8362 0.8358 0.8355 0.8351 0.8348
2703.000000 0.8344 0.8340 0.8336 0.8333 0.8329
2708.000000 0.8326 0.8322 0.8319 0.8315 0.8312
2713.000000 0.8308 0.8305 0.8301 0.8298 0.8296
2718.000000 0.8295 0.8295 0.8296 0.8296 0.8297
2723.000000 0.8297 0.8298 0.8300 0.8302 0.8306
2728.000000 0.8310 0.8314 0.8318 0.8322 0.8327
2733.000000 0.8331 0.8335 0.8342 0.8349 0.8355
2738.000000 0.8362 0.8369 0.8376 0.8382 0.8389
2743.000000 0.8394 0.8400 0.8404 0.8408 0.8412
2748.000000 0.8416 0.8420 0.8424 0.8425 0.8426
2753.000000 0.8424 0.8423 0.8421 0.8419 0.8417
2758.000000 0.8416 0.8414 0.8413 0.8408 0.8403
2763.000000 0.8396 0.8389 0.8381 0.8374 0.8367
2768.000000 0.8360 0.8353 0.8346 0.8336 0.8326
2773.000000 0.8315 0.8304 0.8293 0.8282 0.8270
2778.000000 0.8259 0.8248 0.8237 0.8225 0.8214
2783.000000 0.8202 0.8191 0.8178 0.8165 0.8152
2788.000000 0.8139 0.8126 0.8113 0.8100 0.8087
2793.000000 0.8073 0.8060 0.8047 0.8034 0.8021
2798.000000 0.8008 0.7995 0.7982 0.7966 0.7950
2803.000000 0.7933 0.7916 0.7899 0.7882 0.7865
2808.000000 0.7848 0.7831 0.7814 0.7797 0.7780
2813.000000 0.7763 0.7746 0.7729 0.7712 0.7695
2818.000000 0.7678 0.7659 0.7640 0.7618 0.7597
2823.000000 0.7575 0.7554 0.7532 0.7511 0.7489
2828.000000 0.7468 0.7446 0.7424 0.7402 0.7381
2833.000000 0.7337 0.7293 0.7249 0.7206 0.7162
2838.000000 0.7119 0.7065 0.7012 0.6952 0.6893
2843.000000 0.6834 0.6775 0.6715 0.6656 0.6596
2848.000000 0.6537 0.6478 0.6419 0.6359 0.6300
2853.000000 0.6240 0.6181 0.6122 0.6063 0.6003
2858.000000 0.5944 0.5884 0.5825 0.5790 0.5755
2863.000000 0.5732 0.5709 0.5694 0.5679 0.5675
2868.000000 0.5672 0.5671 0.5686 0.5676 0.5681
2873.000000 0.5740 0.5800 0.5882 0.5965 0.6047
2878.000000 0.6130 0.6212 0.6295 0.6377 0.6460
2883.000000 0.6507 0.6554 0.6576 0.6598 0.6612
2888.000000 0.6627 0.6634 0.6641 0.6642 0.6644
2893.000000 0.6642 0.6633 0.6635 0.6631 0.6622
2898.000000 0.6613 0.6595 0.6578 0.6525 0.6473
2903.000000 0.6421 0.6369 0.6316 0.6264 0.6212
2908.000000 0.6160 0.6107 0.6055 0.6002 0.5950
2913.000000 0.5898 0.5846 0.5793 0.5741 0.5689
2918.000000 0.5637 0.5584 0.5532 0.5479 0.5427
2923.000000 0.5375 0.5323 0.5270 0.5218 0.5165
2928.000000 0.5113 0.5090 0.5067 0.5066 0.5057
2933.000000 0.5184 0.5303 0.5460 0.5617 0.5773
2938.000000 0.5930 0.6038 0.6147 0.6141 0.6136
2943.000000 0.6131 0.6173 0.6117 0.6107 0.6093
2948.000000 0.6080 0.6055 0.6031 0.5927 0.5823
2953.000000 0.5709 0.5596 0.5482 0.5369 0.5255
2958.000000 0.5142 0.5028 0.4915 0.4801 0.4688
2963.000000 0.4574 0.4461 0.4347 0.4234 0.4120
2968.000000 0.4007 0.3893 0.3780 0.3708 0.3637
2973.000000 0.3638 0.3639 0.3698 0.3634 0.3857
2978.000000 0.3956 0.4055 0.4154 0.4253 0.4352
2983.000000 0.4451 0.4551 0.4661 0.4771 0.5316
2988.000000 0.5862 0.6447 0.7033 0.7163 0.7293
2993.000000 0.7335 0.7378 0.7392 0.7407 0.7410
2998.000000 0.7413 0.7410 0.7408 0.7403 0.7399
3003.000000 0.7390 0.7406 0.7372 0.7363 0.7359
3008.000000 0.7355 0.7356 0.7358 0.7360 0.7363
3013.000000 0.7367 0.7372 0.7377 0.7382 0.7385
3018.000000 0.7388 0.7391 0.7394 0.7393 0.7392
3023.000000 0.7386 0.7381 0.7375 0.7370 0.7363
3028.000000 0.7357 0.7349 0.7342 0.7334 0.7326
3033.000000 0.7317 0.7308 0.7298 0.7288 0.7278
3038.000000 0.7268 0.7213 0.7158 0.7094 0.7030
3043.000000 0.6966 0.6902 0.6838 0.6774 0.6710
3048.000000 0.6646 0.6582 0.6518 0.6476 0.6451
3053.000000 0.6435 0.6436 0.6490 0.6544 0.6640
3058.000000 0.6736 0.6832 0.6928 0.7023 0.7119
3063.000000 0.7215 0.7311 0.7406 0.7502 0.7564
3068.000000 0.7626 0.7665 0.7704 0.7728 0.7753
3073.000000 0.7767 0.7781 0.7794 0.7808 0.7821
3078.000000 0.7834 0.7844 0.7855 0.7866 0.7877
3083.000000 0.7886 0.7896 0.7902 0.7908 0.7914
3088.000000 0.7920 0.7926 0.7932 0.7936 0.7941
3093.000000 0.7945 0.7949 0.7953 0.7957 0.7958
3098.000000 0.7959 0.7959 0.7960 0.7960 0.7961
3103.000000 0.7961 0.7962 0.7961 0.7980 0.7960
3108.000000 0.7960 0.7959 0.7959 0.7954 0.7949
3113.000000 0.7943 0.7938 0.7932 0.7927 0.7921
3118.000000 0.7916 0.7910 0.7905 0.7899 0.7893
3123.000000 0.7886 0.7880 0.7873 0.7866 0.7858
3128.000000 0.7850 0.7840 0.7830 0.7820 0.7810
3133.000000 0.7800 0.7790 0.7779 0.7769 0.7759
3138.000000 0.7749 0.7738 0.7728 0.7718 0.7708
3143.000000 0.7698 0.7688 0.7674 0.7661 0.7647
3148.000000 0.7633 0.7619 0.7605 0.7591 0.7577
3153.000000 0.7563 0.7550 0.7532 0.7515 0.7495
3158.000000 0.7476 0.7456 0.7436 0.7416 0.7397
3163.000000 0.7377 0.7357 0.7337 0.7318 0.7294
3168.000000 0.7271 0.7248 0.7225 0.7201 0.7178
3173.000000 0.7155 0.7132 0.7104 0.7077 0.7047
3178.000000 0.7018 0.6988 0.6958 0.6928 0.6899
3183.000000 0.6865 0.6832 0.6795 0.6759 0.6722
3188.000000 0.6685 0.6648 0.6612 0.6546 0.6480
3193.000000 0.6413 0.6346 0.6265 0.6185 0.6106
3198.000000 0.6028 0.5957 0.5886 0.5814 0.5743
3203.000000 0.5672 0.5601 0.5529 0.5458 0.5387
3208.000000 0.5316 0.5244 0.5173 0.5102 0.5031
3213.000000 0.4959 0.4888 0.4816 0.4745 0.4674
3218.000000 0.4603 0.4531 0.4460 0.4389 0.4318
3223.000000 0.4246 0.4175 0.4104 0.4033 0.3961
3228.000000 0.3890 0.3818 0.3747 0.3664 0.3582
3233.000000 0.3504 0.3427 0.3375 0.3323 0.3271
3238.000000 0.3219 0.3152 0.3086 0.2997 0.2909
3243.000000 0.2835 0.2761 0.2690 0.2619 0.2556
3248.000000 0.2493 0.2433 0.2374 0.2315 0.2256
3253.000000 0.2206 0.2156 0.2106 0.2057 0.2015
3258.000000 0.1973 0.1939 0.1905 0.1870 0.1836
3263.000000 0.1800 0.1765 0.1740 0.1716 0.1698
3268.000000 0.1680 0.1672 0.1665 0.1657 0.1649
3273.000000 0.1650 0.1650 0.1650 0.1650 0.1651
3278.000000 0.1653 0.1654 0.1656 0.1661 0.1667
3283.000000 0.1682 0.1697 0.1718 0.1739 0.1776
3288.000000 0.1813 0.1886 0.1960 0.2019 0.2079
3293.000000 0.2138 0.2198 0.2257 0.2317 0.2376
3298.000000 0.2436 0.2495 0.2555 0.2614 0.2674
3303.000000 0.2733 0.2793 0.2852 0.2912 0.2971
3308.000000 0.3031 0.3090 0.3150 0.3209 0.3268
3313.000000 0.3327 0.3387 0.3446 0.3506 0.3565
3318.000000 0.3625 0.3684 0.3744 0.3803 0.3863
3323.000000 0.3922 0.3982 0.4041 0.4101 0.4160
3328.000000 0.4220 0.4279 0.4339 0.4398 0.4458
3333.000000 0.4517 0.4577 0.4633 0.4690 0.4746
3338.000000 0.4802 0.4851 0.4900 0.4946 0.4993
3343.000000 0.5039 0.5086 0.5136 0.5187 0.5237
3348.000000 0.5287 0.5337 0.5388 0.5438 0.5488
3353.000000 0.5537 0.5587 0.5637 0.5687 0.5737
3358.000000 0.5787 0.5839 0.5891 0.5942 0.5994
3363.000000 0.6043 0.6092 0.6131 0.6170 0.6208
3368.000000 0.6247 0.6286 0.6325 0.6360 0.6395
3373.000000 0.6428 0.6461 0.6494 0.6528 0.6561
3378.000000 0.6595 0.6628 0.6661 0.6695 0.6729
3383.000000 0.6762 0.6796 0.6850 0.6905 0.6966
3388.000000 0.7027 0.7082 0.7138 0.7179 0.7221
3393.000000 0.7262 0.7303 0.7345 0.7388 0.7432
3398.000000 0.7476 0.7500 0.7524 0.7542 0.7560
3403.000000 0.7573 0.7586 0.7598 0.7611 0.7623
3408.000000 0.7636 0.7651 0.7666 0.7681 0.7696
3413.000000 0.7711 0.7727 0.7745 0.7764 0.7787
3418.000000 0.7811 0.7835 0.7859 0.7877 0.7895
3423.000000 0.7910 0.7926 0.7941 0.7957 0.7972
3428.000000 0.7988 0.8003 0.8019 0.8037 0.8055
3433.000000 0.8074 0.8094 0.8113 0.8132 0.8151
3438.000000 0.8170 0.8183 0.8197 0.8210 0.8223
3443.000000 0.8236 0.8250 0.8262 0.8275 0.8276
3448.000000 0.8278 0.8280 0.8282 0.8281 0.8281
3453.000000 0.8280 0.8280 0.8279 0.8279 0.8278
3458.000000 0.8277 0.8276 0.8276 0.8274 0.8272
3463.000000 0.8270 0.8268 0.8266 0.8264 0.8262
3468.000000 0.8260 0.8257 0.8255 0.8252 0.8249
3473.000000 0.8246 0.8244 0.8241 0.8238 0.8236
3478.000000 0.8234 0.8232 0.8230 0.8228 0.8226
3483.000000 0.8224 0.8222 0.8220 0.8218 0.8216
3488.000000 0.8214 0.8211 0.8209 0.8207 0.8205
3493.000000 0.8203 0.8202 0.8200 0.8199 0.8198
3498.000000 0.8197 0.8195 0.8194 0.8193 0.8192
3503.000000 0.8191 0.8190 0.8188 0.8187 0.8186
3508.000000 0.8185 0.8184 0.8183 0.8183 0.8184
3513.000000 0.8185 0.8186 0.8187 0.8188 0.8188
3518.000000 0.8189 0.8190 0.8191 0.8192 0.8193
3523.000000 0.8193 0.8194 0.8195 0.8197 0.8198
3528.000000 0.8199 0.8200 0.8202 0.8203 0.8205
3533.000000 0.8206 0.8207 0.8208 0.8210 0.8211
3538.000000 0.8212 0.8213 0.8215 0.8216 0.8218
3543.000000 0.8219 0.8220 0.8221 0.8223 0.8224
3548.000000 0.8226 0.8227 0.8228 0.8229 0.8231
3553.000000 0.8232 0.8234 0.8235 0.8236 0.8237
3558.000000 0.8239 0.8240 0.8242 0.8244 0.8246
3563.000000 0.8248 0.8250 0.8252 0.8254 0.8255
3568.000000 0.8257 0.8259 0.8261 0.8263 0.8265
3573.000000 0.8266 0.8268 0.8270 0.8272 0.8274
3578.000000 0.8276 0.8278 0.8280 0.8282 0.8284
3583.000000 0.8286 0.8289 0.8291 0.8294 0.8296
3588.000000 0.8299 0.8301 0.8303 0.8305 0.8308
3593.000000 0.8310 0.8313 0.8315 0.8318 0.8320
3598.000000 0.8323 0.8325 0.8327 0.8329 0.8332
3603.000000 0.8333 0.8335 0.8336 0.8338 0.8339
3608.000000 0.8341 0.8342 0.8343 0.8344 0.8346
3613.000000 0.8347 0.8349 0.8350 0.8351 0.8352
3618.000000 0.8354 0.8354 0.8355 0.8354 0.8354
3623.000000 0.8353 0.8352 0.8351 0.8351 0.8350
3628.000000 0.8349 0.8348 0.8348 0.8347 0.8347
3633.000000 0.8343 0.8339 0.8335 0.8331 0.8326
3638.000000 0.8322 0.8317 0.8313 0.8309 0.8305
3643.000000 0.8300 0.8295 0.8289 0.8284 0.8279
3648.000000 0.8274 0.8268 0.8263 0.8257 0.8252
3653.000000 0.8253 0.8255 0.8258 0.8262 0.8265
3658.000000 0.8269 0.8272 0.8276 0.8283 0.8291
3663.000000 0.8300 0.8309 0.8321 0.8333 0.8345
3668.000000 0.8358 0.8370 0.8382 0.8394 0.8407
3673.000000 0.8419 0.8431 0.8440 0.8450 0.8457
3678.000000 0.8465 0.8471 0.8477 0.8479 0.8482
3683.000000 0.8484 0.8487 0.8490 0.8493 0.8495
3688.000000 0.8498 0.8499 0.8501 0.8502 0.8504
3693.000000 0.8505 0.8506 0.8507 0.8508 0.8509
3698.000000 0.8510 0.8511 0.8512 0.8512 0.8513
3703.000000 0.8514 0.8515 0.8515 0.8516 0.8516
3708.000000 0.8517 0.8518 0.8519 0.8519 0.8520
3713.000000 0.8520 0.8520 0.8520 0.8520 0.8520
3718.000000 0.8520 0.8520 0.8520 0.8519 0.8519
3723.000000 0.8519 0.8519 0.8519 0.8519 0.8519
3728.000000 0.8519 0.8519 0.8519 0.8519 0.8519
3733.000000 0.8519 0.8519 0.8518 0.8518 0.8518
3738.000000 0.8518 0.8518 0.8518 0.8517 0.8517
3743.000000 0.8517 0.8517 0.8517 0.8517 0.8516
3748.000000 0.8530 0.8516 0.8516 0.8516 0.8516
3753.000000 0.8515 0.8515 0.8515 0.8515 0.8515
3758.000000 0.8515 0.8514 0.8514 0.8514 0.8514
3763.000000 0.8513 0.8513 0.8512 0.8512 0.8512
3768.000000 0.8512 0.8511 0.8511 0.8510 0.8510
3773.000000 0.8510 0.8510 0.8509 0.8509 0.8508
3778.000000 0.8508 0.8507 0.8507 0.8506 0.8506
3783.000000 0.8505 0.8505 0.8504 0.8504 0.8503
3788.000000 0.8503 0.8502 0.8502 0.8501 0.8501
3793.000000 0.8500 0.8500 0.8500 0.8500
##END=
