##TITLE=DIMENHYDRINATE
##JCAMP-DX=4.24
$$ By DXEDIT 1.05 (RS McDonald)
##DATA TYPE=INFRARED SPECTRUM
##CLASS=COBLENTZ III
##ORIGIN=SMITH KLINE & FRENCH
##OWNER=COBLENTZ SOC.
Collection (C) 2018 copyright by the U.S. Secretary of Commerce
on behalf of the United States of America. All rights reserved.
##DATE=1968/01/24
##NAMES=DRAMAMINE
##MOLFORM=C24 H28 Cl N5 O3
##MP=102-127 C
##SOURCE REFERENCE=COBLENTZ NO. 05802
##$NIST ID=B6005802
##$NIST SOURCE=COBLENTZ
##$NIST IMAGE=cob5802
##SPECTROMETER/DATA SYSTEM=PERKIN-ELMER 21 (GRATING)
##INSTRUMENT PARAMETERS=NaCl PRISM
##STATE=SOLID (MULL)
$$SPECTRAL CONTAMINATION DUE TO OIL AROUND 2860 CM^-^1
##SAMPLING PROCEDURE=TRANSMISSION
##RESOLUTION=2
##DATA PROCESSING=DIGITIZED BY COBLENTZ SOCIETY (BATCH I) FROM HARD COPY
##XUNITS=1/CM
##YUNITS=TRANSMITTANCE
##XLABEL=Wavenumbers (cm-1)
##YLABEL=Transmittance
##XFACTOR=1
##YFACTOR=1
##DELTAX=1
##FIRSTX=4000
##LASTX=654
##FIRSTY=0.5832
##MAXX=4000
##MINX=654
##MAXY=0.8463
##MINY=0.0906
##NPOINTS=3347
##XYDATA=(X++(Y..Y))
4000.000000 0.5832 0.5834 0.5837 0.5839 0.5842
3995.000000 0.5844 0.5847 0.5849 0.5852 0.5854
3990.000000 0.5857 0.5860 0.5862 0.5865 0.5868
3985.000000 0.5870 0.5873 0.5875 0.5878 0.5880
3980.000000 0.5883 0.5885 0.5888 0.5890 0.5893
3975.000000 0.5895 0.5898 0.5901 0.5903 0.5906
3970.000000 0.5909 0.5910 0.5914 0.5917 0.5919
3965.000000 0.5922 0.5924 0.5927 0.5929 0.5932
3960.000000 0.5934 0.5937 0.5939 0.5941 0.5944
3955.000000 0.5946 0.5949 0.5951 0.5953 0.5956
3950.000000 0.5958 0.5960 0.5962 0.5965 0.5968
3945.000000 0.5970 0.5973 0.5975 0.5977 0.5980
3940.000000 0.5982 0.5985 0.5987 0.5990 0.5992
3935.000000 0.5994 0.5997 0.5999 0.6002 0.6004
3930.000000 0.6006 0.6009 0.6010 0.6014 0.6016
3925.000000 0.6019 0.6021 0.6024 0.6026 0.6028
3920.000000 0.6031 0.6033 0.6036 0.6038 0.6041
3915.000000 0.6043 0.6045 0.6048 0.6050 0.6053
3910.000000 0.6055 0.6058 0.6060 0.6062 0.6065
3905.000000 0.6067 0.6070 0.6072 0.6074 0.6077
3900.000000 0.6079 0.6081 0.6082 0.6084 0.6086
3895.000000 0.6088 0.6090 0.6091 0.6093 0.6095
3890.000000 0.6097 0.6099 0.6101 0.6102 0.6104
3885.000000 0.6106 0.6108 0.6110 0.6110 0.6112
3880.000000 0.6115 0.6117 0.6119 0.6121 0.6122
3875.000000 0.6124 0.6126 0.6128 0.6130 0.6132
3870.000000 0.6133 0.6135 0.6137 0.6139 0.6141
3865.000000 0.6143 0.6144 0.6146 0.6148 0.6150
3860.000000 0.6151 0.6153 0.6155 0.6156 0.6158
3855.000000 0.6160 0.6162 0.6164 0.6166 0.6168
3850.000000 0.6169 0.6171 0.6173 0.6175 0.6177
3845.000000 0.6179 0.6181 0.6182 0.6184 0.6186
3840.000000 0.6188 0.6190 0.6192 0.6194 0.6195
3835.000000 0.6197 0.6199 0.6201 0.6203 0.6205
3830.000000 0.6207 0.6209 0.6210 0.6212 0.6214
3825.000000 0.6215 0.6217 0.6219 0.6221 0.6223
3820.000000 0.6224 0.6226 0.6228 0.6230 0.6231
3815.000000 0.6232 0.6233 0.6234 0.6235 0.6235
3810.000000 0.6237 0.6238 0.6239 0.6240 0.6241
3805.000000 0.6242 0.6243 0.6243 0.6244 0.6245
3800.000000 0.6246 0.6247 0.6248 0.6249 0.6250
3795.000000 0.6251 0.6252 0.6253 0.6254 0.6255
3790.000000 0.6256 0.6257 0.6258 0.6259 0.6260
3785.000000 0.6260 0.6262 0.6262 0.6264 0.6265
3780.000000 0.6266 0.6267 0.6268 0.6269 0.6270
3775.000000 0.6271 0.6272 0.6273 0.6273 0.6274
3770.000000 0.6275 0.6276 0.6277 0.6278 0.6280
3765.000000 0.6281 0.6282 0.6283 0.6285 0.6286
3760.000000 0.6288 0.6289 0.6290 0.6292 0.6293
3755.000000 0.6295 0.6296 0.6297 0.6299 0.6300
3750.000000 0.6301 0.6302 0.6304 0.6305 0.6307
3745.000000 0.6308 0.6309 0.6310 0.6312 0.6314
3740.000000 0.6315 0.6317 0.6318 0.6319 0.6321
3735.000000 0.6322 0.6324 0.6325 0.6327 0.6328
3730.000000 0.6329 0.6331 0.6332 0.6334 0.6335
3725.000000 0.6337 0.6338 0.6340 0.6341 0.6342
3720.000000 0.6344 0.6345 0.6347 0.6348 0.6350
3715.000000 0.6351 0.6353 0.6354 0.6356 0.6358
3710.000000 0.6359 0.6360 0.6362 0.6365 0.6366
3705.000000 0.6368 0.6370 0.6372 0.6374 0.6375
3700.000000 0.6377 0.6379 0.6381 0.6383 0.6385
3695.000000 0.6386 0.6388 0.6390 0.6392 0.6394
3690.000000 0.6396 0.6397 0.6399 0.6401 0.6403
3685.000000 0.6405 0.6407 0.6408 0.6410 0.6411
3680.000000 0.6414 0.6415 0.6418 0.6419 0.6421
3675.000000 0.6422 0.6425 0.6428 0.6430 0.6432
3670.000000 0.6433 0.6435 0.6437 0.6439 0.6441
3665.000000 0.6443 0.6444 0.6446 0.6448 0.6449
3660.000000 0.6451 0.6451 0.6453 0.6454 0.6455
3655.000000 0.6456 0.6458 0.6458 0.6460 0.6461
3650.000000 0.6462 0.6464 0.6465 0.6465 0.6468
3645.000000 0.6468 0.6469 0.6471 0.6471 0.6472
3640.000000 0.6474 0.6475 0.6476 0.6478 0.6478
3635.000000 0.6481 0.6482 0.6483 0.6484 0.6486
3630.000000 0.6487 0.6488 0.6489 0.6490 0.6492
3625.000000 0.6493 0.6494 0.6496 0.6497 0.6498
3620.000000 0.6499 0.6500 0.6501 0.6501 0.6503
3615.000000 0.6504 0.6505 0.6506 0.6507 0.6508
3610.000000 0.6508 0.6510 0.6511 0.6511 0.6512
3605.000000 0.6514 0.6515 0.6517 0.6518 0.6518
3600.000000 0.6519 0.6521 0.6521 0.6522 0.6524
3595.000000 0.6525 0.6525 0.6525 0.6526 0.6528
3590.000000 0.6528 0.6530 0.6531 0.6532 0.6533
3585.000000 0.6535 0.6536 0.6537 0.6538 0.6539
3580.000000 0.6540 0.6541 0.6542 0.6543 0.6544
3575.000000 0.6545 0.6546 0.6547 0.6548 0.6549
3570.000000 0.6550 0.6551 0.6553 0.6554 0.6555
3565.000000 0.6556 0.6557 0.6558 0.6558 0.6560
3560.000000 0.6561 0.6561 0.6562 0.6564 0.6565
3555.000000 0.6565 0.6567 0.6568 0.6568 0.6569
3550.000000 0.6571 0.6571 0.6572 0.6574 0.6575
3545.000000 0.6576 0.6578 0.6578 0.6580 0.6582
3540.000000 0.6583 0.6584 0.6585 0.6586 0.6588
3535.000000 0.6589 0.6590 0.6591 0.6592 0.6593
3530.000000 0.6594 0.6595 0.6596 0.6597 0.6599
3525.000000 0.6600 0.6601 0.6601 0.6603 0.6605
3520.000000 0.6606 0.6607 0.6608 0.6608 0.6611
3515.000000 0.6611 0.6612 0.6614 0.6615 0.6617
3510.000000 0.6618 0.6618 0.6619 0.6621 0.6622
3505.000000 0.6624 0.6624 0.6625 0.6625 0.6626
3500.000000 0.6626 0.6628 0.6628 0.6628 0.6630
3495.000000 0.6630 0.6631 0.6632 0.6632 0.6633
3490.000000 0.6633 0.6634 0.6635 0.6635 0.6636
3485.000000 0.6637 0.6637 0.6638 0.6638 0.6639
3480.000000 0.6640 0.6640 0.6641 0.6642 0.6642
3475.000000 0.6643 0.6643 0.6644 0.6645 0.6645
3470.000000 0.6645 0.6646 0.6646 0.6647 0.6647
3465.000000 0.6648 0.6648 0.6648 0.6649 0.6649
3460.000000 0.6649 0.6649 0.6649 0.6650 0.6650
3455.000000 0.6650 0.6650 0.6651 0.6651 0.6651
3450.000000 0.6651 0.6651 0.6651 0.6651 0.6651
3445.000000 0.6651 0.6651 0.6653 0.6653 0.6653
3440.000000 0.6653 0.6653 0.6654 0.6654 0.6655
3435.000000 0.6655 0.6656 0.6656 0.6656 0.6656
3430.000000 0.6656 0.6657 0.6657 0.6657 0.6657
3425.000000 0.6657 0.6658 0.6658 0.6658 0.6658
3420.000000 0.6658 0.6658 0.6658 0.6658 0.6658
3415.000000 0.6660 0.6660 0.6660 0.6660 0.6660
3410.000000 0.6661 0.6661 0.6661 0.6661 0.6661
3405.000000 0.6661 0.6661 0.6661 0.6661 0.6662
3400.000000 0.6662 0.6662 0.6662 0.6662 0.6664
3395.000000 0.6664 0.6664 0.6664 0.6665 0.6665
3390.000000 0.6665 0.6665 0.6665 0.6665 0.6665
3385.000000 0.6665 0.6665 0.6665 0.6667 0.6667
3380.000000 0.6667 0.6667 0.6667 0.6667 0.6667
3375.000000 0.6667 0.6667 0.6668 0.6668 0.6668
3370.000000 0.6668 0.6668 0.6668 0.6668 0.6668
3365.000000 0.6668 0.6669 0.6669 0.6669 0.6669
3360.000000 0.6671 0.6671 0.6671 0.6671 0.6671
3355.000000 0.6671 0.6671 0.6671 0.6671 0.6672
3350.000000 0.6672 0.6672 0.6672 0.6672 0.6672
3345.000000 0.6672 0.6672 0.6672 0.6674 0.6674
3340.000000 0.6674 0.6674 0.6674 0.6675 0.6675
3335.000000 0.6675 0.6675 0.6675 0.6675 0.6675
3330.000000 0.6675 0.6675 0.6676 0.6676 0.6678
3325.000000 0.6678 0.6678 0.6678 0.6678 0.6678
3320.000000 0.6680 0.6680 0.6680 0.6680 0.6680
3315.000000 0.6681 0.6681 0.6681 0.6681 0.6682
3310.000000 0.6682 0.6683 0.6683 0.6683 0.6684
3305.000000 0.6684 0.6684 0.6684 0.6685 0.6685
3300.000000 0.6685 0.6685 0.6686 0.6686 0.6686
3295.000000 0.6687 0.6687 0.6688 0.6688 0.6688
3290.000000 0.6688 0.6689 0.6689 0.6689 0.6689
3285.000000 0.6689 0.6689 0.6689 0.6689 0.6689
3280.000000 0.6688 0.6688 0.6688 0.6688 0.6687
3275.000000 0.6687 0.6686 0.6686 0.6685 0.6685
3270.000000 0.6685 0.6685 0.6685 0.6684 0.6684
3265.000000 0.6684 0.6684 0.6683 0.6683 0.6683
3260.000000 0.6683 0.6682 0.6682 0.6681 0.6681
3255.000000 0.6680 0.6680 0.6680 0.6680 0.6680
3250.000000 0.6678 0.6678 0.6676 0.6676 0.6675
3245.000000 0.6675 0.6675 0.6675 0.6674 0.6672
3240.000000 0.6672 0.6671 0.6671 0.6671 0.6669
3235.000000 0.6669 0.6668 0.6668 0.6668 0.6668
3230.000000 0.6668 0.6667 0.6665 0.6665 0.6665
3225.000000 0.6664 0.6664 0.6664 0.6664 0.6664
3220.000000 0.6664 0.6664 0.6664 0.6664 0.6664
3215.000000 0.6664 0.6664 0.6662 0.6662 0.6662
3210.000000 0.6662 0.6662 0.6662 0.6662 0.6662
3205.000000 0.6662 0.6662 0.6662 0.6662 0.6661
3200.000000 0.6661 0.6661 0.6661 0.6661 0.6661
3195.000000 0.6661 0.6661 0.6661 0.6661 0.6661
3190.000000 0.6661 0.6661 0.6661 0.6661 0.6661
3185.000000 0.6661 0.6661 0.6661 0.6662 0.6662
3180.000000 0.6664 0.6665 0.6665 0.6665 0.6667
3175.000000 0.6668 0.6668 0.6668 0.6669 0.6669
3170.000000 0.6671 0.6671 0.6671 0.6672 0.6672
3165.000000 0.6674 0.6675 0.6675 0.6675 0.6676
3160.000000 0.6678 0.6678 0.6678 0.6680 0.6681
3155.000000 0.6682 0.6682 0.6683 0.6684 0.6684
3150.000000 0.6684 0.6684 0.6683 0.6683 0.6683
3145.000000 0.6683 0.6683 0.6683 0.6683 0.6683
3140.000000 0.6682 0.6682 0.6682 0.6682 0.6681
3135.000000 0.6681 0.6681 0.6681 0.6681 0.6681
3130.000000 0.6681 0.6681 0.6680 0.6680 0.6680
3125.000000 0.6680 0.6680 0.6680 0.6680 0.6678
3120.000000 0.6678 0.6678 0.6678 0.6678 0.6678
3115.000000 0.6678 0.6678 0.6676 0.6676 0.6676
3110.000000 0.6676 0.6675 0.6675 0.6675 0.6675
3105.000000 0.6674 0.6674 0.6674 0.6674 0.6672
3100.000000 0.6672 0.6671 0.6671 0.6671 0.6671
3095.000000 0.6669 0.6668 0.6668 0.6668 0.6668
3090.000000 0.6667 0.6667 0.6667 0.6667 0.6665
3085.000000 0.6665 0.6665 0.6664 0.6661 0.6661
3080.000000 0.6658 0.6657 0.6655 0.6653 0.6651
3075.000000 0.6649 0.6646 0.6644 0.6641 0.6638
3070.000000 0.6635 0.6633 0.6630 0.6626 0.6624
3065.000000 0.6621 0.6618 0.6615 0.6611 0.6607
3060.000000 0.6604 0.6599 0.6594 0.6589 0.6584
3055.000000 0.6578 0.6574 0.6568 0.6564 0.6558
3050.000000 0.6554 0.6550 0.6542 0.6534 0.6525
3045.000000 0.6517 0.6507 0.6497 0.6488 0.6478
3040.000000 0.6468 0.6458 0.6448 0.6438 0.6426
3035.000000 0.6417 0.6407 0.6396 0.6384 0.6373
3030.000000 0.6362 0.6351 0.6340 0.6329 0.6318
3025.000000 0.6307 0.6296 0.6285 0.6274 0.6262
3020.000000 0.6251 0.6240 0.6230 0.6221 0.6210
3015.000000 0.6201 0.6191 0.6181 0.6171 0.6160
3010.000000 0.6151 0.6141 0.6131 0.6122 0.6112
3005.000000 0.6102 0.6092 0.6082 0.6072 0.6062
3000.000000 0.6052 0.6042 0.6032 0.6023 0.6012
2995.000000 0.6003 0.5993 0.5983 0.5973 0.5962
2990.000000 0.5953 0.5943 0.5934 0.5924 0.5914
2985.000000 0.5904 0.5894 0.5885 0.5875 0.5865
2980.000000 0.5855 0.5845 0.5835 0.5825 0.5815
2975.000000 0.5804 0.5794 0.5783 0.5767 0.5747
2970.000000 0.5728 0.5708 0.5688 0.5668 0.5648
2965.000000 0.5628 0.5608 0.5588 0.5566 0.5524
2960.000000 0.5481 0.5439 0.5401 0.5366 0.5331
2955.000000 0.5295 0.5259 0.5222 0.5185 0.5080
2950.000000 0.4927 0.4775 0.4631 0.4560 0.4489
2945.000000 0.4418 0.4372 0.4340 0.4309 0.4276
2940.000000 0.4242 0.4208 0.4173 0.4084 0.3973
2935.000000 0.3862 0.3752 0.3642 0.3530 0.3421
2930.000000 0.3309 0.3199 0.3088 0.2977 0.2866
2925.000000 0.2754 0.2643 0.2538 0.2432 0.2327
2920.000000 0.2254 0.2205 0.2157 0.2112 0.2080
2915.000000 0.2046 0.2015 0.1992 0.1970 0.1949
2910.000000 0.1929 0.1913 0.1896 0.1881 0.1865
2905.000000 0.1849 0.1834 0.1818 0.1803 0.1787
2900.000000 0.1773 0.1758 0.1743 0.1728 0.1714
2895.000000 0.1699 0.1684 0.1669 0.1654 0.1640
2890.000000 0.1625 0.1610 0.1596 0.1581 0.1566
2885.000000 0.1552 0.1538 0.1523 0.1510 0.1496
2880.000000 0.1482 0.1468 0.1454 0.1439 0.1418
2875.000000 0.1396 0.1373 0.1354 0.1338 0.1322
2870.000000 0.1307 0.1295 0.1282 0.1270 0.1262
2865.000000 0.1255 0.1248 0.1242 0.1236 0.1231
2860.000000 0.1226 0.1221 0.1217 0.1213 0.1209
2855.000000 0.1205 0.1201 0.1198 0.1195 0.1192
2850.000000 0.1190 0.1188 0.1187 0.1185 0.1183
2845.000000 0.1180 0.1178 0.1175 0.1173 0.1170
2840.000000 0.1167 0.1164 0.1161 0.1158 0.1155
2835.000000 0.1152 0.1148 0.1142 0.1137 0.1133
2830.000000 0.1129 0.1126 0.1122 0.1121 0.1120
2825.000000 0.1119 0.1117 0.1116 0.1115 0.1115
2820.000000 0.1115 0.1115 0.1115 0.1116 0.1117
2815.000000 0.1119 0.1122 0.1126 0.1131 0.1140
2810.000000 0.1149 0.1157 0.1191 0.1224 0.1258
2805.000000 0.1425 0.1618 0.1812 0.1912 0.1970
2800.000000 0.2028 0.2078 0.2123 0.2168 0.2211
2795.000000 0.2250 0.2290 0.2329 0.2368 0.2407
2790.000000 0.2466 0.2615 0.2764 0.2914 0.3072
2785.000000 0.3229 0.3387 0.3545 0.3703 0.3860
2780.000000 0.4018 0.4177 0.4335 0.4493 0.4651
2775.000000 0.4809 0.4957 0.5100 0.5244 0.5331
2770.000000 0.5382 0.5434 0.5486 0.5539 0.5592
2765.000000 0.5646 0.5702 0.5758 0.5803 0.5835
2760.000000 0.5868 0.5898 0.5924 0.5951 0.5977
2755.000000 0.6004 0.6030 0.6056 0.6080 0.6104
2750.000000 0.6127 0.6148 0.6169 0.6190 0.6210
2745.000000 0.6231 0.6251 0.6272 0.6293 0.6314
2740.000000 0.6335 0.6356 0.6376 0.6396 0.6415
2735.000000 0.6436 0.6456 0.6475 0.6496 0.6515
2730.000000 0.6537 0.6557 0.6575 0.6596 0.6615
2725.000000 0.6636 0.6656 0.6674 0.6689 0.6704
2720.000000 0.6717 0.6725 0.6734 0.6743 0.6751
2715.000000 0.6761 0.6769 0.6778 0.6786 0.6793
2710.000000 0.6797 0.6801 0.6804 0.6807 0.6808
2705.000000 0.6811 0.6815 0.6818 0.6819 0.6822
2700.000000 0.6825 0.6826 0.6828 0.6831 0.6833
2695.000000 0.6835 0.6837 0.6839 0.6841 0.6843
2690.000000 0.6844 0.6846 0.6848 0.6850 0.6851
2685.000000 0.6854 0.6855 0.6857 0.6858 0.6858
2680.000000 0.6858 0.6858 0.6858 0.6858 0.6860
2675.000000 0.6861 0.6861 0.6861 0.6861 0.6861
2670.000000 0.6862 0.6862 0.6862 0.6862 0.6862
2665.000000 0.6862 0.6862 0.6862 0.6861 0.6861
2660.000000 0.6861 0.6861 0.6861 0.6861 0.6861
2655.000000 0.6861 0.6861 0.6861 0.6861 0.6861
2650.000000 0.6860 0.6858 0.6857 0.6856 0.6854
2645.000000 0.6853 0.6851 0.6849 0.6847 0.6845
2640.000000 0.6844 0.6842 0.6840 0.6838 0.6836
2635.000000 0.6835 0.6833 0.6831 0.6828 0.6826
2630.000000 0.6825 0.6824 0.6821 0.6818 0.6815
2625.000000 0.6812 0.6810 0.6808 0.6805 0.6803
2620.000000 0.6800 0.6798 0.6795 0.6792 0.6790
2615.000000 0.6787 0.6785 0.6782 0.6780 0.6776
2610.000000 0.6775 0.6771 0.6768 0.6767 0.6765
2605.000000 0.6761 0.6760 0.6757 0.6755 0.6751
2600.000000 0.6750 0.6747 0.6745 0.6742 0.6739
2595.000000 0.6737 0.6734 0.6732 0.6728 0.6726
2590.000000 0.6725 0.6721 0.6719 0.6717 0.6714
2585.000000 0.6711 0.6708 0.6706 0.6705 0.6704
2580.000000 0.6704 0.6701 0.6701 0.6700 0.6700
2575.000000 0.6699 0.6698 0.6697 0.6695 0.6695
2570.000000 0.6694 0.6693 0.6692 0.6691 0.6690
2565.000000 0.6689 0.6687 0.6687 0.6686 0.6686
2560.000000 0.6686 0.6686 0.6686 0.6686 0.6686
2555.000000 0.6686 0.6686 0.6685 0.6685 0.6685
2550.000000 0.6685 0.6685 0.6685 0.6685 0.6685
2545.000000 0.6684 0.6684 0.6684 0.6684 0.6684
2540.000000 0.6684 0.6684 0.6684 0.6684 0.6684
2535.000000 0.6684 0.6684 0.6684 0.6684 0.6684
2530.000000 0.6685 0.6685 0.6685 0.6685 0.6685
2525.000000 0.6686 0.6686 0.6686 0.6687 0.6687
2520.000000 0.6687 0.6687 0.6687 0.6688 0.6688
2515.000000 0.6688 0.6688 0.6688 0.6689 0.6689
2510.000000 0.6689 0.6689 0.6689 0.6690 0.6690
2505.000000 0.6691 0.6691 0.6691 0.6691 0.6691
2500.000000 0.6692 0.6692 0.6692 0.6693 0.6693
2495.000000 0.6694 0.6694 0.6694 0.6694 0.6694
2490.000000 0.6695 0.6695 0.6695 0.6696 0.6696
2485.000000 0.6697 0.6697 0.6697 0.6697 0.6697
2480.000000 0.6698 0.6698 0.6698 0.6696 0.6694
2475.000000 0.6692 0.6690 0.6688 0.6686 0.6684
2470.000000 0.6682 0.6680 0.6678 0.6675 0.6674
2465.000000 0.6671 0.6668 0.6667 0.6665 0.6662
2460.000000 0.6661 0.6658 0.6657 0.6655 0.6653
2455.000000 0.6650 0.6647 0.6643 0.6639 0.6636
2450.000000 0.6632 0.6628 0.6624 0.6621 0.6617
2445.000000 0.6612 0.6608 0.6606 0.6601 0.6598
2440.000000 0.6594 0.6590 0.6587 0.6583 0.6578
2435.000000 0.6575 0.6571 0.6567 0.6562 0.6558
2430.000000 0.6555 0.6551 0.6547 0.6543 0.6539
2425.000000 0.6535 0.6531 0.6526 0.6521 0.6518
2420.000000 0.6514 0.6510 0.6506 0.6501 0.6498
2415.000000 0.6494 0.6489 0.6485 0.6481 0.6476
2410.000000 0.6474 0.6469 0.6467 0.6462 0.6460
2405.000000 0.6456 0.6453 0.6449 0.6445 0.6442
2400.000000 0.6438 0.6435 0.6431 0.6428 0.6424
2395.000000 0.6419 0.6415 0.6412 0.6408 0.6406
2390.000000 0.6401 0.6398 0.6394 0.6390 0.6386
2385.000000 0.6381 0.6377 0.6373 0.6369 0.6365
2380.000000 0.6360 0.6356 0.6352 0.6348 0.6344
2375.000000 0.6339 0.6335 0.6330 0.6326 0.6323
2370.000000 0.6320 0.6317 0.6316 0.6314 0.6310
2365.000000 0.6309 0.6307 0.6306 0.6303 0.6301
2360.000000 0.6299 0.6297 0.6295 0.6293 0.6291
2355.000000 0.6290 0.6290 0.6290 0.6290 0.6289
2350.000000 0.6289 0.6289 0.6289 0.6288 0.6288
2345.000000 0.6288 0.6288 0.6287 0.6287 0.6287
2340.000000 0.6287 0.6287 0.6286 0.6286 0.6285
2335.000000 0.6285 0.6285 0.6285 0.6284 0.6284
2330.000000 0.6284 0.6284 0.6284 0.6283 0.6283
2325.000000 0.6282 0.6282 0.6282 0.6282 0.6281
2320.000000 0.6281 0.6281 0.6281 0.6281 0.6280
2315.000000 0.6280 0.6279 0.6279 0.6279 0.6279
2310.000000 0.6278 0.6278 0.6277 0.6277 0.6276
2305.000000 0.6276 0.6275 0.6274 0.6272 0.6271
2300.000000 0.6270 0.6268 0.6267 0.6265 0.6264
2295.000000 0.6262 0.6260 0.6260 0.6258 0.6257
2290.000000 0.6255 0.6254 0.6253 0.6251 0.6250
2285.000000 0.6249 0.6247 0.6245 0.6243 0.6241
2280.000000 0.6240 0.6239 0.6237 0.6235 0.6233
2275.000000 0.6231 0.6229 0.6228 0.6226 0.6224
2270.000000 0.6223 0.6221 0.6219 0.6217 0.6215
2265.000000 0.6212 0.6212 0.6210 0.6209 0.6207
2260.000000 0.6205 0.6203 0.6202 0.6201 0.6199
2255.000000 0.6197 0.6195 0.6194 0.6192 0.6190
2250.000000 0.6188 0.6187 0.6185 0.6183 0.6181
2245.000000 0.6180 0.6178 0.6176 0.6174 0.6173
2240.000000 0.6171 0.6169 0.6167 0.6165 0.6162
2235.000000 0.6160 0.6157 0.6155 0.6153 0.6151
2230.000000 0.6148 0.6146 0.6143 0.6141 0.6139
2225.000000 0.6137 0.6134 0.6131 0.6129 0.6126
2220.000000 0.6124 0.6121 0.6119 0.6117 0.6115
2215.000000 0.6112 0.6110 0.6108 0.6106 0.6105
2210.000000 0.6104 0.6102 0.6101 0.6100 0.6099
2205.000000 0.6099 0.6099 0.6102 0.6106 0.6109
2200.000000 0.6112 0.6116 0.6120 0.6124 0.6128
2195.000000 0.6133 0.6135 0.6136 0.6137 0.6138
2190.000000 0.6138 0.6139 0.6140 0.6141 0.6141
2185.000000 0.6140 0.6139 0.6138 0.6138 0.6137
2180.000000 0.6137 0.6136 0.6135 0.6134 0.6134
2175.000000 0.6133 0.6133 0.6132 0.6132 0.6132
2170.000000 0.6132 0.6132 0.6132 0.6132 0.6132
2165.000000 0.6132 0.6132 0.6132 0.6132 0.6132
2160.000000 0.6132 0.6132 0.6132 0.6132 0.6132
2155.000000 0.6132 0.6132 0.6133 0.6133 0.6135
2150.000000 0.6137 0.6139 0.6141 0.6143 0.6145
2145.000000 0.6148 0.6150 0.6152 0.6154 0.6157
2140.000000 0.6160 0.6162 0.6166 0.6169 0.6172
2135.000000 0.6175 0.6178 0.6181 0.6184 0.6187
2130.000000 0.6191 0.6194 0.6197 0.6200 0.6203
2125.000000 0.6206 0.6210 0.6212 0.6216 0.6219
2120.000000 0.6222 0.6226 0.6230 0.6235 0.6239
2115.000000 0.6244 0.6248 0.6253 0.6257 0.6264
2110.000000 0.6275 0.6289 0.6304 0.6316 0.6328
2105.000000 0.6337 0.6344 0.6348 0.6350 0.6351
2100.000000 0.6352 0.6354 0.6355 0.6356 0.6357
2095.000000 0.6358 0.6359 0.6362 0.6366 0.6371
2090.000000 0.6376 0.6382 0.6387 0.6393 0.6399
2085.000000 0.6405 0.6412 0.6419 0.6426 0.6434
2080.000000 0.6441 0.6449 0.6457 0.6464 0.6471
2075.000000 0.6478 0.6486 0.6493 0.6500 0.6506
2070.000000 0.6511 0.6518 0.6524 0.6530 0.6536
2065.000000 0.6543 0.6549 0.6556 0.6561 0.6568
2060.000000 0.6574 0.6580 0.6584 0.6587 0.6590
2055.000000 0.6593 0.6596 0.6599 0.6601 0.6605
2050.000000 0.6608 0.6611 0.6614 0.6617 0.6619
2045.000000 0.6622 0.6625 0.6628 0.6632 0.6636
2040.000000 0.6639 0.6642 0.6646 0.6650 0.6654
2035.000000 0.6658 0.6661 0.6665 0.6671 0.6675
2030.000000 0.6678 0.6682 0.6687 0.6691 0.6695
2025.000000 0.6699 0.6704 0.6708 0.6711 0.6717
2020.000000 0.6721 0.6725 0.6728 0.6734 0.6739
2015.000000 0.6743 0.6748 0.6753 0.6758 0.6762
2010.000000 0.6768 0.6772 0.6778 0.6782 0.6787
2005.000000 0.6792 0.6797 0.6801 0.6806 0.6810
2000.000000 0.6815 0.6819 0.6824 0.6828 0.6833
1995.000000 0.6837 0.6842 0.6846 0.6851 0.6855
1990.000000 0.6860 0.6865 0.6871 0.6875 0.6881
1985.000000 0.6886 0.6891 0.6897 0.6901 0.6907
1980.000000 0.6912 0.6918 0.6924 0.6928 0.6934
1975.000000 0.6939 0.6945 0.6950 0.6955 0.6961
1970.000000 0.6965 0.6971 0.6976 0.6982 0.6987
1965.000000 0.6993 0.6998 0.7004 0.7008 0.7014
1960.000000 0.7019 0.7025 0.7032 0.7038 0.7045
1955.000000 0.7050 0.7057 0.7065 0.7075 0.7084
1950.000000 0.7094 0.7104 0.7114 0.7124 0.7133
1945.000000 0.7142 0.7150 0.7157 0.7164 0.7171
1940.000000 0.7180 0.7187 0.7194 0.7201 0.7210
1935.000000 0.7218 0.7226 0.7235 0.7243 0.7251
1930.000000 0.7261 0.7269 0.7278 0.7286 0.7295
1925.000000 0.7301 0.7307 0.7314 0.7319 0.7325
1920.000000 0.7332 0.7339 0.7346 0.7354 0.7362
1915.000000 0.7371 0.7380 0.7393 0.7408 0.7422
1910.000000 0.7439 0.7453 0.7467 0.7481 0.7490
1905.000000 0.7499 0.7508 0.7511 0.7512 0.7514
1900.000000 0.7514 0.7514 0.7514 0.7514 0.7512
1895.000000 0.7511 0.7511 0.7511 0.7511 0.7511
1890.000000 0.7511 0.7511 0.7511 0.7511 0.7515
1885.000000 0.7518 0.7521 0.7528 0.7536 0.7544
1880.000000 0.7553 0.7561 0.7569 0.7580 0.7593
1875.000000 0.7606 0.7618 0.7632 0.7645 0.7658
1870.000000 0.7669 0.7681 0.7692 0.7703 0.7714
1865.000000 0.7724 0.7734 0.7744 0.7754 0.7761
1860.000000 0.7768 0.7775 0.7778 0.7780 0.7781
1855.000000 0.7782 0.7783 0.7785 0.7786 0.7788
1850.000000 0.7789 0.7791 0.7792 0.7793 0.7794
1845.000000 0.7795 0.7795 0.7795 0.7796 0.7796
1840.000000 0.7797 0.7798 0.7798 0.7798 0.7798
1835.000000 0.7797 0.7796 0.7796 0.7796 0.7795
1830.000000 0.7794 0.7794 0.7794 0.7793 0.7793
1825.000000 0.7793 0.7792 0.7791 0.7790 0.7790
1820.000000 0.7789 0.7788 0.7787 0.7787 0.7790
1815.000000 0.7794 0.7799 0.7810 0.7821 0.7832
1810.000000 0.7844 0.7854 0.7868 0.7882 0.7896
1805.000000 0.7910 0.7921 0.7931 0.7941 0.7950
1800.000000 0.7951 0.7955 0.7956 0.7957 0.7956
1795.000000 0.7953 0.7951 0.7950 0.7947 0.7945
1790.000000 0.7943 0.7941 0.7939 0.7938 0.7935
1785.000000 0.7933 0.7931 0.7928 0.7928 0.7925
1780.000000 0.7925 0.7924 0.7922 0.7921 0.7944
1775.000000 0.7919 0.7918 0.7917 0.7917 0.7915
1770.000000 0.7914 0.7911 0.7910 0.7908 0.7907
1765.000000 0.7906 0.7904 0.7901 0.7901 0.7901
1760.000000 0.7900 0.7900 0.7900 0.7900 0.7899
1755.000000 0.7899 0.7898 0.7896 0.7896 0.7895
1750.000000 0.7893 0.7891 0.7889 0.7885 0.7882
1745.000000 0.7878 0.7869 0.7857 0.7843 0.7830
1740.000000 0.7818 0.7808 0.7799 0.7791 0.7787
1735.000000 0.7784 0.7780 0.7776 0.7774 0.7769
1730.000000 0.7767 0.7761 0.7754 0.7747 0.7740
1725.000000 0.7732 0.7725 0.7718 0.7707 0.7695
1720.000000 0.7680 0.7661 0.7640 0.7617 0.7583
1715.000000 0.7525 0.7483 0.7450 0.7419 0.7395
1710.000000 0.7371 0.7353 0.7335 0.7271 0.7194
1705.000000 0.7128 0.7065 0.7003 0.6934 0.6865
1700.000000 0.6707 0.6422 0.6167 0.6029 0.5686
1695.000000 0.5512 0.5339 0.5165 0.4991 0.4816
1690.000000 0.4642 0.4428 0.4049 0.3702 0.3355
1685.000000 0.3007 0.2660 0.2312 0.1963 0.1614
1680.000000 0.1268 0.0956 0.0942 0.0935 0.0935
1675.000000 0.0935 0.0945 0.0975 0.1040 0.1135
1670.000000 0.1300 0.1475 0.1652 0.1829 0.2006
1665.000000 0.2183 0.2360 0.2538 0.2715 0.2893
1660.000000 0.3071 0.3250 0.3428 0.3607 0.3758
1655.000000 0.3824 0.3828 0.3836 0.3836 0.3836
1650.000000 0.3814 0.3696 0.3471 0.3245 0.3018
1645.000000 0.2792 0.2565 0.2338 0.2110 0.1882
1640.000000 0.1654 0.1426 0.1192 0.0981 0.0934
1635.000000 0.0921 0.0917 0.0906 0.0925 0.0942
1630.000000 0.0981 0.1054 0.1123 0.1242 0.1452
1625.000000 0.1707 0.1962 0.2217 0.2427 0.2522
1620.000000 0.2562 0.2603 0.2646 0.2691 0.2759
1615.000000 0.2875 0.3001 0.3128 0.3255 0.3382
1610.000000 0.3509 0.3637 0.3764 0.3892 0.4021
1605.000000 0.4149 0.4277 0.4406 0.4534 0.4662
1600.000000 0.4792 0.4920 0.5050 0.5179 0.5309
1595.000000 0.5439 0.5569 0.5699 0.5829 0.5959
1590.000000 0.6090 0.6220 0.6333 0.6399 0.6441
1585.000000 0.6486 0.6465 0.6468 0.6469 0.6469
1580.000000 0.6462 0.6424 0.6338 0.6240 0.6142
1575.000000 0.6043 0.5945 0.5846 0.5747 0.5649
1570.000000 0.5550 0.5450 0.5366 0.5299 0.5328
1565.000000 0.5331 0.5370 0.5455 0.5544 0.5633
1560.000000 0.5723 0.5812 0.5901 0.5990 0.6080
1555.000000 0.6170 0.6260 0.6331 0.6347 0.6351
1550.000000 0.6353 0.6354 0.6356 0.6360 0.6362
1545.000000 0.6371 0.6383 0.6396 0.6418 0.6451
1540.000000 0.6474 0.6488 0.6498 0.6501 0.6505
1535.000000 0.6506 0.6507 0.6501 0.6471 0.6254
1530.000000 0.5922 0.5582 0.5241 0.4900 0.4558
1525.000000 0.4277 0.4182 0.4176 0.4171 0.4162
1520.000000 0.4152 0.4000 0.3718 0.3418 0.3118
1515.000000 0.2817 0.2516 0.2307 0.2298 0.2302
1510.000000 0.2374 0.2534 0.2712 0.2890 0.3070
1505.000000 0.3248 0.3428 0.3608 0.3787 0.3968
1500.000000 0.4148 0.4328 0.4509 0.4691 0.4853
1495.000000 0.4864 0.4891 0.4870 0.4864 0.4853
1490.000000 0.4762 0.4597 0.4423 0.4248 0.4073
1485.000000 0.3927 0.3864 0.3849 0.3848 0.3848
1480.000000 0.3848 0.3847 0.3843 0.3834 0.3809
1475.000000 0.3759 0.3699 0.3641 0.3559 0.3414
1470.000000 0.3256 0.3097 0.2938 0.2779 0.2620
1465.000000 0.2460 0.2299 0.2139 0.1971 0.1875
1460.000000 0.1792 0.1749 0.1713 0.1693 0.1679
1455.000000 0.1665 0.1653 0.1644 0.1634 0.1622
1450.000000 0.1608 0.1583 0.1501 0.1354 0.1210
1445.000000 0.1213 0.1202 0.1225 0.1269 0.1351
1440.000000 0.1446 0.1528 0.2247 0.3007 0.3172
1435.000000 0.3249 0.3326 0.3423 0.3540 0.3687
1430.000000 0.3820 0.3977 0.4134 0.4292 0.4451
1425.000000 0.4609 0.4768 0.4926 0.5017 0.5079
1420.000000 0.5144 0.5199 0.5251 0.5292 0.5325
1415.000000 0.5354 0.5388 0.5440 0.5497 0.5609
1410.000000 0.5612 0.5638 0.5635 0.5557 0.5425
1405.000000 0.5290 0.5224 0.5223 0.5260 0.5449
1400.000000 0.5637 0.5827 0.5992 0.6060 0.6135
1395.000000 0.6202 0.6256 0.6307 0.6335 0.6353
1390.000000 0.6364 0.6380 0.6381 0.6382 0.6364
1385.000000 0.6316 0.6201 0.6033 0.5744 0.5429
1380.000000 0.5112 0.4797 0.4481 0.4162 0.3845
1375.000000 0.3599 0.3409 0.3223 0.3262 0.3259
1370.000000 0.3258 0.3304 0.3397 0.3491 0.3584
1365.000000 0.3679 0.3757 0.3750 0.3750 0.3690
1360.000000 0.3578 0.3464 0.3350 0.3292 0.3257
1355.000000 0.3273 0.3273 0.3273 0.3279 0.3312
1350.000000 0.3350 0.3395 0.3466 0.3523 0.3574
1345.000000 0.3630 0.3702 0.3774 0.3820 0.3838
1340.000000 0.3852 0.3843 0.3805 0.3696 0.3629
1335.000000 0.3598 0.3618 0.3694 0.3793 0.3877
1330.000000 0.3959 0.4041 0.4124 0.4207 0.4289
1325.000000 0.4372 0.4455 0.4538 0.4622 0.4705
1320.000000 0.4788 0.4819 0.4834 0.4824 0.4810
1315.000000 0.4700 0.4565 0.4429 0.4293 0.4157
1310.000000 0.4110 0.4137 0.4360 0.4605 0.4850
1305.000000 0.5094 0.5309 0.5436 0.5537 0.5574
1300.000000 0.5586 0.5612 0.5596 0.5570 0.5467
1295.000000 0.5274 0.5081 0.4889 0.4696 0.4480
1290.000000 0.4306 0.4203 0.4068 0.3914 0.3758
1285.000000 0.3603 0.3447 0.3292 0.3134 0.2979
1280.000000 0.2822 0.2665 0.2508 0.2351 0.2184
1275.000000 0.2178 0.2162 0.2182 0.2261 0.2572
1270.000000 0.2960 0.3348 0.3737 0.4127 0.4516
1265.000000 0.4908 0.5301 0.5443 0.5488 0.5512
1260.000000 0.5518 0.5517 0.5506 0.5462 0.5137
1255.000000 0.4652 0.4165 0.3677 0.3189 0.2700
1250.000000 0.2210 0.2004 0.2025 0.2029 0.2043
1245.000000 0.2098 0.2263 0.2402 0.2589 0.2714
1240.000000 0.2864 0.3016 0.3167 0.3318 0.3472
1235.000000 0.3625 0.3777 0.3930 0.4082 0.4236
1230.000000 0.4391 0.4545 0.4699 0.4853 0.5008
1225.000000 0.5162 0.5318 0.5532 0.5656 0.5690
1220.000000 0.5710 0.5724 0.5720 0.5710 0.5692
1215.000000 0.5668 0.5628 0.5577 0.5460 0.5189
1210.000000 0.4715 0.4252 0.3788 0.3323 0.2930
1205.000000 0.2920 0.3075 0.3399 0.3723 0.4049
1200.000000 0.4375 0.4701 0.5028 0.5356 0.5678
1195.000000 0.5967 0.6124 0.6189 0.6245 0.6280
1190.000000 0.6312 0.6330 0.6342 0.6335 0.6360
1185.000000 0.6355 0.6335 0.6260 0.6091 0.5919
1180.000000 0.5747 0.5574 0.5401 0.5228 0.5117
1175.000000 0.5090 0.5076 0.5071 0.5062 0.5046
1170.000000 0.5016 0.4919 0.4796 0.4672 0.4548
1165.000000 0.4424 0.4299 0.4259 0.4260 0.4260
1160.000000 0.4262 0.4266 0.4273 0.4281 0.4316
1155.000000 0.4384 0.4449 0.4485 0.4497 0.4504
1150.000000 0.4509 0.4514 0.4520 0.4528 0.4552
1145.000000 0.4610 0.4672 0.4735 0.4801 0.4880
1140.000000 0.4958 0.5035 0.5110 0.5179 0.5237
1135.000000 0.5296 0.5334 0.5351 0.5365 0.5378
1130.000000 0.5386 0.5389 0.5399 0.5398 0.5388
1125.000000 0.5374 0.5336 0.5239 0.5056 0.4786
1120.000000 0.4562 0.4258 0.3953 0.3647 0.3341
1115.000000 0.3033 0.2726 0.2418 0.2124 0.2004
1110.000000 0.1995 0.1992 0.2003 0.2031 0.2082
1105.000000 0.2172 0.2410 0.2811 0.3198 0.3586
1100.000000 0.3974 0.4364 0.4753 0.5145 0.5535
1095.000000 0.5770 0.5879 0.6001 0.6148 0.6281
1090.000000 0.6376 0.6451 0.6510 0.6553 0.6571
1085.000000 0.6596 0.6588 0.6590 0.6581 0.6557
1080.000000 0.6501 0.6428 0.6341 0.6312 0.6306
1075.000000 0.6303 0.6300 0.6298 0.6292 0.6244
1070.000000 0.6120 0.5982 0.5844 0.5774 0.5772
1065.000000 0.5780 0.5822 0.5900 0.5985 0.6006
1060.000000 0.6020 0.6039 0.6032 0.6001 0.5910
1055.000000 0.5796 0.5520 0.5140 0.4762 0.4384
1050.000000 0.4006 0.3682 0.3682 0.3684 0.3782
1045.000000 0.3916 0.4047 0.4112 0.4093 0.4005
1040.000000 0.3868 0.3732 0.3676 0.3675 0.4121
1035.000000 0.4731 0.5323 0.5509 0.5660 0.5827
1030.000000 0.5893 0.5926 0.5924 0.5894 0.5632
1025.000000 0.5306 0.4976 0.4776 0.4780 0.4793
1020.000000 0.4898 0.5177 0.5716 0.6016 0.6257
1015.000000 0.6405 0.6525 0.6643 0.6786 0.6884
1010.000000 0.6961 0.7015 0.7060 0.7101 0.7157
1005.000000 0.7150 0.7149 0.7130 0.7082 0.6987
1000.000000 0.6769 0.6442 0.6256 0.6145 0.6170
995.000000 0.6171 0.6180 0.6204 0.6286 0.6444
990.000000 0.6565 0.6608 0.6594 0.6580 0.6558
985.000000 0.6528 0.6487 0.6442 0.6368 0.6205
980.000000 0.6040 0.5722 0.5250 0.4776 0.4300
975.000000 0.3825 0.3348 0.3024 0.3028 0.3092
970.000000 0.3312 0.3898 0.4529 0.5162 0.5653
965.000000 0.6017 0.6374 0.6562 0.6680 0.6793
960.000000 0.6884 0.6958 0.7004 0.7028 0.7061
955.000000 0.7107 0.7156 0.7199 0.7208 0.7215
950.000000 0.7193 0.7137 0.7111 0.7106 0.7099
945.000000 0.7096 0.7124 0.7175 0.7218 0.7239
940.000000 0.7261 0.7265 0.7265 0.7264 0.7225
935.000000 0.7068 0.6761 0.6449 0.6136 0.5766
930.000000 0.5776 0.5771 0.5867 0.6128 0.6345
925.000000 0.6528 0.6741 0.6928 0.7083 0.7211
920.000000 0.7318 0.7425 0.7478 0.7482 0.7489
915.000000 0.7501 0.7544 0.7599 0.7651 0.7692
910.000000 0.7734 0.7767 0.7795 0.7822 0.7847
905.000000 0.7869 0.7886 0.7895 0.7904 0.7881
900.000000 0.7900 0.7891 0.7876 0.7858 0.7835
895.000000 0.7801 0.7749 0.7653 0.7481 0.7357
890.000000 0.7274 0.7189 0.7218 0.7241 0.7318
885.000000 0.7389 0.7455 0.7521 0.7597 0.7657
880.000000 0.7691 0.7725 0.7755 0.7778 0.7804
875.000000 0.7828 0.7853 0.7876 0.7901 0.7925
870.000000 0.7937 0.7950 0.7962 0.7976 0.7991
865.000000 0.8004 0.8014 0.8022 0.8025 0.8036
860.000000 0.8038 0.8025 0.7975 0.7919 0.7876
855.000000 0.7850 0.7849 0.7847 0.7851 0.7861
850.000000 0.7871 0.7888 0.7905 0.7924 0.7950
845.000000 0.7975 0.8006 0.8031 0.8051 0.8069
840.000000 0.8089 0.8105 0.8118 0.8122 0.8104
835.000000 0.8076 0.8057 0.7986 0.8025 0.8065
830.000000 0.8111 0.8174 0.8216 0.8255 0.8282
825.000000 0.8294 0.8305 0.8317 0.8328 0.8340
820.000000 0.8352 0.8364 0.8375 0.8387 0.8399
815.000000 0.8410 0.8418 0.8445 0.8433 0.8441
810.000000 0.8444 0.8446 0.8449 0.8450 0.8452
805.000000 0.8453 0.8455 0.8456 0.8457 0.8458
800.000000 0.8460 0.8460 0.8462 0.8462 0.8462
795.000000 0.8462 0.8463 0.8454 0.8418 0.8341
790.000000 0.7892 0.7469 0.7472 0.7643 0.7834
785.000000 0.7971 0.8057 0.8119 0.8148 0.8165
780.000000 0.8183 0.8189 0.8203 0.8193 0.8193
775.000000 0.8193 0.8184 0.8171 0.8144 0.8110
770.000000 0.8068 0.8022 0.7961 0.7875 0.7714
765.000000 0.7230 0.6708 0.5789 0.4115 0.4259
760.000000 0.5100 0.5088 0.4871 0.4016 0.3300
755.000000 0.3232 0.3135 0.3038 0.2950 0.2810
750.000000 0.2634 0.2871 0.3143 0.3092 0.2304
745.000000 0.2323 0.3221 0.4666 0.5730 0.6320
740.000000 0.6695 0.6946 0.7128 0.7251 0.7350
735.000000 0.7397 0.7437 0.7476 0.7512 0.7544
730.000000 0.7565 0.7585 0.7600 0.7608 0.7594
725.000000 0.7576 0.7574 0.7571 0.7571 0.7564
720.000000 0.7553 0.7543 0.7537 0.7530 0.7517
715.000000 0.7480 0.7408 0.7244 0.6884 0.6371
710.000000 0.5460 0.4332 0.3200 0.2608 0.2477
705.000000 0.2498 0.3206 0.4074 0.4944 0.5598
700.000000 0.5576 0.4965 0.4222 0.3671 0.3702
695.000000 0.3976 0.4949 0.6368 0.6851 0.7021
690.000000 0.7176 0.7300 0.7384 0.7434 0.7464
685.000000 0.7483 0.7498 0.7515 0.7521 0.7524
680.000000 0.7519 0.7508 0.7467 0.7440 0.7418
675.000000 0.7401 0.7383 0.7347 0.7224 0.6971
670.000000 0.6393 0.5660 0.5714 0.6074 0.6444
665.000000 0.6482 0.6581 0.6801 0.6921 0.6981
660.000000 0.6987 0.6975 0.6954 0.6925 0.6883
655.000000 0.6830 0.6747
##END=
