##TITLE=Acetanilide, 2-tert-butyl-5-methyl
##JCAMP-DX=4.24
##DATA TYPE=INFRARED SPECTRUM
##CLASS=COBLENTZ III
##ORIGIN=MONSANTO (J. FREEMAN)
##OWNER=Copyright (C) 1987 by the Coblentz Society
Collection (C) 2018 copyright by the U.S. Secretary of Commerce
on behalf of the United States of America. All rights reserved.
##DATE=1959/02/05
##NAMES=N-(2-tert-butyl-5-methylphenyl)acetamide
##MOLFORM=C13 H19 N O
##SOURCE REFERENCE=COBLENTZ NO. 9289
##$NIST ID=B6009289
##$NIST SOURCE=COBLENTZ
##$NIST IMAGE=cob9289
##SPECTROMETER/DATA SYSTEM=BECKMAN IR-4 (HYBRID PRISM-GRATING)
##INSTRUMENT PARAMETERS=NaCl PRISM
##STATE=SOLID (NUJOL MULL)
##SAMPLING PROCEDURE=TRANSMISSION
##RESOLUTION=2
##DATA PROCESSING=DIGITIZED BY COBLENTZ SOCIETY (BATCH II) FROM HARD COPY
##XUNITS=1/CM
##YUNITS=TRANSMITTANCE
##XFACTOR=1.0
##YFACTOR=1
##FIRSTX=627
##LASTX=4000
##FIRSTY=0.8963
##MAXX=4000
##MINX=627
##MAXY=0.9836
##MINY=0.0285
##NPOINTS=3374
##XYDATA=(X++(Y..Y))
627.000000 0.8963 0.8964 0.8976 0.8991 0.9003
632.000000 0.9016 0.9032 0.9049 0.9069 0.9087
637.000000 0.9104 0.9118 0.9128 0.9137 0.9141
642.000000 0.9140 0.9139 0.9142 0.9131 0.9122
647.000000 0.9105 0.9088 0.9054 0.9017 0.8961
652.000000 0.8903 0.8828 0.8752 0.8666 0.8581
657.000000 0.8480 0.8375 0.8288 0.8219 0.8190
662.000000 0.8178 0.8168 0.8202 0.8284 0.8347
667.000000 0.8358 0.8338 0.8318 0.8307 0.8314
672.000000 0.8341 0.8372 0.8405 0.8407 0.8404
677.000000 0.8399 0.8404 0.8419 0.8480 0.8552
682.000000 0.8624 0.8695 0.8767 0.8817 0.8855
687.000000 0.8890 0.8915 0.8936 0.8925 0.8923
692.000000 0.8923 0.8922 0.8913 0.8906 0.8887
697.000000 0.8863 0.8832 0.8792 0.8751 0.8684
702.000000 0.8616 0.8532 0.8437 0.8336 0.8228
707.000000 0.8132 0.8053 0.7982 0.7932 0.7915
712.000000 0.7902 0.7876 0.7933 0.7964 0.7994
717.000000 0.8030 0.8066 0.8113 0.8174 0.8262
722.000000 0.8360 0.8464 0.8567 0.8666 0.8775
727.000000 0.8871 0.8942 0.8971 0.9001 0.8862
732.000000 0.8743 0.8619 0.8527 0.8500 0.8629
737.000000 0.8760 0.8917 0.9096 0.9195 0.9263
742.000000 0.9327 0.9388 0.9443 0.9489 0.9524
747.000000 0.9558 0.9590 0.9616 0.9642 0.9661
752.000000 0.9679 0.9695 0.9712 0.9725 0.9738
757.000000 0.9751 0.9760 0.9769 0.9777 0.9784
762.000000 0.9783 0.9786 0.9782 0.9778 0.9771
767.000000 0.9763 0.9756 0.9742 0.9727 0.9711
772.000000 0.9696 0.9670 0.9635 0.9577 0.9495
777.000000 0.9388 0.9270 0.9113 0.9040 0.9020
782.000000 0.9192 0.9340 0.9465 0.9547 0.9613
787.000000 0.9670 0.9718 0.9748 0.9763 0.9774
792.000000 0.9784 0.9794 0.9794 0.9763 0.9786
797.000000 0.9778 0.9770 0.9755 0.9733 0.9709
802.000000 0.9686 0.9652 0.9602 0.9535 0.9425
807.000000 0.9209 0.8644 0.7897 0.6910 0.5047
812.000000 0.4480 0.4480 0.5330 0.5376 0.4587
817.000000 0.3985 0.3951 0.5780 0.7043 0.8302
822.000000 0.8762 0.9014 0.9301 0.9451 0.9533
827.000000 0.9579 0.9603 0.9606 0.9604 0.9589
832.000000 0.9572 0.9547 0.9517 0.9513 0.9565
837.000000 0.9650 0.9698 0.9734 0.9759 0.9779
842.000000 0.9796 0.9810 0.9819 0.9828 0.9833
847.000000 0.9834 0.9835 0.9835 0.9836 0.9836
852.000000 0.9826 0.9835 0.9833 0.9831 0.9829
857.000000 0.9827 0.9824 0.9817 0.9810 0.9803
862.000000 0.9796 0.9783 0.9768 0.9753 0.9729
867.000000 0.9695 0.9647 0.9587 0.9475 0.9089
872.000000 0.8663 0.8615 0.8867 0.8970 0.8772
877.000000 0.8345 0.7919 0.7725 0.7702 0.8671
882.000000 0.9337 0.9520 0.9633 0.9693 0.9718
887.000000 0.9730 0.9727 0.9720 0.9713 0.9707
892.000000 0.9704 0.9737 0.9697 0.9687 0.9679
897.000000 0.9670 0.9661 0.9653 0.9644 0.9637
902.000000 0.9636 0.9637 0.9652 0.9679 0.9713
907.000000 0.9731 0.9742 0.9742 0.9736 0.9723
912.000000 0.9711 0.9698 0.9682 0.9662 0.9642
917.000000 0.9620 0.9597 0.9573 0.9550 0.9526
922.000000 0.9498 0.9470 0.9442 0.9409 0.9372
927.000000 0.9337 0.9305 0.9286 0.9339 0.9398
932.000000 0.9451 0.9505 0.9557 0.9580 0.9589
937.000000 0.9585 0.9572 0.9552 0.9531 0.9501
942.000000 0.9470 0.9428 0.9382 0.9331 0.9273
947.000000 0.9217 0.9139 0.9055 0.9001 0.9005
952.000000 0.9021 0.8973 0.9260 0.9358 0.9447
957.000000 0.9497 0.9518 0.9517 0.9513 0.9519
962.000000 0.9495 0.9473 0.9433 0.9377 0.9291
967.000000 0.9131 0.8862 0.8588 0.8314 0.8042
972.000000 0.7810 0.7814 0.7815 0.8291 0.8610
977.000000 0.8928 0.9104 0.9189 0.9262 0.9294
982.000000 0.9313 0.9323 0.9327 0.9347 0.9322
987.000000 0.9316 0.9304 0.9274 0.9240 0.9204
992.000000 0.9163 0.9119 0.9073 0.9019 0.8965
997.000000 0.8913 0.8862 0.8814 0.8823 0.8825
1002.000000 0.8860 0.8899 0.8956 0.9014 0.9071
1007.000000 0.9128 0.9176 0.9198 0.9213 0.9251
1012.000000 0.9214 0.9205 0.9191 0.9151 0.9065
1017.000000 0.8955 0.8803 0.8602 0.8398 0.8193
1022.000000 0.8013 0.8037 0.8179 0.8468 0.8517
1027.000000 0.8531 0.8539 0.8535 0.8529 0.8520
1032.000000 0.8508 0.8506 0.8513 0.8576 0.8673
1037.000000 0.8739 0.8800 0.8863 0.8931 0.8999
1042.000000 0.9062 0.9123 0.9183 0.9240 0.9295
1047.000000 0.9345 0.9374 0.9402 0.9429 0.9446
1052.000000 0.9456 0.9467 0.9477 0.9486 0.9492
1057.000000 0.9498 0.9503 0.9500 0.9496 0.9520
1062.000000 0.9488 0.9484 0.9472 0.9460 0.9448
1067.000000 0.9435 0.9407 0.9378 0.9348 0.9309
1072.000000 0.9262 0.9201 0.9069 0.8911 0.8654
1077.000000 0.8308 0.7963 0.7619 0.7276 0.6948
1082.000000 0.6865 0.7055 0.7620 0.8184 0.8747
1087.000000 0.9156 0.9247 0.9326 0.9377 0.9412
1092.000000 0.9441 0.9468 0.9489 0.9509 0.9523
1097.000000 0.9535 0.9545 0.9552 0.9558 0.9565
1102.000000 0.9571 0.9574 0.9575 0.9576 0.9577
1107.000000 0.9609 0.9579 0.9578 0.9574 0.9570
1112.000000 0.9565 0.9561 0.9557 0.9550 0.9542
1117.000000 0.9534 0.9526 0.9519 0.9508 0.9496
1122.000000 0.9485 0.9469 0.9452 0.9435 0.9421
1127.000000 0.9422 0.9426 0.9433 0.9435 0.9419
1132.000000 0.9389 0.9331 0.9263 0.9189 0.9118
1137.000000 0.8946 0.8687 0.8640 0.8622 0.8649
1142.000000 0.8914 0.9023 0.9089 0.9139 0.9183
1147.000000 0.9211 0.9236 0.9258 0.9279 0.9286
1152.000000 0.9288 0.9286 0.9276 0.9266 0.9250
1157.000000 0.9233 0.9215 0.9196 0.9176 0.9152
1162.000000 0.9137 0.9134 0.9131 0.9133 0.9137
1167.000000 0.9142 0.9152 0.9162 0.9172 0.9174
1172.000000 0.9171 0.9153 0.9135 0.9108 0.9078
1177.000000 0.9043 0.9006 0.8977 0.8957 0.8959
1182.000000 0.8966 0.8917 0.9009 0.9045 0.9086
1187.000000 0.9116 0.9130 0.9103 0.9115 0.9095
1192.000000 0.9066 0.9030 0.8994 0.8959 0.8926
1197.000000 0.8885 0.8833 0.8782 0.8729 0.8678
1202.000000 0.8642 0.8609 0.8579 0.8566 0.8565
1207.000000 0.8544 0.8604 0.8640 0.8680 0.8736
1212.000000 0.8808 0.8869 0.8911 0.8932 0.8938
1217.000000 0.8937 0.8935 0.8929 0.8955 0.8917
1222.000000 0.8909 0.8901 0.8893 0.8886 0.8876
1227.000000 0.8865 0.8855 0.8840 0.8820 0.8798
1232.000000 0.8770 0.8738 0.8707 0.8657 0.8603
1237.000000 0.8535 0.8466 0.8394 0.8321 0.8249
1242.000000 0.8180 0.8125 0.8098 0.8086 0.8079
1247.000000 0.7986 0.7739 0.7609 0.7502 0.7392
1252.000000 0.7324 0.7278 0.7244 0.7214 0.7199
1257.000000 0.7199 0.7201 0.7230 0.7281 0.7319
1262.000000 0.7344 0.7355 0.7356 0.7351 0.7332
1267.000000 0.7287 0.7088 0.6844 0.6601 0.6357
1272.000000 0.6115 0.5872 0.5630 0.5389 0.5147
1277.000000 0.4906 0.4665 0.4425 0.4185 0.3990
1282.000000 0.3929 0.3897 0.3890 0.3899 0.4325
1287.000000 0.4626 0.4926 0.5225 0.5523 0.5644
1292.000000 0.5644 0.5259 0.4985 0.4712 0.4440
1297.000000 0.4168 0.3896 0.3665 0.3613 0.3597
1302.000000 0.5857 0.6626 0.6785 0.7056 0.7206
1307.000000 0.7302 0.7375 0.7449 0.7522 0.7599
1312.000000 0.7672 0.7725 0.7771 0.7817 0.7852
1317.000000 0.7869 0.7887 0.7903 0.7920 0.7934
1322.000000 0.7942 0.7951 0.7958 0.7967 0.7975
1327.000000 0.7980 0.7982 0.7984 0.7987 0.7989
1332.000000 0.7973 0.7988 0.7985 0.7982 0.7979
1337.000000 0.7975 0.7968 0.7949 0.7926 0.7904
1342.000000 0.7880 0.7856 0.7830 0.7802 0.7777
1347.000000 0.7756 0.7735 0.7715 0.7692 0.7646
1352.000000 0.7589 0.7528 0.7463 0.7370 0.7264
1357.000000 0.7175 0.7072 0.6929 0.6672 0.6324
1362.000000 0.5978 0.5650 0.5332 0.5013 0.4696
1367.000000 0.4378 0.4062 0.3745 0.3429 0.3193
1372.000000 0.3155 0.3168 0.3503 0.3700 0.3897
1377.000000 0.4045 0.4081 0.4094 0.4099 0.4103
1382.000000 0.4139 0.4402 0.4664 0.4927 0.5188
1387.000000 0.5450 0.5712 0.5963 0.6099 0.6155
1392.000000 0.6190 0.6214 0.6240 0.6349 0.6586
1397.000000 0.6640 0.6661 0.6669 0.6650 0.6606
1402.000000 0.6563 0.6520 0.6476 0.6433 0.6390
1407.000000 0.6351 0.6343 0.6350 0.6365 0.6541
1412.000000 0.6724 0.6895 0.6952 0.6970 0.6984
1417.000000 0.6996 0.7008 0.7007 0.7044 0.6999
1422.000000 0.6989 0.6976 0.6936 0.6872 0.6805
1427.000000 0.6733 0.6608 0.6482 0.6357 0.6233
1432.000000 0.6107 0.5983 0.5859 0.5735 0.5610
1437.000000 0.5487 0.5363 0.5239 0.5116 0.4993
1442.000000 0.4870 0.4747 0.4624 0.4502 0.4380
1447.000000 0.4257 0.4135 0.4014 0.3892 0.3770
1452.000000 0.3660 0.3590 0.3500 0.3409 0.3331
1457.000000 0.3275 0.3226 0.3188 0.3165 0.3148
1462.000000 0.3141 0.3135 0.3133 0.3137 0.3145
1467.000000 0.3169 0.3095 0.3353 0.3529 0.3706
1472.000000 0.3882 0.4058 0.4235 0.4409 0.4585
1477.000000 0.4760 0.4914 0.5001 0.5029 0.5039
1482.000000 0.5068 0.5032 0.4936 0.4817 0.4698
1487.000000 0.4579 0.4474 0.4467 0.4469 0.4692
1492.000000 0.4902 0.4996 0.4996 0.4996 0.4994
1497.000000 0.4970 0.5042 0.4821 0.4770 0.4735
1502.000000 0.4729 0.4726 0.4726 0.4737 0.4725
1507.000000 0.4799 0.4837 0.4851 0.4859 0.4817
1512.000000 0.4892 0.4506 0.4333 0.4161 0.3988
1517.000000 0.3816 0.3643 0.3472 0.3301 0.3129
1522.000000 0.2958 0.2787 0.2617 0.2446 0.2276
1527.000000 0.2106 0.1936 0.1766 0.1605 0.1516
1532.000000 0.1455 0.1433 0.1431 0.1424 0.1431
1537.000000 0.1435 0.1440 0.1446 0.1456 0.1479
1542.000000 0.1527 0.1678 0.2077 0.2533 0.2989
1547.000000 0.3444 0.3898 0.4352 0.4792 0.5093
1552.000000 0.5273 0.5377 0.5490 0.5606 0.5710
1557.000000 0.5822 0.6002 0.6173 0.6230 0.6287
1562.000000 0.6347 0.6423 0.6797 0.7152 0.7267
1567.000000 0.7369 0.7475 0.7595 0.7709 0.7809
1572.000000 0.7907 0.8012 0.8119 0.8190 0.8243
1577.000000 0.8293 0.8327 0.8355 0.8380 0.8394
1582.000000 0.8403 0.8413 0.8421 0.8424 0.8425
1587.000000 0.8427 0.8428 0.8428 0.8425 0.8425
1592.000000 0.8414 0.8406 0.8398 0.8388 0.8379
1597.000000 0.8368 0.8351 0.8331 0.8309 0.8283
1602.000000 0.8244 0.8194 0.8117 0.8002 0.7886
1607.000000 0.7771 0.7657 0.7542 0.7427 0.7312
1612.000000 0.7198 0.7083 0.6969 0.6855 0.6741
1617.000000 0.6627 0.6513 0.6416 0.6386 0.6370
1622.000000 0.6354 0.6339 0.6322 0.6286 0.6234
1627.000000 0.6180 0.6093 0.5940 0.5759 0.5577
1632.000000 0.5397 0.5216 0.5036 0.4856 0.4676
1637.000000 0.4496 0.4317 0.4137 0.3958 0.3780
1642.000000 0.3601 0.3423 0.3245 0.3067 0.2889
1647.000000 0.2712 0.2541 0.2498 0.2455 0.2382
1652.000000 0.2300 0.2212 0.2078 0.1909 0.1738
1657.000000 0.1568 0.1398 0.1228 0.1058 0.0888
1662.000000 0.0719 0.0550 0.0381 0.0295 0.0285
1667.000000 0.0289 0.0303 0.0306 0.0315 0.0334
1672.000000 0.2211 0.3618 0.4042 0.4041 0.4028
1677.000000 0.3995 0.3952 0.3909 0.3866 0.3824
1682.000000 0.3817 0.3890 0.4315 0.5054 0.6075
1687.000000 0.7880 0.7994 0.8086 0.8175 0.8262
1692.000000 0.8347 0.8437 0.8532 0.8627 0.8695
1697.000000 0.8758 0.8820 0.8873 0.8915 0.8951
1702.000000 0.8987 0.9024 0.9057 0.9081 0.9102
1707.000000 0.9124 0.9145 0.9166 0.9188 0.9209
1712.000000 0.9228 0.9243 0.9255 0.9268 0.9280
1717.000000 0.9293 0.9306 0.9318 0.9326 0.9331
1722.000000 0.9336 0.9341 0.9346 0.9351 0.9394
1727.000000 0.9360 0.9359 0.9356 0.9355 0.9353
1732.000000 0.9351 0.9348 0.9343 0.9338 0.9333
1737.000000 0.9329 0.9324 0.9318 0.9313 0.9308
1742.000000 0.9302 0.9297 0.9292 0.9285 0.9278
1747.000000 0.9269 0.9260 0.9251 0.9241 0.9230
1752.000000 0.9219 0.9207 0.9195 0.9185 0.9179
1757.000000 0.9180 0.9183 0.9186 0.9189 0.9194
1762.000000 0.9201 0.9209 0.9223 0.9237 0.9249
1767.000000 0.9260 0.9270 0.9281 0.9289 0.9296
1772.000000 0.9303 0.9309 0.9315 0.9320 0.9324
1777.000000 0.9327 0.9329 0.9332 0.9335 0.9337
1782.000000 0.9340 0.9342 0.9344 0.9347 0.9349
1787.000000 0.9352 0.9354 0.9356 0.9358 0.9360
1792.000000 0.9362 0.9364 0.9366 0.9368 0.9371
1797.000000 0.9371 0.9372 0.9372 0.9372 0.9372
1802.000000 0.9372 0.9373 0.9373 0.9373 0.9373
1807.000000 0.9373 0.9374 0.9374 0.9374 0.9373
1812.000000 0.9373 0.9373 0.9373 0.9372 0.9372
1817.000000 0.9372 0.9372 0.9371 0.9371 0.9371
1822.000000 0.9371 0.9370 0.9370 0.9370 0.9370
1827.000000 0.9369 0.9369 0.9369 0.9369 0.9368
1832.000000 0.9368 0.9368 0.9368 0.9367 0.9367
1837.000000 0.9367 0.9367 0.9367 0.9367 0.9367
1842.000000 0.9367 0.9367 0.9367 0.9367 0.9366
1847.000000 0.9366 0.9366 0.9366 0.9367 0.9368
1852.000000 0.9369 0.9370 0.9371 0.9372 0.9373
1857.000000 0.9373 0.9374 0.9376 0.9376 0.9377
1862.000000 0.9378 0.9379 0.9379 0.9380 0.9381
1867.000000 0.9381 0.9381 0.9381 0.9381 0.9381
1872.000000 0.9382 0.9382 0.9382 0.9382 0.9382
1877.000000 0.9382 0.9380 0.9377 0.9373 0.9370
1882.000000 0.9366 0.9363 0.9359 0.9356 0.9352
1887.000000 0.9349 0.9344 0.9338 0.9331 0.9324
1892.000000 0.9316 0.9309 0.9302 0.9295 0.9288
1897.000000 0.9280 0.9272 0.9268 0.9268 0.9271
1902.000000 0.9274 0.9278 0.9280 0.9283 0.9286
1907.000000 0.9290 0.9294 0.9300 0.9307 0.9316
1912.000000 0.9325 0.9333 0.9342 0.9349 0.9355
1917.000000 0.9362 0.9369 0.9375 0.9381 0.9387
1922.000000 0.9394 0.9399 0.9405 0.9409 0.9410
1927.000000 0.9412 0.9413 0.9414 0.9416 0.9417
1932.000000 0.9419 0.9420 0.9421 0.9423 0.9423
1937.000000 0.9423 0.9424 0.9424 0.9425 0.9426
1942.000000 0.9426 0.9427 0.9427 0.9428 0.9429
1947.000000 0.9429 0.9430 0.9431 0.9431 0.9431
1952.000000 0.9432 0.9432 0.9433 0.9434 0.9434
1957.000000 0.9435 0.9436 0.9436 0.9437 0.9438
1962.000000 0.9438 0.9437 0.9436 0.9435 0.9434
1967.000000 0.9433 0.9433 0.9432 0.9431 0.9430
1972.000000 0.9429 0.9429 0.9428 0.9427 0.9426
1977.000000 0.9425 0.9424 0.9424 0.9423 0.9421
1982.000000 0.9421 0.9420 0.9420 0.9418 0.9417
1987.000000 0.9417 0.9416 0.9415 0.9414 0.9413
1992.000000 0.9413 0.9412 0.9411 0.9410 0.9409
1997.000000 0.9408 0.9407 0.9406 0.9406 0.9405
2002.000000 0.9404 0.9403 0.9402 0.9401 0.9400
2007.000000 0.9399 0.9399 0.9398 0.9397 0.9396
2012.000000 0.9395 0.9394 0.9393 0.9392 0.9392
2017.000000 0.9391 0.9390 0.9389 0.9388 0.9388
2022.000000 0.9386 0.9385 0.9385 0.9384 0.9383
2027.000000 0.9382 0.9381 0.9381 0.9380 0.9378
2032.000000 0.9378 0.9377 0.9377 0.9376 0.9374
2037.000000 0.9374 0.9373 0.9373 0.9372 0.9371
2042.000000 0.9371 0.9370 0.9370 0.9369 0.9368
2047.000000 0.9368 0.9367 0.9367 0.9366 0.9365
2052.000000 0.9365 0.9364 0.9363 0.9362 0.9361
2057.000000 0.9361 0.9360 0.9360 0.9359 0.9359
2062.000000 0.9358 0.9357 0.9357 0.9356 0.9356
2067.000000 0.9355 0.9354 0.9354 0.9353 0.9353
2072.000000 0.9352 0.9351 0.9351 0.9350 0.9349
2077.000000 0.9348 0.9347 0.9346 0.9345 0.9344
2082.000000 0.9343 0.9342 0.9341 0.9340 0.9339
2087.000000 0.9338 0.9337 0.9336 0.9335 0.9334
2092.000000 0.9333 0.9331 0.9330 0.9330 0.9329
2097.000000 0.9328 0.9327 0.9326 0.9324 0.9323
2102.000000 0.9323 0.9322 0.9321 0.9320 0.9319
2107.000000 0.9318 0.9316 0.9315 0.9314 0.9314
2112.000000 0.9313 0.9312 0.9311 0.9310 0.9308
2117.000000 0.9307 0.9307 0.9306 0.9305 0.9304
2122.000000 0.9303 0.9302 0.9301 0.9300 0.9299
2127.000000 0.9298 0.9297 0.9296 0.9295 0.9294
2132.000000 0.9293 0.9292 0.9291 0.9290 0.9289
2137.000000 0.9288 0.9287 0.9286 0.9286 0.9285
2142.000000 0.9284 0.9283 0.9283 0.9282 0.9280
2147.000000 0.9279 0.9278 0.9278 0.9277 0.9276
2152.000000 0.9275 0.9274 0.9273 0.9273 0.9272
2157.000000 0.9271 0.9270 0.9269 0.9268 0.9267
2162.000000 0.9266 0.9265 0.9265 0.9264 0.9263
2167.000000 0.9262 0.9262 0.9261 0.9260 0.9259
2172.000000 0.9258 0.9257 0.9256 0.9255 0.9254
2177.000000 0.9253 0.9252 0.9252 0.9251 0.9250
2182.000000 0.9249 0.9249 0.9248 0.9247 0.9246
2187.000000 0.9245 0.9244 0.9244 0.9243 0.9242
2192.000000 0.9241 0.9239 0.9239 0.9238 0.9237
2197.000000 0.9236 0.9235 0.9234 0.9233 0.9232
2202.000000 0.9231 0.9230 0.9230 0.9229 0.9228
2207.000000 0.9227 0.9226 0.9225 0.9224 0.9223
2212.000000 0.9223 0.9222 0.9221 0.9220 0.9219
2217.000000 0.9218 0.9217 0.9216 0.9215 0.9214
2222.000000 0.9214 0.9213 0.9212 0.9211 0.9210
2227.000000 0.9209 0.9208 0.9207 0.9207 0.9206
2232.000000 0.9205 0.9204 0.9203 0.9202 0.9201
2237.000000 0.9200 0.9199 0.9198 0.9198 0.9197
2242.000000 0.9196 0.9195 0.9194 0.9193 0.9192
2247.000000 0.9191 0.9191 0.9190 0.9189 0.9188
2252.000000 0.9187 0.9186 0.9185 0.9184 0.9184
2257.000000 0.9183 0.9182 0.9181 0.9181 0.9180
2262.000000 0.9179 0.9178 0.9177 0.9176 0.9176
2267.000000 0.9175 0.9174 0.9173 0.9173 0.9172
2272.000000 0.9171 0.9170 0.9170 0.9169 0.9168
2277.000000 0.9167 0.9166 0.9165 0.9165 0.9165
2282.000000 0.9164 0.9163 0.9162 0.9162 0.9161
2287.000000 0.9160 0.9159 0.9158 0.9157 0.9157
2292.000000 0.9156 0.9155 0.9154 0.9154 0.9153
2297.000000 0.9152 0.9151 0.9150 0.9149 0.9149
2302.000000 0.9149 0.9148 0.9147 0.9146 0.9146
2307.000000 0.9145 0.9144 0.9143 0.9143 0.9142
2312.000000 0.9141 0.9140 0.9139 0.9138 0.9137
2317.000000 0.9136 0.9135 0.9134 0.9133 0.9132
2322.000000 0.9131 0.9130 0.9129 0.9128 0.9127
2327.000000 0.9126 0.9125 0.9124 0.9123 0.9122
2332.000000 0.9121 0.9120 0.9119 0.9118 0.9117
2337.000000 0.9116 0.9115 0.9114 0.9113 0.9112
2342.000000 0.9111 0.9111 0.9109 0.9108 0.9107
2347.000000 0.9106 0.9105 0.9104 0.9103 0.9102
2352.000000 0.9101 0.9100 0.9100 0.9099 0.9098
2357.000000 0.9097 0.9095 0.9094 0.9093 0.9092
2362.000000 0.9091 0.9090 0.9090 0.9089 0.9088
2367.000000 0.9087 0.9086 0.9085 0.9084 0.9083
2372.000000 0.9081 0.9081 0.9080 0.9079 0.9078
2377.000000 0.9077 0.9076 0.9075 0.9074 0.9073
2382.000000 0.9073 0.9072 0.9071 0.9070 0.9069
2387.000000 0.9068 0.9066 0.9065 0.9065 0.9064
2392.000000 0.9063 0.9062 0.9061 0.9060 0.9059
2397.000000 0.9058 0.9058 0.9057 0.9056 0.9055
2402.000000 0.9054 0.9053 0.9052 0.9052 0.9051
2407.000000 0.9050 0.9049 0.9048 0.9047 0.9045
2412.000000 0.9044 0.9044 0.9043 0.9042 0.9041
2417.000000 0.9040 0.9039 0.9038 0.9038 0.9037
2422.000000 0.9036 0.9035 0.9034 0.9033 0.9033
2427.000000 0.9032 0.9031 0.9030 0.9029 0.9028
2432.000000 0.9027 0.9026 0.9025 0.9024 0.9023
2437.000000 0.9022 0.9021 0.9021 0.9020 0.9019
2442.000000 0.9018 0.9017 0.9016 0.9015 0.9015
2447.000000 0.9014 0.9013 0.9012 0.9011 0.9009
2452.000000 0.9009 0.9008 0.9007 0.9005 0.9004
2457.000000 0.9004 0.9003 0.9002 0.9000 0.8999
2462.000000 0.8998 0.8998 0.8996 0.8995 0.8994
2467.000000 0.8993 0.8991 0.8991 0.8990 0.8989
2472.000000 0.8987 0.8986 0.8986 0.8985 0.8984
2477.000000 0.8982 0.8981 0.8980 0.8980 0.8978
2482.000000 0.8977 0.8976 0.8975 0.8975 0.8973
2487.000000 0.8972 0.8971 0.8970 0.8970 0.8968
2492.000000 0.8967 0.8966 0.8965 0.8964 0.8963
2497.000000 0.8962 0.8961 0.8960 0.8959 0.8958
2502.000000 0.8957 0.8956 0.8955 0.8954 0.8953
2507.000000 0.8952 0.8951 0.8950 0.8949 0.8948
2512.000000 0.8947 0.8946 0.8945 0.8944 0.8942
2517.000000 0.8940 0.8939 0.8937 0.8935 0.8933
2522.000000 0.8932 0.8930 0.8928 0.8927 0.8925
2527.000000 0.8924 0.8922 0.8921 0.8919 0.8918
2532.000000 0.8916 0.8914 0.8913 0.8911 0.8910
2537.000000 0.8908 0.8906 0.8904 0.8903 0.8901
2542.000000 0.8899 0.8898 0.8896 0.8895 0.8893
2547.000000 0.8892 0.8890 0.8889 0.8887 0.8886
2552.000000 0.8884 0.8882 0.8881 0.8879 0.8877
2557.000000 0.8875 0.8874 0.8872 0.8869 0.8867
2562.000000 0.8864 0.8861 0.8859 0.8856 0.8853
2567.000000 0.8851 0.8849 0.8846 0.8844 0.8841
2572.000000 0.8839 0.8836 0.8833 0.8831 0.8828
2577.000000 0.8825 0.8823 0.8820 0.8817 0.8815
2582.000000 0.8813 0.8810 0.8807 0.8804 0.8802
2587.000000 0.8799 0.8796 0.8794 0.8791 0.8789
2592.000000 0.8786 0.8783 0.8781 0.8778 0.8776
2597.000000 0.8773 0.8770 0.8767 0.8764 0.8762
2602.000000 0.8759 0.8757 0.8754 0.8751 0.8749
2607.000000 0.8746 0.8744 0.8741 0.8738 0.8735
2612.000000 0.8732 0.8730 0.8728 0.8726 0.8723
2617.000000 0.8721 0.8718 0.8715 0.8713 0.8711
2622.000000 0.8708 0.8706 0.8704 0.8701 0.8699
2627.000000 0.8696 0.8694 0.8692 0.8689 0.8687
2632.000000 0.8684 0.8682 0.8679 0.8677 0.8675
2637.000000 0.8673 0.8670 0.8668 0.8665 0.8663
2642.000000 0.8660 0.8658 0.8656 0.8654 0.8651
2647.000000 0.8649 0.8646 0.8644 0.8641 0.8639
2652.000000 0.8637 0.8634 0.8632 0.8630 0.8627
2657.000000 0.8625 0.8623 0.8621 0.8619 0.8616
2662.000000 0.8614 0.8612 0.8610 0.8607 0.8605
2667.000000 0.8603 0.8601 0.8599 0.8596 0.8594
2672.000000 0.8592 0.8590 0.8588 0.8586 0.8583
2677.000000 0.8581 0.8579 0.8577 0.8575 0.8572
2682.000000 0.8570 0.8568 0.8566 0.8563 0.8561
2687.000000 0.8559 0.8557 0.8555 0.8553 0.8551
2692.000000 0.8549 0.8546 0.8544 0.8542 0.8540
2697.000000 0.8537 0.8534 0.8532 0.8529 0.8526
2702.000000 0.8523 0.8521 0.8518 0.8515 0.8512
2707.000000 0.8510 0.8507 0.8504 0.8502 0.8499
2712.000000 0.8496 0.8493 0.8491 0.8488 0.8485
2717.000000 0.8483 0.8480 0.8477 0.8474 0.8472
2722.000000 0.8468 0.8465 0.8463 0.8460 0.8457
2727.000000 0.8455 0.8452 0.8449 0.8447 0.8444
2732.000000 0.8441 0.8438 0.8435 0.8432 0.8429
2737.000000 0.8425 0.8421 0.8417 0.8413 0.8409
2742.000000 0.8405 0.8400 0.8395 0.8388 0.8381
2747.000000 0.8373 0.8366 0.8359 0.8352 0.8342
2752.000000 0.8331 0.8321 0.8309 0.8297 0.8286
2757.000000 0.8273 0.8261 0.8248 0.8236 0.8224
2762.000000 0.8212 0.8199 0.8187 0.8175 0.8162
2767.000000 0.8150 0.8138 0.8126 0.8115 0.8104
2772.000000 0.8092 0.8080 0.8069 0.8057 0.8046
2777.000000 0.8034 0.8023 0.8011 0.8000 0.7988
2782.000000 0.7975 0.7962 0.7949 0.7934 0.7920
2787.000000 0.7905 0.7891 0.7877 0.7863 0.7849
2792.000000 0.7834 0.7820 0.7804 0.7787 0.7770
2797.000000 0.7753 0.7736 0.7720 0.7703 0.7687
2802.000000 0.7670 0.7653 0.7636 0.7620 0.7603
2807.000000 0.7586 0.7570 0.7553 0.7537 0.7520
2812.000000 0.7504 0.7488 0.7471 0.7455 0.7438
2817.000000 0.7421 0.7405 0.7384 0.7360 0.7336
2822.000000 0.7311 0.7287 0.7263 0.7239 0.7220
2827.000000 0.7201 0.7182 0.7163 0.7145 0.7126
2832.000000 0.7108 0.7089 0.7071 0.7053 0.7035
2837.000000 0.7017 0.6997 0.6973 0.6950 0.6926
2842.000000 0.6900 0.6875 0.6849 0.6823 0.6797
2847.000000 0.6771 0.6720 0.6654 0.6588 0.6444
2852.000000 0.6171 0.5897 0.5642 0.5516 0.5390
2857.000000 0.5264 0.5120 0.4973 0.4826 0.4679
2862.000000 0.4533 0.4386 0.4240 0.4093 0.3947
2867.000000 0.3800 0.3654 0.3508 0.3362 0.3216
2872.000000 0.3070 0.2925 0.2779 0.2633 0.2488
2877.000000 0.2343 0.2198 0.2053 0.1908 0.1763
2882.000000 0.1619 0.1474 0.1400 0.1399 0.1398
2887.000000 0.1397 0.1399 0.1401 0.1403 0.1419
2892.000000 0.1437 0.1456 0.1474 0.1493 0.1511
2897.000000 0.1530 0.1548 0.1567 0.1585 0.1604
2902.000000 0.1622 0.1640 0.1652 0.1652 0.1652
2907.000000 0.1651 0.1648 0.1646 0.1643 0.1620
2912.000000 0.1586 0.1553 0.1519 0.1486 0.1453
2917.000000 0.1420 0.1386 0.1353 0.1319 0.1286
2922.000000 0.1253 0.1220 0.1187 0.1153 0.1120
2927.000000 0.1087 0.1054 0.1021 0.0988 0.0955
2932.000000 0.0922 0.0889 0.0856 0.0823 0.0790
2937.000000 0.0757 0.0724 0.0691 0.0658 0.0625
2942.000000 0.0593 0.0560 0.0527 0.0495 0.0462
2947.000000 0.0429 0.0396 0.0378 0.0361 0.0344
2952.000000 0.0335 0.0337 0.0339 0.0340 0.0342
2957.000000 0.0344 0.0346 0.0348 0.0350 0.0353
2962.000000 0.0355 0.0328 0.0369 0.0376 0.0384
2967.000000 0.0393 0.0402 0.0411 0.0433 0.0456
2972.000000 0.0479 0.0501 0.0518 0.0536 0.0553
2977.000000 0.0637 0.0737 0.0836 0.0953 0.1117
2982.000000 0.1281 0.1445 0.1609 0.1773 0.1936
2987.000000 0.2100 0.2263 0.2427 0.2590 0.2753
2992.000000 0.2916 0.3079 0.3242 0.3404 0.3566
2997.000000 0.3729 0.3891 0.4053 0.4216 0.4378
3002.000000 0.4540 0.4701 0.4863 0.5004 0.5056
3007.000000 0.5108 0.5160 0.5198 0.5225 0.5252
3012.000000 0.5279 0.5299 0.5319 0.5338 0.5357
3017.000000 0.5375 0.5393 0.5411 0.5428 0.5446
3022.000000 0.5463 0.5481 0.5499 0.5516 0.5534
3027.000000 0.5550 0.5563 0.5575 0.5588 0.5598
3032.000000 0.5608 0.5617 0.5627 0.5636 0.5646
3037.000000 0.5656 0.5703 0.5823 0.5943 0.6064
3042.000000 0.6145 0.6205 0.6264 0.6324 0.6496
3047.000000 0.6676 0.6856 0.7007 0.7053 0.7100
3052.000000 0.7146 0.7186 0.7220 0.7253 0.7287
3057.000000 0.7313 0.7337 0.7360 0.7384 0.7401
3062.000000 0.7418 0.7434 0.7451 0.7468 0.7485
3067.000000 0.7501 0.7518 0.7535 0.7552 0.7569
3072.000000 0.7580 0.7588 0.7596 0.7604 0.7611
3077.000000 0.7618 0.7624 0.7631 0.7637 0.7644
3082.000000 0.7650 0.7656 0.7661 0.7665 0.7670
3087.000000 0.7673 0.7675 0.7678 0.7680 0.7682
3092.000000 0.7684 0.7686 0.7688 0.7688 0.7686
3097.000000 0.7685 0.7684 0.7682 0.7679 0.7676
3102.000000 0.7673 0.7671 0.7668 0.7665 0.7662
3107.000000 0.7658 0.7654 0.7649 0.7645 0.7640
3112.000000 0.7635 0.7630 0.7625 0.7619 0.7613
3117.000000 0.7608 0.7599 0.7589 0.7580 0.7570
3122.000000 0.7555 0.7538 0.7522 0.7506 0.7493
3127.000000 0.7481 0.7469 0.7457 0.7445 0.7434
3132.000000 0.7423 0.7412 0.7401 0.7391 0.7380
3137.000000 0.7370 0.7360 0.7350 0.7340 0.7330
3142.000000 0.7320 0.7310 0.7300 0.7289 0.7277
3147.000000 0.7264 0.7251 0.7237 0.7220 0.7203
3152.000000 0.7186 0.7170 0.7153 0.7136 0.7120
3157.000000 0.7101 0.7081 0.7060 0.7039 0.7018
3162.000000 0.6997 0.6976 0.6955 0.6926 0.6887
3167.000000 0.6848 0.6810 0.6771 0.6734 0.6697
3172.000000 0.6659 0.6626 0.6599 0.6572 0.6544
3177.000000 0.6517 0.6490 0.6463 0.6436 0.6411
3182.000000 0.6390 0.6370 0.6349 0.6329 0.6309
3187.000000 0.6288 0.6268 0.6248 0.6228 0.6208
3192.000000 0.6188 0.6167 0.6148 0.6128 0.6108
3197.000000 0.6088 0.6061 0.6034 0.6007 0.5980
3202.000000 0.5952 0.5924 0.5896 0.5868 0.5836
3207.000000 0.5803 0.5770 0.5737 0.5696 0.5652
3212.000000 0.5608 0.5564 0.5531 0.5504 0.5478
3217.000000 0.5452 0.5428 0.5407 0.5386 0.5365
3222.000000 0.5344 0.5323 0.5302 0.5281 0.5248
3227.000000 0.5169 0.5089 0.5010 0.4930 0.4847
3232.000000 0.4763 0.4679 0.4595 0.4512 0.4428
3237.000000 0.4345 0.4261 0.4178 0.4094 0.4011
3242.000000 0.3928 0.3844 0.3761 0.3678 0.3595
3247.000000 0.3512 0.3429 0.3346 0.3263 0.3180
3252.000000 0.3098 0.3015 0.2932 0.2850 0.2769
3257.000000 0.2689 0.2608 0.2528 0.2492 0.2492
3262.000000 0.2492 0.2492 0.2621 0.3065 0.3509
3267.000000 0.3952 0.4385 0.4412 0.4439 0.4465
3272.000000 0.4492 0.2493 0.4501 0.4502 0.4504
3277.000000 0.4484 0.4497 0.4492 0.4487 0.4478
3282.000000 0.4450 0.4421 0.4393 0.4365 0.4337
3287.000000 0.4308 0.4280 0.4252 0.4224 0.4196
3292.000000 0.4167 0.4139 0.4111 0.4083 0.4055
3297.000000 0.4027 0.3999 0.3971 0.3943 0.3915
3302.000000 0.3887 0.3859 0.3831 0.3803 0.3775
3307.000000 0.3748 0.3726 0.3705 0.3684 0.3662
3312.000000 0.3657 0.3658 0.3658 0.3659 0.3955
3317.000000 0.4798 0.5642 0.6485 0.7329 0.7392
3322.000000 0.7411 0.7431 0.7450 0.3656 0.7504
3327.000000 0.7533 0.7562 0.7591 0.7627 0.7662
3332.000000 0.7697 0.7733 0.7759 0.7782 0.7804
3337.000000 0.7826 0.7848 0.7868 0.7889 0.7909
3342.000000 0.7929 0.7947 0.7963 0.7979 0.7996
3347.000000 0.8012 0.8028 0.8045 0.8061 0.8077
3352.000000 0.8089 0.8099 0.8110 0.8120 0.8130
3357.000000 0.8139 0.8147 0.8156 0.8165 0.8173
3362.000000 0.8182 0.8191 0.8199 0.8208 0.8216
3367.000000 0.8224 0.8233 0.8241 0.8248 0.8254
3372.000000 0.8260 0.8266 0.8272 0.8277 0.8283
3377.000000 0.8289 0.8295 0.8301 0.8307 0.8313
3382.000000 0.8319 0.8325 0.8331 0.8337 0.8342
3387.000000 0.8348 0.8353 0.8357 0.8361 0.8364
3392.000000 0.8368 0.8372 0.8375 0.8379 0.8383
3397.000000 0.8386 0.8390 0.8393 0.8397 0.8400
3402.000000 0.8404 0.8407 0.8411 0.8414 0.8418
3407.000000 0.8419 0.8421 0.8423 0.8425 0.8427
3412.000000 0.8429 0.8430 0.8432 0.8433 0.8435
3417.000000 0.8436 0.8438 0.8440 0.8442 0.8443
3422.000000 0.8445 0.8446 0.8448 0.8449 0.8451
3427.000000 0.8452 0.8453 0.8455 0.8457 0.8458
3432.000000 0.8460 0.8462 0.8463 0.8465 0.8466
3437.000000 0.8468 0.8469 0.8471 0.8472 0.8472
3442.000000 0.8473 0.8474 0.8475 0.8476 0.8477
3447.000000 0.8477 0.8478 0.8479 0.8480 0.8481
3452.000000 0.8482 0.8482 0.8483 0.8484 0.8485
3457.000000 0.8486 0.8487 0.8487 0.8488 0.8488
3462.000000 0.8489 0.8490 0.8491 0.8491 0.8492
3467.000000 0.8493 0.8494 0.8495 0.8496 0.8496
3472.000000 0.8497 0.8498 0.8499 0.8500 0.8501
3477.000000 0.8501 0.8502 0.8502 0.8503 0.8503
3482.000000 0.8504 0.8504 0.8504 0.8504 0.8504
3487.000000 0.8505 0.8505 0.8505 0.8506 0.8506
3492.000000 0.8507 0.8507 0.8507 0.8507 0.8507
3497.000000 0.8508 0.8508 0.8509 0.8509 0.8509
3502.000000 0.8510 0.8510 0.8510 0.8510 0.8510
3507.000000 0.8511 0.8511 0.8512 0.8512 0.8512
3512.000000 0.8513 0.8514 0.8514 0.8515 0.8515
3517.000000 0.8516 0.8517 0.8517 0.8518 0.8518
3522.000000 0.8519 0.8520 0.8521 0.8522 0.8522
3527.000000 0.8523 0.8524 0.8524 0.8525 0.8525
3532.000000 0.8526 0.8527 0.8528 0.8529 0.8529
3537.000000 0.8531 0.8533 0.8534 0.8536 0.8537
3542.000000 0.8539 0.8540 0.8542 0.8543 0.8544
3547.000000 0.8546 0.8548 0.8549 0.8551 0.8552
3552.000000 0.8554 0.8555 0.8556 0.8557 0.8558
3557.000000 0.8559 0.8559 0.8559 0.8559 0.8559
3562.000000 0.8560 0.8560 0.8560 0.8560 0.8560
3567.000000 0.8560 0.8560 0.8560 0.8560 0.8560
3572.000000 0.8560 0.8560 0.8560 0.8560 0.8560
3577.000000 0.8560 0.8560 0.8560 0.8560 0.8560
3582.000000 0.8561 0.8561 0.8561 0.8561 0.8561
3587.000000 0.8561 0.8561 0.8561 0.8561 0.8561
3592.000000 0.8562 0.8562 0.8562 0.8562 0.8562
3597.000000 0.8562 0.8563 0.8563 0.8563 0.8563
3602.000000 0.8563 0.8563 0.8563 0.8563 0.8563
3607.000000 0.8563 0.8564 0.8564 0.8564 0.8564
3612.000000 0.8564 0.8565 0.8565 0.8565 0.8565
3617.000000 0.8565 0.8565 0.8565 0.8565 0.8565
3622.000000 0.8565 0.8565 0.8566 0.8566 0.8566
3627.000000 0.8566 0.8566 0.8565 0.8565 0.8565
3632.000000 0.8565 0.8565 0.8564 0.8564 0.8564
3637.000000 0.8563 0.8563 0.8563 0.8562 0.8562
3642.000000 0.8562 0.8562 0.8562 0.8561 0.8561
3647.000000 0.8560 0.8560 0.8560 0.8575 0.8559
3652.000000 0.8559 0.8559 0.8559 0.8558 0.8558
3657.000000 0.8558 0.8557 0.8557 0.8557 0.8556
3662.000000 0.8556 0.8556 0.8556 0.8556 0.8555
3667.000000 0.8555 0.8555 0.8554 0.8554 0.8554
3672.000000 0.8553 0.8553 0.8553 0.8553 0.8553
3677.000000 0.8552 0.8552 0.8552 0.8551 0.8551
3682.000000 0.8550 0.8550 0.8550 0.8550 0.8550
3687.000000 0.8550 0.8549 0.8549 0.8549 0.8548
3692.000000 0.8548 0.8547 0.8547 0.8547 0.8547
3697.000000 0.8547 0.8547 0.8546 0.8546 0.8545
3702.000000 0.8545 0.8545 0.8544 0.8544 0.8544
3707.000000 0.8544 0.8544 0.8544 0.8543 0.8543
3712.000000 0.8542 0.8541 0.8541 0.8540 0.8540
3717.000000 0.8539 0.8539 0.8538 0.8538 0.8537
3722.000000 0.8537 0.8536 0.8535 0.8535 0.8534
3727.000000 0.8534 0.8533 0.8533 0.8532 0.8532
3732.000000 0.8531 0.8531 0.8530 0.8530 0.8529
3737.000000 0.8528 0.8528 0.8527 0.8526 0.8526
3742.000000 0.8525 0.8524 0.8524 0.8523 0.8523
3747.000000 0.8522 0.8522 0.8521 0.8521 0.8520
3752.000000 0.8519 0.8519 0.8518 0.8518 0.8517
3757.000000 0.8517 0.8516 0.8516 0.8515 0.8515
3762.000000 0.8514 0.8514 0.8513 0.8513 0.8512
3767.000000 0.8511 0.8511 0.8510 0.8510 0.8509
3772.000000 0.8508 0.8507 0.8506 0.8505 0.8504
3777.000000 0.8503 0.8502 0.8501 0.8500 0.8499
3782.000000 0.8498 0.8497 0.8496 0.8495 0.8493
3787.000000 0.8492 0.8491 0.8490 0.8489 0.8488
3792.000000 0.8486 0.8485 0.8484 0.8483 0.8482
3797.000000 0.8481 0.8480 0.8479 0.8478 0.8477
3802.000000 0.8476 0.8475 0.8474 0.8473 0.8472
3807.000000 0.8470 0.8469 0.8468 0.8467 0.8465
3812.000000 0.8464 0.8463 0.8462 0.8461 0.8460
3817.000000 0.8459 0.8458 0.8457 0.8456 0.8455
3822.000000 0.8454 0.8453 0.8452 0.8451 0.8449
3827.000000 0.8448 0.8447 0.8446 0.8445 0.8444
3832.000000 0.8442 0.8441 0.8440 0.8439 0.8438
3837.000000 0.8436 0.8435 0.8434 0.8433 0.8432
3842.000000 0.8430 0.8429 0.8428 0.8427 0.8426
3847.000000 0.8425 0.8423 0.8422 0.8421 0.8420
3852.000000 0.8419 0.8417 0.8416 0.8415 0.8414
3857.000000 0.8413 0.8412 0.8410 0.8409 0.8408
3862.000000 0.8407 0.8406 0.8404 0.8403 0.8402
3867.000000 0.8401 0.8400 0.8399 0.8397 0.8396
3872.000000 0.8395 0.8394 0.8393 0.8392 0.8391
3877.000000 0.8390 0.8389 0.8388 0.8387 0.8386
3882.000000 0.8384 0.8383 0.8382 0.8381 0.8380
3887.000000 0.8379 0.8378 0.8376 0.8375 0.8374
3892.000000 0.8373 0.8372 0.8371 0.8369 0.8368
3897.000000 0.8367 0.8366 0.8365 0.8364 0.8363
3902.000000 0.8362 0.8361 0.8360 0.8359 0.8358
3907.000000 0.8357 0.8356 0.8355 0.8354 0.8353
3912.000000 0.8352 0.8351 0.8350 0.8348 0.8347
3917.000000 0.8346 0.8345 0.8344 0.8343 0.8342
3922.000000 0.8341 0.8340 0.8339 0.8338 0.8337
3927.000000 0.8336 0.8335 0.8334 0.8333 0.8332
3932.000000 0.8331 0.8330 0.8329 0.8328 0.8327
3937.000000 0.8327 0.8325 0.8324 0.8323 0.8322
3942.000000 0.8321 0.8320 0.8319 0.8318 0.8317
3947.000000 0.8316 0.8315 0.8314 0.8313 0.8312
3952.000000 0.8311 0.8310 0.8309 0.8308 0.8307
3957.000000 0.8306 0.8305 0.8304 0.8303 0.8302
3962.000000 0.8301 0.8300 0.8299 0.8298 0.8297
3967.000000 0.8296 0.8295 0.8294 0.8293 0.8292
3972.000000 0.8291 0.8290 0.8289 0.8288 0.8287
3977.000000 0.8286 0.8285 0.8284 0.8283 0.8282
3982.000000 0.8281 0.8281 0.8280 0.8279 0.8278
3987.000000 0.8277 0.8276 0.8275 0.8273 0.8272
3992.000000 0.8271 0.8270 0.8269 0.8268 0.8267
3997.000000 0.8266 0.8265 0.8264 0.8264
##END=
