##TITLE=PSEUDOUREA, 2-[2-(2-BORNYLAMINO)ETHYL]-2-THIO-, DIHYDROBROMIDE
##JCAMP-DX=4.24
##DATA TYPE=INFRARED SPECTRUM
##CLASS=COBLENTZ III
##ORIGIN=SOUTHERN RESEARCH INSTITUTE
##OWNER=COBLENTZ SOCIETY
Collection (C) 2018 copyright by the U.S. Secretary of Commerce
on behalf of the United States of America. All rights reserved.
##DATE=1966/09/23
##MOLFORM=C13 H27 Br2 N3 S
##SOURCE REFERENCE=COBLENTZ NO. 8413
##$NIST ID=B6008413
##$NIST SOURCE=COBLENTZ
##$NIST IMAGE=cob8413
##SPECTROMETER/DATA SYSTEM=PERKIN-ELMER 521 (GRATING)
##INSTRUMENT PARAMETERS=FILTER CHANGE AT 3150, 2500, 2000, 1150, 700, 410 CM^-^1, GRATING CHANGES AT 2000, 630 CM^-^1
##STATE=SOLID (1 mg / 650 mg KBr DISC)
##SAMPLING PROCEDURE=TRANSMISSION
##RESOLUTION=4
##DATA PROCESSING=DIGITIZED BY NIST FROM HARD COPY
##XUNITS=1/CM
##YUNITS=TRANSMITTANCE
##XFACTOR=1.000000
##YFACTOR=1
##DELTAX=001.814647
##FIRSTX=247.959
##LASTX=3815.56
##FIRSTY=0.241
##MAXX=3815.56
##MINX=247.959
##MAXY=0.898
##MINY=0.055
##NPOINTS=1967
##XYDATA=(X++(Y..Y))
247.959000 0.2410 0.2430 0.2450 0.2470 0.2510
257.036852 0.2530 0.2680 0.2970 0.3220 0.3450
266.105000 0.3660 0.4010 0.4150 0.4280 0.4410
275.182852 0.4530 0.4630 0.4730 0.4820 0.4910
284.251000 0.5010 0.5110 0.5210 0.5320 0.5440
293.328852 0.5570 0.5710 0.5870 0.6020 0.6160
302.398000 0.6280 0.6380 0.6470 0.6550 0.6620
311.475852 0.6690 0.6730 0.6780 0.6810 0.6850
320.544000 0.6870 0.6900 0.6920 0.6950 0.6960
329.621852 0.7030 0.7050 0.7100 0.7140 0.7200
338.691000 0.7250 0.7320 0.7410 0.7500 0.7580
347.768852 0.7660 0.7720 0.7780 0.7850 0.7890
356.837000 0.7940 0.7990 0.8030 0.8060 0.8090
365.914852 0.8120 0.8130 0.8150 0.8180 0.8180
374.984000 0.8200 0.8200 0.8200 0.8190 0.8190
384.061852 0.8160 0.8150 0.8130 0.8120 0.8110
393.130000 0.8090 0.8080 0.8080 0.8090 0.8120
402.207852 0.8140 0.8170 0.8200 0.8210 0.8240
411.277000 0.8270 0.8270 0.8300 0.8300 0.8320
420.354852 0.8320 0.8320 0.8310 0.8300 0.8300
429.423000 0.8290 0.8270 0.8240 0.8220 0.8190
438.500852 0.8160 0.8120 0.8040 0.8010 0.7990
447.570000 0.7990 0.8000 0.7990 0.7960 0.7890
456.647852 0.7780 0.7600 0.7350 0.7020 0.6800
465.716000 0.6580 0.6160 0.5800 0.5790 0.5800
474.793852 0.6350 0.7060 0.7280 0.7430 0.7550
483.863000 0.7650 0.7760 0.7800 0.7800 0.7790
492.940852 0.7780 0.7770 0.7760 0.7760 0.7750
502.009000 0.7720 0.7700 0.7680 0.7670 0.7650
511.086852 0.7630 0.7610 0.7600 0.7580 0.7540
520.156000 0.7490 0.7440 0.7390 0.7350 0.7310
529.233852 0.7290 0.7260 0.7250 0.7240 0.7240
538.302000 0.7230 0.7220 0.7200 0.7180 0.7160
547.379852 0.7150 0.7140 0.7140 0.7130 0.7130
556.448000 0.7130 0.7130 0.7140 0.7140 0.7160
565.525852 0.7170 0.7180 0.7190 0.7200 0.7200
574.595000 0.7210 0.7210 0.7200 0.7190 0.7190
583.672852 0.7160 0.7140 0.7080 0.7010 0.6970
592.741000 0.6930 0.6870 0.6810 0.6760 0.6720
601.818852 0.6710 0.6720 0.6730 0.6740 0.6750
610.888000 0.6750 0.6750 0.6750 0.6740 0.6720
619.965852 0.6690 0.6690 0.6680 0.6670 0.6640
629.034000 0.6600 0.6560 0.6520 0.6480 0.6430
638.111852 0.6400 0.6350 0.6320 0.6270 0.6230
647.181000 0.6190 0.6150 0.6100 0.6070 0.6020
656.258852 0.5980 0.5940 0.5890 0.5850 0.5800
665.327000 0.5760 0.5710 0.5670 0.5620 0.5580
674.404852 0.5530 0.5490 0.5440 0.5410 0.5390
683.474000 0.5390 0.5380 0.5370 0.5320 0.5250
692.551852 0.5180 0.5180 0.5280 0.5610 0.5870
701.620000 0.6090 0.6280 0.6460 0.6600 0.6720
710.697852 0.6830 0.6900 0.7040 0.7110 0.7140
719.767000 0.7180 0.7220 0.7240 0.7240 0.7190
728.844852 0.7140 0.7130 0.7150 0.7260 0.7410
737.913000 0.7610 0.7820 0.8010 0.8150 0.8230
746.990852 0.8220 0.8340 0.8370 0.8370 0.8360
756.060000 0.8330 0.8320 0.8270 0.8210 0.8160
765.137852 0.8100 0.8080 0.8090 0.8160 0.8190
774.206000 0.8270 0.8360 0.8410 0.8450 0.8490
783.283852 0.8530 0.8570 0.8620 0.8660 0.8700
792.353000 0.8750 0.8810 0.8860 0.8920 0.8930
801.430852 0.8950 0.8940 0.8920 0.8900 0.8870
810.499000 0.8830 0.8810 0.8740 0.8610 0.8590
819.576852 0.8610 0.8660 0.8890 0.8930 0.8960
828.646000 0.8970 0.8970 0.8970 0.8970 0.8970
837.723852 0.8960 0.8960 0.8960 0.8960 0.8960
846.792000 0.8950 0.8940 0.8930 0.8930 0.8920
855.869852 0.8920 0.8910 0.8900 0.8900 0.8890
864.938000 0.8880 0.8850 0.8830 0.8820 0.8810
874.015852 0.8800 0.8800 0.8810 0.8840 0.8860
883.085000 0.8880 0.8930 0.8970 0.8980 0.8980
892.162852 0.8960 0.8960 0.8960 0.8950 0.8940
901.231000 0.8920 0.8910 0.8870 0.8840 0.8830
910.308852 0.8810 0.8800 0.8800 0.8800 0.8800
919.378000 0.8790 0.8720 0.8590 0.8460 0.8380
928.455852 0.8380 0.8260 0.8240 0.8290 0.8320
937.524000 0.8330 0.8340 0.8340 0.8330 0.8310
946.601852 0.8290 0.8280 0.8240 0.8170 0.8130
955.671000 0.8090 0.8060 0.8030 0.8060 0.8090
964.748852 0.8200 0.8300 0.8330 0.8340 0.8330
973.817000 0.8240 0.8120 0.8030 0.8010 0.7990
982.894852 0.7950 0.7920 0.7870 0.7780 0.7640
991.964000 0.7620 0.7640 0.7670 0.7730 0.7820
1001.041852 0.7900 0.7930 0.7950 0.7970 0.7980
1010.110000 0.7950 0.7920 0.7880 0.7740 0.7550
1019.187852 0.7410 0.7400 0.7360 0.7320 0.7280
1028.257000 0.7000 0.6590 0.6160 0.6160 0.6480
1037.334852 0.7190 0.7200 0.7210 0.7210 0.7190
1046.403000 0.7140 0.7010 0.6950 0.6880 0.6800
1055.480852 0.6710 0.6630 0.6510 0.6430 0.6340
1064.550000 0.6310 0.6340 0.6420 0.6510 0.6600
1073.627852 0.6700 0.6810 0.7050 0.7160 0.7270
1082.696000 0.7380 0.7490 0.7580 0.7660 0.7720
1091.773852 0.7840 0.7860 0.7830 0.7750 0.7680
1100.843000 0.7650 0.7610 0.7590 0.7560 0.7510
1109.920852 0.7480 0.7470 0.7490 0.7540 0.7610
1118.989000 0.7630 0.7650 0.7640 0.7640 0.7630
1128.066852 0.7610 0.7600 0.7590 0.7570 0.7610
1137.135000 0.7580 0.7530 0.7490 0.7430 0.7390
1146.212852 0.7340 0.7310 0.7270 0.7240 0.7220
1155.282000 0.7210 0.7210 0.7210 0.7200 0.7200
1164.359852 0.7190 0.7190 0.7190 0.7180 0.7170
1173.428000 0.7170 0.7150 0.7110 0.7040 0.7000
1182.505852 0.6960 0.6890 0.6830 0.6820 0.6840
1191.575000 0.6880 0.6940 0.7040 0.7090 0.7110
1200.652852 0.7140 0.7170 0.7190 0.7200 0.7210
1209.721000 0.7210 0.7220 0.7220 0.7220 0.7200
1218.798852 0.7200 0.7150 0.7140 0.7100 0.7050
1227.868000 0.7020 0.6980 0.6920 0.6860 0.6780
1236.945852 0.6720 0.6670 0.6620 0.6590 0.6570
1246.014000 0.6440 0.6350 0.6240 0.6110 0.5990
1255.091852 0.5880 0.5750 0.5520 0.5510 0.5520
1264.161000 0.6490 0.6500 0.6660 0.6670 0.6670
1273.238852 0.6680 0.6680 0.6670 0.6660 0.6630
1282.307000 0.6610 0.6590 0.6570 0.6420 0.6360
1291.384852 0.6360 0.6360 0.6360 0.6380 0.6420
1300.454000 0.6490 0.6520 0.6510 0.6450 0.6290
1309.531852 0.6140 0.6020 0.5910 0.5820 0.5750
1318.600000 0.5690 0.5580 0.5560 0.5580 0.5980
1327.677852 0.6070 0.6170 0.6270 0.6330 0.6500
1336.747000 0.6510 0.6510 0.6490 0.6450 0.6420
1345.824852 0.6390 0.6260 0.6150 0.6140 0.6130
1354.893000 0.6140 0.6150 0.6150 0.6150 0.6140
1363.970852 0.6050 0.5950 0.5810 0.5650 0.5460
1373.040000 0.5260 0.5040 0.4850 0.4680 0.4520
1382.117852 0.4370 0.4230 0.4100 0.4040 0.3980
1391.186000 0.3960 0.4050 0.4050 0.4040 0.3960
1400.263852 0.3880 0.3740 0.3600 0.3480 0.3370
1409.333000 0.3270 0.3160 0.3060 0.2960 0.2850
1418.410852 0.2740 0.2600 0.2460 0.2360 0.2320
1427.479000 0.2360 0.2410 0.2510 0.2610 0.2620
1436.556852 0.2640 0.2670 0.2710 0.2850 0.3030
1445.625000 0.3260 0.3500 0.4010 0.4240 0.4450
1454.702852 0.4610 0.4720 0.4740 0.4810 0.4960
1463.772000 0.5100 0.5250 0.5240 0.5180 0.5140
1472.849852 0.5090 0.5090 0.5350 0.5570 0.5800
1481.918000 0.6030 0.6250 0.6470 0.6670 0.7010
1490.995852 0.7140 0.7230 0.7280 0.7410 0.7500
1500.065000 0.7640 0.7660 0.7670 0.7680 0.7680
1509.142852 0.7680 0.7670 0.7650 0.7640 0.7510
1518.211000 0.7240 0.7110 0.6960 0.6770 0.6530
1527.288852 0.6260 0.5990 0.5810 0.5710 0.5710
1536.358000 0.5950 0.6190 0.6370 0.6650 0.7050
1545.435852 0.7220 0.7250 0.7390 0.7400 0.7400
1554.504000 0.7350 0.7320 0.7200 0.7120 0.6990
1563.581852 0.6860 0.6640 0.6430 0.5800 0.5800
1572.651000 0.5940 0.6050 0.6080 0.6490 0.6810
1581.728852 0.7090 0.7280 0.7620 0.7630 0.7620
1590.797000 0.7590 0.7560 0.7490 0.7350 0.7160
1599.874852 0.6960 0.6750 0.6620 0.6480 0.5970
1608.944000 0.5160 0.4280 0.4030 0.3770 0.3270
1618.021852 0.2760 0.2250 0.2250 0.3120 0.3530
1627.090000 0.3530 0.3100 0.2760 0.2140 0.1520
1636.167852 0.1050 0.0560 0.0550 0.0560 0.1070
1645.237000 0.1320 0.1650 0.1990 0.2680 0.4540
1654.314852 0.5240 0.5830 0.6310 0.6690 0.7230
1663.383000 0.7420 0.7640 0.7820 0.7970 0.8110
1672.460852 0.8220 0.8310 0.8390 0.8460 0.8510
1681.530000 0.8560 0.8580 0.8610 0.8630 0.8650
1690.607852 0.8660 0.8670 0.8690 0.8710 0.8740
1699.676000 0.8770 0.8770 0.8780 0.8790 0.8790
1708.753852 0.8790 0.8790 0.8800 0.8800 0.8800
1717.823000 0.8810 0.8810 0.8810 0.8810 0.8810
1726.900852 0.8810 0.8810 0.8810 0.8810 0.8810
1735.969000 0.8810 0.8810 0.8810 0.8810 0.8810
1745.046852 0.8810 0.8820 0.8820 0.8820 0.8820
1754.115000 0.8820 0.8820 0.8820 0.8830 0.8830
1763.192852 0.8830 0.8840 0.8840 0.8850 0.8860
1772.262000 0.8870 0.8880 0.8900 0.8910 0.8910
1781.339852 0.8920 0.8920 0.8920 0.8920 0.8920
1790.408000 0.8930 0.8940 0.8940 0.8940 0.8950
1799.485852 0.8950 0.8950 0.8950 0.8950 0.8950
1808.555000 0.8950 0.8950 0.8950 0.8950 0.8950
1817.632852 0.8950 0.8950 0.8950 0.8940 0.8940
1826.701000 0.8940 0.8940 0.8940 0.8940 0.8940
1835.778852 0.8940 0.8940 0.8940 0.8920 0.8920
1844.848000 0.8920 0.8920 0.8920 0.8920 0.8920
1853.925852 0.8910 0.8910 0.8910 0.8900 0.8900
1862.994000 0.8900 0.8890 0.8890 0.8880 0.8870
1872.071852 0.8860 0.8850 0.8850 0.8850 0.8840
1881.141000 0.8840 0.8840 0.8830 0.8830 0.8830
1890.218852 0.8830 0.8830 0.8830 0.8830 0.8820
1899.287000 0.8820 0.8820 0.8820 0.8820 0.8820
1908.364852 0.8810 0.8810 0.8810 0.8810 0.8810
1917.434000 0.8800 0.8800 0.8800 0.8800 0.8800
1926.511852 0.8800 0.8800 0.8800 0.8800 0.8800
1935.580000 0.8800 0.8800 0.8800 0.8800 0.8800
1944.657852 0.8800 0.8790 0.8790 0.8790 0.8780
1953.727000 0.8780 0.8780 0.8770 0.8770 0.8770
1962.804852 0.8760 0.8760 0.8760 0.8760 0.8760
1971.873000 0.8760 0.8760 0.8760 0.8760 0.8760
1980.950852 0.8760 0.8760 0.8760 0.8760 0.8760
1990.020000 0.8760 0.8760 0.8760 0.8750 0.8750
1999.097852 0.8750 0.8750 0.8750 0.8750 0.8750
2008.166000 0.8750 0.8750 0.8750 0.8750 0.8750
2017.243852 0.8750 0.8740 0.8740 0.8740 0.8740
2026.312000 0.8730 0.8720 0.8720 0.8720 0.8700
2035.389852 0.8690 0.8680 0.8670 0.8670 0.8670
2044.459000 0.8670 0.8670 0.8660 0.8660 0.8660
2053.536852 0.8660 0.8660 0.8660 0.8660 0.8660
2062.605000 0.8650 0.8650 0.8640 0.8640 0.8630
2071.682852 0.8630 0.8630 0.8620 0.8620 0.8610
2080.752000 0.8600 0.8580 0.8570 0.8570 0.8570
2089.829852 0.8570 0.8560 0.8560 0.8550 0.8530
2098.898000 0.8520 0.8510 0.8500 0.8500 0.8500
2107.975852 0.8500 0.8490 0.8490 0.8490 0.8480
2117.045000 0.8480 0.8480 0.8480 0.8480 0.8480
2126.122852 0.8480 0.8480 0.8480 0.8480 0.8480
2135.191000 0.8480 0.8480 0.8480 0.8480 0.8480
2144.268852 0.8480 0.8480 0.8480 0.8480 0.8480
2153.338000 0.8480 0.8480 0.8480 0.8480 0.8480
2162.415852 0.8480 0.8480 0.8480 0.8480 0.8480
2171.484000 0.8480 0.8470 0.8470 0.8470 0.8470
2180.561852 0.8460 0.8460 0.8460 0.8460 0.8450
2189.631000 0.8440 0.8440 0.8430 0.8430 0.8420
2198.708852 0.8420 0.8410 0.8400 0.8390 0.8380
2207.777000 0.8370 0.8360 0.8350 0.8350 0.8330
2216.854852 0.8330 0.8330 0.8330 0.8330 0.8330
2225.924000 0.8330 0.8330 0.8330 0.8330 0.8330
2235.001852 0.8330 0.8320 0.8320 0.8320 0.8310
2244.070000 0.8310 0.8310 0.8310 0.8300 0.8300
2253.147852 0.8300 0.8300 0.8290 0.8290 0.8280
2262.217000 0.8280 0.8270 0.8270 0.8260 0.8250
2271.294852 0.8240 0.8230 0.8220 0.8210 0.8210
2280.363000 0.8210 0.8200 0.8190 0.8170 0.8160
2289.440852 0.8130 0.8120 0.8120 0.8110 0.8100
2298.510000 0.8090 0.8080 0.8070 0.8060 0.8040
2307.587852 0.8030 0.8020 0.7990 0.7980 0.7960
2316.656000 0.7950 0.7940 0.7940 0.7920 0.7890
2325.733852 0.7870 0.7850 0.7840 0.7830 0.7820
2334.802000 0.7810 0.7790 0.7770 0.7760 0.7760
2343.879852 0.7760 0.7760 0.7760 0.7760 0.7760
2352.949000 0.7760 0.7770 0.7770 0.7780 0.7780
2362.026852 0.7790 0.7790 0.7790 0.7790 0.7790
2371.095000 0.7790 0.7790 0.7780 0.7760 0.7760
2380.172852 0.7750 0.7740 0.7730 0.7710 0.7690
2389.242000 0.7670 0.7650 0.7620 0.7600 0.7570
2398.319852 0.7540 0.7500 0.7470 0.7440 0.7430
2407.388000 0.7430 0.7430 0.7430 0.7440 0.7450
2416.465852 0.7480 0.7480 0.7490 0.7490 0.7500
2425.535000 0.7500 0.7500 0.7500 0.7510 0.7510
2434.612852 0.7510 0.7510 0.7500 0.7500 0.7440
2443.681000 0.7430 0.7430 0.7420 0.7420 0.7410
2452.758852 0.7370 0.7320 0.7290 0.7240 0.7230
2461.828000 0.7240 0.7290 0.7320 0.7360 0.7410
2470.905852 0.7440 0.7510 0.7550 0.7560 0.7560
2479.974000 0.7560 0.7540 0.7540 0.7530 0.7520
2489.051852 0.7510 0.7500 0.7490 0.7470 0.7460
2498.121000 0.7450 0.7430 0.7430 0.7410 0.7390
2507.198852 0.7370 0.7350 0.7320 0.7310 0.7290
2516.267000 0.7270 0.7250 0.7230 0.7220 0.7210
2525.344852 0.7190 0.7170 0.7150 0.7140 0.7130
2534.414000 0.7110 0.7090 0.7050 0.7040 0.7030
2543.491852 0.7020 0.7010 0.7000 0.6980 0.6950
2552.560000 0.6920 0.6890 0.6860 0.6830 0.6800
2561.637852 0.6770 0.6730 0.6690 0.6660 0.6610
2570.707000 0.6560 0.6510 0.6510 0.6490 0.6470
2579.784852 0.6440 0.6420 0.6400 0.6380 0.6380
2588.853000 0.6360 0.6330 0.6300 0.6270 0.6240
2597.930852 0.6210 0.6170 0.6150 0.6120 0.6100
2607.000000 0.6080 0.6070 0.6070 0.6070 0.6070
2616.077852 0.6060 0.6040 0.6020 0.6000 0.5980
2625.146000 0.5950 0.5920 0.5890 0.5860 0.5840
2634.223852 0.5810 0.5800 0.5790 0.5780 0.5780
2643.292000 0.5780 0.5780 0.5770 0.5760 0.5750
2652.369852 0.5730 0.5710 0.5690 0.5650 0.5610
2661.439000 0.5560 0.5520 0.5450 0.5400 0.5340
2670.516852 0.5270 0.5210 0.5140 0.5070 0.5000
2679.585000 0.4920 0.4840 0.4770 0.4700 0.4630
2688.662852 0.4550 0.4470 0.4410 0.4340 0.4280
2697.732000 0.4200 0.4150 0.4130 0.4120 0.4120
2706.809852 0.4120 0.4120 0.4110 0.4110 0.4100
2715.878000 0.4100 0.4100 0.4090 0.4080 0.4050
2724.955852 0.4030 0.4010 0.4000 0.3990 0.3970
2734.025000 0.3950 0.3950 0.3940 0.3930 0.3920
2743.102852 0.3910 0.3900 0.3880 0.3860 0.3850
2752.171000 0.3840 0.3830 0.3830 0.3830 0.3820
2761.248852 0.3810 0.3810 0.3810 0.3810 0.3810
2770.318000 0.3810 0.3820 0.3830 0.3830 0.3840
2779.395852 0.3850 0.3890 0.3920 0.3930 0.4030
2788.464000 0.4060 0.4080 0.4100 0.4150 0.4190
2797.541852 0.4200 0.4200 0.4200 0.4190 0.4190
2806.611000 0.4180 0.4160 0.4150 0.4140 0.4120
2815.688852 0.4110 0.4100 0.4080 0.4060 0.4040
2824.757000 0.4020 0.4010 0.4000 0.3990 0.3970
2833.834852 0.3930 0.3900 0.3850 0.3820 0.3770
2842.904000 0.3740 0.3690 0.3630 0.3570 0.3500
2851.981852 0.3420 0.3350 0.3260 0.3170 0.3080
2861.050000 0.2990 0.2900 0.2800 0.2700 0.2610
2870.127852 0.2510 0.2420 0.2330 0.2240 0.2190
2879.197000 0.2140 0.2110 0.2090 0.2070 0.2060
2888.274852 0.2050 0.2050 0.2030 0.2030 0.2020
2897.343000 0.2010 0.1980 0.1920 0.1870 0.1810
2906.420852 0.1760 0.1700 0.1660 0.1610 0.1570
2915.489000 0.1520 0.1490 0.1440 0.1410 0.1360
2924.566852 0.1330 0.1280 0.1240 0.1190 0.1180
2933.636000 0.1160 0.1150 0.1140 0.1130 0.1080
2942.713852 0.1040 0.1010 0.0980 0.0950 0.0920
2951.782000 0.0890 0.0890 0.0890 0.0890 0.0890
2960.859852 0.0890 0.0930 0.0960 0.1040 0.1090
2969.929000 0.1120 0.1150 0.1160 0.1160 0.1160
2979.006852 0.1160 0.1160 0.1160 0.1170 0.1170
2988.075000 0.1180 0.1180 0.1190 0.1200 0.1200
2997.152852 0.1230 0.1250 0.1250 0.1250 0.1250
3006.222000 0.1250 0.1250 0.1250 0.1250 0.1250
3015.299852 0.1250 0.1250 0.1250 0.1250 0.1250
3024.368000 0.1260 0.1260 0.1280 0.1290 0.1290
3033.445852 0.1300 0.1310 0.1320 0.1330 0.1330
3042.515000 0.1360 0.1380 0.1400 0.1420 0.1430
3051.592852 0.1440 0.1450 0.1460 0.1470 0.1490
3060.661000 0.1510 0.1510 0.1510 0.1520 0.1530
3069.738852 0.1540 0.1550 0.1570 0.1590 0.1620
3078.808000 0.1660 0.1690 0.1730 0.1760 0.1780
3087.885852 0.1820 0.1850 0.1870 0.1900 0.1930
3096.954000 0.1960 0.1980 0.2010 0.2040 0.2060
3106.031852 0.2090 0.2110 0.2120 0.2130 0.2140
3115.101000 0.2140 0.2140 0.2140 0.2150 0.2150
3124.178852 0.2160 0.2160 0.2170 0.2170 0.2170
3133.247000 0.2180 0.2180 0.2180 0.2190 0.2190
3142.324852 0.2190 0.2200 0.2200 0.2210 0.2220
3151.394000 0.2220 0.2230 0.2230 0.2230 0.2230
3160.471852 0.2230 0.2230 0.2220 0.2210 0.2200
3169.540000 0.2190 0.2170 0.2160 0.2150 0.2140
3178.617852 0.2140 0.2130 0.2120 0.2120 0.2110
3187.686000 0.2110 0.2110 0.2110 0.2110 0.2120
3196.763852 0.2130 0.2140 0.2140 0.2140 0.2150
3205.833000 0.2150 0.2160 0.2170 0.2170 0.2180
3214.910852 0.2190 0.2190 0.2200 0.2210 0.2210
3223.979000 0.2220 0.2230 0.2230 0.2230 0.2240
3233.056852 0.2250 0.2250 0.2270 0.2290 0.2310
3242.126000 0.2320 0.2330 0.2340 0.2350 0.2360
3251.203852 0.2370 0.2380 0.2380 0.2390 0.2390
3260.272000 0.2400 0.2400 0.2400 0.2400 0.2400
3269.349852 0.2400 0.2400 0.2410 0.2410 0.2420
3278.419000 0.2420 0.2440 0.2450 0.2480 0.2510
3287.496852 0.2540 0.2560 0.2580 0.2600 0.2630
3296.565000 0.2650 0.2660 0.2670 0.2670 0.2680
3305.642852 0.2700 0.2720 0.2730 0.2770 0.2820
3314.712000 0.2860 0.2920 0.2960 0.3010 0.3050
3323.789852 0.3110 0.3160 0.3210 0.3260 0.3310
3332.858000 0.3370 0.3420 0.3480 0.3530 0.3590
3341.935852 0.3650 0.3710 0.3770 0.3830 0.3900
3351.005000 0.4030 0.4100 0.4180 0.4240 0.4320
3360.082852 0.4400 0.4470 0.4550 0.4620 0.4680
3369.151000 0.4750 0.4820 0.4870 0.4930 0.4990
3378.228852 0.5040 0.5090 0.5150 0.5200 0.5250
3387.298000 0.5300 0.5350 0.5390 0.5440 0.5480
3396.375852 0.5530 0.5570 0.5620 0.5650 0.5700
3405.444000 0.5740 0.5790 0.5840 0.5890 0.5950
3414.521852 0.5990 0.6040 0.6080 0.6130 0.6160
3423.591000 0.6210 0.6250 0.6280 0.6320 0.6350
3432.668852 0.6390 0.6420 0.6440 0.6480 0.6510
3441.737000 0.6530 0.6560 0.6590 0.6600 0.6630
3450.814852 0.6660 0.6680 0.6700 0.6720 0.6740
3459.883000 0.6770 0.6780 0.6800 0.6830 0.6850
3468.960852 0.6870 0.6880 0.6910 0.6930 0.6950
3478.030000 0.6960 0.7010 0.7030 0.7040 0.7050
3487.107852 0.7070 0.7070 0.7090 0.7100 0.7110
3496.176000 0.7120 0.7120 0.7130 0.7150 0.7180
3505.253852 0.7200 0.7220 0.7240 0.7260 0.7280
3514.323000 0.7300 0.7320 0.7340 0.7360 0.7370
3523.400852 0.7380 0.7390 0.7410 0.7420 0.7450
3532.469000 0.7470 0.7490 0.7500 0.7520 0.7540
3541.546852 0.7560 0.7580 0.7590 0.7610 0.7620
3550.616000 0.7640 0.7660 0.7670 0.7690 0.7710
3559.693852 0.7730 0.7750 0.7760 0.7780 0.7800
3568.762000 0.7810 0.7830 0.7850 0.7860 0.7880
3577.839852 0.7900 0.7920 0.7930 0.7940 0.7960
3586.909000 0.7980 0.7990 0.8010 0.8010 0.8030
3595.986852 0.8060 0.8090 0.8120 0.8130 0.8150
3605.055000 0.8170 0.8200 0.8210 0.8240 0.8260
3614.132852 0.8270 0.8290 0.8300 0.8310 0.8330
3623.202000 0.8340 0.8360 0.8380 0.8390 0.8400
3632.279852 0.8410 0.8410 0.8420 0.8430 0.8440
3641.348000 0.8450 0.8460 0.8470 0.8480 0.8480
3650.425852 0.8480 0.8480 0.8480 0.8490 0.8490
3659.495000 0.8490 0.8490 0.8490 0.8490 0.8490
3668.572852 0.8490 0.8490 0.8490 0.8490 0.8500
3677.641000 0.8500 0.8510 0.8510 0.8520 0.8520
3686.718852 0.8520 0.8530 0.8530 0.8540 0.8540
3695.788000 0.8540 0.8540 0.8540 0.8550 0.8550
3704.865852 0.8550 0.8550 0.8550 0.8560 0.8560
3713.934000 0.8560 0.8560 0.8560 0.8560 0.8560
3723.011852 0.8560 0.8560 0.8550 0.8550 0.8540
3732.081000 0.8540 0.8530 0.8530 0.8520 0.8520
3741.158852 0.8520 0.8520 0.8510 0.8510 0.8510
3750.227000 0.8500 0.8500 0.8500 0.8500 0.8490
3759.304852 0.8490 0.8490 0.8490 0.8490 0.8490
3768.373000 0.8490 0.8490 0.8490 0.8490 0.8490
3777.450852 0.8490 0.8490 0.8490 0.8480 0.8480
3786.520000 0.8480 0.8480 0.8480 0.8480 0.8480
3795.597852 0.8480 0.8480 0.8480 0.8470 0.8470
3804.666000 0.8460 0.8450 0.8450 0.8440 0.8440
3813.743852 0.8440 0.8440
##END=
