##TITLE=PIPERAZINE, 1,4-DIAMINO-, DIHYDRATE
##JCAMP-DX=4.24
$$ By DXEDIT 1.05 (RS McDonald)
##DATA TYPE=INFRARED SPECTRUM
##CLASS=COBLENTZ III
##ORIGIN=WYANDOTTE CHEMICALS CORP.
##OWNER=COBLENTZ SOC.
Collection (C) 2018 copyright by the U.S. Secretary of Commerce
on behalf of the United States of America. All rights reserved.
##DATE=1958/04/10
##MOLFORM=C4 H12 N4  * 2 H2 O
##SOURCE REFERENCE=COBLENTZ NO. 05962
##$NIST ID=B6005962
##$NIST SOURCE=COBLENTZ
##$NIST IMAGE=cob5962
##SPECTROMETER/DATA SYSTEM=BAIRD (GRATING)
##INSTRUMENT PARAMETERS=NaCl PRISM
##STATE=SOLID (OIL MULL)
##PATH LENGTH=
$$SPECTRAL CONTAMINATION DUE TO OIL AROUND 1470 AND 2900 CM^-^1
##SAMPLING PROCEDURE=TRANSMISSION
##RESOLUTION=2
##DATA PROCESSING=DIGITIZED BY COBLENTZ SOCIETY (BATCH I) FROM HARD COPY
##XUNITS=1/CM
##YUNITS=TRANSMITTANCE
##XLABEL=Wavenumbers (cm-1)
##YLABEL=Transmittance
##XFACTOR=1
##YFACTOR=1
##DELTAX=1
##FIRSTX=4000
##LASTX=625
##FIRSTY=0.9384
##MAXX=4000
##MINX=625
##MAXY=0.9794
##MINY=0.0286
##NPOINTS=3376
##XYDATA=(X++(Y..Y))
4000.000000 0.9384 0.9383 0.9382 0.9382 0.9381
3995.000000 0.9380 0.9380 0.9378 0.9378 0.9378
3990.000000 0.9378 0.9377 0.9377 0.9377 0.9377
3985.000000 0.9377 0.9377 0.9377 0.9377 0.9377
3980.000000 0.9377 0.9377 0.9377 0.9377 0.9377
3975.000000 0.9377 0.9378 0.9378 0.9378 0.9378
3970.000000 0.9378 0.9378 0.9378 0.9378 0.9378
3965.000000 0.9378 0.9378 0.9378 0.9378 0.9378
3960.000000 0.9378 0.9378 0.9378 0.9378 0.9378
3955.000000 0.9380 0.9380 0.9380 0.9380 0.9380
3950.000000 0.9380 0.9380 0.9380 0.9380 0.9380
3945.000000 0.9380 0.9380 0.9381 0.9384 0.9386
3940.000000 0.9389 0.9391 0.9394 0.9397 0.9399
3935.000000 0.9402 0.9405 0.9408 0.9410 0.9413
3930.000000 0.9415 0.9417 0.9418 0.9421 0.9424
3925.000000 0.9425 0.9428 0.9430 0.9432 0.9434
3920.000000 0.9436 0.9438 0.9439 0.9441 0.9443
3915.000000 0.9445 0.9447 0.9448 0.9450 0.9452
3910.000000 0.9453 0.9455 0.9457 0.9458 0.9460
3905.000000 0.9461 0.9462 0.9463 0.9464 0.9465
3900.000000 0.9466 0.9466 0.9467 0.9468 0.9468
3895.000000 0.9470 0.9471 0.9471 0.9473 0.9474
3890.000000 0.9475 0.9475 0.9477 0.9477 0.9477
3885.000000 0.9477 0.9477 0.9477 0.9477 0.9475
3880.000000 0.9475 0.9475 0.9474 0.9473 0.9471
3875.000000 0.9471 0.9471 0.9471 0.9470 0.9468
3870.000000 0.9468 0.9464 0.9460 0.9455 0.9451
3865.000000 0.9446 0.9442 0.9436 0.9430 0.9423
3860.000000 0.9417 0.9411 0.9405 0.9400 0.9395
3855.000000 0.9389 0.9384 0.9378 0.9373 0.9368
3850.000000 0.9362 0.9357 0.9351 0.9346 0.9341
3845.000000 0.9335 0.9330 0.9325 0.9320 0.9314
3840.000000 0.9309 0.9304 0.9298 0.9293 0.9287
3835.000000 0.9282 0.9275 0.9271 0.9265 0.9259
3830.000000 0.9253 0.9247 0.9241 0.9235 0.9228
3825.000000 0.9221 0.9216 0.9210 0.9204 0.9197
3820.000000 0.9191 0.9184 0.9178 0.9171 0.9170
3815.000000 0.9168 0.9168 0.9167 0.9166 0.9166
3810.000000 0.9165 0.9165 0.9164 0.9164 0.9164
3805.000000 0.9163 0.9163 0.9163 0.9162 0.9162
3800.000000 0.9162 0.9161 0.9161 0.9161 0.9160
3795.000000 0.9160 0.9160 0.9159 0.9159 0.9159
3790.000000 0.9158 0.9158 0.9158 0.9157 0.9157
3785.000000 0.9156 0.9156 0.9156 0.9155 0.9154
3780.000000 0.9154 0.9153 0.9152 0.9151 0.9150
3775.000000 0.9148 0.9147 0.9146 0.9144 0.9143
3770.000000 0.9141 0.9140 0.9139 0.9137 0.9136
3765.000000 0.9134 0.9131 0.9128 0.9124 0.9121
3760.000000 0.9118 0.9114 0.9109 0.9105 0.9100
3755.000000 0.9096 0.9092 0.9087 0.9083 0.9078
3750.000000 0.9074 0.9068 0.9065 0.9060 0.9056
3745.000000 0.9052 0.9047 0.9043 0.9036 0.9028
3740.000000 0.9021 0.9013 0.9005 0.8997 0.8989
3735.000000 0.8981 0.8973 0.8966 0.8958 0.8950
3730.000000 0.8942 0.8934 0.8925 0.8918 0.8910
3725.000000 0.8902 0.8894 0.8886 0.8878 0.8870
3720.000000 0.8860 0.8846 0.8831 0.8817 0.8802
3715.000000 0.8788 0.8771 0.8757 0.8741 0.8725
3710.000000 0.8710 0.8694 0.8678 0.8663 0.8648
3705.000000 0.8633 0.8617 0.8603 0.8590 0.8575
3700.000000 0.8563 0.8550 0.8537 0.8527 0.8516
3695.000000 0.8506 0.8495 0.8485 0.8474 0.8464
3690.000000 0.8453 0.8442 0.8432 0.8421 0.8410
3685.000000 0.8400 0.8389 0.8378 0.8368 0.8357
3680.000000 0.8346 0.8336 0.8325 0.8314 0.8303
3675.000000 0.8290 0.8277 0.8265 0.8252 0.8239
3670.000000 0.8221 0.8205 0.8188 0.8171 0.8154
3665.000000 0.8137 0.8119 0.8103 0.8086 0.8068
3660.000000 0.8051 0.8035 0.8018 0.8001 0.7984
3655.000000 0.7967 0.7949 0.7931 0.7914 0.7896
3650.000000 0.7878 0.7860 0.7842 0.7822 0.7805
3645.000000 0.7787 0.7768 0.7750 0.7732 0.7714
3640.000000 0.7696 0.7676 0.7656 0.7635 0.7614
3635.000000 0.7593 0.7571 0.7547 0.7521 0.7495
3630.000000 0.7468 0.7443 0.7417 0.7391 0.7365
3625.000000 0.7339 0.7312 0.7286 0.7258 0.7230
3620.000000 0.7201 0.7174 0.7146 0.7115 0.7085
3615.000000 0.7054 0.7022 0.6992 0.6914 0.6818
3610.000000 0.6721 0.6625 0.6528 0.6465 0.6435
3605.000000 0.6404 0.6373 0.6342 0.6316 0.6300
3600.000000 0.6284 0.6268 0.6252 0.6237 0.6221
3595.000000 0.6205 0.6189 0.6173 0.6157 0.6141
3590.000000 0.6125 0.6109 0.6094 0.6078 0.6064
3585.000000 0.6050 0.6036 0.6023 0.6009 0.5996
3580.000000 0.5984 0.5971 0.5959 0.5946 0.5934
3575.000000 0.5921 0.5909 0.5896 0.5884 0.5871
3570.000000 0.5859 0.5846 0.5833 0.5821 0.5807
3565.000000 0.5790 0.5773 0.5755 0.5738 0.5720
3560.000000 0.5699 0.5677 0.5655 0.5634 0.5612
3555.000000 0.5592 0.5571 0.5550 0.5529 0.5509
3550.000000 0.5489 0.5470 0.5450 0.5431 0.5410
3545.000000 0.5385 0.5360 0.5335 0.5309 0.5283
3540.000000 0.5250 0.5217 0.5184 0.5151 0.5118
3535.000000 0.5085 0.5052 0.5019 0.4986 0.4953
3530.000000 0.4920 0.4887 0.4854 0.4821 0.4787
3525.000000 0.4754 0.4721 0.4688 0.4655 0.4621
3520.000000 0.4588 0.4555 0.4521 0.4488 0.4455
3515.000000 0.4421 0.4388 0.4354 0.4321 0.4288
3510.000000 0.4254 0.4221 0.4188 0.4154 0.4121
3505.000000 0.4087 0.4054 0.4020 0.3987 0.3953
3500.000000 0.3918 0.3886 0.3852 0.3818 0.3784
3495.000000 0.3750 0.3716 0.3682 0.3649 0.3614
3490.000000 0.3582 0.3548 0.3514 0.3480 0.3446
3485.000000 0.3412 0.3378 0.3344 0.3309 0.3276
3480.000000 0.3242 0.3208 0.3174 0.3140 0.3106
3475.000000 0.3071 0.3037 0.3003 0.2969 0.2934
3470.000000 0.2900 0.2866 0.2832 0.2798 0.2763
3465.000000 0.2729 0.2694 0.2660 0.2626 0.2591
3460.000000 0.2557 0.2522 0.2488 0.2454 0.2421
3455.000000 0.2387 0.2354 0.2321 0.2295 0.2269
3450.000000 0.2243 0.2217 0.2191 0.2165 0.2140
3445.000000 0.2114 0.2088 0.2062 0.2036 0.2011
3440.000000 0.1984 0.1960 0.1934 0.1909 0.1884
3435.000000 0.1858 0.1833 0.1818 0.1802 0.1785
3430.000000 0.1771 0.1756 0.1744 0.1733 0.1722
3425.000000 0.1710 0.1699 0.1686 0.1676 0.1664
3420.000000 0.1653 0.1641 0.1629 0.1618 0.1607
3415.000000 0.1595 0.1583 0.1572 0.1560 0.1549
3410.000000 0.1535 0.1521 0.1506 0.1492 0.1478
3405.000000 0.1462 0.1446 0.1432 0.1416 0.1401
3400.000000 0.1386 0.1371 0.1356 0.1340 0.1325
3395.000000 0.1310 0.1295 0.1280 0.1265 0.1250
3390.000000 0.1235 0.1220 0.1205 0.1192 0.1183
3385.000000 0.1173 0.1164 0.1154 0.1146 0.1137
3380.000000 0.1129 0.1121 0.1112 0.1104 0.1095
3375.000000 0.1087 0.1078 0.1070 0.1061 0.1053
3370.000000 0.1045 0.1036 0.1028 0.1019 0.1011
3365.000000 0.1003 0.0993 0.0986 0.0976 0.0968
3360.000000 0.0960 0.0956 0.0951 0.0946 0.0941
3355.000000 0.0936 0.0931 0.0926 0.0921 0.0916
3350.000000 0.0912 0.0907 0.0902 0.0896 0.0895
3345.000000 0.0893 0.0892 0.0892 0.0891 0.0891
3340.000000 0.0889 0.0889 0.0889 0.0888 0.0887
3335.000000 0.0886 0.0885 0.0884 0.0883 0.0882
3330.000000 0.0881 0.0881 0.0880 0.0880 0.0879
3325.000000 0.0879 0.0878 0.0878 0.0878 0.0878
3320.000000 0.0876 0.0876 0.0876 0.0876 0.0876
3315.000000 0.0876 0.0876 0.0876 0.0876 0.0875
3310.000000 0.0875 0.0875 0.0875 0.0875 0.0872
3305.000000 0.0872 0.0871 0.0870 0.0869 0.0867
3300.000000 0.0865 0.0864 0.0862 0.0859 0.0857
3295.000000 0.0854 0.0851 0.0847 0.0843 0.0841
3290.000000 0.0837 0.0834 0.0830 0.0826 0.0822
3285.000000 0.0820 0.0816 0.0813 0.0810 0.0806
3280.000000 0.0803 0.0799 0.0796 0.0792 0.0789
3275.000000 0.0785 0.0782 0.0778 0.0775 0.0771
3270.000000 0.0768 0.0764 0.0761 0.0757 0.0754
3265.000000 0.0751 0.0747 0.0744 0.0740 0.0737
3260.000000 0.0733 0.0730 0.0727 0.0723 0.0720
3255.000000 0.0717 0.0714 0.0710 0.0707 0.0704
3250.000000 0.0700 0.0696 0.0693 0.0689 0.0686
3245.000000 0.0683 0.0679 0.0676 0.0672 0.0669
3240.000000 0.0665 0.0661 0.0657 0.0654 0.0650
3235.000000 0.0647 0.0643 0.0639 0.0636 0.0632
3230.000000 0.0629 0.0625 0.0621 0.0618 0.0614
3225.000000 0.0611 0.0607 0.0603 0.0600 0.0596
3220.000000 0.0592 0.0588 0.0584 0.0581 0.0577
3215.000000 0.0573 0.0570 0.0567 0.0564 0.0561
3210.000000 0.0559 0.0557 0.0557 0.0557 0.0557
3205.000000 0.0558 0.0558 0.0559 0.0559 0.0560
3200.000000 0.0560 0.0560 0.0561 0.0561 0.0562
3195.000000 0.0562 0.0563 0.0563 0.0564 0.0565
3190.000000 0.0566 0.0567 0.0568 0.0569 0.0570
3185.000000 0.0570 0.0570 0.0569 0.0568 0.0567
3180.000000 0.0565 0.0563 0.0561 0.0558 0.0556
3175.000000 0.0554 0.0552 0.0550 0.0548 0.0545
3170.000000 0.0542 0.0540 0.0536 0.0533 0.0529
3165.000000 0.0525 0.0522 0.0518 0.0515 0.0511
3160.000000 0.0508 0.0504 0.0501 0.0497 0.0494
3155.000000 0.0490 0.0486 0.0483 0.0480 0.0477
3150.000000 0.0473 0.0471 0.0469 0.0466 0.0463
3145.000000 0.0460 0.0457 0.0454 0.0451 0.0448
3140.000000 0.0445 0.0442 0.0439 0.0436 0.0434
3135.000000 0.0432 0.0430 0.0427 0.0425 0.0423
3130.000000 0.0421 0.0419 0.0417 0.0415 0.0413
3125.000000 0.0411 0.0409 0.0407 0.0406 0.0404
3120.000000 0.0403 0.0402 0.0401 0.0399 0.0398
3115.000000 0.0397 0.0395 0.0394 0.0394 0.0394
3110.000000 0.0394 0.0394 0.0395 0.0395 0.0396
3105.000000 0.0397 0.0398 0.0399 0.0399 0.0401
3100.000000 0.0403 0.0404 0.0406 0.0413 0.0419
3095.000000 0.0425 0.0433 0.0440 0.0446 0.0453
3090.000000 0.0460 0.0465 0.0469 0.0475 0.0481
3085.000000 0.0486 0.0491 0.0496 0.0502 0.0507
3080.000000 0.0512 0.0517 0.0521 0.0525 0.0529
3075.000000 0.0534 0.0536 0.0539 0.0542 0.0544
3070.000000 0.0546 0.0549 0.0551 0.0554 0.0556
3065.000000 0.0558 0.0561 0.0563 0.0565 0.0567
3060.000000 0.0569 0.0571 0.0573 0.0574 0.0576
3055.000000 0.0577 0.0579 0.0581 0.0582 0.0584
3050.000000 0.0586 0.0587 0.0589 0.0590 0.0591
3045.000000 0.0593 0.0593 0.0593 0.0593 0.0594
3040.000000 0.0594 0.0594 0.0594 0.0595 0.0595
3035.000000 0.0595 0.0595 0.0595 0.0595 0.0595
3030.000000 0.0594 0.0594 0.0593 0.0593 0.0592
3025.000000 0.0592 0.0592 0.0592 0.0590 0.0589
3020.000000 0.0638 0.0587 0.0584 0.0582 0.0579
3015.000000 0.0577 0.0574 0.0571 0.0568 0.0562
3010.000000 0.0555 0.0548 0.0541 0.0534 0.0527
3005.000000 0.0520 0.0511 0.0501 0.0491 0.0482
3000.000000 0.0471 0.0462 0.0452 0.0444 0.0437
2995.000000 0.0430 0.0423 0.0416 0.0409 0.0402
2990.000000 0.0396 0.0389 0.0383 0.0376 0.0371
2985.000000 0.0366 0.0360 0.0355 0.0350 0.0344
2980.000000 0.0339 0.0335 0.0331 0.0327 0.0323
2975.000000 0.0320 0.0316 0.0314 0.0312 0.0310
2970.000000 0.0307 0.0305 0.0305 0.0304 0.0303
2965.000000 0.0302 0.0301 0.0300 0.0299 0.0299
2960.000000 0.0298 0.0297 0.0296 0.0296 0.0295
2955.000000 0.0294 0.0294 0.0294 0.0294 0.0293
2950.000000 0.0293 0.0293 0.0292 0.0292 0.0291
2945.000000 0.0291 0.0290 0.0290 0.0290 0.0289
2940.000000 0.0289 0.0289 0.0289 0.0288 0.0288
2935.000000 0.0288 0.0287 0.0287 0.0286 0.0286
2930.000000 0.0286 0.0286 0.0286 0.0286 0.0286
2925.000000 0.0286 0.0286 0.0287 0.0287 0.0287
2920.000000 0.0287 0.0287 0.0287 0.0288 0.0288
2915.000000 0.0288 0.0288 0.0289 0.0289 0.0289
2910.000000 0.0289 0.0289 0.0289 0.0289 0.0290
2905.000000 0.0290 0.0290 0.0290 0.0290 0.0290
2900.000000 0.0291 0.0291 0.0291 0.0291 0.0291
2895.000000 0.0291 0.0291 0.0292 0.0292 0.0292
2890.000000 0.0292 0.0292 0.0293 0.0293 0.0294
2885.000000 0.0295 0.0296 0.0297 0.0298 0.0299
2880.000000 0.0300 0.0301 0.0301 0.0302 0.0303
2875.000000 0.0304 0.0305 0.0306 0.0307 0.0308
2870.000000 0.0309 0.0310 0.0311 0.0311 0.0313
2865.000000 0.0314 0.0315 0.0316 0.0317 0.0318
2860.000000 0.0320 0.0321 0.0322 0.0324 0.0325
2855.000000 0.0325 0.0326 0.0328 0.0329 0.0330
2850.000000 0.0331 0.0333 0.0334 0.0335 0.0336
2845.000000 0.0337 0.0338 0.0341 0.0343 0.0346
2840.000000 0.0349 0.0352 0.0356 0.0359 0.0362
2835.000000 0.0366 0.0368 0.0372 0.0375 0.0379
2830.000000 0.0386 0.0393 0.0400 0.0415 0.0429
2825.000000 0.0443 0.0462 0.0480 0.0499 0.0530
2820.000000 0.0567 0.0605 0.0647 0.0694 0.0741
2815.000000 0.0792 0.0850 0.0907 0.0969 0.1053
2810.000000 0.1137 0.1221 0.1372 0.1524 0.1676
2805.000000 0.1766 0.1844 0.1923 0.1974 0.2013
2800.000000 0.2051 0.2090 0.2128 0.2167 0.2223
2795.000000 0.2302 0.2381 0.2466 0.2565 0.2663
2790.000000 0.2760 0.2847 0.2934 0.3019 0.3066
2785.000000 0.3113 0.3160 0.3203 0.3246 0.3290
2780.000000 0.3310 0.3329 0.3347 0.3364 0.3382
2775.000000 0.3400 0.3418 0.3437 0.3455 0.3473
2770.000000 0.3491 0.3508 0.3527 0.3545 0.3562
2765.000000 0.3580 0.3599 0.3616 0.3638 0.3662
2760.000000 0.3686 0.3710 0.3736 0.3760 0.3786
2755.000000 0.3810 0.3834 0.3859 0.3884 0.3909
2750.000000 0.3932 0.3952 0.3972 0.3991 0.4009
2745.000000 0.4026 0.4044 0.4060 0.4078 0.4095
2740.000000 0.4112 0.4130 0.4147 0.4165 0.4183
2735.000000 0.4200 0.4218 0.4235 0.4253 0.4272
2730.000000 0.4291 0.4312 0.4338 0.4365 0.4391
2725.000000 0.4418 0.4444 0.4471 0.4497 0.4524
2720.000000 0.4555 0.4593 0.4632 0.4672 0.4715
2715.000000 0.4758 0.4801 0.4846 0.4890 0.4935
2710.000000 0.4979 0.5024 0.5064 0.5101 0.5138
2705.000000 0.5167 0.5192 0.5217 0.5242 0.5267
2700.000000 0.5292 0.5317 0.5342 0.5367 0.5391
2695.000000 0.5415 0.5439 0.5449 0.5460 0.5470
2690.000000 0.5475 0.5479 0.5484 0.5489 0.5494
2685.000000 0.5499 0.5504 0.5509 0.5512 0.5518
2680.000000 0.5522 0.5528 0.5535 0.5541 0.5548
2675.000000 0.5555 0.5562 0.5569 0.5577 0.5584
2670.000000 0.5591 0.5598 0.5607 0.5641 0.5674
2665.000000 0.5708 0.5744 0.5779 0.5817 0.5856
2660.000000 0.5896 0.5942 0.5993 0.6045 0.6092
2655.000000 0.6139 0.6185 0.6208 0.6228 0.6249
2650.000000 0.6269 0.6289 0.6310 0.6331 0.6351
2645.000000 0.6372 0.6392 0.6412 0.6432 0.6450
2640.000000 0.6468 0.6487 0.6504 0.6521 0.6539
2635.000000 0.6557 0.6575 0.6593 0.6611 0.6628
2630.000000 0.6645 0.6661 0.6676 0.6692 0.6707
2625.000000 0.6722 0.6738 0.6753 0.6768 0.6784
2620.000000 0.6799 0.6814 0.6828 0.6845 0.6860
2615.000000 0.6875 0.6890 0.6905 0.6919 0.6934
2610.000000 0.6947 0.6960 0.6974 0.6987 0.7000
2605.000000 0.7012 0.7026 0.7040 0.7053 0.7067
2600.000000 0.7080 0.7093 0.7107 0.7119 0.7133
2595.000000 0.7144 0.7155 0.7165 0.7175 0.7187
2590.000000 0.7198 0.7208 0.7218 0.7228 0.7240
2585.000000 0.7251 0.7261 0.7272 0.7284 0.7294
2580.000000 0.7305 0.7317 0.7328 0.7339 0.7350
2575.000000 0.7361 0.7372 0.7384 0.7396 0.7407
2570.000000 0.7418 0.7428 0.7440 0.7451 0.7461
2565.000000 0.7471 0.7482 0.7492 0.7501 0.7511
2560.000000 0.7522 0.7533 0.7543 0.7554 0.7562
2555.000000 0.7571 0.7578 0.7585 0.7592 0.7600
2550.000000 0.7605 0.7611 0.7617 0.7622 0.7628
2545.000000 0.7634 0.7640 0.7646 0.7651 0.7656
2540.000000 0.7658 0.7658 0.7660 0.7661 0.7661
2535.000000 0.7662 0.7665 0.7665 0.7668 0.7668
2530.000000 0.7669 0.7671 0.7672 0.7675 0.7678
2525.000000 0.7680 0.7683 0.7686 0.7689 0.7693
2520.000000 0.7696 0.7700 0.7704 0.7708 0.7711
2515.000000 0.7715 0.7719 0.7725 0.7728 0.7733
2510.000000 0.7737 0.7741 0.7745 0.7749 0.7753
2505.000000 0.7757 0.7761 0.7765 0.7768 0.7772
2500.000000 0.7776 0.7783 0.7790 0.7798 0.7807
2495.000000 0.7815 0.7824 0.7833 0.7842 0.7851
2490.000000 0.7860 0.7871 0.7882 0.7893 0.7905
2485.000000 0.7917 0.7928 0.7941 0.7953 0.7965
2480.000000 0.7978 0.7991 0.8004 0.8015 0.8025
2475.000000 0.8035 0.8041 0.8078 0.8051 0.8057
2470.000000 0.8062 0.8068 0.8074 0.8078 0.8082
2465.000000 0.8085 0.8085 0.8086 0.8086 0.8086
2460.000000 0.8086 0.8086 0.8086 0.8086 0.8086
2455.000000 0.8087 0.8087 0.8086 0.8084 0.8083
2450.000000 0.8081 0.8078 0.8076 0.8075 0.8072
2445.000000 0.8071 0.8068 0.8067 0.8065 0.8064
2440.000000 0.8061 0.8058 0.8057 0.8054 0.8049
2435.000000 0.8043 0.8037 0.8030 0.8022 0.8017
2430.000000 0.8010 0.8004 0.7997 0.7990 0.7984
2425.000000 0.7978 0.7971 0.7964 0.7957 0.7950
2420.000000 0.7943 0.7935 0.7925 0.7918 0.7910
2415.000000 0.7901 0.7894 0.7885 0.7876 0.7868
2410.000000 0.7860 0.7851 0.7844 0.7835 0.7826
2405.000000 0.7818 0.7810 0.7801 0.7792 0.7782
2400.000000 0.7771 0.7761 0.7753 0.7743 0.7733
2395.000000 0.7722 0.7712 0.7703 0.7693 0.7683
2390.000000 0.7672 0.7662 0.7653 0.7643 0.7633
2385.000000 0.7621 0.7611 0.7601 0.7591 0.7581
2380.000000 0.7569 0.7560 0.7550 0.7539 0.7528
2375.000000 0.7518 0.7508 0.7498 0.7487 0.7476
2370.000000 0.7467 0.7456 0.7446 0.7435 0.7424
2365.000000 0.7412 0.7401 0.7391 0.7378 0.7368
2360.000000 0.7356 0.7345 0.7334 0.7322 0.7310
2355.000000 0.7293 0.7275 0.7258 0.7241 0.7225
2350.000000 0.7208 0.7193 0.7176 0.7161 0.7147
2345.000000 0.7131 0.7115 0.7101 0.7095 0.7088
2340.000000 0.7083 0.7078 0.7076 0.7075 0.7075
2335.000000 0.7078 0.7082 0.7086 0.7089 0.7093
2330.000000 0.7096 0.7099 0.7103 0.7106 0.7108
2325.000000 0.7112 0.7115 0.7119 0.7122 0.7125
2320.000000 0.7128 0.7131 0.7134 0.7136 0.7139
2315.000000 0.7141 0.7144 0.7147 0.7149 0.7151
2310.000000 0.7154 0.7157 0.7160 0.7161 0.7165
2305.000000 0.7165 0.7168 0.7169 0.7171 0.7172
2300.000000 0.7174 0.7175 0.7176 0.7178 0.7181
2295.000000 0.7182 0.7182 0.7182 0.7180 0.7178
2290.000000 0.7176 0.7175 0.7171 0.7168 0.7165
2285.000000 0.7161 0.7157 0.7151 0.7147 0.7141
2280.000000 0.7128 0.7115 0.7100 0.7085 0.7062
2275.000000 0.7041 0.7017 0.6993 0.6968 0.6944
2270.000000 0.6918 0.6892 0.6862 0.6833 0.6805
2265.000000 0.6778 0.6757 0.6739 0.6722 0.6708
2260.000000 0.6694 0.6683 0.6674 0.6665 0.6658
2255.000000 0.6656 0.6654 0.6651 0.6649 0.6599
2250.000000 0.6646 0.6647 0.6648 0.6649 0.6651
2245.000000 0.6655 0.6658 0.6661 0.6665 0.6672
2240.000000 0.6681 0.6690 0.6699 0.6711 0.6724
2235.000000 0.6738 0.6751 0.6765 0.6780 0.6794
2230.000000 0.6808 0.6821 0.6835 0.6849 0.6862
2225.000000 0.6876 0.6890 0.6904 0.6918 0.6931
2220.000000 0.6943 0.6954 0.6964 0.6975 0.6986
2215.000000 0.6997 0.7007 0.7018 0.7028 0.7039
2210.000000 0.7050 0.7061 0.7071 0.7082 0.7094
2205.000000 0.7105 0.7115 0.7126 0.7137 0.7148
2200.000000 0.7158 0.7169 0.7180 0.7191 0.7201
2195.000000 0.7211 0.7222 0.7233 0.7244 0.7255
2190.000000 0.7265 0.7275 0.7287 0.7298 0.7308
2185.000000 0.7318 0.7330 0.7341 0.7351 0.7361
2180.000000 0.7371 0.7383 0.7393 0.7404 0.7414
2175.000000 0.7425 0.7435 0.7445 0.7456 0.7465
2170.000000 0.7476 0.7488 0.7498 0.7510 0.7521
2165.000000 0.7536 0.7551 0.7565 0.7580 0.7594
2160.000000 0.7608 0.7622 0.7637 0.7651 0.7668
2155.000000 0.7684 0.7700 0.7715 0.7732 0.7748
2150.000000 0.7764 0.7780 0.7796 0.7811 0.7828
2145.000000 0.7846 0.7864 0.7888 0.7911 0.7936
2140.000000 0.7960 0.7984 0.8007 0.8032 0.8056
2135.000000 0.8080 0.8103 0.8125 0.8147 0.8168
2130.000000 0.8188 0.8210 0.8231 0.8251 0.8271
2125.000000 0.8286 0.8301 0.8317 0.8331 0.8342
2120.000000 0.8350 0.8356 0.8362 0.8368 0.8375
2115.000000 0.8382 0.8388 0.8394 0.8400 0.8407
2110.000000 0.8414 0.8423 0.8433 0.8442 0.8451
2105.000000 0.8460 0.8468 0.8478 0.8487 0.8496
2100.000000 0.8505 0.8514 0.8524 0.8534 0.8543
2095.000000 0.8553 0.8563 0.8571 0.8582 0.8592
2090.000000 0.8601 0.8611 0.8621 0.8631 0.8641
2085.000000 0.8651 0.8661 0.8671 0.8681 0.8690
2080.000000 0.8700 0.8710 0.8720 0.8730 0.8740
2075.000000 0.8749 0.8759 0.8768 0.8778 0.8789
2070.000000 0.8799 0.8809 0.8818 0.8827 0.8836
2065.000000 0.8844 0.8853 0.8861 0.8870 0.8878
2060.000000 0.8887 0.8896 0.8904 0.8913 0.8921
2055.000000 0.8928 0.8936 0.8940 0.8945 0.8950
2050.000000 0.8955 0.8959 0.8965 0.8970 0.8975
2045.000000 0.8978 0.8984 0.8989 0.8994 0.8999
2040.000000 0.9003 0.9008 0.9014 0.9018 0.9024
2035.000000 0.9028 0.9033 0.9038 0.9043 0.9048
2030.000000 0.9053 0.9059 0.9065 0.9071 0.9075
2025.000000 0.9082 0.9088 0.9094 0.9099 0.9105
2020.000000 0.9111 0.9117 0.9123 0.9130 0.9138
2015.000000 0.9146 0.9153 0.9161 0.9168 0.9177
2010.000000 0.9186 0.9196 0.9206 0.9216 0.9225
2005.000000 0.9236 0.9246 0.9256 0.9266 0.9280
2000.000000 0.9298 0.9316 0.9334 0.9352 0.9367
1995.000000 0.9378 0.9385 0.9391 0.9397 0.9403
1990.000000 0.9409 0.9415 0.9418 0.9421 0.9423
1985.000000 0.9424 0.9425 0.9427 0.9428 0.9430
1980.000000 0.9436 0.9442 0.9448 0.9453 0.9459
1975.000000 0.9465 0.9470 0.9475 0.9483 0.9494
1970.000000 0.9506 0.9518 0.9531 0.9544 0.9557
1965.000000 0.9570 0.9585 0.9599 0.9611 0.9621
1960.000000 0.9628 0.9634 0.9638 0.9641 0.9643
1955.000000 0.9646 0.9646 0.9645 0.9642 0.9639
1950.000000 0.9635 0.9632 0.9628 0.9625 0.9621
1945.000000 0.9618 0.9614 0.9612 0.9609 0.9607
1940.000000 0.9604 0.9601 0.9599 0.9596 0.9594
1935.000000 0.9593 0.9591 0.9590 0.9590 0.9588
1930.000000 0.9585 0.9583 0.9581 0.9580 0.9578
1925.000000 0.9575 0.9575 0.9573 0.9573 0.9571
1920.000000 0.9571 0.9571 0.9571 0.9580 0.9593
1915.000000 0.9605 0.9617 0.9625 0.9630 0.9634
1910.000000 0.9637 0.9641 0.9645 0.9648 0.9652
1905.000000 0.9655 0.9659 0.9661 0.9665 0.9668
1900.000000 0.9671 0.9674 0.9677 0.9681 0.9684
1895.000000 0.9687 0.9690 0.9694 0.9697 0.9699
1890.000000 0.9701 0.9703 0.9705 0.9707 0.9709
1885.000000 0.9711 0.9713 0.9716 0.9718 0.9720
1880.000000 0.9721 0.9724 0.9725 0.9728 0.9731
1875.000000 0.9734 0.9737 0.9740 0.9742 0.9745
1870.000000 0.9747 0.9750 0.9753 0.9756 0.9759
1865.000000 0.9762 0.9766 0.9770 0.9774 0.9775
1860.000000 0.9782 0.9784 0.9786 0.9787 0.9789
1855.000000 0.9792 0.9793 0.9794 0.9794 0.9794
1850.000000 0.9787 0.9777 0.9768 0.9755 0.9739
1845.000000 0.9718 0.9698 0.9678 0.9660 0.9643
1840.000000 0.9628 0.9614 0.9602 0.9594 0.9595
1835.000000 0.9596 0.9598 0.9599 0.9603 0.9606
1830.000000 0.9610 0.9614 0.9617 0.9620 0.9624
1825.000000 0.9628 0.9632 0.9635 0.9638 0.9641
1820.000000 0.9644 0.9647 0.9647 0.9647 0.9644
1815.000000 0.9641 0.9639 0.9636 0.9630 0.9624
1810.000000 0.9618 0.9611 0.9605 0.9598 0.9592
1805.000000 0.9586 0.9578 0.9573 0.9567 0.9560
1800.000000 0.9549 0.9538 0.9527 0.9517 0.9506
1795.000000 0.9496 0.9485 0.9474 0.9463 0.9452
1790.000000 0.9442 0.9431 0.9421 0.9410 0.9399
1785.000000 0.9389 0.9378 0.9367 0.9357 0.9346
1780.000000 0.9335 0.9324 0.9312 0.9301 0.9290
1775.000000 0.9278 0.9268 0.9257 0.9246 0.9234
1770.000000 0.9221 0.9211 0.9200 0.9189 0.9177
1765.000000 0.9165 0.9154 0.9143 0.9131 0.9118
1760.000000 0.9108 0.9097 0.9085 0.9073 0.9062
1755.000000 0.9050 0.9039 0.9028 0.9015 0.9004
1750.000000 0.8992 0.8978 0.8966 0.8953 0.8940
1745.000000 0.8927 0.8914 0.8899 0.8880 0.8861
1740.000000 0.8841 0.8821 0.8801 0.8775 0.8735
1735.000000 0.8673 0.8610 0.8538 0.8468 0.8409
1730.000000 0.8363 0.8316 0.8274 0.8237 0.8203
1725.000000 0.8168 0.8134 0.8097 0.8055 0.8011
1720.000000 0.7968 0.7921 0.7868 0.7811 0.7753
1715.000000 0.7695 0.7642 0.7597 0.7558 0.7525
1710.000000 0.7498 0.7475 0.7455 0.7438 0.7428
1705.000000 0.7422 0.7421 0.7425 0.7430 0.7433
1700.000000 0.7432 0.7424 0.7410 0.7396 0.7381
1695.000000 0.7365 0.7349 0.7339 0.7337 0.7337
1690.000000 0.7341 0.7350 0.7360 0.7371 0.7376
1685.000000 0.7383 0.7388 0.7387 0.7378 0.7365
1680.000000 0.7351 0.7321 0.7290 0.7242 0.7184
1675.000000 0.7114 0.7025 0.6906 0.6741 0.6524
1670.000000 0.6307 0.6089 0.5871 0.5652 0.5434
1665.000000 0.5216 0.4996 0.4777 0.4557 0.4338
1660.000000 0.4118 0.3897 0.3676 0.3456 0.3234
1655.000000 0.3013 0.2791 0.2614 0.2596 0.2598
1650.000000 0.2613 0.2667 0.2720 0.2773 0.2848
1645.000000 0.2851 0.2857 0.2844 0.2770 0.2656
1640.000000 0.2401 0.2440 0.2382 0.2382 0.2407
1635.000000 0.2615 0.2874 0.3134 0.3395 0.3656
1630.000000 0.3916 0.4178 0.4440 0.4702 0.4964
1625.000000 0.5227 0.5626 0.6017 0.6095 0.6171
1620.000000 0.6236 0.6278 0.6319 0.6359 0.6398
1615.000000 0.6435 0.6471 0.6508 0.6537 0.6565
1610.000000 0.6593 0.6618 0.6642 0.6665 0.6688
1605.000000 0.6710 0.6733 0.6756 0.6778 0.6801
1600.000000 0.6825 0.6850 0.6876 0.6905 0.6933
1595.000000 0.6961 0.6991 0.7019 0.7049 0.7076
1590.000000 0.7103 0.7126 0.7150 0.7171 0.7185
1585.000000 0.7194 0.7203 0.7212 0.7219 0.7218
1580.000000 0.7217 0.7210 0.7203 0.7197 0.7193
1575.000000 0.7190 0.7205 0.7257 0.7304 0.7351
1570.000000 0.7399 0.7428 0.7442 0.7444 0.7447
1565.000000 0.7448 0.7448 0.7436 0.7415 0.7392
1560.000000 0.7365 0.7340 0.7319 0.7304 0.7297
1555.000000 0.7294 0.7292 0.7292 0.7304 0.7318
1550.000000 0.7334 0.7348 0.7361 0.7375 0.7387
1545.000000 0.7391 0.7393 0.7381 0.7365 0.7350
1540.000000 0.7333 0.7315 0.7297 0.7278 0.7260
1535.000000 0.7253 0.7249 0.7245 0.7243 0.7243
1530.000000 0.7243 0.7242 0.7241 0.7235 0.7225
1525.000000 0.7212 0.7188 0.7151 0.7110 0.7068
1520.000000 0.7045 0.7030 0.7018 0.7007 0.6996
1515.000000 0.6985 0.6968 0.6933 0.6878 0.6804
1510.000000 0.6719 0.6647 0.6578 0.6510 0.6424
1505.000000 0.6312 0.6199 0.6084 0.5967 0.5856
1500.000000 0.5750 0.5644 0.5503 0.5354 0.5218
1495.000000 0.5092 0.4960 0.4820 0.4676 0.4529
1490.000000 0.4380 0.4232 0.4082 0.3930 0.3732
1485.000000 0.3518 0.3366 0.3134 0.3027 0.2713
1480.000000 0.2255 0.1796 0.1338 0.0980 0.0839
1475.000000 0.0766 0.0712 0.0662 0.0620 0.0588
1470.000000 0.0566 0.0552 0.0540 0.0536 0.0531
1465.000000 0.0528 0.0527 0.0527 0.0541 0.0601
1460.000000 0.0741 0.0884 0.1022 0.1153 0.1285
1455.000000 0.1473 0.1722 0.1866 0.2000 0.2172
1450.000000 0.2390 0.2614 0.2789 0.2990 0.3209
1445.000000 0.3430 0.3650 0.3870 0.4091 0.4312
1440.000000 0.4534 0.4756 0.4978 0.5201 0.5424
1435.000000 0.5624 0.5676 0.5717 0.5750 0.5781
1430.000000 0.5812 0.5840 0.5864 0.5882 0.5897
1425.000000 0.5902 0.5905 0.5922 0.5886 0.5847
1420.000000 0.5807 0.5736 0.5648 0.5551 0.5420
1415.000000 0.5284 0.5162 0.5044 0.4925 0.4802
1410.000000 0.4677 0.4556 0.4446 0.4259 0.3932
1405.000000 0.3594 0.3253 0.2912 0.2527 0.2375
1400.000000 0.2244 0.2176 0.2123 0.2071 0.2018
1395.000000 0.1969 0.1922 0.1874 0.1826 0.1782
1390.000000 0.1739 0.1694 0.1639 0.1584 0.1525
1385.000000 0.1476 0.1445 0.1428 0.1429 0.1429
1380.000000 0.1515 0.1632 0.1717 0.1837 0.1989
1375.000000 0.2141 0.2294 0.2446 0.2599 0.2751
1370.000000 0.2904 0.3058 0.3210 0.3364 0.3434
1365.000000 0.3418 0.3358 0.3209 0.3053 0.2897
1360.000000 0.2741 0.2584 0.2427 0.2281 0.2184
1355.000000 0.2206 0.2212 0.2329 0.2522 0.2716
1350.000000 0.2910 0.3104 0.3299 0.3494 0.3839
1345.000000 0.4157 0.4296 0.4475 0.4699 0.4955
1340.000000 0.5074 0.5193 0.5306 0.5415 0.5487
1335.000000 0.5554 0.5623 0.5692 0.5764 0.5812
1330.000000 0.5843 0.5864 0.5883 0.5903 0.5915
1325.000000 0.5927 0.5938 0.5950 0.5960 0.5973
1320.000000 0.5984 0.5994 0.6005 0.6016 0.6026
1315.000000 0.6036 0.6047 0.6058 0.6068 0.6078
1310.000000 0.6088 0.6098 0.6105 0.6116 0.6132
1305.000000 0.6149 0.6165 0.6182 0.6200 0.6210
1300.000000 0.6220 0.6228 0.6246 0.6231 0.6208
1295.000000 0.6169 0.6154 0.6148 0.6117 0.6032
1290.000000 0.5807 0.5492 0.5164 0.4836 0.4508
1285.000000 0.4179 0.3849 0.3518 0.2902 0.2903
1280.000000 0.2903 0.3018 0.3353 0.3706 0.4059
1275.000000 0.4412 0.4768 0.5122 0.5478 0.5827
1270.000000 0.5949 0.6028 0.6041 0.6057 0.6023
1265.000000 0.5916 0.5798 0.5679 0.5603 0.5584
1260.000000 0.5594 0.5642 0.5742 0.5969 0.6157
1255.000000 0.6259 0.6352 0.6435 0.6508 0.6565
1250.000000 0.6595 0.6622 0.6651 0.6669 0.6688
1245.000000 0.6707 0.6715 0.6721 0.6771 0.6732
1240.000000 0.6733 0.6733 0.6732 0.6724 0.6718
1235.000000 0.6708 0.6691 0.6675 0.6660 0.6643
1230.000000 0.6618 0.6596 0.6572 0.6550 0.6524
1225.000000 0.6484 0.6440 0.6393 0.6324 0.6253
1220.000000 0.6180 0.6104 0.6026 0.5948 0.5857
1215.000000 0.5760 0.5662 0.5562 0.5462 0.5362
1210.000000 0.5253 0.5142 0.5030 0.4910 0.4782
1205.000000 0.4655 0.4415 0.4086 0.3487 0.3237
1200.000000 0.3035 0.2860 0.2684 0.2508 0.2332
1195.000000 0.2107 0.2138 0.2132 0.2151 0.2224
1190.000000 0.2473 0.2722 0.2972 0.3222 0.3473
1185.000000 0.3630 0.3671 0.3692 0.3709 0.3696
1180.000000 0.3570 0.3424 0.3278 0.3131 0.2984
1175.000000 0.2838 0.2690 0.2593 0.2608 0.2613
1170.000000 0.2745 0.3122 0.3571 0.4021 0.4467
1165.000000 0.4748 0.4962 0.5196 0.5392 0.5551
1160.000000 0.5738 0.5978 0.6132 0.6273 0.6368
1155.000000 0.6458 0.6547 0.6625 0.6704 0.6781
1150.000000 0.6857 0.6919 0.6971 0.7018 0.7054
1145.000000 0.7087 0.7110 0.7132 0.7151 0.7164
1140.000000 0.7194 0.7175 0.7172 0.7171 0.7156
1135.000000 0.7131 0.7091 0.7047 0.6985 0.6919
1130.000000 0.6836 0.6738 0.6568 0.6106 0.5590
1125.000000 0.5074 0.4557 0.4039 0.3521 0.3001
1120.000000 0.2480 0.1976 0.1823 0.1824 0.1824
1115.000000 0.1871 0.2341 0.2962 0.3586 0.4209
1110.000000 0.4833 0.5459 0.6086 0.6714 0.7033
1105.000000 0.7156 0.7280 0.7356 0.7418 0.7461
1100.000000 0.7525 0.7522 0.7488 0.7438 0.7337
1095.000000 0.7228 0.7001 0.6733 0.6434 0.5983
1090.000000 0.5510 0.5038 0.4566 0.4091 0.3616
1085.000000 0.3141 0.2760 0.2616 0.2512 0.2456
1080.000000 0.2425 0.2425 0.2425 0.2492 0.2576
1075.000000 0.2664 0.2635 0.2588 0.2490 0.2378
1070.000000 0.2211 0.1957 0.1834 0.1781 0.1793
1065.000000 0.1778 0.1864 0.2079 0.2248 0.2544
1060.000000 0.2838 0.3133 0.3429 0.3725 0.4022
1055.000000 0.4319 0.4616 0.4909 0.5109 0.5320
1050.000000 0.5583 0.5796 0.5974 0.6123 0.6239
1045.000000 0.6344 0.6451 0.6549 0.6637 0.6725
1040.000000 0.6812 0.6896 0.6969 0.7045 0.7119
1035.000000 0.7195 0.7257 0.7315 0.7375 0.7433
1030.000000 0.7488 0.7538 0.7589 0.7641 0.7689
1025.000000 0.7734 0.7778 0.7821 0.7860 0.7893
1020.000000 0.7925 0.7954 0.7980 0.8003 0.8021
1015.000000 0.8028 0.8040 0.8033 0.8018 0.7986
1010.000000 0.7930 0.7811 0.7665 0.7386 0.6831
1005.000000 0.6336 0.5851 0.5365 0.4879 0.4391
1000.000000 0.3903 0.3457 0.3389 0.3400 0.3412
995.000000 0.3378 0.3326 0.3348 0.3429 0.3844
990.000000 0.4354 0.4865 0.5296 0.5632 0.5903
985.000000 0.6078 0.6251 0.6417 0.6547 0.6671
980.000000 0.6768 0.6860 0.6951 0.7026 0.7087
975.000000 0.7147 0.7197 0.7248 0.7286 0.7315
970.000000 0.7345 0.7365 0.7387 0.7406 0.7422
965.000000 0.7438 0.7451 0.7467 0.7478 0.7490
960.000000 0.7501 0.7514 0.7524 0.7530 0.7538
955.000000 0.7537 0.7537 0.7534 0.7531 0.7515
950.000000 0.7493 0.7471 0.7414 0.7328 0.7182
945.000000 0.7010 0.6632 0.6117 0.5599 0.5080
940.000000 0.4604 0.4428 0.4448 0.4481 0.4627
935.000000 0.4823 0.5216 0.5617 0.6019 0.6421
930.000000 0.6636 0.6784 0.6895 0.7004 0.7104
925.000000 0.7204 0.7274 0.7334 0.7365 0.7395
920.000000 0.7408 0.7419 0.7431 0.7437 0.7445
915.000000 0.7478 0.7515 0.7545 0.7571 0.7591
910.000000 0.7611 0.7615 0.7614 0.7612 0.7611
905.000000 0.7601 0.7589 0.7575 0.7561 0.7549
900.000000 0.7535 0.7521 0.7508 0.7494 0.7480
895.000000 0.7465 0.7451 0.7436 0.7421 0.7408
890.000000 0.7400 0.7389 0.7380 0.7368 0.7358
885.000000 0.7344 0.7325 0.7306 0.7286 0.7258
880.000000 0.7224 0.7191 0.7156 0.7101 0.7048
875.000000 0.6994 0.6940 0.6887 0.6836 0.6785
870.000000 0.6734 0.6683 0.6632 0.6580 0.6528
865.000000 0.6476 0.6421 0.6362 0.6303 0.6244
860.000000 0.6184 0.6126 0.6069 0.6010 0.5954
855.000000 0.5896 0.5838 0.5780 0.5722 0.5662
850.000000 0.5604 0.5541 0.5477 0.5412 0.5349
845.000000 0.5285 0.5221 0.5156 0.5092 0.5030
840.000000 0.4967 0.4904 0.4841 0.4762 0.4682
835.000000 0.4601 0.4521 0.4439 0.4358 0.4265
830.000000 0.4131 0.3992 0.3787 0.3594 0.3416
825.000000 0.3236 0.2989 0.2782 0.2522 0.2046
820.000000 0.1594 0.1232 0.0936 0.0731 0.0661
815.000000 0.0661 0.0715 0.0839 0.1010 0.1202
810.000000 0.1445 0.1795 0.2200 0.2504 0.2699
805.000000 0.2892 0.3074 0.3253 0.3403 0.3537
800.000000 0.3644 0.3723 0.3789 0.3854 0.3922
795.000000 0.3991 0.4059 0.4121 0.4183 0.4245
790.000000 0.4307 0.4369 0.4431 0.4484 0.4530
785.000000 0.4576 0.4614 0.4648 0.4684 0.4706
780.000000 0.4721 0.4764 0.4709 0.4703 0.4699
775.000000 0.4698 0.4695 0.4684 0.4673 0.4662
770.000000 0.4635 0.4607 0.4578 0.4550 0.4521
765.000000 0.4493 0.4464 0.4420 0.4368 0.4315
760.000000 0.4260 0.4214 0.4170 0.4125 0.4082
755.000000 0.4037 0.3984 0.3932 0.3880 0.3820
750.000000 0.3758 0.3703 0.3662 0.3622 0.3582
745.000000 0.3540 0.3500 0.3459 0.3420 0.3382
740.000000 0.3354 0.3330 0.3312 0.3309 0.3308
735.000000 0.3308 0.3308 0.3312 0.3318 0.3322
730.000000 0.3326 0.3330 0.3338 0.3345 0.3329
725.000000 0.3306 0.3280 0.3256 0.3227 0.3239
720.000000 0.3248 0.3273 0.3300 0.3329 0.3364
715.000000 0.3404 0.3444 0.3480 0.3514 0.3532
710.000000 0.3544 0.3553 0.3538 0.3534 0.3524
705.000000 0.3503 0.3482 0.3459 0.3421 0.3382
700.000000 0.3344 0.3300 0.3255 0.3209 0.3171
695.000000 0.3137 0.3100 0.3066 0.3040 0.3014
690.000000 0.2987 0.2961 0.2943 0.2923 0.2905
685.000000 0.2893 0.2896 0.2924 0.2904 0.2926
680.000000 0.2949 0.2972 0.3001 0.3042 0.3082
675.000000 0.3123 0.3166 0.3209 0.3252 0.3299
670.000000 0.3352 0.3406 0.3459 0.3545 0.3649
665.000000 0.3755 0.3857 0.3982 0.3959 0.3952
660.000000 0.3918 0.3918 0.3912 0.3946 0.3984
655.000000 0.4026 0.4066 0.4097 0.4126 0.4157
650.000000 0.4186 0.4216 0.4246 0.4275 0.4304
645.000000 0.4332 0.4360 0.4389 0.4417 0.4441
640.000000 0.4464 0.4488 0.4510 0.4534 0.4560
635.000000 0.4586 0.4610 0.4637 0.4669 0.4701
630.000000 0.4730 0.4758 0.4792 0.4826 0.4856
625.000000 0.4890
##END=
