##TITLE=CyclohexaneHexanoic acid, E,2-dioxo-, methyl ester
##JCAMP-DX=4.24
##DATA TYPE=INFRARED SPECTRUM
##CLASS=COBLENTZ III
##ORIGIN=SOUTHERN RESEARCH INSTITUTE
##OWNER=Copyright (C) 1987 by the Coblentz Society
Collection (C) 2018 copyright by the U.S. Secretary of Commerce
on behalf of the United States of America. All rights reserved.
##DATE=1958/01/22
##NAMES=methyl 6-(2-hydroxy-1-cyclohexen-1-yl)-6-oxohexanoate
##MOLFORM=C13 H20 O4
##SOURCE REFERENCE=COBLENTZ NO. 8716
##$NIST ID=B6008716
##$NIST SOURCE=COBLENTZ
##$NIST IMAGE=cob8716
##SPECTROMETER/DATA SYSTEM=PERKIN-ELMER 21 (GRATING)
##INSTRUMENT PARAMETERS=FILTER CHANGE ABOUT 1090 CM^-^1
##STATE=LIQUID (NEAT)
##PATH LENGTH=CAPILLARY
##SAMPLING PROCEDURE=TRANSMISSION
##RESOLUTION=2
##DATA PROCESSING=DIGITIZED BY COBLENTZ SOCIETY (BATCH II) FROM HARD COPY (ADJUSTED \addcm-1\10-8-2\)
##XUNITS=1/CM
##YUNITS=TRANSMITTANCE
##XFACTOR=1.0
##YFACTOR=1
##DELTAX=1.003025
##FIRSTX=598.709
##LASTX=4010
##FIRSTY=0.7331
##MAXX=4010
##MINX=598.709
##MAXY=0.854647
##MINY=0.0349199
##NPOINTS=3402
##XYDATA=(X++(Y..Y))
598.708571 0.7331 0.7336 0.7340 0.7343 0.7347
603.723697 0.7351 0.7358 0.7364 0.7371 0.7378
608.738823 0.7385 0.7391 0.7398 0.7404 0.7410
613.753948 0.7417 0.7423 0.7429 0.7435 0.7441
618.769074 0.7447 0.7452 0.7458 0.7464 0.7470
623.784199 0.7476 0.7478 0.7480 0.7482 0.7477
628.799325 0.7486 0.7489 0.7491 0.7493 0.7496
633.814450 0.7497 0.7496 0.7494 0.7493 0.7492
638.829576 0.7490 0.7489 0.7488 0.7484 0.7480
643.844701 0.7476 0.7472 0.7469 0.7465 0.7461
648.859827 0.7460 0.7470 0.7480 0.7502 0.7527
653.874953 0.7552 0.7583 0.7615 0.7644 0.7669
658.890078 0.7693 0.7714 0.7733 0.7753 0.7772
663.905204 0.7784 0.7792 0.7799 0.7806 0.7813
668.920329 0.7821 0.7842 0.7958 0.8056 0.8099
673.935455 0.8120 0.8127 0.8130 0.8133 0.8135
678.950580 0.8137 0.8139 0.8161 0.8144 0.8137
683.965706 0.8135 0.8134 0.8132 0.8127 0.8122
688.980831 0.8117 0.8112 0.8106 0.8098 0.8089
693.995957 0.8079 0.8071 0.8063 0.8056 0.8048
699.011083 0.8041 0.8041 0.8056 0.8077 0.8100
704.026208 0.8115 0.8128 0.8141 0.8147 0.8150
709.041334 0.8152 0.8146 0.8135 0.8122 0.8106
714.056459 0.8089 0.8072 0.8053 0.8030 0.8005
719.071585 0.7968 0.7924 0.7881 0.7844 0.7810
724.086710 0.7776 0.7741 0.7706 0.7666 0.7625
729.101836 0.7584 0.7543 0.7501 0.7459 0.7409
734.116961 0.7356 0.7303 0.7250 0.7198 0.7135
739.132087 0.7059 0.6976 0.6894 0.6809 0.6709
744.147213 0.6600 0.6493 0.6388 0.6050 0.5812
749.162338 0.5739 0.5665 0.5611 0.5575 0.5548
754.177464 0.5536 0.5533 0.5530 0.5527 0.5538
759.192589 0.5557 0.5583 0.5659 0.5778 0.5906
764.207715 0.6035 0.6164 0.6292 0.6421 0.6550
769.222840 0.6678 0.6807 0.6989 0.7119 0.7163
774.237966 0.7193 0.7212 0.7232 0.7246 0.7255
779.253091 0.7264 0.7273 0.7281 0.7287 0.7291
784.268217 0.7296 0.7301 0.7306 0.7310 0.7316
789.283343 0.7328 0.7344 0.7367 0.7395 0.7421
794.298468 0.7444 0.7466 0.7486 0.7506 0.7523
799.313594 0.7536 0.7542 0.7544 0.7543 0.7550
804.328719 0.7547 0.7528 0.7518 0.7502 0.7483
809.343845 0.7463 0.7443 0.7415 0.7374 0.7301
814.358970 0.7112 0.6824 0.6536 0.6248 0.5960
819.374096 0.5672 0.5393 0.5216 0.5158 0.5106
824.389221 0.5068 0.5047 0.5067 0.5074 0.5118
829.404347 0.5235 0.5384 0.5533 0.5682 0.5831
834.419473 0.5980 0.6129 0.6278 0.6427 0.6643
839.434598 0.6844 0.6819 0.6804 0.6770 0.6738
844.449724 0.6701 0.6655 0.6598 0.6540 0.6509
849.464849 0.6481 0.6437 0.6365 0.6308 0.6266
854.479975 0.6241 0.6233 0.6224 0.6216 0.6212
859.495100 0.6219 0.6227 0.6236 0.6248 0.6260
864.510226 0.6270 0.6273 0.6260 0.6193 0.6036
869.525351 0.5879 0.5723 0.5566 0.5410 0.5253
874.540477 0.5096 0.4939 0.4782 0.4609 0.4452
879.555603 0.4470 0.4465 0.4471 0.4516 0.4638
884.570728 0.4783 0.4928 0.5074 0.5219 0.5364
889.585854 0.5510 0.5637 0.5692 0.5694 0.5703
894.600979 0.5733 0.5685 0.5670 0.5635 0.5564
899.616105 0.5494 0.5424 0.5354 0.5284 0.5214
904.631230 0.5143 0.5073 0.5007 0.4968 0.4944
909.646356 0.4923 0.4904 0.4886 0.4868 0.4841
914.661481 0.4805 0.4772 0.4740 0.4708 0.4676
919.676607 0.4636 0.4596 0.4554 0.4489 0.4405
924.691733 0.4321 0.4237 0.4156 0.4081 0.4006
929.706858 0.3938 0.3894 0.3871 0.3855 0.3846
934.721984 0.3838 0.3830 0.3829 0.3829 0.3830
939.737109 0.3832 0.3833 0.3835 0.3844 0.3853
944.752235 0.3861 0.3868 0.3875 0.3881 0.3881
949.767360 0.3880 0.3879 0.3878 0.3877 0.3874
954.782486 0.3839 0.3806 0.3773 0.3710 0.3650
959.797611 0.3594 0.3537 0.3455 0.3379 0.3310
964.812737 0.3278 0.3243 0.3272 0.3286 0.3422
969.827863 0.3596 0.3768 0.3941 0.4113 0.4222
974.842988 0.4286 0.4344 0.4366 0.4382 0.4391
979.858114 0.4389 0.4374 0.4360 0.4347 0.4325
984.873239 0.4269 0.4163 0.4103 0.4043 0.3989
989.888365 0.3942 0.3896 0.3850 0.3803 0.3735
994.903490 0.3650 0.3594 0.3556 0.3557 0.3528
999.918616 0.3597 0.3702 0.3811 0.3918 0.4026
1004.933741 0.4097 0.4128 0.4182 0.4251 0.4310
1009.948867 0.4368 0.4425 0.4526 0.4621 0.4684
1014.963993 0.4741 0.4786 0.4828 0.4870 0.4911
1019.979118 0.4942 0.4971 0.4998 0.5024 0.5052
1024.994244 0.5084 0.5119 0.5154 0.5190 0.5242
1030.009369 0.5598 0.5733 0.5766 0.5789 0.5794
1035.024495 0.5797 0.5786 0.5776 0.5766 0.5756
1040.039620 0.5745 0.5728 0.5710 0.5688 0.5666
1045.054746 0.5633 0.5592 0.5550 0.5491 0.5421
1050.069872 0.5350 0.5276 0.5201 0.5122 0.5024
1055.084997 0.4917 0.4812 0.4713 0.4617 0.4516
1060.100123 0.4393 0.4306 0.4251 0.4223 0.4207
1065.115248 0.4190 0.4169 0.4176 0.4191 0.4210
1070.130374 0.4281 0.4406 0.4507 0.4561 0.4602
1075.145499 0.4647 0.4695 0.4736 0.4773 0.4811
1080.160625 0.4853 0.4893 0.4929 0.4972 0.5034
1085.175750 0.5155 0.5746 0.6184 0.6206 0.6187
1090.190876 0.6110 0.6010 0.5910 0.5869 0.5902
1095.206002 0.5955 0.6003 0.6035 0.6050 0.6056
1100.221127 0.6056 0.6052 0.6044 0.6055 0.6046
1105.236253 0.6009 0.5991 0.5955 0.5902 0.5849
1110.251378 0.5766 0.5630 0.5478 0.5326 0.5174
1115.266504 0.5022 0.4870 0.4719 0.4566 0.4414
1120.281629 0.4263 0.4110 0.3958 0.3807 0.3654
1125.296755 0.3502 0.3302 0.3053 0.2879 0.2714
1130.311880 0.2511 0.2306 0.2137 0.1995 0.1904
1135.327006 0.1851 0.1813 0.1776 0.1746 0.1732
1140.342132 0.1721 0.1710 0.1699 0.1690 0.1685
1145.357257 0.1684 0.1682 0.1681 0.1679 0.1678
1150.372383 0.1676 0.1674 0.1672 0.1670 0.1667
1155.387508 0.1663 0.1650 0.1601 0.1531 0.1450
1160.402634 0.1362 0.1265 0.1166 0.1072 0.0997
1165.417759 0.0924 0.0853 0.0785 0.0720 0.0668
1170.432885 0.0630 0.0601 0.0627 0.0628 0.0635
1175.448010 0.0646 0.0696 0.0836 0.0972 0.1105
1180.463136 0.1217 0.1301 0.1368 0.1379 0.1385
1185.478262 0.1388 0.1388 0.1329 0.1277 0.1162
1190.493387 0.1000 0.0931 0.0886 0.0807 0.0781
1195.508513 0.0760 0.0748 0.0736 0.0723 0.0712
1200.523638 0.0706 0.0701 0.0696 0.0691 0.0686
1205.538764 0.0681 0.0685 0.0690 0.0677 0.0700
1210.553889 0.0705 0.0716 0.0728 0.0740 0.0753
1215.569015 0.0769 0.0793 0.0818 0.0843 0.0868
1220.584140 0.0891 0.0915 0.0938 0.0962 0.0985
1225.599266 0.1008 0.1031 0.1055 0.1074 0.1092
1230.614392 0.1110 0.1165 0.1134 0.1110 0.1087
1235.629517 0.1064 0.1036 0.1001 0.0966 0.0933
1240.644643 0.0904 0.0874 0.0862 0.0854 0.0847
1245.659768 0.0839 0.0823 0.0797 0.0753 0.0734
1250.674894 0.0720 0.0707 0.0707 0.0722 0.0728
1255.690019 0.0743 0.0760 0.0778 0.0798 0.0817
1260.705145 0.0858 0.0909 0.0962 0.1015 0.1067
1265.720270 0.1120 0.1173 0.1226 0.1278 0.1331
1270.735396 0.1384 0.1428 0.1459 0.1483 0.1505
1275.750522 0.1517 0.1521 0.1525 0.1529 0.1531
1280.765647 0.1533 0.1533 0.1534 0.1535 0.1535
1285.780773 0.1536 0.1537 0.1537 0.1537 0.1532
1290.795898 0.1526 0.1520 0.1514 0.1508 0.1498
1295.811024 0.1484 0.1468 0.1452 0.1444 0.1440
1300.826149 0.1440 0.1443 0.1446 0.1451 0.1459
1305.841275 0.1467 0.1477 0.1491 0.1509 0.1526
1310.856400 0.1535 0.1539 0.1544 0.1548 0.1552
1315.871526 0.1554 0.1557 0.1560 0.1564 0.1578
1320.886652 0.1611 0.1654 0.1697 0.1741 0.1787
1325.901777 0.1851 0.1921 0.1970 0.1998 0.2012
1330.916903 0.2011 0.1996 0.1993 0.1990 0.1987
1335.932028 0.1982 0.1977 0.1973 0.1970 0.1970
1340.947154 0.1970 0.1970 0.1971 0.1971 0.1971
1345.962279 0.1971 0.1972 0.1971 0.1971 0.1970
1350.977405 0.1970 0.1969 0.1968 0.1963 0.1938
1355.992530 0.1877 0.1823 0.1784 0.1750 0.1713
1361.007656 0.1672 0.1631 0.1598 0.1575 0.1554
1366.022782 0.1540 0.1536 0.1533 0.1527 0.1522
1371.037907 0.1538 0.1546 0.1555 0.1569 0.1599
1376.053033 0.1638 0.1700 0.1795 0.1939 0.2053
1381.068158 0.2184 0.2344 0.2439 0.2528 0.2615
1386.083284 0.2691 0.2768 0.2849 0.2948 0.3055
1391.098409 0.3135 0.3169 0.3158 0.3159 0.3153
1396.113535 0.3129 0.3030 0.2908 0.2787 0.2665
1401.128660 0.2544 0.2422 0.2301 0.2179 0.2058
1406.143786 0.1937 0.1816 0.1695 0.1573 0.1450
1411.158912 0.1314 0.1198 0.1088 0.1021 0.0960
1416.174037 0.0912 0.0866 0.0832 0.0810 0.0807
1421.189163 0.0804 0.0801 0.0815 0.0830 0.0865
1426.204288 0.0919 0.0978 0.1086 0.1167 0.1189
1431.219414 0.1197 0.1197 0.1194 0.1191 0.1189
1436.234539 0.1185 0.1179 0.1171 0.1164 0.1154
1441.249665 0.1142 0.1146 0.1160 0.1176 0.1192
1446.264790 0.1208 0.1226 0.1246 0.1266 0.1286
1451.279916 0.1305 0.1325 0.1345 0.1365 0.1390
1456.295042 0.1415 0.1440 0.1467 0.1497 0.1528
1461.310167 0.1558 0.1580 0.1600 0.1620 0.1639
1466.325293 0.1656 0.1672 0.1689 0.1706 0.1723
1471.340418 0.1740 0.1757 0.1786 0.2527 0.3084
1476.355544 0.3288 0.3450 0.3614 0.3762 0.3844
1481.370669 0.3885 0.3921 0.3955 0.3979 0.3996
1486.385795 0.4013 0.4028 0.4041 0.4054 0.4064
1491.400920 0.4070 0.4082 0.4083 0.4078 0.4080
1496.416046 0.4083 0.4083 0.4082 0.4080 0.4078
1501.431172 0.4076 0.4074 0.4069 0.4062 0.4055
1506.446297 0.4048 0.4037 0.4021 0.4005 0.3985
1511.461423 0.3962 0.3939 0.3916 0.3892 0.3868
1516.476548 0.3841 0.3811 0.3781 0.3750 0.3721
1521.491674 0.3691 0.3660 0.3630 0.3600 0.3570
1526.506799 0.3540 0.3510 0.3479 0.3448 0.3409
1531.521925 0.3365 0.3321 0.3278 0.3234 0.3192
1536.537050 0.3149 0.3106 0.3064 0.3020 0.2971
1541.552176 0.2920 0.2868 0.2798 0.2672 0.2577
1546.567302 0.2519 0.2461 0.2406 0.2369 0.2336
1551.582427 0.2304 0.2270 0.2237 0.2203 0.2155
1556.597553 0.2094 0.2033 0.1971 0.1901 0.1820
1561.612678 0.1740 0.1658 0.1576 0.1494 0.1388
1566.627804 0.1229 0.1144 0.1061 0.0975 0.0882
1571.642929 0.0802 0.0768 0.0735 0.0702 0.0669
1576.658055 0.0635 0.0605 0.0581 0.0558 0.0535
1581.673180 0.0512 0.0491 0.0476 0.0462 0.0448
1586.688306 0.0434 0.0424 0.0418 0.0412 0.0407
1591.703432 0.0401 0.0395 0.0391 0.0389 0.0388
1596.718557 0.0386 0.0385 0.0385 0.0385 0.0385
1601.733683 0.0386 0.0398 0.0392 0.0391 0.0394
1606.748808 0.0396 0.0399 0.0402 0.0404 0.0407
1611.763934 0.0410 0.0412 0.0416 0.0423 0.0431
1616.779059 0.0438 0.0446 0.0457 0.0470 0.0485
1621.794185 0.0499 0.0514 0.0531 0.0551 0.0572
1626.809310 0.0592 0.0612 0.0630 0.0649 0.0670
1631.824436 0.0696 0.0737 0.0817 0.0977 0.1143
1636.839562 0.1234 0.1290 0.1340 0.1383 0.1422
1641.854687 0.1461 0.1499 0.1532 0.1564 0.1602
1646.869813 0.1656 0.1815 0.2078 0.2327 0.2518
1651.884938 0.2637 0.2727 0.2804 0.2863 0.2922
1656.900064 0.2973 0.3008 0.3034 0.3060 0.3095
1661.915189 0.3143 0.3198 0.3265 0.3355 0.3481
1666.930315 0.3582 0.3634 0.3673 0.3704 0.3736
1671.945440 0.3774 0.3824 0.3881 0.3955 0.4027
1676.960566 0.4097 0.4156 0.4192 0.4232 0.4220
1681.975692 0.4227 0.4229 0.4216 0.4202 0.4179
1686.990817 0.4151 0.4118 0.4076 0.4021 0.3949
1692.005943 0.3848 0.3755 0.3661 0.3479 0.3354
1697.021068 0.3248 0.3145 0.3059 0.3005 0.2949
1702.036194 0.2882 0.2848 0.2834 0.2822 0.2816
1707.051319 0.2817 0.2817 0.2815 0.2812 0.2806
1712.066445 0.2792 0.2660 0.2494 0.2328 0.2162
1717.081571 0.1996 0.1830 0.1664 0.1498 0.1332
1722.096696 0.1176 0.1092 0.1013 0.0938 0.0851
1727.111822 0.0637 0.0555 0.0497 0.0445 0.0396
1732.126947 0.0369 0.0351 0.0351 0.0351 0.0349
1737.142073 0.0364 0.0370 0.0377 0.0392 0.0411
1742.157198 0.0431 0.0456 0.0494 0.0532 0.0569
1747.172324 0.0602 0.0637 0.0674 0.0712 0.0772
1752.187449 0.1057 0.1359 0.1661 0.1969 0.2300
1757.202575 0.2373 0.2444 0.2485 0.2526 0.2570
1762.217701 0.2641 0.2728 0.2917 0.3486 0.4110
1767.232826 0.4227 0.4384 0.4618 0.4736 0.4809
1772.247952 0.4882 0.4956 0.5038 0.5134 0.5229
1777.263077 0.5317 0.5392 0.5468 0.5543 0.5609
1782.278203 0.5661 0.5715 0.5767 0.5820 0.5873
1787.293328 0.5928 0.5982 0.6031 0.6071 0.6111
1792.308454 0.6150 0.6191 0.6239 0.6302 0.6358
1797.323579 0.6391 0.6425 0.6458 0.6489 0.6514
1802.338705 0.6540 0.6565 0.6590 0.6614 0.6634
1807.353831 0.6654 0.6674 0.6695 0.6715 0.6735
1812.368956 0.6755 0.6775 0.6795 0.6814 0.6833
1817.384082 0.6852 0.6870 0.6889 0.6908 0.6927
1822.399207 0.6945 0.6963 0.6984 0.7000 0.7014
1827.414333 0.7028 0.7041 0.7055 0.7069 0.7083
1832.429458 0.7097 0.7110 0.7124 0.7138 0.7152
1837.444584 0.7165 0.7171 0.7177 0.7181 0.7185
1842.459709 0.7188 0.7192 0.7199 0.7207 0.7214
1847.474835 0.7222 0.7229 0.7237 0.7244 0.7251
1852.489961 0.7258 0.7265 0.7271 0.7276 0.7282
1857.505086 0.7287 0.7292 0.7297 0.7302 0.7307
1862.520212 0.7312 0.7317 0.7322 0.7326 0.7330
1867.535337 0.7334 0.7339 0.7343 0.7347 0.7351
1872.550463 0.7356 0.7360 0.7364 0.7368 0.7372
1877.565588 0.7374 0.7374 0.7374 0.7374 0.7376
1882.580714 0.7379 0.7384 0.7389 0.7394 0.7397
1887.595839 0.7399 0.7400 0.7401 0.7402 0.7403
1892.610965 0.7404 0.7404 0.7403 0.7403 0.7402
1897.626091 0.7401 0.7401 0.7401 0.7400 0.7400
1902.641216 0.7400 0.7400 0.7399 0.7401 0.7403
1907.656342 0.7405 0.7407 0.7409 0.7412 0.7414
1912.671467 0.7417 0.7420 0.7424 0.7428 0.7432
1917.686593 0.7435 0.7439 0.7443 0.7447 0.7451
1922.701718 0.7455 0.7459 0.7463 0.7466 0.7467
1927.716844 0.7468 0.7469 0.7470 0.7471 0.7472
1932.731969 0.7473 0.7474 0.7475 0.7476 0.7476
1937.747095 0.7476 0.7477 0.7477 0.7477 0.7477
1942.762221 0.7477 0.7478 0.7478 0.7478 0.7478
1947.777346 0.7478 0.7479 0.7477 0.7474 0.7472
1952.792472 0.7470 0.7468 0.7465 0.7463 0.7461
1957.807597 0.7458 0.7458 0.7460 0.7462 0.7467
1962.822723 0.7472 0.7477 0.7482 0.7487 0.7491
1967.837848 0.7495 0.7497 0.7498 0.7500 0.7501
1972.852974 0.7502 0.7503 0.7502 0.7501 0.7500
1977.868099 0.7499 0.7497 0.7493 0.7488 0.7482
1982.883225 0.7477 0.7472 0.7467 0.7462 0.7456
1987.898351 0.7452 0.7447 0.7442 0.7438 0.7435
1992.913476 0.7436 0.7440 0.7443 0.7447 0.7454
1997.928602 0.7462 0.7469 0.7477 0.7485 0.7493
2002.943727 0.7502 0.7512 0.7520 0.7524 0.7527
2007.958853 0.7529 0.7530 0.7528 0.7527 0.7526
2012.973978 0.7524 0.7523 0.7521 0.7519 0.7517
2017.989104 0.7515 0.7513 0.7511 0.7509 0.7506
2023.004229 0.7504 0.7502 0.7500 0.7498 0.7496
2028.019355 0.7494 0.7491 0.7489 0.7488 0.7489
2033.034481 0.7489 0.7489 0.7489 0.7489 0.7490
2038.049606 0.7490 0.7490 0.7490 0.7490 0.7491
2043.064732 0.7491 0.7491 0.7490 0.7489 0.7488
2048.079857 0.7487 0.7486 0.7485 0.7484 0.7483
2053.094983 0.7482 0.7481 0.7480 0.7479 0.7478
2058.110108 0.7477 0.7476 0.7475 0.7474 0.7474
2063.125234 0.7473 0.7472 0.7471 0.7470 0.7469
2068.140359 0.7468 0.7467 0.7466 0.7465 0.7464
2073.155485 0.7463 0.7462 0.7460 0.7459 0.7460
2078.170611 0.7462 0.7463 0.7464 0.7466 0.7467
2083.185736 0.7469 0.7472 0.7475 0.7478 0.7481
2088.200862 0.7484 0.7487 0.7490 0.7493 0.7495
2093.215987 0.7498 0.7500 0.7503 0.7506 0.7508
2098.231113 0.7511 0.7513 0.7516 0.7519 0.7521
2103.246238 0.7524 0.7526 0.7529 0.7532 0.7534
2108.261364 0.7537 0.7539 0.7542 0.7544 0.7547
2113.276489 0.7550 0.7552 0.7555 0.7557 0.7560
2118.291615 0.7562 0.7565 0.7567 0.7570 0.7573
2123.306741 0.7575 0.7578 0.7580 0.7582 0.7585
2128.321866 0.7587 0.7589 0.7591 0.7594 0.7596
2133.336992 0.7598 0.7601 0.7603 0.7605 0.7607
2138.352117 0.7610 0.7612 0.7614 0.7616 0.7617
2143.367243 0.7618 0.7618 0.7619 0.7619 0.7620
2148.382368 0.7621 0.7621 0.7622 0.7622 0.7623
2153.397494 0.7623 0.7624 0.7623 0.7622 0.7620
2158.412619 0.7619 0.7618 0.7617 0.7615 0.7614
2163.427745 0.7613 0.7612 0.7610 0.7609 0.7608
2168.442871 0.7608 0.7610 0.7611 0.7612 0.7614
2173.457996 0.7615 0.7616 0.7619 0.7625 0.7632
2178.473122 0.7639 0.7645 0.7652 0.7658 0.7664
2183.488247 0.7671 0.7676 0.7681 0.7685 0.7689
2188.503373 0.7693 0.7697 0.7700 0.7700 0.7698
2193.518498 0.7696 0.7693 0.7691 0.7689 0.7687
2198.533624 0.7685 0.7682 0.7678 0.7674 0.7670
2203.548749 0.7666 0.7662 0.7658 0.7655 0.7651
2208.563875 0.7647 0.7643 0.7639 0.7636 0.7632
2213.579001 0.7629 0.7626 0.7622 0.7621 0.7621
2218.594126 0.7620 0.7620 0.7619 0.7619 0.7619
2223.609252 0.7620 0.7620 0.7621 0.7622 0.7622
2228.624377 0.7623 0.7623 0.7626 0.7626 0.7626
2233.639503 0.7627 0.7628 0.7628 0.7629 0.7630
2238.654628 0.7631 0.7632 0.7633 0.7634 0.7635
2243.669754 0.7636 0.7637 0.7638 0.7639 0.7640
2248.684879 0.7641 0.7641 0.7642 0.7643 0.7643
2253.700005 0.7644 0.7644 0.7645 0.7646 0.7645
2258.715131 0.7643 0.7641 0.7639 0.7637 0.7635
2263.730256 0.7632 0.7630 0.7628 0.7625 0.7623
2268.745382 0.7620 0.7617 0.7615 0.7612 0.7609
2273.760507 0.7607 0.7604 0.7601 0.7599 0.7596
2278.775633 0.7593 0.7590 0.7588 0.7585 0.7582
2283.790758 0.7579 0.7576 0.7574 0.7571 0.7568
2288.805884 0.7565 0.7562 0.7560 0.7561 0.7563
2293.821009 0.7565 0.7568 0.7574 0.7580 0.7586
2298.836135 0.7592 0.7599 0.7610 0.7620 0.7625
2303.851261 0.7626 0.7627 0.7628 0.7628 0.7626
2308.866386 0.7623 0.7620 0.7618 0.7615 0.7613
2313.881512 0.7613 0.7616 0.7623 0.7634 0.7646
2318.896637 0.7659 0.7671 0.7682 0.7688 0.7689
2323.911763 0.7687 0.7686 0.7685 0.7683 0.7681
2328.926888 0.7678 0.7676 0.7674 0.7673 0.7673
2333.942014 0.7672 0.7672 0.7672 0.7671 0.7671
2338.957139 0.7670 0.7669 0.7666 0.7663 0.7661
2343.972265 0.7658 0.7654 0.7648 0.7641 0.7635
2348.987391 0.7629 0.7622 0.7616 0.7610 0.7603
2354.002516 0.7597 0.7591 0.7585 0.7579 0.7573
2359.017642 0.7567 0.7561 0.7553 0.7544 0.7535
2364.032767 0.7526 0.7517 0.7508 0.7499 0.7489
2369.047893 0.7478 0.7466 0.7455 0.7449 0.7449
2374.063018 0.7450 0.7451 0.7452 0.7458 0.7467
2379.078144 0.7479 0.7497 0.7518 0.7534 0.7541
2384.093270 0.7541 0.7539 0.7537 0.7534 0.7530
2389.108395 0.7524 0.7518 0.7513 0.7507 0.7500
2394.123521 0.7494 0.7487 0.7480 0.7473 0.7467
2399.138646 0.7460 0.7454 0.7448 0.7443 0.7437
2404.153772 0.7431 0.7425 0.7419 0.7414 0.7408
2409.168897 0.7403 0.7400 0.7396 0.7393 0.7390
2414.184023 0.7387 0.7384 0.7383 0.7383 0.7386
2419.199148 0.7390 0.7395 0.7400 0.7405 0.7410
2424.214274 0.7415 0.7420 0.7423 0.7426 0.7429
2429.229400 0.7432 0.7435 0.7437 0.7439 0.7440
2434.244525 0.7441 0.7442 0.7443 0.7444 0.7445
2439.259651 0.7446 0.7446 0.7445 0.7444 0.7442
2444.274776 0.7441 0.7436 0.7427 0.7417 0.7407
2449.289902 0.7395 0.7375 0.7356 0.7342 0.7331
2454.305027 0.7319 0.7309 0.7303 0.7298 0.7292
2459.320153 0.7287 0.7282 0.7276 0.7272 0.7267
2464.335278 0.7263 0.7258 0.7254 0.7249 0.7245
2469.350404 0.7240 0.7236 0.7233 0.7230 0.7227
2474.365530 0.7224 0.7221 0.7218 0.7215 0.7213
2479.380655 0.7210 0.7207 0.7204 0.7203 0.7202
2484.395781 0.7201 0.7200 0.7199 0.7198 0.7197
2489.410906 0.7196 0.7194 0.7193 0.7192 0.7191
2494.426032 0.7191 0.7190 0.7189 0.7189 0.7188
2499.441157 0.7187 0.7186 0.7186 0.7185 0.7184
2504.456283 0.7184 0.7183 0.7183 0.7184 0.7184
2509.471408 0.7184 0.7184 0.7184 0.7185 0.7185
2514.486534 0.7185 0.7185 0.7186 0.7186 0.7186
2519.501660 0.7187 0.7187 0.7188 0.7189 0.7189
2524.516785 0.7190 0.7190 0.7191 0.7191 0.7191
2529.531911 0.7189 0.7187 0.7184 0.7182 0.7180
2534.547036 0.7177 0.7175 0.7173 0.7170 0.7168
2539.562162 0.7165 0.7162 0.7158 0.7154 0.7150
2544.577287 0.7147 0.7143 0.7139 0.7134 0.7129
2549.592413 0.7125 0.7120 0.7115 0.7110 0.7105
2554.607538 0.7100 0.7095 0.7090 0.7085 0.7080
2559.622664 0.7075 0.7070 0.7065 0.7060 0.7056
2564.637790 0.7051 0.7046 0.7042 0.7039 0.7036
2569.652915 0.7032 0.7029 0.7025 0.7022 0.7018
2574.668041 0.7015 0.7011 0.7004 0.6996 0.6988
2579.683166 0.6980 0.6971 0.6963 0.6953 0.6942
2584.698292 0.6932 0.6921 0.6915 0.6909 0.6903
2589.713417 0.6898 0.6894 0.6890 0.6886 0.6883
2594.728543 0.6879 0.6876 0.6872 0.6868 0.6866
2599.743668 0.6863 0.6861 0.6858 0.6855 0.6853
2604.758794 0.6850 0.6848 0.6845 0.6843 0.6840
2609.773920 0.6838 0.6835 0.6830 0.6821 0.6812
2614.789045 0.6804 0.6796 0.6790 0.6784 0.6778
2619.804171 0.6772 0.6766 0.6760 0.6756 0.6753
2624.819296 0.6750 0.6747 0.6745 0.6742 0.6741
2629.834422 0.6741 0.6741 0.6741 0.6742 0.6742
2634.849547 0.6741 0.6739 0.6737 0.6735 0.6733
2639.864673 0.6730 0.6724 0.6718 0.6712 0.6699
2644.879798 0.6683 0.6669 0.6659 0.6650 0.6640
2649.894924 0.6632 0.6629 0.6626 0.6624 0.6621
2654.910050 0.6624 0.6615 0.6629 0.6633 0.6636
2659.925175 0.6639 0.6642 0.6647 0.6652 0.6658
2664.940301 0.6663 0.6671 0.6680 0.6688 0.6696
2669.955426 0.6704 0.6711 0.6718 0.6724 0.6730
2674.970552 0.6737 0.6740 0.6742 0.6744 0.6746
2679.985677 0.6749 0.6751 0.6753 0.6755 0.6757
2685.000803 0.6759 0.6762 0.6765 0.6768 0.6772
2690.015928 0.6778 0.6784 0.6791 0.6794 0.6794
2695.031054 0.6794 0.6794 0.6793 0.6792 0.6790
2700.046180 0.6789 0.6787 0.6786 0.6784 0.6785
2705.061305 0.6786 0.6787 0.6788 0.6790 0.6791
2710.076431 0.6792 0.6793 0.6795 0.6798 0.6801
2715.091556 0.6805 0.6808 0.6811 0.6814 0.6818
2720.106682 0.6822 0.6827 0.6833 0.6840 0.6847
2725.121807 0.6852 0.6855 0.6859 0.6862 0.6865
2730.136933 0.6868 0.6866 0.6861 0.6866 0.6865
2735.152058 0.6864 0.6859 0.6853 0.6848 0.6842
2740.167184 0.6835 0.6828 0.6821 0.6814 0.6808
2745.182310 0.6801 0.6795 0.6791 0.6788 0.6785
2750.197435 0.6781 0.6778 0.6774 0.6772 0.6770
2755.212561 0.6768 0.6766 0.6764 0.6762 0.6760
2760.227686 0.6758 0.6756 0.6753 0.6751 0.6749
2765.242812 0.6746 0.6744 0.6741 0.6738 0.6736
2770.257937 0.6733 0.6729 0.6723 0.6717 0.6711
2775.273063 0.6704 0.6691 0.6676 0.6662 0.6647
2780.288188 0.6633 0.6618 0.6605 0.6593 0.6581
2785.303314 0.6568 0.6556 0.6544 0.6532 0.6517
2790.318440 0.6503 0.6488 0.6473 0.6458 0.6440
2795.333565 0.6415 0.6388 0.6362 0.6335 0.6306
2800.348691 0.6260 0.6198 0.6150 0.6101 0.6052
2805.363816 0.6000 0.5949 0.5899 0.5852 0.5807
2810.378942 0.5762 0.5718 0.5682 0.5658 0.5634
2815.394067 0.5609 0.5582 0.5449 0.5238 0.5144
2820.409193 0.5057 0.4985 0.4917 0.4850 0.4782
2825.424318 0.4700 0.4590 0.4469 0.4339 0.4188
2830.439444 0.3919 0.3656 0.3570 0.3464 0.3335
2835.454570 0.3227 0.3150 0.3077 0.3001 0.2903
2840.469695 0.2776 0.2656 0.2575 0.2524 0.2489
2845.484821 0.2468 0.2448 0.2428 0.2415 0.2409
2850.499946 0.2402 0.2398 0.2399 0.2398 0.2401
2855.515072 0.2407 0.2411 0.2416 0.2421 0.2428
2860.530197 0.2440 0.2461 0.2489 0.2522 0.2559
2865.545323 0.2597 0.2640 0.2681 0.2713 0.2740
2870.560448 0.2767 0.2794 0.2815 0.2827 0.2834
2875.575574 0.2837 0.2836 0.2834 0.2833 0.2831
2880.590700 0.2830 0.2836 0.2829 0.2820 0.2817
2885.605825 0.2810 0.2800 0.2789 0.2778 0.2767
2890.620951 0.2756 0.2746 0.2739 0.2734 0.2730
2895.636076 0.2725 0.2715 0.2679 0.2621 0.2549
2900.651202 0.2473 0.2407 0.2350 0.2294 0.2247
2905.666327 0.2204 0.2161 0.2117 0.2069 0.2015
2910.681453 0.1959 0.1898 0.1825 0.1744 0.1521
2915.696578 0.1363 0.1261 0.1197 0.1148 0.1099
2920.711704 0.1058 0.1024 0.1007 0.0995 0.0989
2925.726830 0.0986 0.0984 0.0984 0.0986 0.0987
2930.741955 0.0976 0.0988 0.0995 0.1001 0.1007
2935.757081 0.1013 0.1019 0.1025 0.1031 0.1039
2940.772206 0.1051 0.1064 0.1077 0.1091 0.1106
2945.787332 0.1121 0.1143 0.1178 0.1223 0.1289
2950.802457 0.1359 0.1423 0.1487 0.1558 0.1631
2955.817583 0.1703 0.1788 0.1898 0.2011 0.2088
2960.832708 0.2153 0.2217 0.2427 0.2620 0.2739
2965.847834 0.2844 0.2945 0.3046 0.3369 0.3551
2970.862960 0.3670 0.3782 0.3895 0.4009 0.4386
2975.878085 0.4561 0.4625 0.4677 0.4729 0.4781
2980.893211 0.4826 0.4870 0.4960 0.5070 0.5141
2985.908336 0.5207 0.5258 0.5298 0.5337 0.5376
2990.923462 0.5408 0.5439 0.5470 0.5501 0.5536
2995.938587 0.5570 0.5604 0.5639 0.5668 0.5699
3000.953713 0.5729 0.5758 0.5786 0.5814 0.5841
3005.968838 0.5869 0.5897 0.5919 0.5941 0.5962
3010.983964 0.5983 0.6004 0.6027 0.6050 0.6072
3015.999090 0.6095 0.6118 0.6141 0.6165 0.6194
3021.014215 0.6222 0.6237 0.6250 0.6264 0.6279
3026.029341 0.6306 0.6352 0.6396 0.6433 0.6472
3031.044466 0.6510 0.6548 0.6587 0.6626 0.6657
3036.059592 0.6678 0.6699 0.6720 0.6739 0.6755
3041.074717 0.6770 0.6786 0.6801 0.6816 0.6833
3046.089843 0.6861 0.6891 0.6921 0.6951 0.6984
3051.104969 0.7018 0.7051 0.7075 0.7092 0.7108
3056.120094 0.7125 0.7141 0.7157 0.7169 0.7181
3061.135220 0.7194 0.7206 0.7218 0.7230 0.7243
3066.150345 0.7256 0.7279 0.7304 0.7329 0.7354
3071.165471 0.7377 0.7386 0.7388 0.7389 0.7392
3076.180596 0.7395 0.7399 0.7410 0.7447 0.7539
3081.195722 0.7572 0.7579 0.7586 0.7593 0.7600
3086.210847 0.7603 0.7605 0.7608 0.7611 0.7613
3091.225973 0.7616 0.7619 0.7621 0.7623 0.7625
3096.241099 0.7628 0.7630 0.7632 0.7634 0.7637
3101.256224 0.7639 0.7641 0.7643 0.7645 0.7647
3106.271350 0.7649 0.7652 0.7662 0.7672 0.7682
3111.286475 0.7693 0.7706 0.7723 0.7739 0.7756
3116.301601 0.7773 0.7793 0.7811 0.7822 0.7829
3121.316726 0.7831 0.7833 0.7835 0.7837 0.7838
3126.331852 0.7840 0.7842 0.7842 0.7840 0.7839
3131.346977 0.7837 0.7835 0.7834 0.7832 0.7830
3136.362103 0.7828 0.7826 0.7824 0.7822 0.7820
3141.377229 0.7818 0.7816 0.7814 0.7812 0.7810
3146.392354 0.7809 0.7808 0.7807 0.7806 0.7805
3151.407480 0.7805 0.7804 0.7803 0.7802 0.7802
3156.422605 0.7802 0.7802 0.7802 0.7802 0.7803
3161.437731 0.7801 0.7798 0.7796 0.7793 0.7790
3166.452856 0.7788 0.7785 0.7780 0.7774 0.7769
3171.467982 0.7763 0.7757 0.7753 0.7751 0.7751
3176.483107 0.7750 0.7750 0.7750 0.7750 0.7749
3181.498233 0.7749 0.7750 0.7753 0.7757 0.7760
3186.513359 0.7763 0.7767 0.7770 0.7773 0.7777
3191.528484 0.7780 0.7783 0.7786 0.7788 0.7790
3196.543610 0.7792 0.7795 0.7800 0.7807 0.7814
3201.558735 0.7821 0.7828 0.7835 0.7841 0.7847
3206.573861 0.7854 0.7862 0.7870 0.7878 0.7887
3211.588986 0.7896 0.7905 0.7915 0.7925 0.7934
3216.604112 0.7944 0.7954 0.7962 0.7968 0.7974
3221.619237 0.7979 0.7985 0.7991 0.7996 0.8002
3226.634363 0.8007 0.8008 0.8008 0.8008 0.8008
3231.649489 0.8008 0.8008 0.8007 0.8007 0.8007
3236.664614 0.8007 0.8007 0.8007 0.8007 0.8007
3241.679740 0.8007 0.8008 0.8008 0.8008 0.8011
3246.694865 0.8018 0.8025 0.8033 0.8041 0.8048
3251.709991 0.8056 0.8063 0.8071 0.8078 0.8086
3256.725116 0.8093 0.8101 0.8107 0.8112 0.8117
3261.740242 0.8122 0.8127 0.8131 0.8136 0.8141
3266.755367 0.8145 0.8148 0.8151 0.8154 0.8157
3271.770493 0.8159 0.8162 0.8165 0.8168 0.8171
3276.785619 0.8174 0.8175 0.8175 0.8175 0.8175
3281.800744 0.8175 0.8175 0.8175 0.8175 0.8175
3286.815870 0.8174 0.8174 0.8174 0.8174 0.8174
3291.830995 0.8175 0.8176 0.8177 0.8179 0.8180
3296.846121 0.8182 0.8183 0.8184 0.8186 0.8187
3301.861246 0.8189 0.8190 0.8191 0.8193 0.8194
3306.876372 0.8196 0.8197 0.8197 0.8198 0.8198
3311.891497 0.8198 0.8198 0.8199 0.8199 0.8199
3316.906623 0.8199 0.8200 0.8203 0.8207 0.8211
3321.921749 0.8214 0.8218 0.8222 0.8226 0.8229
3326.936874 0.8234 0.8243 0.8254 0.8257 0.8257
3331.952000 0.8257 0.8257 0.8257 0.8253 0.8249
3336.967125 0.8245 0.8241 0.8237 0.8234 0.8233
3341.982251 0.8232 0.8230 0.8229 0.8231 0.8235
3346.997376 0.8239 0.8243 0.8253 0.8266 0.8279
3352.012502 0.8291 0.8301 0.8311 0.8314 0.8310
3357.027627 0.8306 0.8301 0.8297 0.8292 0.8286
3362.042753 0.8280 0.8273 0.8267 0.8261 0.8260
3367.057879 0.8259 0.8259 0.8259 0.8258 0.8258
3372.073004 0.8259 0.8260 0.8262 0.8264 0.8266
3377.088130 0.8268 0.8269 0.8271 0.8273 0.8275
3382.103255 0.8277 0.8279 0.8281 0.8283 0.8283
3387.118381 0.8282 0.8281 0.8280 0.8279 0.8278
3392.133506 0.8277 0.8276 0.8275 0.8274 0.8273
3397.148632 0.8272 0.8272 0.8271 0.8270 0.8269
3402.163757 0.8268 0.8268 0.8267 0.8266 0.8265
3407.178883 0.8265 0.8264 0.8263 0.8262 0.8261
3412.194009 0.8258 0.8256 0.8254 0.8251 0.8249
3417.209134 0.8247 0.8244 0.8242 0.8240 0.8237
3422.224260 0.8235 0.8233 0.8230 0.8225 0.8220
3427.239385 0.8215 0.8209 0.8204 0.8198 0.8192
3432.254511 0.8187 0.8182 0.8176 0.8170 0.8164
3437.269636 0.8158 0.8152 0.8146 0.8139 0.8133
3442.284762 0.8127 0.8121 0.8114 0.8108 0.8102
3447.299887 0.8098 0.8097 0.8095 0.8094 0.8093
3452.315013 0.8092 0.8091 0.8090 0.8089 0.8090
3457.330139 0.8093 0.8096 0.8099 0.8102 0.8104
3462.345264 0.8107 0.8111 0.8116 0.8120 0.8125
3467.360390 0.8130 0.8135 0.8139 0.8144 0.8149
3472.375515 0.8155 0.8160 0.8165 0.8170 0.8176
3477.390641 0.8181 0.8186 0.8191 0.8197 0.8202
3482.405766 0.8208 0.8213 0.8219 0.8223 0.8224
3487.420892 0.8225 0.8227 0.8228 0.8228 0.8228
3492.436017 0.8229 0.8229 0.8229 0.8230 0.8230
3497.451143 0.8231 0.8232 0.8233 0.8233 0.8234
3502.466269 0.8234 0.8234 0.8233 0.8232 0.8232
3507.481394 0.8232 0.8232 0.8232 0.8232 0.8231
3512.496520 0.8229 0.8228 0.8227 0.8226 0.8224
3517.511645 0.8223 0.8222 0.8220 0.8219 0.8217
3522.526771 0.8216 0.8216 0.8217 0.8217 0.8218
3527.541896 0.8219 0.8219 0.8220 0.8220 0.8221
3532.557022 0.8222 0.8223 0.8226 0.8229 0.8232
3537.572147 0.8236 0.8243 0.8251 0.8261 0.8277
3542.587273 0.8295 0.8304 0.8306 0.8309 0.8311
3547.602399 0.8313 0.8316 0.8318 0.8319 0.8319
3552.617524 0.8319 0.8319 0.8319 0.8318 0.8318
3557.632650 0.8318 0.8318 0.8318 0.8318 0.8318
3562.647775 0.8318 0.8317 0.8317 0.8316 0.8315
3567.662901 0.8315 0.8314 0.8313 0.8313 0.8312
3572.678026 0.8311 0.8311 0.8310 0.8309 0.8309
3577.693152 0.8308 0.8307 0.8306 0.8305 0.8304
3582.708277 0.8303 0.8302 0.8301 0.8300 0.8299
3587.723403 0.8298 0.8297 0.8296 0.8295 0.8294
3592.738529 0.8293 0.8292 0.8291 0.8290 0.8289
3597.753654 0.8288 0.8287 0.8285 0.8284 0.8282
3602.768780 0.8280 0.8279 0.8277 0.8275 0.8274
3607.783905 0.8272 0.8270 0.8269 0.8267 0.8265
3612.799031 0.8264 0.8262 0.8262 0.8262 0.8262
3617.814156 0.8261 0.8261 0.8261 0.8261 0.8261
3622.829282 0.8260 0.8260 0.8260 0.8260 0.8259
3627.844407 0.8259 0.8259 0.8259 0.8259 0.8258
3632.859533 0.8258 0.8258 0.8257 0.8257 0.8257
3637.874659 0.8256 0.8256 0.8256 0.8255 0.8255
3642.889784 0.8254 0.8254 0.8254 0.8253 0.8253
3647.904910 0.8253 0.8252 0.8252 0.8252 0.8251
3652.920035 0.8252 0.8256 0.8259 0.8262 0.8265
3657.935161 0.8269 0.8272 0.8275 0.8278 0.8282
3662.950286 0.8287 0.8291 0.8295 0.8300 0.8304
3667.965412 0.8308 0.8312 0.8316 0.8319 0.8323
3672.980537 0.8326 0.8330 0.8333 0.8337 0.8341
3677.995663 0.8343 0.8344 0.8345 0.8347 0.8348
3683.010789 0.8349 0.8350 0.8351 0.8353 0.8354
3688.025914 0.8355 0.8356 0.8357 0.8358 0.8359
3693.041040 0.8361 0.8362 0.8363 0.8364 0.8365
3698.056165 0.8366 0.8367 0.8368 0.8369 0.8370
3703.071291 0.8373 0.8378 0.8383 0.8388 0.8393
3708.086416 0.8397 0.8402 0.8407 0.8413 0.8423
3713.101542 0.8432 0.8435 0.8437 0.8440 0.8443
3718.116668 0.8446 0.8449 0.8452 0.8456 0.8460
3723.131793 0.8464 0.8470 0.8476 0.8479 0.8482
3728.146919 0.8485 0.8485 0.8483 0.8481 0.8478
3733.162044 0.8475 0.8468 0.8454 0.8441 0.8434
3738.177170 0.8431 0.8428 0.8425 0.8423 0.8421
3743.192295 0.8421 0.8424 0.8428 0.8431 0.8435
3748.207421 0.8438 0.8445 0.8454 0.8462 0.8464
3753.222546 0.8465 0.8466 0.8467 0.8468 0.8468
3758.237672 0.8467 0.8467 0.8466 0.8465 0.8466
3763.252798 0.8466 0.8466 0.8466 0.8466 0.8467
3768.267923 0.8467 0.8467 0.8468 0.8469 0.8470
3773.283049 0.8471 0.8472 0.8473 0.8474 0.8475
3778.298174 0.8476 0.8477 0.8478 0.8478 0.8479
3783.313300 0.8480 0.8480 0.8481 0.8482 0.8482
3788.328425 0.8483 0.8483 0.8483 0.8484 0.8484
3793.343551 0.8484 0.8484 0.8484 0.8482 0.8480
3798.358676 0.8478 0.8476 0.8474 0.8472 0.8470
3803.373802 0.8464 0.8458 0.8451 0.8444 0.8438
3808.388928 0.8431 0.8424 0.8418 0.8413 0.8410
3813.404053 0.8406 0.8402 0.8398 0.8394 0.8392
3818.419179 0.8393 0.8394 0.8396 0.8397 0.8398
3823.434304 0.8400 0.8402 0.8406 0.8411 0.8415
3828.449430 0.8420 0.8428 0.8438 0.8449 0.8457
3833.464555 0.8461 0.8461 0.8462 0.8462 0.8463
3838.479681 0.8465 0.8467 0.8469 0.8471 0.8474
3843.494806 0.8478 0.8482 0.8486 0.8489 0.8497
3848.509932 0.8508 0.8520 0.8529 0.8535 0.8541
3853.525058 0.8546 0.8546 0.8545 0.8544 0.8543
3858.540183 0.8542 0.8541 0.8540 0.8539 0.8538
3863.555309 0.8536 0.8533 0.8531 0.8528 0.8526
3868.570434 0.8524 0.8521 0.8517 0.8512 0.8506
3873.585560 0.8500 0.8494 0.8488 0.8486 0.8486
3878.600685 0.8485 0.8485 0.8485 0.8485 0.8484
3883.615811 0.8484 0.8485 0.8487 0.8490 0.8494
3888.630936 0.8497 0.8500 0.8501 0.8501 0.8501
3893.646062 0.8502 0.8502 0.8500 0.8494 0.8486
3898.661188 0.8478 0.8470 0.8463 0.8458 0.8453
3903.676313 0.8449 0.8444 0.8442 0.8442 0.8442
3908.691439 0.8442 0.8442 0.8443 0.8443 0.8443
3913.706564 0.8445 0.8449 0.8454 0.8458 0.8462
3918.721690 0.8462 0.8461 0.8460 0.8459 0.8457
3923.736815 0.8451 0.8442 0.8432 0.8416 0.8399
3928.751941 0.8383 0.8375 0.8369 0.8365 0.8363
3933.767066 0.8361 0.8360 0.8358 0.8360 0.8363
3938.782192 0.8365 0.8368 0.8371 0.8373 0.8375
3943.797318 0.8407 0.8387 0.8382 0.8385 0.8387
3948.812443 0.8389 0.8392 0.8394 0.8397 0.8401
3953.827569 0.8404 0.8408 0.8411 0.8415 0.8418
3958.842694 0.8422 0.8432 0.8442 0.8453 0.8457
3963.857820 0.8460 0.8463 0.8465 0.8462 0.8459
3968.872945 0.8451 0.8439 0.8427 0.8410 0.8396
3973.888071 0.8391 0.8395 0.8398 0.8401 0.8404
3978.903196 0.8406 0.8407 0.8407 0.8403 0.8395
3983.918322 0.8385 0.8374 0.8360 0.8352 0.8348
3988.933448 0.8345 0.8341 0.8338 0.8335 0.8337
3993.948573 0.8340 0.8342 0.8345 0.8347 0.8349
3998.963699 0.8351 0.8353 0.8355 0.8361 0.8375
4003.978824 0.8388 0.8402 0.8415 0.8429 0.8442
4008.993950 0.8456 0.8460
##END=
