##TITLE=2-NORBORNANOL, 3-[(4-METHYL-1-PIPERAZINYL)METHYL]-, DIHYDROCHLORIDE
##JCAMP-DX=4.24
##DATA TYPE=INFRARED SPECTRUM
##CLASS=COBLENTZ III
##ORIGIN=DOW CHEMICAL COMPANY
##OWNER=COBLENTZ SOC.
Collection (C) 2018 copyright by the U.S. Secretary of Commerce
on behalf of the United States of America. All rights reserved.
##DATE=1965/08/31
##MOLFORM=C13 H26 Cl2 N2 O
##MP=228-229 C
##SOURCE REFERENCE=COBLENTZ NO. 07929
##$NIST ID=B6007929
##$NIST SOURCE=COBLENTZ
##$NIST IMAGE=cob7929
##SPECTROMETER/DATA SYSTEM=DOW KBr FOREPRISM-GRATING
##INSTRUMENT PARAMETERS=BLAZED AT 3.5, 12.0, 20.0 MICRON AND CHANGED AT 5.0, 7.5, 14.9 MICRON
##STATE=SOLID (SPLIT MULL), FLUOROLUBE FOR 3800-1330 CM^-^1, NUJOL FOR 1330-460 CM^-^1
$$ SPECTRAL FEATURE AT 1990 CM^-^1 IS AN ARTIFACT CAUSED BY GRATING CHANGE
##SAMPLING PROCEDURE=TRANSMISSION
##RESOLUTION=2
##DATA PROCESSING=DIGITIZED BY COBLENTZ SOCIETY (BATCH I) FROM HARD COPY
##XUNITS=1/CM
##YUNITS=TRANSMITTANCE
##XLABEL=Wavenumbers (cm-1)
##YLABEL=% Transmission
##XFACTOR=1
##YFACTOR=1
##DELTAX=1
##FIRSTX=458
##LASTX=3800
##FIRSTY=0.5012
##MAXX=3800
##MINX=458
##MAXY=0.8587
##MINY=0.0272
##NPOINTS=3343
##XYDATA=(X++(Y..Y))
458.000000 0.5012 0.5009 0.5006 0.5003 0.4999
463.000000 0.4997 0.4995 0.4993 0.4991 0.4989
468.000000 0.4987 0.4981 0.4974 0.4968 0.4962
473.000000 0.4956 0.4946 0.4934 0.4923 0.4907
478.000000 0.4889 0.4868 0.4844 0.4821 0.4799
483.000000 0.4781 0.4762 0.4749 0.4741 0.4734
488.000000 0.4727 0.4719 0.4720 0.4751 0.4725
493.000000 0.4738 0.4752 0.4766 0.4792 0.4822
498.000000 0.4847 0.4870 0.4882 0.4891 0.4891
503.000000 0.4891 0.4894 0.4898 0.4901 0.4910
508.000000 0.4964 0.5054 0.5174 0.5294 0.5465
513.000000 0.5745 0.5777 0.5791 0.5799 0.5802
518.000000 0.5806 0.5810 0.5814 0.5818 0.5822
523.000000 0.5825 0.5829 0.5833 0.5836 0.5840
528.000000 0.5843 0.5847 0.5855 0.5864 0.5872
533.000000 0.5880 0.5889 0.5897 0.5912 0.5931
538.000000 0.5948 0.5965 0.5982 0.5997 0.6024
543.000000 0.6015 0.6014 0.6014 0.6008 0.5984
548.000000 0.5959 0.5829 0.5639 0.5449 0.5346
553.000000 0.5358 0.5353 0.5477 0.5620 0.5764
558.000000 0.5907 0.6051 0.6194 0.6338 0.6461
563.000000 0.6488 0.6543 0.6510 0.6508 0.6468
568.000000 0.6288 0.6048 0.5808 0.5568 0.5328
573.000000 0.5166 0.5180 0.5391 0.5601 0.5810
578.000000 0.6021 0.6231 0.6425 0.6718 0.6872
583.000000 0.6983 0.7075 0.7132 0.7188 0.7228
588.000000 0.7267 0.7305 0.7343 0.7375 0.7405
593.000000 0.7436 0.7467 0.7491 0.7515 0.7539
598.000000 0.7562 0.7587 0.7608 0.7626 0.7646
603.000000 0.7664 0.7683 0.7701 0.7718 0.7734
608.000000 0.7751 0.7767 0.7783 0.7800 0.7815
613.000000 0.7832 0.7844 0.7856 0.7868 0.7880
618.000000 0.7891 0.7903 0.7915 0.7926 0.7939
623.000000 0.7951 0.7961 0.7971 0.7982 0.7993
628.000000 0.8003 0.8014 0.8024 0.8035 0.8045
633.000000 0.8055 0.8064 0.8072 0.8082 0.8091
638.000000 0.8100 0.8110 0.8118 0.8128 0.8137
643.000000 0.8145 0.8151 0.8158 0.8167 0.8174
648.000000 0.8181 0.8189 0.8196 0.8203 0.8210
653.000000 0.8214 0.8218 0.8221 0.8225 0.8230
658.000000 0.8234 0.8238 0.8242 0.8245 0.8246
663.000000 0.8248 0.8247 0.8247 0.8244 0.8250
668.000000 0.8282 0.8315 0.8348 0.8381 0.8413
673.000000 0.8446 0.8478 0.8511 0.8544 0.8565
678.000000 0.8571 0.8578 0.8584 0.8585 0.8586
683.000000 0.8587 0.8587 0.8584 0.8582 0.8578
688.000000 0.8577 0.8575 0.8575 0.8575 0.8575
693.000000 0.8571 0.8563 0.8555 0.8547 0.8535
698.000000 0.8521 0.8509 0.8494 0.8471 0.8449
703.000000 0.8420 0.8386 0.8352 0.8310 0.8266
708.000000 0.8221 0.8176 0.8130 0.8084 0.8037
713.000000 0.7983 0.7928 0.7871 0.7810 0.7747
718.000000 0.7682 0.7564 0.7372 0.7392 0.7398
723.000000 0.7421 0.7506 0.7593 0.7665 0.7721
728.000000 0.7761 0.7786 0.7811 0.7819 0.7821
733.000000 0.7821 0.7833 0.7815 0.7811 0.7807
738.000000 0.7778 0.7664 0.7550 0.7436 0.7321
743.000000 0.7256 0.7282 0.7251 0.7621 0.7791
748.000000 0.7961 0.8071 0.8126 0.8158 0.8175
753.000000 0.8186 0.8183 0.8190 0.8174 0.8154
758.000000 0.8108 0.8005 0.7894 0.7783 0.7671
763.000000 0.7575 0.7586 0.7560 0.7876 0.8008
768.000000 0.8058 0.8067 0.8083 0.8058 0.8031
773.000000 0.7912 0.7714 0.7448 0.7181 0.6915
778.000000 0.6891 0.7174 0.7532 0.7890 0.8112
783.000000 0.8194 0.8224 0.8253 0.8263 0.8271
788.000000 0.8278 0.8280 0.8318 0.8278 0.8275
793.000000 0.8271 0.8268 0.8259 0.8250 0.8240
798.000000 0.8223 0.8205 0.8183 0.8160 0.8137
803.000000 0.8108 0.8081 0.8024 0.7938 0.7846
808.000000 0.7734 0.7508 0.6661 0.6289 0.6286
813.000000 0.6312 0.6258 0.6524 0.6612 0.6712
818.000000 0.7092 0.7493 0.7686 0.7694 0.7696
823.000000 0.7658 0.7607 0.7554 0.7515 0.7530
828.000000 0.7718 0.7915 0.8014 0.8071 0.8125
833.000000 0.8158 0.8183 0.8204 0.8221 0.8234
838.000000 0.8247 0.8260 0.8271 0.8277 0.8283
843.000000 0.8288 0.8288 0.8288 0.8288 0.8288
848.000000 0.8288 0.8287 0.8287 0.8286 0.8285
853.000000 0.8284 0.8281 0.8278 0.8275 0.8258
858.000000 0.8228 0.8195 0.8161 0.8121 0.8068
863.000000 0.8015 0.7988 0.7974 0.7950 0.7999
868.000000 0.8036 0.8088 0.8145 0.8197 0.8239
873.000000 0.8259 0.8249 0.8233 0.8217 0.8202
878.000000 0.8186 0.8158 0.8130 0.8078 0.7997
883.000000 0.7928 0.7871 0.7839 0.7860 0.7878
888.000000 0.7928 0.7965 0.7992 0.8015 0.8037
893.000000 0.8051 0.8064 0.8064 0.8064 0.8061
898.000000 0.8078 0.8031 0.8010 0.7972 0.7919
903.000000 0.7868 0.7815 0.7749 0.7678 0.7321
908.000000 0.6958 0.6594 0.6543 0.6528 0.7072
913.000000 0.7368 0.7634 0.7765 0.7810 0.7842
918.000000 0.7868 0.7889 0.7898 0.7924 0.7905
923.000000 0.7896 0.7878 0.7856 0.7830 0.7794
928.000000 0.7740 0.7675 0.7621 0.7578 0.7561
933.000000 0.7561 0.7558 0.7558 0.7558 0.7557
938.000000 0.7550 0.7358 0.7168 0.6976 0.6786
943.000000 0.6595 0.6540 0.6654 0.6842 0.7042
948.000000 0.7328 0.7614 0.7657 0.7665 0.7665
953.000000 0.7642 0.7619 0.7594 0.7568 0.7536
958.000000 0.7460 0.7225 0.6990 0.6736 0.6639
963.000000 0.6625 0.6614 0.6805 0.7001 0.7121
968.000000 0.7124 0.7125 0.7103 0.7026 0.6853
973.000000 0.6437 0.5904 0.5372 0.4839 0.4307
978.000000 0.3774 0.3241 0.2508 0.2504 0.2511
983.000000 0.2939 0.3680 0.4423 0.5165 0.5907
988.000000 0.6649 0.7058 0.7278 0.7345 0.7397
993.000000 0.7430 0.7455 0.7472 0.7467 0.7475
998.000000 0.7471 0.7468 0.7456 0.7439 0.7415
1003.000000 0.7385 0.7358 0.7334 0.7310 0.7292
1008.000000 0.7274 0.7256 0.7233 0.7206 0.7161
1013.000000 0.7108 0.7041 0.6946 0.6837 0.6700
1018.000000 0.6562 0.6425 0.6245 0.5679 0.5392
1023.000000 0.5072 0.5004 0.4998 0.4990 0.4978
1028.000000 0.4864 0.4683 0.4501 0.4490 0.4788
1033.000000 0.5262 0.5735 0.6047 0.6073 0.6072
1038.000000 0.6072 0.5989 0.5866 0.5696 0.5507
1043.000000 0.5358 0.5106 0.4458 0.3774 0.3090
1048.000000 0.2406 0.1722 0.1307 0.1218 0.1207
1053.000000 0.1207 0.1207 0.1217 0.1246 0.1405
1058.000000 0.2065 0.2724 0.4030 0.4000 0.3993
1063.000000 0.3986 0.3882 0.3773 0.3664 0.3555
1068.000000 0.3447 0.3397 0.3776 0.4342 0.4908
1073.000000 0.5440 0.5695 0.5718 0.5726 0.5729
1078.000000 0.5712 0.5705 0.5660 0.5593 0.5525
1083.000000 0.5457 0.5388 0.5349 0.5322 0.5298
1088.000000 0.5269 0.5248 0.5219 0.5174 0.5130
1093.000000 0.5130 0.5130 0.5152 0.5164 0.5209
1098.000000 0.5269 0.5342 0.5426 0.6441 0.6518
1103.000000 0.6556 0.6581 0.6595 0.6598 0.6601
1108.000000 0.6594 0.6578 0.6561 0.6539 0.6512
1113.000000 0.6488 0.6455 0.6411 0.6368 0.6318
1118.000000 0.6249 0.6179 0.6084 0.5484 0.5373
1123.000000 0.5364 0.5365 0.5365 0.5360 0.5254
1128.000000 0.4960 0.4665 0.4371 0.4122 0.4102
1133.000000 0.4386 0.4484 0.4491 0.4495 0.4572
1138.000000 0.4718 0.4865 0.5010 0.5115 0.5137
1143.000000 0.5097 0.4978 0.4860 0.4795 0.4773
1148.000000 0.5008 0.5360 0.5712 0.6062 0.6090
1153.000000 0.6091 0.6091 0.5777 0.5462 0.5148
1158.000000 0.4834 0.4788 0.4788 0.5301 0.5637
1163.000000 0.5973 0.6309 0.6326 0.6332 0.6369
1168.000000 0.6327 0.6320 0.6060 0.5516 0.4971
1173.000000 0.4426 0.3880 0.3336 0.3246 0.3198
1178.000000 0.3446 0.3729 0.4010 0.4184 0.4206
1183.000000 0.4191 0.4182 0.4168 0.4149 0.4125
1188.000000 0.4090 0.3980 0.3870 0.3908 0.3975
1193.000000 0.4317 0.4659 0.5002 0.5344 0.5686
1198.000000 0.6029 0.6482 0.6518 0.6548 0.6582
1203.000000 0.6615 0.6660 0.6796 0.6972 0.7010
1208.000000 0.7011 0.7017 0.6971 0.6775 0.6578
1213.000000 0.6388 0.6415 0.6537 0.6690 0.6910
1218.000000 0.7134 0.7198 0.7215 0.7211 0.7256
1223.000000 0.7195 0.7180 0.7156 0.7128 0.7101
1228.000000 0.7061 0.7022 0.6988 0.6940 0.6885
1233.000000 0.6807 0.6710 0.6362 0.5891 0.5806
1238.000000 0.5812 0.5810 0.5827 0.6033 0.6217
1243.000000 0.6348 0.6424 0.6482 0.6518 0.6546
1248.000000 0.6564 0.6593 0.6488 0.6293 0.6098
1253.000000 0.5903 0.5708 0.5512 0.5285 0.5232
1258.000000 0.5232 0.5232 0.5287 0.5378 0.5447
1263.000000 0.5503 0.5558 0.5588 0.5604 0.5618
1268.000000 0.5624 0.5630 0.5633 0.5392 0.5215
1273.000000 0.5039 0.4862 0.4686 0.4510 0.4333
1278.000000 0.4244 0.4257 0.4899 0.5357 0.5468
1283.000000 0.5490 0.5452 0.5310 0.5168 0.5026
1288.000000 0.4985 0.5074 0.5214 0.5355 0.5470
1293.000000 0.5467 0.5159 0.4971 0.4784 0.4596
1298.000000 0.4485 0.4474 0.4849 0.5114 0.5114
1303.000000 0.4984 0.4766 0.4548 0.4330 0.4112
1308.000000 0.3893 0.3759 0.3762 0.3826 0.3923
1313.000000 0.3977 0.4030 0.4058 0.4078 0.4095
1318.000000 0.4110 0.4127 0.4145 0.4614 0.5102
1323.000000 0.5589 0.5915 0.6003 0.6028 0.6045
1328.000000 0.6050 0.6062 0.6043 0.5968 0.5854
1333.000000 0.5437 0.5069 0.4847 0.4712 0.4599
1338.000000 0.4500 0.4391 0.4168 0.4058 0.4059
1343.000000 0.4064 0.4084 0.4109 0.4170 0.4282
1348.000000 0.4415 0.4547 0.5045 0.5159 0.5255
1353.000000 0.5406 0.5907 0.6075 0.6117 0.6149
1358.000000 0.6167 0.6185 0.6194 0.6198 0.6221
1363.000000 0.6168 0.6144 0.6091 0.6030 0.5934
1368.000000 0.5851 0.5774 0.5669 0.5596 0.5596
1373.000000 0.5596 0.5620 0.5710 0.6343 0.6438
1378.000000 0.6484 0.6497 0.6525 0.6491 0.6472
1383.000000 0.6415 0.6377 0.6342 0.6316 0.6314
1388.000000 0.6366 0.6485 0.6543 0.6556 0.6555
1393.000000 0.6519 0.6421 0.6375 0.6360 0.6360
1398.000000 0.6360 0.6391 0.6414 0.6436 0.6458
1403.000000 0.6480 0.6503 0.6531 0.6550 0.6556
1408.000000 0.6547 0.6532 0.6511 0.6480 0.6446
1413.000000 0.6406 0.6346 0.6265 0.6192 0.6095
1418.000000 0.6034 0.5974 0.5894 0.5772 0.5481
1423.000000 0.5190 0.4900 0.4874 0.4891 0.4931
1428.000000 0.4982 0.5032 0.5082 0.5133 0.5143
1433.000000 0.5160 0.5106 0.5085 0.5064 0.5043
1438.000000 0.5023 0.5004 0.4986 0.4967 0.4946
1443.000000 0.4916 0.4871 0.4785 0.4596 0.3905
1448.000000 0.3336 0.3114 0.3105 0.3270 0.3434
1453.000000 0.3532 0.3528 0.3398 0.3239 0.3152
1458.000000 0.3152 0.3157 0.3083 0.2941 0.2799
1463.000000 0.2657 0.2515 0.2373 0.2230 0.2139
1468.000000 0.2122 0.2129 0.2426 0.2797 0.3167
1473.000000 0.3538 0.3909 0.4279 0.4650 0.5021
1478.000000 0.5391 0.5762 0.6133 0.6484 0.6708
1483.000000 0.6825 0.7136 0.7575 0.7757 0.8031
1488.000000 0.8184 0.8259 0.8314 0.8370 0.8387
1493.000000 0.8403 0.8418 0.8436 0.8452 0.8461
1498.000000 0.8470 0.8478 0.8483 0.8484 0.8485
1503.000000 0.8486 0.8487 0.8483 0.8478 0.8475
1508.000000 0.8471 0.8468 0.8465 0.8461 0.8458
1513.000000 0.8454 0.8450 0.8446 0.8442 0.8438
1518.000000 0.8431 0.8424 0.8417 0.8410 0.8403
1523.000000 0.8397 0.8394 0.8391 0.8388 0.8385
1528.000000 0.8385 0.8387 0.8390 0.8393 0.8395
1533.000000 0.8398 0.8401 0.8404 0.8406 0.8409
1538.000000 0.8412 0.8415 0.8417 0.8420 0.8423
1543.000000 0.8425 0.8428 0.8431 0.8434 0.8437
1548.000000 0.8441 0.8444 0.8447 0.8451 0.8454
1553.000000 0.8455 0.8457 0.8459 0.8461 0.8463
1558.000000 0.8465 0.8467 0.8468 0.8471 0.8471
1563.000000 0.8474 0.8475 0.8478 0.8481 0.8483
1568.000000 0.8485 0.8487 0.8489 0.8491 0.8493
1573.000000 0.8495 0.8497 0.8499 0.8501 0.8504
1578.000000 0.8507 0.8509 0.8512 0.8515 0.8517
1583.000000 0.8517 0.8511 0.8504 0.8497 0.8491
1588.000000 0.8484 0.8477 0.8471 0.8464 0.8457
1593.000000 0.8451 0.8444 0.8442 0.8441 0.8440
1598.000000 0.8439 0.8439 0.8439 0.8441 0.8443
1603.000000 0.8446 0.8448 0.8452 0.8457 0.8461
1608.000000 0.8466 0.8471 0.8478 0.8486 0.8494
1613.000000 0.8502 0.8507 0.8512 0.8516 0.8521
1618.000000 0.8525 0.8528 0.8528 0.8527 0.8525
1623.000000 0.8524 0.8521 0.8520 0.8518 0.8513
1628.000000 0.8508 0.8504 0.8499 0.8494 0.8489
1633.000000 0.8484 0.8480 0.8475 0.8471 0.8468
1638.000000 0.8466 0.8464 0.8462 0.8460 0.8457
1643.000000 0.8455 0.8453 0.8451 0.8449 0.8447
1648.000000 0.8446 0.8444 0.8442 0.8441 0.8439
1653.000000 0.8438 0.8436 0.8435 0.8433 0.8432
1658.000000 0.8430 0.8428 0.8427 0.8425 0.8424
1663.000000 0.8423 0.8421 0.8421 0.8420 0.8418
1668.000000 0.8418 0.8418 0.8417 0.8416 0.8415
1673.000000 0.8414 0.8413 0.8412 0.8411 0.8410
1678.000000 0.8409 0.8408 0.8407 0.8406 0.8405
1683.000000 0.8404 0.8403 0.8403 0.8402 0.8402
1688.000000 0.8401 0.8398 0.8395 0.8392 0.8390
1693.000000 0.8387 0.8384 0.8381 0.8378 0.8378
1698.000000 0.8380 0.8380 0.8380 0.8381 0.8381
1703.000000 0.8382 0.8382 0.8384 0.8386 0.8389
1708.000000 0.8391 0.8394 0.8397 0.8399 0.8402
1713.000000 0.8404 0.8407 0.8409 0.8412 0.8414
1718.000000 0.8416 0.8416 0.8417 0.8417 0.8418
1723.000000 0.8418 0.8418 0.8418 0.8417 0.8416
1728.000000 0.8416 0.8416 0.8417 0.8418 0.8418
1733.000000 0.8420 0.8421 0.8421 0.8423 0.8424
1738.000000 0.8425 0.8425 0.8427 0.8428 0.8430
1743.000000 0.8431 0.8432 0.8433 0.8433 0.8432
1748.000000 0.8431 0.8430 0.8428 0.8428 0.8427
1753.000000 0.8425 0.8424 0.8423 0.8421 0.8421
1758.000000 0.8420 0.8418 0.8417 0.8416 0.8415
1763.000000 0.8414 0.8413 0.8411 0.8410 0.8409
1768.000000 0.8408 0.8406 0.8405 0.8404 0.8402
1773.000000 0.8401 0.8399 0.8398 0.8396 0.8395
1778.000000 0.8393 0.8391 0.8390 0.8388 0.8387
1783.000000 0.8385 0.8384 0.8382 0.8380 0.8378
1788.000000 0.8377 0.8375 0.8374 0.8373 0.8371
1793.000000 0.8370 0.8368 0.8368 0.8367 0.8365
1798.000000 0.8364 0.8363 0.8361 0.8360 0.8359
1803.000000 0.8358 0.8356 0.8355 0.8354 0.8353
1808.000000 0.8351 0.8349 0.8347 0.8346 0.8344
1813.000000 0.8342 0.8340 0.8339 0.8337 0.8335
1818.000000 0.8333 0.8332 0.8330 0.8328 0.8325
1823.000000 0.8325 0.8323 0.8321 0.8318 0.8317
1828.000000 0.8315 0.8313 0.8311 0.8309 0.8307
1833.000000 0.8305 0.8303 0.8301 0.8299 0.8296
1838.000000 0.8294 0.8292 0.8290 0.8288 0.8286
1843.000000 0.8284 0.8282 0.8280 0.8278 0.8275
1848.000000 0.8273 0.8270 0.8266 0.8263 0.8260
1853.000000 0.8257 0.8254 0.8251 0.8247 0.8244
1858.000000 0.8241 0.8238 0.8235 0.8232 0.8232
1863.000000 0.8232 0.8234 0.8235 0.8236 0.8237
1868.000000 0.8238 0.8239 0.8240 0.8241 0.8242
1873.000000 0.8243 0.8244 0.8245 0.8247 0.8248
1878.000000 0.8249 0.8250 0.8251 0.8252 0.8253
1883.000000 0.8254 0.8255 0.8256 0.8257 0.8257
1888.000000 0.8257 0.8257 0.8258 0.8258 0.8258
1893.000000 0.8259 0.8259 0.8259 0.8260 0.8260
1898.000000 0.8260 0.8261 0.8261 0.8261 0.8262
1903.000000 0.8262 0.8262 0.8263 0.8263 0.8263
1908.000000 0.8263 0.8262 0.8261 0.8260 0.8259
1913.000000 0.8258 0.8257 0.8256 0.8255 0.8254
1918.000000 0.8253 0.8252 0.8251 0.8250 0.8249
1923.000000 0.8247 0.8246 0.8245 0.8244 0.8243
1928.000000 0.8242 0.8241 0.8237 0.8233 0.8230
1933.000000 0.8225 0.8221 0.8218 0.8215 0.8211
1938.000000 0.8207 0.8203 0.8200 0.8196 0.8192
1943.000000 0.8188 0.8184 0.8181 0.8176 0.8172
1948.000000 0.8168 0.8165 0.8161 0.8158 0.8154
1953.000000 0.8151 0.8147 0.8143 0.8139 0.8135
1958.000000 0.8130 0.8125 0.8121 0.8118 0.8114
1963.000000 0.8108 0.8105 0.8101 0.8097 0.8092
1968.000000 0.8088 0.8084 0.8080 0.8075 0.8071
1973.000000 0.8065 0.8058 0.8050 0.8042 0.8034
1978.000000 0.8026 0.8018 0.8011 0.8001 0.7992
1983.000000 0.7983 0.7976 0.7971 0.7968 0.7964
1988.000000 0.7960 0.7957 0.7953 0.7950 0.7997
1993.000000 0.8044 0.8091 0.8139 0.8186 0.8233
1998.000000 0.8280 0.8327 0.8342 0.8344 0.8347
2003.000000 0.8347 0.8347 0.8348 0.8349 0.8350
2008.000000 0.8351 0.8351 0.8351 0.8351 0.8351
2013.000000 0.8351 0.8351 0.8351 0.8351 0.8349
2018.000000 0.8348 0.8346 0.8345 0.8343 0.8341
2023.000000 0.8339 0.8337 0.8335 0.8333 0.8330
2028.000000 0.8328 0.8323 0.8318 0.8312 0.8305
2033.000000 0.8298 0.8292 0.8285 0.8278 0.8271
2038.000000 0.8265 0.8259 0.8254 0.8248 0.8242
2043.000000 0.8236 0.8231 0.8225 0.8220 0.8214
2048.000000 0.8208 0.8201 0.8195 0.8188 0.8181
2053.000000 0.8174 0.8168 0.8161 0.8154 0.8147
2058.000000 0.8141 0.8134 0.8126 0.8119 0.8114
2063.000000 0.8107 0.8100 0.8093 0.8086 0.8078
2068.000000 0.8072 0.8065 0.8058 0.8050 0.8043
2073.000000 0.8035 0.8028 0.8019 0.8011 0.8004
2078.000000 0.7997 0.7989 0.7982 0.7974 0.7967
2083.000000 0.7958 0.7951 0.7944 0.7936 0.7930
2088.000000 0.7924 0.7918 0.7911 0.7906 0.7900
2093.000000 0.7894 0.7888 0.7882 0.7875 0.7869
2098.000000 0.7864 0.7858 0.7851 0.7846 0.7840
2103.000000 0.7834 0.7828 0.7821 0.7815 0.7811
2108.000000 0.7807 0.7803 0.7799 0.7794 0.7790
2113.000000 0.7785 0.7781 0.7776 0.7772 0.7768
2118.000000 0.7764 0.7758 0.7755 0.7750 0.7746
2123.000000 0.7745 0.7744 0.7744 0.7744 0.7744
2128.000000 0.7744 0.7744 0.7744 0.7744 0.7744
2133.000000 0.7744 0.7744 0.7744 0.7744 0.7743
2138.000000 0.7743 0.7743 0.7743 0.7742 0.7742
2143.000000 0.7741 0.7741 0.7740 0.7740 0.7738
2148.000000 0.7737 0.7732 0.7726 0.7721 0.7717
2153.000000 0.7711 0.7707 0.7701 0.7697 0.7692
2158.000000 0.7687 0.7682 0.7676 0.7671 0.7667
2163.000000 0.7661 0.7657 0.7651 0.7647 0.7641
2168.000000 0.7635 0.7628 0.7624 0.7618 0.7611
2173.000000 0.7606 0.7601 0.7596 0.7591 0.7585
2178.000000 0.7580 0.7575 0.7569 0.7565 0.7560
2183.000000 0.7554 0.7549 0.7544 0.7539 0.7534
2188.000000 0.7528 0.7522 0.7517 0.7511 0.7505
2193.000000 0.7498 0.7492 0.7485 0.7478 0.7472
2198.000000 0.7467 0.7460 0.7454 0.7448 0.7442
2203.000000 0.7435 0.7428 0.7421 0.7415 0.7408
2208.000000 0.7401 0.7394 0.7387 0.7378 0.7371
2213.000000 0.7364 0.7357 0.7350 0.7343 0.7335
2218.000000 0.7328 0.7319 0.7312 0.7305 0.7298
2223.000000 0.7291 0.7284 0.7271 0.7261 0.7249
2228.000000 0.7238 0.7225 0.7215 0.7203 0.7192
2233.000000 0.7180 0.7168 0.7157 0.7146 0.7134
2238.000000 0.7122 0.7111 0.7100 0.7088 0.7076
2243.000000 0.7065 0.7054 0.7042 0.7031 0.7018
2248.000000 0.7008 0.6996 0.6985 0.6972 0.6961
2253.000000 0.6950 0.6939 0.6926 0.6915 0.6904
2258.000000 0.6893 0.6881 0.6869 0.6858 0.6847
2263.000000 0.6835 0.6824 0.6811 0.6801 0.6789
2268.000000 0.6778 0.6765 0.6755 0.6743 0.6732
2273.000000 0.6719 0.6708 0.6698 0.6687 0.6675
2278.000000 0.6665 0.6655 0.6644 0.6633 0.6622
2283.000000 0.6611 0.6601 0.6590 0.6580 0.6568
2288.000000 0.6558 0.6547 0.6536 0.6525 0.6515
2293.000000 0.6506 0.6497 0.6488 0.6478 0.6468
2298.000000 0.6460 0.6450 0.6441 0.6424 0.6408
2303.000000 0.6391 0.6374 0.6357 0.6341 0.6324
2308.000000 0.6308 0.6286 0.6264 0.6226 0.6189
2313.000000 0.6158 0.6127 0.6107 0.6088 0.6068
2318.000000 0.6049 0.6029 0.6010 0.5992 0.5975
2323.000000 0.5960 0.5946 0.5931 0.5916 0.5901
2328.000000 0.5887 0.5872 0.5858 0.5845 0.5832
2333.000000 0.5821 0.5810 0.5799 0.5789 0.5778
2338.000000 0.5768 0.5757 0.5747 0.5738 0.5729
2343.000000 0.5719 0.5710 0.5700 0.5691 0.5681
2348.000000 0.5672 0.5665 0.5658 0.5651 0.5644
2353.000000 0.5637 0.5630 0.5623 0.5616 0.5609
2358.000000 0.5602 0.5596 0.5590 0.5588 0.5586
2363.000000 0.5584 0.5582 0.5580 0.5578 0.5576
2368.000000 0.5574 0.5572 0.5570 0.5568 0.5566
2373.000000 0.5564 0.5562 0.5560 0.5559 0.5550
2378.000000 0.5542 0.5531 0.5520 0.5509 0.5498
2383.000000 0.5486 0.5475 0.5449 0.5423 0.5397
2388.000000 0.5372 0.5344 0.5317 0.5287 0.5258
2393.000000 0.5228 0.5198 0.5168 0.5139 0.5110
2398.000000 0.5083 0.5057 0.5032 0.5006 0.4981
2403.000000 0.4955 0.4930 0.4904 0.4879 0.4853
2408.000000 0.4828 0.4799 0.4770 0.4734 0.4699
2413.000000 0.4662 0.4628 0.4592 0.4557 0.4522
2418.000000 0.4487 0.4453 0.4419 0.4385 0.4351
2423.000000 0.4317 0.4283 0.4248 0.4214 0.4179
2428.000000 0.4144 0.4107 0.4071 0.4034 0.3998
2433.000000 0.3960 0.3924 0.3886 0.3848 0.3805
2438.000000 0.3762 0.3718 0.3675 0.3625 0.3576
2443.000000 0.3509 0.3445 0.3379 0.3314 0.3246
2448.000000 0.3179 0.3112 0.3045 0.2942 0.2839
2453.000000 0.2731 0.2624 0.2588 0.2552 0.2515
2458.000000 0.2479 0.2443 0.2407 0.2371 0.2334
2463.000000 0.2299 0.2263 0.2200 0.2138 0.2070
2468.000000 0.2002 0.1869 0.1735 0.1726 0.1716
2473.000000 0.1716 0.1716 0.1723 0.1724 0.1746
2478.000000 0.1765 0.1794 0.1826 0.1972 0.2118
2483.000000 0.2291 0.2465 0.2513 0.2561 0.2584
2488.000000 0.2609 0.2623 0.2638 0.2646 0.2654
2493.000000 0.2662 0.2670 0.2677 0.2684 0.2691
2498.000000 0.2697 0.2701 0.2706 0.2710 0.2714
2503.000000 0.2718 0.2722 0.2725 0.2729 0.2733
2508.000000 0.2737 0.2740 0.2743 0.2745 0.2747
2513.000000 0.2752 0.2757 0.2792 0.2828 0.2923
2518.000000 0.3019 0.3047 0.3076 0.3087 0.3098
2523.000000 0.3100 0.3103 0.3103 0.3103 0.3101
2528.000000 0.3099 0.3095 0.3091 0.3084 0.3059
2533.000000 0.3060 0.3040 0.2997 0.2954 0.2933
2538.000000 0.2912 0.2891 0.2871 0.2845 0.2819
2543.000000 0.2772 0.2725 0.2601 0.2477 0.2411
2548.000000 0.2346 0.2305 0.2264 0.2225 0.2185
2553.000000 0.2159 0.2133 0.2108 0.2084 0.2058
2558.000000 0.2032 0.2001 0.1970 0.1935 0.1902
2563.000000 0.1863 0.1825 0.1785 0.1746 0.1695
2568.000000 0.1645 0.1598 0.1551 0.1506 0.1461
2573.000000 0.1406 0.1351 0.1289 0.1227 0.1157
2578.000000 0.1087 0.1028 0.0969 0.0939 0.0911
2583.000000 0.0895 0.0880 0.0870 0.0861 0.0856
2588.000000 0.0852 0.0847 0.0843 0.0841 0.0839
2593.000000 0.0839 0.0839 0.0859 0.0879 0.0899
2598.000000 0.0920 0.0939 0.0961 0.0981 0.1001
2603.000000 0.1021 0.1042 0.1062 0.1082 0.1105
2608.000000 0.1129 0.1154 0.1179 0.1208 0.1238
2613.000000 0.1267 0.1296 0.1324 0.1352 0.1392
2618.000000 0.1434 0.1525 0.1616 0.1734 0.1854
2623.000000 0.1904 0.1954 0.2011 0.2068 0.2135
2628.000000 0.2204 0.2233 0.2263 0.2292 0.2322
2633.000000 0.2347 0.2372 0.2395 0.2419 0.2434
2638.000000 0.2449 0.2459 0.2470 0.2469 0.2468
2643.000000 0.2466 0.2518 0.2461 0.2459 0.2456
2648.000000 0.2454 0.2424 0.2395 0.2343 0.2292
2653.000000 0.2261 0.2231 0.2192 0.2154 0.2100
2658.000000 0.2046 0.2034 0.2021 0.2018 0.2016
2663.000000 0.2015 0.2015 0.2015 0.2016 0.2017
2668.000000 0.2006 0.2021 0.2023 0.2026 0.2029
2673.000000 0.2033 0.2036 0.2040 0.2044 0.2052
2678.000000 0.2060 0.2069 0.2079 0.2093 0.2107
2683.000000 0.2123 0.2140 0.2157 0.2175 0.2195
2688.000000 0.2216 0.2243 0.2271 0.2294 0.2317
2693.000000 0.2339 0.2362 0.2397 0.2433 0.2471
2698.000000 0.2509 0.2595 0.2682 0.2796 0.2910
2703.000000 0.3005 0.3100 0.3253 0.3407 0.3516
2708.000000 0.3626 0.3709 0.3794 0.3866 0.3938
2713.000000 0.3970 0.4002 0.4023 0.4045 0.4059
2718.000000 0.4073 0.4082 0.4093 0.4099 0.4106
2723.000000 0.4105 0.4105 0.4103 0.4102 0.4098
2728.000000 0.4094 0.4090 0.4087 0.4084 0.4084
2733.000000 0.4084 0.4088 0.4095 0.4102 0.4115
2738.000000 0.4128 0.4139 0.4150 0.4159 0.4169
2743.000000 0.4172 0.4191 0.4174 0.4173 0.4164
2748.000000 0.4156 0.4124 0.4093 0.4046 0.4000
2753.000000 0.3953 0.3906 0.3859 0.3812 0.3770
2758.000000 0.3730 0.3728 0.3728 0.3732 0.3738
2763.000000 0.3759 0.3782 0.3805 0.3828 0.3850
2768.000000 0.3872 0.3894 0.3916 0.3939 0.3960
2773.000000 0.3964 0.3984 0.3971 0.3974 0.3899
2778.000000 0.3825 0.3736 0.3648 0.3559 0.3471
2783.000000 0.3418 0.3368 0.3440 0.3414 0.3592
2788.000000 0.3673 0.3714 0.3755 0.3777 0.3799
2793.000000 0.3812 0.3825 0.3837 0.3871 0.3830
2798.000000 0.3814 0.3729 0.3645 0.3559 0.3476
2803.000000 0.3391 0.3307 0.3222 0.3138 0.3053
2808.000000 0.2969 0.2884 0.2800 0.2715 0.2631
2813.000000 0.2546 0.2462 0.2407 0.2363 0.2361
2818.000000 0.2370 0.2462 0.2555 0.2647 0.2740
2823.000000 0.2832 0.2925 0.3017 0.3110 0.3202
2828.000000 0.3295 0.3387 0.3479 0.3571 0.3664
2833.000000 0.3734 0.3804 0.3884 0.3964 0.4059
2838.000000 0.4154 0.4245 0.4336 0.4370 0.4405
2843.000000 0.4422 0.4440 0.4451 0.4462 0.4468
2848.000000 0.4474 0.4474 0.4482 0.4453 0.4433
2853.000000 0.4409 0.4386 0.4360 0.4337 0.4310
2858.000000 0.4286 0.4182 0.4078 0.3832 0.3589
2863.000000 0.3345 0.3101 0.2911 0.2722 0.2699
2868.000000 0.2676 0.2656 0.2635 0.2620 0.2604
2873.000000 0.2598 0.2592 0.2589 0.2583 0.2632
2878.000000 0.2678 0.2742 0.2807 0.2850 0.2893
2883.000000 0.2887 0.2896 0.2877 0.2872 0.2866
2888.000000 0.2861 0.2843 0.2825 0.2807 0.2789
2893.000000 0.2771 0.2753 0.2724 0.2695 0.2651
2898.000000 0.2608 0.2542 0.2477 0.2232 0.1986
2903.000000 0.1856 0.1726 0.1734 0.1718 0.1794
2908.000000 0.1843 0.1892 0.1941 0.1990 0.2040
2913.000000 0.2089 0.2138 0.2152 0.2182 0.2167
2918.000000 0.2167 0.2143 0.2120 0.2079 0.2039
2923.000000 0.1999 0.1959 0.1918 0.1878 0.1836
2928.000000 0.1796 0.1754 0.1711 0.1670 0.1629
2933.000000 0.1586 0.1544 0.1483 0.1423 0.1321
2938.000000 0.1220 0.1075 0.0931 0.0768 0.0606
2943.000000 0.0443 0.0272 0.0279 0.0277 0.0284
2948.000000 0.0291 0.0341 0.0391 0.0487 0.0583
2953.000000 0.0637 0.0692 0.0756 0.0820 0.0864
2958.000000 0.0909 0.0931 0.0953 0.0966 0.0979
2963.000000 0.0992 0.1008 0.1194 0.1380 0.1658
2968.000000 0.1936 0.2215 0.2494 0.2772 0.3051
2973.000000 0.3329 0.3608 0.3925 0.4243 0.4472
2978.000000 0.4702 0.4947 0.5192 0.5371 0.5551
2983.000000 0.5873 0.6195 0.6259 0.6324 0.6376
2988.000000 0.6428 0.6465 0.6501 0.6526 0.6554
2993.000000 0.6578 0.6603 0.6626 0.6651 0.6676
2998.000000 0.6701 0.6718 0.6735 0.6747 0.6758
3003.000000 0.6769 0.6782 0.6792 0.6803 0.6812
3008.000000 0.6822 0.6834 0.6846 0.6858 0.6869
3013.000000 0.6882 0.6895 0.6907 0.6918 0.6928
3018.000000 0.6938 0.6948 0.6958 0.6965 0.6975
3023.000000 0.6982 0.6989 0.6994 0.7000 0.7003
3028.000000 0.7006 0.7008 0.7011 0.7015 0.7018
3033.000000 0.7021 0.7024 0.7025 0.7025 0.7026
3038.000000 0.7028 0.7028 0.7028 0.7030 0.7031
3043.000000 0.7032 0.7033 0.7033 0.7033 0.7034
3048.000000 0.7034 0.7034 0.7034 0.7034 0.7034
3053.000000 0.7034 0.7034 0.7034 0.7034 0.7034
3058.000000 0.7034 0.7034 0.7034 0.7033 0.7033
3063.000000 0.7031 0.7030 0.7028 0.7025 0.7024
3068.000000 0.7022 0.7021 0.7019 0.7018 0.7015
3073.000000 0.7012 0.7011 0.7008 0.7006 0.7003
3078.000000 0.7000 0.6997 0.6995 0.6992 0.6989
3083.000000 0.6986 0.6983 0.6980 0.6978 0.6975
3088.000000 0.6971 0.6968 0.6964 0.6960 0.6956
3093.000000 0.6951 0.6948 0.6944 0.6940 0.6936
3098.000000 0.6932 0.6926 0.6922 0.6918 0.6915
3103.000000 0.6911 0.6907 0.6903 0.6899 0.6895
3108.000000 0.6891 0.6887 0.6883 0.6878 0.6874
3113.000000 0.6868 0.6865 0.6860 0.6856 0.6851
3118.000000 0.6847 0.6842 0.6838 0.6834 0.6830
3123.000000 0.6825 0.6821 0.6815 0.6811 0.6804
3128.000000 0.6798 0.6791 0.6785 0.6778 0.6772
3133.000000 0.6765 0.6760 0.6753 0.6747 0.6740
3138.000000 0.6734 0.6726 0.6721 0.6714 0.6708
3143.000000 0.6701 0.6695 0.6688 0.6682 0.6675
3148.000000 0.6668 0.6661 0.6655 0.6648 0.6641
3153.000000 0.6634 0.6626 0.6619 0.6612 0.6606
3158.000000 0.6599 0.6592 0.6585 0.6578 0.6571
3163.000000 0.6564 0.6557 0.6550 0.6543 0.6536
3168.000000 0.6528 0.6521 0.6515 0.6506 0.6498
3173.000000 0.6488 0.6478 0.6468 0.6460 0.6450
3178.000000 0.6441 0.6431 0.6421 0.6411 0.6403
3183.000000 0.6393 0.6384 0.6374 0.6365 0.6355
3188.000000 0.6346 0.6336 0.6327 0.6317 0.6308
3193.000000 0.6298 0.6289 0.6279 0.6270 0.6259
3198.000000 0.6248 0.6236 0.6224 0.6212 0.6200
3203.000000 0.6188 0.6176 0.6162 0.6151 0.6139
3208.000000 0.6127 0.6115 0.6103 0.6091 0.6079
3213.000000 0.6067 0.6055 0.6042 0.6030 0.6018
3218.000000 0.6006 0.5992 0.5979 0.5964 0.5949
3223.000000 0.5934 0.5919 0.5904 0.5889 0.5874
3228.000000 0.5859 0.5843 0.5828 0.5812 0.5798
3233.000000 0.5783 0.5768 0.5753 0.5738 0.5723
3238.000000 0.5709 0.5694 0.5679 0.5664 0.5650
3243.000000 0.5635 0.5620 0.5605 0.5591 0.5576
3248.000000 0.5562 0.5547 0.5532 0.5517 0.5503
3253.000000 0.5488 0.5473 0.5458 0.5444 0.5429
3258.000000 0.5415 0.5400 0.5385 0.5370 0.5356
3263.000000 0.5341 0.5327 0.5312 0.5297 0.5282
3268.000000 0.5268 0.5253 0.5239 0.5224 0.5209
3273.000000 0.5194 0.5180 0.5164 0.5148 0.5126
3278.000000 0.5104 0.5082 0.5060 0.5039 0.5018
3283.000000 0.4996 0.4975 0.4953 0.4931 0.4909
3288.000000 0.4888 0.4866 0.4845 0.4823 0.4801
3293.000000 0.4779 0.4757 0.4735 0.4712 0.4691
3298.000000 0.4670 0.4648 0.4626 0.4604 0.4582
3303.000000 0.4560 0.4538 0.4516 0.4495 0.4473
3308.000000 0.4451 0.4428 0.4406 0.4378 0.4351
3313.000000 0.4323 0.4296 0.4268 0.4241 0.4212
3318.000000 0.4186 0.4158 0.4131 0.4099 0.4068
3323.000000 0.4026 0.3984 0.3944 0.3903 0.3860
3328.000000 0.3820 0.3790 0.3760 0.3732 0.3706
3333.000000 0.3678 0.3650 0.3623 0.3596 0.3568
3338.000000 0.3541 0.3512 0.3486 0.3458 0.3430
3343.000000 0.3397 0.3364 0.3323 0.3282 0.3242
3348.000000 0.3202 0.3161 0.3121 0.3068 0.3016
3353.000000 0.2926 0.2835 0.2768 0.2700 0.2643
3358.000000 0.2585 0.2532 0.2478 0.2431 0.2384
3363.000000 0.2369 0.2354 0.2339 0.2324 0.2320
3368.000000 0.2316 0.2314 0.2312 0.2311 0.2311
3373.000000 0.2311 0.2311 0.2312 0.2313 0.2315
3378.000000 0.2317 0.2322 0.2327 0.2340 0.2354
3383.000000 0.2373 0.2393 0.2414 0.2434 0.2457
3388.000000 0.2479 0.2507 0.2535 0.2566 0.2596
3393.000000 0.2634 0.2674 0.2694 0.2715 0.2733
3398.000000 0.2751 0.2768 0.2785 0.2804 0.2822
3403.000000 0.2839 0.2857 0.2872 0.2888 0.2904
3408.000000 0.2920 0.2934 0.2951 0.2964 0.2978
3413.000000 0.2991 0.3005 0.3018 0.3031 0.3044
3418.000000 0.3058 0.3071 0.3084 0.3097 0.3110
3423.000000 0.3120 0.3131 0.3141 0.3152 0.3162
3428.000000 0.3173 0.3183 0.3193 0.3203 0.3212
3433.000000 0.3223 0.3232 0.3243 0.3253 0.3262
3438.000000 0.3273 0.3282 0.3293 0.3303 0.3312
3443.000000 0.3323 0.3334 0.3344 0.3355 0.3364
3448.000000 0.3376 0.3386 0.3397 0.3407 0.3418
3453.000000 0.3428 0.3439 0.3448 0.3458 0.3468
3458.000000 0.3478 0.3487 0.3497 0.3507 0.3516
3463.000000 0.3526 0.3536 0.3545 0.3555 0.3564
3468.000000 0.3575 0.3584 0.3594 0.3604 0.3614
3473.000000 0.3625 0.3634 0.3645 0.3656 0.3666
3478.000000 0.3676 0.3691 0.3706 0.3724 0.3742
3483.000000 0.3759 0.3778 0.3806 0.3834 0.3862
3488.000000 0.3892 0.3936 0.3980 0.4028 0.4076
3493.000000 0.4125 0.4175 0.4224 0.4274 0.4324
3498.000000 0.4374 0.4424 0.4474 0.4531 0.4589
3503.000000 0.4655 0.4721 0.4769 0.4818 0.4854
3508.000000 0.4890 0.4926 0.4962 0.4999 0.5035
3513.000000 0.5072 0.5110 0.5147 0.5185 0.5222
3518.000000 0.5260 0.5297 0.5334 0.5371 0.5408
3523.000000 0.5445 0.5482 0.5518 0.5555 0.5578
3528.000000 0.5602 0.5625 0.5649 0.5672 0.5696
3533.000000 0.5714 0.5733 0.5748 0.5762 0.5777
3538.000000 0.5792 0.5807 0.5822 0.5832 0.5842
3543.000000 0.5849 0.5856 0.5862 0.5870 0.5877
3548.000000 0.5884 0.5891 0.5898 0.5905 0.5912
3553.000000 0.5918 0.5925 0.5931 0.5938 0.5941
3558.000000 0.5945 0.5948 0.5951 0.5954 0.5958
3563.000000 0.5960 0.5965 0.5968 0.5972 0.5975
3568.000000 0.5979 0.5982 0.5985 0.5988 0.5992
3573.000000 0.5995 0.5999 0.6002 0.6006 0.6008
3578.000000 0.6010 0.6012 0.6015 0.6016 0.6018
3583.000000 0.6019 0.6021 0.6023 0.6025 0.6026
3588.000000 0.6028 0.6030 0.6032 0.6033 0.6035
3593.000000 0.6036 0.6038 0.6039 0.6040 0.6041
3598.000000 0.6042 0.6042 0.6043 0.6043 0.6044
3603.000000 0.6045 0.6046 0.6046 0.6047 0.6048
3608.000000 0.6049 0.6049 0.6049 0.6049 0.6049
3613.000000 0.6048 0.6047 0.6046 0.6045 0.6044
3618.000000 0.6044 0.6043 0.6042 0.6041 0.6040
3623.000000 0.6039 0.6038 0.6037 0.6037 0.6036
3628.000000 0.6035 0.6034 0.6033 0.6032 0.6031
3633.000000 0.6030 0.6029 0.6027 0.6026 0.6023
3638.000000 0.6021 0.6018 0.6016 0.6012 0.6010
3643.000000 0.6008 0.6005 0.6002 0.6000 0.5997
3648.000000 0.5995 0.5992 0.5989 0.5986 0.5984
3653.000000 0.5981 0.5979 0.5976 0.5973 0.5969
3658.000000 0.5966 0.5962 0.5959 0.5956 0.5953
3663.000000 0.5949 0.5946 0.5942 0.5939 0.5935
3668.000000 0.5932 0.5929 0.5926 0.5922 0.5919
3673.000000 0.5916 0.5912 0.5910 0.5907 0.5904
3678.000000 0.5901 0.5898 0.5895 0.5892 0.5889
3683.000000 0.5886 0.5884 0.5881 0.5878 0.5875
3688.000000 0.5872 0.5869 0.5866 0.5862 0.5860
3693.000000 0.5857 0.5855 0.5852 0.5849 0.5846
3698.000000 0.5843 0.5840 0.5837 0.5834 0.5831
3703.000000 0.5828 0.5826 0.5823 0.5820 0.5817
3708.000000 0.5815 0.5812 0.5809 0.5806 0.5804
3713.000000 0.5801 0.5798 0.5795 0.5793 0.5790
3718.000000 0.5787 0.5784 0.5782 0.5779 0.5776
3723.000000 0.5773 0.5771 0.5768 0.5766 0.5762
3728.000000 0.5760 0.5757 0.5755 0.5752 0.5750
3733.000000 0.5747 0.5744 0.5741 0.5739 0.5736
3738.000000 0.5734 0.5731 0.5729 0.5726 0.5724
3743.000000 0.5721 0.5719 0.5716 0.5712 0.5710
3748.000000 0.5708 0.5705 0.5703 0.5700 0.5698
3753.000000 0.5695 0.5693 0.5690 0.5687 0.5684
3758.000000 0.5681 0.5678 0.5675 0.5672 0.5669
3763.000000 0.5666 0.5662 0.5660 0.5657 0.5654
3768.000000 0.5651 0.5648 0.5645 0.5642 0.5639
3773.000000 0.5636 0.5633 0.5630 0.5628 0.5626
3778.000000 0.5624 0.5622 0.5620 0.5618 0.5616
3783.000000 0.5614 0.5612 0.5610 0.5608 0.5606
3788.000000 0.5604 0.5602 0.5600 0.5598 0.5596
3793.000000 0.5594 0.5592 0.5590 0.5588 0.5586
3798.000000 0.5584 0.5583 0.5583
##END=
