##TITLE=8-QUINOLINOL SULFATE
$$ E.K. (W.L.)
##JCAMP-DX=4.24
##DATA TYPE=INFRARED SPECTRUM
##CLASS=COBLENTZ
##ORIGIN=WYANDOTTE CHEMICALS CORP., WYANDOTTE, MICHIGAN, USA
##OWNER=COBLENTZ SOCIETY
Collection (C) 2018 copyright by the U.S. Secretary of Commerce
on behalf of the United States of America. All rights reserved.
##DATE=Not specified, most likely prior to 1970
##MOLFORM=C18 H16 N2 O6 S
##SOURCE REFERENCE=COBLENTZ NO. 1455
##$NIST ID=B6001455
##$NIST SOURCE=COBLENTZ
##$NIST IMAGE=cob1455
##SPECTROMETER/DATA SYSTEM=Not specified, most likely a prism, grating, or hybrid spectrometer.
##STATE=SOLID (MINERAL OIL MULL)
##PATH LENGTH=
$$SPECTRAL CONTAMINATION DUE TO OIL AROUND 2900 CM^-^1
##SAMPLING PROCEDURE=TRANSMISSION
##RESOLUTION=4
##DATA PROCESSING=DIGITIZED BY NIST FROM HARD COPY
##XUNITS=MICROMETERS
##YUNITS=TRANSMITTANCE
##XFACTOR=1.000000
##YFACTOR=1
##DELTAX=000.006816
##FIRSTX=2.02
##LASTX=15.9998
##FIRSTY=0.417
##MAXX=15.9998
##MINX=2.02
##MAXY=0.926
##MINY=0.017
##NPOINTS=2052
##XYDATA=(X++(Y..Y))
2.020000 0.4170 0.4170 0.4170 0.4150 0.4150
2.054096 0.4150 0.4130 0.4130 0.4130 0.4130
2.089000 0.4150 0.4200 0.4220 0.4250 0.4250
2.123096 0.4240 0.4240 0.4220 0.4220 0.4200
2.157000 0.4200 0.4190 0.4190 0.4190 0.4190
2.191096 0.4190 0.4190 0.4200 0.4220 0.4250
2.225000 0.4270 0.4290 0.4270 0.4270 0.4250
2.259096 0.4220 0.4170 0.4220 0.4240 0.4290
2.293000 0.4320 0.4370 0.4420 0.4420 0.4480
2.327096 0.4580 0.4630 0.4700 0.4700 0.4680
2.361000 0.4680 0.4680 0.4630 0.4630 0.4680
2.395096 0.4680 0.4710 0.4730 0.4750 0.4770
2.429000 0.4800 0.4850 0.4900 0.4970 0.4970
2.463096 0.4970 0.4970 0.4970 0.4970 0.4920
2.498000 0.4920 0.4970 0.5000 0.5020 0.5020
2.532096 0.5040 0.5110 0.5140 0.5170 0.5210
2.566000 0.5260 0.5290 0.5340 0.5360 0.5410
2.600096 0.5410 0.5380 0.5290 0.5290 0.5360
2.634000 0.5380 0.5460 0.5530 0.5650 0.5700
2.668096 0.5700 0.5740 0.5680 0.5680 0.5620
2.702000 0.5680 0.5680 0.5740 0.5770 0.5770
2.736096 0.5790 0.5790 0.5790 0.5790 0.5750
2.770000 0.5740 0.5720 0.5700 0.5650 0.5630
2.804096 0.5620 0.5570 0.5530 0.5480 0.5280
2.838000 0.5260 0.5240 0.5240 0.5220 0.5160
2.872096 0.5020 0.4970 0.4870 0.4820 0.4800
2.907000 0.4770 0.4710 0.4700 0.4630 0.4480
2.941096 0.4410 0.4340 0.4270 0.4220 0.4150
2.975000 0.4100 0.4020 0.3910 0.3790 0.3670
3.009096 0.3570 0.3490 0.3320 0.3180 0.3080
3.043000 0.3060 0.3030 0.2980 0.3030 0.3060
3.077096 0.3130 0.3230 0.3320 0.3400 0.3520
3.111000 0.3560 0.3540 0.3520 0.3540 0.3560
3.145096 0.3640 0.3690 0.3660 0.3590 0.3560
3.179000 0.3540 0.3620 0.3620 0.3540 0.3490
3.213096 0.3200 0.2990 0.2870 0.2720 0.2690
3.247000 0.2580 0.2430 0.2350 0.2350 0.2380
3.281096 0.2410 0.2450 0.2450 0.2230 0.1990
3.315000 0.1890 0.1750 0.1490 0.1270 0.1090
3.349096 0.0800 0.0510 0.0340 0.0280 0.0340
3.384000 0.0340 0.0320 0.0300 0.0270 0.0230
3.418096 0.0220 0.0200 0.0180 0.0170 0.0170
3.452000 0.0180 0.0200 0.0250 0.0390 0.0350
3.486096 0.0300 0.0300 0.0320 0.0320 0.0340
3.520000 0.0350 0.0370 0.0510 0.0640 0.0900
3.554096 0.1510 0.1820 0.2090 0.2230 0.2330
3.588000 0.2380 0.2400 0.2480 0.2530 0.2600
3.622096 0.2690 0.2720 0.2770 0.2770 0.2720
3.656000 0.2720 0.2720 0.2700 0.2700 0.2650
3.690096 0.2600 0.2570 0.2520 0.2570 0.2550
3.724000 0.2530 0.2530 0.2520 0.2500 0.2400
3.758096 0.2480 0.2480 0.2550 0.2550 0.2530
3.793000 0.2530 0.2530 0.2550 0.2530 0.2500
3.827096 0.2500 0.2520 0.2520 0.2530 0.2550
3.861000 0.2570 0.2580 0.2600 0.2600 0.2620
3.895096 0.2640 0.2650 0.2700 0.2750 0.2770
3.929000 0.2770 0.2790 0.2790 0.2810 0.2820
3.963096 0.2820 0.2860 0.2870 0.2910 0.2870
3.997000 0.2860 0.2840 0.2840 0.2810 0.2810
4.031096 0.2860 0.2890 0.2910 0.2910 0.2930
4.065000 0.2960 0.2980 0.2940 0.2910 0.2910
4.099096 0.2890 0.2870 0.2890 0.2930 0.2960
4.133000 0.2980 0.2990 0.3010 0.3030 0.3080
4.167096 0.3110 0.3130 0.3160 0.3160 0.3160
4.202000 0.3160 0.3180 0.3160 0.3160 0.3160
4.236096 0.3150 0.3130 0.3080 0.3060 0.3040
4.270000 0.3080 0.3110 0.3230 0.3350 0.3500
4.304096 0.3590 0.3640 0.3670 0.3730 0.3730
4.338000 0.3730 0.3730 0.3730 0.3740 0.3790
4.372096 0.3860 0.3960 0.4070 0.4100 0.4150
4.406000 0.4150 0.4130 0.4150 0.4150 0.4150
4.440096 0.4150 0.4150 0.4080 0.4080 0.4130
4.474000 0.4150 0.4240 0.4290 0.4320 0.4320
4.508096 0.4270 0.4270 0.4320 0.4370 0.4480
4.542000 0.4510 0.4530 0.4540 0.4580 0.4580
4.576096 0.4590 0.4590 0.4590 0.4610 0.4630
4.611000 0.4630 0.4650 0.4650 0.4660 0.4660
4.645096 0.4680 0.4710 0.4750 0.4770 0.4800
4.679000 0.4850 0.4880 0.4900 0.4900 0.4900
4.713096 0.4940 0.4970 0.5000 0.5020 0.5020
4.747000 0.5040 0.5020 0.5020 0.4970 0.4900
4.781096 0.4880 0.4830 0.4830 0.4800 0.4780
4.815000 0.4800 0.4820 0.4850 0.4850 0.4850
4.849096 0.4850 0.4870 0.4880 0.4970 0.5000
4.883000 0.5020 0.5050 0.5110 0.5120 0.5140
4.917096 0.5160 0.5170 0.5260 0.5400 0.5400
4.951000 0.5340 0.5290 0.5290 0.5340 0.5340
4.985096 0.5380 0.5380 0.5410 0.5480 0.5530
5.019000 0.5620 0.5670 0.5680 0.5680 0.5740
5.053096 0.5740 0.5670 0.5620 0.5620 0.5630
5.088000 0.5630 0.5650 0.5670 0.5680 0.5700
5.122096 0.5700 0.5720 0.5770 0.5790 0.5800
5.156000 0.5840 0.5890 0.5970 0.5990 0.6010
5.190096 0.6040 0.6090 0.6140 0.6160 0.6180
5.224000 0.6180 0.6210 0.6280 0.6330 0.6400
5.258096 0.6420 0.6430 0.6470 0.6470 0.6490
5.292000 0.6490 0.6500 0.6590 0.6620 0.6640
5.326096 0.6640 0.6590 0.6540 0.6470 0.6420
5.360000 0.6420 0.6400 0.6380 0.6370 0.6450
5.394096 0.6550 0.6550 0.6570 0.6600 0.6600
5.428000 0.6640 0.6690 0.6720 0.6720 0.6720
5.462096 0.6780 0.6880 0.6980 0.6980 0.6760
5.497000 0.6760 0.6890 0.7050 0.7100 0.7000
5.531096 0.7000 0.6830 0.6890 0.7000 0.7080
5.565000 0.7080 0.7000 0.7000 0.7060 0.7060
5.599096 0.7120 0.7180 0.7180 0.7170 0.7150
5.633000 0.7130 0.7100 0.7000 0.6980 0.6960
5.667096 0.7130 0.7130 0.7030 0.7010 0.6950
5.701000 0.6950 0.6950 0.6810 0.6910 0.7050
5.735096 0.7080 0.7100 0.7100 0.7100 0.7170
5.769000 0.7460 0.7710 0.7680 0.7680 0.7290
5.803096 0.7290 0.7410 0.7410 0.7700 0.7700
5.837000 0.7390 0.7490 0.7580 0.7610 0.7680
5.871096 0.7800 0.7980 0.8220 0.8390 0.8440
5.906000 0.8440 0.8070 0.8240 0.8440 0.8480
5.940096 0.8730 0.8750 0.8800 0.8700 0.8790
5.974000 0.8850 0.9180 0.9210 0.9230 0.9250
6.008096 0.9140 0.8940 0.8900 0.8990 0.8990
6.042000 0.9210 0.9260 0.9080 0.8680 0.8000
6.076096 0.7170 0.6780 0.6380 0.5990 0.5960
6.110000 0.5990 0.6370 0.6670 0.7050 0.7460
6.144096 0.8100 0.8140 0.8140 0.6590 0.6080
6.178000 0.5530 0.4660 0.3780 0.2890 0.2020
6.212096 0.1610 0.1610 0.2010 0.2020 0.2190
6.246000 0.2580 0.3280 0.3810 0.4480 0.5020
6.280096 0.5500 0.6040 0.6470 0.7100 0.7100
6.315000 0.6490 0.5600 0.4710 0.3610 0.2890
6.349096 0.2400 0.2110 0.1940 0.1770 0.1660
6.383000 0.1610 0.1600 0.1630 0.1800 0.2040
6.417096 0.2520 0.2840 0.2990 0.3110 0.3470
6.451000 0.3610 0.4120 0.4710 0.4970 0.4990
6.485096 0.5050 0.5110 0.5240 0.5330 0.5380
6.519000 0.5380 0.5380 0.5400 0.5330 0.5280
6.553096 0.5140 0.5090 0.4990 0.4900 0.4870
6.587000 0.4820 0.4950 0.5040 0.5260 0.5360
6.621096 0.5380 0.5400 0.5410 0.5550 0.5860
6.655000 0.5940 0.5960 0.5970 0.5970 0.6160
6.689096 0.6160 0.5970 0.5570 0.5160 0.4680
6.723000 0.4190 0.3490 0.3100 0.2690 0.2400
6.757096 0.1990 0.1510 0.1200 0.1020 0.0930
6.792000 0.0930 0.0950 0.0970 0.1020 0.1100
6.826096 0.1190 0.1290 0.1510 0.1660 0.1770
6.860000 0.2010 0.2180 0.2480 0.2670 0.2980
6.894096 0.3180 0.3540 0.3780 0.3980 0.4220
6.928000 0.4580 0.5110 0.5580 0.5890 0.5890
6.962096 0.5570 0.4800 0.4290 0.3590 0.3560
6.996000 0.3590 0.3740 0.3850 0.4000 0.4120
7.030096 0.4120 0.3810 0.3490 0.3230 0.3080
7.064000 0.2980 0.2940 0.2890 0.2820 0.2810
7.098096 0.2790 0.2820 0.2840 0.2870 0.2870
7.132000 0.2870 0.2980 0.3060 0.3180 0.3500
7.166096 0.3500 0.3400 0.3270 0.3030 0.2840
7.201000 0.2210 0.1970 0.1720 0.1510 0.1480
7.235096 0.1460 0.1430 0.1430 0.1680 0.2140
7.269000 0.2700 0.3270 0.3640 0.3880 0.4190
7.303096 0.4360 0.4540 0.4730 0.5140 0.5480
7.337000 0.5840 0.5840 0.5750 0.5700 0.5650
7.371096 0.5550 0.5460 0.5380 0.5330 0.5210
7.405000 0.5160 0.5040 0.4950 0.4870 0.4830
7.439096 0.4770 0.4700 0.4580 0.4270 0.3980
7.473000 0.3780 0.3330 0.2960 0.2690 0.2470
7.507096 0.2210 0.1950 0.1850 0.1750 0.1720
7.541000 0.1720 0.1730 0.1850 0.2060 0.2290
7.575096 0.2580 0.2870 0.3030 0.3080 0.3010
7.610000 0.2960 0.2670 0.2350 0.1970 0.1770
7.644096 0.1610 0.1580 0.1610 0.1940 0.2090
7.678000 0.2280 0.2650 0.3010 0.3370 0.3730
7.712096 0.4000 0.4240 0.4370 0.4560 0.4700
7.746000 0.4780 0.4880 0.5000 0.5120 0.5160
7.780096 0.5190 0.5190 0.5120 0.4710 0.4710
7.814000 0.4900 0.5090 0.5110 0.5170 0.5290
7.848096 0.5530 0.5750 0.5960 0.6060 0.6140
7.882000 0.6180 0.6250 0.6490 0.6660 0.6710
7.916096 0.6830 0.6960 0.7030 0.7120 0.7170
7.950000 0.7220 0.7300 0.7340 0.7350 0.7390
7.984096 0.7460 0.7460 0.7490 0.7520 0.7560
8.019000 0.7590 0.7630 0.7630 0.7680 0.7680
8.053096 0.7580 0.7460 0.7150 0.6740 0.6140
8.087000 0.5650 0.5400 0.4770 0.4770 0.5400
8.121096 0.5700 0.6250 0.6550 0.6810 0.7050
8.155000 0.7120 0.7050 0.7010 0.6980 0.6930
8.189096 0.6740 0.6550 0.6500 0.6500 0.6500
8.223000 0.6550 0.6570 0.6720 0.6960 0.7150
8.257096 0.7300 0.7520 0.7660 0.7760 0.7830
8.291000 0.7880 0.7950 0.7970 0.8000 0.8040
8.325096 0.8040 0.8090 0.8090 0.8100 0.8100
8.359000 0.8090 0.8070 0.8000 0.7970 0.7930
8.393096 0.7900 0.7800 0.7640 0.7590 0.7470
8.427000 0.7410 0.7350 0.7390 0.7440 0.7390
8.461096 0.7180 0.6890 0.6760 0.6600 0.6500
8.496000 0.6640 0.6760 0.6780 0.6960 0.7000
8.530096 0.7050 0.7010 0.6960 0.6960 0.6860
8.564000 0.6670 0.6500 0.6470 0.6430 0.6200
8.598096 0.5920 0.5650 0.5460 0.5260 0.4990
8.632000 0.4560 0.4310 0.3980 0.3730 0.3610
8.666096 0.3450 0.3370 0.3370 0.3500 0.3660
8.700000 0.3710 0.3660 0.3590 0.3350 0.3150
8.734096 0.2770 0.2480 0.2090 0.1870 0.1750
8.768000 0.1560 0.1410 0.1360 0.1340 0.1260
8.802096 0.1200 0.1200 0.1140 0.1120 0.1120
8.836000 0.1120 0.1140 0.1150 0.1150 0.1190
8.870096 0.1240 0.1290 0.1480 0.1550 0.1630
8.905000 0.1660 0.1800 0.1970 0.1990 0.1990
8.939096 0.1970 0.1970 0.1970 0.1870 0.1680
8.973000 0.1530 0.1430 0.1270 0.1070 0.0900
9.007096 0.0780 0.0710 0.0660 0.0640 0.0680
9.041000 0.0710 0.0800 0.0950 0.1120 0.1170
9.075096 0.1260 0.1340 0.1290 0.1240 0.1190
9.109000 0.1120 0.1120 0.1100 0.1090 0.1120
9.143096 0.1120 0.1140 0.1190 0.1200 0.1240
9.177000 0.1260 0.1340 0.1370 0.1410 0.1460
9.211096 0.1550 0.1680 0.1820 0.1940 0.1950
9.245000 0.1990 0.2070 0.2120 0.2160 0.2240
9.279096 0.2350 0.2350 0.2230 0.2180 0.2090
9.314000 0.1970 0.1780 0.1580 0.1460 0.1320
9.348096 0.1320 0.1410 0.1490 0.1630 0.1680
9.382000 0.1720 0.1950 0.1940 0.1890 0.1800
9.416096 0.1660 0.1460 0.1240 0.1200 0.1170
9.450000 0.1090 0.0950 0.0800 0.0730 0.0710
9.484096 0.0690 0.0630 0.0630 0.0660 0.0710
9.518000 0.0740 0.0780 0.0780 0.0760 0.0760
9.552096 0.0780 0.0780 0.0690 0.0680 0.0680
9.586000 0.0590 0.0590 0.0680 0.0760 0.0810
9.620096 0.0860 0.0930 0.0970 0.1090 0.1150
9.654000 0.1140 0.1090 0.0970 0.0900 0.0860
9.688096 0.0850 0.0800 0.0760 0.0740 0.0730
9.722000 0.0730 0.0710 0.0710 0.0710 0.0730
9.756096 0.0730 0.0740 0.0740 0.0740 0.0760
9.791000 0.0780 0.0810 0.0850 0.0900 0.0930
9.825096 0.0950 0.0950 0.0970 0.0980 0.1000
9.859000 0.1000 0.1050 0.1100 0.1150 0.1150
9.893096 0.1150 0.1170 0.1200 0.1270 0.1340
9.927000 0.1390 0.1460 0.1490 0.1560 0.1650
9.961096 0.1770 0.1970 0.2010 0.2020 0.2070
9.995000 0.2110 0.2160 0.2190 0.2430 0.2530
10.029096 0.2600 0.2650 0.2690 0.2750 0.2720
10.063000 0.2700 0.2640 0.2690 0.2700 0.2720
10.097096 0.2860 0.2980 0.3110 0.3160 0.3270
10.131000 0.3330 0.3390 0.3400 0.3450 0.3450
10.165096 0.3450 0.3390 0.3300 0.3280 0.3210
10.200000 0.3160 0.3110 0.3100 0.3080 0.3080
10.234096 0.3040 0.3010 0.2980 0.2790 0.2670
10.268000 0.2500 0.2360 0.2180 0.1780 0.1580
10.302096 0.1530 0.1510 0.1490 0.1490 0.1510
10.336000 0.1610 0.1750 0.1870 0.2010 0.2090
10.370096 0.2180 0.2310 0.2480 0.2670 0.2750
10.404000 0.2890 0.2990 0.3160 0.3370 0.3450
10.438096 0.3520 0.3640 0.3660 0.3740 0.3850
10.472000 0.4000 0.4070 0.4100 0.4130 0.4310
10.506096 0.4360 0.4370 0.4410 0.4480 0.4530
10.540000 0.4560 0.4580 0.4590 0.4610 0.4610
10.574096 0.4610 0.4630 0.4630 0.4590 0.4590
10.609000 0.4540 0.4480 0.4410 0.4390 0.4370
10.643096 0.4360 0.4310 0.4190 0.4130 0.4120
10.677000 0.4050 0.3860 0.3810 0.3790 0.3760
10.711096 0.3710 0.3710 0.3730 0.3740 0.3760
10.745000 0.3760 0.3780 0.3830 0.3950 0.4080
10.779096 0.4100 0.4190 0.4290 0.4370 0.4410
10.813000 0.4420 0.4440 0.4480 0.4490 0.4580
10.847096 0.4680 0.4700 0.4770 0.4820 0.4870
10.881000 0.4940 0.4950 0.4970 0.4970 0.4990
10.915096 0.5020 0.5110 0.5190 0.5240 0.5240
10.949000 0.5340 0.5450 0.5500 0.5570 0.5600
10.983096 0.5630 0.5650 0.5670 0.5740 0.5800
11.018000 0.5870 0.5870 0.5890 0.5920 0.5920
11.052096 0.5940 0.5970 0.5970 0.5990 0.6010
11.086000 0.6010 0.6030 0.6060 0.6090 0.6130
11.120096 0.6140 0.6140 0.6140 0.6140 0.6130
11.154000 0.6130 0.6130 0.6110 0.6080 0.6080
11.188096 0.6060 0.6060 0.6080 0.6090 0.6130
11.222000 0.6160 0.6230 0.6300 0.6320 0.6330
11.256096 0.6320 0.6130 0.5970 0.5770 0.5670
11.290000 0.5480 0.5140 0.4800 0.4540 0.4270
11.324096 0.4070 0.3640 0.3520 0.3250 0.3040
11.358000 0.2750 0.2640 0.2450 0.2240 0.2140
11.392096 0.2020 0.1870 0.1780 0.1750 0.1730
11.426000 0.1750 0.1820 0.1850 0.1900 0.1990
11.460096 0.2070 0.2180 0.2230 0.2350 0.2480
11.495000 0.2580 0.2750 0.2980 0.3080 0.3160
11.529096 0.3210 0.3280 0.3400 0.3500 0.3560
11.563000 0.3620 0.3640 0.3740 0.3790 0.3850
11.597096 0.3810 0.3760 0.3670 0.3570 0.3520
11.631000 0.3490 0.3470 0.3440 0.3420 0.3390
11.665096 0.3400 0.3420 0.3450 0.3470 0.3490
11.699000 0.3540 0.3640 0.3740 0.3880 0.3980
11.733096 0.4130 0.4250 0.4480 0.4530 0.4610
11.767000 0.4680 0.4870 0.4950 0.4990 0.5070
11.801096 0.5220 0.5310 0.5400 0.5460 0.5570
11.835000 0.5600 0.5650 0.5740 0.5840 0.5890
11.869096 0.5910 0.5960 0.5990 0.6090 0.6110
11.904000 0.6110 0.6110 0.6130 0.6140 0.6180
11.938096 0.6280 0.6280 0.6210 0.6180 0.6160
11.972000 0.6140 0.6090 0.6080 0.5970 0.5870
12.006096 0.5770 0.5720 0.5550 0.5400 0.5210
12.040000 0.5070 0.4710 0.4560 0.4360 0.4240
12.074096 0.3760 0.3540 0.3250 0.2860 0.2550
12.108000 0.2280 0.2190 0.1970 0.1800 0.1780
12.142096 0.1730 0.1650 0.1510 0.1460 0.1290
12.176000 0.1220 0.1090 0.0950 0.0780 0.0740
12.210096 0.0680 0.0640 0.0640 0.0680 0.0710
12.244000 0.0810 0.0970 0.1170 0.1390 0.1600
12.278096 0.1750 0.2010 0.2450 0.2550 0.2750
12.313000 0.2890 0.3110 0.3470 0.3640 0.3760
12.347096 0.3960 0.4100 0.4220 0.4310 0.4540
12.381000 0.4700 0.4800 0.4870 0.4920 0.4950
12.415096 0.5040 0.5160 0.5280 0.5280 0.5070
12.449000 0.4780 0.4540 0.4360 0.4080 0.3850
12.483096 0.3660 0.3450 0.3450 0.3490 0.3640
12.517000 0.3780 0.4070 0.4440 0.4650 0.4750
12.551096 0.4850 0.5020 0.5170 0.5280 0.5340
12.585000 0.5380 0.5460 0.5550 0.5770 0.5840
12.619096 0.5870 0.5940 0.6030 0.6080 0.6090
12.653000 0.6180 0.6260 0.6300 0.6330 0.6430
12.687096 0.6490 0.6490 0.6500 0.6590 0.6670
12.722000 0.6710 0.6790 0.6790 0.6760 0.6740
12.756096 0.6670 0.6640 0.6620 0.6520 0.6420
12.790000 0.6380 0.6380 0.6320 0.6160 0.6060
12.824096 0.6010 0.5940 0.5770 0.5680 0.5580
12.858000 0.5550 0.5480 0.5430 0.5240 0.5160
12.892096 0.5020 0.4820 0.4540 0.4290 0.4000
12.926000 0.3780 0.3710 0.3610 0.3660 0.3760
12.960096 0.3780 0.3960 0.4270 0.4560 0.4680
12.994000 0.4850 0.4970 0.5120 0.5240 0.5310
13.028096 0.5400 0.5450 0.5480 0.5480 0.5430
13.062000 0.5240 0.5160 0.4940 0.4660 0.4540
13.096096 0.4390 0.4290 0.4220 0.4200 0.4200
13.130000 0.4190 0.4170 0.4130 0.4070 0.3980
13.164096 0.3950 0.3690 0.3450 0.3130 0.3040
13.199000 0.2770 0.2430 0.2260 0.2180 0.2140
13.233096 0.2160 0.2210 0.2290 0.2470 0.2670
13.267000 0.2890 0.3270 0.3450 0.3660 0.3950
13.301096 0.4170 0.4460 0.4590 0.4780 0.4950
13.335000 0.5090 0.5240 0.5400 0.5450 0.5550
13.369096 0.5650 0.5700 0.5820 0.5940 0.6040
13.403000 0.6060 0.6130 0.6200 0.6260 0.6280
13.437096 0.6300 0.6450 0.6490 0.6500 0.6520
13.471000 0.6520 0.6540 0.6550 0.6570 0.6570
13.505096 0.6590 0.6600 0.6640 0.6660 0.6670
13.539000 0.6710 0.6740 0.6760 0.6740 0.6720
13.573096 0.6740 0.6760 0.6780 0.6810 0.6810
13.608000 0.6810 0.6830 0.6830 0.6840 0.6840
13.642096 0.6860 0.6880 0.6890 0.6890 0.6910
13.676000 0.6910 0.6930 0.6930 0.6950 0.6950
13.710096 0.6960 0.6960 0.6960 0.6950 0.6950
13.744000 0.6950 0.6950 0.6930 0.6930 0.6930
13.778096 0.6930 0.6910 0.6930 0.6910 0.6910
13.812000 0.6910 0.6890 0.6880 0.6860 0.6840
13.846096 0.6840 0.6840 0.6860 0.6880 0.6880
13.880000 0.6880 0.6890 0.6910 0.6930 0.7000
13.914096 0.7060 0.7060 0.7060 0.7080 0.7100
13.948000 0.7120 0.7130 0.7120 0.7010 0.6880
13.982096 0.6740 0.6590 0.6380 0.6200 0.5960
14.017000 0.5740 0.5480 0.5220 0.4970 0.4800
14.051096 0.4590 0.4460 0.4310 0.4290 0.4270
14.085000 0.4250 0.4200 0.4220 0.4250 0.4320
14.119096 0.4390 0.4460 0.4660 0.4820 0.4970
14.153000 0.5110 0.5160 0.5290 0.5530 0.5750
14.187096 0.5890 0.5960 0.6060 0.6160 0.6330
14.221000 0.6430 0.6500 0.6500 0.6600 0.6660
14.255096 0.6710 0.6780 0.6840 0.6930 0.6950
14.289000 0.6960 0.6980 0.7030 0.7050 0.7080
14.323096 0.7120 0.7200 0.7240 0.7250 0.7250
14.357000 0.7270 0.7300 0.7370 0.7370 0.7370
14.391096 0.7390 0.7390 0.7440 0.7460 0.7490
14.426000 0.7510 0.7510 0.7560 0.7590 0.7630
14.460096 0.7630 0.7630 0.7630 0.7610 0.7610
14.494000 0.7630 0.7630 0.7660 0.7680 0.7700
14.528096 0.7700 0.7700 0.7700 0.7700 0.7700
14.562000 0.7710 0.7710 0.7710 0.7710 0.7710
14.596096 0.7730 0.7730 0.7710 0.7710 0.7700
14.630000 0.7680 0.7640 0.7630 0.7610 0.7590
14.664096 0.7580 0.7540 0.7540 0.7540 0.7540
14.698000 0.7540 0.7540 0.7540 0.7540 0.7540
14.732096 0.7510 0.7470 0.7440 0.7410 0.7390
14.766000 0.7370 0.7370 0.7350 0.7340 0.7320
14.800096 0.7320 0.7320 0.7300 0.7300 0.7290
14.834000 0.7250 0.7250 0.7250 0.7250 0.7250
14.868096 0.7240 0.7220 0.7200 0.7180 0.7170
14.903000 0.7150 0.7130 0.7120 0.7100 0.7100
14.937096 0.7050 0.6980 0.6950 0.6880 0.6830
14.971000 0.6760 0.6660 0.6570 0.6500 0.6450
15.005096 0.6280 0.6130 0.5970 0.5800 0.5700
15.039000 0.5600 0.5580 0.5530 0.5530 0.5530
15.073096 0.5550 0.5550 0.5570 0.5570 0.5570
15.107000 0.5620 0.5650 0.5680 0.5740 0.5800
15.141096 0.5890 0.5920 0.5970 0.6040 0.6060
15.175000 0.6080 0.6080 0.6080 0.6080 0.6090
15.209096 0.6090 0.6110 0.6090 0.6090 0.6080
15.243000 0.6040 0.5990 0.5970 0.5970 0.5970
15.277096 0.5970 0.5960 0.5910 0.5910 0.5910
15.312000 0.5890 0.5860 0.5820 0.5800 0.5770
15.346096 0.5750 0.5750 0.5740 0.5740 0.5740
15.380000 0.5700 0.5680 0.5670 0.5600 0.5530
15.414096 0.5510 0.5460 0.5430 0.5400 0.5360
15.448000 0.5340 0.5310 0.5310 0.5290 0.5290
15.482096 0.5260 0.5220 0.5190 0.5160 0.5120
15.516000 0.5000 0.4990 0.4970 0.4940 0.4950
15.550096 0.4970 0.4990 0.4990 0.4970 0.4950
15.584000 0.4950 0.4900 0.4850 0.4800 0.4780
15.618096 0.4770 0.4750 0.4710 0.4710 0.4680
15.652000 0.4630 0.4610 0.4590 0.4590 0.4580
15.686096 0.4560 0.4490 0.4440 0.4420 0.4390
15.721000 0.4370 0.4360 0.4340 0.4340 0.4340
15.755096 0.4320 0.4340 0.4340 0.4340 0.4320
15.789000 0.4310 0.4190 0.4120 0.4070 0.4030
15.823096 0.4020 0.4000 0.3980 0.3980 0.3960
15.857000 0.3850 0.3790 0.3790 0.3830 0.3830
15.891096 0.3830 0.3830 0.3780 0.3660 0.3590
15.925000 0.3520 0.3490 0.3400 0.3370 0.3370
15.959096 0.3390 0.3390 0.3390 0.3370 0.3330
15.993000 0.3320 0.3280
##END=
