##TITLE=DIPHENYLAMINE, 4-AMINO-, MONO-HYDROCHLORIDE
##JCAMP-DX=4.24
##DATA TYPE=INFRARED SPECTRUM
##CLASS=COBLENTZ III
##ORIGIN=DOW CHEMICAL COMPANY
##OWNER=COBLENTZ SOC.
Collection (C) 2018 copyright by the U.S. Secretary of Commerce
on behalf of the United States of America. All rights reserved.
##DATE=1963/06/17
##NAMES=N<1>-phenyl-1,4-benzenediamine hydrochloride
##MOLFORM=C12 H13 Cl N2
##SOURCE REFERENCE=COBLENTZ NO. 06420
##$NIST ID=B6006420
##$NIST SOURCE=COBLENTZ
##$NIST IMAGE=cob6420
##SPECTROMETER/DATA SYSTEM=DOW KBr FOREPRISM-GRATING
##INSTRUMENT PARAMETERS=BLAZED AT 3.5, 12.0, 20.0 MICRON AND CHANGED AT 5.0, 7.5, 14.9 MICRON
##STATE=SOLID (SPLIT MULL)
##SAMPLING PROCEDURE=TRANSMISSION
##RESOLUTION=2
##DATA PROCESSING=DIGITIZED BY COBLENTZ SOCIETY (BATCH I) FROM HARD COPY
##XUNITS=1/CM
##YUNITS=TRANSMITTANCE
##XLABEL=Wavenumbers (cm-1)
##YLABEL=% Transmission
##XFACTOR=1
##YFACTOR=1
##DELTAX=1
##FIRSTX=449
##LASTX=3798
##FIRSTY=0.7769
##MAXX=3798
##MINX=449
##MAXY=0.8881
##MINY=0.0802
##NPOINTS=3350
##XYDATA=(X++(Y..Y))
449.000000 0.7769 0.7761 0.7751 0.7745 0.7732
454.000000 0.7718 0.7707 0.7694 0.7682 0.7668
459.000000 0.7655 0.7642 0.7628 0.7615 0.7603
464.000000 0.7591 0.7580 0.7568 0.7562 0.7560
469.000000 0.7557 0.7554 0.7551 0.7549 0.7548
474.000000 0.7546 0.7543 0.7526 0.7507 0.7481
479.000000 0.7454 0.7415 0.7369 0.7318 0.7264
484.000000 0.7175 0.7071 0.6926 0.6799 0.6675
489.000000 0.6558 0.6478 0.6447 0.6435 0.6419
494.000000 0.6405 0.6335 0.6106 0.5877 0.5648
499.000000 0.5418 0.5184 0.5167 0.5216 0.6027
504.000000 0.6478 0.6554 0.6680 0.7262 0.7846
509.000000 0.8039 0.8078 0.8118 0.8158 0.8195
514.000000 0.8232 0.8268 0.8305 0.8310 0.8368
519.000000 0.8304 0.8237 0.8114 0.8012 0.7903
524.000000 0.7795 0.7741 0.7743 0.7744 0.7898
529.000000 0.7972 0.8032 0.8080 0.8118 0.8156
534.000000 0.8193 0.8230 0.8262 0.8290 0.8316
539.000000 0.8339 0.8362 0.8384 0.8402 0.8420
544.000000 0.8438 0.8456 0.8470 0.8482 0.8494
549.000000 0.8507 0.8518 0.8531 0.8543 0.8552
554.000000 0.8560 0.8568 0.8577 0.8585 0.8594
559.000000 0.8602 0.8610 0.8617 0.8625 0.8633
564.000000 0.8640 0.8648 0.8655 0.8663 0.8673
569.000000 0.8682 0.8691 0.8700 0.8709 0.8718
574.000000 0.8728 0.8737 0.8746 0.8755 0.8764
579.000000 0.8774 0.8783 0.8792 0.8801 0.8808
584.000000 0.8815 0.8821 0.8828 0.8836 0.8842
589.000000 0.8840 0.8839 0.8831 0.8820 0.8823
594.000000 0.8797 0.8785 0.8774 0.8750 0.8727
599.000000 0.8705 0.8682 0.8656 0.8623 0.8586
604.000000 0.8549 0.8512 0.8467 0.8385 0.8304
609.000000 0.8221 0.8086 0.7951 0.7860 0.7812
614.000000 0.7783 0.7768 0.7772 0.7778 0.7804
619.000000 0.7751 0.8107 0.8195 0.8256 0.8313
624.000000 0.8365 0.8414 0.8455 0.8496 0.8537
629.000000 0.8578 0.8621 0.8663 0.8694 0.8713
634.000000 0.8731 0.8739 0.8736 0.8736 0.8717
639.000000 0.8698 0.8678 0.8653 0.8628 0.8604
644.000000 0.8588 0.8580 0.8591 0.8607 0.8642
649.000000 0.8678 0.8745 0.8745 0.8745 0.8746
654.000000 0.8747 0.8748 0.8748 0.8749 0.8750
659.000000 0.8751 0.8751 0.8752 0.8754 0.8756
664.000000 0.8759 0.8751 0.8741 0.8681 0.8415
669.000000 0.8311 0.8218 0.8217 0.8215 0.8215
674.000000 0.8215 0.8213 0.8212 0.8204 0.8182
679.000000 0.8160 0.8138 0.8115 0.8080 0.8018
684.000000 0.7958 0.7900 0.7569 0.7228 0.6886
689.000000 0.6545 0.6203 0.5881 0.5832 0.5803
694.000000 0.5709 0.5396 0.5083 0.4971 0.5008
699.000000 0.5167 0.5906 0.6645 0.7168 0.7319
704.000000 0.7505 0.7603 0.7700 0.7891 0.7914
709.000000 0.7918 0.7921 0.7921 0.7911 0.7878
714.000000 0.7847 0.7803 0.7753 0.7707 0.7661
719.000000 0.7611 0.7556 0.7500 0.7464 0.7461
724.000000 0.7458 0.7457 0.7454 0.7451 0.7396
729.000000 0.7245 0.7095 0.6945 0.6794 0.6644
734.000000 0.6493 0.6343 0.6193 0.6042 0.6021
739.000000 0.6018 0.6015 0.6002 0.5986 0.5862
744.000000 0.5541 0.5220 0.4899 0.4578 0.4320
749.000000 0.4309 0.5115 0.6084 0.6755 0.6910
754.000000 0.7055 0.7203 0.7358 0.7465 0.7568
759.000000 0.7661 0.7739 0.7753 0.7753 0.7753
764.000000 0.7742 0.7712 0.7657 0.7587 0.7456
769.000000 0.7275 0.7095 0.6914 0.6733 0.6561
774.000000 0.6564 0.6578 0.6561 0.6784 0.7260
779.000000 0.7378 0.7475 0.7560 0.7637 0.7711
784.000000 0.7784 0.7855 0.7932 0.8049 0.8133
789.000000 0.8142 0.8147 0.8153 0.8158 0.8128
794.000000 0.8128 0.8130 0.8118 0.8106 0.8087
799.000000 0.8060 0.8030 0.7965 0.7849 0.7731
804.000000 0.7612 0.7504 0.7397 0.7065 0.6661
809.000000 0.6259 0.6046 0.6024 0.5999 0.6200
814.000000 0.6326 0.6451 0.6506 0.6547 0.6279
819.000000 0.5788 0.5298 0.4862 0.4859 0.4866
824.000000 0.5006 0.5655 0.6303 0.6951 0.7199
829.000000 0.7278 0.7355 0.7422 0.7489 0.7556
834.000000 0.7630 0.7694 0.7697 0.7697 0.7693
839.000000 0.7688 0.7682 0.7675 0.7671 0.7676
844.000000 0.7691 0.7715 0.7788 0.7928 0.8015
849.000000 0.8064 0.8110 0.8147 0.8176 0.8193
854.000000 0.8208 0.8224 0.8238 0.8242 0.8245
859.000000 0.8248 0.8249 0.8249 0.8249 0.8249
864.000000 0.8249 0.8243 0.8237 0.8232 0.8218
869.000000 0.8204 0.8189 0.8174 0.8157 0.8135
874.000000 0.8108 0.8074 0.8041 0.8004 0.7961
879.000000 0.7961 0.7961 0.7978 0.8006 0.8044
884.000000 0.8084 0.8118 0.8117 0.8115 0.8115
889.000000 0.8105 0.8095 0.8088 0.8081 0.8092
894.000000 0.8115 0.8139 0.8176 0.8205 0.8230
899.000000 0.8251 0.8264 0.8258 0.8253 0.8246
904.000000 0.8241 0.8236 0.8232 0.8228 0.8223
909.000000 0.8218 0.8215 0.8211 0.8206 0.8203
914.000000 0.8203 0.8204 0.8208 0.8211 0.8231
919.000000 0.8254 0.8255 0.8251 0.8248 0.8245
924.000000 0.8242 0.8236 0.8230 0.8225 0.8223
929.000000 0.8221 0.8218 0.8216 0.8214 0.8212
934.000000 0.8209 0.8204 0.8200 0.8196 0.8194
939.000000 0.8191 0.8189 0.8186 0.8184 0.8181
944.000000 0.8176 0.8171 0.8168 0.8165 0.8161
949.000000 0.8158 0.8157 0.8154 0.8151 0.8146
954.000000 0.8140 0.8134 0.8128 0.8121 0.8115
959.000000 0.8112 0.8111 0.8111 0.8111 0.8110
964.000000 0.8108 0.8111 0.8118 0.8133 0.8149
969.000000 0.8171 0.8171 0.8168 0.8165 0.8161
974.000000 0.8161 0.8162 0.8174 0.8185 0.8195
979.000000 0.8206 0.8217 0.8230 0.8246 0.8252
984.000000 0.8253 0.8254 0.8255 0.8256 0.8256
989.000000 0.8255 0.8243 0.8230 0.8217 0.8204
994.000000 0.8195 0.8195 0.8195 0.8195 0.8195
999.000000 0.8195 0.8195 0.8195 0.8195 0.8194
1004.000000 0.8194 0.8189 0.8178 0.8168 0.8157
1009.000000 0.8147 0.8138 0.8130 0.8121 0.8124
1014.000000 0.8128 0.8128 0.8118 0.8108 0.8098
1019.000000 0.8082 0.8061 0.8040 0.8011 0.7972
1024.000000 0.7890 0.7783 0.7685 0.7626 0.7622
1029.000000 0.7907 0.7996 0.8082 0.8138 0.8141
1034.000000 0.8144 0.8147 0.8151 0.8151 0.8151
1039.000000 0.8149 0.8148 0.8148 0.8188 0.8131
1044.000000 0.8125 0.8121 0.8117 0.8111 0.8107
1049.000000 0.8101 0.8099 0.8098 0.8097 0.8096
1054.000000 0.8095 0.8081 0.8065 0.8050 0.8035
1059.000000 0.8018 0.8001 0.7969 0.7938 0.7907
1064.000000 0.7856 0.7801 0.7742 0.7668 0.7594
1069.000000 0.7519 0.7295 0.7286 0.7292 0.7262
1074.000000 0.7311 0.7340 0.7382 0.7430 0.7498
1079.000000 0.7591 0.7711 0.7912 0.7991 0.8026
1084.000000 0.8044 0.8060 0.8074 0.8085 0.8095
1089.000000 0.8100 0.8103 0.8111 0.8111 0.8096
1094.000000 0.8075 0.8053 0.8031 0.8007 0.7981
1099.000000 0.7956 0.7930 0.7905 0.7876 0.7845
1104.000000 0.7812 0.7780 0.7736 0.7685 0.7633
1109.000000 0.7581 0.7525 0.7469 0.7414 0.7403
1114.000000 0.7400 0.7396 0.7392 0.7387 0.7354
1119.000000 0.7319 0.7284 0.7245 0.7207 0.7165
1124.000000 0.7096 0.7095 0.7094 0.7101 0.7251
1129.000000 0.7394 0.7515 0.7588 0.7645 0.7661
1134.000000 0.7678 0.7690 0.7697 0.7704 0.7711
1139.000000 0.7718 0.7725 0.7728 0.7768 0.7736
1144.000000 0.7738 0.7719 0.7699 0.7668 0.7635
1149.000000 0.7596 0.7558 0.7481 0.7464 0.7448
1154.000000 0.7431 0.7415 0.7426 0.7475 0.7532
1159.000000 0.7618 0.7656 0.7653 0.7687 0.7643
1164.000000 0.7615 0.7565 0.7499 0.7312 0.7104
1169.000000 0.6894 0.6754 0.6755 0.6756 0.6756
1174.000000 0.7083 0.7101 0.7132 0.7193 0.7286
1179.000000 0.7450 0.7611 0.7745 0.7824 0.7880
1184.000000 0.7912 0.7947 0.7957 0.7951 0.7971
1189.000000 0.7939 0.7933 0.7926 0.7921 0.7908
1194.000000 0.7874 0.7819 0.7765 0.7671 0.7519
1199.000000 0.7311 0.7086 0.6980 0.6891 0.6837
1204.000000 0.6830 0.6835 0.6775 0.6960 0.7418
1209.000000 0.7687 0.7757 0.7806 0.7826 0.7835
1214.000000 0.7882 0.7830 0.7810 0.7787 0.7760
1219.000000 0.7733 0.7707 0.7681 0.7655 0.7636
1224.000000 0.7622 0.7611 0.7610 0.7557 0.7606
1229.000000 0.7608 0.7615 0.7621 0.7636 0.7653
1234.000000 0.7690 0.7725 0.7747 0.7745 0.7772
1239.000000 0.7734 0.7711 0.7681 0.7647 0.7612
1244.000000 0.7581 0.7551 0.7522 0.7494 0.7465
1249.000000 0.7433 0.7397 0.7361 0.7325 0.7293
1254.000000 0.7275 0.7261 0.7257 0.7251 0.7249
1259.000000 0.7217 0.7245 0.7244 0.7243 0.7251
1264.000000 0.7260 0.7268 0.7283 0.7301 0.7318
1269.000000 0.7353 0.7404 0.7410 0.7417 0.7422
1274.000000 0.7428 0.7403 0.7424 0.7421 0.7397
1279.000000 0.7372 0.7354 0.7336 0.7318 0.7299
1284.000000 0.7275 0.7245 0.7215 0.7181 0.7145
1289.000000 0.7108 0.7071 0.7028 0.6968 0.6911
1294.000000 0.6825 0.6764 0.6695 0.6626 0.6574
1299.000000 0.6493 0.6365 0.6237 0.6152 0.6075
1304.000000 0.5998 0.5921 0.5801 0.5638 0.5477
1309.000000 0.5326 0.5173 0.4794 0.4527 0.4369
1314.000000 0.4210 0.4087 0.3968 0.3734 0.3592
1319.000000 0.3557 0.3534 0.3532 0.3538 0.3543
1324.000000 0.3573 0.3591 0.4020 0.4195 0.4351
1329.000000 0.4482 0.4962 0.5052 0.5144 0.5229
1334.000000 0.5302 0.5362 0.5424 0.5492 0.5560
1339.000000 0.5628 0.5698 0.5770 0.5841 0.5928
1344.000000 0.6029 0.6129 0.6236 0.6362 0.6488
1349.000000 0.6596 0.6686 0.6775 0.6865 0.6954
1354.000000 0.7050 0.7147 0.7244 0.7339 0.7428
1359.000000 0.7518 0.7622 0.7765 0.7797 0.7817
1364.000000 0.7837 0.7857 0.7876 0.7897 0.7900
1369.000000 0.7903 0.7907 0.7910 0.7911 0.7911
1374.000000 0.7911 0.7912 0.7912 0.7912 0.7912
1379.000000 0.7936 0.7907 0.7905 0.7901 0.7900
1384.000000 0.7895 0.7888 0.7882 0.7875 0.7869
1389.000000 0.7864 0.7858 0.7851 0.7846 0.7840
1394.000000 0.7834 0.7828 0.7821 0.7815 0.7801
1399.000000 0.7756 0.7711 0.7653 0.7591 0.7511
1404.000000 0.7415 0.7306 0.7182 0.7058 0.6888
1409.000000 0.6884 0.6894 0.6860 0.7051 0.7131
1414.000000 0.7239 0.7424 0.7634 0.7717 0.7743
1419.000000 0.7765 0.7780 0.7797 0.7765 0.7758
1424.000000 0.7750 0.7739 0.7726 0.7715 0.7703
1429.000000 0.7691 0.7675 0.7660 0.7643 0.7621
1434.000000 0.7596 0.7571 0.7541 0.7505 0.7468
1439.000000 0.7434 0.7398 0.7361 0.7308 0.7255
1444.000000 0.7201 0.7149 0.7095 0.7038 0.6972
1449.000000 0.6908 0.6846 0.6799 0.6848 0.6862
1454.000000 0.6968 0.7203 0.7286 0.7284 0.7291
1459.000000 0.7275 0.7268 0.7249 0.7226 0.7206
1464.000000 0.7178 0.7150 0.7118 0.7072 0.7026
1469.000000 0.6980 0.6933 0.6889 0.6848 0.6806
1474.000000 0.6764 0.6712 0.6658 0.6606 0.6541
1479.000000 0.6462 0.6384 0.6305 0.6217 0.6129
1484.000000 0.6041 0.5953 0.5822 0.5650 0.5449
1489.000000 0.5214 0.5074 0.2873 0.2773 0.2701
1494.000000 0.2641 0.2608 0.2616 0.2606 0.2608
1499.000000 0.3068 0.3689 0.4130 0.4092 0.3866
1504.000000 0.3568 0.3271 0.2973 0.2675 0.2376
1509.000000 0.2252 0.2155 0.2034 0.1909 0.1767
1514.000000 0.1626 0.1484 0.1341 0.1183 0.1009
1519.000000 0.0917 0.0831 0.0802 0.0805 0.0815
1524.000000 0.0846 0.0901 0.0945 0.0992 0.1113
1529.000000 0.1248 0.1779 0.2384 0.2990 0.3595
1534.000000 0.4200 0.4799 0.5152 0.6337 0.6750
1539.000000 0.7011 0.7210 0.7392 0.7522 0.7640
1544.000000 0.7734 0.7774 0.7814 0.7855 0.7888
1549.000000 0.7917 0.7945 0.7972 0.7989 0.8001
1554.000000 0.8011 0.8048 0.8028 0.8054 0.8051
1559.000000 0.8030 0.8001 0.7971 0.7922 0.7861
1564.000000 0.7801 0.7728 0.7658 0.7586 0.7511
1569.000000 0.7436 0.7361 0.7283 0.7201 0.7121
1574.000000 0.7008 0.6884 0.6765 0.6651 0.6539
1579.000000 0.6398 0.6254 0.6120 0.5992 0.5864
1584.000000 0.5750 0.5660 0.5569 0.5478 0.5394
1589.000000 0.5309 0.4945 0.4491 0.4037 0.3582
1594.000000 0.3128 0.2674 0.2220 0.1766 0.1480
1599.000000 0.1496 0.1733 0.2531 0.3330 0.4129
1604.000000 0.4928 0.5727 0.6299 0.6292 0.6294
1609.000000 0.6198 0.6048 0.5899 0.5750 0.5600
1614.000000 0.5475 0.5449 0.5631 0.5814 0.5997
1619.000000 0.6179 0.6360 0.6397 0.6353 0.6259
1624.000000 0.6156 0.6053 0.5960 0.5970 0.5922
1629.000000 0.6646 0.7765 0.7893 0.8199 0.8328
1634.000000 0.8398 0.8453 0.8493 0.8533 0.8571
1639.000000 0.8593 0.8614 0.8628 0.8643 0.8657
1644.000000 0.8671 0.8686 0.8700 0.8712 0.8721
1649.000000 0.8732 0.8741 0.8751 0.8756 0.8762
1654.000000 0.8768 0.8774 0.8780 0.8786 0.8792
1659.000000 0.8799 0.8805 0.8811 0.8817 0.8823
1664.000000 0.8828 0.8835 0.8842 0.8848 0.8854
1669.000000 0.8860 0.8862 0.8864 0.8881 0.8868
1674.000000 0.8870 0.8871 0.8871 0.8871 0.8873
1679.000000 0.8874 0.8875 0.8875 0.8875 0.8877
1684.000000 0.8874 0.8871 0.8868 0.8867 0.8864
1689.000000 0.8861 0.8859 0.8856 0.8853 0.8850
1694.000000 0.8847 0.8844 0.8841 0.8838 0.8835
1699.000000 0.8832 0.8828 0.8825 0.8823 0.8818
1704.000000 0.8813 0.8807 0.8802 0.8796 0.8790
1709.000000 0.8784 0.8778 0.8773 0.8767 0.8762
1714.000000 0.8756 0.8750 0.8743 0.8736 0.8728
1719.000000 0.8721 0.8713 0.8713 0.8724 0.8734
1724.000000 0.8745 0.8756 0.8765 0.8774 0.8783
1729.000000 0.8792 0.8787 0.8782 0.8775 0.8770
1734.000000 0.8764 0.8759 0.8753 0.8748 0.8743
1739.000000 0.8738 0.8732 0.8727 0.8721 0.8717
1744.000000 0.8712 0.8707 0.8703 0.8702 0.8701
1749.000000 0.8700 0.8698 0.8697 0.8696 0.8695
1754.000000 0.8694 0.8693 0.8692 0.8690 0.8689
1759.000000 0.8688 0.8688 0.8689 0.8690 0.8691
1764.000000 0.8691 0.8692 0.8693 0.8693 0.8693
1769.000000 0.8689 0.8685 0.8682 0.8678 0.8674
1774.000000 0.8668 0.8663 0.8658 0.8653 0.8648
1779.000000 0.8643 0.8638 0.8633 0.8628 0.8623
1784.000000 0.8618 0.8613 0.8608 0.8603 0.8598
1789.000000 0.8593 0.8588 0.8583 0.8578 0.8573
1794.000000 0.8568 0.8563 0.8559 0.8557 0.8555
1799.000000 0.8553 0.8551 0.8549 0.8547 0.8544
1804.000000 0.8542 0.8540 0.8538 0.8536 0.8534
1809.000000 0.8532 0.8530 0.8528 0.8525 0.8520
1814.000000 0.8516 0.8511 0.8506 0.8502 0.8497
1819.000000 0.8492 0.8487 0.8483 0.8478 0.8473
1824.000000 0.8468 0.8464 0.8459 0.8454 0.8448
1829.000000 0.8442 0.8436 0.8430 0.8424 0.8418
1834.000000 0.8412 0.8406 0.8400 0.8394 0.8387
1839.000000 0.8381 0.8375 0.8368 0.8362 0.8354
1844.000000 0.8346 0.8338 0.8330 0.8321 0.8314
1849.000000 0.8306 0.8303 0.8299 0.8296 0.8292
1854.000000 0.8288 0.8285 0.8281 0.8278 0.8275
1859.000000 0.8274 0.8271 0.8270 0.8268 0.8267
1864.000000 0.8265 0.8264 0.8262 0.8260 0.8259
1869.000000 0.8257 0.8243 0.8228 0.8211 0.8194
1874.000000 0.8176 0.8160 0.8143 0.8125 0.8108
1879.000000 0.8092 0.8075 0.8058 0.8042 0.8025
1884.000000 0.8015 0.8021 0.8026 0.8033 0.8039
1889.000000 0.8047 0.8055 0.8062 0.8071 0.8078
1894.000000 0.8084 0.8087 0.8091 0.8094 0.8097
1899.000000 0.8097 0.8098 0.8095 0.8092 0.8089
1904.000000 0.8086 0.8076 0.8064 0.8051 0.8038
1909.000000 0.8025 0.8011 0.7999 0.7987 0.7974
1914.000000 0.7961 0.7949 0.7935 0.7917 0.7898
1919.000000 0.7878 0.7861 0.7842 0.7822 0.7805
1924.000000 0.7788 0.7771 0.7756 0.7740 0.7724
1929.000000 0.7707 0.7691 0.7678 0.7665 0.7653
1934.000000 0.7640 0.7628 0.7615 0.7603 0.7590
1939.000000 0.7578 0.7565 0.7551 0.7539 0.7525
1944.000000 0.7515 0.7508 0.7501 0.7496 0.7490
1949.000000 0.7484 0.7478 0.7471 0.7465 0.7460
1954.000000 0.7454 0.7447 0.7446 0.7446 0.7464
1959.000000 0.7471 0.7478 0.7485 0.7491 0.7498
1964.000000 0.7504 0.7508 0.7515 0.7519 0.7525
1969.000000 0.7531 0.7536 0.7541 0.7547 0.7551
1974.000000 0.7558 0.7567 0.7575 0.7585 0.7606
1979.000000 0.7628 0.7649 0.7669 0.7692 0.7706
1984.000000 0.7718 0.7730 0.7743 0.7761 0.7787
1989.000000 0.7828 0.7882 0.8075 0.8186 0.8210
1994.000000 0.8233 0.8249 0.8264 0.8280 0.8298
1999.000000 0.8316 0.8334 0.8352 0.8370 0.8378
2004.000000 0.8388 0.8396 0.8405 0.8414 0.8423
2009.000000 0.8431 0.8440 0.8448 0.8457 0.8466
2014.000000 0.8475 0.8483 0.8492 0.8501 0.8511
2019.000000 0.8521 0.8533 0.8543 0.8554 0.8564
2024.000000 0.8575 0.8586 0.8597 0.8606 0.8616
2029.000000 0.8621 0.8628 0.8634 0.8640 0.8646
2034.000000 0.8652 0.8658 0.8664 0.8668 0.8675
2039.000000 0.8681 0.8687 0.8693 0.8735 0.8702
2044.000000 0.8705 0.8707 0.8710 0.8712 0.8715
2049.000000 0.8717 0.8718 0.8718 0.8720 0.8720
2054.000000 0.8720 0.8720 0.8720 0.8718 0.8718
2059.000000 0.8716 0.8714 0.8711 0.8709 0.8706
2064.000000 0.8704 0.8701 0.8699 0.8696 0.8694
2069.000000 0.8690 0.8686 0.8681 0.8677 0.8671
2074.000000 0.8668 0.8663 0.8659 0.8654 0.8650
2079.000000 0.8645 0.8641 0.8636 0.8632 0.8627
2084.000000 0.8623 0.8618 0.8614 0.8609 0.8605
2089.000000 0.8600 0.8596 0.8591 0.8587 0.8582
2094.000000 0.8577 0.8571 0.8567 0.8561 0.8556
2099.000000 0.8550 0.8545 0.8540 0.8535 0.8528
2104.000000 0.8524 0.8518 0.8513 0.8508 0.8503
2109.000000 0.8497 0.8492 0.8487 0.8482 0.8475
2114.000000 0.8471 0.8466 0.8462 0.8457 0.8453
2119.000000 0.8449 0.8445 0.8440 0.8436 0.8432
2124.000000 0.8428 0.8423 0.8418 0.8415 0.8411
2129.000000 0.8407 0.8403 0.8398 0.8394 0.8390
2134.000000 0.8386 0.8381 0.8377 0.8371 0.8368
2139.000000 0.8363 0.8359 0.8354 0.8349 0.8344
2144.000000 0.8340 0.8335 0.8331 0.8325 0.8321
2149.000000 0.8320 0.8318 0.8315 0.8313 0.8310
2154.000000 0.8308 0.8306 0.8304 0.8301 0.8299
2159.000000 0.8296 0.8294 0.8291 0.8289 0.8287
2164.000000 0.8285 0.8282 0.8280 0.8278 0.8275
2169.000000 0.8274 0.8271 0.8270 0.8268 0.8266
2174.000000 0.8264 0.8260 0.8257 0.8253 0.8250
2179.000000 0.8246 0.8243 0.8239 0.8236 0.8232
2184.000000 0.8228 0.8225 0.8221 0.8218 0.8215
2189.000000 0.8211 0.8208 0.8205 0.8202 0.8198
2194.000000 0.8195 0.8191 0.8188 0.8184 0.8181
2199.000000 0.8175 0.8171 0.8167 0.8161 0.8156
2204.000000 0.8151 0.8146 0.8141 0.8136 0.8131
2209.000000 0.8125 0.8119 0.8115 0.8110 0.8104
2214.000000 0.8099 0.8094 0.8089 0.8084 0.8078
2219.000000 0.8072 0.8068 0.8062 0.8058 0.8053
2224.000000 0.8048 0.8042 0.8037 0.8032 0.8026
2229.000000 0.8021 0.8017 0.8011 0.8006 0.8001
2234.000000 0.7996 0.7990 0.7985 0.7980 0.7975
2239.000000 0.7968 0.7964 0.7958 0.7954 0.7949
2244.000000 0.7944 0.7938 0.7933 0.7928 0.7922
2249.000000 0.7918 0.7912 0.7908 0.7904 0.7900
2254.000000 0.7896 0.7891 0.7887 0.7882 0.7878
2259.000000 0.7872 0.7868 0.7864 0.7860 0.7855
2264.000000 0.7851 0.7846 0.7842 0.7837 0.7833
2269.000000 0.7828 0.7824 0.7818 0.7814 0.7808
2274.000000 0.7805 0.7800 0.7795 0.7790 0.7786
2279.000000 0.7781 0.7775 0.7772 0.7769 0.7768
2284.000000 0.7765 0.7762 0.7761 0.7758 0.7756
2289.000000 0.7753 0.7751 0.7748 0.7746 0.7743
2294.000000 0.7741 0.7738 0.7736 0.7734 0.7732
2299.000000 0.7728 0.7726 0.7722 0.7719 0.7715
2304.000000 0.7712 0.7708 0.7706 0.7701 0.7698
2309.000000 0.7694 0.7691 0.7687 0.7684 0.7680
2314.000000 0.7676 0.7672 0.7669 0.7665 0.7661
2319.000000 0.7658 0.7655 0.7651 0.7648 0.7644
2324.000000 0.7641 0.7637 0.7634 0.7631 0.7628
2329.000000 0.7625 0.7621 0.7618 0.7615 0.7612
2334.000000 0.7611 0.7608 0.7605 0.7603 0.7601
2339.000000 0.7601 0.7601 0.7600 0.7600 0.7599
2344.000000 0.7599 0.7598 0.7597 0.7596 0.7596
2349.000000 0.7593 0.7591 0.7588 0.7585 0.7581
2354.000000 0.7578 0.7575 0.7571 0.7568 0.7565
2359.000000 0.7561 0.7558 0.7555 0.7551 0.7548
2364.000000 0.7545 0.7541 0.7538 0.7534 0.7531
2369.000000 0.7525 0.7519 0.7514 0.7508 0.7503
2374.000000 0.7498 0.7492 0.7487 0.7481 0.7475
2379.000000 0.7469 0.7465 0.7458 0.7454 0.7448
2384.000000 0.7443 0.7437 0.7432 0.7425 0.7421
2389.000000 0.7415 0.7410 0.7404 0.7399 0.7393
2394.000000 0.7388 0.7382 0.7376 0.7371 0.7365
2399.000000 0.7360 0.7355 0.7349 0.7344 0.7338
2404.000000 0.7333 0.7326 0.7321 0.7315 0.7310
2409.000000 0.7304 0.7298 0.7292 0.7286 0.7280
2414.000000 0.7274 0.7268 0.7262 0.7257 0.7251
2419.000000 0.7245 0.7239 0.7233 0.7226 0.7221
2424.000000 0.7215 0.7210 0.7204 0.7195 0.7187
2429.000000 0.7178 0.7171 0.7161 0.7154 0.7145
2434.000000 0.7137 0.7128 0.7121 0.7111 0.7104
2439.000000 0.7096 0.7088 0.7078 0.7071 0.7061
2444.000000 0.7054 0.7046 0.7038 0.7028 0.7021
2449.000000 0.7011 0.7004 0.6996 0.6988 0.6978
2454.000000 0.6971 0.6961 0.6954 0.6946 0.6938
2459.000000 0.6928 0.6921 0.6911 0.6903 0.6893
2464.000000 0.6883 0.6872 0.6864 0.6854 0.6845
2469.000000 0.6835 0.6825 0.6815 0.6806 0.6796
2474.000000 0.6786 0.6775 0.6767 0.6757 0.6748
2479.000000 0.6738 0.6728 0.6718 0.6708 0.6699
2484.000000 0.6689 0.6678 0.6669 0.6660 0.6650
2489.000000 0.6640 0.6631 0.6621 0.6611 0.6601
2494.000000 0.6592 0.6582 0.6572 0.6562 0.6553
2499.000000 0.6540 0.6528 0.6506 0.6485 0.6462
2504.000000 0.6442 0.6419 0.6399 0.6377 0.6356
2509.000000 0.6334 0.6312 0.6291 0.6270 0.6249
2514.000000 0.6229 0.6208 0.6187 0.6166 0.6146
2519.000000 0.6125 0.6104 0.6083 0.6062 0.6042
2524.000000 0.6021 0.5999 0.5978 0.5955 0.5933
2529.000000 0.5910 0.5888 0.5865 0.5843 0.5820
2534.000000 0.5798 0.5775 0.5753 0.5730 0.5708
2539.000000 0.5685 0.5662 0.5640 0.5618 0.5595
2544.000000 0.5573 0.5551 0.5529 0.5506 0.5484
2549.000000 0.5454 0.5424 0.5379 0.5334 0.5288
2554.000000 0.5243 0.5197 0.5152 0.5106 0.5060
2559.000000 0.5023 0.4985 0.4947 0.4910 0.4872
2564.000000 0.4834 0.4796 0.4759 0.4721 0.4683
2569.000000 0.4614 0.4546 0.4412 0.4280 0.4222
2574.000000 0.4165 0.4116 0.4068 0.4020 0.3972
2579.000000 0.3918 0.3864 0.3757 0.3650 0.3634
2584.000000 0.3618 0.3618 0.3618 0.3618 0.3620
2589.000000 0.3621 0.3623 0.3624 0.3623 0.3622
2594.000000 0.3618 0.3609 0.3600 0.3591 0.3582
2599.000000 0.3574 0.3564 0.3556 0.3547 0.3545
2604.000000 0.3544 0.3548 0.3552 0.3555 0.3559
2609.000000 0.3562 0.3560 0.3570 0.3574 0.3577
2614.000000 0.3580 0.3586 0.3591 0.3595 0.3600
2619.000000 0.3607 0.3614 0.3644 0.3674 0.3702
2624.000000 0.3730 0.3759 0.3789 0.3828 0.3868
2629.000000 0.3909 0.3950 0.4012 0.4077 0.4169
2634.000000 0.4262 0.4355 0.4448 0.4580 0.4712
2639.000000 0.4860 0.5009 0.5123 0.5238 0.5327
2644.000000 0.5417 0.5457 0.5497 0.5526 0.5556
2649.000000 0.5570 0.5585 0.5586 0.5587 0.5588
2654.000000 0.5600 0.5590 0.5590 0.5590 0.5588
2659.000000 0.5585 0.5583 0.5576 0.5569 0.5544
2664.000000 0.5520 0.5488 0.5456 0.5434 0.5412
2669.000000 0.5390 0.5368 0.5340 0.5312 0.5283
2674.000000 0.5253 0.5224 0.5196 0.5171 0.5146
2679.000000 0.5121 0.5096 0.5071 0.5046 0.5020
2684.000000 0.4995 0.4978 0.4962 0.4946 0.4931
2689.000000 0.4915 0.4899 0.4892 0.4885 0.4880
2694.000000 0.4876 0.4871 0.4866 0.4859 0.4853
2699.000000 0.4845 0.4837 0.4828 0.4820 0.4812
2704.000000 0.4804 0.4796 0.4788 0.4779 0.4771
2709.000000 0.4759 0.4748 0.4736 0.4725 0.4712
2714.000000 0.4701 0.4689 0.4678 0.4666 0.4655
2719.000000 0.4642 0.4630 0.4612 0.4595 0.4577
2724.000000 0.4560 0.4542 0.4525 0.4507 0.4490
2729.000000 0.4472 0.4455 0.4437 0.4420 0.4396
2734.000000 0.4373 0.4346 0.4319 0.4292 0.4265
2739.000000 0.4238 0.4210 0.4184 0.4157 0.4130
2744.000000 0.4103 0.4079 0.4056 0.4037 0.4018
2749.000000 0.3999 0.3980 0.3960 0.3942 0.3923
2754.000000 0.3904 0.3884 0.3866 0.3847 0.3829
2759.000000 0.3809 0.3791 0.3772 0.3753 0.3730
2764.000000 0.3707 0.3680 0.3653 0.3626 0.3600
2769.000000 0.3573 0.3547 0.3520 0.3493 0.3466
2774.000000 0.3440 0.3414 0.3388 0.3362 0.3339
2779.000000 0.3314 0.3290 0.3264 0.3241 0.3216
2784.000000 0.3191 0.3166 0.3142 0.3117 0.3093
2789.000000 0.3068 0.3044 0.3019 0.2995 0.2970
2794.000000 0.2945 0.2918 0.2892 0.2865 0.2839
2799.000000 0.2812 0.2785 0.2759 0.2732 0.2705
2804.000000 0.2679 0.2652 0.2626 0.2601 0.2576
2809.000000 0.2552 0.2528 0.2503 0.2479 0.2455
2814.000000 0.2431 0.2407 0.2383 0.2359 0.2334
2819.000000 0.2310 0.2285 0.2262 0.2238 0.2214
2824.000000 0.2190 0.2166 0.2142 0.2118 0.2095
2829.000000 0.2077 0.2059 0.2040 0.2022 0.2004
2834.000000 0.1985 0.1967 0.1949 0.1929 0.1912
2839.000000 0.1894 0.1876 0.1857 0.1839 0.1821
2844.000000 0.1803 0.1784 0.1766 0.1746 0.1729
2849.000000 0.1711 0.1693 0.1674 0.1656 0.1637
2854.000000 0.1621 0.1603 0.1585 0.1567 0.1550
2859.000000 0.1532 0.1514 0.1496 0.1478 0.1460
2864.000000 0.1442 0.1425 0.1407 0.1390 0.1373
2869.000000 0.1362 0.1351 0.1340 0.1329 0.1318
2874.000000 0.1307 0.1296 0.1285 0.1274 0.1263
2879.000000 0.1252 0.1241 0.1230 0.1220 0.1209
2884.000000 0.1199 0.1188 0.1178 0.1167 0.1156
2889.000000 0.1158 0.1146 0.1164 0.1167 0.1170
2894.000000 0.1174 0.1177 0.1180 0.1183 0.1187
2899.000000 0.1201 0.1216 0.1234 0.1253 0.1272
2904.000000 0.1292 0.1308 0.1324 0.1338 0.1352
2909.000000 0.1366 0.1381 0.1395 0.1409 0.1424
2914.000000 0.1440 0.1455 0.1471 0.1487 0.1503
2919.000000 0.1519 0.1535 0.1551 0.1567 0.1594
2924.000000 0.1621 0.1654 0.1690 0.1724 0.1759
2929.000000 0.1793 0.1827 0.1856 0.1884 0.1914
2934.000000 0.1944 0.1973 0.2003 0.2032 0.2062
2939.000000 0.2087 0.2113 0.2137 0.2161 0.2184
2944.000000 0.2210 0.2234 0.2259 0.2278 0.2297
2949.000000 0.2316 0.2335 0.2354 0.2373 0.2376
2954.000000 0.2380 0.2383 0.2387 0.2390 0.2394
2959.000000 0.2393 0.2392 0.2391 0.2390 0.2389
2964.000000 0.2388 0.2385 0.2385 0.2385 0.2387
2969.000000 0.2402 0.2417 0.2432 0.2447 0.2462
2974.000000 0.2478 0.2495 0.2512 0.2529 0.2546
2979.000000 0.2563 0.2581 0.2603 0.2625 0.2652
2984.000000 0.2680 0.2707 0.2734 0.2763 0.2791
2989.000000 0.2819 0.2848 0.2883 0.2918 0.2952
2994.000000 0.2987 0.3022 0.3057 0.3091 0.3126
2999.000000 0.3156 0.3185 0.3216 0.3247 0.3277
3004.000000 0.3307 0.3337 0.3368 0.3398 0.3428
3009.000000 0.3487 0.3546 0.3618 0.3692 0.3741
3014.000000 0.3790 0.3830 0.3872 0.3912 0.3954
3019.000000 0.3992 0.4030 0.4066 0.4101 0.4136
3024.000000 0.4171 0.4195 0.4219 0.4229 0.4239
3029.000000 0.4245 0.4252 0.4258 0.4265 0.4272
3034.000000 0.4279 0.4285 0.4292 0.4298 0.4305
3039.000000 0.4336 0.4368 0.4415 0.4462 0.4509
3044.000000 0.4556 0.4603 0.4651 0.4694 0.4738
3049.000000 0.4781 0.4824 0.4867 0.4910 0.4942
3054.000000 0.4975 0.5003 0.5032 0.5060 0.5090
3059.000000 0.5119 0.5148 0.5185 0.5223 0.5272
3064.000000 0.5321 0.5370 0.5419 0.5466 0.5512
3069.000000 0.5558 0.5604 0.5649 0.5695 0.5739
3074.000000 0.5784 0.5825 0.5866 0.5907 0.5949
3079.000000 0.5990 0.6031 0.6053 0.6076 0.6096
3084.000000 0.6116 0.6136 0.6157 0.6177 0.6197
3089.000000 0.6217 0.6237 0.6253 0.6270 0.6283
3094.000000 0.6296 0.6309 0.6322 0.6335 0.6348
3099.000000 0.6360 0.6374 0.6387 0.6400 0.6412
3104.000000 0.6425 0.6439 0.6453 0.6469 0.6488
3109.000000 0.6506 0.6524 0.6541 0.6558 0.6575
3114.000000 0.6592 0.6606 0.6619 0.6634 0.6648
3119.000000 0.6661 0.6676 0.6691 0.6705 0.6718
3124.000000 0.6733 0.6741 0.6749 0.6757 0.6765
3129.000000 0.6771 0.6780 0.6785 0.6791 0.6789
3134.000000 0.6787 0.6784 0.6782 0.6780 0.6778
3139.000000 0.6778 0.6778 0.6781 0.6784 0.6786
3144.000000 0.6788 0.6790 0.6792 0.6794 0.6797
3149.000000 0.6799 0.6801 0.6807 0.6812 0.6818
3154.000000 0.6825 0.6834 0.6843 0.6851 0.6858
3159.000000 0.6867 0.6875 0.6884 0.6893 0.6901
3164.000000 0.6908 0.6918 0.6930 0.6941 0.6951
3169.000000 0.6962 0.6974 0.6985 0.6996 0.7007
3174.000000 0.7018 0.7028 0.7041 0.7051 0.7064
3179.000000 0.7075 0.7087 0.7097 0.7108 0.7118
3184.000000 0.7128 0.7138 0.7149 0.7157 0.7165
3189.000000 0.7169 0.7175 0.7181 0.7186 0.7191
3194.000000 0.7196 0.7201 0.7207 0.7211 0.7217
3199.000000 0.7221 0.7226 0.7226 0.7226 0.7225
3204.000000 0.7225 0.7225 0.7225 0.7224 0.7230
3209.000000 0.7218 0.7215 0.7212 0.7210 0.7207
3214.000000 0.7204 0.7200 0.7196 0.7191 0.7186
3219.000000 0.7181 0.7175 0.7171 0.7165 0.7161
3224.000000 0.7156 0.7151 0.7146 0.7141 0.7136
3229.000000 0.7131 0.7125 0.7119 0.7114 0.7108
3234.000000 0.7101 0.7096 0.7090 0.7084 0.7078
3239.000000 0.7071 0.7064 0.7054 0.7045 0.7035
3244.000000 0.7025 0.7015 0.7006 0.6996 0.6986
3249.000000 0.6975 0.6967 0.6957 0.6948 0.6938
3254.000000 0.6928 0.6918 0.6908 0.6898 0.6887
3259.000000 0.6874 0.6861 0.6848 0.6835 0.6821
3264.000000 0.6810 0.6797 0.6784 0.6771 0.6758
3269.000000 0.6746 0.6733 0.6719 0.6708 0.6694
3274.000000 0.6681 0.6654 0.6628 0.6601 0.6575
3279.000000 0.6548 0.6521 0.6498 0.6474 0.6451
3284.000000 0.6431 0.6410 0.6389 0.6367 0.6346
3289.000000 0.6325 0.6304 0.6266 0.6228 0.6173
3294.000000 0.6119 0.6064 0.6010 0.5959 0.5909
3299.000000 0.5862 0.5816 0.5770 0.5724 0.5677
3304.000000 0.5631 0.5562 0.5495 0.5424 0.5353
3309.000000 0.5262 0.5171 0.5068 0.4965 0.4827
3314.000000 0.4689 0.4348 0.4008 0.3912 0.3818
3319.000000 0.3759 0.3702 0.3650 0.3598 0.3582
3324.000000 0.3564 0.3570 0.3575 0.3579 0.3584
3329.000000 0.3592 0.3600 0.3624 0.3648 0.3707
3334.000000 0.3766 0.3803 0.3840 0.3886 0.3932
3339.000000 0.3982 0.4034 0.4289 0.4544 0.4758
3344.000000 0.4972 0.5023 0.5075 0.5539 0.6003
3349.000000 0.6187 0.6371 0.6447 0.6524 0.6584
3354.000000 0.6645 0.6689 0.6734 0.6792 0.6851
3359.000000 0.6938 0.7025 0.7091 0.7157 0.7199
3364.000000 0.7242 0.7265 0.7289 0.7305 0.7321
3369.000000 0.7334 0.7347 0.7351 0.7358 0.7361
3374.000000 0.7364 0.7367 0.7371 0.7372 0.7375
3379.000000 0.7375 0.7375 0.7375 0.7375 0.7375
3384.000000 0.7376 0.7376 0.7376 0.7376 0.7375
3389.000000 0.7374 0.7372 0.7371 0.7371 0.7368
3394.000000 0.7368 0.7367 0.7365 0.7365 0.7364
3399.000000 0.7361 0.7361 0.7360 0.7358 0.7357
3404.000000 0.7356 0.7354 0.7353 0.7351 0.7351
3409.000000 0.7349 0.7348 0.7346 0.7345 0.7343
3414.000000 0.7342 0.7340 0.7339 0.7337 0.7336
3419.000000 0.7334 0.7333 0.7331 0.7330 0.7328
3424.000000 0.7325 0.7324 0.7321 0.7319 0.7318
3429.000000 0.7315 0.7314 0.7311 0.7310 0.7308
3434.000000 0.7306 0.7304 0.7301 0.7300 0.7298
3439.000000 0.7296 0.7294 0.7292 0.7290 0.7288
3444.000000 0.7286 0.7284 0.7282 0.7280 0.7278
3449.000000 0.7275 0.7274 0.7271 0.7269 0.7268
3454.000000 0.7265 0.7262 0.7261 0.7258 0.7256
3459.000000 0.7253 0.7251 0.7249 0.7247 0.7244
3464.000000 0.7242 0.7239 0.7237 0.7234 0.7232
3469.000000 0.7228 0.7226 0.7225 0.7222 0.7219
3474.000000 0.7218 0.7215 0.7212 0.7210 0.7208
3479.000000 0.7205 0.7203 0.7200 0.7198 0.7196
3484.000000 0.7194 0.7191 0.7189 0.7186 0.7184
3489.000000 0.7181 0.7178 0.7176 0.7175 0.7171
3494.000000 0.7169 0.7167 0.7165 0.7161 0.7160
3499.000000 0.7157 0.7155 0.7153 0.7151 0.7148
3504.000000 0.7146 0.7143 0.7141 0.7138 0.7136
3509.000000 0.7133 0.7131 0.7128 0.7126 0.7124
3514.000000 0.7121 0.7118 0.7117 0.7114 0.7111
3519.000000 0.7108 0.7107 0.7104 0.7101 0.7100
3524.000000 0.7098 0.7095 0.7093 0.7090 0.7088
3529.000000 0.7085 0.7083 0.7080 0.7078 0.7075
3534.000000 0.7074 0.7071 0.7068 0.7065 0.7064
3539.000000 0.7061 0.7058 0.7056 0.7053 0.7050
3544.000000 0.7048 0.7045 0.7043 0.7040 0.7038
3549.000000 0.7035 0.7033 0.7030 0.7028 0.7025
3554.000000 0.7022 0.7019 0.7018 0.7015 0.7012
3559.000000 0.7010 0.7008 0.7005 0.7003 0.7000
3564.000000 0.6997 0.6994 0.6992 0.6989 0.6987
3569.000000 0.6984 0.6982 0.6980 0.6978 0.6975
3574.000000 0.6972 0.6971 0.6968 0.6967 0.6965
3579.000000 0.6961 0.6960 0.6958 0.6956 0.6953
3584.000000 0.6951 0.6949 0.6947 0.6944 0.6942
3589.000000 0.6940 0.6938 0.6936 0.6934 0.6931
3594.000000 0.6928 0.6926 0.6925 0.6921 0.6919
3599.000000 0.6918 0.6915 0.6914 0.6911 0.6908
3604.000000 0.6907 0.6905 0.6903 0.6900 0.6898
3609.000000 0.6896 0.6894 0.6892 0.6890 0.6887
3614.000000 0.6885 0.6883 0.6881 0.6878 0.6875
3619.000000 0.6874 0.6871 0.6869 0.6868 0.6865
3624.000000 0.6862 0.6861 0.6860 0.6858 0.6857
3629.000000 0.6855 0.6854 0.6851 0.6851 0.6849
3634.000000 0.6848 0.6846 0.6845 0.6843 0.6842
3639.000000 0.6840 0.6839 0.6837 0.6836 0.6834
3644.000000 0.6833 0.6831 0.6830 0.6828 0.6825
3649.000000 0.6824 0.6822 0.6821 0.6819 0.6818
3654.000000 0.6817 0.6815 0.6814 0.6811 0.6811
3659.000000 0.6808 0.6808 0.6806 0.6805 0.6803
3664.000000 0.6801 0.6800 0.6799 0.6797 0.6796
3669.000000 0.6794 0.6793 0.6791 0.6790 0.6788
3674.000000 0.6787 0.6785 0.6784 0.6782 0.6781
3679.000000 0.6780 0.6778 0.6778 0.6776 0.6775
3684.000000 0.6774 0.6772 0.6771 0.6769 0.6768
3689.000000 0.6768 0.6767 0.6765 0.6764 0.6762
3694.000000 0.6761 0.6760 0.6758 0.6758 0.6757
3699.000000 0.6755 0.6754 0.6753 0.6751 0.6750
3704.000000 0.6749 0.6748 0.6747 0.6745 0.6744
3709.000000 0.6743 0.6742 0.6741 0.6740 0.6738
3714.000000 0.6737 0.6734 0.6732 0.6728 0.6726
3719.000000 0.6724 0.6721 0.6718 0.6717 0.6714
3724.000000 0.6711 0.6710 0.6708 0.6705 0.6703
3729.000000 0.6700 0.6698 0.6695 0.6693 0.6690
3734.000000 0.6688 0.6686 0.6684 0.6681 0.6678
3739.000000 0.6675 0.6672 0.6669 0.6667 0.6664
3744.000000 0.6661 0.6658 0.6655 0.6651 0.6649
3749.000000 0.6646 0.6643 0.6640 0.6637 0.6634
3754.000000 0.6631 0.6626 0.6624 0.6621 0.6618
3759.000000 0.6615 0.6611 0.6608 0.6606 0.6603
3764.000000 0.6600 0.6598 0.6596 0.6594 0.6592
3769.000000 0.6590 0.6588 0.6586 0.6584 0.6582
3774.000000 0.6581 0.6578 0.6576 0.6575 0.6572
3779.000000 0.6571 0.6568 0.6567 0.6565 0.6562
3784.000000 0.6561 0.6558 0.6557 0.6555 0.6553
3789.000000 0.6551 0.6549 0.6547 0.6545 0.6543
3794.000000 0.6542 0.6540 0.6538 0.6537 0.6536
##END=
