##TITLE=TRIHEXYPHENIDYL HYDROCHLORIDE
##JCAMP-DX=4.24
$$ By DXEDIT 1.05 (RS McDonald)
##DATA TYPE=INFRARED SPECTRUM
##CLASS=COBLENTZ
##OWNER=COBLENTZ SOC.
Collection (C) 2018 copyright by the U.S. Secretary of Commerce
on behalf of the United States of America. All rights reserved.
##DATE=1962/05/07
##NAMES=1-cyclohexyl-1-phenyl-3-(1-piperidinyl)-1-propanol hydrochloride
3-(1-PIPERIDYL)-1-CYCLOHEXYL-1-PHENYL-1-PROPANOL HYDROCHLORIDE
##MOLFORM=C20 H32 Cl N O
##MP=258.5 C DECOMP.
##SOURCE REFERENCE=COBLENTZ NO. 05116
##$NIST ID=B6005116
##$NIST SOURCE=COBLENTZ
##$NIST IMAGE=cob5116
##SPECTROMETER/DATA SYSTEM=PERKIN-ELMER 21 (GRATING)
##INSTRUMENT PARAMETERS=FILTER AT ABOUT 10 MICRONS
##STATE=SOLID (1 mg / 200 mg KCl DISC) VS KCl
##PATH LENGTH=0.055 CM (THICKNESS)
$$ THE SPLIT IN SPECTRAL FEATURE AT 1001 CM^-^1 IS AN ARTIFACT CAUSED BY FILTER CHANGE
##SAMPLING PROCEDURE=TRANSMISSION
##RESOLUTION=2
##DATA PROCESSING=DIGITIZED BY COBLENTZ SOCIETY (BATCH I) FROM HARD COPY
##XUNITS=1/CM
##YUNITS=TRANSMITTANCE
##XLABEL=Wavenumbers (cm-1)
##YLABEL=Transmittance
##XFACTOR=1
##YFACTOR=1
##DELTAX=1
##FIRSTX=4000
##LASTX=667
##FIRSTY=0.8728
##MAXX=4000
##MINX=667
##MAXY=0.9808
##MINY=0.2881
##NPOINTS=3334
##XYDATA=(X++(Y..Y))
4000.000000 0.8728 0.8730 0.8733 0.8736 0.8739
3995.000000 0.8742 0.8744 0.8747 0.8750 0.8753
3990.000000 0.8756 0.8759 0.8762 0.8765 0.8767
3985.000000 0.8768 0.8771 0.8773 0.8774 0.8775
3980.000000 0.8777 0.8778 0.8778 0.8778 0.8780
3975.000000 0.8780 0.8781 0.8781 0.8781 0.8782
3970.000000 0.8782 0.8782 0.8783 0.8783 0.8783
3965.000000 0.8784 0.8784 0.8784 0.8784 0.8785
3960.000000 0.8785 0.8785 0.8785 0.8785 0.8785
3955.000000 0.8786 0.8786 0.8786 0.8786 0.8786
3950.000000 0.8786 0.8787 0.8787 0.8787 0.8787
3945.000000 0.8787 0.8787 0.8788 0.8788 0.8788
3940.000000 0.8788 0.8788 0.8788 0.8789 0.8790
3935.000000 0.8792 0.8793 0.8795 0.8797 0.8798
3930.000000 0.8801 0.8804 0.8807 0.8810 0.8813
3925.000000 0.8816 0.8818 0.8821 0.8824 0.8827
3920.000000 0.8830 0.8832 0.8835 0.8837 0.8840
3915.000000 0.8842 0.8844 0.8847 0.8849 0.8850
3910.000000 0.8850 0.8851 0.8852 0.8853 0.8854
3905.000000 0.8854 0.8854 0.8854 0.8854 0.8854
3900.000000 0.8855 0.8855 0.8855 0.8856 0.8856
3895.000000 0.8856 0.8857 0.8857 0.8857 0.8857
3890.000000 0.8857 0.8857 0.8858 0.8858 0.8858
3885.000000 0.8859 0.8859 0.8859 0.8859 0.8860
3880.000000 0.8860 0.8860 0.8861 0.8861 0.8861
3875.000000 0.8862 0.8862 0.8862 0.8863 0.8863
3870.000000 0.8863 0.8864 0.8864 0.8864 0.8865
3865.000000 0.8865 0.8865 0.8866 0.8866 0.8867
3860.000000 0.8867 0.8867 0.8868 0.8868 0.8868
3855.000000 0.8868 0.8868 0.8868 0.8870 0.8870
3850.000000 0.8870 0.8871 0.8871 0.8871 0.8871
3845.000000 0.8873 0.8874 0.8875 0.8875 0.8878
3840.000000 0.8878 0.8880 0.8881 0.8882 0.8884
3835.000000 0.8885 0.8886 0.8887 0.8888 0.8890
3830.000000 0.8891 0.8892 0.8893 0.8894 0.8895
3825.000000 0.8897 0.8898 0.8899 0.8900 0.8901
3820.000000 0.8903 0.8904 0.8905 0.8906 0.8908
3815.000000 0.8909 0.8910 0.8912 0.8913 0.8914
3810.000000 0.8916 0.8918 0.8918 0.8921 0.8921
3805.000000 0.8924 0.8925 0.8927 0.8928 0.8930
3800.000000 0.8932 0.8933 0.8935 0.8936 0.8938
3795.000000 0.8939 0.8941 0.8942 0.8944 0.8946
3790.000000 0.8947 0.8949 0.8950 0.8952 0.8953
3785.000000 0.8955 0.8957 0.8958 0.8960 0.8961
3780.000000 0.8962 0.8963 0.8965 0.8966 0.8967
3775.000000 0.8968 0.8970 0.8971 0.8973 0.8974
3770.000000 0.8975 0.8977 0.8978 0.8980 0.8981
3765.000000 0.8983 0.8984 0.8985 0.8986 0.8987
3760.000000 0.8988 0.8989 0.8990 0.8991 0.8993
3755.000000 0.8994 0.8995 0.8996 0.8997 0.8998
3750.000000 0.9000 0.9001 0.9002 0.9003 0.9004
3745.000000 0.9005 0.9006 0.9007 0.9008 0.9009
3740.000000 0.9010 0.9011 0.9012 0.9013 0.9014
3735.000000 0.9016 0.9017 0.9018 0.9018 0.9020
3730.000000 0.9021 0.9021 0.9023 0.9024 0.9025
3725.000000 0.9025 0.9027 0.9028 0.9030 0.9031
3720.000000 0.9032 0.9033 0.9034 0.9035 0.9036
3715.000000 0.9037 0.9038 0.9039 0.9040 0.9042
3710.000000 0.9043 0.9044 0.9045 0.9046 0.9047
3705.000000 0.9048 0.9049 0.9050 0.9051 0.9052
3700.000000 0.9053 0.9054 0.9055 0.9056 0.9057
3695.000000 0.9057 0.9058 0.9059 0.9060 0.9061
3690.000000 0.9062 0.9062 0.9063 0.9064 0.9065
3685.000000 0.9066 0.9067 0.9067 0.9068 0.9068
3680.000000 0.9070 0.9070 0.9071 0.9071 0.9071
3675.000000 0.9071 0.9071 0.9071 0.9071 0.9071
3670.000000 0.9071 0.9071 0.9071 0.9071 0.9071
3665.000000 0.9073 0.9073 0.9073 0.9073 0.9073
3660.000000 0.9073 0.9073 0.9073 0.9073 0.9073
3655.000000 0.9073 0.9073 0.9073 0.9073 0.9073
3650.000000 0.9074 0.9074 0.9074 0.9074 0.9074
3645.000000 0.9074 0.9073 0.9073 0.9071 0.9071
3640.000000 0.9071 0.9070 0.9070 0.9070 0.9068
3635.000000 0.9068 0.9068 0.9068 0.9068 0.9067
3630.000000 0.9066 0.9066 0.9065 0.9065 0.9064
3625.000000 0.9064 0.9063 0.9062 0.9062 0.9062
3620.000000 0.9061 0.9061 0.9061 0.9060 0.9059
3615.000000 0.9058 0.9057 0.9056 0.9054 0.9052
3610.000000 0.9050 0.9048 0.9046 0.9045 0.9043
3605.000000 0.9041 0.9039 0.9038 0.9036 0.9034
3600.000000 0.9032 0.9030 0.9028 0.9025 0.9025
3595.000000 0.9023 0.9021 0.9018 0.9018 0.9015
3590.000000 0.9013 0.9011 0.9008 0.9006 0.9004
3585.000000 0.9001 0.8999 0.8997 0.8994 0.8992
3580.000000 0.8990 0.8987 0.8985 0.8983 0.8980
3575.000000 0.8978 0.8975 0.8973 0.8971 0.8968
3570.000000 0.8966 0.8964 0.8961 0.8959 0.8957
3565.000000 0.8954 0.8952 0.8950 0.8947 0.8944
3560.000000 0.8941 0.8937 0.8933 0.8928 0.8924
3555.000000 0.8918 0.8913 0.8907 0.8901 0.8896
3550.000000 0.8890 0.8884 0.8878 0.8871 0.8866
3545.000000 0.8860 0.8854 0.8848 0.8842 0.8836
3540.000000 0.8827 0.8818 0.8811 0.8802 0.8794
3535.000000 0.8786 0.8778 0.8768 0.8761 0.8753
3530.000000 0.8745 0.8736 0.8728 0.8720 0.8712
3525.000000 0.8703 0.8694 0.8686 0.8677 0.8668
3520.000000 0.8657 0.8646 0.8635 0.8624 0.8613
3515.000000 0.8601 0.8590 0.8578 0.8568 0.8557
3510.000000 0.8546 0.8535 0.8523 0.8512 0.8501
3505.000000 0.8488 0.8475 0.8463 0.8450 0.8437
3500.000000 0.8423 0.8409 0.8395 0.8380 0.8366
3495.000000 0.8353 0.8339 0.8325 0.8311 0.8295
3490.000000 0.8278 0.8262 0.8246 0.8230 0.8210
3485.000000 0.8190 0.8168 0.8149 0.8128 0.8108
3480.000000 0.8088 0.8067 0.8047 0.8025 0.8005
3475.000000 0.7983 0.7961 0.7940 0.7918 0.7897
3470.000000 0.7875 0.7853 0.7831 0.7810 0.7787
3465.000000 0.7765 0.7743 0.7721 0.7704 0.7690
3460.000000 0.7675 0.7661 0.7647 0.7633 0.7618
3455.000000 0.7604 0.7590 0.7575 0.7561 0.7547
3450.000000 0.7532 0.7517 0.7501 0.7485 0.7468
3445.000000 0.7451 0.7434 0.7417 0.7399 0.7382
3440.000000 0.7365 0.7348 0.7326 0.7304 0.7282
3435.000000 0.7258 0.7237 0.7211 0.7186 0.7160
3430.000000 0.7135 0.7112 0.7097 0.7080 0.7064
3425.000000 0.7048 0.7032 0.7017 0.7001 0.6986
3420.000000 0.6971 0.6957 0.6944 0.6930 0.6917
3415.000000 0.6904 0.6891 0.6878 0.6865 0.6853
3410.000000 0.6840 0.6826 0.6814 0.6801 0.6789
3405.000000 0.6775 0.6762 0.6750 0.6738 0.6724
3400.000000 0.6710 0.6695 0.6681 0.6665 0.6651
3395.000000 0.6637 0.6621 0.6607 0.6593 0.6578
3390.000000 0.6562 0.6548 0.6533 0.6517 0.6501
3385.000000 0.6487 0.6471 0.6457 0.6436 0.6415
3380.000000 0.6393 0.6372 0.6350 0.6329 0.6307
3375.000000 0.6286 0.6264 0.6245 0.6227 0.6208
3370.000000 0.6190 0.6172 0.6153 0.6135 0.6117
3365.000000 0.6099 0.6075 0.6048 0.6021 0.5995
3360.000000 0.5966 0.5933 0.5899 0.5866 0.5832
3355.000000 0.5766 0.5685 0.5605 0.5524 0.5455
3350.000000 0.5426 0.5398 0.5369 0.5340 0.5312
3345.000000 0.5287 0.5260 0.5234 0.5207 0.5180
3340.000000 0.5154 0.5127 0.5100 0.5074 0.5047
3335.000000 0.5020 0.4993 0.4967 0.4940 0.4912
3330.000000 0.4886 0.4859 0.4846 0.4833 0.4821
3325.000000 0.4809 0.4802 0.4800 0.4797 0.4798
3320.000000 0.4793 0.4793 0.4793 0.4792 0.4792
3315.000000 0.4792 0.4792 0.4792 0.4792 0.4793
3310.000000 0.4797 0.4800 0.4803 0.4806 0.4817
3305.000000 0.4828 0.4840 0.4852 0.4862 0.4873
3300.000000 0.4883 0.4894 0.4904 0.4916 0.4928
3295.000000 0.4940 0.4952 0.4982 0.5017 0.5051
3290.000000 0.5085 0.5121 0.5159 0.5197 0.5234
3285.000000 0.5272 0.5310 0.5348 0.5386 0.5423
3280.000000 0.5460 0.5499 0.5537 0.5575 0.5612
3275.000000 0.5651 0.5690 0.5728 0.5766 0.5804
3270.000000 0.5842 0.5880 0.5918 0.5957 0.5995
3265.000000 0.6033 0.6071 0.6110 0.6148 0.6186
3260.000000 0.6225 0.6262 0.6301 0.6340 0.6378
3255.000000 0.6417 0.6455 0.6494 0.6532 0.6571
3250.000000 0.6608 0.6648 0.6686 0.6725 0.6764
3245.000000 0.6803 0.6842 0.6881 0.6919 0.6958
3240.000000 0.6997 0.7036 0.7071 0.7099 0.7126
3235.000000 0.7155 0.7182 0.7201 0.7221 0.7241
3230.000000 0.7261 0.7275 0.7289 0.7303 0.7317
3225.000000 0.7328 0.7342 0.7354 0.7365 0.7376
3220.000000 0.7386 0.7396 0.7406 0.7415 0.7425
3215.000000 0.7434 0.7444 0.7453 0.7461 0.7471
3210.000000 0.7481 0.7491 0.7501 0.7511 0.7522
3205.000000 0.7534 0.7546 0.7557 0.7568 0.7581
3200.000000 0.7592 0.7604 0.7615 0.7626 0.7638
3195.000000 0.7650 0.7661 0.7674 0.7688 0.7703
3190.000000 0.7718 0.7733 0.7748 0.7762 0.7778
3185.000000 0.7793 0.7808 0.7822 0.7838 0.7853
3180.000000 0.7871 0.7890 0.7908 0.7928 0.7948
3175.000000 0.7968 0.7988 0.8008 0.8025 0.8042
3170.000000 0.8058 0.8074 0.8089 0.8103 0.8117
3165.000000 0.8131 0.8145 0.8158 0.8171 0.8186
3160.000000 0.8198 0.8211 0.8224 0.8236 0.8245
3155.000000 0.8250 0.8256 0.8261 0.8267 0.8273
3150.000000 0.8278 0.8284 0.8290 0.8295 0.8301
3145.000000 0.8307 0.8312 0.8317 0.8323 0.8328
3140.000000 0.8333 0.8339 0.8344 0.8349 0.8355
3135.000000 0.8361 0.8367 0.8373 0.8377 0.8382
3130.000000 0.8387 0.8391 0.8395 0.8398 0.8401
3125.000000 0.8405 0.8408 0.8411 0.8414 0.8417
3120.000000 0.8418 0.8420 0.8421 0.8424 0.8425
3115.000000 0.8427 0.8450 0.8430 0.8432 0.8433
3110.000000 0.8435 0.8436 0.8437 0.8438 0.8439
3105.000000 0.8440 0.8441 0.8442 0.8442 0.8443
3100.000000 0.8443 0.8443 0.8443 0.8443 0.8443
3095.000000 0.8443 0.8444 0.8444 0.8444 0.8444
3090.000000 0.8444 0.8444 0.8444 0.8444 0.8444
3085.000000 0.8443 0.8441 0.8440 0.8434 0.8425
3080.000000 0.8418 0.8410 0.8404 0.8397 0.8391
3075.000000 0.8385 0.8378 0.8373 0.8367 0.8361
3070.000000 0.8356 0.8351 0.8345 0.8341 0.8337
3065.000000 0.8333 0.8330 0.8325 0.8321 0.8318
3060.000000 0.8315 0.8312 0.8309 0.8306 0.8303
3055.000000 0.8301 0.8299 0.8297 0.8296 0.8294
3050.000000 0.8292 0.8291 0.8289 0.8287 0.8285
3045.000000 0.8283 0.8281 0.8280 0.8278 0.8275
3040.000000 0.8274 0.8273 0.8271 0.8268 0.8267
3035.000000 0.8265 0.8264 0.8262 0.8260 0.8259
3030.000000 0.8257 0.8255 0.8253 0.8251 0.8248
3025.000000 0.8245 0.8242 0.8239 0.8234 0.8228
3020.000000 0.8225 0.8218 0.8213 0.8206 0.8200
3015.000000 0.8192 0.8183 0.8175 0.8165 0.8151
3010.000000 0.8136 0.8121 0.8105 0.8088 0.8071
3005.000000 0.8054 0.8034 0.8014 0.7994 0.7969
3000.000000 0.7933 0.7896 0.7858 0.7822 0.7787
2995.000000 0.7751 0.7715 0.7682 0.7649 0.7615
2990.000000 0.7581 0.7547 0.7512 0.7478 0.7415
2985.000000 0.7349 0.7283 0.7211 0.7130 0.7048
2980.000000 0.6967 0.6872 0.6774 0.6675 0.6575
2975.000000 0.6475 0.6377 0.6278 0.6179 0.6079
2970.000000 0.5980 0.5880 0.5780 0.5681 0.5581
2965.000000 0.5481 0.5381 0.5281 0.5181 0.5081
2960.000000 0.4981 0.4881 0.4780 0.4680 0.4580
2955.000000 0.4479 0.4379 0.4278 0.4177 0.4077
2950.000000 0.3976 0.3875 0.3774 0.3673 0.3571
2945.000000 0.3470 0.3368 0.3266 0.3166 0.3073
2940.000000 0.3020 0.2966 0.2881 0.2895 0.2892
2935.000000 0.2889 0.2885 0.2885 0.2884 0.2884
2930.000000 0.2884 0.2884 0.2884 0.2883 0.2883
2925.000000 0.2883 0.2883 0.2939 0.2996 0.3053
2920.000000 0.3115 0.3181 0.3247 0.3312 0.3378
2915.000000 0.3444 0.3509 0.3575 0.3641 0.3707
2910.000000 0.3773 0.3840 0.3906 0.3972 0.4038
2905.000000 0.4105 0.4171 0.4237 0.4304 0.4370
2900.000000 0.4437 0.4504 0.4570 0.4637 0.4704
2895.000000 0.4771 0.4837 0.4904 0.4971 0.5037
2890.000000 0.5104 0.5171 0.5238 0.5305 0.5373
2885.000000 0.5440 0.5507 0.5553 0.5577 0.5602
2880.000000 0.5622 0.5624 0.5625 0.5627 0.5629
2875.000000 0.5630 0.5631 0.5631 0.5628 0.5626
2870.000000 0.5614 0.5579 0.5544 0.5509 0.5475
2865.000000 0.5440 0.5405 0.5371 0.5336 0.5301
2860.000000 0.5266 0.5231 0.5196 0.5160 0.5128
2855.000000 0.5095 0.5062 0.5057 0.5054 0.5052
2850.000000 0.5052 0.5052 0.5052 0.5076 0.5140
2845.000000 0.5204 0.5268 0.5334 0.5400 0.5466
2840.000000 0.5533 0.5600 0.5666 0.5733 0.5800
2835.000000 0.5866 0.5933 0.6000 0.6067 0.6134
2830.000000 0.6201 0.6268 0.6335 0.6401 0.6468
2825.000000 0.6536 0.6603 0.6671 0.6738 0.6806
2820.000000 0.6872 0.6941 0.7008 0.7075 0.7143
2815.000000 0.7211 0.7278 0.7347 0.7408 0.7438
2810.000000 0.7468 0.7497 0.7506 0.7514 0.7521
2805.000000 0.7528 0.7534 0.7540 0.7544 0.7549
2800.000000 0.7553 0.7557 0.7560 0.7583 0.7567
2795.000000 0.7568 0.7571 0.7572 0.7574 0.7575
2790.000000 0.7575 0.7575 0.7575 0.7574 0.7572
2785.000000 0.7572 0.7571 0.7568 0.7565 0.7561
2780.000000 0.7557 0.7553 0.7549 0.7543 0.7536
2775.000000 0.7528 0.7518 0.7507 0.7496 0.7484
2770.000000 0.7472 0.7461 0.7449 0.7436 0.7422
2765.000000 0.7410 0.7397 0.7383 0.7369 0.7356
2760.000000 0.7343 0.7328 0.7315 0.7303 0.7290
2755.000000 0.7278 0.7265 0.7253 0.7241 0.7228
2750.000000 0.7215 0.7203 0.7191 0.7178 0.7165
2745.000000 0.7153 0.7139 0.7119 0.7100 0.7081
2740.000000 0.7060 0.7039 0.7018 0.6996 0.6975
2735.000000 0.6954 0.6933 0.6911 0.6890 0.6868
2730.000000 0.6847 0.6825 0.6801 0.6780 0.6757
2725.000000 0.6735 0.6711 0.6689 0.6665 0.6643
2720.000000 0.6621 0.6603 0.6585 0.6567 0.6549
2715.000000 0.6531 0.6514 0.6496 0.6478 0.6461
2710.000000 0.6443 0.6424 0.6407 0.6389 0.6371
2705.000000 0.6353 0.6336 0.6318 0.6300 0.6283
2700.000000 0.6265 0.6248 0.6230 0.6212 0.6194
2695.000000 0.6177 0.6159 0.6146 0.6132 0.6119
2690.000000 0.6107 0.6095 0.6082 0.6071 0.6059
2685.000000 0.6047 0.6035 0.6023 0.6009 0.5994
2680.000000 0.5979 0.5960 0.5940 0.5919 0.5892
2675.000000 0.5862 0.5833 0.5791 0.5745 0.5699
2670.000000 0.5653 0.5607 0.5560 0.5514 0.5468
2665.000000 0.5422 0.5376 0.5330 0.5284 0.5237
2660.000000 0.5191 0.5145 0.5098 0.5051 0.5005
2655.000000 0.4958 0.4912 0.4865 0.4819 0.4772
2650.000000 0.4726 0.4679 0.4632 0.4586 0.4539
2645.000000 0.4497 0.4460 0.4373 0.4412 0.4410
2640.000000 0.4409 0.4409 0.4410 0.4410 0.4414
2635.000000 0.4417 0.4428 0.4455 0.4481 0.4514
2630.000000 0.4552 0.4590 0.4628 0.4666 0.4704
2625.000000 0.4742 0.4780 0.4818 0.4856 0.4894
2620.000000 0.4932 0.4971 0.5009 0.5047 0.5085
2615.000000 0.5123 0.5160 0.5200 0.5238 0.5277
2610.000000 0.5315 0.5354 0.5392 0.5430 0.5469
2605.000000 0.5507 0.5546 0.5585 0.5623 0.5662
2600.000000 0.5701 0.5739 0.5778 0.5904 0.5855
2595.000000 0.5875 0.5895 0.5909 0.5910 0.5910
2590.000000 0.5907 0.5902 0.5897 0.5891 0.5886
2585.000000 0.5878 0.5866 0.5853 0.5840 0.5826
2580.000000 0.5812 0.5802 0.5791 0.5780 0.5770
2575.000000 0.5759 0.5741 0.5718 0.5696 0.5662
2570.000000 0.5631 0.5598 0.5566 0.5533 0.5500
2565.000000 0.5468 0.5435 0.5402 0.5370 0.5337
2560.000000 0.5304 0.5271 0.5238 0.5205 0.5172
2555.000000 0.5139 0.5106 0.5075 0.5046 0.5017
2550.000000 0.5001 0.4986 0.4973 0.4966 0.4958
2545.000000 0.4954 0.4952 0.4949 0.4948 0.4947
2540.000000 0.4947 0.4947 0.4947 0.4951 0.4955
2535.000000 0.4962 0.4974 0.4986 0.5016 0.5048
2530.000000 0.5080 0.5110 0.5141 0.5175 0.5209
2525.000000 0.5245 0.5281 0.5318 0.5355 0.5394
2520.000000 0.5432 0.5471 0.5510 0.5548 0.5583
2515.000000 0.5618 0.5647 0.5675 0.5704 0.5732
2510.000000 0.5762 0.5838 0.5912 0.5967 0.6001
2505.000000 0.6036 0.6066 0.6096 0.6124 0.6149
2500.000000 0.6174 0.6186 0.6198 0.6210 0.6222
2495.000000 0.6234 0.6244 0.6255 0.6265 0.6274
2490.000000 0.6284 0.6294 0.6303 0.6312 0.6323
2485.000000 0.6333 0.6344 0.6355 0.6367 0.6379
2480.000000 0.6392 0.6404 0.6417 0.6428 0.6441
2475.000000 0.6454 0.6465 0.6478 0.6492 0.6506
2470.000000 0.6518 0.6533 0.6547 0.6561 0.6574
2465.000000 0.6588 0.6601 0.6615 0.6632 0.6648
2460.000000 0.6664 0.6680 0.6696 0.6711 0.6726
2455.000000 0.6741 0.6755 0.6768 0.6783 0.6796
2450.000000 0.6811 0.6828 0.6860 0.6901 0.6943
2445.000000 0.6984 0.7024 0.7056 0.7085 0.7111
2440.000000 0.7137 0.7161 0.7183 0.7205 0.7219
2435.000000 0.7231 0.7240 0.7245 0.7251 0.7257
2430.000000 0.7262 0.7268 0.7274 0.7280 0.7285
2425.000000 0.7291 0.7296 0.7301 0.7306 0.7311
2420.000000 0.7315 0.7321 0.7325 0.7332 0.7337
2415.000000 0.7342 0.7347 0.7351 0.7357 0.7361
2410.000000 0.7367 0.7371 0.7376 0.7381 0.7385
2405.000000 0.7389 0.7393 0.7396 0.7400 0.7404
2400.000000 0.7408 0.7411 0.7418 0.7424 0.7431
2395.000000 0.7438 0.7445 0.7451 0.7458 0.7465
2390.000000 0.7472 0.7485 0.7496 0.7507 0.7518
2385.000000 0.7528 0.7535 0.7542 0.7550 0.7557
2380.000000 0.7564 0.7571 0.7578 0.7585 0.7592
2375.000000 0.7598 0.7605 0.7611 0.7617 0.7622
2370.000000 0.7628 0.7636 0.7642 0.7648 0.7655
2365.000000 0.7661 0.7669 0.7678 0.7686 0.7694
2360.000000 0.7701 0.7710 0.7718 0.7726 0.7735
2355.000000 0.7743 0.7751 0.7758 0.7768 0.7775
2350.000000 0.7784 0.7794 0.7805 0.7817 0.7831
2345.000000 0.7846 0.7860 0.7874 0.7887 0.7901
2340.000000 0.7912 0.7925 0.7936 0.7947 0.7957
2335.000000 0.7968 0.7978 0.7990 0.8001 0.8011
2330.000000 0.8022 0.8034 0.8045 0.8058 0.8072
2325.000000 0.8088 0.8103 0.8118 0.8134 0.8150
2320.000000 0.8165 0.8182 0.8209 0.8236 0.8268
2315.000000 0.8301 0.8328 0.8356 0.8382 0.8407
2310.000000 0.8430 0.8451 0.8471 0.8492 0.8513
2305.000000 0.8534 0.8553 0.8564 0.8575 0.8585
2300.000000 0.8595 0.8605 0.8614 0.8624 0.8634
2295.000000 0.8641 0.8647 0.8652 0.8656 0.8660
2290.000000 0.8664 0.8668 0.8671 0.8675 0.8678
2285.000000 0.8683 0.8687 0.8691 0.8695 0.8700
2280.000000 0.8704 0.8709 0.8714 0.8718 0.8723
2275.000000 0.8728 0.8732 0.8737 0.8742 0.8746
2270.000000 0.8751 0.8756 0.8760 0.8765 0.8770
2265.000000 0.8775 0.8780 0.8785 0.8790 0.8795
2260.000000 0.8799 0.8804 0.8809 0.8815 0.8820
2255.000000 0.8825 0.8830 0.8835 0.8840 0.8845
2250.000000 0.8850 0.8855 0.8860 0.8865 0.8871
2245.000000 0.8877 0.8884 0.8891 0.8897 0.8904
2240.000000 0.8911 0.8917 0.8924 0.8931 0.8938
2235.000000 0.8945 0.8952 0.8959 0.8967 0.8975
2230.000000 0.8983 0.8991 0.8999 0.9007 0.9015
2225.000000 0.9024 0.9032 0.9040 0.9048 0.9056
2220.000000 0.9065 0.9075 0.9084 0.9093 0.9102
2215.000000 0.9112 0.9121 0.9131 0.9140 0.9149
2210.000000 0.9157 0.9163 0.9168 0.9174 0.9180
2205.000000 0.9185 0.9191 0.9196 0.9201 0.9206
2200.000000 0.9211 0.9216 0.9220 0.9223 0.9225
2195.000000 0.9228 0.9231 0.9234 0.9238 0.9241
2190.000000 0.9243 0.9246 0.9249 0.9252 0.9254
2185.000000 0.9256 0.9258 0.9259 0.9261 0.9263
2180.000000 0.9265 0.9266 0.9268 0.9270 0.9271
2175.000000 0.9273 0.9274 0.9275 0.9278 0.9278
2170.000000 0.9281 0.9283 0.9285 0.9287 0.9289
2165.000000 0.9291 0.9294 0.9297 0.9299 0.9302
2160.000000 0.9305 0.9307 0.9310 0.9313 0.9316
2155.000000 0.9318 0.9321 0.9325 0.9330 0.9335
2150.000000 0.9341 0.9349 0.9357 0.9371 0.9386
2145.000000 0.9397 0.9406 0.9408 0.9410 0.9412
2140.000000 0.9414 0.9417 0.9418 0.9421 0.9421
2135.000000 0.9423 0.9425 0.9427 0.9428 0.9428
2130.000000 0.9430 0.9431 0.9433 0.9434 0.9435
2125.000000 0.9437 0.9439 0.9440 0.9441 0.9442
2120.000000 0.9443 0.9444 0.9445 0.9445 0.9446
2115.000000 0.9448 0.9449 0.9450 0.9450 0.9451
2110.000000 0.9452 0.9453 0.9454 0.9456 0.9457
2105.000000 0.9457 0.9458 0.9459 0.9460 0.9461
2100.000000 0.9462 0.9464 0.9465 0.9466 0.9467
2095.000000 0.9468 0.9468 0.9470 0.9471 0.9471
2090.000000 0.9473 0.9474 0.9475 0.9475 0.9478
2085.000000 0.9480 0.9481 0.9483 0.9485 0.9487
2080.000000 0.9488 0.9490 0.9492 0.9493 0.9495
2075.000000 0.9497 0.9499 0.9500 0.9503 0.9506
2070.000000 0.9508 0.9511 0.9513 0.9515 0.9518
2065.000000 0.9521 0.9523 0.9525 0.9528 0.9532
2060.000000 0.9534 0.9536 0.9539 0.9546 0.9556
2055.000000 0.9565 0.9574 0.9582 0.9590 0.9598
2050.000000 0.9604 0.9609 0.9611 0.9612 0.9614
2045.000000 0.9616 0.9618 0.9620 0.9621 0.9623
2040.000000 0.9625 0.9627 0.9628 0.9630 0.9632
2035.000000 0.9634 0.9636 0.9638 0.9639 0.9641
2030.000000 0.9643 0.9645 0.9647 0.9649 0.9650
2025.000000 0.9652 0.9654 0.9656 0.9658 0.9660
2020.000000 0.9661 0.9662 0.9663 0.9665 0.9667
2015.000000 0.9668 0.9668 0.9670 0.9671 0.9674
2010.000000 0.9675 0.9675 0.9678 0.9678 0.9680
2005.000000 0.9682 0.9684 0.9685 0.9686 0.9687
2000.000000 0.9687 0.9687 0.9688 0.9688 0.9688
1995.000000 0.9688 0.9688 0.9689 0.9689 0.9689
1990.000000 0.9689 0.9689 0.9689 0.9690 0.9690
1985.000000 0.9691 0.9691 0.9691 0.9692 0.9692
1980.000000 0.9692 0.9692 0.9692 0.9691 0.9689
1975.000000 0.9684 0.9675 0.9667 0.9658 0.9649
1970.000000 0.9641 0.9634 0.9627 0.9618 0.9614
1965.000000 0.9610 0.9606 0.9603 0.9599 0.9595
1960.000000 0.9592 0.9590 0.9590 0.9590 0.9590
1955.000000 0.9590 0.9589 0.9589 0.9589 0.9589
1950.000000 0.9589 0.9593 0.9597 0.9602 0.9606
1945.000000 0.9610 0.9614 0.9618 0.9621 0.9625
1940.000000 0.9640 0.9654 0.9666 0.9675 0.9683
1935.000000 0.9690 0.9692 0.9693 0.9694 0.9696
1930.000000 0.9698 0.9700 0.9701 0.9702 0.9704
1925.000000 0.9706 0.9707 0.9709 0.9709 0.9710
1920.000000 0.9710 0.9710 0.9710 0.9710 0.9710
1915.000000 0.9711 0.9711 0.9711 0.9711 0.9711
1910.000000 0.9711 0.9711 0.9709 0.9705 0.9700
1905.000000 0.9695 0.9690 0.9685 0.9681 0.9678
1900.000000 0.9675 0.9671 0.9668 0.9666 0.9663
1895.000000 0.9660 0.9659 0.9658 0.9658 0.9657
1890.000000 0.9657 0.9656 0.9656 0.9658 0.9661
1885.000000 0.9663 0.9665 0.9668 0.9670 0.9671
1880.000000 0.9674 0.9675 0.9678 0.9684 0.9689
1875.000000 0.9696 0.9702 0.9708 0.9714 0.9720
1870.000000 0.9725 0.9731 0.9736 0.9740 0.9743
1865.000000 0.9747 0.9751 0.9754 0.9758 0.9761
1860.000000 0.9764 0.9766 0.9768 0.9771 0.9773
1855.000000 0.9775 0.9778 0.9780 0.9780 0.9777
1850.000000 0.9774 0.9770 0.9766 0.9763 0.9759
1845.000000 0.9755 0.9753 0.9750 0.9748 0.9746
1840.000000 0.9743 0.9741 0.9739 0.9737 0.9735
1835.000000 0.9732 0.9730 0.9728 0.9725 0.9723
1830.000000 0.9721 0.9721 0.9720 0.9718 0.9718
1825.000000 0.9718 0.9718 0.9717 0.9716 0.9716
1820.000000 0.9715 0.9714 0.9713 0.9713 0.9712
1815.000000 0.9711 0.9710 0.9710 0.9710 0.9712
1810.000000 0.9715 0.9718 0.9721 0.9724 0.9727
1805.000000 0.9730 0.9733 0.9736 0.9739 0.9742
1800.000000 0.9744 0.9748 0.9751 0.9755 0.9758
1795.000000 0.9762 0.9765 0.9768 0.9773 0.9775
1790.000000 0.9780 0.9783 0.9786 0.9788 0.9791
1785.000000 0.9793 0.9795 0.9797 0.9798 0.9801
1780.000000 0.9801 0.9801 0.9801 0.9799 0.9797
1775.000000 0.9796 0.9794 0.9792 0.9788 0.9782
1770.000000 0.9775 0.9771 0.9771 0.9771 0.9771
1765.000000 0.9771 0.9771 0.9773 0.9773 0.9773
1760.000000 0.9774 0.9774 0.9775 0.9775 0.9775
1755.000000 0.9775 0.9775 0.9775 0.9775 0.9775
1750.000000 0.9775 0.9775 0.9774 0.9774 0.9774
1745.000000 0.9774 0.9774 0.9774 0.9774 0.9774
1740.000000 0.9774 0.9775 0.9775 0.9777 0.9778
1735.000000 0.9778 0.9778 0.9780 0.9781 0.9782
1730.000000 0.9783 0.9783 0.9784 0.9785 0.9786
1725.000000 0.9787 0.9788 0.9788 0.9786 0.9785
1720.000000 0.9784 0.9782 0.9781 0.9780 0.9777
1715.000000 0.9773 0.9768 0.9766 0.9762 0.9759
1710.000000 0.9757 0.9754 0.9751 0.9747 0.9740
1705.000000 0.9732 0.9725 0.9718 0.9710 0.9705
1700.000000 0.9701 0.9697 0.9697 0.9697 0.9698
1695.000000 0.9698 0.9698 0.9692 0.9684 0.9673
1690.000000 0.9659 0.9645 0.9631 0.9618 0.9605
1685.000000 0.9594 0.9584 0.9574 0.9560 0.9542
1680.000000 0.9528 0.9517 0.9505 0.9494 0.9484
1675.000000 0.9475 0.9468 0.9461 0.9455 0.9454
1670.000000 0.9454 0.9463 0.9474 0.9486 0.9497
1665.000000 0.9506 0.9512 0.9514 0.9517 0.9520
1660.000000 0.9521 0.9524 0.9527 0.9530 0.9532
1655.000000 0.9534 0.9528 0.9516 0.9504 0.9494
1650.000000 0.9484 0.9480 0.9480 0.9481 0.9485
1645.000000 0.9488 0.9491 0.9495 0.9499 0.9502
1640.000000 0.9505 0.9508 0.9511 0.9514 0.9517
1635.000000 0.9518 0.9521 0.9524 0.9525 0.9528
1630.000000 0.9532 0.9534 0.9536 0.9539 0.9541
1625.000000 0.9543 0.9545 0.9547 0.9549 0.9550
1620.000000 0.9550 0.9550 0.9550 0.9549 0.9542
1615.000000 0.9527 0.9511 0.9495 0.9474 0.9446
1610.000000 0.9413 0.9392 0.9375 0.9360 0.9352
1605.000000 0.9301 0.9341 0.9341 0.9358 0.9383
1600.000000 0.9403 0.9423 0.9443 0.9464 0.9484
1595.000000 0.9505 0.9528 0.9555 0.9581 0.9603
1590.000000 0.9618 0.9633 0.9648 0.9663 0.9678
1585.000000 0.9692 0.9702 0.9710 0.9718 0.9725
1580.000000 0.9731 0.9735 0.9738 0.9742 0.9746
1575.000000 0.9749 0.9752 0.9755 0.9758 0.9761
1570.000000 0.9764 0.9766 0.9768 0.9808 0.9764
1565.000000 0.9754 0.9744 0.9735 0.9725 0.9717
1560.000000 0.9709 0.9705 0.9704 0.9702 0.9700
1555.000000 0.9698 0.9697 0.9696 0.9696 0.9697
1550.000000 0.9698 0.9698 0.9699 0.9700 0.9701
1545.000000 0.9701 0.9700 0.9699 0.9699 0.9698
1540.000000 0.9697 0.9697 0.9696 0.9696 0.9697
1535.000000 0.9698 0.9698 0.9699 0.9699 0.9700
1530.000000 0.9700 0.9700 0.9699 0.9697 0.9695
1525.000000 0.9693 0.9691 0.9689 0.9686 0.9682
1520.000000 0.9678 0.9675 0.9670 0.9664 0.9658
1515.000000 0.9644 0.9628 0.9612 0.9589 0.9561
1510.000000 0.9532 0.9497 0.9456 0.9414 0.9351
1505.000000 0.9280 0.9217 0.8920 0.8430 0.8408
1500.000000 0.8399 0.8396 0.8397 0.8406 0.8447
1495.000000 0.8489 0.8531 0.8571 0.8614 0.8656
1490.000000 0.8698 0.8720 0.8720 0.8720 0.8687
1485.000000 0.8578 0.8444 0.8308 0.8171 0.8078
1480.000000 0.8035 0.7921 0.7696 0.7491 0.7350
1475.000000 0.7221 0.7161 0.7144 0.7132 0.7117
1470.000000 0.7097 0.7075 0.7051 0.7024 0.6996
1465.000000 0.6961 0.6915 0.6868 0.6791 0.6695
1460.000000 0.6551 0.6393 0.6177 0.5960 0.5744
1455.000000 0.5527 0.5310 0.5093 0.4875 0.4658
1450.000000 0.4479 0.4455 0.4455 0.4460 0.4646
1445.000000 0.4955 0.5224 0.5360 0.5523 0.5750
1440.000000 0.6026 0.6289 0.6495 0.6694 0.6874
1435.000000 0.7021 0.7154 0.7292 0.7387 0.7458
1430.000000 0.7532 0.7605 0.7675 0.7743 0.7811
1425.000000 0.7875 0.7937 0.7996 0.8054 0.8106
1420.000000 0.8157 0.8199 0.8237 0.8268 0.8294
1415.000000 0.8315 0.8332 0.8343 0.8353 0.8365
1410.000000 0.8366 0.8367 0.8363 0.8356 0.8345
1405.000000 0.8325 0.8271 0.8161 0.8045 0.7928
1400.000000 0.7811 0.7714 0.7715 0.7744 0.7797
1395.000000 0.7921 0.7897 0.7919 0.7925 0.7911
1390.000000 0.7834 0.7765 0.7767 0.7768 0.7790
1385.000000 0.7880 0.8014 0.8148 0.8283 0.8365
1380.000000 0.8378 0.8391 0.8402 0.8414 0.8425
1375.000000 0.8445 0.8443 0.8451 0.8441 0.8398
1370.000000 0.8356 0.8325 0.8294 0.8252 0.8224
1365.000000 0.8202 0.8185 0.8171 0.8141 0.8161
1360.000000 0.8167 0.8178 0.8197 0.8225 0.8256
1355.000000 0.8285 0.8311 0.8332 0.8368 0.8439
1350.000000 0.8507 0.8547 0.8578 0.8599 0.8620
1345.000000 0.8637 0.8647 0.8657 0.8678 0.8677
1340.000000 0.8675 0.8666 0.8652 0.8636 0.8618
1335.000000 0.8601 0.8583 0.8566 0.8552 0.8542
1330.000000 0.8540 0.8539 0.8527 0.8505 0.8470
1325.000000 0.8428 0.8365 0.8306 0.8248 0.8190
1320.000000 0.8131 0.8074 0.8061 0.8038 0.8060
1315.000000 0.8105 0.8147 0.8183 0.8217 0.8243
1310.000000 0.8270 0.8315 0.8315 0.8316 0.8318
1305.000000 0.8302 0.8268 0.8189 0.8206 0.8206
1300.000000 0.8207 0.8230 0.8258 0.8286 0.8311
1295.000000 0.8335 0.8359 0.8384 0.8409 0.8435
1290.000000 0.8461 0.8485 0.8509 0.8532 0.8551
1285.000000 0.8568 0.8585 0.8606 0.8602 0.8598
1280.000000 0.8578 0.8559 0.8544 0.8530 0.8525
1275.000000 0.8535 0.8544 0.8553 0.8561 0.8571
1270.000000 0.8598 0.8589 0.8542 0.8496 0.8454
1265.000000 0.8409 0.8362 0.8316 0.8277 0.8275
1260.000000 0.8273 0.8284 0.8304 0.8340 0.8387
1255.000000 0.8443 0.8488 0.8531 0.8575 0.8598
1250.000000 0.8598 0.8597 0.8546 0.8358 0.8133
1245.000000 0.7911 0.7884 0.7896 0.7890 0.7934
1240.000000 0.8043 0.8182 0.8281 0.8306 0.8313
1235.000000 0.8312 0.8295 0.8285 0.8284 0.8299
1230.000000 0.8367 0.8455 0.8530 0.8594 0.8639
1225.000000 0.8677 0.8714 0.8753 0.8792 0.8824
1220.000000 0.8849 0.8875 0.8898 0.8918 0.8936
1215.000000 0.8945 0.8945 0.8946 0.8925 0.8882
1210.000000 0.8810 0.8704 0.8578 0.8452 0.8308
1205.000000 0.8088 0.7771 0.7590 0.7494 0.7364
1200.000000 0.7248 0.7237 0.7228 0.7246 0.7365
1195.000000 0.7482 0.7565 0.7574 0.7571 0.7548
1190.000000 0.7572 0.7636 0.7722 0.7824 0.7940
1185.000000 0.8012 0.8062 0.8103 0.8138 0.8149
1180.000000 0.8151 0.8139 0.8110 0.8057 0.7998
1175.000000 0.7972 0.7965 0.7985 0.8065 0.8250
1170.000000 0.8397 0.8499 0.8545 0.8575 0.8603
1165.000000 0.8630 0.8644 0.8632 0.8617 0.8606
1160.000000 0.8599 0.8597 0.8596 0.8605 0.8621
1155.000000 0.8655 0.8702 0.8758 0.8820 0.8827
1150.000000 0.8827 0.8828 0.8828 0.8837 0.8851
1145.000000 0.8870 0.8894 0.8927 0.8928 0.8928
1140.000000 0.8851 0.8735 0.8667 0.8612 0.8583
1135.000000 0.8583 0.8582 0.8600 0.8640 0.8683
1130.000000 0.8705 0.8708 0.8686 0.8634 0.8578
1125.000000 0.8506 0.8442 0.8404 0.8384 0.8370
1120.000000 0.8365 0.8364 0.8368 0.8393 0.8400
1115.000000 0.8413 0.8408 0.8401 0.8394 0.8387
1110.000000 0.8385 0.8382 0.8382 0.8382 0.8386
1105.000000 0.8393 0.8403 0.8413 0.8430 0.8454
1100.000000 0.8478 0.8505 0.8531 0.8557 0.8582
1095.000000 0.8605 0.8627 0.8647 0.8664 0.8685
1090.000000 0.8680 0.8682 0.8668 0.8628 0.8560
1085.000000 0.8463 0.8367 0.8264 0.8075 0.7712
1080.000000 0.7721 0.7721 0.7751 0.7826 0.7914
1075.000000 0.7981 0.8065 0.8065 0.8064 0.8038
1070.000000 0.8001 0.7965 0.7936 0.7914 0.7897
1065.000000 0.7887 0.7878 0.7880 0.7875 0.7933
1060.000000 0.8125 0.8259 0.8402 0.8506 0.8581
1055.000000 0.8628 0.8663 0.8688 0.8718 0.8706
1050.000000 0.8702 0.8688 0.8674 0.8645 0.8613
1045.000000 0.8578 0.8542 0.8504 0.8464 0.8423
1040.000000 0.8378 0.8318 0.8233 0.8058 0.7837
1035.000000 0.7684 0.7683 0.7683 0.7812 0.8025
1030.000000 0.8238 0.8428 0.8534 0.8640 0.8741
1025.000000 0.8806 0.8866 0.8908 0.8949 0.8988
1020.000000 0.9018 0.9050 0.9074 0.9088 0.9102
1015.000000 0.9107 0.9107 0.9106 0.9085 0.9028
1010.000000 0.8949 0.8887 0.8845 0.8817 0.8805
1005.000000 0.8806 0.8807 0.8831 0.8995 0.8952
1000.000000 0.8608 0.8678 0.8689 0.9053 0.9274
995.000000 0.9334 0.9353 0.9348 0.9344 0.9334
990.000000 0.9278 0.9198 0.9112 0.9034 0.8977
985.000000 0.8932 0.8902 0.8875 0.8855 0.8834
980.000000 0.8812 0.8786 0.8750 0.8708 0.8627
975.000000 0.8521 0.8393 0.8254 0.8121 0.7395
970.000000 0.7076 0.6581 0.6321 0.6230 0.6199
965.000000 0.6226 0.6606 0.6925 0.7197 0.7475
960.000000 0.7701 0.7875 0.8005 0.8126 0.8215
955.000000 0.8283 0.8342 0.8368 0.8368 0.8362
950.000000 0.8361 0.8386 0.8445 0.8484 0.8535
945.000000 0.8518 0.8531 0.8510 0.8401 0.8237
940.000000 0.7984 0.7682 0.7461 0.7369 0.7368
935.000000 0.7368 0.7471 0.7631 0.7876 0.8128
930.000000 0.8380 0.8562 0.8667 0.8761 0.8856
925.000000 0.8948 0.9040 0.9090 0.9121 0.9104
920.000000 0.9104 0.9059 0.8983 0.8924 0.8888
915.000000 0.8881 0.8942 0.9038 0.9127 0.9212
910.000000 0.9281 0.9340 0.9377 0.9415 0.9386
905.000000 0.9386 0.9384 0.9377 0.9371 0.9363
900.000000 0.9347 0.9310 0.9193 0.8936 0.8708
895.000000 0.8665 0.8646 0.8647 0.8721 0.8885
890.000000 0.9028 0.9142 0.9244 0.9273 0.9287
885.000000 0.9298 0.9294 0.9289 0.9282 0.9273
880.000000 0.9268 0.9268 0.9289 0.9341 0.9399
875.000000 0.9467 0.9539 0.9581 0.9612 0.9631
870.000000 0.9647 0.9657 0.9655 0.9663 0.9660
865.000000 0.9640 0.9610 0.9557 0.9468 0.9360
860.000000 0.9243 0.9064 0.9083 0.9114 0.9178
855.000000 0.9205 0.9212 0.9215 0.9230 0.9253
850.000000 0.9286 0.9325 0.9364 0.9401 0.9445
845.000000 0.9493 0.9543 0.9610 0.9665 0.9712
840.000000 0.9737 0.9718 0.9694 0.9696 0.9717
835.000000 0.9736 0.9755 0.9774 0.9778 0.9778
830.000000 0.9778 0.9774 0.9768 0.9768 0.9768
825.000000 0.9768 0.9749 0.9761 0.9768 0.9771
820.000000 0.9771 0.9752 0.9730 0.9712 0.9708
815.000000 0.9715 0.9715 0.9699 0.9700 0.9701
810.000000 0.9724 0.9709 0.9657 0.9657 0.9658
805.000000 0.9637 0.9593 0.9583 0.9605 0.9616
800.000000 0.9623 0.9625 0.9630 0.9639 0.9651
795.000000 0.9663 0.9660 0.9657 0.9652 0.9648
790.000000 0.9643 0.9637 0.9632 0.9620 0.9589
785.000000 0.9560 0.9545 0.9533 0.9511 0.9487
780.000000 0.9457 0.9392 0.9288 0.9148 0.8894
775.000000 0.8537 0.8155 0.8111 0.8115 0.8196
770.000000 0.8245 0.8261 0.8275 0.8288 0.8299
765.000000 0.8308 0.8194 0.8092 0.8007 0.7955
760.000000 0.7921 0.7893 0.7862 0.7761 0.7651
755.000000 0.7631 0.7686 0.8048 0.8325 0.8523
750.000000 0.8694 0.8836 0.8918 0.8998 0.9078
745.000000 0.9159 0.9235 0.9304 0.9313 0.9324
740.000000 0.9367 0.9404 0.9439 0.9457 0.9475
735.000000 0.9510 0.9490 0.9483 0.9475 0.9470
730.000000 0.9463 0.9454 0.9443 0.9434 0.9424
725.000000 0.9404 0.9385 0.9366 0.9332 0.9268
720.000000 0.9201 0.9131 0.9059 0.8954 0.8865
715.000000 0.8788 0.8687 0.8563 0.8389 0.8146
710.000000 0.7799 0.7434 0.7025 0.6607 0.6030
705.000000 0.5595 0.5159 0.4721 0.4376 0.4124
700.000000 0.4142 0.4659 0.5666 0.6646 0.7674
695.000000 0.8055 0.8328 0.8560 0.8714 0.8807
690.000000 0.8871 0.8924 0.8955 0.8983 0.8995
685.000000 0.9004 0.9005 0.8991 0.8990 0.8990
680.000000 0.8968 0.8913 0.8816 0.8689 0.8583
675.000000 0.8514 0.8541 0.8536 0.8461 0.8421
670.000000 0.8408 0.8399 0.8402 0.8475
##END=
