##TITLE=[1,2,5]THIADIAZOLO[3,4-d]PYRIMIDINE, 7-(HYDROXYAMINO)-
##JCAMP-DX=4.24
##DATA TYPE=INFRARED SPECTRUM
##CLASS=COBLENTZ III
##ORIGIN=SOUTHERN RES. INSTITUTE
##OWNER=COBLENTZ SOCIETY
Collection (C) 2018 copyright by the U.S. Secretary of Commerce
on behalf of the United States of America. All rights reserved.
##DATE=1963/12/06
##NAMES=N-[1,2,5]thiadiazolo[3,4-d]pyrimidin-7-ylhydroxylamine
7-(hydroxyamino)[1,2,5]thiadiazolo[3,4-d]pyrimidine
##MOLFORM=C4 H3 N5 O S
##SOURCE REFERENCE=COBLENTZ NO. 7718
##$NIST ID=B6007718
##$NIST SOURCE=COBLENTZ
##$NIST IMAGE=cob7718
##SPECTROMETER/DATA SYSTEM=PERKIN-ELMER 221 (GRATING)
##INSTRUMENT PARAMETERS=FILTER AT 980 CM ^-^1, GRATING FOR 4000-1428 CM ^-^1, NaCl PRISM FOR 1428-650 CM^-^1
##STATE=SOLID (1 mg / 500 mg KBr DISC)
##SAMPLING PROCEDURE=TRANSMISSION
##RESOLUTION=4
##DATA PROCESSING=DIGITIZED BY NIST FROM HARD COPY (FROM TWO SEGMENTS)
##XUNITS=1/CM
##YUNITS=TRANSMITTANCE
##XFACTOR=1.000000
##YFACTOR=1
##DELTAX=1.510067
##FIRSTX=603.06
##LASTX=3993.16
##FIRSTY=0.873
##MAXX=3993.16
##MINX=603.06
##MAXY=0.956
##MINY=0.140334
##NPOINTS=2246
##XYDATA=(X++(Y..Y))
603.060000 0.8730 0.8720 0.8701 0.8700 0.8691
610.610335 0.8727 0.8721 0.8702 0.8700 0.8691
618.160670 0.8681 0.8671 0.8662 0.8652 0.8642
625.711005 0.8640 0.8632 0.8615 0.8610 0.8610
633.261340 0.8610 0.8610 0.8631 0.8661 0.8684
640.811675 0.8743 0.8822 0.8869 0.8886 0.8884
648.362010 0.8874 0.8840 0.8803 0.8779 0.8748
655.912345 0.8709 0.8664 0.8625 0.8590 0.8551
663.462680 0.8511 0.8471 0.8437 0.8403 0.8367
671.013015 0.8334 0.8298 0.8269 0.8228 0.8179
678.563350 0.8150 0.8063 0.7930 0.7927 0.7914
686.113685 0.7883 0.7822 0.7748 0.7654 0.7539
693.664020 0.7399 0.7241 0.7052 0.6850 0.6578
701.214355 0.6108 0.5819 0.5510 0.5188 0.5000
708.764690 0.5009 0.5168 0.5788 0.5915 0.6024
716.315025 0.6142 0.6270 0.6349 0.6418 0.6593
723.865360 0.6713 0.6729 0.6721 0.6674 0.6580
731.415695 0.6375 0.6245 0.6153 0.6115 0.6110
738.966030 0.6159 0.6210 0.6300 0.6367 0.6418
746.516365 0.6513 0.6621 0.6723 0.6828 0.6923
754.066700 0.7107 0.7356 0.7580 0.7767 0.7932
761.617035 0.8084 0.8189 0.8268 0.8410 0.8530
769.167370 0.8599 0.8657 0.8691 0.8742 0.8816
776.717705 0.8875 0.8924 0.8969 0.9008 0.9043
784.268040 0.9064 0.9078 0.9094 0.9100 0.9104
791.818375 0.9139 0.9211 0.9253 0.9260 0.9260
799.368710 0.9257 0.9242 0.9217 0.9202 0.9165
806.919045 0.9055 0.8801 0.8631 0.8436 0.7999
814.469380 0.7605 0.7515 0.7430 0.7506 0.8076
822.019715 0.8580 0.8578 0.8251 0.4378 0.4384
829.570050 0.5113 0.5838 0.6317 0.6790 0.7184
837.120385 0.7521 0.7837 0.8161 0.8366 0.8563
844.670720 0.9022 0.9150 0.9169 0.9161 0.9143
852.221055 0.9005 0.8906 0.8711 0.8486 0.8197
859.771390 0.5217 0.3828 0.3142 0.2970 0.3528
867.321725 0.4572 0.5725 0.6312 0.6641 0.6992
874.872060 0.7421 0.7953 0.8288 0.8476 0.8556
882.422395 0.8693 0.8915 0.9137 0.9315 0.9380
889.972730 0.9375 0.9365 0.9282 0.9152 0.9058
897.523065 0.8965 0.8858 0.8672 0.8323 0.7960
905.073400 0.7479 0.6665 0.6138 0.5917 0.5777
912.623735 0.5773 0.5859 0.6107 0.6295 0.6384
920.174070 0.6502 0.6897 0.7755 0.8076 0.8196
927.724405 0.8432 0.9010 0.9062 0.9071 0.9080
935.274740 0.9079 0.9067 0.9038 0.9018 0.8999
942.825075 0.8976 0.8910 0.8696 0.8558 0.7799
950.375410 0.7514 0.7189 0.6806 0.6054 0.5530
957.925745 0.5231 0.4954 0.4930 0.5479 0.5820
965.476080 0.6460 0.7142 0.7258 0.7672 0.8166
973.026415 0.8651 0.8758 0.8829 0.8986 0.9119
980.576750 0.9157 0.9196 0.9245 0.9302 0.9340
988.127085 0.9357 0.9380 0.9409 0.9432 0.9458
995.677420 0.9488 0.9517 0.9536 0.9540 0.9540
1003.227755 0.9535 0.9467 0.9329 0.9181 0.9038
1010.778090 0.8960 0.9100 0.9393 0.9554 0.9560
1018.328425 0.9560 0.9560 0.9556 0.9550 0.9550
1025.878760 0.9547 0.9540 0.9537 0.9530 0.9530
1033.429095 0.9524 0.9510 0.9508 0.9500 0.9498
1040.979430 0.9490 0.9488 0.9478 0.9468 0.9457
1048.529765 0.9440 0.9437 0.9419 0.9409 0.9399
1056.080100 0.9389 0.9380 0.9380 0.9380 0.9380
1063.630435 0.9380 0.9380 0.9370 0.9370 0.9370
1071.180770 0.9370 0.9370 0.9370 0.9361 0.9360
1078.731105 0.9351 0.9350 0.9324 0.9303 0.9267
1086.281440 0.9227 0.9188 0.9141 0.9084 0.9024
1093.831775 0.8965 0.8906 0.8020 0.7463 0.7154
1101.382110 0.7046 0.6632 0.6430 0.7173 0.8331
1108.932445 0.8853 0.8940 0.8984 0.9099 0.9215
1116.482780 0.9256 0.9260 0.9255 0.9250 0.9240
1124.033115 0.9220 0.9196 0.9143 0.9082 0.9047
1131.583450 0.9017 0.8984 0.8936 0.8866 0.8755
1139.133785 0.8483 0.7996 0.7603 0.7403 0.7196
1146.684120 0.6986 0.6830 0.6867 0.7000 0.7095
1154.234455 0.7112 0.7122 0.7207 0.7631 0.8180
1161.784790 0.8346 0.8524 0.8821 0.9104 0.9222
1169.335125 0.9323 0.9350 0.9350 0.9350 0.9350
1176.885460 0.9350 0.9350 0.9350 0.9350 0.9350
1184.435795 0.9350 0.9350 0.9350 0.9350 0.9341
1191.986130 0.9340 0.9331 0.9321 0.9311 0.9293
1199.536465 0.9290 0.9273 0.9254 0.9250 0.9234
1207.086800 0.9215 0.9202 0.9193 0.9183 0.9180
1214.637135 0.9173 0.9170 0.9170 0.9163 0.9160
1222.187470 0.9160 0.9160 0.9154 0.9150 0.9144
1229.737805 0.9140 0.9140 0.9140 0.9140 0.9135
1237.288140 0.9130 0.9130 0.9130 0.9125 0.9115
1244.838475 0.9106 0.9100 0.9096 0.9086 0.9076
1252.388810 0.9066 0.9053 0.9033 0.9017 0.9000
1259.939145 0.8974 0.8954 0.8931 0.8902 0.8875
1267.489480 0.8853 0.8825 0.8803 0.8774 0.8742
1275.039815 0.8708 0.8679 0.8577 0.8557 0.8536
1282.590150 0.8506 0.8474 0.8415 0.8344 0.8131
1290.140485 0.7981 0.7790 0.7562 0.7285 0.6960
1297.690820 0.6141 0.5625 0.5054 0.4322 0.3917
1305.241155 0.3890 0.4328 0.5017 0.5718 0.6427
1312.791490 0.7273 0.7509 0.7646 0.7890 0.8100
1320.341825 0.8219 0.8310 0.8491 0.8540 0.8540
1327.892160 0.8540 0.8455 0.8392 0.8366 0.8353
1335.442495 0.8173 0.7925 0.7795 0.7739 0.7690
1342.992830 0.7622 0.7555 0.7456 0.7245 0.6991
1350.543165 0.6460 0.5905 0.5512 0.5162 0.4786
1358.093500 0.4520 0.4624 0.4846 0.5164 0.5768
1365.643835 0.6410 0.6782 0.7146 0.7439 0.7563
1373.194170 0.7570 0.7567 0.7548 0.7502 0.7449
1380.744505 0.7415 0.7392 0.7360 0.7318 0.7260
1388.294840 0.7168 0.7048 0.6871 0.6671 0.6563
1395.845175 0.6500 0.6368 0.6326 0.6058 0.5308
1403.395510 0.5044 0.4557 0.4169 0.3933 0.3696
1410.945845 0.3460 0.3233 0.2994 0.2990 0.2990
1418.496180 0.3122 0.3232 0.3597 0.3963 0.4310
1426.046515 0.4498 0.4666 0.4963 0.5270 0.5576
1433.596850 0.5865 0.6151 0.6320 0.6465 0.6711
1441.147185 0.6987 0.7256 0.7604 0.8051 0.8301
1448.697520 0.8459 0.8597 0.8673 0.8696 0.8700
1456.247855 0.8706 0.8710 0.8704 0.8694 0.8679
1463.798190 0.8670 0.8659 0.8640 0.8620 0.8590
1471.348525 0.8522 0.8433 0.8363 0.8308 0.8237
1478.898860 0.8155 0.8092 0.8007 0.7891 0.7752
1486.449195 0.7573 0.7346 0.7079 0.6609 0.5892
1493.999530 0.5414 0.4843 0.3972 0.3415 0.2655
1501.549865 0.2410 0.2484 0.2822 0.3089 0.3451
1509.100200 0.4239 0.4663 0.5147 0.6023 0.6801
1516.650535 0.6814 0.6852 0.6879 0.7017 0.7152
1524.200870 0.7422 0.7833 0.8030 0.8079 0.8138
1531.751205 0.8197 0.8238 0.8240 0.7832 0.7407
1539.301540 0.7361 0.7369 0.7614 0.7898 0.8058
1546.851875 0.8196 0.8432 0.8576 0.8671 0.8721
1554.402210 0.8738 0.8755 0.8760 0.8760 0.8753
1561.952545 0.8743 0.8733 0.8710 0.8680 0.8631
1569.502880 0.8559 0.8480 0.8395 0.8247 0.8124
1577.053215 0.8050 0.7981 0.7923 0.7884 0.7776
1584.603550 0.7660 0.7620 0.7596 0.7529 0.7366
1592.153885 0.7052 0.6291 0.4821 0.3565 0.2982
1599.704220 0.2308 0.1844 0.1407 0.1403 0.1471
1607.254555 0.1652 0.1846 0.2144 0.2546 0.3040
1614.804890 0.3755 0.4337 0.5117 0.6441 0.7168
1622.355225 0.7762 0.7768 0.7734 0.7542 0.7269
1629.905560 0.7029 0.6734 0.6204 0.5661 0.3499
1637.455895 0.3140 0.2479 0.2140 0.2140 0.2320
1645.006230 0.2488 0.2898 0.3312 0.3575 0.4082
1652.556565 0.4486 0.4700 0.4897 0.5339 0.6016
1660.106900 0.6537 0.7039 0.7417 0.7675 0.7848
1667.657235 0.7982 0.8110 0.8223 0.8324 0.8578
1675.207570 0.8877 0.9059 0.9121 0.9137 0.9153
1682.757905 0.9167 0.9183 0.9209 0.9257 0.9304
1690.308240 0.9332 0.9346 0.9373 0.9401 0.9421
1697.858575 0.9435 0.9440 0.9440 0.9440 0.9440
1705.408910 0.9435 0.9426 0.9420 0.9416 0.9410
1712.959245 0.9410 0.9406 0.9400 0.9396 0.9387
1720.509580 0.9380 0.9380 0.9380 0.9377 0.9370
1728.059915 0.9370 0.9372 0.9380 0.9380 0.9382
1735.610250 0.9390 0.9392 0.9402 0.9412 0.9421
1743.160585 0.9431 0.9442 0.9461 0.9472 0.9491
1750.710920 0.9501 0.9511 0.9520 0.9520 0.9530
1758.261255 0.9540 0.9540 0.9540 0.9530 0.9530
1765.811590 0.9530 0.9530 0.9530 0.9521 0.9520
1773.361925 0.9520 0.9511 0.9510 0.9502 0.9500
1780.912260 0.9500 0.9500 0.9500 0.9492 0.9490
1788.462595 0.9490 0.9490 0.9497 0.9500 0.9493
1796.012930 0.9490 0.9490 0.9490 0.9484 0.9480
1803.563265 0.9480 0.9480 0.9480 0.9474 0.9470
1811.113600 0.9470 0.9470 0.9470 0.9470 0.9470
1818.663935 0.9470 0.9470 0.9470 0.9470 0.9470
1826.214270 0.9470 0.9470 0.9470 0.9470 0.9470
1833.764605 0.9470 0.9470 0.9470 0.9470 0.9470
1841.314940 0.9470 0.9467 0.9460 0.9458 0.9450
1848.865275 0.9448 0.9438 0.9428 0.9418 0.9410
1856.415610 0.9409 0.9399 0.9389 0.9379 0.9370
1863.965945 0.9370 0.9369 0.9360 0.9360 0.9360
1871.516280 0.9350 0.9340 0.9340 0.9340 0.9340
1879.066615 0.9340 0.9340 0.9340 0.9349 0.9350
1886.616950 0.9350 0.9359 0.9360 0.9360 0.9352
1894.167285 0.9350 0.9350 0.9342 0.9340 0.9332
1901.717620 0.9322 0.9320 0.9313 0.9303 0.9293
1909.267955 0.9290 0.9283 0.9280 0.9273 0.9264
1916.818290 0.9254 0.9250 0.9250 0.9244 0.9240
1924.368625 0.9240 0.9246 0.9250 0.9250 0.9255
1931.918960 0.9265 0.9275 0.9285 0.9295 0.9300
1939.469295 0.9304 0.9310 0.9310 0.9310 0.9310
1947.019630 0.9310 0.9306 0.9300 0.9297 0.9290
1954.569965 0.9287 0.9277 0.9270 0.9267 0.9262
1962.120300 0.9268 0.9260 0.9260 0.9258 0.9246
1969.670635 0.9230 0.9228 0.9217 0.9199 0.9188
1977.220970 0.9169 0.9159 0.9149 0.9140 0.9139
1984.771305 0.9130 0.9130 0.9120 0.9120 0.9110
1992.321640 0.9071 0.9051 0.9012 0.9001 0.8926
1999.871975 0.8865 0.8814 0.8755 0.8695 0.8644
2007.422310 0.8594 0.8581 0.8589 0.8972 0.9028
2014.972645 0.9039 0.9049 0.9068 0.9070 0.9079
2022.522980 0.9080 0.9080 0.9080 0.9089 0.9090
2030.073315 0.9090 0.9090 0.9090 0.9099 0.9100
2037.623650 0.9100 0.9100 0.9100 0.9100 0.9100
2045.173985 0.9100 0.9100 0.9100 0.9100 0.9100
2052.724320 0.9100 0.9100 0.9100 0.9100 0.9100
2060.274655 0.9100 0.9100 0.9100 0.9100 0.9100
2067.824990 0.9100 0.9100 0.9100 0.9100 0.9100
2075.375325 0.9100 0.9100 0.9100 0.9100 0.9100
2082.925660 0.9091 0.9090 0.9090 0.9090 0.9081
2090.475995 0.9080 0.9071 0.9070 0.9070 0.9061
2098.026330 0.9060 0.9051 0.9041 0.9040 0.9040
2105.576665 0.9031 0.9021 0.9011 0.9010 0.9001
2113.127000 0.8991 0.8981 0.8980 0.8971 0.8970
2120.677335 0.8970 0.8961 0.8960 0.8960 0.8969
2128.227670 0.8970 0.8979 0.8980 0.8980 0.8980
2135.778005 0.8980 0.8989 0.8999 0.9000 0.9009
2143.328340 0.9010 0.9010 0.9010 0.9010 0.9010
2150.878675 0.9010 0.9010 0.9001 0.9000 0.9000
2158.429010 0.9000 0.9009 0.9010 0.9010 0.9010
2165.979345 0.9010 0.9019 0.9020 0.9029 0.9030
2173.529680 0.9030 0.9030 0.9030 0.9030 0.9030
2181.080015 0.9021 0.9020 0.9020 0.9020 0.9011
2188.630350 0.9010 0.9010 0.9010 0.9001 0.9000
2196.180685 0.9000 0.9000 0.9000 0.8991 0.8990
2203.731020 0.8990 0.8981 0.8980 0.8971 0.8970
2211.281355 0.8961 0.8951 0.8950 0.8941 0.8940
2218.831690 0.8931 0.8930 0.8921 0.8920 0.8929
2226.382025 0.8939 0.8949 0.8950 0.8950 0.8959
2233.932360 0.8960 0.8969 0.8970 0.8979 0.8980
2241.482695 0.8980 0.8980 0.8971 0.8970 0.8961
2249.033030 0.8960 0.8960 0.8951 0.8950 0.8950
2256.583365 0.8950 0.8950 0.8950 0.8950 0.8950
2264.133700 0.8950 0.8950 0.8950 0.8950 0.8941
2271.684035 0.8940 0.8940 0.8931 0.8930 0.8921
2279.234370 0.8920 0.8920 0.8911 0.8910 0.8910
2286.784705 0.8910 0.8910 0.8910 0.8910 0.8910
2294.335040 0.8910 0.8910 0.8910 0.8910 0.8910
2301.885375 0.8910 0.8910 0.8910 0.8910 0.8910
2309.435710 0.8910 0.8910 0.8910 0.8901 0.8900
2316.986045 0.8891 0.8890 0.8890 0.8881 0.8880
2324.536380 0.8880 0.8880 0.8871 0.8870 0.8861
2332.086715 0.8851 0.8850 0.8850 0.8832 0.8821
2339.637050 0.8820 0.8820 0.8811 0.8810 0.8810
2347.187385 0.8801 0.8800 0.8800 0.8800 0.8809
2354.737720 0.8810 0.8810 0.8819 0.8820 0.8820
2362.288055 0.8820 0.8829 0.8830 0.8830 0.8830
2369.838390 0.8830 0.8830 0.8830 0.8830 0.8830
2377.388725 0.8830 0.8839 0.8840 0.8840 0.8840
2384.939060 0.8840 0.8840 0.8840 0.8840 0.8840
2392.489395 0.8840 0.8840 0.8840 0.8840 0.8840
2400.039730 0.8840 0.8840 0.8840 0.8840 0.8840
2407.590065 0.8840 0.8840 0.8840 0.8831 0.8830
2415.140400 0.8830 0.8821 0.8820 0.8820 0.8820
2422.690735 0.8820 0.8811 0.8792 0.8790 0.8772
2430.241070 0.8761 0.8742 0.8731 0.8730 0.8721
2437.791405 0.8711 0.8710 0.8701 0.8700 0.8700
2445.341740 0.8700 0.8691 0.8690 0.8690 0.8690
2452.892075 0.8690 0.8690 0.8690 0.8690 0.8690
2460.442410 0.8699 0.8700 0.8700 0.8700 0.8700
2467.992745 0.8700 0.8700 0.8700 0.8691 0.8690
2475.543080 0.8681 0.8680 0.8671 0.8670 0.8670
2483.093415 0.8661 0.8651 0.8632 0.8612 0.8610
2490.643750 0.8610 0.8601 0.8600 0.8591 0.8590
2498.194085 0.8581 0.8580 0.8580 0.8580 0.8571
2505.744420 0.8570 0.8561 0.8560 0.8560 0.8551
2513.294755 0.8550 0.8541 0.8540 0.8540 0.8540
2520.845090 0.8540 0.8540 0.8540 0.8540 0.8540
2528.395425 0.8540 0.8540 0.8540 0.8540 0.8540
2535.945760 0.8540 0.8540 0.8540 0.8540 0.8531
2543.496095 0.8530 0.8521 0.8511 0.8510 0.8501
2551.046430 0.8500 0.8491 0.8481 0.8480 0.8480
2558.596765 0.8480 0.8480 0.8480 0.8480 0.8480
2566.147100 0.8480 0.8480 0.8480 0.8480 0.8480
2573.697435 0.8480 0.8480 0.8480 0.8480 0.8480
2581.247770 0.8480 0.8480 0.8480 0.8480 0.8480
2588.798105 0.8480 0.8480 0.8480 0.8489 0.8490
2596.348440 0.8490 0.8490 0.8490 0.8490 0.8490
2603.898775 0.8490 0.8481 0.8480 0.8480 0.8480
2611.449110 0.8480 0.8471 0.8461 0.8451 0.8441
2618.999445 0.8422 0.8411 0.8392 0.8372 0.8361
2626.549780 0.8333 0.8312 0.8301 0.8291 0.8290
2634.100115 0.8281 0.8271 0.8270 0.8270 0.8261
2641.650450 0.8260 0.8251 0.8250 0.8250 0.8241
2649.200785 0.8240 0.8240 0.8240 0.8240 0.8240
2656.751120 0.8240 0.8240 0.8240 0.8240 0.8231
2664.301455 0.8212 0.8192 0.8172 0.8161 0.8142
2671.851790 0.8122 0.8111 0.8083 0.8062 0.8033
2679.402125 0.8030 0.8021 0.8002 0.7991 0.7981
2686.952460 0.7971 0.7952 0.7950 0.7932 0.7921
2694.502795 0.7902 0.7891 0.7872 0.7861 0.7860
2702.053130 0.7851 0.7850 0.7841 0.7831 0.7830
2709.603465 0.7830 0.7830 0.7821 0.7820 0.7820
2717.153800 0.7811 0.7810 0.7810 0.7801 0.7800
2724.704135 0.7800 0.7800 0.7800 0.7791 0.7790
2732.254470 0.7772 0.7761 0.7742 0.7740 0.7713
2739.804805 0.7683 0.7634 0.7593 0.7553 0.7532
2747.355140 0.7503 0.7500 0.7500 0.7482 0.7462
2754.905475 0.7460 0.7442 0.7431 0.7421 0.7402
2762.455810 0.7400 0.7382 0.7371 0.7370 0.7361
2770.006145 0.7351 0.7350 0.7341 0.7340 0.7331
2777.556480 0.7312 0.7274 0.7243 0.7213 0.7174
2785.106815 0.7133 0.7103 0.7082 0.7062 0.7042
2792.657150 0.7031 0.7030 0.7030 0.7021 0.7020
2800.207485 0.7020 0.7020 0.7029 0.7039 0.7049
2807.757820 0.7050 0.7059 0.7069 0.7079 0.7089
2815.308155 0.7090 0.7099 0.7100 0.7109 0.7110
2822.858490 0.7119 0.7120 0.7120 0.7120 0.7120
2830.408825 0.7120 0.7120 0.7120 0.7111 0.7101
2837.959160 0.7091 0.7081 0.7080 0.7062 0.7060
2845.509495 0.7051 0.7041 0.7031 0.6966 0.6951
2853.059830 0.6950 0.6941 0.6940 0.6940 0.6931
2860.610165 0.6921 0.6893 0.6826 0.6756 0.6714
2868.160500 0.6664 0.6633 0.6603 0.6573 0.6543
2875.710835 0.6513 0.6464 0.6369 0.6314 0.6274
2883.261170 0.6270 0.6279 0.6289 0.6290 0.6345
2890.811505 0.6377 0.6398 0.6418 0.6475 0.6489
2898.361840 0.6499 0.6500 0.6491 0.6490 0.6481
2905.912175 0.6480 0.6471 0.6461 0.6451 0.6450
2913.462510 0.6441 0.6431 0.6430 0.6448 0.6450
2921.012845 0.6450 0.6450 0.6395 0.6353 0.6314
2928.563180 0.6274 0.6234 0.6203 0.6173 0.6143
2936.113515 0.6122 0.6120 0.6111 0.6110 0.6119
2943.663850 0.6129 0.6139 0.6140 0.6140 0.6140
2951.214185 0.6140 0.6140 0.6140 0.6140 0.6131
2958.764520 0.6112 0.6110 0.6074 0.6025 0.5984
2966.314855 0.5943 0.5903 0.5863 0.5833 0.5803
2973.865190 0.5782 0.5762 0.5742 0.5713 0.5674
2981.415525 0.5661 0.5651 0.5641 0.5631 0.5621
2988.965860 0.5611 0.5601 0.5591 0.5581 0.5571
2996.516195 0.5561 0.5551 0.5550 0.5541 0.5531
3004.066530 0.5521 0.5520 0.5502 0.5482 0.5453
3011.616865 0.5404 0.5363 0.5250 0.5130 0.5111
3019.167200 0.5101 0.5109 0.5119 0.5175 0.5216
3026.717535 0.5266 0.5288 0.5299 0.5300 0.5282
3034.267870 0.5171 0.4978 0.4851 0.4722 0.4674
3041.818205 0.4670 0.4707 0.4792 0.4910 0.4984
3049.368540 0.5054 0.5279 0.5309 0.5319 0.5320
3056.918875 0.5311 0.5301 0.5282 0.5271 0.5261
3064.469210 0.5242 0.5240 0.5240 0.5231 0.5230
3072.019545 0.5212 0.5201 0.5182 0.5143 0.5113
3079.569880 0.5074 0.5034 0.4994 0.4945 0.4904
3087.120215 0.4863 0.4814 0.4764 0.4723 0.4674
3094.670550 0.4588 0.4534 0.4475 0.4415 0.4355
3102.220885 0.4295 0.4226 0.4156 0.4095 0.4035
3109.771220 0.3984 0.3934 0.3894 0.3872 0.3852
3117.321555 0.3850 0.3841 0.3840 0.3831 0.3830
3124.871890 0.3830 0.3821 0.3820 0.3820 0.3820
3132.422225 0.3793 0.3781 0.3753 0.3723 0.3684
3139.972560 0.3644 0.3613 0.3555 0.3514 0.3455
3147.522895 0.3404 0.3354 0.3295 0.3235 0.3175
3155.073230 0.3115 0.3055 0.2995 0.2935 0.2876
3162.623565 0.2751 0.2694 0.2635 0.2621 0.2602
3170.173900 0.2573 0.2534 0.2503 0.2445 0.2395
3177.724235 0.2344 0.2285 0.2225 0.2165 0.2096
3185.274570 0.2035 0.1966 0.1905 0.1845 0.1795
3192.824905 0.1735 0.1684 0.1643 0.1603 0.1573
3200.375240 0.1543 0.1504 0.1482 0.1453 0.1441
3207.925575 0.1431 0.1430 0.1439 0.1449 0.1459
3215.475910 0.1478 0.1507 0.1528 0.1566 0.1570
3223.026245 0.1607 0.1647 0.1659 0.1733 0.1804
3230.576580 0.1865 0.1925 0.1994 0.2055 0.2115
3238.126915 0.2175 0.2235 0.2295 0.2346 0.2405
3245.677250 0.2456 0.2524 0.2576 0.2625 0.2675
3253.227585 0.2726 0.2767 0.2797 0.2827 0.2866
3260.777920 0.2906 0.2946 0.2959 0.2978 0.2989
3268.328255 0.3017 0.3038 0.3058 0.3078 0.3107
3275.878590 0.3137 0.3176 0.3216 0.3256 0.3296
3283.428925 0.3327 0.3376 0.3417 0.3466 0.3506
3290.979260 0.3556 0.3606 0.3656 0.3705 0.3755
3298.529595 0.3806 0.3856 0.3906 0.3965 0.4016
3306.079930 0.4075 0.4126 0.4185 0.4235 0.4285
3313.630265 0.4345 0.4396 0.4446 0.4496 0.4546
3321.180600 0.4577 0.4598 0.4646 0.4686 0.4735
3328.730935 0.4777 0.4826 0.4867 0.4907 0.4946
3336.281270 0.4986 0.5017 0.5093 0.5164 0.5215
3343.831605 0.5266 0.5297 0.5327 0.5357 0.5378
3351.381940 0.5398 0.5418 0.5447 0.5477 0.5507
3358.932275 0.5547 0.5559 0.5578 0.5607 0.5637
3366.482610 0.5658 0.5724 0.5766 0.5788 0.5799
3374.032945 0.5809 0.5819 0.5838 0.5849 0.5859
3381.583280 0.5869 0.5879 0.5889 0.5890 0.5890
3389.133615 0.5899 0.5909 0.5919 0.5920 0.5920
3396.683950 0.5929 0.5939 0.5940 0.5949 0.5950
3404.234285 0.5959 0.5960 0.5969 0.5979 0.5980
3411.784620 0.5980 0.5989 0.5999 0.6009 0.6010
3419.334955 0.6010 0.6019 0.6029 0.6030 0.6039
3426.885290 0.6040 0.6040 0.6049 0.6050 0.6059
3434.435625 0.6060 0.6069 0.6079 0.6080 0.6098
3441.985960 0.6109 0.6128 0.6139 0.6140 0.6149
3449.536295 0.6159 0.6160 0.6169 0.6170 0.6179
3457.086630 0.6189 0.6199 0.6209 0.6228 0.6248
3464.636965 0.6277 0.6298 0.6318 0.6320 0.6329
3472.187300 0.6339 0.6349 0.6350 0.6359 0.6369
3479.737635 0.6379 0.6380 0.6389 0.6399 0.6409
3487.287970 0.6419 0.6438 0.6449 0.6459 0.6469
3494.838305 0.6479 0.6489 0.6499 0.6509 0.6519
3502.388640 0.6529 0.6539 0.6549 0.6559 0.6569
3509.938975 0.6579 0.6589 0.6599 0.6600 0.6609
3517.489310 0.6637 0.6667 0.6697 0.6727 0.6766
3525.039645 0.6788 0.6817 0.6838 0.6849 0.6850
3532.589980 0.6850 0.6850 0.6859 0.6869 0.6879
3540.140315 0.6880 0.6889 0.6899 0.6909 0.6919
3547.690650 0.6929 0.6939 0.6949 0.6959 0.6969
3555.240985 0.6979 0.6989 0.6999 0.7009 0.7010
3562.791320 0.7028 0.7057 0.7069 0.7079 0.7089
3570.341655 0.7090 0.7099 0.7118 0.7147 0.7159
3577.891990 0.7178 0.7189 0.7208 0.7246 0.7250
3585.442325 0.7259 0.7269 0.7279 0.7280 0.7289
3592.992660 0.7299 0.7327 0.7366 0.7397 0.7418
3600.542995 0.7429 0.7439 0.7458 0.7487 0.7499
3608.093330 0.7509 0.7519 0.7529 0.7530 0.7548
3615.643665 0.7559 0.7560 0.7578 0.7598 0.7618
3623.194000 0.7647 0.7659 0.7678 0.7680 0.7680
3630.744335 0.7689 0.7717 0.7720 0.7729 0.7739
3638.294670 0.7740 0.7740 0.7740 0.7749 0.7759
3645.845005 0.7760 0.7760 0.7760 0.7769 0.7770
3653.395340 0.7770 0.7770 0.7770 0.7770 0.7779
3660.945675 0.7780 0.7771 0.7770 0.7770 0.7761
3668.496010 0.7742 0.7722 0.7711 0.7710 0.7701
3676.046345 0.7700 0.7700 0.7709 0.7710 0.7710
3683.596680 0.7719 0.7738 0.7740 0.7749 0.7759
3691.147015 0.7769 0.7770 0.7788 0.7799 0.7818
3698.697350 0.7829 0.7830 0.7839 0.7840 0.7831
3706.247685 0.7830 0.7830 0.7830 0.7821 0.7820
3713.798020 0.7811 0.7810 0.7801 0.7800 0.7782
3721.348355 0.7771 0.7761 0.7751 0.7741 0.7740
3728.898690 0.7740 0.7731 0.7730 0.7721 0.7720
3736.449025 0.7720 0.7720 0.7711 0.7710 0.7710
3743.999360 0.7710 0.7710 0.7710 0.7710 0.7710
3751.549695 0.7719 0.7720 0.7729 0.7730 0.7730
3759.100030 0.7739 0.7740 0.7749 0.7759 0.7760
3766.650365 0.7760 0.7760 0.7760 0.7760 0.7760
3774.200700 0.7760 0.7760 0.7760 0.7760 0.7760
3781.751035 0.7751 0.7750 0.7750 0.7741 0.7740
3789.301370 0.7731 0.7712 0.7710 0.7710 0.7710
3796.851705 0.7701 0.7691 0.7690 0.7690 0.7681
3804.402040 0.7680 0.7671 0.7661 0.7651 0.7650
3811.952375 0.7650 0.7650 0.7650 0.7650 0.7641
3819.502710 0.7640 0.7640 0.7631 0.7621 0.7620
3827.053045 0.7620 0.7620 0.7620 0.7620 0.7620
3834.603380 0.7620 0.7620 0.7620 0.7611 0.7610
3842.153715 0.7610 0.7610 0.7610 0.7601 0.7600
3849.704050 0.7600 0.7600 0.7591 0.7590 0.7590
3857.254385 0.7590 0.7590 0.7590 0.7590 0.7581
3864.804720 0.7580 0.7571 0.7570 0.7570 0.7570
3872.355055 0.7561 0.7560 0.7560 0.7560 0.7560
3879.905390 0.7560 0.7560 0.7560 0.7560 0.7560
3887.455725 0.7551 0.7550 0.7550 0.7550 0.7541
3895.006060 0.7540 0.7540 0.7540 0.7540 0.7540
3902.556395 0.7540 0.7540 0.7540 0.7540 0.7540
3910.106730 0.7540 0.7540 0.7540 0.7540 0.7540
3917.657065 0.7540 0.7540 0.7540 0.7540 0.7540
3925.207400 0.7540 0.7540 0.7540 0.7540 0.7540
3932.757735 0.7540 0.7531 0.7530 0.7530 0.7530
3940.308070 0.7530 0.7530 0.7530 0.7530 0.7530
3947.858405 0.7530 0.7530 0.7530 0.7530 0.7530
3955.408740 0.7530 0.7530 0.7530 0.7530 0.7530
3962.959075 0.7530 0.7530 0.7530 0.7521 0.7520
3970.509410 0.7520 0.7520 0.7520 0.7520 0.7520
3978.059745 0.7511 0.7510 0.7501 0.7500 0.7500
3985.610080 0.7500 0.7482 0.7480 0.7480 0.7471
3993.160415 0.7470
##END=
