##TITLE=CD3-3-PHENANTHRENE
##JCAMP-DX=4.24
##DATA TYPE=INFRARED SPECTRUM
##CLASS=COBLENTZ
##ORIGIN=CENTRE D'ETUDES NUCLEAIRES DE GRENOBLE
##OWNER=COBLENTZ SOCIETY
Collection (C) 2018 copyright by the U.S. Secretary of Commerce
on behalf of the United States of America. All rights reserved.
##DATE=Not specified, most likely prior to 1970
##NAMES=3-methylphenanthrene
##MOLFORM=C15 H9 D3
##SOURCE REFERENCE=COBLENTZ NO. 4241
##$NIST ID=B6004241
##$NIST SOURCE=COBLENTZ
##$NIST IMAGE=cob4241
##SPECTROMETER/DATA SYSTEM=Not specified, most likely a prism, grating, or hybrid spectrometer.
##STATE=SOLUTION (224 g/L IN HEPTANE)
##PATH LENGTH=0.01 CM
$$PURITY 90%
##SAMPLING PROCEDURE=TRANSMISSION
##RESOLUTION=4
$$SPECTRAL CONTAMINATION DUE TO SOLVENT AROUND 2820 AND 1420 CM^-^1
##DATA PROCESSING=DIGITIZED BY NIST FROM HARD COPY
##XUNITS=MICROMETERS
##YUNITS=TRANSMITTANCE
##XFACTOR=1.000000
##YFACTOR=1
##DELTAX=000.006663
##FIRSTX=2.014
##LASTX=15.9063
##FIRSTY=0.871
##MAXX=15.9063
##MINX=2.014
##MAXY=0.95
##MINY=0.039
##NPOINTS=2086
##XYDATA=(X++(Y..Y))
2.014000 0.8710 0.8730 0.8730 0.8750 0.8750
2.047332 0.8750 0.8760 0.8760 0.8760 0.8760
2.080000 0.8760 0.8760 0.8760 0.8760 0.8760
2.113332 0.8750 0.8730 0.8730 0.8710 0.8710
2.147000 0.8700 0.8680 0.8680 0.8660 0.8660
2.180332 0.8660 0.8660 0.8660 0.8660 0.8680
2.214000 0.8680 0.8700 0.8710 0.8710 0.8730
2.247332 0.8750 0.8750 0.8760 0.8760 0.8780
2.280000 0.8800 0.8810 0.8830 0.8850 0.8860
2.313332 0.8880 0.8900 0.8910 0.8910 0.8930
2.347000 0.8930 0.8960 0.8960 0.8980 0.8980
2.380332 0.8980 0.9000 0.9000 0.9000 0.9000
2.414000 0.9000 0.8980 0.8980 0.8960 0.8960
2.447332 0.8960 0.8960 0.8950 0.8950 0.8950
2.480000 0.8930 0.8930 0.8930 0.8930 0.8930
2.513332 0.8930 0.8910 0.8910 0.8900 0.8900
2.547000 0.8880 0.8860 0.8850 0.8850 0.8830
2.580332 0.8810 0.8800 0.8780 0.8760 0.8760
2.614000 0.8760 0.8780 0.8780 0.8780 0.8780
2.647332 0.8800 0.8800 0.8800 0.8800 0.8800
2.680000 0.8810 0.8810 0.8810 0.8810 0.8810
2.713332 0.8810 0.8810 0.8810 0.8800 0.8800
2.747000 0.8800 0.8800 0.8800 0.8800 0.8800
2.780332 0.8810 0.8810 0.8810 0.8810 0.8830
2.813000 0.8830 0.8810 0.8800 0.8800 0.8800
2.846332 0.8780 0.8780 0.8780 0.8780 0.8780
2.880000 0.8780 0.8780 0.8800 0.8800 0.8800
2.913332 0.8800 0.8800 0.8800 0.8810 0.8810
2.947000 0.8810 0.8810 0.8810 0.8830 0.8830
2.980332 0.8830 0.8810 0.8810 0.8810 0.8810
3.013000 0.8810 0.8810 0.8830 0.8830 0.8810
3.046332 0.8800 0.8780 0.8780 0.8780 0.8780
3.080000 0.8760 0.8760 0.8760 0.8760 0.8750
3.113332 0.8750 0.8750 0.8750 0.8760 0.8780
3.147000 0.8800 0.8830 0.8850 0.8860 0.8900
3.180332 0.8900 0.8910 0.8910 0.8900 0.8880
3.213000 0.8850 0.8830 0.8800 0.8730 0.8630
3.246332 0.8510 0.8460 0.8400 0.8110 0.7330
3.280000 0.6470 0.5890 0.5290 0.4570 0.4520
3.313332 0.4090 0.4090 0.4250 0.4400 0.4550
3.346000 0.4640 0.4840 0.5040 0.5300 0.5840
3.379332 0.5940 0.5990 0.6050 0.6070 0.6070
3.413000 0.6070 0.6050 0.5970 0.5940 0.5890
3.446332 0.5770 0.5650 0.5570 0.5500 0.5490
3.480000 0.5470 0.5420 0.5340 0.5250 0.5240
3.513332 0.5240 0.5250 0.5270 0.5270 0.5220
3.546000 0.5200 0.5190 0.5190 0.5200 0.5300
3.579332 0.5820 0.5900 0.6770 0.7100 0.7820
3.613000 0.7900 0.8760 0.8800 0.9080 0.9200
3.646332 0.9280 0.9350 0.9380 0.9400 0.9400
3.680000 0.9410 0.9460 0.9480 0.9500 0.9500
3.713332 0.9480 0.9450 0.9400 0.9360 0.9350
3.746000 0.9330 0.9310 0.9310 0.9330 0.9360
3.779332 0.9400 0.9430 0.9450 0.9450 0.9410
3.813000 0.9280 0.9260 0.9210 0.9200 0.9210
3.846332 0.9260 0.9310 0.9330 0.9330 0.9330
3.880000 0.9330 0.9310 0.9310 0.9280 0.9250
3.913332 0.9230 0.9210 0.9200 0.9200 0.9200
3.946000 0.9200 0.9200 0.9180 0.9180 0.9180
3.979332 0.9180 0.9160 0.9160 0.9160 0.9160
4.013000 0.9150 0.9150 0.9150 0.9150 0.9150
4.046332 0.9150 0.9150 0.9130 0.9130 0.9130
4.079000 0.9110 0.9110 0.9110 0.9110 0.9110
4.112332 0.9110 0.9110 0.9110 0.9110 0.9110
4.146000 0.9130 0.9130 0.9150 0.9150 0.9150
4.179332 0.9160 0.9160 0.9160 0.9160 0.9150
4.213000 0.9150 0.9150 0.9130 0.9110 0.9110
4.246332 0.9100 0.9060 0.9030 0.9000 0.8950
4.279000 0.8910 0.8880 0.8850 0.8830 0.8830
4.312332 0.8830 0.8830 0.8830 0.8850 0.8850
4.346000 0.8860 0.8860 0.8850 0.8850 0.8830
4.379332 0.8830 0.8810 0.8810 0.8810 0.8830
4.413000 0.8850 0.8860 0.8880 0.8900 0.8880
4.446332 0.8810 0.8800 0.8710 0.8580 0.8480
4.479000 0.8450 0.8400 0.8260 0.8100 0.8010
4.512332 0.7900 0.7780 0.7750 0.7750 0.7770
4.546000 0.7770 0.7730 0.7680 0.7670 0.7630
4.579332 0.7630 0.7780 0.7950 0.8110 0.8280
4.613000 0.8400 0.8500 0.8610 0.8660 0.8710
4.646332 0.8760 0.8780 0.8850 0.8860 0.8880
4.679000 0.8880 0.8850 0.8780 0.8660 0.8500
4.712332 0.8330 0.8310 0.7030 0.7030 0.7620
4.746000 0.7730 0.7980 0.8380 0.8600 0.8710
4.779332 0.8780 0.8830 0.8830 0.8850 0.8850
4.812000 0.8830 0.8830 0.8810 0.8800 0.8750
4.845332 0.8710 0.8700 0.8650 0.8580 0.8430
4.879000 0.8200 0.7520 0.7520 0.7850 0.8200
4.912332 0.8300 0.8600 0.8830 0.8900 0.8930
4.946000 0.8960 0.9000 0.9030 0.9080 0.9100
4.979332 0.9110 0.9130 0.9150 0.9160 0.9180
5.012000 0.9200 0.9200 0.9200 0.9210 0.9210
5.045332 0.9210 0.9210 0.9210 0.9210 0.9210
5.079000 0.9210 0.9210 0.9210 0.9210 0.9210
5.112332 0.9210 0.9210 0.9200 0.9180 0.9150
5.146000 0.9130 0.9080 0.9000 0.8930 0.8850
5.179332 0.8480 0.8360 0.8360 0.8600 0.8700
5.212000 0.8730 0.8710 0.8560 0.8500 0.8410
5.245332 0.8300 0.8110 0.7930 0.7820 0.7780
5.279000 0.7780 0.7800 0.7900 0.8000 0.8080
5.312332 0.8160 0.8280 0.8400 0.8530 0.8660
5.345000 0.8750 0.8830 0.8900 0.8960 0.9030
5.378332 0.9060 0.9080 0.9100 0.9110 0.9110
5.412000 0.9110 0.9110 0.9110 0.9110 0.9110
5.445332 0.9100 0.9100 0.9060 0.9030 0.9000
5.479000 0.8950 0.8910 0.8880 0.8830 0.8800
5.512332 0.8750 0.8700 0.8660 0.8600 0.8550
5.545000 0.8480 0.8410 0.8350 0.8260 0.8230
5.578332 0.8210 0.8200 0.8230 0.8380 0.8480
5.612000 0.8560 0.8600 0.8650 0.8730 0.8780
5.645332 0.8800 0.8800 0.8760 0.8750 0.8710
5.679000 0.8660 0.8600 0.8530 0.8460 0.8230
5.712332 0.8180 0.8180 0.8210 0.8430 0.8510
5.745000 0.8580 0.8650 0.8730 0.8830 0.8950
5.778332 0.9100 0.9180 0.9200 0.9160 0.9030
5.812000 0.8850 0.8710 0.8680 0.8580 0.8550
5.845332 0.8530 0.8530 0.8510 0.8510 0.8530
5.879000 0.8560 0.8610 0.8630 0.8650 0.8660
5.912332 0.8660 0.8650 0.8610 0.8560 0.8550
5.945000 0.8530 0.8510 0.8500 0.8480 0.8450
5.978332 0.8430 0.8400 0.8380 0.8380 0.8400
6.012000 0.8410 0.8450 0.8500 0.8530 0.8560
6.045332 0.8580 0.8600 0.8610 0.8610 0.8630
6.078000 0.8630 0.8630 0.8610 0.8530 0.8430
6.111332 0.8310 0.8210 0.8110 0.8030 0.7970
6.145000 0.7650 0.7330 0.6930 0.6750 0.6420
6.178332 0.6120 0.5620 0.5520 0.5420 0.5320
6.212000 0.5320 0.6250 0.6350 0.6400 0.6380
6.245332 0.5990 0.5720 0.5450 0.4970 0.4970
6.278000 0.5320 0.6020 0.6330 0.6870 0.7270
6.311332 0.7570 0.7780 0.7930 0.8030 0.8130
6.345000 0.8200 0.8280 0.8330 0.8360 0.8380
6.378332 0.8360 0.8330 0.8310 0.8300 0.8300
6.412000 0.8300 0.8310 0.8310 0.8330 0.8350
6.445332 0.8350 0.8350 0.8330 0.8330 0.8310
6.478000 0.8310 0.8330 0.8360 0.8450 0.8480
6.511332 0.8500 0.8530 0.8560 0.8580 0.8600
6.545000 0.8580 0.8560 0.8560 0.8550 0.8510
6.578332 0.8510 0.8410 0.8260 0.8000 0.7650
6.611000 0.7180 0.6850 0.6500 0.6300 0.6080
6.644332 0.5690 0.5470 0.5240 0.5240 0.5490
6.678000 0.6080 0.6500 0.6800 0.7170 0.7420
6.711332 0.7700 0.8110 0.8330 0.8400 0.8650
6.745000 0.8700 0.8760 0.8830 0.8950 0.9110
6.778332 0.9180 0.9230 0.9250 0.9280 0.9300
6.811000 0.9260 0.9260 0.9250 0.9210 0.9200
6.844332 0.9150 0.9110 0.9080 0.9010 0.8930
6.878000 0.8900 0.8800 0.8750 0.8660 0.8580
6.911332 0.8510 0.8480 0.8450 0.8430 0.8410
6.945000 0.8380 0.8360 0.8350 0.8310 0.8280
6.978332 0.8230 0.8180 0.8110 0.8060 0.8050
7.011000 0.7880 0.7720 0.7550 0.7400 0.7230
7.044332 0.7070 0.6900 0.6870 0.6900 0.7120
7.078000 0.7380 0.7600 0.7780 0.7930 0.8280
7.111332 0.8330 0.8330 0.8280 0.8010 0.7830
7.145000 0.7650 0.7150 0.7130 0.7170 0.7250
7.178332 0.7370 0.7600 0.7770 0.7970 0.8160
7.211000 0.8400 0.8600 0.8800 0.8930 0.9030
7.244332 0.9050 0.9080 0.9110 0.9200 0.9210
7.278000 0.9230 0.9210 0.9110 0.9060 0.8910
7.311332 0.8830 0.8750 0.8650 0.8510 0.8480
7.344000 0.8450 0.8430 0.8410 0.8400 0.8380
7.377332 0.8360 0.8350 0.8330 0.8330 0.8350
7.411000 0.8380 0.8430 0.8460 0.8530 0.8600
7.444332 0.8680 0.8800 0.8880 0.8950 0.9000
7.478000 0.9030 0.9100 0.9130 0.9160 0.9180
7.511332 0.9160 0.9130 0.9110 0.9100 0.9100
7.544000 0.9100 0.9100 0.9110 0.9110 0.9150
7.577332 0.9150 0.9160 0.9160 0.9180 0.9180
7.611000 0.9180 0.9160 0.9160 0.9160 0.9180
7.644332 0.9200 0.9200 0.9210 0.9210 0.9210
7.678000 0.9210 0.9210 0.9200 0.9200 0.9150
7.711332 0.9080 0.9000 0.8800 0.8700 0.7980
7.744000 0.7920 0.7920 0.8000 0.8330 0.8580
7.777332 0.8760 0.8880 0.8950 0.9000 0.9030
7.811000 0.9060 0.9100 0.9160 0.9200 0.9260
7.844332 0.9350 0.9400 0.9430 0.9460 0.9460
7.877000 0.9480 0.9500 0.9500 0.9480 0.9450
7.910332 0.9380 0.9300 0.9210 0.9080 0.8980
7.944000 0.8930 0.8850 0.8830 0.8830 0.8830
7.977332 0.8830 0.8810 0.8810 0.8780 0.8610
8.011000 0.8250 0.7970 0.7800 0.7700 0.7570
8.044332 0.7430 0.7300 0.7280 0.7300 0.7420
8.077000 0.7550 0.7570 0.7650 0.7780 0.7950
8.110332 0.8130 0.8300 0.8430 0.8500 0.8650
8.144000 0.8660 0.8660 0.8650 0.8650 0.8580
8.177332 0.8530 0.8480 0.8360 0.8180 0.7850
8.211000 0.7750 0.7600 0.7300 0.7030 0.7030
8.244332 0.7120 0.7230 0.7230 0.7220 0.7020
8.277000 0.6830 0.6670 0.6480 0.6480 0.6720
8.310332 0.6970 0.7220 0.7350 0.7500 0.7630
8.344000 0.7680 0.7720 0.7750 0.7850 0.8030
8.377332 0.8160 0.8260 0.8330 0.8380 0.8410
8.411000 0.8450 0.8460 0.8500 0.8530 0.8550
8.444332 0.8580 0.8610 0.8660 0.8710 0.8760
8.477000 0.8780 0.8800 0.8800 0.8800 0.8800
8.510332 0.8780 0.8780 0.8760 0.8750 0.8750
8.544000 0.8730 0.8730 0.8710 0.8710 0.8700
8.577332 0.8660 0.8560 0.8430 0.8360 0.8250
8.610000 0.8130 0.8010 0.8010 0.8100 0.8180
8.643332 0.8260 0.8360 0.8380 0.8430 0.8430
8.677000 0.8230 0.7850 0.7520 0.7220 0.6900
8.710332 0.6400 0.6400 0.6550 0.6700 0.6870
8.744000 0.7070 0.7220 0.7300 0.7770 0.8030
8.777332 0.8050 0.8160 0.8350 0.8530 0.8650
8.810000 0.8660 0.8680 0.8730 0.8760 0.8780
8.843332 0.8800 0.8810 0.8810 0.8830 0.8850
8.877000 0.8850 0.8850 0.8850 0.8850 0.8830
8.910332 0.8830 0.8830 0.8830 0.8830 0.8830
8.944000 0.8810 0.8800 0.8800 0.8780 0.8760
8.977332 0.8760 0.8750 0.8730 0.8710 0.8700
9.010000 0.8680 0.8650 0.8630 0.8600 0.8560
9.043332 0.8550 0.8510 0.8500 0.8460 0.8430
9.077000 0.8410 0.8400 0.8310 0.8260 0.7980
9.110332 0.7680 0.7530 0.7530 0.7700 0.7870
9.144000 0.8000 0.8110 0.8200 0.8260 0.8330
9.177332 0.8360 0.8400 0.8430 0.8450 0.8460
9.210000 0.8480 0.8510 0.8530 0.8560 0.8600
9.243332 0.8630 0.8660 0.8680 0.8710 0.8750
9.277000 0.8750 0.8760 0.8780 0.8780 0.8810
9.310332 0.8810 0.8830 0.8830 0.8830 0.8810
9.343000 0.8810 0.8800 0.8760 0.8730 0.8730
9.376332 0.8700 0.8660 0.8610 0.8550 0.8480
9.410000 0.8410 0.8330 0.8260 0.8180 0.8100
9.443332 0.8000 0.7930 0.7850 0.7770 0.7700
9.477000 0.7650 0.7580 0.7520 0.7450 0.7400
9.510332 0.7350 0.7280 0.7230 0.7180 0.7120
9.543000 0.7070 0.7000 0.6930 0.6850 0.6780
9.576332 0.6680 0.6600 0.6470 0.6450 0.5600
9.610000 0.5390 0.5170 0.5170 0.5420 0.5890
9.643332 0.6020 0.6420 0.6830 0.6930 0.7070
9.677000 0.7180 0.7320 0.7420 0.7520 0.7580
9.710332 0.7620 0.7670 0.7680 0.7700 0.7700
9.743000 0.7700 0.7680 0.7670 0.7650 0.7650
9.776332 0.7650 0.7670 0.7700 0.7730 0.7780
9.810000 0.7820 0.7880 0.7930 0.7980 0.8010
9.843332 0.8050 0.8080 0.8080 0.8100 0.8130
9.876000 0.8160 0.8250 0.8300 0.8330 0.8360
9.909332 0.8380 0.8400 0.8430 0.8450 0.8460
9.943000 0.8480 0.8500 0.8500 0.8510 0.8530
9.976332 0.8550 0.8560 0.8560 0.8580 0.8580
10.010000 0.8600 0.8600 0.8610 0.8610 0.8610
10.043332 0.8610 0.8610 0.8610 0.8610 0.8610
10.076000 0.8600 0.8580 0.8580 0.8560 0.8560
10.109332 0.8550 0.8500 0.8480 0.8460 0.8480
10.143000 0.8480 0.8510 0.8530 0.8550 0.8560
10.176332 0.8580 0.8600 0.8610 0.8610 0.8630
10.210000 0.8650 0.8660 0.8680 0.8680 0.8700
10.243332 0.8700 0.8710 0.8710 0.8730 0.8750
10.276000 0.8780 0.8780 0.8800 0.8800 0.8810
10.309332 0.8810 0.8810 0.8810 0.8810 0.8830
10.343000 0.8830 0.8830 0.8830 0.8830 0.8830
10.376332 0.8830 0.8830 0.8830 0.8810 0.8810
10.410000 0.8800 0.8800 0.8780 0.8780 0.8750
10.443332 0.8710 0.8700 0.8660 0.8630 0.8610
10.476000 0.8600 0.8560 0.8510 0.8460 0.8360
10.509332 0.8310 0.8300 0.8300 0.8300 0.8280
10.543000 0.8250 0.8210 0.8150 0.8060 0.7620
10.576332 0.7050 0.6500 0.6480 0.6520 0.6820
10.609000 0.7080 0.7250 0.7430 0.7620 0.7750
10.642332 0.8080 0.8430 0.8530 0.8630 0.8760
10.676000 0.8860 0.8910 0.8930 0.8960 0.9000
10.709332 0.9010 0.9030 0.9030 0.9050 0.9050
10.743000 0.9050 0.9030 0.9030 0.9010 0.9000
10.776332 0.8980 0.8980 0.8960 0.8950 0.8900
10.809000 0.8860 0.8810 0.8800 0.8800 0.8780
10.842332 0.8760 0.8750 0.8730 0.8680 0.8630
10.876000 0.8560 0.8510 0.8430 0.8160 0.8030
10.909332 0.7970 0.7880 0.7720 0.7380 0.7070
10.943000 0.6700 0.6280 0.5840 0.5590 0.5340
10.976332 0.4800 0.4250 0.3670 0.3060 0.2720
11.009000 0.2170 0.2140 0.2170 0.2910 0.3290
11.042332 0.3520 0.4090 0.4600 0.5050 0.5450
11.076000 0.6130 0.6420 0.6670 0.6900 0.7120
11.109332 0.7330 0.7530 0.7720 0.7920 0.8110
11.142000 0.8210 0.8300 0.8380 0.8430 0.8500
11.175332 0.8530 0.8580 0.8610 0.8630 0.8660
11.209000 0.8680 0.8700 0.8710 0.8730 0.8750
11.242332 0.8750 0.8750 0.8730 0.8710 0.8710
11.276000 0.8700 0.8650 0.8580 0.8530 0.8480
11.309332 0.8430 0.8400 0.8350 0.8300 0.8250
11.342000 0.8110 0.7880 0.7530 0.7350 0.7020
11.375332 0.6680 0.6350 0.6020 0.6020 0.6370
11.409000 0.6730 0.7050 0.7220 0.7380 0.7600
11.442332 0.7820 0.7820 0.7930 0.7980 0.8010
11.476000 0.8030 0.8030 0.8010 0.7980 0.7870
11.509332 0.7800 0.7650 0.7580 0.7400 0.7150
11.542000 0.6850 0.6500 0.6150 0.5800 0.5640
11.575332 0.5470 0.5200 0.4990 0.4890 0.4820
11.609000 0.4740 0.4640 0.4520 0.4350 0.4100
11.642332 0.3790 0.3370 0.2820 0.2140 0.2040
11.676000 0.2040 0.2120 0.2460 0.2790 0.3120
11.709332 0.3460 0.3770 0.4100 0.4420 0.4740
11.742000 0.5040 0.5320 0.5870 0.6120 0.6330
11.775332 0.6530 0.6750 0.6850 0.6870 0.6900
11.809000 0.7020 0.7100 0.7130 0.7230 0.7320
11.842332 0.7380 0.7450 0.7480 0.7520 0.7530
11.875000 0.7530 0.7550 0.7550 0.7530 0.7530
11.908332 0.7520 0.7500 0.7480 0.7450 0.7370
11.942000 0.7320 0.7250 0.7200 0.7130 0.7070
11.975332 0.7000 0.6980 0.6920 0.6800 0.6720
12.009000 0.6620 0.6530 0.6450 0.6350 0.6250
12.042332 0.6130 0.6000 0.5850 0.5690 0.5500
12.075000 0.5400 0.5290 0.5050 0.4790 0.4490
12.108332 0.4140 0.3770 0.3340 0.3140 0.2540
12.142000 0.2120 0.1680 0.1330 0.1110 0.1030
12.175332 0.0940 0.0860 0.0780 0.0730 0.0630
12.209000 0.0490 0.0460 0.0410 0.0390 0.0410
12.242332 0.0480 0.0530 0.0610 0.0710 0.0860
12.275000 0.1210 0.1430 0.1660 0.1930 0.2190
12.308332 0.2490 0.2790 0.3120 0.3440 0.3770
12.342000 0.4100 0.4370 0.4590 0.4770 0.4940
12.375332 0.5100 0.5290 0.5750 0.6050 0.6250
12.409000 0.6370 0.6530 0.6600 0.6700 0.6780
12.442332 0.6850 0.6950 0.7050 0.7080 0.7100
12.475000 0.7150 0.7200 0.7370 0.7470 0.7530
12.508332 0.7580 0.7630 0.7700 0.7820 0.7820
12.542000 0.7850 0.7900 0.7970 0.8030 0.8100
12.575332 0.8150 0.8160 0.8200 0.8200 0.8210
12.608000 0.8210 0.8210 0.8210 0.8250 0.8330
12.641332 0.8350 0.8360 0.8400 0.8410 0.8410
12.675000 0.8430 0.8460 0.8480 0.8480 0.8480
12.708332 0.8480 0.8480 0.8480 0.8480 0.8480
12.742000 0.8480 0.8500 0.8500 0.8500 0.8510
12.775332 0.8530 0.8530 0.8550 0.8560 0.8610
12.808000 0.8650 0.8680 0.8710 0.8730 0.8750
12.841332 0.8760 0.8760 0.8750 0.8730 0.8710
12.875000 0.8710 0.8680 0.8630 0.8600 0.8560
12.908332 0.8560 0.8550 0.8530 0.8530 0.8500
12.942000 0.8460 0.8400 0.8380 0.8360 0.8360
12.975332 0.8360 0.8380 0.8450 0.8480 0.8530
13.008000 0.8550 0.8580 0.8600 0.8610 0.8630
13.041332 0.8660 0.8680 0.8700 0.8710 0.8730
13.075000 0.8750 0.8760 0.8760 0.8760 0.8760
13.108332 0.8760 0.8750 0.8750 0.8730 0.8700
13.141000 0.8680 0.8660 0.8650 0.8650 0.8630
13.174332 0.8630 0.8610 0.8610 0.8600 0.8580
13.208000 0.8560 0.8550 0.8530 0.8480 0.8460
13.241332 0.8410 0.8330 0.8250 0.8160 0.8080
13.275000 0.8030 0.8000 0.7980 0.7930 0.7850
13.308332 0.7730 0.7620 0.7500 0.7370 0.7270
13.341000 0.7170 0.7080 0.7000 0.6930 0.6870
13.374332 0.6780 0.6650 0.6320 0.5850 0.5650
13.408000 0.5540 0.5390 0.5240 0.4840 0.4340
13.441332 0.3820 0.3310 0.2820 0.2420 0.2140
13.475000 0.2010 0.1740 0.1440 0.1110 0.0980
13.508332 0.0840 0.0660 0.0590 0.0560 0.0530
13.541000 0.0510 0.0510 0.0530 0.0560 0.0590
13.574332 0.0630 0.0680 0.0760 0.0880 0.1260
13.608000 0.1480 0.1740 0.2020 0.2320 0.2620
13.641332 0.2940 0.3270 0.3590 0.3910 0.4200
13.675000 0.4500 0.4770 0.5020 0.5340 0.5900
13.708332 0.6050 0.6170 0.6430 0.6530 0.6750
13.741000 0.6870 0.6880 0.6930 0.6970 0.7000
13.774332 0.7030 0.7030 0.7030 0.7050 0.7050
13.808000 0.7070 0.7070 0.7070 0.7100 0.7100
13.841332 0.7120 0.7130 0.7150 0.7180 0.7220
13.874000 0.7250 0.7280 0.7380 0.7480 0.7570
13.907332 0.7650 0.7730 0.7820 0.7880 0.7950
13.941000 0.8000 0.8060 0.8110 0.8150 0.8200
13.974332 0.8210 0.8250 0.8300 0.8360 0.8430
14.008000 0.8530 0.8610 0.8710 0.8810 0.8880
14.041332 0.8900 0.8930 0.8950 0.8950 0.8950
14.074000 0.8950 0.8930 0.8930 0.8910 0.8900
14.107332 0.8880 0.8860 0.8850 0.8800 0.8750
14.141000 0.8700 0.8610 0.8510 0.8400 0.8110
14.174332 0.7830 0.7630 0.7020 0.6650 0.5990
14.208000 0.5570 0.5440 0.5290 0.4990 0.4390
14.241332 0.4170 0.4020 0.3910 0.3890 0.3920
14.274000 0.4220 0.4690 0.5040 0.5370 0.6020
14.307332 0.6330 0.6650 0.6930 0.7220 0.7470
14.341000 0.7680 0.7920 0.8080 0.8230 0.8330
14.374332 0.8430 0.8480 0.8530 0.8560 0.8610
14.407000 0.8650 0.8680 0.8730 0.8780 0.8800
14.440332 0.8810 0.8830 0.8830 0.8850 0.8850
14.474000 0.8860 0.8880 0.8880 0.8900 0.8900
14.507332 0.8910 0.8930 0.8930 0.8950 0.8950
14.541000 0.8960 0.8960 0.8980 0.8980 0.8980
14.574332 0.9000 0.9000 0.9000 0.9010 0.9010
14.607000 0.9010 0.9030 0.9030 0.9030 0.9030
14.640332 0.9030 0.9030 0.9030 0.9030 0.9030
14.674000 0.9030 0.9030 0.9030 0.9030 0.9030
14.707332 0.9030 0.9030 0.9030 0.9010 0.9010
14.741000 0.9010 0.9010 0.9000 0.9000 0.8980
14.774332 0.8960 0.8950 0.8930 0.8910 0.8900
14.807000 0.8880 0.8860 0.8850 0.8810 0.8780
14.840332 0.8760 0.8730 0.8710 0.8680 0.8660
14.874000 0.8660 0.8660 0.8680 0.8680 0.8700
14.907332 0.8700 0.8710 0.8730 0.8730 0.8750
14.941000 0.8760 0.8780 0.8800 0.8810 0.8850
14.974332 0.8850 0.8860 0.8860 0.8880 0.8900
15.007000 0.8900 0.8910 0.8910 0.8930 0.8950
15.040332 0.8960 0.8980 0.9000 0.9010 0.9010
15.074000 0.9030 0.9030 0.9050 0.9060 0.9080
15.107332 0.9100 0.9110 0.9130 0.9130 0.9150
15.140000 0.9150 0.9180 0.9200 0.9210 0.9210
15.173332 0.9210 0.9210 0.9200 0.9200 0.9200
15.207000 0.9180 0.9180 0.9180 0.9180 0.9180
15.240332 0.9180 0.9200 0.9200 0.9200 0.9180
15.274000 0.9180 0.9180 0.9180 0.9210 0.9210
15.307332 0.9210 0.9210 0.9210 0.9210 0.9210
15.340000 0.9210 0.9210 0.9210 0.9210 0.9210
15.373332 0.9210 0.9210 0.9210 0.9210 0.9210
15.407000 0.9210 0.9210 0.9200 0.9200 0.9200
15.440332 0.9200 0.9200 0.9210 0.9210 0.9210
15.474000 0.9210 0.9210 0.9210 0.9210 0.9210
15.507332 0.9230 0.9230 0.9250 0.9260 0.9280
15.540000 0.9280 0.9280 0.9280 0.9300 0.9300
15.573332 0.9300 0.9300 0.9300 0.9300 0.9280
15.607000 0.9280 0.9280 0.9280 0.9280 0.9280
15.640332 0.9300 0.9300 0.9300 0.9310 0.9310
15.674000 0.9310 0.9310 0.9310 0.9310 0.9310
15.707332 0.9310 0.9310 0.9310 0.9310 0.9310
15.740000 0.9300 0.9280 0.9280 0.9280 0.9280
15.773332 0.9280 0.9300 0.9300 0.9300 0.9280
15.807000 0.9280 0.9280 0.9280 0.9280 0.9280
15.840332 0.9300 0.9300 0.9280 0.9280 0.9260
15.873000 0.9250 0.9230 0.9210 0.9180 0.9150
15.906332 0.9180
##END=
