##TITLE=NONANOIC ACID, 2-CYANOETHYL ESTER
##JCAMP-DX=4.24
##DATA TYPE=INFRARED SPECTRUM
##CLASS=COBLENTZ III
##ORIGIN=E. REGION RESEARCH LAB.
##OWNER=COBLENTZ SOCIETY
Collection (C) 2018 copyright by the U.S. Secretary of Commerce
on behalf of the United States of America. All rights reserved.
##DATE=1957/08/16
##NAMES=2-cyanoethyl nonanoate
##MOLFORM=C12 H21 N O2
##SOURCE REFERENCE=COBLENTZ NO. 9694
##$NIST ID=B6009694
##$NIST SOURCE=COBLENTZ
##$NIST IMAGE=cob9694
##SPECTROMETER/DATA SYSTEM=PERKIN-ELMER 21 (GRATING)
##INSTRUMENT PARAMETERS=NaCl PRISM
##STATE=LIQUID (NEAT)
##PATH LENGTH=0.002 CM
##SAMPLING PROCEDURE=TRANSMISSION
##RESOLUTION=4
##DATA PROCESSING=DIGITIZED BY NIST FROM HARD COPY (FROM TWO SEGMENTS)
##XUNITS=1/CM
##YUNITS=TRANSMITTANCE
##XFACTOR=1.000000
##YFACTOR=1
##DELTAX=0.701945
##FIRSTX=633.315
##LASTX=4007.57
##FIRSTY=0.648
##MAXX=4007.57
##MINX=633.315
##MAXY=0.994
##MINY=0.0141625
##NPOINTS=4808
##XYDATA=(X++(Y..Y))
633.315000 0.6480 0.6500 0.6500 0.6510 0.6510
636.824726 0.6530 0.6540 0.6540 0.6570 0.6580
640.334451 0.6600 0.6610 0.6610 0.6620 0.6650
643.844177 0.6650 0.6680 0.6710 0.6720 0.6740
647.353902 0.6750 0.6760 0.6760 0.6760 0.6760
650.863628 0.6780 0.6790 0.6820 0.6830 0.6830
654.373353 0.6850 0.6850 0.6850 0.6860 0.6920
657.883079 0.6960 0.6990 0.7070 0.7090 0.7090
661.392804 0.7120 0.7160 0.7200 0.7240 0.7260
664.902530 0.7260 0.7270 0.7310 0.7350 0.7380
668.412256 0.7380 0.7400 0.7410 0.7440 0.7440
671.921981 0.7450 0.7450 0.7480 0.7500 0.7510
675.431707 0.7510 0.7520 0.7540 0.7550 0.7570
678.941432 0.7590 0.7620 0.7620 0.7620 0.7650
682.451158 0.7680 0.7690 0.7690 0.7710 0.7710
685.960883 0.7720 0.7720 0.7720 0.7710 0.7710
689.470609 0.7710 0.7710 0.7710 0.7690 0.7690
692.980334 0.7690 0.7690 0.7690 0.7690 0.7690
696.490060 0.7690 0.7690 0.7680 0.7660 0.7660
699.999786 0.7680 0.7680 0.7660 0.7650 0.7640
703.509511 0.7620 0.7610 0.7610 0.7590 0.7590
707.019237 0.7580 0.7550 0.7520 0.7450 0.7440
710.528962 0.7420 0.7340 0.7260 0.7160 0.7100
714.038688 0.7100 0.7030 0.7000 0.6960 0.6930
717.548413 0.6780 0.6620 0.6470 0.6370 0.6300
721.058139 0.6220 0.6200 0.6200 0.6220 0.6220
724.567864 0.6330 0.6400 0.6470 0.6540 0.6650
728.077590 0.6760 0.6880 0.6980 0.7090 0.7120
731.587316 0.7190 0.7260 0.7280 0.7300 0.7310
735.097041 0.7300 0.7350 0.7370 0.7410 0.7420
738.606767 0.7440 0.7440 0.7440 0.7440 0.7440
742.116492 0.7480 0.7510 0.7590 0.7590 0.7610
745.626218 0.7620 0.7640 0.7660 0.7720 0.7750
749.135943 0.7780 0.7780 0.7780 0.7790 0.7800
752.645669 0.7830 0.7860 0.7900 0.7920 0.7930
756.155395 0.7960 0.7960 0.7960 0.7960 0.7960
759.665120 0.7960 0.7960 0.7940 0.7920 0.7900
763.174846 0.7900 0.7890 0.7870 0.7870 0.7870
766.684571 0.7870 0.7890 0.7900 0.7900 0.7900
770.194297 0.7920 0.7930 0.7930 0.7960 0.7970
773.704022 0.8000 0.8030 0.8040 0.8060 0.8070
777.213748 0.8080 0.8100 0.8110 0.8130 0.8140
780.723473 0.8160 0.8160 0.8170 0.8180 0.8230
784.233199 0.8280 0.8320 0.8340 0.8340 0.8350
787.742925 0.8370 0.8380 0.8410 0.8410 0.8410
791.252650 0.8420 0.8420 0.8420 0.8420 0.8420
794.762376 0.8420 0.8420 0.8420 0.8410 0.8410
798.272101 0.8410 0.8410 0.8410 0.8410 0.8410
801.781827 0.8410 0.8390 0.8390 0.8390 0.8380
805.291552 0.8380 0.8380 0.8380 0.8380 0.8380
808.801278 0.8380 0.8380 0.8380 0.8380 0.8380
812.311003 0.8370 0.8370 0.8370 0.8370 0.8370
815.820729 0.8370 0.8370 0.8370 0.8370 0.8370
819.330455 0.8370 0.8370 0.8370 0.8370 0.8370
822.840180 0.8370 0.8370 0.8370 0.8380 0.8370
826.349906 0.8370 0.8370 0.8370 0.8370 0.8370
829.859631 0.8370 0.8370 0.8350 0.8340 0.8320
833.369357 0.8230 0.8180 0.8130 0.8110 0.8040
836.879082 0.8000 0.7970 0.7920 0.7900 0.7890
840.388808 0.7890 0.7890 0.7890 0.7900 0.7920
843.898533 0.7940 0.7940 0.7990 0.8060 0.8140
847.408259 0.8180 0.8300 0.8320 0.8350 0.8390
850.917985 0.8420 0.8480 0.8520 0.8560 0.8600
854.427710 0.8630 0.8650 0.8690 0.8720 0.8720
857.937436 0.8720 0.8720 0.8720 0.8720 0.8700
861.447161 0.8700 0.8670 0.8650 0.8620 0.8600
864.956887 0.8590 0.8580 0.8580 0.8560 0.8560
868.466612 0.8550 0.8550 0.8550 0.8550 0.8550
871.976338 0.8550 0.8560 0.8560 0.8580 0.8590
875.486063 0.8590 0.8600 0.8600 0.8600 0.8620
878.995789 0.8630 0.8630 0.8630 0.8630 0.8630
882.505515 0.8620 0.8620 0.8620 0.8620 0.8620
886.015240 0.8620 0.8620 0.8600 0.8600 0.8600
889.524966 0.8600 0.8600 0.8600 0.8590 0.8580
893.034691 0.8560 0.8550 0.8550 0.8530 0.8530
896.544417 0.8520 0.8520 0.8520 0.8520 0.8510
900.054142 0.8510 0.8510 0.8520 0.8530 0.8530
903.563868 0.8550 0.8550 0.8560 0.8560 0.8590
907.073593 0.8590 0.8600 0.8620 0.8620 0.8630
910.583319 0.8660 0.8690 0.8700 0.8730 0.8730
914.093045 0.8730 0.8750 0.8750 0.8760 0.8760
917.602770 0.8770 0.8770 0.8770 0.8760 0.8760
921.112496 0.8750 0.8730 0.8720 0.8720 0.8700
924.622221 0.8690 0.8660 0.8650 0.8620 0.8590
928.131947 0.8560 0.8530 0.8510 0.8510 0.8510
931.641672 0.8480 0.8390 0.8350 0.8300 0.8210
935.151398 0.8200 0.8180 0.8140 0.8080 0.7970
938.661123 0.7890 0.7850 0.7820 0.7800 0.7790
942.170849 0.7800 0.7820 0.7820 0.7850 0.7900
945.680575 0.7920 0.7960 0.7990 0.8070 0.8170
949.190300 0.8240 0.8280 0.8310 0.8350 0.8390
952.700026 0.8440 0.8480 0.8520 0.8550 0.8580
956.209751 0.8620 0.8660 0.8720 0.8770 0.8860
959.719477 0.8870 0.8890 0.8910 0.8930 0.8960
963.229202 0.9010 0.9050 0.9050 0.9070 0.9080
966.738928 0.9100 0.9100 0.9100 0.9100 0.9080
970.248653 0.9080 0.9080 0.9070 0.9070 0.9050
973.758379 0.9050 0.9040 0.9040 0.9030 0.9010
977.268105 0.8980 0.8940 0.8910 0.8900 0.8890
980.777830 0.8870 0.8840 0.8830 0.8790 0.8730
984.287556 0.8660 0.8660 0.8620 0.8580 0.8530
987.797281 0.8510 0.8380 0.8310 0.8200 0.8180
991.307007 0.7990 0.7870 0.7780 0.7650 0.7590
994.816732 0.7520 0.7450 0.7310 0.7131 0.7070
998.326458 0.6930 0.6830 0.6640 0.6410 0.6200
1001.836184 0.6030 0.5840 0.5730 0.5680 0.5660
1005.345909 0.5660 0.5640 0.5640 0.5630 0.5630
1008.855635 0.5610 0.5610 0.5610 0.5600 0.5600
1012.365360 0.5600 0.5580 0.5580 0.5580 0.5570
1015.875086 0.5570 0.5570 0.5560 0.5540 0.5530
1019.384811 0.5490 0.5460 0.5440 0.5360 0.5250
1022.894537 0.5150 0.5110 0.5000 0.4850 0.4701
1026.404262 0.4530 0.4450 0.4240 0.4040 0.3820
1029.913988 0.3700 0.3580 0.3510 0.3420 0.3370
1033.423714 0.3320 0.3280 0.3240 0.3180 0.3160
1036.933439 0.3130 0.3100 0.3080 0.3070 0.3060
1040.443165 0.3060 0.3060 0.3060 0.3070 0.3070
1043.952890 0.3110 0.3140 0.3170 0.3210 0.3240
1047.462616 0.3310 0.3340 0.3390 0.3460 0.3530
1050.972341 0.3590 0.3660 0.3730 0.3790 0.3860
1054.482067 0.3890 0.3910 0.3960 0.4030 0.4080
1057.991792 0.4150 0.4220 0.4310 0.4380 0.4450
1061.501518 0.4500 0.4590 0.4660 0.4710 0.4770
1065.011244 0.4810 0.4870 0.4900 0.4940 0.4980
1068.520969 0.5020 0.5040 0.5050 0.5050 0.5070
1072.030695 0.5070 0.5070 0.5070 0.5070 0.5070
1075.540420 0.5080 0.5090 0.5110 0.5140 0.5160
1079.050146 0.5190 0.5230 0.5290 0.5360 0.5400
1082.559871 0.5570 0.5600 0.5640 0.5670 0.5700
1086.069597 0.5730 0.5740 0.5750 0.5750 0.5750
1089.579322 0.5750 0.5740 0.5710 0.5680 0.5600
1093.089048 0.5540 0.5350 0.5300 0.5111 0.4981
1096.598774 0.4760 0.4530 0.4430 0.4220 0.3820
1100.108499 0.3161 0.2781 0.2620 0.2540 0.2440
1103.618225 0.2270 0.2100 0.1930 0.1750 0.1690
1107.127950 0.1670 0.1650 0.1640 0.1640 0.1620
1110.637676 0.1620 0.1640 0.1640 0.1670 0.1690
1114.147401 0.1720 0.1750 0.1790 0.1830 0.1910
1117.657127 0.1980 0.2030 0.2120 0.2240 0.2420
1121.166852 0.2520 0.2690 0.2849 0.2960 0.3060
1124.676578 0.3210 0.3320 0.3550 0.3760 0.4010
1128.186304 0.4080 0.4220 0.4459 0.4490 0.4530
1131.696029 0.4530 0.4530 0.4500 0.4490 0.4460
1135.205755 0.4430 0.4410 0.4390 0.4250 0.4150
1138.715480 0.4000 0.3940 0.3730 0.3480 0.3310
1142.225206 0.3200 0.2901 0.2750 0.2541 0.2331
1145.734931 0.2050 0.1790 0.1620 0.1540 0.1150
1149.244657 0.1030 0.0910 0.0710 0.0630 0.0510
1152.754382 0.0360 0.0290 0.0250 0.0220 0.0220
1156.264108 0.0210 0.0190 0.0180 0.0160 0.0160
1159.773834 0.0160 0.0150 0.0150 0.0150 0.0150
1163.283559 0.0160 0.0160 0.0160 0.0160 0.0180
1166.793285 0.0190 0.0210 0.0210 0.0220 0.0230
1170.303010 0.0230 0.0250 0.0280 0.0290 0.0300
1173.812736 0.0320 0.0320 0.0370 0.0420 0.0440
1177.322461 0.0510 0.0560 0.0570 0.0600 0.0640
1180.832187 0.0680 0.0710 0.0740 0.0780 0.0780
1184.341912 0.0810 0.0850 0.1009 0.1030 0.1080
1187.851638 0.1090 0.1090 0.1120 0.1150 0.1170
1191.361364 0.1170 0.1220 0.1260 0.1270 0.1270
1194.871089 0.1290 0.1320 0.1400 0.1430 0.1440
1198.380815 0.1460 0.1460 0.1480 0.1540 0.1600
1201.890540 0.1620 0.1640 0.1690 0.1690 0.1690
1205.400266 0.1690 0.1720 0.1740 0.1740 0.1740
1208.909991 0.1740 0.1740 0.1720 0.1720 0.1720
1212.419717 0.1720 0.1720 0.1710 0.1710 0.1690
1215.929443 0.1680 0.1670 0.1620 0.1600 0.1580
1219.439168 0.1540 0.1530 0.1500 0.1500 0.1480
1222.948894 0.1480 0.1470 0.1460 0.1460 0.1440
1226.458619 0.1440 0.1440 0.1440 0.1440 0.1440
1229.968345 0.1440 0.1440 0.1440 0.1440 0.1440
1233.478070 0.1440 0.1440 0.1440 0.1440 0.1440
1236.987796 0.1440 0.1440 0.1440 0.1440 0.1440
1240.497521 0.1460 0.1460 0.1470 0.1470 0.1470
1244.007247 0.1470 0.1470 0.1480 0.1480 0.1480
1247.516973 0.1480 0.1510 0.1510 0.1530 0.1540
1251.026698 0.1540 0.1550 0.1570 0.1580 0.1610
1254.536424 0.1620 0.1650 0.1680 0.1720 0.1750
1258.046149 0.1780 0.1820 0.1910 0.2000 0.2100
1261.555875 0.2160 0.2260 0.2300 0.2300 0.2370
1265.065600 0.2480 0.2540 0.2620 0.2690 0.2710
1268.575326 0.2730 0.2730 0.2720 0.2720 0.2710
1272.085051 0.2710 0.2720 0.2720 0.2720 0.2720
1275.594777 0.2730 0.2750 0.2790 0.2820 0.2860
1279.104503 0.2890 0.2900 0.2960 0.3010 0.3040
1282.614228 0.3140 0.3160 0.3170 0.3210 0.3270
1286.123954 0.3280 0.3310 0.3370 0.3380 0.3380
1289.633679 0.3410 0.3460 0.3550 0.3600 0.3730
1293.143405 0.3820 0.3870 0.3960 0.3980 0.4000
1296.653130 0.4040 0.4040 0.4070 0.4070 0.4070
1300.162856 0.4050 0.4040 0.4030 0.4010 0.4010
1303.672581 0.4030 0.4030 0.4030 0.4040 0.4050
1307.182307 0.4080 0.4080 0.4100 0.4110 0.4110
1310.692033 0.4110 0.4180 0.4250 0.4280 0.4280
1314.201758 0.4290 0.4290 0.4290 0.4310 0.4310
1317.711484 0.4310 0.4310 0.4310 0.4310 0.4310
1321.221209 0.4320 0.4350 0.4360 0.4360 0.4360
1324.730935 0.4360 0.4330 0.4310 0.4280 0.4240
1328.240660 0.4210 0.4180 0.4170 0.4070 0.3980
1331.750386 0.3900 0.3840 0.3790 0.3760 0.3750
1335.260111 0.3730 0.3750 0.3760 0.3820 0.3830
1338.769837 0.3960 0.3980 0.4010 0.4080 0.4150
1342.279563 0.4180 0.4190 0.4190 0.4190 0.4190
1345.789288 0.4190 0.4180 0.4170 0.4170 0.4120
1349.299014 0.4070 0.4050 0.4030 0.3960 0.3910
1352.808739 0.3900 0.3890 0.3890 0.3890 0.3890
1356.318465 0.3900 0.3900 0.3910 0.3930 0.3940
1359.828190 0.3980 0.4000 0.4080 0.4170 0.4220
1363.337916 0.4260 0.4280 0.4360 0.4480 0.4520
1366.847641 0.4560 0.4590 0.4640 0.4690 0.4690
1370.357367 0.4700 0.4700 0.4700 0.4690 0.4660
1373.867093 0.4630 0.4590 0.4530 0.4490 0.4420
1377.376818 0.4250 0.4120 0.4030 0.3940 0.3830
1380.886544 0.3770 0.3760 0.3750 0.3750 0.3760
1384.396269 0.3790 0.3830 0.3840 0.3860 0.3860
1387.905995 0.3870 0.3890 0.3910 0.3940 0.3970
1391.415720 0.4000 0.4000 0.4040 0.4110 0.4170
1394.925446 0.4210 0.4310 0.4460 0.4629 0.4809
1398.435171 0.5000 0.5140 0.5260 0.5300 0.5420
1401.944897 0.5580 0.5700 0.5730 0.5750 0.5770
1405.454623 0.5750 0.5740 0.5710 0.5670 0.5630
1408.964348 0.5600 0.5530 0.5430 0.5250 0.5160
1412.474074 0.4950 0.4760 0.4700 0.4520 0.4220
1415.983799 0.3900 0.3580 0.3410 0.3310 0.3280
1419.493525 0.3270 0.3250 0.3240 0.3240 0.3230
1423.003250 0.3230 0.3240 0.3350 0.3420 0.3530
1426.512976 0.3670 0.3760 0.3830 0.4000 0.4180
1430.022701 0.4350 0.4480 0.4490 0.4630 0.4780
1433.532427 0.5000 0.5020 0.5040 0.5040 0.5040
1437.042153 0.5020 0.5020 0.5010 0.5000 0.4940
1440.551878 0.4910 0.4870 0.4800 0.4780 0.4760
1444.061604 0.4730 0.4690 0.4620 0.4620 0.4570
1447.571329 0.4560 0.4530 0.4520 0.4430 0.4290
1451.081055 0.4070 0.3970 0.3730 0.3580 0.3321
1454.590780 0.3180 0.2920 0.2890 0.2710 0.2660
1458.100506 0.2620 0.2480 0.2400 0.2270 0.2210
1461.610232 0.2140 0.2130 0.2130 0.2120 0.2120
1465.119957 0.2120 0.2120 0.2120 0.2130 0.2130
1468.629683 0.2160 0.2210 0.2240 0.2340 0.2470
1472.139408 0.2550 0.2730 0.2850 0.3159 0.3509
1475.649134 0.4011 0.4451 0.4900 0.5330 0.5770
1479.158859 0.6050 0.6439 0.6600 0.6780 0.6920
1482.668585 0.7101 0.7330 0.7500 0.7520 0.7610
1486.178310 0.7800 0.7830 0.7890 0.7970 0.8180
1489.688036 0.8370 0.8460 0.8510 0.8550 0.8700
1493.197762 0.8790 0.8840 0.8870 0.8890 0.8910
1496.707487 0.8940 0.9000 0.9040 0.9080 0.9110
1500.217213 0.9120 0.9150 0.9180 0.9260 0.9330
1503.726938 0.9350 0.9360 0.9360 0.9390 0.9390
1507.236664 0.9410 0.9420 0.9420 0.9430 0.9430
1510.746389 0.9450 0.9460 0.9530 0.9550 0.9560
1514.256115 0.9570 0.9590 0.9620 0.9630 0.9640
1517.765840 0.9670 0.9670 0.9670 0.9670 0.9670
1521.275566 0.9670 0.9670 0.9670 0.9690 0.9700
1524.785292 0.9700 0.9700 0.9700 0.9700 0.9690
1528.295017 0.9690 0.9700 0.9710 0.9730 0.9740
1531.804743 0.9760 0.9770 0.9770 0.9780 0.9780
1535.314468 0.9780 0.9780 0.9780 0.9780 0.9780
1538.824194 0.9780 0.9780 0.9780 0.9780 0.9780
1542.333919 0.9780 0.9780 0.9780 0.9780 0.9780
1545.843645 0.9780 0.9780 0.9780 0.9780 0.9800
1549.353370 0.9800 0.9810 0.9830 0.9830 0.9840
1552.863096 0.9850 0.9850 0.9840 0.9840 0.9830
1556.372822 0.9830 0.9810 0.9810 0.9810 0.9800
1559.882547 0.9800 0.9800 0.9800 0.9780 0.9780
1563.392273 0.9780 0.9780 0.9780 0.9780 0.9780
1566.901998 0.9780 0.9780 0.9780 0.9780 0.9780
1570.411724 0.9780 0.9780 0.9780 0.9780 0.9780
1573.921449 0.9780 0.9780 0.9780 0.9780 0.9780
1577.431175 0.9780 0.9780 0.9780 0.9780 0.9780
1580.940900 0.9770 0.9760 0.9760 0.9760 0.9760
1584.450626 0.9760 0.9760 0.9760 0.9760 0.9740
1587.960352 0.9740 0.9740 0.9740 0.9740 0.9730
1591.470077 0.9730 0.9730 0.9730 0.9730 0.9730
1594.979803 0.9710 0.9710 0.9710 0.9700 0.9690
1598.489528 0.9670 0.9660 0.9660 0.9660 0.9640
1601.999254 0.9640 0.9630 0.9630 0.9630 0.9630
1605.508979 0.9630 0.9630 0.9620 0.9620 0.9620
1609.018705 0.9620 0.9600 0.9600 0.9600 0.9600
1612.528430 0.9590 0.9570 0.9570 0.9560 0.9560
1616.038156 0.9550 0.9530 0.9520 0.9500 0.9500
1619.547882 0.9490 0.9490 0.9490 0.9490 0.9480
1623.057607 0.9480 0.9480 0.9480 0.9490 0.9490
1626.567333 0.9490 0.9480 0.9480 0.9480 0.9480
1630.077058 0.9480 0.9480 0.9460 0.9460 0.9460
1633.586784 0.9460 0.9460 0.9460 0.9460 0.9460
1637.096509 0.9480 0.9480 0.9480 0.9480 0.9480
1640.606235 0.9480 0.9480 0.9460 0.9460 0.9450
1644.115960 0.9450 0.9430 0.9410 0.9380 0.9330
1647.625686 0.9330 0.9310 0.9290 0.9280 0.9280
1651.135412 0.9280 0.9260 0.9260 0.9250 0.9250
1654.645137 0.9240 0.9240 0.9220 0.9220 0.9210
1658.154863 0.9210 0.9190 0.9190 0.9190 0.9180
1661.664588 0.9180 0.9170 0.9150 0.9140 0.9140
1665.174314 0.9120 0.9100 0.9070 0.9030 0.8980
1668.684039 0.8940 0.8910 0.8900 0.8870 0.8830
1672.193765 0.8820 0.8790 0.8790 0.8790 0.8770
1675.703490 0.8760 0.8750 0.8730 0.8690 0.8590
1679.213216 0.8520 0.8420 0.8350 0.8200 0.8130
1682.722942 0.8010 0.7960 0.7940 0.7930 0.7890
1686.232667 0.7860 0.7850 0.7830 0.7830 0.7800
1689.742393 0.7790 0.7760 0.7720 0.7520 0.7410
1693.252118 0.7330 0.7270 0.7190 0.7070 0.6860
1696.761844 0.6640 0.6530 0.6470 0.6410 0.6390
1700.271569 0.6340 0.6250 0.6200 0.6170 0.6160
1703.781295 0.6130 0.6120 0.6050 0.5960 0.5890
1707.291021 0.5770 0.5670 0.5600 0.5530 0.5390
1710.800746 0.5140 0.4700 0.4390 0.4120 0.3821
1714.310472 0.3590 0.3380 0.3170 0.2940 0.2750
1717.820197 0.2500 0.2400 0.2270 0.2021 0.1811
1721.329923 0.1640 0.1530 0.1430 0.1270 0.1150
1724.839648 0.1050 0.0950 0.0710 0.0570 0.0390
1728.349374 0.0320 0.0260 0.0230 0.0210 0.0190
1731.859099 0.0180 0.0180 0.0180 0.0180 0.0180
1735.368825 0.0180 0.0190 0.0190 0.0190 0.0210
1738.878551 0.0220 0.0230 0.0260 0.0280 0.0280
1742.388276 0.0300 0.0330 0.0360 0.0390 0.0420
1745.898002 0.0460 0.0490 0.0540 0.0580 0.0610
1749.407727 0.0630 0.0711 0.1020 0.1190 0.1320
1752.917453 0.1460 0.1530 0.1710 0.1860 0.2209
1756.427178 0.2441 0.2761 0.3040 0.3200 0.3410
1759.936904 0.3620 0.3910 0.4040 0.4260 0.4490
1763.446629 0.4700 0.4800 0.4920 0.5150 0.5370
1766.956355 0.5640 0.5840 0.6010 0.6130 0.6270
1770.466081 0.6431 0.6610 0.6640 0.6790 0.6880
1773.975806 0.6910 0.6930 0.7020 0.7100 0.7190
1777.485532 0.7240 0.7300 0.7370 0.7410 0.7420
1780.995257 0.7500 0.7590 0.7640 0.7730 0.7760
1784.504983 0.7800 0.7820 0.7860 0.7900 0.7970
1788.014708 0.8010 0.8060 0.8080 0.8100 0.8100
1791.524434 0.8110 0.8130 0.8160 0.8170 0.8170
1795.034159 0.8170 0.8170 0.8180 0.8200 0.8200
1798.543885 0.8180 0.8180 0.8170 0.8170 0.8170
1802.053611 0.8160 0.8160 0.8160 0.8160 0.8140
1805.563336 0.8140 0.8130 0.8100 0.8080 0.8080
1809.073062 0.8080 0.8080 0.8100 0.8110 0.8110
1812.582787 0.8130 0.8140 0.8170 0.8180 0.8210
1816.092513 0.8240 0.8270 0.8320 0.8370 0.8390
1819.602238 0.8420 0.8450 0.8521 0.8770 0.8840
1823.111964 0.8900 0.8930 0.8970 0.9010 0.9070
1826.621689 0.9150 0.9210 0.9290 0.9310 0.9310
1830.131415 0.9330 0.9350 0.9410 0.9430 0.9480
1833.641141 0.9520 0.9530 0.9550 0.9550 0.9550
1837.150866 0.9560 0.9560 0.9560 0.9570 0.9570
1840.660592 0.9590 0.9600 0.9600 0.9620 0.9620
1844.170317 0.9620 0.9620 0.9620 0.9620 0.9620
1847.680043 0.9630 0.9630 0.9640 0.9640 0.9670
1851.189768 0.9690 0.9700 0.9710 0.9710 0.9730
1854.699494 0.9730 0.9730 0.9740 0.9740 0.9740
1858.209219 0.9740 0.9740 0.9740 0.9740 0.9740
1861.718945 0.9730 0.9730 0.9710 0.9710 0.9710
1865.228671 0.9710 0.9710 0.9730 0.9740 0.9760
1868.738396 0.9760 0.9760 0.9770 0.9760 0.9770
1872.248122 0.9770 0.9780 0.9780 0.9780 0.9800
1875.757847 0.9800 0.9810 0.9810 0.9810 0.9810
1879.267573 0.9810 0.9810 0.9810 0.9810 0.9810
1882.777298 0.9810 0.9810 0.9830 0.9830 0.9840
1886.287024 0.9850 0.9850 0.9850 0.9850 0.9850
1889.796749 0.9850 0.9850 0.9850 0.9850 0.9870
1893.306475 0.9870 0.9870 0.9870 0.9870 0.9870
1896.816201 0.9880 0.9900 0.9900 0.9900 0.9900
1900.325926 0.9900 0.9910 0.9910 0.9900 0.9900
1903.835652 0.9880 0.9880 0.9880 0.9880 0.9880
1907.345377 0.9880 0.9880 0.9880 0.9880 0.9880
1910.855103 0.9880 0.9880 0.9880 0.9880 0.9880
1914.364828 0.9880 0.9880 0.9880 0.9880 0.9900
1917.874554 0.9900 0.9900 0.9900 0.9900 0.9900
1921.384280 0.9900 0.9900 0.9900 0.9900 0.9900
1924.894005 0.9900 0.9910 0.9910 0.9910 0.9910
1928.403731 0.9910 0.9910 0.9910 0.9910 0.9910
1931.913456 0.9910 0.9900 0.9900 0.9900 0.9900
1935.423182 0.9900 0.9880 0.9880 0.9880 0.9880
1938.932907 0.9880 0.9880 0.9880 0.9870 0.9870
1942.442633 0.9870 0.9850 0.9850 0.9850 0.9850
1945.952358 0.9850 0.9870 0.9870 0.9870 0.9870
1949.462084 0.9870 0.9880 0.9880 0.9880 0.9880
1952.971810 0.9880 0.9880 0.9880 0.9880 0.9880
1956.481535 0.9880 0.9880 0.9880 0.9880 0.9870
1959.991261 0.9870 0.9870 0.9870 0.9870 0.9870
1963.500986 0.9850 0.9850 0.9850 0.9840 0.9840
1967.010712 0.9830 0.9810 0.9810 0.9810 0.9810
1970.520437 0.9810 0.9830 0.9810 0.9810 0.9810
1974.030163 0.9810 0.9810 0.9810 0.9800 0.9800
1977.539888 0.9810 0.9810 0.9810 0.9810 0.9810
1981.049614 0.9800 0.9800 0.9810 0.9810 0.9810
1984.559340 0.9810 0.9810 0.9810 0.9800 0.9800
1988.069065 0.9800 0.9800 0.9780 0.9780 0.9770
1991.578791 0.9770 0.9770 0.9770 0.9770 0.9770
1995.088516 0.9770 0.9760 0.9760 0.9760 0.9770
1998.598242 0.9770 0.9770 0.9770 0.9768 0.9765
2002.107967 0.9763 0.9760 0.9762 0.9765 0.9767
2005.617693 0.9770 0.9770 0.9770 0.9770 0.9770
2009.127418 0.9770 0.9770 0.9770 0.9770 0.9772
2012.637144 0.9775 0.9777 0.9780 0.9778 0.9775
2016.146870 0.9773 0.9771 0.9770 0.9770 0.9770
2019.656595 0.9770 0.9768 0.9766 0.9763 0.9761
2023.166321 0.9756 0.9751 0.9747 0.9742 0.9740
2026.676046 0.9740 0.9740 0.9740 0.9744 0.9748
2030.185772 0.9753 0.9758 0.9760 0.9760 0.9760
2033.695497 0.9760 0.9760 0.9760 0.9760 0.9760
2037.205223 0.9760 0.9760 0.9760 0.9760 0.9757
2040.714948 0.9752 0.9747 0.9742 0.9740 0.9740
2044.224674 0.9740 0.9740 0.9742 0.9747 0.9752
2047.734400 0.9757 0.9760 0.9760 0.9760 0.9760
2051.244125 0.9760 0.9760 0.9760 0.9760 0.9761
2054.753851 0.9764 0.9766 0.9769 0.9770 0.9770
2058.263576 0.9770 0.9770 0.9770 0.9770 0.9770
2061.773302 0.9770 0.9771 0.9773 0.9776 0.9778
2065.283027 0.9782 0.9787 0.9791 0.9796 0.9800
2068.792753 0.9800 0.9800 0.9800 0.9800 0.9800
2072.302478 0.9800 0.9800 0.9800 0.9800 0.9800
2075.812204 0.9800 0.9800 0.9800 0.9800 0.9800
2079.321930 0.9800 0.9803 0.9805 0.9808 0.9811
2082.831655 0.9818 0.9826 0.9833 0.9841 0.9848
2086.341381 0.9856 0.9863 0.9870 0.9870 0.9870
2089.851106 0.9870 0.9870 0.9873 0.9875 0.9878
2093.360832 0.9880 0.9885 0.9890 0.9895 0.9900
2096.870557 0.9900 0.9900 0.9900 0.9900 0.9900
2100.380283 0.9900 0.9900 0.9900 0.9902 0.9905
2103.890008 0.9907 0.9910 0.9912 0.9915 0.9917
2107.399734 0.9920 0.9920 0.9920 0.9920 0.9920
2110.909460 0.9920 0.9920 0.9920 0.9920 0.9920
2114.419185 0.9920 0.9920 0.9920 0.9920 0.9920
2117.928911 0.9920 0.9920 0.9920 0.9920 0.9920
2121.438636 0.9920 0.9924 0.9929 0.9934 0.9938
2124.948362 0.9940 0.9940 0.9940 0.9940 0.9940
2128.458087 0.9940 0.9940 0.9940 0.9940 0.9940
2131.967813 0.9940 0.9940 0.9940 0.9940 0.9940
2135.477538 0.9940 0.9940 0.9940 0.9940 0.9940
2138.987264 0.9940 0.9940 0.9940 0.9940 0.9940
2142.496990 0.9940 0.9940 0.9940 0.9940 0.9940
2146.006715 0.9940 0.9940 0.9940 0.9940 0.9940
2149.516441 0.9940 0.9940 0.9940 0.9940 0.9940
2153.026166 0.9938 0.9933 0.9928 0.9923 0.9920
2156.535892 0.9920 0.9920 0.9920 0.9919 0.9917
2160.045617 0.9914 0.9912 0.9910 0.9910 0.9910
2163.555343 0.9910 0.9910 0.9910 0.9910 0.9910
2167.065069 0.9910 0.9910 0.9910 0.9910 0.9910
2170.574794 0.9910 0.9910 0.9910 0.9910 0.9910
2174.084520 0.9910 0.9910 0.9910 0.9910 0.9910
2177.594245 0.9910 0.9910 0.9910 0.9910 0.9910
2181.103971 0.9910 0.9910 0.9910 0.9910 0.9910
2184.613696 0.9910 0.9910 0.9910 0.9910 0.9910
2188.123422 0.9910 0.9910 0.9910 0.9910 0.9910
2191.633147 0.9910 0.9910 0.9908 0.9905 0.9903
2195.142873 0.9900 0.9900 0.9900 0.9900 0.9900
2198.652599 0.9900 0.9900 0.9900 0.9900 0.9895
2202.162324 0.9890 0.9886 0.9881 0.9878 0.9875
2205.672050 0.9873 0.9870 0.9866 0.9861 0.9856
2209.181775 0.9851 0.9848 0.9845 0.9843 0.9841
2212.691501 0.9838 0.9836 0.9833 0.9831 0.9830
2216.201226 0.9830 0.9830 0.9830 0.9825 0.9817
2219.710952 0.9810 0.9802 0.9797 0.9792 0.9787
2223.220677 0.9782 0.9780 0.9780 0.9780 0.9780
2226.730403 0.9778 0.9776 0.9773 0.9771 0.9768
2230.240129 0.9766 0.9763 0.9761 0.9757 0.9752
2233.749854 0.9747 0.9742 0.9734 0.9725 0.9715
2237.259580 0.9705 0.9671 0.9617 0.9562 0.9508
2240.769305 0.9414 0.9280 0.9147 0.9013 0.8905
2244.279031 0.8828 0.8751 0.8674 0.8600 0.8528
2247.788756 0.8456 0.8384 0.8311 0.8237 0.8163
2251.298482 0.8088 0.8014 0.7941 0.7869 0.7796
2254.808207 0.7724 0.7655 0.7585 0.7516 0.7470
2258.317933 0.7470 0.7470 0.7470 0.7491 0.7561
2261.827659 0.7630 0.7699 0.7771 0.7851 0.7930
2265.337384 0.8009 0.8087 0.8162 0.8236 0.8311
2268.847110 0.8400 0.8549 0.8697 0.8846 0.8981
2272.356835 0.9048 0.9115 0.9182 0.9246 0.9293
2275.866561 0.9340 0.9387 0.9436 0.9501 0.9565
2279.376286 0.9629 0.9691 0.9703 0.9716 0.9728
2282.886012 0.9741 0.9751 0.9761 0.9771 0.9780
2286.395737 0.9785 0.9790 0.9795 0.9800 0.9813
2289.905463 0.9825 0.9837 0.9850 0.9857 0.9865
2293.415189 0.9872 0.9880 0.9880 0.9880 0.9880
2296.924914 0.9880 0.9885 0.9889 0.9894 0.9899
2300.434640 0.9902 0.9905 0.9907 0.9910 0.9912
2303.944365 0.9915 0.9917 0.9920 0.9920 0.9920
2307.454091 0.9920 0.9920 0.9920 0.9920 0.9920
2310.963816 0.9920 0.9920 0.9920 0.9920 0.9920
2314.473542 0.9924 0.9929 0.9934 0.9939 0.9940
2317.983267 0.9940 0.9940 0.9940 0.9940 0.9940
2321.492993 0.9940 0.9940 0.9940 0.9940 0.9940
2325.002719 0.9940 0.9937 0.9932 0.9927 0.9922
2328.512444 0.9920 0.9920 0.9920 0.9920 0.9920
2332.022170 0.9920 0.9920 0.9920 0.9920 0.9920
2335.531895 0.9920 0.9920 0.9919 0.9916 0.9914
2339.041621 0.9911 0.9910 0.9910 0.9910 0.9910
2342.551346 0.9910 0.9910 0.9910 0.9910 0.9910
2346.061072 0.9910 0.9910 0.9910 0.9910 0.9910
2349.570797 0.9910 0.9910 0.9909 0.9907 0.9904
2353.080523 0.9902 0.9900 0.9900 0.9900 0.9900
2356.590249 0.9900 0.9900 0.9900 0.9900 0.9900
2360.099974 0.9900 0.9900 0.9900 0.9900 0.9900
2363.609700 0.9900 0.9900 0.9900 0.9900 0.9900
2367.119425 0.9900 0.9900 0.9900 0.9900 0.9900
2370.629151 0.9900 0.9900 0.9900 0.9900 0.9900
2374.138876 0.9900 0.9900 0.9900 0.9900 0.9900
2377.648602 0.9900 0.9900 0.9900 0.9900 0.9900
2381.158328 0.9900 0.9900 0.9900 0.9900 0.9900
2384.668053 0.9900 0.9900 0.9900 0.9900 0.9900
2388.177779 0.9900 0.9900 0.9900 0.9900 0.9900
2391.687504 0.9900 0.9900 0.9900 0.9900 0.9900
2395.197230 0.9900 0.9900 0.9900 0.9900 0.9900
2398.706955 0.9900 0.9900 0.9900 0.9900 0.9900
2402.216681 0.9902 0.9905 0.9907 0.9910 0.9910
2405.726406 0.9910 0.9910 0.9910 0.9910 0.9910
2409.236132 0.9910 0.9910 0.9910 0.9910 0.9910
2412.745858 0.9910 0.9910 0.9910 0.9910 0.9910
2416.255583 0.9912 0.9914 0.9917 0.9919 0.9920
2419.765309 0.9920 0.9920 0.9920 0.9920 0.9920
2423.275034 0.9920 0.9920 0.9920 0.9920 0.9920
2426.784760 0.9920 0.9920 0.9920 0.9920 0.9920
2430.294485 0.9920 0.9920 0.9920 0.9920 0.9920
2433.804211 0.9920 0.9920 0.9920 0.9920 0.9920
2437.313936 0.9920 0.9920 0.9920 0.9920 0.9920
2440.823662 0.9920 0.9920 0.9920 0.9920 0.9920
2444.333388 0.9920 0.9920 0.9920 0.9920 0.9919
2447.843113 0.9917 0.9914 0.9912 0.9910 0.9910
2451.352839 0.9910 0.9910 0.9910 0.9910 0.9910
2454.862564 0.9910 0.9910 0.9910 0.9910 0.9910
2458.372290 0.9910 0.9910 0.9910 0.9910 0.9909
2461.882015 0.9907 0.9904 0.9902 0.9899 0.9894
2465.391741 0.9889 0.9884 0.9880 0.9880 0.9880
2468.901466 0.9880 0.9880 0.9877 0.9875 0.9872
2472.411192 0.9870 0.9870 0.9870 0.9870 0.9870
2475.920918 0.9870 0.9870 0.9870 0.9870 0.9870
2479.430643 0.9870 0.9870 0.9870 0.9870 0.9870
2482.940369 0.9870 0.9870 0.9870 0.9870 0.9870
2486.450094 0.9870 0.9870 0.9870 0.9870 0.9870
2489.959820 0.9870 0.9870 0.9870 0.9870 0.9870
2493.469545 0.9870 0.9870 0.9870 0.9870 0.9870
2496.979271 0.9870 0.9870 0.9870 0.9870 0.9870
2500.488996 0.9870 0.9866 0.9861 0.9856 0.9851
2503.998722 0.9850 0.9850 0.9850 0.9850 0.9848
2507.508448 0.9846 0.9843 0.9841 0.9840 0.9840
2511.018173 0.9840 0.9840 0.9838 0.9836 0.9833
2514.527899 0.9831 0.9830 0.9830 0.9830 0.9830
2518.037624 0.9827 0.9822 0.9817 0.9812 0.9805
2521.547350 0.9798 0.9791 0.9783 0.9780 0.9780
2525.057075 0.9780 0.9780 0.9779 0.9776 0.9774
2528.566801 0.9771 0.9770 0.9770 0.9770 0.9770
2532.076526 0.9770 0.9770 0.9770 0.9770 0.9770
2535.586252 0.9770 0.9770 0.9770 0.9769 0.9766
2539.095978 0.9764 0.9761 0.9760 0.9760 0.9760
2542.605703 0.9760 0.9760 0.9760 0.9760 0.9760
2546.115429 0.9758 0.9753 0.9748 0.9743 0.9740
2549.625154 0.9740 0.9740 0.9740 0.9740 0.9740
2553.134880 0.9740 0.9740 0.9739 0.9737 0.9734
2556.644605 0.9732 0.9730 0.9730 0.9730 0.9730
2560.154331 0.9730 0.9733 0.9735 0.9738 0.9740
2563.664056 0.9740 0.9740 0.9740 0.9740 0.9737
2567.173782 0.9735 0.9732 0.9730 0.9730 0.9730
2570.683508 0.9730 0.9730 0.9730 0.9730 0.9730
2574.193233 0.9730 0.9725 0.9720 0.9715 0.9710
2577.702959 0.9710 0.9710 0.9710 0.9710 0.9708
2581.212684 0.9705 0.9703 0.9700 0.9693 0.9685
2584.722410 0.9678 0.9671 0.9668 0.9665 0.9663
2588.232135 0.9660 0.9656 0.9651 0.9646 0.9641
2591.741861 0.9638 0.9635 0.9633 0.9630 0.9630
2595.251586 0.9630 0.9630 0.9630 0.9628 0.9625
2598.761312 0.9623 0.9620 0.9614 0.9607 0.9599
2602.271038 0.9592 0.9584 0.9577 0.9569 0.9562
2605.780763 0.9558 0.9556 0.9553 0.9551 0.9547
2609.290489 0.9542 0.9537 0.9532 0.9528 0.9526
2612.800214 0.9523 0.9521 0.9517 0.9512 0.9507
2616.309940 0.9502 0.9497 0.9492 0.9487 0.9482
2619.819665 0.9476 0.9468 0.9461 0.9453 0.9441
2623.329391 0.9427 0.9412 0.9397 0.9389 0.9386
2626.839117 0.9384 0.9381 0.9377 0.9373 0.9368
2630.348842 0.9363 0.9359 0.9356 0.9354 0.9351
2633.858568 0.9350 0.9350 0.9350 0.9350 0.9350
2637.368293 0.9350 0.9350 0.9350 0.9348 0.9343
2640.878019 0.9338 0.9333 0.9330 0.9330 0.9330
2644.387744 0.9330 0.9329 0.9327 0.9324 0.9322
2647.897470 0.9320 0.9320 0.9320 0.9320 0.9319
2651.407195 0.9317 0.9314 0.9312 0.9310 0.9310
2654.916921 0.9310 0.9310 0.9310 0.9310 0.9310
2658.426647 0.9310 0.9310 0.9310 0.9310 0.9310
2661.936372 0.9310 0.9310 0.9310 0.9310 0.9310
2665.446098 0.9310 0.9310 0.9310 0.9310 0.9310
2668.955823 0.9310 0.9310 0.9310 0.9310 0.9310
2672.465549 0.9310 0.9310 0.9310 0.9310 0.9310
2675.975274 0.9310 0.9310 0.9310 0.9310 0.9310
2679.485000 0.9305 0.9300 0.9295 0.9290 0.9290
2682.994725 0.9290 0.9290 0.9290 0.9290 0.9290
2686.504451 0.9290 0.9290 0.9288 0.9285 0.9283
2690.014177 0.9280 0.9280 0.9280 0.9280 0.9280
2693.523902 0.9280 0.9280 0.9280 0.9280 0.9276
2697.033628 0.9271 0.9266 0.9261 0.9258 0.9256
2700.543353 0.9253 0.9251 0.9248 0.9246 0.9243
2704.053079 0.9241 0.9237 0.9232 0.9227 0.9222
2707.562804 0.9213 0.9203 0.9193 0.9183 0.9173
2711.072530 0.9163 0.9154 0.9144 0.9137 0.9132
2714.582255 0.9127 0.9122 0.9120 0.9120 0.9120
2718.091981 0.9120 0.9120 0.9120 0.9120 0.9120
2721.601707 0.9120 0.9120 0.9120 0.9120 0.9120
2725.111432 0.9120 0.9120 0.9120 0.9119 0.9116
2728.621158 0.9114 0.9111 0.9110 0.9110 0.9110
2732.130883 0.9110 0.9109 0.9107 0.9104 0.9101
2735.640609 0.9100 0.9100 0.9100 0.9100 0.9098
2739.150334 0.9093 0.9088 0.9083 0.9077 0.9067
2742.660060 0.9057 0.9047 0.9038 0.9030 0.9023
2746.169785 0.9015 0.9008 0.9001 0.8993 0.8986
2749.679511 0.8979 0.8977 0.8974 0.8972 0.8967
2753.189237 0.8952 0.8937 0.8922 0.8910 0.8910
2756.698962 0.8910 0.8910 0.8910 0.8910 0.8910
2760.208688 0.8910 0.8909 0.8899 0.8889 0.8879
2763.718413 0.8867 0.8842 0.8818 0.8793 0.8768
2767.228139 0.8743 0.8718 0.8694 0.8669 0.8647
2770.737864 0.8624 0.8602 0.8580 0.8572 0.8565
2774.247590 0.8558 0.8550 0.8540 0.8530 0.8520
2777.757315 0.8511 0.8470 0.8428 0.8386 0.8344
2781.267041 0.8293 0.8241 0.8189 0.8137 0.8059
2784.776767 0.7977 0.7895 0.7813 0.7783 0.7764
2788.286492 0.7744 0.7724 0.7694 0.7661 0.7628
2791.796218 0.7596 0.7568 0.7540 0.7513 0.7486
2795.305943 0.7458 0.7431 0.7404 0.7377 0.7314
2798.815669 0.7239 0.7165 0.7091 0.7054 0.7032
2802.325394 0.7009 0.6987 0.6953 0.6913 0.6874
2805.835120 0.6834 0.6751 0.6644 0.6538 0.6431
2809.344845 0.6334 0.6242 0.6150 0.6058 0.5945
2812.854571 0.5816 0.5687 0.5559 0.5400 0.5216
2816.364297 0.5033 0.4850 0.4650 0.4433 0.4217
2819.874022 0.4001 0.3676 0.3254 0.2833 0.2412
2823.383748 0.2154 0.2063 0.1971 0.1879 0.1808
2826.893473 0.1761 0.1714 0.1667 0.1616 0.1559
2830.403199 0.1502 0.1445 0.1390 0.1337 0.1285
2833.912924 0.1233 0.1199 0.1197 0.1194 0.1192
2837.422650 0.1190 0.1190 0.1190 0.1190 0.1191
2840.932375 0.1193 0.1196 0.1198 0.1202 0.1209
2844.442101 0.1217 0.1224 0.1234 0.1251 0.1269
2847.951827 0.1287 0.1308 0.1343 0.1378 0.1412
2851.461552 0.1445 0.1470 0.1495 0.1519 0.1544
2854.971278 0.1569 0.1594 0.1619 0.1643 0.1663
2858.481003 0.1682 0.1702 0.1720 0.1720 0.1720
2861.990729 0.1720 0.1720 0.1717 0.1715 0.1712
2865.500454 0.1710 0.1705 0.1700 0.1695 0.1690
2869.010180 0.1638 0.1586 0.1534 0.1482 0.1444
2872.519906 0.1407 0.1370 0.1333 0.1300 0.1267
2876.029631 0.1234 0.1202 0.1158 0.1113 0.1068
2879.539357 0.1024 0.1002 0.0982 0.0962 0.0942
2883.049082 0.0920 0.0898 0.0876 0.0853 0.0825
2886.558808 0.0795 0.0765 0.0736 0.0706 0.0676
2890.068533 0.0646 0.0617 0.0570 0.0518 0.0466
2893.578259 0.0414 0.0382 0.0357 0.0332 0.0307
2897.087984 0.0286 0.0266 0.0246 0.0227 0.0210
2900.597710 0.0195 0.0180 0.0165 0.0157 0.0152
2904.107436 0.0147 0.0142 0.0142 0.0144 0.0147
2907.617161 0.0149 0.0162 0.0182 0.0202 0.0222
2911.126887 0.0243 0.0265 0.0288 0.0310 0.0331
2914.636612 0.0351 0.0371 0.0390 0.0408 0.0423
2918.146338 0.0437 0.0452 0.0472 0.0497 0.0521
2921.656063 0.0546 0.0569 0.0589 0.0609 0.0628
2925.165789 0.0654 0.0689 0.0724 0.0758 0.0784
2928.675514 0.0794 0.0804 0.0813 0.0844 0.0914
2932.185240 0.0985 0.1055 0.1114 0.1151 0.1188
2935.694966 0.1225 0.1269 0.1326 0.1383 0.1440
2939.204691 0.1503 0.1579 0.1656 0.1733 0.1821
2942.714417 0.1940 0.2059 0.2178 0.2287 0.2364
2946.224142 0.2441 0.2518 0.2594 0.2666 0.2737
2949.733868 0.2809 0.2889 0.3013 0.3137 0.3261
2953.243593 0.3387 0.3528 0.3670 0.3811 0.3953
2956.753319 0.4110 0.4266 0.4422 0.4577 0.4723
2960.263044 0.4869 0.5015 0.5176 0.5530 0.5885
2963.772770 0.6239 0.6583 0.6649 0.6716 0.6783
2967.282496 0.6850 0.6892 0.6934 0.6977 0.7019
2970.792221 0.7078 0.7137 0.7197 0.7256 0.7285
2974.301947 0.7313 0.7340 0.7367 0.7381 0.7394
2977.811672 0.7406 0.7418 0.7439 0.7462 0.7484
2981.321398 0.7506 0.7609 0.7728 0.7846 0.7965
2984.831123 0.8014 0.8043 0.8073 0.8103 0.8127
2988.340849 0.8150 0.8172 0.8195 0.8215 0.8235
2991.850574 0.8255 0.8275 0.8291 0.8306 0.8321
2995.360300 0.8336 0.8352 0.8370 0.8387 0.8404
2998.870026 0.8418 0.8431 0.8443 0.8456 0.8468
3002.379751 0.8480 0.8493 0.8505 0.8521 0.8538
3005.889477 0.8555 0.8573 0.8593 0.8615 0.8637
3009.399202 0.8660 0.8678 0.8693 0.8708 0.8723
3012.908928 0.8735 0.8745 0.8755 0.8765 0.8777
3016.418653 0.8792 0.8807 0.8822 0.8831 0.8834
3019.928379 0.8836 0.8839 0.8842 0.8847 0.8852
3023.438104 0.8857 0.8861 0.8864 0.8866 0.8868
3026.947830 0.8874 0.8884 0.8894 0.8904 0.8913
3030.457556 0.8920 0.8927 0.8935 0.8945 0.8963
3033.967281 0.8980 0.8997 0.9011 0.9016 0.9021
3037.477007 0.9026 0.9031 0.9033 0.9036 0.9038
3040.986732 0.9042 0.9049 0.9056 0.9064 0.9072
3044.496458 0.9085 0.9097 0.9110 0.9122 0.9135
3048.006183 0.9147 0.9160 0.9171 0.9176 0.9181
3051.515909 0.9186 0.9191 0.9198 0.9206 0.9213
3055.025634 0.9220 0.9225 0.9230 0.9235 0.9240
3058.535360 0.9240 0.9240 0.9240 0.9240 0.9243
3062.045086 0.9245 0.9247 0.9250 0.9260 0.9270
3065.554811 0.9280 0.9290 0.9297 0.9305 0.9312
3069.064537 0.9319 0.9322 0.9325 0.9327 0.9330
3072.574262 0.9334 0.9339 0.9344 0.9350 0.9352
3076.083988 0.9355 0.9357 0.9360 0.9360 0.9360
3079.593713 0.9360 0.9360 0.9360 0.9360 0.9360
3083.103439 0.9360 0.9372 0.9387 0.9402 0.9416
3086.613165 0.9422 0.9424 0.9427 0.9429 0.9434
3090.122890 0.9439 0.9444 0.9448 0.9452 0.9454
3093.632616 0.9457 0.9459 0.9463 0.9468 0.9473
3097.142341 0.9478 0.9480 0.9480 0.9480 0.9480
3100.652067 0.9480 0.9480 0.9480 0.9480 0.9482
3104.161792 0.9484 0.9486 0.9489 0.9490 0.9490
3107.671518 0.9490 0.9490 0.9490 0.9490 0.9490
3111.181243 0.9490 0.9491 0.9494 0.9496 0.9499
3114.690969 0.9500 0.9500 0.9500 0.9500 0.9502
3118.200695 0.9507 0.9512 0.9517 0.9520 0.9520
3121.710420 0.9520 0.9520 0.9521 0.9523 0.9526
3125.220146 0.9528 0.9530 0.9530 0.9530 0.9530
3128.729871 0.9531 0.9537 0.9542 0.9547 0.9550
3132.239597 0.9550 0.9550 0.9550 0.9550 0.9550
3135.749322 0.9550 0.9550 0.9551 0.9553 0.9556
3139.259048 0.9558 0.9560 0.9560 0.9560 0.9560
3142.768773 0.9560 0.9560 0.9560 0.9560 0.9560
3146.278499 0.9560 0.9560 0.9560 0.9560 0.9560
3149.788225 0.9560 0.9560 0.9560 0.9563 0.9565
3153.297950 0.9568 0.9570 0.9570 0.9570 0.9570
3156.807676 0.9570 0.9575 0.9580 0.9585 0.9590
3160.317401 0.9585 0.9580 0.9575 0.9570 0.9568
3163.827127 0.9565 0.9563 0.9560 0.9560 0.9560
3167.336852 0.9560 0.9560 0.9562 0.9565 0.9567
3170.846578 0.9570 0.9570 0.9570 0.9570 0.9570
3174.356303 0.9570 0.9570 0.9570 0.9570 0.9570
3177.866029 0.9570 0.9570 0.9570 0.9570 0.9570
3181.375755 0.9570 0.9570 0.9568 0.9566 0.9563
3184.885480 0.9561 0.9560 0.9560 0.9560 0.9560
3188.395206 0.9560 0.9560 0.9560 0.9560 0.9560
3191.904931 0.9560 0.9560 0.9560 0.9560 0.9560
3195.414657 0.9560 0.9560 0.9560 0.9560 0.9560
3198.924382 0.9560 0.9561 0.9564 0.9566 0.9569
3202.434108 0.9570 0.9570 0.9570 0.9570 0.9570
3205.943833 0.9570 0.9570 0.9570 0.9570 0.9570
3209.453559 0.9570 0.9570 0.9572 0.9577 0.9582
3212.963285 0.9587 0.9590 0.9590 0.9590 0.9590
3216.473010 0.9590 0.9590 0.9590 0.9590 0.9590
3219.982736 0.9590 0.9590 0.9590 0.9590 0.9590
3223.492461 0.9590 0.9590 0.9590 0.9590 0.9590
3227.002187 0.9590 0.9589 0.9584 0.9579 0.9574
3230.511912 0.9570 0.9570 0.9570 0.9570 0.9570
3234.021638 0.9570 0.9570 0.9570 0.9570 0.9570
3237.531363 0.9570 0.9570 0.9570 0.9570 0.9570
3241.041089 0.9570 0.9570 0.9570 0.9570 0.9570
3244.550815 0.9570 0.9570 0.9570 0.9570 0.9570
3248.060540 0.9570 0.9570 0.9570 0.9570 0.9570
3251.570266 0.9570 0.9570 0.9570 0.9570 0.9570
3255.079991 0.9570 0.9570 0.9570 0.9570 0.9570
3258.589717 0.9570 0.9570 0.9570 0.9570 0.9570
3262.099442 0.9570 0.9570 0.9570 0.9570 0.9570
3265.609168 0.9570 0.9570 0.9570 0.9570 0.9570
3269.118893 0.9570 0.9570 0.9570 0.9570 0.9570
3272.628619 0.9570 0.9574 0.9579 0.9584 0.9589
3276.138345 0.9590 0.9590 0.9590 0.9590 0.9590
3279.648070 0.9590 0.9590 0.9590 0.9590 0.9590
3283.157796 0.9590 0.9590 0.9590 0.9590 0.9590
3286.667521 0.9590 0.9590 0.9590 0.9590 0.9590
3290.177247 0.9590 0.9590 0.9590 0.9590 0.9590
3293.686972 0.9590 0.9590 0.9590 0.9591 0.9594
3297.196698 0.9596 0.9599 0.9600 0.9600 0.9600
3300.706423 0.9600 0.9600 0.9600 0.9600 0.9600
3304.216149 0.9600 0.9600 0.9600 0.9600 0.9600
3307.725875 0.9600 0.9600 0.9600 0.9599 0.9596
3311.235600 0.9594 0.9591 0.9590 0.9590 0.9590
3314.745326 0.9590 0.9590 0.9590 0.9590 0.9590
3318.255051 0.9590 0.9590 0.9590 0.9590 0.9588
3321.764777 0.9583 0.9578 0.9574 0.9571 0.9576
3325.274502 0.9581 0.9586 0.9590 0.9590 0.9590
3328.784228 0.9590 0.9589 0.9584 0.9579 0.9574
3332.293954 0.9570 0.9570 0.9570 0.9570 0.9570
3335.803679 0.9570 0.9570 0.9570 0.9570 0.9570
3339.313405 0.9570 0.9570 0.9570 0.9570 0.9570
3342.823130 0.9570 0.9570 0.9570 0.9570 0.9570
3346.332856 0.9570 0.9570 0.9570 0.9570 0.9570
3349.842581 0.9570 0.9570 0.9570 0.9570 0.9570
3353.352307 0.9570 0.9570 0.9570 0.9570 0.9570
3356.862032 0.9570 0.9570 0.9570 0.9570 0.9570
3360.371758 0.9570 0.9570 0.9570 0.9570 0.9570
3363.881484 0.9570 0.9570 0.9570 0.9570 0.9570
3367.391209 0.9570 0.9570 0.9570 0.9570 0.9570
3370.900935 0.9570 0.9570 0.9570 0.9570 0.9570
3374.410660 0.9570 0.9570 0.9570 0.9570 0.9570
3377.920386 0.9568 0.9566 0.9563 0.9561 0.9560
3381.430111 0.9560 0.9560 0.9560 0.9558 0.9556
3384.939837 0.9553 0.9551 0.9547 0.9542 0.9537
3388.449562 0.9532 0.9530 0.9530 0.9530 0.9530
3391.959288 0.9530 0.9530 0.9530 0.9530 0.9529
3395.469014 0.9526 0.9524 0.9521 0.9517 0.9512
3398.978739 0.9507 0.9502 0.9500 0.9500 0.9500
3402.488465 0.9500 0.9498 0.9493 0.9488 0.9483
3405.998190 0.9477 0.9469 0.9462 0.9454 0.9447
3409.507916 0.9440 0.9432 0.9425 0.9417 0.9410
3413.017641 0.9402 0.9395 0.9389 0.9387 0.9384
3416.527367 0.9382 0.9378 0.9373 0.9368 0.9363
3420.037092 0.9359 0.9357 0.9354 0.9352 0.9350
3423.546818 0.9350 0.9350 0.9350 0.9349 0.9344
3427.056544 0.9339 0.9334 0.9329 0.9327 0.9324
3430.566269 0.9322 0.9320 0.9320 0.9320 0.9320
3434.075995 0.9320 0.9317 0.9315 0.9312 0.9310
3437.585720 0.9310 0.9310 0.9310 0.9310 0.9305
3441.095446 0.9300 0.9294 0.9290 0.9290 0.9290
3444.605171 0.9290 0.9290 0.9295 0.9300 0.9305
3448.114897 0.9310 0.9310 0.9310 0.9310 0.9310
3451.624622 0.9310 0.9310 0.9310 0.9310 0.9312
3455.134348 0.9315 0.9317 0.9320 0.9322 0.9325
3458.644074 0.9327 0.9330 0.9334 0.9339 0.9344
3462.153799 0.9349 0.9352 0.9355 0.9357 0.9360
3465.663525 0.9366 0.9374 0.9381 0.9388 0.9394
3469.173250 0.9399 0.9404 0.9409 0.9412 0.9415
3472.682976 0.9417 0.9419 0.9422 0.9424 0.9427
3476.192701 0.9429 0.9436 0.9443 0.9450 0.9458
3479.702427 0.9464 0.9468 0.9473 0.9478 0.9482
3483.212152 0.9484 0.9487 0.9489 0.9490 0.9490
3486.721878 0.9490 0.9490 0.9492 0.9494 0.9496
3490.231604 0.9499 0.9500 0.9500 0.9500 0.9500
3493.741329 0.9500 0.9500 0.9500 0.9500 0.9499
3497.251055 0.9496 0.9494 0.9491 0.9490 0.9490
3500.760780 0.9490 0.9490 0.9489 0.9486 0.9484
3504.270506 0.9481 0.9480 0.9480 0.9480 0.9480
3507.780231 0.9480 0.9480 0.9480 0.9480 0.9480
3511.289957 0.9480 0.9480 0.9480 0.9481 0.9483
3514.799682 0.9486 0.9488 0.9490 0.9490 0.9490
3518.309408 0.9490 0.9489 0.9487 0.9484 0.9482
3521.819134 0.9480 0.9480 0.9480 0.9480 0.9480
3525.328859 0.9480 0.9480 0.9480 0.9480 0.9480
3528.838585 0.9480 0.9480 0.9480 0.9483 0.9485
3532.348310 0.9488 0.9490 0.9490 0.9490 0.9490
3535.858036 0.9490 0.9493 0.9495 0.9498 0.9500
3539.367761 0.9500 0.9500 0.9500 0.9500 0.9500
3542.877487 0.9500 0.9500 0.9500 0.9500 0.9500
3546.387213 0.9500 0.9500 0.9500 0.9500 0.9500
3549.896938 0.9500 0.9500 0.9500 0.9500 0.9500
3553.406664 0.9500 0.9500 0.9500 0.9500 0.9500
3556.916389 0.9500 0.9500 0.9500 0.9500 0.9500
3560.426115 0.9500 0.9500 0.9504 0.9509 0.9514
3563.935840 0.9519 0.9520 0.9520 0.9520 0.9520
3567.445566 0.9520 0.9520 0.9520 0.9520 0.9520
3570.955291 0.9520 0.9520 0.9520 0.9522 0.9524
3574.465017 0.9527 0.9529 0.9530 0.9530 0.9530
3577.974743 0.9530 0.9530 0.9530 0.9530 0.9530
3581.484468 0.9530 0.9530 0.9530 0.9530 0.9530
3584.994194 0.9530 0.9530 0.9530 0.9528 0.9526
3588.503919 0.9524 0.9521 0.9520 0.9520 0.9520
3592.013645 0.9520 0.9520 0.9520 0.9520 0.9520
3595.523370 0.9520 0.9520 0.9520 0.9520 0.9518
3599.033096 0.9513 0.9508 0.9503 0.9500 0.9500
3602.542821 0.9500 0.9500 0.9499 0.9497 0.9494
3606.052547 0.9492 0.9490 0.9490 0.9490 0.9490
3609.562273 0.9489 0.9487 0.9484 0.9482 0.9480
3613.071998 0.9480 0.9480 0.9480 0.9478 0.9473
3616.581724 0.9469 0.9464 0.9460 0.9460 0.9460
3620.091449 0.9460 0.9460 0.9460 0.9460 0.9460
3623.601175 0.9460 0.9460 0.9460 0.9460 0.9460
3627.110900 0.9460 0.9460 0.9460 0.9460 0.9460
3630.620626 0.9460 0.9460 0.9460 0.9460 0.9460
3634.130351 0.9460 0.9460 0.9460 0.9460 0.9460
3637.640077 0.9460 0.9460 0.9460 0.9460 0.9460
3641.149803 0.9465 0.9470 0.9475 0.9480 0.9483
3644.659528 0.9485 0.9487 0.9490 0.9490 0.9490
3648.169254 0.9490 0.9490 0.9492 0.9495 0.9497
3651.678979 0.9500 0.9505 0.9510 0.9514 0.9519
3655.188705 0.9520 0.9520 0.9520 0.9520 0.9522
3658.698430 0.9525 0.9527 0.9530 0.9534 0.9539
3662.208156 0.9544 0.9549 0.9550 0.9550 0.9550
3665.717881 0.9550 0.9554 0.9559 0.9564 0.9569
3669.227607 0.9574 0.9579 0.9584 0.9589 0.9590
3672.737333 0.9590 0.9590 0.9590 0.9592 0.9594
3676.247058 0.9597 0.9599 0.9603 0.9608 0.9613
3679.756784 0.9618 0.9622 0.9624 0.9627 0.9629
3683.266509 0.9631 0.9634 0.9636 0.9639 0.9640
3686.776235 0.9640 0.9640 0.9640 0.9644 0.9651
3690.285960 0.9659 0.9666 0.9674 0.9681 0.9689
3693.795686 0.9696 0.9701 0.9704 0.9706 0.9709
3697.305411 0.9710 0.9710 0.9710 0.9710 0.9712
3700.815137 0.9717 0.9722 0.9727 0.9733 0.9740
3704.324863 0.9748 0.9755 0.9761 0.9763 0.9766
3707.834588 0.9768 0.9773 0.9780 0.9787 0.9795
3711.344314 0.9801 0.9803 0.9806 0.9808 0.9810
3714.854039 0.9810 0.9810 0.9810 0.9810 0.9810
3718.363765 0.9810 0.9810 0.9810 0.9810 0.9810
3721.873490 0.9810 0.9810 0.9807 0.9805 0.9802
3725.383216 0.9800 0.9800 0.9800 0.9800 0.9799
3728.892941 0.9794 0.9789 0.9784 0.9780 0.9777
3732.402667 0.9775 0.9772 0.9770 0.9770 0.9770
3735.912393 0.9770 0.9770 0.9767 0.9765 0.9762
3739.422118 0.9760 0.9760 0.9760 0.9760 0.9760
3742.931844 0.9755 0.9750 0.9745 0.9740 0.9740
3746.441569 0.9740 0.9740 0.9740 0.9738 0.9735
3749.951295 0.9733 0.9730 0.9730 0.9730 0.9730
3753.461020 0.9730 0.9732 0.9735 0.9737 0.9740
3756.970746 0.9740 0.9740 0.9740 0.9740 0.9740
3760.480471 0.9740 0.9740 0.9740 0.9740 0.9740
3763.990197 0.9740 0.9740 0.9744 0.9749 0.9754
3767.499923 0.9759 0.9762 0.9764 0.9767 0.9769
3771.009648 0.9770 0.9770 0.9770 0.9770 0.9770
3774.519374 0.9770 0.9770 0.9770 0.9770 0.9770
3778.029099 0.9770 0.9770 0.9771 0.9774 0.9776
3781.538825 0.9779 0.9780 0.9780 0.9780 0.9780
3785.048550 0.9780 0.9780 0.9780 0.9780 0.9780
3788.558276 0.9780 0.9780 0.9780 0.9780 0.9780
3792.068002 0.9780 0.9780 0.9780 0.9780 0.9780
3795.577727 0.9780 0.9780 0.9780 0.9780 0.9780
3799.087453 0.9779 0.9777 0.9774 0.9772 0.9770
3802.597178 0.9770 0.9770 0.9770 0.9770 0.9770
3806.106904 0.9770 0.9770 0.9770 0.9770 0.9770
3809.616629 0.9770 0.9770 0.9770 0.9770 0.9770
3813.126355 0.9770 0.9770 0.9770 0.9770 0.9770
3816.636080 0.9770 0.9770 0.9770 0.9770 0.9770
3820.145806 0.9770 0.9770 0.9770 0.9770 0.9770
3823.655532 0.9770 0.9770 0.9770 0.9770 0.9770
3827.165257 0.9770 0.9767 0.9765 0.9762 0.9760
3830.674983 0.9763 0.9765 0.9768 0.9770 0.9770
3834.184708 0.9770 0.9770 0.9770 0.9770 0.9770
3837.694434 0.9770 0.9770 0.9767 0.9765 0.9763
3841.204159 0.9760 0.9760 0.9760 0.9760 0.9760
3844.713885 0.9755 0.9750 0.9745 0.9740 0.9740
3848.223610 0.9740 0.9740 0.9740 0.9744 0.9749
3851.733336 0.9754 0.9759 0.9760 0.9760 0.9760
3855.243062 0.9760 0.9760 0.9760 0.9760 0.9760
3858.752787 0.9756 0.9751 0.9746 0.9741 0.9740
3862.262513 0.9740 0.9740 0.9740 0.9738 0.9736
3865.772238 0.9733 0.9731 0.9730 0.9730 0.9730
3869.281964 0.9730 0.9727 0.9722 0.9717 0.9712
3872.791689 0.9710 0.9710 0.9710 0.9710 0.9710
3876.301415 0.9710 0.9710 0.9710 0.9709 0.9706
3879.811140 0.9704 0.9701 0.9700 0.9700 0.9700
3883.320866 0.9700 0.9699 0.9696 0.9694 0.9691
3886.830592 0.9688 0.9683 0.9678 0.9673 0.9669
3890.340317 0.9666 0.9664 0.9661 0.9660 0.9660
3893.850043 0.9660 0.9660 0.9660 0.9660 0.9660
3897.359768 0.9660 0.9660 0.9660 0.9660 0.9660
3900.869494 0.9658 0.9653 0.9648 0.9643 0.9640
3904.379219 0.9640 0.9640 0.9640 0.9640 0.9640
3907.888945 0.9640 0.9640 0.9640 0.9640 0.9640
3911.398670 0.9640 0.9640 0.9640 0.9640 0.9640
3914.908396 0.9640 0.9640 0.9640 0.9640 0.9640
3918.418122 0.9640 0.9640 0.9640 0.9640 0.9640
3921.927847 0.9640 0.9640 0.9640 0.9640 0.9640
3925.437573 0.9640 0.9640 0.9637 0.9635 0.9632
3928.947298 0.9630 0.9630 0.9630 0.9630 0.9630
3932.457024 0.9630 0.9630 0.9630 0.9630 0.9630
3935.966749 0.9630 0.9630 0.9630 0.9630 0.9630
3939.476475 0.9630 0.9630 0.9630 0.9630 0.9630
3942.986200 0.9630 0.9630 0.9630 0.9630 0.9630
3946.495926 0.9624 0.9616 0.9609 0.9601 0.9594
3950.005652 0.9586 0.9579 0.9571 0.9570 0.9570
3953.515377 0.9570 0.9570 0.9570 0.9570 0.9570
3957.025103 0.9570 0.9568 0.9566 0.9563 0.9561
3960.534828 0.9560 0.9560 0.9560 0.9560 0.9560
3964.044554 0.9560 0.9560 0.9560 0.9560 0.9560
3967.554279 0.9560 0.9560 0.9560 0.9560 0.9560
3971.064005 0.9560 0.9559 0.9556 0.9554 0.9551
3974.573730 0.9550 0.9550 0.9550 0.9550 0.9550
3978.083456 0.9550 0.9550 0.9550 0.9550 0.9550
3981.593182 0.9550 0.9550 0.9550 0.9550 0.9550
3985.102907 0.9550 0.9550 0.9550 0.9550 0.9550
3988.612633 0.9550 0.9550 0.9550 0.9550 0.9550
3992.122358 0.9550 0.9550 0.9550 0.9550 0.9550
3995.632084 0.9550 0.9550 0.9550 0.9550 0.9550
3999.141809 0.9550 0.9550 0.9550 0.9550 0.9550
4002.651535 0.9550 0.9550 0.9550 0.9550 0.9550
4006.161260 0.9550 0.9550 0.9550
##END=
