##TITLE=Valeric acid, 2-hydrazino-3-methyl-
##JCAMP-DX=4.24
##DATA TYPE=INFRARED SPECTRUM
##CLASS=COBLENTZ III
##ORIGIN=SOUTHERN RESEARCH INSTITUTE
##OWNER=Copyright (C) 1987 by the Coblentz Society
Collection (C) 2018 copyright by the U.S. Secretary of Commerce
on behalf of the United States of America. All rights reserved.
##DATE=1955/07/07
##NAMES=2-hydrazino-3-methylpentanoic acid
##MOLFORM=C6 H14 N2 O2
##SOURCE REFERENCE=COBLENTZ NO. 7884
##$NIST ID=B6007884
##$NIST SOURCE=COBLENTZ
##$NIST IMAGE=cob7884
##SPECTROMETER/DATA SYSTEM=PERKIN-ELMER 21 (GRATING)
##INSTRUMENT PARAMETERS=FILTER CHANGE ABOUT 1080 CM^-^1
##STATE=SOLID (0.75 mg / 641 mg KBr DISC)
##SAMPLING PROCEDURE=TRANSMISSION
##RESOLUTION=2
##DATA PROCESSING=DIGITIZED BY COBLENTZ SOCIETY (BATCH II) FROM HARD COPY (ADJUSTED \addcm-1\15-12-3\)
##XUNITS=1/CM
##YUNITS=TRANSMITTANCE
##XFACTOR=1.0
##YFACTOR=1
##DELTAX=1.004892
##FIRSTX=667.67
##LASTX=3816
##FIRSTY=0.5839
##MAXX=3816
##MINX=667.67
##MAXY=1.0323
##MINY=0.082
##NPOINTS=3134
##XYDATA=(X++(Y..Y))
667.670000 0.5839 0.5812 0.5802 0.5807 0.5826
672.694458 0.5853 0.5887 0.5931 0.5989 0.6230
677.718915 0.6479 0.6728 0.6978 0.7227 0.7476
682.743373 0.7725 0.7974 0.8223 0.8664 0.8845
687.767830 0.9200 0.9321 0.9408 0.9483 0.9523
692.792288 0.9557 0.9591 0.9614 0.9636 0.9658
697.816745 0.9680 0.9693 0.9703 0.9711 0.9716
702.841203 0.9718 0.9719 0.9720 0.9721 0.9721
707.865660 0.9721 0.9721 0.9722 0.9724 0.9727
712.890118 0.9733 0.9743 0.9754 0.9764 0.9781
717.914576 0.9800 0.9818 0.9829 0.9852 0.9844
722.939033 0.9836 0.9833 0.9826 0.9815 0.9780
727.963491 0.9741 0.9725 0.9719 0.9717 0.9717
732.987948 0.9713 0.9703 0.9685 0.9660 0.9630
738.012406 0.9598 0.9566 0.9533 0.9500 0.9465
743.036863 0.9431 0.9384 0.9326 0.9270 0.9195
748.061321 0.9034 0.8824 0.8614 0.8404 0.8272
753.085779 0.8224 0.8193 0.8195 0.8214 0.8256
758.110236 0.8404 0.8619 0.8735 0.8756 0.8749
763.134694 0.8670 0.8512 0.8330 0.8148 0.7965
768.159151 0.7783 0.7671 0.7666 0.7909 0.8403
773.183609 0.8828 0.9013 0.9031 0.9038 0.9050
778.208066 0.9048 0.9023 0.9011 0.8989 0.8923
783.232524 0.8784 0.8611 0.8437 0.8263 0.8090
788.256981 0.7934 0.7836 0.7813 0.7883 0.8086
793.281439 0.8367 0.8570 0.8617 0.8624 0.8627
798.305897 0.8627 0.8626 0.8621 0.8609 0.8600
803.330354 0.8590 0.8577 0.8553 0.8477 0.8321
808.354812 0.8231 0.8143 0.8036 0.7921 0.7821
813.379269 0.7660 0.7294 0.6654 0.6283 0.5912
818.403727 0.5541 0.5169 0.4870 0.4928 0.5427
823.428184 0.6062 0.6697 0.7315 0.7757 0.7756
828.452642 0.7751 0.7737 0.7709 0.7652 0.7569
833.477100 0.7486 0.7380 0.7218 0.6900 0.6399
838.501557 0.5896 0.5394 0.4891 0.4431 0.4280
843.526015 0.4268 0.4268 0.4317 0.4376 0.4435
848.550472 0.4490 0.4512 0.4432 0.3579 0.2745
853.574930 0.2695 0.2660 0.2674 0.2686 0.2865
858.599387 0.3414 0.3963 0.4511 0.5059 0.5608
863.623845 0.6157 0.6705 0.7254 0.7912 0.8371
868.648302 0.8797 0.8900 0.8999 0.9090 0.9179
873.672760 0.9246 0.9311 0.9362 0.9401 0.9440
878.697218 0.9478 0.9509 0.9538 0.9568 0.9593
883.721675 0.9614 0.9634 0.9654 0.9674 0.9694
888.746133 0.9710 0.9723 0.9735 0.9748 0.9759
893.770590 0.9769 0.9779 0.9784 0.9787 0.9790
898.795048 0.9792 0.9791 0.9789 0.9809 0.9788
903.819505 0.9776 0.9769 0.9760 0.9733 0.9684
908.843963 0.9549 0.9484 0.9444 0.9406 0.9371
913.868421 0.9343 0.9322 0.9313 0.9159 0.8939
918.892878 0.8851 0.8832 0.8821 0.8810 0.8794
923.917336 0.8746 0.8640 0.8515 0.8390 0.8265
928.941793 0.8140 0.8069 0.8055 0.8036 0.8290
933.966251 0.8622 0.8922 0.9222 0.9393 0.9441
938.990708 0.9450 0.9452 0.9454 0.9454 0.9454
944.015166 0.9453 0.9451 0.9449 0.9444 0.9437
949.039623 0.9431 0.9425 0.9418 0.9409 0.9397
954.064081 0.9383 0.9365 0.9335 0.9301 0.9276
959.088539 0.9264 0.9262 0.9264 0.9266 0.9261
964.112996 0.9246 0.9225 0.9201 0.9207 0.9260
969.137454 0.9328 0.9396 0.9454 0.9496 0.9531
974.161911 0.9559 0.9579 0.9594 0.9605 0.9612
979.186369 0.9616 0.9615 0.9614 0.9611 0.9605
984.210826 0.9595 0.9583 0.9568 0.9546 0.9511
989.235284 0.9477 0.9442 0.9412 0.9387 0.9363
994.259742 0.9345 0.9334 0.9324 0.9315 0.9308
999.284199 0.9301 0.9293 0.9285 0.9277 0.9269
1004.308657 0.9257 0.9235 0.9213 0.9185 0.9148
1009.333114 0.9103 0.9037 0.8971 0.8906 0.8841
1014.357572 0.8775 0.8710 0.8645 0.8592 0.8575
1019.382029 0.8575 0.8579 0.8593 0.8622 0.8655
1024.406487 0.8702 0.8731 0.8757 0.8760 0.8742
1029.430944 0.8724 0.8712 0.8713 0.8718 0.8721
1034.455402 0.8721 0.8721 0.8720 0.8716 0.8709
1039.479860 0.8697 0.8681 0.8656 0.8631 0.8601
1044.504317 0.8562 0.8493 0.8312 0.8068 0.7826
1049.528775 0.7582 0.7338 0.7095 0.6852 0.6608
1054.553232 0.6365 0.6121 0.5878 0.5636 0.5438
1059.577690 0.5379 0.5319 0.5275 0.5248 0.5239
1064.602147 0.5229 0.5231 0.5224 0.5995 0.6557
1069.626605 0.7117 0.7676 0.8236 0.8512 0.8571
1074.651063 0.8597 0.8615 0.8630 0.8782 0.9116
1079.675520 0.9172 0.9197 0.9193 0.9176 0.9149
1084.699978 0.9120 0.9098 0.9078 0.9059 0.9046
1089.724435 0.9041 0.9035 0.9031 0.9028 0.9026
1094.748893 0.9027 0.9029 0.9030 0.9032 0.9034
1099.773350 0.9033 0.9029 0.9023 0.9017 0.9008
1104.797808 0.8983 0.8889 0.8778 0.8668 0.8557
1109.822265 0.8473 0.8420 0.8371 0.8309 0.8156
1114.846723 0.7954 0.7745 0.7535 0.7326 0.7220
1119.871181 0.7197 0.7208 0.7386 0.7755 0.8176
1124.895638 0.8460 0.8548 0.8554 0.8558 0.8545
1129.920096 0.8514 0.8466 0.8414 0.8364 0.8316
1134.944553 0.8268 0.8203 0.8122 0.8027 0.7832
1139.969011 0.7581 0.7330 0.7142 0.7056 0.7030
1144.993468 0.7004 0.7010 0.7029 0.7050 0.7229
1150.017926 0.7572 0.7955 0.8316 0.8602 0.8764
1155.042384 0.8858 0.8927 0.8980 0.9033 0.9079
1160.066841 0.9102 0.9109 0.9112 0.9110 0.9107
1165.091299 0.9104 0.9097 0.9088 0.9078 0.9067
1170.115756 0.9053 0.9026 0.8979 0.8925 0.8881
1175.140214 0.8849 0.8851 0.8881 0.8932 0.9015
1180.164671 0.9083 0.9122 0.9134 0.9139 0.9147
1185.189129 0.9149 0.9126 0.9118 0.9107 0.9092
1190.213586 0.9073 0.9048 0.9022 0.8994 0.8964
1195.238044 0.8934 0.8905 0.8874 0.8811 0.8689
1200.262502 0.8568 0.8447 0.8358 0.8344 0.8320
1205.286959 0.8245 0.8100 0.7955 0.7809 0.7664
1210.311417 0.7542 0.7498 0.7486 0.7474 0.7541
1215.335874 0.7581 0.7671 0.7966 0.8263 0.8508
1220.360332 0.8552 0.8550 0.8551 0.8517 0.8477
1225.384789 0.8385 0.8305 0.8218 0.8124 0.8017
1230.409247 0.7857 0.7588 0.7318 0.7049 0.6779
1235.433705 0.6510 0.6245 0.6070 0.6032 0.6027
1240.458162 0.6005 0.6052 0.6077 0.6107 0.6141
1245.482620 0.6179 0.6226 0.6281 0.6578 0.6936
1250.507077 0.7296 0.7655 0.7858 0.7931 0.7995
1255.531535 0.8079 0.8190 0.8332 0.8456 0.8519
1260.555992 0.8542 0.8549 0.8550 0.8548 0.8559
1265.580450 0.8542 0.8530 0.8509 0.8480 0.8446
1270.604907 0.8404 0.8318 0.8222 0.8126 0.8030
1275.629365 0.7933 0.7836 0.7740 0.7688 0.7665
1280.653823 0.7656 0.7670 0.7703 0.7776 0.7877
1285.678280 0.7983 0.8088 0.8193 0.8249 0.8272
1290.702738 0.8277 0.8288 0.8279 0.8266 0.8256
1295.727195 0.8243 0.8209 0.8129 0.8025 0.7921
1300.751653 0.7837 0.7783 0.7762 0.7696 0.7576
1305.776110 0.7451 0.7326 0.7201 0.7076 0.6976
1310.800568 0.6919 0.6884 0.6858 0.6841 0.6827
1315.825026 0.6817 0.6809 0.6799 0.6777 0.6591
1320.849483 0.6184 0.5744 0.5304 0.4863 0.4423
1325.873941 0.3982 0.3466 0.2980 0.2788 0.2692
1330.898398 0.2611 0.2545 0.2485 0.2439 0.2399
1335.922856 0.2370 0.2365 0.2443 0.2735 0.3142
1340.947313 0.3550 0.3957 0.4313 0.4474 0.4473
1345.971771 0.4410 0.4218 0.4026 0.3833 0.3655
1350.996228 0.3552 0.3611 0.3909 0.4273 0.4631
1356.020686 0.4903 0.4894 0.4833 0.4726 0.4620
1361.045144 0.4514 0.4408 0.4301 0.4197 0.4119
1366.069601 0.4124 0.4131 0.4168 0.4358 0.4595
1371.094059 0.4832 0.5071 0.5308 0.5545 0.5783
1376.118516 0.6019 0.6199 0.6225 0.6213 0.6065
1381.142974 0.5888 0.5712 0.5535 0.5404 0.5366
1386.167431 0.5338 0.5176 0.4974 0.4832 0.4829
1391.191889 0.4906 0.4989 0.5028 0.5036 0.5037
1396.216347 0.5036 0.5030 0.4903 0.4658 0.4395
1401.240804 0.4133 0.3871 0.3608 0.3346 0.3084
1406.265262 0.2821 0.2559 0.2296 0.2034 0.1777
1411.289719 0.1627 0.1534 0.1476 0.1451 0.1446
1416.314177 0.1447 0.1644 0.1518 0.1854 0.2098
1421.338634 0.2306 0.2798 0.3398 0.3997 0.4601
1426.363092 0.4878 0.4994 0.5334 0.5635 0.5813
1431.387549 0.5945 0.6049 0.6135 0.6208 0.6267
1436.412007 0.6324 0.6428 0.6472 0.6463 0.6463
1441.436465 0.6456 0.6447 0.6438 0.6425 0.6403
1446.460922 0.6372 0.6313 0.6204 0.6065 0.5927
1451.485380 0.5789 0.5650 0.5512 0.5373 0.5235
1456.509837 0.5097 0.4958 0.4820 0.4682 0.4580
1461.534295 0.4530 0.4483 0.4465 0.4465 0.4472
1466.558752 0.4510 0.4577 0.4618 0.4647 0.4650
1471.583210 0.4646 0.4638 0.4629 0.4616 0.4590
1476.607668 0.4562 0.4524 0.4463 0.4389 0.4296
1481.632125 0.4199 0.4089 0.3953 0.3767 0.3605
1486.656583 0.3482 0.3389 0.3255 0.2964 0.2802
1491.681040 0.2515 0.2403 0.2303 0.2221 0.2139
1496.705498 0.2051 0.1921 0.1808 0.1629 0.1420
1501.729955 0.1210 0.1004 0.0898 0.0852 0.0831
1506.754413 0.0820 0.0821 0.0856 0.0840 0.0851
1511.778870 0.0861 0.0871 0.0882 0.0895 0.0909
1516.803328 0.0930 0.0954 0.1029 0.1187 0.1350
1521.827786 0.1479 0.1505 0.1515 0.1525 0.1534
1526.852243 0.1543 0.1558 0.1575 0.1596 0.1622
1531.876701 0.1693 0.1765 0.1838 0.1956 0.2307
1536.901158 0.2705 0.3103 0.3501 0.3899 0.4046
1541.925616 0.4112 0.4170 0.4226 0.4278 0.4322
1546.950073 0.4364 0.4404 0.4441 0.4501 0.4642
1551.974531 0.4763 0.4847 0.4924 0.4998 0.5060
1556.998989 0.5110 0.5143 0.5157 0.5160 0.5160
1562.023446 0.5160 0.5168 0.5161 0.5147 0.5137
1567.047904 0.5109 0.5009 0.4835 0.4698 0.4613
1572.072361 0.4538 0.4469 0.4405 0.4346 0.4295
1577.096819 0.4148 0.3881 0.3587 0.3293 0.2998
1582.121276 0.2705 0.2434 0.2248 0.2122 0.1937
1587.145734 0.1786 0.1760 0.1754 0.1754 0.1760
1592.170191 0.1778 0.1788 0.1800 0.1813 0.1841
1597.194649 0.1894 0.1994 0.2156 0.2318 0.2480
1602.219107 0.2641 0.2802 0.2964 0.3126 0.3287
1607.243564 0.3462 0.3624 0.3661 0.3664 0.3663
1612.268022 0.3658 0.3656 0.3632 0.3619 0.3604
1617.292479 0.3559 0.3425 0.3250 0.3076 0.2902
1622.316937 0.2727 0.2553 0.2379 0.2205 0.2017
1627.341394 0.1847 0.1808 0.1794 0.1789 0.1787
1632.365852 0.1800 0.1857 0.1997 0.2190 0.2390
1637.390310 0.2528 0.2593 0.2644 0.2672 0.2692
1642.414767 0.2713 0.2734 0.2759 0.2815 0.3001
1647.439225 0.3342 0.3684 0.4025 0.4366 0.4692
1652.463682 0.4947 0.5081 0.5136 0.5191 0.5249
1657.488140 0.5314 0.5396 0.5640 0.6015 0.6150
1662.512597 0.6284 0.6402 0.6497 0.6657 0.6864
1667.537055 0.6991 0.7123 0.7197 0.7244 0.7282
1672.561512 0.7315 0.7338 0.7361 0.7384 0.7405
1677.585970 0.7431 0.7470 0.7535 0.7682 0.7861
1682.610428 0.7931 0.7972 0.8000 0.8019 0.8051
1687.634885 0.8131 0.8241 0.8310 0.8358 0.8407
1692.659343 0.8450 0.8483 0.8516 0.8548 0.8576
1697.683800 0.8599 0.8620 0.8640 0.8656 0.8670
1702.708258 0.8683 0.8697 0.8715 0.8739 0.8764
1707.732715 0.8794 0.8830 0.8863 0.8885 0.8900
1712.757173 0.8914 0.8929 0.8941 0.8950 0.8956
1717.781631 0.8962 0.8968 0.8975 0.8981 0.8988
1722.806088 0.8994 0.9001 0.9012 0.9037 0.9073
1727.830546 0.9108 0.9143 0.9177 0.9205 0.9227
1732.855003 0.9249 0.9270 0.9291 0.9310 0.9326
1737.879461 0.9341 0.9353 0.9362 0.9371 0.9379
1742.903918 0.9387 0.9394 0.9399 0.9405 0.9411
1747.928376 0.9417 0.9423 0.9428 0.9434 0.9439
1752.952833 0.9445 0.9450 0.9456 0.9461 0.9465
1757.977291 0.9466 0.9467 0.9468 0.9469 0.9468
1763.001749 0.9467 0.9466 0.9463 0.9459 0.9455
1768.026206 0.9452 0.9448 0.9444 0.9441 0.9438
1773.050664 0.9437 0.9435 0.9434 0.9433 0.9439
1778.075121 0.9462 0.9494 0.9525 0.9555 0.9575
1783.099579 0.9582 0.9583 0.9584 0.9585 0.9586
1788.124036 0.9586 0.9586 0.9586 0.9586 0.9586
1793.148494 0.9585 0.9584 0.9584 0.9583 0.9584
1798.172951 0.9585 0.9586 0.9586 0.9587 0.9588
1803.197409 0.9589 0.9590 0.9592 0.9593 0.9595
1808.221867 0.9597 0.9599 0.9601 0.9603 0.9605
1813.246324 0.9607 0.9610 0.9612 0.9614 0.9617
1818.270782 0.9619 0.9621 0.9624 0.9626 0.9630
1823.295239 0.9635 0.9640 0.9644 0.9649 0.9654
1828.319697 0.9661 0.9668 0.9676 0.9684 0.9688
1833.344154 0.9690 0.9691 0.9692 0.9693 0.9694
1838.368612 0.9699 0.9708 0.9719 0.9731 0.9743
1843.393070 0.9755 0.9767 0.9777 0.9786 0.9796
1848.417527 0.9803 0.9809 0.9813 0.9817 0.9822
1853.441985 0.9824 0.9825 0.9826 0.9827 0.9828
1858.466442 0.9829 0.9829 0.9828 0.9827 0.9827
1863.490900 0.9826 0.9825 0.9825 0.9824 0.9823
1868.515357 0.9823 0.9821 0.9819 0.9817 0.9815
1873.539815 0.9812 0.9810 0.9808 0.9806 0.9805
1878.564272 0.9804 0.9803 0.9801 0.9800 0.9799
1883.588730 0.9798 0.9798 0.9799 0.9800 0.9801
1888.613188 0.9802 0.9796 0.9802 0.9808 0.9811
1893.637645 0.9814 0.9817 0.9820 0.9822 0.9824
1898.662103 0.9826 0.9828 0.9829 0.9831 0.9832
1903.686560 0.9834 0.9835 0.9837 0.9841 0.9845
1908.711018 0.9850 0.9854 0.9858 0.9862 0.9865
1913.735475 0.9865 0.9864 0.9863 0.9863 0.9862
1918.759933 0.9861 0.9860 0.9859 0.9858 0.9857
1923.784391 0.9855 0.9854 0.9852 0.9850 0.9849
1928.808848 0.9847 0.9845 0.9844 0.9842 0.9841
1933.833306 0.9839 0.9838 0.9839 0.9839 0.9840
1938.857763 0.9841 0.9842 0.9842 0.9843 0.9845
1943.882221 0.9848 0.9852 0.9855 0.9859 0.9863
1948.906678 0.9867 0.9871 0.9876 0.9876 0.9875
1953.931136 0.9874 0.9874 0.9873 0.9871 0.9870
1958.955593 0.9868 0.9867 0.9865 0.9863 0.9861
1963.980051 0.9859 0.9856 0.9853 0.9850 0.9847
1969.004509 0.9844 0.9841 0.9838 0.9835 0.9833
1974.028966 0.9831 0.9829 0.9828 0.9826 0.9824
1979.053424 0.9822 0.9820 0.9818 0.9816 0.9814
1984.077881 0.9812 0.9810 0.9809 0.9807 0.9810
1989.102339 0.9818 0.9831 0.9845 0.9862 0.9884
1994.126796 0.9906 0.9925 0.9938 0.9950 0.9959
1999.151254 0.9964 0.9965 0.9955 0.9935 0.9909
2004.175712 0.9889 0.9877 0.9868 0.9863 0.9859
2009.200169 0.9854 0.9853 0.9851 0.9850 0.9849
2014.224627 0.9847 0.9845 0.9843 0.9841 0.9838
2019.249084 0.9836 0.9834 0.9831 0.9828 0.9824
2024.273542 0.9821 0.9817 0.9814 0.9810 0.9810
2029.297999 0.9811 0.9812 0.9812 0.9813 0.9814
2034.322457 0.9814 0.9815 0.9817 0.9824 0.9831
2039.346914 0.9839 0.9848 0.9856 0.9864 0.9872
2044.371372 0.9877 0.9880 0.9875 0.9868 0.9859
2049.395830 0.9849 0.9828 0.9807 0.9791 0.9774
2054.420287 0.9764 0.9757 0.9751 0.9745 0.9739
2059.444745 0.9734 0.9730 0.9726 0.9723 0.9719
2064.469202 0.9717 0.9715 0.9713 0.9704 0.9694
2069.493660 0.9683 0.9669 0.9653 0.9637 0.9621
2074.518117 0.9606 0.9590 0.9574 0.9559 0.9543
2079.542575 0.9528 0.9513 0.9498 0.9483 0.9468
2084.567033 0.9453 0.9438 0.9423 0.9408 0.9394
2089.591490 0.9380 0.9366 0.9352 0.9337 0.9323
2094.615948 0.9308 0.9293 0.9279 0.9264 0.9249
2099.640405 0.9235 0.9220 0.9208 0.9195 0.9182
2104.664863 0.9170 0.9157 0.9144 0.9132 0.9119
2109.689320 0.9106 0.9094 0.9081 0.9070 0.9061
2114.713778 0.9052 0.9044 0.9035 0.9026 0.9017
2119.738235 0.9008 0.8999 0.8990 0.8981 0.8973
2124.762693 0.8963 0.8954 0.8945 0.8931 0.8906
2129.787151 0.8867 0.8827 0.8789 0.8763 0.8747
2134.811608 0.8731 0.8712 0.8687 0.8662 0.8638
2139.836066 0.8610 0.8571 0.8532 0.8495 0.8457
2144.860523 0.8420 0.8378 0.8321 0.8261 0.8186
2149.884981 0.8107 0.8030 0.7979 0.7937 0.7895
2154.909438 0.7853 0.7811 0.7769 0.7726 0.7683
2159.933896 0.7640 0.7597 0.7555 0.7518 0.7485
2164.958354 0.7451 0.7418 0.7384 0.7351 0.7317
2169.982811 0.7285 0.7252 0.7220 0.7188 0.7155
2175.007269 0.7123 0.7091 0.7060 0.7029 0.6997
2180.031726 0.6966 0.6932 0.6880 0.6818 0.6760
2185.056184 0.6709 0.6659 0.6614 0.6577 0.6539
2190.080641 0.6502 0.6464 0.6422 0.6377 0.6336
2195.105099 0.6314 0.6302 0.6290 0.6277 0.6263
2200.129556 0.6247 0.6233 0.6231 0.6231 0.6228
2205.154014 0.6263 0.6314 0.6374 0.6446 0.6533
2210.178472 0.6620 0.6691 0.6760 0.6833 0.6915
2215.202929 0.7006 0.7109 0.7196 0.7272 0.7337
2220.227387 0.7374 0.7412 0.7449 0.7483 0.7514
2225.251844 0.7545 0.7569 0.7585 0.7602 0.7616
2230.276302 0.7622 0.7626 0.7631 0.7636 0.7641
2235.300759 0.7650 0.7664 0.7679 0.7701 0.7733
2240.325217 0.7787 0.7828 0.7867 0.7905 0.7942
2245.349675 0.7978 0.8013 0.8045 0.8075 0.8105
2250.374132 0.8135 0.8164 0.8194 0.8223 0.8252
2255.398590 0.8281 0.8310 0.8339 0.8368 0.8395
2260.423047 0.8418 0.8437 0.8456 0.8475 0.8494
2265.447505 0.8512 0.8529 0.8545 0.8561 0.8577
2270.471962 0.8593 0.8609 0.8624 0.8639 0.8653
2275.496420 0.8667 0.8680 0.8689 0.8699 0.8708
2280.520877 0.8717 0.8726 0.8735 0.8741 0.8746
2285.545335 0.8757 0.8773 0.8761 0.8766 0.8768
2290.569793 0.8769 0.8770 0.8770 0.8767 0.8765
2295.594250 0.8762 0.8759 0.8756 0.8753 0.8750
2300.618708 0.8748 0.8746 0.8744 0.8742 0.8740
2305.643165 0.8738 0.8735 0.8730 0.8726 0.8721
2310.667623 0.8717 0.8712 0.8708 0.8703 0.8698
2315.692080 0.8694 0.8689 0.8684 0.8678 0.8669
2320.716538 0.8651 0.8627 0.8593 0.8561 0.8544
2325.740996 0.8537 0.8532 0.8531 0.8532 0.8533
2330.765453 0.8534 0.8536 0.8538 0.8541 0.8543
2335.789911 0.8548 0.8553 0.8558 0.8562 0.8563
2340.814368 0.8561 0.8558 0.8550 0.8542 0.8534
2345.838826 0.8522 0.8504 0.8486 0.8468 0.8450
2350.863283 0.8431 0.8413 0.8396 0.8382 0.8373
2355.887741 0.8364 0.8355 0.8346 0.8336 0.8324
2360.912198 0.8312 0.8294 0.8261 0.8223 0.8182
2365.936656 0.8145 0.8117 0.8089 0.8064 0.8042
2370.961114 0.8021 0.7999 0.7977 0.7955 0.7935
2375.985571 0.7917 0.7899 0.7881 0.7863 0.7845
2381.010029 0.7829 0.7814 0.7798 0.7782 0.7766
2386.034486 0.7750 0.7735 0.7722 0.7709 0.7696
2391.058944 0.7684 0.7675 0.7668 0.7661 0.7654
2396.083401 0.7646 0.7639 0.7632 0.7625 0.7619
2401.107859 0.7611 0.7604 0.7597 0.7590 0.7584
2406.132317 0.7577 0.7570 0.7563 0.7556 0.7546
2411.156774 0.7537 0.7528 0.7518 0.7509 0.7500
2416.181232 0.7491 0.7481 0.7470 0.7455 0.7440
2421.205689 0.7425 0.7410 0.7395 0.7381 0.7365
2426.230147 0.7346 0.7326 0.7305 0.7285 0.7264
2431.254604 0.7244 0.7223 0.7200 0.7178 0.7156
2436.279062 0.7133 0.7111 0.7089 0.7065 0.7041
2441.303519 0.7017 0.6993 0.6968 0.6944 0.6920
2446.327977 0.6895 0.6870 0.6845 0.6820 0.6795
2451.352435 0.6770 0.6745 0.6721 0.6698 0.6675
2456.376892 0.6653 0.6630 0.6608 0.6585 0.6563
2461.401350 0.6540 0.6517 0.6492 0.6466 0.6439
2466.425807 0.6412 0.6386 0.6359 0.6333 0.6310
2471.450265 0.6288 0.6265 0.6243 0.6221 0.6203
2476.474722 0.6187 0.6171 0.6155 0.6139 0.6123
2481.499180 0.6107 0.6091 0.6076 0.6060 0.6043
2486.523638 0.6026 0.6009 0.5993 0.5976 0.5959
2491.548095 0.5942 0.5926 0.5909 0.5891 0.5875
2496.572553 0.5858 0.5841 0.5824 0.5805 0.5785
2501.597010 0.5765 0.5745 0.5725 0.5705 0.5685
2506.621468 0.5665 0.5645 0.5624 0.5601 0.5576
2511.645925 0.5551 0.5525 0.5500 0.5474 0.5449
2516.670383 0.5423 0.5397 0.5367 0.5335 0.5303
2521.694840 0.5271 0.5239 0.5208 0.5176 0.5146
2526.719298 0.5118 0.5090 0.5063 0.5035 0.5008
2531.743756 0.4980 0.4953 0.4925 0.4897 0.4870
2536.768213 0.4842 0.4814 0.4786 0.4763 0.4744
2541.792671 0.4725 0.4706 0.4686 0.4665 0.4641
2546.817128 0.4618 0.4594 0.4566 0.4531 0.4493
2551.841586 0.4464 0.4445 0.4427 0.4409 0.4393
2556.866043 0.4378 0.4363 0.4348 0.4333 0.4319
2561.890501 0.4303 0.4289 0.4274 0.4260 0.4247
2566.914959 0.4233 0.4212 0.4176 0.4130 0.4083
2571.939416 0.4030 0.3972 0.3919 0.3876 0.3838
2576.963874 0.3806 0.3782 0.3758 0.3734 0.3710
2581.988331 0.3686 0.3665 0.3648 0.3631 0.3615
2587.012789 0.3599 0.3582 0.3566 0.3549 0.3535
2592.037246 0.3523 0.3513 0.3503 0.3492 0.3482
2597.061704 0.3471 0.3461 0.3451 0.3440 0.3430
2602.086161 0.3420 0.3412 0.3404 0.3397 0.3389
2607.110619 0.3381 0.3375 0.3369 0.3364 0.3359
2612.135077 0.3354 0.3349 0.3344 0.3339 0.3334
2617.159534 0.3329 0.3324 0.3319 0.3315 0.3314
2622.183992 0.3316 0.3317 0.3318 0.3319 0.3320
2627.208449 0.3321 0.3323 0.3325 0.3329 0.3333
2632.232907 0.3337 0.3340 0.3349 0.3363 0.3376
2637.257364 0.3388 0.3396 0.3398 0.3397 0.3395
2642.281822 0.3393 0.3391 0.3387 0.3379 0.3369
2647.306280 0.3359 0.3347 0.3335 0.3321 0.3305
2652.330737 0.3287 0.3269 0.3252 0.3238 0.3225
2657.355195 0.3212 0.3199 0.3188 0.3179 0.3169
2662.379652 0.3159 0.3150 0.3140 0.3132 0.3125
2667.404110 0.3118 0.3110 0.3103 0.3096 0.3086
2672.428567 0.3075 0.3064 0.3052 0.3032 0.3007
2677.453025 0.2978 0.2945 0.2917 0.2899 0.2886
2682.477482 0.2882 0.2882 0.2882 0.2882 0.2882
2687.501940 0.2882 0.2883 0.2883 0.2883 0.2881
2692.526398 0.2877 0.2873 0.2862 0.2846 0.2819
2697.550855 0.2795 0.2781 0.2774 0.2771 0.2769
2702.575313 0.2768 0.2767 0.2770 0.2775 0.2760
2707.599770 0.2780 0.2805 0.2818 0.2827 0.2834
2712.624228 0.2840 0.2846 0.2851 0.2854 0.2856
2717.648685 0.2856 0.2856 0.2856 0.2856 0.2856
2722.673143 0.2859 0.2881 0.2926 0.2969 0.3004
2727.697601 0.3034 0.3059 0.3081 0.3103 0.3126
2732.722058 0.3154 0.3190 0.3228 0.3266 0.3298
2737.746516 0.3318 0.3331 0.3335 0.3336 0.3339
2742.770973 0.3345 0.3353 0.3361 0.3374 0.3390
2747.795431 0.3405 0.3419 0.3430 0.3436 0.3446
2752.819888 0.3446 0.3446 0.3443 0.3436 0.3423
2757.844346 0.3409 0.3403 0.3401 0.3398 0.3398
2762.868803 0.3400 0.3402 0.3404 0.3407 0.3411
2767.893261 0.3417 0.3425 0.3432 0.3433 0.3432
2772.917719 0.3431 0.3426 0.3417 0.3408 0.3395
2777.942176 0.3378 0.3360 0.3340 0.3319 0.3296
2782.966634 0.3272 0.3247 0.3222 0.3198 0.3174
2787.991091 0.3154 0.3137 0.3122 0.3107 0.3094
2793.015549 0.3085 0.3076 0.3069 0.3065 0.3061
2798.040006 0.3058 0.3054 0.3054 0.3056 0.3059
2803.064464 0.3062 0.3067 0.3072 0.3078 0.3083
2808.088922 0.3089 0.3093 0.3095 0.3094 0.3092
2813.113379 0.3090 0.3086 0.3079 0.3071 0.3063
2818.137837 0.3055 0.3046 0.3031 0.3013 0.2995
2823.162294 0.2975 0.2953 0.2930 0.2909 0.2889
2828.186752 0.2871 0.2852 0.2834 0.2819 0.2807
2833.211209 0.2795 0.2785 0.2775 0.2767 0.2758
2838.235667 0.2749 0.2741 0.2732 0.2723 0.2715
2843.260124 0.2706 0.2698 0.2690 0.2682 0.2674
2848.284582 0.2665 0.2657 0.2647 0.2634 0.2620
2853.309040 0.2607 0.2592 0.2573 0.2554 0.2543
2858.333497 0.2545 0.2530 0.2574 0.2609 0.2649
2863.357955 0.2704 0.2771 0.2828 0.2858 0.2876
2868.382412 0.2884 0.2890 0.2894 0.2897 0.2896
2873.406870 0.2892 0.2886 0.2876 0.2867 0.2857
2878.431327 0.2852 0.2851 0.2849 0.2848 0.2846
2883.455785 0.2843 0.2841 0.2834 0.2825 0.2815
2888.480243 0.2802 0.2787 0.2773 0.2753 0.2732
2893.504700 0.2710 0.2687 0.2655 0.2622 0.2588
2898.529158 0.2554 0.2516 0.2475 0.2435 0.2393
2903.553615 0.2347 0.2301 0.2256 0.2200 0.2133
2908.578073 0.2066 0.2015 0.1968 0.1938 0.1919
2913.602530 0.1914 0.1915 0.1917 0.1920 0.1923
2918.626988 0.1928 0.1932 0.1936 0.1939 0.1942
2923.651445 0.1940 0.1934 0.1924 0.1912 0.1894
2928.675903 0.1875 0.1856 0.1836 0.1817 0.1794
2933.700361 0.1768 0.1742 0.1712 0.1675 0.1636
2938.724818 0.1599 0.1565 0.1530 0.1499 0.1469
2943.749276 0.1439 0.1412 0.1386 0.1361 0.1354
2948.773733 0.1351 0.1351 0.1337 0.1360 0.1379
2953.798191 0.1450 0.1560 0.1643 0.1703 0.1749
2958.822648 0.1779 0.1796 0.1805 0.1808 0.1812
2963.847106 0.1820 0.1955 0.2127 0.2265 0.2299
2968.871563 0.2312 0.2320 0.2327 0.2338 0.2350
2973.896021 0.2362 0.2382 0.2429 0.2492 0.2525
2978.920479 0.2543 0.2557 0.2566 0.2575 0.2585
2983.944936 0.2594 0.2600 0.2606 0.2612 0.2619
2988.969394 0.2625 0.2631 0.2638 0.2644 0.2651
2993.993851 0.2660 0.2677 0.2693 0.2709 0.2733
2999.018309 0.2759 0.2786 0.2812 0.2838 0.2866
3004.042766 0.2893 0.2920 0.2947 0.2973 0.2999
3009.067224 0.3025 0.3050 0.3073 0.3093 0.3113
3014.091682 0.3133 0.3153 0.3171 0.3189 0.3206
3019.116139 0.3225 0.3256 0.3285 0.3315 0.3345
3024.140597 0.3377 0.3408 0.3429 0.3449 0.3469
3029.165054 0.3489 0.3510 0.3532 0.3558 0.3586
3034.189512 0.3613 0.3631 0.3647 0.3663 0.3680
3039.213969 0.3696 0.3711 0.3724 0.3736 0.3750
3044.238427 0.3766 0.3787 0.3815 0.3843 0.3871
3049.262884 0.3905 0.3951 0.3993 0.4023 0.4052
3054.287342 0.4078 0.4104 0.4130 0.4156 0.4185
3059.311800 0.4214 0.4243 0.4271 0.4299 0.4327
3064.336257 0.4354 0.4381 0.4408 0.4434 0.4459
3069.360715 0.4484 0.4510 0.4539 0.4575 0.4610
3074.385172 0.4646 0.4682 0.4717 0.4752 0.4788
3079.409630 0.4825 0.4864 0.4903 0.4943 0.4982
3084.434087 0.5019 0.5053 0.5086 0.5118 0.5151
3089.458545 0.5184 0.5216 0.5249 0.5281 0.5313
3094.483003 0.5344 0.5377 0.5409 0.5439 0.5467
3099.507460 0.5495 0.5522 0.5549 0.5577 0.5605
3104.531918 0.5632 0.5661 0.5689 0.5717 0.5746
3109.556375 0.5775 0.5803 0.5832 0.5863 0.5895
3114.580833 0.5928 0.5960 0.5993 0.6026 0.6058
3119.605290 0.6097 0.6141 0.6185 0.6229 0.6271
3124.629748 0.6309 0.6344 0.6379 0.6415 0.6455
3129.654205 0.6499 0.6545 0.6582 0.6608 0.6631
3134.678663 0.6654 0.6677 0.6698 0.6717 0.6737
3139.703121 0.6754 0.6765 0.6776 0.6786 0.6796
3144.727578 0.6807 0.6817 0.6831 0.6847 0.6862
3149.752036 0.6878 0.6894 0.6911 0.6930 0.6949
3154.776493 0.6968 0.6987 0.7001 0.7013 0.7025
3159.800951 0.7037 0.7049 0.7060 0.7072 0.7084
3164.825408 0.7096 0.7108 0.7120 0.7131 0.7141
3169.849866 0.7149 0.7157 0.7166 0.7174 0.7183
3174.874324 0.7195 0.7209 0.7222 0.7237 0.7253
3179.898781 0.7270 0.7281 0.7289 0.7296 0.7296
3184.923239 0.7294 0.7283 0.7290 0.7285 0.7280
3189.947696 0.7274 0.7268 0.7259 0.7249 0.7240
3194.972154 0.7226 0.7210 0.7193 0.7177 0.7156
3199.996611 0.7135 0.7108 0.7079 0.7062 0.7048
3205.021069 0.7034 0.7023 0.7003 0.6960 0.6916
3210.045526 0.6873 0.6823 0.6772 0.6740 0.6719
3215.069984 0.6692 0.6570 0.6498 0.6443 0.6391
3220.094442 0.6332 0.6259 0.6186 0.6111 0.6009
3225.118899 0.5838 0.5665 0.5493 0.5321 0.5148
3230.143357 0.4976 0.4809 0.4682 0.4633 0.4610
3235.167814 0.4597 0.4595 0.4603 0.4609 0.4621
3240.192272 0.4644 0.4679 0.4731 0.4805 0.4932
3245.216729 0.5129 0.5249 0.5520 0.5864 0.6180
3250.241187 0.6365 0.6422 0.6480 0.6518 0.6632
3255.265645 0.6906 0.6989 0.7053 0.7102 0.7127
3260.290102 0.7143 0.7149 0.7155 0.7160 0.7165
3265.314560 0.7169 0.7176 0.7188 0.7209 0.7249
3270.339017 0.7296 0.7338 0.7360 0.7382 0.7400
3275.363475 0.7411 0.7422 0.7431 0.7436 0.7439
3280.387932 0.7441 0.7444 0.7447 0.7449 0.7450
3285.412390 0.7452 0.7454 0.7458 0.7466 0.7474
3290.436847 0.7483 0.7492 0.7500 0.7510 0.7521
3295.461305 0.7533 0.7545 0.7558 0.7571 0.7583
3300.485763 0.7592 0.7601 0.7609 0.7619 0.7625
3305.510220 0.7628 0.7630 0.7632 0.7633 0.7631
3310.534678 0.7629 0.7626 0.7623 0.7618 0.7612
3315.559135 0.7607 0.7601 0.7596 0.7590 0.7584
3320.583593 0.7577 0.7571 0.7568 0.7567 0.7567
3325.608050 0.7566 0.7566 0.7566 0.7567 0.7568
3330.632508 0.7568 0.7569 0.7570 0.7570 0.7571
3335.656966 0.7572 0.7573 0.7573 0.7574 0.7575
3340.681423 0.7576 0.7575 0.7572 0.7570 0.7567
3345.705881 0.7561 0.7553 0.7544 0.7535 0.7525
3350.730338 0.7516 0.7507 0.7499 0.7490 0.7481
3355.754796 0.7473 0.7464 0.7456 0.7446 0.7436
3360.779253 0.7426 0.7416 0.7406 0.7396 0.7385
3365.803711 0.7375 0.7365 0.7355 0.7344 0.7334
3370.828168 0.7323 0.7313 0.7302 0.7292 0.7281
3375.852626 0.7270 0.7261 0.7254 0.7248 0.7241
3380.877084 0.7234 0.7228 0.7221 0.7214 0.7207
3385.901541 0.7201 0.7195 0.7189 0.7183 0.7176
3390.925999 0.7170 0.7165 0.7159 0.7153 0.7147
3395.950456 0.7142 0.7137 0.7132 0.7127 0.7122
3400.974914 0.7117 0.7112 0.7107 0.7102 0.7097
3405.999371 0.7092 0.7088 0.7084 0.7079 0.7075
3411.023829 0.7071 0.7067 0.7062 0.7058 0.7054
3416.048287 0.7050 0.7047 0.7045 0.7044 0.7043
3421.072744 0.7041 0.7041 0.7045 0.7049 0.7053
3426.097202 0.7057 0.7061 0.7065 0.7070 0.7077
3431.121659 0.7083 0.7090 0.7098 0.7105 0.7113
3436.146117 0.7118 0.7123 0.7127 0.7131 0.7137
3441.170574 0.7147 0.7158 0.7168 0.7178 0.7189
3446.195032 0.7198 0.7208 0.7218 0.7228 0.7238
3451.219489 0.7248 0.7258 0.7270 0.7283 0.7296
3456.243947 0.7309 0.7322 0.7335 0.7348 0.7361
3461.268405 0.7372 0.7383 0.7394 0.7406 0.7417
3466.292862 0.7429 0.7443 0.7457 0.7471 0.7484
3471.317320 0.7496 0.7508 0.7520 0.7533 0.7545
3476.341777 0.7557 0.7570 0.7582 0.7595 0.7608
3481.366235 0.7620 0.7633 0.7646 0.7660 0.7674
3486.390692 0.7688 0.7700 0.7711 0.7722 0.7734
3491.415150 0.7744 0.7754 0.7763 0.7773 0.7783
3496.439608 0.7794 0.7805 0.7816 0.7827 0.7837
3501.464065 0.7848 0.7860 0.7873 0.7887 0.7901
3506.488523 0.7914 0.7926 0.7936 0.7946 0.7956
3511.512980 0.7965 0.7974 0.7983 0.7994 0.8007
3516.537438 0.8020 0.8034 0.8047 0.8060 0.8073
3521.561895 0.8086 0.8098 0.8110 0.8122 0.8134
3526.586353 0.8146 0.8159 0.8172 0.8184 0.8197
3531.610810 0.8210 0.8223 0.8235 0.8248 0.8261
3536.635268 0.8274 0.8287 0.8301 0.8315 0.8330
3541.659726 0.8345 0.8359 0.8374 0.8388 0.8402
3546.684183 0.8415 0.8429 0.8443 0.8454 0.8465
3551.708641 0.8475 0.8485 0.8495 0.8501 0.8506
3556.733098 0.8510 0.8515 0.8520 0.8524 0.8529
3561.757556 0.8533 0.8537 0.8541 0.8550 0.8566
3566.782013 0.8595 0.8628 0.8679 0.8736 0.8775
3571.806471 0.8793 0.8807 0.8821 0.8834 0.8848
3576.830929 0.8872 0.8900 0.8928 0.8956 0.8984
3581.855386 0.9012 0.9039 0.9066 0.9093 0.9119
3586.879844 0.9141 0.9160 0.9169 0.9177 0.9185
3591.904301 0.9193 0.9201 0.9209 0.9218 0.9226
3596.928759 0.9236 0.9249 0.9263 0.9272 0.9280
3601.953216 0.9286 0.9293 0.9299 0.9305 0.9309
3606.977674 0.9313 0.9318 0.9322 0.9327 0.9338
3612.002131 0.9351 0.9363 0.9375 0.9395 0.9420
3617.026589 0.9443 0.9457 0.9471 0.9485 0.9499
3622.051047 0.9511 0.9517 0.9522 0.9526 0.9532
3627.075504 0.9545 0.9565 0.9584 0.9603 0.9621
3632.099962 0.9638 0.9655 0.9669 0.9676 0.9683
3637.124419 0.9687 0.9689 0.9691 0.9692 0.9694
3642.148877 0.9695 0.9696 0.9696 0.9696 0.9696
3647.173334 0.9699 0.9709 0.9718 0.9727 0.9736
3652.197792 0.9746 0.9755 0.9765 0.9776 0.9789
3657.222250 0.9802 0.9815 0.9828 0.9844 0.9859
3662.246707 0.9875 0.9891 0.9906 0.9921 0.9936
3667.271165 0.9950 0.9958 0.9962 0.9966 0.9970
3672.295622 0.9975 0.9979 0.9983 0.9986 0.9990
3677.320080 0.9993 0.9997 1.0000 1.0003 1.0005
3682.344537 1.0007 1.0010 1.0012 1.0014 1.0016
3687.368995 1.0019 1.0021 1.0023 1.0026 1.0028
3692.393452 1.0032 1.0038 1.0044 1.0051 1.0063
3697.417910 1.0079 1.0096 1.0112 1.0125 1.0137
3702.442368 1.0149 1.0158 1.0164 1.0169 1.0174
3707.466825 1.0179 1.0185 1.0189 1.0192 1.0194
3712.491283 1.0196 1.0198 1.0200 1.0203 1.0205
3717.515740 1.0207 1.0208 1.0209 1.0210 1.0211
3722.540198 1.0212 1.0213 1.0214 1.0215 1.0216
3727.564655 1.0220 1.0226 1.0232 1.0237 1.0243
3732.589113 1.0249 1.0257 1.0256 1.0268 1.0279
3737.613571 1.0282 1.0282 1.0281 1.0277 1.0271
3742.638028 1.0264 1.0256 1.0248 1.0239 1.0228
3747.662486 1.0214 1.0201 1.0187 1.0174 1.0159
3752.686943 1.0143 1.0126 1.0110 1.0094 1.0083
3757.711401 1.0074 1.0065 1.0055 1.0047 1.0041
3762.735858 1.0042 1.0046 1.0049 1.0053 1.0056
3767.760316 1.0062 1.0069 1.0076 1.0084 1.0092
3772.784773 1.0100 1.0108 1.0118 1.0129 1.0139
3777.809231 1.0149 1.0158 1.0166 1.0173 1.0181
3782.833689 1.0188 1.0195 1.0202 1.0206 1.0210
3787.858146 1.0214 1.0218 1.0223 1.0222 1.0222
3792.882604 1.0221 1.0221 1.0220 1.0220 1.0222
3797.907061 1.0226 1.0231 1.0241 1.0251 1.0260
3802.931519 1.0266 1.0271 1.0275 1.0280 1.0285
3807.955976 1.0289 1.0294 1.0298 1.0303 1.0308
3812.980434 1.0312 1.0317 1.0321 1.0323
##END=
