##TITLE=Indole, 5-methyl-, hydrochloride
##JCAMP-DX=4.24
##DATA TYPE=INFRARED SPECTRUM
##CLASS=COBLENTZ III
##ORIGIN=BRITISH PETROLEUM CO. LTD., ENGLAND
##OWNER=Copyright (C) 1987 by the Coblentz Society
Collection (C) 2018 copyright by the U.S. Secretary of Commerce
on behalf of the United States of America. All rights reserved.
##DATE=1972/07/03
##NAMES=5-methyl-1H-indole hydrochloride
##MOLFORM=C9 H10 Cl N
##SOURCE REFERENCE=COBLENTZ NO. 9396
##$NIST ID=B6009396
##$NIST SOURCE=COBLENTZ
##$NIST IMAGE=cob9396
##SPECTROMETER/DATA SYSTEM=PERKIN-ELMER 157
##STATE=SOLID (KBr DISC, 0.9% WT.)
$$ HCl RUN IN KBr MAY CONTAIN SOME HBr
$$ REF. Can. J. Spec., 18,4,101, '73 C. S. DOUSE and P. B. TOOKE
##SAMPLING PROCEDURE=TRANSMISSION
##RESOLUTION=2
##DATA PROCESSING=DIGITIZED BY COBLENTZ SOCIETY (BATCH II) FROM HARD COPY
##XUNITS=1/CM
##YUNITS=TRANSMITTANCE
##XFACTOR=1.0
##YFACTOR=1
##FIRSTX=668
##LASTX=4000
##FIRSTY=0.584
##MAXX=4000
##MINX=668
##MAXY=0.623
##MINY=0.025
##NPOINTS=3333
##XYDATA=(X++(Y..Y))
668.000000 0.5840 0.5845 0.5851 0.5857 0.5860
673.000000 0.5861 0.5859 0.5856 0.5855 0.5854
678.000000 0.5849 0.5842 0.5836 0.5831 0.5825
683.000000 0.5821 0.5815 0.5810 0.5804 0.5801
688.000000 0.5802 0.5802 0.5802 0.5803 0.5782
693.000000 0.5744 0.5661 0.5610 0.5580 0.5562
698.000000 0.5556 0.5551 0.5542 0.5539 0.5537
703.000000 0.5533 0.5525 0.5505 0.5530 0.5460
708.000000 0.5444 0.5430 0.5418 0.5413 0.5409
713.000000 0.5406 0.5411 0.5431 0.5444 0.5448
718.000000 0.5450 0.5449 0.5448 0.5446 0.5441
723.000000 0.5430 0.5419 0.5408 0.5401 0.5419
728.000000 0.5459 0.5508 0.5532 0.5541 0.5541
733.000000 0.5543 0.5547 0.5551 0.5554 0.5556
738.000000 0.5558 0.5560 0.5562 0.5562 0.5563
743.000000 0.5564 0.5565 0.5565 0.5564 0.5562
748.000000 0.5561 0.5559 0.5558 0.5556 0.5555
753.000000 0.5553 0.5550 0.5547 0.5545 0.5542
758.000000 0.5541 0.5540 0.5539 0.5539 0.5539
763.000000 0.5545 0.5552 0.5560 0.5564 0.5569
768.000000 0.5573 0.5577 0.5577 0.5576 0.5572
773.000000 0.5568 0.5564 0.5558 0.5553 0.5547
778.000000 0.5540 0.5526 0.5496 0.5439 0.5411
783.000000 0.5395 0.5381 0.5327 0.5232 0.5122
788.000000 0.5019 0.4877 0.4756 0.4499 0.4340
793.000000 0.4160 0.3988 0.3777 0.3657 0.3547
798.000000 0.3418 0.3273 0.3080 0.2911 0.2767
803.000000 0.2621 0.2487 0.2383 0.2250 0.2096
808.000000 0.1898 0.1744 0.1660 0.1572 0.1496
813.000000 0.1444 0.1429 0.1409 0.1454 0.1521
818.000000 0.1558 0.1596 0.1657 0.1726 0.1830
823.000000 0.2079 0.2198 0.2424 0.2617 0.2801
828.000000 0.2984 0.3168 0.3351 0.3533 0.3715
833.000000 0.3897 0.4077 0.4258 0.4439 0.4619
838.000000 0.4694 0.4721 0.4737 0.4764 0.4850
843.000000 0.5048 0.5158 0.5240 0.5328 0.5356
848.000000 0.5364 0.5368 0.5373 0.5352 0.5319
853.000000 0.5259 0.5225 0.5207 0.5185 0.5076
858.000000 0.5044 0.5014 0.4964 0.4913 0.4868
863.000000 0.4841 0.4819 0.4798 0.4786 0.4775
868.000000 0.4765 0.4759 0.4754 0.4747 0.4743
873.000000 0.4739 0.4736 0.4733 0.4722 0.4731
878.000000 0.4733 0.4736 0.4740 0.4744 0.4748
883.000000 0.4751 0.4755 0.4759 0.4762 0.4765
888.000000 0.4769 0.4774 0.4780 0.4785 0.4792
893.000000 0.4802 0.4814 0.4837 0.4867 0.4901
898.000000 0.4936 0.4984 0.5040 0.5117 0.5164
903.000000 0.5215 0.5267 0.5318 0.5354 0.5374
908.000000 0.5388 0.5399 0.5410 0.5434 0.5490
913.000000 0.5521 0.5527 0.5529 0.5531 0.5531
918.000000 0.5532 0.5535 0.5537 0.5561 0.5537
923.000000 0.5537 0.5536 0.5530 0.5510 0.5475
928.000000 0.5439 0.5416 0.5393 0.5372 0.5318
933.000000 0.5297 0.5285 0.5282 0.5280 0.5281
938.000000 0.5281 0.5286 0.5291 0.5297 0.5303
943.000000 0.5294 0.5266 0.5229 0.5202 0.5179
948.000000 0.5159 0.5113 0.5084 0.5073 0.5068
953.000000 0.5076 0.5062 0.5103 0.5121 0.5131
958.000000 0.5141 0.5155 0.5168 0.5179 0.5201
963.000000 0.5285 0.5334 0.5351 0.5361 0.5370
968.000000 0.5376 0.5385 0.5402 0.5467 0.5524
973.000000 0.5532 0.5534 0.5535 0.5544 0.5524
978.000000 0.5504 0.5468 0.5437 0.5419 0.5410
983.000000 0.5401 0.5397 0.5395 0.5368 0.5282
988.000000 0.5219 0.5173 0.5144 0.5119 0.5098
993.000000 0.5082 0.5066 0.5055 0.5048 0.5040
998.000000 0.5034 0.5024 0.5015 0.5003 0.4975
1003.000000 0.4940 0.4905 0.4880 0.4851 0.4822
1008.000000 0.4802 0.4789 0.4785 0.4783 0.4783
1013.000000 0.4786 0.4788 0.4790 0.4792 0.4791
1018.000000 0.4762 0.4731 0.4681 0.4627 0.4567
1023.000000 0.4500 0.4422 0.4356 0.4288 0.4181
1028.000000 0.4072 0.3976 0.3915 0.3855 0.3800
1033.000000 0.3750 0.3690 0.3637 0.3636 0.3636
1038.000000 0.3598 0.3656 0.3686 0.3725 0.3770
1043.000000 0.3821 0.3872 0.3918 0.3963 0.4014
1048.000000 0.4069 0.4128 0.4191 0.4252 0.4293
1053.000000 0.4304 0.4314 0.4326 0.4341 0.4355
1058.000000 0.4380 0.4415 0.4461 0.4482 0.4493
1063.000000 0.4504 0.4508 0.4513 0.4525 0.4514
1068.000000 0.4507 0.4499 0.4485 0.4451 0.4428
1073.000000 0.4412 0.4396 0.4379 0.4364 0.4351
1078.000000 0.4338 0.4324 0.4300 0.4263 0.4208
1083.000000 0.4156 0.4122 0.4103 0.4096 0.4088
1088.000000 0.4082 0.4077 0.4070 0.4064 0.4058
1093.000000 0.4029 0.3996 0.3965 0.3935 0.3894
1098.000000 0.3850 0.3806 0.3766 0.3742 0.3720
1103.000000 0.3702 0.3658 0.3585 0.3518 0.3448
1108.000000 0.3398 0.3354 0.3313 0.3274 0.3236
1113.000000 0.3205 0.3176 0.3155 0.3145 0.3134
1118.000000 0.3118 0.3097 0.3072 0.3051 0.3038
1123.000000 0.3027 0.3017 0.3025 0.3036 0.3016
1128.000000 0.3055 0.3066 0.3080 0.3092 0.3106
1133.000000 0.3121 0.3136 0.3151 0.3166 0.3180
1138.000000 0.3194 0.3206 0.3213 0.3213 0.3206
1143.000000 0.3191 0.3177 0.3161 0.3142 0.3130
1148.000000 0.3131 0.3135 0.3141 0.3149 0.3172
1153.000000 0.3209 0.3290 0.3487 0.3552 0.3585
1158.000000 0.3597 0.3598 0.3600 0.3602 0.3606
1163.000000 0.3611 0.3616 0.3621 0.3625 0.3625
1168.000000 0.3626 0.3634 0.3646 0.3660 0.3678
1173.000000 0.3692 0.3705 0.3721 0.3741 0.3772
1178.000000 0.3800 0.3827 0.3880 0.3948 0.4001
1183.000000 0.4026 0.4034 0.4018 0.4006 0.3991
1188.000000 0.3971 0.3935 0.3826 0.3761 0.3749
1193.000000 0.3734 0.3710 0.3678 0.3620 0.3457
1198.000000 0.3350 0.3285 0.3230 0.3162 0.3074
1203.000000 0.3057 0.3058 0.3046 0.3072 0.3091
1208.000000 0.3115 0.3146 0.3178 0.3233 0.3333
1213.000000 0.3400 0.3440 0.3453 0.3467 0.3444
1218.000000 0.3425 0.3393 0.3349 0.3306 0.3273
1223.000000 0.3251 0.3235 0.3230 0.3225 0.3226
1228.000000 0.3227 0.3227 0.3228 0.3229 0.3230
1233.000000 0.3231 0.3225 0.3232 0.3251 0.3291
1238.000000 0.3350 0.3403 0.3454 0.3506 0.3559
1243.000000 0.3596 0.3625 0.3655 0.3677 0.3695
1248.000000 0.3707 0.3708 0.3736 0.3693 0.3672
1253.000000 0.3644 0.3614 0.3589 0.3564 0.3543
1258.000000 0.3521 0.3501 0.3487 0.3487 0.3476
1263.000000 0.3496 0.3542 0.3641 0.3684 0.3707
1268.000000 0.3727 0.3738 0.3745 0.3746 0.3745
1273.000000 0.3753 0.3738 0.3732 0.3722 0.3711
1278.000000 0.3698 0.3679 0.3658 0.3632 0.3604
1283.000000 0.3568 0.3530 0.3478 0.3340 0.3104
1288.000000 0.2934 0.2888 0.2841 0.2799 0.2777
1293.000000 0.2777 0.2779 0.2785 0.2782 0.2803
1298.000000 0.2818 0.2839 0.2883 0.2936 0.2985
1303.000000 0.3026 0.3063 0.3145 0.3281 0.3313
1308.000000 0.3353 0.3399 0.3435 0.3470 0.3506
1313.000000 0.3544 0.3580 0.3618 0.3646 0.3664
1318.000000 0.3683 0.3702 0.3716 0.3724 0.3732
1323.000000 0.3740 0.3743 0.3744 0.3743 0.3745
1328.000000 0.3741 0.3736 0.3730 0.3719 0.3696
1333.000000 0.3641 0.3562 0.3344 0.3250 0.3205
1338.000000 0.3170 0.3135 0.3099 0.3057 0.3002
1343.000000 0.2915 0.2841 0.2775 0.2703 0.2630
1348.000000 0.2514 0.2438 0.2272 0.2202 0.2170
1353.000000 0.2161 0.2150 0.2169 0.2227 0.2311
1358.000000 0.2371 0.2449 0.2516 0.2566 0.2608
1363.000000 0.2660 0.2677 0.2676 0.2699 0.2668
1368.000000 0.2663 0.2656 0.2644 0.2630 0.2614
1373.000000 0.2607 0.2605 0.2606 0.2588 0.2622
1378.000000 0.2641 0.2662 0.2677 0.2689 0.2700
1383.000000 0.2709 0.2713 0.2715 0.2716 0.2704
1388.000000 0.2701 0.2685 0.2667 0.2647 0.2625
1393.000000 0.2603 0.2581 0.2556 0.2529 0.2501
1398.000000 0.2472 0.2443 0.2415 0.2390 0.2368
1403.000000 0.2346 0.2338 0.2330 0.2321 0.2313
1408.000000 0.2307 0.2302 0.2297 0.2292 0.2288
1413.000000 0.2283 0.2280 0.2278 0.2276 0.2274
1418.000000 0.2272 0.2269 0.2264 0.2259 0.2254
1423.000000 0.2249 0.2233 0.2216 0.2175 0.2118
1428.000000 0.2052 0.1992 0.1941 0.1905 0.1871
1433.000000 0.1838 0.1804 0.1768 0.1732 0.1697
1438.000000 0.1665 0.1633 0.1600 0.1571 0.1544
1443.000000 0.1516 0.1491 0.1476 0.1463 0.1450
1448.000000 0.1437 0.1425 0.1415 0.1406 0.1397
1453.000000 0.1388 0.1379 0.1370 0.1361 0.1350
1458.000000 0.1341 0.1332 0.1319 0.1300 0.1280
1463.000000 0.1258 0.1219 0.1170 0.1112 0.1045
1468.000000 0.0972 0.0898 0.0826 0.0758 0.0693
1473.000000 0.0629 0.0568 0.0524 0.0483 0.0448
1478.000000 0.0426 0.0408 0.0391 0.0375 0.0358
1483.000000 0.0342 0.0332 0.0323 0.0313 0.0305
1488.000000 0.0300 0.0298 0.0297 0.0296 0.0294
1493.000000 0.0294 0.0295 0.0297 0.0284 0.0303
1498.000000 0.0321 0.0345 0.0394 0.0463 0.0622
1503.000000 0.0727 0.0741 0.0755 0.0765 0.0775
1508.000000 0.0786 0.0797 0.0811 0.0828 0.0852
1513.000000 0.0880 0.1263 0.1404 0.1413 0.1418
1518.000000 0.1422 0.1426 0.1429 0.1432 0.1435
1523.000000 0.1438 0.1440 0.1442 0.1444 0.1445
1528.000000 0.1445 0.1429 0.1444 0.1443 0.1442
1533.000000 0.1442 0.1441 0.1440 0.1439 0.1437
1538.000000 0.1434 0.1432 0.1430 0.1427 0.1424
1543.000000 0.1419 0.1415 0.1409 0.1401 0.1392
1548.000000 0.1369 0.1313 0.1282 0.1268 0.1255
1553.000000 0.1244 0.1236 0.1230 0.1222 0.1210
1558.000000 0.1198 0.1184 0.1165 0.1149 0.1139
1563.000000 0.1130 0.1120 0.1113 0.1108 0.1103
1568.000000 0.1098 0.1095 0.1094 0.1093 0.1094
1573.000000 0.1088 0.1099 0.1102 0.1113 0.1125
1578.000000 0.1141 0.1159 0.1176 0.1189 0.1197
1583.000000 0.1199 0.1199 0.1195 0.1194 0.1184
1588.000000 0.1169 0.1151 0.1132 0.1113 0.1092
1593.000000 0.1071 0.1050 0.1028 0.1006 0.0976
1598.000000 0.0941 0.0909 0.0887 0.0872 0.0861
1603.000000 0.0855 0.0849 0.0844 0.0842 0.0840
1608.000000 0.0838 0.0838 0.0839 0.0827 0.0840
1613.000000 0.0841 0.0843 0.0845 0.0850 0.0857
1618.000000 0.0877 0.0898 0.0918 0.0940 0.0969
1623.000000 0.1005 0.1044 0.1084 0.1139 0.1284
1628.000000 0.1465 0.1540 0.1562 0.1571 0.1574
1633.000000 0.1578 0.1581 0.1582 0.1583 0.1638
1638.000000 0.1707 0.1769 0.1822 0.1879 0.1949
1643.000000 0.2007 0.2040 0.2073 0.2104 0.2132
1648.000000 0.2159 0.2189 0.2239 0.2272 0.2304
1653.000000 0.2332 0.2379 0.2453 0.2538 0.2618
1658.000000 0.2696 0.2836 0.2946 0.3036 0.3332
1663.000000 0.3514 0.3618 0.3691 0.3988 0.4424
1668.000000 0.4558 0.4703 0.4856 0.4994 0.5105
1673.000000 0.5181 0.5242 0.5294 0.5333 0.5363
1678.000000 0.5392 0.5421 0.5440 0.5458 0.5477
1683.000000 0.5495 0.5511 0.5522 0.5530 0.5538
1688.000000 0.5545 0.5550 0.5551 0.5551 0.5550
1693.000000 0.5550 0.5549 0.5549 0.5549 0.5549
1698.000000 0.5556 0.5565 0.5574 0.5584 0.5599
1703.000000 0.5618 0.5637 0.5683 0.5725 0.5755
1708.000000 0.5769 0.5774 0.5778 0.5781 0.5785
1713.000000 0.5789 0.5792 0.5794 0.5797 0.5798
1718.000000 0.5801 0.5803 0.5806 0.5808 0.5790
1723.000000 0.5812 0.5814 0.5812 0.5809 0.5806
1728.000000 0.5802 0.5798 0.5795 0.5791 0.5787
1733.000000 0.5783 0.5778 0.5772 0.5767 0.5761
1738.000000 0.5753 0.5742 0.5730 0.5717 0.5701
1743.000000 0.5685 0.5671 0.5658 0.5649 0.5639
1748.000000 0.5629 0.5621 0.5614 0.5608 0.5601
1753.000000 0.5595 0.5588 0.5581 0.5574 0.5568
1758.000000 0.5561 0.5555 0.5547 0.5537 0.5528
1763.000000 0.5519 0.5509 0.5500 0.5491 0.5482
1768.000000 0.5473 0.5465 0.5457 0.5449 0.5441
1773.000000 0.5433 0.5425 0.5416 0.5408 0.5400
1778.000000 0.5393 0.5387 0.5380 0.5373 0.5367
1783.000000 0.5361 0.5354 0.5348 0.5341 0.5334
1788.000000 0.5327 0.5320 0.5312 0.5304 0.5296
1793.000000 0.5289 0.5281 0.5273 0.5264 0.5257
1798.000000 0.5248 0.5238 0.5229 0.5219 0.5209
1803.000000 0.5199 0.5189 0.5177 0.5165 0.5153
1808.000000 0.5140 0.5128 0.5116 0.5101 0.5085
1813.000000 0.5068 0.5052 0.5036 0.5019 0.5003
1818.000000 0.4987 0.4946 0.4908 0.4879 0.4858
1823.000000 0.4849 0.4842 0.4836 0.4830 0.4823
1828.000000 0.4816 0.4810 0.4801 0.4792 0.4783
1833.000000 0.4756 0.4622 0.4593 0.4589 0.4585
1838.000000 0.4581 0.4577 0.4573 0.4570 0.4567
1843.000000 0.4563 0.4559 0.4557 0.4553 0.4549
1848.000000 0.4545 0.4538 0.4532 0.4525 0.4518
1853.000000 0.4511 0.4445 0.4388 0.4369 0.4358
1858.000000 0.4346 0.4336 0.4326 0.4315 0.4304
1863.000000 0.4294 0.4284 0.4273 0.4262 0.4251
1868.000000 0.4246 0.4241 0.4236 0.4232 0.4227
1873.000000 0.4223 0.4220 0.4206 0.4189 0.4170
1878.000000 0.4153 0.4134 0.4115 0.4093 0.4070
1883.000000 0.4048 0.4029 0.4010 0.3992 0.3974
1888.000000 0.3955 0.3930 0.3903 0.3876 0.3854
1893.000000 0.3833 0.3811 0.3787 0.3768 0.3756
1898.000000 0.3755 0.3754 0.3753 0.3752 0.3750
1903.000000 0.3749 0.3748 0.3747 0.3746 0.3744
1908.000000 0.3739 0.3731 0.3721 0.3711 0.3700
1913.000000 0.3688 0.3673 0.3658 0.3647 0.3643
1918.000000 0.3642 0.3642 0.3642 0.3642 0.3642
1923.000000 0.3642 0.3632 0.3619 0.3605 0.3593
1928.000000 0.3581 0.3569 0.3557 0.3546 0.3534
1933.000000 0.3524 0.3515 0.3507 0.3499 0.3492
1938.000000 0.3484 0.3476 0.3468 0.3460 0.3456
1943.000000 0.3452 0.3448 0.3444 0.3440 0.3436
1948.000000 0.3432 0.3428 0.3424 0.3422 0.3421
1953.000000 0.3420 0.3419 0.3418 0.3417 0.3415
1958.000000 0.3415 0.3415 0.3415 0.3416 0.3416
1963.000000 0.3417 0.3419 0.3419 0.3420 0.3421
1968.000000 0.3422 0.3413 0.3425 0.3427 0.3429
1973.000000 0.3430 0.3432 0.3434 0.3436 0.3438
1978.000000 0.3441 0.3443 0.3445 0.3448 0.3449
1983.000000 0.3452 0.3454 0.3456 0.3458 0.3462
1988.000000 0.3465 0.3468 0.3472 0.3475 0.3478
1993.000000 0.3482 0.3485 0.3489 0.3492 0.3496
1998.000000 0.3501 0.3505 0.3509 0.3512 0.3516
2003.000000 0.3520 0.3523 0.3527 0.3532 0.3536
2008.000000 0.3540 0.3544 0.3548 0.3552 0.3557
2013.000000 0.3562 0.3567 0.3572 0.3578 0.3583
2018.000000 0.3589 0.3594 0.3599 0.3603 0.3608
2023.000000 0.3613 0.3619 0.3624 0.3629 0.3634
2028.000000 0.3639 0.3645 0.3651 0.3657 0.3663
2033.000000 0.3669 0.3675 0.3679 0.3683 0.3688
2038.000000 0.3692 0.3695 0.3697 0.3699 0.3700
2043.000000 0.3701 0.3702 0.3704 0.3705 0.3705
2048.000000 0.3706 0.3706 0.3707 0.3708 0.3708
2053.000000 0.3708 0.3708 0.3708 0.3708 0.3708
2058.000000 0.3709 0.3709 0.3709 0.3709 0.3709
2063.000000 0.3709 0.3709 0.3709 0.3709 0.3708
2068.000000 0.3708 0.3708 0.3708 0.3708 0.3707
2073.000000 0.3707 0.3707 0.3706 0.3706 0.3706
2078.000000 0.3706 0.3705 0.3731 0.3704 0.3703
2083.000000 0.3703 0.3702 0.3702 0.3701 0.3701
2088.000000 0.3701 0.3700 0.3700 0.3699 0.3699
2093.000000 0.3697 0.3695 0.3693 0.3690 0.3688
2098.000000 0.3686 0.3684 0.3682 0.3680 0.3678
2103.000000 0.3675 0.3671 0.3667 0.3663 0.3659
2108.000000 0.3655 0.3651 0.3648 0.3644 0.3640
2113.000000 0.3637 0.3632 0.3628 0.3623 0.3618
2118.000000 0.3613 0.3609 0.3604 0.3600 0.3595
2123.000000 0.3590 0.3586 0.3581 0.3577 0.3571
2128.000000 0.3566 0.3560 0.3555 0.3549 0.3544
2133.000000 0.3539 0.3534 0.3528 0.3523 0.3517
2138.000000 0.3512 0.3506 0.3501 0.3495 0.3490
2143.000000 0.3484 0.3478 0.3471 0.3464 0.3457
2148.000000 0.3450 0.3443 0.3437 0.3430 0.3423
2153.000000 0.3416 0.3406 0.3395 0.3382 0.3369
2158.000000 0.3356 0.3342 0.3328 0.3314 0.3300
2163.000000 0.3288 0.3278 0.3267 0.3257 0.3246
2168.000000 0.3235 0.3225 0.3214 0.3203 0.3193
2173.000000 0.3185 0.3177 0.3169 0.3162 0.3155
2178.000000 0.3147 0.3140 0.3132 0.3124 0.3117
2183.000000 0.3109 0.3102 0.3095 0.3087 0.3079
2188.000000 0.3071 0.3063 0.3054 0.3045 0.3037
2193.000000 0.3028 0.3020 0.3011 0.3002 0.2994
2198.000000 0.2985 0.2977 0.2968 0.2960 0.2951
2203.000000 0.2942 0.2932 0.2922 0.2910 0.2898
2208.000000 0.2886 0.2874 0.2863 0.2851 0.2839
2213.000000 0.2827 0.2816 0.2804 0.2792 0.2782
2218.000000 0.2771 0.2762 0.2753 0.2743 0.2734
2223.000000 0.2724 0.2714 0.2705 0.2695 0.2686
2228.000000 0.2676 0.2667 0.2657 0.2647 0.2638
2233.000000 0.2629 0.2620 0.2611 0.2603 0.2594
2238.000000 0.2586 0.2577 0.2569 0.2560 0.2552
2243.000000 0.2543 0.2535 0.2526 0.2518 0.2510
2248.000000 0.2501 0.2493 0.2484 0.2476 0.2468
2253.000000 0.2459 0.2451 0.2442 0.2433 0.2424
2258.000000 0.2415 0.2406 0.2397 0.2388 0.2379
2263.000000 0.2371 0.2362 0.2353 0.2344 0.2335
2268.000000 0.2326 0.2317 0.2308 0.2297 0.2283
2273.000000 0.2269 0.2255 0.2242 0.2228 0.2215
2278.000000 0.2201 0.2187 0.2173 0.2160 0.2146
2283.000000 0.2133 0.2119 0.2106 0.2093 0.2079
2288.000000 0.2066 0.2053 0.2040 0.2027 0.2014
2293.000000 0.2001 0.1988 0.1976 0.1964 0.1953
2298.000000 0.1941 0.1930 0.1919 0.1908 0.1897
2303.000000 0.1885 0.1874 0.1863 0.1852 0.1840
2308.000000 0.1829 0.1817 0.1806 0.1794 0.1782
2313.000000 0.1771 0.1759 0.1747 0.1736 0.1724
2318.000000 0.1704 0.1684 0.1653 0.1620 0.1602
2323.000000 0.1589 0.1578 0.1567 0.1557 0.1547
2328.000000 0.1537 0.1529 0.1521 0.1514 0.1507
2333.000000 0.1501 0.1494 0.1487 0.1481 0.1474
2338.000000 0.1467 0.1460 0.1454 0.1447 0.1440
2343.000000 0.1434 0.1427 0.1420 0.1414 0.1407
2348.000000 0.1401 0.1395 0.1389 0.1383 0.1378
2353.000000 0.1372 0.1366 0.1360 0.1354 0.1348
2358.000000 0.1342 0.1336 0.1330 0.1324 0.1317
2363.000000 0.1310 0.1303 0.1296 0.1289 0.1282
2368.000000 0.1276 0.1269 0.1262 0.1256 0.1249
2373.000000 0.1242 0.1235 0.1227 0.1218 0.1209
2378.000000 0.1199 0.1189 0.1179 0.1169 0.1159
2383.000000 0.1149 0.1139 0.1129 0.1118 0.1106
2388.000000 0.1095 0.1081 0.1068 0.1056 0.1043
2393.000000 0.1030 0.1018 0.1005 0.0992 0.0980
2398.000000 0.0967 0.0954 0.0941 0.0928 0.0916
2403.000000 0.0903 0.0891 0.0878 0.0865 0.0852
2408.000000 0.0840 0.0828 0.0815 0.0803 0.0791
2413.000000 0.0779 0.0767 0.0754 0.0742 0.0730
2418.000000 0.0719 0.0710 0.0701 0.0692 0.0683
2423.000000 0.0674 0.0665 0.0656 0.0648 0.0639
2428.000000 0.0632 0.0624 0.0617 0.0611 0.0604
2433.000000 0.0597 0.0590 0.0583 0.0576 0.0569
2438.000000 0.0562 0.0556 0.0549 0.0542 0.0536
2443.000000 0.0529 0.0522 0.0515 0.0509 0.0502
2448.000000 0.0495 0.0489 0.0482 0.0475 0.0468
2453.000000 0.0461 0.0455 0.0449 0.0443 0.0438
2458.000000 0.0433 0.0427 0.0422 0.0417 0.0411
2463.000000 0.0406 0.0400 0.0395 0.0390 0.0385
2468.000000 0.0380 0.0375 0.0369 0.0365 0.0361
2473.000000 0.0358 0.0355 0.0351 0.0348 0.0345
2478.000000 0.0342 0.0338 0.0335 0.0332 0.0329
2483.000000 0.0326 0.0323 0.0321 0.0319 0.0317
2488.000000 0.0314 0.0312 0.0310 0.0308 0.0306
2493.000000 0.0304 0.0302 0.0300 0.0298 0.0296
2498.000000 0.0295 0.0293 0.0291 0.0289 0.0287
2503.000000 0.0286 0.0285 0.0285 0.0284 0.0283
2508.000000 0.0282 0.0281 0.0281 0.0280 0.0279
2513.000000 0.0278 0.0277 0.0277 0.0276 0.0275
2518.000000 0.0274 0.0273 0.0273 0.0273 0.0273
2523.000000 0.0272 0.0272 0.0272 0.0272 0.0272
2528.000000 0.0272 0.0272 0.0272 0.0272 0.0272
2533.000000 0.0272 0.0272 0.0272 0.0272 0.0272
2538.000000 0.0272 0.0271 0.0271 0.0271 0.0271
2543.000000 0.0271 0.0271 0.0271 0.0271 0.0271
2548.000000 0.0271 0.0271 0.0271 0.0271 0.0271
2553.000000 0.0271 0.0271 0.0271 0.0271 0.0272
2558.000000 0.0272 0.0273 0.0273 0.0273 0.0274
2563.000000 0.0274 0.0274 0.0275 0.0275 0.0276
2568.000000 0.0276 0.0276 0.0277 0.0277 0.0277
2573.000000 0.0278 0.0278 0.0278 0.0279 0.0280
2578.000000 0.0281 0.0282 0.0283 0.0284 0.0285
2583.000000 0.0286 0.0287 0.0287 0.0288 0.0289
2588.000000 0.0291 0.0292 0.0293 0.0294 0.0294
2593.000000 0.0295 0.0296 0.0297 0.0298 0.0300
2598.000000 0.0301 0.0302 0.0303 0.0305 0.0306
2603.000000 0.0308 0.0309 0.0311 0.0312 0.0314
2608.000000 0.0316 0.0317 0.0319 0.0321 0.0322
2613.000000 0.0323 0.0324 0.0325 0.0324 0.0322
2618.000000 0.0320 0.0318 0.0316 0.0315 0.0312
2623.000000 0.0310 0.0308 0.0306 0.0304 0.0302
2628.000000 0.0301 0.0299 0.0297 0.0296 0.0294
2633.000000 0.0292 0.0291 0.0289 0.0288 0.0286
2638.000000 0.0284 0.0283 0.0281 0.0280 0.0279
2643.000000 0.0277 0.0276 0.0274 0.0273 0.0271
2648.000000 0.0270 0.0269 0.0267 0.0266 0.0265
2653.000000 0.0265 0.0264 0.0264 0.0264 0.0263
2658.000000 0.0263 0.0263 0.0262 0.0262 0.0262
2663.000000 0.0261 0.0261 0.0261 0.0260 0.0260
2668.000000 0.0260 0.0259 0.0259 0.0258 0.0258
2673.000000 0.0258 0.0257 0.0257 0.0257 0.0257
2678.000000 0.0257 0.0257 0.0256 0.0256 0.0256
2683.000000 0.0256 0.0256 0.0256 0.0255 0.0255
2688.000000 0.0255 0.0254 0.0254 0.0254 0.0254
2693.000000 0.0254 0.0253 0.0253 0.0253 0.0253
2698.000000 0.0253 0.0253 0.0252 0.0252 0.0252
2703.000000 0.0251 0.0251 0.0251 0.0251 0.0251
2708.000000 0.0251 0.0251 0.0251 0.0251 0.0251
2713.000000 0.0251 0.0251 0.0251 0.0251 0.0251
2718.000000 0.0251 0.0251 0.0251 0.0251 0.0251
2723.000000 0.0251 0.0251 0.0251 0.0251 0.0251
2728.000000 0.0251 0.0251 0.0251 0.0251 0.0251
2733.000000 0.0251 0.0251 0.0251 0.0250 0.0250
2738.000000 0.0250 0.0250 0.0250 0.0250 0.0251
2743.000000 0.0251 0.0251 0.0251 0.0251 0.0251
2748.000000 0.0252 0.0252 0.0252 0.0252 0.0252
2753.000000 0.0252 0.0252 0.0252 0.0252 0.0253
2758.000000 0.0253 0.0253 0.0253 0.0253 0.0253
2763.000000 0.0254 0.0254 0.0254 0.0254 0.0254
2768.000000 0.0254 0.0254 0.0254 0.0254 0.0255
2773.000000 0.0255 0.0255 0.0253 0.0256 0.0256
2778.000000 0.0257 0.0257 0.0257 0.0258 0.0258
2783.000000 0.0258 0.0259 0.0259 0.0259 0.0259
2788.000000 0.0260 0.0260 0.0260 0.0261 0.0261
2793.000000 0.0261 0.0262 0.0262 0.0262 0.0263
2798.000000 0.0263 0.0263 0.0264 0.0264 0.0264
2803.000000 0.0265 0.0265 0.0265 0.0266 0.0266
2808.000000 0.0267 0.0268 0.0268 0.0268 0.0268
2813.000000 0.0269 0.0269 0.0269 0.0270 0.0270
2818.000000 0.0270 0.0271 0.0271 0.0272 0.0273
2823.000000 0.0273 0.0273 0.0274 0.0274 0.0274
2828.000000 0.0274 0.0275 0.0275 0.0275 0.0276
2833.000000 0.0277 0.0277 0.0278 0.0278 0.0278
2838.000000 0.0279 0.0279 0.0279 0.0280 0.0280
2843.000000 0.0280 0.0280 0.0281 0.0281 0.0281
2848.000000 0.0282 0.0282 0.0282 0.0283 0.0283
2853.000000 0.0283 0.0284 0.0284 0.0284 0.0284
2858.000000 0.0285 0.0285 0.0285 0.0286 0.0286
2863.000000 0.0286 0.0287 0.0287 0.0287 0.0287
2868.000000 0.0287 0.0287 0.0287 0.0288 0.0288
2873.000000 0.0288 0.0289 0.0289 0.0289 0.0290
2878.000000 0.0290 0.0290 0.0290 0.0291 0.0291
2883.000000 0.0291 0.0292 0.0292 0.0292 0.0293
2888.000000 0.0293 0.0293 0.0293 0.0294 0.0294
2893.000000 0.0294 0.0295 0.0295 0.0296 0.0297
2898.000000 0.0297 0.0297 0.0297 0.0298 0.0298
2903.000000 0.0298 0.0299 0.0299 0.0299 0.0300
2908.000000 0.0300 0.0301 0.0301 0.0302 0.0302
2913.000000 0.0302 0.0303 0.0304 0.0305 0.0306
2918.000000 0.0308 0.0309 0.0311 0.0312 0.0314
2923.000000 0.0315 0.0317 0.0318 0.0320 0.0322
2928.000000 0.0324 0.0326 0.0328 0.0330 0.0333
2933.000000 0.0335 0.0338 0.0340 0.0343 0.0345
2938.000000 0.0347 0.0350 0.0353 0.0356 0.0359
2943.000000 0.0362 0.0365 0.0368 0.0371 0.0375
2948.000000 0.0378 0.0382 0.0385 0.0388 0.0392
2953.000000 0.0395 0.0399 0.0402 0.0406 0.0409
2958.000000 0.0413 0.0416 0.0420 0.0423 0.0427
2963.000000 0.0431 0.0435 0.0438 0.0442 0.0446
2968.000000 0.0449 0.0453 0.0457 0.0460 0.0464
2973.000000 0.0467 0.0470 0.0473 0.0476 0.0479
2978.000000 0.0482 0.0484 0.0487 0.0490 0.0493
2983.000000 0.0496 0.0498 0.0501 0.0504 0.0507
2988.000000 0.0510 0.0512 0.0515 0.0518 0.0520
2993.000000 0.0523 0.0525 0.0543 0.0560 0.0578
2998.000000 0.0599 0.0625 0.0650 0.0676 0.0687
3003.000000 0.0693 0.0700 0.0707 0.0713 0.0719
3008.000000 0.0726 0.0733 0.0741 0.0749 0.0757
3013.000000 0.0766 0.0776 0.0785 0.0795 0.0804
3018.000000 0.0814 0.0823 0.0833 0.0842 0.0851
3023.000000 0.0861 0.0868 0.0875 0.0882 0.0889
3028.000000 0.0896 0.0903 0.0909 0.0916 0.0923
3033.000000 0.0930 0.0937 0.0942 0.0948 0.0954
3038.000000 0.0958 0.0960 0.0963 0.0965 0.0967
3043.000000 0.0969 0.0972 0.0974 0.0977 0.0979
3048.000000 0.0981 0.0983 0.0985 0.0987 0.0989
3053.000000 0.0992 0.0994 0.0997 0.0999 0.1000
3058.000000 0.1000 0.1001 0.1002 0.1002 0.1003
3063.000000 0.1003 0.1004 0.1004 0.1004 0.1004
3068.000000 0.1005 0.1005 0.1006 0.1006 0.1007
3073.000000 0.1007 0.1008 0.1008 0.1009 0.1010
3078.000000 0.1010 0.1011 0.1011 0.1011 0.1011
3083.000000 0.1010 0.1011 0.1011 0.1011 0.1010
3088.000000 0.1010 0.1010 0.1010 0.1009 0.1009
3093.000000 0.1009 0.1009 0.1008 0.1007 0.1007
3098.000000 0.1006 0.1006 0.1006 0.1006 0.1005
3103.000000 0.1004 0.1003 0.1001 0.1000 0.0999
3108.000000 0.0997 0.0996 0.0995 0.0994 0.0992
3113.000000 0.0991 0.0989 0.0988 0.0986 0.0985
3118.000000 0.0982 0.0979 0.0976 0.0973 0.0970
3123.000000 0.0967 0.0964 0.0962 0.0958 0.0954
3128.000000 0.0950 0.0946 0.0942 0.0937 0.0932
3133.000000 0.0928 0.0923 0.0919 0.0914 0.0910
3138.000000 0.0906 0.0903 0.0899 0.0896 0.0893
3143.000000 0.0890 0.0886 0.0884 0.0881 0.0878
3148.000000 0.0875 0.0872 0.0869 0.0866 0.0863
3153.000000 0.0861 0.0860 0.0860 0.0859 0.0858
3158.000000 0.0857 0.0857 0.0856 0.0855 0.0854
3163.000000 0.0854 0.0853 0.0852 0.0851 0.0851
3168.000000 0.0850 0.0849 0.0849 0.0848 0.0848
3173.000000 0.0847 0.0847 0.0847 0.0847 0.0846
3178.000000 0.0846 0.0846 0.0846 0.0846 0.0846
3183.000000 0.0846 0.0846 0.0845 0.0845 0.0845
3188.000000 0.0845 0.0843 0.0838 0.0832 0.0826
3193.000000 0.0821 0.0816 0.0812 0.0808 0.0803
3198.000000 0.0799 0.0795 0.0791 0.0787 0.0782
3203.000000 0.0778 0.0774 0.0770 0.0766 0.0762
3208.000000 0.0758 0.0754 0.0752 0.0750 0.0747
3213.000000 0.0745 0.0744 0.0744 0.0743 0.0743
3218.000000 0.0742 0.0742 0.0741 0.0741 0.0740
3223.000000 0.0739 0.0738 0.0737 0.0736 0.0732
3228.000000 0.0728 0.0723 0.0719 0.0714 0.0709
3233.000000 0.0704 0.0699 0.0694 0.0689 0.0684
3238.000000 0.0679 0.0674 0.0669 0.0664 0.0659
3243.000000 0.0654 0.0649 0.0644 0.0639 0.0634
3248.000000 0.0629 0.0624 0.0619 0.0613 0.0609
3253.000000 0.0605 0.0601 0.0597 0.0594 0.0590
3258.000000 0.0586 0.0582 0.0578 0.0574 0.0570
3263.000000 0.0566 0.0563 0.0560 0.0557 0.0554
3268.000000 0.0551 0.0550 0.0548 0.0546 0.0544
3273.000000 0.0542 0.0540 0.0538 0.0536 0.0534
3278.000000 0.0531 0.0529 0.0527 0.0525 0.0523
3283.000000 0.0521 0.0519 0.0517 0.0515 0.0514
3288.000000 0.0513 0.0511 0.0510 0.0508 0.0507
3293.000000 0.0506 0.0504 0.0503 0.0502 0.0501
3298.000000 0.0500 0.0498 0.0497 0.0496 0.0494
3303.000000 0.0493 0.0491 0.0490 0.0489 0.0487
3308.000000 0.0486 0.0485 0.0483 0.0482 0.0480
3313.000000 0.0479 0.0478 0.0476 0.0475 0.0473
3318.000000 0.0472 0.0470 0.0469 0.0467 0.0466
3323.000000 0.0464 0.0463 0.0462 0.0460 0.0459
3328.000000 0.0458 0.0456 0.0455 0.0454 0.0452
3333.000000 0.0451 0.0450 0.0448 0.0447 0.0446
3338.000000 0.0444 0.0443 0.0442 0.0440 0.0439
3343.000000 0.0438 0.0437 0.0437 0.0436 0.0436
3348.000000 0.0436 0.0436 0.0436 0.0436 0.0437
3353.000000 0.0437 0.0437 0.0437 0.0432 0.0438
3358.000000 0.0438 0.0438 0.0438 0.0438 0.0438
3363.000000 0.0438 0.0438 0.0439 0.0440 0.0440
3368.000000 0.0441 0.0442 0.0443 0.0444 0.0445
3373.000000 0.0447 0.0448 0.0449 0.0450 0.0452
3378.000000 0.0453 0.0455 0.0457 0.0460 0.0462
3383.000000 0.0465 0.0467 0.0469 0.0472 0.0474
3388.000000 0.0477 0.0480 0.0482 0.0485 0.0488
3393.000000 0.0491 0.0495 0.0498 0.0501 0.0504
3398.000000 0.0508 0.0511 0.0514 0.0517 0.0521
3403.000000 0.0526 0.0530 0.0534 0.0539 0.0543
3408.000000 0.0547 0.0551 0.0556 0.0560 0.0565
3413.000000 0.0570 0.0574 0.0579 0.0585 0.0591
3418.000000 0.0597 0.0603 0.0609 0.0614 0.0620
3423.000000 0.0626 0.0632 0.0638 0.0644 0.0651
3428.000000 0.0658 0.0664 0.0672 0.0681 0.0690
3433.000000 0.0699 0.0708 0.0717 0.0726 0.0735
3438.000000 0.0743 0.0752 0.0759 0.0766 0.0773
3443.000000 0.0780 0.0787 0.0793 0.0800 0.0807
3448.000000 0.0814 0.0820 0.0827 0.0834 0.0841
3453.000000 0.0847 0.0858 0.0869 0.0880 0.0891
3458.000000 0.0902 0.0915 0.0927 0.0940 0.0953
3463.000000 0.0965 0.0977 0.0989 0.1001 0.1013
3468.000000 0.1023 0.1033 0.1043 0.1053 0.1062
3473.000000 0.1072 0.1082 0.1092 0.1102 0.1112
3478.000000 0.1122 0.1131 0.1141 0.1151 0.1161
3483.000000 0.1171 0.1181 0.1191 0.1201 0.1211
3488.000000 0.1221 0.1231 0.1241 0.1250 0.1260
3493.000000 0.1271 0.1281 0.1291 0.1301 0.1312
3498.000000 0.1323 0.1334 0.1344 0.1355 0.1366
3503.000000 0.1377 0.1388 0.1399 0.1410 0.1422
3508.000000 0.1434 0.1446 0.1458 0.1470 0.1483
3513.000000 0.1497 0.1511 0.1524 0.1538 0.1553
3518.000000 0.1569 0.1584 0.1599 0.1615 0.1742
3523.000000 0.1885 0.2028 0.2171 0.2314 0.2356
3528.000000 0.2386 0.2417 0.2448 0.2479 0.2500
3533.000000 0.2521 0.2541 0.2562 0.2582 0.2602
3538.000000 0.2622 0.2643 0.2663 0.2683 0.2703
3543.000000 0.2723 0.2743 0.2763 0.2784 0.2807
3548.000000 0.2830 0.2854 0.2878 0.2901 0.2928
3553.000000 0.2955 0.2982 0.3009 0.3035 0.3057
3558.000000 0.3078 0.3099 0.3120 0.3140 0.3173
3563.000000 0.3209 0.3246 0.3283 0.3319 0.3365
3568.000000 0.3414 0.3464 0.3514 0.3563 0.3613
3573.000000 0.3663 0.3712 0.3762 0.3812 0.3861
3578.000000 0.3911 0.3961 0.4010 0.4060 0.4109
3583.000000 0.4159 0.4208 0.4258 0.4307 0.4356
3588.000000 0.4406 0.4455 0.4504 0.4553 0.4603
3593.000000 0.4652 0.4701 0.4750 0.4799 0.4848
3598.000000 0.4897 0.4946 0.4995 0.5044 0.5093
3603.000000 0.5141 0.5190 0.5239 0.5288 0.5337
3608.000000 0.5386 0.5434 0.5483 0.5532 0.5581
3613.000000 0.5639 0.5720 0.5802 0.5883 0.5965
3618.000000 0.6043 0.6067 0.6092 0.6116 0.6140
3623.000000 0.6165 0.6176 0.6184 0.6192 0.6200
3628.000000 0.6208 0.6213 0.6215 0.6217 0.6219
3633.000000 0.6221 0.6223 0.6224 0.6225 0.6226
3638.000000 0.6227 0.6228 0.6229 0.6229 0.6229
3643.000000 0.6229 0.6229 0.6230 0.6230 0.6230
3648.000000 0.6230 0.6230 0.6230 0.6229 0.6228
3653.000000 0.6227 0.6226 0.6225 0.6223 0.6221
3658.000000 0.6219 0.6216 0.6214 0.6225 0.6209
3663.000000 0.6207 0.6205 0.6202 0.6199 0.6194
3668.000000 0.6190 0.6185 0.6180 0.6176 0.6170
3673.000000 0.6163 0.6157 0.6151 0.6144 0.6139
3678.000000 0.6134 0.6129 0.6125 0.6120 0.6115
3683.000000 0.6111 0.6107 0.6103 0.6099 0.6095
3688.000000 0.6091 0.6087 0.6084 0.6080 0.6076
3693.000000 0.6073 0.6071 0.6069 0.6066 0.6064
3698.000000 0.6062 0.6061 0.6061 0.6060 0.6060
3703.000000 0.6060 0.6059 0.6059 0.6059 0.6058
3708.000000 0.6058 0.6058 0.6057 0.6057 0.6056
3713.000000 0.6055 0.6055 0.6054 0.6054 0.6054
3718.000000 0.6053 0.6053 0.6053 0.6052 0.6052
3723.000000 0.6052 0.6051 0.6051 0.6050 0.6049
3728.000000 0.6048 0.6046 0.6045 0.6044 0.6042
3733.000000 0.6039 0.6036 0.6033 0.6030 0.6027
3738.000000 0.6023 0.6020 0.6016 0.6012 0.6008
3743.000000 0.6004 0.5999 0.5995 0.5990 0.5985
3748.000000 0.5980 0.5975 0.5970 0.5965 0.5960
3753.000000 0.5954 0.5949 0.5944 0.5938 0.5933
3758.000000 0.5927 0.5922 0.5916 0.5911 0.5906
3763.000000 0.5900 0.5895 0.5890 0.5885 0.5879
3768.000000 0.5874 0.5869 0.5863 0.5858 0.5853
3773.000000 0.5848 0.5843 0.5838 0.5833 0.5827
3778.000000 0.5821 0.5816 0.5810 0.5804 0.5798
3783.000000 0.5792 0.5785 0.5779 0.5772 0.5765
3788.000000 0.5759 0.5752 0.5745 0.5739 0.5732
3793.000000 0.5726 0.5719 0.5713 0.5707 0.5701
3798.000000 0.5695 0.5689 0.5683 0.5678 0.5672
3803.000000 0.5667 0.5661 0.5655 0.5650 0.5644
3808.000000 0.5639 0.5633 0.5628 0.5622 0.5617
3813.000000 0.5612 0.5607 0.5602 0.5597 0.5592
3818.000000 0.5587 0.5583 0.5578 0.5574 0.5569
3823.000000 0.5565 0.5560 0.5556 0.5552 0.5547
3828.000000 0.5543 0.5538 0.5534 0.5530 0.5526
3833.000000 0.5521 0.5517 0.5513 0.5508 0.5504
3838.000000 0.5499 0.5495 0.5491 0.5487 0.5483
3843.000000 0.5480 0.5476 0.5473 0.5469 0.5466
3848.000000 0.5463 0.5459 0.5456 0.5453 0.5450
3853.000000 0.5447 0.5443 0.5440 0.5437 0.5434
3858.000000 0.5431 0.5427 0.5424 0.5421 0.5418
3863.000000 0.5415 0.5411 0.5408 0.5405 0.5402
3868.000000 0.5399 0.5396 0.5393 0.5391 0.5388
3873.000000 0.5385 0.5382 0.5379 0.5376 0.5374
3878.000000 0.5371 0.5368 0.5365 0.5362 0.5359
3883.000000 0.5357 0.5355 0.5354 0.5352 0.5350
3888.000000 0.5348 0.5346 0.5344 0.5343 0.5341
3893.000000 0.5339 0.5338 0.5336 0.5334 0.5333
3898.000000 0.5331 0.5329 0.5328 0.5326 0.5324
3903.000000 0.5323 0.5321 0.5320 0.5318 0.5315
3908.000000 0.5311 0.5308 0.5305 0.5301 0.5298
3913.000000 0.5292 0.5284 0.5277 0.5270 0.5262
3918.000000 0.5255 0.5247 0.5239 0.5230 0.5221
3923.000000 0.5213 0.5204 0.5196 0.5190 0.5183
3928.000000 0.5177 0.5170 0.5164 0.5157 0.5152
3933.000000 0.5147 0.5141 0.5136 0.5130 0.5125
3938.000000 0.5122 0.5119 0.5117 0.5114 0.5112
3943.000000 0.5109 0.5107 0.5104 0.5102 0.5099
3948.000000 0.5097 0.5095 0.5093 0.5091 0.5090
3953.000000 0.5088 0.5087 0.5086 0.5084 0.5084
3958.000000 0.5083 0.5082 0.5082 0.5081 0.5080
3963.000000 0.5080 0.5079 0.5078 0.5077 0.5076
3968.000000 0.5076 0.5075 0.5074 0.5073 0.5073
3973.000000 0.5072 0.5071 0.5070 0.5069 0.5069
3978.000000 0.5068 0.5067 0.5066 0.5065 0.5065
3983.000000 0.5064 0.5064 0.5063 0.5062 0.5062
3988.000000 0.5061 0.5060 0.5059 0.5059 0.5058
3993.000000 0.5057 0.5056 0.5056 0.5055 0.5054
3998.000000 0.5054 0.5053 0.5053
##END=
