##TITLE=Sodium bicarbonate
##JCAMP-DX=4.24
##DATA TYPE=INFRARED SPECTRUM
##CLASS=COBLENTZ III
##ORIGIN=SOUTHERN RESEARCH INSTITUTE
##OWNER=Copyright (C) 1987 by the Coblentz Society
Collection (C) 2018 copyright by the U.S. Secretary of Commerce
on behalf of the United States of America. All rights reserved.
##DATE=1965/09/21
##NAMES=SODIUM HYDROGEN CARBONATE
##MOLFORM=C H Na O3
##SOURCE REFERENCE=COBLENTZ NO. 7910
##$NIST ID=B6007910
##$NIST SOURCE=COBLENTZ
##$NIST IMAGE=cob7910
##SPECTROMETER/DATA SYSTEM=PERKIN-ELMER 521 (GRATING)
##INSTRUMENT PARAMETERS=FILTERS AT 3150, 2500, 2000, 1150, 700, 410. GRATING CHANGES: 2000, 630
##STATE=SOLID (1 mg / 650 mg KBr DISC)
##SAMPLING PROCEDURE=TRANSMISSION
##RESOLUTION=2
##DATA PROCESSING=DIGITIZED BY COBLENTZ SOCIETY (BATCH II) FROM HARD COPY (ADJUSTED \addcm-1\10-8-2\)
##XUNITS=1/CM
##YUNITS=TRANSMITTANCE
##XFACTOR=1.0
##YFACTOR=1
##DELTAX=1.002669
##FIRSTX=254
##LASTX=4010
##FIRSTY=0.1529
##MAXX=4010
##MINX=254
##MAXY=0.984746
##MINY=0.1529
##NPOINTS=3747
##XYDATA=(X++(Y..Y))
254.000000 0.1529 0.1561 0.1594 0.1624 0.1652
259.013344 0.1680 0.1709 0.1744 0.1780 0.1815
264.026688 0.1878 0.1940 0.2002 0.2063 0.2125
269.040032 0.2187 0.2249 0.2311 0.2373 0.2435
274.053376 0.2496 0.2558 0.2621 0.2683 0.2744
279.066720 0.2806 0.2868 0.2930 0.2992 0.3054
284.080064 0.3116 0.3178 0.3239 0.3301 0.3364
289.093408 0.3426 0.3487 0.3549 0.3611 0.3673
294.106752 0.3735 0.3797 0.3859 0.3929 0.4054
299.120096 0.4124 0.4195 0.4266 0.4337 0.4405
304.133440 0.4471 0.4515 0.4556 0.4596 0.4636
309.146784 0.4674 0.4711 0.4747 0.4784 0.4820
314.160128 0.4854 0.4889 0.4923 0.4957 0.4990
319.173472 0.5028 0.5070 0.5112 0.5153 0.5196
324.186816 0.5246 0.5298 0.5351 0.5404 0.5455
329.200160 0.5500 0.5544 0.5589 0.5633 0.5674
334.213504 0.5715 0.5755 0.5795 0.5837 0.5890
339.226848 0.5957 0.6024 0.6092 0.6158 0.6221
344.240192 0.6282 0.6343 0.6403 0.6458 0.6498
349.253536 0.6539 0.6581 0.6622 0.6664 0.6709
354.266880 0.6757 0.6806 0.6854 0.6902 0.6950
359.280224 0.6996 0.7043 0.7089 0.7137 0.7183
364.293568 0.7222 0.7251 0.7280 0.7308 0.7337
369.306912 0.7366 0.7395 0.7424 0.7452 0.7480
374.320256 0.7508 0.7536 0.7563 0.7591 0.7619
379.333600 0.7646 0.7673 0.7700 0.7727 0.7754
384.346944 0.7780 0.7807 0.7835 0.7860 0.7883
389.360288 0.7904 0.7924 0.7945 0.7966 0.7986
394.373632 0.8006 0.8027 0.8047 0.8067 0.8087
399.386976 0.8107 0.8126 0.8143 0.8160 0.8176
404.400320 0.8193 0.8209 0.8224 0.8237 0.8250
409.413664 0.8263 0.8276 0.8289 0.8301 0.8312
414.427008 0.8323 0.8333 0.8344 0.8355 0.8365
419.440352 0.8375 0.8382 0.8389 0.8396 0.8404
424.453696 0.8411 0.8418 0.8426 0.8433 0.8440
429.467040 0.8448 0.8455 0.8463 0.8471 0.8479
434.480384 0.8487 0.8496 0.8504 0.8512 0.8520
439.493728 0.8528 0.8536 0.8545 0.8553 0.8561
444.507072 0.8569 0.8576 0.8583 0.8591 0.8598
449.520416 0.8605 0.8613 0.8620 0.8627 0.8635
454.533760 0.8642 0.8650 0.8657 0.8665 0.8672
459.547104 0.8679 0.8687 0.8693 0.8699 0.8703
464.560448 0.8708 0.8712 0.8717 0.8721 0.8726
469.573792 0.8730 0.8735 0.8740 0.8744 0.8749
474.587136 0.8754 0.8760 0.8765 0.8770 0.8776
479.600480 0.8781 0.8786 0.8792 0.8797 0.8802
484.613824 0.8806 0.8811 0.8815 0.8820 0.8824
489.627168 0.8829 0.8834 0.8837 0.8839 0.8840
494.640512 0.8841 0.8843 0.8844 0.8845 0.8846
499.653856 0.8848 0.8849 0.8850 0.8850 0.8849
504.667200 0.8849 0.8860 0.8854 0.8847 0.8846
509.680544 0.8843 0.8840 0.8837 0.8834 0.8831
514.693888 0.8827 0.8824 0.8821 0.8818 0.8816
519.707232 0.8814 0.8812 0.8810 0.8808 0.8806
524.720576 0.8804 0.8802 0.8800 0.8798 0.8796
529.733920 0.8794 0.8792 0.8790 0.8787 0.8784
534.747264 0.8782 0.8779 0.8776 0.8773 0.8770
539.760608 0.8767 0.8765 0.8762 0.8759 0.8756
544.773952 0.8754 0.8751 0.8748 0.8745 0.8743
549.787297 0.8740 0.8737 0.8734 0.8731 0.8729
554.800641 0.8726 0.8723 0.8720 0.8717 0.8715
559.813985 0.8712 0.8709 0.8706 0.8703 0.8701
564.827329 0.8698 0.8695 0.8692 0.8689 0.8686
569.840673 0.8683 0.8681 0.8678 0.8675 0.8672
574.854017 0.8670 0.8667 0.8664 0.8661 0.8658
579.867361 0.8655 0.8652 0.8649 0.8646 0.8643
584.880705 0.8640 0.8637 0.8634 0.8631 0.8628
589.894049 0.8624 0.8621 0.8618 0.8615 0.8612
594.907393 0.8609 0.8606 0.8603 0.8600 0.8595
599.920737 0.8590 0.8584 0.8579 0.8574 0.8568
604.934081 0.8563 0.8557 0.8552 0.8546 0.8541
609.947425 0.8536 0.8530 0.8523 0.8514 0.8504
614.960769 0.8495 0.8485 0.8476 0.8467 0.8457
619.974113 0.8448 0.8438 0.8429 0.8414 0.8398
624.987457 0.8382 0.8367 0.8351 0.8335 0.8319
630.000801 0.8303 0.8286 0.8264 0.8242 0.8219
635.014145 0.8197 0.8175 0.8153 0.8129 0.8106
640.027489 0.8079 0.8052 0.8025 0.7997 0.7968
645.040833 0.7935 0.7921 0.7913 0.7902 0.7863
650.054177 0.7760 0.7626 0.7351 0.7063 0.6775
655.067521 0.6488 0.6201 0.5913 0.5638 0.5542
660.080865 0.5794 0.6307 0.6819 0.7330 0.7810
665.094209 0.7947 0.7941 0.7608 0.7253 0.7217
670.107553 0.7911 0.7335 0.7277 0.7154 0.7032
675.120897 0.6907 0.6776 0.6691 0.6567 0.6475
680.134241 0.6363 0.6189 0.5887 0.5724 0.5495
685.147585 0.5249 0.5001 0.4754 0.4508 0.4260
690.160929 0.4013 0.3704 0.3166 0.3066 0.2999
695.174273 0.2949 0.2918 0.2910 0.2915 0.2991
700.187617 0.3299 0.3558 0.3817 0.4076 0.4335
705.200961 0.4595 0.4854 0.5113 0.5373 0.5633
710.214305 0.5892 0.6151 0.6413 0.6707 0.6843
715.227649 0.6982 0.7124 0.7274 0.7424 0.7589
720.240993 0.7753 0.7959 0.8177 0.8488 0.8713
725.254337 0.8873 0.9008 0.9132 0.9236 0.9301
730.267681 0.9361 0.9421 0.9472 0.9507 0.9538
735.281025 0.9568 0.9600 0.9631 0.9661 0.9683
740.294369 0.9702 0.9721 0.9740 0.9759 0.9776
745.307713 0.9786 0.9795 0.9805 0.9811 0.9813
750.321057 0.9814 0.9815 0.9816 0.9816 0.9847
755.334401 0.9835 0.9815 0.9814 0.9813 0.9812
760.347745 0.9810 0.9807 0.9803 0.9797 0.9791
765.361089 0.9783 0.9773 0.9762 0.9751 0.9739
770.374433 0.9727 0.9715 0.9702 0.9690 0.9678
775.387777 0.9665 0.9652 0.9639 0.9625 0.9612
780.401121 0.9599 0.9586 0.9573 0.9559 0.9541
785.414465 0.9523 0.9505 0.9484 0.9460 0.9435
790.427809 0.9410 0.9386 0.9359 0.9323 0.9281
795.441153 0.9239 0.9193 0.9143 0.9092 0.9043
800.454497 0.8999 0.8958 0.8917 0.8877 0.8837
805.467841 0.8801 0.8770 0.8737 0.8704 0.8672
810.481185 0.8637 0.8604 0.8575 0.8555 0.8534
815.494529 0.8507 0.8468 0.8418 0.8344 0.8261
820.507873 0.8130 0.8040 0.7954 0.7868 0.7716
825.521217 0.7449 0.7108 0.6758 0.6408 0.6058
830.534561 0.5708 0.5358 0.5007 0.4658 0.4308
835.547905 0.3957 0.3666 0.3623 0.3620 0.3793
840.561249 0.4177 0.4616 0.5056 0.5496 0.5935
845.574593 0.6375 0.6814 0.7253 0.8051 0.8477
850.587937 0.8553 0.8619 0.8661 0.8690 0.8718
855.601281 0.8747 0.8771 0.8786 0.8798 0.8809
860.614625 0.8820 0.8831 0.8842 0.8853 0.8861
865.627969 0.8867 0.8873 0.8879 0.8884 0.8889
870.641313 0.8895 0.8897 0.8895 0.8893 0.8900
875.654657 0.8901 0.8902 0.8903 0.8904 0.8905
880.668001 0.8904 0.8901 0.8898 0.8896 0.8893
885.681345 0.8890 0.8885 0.8880 0.8875 0.8870
890.694689 0.8865 0.8860 0.8855 0.8850 0.8842
895.708033 0.8833 0.8824 0.8815 0.8807 0.8798
900.721377 0.8789 0.8780 0.8772 0.8764 0.8755
905.734721 0.8746 0.8738 0.8730 0.8722 0.8714
910.748065 0.8707 0.8699 0.8691 0.8683 0.8676
915.761409 0.8668 0.8660 0.8652 0.8644 0.8636
920.774753 0.8629 0.8621 0.8613 0.8606 0.8598
925.788097 0.8590 0.8583 0.8576 0.8568 0.8561
930.801441 0.8553 0.8542 0.8529 0.8514 0.8500
935.814785 0.8485 0.8470 0.8456 0.8442 0.8428
940.828129 0.8413 0.8398 0.8382 0.8362 0.8340
945.841473 0.8319 0.8298 0.8277 0.8251 0.8221
950.854817 0.8191 0.8161 0.8131 0.8101 0.8071
955.868161 0.8037 0.7998 0.7957 0.7917 0.7876
960.881505 0.7836 0.7793 0.7746 0.7697 0.7648
965.894849 0.7599 0.7550 0.7500 0.7446 0.7383
970.908193 0.7320 0.7258 0.7194 0.7131 0.7061
975.921537 0.6978 0.6894 0.6811 0.6728 0.6644
980.934881 0.6559 0.6395 0.6029 0.5894 0.5759
985.948225 0.5624 0.5489 0.5354 0.5219 0.5083
990.961569 0.4949 0.4814 0.4679 0.4552 0.4478
995.974913 0.4444 0.4429 0.4421 0.4427 0.4466
1000.988257 0.4552 0.4437 0.4742 0.4834 0.4925
1006.001601 0.5017 0.5110 0.5202 0.5294 0.5386
1011.014945 0.5478 0.5570 0.5663 0.5755 0.5846
1016.028289 0.5939 0.6031 0.6123 0.6216 0.6307
1021.041633 0.6399 0.6492 0.6570 0.6562 0.6562
1026.054977 0.6549 0.6529 0.6496 0.6461 0.6218
1031.068321 0.5871 0.5512 0.5208 0.5136 0.5226
1036.081665 0.5536 0.5906 0.6275 0.6626 0.6714
1041.095009 0.6727 0.6618 0.6439 0.6251 0.6063
1046.108353 0.5875 0.5688 0.5510 0.5454 0.5444
1051.121697 0.6663 0.7339 0.7382 0.7418 0.7439
1056.135041 0.7449 0.7457 0.7462 0.7463 0.7463
1061.148385 0.7483 0.7476 0.7459 0.7457 0.7455
1066.161729 0.7452 0.7448 0.7444 0.7441 0.7437
1071.175073 0.7433 0.7426 0.7420 0.7413 0.7406
1076.188417 0.7399 0.7392 0.7385 0.7379 0.7373
1081.201761 0.7367 0.7361 0.7355 0.7350 0.7344
1086.215105 0.7338 0.7332 0.7326 0.7320 0.7314
1091.228449 0.7308 0.7302 0.7297 0.7291 0.7285
1096.241793 0.7279 0.7272 0.7265 0.7258 0.7251
1101.255137 0.7243 0.7236 0.7229 0.7221 0.7214
1106.268481 0.7207 0.7199 0.7192 0.7185 0.7176
1111.281825 0.7167 0.7159 0.7150 0.7141 0.7132
1116.295169 0.7124 0.7115 0.7106 0.7098 0.7089
1121.308513 0.7080 0.7070 0.7060 0.7049 0.7039
1126.321857 0.7029 0.7018 0.7008 0.6998 0.6987
1131.335201 0.6977 0.6966 0.6956 0.6947 0.6938
1136.348546 0.6929 0.6920 0.6910 0.6901 0.6892
1141.361890 0.6881 0.6871 0.6860 0.6848 0.6836
1146.375234 0.6823 0.6812 0.6799 0.6787 0.6773
1151.388578 0.6760 0.6747 0.6734 0.6721 0.6707
1156.401922 0.6694 0.6681 0.6669 0.6657 0.6644
1161.415266 0.6631 0.6618 0.6605 0.6591 0.6577
1166.428610 0.6562 0.6547 0.6532 0.6516 0.6500
1171.441954 0.6484 0.6469 0.6453 0.6437 0.6421
1176.455298 0.6405 0.6389 0.6373 0.6357 0.6338
1181.468642 0.6319 0.6301 0.6283 0.6264 0.6241
1186.481986 0.6215 0.6188 0.6161 0.6134 0.6108
1191.495330 0.6081 0.6054 0.6028 0.6004 0.5981
1196.508674 0.5958 0.5935 0.5912 0.5889 0.5866
1201.522018 0.5842 0.5815 0.5788 0.5759 0.5731
1206.535362 0.5703 0.5675 0.5647 0.5619 0.5586
1211.548706 0.5548 0.5510 0.5472 0.5434 0.5395
1216.562050 0.5358 0.5319 0.5279 0.5231 0.5178
1221.575394 0.5125 0.5075 0.5029 0.4984 0.4938
1226.588738 0.4894 0.4857 0.4823 0.4790 0.4756
1231.602082 0.4723 0.4689 0.4656 0.4622 0.4589
1236.615426 0.4555 0.4521 0.4479 0.4426 0.4373
1241.628770 0.4319 0.4266 0.4215 0.4173 0.4132
1246.642114 0.4092 0.4051 0.4011 0.3971 0.3932
1251.655458 0.3892 0.3853 0.3813 0.3774 0.3735
1256.668802 0.3695 0.3655 0.3610 0.3564 0.3520
1261.682146 0.3474 0.3428 0.3376 0.3303 0.3229
1266.695490 0.3156 0.3083 0.3011 0.2943 0.2882
1271.708834 0.2820 0.2759 0.2697 0.2635 0.2577
1276.722178 0.2521 0.2464 0.2408 0.2348 0.2285
1281.735522 0.2224 0.2175 0.2138 0.2101 0.2064
1286.748866 0.2027 0.1993 0.1965 0.1938 0.1911
1291.762210 0.1883 0.1857 0.1830 0.1802 0.1778
1296.775554 0.1756 0.1733 0.1711 0.1701 0.1693
1301.788898 0.1686 0.1681 0.1676 0.1671 0.1668
1306.802242 0.1666 0.1666 0.1665 0.1637 0.1657
1311.815586 0.1669 0.1676 0.1684 0.1693 0.1703
1316.828930 0.1718 0.1734 0.1749 0.1764 0.1780
1321.842274 0.1795 0.1811 0.1827 0.1845 0.1866
1326.855618 0.1889 0.1915 0.1940 0.1965 0.1990
1331.868962 0.2015 0.2040 0.2065 0.2090 0.2115
1336.882306 0.2140 0.2164 0.2192 0.2225 0.2259
1341.895650 0.2292 0.2324 0.2356 0.2386 0.2413
1346.908994 0.2438 0.2471 0.2511 0.2553 0.2602
1351.922338 0.2657 0.2714 0.2769 0.2823 0.2874
1356.935682 0.2925 0.2982 0.3048 0.3119 0.3185
1361.949026 0.3243 0.3299 0.3359 0.3425 0.3492
1366.962370 0.3553 0.3605 0.3651 0.3687 0.3723
1371.975714 0.3758 0.3787 0.3807 0.3827 0.3842
1376.989058 0.3848 0.3854 0.3860 0.3866 0.3869
1382.002402 0.3874 0.3883 0.3859 0.3855 0.3846
1387.015746 0.3825 0.3791 0.3740 0.3684 0.3621
1392.029090 0.3544 0.3459 0.3366 0.3235 0.3080
1397.042434 0.2930 0.2847 0.2831 0.2832 0.2810
1402.055778 0.2866 0.2937 0.3085 0.3232 0.3379
1407.069122 0.3527 0.3674 0.3821 0.3968 0.4115
1412.082466 0.4263 0.4410 0.4557 0.4705 0.4852
1417.095810 0.4999 0.5147 0.5294 0.5442 0.5561
1422.109154 0.5695 0.5834 0.5965 0.6060 0.6142
1427.122498 0.6214 0.6265 0.6315 0.6345 0.6368
1432.135842 0.6389 0.6399 0.6407 0.6412 0.6413
1437.149186 0.6408 0.6400 0.6383 0.6364 0.6309
1442.162530 0.6258 0.6180 0.6075 0.5966 0.5857
1447.175874 0.5747 0.5637 0.5528 0.5419 0.5310
1452.189218 0.5200 0.5070 0.5049 0.5085 0.5290
1457.202562 0.5557 0.5824 0.6045 0.6175 0.6284
1462.215906 0.6370 0.6444 0.6532 0.6621 0.6698
1467.229250 0.6771 0.6843 0.6914 0.6978 0.7039
1472.242594 0.7100 0.7158 0.7213 0.7269 0.7320
1477.255938 0.7365 0.7409 0.7449 0.7479 0.7505
1482.269282 0.7529 0.7555 0.7580 0.7604 0.7628
1487.282626 0.7650 0.7673 0.7696 0.7718 0.7738
1492.295970 0.7756 0.7775 0.7793 0.7811 0.7829
1497.309314 0.7846 0.7861 0.7876 0.7891 0.7907
1502.322658 0.7922 0.7936 0.7950 0.7964 0.7978
1507.336002 0.7992 0.8006 0.8020 0.8033 0.8047
1512.349346 0.8060 0.8073 0.8086 0.8099 0.8112
1517.362690 0.8123 0.8131 0.8140 0.8148 0.8156
1522.376034 0.8164 0.8172 0.8179 0.8185 0.8189
1527.389378 0.8193 0.8197 0.8202 0.8206 0.8210
1532.402722 0.8214 0.8217 0.8216 0.8216 0.8215
1537.416066 0.8215 0.8216 0.8230 0.8208 0.8204
1542.429410 0.8201 0.8197 0.8193 0.8186 0.8180
1547.442754 0.8173 0.8165 0.8157 0.8147 0.8136
1552.456098 0.8124 0.8112 0.8101 0.8088 0.8076
1557.469442 0.8064 0.8052 0.8038 0.8023 0.8010
1562.482786 0.7995 0.7978 0.7961 0.7944 0.7927
1567.496130 0.7910 0.7889 0.7866 0.7844 0.7822
1572.509474 0.7798 0.7773 0.7748 0.7724 0.7699
1577.522818 0.7674 0.7649 0.7619 0.7583 0.7546
1582.536162 0.7509 0.7472 0.7435 0.7393 0.7343
1587.549506 0.7292 0.7241 0.7162 0.7063 0.6959
1592.562850 0.6850 0.6737 0.6322 0.6012 0.5825
1597.576194 0.5653 0.5514 0.5416 0.5331 0.5245
1602.589538 0.5109 0.4922 0.4745 0.4582 0.4430
1607.602882 0.4282 0.4154 0.4046 0.3941 0.3778
1612.616226 0.3597 0.3445 0.3303 0.3164 0.3041
1617.629570 0.2967 0.2933 0.2935 0.2945 0.2980
1622.642914 0.3055 0.3143 0.3233 0.3321 0.3410
1627.656258 0.3499 0.3588 0.3676 0.3765 0.3847
1632.669602 0.3925 0.3974 0.3994 0.4008 0.4013
1637.682946 0.4025 0.4019 0.4006 0.3997 0.3982
1642.696290 0.3960 0.3928 0.3884 0.3832 0.3774
1647.709634 0.3719 0.3667 0.3613 0.3560 0.3506
1652.722978 0.3456 0.3409 0.3362 0.3322 0.3290
1657.736322 0.3260 0.3234 0.3219 0.3217 0.3188
1662.749666 0.3217 0.3240 0.3255 0.3271 0.3305
1667.763010 0.3350 0.3400 0.3453 0.3507 0.3558
1672.776354 0.3614 0.3713 0.3822 0.3932 0.4043
1677.789698 0.4153 0.4263 0.4373 0.4484 0.4594
1682.803042 0.4704 0.4815 0.4924 0.5034 0.5145
1687.816386 0.5218 0.5260 0.5242 0.5191 0.5122
1692.829730 0.5051 0.4981 0.4910 0.4839 0.4817
1697.843074 0.4828 0.4841 0.4986 0.5156 0.5324
1702.856418 0.5494 0.5662 0.5899 0.6059 0.6158
1707.869762 0.6240 0.6323 0.6412 0.6494 0.6570
1712.883106 0.6631 0.6676 0.6720 0.6763 0.6789
1717.896450 0.6809 0.6829 0.6849 0.6869 0.6888
1722.909795 0.6899 0.6909 0.6919 0.6926 0.6932
1727.923139 0.6939 0.6947 0.6956 0.6971 0.6987
1732.936483 0.7003 0.7019 0.7049 0.7094 0.7155
1737.949827 0.7218 0.7251 0.7284 0.7309 0.7331
1742.963171 0.7353 0.7375 0.7398 0.7425 0.7454
1747.976515 0.7482 0.7511 0.7538 0.7560 0.7581
1752.989859 0.7602 0.7624 0.7645 0.7665 0.7683
1758.003203 0.7701 0.7719 0.7737 0.7756 0.7772
1763.016547 0.7784 0.7796 0.7808 0.7819 0.7831
1768.029891 0.7843 0.7855 0.7867 0.7879 0.7890
1773.043235 0.7901 0.7912 0.7923 0.7934 0.7944
1778.056579 0.7955 0.7966 0.7976 0.7987 0.7997
1783.069923 0.8008 0.8018 0.8028 0.8038 0.8048
1788.083267 0.8050 0.8053 0.8056 0.8059 0.8058
1793.096611 0.8069 0.8052 0.8049 0.8046 0.8043
1798.109955 0.8040 0.8036 0.8028 0.8019 0.8011
1803.123299 0.8002 0.7994 0.7985 0.7974 0.7963
1808.136643 0.7951 0.7939 0.7928 0.7917 0.7905
1813.149987 0.7894 0.7883 0.7871 0.7860 0.7849
1818.163331 0.7837 0.7826 0.7815 0.7803 0.7791
1823.176675 0.7779 0.7767 0.7755 0.7746 0.7737
1828.190019 0.7728 0.7720 0.7713 0.7708 0.7704
1833.203363 0.7699 0.7695 0.7691 0.7689 0.7689
1838.216707 0.7688 0.7688 0.7688 0.7688 0.7687
1843.230051 0.7687 0.7687 0.7687 0.7689 0.7691
1848.243395 0.7695 0.7700 0.7705 0.7710 0.7715
1853.256739 0.7721 0.7726 0.7731 0.7737 0.7745
1858.270083 0.7755 0.7765 0.7774 0.7780 0.7784
1863.283427 0.7787 0.7791 0.7794 0.7797 0.7795
1868.296771 0.7790 0.7781 0.7765 0.7750 0.7732
1873.310115 0.7707 0.7681 0.7652 0.7617 0.7583
1878.323459 0.7548 0.7513 0.7477 0.7441 0.7405
1883.336803 0.7370 0.7334 0.7298 0.7263 0.7227
1888.350147 0.7192 0.7157 0.7121 0.7085 0.7050
1893.363491 0.7015 0.6980 0.6945 0.6910 0.6875
1898.376835 0.6840 0.6799 0.6748 0.6691 0.6635
1903.390179 0.6584 0.6546 0.6514 0.6483 0.6452
1908.403523 0.6420 0.6389 0.6358 0.6325 0.6289
1913.416867 0.6252 0.6222 0.6205 0.6195 0.6195
1918.430211 0.6196 0.6194 0.6195 0.6200 0.6204
1923.443555 0.6209 0.6215 0.6225 0.6242 0.6266
1928.456899 0.6298 0.6332 0.6366 0.6399 0.6433
1933.470243 0.6466 0.6498 0.6530 0.6563 0.6597
1938.483587 0.6632 0.6669 0.6705 0.6741 0.6776
1943.496931 0.6810 0.6844 0.6878 0.6912 0.6943
1948.510275 0.6970 0.6994 0.7018 0.7042 0.7067
1953.523619 0.7091 0.7117 0.7143 0.7169 0.7195
1958.536963 0.7222 0.7248 0.7273 0.7294 0.7312
1963.550307 0.7331 0.7350 0.7368 0.7386 0.7404
1968.563651 0.7419 0.7433 0.7449 0.7464 0.7477
1973.576995 0.7489 0.7499 0.7508 0.7518 0.7527
1978.590339 0.7536 0.7541 0.7544 0.7548 0.7552
1983.603683 0.7556 0.7560 0.7561 0.7561 0.7561
1988.617027 0.7561 0.7562 0.7559 0.7553 0.7546
1993.630371 0.7540 0.7532 0.7521 0.7509 0.7498
1998.643715 0.7488 0.7479 0.7470 0.7462 0.7454
2003.657059 0.7446 0.7442 0.7440 0.7438 0.7435
2008.670403 0.7433 0.7431 0.7428 0.7426 0.7424
2013.683747 0.7423 0.7422 0.7421 0.7420 0.7419
2018.697091 0.7418 0.7417 0.7415 0.7414 0.7413
2023.710435 0.7412 0.7411 0.7410 0.7409 0.7408
2028.723779 0.7407 0.7407 0.7407 0.7407 0.7407
2033.737123 0.7406 0.7406 0.7406 0.7406 0.7405
2038.750467 0.7405 0.7405 0.7406 0.7407 0.7408
2043.763811 0.7408 0.7409 0.7410 0.7410 0.7411
2048.777155 0.7412 0.7413 0.7413 0.7414 0.7415
2053.790499 0.7418 0.7421 0.7424 0.7427 0.7430
2058.803843 0.7433 0.7436 0.7439 0.7442 0.7445
2063.817187 0.7448 0.7451 0.7454 0.7457 0.7460
2068.830531 0.7465 0.7472 0.7479 0.7486 0.7493
2073.843875 0.7500 0.7506 0.7513 0.7520 0.7527
2078.857219 0.7534 0.7541 0.7548 0.7554 0.7561
2083.870563 0.7568 0.7576 0.7583 0.7591 0.7598
2088.883907 0.7605 0.7613 0.7620 0.7627 0.7635
2093.897251 0.7642 0.7650 0.7657 0.7664 0.7672
2098.910595 0.7678 0.7683 0.7687 0.7691 0.7695
2103.923939 0.7699 0.7703 0.7707 0.7712 0.7716
2108.937283 0.7720 0.7724 0.7726 0.7729 0.7731
2113.950627 0.7733 0.7735 0.7738 0.7740 0.7742
2118.963971 0.7744 0.7747 0.7749 0.7751 0.7753
2123.977315 0.7754 0.7755 0.7756 0.7757 0.7758
2128.990659 0.7759 0.7761 0.7762 0.7763 0.7764
2134.004003 0.7765 0.7766 0.7767 0.7768 0.7769
2139.017347 0.7770 0.7771 0.7772 0.7773 0.7774
2144.030691 0.7775 0.7775 0.7775 0.7775 0.7775
2149.044035 0.7775 0.7775 0.7775 0.7775 0.7775
2154.057379 0.7774 0.7774 0.7774 0.7774 0.7774
2159.070723 0.7775 0.7792 0.7774 0.7774 0.7774
2164.084067 0.7774 0.7774 0.7773 0.7773 0.7773
2169.097411 0.7773 0.7772 0.7772 0.7772 0.7772
2174.110755 0.7772 0.7771 0.7767 0.7763 0.7758
2179.124099 0.7753 0.7749 0.7745 0.7740 0.7736
2184.137443 0.7732 0.7728 0.7723 0.7717 0.7712
2189.150787 0.7706 0.7701 0.7696 0.7690 0.7685
2194.164131 0.7679 0.7674 0.7668 0.7662 0.7656
2199.177475 0.7649 0.7643 0.7637 0.7631 0.7625
2204.190819 0.7618 0.7610 0.7603 0.7595 0.7588
2209.204163 0.7580 0.7573 0.7565 0.7558 0.7550
2214.217507 0.7542 0.7535 0.7527 0.7520 0.7512
2219.230851 0.7505 0.7497 0.7490 0.7482 0.7475
2224.244195 0.7467 0.7460 0.7452 0.7445 0.7437
2229.257539 0.7430 0.7422 0.7415 0.7407 0.7400
2234.270883 0.7392 0.7385 0.7377 0.7370 0.7361
2239.284227 0.7352 0.7343 0.7334 0.7325 0.7316
2244.297571 0.7307 0.7298 0.7288 0.7279 0.7270
2249.310915 0.7261 0.7252 0.7243 0.7234 0.7225
2254.324259 0.7216 0.7209 0.7202 0.7195 0.7188
2259.337603 0.7180 0.7173 0.7166 0.7159 0.7152
2264.350947 0.7145 0.7141 0.7137 0.7134 0.7131
2269.364291 0.7128 0.7125 0.7121 0.7118 0.7115
2274.377635 0.7113 0.7114 0.7114 0.7115 0.7115
2279.390979 0.7115 0.7116 0.7116 0.7117 0.7117
2284.404323 0.7118 0.7118 0.7118 0.7119 0.7118
2289.417667 0.7118 0.7117 0.7117 0.7116 0.7116
2294.431011 0.7115 0.7115 0.7114 0.7114 0.7113
2299.444355 0.7110 0.7104 0.7098 0.7093 0.7087
2304.457699 0.7081 0.7075 0.7069 0.7063 0.7055
2309.471044 0.7048 0.7040 0.7033 0.7026 0.7018
2314.484388 0.7011 0.7002 0.6990 0.6979 0.6968
2319.497732 0.6956 0.6945 0.6933 0.6921 0.6910
2324.511076 0.6899 0.6887 0.6876 0.6863 0.6849
2329.524420 0.6834 0.6820 0.6806 0.6792 0.6781
2334.537764 0.6773 0.6765 0.6757 0.6749 0.6741
2339.551108 0.6734 0.6727 0.6719 0.6706 0.6689
2344.564452 0.6673 0.6656 0.6639 0.6621 0.6605
2349.577796 0.6594 0.6586 0.6578 0.6570 0.6561
2354.591140 0.6554 0.6547 0.6540 0.6533 0.6525
2359.604484 0.6518 0.6511 0.6504 0.6497 0.6489
2364.617828 0.6484 0.6480 0.6476 0.6472 0.6469
2369.631172 0.6466 0.6464 0.6462 0.6458 0.6454
2374.644516 0.6448 0.6443 0.6437 0.6432 0.6424
2379.657860 0.6414 0.6404 0.6393 0.6380 0.6365
2384.671204 0.6351 0.6337 0.6323 0.6308 0.6294
2389.684548 0.6280 0.6266 0.6252 0.6238 0.6224
2394.697892 0.6211 0.6199 0.6187 0.6175 0.6162
2399.711236 0.6150 0.6141 0.6131 0.6122 0.6112
2404.724580 0.6103 0.6094 0.6085 0.6072 0.6060
2409.737924 0.6047 0.6034 0.6021 0.6009 0.5996
2414.751268 0.5983 0.5970 0.5957 0.5945 0.5932
2419.764612 0.5919 0.5906 0.5893 0.5881 0.5868
2424.777956 0.5853 0.5845 0.5839 0.5834 0.5828
2429.791300 0.5822 0.5817 0.5811 0.5806 0.5800
2434.804644 0.5794 0.5789 0.5783 0.5778 0.5773
2439.817988 0.5768 0.5764 0.5759 0.5754 0.5750
2444.831332 0.5745 0.5740 0.5736 0.5731 0.5727
2449.844676 0.5723 0.5719 0.5715 0.5711 0.5707
2454.858020 0.5704 0.5700 0.5696 0.5692 0.5688
2459.871364 0.5684 0.5679 0.5675 0.5671 0.5667
2464.884708 0.5663 0.5658 0.5654 0.5650 0.5646
2469.898052 0.5642 0.5638 0.5634 0.5630 0.5625
2474.911396 0.5621 0.5617 0.5613 0.5609 0.5605
2479.924740 0.5601 0.5597 0.5593 0.5589 0.5585
2484.938084 0.5581 0.5577 0.5573 0.5569 0.5565
2489.951428 0.5561 0.5556 0.5552 0.5547 0.5542
2494.964772 0.5537 0.5533 0.5528 0.5524 0.5519
2499.978116 0.5515 0.5511 0.5506 0.5502 0.5497
2504.991460 0.5493 0.5489 0.5485 0.5481 0.5477
2510.004804 0.5473 0.5469 0.5465 0.5461 0.5457
2515.018148 0.5453 0.5449 0.5445 0.5441 0.5438
2520.031492 0.5437 0.5436 0.5435 0.5435 0.5435
2525.044836 0.5434 0.5434 0.5434 0.5434 0.5434
2530.058180 0.5433 0.5433 0.5433 0.5433 0.5434
2535.071524 0.5435 0.5437 0.5438 0.5439 0.5441
2540.084868 0.5438 0.5403 0.5445 0.5447 0.5448
2545.098212 0.5449 0.5453 0.5457 0.5462 0.5466
2550.111556 0.5470 0.5474 0.5478 0.5483 0.5487
2555.124900 0.5492 0.5496 0.5500 0.5505 0.5509
2560.138244 0.5513 0.5518 0.5523 0.5528 0.5533
2565.151588 0.5538 0.5543 0.5548 0.5553 0.5558
2570.164932 0.5563 0.5568 0.5573 0.5577 0.5582
2575.178276 0.5586 0.5591 0.5595 0.5600 0.5604
2580.191620 0.5609 0.5613 0.5618 0.5622 0.5627
2585.204964 0.5631 0.5636 0.5641 0.5645 0.5650
2590.218308 0.5655 0.5659 0.5664 0.5669 0.5673
2595.231652 0.5678 0.5683 0.5687 0.5691 0.5695
2600.244996 0.5698 0.5701 0.5704 0.5707 0.5710
2605.258340 0.5714 0.5717 0.5721 0.5726 0.5732
2610.271684 0.5737 0.5742 0.5747 0.5752 0.5757
2615.285028 0.5763 0.5769 0.5775 0.5781 0.5786
2620.298372 0.5792 0.5797 0.5801 0.5805 0.5808
2625.311716 0.5812 0.5816 0.5820 0.5825 0.5831
2630.325060 0.5837 0.5843 0.5849 0.5855 0.5861
2635.338404 0.5866 0.5872 0.5878 0.5884 0.5890
2640.351748 0.5896 0.5902 0.5907 0.5912 0.5918
2645.365092 0.5923 0.5928 0.5933 0.5939 0.5944
2650.378436 0.5949 0.5955 0.5960 0.5965 0.5970
2655.391780 0.5976 0.5983 0.5989 0.5996 0.6003
2660.405124 0.6009 0.6016 0.6023 0.6029 0.6036
2665.418468 0.6043 0.6050 0.6056 0.6064 0.6074
2670.431812 0.6085 0.6096 0.6106 0.6117 0.6128
2675.445156 0.6138 0.6148 0.6158 0.6167 0.6177
2680.458500 0.6186 0.6196 0.6205 0.6214 0.6224
2685.471844 0.6233 0.6241 0.6250 0.6258 0.6266
2690.485188 0.6275 0.6283 0.6292 0.6300 0.6309
2695.498532 0.6317 0.6326 0.6335 0.6344 0.6354
2700.511876 0.6363 0.6373 0.6383 0.6392 0.6402
2705.525220 0.6410 0.6417 0.6424 0.6431 0.6439
2710.538564 0.6447 0.6456 0.6465 0.6474 0.6483
2715.551908 0.6492 0.6500 0.6507 0.6513 0.6519
2720.565252 0.6524 0.6528 0.6533 0.6537 0.6541
2725.578596 0.6546 0.6550 0.6552 0.6553 0.6553
2730.591940 0.6554 0.6555 0.6557 0.6561 0.6564
2735.605284 0.6568 0.6572 0.6575 0.6579 0.6583
2740.618628 0.6589 0.6596 0.6603 0.6610 0.6617
2745.631972 0.6624 0.6631 0.6638 0.6645 0.6652
2750.645316 0.6659 0.6665 0.6672 0.6679 0.6684
2755.658660 0.6690 0.6696 0.6702 0.6708 0.6714
2760.672004 0.6720 0.6725 0.6730 0.6735 0.6739
2765.685348 0.6743 0.6748 0.6752 0.6757 0.6761
2770.698692 0.6765 0.6770 0.6774 0.6779 0.6783
2775.712036 0.6786 0.6790 0.6793 0.6797 0.6800
2780.725380 0.6804 0.6807 0.6811 0.6814 0.6817
2785.738724 0.6820 0.6823 0.6825 0.6828 0.6831
2790.752068 0.6834 0.6836 0.6838 0.6847 0.6842
2795.765412 0.6839 0.6839 0.6839 0.6839 0.6839
2800.778756 0.6837 0.6836 0.6834 0.6833 0.6831
2805.792100 0.6830 0.6828 0.6825 0.6822 0.6818
2810.805444 0.6815 0.6812 0.6808 0.6805 0.6801
2815.818788 0.6798 0.6793 0.6788 0.6782 0.6777
2820.832132 0.6771 0.6766 0.6760 0.6755 0.6749
2825.845476 0.6744 0.6738 0.6732 0.6725 0.6719
2830.858820 0.6712 0.6705 0.6698 0.6692 0.6686
2835.872164 0.6679 0.6673 0.6667 0.6661 0.6655
2840.885508 0.6648 0.6642 0.6636 0.6630 0.6624
2845.898852 0.6617 0.6611 0.6608 0.6605 0.6602
2850.912196 0.6599 0.6597 0.6596 0.6595 0.6595
2855.925540 0.6593 0.6591 0.6588 0.6586 0.6584
2860.938884 0.6581 0.6579 0.6576 0.6572 0.6569
2865.952228 0.6566 0.6563 0.6559 0.6556 0.6552
2870.965572 0.6548 0.6544 0.6540 0.6534 0.6526
2875.978916 0.6518 0.6510 0.6502 0.6495 0.6486
2880.992260 0.6477 0.6468 0.6459 0.6450 0.6441
2886.005604 0.6432 0.6424 0.6415 0.6407 0.6398
2891.018948 0.6389 0.6381 0.6372 0.6364 0.6355
2896.032293 0.6345 0.6336 0.6326 0.6316 0.6306
2901.045637 0.6297 0.6287 0.6276 0.6265 0.6252
2906.058981 0.6238 0.6225 0.6211 0.6198 0.6186
2911.072325 0.6184 0.6189 0.6178 0.6176 0.6179
2916.085669 0.6183 0.6187 0.6194 0.6203 0.6211
2921.099013 0.6219 0.6228 0.6237 0.6247 0.6256
2926.112357 0.6267 0.6281 0.6294 0.6307 0.6320
2931.125701 0.6334 0.6347 0.6361 0.6375 0.6388
2936.139045 0.6402 0.6415 0.6428 0.6441 0.6454
2941.152389 0.6467 0.6479 0.6492 0.6503 0.6513
2946.165733 0.6523 0.6533 0.6544 0.6554 0.6564
2951.179077 0.6574 0.6583 0.6593 0.6602 0.6612
2956.192421 0.6621 0.6631 0.6641 0.6651 0.6660
2961.205765 0.6670 0.6681 0.6694 0.6708 0.6722
2966.219109 0.6735 0.6749 0.6763 0.6777 0.6789
2971.232453 0.6798 0.6806 0.6815 0.6823 0.6831
2976.245797 0.6840 0.6850 0.6861 0.6871 0.6881
2981.259141 0.6890 0.6899 0.6908 0.6918 0.6929
2986.272485 0.6939 0.6948 0.6956 0.6962 0.6968
2991.285829 0.6973 0.6978 0.6984 0.6990 0.6996
2996.299173 0.7002 0.7008 0.7014 0.7019 0.7025
3001.312517 0.7030 0.7036 0.7041 0.7045 0.7048
3006.325861 0.7050 0.7053 0.7055 0.7058 0.7059
3011.339205 0.7060 0.7061 0.7062 0.7063 0.7064
3016.352549 0.7064 0.7065 0.7066 0.7067 0.7068
3021.365893 0.7069 0.7069 0.7068 0.7068 0.7056
3026.379237 0.7049 0.7066 0.7066 0.7065 0.7065
3031.392581 0.7064 0.7064 0.7063 0.7062 0.7061
3036.405925 0.7060 0.7059 0.7058 0.7057 0.7056
3041.419269 0.7055 0.7054 0.7053 0.7052 0.7051
3046.432613 0.7050 0.7049 0.7048 0.7046 0.7045
3051.445957 0.7044 0.7043 0.7042 0.7040 0.7039
3056.459301 0.7038 0.7037 0.7035 0.7034 0.7033
3061.472645 0.7032 0.7031 0.7031 0.7031 0.7031
3066.485989 0.7030 0.7030 0.7030 0.7030 0.7029
3071.499333 0.7029 0.7029 0.7029 0.7031 0.7032
3076.512677 0.7033 0.7034 0.7034 0.7035 0.7036
3081.526021 0.7037 0.7038 0.7039 0.7042 0.7044
3086.539365 0.7046 0.7049 0.7051 0.7054 0.7056
3091.552709 0.7059 0.7061 0.7064 0.7066 0.7069
3096.566053 0.7071 0.7074 0.7076 0.7079 0.7081
3101.579397 0.7084 0.7087 0.7089 0.7092 0.7095
3106.592741 0.7098 0.7101 0.7104 0.7107 0.7110
3111.606085 0.7114 0.7117 0.7120 0.7124 0.7129
3116.619429 0.7135 0.7143 0.7151 0.7159 0.7163
3121.632773 0.7163 0.7163 0.7163 0.7162 0.7160
3126.646117 0.7159 0.7158 0.7157 0.7156 0.7157
3131.659461 0.7157 0.7157 0.7158 0.7161 0.7166
3136.672805 0.7170 0.7175 0.7180 0.7187 0.7197
3141.686149 0.7207 0.7220 0.7234 0.7248 0.7255
3146.699493 0.7257 0.7259 0.7260 0.7261 0.7262
3151.712837 0.7263 0.7264 0.7265 0.7265 0.7266
3156.726181 0.7267 0.7267 0.7268 0.7269 0.7270
3161.739525 0.7271 0.7273 0.7275 0.7277 0.7279
3166.752869 0.7281 0.7283 0.7284 0.7286 0.7288
3171.766213 0.7290 0.7292 0.7295 0.7297 0.7299
3176.779557 0.7301 0.7303 0.7305 0.7307 0.7308
3181.792901 0.7310 0.7311 0.7312 0.7314 0.7315
3186.806245 0.7317 0.7318 0.7320 0.7321 0.7322
3191.819589 0.7324 0.7325 0.7326 0.7328 0.7329
3196.832933 0.7330 0.7331 0.7333 0.7334 0.7335
3201.846277 0.7336 0.7338 0.7339 0.7340 0.7342
3206.859621 0.7343 0.7344 0.7346 0.7347 0.7348
3211.872965 0.7350 0.7351 0.7352 0.7354 0.7355
3216.886309 0.7356 0.7357 0.7358 0.7359 0.7360
3221.899653 0.7361 0.7362 0.7363 0.7364 0.7365
3226.912997 0.7366 0.7367 0.7368 0.7369 0.7370
3231.926341 0.7371 0.7371 0.7370 0.7370 0.7369
3236.939685 0.7369 0.7368 0.7368 0.7367 0.7367
3241.953029 0.7366 0.7366 0.7365 0.7365 0.7364
3246.966373 0.7364 0.7363 0.7363 0.7362 0.7362
3251.979717 0.7361 0.7360 0.7358 0.7357 0.7356
3256.993061 0.7355 0.7354 0.7353 0.7352 0.7351
3262.006405 0.7350 0.7349 0.7348 0.7347 0.7346
3267.019749 0.7345 0.7343 0.7342 0.7341 0.7341
3272.033093 0.7340 0.7340 0.7339 0.7338 0.7338
3277.046437 0.7337 0.7337 0.7336 0.7336 0.7335
3282.059781 0.7335 0.7334 0.7334 0.7333 0.7332
3287.073125 0.7332 0.7331 0.7331 0.7330 0.7330
3292.086469 0.7329 0.7329 0.7327 0.7326 0.7325
3297.099813 0.7323 0.7322 0.7320 0.7319 0.7318
3302.113157 0.7316 0.7315 0.7313 0.7312 0.7311
3307.126501 0.7309 0.7308 0.7307 0.7305 0.7304
3312.139845 0.7302 0.7301 0.7298 0.7295 0.7291
3317.153189 0.7287 0.7284 0.7280 0.7276 0.7272
3322.166533 0.7269 0.7265 0.7261 0.7257 0.7254
3327.179877 0.7250 0.7243 0.7237 0.7231 0.7224
3332.193221 0.7218 0.7211 0.7205 0.7199 0.7192
3337.206565 0.7186 0.7179 0.7173 0.7166 0.7160
3342.219909 0.7153 0.7147 0.7140 0.7133 0.7126
3347.233253 0.7119 0.7111 0.7104 0.7097 0.7090
3352.246597 0.7083 0.7076 0.7069 0.7062 0.7055
3357.259941 0.7048 0.7040 0.7032 0.7023 0.7014
3362.273285 0.7005 0.6996 0.6986 0.6977 0.6968
3367.286629 0.6959 0.6950 0.6941 0.6931 0.6922
3372.299973 0.6912 0.6902 0.6892 0.6883 0.6874
3377.313317 0.6865 0.6857 0.6849 0.6841 0.6834
3382.326661 0.6826 0.6818 0.6810 0.6802 0.6795
3387.340005 0.6789 0.6782 0.6775 0.6768 0.6761
3392.353349 0.6755 0.6748 0.6740 0.6733 0.6727
3397.366693 0.6720 0.6714 0.6707 0.6701 0.6695
3402.380037 0.6688 0.6682 0.6676 0.6673 0.6670
3407.393381 0.6667 0.6664 0.6662 0.6659 0.6656
3412.406725 0.6654 0.6654 0.6654 0.6654 0.6654
3417.420069 0.6654 0.6654 0.6654 0.6655 0.6655
3422.433413 0.6655 0.6655 0.6656 0.6658 0.6659
3427.446757 0.6661 0.6663 0.6664 0.6666 0.6668
3432.460101 0.6670 0.6672 0.6674 0.6676 0.6677
3437.473445 0.6679 0.6681 0.6683 0.6685 0.6689
3442.486789 0.6692 0.6695 0.6698 0.6701 0.6704
3447.500133 0.6707 0.6711 0.6715 0.6718 0.6721
3452.513477 0.6724 0.6727 0.6730 0.6734 0.6738
3457.526821 0.6742 0.6746 0.6751 0.6755 0.6760
3462.540165 0.6764 0.6768 0.6773 0.6777 0.6781
3467.553509 0.6786 0.6790 0.6794 0.6799 0.6805
3472.566853 0.6810 0.6815 0.6820 0.6825 0.6830
3477.580197 0.6836 0.6841 0.6846 0.6851 0.6857
3482.593541 0.6863 0.6870 0.6876 0.6883 0.6890
3487.606886 0.6896 0.6903 0.6910 0.6916 0.6923
3492.620230 0.6929 0.6936 0.6943 0.6949 0.6956
3497.633574 0.6963 0.6969 0.6976 0.6983 0.6990
3502.646918 0.6996 0.7003 0.7010 0.7015 0.7020
3507.660262 0.7025 0.7029 0.7034 0.7039 0.7043
3512.673606 0.7048 0.7053 0.7057 0.7062 0.7067
3517.686950 0.7073 0.7080 0.7086 0.7092 0.7099
3522.700294 0.7105 0.7112 0.7119 0.7128 0.7137
3527.713638 0.7147 0.7156 0.7166 0.7175 0.7185
3532.726982 0.7194 0.7204 0.7213 0.7222 0.7231
3537.740326 0.7240 0.7250 0.7261 0.7271 0.7282
3542.753670 0.7292 0.7302 0.7313 0.7323 0.7333
3547.767014 0.7343 0.7354 0.7364 0.7375 0.7383
3552.780358 0.7391 0.7399 0.7407 0.7414 0.7422
3557.793702 0.7430 0.7437 0.7446 0.7454 0.7463
3562.807046 0.7472 0.7481 0.7491 0.7502 0.7513
3567.820390 0.7524 0.7535 0.7546 0.7556 0.7566
3572.833734 0.7577 0.7587 0.7597 0.7607 0.7618
3577.847078 0.7628 0.7639 0.7649 0.7660 0.7672
3582.860422 0.7685 0.7698 0.7711 0.7724 0.7736
3587.873766 0.7745 0.7754 0.7763 0.7772 0.7781
3592.887110 0.7789 0.7797 0.7805 0.7813 0.7821
3597.900454 0.7829 0.7837 0.7845 0.7853 0.7862
3602.913798 0.7870 0.7879 0.7887 0.7896 0.7904
3607.927142 0.7913 0.7923 0.7933 0.7942 0.7952
3612.940486 0.7961 0.7971 0.7978 0.7985 0.7992
3617.953830 0.7999 0.8005 0.8010 0.8015 0.8022
3622.967174 0.8029 0.8036 0.8044 0.8051 0.8058
3627.980518 0.8063 0.8069 0.8074 0.8080 0.8085
3632.993862 0.8090 0.8096 0.8101 0.8107 0.8114
3638.007206 0.8120 0.8126 0.8132 0.8138 0.8144
3643.020550 0.8151 0.8156 0.8162 0.8168 0.8174
3648.033894 0.8180 0.8184 0.8187 0.8190 0.8194
3653.047238 0.8197 0.8201 0.8204 0.8207 0.8209
3658.060582 0.8212 0.8214 0.8217 0.8221 0.8226
3663.073926 0.8233 0.8243 0.8253 0.8263 0.8271
3668.087270 0.8276 0.8276 0.8274 0.8268 0.8261
3673.100614 0.8241 0.8229 0.8225 0.8223 0.8223
3678.113958 0.8223 0.8223 0.8226 0.8230 0.8235
3683.127302 0.8239 0.8243 0.8247 0.8253 0.8258
3688.140646 0.8264 0.8270 0.8276 0.8283 0.8291
3693.153990 0.8298 0.8305 0.8312 0.8319 0.8326
3698.167334 0.8334 0.8340 0.8347 0.8354 0.8359
3703.180678 0.8362 0.8364 0.8367 0.8370 0.8372
3708.194022 0.8374 0.8375 0.8375 0.8376 0.8377
3713.207366 0.8378 0.8378 0.8379 0.8379 0.8379
3718.220710 0.8379 0.8379 0.8379 0.8379 0.8380
3723.234054 0.8380 0.8380 0.8380 0.8380 0.8380
3728.247398 0.8380 0.8380 0.8381 0.8381 0.8381
3733.260742 0.8381 0.8380 0.8380 0.8379 0.8378
3738.274086 0.8378 0.8377 0.8376 0.8376 0.8375
3743.287430 0.8374 0.8373 0.8371 0.8370 0.8369
3748.300774 0.8368 0.8367 0.8368 0.8368 0.8368
3753.314118 0.8369 0.8373 0.8378 0.8384 0.8393
3758.327462 0.8403 0.8414 0.8425 0.8435 0.8439
3763.340806 0.8443 0.8447 0.8450 0.8452 0.8454
3768.354150 0.8456 0.8458 0.8459 0.8460 0.8461
3773.367494 0.8461 0.8462 0.8462 0.8463 0.8464
3778.380838 0.8464 0.8464 0.8464 0.8463 0.8463
3783.394182 0.8463 0.8462 0.8462 0.8462 0.8461
3788.407526 0.8461 0.8461 0.8461 0.8460 0.8460
3793.420870 0.8460 0.8459 0.8459 0.8459 0.8458
3798.434214 0.8458 0.8457 0.8457 0.8456 0.8455
3803.447558 0.8455 0.8454 0.8454 0.8453 0.8452
3808.460902 0.8451 0.8449 0.8448 0.8447 0.8445
3813.474246 0.8444 0.8443 0.8442 0.8441 0.8440
3818.487590 0.8440 0.8439 0.8438 0.8438 0.8437
3823.500934 0.8436 0.8436 0.8437 0.8439 0.8441
3828.514278 0.8443 0.8447 0.8453 0.8459 0.8464
3833.527622 0.8468 0.8473 0.8477 0.8475 0.8465
3838.540966 0.8451 0.8439 0.8427 0.8422 0.8422
3843.554310 0.8423 0.8425 0.8429 0.8432 0.8438
3848.567654 0.8446 0.8455 0.8463 0.8470 0.8476
3853.580998 0.8481 0.8482 0.8482 0.8480 0.8474
3858.594342 0.8468 0.8461 0.8450 0.8436 0.8427
3863.607686 0.8420 0.8422 0.8432 0.8444 0.8455
3868.621030 0.8466 0.8473 0.8478 0.8482 0.8487
3873.634374 0.8489 0.8490 0.8491 0.8492 0.8493
3878.647718 0.8480 0.8487 0.8496 0.8496 0.8495
3883.661062 0.8494 0.8493 0.8492 0.8490 0.8489
3888.674406 0.8488 0.8488 0.8487 0.8486 0.8485
3893.687750 0.8484 0.8484 0.8483 0.8482 0.8480
3898.701094 0.8479 0.8478 0.8477 0.8476 0.8474
3903.714438 0.8473 0.8472 0.8471 0.8470 0.8469
3908.727782 0.8468 0.8467 0.8466 0.8465 0.8465
3913.741126 0.8464 0.8463 0.8462 0.8462 0.8461
3918.754470 0.8461 0.8460 0.8460 0.8459 0.8459
3923.767814 0.8458 0.8458 0.8457 0.8457 0.8457
3928.781158 0.8456 0.8457 0.8457 0.8458 0.8458
3933.794502 0.8458 0.8459 0.8459 0.8459 0.8460
3938.807846 0.8460 0.8461 0.8461 0.8461 0.8462
3943.821190 0.8462 0.8462 0.8463 0.8463 0.8464
3948.834534 0.8464 0.8465 0.8465 0.8465 0.8466
3953.847878 0.8466 0.8467 0.8467 0.8467 0.8468
3958.861222 0.8468 0.8468 0.8468 0.8468 0.8468
3963.874566 0.8468 0.8468 0.8468 0.8468 0.8467
3968.887910 0.8467 0.8467 0.8467 0.8467 0.8467
3973.901254 0.8467 0.8467 0.8467 0.8467 0.8467
3978.914598 0.8467 0.8467 0.8467 0.8467 0.8467
3983.927942 0.8467 0.8467 0.8467 0.8467 0.8467
3988.941286 0.8467 0.8467 0.8467 0.8467 0.8467
3993.954630 0.8467 0.8467 0.8467 0.8467 0.8467
3998.967974 0.8467 0.8467 0.8467 0.8467 0.8467
4003.981318 0.8467 0.8467 0.8467 0.8467 0.8467
4008.994662 0.8467 0.8467
##END=
