##TITLE=TOLUENE, 2,5-DIAMINE-, DIHYDROCHLORIDE
##JCAMP-DX=4.24
$$ By DXEDIT 1.05 (RS McDonald)
##DATA TYPE=INFRARED SPECTRUM
##CLASS=COBLENTZ III
##ORIGIN=DOW CHEMICAL COMPANY
##OWNER=COBLENTZ SOC.
Collection (C) 2018 copyright by the U.S. Secretary of Commerce
on behalf of the United States of America. All rights reserved.
##DATE=1964/05/06
##MOLFORM=C7 H12 Cl2 N2
##SOURCE REFERENCE=COBLENTZ NO. 05681
##$NIST ID=B6005681
##$NIST SOURCE=COBLENTZ
##$NIST IMAGE=cob5681
##SPECTROMETER/DATA SYSTEM=DOW KBr FOREPRISM-GRATING
##INSTRUMENT PARAMETERS=BLAZED AT 3.5, 12.0, 20.0 MICRON AND CHANGED AT 5.0, 7.5, 14.9 MICRON
##STATE=SOLID (SPLIT MULL)
##PATH LENGTH=
$$ SPECTRAL FEATURE AT 1340 CM^-^1 IS PROBABLY AN ARTIFACT CAUSED BY A CHANGE IN RECORDING PARAMETER
##SAMPLING PROCEDURE=TRANSMISSION
##RESOLUTION=2
##DATA PROCESSING=DIGITIZED BY COBLENTZ SOCIETY (BATCH I) FROM HARD COPY
##XUNITS=1/CM
##YUNITS=TRANSMITTANCE
##XLABEL=Wavenumbers (cm-1)
##YLABEL=% Transmission
##XFACTOR=1
##YFACTOR=1
##DELTAX=1
##FIRSTX=3810
##LASTX=450
##FIRSTY=0.5315
##MAXX=3810
##MINX=450
##MAXY=0.8559
##MINY=0.126
##NPOINTS=3361
##XYDATA=(X++(Y..Y))
3810.000000 0.5315 0.5317 0.5319 0.5322 0.5326
3805.000000 0.5329 0.5332 0.5335 0.5338 0.5341
3800.000000 0.5344 0.5347 0.5350 0.5353 0.5357
3795.000000 0.5360 0.5362 0.5365 0.5367 0.5369
3790.000000 0.5371 0.5372 0.5374 0.5376 0.5378
3785.000000 0.5379 0.5381 0.5383 0.5385 0.5386
3780.000000 0.5388 0.5390 0.5392 0.5393 0.5395
3775.000000 0.5397 0.5399 0.5400 0.5402 0.5403
3770.000000 0.5405 0.5409 0.5412 0.5417 0.5421
3765.000000 0.5425 0.5429 0.5432 0.5436 0.5440
3760.000000 0.5444 0.5448 0.5452 0.5456 0.5460
3755.000000 0.5464 0.5468 0.5472 0.5476 0.5480
3750.000000 0.5484 0.5487 0.5491 0.5495 0.5499
3745.000000 0.5503 0.5507 0.5510 0.5515 0.5519
3740.000000 0.5523 0.5527 0.5531 0.5535 0.5539
3735.000000 0.5543 0.5547 0.5551 0.5555 0.5558
3730.000000 0.5562 0.5566 0.5570 0.5574 0.5578
3725.000000 0.5582 0.5586 0.5589 0.5592 0.5595
3720.000000 0.5598 0.5601 0.5604 0.5607 0.5610
3715.000000 0.5612 0.5616 0.5619 0.5622 0.5625
3710.000000 0.5629 0.5632 0.5635 0.5638 0.5641
3705.000000 0.5644 0.5647 0.5651 0.5656 0.5660
3700.000000 0.5665 0.5669 0.5674 0.5678 0.5683
3695.000000 0.5687 0.5692 0.5695 0.5699 0.5701
3690.000000 0.5704 0.5706 0.5709 0.5712 0.5715
3685.000000 0.5717 0.5720 0.5726 0.5732 0.5739
3680.000000 0.5746 0.5753 0.5760 0.5778 0.5795
3675.000000 0.5821 0.5847 0.5873 0.5900 0.5930
3670.000000 0.5960 0.5962 0.5967 0.5951 0.5936
3665.000000 0.5912 0.5891 0.5870 0.5850 0.5847
3660.000000 0.5845 0.5843 0.5841 0.5839 0.5837
3655.000000 0.5834 0.5832 0.5830 0.5829 0.5829
3650.000000 0.5830 0.5831 0.5833 0.5834 0.5836
3645.000000 0.5837 0.5839 0.5840 0.5842 0.5843
3640.000000 0.5845 0.5846 0.5848 0.5849 0.5851
3635.000000 0.5853 0.5855 0.5856 0.5858 0.5860
3630.000000 0.5862 0.5864 0.5867 0.5870 0.5873
3625.000000 0.5875 0.5878 0.5880 0.5883 0.5885
3620.000000 0.5888 0.5890 0.5893 0.5895 0.5898
3615.000000 0.5900 0.5903 0.5905 0.5908 0.5910
3610.000000 0.5912 0.5915 0.5918 0.5920 0.5923
3605.000000 0.5926 0.5929 0.5931 0.5934 0.5936
3600.000000 0.5939 0.5941 0.5944 0.5947 0.5950
3595.000000 0.5953 0.5956 0.5959 0.5962 0.5964
3590.000000 0.5967 0.5970 0.5973 0.5976 0.5979
3585.000000 0.5982 0.5985 0.5987 0.5990 0.5993
3580.000000 0.5996 0.5999 0.6002 0.6004 0.6006
3575.000000 0.6007 0.6008 0.6009 0.6010 0.6010
3570.000000 0.6012 0.6012 0.6014 0.6014 0.6015
3565.000000 0.6016 0.6017 0.6018 0.6019 0.6020
3560.000000 0.6021 0.6021 0.6022 0.6022 0.6023
3555.000000 0.6023 0.6024 0.6024 0.6024 0.6024
3550.000000 0.6025 0.6025 0.6025 0.6025 0.6026
3545.000000 0.6026 0.6026 0.6026 0.6027 0.6027
3540.000000 0.6027 0.6027 0.6028 0.6028 0.6028
3535.000000 0.6028 0.6029 0.6029 0.6029 0.6029
3530.000000 0.6030 0.6030 0.6031 0.6031 0.6031
3525.000000 0.6031 0.6032 0.6032 0.6032 0.6032
3520.000000 0.6033 0.6033 0.6033 0.6033 0.6033
3515.000000 0.6032 0.6032 0.6031 0.6031 0.6031
3510.000000 0.6031 0.6030 0.6030 0.6029 0.6029
3505.000000 0.6028 0.6028 0.6028 0.6028 0.6027
3500.000000 0.6027 0.6026 0.6026 0.6025 0.6025
3495.000000 0.6025 0.6025 0.6024 0.6024 0.6023
3490.000000 0.6023 0.6023 0.6023 0.6022 0.6022
3485.000000 0.6021 0.6021 0.6020 0.6020 0.6020
3480.000000 0.6020 0.6020 0.6020 0.6020 0.6020
3475.000000 0.6020 0.6020 0.6020 0.6021 0.6021
3470.000000 0.6021 0.6021 0.6022 0.6022 0.6022
3465.000000 0.6022 0.6023 0.6023 0.6023 0.6023
3460.000000 0.6023 0.6023 0.6024 0.6024 0.6024
3455.000000 0.6024 0.6025 0.6025 0.6025 0.6025
3450.000000 0.6026 0.6026 0.6026 0.6026 0.6026
3445.000000 0.6026 0.6027 0.6027 0.6027 0.6027
3440.000000 0.6028 0.6028 0.6028 0.6028 0.6028
3435.000000 0.6028 0.6029 0.6029 0.6029 0.6031
3430.000000 0.6033 0.6037 0.6041 0.6044 0.6048
3425.000000 0.6052 0.6056 0.6060 0.6064 0.6068
3420.000000 0.6072 0.6076 0.6080 0.6083 0.6087
3415.000000 0.6091 0.6095 0.6099 0.6103 0.6107
3410.000000 0.6110 0.6115 0.6119 0.6122 0.6126
3405.000000 0.6130 0.6134 0.6138 0.6142 0.6146
3400.000000 0.6150 0.6154 0.6159 0.6162 0.6167
3395.000000 0.6171 0.6176 0.6180 0.6184 0.6188
3390.000000 0.6193 0.6197 0.6201 0.6205 0.6210
3385.000000 0.6214 0.6218 0.6222 0.6226 0.6230
3380.000000 0.6235 0.6239 0.6243 0.6247 0.6252
3375.000000 0.6256 0.6260 0.6265 0.6270 0.6275
3370.000000 0.6281 0.6286 0.6291 0.6296 0.6302
3365.000000 0.6307 0.6312 0.6318 0.6323 0.6328
3360.000000 0.6334 0.6339 0.6345 0.6350 0.6355
3355.000000 0.6360 0.6366 0.6371 0.6377 0.6382
3350.000000 0.6387 0.6393 0.6400 0.6406 0.6412
3345.000000 0.6418 0.6425 0.6432 0.6438 0.6444
3340.000000 0.6451 0.6457 0.6464 0.6469 0.6476
3335.000000 0.6483 0.6490 0.6496 0.6501 0.6508
3330.000000 0.6515 0.6521 0.6528 0.6535 0.6543
3325.000000 0.6551 0.6561 0.6571 0.6580 0.6589
3320.000000 0.6599 0.6608 0.6617 0.6625 0.6635
3315.000000 0.6644 0.6654 0.6662 0.6671 0.6681
3310.000000 0.6691 0.6700 0.6708 0.6715 0.6724
3305.000000 0.6732 0.6740 0.6747 0.6755 0.6762
3300.000000 0.6771 0.6778 0.6787 0.6794 0.6801
3295.000000 0.6808 0.6815 0.6818 0.6822 0.6825
3290.000000 0.6828 0.6832 0.6835 0.6838 0.6841
3285.000000 0.6844 0.6847 0.6849 0.6851 0.6853
3280.000000 0.6855 0.6857 0.6858 0.6860 0.6861
3275.000000 0.6862 0.6865 0.6867 0.6868 0.6869
3270.000000 0.6871 0.6874 0.6875 0.6876 0.6878
3265.000000 0.6880 0.6881 0.6881 0.6881 0.6881
3260.000000 0.6881 0.6880 0.6880 0.6880 0.6880
3255.000000 0.6878 0.6878 0.6878 0.6878 0.6878
3250.000000 0.6878 0.6876 0.6876 0.6875 0.6875
3245.000000 0.6872 0.6871 0.6868 0.6868 0.6865
3240.000000 0.6865 0.6862 0.6861 0.6858 0.6858
3235.000000 0.6856 0.6855 0.6850 0.6846 0.6841
3230.000000 0.6836 0.6830 0.6825 0.6819 0.6815
3225.000000 0.6810 0.6805 0.6799 0.6794 0.6787
3220.000000 0.6780 0.6772 0.6765 0.6758 0.6751
3215.000000 0.6744 0.6736 0.6724 0.6712 0.6701
3210.000000 0.6690 0.6676 0.6664 0.6650 0.6636
3205.000000 0.6611 0.6589 0.6558 0.6528 0.6501
3200.000000 0.6475 0.6451 0.6428 0.6414 0.6399
3195.000000 0.6384 0.6370 0.6355 0.6340 0.6325
3190.000000 0.6310 0.6296 0.6281 0.6266 0.6251
3185.000000 0.6235 0.6219 0.6201 0.6184 0.6166
3180.000000 0.6148 0.6130 0.6112 0.6094 0.6076
3175.000000 0.6058 0.6041 0.6012 0.5984 0.5952
3170.000000 0.5921 0.5890 0.5859 0.5827 0.5796
3165.000000 0.5765 0.5734 0.5702 0.5671 0.5639
3160.000000 0.5608 0.5576 0.5545 0.5512 0.5482
3155.000000 0.5450 0.5419 0.5383 0.5347 0.5310
3150.000000 0.5273 0.5236 0.5200 0.5162 0.5126
3145.000000 0.5089 0.5052 0.5017 0.4982 0.4947
3140.000000 0.4912 0.4879 0.4845 0.4810 0.4777
3135.000000 0.4742 0.4708 0.4675 0.4643 0.4612
3130.000000 0.4583 0.4553 0.4524 0.4494 0.4464
3125.000000 0.4434 0.4404 0.4374 0.4344 0.4314
3120.000000 0.4284 0.4254 0.4225 0.4195 0.4165
3115.000000 0.4135 0.4105 0.4071 0.4037 0.3997
3110.000000 0.3957 0.3916 0.3878 0.3842 0.3807
3105.000000 0.3772 0.3738 0.3704 0.3670 0.3652
3100.000000 0.3634 0.3620 0.3606 0.3592 0.3579
3095.000000 0.3568 0.3559 0.3554 0.3549 0.3544
3090.000000 0.3509 0.3534 0.3529 0.3523 0.3518
3085.000000 0.3516 0.3516 0.3518 0.3518 0.3518
3080.000000 0.3520 0.3521 0.3522 0.3523 0.3525
3075.000000 0.3527 0.3529 0.3530 0.3534 0.3536
3070.000000 0.3538 0.3540 0.3543 0.3545 0.3547
3065.000000 0.3548 0.3582 0.3544 0.3539 0.3528
3060.000000 0.3516 0.3502 0.3488 0.3473 0.3459
3055.000000 0.3444 0.3430 0.3414 0.3400 0.3382
3050.000000 0.3364 0.3345 0.3325 0.3305 0.3284
3045.000000 0.3264 0.3245 0.3224 0.3204 0.3184
3040.000000 0.3164 0.3144 0.3124 0.3107 0.3091
3035.000000 0.3074 0.3058 0.3042 0.3026 0.3009
3030.000000 0.2993 0.2977 0.2961 0.2945 0.2929
3025.000000 0.2912 0.2896 0.2880 0.2864 0.2847
3020.000000 0.2831 0.2815 0.2799 0.2784 0.2769
3015.000000 0.2755 0.2741 0.2727 0.2713 0.2699
3010.000000 0.2684 0.2671 0.2657 0.2643 0.2629
3005.000000 0.2615 0.2601 0.2587 0.2573 0.2559
3000.000000 0.2545 0.2530 0.2516 0.2502 0.2488
2995.000000 0.2474 0.2460 0.2445 0.2431 0.2416
2990.000000 0.2402 0.2387 0.2373 0.2358 0.2344
2985.000000 0.2329 0.2315 0.2300 0.2285 0.2272
2980.000000 0.2258 0.2243 0.2229 0.2215 0.2202
2975.000000 0.2189 0.2176 0.2163 0.2151 0.2138
2970.000000 0.2125 0.2112 0.2099 0.2085 0.2074
2965.000000 0.2061 0.2048 0.2034 0.2022 0.2011
2960.000000 0.2000 0.1989 0.1979 0.1968 0.1957
2955.000000 0.1945 0.1935 0.1925 0.1915 0.1904
2950.000000 0.1894 0.1883 0.1872 0.1861 0.1851
2945.000000 0.1840 0.1829 0.1819 0.1809 0.1798
2940.000000 0.1787 0.1777 0.1767 0.1757 0.1746
2935.000000 0.1736 0.1727 0.1717 0.1707 0.1699
2930.000000 0.1692 0.1686 0.1682 0.1677 0.1672
2925.000000 0.1667 0.1662 0.1657 0.1652 0.1645
2920.000000 0.1641 0.1635 0.1631 0.1626 0.1621
2915.000000 0.1616 0.1611 0.1606 0.1601 0.1596
2910.000000 0.1591 0.1586 0.1581 0.1576 0.1571
2905.000000 0.1565 0.1560 0.1555 0.1550 0.1545
2900.000000 0.1540 0.1535 0.1530 0.1525 0.1520
2895.000000 0.1515 0.1510 0.1505 0.1500 0.1494
2890.000000 0.1489 0.1484 0.1479 0.1474 0.1469
2885.000000 0.1464 0.1459 0.1454 0.1449 0.1444
2880.000000 0.1440 0.1435 0.1431 0.1426 0.1422
2875.000000 0.1417 0.1413 0.1408 0.1404 0.1399
2870.000000 0.1395 0.1390 0.1386 0.1381 0.1377
2865.000000 0.1372 0.1368 0.1363 0.1359 0.1354
2860.000000 0.1350 0.1345 0.1341 0.1336 0.1332
2855.000000 0.1327 0.1323 0.1318 0.1314 0.1312
2850.000000 0.1310 0.1308 0.1307 0.1305 0.1304
2845.000000 0.1302 0.1301 0.1299 0.1298 0.1296
2840.000000 0.1295 0.1292 0.1292 0.1290 0.1289
2835.000000 0.1287 0.1286 0.1284 0.1283 0.1281
2830.000000 0.1260 0.1278 0.1277 0.1276 0.1275
2825.000000 0.1275 0.1276 0.1276 0.1277 0.1277
2820.000000 0.1278 0.1279 0.1280 0.1280 0.1281
2815.000000 0.1281 0.1282 0.1282 0.1283 0.1284
2810.000000 0.1285 0.1285 0.1286 0.1286 0.1287
2805.000000 0.1287 0.1288 0.1288 0.1289 0.1291
2800.000000 0.1292 0.1296 0.1302 0.1306 0.1310
2795.000000 0.1314 0.1319 0.1323 0.1327 0.1331
2790.000000 0.1336 0.1340 0.1344 0.1348 0.1353
2785.000000 0.1357 0.1361 0.1365 0.1370 0.1374
2780.000000 0.1378 0.1383 0.1389 0.1396 0.1404
2775.000000 0.1411 0.1418 0.1425 0.1432 0.1439
2770.000000 0.1446 0.1454 0.1461 0.1468 0.1475
2765.000000 0.1482 0.1490 0.1498 0.1507 0.1517
2760.000000 0.1527 0.1536 0.1546 0.1556 0.1566
2755.000000 0.1576 0.1586 0.1596 0.1606 0.1616
2750.000000 0.1626 0.1635 0.1646 0.1660 0.1673
2745.000000 0.1685 0.1699 0.1712 0.1725 0.1737
2740.000000 0.1751 0.1764 0.1777 0.1790 0.1803
2735.000000 0.1816 0.1829 0.1842 0.1854 0.1869
2730.000000 0.1883 0.1896 0.1912 0.1926 0.1941
2725.000000 0.1954 0.1970 0.1984 0.1999 0.2013
2720.000000 0.2028 0.2042 0.2057 0.2071 0.2085
2715.000000 0.2102 0.2118 0.2134 0.2150 0.2166
2710.000000 0.2182 0.2198 0.2214 0.2230 0.2246
2705.000000 0.2262 0.2278 0.2293 0.2309 0.2325
2700.000000 0.2341 0.2357 0.2373 0.2385 0.2400
2695.000000 0.2413 0.2427 0.2440 0.2454 0.2468
2690.000000 0.2482 0.2495 0.2509 0.2522 0.2535
2685.000000 0.2550 0.2564 0.2579 0.2595 0.2610
2680.000000 0.2626 0.2641 0.2657 0.2672 0.2688
2675.000000 0.2703 0.2719 0.2733 0.2748 0.2761
2670.000000 0.2775 0.2788 0.2802 0.2812 0.2823
2665.000000 0.2829 0.2835 0.2842 0.2849 0.2856
2660.000000 0.2863 0.2869 0.2875 0.2877 0.2879
2655.000000 0.2881 0.2883 0.2884 0.2888 0.2890
2650.000000 0.2866 0.2892 0.2891 0.2891 0.2890
2645.000000 0.2889 0.2888 0.2881 0.2874 0.2866
2640.000000 0.2858 0.2841 0.2825 0.2806 0.2787
2635.000000 0.2767 0.2748 0.2729 0.2711 0.2693
2630.000000 0.2675 0.2657 0.2640 0.2622 0.2604
2625.000000 0.2585 0.2568 0.2550 0.2533 0.2514
2620.000000 0.2496 0.2477 0.2459 0.2440 0.2422
2615.000000 0.2403 0.2384 0.2366 0.2348 0.2329
2610.000000 0.2311 0.2298 0.2285 0.2275 0.2265
2605.000000 0.2255 0.2245 0.2234 0.2224 0.2214
2600.000000 0.2204 0.2195 0.2187 0.2180 0.2174
2595.000000 0.2167 0.2160 0.2153 0.2147 0.2141
2590.000000 0.2134 0.2130 0.2126 0.2121 0.2116
2585.000000 0.2111 0.2106 0.2102 0.2098 0.2096
2580.000000 0.2095 0.2093 0.2092 0.2090 0.2089
2575.000000 0.2087 0.2035 0.2084 0.2084 0.2083
2570.000000 0.2082 0.2081 0.2080 0.2079 0.2078
2565.000000 0.2077 0.2076 0.2084 0.2092 0.2103
2560.000000 0.2114 0.2125 0.2135 0.2147 0.2158
2555.000000 0.2170 0.2182 0.2193 0.2205 0.2217
2550.000000 0.2229 0.2240 0.2252 0.2264 0.2276
2545.000000 0.2288 0.2300 0.2311 0.2323 0.2334
2540.000000 0.2347 0.2358 0.2370 0.2382 0.2394
2535.000000 0.2405 0.2417 0.2429 0.2441 0.2452
2530.000000 0.2464 0.2476 0.2488 0.2500 0.2512
2525.000000 0.2526 0.2541 0.2560 0.2579 0.2597
2520.000000 0.2616 0.2634 0.2654 0.2673 0.2692
2515.000000 0.2710 0.2729 0.2748 0.2767 0.2785
2510.000000 0.2805 0.2823 0.2842 0.2859 0.2876
2505.000000 0.2893 0.2911 0.2928 0.2945 0.2962
2500.000000 0.2979 0.2996 0.3013 0.3030 0.3047
2495.000000 0.3064 0.3081 0.3098 0.3115 0.3132
2490.000000 0.3150 0.3167 0.3184 0.3200 0.3218
2485.000000 0.3234 0.3252 0.3266 0.3280 0.3294
2480.000000 0.3309 0.3323 0.3338 0.3352 0.3366
2475.000000 0.3380 0.3395 0.3409 0.3423 0.3437
2470.000000 0.3452 0.3466 0.3480 0.3495 0.3509
2465.000000 0.3523 0.3538 0.3552 0.3566 0.3580
2460.000000 0.3595 0.3609 0.3624 0.3638 0.3653
2455.000000 0.3666 0.3682 0.3696 0.3709 0.3724
2450.000000 0.3739 0.3753 0.3768 0.3782 0.3797
2445.000000 0.3810 0.3826 0.3840 0.3855 0.3868
2440.000000 0.3882 0.3897 0.3912 0.3926 0.3941
2435.000000 0.3955 0.3970 0.3984 0.3999 0.4012
2430.000000 0.4027 0.4041 0.4055 0.4068 0.4082
2425.000000 0.4097 0.4110 0.4124 0.4138 0.4152
2420.000000 0.4166 0.4180 0.4194 0.4208 0.4222
2415.000000 0.4236 0.4250 0.4264 0.4278 0.4292
2410.000000 0.4306 0.4320 0.4334 0.4347 0.4360
2405.000000 0.4371 0.4382 0.4393 0.4404 0.4415
2400.000000 0.4426 0.4437 0.4448 0.4458 0.4469
2395.000000 0.4480 0.4491 0.4502 0.4512 0.4524
2390.000000 0.4535 0.4546 0.4557 0.4567 0.4578
2385.000000 0.4589 0.4600 0.4610 0.4622 0.4633
2380.000000 0.4644 0.4655 0.4666 0.4676 0.4687
2375.000000 0.4698 0.4709 0.4720 0.4731 0.4742
2370.000000 0.4753 0.4764 0.4775 0.4786 0.4797
2365.000000 0.4807 0.4818 0.4829 0.4840 0.4851
2360.000000 0.4862 0.4873 0.4884 0.4895 0.4906
2355.000000 0.4916 0.4927 0.4937 0.4947 0.4956
2350.000000 0.4966 0.4975 0.4984 0.4993 0.5003
2345.000000 0.5012 0.5021 0.5030 0.5040 0.5049
2340.000000 0.5058 0.5067 0.5077 0.5086 0.5095
2335.000000 0.5104 0.5114 0.5123 0.5132 0.5141
2330.000000 0.5151 0.5160 0.5169 0.5178 0.5188
2325.000000 0.5197 0.5206 0.5215 0.5225 0.5234
2320.000000 0.5243 0.5252 0.5262 0.5271 0.5280
2315.000000 0.5289 0.5299 0.5308 0.5318 0.5327
2310.000000 0.5337 0.5346 0.5356 0.5365 0.5375
2305.000000 0.5384 0.5394 0.5403 0.5412 0.5422
2300.000000 0.5432 0.5441 0.5451 0.5460 0.5470
2295.000000 0.5479 0.5489 0.5498 0.5508 0.5517
2290.000000 0.5527 0.5535 0.5544 0.5552 0.5560
2285.000000 0.5569 0.5578 0.5586 0.5595 0.5603
2280.000000 0.5612 0.5620 0.5629 0.5637 0.5646
2275.000000 0.5654 0.5662 0.5671 0.5680 0.5688
2270.000000 0.5697 0.5705 0.5714 0.5722 0.5731
2265.000000 0.5739 0.5748 0.5756 0.5765 0.5773
2260.000000 0.5782 0.5790 0.5799 0.5807 0.5815
2255.000000 0.5823 0.5832 0.5840 0.5849 0.5857
2250.000000 0.5866 0.5875 0.5884 0.5892 0.5901
2245.000000 0.5909 0.5918 0.5927 0.5936 0.5944
2240.000000 0.5953 0.5960 0.5970 0.5979 0.5988
2235.000000 0.5996 0.6005 0.6014 0.6023 0.6031
2230.000000 0.6040 0.6048 0.6057 0.6066 0.6075
2225.000000 0.6083 0.6092 0.6100 0.6109 0.6118
2220.000000 0.6127 0.6135 0.6144 0.6152 0.6160
2215.000000 0.6170 0.6179 0.6187 0.6196 0.6204
2210.000000 0.6212 0.6222 0.6231 0.6239 0.6248
2205.000000 0.6256 0.6265 0.6273 0.6282 0.6290
2200.000000 0.6299 0.6308 0.6317 0.6325 0.6334
2195.000000 0.6342 0.6351 0.6359 0.6368 0.6376
2190.000000 0.6385 0.6393 0.6401 0.6410 0.6418
2185.000000 0.6426 0.6436 0.6444 0.6453 0.6461
2180.000000 0.6469 0.6478 0.6487 0.6495 0.6504
2175.000000 0.6512 0.6521 0.6530 0.6539 0.6547
2170.000000 0.6556 0.6564 0.6572 0.6581 0.6590
2165.000000 0.6598 0.6607 0.6614 0.6621 0.6628
2160.000000 0.6637 0.6645 0.6653 0.6660 0.6668
2155.000000 0.6675 0.6683 0.6691 0.6699 0.6706
2150.000000 0.6714 0.6721 0.6728 0.6736 0.6744
2145.000000 0.6751 0.6760 0.6767 0.6775 0.6782
2140.000000 0.6790 0.6798 0.6806 0.6812 0.6821
2135.000000 0.6828 0.6836 0.6844 0.6851 0.6858
2130.000000 0.6867 0.6872 0.6880 0.6886 0.6893
2125.000000 0.6899 0.6906 0.6911 0.6918 0.6925
2120.000000 0.6932 0.6938 0.6945 0.6951 0.6958
2115.000000 0.6965 0.6971 0.6978 0.6985 0.6991
2110.000000 0.6998 0.7003 0.7008 0.7014 0.7018
2105.000000 0.7024 0.7028 0.7034 0.7039 0.7044
2100.000000 0.7049 0.7054 0.7058 0.7064 0.7068
2095.000000 0.7074 0.7078 0.7084 0.7090 0.7095
2090.000000 0.7101 0.7107 0.7112 0.7118 0.7124
2085.000000 0.7130 0.7137 0.7143 0.7150 0.7156
2080.000000 0.7162 0.7168 0.7175 0.7182 0.7189
2075.000000 0.7195 0.7201 0.7208 0.7215 0.7221
2070.000000 0.7228 0.7234 0.7241 0.7247 0.7254
2065.000000 0.7261 0.7268 0.7275 0.7282 0.7289
2060.000000 0.7296 0.7303 0.7310 0.7317 0.7324
2055.000000 0.7331 0.7338 0.7345 0.7353 0.7360
2050.000000 0.7368 0.7375 0.7383 0.7390 0.7397
2045.000000 0.7404 0.7411 0.7418 0.7425 0.7430
2040.000000 0.7436 0.7441 0.7447 0.7451 0.7457
2035.000000 0.7461 0.7468 0.7472 0.7478 0.7484
2030.000000 0.7490 0.7495 0.7501 0.7505 0.7510
2025.000000 0.7512 0.7517 0.7519 0.7524 0.7526
2020.000000 0.7531 0.7534 0.7537 0.7540 0.7544
2015.000000 0.7547 0.7551 0.7553 0.7556 0.7558
2010.000000 0.7561 0.7562 0.7565 0.7568 0.7571
2005.000000 0.7571 0.7572 0.7572 0.7574 0.7558
2000.000000 0.7543 0.7494 0.7430 0.7372 0.7334
1995.000000 0.7330 0.7355 0.7408 0.7465 0.7533
1990.000000 0.7558 0.7575 0.7582 0.7587 0.7592
1985.000000 0.7597 0.7601 0.7607 0.7611 0.7618
1980.000000 0.7622 0.7628 0.7633 0.7638 0.7643
1975.000000 0.7648 0.7653 0.7658 0.7662 0.7668
1970.000000 0.7671 0.7676 0.7682 0.7687 0.7692
1965.000000 0.7697 0.7701 0.7706 0.7711 0.7714
1960.000000 0.7718 0.7721 0.7724 0.7728 0.7731
1955.000000 0.7735 0.7738 0.7741 0.7745 0.7748
1950.000000 0.7751 0.7755 0.7758 0.7761 0.7765
1945.000000 0.7768 0.7769 0.7772 0.7775 0.7778
1940.000000 0.7781 0.7783 0.7786 0.7788 0.7791
1935.000000 0.7793 0.7796 0.7799 0.7801 0.7803
1930.000000 0.7805 0.7807 0.7808 0.7810 0.7811
1925.000000 0.7814 0.7815 0.7817 0.7818 0.7819
1920.000000 0.7821 0.7822 0.7824 0.7824 0.7825
1915.000000 0.7825 0.7825 0.7825 0.7826 0.7828
1910.000000 0.7828 0.7825 0.7824 0.7822 0.7821
1905.000000 0.7818 0.7817 0.7812 0.7801 0.7791
1900.000000 0.7780 0.7769 0.7761 0.7757 0.7753
1895.000000 0.7750 0.7748 0.7747 0.7745 0.7744
1890.000000 0.7742 0.7741 0.7740 0.7738 0.7738
1885.000000 0.7738 0.7740 0.7741 0.7742 0.7743
1880.000000 0.7740 0.7737 0.7733 0.7721 0.7704
1875.000000 0.7687 0.7669 0.7653 0.7646 0.7640
1870.000000 0.7650 0.7660 0.7669 0.7680 0.7690
1865.000000 0.7700 0.7710 0.7719 0.7730 0.7737
1860.000000 0.7743 0.7749 0.7754 0.7760 0.7765
1855.000000 0.7771 0.7776 0.7783 0.7789 0.7794
1850.000000 0.7800 0.7806 0.7811 0.7817 0.7821
1845.000000 0.7825 0.7828 0.7832 0.7836 0.7839
1840.000000 0.7842 0.7846 0.7849 0.7853 0.7856
1835.000000 0.7858 0.7862 0.7865 0.7868 0.7872
1830.000000 0.7875 0.7878 0.7881 0.7883 0.7884
1825.000000 0.7886 0.7888 0.7889 0.7891 0.7892
1820.000000 0.7894 0.7896 0.7897 0.7899 0.7901
1815.000000 0.7901 0.7904 0.7905 0.7907 0.7908
1810.000000 0.7908 0.7910 0.7910 0.7911 0.7911
1805.000000 0.7911 0.7911 0.7911 0.7912 0.7912
1800.000000 0.7912 0.7914 0.7915 0.7917 0.7918
1795.000000 0.7921 0.7924 0.7925 0.7928 0.7931
1790.000000 0.7933 0.7936 0.7938 0.7940 0.7943
1785.000000 0.7945 0.7948 0.7951 0.7953 0.7956
1780.000000 0.7958 0.7961 0.7964 0.7965 0.7968
1775.000000 0.7971 0.7974 0.7978 0.7984 0.7989
1770.000000 0.7994 0.7999 0.8004 0.8010 0.8015
1765.000000 0.8019 0.8025 0.8030 0.8034 0.8039
1760.000000 0.8043 0.8048 0.8051 0.8057 0.8058
1755.000000 0.8060 0.8060 0.8060 0.8061 0.8061
1750.000000 0.8061 0.8061 0.8058 0.8056 0.8053
1745.000000 0.8050 0.8048 0.8045 0.8042 0.8041
1740.000000 0.8039 0.8037 0.8036 0.8034 0.8033
1735.000000 0.8032 0.8031 0.8031 0.8031 0.8031
1730.000000 0.8032 0.8033 0.8034 0.8035 0.8037
1725.000000 0.8039 0.8021 0.7996 0.7968 0.7946
1720.000000 0.7925 0.7897 0.7912 0.7911 0.7911
1715.000000 0.7928 0.7962 0.7997 0.8024 0.8051
1710.000000 0.8078 0.8105 0.8131 0.8158 0.8183
1705.000000 0.8208 0.8233 0.8258 0.8275 0.8286
1700.000000 0.8297 0.8308 0.8318 0.8324 0.8328
1695.000000 0.8335 0.8340 0.8346 0.8351 0.8357
1690.000000 0.8363 0.8368 0.8374 0.8378 0.8385
1685.000000 0.8390 0.8395 0.8397 0.8399 0.8401
1680.000000 0.8402 0.8404 0.8406 0.8408 0.8410
1675.000000 0.8411 0.8413 0.8415 0.8415 0.8414
1670.000000 0.8414 0.8414 0.8414 0.8414 0.8414
1665.000000 0.8413 0.8410 0.8408 0.8405 0.8403
1660.000000 0.8401 0.8398 0.8392 0.8385 0.8378
1655.000000 0.8370 0.8361 0.8353 0.8344 0.8336
1650.000000 0.8328 0.8318 0.8311 0.8300 0.8284
1645.000000 0.8268 0.8255 0.8243 0.8231 0.8218
1640.000000 0.8208 0.8196 0.8184 0.8171 0.8160
1635.000000 0.8145 0.8131 0.8117 0.8101 0.8084
1630.000000 0.8065 0.8049 0.8032 0.8021 0.8014
1625.000000 0.8010 0.8007 0.8004 0.8001 0.7997
1620.000000 0.7987 0.7976 0.7967 0.7939 0.7911
1615.000000 0.7882 0.7854 0.7825 0.7792 0.7748
1610.000000 0.7703 0.7658 0.7614 0.7562 0.7491
1605.000000 0.7419 0.7351 0.7289 0.7226 0.7164
1600.000000 0.7085 0.7001 0.6918 0.6836 0.6754
1595.000000 0.6674 0.6593 0.6511 0.6425 0.6332
1590.000000 0.6238 0.6145 0.6059 0.5975 0.5892
1585.000000 0.5808 0.5716 0.5612 0.5508 0.5396
1580.000000 0.5266 0.5135 0.5018 0.4906 0.4795
1575.000000 0.4677 0.4556 0.4434 0.4334 0.4242
1570.000000 0.4154 0.4077 0.4006 0.3947 0.3887
1565.000000 0.3846 0.3818 0.3789 0.3759 0.3732
1560.000000 0.3696 0.3659 0.3623 0.3580 0.3509
1555.000000 0.3440 0.3330 0.3045 0.2715 0.1848
1550.000000 0.1854 0.1850 0.1929 0.2009 0.2089
1545.000000 0.2169 0.2333 0.2301 0.2305 0.2090
1540.000000 0.1875 0.1660 0.1553 0.1574 0.1574
1535.000000 0.1729 0.1885 0.2043 0.2199 0.2355
1530.000000 0.2511 0.2667 0.2823 0.2980 0.3135
1525.000000 0.3292 0.3448 0.3604 0.3759 0.3916
1520.000000 0.4073 0.4139 0.4146 0.4167 0.4160
1515.000000 0.4056 0.3779 0.3500 0.3223 0.2946
1510.000000 0.2668 0.2390 0.2113 0.1994 0.1879
1505.000000 0.1765 0.1650 0.1536 0.1421 0.1357
1500.000000 0.1485 0.1922 0.2359 0.2680 0.2883
1495.000000 0.3050 0.3218 0.3406 0.3592 0.3716
1490.000000 0.3799 0.3882 0.3966 0.4049 0.4150
1485.000000 0.4255 0.4360 0.4466 0.4544 0.4610
1480.000000 0.4676 0.4742 0.4808 0.4874 0.4940
1475.000000 0.5008 0.5075 0.5142 0.5208 0.5260
1470.000000 0.5312 0.5364 0.5416 0.5460 0.5490
1465.000000 0.5520 0.5550 0.5573 0.5596 0.5619
1460.000000 0.5641 0.5664 0.5687 0.5709 0.5732
1455.000000 0.5758 0.5783 0.5809 0.5835 0.5860
1450.000000 0.5886 0.5912 0.5937 0.5962 0.5990
1445.000000 0.6019 0.6047 0.6075 0.6103 0.6132
1440.000000 0.6160 0.6187 0.6214 0.6240 0.6267
1435.000000 0.6294 0.6317 0.6338 0.6358 0.6379
1430.000000 0.6401 0.6400 0.6399 0.6394 0.6388
1425.000000 0.6383 0.6378 0.6373 0.6372 0.6372
1420.000000 0.6378 0.6384 0.6390 0.6400 0.6415
1415.000000 0.6431 0.6447 0.6462 0.6478 0.6495
1410.000000 0.6511 0.6526 0.6541 0.6554 0.6567
1405.000000 0.6580 0.6593 0.6606 0.6618 0.6632
1400.000000 0.6645 0.6657 0.6668 0.6681 0.6693
1395.000000 0.6705 0.6718 0.6730 0.6740 0.6748
1390.000000 0.6757 0.6765 0.6772 0.6782 0.6790
1385.000000 0.6797 0.6803 0.6808 0.6812 0.6818
1380.000000 0.6824 0.6828 0.6832 0.6835 0.6837
1375.000000 0.6840 0.6842 0.6844 0.6844 0.6844
1370.000000 0.6843 0.6843 0.6843 0.6843 0.6843
1365.000000 0.6843 0.6841 0.6836 0.6831 0.6825
1360.000000 0.6821 0.6804 0.6784 0.6765 0.6738
1355.000000 0.6681 0.6624 0.6530 0.6422 0.6353
1350.000000 0.6283 0.6212 0.6136 0.6059 0.5982
1345.000000 0.5907 0.5848 0.5776 0.5777 0.5766
1340.000000 0.5759 0.5754 0.5980 0.6210 0.6440
1335.000000 0.6540 0.6564 0.6578 0.6595 0.6601
1330.000000 0.6601 0.6601 0.6594 0.6597 0.6578
1325.000000 0.6565 0.6541 0.6511 0.6469 0.6428
1320.000000 0.6355 0.6192 0.6026 0.5860 0.5694
1315.000000 0.5528 0.5362 0.5197 0.5031 0.4865
1310.000000 0.4781 0.4822 0.5081 0.5341 0.5600
1305.000000 0.5860 0.6012 0.6089 0.6162 0.6222
1300.000000 0.6282 0.6346 0.6417 0.6480 0.6517
1295.000000 0.6548 0.6541 0.6553 0.6565 0.6524
1290.000000 0.6474 0.6426 0.6421 0.6421 0.6434
1285.000000 0.6474 0.6540 0.6603 0.6665 0.6726
1280.000000 0.6789 0.6849 0.6884 0.6918 0.6945
1275.000000 0.6964 0.6983 0.7001 0.7018 0.7040
1270.000000 0.7040 0.7040 0.7040 0.7040 0.6997
1265.000000 0.6942 0.6874 0.6805 0.6737 0.6605
1260.000000 0.6444 0.6454 0.6454 0.6454 0.6582
1255.000000 0.6691 0.6795 0.6871 0.6948 0.7011
1250.000000 0.7044 0.7076 0.7106 0.7126 0.7148
1245.000000 0.7169 0.7193 0.7219 0.7247 0.7275
1240.000000 0.7301 0.7328 0.7356 0.7383 0.7400
1235.000000 0.7415 0.7432 0.7449 0.7462 0.7467
1230.000000 0.7469 0.7474 0.7478 0.7482 0.7511
1225.000000 0.7490 0.7490 0.7478 0.7468 0.7456
1220.000000 0.7428 0.7403 0.7376 0.7354 0.7334
1215.000000 0.7314 0.7294 0.7274 0.7254 0.7235
1210.000000 0.7221 0.7207 0.7193 0.7180 0.7167
1205.000000 0.7153 0.7140 0.7091 0.7034 0.6975
1200.000000 0.6908 0.6691 0.5603 0.4839 0.4075
1195.000000 0.3632 0.3632 0.4147 0.4751 0.5356
1190.000000 0.5960 0.6565 0.6833 0.6900 0.6961
1185.000000 0.7014 0.7021 0.7025 0.7032 0.7038
1180.000000 0.7051 0.7067 0.7083 0.7098 0.7111
1175.000000 0.7125 0.7140 0.7154 0.7168 0.7175
1170.000000 0.7178 0.7178 0.7180 0.7181 0.7182
1165.000000 0.7182 0.7182 0.7182 0.7181 0.7181
1160.000000 0.7158 0.7133 0.7108 0.7083 0.7056
1155.000000 0.7028 0.7003 0.7003 0.7004 0.7005
1150.000000 0.7005 0.7005 0.7005 0.7005 0.7000
1145.000000 0.6988 0.6975 0.6951 0.6918 0.6885
1140.000000 0.6856 0.6833 0.6810 0.6787 0.6757
1135.000000 0.6708 0.6661 0.6610 0.6547 0.6485
1130.000000 0.6385 0.5858 0.5415 0.5101 0.5099
1125.000000 0.5142 0.5356 0.5570 0.5784 0.5998
1120.000000 0.6162 0.6284 0.6332 0.6381 0.6418
1115.000000 0.6435 0.6451 0.6468 0.6488 0.6511
1110.000000 0.6535 0.6558 0.6582 0.6605 0.6628
1105.000000 0.6651 0.6671 0.6694 0.6715 0.6737
1100.000000 0.6758 0.6780 0.6805 0.6834 0.6864
1095.000000 0.6894 0.6915 0.6938 0.6960 0.6981
1090.000000 0.6994 0.7006 0.7018 0.7030 0.7035
1085.000000 0.7037 0.7037 0.7037 0.7037 0.7037
1080.000000 0.7037 0.7037 0.7037 0.7036 0.7036
1075.000000 0.7036 0.7036 0.7040 0.7044 0.7048
1070.000000 0.7051 0.7056 0.7060 0.7064 0.7068
1065.000000 0.7071 0.7078 0.7078 0.7078 0.7067
1060.000000 0.7056 0.7045 0.7024 0.7003 0.6983
1055.000000 0.6961 0.6940 0.6917 0.6894 0.6868
1050.000000 0.6836 0.6803 0.6778 0.6757 0.6742
1045.000000 0.6701 0.6721 0.6728 0.6740 0.6783
1040.000000 0.6872 0.6942 0.6983 0.7021 0.7044
1035.000000 0.7067 0.7080 0.7075 0.7092 0.7089
1030.000000 0.7086 0.7069 0.7033 0.6978 0.6921
1025.000000 0.6882 0.6893 0.6889 0.6889 0.6906
1020.000000 0.6951 0.7001 0.7051 0.7100 0.7149
1015.000000 0.7200 0.7251 0.7301 0.7351 0.7385
1010.000000 0.7418 0.7453 0.7487 0.7519 0.7551
1005.000000 0.7582 0.7611 0.7635 0.7649 0.7661
1000.000000 0.7671 0.7676 0.7683 0.7689 0.7694
995.000000 0.7700 0.7705 0.7711 0.7718 0.7725
990.000000 0.7731 0.7738 0.7744 0.7751 0.7757
985.000000 0.7764 0.7769 0.7775 0.7780 0.7785
980.000000 0.7790 0.7795 0.7797 0.7798 0.7799
975.000000 0.7801 0.7801 0.7796 0.7791 0.7785
970.000000 0.7775 0.7765 0.7757 0.7754 0.7751
965.000000 0.7747 0.7744 0.7743 0.7743 0.7744
960.000000 0.7745 0.7746 0.7747 0.7730 0.7751
955.000000 0.7754 0.7757 0.7761 0.7760 0.7756
950.000000 0.7751 0.7748 0.7744 0.7734 0.7722
945.000000 0.7711 0.7701 0.7690 0.7678 0.7647
940.000000 0.7462 0.7345 0.7278 0.7225 0.7168
935.000000 0.7128 0.7145 0.7172 0.7478 0.7578
930.000000 0.7671 0.7758 0.7803 0.7847 0.7880
925.000000 0.7911 0.7938 0.7950 0.7961 0.7972
920.000000 0.7981 0.7976 0.7972 0.7968 0.7965
915.000000 0.7961 0.7961 0.7961 0.7965 0.7968
910.000000 0.7971 0.7974 0.7978 0.7982 0.7986
905.000000 0.7990 0.7994 0.7999 0.8003 0.8004
900.000000 0.8004 0.8004 0.8005 0.8005 0.8005
895.000000 0.8005 0.8006 0.8006 0.8005 0.8004
890.000000 0.8003 0.8001 0.8001 0.8000 0.7999
885.000000 0.7997 0.7995 0.7993 0.7992 0.7990
880.000000 0.7978 0.7946 0.7912 0.7865 0.7803
875.000000 0.7741 0.7680 0.7630 0.7134 0.6624
870.000000 0.6114 0.5630 0.5610 0.5730 0.6553
865.000000 0.7278 0.7435 0.7565 0.7725 0.7815
860.000000 0.7876 0.7926 0.7971 0.8008 0.8045
855.000000 0.8078 0.8106 0.8125 0.8125 0.8125
850.000000 0.8111 0.8098 0.8084 0.8068 0.8054
845.000000 0.8038 0.8025 0.8015 0.8005 0.8008
840.000000 0.8025 0.8043 0.8058 0.8065 0.8072
835.000000 0.8080 0.8086 0.8104 0.8080 0.8075
830.000000 0.8069 0.8060 0.8050 0.8040 0.8030
825.000000 0.8018 0.7998 0.7975 0.7954 0.7933
820.000000 0.7908 0.7881 0.7854 0.7826 0.7800
815.000000 0.7758 0.7708 0.7646 0.7533 0.7395
810.000000 0.7219 0.6447 0.4618 0.3780 0.3868
805.000000 0.4331 0.4793 0.5255 0.5717 0.6179
800.000000 0.6641 0.7103 0.7453 0.7678 0.7806
795.000000 0.7862 0.7919 0.7965 0.8005 0.8032
790.000000 0.8057 0.8068 0.8081 0.8094 0.8099
785.000000 0.8103 0.8103 0.8101 0.8095 0.8088
780.000000 0.8078 0.8062 0.8049 0.8035 0.8021
775.000000 0.8012 0.8005 0.7997 0.7986 0.7969
770.000000 0.7954 0.7938 0.7922 0.7911 0.7898
765.000000 0.7884 0.7869 0.7850 0.7824 0.7687
760.000000 0.7521 0.7355 0.7206 0.7217 0.7351
755.000000 0.7589 0.7795 0.7847 0.7875 0.7895
750.000000 0.7915 0.7937 0.7949 0.7958 0.7968
745.000000 0.7980 0.7987 0.7983 0.7980 0.7958
740.000000 0.7935 0.7904 0.7868 0.7832 0.7804
735.000000 0.7783 0.7761 0.7741 0.7711 0.7682
730.000000 0.7653 0.7608 0.7551 0.7494 0.7437
725.000000 0.7380 0.7315 0.4851 0.4835 0.4845
720.000000 0.5182 0.5609 0.6036 0.6461 0.6889
715.000000 0.7278 0.7456 0.7605 0.7691 0.7758
710.000000 0.7812 0.7865 0.7915 0.7965 0.8011
705.000000 0.8050 0.8092 0.8158 0.8146 0.8146
700.000000 0.8147 0.8143 0.8108 0.8010 0.7928
695.000000 0.7867 0.7853 0.7887 0.7940 0.7980
690.000000 0.8019 0.8058 0.8093 0.8126 0.8161
685.000000 0.8193 0.8225 0.8256 0.8284 0.8313
680.000000 0.8341 0.8370 0.8378 0.8378 0.8377
675.000000 0.8366 0.8350 0.8336 0.8302 0.8283
670.000000 0.8292 0.8324 0.8355 0.8387 0.8418
665.000000 0.8450 0.8482 0.8513 0.8521 0.8524
660.000000 0.8525 0.8528 0.8528 0.8531 0.8533
655.000000 0.8535 0.8537 0.8545 0.8544 0.8543
650.000000 0.8545 0.8547 0.8549 0.8551 0.8552
645.000000 0.8553 0.8554 0.8554 0.8555 0.8556
640.000000 0.8557 0.8558 0.8559 0.8559 0.8559
635.000000 0.8554 0.8548 0.8543 0.8537 0.8532
630.000000 0.8525 0.8521 0.8518 0.8514 0.8511
625.000000 0.8507 0.8504 0.8500 0.8497 0.8493
620.000000 0.8491 0.8489 0.8487 0.8486 0.8484
615.000000 0.8482 0.8480 0.8478 0.8477 0.8475
610.000000 0.8473 0.8471 0.8471 0.8471 0.8471
605.000000 0.8473 0.8473 0.8473 0.8473 0.8473
600.000000 0.8473 0.8473 0.8473 0.8473 0.8473
595.000000 0.8471 0.8470 0.8468 0.8467 0.8465
590.000000 0.8464 0.8462 0.8458 0.8451 0.8444
585.000000 0.8436 0.8428 0.8421 0.8412 0.8398
580.000000 0.8383 0.8342 0.8302 0.8261 0.8125
575.000000 0.8041 0.7960 0.7890 0.7856 0.7854
570.000000 0.7849 0.7865 0.7906 0.7950 0.8005
565.000000 0.8038 0.8068 0.8087 0.8089 0.8075
560.000000 0.8061 0.7996 0.7892 0.7201 0.6453
555.000000 0.5704 0.4956 0.4444 0.4444 0.4444
550.000000 0.4704 0.5348 0.5993 0.6637 0.7282
545.000000 0.7783 0.7858 0.7930 0.7975 0.8018
540.000000 0.8061 0.8076 0.8092 0.8108 0.8121
535.000000 0.8122 0.8124 0.8125 0.8126 0.8139
530.000000 0.8128 0.8130 0.8131 0.8131 0.8128
525.000000 0.8125 0.8124 0.8121 0.8118 0.8117
520.000000 0.8115 0.8111 0.8110 0.8108 0.8104
515.000000 0.8101 0.8097 0.8094 0.8090 0.8086
510.000000 0.8083 0.8078 0.8075 0.8069 0.8061
505.000000 0.8051 0.8043 0.8034 0.8025 0.8015
500.000000 0.8006 0.7997 0.7988 0.7980 0.7975
495.000000 0.7971 0.7968 0.7962 0.7958 0.7955
490.000000 0.7950 0.7946 0.7942 0.7940 0.7940
485.000000 0.7940 0.7939 0.7939 0.7939 0.7939
480.000000 0.7939 0.7938 0.7938 0.7938 0.7939
475.000000 0.7940 0.7941 0.7942 0.7943 0.7944
470.000000 0.7945 0.7946 0.7946 0.7947 0.7943
465.000000 0.7939 0.7935 0.7930 0.7925 0.7921
460.000000 0.7912 0.7903 0.7892 0.7882 0.7871
455.000000 0.7861 0.7850 0.7841 0.7833 0.7825
450.000000 0.7815
##END=
