##TITLE=ACETIC ACID, NITRILOTRI-, TRISODIUM SALT
##JCAMP-DX=4.24
$$ By DXEDIT 1.05 (RS McDonald)
##DATA TYPE=INFRARED SPECTRUM
##CLASS=COBLENTZ III
##ORIGIN=STANDARD OIL OF OHIO
##OWNER=COBLENTZ SOC.
Collection (C) 2018 copyright by the U.S. Secretary of Commerce
on behalf of the United States of America. All rights reserved.
##DATE=1965/06/22
##MOLFORM=C6 H6 N Na3 O6
##SOURCE REFERENCE=COBLENTZ NO. 05829
##$NIST ID=B6005829
##$NIST SOURCE=COBLENTZ
##$NIST IMAGE=cob5829
##SPECTROMETER/DATA SYSTEM=PERKIN-ELMER 521 (GRATING)
##INSTRUMENT PARAMETERS=FILTERS AT 3150, 2500, 2000, 1150, 700, 410. GRATING CHANGES: 2000, 630
##STATE=SOLID (OIL MULL)
##PATH LENGTH=CsBr PLATES
$$SPECTRAL CONTAMINATION DUE TO OIL AROUND 2900 CM^-^1
##SAMPLING PROCEDURE=TRANSMISSION
##RESOLUTION=2
##DATA PROCESSING=DIGITIZED BY COBLENTZ SOCIETY (BATCH I) FROM HARD COPY
##XUNITS=1/CM
##YUNITS=TRANSMITTANCE
##XLABEL=Wavenumbers (cm-1)
##YLABEL=Transmittance
##XFACTOR=1
##YFACTOR=1
##DELTAX=1
##FIRSTX=3906
##LASTX=241
##FIRSTY=0.8717
##MAXX=3906
##MINX=241
##MAXY=0.8962
##MINY=0.0077
##NPOINTS=3666
##XYDATA=(X++(Y..Y))
3906.000000 0.8717 0.8718 0.8718 0.8720 0.8721
3901.000000 0.8724 0.8725 0.8727 0.8728 0.8731
3896.000000 0.8733 0.8735 0.8737 0.8738 0.8740
3891.000000 0.8742 0.8744 0.8745 0.8747 0.8749
3886.000000 0.8751 0.8752 0.8754 0.8755 0.8757
3881.000000 0.8758 0.8759 0.8760 0.8762 0.8763
3876.000000 0.8764 0.8765 0.8767 0.8768 0.8770
3871.000000 0.8771 0.8771 0.8773 0.8775 0.8775
3866.000000 0.8777 0.8778 0.8780 0.8780 0.8781
3861.000000 0.8781 0.8782 0.8782 0.8782 0.8782
3856.000000 0.8783 0.8783 0.8783 0.8783 0.8784
3851.000000 0.8784 0.8784 0.8784 0.8785 0.8785
3846.000000 0.8786 0.8786 0.8786 0.8786 0.8787
3841.000000 0.8787 0.8787 0.8787 0.8788 0.8788
3836.000000 0.8788 0.8788 0.8788 0.8788 0.8788
3831.000000 0.8787 0.8787 0.8787 0.8787 0.8786
3826.000000 0.8786 0.8785 0.8785 0.8784 0.8784
3821.000000 0.8784 0.8784 0.8783 0.8783 0.8782
3816.000000 0.8782 0.8781 0.8781 0.8781 0.8781
3811.000000 0.8780 0.8780 0.8778 0.8778 0.8778
3806.000000 0.8780 0.8782 0.8785 0.8787 0.8789
3801.000000 0.8791 0.8794 0.8796 0.8798 0.8800
3796.000000 0.8803 0.8805 0.8807 0.8809 0.8812
3791.000000 0.8814 0.8816 0.8818 0.8821 0.8823
3786.000000 0.8825 0.8827 0.8830 0.8832 0.8834
3781.000000 0.8836 0.8839 0.8841 0.8843 0.8845
3776.000000 0.8848 0.8851 0.8854 0.8857 0.8860
3771.000000 0.8862 0.8865 0.8868 0.8871 0.8874
3766.000000 0.8877 0.8880 0.8883 0.8886 0.8889
3761.000000 0.8891 0.8894 0.8897 0.8900 0.8903
3756.000000 0.8906 0.8909 0.8912 0.8914 0.8917
3751.000000 0.8918 0.8921 0.8921 0.8924 0.8925
3746.000000 0.8928 0.8928 0.8931 0.8933 0.8935
3741.000000 0.8936 0.8938 0.8939 0.8941 0.8943
3736.000000 0.8945 0.8946 0.8947 0.8948 0.8949
3731.000000 0.8950 0.8951 0.8952 0.8954 0.8955
3726.000000 0.8956 0.8957 0.8958 0.8959 0.8960
3721.000000 0.8960 0.8959 0.8958 0.8957 0.8956
3716.000000 0.8955 0.8954 0.8953 0.8952 0.8951
3711.000000 0.8950 0.8949 0.8948 0.8947 0.8946
3706.000000 0.8945 0.8944 0.8943 0.8941 0.8940
3701.000000 0.8937 0.8934 0.8930 0.8927 0.8924
3696.000000 0.8921 0.8917 0.8914 0.8911 0.8908
3691.000000 0.8905 0.8902 0.8898 0.8895 0.8892
3686.000000 0.8889 0.8885 0.8882 0.8878 0.8875
3681.000000 0.8873 0.8870 0.8867 0.8864 0.8857
3676.000000 0.8851 0.8843 0.8835 0.8825 0.8818
3671.000000 0.8809 0.8801 0.8793 0.8785 0.8775
3666.000000 0.8768 0.8761 0.8754 0.8747 0.8740
3661.000000 0.8733 0.8725 0.8718 0.8712 0.8705
3656.000000 0.8698 0.8691 0.8684 0.8675 0.8667
3651.000000 0.8656 0.8645 0.8634 0.8624 0.8613
3646.000000 0.8602 0.8591 0.8580 0.8568 0.8559
3641.000000 0.8548 0.8537 0.8525 0.8515 0.8504
3636.000000 0.8493 0.8482 0.8471 0.8460 0.8449
3631.000000 0.8438 0.8427 0.8416 0.8405 0.8394
3626.000000 0.8383 0.8371 0.8361 0.8349 0.8338
3621.000000 0.8327 0.8316 0.8305 0.8294 0.8281
3616.000000 0.8268 0.8255 0.8241 0.8227 0.8214
3611.000000 0.8200 0.8186 0.8171 0.8158 0.8145
3606.000000 0.8132 0.8118 0.8104 0.8090 0.8076
3601.000000 0.8062 0.8049 0.8035 0.8021 0.8006
3596.000000 0.7991 0.7975 0.7958 0.7943 0.7926
3591.000000 0.7911 0.7895 0.7878 0.7862 0.7847
3586.000000 0.7831 0.7815 0.7799 0.7783 0.7767
3581.000000 0.7750 0.7734 0.7712 0.7693 0.7672
3576.000000 0.7653 0.7633 0.7612 0.7593 0.7572
3571.000000 0.7553 0.7533 0.7512 0.7493 0.7468
3566.000000 0.7445 0.7412 0.7381 0.7348 0.7315
3561.000000 0.7284 0.7251 0.7218 0.7187 0.7150
3556.000000 0.7112 0.7074 0.7036 0.6997 0.6958
3551.000000 0.6919 0.6882 0.6838 0.6795 0.6742
3546.000000 0.6689 0.6635 0.6582 0.6521 0.6460
3541.000000 0.6397 0.6334 0.6270 0.6207 0.6173
3536.000000 0.6139 0.6112 0.6085 0.6058 0.6031
3531.000000 0.6004 0.5977 0.5949 0.5922 0.5893
3526.000000 0.5864 0.5834 0.5805 0.5776 0.5747
3521.000000 0.5717 0.5688 0.5640 0.5593 0.5516
3516.000000 0.5439 0.5393 0.5348 0.5317 0.5286
3511.000000 0.5254 0.5223 0.5190 0.5158 0.5121
3506.000000 0.5084 0.5047 0.5010 0.4974 0.4937
3501.000000 0.4901 0.4866 0.4835 0.4805 0.4769
3496.000000 0.4733 0.4693 0.4654 0.4618 0.4582
3491.000000 0.4553 0.4525 0.4504 0.4484 0.4467
3486.000000 0.4451 0.4438 0.4425 0.4412 0.4399
3481.000000 0.4386 0.4373 0.4360 0.4347 0.4334
3476.000000 0.4321 0.4308 0.4295 0.4282 0.4269
3471.000000 0.4266 0.4266 0.4266 0.4270 0.4273
3466.000000 0.4277 0.4280 0.4284 0.4285 0.4286
3461.000000 0.4286 0.4287 0.4287 0.4287 0.4287
3456.000000 0.4287 0.4287 0.4287 0.4287 0.4288
3451.000000 0.4288 0.4288 0.4288 0.4288 0.4286
3446.000000 0.4285 0.4283 0.4281 0.4278 0.4276
3441.000000 0.4274 0.4273 0.4273 0.4273 0.4265
3436.000000 0.4262 0.4260 0.4259 0.4253 0.4247
3431.000000 0.4235 0.4223 0.4208 0.4193 0.4178
3426.000000 0.4162 0.4148 0.4133 0.4116 0.4100
3421.000000 0.4080 0.4059 0.4039 0.4018 0.3998
3416.000000 0.3978 0.3958 0.3938 0.3916 0.3897
3411.000000 0.3877 0.3857 0.3834 0.3810 0.3787
3406.000000 0.3764 0.3740 0.3716 0.3693 0.3670
3401.000000 0.3647 0.3624 0.3600 0.3578 0.3557
3396.000000 0.3537 0.3516 0.3496 0.3475 0.3455
3391.000000 0.3434 0.3414 0.3393 0.3373 0.3355
3386.000000 0.3337 0.3318 0.3302 0.3284 0.3268
3381.000000 0.3250 0.3234 0.3221 0.3209 0.3196
3376.000000 0.3184 0.3171 0.3159 0.3146 0.3134
3371.000000 0.3121 0.3108 0.3096 0.3084 0.3072
3366.000000 0.3060 0.3048 0.3037 0.3025 0.3013
3361.000000 0.3005 0.2997 0.2989 0.2981 0.2973
3356.000000 0.2965 0.2958 0.2952 0.2946 0.2940
3351.000000 0.2934 0.2928 0.2922 0.2917 0.2912
3346.000000 0.2907 0.2901 0.2896 0.2890 0.2884
3341.000000 0.2880 0.2867 0.2875 0.2875 0.2878
3336.000000 0.2881 0.2884 0.2888 0.2891 0.2895
3331.000000 0.2898 0.2901 0.2904 0.2908 0.2911
3326.000000 0.2914 0.2917 0.2921 0.2924 0.2927
3321.000000 0.2930 0.2934 0.2937 0.2941 0.2945
3316.000000 0.2950 0.2957 0.2964 0.2970 0.2977
3311.000000 0.2984 0.2991 0.2997 0.3004 0.3010
3306.000000 0.3017 0.3023 0.3030 0.3037 0.3044
3301.000000 0.3050 0.3057 0.3063 0.3070 0.3076
3296.000000 0.3083 0.3089 0.3095 0.3099 0.3104
3291.000000 0.3107 0.3111 0.3112 0.3113 0.3114
3286.000000 0.3115 0.3116 0.3118 0.3119 0.3120
3281.000000 0.3121 0.3122 0.3123 0.3124 0.3125
3276.000000 0.3126 0.3126 0.3126 0.3124 0.3123
3271.000000 0.3122 0.3121 0.3120 0.3119 0.3117
3266.000000 0.3116 0.3115 0.3114 0.3113 0.3112
3261.000000 0.3107 0.3102 0.3097 0.3092 0.3087
3256.000000 0.3082 0.3077 0.3072 0.3067 0.3062
3251.000000 0.3057 0.3052 0.3045 0.3039 0.3029
3246.000000 0.3019 0.3009 0.3000 0.2990 0.2981
3241.000000 0.2971 0.2961 0.2952 0.2943 0.2934
3236.000000 0.2928 0.2921 0.2914 0.2906 0.2899
3231.000000 0.2891 0.2884 0.2877 0.2870 0.2862
3226.000000 0.2855 0.2847 0.2840 0.2833 0.2827
3221.000000 0.2823 0.2819 0.2814 0.2810 0.2806
3216.000000 0.2802 0.2797 0.2793 0.2788 0.2784
3211.000000 0.2780 0.2776 0.2771 0.2767 0.2763
3206.000000 0.2759 0.2754 0.2750 0.2746 0.2742
3201.000000 0.2737 0.2733 0.2729 0.2725 0.2723
3196.000000 0.2722 0.2720 0.2719 0.2717 0.2716
3191.000000 0.2714 0.2713 0.2711 0.2710 0.2708
3186.000000 0.2707 0.2705 0.2704 0.2702 0.2702
3181.000000 0.2701 0.2701 0.2703 0.2705 0.2706
3176.000000 0.2708 0.2710 0.2712 0.2714 0.2716
3171.000000 0.2717 0.2719 0.2725 0.2732 0.2738
3166.000000 0.2745 0.2751 0.2758 0.2764 0.2771
3161.000000 0.2777 0.2784 0.2790 0.2797 0.2803
3156.000000 0.2810 0.2816 0.2823 0.2830 0.2837
3151.000000 0.2844 0.2852 0.2863 0.2875 0.2887
3146.000000 0.2899 0.2911 0.2923 0.2934 0.2947
3141.000000 0.2959 0.2972 0.2984 0.2996 0.3008
3136.000000 0.3021 0.3033 0.3046 0.3061 0.3076
3131.000000 0.3091 0.3107 0.3122 0.3138 0.3153
3126.000000 0.3168 0.3183 0.3199 0.3214 0.3229
3121.000000 0.3243 0.3258 0.3270 0.3282 0.3295
3116.000000 0.3308 0.3320 0.3332 0.3345 0.3358
3111.000000 0.3370 0.3382 0.3397 0.3412 0.3428
3106.000000 0.3444 0.3459 0.3476 0.3491 0.3507
3101.000000 0.3523 0.3539 0.3555 0.3571 0.3587
3096.000000 0.3603 0.3618 0.3634 0.3650 0.3668
3091.000000 0.3684 0.3700 0.3718 0.3734 0.3752
3086.000000 0.3768 0.3786 0.3803 0.3820 0.3837
3081.000000 0.3853 0.3870 0.3884 0.3899 0.3910
3076.000000 0.3923 0.3934 0.3946 0.3957 0.3968
3071.000000 0.3980 0.3992 0.4003 0.4014 0.4024
3066.000000 0.4032 0.4039 0.4045 0.4050 0.4057
3061.000000 0.4062 0.4068 0.4073 0.4079 0.4084
3056.000000 0.4090 0.4094 0.4099 0.4099 0.4100
3051.000000 0.4101 0.4102 0.4102 0.4103 0.4103
3046.000000 0.4104 0.4104 0.4105 0.4106 0.4107
3041.000000 0.4107 0.4108 0.4108 0.4108 0.4108
3036.000000 0.4108 0.4107 0.4107 0.4107 0.4107
3031.000000 0.4107 0.4107 0.4103 0.4100 0.4096
3026.000000 0.4092 0.4087 0.4082 0.4073 0.4064
3021.000000 0.4055 0.4046 0.4037 0.4028 0.4018
3016.000000 0.4009 0.4000 0.3992 0.3978 0.3964
3011.000000 0.3945 0.3927 0.3908 0.3889 0.3870
3006.000000 0.3852 0.3818 0.3786 0.3744 0.3703
3001.000000 0.3607 0.3510 0.3312 0.3113 0.3056
2996.000000 0.3000 0.2947 0.2894 0.2840 0.2785
2991.000000 0.2731 0.2677 0.2623 0.2569 0.2506
2986.000000 0.2444 0.2371 0.2299 0.2226 0.2153
2981.000000 0.1976 0.1799 0.1729 0.1659 0.1619
2976.000000 0.1579 0.1539 0.1499 0.1458 0.1418
2971.000000 0.1382 0.1346 0.1312 0.1278 0.1244
2966.000000 0.1210 0.1046 0.0885 0.0785 0.0686
2961.000000 0.0607 0.0528 0.0467 0.0407 0.0380
2956.000000 0.0353 0.0352 0.0351 0.0350 0.0350
2951.000000 0.0349 0.0349 0.0347 0.0346 0.0343
2946.000000 0.0341 0.0339 0.0337 0.0335 0.0333
2941.000000 0.0329 0.0325 0.0315 0.0306 0.0296
2936.000000 0.0287 0.0272 0.0257 0.0242 0.0227
2931.000000 0.0210 0.0195 0.0175 0.0156 0.0139
2926.000000 0.0123 0.0112 0.0101 0.0096 0.0092
2921.000000 0.0087 0.0082 0.0078 0.0078 0.0077
2916.000000 0.0080 0.0090 0.0101 0.0111 0.0122
2911.000000 0.0135 0.0151 0.0167 0.0183 0.0199
2906.000000 0.0214 0.0232 0.0250 0.0267 0.0286
2901.000000 0.0304 0.0322 0.0343 0.0364 0.0393
2896.000000 0.0421 0.0452 0.0483 0.0514 0.0545
2891.000000 0.0576 0.0608 0.0622 0.0637 0.0646
2886.000000 0.0656 0.0664 0.0673 0.0681 0.0690
2881.000000 0.0695 0.0701 0.0704 0.0738 0.0710
2876.000000 0.0713 0.0706 0.0699 0.0679 0.0660
2871.000000 0.0641 0.0622 0.0601 0.0581 0.0554
2866.000000 0.0528 0.0505 0.0483 0.0473 0.0463
2861.000000 0.0454 0.0445 0.0439 0.0434 0.0427
2856.000000 0.0421 0.0419 0.0419 0.0417 0.0417
2851.000000 0.0441 0.0403 0.0523 0.0582 0.0636
2846.000000 0.0690 0.0735 0.0780 0.0824 0.0869
2841.000000 0.0917 0.0965 0.1019 0.1073 0.1127
2836.000000 0.1181 0.1237 0.1294 0.1357 0.1421
2831.000000 0.1485 0.1549 0.1812 0.2076 0.2302
2826.000000 0.2528 0.2678 0.2829 0.2895 0.2962
2821.000000 0.3028 0.3095 0.3199 0.3303 0.3658
2816.000000 0.4014 0.4096 0.4179 0.4466 0.4754
2811.000000 0.4846 0.4938 0.5012 0.5089 0.5160
2806.000000 0.5234 0.5316 0.5398 0.5502 0.5607
2801.000000 0.5721 0.5836 0.5877 0.5919 0.5960
2796.000000 0.6002 0.6043 0.6084 0.6198 0.6312
2791.000000 0.6406 0.6501 0.6528 0.6557 0.6585
2786.000000 0.6612 0.6641 0.6668 0.6722 0.6776
2781.000000 0.6839 0.6901 0.6942 0.6982 0.7008
2776.000000 0.7037 0.7064 0.7091 0.7117 0.7144
2771.000000 0.7168 0.7193 0.7218 0.7243 0.7268
2766.000000 0.7293 0.7318 0.7343 0.7369 0.7397
2761.000000 0.7421 0.7445 0.7458 0.7471 0.7484
2756.000000 0.7498 0.7511 0.7524 0.7536 0.7549
2751.000000 0.7551 0.7555 0.7557 0.7560 0.7561
2746.000000 0.7565 0.7568 0.7571 0.7572 0.7575
2741.000000 0.7578 0.7581 0.7580 0.7578 0.7571
2736.000000 0.7562 0.7555 0.7547 0.7539 0.7531
2731.000000 0.7518 0.7505 0.7491 0.7476 0.7469
2726.000000 0.7462 0.7456 0.7450 0.7447 0.7448
2721.000000 0.7449 0.7454 0.7464 0.7475 0.7485
2716.000000 0.7495 0.7511 0.7528 0.7551 0.7574
2711.000000 0.7597 0.7619 0.7642 0.7665 0.7685
2706.000000 0.7706 0.7715 0.7724 0.7733 0.7743
2701.000000 0.7749 0.7756 0.7758 0.7762 0.7765
2696.000000 0.7769 0.7772 0.7776 0.7775 0.7775
2691.000000 0.7775 0.7775 0.7774 0.7774 0.7771
2686.000000 0.7771 0.7768 0.7768 0.7767 0.7765
2681.000000 0.7764 0.7762 0.7761 0.7760 0.7758
2676.000000 0.7757 0.7755 0.7753 0.7751 0.7750
2671.000000 0.7748 0.7747 0.7745 0.7743 0.7740
2666.000000 0.7738 0.7737 0.7736 0.7740 0.7744
2661.000000 0.7748 0.7751 0.7756 0.7761 0.7765
2656.000000 0.7768 0.7775 0.7781 0.7790 0.7799
2651.000000 0.7807 0.7815 0.7825 0.7834 0.7843
2646.000000 0.7851 0.7868 0.7887 0.7904 0.7921
2641.000000 0.7937 0.7953 0.7965 0.7980 0.7993
2636.000000 0.8007 0.8015 0.8024 0.8026 0.8030
2631.000000 0.8033 0.8037 0.8040 0.8044 0.8047
2626.000000 0.8051 0.8054 0.8058 0.8061 0.8064
2621.000000 0.8067 0.8069 0.8072 0.8076 0.8080
2616.000000 0.8083 0.8086 0.8089 0.8092 0.8095
2611.000000 0.8098 0.8101 0.8104 0.8107 0.8111
2606.000000 0.8115 0.8118 0.8124 0.8128 0.8134
2601.000000 0.8138 0.8143 0.8147 0.8151 0.8156
2596.000000 0.8161 0.8165 0.8171 0.8175 0.8180
2591.000000 0.8184 0.8189 0.8194 0.8199 0.8203
2586.000000 0.8208 0.8214 0.8220 0.8225 0.8232
2581.000000 0.8238 0.8244 0.8250 0.8256 0.8262
2576.000000 0.8268 0.8277 0.8285 0.8292 0.8300
2571.000000 0.8308 0.8316 0.8323 0.8331 0.8339
2566.000000 0.8348 0.8357 0.8366 0.8375 0.8385
2561.000000 0.8394 0.8403 0.8411 0.8418 0.8427
2556.000000 0.8435 0.8443 0.8451 0.8459 0.8467
2551.000000 0.8470 0.8474 0.8475 0.8475 0.8477
2546.000000 0.8478 0.8482 0.8485 0.8488 0.8492
2541.000000 0.8495 0.8499 0.8503 0.8507 0.8510
2536.000000 0.8514 0.8518 0.8521 0.8525 0.8528
2531.000000 0.8532 0.8536 0.8540 0.8544 0.8547
2526.000000 0.8551 0.8555 0.8559 0.8562 0.8566
2521.000000 0.8570 0.8574 0.8577 0.8581 0.8585
2516.000000 0.8589 0.8592 0.8596 0.8599 0.8603
2511.000000 0.8607 0.8611 0.8614 0.8618 0.8621
2506.000000 0.8625 0.8628 0.8633 0.8637 0.8641
2501.000000 0.8644 0.8648 0.8652 0.8657 0.8661
2496.000000 0.8666 0.8670 0.8675 0.8678 0.8684
2491.000000 0.8688 0.8693 0.8697 0.8702 0.8706
2486.000000 0.8711 0.8715 0.8720 0.8724 0.8728
2481.000000 0.8734 0.8739 0.8744 0.8749 0.8753
2476.000000 0.8758 0.8763 0.8768 0.8773 0.8778
2471.000000 0.8783 0.8788 0.8792 0.8797 0.8801
2466.000000 0.8805 0.8809 0.8814 0.8818 0.8821
2461.000000 0.8825 0.8830 0.8834 0.8838 0.8841
2456.000000 0.8845 0.8848 0.8851 0.8854 0.8857
2451.000000 0.8860 0.8863 0.8863 0.8858 0.8858
2446.000000 0.8859 0.8857 0.8856 0.8852 0.8849
2441.000000 0.8844 0.8840 0.8836 0.8832 0.8827
2436.000000 0.8823 0.8818 0.8814 0.8810 0.8807
2431.000000 0.8804 0.8802 0.8799 0.8796 0.8793
2426.000000 0.8790 0.8787 0.8785 0.8782 0.8778
2421.000000 0.8775 0.8774 0.8771 0.8768 0.8766
2416.000000 0.8764 0.8763 0.8763 0.8762 0.8761
2411.000000 0.8760 0.8760 0.8759 0.8759 0.8758
2406.000000 0.8757 0.8756 0.8756 0.8755 0.8754
2401.000000 0.8753 0.8753 0.8752 0.8752 0.8751
2396.000000 0.8750 0.8749 0.8749 0.8748 0.8748
2391.000000 0.8748 0.8748 0.8748 0.8749 0.8749
2386.000000 0.8749 0.8749 0.8749 0.8749 0.8750
2381.000000 0.8750 0.8750 0.8750 0.8750 0.8750
2376.000000 0.8750 0.8749 0.8749 0.8749 0.8749
2371.000000 0.8749 0.8749 0.8749 0.8750 0.8750
2366.000000 0.8751 0.8751 0.8752 0.8753 0.8754
2361.000000 0.8755 0.8757 0.8759 0.8761 0.8762
2356.000000 0.8764 0.8765 0.8767 0.8768 0.8768
2351.000000 0.8770 0.8768 0.8765 0.8761 0.8755
2346.000000 0.8749 0.8743 0.8738 0.8732 0.8727
2341.000000 0.8721 0.8716 0.8710 0.8705 0.8699
2336.000000 0.8693 0.8684 0.8675 0.8666 0.8657
2331.000000 0.8647 0.8638 0.8628 0.8618 0.8609
2326.000000 0.8600 0.8590 0.8581 0.8571 0.8562
2321.000000 0.8552 0.8543 0.8533 0.8524 0.8514
2316.000000 0.8505 0.8496 0.8487 0.8481 0.8475
2311.000000 0.8471 0.8466 0.8461 0.8456 0.8451
2306.000000 0.8446 0.8440 0.8435 0.8428 0.8424
2301.000000 0.8417 0.8411 0.8405 0.8399 0.8395
2296.000000 0.8392 0.8388 0.8385 0.8382 0.8378
2291.000000 0.8375 0.8371 0.8368 0.8365 0.8361
2286.000000 0.8358 0.8355 0.8352 0.8349 0.8347
2281.000000 0.8344 0.8341 0.8338 0.8336 0.8333
2276.000000 0.8331 0.8331 0.8330 0.8330 0.8331
2271.000000 0.8332 0.8333 0.8335 0.8338 0.8340
2266.000000 0.8313 0.8346 0.8349 0.8352 0.8355
2261.000000 0.8357 0.8360 0.8363 0.8366 0.8368
2256.000000 0.8373 0.8377 0.8381 0.8384 0.8388
2251.000000 0.8392 0.8396 0.8399 0.8403 0.8407
2246.000000 0.8411 0.8415 0.8418 0.8421 0.8425
2241.000000 0.8430 0.8434 0.8437 0.8441 0.8445
2236.000000 0.8449 0.8454 0.8459 0.8464 0.8468
2231.000000 0.8474 0.8478 0.8484 0.8489 0.8494
2226.000000 0.8499 0.8504 0.8510 0.8515 0.8520
2221.000000 0.8525 0.8530 0.8535 0.8540 0.8545
2216.000000 0.8551 0.8556 0.8561 0.8566 0.8571
2211.000000 0.8575 0.8581 0.8586 0.8592 0.8596
2206.000000 0.8600 0.8604 0.8608 0.8612 0.8616
2201.000000 0.8620 0.8624 0.8628 0.8632 0.8636
2196.000000 0.8640 0.8644 0.8648 0.8652 0.8656
2191.000000 0.8660 0.8664 0.8668 0.8671 0.8675
2186.000000 0.8680 0.8684 0.8688 0.8692 0.8696
2181.000000 0.8700 0.8704 0.8708 0.8712 0.8716
2176.000000 0.8720 0.8724 0.8728 0.8732 0.8736
2171.000000 0.8738 0.8741 0.8744 0.8747 0.8750
2166.000000 0.8753 0.8756 0.8759 0.8762 0.8765
2161.000000 0.8768 0.8771 0.8773 0.8775 0.8778
2156.000000 0.8782 0.8785 0.8788 0.8791 0.8794
2151.000000 0.8797 0.8800 0.8802 0.8805 0.8808
2146.000000 0.8811 0.8814 0.8817 0.8820 0.8823
2141.000000 0.8825 0.8830 0.8834 0.8839 0.8843
2136.000000 0.8848 0.8852 0.8857 0.8861 0.8866
2131.000000 0.8870 0.8875 0.8878 0.8884 0.8888
2126.000000 0.8893 0.8897 0.8901 0.8904 0.8907
2121.000000 0.8910 0.8913 0.8916 0.8918 0.8921
2116.000000 0.8925 0.8928 0.8931 0.8934 0.8937
2111.000000 0.8940 0.8943 0.8945 0.8948 0.8948
2106.000000 0.8949 0.8949 0.8950 0.8950 0.8951
2101.000000 0.8951 0.8952 0.8952 0.8953 0.8953
2096.000000 0.8954 0.8954 0.8955 0.8955 0.8956
2091.000000 0.8956 0.8956 0.8956 0.8955 0.8953
2086.000000 0.8951 0.8949 0.8947 0.8944 0.8942
2081.000000 0.8940 0.8938 0.8936 0.8934 0.8932
2076.000000 0.8930 0.8927 0.8924 0.8921 0.8918
2071.000000 0.8916 0.8914 0.8911 0.8909 0.8906
2066.000000 0.8903 0.8900 0.8898 0.8894 0.8891
2061.000000 0.8888 0.8885 0.8881 0.8878 0.8874
2056.000000 0.8871 0.8867 0.8864 0.8863 0.8863
2051.000000 0.8863 0.8863 0.8863 0.8863 0.8863
2046.000000 0.8864 0.8864 0.8864 0.8864 0.8865
2041.000000 0.8865 0.8866 0.8868 0.8871 0.8873
2036.000000 0.8875 0.8877 0.8878 0.8881 0.8883
2031.000000 0.8885 0.8888 0.8890 0.8892 0.8894
2026.000000 0.8896 0.8897 0.8899 0.8900 0.8902
2021.000000 0.8904 0.8906 0.8907 0.8909 0.8910
2016.000000 0.8912 0.8914 0.8916 0.8917 0.8918
2011.000000 0.8920 0.8921 0.8924 0.8925 0.8927
2006.000000 0.8928 0.8931 0.8933 0.8934 0.8936
2001.000000 0.8940 0.8944 0.8948 0.8952 0.8955
1996.000000 0.8959 0.8961 0.8961 0.8961 0.8961
1991.000000 0.8961 0.8962 0.8962 0.8962 0.8962
1986.000000 0.8962 0.8962 0.8962 0.8961 0.8960
1981.000000 0.8959 0.8958 0.8957 0.8956 0.8955
1976.000000 0.8954 0.8953 0.8950 0.8947 0.8945
1971.000000 0.8944 0.8943 0.8942 0.8940 0.8939
1966.000000 0.8938 0.8937 0.8936 0.8935 0.8934
1961.000000 0.8932 0.8931 0.8930 0.8928 0.8928
1956.000000 0.8924 0.8918 0.8914 0.8909 0.8903
1951.000000 0.8898 0.8892 0.8886 0.8880 0.8874
1946.000000 0.8871 0.8871 0.8871 0.8868 0.8865
1941.000000 0.8861 0.8857 0.8854 0.8851 0.8849
1936.000000 0.8847 0.8845 0.8843 0.8841 0.8839
1931.000000 0.8837 0.8835 0.8832 0.8828 0.8825
1926.000000 0.8823 0.8820 0.8818 0.8815 0.8812
1921.000000 0.8809 0.8806 0.8804 0.8801 0.8798
1916.000000 0.8795 0.8792 0.8790 0.8787 0.8784
1911.000000 0.8781 0.8775 0.8771 0.8766 0.8761
1906.000000 0.8755 0.8749 0.8742 0.8736 0.8730
1901.000000 0.8724 0.8717 0.8711 0.8705 0.8699
1896.000000 0.8692 0.8686 0.8680 0.8673 0.8667
1891.000000 0.8661 0.8655 0.8648 0.8642 0.8635
1886.000000 0.8627 0.8620 0.8613 0.8606 0.8599
1881.000000 0.8592 0.8585 0.8578 0.8571 0.8564
1876.000000 0.8557 0.8550 0.8543 0.8536 0.8528
1871.000000 0.8521 0.8515 0.8508 0.8501 0.8493
1866.000000 0.8486 0.8478 0.8471 0.8464 0.8456
1861.000000 0.8449 0.8442 0.8434 0.8427 0.8418
1856.000000 0.8412 0.8405 0.8397 0.8390 0.8383
1851.000000 0.8375 0.8368 0.8360 0.8353 0.8346
1846.000000 0.8339 0.8333 0.8327 0.8321 0.8315
1841.000000 0.8309 0.8303 0.8297 0.8290 0.8284
1836.000000 0.8278 0.8271 0.8266 0.8260 0.8254
1831.000000 0.8247 0.8240 0.8230 0.8221 0.8211
1826.000000 0.8202 0.8193 0.8183 0.8174 0.8164
1821.000000 0.8155 0.8146 0.8136 0.8126 0.8118
1816.000000 0.8108 0.8099 0.8089 0.8080 0.8069
1811.000000 0.8058 0.8047 0.8035 0.8024 0.8011
1806.000000 0.7997 0.7980 0.7964 0.7947 0.7930
1801.000000 0.7915 0.7903 0.7889 0.7875 0.7861
1796.000000 0.7849 0.7835 0.7821 0.7808 0.7795
1791.000000 0.7782 0.7768 0.7756 0.7741 0.7725
1786.000000 0.7711 0.7696 0.7681 0.7665 0.7650
1781.000000 0.7635 0.7619 0.7605 0.7586 0.7567
1776.000000 0.7549 0.7530 0.7511 0.7493 0.7474
1771.000000 0.7456 0.7437 0.7418 0.7400 0.7381
1766.000000 0.7362 0.7344 0.7325 0.7306 0.7280
1761.000000 0.7255 0.7230 0.7204 0.7178 0.7151
1756.000000 0.7115 0.7082 0.7050 0.7025 0.6999
1751.000000 0.6974 0.6949 0.6924 0.6885 0.6846
1746.000000 0.6807 0.6771 0.6736 0.6701 0.6665
1741.000000 0.6631 0.6595 0.6556 0.6515 0.6472
1736.000000 0.6428 0.6385 0.6341 0.6297 0.6253
1731.000000 0.6209 0.6165 0.6122 0.6078 0.6035
1726.000000 0.5991 0.5947 0.5899 0.5826 0.5754
1721.000000 0.5681 0.5609 0.5551 0.5500 0.5449
1716.000000 0.5399 0.5348 0.5297 0.5246 0.5198
1711.000000 0.5154 0.5109 0.5065 0.5021 0.4977
1706.000000 0.4932 0.4888 0.4844 0.4800 0.4754
1701.000000 0.4708 0.4662 0.4616 0.4570 0.4524
1696.000000 0.4477 0.4433 0.4389 0.4345 0.4301
1691.000000 0.4257 0.4212 0.4169 0.4117 0.4059
1686.000000 0.4002 0.3947 0.3894 0.3841 0.3787
1681.000000 0.3737 0.3698 0.3658 0.3629 0.3603
1676.000000 0.3577 0.3546 0.3512 0.3488 0.3471
1671.000000 0.3458 0.3446 0.3434 0.3423 0.3410
1666.000000 0.3399 0.3387 0.3371 0.3354 0.3337
1661.000000 0.3320 0.3304 0.3287 0.3270 0.3253
1656.000000 0.3228 0.3198 0.3168 0.3138 0.3107
1651.000000 0.3075 0.3042 0.3010 0.2978 0.2927
1646.000000 0.2852 0.2781 0.2719 0.2658 0.2596
1641.000000 0.2528 0.2330 0.2187 0.2060 0.1952
1636.000000 0.1844 0.1742 0.1644 0.1545 0.1446
1631.000000 0.1353 0.1261 0.1169 0.1054 0.0903
1626.000000 0.0729 0.0670 0.0612 0.0560 0.0507
1621.000000 0.0427 0.0405 0.0382 0.0376 0.0377
1616.000000 0.0380 0.0382 0.0385 0.0385 0.0383
1611.000000 0.0381 0.0379 0.0377 0.0374 0.0354
1606.000000 0.0333 0.0312 0.0290 0.0267 0.0246
1601.000000 0.0234 0.0224 0.0212 0.0202 0.0199
1596.000000 0.0196 0.0193 0.0190 0.0187 0.0183
1591.000000 0.0183 0.0185 0.0190 0.0210 0.0199
1586.000000 0.0204 0.0208 0.0212 0.0214 0.0215
1581.000000 0.0216 0.0217 0.0217 0.0218 0.0220
1576.000000 0.0220 0.0220 0.0221 0.0228 0.0234
1571.000000 0.0242 0.0249 0.0256 0.0272 0.0304
1566.000000 0.0337 0.0374 0.0415 0.0456 0.0498
1561.000000 0.0541 0.0593 0.0644 0.0695 0.0746
1556.000000 0.0817 0.0901 0.0984 0.1053 0.1113
1551.000000 0.1173 0.1228 0.1277 0.1326 0.1374
1546.000000 0.1424 0.1483 0.1541 0.1599 0.1658
1541.000000 0.1752 0.1846 0.1976 0.2172 0.2263
1536.000000 0.2354 0.2449 0.2580 0.2692 0.2760
1531.000000 0.2828 0.2897 0.2965 0.3013 0.3057
1526.000000 0.3101 0.3145 0.3189 0.3234 0.3280
1521.000000 0.3327 0.3373 0.3420 0.3462 0.3495
1516.000000 0.3528 0.3559 0.3593 0.3626 0.3659
1511.000000 0.3692 0.3727 0.3762 0.3798 0.3832
1506.000000 0.3864 0.3894 0.3916 0.3941 0.3964
1501.000000 0.3987 0.4010 0.4034 0.4057 0.4080
1496.000000 0.4102 0.4125 0.4141 0.4154 0.4167
1491.000000 0.4179 0.4185 0.4191 0.4192 0.4193
1486.000000 0.4193 0.4193 0.4194 0.4194 0.4186
1481.000000 0.4173 0.4160 0.4147 0.4123 0.4080
1476.000000 0.4039 0.3990 0.3888 0.3773 0.3632
1471.000000 0.2733 0.2484 0.2181 0.1921 0.1759
1466.000000 0.1650 0.1619 0.1596 0.1574 0.1558
1461.000000 0.1542 0.1529 0.1515 0.1499 0.1480
1456.000000 0.1460 0.1414 0.1337 0.1260 0.1182
1451.000000 0.1105 0.1059 0.1044 0.1061 0.1132
1446.000000 0.1224 0.1316 0.1408 0.1500 0.1592
1441.000000 0.1644 0.1659 0.1679 0.1651 0.1621
1436.000000 0.1508 0.1344 0.1179 0.1120 0.1103
1431.000000 0.1100 0.1098 0.1127 0.1176 0.1184
1426.000000 0.1181 0.1172 0.1137 0.1089 0.1016
1421.000000 0.0943 0.0891 0.0839 0.0789 0.0731
1416.000000 0.0674 0.0634 0.0598 0.0562 0.0534
1411.000000 0.0516 0.0498 0.0480 0.0469 0.0459
1406.000000 0.0450 0.0439 0.0447 0.0456 0.0467
1401.000000 0.0490 0.0514 0.0547 0.0660 0.0764
1396.000000 0.0861 0.0949 0.1090 0.1242 0.1396
1391.000000 0.1549 0.1701 0.1854 0.2007 0.2160
1386.000000 0.2312 0.2465 0.2472 0.2472 0.2471
1381.000000 0.2457 0.2431 0.2401 0.2344 0.2280
1376.000000 0.2246 0.2227 0.2225 0.2195 0.2251
1371.000000 0.2280 0.2721 0.2865 0.3009 0.3153
1366.000000 0.3296 0.3440 0.3574 0.3604 0.3634
1361.000000 0.3830 0.3950 0.4054 0.4128 0.4270
1356.000000 0.4378 0.4384 0.4390 0.4390 0.4390
1351.000000 0.4387 0.4344 0.4273 0.4174 0.4024
1346.000000 0.3875 0.3730 0.3587 0.3137 0.2942
1341.000000 0.2803 0.2707 0.2612 0.2516 0.2299
1336.000000 0.2022 0.1601 0.1599 0.1596 0.1591
1331.000000 0.1568 0.1522 0.1476 0.1363 0.1306
1326.000000 0.1277 0.1264 0.1226 0.1244 0.1239
1321.000000 0.1237 0.1262 0.2017 0.2255 0.2477
1316.000000 0.2703 0.2931 0.3148 0.3356 0.3454
1311.000000 0.3543 0.3680 0.3907 0.4096 0.4176
1306.000000 0.4221 0.4253 0.4284 0.4303 0.4319
1301.000000 0.4328 0.4336 0.4333 0.4314 0.4299
1296.000000 0.4216 0.4105 0.3954 0.3842 0.3639
1291.000000 0.3436 0.3232 0.3030 0.2827 0.2624
1286.000000 0.2421 0.2218 0.2015 0.1971 0.2007
1281.000000 0.2007 0.2242 0.2530 0.2818 0.3106
1276.000000 0.3395 0.3534 0.3534 0.3530 0.3345
1271.000000 0.3216 0.3087 0.2957 0.2941 0.2933
1266.000000 0.2989 0.3343 0.3696 0.3738 0.3758
1261.000000 0.3662 0.3356 0.3050 0.2744 0.2496
1256.000000 0.2488 0.2504 0.2758 0.3218 0.3678
1251.000000 0.4138 0.4599 0.4984 0.5041 0.5065
1246.000000 0.5092 0.5078 0.5085 0.5004 0.4893
1241.000000 0.4782 0.4689 0.4687 0.4939 0.5288
1236.000000 0.5637 0.5914 0.6019 0.6124 0.6212
1231.000000 0.6291 0.6369 0.6448 0.6504 0.6553
1226.000000 0.6601 0.6649 0.6698 0.6746 0.6792
1221.000000 0.6825 0.6861 0.6896 0.6930 0.6965
1216.000000 0.6991 0.7011 0.7034 0.7056 0.7076
1211.000000 0.7099 0.7119 0.7137 0.7154 0.7171
1206.000000 0.7189 0.7206 0.7222 0.7238 0.7249
1201.000000 0.7260 0.7269 0.7281 0.7292 0.7303
1196.000000 0.7312 0.7324 0.7335 0.7346 0.7356
1191.000000 0.7368 0.7380 0.7392 0.7404 0.7415
1186.000000 0.7428 0.7440 0.7447 0.7453 0.7458
1181.000000 0.7465 0.7471 0.7471 0.7486 0.7468
1176.000000 0.7458 0.7450 0.7441 0.7425 0.7401
1171.000000 0.7375 0.7351 0.7328 0.7304 0.7281
1166.000000 0.7257 0.7228 0.7180 0.7131 0.7083
1161.000000 0.6984 0.6882 0.6449 0.6149 0.5850
1156.000000 0.5551 0.5344 0.5345 0.5347 0.5424
1151.000000 0.5505 0.5585 0.5666 0.5714 0.5715
1146.000000 0.5717 0.5544 0.5186 0.4829 0.4471
1141.000000 0.4112 0.3755 0.3398 0.3040 0.2921
1136.000000 0.3051 0.3545 0.3796 0.3772 0.3747
1131.000000 0.3718 0.3689 0.3662 0.3639 0.3971
1126.000000 0.5608 0.5721 0.5834 0.6198 0.6407
1121.000000 0.6615 0.6792 0.6967 0.7090 0.7189
1116.000000 0.7287 0.7360 0.7421 0.7484 0.7546
1111.000000 0.7607 0.7650 0.7692 0.7733 0.7774
1106.000000 0.7815 0.7853 0.7883 0.7914 0.7945
1101.000000 0.7975 0.7992 0.8004 0.8017 0.8028
1096.000000 0.8042 0.8054 0.8067 0.8071 0.8075
1091.000000 0.8080 0.8084 0.8088 0.8093 0.8097
1086.000000 0.8101 0.8106 0.8110 0.8114 0.8118
1081.000000 0.8125 0.8131 0.8137 0.8143 0.8150
1076.000000 0.8156 0.8161 0.8168 0.8174 0.8181
1071.000000 0.8187 0.8193 0.8199 0.8202 0.8206
1066.000000 0.8209 0.8212 0.8215 0.8218 0.8221
1061.000000 0.8225 0.8228 0.8232 0.8237 0.8242
1056.000000 0.8247 0.8252 0.8257 0.8289 0.8267
1051.000000 0.8271 0.8277 0.8282 0.8287 0.8291
1046.000000 0.8292 0.8294 0.8295 0.8296 0.8297
1041.000000 0.8298 0.8299 0.8300 0.8301 0.8302
1036.000000 0.8303 0.8300 0.8298 0.8295 0.8293
1031.000000 0.8290 0.8287 0.8277 0.8266 0.8256
1026.000000 0.8246 0.8236 0.8220 0.8194 0.8167
1021.000000 0.8141 0.8114 0.8087 0.7971 0.7828
1016.000000 0.7711 0.7593 0.7232 0.6918 0.6814
1011.000000 0.6680 0.6518 0.6350 0.6168 0.5989
1006.000000 0.5817 0.5651 0.3516 0.3473 0.3472
1001.000000 0.3534 0.3814 0.4095 0.4272 0.4272
996.000000 0.4271 0.3821 0.3332 0.3337 0.3456
991.000000 0.3648 0.3840 0.4032 0.4224 0.4302
986.000000 0.4252 0.3900 0.3549 0.3197 0.3126
981.000000 0.3118 0.3410 0.3774 0.4136 0.4499
976.000000 0.4862 0.5225 0.5587 0.5950 0.6312
971.000000 0.6675 0.7038 0.7444 0.7519 0.7565
966.000000 0.7600 0.7622 0.7645 0.7658 0.7668
961.000000 0.7680 0.7689 0.7690 0.7684 0.7686
956.000000 0.7651 0.7583 0.7471 0.7324 0.7176
951.000000 0.7028 0.6882 0.6734 0.6694 0.6739
946.000000 0.6774 0.6694 0.6419 0.6412 0.6439
941.000000 0.6564 0.6689 0.6814 0.6939 0.7064
936.000000 0.7189 0.7261 0.7243 0.7242 0.7207
931.000000 0.6901 0.6597 0.6292 0.5986 0.5681
926.000000 0.5376 0.5070 0.4765 0.4460 0.4155
921.000000 0.3849 0.3544 0.3239 0.2957 0.2923
916.000000 0.2917 0.2939 0.3191 0.3442 0.3694
911.000000 0.4006 0.4124 0.4215 0.4306 0.4478
906.000000 0.4652 0.4741 0.4912 0.5120 0.5327
901.000000 0.5534 0.5742 0.5949 0.6156 0.6364
896.000000 0.6792 0.6891 0.6990 0.7082 0.7161
891.000000 0.7243 0.7319 0.7383 0.7446 0.7508
886.000000 0.7561 0.7608 0.7655 0.7687 0.7718
881.000000 0.7748 0.7768 0.7778 0.7790 0.7801
876.000000 0.7812 0.7822 0.7831 0.7840 0.7849
871.000000 0.7854 0.7856 0.7858 0.7860 0.7861
866.000000 0.7845 0.7857 0.7851 0.7846 0.7840
861.000000 0.7834 0.7828 0.7822 0.7811 0.7799
856.000000 0.7787 0.7774 0.7761 0.7750 0.7728
851.000000 0.7706 0.7683 0.7660 0.7638 0.7615
846.000000 0.7591 0.7557 0.7524 0.7490 0.7457
841.000000 0.7424 0.7390 0.7351 0.7308 0.7268
836.000000 0.7225 0.7185 0.7141 0.7088 0.7036
831.000000 0.6984 0.6932 0.6878 0.6808 0.6741
826.000000 0.6672 0.6605 0.6534 0.6461 0.6390
821.000000 0.6318 0.6241 0.6164 0.6086 0.6010
816.000000 0.5943 0.5874 0.5810 0.5759 0.5709
811.000000 0.5672 0.5635 0.5597 0.5569 0.5547
806.000000 0.5526 0.5504 0.5487 0.5482 0.5477
801.000000 0.5471 0.5469 0.5468 0.5467 0.5472
796.000000 0.5477 0.5482 0.5487 0.5492 0.5506
791.000000 0.5524 0.5543 0.5560 0.5579 0.5598
786.000000 0.5616 0.5634 0.5653 0.5674 0.5695
781.000000 0.5715 0.5716 0.5717 0.5718 0.5719
776.000000 0.5721 0.5739 0.5706 0.5697 0.5689
771.000000 0.5681 0.5672 0.5650 0.5629 0.5608
766.000000 0.5587 0.5565 0.5536 0.5495 0.5454
761.000000 0.5412 0.5354 0.5282 0.5157 0.4969
756.000000 0.4833 0.4654 0.4500 0.4471 0.4458
751.000000 0.4446 0.4444 0.4442 0.4439 0.4437
746.000000 0.4433 0.4422 0.4397 0.4354 0.4315
741.000000 0.4176 0.4034 0.3893 0.3752 0.3609
736.000000 0.3468 0.3327 0.3184 0.3044 0.2992
731.000000 0.2970 0.2917 0.2952 0.2953 0.2953
726.000000 0.3123 0.3167 0.3202 0.3249 0.3300
721.000000 0.3372 0.3444 0.3584 0.3802 0.3948
716.000000 0.4093 0.4180 0.4251 0.4322 0.4393
711.000000 0.4464 0.4535 0.4771 0.4930 0.5035
706.000000 0.5102 0.5169 0.5233 0.5265 0.5295
701.000000 0.5325 0.5357 0.5388 0.5419 0.5450
696.000000 0.5481 0.5512 0.5544 0.5575 0.5606
691.000000 0.5637 0.5668 0.5699 0.5731 0.5762
686.000000 0.5793 0.5824 0.5855 0.5886 0.5918
681.000000 0.5949 0.5980 0.6010 0.6042 0.6073
676.000000 0.6105 0.6136 0.6167 0.6198 0.6230
671.000000 0.6247 0.6254 0.6260 0.6262 0.6262
666.000000 0.6262 0.6268 0.6256 0.6243 0.6201
661.000000 0.6139 0.6082 0.6028 0.5974 0.5919
656.000000 0.5819 0.5715 0.5595 0.5460 0.5215
651.000000 0.4960 0.4706 0.4452 0.4198 0.4140
646.000000 0.4066 0.4098 0.4089 0.4136 0.4235
641.000000 0.4334 0.4433 0.4532 0.4559 0.4556
636.000000 0.4547 0.4478 0.4409 0.4340 0.4271
631.000000 0.4203 0.4215 0.4184 0.4205 0.4226
626.000000 0.4266 0.4306 0.4346 0.4386 0.4425
621.000000 0.4465 0.4504 0.4544 0.4584 0.4630
616.000000 0.4675 0.4720 0.4766 0.4807 0.4837
611.000000 0.4859 0.4882 0.4905 0.4926 0.4946
606.000000 0.4967 0.4983 0.4997 0.5010 0.5024
601.000000 0.5022 0.5019 0.5017 0.5016 0.5012
596.000000 0.4943 0.4820 0.4690 0.4560 0.4430
591.000000 0.4301 0.4171 0.4041 0.3953 0.3930
586.000000 0.3922 0.3921 0.3916 0.3943 0.4142
581.000000 0.4219 0.4296 0.4373 0.4450 0.4527
576.000000 0.4604 0.4681 0.4758 0.4835 0.4912
571.000000 0.4989 0.5066 0.5143 0.5220 0.5297
566.000000 0.5374 0.5451 0.5528 0.5605 0.5682
561.000000 0.5759 0.5836 0.5912 0.5990 0.6067
556.000000 0.6144 0.6221 0.6298 0.6333 0.6355
551.000000 0.6378 0.6400 0.6410 0.6412 0.6415
546.000000 0.6415 0.6406 0.6384 0.6339 0.6122
541.000000 0.5940 0.5758 0.5576 0.5394 0.5212
536.000000 0.5164 0.5143 0.5225 0.5366 0.5507
531.000000 0.5648 0.5731 0.5739 0.5737 0.5587
526.000000 0.5497 0.5407 0.5317 0.5198 0.5206
521.000000 0.5262 0.5356 0.5451 0.5545 0.5639
516.000000 0.5710 0.5709 0.5716 0.5526 0.5223
511.000000 0.4919 0.4616 0.4407 0.4391 0.4392
506.000000 0.4530 0.4712 0.4896 0.5079 0.5262
501.000000 0.5445 0.5628 0.5810 0.5994 0.6177
496.000000 0.6360 0.6614 0.6892 0.7025 0.7154
491.000000 0.7281 0.7408 0.7565 0.7691 0.7795
486.000000 0.7899 0.7954 0.8004 0.8053 0.8103
481.000000 0.8153 0.8210 0.8268 0.8325 0.8371
476.000000 0.8402 0.8433 0.8464 0.8494 0.8515
471.000000 0.8535 0.8555 0.8575 0.8597 0.8621
466.000000 0.8647 0.8670 0.8683 0.8695 0.8708
461.000000 0.8721 0.8733 0.8742 0.8749 0.8757
456.000000 0.8764 0.8768 0.8774 0.8778 0.8778
451.000000 0.8778 0.8778 0.8777 0.8775 0.8771
446.000000 0.8767 0.8762 0.8763 0.8764 0.8765
441.000000 0.8771 0.8782 0.8791 0.8801 0.8811
436.000000 0.8820 0.8830 0.8838 0.8847 0.8856
431.000000 0.8865 0.8874 0.8875 0.8878 0.8880
426.000000 0.8873 0.8866 0.8855 0.8845 0.8834
421.000000 0.8824 0.8812 0.8797 0.8782 0.8768
416.000000 0.8757 0.8752 0.8748 0.8743 0.8738
411.000000 0.8735 0.8733 0.8730 0.8727 0.8721
406.000000 0.8718 0.8713 0.8708 0.8691 0.8668
401.000000 0.8646 0.8607 0.8566 0.8527 0.8494
396.000000 0.8461 0.8421 0.8308 0.8196 0.8110
391.000000 0.8024 0.7943 0.7878 0.7815 0.7751
386.000000 0.7687 0.7608 0.7525 0.7431 0.7318
381.000000 0.7206 0.7118 0.7051 0.6828 0.6605
376.000000 0.6381 0.6158 0.5934 0.5710 0.5487
371.000000 0.5262 0.5179 0.5167 0.5176 0.5157
366.000000 0.5197 0.5254 0.5324 0.5380 0.5437
361.000000 0.5564 0.5691 0.5818 0.5945 0.6072
356.000000 0.6199 0.6326 0.6453 0.6580 0.6642
351.000000 0.6693 0.6745 0.6797 0.6849 0.6914
346.000000 0.6982 0.7047 0.7110 0.7172 0.7234
341.000000 0.7291 0.7347 0.7392 0.7438 0.7484
336.000000 0.7530 0.7624 0.7696 0.7739 0.7776
331.000000 0.7804 0.7825 0.7843 0.7850 0.7854
326.000000 0.7855 0.7849 0.7843 0.7822 0.7799
321.000000 0.7775 0.7744 0.7706 0.7668 0.7628
316.000000 0.7585 0.7537 0.7489 0.7441 0.7393
311.000000 0.7345 0.7276 0.7206 0.7135 0.7065
306.000000 0.6978 0.6883 0.6788 0.6693 0.6618
301.000000 0.6542 0.6467 0.6391 0.6282 0.6165
296.000000 0.6027 0.5838 0.5764 0.5662 0.5562
291.000000 0.5460 0.5360 0.5260 0.5159 0.5058
286.000000 0.4957 0.4856 0.4756 0.4655 0.4554
281.000000 0.4453 0.4385 0.4379 0.4372 0.4362
276.000000 0.4351 0.4335 0.4312 0.4289 0.4147
271.000000 0.4012 0.3900 0.3776 0.3688 0.3656
266.000000 0.3660 0.3666 0.3671 0.3675 0.3680
261.000000 0.3682 0.3686 0.3690 0.3693 0.3696
256.000000 0.3700 0.3703 0.3703 0.3703 0.3703
251.000000 0.3702 0.3702 0.3702 0.3707 0.3720
246.000000 0.3734 0.3747 0.3759 0.3771 0.3782
241.000000 0.3795
##END=
