##TITLE=1,3,5-CYCLOHEXANETRIOL, 2,2,4,4,6,6-HEXAMETHYL-, TRIPELARGONATE
##JCAMP-DX=4.24
##DATA TYPE=INFRARED SPECTRUM
##CLASS=COBLENTZ
##ORIGIN=TENNESSEE EASTMAN COMPANY, RESEARCH LABORATORIES
##OWNER=COBLENTZ SOCIETY
Collection (C) 2018 copyright by the U.S. Secretary of Commerce
on behalf of the United States of America. All rights reserved.
##DATE=1960
##MOLFORM=C39 H70 O6
##BP=167 C AT 2 mmHg
##SOURCE REFERENCE=COBLENTZ NO. 775
##$NIST ID=B6000775
##$NIST SOURCE=COBLENTZ
##$NIST IMAGE=cob775
##SPECTROMETER/DATA SYSTEM=Not specified, most likely a prism, grating, or hybrid spectrometer.
##PATH LENGTH=SMEAR
##SAMPLING PROCEDURE=TRANSMISSION
##RESOLUTION=4
##DATA PROCESSING=DIGITIZED BY NIST FROM HARD COPY
##XUNITS=MICROMETERS
##YUNITS=TRANSMITTANCE
##XFACTOR=1.000000
##YFACTOR=1
##DELTAX=000.006867
##FIRSTX=2.007
##LASTX=15.9892
##FIRSTY=0.998
##MAXX=15.9892
##MINX=2.007
##MAXY=0.998
##MINY=0.037
##NPOINTS=2037
##XYDATA=(X++(Y..Y))
2.007000 0.9980 0.9980 0.9980 0.9980 0.9980
2.041354 0.9980 0.9980 0.9980 0.9980 0.9980
2.076000 0.9980 0.9980 0.9980 0.9980 0.9980
2.110354 0.9980 0.9980 0.9980 0.9980 0.9980
2.144000 0.9980 0.9980 0.9980 0.9980 0.9980
2.178354 0.9980 0.9980 0.9980 0.9980 0.9980
2.213000 0.9980 0.9980 0.9980 0.9960 0.9930
2.247354 0.9910 0.9840 0.9820 0.9760 0.9740
2.282000 0.9740 0.9740 0.9720 0.9720 0.9720
2.316354 0.9720 0.9740 0.9740 0.9760 0.9740
2.350000 0.9760 0.9760 0.9760 0.9760 0.9760
2.384354 0.9760 0.9760 0.9770 0.9770 0.9770
2.419000 0.9770 0.9770 0.9770 0.9770 0.9790
2.453354 0.9790 0.9810 0.9820 0.9820 0.9840
2.488000 0.9840 0.9880 0.9880 0.9890 0.9890
2.522354 0.9890 0.9890 0.9890 0.9910 0.9910
2.556000 0.9940 0.9940 0.9940 0.9940 0.9940
2.590354 0.9940 0.9940 0.9940 0.9940 0.9940
2.625000 0.9940 0.9940 0.9940 0.9940 0.9940
2.659354 0.9940 0.9940 0.9960 0.9960 0.9960
2.694000 0.9960 0.9980 0.9980 0.9980 0.9980
2.728354 0.9980 0.9980 0.9980 0.9980 0.9980
2.762000 0.9980 0.9980 0.9980 0.9980 0.9980
2.796354 0.9980 0.9960 0.9960 0.9960 0.9940
2.831000 0.9940 0.9940 0.9910 0.9880 0.9860
2.865354 0.9840 0.9790 0.9700 0.9690 0.9670
2.900000 0.9670 0.9690 0.9700 0.9740 0.9770
2.934354 0.9790 0.9790 0.9810 0.9790 0.9810
2.968000 0.9810 0.9820 0.9820 0.9840 0.9840
3.002354 0.9840 0.9840 0.9840 0.9840 0.9820
3.037000 0.9820 0.9810 0.9810 0.9810 0.9810
3.071354 0.9810 0.9810 0.9820 0.9820 0.9820
3.106000 0.9820 0.9810 0.9790 0.9770 0.9760
3.140354 0.9760 0.9740 0.9740 0.9720 0.9740
3.174000 0.9720 0.9700 0.9700 0.9690 0.9690
3.208354 0.9690 0.9670 0.9650 0.9600 0.9550
3.243000 0.9470 0.9380 0.9240 0.9050 0.8730
3.277354 0.8290 0.7650 0.7210 0.6990 0.6900
3.312000 0.6870 0.6610 0.6220 0.5040 0.4050
3.346354 0.2800 0.1930 0.1140 0.0660 0.0580
3.380000 0.0560 0.0510 0.0510 0.0580 0.0820
3.414354 0.1070 0.1600 0.2080 0.2590 0.2640
3.449000 0.2640 0.2300 0.1600 0.1600 0.1650
3.483354 0.2830 0.3640 0.4880 0.5910 0.6750
3.518000 0.7360 0.7790 0.8000 0.8130 0.8270
3.552354 0.8390 0.8490 0.8610 0.8710 0.8800
3.586000 0.8880 0.8970 0.9000 0.9020 0.9040
3.620354 0.9050 0.9050 0.9050 0.9050 0.9050
3.655000 0.9050 0.9050 0.9050 0.9070 0.9070
3.689354 0.9070 0.9090 0.9110 0.9120 0.9120
3.724000 0.9110 0.9110 0.9090 0.9090 0.9090
3.758354 0.9110 0.9110 0.9120 0.9140 0.9170
3.792000 0.9190 0.9230 0.9260 0.9290 0.9350
3.826354 0.9380 0.9400 0.9410 0.9430 0.9450
3.861000 0.9470 0.9480 0.9500 0.9520 0.9530
3.895354 0.9550 0.9550 0.9580 0.9600 0.9600
3.930000 0.9620 0.9620 0.9640 0.9650 0.9650
3.964354 0.9670 0.9670 0.9690 0.9690 0.9690
3.998000 0.9690 0.9690 0.9690 0.9690 0.9700
4.032354 0.9700 0.9700 0.9700 0.9700 0.9700
4.067000 0.9700 0.9700 0.9700 0.9720 0.9720
4.101354 0.9720 0.9720 0.9720 0.9720 0.9720
4.136000 0.9720 0.9720 0.9720 0.9700 0.9700
4.170354 0.9700 0.9700 0.9700 0.9700 0.9720
4.204000 0.9720 0.9740 0.9740 0.9740 0.9740
4.238354 0.9740 0.9740 0.9740 0.9720 0.9720
4.273000 0.9700 0.9700 0.9670 0.9650 0.9620
4.307354 0.9600 0.9600 0.9580 0.9570 0.9550
4.342000 0.9530 0.9530 0.9530 0.9530 0.9530
4.376354 0.9530 0.9550 0.9550 0.9570 0.9580
4.410000 0.9580 0.9600 0.9600 0.9600 0.9600
4.444354 0.9620 0.9640 0.9640 0.9640 0.9640
4.479000 0.9640 0.9640 0.9640 0.9640 0.9640
4.513354 0.9640 0.9640 0.9640 0.9640 0.9640
4.548000 0.9640 0.9640 0.9640 0.9640 0.9640
4.582354 0.9640 0.9640 0.9640 0.9600 0.9620
4.616000 0.9620 0.9620 0.9620 0.9620 0.9620
4.650354 0.9620 0.9620 0.9620 0.9620 0.9620
4.685000 0.9620 0.9620 0.9620 0.9620 0.9620
4.719354 0.9620 0.9620 0.9620 0.9600 0.9600
4.754000 0.9600 0.9580 0.9570 0.9570 0.9570
4.788354 0.9550 0.9550 0.9550 0.9550 0.9550
4.823000 0.9550 0.9550 0.9550 0.9530 0.9530
4.857354 0.9530 0.9530 0.9530 0.9530 0.9530
4.891000 0.9530 0.9530 0.9530 0.9530 0.9530
4.925354 0.9530 0.9530 0.9530 0.9530 0.9530
4.960000 0.9530 0.9530 0.9550 0.9570 0.9580
4.994354 0.9600 0.9600 0.9600 0.9620 0.9620
5.029000 0.9620 0.9620 0.9620 0.9620 0.9620
5.063354 0.9620 0.9620 0.9620 0.9620 0.9620
5.097000 0.9620 0.9620 0.9620 0.9620 0.9620
5.131354 0.9620 0.9620 0.9620 0.9620 0.9620
5.166000 0.9620 0.9600 0.9600 0.9600 0.9600
5.200354 0.9580 0.9580 0.9580 0.9550 0.9520
5.235000 0.9520 0.9520 0.9500 0.9520 0.9520
5.269354 0.9520 0.9520 0.9520 0.9500 0.9500
5.303000 0.9520 0.9520 0.9520 0.9520 0.9530
5.337354 0.9530 0.9520 0.9470 0.9450 0.9430
5.372000 0.9430 0.9450 0.9470 0.9470 0.9450
5.406354 0.9380 0.9330 0.9260 0.9190 0.9160
5.441000 0.9160 0.9160 0.9120 0.9090 0.9000
5.475354 0.8950 0.8880 0.8850 0.8830 0.8800
5.509000 0.8760 0.8730 0.8700 0.8660 0.8610
5.543354 0.8560 0.8510 0.8460 0.8390 0.8320
5.578000 0.8220 0.8130 0.8010 0.7890 0.7760
5.612354 0.7580 0.7400 0.7110 0.6710 0.6220
5.647000 0.5670 0.5050 0.4390 0.3690 0.2970
5.681354 0.2230 0.1500 0.0760 0.0520 0.0440
5.715000 0.0390 0.0370 0.0410 0.0510 0.0610
5.749354 0.1040 0.1700 0.2460 0.3210 0.3790
5.784000 0.4220 0.4640 0.5070 0.5470 0.5840
5.818354 0.6200 0.6510 0.6780 0.7000 0.7140
5.853000 0.7210 0.7240 0.7260 0.7290 0.7330
5.887354 0.7380 0.7450 0.7570 0.7740 0.7940
5.921000 0.8030 0.8080 0.8110 0.8150 0.8200
5.955354 0.8230 0.8290 0.8350 0.8370 0.8410
5.990000 0.8460 0.8490 0.8560 0.8610 0.8660
6.024354 0.8700 0.8730 0.8750 0.8750 0.8750
6.059000 0.8710 0.8710 0.8710 0.8710 0.8730
6.093354 0.8780 0.8830 0.8850 0.8850 0.8870
6.127000 0.8870 0.8920 0.8940 0.8950 0.8970
6.161354 0.8970 0.8990 0.9000 0.8990 0.9000
6.196000 0.9020 0.9020 0.9040 0.9050 0.9050
6.230354 0.9070 0.9090 0.9090 0.9090 0.9110
6.265000 0.9110 0.9090 0.9110 0.9110 0.9120
6.299354 0.9120 0.9140 0.9160 0.9160 0.9160
6.333000 0.9160 0.9120 0.9120 0.9120 0.9120
6.367354 0.9110 0.9110 0.9090 0.9070 0.9050
6.402000 0.9040 0.8970 0.8970 0.8990 0.9000
6.436354 0.9000 0.9040 0.9020 0.9020 0.8990
6.471000 0.8970 0.8900 0.8880 0.8880 0.8880
6.505354 0.8880 0.8900 0.8900 0.8900 0.8900
6.539000 0.8870 0.8800 0.8760 0.8730 0.8710
6.573354 0.8710 0.8710 0.8710 0.8680 0.8680
6.608000 0.8630 0.8520 0.8440 0.8410 0.8350
6.642354 0.8320 0.8200 0.8110 0.8060 0.8000
6.677000 0.7880 0.7640 0.7240 0.6630 0.6340
6.711354 0.6110 0.5930 0.5770 0.5620 0.5400
6.745000 0.5120 0.4760 0.4250 0.3650 0.2940
6.779354 0.2900 0.2920 0.2940 0.3050 0.3110
6.814000 0.3140 0.3210 0.3280 0.3400 0.3550
6.848354 0.3740 0.4000 0.4320 0.4440 0.4520
6.883000 0.4610 0.4700 0.4780 0.4870 0.4970
6.917354 0.5090 0.5240 0.5410 0.5620 0.5860
6.951000 0.6000 0.6060 0.6150 0.6170 0.6170
6.985354 0.6110 0.6050 0.6000 0.5930 0.5840
7.020000 0.5670 0.5640 0.5640 0.5650 0.6000
7.054354 0.6000 0.6000 0.5930 0.5740 0.5580
7.089000 0.5290 0.5000 0.4760 0.4710 0.4730
7.123354 0.4750 0.5090 0.5400 0.5700 0.5940
7.157000 0.6130 0.6230 0.6230 0.6250 0.6110
7.191354 0.5720 0.5290 0.4900 0.4580 0.4250
7.226000 0.3980 0.3700 0.3450 0.3170 0.2920
7.260354 0.2630 0.2390 0.2080 0.2060 0.2080
7.295000 0.2300 0.2630 0.2900 0.3140 0.3350
7.329354 0.3530 0.3690 0.3840 0.3960 0.4080
7.363000 0.4180 0.4290 0.4390 0.4470 0.4590
7.397354 0.4710 0.4830 0.4990 0.5140 0.5240
7.432000 0.5330 0.5410 0.5500 0.5580 0.5670
7.466354 0.5760 0.5820 0.5890 0.5960 0.6010
7.501000 0.6050 0.6080 0.6100 0.6110 0.6110
7.535354 0.6110 0.6110 0.6080 0.5980 0.5940
7.569000 0.5890 0.5820 0.5770 0.5700 0.5640
7.603354 0.5580 0.5550 0.5520 0.5500 0.5450
7.638000 0.5410 0.5350 0.5310 0.5240 0.5210
7.672354 0.5160 0.5140 0.5140 0.5140 0.5160
7.707000 0.5170 0.5190 0.5230 0.5210 0.5170
7.741354 0.5070 0.5020 0.4830 0.4800 0.4800
7.775000 0.4800 0.4800 0.4830 0.4850 0.4870
7.809354 0.4850 0.4830 0.4830 0.4820 0.4780
7.844000 0.4750 0.4710 0.4680 0.4680 0.4660
7.878354 0.4660 0.4660 0.4610 0.4540 0.4410
7.913000 0.4250 0.4060 0.3880 0.3700 0.3520
7.947354 0.3350 0.3190 0.3070 0.2970 0.2920
7.982000 0.2880 0.2820 0.2750 0.2680 0.2630
8.016354 0.2580 0.2540 0.2490 0.2460 0.2410
8.050000 0.2390 0.2340 0.2320 0.2300 0.2300
8.084354 0.2300 0.2340 0.2440 0.2490 0.2540
8.119000 0.2590 0.2610 0.2590 0.2560 0.2520
8.153354 0.2490 0.2470 0.2440 0.2440 0.2390
8.188000 0.2370 0.2370 0.2370 0.2370 0.2370
8.222354 0.2370 0.2370 0.2370 0.2370 0.2370
8.256000 0.2390 0.2440 0.2440 0.2470 0.2510
8.290354 0.2540 0.2540 0.2490 0.2470 0.2460
8.325000 0.2460 0.2470 0.2460 0.2460 0.2460
8.359354 0.2460 0.2460 0.2440 0.2410 0.2390
8.394000 0.2350 0.2340 0.2300 0.2290 0.2250
8.428354 0.2230 0.2150 0.2100 0.2050 0.2030
8.462000 0.2000 0.1960 0.1930 0.1890 0.1840
8.496354 0.1770 0.1650 0.1580 0.1520 0.1430
8.531000 0.1350 0.1260 0.1160 0.1050 0.0950
8.565354 0.0830 0.0700 0.0660 0.0590 0.0560
8.600000 0.0540 0.0540 0.0520 0.0510 0.0510
8.634354 0.0510 0.0510 0.0520 0.0540 0.0560
8.668000 0.0710 0.0920 0.1160 0.1430 0.1720
8.702354 0.2010 0.2340 0.2660 0.3000 0.3330
8.737000 0.3650 0.3980 0.4270 0.4560 0.4820
8.771354 0.5040 0.5240 0.5400 0.5520 0.5570
8.806000 0.5600 0.5600 0.5600 0.5580 0.5380
8.840354 0.5170 0.4990 0.4780 0.4590 0.4420
8.874000 0.4230 0.4060 0.3890 0.3720 0.3570
8.908354 0.3400 0.3240 0.3090 0.2950 0.2780
8.943000 0.2700 0.2630 0.2540 0.2490 0.2470
8.977354 0.2460 0.2460 0.2440 0.2420 0.2420
9.012000 0.2440 0.2460 0.2470 0.2490 0.2580
9.046354 0.2660 0.2750 0.2820 0.2920 0.3040
9.080000 0.3170 0.3350 0.3570 0.3820 0.4130
9.114354 0.4490 0.4830 0.5110 0.5350 0.5530
9.149000 0.5700 0.5840 0.5960 0.6050 0.6150
9.183354 0.6230 0.6340 0.6440 0.6490 0.6520
9.218000 0.6540 0.6540 0.6580 0.6590 0.6630
9.252354 0.6630 0.6640 0.6640 0.6640 0.6640
9.286000 0.6640 0.6640 0.6640 0.6640 0.6630
9.320354 0.6630 0.6610 0.6580 0.6520 0.6510
9.355000 0.6470 0.6420 0.6370 0.6320 0.6290
9.389354 0.6250 0.6230 0.6200 0.6170 0.6130
9.424000 0.6110 0.6050 0.6010 0.5980 0.5960
9.458354 0.5940 0.5930 0.5890 0.5860 0.5810
9.492000 0.5770 0.5740 0.5700 0.5640 0.5570
9.526354 0.5480 0.5350 0.5210 0.5020 0.4780
9.561000 0.4510 0.4180 0.3790 0.3350 0.3000
9.595354 0.2970 0.2710 0.2340 0.2200 0.2200
9.630000 0.2220 0.2270 0.2440 0.2710 0.3040
9.664354 0.3400 0.3720 0.4010 0.4200 0.4440
9.698000 0.4610 0.4750 0.4820 0.4880 0.4920
9.732354 0.4920 0.4940 0.4950 0.4920 0.4900
9.767000 0.4830 0.4750 0.4640 0.4540 0.4420
9.801354 0.4290 0.4180 0.4060 0.3960 0.3880
9.836000 0.3790 0.3760 0.3720 0.3720 0.3700
9.870354 0.3700 0.3740 0.3790 0.3820 0.3890
9.904000 0.3980 0.4000 0.4000 0.3980 0.3910
9.938354 0.3880 0.3860 0.3810 0.3770 0.3700
9.973000 0.3640 0.3550 0.3470 0.3360 0.3280
10.007354 0.3170 0.3070 0.2950 0.2850 0.2750
10.042000 0.2660 0.2580 0.2490 0.2410 0.2350
10.076354 0.2290 0.2250 0.2200 0.2180 0.2180
10.110000 0.2180 0.2180 0.2180 0.2180 0.2180
10.144354 0.2200 0.2220 0.2230 0.2270 0.2300
10.179000 0.2340 0.2350 0.2370 0.2390 0.2410
10.213354 0.2420 0.2460 0.2490 0.2540 0.2590
10.248000 0.2640 0.2710 0.2780 0.2870 0.2970
10.282354 0.3050 0.3170 0.3290 0.3410 0.3570
10.316000 0.3700 0.3880 0.4030 0.4170 0.4300
10.350354 0.4440 0.4580 0.4700 0.4830 0.4950
10.385000 0.5090 0.5210 0.5330 0.5450 0.5570
10.419354 0.5670 0.5790 0.5890 0.6000 0.6100
10.454000 0.6200 0.6290 0.6370 0.6460 0.6540
10.488354 0.6610 0.6680 0.6750 0.6800 0.6870
10.522000 0.6920 0.6950 0.6990 0.7020 0.7040
10.556354 0.7070 0.7070 0.7070 0.7110 0.7140
10.591000 0.7190 0.7230 0.7240 0.7240 0.7240
10.625354 0.7240 0.7240 0.7240 0.7240 0.7240
10.660000 0.7240 0.7240 0.7230 0.7240 0.7260
10.694354 0.7290 0.7330 0.7360 0.7410 0.7480
10.728000 0.7550 0.7640 0.7720 0.7770 0.7820
10.762354 0.7860 0.7910 0.7930 0.7930 0.7930
10.797000 0.7930 0.7930 0.7930 0.7930 0.7930
10.831354 0.7930 0.7930 0.7930 0.7930 0.7930
10.866000 0.7910 0.7890 0.7880 0.7860 0.7840
10.900354 0.7840 0.7820 0.7790 0.7760 0.7720
10.934000 0.7700 0.7690 0.7650 0.7640 0.7640
10.968354 0.7620 0.7620 0.7580 0.7570 0.7550
11.003000 0.7530 0.7520 0.7470 0.7470 0.7450
11.037354 0.7400 0.7350 0.7310 0.7280 0.7230
11.072000 0.7240 0.7190 0.7160 0.7140 0.7140
11.106354 0.7120 0.7120 0.7120 0.7140 0.7160
11.141000 0.7160 0.7160 0.7140 0.7140 0.7120
11.175354 0.7110 0.7070 0.7040 0.7020 0.6990
11.209000 0.6920 0.6920 0.6900 0.6900 0.6900
11.243354 0.6900 0.6920 0.6950 0.6990 0.7020
11.278000 0.7050 0.7110 0.7160 0.7210 0.7260
11.312354 0.7330 0.7410 0.7480 0.7570 0.7650
11.347000 0.7760 0.7840 0.7940 0.8000 0.8050
11.381354 0.8110 0.8180 0.8230 0.8300 0.8350
11.415000 0.8390 0.8440 0.8470 0.8510 0.8520
11.449354 0.8520 0.8540 0.8560 0.8560 0.8580
11.484000 0.8580 0.8590 0.8590 0.8630 0.8630
11.518354 0.8640 0.8660 0.8660 0.8660 0.8660
11.553000 0.8680 0.8680 0.8700 0.8710 0.8730
11.587354 0.8760 0.8820 0.8830 0.8870 0.8880
11.621000 0.8900 0.8940 0.8970 0.8990 0.9000
11.655354 0.9020 0.9040 0.9040 0.9050 0.9050
11.690000 0.9070 0.9070 0.9090 0.9090 0.9110
11.724354 0.9110 0.9110 0.9110 0.9120 0.9120
11.759000 0.9120 0.9120 0.9120 0.9120 0.9140
11.793354 0.9140 0.9140 0.9140 0.9160 0.9160
11.827000 0.9160 0.9160 0.9160 0.9170 0.9170
11.861354 0.9170 0.9170 0.9170 0.9170 0.9170
11.896000 0.9170 0.9170 0.9170 0.9170 0.9170
11.930354 0.9170 0.9170 0.9170 0.9170 0.9170
11.965000 0.9170 0.9170 0.9170 0.9170 0.9170
11.999354 0.9170 0.9170 0.9170 0.9170 0.9170
12.033000 0.9170 0.9170 0.9170 0.9170 0.9170
12.067354 0.9170 0.9170 0.9170 0.9170 0.9170
12.102000 0.9170 0.9170 0.9170 0.9170 0.9170
12.136354 0.9170 0.9170 0.9170 0.9170 0.9170
12.171000 0.9170 0.9170 0.9170 0.9170 0.9170
12.205354 0.9170 0.9170 0.9170 0.9170 0.9170
12.239000 0.9170 0.9170 0.9170 0.9170 0.9170
12.273354 0.9170 0.9170 0.9170 0.9170 0.9170
12.308000 0.9170 0.9170 0.9170 0.9170 0.9170
12.342354 0.9160 0.9160 0.9160 0.9160 0.9160
12.377000 0.9160 0.9160 0.9160 0.9160 0.9140
12.411354 0.9140 0.9140 0.9160 0.9140 0.9140
12.445000 0.9140 0.9140 0.9120 0.9120 0.9120
12.479354 0.9120 0.9120 0.9120 0.9120 0.9120
12.514000 0.9140 0.9140 0.9140 0.9140 0.9140
12.548354 0.9140 0.9140 0.9140 0.9140 0.9140
12.583000 0.9140 0.9140 0.9140 0.9140 0.9140
12.617354 0.9140 0.9140 0.9140 0.9140 0.9120
12.651000 0.9120 0.9120 0.9120 0.9120 0.9120
12.685354 0.9120 0.9090 0.9070 0.9070 0.9070
12.720000 0.9050 0.9040 0.9020 0.9000 0.8990
12.754354 0.8970 0.8950 0.8940 0.8940 0.8920
12.789000 0.8880 0.8850 0.8830 0.8820 0.8780
12.823354 0.8760 0.8760 0.8750 0.8730 0.8710
12.857000 0.8680 0.8680 0.8660 0.8640 0.8630
12.891354 0.8630 0.8610 0.8590 0.8590 0.8580
12.926000 0.8580 0.8580 0.8580 0.8580 0.8580
12.960354 0.8580 0.8580 0.8580 0.8580 0.8580
12.995000 0.8580 0.8580 0.8580 0.8580 0.8580
13.029354 0.8580 0.8580 0.8590 0.8590 0.8610
13.063000 0.8630 0.8610 0.8630 0.8630 0.8630
13.097354 0.8630 0.8640 0.8640 0.8630 0.8630
13.132000 0.8630 0.8630 0.8630 0.8630 0.8630
13.166354 0.8640 0.8640 0.8640 0.8630 0.8630
13.201000 0.8610 0.8610 0.8580 0.8540 0.8520
13.235354 0.8520 0.8520 0.8510 0.8510 0.8510
13.269000 0.8510 0.8510 0.8510 0.8490 0.8470
13.303354 0.8470 0.8460 0.8460 0.8440 0.8440
13.338000 0.8420 0.8410 0.8390 0.8390 0.8370
13.372354 0.8350 0.8350 0.8340 0.8340 0.8320
13.407000 0.8320 0.8300 0.8290 0.8270 0.8250
13.441354 0.8250 0.8230 0.8230 0.8220 0.8220
13.475000 0.8220 0.8200 0.8180 0.8180 0.8170
13.509354 0.8150 0.8130 0.8130 0.8110 0.8110
13.544000 0.8110 0.8110 0.8100 0.8080 0.8060
13.578354 0.8050 0.8030 0.8010 0.8000 0.7980
13.613000 0.7960 0.7940 0.7930 0.7910 0.7890
13.647354 0.7840 0.7810 0.7760 0.7700 0.7650
13.681000 0.7620 0.7570 0.7500 0.7470 0.7360
13.715354 0.7330 0.7280 0.7240 0.7210 0.7160
13.750000 0.7140 0.7120 0.7110 0.7090 0.7070
13.784354 0.7070 0.7070 0.7070 0.7090 0.7140
13.819000 0.7140 0.7210 0.7240 0.7280 0.7310
13.853354 0.7350 0.7400 0.7450 0.7500 0.7530
13.887000 0.7580 0.7620 0.7650 0.7670 0.7690
13.921354 0.7720 0.7740 0.7760 0.7770 0.7790
13.956000 0.7810 0.7820 0.7840 0.7860 0.7890
13.990354 0.7910 0.7910 0.7930 0.7940 0.7940
14.025000 0.7960 0.7980 0.7980 0.8000 0.8000
14.059354 0.8010 0.8010 0.8010 0.8030 0.8030
14.094000 0.8030 0.8030 0.8050 0.8050 0.8050
14.128354 0.8050 0.8030 0.8050 0.8050 0.8050
14.162000 0.8050 0.8050 0.8060 0.8060 0.8060
14.196354 0.8060 0.8060 0.8060 0.8080 0.8080
14.231000 0.8080 0.8080 0.8080 0.8080 0.8080
14.265354 0.8080 0.8080 0.8080 0.8080 0.8080
14.300000 0.8080 0.8080 0.8080 0.8080 0.8080
14.334354 0.8080 0.8080 0.8080 0.8080 0.8080
14.368000 0.8080 0.8080 0.8060 0.8060 0.8060
14.402354 0.8060 0.8050 0.8050 0.8050 0.8050
14.437000 0.8030 0.8050 0.8030 0.8010 0.8030
14.471354 0.8010 0.8010 0.8010 0.8000 0.8000
14.506000 0.8000 0.8000 0.7980 0.7980 0.7980
14.540354 0.7980 0.7980 0.7960 0.7940 0.7940
14.574000 0.7930 0.7930 0.7910 0.7890 0.7910
14.608354 0.7890 0.7890 0.7880 0.7860 0.7880
14.643000 0.7880 0.7880 0.7860 0.7860 0.7860
14.677354 0.7840 0.7820 0.7820 0.7810 0.7820
14.712000 0.7820 0.7810 0.7810 0.7810 0.7810
14.746354 0.7810 0.7790 0.7790 0.7770 0.7760
14.780000 0.7760 0.7760 0.7740 0.7740 0.7740
14.814354 0.7740 0.7720 0.7720 0.7720 0.7700
14.849000 0.7700 0.7700 0.7700 0.7700 0.7700
14.883354 0.7700 0.7690 0.7690 0.7690 0.7690
14.918000 0.7690 0.7690 0.7690 0.7670 0.7670
14.952354 0.7670 0.7670 0.7650 0.7640 0.7620
14.986000 0.7600 0.7570 0.7550 0.7520 0.7480
15.020354 0.7470 0.7450 0.7430 0.7400 0.7360
15.055000 0.7350 0.7330 0.7310 0.7290 0.7290
15.089354 0.7280 0.7280 0.7260 0.7240 0.7260
15.124000 0.7260 0.7240 0.7240 0.7230 0.7230
15.158354 0.7230 0.7230 0.7230 0.7230 0.7210
15.192000 0.7210 0.7190 0.7190 0.7190 0.7190
15.226354 0.7170 0.7160 0.7160 0.7140 0.7140
15.261000 0.7120 0.7120 0.7120 0.7120 0.7110
15.295354 0.7110 0.7110 0.7090 0.7090 0.7070
15.330000 0.7070 0.7070 0.7070 0.7070 0.7070
15.364354 0.7070 0.7070 0.7070 0.7070 0.7070
15.398000 0.7070 0.7070 0.7050 0.7050 0.7050
15.432354 0.7050 0.7050 0.7050 0.7050 0.7050
15.467000 0.7050 0.7050 0.7050 0.7050 0.7050
15.501354 0.7050 0.7070 0.7070 0.7070 0.7070
15.536000 0.7070 0.7070 0.7070 0.7070 0.7070
15.570354 0.7070 0.7070 0.7070 0.7070 0.7070
15.604000 0.7070 0.7070 0.7070 0.7070 0.7070
15.638354 0.7070 0.7070 0.7090 0.7090 0.7110
15.673000 0.7110 0.7110 0.7110 0.7120 0.7120
15.707354 0.7120 0.7140 0.7140 0.7160 0.7160
15.742000 0.7170 0.7170 0.7170 0.7170 0.7170
15.776354 0.7190 0.7190 0.7190 0.7190 0.7190
15.810000 0.7190 0.7190 0.7190 0.7210 0.7210
15.844354 0.7210 0.7210 0.7210 0.7210 0.7210
15.879000 0.7210 0.7210 0.7210 0.7230 0.7230
15.913354 0.7240 0.7240 0.7230 0.7240 0.7240
15.948000 0.7240 0.7260 0.7260 0.7260 0.7260
15.982354 0.7260 0.7260
##END=
