##TITLE=BARIUM CHROMATE
$$ C.P.
##JCAMP-DX=4.24
##DATA TYPE=INFRARED SPECTRUM
##CLASS=COBLENTZ
##ORIGIN=MELLON INSTITUTE
##OWNER=COBLENTZ SOCIETY
Collection (C) 2018 copyright by the U.S. Secretary of Commerce
on behalf of the United States of America. All rights reserved.
##DATE=Not specified, most likely prior to 1970
##MOLFORM=Ba Cr O4
##SOURCE REFERENCE=COBLENTZ NO. 463
##$NIST ID=B6000463
##$NIST SOURCE=COBLENTZ
##$NIST IMAGE=cob463
##SPECTROMETER/DATA SYSTEM=Not specified, most likely a prism, grating, or hybrid spectrometer.
##STATE=SOLID (NUJOL MULL)
##PATH LENGTH=
$$SPECTRAL CONTAMINATION DUE TO OIL AROUND 2900, 1450, 1380 CM^-^1
##SAMPLING PROCEDURE=TRANSMISSION
##RESOLUTION=4
##DATA PROCESSING=DIGITIZED BY NIST FROM HARD COPY
##XUNITS=MICROMETERS
##YUNITS=TRANSMITTANCE
##XFACTOR=1.000000
##YFACTOR=1
##DELTAX=000.006845
##FIRSTX=2.042
##LASTX=16.006
##FIRSTY=0.641
##MAXX=16.006
##MINX=2.042
##MAXY=0.986
##MINY=0.113
##NPOINTS=2041
##XYDATA=(X++(Y..Y))
2.042000 0.6410 0.6410 0.6430 0.6440 0.6460
2.076242 0.6480 0.6500 0.6510 0.6530 0.6560
2.110000 0.6580 0.6620 0.6620 0.6630 0.6670
2.144242 0.6700 0.6720 0.6740 0.6770 0.6790
2.179000 0.6820 0.6840 0.6840 0.6860 0.6860
2.213242 0.6890 0.6910 0.6920 0.6940 0.6940
2.247000 0.6960 0.6980 0.6990 0.6990 0.7010
2.281242 0.7010 0.7030 0.7030 0.7030 0.7040
2.315000 0.7040 0.7060 0.7100 0.7100 0.7110
2.349242 0.7130 0.7130 0.7180 0.7200 0.7200
2.384000 0.7220 0.7230 0.7250 0.7250 0.7280
2.418242 0.7300 0.7320 0.7340 0.7350 0.7390
2.452000 0.7400 0.7420 0.7420 0.7440 0.7460
2.486242 0.7470 0.7470 0.7510 0.7530 0.7540
2.521000 0.7540 0.7560 0.7590 0.7590 0.7610
2.555242 0.7630 0.7630 0.7650 0.7650 0.7660
2.589000 0.7680 0.7680 0.7700 0.7710 0.7710
2.623242 0.7710 0.7730 0.7730 0.7750 0.7770
2.658000 0.7780 0.7800 0.7820 0.7830 0.7830
2.692242 0.7850 0.7850 0.7850 0.7850 0.7850
2.726000 0.7850 0.7870 0.7870 0.7870 0.7870
2.760242 0.7870 0.7870 0.7850 0.7850 0.7830
2.795000 0.7830 0.7830 0.7820 0.7820 0.7820
2.829242 0.7820 0.7800 0.7800 0.7800 0.7800
2.863000 0.7780 0.7770 0.7750 0.7730 0.7710
2.897242 0.7710 0.7710 0.7710 0.7710 0.7710
2.932000 0.7710 0.7710 0.7730 0.7730 0.7730
2.966242 0.7750 0.7770 0.7770 0.7780 0.7780
3.000000 0.7800 0.7800 0.7800 0.7820 0.7820
3.034242 0.7820 0.7820 0.7820 0.7830 0.7830
3.068000 0.7850 0.7870 0.7870 0.7890 0.7900
3.102242 0.7920 0.7940 0.7940 0.7950 0.7950
3.137000 0.7970 0.7990 0.7990 0.8010 0.8020
3.171242 0.8020 0.8040 0.8040 0.8060 0.8060
3.205000 0.8070 0.8090 0.8110 0.8110 0.8130
3.239242 0.8130 0.8140 0.8140 0.8140 0.8140
3.274000 0.8140 0.8130 0.8060 0.8020 0.7970
3.308242 0.7890 0.7650 0.7370 0.7100 0.5980
3.342000 0.4870 0.4150 0.3410 0.2930 0.2430
3.376242 0.2190 0.1740 0.1730 0.1760 0.2040
3.411000 0.2330 0.2640 0.3250 0.3370 0.3650
3.445242 0.3790 0.3990 0.3990 0.3890 0.3820
3.479000 0.3630 0.3610 0.3650 0.3890 0.5590
3.513242 0.6670 0.6980 0.7610 0.7780 0.7990
3.548000 0.8090 0.8280 0.8330 0.8400 0.8470
3.582242 0.8500 0.8540 0.8590 0.8610 0.8640
3.616000 0.8660 0.8670 0.8690 0.8710 0.8730
3.650242 0.8730 0.8740 0.8740 0.8760 0.8780
3.685000 0.8790 0.8790 0.8790 0.8810 0.8810
3.719242 0.8810 0.8830 0.8830 0.8860 0.8860
3.753000 0.8860 0.8860 0.8880 0.8900 0.8900
3.787242 0.8900 0.8900 0.8900 0.8910 0.8930
3.821000 0.8930 0.8930 0.8950 0.8950 0.8950
3.855242 0.8950 0.8950 0.8970 0.8970 0.8970
3.890000 0.8980 0.8980 0.9000 0.9000 0.9000
3.924242 0.9000 0.9000 0.9020 0.9020 0.9020
3.958000 0.9030 0.9030 0.9050 0.9050 0.9050
3.992242 0.9050 0.9070 0.9070 0.9070 0.9070
4.027000 0.9070 0.9070 0.9070 0.9070 0.9090
4.061242 0.9090 0.9090 0.9090 0.9100 0.9100
4.095000 0.9120 0.9120 0.9120 0.9120 0.9140
4.129242 0.9140 0.9140 0.9140 0.9140 0.9150
4.164000 0.9150 0.9150 0.9150 0.9150 0.9150
4.198242 0.9150 0.9150 0.9150 0.9150 0.9150
4.232000 0.9150 0.9150 0.9150 0.9150 0.9170
4.266242 0.9170 0.9170 0.9170 0.9170 0.9170
4.301000 0.9170 0.9170 0.9170 0.9170 0.9170
4.335242 0.9170 0.9170 0.9170 0.9170 0.9170
4.369000 0.9170 0.9170 0.9170 0.9170 0.9170
4.403242 0.9150 0.9150 0.9150 0.9150 0.9150
4.437000 0.9150 0.9150 0.9150 0.9150 0.9150
4.471242 0.9150 0.9150 0.9150 0.9150 0.9150
4.506000 0.9150 0.9150 0.9170 0.9190 0.9190
4.540242 0.9190 0.9190 0.9190 0.9190 0.9190
4.574000 0.9190 0.9190 0.9190 0.9190 0.9190
4.608242 0.9190 0.9210 0.9210 0.9210 0.9210
4.643000 0.9210 0.9210 0.9210 0.9210 0.9220
4.677242 0.9220 0.9220 0.9220 0.9220 0.9220
4.711000 0.9220 0.9220 0.9220 0.9220 0.9220
4.745242 0.9220 0.9220 0.9220 0.9220 0.9220
4.780000 0.9220 0.9220 0.9220 0.9220 0.9220
4.814242 0.9220 0.9220 0.9220 0.9220 0.9220
4.848000 0.9220 0.9220 0.9220 0.9220 0.9220
4.882242 0.9220 0.9220 0.9220 0.9220 0.9240
4.917000 0.9240 0.9240 0.9260 0.9260 0.9260
4.951242 0.9260 0.9270 0.9270 0.9270 0.9270
4.985000 0.9290 0.9290 0.9290 0.9290 0.9290
5.019242 0.9290 0.9290 0.9310 0.9310 0.9310
5.054000 0.9310 0.9310 0.9330 0.9330 0.9330
5.088242 0.9330 0.9330 0.9340 0.9340 0.9340
5.122000 0.9360 0.9360 0.9360 0.9360 0.9360
5.156242 0.9360 0.9360 0.9360 0.9380 0.9380
5.190000 0.9380 0.9380 0.9380 0.9380 0.9380
5.224242 0.9390 0.9390 0.9390 0.9390 0.9390
5.259000 0.9390 0.9390 0.9390 0.9390 0.9390
5.293242 0.9390 0.9390 0.9390 0.9410 0.9410
5.327000 0.9410 0.9410 0.9410 0.9410 0.9410
5.361242 0.9410 0.9410 0.9410 0.9410 0.9410
5.396000 0.9410 0.9390 0.9390 0.9390 0.9390
5.430242 0.9390 0.9390 0.9390 0.9390 0.9390
5.464000 0.9390 0.9390 0.9390 0.9390 0.9390
5.498242 0.9390 0.9390 0.9390 0.9390 0.9390
5.533000 0.9390 0.9390 0.9390 0.9390 0.9390
5.567242 0.9390 0.9390 0.9390 0.9390 0.9390
5.601000 0.9390 0.9390 0.9390 0.9390 0.9390
5.635242 0.9390 0.9390 0.9390 0.9390 0.9390
5.670000 0.9390 0.9390 0.9390 0.9380 0.9380
5.704242 0.9380 0.9360 0.9360 0.9360 0.9360
5.738000 0.9340 0.9340 0.9340 0.9340 0.9340
5.772242 0.9340 0.9340 0.9340 0.9340 0.9340
5.806000 0.9330 0.9330 0.9330 0.9310 0.9310
5.840242 0.9310 0.9310 0.9310 0.9310 0.9310
5.875000 0.9330 0.9330 0.9330 0.9330 0.9330
5.909242 0.9340 0.9340 0.9340 0.9340 0.9340
5.943000 0.9340 0.9340 0.9360 0.9360 0.9360
5.977242 0.9360 0.9380 0.9380 0.9390 0.9410
6.012000 0.9430 0.9450 0.9450 0.9450 0.9460
6.046242 0.9460 0.9460 0.9460 0.9480 0.9500
6.080000 0.9510 0.9510 0.9530 0.9550 0.9550
6.114242 0.9570 0.9570 0.9570 0.9570 0.9570
6.149000 0.9580 0.9580 0.9600 0.9580 0.9600
6.183242 0.9600 0.9600 0.9620 0.9630 0.9650
6.217000 0.9650 0.9650 0.9650 0.9650 0.9670
6.251242 0.9670 0.9670 0.9670 0.9650 0.9650
6.286000 0.9670 0.9670 0.9670 0.9670 0.9650
6.320242 0.9650 0.9650 0.9650 0.9650 0.9650
6.354000 0.9650 0.9650 0.9650 0.9630 0.9630
6.388242 0.9630 0.9620 0.9620 0.9600 0.9580
6.423000 0.9580 0.9580 0.9580 0.9570 0.9570
6.457242 0.9570 0.9580 0.9580 0.9580 0.9580
6.491000 0.9580 0.9580 0.9570 0.9570 0.9570
6.525242 0.9570 0.9570 0.9570 0.9570 0.9570
6.559000 0.9570 0.9580 0.9580 0.9600 0.9600
6.593242 0.9600 0.9600 0.9620 0.9620 0.9620
6.628000 0.9620 0.9620 0.9630 0.9620 0.9600
6.662242 0.9600 0.9600 0.9580 0.9600 0.9580
6.696000 0.9580 0.9580 0.9580 0.9570 0.9550
6.730242 0.9530 0.9510 0.9510 0.9480 0.9360
6.765000 0.9240 0.8970 0.8670 0.8540 0.8380
6.799242 0.8090 0.7870 0.7590 0.7510 0.7220
6.833000 0.7150 0.7080 0.7030 0.7010 0.7010
6.867242 0.6990 0.6990 0.7010 0.7030 0.7080
6.902000 0.7250 0.7340 0.7420 0.7590 0.7950
6.936242 0.8040 0.8210 0.8330 0.8450 0.8620
6.970000 0.8710 0.8790 0.8880 0.8980 0.9030
7.004242 0.9070 0.9120 0.9150 0.9190 0.9190
7.039000 0.9190 0.9210 0.9220 0.9260 0.9290
7.073242 0.9330 0.9360 0.9390 0.9430 0.9460
7.107000 0.9460 0.9500 0.9510 0.9530 0.9530
7.141242 0.9530 0.9530 0.9530 0.9530 0.9530
7.175000 0.9530 0.9530 0.9510 0.9240 0.9020
7.209242 0.8970 0.8790 0.8660 0.8590 0.8500
7.244000 0.8310 0.8260 0.8260 0.8310 0.8350
7.278242 0.8420 0.8500 0.8550 0.8660 0.8690
7.312000 0.8710 0.8760 0.8810 0.8860 0.8930
7.346242 0.9000 0.9070 0.9100 0.9190 0.9210
7.381000 0.9220 0.9270 0.9310 0.9330 0.9340
7.415242 0.9360 0.9380 0.9380 0.9390 0.9410
7.449000 0.9430 0.9430 0.9450 0.9450 0.9460
7.483242 0.9460 0.9480 0.9500 0.9510 0.9510
7.518000 0.9530 0.9530 0.9550 0.9550 0.9550
7.552242 0.9570 0.9580 0.9580 0.9580 0.9580
7.586000 0.9600 0.9600 0.9600 0.9600 0.9600
7.620242 0.9620 0.9620 0.9620 0.9620 0.9620
7.655000 0.9630 0.9630 0.9650 0.9650 0.9650
7.689242 0.9650 0.9650 0.9670 0.9670 0.9670
7.723000 0.9670 0.9670 0.9670 0.9670 0.9670
7.757242 0.9670 0.9670 0.9670 0.9670 0.9670
7.792000 0.9670 0.9670 0.9670 0.9670 0.9670
7.826242 0.9670 0.9670 0.9690 0.9670 0.9690
7.860000 0.9690 0.9690 0.9700 0.9690 0.9700
7.894242 0.9700 0.9700 0.9700 0.9720 0.9720
7.928000 0.9720 0.9720 0.9720 0.9720 0.9720
7.962242 0.9720 0.9740 0.9740 0.9740 0.9740
7.997000 0.9740 0.9740 0.9740 0.9740 0.9740
8.031242 0.9750 0.9750 0.9750 0.9750 0.9750
8.065000 0.9750 0.9750 0.9750 0.9750 0.9750
8.099242 0.9750 0.9750 0.9750 0.9750 0.9750
8.134000 0.9750 0.9750 0.9750 0.9750 0.9750
8.168242 0.9750 0.9750 0.9750 0.9750 0.9750
8.202000 0.9750 0.9750 0.9750 0.9750 0.9770
8.236242 0.9770 0.9770 0.9770 0.9770 0.9770
8.271000 0.9770 0.9770 0.9770 0.9770 0.9770
8.305242 0.9770 0.9770 0.9770 0.9770 0.9770
8.339000 0.9770 0.9770 0.9770 0.9770 0.9770
8.373242 0.9790 0.9790 0.9810 0.9810 0.9770
8.408000 0.9820 0.9820 0.9820 0.9820 0.9820
8.442242 0.9820 0.9820 0.9840 0.9840 0.9840
8.476000 0.9840 0.9840 0.9840 0.9840 0.9860
8.510242 0.9860 0.9860 0.9860 0.9860 0.9860
8.544000 0.9860 0.9860 0.9860 0.9860 0.9860
8.578242 0.9860 0.9860 0.9860 0.9860 0.9840
8.613000 0.9860 0.9860 0.9840 0.9840 0.9840
8.647242 0.9840 0.9840 0.9840 0.9840 0.9820
8.681000 0.9820 0.9820 0.9820 0.9820 0.9820
8.715242 0.9820 0.9810 0.9810 0.9810 0.9810
8.750000 0.9810 0.9810 0.9810 0.9810 0.9790
8.784242 0.9810 0.9790 0.9770 0.9770 0.9770
8.818000 0.9770 0.9770 0.9770 0.9770 0.9770
8.852242 0.9770 0.9770 0.9770 0.9770 0.9750
8.887000 0.9750 0.9750 0.9750 0.9750 0.9750
8.921242 0.9750 0.9750 0.9750 0.9750 0.9750
8.955000 0.9750 0.9750 0.9750 0.9750 0.9750
8.989242 0.9750 0.9770 0.9770 0.9750 0.9750
9.024000 0.9750 0.9750 0.9750 0.9750 0.9750
9.058242 0.9750 0.9750 0.9750 0.9750 0.9750
9.092000 0.9750 0.9750 0.9750 0.9750 0.9750
9.126242 0.9750 0.9750 0.9750 0.9750 0.9750
9.161000 0.9750 0.9750 0.9750 0.9750 0.9750
9.195242 0.9740 0.9740 0.9750 0.9750 0.9750
9.229000 0.9750 0.9750 0.9770 0.9770 0.9770
9.263242 0.9770 0.9770 0.9770 0.9770 0.9770
9.297000 0.9770 0.9770 0.9770 0.9770 0.9770
9.331242 0.9770 0.9770 0.9770 0.9770 0.9770
9.366000 0.9770 0.9770 0.9770 0.9770 0.9790
9.400242 0.9770 0.9770 0.9750 0.9750 0.9750
9.434000 0.9740 0.9720 0.9720 0.9720 0.9720
9.468242 0.9720 0.9720 0.9700 0.9700 0.9690
9.503000 0.9690 0.9690 0.9690 0.9690 0.9690
9.537242 0.9670 0.9670 0.9670 0.9670 0.9670
9.571000 0.9670 0.9690 0.9670 0.9670 0.9670
9.605242 0.9650 0.9670 0.9670 0.9690 0.9670
9.640000 0.9670 0.9670 0.9670 0.9670 0.9670
9.674242 0.9670 0.9670 0.9670 0.9670 0.9670
9.708000 0.9670 0.9670 0.9670 0.9670 0.9670
9.742242 0.9670 0.9670 0.9670 0.9670 0.9670
9.777000 0.9670 0.9670 0.9670 0.9670 0.9670
9.811242 0.9670 0.9670 0.9670 0.9670 0.9670
9.845000 0.9670 0.9670 0.9670 0.9670 0.9650
9.879242 0.9650 0.9650 0.9650 0.9650 0.9650
9.914000 0.9650 0.9630 0.9630 0.9630 0.9620
9.948242 0.9600 0.9600 0.9600 0.9580 0.9580
9.982000 0.9580 0.9580 0.9580 0.9580 0.9580
10.016242 0.9570 0.9550 0.9570 0.9570 0.9570
10.050000 0.9570 0.9550 0.9550 0.9530 0.9530
10.084242 0.9530 0.9510 0.9480 0.9480 0.9480
10.119000 0.9480 0.9460 0.9430 0.9430 0.9430
10.153242 0.9410 0.9410 0.9380 0.9360 0.9360
10.187000 0.9330 0.9310 0.9270 0.9260 0.9240
10.221242 0.9210 0.9170 0.9120 0.9090 0.9050
10.256000 0.9030 0.9000 0.8970 0.8910 0.8860
10.290242 0.8810 0.8760 0.8690 0.8620 0.8570
10.324000 0.8500 0.8420 0.8310 0.8110 0.7890
10.358242 0.7530 0.7390 0.7180 0.7100 0.6990
10.393000 0.6770 0.6510 0.6340 0.6150 0.5880
10.427242 0.5720 0.5550 0.5300 0.5110 0.4950
10.461000 0.4760 0.4630 0.4540 0.4400 0.4330
10.495242 0.4250 0.4080 0.3990 0.3870 0.3790
10.530000 0.3720 0.3650 0.3560 0.3480 0.3390
10.564242 0.3310 0.3270 0.3220 0.3170 0.3120
10.598000 0.3080 0.3050 0.3010 0.2980 0.2930
10.632242 0.2890 0.2880 0.2840 0.2840 0.2830
10.666000 0.2810 0.2810 0.2810 0.2830 0.2810
10.700242 0.2810 0.2810 0.2810 0.2810 0.2810
10.735000 0.2790 0.2790 0.2790 0.2790 0.2790
10.769242 0.2790 0.2790 0.2790 0.2790 0.2810
10.803000 0.2810 0.2810 0.2810 0.2810 0.2810
10.837242 0.2810 0.2830 0.2840 0.2830 0.2830
10.872000 0.2830 0.2830 0.2830 0.2830 0.2830
10.906242 0.2830 0.2830 0.2830 0.2830 0.2810
10.940000 0.2760 0.2720 0.2690 0.2640 0.2620
10.974242 0.2570 0.2550 0.2520 0.2480 0.2450
11.009000 0.2410 0.2380 0.2340 0.2290 0.2260
11.043242 0.2190 0.2090 0.2050 0.2020 0.2000
11.077000 0.1900 0.1880 0.1800 0.1780 0.1740
11.111242 0.1730 0.1710 0.1660 0.1640 0.1620
11.146000 0.1610 0.1570 0.1560 0.1560 0.1540
11.180242 0.1540 0.1520 0.1500 0.1500 0.1490
11.214000 0.1450 0.1450 0.1450 0.1440 0.1440
11.248242 0.1440 0.1420 0.1420 0.1420 0.1420
11.283000 0.1420 0.1400 0.1400 0.1400 0.1400
11.317242 0.1400 0.1400 0.1400 0.1400 0.1380
11.351000 0.1380 0.1380 0.1380 0.1380 0.1370
11.385242 0.1370 0.1370 0.1350 0.1350 0.1350
11.419000 0.1350 0.1350 0.1350 0.1350 0.1330
11.453242 0.1330 0.1330 0.1330 0.1330 0.1330
11.488000 0.1320 0.1320 0.1300 0.1300 0.1300
11.522242 0.1300 0.1300 0.1300 0.1280 0.1260
11.556000 0.1260 0.1260 0.1250 0.1250 0.1250
11.590242 0.1230 0.1230 0.1230 0.1230 0.1210
11.625000 0.1210 0.1210 0.1230 0.1230 0.1230
11.659242 0.1210 0.1210 0.1210 0.1200 0.1200
11.693000 0.1180 0.1160 0.1160 0.1160 0.1160
11.727242 0.1160 0.1140 0.1140 0.1140 0.1130
11.762000 0.1140 0.1140 0.1140 0.1140 0.1140
11.796242 0.1130 0.1140 0.1160 0.1180 0.1200
11.830000 0.1230 0.1300 0.1350 0.1400 0.1520
11.864242 0.1620 0.1730 0.1810 0.1970 0.2070
11.899000 0.2210 0.2450 0.2620 0.2840 0.3320
11.933242 0.3490 0.3670 0.3770 0.3960 0.4080
11.967000 0.4230 0.4420 0.4510 0.4590 0.4690
12.001242 0.4780 0.4870 0.4930 0.5000 0.5060
12.035000 0.5140 0.5230 0.5310 0.5380 0.5430
12.069242 0.5500 0.5590 0.5660 0.5810 0.5840
12.104000 0.5900 0.5960 0.6020 0.6070 0.6080
12.138242 0.6190 0.6270 0.6340 0.6410 0.6480
12.172000 0.6550 0.6600 0.6650 0.6720 0.6770
12.206242 0.6840 0.6910 0.6980 0.7030 0.7040
12.241000 0.7060 0.7100 0.7200 0.7230 0.7270
12.275242 0.7300 0.7340 0.7370 0.7400 0.7420
12.309000 0.7440 0.7470 0.7490 0.7530 0.7530
12.343242 0.7540 0.7580 0.7610 0.7630 0.7650
12.378000 0.7660 0.7680 0.7710 0.7730 0.7750
12.412242 0.7780 0.7780 0.7800 0.7820 0.7830
12.446000 0.7850 0.7850 0.7870 0.7900 0.7920
12.480242 0.7920 0.7940 0.7950 0.7990 0.8010
12.515000 0.8010 0.8020 0.8040 0.8040 0.8040
12.549242 0.8060 0.8060 0.8070 0.8070 0.8110
12.583000 0.8130 0.8130 0.8140 0.8140 0.8160
12.617242 0.8190 0.8210 0.8210 0.8230 0.8230
12.652000 0.8230 0.8250 0.8250 0.8250 0.8260
12.686242 0.8260 0.8260 0.8280 0.8280 0.8280
12.720000 0.8300 0.8300 0.8300 0.8310 0.8310
12.754242 0.8330 0.8330 0.8350 0.8350 0.8350
12.788000 0.8350 0.8350 0.8370 0.8350 0.8380
12.822242 0.8380 0.8400 0.8400 0.8400 0.8400
12.857000 0.8400 0.8420 0.8420 0.8420 0.8430
12.891242 0.8430 0.8450 0.8450 0.8450 0.8450
12.925000 0.8450 0.8470 0.8470 0.8470 0.8490
12.959242 0.8490 0.8500 0.8500 0.8500 0.8520
12.994000 0.8520 0.8520 0.8520 0.8540 0.8540
13.028242 0.8540 0.8550 0.8570 0.8570 0.8550
13.062000 0.8570 0.8570 0.8590 0.8590 0.8610
13.096242 0.8610 0.8620 0.8620 0.8640 0.8640
13.131000 0.8640 0.8660 0.8660 0.8660 0.8660
13.165242 0.8660 0.8670 0.8690 0.8670 0.8690
13.199000 0.8710 0.8730 0.8740 0.8740 0.8740
13.233242 0.8760 0.8760 0.8780 0.8790 0.8790
13.268000 0.8810 0.8830 0.8830 0.8850 0.8860
13.302242 0.8860 0.8860 0.8860 0.8880 0.8880
13.336000 0.8900 0.8910 0.8910 0.8930 0.8930
13.370242 0.8930 0.8930 0.8950 0.8950 0.8970
13.404000 0.8980 0.8980 0.8980 0.8980 0.9000
13.438242 0.8980 0.9000 0.9000 0.9000 0.9000
13.473000 0.9000 0.9000 0.9000 0.9000 0.9000
13.507242 0.9000 0.9000 0.8980 0.8980 0.8980
13.541000 0.8980 0.8980 0.8980 0.8980 0.8980
13.575242 0.8980 0.8980 0.8980 0.8980 0.8980
13.610000 0.8980 0.8980 0.9000 0.9000 0.9000
13.644242 0.9000 0.9000 0.9000 0.9000 0.9000
13.678000 0.9000 0.9000 0.9000 0.9000 0.9000
13.712242 0.9000 0.9000 0.9000 0.9000 0.9000
13.747000 0.9000 0.9000 0.9000 0.9000 0.9000
13.781242 0.9000 0.8980 0.8980 0.8980 0.8980
13.815000 0.8980 0.8980 0.8980 0.8980 0.8980
13.849242 0.8980 0.8980 0.8980 0.8980 0.8980
13.884000 0.8980 0.8980 0.8980 0.8980 0.8980
13.918242 0.8980 0.8970 0.8970 0.8970 0.8970
13.952000 0.8980 0.8980 0.8980 0.8980 0.8980
13.986242 0.8970 0.8970 0.8970 0.8970 0.8980
14.021000 0.8980 0.8980 0.8980 0.8980 0.8980
14.055242 0.8980 0.8980 0.8980 0.8980 0.8980
14.089000 0.8980 0.8980 0.8980 0.8980 0.8980
14.123242 0.8980 0.8980 0.8980 0.9000 0.9000
14.157000 0.9000 0.9000 0.8980 0.8980 0.8980
14.191242 0.8980 0.8980 0.8970 0.8970 0.8970
14.226000 0.8970 0.8970 0.8950 0.8950 0.8950
14.260242 0.8950 0.8950 0.8950 0.8950 0.8930
14.294000 0.8930 0.8930 0.8930 0.8930 0.8930
14.328242 0.8930 0.8910 0.8910 0.8910 0.8910
14.363000 0.8900 0.8900 0.8900 0.8880 0.8880
14.397242 0.8860 0.8880 0.8860 0.8860 0.8860
14.431000 0.8850 0.8830 0.8830 0.8810 0.8810
14.465242 0.8790 0.8790 0.8790 0.8780 0.8740
14.500000 0.8740 0.8730 0.8730 0.8730 0.8710
14.534242 0.8710 0.8690 0.8690 0.8670 0.8660
14.568000 0.8640 0.8640 0.8640 0.8620 0.8610
14.602242 0.8590 0.8570 0.8570 0.8570 0.8550
14.637000 0.8540 0.8540 0.8540 0.8540 0.8520
14.671242 0.8500 0.8500 0.8500 0.8490 0.8470
14.705000 0.8450 0.8450 0.8450 0.8430 0.8430
14.739242 0.8420 0.8430 0.8430 0.8420 0.8420
14.773000 0.8400 0.8380 0.8370 0.8350 0.8330
14.807242 0.8330 0.8330 0.8310 0.8310 0.8300
14.842000 0.8300 0.8260 0.8250 0.8250 0.8250
14.876242 0.8230 0.8230 0.8210 0.8210 0.8190
14.910000 0.8180 0.8180 0.8160 0.8140 0.8140
14.944242 0.8140 0.8130 0.8110 0.8110 0.8110
14.979000 0.8110 0.8090 0.8070 0.8060 0.8060
15.013242 0.8040 0.8040 0.8040 0.8020 0.8020
15.047000 0.8020 0.8010 0.8010 0.8010 0.7990
15.081242 0.7970 0.7950 0.7950 0.7940 0.7920
15.116000 0.7920 0.7900 0.7900 0.7900 0.7890
15.150242 0.7870 0.7850 0.7850 0.7830 0.7830
15.184000 0.7830 0.7820 0.7820 0.7800 0.7780
15.218242 0.7770 0.7750 0.7750 0.7730 0.7730
15.253000 0.7730 0.7710 0.7700 0.7700 0.7680
15.287242 0.7680 0.7650 0.7650 0.7650 0.7630
15.321000 0.7630 0.7610 0.7610 0.7590 0.7590
15.355242 0.7560 0.7540 0.7540 0.7530 0.7530
15.390000 0.7530 0.7530 0.7510 0.7510 0.7510
15.424242 0.7490 0.7470 0.7470 0.7470 0.7460
15.458000 0.7440 0.7440 0.7420 0.7420 0.7420
15.492242 0.7400 0.7400 0.7390 0.7370 0.7350
15.526000 0.7350 0.7350 0.7350 0.7350 0.7340
15.560242 0.7340 0.7320 0.7320 0.7300 0.7300
15.595000 0.7280 0.7280 0.7270 0.7250 0.7250
15.629242 0.7230 0.7230 0.7220 0.7200 0.7220
15.663000 0.7200 0.7200 0.7200 0.7200 0.7200
15.697242 0.7180 0.7160 0.7160 0.7150 0.7150
15.732000 0.7150 0.7130 0.7130 0.7130 0.7110
15.766242 0.7110 0.7100 0.7100 0.7080 0.7060
15.800000 0.7040 0.7030 0.7040 0.7030 0.7030
15.834242 0.7030 0.7010 0.6990 0.6990 0.6980
15.869000 0.6980 0.6980 0.6960 0.6960 0.6960
15.903242 0.6940 0.6940 0.6920 0.6920 0.6910
15.937000 0.6910 0.6890 0.6890 0.6870 0.6870
15.971242 0.6860 0.6800 0.6890 0.6870 0.6870
16.006000 0.6860
##END=
