##TITLE=2-HYDROXY-3-(N-HEXYLAMINO) PROPYL-TRIMETHYLAMMONIUM p-TOSYLATE
##JCAMP-DX=4.24
##DATA TYPE=INFRARED SPECTRUM
##CLASS=COBLENTZ
##ORIGIN=EASTMAN KODAK COMPANY, RESEARCH LABORATORIES, ROCHESTER, N.Y.
##OWNER=COBLENTZ SOCIETY
Collection (C) 2018 copyright by the U.S. Secretary of Commerce
on behalf of the United States of America. All rights reserved.
##DATE=Not specified, most likely prior to 1970
##MOLFORM=C19 H36 N2 O4 S
##MP=117.5-120 C
##SOURCE REFERENCE=COBLENTZ NO. 4422
##$NIST ID=B6004422
##$NIST SOURCE=COBLENTZ
##$NIST IMAGE=cob4422
##SPECTROMETER/DATA SYSTEM=Not specified, most likely a prism, grating, or hybrid spectrometer.
##STATE=SOLID (KBr PELLET)
##PATH LENGTH=
$$ SEE J. ORG. CHEM., VOL. 28, PAGE 2283 (1963)
##SAMPLING PROCEDURE=TRANSMISSION
##RESOLUTION=4
##DATA PROCESSING=DIGITIZED BY NIST FROM HARD COPY
##XUNITS=MICROMETERS
##YUNITS=TRANSMITTANCE
##XFACTOR=1.000000
##YFACTOR=1
##DELTAX=000.006667
##FIRSTX=2.04
##LASTX=16.013
##FIRSTY=0.75
##MAXX=16.013
##MINX=2.04
##MAXY=0.949
##MINY=0.068
##NPOINTS=2097
##XYDATA=(X++(Y..Y))
2.040000 0.7500 0.7490 0.7470 0.7470 0.7450
2.073349 0.7400 0.7390 0.7390 0.7390 0.7400
2.107000 0.7420 0.7440 0.7450 0.7450 0.7450
2.140349 0.7440 0.7440 0.7420 0.7420 0.7400
2.173000 0.7400 0.7400 0.7400 0.7400 0.7390
2.206349 0.7390 0.7390 0.7390 0.7390 0.7390
2.240000 0.7390 0.7390 0.7390 0.7400 0.7400
2.273349 0.7400 0.7400 0.7400 0.7420 0.7440
2.307000 0.7450 0.7490 0.7520 0.7550 0.7570
2.340349 0.7600 0.7620 0.7620 0.7620 0.7620
2.373000 0.7620 0.7630 0.7670 0.7680 0.7720
2.406349 0.7750 0.7780 0.7860 0.7860 0.7880
2.440000 0.7880 0.7860 0.7860 0.7860 0.7860
2.473349 0.7860 0.7860 0.7860 0.7860 0.7850
2.507000 0.7850 0.7850 0.7860 0.7860 0.7880
2.540349 0.7910 0.7950 0.7960 0.7960 0.7960
2.573000 0.7960 0.7960 0.7960 0.7980 0.8000
2.606349 0.8030 0.8040 0.8060 0.8080 0.8080
2.640000 0.8080 0.8090 0.8090 0.8110 0.8110
2.673349 0.8130 0.8130 0.8140 0.8140 0.8140
2.707000 0.8130 0.8080 0.8080 0.8080 0.8060
2.740349 0.8040 0.8000 0.7960 0.7930 0.7860
2.773000 0.7780 0.7720 0.7520 0.7360 0.7240
2.806349 0.7130 0.7090 0.7060 0.7010 0.6960
2.840000 0.6880 0.6800 0.6720 0.6630 0.6570
2.873349 0.6470 0.6370 0.6220 0.6060 0.5850
2.907000 0.5590 0.5390 0.5190 0.5060 0.5010
2.940349 0.4860 0.4680 0.4570 0.4420 0.4270
2.973000 0.4260 0.4110 0.3900 0.3670 0.3490
3.006349 0.3400 0.3340 0.3270 0.3060 0.2860
3.040000 0.2810 0.2650 0.2550 0.2550 0.2670
3.073349 0.2910 0.3160 0.3320 0.4180 0.4630
3.107000 0.4810 0.5160 0.5190 0.5290 0.5320
3.140349 0.5470 0.5600 0.5800 0.5980 0.6080
3.173000 0.6320 0.6440 0.6590 0.6860 0.7030
3.206349 0.7180 0.7210 0.7260 0.7290 0.7340
3.240000 0.7370 0.7390 0.7390 0.7370 0.7340
3.273349 0.7270 0.7190 0.6780 0.6700 0.6550
3.307000 0.6390 0.6390 0.6600 0.6800 0.6900
3.340349 0.7010 0.7140 0.7160 0.6620 0.6080
3.373000 0.5550 0.5010 0.4420 0.3860 0.3780
3.406349 0.3770 0.3600 0.3420 0.3220 0.2680
3.440000 0.2680 0.4000 0.5390 0.5360 0.4810
3.473349 0.4680 0.4550 0.3960 0.3650 0.3440
3.507000 0.3440 0.3950 0.4370 0.4700 0.4830
3.540349 0.4880 0.4960 0.5140 0.5360 0.5590
3.573000 0.6060 0.6520 0.7010 0.7260 0.7370
3.606349 0.7440 0.7470 0.7470 0.7490 0.7490
3.640000 0.7520 0.7590 0.7670 0.7720 0.7720
3.673349 0.7730 0.7750 0.7800 0.7980 0.8010
3.707000 0.8080 0.8080 0.8090 0.8110 0.8160
3.740349 0.8180 0.8190 0.8210 0.8220 0.8260
3.773000 0.8290 0.8360 0.8370 0.8390 0.8390
3.806349 0.8390 0.8400 0.8400 0.8400 0.8400
3.840000 0.8470 0.8490 0.8540 0.8570 0.8500
3.873349 0.8490 0.8490 0.8470 0.8490 0.8540
3.907000 0.8620 0.8670 0.8680 0.8720 0.8720
3.940349 0.8700 0.8650 0.8650 0.8680 0.8700
3.973000 0.8730 0.8770 0.8780 0.8830 0.8880
4.006349 0.8900 0.8900 0.8880 0.8860 0.8850
4.040000 0.8860 0.8880 0.8880 0.8900 0.8900
4.073349 0.8900 0.8900 0.8910 0.8910 0.8930
4.107000 0.8930 0.8960 0.8960 0.8960 0.8980
4.140349 0.8980 0.8980 0.8960 0.8960 0.8950
4.173000 0.8950 0.8930 0.8910 0.8900 0.8800
4.206349 0.8800 0.8860 0.8880 0.8980 0.8980
4.240000 0.9010 0.9030 0.9060 0.9090 0.9110
4.273349 0.9140 0.9180 0.9160 0.9180 0.9190
4.307000 0.9190 0.9190 0.9210 0.9220 0.9260
4.340349 0.9270 0.9290 0.9290 0.9290 0.9290
4.373000 0.9270 0.9260 0.9260 0.9260 0.9220
4.406349 0.9210 0.9210 0.9210 0.9240 0.9240
4.440000 0.9210 0.9180 0.9130 0.9110 0.9110
4.473349 0.9110 0.9110 0.9130 0.9130 0.9140
4.507000 0.9180 0.9180 0.9130 0.9110 0.9130
4.540349 0.9110 0.9110 0.9110 0.9090 0.9090
4.573000 0.9090 0.9110 0.9110 0.9130 0.9140
4.606349 0.9180 0.9210 0.9210 0.9220 0.9270
4.640000 0.9270 0.9310 0.9370 0.9370 0.9310
4.673349 0.9290 0.9270 0.9290 0.9310 0.9320
4.707000 0.9340 0.9360 0.9370 0.9370 0.9390
4.740349 0.9390 0.9420 0.9450 0.9490 0.9490
4.773000 0.9490 0.9490 0.9490 0.9470 0.9470
4.806349 0.9440 0.9420 0.9390 0.9390 0.9360
4.840000 0.9310 0.9310 0.9320 0.9360 0.9390
4.873349 0.9390 0.9370 0.9370 0.9360 0.9370
4.907000 0.9370 0.9370 0.9370 0.9320 0.9320
4.940349 0.9320 0.9310 0.9310 0.9370 0.9370
4.973000 0.9370 0.9370 0.9370 0.9340 0.9340
5.006349 0.9370 0.9370 0.9370 0.9360 0.9340
5.040000 0.9320 0.9320 0.9340 0.9360 0.9360
5.073349 0.9360 0.9340 0.9320 0.9320 0.9310
5.107000 0.9290 0.9290 0.9290 0.9290 0.9290
5.140349 0.9290 0.9310 0.9340 0.9390 0.9400
5.173000 0.9400 0.9370 0.9340 0.9320 0.9290
5.206349 0.9270 0.9270 0.9270 0.9260 0.9260
5.240000 0.9270 0.9290 0.9340 0.9390 0.9400
5.273349 0.9400 0.9400 0.9400 0.9400 0.9420
5.307000 0.9440 0.9450 0.9470 0.9470 0.9470
5.340349 0.9470 0.9450 0.9440 0.9400 0.9440
5.373000 0.9470 0.9490 0.9490 0.9490 0.9450
5.406349 0.9420 0.9370 0.9360 0.9360 0.9370
5.440000 0.9390 0.9420 0.9440 0.9470 0.9470
5.473349 0.9450 0.9440 0.9400 0.9390 0.9370
5.507000 0.9340 0.9320 0.9290 0.9270 0.9270
5.540349 0.9270 0.9290 0.9340 0.9370 0.9370
5.573000 0.9390 0.9390 0.9400 0.9420 0.9450
5.606349 0.9490 0.9490 0.9440 0.9420 0.9390
5.640000 0.9310 0.9360 0.9390 0.9390 0.9400
5.673349 0.9390 0.9390 0.9360 0.9340 0.9310
5.707000 0.9290 0.9270 0.9270 0.9290 0.9290
5.740349 0.9370 0.9390 0.9390 0.9370 0.9340
5.773000 0.9310 0.9320 0.9320 0.9310 0.9310
5.806349 0.9270 0.9220 0.9210 0.9210 0.9190
5.840000 0.9190 0.9190 0.9220 0.9260 0.9270
5.873349 0.9270 0.9270 0.9270 0.9270 0.9270
5.907000 0.9270 0.9270 0.9270 0.9270 0.9260
5.940349 0.9260 0.9260 0.9220 0.9210 0.9210
5.973000 0.9210 0.9180 0.9160 0.9110 0.9060
6.006349 0.9030 0.8880 0.8850 0.8780 0.8770
6.040000 0.8730 0.8720 0.8720 0.8730 0.8770
6.073349 0.8800 0.8880 0.8900 0.8900 0.8800
6.107000 0.8780 0.8780 0.8810 0.8810 0.8700
6.140349 0.8670 0.8620 0.8570 0.8520 0.8500
6.173000 0.8520 0.8600 0.8800 0.8800 0.8680
6.206349 0.8670 0.8620 0.8590 0.8360 0.8290
6.240000 0.8190 0.8180 0.8210 0.8360 0.8500
6.273349 0.8700 0.8880 0.8980 0.9000 0.9000
6.307000 0.8980 0.8900 0.8780 0.8770 0.8770
6.340349 0.8780 0.8810 0.8900 0.8980 0.8980
6.373000 0.8930 0.8900 0.8780 0.8770 0.8780
6.406349 0.8780 0.8800 0.8800 0.8810 0.8860
6.440000 0.8880 0.8880 0.8810 0.8800 0.8810
6.473349 0.8830 0.8880 0.8880 0.8900 0.8910
6.507000 0.8910 0.8930 0.8930 0.8900 0.8830
6.540349 0.8800 0.8770 0.8770 0.8770 0.8770
6.573000 0.8730 0.8700 0.8600 0.8450 0.8290
6.606349 0.8180 0.8110 0.8090 0.8080 0.8030
6.640000 0.7630 0.7180 0.6780 0.6630 0.6490
6.673349 0.6090 0.5400 0.4910 0.3980 0.3540
6.707000 0.3440 0.3420 0.3420 0.3440 0.3450
6.740349 0.3500 0.3600 0.3950 0.4270 0.4440
6.773000 0.4450 0.4450 0.4470 0.4520 0.4630
6.806349 0.4750 0.4860 0.4930 0.5080 0.5160
6.840000 0.5160 0.5190 0.5210 0.5240 0.5260
6.873349 0.5360 0.5450 0.5490 0.5600 0.5770
6.907000 0.6060 0.6420 0.6450 0.6780 0.6850
6.940349 0.6960 0.6980 0.7080 0.7080 0.7110
6.973000 0.7110 0.6950 0.6950 0.6980 0.7080
7.006349 0.7160 0.7260 0.7310 0.7390 0.7490
7.040000 0.7520 0.7540 0.7540 0.7550 0.7550
7.073349 0.7540 0.7520 0.7370 0.7190 0.7160
7.107000 0.7160 0.7210 0.7270 0.7390 0.7470
7.140349 0.7490 0.7490 0.7470 0.7470 0.7400
7.173000 0.7370 0.7360 0.7310 0.7290 0.7310
7.206349 0.7340 0.7370 0.7470 0.7540 0.7550
7.240000 0.7570 0.7290 0.7190 0.7110 0.7010
7.273349 0.7000 0.7010 0.7160 0.7310 0.7450
7.307000 0.7570 0.7550 0.7470 0.7390 0.7270
7.340349 0.7220 0.7190 0.7190 0.7270 0.7320
7.373000 0.7470 0.7620 0.7780 0.7780 0.7700
7.406349 0.7420 0.7090 0.6810 0.6700 0.6590
7.440000 0.6190 0.6110 0.6060 0.6040 0.6060
7.473349 0.6080 0.6110 0.6180 0.6630 0.7490
7.507000 0.7850 0.8040 0.8080 0.8090 0.8110
7.540349 0.8110 0.8060 0.8030 0.8000 0.7980
7.573000 0.7960 0.7930 0.7910 0.7900 0.7750
7.606349 0.7490 0.7220 0.7000 0.6750 0.6630
7.640000 0.6500 0.6500 0.6590 0.7000 0.7190
7.673349 0.7400 0.7550 0.7750 0.7880 0.7900
7.707000 0.7910 0.7910 0.7910 0.8010 0.8080
7.740349 0.8090 0.8080 0.8080 0.8080 0.8040
7.773000 0.8030 0.8030 0.8010 0.8000 0.8000
7.806349 0.8000 0.7980 0.7980 0.8000 0.8030
7.840000 0.8140 0.8260 0.8260 0.8210 0.8180
7.873349 0.8180 0.8110 0.8110 0.8110 0.8190
7.907000 0.8180 0.8090 0.8000 0.7980 0.7930
7.940349 0.7900 0.7810 0.7800 0.7750 0.7700
7.973000 0.7600 0.7520 0.7420 0.7400 0.7370
8.006349 0.7370 0.7310 0.7270 0.7190 0.7160
8.040000 0.7010 0.6980 0.6810 0.6770 0.6680
8.073349 0.6630 0.6590 0.6540 0.6290 0.6080
8.107000 0.5490 0.5290 0.4980 0.4680 0.4440
8.140349 0.4010 0.3620 0.3320 0.3030 0.2600
8.173000 0.2290 0.2040 0.1620 0.1270 0.1030
8.206349 0.0770 0.0730 0.0700 0.0680 0.0700
8.240000 0.0780 0.0900 0.1110 0.1320 0.1390
8.273349 0.1470 0.1500 0.1700 0.2000 0.2190
8.307000 0.2210 0.2370 0.2470 0.2500 0.2600
8.340349 0.2770 0.2810 0.2960 0.2960 0.2880
8.373000 0.2800 0.2780 0.2450 0.2240 0.1980
8.406349 0.1700 0.1470 0.1190 0.1000 0.0900
8.440000 0.0830 0.0750 0.0720 0.0770 0.0880
8.473349 0.1090 0.1240 0.1570 0.2040 0.2650
8.507000 0.2960 0.3090 0.3080 0.2880 0.2850
8.540349 0.2750 0.2110 0.2110 0.2390 0.2720
8.573000 0.3010 0.3630 0.4010 0.4310 0.4550
8.606349 0.4780 0.4810 0.4980 0.5180 0.5400
8.640000 0.5500 0.5780 0.5980 0.6140 0.6270
8.673349 0.6370 0.6490 0.6570 0.6550 0.6520
8.707000 0.6440 0.6270 0.6000 0.5370 0.5240
8.740349 0.5140 0.5090 0.5160 0.5260 0.5290
8.773000 0.5290 0.5270 0.5260 0.5210 0.5160
8.806349 0.5080 0.4980 0.4880 0.4590 0.4220
8.840000 0.3700 0.3180 0.2910 0.2900 0.2900
8.873349 0.2880 0.2880 0.2860 0.2730 0.2590
8.907000 0.2360 0.2000 0.1600 0.1450 0.1360
8.940349 0.1360 0.1590 0.2030 0.2490 0.2780
8.973000 0.3190 0.3860 0.4080 0.4220 0.4360
9.006349 0.4500 0.4500 0.4390 0.4180 0.4000
9.040000 0.3550 0.3370 0.3180 0.3130 0.3080
9.073349 0.3090 0.3270 0.3770 0.4190 0.4730
9.107000 0.5010 0.5270 0.5470 0.5590 0.5680
9.140349 0.5750 0.5880 0.6000 0.6140 0.6190
9.173000 0.6270 0.6320 0.6320 0.6190 0.6090
9.206349 0.6000 0.5850 0.5810 0.5810 0.5830
9.240000 0.5980 0.6370 0.6590 0.6880 0.6980
9.273349 0.7080 0.7140 0.7240 0.7290 0.7390
9.307000 0.7440 0.7490 0.7570 0.7590 0.7620
9.340349 0.7770 0.7810 0.7880 0.7900 0.7900
9.373000 0.7930 0.7930 0.7950 0.7960 0.7960
9.406349 0.7960 0.7950 0.7930 0.7900 0.7880
9.440000 0.7780 0.7680 0.7590 0.7500 0.7490
9.473349 0.7500 0.7520 0.7570 0.7680 0.7750
9.507000 0.7810 0.7880 0.7910 0.7930 0.7900
9.540349 0.7880 0.7830 0.7730 0.7540 0.7370
9.573000 0.7210 0.7180 0.6980 0.6780 0.6520
9.606349 0.6260 0.5490 0.5180 0.4680 0.3730
9.640000 0.3040 0.2360 0.1830 0.1110 0.1110
9.673349 0.1390 0.1750 0.2500 0.3010 0.4080
9.707000 0.4620 0.5110 0.5270 0.5590 0.5980
9.740349 0.6130 0.6590 0.7080 0.7420 0.7520
9.773000 0.7800 0.7900 0.7930 0.7960 0.7980
9.806349 0.8000 0.7960 0.7700 0.7420 0.7270
9.840000 0.6770 0.6240 0.5090 0.3900 0.3160
9.873349 0.2400 0.1490 0.1110 0.1110 0.1210
9.907000 0.2290 0.2730 0.3190 0.4500 0.4950
9.940349 0.5370 0.5680 0.5860 0.6040 0.6110
9.973000 0.6290 0.6590 0.7000 0.7180 0.7360
10.006349 0.7420 0.7490 0.7500 0.7500 0.7520
10.040000 0.7600 0.7700 0.7800 0.7880 0.7910
10.073349 0.8010 0.8030 0.8040 0.8040 0.8040
10.107000 0.8030 0.8000 0.8000 0.7960 0.7910
10.140349 0.7850 0.7700 0.7680 0.7600 0.7600
10.173000 0.7600 0.7590 0.7570 0.7550 0.7540
10.206349 0.7490 0.7290 0.7030 0.6810 0.6590
10.240000 0.6240 0.5500 0.5190 0.4680 0.4390
10.273349 0.4180 0.4140 0.4080 0.4000 0.3910
10.307000 0.3900 0.3880 0.3900 0.4010 0.4190
10.340349 0.4400 0.4600 0.4900 0.5470 0.5590
10.373000 0.5810 0.6080 0.6240 0.6620 0.7090
10.406349 0.7290 0.7440 0.7490 0.7680 0.7720
10.440000 0.7780 0.7880 0.7900 0.7910 0.7910
10.473349 0.7910 0.7930 0.7980 0.8000 0.8080
10.507000 0.8090 0.8090 0.8090 0.8090 0.8080
10.540349 0.8060 0.8010 0.7980 0.7950 0.7880
10.573000 0.7720 0.7650 0.7400 0.7130 0.6720
10.606349 0.6450 0.6180 0.5780 0.5390 0.5180
10.640000 0.5000 0.4880 0.4860 0.4880 0.5270
10.673349 0.5500 0.5800 0.6030 0.6240 0.6470
10.707000 0.7090 0.7210 0.7390 0.7600 0.7720
10.740349 0.7780 0.7900 0.8090 0.8260 0.8290
10.773000 0.8370 0.8400 0.8440 0.8470 0.8490
10.806349 0.8500 0.8500 0.8520 0.8540 0.8570
10.840000 0.8590 0.8590 0.8620 0.8620 0.8650
10.873349 0.8650 0.8650 0.8670 0.8670 0.8630
10.907000 0.8590 0.8550 0.8490 0.8390 0.8310
10.940349 0.8270 0.8210 0.7980 0.7680 0.7490
10.973000 0.7180 0.6980 0.6800 0.6390 0.5960
11.006349 0.5590 0.5450 0.5450 0.5590 0.5780
11.040000 0.6180 0.6390 0.7420 0.7540 0.7680
11.073349 0.7800 0.8000 0.8040 0.8190 0.8310
11.107000 0.8400 0.8490 0.8490 0.8590 0.8680
11.140349 0.8770 0.8810 0.8830 0.8860 0.8860
11.173000 0.8860 0.8860 0.8860 0.8850 0.8830
11.206349 0.8810 0.8800 0.8800 0.8800 0.8810
11.240000 0.8830 0.8850 0.8900 0.8930 0.8980
11.273349 0.9000 0.9010 0.9040 0.9060 0.9090
11.307000 0.9110 0.9180 0.9210 0.9190 0.9180
11.340349 0.9160 0.9160 0.9180 0.9220 0.9270
11.373000 0.9290 0.9290 0.9290 0.9290 0.9270
11.406349 0.9260 0.9210 0.9210 0.9210 0.9190
11.440000 0.9140 0.9130 0.9090 0.9080 0.9000
11.473349 0.8960 0.8880 0.8850 0.8420 0.8310
11.507000 0.8310 0.8340 0.8390 0.8490 0.8590
11.540349 0.8650 0.8770 0.8880 0.8960 0.9030
11.573000 0.9080 0.9130 0.9180 0.9180 0.9180
11.606349 0.9190 0.9210 0.9220 0.9220 0.9220
11.640000 0.9220 0.9210 0.9210 0.9190 0.9190
11.673349 0.9190 0.9190 0.9180 0.9140 0.9090
11.707000 0.9010 0.8950 0.8910 0.8880 0.8830
11.740349 0.8830 0.8770 0.8700 0.8680 0.8670
11.773000 0.8680 0.8680 0.8700 0.8780 0.8880
11.806349 0.8950 0.9000 0.9000 0.9000 0.9040
11.840000 0.9060 0.9030 0.8980 0.8960 0.8960
11.873349 0.8980 0.8980 0.8980 0.8980 0.9010
11.907000 0.9040 0.9080 0.9080 0.8980 0.8980
11.940349 0.8960 0.8930 0.8900 0.8900 0.8900
11.973000 0.8900 0.8900 0.8880 0.8860 0.8850
12.006349 0.8780 0.8780 0.8770 0.8700 0.8680
12.040000 0.8680 0.8680 0.8670 0.8600 0.8590
12.073349 0.8570 0.8570 0.8540 0.8440 0.8370
12.107000 0.8310 0.8240 0.8180 0.8180 0.8090
12.140349 0.8040 0.7830 0.7700 0.7520 0.7470
12.173000 0.7400 0.7370 0.7340 0.7210 0.7080
12.206349 0.6960 0.6800 0.6680 0.6630 0.6590
12.240000 0.6490 0.6260 0.6010 0.5810 0.5630
12.273349 0.5470 0.5180 0.4900 0.4520 0.3850
12.307000 0.3340 0.3240 0.3140 0.3010 0.2980
12.340349 0.2860 0.2860 0.3000 0.3270 0.3800
12.373000 0.4090 0.4370 0.4550 0.4910 0.5160
12.406349 0.5240 0.5270 0.5910 0.6000 0.6180
12.440000 0.6290 0.6340 0.6370 0.6370 0.6390
12.473349 0.6390 0.6390 0.6390 0.6370 0.6320
12.507000 0.6220 0.5850 0.5620 0.5450 0.5340
12.540349 0.5290 0.5220 0.5210 0.5190 0.5210
12.573000 0.5240 0.5340 0.5420 0.5490 0.5590
12.606349 0.5700 0.5770 0.5830 0.5880 0.6060
12.640000 0.6160 0.6190 0.6270 0.6400 0.6540
12.673349 0.6570 0.6620 0.6830 0.6930 0.7000
12.707000 0.7080 0.7130 0.7180 0.7270 0.7310
12.740349 0.7370 0.7420 0.7520 0.7550 0.7570
12.773000 0.7570 0.7600 0.7680 0.7720 0.7800
12.806349 0.7850 0.7880 0.7900 0.7900 0.7900
12.840000 0.7950 0.7950 0.8000 0.8030 0.8040
12.873349 0.8060 0.8080 0.8110 0.8140 0.8180
12.907000 0.8210 0.8220 0.8220 0.8260 0.8270
12.940349 0.8290 0.8290 0.8310 0.8310 0.8320
12.973000 0.8340 0.8360 0.8370 0.8390 0.8390
13.006349 0.8370 0.8320 0.8310 0.8310 0.8310
13.040000 0.8310 0.8240 0.8190 0.8160 0.8110
13.073349 0.8090 0.8080 0.8090 0.8160 0.8190
13.107000 0.8190 0.8190 0.8190 0.8190 0.8210
13.140349 0.8240 0.8290 0.8370 0.8400 0.8420
13.173000 0.8450 0.8520 0.8570 0.8600 0.8620
13.206349 0.8600 0.8590 0.8590 0.8600 0.8620
13.240000 0.8620 0.8620 0.8600 0.8600 0.8590
13.273349 0.8590 0.8570 0.8570 0.8570 0.8570
13.307000 0.8620 0.8670 0.8670 0.8680 0.8700
13.340349 0.8700 0.8700 0.8680 0.8680 0.8700
13.373000 0.8700 0.8720 0.8730 0.8770 0.8770
13.406349 0.8750 0.8720 0.8700 0.8680 0.8650
13.440000 0.8630 0.8600 0.8590 0.8590 0.8590
13.473349 0.8590 0.8590 0.8590 0.8590 0.8590
13.507000 0.8590 0.8590 0.8590 0.8590 0.8590
13.540349 0.8590 0.8590 0.8590 0.8590 0.8590
13.573000 0.8590 0.8570 0.8570 0.8570 0.8540
13.606349 0.8490 0.8450 0.8390 0.8370 0.8370
13.640000 0.8360 0.8340 0.8310 0.8270 0.8190
13.673349 0.8160 0.8160 0.8130 0.7960 0.7810
13.707000 0.7630 0.7550 0.7540 0.7520 0.7520
13.740349 0.7540 0.7550 0.7590 0.7670 0.7750
13.773000 0.7770 0.7800 0.7850 0.7880 0.7880
13.806349 0.7900 0.7900 0.7900 0.7900 0.7930
13.840000 0.7980 0.8000 0.8040 0.8040 0.8010
13.873349 0.8000 0.7980 0.7950 0.7810 0.7670
13.907000 0.7500 0.7370 0.7270 0.7090 0.6980
13.940349 0.6810 0.6720 0.6620 0.6520 0.6490
13.973000 0.6490 0.6540 0.6590 0.6930 0.7080
14.006349 0.7210 0.7320 0.7420 0.7470 0.7520
14.040000 0.7570 0.7570 0.7590 0.7590 0.7590
14.073349 0.7590 0.7590 0.7600 0.7600 0.7570
14.107000 0.7520 0.7500 0.7500 0.7490 0.7470
14.140349 0.7470 0.7400 0.7360 0.7340 0.7320
14.173000 0.7270 0.7260 0.7260 0.7220 0.7180
14.206349 0.7110 0.7010 0.6960 0.6860 0.6850
14.240000 0.6800 0.6770 0.6680 0.6670 0.6650
14.273349 0.6570 0.6550 0.6470 0.6370 0.6290
14.307000 0.6190 0.6140 0.6130 0.6080 0.5980
14.340349 0.5860 0.5770 0.5730 0.5550 0.5310
14.373000 0.5190 0.5160 0.5080 0.5060 0.4980
14.406349 0.4880 0.4770 0.4670 0.4570 0.4550
14.440000 0.4440 0.4310 0.4180 0.4110 0.3950
14.473349 0.3860 0.3770 0.3720 0.3620 0.3490
14.507000 0.3390 0.3360 0.3340 0.3320 0.3270
14.540349 0.3190 0.3160 0.2980 0.2680 0.2620
14.573000 0.2590 0.2570 0.2550 0.2550 0.2570
14.606349 0.2620 0.2650 0.2680 0.2720 0.2750
14.640000 0.2800 0.2830 0.2860 0.3010 0.3190
14.673349 0.3320 0.3390 0.3490 0.3620 0.3680
14.707000 0.3780 0.3900 0.4010 0.4060 0.4090
14.740349 0.4180 0.4270 0.4390 0.4570 0.4670
14.773000 0.4750 0.4770 0.4860 0.4930 0.5040
14.806349 0.5180 0.5270 0.5370 0.5390 0.5450
14.840000 0.5490 0.5570 0.5600 0.5650 0.5720
14.873349 0.5770 0.5780 0.5780 0.5780 0.5800
14.907000 0.5850 0.5950 0.5950 0.5860 0.5800
14.940349 0.5780 0.5770 0.5780 0.5800 0.5880
14.973000 0.5930 0.5960 0.6010 0.6180 0.6370
15.006349 0.6390 0.6500 0.6680 0.6620 0.6550
15.040000 0.6470 0.6420 0.6290 0.6160 0.6080
15.073349 0.6060 0.6040 0.5980 0.5960 0.5960
15.107000 0.5960 0.5960 0.5950 0.5950 0.5950
15.140349 0.5910 0.5900 0.5850 0.5830 0.5830
15.173000 0.5830 0.5810 0.5810 0.5800 0.5780
15.206349 0.5780 0.5780 0.5780 0.5770 0.5750
15.240000 0.5750 0.5730 0.5730 0.5700 0.5680
15.273349 0.5680 0.5670 0.5630 0.5620 0.5590
15.307000 0.5570 0.5570 0.5570 0.5590 0.5590
15.340349 0.5590 0.5590 0.5600 0.5600 0.5620
15.373000 0.5630 0.5650 0.5650 0.5590 0.5550
15.406349 0.5490 0.5470 0.5470 0.5450 0.5450
15.440000 0.5470 0.5470 0.5470 0.5470 0.5470
15.473349 0.5490 0.5500 0.5500 0.5520 0.5520
15.507000 0.5540 0.5550 0.5570 0.5570 0.5570
15.540349 0.5570 0.5550 0.5550 0.5550 0.5550
15.573000 0.5550 0.5540 0.5540 0.5540 0.5520
15.606349 0.5520 0.5490 0.5450 0.5450 0.5500
15.640000 0.5550 0.5550 0.5570 0.5570 0.5550
15.673349 0.5540 0.5540 0.5540 0.5550 0.5550
15.707000 0.5520 0.5500 0.5500 0.5490 0.5490
15.740349 0.5470 0.5450 0.5450 0.5450 0.5440
15.773000 0.5420 0.5400 0.5400 0.5400 0.5390
15.806349 0.5360 0.5340 0.5290 0.5270 0.5270
15.840000 0.5270 0.5260 0.5260 0.5270 0.5290
15.873349 0.5320 0.5340 0.5340 0.5360 0.5370
15.907000 0.5390 0.5450 0.5450 0.5440 0.5440
15.940349 0.5420 0.5420 0.5400 0.5390 0.5370
15.973000 0.5370 0.5370 0.5340 0.5360 0.5310
16.006349 0.5260 0.5310
##END=
