##TITLE=Ethanol, 2-[2-(9H-purin-6-ylamino)ethylthio]-
##JCAMP-DX=4.24
##DATA TYPE=INFRARED SPECTRUM
##CLASS=COBLENTZ III
##ORIGIN=SOUTHERN RESEARCH INSTITUTE
##OWNER=Copyright (C) 1987 by the Coblentz Society
Collection (C) 2018 copyright by the U.S. Secretary of Commerce
on behalf of the United States of America. All rights reserved.
##DATE=1959/10/19
##NAMES=2-([2-(9H-purin-6-ylamino)ethyl]sulfanyl)ethanol
##MOLFORM=C9 H13 N5 O S
##SOURCE REFERENCE=COBLENTZ NO. 8358
##$NIST ID=B6008358
##$NIST SOURCE=COBLENTZ
##$NIST IMAGE=cob8358
##SPECTROMETER/DATA SYSTEM=PERKIN-ELMER 21 (GRATING)
##INSTRUMENT PARAMETERS=FILTER CHANGE ABOUT 1025 CM^-^1
##STATE=SOLID (0.8 mg / 650 mg KBr DISC)
##SAMPLING PROCEDURE=TRANSMISSION
##RESOLUTION=2
##DATA PROCESSING=DIGITIZED BY COBLENTZ SOCIETY (BATCH II) FROM HARD COPY (ADJUSTED \addcm-1\10-8-2\)
##XUNITS=1/CM
##YUNITS=TRANSMITTANCE
##XFACTOR=1.0
##YFACTOR=1
##DELTAX=1.002820
##FIRSTX=599.824
##LASTX=4009.41
##FIRSTY=0.7432
##MAXX=4009.41
##MINX=599.824
##MAXY=0.820905
##MINY=0.0723346
##NPOINTS=3401
##XYDATA=(X++(Y..Y))
599.823789 0.7432 0.7434 0.7435 0.7432 0.7429
604.837888 0.7426 0.7423 0.7419 0.7416 0.7413
609.851987 0.7393 0.7406 0.7399 0.7391 0.7383
614.866086 0.7375 0.7367 0.7352 0.7338 0.7323
619.880185 0.7309 0.7293 0.7274 0.7255 0.7236
624.894285 0.7217 0.7198 0.7182 0.7166 0.7151
629.908384 0.7135 0.7119 0.7103 0.7088 0.7073
634.922483 0.7063 0.7052 0.7041 0.7030 0.7019
639.936582 0.7012 0.7008 0.7004 0.7000 0.6996
644.950681 0.6996 0.6998 0.7000 0.7001 0.7003
649.964781 0.7005 0.7008 0.7011 0.7015 0.7018
654.978880 0.7022 0.7015 0.7005 0.6991 0.6965
659.992979 0.6939 0.6913 0.6888 0.6856 0.6823
665.007078 0.6791 0.6758 0.6722 0.6684 0.6646
670.021177 0.6607 0.6567 0.6494 0.6455 0.6447
675.035277 0.6441 0.6434 0.6438 0.6443 0.6438
680.049376 0.6459 0.6493 0.6548 0.6600 0.6651
685.063475 0.6917 0.7052 0.7115 0.7174 0.7203
690.077574 0.7243 0.7218 0.7213 0.7211 0.7196
695.091673 0.7175 0.7153 0.7130 0.7108 0.7085
700.105772 0.7058 0.7031 0.7003 0.6975 0.6948
705.119872 0.6920 0.6892 0.6865 0.6841 0.6818
710.133971 0.6795 0.6772 0.6748 0.6725 0.6702
715.148070 0.6678 0.6645 0.6611 0.6577 0.6544
720.162169 0.6511 0.6477 0.6444 0.6410 0.6376
725.176268 0.6342 0.6309 0.6275 0.6244 0.6223
730.190368 0.6203 0.6183 0.6163 0.6143 0.6122
735.204467 0.6100 0.6068 0.6030 0.5990 0.5935
740.218566 0.5875 0.5814 0.5790 0.5780 0.5780
745.232665 0.5783 0.5782 0.5788 0.5793 0.5800
750.246764 0.5808 0.5839 0.5892 0.5954 0.6009
755.260864 0.6056 0.6101 0.6160 0.6243 0.6332
760.274963 0.6407 0.6477 0.6546 0.6610 0.6627
765.289062 0.6631 0.6635 0.6653 0.6688 0.6755
770.303161 0.6822 0.6884 0.6920 0.6948 0.6966
775.317260 0.6962 0.6966 0.6965 0.6950 0.6931
780.331360 0.6908 0.6880 0.6851 0.6812 0.6765
785.345459 0.6714 0.6657 0.6595 0.6534 0.6450
790.359558 0.6359 0.6283 0.6237 0.6213 0.6213
795.373657 0.6221 0.6230 0.6239 0.6247 0.6256
800.387756 0.6264 0.6271 0.6278 0.6279 0.6271
805.401856 0.6258 0.6239 0.6218 0.6198 0.6186
810.415955 0.6180 0.6174 0.6171 0.6169 0.6167
815.430054 0.6165 0.6163 0.6161 0.6159 0.6157
820.444153 0.6155 0.6153 0.6152 0.6150 0.6149
825.458252 0.6147 0.6146 0.6144 0.6142 0.6140
830.472352 0.6137 0.6133 0.6129 0.6125 0.6121
835.486451 0.6117 0.6102 0.6079 0.6050 0.6006
840.500550 0.5955 0.5894 0.5819 0.5772 0.5755
845.514649 0.5749 0.5756 0.5824 0.5956 0.6103
850.528748 0.6251 0.6398 0.6544 0.6654 0.6710
855.542848 0.6733 0.6742 0.6749 0.6751 0.6751
860.556947 0.6787 0.6789 0.6750 0.6745 0.6735
865.571046 0.6724 0.6713 0.6696 0.6671 0.6643
870.585145 0.6618 0.6593 0.6568 0.6541 0.6515
875.599244 0.6489 0.6463 0.6437 0.6408 0.6378
880.613344 0.6347 0.6316 0.6285 0.6255 0.6225
885.627443 0.6196 0.6167 0.6137 0.6109 0.6079
890.641542 0.6045 0.6008 0.5970 0.5934 0.5896
895.655641 0.5854 0.5801 0.5747 0.5692 0.5635
900.669740 0.5572 0.5480 0.5395 0.5424 0.5449
905.683840 0.5602 0.5823 0.6043 0.6256 0.6400
910.697939 0.6405 0.6409 0.6426 0.6456 0.6402
915.712038 0.6393 0.6350 0.6202 0.6036 0.5869
920.726137 0.5702 0.5536 0.5369 0.5203 0.5036
925.740236 0.4869 0.4707 0.4592 0.4608 0.4603
930.754336 0.4698 0.4854 0.5010 0.5167 0.5323
935.768435 0.5479 0.5636 0.5793 0.5949 0.6106
940.782534 0.6262 0.6418 0.6598 0.7019 0.7120
945.796633 0.7168 0.7213 0.7256 0.7298 0.7334
950.810732 0.7369 0.7405 0.7440 0.7469 0.7499
955.824832 0.7529 0.7558 0.7582 0.7602 0.7606
960.838931 0.7610 0.7614 0.7619 0.7653 0.7619
965.853030 0.7611 0.7594 0.7575 0.7549 0.7518
970.867129 0.7489 0.7461 0.7429 0.7392 0.7353
975.881228 0.7307 0.7262 0.7219 0.7182 0.7145
980.895328 0.7108 0.7072 0.7035 0.6996 0.6951
985.909427 0.6904 0.6858 0.6817 0.6785 0.6760
990.923526 0.6750 0.6744 0.6738 0.6737 0.6738
995.937625 0.6738 0.6738 0.6730 0.6718 0.6696
1000.951724 0.6670 0.6647 0.6625 0.6608 0.6597
1005.965824 0.6587 0.6577 0.6566 0.6558 0.6552
1010.979923 0.6546 0.6540 0.6534 0.6528 0.6521
1015.994022 0.6512 0.6504 0.6481 0.6449 0.6412
1021.008121 0.6372 0.6331 0.6297 0.6279 0.6271
1026.022220 0.6265 0.6259 0.6254 0.6226 0.6151
1031.036320 0.6064 0.5969 0.5826 0.5691 0.5605
1036.050419 0.5539 0.5427 0.5234 0.5014 0.4794
1041.064518 0.4574 0.4354 0.4135 0.3996 0.3964
1046.078617 0.3943 0.3935 0.3950 0.4009 0.4167
1051.092716 0.4379 0.4592 0.4804 0.5017 0.5229
1056.106815 0.5442 0.5654 0.5887 0.6091 0.6148
1061.120915 0.6182 0.6214 0.6238 0.6254 0.6270
1066.135014 0.6285 0.6298 0.6316 0.6351 0.6418
1071.149113 0.6548 0.6667 0.6787 0.6946 0.7075
1076.163212 0.7164 0.7234 0.7278 0.7320 0.7351
1081.177311 0.7369 0.7377 0.7379 0.7381 0.7383
1086.191411 0.7396 0.7380 0.7379 0.7379 0.7374
1091.205510 0.7367 0.7358 0.7349 0.7339 0.7329
1096.219609 0.7318 0.7307 0.7280 0.7220 0.7188
1101.233708 0.7156 0.7126 0.7094 0.7062 0.7030
1106.247807 0.6999 0.6963 0.6926 0.6890 0.6854
1111.261907 0.6818 0.6777 0.6724 0.6671 0.6621
1116.276006 0.6575 0.6531 0.6485 0.6443 0.6402
1121.290105 0.6361 0.6319 0.6271 0.6223 0.6173
1126.304204 0.6116 0.6042 0.5966 0.5885 0.5802
1131.318303 0.5713 0.5599 0.5346 0.5074 0.4807
1136.332403 0.4541 0.4276 0.4145 0.4058 0.4011
1141.346502 0.3995 0.3992 0.3993 0.4012 0.4010
1146.360601 0.4013 0.4045 0.4079 0.4106 0.4130
1151.374700 0.4152 0.4173 0.4196 0.4225 0.4315
1156.388799 0.4471 0.4592 0.4665 0.4738 0.4789
1161.402899 0.4811 0.4824 0.4837 0.4847 0.4855
1166.416998 0.4973 0.5167 0.5384 0.5727 0.6176
1171.431097 0.6526 0.6654 0.6719 0.6762 0.6799
1176.445196 0.6837 0.6875 0.6907 0.6928 0.6950
1181.459295 0.6968 0.6980 0.6993 0.7005 0.7016
1186.473395 0.7029 0.7043 0.7024 0.7018 0.7011
1191.487494 0.6999 0.6983 0.6968 0.6952 0.6937
1196.501593 0.6919 0.6901 0.6884 0.6866 0.6842
1201.515692 0.6816 0.6791 0.6765 0.6738 0.6700
1206.529791 0.6652 0.6602 0.6553 0.6504 0.6454
1211.543891 0.6405 0.6355 0.6293 0.6222 0.6150
1216.557990 0.6076 0.5927 0.5668 0.5460 0.5432
1221.572089 0.5425 0.5422 0.5420 0.5416 0.5411
1226.586188 0.5407 0.5392 0.5235 0.5123 0.5024
1231.600287 0.4926 0.4853 0.4783 0.4720 0.4663
1236.614387 0.4607 0.4550 0.4498 0.4456 0.4417
1241.628486 0.4377 0.4338 0.4297 0.4256 0.4213
1246.642585 0.4073 0.3810 0.3515 0.3221 0.2926
1251.656684 0.2807 0.2771 0.2777 0.2783 0.2784
1256.670783 0.3104 0.3590 0.4076 0.4562 0.5048
1261.684883 0.5534 0.6019 0.6505 0.6848 0.6953
1266.698982 0.6957 0.6954 0.6948 0.6916 0.6852
1271.713081 0.6780 0.6707 0.6634 0.6562 0.6489
1276.727180 0.6417 0.6345 0.6272 0.6200 0.6128
1281.741279 0.6055 0.5983 0.5911 0.5838 0.5766
1286.755379 0.5694 0.5621 0.5548 0.5476 0.5404
1291.769478 0.5329 0.5260 0.5224 0.5203 0.5183
1296.783577 0.5168 0.5158 0.5147 0.5137 0.5127
1301.797676 0.5118 0.5109 0.5099 0.5090 0.5081
1306.811775 0.5074 0.5064 0.5049 0.5034 0.5018
1311.825875 0.4999 0.4961 0.4912 0.4845 0.4747
1316.839974 0.4641 0.4492 0.4362 0.4165 0.3921
1321.854073 0.3707 0.3626 0.3618 0.3618 0.3619
1326.868172 0.3649 0.3714 0.3789 0.3847 0.3904
1331.882271 0.3918 0.3927 0.3927 0.3925 0.3834
1336.896371 0.3661 0.3479 0.3296 0.3114 0.2932
1341.910470 0.2750 0.2578 0.2567 0.2553 0.2551
1346.924569 0.2791 0.3138 0.3497 0.3855 0.4214
1351.938668 0.4574 0.4885 0.4999 0.5028 0.5044
1356.952767 0.5053 0.5057 0.5057 0.5054 0.5052
1361.966867 0.5051 0.5050 0.5055 0.5112 0.5345
1366.980966 0.5590 0.5728 0.5819 0.5857 0.5860
1371.995065 0.5860 0.5860 0.5860 0.5851 0.5788
1377.009164 0.5694 0.5617 0.5540 0.5463 0.5386
1382.023263 0.5310 0.5233 0.5155 0.5078 0.5001
1387.037363 0.4925 0.4848 0.4759 0.4668 0.4621
1392.051462 0.4588 0.4581 0.4584 0.4590 0.4598
1397.065561 0.4606 0.4612 0.4618 0.4622 0.4621
1402.079660 0.4620 0.4618 0.4613 0.4605 0.4598
1407.093759 0.4590 0.4574 0.4558 0.4542 0.4526
1412.107858 0.4504 0.4481 0.4456 0.4424 0.4393
1417.121958 0.4362 0.4332 0.4302 0.4272 0.4239
1422.136057 0.4206 0.4172 0.4138 0.4094 0.4048
1427.150156 0.4004 0.3951 0.3896 0.3840 0.3760
1432.164255 0.3633 0.3498 0.3447 0.3419 0.3435
1437.178354 0.3442 0.3444 0.3461 0.3538 0.3610
1442.192454 0.3683 0.3716 0.3722 0.3720 0.3714
1447.206553 0.3703 0.3688 0.3669 0.3649 0.3634
1452.220652 0.3628 0.3627 0.3627 0.3636 0.3653
1457.234751 0.3690 0.3746 0.3826 0.3915 0.3988
1462.248850 0.4036 0.4069 0.4086 0.4085 0.4075
1467.262950 0.4066 0.4047 0.4018 0.3992 0.3970
1472.277049 0.3953 0.3944 0.3942 0.3941 0.3943
1477.291148 0.3946 0.3950 0.3961 0.3987 0.4031
1482.305247 0.4103 0.4171 0.4239 0.4334 0.4526
1487.319346 0.4810 0.5116 0.5421 0.5702 0.5867
1492.333446 0.5982 0.6029 0.6064 0.6089 0.6110
1497.347545 0.6129 0.6143 0.6158 0.6173 0.6191
1502.361644 0.6213 0.6240 0.6278 0.6284 0.6290
1507.375743 0.6296 0.6301 0.6298 0.6292 0.6295
1512.389842 0.6282 0.6272 0.6259 0.6247 0.6236
1517.403942 0.6223 0.6209 0.6189 0.6170 0.6149
1522.418041 0.6126 0.6102 0.6078 0.6055 0.6022
1527.432140 0.5987 0.5942 0.5890 0.5806 0.5736
1532.446239 0.5678 0.5619 0.5557 0.5495 0.5433
1537.460338 0.5373 0.5331 0.5300 0.5278 0.5265
1542.474438 0.5254 0.5243 0.5232 0.5221 0.5208
1547.488537 0.5178 0.5128 0.5063 0.4972 0.4864
1552.502636 0.4760 0.4655 0.4518 0.4153 0.3683
1557.516735 0.3523 0.3375 0.3226 0.3132 0.3113
1562.530834 0.3101 0.3089 0.3078 0.3094 0.3109
1567.544934 0.3143 0.3184 0.3244 0.3333 0.3461
1572.559033 0.3660 0.3800 0.3872 0.3946 0.4022
1577.573132 0.4082 0.4110 0.4109 0.4103 0.4120
1582.587231 0.4075 0.4058 0.4040 0.4018 0.3990
1587.601330 0.3885 0.3788 0.3692 0.3596 0.3500
1592.615430 0.3403 0.3307 0.3211 0.3114 0.3018
1597.629529 0.2922 0.2826 0.2729 0.2633 0.2537
1602.643628 0.2440 0.2344 0.2248 0.2152 0.2055
1607.657727 0.1959 0.1863 0.1766 0.1670 0.1572
1612.671826 0.1475 0.1377 0.1279 0.1182 0.1084
1617.685926 0.0959 0.0874 0.0803 0.0755 0.0732
1622.700025 0.0723 0.0725 0.0733 0.0737 0.0759
1627.714124 0.0785 0.0809 0.0834 0.0871 0.0934
1632.728223 0.1025 0.1116 0.1203 0.1287 0.1363
1637.742322 0.1435 0.1509 0.1594 0.1705 0.1835
1642.756422 0.1998 0.2146 0.2275 0.2403 0.2531
1647.770521 0.2660 0.2788 0.2916 0.3045 0.3173
1652.784620 0.3301 0.3430 0.3558 0.3686 0.3815
1657.798719 0.3943 0.4072 0.4200 0.4328 0.4457
1662.812818 0.4585 0.4713 0.4842 0.4970 0.5098
1667.826918 0.5236 0.5364 0.5447 0.5500 0.5548
1672.841017 0.5697 0.5845 0.6089 0.6264 0.6350
1677.855116 0.6417 0.6480 0.6543 0.6607 0.6804
1682.869215 0.6995 0.7153 0.7290 0.7352 0.7382
1687.883314 0.7413 0.7443 0.7475 0.7509 0.7543
1692.897414 0.7577 0.7611 0.7643 0.7675 0.7707
1697.911513 0.7739 0.7770 0.7801 0.7832 0.7864
1702.925612 0.7895 0.7923 0.7948 0.7972 0.7996
1707.939711 0.8017 0.8030 0.8040 0.8049 0.8059
1712.953810 0.8065 0.8069 0.8072 0.8076 0.8079
1717.967910 0.8082 0.8085 0.8087 0.8090 0.8092
1722.982009 0.8093 0.8093 0.8093 0.8093 0.8093
1727.996108 0.8093 0.8092 0.8092 0.8092 0.8093
1733.010207 0.8094 0.8095 0.8096 0.8098 0.8099
1738.024306 0.8101 0.8102 0.8104 0.8105 0.8106
1743.038406 0.8108 0.8108 0.8108 0.8108 0.8109
1748.052505 0.8109 0.8109 0.8109 0.8110 0.8111
1753.066604 0.8111 0.8112 0.8112 0.8113 0.8114
1758.080703 0.8114 0.8115 0.8116 0.8116 0.8117
1763.094802 0.8120 0.8123 0.8126 0.8130 0.8133
1768.108902 0.8136 0.8140 0.8143 0.8146 0.8149
1773.123001 0.8153 0.8156 0.8159 0.8162 0.8165
1778.137100 0.8167 0.8170 0.8173 0.8176 0.8178
1783.151199 0.8181 0.8209 0.8196 0.8188 0.8190
1788.165298 0.8191 0.8191 0.8192 0.8193 0.8194
1793.179397 0.8195 0.8196 0.8197 0.8198 0.8198
1798.193497 0.8199 0.8200 0.8200 0.8200 0.8200
1803.207596 0.8200 0.8200 0.8200 0.8200 0.8200
1808.221695 0.8200 0.8199 0.8199 0.8199 0.8198
1813.235794 0.8196 0.8194 0.8193 0.8191 0.8190
1818.249893 0.8187 0.8185 0.8182 0.8179 0.8176
1823.263993 0.8173 0.8170 0.8166 0.8163 0.8160
1828.278092 0.8158 0.8156 0.8154 0.8153 0.8151
1833.292191 0.8148 0.8146 0.8145 0.8144 0.8142
1838.306290 0.8142 0.8142 0.8141 0.8141 0.8141
1843.320389 0.8141 0.8141 0.8140 0.8142 0.8144
1848.334489 0.8146 0.8148 0.8150 0.8152 0.8154
1853.348588 0.8156 0.8158 0.8160 0.8164 0.8168
1858.362687 0.8173 0.8178 0.8183 0.8188 0.8192
1863.376786 0.8195 0.8198 0.8201 0.8204 0.8206
1868.390885 0.8201 0.8193 0.8186 0.8177 0.8167
1873.404985 0.8157 0.8146 0.8136 0.8129 0.8126
1878.419084 0.8124 0.8122 0.8120 0.8118 0.8116
1883.433183 0.8114 0.8112 0.8111 0.8111 0.8112
1888.447282 0.8112 0.8112 0.8113 0.8114 0.8115
1893.461381 0.8116 0.8117 0.8118 0.8119 0.8120
1898.475481 0.8121 0.8122 0.8123 0.8124 0.8126
1903.489580 0.8129 0.8132 0.8134 0.8137 0.8140
1908.503679 0.8142 0.8145 0.8148 0.8150 0.8151
1913.517778 0.8153 0.8155 0.8157 0.8159 0.8160
1918.531877 0.8162 0.8164 0.8166 0.8168 0.8169
1923.545977 0.8170 0.8170 0.8170 0.8170 0.8170
1928.560076 0.8170 0.8170 0.8170 0.8170 0.8170
1933.574175 0.8170 0.8170 0.8170 0.8170 0.8170
1938.588274 0.8170 0.8169 0.8168 0.8167 0.8165
1943.602373 0.8164 0.8163 0.8162 0.8161 0.8160
1948.616473 0.8159 0.8157 0.8156 0.8155 0.8153
1953.630572 0.8152 0.8151 0.8149 0.8148 0.8146
1958.644671 0.8145 0.8143 0.8141 0.8139 0.8138
1963.658770 0.8134 0.8128 0.8122 0.8116 0.8110
1968.672869 0.8104 0.8098 0.8092 0.8086 0.8080
1973.686969 0.8075 0.8070 0.8064 0.8059 0.8054
1978.701068 0.8049 0.8043 0.8038 0.8033 0.8028
1983.715167 0.8023 0.8019 0.8015 0.8012 0.8008
1988.729266 0.8004 0.8001 0.7997 0.7994 0.7990
1993.743365 0.7987 0.7983 0.7979 0.7976 0.7972
1998.757465 0.7969 0.7965 0.7961 0.7958 0.7954
2003.771564 0.7951 0.7947 0.7944 0.7940 0.7936
2008.785663 0.7933 0.7929 0.7926 0.7922 0.7919
2013.799762 0.7915 0.7911 0.7908 0.7904 0.7901
2018.813861 0.7897 0.7893 0.7889 0.7885 0.7881
2023.827961 0.7877 0.7873 0.7870 0.7866 0.7862
2028.842060 0.7858 0.7854 0.7850 0.7846 0.7842
2033.856159 0.7838 0.7834 0.7830 0.7826 0.7822
2038.870258 0.7818 0.7814 0.7810 0.7806 0.7801
2043.884357 0.7797 0.7793 0.7789 0.7785 0.7781
2048.898457 0.7776 0.7772 0.7768 0.7764 0.7760
2053.912556 0.7757 0.7754 0.7751 0.7748 0.7745
2058.926655 0.7742 0.7739 0.7736 0.7733 0.7730
2063.940754 0.7727 0.7724 0.7722 0.7720 0.7718
2068.954853 0.7716 0.7714 0.7711 0.7709 0.7707
2073.968953 0.7705 0.7703 0.7701 0.7700 0.7698
2078.983052 0.7696 0.7695 0.7693 0.7691 0.7690
2083.997151 0.7688 0.7686 0.7685 0.7683 0.7682
2089.011250 0.7680 0.7679 0.7680 0.7680 0.7680
2094.025349 0.7681 0.7681 0.7681 0.7681 0.7682
2099.039449 0.7682 0.7682 0.7679 0.7676 0.7673
2104.053548 0.7670 0.7667 0.7665 0.7662 0.7659
2109.067647 0.7656 0.7653 0.7650 0.7648 0.7645
2114.081746 0.7642 0.7639 0.7636 0.7633 0.7631
2119.095845 0.7627 0.7623 0.7618 0.7614 0.7609
2124.109945 0.7605 0.7600 0.7596 0.7592 0.7587
2129.124044 0.7583 0.7578 0.7574 0.7569 0.7565
2134.138143 0.7560 0.7556 0.7551 0.7547 0.7543
2139.152242 0.7539 0.7535 0.7531 0.7526 0.7522
2144.166341 0.7518 0.7514 0.7510 0.7506 0.7502
2149.180440 0.7498 0.7494 0.7490 0.7485 0.7481
2154.194540 0.7477 0.7473 0.7469 0.7465 0.7460
2159.208639 0.7454 0.7447 0.7441 0.7435 0.7429
2164.222738 0.7422 0.7416 0.7409 0.7403 0.7397
2169.236837 0.7391 0.7385 0.7379 0.7372 0.7366
2174.250936 0.7360 0.7354 0.7348 0.7341 0.7335
2179.265036 0.7330 0.7324 0.7318 0.7313 0.7307
2184.279135 0.7301 0.7296 0.7290 0.7284 0.7278
2189.293234 0.7273 0.7267 0.7261 0.7256 0.7250
2194.307333 0.7245 0.7239 0.7233 0.7228 0.7222
2199.321432 0.7216 0.7211 0.7205 0.7199 0.7194
2204.335532 0.7188 0.7182 0.7177 0.7172 0.7167
2209.349631 0.7162 0.7156 0.7151 0.7146 0.7141
2214.363730 0.7136 0.7131 0.7126 0.7120 0.7115
2219.377829 0.7110 0.7105 0.7100 0.7095 0.7090
2224.391928 0.7084 0.7079 0.7074 0.7068 0.7061
2229.406028 0.7054 0.7047 0.7040 0.7033 0.7026
2234.420127 0.7019 0.7012 0.7005 0.6998 0.6991
2239.434226 0.6984 0.6977 0.6970 0.6962 0.6955
2244.448325 0.6948 0.6941 0.6934 0.6927 0.6920
2249.462424 0.6913 0.6906 0.6899 0.6891 0.6883
2254.476524 0.6873 0.6864 0.6855 0.6846 0.6836
2259.490623 0.6827 0.6818 0.6809 0.6799 0.6790
2264.504722 0.6781 0.6772 0.6762 0.6750 0.6737
2269.518821 0.6724 0.6712 0.6699 0.6686 0.6673
2274.532920 0.6660 0.6648 0.6636 0.6624 0.6613
2279.547020 0.6603 0.6594 0.6585 0.6576 0.6566
2284.561119 0.6557 0.6548 0.6538 0.6529 0.6520
2289.575218 0.6511 0.6501 0.6492 0.6482 0.6470
2294.589317 0.6458 0.6444 0.6432 0.6419 0.6406
2299.603416 0.6394 0.6381 0.6368 0.6355 0.6342
2304.617516 0.6330 0.6321 0.6312 0.6303 0.6293
2309.631615 0.6284 0.6275 0.6267 0.6260 0.6255
2314.645714 0.6249 0.6243 0.6237 0.6232 0.6226
2319.659813 0.6220 0.6214 0.6211 0.6208 0.6206
2324.673912 0.6203 0.6201 0.6198 0.6195 0.6193
2329.688012 0.6190 0.6188 0.6186 0.6184 0.6183
2334.702111 0.6181 0.6179 0.6178 0.6176 0.6175
2339.716210 0.6173 0.6172 0.6170 0.6168 0.6167
2344.730309 0.6165 0.6164 0.6162 0.6161 0.6159
2349.744408 0.6158 0.6158 0.6157 0.6157 0.6156
2354.758508 0.6155 0.6155 0.6154 0.6154 0.6153
2359.772607 0.6153 0.6152 0.6152 0.6151 0.6150
2364.786706 0.6148 0.6147 0.6145 0.6144 0.6142
2369.800805 0.6140 0.6133 0.6123 0.6113 0.6102
2374.814904 0.6091 0.6080 0.6069 0.6058 0.6046
2379.829004 0.6034 0.6022 0.6010 0.5997 0.5985
2384.843103 0.5973 0.5957 0.5939 0.5920 0.5901
2389.857202 0.5882 0.5864 0.5846 0.5828 0.5812
2394.871301 0.5796 0.5779 0.5763 0.5747 0.5730
2399.885400 0.5714 0.5698 0.5682 0.5665 0.5649
2404.899500 0.5634 0.5621 0.5607 0.5593 0.5579
2409.913599 0.5565 0.5552 0.5538 0.5524 0.5511
2414.927698 0.5503 0.5497 0.5490 0.5484 0.5477
2419.941797 0.5471 0.5464 0.5458 0.5451 0.5445
2424.955896 0.5438 0.5432 0.5425 0.5419 0.5412
2429.969996 0.5406 0.5399 0.5393 0.5387 0.5383
2434.984095 0.5379 0.5375 0.5371 0.5367 0.5362
2439.998194 0.5358 0.5354 0.5350 0.5346 0.5342
2445.012293 0.5338 0.5333 0.5329 0.5325 0.5321
2450.026392 0.5317 0.5313 0.5309 0.5306 0.5302
2455.040492 0.5299 0.5296 0.5293 0.5290 0.5286
2460.054591 0.5281 0.5273 0.5264 0.5256 0.5248
2465.068690 0.5240 0.5232 0.5224 0.5216 0.5207
2470.082789 0.5198 0.5189 0.5181 0.5172 0.5163
2475.096888 0.5154 0.5145 0.5136 0.5128 0.5119
2480.110988 0.5109 0.5100 0.5091 0.5082 0.5072
2485.125087 0.5063 0.5054 0.5045 0.5035 0.5026
2490.139186 0.5017 0.5008 0.4998 0.4989 0.4979
2495.153285 0.4970 0.4960 0.4951 0.4941 0.4932
2500.167384 0.4922 0.4910 0.4898 0.4886 0.4873
2505.181483 0.4861 0.4848 0.4836 0.4823 0.4811
2510.195583 0.4798 0.4786 0.4773 0.4761 0.4748
2515.209682 0.4735 0.4722 0.4707 0.4692 0.4677
2520.223781 0.4662 0.4646 0.4632 0.4617 0.4602
2525.237880 0.4587 0.4572 0.4557 0.4542 0.4528
2530.251979 0.4509 0.4482 0.4455 0.4427 0.4402
2535.266079 0.4384 0.4371 0.4358 0.4345 0.4332
2540.280178 0.4319 0.4306 0.4294 0.4285 0.4277
2545.294277 0.4269 0.4261 0.4253 0.4246 0.4239
2550.308376 0.4232 0.4224 0.4217 0.4210 0.4203
2555.322475 0.4196 0.4189 0.4181 0.4174 0.4167
2560.336575 0.4160 0.4152 0.4145 0.4138 0.4131
2565.350674 0.4123 0.4116 0.4109 0.4104 0.4102
2570.364773 0.4099 0.4096 0.4094 0.4091 0.4088
2575.378872 0.4085 0.4082 0.4080 0.4077 0.4075
2580.392971 0.4074 0.4073 0.4071 0.4070 0.4069
2585.407071 0.4067 0.4066 0.4065 0.4063 0.4062
2590.421170 0.4061 0.4060 0.4058 0.4057 0.4056
2595.435269 0.4055 0.4054 0.4053 0.4052 0.4051
2600.449368 0.4050 0.4049 0.4048 0.4047 0.4046
2605.463467 0.4045 0.4044 0.4044 0.4043 0.4043
2610.477567 0.4043 0.4042 0.4042 0.4042 0.4041
2615.491666 0.4041 0.4072 0.4055 0.4040 0.4039
2620.505765 0.4039 0.4039 0.4038 0.4038 0.4038
2625.519864 0.4037 0.4037 0.4037 0.4036 0.4036
2630.533963 0.4035 0.4035 0.4035 0.4034 0.4034
2635.548063 0.4034 0.4033 0.4033 0.4032 0.4032
2640.562162 0.4032 0.4031 0.4031 0.4030 0.4029
2645.576261 0.4027 0.4024 0.4021 0.4018 0.4015
2650.590360 0.4012 0.4009 0.4006 0.4004 0.4000
2655.604459 0.3994 0.3987 0.3981 0.3975 0.3969
2660.618559 0.3963 0.3957 0.3950 0.3941 0.3932
2665.632658 0.3923 0.3914 0.3905 0.3896 0.3887
2670.646757 0.3876 0.3865 0.3860 0.3859 0.3859
2675.660856 0.3859 0.3858 0.3858 0.3857 0.3857
2680.674955 0.3857 0.3856 0.3856 0.3855 0.3857
2685.689055 0.3859 0.3860 0.3862 0.3864 0.3866
2690.703154 0.3867 0.3869 0.3871 0.3872 0.3874
2695.717253 0.3875 0.3877 0.3878 0.3880 0.3875
2700.731352 0.3869 0.3863 0.3857 0.3851 0.3844
2705.745451 0.3832 0.3820 0.3808 0.3796 0.3784
2710.759551 0.3774 0.3764 0.3754 0.3744 0.3734
2715.773650 0.3724 0.3714 0.3703 0.3693 0.3683
2720.787749 0.3672 0.3662 0.3652 0.3641 0.3631
2725.801848 0.3621 0.3610 0.3599 0.3589 0.3579
2730.815947 0.3568 0.3557 0.3543 0.3530 0.3517
2735.830047 0.3504 0.3490 0.3476 0.3463 0.3450
2740.844146 0.3437 0.3423 0.3410 0.3397 0.3384
2745.858245 0.3372 0.3359 0.3346 0.3333 0.3320
2750.872344 0.3308 0.3295 0.3282 0.3268 0.3256
2755.886443 0.3243 0.3231 0.3219 0.3206 0.3194
2760.900543 0.3182 0.3171 0.3159 0.3147 0.3135
2765.914642 0.3123 0.3112 0.3101 0.3092 0.3083
2770.928741 0.3074 0.3065 0.3056 0.3047 0.3039
2775.942840 0.3034 0.3029 0.3024 0.3019 0.3015
2780.956939 0.3013 0.3012 0.3011 0.3010 0.3009
2785.971039 0.3008 0.3007 0.3006 0.3005 0.3004
2790.985138 0.3003 0.3002 0.3001 0.3000 0.2999
2795.999237 0.2998 0.2997 0.2996 0.2995 0.2994
2801.013336 0.2993 0.2992 0.2990 0.2989 0.2988
2806.027435 0.2988 0.3010 0.3007 0.2986 0.2986
2811.041535 0.2985 0.2985 0.2984 0.2984 0.2983
2816.055634 0.2983 0.2983 0.2983 0.2983 0.2983
2821.069733 0.2983 0.2983 0.2983 0.2983 0.2983
2826.083832 0.2983 0.2983 0.2983 0.2983 0.2983
2831.097931 0.2983 0.2984 0.2985 0.2986 0.2987
2836.112031 0.2988 0.2989 0.2990 0.2991 0.2991
2841.126130 0.2992 0.2993 0.2994 0.2995 0.2996
2846.140229 0.2997 0.2997 0.2998 0.2999 0.3000
2851.154328 0.3000 0.3001 0.3001 0.3002 0.3002
2856.168427 0.3002 0.3003 0.3003 0.3003 0.3003
2861.182526 0.3004 0.3004 0.3004 0.3005 0.3005
2866.196626 0.3005 0.3005 0.3006 0.3006 0.3005
2871.210725 0.3002 0.3000 0.2997 0.2994 0.2992
2876.224824 0.2989 0.2984 0.2975 0.2966 0.2957
2881.238923 0.2948 0.2939 0.2930 0.2921 0.2911
2886.253022 0.2900 0.2888 0.2876 0.2864 0.2852
2891.267122 0.2841 0.2829 0.2816 0.2804 0.2792
2896.281221 0.2781 0.2770 0.2762 0.2754 0.2746
2901.295320 0.2738 0.2730 0.2722 0.2714 0.2706
2906.309419 0.2698 0.2692 0.2689 0.2686 0.2683
2911.323518 0.2680 0.2677 0.2674 0.2671 0.2668
2916.337618 0.2665 0.2662 0.2659 0.2656 0.2652
2921.351717 0.2651 0.2650 0.2649 0.2648 0.2647
2926.365816 0.2646 0.2647 0.2649 0.2651 0.2652
2931.379915 0.2654 0.2656 0.2657 0.2659 0.2660
2936.394014 0.2662 0.2664 0.2666 0.2668 0.2671
2941.408114 0.2673 0.2675 0.2678 0.2682 0.2686
2946.422213 0.2691 0.2696 0.2702 0.2707 0.2711
2951.436312 0.2717 0.2720 0.2724 0.2728 0.2732
2956.450411 0.2736 0.2739 0.2741 0.2743 0.2744
2961.464510 0.2745 0.2745 0.2745 0.2746 0.2746
2966.478610 0.2746 0.2747 0.2747 0.2747 0.2747
2971.492709 0.2748 0.2748 0.2749 0.2750 0.2751
2976.506808 0.2752 0.2753 0.2753 0.2754 0.2755
2981.520907 0.2756 0.2757 0.2758 0.2759 0.2759
2986.535006 0.2759 0.2758 0.2757 0.2756 0.2755
2991.549106 0.2753 0.2752 0.2751 0.2750 0.2749
2996.563205 0.2748 0.2747 0.2747 0.2746 0.2745
3001.577304 0.2745 0.2744 0.2744 0.2743 0.2742
3006.591403 0.2742 0.2744 0.2747 0.2750 0.2753
3011.605502 0.2756 0.2760 0.2767 0.2776 0.2785
3016.619602 0.2794 0.2804 0.2816 0.2827 0.2839
3021.633701 0.2850 0.2862 0.2877 0.2891 0.2905
3026.647800 0.2919 0.2933 0.2947 0.2960 0.2972
3031.661899 0.2985 0.2999 0.3011 0.3024 0.3039
3036.675998 0.3053 0.3067 0.3081 0.3096 0.3110
3041.690098 0.3125 0.3139 0.3152 0.3166 0.3180
3046.704197 0.3194 0.3208 0.3222 0.3237 0.3253
3051.718296 0.3268 0.3283 0.3298 0.3313 0.3328
3056.732395 0.3343 0.3358 0.3371 0.3384 0.3396
3061.746494 0.3409 0.3424 0.3440 0.3456 0.3472
3066.760594 0.3488 0.3504 0.3520 0.3536 0.3551
3071.774693 0.3565 0.3578 0.3591 0.3604 0.3617
3076.788792 0.3630 0.3642 0.3650 0.3655 0.3661
3081.802891 0.3667 0.3673 0.3679 0.3685 0.3691
3086.816990 0.3695 0.3698 0.3700 0.3703 0.3706
3091.831090 0.3709 0.3711 0.3714 0.3717 0.3718
3096.845189 0.3718 0.3719 0.3720 0.3720 0.3721
3101.859288 0.3722 0.3722 0.3723 0.3724 0.3724
3106.873387 0.3723 0.3723 0.3722 0.3721 0.3721
3111.887486 0.3720 0.3720 0.3719 0.3719 0.3719
3116.901586 0.3720 0.3720 0.3721 0.3721 0.3722
3121.915685 0.3722 0.3723 0.3724 0.3724 0.3725
3126.929784 0.3725 0.3726 0.3726 0.3727 0.3727
3131.943883 0.3728 0.3729 0.3729 0.3730 0.3730
3136.957982 0.3731 0.3731 0.3732 0.3733 0.3733
3141.972082 0.3734 0.3734 0.3735 0.3735 0.3735
3146.986181 0.3735 0.3735 0.3735 0.3734 0.3734
3152.000280 0.3734 0.3734 0.3734 0.3734 0.3734
3157.014379 0.3734 0.3735 0.3739 0.3735 0.3736
3162.028478 0.3736 0.3740 0.3743 0.3747 0.3751
3167.042578 0.3754 0.3758 0.3762 0.3766 0.3770
3172.056677 0.3775 0.3779 0.3783 0.3788 0.3792
3177.070776 0.3797 0.3802 0.3806 0.3811 0.3815
3182.084875 0.3820 0.3825 0.3829 0.3834 0.3839
3187.098974 0.3844 0.3850 0.3856 0.3861 0.3867
3192.113074 0.3873 0.3877 0.3881 0.3886 0.3890
3197.127173 0.3894 0.3898 0.3902 0.3906 0.3910
3202.141272 0.3913 0.3916 0.3919 0.3922 0.3925
3207.155371 0.3928 0.3931 0.3934 0.3937 0.3940
3212.169470 0.3943 0.3945 0.3947 0.3949 0.3951
3217.183569 0.3953 0.3955 0.3957 0.3959 0.3969
3222.197669 0.3978 0.3987 0.3995 0.4002 0.4008
3227.211768 0.4014 0.4020 0.4026 0.4032 0.4038
3232.225867 0.4045 0.4051 0.4057 0.4063 0.4069
3237.239966 0.4075 0.4081 0.4088 0.4094 0.4100
3242.254065 0.4106 0.4112 0.4118 0.4125 0.4131
3247.268165 0.4137 0.4144 0.4151 0.4157 0.4164
3252.282264 0.4171 0.4178 0.4185 0.4192 0.4198
3257.296363 0.4205 0.4212 0.4219 0.4225 0.4232
3262.310462 0.4239 0.4246 0.4253 0.4259 0.4266
3267.324561 0.4273 0.4280 0.4286 0.4293 0.4301
3272.338661 0.4310 0.4319 0.4329 0.4339 0.4349
3277.352760 0.4358 0.4368 0.4378 0.4388 0.4398
3282.366859 0.4407 0.4417 0.4427 0.4437 0.4447
3287.380958 0.4461 0.4474 0.4488 0.4501 0.4515
3292.395057 0.4529 0.4542 0.4556 0.4569 0.4583
3297.409157 0.4596 0.4611 0.4627 0.4642 0.4658
3302.423256 0.4674 0.4690 0.4705 0.4721 0.4736
3307.437355 0.4750 0.4764 0.4778 0.4792 0.4806
3312.451454 0.4820 0.4834 0.4848 0.4861 0.4872
3317.465553 0.4884 0.4896 0.4907 0.4919 0.4930
3322.479653 0.4942 0.4954 0.4964 0.4973 0.4981
3327.493752 0.4990 0.4999 0.5008 0.5016 0.5025
3332.507851 0.5034 0.5039 0.5042 0.5044 0.5047
3337.521950 0.5050 0.5052 0.5055 0.5057 0.5060
3342.536049 0.5063 0.5065 0.5066 0.5066 0.5067
3347.550149 0.5068 0.5068 0.5069 0.5069 0.5070
3352.564248 0.5070 0.5071 0.5071 0.5072 0.5072
3357.578347 0.5073 0.5073 0.5074 0.5074 0.5075
3362.592446 0.5075 0.5075 0.5075 0.5075 0.5075
3367.606545 0.5075 0.5075 0.5069 0.5072 0.5076
3372.620645 0.5076 0.5076 0.5076 0.5076 0.5076
3377.634744 0.5077 0.5077 0.5077 0.5077 0.5077
3382.648843 0.5077 0.5077 0.5077 0.5078 0.5078
3387.662942 0.5078 0.5078 0.5078 0.5079 0.5079
3392.677041 0.5079 0.5080 0.5080 0.5080 0.5080
3397.691141 0.5081 0.5081 0.5081 0.5082 0.5082
3402.705240 0.5082 0.5082 0.5083 0.5083 0.5083
3407.719339 0.5083 0.5084 0.5084 0.5085 0.5086
3412.733438 0.5086 0.5087 0.5087 0.5088 0.5088
3417.747537 0.5089 0.5090 0.5090 0.5091 0.5091
3422.761637 0.5094 0.5098 0.5102 0.5106 0.5110
3427.775736 0.5114 0.5119 0.5129 0.5139 0.5150
3432.789835 0.5162 0.5176 0.5190 0.5205 0.5219
3437.803934 0.5233 0.5246 0.5258 0.5270 0.5282
3442.818033 0.5294 0.5306 0.5321 0.5336 0.5352
3447.832133 0.5367 0.5383 0.5399 0.5416 0.5434
3452.846232 0.5452 0.5470 0.5487 0.5505 0.5523
3457.860331 0.5540 0.5557 0.5575 0.5592 0.5609
3462.874430 0.5626 0.5644 0.5662 0.5680 0.5698
3467.888529 0.5716 0.5735 0.5753 0.5772 0.5800
3472.902629 0.5828 0.5855 0.5883 0.5913 0.5924
3477.916728 0.5934 0.5944 0.5953 0.5963 0.5972
3482.930827 0.5982 0.5991 0.6001 0.6011 0.6020
3487.944926 0.6031 0.6043 0.6054 0.6066 0.6077
3492.959025 0.6089 0.6100 0.6112 0.6123 0.6134
3497.973125 0.6144 0.6153 0.6163 0.6173 0.6181
3502.987224 0.6190 0.6198 0.6206 0.6214 0.6223
3508.001323 0.6231 0.6239 0.6247 0.6256 0.6264
3513.015422 0.6273 0.6281 0.6289 0.6298 0.6306
3518.029521 0.6314 0.6323 0.6333 0.6343 0.6353
3523.043621 0.6363 0.6373 0.6383 0.6393 0.6403
3528.057720 0.6413 0.6423 0.6433 0.6444 0.6455
3533.071819 0.6466 0.6478 0.6490 0.6501 0.6512
3538.085918 0.6523 0.6535 0.6546 0.6557 0.6568
3543.100017 0.6580 0.6591 0.6603 0.6615 0.6627
3548.114117 0.6639 0.6651 0.6663 0.6675 0.6687
3553.128216 0.6700 0.6714 0.6727 0.6741 0.6755
3558.142315 0.6769 0.6791 0.6816 0.6842 0.6867
3563.156414 0.6891 0.6907 0.6923 0.6936 0.6941
3568.170513 0.6946 0.6951 0.6956 0.6960 0.6965
3573.184613 0.6970 0.6974 0.6979 0.6984 0.6988
3578.198712 0.6993 0.6998 0.7003 0.7009 0.7017
3583.212811 0.7025 0.7034 0.7042 0.7050 0.7058
3588.226910 0.7068 0.7078 0.7088 0.7098 0.7108
3593.241009 0.7118 0.7129 0.7141 0.7155 0.7169
3598.255108 0.7183 0.7197 0.7211 0.7225 0.7239
3603.269208 0.7253 0.7267 0.7279 0.7291 0.7302
3608.283307 0.7313 0.7324 0.7335 0.7347 0.7358
3613.297406 0.7368 0.7375 0.7380 0.7385 0.7390
3618.311505 0.7395 0.7401 0.7406 0.7411 0.7416
3623.325604 0.7421 0.7425 0.7429 0.7433 0.7437
3628.339704 0.7440 0.7444 0.7448 0.7452 0.7455
3633.353803 0.7459 0.7463 0.7467 0.7470 0.7473
3638.367902 0.7475 0.7477 0.7479 0.7482 0.7484
3643.382001 0.7486 0.7488 0.7491 0.7493 0.7495
3648.396100 0.7497 0.7500 0.7502 0.7504 0.7506
3653.410200 0.7508 0.7509 0.7510 0.7512 0.7513
3658.424299 0.7514 0.7515 0.7516 0.7517 0.7519
3663.438398 0.7520 0.7521 0.7522 0.7523 0.7525
3668.452497 0.7526 0.7527 0.7528 0.7529 0.7529
3673.466596 0.7530 0.7530 0.7531 0.7531 0.7532
3678.480696 0.7532 0.7533 0.7533 0.7534 0.7534
3683.494795 0.7535 0.7535 0.7536 0.7536 0.7536
3688.508894 0.7536 0.7536 0.7535 0.7535 0.7535
3693.522993 0.7534 0.7534 0.7534 0.7533 0.7533
3698.537092 0.7533 0.7532 0.7532 0.7532 0.7531
3703.551192 0.7531 0.7531 0.7530 0.7530 0.7530
3708.565291 0.7530 0.7530 0.7530 0.7530 0.7529
3713.579390 0.7529 0.7529 0.7529 0.7529 0.7529
3718.593489 0.7529 0.7529 0.7529 0.7529 0.7529
3723.607588 0.7528 0.7528 0.7528 0.7528 0.7528
3728.621688 0.7528 0.7528 0.7528 0.7528 0.7529
3733.635787 0.7529 0.7529 0.7529 0.7529 0.7529
3738.649886 0.7529 0.7530 0.7530 0.7530 0.7530
3743.663985 0.7530 0.7530 0.7530 0.7530 0.7531
3748.678084 0.7531 0.7531 0.7531 0.7531 0.7531
3753.692184 0.7531 0.7531 0.7531 0.7530 0.7529
3758.706283 0.7528 0.7527 0.7526 0.7526 0.7525
3763.720382 0.7524 0.7523 0.7522 0.7521 0.7520
3768.734481 0.7520 0.7519 0.7518 0.7517 0.7516
3773.748580 0.7515 0.7514 0.7514 0.7513 0.7512
3778.762680 0.7511 0.7510 0.7509 0.7508 0.7507
3783.776779 0.7506 0.7504 0.7503 0.7502 0.7501
3788.790878 0.7500 0.7499 0.7497 0.7496 0.7495
3793.804977 0.7494 0.7493 0.7491 0.7490 0.7489
3798.819076 0.7488 0.7487 0.7486 0.7484 0.7483
3803.833176 0.7482 0.7481 0.7479 0.7477 0.7475
3808.847275 0.7472 0.7470 0.7468 0.7466 0.7463
3813.861374 0.7461 0.7459 0.7457 0.7455 0.7453
3818.875473 0.7450 0.7448 0.7446 0.7444 0.7442
3823.889572 0.7440 0.7437 0.7434 0.7431 0.7427
3828.903672 0.7423 0.7419 0.7414 0.7410 0.7406
3833.917771 0.7402 0.7397 0.7393 0.7389 0.7385
3838.931870 0.7380 0.7376 0.7372 0.7368 0.7363
3843.945969 0.7359 0.7354 0.7348 0.7342 0.7336
3848.960068 0.7330 0.7324 0.7317 0.7311 0.7305
3853.974168 0.7299 0.7293 0.7287 0.7281 0.7275
3858.988267 0.7268 0.7263 0.7259 0.7257 0.7254
3864.002366 0.7252 0.7249 0.7247 0.7244 0.7242
3869.016465 0.7239 0.7237 0.7235 0.7232 0.7230
3874.030564 0.7227 0.7225 0.7223 0.7221 0.7219
3879.044664 0.7218 0.7216 0.7214 0.7212 0.7211
3884.058763 0.7209 0.7207 0.7205 0.7204 0.7202
3889.072862 0.7200 0.7198 0.7197 0.7195 0.7195
3894.086961 0.7195 0.7195 0.7195 0.7196 0.7196
3899.101060 0.7196 0.7197 0.7197 0.7197 0.7197
3904.115160 0.7198 0.7198 0.7198 0.7199 0.7199
3909.129259 0.7199 0.7199 0.7200 0.7200 0.7200
3914.143358 0.7199 0.7199 0.7199 0.7198 0.7198
3919.157457 0.7198 0.7197 0.7197 0.7197 0.7196
3924.171556 0.7196 0.7196 0.7195 0.7195 0.7195
3929.185656 0.7194 0.7194 0.7194 0.7193 0.7192
3934.199755 0.7191 0.7190 0.7189 0.7188 0.7187
3939.213854 0.7186 0.7185 0.7183 0.7182 0.7181
3944.227953 0.7180 0.7179 0.7178 0.7177 0.7176
3949.242052 0.7175 0.7173 0.7172 0.7171 0.7169
3954.256151 0.7167 0.7165 0.7162 0.7160 0.7158
3959.270251 0.7156 0.7153 0.7151 0.7149 0.7147
3964.284350 0.7144 0.7142 0.7140 0.7137 0.7135
3969.298449 0.7133 0.7131 0.7128 0.7125 0.7122
3974.312548 0.7118 0.7106 0.7108 0.7106 0.7102
3979.326647 0.7098 0.7095 0.7090 0.7086 0.7082
3984.340747 0.7078 0.7075 0.7071 0.7067 0.7063
3989.354846 0.7057 0.7051 0.7044 0.7038 0.7031
3994.368945 0.7025 0.7019 0.7012 0.7006 0.7000
3999.383044 0.6993 0.6982 0.6972 0.6961 0.6950
4004.397143 0.6939 0.6929 0.6918 0.6907 0.6896
4009.411243 0.6891
##END=
