##TITLE=Oxanilic acid, 2-tert-butyl-, ethyl ester
##JCAMP-DX=4.24
##DATA TYPE=INFRARED SPECTRUM
##CLASS=COBLENTZ III
##ORIGIN=MONSANTO (J. FREEMAN)
##OWNER=Copyright (C) 1987 by the Coblentz Society
Collection (C) 2018 copyright by the U.S. Secretary of Commerce
on behalf of the United States of America. All rights reserved.
##DATE=1959/05/18
##NAMES=ethyl (2-tert-butylanilino)(oxo)acetate
##MOLFORM=C14 H19 N O3
##SOURCE REFERENCE=COBLENTZ NO. 9255
##$NIST ID=B6009255
##$NIST SOURCE=COBLENTZ
##$NIST IMAGE=cob9255
##SPECTROMETER/DATA SYSTEM=BECKMAN IR-4 (HYBRID PRISM-GRATING)
##INSTRUMENT PARAMETERS=NaCl PRISM
##STATE=LIQUID (NEAT)
##PATH LENGTH=CAPILLARY
##SAMPLING PROCEDURE=TRANSMISSION
##RESOLUTION=2
##DATA PROCESSING=DIGITIZED BY COBLENTZ SOCIETY (BATCH II) FROM HARD COPY (ADJUSTED \mius0.02-0.01-0.01)
##XUNITS=1/CM
##YUNITS=TRANSMITTANCE
##XFACTOR=1.0
##YFACTOR=1
##DELTAX=1.009677
##FIRSTX=626.607
##LASTX=4032.25
##FIRSTY=0.8295
##MAXX=4032.25
##MINX=626.607
##MAXY=0.965202
##MINY=0.113337
##NPOINTS=3374
##XYDATA=(X++(Y..Y))
626.607117 0.8295 0.8297 0.8291 0.8282 0.8274
631.655503 0.8272 0.8275 0.8278 0.8284 0.8290
636.703890 0.8297 0.8303 0.8309 0.8315 0.8322
641.752276 0.8330 0.8336 0.8343 0.8346 0.8335
646.800662 0.8322 0.8312 0.8309 0.8308 0.8308
651.849048 0.8308 0.8313 0.8317 0.8323 0.8328
656.897434 0.8333 0.8343 0.8367 0.8399 0.8410
661.945820 0.8402 0.8402 0.8425 0.8461 0.8484
666.994206 0.8485 0.8484 0.8483 0.8486 0.8496
672.042592 0.8513 0.8536 0.8566 0.8611 0.8652
677.090978 0.8673 0.8682 0.8684 0.8680 0.8663
682.139365 0.8634 0.8603 0.8571 0.8540 0.8532
687.187751 0.8590 0.8681 0.8764 0.8836 0.8905
692.236137 0.8964 0.9019 0.9070 0.9113 0.9149
697.284523 0.9177 0.9203 0.9228 0.9251 0.9272
702.332909 0.9293 0.9304 0.9315 0.9326 0.9337
707.381295 0.9344 0.9352 0.9359 0.9367 0.9375
712.429681 0.9383 0.9391 0.9399 0.9396 0.9399
717.478067 0.9399 0.9396 0.9391 0.9384 0.9365
722.526453 0.9329 0.9280 0.9225 0.9139 0.9050
727.574840 0.8957 0.8854 0.8723 0.8559 0.8422
732.623226 0.8326 0.8283 0.8296 0.8301 0.8307
737.671612 0.8322 0.8344 0.8364 0.8340 0.8312
742.719998 0.8268 0.8214 0.8146 0.8055 0.7915
747.768384 0.7680 0.7329 0.6904 0.6481 0.6058
752.816770 0.5636 0.5216 0.4772 0.4477 0.4461
757.865156 0.4584 0.4872 0.5167 0.5462 0.5756
762.913542 0.6049 0.6341 0.6632 0.6924 0.7168
767.961928 0.7337 0.7481 0.7626 0.7772 0.7917
773.010315 0.8060 0.8191 0.8291 0.8415 0.8528
778.058701 0.8586 0.8620 0.8644 0.8654 0.8656
783.107087 0.8658 0.8671 0.8706 0.8771 0.8862
788.155473 0.8935 0.8973 0.8997 0.9015 0.9029
793.203859 0.9037 0.9043 0.9053 0.9062 0.9072
798.252245 0.9080 0.9087 0.9093 0.9100 0.9107
803.300631 0.9111 0.9115 0.9118 0.9122 0.9124
808.349017 0.9126 0.9128 0.9130 0.9134 0.9162
813.397403 0.9136 0.9139 0.9142 0.9146 0.9156
818.445790 0.9178 0.9217 0.9251 0.9268 0.9263
823.494176 0.9253 0.9231 0.9196 0.9140 0.9061
828.542562 0.8986 0.8918 0.8850 0.8777 0.8693
833.590948 0.8607 0.8517 0.8420 0.8336 0.8308
838.639334 0.8348 0.8400 0.8452 0.8486 0.8488
843.687720 0.8460 0.8424 0.8371 0.8324 0.8302
848.736106 0.8335 0.8410 0.8483 0.8563 0.8654
853.784492 0.8755 0.8844 0.8900 0.8926 0.8918
858.832878 0.8891 0.8854 0.8798 0.8731 0.8628
863.881265 0.8594 0.8611 0.8640 0.8684 0.8736
868.929651 0.8794 0.8855 0.8912 0.8966 0.9020
873.978037 0.9077 0.9134 0.9189 0.9238 0.9287
879.026423 0.9335 0.9370 0.9402 0.9433 0.9464
884.074809 0.9491 0.9517 0.9541 0.9564 0.9577
889.123195 0.9589 0.9601 0.9612 0.9620 0.9623
894.171581 0.9625 0.9628 0.9631 0.9634 0.9636
899.219967 0.9635 0.9652 0.9629 0.9626 0.9624
904.268353 0.9621 0.9615 0.9606 0.9596 0.9587
909.316740 0.9577 0.9561 0.9545 0.9530 0.9511
914.365126 0.9486 0.9460 0.9424 0.9367 0.9295
919.413512 0.9221 0.9148 0.9074 0.8998 0.8916
924.461898 0.8840 0.8774 0.8720 0.8680 0.8650
929.510284 0.8641 0.8668 0.8678 0.8688 0.8704
934.558670 0.8727 0.8749 0.8771 0.8795 0.8820
939.607056 0.8842 0.8862 0.8878 0.8890 0.8896
944.655442 0.8895 0.8896 0.8898 0.8902 0.8910
949.703828 0.8919 0.8931 0.8948 0.8972 0.9002
954.752215 0.9046 0.9113 0.9191 0.9248 0.9295
959.800601 0.9335 0.9369 0.9400 0.9429 0.9451
964.848987 0.9470 0.9487 0.9493 0.9481 0.9487
969.897373 0.9487 0.9484 0.9479 0.9474 0.9469
974.945759 0.9462 0.9454 0.9446 0.9438 0.9428
979.994145 0.9416 0.9404 0.9391 0.9377 0.9351
985.042531 0.9325 0.9299 0.9267 0.9234 0.9197
990.090917 0.9155 0.9112 0.9058 0.9001 0.8944
995.139303 0.8882 0.8802 0.8641 0.8406 0.8230
1000.187689 0.8062 0.7881 0.7699 0.7516 0.7322
1005.236076 0.7119 0.6911 0.6704 0.6497 0.6290
1010.284462 0.6089 0.5915 0.5809 0.5768 0.5743
1015.332848 0.5740 0.5861 0.6061 0.6261 0.6460
1020.381234 0.6659 0.6858 0.7056 0.7254 0.7451
1025.429620 0.7648 0.7845 0.8041 0.8372 0.8688
1030.478006 0.8816 0.8886 0.8943 0.8993 0.9037
1035.526392 0.9068 0.9084 0.9089 0.9090 0.9089
1040.574778 0.9081 0.9105 0.9055 0.8976 0.8886
1045.623164 0.8791 0.8667 0.8477 0.8267 0.8058
1050.671551 0.7849 0.7647 0.7583 0.7997 0.8444
1055.719937 0.8895 0.9135 0.9233 0.9299 0.9338
1060.768323 0.9367 0.9388 0.9401 0.9413 0.9421
1065.816709 0.9424 0.9428 0.9430 0.9427 0.9461
1070.865095 0.9419 0.9410 0.9400 0.9388 0.9370
1075.913481 0.9351 0.9324 0.9285 0.9215 0.9113
1080.961867 0.9006 0.8892 0.8788 0.8687 0.8582
1086.010253 0.8474 0.8364 0.8301 0.8281 0.8305
1091.058639 0.8320 0.8347 0.8379 0.8421 0.8467
1096.107026 0.8514 0.8557 0.8595 0.8640 0.8669
1101.155412 0.8654 0.8645 0.8618 0.8575 0.8519
1106.203798 0.8461 0.8417 0.8400 0.8374 0.8399
1111.252184 0.8484 0.8534 0.8578 0.8615 0.8640
1116.300570 0.8654 0.8658 0.8676 0.8654 0.8603
1121.348956 0.8542 0.8413 0.8242 0.8068 0.7895
1126.397342 0.7766 0.7727 0.7855 0.8019 0.8172
1131.445728 0.8324 0.8476 0.8592 0.8598 0.8603
1136.494114 0.8586 0.8530 0.8451 0.8369 0.8285
1141.542501 0.8191 0.8024 0.7891 0.7758 0.7543
1146.590887 0.7298 0.7050 0.6803 0.6557 0.6310
1151.639273 0.6065 0.5800 0.5460 0.5214 0.5049
1156.687659 0.4908 0.4807 0.4716 0.4643 0.4584
1161.736045 0.4530 0.4494 0.4460 0.4431 0.4403
1166.784431 0.4371 0.4312 0.4218 0.4092 0.3982
1171.832817 0.3904 0.3848 0.3813 0.3806 0.3817
1176.881203 0.3941 0.4287 0.4579 0.4872 0.5163
1181.929589 0.5455 0.5746 0.6036 0.6402 0.6801
1186.977976 0.6969 0.7041 0.7107 0.7166 0.7215
1192.026362 0.7268 0.7342 0.7504 0.7726 0.7895
1197.074748 0.8009 0.8089 0.8143 0.8174 0.8183
1202.123134 0.8183 0.8179 0.8181 0.8163 0.8083
1207.171520 0.7969 0.7849 0.7730 0.7611 0.7493
1212.219906 0.7374 0.7256 0.7137 0.7019 0.6901
1217.268292 0.6804 0.6741 0.6691 0.6653 0.6623
1222.316678 0.6602 0.6586 0.6581 0.6582 0.6589
1227.365064 0.6600 0.6558 0.6664 0.6738 0.6807
1232.413451 0.6876 0.6936 0.6988 0.7031 0.7051
1237.461837 0.7067 0.7068 0.7065 0.7056 0.7045
1242.510223 0.7077 0.6892 0.6679 0.6466 0.6254
1247.558609 0.6058 0.5931 0.5867 0.5817 0.5783
1252.606995 0.5768 0.5759 0.5751 0.5746 0.5741
1257.655381 0.5733 0.5703 0.5646 0.5553 0.5425
1262.703767 0.5301 0.5158 0.4958 0.4746 0.4534
1267.752153 0.4322 0.4111 0.3899 0.3688 0.3497
1272.800539 0.3378 0.3327 0.3301 0.3295 0.3309
1277.848926 0.3333 0.3348 0.3352 0.3350 0.3341
1282.897312 0.3282 0.3181 0.3081 0.2980 0.2879
1287.945698 0.2778 0.2677 0.2577 0.2482 0.2413
1292.994084 0.2378 0.2363 0.2329 0.2344 0.2362
1298.042470 0.2376 0.2407 0.2468 0.2557 0.2648
1303.090856 0.2711 0.2771 0.2843 0.2921 0.3478
1308.139242 0.3741 0.3907 0.4068 0.4228 0.4388
1313.187628 0.4547 0.4707 0.4866 0.5165 0.6045
1318.236014 0.6392 0.7102 0.7348 0.7470 0.7617
1323.284401 0.7783 0.7900 0.7982 0.8063 0.8141
1328.332787 0.8215 0.8277 0.8337 0.8395 0.8444
1333.381173 0.8488 0.8533 0.8576 0.8608 0.8628
1338.429559 0.8646 0.8665 0.8683 0.8701 0.8715
1343.477945 0.8727 0.8737 0.8748 0.8756 0.8763
1348.526331 0.8766 0.8755 0.8749 0.8737 0.8720
1353.574717 0.8697 0.8655 0.8592 0.8517 0.8441
1358.623103 0.8276 0.7971 0.7627 0.7283 0.6939
1363.671489 0.6597 0.6254 0.5913 0.5572 0.5353
1368.719876 0.5296 0.5294 0.5617 0.6028 0.6368
1373.768262 0.6707 0.7045 0.7382 0.7720 0.8015
1378.816648 0.8140 0.8156 0.8157 0.8151 0.8144
1383.865034 0.8127 0.8058 0.7965 0.7871 0.7777
1388.913420 0.7683 0.7590 0.7496 0.7426 0.7404
1393.961806 0.7372 0.7396 0.7402 0.7409 0.7523
1399.010192 0.7657 0.7791 0.7924 0.8058 0.8192
1404.058578 0.8324 0.8409 0.8442 0.8471 0.8497
1409.106964 0.8517 0.8528 0.8529 0.8531 0.8527
1414.155351 0.8522 0.8518 0.8510 0.8504 0.8494
1419.203737 0.8483 0.8470 0.8449 0.8423 0.8398
1424.252123 0.8366 0.8312 0.8251 0.8185 0.8114
1429.300509 0.8034 0.7944 0.7797 0.7535 0.7261
1434.348895 0.7013 0.6765 0.6518 0.6271 0.6024
1439.397281 0.5778 0.5532 0.5287 0.5042 0.4797
1444.445667 0.4558 0.4385 0.4333 0.4323 0.4340
1449.494053 0.4443 0.4587 0.4732 0.4875 0.5020
1454.542439 0.5163 0.5306 0.5449 0.5593 0.5735
1459.590826 0.6181 0.6130 0.6163 0.6277 0.6319
1464.639212 0.6318 0.6309 0.6295 0.6247 0.6168
1469.687598 0.6084 0.6001 0.5917 0.5834 0.5751
1474.735984 0.5682 0.5636 0.5657 0.5664 0.5672
1479.784370 0.5780 0.5897 0.6012 0.6129 0.6245
1484.832756 0.6362 0.6477 0.6592 0.6705 0.6790
1489.881142 0.6801 0.6807 0.6794 0.6770 0.6691
1494.929528 0.6605 0.6537 0.6446 0.6312 0.6181
1499.977914 0.6053 0.5927 0.5800 0.5672 0.5546
1505.026301 0.5420 0.5295 0.5169 0.5043 0.4917
1510.074687 0.4792 0.4666 0.4549 0.4466 0.4408
1515.123073 0.4353 0.4291 0.4221 0.4147 0.4071
1520.171459 0.3988 0.3902 0.3806 0.3700 0.3597
1525.219845 0.3500 0.3402 0.3320 0.3277 0.3257
1530.268231 0.3251 0.3217 0.3236 0.3263 0.3274
1535.316617 0.3290 0.3328 0.3419 0.3622 0.3901
1540.365003 0.4198 0.4494 0.4790 0.5085 0.5380
1545.413389 0.5675 0.5968 0.6263 0.6556 0.6837
1550.461776 0.7083 0.7231 0.7323 0.7407 0.7514
1555.510162 0.7672 0.7845 0.8019 0.8191 0.8316
1560.558548 0.8357 0.8363 0.8364 0.8365 0.8367
1565.606934 0.8219 0.8020 0.7819 0.7619 0.7419
1570.655320 0.7219 0.7019 0.6820 0.6621 0.6422
1575.703706 0.6223 0.6025 0.5827 0.5630 0.5534
1580.752092 0.5514 0.5495 0.5814 0.6125 0.6414
1585.800478 0.6701 0.6989 0.7276 0.7562 0.7849
1590.848864 0.8082 0.8194 0.8229 0.8247 0.8264
1595.897251 0.8277 0.8289 0.8301 0.8314 0.8330
1600.945637 0.8352 0.8386 0.8449 0.8531 0.8584
1605.994023 0.8619 0.8641 0.8661 0.8681 0.8699
1611.042409 0.8708 0.8716 0.8725 0.8733 0.8742
1616.090795 0.8750 0.8758 0.8767 0.8774 0.8781
1621.139181 0.8789 0.8796 0.8804 0.8811 0.8818
1626.187567 0.8824 0.8827 0.8829 0.8832 0.8834
1631.235953 0.8837 0.8840 0.8841 0.8844 0.8857
1636.284339 0.8848 0.8847 0.8847 0.8848 0.8848
1641.332725 0.8847 0.8844 0.8837 0.8829 0.8822
1646.381112 0.8813 0.8800 0.8785 0.8770 0.8754
1651.429498 0.8731 0.8703 0.8675 0.8647 0.8617
1656.477884 0.8584 0.8550 0.8517 0.8485 0.8447
1661.526270 0.8404 0.8361 0.8317 0.8273 0.8228
1666.574656 0.8172 0.8083 0.7993 0.7912 0.7842
1671.623042 0.7775 0.7709 0.7643 0.7536 0.7360
1676.671428 0.7160 0.6991 0.6823 0.6653 0.6486
1681.719814 0.6319 0.6151 0.5985 0.5816 0.5649
1686.768200 0.5484 0.5317 0.5174 0.5061 0.4968
1691.816587 0.4878 0.4788 0.4696 0.4602 0.4491
1696.864973 0.4322 0.4123 0.3911 0.3694 0.3477
1701.913359 0.3260 0.3044 0.2827 0.2611 0.2396
1706.961745 0.2180 0.1965 0.1750 0.1535 0.1373
1712.010131 0.1282 0.1235 0.1205 0.1181 0.1175
1717.058517 0.1169 0.1164 0.1158 0.1133 0.1188
1722.106903 0.1309 0.1494 0.1678 0.1863 0.2047
1727.155289 0.2230 0.2414 0.2597 0.2781 0.2965
1732.203675 0.3147 0.3330 0.3513 0.3694 0.3877
1737.252062 0.4058 0.4239 0.4421 0.4603 0.4784
1742.300448 0.4965 0.5145 0.5325 0.5506 0.5685
1747.348834 0.5864 0.6044 0.6218 0.6223 0.6224
1752.397220 0.6224 0.6224 0.6196 0.6147 0.6097
1757.445606 0.6046 0.5995 0.5945 0.5894 0.5844
1762.493992 0.5793 0.5743 0.5707 0.5694 0.5699
1767.542378 0.5733 0.6057 0.6392 0.6726 0.7060
1772.590764 0.7393 0.7687 0.7831 0.7920 0.8055
1777.639150 0.8330 0.8424 0.8477 0.8521 0.8564
1782.687537 0.8609 0.8654 0.8700 0.8740 0.8762
1787.735923 0.8778 0.8793 0.8808 0.8824 0.8839
1792.784309 0.8853 0.8865 0.8876 0.8886 0.8897
1797.832695 0.8907 0.8917 0.8928 0.8939 0.8949
1802.881081 0.8959 0.8970 0.8980 0.8988 0.8996
1807.929467 0.9004 0.9012 0.9019 0.9028 0.9036
1812.977853 0.9043 0.9051 0.9059 0.9067 0.9074
1818.026239 0.9081 0.9088 0.9095 0.9102 0.9108
1823.074625 0.9115 0.9122 0.9129 0.9135 0.9142
1828.123012 0.9149 0.9156 0.9162 0.9169 0.9175
1833.171398 0.9181 0.9187 0.9192 0.9198 0.9203
1838.219784 0.9208 0.9214 0.9220 0.9225 0.9231
1843.268170 0.9236 0.9242 0.9247 0.9253 0.9258
1848.316556 0.9262 0.9266 0.9270 0.9273 0.9277
1853.364942 0.9280 0.9283 0.9287 0.9290 0.9293
1858.413328 0.9297 0.9300 0.9303 0.9307 0.9310
1863.461714 0.9314 0.9317 0.9320 0.9323 0.9326
1868.510100 0.9330 0.9333 0.9337 0.9340 0.9343
1873.558487 0.9346 0.9346 0.9348 0.9349 0.9350
1878.606873 0.9350 0.9352 0.9353 0.9353 0.9354
1883.655259 0.9355 0.9357 0.9357 0.9358 0.9359
1888.703645 0.9360 0.9361 0.9362 0.9362 0.9364
1893.752031 0.9365 0.9366 0.9366 0.9367 0.9368
1898.800417 0.9368 0.9369 0.9370 0.9370 0.9371
1903.848803 0.9372 0.9372 0.9373 0.9374 0.9375
1908.897189 0.9375 0.9376 0.9377 0.9377 0.9378
1913.945575 0.9379 0.9379 0.9380 0.9380 0.9380
1918.993962 0.9380 0.9379 0.9379 0.9378 0.9378
1924.042348 0.9378 0.9377 0.9376 0.9376 0.9376
1929.090734 0.9375 0.9375 0.9375 0.9374 0.9373
1934.139120 0.9373 0.9373 0.9373 0.9373 0.9374
1939.187506 0.9375 0.9376 0.9377 0.9378 0.9378
1944.235892 0.9379 0.9380 0.9381 0.9382 0.9383
1949.284278 0.9384 0.9385 0.9385 0.9387 0.9388
1954.332664 0.9388 0.9390 0.9391 0.9391 0.9392
1959.381050 0.9393 0.9396 0.9399 0.9402 0.9406
1964.429437 0.9410 0.9414 0.9417 0.9421 0.9424
1969.477823 0.9428 0.9432 0.9435 0.9438 0.9442
1974.526209 0.9445 0.9445 0.9445 0.9445 0.9444
1979.574595 0.9444 0.9444 0.9443 0.9443 0.9443
1984.622981 0.9442 0.9442 0.9442 0.9441 0.9441
1989.671367 0.9441 0.9441 0.9441 0.9441 0.9441
1994.719753 0.9441 0.9441 0.9441 0.9441 0.9441
1999.768139 0.9441 0.9441 0.9441 0.9441 0.9441
2004.816525 0.9441 0.9441 0.9441 0.9441 0.9441
2009.864912 0.9441 0.9441 0.9441 0.9441 0.9441
2014.913298 0.9441 0.9441 0.9440 0.9440 0.9440
2019.961684 0.9440 0.9440 0.9440 0.9440 0.9440
2025.010070 0.9440 0.9440 0.9440 0.9440 0.9440
2030.058456 0.9440 0.9440 0.9440 0.9440 0.9440
2035.106842 0.9440 0.9440 0.9439 0.9439 0.9439
2040.155228 0.9439 0.9439 0.9439 0.9439 0.9439
2045.203614 0.9439 0.9439 0.9439 0.9439 0.9439
2050.252000 0.9439 0.9439 0.9439 0.9439 0.9439
2055.300387 0.9439 0.9439 0.9438 0.9437 0.9437
2060.348773 0.9437 0.9437 0.9436 0.9436 0.9435
2065.397159 0.9435 0.9435 0.9434 0.9434 0.9433
2070.445545 0.9433 0.9433 0.9432 0.9432 0.9431
2075.493931 0.9431 0.9431 0.9430 0.9430 0.9416
2080.542317 0.9419 0.9429 0.9428 0.9428 0.9427
2085.590703 0.9427 0.9427 0.9427 0.9426 0.9425
2090.639089 0.9425 0.9425 0.9425 0.9424 0.9424
2095.687475 0.9423 0.9423 0.9423 0.9422 0.9422
2100.735862 0.9421 0.9421 0.9421 0.9421 0.9420
2105.784248 0.9420 0.9419 0.9419 0.9419 0.9419
2110.832634 0.9418 0.9417 0.9417 0.9417 0.9417
2115.881020 0.9416 0.9416 0.9415 0.9415 0.9415
2120.929406 0.9414 0.9414 0.9413 0.9413 0.9413
2125.977792 0.9413 0.9412 0.9412 0.9411 0.9411
2131.026178 0.9411 0.9410 0.9410 0.9409 0.9409
2136.074564 0.9409 0.9409 0.9408 0.9407 0.9407
2141.122950 0.9406 0.9406 0.9406 0.9406 0.9405
2146.171337 0.9405 0.9404 0.9404 0.9404 0.9403
2151.219723 0.9403 0.9402 0.9402 0.9402 0.9402
2156.268109 0.9401 0.9401 0.9400 0.9400 0.9400
2161.316495 0.9400 0.9399 0.9398 0.9398 0.9397
2166.364881 0.9397 0.9397 0.9397 0.9396 0.9396
2171.413267 0.9395 0.9395 0.9395 0.9395 0.9394
2176.461653 0.9394 0.9393 0.9393 0.9393 0.9392
2181.510039 0.9392 0.9391 0.9391 0.9391 0.9391
2186.558425 0.9390 0.9390 0.9390 0.9390 0.9389
2191.606812 0.9389 0.9389 0.9389 0.9388 0.9388
2196.655198 0.9388 0.9387 0.9387 0.9387 0.9387
2201.703584 0.9386 0.9386 0.9386 0.9386 0.9385
2206.751970 0.9385 0.9385 0.9385 0.9384 0.9384
2211.800356 0.9384 0.9384 0.9384 0.9384 0.9383
2216.848742 0.9383 0.9383 0.9383 0.9382 0.9382
2221.897128 0.9382 0.9382 0.9381 0.9381 0.9381
2226.945514 0.9381 0.9380 0.9380 0.9380 0.9380
2231.993900 0.9379 0.9379 0.9379 0.9379 0.9378
2237.042286 0.9378 0.9378 0.9378 0.9377 0.9377
2242.090673 0.9377 0.9377 0.9376 0.9376 0.9376
2247.139059 0.9376 0.9375 0.9375 0.9375 0.9375
2252.187445 0.9374 0.9374 0.9374 0.9374 0.9373
2257.235831 0.9373 0.9373 0.9373 0.9372 0.9372
2262.284217 0.9372 0.9372 0.9371 0.9371 0.9371
2267.332603 0.9371 0.9370 0.9370 0.9370 0.9370
2272.380989 0.9369 0.9369 0.9369 0.9369 0.9368
2277.429375 0.9368 0.9368 0.9368 0.9367 0.9367
2282.477761 0.9367 0.9367 0.9366 0.9366 0.9366
2287.526148 0.9366 0.9366 0.9365 0.9365 0.9365
2292.574534 0.9365 0.9364 0.9364 0.9364 0.9364
2297.622920 0.9363 0.9363 0.9363 0.9363 0.9362
2302.671306 0.9362 0.9362 0.9362 0.9361 0.9361
2307.719692 0.9361 0.9361 0.9361 0.9360 0.9360
2312.768078 0.9360 0.9360 0.9359 0.9359 0.9359
2317.816464 0.9359 0.9358 0.9358 0.9358 0.9358
2322.864850 0.9357 0.9357 0.9357 0.9357 0.9357
2327.913236 0.9357 0.9356 0.9356 0.9356 0.9356
2332.961623 0.9355 0.9355 0.9355 0.9355 0.9354
2338.010009 0.9354 0.9354 0.9354 0.9354 0.9353
2343.058395 0.9353 0.9353 0.9353 0.9352 0.9352
2348.106781 0.9352 0.9352 0.9352 0.9351 0.9351
2353.155167 0.9351 0.9351 0.9350 0.9350 0.9350
2358.203553 0.9350 0.9349 0.9349 0.9349 0.9349
2363.251939 0.9349 0.9348 0.9348 0.9348 0.9348
2368.300325 0.9347 0.9347 0.9347 0.9347 0.9347
2373.348711 0.9346 0.9346 0.9346 0.9346 0.9345
2378.397098 0.9345 0.9345 0.9345 0.9345 0.9344
2383.445484 0.9344 0.9344 0.9344 0.9344 0.9344
2388.493870 0.9343 0.9343 0.9343 0.9343 0.9343
2393.542256 0.9343 0.9343 0.9343 0.9343 0.9343
2398.590642 0.9343 0.9343 0.9342 0.9342 0.9342
2403.639028 0.9342 0.9342 0.9342 0.9342 0.9342
2408.687414 0.9342 0.9342 0.9342 0.9341 0.9341
2413.735800 0.9341 0.9341 0.9341 0.9341 0.9341
2418.784186 0.9341 0.9341 0.9341 0.9341 0.9341
2423.832573 0.9340 0.9340 0.9340 0.9340 0.9340
2428.880959 0.9340 0.9340 0.9340 0.9340 0.9340
2433.929345 0.9340 0.9340 0.9340 0.9340 0.9339
2438.977731 0.9339 0.9339 0.9339 0.9339 0.9339
2444.026117 0.9339 0.9339 0.9339 0.9339 0.9339
2449.074503 0.9339 0.9338 0.9338 0.9338 0.9338
2454.122889 0.9338 0.9338 0.9338 0.9338 0.9338
2459.171275 0.9338 0.9338 0.9338 0.9337 0.9337
2464.219661 0.9337 0.9337 0.9337 0.9337 0.9337
2469.268048 0.9337 0.9337 0.9337 0.9336 0.9335
2474.316434 0.9334 0.9334 0.9334 0.9333 0.9333
2479.364820 0.9332 0.9331 0.9331 0.9330 0.9330
2484.413206 0.9329 0.9328 0.9328 0.9327 0.9326
2489.461592 0.9326 0.9325 0.9325 0.9324 0.9323
2494.509978 0.9323 0.9322 0.9322 0.9321 0.9321
2499.558364 0.9321 0.9320 0.9319 0.9318 0.9318
2504.606750 0.9318 0.9317 0.9316 0.9315 0.9315
2509.655136 0.9315 0.9314 0.9313 0.9312 0.9312
2514.703523 0.9312 0.9311 0.9310 0.9309 0.9309
2519.751909 0.9309 0.9308 0.9307 0.9306 0.9306
2524.800295 0.9306 0.9305 0.9304 0.9303 0.9303
2529.848681 0.9303 0.9302 0.9302 0.9301 0.9300
2534.897067 0.9300 0.9299 0.9299 0.9298 0.9298
2539.945453 0.9297 0.9296 0.9296 0.9295 0.9295
2544.993839 0.9294 0.9293 0.9293 0.9293 0.9292
2550.042225 0.9291 0.9290 0.9290 0.9290 0.9289
2555.090611 0.9288 0.9287 0.9287 0.9287 0.9286
2560.138998 0.9285 0.9285 0.9284 0.9284 0.9283
2565.187384 0.9282 0.9282 0.9281 0.9280 0.9279
2570.235770 0.9279 0.9278 0.9277 0.9276 0.9276
2575.284156 0.9275 0.9274 0.9273 0.9273 0.9272
2580.332542 0.9271 0.9270 0.9270 0.9269 0.9268
2585.380928 0.9267 0.9266 0.9265 0.9264 0.9263
2590.429314 0.9262 0.9262 0.9261 0.9260 0.9259
2595.477700 0.9259 0.9258 0.9257 0.9256 0.9256
2600.526086 0.9256 0.9255 0.9254 0.9254 0.9253
2605.574473 0.9252 0.9251 0.9251 0.9250 0.9249
2610.622859 0.9248 0.9248 0.9247 0.9246 0.9245
2615.671245 0.9245 0.9244 0.9243 0.9242 0.9241
2620.719631 0.9240 0.9239 0.9238 0.9238 0.9237
2625.768017 0.9236 0.9236 0.9235 0.9234 0.9233
2630.816403 0.9233 0.9232 0.9231 0.9230 0.9230
2635.864789 0.9229 0.9228 0.9228 0.9227 0.9226
2640.913175 0.9225 0.9225 0.9224 0.9223 0.9222
2645.961561 0.9222 0.9221 0.9220 0.9220 0.9219
2651.009948 0.9218 0.9217 0.9217 0.9216 0.9215
2656.058334 0.9214 0.9212 0.9211 0.9209 0.9208
2661.106720 0.9207 0.9205 0.9204 0.9202 0.9201
2666.155106 0.9199 0.9198 0.9197 0.9195 0.9194
2671.203492 0.9192 0.9191 0.9190 0.9189 0.9188
2676.251878 0.9186 0.9185 0.9183 0.9182 0.9181
2681.300264 0.9179 0.9178 0.9177 0.9175 0.9174
2686.348650 0.9173 0.9171 0.9170 0.9168 0.9167
2691.397036 0.9166 0.9164 0.9163 0.9161 0.9160
2696.445423 0.9159 0.9157 0.9156 0.9155 0.9153
2701.493809 0.9152 0.9150 0.9149 0.9148 0.9146
2706.542195 0.9145 0.9144 0.9143 0.9142 0.9141
2711.590581 0.9140 0.9138 0.9137 0.9135 0.9134
2716.638967 0.9133 0.9131 0.9130 0.9129 0.9127
2721.687353 0.9126 0.9125 0.9123 0.9122 0.9120
2726.735739 0.9119 0.9118 0.9116 0.9115 0.9114
2731.784125 0.9112 0.9111 0.9110 0.9109 0.9107
2736.832511 0.9106 0.9105 0.9103 0.9102 0.9101
2741.880898 0.9099 0.9098 0.9097 0.9096 0.9095
2746.929284 0.9093 0.9092 0.9091 0.9089 0.9087
2751.977670 0.9085 0.9083 0.9082 0.9080 0.9078
2757.026056 0.9076 0.9074 0.9072 0.9070 0.9068
2762.074442 0.9066 0.9064 0.9062 0.9060 0.9058
2767.122828 0.9056 0.9054 0.9052 0.9050 0.9048
2772.171214 0.9046 0.9044 0.9042 0.9040 0.9038
2777.219600 0.9036 0.9034 0.9032 0.9030 0.9029
2782.267986 0.9028 0.9026 0.9024 0.9022 0.9020
2787.316373 0.9018 0.9016 0.9014 0.9012 0.9010
2792.364759 0.9008 0.9006 0.9004 0.9002 0.9000
2797.413145 0.8999 0.8997 0.8993 0.8987 0.8982
2802.461531 0.8976 0.8969 0.8963 0.8957 0.8950
2807.509917 0.8944 0.8937 0.8931 0.8925 0.8918
2812.558303 0.8912 0.8906 0.8899 0.8890 0.8879
2817.606689 0.8868 0.8855 0.8840 0.8825 0.8805
2822.655075 0.8781 0.8756 0.8726 0.8681 0.8637
2827.703461 0.8595 0.8564 0.8536 0.8508 0.8485
2832.751848 0.8465 0.8445 0.8425 0.8405 0.8384
2837.800234 0.8363 0.8339 0.8316 0.8289 0.8253
2842.848620 0.8216 0.8181 0.8144 0.8108 0.8071
2847.897006 0.8043 0.8017 0.7992 0.7966 0.7942
2852.945392 0.7918 0.7893 0.7869 0.7844 0.7820
2857.993778 0.7799 0.7778 0.7758 0.7739 0.7719
2863.042164 0.7699 0.7679 0.7660 0.7641 0.7621
2868.090550 0.7601 0.7582 0.7564 0.7546 0.7530
2873.138936 0.7514 0.7498 0.7483 0.7468 0.7452
2878.187322 0.7437 0.7421 0.7406 0.7391 0.7376
2883.235709 0.7360 0.7346 0.7332 0.7318 0.7304
2888.284095 0.7291 0.7279 0.7266 0.7253 0.7241
2893.332481 0.7228 0.7215 0.7203 0.7190 0.7177
2898.380867 0.7164 0.7151 0.7138 0.7125 0.7111
2903.429253 0.7097 0.7083 0.7069 0.7055 0.7041
2908.477639 0.7027 0.7013 0.7000 0.6986 0.6972
2913.526025 0.6958 0.6944 0.6930 0.6917 0.6897
2918.574411 0.6871 0.6845 0.6819 0.6791 0.6763
2923.622797 0.6735 0.6708 0.6681 0.6654 0.6630
2928.671184 0.6608 0.6587 0.6566 0.6545 0.6524
2933.719570 0.6503 0.6482 0.6461 0.6440 0.6419
2938.767956 0.6395 0.6371 0.6346 0.6320 0.6294
2943.816342 0.6267 0.6241 0.6214 0.6188 0.6161
2948.864728 0.6129 0.6096 0.6062 0.6028 0.5994
2953.913114 0.5960 0.5926 0.5892 0.5858 0.5824
2958.961500 0.5790 0.5756 0.5722 0.5688 0.5655
2964.009886 0.5622 0.5588 0.5554 0.5521 0.5487
2969.058272 0.5453 0.5420 0.5387 0.5353 0.5320
2974.106659 0.5286 0.5253 0.5219 0.5186 0.5153
2979.155045 0.5120 0.5086 0.5053 0.5020 0.4990
2984.203431 0.4971 0.4957 0.4943 0.4936 0.4935
2989.251817 0.4935 0.4935 0.4935 0.4935 0.4935
2994.300203 0.4937 0.4979 0.5046 0.5103 0.5192
2999.348589 0.5307 0.5423 0.5538 0.5653 0.5767
3004.396975 0.5882 0.5997 0.6111 0.6225 0.6340
3009.445361 0.6454 0.6568 0.6683 0.6797 0.6911
3014.493747 0.7025 0.7140 0.7253 0.7367 0.7481
3019.542134 0.7594 0.7707 0.7821 0.7929 0.8009
3024.590520 0.8059 0.8108 0.8150 0.8173 0.8189
3029.638906 0.8204 0.8218 0.8229 0.8240 0.8251
3034.687292 0.8261 0.8270 0.8279 0.8288 0.8295
3039.735678 0.8301 0.8307 0.8313 0.8318 0.8324
3044.784064 0.8330 0.8336 0.8341 0.8347 0.8352
3049.832450 0.8356 0.8361 0.8365 0.8369 0.8372
3054.880836 0.8376 0.8380 0.8384 0.8388 0.8391
3059.929222 0.8395 0.8399 0.8403 0.8406 0.8410
3064.977609 0.8414 0.8418 0.8422 0.8425 0.8430
3070.025995 0.8434 0.8438 0.8443 0.8447 0.8452
3075.074381 0.8456 0.8461 0.8466 0.8470 0.8475
3080.122767 0.8479 0.8484 0.8488 0.8493 0.8497
3085.171153 0.8502 0.8506 0.8512 0.8517 0.8523
3090.219539 0.8529 0.8535 0.8541 0.8547 0.8553
3095.267925 0.8559 0.8566 0.8572 0.8578 0.8583
3100.316311 0.8589 0.8595 0.8601 0.8607 0.8613
3105.364697 0.8619 0.8625 0.8631 0.8636 0.8642
3110.413084 0.8648 0.8653 0.8659 0.8664 0.8669
3115.461470 0.8675 0.8680 0.8685 0.8690 0.8695
3120.509856 0.8701 0.8706 0.8711 0.8717 0.8722
3125.558242 0.8728 0.8733 0.8738 0.8743 0.8748
3130.606628 0.8754 0.8759 0.8764 0.8767 0.8770
3135.655014 0.8772 0.8775 0.8777 0.8778 0.8779
3140.703400 0.8785 0.8822 0.8783 0.8785 0.8787
3145.751786 0.8788 0.8789 0.8790 0.8791 0.8791
3150.800172 0.8790 0.8789 0.8788 0.8786 0.8784
3155.848559 0.8782 0.8780 0.8778 0.8777 0.8775
3160.896945 0.8773 0.8771 0.8769 0.8767 0.8765
3165.945331 0.8763 0.8761 0.8760 0.8757 0.8754
3170.993717 0.8750 0.8747 0.8743 0.8738 0.8734
3176.042103 0.8730 0.8726 0.8721 0.8717 0.8712
3181.090489 0.8708 0.8703 0.8699 0.8694 0.8689
3186.138875 0.8683 0.8677 0.8671 0.8665 0.8658
3191.187261 0.8652 0.8645 0.8639 0.8632 0.8626
3196.235647 0.8619 0.8613 0.8607 0.8599 0.8592
3201.284034 0.8585 0.8576 0.8567 0.8559 0.8550
3206.332420 0.8541 0.8533 0.8524 0.8516 0.8507
3211.380806 0.8498 0.8489 0.8480 0.8472 0.8463
3216.429192 0.8454 0.8446 0.8437 0.8429 0.8420
3221.477578 0.8412 0.8403 0.8394 0.8385 0.8377
3226.525964 0.8368 0.8358 0.8349 0.8339 0.8329
3231.574350 0.8319 0.8308 0.8298 0.8288 0.8278
3236.622736 0.8267 0.8257 0.8247 0.8238 0.8229
3241.671122 0.8219 0.8211 0.8203 0.8196 0.8189
3246.719509 0.8181 0.8174 0.8166 0.8159 0.8151
3251.767895 0.8144 0.8136 0.8129 0.8122 0.8114
3256.816281 0.8107 0.8099 0.8092 0.8085 0.8078
3261.864667 0.8071 0.8063 0.8056 0.8050 0.8043
3266.913053 0.8037 0.8030 0.8025 0.8021 0.8016
3271.961439 0.8012 0.8007 0.8003 0.7998 0.7994
3277.009825 0.7989 0.7985 0.7980 0.7976 0.7972
3282.058211 0.7967 0.7963 0.7958 0.7954 0.7949
3287.106597 0.7945 0.7940 0.7936 0.7933 0.7930
3292.154984 0.7928 0.7925 0.7923 0.7921 0.7920
3297.203370 0.7919 0.7917 0.7916 0.7915 0.7914
3302.251756 0.7912 0.7911 0.7910 0.7909 0.7908
3307.300142 0.7907 0.7905 0.7904 0.7903 0.7901
3312.348528 0.7900 0.7899 0.7898 0.7896 0.7895
3317.396914 0.7894 0.7893 0.7892 0.7891 0.7891
3322.445300 0.7891 0.7891 0.7890 0.7890 0.7890
3327.493686 0.7890 0.7890 0.7890 0.7890 0.7890
3332.542072 0.7890 0.7890 0.7889 0.7889 0.7889
3337.590459 0.7885 0.7871 0.7848 0.7826 0.7803
3342.638845 0.7781 0.7758 0.7735 0.7712 0.7689
3347.687231 0.7667 0.7644 0.7621 0.7599 0.7576
3352.735617 0.7553 0.7531 0.7508 0.7485 0.7462
3357.784003 0.7440 0.7417 0.7395 0.7372 0.7349
3362.832389 0.7327 0.7305 0.7282 0.7259 0.7237
3367.880775 0.7214 0.7192 0.7170 0.7147 0.7125
3372.929161 0.7102 0.7080 0.7058 0.7035 0.7013
3377.977547 0.6990 0.6968 0.6945 0.6923 0.6901
3383.025934 0.6879 0.6857 0.6835 0.6812 0.6790
3388.074320 0.6768 0.6745 0.6723 0.6701 0.6679
3393.122706 0.6656 0.6635 0.6613 0.6590 0.6568
3398.171092 0.6546 0.6524 0.6502 0.6480 0.6458
3403.219478 0.6436 0.6414 0.6392 0.6371 0.6354
3408.267864 0.6337 0.6320 0.6304 0.6297 0.6297
3413.316250 0.6297 0.6297 0.6298 0.6301 0.6298
3418.364636 0.6298 0.6301 0.6316 0.6357 0.6398
3423.413022 0.6439 0.6483 0.6550 0.6628 0.6706
3428.461409 0.6784 0.6862 0.6940 0.7018 0.7096
3433.509795 0.7173 0.7252 0.7330 0.7407 0.7485
3438.558181 0.7563 0.7640 0.7718 0.7795 0.7872
3443.606567 0.7950 0.8027 0.8104 0.8182 0.8258
3448.654953 0.8318 0.8346 0.8374 0.8402 0.8429
3453.703339 0.8446 0.8458 0.8470 0.8482 0.8494
3458.751725 0.8502 0.8509 0.8517 0.8524 0.8532
3463.800111 0.8539 0.8547 0.8554 0.8562 0.8569
3468.848497 0.8576 0.8584 0.8591 0.8598 0.8604
3473.896884 0.8608 0.8612 0.8616 0.8620 0.8625
3478.945270 0.8629 0.8633 0.8637 0.8641 0.8645
3483.993656 0.8649 0.8654 0.8658 0.8661 0.8665
3489.042042 0.8669 0.8672 0.8676 0.8680 0.8682
3494.090428 0.8684 0.8686 0.8688 0.8690 0.8692
3499.138814 0.8694 0.8696 0.8698 0.8700 0.8702
3504.187200 0.8704 0.8706 0.8708 0.8710 0.8712
3509.235586 0.8714 0.8716 0.8718 0.8720 0.8722
3514.283972 0.8724 0.8726 0.8727 0.8729 0.8731
3519.332358 0.8733 0.8735 0.8737 0.8739 0.8741
3524.380745 0.8743 0.8745 0.8747 0.8749 0.8750
3529.429131 0.8752 0.8754 0.8756 0.8757 0.8758
3534.477517 0.8759 0.8760 0.8761 0.8762 0.8764
3539.525903 0.8765 0.8766 0.8767 0.8768 0.8769
3544.574289 0.8770 0.8771 0.8772 0.8773 0.8774
3549.622675 0.8775 0.8776 0.8777 0.8779 0.8780
3554.671061 0.8781 0.8782 0.8783 0.8784 0.8785
3559.719447 0.8786 0.8787 0.8788 0.8790 0.8791
3564.767833 0.8792 0.8793 0.8794 0.8795 0.8796
3569.816220 0.8797 0.8798 0.8799 0.8800 0.8800
3574.864606 0.8801 0.8802 0.8802 0.8803 0.8803
3579.912992 0.8803 0.8803 0.8803 0.8804 0.8804
3584.961378 0.8804 0.8804 0.8804 0.8805 0.8805
3590.009764 0.8805 0.8805 0.8805 0.8806 0.8806
3595.058150 0.8806 0.8806 0.8806 0.8807 0.8807
3600.106536 0.8807 0.8807 0.8807 0.8808 0.8808
3605.154922 0.8808 0.8808 0.8808 0.8809 0.8809
3610.203308 0.8809 0.8809 0.8809 0.8810 0.8810
3615.251695 0.8810 0.8810 0.8813 0.8819 0.8811
3620.300081 0.8811 0.8811 0.8811 0.8811 0.8812
3625.348467 0.8812 0.8812 0.8812 0.8812 0.8813
3630.396853 0.8813 0.8813 0.8813 0.8813 0.8814
3635.445239 0.8814 0.8814 0.8814 0.8814 0.8815
3640.493625 0.8815 0.8815 0.8815 0.8815 0.8816
3645.542011 0.8816 0.8816 0.8816 0.8816 0.8816
3650.590397 0.8815 0.8815 0.8814 0.8814 0.8814
3655.638783 0.8813 0.8813 0.8813 0.8812 0.8812
3660.687170 0.8811 0.8811 0.8811 0.8811 0.8811
3665.735556 0.8811 0.8810 0.8810 0.8809 0.8809
3670.783942 0.8809 0.8808 0.8808 0.8808 0.8808
3675.832328 0.8808 0.8807 0.8807 0.8807 0.8806
3680.880714 0.8806 0.8805 0.8805 0.8805 0.8804
3685.929100 0.8804 0.8804 0.8803 0.8803 0.8803
3690.977486 0.8803 0.8803 0.8802 0.8802 0.8802
3696.025872 0.8801 0.8801 0.8801 0.8800 0.8800
3701.074258 0.8799 0.8799 0.8799 0.8798 0.8798
3706.122645 0.8798 0.8798 0.8798 0.8797 0.8797
3711.171031 0.8797 0.8796 0.8796 0.8796 0.8795
3716.219417 0.8795 0.8795 0.8794 0.8794 0.8793
3721.267803 0.8793 0.8793 0.8793 0.8793 0.8793
3726.316189 0.8792 0.8792 0.8791 0.8791 0.8791
3731.364575 0.8790 0.8790 0.8790 0.8789 0.8789
3736.412961 0.8789 0.8788 0.8788 0.8787 0.8787
3741.461347 0.8787 0.8786 0.8786 0.8786 0.8785
3746.509733 0.8785 0.8785 0.8784 0.8784 0.8784
3751.558120 0.8783 0.8783 0.8782 0.8782 0.8782
3756.606506 0.8781 0.8781 0.8781 0.8780 0.8780
3761.654892 0.8779 0.8779 0.8778 0.8777 0.8777
3766.703278 0.8777 0.8776 0.8776 0.8776 0.8775
3771.751664 0.8775 0.8775 0.8774 0.8774 0.8774
3776.800050 0.8774 0.8773 0.8773 0.8772 0.8772
3781.848436 0.8772 0.8771 0.8771 0.8771 0.8770
3786.896822 0.8770 0.8770 0.8769 0.8769 0.8769
3791.945208 0.8768 0.8768 0.8768 0.8767 0.8767
3796.993595 0.8766 0.8766 0.8766 0.8765 0.8765
3802.041981 0.8765 0.8764 0.8764 0.8764 0.8763
3807.090367 0.8763 0.8762 0.8762 0.8761 0.8761
3812.138753 0.8760 0.8760 0.8760 0.8759 0.8759
3817.187139 0.8758 0.8758 0.8758 0.8757 0.8757
3822.235525 0.8757 0.8756 0.8756 0.8756 0.8755
3827.283911 0.8755 0.8755 0.8754 0.8754 0.8754
3832.332297 0.8753 0.8753 0.8753 0.8752 0.8752
3837.380683 0.8752 0.8751 0.8751 0.8750 0.8750
3842.429070 0.8750 0.8749 0.8749 0.8749 0.8748
3847.477456 0.8748 0.8748 0.8747 0.8747 0.8747
3852.525842 0.8746 0.8746 0.8745 0.8745 0.8744
3857.574228 0.8744 0.8743 0.8743 0.8742 0.8742
3862.622614 0.8741 0.8741 0.8740 0.8740 0.8740
3867.671000 0.8739 0.8739 0.8739 0.8738 0.8738
3872.719386 0.8737 0.8737 0.8736 0.8736 0.8735
3877.767772 0.8735 0.8734 0.8734 0.8733 0.8733
3882.816158 0.8732 0.8732 0.8732 0.8731 0.8731
3887.864545 0.8731 0.8730 0.8730 0.8729 0.8728
3892.912931 0.8728 0.8727 0.8727 0.8726 0.8726
3897.961317 0.8725 0.8725 0.8724 0.8724 0.8724
3903.009703 0.8723 0.8723 0.8723 0.8722 0.8722
3908.058089 0.8721 0.8721 0.8720 0.8720 0.8719
3913.106475 0.8719 0.8718 0.8718 0.8718 0.8717
3918.154861 0.8717 0.8716 0.8716 0.8716 0.8715
3923.203247 0.8715 0.8715 0.8714 0.8714 0.8713
3928.251633 0.8713 0.8712 0.8712 0.8711 0.8711
3933.300020 0.8710 0.8710 0.8709 0.8709 0.8708
3938.348406 0.8708 0.8707 0.8707 0.8706 0.8706
3943.396792 0.8705 0.8705 0.8705 0.8704 0.8704
3948.445178 0.8704 0.8703 0.8703 0.8703 0.8702
3953.493564 0.8702 0.8701 0.8701 0.8700 0.8700
3958.541950 0.8699 0.8698 0.8698 0.8697 0.8696
3963.590336 0.8696 0.8695 0.8694 0.8694 0.8693
3968.638722 0.8693 0.8692 0.8692 0.8691 0.8691
3973.687108 0.8690 0.8690 0.8689 0.8688 0.8688
3978.735495 0.8687 0.8686 0.8686 0.8685 0.8685
3983.783881 0.8684 0.8683 0.8683 0.8682 0.8681
3988.832267 0.8681 0.8680 0.8680 0.8679 0.8679
3993.880653 0.8678 0.8678 0.8677 0.8677 0.8676
3998.929039 0.8675 0.8675 0.8674 0.8673 0.8673
4003.977425 0.8672 0.8671 0.8671 0.8670 0.8670
4009.025811 0.8669 0.8668 0.8668 0.8667 0.8666
4014.074197 0.8666 0.8666 0.8665 0.8665 0.8664
4019.122583 0.8664 0.8663 0.8662 0.8662 0.8661
4024.170970 0.8661 0.8660 0.8659 0.8659 0.8658
4029.219356 0.8657 0.8657 0.8656 0.8656
##END=
