##TITLE=DIBUTYLTIN-BIS-(ISO-OCTYLTHIOGLYCOLATE)
##JCAMP-DX=4.24
##DATA TYPE=INFRARED SPECTRUM
##CLASS=COBLENTZ
##ORIGIN=STANDARD OIL OF OHIO
##OWNER=COBLENTZ SOCIETY
Collection (C) 2018 copyright by the U.S. Secretary of Commerce
on behalf of the United States of America. All rights reserved.
##DATE=Not specified, most likely prior to 1970
##NAMES=octyl [(dibutyl([2-(octyloxy)-2-oxoethyl]sulfanyl)stannyl)sulfanyl]acetate
##MOLFORM=C28 H56 O4 S2 Sn
##SOURCE REFERENCE=COBLENTZ NO. 4634
##$NIST ID=B6004634
##$NIST SOURCE=COBLENTZ
##$NIST IMAGE=cob4634
##SPECTROMETER/DATA SYSTEM=Not specified, most likely a grating spectrometer.
##STATE=LIQUID
##PATH LENGTH=SMEAR ON CsBr
##SAMPLING PROCEDURE=TRANSMISSION
##RESOLUTION=4
##DATA PROCESSING=DIGITIZED BY NIST FROM HARD COPY (FROM TWO SEGMENTS)
##XUNITS=1/CM
##YUNITS=TRANSMITTANCE
##XFACTOR=1.000000
##YFACTOR=1
##DELTAX=1.352501
##FIRSTX=243.111
##LASTX=3888.1
##FIRSTY=0.863
##MAXX=3888.1
##MINX=243.111
##MAXY=0.918998
##MINY=0.127445
##NPOINTS=2696
##XYDATA=(X++(Y..Y))
243.111000 0.8630 0.8610 0.8610 0.8630 0.8610
249.873505 0.8610 0.8600 0.8560 0.8530 0.8480
256.636010 0.8460 0.8450 0.8450 0.8430 0.8430
263.398515 0.8380 0.8290 0.8280 0.8260 0.8260
270.161020 0.8240 0.8240 0.8240 0.8240 0.8240
276.923525 0.8240 0.8240 0.8240 0.8240 0.8240
283.686031 0.8240 0.8240 0.8240 0.8240 0.8240
290.448536 0.8240 0.8240 0.8230 0.8230 0.8190
297.211041 0.8180 0.8140 0.8080 0.8030 0.7910
303.973546 0.7860 0.7740 0.7591 0.7471 0.7400
310.736051 0.7350 0.7230 0.7030 0.6561 0.6430
317.498556 0.6270 0.6210 0.6120 0.6040 0.5970
324.261061 0.5900 0.5890 0.5890 0.5900 0.5920
331.023566 0.5920 0.5940 0.5940 0.5950 0.5950
337.786071 0.5970 0.5990 0.6010 0.6010 0.6020
344.548576 0.6040 0.6090 0.6120 0.6190 0.6379
351.311081 0.6530 0.6610 0.6660 0.6700 0.6800
358.073586 0.6900 0.7000 0.7129 0.7299 0.7469
364.836092 0.7600 0.7720 0.7770 0.7870 0.7970
371.598597 0.8090 0.8160 0.8180 0.8190 0.8210
378.361102 0.8230 0.8230 0.8240 0.8260 0.8260
385.123607 0.8240 0.8240 0.8260 0.8290 0.8310
391.886112 0.8330 0.8380 0.8400 0.8410 0.8460
398.648617 0.8480 0.8480 0.8510 0.8560 0.8610
405.411122 0.8600 0.8480 0.8430 0.8430 0.8450
412.173627 0.8600 0.8630 0.8670 0.8680 0.8700
418.936132 0.8720 0.8750 0.8770 0.8780 0.8830
425.698637 0.8850 0.8850 0.8850 0.8850 0.8870
432.461142 0.8880 0.8880 0.8880 0.8900 0.8900
439.223647 0.8920 0.8950 0.8950 0.8980 0.8980
445.986153 0.8980 0.9000 0.9000 0.9000 0.8970
452.748658 0.8930 0.8930 0.8920 0.8900 0.8850
459.511163 0.8850 0.8870 0.8900 0.8970 0.9000
466.273668 0.9040 0.9040 0.9050 0.9070 0.9070
473.036173 0.9100 0.9140 0.9170 0.9190 0.9170
479.798678 0.9170 0.9150 0.9140 0.9170 0.9190
486.561183 0.9190 0.9170 0.9120 0.9120 0.9100
493.323688 0.9090 0.9100 0.9100 0.9090 0.9020
500.086193 0.8980 0.8930 0.8880 0.8870 0.8830
506.848698 0.8800 0.8750 0.8720 0.8670 0.8630
513.611203 0.8610 0.8610 0.8610 0.8630 0.8650
520.373708 0.8670 0.8680 0.8700 0.8720 0.8770
527.136214 0.8800 0.8870 0.8900 0.8970 0.8970
533.898719 0.9000 0.9040 0.9070 0.9090 0.9100
540.661224 0.9120 0.9140 0.9140 0.9150 0.9150
547.423729 0.9170 0.9170 0.9190 0.9150 0.9120
554.186234 0.9120 0.9090 0.9050 0.9050 0.9020
560.948739 0.9000 0.8970 0.8930 0.8820 0.8780
567.711244 0.8730 0.8670 0.8630 0.8600 0.8530
574.473749 0.8500 0.8460 0.8410 0.8400 0.8400
581.236254 0.8380 0.8380 0.8360 0.8350 0.8330
587.998759 0.8260 0.8230 0.8190 0.8140 0.8110
594.761264 0.8030 0.7970 0.7960 0.7940 0.7940
601.523769 0.7940 0.7960 0.7970 0.8010 0.8030
608.286275 0.8060 0.8080 0.8160 0.8190 0.8260
615.048780 0.8380 0.8450 0.8510 0.8580 0.8630
621.811285 0.8680 0.8770 0.8820 0.8870 0.8900
628.573790 0.8900 0.8930 0.8930 0.8950 0.8950
635.336295 0.8950 0.8930 0.8870 0.8780 0.8720
642.098800 0.8650 0.8580 0.8510 0.8450 0.8380
648.861305 0.8310 0.8290 0.8260 0.8210 0.8160
655.623810 0.8090 0.8010 0.7920 0.7840 0.7741
662.386315 0.7600 0.7490 0.7340 0.7180 0.7000
669.148820 0.6581 0.6560 0.6530 0.6510 0.6490
675.911325 0.6460 0.6430 0.6390 0.6340 0.6340
682.673830 0.6410 0.6490 0.6560 0.6590 0.6630
689.436336 0.6610 0.6590 0.6510 0.6440 0.6380
696.198841 0.6320 0.6260 0.6240 0.6260 0.6270
702.961346 0.6310 0.6340 0.6410 0.6490 0.6610
709.723851 0.6680 0.6730 0.6899 0.7069 0.7279
716.486356 0.7500 0.7710 0.7940 0.8010 0.8130
723.248861 0.8210 0.8260 0.8290 0.8290 0.8290
730.011366 0.8290 0.8290 0.8310 0.8350 0.8360
736.773871 0.8380 0.8400 0.8400 0.8400 0.8380
743.536376 0.8360 0.8350 0.8240 0.8210 0.8210
750.298881 0.8230 0.8260 0.8310 0.8350 0.8380
757.061386 0.8380 0.8410 0.8410 0.8400 0.8380
763.823891 0.8350 0.8290 0.8240 0.8210 0.8140
770.586397 0.8090 0.8060 0.8030 0.8030 0.8040
777.348902 0.8080 0.8090 0.8130 0.8190 0.8240
784.111407 0.8280 0.8330 0.8380 0.8410 0.8480
790.873912 0.8500 0.8530 0.8580 0.8630 0.8630
797.636417 0.8680 0.8700 0.8730 0.8750 0.8770
804.398922 0.8780 0.8780 0.8800 0.8800 0.8780
811.161427 0.8780 0.8780 0.8780 0.8780 0.8770
817.923932 0.8750 0.8750 0.8730 0.8730 0.8730
824.686437 0.8720 0.8700 0.8680 0.8680 0.8670
831.448942 0.8670 0.8650 0.8630 0.8610 0.8580
838.211447 0.8560 0.8510 0.8460 0.8380 0.8330
844.973952 0.8260 0.8140 0.8090 0.8090 0.8110
851.736458 0.8180 0.8210 0.8240 0.8260 0.8260
858.498963 0.8240 0.8190 0.8090 0.7970 0.7791
865.261468 0.7539 0.7270 0.7050 0.6950 0.6860
872.023973 0.6850 0.6850 0.6810 0.6631 0.6441
878.786478 0.6290 0.6290 0.6310 0.6380 0.6440
885.548983 0.6530 0.6660 0.6750 0.6830 0.7049
892.311488 0.7281 0.7520 0.7710 0.7810 0.7890
899.073993 0.7990 0.8040 0.8060 0.8080 0.8090
905.836498 0.8090 0.8090 0.8080 0.8080 0.8060
912.599003 0.8040 0.8030 0.8030 0.8010 0.8010
919.361508 0.7990 0.7990 0.7990 0.7990 0.8010
926.124013 0.8040 0.8060 0.8080 0.8080 0.8060
932.886519 0.8040 0.8030 0.8010 0.7990 0.7970
939.649024 0.7940 0.7890 0.7860 0.7810 0.7770
946.411529 0.7740 0.7710 0.7650 0.7600 0.7520
953.174034 0.7440 0.7340 0.7220 0.7070 0.6950
959.936539 0.6659 0.6460 0.6290 0.6290 0.6310
966.699044 0.6320 0.6320 0.6310 0.6270 0.6220
973.461549 0.6170 0.6090 0.6020 0.5920 0.5820
980.224054 0.5740 0.5650 0.5580 0.5520 0.5450
986.986559 0.5400 0.5350 0.5330 0.5330 0.5330
993.749064 0.5350 0.5370 0.5400 0.5430 0.5480
1000.511569 0.5520 0.5580 0.5650 0.5720 0.5790
1007.274074 0.5920 0.5970 0.6020 0.6110 0.6140
1014.036580 0.6170 0.6190 0.6210 0.6220 0.6240
1020.799085 0.6240 0.6210 0.6190 0.6190 0.6210
1027.561590 0.6210 0.6240 0.6270 0.6310 0.6360
1034.324095 0.6430 0.6460 0.6490 0.6530 0.6590
1041.086600 0.6630 0.6640 0.6640 0.6640 0.6630
1047.849105 0.6630 0.6640 0.6680 0.6700 0.6730
1054.611610 0.6760 0.6800 0.6800 0.6860 0.6880
1061.374115 0.6880 0.6860 0.6860 0.6850 0.6810
1068.136620 0.6760 0.6640 0.6530 0.6440 0.6310
1074.899125 0.6240 0.6240 0.6270 0.6310 0.6430
1081.661630 0.6530 0.6640 0.6750 0.6830 0.7020
1088.424135 0.7200 0.7370 0.7490 0.7550 0.7590
1095.186641 0.7600 0.7600 0.7570 0.7520 0.7390
1101.949146 0.7230 0.7070 0.6950 0.6581 0.6381
1108.711651 0.6069 0.5739 0.5419 0.5060 0.4740
1115.474156 0.4410 0.4100 0.3831 0.3561 0.3241
1122.236661 0.3190 0.3180 0.3180 0.3190 0.3230
1128.999166 0.3240 0.3280 0.3290 0.3280 0.3240
1135.761671 0.3230 0.3210 0.3180 0.3130 0.3090
1142.524176 0.3080 0.3030 0.3010 0.2990 0.2970
1149.286681 0.2990 0.3030 0.3060 0.3110 0.3140
1156.049186 0.3210 0.3280 0.3310 0.3350 0.3450
1162.811691 0.3500 0.3550 0.3580 0.3580 0.3550
1169.574196 0.3510 0.3460 0.3290 0.3210 0.3140
1176.336702 0.3030 0.2990 0.2940 0.2840 0.2770
1183.099207 0.2760 0.2760 0.2770 0.2770 0.2810
1189.861712 0.2870 0.2960 0.3040 0.3160 0.3290
1196.624217 0.3380 0.3460 0.3630 0.3850 0.4069
1203.386722 0.4241 0.4391 0.4540 0.4680 0.4830
1210.149227 0.4960 0.5100 0.5210 0.5330 0.5430
1216.911732 0.5520 0.5580 0.5670 0.5720 0.5800
1223.674237 0.5870 0.5950 0.6020 0.6090 0.6160
1230.436742 0.6170 0.6170 0.6160 0.6160 0.6120
1237.199247 0.6070 0.6020 0.5950 0.5850 0.5750
1243.961752 0.5629 0.5479 0.5330 0.5180 0.5030
1250.724258 0.4890 0.4780 0.4660 0.4540 0.4420
1257.486763 0.4319 0.4190 0.4100 0.3950 0.3780
1264.249268 0.3650 0.3510 0.3330 0.3240 0.3140
1271.011773 0.3060 0.3040 0.3010 0.2970 0.2940
1277.774278 0.2910 0.2860 0.2790 0.2720 0.2710
1284.536783 0.2640 0.2570 0.2540 0.2500 0.2470
1291.299288 0.2450 0.2440 0.2440 0.2450 0.2450
1298.061793 0.2470 0.2500 0.2570 0.2620 0.2670
1304.824298 0.2760 0.2820 0.2920 0.3010 0.3130
1311.586803 0.3260 0.3360 0.3461 0.3670 0.3850
1318.349308 0.4040 0.4220 0.4410 0.4590 0.4760
1325.111813 0.4941 0.5111 0.5280 0.5450 0.5550
1331.874319 0.5720 0.5820 0.5900 0.5970 0.5990
1338.636824 0.5990 0.5990 0.6010 0.6020 0.6120
1345.399329 0.6210 0.6320 0.6460 0.6510 0.6580
1352.161834 0.6590 0.6590 0.6590 0.6580 0.6490
1358.924339 0.6430 0.6310 0.6210 0.6120 0.6010
1365.686844 0.5748 0.5430 0.5431 0.5600 0.5620
1372.449349 0.5580 0.5500 0.5060 0.4930 0.4740
1379.211854 0.4609 0.4440 0.4410 0.4441 0.4620
1385.974359 0.4690 0.4740 0.4890 0.5030 0.5230
1392.736864 0.5431 0.5531 0.5670 0.5700 0.5720
1399.499369 0.5670 0.5620 0.5520 0.5420 0.5300
1406.261874 0.5260 0.5260 0.5280 0.5310 0.5380
1413.024380 0.5420 0.5420 0.5400 0.5400 0.5400
1419.786885 0.5420 0.5470 0.5520 0.5620 0.5720
1426.549390 0.5820 0.5970 0.6060 0.6170 0.6220
1433.311895 0.6240 0.6240 0.6220 0.6210 0.6160
1440.074400 0.6090 0.5970 0.5840 0.5690 0.5520
1446.836905 0.5299 0.5109 0.4939 0.4759 0.4570
1453.599410 0.4410 0.4220 0.4050 0.3880 0.3730
1460.361915 0.3600 0.3530 0.3459 0.3310 0.3310
1467.124420 0.3350 0.3360 0.3510 0.3770 0.4169
1473.886925 0.4522 0.4861 0.5201 0.5501 0.5801
1480.649430 0.6120 0.6440 0.6610 0.6780 0.7050
1487.411935 0.7301 0.7501 0.7670 0.7770 0.7840
1494.174441 0.7890 0.7960 0.8010 0.8040 0.8080
1500.936946 0.8110 0.8140 0.8180 0.8210 0.8240
1507.699451 0.8280 0.8310 0.8330 0.8350 0.8360
1514.461956 0.8380 0.8380 0.8410 0.8430 0.8450
1521.224461 0.8460 0.8480 0.8480 0.8480 0.8500
1527.986966 0.8500 0.8500 0.8500 0.8510 0.8510
1534.749471 0.8530 0.8530 0.8530 0.8510 0.8510
1541.511976 0.8510 0.8510 0.8500 0.8480 0.8480
1548.274481 0.8480 0.8460 0.8460 0.8450 0.8410
1555.036986 0.8410 0.8400 0.8400 0.8380 0.8350
1561.799491 0.8330 0.8330 0.8310 0.8310 0.8310
1568.561996 0.8310 0.8310 0.8330 0.8330 0.8330
1575.324502 0.8330 0.8330 0.8310 0.8290 0.8290
1582.087007 0.8290 0.8310 0.8310 0.8310 0.8330
1588.849512 0.8330 0.8330 0.8330 0.8330 0.8330
1595.612017 0.8330 0.8330 0.8330 0.8330 0.8330
1602.374522 0.8330 0.8330 0.8330 0.8330 0.8330
1609.137027 0.8350 0.8350 0.8350 0.8350 0.8350
1615.899532 0.8350 0.8350 0.8350 0.8350 0.8350
1622.662037 0.8360 0.8360 0.8380 0.8380 0.8360
1629.424542 0.8350 0.8350 0.8330 0.8330 0.8310
1636.187047 0.8290 0.8280 0.8280 0.8260 0.8240
1642.949552 0.8240 0.8230 0.8210 0.8190 0.8180
1649.712057 0.8140 0.8130 0.8090 0.8080 0.8030
1656.474563 0.7990 0.7940 0.7890 0.7820 0.7770
1663.237068 0.7709 0.7620 0.7550 0.7490 0.7420
1669.999573 0.7300 0.7200 0.7120 0.7030 0.6960
1676.762078 0.6849 0.6659 0.6540 0.6439 0.6270
1683.524583 0.6160 0.6010 0.5850 0.5720 0.5550
1690.287088 0.5349 0.5149 0.4929 0.4689 0.4459
1697.049593 0.4219 0.3980 0.3770 0.3550 0.3190
1703.812098 0.3039 0.2919 0.2820 0.2720 0.2640
1710.574603 0.2620 0.2620 0.2620 0.2640 0.2640
1717.337108 0.2650 0.2670 0.2720 0.2720 0.2690
1724.099613 0.2650 0.2600 0.2570 0.2520 0.2490
1730.862118 0.2420 0.2370 0.2340 0.2320 0.2320
1737.624624 0.2340 0.2350 0.2400 0.2470 0.2570
1744.387129 0.2691 0.2861 0.3011 0.3141 0.3311
1751.149634 0.3481 0.3800 0.4120 0.4420 0.4760
1757.912139 0.5082 0.5382 0.5701 0.6011 0.6291
1764.674644 0.6560 0.6660 0.6750 0.6910 0.7050
1771.437149 0.7201 0.7341 0.7500 0.7590 0.7720
1778.199654 0.7790 0.7860 0.7910 0.7970 0.7990
1784.962159 0.8030 0.8080 0.8090 0.8130 0.8160
1791.724664 0.8180 0.8210 0.8230 0.8230 0.8240
1798.487169 0.8240 0.8260 0.8290 0.8310 0.8350
1805.249674 0.8380 0.8400 0.8410 0.8460 0.8480
1812.012179 0.8480 0.8500 0.8510 0.8510 0.8530
1818.774685 0.8530 0.8560 0.8560 0.8580 0.8600
1825.537190 0.8610 0.8610 0.8630 0.8630 0.8630
1832.299695 0.8630 0.8650 0.8650 0.8650 0.8670
1839.062200 0.8670 0.8670 0.8670 0.8680 0.8680
1845.824705 0.8680 0.8680 0.8680 0.8680 0.8680
1852.587210 0.8680 0.8680 0.8680 0.8680 0.8680
1859.349715 0.8680 0.8680 0.8700 0.8700 0.8680
1866.112220 0.8680 0.8680 0.8680 0.8680 0.8680
1872.874725 0.8680 0.8700 0.8700 0.8700 0.8700
1879.637230 0.8680 0.8680 0.8680 0.8680 0.8680
1886.399735 0.8680 0.8680 0.8680 0.8700 0.8700
1893.162240 0.8720 0.8720 0.8700 0.8700 0.8700
1899.924746 0.8700 0.8720 0.8720 0.8730 0.8720
1906.687251 0.8700 0.8700 0.8700 0.8700 0.8700
1913.449756 0.8700 0.8700 0.8700 0.8700 0.8700
1920.212261 0.8700 0.8700 0.8720 0.8720 0.8720
1926.974766 0.8720 0.8720 0.8720 0.8720 0.8720
1933.737271 0.8700 0.8700 0.8700 0.8700 0.8700
1940.499776 0.8720 0.8730 0.8730 0.8720 0.8720
1947.262281 0.8700 0.8700 0.8700 0.8700 0.8700
1954.024786 0.8700 0.8700 0.8700 0.8700 0.8700
1960.787291 0.8700 0.8700 0.8700 0.8720 0.8700
1967.549796 0.8700 0.8700 0.8700 0.8700 0.8700
1974.312301 0.8700 0.8700 0.8700 0.8700 0.8700
1981.074807 0.8700 0.8700 0.8700 0.8700 0.8700
1987.837312 0.8700 0.8720 0.8720 0.8720 0.8720
1994.599817 0.8730 0.8730 0.8730 0.8730 0.8750
2001.362322 0.8750 0.8750 0.8750 0.8750 0.8760
2008.124827 0.8770 0.8770 0.8770 0.8770 0.8770
2014.887332 0.8770 0.8770 0.8760 0.8750 0.8740
2021.649837 0.8730 0.8730 0.8730 0.8730 0.8730
2028.412342 0.8730 0.8730 0.8730 0.8730 0.8725
2035.174847 0.8720 0.8720 0.8720 0.8720 0.8720
2041.937352 0.8720 0.8720 0.8720 0.8720 0.8720
2048.699857 0.8720 0.8720 0.8720 0.8720 0.8720
2055.462362 0.8720 0.8720 0.8720 0.8720 0.8720
2062.224868 0.8720 0.8720 0.8721 0.8726 0.8730
2068.987373 0.8730 0.8731 0.8741 0.8750 0.8750
2075.749878 0.8750 0.8750 0.8750 0.8750 0.8750
2082.512383 0.8750 0.8750 0.8750 0.8750 0.8750
2089.274888 0.8750 0.8750 0.8750 0.8750 0.8750
2096.037393 0.8750 0.8750 0.8750 0.8750 0.8750
2102.799898 0.8750 0.8750 0.8750 0.8750 0.8750
2109.562403 0.8750 0.8750 0.8750 0.8750 0.8750
2116.324908 0.8750 0.8750 0.8750 0.8750 0.8750
2123.087413 0.8750 0.8750 0.8750 0.8750 0.8750
2129.849918 0.8750 0.8750 0.8750 0.8750 0.8750
2136.612423 0.8750 0.8750 0.8750 0.8750 0.8750
2143.374929 0.8750 0.8750 0.8750 0.8750 0.8750
2150.137434 0.8750 0.8750 0.8750 0.8750 0.8750
2156.899939 0.8750 0.8750 0.8750 0.8750 0.8750
2163.662444 0.8750 0.8750 0.8750 0.8747 0.8737
2170.424949 0.8730 0.8730 0.8729 0.8724 0.8717
2177.187454 0.8707 0.8700 0.8700 0.8700 0.8700
2183.949959 0.8700 0.8700 0.8700 0.8700 0.8703
2190.712464 0.8713 0.8720 0.8720 0.8720 0.8720
2197.474969 0.8722 0.8727 0.8730 0.8730 0.8728
2204.237474 0.8723 0.8720 0.8720 0.8717 0.8707
2210.999979 0.8700 0.8700 0.8697 0.8687 0.8680
2217.762485 0.8680 0.8678 0.8673 0.8666 0.8656
2224.524990 0.8654 0.8664 0.8670 0.8670 0.8672
2231.287495 0.8677 0.8684 0.8694 0.8700 0.8700
2238.050000 0.8704 0.8714 0.8720 0.8720 0.8720
2244.812505 0.8720 0.8720 0.8720 0.8716 0.8706
2251.575010 0.8700 0.8700 0.8696 0.8686 0.8680
2258.337515 0.8680 0.8680 0.8680 0.8680 0.8680
2265.100020 0.8680 0.8680 0.8680 0.8680 0.8680
2271.862525 0.8680 0.8680 0.8680 0.8680 0.8680
2278.625030 0.8680 0.8680 0.8678 0.8673 0.8670
2285.387535 0.8670 0.8670 0.8670 0.8670 0.8670
2292.150040 0.8670 0.8670 0.8665 0.8655 0.8650
2298.912546 0.8650 0.8655 0.8665 0.8670 0.8670
2305.675051 0.8672 0.8677 0.8680 0.8680 0.8680
2312.437556 0.8680 0.8685 0.8695 0.8700 0.8700
2319.200061 0.8700 0.8700 0.8700 0.8700 0.8695
2325.962566 0.8685 0.8677 0.8672 0.8670 0.8670
2332.725071 0.8670 0.8670 0.8670 0.8670 0.8670
2339.487576 0.8670 0.8673 0.8678 0.8680 0.8680
2346.250081 0.8685 0.8695 0.8700 0.8700 0.8700
2353.012586 0.8700 0.8706 0.8716 0.8720 0.8720
2359.775091 0.8714 0.8704 0.8700 0.8700 0.8694
2366.537596 0.8684 0.8677 0.8672 0.8670 0.8670
2373.300101 0.8670 0.8670 0.8670 0.8670 0.8664
2380.062607 0.8654 0.8650 0.8650 0.8650 0.8650
2386.825112 0.8650 0.8650 0.8644 0.8634 0.8630
2393.587617 0.8630 0.8624 0.8614 0.8610 0.8610
2400.350122 0.8610 0.8610 0.8623 0.8643 0.8650
2407.112627 0.8650 0.8643 0.8633 0.8623 0.8613
2413.875132 0.8610 0.8610 0.8607 0.8602 0.8600
2420.637637 0.8600 0.8600 0.8600 0.8593 0.8583
2427.400142 0.8587 0.8597 0.8603 0.8609 0.8610
2434.162647 0.8610 0.8610 0.8610 0.8617 0.8627
2440.925152 0.8630 0.8630 0.8637 0.8647 0.8650
2447.687657 0.8650 0.8643 0.8633 0.8623 0.8613
2454.450162 0.8606 0.8601 0.8600 0.8600 0.8600
2461.212668 0.8600 0.8600 0.8600 0.8600 0.8600
2467.975173 0.8600 0.8600 0.8600 0.8600 0.8592
2474.737678 0.8582 0.8580 0.8580 0.8580 0.8580
2481.500183 0.8580 0.8580 0.8580 0.8580 0.8580
2488.262688 0.8580 0.8580 0.8580 0.8580 0.8580
2495.025193 0.8580 0.8580 0.8580 0.8580 0.8572
2501.787698 0.8562 0.8560 0.8560 0.8560 0.8560
2508.550203 0.8560 0.8560 0.8560 0.8560 0.8556
2515.312708 0.8551 0.8550 0.8550 0.8550 0.8550
2522.075213 0.8550 0.8550 0.8550 0.8550 0.8541
2528.837718 0.8531 0.8530 0.8530 0.8530 0.8530
2535.600223 0.8530 0.8530 0.8530 0.8530 0.8530
2542.362729 0.8530 0.8530 0.8530 0.8530 0.8530
2549.125234 0.8530 0.8530 0.8521 0.8511 0.8510
2555.887739 0.8510 0.8506 0.8501 0.8500 0.8500
2562.650244 0.8491 0.8481 0.8480 0.8480 0.8471
2569.412749 0.8461 0.8437 0.8412 0.8405 0.8400
2576.175254 0.8381 0.8361 0.8360 0.8360 0.8355
2582.937759 0.8350 0.8350 0.8350 0.8350 0.8350
2589.700264 0.8355 0.8360 0.8360 0.8360 0.8360
2596.462769 0.8360 0.8370 0.8380 0.8390 0.8400
2603.225274 0.8400 0.8400 0.8390 0.8380 0.8365
2609.987779 0.8350 0.8340 0.8330 0.8330 0.8330
2616.750284 0.8330 0.8330 0.8330 0.8330 0.8330
2623.512790 0.8330 0.8330 0.8330 0.8330 0.8330
2630.275295 0.8340 0.8350 0.8350 0.8350 0.8340
2637.037800 0.8330 0.8330 0.8330 0.8330 0.8330
2643.800305 0.8330 0.8330 0.8320 0.8310 0.8310
2650.562810 0.8311 0.8321 0.8330 0.8330 0.8329
2657.325315 0.8319 0.8310 0.8310 0.8309 0.8299
2664.087820 0.8290 0.8285 0.8279 0.8269 0.8260
2670.850325 0.8260 0.8261 0.8271 0.8281 0.8286
2677.612830 0.8290 0.8290 0.8290 0.8290 0.8289
2684.375335 0.8284 0.8279 0.8269 0.8260 0.8260
2691.137840 0.8260 0.8260 0.8260 0.8260 0.8260
2697.900345 0.8260 0.8260 0.8260 0.8258 0.8248
2704.662851 0.8239 0.8234 0.8228 0.8218 0.8210
2711.425356 0.8210 0.8208 0.8193 0.8177 0.8157
2718.187861 0.8136 0.8111 0.8088 0.8073 0.8058
2724.950366 0.8043 0.8025 0.7995 0.7965 0.7940
2731.712871 0.7920 0.7920 0.7922 0.7932 0.7945
2738.475376 0.7970 0.7994 0.8014 0.8035 0.8060
2745.237881 0.8080 0.8080 0.8081 0.8086 0.8090
2752.000386 0.8090 0.8092 0.8102 0.8110 0.8110
2758.762891 0.8108 0.8098 0.8083 0.8053 0.8030
2765.525396 0.8030 0.8028 0.8018 0.8010 0.8010
2772.287901 0.8005 0.7985 0.7966 0.7951 0.7936
2779.050406 0.7921 0.7905 0.7885 0.7866 0.7851
2785.812912 0.7836 0.7821 0.7804 0.7784 0.7763
2792.575417 0.7738 0.7713 0.7688 0.7653 0.7593
2799.337922 0.7541 0.7511 0.7475 0.7425 0.7372
2806.100427 0.7312 0.7255 0.7204 0.7150 0.7090
2812.862932 0.7039 0.7004 0.6960 0.6900 0.6827
2819.625437 0.6727 0.6640 0.6580 0.6522 0.6467
2826.387942 0.6401 0.6316 0.6228 0.6133 0.6041
2833.150447 0.5956 0.5853 0.5716 0.5556 0.5356
2839.912952 0.5157 0.4962 0.4771 0.4586 0.4408
2846.675457 0.4243 0.4082 0.3926 0.3735 0.3485
2853.437962 0.3294 0.3199 0.3115 0.3050 0.3006
2860.200467 0.2996 0.2986 0.2976 0.2949 0.2899
2866.962973 0.2828 0.2728 0.2628 0.2528 0.2470
2873.725478 0.2470 0.2527 0.2662 0.2789 0.2904
2880.487983 0.2974 0.2984 0.3033 0.3133 0.3190
2887.250488 0.3190 0.3142 0.3031 0.2940 0.2875
2894.012993 0.2822 0.2782 0.2755 0.2745 0.2708
2900.775498 0.2638 0.2574 0.2519 0.2467 0.2417
2907.538003 0.2364 0.2309 0.2261 0.2221 0.2176
2914.300508 0.2126 0.2083 0.2048 0.2012 0.1977
2921.063013 0.1932 0.1877 0.1832 0.1797 0.1775
2927.825518 0.1765 0.1765 0.1775 0.1788 0.1803
2934.588023 0.1823 0.1848 0.1883 0.1928 0.1981
2941.350528 0.2041 0.2073 0.2078 0.2072 0.2057
2948.113034 0.2017 0.1957 0.1867 0.1752 0.1639
2954.875539 0.1529 0.1427 0.1332 0.1284 0.1274
2961.638044 0.1276 0.1286 0.1332 0.1407 0.1488
2968.400549 0.1573 0.1695 0.1848 0.2025 0.2220
2975.163054 0.2424 0.2634 0.2874 0.3135 0.3320
2981.925559 0.3455 0.3591 0.3726 0.3918 0.4148
2988.688064 0.4360 0.4560 0.4748 0.4928 0.5099
2995.450569 0.5265 0.5428 0.5591 0.5736 0.5871
3002.213074 0.6006 0.6141 0.6267 0.6387 0.6497
3008.975579 0.6602 0.6675 0.6730 0.6776 0.6816
3015.738084 0.6885 0.6970 0.7048 0.7123 0.7192
3022.500589 0.7257 0.7316 0.7372 0.7417 0.7457
3029.263095 0.7494 0.7529 0.7567 0.7607 0.7637
3036.025600 0.7662 0.7687 0.7712 0.7744 0.7779
3042.788105 0.7797 0.7807 0.7820 0.7835 0.7850
3049.550610 0.7865 0.7884 0.7904 0.7921 0.7936
3056.313115 0.7951 0.7966 0.7977 0.7987 0.7997
3063.075620 0.8007 0.8010 0.8010 0.8017 0.8027
3069.838125 0.8034 0.8039 0.8047 0.8057 0.8067
3076.600630 0.8077 0.8084 0.8089 0.8098 0.8108
3083.363135 0.8110 0.8110 0.8110 0.8110 0.8118
3090.125640 0.8128 0.8134 0.8139 0.8140 0.8140
3096.888145 0.8148 0.8158 0.8168 0.8178 0.8184
3103.650651 0.8189 0.8190 0.8190 0.8198 0.8208
3110.413156 0.8210 0.8210 0.8210 0.8210 0.8210
3117.175661 0.8210 0.8202 0.8192 0.8178 0.8163
3123.938166 0.8152 0.8142 0.8140 0.8140 0.8156
3130.700671 0.8176 0.8193 0.8208 0.8219 0.8229
3137.463176 0.8230 0.8230 0.8221 0.8211 0.8210
3144.225681 0.8210 0.8201 0.8191 0.8190 0.8190
3150.988186 0.8190 0.8190 0.8190 0.8190 0.8186
3157.750691 0.8181 0.8171 0.8161 0.8160 0.8160
3164.513196 0.8160 0.8160 0.8160 0.8160 0.8160
3171.275701 0.8160 0.8160 0.8160 0.8160 0.8160
3178.038206 0.8160 0.8160 0.8169 0.8179 0.8185
3184.800712 0.8190 0.8190 0.8190 0.8185 0.8180
3191.563217 0.8180 0.8180 0.8185 0.8190 0.8199
3198.325722 0.8209 0.8219 0.8230 0.8230 0.8230
3205.088227 0.8235 0.8240 0.8240 0.8240 0.8240
3211.850732 0.8240 0.8250 0.8260 0.8260 0.8260
3218.613237 0.8270 0.8280 0.8280 0.8280 0.8285
3225.375742 0.8290 0.8300 0.8310 0.8310 0.8310
3232.138247 0.8310 0.8310 0.8310 0.8310 0.8310
3238.900752 0.8310 0.8310 0.8310 0.8320 0.8330
3245.663257 0.8330 0.8330 0.8330 0.8330 0.8330
3252.425762 0.8330 0.8330 0.8330 0.8330 0.8330
3259.188267 0.8340 0.8350 0.8350 0.8350 0.8350
3265.950773 0.8350 0.8350 0.8350 0.8350 0.8350
3272.713278 0.8350 0.8350 0.8350 0.8350 0.8350
3279.475783 0.8350 0.8350 0.8350 0.8350 0.8350
3286.238288 0.8350 0.8350 0.8350 0.8350 0.8350
3293.000793 0.8350 0.8350 0.8350 0.8350 0.8350
3299.763298 0.8350 0.8350 0.8350 0.8350 0.8350
3306.525803 0.8349 0.8339 0.8330 0.8330 0.8329
3313.288308 0.8319 0.8310 0.8310 0.8309 0.8299
3320.050813 0.8290 0.8290 0.8290 0.8290 0.8290
3326.813318 0.8290 0.8290 0.8290 0.8290 0.8290
3333.575823 0.8290 0.8290 0.8290 0.8290 0.8290
3340.338328 0.8290 0.8289 0.8284 0.8280 0.8280
3347.100834 0.8278 0.8268 0.8260 0.8260 0.8260
3353.863339 0.8260 0.8260 0.8260 0.8260 0.8260
3360.625844 0.8260 0.8260 0.8260 0.8260 0.8260
3367.388349 0.8260 0.8260 0.8260 0.8260 0.8260
3374.150854 0.8260 0.8260 0.8257 0.8247 0.8240
3380.913359 0.8240 0.8240 0.8240 0.8236 0.8221
3387.675864 0.8210 0.8210 0.8210 0.8210 0.8207
3394.438369 0.8197 0.8190 0.8190 0.8190 0.8190
3401.200874 0.8189 0.8184 0.8180 0.8180 0.8180
3407.963379 0.8180 0.8180 0.8180 0.8180 0.8180
3414.725884 0.8180 0.8180 0.8180 0.8180 0.8180
3421.488389 0.8180 0.8180 0.8180 0.8180 0.8180
3428.250895 0.8180 0.8180 0.8177 0.8167 0.8157
3435.013400 0.8147 0.8138 0.8133 0.8130 0.8130
3441.775905 0.8127 0.8117 0.8113 0.8123 0.8130
3448.538410 0.8130 0.8132 0.8137 0.8140 0.8140
3455.300915 0.8140 0.8140 0.8140 0.8140 0.8144
3462.063420 0.8154 0.8160 0.8160 0.8160 0.8160
3468.825925 0.8160 0.8160 0.8156 0.8146 0.8140
3475.588430 0.8140 0.8144 0.8154 0.8160 0.8160
3482.350935 0.8164 0.8174 0.8180 0.8180 0.8180
3489.113440 0.8180 0.8180 0.8180 0.8182 0.8187
3495.875945 0.8190 0.8190 0.8190 0.8190 0.8190
3502.638450 0.8190 0.8190 0.8190 0.8190 0.8190
3509.400956 0.8188 0.8183 0.8180 0.8180 0.8180
3516.163461 0.8180 0.8180 0.8180 0.8180 0.8180
3522.925966 0.8180 0.8180 0.8180 0.8180 0.8180
3529.688471 0.8180 0.8180 0.8180 0.8180 0.8180
3536.450976 0.8180 0.8180 0.8180 0.8180 0.8175
3543.213481 0.8165 0.8160 0.8160 0.8160 0.8160
3549.975986 0.8155 0.8145 0.8140 0.8140 0.8137
3556.738491 0.8132 0.8125 0.8115 0.8115 0.8125
3563.500996 0.8133 0.8138 0.8140 0.8140 0.8140
3570.263501 0.8140 0.8140 0.8140 0.8140 0.8140
3577.026006 0.8140 0.8140 0.8146 0.8156 0.8160
3583.788511 0.8160 0.8160 0.8160 0.8160 0.8160
3590.551017 0.8160 0.8160 0.8154 0.8144 0.8146
3597.313522 0.8156 0.8166 0.8176 0.8183 0.8188
3604.076027 0.8190 0.8190 0.8190 0.8190 0.8190
3610.838532 0.8190 0.8190 0.8190 0.8190 0.8190
3617.601037 0.8190 0.8190 0.8187 0.8182 0.8180
3624.363542 0.8180 0.8174 0.8164 0.8160 0.8160
3631.126047 0.8160 0.8160 0.8160 0.8160 0.8160
3637.888552 0.8160 0.8160 0.8160 0.8160 0.8160
3644.651057 0.8167 0.8177 0.8180 0.8180 0.8180
3651.413562 0.8180 0.8180 0.8180 0.8180 0.8180
3658.176067 0.8173 0.8163 0.8160 0.8160 0.8167
3664.938572 0.8177 0.8180 0.8180 0.8180 0.8180
3671.701078 0.8173 0.8163 0.8160 0.8160 0.8153
3678.463583 0.8143 0.8140 0.8140 0.8140 0.8140
3685.226088 0.8147 0.8157 0.8160 0.8160 0.8160
3691.988593 0.8160 0.8153 0.8143 0.8140 0.8140
3698.751098 0.8148 0.8158 0.8168 0.8178 0.8180
3705.513603 0.8180 0.8180 0.8180 0.8180 0.8180
3712.276108 0.8180 0.8180 0.8172 0.8162 0.8160
3719.038613 0.8160 0.8152 0.8142 0.8140 0.8140
3725.801118 0.8140 0.8140 0.8148 0.8158 0.8160
3732.563623 0.8160 0.8160 0.8160 0.8160 0.8160
3739.326128 0.8160 0.8160 0.8160 0.8160 0.8160
3746.088633 0.8160 0.8160 0.8160 0.8152 0.8142
3752.851139 0.8140 0.8140 0.8140 0.8140 0.8140
3759.613644 0.8140 0.8136 0.8131 0.8121 0.8111
3766.376149 0.8110 0.8110 0.8119 0.8129 0.8130
3773.138654 0.8130 0.8121 0.8111 0.8110 0.8110
3779.901159 0.8101 0.8091 0.8090 0.8090 0.8085
3786.663664 0.8080 0.8080 0.8080 0.8080 0.8080
3793.426169 0.8080 0.8080 0.8080 0.8080 0.8080
3800.188674 0.8080 0.8080 0.8080 0.8080 0.8080
3806.951179 0.8080 0.8080 0.8080 0.8080 0.8085
3813.713684 0.8090 0.8090 0.8090 0.8090 0.8090
3820.476189 0.8090 0.8090 0.8090 0.8090 0.8085
3827.238694 0.8080 0.8080 0.8080 0.8070 0.8060
3834.001200 0.8060 0.8060 0.8060 0.8060 0.8050
3840.763705 0.8040 0.8040 0.8040 0.8050 0.8060
3847.526210 0.8060 0.8060 0.8060 0.8060 0.8070
3854.288715 0.8080 0.8080 0.8080 0.8085 0.8090
3861.051220 0.8090 0.8090 0.8090 0.8090 0.8090
3867.813725 0.8090 0.8085 0.8080 0.8080 0.8080
3874.576230 0.8080 0.8080 0.8070 0.8060 0.8049
3881.338735 0.8040 0.8040 0.8040 0.8040 0.8040
3888.101240 0.8035
##END=
