##TITLE=dl-Alpha-Amino-n-caproic acid
##JCAMP-DX=4.24
$$ By DXEDIT 1.05 (RS McDonald)
##DATA TYPE=INFRARED SPECTRUM
##CLASS=COBLENTZ II
##ORIGIN=DOW CHEMICAL COMPANY
##OWNER=COPYRIGHT (C) 1988 by COBLENTZ SOCIETY INC.
Collection (C) 2018 copyright by the U.S. Secretary of Commerce
on behalf of the United States of America. All rights reserved.
##DATE=1963/03/19
##NAMES=norleucine
##MOLFORM=C6 H13 N O2
##SOURCE REFERENCE=COBLENTZ NO. 08974
##$NIST ID=B6008974
##$NIST SOURCE=COBLENTZ
##$NIST IMAGE=cob8974
##SPECTROMETER/DATA SYSTEM=DOW KBr FOREPRISM-GRATING
##INSTRUMENT PARAMETERS=BLAZED AT 3.5, 12.0, 20.0 MICRON AND CHANGED AT 5.0, 7.5, 14.9 MICRON
##STATE=SOLID (SPLIT MULL), FLUOROLUBE FOR 3800-1330 CM^-^1, NUJOL FOR 1330-450 CM^-^1
##SAMPLING PROCEDURE=TRANSMISSION
##RESOLUTION=2
##DATA PROCESSING=DIGITIZED BY COBLENTZ SOCIETY (BATCH I) FROM HARD COPY
##XUNITS=1/CM
##YUNITS=TRANSMITTANCE
##XFACTOR=1
##YFACTOR=1
##DELTAX=1
##FIRSTX=3800
##LASTX=453
##FIRSTY=0.8654
##MAXX=3800
##MINX=453
##MAXY=0.8654
##MINY=0.0178
##NPOINTS=3348
##XYDATA=(X++(Y..Y))
3800.000000 0.8654 0.8654 0.8654 0.8654 0.8654
3795.000000 0.8654 0.8654 0.8654 0.8654 0.8653
3790.000000 0.8653 0.8652 0.8652 0.8651 0.8651
3785.000000 0.8651 0.8651 0.8650 0.8650 0.8649
3780.000000 0.8649 0.8649 0.8649 0.8649 0.8649
3775.000000 0.8649 0.8649 0.8649 0.8649 0.8649
3770.000000 0.8649 0.8649 0.8649 0.8648 0.8648
3765.000000 0.8648 0.8648 0.8648 0.8648 0.8647
3760.000000 0.8647 0.8647 0.8647 0.8647 0.8647
3755.000000 0.8646 0.8646 0.8646 0.8646 0.8645
3750.000000 0.8645 0.8645 0.8645 0.8644 0.8644
3745.000000 0.8644 0.8644 0.8644 0.8644 0.8644
3740.000000 0.8644 0.8644 0.8645 0.8645 0.8646
3735.000000 0.8646 0.8647 0.8647 0.8648 0.8648
3730.000000 0.8649 0.8649 0.8650 0.8650 0.8651
3725.000000 0.8651 0.8652 0.8652 0.8653 0.8653
3720.000000 0.8653 0.8653 0.8653 0.8653 0.8653
3715.000000 0.8653 0.8653 0.8653 0.8653 0.8653
3710.000000 0.8653 0.8653 0.8653 0.8652 0.8652
3705.000000 0.8652 0.8652 0.8652 0.8652 0.8652
3700.000000 0.8652 0.8652 0.8652 0.8652 0.8652
3695.000000 0.8651 0.8651 0.8651 0.8651 0.8650
3690.000000 0.8650 0.8650 0.8650 0.8649 0.8649
3685.000000 0.8649 0.8649 0.8649 0.8649 0.8648
3680.000000 0.8648 0.8648 0.8648 0.8647 0.8647
3675.000000 0.8647 0.8647 0.8646 0.8646 0.8646
3670.000000 0.8646 0.8646 0.8646 0.8645 0.8645
3665.000000 0.8645 0.8645 0.8644 0.8644 0.8644
3660.000000 0.8644 0.8643 0.8643 0.8643 0.8643
3655.000000 0.8642 0.8642 0.8642 0.8643 0.8643
3650.000000 0.8644 0.8644 0.8645 0.8645 0.8646
3645.000000 0.8647 0.8648 0.8648 0.8649 0.8649
3640.000000 0.8650 0.8650 0.8651 0.8651 0.8651
3635.000000 0.8651 0.8651 0.8651 0.8651 0.8650
3630.000000 0.8650 0.8650 0.8650 0.8649 0.8649
3625.000000 0.8649 0.8649 0.8648 0.8648 0.8648
3620.000000 0.8648 0.8647 0.8647 0.8646 0.8646
3615.000000 0.8645 0.8645 0.8644 0.8644 0.8643
3610.000000 0.8643 0.8643 0.8644 0.8644 0.8645
3605.000000 0.8645 0.8646 0.8646 0.8646 0.8646
3600.000000 0.8646 0.8646 0.8646 0.8645 0.8644
3595.000000 0.8643 0.8642 0.8640 0.8639 0.8638
3590.000000 0.8637 0.8628 0.8620 0.8588 0.8556
3585.000000 0.8524 0.8492 0.8478 0.8465 0.8465
3580.000000 0.8466 0.8470 0.8474 0.8498 0.8523
3575.000000 0.8551 0.8578 0.8591 0.8603 0.8612
3570.000000 0.8621 0.8627 0.8634 0.8637 0.8640
3565.000000 0.8639 0.8638 0.8637 0.8637 0.8636
3560.000000 0.8635 0.8634 0.8633 0.8632 0.8632
3555.000000 0.8631 0.8631 0.8630 0.8630 0.8628
3550.000000 0.8628 0.8628 0.8627 0.8625 0.8625
3545.000000 0.8625 0.8625 0.8624 0.8624 0.8623
3540.000000 0.8623 0.8621 0.8621 0.8621 0.8621
3535.000000 0.8621 0.8621 0.8621 0.8623 0.8623
3530.000000 0.8624 0.8624 0.8624 0.8624 0.8625
3525.000000 0.8625 0.8625 0.8625 0.8627 0.8627
3520.000000 0.8628 0.8628 0.8628 0.8628 0.8630
3515.000000 0.8630 0.8631 0.8631 0.8631 0.8631
3510.000000 0.8632 0.8632 0.8633 0.8633 0.8634
3505.000000 0.8634 0.8634 0.8634 0.8634 0.8634
3500.000000 0.8634 0.8634 0.8634 0.8634 0.8635
3495.000000 0.8635 0.8635 0.8635 0.8635 0.8635
3490.000000 0.8635 0.8635 0.8635 0.8635 0.8635
3485.000000 0.8635 0.8635 0.8635 0.8636 0.8636
3480.000000 0.8636 0.8635 0.8635 0.8634 0.8634
3475.000000 0.8633 0.8633 0.8632 0.8631 0.8630
3470.000000 0.8630 0.8628 0.8628 0.8627 0.8627
3465.000000 0.8625 0.8625 0.8625 0.8624 0.8623
3460.000000 0.8623 0.8621 0.8621 0.8620 0.8620
3455.000000 0.8618 0.8618 0.8618 0.8617 0.8616
3450.000000 0.8616 0.8615 0.8615 0.8614 0.8614
3445.000000 0.8613 0.8613 0.8612 0.8612 0.8611
3440.000000 0.8610 0.8609 0.8609 0.8608 0.8608
3435.000000 0.8607 0.8607 0.8606 0.8605 0.8604
3430.000000 0.8603 0.8602 0.8601 0.8600 0.8599
3425.000000 0.8598 0.8597 0.8596 0.8595 0.8594
3420.000000 0.8593 0.8591 0.8590 0.8589 0.8588
3415.000000 0.8587 0.8586 0.8585 0.8584 0.8583
3410.000000 0.8583 0.8582 0.8582 0.8581 0.8581
3405.000000 0.8580 0.8578 0.8578 0.8578 0.8577
3400.000000 0.8577 0.8575 0.8575 0.8575 0.8575
3395.000000 0.8574 0.8573 0.8571 0.8571 0.8571
3390.000000 0.8571 0.8571 0.8571 0.8571 0.8571
3385.000000 0.8570 0.8570 0.8570 0.8570 0.8568
3380.000000 0.8568 0.8568 0.8568 0.8568 0.8568
3375.000000 0.8568 0.8568 0.8568 0.8568 0.8567
3370.000000 0.8567 0.8567 0.8567 0.8567 0.8568
3365.000000 0.8568 0.8568 0.8568 0.8568 0.8568
3360.000000 0.8568 0.8568 0.8568 0.8568 0.8568
3355.000000 0.8568 0.8568 0.8568 0.8568 0.8568
3350.000000 0.8568 0.8568 0.8568 0.8568 0.8568
3345.000000 0.8568 0.8568 0.8568 0.8568 0.8568
3340.000000 0.8568 0.8566 0.8564 0.8560 0.8557
3335.000000 0.8547 0.8537 0.8527 0.8518 0.8517
3330.000000 0.8517 0.8517 0.8517 0.8517 0.8517
3325.000000 0.8517 0.8517 0.8516 0.8516 0.8516
3320.000000 0.8516 0.8515 0.8515 0.8512 0.8510
3315.000000 0.8507 0.8505 0.8503 0.8501 0.8498
3310.000000 0.8496 0.8493 0.8490 0.8486 0.8482
3305.000000 0.8478 0.8475 0.8471 0.8467 0.8463
3300.000000 0.8459 0.8453 0.8448 0.8443 0.8438
3295.000000 0.8432 0.8427 0.8421 0.8416 0.8410
3290.000000 0.8405 0.8399 0.8394 0.8388 0.8383
3285.000000 0.8377 0.8371 0.8364 0.8357 0.8349
3280.000000 0.8341 0.8333 0.8325 0.8318 0.8311
3275.000000 0.8303 0.8295 0.8287 0.8280 0.8271
3270.000000 0.8263 0.8254 0.8246 0.8237 0.8228
3265.000000 0.8220 0.8212 0.8203 0.8195 0.8185
3260.000000 0.8175 0.8165 0.8156 0.8146 0.8136
3255.000000 0.8125 0.8115 0.8107 0.8098 0.8089
3250.000000 0.8081 0.8068 0.8058 0.8043 0.8028
3245.000000 0.8011 0.7994 0.7975 0.7957 0.7940
3240.000000 0.7924 0.7910 0.7896 0.7884 0.7872
3235.000000 0.7861 0.7850 0.7838 0.7825 0.7814
3230.000000 0.7803 0.7791 0.7778 0.7767 0.7755
3225.000000 0.7743 0.7731 0.7718 0.7706 0.7693
3220.000000 0.7681 0.7668 0.7657 0.7644 0.7631
3215.000000 0.7618 0.7605 0.7591 0.7578 0.7565
3210.000000 0.7551 0.7537 0.7521 0.7506 0.7491
3205.000000 0.7475 0.7460 0.7444 0.7428 0.7412
3200.000000 0.7397 0.7381 0.7365 0.7345 0.7325
3195.000000 0.7306 0.7287 0.7267 0.7248 0.7228
3190.000000 0.7208 0.7189 0.7169 0.7146 0.7121
3185.000000 0.7094 0.7067 0.7039 0.7011 0.6984
3180.000000 0.6956 0.6925 0.6896 0.6865 0.6836
3175.000000 0.6806 0.6776 0.6751 0.6726 0.6701
3170.000000 0.6678 0.6653 0.6628 0.6604 0.6578
3165.000000 0.6551 0.6525 0.6496 0.6467 0.6438
3160.000000 0.6408 0.6380 0.6351 0.6321 0.6292
3155.000000 0.6264 0.6237 0.6210 0.6186 0.6160
3150.000000 0.6135 0.6110 0.6085 0.6059 0.6034
3145.000000 0.6007 0.5981 0.5952 0.5924 0.5896
3140.000000 0.5868 0.5839 0.5810 0.5776 0.5742
3135.000000 0.5703 0.5664 0.5624 0.5585 0.5548
3130.000000 0.5510 0.5479 0.5447 0.5415 0.5383
3125.000000 0.5351 0.5319 0.5287 0.5255 0.5222
3120.000000 0.5189 0.5154 0.5120 0.5086 0.5052
3115.000000 0.5012 0.4973 0.4930 0.4888 0.4845
3110.000000 0.4803 0.4765 0.4728 0.4692 0.4656
3105.000000 0.4619 0.4583 0.4547 0.4510 0.4474
3100.000000 0.4438 0.4400 0.4362 0.4324 0.4286
3095.000000 0.4248 0.4210 0.4167 0.4124 0.4074
3090.000000 0.4025 0.3980 0.3934 0.3896 0.3857
3085.000000 0.3822 0.3788 0.3742 0.3697 0.3626
3080.000000 0.3556 0.3522 0.3489 0.3459 0.3430
3075.000000 0.3406 0.3382 0.3357 0.3332 0.3305
3070.000000 0.3278 0.3253 0.3228 0.3205 0.3183
3065.000000 0.3160 0.3137 0.3113 0.3090 0.3066
3060.000000 0.3042 0.3018 0.2994 0.2968 0.2942
3055.000000 0.2916 0.2890 0.2855 0.2821 0.2784
3050.000000 0.2749 0.2715 0.2682 0.2648 0.2615
3045.000000 0.2584 0.2554 0.2523 0.2492 0.2457
3040.000000 0.2423 0.2360 0.2298 0.2255 0.2212
3035.000000 0.2151 0.2091 0.2051 0.2012 0.1991
3030.000000 0.1970 0.1952 0.1934 0.1915 0.1896
3025.000000 0.1879 0.1861 0.1844 0.1827 0.1811
3020.000000 0.1794 0.1778 0.1762 0.1745 0.1731
3015.000000 0.1719 0.1707 0.1694 0.1684 0.1672
3010.000000 0.1660 0.1648 0.1636 0.1625 0.1614
3005.000000 0.1603 0.1592 0.1581 0.1570 0.1559
3000.000000 0.1548 0.1537 0.1526 0.1516 0.1506
2995.000000 0.1495 0.1485 0.1474 0.1464 0.1453
2990.000000 0.1442 0.1430 0.1418 0.1406 0.1394
2985.000000 0.1381 0.1369 0.1352 0.1336 0.1319
2980.000000 0.1303 0.1286 0.1270 0.1252 0.1235
2975.000000 0.1217 0.1200 0.1177 0.1155 0.1091
2970.000000 0.1027 0.0962 0.0897 0.0855 0.0813
2965.000000 0.0761 0.0709 0.0674 0.0639 0.0612
2960.000000 0.0586 0.0567 0.0549 0.0531 0.0481
2955.000000 0.0500 0.0486 0.0492 0.0498 0.0515
2950.000000 0.0532 0.0553 0.0574 0.0597 0.0620
2945.000000 0.0630 0.0640 0.0644 0.0673 0.0647
2940.000000 0.0645 0.0626 0.0607 0.0562 0.0517
2935.000000 0.0477 0.0425 0.0438 0.0437 0.0442
2930.000000 0.0448 0.0460 0.0473 0.0487 0.0501
2925.000000 0.0519 0.0537 0.0555 0.0574 0.0592
2920.000000 0.0610 0.0634 0.0658 0.0685 0.0712
2915.000000 0.0741 0.0770 0.0807 0.0845 0.0882
2910.000000 0.0919 0.0955 0.0991 0.1027 0.1063
2905.000000 0.1099 0.1136 0.1173 0.1210 0.1245
2900.000000 0.1281 0.1316 0.1351 0.1381 0.1412
2895.000000 0.1438 0.1464 0.1488 0.1512 0.1529
2890.000000 0.1546 0.1565 0.1583 0.1596 0.1611
2885.000000 0.1625 0.1640 0.1648 0.1656 0.1658
2880.000000 0.1661 0.1660 0.1659 0.1656 0.1653
2875.000000 0.1645 0.1639 0.1582 0.1525 0.1488
2870.000000 0.1451 0.1451 0.1452 0.1467 0.1483
2865.000000 0.1491 0.1500 0.1499 0.1498 0.1492
2860.000000 0.1487 0.1477 0.1468 0.1464 0.1465
2855.000000 0.1465 0.1469 0.1578 0.1686 0.1789
2850.000000 0.1891 0.1945 0.2002 0.2045 0.2090
2845.000000 0.2132 0.2175 0.2209 0.2244 0.2279
2840.000000 0.2314 0.2343 0.2372 0.2398 0.2424
2835.000000 0.2449 0.2475 0.2499 0.2524 0.2547
2830.000000 0.2571 0.2594 0.2618 0.2634 0.2650
2825.000000 0.2665 0.2680 0.2695 0.2710 0.2724
2820.000000 0.2738 0.2750 0.2763 0.2775 0.2787
2815.000000 0.2799 0.2811 0.2823 0.2834 0.2846
2810.000000 0.2857 0.2867 0.2877 0.2885 0.2896
2805.000000 0.2906 0.2916 0.2926 0.2937 0.2949
2800.000000 0.2962 0.2975 0.2988 0.3000 0.3013
2795.000000 0.3027 0.3041 0.3056 0.3071 0.3084
2790.000000 0.3100 0.3113 0.3127 0.3140 0.3153
2785.000000 0.3166 0.3179 0.3191 0.3204 0.3216
2780.000000 0.3230 0.3245 0.3259 0.3273 0.3286
2775.000000 0.3297 0.3308 0.3318 0.3329 0.3334
2770.000000 0.3341 0.3346 0.3350 0.3352 0.3353
2765.000000 0.3352 0.3346 0.3323 0.3300 0.3284
2760.000000 0.3268 0.3259 0.3250 0.3245 0.3240
2755.000000 0.3239 0.3238 0.3250 0.3262 0.3286
2750.000000 0.3309 0.3332 0.3356 0.3384 0.3412
2745.000000 0.3434 0.3456 0.3477 0.3499 0.3520
2740.000000 0.3542 0.3564 0.3586 0.3607 0.3629
2735.000000 0.3650 0.3672 0.3693 0.3714 0.3737
2730.000000 0.3759 0.3780 0.3802 0.3823 0.3845
2725.000000 0.3866 0.3888 0.3909 0.3932 0.3953
2720.000000 0.3975 0.3996 0.4018 0.4039 0.4060
2715.000000 0.4064 0.4084 0.4068 0.4070 0.4070
2710.000000 0.4071 0.4070 0.4068 0.4062 0.4058
2705.000000 0.4049 0.4040 0.4030 0.4020 0.4009
2700.000000 0.3999 0.3989 0.3979 0.3968 0.3957
2695.000000 0.3944 0.3932 0.3918 0.3907 0.3894
2690.000000 0.3882 0.3868 0.3857 0.3844 0.3832
2685.000000 0.3820 0.3809 0.3798 0.3787 0.3780
2680.000000 0.3775 0.3770 0.3764 0.3756 0.3748
2675.000000 0.3730 0.3712 0.3676 0.3640 0.3630
2670.000000 0.3620 0.3618 0.3618 0.3618 0.3618
2665.000000 0.3624 0.3630 0.3650 0.3671 0.3699
2660.000000 0.3728 0.3787 0.3846 0.3894 0.3943
2655.000000 0.3991 0.4039 0.4087 0.4136 0.4184
2650.000000 0.4232 0.4280 0.4329 0.4377 0.4425
2645.000000 0.4473 0.4522 0.4570 0.4618 0.4666
2640.000000 0.4715 0.4762 0.4810 0.4859 0.4908
2635.000000 0.4927 0.4947 0.4978 0.5010 0.5028
2630.000000 0.5047 0.5059 0.5071 0.5077 0.5083
2625.000000 0.5083 0.5084 0.5085 0.5086 0.5086
2620.000000 0.5086 0.5086 0.5086 0.5086 0.5086
2615.000000 0.5089 0.5092 0.5101 0.5110 0.5122
2610.000000 0.5134 0.5141 0.5148 0.5155 0.5162
2605.000000 0.5162 0.5162 0.5162 0.5160 0.5144
2600.000000 0.5128 0.5080 0.5032 0.4970 0.4908
2595.000000 0.4873 0.4838 0.4805 0.4772 0.4749
2590.000000 0.4704 0.4703 0.4702 0.4700 0.4698
2585.000000 0.4702 0.4706 0.4715 0.4725 0.4742
2580.000000 0.4759 0.4775 0.4792 0.4812 0.4835
2575.000000 0.4867 0.4900 0.4946 0.4993 0.5039
2570.000000 0.5086 0.5128 0.5170 0.5212 0.5254
2565.000000 0.5326 0.5399 0.5460 0.5522 0.5569
2560.000000 0.5616 0.5662 0.5710 0.5742 0.5774
2555.000000 0.5805 0.5836 0.5866 0.5897 0.5921
2550.000000 0.5946 0.5970 0.5995 0.6019 0.6044
2545.000000 0.6069 0.6094 0.6118 0.6143 0.6168
2540.000000 0.6193 0.6218 0.6243 0.6267 0.6292
2535.000000 0.6312 0.6333 0.6353 0.6373 0.6393
2530.000000 0.6414 0.6434 0.6455 0.6465 0.6478
2525.000000 0.6489 0.6501 0.6511 0.6524 0.6536
2520.000000 0.6548 0.6560 0.6572 0.6586 0.6599
2515.000000 0.6611 0.6622 0.6633 0.6643 0.6653
2510.000000 0.6664 0.6674 0.6685 0.6693 0.6701
2505.000000 0.6711 0.6719 0.6728 0.6737 0.6746
2500.000000 0.6756 0.6767 0.6778 0.6785 0.6792
2495.000000 0.6799 0.6806 0.6808 0.6812 0.6815
2490.000000 0.6818 0.6819 0.6822 0.6825 0.6826
2485.000000 0.6821 0.6817 0.6797 0.6776 0.6768
2480.000000 0.6758 0.6757 0.6755 0.6760 0.6765
2475.000000 0.6776 0.6788 0.6799 0.6810 0.6824
2470.000000 0.6839 0.6855 0.6871 0.6887 0.6903
2465.000000 0.6918 0.6933 0.6947 0.6961 0.6975
2460.000000 0.6991 0.7005 0.7019 0.7034 0.7049
2455.000000 0.7062 0.7078 0.7092 0.7107 0.7121
2450.000000 0.7136 0.7149 0.7162 0.7175 0.7187
2445.000000 0.7199 0.7211 0.7221 0.7233 0.7242
2440.000000 0.7251 0.7261 0.7271 0.7280 0.7290
2435.000000 0.7299 0.7308 0.7318 0.7328 0.7337
2430.000000 0.7347 0.7355 0.7364 0.7372 0.7382
2425.000000 0.7390 0.7399 0.7408 0.7417 0.7425
2420.000000 0.7434 0.7443 0.7451 0.7458 0.7467
2415.000000 0.7472 0.7478 0.7484 0.7490 0.7496
2410.000000 0.7501 0.7508 0.7514 0.7518 0.7525
2405.000000 0.7531 0.7537 0.7542 0.7548 0.7554
2400.000000 0.7560 0.7565 0.7571 0.7576 0.7583
2395.000000 0.7588 0.7594 0.7600 0.7606 0.7611
2390.000000 0.7617 0.7621 0.7628 0.7633 0.7639
2385.000000 0.7644 0.7650 0.7655 0.7661 0.7665
2380.000000 0.7671 0.7676 0.7683 0.7688 0.7694
2375.000000 0.7699 0.7705 0.7708 0.7711 0.7714
2370.000000 0.7715 0.7718 0.7719 0.7721 0.7722
2365.000000 0.7724 0.7725 0.7726 0.7728 0.7728
2360.000000 0.7731 0.7732 0.7734 0.7735 0.7737
2355.000000 0.7738 0.7742 0.7743 0.7743 0.7744
2350.000000 0.7746 0.7746 0.7747 0.7747 0.7748
2345.000000 0.7748 0.7747 0.7746 0.7743 0.7733
2340.000000 0.7724 0.7710 0.7696 0.7682 0.7668
2335.000000 0.7657 0.7645 0.7634 0.7624 0.7614
2330.000000 0.7604 0.7594 0.7585 0.7575 0.7565
2325.000000 0.7556 0.7547 0.7535 0.7524 0.7511
2320.000000 0.7500 0.7494 0.7486 0.7489 0.7490
2315.000000 0.7498 0.7506 0.7514 0.7522 0.7538
2310.000000 0.7554 0.7572 0.7592 0.7610 0.7628
2305.000000 0.7647 0.7665 0.7684 0.7703 0.7718
2300.000000 0.7735 0.7751 0.7767 0.7783 0.7799
2295.000000 0.7815 0.7831 0.7845 0.7858 0.7869
2290.000000 0.7881 0.7889 0.7897 0.7898 0.7899
2285.000000 0.7899 0.7900 0.7900 0.7901 0.7901
2280.000000 0.7901 0.7903 0.7904 0.7904 0.7905
2275.000000 0.7905 0.7906 0.7907 0.7908 0.7908
2270.000000 0.7911 0.7912 0.7915 0.7915 0.7918
2265.000000 0.7919 0.7921 0.7925 0.7928 0.7933
2260.000000 0.7937 0.7940 0.7944 0.7948 0.7951
2255.000000 0.7955 0.7958 0.7962 0.7967 0.7969
2250.000000 0.7974 0.7976 0.7981 0.7985 0.7989
2245.000000 0.7993 0.7998 0.8001 0.8007 0.8011
2240.000000 0.8017 0.8021 0.8025 0.8031 0.8036
2235.000000 0.8040 0.8045 0.8049 0.8053 0.8057
2230.000000 0.8061 0.8065 0.8069 0.8074 0.8078
2225.000000 0.8082 0.8086 0.8089 0.8092 0.8095
2220.000000 0.8098 0.8101 0.8104 0.8107 0.8110
2215.000000 0.8111 0.8115 0.8115 0.8118 0.8118
2210.000000 0.8121 0.8121 0.8124 0.8125 0.8126
2205.000000 0.8128 0.8130 0.8131 0.8133 0.8134
2200.000000 0.8135 0.8135 0.8136 0.8137 0.8138
2195.000000 0.8139 0.8140 0.8141 0.8142 0.8143
2190.000000 0.8144 0.8145 0.8145 0.8146 0.8147
2185.000000 0.8147 0.8147 0.8147 0.8148 0.8148
2180.000000 0.8148 0.8148 0.8148 0.8148 0.8148
2175.000000 0.8147 0.8146 0.8145 0.8144 0.8143
2170.000000 0.8142 0.8139 0.8136 0.8133 0.8131
2165.000000 0.8128 0.8125 0.8122 0.8121 0.8118
2160.000000 0.8117 0.8110 0.8103 0.8093 0.8084
2155.000000 0.8075 0.8065 0.8057 0.8048 0.8040
2150.000000 0.8033 0.8025 0.8017 0.8008 0.8001
2145.000000 0.7994 0.7987 0.7978 0.7971 0.7962
2140.000000 0.7956 0.7944 0.7933 0.7919 0.7907
2135.000000 0.7892 0.7876 0.7861 0.7848 0.7833
2130.000000 0.7818 0.7799 0.7781 0.7761 0.7741
2125.000000 0.7721 0.7701 0.7684 0.7665 0.7648
2120.000000 0.7631 0.7612 0.7595 0.7576 0.7560
2115.000000 0.7542 0.7524 0.7507 0.7491 0.7474
2110.000000 0.7457 0.7442 0.7426 0.7412 0.7399
2105.000000 0.7385 0.7371 0.7360 0.7348 0.7338
2100.000000 0.7328 0.7321 0.7325 0.7311 0.7308
2095.000000 0.7306 0.7306 0.7305 0.7307 0.7310
2090.000000 0.7314 0.7325 0.7339 0.7358 0.7376
2085.000000 0.7401 0.7426 0.7454 0.7481 0.7507
2080.000000 0.7533 0.7551 0.7571 0.7589 0.7608
2075.000000 0.7626 0.7646 0.7664 0.7683 0.7701
2070.000000 0.7718 0.7737 0.7756 0.7772 0.7790
2065.000000 0.7804 0.7818 0.7831 0.7845 0.7858
2060.000000 0.7871 0.7885 0.7898 0.7906 0.7914
2055.000000 0.7921 0.7931 0.7939 0.7948 0.7956
2050.000000 0.7964 0.7971 0.7981 0.7989 0.7998
2045.000000 0.8006 0.8014 0.8021 0.8031 0.8039
2040.000000 0.8048 0.8056 0.8065 0.8074 0.8083
2035.000000 0.8092 0.8101 0.8111 0.8119 0.8128
2030.000000 0.8138 0.8147 0.8157 0.8165 0.8175
2025.000000 0.8185 0.8194 0.8203 0.8213 0.8218
2020.000000 0.8225 0.8232 0.8238 0.8246 0.8254
2015.000000 0.8263 0.8273 0.8282 0.8292 0.8300
2010.000000 0.8308 0.8316 0.8324 0.8330 0.8337
2005.000000 0.8342 0.8347 0.8350 0.8354 0.8360
2000.000000 0.8367 0.8373 0.8378 0.8384 0.8384
1995.000000 0.8384 0.8370 0.8356 0.8346 0.8335
1990.000000 0.8325 0.8325 0.8325 0.8327 0.8332
1985.000000 0.8338 0.8343 0.8349 0.8354 0.8358
1980.000000 0.8361 0.8364 0.8367 0.8370 0.8373
1975.000000 0.8378 0.8382 0.8387 0.8392 0.8397
1970.000000 0.8402 0.8406 0.8411 0.8416 0.8421
1965.000000 0.8425 0.8430 0.8467 0.8539 0.8588
1960.000000 0.8574 0.8546 0.8504 0.8478 0.8455
1955.000000 0.8436 0.8421 0.8417 0.8416 0.8415
1950.000000 0.8414 0.8412 0.8411 0.8410 0.8413
1945.000000 0.8416 0.8418 0.8421 0.8424 0.8425
1940.000000 0.8428 0.8431 0.8433 0.8436 0.8438
1935.000000 0.8440 0.8442 0.8444 0.8446 0.8448
1930.000000 0.8450 0.8452 0.8452 0.8451 0.8450
1925.000000 0.8449 0.8448 0.8447 0.8445 0.8442
1920.000000 0.8440 0.8438 0.8436 0.8435 0.8434
1915.000000 0.8433 0.8432 0.8431 0.8430 0.8430
1910.000000 0.8428 0.8428 0.8428 0.8428 0.8428
1905.000000 0.8428 0.8428 0.8428 0.8430 0.8430
1900.000000 0.8430 0.8431 0.8431 0.8431 0.8432
1895.000000 0.8432 0.8432 0.8433 0.8433 0.8432
1890.000000 0.8431 0.8430 0.8428 0.8428 0.8425
1885.000000 0.8425 0.8424 0.8423 0.8421 0.8420
1880.000000 0.8417 0.8415 0.8413 0.8411 0.8408
1875.000000 0.8406 0.8404 0.8401 0.8399 0.8397
1870.000000 0.8394 0.8392 0.8389 0.8387 0.8384
1865.000000 0.8382 0.8381 0.8378 0.8378 0.8375
1860.000000 0.8375 0.8389 0.8378 0.8381 0.8383
1855.000000 0.8385 0.8387 0.8390 0.8392 0.8394
1850.000000 0.8397 0.8399 0.8401 0.8402 0.8404
1845.000000 0.8406 0.8407 0.8409 0.8411 0.8412
1840.000000 0.8414 0.8416 0.8418 0.8418 0.8421
1835.000000 0.8423 0.8425 0.8427 0.8428 0.8431
1830.000000 0.8433 0.8435 0.8437 0.8439 0.8441
1825.000000 0.8443 0.8444 0.8446 0.8449 0.8454
1820.000000 0.8459 0.8464 0.8468 0.8473 0.8478
1815.000000 0.8481 0.8481 0.8480 0.8474 0.8468
1810.000000 0.8463 0.8453 0.8440 0.8427 0.8423
1805.000000 0.8418 0.8413 0.8408 0.8407 0.8406
1800.000000 0.8407 0.8408 0.8410 0.8411 0.8412
1795.000000 0.8413 0.8414 0.8415 0.8417 0.8418
1790.000000 0.8420 0.8421 0.8415 0.8405 0.8390
1785.000000 0.8377 0.8367 0.8358 0.8349 0.8341
1780.000000 0.8336 0.8334 0.8332 0.8332 0.8332
1775.000000 0.8335 0.8338 0.8342 0.8346 0.8345
1770.000000 0.8345 0.8344 0.8344 0.8343 0.8343
1765.000000 0.8342 0.8341 0.8338 0.8333 0.8328
1760.000000 0.8325 0.8321 0.8314 0.8307 0.8299
1755.000000 0.8291 0.8283 0.8275 0.8267 0.8260
1750.000000 0.8248 0.8235 0.8223 0.8210 0.8198
1745.000000 0.8186 0.8172 0.8161 0.8148 0.8133
1740.000000 0.8118 0.8104 0.8089 0.8075 0.8060
1735.000000 0.8045 0.8034 0.8021 0.8010 0.8001
1730.000000 0.7995 0.7989 0.7983 0.7976 0.7971
1725.000000 0.7968 0.7964 0.7961 0.7960 0.7958
1720.000000 0.7958 0.7957 0.7957 0.7955 0.7953
1715.000000 0.7951 0.7949 0.7947 0.7945 0.7943
1710.000000 0.7941 0.7937 0.7931 0.7925 0.7919
1705.000000 0.7915 0.7910 0.7904 0.7899 0.7890
1700.000000 0.7881 0.7871 0.7858 0.7837 0.7815
1695.000000 0.7794 0.7771 0.7733 0.7694 0.7656
1690.000000 0.7618 0.7575 0.7515 0.7454 0.7394
1685.000000 0.7334 0.7258 0.7181 0.7104 0.6991
1680.000000 0.6869 0.6730 0.6587 0.6156 0.5854
1675.000000 0.5448 0.5023 0.4871 0.4722 0.4435
1670.000000 0.4214 0.3992 0.3770 0.3549 0.3327
1665.000000 0.3105 0.2884 0.2662 0.2440 0.2219
1660.000000 0.1962 0.1902 0.1894 0.1916 0.2000
1655.000000 0.2077 0.2191 0.2310 0.2415 0.2538
1650.000000 0.2605 0.2690 0.2728 0.2752 0.2766
1645.000000 0.2773 0.2800 0.2769 0.2757 0.2703
1640.000000 0.2613 0.2499 0.2400 0.2309 0.2226
1635.000000 0.2158 0.2090 0.2016 0.1940 0.1865
1630.000000 0.1794 0.1723 0.1641 0.1546 0.1485
1625.000000 0.1437 0.1390 0.1345 0.1299 0.1274
1620.000000 0.1266 0.1257 0.1245 0.1232 0.1207
1615.000000 0.1183 0.1158 0.1137 0.1119 0.1103
1610.000000 0.1096 0.1100 0.1131 0.1158 0.1183
1605.000000 0.1206 0.1221 0.1232 0.1231 0.1230
1600.000000 0.1221 0.1192 0.1107 0.1033 0.0958
1595.000000 0.0893 0.0830 0.0753 0.0537 0.0430
1590.000000 0.0361 0.0305 0.0253 0.0225 0.0207
1585.000000 0.0194 0.0200 0.0180 0.0178 0.0187
1580.000000 0.0203 0.0218 0.0274 0.0357 0.0451
1575.000000 0.0564 0.0726 0.0838 0.1061 0.1308
1570.000000 0.1417 0.1525 0.1652 0.1792 0.1927
1565.000000 0.2057 0.2196 0.2342 0.2474 0.2624
1560.000000 0.2795 0.2966 0.3137 0.3308 0.3478
1555.000000 0.3649 0.3820 0.3980 0.4062 0.4132
1550.000000 0.4195 0.4248 0.4292 0.4334 0.4364
1545.000000 0.4395 0.4426 0.4458 0.4493 0.4537
1540.000000 0.4562 0.4572 0.4600 0.4578 0.4575
1535.000000 0.4528 0.4407 0.4244 0.4138 0.4080
1530.000000 0.4023 0.3949 0.3870 0.3775 0.3696
1525.000000 0.3636 0.3559 0.3448 0.3190 0.2932
1520.000000 0.2794 0.2783 0.2773 0.2788 0.2828
1515.000000 0.2895 0.3013 0.3135 0.3230 0.3325
1510.000000 0.3497 0.3666 0.3821 0.4014 0.4144
1505.000000 0.4272 0.4407 0.4602 0.4788 0.4912
1500.000000 0.5038 0.5164 0.5289 0.5415 0.5540
1495.000000 0.5660 0.5741 0.5825 0.5910 0.5949
1490.000000 0.5988 0.6014 0.6038 0.6058 0.6076
1485.000000 0.6094 0.6114 0.6134 0.6152 0.6164
1480.000000 0.6177 0.6189 0.6201 0.6212 0.6220
1475.000000 0.6254 0.6229 0.6195 0.5788 0.5380
1470.000000 0.4987 0.4987 0.5072 0.5192 0.5312
1465.000000 0.5431 0.5551 0.5671 0.5776 0.5794
1460.000000 0.5799 0.5787 0.5665 0.5501 0.5337
1455.000000 0.5174 0.5093 0.5098 0.5253 0.5462
1450.000000 0.5672 0.5881 0.5931 0.5942 0.5953
1445.000000 0.5964 0.5976 0.5987 0.5996 0.6004
1440.000000 0.6012 0.6012 0.5992 0.5959 0.5882
1435.000000 0.5797 0.5712 0.5617 0.5364 0.4828
1430.000000 0.4343 0.3858 0.3373 0.2887 0.2402
1425.000000 0.1917 0.1432 0.0634 0.0551 0.0500
1420.000000 0.0464 0.0442 0.0436 0.0432 0.0449
1415.000000 0.0528 0.0628 0.0759 0.1134 0.2031
1410.000000 0.2929 0.3134 0.3300 0.3621 0.3870
1405.000000 0.4042 0.4181 0.4320 0.4529 0.4701
1400.000000 0.4822 0.4940 0.5049 0.5159 0.5236
1395.000000 0.5312 0.5391 0.5462 0.5535 0.5625
1390.000000 0.5690 0.5738 0.5769 0.5793 0.5808
1385.000000 0.5822 0.5836 0.5851 0.5866 0.5878
1380.000000 0.5892 0.5903 0.5881 0.5900 0.5875
1375.000000 0.5804 0.5624 0.5509 0.5323 0.4949
1370.000000 0.4810 0.4656 0.4574 0.4539 0.4501
1365.000000 0.4410 0.4329 0.4245 0.3773 0.3214
1360.000000 0.1879 0.2101 0.1869 0.2043 0.2262
1355.000000 0.2481 0.2700 0.2919 0.3137 0.3153
1350.000000 0.3133 0.2824 0.2452 0.2079 0.1707
1345.000000 0.1335 0.0962 0.0685 0.0673 0.0656
1340.000000 0.0666 0.1256 0.1885 0.2046 0.2097
1335.000000 0.2379 0.2687 0.2994 0.3228 0.3316
1330.000000 0.3372 0.3424 0.3471 0.3580 0.3779
1325.000000 0.3977 0.4175 0.4373 0.4571 0.4755
1320.000000 0.4812 0.4873 0.4935 0.4994 0.5052
1315.000000 0.5108 0.5164 0.5221 0.5278 0.5326
1310.000000 0.5351 0.5365 0.5375 0.5386 0.5381
1305.000000 0.5375 0.5326 0.5251 0.5145 0.5032
1300.000000 0.4953 0.4948 0.4959 0.4973 0.4973
1295.000000 0.4973 0.4812 0.4391 0.3970 0.3548
1290.000000 0.3380 0.3377 0.3492 0.3794 0.4097
1285.000000 0.4399 0.4701 0.5003 0.5306 0.5552
1280.000000 0.5695 0.5812 0.5896 0.5980 0.6046
1275.000000 0.6099 0.6153 0.6200 0.6241 0.6283
1270.000000 0.6324 0.6349 0.6373 0.6386 0.6400
1265.000000 0.6414 0.6419 0.6426 0.6433 0.6437
1260.000000 0.6438 0.6439 0.6433 0.6428 0.6411
1255.000000 0.6386 0.6365 0.6347 0.6330 0.6314
1250.000000 0.6297 0.6274 0.6247 0.6197 0.6052
1245.000000 0.5897 0.5742 0.5587 0.5432 0.5390
1240.000000 0.5360 0.5462 0.5640 0.5819 0.5997
1235.000000 0.6176 0.6354 0.6443 0.6526 0.6578
1230.000000 0.6615 0.6651 0.6678 0.6703 0.6726
1225.000000 0.6751 0.6771 0.6791 0.6810 0.6828
1220.000000 0.6848 0.6867 0.6882 0.6895 0.6905
1215.000000 0.6912 0.6919 0.6928 0.6934 0.6940
1210.000000 0.6945 0.6961 0.6942 0.6939 0.6931
1205.000000 0.6919 0.6903 0.6865 0.6825 0.6748
1200.000000 0.6646 0.6553 0.6488 0.6443 0.6401
1195.000000 0.6368 0.6347 0.6314 0.6360 0.6400
1190.000000 0.6454 0.6505 0.6551 0.6595 0.6631
1185.000000 0.6667 0.6697 0.6725 0.6751 0.6765
1180.000000 0.6778 0.6793 0.6800 0.6821 0.6810
1175.000000 0.6814 0.6793 0.6762 0.6719 0.6676
1170.000000 0.6591 0.6515 0.6436 0.6309 0.6178
1165.000000 0.6047 0.5916 0.5784 0.5653 0.5540
1160.000000 0.5458 0.5484 0.5482 0.5509 0.5650
1155.000000 0.5767 0.5884 0.6002 0.6119 0.6237
1150.000000 0.6354 0.6471 0.6575 0.6598 0.6621
1145.000000 0.6646 0.6668 0.6693 0.6717 0.6741
1140.000000 0.6775 0.6808 0.6835 0.6854 0.6862
1135.000000 0.6878 0.6878 0.6883 0.6886 0.6868
1130.000000 0.6841 0.6801 0.6754 0.6656 0.6558
1125.000000 0.6269 0.5946 0.5624 0.5301 0.5254
1120.000000 0.5250 0.5419 0.5722 0.6025 0.6328
1115.000000 0.6417 0.6487 0.6581 0.6697 0.6792
1110.000000 0.6837 0.6875 0.6905 0.6928 0.6954
1105.000000 0.6968 0.6981 0.6995 0.7001 0.7004
1100.000000 0.7030 0.7007 0.7005 0.6997 0.6987
1095.000000 0.6976 0.6962 0.6942 0.6919 0.6895
1090.000000 0.6869 0.6824 0.6776 0.6728 0.6656
1085.000000 0.6575 0.6380 0.6208 0.6053 0.5919
1080.000000 0.5199 0.4464 0.4362 0.4230 0.4057
1075.000000 0.4014 0.4006 0.4003 0.4027 0.4174
1070.000000 0.4533 0.4892 0.5251 0.5610 0.5969
1065.000000 0.6245 0.6377 0.6465 0.6534 0.6569
1060.000000 0.6599 0.6608 0.6617 0.6618 0.6619
1055.000000 0.6621 0.6633 0.6651 0.6678 0.6711
1050.000000 0.6743 0.6774 0.6807 0.6839 0.6871
1045.000000 0.6903 0.6926 0.6950 0.6972 0.6996
1040.000000 0.7015 0.7035 0.7055 0.7071 0.7086
1035.000000 0.7101 0.7115 0.7130 0.7143 0.7157
1030.000000 0.7171 0.7184 0.7198 0.7208 0.7218
1025.000000 0.7215 0.7211 0.7206 0.7200 0.7197
1020.000000 0.7195 0.7201 0.7211 0.7219 0.7228
1015.000000 0.7238 0.7246 0.7255 0.7262 0.7271
1010.000000 0.7280 0.7289 0.7295 0.7300 0.7305
1005.000000 0.7310 0.7315 0.7319 0.7325 0.7330
1000.000000 0.7335 0.7339 0.7344 0.7348 0.7351
995.000000 0.7357 0.7358 0.7358 0.7365 0.7367
990.000000 0.7368 0.7371 0.7371 0.7367 0.7364
985.000000 0.7360 0.7357 0.7353 0.7345 0.7338
980.000000 0.7330 0.7321 0.7314 0.7304 0.7292
975.000000 0.7281 0.7268 0.7258 0.7246 0.7225
970.000000 0.7204 0.7183 0.7156 0.7125 0.7097
965.000000 0.7064 0.7028 0.6991 0.6918 0.6749
960.000000 0.6745 0.6742 0.6758 0.6860 0.6932
955.000000 0.6988 0.7035 0.7056 0.7076 0.7092
950.000000 0.7105 0.7118 0.7133 0.7146 0.7160
945.000000 0.7168 0.7175 0.7186 0.7186 0.7184
940.000000 0.7175 0.7155 0.7133 0.7101 0.7069
935.000000 0.7015 0.6950 0.6867 0.6748 0.6560
930.000000 0.6381 0.6203 0.6025 0.5847 0.5686
925.000000 0.5697 0.5701 0.5753 0.5862 0.5947
920.000000 0.6064 0.6155 0.6245 0.6336 0.6425
915.000000 0.6517 0.6608 0.6698 0.6789 0.6865
910.000000 0.6918 0.6968 0.7017 0.7055 0.7092
905.000000 0.7115 0.7134 0.7143 0.7146 0.7136
900.000000 0.7122 0.7104 0.7092 0.7082 0.7088
895.000000 0.7106 0.7126 0.7147 0.7167 0.7185
890.000000 0.7198 0.7211 0.7226 0.7242 0.7251
885.000000 0.7246 0.7265 0.7262 0.7253 0.7222
880.000000 0.7183 0.7075 0.6815 0.6578 0.6343
875.000000 0.6107 0.6007 0.5991 0.5977 0.5921
870.000000 0.5883 0.5859 0.5859 0.5928 0.6106
865.000000 0.6226 0.6346 0.6465 0.6585 0.6705
860.000000 0.6825 0.6945 0.7005 0.7046 0.7085
855.000000 0.7121 0.7154 0.7184 0.7186 0.7189
850.000000 0.7190 0.7190 0.7190 0.7200 0.7210
845.000000 0.7219 0.7233 0.7253 0.7272 0.7294
840.000000 0.7314 0.7331 0.7347 0.7362 0.7378
835.000000 0.7395 0.7408 0.7424 0.7439 0.7451
830.000000 0.7461 0.7471 0.7480 0.7484 0.7485
825.000000 0.7487 0.7488 0.7490 0.7505 0.7480
820.000000 0.7475 0.7468 0.7460 0.7450 0.7440
815.000000 0.7430 0.7424 0.7418 0.7412 0.7407
810.000000 0.7403 0.7398 0.7394 0.7389 0.7383
805.000000 0.7376 0.7361 0.7340 0.7301 0.7235
800.000000 0.7161 0.7067 0.7053 0.7044 0.7090
795.000000 0.7167 0.7234 0.7301 0.7345 0.7368
790.000000 0.7385 0.7401 0.7415 0.7428 0.7445
785.000000 0.7445 0.7445 0.7442 0.7425 0.7401
780.000000 0.7372 0.7337 0.7299 0.7261 0.7201
775.000000 0.7058 0.6915 0.6846 0.6845 0.6874
770.000000 0.6932 0.7025 0.7118 0.7178 0.7222
765.000000 0.7244 0.7264 0.7281 0.7291 0.7301
760.000000 0.7305 0.7308 0.7312 0.7314 0.7314
755.000000 0.7307 0.7294 0.7275 0.7256 0.7238
750.000000 0.7218 0.7193 0.7161 0.7131 0.7100
745.000000 0.7068 0.7038 0.7006 0.6975 0.6943
740.000000 0.6911 0.6878 0.6837 0.6797 0.6756
735.000000 0.6656 0.6511 0.6236 0.5880 0.5525
730.000000 0.5169 0.4894 0.4896 0.4998 0.5169
725.000000 0.5341 0.5512 0.5685 0.5857 0.6029
720.000000 0.6201 0.6373 0.6545 0.6603 0.6655
715.000000 0.6685 0.6694 0.6714 0.6697 0.6688
710.000000 0.6604 0.6196 0.5954 0.5932 0.5916
705.000000 0.5899 0.5595 0.5115 0.4635 0.4344
700.000000 0.4315 0.4350 0.4786 0.5222 0.5657
695.000000 0.6093 0.6432 0.6750 0.6950 0.7084
690.000000 0.7184 0.7258 0.7306 0.7354 0.7392
685.000000 0.7417 0.7442 0.7467 0.7492 0.7514
680.000000 0.7533 0.7548 0.7556 0.7565 0.7571
675.000000 0.7574 0.7576 0.7580 0.7582 0.7593
670.000000 0.7647 0.7701 0.7756 0.7811 0.7865
665.000000 0.7871 0.7875 0.7880 0.7886 0.7892
660.000000 0.7898 0.7904 0.7910 0.7918 0.7925
655.000000 0.7933 0.7941 0.7947 0.7953 0.7957
650.000000 0.7951 0.7944 0.7938 0.7928 0.7915
645.000000 0.7903 0.7891 0.7889 0.7887 0.7886
640.000000 0.7886 0.7886 0.7894 0.7901 0.7908
635.000000 0.7917 0.7925 0.7933 0.7940 0.7948
630.000000 0.7956 0.7965 0.7974 0.7982 0.7991
625.000000 0.8000 0.8008 0.8014 0.8015 0.8018
620.000000 0.8018 0.8021 0.8022 0.8024 0.8024
615.000000 0.8024 0.8024 0.8022 0.8022 0.8022
610.000000 0.8022 0.8022 0.8021 0.8021 0.8019
605.000000 0.8018 0.8018 0.8018 0.8017 0.8015
600.000000 0.8015 0.8014 0.8011 0.8007 0.8004
595.000000 0.8000 0.7996 0.7993 0.7986 0.7976
590.000000 0.7968 0.7960 0.7951 0.7941 0.7925
585.000000 0.7911 0.7896 0.7881 0.7865 0.7845
580.000000 0.7824 0.7803 0.7780 0.7745 0.7710
575.000000 0.7665 0.7605 0.7542 0.7438 0.7335
570.000000 0.7221 0.7107 0.6904 0.6758 0.6631
565.000000 0.6373 0.5968 0.5562 0.5157 0.4751
560.000000 0.4579 0.4578 0.4577 0.4630 0.4720
555.000000 0.4816 0.4962 0.5171 0.5384 0.5673
550.000000 0.6117 0.6561 0.6699 0.6818 0.6928
545.000000 0.7032 0.7134 0.7231 0.7307 0.7358
540.000000 0.7410 0.7461 0.7505 0.7550 0.7586
535.000000 0.7608 0.7633 0.7654 0.7671 0.7689
530.000000 0.7707 0.7725 0.7732 0.7739 0.7746
525.000000 0.7751 0.7751 0.7751 0.7753 0.7753
520.000000 0.7746 0.7739 0.7732 0.7721 0.7708
515.000000 0.7695 0.7682 0.7667 0.7649 0.7630
510.000000 0.7611 0.7592 0.7564 0.7535 0.7507
505.000000 0.7478 0.7450 0.7418 0.7388 0.7356
500.000000 0.7325 0.7293 0.7255 0.7215 0.7176
495.000000 0.7138 0.7099 0.7064 0.7028 0.6993
490.000000 0.6958 0.6925 0.6895 0.6878 0.6865
485.000000 0.6851 0.6844 0.6840 0.6835 0.6831
480.000000 0.6830 0.6838 0.6845 0.6851 0.6861
475.000000 0.6875 0.6889 0.6903 0.6956 0.6934
470.000000 0.6945 0.6956 0.6964 0.6965 0.6965
465.000000 0.6961 0.6958 0.6954 0.6951 0.6947
460.000000 0.6942 0.6932 0.6921 0.6911 0.6901
455.000000 0.6891 0.6881 0.6874
##END=
