##TITLE=NICOTINAMIDE, HYDROBROMIDE
##JCAMP-DX=4.24
##DATA TYPE=INFRARED SPECTRUM
##CLASS=COBLENTZ III
##ORIGIN=DOW CHEMICAL COMPANY
##OWNER=COBLENTZ SOC.
Collection (C) 2018 copyright by the U.S. Secretary of Commerce
on behalf of the United States of America. All rights reserved.
##DATE=1965/01/06
##NAMES=nicotinamide hydrobromide
##MOLFORM=C6 H7 Br N2 O
##SOURCE REFERENCE=COBLENTZ NO. 06607
##$NIST ID=B6006607
##$NIST SOURCE=COBLENTZ
##$NIST IMAGE=cob6607
##SPECTROMETER/DATA SYSTEM=DOW KBr FOREPRISM-GRATING
##INSTRUMENT PARAMETERS=BLAZED AT 3.5, 12.0, 20.0 MICRON AND CHANGED AT 5.0, 7.5, 14.9 MICRON
##STATE=SOLID (SPLIT MULL)
##SAMPLING PROCEDURE=TRANSMISSION
##RESOLUTION=2
##DATA PROCESSING=DIGITIZED BY COBLENTZ SOCIETY (BATCH I) FROM HARD COPY
##XUNITS=1/CM
##YUNITS=TRANSMITTANCE
##XLABEL=Wavenumbers (cm-1)
##YLABEL=% Transmission
##XFACTOR=1
##YFACTOR=1
##DELTAX=1
##FIRSTX=469
##LASTX=3790
##FIRSTY=0.9178
##MAXX=3790
##MINX=469
##MAXY=0.995
##MINY=0.0489
##NPOINTS=3322
##XYDATA=(X++(Y..Y))
469.000000 0.9178 0.9170 0.9162 0.9154 0.9145
474.000000 0.9135 0.9125 0.9115 0.9105 0.9093
479.000000 0.9082 0.9070 0.9058 0.9018 0.9034
484.000000 0.9021 0.9010 0.8999 0.8987 0.8974
489.000000 0.8961 0.8948 0.8935 0.8921 0.8908
494.000000 0.8895 0.8884 0.8873 0.8862 0.8852
499.000000 0.8841 0.8830 0.8820 0.8809 0.8799
504.000000 0.8790 0.8782 0.8773 0.8765 0.8756
509.000000 0.8748 0.8739 0.8731 0.8721 0.8712
514.000000 0.8702 0.8693 0.8684 0.8674 0.8665
519.000000 0.8655 0.8645 0.8634 0.8623 0.8612
524.000000 0.8601 0.8590 0.8568 0.8544 0.8500
529.000000 0.8454 0.8407 0.8346 0.8284 0.8218
534.000000 0.8149 0.7883 0.7603 0.7322 0.7043
539.000000 0.6875 0.6896 0.6934 0.7831 0.8616
544.000000 0.8724 0.8789 0.8828 0.8853 0.8870
549.000000 0.8885 0.8894 0.8902 0.8907 0.8907
554.000000 0.8911 0.8897 0.8886 0.8865 0.8843
559.000000 0.8821 0.8801 0.8780 0.8758 0.8735
564.000000 0.8705 0.8671 0.8639 0.8597 0.8555
569.000000 0.8513 0.8471 0.8428 0.8386 0.8344
574.000000 0.8302 0.8259 0.8212 0.8158 0.8107
579.000000 0.8054 0.7998 0.7937 0.7875 0.7815
584.000000 0.7732 0.7628 0.7522 0.7418 0.7315
589.000000 0.7221 0.7144 0.7065 0.6989 0.6904
594.000000 0.6801 0.6699 0.6597 0.6494 0.6392
599.000000 0.6290 0.6187 0.6085 0.5982 0.5880
604.000000 0.5770 0.5655 0.5551 0.5450 0.5349
609.000000 0.5241 0.5119 0.4915 0.4548 0.4371
614.000000 0.4136 0.3891 0.3737 0.3398 0.2919
619.000000 0.2441 0.2075 0.2251 0.2420 0.2589
624.000000 0.2613 0.2559 0.2531 0.2507 0.2487
629.000000 0.2476 0.2466 0.2469 0.2489 0.2512
634.000000 0.2530 0.2333 0.2014 0.1695 0.1377
639.000000 0.1059 0.0991 0.1021 0.3848 0.4043
644.000000 0.4197 0.4432 0.4929 0.5365 0.5584
649.000000 0.5774 0.5982 0.6448 0.6607 0.6692
654.000000 0.6761 0.6828 0.6885 0.6915 0.6936
659.000000 0.6957 0.6933 0.6911 0.6851 0.6764
664.000000 0.6491 0.5596 0.4701 0.3879 0.3504
669.000000 0.3107 0.2710 0.2313 0.1916 0.1925
674.000000 0.2356 0.3462 0.4567 0.5673 0.6480
679.000000 0.6603 0.7821 0.7997 0.8251 0.8425
684.000000 0.8578 0.8658 0.8723 0.8771 0.8803
689.000000 0.8833 0.8863 0.8883 0.8901 0.8909
694.000000 0.8918 0.8936 0.8914 0.8904 0.8887
699.000000 0.8868 0.8846 0.8814 0.8771 0.8728
704.000000 0.8668 0.8605 0.8532 0.8455 0.8368
709.000000 0.8275 0.8175 0.8065 0.7967 0.7722
714.000000 0.7406 0.7089 0.6771 0.6455 0.6394
719.000000 0.6400 0.6528 0.6995 0.7461 0.7732
724.000000 0.8069 0.8354 0.8430 0.8505 0.8561
729.000000 0.8616 0.8668 0.8713 0.8758 0.8803
734.000000 0.8843 0.8882 0.8920 0.8946 0.8964
739.000000 0.8983 0.9001 0.9020 0.9038 0.9042
744.000000 0.9031 0.9018 0.9000 0.8980 0.8957
749.000000 0.8932 0.8900 0.8867 0.8833 0.8800
754.000000 0.8771 0.8742 0.8713 0.8683 0.8650
759.000000 0.8615 0.8580 0.8545 0.8483 0.8411
764.000000 0.8340 0.8270 0.8168 0.8025 0.7822
769.000000 0.7236 0.6924 0.6701 0.6557 0.6462
774.000000 0.6395 0.6327 0.6318 0.6299 0.6279
779.000000 0.6218 0.5905 0.5635 0.5504 0.5397
784.000000 0.5303 0.5185 0.5158 0.5128 0.5148
789.000000 0.5389 0.5855 0.6320 0.6786 0.7251
794.000000 0.7649 0.7842 0.8008 0.8268 0.8846
799.000000 0.9052 0.9136 0.9210 0.9254 0.9273
804.000000 0.9290 0.9302 0.9301 0.9300 0.9298
809.000000 0.9275 0.9243 0.9184 0.9116 0.8987
814.000000 0.8863 0.8573 0.7599 0.6625 0.5651
819.000000 0.4676 0.3702 0.2728 0.2707 0.2711
824.000000 0.3674 0.5251 0.6826 0.8403 0.8925
829.000000 0.9346 0.9621 0.9714 0.9770 0.9799
834.000000 0.9820 0.9837 0.9854 0.9863 0.9871
839.000000 0.9880 0.9882 0.9885 0.9889 0.9893
844.000000 0.9898 0.9903 0.9910 0.9916 0.9923
849.000000 0.9930 0.9950 0.9939 0.9925 0.9913
854.000000 0.9901 0.9888 0.9875 0.9867 0.9859
859.000000 0.9852 0.9847 0.9842 0.9837 0.9834
864.000000 0.9833 0.9832 0.9831 0.9830 0.9828
869.000000 0.9828 0.9827 0.9825 0.9825 0.9825
874.000000 0.9824 0.9818 0.9800 0.9780 0.9759
879.000000 0.9737 0.9716 0.9695 0.9667 0.9639
884.000000 0.9610 0.9582 0.9553 0.9525 0.9485
889.000000 0.9434 0.9382 0.9330 0.9267 0.9200
894.000000 0.9133 0.9066 0.8964 0.8848 0.8548
899.000000 0.8249 0.7949 0.7649 0.7349 0.7050
904.000000 0.6750 0.6450 0.6318 0.6322 0.7204
909.000000 0.8104 0.8762 0.8875 0.9121 0.9261
914.000000 0.9357 0.9431 0.9486 0.9521 0.9556
919.000000 0.9578 0.9599 0.9615 0.9617 0.9618
924.000000 0.9618 0.9612 0.9607 0.9602 0.9596
929.000000 0.9590 0.9599 0.9582 0.9578 0.9575
934.000000 0.9573 0.9570 0.9568 0.9565 0.9563
939.000000 0.9557 0.9550 0.9542 0.9535 0.9528
944.000000 0.9521 0.9510 0.9495 0.9478 0.9450
949.000000 0.9406 0.9356 0.9309 0.9265 0.9208
954.000000 0.9106 0.9030 0.9052 0.9066 0.9139
959.000000 0.9303 0.9403 0.9471 0.9509 0.9528
964.000000 0.9536 0.9539 0.9541 0.9542 0.9543
969.000000 0.9543 0.9543 0.9543 0.9540 0.9538
974.000000 0.9544 0.9531 0.9527 0.9523 0.9518
979.000000 0.9514 0.9509 0.9501 0.9494 0.9484
984.000000 0.9470 0.9455 0.9441 0.9424 0.9404
989.000000 0.9384 0.9364 0.9338 0.9310 0.9282
994.000000 0.9238 0.9190 0.9142 0.9068 0.8992
999.000000 0.8897 0.8781 0.8539 0.8268 0.7998
1004.000000 0.7771 0.7790 0.7937 0.8084 0.8231
1009.000000 0.8417 0.8359 0.8137 0.7822 0.7508
1014.000000 0.7194 0.6880 0.6565 0.6252 0.6022
1019.000000 0.6279 0.7408 0.8537 0.8620 0.8657
1024.000000 0.8401 0.8018 0.7635 0.7251 0.6868
1029.000000 0.6693 0.8261 0.9008 0.9020 0.9055
1034.000000 0.9011 0.8971 0.8875 0.8718 0.8274
1039.000000 0.7828 0.7383 0.7065 0.7074 0.9011
1044.000000 0.9157 0.9236 0.9289 0.9316 0.9328
1049.000000 0.9333 0.9324 0.9317 0.9298 0.9275
1054.000000 0.9244 0.9213 0.9182 0.9151 0.9098
1059.000000 0.9097 0.9097 0.9109 0.9121 0.9140
1064.000000 0.9160 0.9185 0.9210 0.9234 0.9256
1069.000000 0.9268 0.9282 0.9290 0.9294 0.9298
1074.000000 0.9302 0.9305 0.9305 0.9304 0.9304
1079.000000 0.9303 0.9302 0.9298 0.9293 0.9288
1084.000000 0.9277 0.9260 0.9243 0.9223 0.9196
1089.000000 0.9166 0.9128 0.9084 0.9025 0.8966
1094.000000 0.8888 0.8800 0.8678 0.8527 0.8232
1099.000000 0.7912 0.7594 0.7475 0.7646 0.7960
1104.000000 0.8275 0.8354 0.8454 0.8528 0.8567
1109.000000 0.8588 0.8573 0.8560 0.8542 0.8507
1114.000000 0.8389 0.8174 0.7937 0.7788 0.7610
1119.000000 0.6805 0.6000 0.5196 0.4391 0.3586
1124.000000 0.2781 0.2149 0.2112 0.3297 0.5117
1129.000000 0.7671 0.7947 0.8247 0.8380 0.8467
1134.000000 0.8538 0.8605 0.8628 0.8653 0.8674
1139.000000 0.8673 0.8671 0.8678 0.8668 0.8660
1144.000000 0.8645 0.8630 0.8608 0.8582 0.8554
1149.000000 0.8549 0.8547 0.8599 0.8651 0.8709
1154.000000 0.8749 0.8778 0.8801 0.8801 0.8802
1159.000000 0.8802 0.8802 0.8802 0.8802 0.8802
1164.000000 0.8801 0.8799 0.8797 0.8794 0.8793
1169.000000 0.8791 0.8785 0.8768 0.8752 0.8727
1174.000000 0.8678 0.8617 0.8528 0.8447 0.8365
1179.000000 0.8287 0.8208 0.7955 0.7680 0.7404
1184.000000 0.7128 0.6847 0.6882 0.7371 0.8011
1189.000000 0.8656 0.8703 0.8728 0.8746 0.8751
1194.000000 0.8754 0.8742 0.8750 0.8744 0.8738
1199.000000 0.8730 0.8714 0.8698 0.8680 0.8658
1204.000000 0.8635 0.8608 0.8575 0.8544 0.8512
1209.000000 0.8478 0.8445 0.8411 0.8368 0.8321
1214.000000 0.8294 0.8278 0.8274 0.8271 0.8268
1219.000000 0.8266 0.8263 0.8260 0.8258 0.8256
1224.000000 0.8254 0.8252 0.8242 0.8230 0.8218
1229.000000 0.8204 0.8184 0.8165 0.8145 0.8121
1234.000000 0.8092 0.8061 0.8032 0.7993 0.7947
1239.000000 0.7901 0.7856 0.7810 0.7748 0.7686
1244.000000 0.7624 0.7554 0.7484 0.7414 0.7332
1249.000000 0.7241 0.7151 0.7078 0.7006 0.6933
1254.000000 0.6861 0.6775 0.6686 0.6456 0.6227
1259.000000 0.5998 0.5864 0.5830 0.6297 0.6815
1264.000000 0.7112 0.7161 0.7186 0.7212 0.7244
1269.000000 0.7251 0.7253 0.7253 0.7253 0.7249
1274.000000 0.7243 0.7235 0.7225 0.7210 0.7188
1279.000000 0.7155 0.7122 0.7091 0.7056 0.7021
1284.000000 0.6986 0.6950 0.6901 0.6854 0.6808
1289.000000 0.6765 0.6724 0.6683 0.6658 0.6658
1294.000000 0.6664 0.6669 0.6675 0.6682 0.6688
1299.000000 0.6695 0.6701 0.6708 0.6714 0.6715
1304.000000 0.6715 0.6715 0.6711 0.6694 0.6678
1309.000000 0.6661 0.6643 0.6625 0.6606 0.6585
1314.000000 0.6562 0.6541 0.6518 0.6487 0.6456
1319.000000 0.6428 0.6403 0.6377 0.6350 0.6322
1324.000000 0.6294 0.6267 0.6239 0.6215 0.6193
1329.000000 0.6171 0.6148 0.6126 0.6104 0.6081
1334.000000 0.6059 0.6036 0.6010 0.5966 0.5912
1339.000000 0.5831 0.5721 0.5526 0.5242 0.4958
1344.000000 0.4674 0.4390 0.4106 0.3822 0.3577
1349.000000 0.3975 0.4897 0.5416 0.5450 0.5479
1354.000000 0.5508 0.5534 0.5562 0.5608 0.5670
1359.000000 0.5810 0.6089 0.6597 0.6693 0.6734
1364.000000 0.6756 0.6774 0.6776 0.6775 0.6771
1369.000000 0.6758 0.6747 0.6734 0.6704 0.6669
1374.000000 0.6639 0.6608 0.6575 0.6542 0.6510
1379.000000 0.6476 0.6445 0.6415 0.6386 0.6357
1384.000000 0.6328 0.6296 0.6262 0.6230 0.6196
1389.000000 0.6156 0.6114 0.6062 0.5975 0.5885
1394.000000 0.5794 0.5589 0.5376 0.5247 0.5119
1399.000000 0.5002 0.4830 0.4467 0.4105 0.3743
1404.000000 0.3380 0.2902 0.2271 0.2105 0.1953
1409.000000 0.1821 0.1634 0.1578 0.1574 0.1574
1414.000000 0.1603 0.2095 0.2700 0.3304 0.3909
1419.000000 0.4514 0.5118 0.5723 0.6259 0.6635
1424.000000 0.7028 0.7131 0.7182 0.7219 0.7249
1429.000000 0.7276 0.7298 0.7317 0.7330 0.7342
1434.000000 0.7351 0.7358 0.7365 0.7372 0.7378
1439.000000 0.7384 0.7390 0.7395 0.7401 0.7410
1444.000000 0.7418 0.7425 0.7430 0.7436 0.7441
1449.000000 0.7411 0.7424 0.7415 0.7401 0.7382
1454.000000 0.7346 0.7301 0.7245 0.7161 0.7072
1459.000000 0.6968 0.6826 0.6672 0.6408 0.5885
1464.000000 0.5360 0.4838 0.4314 0.3791 0.3268
1469.000000 0.3268 0.3260 0.5750 0.7633 0.7885
1474.000000 0.7971 0.8022 0.8061 0.8084 0.8099
1479.000000 0.8112 0.8125 0.8134 0.8136 0.8139
1484.000000 0.8141 0.8142 0.8142 0.8142 0.8142
1489.000000 0.8141 0.8138 0.8136 0.8134 0.8131
1494.000000 0.8128 0.8125 0.8121 0.8114 0.8101
1499.000000 0.8090 0.8078 0.8065 0.8051 0.8037
1504.000000 0.8024 0.8008 0.7990 0.7971 0.7954
1509.000000 0.7935 0.7917 0.7900 0.7882 0.7864
1514.000000 0.7846 0.7825 0.7806 0.7785 0.7765
1519.000000 0.7744 0.7724 0.7704 0.7671 0.7638
1524.000000 0.7604 0.7565 0.7525 0.7484 0.7443
1529.000000 0.7400 0.7351 0.7305 0.7258 0.7208
1534.000000 0.7156 0.7103 0.7050 0.6990 0.6922
1539.000000 0.6855 0.6775 0.6690 0.6557 0.6403
1544.000000 0.6288 0.6080 0.5797 0.5557 0.5217
1549.000000 0.4876 0.4536 0.4195 0.3948 0.4068
1554.000000 0.5171 0.6273 0.7365 0.7467 0.7519
1559.000000 0.7545 0.7562 0.7575 0.7581 0.7583
1564.000000 0.7605 0.7572 0.7565 0.7557 0.7541
1569.000000 0.7521 0.7501 0.7478 0.7450 0.7421
1574.000000 0.7393 0.7358 0.7315 0.7272 0.7212
1579.000000 0.7153 0.7096 0.7039 0.6980 0.6921
1584.000000 0.6848 0.6765 0.6682 0.6588 0.6495
1589.000000 0.6359 0.6201 0.6103 0.6005 0.5904
1594.000000 0.5744 0.5548 0.5348 0.4757 0.4594
1599.000000 0.4460 0.3902 0.3216 0.2531 0.2272
1604.000000 0.2283 0.2704 0.3218 0.3734 0.4250
1609.000000 0.4765 0.4890 0.4650 0.4262 0.3877
1614.000000 0.3490 0.3103 0.2717 0.2330 0.1943
1619.000000 0.1892 0.2434 0.3202 0.3968 0.4415
1624.000000 0.4456 0.4482 0.4303 0.4050 0.3798
1629.000000 0.3545 0.3292 0.3039 0.2785 0.2538
1634.000000 0.2724 0.3346 0.3968 0.4590 0.5082
1639.000000 0.5160 0.5188 0.5223 0.5165 0.5062
1644.000000 0.4960 0.4859 0.4756 0.4657 0.4566
1649.000000 0.4025 0.3272 0.2396 0.2131 0.1971
1654.000000 0.1794 0.1624 0.1468 0.1246 0.1111
1659.000000 0.0989 0.0872 0.0720 0.0604 0.0556
1664.000000 0.0526 0.0509 0.0493 0.0489 0.0490
1669.000000 0.0491 0.0511 0.0556 0.0633 0.0783
1674.000000 0.0972 0.1174 0.2018 0.2235 0.2834
1679.000000 0.4076 0.5317 0.6267 0.6351 0.6438
1684.000000 0.6681 0.7045 0.7218 0.7355 0.7474
1689.000000 0.7587 0.7694 0.7794 0.7894 0.7991
1694.000000 0.8089 0.8198 0.8306 0.8427 0.8548
1699.000000 0.8639 0.8728 0.8818 0.8907 0.8983
1704.000000 0.9052 0.9099 0.9143 0.9168 0.9187
1709.000000 0.9205 0.9197 0.9197 0.9187 0.9174
1714.000000 0.9162 0.9149 0.9132 0.9115 0.9099
1719.000000 0.9083 0.9068 0.9054 0.9040 0.9025
1724.000000 0.9010 0.8996 0.8981 0.8966 0.8959
1729.000000 0.8955 0.8950 0.8946 0.8952 0.8958
1734.000000 0.8967 0.8975 0.8985 0.8995 0.9004
1739.000000 0.9014 0.9023 0.9031 0.9034 0.9034
1744.000000 0.9033 0.9031 0.9028 0.9027 0.9025
1749.000000 0.9021 0.9016 0.9012 0.9007 0.9003
1754.000000 0.9000 0.8998 0.8996 0.8993 0.8991
1759.000000 0.8988 0.8985 0.8982 0.8974 0.8964
1764.000000 0.8954 0.8944 0.8928 0.8913 0.8898
1769.000000 0.8878 0.8859 0.8838 0.8817 0.8793
1774.000000 0.8767 0.8740 0.8714 0.8687 0.8656
1779.000000 0.8625 0.8594 0.8571 0.8559 0.8558
1784.000000 0.8555 0.8548 0.8541 0.8534 0.8524
1789.000000 0.8515 0.8505 0.8494 0.8483 0.8471
1794.000000 0.8460 0.8451 0.8442 0.8434 0.8433
1799.000000 0.8430 0.8428 0.8442 0.8463 0.8488
1804.000000 0.8513 0.8534 0.8555 0.8575 0.8597
1809.000000 0.8616 0.8636 0.8656 0.8675 0.8695
1814.000000 0.8715 0.8728 0.8738 0.8748 0.8746
1819.000000 0.8736 0.8737 0.8738 0.8733 0.8728
1824.000000 0.8724 0.8718 0.8711 0.8704 0.8697
1829.000000 0.8690 0.8683 0.8675 0.8665 0.8656
1834.000000 0.8646 0.8637 0.8627 0.8618 0.8608
1839.000000 0.8598 0.8587 0.8577 0.8566 0.8555
1844.000000 0.8544 0.8533 0.8521 0.8512 0.8502
1849.000000 0.8493 0.8483 0.8474 0.8464 0.8457
1854.000000 0.8460 0.8463 0.8466 0.8468 0.8471
1859.000000 0.8477 0.8486 0.8494 0.8502 0.8511
1864.000000 0.8520 0.8528 0.8537 0.8546 0.8554
1869.000000 0.8563 0.8571 0.8580 0.8588 0.8594
1874.000000 0.8596 0.8588 0.8580 0.8571 0.8563
1879.000000 0.8555 0.8547 0.8534 0.8518 0.8502
1884.000000 0.8487 0.8471 0.8454 0.8437 0.8418
1889.000000 0.8402 0.8374 0.8336 0.8298 0.8260
1894.000000 0.8223 0.8185 0.8147 0.8110 0.8071
1899.000000 0.8032 0.7992 0.7953 0.7912 0.7872
1904.000000 0.7834 0.7797 0.7761 0.7724 0.7688
1909.000000 0.7651 0.7615 0.7580 0.7544 0.7517
1914.000000 0.7492 0.7514 0.7540 0.7575 0.7612
1919.000000 0.7650 0.7686 0.7724 0.7768 0.7811
1924.000000 0.7856 0.7899 0.7939 0.7980 0.8021
1929.000000 0.8068 0.8115 0.8143 0.8143 0.8143
1934.000000 0.8141 0.8139 0.8136 0.8135 0.8135
1939.000000 0.8135 0.8135 0.8139 0.8142 0.8145
1944.000000 0.8151 0.8165 0.8178 0.8190 0.8172
1949.000000 0.8171 0.8135 0.8099 0.8078 0.8058
1954.000000 0.8046 0.8037 0.8028 0.8019 0.8018
1959.000000 0.8018 0.8018 0.8018 0.8018 0.8021
1964.000000 0.8025 0.8028 0.8032 0.8038 0.8046
1969.000000 0.8054 0.8062 0.8075 0.8087 0.8082
1974.000000 0.8071 0.8053 0.8034 0.8015 0.8000
1979.000000 0.7993 0.7987 0.7980 0.7980 0.7980
1984.000000 0.7982 0.7987 0.7991 0.7998 0.8011
1989.000000 0.8051 0.8089 0.8126 0.8165 0.8204
1994.000000 0.8242 0.8281 0.8318 0.8335 0.8349
1999.000000 0.8323 0.8318 0.8293 0.8268 0.8251
2004.000000 0.8234 0.8217 0.8201 0.8183 0.8165
2009.000000 0.8149 0.8132 0.8111 0.8092 0.8071
2014.000000 0.8050 0.8028 0.8007 0.7981 0.7955
2019.000000 0.7926 0.7900 0.7878 0.7856 0.7834
2024.000000 0.7811 0.7790 0.7768 0.7744 0.7719
2029.000000 0.7695 0.7581 0.7646 0.7621 0.7608
2034.000000 0.7595 0.7596 0.7597 0.7606 0.7615
2039.000000 0.7624 0.7632 0.7645 0.7658 0.7675
2044.000000 0.7693 0.7705 0.7718 0.7732 0.7747
2049.000000 0.7764 0.7782 0.7783 0.7784 0.7784
2054.000000 0.7785 0.7788 0.7791 0.7805 0.7818
2059.000000 0.7840 0.7861 0.7884 0.7906 0.7924
2064.000000 0.7943 0.7978 0.8015 0.8050 0.8086
2069.000000 0.8101 0.8118 0.8132 0.8146 0.8151
2074.000000 0.8158 0.8164 0.8169 0.8172 0.8176
2079.000000 0.8180 0.8184 0.8187 0.8191 0.8194
2084.000000 0.8197 0.8200 0.8204 0.8207 0.8211
2089.000000 0.8214 0.8218 0.8221 0.8261 0.8233
2094.000000 0.8241 0.8246 0.8251 0.8254 0.8253
2099.000000 0.8252 0.8247 0.8241 0.8236 0.8231
2104.000000 0.8227 0.8223 0.8220 0.8215 0.8211
2109.000000 0.8204 0.8198 0.8194 0.8190 0.8187
2114.000000 0.8184 0.8180 0.8176 0.8174 0.8171
2119.000000 0.8167 0.8164 0.8161 0.8158 0.8154
2124.000000 0.8151 0.8147 0.8144 0.8141 0.8138
2129.000000 0.8134 0.8131 0.8128 0.8125 0.8121
2134.000000 0.8118 0.8115 0.8111 0.8108 0.8105
2139.000000 0.8101 0.8099 0.8095 0.8092 0.8089
2144.000000 0.8086 0.8082 0.8078 0.8075 0.8072
2149.000000 0.8068 0.8065 0.8061 0.8057 0.8051
2154.000000 0.8046 0.8041 0.8036 0.8030 0.8024
2159.000000 0.8018 0.8011 0.8006 0.8001 0.7995
2164.000000 0.7989 0.7983 0.7976 0.7971 0.7965
2169.000000 0.7960 0.7954 0.7948 0.7942 0.7936
2174.000000 0.7931 0.7925 0.7918 0.7912 0.7907
2179.000000 0.7901 0.7895 0.7889 0.7883 0.7876
2184.000000 0.7871 0.7864 0.7858 0.7851 0.7846
2189.000000 0.7839 0.7833 0.7825 0.7819 0.7812
2194.000000 0.7807 0.7800 0.7794 0.7787 0.7781
2199.000000 0.7774 0.7768 0.7761 0.7755 0.7748
2204.000000 0.7742 0.7735 0.7728 0.7721 0.7715
2209.000000 0.7708 0.7701 0.7695 0.7688 0.7681
2214.000000 0.7675 0.7668 0.7661 0.7654 0.7648
2219.000000 0.7641 0.7635 0.7626 0.7618 0.7610
2224.000000 0.7601 0.7592 0.7583 0.7574 0.7565
2229.000000 0.7555 0.7546 0.7537 0.7528 0.7518
2234.000000 0.7510 0.7503 0.7497 0.7491 0.7485
2239.000000 0.7478 0.7471 0.7465 0.7460 0.7454
2244.000000 0.7448 0.7443 0.7439 0.7436 0.7434
2249.000000 0.7431 0.7428 0.7425 0.7422 0.7419
2254.000000 0.7418 0.7415 0.7414 0.7411 0.7411
2259.000000 0.7408 0.7407 0.7404 0.7401 0.7399
2264.000000 0.7396 0.7392 0.7389 0.7385 0.7382
2269.000000 0.7378 0.7374 0.7369 0.7365 0.7361
2274.000000 0.7358 0.7355 0.7351 0.7348 0.7345
2279.000000 0.7339 0.7333 0.7326 0.7321 0.7315
2284.000000 0.7308 0.7303 0.7297 0.7291 0.7285
2289.000000 0.7278 0.7272 0.7267 0.7261 0.7255
2294.000000 0.7250 0.7244 0.7239 0.7233 0.7226
2299.000000 0.7221 0.7215 0.7210 0.7205 0.7199
2304.000000 0.7194 0.7188 0.7182 0.7175 0.7171
2309.000000 0.7165 0.7158 0.7151 0.7145 0.7138
2314.000000 0.7132 0.7125 0.7118 0.7111 0.7104
2319.000000 0.7097 0.7091 0.7084 0.7076 0.7069
2324.000000 0.7064 0.7057 0.7050 0.7044 0.7038
2329.000000 0.7032 0.7025 0.7019 0.7014 0.7008
2334.000000 0.7001 0.6996 0.6990 0.6984 0.6978
2339.000000 0.6971 0.6965 0.6960 0.6954 0.6948
2344.000000 0.6942 0.6936 0.6930 0.6924 0.6918
2349.000000 0.6911 0.6905 0.6899 0.6893 0.6887
2354.000000 0.6881 0.6875 0.6868 0.6862 0.6857
2359.000000 0.6851 0.6845 0.6839 0.6833 0.6825
2364.000000 0.6818 0.6811 0.6806 0.6799 0.6792
2369.000000 0.6785 0.6778 0.6771 0.6765 0.6758
2374.000000 0.6751 0.6744 0.6737 0.6728 0.6721
2379.000000 0.6715 0.6708 0.6700 0.6693 0.6686
2384.000000 0.6678 0.6671 0.6664 0.6657 0.6650
2389.000000 0.6642 0.6635 0.6625 0.6618 0.6608
2394.000000 0.6601 0.6592 0.6584 0.6575 0.6567
2399.000000 0.6558 0.6550 0.6541 0.6532 0.6522
2404.000000 0.6515 0.6506 0.6498 0.6489 0.6481
2409.000000 0.6471 0.6462 0.6453 0.6444 0.6434
2414.000000 0.6425 0.6415 0.6406 0.6396 0.6387
2419.000000 0.6378 0.6369 0.6359 0.6350 0.6340
2424.000000 0.6331 0.6321 0.6312 0.6301 0.6290
2429.000000 0.6278 0.6266 0.6254 0.6243 0.6231
2434.000000 0.6219 0.6207 0.6195 0.6183 0.6171
2439.000000 0.6159 0.6147 0.6135 0.6124 0.6112
2444.000000 0.6100 0.6085 0.6071 0.6057 0.6043
2449.000000 0.6029 0.6015 0.6001 0.5987 0.5972
2454.000000 0.5958 0.5944 0.5930 0.5916 0.5902
2459.000000 0.5888 0.5874 0.5859 0.5845 0.5826
2464.000000 0.5808 0.5789 0.5770 0.5751 0.5732
2469.000000 0.5712 0.5694 0.5675 0.5657 0.5638
2474.000000 0.5619 0.5600 0.5581 0.5562 0.5543
2479.000000 0.5524 0.5505 0.5485 0.5466 0.5446
2484.000000 0.5426 0.5406 0.5387 0.5367 0.5348
2489.000000 0.5328 0.5309 0.5289 0.5270 0.5250
2494.000000 0.5230 0.5210 0.5191 0.5172 0.5154
2499.000000 0.5137 0.5120 0.5103 0.5086 0.5069
2504.000000 0.5053 0.5036 0.5019 0.5002 0.4985
2509.000000 0.4968 0.4951 0.4934 0.4917 0.4900
2514.000000 0.4884 0.4867 0.4850 0.4833 0.4816
2519.000000 0.4794 0.4773 0.4751 0.4730 0.4708
2524.000000 0.4687 0.4665 0.4644 0.4624 0.4605
2529.000000 0.4587 0.4569 0.4551 0.4533 0.4515
2534.000000 0.4497 0.4479 0.4462 0.4444 0.4426
2539.000000 0.4408 0.4390 0.4370 0.4350 0.4328
2544.000000 0.4307 0.4285 0.4262 0.4241 0.4220
2549.000000 0.4198 0.4177 0.4154 0.4131 0.4104
2554.000000 0.4077 0.4050 0.4023 0.3996 0.3968
2559.000000 0.3941 0.3914 0.3886 0.3858 0.3830
2564.000000 0.3802 0.3774 0.3746 0.3718 0.3690
2569.000000 0.3658 0.3627 0.3589 0.3552 0.3514
2574.000000 0.3478 0.3440 0.3402 0.3362 0.3323
2579.000000 0.3282 0.3244 0.3205 0.3167 0.3133
2584.000000 0.3099 0.3064 0.3030 0.2996 0.2962
2589.000000 0.2931 0.2901 0.2870 0.2839 0.2816
2594.000000 0.2794 0.2777 0.2761 0.2745 0.2730
2599.000000 0.2719 0.2709 0.2702 0.2695 0.2690
2604.000000 0.2684 0.2680 0.2675 0.2672 0.2670
2609.000000 0.2668 0.2666 0.2664 0.2663 0.2661
2614.000000 0.2660 0.2658 0.2657 0.2644 0.2632
2619.000000 0.2612 0.2592 0.2572 0.2552 0.2530
2624.000000 0.2508 0.2475 0.2443 0.2417 0.2392
2629.000000 0.2377 0.2363 0.2362 0.2362 0.2361
2634.000000 0.2361 0.2360 0.2359 0.2359 0.2359
2639.000000 0.2360 0.2361 0.2362 0.2363 0.2364
2644.000000 0.2365 0.2365 0.2366 0.2353 0.2341
2649.000000 0.2322 0.2304 0.2280 0.2257 0.2234
2654.000000 0.2211 0.2189 0.2167 0.2149 0.2131
2659.000000 0.2112 0.2093 0.2073 0.2054 0.2034
2664.000000 0.2014 0.2000 0.1986 0.1975 0.1964
2669.000000 0.1952 0.1941 0.1929 0.1919 0.1910
2674.000000 0.1901 0.1902 0.1904 0.1908 0.1913
2679.000000 0.1929 0.1901 0.2037 0.2132 0.2225
2684.000000 0.2319 0.2412 0.2506 0.2599 0.2693
2689.000000 0.2725 0.2757 0.2763 0.2774 0.2774
2694.000000 0.2773 0.2770 0.2767 0.2755 0.2744
2699.000000 0.2730 0.2716 0.2697 0.2679 0.2654
2704.000000 0.2629 0.2605 0.2581 0.2557 0.2533
2709.000000 0.2495 0.2458 0.2422 0.2385 0.2355
2714.000000 0.2324 0.2309 0.2294 0.2293 0.2262
2719.000000 0.2291 0.2291 0.2291 0.2291 0.2297
2724.000000 0.2303 0.2309 0.2315 0.2325 0.2334
2729.000000 0.2349 0.2363 0.2383 0.2404 0.2431
2734.000000 0.2458 0.2493 0.2528 0.2566 0.2604
2739.000000 0.2640 0.2677 0.2712 0.2748 0.2778
2744.000000 0.2808 0.2837 0.2866 0.2895 0.2924
2749.000000 0.2953 0.2982 0.3011 0.3040 0.3069
2754.000000 0.3098 0.3127 0.3156 0.3184 0.3214
2759.000000 0.3243 0.3272 0.3300 0.3330 0.3359
2764.000000 0.3388 0.3416 0.3446 0.3475 0.3504
2769.000000 0.3532 0.3562 0.3591 0.3620 0.3649
2774.000000 0.3678 0.3707 0.3736 0.3764 0.3794
2779.000000 0.3823 0.3852 0.3880 0.3909 0.3939
2784.000000 0.3968 0.3997 0.4026 0.4055 0.4084
2789.000000 0.4114 0.4143 0.4177 0.4212 0.4258
2794.000000 0.4305 0.4338 0.4372 0.4400 0.4429
2799.000000 0.4451 0.4473 0.4475 0.4478 0.4464
2804.000000 0.4451 0.4437 0.4424 0.4410 0.4397
2809.000000 0.4383 0.4369 0.4355 0.4342 0.4327
2814.000000 0.4312 0.4312 0.4312 0.4340 0.4368
2819.000000 0.4407 0.4447 0.4486 0.4526 0.4566
2824.000000 0.4606 0.4645 0.4685 0.4724 0.4764
2829.000000 0.4807 0.4850 0.4888 0.4927 0.4960
2834.000000 0.4993 0.5014 0.5035 0.5048 0.5060
2839.000000 0.5068 0.5076 0.5083 0.5090 0.5096
2844.000000 0.5103 0.5108 0.5114 0.5119 0.5124
2849.000000 0.5129 0.5134 0.5138 0.5143 0.5147
2854.000000 0.5152 0.5156 0.5160 0.5165 0.5169
2859.000000 0.5172 0.5176 0.5179 0.5183 0.5186
2864.000000 0.5190 0.5199 0.5208 0.5239 0.5270
2869.000000 0.5349 0.5428 0.5497 0.5567 0.5620
2874.000000 0.5673 0.5710 0.5749 0.5769 0.5790
2879.000000 0.5796 0.5802 0.5806 0.5815 0.5809
2884.000000 0.5808 0.5791 0.5775 0.5742 0.5709
2889.000000 0.5589 0.5469 0.5387 0.5305 0.5244
2894.000000 0.5184 0.5136 0.5088 0.5044 0.5001
2899.000000 0.4966 0.4901 0.4925 0.4918 0.4918
2904.000000 0.4918 0.4922 0.4926 0.4959 0.4993
2909.000000 0.5037 0.5082 0.5130 0.5178 0.5210
2914.000000 0.5242 0.5262 0.5285 0.5301 0.5318
2919.000000 0.5333 0.5348 0.5360 0.5375 0.5385
2924.000000 0.5396 0.5424 0.5452 0.5539 0.5626
2929.000000 0.5679 0.5733 0.5756 0.5779 0.5778
2934.000000 0.5777 0.5775 0.5774 0.5765 0.5792
2939.000000 0.5731 0.5705 0.5669 0.5634 0.5596
2944.000000 0.5559 0.5517 0.5475 0.5427 0.5379
2949.000000 0.5341 0.5303 0.5272 0.5241 0.5210
2954.000000 0.5180 0.5152 0.5125 0.5112 0.5102
2959.000000 0.5097 0.5093 0.5093 0.5094 0.5094
2964.000000 0.5094 0.5094 0.5094 0.5109 0.5124
2969.000000 0.5142 0.5160 0.5178 0.5196 0.5212
2974.000000 0.5230 0.5256 0.5282 0.5310 0.5339
2979.000000 0.5370 0.5401 0.5427 0.5454 0.5473
2984.000000 0.5492 0.5509 0.5527 0.5542 0.5557
2989.000000 0.5571 0.5585 0.5592 0.5600 0.5599
2994.000000 0.5620 0.5593 0.5589 0.5579 0.5570
2999.000000 0.5554 0.5539 0.5518 0.5497 0.5475
3004.000000 0.5454 0.5436 0.5418 0.5401 0.5384
3009.000000 0.5366 0.5349 0.5323 0.5298 0.5273
3014.000000 0.5248 0.5218 0.5189 0.5145 0.5101
3019.000000 0.5039 0.4978 0.4920 0.4862 0.4805
3024.000000 0.4748 0.4690 0.4632 0.4574 0.4517
3029.000000 0.4459 0.4402 0.4346 0.4291 0.4247
3034.000000 0.4204 0.4168 0.4133 0.4101 0.4068
3039.000000 0.4030 0.3993 0.3950 0.3907 0.3870
3044.000000 0.3768 0.3818 0.3803 0.3814 0.3825
3049.000000 0.3890 0.3956 0.4022 0.4088 0.4154
3054.000000 0.4220 0.4228 0.4240 0.4134 0.4032
3059.000000 0.3850 0.3666 0.3482 0.3300 0.3117
3064.000000 0.2934 0.2751 0.2568 0.2583 0.2545
3069.000000 0.2781 0.2964 0.3147 0.3330 0.3512
3074.000000 0.3695 0.3878 0.4060 0.4290 0.4519
3079.000000 0.4577 0.4636 0.4660 0.4687 0.4687
3084.000000 0.4675 0.4684 0.4680 0.4665 0.4651
3089.000000 0.4630 0.4609 0.4587 0.4565 0.4534
3094.000000 0.4503 0.4452 0.4402 0.4320 0.4238
3099.000000 0.4156 0.4074 0.3992 0.3909 0.3846
3104.000000 0.3782 0.3737 0.3693 0.3657 0.3621
3109.000000 0.3584 0.3548 0.3509 0.3470 0.3432
3114.000000 0.3395 0.3358 0.3321 0.3286 0.3250
3119.000000 0.3205 0.3159 0.3050 0.2942 0.2822
3124.000000 0.2703 0.2461 0.2219 0.2144 0.2070
3129.000000 0.1994 0.1921 0.1829 0.1740 0.1607
3134.000000 0.1474 0.1404 0.1335 0.1278 0.1222
3139.000000 0.1173 0.1124 0.1071 0.1018 0.0964
3144.000000 0.0911 0.0882 0.0853 0.0845 0.0826
3149.000000 0.0838 0.0839 0.0878 0.0917 0.1051
3154.000000 0.1185 0.1364 0.1544 0.1723 0.1902
3159.000000 0.2081 0.2260 0.2439 0.2618 0.2797
3164.000000 0.2976 0.3155 0.3334 0.3514 0.3693
3169.000000 0.3872 0.4050 0.4324 0.4598 0.4706
3174.000000 0.4814 0.4904 0.4995 0.5172 0.5350
3179.000000 0.5507 0.5665 0.5692 0.5720 0.5734
3184.000000 0.5749 0.5755 0.5762 0.5764 0.5770
3189.000000 0.5770 0.5770 0.5769 0.5768 0.5767
3194.000000 0.5767 0.5762 0.5757 0.5741 0.5726
3199.000000 0.5680 0.5635 0.5589 0.5544 0.5498
3204.000000 0.5453 0.5407 0.5362 0.5316 0.5271
3209.000000 0.5226 0.5182 0.5153 0.5124 0.5105
3214.000000 0.5087 0.5075 0.5062 0.5059 0.5060
3219.000000 0.5060 0.5067 0.5079 0.5092 0.5120
3224.000000 0.5148 0.5155 0.5162 0.5164 0.5165
3229.000000 0.5166 0.5167 0.5164 0.5162 0.5158
3234.000000 0.5155 0.5152 0.5149 0.5147 0.5145
3239.000000 0.5144 0.5144 0.5148 0.5153 0.5157
3244.000000 0.5162 0.5166 0.5171 0.5178 0.5185
3249.000000 0.5194 0.5203 0.5208 0.5212 0.5217
3254.000000 0.5222 0.5223 0.5225 0.5225 0.5225
3259.000000 0.5223 0.5221 0.5216 0.5212 0.5201
3264.000000 0.5190 0.5178 0.5166 0.5150 0.5134
3269.000000 0.5119 0.5105 0.5091 0.5078 0.5064
3274.000000 0.5050 0.5036 0.5022 0.5003 0.4985
3279.000000 0.4966 0.4948 0.4930 0.4912 0.4894
3284.000000 0.4877 0.4859 0.4841 0.4823 0.4806
3289.000000 0.4787 0.4769 0.4750 0.4731 0.4710
3294.000000 0.4692 0.4667 0.4643 0.4618 0.4594
3299.000000 0.4569 0.4545 0.4521 0.4497 0.4473
3304.000000 0.4449 0.4417 0.4385 0.4345 0.4306
3309.000000 0.4262 0.4218 0.4166 0.4115 0.4064
3314.000000 0.4014 0.3968 0.3922 0.3876 0.3830
3319.000000 0.3779 0.3728 0.3672 0.3616 0.3559
3324.000000 0.3503 0.3309 0.3116 0.2985 0.2857
3329.000000 0.2703 0.2550 0.2378 0.2207 0.1910
3334.000000 0.1614 0.1446 0.1281 0.1181 0.1082
3339.000000 0.1032 0.0983 0.0935 0.0887 0.0853
3344.000000 0.0820 0.0810 0.0766 0.0799 0.0799
3349.000000 0.1041 0.1284 0.1571 0.1859 0.2146
3354.000000 0.2434 0.2721 0.3009 0.3296 0.3582
3359.000000 0.3870 0.4158 0.4445 0.4733 0.5020
3364.000000 0.5308 0.5453 0.5599 0.5684 0.5769
3369.000000 0.5877 0.5985 0.6156 0.6328 0.6474
3374.000000 0.6621 0.6701 0.6784 0.6872 0.6962
3379.000000 0.7038 0.7112 0.7191 0.7268 0.7301
3384.000000 0.7333 0.7355 0.7378 0.7400 0.7421
3389.000000 0.7440 0.7458 0.7474 0.7491 0.7501
3394.000000 0.7511 0.7519 0.7528 0.7534 0.7539
3399.000000 0.7544 0.7550 0.7554 0.7558 0.7560
3404.000000 0.7561 0.7562 0.7564 0.7565 0.7565
3409.000000 0.7565 0.7565 0.7564 0.7562 0.7561
3414.000000 0.7561 0.7560 0.7558 0.7556 0.7553
3419.000000 0.7550 0.7547 0.7544 0.7541 0.7538
3424.000000 0.7535 0.7532 0.7530 0.7525 0.7521
3429.000000 0.7517 0.7511 0.7507 0.7501 0.7496
3434.000000 0.7491 0.7486 0.7481 0.7475 0.7471
3439.000000 0.7465 0.7461 0.7457 0.7451 0.7447
3444.000000 0.7442 0.7437 0.7433 0.7428 0.7422
3449.000000 0.7418 0.7412 0.7408 0.7404 0.7399
3454.000000 0.7395 0.7390 0.7386 0.7381 0.7376
3459.000000 0.7372 0.7368 0.7364 0.7360 0.7355
3464.000000 0.7351 0.7347 0.7343 0.7338 0.7334
3469.000000 0.7328 0.7325 0.7319 0.7315 0.7311
3474.000000 0.7306 0.7301 0.7297 0.7292 0.7288
3479.000000 0.7283 0.7278 0.7274 0.7268 0.7264
3484.000000 0.7260 0.7255 0.7250 0.7245 0.7240
3489.000000 0.7235 0.7230 0.7225 0.7219 0.7215
3494.000000 0.7210 0.7204 0.7199 0.7194 0.7189
3499.000000 0.7186 0.7183 0.7178 0.7175 0.7171
3504.000000 0.7168 0.7165 0.7162 0.7158 0.7156
3509.000000 0.7151 0.7149 0.7146 0.7143 0.7139
3514.000000 0.7136 0.7132 0.7128 0.7126 0.7125
3519.000000 0.7125 0.7124 0.7122 0.7121 0.7119
3524.000000 0.7118 0.7118 0.7117 0.7115 0.7115
3529.000000 0.7114 0.7112 0.7111 0.7110 0.7108
3534.000000 0.7108 0.7107 0.7106 0.7105 0.7105
3539.000000 0.7104 0.7104 0.7103 0.7101 0.7101
3544.000000 0.7101 0.7100 0.7099 0.7098 0.7098
3549.000000 0.7097 0.7097 0.7096 0.7095 0.7094
3554.000000 0.7093 0.7092 0.7091 0.7089 0.7088
3559.000000 0.7087 0.7086 0.7085 0.7084 0.7083
3564.000000 0.7082 0.7081 0.7080 0.7078 0.7078
3569.000000 0.7075 0.7075 0.7074 0.7072 0.7071
3574.000000 0.7071 0.7069 0.7068 0.7067 0.7065
3579.000000 0.7064 0.7062 0.7061 0.7060 0.7058
3584.000000 0.7057 0.7055 0.7054 0.7051 0.7051
3589.000000 0.7049 0.7048 0.7046 0.7045 0.7043
3594.000000 0.7042 0.7040 0.7038 0.7036 0.7034
3599.000000 0.7031 0.7028 0.7025 0.7024 0.7021
3604.000000 0.7019 0.7017 0.7015 0.7011 0.7010
3609.000000 0.7007 0.7005 0.7003 0.7001 0.6998
3614.000000 0.6996 0.6993 0.6991 0.6989 0.6987
3619.000000 0.6984 0.6982 0.6978 0.6976 0.6975
3624.000000 0.6972 0.6969 0.6968 0.6965 0.6962
3629.000000 0.6961 0.6958 0.6957 0.6955 0.6951
3634.000000 0.6950 0.6948 0.6946 0.6944 0.6942
3639.000000 0.6940 0.6938 0.6935 0.6933 0.6931
3644.000000 0.6928 0.6926 0.6925 0.6922 0.6921
3649.000000 0.6918 0.6917 0.6914 0.6911 0.6910
3654.000000 0.6908 0.6905 0.6901 0.6899 0.6897
3659.000000 0.6894 0.6891 0.6888 0.6885 0.6882
3664.000000 0.6880 0.6876 0.6874 0.6871 0.6868
3669.000000 0.6865 0.6861 0.6858 0.6857 0.6854
3674.000000 0.6851 0.6846 0.6842 0.6837 0.6833
3679.000000 0.6828 0.6824 0.6819 0.6815 0.6811
3684.000000 0.6807 0.6801 0.6798 0.6793 0.6789
3689.000000 0.6786 0.6784 0.6782 0.6781 0.6780
3694.000000 0.6778 0.6778 0.6776 0.6775 0.6774
3699.000000 0.6771 0.6771 0.6768 0.6768 0.6765
3704.000000 0.6765 0.6761 0.6760 0.6757 0.6754
3709.000000 0.6751 0.6748 0.6745 0.6743 0.6740
3714.000000 0.6737 0.6733 0.6730 0.6725 0.6722
3719.000000 0.6718 0.6715 0.6711 0.6708 0.6705
3724.000000 0.6701 0.6699 0.6696 0.6693 0.6690
3729.000000 0.6687 0.6685 0.6682 0.6678 0.6675
3734.000000 0.6674 0.6671 0.6668 0.6665 0.6662
3739.000000 0.6660 0.6657 0.6654 0.6651 0.6648
3744.000000 0.6646 0.6643 0.6640 0.6637 0.6634
3749.000000 0.6631 0.6628 0.6625 0.6622 0.6619
3754.000000 0.6618 0.6615 0.6611 0.6608 0.6606
3759.000000 0.6603 0.6601 0.6598 0.6596 0.6594
3764.000000 0.6592 0.6590 0.6588 0.6586 0.6584
3769.000000 0.6582 0.6580 0.6578 0.6575 0.6574
3774.000000 0.6571 0.6569 0.6568 0.6567 0.6565
3779.000000 0.6565 0.6564 0.6562 0.6561 0.6561
3784.000000 0.6561 0.6560 0.6558 0.6558 0.6557
3789.000000 0.6557 0.6557
##END=
